#------------------------------------------------------------------------------
#$Date: 2019-11-02 05:44:54 +0200 (Sat, 02 Nov 2019) $
#$Revision: 220739 $
#$URL: file:///home/coder/svn-repositories/cod/cif/4/12/74/4127470.cif $
#------------------------------------------------------------------------------
#
# This file is available in the Crystallography Open Database (COD),
# http://www.crystallography.net/
#
# All data on this site have been placed in the public domain by the
# contributors.
#
data_4127470
loop_
_publ_author_name
'Mato, Raquel'
'Manzano, Rub\'en'
'Reyes, Efraim'
'Carrillo, Luisa'
'Uria, Uxue'
'Vicario, Jose L.'
_publ_section_title
;
 Catalytic Enantioselective Transannular Morita-Baylis-Hillman Reaction.
;
_journal_issue                   24
_journal_name_full               'Journal of the American Chemical Society'
_journal_page_first              9495
_journal_page_last               9499
_journal_paper_doi               10.1021/jacs.9b03679
_journal_volume                  141
_journal_year                    2019
_chemical_absolute_configuration ad
_chemical_compound_source        'synthesis as described'
_chemical_formula_moiety         'C16 H18 O3'
_chemical_formula_sum            'C16 H18 O3'
_chemical_formula_weight         258.3
_chemical_name_systematic
;
 (S)-11a-hydroxy-7-methoxy-1,2,3,10,11,11a-hexahydro-5H-
dibenzo[a,d][7]annulen-5-one
;
_space_group_crystal_system      monoclinic
_space_group_IT_number           4
_space_group_name_Hall           'P 2yb'
_space_group_name_H-M_alt        'P 1 21 1'
_symmetry_space_group_name_Hall  'P 2yb'
_symmetry_space_group_name_H-M   'P 1 21 1'
_atom_sites_solution_hydrogens   geom
_atom_sites_solution_primary     direct
_atom_sites_solution_secondary   difmap
_audit_creation_date             2019-01-15T17:43:06-00:00
_audit_creation_method           'WinGX routine CIF_UPDATE'
_cell_angle_alpha                90
_cell_angle_beta                 91.6489(14)
_cell_angle_gamma                90
_cell_formula_units_Z            2
_cell_length_a                   9.33848(14)
_cell_length_b                   7.41455(12)
_cell_length_c                   9.70640(15)
_cell_measurement_reflns_used    6589
_cell_measurement_temperature    150.00(10)
_cell_measurement_theta_max      73.825
_cell_measurement_theta_min      5.983
_cell_volume                     671.799(18)
_computing_cell_refinement
;
        CrysAlisPro, Agilent Technologies,
        Version 1.171.36.24 (release 03-12-2012 CrysAlis171 .NET)
        (compiled Dec  3 2012,18:21:49)
;
_computing_data_collection
;
        CrysAlisPro, Agilent Technologies,
        Version 1.171.36.24 (release 03-12-2012 CrysAlis171 .NET)
        (compiled Dec  3 2012,18:21:49)
;
_computing_data_reduction
;
        CrysAlisPro, Agilent Technologies,
        Version 1.171.36.24 (release 03-12-2012 CrysAlis171 .NET)
        (compiled Dec  3 2012,18:21:49)
;
_computing_molecular_graphics    'Olex2 (Dolomanov et al., 2009)'
_computing_publication_material  'Olex2 (Dolomanov et al., 2009)'
_computing_structure_refinement  'ShelXL (Sheldrick, 2015)'
_computing_structure_solution    'ShelXS (Sheldrick, 2008)'
_diffrn_ambient_temperature      150.00(10)
_diffrn_detector_area_resol_mean 5.2012
_diffrn_measured_fraction_theta_full 0.977
_diffrn_measured_fraction_theta_max 0.977
_diffrn_measurement_details
;
#__ type_ start__ end____ width___ exp.time_
  1 omega  -56.00  -12.00   1.0000    1.0000
omega____ theta____ kappa____ phi______ frames
    -      -41.0756  -77.0000   60.0000 44

#__ type_ start__ end____ width___ exp.time_
  2 omega  -60.00  -34.00   1.0000    1.0000
omega____ theta____ kappa____ phi______ frames
    -      -41.0756  -77.0000 -120.0000 26

#__ type_ start__ end____ width___ exp.time_
  3 omega  -40.00  -10.00   1.0000    1.0000
omega____ theta____ kappa____ phi______ frames
    -      -41.0756  -77.0000  150.0000 30

#__ type_ start__ end____ width___ exp.time_
  4 omega  -53.00  -15.00   1.0000    1.0000
omega____ theta____ kappa____ phi______ frames
    -      -41.0756  -57.0000   90.0000 38

#__ type_ start__ end____ width___ exp.time_
  5 omega   16.00   57.00   1.0000    1.0000
omega____ theta____ kappa____ phi______ frames
    -       41.0756   38.0000   30.0000 41

#__ type_ start__ end____ width___ exp.time_
  6 omega   14.00   48.00   1.0000    1.0000
omega____ theta____ kappa____ phi______ frames
    -       41.0756   19.0000 -180.0000 34

#__ type_ start__ end____ width___ exp.time_
  7 omega  -31.00   70.00   1.0000    1.0000
omega____ theta____ kappa____ phi______ frames
    -       41.0756  -57.0000    0.0000 101

#__ type_ start__ end____ width___ exp.time_
  8 omega  -76.00  -50.00   1.0000    1.0000
omega____ theta____ kappa____ phi______ frames
    -      -83.0000  -77.0000 -150.0000 26

#__ type_ start__ end____ width___ exp.time_
  9 omega  -77.00  -51.00   1.0000    1.0000
omega____ theta____ kappa____ phi______ frames
    -      -83.0000  -75.0000  114.1098 26

#__ type_ start__ end____ width___ exp.time_
 10 omega  -81.00  -50.00   1.0000    1.0000
omega____ theta____ kappa____ phi______ frames
    -      -83.0000  -77.0000   90.0000 31

#__ type_ start__ end____ width___ exp.time_
 11 omega  -85.00  -56.00   1.0000    1.0000
omega____ theta____ kappa____ phi______ frames
    -      -83.0000  -61.0000  107.8590 29

#__ type_ start__ end____ width___ exp.time_
 12 omega -112.00  -73.00   1.0000    1.0000
omega____ theta____ kappa____ phi______ frames
    -      -83.0000 -125.0000    0.0000 39

#__ type_ start__ end____ width___ exp.time_
 13 omega  -79.00  -49.00   1.0000    1.0000
omega____ theta____ kappa____ phi______ frames
    -      -83.0000  -77.0000 -180.0000 30

#__ type_ start__ end____ width___ exp.time_
 14 omega  -74.00  -49.00   1.0000    1.0000
omega____ theta____ kappa____ phi______ frames
    -      -83.0000  -77.0000   60.0000 25

#__ type_ start__ end____ width___ exp.time_
 15 omega  -94.00  -52.00   1.0000    1.0000
omega____ theta____ kappa____ phi______ frames
    -      -83.0000  -67.0000   63.7881 42

#__ type_ start__ end____ width___ exp.time_
 16 omega  -81.00  -56.00   1.0000    1.0000
omega____ theta____ kappa____ phi______ frames
    -      -83.0000  -76.0000   81.8512 25

#__ type_ start__ end____ width___ exp.time_
 17 omega  -74.00  -49.00   1.0000    1.0000
omega____ theta____ kappa____ phi______ frames
    -      -83.0000  -77.0000  150.0000 25

#__ type_ start__ end____ width___ exp.time_
 18 omega -158.00 -117.00   1.0000    1.0000
omega____ theta____ kappa____ phi______ frames
    -      -83.0000 -125.0000    0.0000 41

#__ type_ start__ end____ width___ exp.time_
 19 omega  -85.00  -54.00   1.0000    1.0000
omega____ theta____ kappa____ phi______ frames
    -      -83.0000  -52.0000  147.2217 31

#__ type_ start__ end____ width___ exp.time_
 20 omega   93.00  120.00   1.0000    1.0000
omega____ theta____ kappa____ phi______ frames
    -      108.3609   45.0000 -120.0000 27

#__ type_ start__ end____ width___ exp.time_
 21 omega   78.00  104.00   1.0000    1.0000
omega____ theta____ kappa____ phi______ frames
    -      108.3609   77.0000  120.0000 26

#__ type_ start__ end____ width___ exp.time_
 22 omega   79.00  157.00   1.0000    1.0000
omega____ theta____ kappa____ phi______ frames
    -      108.3609   77.0000   90.0000 78

#__ type_ start__ end____ width___ exp.time_
 23 omega   76.00  102.00   1.0000    1.0000
omega____ theta____ kappa____ phi______ frames
    -      108.3609   77.0000 -180.0000 26

#__ type_ start__ end____ width___ exp.time_
 24 omega   81.00  120.00   1.0000    1.0000
omega____ theta____ kappa____ phi______ frames
    -      108.3609   61.0000  150.0000 39

#__ type_ start__ end____ width___ exp.time_
 25 omega   77.00  142.00   1.0000    1.0000
omega____ theta____ kappa____ phi______ frames
    -      108.3609   77.0000   60.0000 65

#__ type_ start__ end____ width___ exp.time_
 26 omega   37.00   63.00   1.0000    1.0000
omega____ theta____ kappa____ phi______ frames
    -      108.3609  -45.0000   60.0000 26

#__ type_ start__ end____ width___ exp.time_
 27 omega   80.00  157.00   1.0000    1.0000
omega____ theta____ kappa____ phi______ frames
    -      108.3609  125.0000  -60.0000 77

#__ type_ start__ end____ width___ exp.time_
 28 omega   80.00  105.00   1.0000    1.0000
omega____ theta____ kappa____ phi______ frames
    -      108.3609   61.0000 -180.0000 25

#__ type_ start__ end____ width___ exp.time_
 29 omega   78.00  155.00   1.0000    1.0000
omega____ theta____ kappa____ phi______ frames
    -      108.3609   61.0000 -150.0000 77

#__ type_ start__ end____ width___ exp.time_
 30 omega   78.00  105.00   1.0000    1.0000
omega____ theta____ kappa____ phi______ frames
    -      108.3609   61.0000 -120.0000 27

#__ type_ start__ end____ width___ exp.time_
 31 omega   35.00  118.00   1.0000    1.0000
omega____ theta____ kappa____ phi______ frames
    -      108.3609 -125.0000    0.0000 83

#__ type_ start__ end____ width___ exp.time_
 32 omega   35.00   68.00   1.0000    1.0000
omega____ theta____ kappa____ phi______ frames
    -      108.3609  -45.0000 -150.0000 33

#__ type_ start__ end____ width___ exp.time_
 33 omega   86.00  158.00   1.0000    1.0000
omega____ theta____ kappa____ phi______ frames
    -      108.3609  125.0000  -30.0000 72

#__ type_ start__ end____ width___ exp.time_
 34 omega   77.00  102.00   1.0000    1.0000
omega____ theta____ kappa____ phi______ frames
    -      108.3609   77.0000  150.0000 25

#__ type_ start__ end____ width___ exp.time_
 35 omega   45.00   97.00   1.0000    1.0000
omega____ theta____ kappa____ phi______ frames
    -      108.3609  -94.0000   60.0000 52

#__ type_ start__ end____ width___ exp.time_
 36 omega  -83.00   -6.00   1.0000    1.0000
omega____ theta____ kappa____ phi______ frames
    -      -41.0756  125.0000 -150.0000 77

#__ type_ start__ end____ width___ exp.time_
 37 omega   73.00  108.00   1.0000    1.0000
omega____ theta____ kappa____ phi______ frames
    -       41.0756  146.0000  -32.0000 35

#__ type_ start__ end____ width___ exp.time_
 38 omega  -37.00   -8.00   1.0000    1.0000
omega____ theta____ kappa____ phi______ frames
    -      -83.0000   30.0000   30.0000 29

#__ type_ start__ end____ width___ exp.time_
 39 omega   76.00  108.00   1.0000    1.0000
omega____ theta____ kappa____ phi______ frames
    -      108.3609  -94.0000 -180.0000 32

#__ type_ start__ end____ width___ exp.time_
 40 omega   28.00   54.00   1.0000    1.0000
omega____ theta____ kappa____ phi______ frames
    -      108.3609  -94.0000   90.0000 26

#__ type_ start__ end____ width___ exp.time_
 41 omega   82.00  109.00   1.0000    1.0000
omega____ theta____ kappa____ phi______ frames
    -      108.3609  -94.0000   90.0000 27

#__ type_ start__ end____ width___ exp.time_
 42 omega   37.00   99.00   1.0000    1.0000
omega____ theta____ kappa____ phi______ frames
    -      108.3609 -125.0000  -30.0000 62

#__ type_ start__ end____ width___ exp.time_
 43 omega   42.00   76.00   1.0000    1.0000
omega____ theta____ kappa____ phi______ frames
    -      108.3609  -45.0000  -60.0000 34

#__ type_ start__ end____ width___ exp.time_
 44 omega   96.00  137.00   1.0000    1.0000
omega____ theta____ kappa____ phi______ frames
    -      108.3609  -61.0000  -90.0000 41

#__ type_ start__ end____ width___ exp.time_
 45 omega -115.00  -87.00   1.0000    1.0000
omega____ theta____ kappa____ phi______ frames
    -      -41.0756  -57.0000  -60.0000 28

;
_diffrn_measurement_device_type  'SuperNova, Single source at offset), Atlas'
_diffrn_measurement_method       '\w scans'
_diffrn_orient_matrix_UB_11      -0.138071
_diffrn_orient_matrix_UB_12      0.0109328
_diffrn_orient_matrix_UB_13      0.082625
_diffrn_orient_matrix_UB_21      -0.0904261
_diffrn_orient_matrix_UB_22      -0.0114658
_diffrn_orient_matrix_UB_23      -0.135039
_diffrn_orient_matrix_UB_31      -0.0021456
_diffrn_orient_matrix_UB_32      -0.2071887
_diffrn_orient_matrix_UB_33      0.0117808
_diffrn_radiation_monochromator  mirror
_diffrn_radiation_type           CuK\a
_diffrn_radiation_wavelength     1.54184
_diffrn_reflns_av_R_equivalents  0.017
_diffrn_reflns_limit_h_max       11
_diffrn_reflns_limit_h_min       -11
_diffrn_reflns_limit_k_max       7
_diffrn_reflns_limit_k_min       -8
_diffrn_reflns_limit_l_max       11
_diffrn_reflns_limit_l_min       -11
_diffrn_reflns_number            6922
_diffrn_reflns_theta_full        66.48
_diffrn_reflns_theta_max         66.48
_diffrn_reflns_theta_min         6.49
_diffrn_source                   'SuperNova (Cu) X-ray Source'
_exptl_absorpt_coefficient_mu    0.703
_exptl_absorpt_correction_T_max  0.891
_exptl_absorpt_correction_T_min  0.781
_exptl_absorpt_correction_type   analytical
_exptl_absorpt_process_details
;
        CrysAlisPro, Agilent Technologies,
        Version 1.171.36.24 (release 03-12-2012 CrysAlis171 .NET)
        (compiled Dec  3 2012,18:21:49)
Analytical numeric absorption correction using a multifaceted crystal
                        model based on expressions derived by R.C. Clark & J.S.
        (Clark, R. C. & Reid, J. S. (1995). Acta Cryst. A51, 887-897)
;
_exptl_crystal_colour            colourless
_exptl_crystal_density_diffrn    1.277
_exptl_crystal_density_method    'not measured'
_exptl_crystal_description       needle
_exptl_crystal_F_000             276
_exptl_crystal_size_max          0.5757
_exptl_crystal_size_mid          0.2967
_exptl_crystal_size_min          0.2109
_refine_diff_density_max         0.16
_refine_diff_density_min         -0.116
_refine_diff_density_rms         0.024
_refine_ls_abs_structure_details 'Flack H D (1983), Acta Cryst. A39, 876-881'
_refine_ls_abs_structure_Flack   -0.01(14)
_refine_ls_extinction_method     none
_refine_ls_goodness_of_fit_ref   1.022
_refine_ls_hydrogen_treatment    constr
_refine_ls_matrix_type           full
_refine_ls_number_parameters     174
_refine_ls_number_reflns         2251
_refine_ls_number_restraints     1
_refine_ls_restrained_S_all      1.022
_refine_ls_R_factor_all          0.0246
_refine_ls_R_factor_gt           0.0244
_refine_ls_shift/su_max          0.014
_refine_ls_shift/su_mean         0.002
_refine_ls_structure_factor_coef Fsqd
_refine_ls_weighting_details
'calc w=1/[\s^2^(Fo^2^)+(0.0380P)^2^+0.0950P] where P=(Fo^2^+2Fc^2^)/3'
_refine_ls_weighting_scheme      calc
_refine_ls_wR_factor_gt          0.0643
_refine_ls_wR_factor_ref         0.0644
_reflns_number_gt                2239
_reflns_number_total             2251
_reflns_threshold_expression     >2sigma(I)
_cod_data_source_file            ja9b03679_si_002.cif
_cod_data_source_block           a20160444_rm597a
_cod_database_code               4127470
loop_
_symmetry_equiv_pos_as_xyz
'x, y, z'
'-x, y+1/2, -z'
loop_
_atom_site_label
_atom_site_type_symbol
_atom_site_fract_x
_atom_site_fract_y
_atom_site_fract_z
_atom_site_U_iso_or_equiv
_atom_site_adp_type
_atom_site_occupancy
_atom_site_calc_flag
O3 O 0.42438(9) 0.44938(14) 0.40865(9) 0.0319(2) Uani 1 d
O1 O -0.13997(9) 0.28528(12) 0.22891(8) 0.0244(2) Uani 1 d
H1 H -0.1302 0.1992 0.177 0.037 Uiso 1 calc
O2 O 0.12520(9) 0.51864(14) -0.01728(8) 0.0280(2) Uani 1 d
C4 C 0.09355(12) 0.55562(15) 0.21977(11) 0.0205(3) Uani 1 d
C5 C 0.07778(13) 0.68069(17) 0.44534(12) 0.0241(3) Uani 1 d
H5 H 0.0281 0.7464 0.5101 0.029 Uiso 1 calc
C6 C 0.03831(12) 0.52411(17) 0.07517(11) 0.0218(2) Uani 1 d
C7 C 0.23100(12) 0.49361(17) 0.25308(11) 0.0223(3) Uani 1 d
H7 H 0.2833 0.4335 0.1871 0.027 Uiso 1 calc
C8 C -0.11813(12) 0.49748(16) 0.04358(11) 0.0225(3) Uani 1 d
C9 C 0.01390(13) 0.65033(17) 0.31706(11) 0.0219(3) Uani 1 d
C10 C 0.29041(12) 0.52096(18) 0.38429(12) 0.0229(2) Uani 1 d
C11 C 0.21392(13) 0.61627(18) 0.48081(12) 0.0241(3) Uani 1 d
H11 H 0.2533 0.6369 0.5685 0.029 Uiso 1 calc
C12 C -0.16551(14) 0.5239(2) -0.08608(13) 0.0303(3) Uani 1 d
H12 H -0.0997 0.5622 -0.15 0.036 Uiso 1 calc
C13 C -0.13381(14) 0.72088(17) 0.28281(13) 0.0265(3) Uani 1 d
H13A H -0.1308 0.7907 0.1984 0.032 Uiso 1 calc
H13B H -0.1625 0.8014 0.3558 0.032 Uiso 1 calc
C14 C 0.48687(14) 0.4730(2) 0.54358(12) 0.0312(3) Uani 1 d
H14A H 0.5785 0.4142 0.5489 0.047 Uiso 1 calc
H14B H 0.4252 0.4212 0.6104 0.047 Uiso 1 calc
H14C H 0.4989 0.5993 0.5621 0.047 Uiso 1 calc
C15 C -0.21429(12) 0.42898(17) 0.15614(12) 0.0241(3) Uani 1 d
C16 C -0.41865(14) 0.47805(19) -0.01660(15) 0.0380(3) Uani 1 d
H16A H -0.5097 0.4298 -0.0502 0.046 Uiso 1 calc
H16B H -0.4359 0.5958 0.0233 0.046 Uiso 1 calc
C17 C -0.35393(14) 0.35316(19) 0.09264(14) 0.0308(3) Uani 1 d
H17A H -0.335 0.2366 0.0515 0.037 Uiso 1 calc
H17B H -0.4223 0.3354 0.1648 0.037 Uiso 1 calc
C18 C -0.31707(15) 0.4963(2) -0.13557(14) 0.0388(3) Uani 1 d
H18A H -0.3227 0.3883 -0.1919 0.047 Uiso 1 calc
H18B H -0.3467 0.5977 -0.1927 0.047 Uiso 1 calc
C19 C -0.24639(13) 0.57260(18) 0.26467(13) 0.0298(3) Uani 1 d
H19A H -0.3374 0.6286 0.24 0.036 Uiso 1 calc
H19B H -0.2572 0.5129 0.3527 0.036 Uiso 1 calc
loop_
_atom_site_aniso_label
_atom_site_aniso_U_11
_atom_site_aniso_U_22
_atom_site_aniso_U_33
_atom_site_aniso_U_23
_atom_site_aniso_U_13
_atom_site_aniso_U_12
O3 0.0249(4) 0.0423(6) 0.0279(4) -0.0053(4) -0.0072(3) 0.0059(4)
O1 0.0277(5) 0.0237(5) 0.0217(4) 0.0022(3) -0.0007(3) 0.0009(4)
O2 0.0324(4) 0.0327(5) 0.0188(4) -0.0004(4) 0.0026(3) -0.0033(4)
C4 0.0238(6) 0.0190(7) 0.0187(5) 0.0004(4) -0.0008(4) -0.0042(4)
C5 0.0282(6) 0.0233(7) 0.0210(6) -0.0046(5) 0.0014(5) 0.0000(5)
C6 0.0293(6) 0.0168(6) 0.0192(5) 0.0005(5) -0.0009(5) -0.0014(5)
C7 0.0237(5) 0.0223(6) 0.0210(5) -0.0022(4) 0.0024(4) -0.0026(5)
C8 0.0280(6) 0.0166(6) 0.0226(5) -0.0008(4) -0.0054(5) 0.0003(5)
C9 0.0257(6) 0.0190(6) 0.0211(6) 0.0008(4) -0.0002(4) -0.0021(5)
C10 0.0213(5) 0.0235(6) 0.0237(5) 0.0006(5) -0.0018(4) -0.0018(5)
C11 0.0287(6) 0.0259(7) 0.0176(5) -0.0003(5) -0.0034(4) -0.0036(5)
C12 0.0380(7) 0.0242(7) 0.0283(6) 0.0031(5) -0.0089(5) -0.0042(5)
C13 0.0306(6) 0.0226(7) 0.0261(6) -0.0052(5) -0.0023(5) 0.0043(5)
C14 0.0296(6) 0.0363(9) 0.0272(6) 0.0006(5) -0.0095(5) 0.0009(6)
C15 0.0217(5) 0.0230(6) 0.0274(6) 0.0005(5) -0.0037(5) 0.0023(5)
C16 0.0298(6) 0.0293(8) 0.0536(8) -0.0048(6) -0.0186(6) 0.0022(6)
C17 0.0241(7) 0.0264(7) 0.0417(7) -0.0024(6) -0.0042(5) -0.0022(5)
C18 0.0447(8) 0.0299(8) 0.0404(7) 0.0035(6) -0.0245(6) -0.0001(7)
C19 0.0230(6) 0.0322(8) 0.0344(7) -0.0063(5) 0.0005(5) 0.0033(5)
loop_
_atom_type_symbol
_atom_type_description
_atom_type_scat_dispersion_real
_atom_type_scat_dispersion_imag
_atom_type_scat_source
C C 0.0181 0.0091 'International Tables Vol C Tables 4.2.6.8 and 6.1.1.4'
H H 0 0 'International Tables Vol C Tables 4.2.6.8 and 6.1.1.4'
O O 0.0492 0.0322 'International Tables Vol C Tables 4.2.6.8 and 6.1.1.4'
loop_
_exptl_crystal_face_index_h
_exptl_crystal_face_index_k
_exptl_crystal_face_index_l
_exptl_crystal_face_perp_dist
1 -2 1 0.1305
-3 4 -3 0.1224
5 0 4 0.2362
-4 1 5 0.1086
0 -1 0 0.1597
4 -1 -4 0.0809
3 4 -3 0.1403
-1 2 1 0.1374
2 4 1 0.1799
-5 2 -3 0.1771
loop_
_geom_angle_atom_site_label_1
_geom_angle_atom_site_label_2
_geom_angle_atom_site_label_3
_geom_angle
C10 O3 C14 117.16(9)
C7 C4 C6 117.11(10)
C7 C4 C9 120.70(10)
C9 C4 C6 122.13(10)
C9 C5 C11 122.26(11)
O2 C6 C4 118.19(10)
O2 C6 C8 120.51(10)
C8 C6 C4 121.30(9)
C10 C7 C4 120.38(10)
C6 C8 C15 119.32(9)
C12 C8 C6 117.91(11)
C12 C8 C15 122.62(11)
C4 C9 C13 121.65(10)
C5 C9 C4 117.57(11)
C5 C9 C13 120.76(11)
O3 C10 C7 116.06(10)
O3 C10 C11 124.38(10)
C11 C10 C7 119.57(11)
C10 C11 C5 119.47(11)
C8 C12 C18 124.54(12)
C9 C13 C19 113.51(11)
O1 C15 C8 108.19(9)
O1 C15 C17 108.50(10)
O1 C15 C19 106.08(9)
C8 C15 C17 110.27(10)
C8 C15 C19 113.11(10)
C17 C15 C19 110.49(10)
C18 C16 C17 109.85(11)
C16 C17 C15 111.94(11)
C12 C18 C16 111.92(10)
C13 C19 C15 115.55(10)
loop_
_geom_bond_atom_site_label_1
_geom_bond_atom_site_label_2
_geom_bond_distance
O3 C10 1.3732(14)
O3 C14 1.4292(14)
O1 C15 1.4448(15)
O2 C6 1.2277(14)
C4 C6 1.4997(15)
C4 C7 1.3927(16)
C4 C9 1.4066(16)
C5 C9 1.3836(16)
C5 C11 1.3920(18)
C6 C8 1.4971(16)
C7 C10 1.3893(16)
C8 C12 1.3365(16)
C8 C15 1.5214(17)
C9 C13 1.5035(17)
C10 C11 1.3878(17)
C12 C18 1.4956(18)
C13 C19 1.5279(18)
C15 C17 1.5330(16)
C15 C19 1.5335(17)
C16 C17 1.5200(19)
C16 C18 1.521(2)
loop_
_refln_index_h
_refln_index_k
_refln_index_l
_refln_F_squared_calc
_refln_F_squared_meas
_refln_F_squared_sigma
_refln_observed_status
0 -8 0 38.14 33.18 0.79 o
1 -8 0 132.25 129.51 1.25 o
2 -8 0 9.83 10.01 0.33 o
3 -8 0 2.92 3.23 0.25 o
4 -8 0 0.10 0.22 0.11 o
1 -7 0 38.59 40.62 0.79 o
2 -7 0 106.15 103.81 1.42 o
3 -7 0 126.04 127.08 1.52 o
4 -7 0 113.85 117.46 1.72 o
5 -7 0 20.19 21.63 0.86 o
6 -7 0 9.29 8.09 0.39 o
0 -6 0 231.74 229.36 2.46 o
1 -6 0 125.57 124.42 2.01 o
2 -6 0 20.00 19.43 0.44 o
3 -6 0 57.93 60.25 0.89 o
4 -6 0 45.75 45.24 0.89 o
5 -6 0 105.32 108.72 1.54 o
6 -6 0 20.49 18.76 0.61 o
7 -6 0 10.53 9.25 0.39 o
8 -6 0 0.91 0.68 0.12 o
1 -5 0 9.25 7.89 0.52 o
2 -5 0 71.34 69.06 1.49 o
3 -5 0 37.45 36.54 0.60 o
4 -5 0 73.44 73.23 0.82 o
5 -5 0 161.56 159.22 2.58 o
6 -5 0 48.69 44.88 1.19 o
7 -5 0 2.52 2.86 0.29 o
8 -5 0 15.73 15.62 0.79 o
9 -5 0 16.01 20.45 0.58 o
0 -4 0 1237.20 1223.64 10.03 o
1 -4 0 287.13 293.96 1.83 o
2 -4 0 159.36 151.38 1.87 o
3 -4 0 245.29 246.09 5.28 o
4 -4 0 206.78 207.93 2.94 o
5 -4 0 269.29 275.44 3.23 o
6 -4 0 11.86 11.53 0.42 o
7 -4 0 170.70 165.08 2.86 o
8 -4 0 29.41 33.67 1.58 o
9 -4 0 6.13 7.24 0.53 o
1 -3 0 78.98 77.72 1.70 o
2 -3 0 124.94 130.91 1.56 o
3 -3 0 36.30 41.50 1.64 o
4 -3 0 46.63 51.38 1.23 o
5 -3 0 6.52 4.89 0.31 o
6 -3 0 73.44 75.21 1.11 o
7 -3 0 4.65 3.96 0.36 o
8 -3 0 30.13 27.99 1.16 o
9 -3 0 70.56 73.39 1.74 o
10 -3 0 7.61 6.99 0.46 o
2 -2 0 67.17 68.07 0.92 o
3 -2 0 58.54 63.45 0.79 o
4 -2 0 263.80 279.07 1.84 o
5 -2 0 33.95 32.89 0.75 o
6 -2 0 158.36 168.00 2.45 o
7 -2 0 5.33 5.93 0.29 o
8 -2 0 11.53 10.67 0.56 o
9 -2 0 14.13 14.56 0.63 o
10 -2 0 33.60 32.68 1.02 o
3 -1 0 291.15 276.92 1.67 o
4 -1 0 137.77 150.67 1.40 o
5 -1 0 452.47 505.86 12.28 o
6 -1 0 47.46 52.59 1.94 o
7 -1 0 4.03 4.26 0.29 o
8 -1 0 13.88 13.11 0.62 o
9 -1 0 1.86 1.54 0.23 o
10 -1 0 0.32 0.41 0.15 o
11 -1 0 28.95 27.56 1.06 o
2 0 0 129.98 130.15 1.36 o
4 0 0 252.23 252.19 1.73 o
5 0 0 47.95 43.51 1.02 o
6 0 0 33.58 39.38 1.53 o
7 0 0 77.12 76.51 1.19 o
8 0 0 63.28 60.51 2.06 o
9 0 0 104.50 94.40 3.09 o
10 0 0 0.89 1.25 0.37 o
11 0 0 68.81 75.28 3.15 o
2 1 0 439.71 428.33 2.08 o
3 1 0 292.75 283.10 2.22 o
4 1 0 137.03 147.72 1.98 o
5 1 0 455.80 507.78 2.30 o
6 1 0 46.51 50.01 1.94 o
7 1 0 3.87 4.48 0.49 o
8 1 0 13.72 13.04 0.82 o
9 1 0 2.03 1.47 0.44 o
10 1 0 0.40 0.57 0.24 o
11 1 0 28.88 26.07 0.74 o
2 2 0 66.89 66.83 0.54 o
3 2 0 58.73 62.11 1.10 o
4 2 0 262.51 283.14 2.21 o
5 2 0 33.68 32.81 0.76 o
6 2 0 159.10 172.17 2.48 o
7 2 0 5.33 5.47 0.31 o
8 2 0 11.50 9.53 0.70 o
9 2 0 14.22 14.68 1.25 o
10 2 0 33.58 31.05 1.00 o
1 3 0 80.46 79.21 1.37 o
2 3 0 126.95 132.20 1.24 o
3 3 0 36.43 39.89 0.95 o
4 3 0 45.92 50.75 0.70 o
5 3 0 6.67 4.42 0.25 o
6 3 0 72.81 76.38 1.19 o
7 3 0 4.67 4.28 0.32 o
8 3 0 29.77 26.76 1.02 o
9 3 0 70.23 72.73 2.60 o
10 3 0 8.06 7.36 0.47 o
1 4 0 286.20 294.68 1.93 o
2 4 0 159.20 154.77 2.87 o
3 4 0 244.08 246.32 2.63 o
4 4 0 206.87 207.52 1.53 o
5 4 0 268.02 272.83 2.50 o
6 4 0 11.91 11.41 0.48 o
7 4 0 170.57 171.65 2.09 o
8 4 0 29.47 32.26 0.84 o
9 4 0 6.00 6.22 0.70 o
1 5 0 9.42 7.65 0.56 o
2 5 0 71.69 72.16 1.42 o
3 5 0 37.25 38.09 0.95 o
4 5 0 73.21 76.12 1.40 o
5 5 0 163.07 169.19 2.69 o
6 5 0 49.13 47.02 1.43 o
7 5 0 2.55 2.78 0.29 o
8 5 0 15.61 14.24 0.56 o
9 5 0 15.95 19.29 0.97 o
1 6 0 125.87 129.87 3.16 o
2 6 0 20.11 20.34 1.35 o
4 6 0 46.11 46.46 1.76 o
5 6 0 105.61 110.20 2.06 o
6 6 0 20.40 18.33 1.33 o
7 6 0 10.88 9.96 0.49 o
8 6 0 0.92 1.04 0.23 o
4 7 0 114.11 123.03 3.07 o
5 7 0 20.37 21.47 1.24 o
6 7 0 9.63 8.28 0.77 o
-4 -8 1 95.21 93.80 1.52 o
-3 -8 1 76.74 78.22 1.40 o
-2 -8 1 9.19 8.31 0.34 o
-1 -8 1 63.81 61.21 1.12 o
0 -8 1 41.41 40.44 0.85 o
1 -8 1 12.76 13.45 0.36 o
2 -8 1 21.41 22.11 0.66 o
3 -8 1 131.61 135.63 1.92 o
4 -8 1 28.26 29.35 0.83 o
-6 -7 1 1.62 1.51 0.21 o
-5 -7 1 33.97 35.00 1.04 o
-4 -7 1 98.96 105.39 1.37 o
-3 -7 1 64.63 62.49 1.22 o
-2 -7 1 20.17 20.97 0.63 o
-1 -7 1 7.03 6.91 0.31 o
0 -7 1 43.25 44.64 0.70 o
1 -7 1 68.75 66.17 0.85 o
2 -7 1 35.05 35.02 0.69 o
3 -7 1 109.27 111.33 1.50 o
4 -7 1 18.97 18.46 0.68 o
5 -7 1 45.31 45.48 1.03 o
6 -7 1 13.46 13.60 0.50 o
-8 -6 1 9.77 11.06 0.41 o
-7 -6 1 23.88 23.56 0.62 o
-6 -6 1 9.68 9.72 0.45 o
-5 -6 1 30.63 31.56 0.84 o
-4 -6 1 100.19 98.52 1.30 o
-3 -6 1 78.41 78.37 1.03 o
-2 -6 1 115.20 107.90 1.14 o
-1 -6 1 131.79 132.54 1.29 o
0 -6 1 166.50 160.45 1.61 o
1 -6 1 84.22 83.10 1.28 o
2 -6 1 32.43 31.81 0.61 o
3 -6 1 58.39 58.14 0.97 o
4 -6 1 68.62 72.84 1.07 o
5 -6 1 31.84 32.89 0.92 o
6 -6 1 32.26 32.45 0.67 o
7 -6 1 20.76 21.39 0.62 o
8 -6 1 4.19 4.18 0.25 o
-9 -5 1 11.13 10.98 0.42 o
-8 -5 1 22.21 21.04 0.70 o
-7 -5 1 22.57 20.89 0.80 o
-6 -5 1 58.39 61.59 1.69 o
-5 -5 1 297.58 296.16 2.56 o
-4 -5 1 5.24 5.67 0.25 o
-3 -5 1 46.63 48.11 0.65 o
-2 -5 1 49.32 45.74 1.27 o
-1 -5 1 144.58 143.39 3.07 o
0 -5 1 42.60 41.54 1.20 o
1 -5 1 33.51 35.68 0.86 o
2 -5 1 28.26 29.21 0.63 o
3 -5 1 199.12 199.02 1.61 o
4 -5 1 87.93 85.54 1.02 o
5 -5 1 2.78 2.83 0.25 o
6 -5 1 52.39 51.25 1.19 o
7 -5 1 37.71 35.29 0.83 o
8 -5 1 4.92 5.26 0.44 o
9 -5 1 21.98 21.58 0.58 o
-9 -4 1 23.91 26.10 0.99 o
-8 -4 1 17.34 16.76 0.90 o
-7 -4 1 31.27 33.47 0.91 o
-6 -4 1 12.45 13.70 0.50 o
-5 -4 1 98.30 91.51 1.20 o
-4 -4 1 52.98 50.62 2.15 o
-3 -4 1 280.92 276.44 2.19 o
-2 -4 1 574.06 557.92 3.87 o
-1 -4 1 674.52 694.84 5.76 o
0 -4 1 731.39 740.25 4.32 o
1 -4 1 177.33 179.20 1.69 o
2 -4 1 196.27 200.70 2.07 o
3 -4 1 7.02 6.89 0.43 o
4 -4 1 214.53 219.11 3.05 o
5 -4 1 19.51 19.03 0.54 o
6 -4 1 46.44 46.50 1.03 o
7 -4 1 11.54 12.12 0.77 o
8 -4 1 26.17 27.31 1.11 o
9 -4 1 67.00 73.80 3.49 o
-10 -3 1 10.24 9.56 0.53 o
-9 -3 1 17.98 17.85 0.95 o
-8 -3 1 19.35 20.46 0.82 o
-7 -3 1 16.39 15.09 0.59 o
-6 -3 1 548.95 564.18 3.38 o
-5 -3 1 137.91 133.78 2.16 o
-4 -3 1 13.10 15.26 0.50 o
-3 -3 1 124.13 126.92 1.35 o
-2 -3 1 617.59 615.58 3.41 o
-1 -3 1 41.92 42.31 0.68 o
0 -3 1 78.82 81.31 0.83 o
1 -3 1 129.51 135.66 1.51 o
2 -3 1 64.18 56.23 1.22 o
3 -3 1 290.14 303.10 2.11 o
4 -3 1 462.36 496.99 4.46 o
5 -3 1 2.31 1.85 0.20 o
6 -3 1 9.14 8.23 0.31 o
7 -3 1 24.84 24.13 0.83 o
8 -3 1 51.99 49.66 1.19 o
9 -3 1 39.23 41.47 1.00 o
10 -3 1 2.85 2.11 0.34 o
-10 -2 1 9.22 8.75 0.53 o
-9 -2 1 27.31 27.29 1.07 o
-8 -2 1 47.86 49.34 1.24 o
-7 -2 1 144.13 143.95 1.56 o
-6 -2 1 118.15 111.67 3.44 o
-5 -2 1 163.75 155.82 2.15 o
-4 -2 1 297.69 302.20 2.20 o
-3 -2 1 64.01 61.26 0.77 o
1 -2 1 266.05 268.95 1.40 o
2 -2 1 84.55 78.16 1.12 o
3 -2 1 580.71 616.31 3.35 o
4 -2 1 443.97 476.92 4.33 o
5 -2 1 52.79 50.35 1.18 o
6 -2 1 104.79 108.43 1.65 o
7 -2 1 26.20 26.31 0.65 o
8 -2 1 18.78 20.73 0.79 o
9 -2 1 19.87 17.07 0.69 o
10 -2 1 17.11 18.97 0.73 o
-11 -1 1 7.43 6.95 0.57 o
-10 -1 1 0.83 1.02 0.21 o
-9 -1 1 8.03 8.55 0.49 o
-8 -1 1 7.50 7.81 0.41 o
-7 -1 1 0.98 0.93 0.20 o
-6 -1 1 254.19 257.03 4.39 o
-5 -1 1 163.97 162.04 3.11 o
-4 -1 1 208.48 205.23 4.23 o
-3 -1 1 39.91 38.62 0.55 o
2 -1 1 164.39 155.72 2.36 o
3 -1 1 186.73 178.61 2.97 o
5 -1 1 100.15 112.43 1.47 o
6 -1 1 205.43 216.42 5.31 o
7 -1 1 17.94 17.27 0.74 o
8 -1 1 39.15 33.45 0.85 o
9 -1 1 204.01 194.99 2.79 o
10 -1 1 19.90 19.96 0.82 o
-11 0 1 0.68 1.19 0.25 o
-10 0 1 37.30 38.75 1.19 o
-9 0 1 51.07 55.27 2.28 o
-8 0 1 38.14 36.04 1.86 o
-7 0 1 103.63 94.46 1.58 o
-6 0 1 198.79 204.55 3.62 o
-5 0 1 213.97 221.40 3.33 o
-4 0 1 253.38 245.33 1.58 o
-3 0 1 12.87 11.01 0.34 o
-1 0 1 313.46 295.23 1.71 o
2 0 1 108.23 96.46 1.19 o
3 0 1 21.19 25.11 0.76 o
5 0 1 505.80 547.63 5.58 o
6 0 1 4.52 5.41 0.55 o
7 0 1 4.48 4.45 0.44 o
8 0 1 9.14 8.50 0.63 o
9 0 1 250.27 241.97 2.70 o
10 0 1 11.23 11.64 0.52 o
11 0 1 12.54 12.06 0.48 o
-11 1 1 7.21 6.17 0.39 o
-10 1 1 0.80 1.14 0.23 o
-9 1 1 8.28 7.65 0.90 o
-8 1 1 7.73 7.22 1.16 o
-7 1 1 1.11 0.69 0.16 o
-6 1 1 253.83 264.26 2.52 o
-5 1 1 165.13 167.31 1.74 o
-4 1 1 207.22 201.55 3.15 o
-3 1 1 39.42 37.24 1.04 o
2 1 1 162.87 150.42 0.72 o
3 1 1 186.80 179.53 1.59 o
5 1 1 101.11 110.47 1.90 o
6 1 1 205.00 201.00 3.96 o
7 1 1 17.35 17.50 0.71 o
8 1 1 39.11 35.94 2.00 o
9 1 1 204.63 187.24 2.98 o
10 1 1 19.98 18.88 0.67 o
-10 2 1 9.13 7.74 0.78 o
-9 2 1 26.72 26.32 0.87 o
-8 2 1 47.23 50.11 1.59 o
-7 2 1 143.69 142.00 1.96 o
-6 2 1 117.26 111.62 1.64 o
-5 2 1 164.04 156.93 1.35 o
-4 2 1 298.55 305.94 2.12 o
-3 2 1 64.58 62.12 1.60 o
-2 2 1 894.07 886.96 4.50 o
1 2 1 265.67 270.61 2.80 o
2 2 1 84.06 75.27 1.60 o
3 2 1 583.18 601.06 9.73 o
4 2 1 443.03 478.94 2.19 o
5 2 1 52.15 50.08 0.94 o
6 2 1 104.35 102.75 1.54 o
7 2 1 26.10 25.80 0.74 o
8 2 1 18.80 19.65 0.98 o
9 2 1 20.04 17.71 0.94 o
10 2 1 17.22 18.99 0.55 o
-10 3 1 10.42 8.49 0.74 o
-9 3 1 18.13 16.80 0.95 o
-8 3 1 18.97 19.50 0.66 o
-7 3 1 16.63 15.42 0.60 o
-6 3 1 552.15 568.91 4.90 o
-5 3 1 135.76 131.61 1.38 o
-4 3 1 13.15 14.33 0.42 o
-3 3 1 123.06 127.75 1.67 o
-2 3 1 616.78 612.94 2.54 o
-1 3 1 41.09 42.91 0.74 o
0 3 1 78.59 83.91 1.06 o
1 3 1 130.29 137.66 2.12 o
2 3 1 63.94 55.29 1.61 o
3 3 1 292.05 308.64 2.81 o
4 3 1 465.42 497.57 3.56 o
5 3 1 2.43 2.05 0.18 o
6 3 1 9.36 8.80 0.41 o
7 3 1 24.85 24.85 0.73 o
8 3 1 52.45 51.11 1.26 o
9 3 1 39.46 41.68 1.93 o
10 3 1 2.92 2.17 0.18 o
-9 4 1 24.08 26.90 0.78 o
-8 4 1 16.96 16.77 0.70 o
-7 4 1 30.76 31.81 0.85 o
-6 4 1 12.40 13.05 0.61 o
-5 4 1 97.76 96.28 1.57 o
-4 4 1 53.32 50.69 1.27 o
-3 4 1 278.32 294.02 2.68 o
-2 4 1 571.87 572.18 4.14 o
-1 4 1 677.75 703.03 10.25 o
0 4 1 729.99 723.99 4.11 o
1 4 1 177.88 182.83 2.94 o
2 4 1 195.76 194.27 3.46 o
3 4 1 6.96 6.42 0.46 o
4 4 1 214.07 218.40 1.75 o
5 4 1 19.54 19.84 0.57 o
6 4 1 45.56 46.55 1.00 o
7 4 1 11.27 11.74 0.49 o
8 4 1 26.48 25.63 0.71 o
9 4 1 66.73 68.42 2.18 o
-9 5 1 11.16 10.45 0.74 o
-8 5 1 22.47 21.35 1.02 o
-7 5 1 22.59 21.45 0.80 o
-6 5 1 58.71 65.27 2.65 o
-5 5 1 297.09 310.27 4.75 o
-4 5 1 5.23 5.12 0.37 o
-3 5 1 47.65 49.50 2.12 o
-2 5 1 49.85 49.40 1.26 o
-1 5 1 144.89 142.80 2.25 o
0 5 1 43.23 45.54 1.36 o
1 5 1 33.63 35.86 1.62 o
2 5 1 28.50 30.57 1.51 o
3 5 1 200.30 209.80 2.80 o
4 5 1 88.43 87.71 1.27 o
5 5 1 2.79 2.70 0.27 o
6 5 1 52.69 53.89 1.20 o
7 5 1 38.10 35.73 0.93 o
8 5 1 4.92 5.11 0.35 o
9 5 1 22.05 20.25 0.69 o
-8 6 1 9.74 10.29 0.43 o
-7 6 1 23.46 23.76 0.62 o
-6 6 1 9.97 10.19 0.98 o
-5 6 1 31.13 31.58 1.72 o
-4 6 1 99.44 106.95 3.07 o
-3 6 1 78.15 80.34 2.53 o
-2 6 1 115.01 106.13 3.05 o
-1 6 1 131.73 128.93 3.15 o
0 6 1 166.53 162.45 3.67 o
1 6 1 83.54 79.13 1.78 o
2 6 1 32.29 31.60 1.16 o
3 6 1 58.77 58.72 1.95 o
4 6 1 68.19 76.63 2.44 o
5 6 1 32.18 34.15 1.79 o
6 6 1 32.22 34.15 1.14 o
7 6 1 20.35 20.46 0.90 o
8 6 1 4.29 4.66 0.41 o
-6 7 1 1.62 1.65 0.29 o
-5 7 1 33.71 36.97 1.74 o
-4 7 1 99.42 102.05 2.97 o
4 7 1 18.89 19.36 0.82 o
5 7 1 45.45 45.36 1.15 o
-4 -8 2 21.25 18.66 0.65 o
-3 -8 2 14.14 12.81 0.49 o
-2 -8 2 16.91 19.91 0.64 o
-1 -8 2 25.51 22.82 0.66 o
0 -8 2 44.47 44.05 0.81 o
1 -8 2 19.35 19.89 0.54 o
2 -8 2 4.34 5.05 0.31 o
3 -8 2 20.24 19.40 0.72 o
4 -8 2 2.32 1.73 0.21 o
-6 -7 2 11.29 11.42 0.54 o
-5 -7 2 8.01 8.36 0.64 o
-4 -7 2 81.44 78.71 1.24 o
-3 -7 2 4.50 4.91 0.38 o
-2 -7 2 52.53 51.12 1.21 o
-1 -7 2 33.47 31.32 0.73 o
0 -7 2 15.85 16.24 0.54 o
1 -7 2 117.12 116.91 1.66 o
2 -7 2 8.43 9.03 0.35 o
3 -7 2 22.02 21.99 0.76 o
4 -7 2 8.34 8.63 0.57 o
5 -7 2 19.98 18.70 0.77 o
6 -7 2 10.58 9.58 0.48 o
-7 -6 2 28.81 30.24 0.68 o
-6 -6 2 49.08 51.39 1.05 o
-5 -6 2 44.17 44.08 0.83 o
-4 -6 2 265.41 259.87 2.07 o
-3 -6 2 118.91 117.04 1.30 o
-2 -6 2 27.12 27.58 0.59 o
-1 -6 2 155.80 150.85 2.10 o
0 -6 2 161.38 154.06 1.49 o
1 -6 2 50.96 50.18 0.79 o
2 -6 2 57.13 57.82 0.77 o
3 -6 2 7.13 6.50 0.28 o
4 -6 2 20.11 20.52 0.66 o
5 -6 2 72.94 79.78 1.27 o
6 -6 2 38.70 37.77 0.81 o
7 -6 2 7.04 7.01 0.30 o
-8 -5 2 39.57 42.20 1.00 o
-7 -5 2 22.89 22.33 0.72 o
-6 -5 2 57.58 56.99 1.56 o
-5 -5 2 94.72 96.83 1.52 o
-4 -5 2 47.78 46.28 0.73 o
-3 -5 2 325.81 318.61 2.54 o
-2 -5 2 162.92 174.51 1.42 o
-1 -5 2 17.75 25.49 1.35 o
0 -5 2 89.83 98.45 1.89 o
1 -5 2 6.32 5.36 0.26 o
2 -5 2 351.13 348.36 2.01 o
3 -5 2 151.10 156.40 1.19 o
4 -5 2 64.56 62.16 1.08 o
5 -5 2 65.14 60.49 1.28 o
6 -5 2 72.85 74.68 1.22 o
7 -5 2 6.36 7.60 0.43 o
8 -5 2 79.44 77.14 1.33 o
-9 -4 2 6.44 6.10 0.47 o
-8 -4 2 0.15 0.19 0.12 o
-7 -4 2 136.02 138.68 1.86 o
-6 -4 2 289.19 297.54 3.51 o
-5 -4 2 190.40 186.85 1.74 o
-4 -4 2 1.52 1.42 0.42 o
-3 -4 2 134.81 130.53 1.93 o
-2 -4 2 185.14 178.23 4.74 o
-1 -4 2 115.14 122.49 1.93 o
0 -4 2 144.47 158.06 2.28 o
1 -4 2 25.45 24.39 0.65 o
2 -4 2 377.58 377.08 4.52 o
3 -4 2 4.39 5.33 0.33 o
4 -4 2 66.77 71.66 1.20 o
5 -4 2 8.95 8.35 0.40 o
6 -4 2 48.52 45.89 1.13 o
7 -4 2 0.43 0.45 0.13 o
8 -4 2 4.89 3.68 0.31 o
9 -4 2 42.03 42.53 1.01 o
-10 -3 2 25.33 28.36 0.86 o
-9 -3 2 32.87 35.04 1.18 o
-8 -3 2 11.51 11.84 0.53 o
-7 -3 2 203.93 203.90 2.22 o
-6 -3 2 30.95 32.83 0.74 o
-5 -3 2 3.48 3.55 0.57 o
-4 -3 2 22.65 21.58 0.81 o
-3 -3 2 103.40 94.54 1.17 o
0 -3 2 95.94 96.73 1.05 o
1 -3 2 110.89 112.16 1.88 o
2 -3 2 238.43 247.55 2.81 o
3 -3 2 110.77 121.42 1.44 o
4 -3 2 311.12 319.60 3.94 o
5 -3 2 8.96 12.17 0.83 o
6 -3 2 10.82 10.73 0.36 o
7 -3 2 7.86 4.85 0.39 o
8 -3 2 53.04 42.77 1.11 o
9 -3 2 47.26 46.18 1.11 o
10 -3 2 1.61 1.53 0.39 o
-10 -2 2 18.18 20.33 0.76 o
-9 -2 2 4.12 4.14 0.42 o
-8 -2 2 58.06 58.19 1.21 o
-7 -2 2 609.14 616.55 7.21 o
-6 -2 2 256.32 259.86 2.59 o
-5 -2 2 73.86 70.08 1.45 o
-4 -2 2 266.71 261.83 3.25 o
-3 -2 2 455.74 448.22 2.48 o
-1 -2 2 578.72 537.38 3.23 o
1 -2 2 10.17 12.45 0.42 o
2 -2 2 284.22 298.79 2.12 o
4 -2 2 1178.87 1214.77 7.00 o
5 -2 2 11.56 11.17 0.68 o
6 -2 2 25.24 25.22 0.57 o
7 -2 2 112.73 112.85 1.35 o
8 -2 2 42.65 45.77 1.16 o
9 -2 2 21.04 20.71 0.99 o
10 -2 2 6.92 5.95 0.39 o
-10 -1 2 6.09 6.34 0.67 o
-9 -1 2 8.00 8.23 0.57 o
-8 -1 2 29.48 30.70 0.79 o
-7 -1 2 278.89 275.18 2.32 o
-6 -1 2 96.91 94.05 2.74 o
-5 -1 2 22.76 20.96 1.15 o
-4 -1 2 11.05 9.49 0.69 o
-3 -1 2 15.93 14.43 0.72 o
-2 -1 2 60.48 57.70 0.72 o
1 -1 2 378.31 352.92 1.82 o
2 -1 2 322.72 295.07 3.52 o
3 -1 2 190.94 210.42 2.69 o
4 -1 2 95.88 96.57 2.06 o
5 -1 2 22.56 22.84 0.94 o
6 -1 2 0.51 0.92 0.16 o
7 -1 2 128.15 128.52 2.19 o
8 -1 2 101.55 91.87 1.42 o
9 -1 2 41.91 36.78 1.13 o
10 -1 2 1.52 1.63 0.23 o
-10 0 2 0.38 0.31 0.12 o
-9 0 2 0.00 0.13 0.22 o
-8 0 2 25.46 26.83 1.53 o
-7 0 2 12.81 11.74 0.49 o
-6 0 2 2.08 1.85 0.36 o
-5 0 2 14.80 16.71 0.64 o
-4 0 2 0.10 1.64 0.28 o
-3 0 2 177.07 177.58 2.36 o
0 0 2 246.30 219.02 1.22 o
1 0 2 108.44 94.32 2.13 o
2 0 2 570.93 511.42 2.45 o
3 0 2 9.20 9.24 0.47 o
4 0 2 186.93 216.04 1.90 o
5 0 2 15.18 16.67 0.60 o
7 0 2 71.92 68.25 1.74 o
8 0 2 96.33 86.25 1.95 o
9 0 2 32.79 29.51 0.78 o
10 0 2 56.98 55.44 1.44 o
-10 1 2 6.11 5.93 0.63 o
-9 1 2 8.30 8.42 0.90 o
-8 1 2 29.36 28.67 1.84 o
-7 1 2 278.90 278.82 2.30 o
-6 1 2 95.12 91.98 2.54 o
-5 1 2 22.78 22.10 1.14 o
-4 1 2 11.08 9.97 0.39 o
-3 1 2 15.55 15.58 2.02 o
-2 1 2 58.68 57.72 0.89 o
1 1 2 381.81 354.75 5.57 o
2 1 2 324.07 293.72 3.16 o
3 1 2 189.52 205.24 1.80 o
4 1 2 95.50 98.10 0.92 o
5 1 2 21.66 18.55 0.57 o
6 1 2 0.53 0.70 0.17 o
7 1 2 128.41 129.95 2.28 o
8 1 2 101.53 89.11 2.91 o
9 1 2 42.31 37.40 0.89 o
10 1 2 1.53 1.96 0.22 o
-10 2 2 17.92 19.24 1.15 o
-9 2 2 4.21 3.93 0.34 o
-8 2 2 56.94 57.19 1.02 o
-7 2 2 607.62 623.90 6.18 o
-6 2 2 256.02 262.05 2.50 o
-5 2 2 73.98 73.03 1.04 o
-4 2 2 266.15 268.53 2.70 o
-3 2 2 457.51 449.48 3.55 o
-1 2 2 579.18 548.33 4.35 o
1 2 2 9.58 11.21 0.62 o
2 2 2 284.32 290.27 3.39 o
4 2 2 1176.77 1221.24 3.53 o
5 2 2 11.43 11.33 0.41 o
6 2 2 24.91 25.28 0.76 o
7 2 2 112.30 114.71 1.55 o
8 2 2 42.30 45.69 1.52 o
9 2 2 21.28 21.59 0.78 o
10 2 2 7.08 6.28 0.38 o
-10 3 2 25.62 28.37 1.30 o
-9 3 2 32.72 35.61 0.97 o
-8 3 2 11.44 11.23 0.58 o
-7 3 2 205.02 205.83 2.47 o
-6 3 2 30.62 31.49 0.78 o
-5 3 2 3.42 3.70 1.15 o
-4 3 2 22.48 21.54 0.62 o
-3 3 2 103.07 95.08 1.27 o
-1 3 2 1375.58 1426.37 4.56 o
0 3 2 97.11 97.61 2.06 o
1 3 2 111.29 114.51 3.00 o
2 3 2 236.14 246.33 3.66 o
3 3 2 110.03 119.94 1.43 o
4 3 2 311.02 305.98 2.90 o
5 3 2 9.07 11.29 0.40 o
6 3 2 10.53 10.55 0.42 o
7 3 2 7.47 5.09 0.41 o
8 3 2 53.21 40.75 1.42 o
9 3 2 46.28 43.82 1.02 o
10 3 2 1.69 1.98 0.20 o
-9 4 2 6.41 6.66 0.39 o
-8 4 2 0.17 0.34 0.13 o
-7 4 2 137.07 141.75 2.49 o
-6 4 2 289.11 301.01 3.41 o
-5 4 2 190.18 185.53 6.58 o
-4 4 2 1.47 0.54 0.18 o
-3 4 2 133.26 126.81 2.79 o
-2 4 2 186.86 184.57 12.74 o
-1 4 2 114.78 124.28 1.40 o
0 4 2 144.58 153.92 1.50 o
1 4 2 25.41 23.87 1.16 o
2 4 2 375.01 393.03 2.95 o
3 4 2 4.41 5.42 0.34 o
4 4 2 66.70 71.18 1.16 o
5 4 2 8.82 8.55 0.34 o
6 4 2 48.21 45.69 0.96 o
7 4 2 0.41 0.52 0.13 o
8 4 2 5.00 3.58 0.43 o
9 4 2 42.76 44.09 0.82 o
-8 5 2 39.78 41.09 0.85 o
-7 5 2 23.32 23.43 0.79 o
-6 5 2 57.99 60.70 1.33 o
-5 5 2 94.30 101.83 2.28 o
-4 5 2 47.41 47.20 1.47 o
-3 5 2 325.11 321.14 3.57 o
-2 5 2 160.46 166.62 2.57 o
-1 5 2 17.94 19.83 0.86 o
0 5 2 90.55 99.88 4.14 o
1 5 2 5.88 6.88 2.00 o
2 5 2 351.79 348.68 5.39 o
3 5 2 151.86 154.97 2.54 o
4 5 2 64.19 62.07 1.01 o
5 5 2 64.41 62.96 1.11 o
6 5 2 72.58 77.92 1.25 o
7 5 2 6.35 7.34 0.43 o
8 5 2 80.67 75.63 1.87 o
-7 6 2 28.62 30.53 0.81 o
-6 6 2 49.32 52.33 2.17 o
-5 6 2 43.73 44.23 1.14 o
-4 6 2 263.33 256.80 3.39 o
-3 6 2 118.10 115.39 2.83 o
-2 6 2 26.97 28.07 1.58 o
-1 6 2 155.54 144.67 3.40 o
0 6 2 159.79 149.34 3.67 o
1 6 2 50.84 46.90 2.06 o
2 6 2 56.87 55.81 2.12 o
3 6 2 6.71 6.40 0.72 o
4 6 2 19.79 20.88 0.71 o
5 6 2 72.07 78.80 1.34 o
6 6 2 39.30 38.53 0.92 o
7 6 2 7.31 6.95 0.73 o
-6 7 2 11.46 11.76 0.69 o
-5 7 2 8.20 9.43 0.84 o
-4 7 2 81.34 82.94 2.55 o
-3 7 2 4.36 4.08 0.56 o
2 7 2 8.28 8.72 0.79 o
3 7 2 22.03 21.50 1.15 o
4 7 2 8.53 8.06 0.72 o
5 7 2 20.35 18.47 0.76 o
6 7 2 10.53 10.04 0.65 o
-3 -8 3 16.11 14.88 0.60 o
-2 -8 3 7.80 7.74 0.47 o
-1 -8 3 21.79 19.66 0.76 o
0 -8 3 21.99 21.39 0.79 o
1 -8 3 49.70 47.57 0.84 o
2 -8 3 6.98 7.38 0.36 o
3 -8 3 9.79 10.02 0.49 o
-6 -7 3 7.68 9.52 0.49 o
-5 -7 3 32.99 29.38 0.90 o
-4 -7 3 179.57 179.14 2.06 o
-3 -7 3 20.89 18.94 0.71 o
-2 -7 3 2.82 2.75 0.29 o
-1 -7 3 27.85 28.15 0.77 o
0 -7 3 36.86 37.44 0.90 o
1 -7 3 55.31 58.29 1.12 o
2 -7 3 6.78 6.76 0.37 o
3 -7 3 12.34 12.43 0.57 o
4 -7 3 2.94 2.25 0.23 o
5 -7 3 48.99 53.80 1.23 o
6 -7 3 6.72 7.63 0.39 o
-7 -6 3 77.43 76.40 1.82 o
-6 -6 3 16.30 16.79 0.66 o
-5 -6 3 21.83 22.26 0.59 o
-4 -6 3 42.53 40.05 0.93 o
-3 -6 3 131.86 131.46 1.36 o
-2 -6 3 13.81 12.58 0.39 o
-1 -6 3 8.21 10.16 0.39 o
0 -6 3 107.17 102.05 1.23 o
1 -6 3 100.08 95.59 1.20 o
2 -6 3 98.57 100.39 1.62 o
3 -6 3 26.38 26.59 0.67 o
4 -6 3 39.20 39.03 0.80 o
5 -6 3 43.32 44.87 0.92 o
6 -6 3 7.40 7.60 0.37 o
7 -6 3 30.75 32.08 0.70 o
-8 -5 3 20.45 21.81 0.70 o
-7 -5 3 12.46 13.46 0.55 o
-6 -5 3 133.47 133.11 2.61 o
-5 -5 3 4.07 3.66 0.29 o
-4 -5 3 26.07 25.86 0.71 o
-3 -5 3 252.70 244.59 2.94 o
-2 -5 3 45.80 50.37 0.78 o
-1 -5 3 17.84 19.31 0.41 o
0 -5 3 45.85 49.94 0.72 o
1 -5 3 48.40 50.15 0.68 o
2 -5 3 48.29 51.78 0.62 o
3 -5 3 125.27 124.58 1.27 o
4 -5 3 73.41 71.67 1.00 o
5 -5 3 38.77 40.73 0.91 o
6 -5 3 90.83 88.81 1.15 o
7 -5 3 3.36 3.45 0.25 o
8 -5 3 11.12 10.65 0.36 o
-9 -4 3 43.99 46.54 1.00 o
-8 -4 3 90.75 93.82 1.42 o
-7 -4 3 69.14 71.04 1.25 o
-6 -4 3 69.88 69.49 1.24 o
-5 -4 3 46.88 43.94 1.20 o
-4 -4 3 28.01 29.41 0.57 o
-3 -4 3 285.37 285.17 2.98 o
-2 -4 3 120.89 140.05 4.25 o
-1 -4 3 85.07 82.66 3.11 o
0 -4 3 144.31 139.77 5.00 o
1 -4 3 36.64 41.87 0.89 o
2 -4 3 148.85 148.93 1.72 o
3 -4 3 362.28 364.71 4.04 o
4 -4 3 167.92 176.64 1.65 o
5 -4 3 51.49 46.99 0.77 o
6 -4 3 38.92 37.79 1.02 o
7 -4 3 117.64 110.54 1.72 o
8 -4 3 88.90 89.21 1.41 o
9 -4 3 68.94 68.01 1.73 o
-10 -3 3 4.53 4.31 0.31 o
-9 -3 3 32.95 34.36 0.81 o
-8 -3 3 55.14 57.54 1.15 o
-7 -3 3 168.60 169.19 3.06 o
-6 -3 3 187.20 179.61 2.72 o
-5 -3 3 34.34 30.83 0.78 o
-4 -3 3 26.18 24.77 0.88 o
-3 -3 3 95.66 99.47 3.00 o
-2 -3 3 0.43 0.75 0.13 o
-1 -3 3 13.28 13.52 0.41 o
0 -3 3 276.08 286.42 3.13 o
1 -3 3 262.85 275.71 7.36 o
2 -3 3 230.34 245.97 1.98 o
3 -3 3 231.47 236.39 2.01 o
4 -3 3 153.26 155.58 1.86 o
5 -3 3 58.05 59.69 1.11 o
6 -3 3 14.09 13.10 0.40 o
7 -3 3 205.54 201.77 2.39 o
8 -3 3 43.63 47.37 1.12 o
9 -3 3 15.57 19.35 1.14 o
-10 -2 3 19.08 18.96 0.82 o
-9 -2 3 40.04 40.74 0.88 o
-8 -2 3 134.53 134.71 1.72 o
-7 -2 3 397.70 396.63 2.92 o
-6 -2 3 143.22 138.93 1.45 o
-5 -2 3 43.96 45.77 1.18 o
-4 -2 3 224.43 226.44 2.36 o
-3 -2 3 184.08 203.40 10.58 o
-2 -2 3 845.10 842.10 4.08 o
-1 -2 3 215.81 211.46 1.51 o
0 -2 3 209.58 207.73 1.54 o
1 -2 3 160.51 155.00 1.04 o
3 -2 3 178.70 197.86 2.38 o
4 -2 3 190.46 191.80 1.71 o
5 -2 3 102.51 103.08 1.36 o
6 -2 3 254.27 247.40 2.58 o
7 -2 3 8.87 9.65 0.54 o
8 -2 3 141.23 128.48 2.50 o
9 -2 3 32.87 35.75 1.74 o
10 -2 3 5.29 6.73 0.61 o
-10 -1 3 5.86 6.35 0.65 o
-9 -1 3 22.33 23.19 0.75 o
-8 -1 3 148.06 156.11 2.31 o
-7 -1 3 4.15 4.79 0.32 o
-6 -1 3 1.86 1.56 0.37 o
-5 -1 3 159.45 138.20 3.09 o
-4 -1 3 166.70 161.57 2.96 o
-3 -1 3 617.28 643.01 3.95 o
-2 -1 3 399.58 400.35 1.97 o
0 -1 3 155.86 150.61 1.88 o
1 -1 3 96.77 88.73 2.37 o
2 -1 3 234.90 213.67 2.49 o
3 -1 3 282.47 288.24 2.05 o
4 -1 3 35.70 41.76 0.90 o
5 -1 3 10.25 7.93 0.44 o
6 -1 3 36.07 37.58 0.59 o
7 -1 3 93.67 95.24 1.09 o
8 -1 3 21.64 21.75 1.05 o
9 -1 3 6.08 5.28 0.49 o
10 -1 3 11.37 12.09 0.92 o
-10 0 3 0.02 0.02 0.17 o
-9 0 3 3.97 3.69 0.53 o
-8 0 3 489.50 526.58 6.65 o
-7 0 3 528.35 498.92 3.74 o
-6 0 3 58.35 51.17 1.29 o
-5 0 3 14.91 15.06 0.64 o
-3 0 3 174.85 158.78 2.41 o
-2 0 3 489.02 458.24 3.59 o
-1 0 3 912.24 822.65 4.18 o
0 0 3 1.57 0.30 0.06 o
1 0 3 224.28 199.81 1.35 o
2 0 3 51.73 60.36 0.69 o
3 0 3 30.92 31.79 0.62 o
4 0 3 2.97 1.81 0.14 o
5 0 3 2.36 2.75 0.39 o
6 0 3 6.94 7.01 0.36 o
7 0 3 189.67 193.69 1.68 o
8 0 3 100.34 96.61 1.82 o
9 0 3 12.91 12.08 0.61 o
10 0 3 18.08 19.50 0.83 o
-10 1 3 5.66 6.09 0.43 o
-9 1 3 22.53 23.45 0.93 o
-8 1 3 149.91 154.59 2.20 o
-7 1 3 3.94 4.11 0.26 o
-6 1 3 1.95 2.50 0.36 o
-5 1 3 159.97 132.70 2.05 o
-4 1 3 165.47 160.16 2.07 o
-3 1 3 619.45 649.75 5.24 o
-2 1 3 399.31 412.69 3.70 o
0 1 3 156.47 156.34 1.43 o
1 1 3 96.81 89.73 0.94 o
2 1 3 234.11 205.97 2.57 o
3 1 3 282.58 287.04 2.33 o
4 1 3 35.96 40.94 0.63 o
5 1 3 10.09 7.87 0.39 o
6 1 3 36.89 38.42 1.19 o
7 1 3 93.15 92.72 2.18 o
8 1 3 21.85 21.39 0.79 o
9 1 3 5.96 4.97 0.41 o
10 1 3 11.65 11.19 0.64 o
-10 2 3 18.88 16.84 0.98 o
-9 2 3 39.73 39.94 1.30 o
-8 2 3 134.71 134.99 1.76 o
-7 2 3 397.93 390.41 3.32 o
-6 2 3 144.25 141.33 1.37 o
-5 2 3 44.31 44.57 1.85 o
-4 2 3 222.62 223.69 2.63 o
-3 2 3 182.79 193.00 3.09 o
-1 2 3 216.26 219.84 3.03 o
0 2 3 210.46 215.25 1.85 o
1 2 3 157.87 152.64 1.66 o
3 2 3 176.90 199.03 1.24 o
4 2 3 189.04 185.35 1.36 o
5 2 3 101.65 101.15 1.31 o
6 2 3 253.73 258.56 2.24 o
7 2 3 9.12 10.45 0.56 o
8 2 3 142.90 126.77 1.95 o
9 2 3 32.31 34.44 0.81 o
10 2 3 5.28 6.11 0.35 o
-10 3 3 4.33 4.07 0.46 o
-9 3 3 33.12 33.63 0.91 o
-8 3 3 55.34 56.05 1.12 o
-7 3 3 169.93 171.94 1.93 o
-6 3 3 187.56 189.87 3.83 o
-5 3 3 34.59 33.27 1.21 o
-4 3 3 26.67 24.91 0.72 o
-3 3 3 95.75 99.97 1.65 o
-2 3 3 0.45 0.75 0.16 o
-1 3 3 13.18 13.24 0.52 o
0 3 3 273.45 285.10 2.30 o
1 3 3 261.43 275.80 2.39 o
2 3 3 230.64 247.43 1.75 o
3 3 3 231.93 237.16 2.04 o
4 3 3 152.14 152.92 1.48 o
5 3 3 57.73 59.90 0.98 o
6 3 3 14.31 14.13 0.55 o
7 3 3 208.19 201.33 2.47 o
8 3 3 43.41 48.45 1.03 o
9 3 3 15.68 17.66 0.55 o
-9 4 3 43.87 46.35 1.20 o
-8 4 3 90.81 90.49 1.34 o
-7 4 3 69.08 67.63 1.18 o
-6 4 3 69.64 69.53 1.42 o
-5 4 3 46.02 45.81 1.49 o
-4 4 3 27.85 28.35 0.90 o
-3 4 3 285.50 280.61 2.61 o
-2 4 3 122.55 137.69 1.79 o
-1 4 3 85.12 82.34 1.03 o
0 4 3 144.39 141.97 3.10 o
1 4 3 36.64 43.33 0.74 o
2 4 3 148.17 153.21 2.92 o
3 4 3 362.09 361.71 2.14 o
4 4 3 167.05 174.19 2.18 o
5 4 3 50.89 47.86 0.84 o
6 4 3 38.98 40.00 1.08 o
7 4 3 117.18 110.27 1.81 o
8 4 3 89.16 88.76 1.15 o
9 4 3 68.89 69.29 0.94 o
-8 5 3 20.61 21.71 0.61 o
-7 5 3 12.42 14.24 0.98 o
-6 5 3 134.70 137.58 1.91 o
-5 5 3 4.11 4.18 0.53 o
-4 5 3 26.66 25.38 1.10 o
-3 5 3 253.24 240.98 2.90 o
-2 5 3 45.95 50.53 1.11 o
-1 5 3 18.67 18.14 1.24 o
0 5 3 45.81 46.77 1.94 o
1 5 3 47.62 46.59 1.39 o
2 5 3 48.14 51.24 1.63 o
3 5 3 127.06 126.13 1.86 o
4 5 3 73.71 70.80 1.45 o
5 5 3 38.32 40.17 0.93 o
6 5 3 90.75 89.42 1.53 o
7 5 3 3.65 4.33 0.33 o
8 5 3 11.07 10.60 0.44 o
-7 6 3 76.92 76.99 1.62 o
-6 6 3 16.55 17.23 0.56 o
-5 6 3 21.88 21.76 1.77 o
-4 6 3 42.28 39.35 1.29 o
-3 6 3 133.26 132.86 3.41 o
-2 6 3 13.82 12.92 0.99 o
0 6 3 106.82 96.78 2.59 o
2 6 3 98.40 100.29 2.75 o
3 6 3 26.68 25.70 1.51 o
4 6 3 38.32 38.27 1.01 o
5 6 3 43.93 43.05 0.87 o
6 6 3 7.18 7.31 0.41 o
7 6 3 30.67 32.01 1.32 o
-5 7 3 33.27 29.84 1.72 o
-4 7 3 179.42 171.09 2.47 o
-3 7 3 20.58 18.10 1.22 o
-2 7 3 2.69 2.56 0.44 o
-1 7 3 27.69 27.26 1.36 o
1 7 3 55.28 55.45 1.94 o
2 7 3 6.77 6.80 0.73 o
3 7 3 12.16 11.46 0.50 o
4 7 3 2.86 2.30 0.21 o
5 7 3 48.68 54.07 2.39 o
-2 -8 4 24.75 23.51 0.74 o
-1 -8 4 25.80 26.06 0.81 o
0 -8 4 9.91 9.79 0.42 o
1 -8 4 9.79 8.39 0.40 o
2 -8 4 1.24 1.15 0.17 o
-5 -7 4 83.09 72.17 1.27 o
-4 -7 4 41.69 36.47 0.86 o
-3 -7 4 22.77 20.16 0.69 o
-2 -7 4 5.71 5.61 0.32 o
-1 -7 4 18.40 20.94 0.78 o
0 -7 4 75.44 72.45 1.08 o
1 -7 4 106.99 108.76 1.32 o
2 -7 4 39.26 43.11 0.90 o
3 -7 4 134.01 137.01 1.77 o
4 -7 4 3.99 4.62 0.30 o
5 -7 4 33.98 34.07 1.03 o
-7 -6 4 12.20 13.44 0.63 o
-6 -6 4 1.32 1.58 0.19 o
-5 -6 4 45.35 45.34 0.91 o
-4 -6 4 34.71 33.48 0.95 o
-3 -6 4 41.03 43.33 0.97 o
-2 -6 4 0.70 0.69 0.14 o
-1 -6 4 6.99 5.85 0.30 o
0 -6 4 18.24 19.84 0.52 o
1 -6 4 38.48 39.36 0.73 o
2 -6 4 76.79 77.85 1.41 o
3 -6 4 51.98 57.85 0.97 o
4 -6 4 3.10 3.86 0.28 o
5 -6 4 19.39 17.37 0.53 o
6 -6 4 86.05 88.91 1.04 o
7 -6 4 24.35 24.89 0.68 o
-8 -5 4 32.29 30.19 0.66 o
-7 -5 4 1.69 1.49 0.21 o
-6 -5 4 2.74 2.90 0.31 o
-5 -5 4 67.82 66.12 1.04 o
-4 -5 4 5.98 5.64 0.35 o
-3 -5 4 146.08 141.91 1.63 o
-2 -5 4 20.37 20.63 0.58 o
-1 -5 4 15.27 18.30 0.41 o
0 -5 4 19.88 19.97 0.46 o
1 -5 4 7.39 8.91 0.28 o
2 -5 4 18.35 16.83 0.43 o
3 -5 4 199.11 196.03 1.47 o
4 -5 4 62.69 59.89 0.80 o
5 -5 4 1.83 2.73 0.19 o
6 -5 4 60.91 60.77 1.21 o
7 -5 4 11.88 11.27 0.48 o
8 -5 4 2.52 2.37 0.18 o
-9 -4 4 26.37 26.48 0.73 o
-8 -4 4 121.33 126.47 1.34 o
-7 -4 4 33.92 34.98 1.02 o
-6 -4 4 80.23 80.68 1.35 o
-5 -4 4 0.01 0.05 0.10 o
-4 -4 4 149.87 144.96 1.35 o
-3 -4 4 112.18 114.46 1.21 o
-2 -4 4 3.87 8.20 3.35 o
-1 -4 4 65.52 65.37 1.41 o
0 -4 4 122.33 116.65 1.89 o
1 -4 4 37.20 33.98 2.41 o
2 -4 4 108.64 114.48 1.55 o
3 -4 4 271.77 270.55 3.35 o
4 -4 4 44.14 41.23 0.71 o
5 -4 4 10.21 11.12 0.53 o
6 -4 4 85.15 86.81 1.90 o
7 -4 4 13.66 12.17 1.01 o
8 -4 4 99.19 102.54 1.68 o
9 -4 4 38.56 36.22 0.77 o
-9 -3 4 79.69 83.51 1.01 o
-8 -3 4 8.26 9.18 0.40 o
-7 -3 4 28.22 29.76 0.83 o
-6 -3 4 9.50 9.87 0.47 o
-5 -3 4 63.82 61.47 1.09 o
-4 -3 4 167.03 164.63 4.13 o
-3 -3 4 13.47 14.79 0.67 o
-2 -3 4 199.77 199.20 1.87 o
-1 -3 4 24.14 23.36 0.61 o
0 -3 4 7.72 8.24 0.59 o
1 -3 4 184.19 201.10 2.19 o
2 -3 4 426.87 437.74 3.34 o
3 -3 4 384.14 392.71 2.89 o
4 -3 4 39.60 37.04 0.90 o
5 -3 4 341.16 343.67 3.77 o
6 -3 4 107.19 100.37 2.12 o
7 -3 4 49.49 45.81 2.08 o
8 -3 4 24.37 29.33 1.55 o
9 -3 4 24.20 24.21 1.21 o
-10 -2 4 11.39 10.27 0.47 o
-9 -2 4 92.76 96.13 1.13 o
-8 -2 4 83.67 83.83 1.34 o
-7 -2 4 2.35 2.46 0.28 o
-6 -2 4 14.36 14.09 0.98 o
-5 -2 4 20.07 18.44 0.64 o
-4 -2 4 4.99 3.61 0.30 o
-3 -2 4 100.03 118.16 1.62 o
-2 -2 4 457.02 508.22 3.54 o
-1 -2 4 68.44 69.64 0.68 o
0 -2 4 306.18 320.92 3.27 o
1 -2 4 40.61 44.58 0.59 o
2 -2 4 68.87 70.72 0.79 o
3 -2 4 19.00 16.58 0.36 o
4 -2 4 9.00 8.16 0.36 o
5 -2 4 40.12 39.78 0.83 o
6 -2 4 435.01 433.26 4.40 o
7 -2 4 367.34 366.74 6.05 o
8 -2 4 93.72 94.99 3.02 o
9 -2 4 13.91 12.82 1.00 o
-10 -1 4 14.91 14.05 0.48 o
-9 -1 4 18.83 20.48 0.69 o
-8 -1 4 358.96 369.58 3.77 o
-7 -1 4 104.18 105.56 1.73 o
-6 -1 4 50.33 49.37 1.14 o
-5 -1 4 61.66 66.72 2.46 o
-4 -1 4 128.43 139.90 2.04 o
-3 -1 4 465.80 477.60 2.61 o
-2 -1 4 156.13 146.77 2.24 o
-1 -1 4 121.88 117.92 2.28 o
0 -1 4 66.44 64.52 0.84 o
1 -1 4 244.06 237.11 3.06 o
2 -1 4 1016.01 1049.63 5.76 o
3 -1 4 23.07 24.31 1.34 o
4 -1 4 165.75 165.73 3.08 o
5 -1 4 241.14 248.76 3.49 o
6 -1 4 207.04 203.21 1.94 o
7 -1 4 102.66 102.91 2.28 o
8 -1 4 59.27 62.01 1.76 o
9 -1 4 1.63 2.50 0.48 o
10 -1 4 3.90 3.85 0.48 o
-10 0 4 3.37 3.88 0.26 o
-9 0 4 128.83 129.25 2.19 o
-8 0 4 421.26 428.55 6.30 o
-7 0 4 122.19 118.09 1.82 o
-6 0 4 3.45 4.11 0.24 o
-5 0 4 7.79 6.67 0.47 o
-4 0 4 280.19 309.08 3.13 o
-3 0 4 1608.38 1679.62 8.74 o
-2 0 4 5.65 3.49 0.41 o
-1 0 4 50.40 47.69 1.20 o
0 0 4 575.80 570.12 6.05 o
2 0 4 6.21 4.68 0.30 o
3 0 4 271.10 255.73 1.67 o
4 0 4 0.25 2.71 0.46 o
5 0 4 74.91 69.90 1.93 o
6 0 4 321.11 312.59 2.48 o
7 0 4 157.20 147.68 1.81 o
8 0 4 39.91 39.15 0.99 o
9 0 4 0.03 0.22 0.29 o
10 0 4 1.01 1.31 0.31 o
-10 1 4 14.58 15.11 0.90 o
-9 1 4 18.20 19.16 1.19 o
-8 1 4 360.04 357.83 5.96 o
-7 1 4 103.74 103.10 1.30 o
-6 1 4 50.70 51.07 0.78 o
-5 1 4 61.92 63.36 1.18 o
-4 1 4 128.79 136.90 1.43 o
-3 1 4 467.27 486.29 2.48 o
-2 1 4 156.66 147.74 1.26 o
-1 1 4 120.92 120.70 2.20 o
0 1 4 65.12 65.08 1.08 o
1 1 4 243.10 239.23 1.99 o
2 1 4 1014.71 1073.20 3.98 o
3 1 4 22.95 22.83 0.39 o
4 1 4 167.09 165.04 1.24 o
5 1 4 239.47 244.40 2.69 o
6 1 4 208.34 204.12 1.81 o
7 1 4 101.20 100.05 1.33 o
8 1 4 59.39 62.18 1.18 o
9 1 4 1.55 1.79 0.20 o
10 1 4 3.97 4.70 0.38 o
-10 2 4 11.47 12.29 0.78 o
-9 2 4 93.09 95.33 2.17 o
-8 2 4 83.84 86.22 2.03 o
-7 2 4 2.40 3.00 0.23 o
-6 2 4 14.12 13.26 0.41 o
-5 2 4 19.73 18.81 0.58 o
-4 2 4 5.15 3.56 0.36 o
-3 2 4 100.63 120.24 1.34 o
-2 2 4 458.42 517.53 3.19 o
-1 2 4 68.23 69.68 1.06 o
0 2 4 305.56 318.36 2.31 o
1 2 4 41.44 45.64 0.66 o
2 2 4 68.37 71.55 1.10 o
3 2 4 18.41 16.43 0.44 o
4 2 4 8.91 7.87 0.27 o
5 2 4 39.32 38.49 0.85 o
6 2 4 433.92 430.24 2.66 o
7 2 4 368.80 367.89 2.59 o
8 2 4 93.36 98.12 1.47 o
9 2 4 13.72 11.98 0.45 o
-9 3 4 79.48 83.00 1.33 o
-8 3 4 8.34 9.45 0.52 o
-7 3 4 28.38 28.13 0.69 o
-6 3 4 9.11 9.88 0.41 o
-5 3 4 64.80 67.04 1.32 o
-4 3 4 166.97 167.61 2.11 o
-3 3 4 13.67 15.92 0.60 o
-2 3 4 201.35 203.21 1.75 o
-1 3 4 23.95 22.85 0.50 o
0 3 4 7.68 8.51 0.37 o
1 3 4 184.27 200.25 1.64 o
2 3 4 428.37 433.48 2.55 o
3 3 4 385.75 391.91 2.31 o
4 3 4 39.79 35.09 0.75 o
5 3 4 342.91 340.91 2.44 o
6 3 4 107.07 104.77 1.75 o
7 3 4 49.68 47.47 0.93 o
8 3 4 23.89 27.69 0.66 o
9 3 4 24.04 22.39 0.56 o
-9 4 4 26.44 26.84 0.84 o
-8 4 4 121.49 128.04 1.76 o
-7 4 4 33.41 34.24 0.75 o
-6 4 4 79.97 80.71 1.15 o
-5 4 4 0.00 0.16 0.12 o
-4 4 4 147.76 146.66 2.62 o
-3 4 4 111.57 110.92 1.47 o
-2 4 4 3.88 4.94 0.39 o
-1 4 4 65.56 66.17 0.91 o
0 4 4 122.03 113.88 2.03 o
1 4 4 37.75 34.43 0.73 o
2 4 4 108.48 116.65 1.41 o
3 4 4 271.06 269.86 1.85 o
4 4 4 43.92 39.88 0.75 o
5 4 4 9.99 11.78 0.52 o
6 4 4 85.13 86.21 1.37 o
7 4 4 14.05 11.56 0.50 o
8 4 4 99.08 106.35 1.49 o
9 4 4 38.38 36.55 0.72 o
-8 5 4 32.75 30.10 1.32 o
-7 5 4 1.81 1.59 0.15 o
-6 5 4 2.81 2.96 0.25 o
-5 5 4 68.22 67.95 1.51 o
-4 5 4 5.84 4.94 0.49 o
-3 5 4 145.68 131.84 1.97 o
-2 5 4 20.42 20.40 0.73 o
-1 5 4 15.75 18.83 0.96 o
0 5 4 19.48 19.58 0.90 o
1 5 4 7.64 9.40 0.64 o
2 5 4 18.43 15.88 0.68 o
3 5 4 200.57 196.57 2.95 o
4 5 4 62.88 60.02 1.38 o
5 5 4 1.73 2.74 0.29 o
6 5 4 61.37 62.43 1.11 o
7 5 4 12.21 11.41 0.48 o
8 5 4 2.65 2.69 0.26 o
-7 6 4 12.32 13.50 0.54 o
-6 6 4 1.27 1.89 0.15 o
-5 6 4 44.64 45.19 1.11 o
-4 6 4 34.96 32.95 0.96 o
-3 6 4 41.35 40.74 1.33 o
-2 6 4 0.75 0.89 0.31 o
-1 6 4 6.88 5.81 0.70 o
0 6 4 18.03 17.79 1.13 o
1 6 4 38.87 39.63 1.29 o
2 6 4 76.33 77.03 2.51 o
3 6 4 52.06 53.34 2.21 o
4 6 4 3.01 3.88 0.29 o
5 6 4 19.65 16.91 0.60 o
6 6 4 85.63 87.59 1.12 o
7 6 4 24.23 22.45 0.65 o
-5 7 4 83.91 82.85 1.71 o
-4 7 4 41.55 36.40 1.60 o
-3 7 4 23.36 19.62 1.20 o
-2 7 4 5.87 5.78 0.64 o
-1 7 4 18.17 17.98 1.11 o
0 7 4 75.24 63.55 2.23 o
1 7 4 106.88 102.16 2.66 o
2 7 4 39.42 40.01 1.74 o
3 7 4 134.64 129.10 1.66 o
4 7 4 3.88 4.98 0.30 o
5 7 4 33.82 31.07 0.91 o
-4 -7 5 4.91 5.62 0.47 o
-3 -7 5 23.70 22.77 0.66 o
-2 -7 5 13.79 15.40 0.56 o
-1 -7 5 25.20 24.94 0.66 o
0 -7 5 1.08 1.17 0.18 o
1 -7 5 26.52 25.51 0.66 o
2 -7 5 118.97 122.68 1.57 o
3 -7 5 1.97 2.21 0.26 o
4 -7 5 11.09 11.96 0.81 o
-6 -6 5 5.47 4.41 0.54 o
-5 -6 5 19.29 18.43 0.64 o
-4 -6 5 63.22 60.16 1.02 o
-3 -6 5 76.77 68.84 1.01 o
-2 -6 5 13.00 14.44 0.48 o
-1 -6 5 6.37 6.64 0.34 o
0 -6 5 21.23 20.56 0.57 o
1 -6 5 19.71 19.03 0.50 o
2 -6 5 46.07 49.50 0.72 o
3 -6 5 19.07 19.59 0.47 o
4 -6 5 2.54 2.36 0.18 o
5 -6 5 61.08 59.06 0.76 o
6 -6 5 60.19 57.48 1.03 o
-7 -5 5 2.66 2.40 0.31 o
-6 -5 5 10.16 9.46 0.67 o
-5 -5 5 42.76 44.01 1.62 o
-4 -5 5 23.73 22.66 0.59 o
-3 -5 5 3.74 3.59 0.24 o
-2 -5 5 35.59 36.16 0.90 o
-1 -5 5 102.25 102.69 1.26 o
0 -5 5 69.73 68.78 0.87 o
1 -5 5 316.90 318.67 1.75 o
2 -5 5 96.96 96.42 1.07 o
3 -5 5 16.93 17.64 0.48 o
4 -5 5 64.73 67.26 1.01 o
5 -5 5 52.92 57.10 0.89 o
6 -5 5 11.41 11.68 0.50 o
7 -5 5 20.05 21.55 0.57 o
-8 -4 5 42.10 44.05 1.01 o
-7 -4 5 54.74 52.23 1.20 o
-6 -4 5 64.01 65.97 1.44 o
-5 -4 5 163.19 158.63 2.83 o
-4 -4 5 15.11 18.85 0.73 o
-3 -4 5 17.56 17.96 0.60 o
-2 -4 5 55.49 58.22 0.84 o
-1 -4 5 35.32 36.13 0.67 o
0 -4 5 114.81 108.57 1.07 o
1 -4 5 365.17 360.62 1.85 o
2 -4 5 30.32 31.13 0.51 o
3 -4 5 30.09 29.68 0.55 o
4 -4 5 30.33 28.56 0.65 o
5 -4 5 86.07 85.80 1.54 o
6 -4 5 185.20 186.35 3.79 o
7 -4 5 11.65 11.08 0.48 o
8 -4 5 14.02 12.02 0.79 o
-9 -3 5 51.67 53.72 1.48 o
-8 -3 5 16.34 19.42 0.53 o
-7 -3 5 5.30 5.50 0.35 o
-6 -3 5 18.31 17.55 1.55 o
-5 -3 5 30.58 35.22 1.03 o
-4 -3 5 64.64 69.45 1.22 o
-3 -3 5 110.32 108.80 1.24 o
-2 -3 5 104.19 101.48 1.87 o
-1 -3 5 76.46 78.03 2.39 o
0 -3 5 137.85 145.82 3.46 o
1 -3 5 154.35 156.45 2.08 o
2 -3 5 33.67 33.33 1.29 o
3 -3 5 176.27 183.39 1.66 o
4 -3 5 104.03 108.70 1.53 o
5 -3 5 12.31 11.06 0.51 o
6 -3 5 80.75 87.33 2.88 o
7 -3 5 45.42 47.73 2.08 o
8 -3 5 10.14 11.42 0.93 o
9 -3 5 9.96 10.83 0.73 o
-9 -2 5 42.74 45.36 0.82 o
-8 -2 5 11.36 11.34 0.42 o
-7 -2 5 65.61 65.72 1.20 o
-6 -2 5 2.36 1.85 0.31 o
-5 -2 5 168.88 172.76 2.68 o
-4 -2 5 276.28 282.12 3.66 o
-3 -2 5 115.30 111.31 1.62 o
-2 -2 5 91.57 88.60 1.28 o
-1 -2 5 32.87 32.31 0.51 o
0 -2 5 275.50 266.16 1.97 o
1 -2 5 74.64 75.53 1.11 o
2 -2 5 54.86 56.96 1.18 o
3 -2 5 5.14 5.92 0.40 o
4 -2 5 123.04 124.09 1.37 o
5 -2 5 69.13 66.76 1.05 o
6 -2 5 332.30 333.85 4.13 o
7 -2 5 107.31 110.29 3.28 o
8 -2 5 15.50 18.08 1.27 o
9 -2 5 11.58 11.43 0.86 o
-10 -1 5 5.80 5.61 0.33 o
-9 -1 5 36.44 35.89 0.89 o
-8 -1 5 16.40 17.72 0.60 o
-7 -1 5 14.14 14.38 0.64 o
-6 -1 5 11.35 10.31 0.71 o
-5 -1 5 35.72 34.84 1.14 o
-4 -1 5 38.40 39.50 1.20 o
-3 -1 5 11.71 15.76 0.53 o
-2 -1 5 260.03 258.88 2.41 o
-1 -1 5 24.44 23.58 0.59 o
0 -1 5 124.05 134.95 1.32 o
1 -1 5 771.78 805.56 3.73 o
2 -1 5 190.80 184.52 1.74 o
3 -1 5 168.14 154.99 1.91 o
4 -1 5 13.85 17.13 0.96 o
5 -1 5 125.77 118.74 1.43 o
6 -1 5 601.23 608.85 3.38 o
7 -1 5 138.97 136.78 1.92 o
8 -1 5 0.38 0.51 0.25 o
9 -1 5 14.44 15.21 1.06 o
-10 0 5 9.50 8.77 0.49 o
-9 0 5 76.76 84.03 1.70 o
-8 0 5 64.59 70.05 1.70 o
-7 0 5 110.11 105.46 2.01 o
-6 0 5 28.69 24.57 0.78 o
-5 0 5 21.42 17.03 0.54 o
-4 0 5 472.80 491.84 4.37 o
-3 0 5 134.84 141.30 3.93 o
-2 0 5 10.13 9.47 0.37 o
-1 0 5 181.83 170.22 4.75 o
0 0 5 82.53 82.36 1.28 o
1 0 5 24.86 34.27 0.65 o
2 0 5 24.02 21.22 0.55 o
3 0 5 57.75 58.62 1.41 o
4 0 5 37.21 29.63 1.17 o
5 0 5 613.64 595.42 3.28 o
6 0 5 1189.68 1147.31 4.97 o
7 0 5 129.79 131.83 1.94 o
8 0 5 0.25 0.33 0.15 o
9 0 5 111.54 122.39 2.97 o
-10 1 5 5.62 5.31 0.32 o
-9 1 5 36.96 37.53 0.87 o
-8 1 5 16.71 17.18 0.67 o
-7 1 5 14.01 13.43 0.53 o
-6 1 5 11.38 10.36 0.37 o
-5 1 5 35.35 36.49 0.79 o
-4 1 5 39.42 40.40 0.71 o
-3 1 5 12.22 16.27 0.57 o
-2 1 5 258.86 254.19 2.27 o
-1 1 5 24.57 23.74 1.45 o
0 1 5 125.24 134.76 1.27 o
1 1 5 771.63 816.38 3.06 o
2 1 5 191.37 184.71 2.52 o
3 1 5 166.95 160.05 1.80 o
4 1 5 14.03 15.13 0.40 o
5 1 5 124.72 117.90 1.17 o
6 1 5 601.62 606.74 3.19 o
7 1 5 139.03 137.80 1.55 o
8 1 5 0.40 0.51 0.12 o
9 1 5 14.05 14.02 0.51 o
-9 2 5 42.26 43.51 1.16 o
-8 2 5 11.17 11.11 0.47 o
-7 2 5 65.60 65.42 1.05 o
-6 2 5 2.39 1.79 0.18 o
-5 2 5 169.01 177.94 1.44 o
-4 2 5 276.78 286.21 2.12 o
-3 2 5 115.17 114.36 1.28 o
-2 2 5 92.02 88.17 1.19 o
-1 2 5 33.07 32.25 0.82 o
0 2 5 275.24 267.64 2.61 o
1 2 5 74.93 76.12 1.04 o
2 2 5 54.66 56.39 0.83 o
3 2 5 5.23 6.50 0.60 o
4 2 5 123.09 122.20 0.93 o
5 2 5 68.76 66.50 0.87 o
6 2 5 333.17 329.31 2.13 o
7 2 5 107.37 106.10 1.35 o
8 2 5 15.32 15.49 0.55 o
9 2 5 11.71 11.63 0.45 o
-9 3 5 51.71 50.50 1.12 o
-8 3 5 16.01 17.44 0.67 o
-7 3 5 5.30 4.77 0.28 o
-6 3 5 18.19 17.74 0.61 o
-5 3 5 30.65 35.05 0.79 o
-4 3 5 65.49 69.71 0.98 o
-3 3 5 110.09 108.94 1.33 o
-2 3 5 104.35 102.43 1.22 o
-1 3 5 76.39 77.88 1.16 o
0 3 5 136.84 143.42 2.30 o
1 3 5 154.23 156.75 1.48 o
2 3 5 33.48 31.94 0.76 o
3 3 5 175.28 179.43 1.38 o
4 3 5 103.96 107.60 1.13 o
5 3 5 12.38 11.41 0.38 o
6 3 5 81.97 88.33 1.24 o
7 3 5 46.20 43.80 1.11 o
8 3 5 10.27 11.17 0.52 o
9 3 5 9.92 11.28 0.42 o
-8 4 5 42.09 43.08 0.95 o
-7 4 5 55.59 53.10 0.85 o
-6 4 5 63.06 64.02 1.03 o
-5 4 5 163.19 161.86 1.90 o
-4 4 5 15.18 18.50 0.70 o
-3 4 5 17.24 17.57 0.60 o
-2 4 5 54.73 55.21 0.94 o
-1 4 5 35.55 37.23 0.85 o
0 4 5 114.70 110.87 1.69 o
1 4 5 366.39 364.43 2.55 o
2 4 5 30.61 32.11 0.98 o
3 4 5 30.23 30.62 0.65 o
4 4 5 30.97 30.99 0.84 o
5 4 5 85.83 87.64 1.27 o
6 4 5 185.18 191.15 1.60 o
7 4 5 11.55 11.02 0.39 o
8 4 5 14.32 12.25 0.46 o
-7 5 5 2.56 2.02 0.16 o
-6 5 5 10.18 10.17 0.58 o
-5 5 5 42.45 43.07 0.93 o
-4 5 5 23.58 22.37 0.85 o
-3 5 5 3.56 2.87 0.30 o
-2 5 5 35.04 33.94 0.95 o
-1 5 5 102.16 100.58 2.18 o
0 5 5 70.48 68.02 1.26 o
1 5 5 317.09 314.04 4.31 o
2 5 5 96.62 98.85 2.12 o
3 5 5 17.01 17.98 0.73 o
4 5 5 65.17 68.08 1.47 o
5 5 5 52.27 55.46 0.85 o
6 5 5 11.30 11.15 0.39 o
7 5 5 20.08 21.41 0.60 o
-6 6 5 5.38 4.90 0.33 o
-5 6 5 19.62 18.45 0.63 o
-4 6 5 63.01 59.40 1.50 o
-3 6 5 76.48 65.22 2.44 o
-2 6 5 13.03 13.82 1.11 o
-1 6 5 6.56 5.99 0.70 o
0 6 5 20.96 19.65 1.15 o
1 6 5 20.01 19.60 0.92 o
2 6 5 45.72 47.74 1.46 o
3 6 5 19.14 19.75 0.76 o
4 6 5 2.48 2.30 0.23 o
5 6 5 61.26 59.23 0.99 o
6 6 5 60.64 56.42 1.41 o
-3 7 5 23.68 22.54 1.17 o
-2 7 5 13.20 13.30 0.65 o
-1 7 5 25.67 23.95 0.91 o
0 7 5 0.99 1.02 0.30 o
1 7 5 26.60 24.29 0.92 o
2 7 5 120.71 119.18 2.86 o
3 7 5 1.93 2.27 0.19 o
-3 -7 6 13.24 11.27 0.46 o
-2 -7 6 12.04 12.88 0.45 o
-1 -7 6 1.08 0.93 0.12 o
0 -7 6 3.43 4.01 0.24 o
1 -7 6 2.89 2.73 0.24 o
2 -7 6 44.87 43.46 0.99 o
3 -7 6 13.61 11.84 0.46 o
-5 -6 6 22.13 21.66 0.61 o
-4 -6 6 28.22 26.59 0.76 o
-3 -6 6 25.72 24.99 0.55 o
-2 -6 6 38.93 37.24 0.80 o
-1 -6 6 31.40 35.50 1.01 o
0 -6 6 36.29 36.05 0.73 o
1 -6 6 97.89 99.25 1.18 o
2 -6 6 138.10 145.82 1.54 o
3 -6 6 20.23 19.34 0.47 o
4 -6 6 28.77 32.05 0.62 o
5 -6 6 11.51 11.27 0.46 o
-7 -5 6 1.24 1.01 0.21 o
-6 -5 6 75.31 68.60 1.62 o
-5 -5 6 70.01 65.59 1.31 o
-4 -5 6 117.97 114.59 1.74 o
-3 -5 6 34.99 29.72 0.94 o
-2 -5 6 125.67 135.02 1.44 o
-1 -5 6 2.18 1.89 0.21 o
0 -5 6 41.00 44.18 0.83 o
1 -5 6 139.80 139.64 1.34 o
2 -5 6 10.36 9.36 0.32 o
3 -5 6 48.01 48.78 0.84 o
4 -5 6 14.73 14.11 0.74 o
5 -5 6 142.33 152.51 1.82 o
6 -5 6 17.71 17.73 0.71 o
-8 -4 6 22.34 24.35 0.66 o
-7 -4 6 5.24 6.10 0.43 o
-6 -4 6 4.91 4.27 0.36 o
-5 -4 6 12.88 10.73 0.56 o
-4 -4 6 88.57 85.14 1.56 o
-3 -4 6 3.65 4.99 0.36 o
-2 -4 6 17.77 16.15 0.56 o
-1 -4 6 120.56 124.99 2.00 o
0 -4 6 122.09 123.69 3.32 o
1 -4 6 57.63 52.94 0.91 o
2 -4 6 54.59 57.41 0.85 o
3 -4 6 25.17 23.89 0.69 o
4 -4 6 169.91 172.41 2.15 o
5 -4 6 223.53 227.16 2.42 o
6 -4 6 60.55 65.93 1.57 o
7 -4 6 9.83 10.20 1.03 o
-8 -3 6 1.29 1.56 0.17 o
-7 -3 6 14.58 17.47 0.72 o
-6 -3 6 45.49 42.43 1.42 o
-5 -3 6 47.44 50.43 1.21 o
-4 -3 6 10.49 11.40 0.62 o
-3 -3 6 14.40 13.42 0.47 o
-2 -3 6 20.80 20.62 0.70 o
-1 -3 6 149.41 149.79 1.56 o
0 -3 6 308.54 316.29 2.73 o
1 -3 6 328.30 310.48 2.05 o
2 -3 6 97.16 92.60 1.05 o
3 -3 6 23.20 24.53 0.74 o
4 -3 6 324.30 324.00 4.47 o
5 -3 6 214.13 218.16 3.43 o
6 -3 6 7.41 8.49 0.39 o
7 -3 6 13.58 15.14 0.77 o
8 -3 6 1.10 0.82 0.20 o
-9 -2 6 16.04 16.11 0.63 o
-8 -2 6 27.56 26.53 0.85 o
-7 -2 6 8.55 10.24 0.56 o
-6 -2 6 24.53 22.16 1.05 o
-5 -2 6 5.40 3.29 0.28 o
-4 -2 6 116.99 116.34 1.60 o
-3 -2 6 18.74 19.84 0.59 o
-2 -2 6 75.35 70.83 1.29 o
-1 -2 6 21.94 20.59 0.83 o
0 -2 6 24.25 22.90 0.63 o
1 -2 6 2.33 2.20 0.24 o
2 -2 6 6.43 6.80 1.15 o
3 -2 6 30.99 28.89 0.61 o
4 -2 6 122.79 126.11 1.68 o
5 -2 6 295.51 289.82 3.30 o
6 -2 6 77.70 74.32 1.66 o
7 -2 6 22.56 21.01 0.82 o
8 -2 6 0.51 0.34 0.15 o
-9 -1 6 70.00 72.44 1.93 o
-8 -1 6 12.93 12.23 0.56 o
-7 -1 6 16.31 16.13 0.71 o
-6 -1 6 44.96 47.65 1.51 o
-5 -1 6 27.61 27.21 1.01 o
-4 -1 6 79.43 80.72 1.18 o
-3 -1 6 124.57 123.86 1.63 o
-2 -1 6 50.70 47.28 1.21 o
-1 -1 6 106.71 103.64 1.68 o
0 -1 6 213.82 212.54 1.84 o
1 -1 6 94.93 95.34 1.10 o
2 -1 6 236.33 226.70 2.03 o
3 -1 6 8.33 9.36 0.36 o
4 -1 6 6.02 5.67 0.30 o
5 -1 6 814.04 799.98 5.75 o
6 -1 6 2.18 2.16 0.30 o
7 -1 6 13.20 12.85 0.68 o
8 -1 6 8.42 7.15 0.37 o
9 -1 6 33.81 36.94 1.75 o
-9 0 6 5.51 6.00 0.73 o
-8 0 6 1.02 0.83 0.15 o
-7 0 6 0.25 0.32 0.12 o
-6 0 6 20.44 17.36 0.90 o
-5 0 6 92.82 82.24 1.38 o
-4 0 6 8.20 9.14 0.73 o
-3 0 6 15.12 14.90 0.83 o
-2 0 6 162.97 143.91 2.03 o
-1 0 6 2.24 3.65 0.31 o
0 0 6 221.41 228.31 3.61 o
1 0 6 26.40 27.49 0.90 o
2 0 6 186.26 179.90 5.05 o
3 0 6 24.30 25.76 0.76 o
4 0 6 36.37 28.71 0.68 o
5 0 6 37.50 35.97 0.83 o
6 0 6 4.54 3.86 0.34 o
7 0 6 0.02 -0.01 0.13 o
8 0 6 4.13 6.01 0.43 o
9 0 6 30.50 35.85 1.33 o
-9 1 6 70.56 72.00 2.10 o
-8 1 6 12.98 12.64 1.08 o
-7 1 6 16.40 15.45 0.54 o
-6 1 6 45.12 46.23 0.94 o
-5 1 6 26.93 25.96 0.70 o
-4 1 6 79.18 82.34 1.02 o
-3 1 6 124.52 122.77 1.59 o
-2 1 6 51.20 47.93 1.54 o
-1 1 6 107.76 106.39 1.47 o
0 1 6 215.03 206.18 2.60 o
1 1 6 94.60 93.92 1.18 o
2 1 6 237.12 237.04 2.06 o
3 1 6 8.54 9.61 0.35 o
4 1 6 5.72 6.12 0.25 o
5 1 6 816.48 798.56 5.27 o
6 1 6 2.08 2.62 0.27 o
7 1 6 13.49 13.25 0.59 o
8 1 6 8.54 8.60 0.50 o
9 1 6 33.99 36.62 0.81 o
-9 2 6 16.18 16.40 0.94 o
-8 2 6 28.34 27.57 0.95 o
-7 2 6 8.33 8.76 0.38 o
-6 2 6 24.63 22.73 0.61 o
-5 2 6 5.33 2.59 0.23 o
-4 2 6 116.92 118.87 1.24 o
-3 2 6 18.34 20.01 0.55 o
-2 2 6 75.18 73.69 1.17 o
-1 2 6 21.40 19.34 0.60 o
0 2 6 25.00 24.59 0.66 o
1 2 6 2.07 2.00 0.17 o
2 2 6 6.38 8.29 0.38 o
3 2 6 30.49 27.11 0.55 o
4 2 6 122.35 123.06 1.05 o
5 2 6 295.43 290.73 2.55 o
6 2 6 78.79 76.26 1.27 o
7 2 6 22.66 21.67 0.65 o
8 2 6 0.44 0.11 0.10 o
-8 3 6 1.24 1.11 0.16 o
-7 3 6 14.47 16.39 0.50 o
-6 3 6 44.63 41.54 0.93 o
-5 3 6 46.60 47.80 0.87 o
-4 3 6 10.51 10.81 0.39 o
-3 3 6 15.03 14.26 0.49 o
-2 3 6 20.69 20.21 0.76 o
-1 3 6 150.53 147.71 1.61 o
0 3 6 307.85 317.06 2.61 o
1 3 6 327.57 314.78 2.45 o
2 3 6 97.44 92.79 1.07 o
3 3 6 22.67 25.42 0.57 o
4 3 6 321.51 322.70 2.09 o
5 3 6 213.82 219.37 1.70 o
6 3 6 7.29 8.09 0.40 o
7 3 6 13.48 14.35 0.43 o
8 3 6 1.26 1.47 0.29 o
-8 4 6 22.44 23.44 0.60 o
-7 4 6 5.10 5.80 0.27 o
-6 4 6 4.88 4.48 0.30 o
-5 4 6 12.84 12.16 0.51 o
-4 4 6 88.75 86.23 1.53 o
-3 4 6 3.80 5.53 0.53 o
-2 4 6 17.36 14.58 0.67 o
-1 4 6 119.33 115.74 2.38 o
0 4 6 122.58 121.96 1.82 o
1 4 6 57.01 53.76 1.32 o
2 4 6 54.58 57.48 1.00 o
3 4 6 24.66 22.39 0.78 o
4 4 6 170.19 172.89 1.72 o
5 4 6 224.47 231.47 1.76 o
6 4 6 60.24 64.42 0.94 o
7 4 6 9.74 9.99 0.43 o
-7 5 6 1.33 1.49 0.16 o
-6 5 6 74.70 68.46 0.97 o
-5 5 6 70.49 68.88 1.10 o
-4 5 6 117.25 116.53 2.10 o
-3 5 6 34.47 31.43 2.21 o
-2 5 6 125.52 133.48 3.63 o
-1 5 6 2.24 2.12 0.27 o
0 5 6 41.63 43.22 1.51 o
1 5 6 141.01 141.94 2.69 o
2 5 6 10.19 9.66 0.56 o
3 5 6 47.57 46.82 1.51 o
4 5 6 14.89 13.88 0.46 o
5 5 6 143.09 150.23 1.86 o
6 5 6 17.95 17.21 0.54 o
-5 6 6 22.10 22.43 1.08 o
-4 6 6 27.73 26.44 0.86 o
-3 6 6 25.65 25.60 0.84 o
-2 6 6 39.10 33.72 0.98 o
-1 6 6 31.62 34.06 2.27 o
0 6 6 36.00 34.71 1.24 o
1 6 6 97.51 94.03 1.63 o
2 6 6 138.22 138.37 1.87 o
3 6 6 20.60 18.34 0.86 o
4 6 6 29.22 32.98 0.79 o
5 6 6 11.70 11.29 0.55 o
-2 7 6 11.87 11.01 0.81 o
-1 7 6 1.02 0.99 0.28 o
0 7 6 3.48 3.22 0.32 o
1 7 6 2.91 2.78 0.42 o
2 7 6 45.07 42.33 1.15 o
3 7 6 13.65 11.93 0.61 o
0 -7 7 8.97 10.23 0.35 o
-4 -6 7 13.44 10.94 0.76 o
-3 -6 7 28.98 25.71 0.94 o
-2 -6 7 61.26 64.55 1.18 o
-1 -6 7 29.13 28.43 0.83 o
0 -6 7 3.52 3.38 0.30 o
1 -6 7 67.80 70.10 1.06 o
2 -6 7 32.54 34.70 0.70 o
3 -6 7 31.95 33.09 0.91 o
4 -6 7 9.86 9.54 0.43 o
-6 -5 7 7.98 8.02 0.48 o
-5 -5 7 16.58 15.46 0.57 o
-4 -5 7 5.79 6.35 0.40 o
-3 -5 7 9.72 10.73 0.53 o
-2 -5 7 54.03 56.58 1.25 o
-1 -5 7 37.91 38.42 0.89 o
0 -5 7 61.86 62.51 1.14 o
1 -5 7 101.29 106.90 1.73 o
2 -5 7 122.89 125.78 1.61 o
3 -5 7 120.10 128.94 1.49 o
4 -5 7 98.52 98.41 1.91 o
5 -5 7 19.33 20.45 0.69 o
-7 -4 7 1.09 1.29 0.26 o
-6 -4 7 5.32 4.63 0.44 o
-5 -4 7 5.84 5.85 0.48 o
-4 -4 7 16.67 15.45 0.65 o
-3 -4 7 0.11 0.19 0.12 o
-2 -4 7 56.80 58.77 1.08 o
-1 -4 7 313.30 328.54 3.22 o
0 -4 7 244.91 249.20 2.22 o
1 -4 7 95.12 94.57 1.13 o
2 -4 7 0.98 0.98 0.14 o
3 -4 7 37.94 39.09 0.99 o
4 -4 7 101.39 103.58 1.61 o
5 -4 7 0.92 0.61 0.14 o
6 -4 7 1.04 1.17 0.16 o
7 -4 7 1.78 2.25 0.22 o
-8 -3 7 15.82 16.08 0.66 o
-7 -3 7 5.28 4.62 0.34 o
-6 -3 7 83.72 78.61 1.91 o
-5 -3 7 134.67 124.76 2.06 o
-4 -3 7 23.59 20.58 0.79 o
-3 -3 7 3.61 4.20 0.31 o
-2 -3 7 57.11 58.08 1.24 o
-1 -3 7 49.56 46.73 0.94 o
0 -3 7 121.40 121.13 1.36 o
1 -3 7 20.10 19.37 0.73 o
2 -3 7 94.84 87.57 1.10 o
3 -3 7 7.10 6.47 0.35 o
4 -3 7 403.88 401.76 4.67 o
5 -3 7 45.14 45.32 0.90 o
6 -3 7 7.79 7.16 0.33 o
7 -3 7 9.89 10.84 0.95 o
-8 -2 7 10.73 10.16 0.46 o
-7 -2 7 15.08 15.61 0.66 o
-6 -2 7 79.51 80.34 1.94 o
-5 -2 7 25.92 25.37 0.73 o
-4 -2 7 36.26 38.38 0.91 o
-3 -2 7 74.71 70.09 1.06 o
-2 -2 7 177.23 175.22 2.67 o
-1 -2 7 640.69 641.44 3.83 o
0 -2 7 16.00 13.37 0.40 o
1 -2 7 32.18 32.74 0.77 o
2 -2 7 31.57 31.10 0.64 o
3 -2 7 24.20 22.98 0.64 o
4 -2 7 0.93 0.64 0.30 o
5 -2 7 158.54 159.72 2.05 o
6 -2 7 40.88 41.47 1.00 o
7 -2 7 9.62 8.98 0.42 o
8 -2 7 34.27 37.94 1.27 o
-8 -1 7 19.30 19.65 0.67 o
-7 -1 7 1.35 1.75 0.24 o
-6 -1 7 96.47 92.75 2.10 o
-5 -1 7 133.16 124.35 1.59 o
-4 -1 7 26.48 28.06 0.61 o
-3 -1 7 27.13 28.71 0.65 o
-2 -1 7 59.67 57.63 1.18 o
-1 -1 7 274.14 262.92 4.37 o
0 -1 7 224.60 219.31 2.73 o
1 -1 7 68.39 70.32 0.85 o
2 -1 7 3.39 2.51 0.15 o
3 -1 7 51.36 53.63 0.77 o
4 -1 7 67.45 62.42 1.23 o
5 -1 7 64.28 67.84 1.30 o
6 -1 7 32.33 33.25 0.89 o
7 -1 7 16.35 16.50 0.58 o
8 -1 7 0.46 0.48 0.09 o
-9 0 7 24.20 23.63 1.09 o
-8 0 7 1.53 1.20 0.20 o
-7 0 7 9.81 10.22 0.66 o
-6 0 7 3.99 3.17 0.37 o
-5 0 7 0.23 0.26 0.16 o
-4 0 7 22.92 21.25 0.50 o
-3 0 7 12.36 10.62 0.37 o
-2 0 7 2.15 1.99 0.17 o
-1 0 7 207.79 201.36 1.71 o
0 0 7 11.33 13.07 0.67 o
1 0 7 9.19 8.49 0.36 o
2 0 7 12.39 11.13 0.39 o
3 0 7 0.04 0.50 0.10 o
4 0 7 2.30 1.50 0.24 o
5 0 7 0.60 0.47 0.15 o
6 0 7 197.48 191.11 2.59 o
7 0 7 5.12 7.44 0.55 o
8 0 7 1.79 1.74 0.22 o
-8 1 7 19.48 19.95 1.23 o
-7 1 7 1.45 1.59 0.20 o
-6 1 7 96.80 91.35 1.31 o
-5 1 7 133.70 126.12 1.50 o
-4 1 7 26.23 27.61 0.63 o
-3 1 7 27.01 28.24 0.67 o
-2 1 7 59.03 58.18 1.23 o
-1 1 7 271.94 265.46 2.32 o
0 1 7 224.22 221.54 3.54 o
1 1 7 68.59 69.39 1.08 o
2 1 7 3.50 2.60 0.19 o
3 1 7 51.50 53.66 0.86 o
4 1 7 67.47 63.11 1.25 o
5 1 7 64.33 66.57 1.70 o
6 1 7 32.15 32.74 1.53 o
7 1 7 16.38 16.78 1.01 o
8 1 7 0.43 0.50 0.19 o
-8 2 7 10.61 9.72 0.60 o
-7 2 7 15.37 15.74 0.74 o
-6 2 7 79.88 80.26 1.83 o
-5 2 7 25.89 24.27 0.97 o
-4 2 7 36.69 40.00 0.86 o
-3 2 7 74.84 72.70 1.20 o
-2 2 7 175.61 172.18 1.59 o
-1 2 7 641.70 647.33 3.46 o
0 2 7 15.70 13.42 0.50 o
1 2 7 31.66 31.54 0.69 o
2 2 7 31.17 29.70 0.59 o
3 2 7 24.42 24.54 0.51 o
4 2 7 1.01 1.02 0.18 o
5 2 7 159.69 157.15 1.89 o
6 2 7 41.30 40.89 0.91 o
7 2 7 9.83 10.62 0.80 o
8 2 7 35.06 37.38 1.23 o
-8 3 7 15.78 14.49 0.83 o
-7 3 7 5.28 4.47 0.26 o
-6 3 7 84.09 79.99 1.17 o
-5 3 7 134.17 125.30 1.71 o
-4 3 7 23.85 21.98 0.88 o
-3 3 7 3.52 3.61 0.38 o
-2 3 7 56.26 57.15 1.65 o
-1 3 7 49.92 46.32 0.88 o
0 3 7 121.20 121.71 1.59 o
1 3 7 19.85 20.76 0.68 o
2 3 7 94.42 89.52 1.18 o
3 3 7 7.17 6.19 0.35 o
4 3 7 405.15 404.45 2.84 o
5 3 7 44.79 46.83 1.29 o
6 3 7 8.10 7.88 0.40 o
7 3 7 9.78 11.29 0.52 o
-7 4 7 1.02 1.44 0.13 o
-6 4 7 5.32 4.59 0.36 o
-5 4 7 5.79 6.53 0.49 o
-4 4 7 16.52 16.42 0.62 o
-3 4 7 0.10 0.39 0.17 o
-2 4 7 56.42 56.09 1.70 o
-1 4 7 314.85 336.83 5.99 o
0 4 7 244.47 249.06 2.67 o
1 4 7 95.06 96.93 1.82 o
2 4 7 0.98 0.86 0.18 o
3 4 7 38.17 39.12 0.93 o
4 4 7 101.20 99.96 1.21 o
5 4 7 0.92 0.89 0.16 o
6 4 7 1.05 1.22 0.16 o
7 4 7 1.69 2.10 0.19 o
-6 5 7 7.78 7.74 0.29 o
-5 5 7 17.26 17.07 0.71 o
-4 5 7 6.08 6.48 0.32 o
-3 5 7 9.62 10.46 0.51 o
-2 5 7 53.25 52.60 2.06 o
-1 5 7 38.73 39.04 1.39 o
0 5 7 62.76 64.34 1.29 o
1 5 7 101.55 105.23 1.48 o
2 5 7 122.01 120.54 1.63 o
3 5 7 118.68 121.96 1.54 o
4 5 7 98.59 96.34 1.06 o
5 5 7 19.63 19.70 0.55 o
-4 6 7 13.59 11.36 0.49 o
-3 6 7 29.60 27.73 0.74 o
-2 6 7 61.59 61.34 1.50 o
-1 6 7 29.47 26.62 1.01 o
0 6 7 3.44 2.95 0.27 o
1 6 7 67.49 67.25 1.33 o
2 6 7 32.04 33.21 0.74 o
3 6 7 31.91 30.99 0.64 o
4 6 7 9.82 10.92 0.64 o
-2 -6 8 107.06 109.23 2.48 o
-1 -6 8 42.42 47.00 1.49 o
0 -6 8 6.18 7.24 0.45 o
1 -6 8 59.06 58.84 1.81 o
2 -6 8 34.46 35.70 0.87 o
-5 -5 8 2.92 2.89 0.25 o
-4 -5 8 5.05 4.53 0.37 o
-3 -5 8 19.52 19.39 2.16 o
-2 -5 8 21.17 21.56 0.69 o
-1 -5 8 8.39 9.50 0.49 o
0 -5 8 8.46 8.92 0.41 o
1 -5 8 20.51 21.75 0.62 o
2 -5 8 12.80 13.62 0.46 o
3 -5 8 49.78 50.04 1.19 o
4 -5 8 4.88 4.03 0.41 o
-6 -4 8 3.53 3.64 0.33 o
-5 -4 8 83.77 77.02 1.49 o
-4 -4 8 6.96 8.48 0.44 o
-3 -4 8 23.12 21.50 0.95 o
-2 -4 8 69.84 69.36 1.73 o
-1 -4 8 9.52 9.90 0.40 o
0 -4 8 82.00 81.45 1.14 o
1 -4 8 8.57 8.86 0.37 o
2 -4 8 15.52 15.37 0.49 o
3 -4 8 87.75 86.01 1.23 o
4 -4 8 9.56 9.81 0.44 o
5 -4 8 55.59 54.45 1.25 o
6 -4 8 5.80 5.55 0.31 o
-7 -3 8 4.99 5.51 0.40 o
-6 -3 8 29.38 27.56 1.40 o
-5 -3 8 6.00 5.69 0.46 o
-4 -3 8 17.91 18.08 0.70 o
-3 -3 8 52.00 53.81 1.27 o
-2 -3 8 103.78 102.04 1.79 o
-1 -3 8 105.56 112.35 1.35 o
0 -3 8 196.82 197.96 1.79 o
1 -3 8 27.99 26.83 0.60 o
2 -3 8 41.81 42.24 1.03 o
3 -3 8 71.70 72.33 1.36 o
4 -3 8 9.87 9.30 0.49 o
5 -3 8 0.41 0.18 0.08 o
6 -3 8 1.00 1.07 0.14 o
-7 -2 8 4.22 6.02 0.45 o
-6 -2 8 25.11 22.61 1.36 o
-5 -2 8 13.23 13.87 0.76 o
-4 -2 8 2.10 1.54 0.26 o
-3 -2 8 75.26 76.33 1.85 o
-2 -2 8 531.76 538.56 4.46 o
-1 -2 8 236.34 235.45 3.23 o
0 -2 8 43.23 44.07 1.46 o
1 -2 8 33.48 34.58 0.72 o
2 -2 8 72.24 65.71 1.13 o
3 -2 8 39.36 36.08 0.81 o
4 -2 8 8.40 6.66 0.52 o
5 -2 8 50.26 52.02 1.35 o
6 -2 8 15.30 15.88 0.45 o
7 -2 8 11.90 11.26 0.67 o
-8 -1 8 12.03 14.02 0.87 o
-7 -1 8 55.26 54.64 1.08 o
-6 -1 8 55.55 52.07 1.47 o
-5 -1 8 54.12 52.76 1.18 o
-4 -1 8 72.60 71.29 1.42 o
-3 -1 8 1.65 1.65 0.30 o
-2 -1 8 64.21 63.85 1.66 o
-1 -1 8 152.43 144.26 3.62 o
0 -1 8 2.62 3.11 0.21 o
1 -1 8 14.54 13.51 0.47 o
2 -1 8 12.53 13.58 0.51 o
3 -1 8 137.18 126.15 1.54 o
4 -1 8 113.86 109.09 1.96 o
5 -1 8 43.53 41.53 1.18 o
6 -1 8 10.32 10.83 0.64 o
7 -1 8 24.63 25.51 1.07 o
-8 0 8 35.46 34.61 1.39 o
-7 0 8 31.09 34.14 1.06 o
-6 0 8 32.64 32.90 0.92 o
-5 0 8 2.17 3.27 0.31 o
-4 0 8 4.17 3.57 0.27 o
-3 0 8 14.40 14.41 0.60 o
-2 0 8 1249.13 1254.53 7.19 o
-1 0 8 142.41 141.32 2.89 o
0 0 8 11.69 11.86 0.38 o
1 0 8 4.92 5.04 0.32 o
2 0 8 21.83 22.14 0.74 o
3 0 8 15.08 16.93 0.76 o
4 0 8 0.51 0.12 0.13 o
5 0 8 0.47 0.65 0.24 o
6 0 8 0.28 0.63 0.26 o
7 0 8 2.67 2.96 0.40 o
-8 1 8 11.65 13.11 0.84 o
-7 1 8 55.06 54.99 2.02 o
-6 1 8 55.00 51.97 1.95 o
-5 1 8 54.26 54.78 1.43 o
-4 1 8 72.87 71.98 1.35 o
-3 1 8 1.51 1.50 0.17 o
-2 1 8 63.61 64.97 1.04 o
-1 1 8 152.67 154.64 1.93 o
0 1 8 2.54 2.84 0.23 o
1 1 8 14.80 14.09 0.49 o
2 1 8 12.28 13.74 0.58 o
3 1 8 136.53 125.50 2.07 o
4 1 8 113.14 110.45 3.78 o
5 1 8 42.84 41.15 1.13 o
6 1 8 10.07 11.06 0.83 o
7 1 8 24.68 27.40 1.14 o
-7 2 8 4.19 5.51 0.32 o
-6 2 8 25.16 22.21 0.69 o
-5 2 8 13.12 13.12 0.48 o
-4 2 8 1.98 2.33 0.35 o
-3 2 8 75.62 77.59 1.19 o
-2 2 8 533.69 554.07 5.91 o
-1 2 8 236.75 240.57 2.14 o
0 2 8 43.21 44.37 1.06 o
1 2 8 33.51 35.11 1.22 o
2 2 8 71.31 66.74 1.21 o
3 2 8 38.86 37.15 1.12 o
4 2 8 8.59 6.64 0.48 o
5 2 8 50.56 53.09 1.50 o
6 2 8 15.32 16.47 0.63 o
7 2 8 12.01 10.40 0.67 o
-7 3 8 5.18 5.36 0.35 o
-6 3 8 29.47 27.38 0.73 o
-5 3 8 6.19 6.06 0.47 o
-4 3 8 18.01 18.55 0.58 o
-3 3 8 51.88 53.64 1.18 o
-2 3 8 103.79 105.01 1.72 o
-1 3 8 106.36 113.98 2.11 o
0 3 8 197.60 198.23 2.38 o
1 3 8 27.99 26.73 0.86 o
2 3 8 41.82 43.43 0.90 o
3 3 8 72.40 74.26 1.01 o
4 3 8 9.56 9.10 0.38 o
5 3 8 0.40 0.39 0.16 o
6 3 8 0.92 1.35 0.19 o
-6 4 8 3.50 3.93 0.25 o
-5 4 8 84.50 78.54 1.36 o
-4 4 8 6.83 8.67 0.38 o
-3 4 8 23.11 23.21 0.65 o
-2 4 8 70.49 72.88 2.23 o
-1 4 8 9.69 9.79 0.43 o
0 4 8 82.22 80.89 1.27 o
1 4 8 8.73 9.50 0.39 o
2 4 8 15.74 15.30 0.53 o
3 4 8 87.35 83.36 1.21 o
4 4 8 9.96 9.78 0.36 o
5 4 8 56.04 54.61 1.07 o
6 4 8 5.78 5.58 0.44 o
-5 5 8 3.00 3.08 0.21 o
-4 5 8 5.00 3.85 0.22 o
-3 5 8 19.28 19.78 0.54 o
-2 5 8 20.97 20.91 0.69 o
-1 5 8 8.41 8.63 0.47 o
0 5 8 8.84 9.21 0.39 o
1 5 8 20.02 20.01 0.67 o
2 5 8 12.76 12.30 0.43 o
3 5 8 50.33 47.52 0.81 o
4 5 8 5.08 4.32 0.46 o
-2 6 8 106.77 113.23 1.45 o
-1 6 8 42.35 48.97 1.41 o
0 6 8 6.08 7.88 0.59 o
1 6 8 60.02 60.21 1.25 o
2 6 8 34.83 36.87 1.03 o
-3 -5 9 27.69 27.96 0.79 o
-2 -5 9 18.95 18.99 1.06 o
-1 -5 9 22.91 23.03 0.76 o
0 -5 9 9.08 8.74 0.49 o
1 -5 9 3.16 3.54 0.25 o
2 -5 9 33.12 36.83 0.90 o
-5 -4 9 18.08 18.16 0.60 o
-4 -4 9 57.20 58.81 1.79 o
-3 -4 9 126.88 138.38 4.44 o
-2 -4 9 88.35 93.44 3.04 o
-1 -4 9 16.89 14.93 0.51 o
0 -4 9 7.05 7.02 0.31 o
1 -4 9 11.62 11.98 0.39 o
2 -4 9 39.61 39.33 0.75 o
3 -4 9 20.62 21.69 0.76 o
4 -4 9 29.80 31.48 0.84 o
-6 -3 9 13.66 11.94 1.04 o
-5 -3 9 58.53 56.39 1.63 o
-4 -3 9 31.06 27.58 1.76 o
-3 -3 9 16.93 18.10 0.85 o
-2 -3 9 65.22 69.03 1.69 o
-1 -3 9 3.41 3.97 0.25 o
0 -3 9 30.38 30.55 0.74 o
1 -3 9 60.14 60.62 1.17 o
2 -3 9 32.70 31.87 0.65 o
3 -3 9 1.21 1.22 0.17 o
4 -3 9 4.02 3.59 0.27 o
5 -3 9 22.22 21.28 0.57 o
-6 -2 9 22.07 19.82 1.03 o
-5 -2 9 0.51 0.74 0.16 o
-4 -2 9 22.15 20.81 0.71 o
-3 -2 9 93.97 103.02 3.52 o
-2 -2 9 27.23 28.22 1.13 o
-1 -2 9 44.16 44.83 0.88 o
0 -2 9 24.21 25.15 0.79 o
1 -2 9 6.19 6.31 0.50 o
2 -2 9 116.93 112.51 1.63 o
3 -2 9 25.81 22.17 0.69 o
4 -2 9 44.49 39.11 1.13 o
5 -2 9 10.35 10.02 0.52 o
6 -2 9 5.02 5.29 0.31 o
-7 -1 9 0.65 0.82 0.25 o
-6 -1 9 2.33 2.76 0.43 o
-5 -1 9 18.67 17.06 0.58 o
-4 -1 9 12.64 11.89 0.68 o
-3 -1 9 131.63 137.96 2.41 o
-2 -1 9 550.52 570.11 5.03 o
-1 -1 9 104.11 107.08 2.19 o
0 -1 9 11.90 13.01 0.76 o
1 -1 9 24.21 25.20 0.81 o
2 -1 9 20.27 18.69 0.56 o
3 -1 9 56.59 60.67 2.30 o
4 -1 9 26.65 26.24 0.94 o
5 -1 9 8.07 8.87 0.68 o
6 -1 9 38.95 43.38 1.41 o
-7 0 9 5.53 3.14 0.42 o
-6 0 9 33.63 34.92 1.51 o
-5 0 9 22.86 22.50 0.86 o
-4 0 9 27.21 25.66 0.67 o
-3 0 9 103.70 104.46 1.97 o
-2 0 9 1.04 1.03 0.25 o
-1 0 9 1.66 2.10 0.32 o
0 0 9 3.57 4.02 0.30 o
1 0 9 28.70 25.26 0.80 o
2 0 9 322.43 305.91 5.00 o
3 0 9 64.81 52.52 1.33 o
4 0 9 73.14 80.02 1.55 o
5 0 9 15.15 17.83 1.03 o
6 0 9 0.11 0.28 0.17 o
-7 1 9 0.70 0.70 0.21 o
-6 1 9 2.48 3.12 0.32 o
-5 1 9 18.50 16.07 0.74 o
-4 1 9 12.31 11.01 0.43 o
-3 1 9 130.96 135.18 1.79 o
-2 1 9 550.10 558.74 4.76 o
-1 1 9 104.24 106.04 1.67 o
0 1 9 11.74 13.73 0.60 o
1 1 9 24.03 25.52 0.65 o
2 1 9 20.68 20.00 0.69 o
3 1 9 57.27 63.53 1.43 o
4 1 9 26.99 25.96 1.06 o
5 1 9 8.27 9.05 0.48 o
6 1 9 38.22 44.82 1.42 o
-6 2 9 22.06 20.29 0.75 o
-5 2 9 0.50 0.81 0.33 o
-4 2 9 21.78 19.89 0.66 o
-3 2 9 94.59 103.77 1.48 o
-2 2 9 27.11 27.67 0.69 o
-1 2 9 43.94 45.89 1.06 o
0 2 9 24.08 26.49 0.95 o
1 2 9 6.37 6.55 0.47 o
2 2 9 116.20 116.31 1.33 o
3 2 9 26.36 22.24 0.81 o
4 2 9 44.74 39.80 1.05 o
5 2 9 10.34 11.37 0.54 o
6 2 9 5.19 5.74 0.48 o
-6 3 9 13.73 11.86 0.63 o
-5 3 9 58.41 57.06 1.01 o
-4 3 9 30.91 29.94 0.93 o
-3 3 9 16.75 17.63 0.53 o
-2 3 9 65.78 68.11 0.91 o
-1 3 9 3.57 4.38 0.33 o
0 3 9 29.77 30.63 0.86 o
1 3 9 60.19 63.09 1.86 o
2 3 9 32.11 33.19 0.99 o
3 3 9 1.15 1.39 0.16 o
4 3 9 4.10 3.68 0.30 o
5 3 9 22.23 21.44 0.76 o
-5 4 9 17.80 18.68 0.49 o
-4 4 9 57.74 59.50 1.58 o
-3 4 9 127.15 147.90 1.91 o
-2 4 9 88.25 98.13 1.68 o
-1 4 9 16.96 15.59 0.54 o
0 4 9 7.43 7.49 0.40 o
1 4 9 12.15 12.24 0.58 o
2 4 9 39.04 38.80 0.81 o
3 4 9 20.61 21.34 0.68 o
4 4 9 30.31 31.35 1.12 o
-3 5 9 27.46 29.88 0.60 o
-2 5 9 18.91 20.31 0.53 o
-1 5 9 23.15 24.60 1.06 o
0 5 9 9.11 9.19 0.51 o
1 5 9 3.25 4.10 0.29 o
2 5 9 32.80 35.17 0.87 o
-2 -4 10 23.12 26.63 1.18 o
-1 -4 10 6.62 7.23 0.65 o
0 -4 10 15.65 16.02 0.61 o
1 -4 10 38.38 37.18 0.90 o
2 -4 10 19.77 18.75 0.59 o
-4 -3 10 95.89 97.82 2.07 o
-3 -3 10 98.88 109.66 2.53 o
-2 -3 10 7.77 7.12 0.49 o
-1 -3 10 47.30 46.99 1.25 o
0 -3 10 30.53 30.07 0.77 o
1 -3 10 23.12 24.11 0.51 o
2 -3 10 7.77 8.80 0.46 o
3 -3 10 3.52 4.35 0.31 o
-5 -2 10 0.83 1.01 0.20 o
-4 -2 10 78.92 79.93 1.45 o
-3 -2 10 0.89 1.03 0.24 o
-2 -2 10 6.65 5.21 0.51 o
-1 -2 10 2.74 2.61 0.35 o
0 -2 10 2.49 2.06 0.23 o
1 -2 10 22.27 22.02 0.51 o
2 -2 10 76.30 71.21 1.07 o
3 -2 10 25.22 26.28 0.76 o
4 -2 10 4.47 4.66 0.30 o
-5 -1 10 1.27 1.38 0.24 o
-4 -1 10 18.36 19.76 0.74 o
-3 -1 10 80.89 76.77 1.63 o
-2 -1 10 64.16 66.76 2.37 o
-1 -1 10 17.69 18.43 1.12 o
0 -1 10 38.92 43.28 1.87 o
1 -1 10 21.03 20.51 0.88 o
2 -1 10 55.51 49.17 2.09 o
3 -1 10 15.23 13.82 0.61 o
4 -1 10 13.89 13.24 0.82 o
5 -1 10 0.84 0.64 0.19 o
-5 0 10 33.12 36.29 1.17 o
-4 0 10 13.55 13.60 0.61 o
-3 0 10 32.16 28.04 1.46 o
-2 0 10 16.70 17.26 0.81 o
-1 0 10 21.87 23.66 0.97 o
0 0 10 1.30 1.19 0.28 o
1 0 10 2.41 1.18 0.18 o
2 0 10 94.00 92.85 1.38 o
3 0 10 0.07 0.68 0.16 o
4 0 10 42.01 39.38 1.26 o
5 0 10 0.62 1.61 0.28 o
-5 1 10 1.36 1.34 0.26 o
-4 1 10 18.90 18.68 1.04 o
-3 1 10 80.86 76.71 1.80 o
-2 1 10 64.21 65.43 2.57 o
-1 1 10 17.52 19.06 0.85 o
0 1 10 38.40 41.03 0.96 o
1 1 10 21.39 19.08 0.84 o
2 1 10 55.49 46.86 1.30 o
3 1 10 15.82 15.28 0.63 o
4 1 10 14.10 13.69 0.55 o
5 1 10 0.93 1.10 0.23 o
-5 2 10 0.83 0.81 0.21 o
-4 2 10 78.25 74.14 1.87 o
-3 2 10 0.94 0.88 0.18 o
-2 2 10 6.67 5.67 0.29 o
-1 2 10 2.84 2.76 0.21 o
0 2 10 2.61 2.63 0.25 o
1 2 10 22.05 22.44 0.67 o
2 2 10 76.56 77.39 2.08 o
3 2 10 25.58 24.56 0.72 o
4 2 10 4.45 4.75 0.30 o
-4 3 10 94.44 92.38 1.94 o
-3 3 10 98.69 106.24 2.20 o
-2 3 10 7.49 6.82 0.36 o
-1 3 10 47.46 48.28 0.87 o
0 3 10 30.47 30.18 0.62 o
1 3 10 22.80 23.67 0.77 o
2 3 10 7.82 8.54 0.42 o
3 3 10 3.20 4.54 0.45 o
-2 4 10 23.20 26.16 0.72 o
-1 4 10 6.70 7.03 0.49 o
0 4 10 15.66 16.93 0.45 o
1 4 10 38.55 38.66 0.83 o
2 4 10 19.78 17.21 0.82 o
-2 -2 11 21.50 21.94 0.73 o
-1 -2 11 1.33 1.26 0.20 o
0 -2 11 0.74 0.59 0.15 o
1 -2 11 0.78 0.87 0.14 o
-3 -1 11 10.38 11.53 0.51 o
-2 -1 11 17.10 17.13 0.93 o
-1 -1 11 10.83 11.57 0.58 o
0 -1 11 22.63 25.52 1.16 o
1 -1 11 12.12 15.49 0.49 o
2 -1 11 51.82 50.36 1.02 o
-3 0 11 44.83 41.86 1.26 o
-2 0 11 43.75 39.39 1.36 o
-1 0 11 0.86 0.96 0.19 o
0 0 11 0.54 0.81 0.18 o
1 0 11 12.17 12.54 0.79 o
2 0 11 13.47 13.69 0.78 o
3 0 11 13.35 10.42 0.59 o
-3 1 11 10.08 10.87 0.57 o
-2 1 11 17.18 17.57 0.84 o
-1 1 11 10.71 10.71 0.54 o
0 1 11 22.40 25.58 1.11 o
1 1 11 12.14 16.24 0.88 o
2 1 11 51.08 51.28 1.46 o
-2 2 11 21.93 21.60 0.78 o
-1 2 11 1.41 1.25 0.23 o
0 2 11 0.73 0.52 0.17 o
1 2 11 0.63 2.61 0.33 o
