#------------------------------------------------------------------------------
#$Date: 2019-11-02 05:45:16 +0200 (Sat, 02 Nov 2019) $
#$Revision: 220740 $
#$URL: file:///home/coder/svn-repositories/cod/cif/4/12/74/4127471.cif $
#------------------------------------------------------------------------------
#
# This file is available in the Crystallography Open Database (COD),
# http://www.crystallography.net/
#
# All data on this site have been placed in the public domain by the
# contributors.
#
data_4127471
loop_
_publ_author_name
'Mato, Raquel'
'Manzano, Rub\'en'
'Reyes, Efraim'
'Carrillo, Luisa'
'Uria, Uxue'
'Vicario, Jose L.'
_publ_section_title
;
 Catalytic Enantioselective Transannular Morita-Baylis-Hillman Reaction.
;
_journal_issue                   24
_journal_name_full               'Journal of the American Chemical Society'
_journal_page_first              9495
_journal_page_last               9499
_journal_paper_doi               10.1021/jacs.9b03679
_journal_volume                  141
_journal_year                    2019
_chemical_absolute_configuration ad
_chemical_compound_source        'synthesis as described'
_chemical_formula_moiety         'C11 H16 O2'
_chemical_formula_sum            'C11 H16 O2'
_chemical_formula_weight         180.24
_chemical_name_systematic
;
 (R,Z)-7-methylcyclodec-2-ene-1,6-dione
;
_space_group_crystal_system      monoclinic
_space_group_IT_number           4
_space_group_name_Hall           'P 2yb'
_space_group_name_H-M_alt        'P 1 21 1'
_symmetry_space_group_name_Hall  'P 2yb'
_symmetry_space_group_name_H-M   'P 1 21 1'
_atom_sites_solution_hydrogens   geom
_atom_sites_solution_primary     iterative
_atom_sites_solution_secondary   difmap
_audit_creation_date             2019-03-20T11:40:26-00:00
_audit_creation_method           'WinGX routine CIF_UPDATE'
_cell_angle_alpha                90
_cell_angle_beta                 90.2082(15)
_cell_angle_gamma                90
_cell_formula_units_Z            2
_cell_length_a                   5.36038(10)
_cell_length_b                   7.31242(10)
_cell_length_c                   12.53807(18)
_cell_measurement_reflns_used    6855
_cell_measurement_temperature    150.00(10)
_cell_measurement_theta_max      74.083
_cell_measurement_theta_min      6.97
_cell_volume                     491.456(13)
_computing_cell_refinement
;
        CrysAlisPro, Agilent Technologies,
        Version 1.171.36.28 (release 01-02-2013 CrysAlis171 .NET)
        (compiled Feb  1 2013,16:14:44)
;
_computing_data_collection
;
        CrysAlisPro, Agilent Technologies,
        Version 1.171.36.28 (release 01-02-2013 CrysAlis171 .NET)
        (compiled Feb  1 2013,16:14:44)
;
_computing_data_reduction
;
        CrysAlisPro, Agilent Technologies,
        Version 1.171.36.28 (release 01-02-2013 CrysAlis171 .NET)
        (compiled Feb  1 2013,16:14:44)
;
_computing_molecular_graphics    'Olex2 (Dolomanov et al., 2009)'
_computing_publication_material  'Olex2 (Dolomanov et al., 2009)'
_computing_structure_refinement  'ShelXL (Sheldrick, 2015)'
_computing_structure_solution    'olex2.solve (Bourhis et al., 2015)'
_diffrn_ambient_temperature      150.00(10)
_diffrn_detector_area_resol_mean 5.2012
_diffrn_measured_fraction_theta_full 0.972
_diffrn_measured_fraction_theta_max 0.972
_diffrn_measurement_details
;
#__ type_ start__ end____ width___ exp.time_
  1 omega -122.00  -95.00   1.0000    1.0000
omega____ theta____ kappa____ phi______ frames
    -      -41.3256  -99.0000 -180.0000 27

#__ type_ start__ end____ width___ exp.time_
  2 omega  -65.00   31.00   1.0000    1.0000
omega____ theta____ kappa____ phi______ frames
    -      -41.3256   38.0000  150.0000 96

#__ type_ start__ end____ width___ exp.time_
  3 omega  -59.00   22.00   1.0000    1.0000
omega____ theta____ kappa____ phi______ frames
    -      -41.3256   57.0000 -150.0000 81

#__ type_ start__ end____ width___ exp.time_
  4 omega -124.00  -84.00   1.0000    1.0000
omega____ theta____ kappa____ phi______ frames
    -      -41.3256  -99.0000 -120.0000 40

#__ type_ start__ end____ width___ exp.time_
  5 omega  -14.00   81.00   1.0000    1.0000
omega____ theta____ kappa____ phi______ frames
    -       41.3256  -99.0000  -60.0000 95

#__ type_ start__ end____ width___ exp.time_
  6 omega  -68.00  -20.00   1.0000    1.0000
omega____ theta____ kappa____ phi______ frames
    -      -83.0000   30.0000   90.0000 48

#__ type_ start__ end____ width___ exp.time_
  7 omega   81.00  154.00   1.0000    1.0000
omega____ theta____ kappa____ phi______ frames
    -      108.3609   45.0000 -180.0000 73

#__ type_ start__ end____ width___ exp.time_
  8 omega   78.00  156.00   1.0000    1.0000
omega____ theta____ kappa____ phi______ frames
    -      108.3609   61.0000  -60.0000 78

#__ type_ start__ end____ width___ exp.time_
  9 omega   97.00  146.00   1.0000    1.0000
omega____ theta____ kappa____ phi______ frames
    -      108.3609  125.0000 -120.0000 49

#__ type_ start__ end____ width___ exp.time_
 10 omega   30.00   63.00   1.0000    1.0000
omega____ theta____ kappa____ phi______ frames
    -      108.3609  -77.0000   90.0000 33

#__ type_ start__ end____ width___ exp.time_
 11 omega   64.00  140.00   1.0000    1.0000
omega____ theta____ kappa____ phi______ frames
    -      108.3609  -77.0000   90.0000 76

#__ type_ start__ end____ width___ exp.time_
 12 omega   85.00  126.00   1.0000    1.0000
omega____ theta____ kappa____ phi______ frames
    -      108.3609 -135.0000  -41.0000 41

#__ type_ start__ end____ width___ exp.time_
 13 omega   30.00  106.00   1.0000    1.0000
omega____ theta____ kappa____ phi______ frames
    -      108.3609  -94.0000  -30.0000 76

#__ type_ start__ end____ width___ exp.time_
 14 omega   36.00   65.00   1.0000    1.0000
omega____ theta____ kappa____ phi______ frames
    -      108.3609  -45.0000    0.0000 29

#__ type_ start__ end____ width___ exp.time_
 15 omega   71.00  122.00   1.0000    1.0000
omega____ theta____ kappa____ phi______ frames
    -      108.3609 -125.0000   90.0000 51

#__ type_ start__ end____ width___ exp.time_
 16 omega  117.00  145.00   1.0000    1.0000
omega____ theta____ kappa____ phi______ frames
    -      108.3609   77.0000   90.0000 28

#__ type_ start__ end____ width___ exp.time_
 17 omega   77.00  111.00   1.0000    1.0000
omega____ theta____ kappa____ phi______ frames
    -      108.3609   77.0000   90.0000 34

#__ type_ start__ end____ width___ exp.time_
 18 omega   42.00   84.00   1.0000    1.0000
omega____ theta____ kappa____ phi______ frames
    -      108.3609 -135.0000  -41.0000 42

#__ type_ start__ end____ width___ exp.time_
 19 omega   33.00   60.00   1.0000    1.0000
omega____ theta____ kappa____ phi______ frames
    -      108.3609  -30.0000  120.0000 27

#__ type_ start__ end____ width___ exp.time_
 20 omega   81.00  151.00   1.0000    1.0000
omega____ theta____ kappa____ phi______ frames
    -      108.3609   61.0000 -120.0000 70

#__ type_ start__ end____ width___ exp.time_
 21 omega   34.00   59.00   1.0000    1.0000
omega____ theta____ kappa____ phi______ frames
    -      108.3609  -45.0000  120.0000 25

#__ type_ start__ end____ width___ exp.time_
 22 omega -117.00  -87.00   1.0000    1.0000
omega____ theta____ kappa____ phi______ frames
    -      -41.3256  -99.0000  -60.0000 30

#__ type_ start__ end____ width___ exp.time_
 23 omega   79.00  108.00   1.0000    1.0000
omega____ theta____ kappa____ phi______ frames
    -       41.3256   38.0000 -180.0000 29

#__ type_ start__ end____ width___ exp.time_
 24 omega   32.00   59.00   1.0000    1.0000
omega____ theta____ kappa____ phi______ frames
    -      108.3609  -30.0000  -90.0000 27

#__ type_ start__ end____ width___ exp.time_
 25 omega  123.00  150.00   1.0000    1.0000
omega____ theta____ kappa____ phi______ frames
    -      108.3609   45.0000   30.0000 27

#__ type_ start__ end____ width___ exp.time_
 26 omega   91.00  118.00   1.0000    1.0000
omega____ theta____ kappa____ phi______ frames
    -      108.3609   45.0000   30.0000 27

#__ type_ start__ end____ width___ exp.time_
 27 omega   30.00   55.00   1.0000    1.0000
omega____ theta____ kappa____ phi______ frames
    -      108.3609  -30.0000  150.0000 25

#__ type_ start__ end____ width___ exp.time_
 28 omega   31.00   67.00   1.0000    1.0000
omega____ theta____ kappa____ phi______ frames
    -      108.3609  -30.0000  -60.0000 36

#__ type_ start__ end____ width___ exp.time_
 29 omega   80.00  107.00   1.0000    1.0000
omega____ theta____ kappa____ phi______ frames
    -      108.3609   77.0000   60.0000 27

#__ type_ start__ end____ width___ exp.time_
 30 omega -115.00  -12.00   1.0000    1.0000
omega____ theta____ kappa____ phi______ frames
    -      -41.3256  -57.0000 -180.0000 103

#__ type_ start__ end____ width___ exp.time_
 31 omega -115.00  -12.00   1.0000    1.0000
omega____ theta____ kappa____ phi______ frames
    -      -41.3256  -57.0000   60.0000 103

#__ type_ start__ end____ width___ exp.time_
 32 omega -124.00  -79.00   1.0000    1.0000
omega____ theta____ kappa____ phi______ frames
    -      -41.3256  -99.0000  120.0000 45

#__ type_ start__ end____ width___ exp.time_
 33 omega -120.00   -8.00   1.0000    1.0000
omega____ theta____ kappa____ phi______ frames
    -      -41.3256  -77.0000   30.0000 112

#__ type_ start__ end____ width___ exp.time_
 34 omega -120.00   -8.00   1.0000    1.0000
omega____ theta____ kappa____ phi______ frames
    -      -41.3256  -77.0000 -180.0000 112

#__ type_ start__ end____ width___ exp.time_
 35 omega -115.00  -12.00   1.0000    1.0000
omega____ theta____ kappa____ phi______ frames
    -      -41.3256  -57.0000  -60.0000 103

#__ type_ start__ end____ width___ exp.time_
 36 omega -120.00   -8.00   1.0000    1.0000
omega____ theta____ kappa____ phi______ frames
    -      -41.3256  -77.0000  -90.0000 112

#__ type_ start__ end____ width___ exp.time_
 37 omega -115.00  -12.00   1.0000    1.0000
omega____ theta____ kappa____ phi______ frames
    -      -41.3256  -57.0000   30.0000 103

#__ type_ start__ end____ width___ exp.time_
 38 omega -162.00 -115.00   1.0000    1.0000
omega____ theta____ kappa____ phi______ frames
    -      -83.0000  -77.0000  -60.0000 47

#__ type_ start__ end____ width___ exp.time_
 39 omega -162.00  -49.00   1.0000    1.0000
omega____ theta____ kappa____ phi______ frames
    -      -83.0000  -77.0000  -90.0000 113

#__ type_ start__ end____ width___ exp.time_
 40 omega -162.00  -49.00   1.0000    1.0000
omega____ theta____ kappa____ phi______ frames
    -      -83.0000  -77.0000 -150.0000 113

#__ type_ start__ end____ width___ exp.time_
 41 omega -162.00  -49.00   1.0000    1.0000
omega____ theta____ kappa____ phi______ frames
    -      -83.0000  -77.0000   60.0000 113

#__ type_ start__ end____ width___ exp.time_
 42 omega -162.00  -49.00   1.0000    1.0000
omega____ theta____ kappa____ phi______ frames
    -      -83.0000  -77.0000  150.0000 113

#__ type_ start__ end____ width___ exp.time_
 43 omega -162.00  -49.00   1.0000    1.0000
omega____ theta____ kappa____ phi______ frames
    -      -83.0000  -77.0000    0.0000 113

#__ type_ start__ end____ width___ exp.time_
 44 omega   81.00  158.00   1.0000    1.0000
omega____ theta____ kappa____ phi______ frames
    -      108.3609   45.0000   90.0000 77

#__ type_ start__ end____ width___ exp.time_
 45 omega   75.00  158.00   1.0000    1.0000
omega____ theta____ kappa____ phi______ frames
    -      108.3609   77.0000  120.0000 83

#__ type_ start__ end____ width___ exp.time_
 46 omega   81.00  158.00   1.0000    1.0000
omega____ theta____ kappa____ phi______ frames
    -      108.3609   45.0000    0.0000 77

#__ type_ start__ end____ width___ exp.time_
 47 omega   30.00   69.00   1.0000    1.0000
omega____ theta____ kappa____ phi______ frames
    -      108.3609  -30.0000    0.0000 39

#__ type_ start__ end____ width___ exp.time_
 48 omega   75.00  158.00   1.0000    1.0000
omega____ theta____ kappa____ phi______ frames
    -      108.3609   77.0000   30.0000 83

#__ type_ start__ end____ width___ exp.time_
 49 omega   34.00   77.00   1.0000    1.0000
omega____ theta____ kappa____ phi______ frames
    -      108.3609  -45.0000 -180.0000 43

;
_diffrn_measurement_device_type  'SuperNova, Single source at offset, Atlas'
_diffrn_measurement_method       '\w scans'
_diffrn_orient_matrix_UB_11      -0.0025162
_diffrn_orient_matrix_UB_12      0.2082337
_diffrn_orient_matrix_UB_13      -0.0185924
_diffrn_orient_matrix_UB_21      -0.0255563
_diffrn_orient_matrix_UB_22      -0.0318607
_diffrn_orient_matrix_UB_23      -0.1210377
_diffrn_orient_matrix_UB_31      -0.2861864
_diffrn_orient_matrix_UB_32      0.0009764
_diffrn_orient_matrix_UB_33      0.0105318
_diffrn_radiation_monochromator  mirror
_diffrn_radiation_type           CuK\a
_diffrn_radiation_wavelength     1.54184
_diffrn_reflns_av_R_equivalents  0.0325
_diffrn_reflns_limit_h_max       5
_diffrn_reflns_limit_h_min       -6
_diffrn_reflns_limit_k_max       8
_diffrn_reflns_limit_k_min       -8
_diffrn_reflns_limit_l_max       15
_diffrn_reflns_limit_l_min       -15
_diffrn_reflns_number            9066
_diffrn_reflns_theta_full        74.24
_diffrn_reflns_theta_max         74.24
_diffrn_reflns_theta_min         3.53
_diffrn_source                   'SuperNova (Cu) X-ray Source'
_exptl_absorpt_coefficient_mu    0.654
_exptl_absorpt_correction_T_max  1
_exptl_absorpt_correction_T_min  0.73829
_exptl_absorpt_correction_type   multi-scan
_exptl_absorpt_process_details
;
        CrysAlisPro, Agilent Technologies,
        Version 1.171.36.28 (release 01-02-2013 CrysAlis171 .NET)
        (compiled Feb  1 2013,16:14:44)
        Empirical absorption correction using spherical harmonics,
 implemented in SCALE3 ABSPACK scaling algorithm.
;
_exptl_crystal_colour            colourless
_exptl_crystal_density_diffrn    1.218
_exptl_crystal_density_method    'not measured'
_exptl_crystal_description       plate
_exptl_crystal_F_000             196
_exptl_crystal_size_max          0.304
_exptl_crystal_size_mid          0.140
_exptl_crystal_size_min          0.095
_refine_diff_density_max         0.153
_refine_diff_density_min         -0.134
_refine_diff_density_rms         0.034
_refine_ls_abs_structure_details 'Flack H D (1983), Acta Cryst. A39, 876-881'
_refine_ls_abs_structure_Flack   0.0(2)
_refine_ls_extinction_method     none
_refine_ls_goodness_of_fit_ref   1.056
_refine_ls_hydrogen_treatment    constr
_refine_ls_matrix_type           full
_refine_ls_number_parameters     119
_refine_ls_number_reflns         1932
_refine_ls_number_restraints     1
_refine_ls_restrained_S_all      1.056
_refine_ls_R_factor_all          0.0312
_refine_ls_R_factor_gt           0.0307
_refine_ls_shift/su_max          0
_refine_ls_shift/su_mean         0
_refine_ls_structure_factor_coef Fsqd
_refine_ls_weighting_details
'calc w=1/[\s^2^(Fo^2^)+(0.0438P)^2^+0.0668P] where P=(Fo^2^+2Fc^2^)/3'
_refine_ls_weighting_scheme      calc
_refine_ls_wR_factor_gt          0.0796
_refine_ls_wR_factor_ref         0.0801
_reflns_number_gt                1904
_reflns_number_total             1932
_reflns_threshold_expression     >2sigma(I)
_cod_data_source_file            ja9b03679_si_004.cif
_cod_data_source_block           a20180028_rmsmresolb
_cod_database_code               4127471
loop_
_symmetry_equiv_pos_as_xyz
'x, y, z'
'-x, y+1/2, -z'
loop_
_atom_site_label
_atom_site_type_symbol
_atom_site_fract_x
_atom_site_fract_y
_atom_site_fract_z
_atom_site_U_iso_or_equiv
_atom_site_adp_type
_atom_site_occupancy
_atom_site_calc_flag
O1 O -0.49988(18) -0.68673(13) -0.27325(7) 0.0319(2) Uani 1 d
O3 O -0.0446(2) -0.06962(14) -0.27839(9) 0.0382(3) Uani 1 d
C2 C -0.5588(3) -0.29022(19) -0.15332(11) 0.0287(3) Uani 1 d
H2A H -0.6937 -0.2621 -0.1047 0.034 Uiso 1 calc
H2B H -0.6329 -0.3378 -0.2183 0.034 Uiso 1 calc
C4 C -0.1300(3) -0.62487(19) -0.37071(10) 0.0279(3) Uani 1 d
H4A H -0.2124 -0.6972 -0.4253 0.034 Uiso 1 calc
H4B H 0.0239 -0.6866 -0.3516 0.034 Uiso 1 calc
C5 C -0.2984(3) -0.32499(19) -0.43696(10) 0.0320(3) Uani 1 d
H5 H -0.3894 -0.3534 -0.498 0.038 Uiso 1 calc
C6 C -0.3866(3) -0.19110(19) -0.37605(10) 0.0300(3) Uani 1 d
H6 H -0.5376 -0.1382 -0.3958 0.036 Uiso 1 calc
C7 C -0.3977(2) -0.43987(18) -0.10347(10) 0.0262(3) Uani 1 d
H7A H -0.5065 -0.5387 -0.0812 0.031 Uiso 1 calc
H7B H -0.3197 -0.3906 -0.0397 0.031 Uiso 1 calc
C8 C -0.0672(3) -0.4344(2) -0.41698(10) 0.0311(3) Uani 1 d
H8A H 0.0397 -0.3691 -0.3674 0.037 Uiso 1 calc
H8B H 0.0231 -0.4491 -0.4833 0.037 Uiso 1 calc
C9 C -0.0409(3) -0.6633(2) -0.11182(10) 0.0307(3) Uani 1 d
H9A H 0.0322 -0.6071 -0.05 0.046 Uiso 1 calc
H9B H 0.0887 -0.7108 -0.1566 0.046 Uiso 1 calc
H9C H -0.1484 -0.7613 -0.09 0.046 Uiso 1 calc
C10 C -0.1933(2) -0.52034(17) -0.17408(10) 0.0237(3) Uani 1 d
H10 H -0.0815 -0.4215 -0.1964 0.028 Uiso 1 calc
C11 C -0.2608(3) -0.11969(17) -0.27831(10) 0.0278(3) Uani 1 d
C12 C -0.4214(3) -0.11185(19) -0.18001(11) 0.0319(3) Uani 1 d
H12A H -0.544 -0.0155 -0.1893 0.038 Uiso 1 calc
H12B H -0.3171 -0.0787 -0.1197 0.038 Uiso 1 calc
C13 C -0.2963(2) -0.61512(17) -0.27353(9) 0.0237(3) Uani 1 d
loop_
_atom_site_aniso_label
_atom_site_aniso_U_11
_atom_site_aniso_U_22
_atom_site_aniso_U_33
_atom_site_aniso_U_23
_atom_site_aniso_U_13
_atom_site_aniso_U_12
O1 0.0305(5) 0.0302(5) 0.0349(5) -0.0014(4) -0.0010(4) -0.0084(4)
O3 0.0359(6) 0.0272(5) 0.0515(6) -0.0010(4) -0.0015(5) -0.0078(4)
C2 0.0276(7) 0.0283(7) 0.0303(6) -0.0031(5) 0.0040(5) 0.0005(6)
C4 0.0322(7) 0.0250(6) 0.0266(6) -0.0023(5) 0.0021(5) 0.0007(6)
C5 0.0427(8) 0.0304(7) 0.0229(6) 0.0050(5) -0.0025(5) -0.0028(6)
C6 0.0343(7) 0.0275(7) 0.0283(6) 0.0072(5) -0.0037(5) -0.0008(6)
C7 0.0290(7) 0.0260(6) 0.0237(6) 0.0001(5) 0.0008(5) -0.0048(6)
C8 0.0374(8) 0.0306(7) 0.0253(6) 0.0007(5) 0.0070(5) -0.0026(6)
C9 0.0309(7) 0.0312(7) 0.0299(6) 0.0045(5) -0.0048(5) 0.0011(6)
C10 0.0236(6) 0.0229(6) 0.0245(6) 0.0016(5) 0.0000(5) -0.0044(5)
C11 0.0333(7) 0.0162(6) 0.0340(7) 0.0043(5) -0.0025(5) 0.0004(6)
C12 0.0390(8) 0.0234(7) 0.0332(7) -0.0028(6) -0.0003(5) 0.0005(6)
C13 0.0256(6) 0.0189(6) 0.0267(6) 0.0025(5) -0.0028(5) -0.0002(5)
loop_
_atom_type_symbol
_atom_type_description
_atom_type_scat_dispersion_real
_atom_type_scat_dispersion_imag
_atom_type_scat_source
C C 0.0181 0.0091 'International Tables Vol C Tables 4.2.6.8 and 6.1.1.4'
H H 0 0 'International Tables Vol C Tables 4.2.6.8 and 6.1.1.4'
O O 0.0492 0.0322 'International Tables Vol C Tables 4.2.6.8 and 6.1.1.4'
loop_
_geom_angle_atom_site_label_1
_geom_angle_atom_site_label_2
_geom_angle_atom_site_label_3
_geom_angle
C7 C2 C12 115.30(11)
C13 C4 C8 112.90(11)
C6 C5 C8 126.43(12)
C5 C6 C11 124.71(12)
C2 C7 C10 116.38(10)
C5 C8 C4 111.31(12)
C7 C10 C9 110.38(10)
C13 C10 C7 112.93(10)
C13 C10 C9 107.19(10)
O3 C11 C6 122.22(12)
O3 C11 C12 122.46(12)
C6 C11 C12 115.32(12)
C11 C12 C2 114.95(11)
O1 C13 C4 121.02(11)
O1 C13 C10 121.13(11)
C4 C13 C10 117.77(10)
loop_
_geom_bond_atom_site_label_1
_geom_bond_atom_site_label_2
_geom_bond_distance
O1 C13 1.2102(15)
O3 C11 1.2157(16)
C2 C7 1.5263(18)
C2 C12 1.535(2)
C4 C8 1.5464(19)
C4 C13 1.5140(17)
C5 C6 1.330(2)
C5 C8 1.495(2)
C6 C11 1.4908(18)
C7 C10 1.5288(18)
C9 C10 1.5379(17)
C10 C13 1.5280(16)
C11 C12 1.5070(19)
loop_
_refln_index_h
_refln_index_k
_refln_index_l
_refln_F_squared_calc
_refln_F_squared_meas
_refln_F_squared_sigma
_refln_observed_status
0 -8 0 12.55 12.94 0.72 o
1 -8 0 4.28 4.60 0.36 o
2 -8 0 74.56 74.89 2.74 o
3 -8 0 14.55 14.53 0.98 o
1 -7 0 10.61 12.44 0.59 o
2 -7 0 10.02 9.37 0.72 o
3 -7 0 2.60 2.86 0.31 o
0 -6 0 80.27 78.78 1.89 o
1 -6 0 22.18 22.34 0.70 o
2 -6 0 14.80 16.33 0.80 o
3 -6 0 19.34 21.56 0.94 o
4 -6 0 5.03 4.56 0.44 o
1 -5 0 0.93 0.44 0.10 o
2 -5 0 49.71 49.59 0.96 o
3 -5 0 103.79 98.88 2.31 o
4 -5 0 39.25 41.85 1.53 o
5 -5 0 8.86 8.23 0.91 o
0 -4 0 356.35 394.35 3.42 o
1 -4 0 32.09 36.28 0.74 o
2 -4 0 104.52 111.46 1.44 o
3 -4 0 47.78 44.50 1.30 o
4 -4 0 6.29 5.63 0.58 o
5 -4 0 17.13 16.43 1.06 o
1 -3 0 69.66 75.46 0.90 o
2 -3 0 89.62 94.11 1.24 o
3 -3 0 146.82 146.82 2.44 o
4 -3 0 119.74 117.60 3.55 o
5 -3 0 70.79 70.94 2.23 o
6 -3 0 13.55 13.16 0.96 o
1 -2 0 543.64 575.15 7.85 o
2 -2 0 67.67 62.24 1.10 o
3 -2 0 12.09 10.33 0.56 o
4 -2 0 41.68 37.67 1.35 o
5 -2 0 17.37 19.70 1.07 o
6 -2 0 3.44 7.48 0.96 o
1 -1 0 408.21 380.14 7.92 o
2 -1 0 201.78 205.06 1.74 o
3 -1 0 3.26 3.32 0.26 o
4 -1 0 8.00 7.45 0.60 o
5 -1 0 16.56 14.62 0.75 o
6 -1 0 9.17 10.00 1.40 o
1 0 0 108.73 94.16 1.39 o
2 0 0 527.40 474.10 6.35 o
3 0 0 30.91 30.35 0.81 o
4 0 0 22.91 21.82 0.80 o
5 0 0 0.49 0.49 0.18 o
6 0 0 5.86 6.04 0.50 o
1 1 0 407.31 379.11 5.41 o
2 1 0 202.21 210.22 2.55 o
3 1 0 3.22 3.77 0.29 o
4 1 0 7.82 8.59 0.81 o
5 1 0 16.64 15.97 0.98 o
6 1 0 9.01 9.79 0.86 o
1 2 0 543.10 577.23 3.91 o
2 2 0 67.37 61.35 1.41 o
3 2 0 12.38 11.38 0.59 o
4 2 0 41.83 38.53 1.01 o
5 2 0 17.31 18.53 1.30 o
6 2 0 3.45 3.22 1.08 o
1 3 0 69.59 75.39 0.89 o
2 3 0 90.26 93.43 1.36 o
3 3 0 146.09 154.34 2.73 o
4 3 0 120.42 110.09 3.21 o
5 3 0 70.55 79.28 2.47 o
6 3 0 13.36 16.14 1.25 o
0 4 0 356.18 396.45 5.19 o
1 4 0 31.53 35.03 0.63 o
2 4 0 104.36 110.55 1.89 o
3 4 0 46.72 42.41 0.95 o
4 4 0 6.41 4.83 0.97 o
5 4 0 17.51 16.86 2.57 o
6 4 0 2.64 2.30 0.38 o
1 5 0 0.92 0.40 0.06 o
2 5 0 49.69 49.43 1.00 o
3 5 0 104.44 102.36 2.32 o
4 5 0 39.49 39.21 1.49 o
5 5 0 8.80 9.84 1.00 o
0 6 0 80.23 81.40 1.44 o
1 6 0 22.53 22.99 0.54 o
2 6 0 14.65 17.22 0.73 o
3 6 0 19.12 19.43 0.84 o
4 6 0 5.13 4.66 0.35 o
1 7 0 10.61 11.28 0.56 o
2 7 0 9.88 9.54 0.50 o
3 7 0 2.62 2.55 0.28 o
0 8 0 12.63 12.52 0.62 o
1 8 0 4.23 5.09 0.32 o
2 8 0 75.05 74.76 2.33 o
3 8 0 14.70 13.71 1.41 o
-3 -8 1 9.68 9.15 0.52 o
-2 -8 1 16.61 16.51 0.97 o
-1 -8 1 13.15 12.70 0.62 o
0 -8 1 14.39 14.08 0.50 o
1 -8 1 14.72 14.53 0.54 o
2 -8 1 16.68 16.59 0.84 o
3 -8 1 32.55 33.11 1.04 o
-3 -7 1 39.57 37.09 1.13 o
-2 -7 1 18.84 18.66 0.80 o
-1 -7 1 84.93 84.11 1.46 o
0 -7 1 8.60 7.62 0.43 o
1 -7 1 49.62 49.88 1.21 o
2 -7 1 9.30 8.62 0.54 o
3 -7 1 7.79 7.51 0.50 o
-4 -6 1 5.04 4.80 0.45 o
-3 -6 1 15.56 15.98 0.73 o
-2 -6 1 15.01 16.23 0.81 o
-1 -6 1 46.65 45.22 0.91 o
0 -6 1 2.52 2.64 0.22 o
1 -6 1 200.04 201.58 2.38 o
2 -6 1 28.42 27.83 1.16 o
3 -6 1 21.29 21.56 1.07 o
4 -6 1 27.60 30.41 1.24 o
-5 -5 1 11.18 9.51 0.97 o
-4 -5 1 49.77 51.96 1.69 o
-3 -5 1 64.82 61.56 1.75 o
-2 -5 1 241.52 249.24 2.93 o
-1 -5 1 49.59 53.24 1.09 o
0 -5 1 246.14 238.43 2.24 o
1 -5 1 40.36 42.00 0.96 o
2 -5 1 91.59 89.07 1.35 o
3 -5 1 4.81 4.90 0.42 o
4 -5 1 41.94 38.06 1.46 o
5 -5 1 2.56 2.00 0.47 o
-5 -4 1 20.89 17.97 1.06 o
-4 -4 1 23.42 22.33 1.15 o
-3 -4 1 118.51 118.81 3.72 o
-2 -4 1 96.32 107.67 1.50 o
-1 -4 1 112.70 129.18 1.46 o
0 -4 1 57.19 64.24 0.83 o
1 -4 1 129.47 138.77 1.33 o
2 -4 1 68.60 75.17 1.19 o
3 -4 1 3.99 4.89 0.35 o
4 -4 1 23.04 20.99 1.30 o
5 -4 1 4.09 4.99 0.61 o
-6 -3 1 0.98 1.00 0.28 o
-5 -3 1 79.06 81.50 3.79 o
-4 -3 1 54.62 56.32 2.16 o
-3 -3 1 10.41 13.81 0.72 o
-2 -3 1 574.92 619.13 4.29 o
-1 -3 1 78.33 80.45 1.04 o
0 -3 1 417.53 422.64 3.01 o
1 -3 1 243.11 254.71 2.89 o
2 -3 1 227.31 239.97 2.33 o
3 -3 1 47.83 46.97 1.23 o
4 -3 1 59.12 58.81 1.63 o
5 -3 1 34.40 33.09 3.10 o
6 -3 1 44.02 42.48 1.78 o
-6 -2 1 4.86 5.75 0.78 o
-5 -2 1 34.11 35.75 1.49 o
-4 -2 1 47.79 45.23 1.84 o
-3 -2 1 86.59 82.02 1.90 o
-2 -2 1 13.01 14.18 0.38 o
-1 -2 1 1361.11 1110.96 12.93 o
0 -2 1 47.32 46.29 0.80 o
1 -2 1 897.74 913.14 9.62 o
2 -2 1 161.16 175.59 1.88 o
3 -2 1 30.33 24.39 1.02 o
4 -2 1 2.87 1.76 0.35 o
5 -2 1 27.82 31.74 1.60 o
6 -2 1 1.40 2.38 1.19 o
-6 -1 1 18.29 21.96 1.18 o
-5 -1 1 83.50 83.30 2.31 o
-4 -1 1 2.31 2.27 0.26 o
-3 -1 1 174.50 191.13 3.17 o
-2 -1 1 79.89 76.85 0.74 o
-1 -1 1 1.49 0.98 0.11 o
0 -1 1 486.93 445.77 3.00 o
1 -1 1 428.24 383.95 5.19 o
2 -1 1 77.85 84.01 1.07 o
3 -1 1 105.53 121.24 1.78 o
4 -1 1 75.10 72.56 1.50 o
5 -1 1 13.50 13.20 0.73 o
6 -1 1 82.64 90.54 3.39 o
-6 0 1 5.98 5.54 0.91 o
-5 0 1 91.61 99.18 2.46 o
-4 0 1 52.48 50.18 1.51 o
-3 0 1 3.24 1.99 0.20 o
-2 0 1 112.62 105.17 1.56 o
0 0 1 59.12 56.69 1.14 o
2 0 1 1.66 0.89 0.13 o
3 0 1 69.96 66.93 1.13 o
4 0 1 44.42 39.85 1.23 o
5 0 1 5.83 5.63 0.59 o
6 0 1 13.09 13.49 1.30 o
-6 1 1 18.12 20.82 0.89 o
-5 1 1 83.16 85.16 2.29 o
-4 1 1 2.39 2.36 0.28 o
-3 1 1 173.77 184.26 2.36 o
-2 1 1 80.38 79.37 1.16 o
-1 1 1 1.27 2.92 0.45 o
0 1 1 487.42 461.99 3.07 o
1 1 1 432.67 392.16 5.23 o
2 1 1 77.01 81.92 1.20 o
3 1 1 105.59 125.86 3.29 o
4 1 1 74.70 75.06 2.49 o
5 1 1 13.56 14.25 0.92 o
6 1 1 82.81 90.43 2.77 o
-6 2 1 4.99 5.47 0.61 o
-5 2 1 34.32 36.35 2.39 o
-4 2 1 47.37 45.12 1.34 o
-3 2 1 86.56 83.02 2.30 o
-2 2 1 12.93 13.83 0.67 o
0 2 1 47.01 47.46 0.56 o
1 2 1 898.49 938.37 6.37 o
2 2 1 162.75 181.51 2.54 o
3 2 1 30.83 27.56 1.04 o
4 2 1 2.98 2.54 0.35 o
5 2 1 27.58 30.32 1.88 o
6 2 1 1.47 1.31 0.43 o
-6 3 1 1.02 0.59 0.25 o
-5 3 1 79.31 75.81 3.10 o
-4 3 1 54.02 47.01 2.70 o
-3 3 1 10.19 13.72 0.58 o
-2 3 1 573.55 607.56 4.99 o
-1 3 1 78.86 83.66 0.96 o
0 3 1 417.41 434.02 3.43 o
1 3 1 243.90 257.90 1.97 o
2 3 1 228.82 240.98 3.12 o
3 3 1 48.48 48.86 1.52 o
4 3 1 59.56 58.30 6.03 o
5 3 1 34.56 28.36 1.47 o
6 3 1 44.30 46.25 3.59 o
-6 4 1 17.46 19.20 1.08 o
-5 4 1 20.64 18.99 4.06 o
-4 4 1 23.16 22.75 2.10 o
-3 4 1 118.45 117.42 1.90 o
-2 4 1 96.54 107.10 1.52 o
-1 4 1 112.74 129.51 1.24 o
0 4 1 56.98 65.55 0.77 o
1 4 1 128.68 137.11 1.18 o
2 4 1 69.10 74.35 1.26 o
3 4 1 4.16 4.98 0.37 o
4 4 1 22.90 21.67 1.43 o
5 4 1 3.92 4.61 0.44 o
-5 5 1 11.32 11.47 1.10 o
-4 5 1 49.20 47.09 2.03 o
-3 5 1 64.83 58.88 1.37 o
-2 5 1 243.36 245.92 3.19 o
-1 5 1 49.62 51.40 0.77 o
0 5 1 245.87 236.64 1.79 o
1 5 1 40.30 43.79 0.84 o
2 5 1 91.13 87.31 1.32 o
3 5 1 4.71 4.75 0.38 o
4 5 1 41.76 39.69 1.79 o
5 5 1 2.66 3.37 0.56 o
-4 6 1 4.93 4.11 0.49 o
-3 6 1 15.39 14.40 0.63 o
-2 6 1 14.96 15.35 0.73 o
-1 6 1 46.85 47.18 0.87 o
0 6 1 2.57 3.17 0.19 o
1 6 1 199.45 203.22 1.89 o
2 6 1 28.51 28.27 0.95 o
3 6 1 21.49 20.71 1.22 o
4 6 1 27.30 25.83 1.24 o
-3 7 1 39.88 38.30 1.34 o
-2 7 1 18.44 18.31 0.79 o
-1 7 1 85.00 87.41 1.64 o
0 7 1 8.50 8.17 0.41 o
1 7 1 48.73 49.23 1.10 o
2 7 1 9.31 8.93 0.54 o
3 7 1 7.85 7.25 0.48 o
-3 8 1 9.70 9.26 0.77 o
-2 8 1 16.68 17.23 0.81 o
-1 8 1 13.12 12.84 0.58 o
0 8 1 14.32 14.28 0.50 o
1 8 1 14.62 14.88 0.53 o
2 8 1 16.94 17.94 1.02 o
3 8 1 32.64 31.56 2.22 o
-2 -8 2 31.59 30.15 1.30 o
-1 -8 2 6.03 5.38 0.40 o
0 -8 2 10.78 11.26 0.52 o
1 -8 2 1.41 1.74 0.20 o
2 -8 2 63.54 64.15 1.53 o
3 -8 2 26.30 26.85 0.92 o
-3 -7 2 7.11 7.19 0.55 o
-2 -7 2 1.77 1.91 0.25 o
-1 -7 2 55.75 53.86 1.16 o
0 -7 2 67.93 69.10 1.42 o
1 -7 2 13.67 13.62 0.78 o
2 -7 2 12.75 11.00 0.67 o
3 -7 2 7.61 7.71 0.49 o
4 -7 2 3.72 4.31 0.35 o
-4 -6 2 8.98 8.20 0.52 o
-3 -6 2 28.79 29.34 0.99 o
-2 -6 2 35.38 38.67 1.17 o
-1 -6 2 8.22 7.81 0.40 o
0 -6 2 5.26 6.10 0.34 o
1 -6 2 57.99 58.35 1.26 o
2 -6 2 229.74 229.73 3.55 o
3 -6 2 58.28 58.23 1.47 o
4 -6 2 3.66 3.22 0.35 o
-5 -5 2 23.00 25.19 1.53 o
-4 -5 2 61.38 56.70 2.51 o
-3 -5 2 21.53 24.56 1.11 o
-2 -5 2 20.25 17.67 0.62 o
-1 -5 2 35.75 37.39 0.80 o
0 -5 2 104.82 108.54 1.46 o
1 -5 2 42.97 41.72 0.81 o
2 -5 2 0.50 0.90 0.14 o
3 -5 2 40.84 43.68 1.43 o
4 -5 2 15.70 15.47 0.93 o
5 -5 2 5.79 6.13 0.76 o
-5 -4 2 72.71 75.17 3.16 o
-4 -4 2 10.44 9.37 0.72 o
-3 -4 2 57.62 61.43 1.27 o
-2 -4 2 24.13 22.70 0.82 o
-1 -4 2 207.04 211.13 2.82 o
0 -4 2 97.60 112.34 1.17 o
1 -4 2 183.23 184.21 1.87 o
2 -4 2 132.37 132.74 1.72 o
3 -4 2 104.72 111.96 1.74 o
4 -4 2 14.60 13.69 1.10 o
5 -4 2 2.66 2.76 0.69 o
-6 -3 2 4.23 3.76 0.44 o
-5 -3 2 29.88 27.65 1.35 o
-4 -3 2 70.91 66.18 3.18 o
-3 -3 2 81.36 91.30 2.02 o
-2 -3 2 145.39 157.92 2.06 o
-1 -3 2 163.17 186.58 1.73 o
0 -3 2 18.42 18.99 0.44 o
1 -3 2 178.70 180.65 1.82 o
2 -3 2 56.30 56.30 0.94 o
3 -3 2 23.09 23.06 0.73 o
4 -3 2 47.40 47.65 2.93 o
5 -3 2 15.30 13.61 1.73 o
6 -3 2 6.63 5.89 0.64 o
-6 -2 2 1.22 1.73 0.40 o
-5 -2 2 88.66 91.57 2.74 o
-4 -2 2 82.87 79.85 3.78 o
-3 -2 2 25.88 25.48 1.11 o
-2 -2 2 26.39 25.41 0.64 o
-1 -2 2 7.10 8.86 0.27 o
1 -2 2 953.47 972.36 5.79 o
2 -2 2 563.87 580.89 3.95 o
3 -2 2 60.68 56.93 1.20 o
4 -2 2 131.24 121.97 2.12 o
5 -2 2 0.65 0.47 0.15 o
6 -2 2 0.16 0.21 0.38 o
-6 -1 2 6.46 7.14 1.16 o
-5 -1 2 3.84 3.88 0.63 o
-4 -1 2 14.01 11.10 0.67 o
-3 -1 2 126.78 125.90 1.69 o
-2 -1 2 97.08 94.30 1.33 o
-1 -1 2 703.20 648.36 4.08 o
0 -1 2 62.03 62.01 0.57 o
1 -1 2 194.38 187.92 3.56 o
2 -1 2 30.62 25.93 0.62 o
3 -1 2 241.62 259.93 3.54 o
4 -1 2 20.14 19.65 0.73 o
5 -1 2 139.19 142.21 3.56 o
6 -1 2 7.94 7.93 0.94 o
-6 0 2 18.49 19.10 1.10 o
-5 0 2 2.15 2.66 0.39 o
-4 0 2 202.11 204.80 3.85 o
-3 0 2 15.42 17.77 0.79 o
-2 0 2 76.70 76.98 1.13 o
-1 0 2 5.16 4.61 0.19 o
1 0 2 655.26 583.49 6.19 o
2 0 2 53.99 52.17 2.53 o
3 0 2 62.55 57.30 1.30 o
4 0 2 11.43 10.72 0.52 o
5 0 2 5.04 5.25 0.57 o
6 0 2 33.24 32.79 2.00 o
-6 1 2 6.42 6.23 0.77 o
-5 1 2 3.79 3.25 0.43 o
-4 1 2 14.33 11.66 0.61 o
-3 1 2 126.88 125.75 4.85 o
-2 1 2 96.36 93.04 1.37 o
-1 1 2 701.82 658.64 8.16 o
0 1 2 61.84 62.36 1.04 o
1 1 2 193.24 179.22 2.57 o
2 1 2 30.20 24.20 0.65 o
3 1 2 241.03 258.10 3.64 o
4 1 2 20.19 18.81 2.48 o
5 1 2 139.51 158.42 3.96 o
6 1 2 7.86 8.42 0.79 o
-6 2 2 1.17 1.34 0.20 o
-5 2 2 89.20 96.94 2.33 o
-4 2 2 83.77 76.37 1.77 o
-3 2 2 25.41 25.16 1.11 o
-2 2 2 27.11 28.31 0.68 o
-1 2 2 7.42 15.98 1.26 o
1 2 2 955.16 976.62 11.53 o
2 2 2 559.83 594.01 4.93 o
3 2 2 59.86 56.06 1.55 o
4 2 2 131.05 126.17 3.98 o
5 2 2 0.59 0.81 0.35 o
6 2 2 0.16 0.29 0.18 o
-6 3 2 4.14 3.72 0.57 o
-5 3 2 29.69 28.84 1.45 o
-4 3 2 71.13 60.71 2.33 o
-3 3 2 81.59 88.85 1.74 o
-2 3 2 145.35 157.13 1.76 o
-1 3 2 163.76 188.63 2.51 o
0 3 2 18.68 19.05 0.43 o
1 3 2 178.10 178.53 1.55 o
2 3 2 55.72 54.81 1.47 o
3 3 2 22.76 20.84 1.05 o
4 3 2 47.32 46.96 3.08 o
5 3 2 15.12 14.61 0.86 o
6 3 2 6.69 7.30 1.39 o
-5 4 2 73.36 80.43 3.57 o
-4 4 2 10.50 9.91 1.41 o
-3 4 2 58.06 61.72 1.20 o
-2 4 2 24.04 22.70 0.69 o
-1 4 2 206.54 210.66 2.06 o
0 4 2 97.82 114.12 1.11 o
1 4 2 184.72 187.75 2.35 o
2 4 2 132.13 130.63 1.74 o
3 4 2 103.54 109.46 2.75 o
4 4 2 14.68 13.63 1.11 o
5 4 2 2.59 2.86 0.35 o
-5 5 2 22.85 26.07 1.67 o
-4 5 2 61.69 56.47 3.14 o
-3 5 2 21.75 23.95 0.87 o
-2 5 2 20.16 17.15 0.55 o
-1 5 2 35.59 35.41 0.68 o
0 5 2 105.31 109.85 1.24 o
1 5 2 42.95 42.71 0.76 o
2 5 2 0.52 1.05 0.13 o
3 5 2 40.49 43.32 1.40 o
4 5 2 15.76 16.05 0.89 o
5 5 2 5.74 6.83 0.76 o
-4 6 2 8.80 7.12 1.14 o
-3 6 2 28.93 27.76 0.77 o
-2 6 2 34.84 35.74 1.37 o
-1 6 2 8.31 8.47 0.41 o
0 6 2 5.01 5.75 0.26 o
1 6 2 58.96 59.84 0.94 o
2 6 2 230.34 229.16 2.88 o
3 6 2 58.08 59.56 1.82 o
4 6 2 3.73 3.54 0.37 o
-3 7 2 7.10 7.09 0.47 o
-2 7 2 1.81 2.45 0.30 o
-1 7 2 55.95 55.65 1.45 o
0 7 2 68.17 69.70 1.34 o
1 7 2 13.76 14.31 0.58 o
2 7 2 12.81 11.59 0.50 o
3 7 2 7.62 7.25 0.47 o
-2 8 2 31.29 31.51 1.23 o
-1 8 2 6.07 5.55 0.37 o
0 8 2 10.57 11.01 0.43 o
1 8 2 1.40 1.75 0.21 o
2 8 2 63.94 62.59 1.91 o
3 8 2 26.38 25.94 3.11 o
-2 -8 3 4.91 5.92 0.54 o
-1 -8 3 17.25 16.11 0.68 o
0 -8 3 8.88 8.34 0.43 o
1 -8 3 51.46 50.33 1.33 o
2 -8 3 55.33 52.55 2.13 o
-3 -7 3 45.93 47.65 1.00 o
-2 -7 3 9.14 9.78 0.64 o
-1 -7 3 60.05 64.15 1.39 o
0 -7 3 49.38 49.14 1.09 o
1 -7 3 5.98 6.89 0.55 o
2 -7 3 3.88 3.65 0.38 o
3 -7 3 2.63 3.47 0.35 o
-4 -6 3 1.91 2.15 0.54 o
-3 -6 3 19.38 18.94 0.79 o
-2 -6 3 9.31 10.46 0.56 o
-1 -6 3 31.31 28.82 0.96 o
0 -6 3 10.60 9.65 0.43 o
1 -6 3 168.89 172.12 2.64 o
2 -6 3 176.01 179.97 3.58 o
3 -6 3 44.89 47.07 1.74 o
4 -6 3 28.72 25.88 0.97 o
-5 -5 3 22.89 23.99 1.43 o
-4 -5 3 3.54 2.56 0.42 o
-3 -5 3 15.20 12.38 0.68 o
-2 -5 3 54.07 58.27 1.15 o
-1 -5 3 41.69 42.81 0.90 o
0 -5 3 92.06 93.74 1.29 o
1 -5 3 60.55 58.68 0.99 o
2 -5 3 47.91 45.55 0.91 o
3 -5 3 11.53 12.81 0.68 o
4 -5 3 14.77 13.16 0.84 o
5 -5 3 5.66 4.63 0.64 o
-5 -4 3 24.20 28.33 1.85 o
-4 -4 3 1.97 1.79 0.40 o
-3 -4 3 37.00 36.20 0.91 o
-2 -4 3 0.86 0.73 0.15 o
-1 -4 3 44.74 45.04 0.85 o
0 -4 3 138.43 147.05 1.83 o
1 -4 3 445.05 448.92 3.58 o
2 -4 3 97.27 101.69 1.65 o
3 -4 3 298.19 274.67 3.07 o
4 -4 3 13.14 14.22 2.28 o
5 -4 3 11.27 11.74 0.91 o
-5 -3 3 0.68 0.53 0.15 o
-4 -3 3 94.57 94.99 4.02 o
-3 -3 3 76.48 75.50 1.28 o
-2 -3 3 316.93 333.06 4.88 o
-1 -3 3 82.31 80.19 1.01 o
0 -3 3 47.40 49.24 0.71 o
1 -3 3 395.31 407.88 4.23 o
2 -3 3 51.86 54.36 0.98 o
3 -3 3 51.27 51.52 1.02 o
4 -3 3 25.18 27.96 1.81 o
5 -3 3 0.40 0.17 0.17 o
6 -3 3 6.73 4.62 0.54 o
-6 -2 3 5.51 5.24 0.67 o
-5 -2 3 60.93 60.15 2.13 o
-4 -2 3 32.04 29.96 1.74 o
-3 -2 3 56.72 61.03 1.52 o
-2 -2 3 46.88 52.16 1.50 o
-1 -2 3 312.78 312.99 2.45 o
0 -2 3 449.27 476.53 3.72 o
1 -2 3 302.69 316.08 2.17 o
2 -2 3 87.74 87.74 1.15 o
3 -2 3 15.61 12.87 0.56 o
4 -2 3 59.45 59.17 1.32 o
5 -2 3 5.73 4.72 0.75 o
6 -2 3 1.89 2.75 1.04 o
-6 -1 3 1.27 1.52 0.46 o
-5 -1 3 56.18 53.33 4.64 o
-4 -1 3 3.66 3.12 0.31 o
-3 -1 3 33.85 33.28 0.98 o
-2 -1 3 253.07 247.66 3.57 o
-1 -1 3 1682.51 1576.42 19.27 o
1 -1 3 1084.96 1040.85 7.10 o
2 -1 3 21.96 26.78 0.77 o
3 -1 3 71.63 68.67 1.29 o
4 -1 3 2.10 3.12 0.27 o
5 -1 3 0.46 0.84 0.30 o
6 -1 3 77.55 81.74 2.89 o
-6 0 3 17.39 20.31 1.31 o
-5 0 3 97.12 93.75 3.34 o
-4 0 3 1.48 1.20 0.19 o
-3 0 3 184.84 195.79 3.77 o
-2 0 3 6.19 6.89 0.33 o
-1 0 3 381.54 380.71 3.47 o
0 0 3 81.53 68.14 0.59 o
1 0 3 18.15 14.15 0.50 o
2 0 3 1.11 1.51 0.22 o
3 0 3 54.79 50.87 1.45 o
4 0 3 4.47 3.69 0.30 o
5 0 3 6.43 6.85 0.55 o
6 0 3 1.30 1.02 0.26 o
-6 1 3 1.24 2.28 0.44 o
-5 1 3 56.00 52.82 1.73 o
-4 1 3 3.72 2.96 0.31 o
-3 1 3 34.22 31.40 0.98 o
-2 1 3 252.52 257.76 3.13 o
0 1 3 1300.55 1175.26 14.87 o
1 1 3 1082.94 1050.37 11.13 o
2 1 3 21.59 24.60 1.32 o
3 1 3 72.59 69.52 1.55 o
4 1 3 2.23 3.59 0.36 o
5 1 3 0.49 0.25 0.24 o
6 1 3 77.92 82.04 3.12 o
-6 2 3 5.61 5.90 0.50 o
-5 2 3 61.06 61.34 2.32 o
-4 2 3 31.70 28.39 1.10 o
-3 2 3 56.36 54.64 1.44 o
-2 2 3 46.89 53.40 0.90 o
-1 2 3 313.99 321.06 3.02 o
0 2 3 448.64 475.02 4.60 o
1 2 3 301.51 298.63 3.34 o
2 2 3 88.64 90.46 1.39 o
3 2 3 15.95 11.89 0.77 o
4 2 3 59.59 61.55 2.22 o
5 2 3 5.63 5.75 0.85 o
6 2 3 1.86 1.99 0.45 o
-6 3 3 10.67 12.68 0.98 o
-5 3 3 0.67 1.11 0.29 o
-4 3 3 93.24 83.92 2.22 o
-3 3 3 75.95 73.53 1.68 o
-2 3 3 316.98 330.91 2.76 o
-1 3 3 81.50 82.47 0.96 o
0 3 3 46.96 48.89 0.77 o
1 3 3 394.95 405.57 2.97 o
2 3 3 52.63 54.89 0.97 o
3 3 3 51.71 49.68 1.14 o
4 3 3 25.34 26.02 1.54 o
5 3 3 0.37 0.39 0.18 o
6 3 3 6.78 5.60 0.62 o
-5 4 3 24.10 27.95 2.06 o
-4 4 3 1.97 2.15 0.46 o
-3 4 3 36.89 35.03 0.92 o
-2 4 3 0.82 0.70 0.22 o
-1 4 3 44.68 48.01 1.05 o
0 4 3 138.38 148.38 1.47 o
1 4 3 444.31 450.32 3.18 o
2 4 3 97.62 101.01 1.52 o
3 4 3 299.25 271.60 3.01 o
4 4 3 13.07 14.66 1.13 o
5 4 3 11.23 12.00 0.69 o
-5 5 3 22.97 23.63 1.56 o
-4 5 3 3.64 2.10 0.58 o
-3 5 3 15.34 12.81 0.72 o
-2 5 3 53.56 56.79 1.09 o
-1 5 3 41.97 42.42 0.84 o
0 5 3 90.77 97.89 1.19 o
1 5 3 60.75 59.80 0.89 o
2 5 3 47.24 45.01 0.85 o
3 5 3 11.57 13.28 0.70 o
4 5 3 15.09 14.68 0.64 o
5 5 3 5.77 6.39 0.66 o
-4 6 3 1.95 1.60 0.29 o
-3 6 3 19.48 17.11 0.86 o
-2 6 3 9.29 9.99 0.57 o
-1 6 3 31.08 28.01 1.06 o
0 6 3 10.55 9.44 0.35 o
1 6 3 167.89 170.01 2.20 o
2 6 3 176.68 176.99 2.28 o
3 6 3 45.59 48.69 1.28 o
4 6 3 28.47 25.46 2.58 o
-3 7 3 46.20 46.06 1.72 o
-2 7 3 9.31 10.18 0.58 o
-1 7 3 60.83 68.77 1.61 o
0 7 3 49.24 49.60 1.11 o
1 7 3 5.86 7.53 0.42 o
2 7 3 4.01 3.69 0.34 o
3 7 3 2.55 2.43 0.27 o
-2 8 3 4.90 5.37 0.42 o
-1 8 3 17.28 17.07 0.84 o
0 8 3 8.66 8.50 0.60 o
1 8 3 51.24 50.20 1.26 o
2 8 3 55.28 48.45 1.63 o
-2 -8 4 14.84 13.62 0.77 o
-1 -8 4 4.01 4.02 0.37 o
0 -8 4 23.65 24.08 1.00 o
1 -8 4 20.56 18.77 0.74 o
2 -8 4 14.55 13.86 0.62 o
-3 -7 4 1.76 1.88 0.23 o
-2 -7 4 22.51 22.75 0.84 o
-1 -7 4 21.82 23.58 0.82 o
0 -7 4 5.62 5.26 0.34 o
1 -7 4 4.76 4.88 0.47 o
2 -7 4 18.38 19.35 0.75 o
3 -7 4 8.04 8.94 0.55 o
-4 -6 4 0.53 0.58 0.16 o
-3 -6 4 0.94 1.51 0.31 o
-2 -6 4 71.90 73.02 1.48 o
-1 -6 4 105.82 105.44 2.09 o
0 -6 4 24.36 24.90 0.88 o
1 -6 4 13.48 13.66 0.72 o
2 -6 4 50.13 51.12 1.56 o
3 -6 4 109.26 108.54 4.00 o
4 -6 4 13.03 15.21 1.16 o
-5 -5 4 12.20 13.49 1.02 o
-4 -5 4 19.61 22.31 1.74 o
-3 -5 4 39.49 43.68 1.70 o
-2 -5 4 27.81 29.09 0.80 o
-1 -5 4 2.94 3.83 0.25 o
0 -5 4 73.86 74.95 1.15 o
1 -5 4 79.88 79.92 1.26 o
2 -5 4 15.24 16.41 0.54 o
3 -5 4 31.65 28.88 1.14 o
4 -5 4 0.02 0.02 0.09 o
5 -5 4 1.28 1.62 0.37 o
-5 -4 4 42.28 47.27 2.29 o
-4 -4 4 35.77 36.00 2.43 o
-3 -4 4 211.31 223.34 2.95 o
-2 -4 4 40.86 40.17 0.84 o
-1 -4 4 53.10 51.26 1.02 o
0 -4 4 108.07 111.52 1.55 o
1 -4 4 264.61 267.89 3.35 o
2 -4 4 113.68 116.52 1.49 o
3 -4 4 127.08 127.19 2.38 o
4 -4 4 40.92 40.21 2.98 o
5 -4 4 1.20 0.78 0.25 o
-5 -3 4 6.96 7.55 0.67 o
-4 -3 4 12.63 11.26 1.33 o
-3 -3 4 53.54 53.84 1.22 o
-2 -3 4 306.26 309.07 3.25 o
-1 -3 4 4.37 5.71 0.30 o
0 -3 4 48.35 49.41 0.71 o
1 -3 4 69.18 71.42 1.02 o
2 -3 4 67.21 63.25 1.18 o
3 -3 4 2.61 2.53 0.25 o
4 -3 4 14.72 14.42 1.03 o
5 -3 4 2.85 1.84 0.61 o
6 -3 4 8.95 7.89 0.68 o
-6 -2 4 6.63 7.12 0.73 o
-5 -2 4 0.46 0.85 0.27 o
-4 -2 4 345.22 328.62 5.87 o
-3 -2 4 28.08 28.05 1.03 o
-2 -2 4 76.83 78.76 1.50 o
-1 -2 4 36.70 32.57 0.59 o
0 -2 4 100.12 104.21 1.43 o
1 -2 4 340.85 334.15 2.34 o
2 -2 4 96.22 100.76 1.42 o
3 -2 4 104.30 104.78 1.64 o
4 -2 4 40.04 35.36 1.24 o
5 -2 4 35.80 33.85 1.47 o
6 -2 4 0.49 0.49 0.18 o
-6 -1 4 8.39 8.02 0.93 o
-5 -1 4 5.13 5.13 1.26 o
-4 -1 4 3.05 2.69 0.33 o
-3 -1 4 34.42 35.91 1.56 o
-2 -1 4 636.83 646.62 7.22 o
-1 -1 4 270.97 269.70 1.74 o
0 -1 4 584.23 567.03 5.88 o
1 -1 4 1120.20 1093.96 7.91 o
2 -1 4 42.72 44.18 1.27 o
3 -1 4 62.07 63.52 1.33 o
4 -1 4 16.53 16.30 0.74 o
5 -1 4 52.13 54.83 2.35 o
6 -1 4 10.01 11.14 0.91 o
-6 0 4 2.93 5.03 0.76 o
-5 0 4 26.37 27.29 1.53 o
-4 0 4 208.91 210.25 3.15 o
-3 0 4 7.49 8.16 0.73 o
-2 0 4 92.70 86.20 1.22 o
-1 0 4 42.01 42.55 0.64 o
0 0 4 280.13 271.05 2.77 o
1 0 4 0.14 0.55 0.12 o
2 0 4 2.54 2.88 0.27 o
3 0 4 3.12 2.01 0.24 o
4 0 4 94.83 95.80 1.96 o
5 0 4 100.27 112.94 3.29 o
6 0 4 14.39 14.88 1.17 o
-6 1 4 8.60 9.37 1.00 o
-5 1 4 5.05 5.40 0.51 o
-4 1 4 2.91 2.24 0.38 o
-3 1 4 34.13 33.67 1.27 o
-2 1 4 637.63 641.44 7.31 o
-1 1 4 272.06 272.44 4.57 o
0 1 4 585.51 570.68 3.72 o
1 1 4 1121.43 1081.39 8.59 o
2 1 4 42.53 41.75 1.37 o
3 1 4 62.47 66.04 2.02 o
4 1 4 16.57 17.45 0.68 o
5 1 4 51.84 55.03 6.20 o
6 1 4 10.00 11.54 1.06 o
-6 2 4 6.45 7.18 0.74 o
-5 2 4 0.51 0.45 0.26 o
-4 2 4 345.73 305.45 5.96 o
-3 2 4 28.54 24.96 1.00 o
-2 2 4 76.20 76.95 1.22 o
-1 2 4 36.67 33.81 0.69 o
0 2 4 101.56 107.40 1.14 o
1 2 4 341.67 327.22 2.34 o
2 2 4 96.51 101.11 1.29 o
3 2 4 103.69 103.89 1.87 o
4 2 4 39.59 35.45 1.62 o
5 2 4 35.78 38.85 6.34 o
6 2 4 0.48 0.89 0.35 o
-5 3 4 6.99 6.58 0.72 o
-4 3 4 12.60 11.27 1.24 o
-3 3 4 53.71 54.28 1.86 o
-2 3 4 307.73 302.73 2.89 o
-1 3 4 4.28 6.49 0.26 o
0 3 4 48.78 50.89 0.76 o
1 3 4 69.87 70.93 1.41 o
2 3 4 66.31 61.16 1.20 o
3 3 4 2.48 2.40 0.26 o
4 3 4 14.36 15.04 1.20 o
5 3 4 2.94 2.39 0.45 o
6 3 4 8.98 8.38 0.72 o
-5 4 4 42.43 45.38 2.55 o
-4 4 4 35.70 36.25 2.58 o
-3 4 4 212.12 215.82 3.36 o
-2 4 4 41.15 39.99 0.88 o
-1 4 4 53.42 52.72 0.97 o
0 4 4 108.15 110.04 1.82 o
1 4 4 266.53 271.51 2.95 o
2 4 4 113.07 117.36 1.57 o
3 4 4 126.32 129.10 2.09 o
4 4 4 41.03 38.81 1.74 o
5 4 4 1.20 0.89 0.21 o
-5 5 4 11.99 12.89 1.09 o
-4 5 4 19.70 17.97 1.20 o
-3 5 4 39.15 40.46 1.29 o
-2 5 4 27.72 29.87 0.91 o
-1 5 4 2.90 3.98 0.25 o
0 5 4 74.92 77.57 1.04 o
1 5 4 79.48 80.19 1.26 o
2 5 4 14.75 16.63 0.58 o
3 5 4 31.42 29.45 1.06 o
4 5 4 0.03 0.28 0.16 o
5 5 4 1.30 1.37 0.28 o
-4 6 4 0.48 0.14 0.12 o
-3 6 4 0.87 0.83 0.18 o
-2 6 4 72.10 72.19 1.54 o
-1 6 4 105.33 103.10 2.38 o
0 6 4 24.11 24.71 0.66 o
1 6 4 13.81 14.97 0.69 o
2 6 4 49.91 49.54 1.31 o
3 6 4 109.29 115.71 2.66 o
4 6 4 13.19 12.21 1.71 o
-3 7 4 1.73 1.97 0.36 o
-2 7 4 22.72 23.88 0.87 o
-1 7 4 21.75 24.95 0.94 o
0 7 4 5.70 5.59 0.36 o
1 7 4 4.55 4.91 0.34 o
2 7 4 18.55 19.25 0.64 o
3 7 4 7.77 7.74 0.62 o
-2 8 4 14.49 13.31 0.68 o
-1 8 4 4.04 4.94 0.54 o
0 8 4 23.12 23.85 0.99 o
1 8 4 20.67 17.76 0.93 o
2 8 4 14.72 12.65 0.70 o
-2 -8 5 13.88 13.18 1.05 o
-1 -8 5 4.39 4.09 0.30 o
0 -8 5 2.87 3.16 0.33 o
1 -8 5 7.09 5.98 0.37 o
2 -8 5 54.54 45.32 1.28 o
-3 -7 5 16.47 16.31 0.65 o
-2 -7 5 44.34 42.51 1.08 o
-1 -7 5 17.20 18.51 0.71 o
0 -7 5 0.90 1.16 0.19 o
1 -7 5 2.98 2.27 0.28 o
2 -7 5 2.15 2.27 0.24 o
3 -7 5 5.97 6.62 0.44 o
-4 -6 5 1.59 2.42 0.31 o
-3 -6 5 30.40 30.05 1.22 o
-2 -6 5 50.28 54.34 1.27 o
-1 -6 5 40.56 41.48 1.30 o
0 -6 5 3.80 4.61 0.39 o
1 -6 5 5.23 5.53 0.41 o
2 -6 5 103.91 105.30 3.06 o
3 -6 5 11.77 11.73 0.65 o
4 -6 5 0.84 1.13 0.17 o
-5 -5 5 3.66 4.40 0.52 o
-4 -5 5 10.82 11.88 1.25 o
-3 -5 5 12.54 12.17 0.73 o
-2 -5 5 15.27 16.91 0.71 o
-1 -5 5 12.72 13.57 0.46 o
0 -5 5 4.67 4.84 0.28 o
1 -5 5 2.08 2.87 0.25 o
2 -5 5 44.79 47.28 1.43 o
3 -5 5 16.13 14.52 0.92 o
4 -5 5 4.31 3.87 0.43 o
5 -5 5 8.36 12.02 1.55 o
-5 -4 5 8.70 10.11 0.98 o
-4 -4 5 7.77 10.12 1.27 o
-3 -4 5 112.45 112.70 2.51 o
-2 -4 5 33.17 34.83 0.80 o
-1 -4 5 19.71 21.41 0.69 o
0 -4 5 21.17 23.98 0.72 o
1 -4 5 221.94 216.82 2.25 o
2 -4 5 61.15 61.36 1.40 o
3 -4 5 64.91 61.84 1.78 o
4 -4 5 63.99 65.10 2.44 o
5 -4 5 1.80 1.72 0.41 o
-5 -3 5 2.61 2.51 0.53 o
-4 -3 5 5.17 5.79 0.94 o
-3 -3 5 29.10 32.00 1.15 o
-2 -3 5 26.58 25.58 1.01 o
-1 -3 5 135.78 144.15 1.53 o
0 -3 5 213.33 217.66 3.09 o
1 -3 5 150.87 162.51 1.84 o
2 -3 5 40.22 41.24 1.01 o
3 -3 5 40.21 39.73 1.03 o
4 -3 5 5.13 3.99 0.55 o
5 -3 5 7.30 6.89 1.03 o
-6 -2 5 12.20 14.27 0.90 o
-5 -2 5 50.30 50.29 3.42 o
-4 -2 5 116.51 111.71 3.63 o
-3 -2 5 196.33 204.99 2.63 o
-2 -2 5 11.97 12.07 0.54 o
-1 -2 5 275.10 285.46 1.97 o
0 -2 5 138.40 137.38 2.50 o
1 -2 5 122.03 141.63 1.35 o
2 -2 5 9.52 6.22 0.33 o
3 -2 5 85.40 82.29 1.51 o
4 -2 5 186.50 179.54 3.81 o
5 -2 5 24.69 22.73 1.92 o
6 -2 5 1.97 1.39 0.29 o
-6 -1 5 0.65 0.19 0.15 o
-5 -1 5 27.82 25.96 2.16 o
-4 -1 5 23.67 24.91 1.22 o
-3 -1 5 42.30 43.00 1.81 o
-2 -1 5 265.76 280.33 3.13 o
-1 -1 5 745.94 758.23 4.71 o
0 -1 5 20.74 21.83 0.47 o
1 -1 5 726.85 745.51 5.90 o
2 -1 5 440.35 450.90 3.64 o
3 -1 5 71.92 67.99 1.46 o
4 -1 5 15.37 13.33 0.78 o
5 -1 5 2.68 2.75 0.39 o
-6 0 5 16.87 16.37 1.30 o
-5 0 5 71.26 72.53 2.49 o
-4 0 5 0.32 0.36 0.20 o
-3 0 5 92.14 86.03 2.58 o
-2 0 5 97.48 93.82 1.61 o
-1 0 5 56.69 55.91 0.81 o
0 0 5 75.55 61.35 0.99 o
1 0 5 42.30 39.07 0.64 o
2 0 5 6.84 8.29 0.37 o
3 0 5 5.07 3.81 0.34 o
4 0 5 280.78 255.77 3.11 o
5 0 5 10.23 11.04 0.96 o
6 0 5 8.81 8.99 0.79 o
-6 1 5 0.64 1.07 0.30 o
-5 1 5 28.37 28.14 1.42 o
-4 1 5 23.79 20.73 0.83 o
-3 1 5 41.42 38.18 1.07 o
-2 1 5 265.75 272.65 2.82 o
-1 1 5 746.38 755.77 5.57 o
0 1 5 20.96 21.72 0.67 o
1 1 5 725.95 742.44 4.79 o
2 1 5 441.71 456.33 4.39 o
3 1 5 71.69 69.66 1.63 o
4 1 5 15.76 14.55 0.70 o
5 1 5 2.74 3.26 0.76 o
6 1 5 0.94 1.69 0.34 o
-6 2 5 12.22 14.94 0.95 o
-5 2 5 50.27 42.62 2.37 o
-4 2 5 116.75 109.81 3.37 o
-3 2 5 195.56 183.15 2.62 o
-2 2 5 11.75 11.93 0.49 o
-1 2 5 273.75 286.74 2.94 o
0 2 5 138.25 138.64 1.58 o
1 2 5 120.98 143.84 1.35 o
2 2 5 9.55 6.79 0.38 o
3 2 5 85.65 87.18 2.12 o
4 2 5 186.60 190.94 8.57 o
5 2 5 25.01 25.00 3.65 o
6 2 5 1.99 2.17 0.40 o
-5 3 5 2.64 2.42 0.39 o
-4 3 5 5.45 5.40 0.76 o
-3 3 5 29.31 31.26 1.10 o
-2 3 5 25.66 25.60 0.82 o
-1 3 5 135.87 142.26 1.71 o
0 3 5 213.11 219.84 2.61 o
1 3 5 150.42 158.87 3.14 o
2 3 5 39.63 39.00 0.95 o
3 3 5 40.15 40.53 1.09 o
4 3 5 5.02 3.57 0.44 o
5 3 5 7.55 9.63 1.72 o
-5 4 5 8.68 11.00 1.15 o
-4 4 5 7.88 7.61 1.10 o
-3 4 5 111.75 107.24 4.67 o
-2 4 5 33.08 34.26 0.83 o
-1 4 5 19.97 22.96 0.76 o
0 4 5 21.14 23.91 0.68 o
1 4 5 221.09 221.60 2.54 o
2 4 5 61.13 61.82 1.08 o
3 4 5 65.77 67.05 1.87 o
4 4 5 63.89 64.82 1.60 o
5 4 5 1.77 2.71 0.36 o
-5 5 5 3.66 4.35 0.58 o
-4 5 5 10.57 9.12 1.13 o
-3 5 5 12.42 10.25 0.72 o
-2 5 5 14.89 17.21 0.81 o
-1 5 5 12.67 12.91 0.47 o
0 5 5 4.70 5.31 0.27 o
1 5 5 2.13 2.56 0.22 o
2 5 5 45.36 47.11 1.27 o
3 5 5 16.19 15.63 0.80 o
4 5 5 4.29 3.45 0.38 o
5 5 5 8.21 10.60 0.75 o
-4 6 5 1.63 3.27 0.57 o
-3 6 5 30.17 28.26 1.08 o
-2 6 5 50.58 52.69 1.29 o
-1 6 5 41.06 43.64 1.30 o
0 6 5 3.66 4.16 0.33 o
1 6 5 4.98 5.17 0.41 o
2 6 5 104.35 107.70 1.86 o
3 6 5 11.72 11.98 0.70 o
4 6 5 0.87 1.46 0.25 o
-3 7 5 16.55 15.67 1.30 o
-2 7 5 44.35 43.73 1.39 o
-1 7 5 17.55 16.20 1.09 o
0 7 5 0.90 0.96 0.18 o
1 7 5 3.10 2.73 0.25 o
2 7 5 2.07 2.13 0.23 o
3 7 5 5.99 5.27 0.52 o
-2 8 5 14.12 12.58 1.22 o
-1 8 5 4.36 4.25 0.46 o
0 8 5 2.87 2.95 0.40 o
1 8 5 7.04 6.05 0.55 o
2 8 5 54.70 42.40 1.20 o
-1 -8 6 1.07 0.83 0.12 o
0 -8 6 34.44 32.96 0.97 o
1 -8 6 6.61 7.15 0.45 o
-3 -7 6 20.46 19.61 1.01 o
-2 -7 6 1.09 0.98 0.16 o
-1 -7 6 67.45 64.23 1.58 o
0 -7 6 9.31 8.85 0.48 o
1 -7 6 11.27 10.74 0.57 o
2 -7 6 25.39 27.06 0.92 o
3 -7 6 8.30 8.25 0.44 o
-4 -6 6 7.41 6.93 0.99 o
-3 -6 6 3.64 4.84 0.53 o
-2 -6 6 109.66 111.47 2.35 o
-1 -6 6 78.56 79.37 1.55 o
0 -6 6 7.00 6.26 0.49 o
1 -6 6 6.66 7.13 0.46 o
2 -6 6 0.91 1.45 0.22 o
3 -6 6 48.94 46.95 2.19 o
4 -6 6 1.73 1.52 0.25 o
-4 -5 6 0.57 0.64 0.34 o
-3 -5 6 8.38 7.44 0.59 o
-2 -5 6 48.43 49.56 1.25 o
-1 -5 6 17.71 15.73 0.56 o
0 -5 6 155.20 156.21 1.70 o
1 -5 6 10.62 9.91 0.43 o
2 -5 6 61.67 58.59 1.54 o
3 -5 6 61.37 56.96 2.88 o
4 -5 6 6.75 5.95 0.48 o
-5 -4 6 12.59 13.00 1.00 o
-4 -4 6 62.57 64.09 2.96 o
-3 -4 6 31.65 29.09 1.16 o
-2 -4 6 92.87 90.18 1.66 o
-1 -4 6 112.63 117.03 1.34 o
0 -4 6 107.82 101.93 1.27 o
1 -4 6 7.39 7.20 0.34 o
2 -4 6 35.11 35.65 0.85 o
3 -4 6 59.61 58.35 1.76 o
4 -4 6 8.22 8.28 0.71 o
5 -4 6 14.93 13.85 1.48 o
-5 -3 6 4.24 4.50 0.66 o
-4 -3 6 33.10 32.05 2.34 o
-3 -3 6 8.21 8.40 0.50 o
-2 -3 6 57.80 60.62 1.18 o
-1 -3 6 174.42 181.72 1.94 o
0 -3 6 266.85 275.03 2.73 o
1 -3 6 57.48 59.92 1.12 o
2 -3 6 129.89 129.21 2.33 o
3 -3 6 3.90 3.76 0.30 o
4 -3 6 5.21 5.89 0.66 o
5 -3 6 4.52 4.72 0.53 o
-5 -2 6 9.61 10.50 0.75 o
-4 -2 6 148.17 152.07 8.69 o
-3 -2 6 109.46 100.46 2.28 o
-2 -2 6 27.24 27.83 0.88 o
-1 -2 6 14.28 12.97 0.41 o
0 -2 6 5.40 4.42 0.22 o
1 -2 6 1.17 1.80 0.16 o
2 -2 6 115.36 122.12 1.54 o
3 -2 6 24.34 23.01 0.72 o
4 -2 6 2.92 2.43 0.47 o
5 -2 6 67.86 68.09 4.81 o
-6 -1 6 1.16 1.16 0.28 o
-5 -1 6 5.36 6.12 0.70 o
-4 -1 6 11.85 10.97 1.60 o
-3 -1 6 28.88 27.42 1.08 o
-2 -1 6 133.13 141.33 2.21 o
-1 -1 6 370.63 378.24 5.37 o
0 -1 6 11.01 12.00 0.37 o
1 -1 6 341.92 351.75 3.84 o
2 -1 6 94.99 89.23 1.34 o
3 -1 6 62.21 55.12 1.09 o
4 -1 6 5.18 4.54 0.58 o
5 -1 6 4.95 4.74 0.50 o
-6 0 6 1.46 1.84 0.40 o
-5 0 6 0.93 1.21 0.51 o
-4 0 6 194.71 197.58 4.48 o
-3 0 6 11.08 12.83 0.65 o
-2 0 6 3.38 0.99 0.18 o
-1 0 6 103.68 106.04 1.34 o
0 0 6 265.19 249.30 1.99 o
1 0 6 11.93 12.10 0.41 o
2 0 6 7.35 6.52 0.33 o
3 0 6 167.87 160.11 1.89 o
4 0 6 33.40 32.99 1.55 o
5 0 6 148.51 145.33 4.53 o
-6 1 6 1.18 1.78 0.34 o
-5 1 6 5.44 5.78 0.98 o
-4 1 6 11.61 11.51 1.62 o
-3 1 6 29.26 27.74 0.76 o
-2 1 6 133.71 140.24 2.06 o
-1 1 6 371.55 393.19 3.99 o
0 1 6 11.13 11.97 0.34 o
1 1 6 342.85 365.14 2.43 o
2 1 6 95.45 90.44 1.43 o
3 1 6 61.30 56.72 1.25 o
4 1 6 5.30 5.12 0.57 o
5 1 6 4.75 3.53 0.77 o
6 1 6 6.49 6.49 0.59 o
-5 2 6 9.40 9.00 0.64 o
-4 2 6 147.72 145.06 4.16 o
-3 2 6 110.11 100.26 2.15 o
-2 2 6 27.40 29.05 0.83 o
-1 2 6 14.28 15.59 1.24 o
0 2 6 5.38 4.28 0.21 o
1 2 6 1.21 2.05 0.16 o
2 2 6 115.63 124.25 1.79 o
3 2 6 24.30 24.88 0.84 o
4 2 6 2.86 2.16 0.38 o
5 2 6 67.92 66.00 3.16 o
-5 3 6 4.37 4.61 0.49 o
-4 3 6 33.40 29.99 1.76 o
-3 3 6 8.08 9.00 0.61 o
-2 3 6 58.74 62.86 1.36 o
-1 3 6 173.94 175.81 3.01 o
0 3 6 267.21 275.27 3.03 o
1 3 6 57.85 61.22 1.09 o
2 3 6 129.44 130.27 1.81 o
3 3 6 4.04 3.74 0.37 o
4 3 6 5.21 5.94 0.71 o
5 3 6 4.65 3.73 0.70 o
-5 4 6 12.32 13.35 1.17 o
-4 4 6 62.57 58.03 2.49 o
-3 4 6 32.21 29.07 1.82 o
-2 4 6 92.83 86.62 2.28 o
-1 4 6 111.95 113.65 1.40 o
0 4 6 107.90 103.92 1.21 o
1 4 6 7.58 8.30 0.33 o
2 4 6 35.06 35.38 0.91 o
3 4 6 59.52 56.44 1.66 o
4 4 6 8.24 7.75 0.89 o
5 4 6 14.92 11.83 0.74 o
-4 5 6 0.62 0.28 0.19 o
-3 5 6 8.52 6.95 0.70 o
-2 5 6 48.79 49.27 1.23 o
-1 5 6 17.78 16.03 0.58 o
0 5 6 154.90 152.28 1.72 o
1 5 6 10.63 9.47 0.40 o
2 5 6 61.99 57.06 1.30 o
3 5 6 61.27 61.02 1.76 o
4 5 6 6.59 7.32 0.66 o
-4 6 6 7.49 7.65 0.81 o
-3 6 6 3.75 4.90 0.42 o
-2 6 6 109.95 107.23 3.37 o
-1 6 6 77.86 79.49 1.79 o
0 6 6 6.88 5.70 0.37 o
1 6 6 6.72 7.65 0.46 o
2 6 6 0.89 1.29 0.23 o
3 6 6 48.82 48.63 2.12 o
4 6 6 1.66 1.53 0.24 o
-3 7 6 20.33 22.21 1.21 o
-2 7 6 1.14 1.30 0.18 o
-1 7 6 66.72 62.24 1.99 o
0 7 6 9.10 8.07 0.45 o
1 7 6 11.44 11.40 0.52 o
2 7 6 25.19 24.53 1.29 o
3 7 6 8.43 7.33 0.55 o
-1 8 6 1.06 1.09 0.18 o
0 8 6 34.29 32.66 1.25 o
1 8 6 6.55 7.14 0.54 o
0 -8 7 6.62 6.79 0.51 o
1 -8 7 17.39 18.11 1.09 o
-3 -7 7 5.07 5.01 0.56 o
-2 -7 7 6.31 5.86 0.44 o
-1 -7 7 4.00 4.41 0.35 o
0 -7 7 11.20 10.79 0.55 o
1 -7 7 5.16 5.65 0.40 o
2 -7 7 9.77 10.29 0.58 o
3 -7 7 1.00 0.75 0.21 o
-4 -6 7 2.43 3.38 0.39 o
-3 -6 7 35.74 38.36 1.23 o
-2 -6 7 32.14 31.54 1.01 o
-1 -6 7 44.04 44.17 1.30 o
0 -6 7 12.38 12.36 0.62 o
1 -6 7 41.90 43.25 1.04 o
2 -6 7 4.24 4.74 0.32 o
3 -6 7 6.48 5.93 0.52 o
4 -6 7 6.68 6.17 0.58 o
-4 -5 7 24.57 24.71 3.90 o
-3 -5 7 14.73 13.69 0.75 o
-2 -5 7 23.26 23.96 0.97 o
-1 -5 7 39.66 39.37 1.12 o
0 -5 7 142.48 142.44 2.71 o
1 -5 7 11.46 9.91 0.56 o
2 -5 7 0.71 1.06 0.18 o
3 -5 7 3.86 2.49 0.23 o
4 -5 7 19.49 20.95 1.10 o
-5 -4 7 5.16 5.52 0.55 o
-4 -4 7 7.84 8.65 0.73 o
-3 -4 7 145.32 144.79 2.71 o
-2 -4 7 131.67 127.27 2.35 o
-1 -4 7 48.86 46.83 0.96 o
0 -4 7 29.05 28.39 0.61 o
1 -4 7 28.66 26.77 0.65 o
2 -4 7 2.59 2.83 0.33 o
3 -4 7 2.56 3.25 0.34 o
4 -4 7 39.06 38.02 1.78 o
5 -4 7 8.75 7.27 0.72 o
-5 -3 7 23.88 27.79 1.43 o
-4 -3 7 44.59 45.66 2.66 o
-3 -3 7 49.59 49.92 1.86 o
-2 -3 7 52.55 49.03 1.34 o
-1 -3 7 73.38 74.94 1.21 o
0 -3 7 38.72 39.95 0.92 o
1 -3 7 17.66 16.33 0.56 o
2 -3 7 47.30 50.43 0.90 o
3 -3 7 48.46 42.38 1.53 o
4 -3 7 1.44 1.98 0.39 o
5 -3 7 5.19 5.18 0.75 o
-5 -2 7 3.04 2.79 0.83 o
-4 -2 7 37.71 38.55 1.53 o
-3 -2 7 40.72 39.94 1.18 o
-2 -2 7 17.78 19.26 0.69 o
-1 -2 7 193.05 181.39 2.19 o
0 -2 7 31.00 28.42 0.66 o
1 -2 7 78.06 79.19 1.10 o
2 -2 7 31.58 30.14 0.73 o
3 -2 7 20.40 19.89 0.73 o
4 -2 7 186.46 186.97 3.93 o
5 -2 7 5.24 5.80 0.65 o
-5 -1 7 7.34 9.60 1.36 o
-4 -1 7 3.49 2.47 0.48 o
-3 -1 7 0.07 0.21 0.15 o
-2 -1 7 28.82 28.16 1.22 o
-1 -1 7 44.29 45.98 0.93 o
0 -1 7 84.05 81.33 1.08 o
1 -1 7 34.47 33.98 0.63 o
2 -1 7 230.71 225.41 3.26 o
3 -1 7 41.55 39.17 0.90 o
4 -1 7 67.82 70.07 1.98 o
5 -1 7 8.27 8.46 1.11 o
-5 0 7 50.17 48.08 2.82 o
-4 0 7 26.57 25.85 1.28 o
-3 0 7 33.88 35.19 0.97 o
-2 0 7 8.34 6.27 0.57 o
-1 0 7 44.67 41.93 0.86 o
0 0 7 535.32 518.93 5.22 o
1 0 7 13.06 13.58 0.48 o
2 0 7 1.81 1.43 0.16 o
3 0 7 116.41 103.84 1.68 o
4 0 7 253.76 246.86 3.76 o
5 0 7 10.23 9.37 0.66 o
-5 1 7 7.29 8.36 1.12 o
-4 1 7 3.40 2.46 0.48 o
-3 1 7 0.08 0.17 0.10 o
-2 1 7 28.79 27.97 0.87 o
-1 1 7 44.37 47.04 1.04 o
0 1 7 84.23 81.75 1.13 o
1 1 7 34.83 34.79 0.69 o
2 1 7 230.83 222.47 4.26 o
3 1 7 41.61 40.36 0.90 o
4 1 7 67.09 67.20 2.04 o
5 1 7 8.39 8.63 1.03 o
-5 2 7 2.98 2.09 0.38 o
-4 2 7 37.28 36.06 1.87 o
-3 2 7 40.27 40.28 1.15 o
-2 2 7 17.70 17.45 0.62 o
-1 2 7 193.80 185.01 2.40 o
0 2 7 30.80 28.02 0.62 o
1 2 7 77.64 79.52 1.21 o
2 2 7 31.02 31.18 1.02 o
3 2 7 20.46 19.76 0.81 o
4 2 7 186.76 187.18 5.54 o
5 2 7 5.27 4.55 0.74 o
-5 3 7 23.96 28.57 1.67 o
-4 3 7 44.95 44.22 2.09 o
-3 3 7 49.41 45.80 1.75 o
-2 3 7 51.85 47.45 1.06 o
-1 3 7 73.88 77.89 1.27 o
0 3 7 38.83 40.61 0.80 o
1 3 7 17.46 15.83 0.51 o
2 3 7 47.40 52.51 1.07 o
3 3 7 48.24 46.78 1.84 o
4 3 7 1.44 1.99 0.29 o
5 3 7 5.04 6.16 0.80 o
-5 4 7 5.23 5.42 0.62 o
-4 4 7 7.95 9.08 0.88 o
-3 4 7 144.70 134.97 3.15 o
-2 4 7 131.27 122.66 3.52 o
-1 4 7 49.60 46.87 0.98 o
0 4 7 29.16 28.39 0.71 o
1 4 7 28.16 26.21 0.69 o
2 4 7 2.57 2.58 0.35 o
3 4 7 2.44 2.89 0.41 o
4 4 7 39.19 37.29 1.64 o
5 4 7 8.95 7.15 0.51 o
-4 5 7 24.37 25.77 1.84 o
-3 5 7 14.75 14.19 0.95 o
-2 5 7 23.23 23.05 1.34 o
-1 5 7 39.55 38.50 1.14 o
0 5 7 143.27 138.88 2.22 o
1 5 7 11.36 9.90 0.50 o
2 5 7 0.71 0.80 0.18 o
3 5 7 4.01 2.78 0.37 o
4 5 7 19.53 19.04 1.06 o
-4 6 7 2.49 2.85 0.43 o
-3 6 7 35.58 36.06 1.31 o
-2 6 7 32.05 28.52 1.28 o
-1 6 7 44.79 45.82 1.28 o
0 6 7 12.25 11.65 0.60 o
1 6 7 41.95 43.14 1.16 o
2 6 7 4.12 4.68 0.40 o
3 6 7 6.24 5.99 0.85 o
-2 7 7 6.21 5.63 0.44 o
-1 7 7 3.89 4.21 0.33 o
0 7 7 11.22 10.46 0.48 o
1 7 7 5.09 5.84 0.50 o
2 7 7 9.91 8.11 0.67 o
3 7 7 0.98 1.04 0.19 o
0 8 7 6.62 7.27 0.86 o
1 8 7 17.47 16.74 1.04 o
-2 -7 8 6.08 6.75 0.49 o
-1 -7 8 0.09 0.15 0.10 o
0 -7 8 7.26 7.57 0.46 o
1 -7 8 24.76 23.37 1.16 o
2 -7 8 1.34 1.35 0.32 o
-3 -6 8 45.58 41.57 1.55 o
-2 -6 8 17.43 18.49 0.83 o
-1 -6 8 19.10 19.01 0.81 o
0 -6 8 0.23 0.51 0.15 o
1 -6 8 5.03 4.86 0.33 o
2 -6 8 50.11 51.19 1.09 o
3 -6 8 10.73 11.60 0.76 o
-4 -5 8 2.67 3.00 0.47 o
-3 -5 8 6.14 6.00 0.38 o
-2 -5 8 7.23 6.78 0.51 o
-1 -5 8 14.31 14.90 0.69 o
0 -5 8 54.20 53.46 1.21 o
1 -5 8 133.66 133.22 2.13 o
2 -5 8 57.77 52.45 1.26 o
3 -5 8 32.76 35.46 1.35 o
4 -5 8 23.92 26.35 2.07 o
-4 -4 8 4.63 4.43 0.36 o
-3 -4 8 12.58 12.98 0.61 o
-2 -4 8 34.39 32.18 0.92 o
-1 -4 8 129.71 129.61 2.17 o
0 -4 8 84.28 83.08 1.20 o
1 -4 8 6.24 7.17 0.41 o
2 -4 8 4.87 5.22 0.45 o
3 -4 8 3.75 4.28 0.35 o
4 -4 8 3.08 3.46 0.39 o
-4 -3 8 16.39 18.93 0.96 o
-3 -3 8 25.02 27.72 1.90 o
-2 -3 8 29.68 28.47 0.75 o
-1 -3 8 167.43 167.95 1.77 o
0 -3 8 16.34 15.87 0.46 o
1 -3 8 87.96 87.16 1.25 o
2 -3 8 145.65 134.80 2.13 o
3 -3 8 9.78 9.67 0.63 o
4 -3 8 6.37 7.91 0.58 o
5 -3 8 4.33 3.37 0.53 o
-5 -2 8 6.37 5.56 0.73 o
-4 -2 8 1.00 1.51 0.26 o
-3 -2 8 28.65 29.35 1.16 o
-2 -2 8 46.62 46.04 0.93 o
-1 -2 8 155.34 156.88 1.48 o
0 -2 8 146.25 139.31 1.65 o
1 -2 8 16.93 17.17 0.49 o
2 -2 8 87.78 88.23 1.17 o
3 -2 8 21.34 19.61 0.98 o
4 -2 8 1.53 1.75 0.30 o
5 -2 8 61.08 67.40 3.15 o
-5 -1 8 17.69 18.15 1.53 o
-4 -1 8 9.35 10.47 0.82 o
-3 -1 8 62.30 57.34 1.45 o
-2 -1 8 25.34 24.47 0.69 o
-1 -1 8 120.49 117.97 1.65 o
0 -1 8 21.90 20.63 0.57 o
1 -1 8 22.90 20.54 0.61 o
2 -1 8 28.60 25.85 0.63 o
3 -1 8 4.15 3.49 0.35 o
4 -1 8 12.67 13.27 0.83 o
5 -1 8 8.14 7.56 0.73 o
-5 0 8 2.28 2.47 0.62 o
-4 0 8 17.73 17.23 1.05 o
-3 0 8 18.45 13.78 0.64 o
-2 0 8 109.54 118.06 2.15 o
-1 0 8 64.40 67.15 1.32 o
0 0 8 31.16 35.09 0.80 o
1 0 8 73.41 80.38 1.50 o
2 0 8 3.15 4.57 0.25 o
3 0 8 52.67 44.53 1.00 o
4 0 8 62.41 61.06 1.40 o
5 0 8 4.67 4.62 1.09 o
-5 1 8 17.72 18.99 1.57 o
-4 1 8 9.50 10.26 0.95 o
-3 1 8 62.79 59.80 1.42 o
-2 1 8 25.22 24.96 0.80 o
-1 1 8 119.19 119.81 1.84 o
0 1 8 21.66 20.33 0.60 o
1 1 8 23.12 20.93 0.62 o
2 1 8 28.36 27.31 0.67 o
3 1 8 4.04 3.87 0.35 o
4 1 8 12.67 12.21 0.85 o
5 1 8 8.32 8.29 0.67 o
-5 2 8 6.50 6.42 0.80 o
-4 2 8 1.05 1.21 0.33 o
-3 2 8 28.76 30.20 1.39 o
-2 2 8 46.80 46.20 1.18 o
-1 2 8 154.86 155.52 2.17 o
0 2 8 146.07 143.27 2.18 o
1 2 8 17.08 17.71 0.53 o
2 2 8 87.80 90.31 2.14 o
3 2 8 21.33 19.73 0.90 o
4 2 8 1.62 1.39 0.24 o
5 2 8 61.26 57.85 1.66 o
-4 3 8 16.25 18.72 1.26 o
-3 3 8 25.21 25.16 1.29 o
-2 3 8 29.04 27.19 0.82 o
-1 3 8 167.60 166.62 2.58 o
0 3 8 16.21 16.17 0.54 o
1 3 8 87.76 90.25 1.45 o
2 3 8 146.73 135.34 2.68 o
3 3 8 9.58 10.19 0.57 o
4 3 8 6.15 7.19 0.52 o
5 3 8 4.24 4.20 0.58 o
-4 4 8 4.60 3.66 0.52 o
-3 4 8 12.87 12.22 0.90 o
-2 4 8 34.54 31.27 1.35 o
-1 4 8 129.18 128.37 2.01 o
0 4 8 84.43 81.56 1.20 o
1 4 8 6.24 7.57 0.41 o
2 4 8 5.00 4.97 0.39 o
3 4 8 3.73 4.20 0.39 o
4 4 8 2.97 3.21 0.30 o
-4 5 8 2.81 3.81 0.59 o
-3 5 8 6.15 5.09 0.55 o
-2 5 8 7.52 6.88 0.85 o
-1 5 8 14.34 16.50 0.73 o
0 5 8 53.57 52.92 1.15 o
1 5 8 133.82 127.86 2.10 o
2 5 8 57.57 51.23 1.30 o
3 5 8 32.80 33.18 0.94 o
4 5 8 23.77 23.78 2.03 o
-3 6 8 46.01 42.32 2.08 o
-2 6 8 17.60 17.40 0.97 o
-1 6 8 18.88 18.09 0.75 o
0 6 8 0.24 0.33 0.12 o
1 6 8 4.96 4.47 0.45 o
2 6 8 50.05 48.75 1.52 o
3 6 8 10.70 10.86 0.84 o
-2 7 8 5.96 6.03 1.03 o
-1 7 8 0.13 0.32 0.12 o
0 7 8 7.09 7.05 0.49 o
1 7 8 25.04 22.50 1.45 o
2 7 8 1.28 1.29 0.27 o
-1 -7 9 22.87 23.39 1.29 o
0 -7 9 9.19 8.14 0.51 o
1 -7 9 1.10 1.13 0.18 o
-3 -6 9 68.66 70.21 2.40 o
-2 -6 9 42.69 45.56 1.39 o
-1 -6 9 19.43 21.10 0.80 o
0 -6 9 4.28 4.38 0.33 o
1 -6 9 17.12 16.03 0.59 o
2 -6 9 0.83 1.30 0.52 o
3 -6 9 5.78 8.62 0.75 o
-3 -5 9 19.75 18.73 0.87 o
-2 -5 9 27.51 28.29 1.08 o
-1 -5 9 3.87 3.46 0.38 o
0 -5 9 5.29 4.99 0.44 o
1 -5 9 2.20 1.69 0.21 o
2 -5 9 11.98 11.81 0.62 o
3 -5 9 0.12 0.52 0.29 o
-4 -4 9 13.04 13.73 0.64 o
-3 -4 9 6.07 6.34 0.51 o
-2 -4 9 22.34 22.39 0.82 o
-1 -4 9 60.62 63.98 1.35 o
0 -4 9 23.68 24.36 0.99 o
1 -4 9 25.29 29.55 0.95 o
2 -4 9 29.36 30.81 1.07 o
3 -4 9 7.72 9.78 0.64 o
4 -4 9 2.19 2.22 0.34 o
-4 -3 9 10.38 11.17 0.69 o
-3 -3 9 8.93 9.90 0.65 o
-2 -3 9 15.31 14.02 0.66 o
-1 -3 9 22.03 22.27 0.68 o
0 -3 9 84.99 82.74 1.42 o
1 -3 9 42.17 38.78 0.84 o
2 -3 9 16.87 18.08 0.65 o
3 -3 9 11.93 11.68 0.83 o
4 -3 9 5.01 5.33 0.43 o
-5 -2 9 3.16 2.94 0.45 o
-4 -2 9 7.47 6.85 0.52 o
-3 -2 9 24.65 25.46 0.97 o
-2 -2 9 31.61 29.50 0.87 o
-1 -2 9 263.26 253.81 2.13 o
0 -2 9 315.70 309.40 3.74 o
1 -2 9 85.60 91.96 1.63 o
2 -2 9 37.17 37.70 0.86 o
3 -2 9 14.11 12.72 0.71 o
4 -2 9 11.81 11.66 0.86 o
5 -2 9 7.22 8.85 0.93 o
-5 -1 9 34.53 39.62 2.00 o
-4 -1 9 3.45 2.18 0.36 o
-3 -1 9 59.78 55.75 1.44 o
-2 -1 9 21.60 21.70 0.80 o
-1 -1 9 28.51 31.23 0.72 o
0 -1 9 15.86 14.79 0.47 o
1 -1 9 2.78 3.67 0.21 o
2 -1 9 13.61 12.76 0.49 o
3 -1 9 25.63 24.23 1.02 o
4 -1 9 5.39 5.20 0.62 o
5 -1 9 8.34 10.48 1.68 o
-5 0 9 9.56 9.25 1.01 o
-4 0 9 6.61 5.63 0.57 o
-3 0 9 7.69 9.24 0.70 o
-2 0 9 3.98 6.10 0.40 o
-1 0 9 4.73 3.59 0.26 o
0 0 9 311.31 310.83 2.69 o
1 0 9 56.53 53.30 0.88 o
2 0 9 7.57 7.71 0.35 o
3 0 9 71.60 75.09 1.69 o
4 0 9 17.75 17.82 0.80 o
5 0 9 20.94 19.45 1.45 o
-5 1 9 34.50 40.29 2.03 o
-4 1 9 3.41 2.53 0.46 o
-3 1 9 59.94 57.66 1.76 o
-2 1 9 21.55 20.96 0.70 o
-1 1 9 28.73 30.78 0.73 o
0 1 9 15.81 14.64 0.48 o
1 1 9 2.76 3.46 0.22 o
2 1 9 13.44 12.32 0.46 o
3 1 9 25.52 25.95 0.92 o
4 1 9 5.41 5.23 0.45 o
5 1 9 8.38 11.45 1.04 o
-5 2 9 3.25 2.94 0.46 o
-4 2 9 7.61 6.96 0.78 o
-3 2 9 24.82 26.62 1.14 o
-2 2 9 31.15 29.95 0.91 o
-1 2 9 264.46 246.66 5.99 o
0 2 9 316.20 317.91 2.67 o
1 2 9 85.78 96.25 1.26 o
2 2 9 36.52 37.22 1.15 o
3 2 9 13.80 11.88 0.69 o
4 2 9 12.06 11.79 0.67 o
5 2 9 7.32 7.50 0.57 o
-4 3 9 10.36 10.73 1.11 o
-3 3 9 8.84 8.47 0.63 o
-2 3 9 15.51 14.80 0.86 o
-1 3 9 21.91 21.06 0.77 o
0 3 9 85.12 85.83 1.64 o
1 3 9 41.98 38.61 0.85 o
2 3 9 16.80 18.83 0.78 o
3 3 9 12.14 11.68 0.69 o
4 3 9 5.05 5.18 0.47 o
5 3 9 22.14 22.22 1.21 o
-4 4 9 13.04 13.11 1.16 o
-3 4 9 5.83 5.31 0.56 o
-2 4 9 22.24 22.26 1.11 o
-1 4 9 61.33 63.73 1.67 o
0 4 9 23.73 23.90 0.76 o
1 4 9 25.26 28.42 0.93 o
2 4 9 29.46 30.69 1.20 o
3 4 9 7.56 9.16 0.47 o
4 4 9 2.22 1.89 0.20 o
-4 5 9 14.97 15.68 0.69 o
-3 5 9 19.76 17.50 1.16 o
-2 5 9 27.33 26.63 1.26 o
-1 5 9 3.89 3.51 0.36 o
0 5 9 5.30 5.14 0.38 o
1 5 9 2.20 1.84 0.25 o
2 5 9 11.99 10.78 0.62 o
3 5 9 0.13 0.60 0.14 o
4 5 9 26.58 25.96 0.93 o
-3 6 9 68.64 65.23 1.65 o
-2 6 9 42.67 45.18 1.59 o
-1 6 9 19.46 20.02 0.98 o
0 6 9 4.11 3.57 0.33 o
1 6 9 17.28 15.02 0.68 o
2 6 9 0.79 1.13 0.23 o
3 6 9 5.99 7.80 0.43 o
-1 7 9 22.74 18.53 2.84 o
0 7 9 9.19 7.31 0.54 o
1 7 9 1.10 0.84 0.31 o
-2 -6 10 0.20 0.33 0.13 o
-1 -6 10 4.92 5.98 0.46 o
0 -6 10 6.19 6.65 0.41 o
1 -6 10 5.39 5.33 0.37 o
2 -6 10 1.31 2.22 0.24 o
-3 -5 10 12.27 11.76 0.77 o
-2 -5 10 9.37 9.44 0.68 o
-1 -5 10 3.22 3.53 0.34 o
0 -5 10 5.53 6.01 0.46 o
1 -5 10 9.48 9.09 0.54 o
2 -5 10 13.94 12.74 0.58 o
3 -5 10 34.92 38.05 2.04 o
-4 -4 10 1.12 1.16 0.30 o
-3 -4 10 16.51 16.26 0.74 o
-2 -4 10 56.69 55.94 2.94 o
-1 -4 10 18.12 18.00 0.84 o
0 -4 10 42.34 42.68 1.16 o
1 -4 10 18.77 18.62 0.92 o
2 -4 10 15.07 15.53 0.71 o
3 -4 10 0.03 0.15 0.14 o
4 -4 10 10.43 14.53 0.69 o
-4 -3 10 20.67 18.12 1.01 o
-3 -3 10 5.35 4.32 0.41 o
-2 -3 10 40.76 38.97 1.19 o
-1 -3 10 6.26 6.55 0.46 o
0 -3 10 8.69 9.08 0.54 o
1 -3 10 17.25 16.15 0.77 o
2 -3 10 15.99 13.73 0.61 o
3 -3 10 26.03 22.51 1.05 o
4 -3 10 7.09 8.64 0.47 o
-4 -2 10 0.49 0.77 0.23 o
-3 -2 10 7.83 7.43 0.51 o
-2 -2 10 1.45 1.20 0.21 o
-1 -2 10 176.46 170.21 2.36 o
0 -2 10 36.24 36.26 0.78 o
1 -2 10 126.08 123.73 1.77 o
2 -2 10 27.85 29.40 1.12 o
3 -2 10 13.56 14.47 0.73 o
4 -2 10 16.99 17.33 0.89 o
-5 -1 10 35.43 36.92 1.58 o
-4 -1 10 19.61 18.94 0.98 o
-3 -1 10 49.95 47.62 1.65 o
-2 -1 10 32.54 32.08 1.22 o
-1 -1 10 6.68 5.84 0.33 o
0 -1 10 14.37 13.41 0.48 o
1 -1 10 5.17 4.96 0.27 o
2 -1 10 27.10 27.42 0.87 o
3 -1 10 93.52 91.02 2.10 o
4 -1 10 4.91 4.84 0.34 o
5 -1 10 28.12 31.53 1.56 o
-5 0 10 11.91 13.01 0.98 o
-4 0 10 4.19 3.88 0.57 o
-3 0 10 11.85 8.90 0.69 o
-2 0 10 13.85 13.26 0.72 o
-1 0 10 38.19 33.45 0.84 o
0 0 10 8.33 8.32 0.35 o
1 0 10 132.70 128.50 1.61 o
2 0 10 4.71 5.94 0.42 o
3 0 10 4.63 5.03 0.41 o
4 0 10 17.77 18.56 0.84 o
5 0 10 3.05 4.12 0.55 o
-5 1 10 35.19 35.58 1.54 o
-4 1 10 19.60 17.13 1.73 o
-3 1 10 49.58 48.40 1.50 o
-2 1 10 32.26 31.95 1.24 o
-1 1 10 6.64 5.98 0.34 o
0 1 10 14.27 13.43 0.46 o
1 1 10 5.24 5.27 0.27 o
2 1 10 26.82 28.62 0.91 o
3 1 10 94.38 94.35 1.63 o
4 1 10 4.97 4.40 0.38 o
5 1 10 28.15 30.43 1.44 o
-4 2 10 0.50 0.50 0.15 o
-3 2 10 7.76 6.87 0.49 o
-2 2 10 1.47 1.29 0.23 o
-1 2 10 176.19 168.31 5.43 o
0 2 10 36.29 36.93 0.80 o
1 2 10 125.92 124.60 1.67 o
2 2 10 28.07 28.92 0.84 o
3 2 10 13.35 14.00 0.60 o
4 2 10 16.78 16.52 0.83 o
-4 3 10 20.34 25.52 1.57 o
-3 3 10 5.46 4.56 0.56 o
-2 3 10 41.01 39.00 1.23 o
-1 3 10 6.28 7.05 0.54 o
0 3 10 8.51 9.24 0.62 o
1 3 10 17.04 16.67 0.66 o
2 3 10 15.98 13.61 0.56 o
3 3 10 25.93 23.48 0.92 o
4 3 10 6.99 7.65 0.45 o
-4 4 10 1.12 1.65 0.27 o
-3 4 10 16.45 15.23 0.85 o
-2 4 10 56.77 54.29 1.78 o
-1 4 10 18.09 17.99 0.76 o
0 4 10 42.27 41.13 1.15 o
1 4 10 18.70 18.30 0.70 o
2 4 10 15.11 14.45 0.63 o
3 4 10 0.03 -0.09 0.09 o
4 4 10 10.33 13.09 0.71 o
-3 5 10 12.20 10.19 0.70 o
-2 5 10 9.03 8.72 0.81 o
-1 5 10 3.19 3.36 0.39 o
0 5 10 5.27 5.58 0.39 o
1 5 10 9.59 9.29 0.49 o
2 5 10 13.89 12.31 0.54 o
3 5 10 34.97 36.20 1.10 o
-2 6 10 0.21 0.43 0.11 o
-1 6 10 4.91 5.86 0.91 o
0 6 10 6.17 6.31 0.65 o
1 6 10 5.39 4.55 0.51 o
2 6 10 1.34 1.86 0.19 o
-1 -6 11 2.61 2.61 0.50 o
0 -6 11 4.28 4.96 0.37 o
1 -6 11 4.88 4.85 0.36 o
-3 -5 11 0.28 0.54 0.15 o
-2 -5 11 0.01 0.00 0.31 o
-1 -5 11 7.63 6.65 0.41 o
0 -5 11 32.56 32.37 1.09 o
1 -5 11 18.61 20.63 0.74 o
2 -5 11 2.46 2.88 0.28 o
-3 -4 11 6.38 7.41 0.85 o
-2 -4 11 4.97 4.94 0.51 o
-1 -4 11 15.15 16.96 0.76 o
0 -4 11 38.26 40.58 1.66 o
1 -4 11 108.64 109.86 1.87 o
2 -4 11 38.22 41.01 1.08 o
3 -4 11 11.90 14.27 0.72 o
-4 -3 11 13.36 14.43 0.72 o
-3 -3 11 4.07 3.72 0.42 o
-2 -3 11 11.50 11.31 0.71 o
-1 -3 11 49.09 48.72 1.35 o
0 -3 11 6.56 6.47 0.50 o
1 -3 11 34.83 37.08 1.05 o
2 -3 11 23.35 20.59 0.69 o
3 -3 11 2.83 2.89 0.28 o
4 -3 11 19.76 24.08 0.69 o
-4 -2 11 29.30 30.36 2.56 o
-3 -2 11 6.24 5.90 0.49 o
-2 -2 11 28.60 33.03 1.27 o
-1 -2 11 10.06 9.26 0.59 o
0 -2 11 199.13 196.93 2.39 o
1 -2 11 21.17 22.30 0.83 o
2 -2 11 1.40 1.09 0.18 o
3 -2 11 3.94 4.90 0.35 o
4 -2 11 12.31 12.82 0.83 o
-4 -1 11 1.03 1.03 0.37 o
-3 -1 11 10.76 9.32 0.66 o
-2 -1 11 13.30 13.44 0.79 o
-1 -1 11 12.77 13.15 0.79 o
0 -1 11 14.82 14.76 0.69 o
1 -1 11 2.83 2.06 0.23 o
2 -1 11 40.57 38.98 0.97 o
3 -1 11 7.08 6.72 0.53 o
4 -1 11 23.52 27.10 1.04 o
-4 0 11 0.52 0.06 0.19 o
-3 0 11 21.77 24.53 1.25 o
-2 0 11 12.96 10.79 0.64 o
-1 0 11 10.26 9.54 0.61 o
0 0 11 322.82 305.77 4.83 o
1 0 11 37.90 38.14 0.96 o
2 0 11 1.11 1.40 0.20 o
3 0 11 49.79 52.38 1.51 o
4 0 11 5.51 7.73 0.54 o
-4 1 11 1.07 1.45 0.43 o
-3 1 11 10.76 10.91 0.78 o
-2 1 11 13.36 13.69 0.74 o
-1 1 11 12.80 13.19 0.66 o
0 1 11 14.85 14.73 0.64 o
1 1 11 2.82 2.47 0.27 o
2 1 11 40.81 38.00 0.98 o
3 1 11 7.05 6.45 0.47 o
4 1 11 23.74 25.42 1.24 o
-4 2 11 29.51 35.21 1.50 o
-3 2 11 6.34 6.27 0.51 o
-2 2 11 28.32 32.27 1.10 o
-1 2 11 9.74 9.42 0.57 o
0 2 11 199.54 206.19 3.16 o
1 2 11 21.57 24.39 0.83 o
2 2 11 1.28 1.01 0.16 o
3 2 11 3.90 4.77 0.36 o
4 2 11 12.05 11.75 1.34 o
-3 3 11 4.12 3.64 0.34 o
-2 3 11 11.51 10.41 0.50 o
-1 3 11 49.13 49.68 1.67 o
0 3 11 6.50 6.71 0.47 o
1 3 11 35.09 38.05 1.15 o
2 3 11 23.55 19.92 0.70 o
3 3 11 2.75 2.74 0.23 o
4 3 11 19.95 21.65 0.94 o
-3 4 11 6.32 6.31 0.84 o
-2 4 11 5.02 4.56 0.37 o
-1 4 11 15.11 15.16 0.92 o
0 4 11 38.41 40.92 1.08 o
1 4 11 109.01 109.33 2.41 o
2 4 11 38.01 39.54 1.00 o
3 4 11 11.68 13.09 0.58 o
-3 5 11 0.28 0.49 0.16 o
-2 5 11 0.01 0.09 0.12 o
-1 5 11 7.64 7.14 0.50 o
0 5 11 32.71 32.56 1.08 o
1 5 11 18.50 20.82 0.69 o
2 5 11 2.41 2.00 0.24 o
-1 6 11 2.59 1.20 0.34 o
0 6 11 4.36 5.22 0.51 o
1 6 11 5.00 4.70 0.42 o
-2 -5 12 17.73 18.47 0.82 o
-1 -5 12 7.46 6.75 0.54 o
0 -5 12 15.16 14.80 0.74 o
1 -5 12 4.51 4.36 0.39 o
2 -5 12 4.26 4.06 0.38 o
-3 -4 12 5.49 6.41 0.49 o
-2 -4 12 1.04 0.70 0.24 o
-1 -4 12 4.55 3.71 0.36 o
0 -4 12 25.39 25.56 0.97 o
1 -4 12 68.44 71.60 1.65 o
2 -4 12 11.37 11.57 0.57 o
3 -4 12 4.67 6.04 0.48 o
-3 -3 12 25.84 30.07 1.35 o
-2 -3 12 39.37 39.07 1.21 o
-1 -3 12 29.73 29.89 1.14 o
0 -3 12 34.17 33.76 1.21 o
1 -3 12 3.40 3.59 0.27 o
2 -3 12 20.15 19.61 0.62 o
3 -3 12 9.57 10.76 0.45 o
-3 -2 12 2.02 1.92 0.38 o
-2 -2 12 0.62 0.53 0.13 o
-1 -2 12 4.10 4.35 0.39 o
0 -2 12 63.54 64.82 2.07 o
1 -2 12 29.54 30.83 0.89 o
2 -2 12 13.11 13.67 0.57 o
3 -2 12 1.16 1.08 0.15 o
4 -2 12 2.63 3.14 0.44 o
-4 -1 12 11.48 13.48 1.08 o
-3 -1 12 4.58 3.27 0.41 o
-2 -1 12 67.32 68.79 1.58 o
-1 -1 12 14.99 16.82 0.89 o
0 -1 12 18.77 19.65 0.97 o
1 -1 12 0.87 0.87 0.21 o
2 -1 12 1.04 0.87 0.16 o
3 -1 12 11.45 11.05 0.50 o
4 -1 12 0.13 0.14 0.08 o
-4 0 12 1.45 1.63 0.41 o
-3 0 12 0.30 0.41 0.17 o
-2 0 12 8.85 9.62 0.61 o
-1 0 12 102.13 100.81 1.99 o
0 0 12 3.43 4.53 0.48 o
1 0 12 134.45 133.97 2.01 o
2 0 12 11.27 9.40 0.54 o
3 0 12 23.13 23.82 0.94 o
4 0 12 0.51 0.55 0.13 o
-4 1 12 11.44 12.10 1.02 o
-3 1 12 4.42 4.17 0.43 o
-2 1 12 67.35 68.57 1.82 o
-1 1 12 15.20 16.15 0.98 o
0 1 12 18.99 19.08 0.78 o
1 1 12 0.77 0.84 0.19 o
2 1 12 1.01 1.16 0.19 o
3 1 12 11.36 11.28 0.57 o
4 1 12 0.12 0.26 0.17 o
-3 2 12 2.02 2.30 0.48 o
-2 2 12 0.61 0.64 0.17 o
-1 2 12 4.09 4.63 0.49 o
0 2 12 63.35 66.33 1.63 o
1 2 12 29.36 29.92 0.98 o
2 2 12 13.04 13.29 0.61 o
3 2 12 1.15 1.07 0.22 o
4 2 12 2.59 2.27 0.38 o
-3 3 12 25.70 36.32 1.92 o
-2 3 12 39.44 38.97 1.16 o
-1 3 12 29.55 30.07 0.93 o
0 3 12 34.03 34.73 1.28 o
1 3 12 3.29 3.46 0.31 o
2 3 12 19.78 18.86 0.68 o
3 3 12 9.75 10.80 0.77 o
-3 4 12 5.50 6.67 0.68 o
-2 4 12 1.03 0.51 0.25 o
-1 4 12 4.59 4.42 0.40 o
0 4 12 25.33 24.23 0.90 o
1 4 12 68.11 65.07 1.82 o
2 4 12 11.49 10.90 0.60 o
3 4 12 4.78 5.62 0.61 o
-2 5 12 17.99 16.47 0.79 o
-1 5 12 7.43 5.76 0.50 o
0 5 12 15.16 15.62 1.00 o
1 5 12 4.50 4.05 0.37 o
2 5 12 4.42 3.93 0.37 o
0 -5 13 2.05 1.69 0.34 o
-2 -4 13 24.71 23.88 0.94 o
-1 -4 13 7.27 7.33 0.45 o
0 -4 13 26.58 27.15 1.05 o
1 -4 13 25.73 28.02 1.00 o
2 -4 13 20.67 20.96 0.90 o
-3 -3 13 16.22 17.66 0.78 o
-2 -3 13 6.34 6.92 0.51 o
-1 -3 13 2.20 1.81 0.26 o
0 -3 13 34.71 35.65 1.30 o
1 -3 13 14.12 14.93 0.63 o
2 -3 13 7.69 8.88 0.48 o
-3 -2 13 4.24 4.08 0.39 o
-2 -2 13 8.55 8.72 0.49 o
-1 -2 13 18.37 17.15 0.70 o
0 -2 13 24.41 26.04 1.49 o
1 -2 13 19.96 19.09 0.71 o
2 -2 13 0.52 0.29 0.09 o
3 -2 13 2.29 1.96 0.24 o
-3 -1 13 5.04 4.15 0.69 o
-2 -1 13 5.12 7.11 0.53 o
-1 -1 13 13.19 13.21 0.65 o
0 -1 13 7.99 8.67 0.56 o
1 -1 13 2.13 2.18 0.24 o
2 -1 13 6.98 7.08 0.54 o
3 -1 13 11.33 11.94 0.66 o
-3 0 13 0.39 0.33 0.28 o
-2 0 13 1.62 2.06 0.33 o
-1 0 13 12.85 12.66 0.87 o
0 0 13 82.92 80.08 2.25 o
1 0 13 0.01 -0.06 0.13 o
2 0 13 1.42 0.98 0.17 o
3 0 13 28.40 28.02 1.40 o
-3 1 13 5.08 4.66 0.45 o
-2 1 13 5.15 7.41 0.61 o
-1 1 13 13.33 12.36 0.63 o
0 1 13 7.96 7.26 0.50 o
1 1 13 2.05 1.89 0.23 o
2 1 13 7.06 6.42 0.40 o
3 1 13 11.13 11.17 0.76 o
-3 2 13 4.11 4.40 0.40 o
-2 2 13 8.76 8.65 0.54 o
-1 2 13 18.40 18.43 0.87 o
0 2 13 24.75 25.76 1.05 o
1 2 13 20.06 18.86 0.70 o
2 2 13 0.47 0.41 0.15 o
3 2 13 2.27 2.11 0.25 o
-2 3 13 6.39 8.25 0.96 o
-1 3 13 2.18 2.25 0.21 o
0 3 13 34.98 37.67 1.07 o
1 3 13 14.21 14.23 0.62 o
2 3 13 7.55 8.47 0.56 o
-2 4 13 24.70 25.08 1.37 o
-1 4 13 7.04 6.46 0.46 o
0 4 13 26.68 24.69 1.04 o
1 4 13 26.16 27.36 0.96 o
2 4 13 20.54 19.27 0.85 o
0 5 13 2.06 1.25 0.30 o
0 -4 14 10.11 9.83 0.57 o
-1 -3 14 1.43 1.06 0.32 o
0 -3 14 21.21 21.36 1.06 o
1 -3 14 20.56 22.10 1.20 o
-2 -2 14 2.29 1.87 0.23 o
-1 -2 14 9.24 9.53 0.75 o
0 -2 14 9.47 9.72 0.63 o
1 -2 14 18.03 18.35 0.70 o
2 -2 14 14.42 14.96 1.16 o
-2 -1 14 2.20 1.49 0.26 o
-1 -1 14 35.51 39.43 3.46 o
0 -1 14 17.23 18.97 0.96 o
1 -1 14 22.48 24.01 0.89 o
2 -1 14 14.93 17.65 0.80 o
-3 0 14 0.15 0.78 0.24 o
-2 0 14 1.61 1.56 0.28 o
-1 0 14 1.39 1.32 0.26 o
0 0 14 1.60 1.67 0.22 o
1 0 14 0.01 0.09 0.12 o
2 0 14 0.43 0.40 0.19 o
-2 1 14 2.23 2.66 0.39 o
-1 1 14 35.29 38.98 1.68 o
0 1 14 17.21 17.00 1.01 o
1 1 14 22.21 23.78 1.31 o
2 1 14 14.97 17.23 1.91 o
-2 2 14 2.34 2.55 0.33 o
-1 2 14 9.29 10.47 0.78 o
0 2 14 9.32 8.54 0.77 o
1 2 14 18.03 16.93 0.78 o
2 2 14 14.52 14.38 0.81 o
-2 3 14 26.94 31.85 1.47 o
-1 3 14 1.48 1.95 0.30 o
0 3 14 21.00 19.23 1.00 o
1 3 14 20.66 19.65 1.75 o
0 4 14 10.12 10.22 0.87 o
-1 -2 15 6.54 6.78 0.70 o
0 -2 15 4.34 3.77 0.54 o
-1 -1 15 23.40 22.43 0.99 o
0 -1 15 0.29 0.11 0.27 o
1 -1 15 26.61 29.64 1.69 o
-1 0 15 2.37 2.44 0.34 o
0 0 15 21.89 22.02 1.54 o
1 0 15 1.67 1.76 0.29 o
-1 1 15 23.20 25.38 1.06 o
0 1 15 0.28 0.50 0.18 o
1 1 15 26.74 28.29 1.14 o
-1 2 15 6.64 6.06 0.66 o
0 2 15 4.38 3.98 0.45 o
1 2 15 12.30 13.31 1.01 o
