#------------------------------------------------------------------------------
#$Date: 2018-03-22 01:26:20 +0200 (Thu, 22 Mar 2018) $
#$Revision: 207040 $
#$URL: file:///home/coder/svn-repositories/cod/cif/4/12/72/4127218.cif $
#------------------------------------------------------------------------------
#
# This file is available in the Crystallography Open Database (COD),
# http://www.crystallography.net/
#
# All data on this site have been placed in the public domain by the
# contributors.
#
data_4127218
loop_
_publ_author_name
'Matinkhoo, Kaveh'
'Pryyma, Alla'
'Todorovic, Mihajlo'
'Patrick, Brian O.'
'Perrin, David M.'
_publ_section_title
;
 Synthesis of the Death-Cap Mushroom Toxin \a-Amanitin
;
_journal_name_full               'Journal of the American Chemical Society'
_journal_paper_doi               10.1021/jacs.7b12698
_journal_year                    2018
_chemical_formula_moiety         'Cl, C6 H12 N O3'
_chemical_formula_sum            'C6 H12 Cl N O3'
_chemical_formula_weight         181.62
_space_group_crystal_system      monoclinic
_space_group_IT_number           4
_space_group_name_Hall           'P 2yb'
_space_group_name_H-M_alt        'P 1 21 1'
_symmetry_space_group_name_Hall  'P 2yb'
_symmetry_space_group_name_H-M   'P 1 21 1'
_atom_sites_solution_hydrogens   geom
_audit_creation_date             2015-11-20
_audit_creation_method
;
Olex2 1.2
(compiled 2015.09.30 svn.r3233 for OlexSys, GUI svn.r5103)
;
_cell_angle_alpha                90
_cell_angle_beta                 111.60(3)
_cell_angle_gamma                90
_cell_formula_units_Z            2
_cell_length_a                   7.9511(16)
_cell_length_b                   6.7919(14)
_cell_length_c                   8.8449(18)
_cell_measurement_temperature    293(2)
_cell_volume                     444.11(18)
_computing_molecular_graphics    'Olex2 (Dolomanov et al., 2009)'
_computing_publication_material  'Olex2 (Dolomanov et al., 2009)'
_computing_structure_refinement  'ShelXL (Sheldrick, 2015)'
_computing_structure_solution    'ShelXT (Sheldrick, 2015)'
_diffrn_ambient_temperature      293(2)
_diffrn_measured_fraction_theta_full 1.000
_diffrn_measured_fraction_theta_max 1.000
_diffrn_radiation_type           MoK\a
_diffrn_radiation_wavelength     0.71073
_diffrn_reflns_av_unetI/netI     0.0210
_diffrn_reflns_Laue_measured_fraction_full 1.000
_diffrn_reflns_Laue_measured_fraction_max 1.000
_diffrn_reflns_number            2129
_diffrn_reflns_point_group_measured_fraction_full 1.000
_diffrn_reflns_point_group_measured_fraction_max 1.000
_diffrn_reflns_theta_full        25.242
_diffrn_reflns_theta_max         27.851
_diffrn_reflns_theta_min         2.477
_exptl_absorpt_coefficient_mu    0.393
_exptl_crystal_density_diffrn    1.358
_exptl_crystal_F_000             192
_refine_diff_density_max         0.450
_refine_diff_density_min         -0.555
_refine_diff_density_rms         0.035
_refine_ls_abs_structure_details
;
 Flack x determined using 972 quotients [(I+)-(I-)]/[(I+)+(I-)]
 (Parsons, Flack and Wagner, Acta Cryst. B69 (2013) 249-259).
;
_refine_ls_abs_structure_Flack   0.0006(9)
_refine_ls_extinction_method     none
_refine_ls_goodness_of_fit_ref   0.507
_refine_ls_hydrogen_treatment    constr
_refine_ls_matrix_type           full
_refine_ls_number_parameters     103
_refine_ls_number_reflns         2129
_refine_ls_number_restraints     1
_refine_ls_restrained_S_all      0.507
_refine_ls_R_factor_all          0.0157
_refine_ls_R_factor_gt           0.0157
_refine_ls_shift/su_max          0.061
_refine_ls_shift/su_mean         0.003
_refine_ls_structure_factor_coef Fsqd
_refine_ls_weighting_details
'w=1/[\s^2^(Fo^2^)+(0.1000P)^2^] where P=(Fo^2^+2Fc^2^)/3'
_refine_ls_weighting_scheme      calc
_refine_ls_wR_factor_gt          0.0516
_refine_ls_wR_factor_ref         0.0517
_reflns_Friedel_coverage         0.845
_reflns_Friedel_fraction_full    1.000
_reflns_Friedel_fraction_max     1.000
_reflns_number_gt                2115
_reflns_number_total             2129
_reflns_threshold_expression     'I > 2\s(I)'
_cod_data_source_file            ja7b12698_si_001.cif
_cod_data_source_block           dp041
_cod_database_code               4127218
_shelx_space_group_comment
;
The symmetry employed for this shelxl refinement is uniquely defined
by the following loop, which should always be used as a source of
symmetry information in preference to the above space-group names.
They are only intended as comments.
;
_olex2_refinement_description
;
1. Fixed Uiso
 At 1.2 times of:
  All C(H) groups, All C(H,H) groups, All N(H,H,H) groups
 At 1.5 times of:
  All C(H,H,H) groups, All O(H) groups
2.a Ternary CH refined with riding coordinates:
 C007(H007), C009(H009), C00A(H00F)
2.b Secondary CH2 refined with riding coordinates:
 C008(H00D,H00E)
2.c Idealised Me refined as rotating group:
 N005(H00A,H00B,H00C), C00B(H00G,H00H,H00I)
2.d Idealised tetrahedral OH refined as rotating group:
 O004(H004)
;
_shelx_res_file
;
    dp041.res created by SHELXL-2014/7

TITL dp041_a.res in P2(1)
REM Old TITL dp041 in P21 #4
REM SHELXT solution in P2(1)
REM R1 0.101, Rweak 0.035, Alpha 0.003, Orientation as input
REM Flack x = 0.006 ( 0.004 ) from Parsons' quotients
REM Formula found by SHELXT: C6 N O3 Cl
CELL 0.71073 7.9511 6.7919 8.8449 90 111.6 90
ZERR 2 0.0016 0.0014 0.0018 0 0.03 0
LATT -1
SYMM -X,0.5+Y,-Z
SFAC C H N O Cl
UNIT 12 24 2 6 2

L.S. 8
PLAN  20
BOND $H
LIST 6
fmap 2
ACTA
REM <olex2.extras>
REM <HklSrc "%.\\dp041.hkl">
REM </olex2.extras>

WGHT    0.100000
FVAR       1.60124
CL01  5    0.191306    0.672240    0.710097    11.00000    0.02336    0.01168 =
         0.02888    0.00113    0.00437   -0.00101
O002  4    0.686768    0.520301    0.880235    11.00000    0.02806    0.00746 =
         0.02862   -0.00393    0.00645   -0.00473
O003  4    0.679237    0.776548    0.718038    11.00000    0.03525    0.00678 =
         0.04314   -0.00209    0.01531   -0.00040
O004  4    0.374789    0.282704    0.696960    11.00000    0.02140    0.01483 =
         0.03310   -0.00841    0.00310   -0.00282
AFIX 147
H004  2    0.324716    0.184267    0.646779    11.00000   -1.50000
AFIX   0
N005  3    0.799642    0.503964    0.529180    11.00000    0.01749    0.00746 =
         0.02722    0.00164    0.00355   -0.00005
AFIX 137
H00A  2    0.806729    0.406083    0.464888    11.00000   -1.20000
H00B  2    0.910249    0.535700    0.597160    11.00000   -1.20000
H00C  2    0.748359    0.608168    0.468792    11.00000   -1.20000
AFIX   0
C006  1    0.684660    0.600758    0.741544    11.00000    0.01732    0.00913 =
         0.03037    0.00067    0.00432   -0.00026
C007  1    0.691737    0.303537    0.872211    11.00000    0.02608    0.00519 =
         0.02765    0.00377    0.00593    0.00113
AFIX  13
H007  2    0.780416    0.252567    0.974018    11.00000   -1.20000
AFIX   0
C008  1    0.506371    0.225721    0.850580    11.00000    0.02830    0.01330 =
         0.03251    0.00054    0.00990   -0.00334
AFIX  23
H00D  2    0.510829    0.083212    0.858206    11.00000   -1.20000
H00E  2    0.470854    0.275801    0.937147    11.00000   -1.20000
AFIX   0
C009  1    0.755297    0.256513    0.731007    11.00000    0.02052    0.00632 =
         0.02639    0.00364    0.00376    0.00145
AFIX  13
H009  2    0.692479    0.139364    0.672442    11.00000   -1.20000
AFIX   0
C00A  1    0.688975    0.440545    0.623662    11.00000    0.01630    0.00431 =
         0.02399    0.00179    0.00191   -0.00044
AFIX  13
H00F  2    0.565057    0.416719    0.547810    11.00000   -1.20000
AFIX   0
C00B  1    0.960399    0.224371    0.792599    11.00000    0.02187    0.02258 =
         0.04570    0.01670    0.01032    0.00985
AFIX 137
H00G  2    1.021113    0.341406    0.846285    11.00000   -1.50000
H00H  2    0.995847    0.195339    0.702322    11.00000   -1.50000
H00I  2    0.992684    0.116239    0.867762    11.00000   -1.50000
AFIX   0
HKLF 4

REM  dp041_a.res in P2(1)
REM R1 =  0.0157 for    2115 Fo > 4sig(Fo)  and  0.0157 for all    2129 data
REM    103 parameters refined using      1 restraints

END

WGHT      0.0314      0.0036

REM Highest difference peak  0.450,  deepest hole -0.555,  1-sigma level  0.035
Q1    1   0.3265  0.3865  0.7118  11.00000  0.05    0.45
Q2    1   0.6808  0.4589  0.2873  11.00000  0.05    0.15
Q3    1   0.8014  0.6589  0.4344  11.00000  0.05    0.12
Q4    1   1.1231  0.5636  0.8818  11.00000  0.05    0.09
Q5    1   0.2952  0.3408  0.9375  11.00000  0.05    0.09
Q6    1   0.1501  0.5706  0.7258  11.00000  0.05    0.09
Q7    1   0.7910  0.7836  0.7012  11.00000  0.05    0.08
Q8    1   0.9203  0.1081  0.7765  11.00000  0.05    0.08
Q9    1   0.5194  0.5475  0.6951  11.00000  0.05    0.07
Q10   1   0.6780  0.7633  0.5541  11.00000  0.05    0.07
Q11   1   1.0588 -0.0421  0.7087  11.00000  0.05    0.06
Q12   1   0.6226  0.5082  0.8132  11.00000  0.05    0.06
Q13   1   1.0346  0.3545  0.7839  11.00000  0.05    0.06
Q14   1   0.3024 -0.0452  0.8678  11.00000  0.05    0.06
Q15   1   0.8299  0.0790  0.7161  11.00000  0.05    0.06
Q16   1   0.8246  0.5846  0.8738  11.00000  0.05    0.06
Q17   1   0.7157  0.2386  0.7937  11.00000  0.05    0.05
Q18   1   0.5662  0.5552  0.8649  11.00000  0.05    0.05
Q19   1   0.4657  0.3230  1.1307  11.00000  0.05    0.05
Q20   1   0.6325  0.3168  0.6484  11.00000  0.05    0.05
;
_shelx_res_checksum              87764
_shelx_hkl_file
;
   1   0   0  895.18   18.21
   2   0   0 7789.15  156.11
   3   0   0  697.19   14.26
   4   0   0  245.99    5.23
   5   0   0   11.31    0.54
   6   0   0 1184.30   24.01
   7   0   0  216.52    4.66
   8   0   0  572.25   11.77
   9   0   0    0.00    0.31
   0   1   0    0.00    0.31
   0  -1   0    0.00    0.31
   1   1   0 3265.85   65.64
  -1  -1   0 3169.29   63.70
   2   1   0 4583.56   92.00
  -2  -1   0 4578.67   91.90
   3   1   0 1070.77   21.73
  -3  -1   0 1048.65   21.29
   4   1   0 1516.72   30.66
  -4  -1   0 1532.74   30.97
   5   1   0  334.49    7.01
  -5  -1   0  336.80    7.06
   6   1   0  334.65    7.01
  -6  -1   0  342.41    7.17
   7   1   0  238.85    5.10
  -7  -1   0  225.83    4.84
   8   1   0    3.62    0.39
  -8  -1   0    3.52    0.39
   9   1   0   91.17    2.15
  -9  -1   0   82.79    1.97
   0   2   0 5031.76  100.95
   0  -2   0 4966.15   99.63
   1   2   0  551.22   11.33
  -1  -2   0  563.72   11.59
   2   2   0  181.83    3.96
  -2  -2   0  199.26    4.29
   3   2   0  917.79   18.68
  -3  -2   0  941.67   19.14
   4   2   0  124.57    2.82
  -4  -2   0  124.08    2.79
   5   2   0  392.94    8.18
  -5  -2   0  391.18    8.15
   6   2   0  113.34    2.59
  -6  -2   0  115.46    2.61
   7   2   0  170.67    3.73
  -7  -2   0  168.29    3.67
   8   2   0  157.82    3.47
  -8  -2   0  169.90    3.73
   9   2   0   51.59    1.35
  -9  -2   0   50.89    1.35
   0   3   0    0.00    0.31
   0  -3   0    0.00    0.31
   1   3   0 4398.97   88.30
  -1  -3   0 4397.26   88.27
   2   3   0  556.08   11.44
  -2  -3   0  534.02   11.00
   3   3   0  294.75    6.21
  -3  -3   0  285.70    6.03
   4   3   0  345.39    7.22
  -4  -3   0  349.63    7.30
   5   3   0  274.32    5.80
  -5  -3   0  280.50    5.92
   6   3   0  424.50    8.80
  -6  -3   0  425.56    8.82
   7   3   0  386.99    8.05
  -7  -3   0  385.12    8.02
   8   3   0   23.28    0.78
  -8  -3   0   23.44    0.78
   9   3   0  144.70    3.21
  -9  -3   0  147.18    3.26
   0   4   0 1781.02   35.94
   0  -4   0 1711.46   34.54
   1   4   0  673.28   13.79
  -1  -4   0  675.61   13.82
   2   4   0   44.65    1.22
  -2  -4   0   37.07    1.06
   3   4   0 1633.07   32.99
  -3  -4   0 1630.50   32.93
   4   4   0  168.66    3.70
  -4  -4   0  166.54    3.65
   5   4   0  407.37    8.46
  -5  -4   0  404.81    8.41
   6   4   0   30.55    0.93
  -6  -4   0   28.54    0.88
   7   4   0   70.11    1.71
  -7  -4   0   65.87    1.63
   8   4   0  109.59    2.51
  -8  -4   0  111.22    2.54
   0   5   0    0.00    0.31
   0  -5   0    0.00    0.31
   1   5   0  581.36   11.95
  -1  -5   0  584.13   12.00
   2   5   0    3.26    0.39
  -2  -5   0    5.38    0.41
   3   5   0   58.31    1.47
  -3  -5   0   63.44    1.58
   4   5   0  171.94    3.75
  -4  -5   0  178.46    3.88
   5   5   0  238.17    5.07
  -5  -5   0  240.42    5.12
   6   5   0  171.68    3.75
  -6  -5   0  170.18    3.73
   7   5   0  132.31    2.95
  -7  -5   0  132.23    2.95
   8   5   0   11.98    0.54
  -8  -5   0   12.37    0.57
   0   6   0  156.89    3.44
   0  -6   0  173.83    3.80
   1   6   0  331.26    6.93
  -1  -6   0  326.78    6.86
   2   6   0  451.17    9.34
  -2  -6   0  469.96    9.73
   3   6   0  960.71   19.53
  -3  -6   0  941.78   19.14
   4   6   0   71.66    1.76
  -4  -6   0   70.27    1.73
   5   6   0  446.23    9.24
  -5  -6   0  442.61    9.16
   6   6   0   50.92    1.35
  -6  -6   0   53.01    1.37
   7   6   0   51.67    1.35
  -7  -6   0   49.91    1.32
   0   7   0    0.00    0.31
   0  -7   0    0.00    0.31
   1   7   0  344.76    7.22
  -1  -7   0  334.62    7.01
   2   7   0   37.57    1.06
  -2  -7   0   40.80    1.14
   3   7   0   78.03    1.89
  -3  -7   0   81.18    1.94
   4   7   0   59.56    1.50
  -4  -7   0   58.68    1.50
   5   7   0  110.29    2.51
  -5  -7   0  109.98    2.51
   6   7   0   55.47    1.42
  -6  -7   0   49.10    1.29
   0   8   0  369.08    7.71
   0  -8   0  382.80    7.97
   1   8   0    4.97    0.41
  -1  -8   0    4.06    0.39
   2   8   0  394.54    8.20
  -2  -8   0  404.24    8.41
   3   8   0    7.92    0.47
  -3  -8   0    6.11    0.44
   4   8   0   62.20    1.55
  -4  -8   0   62.25    1.55
 -10   0   1  147.75    3.26
  -9   0   1    2.54    0.36
  -8   0   1   48.59    1.29
  -7   0   1  215.54    4.63
  -6   0   1  962.27   19.56
  -5   0   1  123.20    2.77
  -4   0   1 6779.02  135.90
  -3   0   1    0.83    0.34
  -2   0   1  263.45    5.59
  -1   0   1  496.66   10.25
   0   0   1  399.07    8.30
   1   0   1 2409.50   48.51
   2   0   1 5566.48  111.64
   3   0   1  902.87   18.37
   4   0   1 3079.08   61.88
   5   0   1 1003.01   20.39
   6   0   1  858.37   17.49
   7   0   1    0.23    0.31
   8   0   1    7.04    0.47
   9   0   1   20.90    0.72
  -9   1   1   67.06    1.66
   9  -1  -1   66.77    1.66
  -8   1   1  708.31   14.49
   8  -1  -1  713.07   14.57
  -7   1   1    6.18    0.44
   7  -1  -1    6.13    0.44
  -6   1   1  543.56   11.18
   6  -1  -1  549.10   11.31
  -5   1   1   95.60    2.22
   5  -1  -1   94.51    2.20
  -4   1   1  304.46    6.42
   4  -1  -1  294.57    6.21
  -3   1   1  541.57   11.15
   3  -1  -1  517.66   10.66
  -2   1   1 4907.45   98.47
   2  -1  -1 4901.76   98.36
  -1   1   1  521.49   10.74
   1  -1  -1  519.86   10.71
   0   1   1 4463.85   89.59
   0  -1  -1 4589.85   92.10
   1   1   1  369.55    7.71
  -1  -1  -1  348.57    7.30
   2   1   1 3821.96   76.76
  -2  -1  -1 3856.03   77.43
   3   1   1  965.01   19.61
  -3  -1  -1  926.20   18.83
   4   1   1  418.68    8.69
  -4  -1  -1  415.45    8.62
   5   1   1  122.97    2.77
  -5  -1  -1  112.23    2.56
   6   1   1  300.63    6.34
  -6  -1  -1  300.24    6.31
   7   1   1    1.76    0.36
  -7  -1  -1    2.20    0.36
   8   1   1  535.23   11.02
  -8  -1  -1  535.39   11.02
   9   1   1   16.22    0.65
  -9  -1  -1   15.42    0.62
  -9   2   1  219.00    4.71
   9  -2  -1  215.72    4.63
  -8   2   1   17.64    0.67
   8  -2  -1   18.76    0.70
  -7   2   1  138.31    3.08
   7  -2  -1  136.96    3.05
  -6   2   1  130.06    2.92
   6  -2  -1  127.62    2.87
  -5   2   1  377.29    7.86
   5  -2  -1  376.97    7.86
  -4   2   1 1539.90   31.12
   4  -2  -1 1519.31   30.71
  -3   2   1 1197.00   24.27
   3  -2  -1 1233.89   24.99
  -2   2   1  325.75    6.83
   2  -2  -1  338.14    7.09
  -1   2   1 1403.61   28.38
   1  -2  -1 1418.93   28.69
   0   2   1  274.01    5.80
   0  -2  -1  279.54    5.90
   1   2   1  656.03   13.43
  -1  -2  -1  639.83   13.12
   2   2   1  888.58   18.08
  -2  -2  -1  911.61   18.55
   3   2   1  241.38    5.15
  -3  -2  -1  240.01    5.12
   4   2   1  617.17   12.65
  -4  -2  -1  627.57   12.86
   5   2   1  335.06    7.01
  -5  -2  -1  328.78    6.88
   6   2   1  164.52    3.60
  -6  -2  -1  161.28    3.54
   7   2   1  101.55    2.35
  -7  -2  -1  105.35    2.43
   8   2   1   16.89    0.65
  -8  -2  -1   17.10    0.65
   9   2   1  166.72    3.65
  -9  -2  -1  164.13    3.60
  -9   3   1   15.65    0.62
   9  -3  -1   15.65    0.62
  -8   3   1   74.61    1.81
   8  -3  -1   68.59    1.68
  -7   3   1  258.07    5.48
   7  -3  -1  268.16    5.69
  -6   3   1   15.45    0.62
   6  -3  -1   14.80    0.62
  -5   3   1  977.38   19.87
   5  -3  -1  989.92   20.10
  -4   3   1   86.02    2.04
   4  -3  -1   84.08    1.99
  -3   3   1  400.65    8.33
   3  -3  -1  397.18    8.25
  -2   3   1 1432.04   28.95
   2  -3  -1 1404.46   28.41
  -1   3   1  693.41   14.18
   1  -3  -1  687.43   14.07
   0   3   1 1174.54   23.80
   0  -3  -1 1228.43   24.89
   1   3   1  922.81   18.78
  -1  -3  -1  938.05   19.07
   2   3   1  183.30    3.98
  -2  -3  -1  191.04    4.14
   3   3   1 1018.10   20.67
  -3  -3  -1 1016.03   20.65
   4   3   1  492.62   10.17
  -4  -3  -1  488.66   10.09
   5   3   1  467.65    9.68
  -5  -3  -1  467.50    9.68
   6   3   1  218.72    4.68
  -6  -3  -1  215.07    4.61
   7   3   1    8.49    0.49
  -7  -3  -1    8.30    0.49
   8   3   1  137.66    3.08
  -8  -3  -1  131.53    2.95
  -8   4   1  164.67    3.62
   8  -4  -1  162.78    3.57
  -7   4   1  488.27   10.09
   7  -4  -1  491.43   10.14
  -6   4   1  128.74    2.90
   6  -4  -1  132.51    2.98
  -5   4   1  147.26    3.26
   5  -4  -1  147.13    3.26
  -4   4   1  125.48    2.82
   4  -4  -1  115.13    2.61
  -3   4   1  414.44    8.62
   3  -4  -1  417.57    8.67
  -2   4   1  157.07    3.47
   2  -4  -1  167.13    3.65
  -1   4   1 1426.48   28.85
   1  -4  -1 1436.91   29.05
   0   4   1  249.69    5.30
   0  -4  -1  248.81    5.30
   1   4   1 1995.53   40.23
  -1  -4  -1 2019.72   40.72
   2   4   1  663.37   13.58
  -2  -4  -1  657.16   13.45
   3   4   1  962.27   19.56
  -3  -4  -1  963.97   19.58
   4   4   1  184.72    4.01
  -4  -4  -1  181.54    3.96
   5   4   1  256.15    5.43
  -5  -4  -1  245.31    5.23
   6   4   1    4.48    0.41
  -6  -4  -1    4.89    0.41
   7   4   1  141.10    3.13
  -7  -4  -1  141.75    3.16
   8   4   1   20.57    0.72
  -8  -4  -1   20.52    0.72
  -8   5   1   22.07    0.75
   8  -5  -1   19.92    0.72
  -7   5   1  116.34    2.64
   7  -5  -1  115.57    2.64
  -6   5   1   69.05    1.71
   6  -5  -1   65.35    1.63
  -5   5   1  811.67   16.56
   5  -5  -1  799.66   16.30
  -4   5   1  546.59   11.25
   4  -5  -1  557.25   11.46
  -3   5   1  559.34   11.51
   3  -5  -1  564.54   11.62
  -2   5   1  276.18    5.85
   2  -5  -1  286.99    6.05
  -1   5   1   93.63    2.20
   1  -5  -1   95.44    2.22
   0   5   1  936.99   19.07
   0  -5  -1  949.85   19.30
   1   5   1  190.80    4.14
  -1  -5  -1  183.74    3.98
   2   5   1  771.46   15.76
  -2  -5  -1  753.54   15.39
   3   5   1  414.20    8.59
  -3  -5  -1  412.19    8.56
   4   5   1   36.06    1.03
  -4  -5  -1   37.33    1.06
   5   5   1  385.07    8.02
  -5  -5  -1  386.13    8.05
   6   5   1  108.17    2.48
  -6  -5  -1  117.09    2.66
   7   5   1   63.85    1.60
  -7  -5  -1   65.17    1.63
  -7   6   1   93.94    2.20
   7  -6  -1   88.84    2.10
  -6   6   1  215.46    4.63
   6  -6  -1  228.94    4.89
  -5   6   1  151.04    3.34
   5  -6  -1  150.86    3.34
  -4   6   1   67.89    1.68
   4  -6  -1   75.96    1.84
  -3   6   1 1217.83   24.68
   3  -6  -1 1206.75   24.45
  -2   6   1  149.54    3.31
   2  -6  -1  153.63    3.39
  -1   6   1 1331.14   26.93
   1  -6  -1 1315.34   26.62
   0   6   1   71.04    1.73
   0  -6  -1   74.10    1.79
   1   6   1  393.53    8.18
  -1  -6  -1  391.70    8.15
   2   6   1  104.42    2.41
  -2  -6  -1  108.58    2.48
   3   6   1   58.70    1.50
  -3  -6  -1   56.68    1.45
   4   6   1  191.29    4.14
  -4  -6  -1  199.57    4.32
   5   6   1  201.49    4.35
  -5  -6  -1  198.05    4.27
   6   6   1   66.62    1.66
  -6  -6  -1   70.66    1.73
  -6   7   1   99.40    2.30
   6  -7  -1  103.77    2.38
  -5   7   1  428.46    8.87
   5  -7  -1  421.45    8.74
  -4   7   1   47.47    1.27
   4  -7  -1   47.01    1.27
  -3   7   1  419.95    8.72
   3  -7  -1  423.05    8.77
  -2   7   1   89.62    2.10
   2  -7  -1   81.73    1.94
  -1   7   1   45.09    1.22
   1  -7  -1   45.92    1.24
   0   7   1  374.15    7.79
   0  -7  -1  376.10    7.84
   1   7   1  199.42    4.29
  -1  -7  -1  198.64    4.29
   2   7   1   75.57    1.84
  -2  -7  -1   73.19    1.79
   3   7   1  478.91    9.88
  -3  -7  -1  479.79    9.91
   4   7   1  167.03    3.65
  -4  -7  -1  164.96    3.62
   5   7   1  228.76    4.89
  -5  -7  -1  226.71    4.84
  -4   8   1  229.20    4.89
   4  -8  -1  226.84    4.86
  -3   8   1   39.82    1.11
   3  -8  -1   39.53    1.11
  -2   8   1  198.28    4.27
   2  -8  -1  198.20    4.27
  -1   8   1  201.57    4.35
   1  -8  -1  198.18    4.27
   0   8   1   18.11    0.67
   0  -8  -1   18.65    0.70
   1   8   1  264.46    5.61
  -1  -8  -1  258.95    5.48
   2   8   1   75.80    1.84
  -2  -8  -1   74.10    1.79
   3   8   1  174.74    3.80
  -3  -8  -1  171.30    3.75
 -10   0   2   49.29    1.29
  -9   0   2    0.08    0.31
  -8   0   2  102.12    2.35
  -7   0   2  293.02    6.18
  -6   0   2   60.88    1.53
  -5   0   2  156.89    3.44
  -4   0   2    3.78    0.39
  -3   0   2  640.45   13.12
  -2   0   2  580.20   11.93
  -1   0   2 1599.07   32.29
   0   0   2 9999.00  200.30
   1   0   2  632.30   12.96
   2   0   2  924.60   18.81
   3   0   2  264.12    5.59
   4   0   2    9.31    0.49
   5   0   2    3.73    0.39
   6   0   2  396.35    8.25
   7   0   2    0.26    0.31
   8   0   2   35.63    1.03
 -10   1   2    7.68    0.47
  10  -1  -2    7.76    0.47
  -9   1   2   64.96    1.60
   9  -1  -2   68.30    1.68
  -8   1   2   92.80    2.17
   8  -1  -2   93.22    2.17
  -7   1   2   11.59    0.54
   7  -1  -2   11.31    0.54
  -6   1   2 1139.62   23.10
   6  -1  -2 1140.78   23.13
  -5   1   2  343.47    7.19
   5  -1  -2  343.99    7.19
  -4   1   2  713.64   14.59
   4  -1  -2  731.88   14.95
  -3   1   2 2201.57   44.34
   3  -1  -2 2212.51   44.58
  -2   1   2 4561.60   91.56
   2  -1  -2 4559.14   91.51
  -1   1   2 1885.78   38.03
   1  -1  -2 1936.20   39.04
   0   1   2 1687.24   34.07
   0  -1  -2 1681.50   33.94
   1   1   2  657.50   13.45
  -1  -1  -2  679.54   13.92
   2   1   2 2361.58   47.55
  -2  -1  -2 2349.53   47.32
   3   1   2   75.96    1.84
  -3  -1  -2   76.40    1.84
   4   1   2 1870.07   37.72
  -4  -1  -2 1870.26   37.72
   5   1   2  315.68    6.62
  -5  -1  -2  332.35    6.96
   6   1   2  129.75    2.92
  -6  -1  -2  134.58    3.00
   7   1   2  184.57    4.01
  -7  -1  -2  188.89    4.09
   8   1   2   68.07    1.68
  -8  -1  -2   67.06    1.66
  -9   2   2   20.36    0.72
   9  -2  -2   20.67    0.72
  -8   2   2  188.22    4.09
   8  -2  -2  190.03    4.11
  -7   2   2  479.97    9.91
   7  -2  -2  472.16    9.75
  -6   2   2   60.80    1.53
   6  -2  -2   61.99    1.55
  -5   2   2  498.73   10.30
   5  -2  -2  484.52   10.01
  -4   2   2  476.50    9.86
   4  -2  -2  471.33    9.75
  -3   2   2  225.26    4.81
   3  -2  -2  226.43    4.84
  -2   2   2 2030.37   40.93
   2  -2  -2 2002.54   40.36
  -1   2   2  138.54    3.08
   1  -2  -2  136.68    3.05
   0   2   2 7736.38  155.05
   0  -2  -2 7660.29  153.52
   1   2   2  990.65   20.13
  -1  -2  -2  987.96   20.08
   2   2   2  379.20    7.89
  -2  -2  -2  372.52    7.76
   3   2   2  486.10   10.04
  -3  -2  -2  507.88   10.48
   4   2   2   22.92    0.78
  -4  -2  -2   21.27    0.75
   5   2   2  294.42    6.21
  -5  -2  -2  287.07    6.05
   6   2   2  367.51    7.66
  -6  -2  -2  362.69    7.58
   7   2   2   44.76    1.22
  -7  -2  -2   44.19    1.19
   8   2   2  180.97    3.93
  -8  -2  -2  184.98    4.01
  -9   3   2   62.53    1.58
   9  -3  -2   64.45    1.60
  -8   3   2   44.34    1.19
   8  -3  -2   39.95    1.11
  -7   3   2   42.20    1.16
   7  -3  -2   39.40    1.11
  -6   3   2  455.86    9.44
   6  -3  -2  442.71    9.16
  -5   3   2   20.62    0.72
   5  -3  -2   21.91    0.75
  -4   3   2  161.80    3.54
   4  -3  -2  172.95    3.78
  -3   3   2   79.19    1.89
   3  -3  -2   81.42    1.94
  -2   3   2   90.89    2.12
   2  -3  -2   87.70    2.07
  -1   3   2  482.19    9.96
   1  -3  -2  496.86   10.25
   0   3   2  961.83   19.56
   0  -3  -2  940.54   19.12
   1   3   2  745.36   15.21
  -1  -3  -2  733.05   14.98
   2   3   2  363.75    7.58
  -2  -3  -2  339.20    7.09
   3   3   2  265.93    5.64
  -3  -3  -2  266.37    5.64
   4   3   2  133.63    3.00
  -4  -3  -2  125.27    2.82
   5   3   2  692.40   14.15
  -5  -3  -2  715.53   14.62
   6   3   2  141.03    3.13
  -6  -3  -2  146.48    3.23
   7   3   2  184.72    4.01
  -7  -3  -2  184.33    4.01
   8   3   2   70.45    1.73
  -8  -3  -2   68.12    1.68
  -9   4   2   40.51    1.14
   9  -4  -2   42.35    1.16
  -8   4   2  133.19    2.98
   8  -4  -2  137.97    3.08
  -7   4   2   57.87    1.47
   7  -4  -2   55.57    1.42
  -6   4   2   43.31    1.19
   6  -4  -2   43.77    1.19
  -5   4   2  190.41    4.11
   5  -4  -2  192.04    4.17
  -4   4   2 1092.04   22.15
   4  -4  -2 1091.37   22.15
  -3   4   2  927.21   18.86
   3  -4  -2  927.52   18.86
  -2   4   2 1450.85   29.34
   2  -4  -2 1470.02   29.73
  -1   4   2  766.91   15.65
   1  -4  -2  766.42   15.65
   0   4   2  100.98    2.33
   0  -4  -2   93.09    2.17
   1   4   2  191.40    4.14
  -1  -4  -2  192.41    4.17
   2   4   2  327.51    6.86
  -2  -4  -2  329.40    6.91
   3   4   2 1064.62   21.60
  -3  -4  -2 1079.83   21.91
   4   4   2  283.27    5.98
  -4  -4  -2  287.12    6.05
   5   4   2  421.55    8.74
  -5  -4  -2  420.28    8.72
   6   4   2  307.30    6.47
  -6  -4  -2  311.91    6.55
   7   4   2   30.35    0.93
  -7  -4  -2   30.27    0.93
  -8   5   2  113.24    2.59
   8  -5  -2  118.39    2.69
  -7   5   2  114.35    2.61
   7  -5  -2  116.32    2.64
  -6   5   2  196.31    4.24
   6  -5  -2  195.05    4.22
  -5   5   2  167.80    3.67
   5  -5  -2  163.90    3.60
  -4   5   2  202.55    4.37
   4  -5  -2  210.44    4.53
  -3   5   2  732.84   14.98
   3  -5  -2  704.87   14.41
  -2   5   2  387.48    8.07
   2  -5  -2  381.04    7.94
  -1   5   2 1663.77   33.58
   1  -5  -2 1633.92   32.99
   0   5   2  210.65    4.53
   0  -5  -2  217.66    4.66
   1   5   2  884.16   18.01
  -1  -5  -2  873.27   17.77
   2   5   2  379.64    7.92
  -2  -5  -2  403.88    8.38
   3   5   2  240.11    5.12
  -3  -5  -2  239.31    5.10
   4   5   2   56.81    1.45
  -4  -5  -2   57.95    1.47
   5   5   2  661.15   13.53
  -5  -5  -2  654.60   13.40
   6   5   2  140.48    3.13
  -6  -5  -2  136.86    3.05
   7   5   2  502.81   10.37
  -7  -5  -2  490.68   10.14
  -7   6   2  172.67    3.78
   7  -6  -2  167.39    3.67
  -6   6   2   58.70    1.50
   6  -6  -2   59.06    1.50
  -5   6   2  298.20    6.29
   5  -6  -2  297.47    6.26
  -4   6   2   36.22    1.03
   4  -6  -2   34.67    1.01
  -3   6   2  156.29    3.44
   3  -6  -2  150.99    3.34
  -2   6   2   78.03    1.89
   2  -6  -2   90.19    2.12
  -1   6   2  115.78    2.64
   1  -6  -2  116.71    2.64
   0   6   2   66.93    1.66
   0  -6  -2   75.36    1.81
   1   6   2  877.64   17.88
  -1  -6  -2  867.34   17.67
   2   6   2   62.92    1.58
  -2  -6  -2   66.65    1.66
   3   6   2  879.63   17.90
  -3  -6  -2  869.80   17.72
   4   6   2   81.70    1.94
  -4  -6  -2   86.02    2.04
   5   6   2   55.37    1.42
  -5  -6  -2   53.11    1.37
   6   6   2   15.37    0.62
  -6  -6  -2   19.35    0.70
  -6   7   2   11.15    0.54
   6  -7  -2   10.58    0.52
  -5   7   2   64.32    1.60
   5  -7  -2   66.46    1.66
  -4   7   2  209.15    4.50
   4  -7  -2  219.31    4.71
  -3   7   2  426.29    8.85
   3  -7  -2  437.18    9.06
  -2   7   2   30.32    0.93
   2  -7  -2   32.34    0.96
  -1   7   2  606.53   12.44
   1  -7  -2  611.68   12.55
   0   7   2   44.14    1.19
   0  -7  -2   39.82    1.11
   1   7   2  127.06    2.85
  -1  -7  -2  122.11    2.77
   2   7   2  320.81    6.73
  -2  -7  -2  334.21    7.01
   3   7   2   52.52    1.37
  -3  -7  -2   52.11    1.35
   4   7   2  149.56    3.31
  -4  -7  -2  157.45    3.47
   5   7   2  340.94    7.14
  -5  -7  -2  341.09    7.14
  -4   8   2   54.54    1.40
   4  -8  -2   50.06    1.32
  -3   8   2  103.54    2.38
   3  -8  -2   99.86    2.30
  -2   8   2  186.12    4.04
   2  -8  -2  183.35    3.98
  -1   8   2  122.45    2.77
   1  -8  -2  123.64    2.79
   0   8   2  156.76    3.44
   0  -8  -2  159.60    3.52
   1   8   2  189.33    4.11
  -1  -8  -2  188.89    4.09
   2   8   2  167.67    3.67
  -2  -8  -2  171.45    3.75
   3   8   2  275.45    5.82
  -3  -8  -2  270.93    5.74
 -10   0   3   32.78    0.98
  -9   0   3  189.07    4.09
  -8   0   3   40.90    1.14
  -7   0   3   52.91    1.37
  -6   0   3  142.63    3.16
  -5   0   3    6.49    0.44
  -4   0   3 2203.48   44.40
  -3   0   3    1.73    0.36
  -2   0   3  748.80   15.29
  -1   0   3  883.70   17.98
   0   0   3  147.52    3.26
   1   0   3 1032.79   20.98
   2   0   3  937.51   19.07
   3   0   3   27.58    0.88
   4   0   3   22.46    0.78
   5   0   3  658.15   13.48
   6   0   3   41.06    1.14
   7   0   3  161.83    3.54
   8   0   3    0.44    0.34
 -10   1   3  178.41    3.88
  10  -1  -3  174.53    3.80
  -9   1   3  139.19    3.10
   9  -1  -3  138.67    3.08
  -8   1   3  304.28    6.39
   8  -1  -3  296.72    6.26
  -7   1   3  130.16    2.92
   7  -1  -3  139.89    3.10
  -6   1   3  370.87    7.74
   6  -1  -3  373.56    7.79
  -5   1   3  410.50    8.54
   5  -1  -3  437.49    9.06
  -4   1   3 1016.91   20.65
   4  -1  -3 1014.29   20.59
  -3   1   3  219.37    4.71
   3  -1  -3  225.83    4.84
  -2   1   3 4016.90   80.64
   2  -1  -3 3968.52   79.68
  -1   1   3 1009.41   20.52
   1  -1  -3 1021.20   20.75
   0   1   3 1059.44   21.50
   0  -1  -3 1030.10   20.93
   1   1   3 1157.70   23.47
  -1  -1  -3 1208.72   24.50
   2   1   3  107.65    2.46
  -2  -1  -3  107.26    2.46
   3   1   3 1135.27   23.03
  -3  -1  -3 1145.62   23.23
   4   1   3  509.44   10.50
  -4  -1  -3  509.72   10.50
   5   1   3   27.66    0.88
  -5  -1  -3   31.43    0.96
   6   1   3  466.85    9.65
  -6  -1  -3  464.03    9.60
   7   1   3    8.77    0.49
  -7  -1  -3    9.00    0.49
   8   1   3  273.46    5.80
  -8  -1  -3  268.39    5.69
 -10   2   3   17.93    0.67
  10  -2  -3   18.55    0.70
  -9   2   3    9.13    0.49
   9  -2  -3   10.74    0.54
  -8   2   3  153.78    3.39
   8  -2  -3  155.67    3.44
  -7   2   3  104.75    2.41
   7  -2  -3  107.73    2.46
  -6   2   3  348.85    7.30
   6  -2  -3  349.09    7.30
  -5   2   3  306.99    6.47
   5  -2  -3  304.59    6.42
  -4   2   3 1730.26   34.93
   4  -2  -3 1716.24   34.64
  -3   2   3  693.67   14.18
   3  -2  -3  722.31   14.77
  -2   2   3  833.17   16.97
   2  -2  -3  832.13   16.95
  -1   2   3  776.64   15.86
   1  -2  -3  820.88   16.74
   0   2   3 1100.55   22.33
   0  -2  -3 1072.74   21.76
   1   2   3  213.57    4.58
  -1  -2  -3  218.69    4.68
   2   2   3 2305.23   46.41
  -2  -2  -3 2286.56   46.05
   3   2   3  200.63    4.32
  -3  -2  -3  198.80    4.29
   4   2   3  577.63   11.88
  -4  -2  -3  584.05   12.00
   5   2   3  668.96   13.69
  -5  -2  -3  653.83   13.40
   6   2   3   59.76    1.50
  -6  -2  -3   59.79    1.50
   7   2   3   43.96    1.19
  -7  -2  -3   41.19    1.14
   8   2   3   28.04    0.88
  -8  -2  -3   27.94    0.88
  -9   3   3   27.99    0.88
   9  -3  -3   28.41    0.88
  -8   3   3  104.57    2.41
   8  -3  -3  104.37    2.41
  -7   3   3  205.42    4.42
   7  -3  -3  213.88    4.61
  -6   3   3   56.22    1.45
   6  -3  -3   57.43    1.47
  -5   3   3  696.57   14.26
   5  -3  -3  712.06   14.57
  -4   3   3  261.92    5.56
   4  -3  -3  247.13    5.25
  -3   3   3  201.59    4.35
   3  -3  -3  201.31    4.35
  -2   3   3  921.44   18.76
   2  -3  -3  895.67   18.24
  -1   3   3  440.93    9.13
   1  -3  -3  449.98    9.31
   0   3   3 1194.83   24.22
   0  -3  -3 1211.13   24.53
   1   3   3  609.07   12.50
  -1  -3  -3  636.10   13.04
   2   3   3  764.53   15.60
  -2  -3  -3  767.12   15.65
   3   3   3  443.78    9.18
  -3  -3  -3  428.61    8.90
   4   3   3  246.32    5.25
  -4  -3  -3  234.37    4.99
   5   3   3   29.21    0.91
  -5  -3  -3   27.94    0.88
   6   3   3  195.25    4.22
  -6  -3  -3  191.79    4.14
   7   3   3   33.81    0.98
  -7  -3  -3   34.69    1.01
  -9   4   3   53.09    1.37
   9  -4  -3   49.21    1.29
  -8   4   3  363.52    7.58
   8  -4  -3  363.21    7.58
  -7   4   3  184.80    4.01
   7  -4  -3  181.90    3.96
  -6   4   3  306.99    6.47
   6  -4  -3  318.07    6.67
  -5   4   3   76.27    1.84
   5  -4  -3   81.44    1.94
  -4   4   3   75.36    1.81
   4  -4  -3   69.85    1.71
  -3   4   3  632.64   12.96
   3  -4  -3  642.44   13.17
  -2   4   3  235.92    5.04
   2  -4  -3  235.46    5.02
  -1   4   3  757.83   15.47
   1  -4  -3  748.52   15.29
   0   4   3  403.80    8.38
   0  -4  -3  413.12    8.59
   1   4   3  101.42    2.35
  -1  -4  -3   96.06    2.22
   2   4   3  853.94   17.39
  -2  -4  -3  856.71   17.44
   3   4   3   54.85    1.42
  -3  -4  -3   58.19    1.47
   4   4   3  371.05    7.74
  -4  -4  -3  379.38    7.89
   5   4   3   90.58    2.12
  -5  -4  -3   82.61    1.97
   6   4   3   25.33    0.83
  -6  -4  -3   25.12    0.83
   7   4   3   47.63    1.27
  -7  -4  -3   46.10    1.24
  -8   5   3   86.26    2.04
   8  -5  -3   90.52    2.12
  -7   5   3  323.06    6.78
   7  -5  -3  318.76    6.70
  -6   5   3  246.58    5.25
   6  -5  -3  246.32    5.25
  -5   5   3 1075.61   21.84
   5  -5  -3 1064.98   21.60
  -4   5   3  212.72    4.58
   4  -5  -3  221.43    4.73
  -3   5   3  326.94    6.86
   3  -5  -3  327.17    6.86
  -2   5   3  432.39    8.95
   2  -5  -3  461.70    9.55
  -1   5   3  640.61   13.12
   1  -5  -3  627.83   12.88
   0   5   3  332.73    6.96
   0  -5  -3  352.29    7.37
   1   5   3 1135.99   23.03
  -1  -5  -3 1117.52   22.66
   2   5   3    9.88    0.52
  -2  -5  -3   10.04    0.52
   3   5   3  749.24   15.29
  -3  -5  -3  727.59   14.88
   4   5   3   63.26    1.58
  -4  -5  -3   64.37    1.60
   5   5   3  147.34    3.26
  -5  -5  -3  149.43    3.31
   6   5   3   73.92    1.79
  -6  -5  -3   78.47    1.89
  -7   6   3  107.65    2.46
   7  -6  -3  106.59    2.46
  -6   6   3  139.19    3.10
   6  -6  -3  148.30    3.29
  -5   6   3   76.48    1.84
   5  -6  -3   76.04    1.84
  -4   6   3    8.87    0.49
   4  -6  -3    9.37    0.49
  -3   6   3 1178.19   23.88
   3  -6  -3 1169.42   23.70
  -2   6   3  159.63    3.52
   2  -6  -3  160.07    3.52
  -1   6   3 1383.09   27.97
   1  -6  -3 1374.01   27.79
   0   6   3  188.60    4.09
   0  -6  -3  202.11    4.35
   1   6   3  393.95    8.20
  -1  -6  -3  397.93    8.28
   2   6   3    5.87    0.44
  -2  -6  -3    3.21    0.39
   3   6   3    4.35    0.41
  -3  -6  -3    3.78    0.39
   4   6   3   69.34    1.71
  -4  -6  -3   67.94    1.68
   5   6   3  114.02    2.59
  -5  -6  -3  110.45    2.54
  -6   7   3   53.06    1.37
   6  -7  -3   52.47    1.37
  -5   7   3  391.98    8.15
   5  -7  -3  379.87    7.92
  -4   7   3  130.47    2.92
   4  -7  -3  132.23    2.95
  -3   7   3  197.24    4.27
   3  -7  -3  191.89    4.17
  -2   7   3  297.45    6.26
   2  -7  -3  305.67    6.44
  -1   7   3   44.68    1.22
   1  -7  -3   44.65    1.22
   0   7   3  118.28    2.69
   0  -7  -3  118.88    2.69
   1   7   3  422.22    8.77
  -1  -7  -3  424.66    8.80
   2   7   3   71.53    1.76
  -2  -7  -3   70.91    1.73
   3   7   3  203.40    4.37
  -3  -7  -3  199.50    4.29
   4   7   3   16.76    0.65
  -4  -7  -3   19.33    0.70
  -4   8   3    1.66    0.34
   4  -8  -3    2.82    0.36
  -3   8   3  275.92    5.85
   3  -8  -3  270.98    5.74
  -2   8   3   31.77    0.96
   2  -8  -3   31.54    0.96
  -1   8   3  372.27    7.76
   1  -8  -3  367.76    7.68
   0   8   3  280.11    5.92
   0  -8  -3  279.78    5.90
   1   8   3  217.01    4.66
  -1  -8  -3  217.19    4.66
   2   8   3   29.00    0.91
  -2  -8  -3   24.76    0.80
 -10   0   4   41.68    1.14
  -9   0   4   52.18    1.37
  -8   0   4   15.76    0.62
  -7   0   4  459.45    9.49
  -6   0   4  981.77   19.95
  -5   0   4 1423.61   28.80
  -4   0   4 1009.04   20.49
  -3   0   4 1002.70   20.36
  -2   0   4 1967.14   39.66
  -1   0   4   24.47    0.80
   0   0   4  318.45    6.67
   1   0   4 1769.82   35.70
   2   0   4    6.18    0.44
   3   0   4  151.56    3.34
   4   0   4  434.56    9.00
   5   0   4  383.34    7.99
   6   0   4  258.74    5.48
   7   0   4    0.31    0.31
 -10   1   4   13.92    0.60
  10  -1  -4   14.05    0.60
  -9   1   4   51.56    1.35
   9  -1  -4   55.93    1.42
  -8   1   4  280.16    5.92
   8  -1  -4  273.13    5.77
  -7   1   4   97.69    2.28
   7  -1  -4   98.03    2.28
  -6   1   4 1187.58   24.06
   6  -1  -4 1166.52   23.65
  -5   1   4  212.51    4.55
   5  -1  -4  204.26    4.40
  -4   1   4  470.60    9.73
   4  -1  -4  456.74    9.44
  -3   1   4  545.92   11.23
   3  -1  -4  539.97   11.12
  -2   1   4  954.43   19.40
   2  -1  -4  967.31   19.66
  -1   1   4  423.91    8.80
   1  -1  -4  434.07    9.00
   0   1   4  705.05   14.41
   0  -1  -4  701.02   14.33
   1   1   4  391.82    8.15
  -1  -1  -4  398.11    8.28
   2   1   4 1032.72   20.98
  -2  -1  -4 1004.13   20.39
   3   1   4   78.57    1.89
  -3  -1  -4   75.23    1.81
   4   1   4  818.76   16.69
  -4  -1  -4  801.22   16.35
   5   1   4   47.63    1.27
  -5  -1  -4   56.19    1.45
   6   1   4   51.48    1.35
  -6  -1  -4   52.18    1.37
   7   1   4   41.34    1.14
  -7  -1  -4   46.28    1.24
 -10   2   4   70.71    1.73
  10  -2  -4   72.52    1.76
  -9   2   4   65.84    1.63
   9  -2  -4   67.91    1.68
  -8   2   4  199.11    4.29
   8  -2  -4  199.19    4.29
  -7   2   4  125.99    2.85
   7  -2  -4  130.44    2.92
  -6   2   4   97.72    2.28
   6  -2  -4   94.41    2.20
  -5   2   4   15.68    0.62
   5  -2  -4   16.56    0.65
  -4   2   4  290.59    6.13
   4  -2  -4  297.52    6.26
  -3   2   4  189.43    4.11
   3  -2  -4  189.79    4.11
  -2   2   4 1997.65   40.26
   2  -2  -4 2004.09   40.39
  -1   2   4  114.12    2.59
   1  -2  -4  116.09    2.64
   0   2   4 1032.90   20.98
   0  -2  -4 1025.26   20.83
   1   2   4  385.38    8.02
  -1  -2  -4  391.90    8.15
   2   2   4  237.71    5.07
  -2  -2  -4  241.56    5.15
   3   2   4  461.73    9.55
  -3  -2  -4  488.64   10.09
   4   2   4  170.70    3.73
  -4  -2  -4  173.00    3.78
   5   2   4    8.54    0.49
  -5  -2  -4    9.60    0.52
   6   2   4  259.83    5.51
  -6  -2  -4  261.46    5.54
   7   2   4   88.43    2.10
  -7  -2  -4   88.27    2.07
  -9   3   4   90.81    2.12
   9  -3  -4   90.91    2.12
  -8   3   4  122.14    2.77
   8  -3  -4  118.49    2.69
  -7   3   4   40.72    1.14
   7  -3  -4   40.57    1.14
  -6   3   4  588.09   12.08
   6  -3  -4  580.17   11.93
  -5   3   4  476.27    9.83
   5  -3  -4  477.41    9.86
  -4   3   4  368.10    7.68
   4  -3  -4  373.97    7.79
  -3   3   4  924.83   18.81
   3  -3  -4  915.91   18.63
  -2   3   4   98.03    2.28
   2  -3  -4  101.93    2.35
  -1   3   4  548.66   11.28
   1  -3  -4  535.08   11.02
   0   3   4  963.64   19.58
   0  -3  -4  963.41   19.58
   1   3   4   27.89    0.88
  -1  -3  -4   28.10    0.88
   2   3   4  690.43   14.13
  -2  -3  -4  693.88   14.20
   3   3   4  215.64    4.63
  -3  -3  -4  220.09    4.71
   4   3   4  257.29    5.46
  -4  -3  -4  256.08    5.43
   5   3   4  373.79    7.79
  -5  -3  -4  384.09    7.99
   6   3   4   40.80    1.14
  -6  -3  -4   40.49    1.14
   7   3   4  177.27    3.85
  -7  -3  -4  177.48    3.85
  -9   4   4   49.60    1.32
   9  -4  -4   49.52    1.29
  -8   4   4   35.63    1.03
   8  -4  -4   36.48    1.03
  -7   4   4  272.84    5.77
   7  -4  -4  265.18    5.61
  -6   4   4  221.93    4.76
   6  -4  -4  216.13    4.63
  -5   4   4  253.46    5.38
   5  -4  -4  240.17    5.12
  -4   4   4  107.39    2.46
   4  -4  -4  102.32    2.35
  -3   4   4  154.43    3.42
   3  -4  -4  152.77    3.36
  -2   4   4  374.10    7.79
   2  -4  -4  364.69    7.61
  -1   4   4  170.31    3.73
   1  -4  -4  178.20    3.88
   0   4   4   63.00    1.58
   0  -4  -4   63.10    1.58
   1   4   4  613.21   12.57
  -1  -4  -4  595.51   12.24
   2   4   4   68.33    1.68
  -2  -4  -4   68.25    1.68
   3   4   4  273.51    5.80
  -3  -4  -4  272.82    5.77
   4   4   4   88.22    2.07
  -4  -4  -4   88.77    2.10
   5   4   4  167.13    3.65
  -5  -4  -4  163.12    3.57
   6   4   4   61.55    1.55
  -6  -4  -4   63.88    1.60
  -8   5   4   22.51    0.78
   8  -5  -4   26.31    0.85
  -7   5   4   55.00    1.42
   7  -5  -4   55.44    1.42
  -6   5   4    7.50    0.47
   6  -5  -4   10.68    0.52
  -5   5   4   71.69    1.76
   5  -5  -4   74.74    1.81
  -4   5   4  180.84    3.93
   4  -5  -4  189.02    4.09
  -3   5   4  297.73    6.26
   3  -5  -4  298.66    6.29
  -2   5   4  225.37    4.81
   2  -5  -4  226.09    4.84
  -1   5   4  466.02    9.62
   1  -5  -4  458.03    9.47
   0   5   4  266.24    5.64
   0  -5  -4  263.32    5.59
   1   5   4  290.98    6.13
  -1  -5  -4  288.00    6.08
   2   5   4  246.30    5.25
  -2  -5  -4  266.55    5.64
   3   5   4  133.11    2.98
  -3  -5  -4  136.42    3.05
   4   5   4  134.74    3.00
  -4  -5  -4  142.60    3.16
   5   5   4  438.99    9.11
  -5  -5  -4  441.21    9.13
   6   5   4   28.72    0.88
  -6  -5  -4   28.43    0.88
  -7   6   4  247.05    5.25
   7  -6  -4  245.70    5.23
  -6   6   4   16.40    0.65
   6  -6  -4   16.25    0.65
  -5   6   4  269.27    5.69
   5  -6  -4  271.39    5.74
  -4   6   4  276.49    5.85
   4  -6  -4  281.59    5.95
  -3   6   4   67.08    1.66
   3  -6  -4   68.25    1.68
  -2   6   4  133.08    2.98
   2  -6  -4  127.52    2.87
  -1   6   4  168.32    3.67
   1  -6  -4  172.23    3.75
   0   6   4    4.14    0.39
   0  -6  -4    5.67    0.44
   1   6   4  650.23   13.32
  -1  -6  -4  643.35   13.19
   2   6   4  155.36    3.42
  -2  -6  -4  155.31    3.42
   3   6   4  799.92   16.32
  -3  -6  -4  804.32   16.40
   4   6   4  156.99    3.47
  -4  -6  -4  159.73    3.52
   5   6   4   82.48    1.97
  -5  -6  -4   81.60    1.94
  -6   7   4   27.06    0.85
   6  -7  -4   27.14    0.85
  -5   7   4   16.61    0.65
   5  -7  -4   15.26    0.62
  -4   7   4   36.43    1.03
   4  -7  -4   39.20    1.11
  -3   7   4  139.42    3.10
   3  -7  -4  134.30    3.00
  -2   7   4  119.22    2.69
   2  -7  -4  118.75    2.69
  -1   7   4  167.23    3.65
   1  -7  -4  159.21    3.49
   0   7   4  111.84    2.56
   0  -7  -4  105.56    2.43
   1   7   4   57.67    1.47
  -1  -7  -4   55.60    1.42
   2   7   4  212.25    4.55
  -2  -7  -4  218.02    4.68
   3   7   4  123.28    2.79
  -3  -7  -4  121.52    2.74
  -4   8   4  163.35    3.60
   4  -8  -4  170.39    3.73
  -3   8   4  104.57    2.41
   3  -8  -4  105.22    2.43
  -2   8   4   32.91    0.98
   2  -8  -4   39.69    1.11
  -1   8   4   88.97    2.10
   1  -8  -4   90.55    2.12
   0   8   4   53.40    1.37
   0  -8  -4   58.00    1.47
   1   8   4  186.74    4.06
  -1  -8  -4  183.43    3.98
 -10   0   5   56.68    1.45
  -9   0   5    9.78    0.52
  -8   0   5  117.74    2.66
  -7   0   5   15.08    0.62
  -6   0   5  136.47    3.05
  -5   0   5  100.38    2.33
  -4   0   5   17.88    0.67
  -3   0   5   11.93    0.54
  -2   0   5 2111.82   42.56
  -1   0   5  127.81    2.87
   0   0   5 3236.59   65.04
   1   0   5   79.79    1.91
   2   0   5  982.91   19.97
   3   0   5   54.10    1.40
   4   0   5    8.85    0.49
   5   0   5  275.04    5.82
   6   0   5  176.16    3.83
   7   0   5  162.78    3.57
 -10   1   5  180.84    3.93
  10  -1  -5  179.99    3.91
  -9   1   5   80.90    1.94
   9  -1  -5   79.19    1.89
  -8   1   5   28.98    0.91
   8  -1  -5   28.82    0.88
  -7   1   5   94.38    2.20
   7  -1  -5   97.33    2.25
  -6   1   5  204.54    4.40
   6  -1  -5  212.61    4.58
  -5   1   5  323.45    6.78
   5  -1  -5  336.46    7.04
  -4   1   5  981.13   19.95
   4  -1  -5  977.17   19.87
  -3   1   5  890.16   18.11
   3  -1  -5  884.57   18.01
  -2   1   5 1110.25   22.53
   2  -1  -5 1096.62   22.25
  -1   1   5  305.47    6.42
   1  -1  -5  295.35    6.24
   0   1   5  459.82    9.52
   0  -1  -5  457.25    9.47
   1   1   5   31.02    0.93
  -1  -1  -5   38.88    1.09
   2   1   5  349.81    7.32
  -2  -1  -5  346.68    7.24
   3   1   5  331.34    6.93
  -3  -1  -5  333.80    6.99
   4   1   5  421.60    8.74
  -4  -1  -5  415.63    8.64
   5   1   5   39.07    1.09
  -5  -1  -5   39.64    1.11
   6   1   5  206.40    4.45
  -6  -1  -5  203.32    4.37
   7   1   5   16.01    0.65
  -7  -1  -5   13.94    0.60
 -10   2   5    9.81    0.52
  10  -2  -5   10.63    0.52
  -9   2   5   29.18    0.91
   9  -2  -5   27.01    0.85
  -8   2   5  162.24    3.57
   8  -2  -5  166.51    3.65
  -7   2   5   31.80    0.96
   7  -2  -5   32.68    0.96
  -6   2   5  343.26    7.19
   6  -2  -5  344.32    7.19
  -5   2   5  187.96    4.09
   5  -2  -5  192.17    4.17
  -4   2   5  644.95   13.22
   4  -2  -5  641.43   13.14
  -3   2   5  280.50    5.92
   3  -2  -5  296.93    6.26
  -2   2   5   85.89    2.04
   2  -2  -5   86.46    2.04
  -1   2   5  208.73    4.50
   1  -2  -5  223.09    4.79
   0   2   5  629.61   12.91
   0  -2  -5  618.05   12.68
   1   2   5   84.13    1.99
  -1  -2  -5   84.76    2.02
   2   2   5  789.32   16.09
  -2  -2  -5  781.55   15.94
   3   2   5  196.44    4.24
  -3  -2  -5  201.25    4.35
   4   2   5  192.77    4.17
  -4  -2  -5  194.14    4.19
   5   2   5   94.56    2.20
  -5  -2  -5   93.37    2.17
   6   2   5    2.46    0.36
  -6  -2  -5    2.87    0.36
  -9   3   5   95.57    2.22
   9  -3  -5   94.48    2.20
  -8   3   5   19.58    0.70
   8  -3  -5   19.66    0.70
  -7   3   5  150.93    3.34
   7  -3  -5  148.30    3.29
  -6   3   5  281.66    5.95
   6  -3  -5  291.16    6.13
  -5   3   5   73.16    1.79
   5  -3  -5   76.94    1.86
  -4   3   5  436.14    9.03
   4  -3  -5  439.22    9.11
  -3   3   5  145.37    3.23
   3  -3  -5  143.51    3.18
  -2   3   5   75.16    1.81
   2  -3  -5   81.91    1.97
  -1   3   5 1238.96   25.10
   1  -3  -5 1232.06   24.97
   0   3   5   23.10    0.78
   0  -3  -5   24.16    0.80
   1   3   5  580.27   11.93
  -1  -3  -5  586.25   12.03
   2   3   5  115.13    2.61
  -2  -3  -5  110.34    2.54
   3   3   5  309.94    6.52
  -3  -3  -5  298.40    6.29
   4   3   5  217.74    4.68
  -4  -3  -5  217.79    4.68
   5   3   5   73.84    1.79
  -5  -3  -5   73.71    1.79
   6   3   5  199.39    4.29
  -6  -3  -5  203.22    4.37
  -9   4   5   27.09    0.85
   9  -4  -5   26.85    0.85
  -8   4   5   65.38    1.63
   8  -4  -5   67.40    1.66
  -7   4   5   12.00    0.54
   7  -4  -5   12.55    0.57
  -6   4   5   90.42    2.12
   6  -4  -5   97.30    2.25
  -5   4   5  397.59    8.28
   5  -4  -5  400.60    8.33
  -4   4   5   42.79    1.16
   4  -4  -5   44.55    1.22
  -3   4   5 1566.63   31.64
   3  -4  -5 1569.63   31.72
  -2   4   5  321.97    6.75
   2  -4  -5  310.02    6.52
  -1   4   5  837.41   17.08
   1  -4  -5  844.71   17.20
   0   4   5   77.77    1.86
   0  -4  -5   69.00    1.71
   1   4   5   40.88    1.14
  -1  -4  -5   41.08    1.14
   2   4   5   35.34    1.03
  -2  -4  -5   33.97    0.98
   3   4   5  456.45    9.44
  -3  -4  -5  451.20    9.34
   4   4   5  159.63    3.52
  -4  -4  -5  163.07    3.57
   5   4   5  289.09    6.11
  -5  -4  -5  282.80    5.98
  -8   5   5   37.98    1.09
   8  -5  -5   38.21    1.09
  -7   5   5  277.76    5.87
   7  -5  -5  281.64    5.95
  -6   5   5  241.77    5.15
   6  -5  -5  241.46    5.15
  -5   5   5  629.84   12.91
   5  -5  -5  628.06   12.88
  -4   5   5  298.76    6.29
   4  -5  -5  284.85    6.00
  -3   5   5  494.56   10.22
   3  -5  -5  498.55   10.30
  -2   5   5   39.66    1.11
   2  -5  -5   44.84    1.22
  -1   5   5  276.18    5.85
   1  -5  -5  285.29    6.03
   0   5   5    9.42    0.49
   0  -5  -5   10.74    0.54
   1   5   5  663.06   13.58
  -1  -5  -5  674.45   13.82
   2   5   5   49.93    1.32
  -2  -5  -5   46.72    1.24
   3   5   5  270.49    5.72
  -3  -5  -5  263.06    5.59
   4   5   5   38.83    1.09
  -4  -5  -5   34.93    1.01
   5   5   5   12.11    0.57
  -5  -5  -5   12.08    0.57
  -7   6   5    7.45    0.47
   7  -6  -5    7.94    0.47
  -6   6   5   63.98    1.60
   6  -6  -5   64.50    1.60
  -5   6   5  100.38    2.33
   5  -6  -5  102.94    2.38
  -4   6   5   50.79    1.32
   4  -6  -5   50.89    1.35
  -3   6   5  366.68    7.66
   3  -6  -5  360.39    7.53
  -2   6   5  250.75    5.33
   2  -6  -5  248.91    5.30
  -1   6   5  322.05    6.75
   1  -6  -5  321.71    6.75
   0   6   5  359.56    7.50
   0  -6  -5  369.03    7.68
   1   6   5    1.24    0.34
  -1  -6  -5    1.29    0.34
   2   6   5   85.04    2.02
  -2  -6  -5   85.30    2.02
   3   6   5   51.82    1.35
  -3  -6  -5   47.94    1.27
   4   6   5   14.44    0.60
  -4  -6  -5   12.99    0.57
  -6   7   5  141.26    3.13
   6  -7  -5  139.29    3.10
  -5   7   5  151.61    3.34
   5  -7  -5  148.61    3.29
  -4   7   5  146.87    3.26
   4  -7  -5  145.61    3.23
  -3   7   5   31.69    0.96
   3  -7  -5   32.57    0.96
  -2   7   5  513.65   10.58
   2  -7  -5  526.62   10.84
  -1   7   5  133.26    2.98
   1  -7  -5  123.54    2.79
   0   7   5   39.45    1.11
   0  -7  -5   41.06    1.14
   1   7   5  179.70    3.91
  -1  -7  -5  172.90    3.78
   2   7   5   10.40    0.52
  -2  -7  -5   11.51    0.54
  -2   8   5   87.70    2.07
   2  -8  -5   91.27    2.15
  -1   8   5  285.80    6.03
   1  -8  -5  280.91    5.92
 -10   0   6   40.59    1.14
  -9   0   6   35.21    1.01
  -8   0   6   88.22    2.07
  -7   0   6    5.25    0.41
  -6   0   6  642.39   13.17
  -5   0   6   12.21    0.57
  -4   0   6  576.13   11.85
  -3   0   6    1.01    0.34
  -2   0   6 1029.53   20.90
  -1   0   6    0.93    0.34
   0   0   6    7.35    0.47
   1   0   6   33.89    0.98
   2   0   6   27.58    0.88
   3   0   6  123.30    2.79
   4   0   6  202.78    4.37
   5   0   6   43.31    1.19
   6   0   6  146.12    3.23
 -10   1   6   20.83    0.72
  10  -1  -6   21.99    0.75
  -9   1   6   24.78    0.80
   9  -1  -6   25.10    0.83
  -8   1   6  447.53    9.26
   8  -1  -6  447.11    9.26
  -7   1   6  151.97    3.36
   7  -1  -6  152.44    3.36
  -6   1   6  480.87    9.93
   6  -1  -6  481.86    9.96
  -5   1   6  315.43    6.62
   5  -1  -6  320.03    6.73
  -4   1   6   84.11    1.99
   4  -1  -6   83.90    1.99
  -3   1   6  171.35    3.75
   3  -1  -6  173.21    3.78
  -2   1   6  208.76    4.50
   2  -1  -6  211.14    4.53
  -1   1   6  274.81    5.82
   1  -1  -6  270.25    5.72
   0   1   6  601.51   12.34
   0  -1  -6  617.55   12.68
   1   1   6  189.79    4.11
  -1  -1  -6  189.33    4.11
   2   1   6  456.09    9.44
  -2  -1  -6  465.53    9.62
   3   1   6   93.73    2.20
  -3  -1  -6   94.85    2.22
   4   1   6   61.91    1.55
  -4  -1  -6   62.56    1.58
   5   1   6   86.44    2.04
  -5  -1  -6   88.71    2.10
   6   1   6   16.27    0.65
  -6  -1  -6   15.78    0.62
 -10   2   6   22.04    0.75
  10  -2  -6   22.12    0.75
  -9   2   6  101.80    2.35
   9  -2  -6  100.80    2.33
  -8   2   6   11.25    0.54
   8  -2  -6   11.49    0.54
  -7   2   6  101.11    2.33
   7  -2  -6  100.98    2.33
  -6   2   6  649.45   13.30
   6  -2  -6  636.05   13.04
  -5   2   6   75.80    1.84
   5  -2  -6   73.01    1.79
  -4   2   6  545.63   11.23
   4  -2  -6  534.02   11.00
  -3   2   6  188.09    4.09
   3  -2  -6  194.32    4.19
  -2   2   6  760.88   15.52
   2  -2  -6  754.44   15.39
  -1   2   6  182.68    3.96
   1  -2  -6  184.18    4.01
   0   2   6   20.85    0.72
   0  -2  -6   21.19    0.75
   1   2   6  394.80    8.20
  -1  -2  -6  386.00    8.05
   2   2   6   99.19    2.30
  -2  -2  -6  102.22    2.35
   3   2   6    3.21    0.39
  -3  -2  -6    3.42    0.39
   4   2   6  273.26    5.77
  -4  -2  -6  273.23    5.77
   5   2   6    1.81    0.36
  -5  -2  -6    2.12    0.36
   6   2   6  160.56    3.52
  -6  -2  -6  158.67    3.49
  -9   3   6   23.80    0.80
   9  -3  -6   24.01    0.80
  -8   3   6   50.24    1.32
   8  -3  -6   47.94    1.27
  -7   3   6   14.15    0.60
   7  -3  -6   13.56    0.60
  -6   3   6    4.61    0.41
   6  -3  -6    4.58    0.41
  -5   3   6  257.42    5.46
   5  -3  -6  252.40    5.36
  -4   3   6    4.81    0.41
   4  -3  -6    4.71    0.41
  -3   3   6  166.77    3.65
   3  -3  -6  158.88    3.49
  -2   3   6   72.23    1.76
   2  -3  -6   77.51    1.86
  -1   3   6  301.51    6.34
   1  -3  -6  292.30    6.16
   0   3   6  289.79    6.11
   0  -3  -6  304.07    6.39
   1   3   6   84.06    1.99
  -1  -3  -6   82.89    1.97
   2   3   6  150.24    3.31
  -2  -3  -6  159.42    3.49
   3   3   6   70.78    1.73
  -3  -3  -6   69.96    1.71
   4   3   6    8.59    0.49
  -4  -3  -6    8.62    0.49
   5   3   6  106.80    2.46
  -5  -3  -6  102.87    2.38
  -9   4   6  223.94    4.79
   9  -4  -6  224.72    4.81
  -8   4   6   15.01    0.62
   8  -4  -6   15.21    0.62
  -7   4   6  555.18   11.41
   7  -4  -6  556.60   11.44
  -6   4   6   57.38    1.47
   6  -4  -6   51.67    1.35
  -5   4   6  139.99    3.10
   5  -4  -6  139.19    3.10
  -4   4   6   25.85    0.83
   4  -4  -6   31.64    0.96
  -3   4   6  346.58    7.24
   3  -4  -6  349.19    7.30
  -2   4   6   19.40    0.70
   2  -4  -6   17.72    0.67
  -1   4   6 1044.38   21.21
   1  -4  -6 1054.68   21.42
   0   4   6   14.33    0.60
   0  -4  -6   14.67    0.62
   1   4   6  940.43   19.12
  -1  -4  -6  942.66   19.17
   2   4   6   55.49    1.42
  -2  -4  -6   58.03    1.47
   3   4   6  269.17    5.69
  -3  -4  -6  273.41    5.80
   4   4   6   33.97    0.98
  -4  -4  -6   38.11    1.09
   5   4   6    1.06    0.34
  -5  -4  -6    1.27    0.34
  -8   5   6  118.70    2.69
   8  -5  -6  110.78    2.54
  -7   5   6   20.26    0.72
   7  -5  -6   21.86    0.75
  -6   5   6   32.47    0.96
   6  -5  -6   29.03    0.91
  -5   5   6  300.45    6.31
   5  -5  -6  302.26    6.36
  -4   5   6   16.61    0.65
   4  -5  -6   16.38    0.65
  -3   5   6  383.00    7.97
   3  -5  -6  390.95    8.12
  -2   5   6  197.81    4.27
   2  -5  -6  190.98    4.14
  -1   5   6   87.06    2.07
   1  -5  -6   84.08    1.99
   0   5   6  528.40   10.89
   0  -5  -6  512.08   10.56
   1   5   6   13.87    0.60
  -1  -5  -6   14.57    0.60
   2   5   6  195.15    4.22
  -2  -5  -6  188.76    4.09
   3   5   6  342.54    7.17
  -3  -5  -6  353.64    7.40
   4   5   6    2.04    0.36
  -4  -5  -6    2.25    0.36
  -7   6   6   26.65    0.85
   7  -6  -6   24.06    0.80
  -6   6   6   37.75    1.06
   6  -6  -6   36.25    1.03
  -5   6   6    6.55    0.44
   5  -6  -6    5.80    0.44
  -4   6   6  210.18    4.53
   4  -6  -6  218.17    4.68
  -3   6   6   19.25    0.70
   3  -6  -6   17.98    0.67
  -2   6   6   37.69    1.06
   2  -6  -6   34.33    1.01
  -1   6   6   40.41    1.11
   1  -6  -6   42.51    1.16
   0   6   6   18.37    0.67
   0  -6  -6   18.29    0.67
   1   6   6   52.00    1.35
  -1  -6  -6   49.78    1.32
   2   6   6  273.07    5.77
  -2  -6  -6  271.73    5.74
   3   6   6   41.55    1.14
  -3  -6  -6   42.09    1.16
  -5   7   6   44.19    1.19
   5  -7  -6   41.24    1.14
  -4   7   6   26.23    0.83
   4  -7  -6   25.90    0.83
  -3   7   6  122.97    2.77
   3  -7  -6  125.24    2.82
  -2   7   6  245.86    5.23
   2  -7  -6  248.63    5.28
  -1   7   6   15.96    0.65
   1  -7  -6   15.76    0.62
   0   7   6  301.51    6.34
   0  -7  -6  305.31    6.42
   1   7   6   10.74    0.54
  -1  -7  -6    9.81    0.52
 -10   0   7   37.41    1.06
  -9   0   7   12.24    0.57
  -8   0   7   53.55    1.40
  -7   0   7  183.56    3.98
  -6   0   7  466.34    9.65
  -5   0   7  137.33    3.05
  -4   0   7  187.54    4.06
  -3   0   7    3.34    0.39
  -2   0   7   21.16    0.75
  -1   0   7  676.39   13.84
   0   0   7 1177.49   23.85
   1   0   7  103.54    2.38
   2   0   7  789.01   16.09
   3   0   7  131.76    2.95
   4   0   7  122.68    2.77
   5   0   7    0.98    0.34
 -10   1   7   29.23    0.91
  10  -1  -7   29.44    0.91
  -9   1   7   57.38    1.47
   9  -1  -7   59.17    1.50
  -8   1   7   36.94    1.06
   8  -1  -7   35.52    1.03
  -7   1   7   35.24    1.01
   7  -1  -7   32.26    0.96
  -6   1   7   10.48    0.52
   6  -1  -7   11.31    0.54
  -5   1   7  199.34    4.29
   5  -1  -7  198.36    4.29
  -4   1   7  427.01    8.85
   4  -1  -7  427.55    8.87
  -3   1   7  736.30   15.03
   3  -1  -7  742.13   15.16
  -2   1   7  205.52    4.42
   2  -1  -7  209.28    4.50
  -1   1   7  371.65    7.76
   1  -1  -7  377.54    7.86
   0   1   7   26.75    0.85
   0  -1  -7   25.98    0.83
   1   1   7   40.72    1.14
  -1  -1  -7   39.25    1.11
   2   1   7  350.09    7.32
  -2  -1  -7  343.68    7.19
   3   1   7  104.88    2.41
  -3  -1  -7  102.09    2.35
   4   1   7  373.71    7.79
  -4  -1  -7  372.32    7.76
   5   1   7  126.18    2.85
  -5  -1  -7  130.08    2.92
  -9   2   7    4.06    0.39
   9  -2  -7    4.06    0.39
  -8   2   7   48.35    1.29
   8  -2  -7   51.25    1.35
  -7   2   7   61.42    1.55
   7  -2  -7   62.64    1.58
  -6   2   7   53.63    1.40
   6  -2  -7   55.57    1.42
  -5   2   7   90.76    2.12
   5  -2  -7   93.84    2.20
  -4   2   7  216.91    4.66
   4  -2  -7  213.93    4.61
  -3   2   7  197.97    4.27
   3  -2  -7  201.98    4.35
  -2   2   7  495.21   10.22
   2  -2  -7  486.26   10.04
  -1   2   7  139.50    3.10
   1  -2  -7  142.03    3.16
   0   2   7  672.17   13.76
   0  -2  -7  658.79   13.48
   1   2   7   16.48    0.65
  -1  -2  -7   18.42    0.67
   2   2   7  113.29    2.59
  -2  -2  -7  110.91    2.54
   3   2   7  189.30    4.11
  -3  -2  -7  188.84    4.09
   4   2   7   39.32    1.11
  -4  -2  -7   38.86    1.09
   5   2   7   46.52    1.24
  -5  -2  -7   46.23    1.24
  -9   3   7   53.19    1.37
   9  -3  -7   53.50    1.40
  -8   3   7   22.59    0.78
   8  -3  -7   21.55    0.75
  -7   3   7   86.95    2.04
   7  -3  -7   85.71    2.02
  -6   3   7  156.45    3.44
   6  -3  -7  163.72    3.60
  -5   3   7   68.82    1.68
   5  -3  -7   68.92    1.68
  -4   3   7  317.50    6.67
   4  -3  -7  320.65    6.73
  -3   3   7   59.87    1.50
   3  -3  -7   54.64    1.40
  -2   3   7   53.99    1.40
   2  -3  -7   57.05    1.45
  -1   3   7  183.48    3.98
   1  -3  -7  178.69    3.88
   0   3   7    6.99    0.47
   0  -3  -7    6.91    0.47
   1   3   7  240.63    5.12
  -1  -3  -7  236.96    5.04
   2   3   7   65.77    1.63
  -2  -3  -7   61.94    1.55
   3   3   7  109.90    2.51
  -3  -3  -7  107.83    2.48
   4   3   7   72.52    1.76
  -4  -3  -7   71.74    1.76
  -8   4   7   28.77    0.88
   8  -4  -7   31.90    0.96
  -7   4   7   79.24    1.89
   7  -4  -7   80.02    1.91
  -6   4   7   18.47    0.70
   6  -4  -7   16.76    0.65
  -5   4   7  308.93    6.49
   5  -4  -7  312.68    6.57
  -4   4   7  130.42    2.92
   4  -4  -7  130.29    2.92
  -3   4   7  604.44   12.39
   3  -4  -7  601.98   12.37
  -2   4   7  133.06    2.98
   2  -4  -7  135.23    3.03
  -1   4   7  189.66    4.11
   1  -4  -7  191.29    4.14
   0   4   7   14.93    0.62
   0  -4  -7   10.94    0.54
   1   4   7   88.30    2.07
  -1  -4  -7   92.26    2.17
   2   4   7   37.75    1.06
  -2  -4  -7   35.26    1.01
   3   4   7  437.05    9.06
  -3  -4  -7  433.81    9.00
   4   4   7   15.32    0.62
  -4  -4  -7   15.52    0.62
  -7   5   7  102.17    2.35
   7  -5  -7  106.38    2.43
  -6   5   7  159.19    3.49
   6  -5  -7  158.10    3.47
  -5   5   7   35.83    1.03
   5  -5  -7   36.35    1.03
  -4   5   7  222.96    4.79
   4  -5  -7  214.37    4.61
  -3   5   7   30.32    0.93
   3  -5  -7   28.69    0.88
  -2   5   7   10.01    0.52
   2  -5  -7   11.10    0.54
  -1   5   7  292.12    6.16
   1  -5  -7  294.34    6.21
   0   5   7   29.65    0.91
   0  -5  -7   28.95    0.91
   1   5   7  204.95    4.42
  -1  -5  -7  207.46    4.48
   2   5   7   39.89    1.11
  -2  -5  -7   35.52    1.03
   3   5   7    1.35    0.34
  -3  -5  -7    1.42    0.34
  -6   6   7   44.91    1.22
   6  -6  -7   45.09    1.22
  -5   6   7   84.42    1.99
   5  -6  -7   87.37    2.07
  -4   6   7   33.63    0.98
   4  -6  -7   32.13    0.96
  -3   6   7  204.46    4.40
   3  -6  -7  198.64    4.29
  -2   6   7   75.18    1.81
   2  -6  -7   73.14    1.79
  -1   6   7  134.74    3.00
   1  -6  -7  134.79    3.00
   0   6   7   48.43    1.29
   0  -6  -7   51.10    1.35
   1   6   7   47.58    1.27
  -1  -6  -7   51.30    1.35
  -3   7   7   30.06    0.91
   3  -7  -7   33.12    0.98
  -2   7   7   31.80    0.96
   2  -7  -7   32.96    0.98
  -1   7   7   80.59    1.94
   1  -7  -7   80.05    1.91
  -9   0   8  150.39    3.31
  -8   0   8   33.84    0.98
  -7   0   8    2.85    0.36
  -6   0   8  151.27    3.34
  -5   0   8  298.66    6.29
  -4   0   8  547.08   11.25
  -3   0   8  217.48    4.66
  -2   0   8  464.42    9.60
  -1   0   8  312.45    6.57
   0   0   8   31.98    0.96
   1   0   8   15.26    0.62
   2   0   8   17.10    0.65
   3   0   8   73.06    1.79
   4   0   8   63.33    1.58
  -9   1   8   53.37    1.37
   9  -1  -8   53.92    1.40
  -8   1   8  231.78    4.94
   8  -1  -8  228.47    4.89
  -7   1   8  127.88    2.87
   7  -1  -8  131.25    2.95
  -6   1   8   44.16    1.19
   6  -1  -8   44.78    1.22
  -5   1   8  118.10    2.69
   5  -1  -8  121.13    2.74
  -4   1   8   97.51    2.28
   4  -1  -8   92.39    2.17
  -3   1   8   20.70    0.72
   3  -1  -8   17.80    0.67
  -2   1   8  396.59    8.25
   2  -1  -8  382.28    7.97
  -1   1   8  238.95    5.10
   1  -1  -8  240.30    5.12
   0   1   8   84.08    1.99
   0  -1  -8   82.19    1.97
   1   1   8  259.72    5.51
  -1  -1  -8  267.31    5.67
   2   1   8   44.32    1.19
  -2  -1  -8   46.75    1.24
   3   1   8   44.55    1.22
  -3  -1  -8   47.37    1.27
   4   1   8   52.91    1.37
  -4  -1  -8   51.07    1.35
  -9   2   8   37.00    1.06
   9  -2  -8   38.73    1.09
  -8   2   8   27.63    0.88
   8  -2  -8   28.20    0.88
  -7   2   8   48.95    1.29
   7  -2  -8   50.37    1.32
  -6   2   8  238.23    5.07
   6  -2  -8  233.65    4.99
  -5   2   8    0.70    0.34
   5  -2  -8    0.75    0.34
  -4   2   8  139.73    3.10
   4  -2  -8  135.98    3.03
  -3   2   8  242.93    5.17
   3  -2  -8  256.13    5.43
  -2   2   8    9.96    0.52
   2  -2  -8   10.01    0.52
  -1   2   8  199.13    4.29
   1  -2  -8  210.21    4.53
   0   2   8  117.53    2.66
   0  -2  -8  114.79    2.61
   1   2   8   38.08    1.09
  -1  -2  -8   41.16    1.14
   2   2   8  173.93    3.80
  -2  -2  -8  174.40    3.80
   3   2   8    0.10    0.31
  -3  -2  -8    0.10    0.31
   4   2   8   67.84    1.68
  -4  -2  -8   71.97    1.76
  -8   3   8  168.92    3.70
   8  -3  -8  164.85    3.62
  -7   3   8   51.95    1.35
   7  -3  -8   52.62    1.37
  -6   3   8    6.24    0.44
   6  -3  -8    5.82    0.44
  -5   3   8  278.46    5.87
   5  -3  -8  280.32    5.92
  -4   3   8   60.88    1.53
   4  -3  -8   62.09    1.55
  -3   3   8  110.58    2.54
   3  -3  -8  112.70    2.56
  -2   3   8  282.72    5.98
   2  -3  -8  278.04    5.87
  -1   3   8  110.70    2.54
   1  -3  -8  111.38    2.54
   0   3   8  259.93    5.51
   0  -3  -8  263.81    5.59
   1   3   8  132.33    2.98
  -1  -3  -8  133.34    2.98
   2   3   8   89.85    2.12
  -2  -3  -8   91.95    2.15
   3   3   8   83.69    1.99
  -3  -3  -8   86.77    2.04
  -8   4   8   55.80    1.42
   8  -4  -8   55.78    1.42
  -7   4   8   87.78    2.07
   7  -4  -8   86.15    2.04
  -6   4   8   89.62    2.10
   6  -4  -8   85.69    2.02
  -5   4   8    2.56    0.36
   5  -4  -8    2.56    0.36
  -4   4   8   15.47    0.62
   4  -4  -8   12.75    0.57
  -3   4   8  110.06    2.51
   3  -4  -8  113.42    2.59
  -2   4   8   26.83    0.85
   2  -4  -8   25.33    0.83
  -1   4   8  224.23    4.81
   1  -4  -8  220.81    4.73
   0   4   8   44.27    1.19
   0  -4  -8   44.71    1.22
   1   4   8   72.26    1.76
  -1  -4  -8   72.23    1.76
   2   4   8  152.02    3.36
  -2  -4  -8  153.13    3.39
  -7   5   8   38.57    1.09
   7  -5  -8   39.87    1.11
  -6   5   8   24.50    0.80
   6  -5  -8   24.86    0.80
  -5   5   8  171.92    3.75
   5  -5  -8  170.03    3.73
  -4   5   8   64.21    1.60
   4  -5  -8   66.52    1.66
  -3   5   8   56.37    1.45
   3  -5  -8   57.98    1.47
  -2   5   8   59.56    1.50
   2  -5  -8   64.83    1.60
  -1   5   8   42.20    1.16
   1  -5  -8   42.35    1.16
   0   5   8  120.74    2.74
   0  -5  -8  126.38    2.85
   1   5   8  176.86    3.85
  -1  -5  -8  173.39    3.78
  -5   6   8   16.66    0.65
   5  -6  -8   17.26    0.67
  -4   6   8   69.54    1.71
   4  -6  -8   74.43    1.81
  -3   6   8  222.08    4.76
   3  -6  -8  224.23    4.81
  -2   6   8   11.05    0.54
   2  -6  -8   12.06    0.57
  -1   6   8  305.54    6.42
   1  -6  -8  302.52    6.36
   0   6   8   25.61    0.83
   0  -6  -8   24.78    0.80
  -9   0   9   77.46    1.86
  -8   0   9    0.28    0.31
  -7   0   9  188.16    4.09
  -6   0   9    2.54    0.36
  -5   0   9  134.87    3.00
  -4   0   9   59.76    1.50
  -3   0   9    0.65    0.34
  -2   0   9   42.35    1.16
  -1   0   9  421.65    8.74
   0   0   9  158.20    3.49
   1   0   9  345.36    7.22
   2   0   9   94.95    2.22
   3   0   9  171.66    3.75
  -9   1   9   33.56    0.98
   9  -1  -9   35.68    1.03
  -8   1   9   52.13    1.37
   8  -1  -9   49.00    1.29
  -7   1   9    7.79    0.47
   7  -1  -9    8.43    0.49
  -6   1   9  114.27    2.61
   6  -1  -9  110.14    2.51
  -5   1   9   14.57    0.60
   5  -1  -9   15.47    0.62
  -4   1   9   66.08    1.63
   4  -1  -9   66.88    1.66
  -3   1   9  347.84    7.27
   3  -1  -9  348.15    7.27
  -2   1   9   46.26    1.24
   2  -1  -9   46.65    1.24
  -1   1   9   93.24    2.17
   1  -1  -9   96.14    2.25
   0   1   9   71.38    1.73
   0  -1  -9   67.11    1.66
   1   1   9   35.88    1.03
  -1  -1  -9   35.65    1.03
   2   1   9  148.53    3.29
  -2  -1  -9  142.42    3.16
   3   1   9   14.00    0.60
  -3  -1  -9   14.33    0.60
  -8   2   9    4.27    0.41
   8  -2  -9    4.42    0.41
  -7   2   9   68.30    1.68
   7  -2  -9   71.51    1.73
  -6   2   9    2.87    0.36
   6  -2  -9    2.95    0.36
  -5   2   9   78.47    1.89
   5  -2  -9   79.92    1.91
  -4   2   9  104.73    2.41
   4  -2  -9  102.89    2.38
  -3   2   9   51.90    1.35
   3  -2  -9   51.43    1.35
  -2   2   9  141.91    3.16
   2  -2  -9  141.70    3.16
  -1   2   9   23.00    0.78
   1  -2  -9   22.61    0.78
   0   2   9  141.36    3.13
   0  -2  -9  137.92    3.08
   1   2   9   36.12    1.03
  -1  -2  -9   38.55    1.09
   2   2   9   37.88    1.06
  -2  -2  -9   37.31    1.06
  -8   3   9   39.35    1.11
   8  -3  -9   38.39    1.09
  -7   3   9   25.02    0.83
   7  -3  -9   26.03    0.83
  -6   3   9  107.65    2.46
   6  -3  -9  104.68    2.41
  -5   3   9   43.67    1.19
   5  -3  -9   44.24    1.19
  -4   3   9   74.38    1.81
   4  -3  -9   73.32    1.79
  -3   3   9  190.98    4.14
   3  -3  -9  188.32    4.09
  -2   3   9    2.28    0.36
   2  -3  -9    2.17    0.36
  -1   3   9   83.36    1.99
   1  -3  -9   87.29    2.07
   0   3   9  121.57    2.74
   0  -3  -9  120.28    2.72
   1   3   9   32.34    0.96
  -1  -3  -9   32.13    0.96
   2   3   9  128.89    2.90
  -2  -3  -9  124.62    2.82
  -7   4   9   35.63    1.03
   7  -4  -9   35.60    1.03
  -6   4   9   24.27    0.80
   6  -4  -9   24.35    0.80
  -5   4   9   14.80    0.62
   5  -4  -9   15.19    0.62
  -4   4   9   86.85    2.04
   4  -4  -9   82.79    1.97
  -3   4   9   10.76    0.54
   3  -4  -9   10.87    0.54
  -2   4   9  225.91    4.84
   2  -4  -9  224.13    4.79
  -1   4   9   26.00    0.83
   1  -4  -9   24.68    0.80
   0   4   9   89.98    2.12
   0  -4  -9   88.40    2.10
   1   4   9    2.64    0.36
  -1  -4  -9    2.25    0.36
  -5   5   9   33.04    0.98
   5  -5  -9   34.77    1.01
  -4   5   9   76.01    1.84
   4  -5  -9   78.75    1.89
  -3   5   9   54.80    1.42
   3  -5  -9   50.84    1.35
  -2   5   9    4.84    0.41
   2  -5  -9    4.94    0.41
  -1   5   9   87.26    2.07
   1  -5  -9   85.09    2.02
  -8   0  10   11.07    0.54
  -7   0  10    2.77    0.36
  -6   0  10   16.07    0.65
  -5   0  10   77.82    1.86
  -4   0  10   51.79    1.35
  -3   0  10    0.23    0.31
  -2   0  10    3.47    0.39
  -1   0  10   27.86    0.88
   0   0  10   49.70    1.32
   1   0  10   11.62    0.54
  -8   1  10   67.73    1.68
   8  -1 -10   67.50    1.66
  -7   1  10  101.83    2.35
   7  -1 -10  102.55    2.35
  -6   1  10    9.52    0.52
   6  -1 -10   10.12    0.52
  -5   1  10   42.69    1.16
   5  -1 -10   45.53    1.22
  -4   1  10   37.67    1.06
   4  -1 -10   39.66    1.11
  -3   1  10   16.04    0.65
   3  -1 -10   16.58    0.65
  -2   1  10  156.37    3.44
   2  -1 -10  156.03    3.44
  -1   1  10   18.86    0.70
   1  -1 -10   19.30    0.70
   0   1  10   66.67    1.66
   0  -1 -10   67.27    1.66
   1   1  10   59.82    1.50
  -1  -1 -10   62.35    1.55
  -7   2  10   11.25    0.54
   7  -2 -10   11.15    0.54
  -6   2  10   49.47    1.29
   6  -2 -10   48.20    1.27
  -5   2  10   88.92    2.10
   5  -2 -10   87.94    2.07
  -4   2  10   87.06    2.07
   4  -2 -10   84.78    2.02
  -3   2  10   76.79    1.86
   3  -2 -10   80.31    1.91
  -2   2  10    3.21    0.39
   2  -2 -10    3.44    0.39
  -1   2  10  128.84    2.90
   1  -2 -10  128.81    2.90
   0   2  10   36.14    1.03
   0  -2 -10   34.67    1.01
   1   2  10    0.34    0.31
  -1  -2 -10    0.39    0.34
  -7   3  10   35.19    1.01
   7  -3 -10   35.91    1.03
  -6   3  10   26.54    0.85
   6  -3 -10   27.17    0.85
  -5   3  10   73.42    1.79
   5  -3 -10   77.23    1.86
  -4   3  10   19.51    0.70
   4  -3 -10   19.87    0.72
  -3   3  10   13.25    0.57
   3  -3 -10   13.69    0.60
  -2   3  10   48.90    1.29
   2  -3 -10   44.47    1.22
  -1   3  10   47.84    1.27
   1  -3 -10   48.95    1.29
   0   3  10   17.83    0.67
   0  -3 -10   16.40    0.65
  -5   4  10   40.85    1.14
   5  -4 -10   41.21    1.14
  -4   4  10   40.88    1.14
   4  -4 -10   40.83    1.14
  -3   4  10  156.52    3.44
   3  -4 -10  163.69    3.60
  -2   4  10    6.13    0.44
   2  -4 -10    5.80    0.44
  -1   4  10   56.04    1.45
   1  -4 -10   57.28    1.45
  -6   0  11   31.87    0.96
  -5   0  11   29.16    0.91
  -4   0  11  142.89    3.18
  -3   0  11    3.34    0.39
  -2   0  11  123.05    2.77
  -1   0  11    0.05    0.31
  -6   1  11   77.41    1.86
   6  -1 -11   77.38    1.86
  -5   1  11   32.42    0.96
   5  -1 -11   32.03    0.96
  -4   1  11    6.05    0.44
   4  -1 -11    5.85    0.44
  -3   1  11  141.36    3.13
   3  -1 -11  139.09    3.10
  -2   1  11   23.83    0.80
   2  -1 -11   25.02    0.83
  -1   1  11   15.91    0.65
   1  -1 -11   14.98    0.62
  -5   2  11   42.69    1.16
   5  -2 -11   42.35    1.16
  -4   2  11   45.38    1.22
   4  -2 -11   42.77    1.16
  -3   2  11   12.13    0.57
   3  -2 -11   12.08    0.57
  -2   2  11   34.51    1.01
   2  -2 -11   34.07    1.01
   0   0   0    0.00    0.00

_computing_structure_solution     'SHELXT 2014/5 (Sheldrick, 2014)'
;
_shelx_hkl_checksum              41184
_shelx_shelxl_version_number     2014/7
_olex2_submission_special_instructions 'No special instructions were received'
loop_
_space_group_symop_operation_xyz
'x, y, z'
'-x, y+1/2, -z'
loop_
_atom_site_label
_atom_site_type_symbol
_atom_site_fract_x
_atom_site_fract_y
_atom_site_fract_z
_atom_site_U_iso_or_equiv
_atom_site_adp_type
_atom_site_occupancy
_atom_site_site_symmetry_order
_atom_site_calc_flag
_atom_site_refinement_flags_posn
Cl01 Cl 0.19131(2) 0.67224(2) 0.71010(2) 0.02280(9) Uani 1 1 d .
O002 O 0.68677(10) 0.52030(12) 0.88023(9) 0.02251(16) Uani 1 1 d .
O003 O 0.67924(12) 0.77655(13) 0.71804(11) 0.0281(2) Uani 1 1 d .
O004 O 0.37479(10) 0.28270(12) 0.69696(9) 0.02508(18) Uani 1 1 d .
H004 H 0.3247 0.1843 0.6468 0.038 Uiso 1 1 calc GR
N005 N 0.79964(11) 0.50396(13) 0.52918(9) 0.01872(17) Uani 1 1 d .
H00A H 0.8067 0.4061 0.4649 0.022 Uiso 1 1 calc GR
H00B H 0.9102 0.5357 0.5972 0.022 Uiso 1 1 calc GR
H00C H 0.7484 0.6082 0.4688 0.022 Uiso 1 1 calc GR
C006 C 0.68466(13) 0.60076(15) 0.74154(15) 0.0202(2) Uani 1 1 d .
C007 C 0.69174(14) 0.30354(15) 0.87221(12) 0.0208(2) Uani 1 1 d .
H007 H 0.7804 0.2526 0.9740 0.025 Uiso 1 1 calc R
C008 C 0.50637(15) 0.22572(16) 0.85058(13) 0.0251(2) Uani 1 1 d .
H00D H 0.5108 0.0832 0.8582 0.030 Uiso 1 1 calc R
H00E H 0.4709 0.2758 0.9371 0.030 Uiso 1 1 calc R
C009 C 0.75530(13) 0.25651(15) 0.73101(12) 0.01913(19) Uani 1 1 d .
H009 H 0.6925 0.1394 0.6724 0.023 Uiso 1 1 calc R
C00A C 0.68897(12) 0.44055(15) 0.62366(11) 0.01643(17) Uani 1 1 d .
H00F H 0.5651 0.4167 0.5478 0.020 Uiso 1 1 calc R
C00B C 0.96040(15) 0.22437(18) 0.79260(16) 0.0306(3) Uani 1 1 d .
H00G H 1.0211 0.3414 0.8463 0.046 Uiso 1 1 calc GR
H00H H 0.9958 0.1953 0.7023 0.046 Uiso 1 1 calc GR
H00I H 0.9927 0.1162 0.8678 0.046 Uiso 1 1 calc GR
loop_
_atom_site_aniso_label
_atom_site_aniso_U_11
_atom_site_aniso_U_22
_atom_site_aniso_U_33
_atom_site_aniso_U_23
_atom_site_aniso_U_13
_atom_site_aniso_U_12
Cl01 0.02336(13) 0.01168(14) 0.02888(13) 0.00113(7) 0.00437(9) -0.00101(8)
O002 0.0281(3) 0.0075(4) 0.0286(3) -0.0039(3) 0.0065(3) -0.0047(3)
O003 0.0353(5) 0.0068(4) 0.0431(5) -0.0021(3) 0.0153(4) -0.0004(3)
O004 0.0214(4) 0.0148(4) 0.0331(4) -0.0084(3) 0.0031(3) -0.0028(3)
N005 0.0175(3) 0.0075(4) 0.0272(4) 0.0016(3) 0.0035(3) 0.0000(3)
C006 0.0173(5) 0.0091(5) 0.0304(4) 0.0007(4) 0.0043(4) -0.0003(3)
C007 0.0261(4) 0.0052(4) 0.0277(5) 0.0038(3) 0.0059(3) 0.0011(3)
C008 0.0283(4) 0.0133(5) 0.0325(5) 0.0005(3) 0.0099(4) -0.0033(4)
C009 0.0205(5) 0.0063(4) 0.0264(4) 0.0036(3) 0.0038(4) 0.0015(3)
C00A 0.0163(4) 0.0043(4) 0.0240(4) 0.0018(3) 0.0019(3) -0.0004(3)
C00B 0.0219(4) 0.0226(6) 0.0457(6) 0.0167(4) 0.0103(4) 0.0099(4)
loop_
_atom_type_symbol
_atom_type_description
_atom_type_scat_dispersion_real
_atom_type_scat_dispersion_imag
_atom_type_scat_source
C C 0.0033 0.0016 'International Tables Vol C Tables 4.2.6.8 and 6.1.1.4'
H H 0.0000 0.0000 'International Tables Vol C Tables 4.2.6.8 and 6.1.1.4'
N N 0.0061 0.0033 'International Tables Vol C Tables 4.2.6.8 and 6.1.1.4'
O O 0.0106 0.0060 'International Tables Vol C Tables 4.2.6.8 and 6.1.1.4'
Cl Cl 0.1484 0.1585 'International Tables Vol C Tables 4.2.6.8 and 6.1.1.4'
loop_
_geom_angle_atom_site_label_1
_geom_angle_atom_site_label_2
_geom_angle_atom_site_label_3
_geom_angle
C006 O002 C007 110.80(8)
C008 O004 H004 109.5
H00A N005 H00B 109.5
H00A N005 H00C 109.5
H00B N005 H00C 109.5
C00A N005 H00A 109.5
C00A N005 H00B 109.5
C00A N005 H00C 109.5
O002 C006 C00A 109.98(9)
O003 C006 O002 123.26(12)
O003 C006 C00A 126.76(13)
O002 C007 H007 109.3
O002 C007 C008 108.25(8)
O002 C007 C009 105.55(8)
C008 C007 H007 109.3
C008 C007 C009 114.84(9)
C009 C007 H007 109.3
O004 C008 C007 111.36(9)
O004 C008 H00D 109.4
O004 C008 H00E 109.4
C007 C008 H00D 109.4
C007 C008 H00E 109.4
H00D C008 H00E 108.0
C007 C009 H009 109.9
C00A C009 C007 101.02(8)
C00A C009 H009 109.9
C00B C009 C007 111.37(9)
C00B C009 H009 109.9
C00B C009 C00A 114.37(8)
N005 C00A C006 110.33(8)
N005 C00A C009 116.32(8)
N005 C00A H00F 108.5
C006 C00A C009 104.34(8)
C006 C00A H00F 108.5
C009 C00A H00F 108.5
C009 C00B H00G 109.5
C009 C00B H00H 109.5
C009 C00B H00I 109.5
H00G C00B H00H 109.5
H00G C00B H00I 109.5
H00H C00B H00I 109.5
loop_
_geom_bond_atom_site_label_1
_geom_bond_atom_site_label_2
_geom_bond_distance
O002 C006 1.3374(15)
O002 C007 1.4752(13)
O003 C006 1.2100(13)
O004 H004 0.8200
O004 C008 1.4297(15)
N005 H00A 0.8900
N005 H00B 0.8900
N005 H00C 0.8900
N005 C00A 1.4831(13)
C006 C00A 1.5161(15)
C007 H007 0.9800
C007 C008 1.5102(15)
C007 C009 1.5434(14)
C008 H00D 0.9700
C008 H00E 0.9700
C009 H009 0.9800
C009 C00A 1.5405(13)
C009 C00B 1.5329(15)
C00A H00F 0.9800
C00B H00G 0.9600
C00B H00H 0.9600
C00B H00I 0.9600
