#------------------------------------------------------------------------------
#$Date: 2019-11-02 05:54:41 +0200 (Sat, 02 Nov 2019) $
#$Revision: 220760 $
#$URL: file:///home/coder/svn-repositories/cod/cif/4/12/74/4127491.cif $
#------------------------------------------------------------------------------
#
# This file is available in the Crystallography Open Database (COD),
# http://www.crystallography.net/
#
# All data on this site have been placed in the public domain by the
# contributors.
#
data_4127491
loop_
_publ_author_name
'Ai, Yong'
'Chen, Xiao-Gang'
'Shi, Ping-Ping'
'Tang, Yuan-Yuan'
'Li, Peng-Fei'
'Liao, Wei-Qiang'
'Xiong, Ren-Gen'
_publ_section_title
;
 Fluorine Substitution Induced High T<sub>c</sub> of Enantiomeric
 Perovskite Ferroelectrics: ( R) - and ( S)
 -3-(Fluoropyrrolidinium)MnCl<sub>3</sub>.
;
_journal_issue                   10
_journal_name_full               'Journal of the American Chemical Society'
_journal_page_first              4474
_journal_page_last               4479
_journal_paper_doi               10.1021/jacs.9b00886
_journal_volume                  141
_journal_year                    2019
_chemical_formula_moiety         'Cl3 Mn, C4 H9 F N '
_chemical_formula_sum            'C4 H9 Cl3 F Mn N'
_chemical_formula_weight         251.41
_space_group_crystal_system      orthorhombic
_space_group_IT_number           20
_space_group_name_Hall           'C 2c 2'
_space_group_name_H-M_alt        'C 2 2 21'
_symmetry_space_group_name_Hall  'C 2c 2'
_symmetry_space_group_name_H-M   'C 2 2 21'
_atom_sites_solution_hydrogens   difmap
_audit_creation_method           SHELXL-2014/7
_cell_angle_alpha                90
_cell_angle_beta                 90
_cell_angle_gamma                90
_cell_formula_units_Z            4
_cell_length_a                   7.6727(5)
_cell_length_b                   17.7337(11)
_cell_length_c                   6.5009(3)
_cell_measurement_reflns_used    1585
_cell_measurement_temperature    363(2)
_cell_measurement_theta_max      30.8910
_cell_measurement_theta_min      2.8980
_cell_volume                     884.55(9)
_computing_structure_refinement  'SHELXL-2014/7 (Sheldrick, 2014)'
_diffrn_ambient_temperature      363(2)
_diffrn_measured_fraction_theta_full 0.998
_diffrn_measured_fraction_theta_max 0.822
_diffrn_measurement_device_type  'XtaLAB Synergy R, DW system, HyPix'
_diffrn_radiation_type           MoK\a
_diffrn_radiation_wavelength     0.71073
_diffrn_reflns_av_R_equivalents  0.0130
_diffrn_reflns_av_unetI/netI     0.0168
_diffrn_reflns_Laue_measured_fraction_full 0.998
_diffrn_reflns_Laue_measured_fraction_max 0.822
_diffrn_reflns_limit_h_max       11
_diffrn_reflns_limit_h_min       -9
_diffrn_reflns_limit_k_max       26
_diffrn_reflns_limit_k_min       -19
_diffrn_reflns_limit_l_max       9
_diffrn_reflns_limit_l_min       -7
_diffrn_reflns_number            2722
_diffrn_reflns_point_group_measured_fraction_full 0.999
_diffrn_reflns_point_group_measured_fraction_max 0.821
_diffrn_reflns_theta_full        25.242
_diffrn_reflns_theta_max         31.600
_diffrn_reflns_theta_min         2.893
_exptl_absorpt_coefficient_mu    2.341
_exptl_absorpt_correction_T_max  0.557
_exptl_absorpt_correction_T_min  0.5
_exptl_absorpt_correction_type   multi-scan
_exptl_absorpt_process_details
;
CrysAlisPro 1.171.40.14e (Rigaku Oxford Diffraction, 2018)
Empirical absorption correction using spherical harmonics,
 implemented in SCALE3 ABSPACK scaling algorithm.
;
_exptl_crystal_colour            red
_exptl_crystal_density_diffrn    1.888
_exptl_crystal_description       needle
_exptl_crystal_F_000             500
_exptl_crystal_size_max          0.3
_exptl_crystal_size_mid          0.28
_exptl_crystal_size_min          0.25
_refine_diff_density_max         0.800
_refine_diff_density_min         -0.692
_refine_diff_density_rms         0.097
_refine_ls_abs_structure_details
;
 Refined as an inversion twin.
;
_refine_ls_abs_structure_Flack   0.41(12)
_refine_ls_extinction_method     none
_refine_ls_goodness_of_fit_ref   1.102
_refine_ls_hydrogen_treatment    constr
_refine_ls_matrix_type           full
_refine_ls_number_parameters     39
_refine_ls_number_reflns         1148
_refine_ls_number_restraints     63
_refine_ls_restrained_S_all      1.173
_refine_ls_R_factor_all          0.0563
_refine_ls_R_factor_gt           0.0453
_refine_ls_shift/su_max          0.001
_refine_ls_shift/su_mean         0.000
_refine_ls_structure_factor_coef Fsqd
_refine_ls_weighting_details
'w=1/[\s^2^(Fo^2^)+(0.0763P)^2^+1.5844P] where P=(Fo^2^+2Fc^2^)/3'
_refine_ls_weighting_scheme      calc
_refine_ls_wR_factor_gt          0.1330
_refine_ls_wR_factor_ref         0.1418
_reflns_Friedel_coverage         0.706
_reflns_Friedel_fraction_full    1.000
_reflns_Friedel_fraction_max     0.819
_reflns_number_gt                922
_reflns_number_total             1490
_reflns_threshold_expression     'I > 2\s(I)'
_cod_data_source_file            ja9b00886_si_003.cif
_cod_data_source_block           C2221
_cod_depositor_comments
;
The following automatic conversions were performed:

'_exptl_absorpt_correction_type' value 'Multi-scan' changed to
'multi-scan' according to
/home/data/users/saulius/crontab/automatic-downloads/current/ACS/lib/dictionaries/cif_core.dic
dictionary named 'cif_core.dic' version 2.4.2 from 2011-04-26.

Automatic conversion script
Id: cif_fix_values 4973 2017-02-22 13:04:09Z antanas 
;
_cod_database_code               4127491
_shelx_shelxl_version_number     2014/7
_shelx_space_group_comment
;
The symmetry employed for this shelxl refinement is uniquely defined
by the following loop, which should always be used as a source of
symmetry information in preference to the above space-group names.
They are only intended as comments.
;
_shelx_res_file
;

    C2221.res created by SHELXL-2014/7


TITL C2221 in C222(1)
CELL 0.71073   7.6727  17.7337   6.5009  90.000  90.000  90.000
ZERR    4.00   0.0005   0.0011   0.0003   0.000   0.000   0.000
LATT -7
SYMM -X, -Y, 0.5+Z
SYMM -X, Y, 0.5-Z
SYMM X, -Y, -Z
SFAC C  H  N  F  Cl Mn
UNIT 16 36 4 4 12 4
L.S. 200
ACTA
BOND
FMAP 2
PLAN 6
TWIN
DFIX 2.530 0.002 Mn1 Cl2
DFIX 2.565 0.002 Mn1 Cl1
DFIX 3.366 0.002 Cl1 Cl2
ISOR N1 C1
DELU 0.002 N1 C1
SIMU 0.002 N1 C1
ISOR F1 C3 C2 C1
DELU 0.002 F1 C3 C2 C1
SIMU 0.002 F1 C3 C2 C1
DFIX 1.55 0.002 F1 C3
EADP C1 C2 C3 N1 F1
EXYZ N1 C1
WGHT    0.076300    1.584400
BASF   0.40674
FVAR       0.61883
MN1   6   -0.000262    0.000000    0.000000    10.50000    0.04580    0.05697 =
         0.02386   -0.00049    0.00000    0.00000
CL1   5    0.226214    0.051764    0.252568    11.00000    0.05951    0.08124 =
         0.03596   -0.00528    0.00562   -0.02390
CL2   5    0.000000   -0.111426    0.250000    10.50000    0.08764    0.04774 =
         0.03794    0.00000   -0.00136    0.00000
C1    1   -0.000827    0.382642    0.146997    10.50000    0.12817    0.10494 =
         0.11076    0.00691   -0.03072    0.01495
AFIX   3
H1A   2   -0.108167    0.408682    0.120277    10.50000   -1.20000
H1B   2    0.090923    0.410832    0.082437    10.50000   -1.20000
AFIX   0
C2    1   -0.028065    0.310744    0.060534    11.00000    0.12817    0.10494 =
         0.11076    0.00691   -0.03072    0.01495
AFIX   3
H2A   2   -0.145505    0.300775    0.017484    11.00000   -1.20000
H2B   2    0.045305    0.309905   -0.059066    11.00000   -1.20000
AFIX   0
C3    1    0.014082    0.260661    0.179005    10.50000    0.12817    0.10494 =
         0.11076    0.00691   -0.03072    0.01495
AFIX   3
H3A   2   -0.023798    0.213611    0.121235    10.50000   -1.20000
AFIX   0
F1    4    0.183285    0.246145    0.303199    10.50000    0.12817    0.10494 =
         0.11076    0.00691   -0.03072    0.01495
N1    3   -0.000827    0.382642    0.146997    10.50000    0.12817    0.10494 =
         0.11076    0.00691   -0.03072    0.01495
AFIX   3
H1C   2    0.069125    0.413283    0.084479    10.50000   -1.20000
H1D   2   -0.117525    0.411263    0.119959    10.50000   -1.20000

AFIX   0
HKLF 4

REM  C2221 in C222(1)
REM R1 =  0.0453 for     922 Fo > 4sig(Fo)  and  0.0563 for all    1148 data
REM     39 parameters refined using     63 restraints

END

WGHT      0.0747      1.5109

REM Highest difference peak  0.800,  deepest hole -0.692,  1-sigma level  0.097
Q1    1  -0.0027  0.2769  0.1241  11.00000  0.05    0.80
Q2    1   0.0265  0.3482  0.0726  11.00000  0.05    0.34
Q3    1   0.0000  0.1179  0.2500  10.50000  0.05    0.28
Q4    1   0.1925  0.2620  0.0924  11.00000  0.05    0.27
Q5    1   0.1960  0.2634  0.4131  11.00000  0.05    0.27
Q6    1   0.0000  0.3900  0.2500  10.50000  0.05    0.26
;
_shelx_res_checksum              66013
_shelx_hkl_file
;
   0   0   1   -0.13    0.41
   0   0   1    0.35    0.54
   0   0   2 2525.77   23.39
   0   0   2 2477.81   24.61
   0   0  -3   -1.72    1.85
   0   0   3    1.50    1.48
   0   0  -4 6648.94   61.64
   0   0  -5    2.24    3.30
   0   0  -6   97.42    6.44
   0   0  -7    0.38    3.37
   0   0   8  838.28   18.45
   0  -2   1  489.11    6.06
   0   2   1  501.12    7.31
   0  -2  -1  490.04    7.20
   0   2  -1  506.39    6.05
   0   2   1  487.03    7.28
   0   2   2   10.41    1.90
   0   2   2   10.05    1.86
   0  -2  -2    8.70    1.74
   0  -2   2   11.08    1.28
   0   2  -2   11.66    1.62
   0   2   3  311.61    8.29
   0  -2  -3  299.97    8.01
   0   2   3  300.68    7.83
   0   2  -3  328.77    7.34
   0  -2  -4 3851.56   41.53
   0   2  -4 3851.12   39.21
   0  -2   5   25.08    3.02
   0  -2  -5   25.37    4.05
   0   2  -6    1.82    3.01
   0  -2   6    2.64    2.27
   0  -2  -6    1.46    3.69
   0   2  -7    2.82    3.24
   0  -2   7    2.21    2.81
   0  -2   8  434.00   12.96
   0  -4   0 1923.41   18.66
   0   4   1 3044.68   29.52
   0  -4   1 3031.14   24.57
   0   4  -1 3000.54   26.40
   0  -4  -1 3063.25   28.76
   0  -4  -1 3045.77   29.05
   0  -4   1 3022.37   26.46
   0  -4   2 2347.22   22.76
   0  -4  -2 2378.76   25.93
   0   4   2 2314.72   26.28
   0   4  -2 2375.35   22.63
   0   4   3  691.69   13.41
   0   4   3  712.04   13.86
   0  -4  -3  719.34   12.80
   0  -4   3  681.90   10.69
   0   4  -3  705.27   10.60
   0  -4  -4  800.51   15.87
   0   4  -4  780.54   12.89
   0   4   4  817.57   16.42
   0  -4   4  775.37   12.71
   0   4   4  753.33   15.33
   0  -4   5  482.50   10.86
   0  -4  -5  483.64   13.25
   0   4  -5  464.07   10.89
   0  -4  -6  485.20   14.15
   0  -4   6  485.07   11.92
   0   4  -6  465.95   11.80
   0   4  -7  118.70    6.62
   0  -4   7  116.10    6.56
   0  -4   8   76.45    6.13
   0  -6   0   99.44    3.67
   0   6   0  103.79    3.38
   0   6   0  105.42    4.05
   0  -6  -1 6256.73   54.36
   0  -6  -1 6172.77   55.25
   0   6  -1 6236.41   51.56
   0  -6   1 6208.58   50.40
   0   6  -2 7014.74   58.54
   0  -6  -2 7028.10   62.89
   0   6   2 7078.66   64.43
   0  -6   2 6969.04   58.83
   0  -6  -3 2496.32   30.24
   0   6  -3 2534.12   24.47
   0   6  -3 2585.30   26.38
   0  -6   3 2524.31   26.87
   0   6   3 2594.20   32.16
   0   6   3 2588.22   31.94
   0  -6  -3 2539.30   31.08
   0   6   4  119.38    6.59
   0   6   4  123.69    7.22
   0   6  -4  122.25    4.71
   0  -6   4  106.64    4.77
   0  -6   5  744.88   14.12
   0   6   5  755.62   18.28
   0  -6  -5  770.35   17.46
   0   6  -5  761.22   13.40
   0  -6   6  625.02   13.90
   0   6  -6  617.05   12.91
   0   6  -7  303.97    9.75
   0  -6   7  313.26   10.36
   0  -6   8   12.97    3.91
   0   8   0 1341.53   17.98
   0  -8   0 1329.00   17.34
   0   8   0 1318.82   16.07
   0   8   1 1720.83   21.26
   0  -8  -1 1702.97   21.98
   0   8  -1 1694.46   18.90
   0   8   2 1014.82   17.91
   0  -8  -2 1014.69   16.87
   0   8  -2 1022.50   13.96
   0  -8   2 1011.81   14.16
   0  -8  -2 1017.27   17.06
   0  -8   3  550.97   10.48
   0   8  -3  534.74   10.08
   0   8   3  553.24   13.85
   0  -8  -3  564.63   13.27
   0   8   4  105.31    7.03
   0  -8  -4  109.22    6.88
   0   8  -4   94.06    3.86
   0  -8   4  106.07    5.10
   0  -8   5  156.76    6.53
   0   8  -5  156.26    5.56
   0   8   5  165.67    9.15
   0  -8   6  463.60   12.00
   0   8  -6  500.02   10.73
   0   8  -7   82.13    5.13
   0  -8   7   85.00    5.90
   0 -10   0  174.25    6.20
   0  10   0  173.43    5.53
   0  10   1  482.39   10.76
   0  10   1  496.61    4.77
   0  10  -1  487.72    8.41
   0  10  -1  481.56    9.24
   0  10   1  472.48   11.89
   0 -10  -2 2022.25   27.41
   0  10  -2 1992.43   23.09
   0  10   2 2021.63   27.15
   0  10  -3  136.71    5.34
   0  10   3  126.19    7.47
   0 -10   3  121.70    5.24
   0 -10  -4   51.02    5.39
   0  10  -4   63.57    4.29
   0 -10   4   50.83    3.98
   0  10  -4   53.89    2.91
   0  10   5   21.59    4.89
   0 -10   5   14.89    3.02
   0  10  -5   17.03    2.33
   0 -10   6  332.20   10.44
   0  10  -6  343.20    8.01
   0 -10   7   23.14    4.06
   0  12   0   -0.40    2.02
   0  12  -1  786.45   13.17
   0  12  -1  799.56   12.29
   0  12  -2 1478.58   16.64
   0  12  -2 1513.48   20.09
   0  12   2 1537.29   23.99
   0  12  -3  437.65   10.20
   0  12   3  430.96   13.17
   0 -12   3  420.61   10.21
   0 -12   4    3.14    2.50
   0  12  -4    5.62    2.45
   0  12  -4    6.06    1.47
   0  12  -5  219.01    4.76
   0 -12   5  214.23    8.21
   0  12  -6  360.39    6.86
   0 -12   6  377.57   11.37
   0 -12   7   55.24    5.47
   0  14   0    3.93    2.52
   0  14  -1   81.71    4.26
   0  14   1   75.81    5.44
   0  14  -1   82.44    4.64
   0  14  -2  799.52   14.39
   0  14   2  832.91   17.95
   0  14   2  821.46    8.09
   0 -14   2  820.42    8.35
   0  14  -3   84.06    4.95
   0  14  -3   73.00    2.67
   0  14   3   90.70    6.95
   0  14   4    7.12    4.20
   0 -14   5   36.86    4.18
   0  14   5   51.27    6.75
   0 -14   6  155.72    7.70
   0  16   0  519.00   12.15
   0  16   0  539.40   11.80
   0  16   1    2.23    3.16
   0  16  -1    2.46    2.33
   0  16  -1    0.24    2.39
   0  16   2   11.51    3.90
   0  16  -2   11.17    2.17
   0  16   3   -0.34    0.89
   0 -16   3   -0.36    0.96
   0  16   3   -0.45    3.89
   0  16  -3   -1.63    1.34
   0  16   4  192.11   10.48
   0  16   5    5.07    4.88
   0 -16   6    4.39    3.35
   0  18   0  523.13   12.76
   0  18   1   20.70    4.35
   0  18  -1   18.98    3.15
   0  18  -2   17.89    2.52
   0  18   2   19.80    4.67
   0  18  -3    5.46    1.17
   0 -18   3    5.75    0.82
   0  18   3    7.63    4.63
   0  18   4  252.95   12.21
   0  18   5    5.98    5.42
   0  20   0  119.19    6.69
   0  20   1   19.32    4.17
   0  20  -1   14.17    3.11
   0  20   2    0.44    3.96
   0  20  -2   -1.12    2.08
   0  20   3   14.61    5.27
   0  20   4   72.93    8.06
   0  22   0   -1.63    3.60
   0  22  -1    2.71    3.12
   0  22   1    0.39    4.07
   0  22   2   35.08    5.96
   0  22   3    8.90    5.84
   0  24   1   35.90    5.69
   0  24   2   23.68    5.90
   1   1   0 3900.75   30.50
  -1   1   0 3940.43   30.52
   1  -1   1  484.03    5.64
   1   1   2  301.57    6.56
   1  -1   2  256.82    5.45
   1   1   3  456.82    9.69
   1  -1   3  440.51    8.90
   1  -1  -3  455.71    9.02
  -1   1  -3  460.04    8.76
   1   1   3  448.67    8.94
  -1  -1  -3  447.86    9.50
   1   1  -3  432.12    9.31
   1  -1  -3  434.10    9.91
   1   1  -3  450.30    7.89
   1   1   4 2941.34   32.62
   1  -1   4 3042.10   33.10
   1  -1   4 2970.68   30.54
   1   1  -4 3019.00   29.69
  -1   1  -4 2884.17   32.30
   1   1   4 3010.81   34.56
   1   1  -4 2973.34   33.83
   1  -1  -4 2953.75   34.85
  -1  -1  -4 2992.30   33.90
   1  -1  -4 2966.42   31.62
   1  -1   5   75.18    4.56
  -1   1  -5   74.71    4.95
   1   1   5   79.11    5.70
  -1  -1  -5   76.06    5.54
   1   1  -5   62.40    5.15
   1  -1  -5   65.40    5.46
   1  -1  -5   77.67    4.67
   1   1   5   63.20    4.91
   1  -1  -6   68.76    5.83
   1   1  -6   71.16    5.71
  -1   1  -6   79.91    5.54
  -1  -1  -6   75.15    5.89
   1  -1   7   14.76    3.35
   1  -1   8  269.02   10.24
   1   3   0 6136.33   46.88
  -1   3   0 6159.69   46.85
   1  -3   1  615.79    7.43
   1  -3  -1  618.67    9.29
   1   3  -1  603.22    7.41
   1   3   1  601.16    6.78
   1  -3   2 4220.78   36.10
   1  -3   2 4196.14   34.56
   1   3   2 4210.45   39.95
  -1  -3  -3  247.15    7.48
  -1   3  -3  236.34    5.53
   1   3  -3  229.90    4.50
   1  -3  -3  236.29    7.20
   1  -3   3  240.50    5.80
   1   3   3  247.87    7.27
   1   3   3  236.14    7.43
   1  -3  -4  435.42   11.60
   1  -3  -4  470.58   10.73
   1   3   4  443.03   11.64
  -1  -3  -4  442.72   11.34
   1   3   4  444.81   11.08
   1   3  -4  419.87   10.14
   1  -3   4  432.36    7.79
   1  -3   4  436.84    9.11
   1   3  -4  438.62    7.09
  -1   3  -4  447.54    9.24
   1  -3  -5   84.23    6.40
   1  -3   5   83.65    4.04
   1   3   5   88.94    6.35
   1   3   5   91.26    6.10
   1   3  -5   97.39    5.87
   1  -3  -5   79.92    5.31
  -1   3  -5   77.88    4.75
  -1  -3  -5   81.19    6.05
   1  -3   5   88.44    4.76
   1   3  -6  443.00   12.24
  -1   3  -6  480.96   11.90
   1  -3   6  458.33   11.50
   1  -3  -6  451.56   13.72
   1   3   6  468.12   13.28
   1   3  -7   10.99    3.69
   1  -3   7    7.94    3.10
   1  -3   8   77.64    5.95
  -1   5   0  216.12    2.86
  -1  -5   0  219.05    2.91
   1  -5   0  208.83    4.33
   1  -5   1  615.43    8.37
   1  -5  -1  596.64    9.79
   1   5  -1  615.91    8.36
   1   5   1  602.62    6.76
   1  -5   1  618.18    6.79
   1   5   2 2891.78   32.12
   1  -5   2 2944.97   27.95
   1   5  -2 2956.64   27.70
   1  -5  -2 2991.81   31.58
   1   5   2 3005.44   32.12
   1   5   3  324.99    9.55
   1  -5   3  342.86    7.45
  -1   5  -3  345.76    5.88
   1  -5  -3  359.80    9.82
   1  -5  -3  340.05    9.43
   1   5   3  355.31    9.67
  -1   5  -4   84.50    3.74
   1   5   4   94.63    5.90
   1  -5   4   99.33    4.62
   1   5   4   84.84    5.78
   1  -5   4   97.44    2.73
   1  -5  -4   84.32    5.46
   1   5   5   53.40    5.86
  -1   5  -5   47.57    3.67
   1  -5  -5   48.13    4.79
   1  -5   5   52.91    4.04
   1   5   5   42.11    5.05
   1  -5  -5   47.96    5.54
   1   5  -5   55.95    4.82
  -1   5  -6  716.58   13.77
   1   5   6  730.97   17.69
   1  -5   6  719.81   14.88
   1   5   6  702.87   18.13
   1   5  -6  710.65   14.91
   1  -5   7   16.93    3.49
   1   5  -7   14.46    3.79
   1  -5   8   31.21    4.66
  -1   7   0 1740.87   14.29
  -1  -7   0 1741.51   14.40
   1  -7   0 1743.33   21.14
   1   7   0 1746.04   20.32
  -1   7   0 1736.85   18.27
   1  -7   0 1760.16   18.27
  -1   7   1   96.64    4.20
   1   7   1  106.23    2.27
   1  -7   1  105.07    2.24
   1  -7  -1  112.01    4.38
   1   7  -1  109.73    3.62
   1   7  -1  106.50    3.62
   1  -7  -1  104.90    5.15
   1   7   2 1378.85   20.77
   1  -7  -2 1400.22   19.85
   1  -7   2 1445.07   17.16
   1  -7  -2 1407.54   21.09
   1   7  -2 1419.55   16.95
   1   7  -2 1419.21   14.10
   1   7   3  252.23    9.01
   1  -7   3  266.93    6.90
   1   7  -3  270.29    6.72
   1  -7  -3  244.28    8.58
   1   7   3  264.78    9.19
   1  -7  -4  573.52   13.92
   1  -7  -4  602.73   14.50
   1   7   4  607.62   15.19
  -1   7  -4  570.41    8.59
   1   7   4  593.90   14.97
   1  -7   4  583.60   11.44
   1   7   5  271.08   11.28
   1   7   5  258.63   10.91
   1   7  -5  255.12    7.95
   1  -7  -5  256.02    9.78
  -1   7  -5  275.42    6.71
   1  -7   5  256.93    8.17
   1   7  -6  233.45    8.11
   1   7   6  258.00   11.60
   1   7   6  227.92   10.70
   1  -7   6  236.22    8.55
   1   7  -7   41.57    4.61
   1  -7   7   46.40    4.76
   1  -7   8   69.95    5.91
  -1   9   0 1248.33   15.67
   1  -9   0 1269.09   18.52
   1   9   0 1280.66   18.06
   1   9   1   17.41    0.98
   1  -9   1   18.09    2.51
  -1   9   1   17.80    2.64
  -1   9  -1   21.83    1.54
   1   9  -1   18.88    2.33
   1   9  -1   18.95    2.09
   1   9   1   13.44    2.54
   1  -9  -1   18.40    2.52
   1  -9   1   16.61    0.93
   1  -9  -1   19.30    3.18
  -1   9   2  442.36   10.97
   1  -9  -2  448.17   11.79
   1   9  -2  425.88    7.37
   1  -9   2  439.35    8.89
   1   9  -2  435.35    8.76
   1  -9   2  420.86    7.74
   1  -9  -2  422.21   10.63
   1   9   3    2.10    3.17
   1  -9   3   -0.19    1.68
   1  -9   3    0.27    0.97
   1   9  -3    1.43    1.83
   1  -9  -3    0.30    2.71
   1   9   4 1043.32   21.36
   1  -9  -4 1103.25   20.92
   1   9   4 1075.24   22.11
   1  -9  -4 1067.87   20.46
   1  -9   4 1051.38   16.90
   1   9  -5    9.27    2.71
   1  -9  -5    0.41    3.61
   1   9   5    8.81    4.01
   1  -9  -5    0.75    3.44
   1   9   5   11.22    4.34
   1  -9   5    9.12    2.59
   1  -9   6   48.38    4.52
   1   9  -6   38.25    3.91
   1   9   6   43.80    6.30
   1   9  -7    4.34    2.90
   1  -9   7   -1.75    3.04
  -1  11   0  603.94   10.74
   1 -11   0  590.63   12.75
   1  11   0  596.77   12.82
  -1  11   1  277.04    8.25
   1 -11  -1  259.53    9.00
   1  11  -1  253.63    6.91
   1 -11   1  250.51    7.55
   1 -11   1  264.31    3.36
  -1  11  -1  249.81    5.38
   1  11   1  245.32    8.23
  -1  11   1  255.29    3.21
  -1 -11   1  257.15    3.45
   1  11   1  252.78    8.96
   1  11   1  261.93    3.34
   1  11  -1  246.45    7.42
   1  11  -2  408.86    8.32
   1  11   2  385.88   11.27
   1 -11   2  414.37    5.97
   1  11   2  401.28    5.78
   1 -11  -2  428.78   11.26
   1  11  -2  420.99    9.25
  -1  11   2  411.14   11.31
   1 -11  -2  433.66   12.29
   1 -11   2  413.38    8.34
   1  11  -3  263.77    7.68
  -1  11   3  267.11   10.08
   1 -11  -3  303.44   10.95
   1  11   3  236.94   10.44
   1 -11   3  248.79    7.65
   1 -11  -3  285.65   10.18
  -1  11   4  183.47    9.33
   1 -11   4  196.60    7.28
   1 -11  -4  202.01    9.32
   1  11   4  205.33   10.42
  -1  11  -4  207.27    7.08
   1  11  -4  203.40    7.02
   1 -11   5  127.88    6.32
   1  11   5  148.57    9.35
   1  11  -5  123.43    5.17
   1  11   5  141.13    9.27
   1 -11   6  117.55    6.53
   1  11  -6  117.98    5.45
   1  11   6  123.23    9.27
   1 -11   7   22.08    4.14
   1  11   7   28.83    6.57
  -1  13   0  117.31    5.21
   1 -13   0  113.99    6.24
   1  13   0  107.59    5.68
   1  13   0  116.12    6.74
   1 -13  -1   22.66    3.98
   1  13  -1   20.34    3.33
   1  13   1   26.64    4.46
   1  13  -1   21.98    2.89
   1 -13   1   18.02    3.22
   1  13   1   22.74    3.72
  -1  13   1   27.55    3.76
  -1  13  -1   19.94    2.35
   1  13   2  779.63   18.64
   1  13  -2  786.44   13.90
  -1  13   2  757.28   16.37
   1  13   2  764.58   17.11
   1  13   2  776.24    8.53
   1 -13   2  777.62    8.64
   1 -13   2  745.96   12.84
   1 -13  -2  787.98   17.59
  -1  13   3   16.08    4.46
   1  13   3   14.90    1.51
   1 -13  -3   17.93    3.87
   1  13   3   16.28    4.36
   1 -13   3   15.26    1.57
   1 -13  -3   16.21    4.52
  -1  13  -3   18.67    3.20
   1  13  -3   22.70    3.34
  -1  13   4   15.65    4.72
   1  13   4   19.67    4.91
   1 -13   4   17.81    3.24
   1 -13   5   15.55    3.27
   1  13  -5    9.81    2.44
   1  13   6  220.87   12.04
   1 -13   6  191.56    8.40
   1  15   0  162.70    8.07
   1 -15   0  159.31    7.45
  -1  15   0  157.61    6.26
  -1  15   0  164.40    6.45
   1  15   0  149.26    6.96
   1  15   0  164.89    6.40
  -1  15  -1   12.96    2.88
   1 -15  -1    9.05    3.70
   1  15  -1   14.58    2.99
   1  15   1   18.15    3.53
   1 -15   1   15.81    3.45
   1  15   1   18.71    4.49
   1  15  -1   14.61    3.02
  -1  15  -1   13.16    2.48
  -1  15   1   11.67    3.50
   1  15   2  202.45    3.07
  -1  15   2  208.40    8.88
   1  15   2  185.66    8.98
  -1  15  -2  188.63    6.97
  -1  15   2  197.48    2.96
   1 -15   2  195.74    3.07
  -1 -15   2  201.12    3.26
   1 -15  -2  210.29    9.56
   1  15  -2  199.51    7.25
   1  15   2  207.21   10.26
   1  15   3   35.97    1.91
   1  15   3   38.64    5.35
   1 -15   3   34.87    1.97
  -1  15   3   44.99    5.65
   1 -15   4   74.01    3.13
   1  15   4   62.81    2.90
   1  15   4   71.32    7.53
  -1  15   4   65.79    6.83
   1  15   4   68.71    7.16
   1  15   5   10.94    5.13
   1 -15   5   11.07    3.32
   1  15  -5   16.51    2.42
   1 -15   6   72.78    5.81
   1  17   0  226.77    8.68
  -1  17   0  201.21    7.53
  -1  17  -1   19.23    2.67
   1  17  -1   19.37    3.45
   1  17   1   19.72    4.01
  -1  17   1   17.42    3.84
   1  17   2    4.62    3.94
   1  17  -2    6.21    2.47
  -1  17   2   13.85    4.08
   1 -17   3   10.75    1.18
   1  17   3    8.60    4.49
   1  17  -3    8.54    2.33
   1  17   3   10.77    1.26
  -1  17   3   16.81    4.77
   1 -17   4  174.24    4.51
   1  17   4  169.93   10.36
   1  17   5   10.21    5.58
   1  19   0  164.66    7.94
  -1  19   0  169.93    7.25
   1  19   1    1.98    3.74
   1  19  -1    6.78    3.08
  -1  19   1    9.05    3.80
   1  19  -2    4.80    2.51
  -1  19   2    3.62    3.72
   1  19   2    5.84    4.28
   1  19  -3    5.31    2.25
   1  19   3   11.40    4.89
   1  19   4  109.33    9.25
   1  19   5    2.51    5.84
   1  21   0    1.79    3.72
   1  21  -1    1.81    3.34
   1  21   1    2.50    4.05
   1  21   2   52.64    6.64
   1  21  -2   45.61    4.22
   1  21   3    1.63    5.16
   1  21   4    3.02    5.70
   1  23   0   -3.77    4.10
   1  23  -1   -1.54    3.47
   1  23   1    1.77    4.39
   1  23   2   32.34    6.21
   1  23   3    2.84    5.41
   1  25   1    1.35    4.59
   1  25   2   -2.06    5.05
   2   0   0 3797.42   31.10
  -2   0   0 3776.09   31.19
   2   0   1   61.61    2.15
  -2   0  -1   59.22    2.10
   2   0   2 5569.67   46.24
   2   0   3   14.25    2.28
   2   0  -4   68.69    5.08
   2   0  -4   72.43    4.37
   2   0   4   67.68    4.51
   2   0   5    0.24    2.82
   2   0  -5   -0.32    3.55
   2   0   5   -0.30    3.16
   2   0  -5    0.66    2.76
   2   0  -6  768.26   17.67
   2   0   6  782.08   15.76
   2   0  -6  794.72   14.60
   2   0   6  764.06   17.13
   2   0   7    2.87    3.36
   2   0   8   38.39    4.85
  -2   0   8   31.16    4.52
  -2   2   0   35.94    1.56
   2   2   0   39.62    1.66
  -2   2  -1 6647.49   53.01
   2   2   1 6693.07   52.86
  -2  -2   1 6642.22   51.95
   2  -2   1 6647.95   51.90
   2   2  -1 6642.91   51.80
   2   2   2 4827.21   40.88
   2  -2   2 4841.59   40.73
  -2  -2   2 4842.03   40.63
   2   2   3 1199.49   18.07
   2  -2   3 1212.65   14.88
  -2  -2   3 1172.43   14.68
   2  -2   3 1189.30   15.66
   2   2  -4   71.82    3.84
   2  -2  -4   68.51    4.86
   2  -2   4   77.48    4.38
   2  -2  -4   87.49    5.80
   2  -2   4   82.09    3.97
  -2  -2   4   82.46    3.99
   2   2   4   77.68    5.30
   2  -2  -5  550.34   12.66
   2   2   5  548.12   14.03
   2   2  -5  539.22   13.42
   2   2   5  547.87   13.29
   2  -2   5  582.02   12.81
   2  -2   5  535.41   11.31
   2   2  -5  532.57   10.50
   2  -2   5  528.38   11.16
  -2  -2   5  537.26   11.34
   2  -2  -5  550.30   14.33
  -2  -2   6  940.52   16.94
   2   2   6  937.81   18.84
   2  -2  -6  932.91   19.97
   2   2   6  940.39   20.02
   2  -2   6  919.63   16.66
   2  -2  -6  920.60   17.03
   2  -2   6  904.90   15.95
   2   2  -6  948.35   19.23
  -2  -2   7  200.92    8.38
   2   2   7  193.05    9.07
   2  -2   7  195.43    8.11
  -2  -2   8   13.66    3.94
   2  -2   8   15.45    3.89
   2   4   0  144.38    3.00
  -2   4   0  141.22    3.01
  -2  -4   0  141.59    2.99
   2  -4   0  146.23    2.99
   2  -4   1 3020.91   26.47
   2   4  -1 3044.34   26.41
  -2  -4  -1 3049.56   26.27
   2  -4   1 3032.14   26.06
  -2   4  -1 3035.00   26.25
  -2   4  -1 3033.39   26.40
  -2  -4   1 3054.24   26.57
   2   4   1 3010.65   26.10
   2  -4   2 5567.82   45.16
   2  -4  -2 5612.01   52.08
   2  -4   2 5577.53   46.35
   2   4   2 5591.84   46.45
   2   4  -2 5523.55   46.72
  -2  -4   2 5587.81   47.15
  -2   4  -2 5625.29   46.74
   2  -4   2 5643.30   47.09
   2   4   3 1852.57   25.23
   2  -4  -3 1839.63   25.07
   2  -4   3 1836.51   20.60
  -2  -4   3 1833.37   20.61
   2  -4   3 1817.87   19.32
   2  -4   4   78.49    4.06
   2   4   4   68.83    5.41
   2  -4   4   86.58    4.20
   2   4   4   70.80    5.23
   2  -4  -4   77.88    5.63
  -2  -4   4   70.89    3.92
   2   4   5  502.23   14.14
   2  -4  -5  499.42   14.09
   2   4  -5  488.74   12.38
   2  -4   5  486.34    9.38
   2  -4   5  490.19   10.99
  -2  -4   5  506.21   11.08
   2   4  -5  477.81    8.47
   2  -4  -5  485.27   12.74
   2   4   5  498.46   13.50
   2   4  -6  825.47   17.42
   2  -4   6  852.71   16.02
   2  -4  -6  855.08   17.23
  -2  -4   6  820.36   15.87
   2   4   6  822.45   18.69
   2   4   6  813.80   19.55
   2  -4   6  808.80   13.28
   2  -4   7  180.90    7.86
   2   4   7  197.68   10.37
   2   4   7  186.49    9.54
  -2  -4   7  197.25    8.33
   2  -4   8    8.07    3.51
  -2  -4   8    6.84    3.66
   2  -6   0 1975.72   20.39
  -2   6   0 2016.98   17.95
  -2  -6   0 2015.72   18.00
   2   6   1  205.84    3.93
  -2   6  -1  217.46    4.82
   2  -6   1  199.15    3.84
   2  -6  -1  215.38    6.21
   2   6  -1  208.74    4.82
   2  -6   2 1234.46   13.57
   2   6  -2 1209.06   14.72
   2  -6  -2 1240.31   18.62
   2   6   2 1216.55   13.49
  -2  -6   2 1205.97   14.94
   2  -6   2 1225.70   14.99
  -2   6  -2 1217.63   14.72
  -2  -6   3  215.19    6.07
   2  -6  -3  217.40    8.21
   2   6   3  194.54    7.90
   2   6   3  201.37    7.84
   2  -6  -3  208.64    8.25
   2  -6   3  208.88    5.95
   2  -6  -4  805.77   17.19
   2  -6   4  790.26   13.46
  -2  -6   4  786.48   13.42
   2   6   4  790.19   17.12
   2   6   4  791.90   17.47
   2  -6  -4  801.49   16.84
   2  -6  -5  128.41    7.21
   2   6   5  121.20    7.77
   2  -6   5  126.68    3.94
   2  -6   5  121.45    5.77
   2   6   5  119.33    7.31
   2   6   6  154.81    9.38
   2   6  -6  133.65    7.04
   2  -6  -6  146.49    7.72
  -2  -6   6  140.36    6.76
   2  -6   6  145.67    6.79
   2   6   6  142.09    8.74
   2   6   7   30.85    6.12
   2  -6   7   23.98    3.90
   2   6  -7   21.91    4.44
   2   6   7   33.43    5.73
  -2  -6   7   23.11    3.83
  -2  -6   8  103.73    6.90
   2  -6   8   85.18    6.32
  -2  -8   0 5984.94   47.13
   2  -8   0 5968.24   51.25
  -2   8   0 5926.54   47.00
   2   8   1    0.64    0.83
   2   8  -1    1.42    1.47
  -2   8   1    3.54    0.84
   2  -8  -1    3.67    2.07
   2  -8   1    2.58    0.93
   2  -8   1    2.10    0.84
  -2   8  -1    0.62    1.38
   2  -8  -2  168.25    6.73
   2  -8   2  170.23    5.23
  -2   8  -2  173.84    5.30
   2   8  -2  180.33    5.38
   2  -8   2  180.69    4.15
   2   8   2  185.57    4.16
   2   8   2  173.51    7.34
   2  -8  -2  180.06    7.89
  -2  -8   2  190.38    5.49
   2  -8   3   21.49    1.85
   2   8   3   17.86    3.62
   2  -8   3   17.23    2.35
   2  -8  -3   11.62    3.42
   2   8   3   19.85    1.77
  -2  -8   3   16.20    2.46
   2   8  -3   19.30    2.54
  -2   8  -3   17.09    2.45
   2   8   3   10.06    3.39
   2   8   4 1865.73   29.77
   2  -8  -4 1893.54   28.98
   2   8   4 1910.25   30.08
  -2  -8   4 1917.99   24.08
   2  -8  -4 1905.40   29.00
   2  -8   4 1857.60   23.82
   2  -8  -5   24.13    4.50
   2  -8  -5   27.63    4.81
   2   8   5   30.29    5.03
   2  -8   5   34.48    3.65
   2   8   5   32.02    5.06
  -2  -8   5   28.68    3.45
   2   8   6    4.51    4.24
  -2  -8   6    3.25    2.61
   2   8  -6    3.50    3.21
   2   8   6    4.20    4.93
   2  -8   6    2.39    2.66
   2   8   7    6.50    5.16
   2   8   7    5.23    5.40
   2  -8   7    2.05    2.94
   2   8  -7    2.93    3.77
  -2  -8   7    5.46    3.30
  -2  10   0 4658.04   37.39
   2 -10   0 4669.83   42.96
  -2 -10   0 4683.20   37.57
   2 -10  -1  196.36    8.14
   2 -10   1  203.93    3.75
   2  10   1  194.72    3.72
  -2  10   1  198.52    3.68
  -2 -10   1  201.01    3.83
   2  10  -1  202.32    5.96
   2  10   1  193.76    7.81
  -2  10  -1  184.98    5.62
   2 -10  -1  198.96    6.76
   2 -10  -2   85.51    5.32
   2  10   2   93.72    2.93
   2 -10  -2   83.39    6.43
  -2  10  -2   89.99    4.26
   2  10  -2   92.80    4.34
   2 -10   2   98.65    3.00
   2  10   3   56.00    5.71
   2  10   3   54.63    2.65
   2 -10   3   57.08    3.80
   2  10  -3   53.28    2.69
   2 -10   3   59.73    2.75
  -2  10  -3   58.52    3.88
   2 -10  -3   64.76    5.46
   2  10  -3   56.74    3.76
  -2 -10   3   47.57    3.67
   2  10   4 1586.71   18.39
   2  10   4 1592.16   28.44
   2 -10  -4 1601.14   27.16
   2 -10   4 1533.89   15.53
   2 -10  -4 1583.25   26.33
   2 -10   4 1553.96   21.98
   2  10   4 1589.41   28.27
  -2 -10   4 1595.00   22.16
   2  10   5   -0.50    4.20
   2  10   5    3.93    4.07
  -2 -10   5    0.55    2.48
   2 -10   5    2.21    2.60
   2  10   6   14.52    5.35
  -2 -10   6   14.06    3.27
   2  10  -6   12.54    3.42
   2  10   6   12.45    5.23
   2 -10   6   16.66    3.35
   2  10   7    8.21    5.62
   2 -10   7   17.05    3.82
   2  10   7    4.37    5.53
  -2 -10   7    8.12    3.36
   2 -12   0  560.71   13.48
   2  12   0  538.24   12.91
   2 -12   1    2.95    0.83
   2  12  -1    2.12    2.42
   2  12   1    0.66    3.20
   2  12  -1    8.60    2.38
  -2 -12   1    1.06    0.80
   2 -12  -1    2.69    3.55
   2 -12   1    6.41    3.20
   2 -12  -1    0.23    2.42
  -2  12  -1    0.36    1.92
  -2  12   1    1.49    0.80
   2 -12  -2  186.81    8.97
   2 -12  -2  192.08    7.94
   2 -12   2  189.49    4.06
   2  12   2  169.11    8.30
  -2  12  -2  181.37    6.25
   2 -12   2  181.96    6.71
   2  12  -2  190.60    6.45
   2  12  -2  164.06    6.03
   2  12   2  190.40    4.07
   2 -12  -3    5.30    4.33
   2  12   3   18.58    4.81
   2 -12   3    9.61    1.58
  -2  12  -3   11.70    2.80
   2 -12   3    7.62    2.32
   2  12  -3   11.38    2.09
   2 -12  -3   11.31    3.75
   2  12  -3   11.31    2.80
   2  12   3   10.60    1.55
   2 -12  -4  418.19   13.17
   2 -12   4  408.12    7.94
  -2 -12   4  402.18   10.71
   2  12  -4  398.03   10.11
   2  12   4  395.30    7.59
  -2  12  -4  416.70   10.16
   2 -12   4  389.65    5.63
   2 -12   4  379.20   10.35
   2  12   4  398.55   14.51
   2 -12   5    1.19    2.48
  -2 -12   5   -0.30    2.68
   2  12   5    2.12    4.14
   2  12   5    1.62    1.82
   2  12   5    1.12    4.97
   2  12   6   33.99    6.75
   2  12   6   36.92    6.66
   2  12  -6   34.99    4.12
   2 -12   6   39.56    4.50
  -2 -12   6   34.65    4.33
   2 -12   7    1.11    3.36
  -2 -12   7   -0.37    3.35
   2  12   7   -1.33    5.57
   2  14   0   34.91    4.81
   2  14   0   36.55    3.49
   2 -14   0   32.69    4.67
  -2  14   0   33.21    3.39
   2  14   1  302.79   10.74
   2  14  -1  283.21    8.15
   2 -14   1  297.98    9.46
  -2 -14   1  277.04    3.94
  -2  14  -1  289.41    8.06
   2  14   1  281.46   10.85
   2 -14  -1  293.46   10.73
   2  14  -1  286.67    9.42
   2 -14  -2  390.19   11.66
   2  14   2  402.93    5.90
   2  14   2  402.57   13.02
  -2  14  -2  383.88    9.57
  -2 -14   2  386.53    5.99
   2  14  -2  395.03    9.90
   2 -14  -2  397.52   13.34
   2 -14   2  378.06    9.87
   2  14  -2  386.03    9.85
   2 -14   2  396.80    5.80
  -2  14   2  395.05    5.87
   2  14   2  425.56   13.91
   2  14   3  166.12    9.00
   2 -14  -3  166.39    8.45
   2  14  -3  156.74    6.61
   2 -14   3  166.31    4.28
   2 -14   3  164.21    5.62
  -2  14  -3  147.98    6.32
   2  14   3  164.69    4.21
   2  14   4   34.04    2.34
   2 -14   4   33.78    2.49
  -2 -14   5   86.73    5.84
   2  14   5   79.94    8.46
   2 -14   5   85.02    4.08
   2  14   5   88.59    4.03
   2 -14   5   79.62    5.48
   2  14   6   92.02    8.90
   2 -14   6   87.47    6.14
  -2 -14   6   80.29    5.97
   2  14   6   76.55    8.80
   2  16   0  114.53    6.81
   2  16   0  123.89    7.46
   2 -16   0  112.37    6.90
  -2  16   0  113.54    5.53
   2  16   0  120.05    5.77
   2 -16   1  321.04   10.26
   2  16   1  321.89   11.67
   2  16  -1  328.95   10.85
   2  16  -1  336.93    9.43
  -2  16  -1  321.82    9.08
   2 -16  -1  345.20   12.10
   2  16   1  344.01   12.62
   2  16   2  133.32    8.32
   2 -16   2  143.81    6.42
   2  16   2  153.31    9.37
  -2 -16   2  144.47    3.00
  -2  16   2  144.90    2.79
   2  16  -2  154.09    6.89
   2 -16   2  153.60    2.89
   2  16   3  218.21   10.76
   2  16   3  216.78   11.59
   2 -16   3  198.18    4.35
   2  16   3  197.12    4.48
   2  16   4   46.45    6.64
   2 -16   4   44.28    2.62
   2  16   5   74.74    8.04
   2  16   5   75.65    8.65
   2 -16   5   82.39    3.88
   2  18   0   91.29    6.50
   2 -18   0  100.78    7.00
   2  18   0   81.41    7.06
   2 -18   1   -0.33    3.31
   2  18   1    3.52    4.50
   2  18  -1    7.39    3.94
   2  18  -1   -0.33    3.09
   2  18   1   -0.42    3.52
   2  18   2   42.05    6.07
   2  18   2   42.22    6.44
   2 -18   2   38.53    4.43
   2 -18   3    3.04    1.02
   2  18   3   -1.05    4.60
  -2 -18   3    2.74    1.10
   2  18   4   36.64    6.52
   2  18   5   -3.16    5.38
   2  20   0   -0.39    3.46
   2  20   1   38.44    6.40
   2  20  -1   31.85    4.39
   2  20   1   27.45    4.94
   2  20   2   74.48    7.43
   2  20  -2   60.18    5.07
   2  20   2   69.17    8.03
   2  20  -3   12.66    3.18
   2  20   3   18.26    5.97
   2  20   4    3.09    5.29
   2  22   0    2.04    3.97
   2  22  -1   11.23    3.90
   2  22   1    7.06    4.57
   2  22  -2   74.00    5.63
   2  22   2   82.42    8.21
   2  22   3    4.71    5.15
   2  24   0    0.42    4.19
   2  24   1    2.37    4.89
   2  24   2    9.23    5.77
  -3   1   0  646.21    8.61
   3   1   0  663.44    8.71
  -3   1  -1  263.26    5.31
  -3  -1   1  258.47    3.74
   3   1   1  255.04    5.11
   3  -1   1  260.59    3.76
   3   1   2 1614.97   17.48
   3  -1   2 1580.68   16.06
  -3  -1   2 1574.51   15.98
   3  -1   3  513.30   10.66
   3   1   3  482.38    8.72
   3   1   3  489.03   11.36
   3  -1   4  739.00   13.97
   3   1   4  729.11   12.08
   3   1   5  123.31    6.97
   3   1  -5  112.09    7.17
   3  -1   5  116.39    6.55
  -3  -1   5  125.22    5.46
   3  -1  -5  121.77    6.58
   3  -1  -5  134.53    7.69
   3   1  -5  120.03    6.04
   3   1   6  288.70   10.92
   3   1   6  282.24   10.08
   3  -1   6  293.00   10.44
   3  -1   6  302.45    9.12
  -3  -1   6  295.42    9.16
   3  -1  -6  280.49    9.41
   3  -1   6  304.55    9.86
   3   1  -6  288.17    8.86
   3   1  -7   28.82    3.83
   3   1   7   36.57    5.75
   3   1   7   30.29    4.84
   3  -1   7   34.42    4.81
   3  -1  -7   36.97    4.48
   3  -1   7   38.72    4.12
  -3  -1   7   35.35    4.29
   3   1   8   67.98    6.02
   3  -1   8   68.63    5.97
  -3   1   8   70.96    6.02
  -3  -1   8   77.17    6.28
   3   3   0 1116.41   10.80
  -3   3   0 1140.36   12.63
   3  -3   0 1106.68   12.44
   3   3   0 1146.20   12.69
  -3   3   0 1129.96   10.59
   3  -3   1  719.74    8.21
   3   3   1  711.85    9.50
  -3   3  -1  715.34    9.56
   3   3  -1  699.62    8.11
  -3   3  -1  716.08    8.07
  -3  -3   1  697.84    8.16
   3  -3   2 2773.78   26.68
   3   3   2 2830.62   26.81
  -3  -3   2 2797.26   25.96
   3  -3   2 2811.65   25.96
   3   3   3  649.88   14.04
   3  -3   3  627.68   10.12
   3   3   3  635.67   10.19
   3  -3   3  610.65   10.03
  -3  -3   3  619.09   10.03
   3  -3   3  620.92   10.92
   3  -3   4  126.17    5.40
   3  -3   4  121.73    4.71
   3   3   4  140.34    5.04
   3   3   4  135.58    7.12
  -3  -3   4  131.71    5.06
   3  -3   4  131.24    5.12
   3  -3   5  309.07    8.61
   3   3   5  298.17   11.08
   3  -3   5  338.39    9.62
   3  -3  -5  299.56   11.19
   3  -3  -5  323.34   10.59
   3   3  -5  296.04    8.11
  -3  -3   5  306.35    8.54
   3   3   5  308.65   10.56
  -3  -3   6  504.57   12.18
   3   3  -6  488.36   14.14
   3  -3   6  490.41   12.62
   3  -3   6  477.61   11.56
   3   3  -6  484.10   10.52
   3   3   6  481.35   14.05
   3   3   6  506.59   15.29
   3  -3  -6  495.36   13.32
   3  -3   6  483.52   11.89
  -3  -3   7   96.09    6.03
   3   3   7  104.28    8.21
   3  -3   7   81.61    5.54
   3   3   7   73.41    6.84
   3  -3   7   83.85    5.43
   3  -3  -7   72.52    5.95
   3   3   8   33.45    5.97
   3  -3   8   34.67    4.80
  -3  -3   8   30.62    4.62
  -3  -5   0  549.31    7.81
  -3   5   0  550.61    7.85
  -3   5   1  273.12    5.39
   3  -5   1  279.47    5.37
  -3   5  -1  275.85    5.16
  -3   5  -1  290.08    5.57
  -3  -5  -1  285.78    5.54
   3   5  -1  282.43    5.26
   3   5   1  265.98    5.31
  -3  -5   1  280.73    5.45
   3   5  -2 1613.74   17.43
  -3  -5   2 1608.55   17.64
   3  -5   2 1597.61   17.44
   3   5   2 1593.53   17.43
  -3   5  -2 1609.04   17.35
   3  -5   2 1616.74   17.60
   3  -5   3   26.81    2.17
   3   5   3   25.37    3.77
   3  -5  -3   27.91    3.96
   3  -5   3   28.96    2.37
   3   5   3   33.99    2.44
   3  -5   3   31.35    2.58
  -3  -5   3   33.13    2.64
   3   5   4  174.18    8.44
   3  -5   4  170.81    5.37
   3  -5  -4  177.27    8.46
   3  -5   4  167.55    5.45
   3   5   4  173.30    5.55
   3  -5   4  167.72    5.93
  -3  -5   4  173.09    5.99
   3  -5  -4  171.49    8.27
   3   5   5   28.24    4.29
   3  -5  -5   27.65    4.75
   3   5   5   36.51    5.06
   3  -5   5   30.02    3.34
  -3  -5   5   37.40    3.75
  -3  -5   6  408.56   11.10
   3   5   6  433.09   14.69
   3   5  -6  375.43   12.13
   3  -5   6  394.60    9.23
   3   5   6  395.18   13.72
   3  -5  -6  374.47   12.33
   3   5  -6  396.38    7.99
   3  -5   6  403.92   10.96
   3   5   7    8.61    5.28
   3   5   7   11.25    4.95
  -3  -5   7   12.71    3.69
   3  -5   7   13.03    3.41
   3   5   8   39.16    6.64
   3   5   8   54.05    7.70
   3  -5   8   38.81    5.06
  -3  -5   8   47.42    5.37
  -3  -7   0 2142.41   20.69
  -3   7   0 2184.63   20.57
   3   7  -1   36.56    2.38
   3   7   1   34.76    2.06
   3  -7  -1   33.54    3.37
  -3   7  -1   33.94    2.00
  -3  -7  -1   37.30    2.09
   3  -7   1   36.90    2.08
  -3   7   1   35.09    2.01
  -3  -7   1   36.44    2.03
  -3   7  -1   34.33    2.29
   3  -7   2  149.17    4.74
   3  -7  -2  143.92    6.52
  -3   7  -2  144.46    4.61
   3   7  -2  148.98    4.66
  -3  -7   2  148.27    4.72
   3  -7   2  146.79    4.15
   3   7   2  151.59    4.22
   3  -7   3   30.30    1.48
   3   7   3   29.89    4.28
   3  -7   3   29.13    2.33
   3   7   3   35.13    2.43
   3  -7  -3   37.25    4.62
   3  -7   3   35.66    2.84
  -3  -7   3   32.31    2.81
   3  -7  -4  969.21   19.73
   3   7   4  929.30   19.84
   3  -7   4  950.85   13.87
   3   7   4  970.98   14.03
  -3  -7   4  952.14   15.48
   3   7   4  928.01   20.39
   3  -7   4  980.82   15.58
   3  -7  -4  924.65   19.59
   3  -7   5   51.84    4.20
   3   7   5   43.37    5.41
   3  -7  -5   44.51    5.46
   3  -7   5   55.68    3.84
   3   7   5   48.77    5.98
  -3  -7   5   45.63    4.01
   3   7  -5   46.85    2.76
   3   7   6   39.23    5.88
   3  -7   6   45.94    4.48
   3   7   6   41.31    6.24
   3   7  -6   37.38    4.93
  -3  -7   6   43.45    4.31
   3  -7   6   38.48    2.93
   3   7   7    8.64    5.02
   3   7   7   -0.59    4.84
   3  -7   7    2.66    2.97
  -3  -7   7    5.03    3.13
   3   7   8  143.47   10.94
   3   7   8  137.76   10.04
   3  -9   0 1997.87   22.90
  -3   9   0 1999.33   19.18
  -3  -9   0 1982.03   19.26
  -3   9   1    2.72    1.11
  -3  -9   1    1.60    1.03
  -3   9  -1    1.25    1.64
   3   9   1    2.42    1.07
   3  -9   1    2.80    1.45
   3  -9  -1    4.15    2.69
  -3  -9  -1    3.02    1.05
   3  -9   1    2.63    1.18
   3   9  -1    2.02    1.68
   3  -9   2   17.92    1.80
   3   9  -2   21.48    2.53
   3  -9  -2   21.58    3.82
   3   9   2   22.34    1.84
  -3   9  -2   20.88    2.50
   3  -9   3    0.78    2.08
  -3  -9   3    6.46    2.28
   3  -9   3    0.65    1.36
   3   9   3    1.50    1.46
   3   9   3   -0.39    3.47
   3  -9  -3   -0.66    3.53
   3   9  -3    2.49    2.22
  -3   9  -3    2.30    2.16
   3   9   4 1262.14   25.01
   3  -9  -4 1270.06   23.35
   3  -9   4 1274.93   16.66
   3   9   4 1263.02   16.36
   3   9   4 1279.59   24.93
   3  -9   4 1283.47   19.13
  -3  -9   4 1283.44   19.13
   3  -9  -4 1302.36   24.51
   3   9   5    0.97    4.04
   3   9   5   -1.01    4.35
   3  -9   5    1.61    2.39
   3  -9   5    1.39    1.98
   3   9   5    0.80    2.08
  -3  -9   5    2.15    2.37
   3   9   6    2.66    4.53
   3   9   6   -1.14    4.66
   3  -9   6   -1.23    2.76
  -3  -9   6   -0.92    2.77
   3   9   7    5.17    6.10
   3   9   7   -3.57    5.36
   3  -9   7   -1.74    3.00
  -3  -9   7   -0.35    3.02
   3   9   8  148.84   10.77
   3 -11   0  794.46   12.99
  -3  11   0  795.66    9.63
  -3 -11   0  769.33    9.69
  -3  11   0  775.83   12.37
   3  11   0  784.47   12.52
   3  11  -1    1.55    1.90
  -3  11   1    0.59    1.08
   3  11   1    1.70    1.18
   3 -11   1    1.71    1.10
   3 -11   1   -0.84    1.43
  -3 -11   1    0.71    1.03
   3 -11  -1   -1.41    2.63
  -3  11  -1    0.66    1.90
   3  11   2   75.48    3.01
   3 -11  -2   74.96    5.47
  -3  11  -2   88.08    4.45
   3 -11  -2   69.41    6.31
   3  11  -2   79.46    4.29
   3 -11   2   83.22    3.15
   3  11   3   12.33    4.32
   3 -11  -3   14.78    4.74
   3 -11   3   14.72    1.92
   3 -11  -3   13.92    4.03
   3  11   3   12.97    1.79
   3  11  -3   12.68    2.75
  -3  11  -3   19.04    2.97
   3 -11  -4  321.06   11.85
   3  11   4  299.01   12.29
   3 -11   4  311.36    7.11
   3  11   4  294.00    6.72
   3  11  -4  308.48    6.09
   3  11   4  313.13   12.60
   3 -11   4  302.85    9.00
  -3 -11   4  298.65    8.99
   3 -11   5    8.16    2.20
   3 -11   5   13.57    3.20
  -3 -11   5    8.70    2.83
   3  11   5   12.58    2.35
   3  11   5   17.90    5.17
   3  11   5   10.83    5.18
   3  11   6   26.16    5.99
   3  11   6   38.44    6.64
   3 -11   6   35.25    4.30
  -3 -11   6   34.74    4.20
   3  11   7    2.61    5.65
   3 -11   7    2.92    3.25
  -3 -11   7    1.09    3.51
   3  11   7    6.86    6.57
   3 -13   0   61.96    4.07
  -3  13   0   59.90    2.26
  -3 -13   0   56.69    2.27
   3  13   0   61.73    5.27
   3  13   0   60.28    3.96
  -3  13   0   60.86    3.96
   3  13   1   17.99    4.19
   3 -13  -1   23.38    4.75
   3 -13  -1   19.11    3.50
  -3  13   1   21.60    1.54
  -3 -13   1   17.34    1.55
  -3  13  -1   12.94    2.67
   3  13  -1   16.57    2.91
   3  13  -1   11.09    3.13
  -3  13  -2  568.27   11.38
   3  13   2  569.36   15.85
   3 -13  -2  581.06   14.04
   3 -13   2  546.98    8.15
   3  13   2  568.01    8.34
  -3  13   2  550.84    8.34
  -3 -13   2  563.93    8.46
   3  13  -2  556.26   12.22
   3  13  -2  546.07   11.39
   3  13   2  542.72   15.36
   3 -13  -2  562.46   15.98
   3 -13  -3   20.45    4.41
   3  13   3   17.02    1.84
   3 -13   3   16.98    1.95
   3  13  -3   18.80    2.74
  -3  13  -3   18.03    3.09
   3  13  -3   22.55    3.38
   3  13   4   17.99    5.22
   3  13  -4   16.36    1.98
   3 -13   4   16.78    2.77
   3 -13   4   17.96    2.18
   3  13   4   13.85    1.89
   3 -13   5   10.57    3.20
  -3 -13   5    7.50    2.99
   3 -13   5    9.99    2.14
   3  13   5   10.12    5.15
   3  13   5    8.61    2.05
   3  13   5    6.27    4.73
   3  13   6  153.77   10.83
  -3 -13   6  144.62    7.53
   3  13   6  148.17   10.96
   3 -13   6  149.28    7.63
   3  15   0   40.69    4.93
   3 -15   0   45.82    5.54
  -3  15   0   40.07    3.59
   3  15   0   39.11    3.80
  -3  15  -1   93.08    4.97
   3 -15  -1   95.79    7.15
   3 -15  -1   80.91    5.34
   3  15   1   74.42    6.53
  -3  15   1   74.81    2.35
   3  15  -1   73.80    5.67
   3 -15   1   90.03    6.25
  -3 -15   1   72.41    2.40
   3  15  -1   84.88    5.04
   3  15   2  248.90   11.06
   3 -15   2  251.23    8.96
  -3 -15   2  231.32    4.95
   3 -15   2  237.64    4.74
   3  15   2  238.35   10.88
   3  15   2  249.21    4.93
  -3  15   2  244.31    4.89
  -3  15  -2  238.48    7.71
   3  15  -2  243.48    8.73
   3  15  -2  246.89    8.02
   3 -15  -2  241.96    9.38
   3  15  -3   81.02    4.73
   3  15   3   90.45    3.42
   3  15   3   91.74    7.54
  -3  15   3   90.82    3.55
   3 -15   3   77.83    5.11
   3 -15   3   84.10    3.34
   3  15   4    9.40    5.18
   3  15   4   21.85    5.41
   3 -15   4   15.25    2.06
   3  15   4   15.90    2.04
   3  15   5   48.56    7.45
   3 -15   5   40.38    3.13
   3 -15   6   88.82    6.38
  -3 -15   6   90.17    6.56
   3  15   6   98.97   10.04
   3 -17   0   51.74    5.86
   3  17   0   54.22    5.92
   3  17   1   10.61    4.48
   3  17  -1    5.71    3.72
   3  17   1    5.06    3.69
   3 -17   1    8.83    3.81
   3 -17  -2   70.35    5.88
   3  17   2   62.10    6.56
  -3  17   2   61.07    2.15
   3 -17   2   52.53    5.08
   3  17   2   62.96    6.79
  -3 -17   2   55.99    2.16
   3  17  -2   56.24    5.20
  -3  17   3    8.99    1.60
   3  17   3    6.86    4.62
   3  17  -3    7.67    2.92
   3  17   3    6.90    4.14
  -3 -17   3    6.78    1.48
   3 -17   3   10.08    1.53
   3  17   4   43.68    6.82
   3  17   5    7.91    6.00
   3  17   5    3.79    5.50
   3  19   0   51.27    5.73
   3  19   0   61.72    6.67
   3 -19   1   14.21    4.39
   3  19   1   16.12    5.41
   3  19  -1   14.05    4.50
   3  19   1   12.97    4.40
   3  19   2   15.23    5.61
   3  19  -2   22.33    4.73
  -3 -19   2   17.14    0.98
   3  19   2   26.68    5.60
   3  19   3   14.36    5.86
   3  19   3   21.75    5.71
  -3 -19   3   13.53    1.46
   3  19   4   32.75    7.40
   3  19   4   19.99    6.32
   3  21   0   -0.54    4.88
   3  21   0    1.33    3.91
   3  21   1   20.96    6.26
   3  21  -1   14.60    5.23
   3  21  -1   14.23    4.22
   3  21   1    7.44    4.84
   3  21  -2   27.60    4.44
   3  21   2   38.60    6.32
   3  21   3    2.43    5.74
   3  23   0   13.34    4.72
   3  23  -1   -1.56    3.73
   3  23   1    5.07    4.66
   3  23   2   16.64    5.88
  -4   0   0 8962.01   72.67
   4   0   0 8936.66   72.69
  -4   0  -1   -0.25    1.01
  -4   0   1   -0.12    1.23
   4   0   1   -0.36    1.46
   4   0   1    0.76    0.55
  -4   0   1    2.26    0.53
  -4   0   2  152.25    3.63
   4   0   2  157.78    4.74
   4   0   3   -0.31    1.50
   4   0   4 2277.90   30.60
   4   0   4 2317.52   26.07
   4   0   5    2.70    3.02
   4   0   5    2.24    2.36
   4   0  -6    9.68    3.60
   4   0   6   14.76    4.17
   4   0   6   11.08    2.87
  -4   0   6   12.18    2.94
   4   0   7    0.40    3.60
   4   0  -7    1.92    3.23
   4   0   7    0.44    4.14
   4   0   7   -1.88    3.11
  -4   0   7   -4.86    3.27
  -4   0   8  358.83   12.15
   4   0   8  341.24   11.78
  -4   2   0 3064.24   28.93
   4   2   1   27.47    2.16
  -4   2   1   28.09    2.13
  -4   2  -1   28.92    2.14
   4  -2   1   27.65    1.26
  -4  -2   2   32.23    1.91
   4   2   2   36.87    2.49
   4  -2   2   35.05    1.98
   4   2   3   17.46    2.15
   4  -2   3   23.16    2.15
  -4  -2   3   19.67    2.10
   4   2   4 1518.90   24.86
   4  -2   4 1488.59   21.85
   4   2   4 1479.79   19.34
   4  -2   4 1447.05   18.89
  -4  -2   4 1487.58   19.04
   4  -2   5    5.24    2.36
   4   2   5    1.16    3.13
   4  -2   5    4.07    2.99
   4  -2  -5    7.47    3.99
  -4  -2   5    4.23    2.22
   4   2   5    4.28    2.20
   4  -2   6   13.38    3.93
   4  -2  -6   17.10    4.57
   4   2  -6   11.14    3.55
   4   2   6    6.92    4.04
   4  -2   6   12.59    3.04
  -4  -2   6   15.90    3.10
   4   2   6    6.62    3.71
   4  -2   7    3.11    3.54
   4   2  -7   -1.08    3.28
   4   2   7   -1.77    4.43
   4  -2  -7   -0.36    3.69
   4   2   7   -1.98    4.79
   4  -2   7    6.97    4.17
   4  -2   7    1.54    2.85
  -4  -2   7   -2.28    3.16
   4   2   8  208.24   11.48
   4   2   8  217.12   10.19
  -4   2   8  213.55    9.50
   4  -2   8  192.77    8.96
  -4  -2   8  202.15    9.26
  -4   4   0  463.28    5.94
   4   4   0  473.19    6.08
  -4   4   0  454.00    7.82
  -4  -4   0  479.53    8.05
  -4   4  -1  475.08    6.55
   4  -4   1  472.34    8.19
   4   4   1  494.07    8.40
  -4   4   1  505.73    8.53
  -4  -4   1  504.44    8.54
  -4   4  -1  502.51    8.53
  -4  -4  -1  489.14    8.40
   4   4  -1  484.86    6.63
  -4  -4   2  969.22   11.94
   4  -4   2  962.04   11.91
   4  -4   2  947.48   12.98
   4   4   2  953.96   13.04
   4  -4   3  202.09    5.82
   4   4   3  221.08    6.00
   4  -4   3  213.82    5.74
  -4  -4   3  204.48    5.70
   4   4   4  372.41   12.37
   4  -4   4  336.33    8.63
   4  -4  -4  355.64   11.79
   4  -4   4  358.57    8.35
   4   4   4  361.41    8.36
   4  -4   4  361.25    8.66
  -4  -4   4  361.39    8.58
   4   4   5  151.44    8.51
   4  -4   5  145.18    6.32
   4  -4   5  144.92    6.06
  -4  -4   5  140.31    6.00
   4  -4  -5  151.12    8.22
   4   4   6  211.34   10.65
   4  -4   6  211.86    8.16
   4  -4   6  201.56    7.61
  -4  -4   6  205.96    7.87
   4   4   6  193.05    9.65
   4  -4  -6  212.49    9.88
   4   4  -6  203.01    7.35
   4   4   7   27.39    5.70
   4   4   7   39.94    6.53
   4  -4   7   36.91    4.62
  -4  -4   7   29.88    4.31
   4   4   8   42.66    7.21
   4   4   8   46.38    7.49
   4  -4   8   42.90    5.24
  -4  -4   8   39.11    5.20
  -4   6   0  153.16    3.81
   4   6   0  157.42    3.91
  -4   6   0  160.52    4.45
  -4  -6   0  155.84    4.43
   4  -6   1 1263.06   15.14
   4   6   1 1277.19   15.28
  -4   6   1 1261.17   15.27
  -4  -6   1 1298.47   15.46
  -4   6  -1 1275.47   15.40
  -4  -6  -1 1272.89   15.41
   4   6  -1 1275.48   14.31
  -4   6  -1 1299.33   14.37
   4   6  -2 1519.71   16.99
   4  -6   2 1509.38   17.30
  -4   6  -2 1511.13   16.96
  -4  -6   2 1513.14   17.28
   4  -6   2 1490.07   17.54
   4   6   2 1507.53   17.57
   4  -6   3  698.93   11.30
   4   6   3  701.19   11.22
   4  -6   3  713.16   11.68
  -4  -6   3  685.68   11.42
   4   6   4  115.33    7.69
   4  -6   4  117.86    4.57
   4  -6  -4  122.04    7.55
   4  -6   4  113.79    4.71
   4   6   4  112.31    4.65
  -4  -6   4  122.01    5.18
   4  -6   4  121.80    5.31
   4   6   5  255.16   11.43
   4  -6   5  267.98    7.38
   4  -6   5  264.60    8.25
  -4  -6   5  285.60    8.52
   4  -6  -5  290.45   11.48
   4   6   6  254.82   11.54
   4   6   6  244.03   11.90
   4   6  -6  237.52    7.10
   4  -6   6  256.22    8.74
  -4  -6   6  248.39    8.70
   4   6   7  120.01    9.57
   4  -6   7  107.99    6.42
   4   6   7  113.73    8.83
  -4  -6   7  126.22    6.97
   4   6   8   22.29    6.61
   4   6   8   23.55    6.87
  -4  -8   0  412.10    7.41
  -4   8   0  410.94    7.33
  -4   8   0  423.59    7.56
   4   8   0  437.00    7.75
  -4   8   1  468.22    8.16
  -4  -8   1  465.32    8.20
   4  -8   1  464.55    8.01
  -4   8  -1  473.01    8.31
   4   8   1  474.26    8.13
  -4  -8  -1  472.35    8.26
  -4   8  -1  475.70    8.34
   4   8  -1  476.00    8.44
   4  -8   2  541.17    9.13
   4   8   2  528.98    9.04
  -4   8   2  529.13    9.27
   4  -8  -2  544.92   13.05
  -4   8  -2  523.44    9.30
   4   8  -2  531.50    9.39
   4  -8   3  242.23    4.50
   4  -8  -3  256.99    9.96
   4  -8   3  254.24    6.38
   4   8   3  245.26    6.25
   4  -8   3  247.10    6.96
  -4  -8   3  254.15    7.06
   4   8   4   87.20    7.09
   4   8   4   89.69    4.15
   4  -8  -4  106.46    7.28
   4  -8   4   96.01    4.37
   4  -8   4   97.65    4.99
  -4  -8   4   90.59    4.81
   4   8   5   97.11    7.94
   4   8   5   95.62    7.77
  -4  -8   5   84.64    5.18
   4  -8   5   80.24    4.99
   4   8   6  190.74   11.09
   4   8   6  190.03   10.46
   4  -8   6  183.47    7.77
  -4  -8   6  171.36    7.60
   4   8  -6  178.15    4.82
   4   8   7   36.67    6.92
   4   8   7   46.34    7.53
   4  -8   7   48.59    4.98
  -4  -8   7   46.77    4.96
   4 -10   0  112.27    5.24
  -4  10   0  115.28    3.73
  -4 -10   0  114.20    3.76
  -4  10   0  109.80    4.37
   4  10   0  109.31    4.38
  -4  10   1   81.34    3.27
  -4 -10   1   77.79    3.34
   4 -10  -1   80.67    5.24
   4 -10   1   81.78    3.85
  -4  10  -1   82.08    3.32
  -4 -10  -1   75.78    3.24
   4 -10   1   84.23    3.29
  -4  10  -1   75.45    3.76
   4  10  -1   82.47    4.03
   4  10   1   83.09    3.33
   4 -10   2  649.40   10.08
   4  10   2  662.99   10.16
   4 -10   2  649.58    8.07
   4 -10  -2  658.85   15.06
  -4  10   2  677.03   10.49
  -4 -10   2  668.35   10.58
  -4  10  -2  668.52   11.54
   4  10  -2  668.06   11.59
   4  10   3   18.26    4.30
   4 -10  -3   24.54    4.55
   4 -10   3   22.97    2.33
   4  10   3   22.37    2.32
  -4  10  -3   17.51    2.75
   4  10  -3   20.37    2.75
   4  10   4   29.27    5.11
   4 -10   4   41.73    3.11
   4  10   4   38.23    2.82
   4 -10   4   39.29    3.70
  -4 -10   4   39.01    3.69
   4  10   4   48.23    5.90
   4 -10   5    0.56    2.54
  -4 -10   5    0.84    2.54
   4  10   5   -4.30    4.60
   4  10   5   -2.17    4.23
   4  10   6  158.22   10.70
   4 -10   6  175.94    7.80
  -4 -10   6  167.06    7.66
   4  10   6  152.26   10.26
   4  10   7    4.39    4.92
   4  10   7    8.87    6.21
   4 -10   7    2.13    3.40
  -4 -10   7    1.78    3.48
  -4  12   0   -0.70    2.17
   4  12   0    1.99    2.19
  -4  12   0    2.05    1.24
  -4 -12   0    1.23    1.21
   4 -12   0    0.62    2.54
   4 -12   1  186.02    5.38
   4 -12  -1  180.48    7.40
  -4  12  -1  189.04    6.15
  -4  12   1  181.08    4.68
  -4 -12   1  173.02    4.75
   4 -12  -2  776.78   16.54
   4 -12   2  768.64   10.96
   4  12   2  779.33   11.10
  -4  12   2  770.89   11.24
  -4 -12   2  761.06   11.38
  -4  12  -2  770.16   13.25
   4  12  -2  741.63   13.28
   4 -12  -3   95.70    6.78
  -4  12  -3  106.17    5.17
   4  12  -3  101.30    5.08
   4 -12   3   98.53    4.01
   4  12   3  104.60    4.14
   4  12   4    3.75    4.23
   4  12   4    0.52    3.97
   4 -12   4   -0.16    1.72
   4  12   4    0.77    1.55
   4  12   5   51.91    6.75
   4  12  -5   47.28    2.40
   4 -12   5   58.67    4.86
  -4 -12   5   53.80    4.69
   4  12   6  206.07   12.33
   4 -12   6  218.98    8.93
  -4 -12   6  216.56    8.85
   4  12   6  208.07   12.42
  -4  14   0    0.61    2.15
   4  14   0    1.68    2.21
   4 -14   0   -0.22    2.34
  -4  14   0    1.51    1.08
  -4 -14   0    1.15    1.11
   4 -14   1   27.50    2.60
   4 -14  -1   30.66    3.85
  -4  14   1   27.41    1.96
  -4 -14   1   26.04    1.97
  -4  14  -1   31.27    3.42
   4  14  -1   31.71    3.45
   4 -14  -2  402.34   12.06
  -4  14   2  405.41    7.57
  -4 -14   2  413.20    7.73
   4 -14   2  408.46    7.30
   4  14   2  411.13    7.43
  -4  14  -2  416.21    9.92
   4  14  -2  408.51    9.92
   4  14   2  396.23   13.54
   4 -14   3   23.85    2.37
   4  14   3   29.96    2.48
  -4  14   3   27.91    2.49
  -4 -14   3   31.45    2.60
   4  14  -4    0.38    2.41
   4  14   4    1.74    4.66
   4 -14   4   -0.64    1.66
   4  14   4    2.00    1.57
   4  14   5   13.70    5.84
   4  14   5   11.58    5.25
   4 -14   6   89.31    6.36
  -4 -14   6   88.99    6.30
   4 -16   0  178.92    6.83
   4  16   0  159.24    8.37
  -4  16   0  181.61    6.87
   4  16  -1    1.45    3.16
   4  16   1   -1.25    3.42
  -4  16   1    0.09    1.12
   4 -16   1    2.33    3.77
  -4 -16   1   -0.10    1.01
   4 -16  -1    0.30    3.05
   4  16  -2   19.07    4.11
   4  16   2   15.43    4.41
   4 -16   2   23.74    4.38
   4  16   2   24.44    5.28
   4 -16  -2   17.13    3.91
  -4  16   2   18.44    1.87
  -4 -16   2   20.40    1.95
  -4  16   3   -0.56    1.66
   4  16  -3   -0.88    3.01
   4  16   3    4.89    4.36
   4  16   3   -1.11    4.41
  -4 -16   3   -0.41    1.52
   4 -16   3    1.12    1.55
   4 -16   4   70.38    3.61
   4  16   4   65.06    7.50
  -4  16   4   76.55    3.92
  -4 -16   4   74.61    3.83
   4  16  -4   75.07    4.31
   4  16   5    3.50    6.05
   4  18   0  197.02    9.86
   4  18   1   15.46    4.82
   4  18  -1   15.97    4.76
  -4 -18   1   15.51    1.40
   4  18   1   17.40    5.05
   4  18   2    1.55    4.12
   4  18  -2   -0.40    3.87
   4  18   2    5.59    4.81
  -4 -18   2    2.20    1.14
   4  18   3    5.76    4.46
   4  18  -3    8.75    3.76
  -4 -18   3    6.61    1.60
   4  18   3    7.08    4.98
   4  18   4   92.49    8.85
  -4 -18   4   96.92    4.15
   4  20   0   55.06    6.82
   4  20   0   59.80    7.02
   4  20   1   10.35    4.95
   4  20  -1   16.92    5.57
   4  20   1   20.32    5.43
   4  20   2    2.21    4.93
   4  20  -2   -0.89    4.46
   4  20   2    1.77    4.90
   4  20   3    2.51    5.07
   4  22   0   -0.58    5.38
   4  22   0    2.45    4.27
   4  22   1    3.51    5.23
   4  22  -1    0.56    5.61
   4  22  -1   -3.92    4.23
   4  22   1    0.55    4.86
   4  24   0   13.79    6.92
   4  24   0    2.38    4.35
  -5   1   0 2163.63   23.39
  -5   1   1   49.21    3.06
   5   1   1   49.17    3.08
  -5   1  -1   45.01    2.91
  -5   1   2    0.68    1.46
   5   1   2    4.26    1.92
   5   1   2    2.84    1.01
  -5   1  -2    4.95    1.63
  -5   1   2    0.87    0.95
   5  -1   2    0.75    1.07
  -5  -1   2    5.25    1.14
   5   1   3    5.68    2.02
   5  -1   3    1.73    1.53
  -5  -1   3    2.93    1.58
   5   1   4 1235.35   22.54
   5  -1   4 1269.97   21.62
   5  -1   4 1277.75   17.09
  -5  -1   4 1258.17   17.01
   5   1   4 1254.64   17.97
   5   1   5    2.76    3.31
   5  -1   5    3.45    3.21
   5  -1   5   -0.64    2.22
  -5  -1   5   -0.22    2.28
   5  -1  -6    4.57    4.20
   5   1   6    1.74    4.21
   5  -1   6   -1.54    3.64
   5   1   6    0.26    2.63
  -5   1   6    0.53    2.54
   5  -1   6   -0.78    2.45
  -5  -1   6   -1.08    2.70
   5  -1   7   -1.62    3.75
   5   1   7   -1.77    4.63
   5   1   7   -1.44    4.47
   5  -1   7    0.87    4.46
   5   1   7   -3.58    3.62
  -5   1   7   -3.52    3.36
   5  -1   7    0.31    3.12
  -5  -1   7   -2.23    3.22
  -5   1   8  185.31    8.91
  -5   3   0 1012.22   13.94
  -5   3   1   26.09    2.39
   5  -3   1   20.66    2.35
  -5   3  -1   21.50    2.22
   5   3   1   22.26    2.32
   5  -3   2  411.43    8.50
   5   3   2  410.69    8.50
  -5   3  -2  401.80    8.66
  -5   3   2  420.53    8.81
   5  -3   2  427.39    6.70
  -5  -3   2  397.87    6.51
   5  -3   3   22.09    2.32
  -5  -3   3   25.17    2.28
   5  -3   3   26.51    2.74
   5   3   3   25.68    2.77
   5   3   4  317.36   11.37
   5  -3   4  324.39    9.81
   5  -3   4  308.56    8.10
   5  -3   4  319.81    7.91
  -5  -3   4  314.21    7.78
   5   3   4  317.68    8.24
   5   3   5   12.41    4.40
   5  -3   5   10.62    3.20
   5  -3   5    7.39    2.60
  -5  -3   5    7.45    2.30
   5   3   6   81.74    7.51
   5  -3   6   89.61    6.32
   5  -3   6   88.94    5.36
  -5  -3   6   97.05    5.68
   5   3   7   10.12    4.83
   5   3   7    4.79    5.31
   5  -3   7    5.31    3.23
  -5  -3   7    7.14    3.21
   5   3   8   80.19    8.63
  -5   5   0  123.70    2.94
   5   5   0  127.61    3.07
  -5   5   0  115.47    4.28
  -5  -5   0  123.34    4.46
  -5   5   1  447.89    8.85
  -5  -5   1  439.86    8.79
   5  -5   1  452.55    8.63
   5   5   1  450.27    8.63
  -5   5  -1  435.00    8.63
  -5  -5  -1  446.42    8.80
   5   5  -1  429.96    6.44
   5  -5   2  900.94   13.21
   5   5   2  885.53   13.12
  -5  -5  -2  878.93   13.56
  -5   5   2  882.35   13.51
  -5  -5   2  872.82   13.44
   5  -5   3  300.75    6.97
   5  -5   3  316.07    7.69
   5   5   3  317.56    7.67
   5  -5   4   39.77    3.52
   5   5   4   34.94    5.00
   5  -5   4   36.98    3.19
   5   5   4   34.74    3.09
   5  -5   4   39.35    3.32
  -5  -5   4   33.78    3.14
   5   5   5  119.50    8.40
   5  -5   5  121.60    5.87
   5  -5   5  117.02    5.59
  -5  -5   5  116.87    5.59
   5   5   6  286.29   12.88
   5  -5   6  276.08    9.16
   5   5   6  252.72   11.31
   5  -5   6  260.24    8.75
  -5  -5   6  262.74    8.81
   5   5   7   52.05    6.76
   5   5   7   34.32    7.02
   5  -5   7   41.15    4.60
  -5  -5   7   44.09    4.96
   5   5   8   23.38    6.20
  -5   7   0   82.45    3.05
  -5   7   0   79.18    3.61
   5   7   0   89.92    3.21
  -5  -7   0   81.93    3.68
  -5   7   1  127.12    4.63
  -5  -7   1  137.08    4.85
  -5   7  -1  130.75    4.67
  -5  -7  -1  147.40    4.94
   5  -7   1  128.75    4.58
   5   7   1  136.43    4.68
  -5   7  -1  134.86    4.00
   5   7  -1  120.28    3.90
   5  -7   2  717.47   11.59
   5   7   2  724.99   11.63
  -5   7   2  716.91   11.90
  -5  -7   2  710.12   11.91
   5  -7   3  163.87    5.52
  -5  -7   3  164.23    5.47
   5  -7   3  159.30    5.47
   5   7   3  162.93    5.50
   5  -7   4   46.85    3.23
   5   7   4   41.64    5.39
   5  -7   4   53.06    3.51
   5   7   4   54.99    3.67
   5  -7   4   49.77    3.63
  -5  -7   4   56.80    3.85
   5   7   5  123.95    8.68
   5  -7   5  131.24    5.17
   5  -7   5  125.36    5.97
  -5  -7   5  119.31    5.88
   5   7   6  174.81   10.80
   5   7   6  184.12   10.41
   5  -7   6  181.70    7.58
  -5  -7   6  191.04    7.70
   5   7   7   23.08    5.82
   5   7   7   25.74    6.54
   5  -7   7   28.11    4.28
  -5  -7   7   30.01    4.45
   5   9   0  104.51    3.99
  -5   9   0  101.62    3.98
  -5  -9   0  104.14    4.07
  -5   9   0  100.68    3.89
  -5   9  -1    1.99    1.52
  -5  -9  -1    2.95    1.60
  -5   9   1    0.60    1.68
  -5  -9   1   -0.15    1.50
   5  -9   1    0.70    1.73
   5   9   1    2.15    1.82
  -5   9  -1    1.61    1.84
   5   9  -1    2.18    1.90
   5  -9   2  405.12    8.42
   5   9   2  410.90    8.40
   5  -9  -2  419.94   12.15
  -5   9   2  409.58    8.71
  -5  -9   2  406.98    8.69
  -5   9  -2  412.52    8.32
   5   9  -2  404.40    8.34
   5  -9  -3    4.50    4.06
   5  -9   3    2.92    2.05
   5   9   3    1.35    1.81
   5   9   4  102.70    7.91
   5  -9   4   99.46    4.54
   5   9   4   89.62    4.30
   5  -9   4  108.15    5.22
  -5  -9   4  103.46    5.23
   5  -9   5    1.86    2.49
  -5  -9   5    2.66    2.67
   5   9   5    3.28    4.11
   5   9   5    1.64    4.29
   5   9   6   95.50    8.79
   5   9   6   95.35    8.56
   5  -9   6   96.19    6.00
  -5  -9   6  111.08    6.38
   5   9   7    2.48    5.52
   5  -9   7    0.68    3.19
  -5  -9   7   -0.34    3.41
   5 -11   0   53.62    4.27
  -5  11   0   54.14    2.99
  -5 -11   0   50.99    2.99
  -5  11   0   48.02    3.22
   5  11   0   46.81    3.28
   5 -11  -1  196.51    7.88
   5 -11   1  163.82    5.74
  -5  11  -1  181.65    5.32
  -5 -11  -1  169.08    5.19
  -5  11  -1  182.20    5.67
   5  11  -1  186.05    5.78
  -5  11   1  190.14    5.44
  -5 -11   1  174.03    5.31
   5 -11   2  313.63    6.29
   5 -11  -2  329.64   10.90
  -5  11   2  327.12    7.59
  -5 -11   2  307.84    7.44
   5 -11   2  323.01    7.33
   5  11   2  332.71    7.36
  -5  11  -2  328.25    7.89
   5  11  -2  315.35    7.86
   5 -11   3  144.57    5.15
   5  11   3  140.76    5.04
  -5  11  -3  141.35    5.51
   5  11  -3  138.61    5.57
  -5  11   3  153.48    5.44
  -5 -11   3  143.78    5.35
   5  11   4   14.85    4.88
   5  11   5   68.23    7.77
   5  11   5   74.69    7.67
   5 -11   5   68.47    5.02
  -5 -11   5   80.31    5.34
   5  11   6  101.40    9.46
   5  11   6  105.86    9.77
   5 -11   6   96.11    6.24
  -5 -11   6   87.74    6.09
   5 -13   0   45.19    3.98
  -5  13   0   47.87    2.83
  -5 -13   0   39.23    2.60
  -5  13   0   39.41    3.42
   5  13   0   39.46    3.31
   5 -13   1   51.81    3.52
   5 -13  -1   54.10    4.88
  -5  13  -1   57.86    3.84
   5  13  -1   56.19    3.86
  -5 -13   1   54.55    3.01
  -5  13   1   50.63    2.91
  -5  13   2  214.68    5.97
  -5 -13   2  211.72    6.04
   5 -13  -2  207.77    9.09
   5 -13   2  210.50    5.65
   5  13   2  216.21    5.82
  -5  13  -2  204.13    6.89
   5  13  -2  215.24    7.01
   5 -13   3   46.25    3.08
   5  13   3   45.82    3.19
  -5  13   3   47.95    3.34
  -5 -13   3   42.12    3.18
  -5  13  -3   38.70    3.67
   5  13  -3   44.55    3.98
   5  13   4   11.34    5.04
   5  13   4   11.75    4.73
   5  13   5   23.50    6.49
   5  13   5   22.95    5.67
   5 -13   6   69.70    5.64
  -5 -13   6   72.14    5.74
   5 -15   0  109.57    5.72
  -5  15   0  102.41    3.80
  -5 -15   0   96.53    3.75
  -5  15   0  105.59    5.14
   5  15   0  107.58    5.34
  -5  15   1    4.18    2.45
   5  15   1    2.22    2.56
   5 -15   1    3.28    1.97
  -5  15   1    4.33    1.57
  -5 -15   1    4.54    1.54
   5 -15  -1    7.62    3.25
  -5  15  -1    2.21    2.59
   5  15  -1    5.39    2.79
  -5 -15   2   29.86    2.53
   5 -15  -2   31.16    4.76
  -5  15   2   30.33    2.57
   5  15   2   33.20    5.06
  -5 -15   3   -1.19    1.73
   5  15   3   -0.54    4.42
   5 -15   3    0.46    1.71
  -5  15   3    1.20    1.78
   5  15   4   45.95    7.29
  -5  15   4   58.23    3.84
  -5 -15   4   54.69    3.69
   5  15  -4   56.06    5.06
   5  17   0  128.81    7.51
   5  17  -1   -0.38    3.33
   5  17   1   -2.52    3.60
  -5  17   1    1.96    1.41
  -5 -17   1    1.32    1.32
   5  17  -2   -1.17    3.68
   5  17   2    0.48    4.12
   5  17   2    1.80    4.47
  -5  17   2    1.08    1.44
  -5 -17   2    0.67    1.41
   5  17  -3   -2.68    4.36
   5  17   3   -4.99    5.07
  -5 -17   3   -1.53    1.72
   5  17   3    4.89    4.87
  -5 -17   4  108.35    4.76
  -5 -17   5    1.03    2.38
   5  19   0   61.42    6.50
   5  19  -1    3.62    4.46
   5  19   1   -1.38    4.33
   5  19   1   -6.03    5.06
   5  19  -2   -3.30    5.11
   5  19   2   -2.53    4.74
   5  19   2   -0.65    5.36
   5  21   0    3.57    4.62
   5  21   0    7.74    5.39
   5  21   1    1.01    4.80
   5  21  -1    1.07    5.25
   5  21   1    1.25    5.23
  -6   0   0  371.92    8.55
   6   0   1    0.68    1.80
  -6   0  -1    1.84    1.54
  -6   0   1    1.14    1.90
   6   0   2  492.20   10.17
  -6   0  -2  485.88   10.35
  -6   0   2  495.88   10.44
   6   0   2  497.15    6.32
  -6   0   2  496.45    6.22
   6   0   3    2.80    1.50
   6   0   3    4.26    2.21
  -6   0   3    3.77    1.49
   6   0   4   79.65    3.88
  -6   0   4   78.71    3.83
   6   0   5    0.40    3.36
   6   0   5   -0.83    2.21
  -6   0   5   -1.87    2.24
   6   0   6  122.80    8.09
   6   0   6  130.87    6.37
   6   0   7   -1.88    4.86
   6   0   7    0.32    3.30
  -6   0   7    1.23    3.42
  -6   2   0   44.75    3.27
  -6   2  -1  222.62    6.58
   6   2   1  213.66    6.41
   6   2   2  684.75   12.11
  -6   2  -2  662.93   12.26
  -6   2   2  691.41   12.49
   6   2   2  664.91    8.04
  -6   2   2  655.73    7.85
   6  -2   2  669.40    8.00
   6   2   3   86.94    4.66
  -6   2   3   93.62    3.45
   6  -2   3   94.01    3.53
  -6  -2   3   98.26    3.56
  -6   2   4   40.51    2.96
   6  -2   4   42.61    3.09
  -6  -2   4   42.17    3.08
   6  -2   5   57.34    5.22
   6   2   5   46.55    5.61
   6   2   5   48.14    3.78
  -6   2   5   52.71    3.81
   6  -2   5   46.98    3.68
  -6  -2   5   53.91    3.88
   6   2   6  174.76    9.63
   6  -2   6  168.61    8.67
   6   2   6  191.60    7.62
  -6   2   6  173.81    7.11
   6  -2   6  178.74    7.21
  -6  -2   6  186.84    7.36
   6   2   7   12.72    5.43
   6   2   7   17.36    4.14
  -6   2   7   18.03    3.97
   6  -2   7   22.10    3.88
  -6  -2   7   17.70    3.75
   6   2   7   14.23    4.82
  -6   4   0   26.88    2.64
  -6  -4   0   31.20    2.85
  -6   4   1  162.99    5.79
  -6  -4   1  166.70    5.80
  -6   4  -1  171.42    5.82
  -6  -4  -1  166.51    5.75
   6   4   1  173.16    5.77
  -6   4   1  161.74    2.59
   6   4   1  163.91    2.88
   6  -4   2  720.44   12.48
   6   4   2  737.82   12.65
  -6   4  -2  724.01   12.83
  -6  -4  -2  732.12   12.91
  -6   4   2  725.73   13.03
  -6  -4   2  727.49   12.98
   6  -4   3  130.01    5.41
   6   4   3  118.59    5.19
  -6   4   3  115.18    5.26
  -6  -4   3  128.47    5.52
   6  -4   3  121.90    4.15
  -6  -4   3  117.63    4.09
   6  -4   4   27.85    2.80
  -6  -4   4   24.96    2.71
   6  -4   5   44.27    4.46
   6   4   5   39.42    5.91
   6  -4   5   48.44    3.79
  -6  -4   5   38.54    3.59
   6   4   6  184.57   10.44
   6  -4   6  187.28    7.32
  -6  -4   6  183.49    7.34
   6   4   7    3.08    4.85
   6   4   7   16.06    5.70
  -6   4   7   16.56    3.83
   6  -4   7   13.39    3.70
  -6  -4   7   16.74    3.83
  -6   6   0  146.55    3.27
   6   6   0  157.28    3.49
  -6   6   0  144.25    5.29
  -6  -6   0  148.13    5.34
   6   6   1   12.71    1.49
   6  -6   1   11.87    2.25
  -6   6   1   11.72    2.28
  -6   6  -1   13.09    2.22
  -6  -6   1   13.66    2.29
  -6  -6  -1   13.36    2.23
   6   6   1   15.99    2.45
  -6   6   1   13.87    1.46
  -6   6  -2  304.94    7.99
   6  -6   2  301.81    7.70
  -6  -6  -2  285.28    7.77
   6   6   2  316.51    7.86
  -6   6   2  302.95    8.03
  -6  -6   2  289.39    7.89
   6  -6   3   19.73    2.25
   6  -6   3   15.04    2.51
   6   6   3   18.14    2.66
  -6  -6   3   22.01    2.85
  -6   6   3   23.34    2.95
   6  -6   4  111.62    5.58
   6  -6   4  112.51    4.93
  -6  -6   4  111.08    4.86
   6   6   5   12.28    4.35
   6  -6   5   19.09    3.44
   6  -6   5   12.28    2.88
  -6  -6   5   14.49    2.96
   6   6   6   75.16    7.88
   6  -6   6   74.69    5.09
  -6  -6   6   75.80    5.27
   6   6   7   -0.55    5.19
   6   6   7    2.39    5.49
   6  -6   7    3.12    3.16
  -6  -6   7   -0.32    3.34
  -6   8   0  687.68   11.98
  -6  -8   0  710.65   12.14
  -6   8   0  715.44    9.74
   6   8   0  694.01    9.83
  -6   8   1   18.78    2.50
  -6   8   1   16.91    1.91
   6   8   1   18.23    1.90
  -6  -8   1   19.15    2.45
  -6   8  -1   18.57    2.51
  -6  -8  -1   15.57    2.35
  -6   8  -1   20.71    2.02
   6   8  -1   21.10    2.04
   6  -8   1   22.81    2.65
  -6  -8   2    3.81    1.90
   6  -8   2    2.50    1.94
   6   8   2    3.96    2.11
  -6   8   2    2.78    1.85
   6  -8   3   16.90    2.55
   6   8   3   16.02    2.58
  -6  -8   3   19.95    2.79
  -6   8   3   22.94    2.87
   6   8   4  248.18   11.56
   6  -8   4  261.99    7.04
   6  -8   4  255.90    7.54
  -6  -8   4  258.65    7.52
   6  -8   5    7.89    2.74
  -6  -8   5    9.34    2.81
   6   8   5   14.81    4.99
   6  -8   6    9.96    3.01
  -6  -8   6    6.84    3.18
   6   8   6   11.24    5.33
   6   8   6    9.30    5.43
   6  -8   7    0.65    3.43
  -6  -8   7    4.24    3.22
  -6  10   0  503.25    9.95
  -6 -10   0  504.72   10.03
  -6  10   0  507.07    8.95
   6  10   0  522.84    9.08
  -6  10  -1   39.40    3.00
  -6 -10  -1   31.63    2.88
  -6  10  -1   48.96    3.08
   6  10  -1   42.44    2.96
  -6  10   1   39.23    2.83
   6  10   1   32.22    2.69
  -6  10   1   44.32    3.21
  -6 -10   1   46.55    3.31
   6  10   2    1.42    2.05
  -6  10   2    0.20    1.87
   6 -10  -2    2.12    3.68
  -6 -10   2    1.79    1.85
  -6  10  -2    0.30    1.77
   6  10  -2    1.55    1.81
   6 -10   2    2.12    2.08
  -6 -10   3   20.33    2.83
  -6  10   3   23.66    2.95
   6  10   4  271.80   12.44
  -6  10   4  270.66    8.02
  -6 -10   4  278.25    8.34
   6 -10   5   12.85    3.07
  -6 -10   5    6.52    2.77
   6  10   5   13.28    5.08
   6 -10   6    1.80    2.86
  -6 -10   6   -1.81    3.11
   6 -12   0  183.93    7.29
  -6  12   0  174.37    5.63
  -6 -12   0  179.07    5.79
  -6  12   0  188.51    5.83
   6  12   0  185.07    5.85
  -6  12   1    6.27    2.12
   6  12   1    4.51    2.10
   6 -12  -1   14.63    3.72
   6 -12   1    7.51    2.84
  -6  12   1    6.29    1.93
  -6 -12   1    5.69    1.85
  -6  12  -1    5.77    1.86
  -6 -12  -1    6.55    1.87
  -6  12  -1    6.47    2.20
   6  12  -1    7.29    2.25
  -6  12   2   15.63    2.52
   6  12   2   24.42    2.83
  -6 -12   2   21.25    2.77
   6 -12   2   20.24    2.57
   6 -12  -2   20.12    4.57
   6 -12   2   21.46    2.54
  -6  12  -2   23.89    2.83
   6  12  -2   20.72    2.88
  -6  12   3    3.10    2.24
  -6 -12   3    1.26    2.00
   6  12   4   94.60    8.37
  -6  12   4  111.89    5.27
  -6 -12   4  111.27    5.52
   6  12   5    3.43    5.32
   6  12   5   -2.42    4.88
  -6  14   0   47.97    3.14
  -6 -14   0   46.16    3.13
   6 -14   0   39.77    4.21
  -6  14   0   45.88    3.64
   6  14   0   37.48    3.49
   6 -14  -1   35.67    4.62
  -6  14   1   38.53    2.92
  -6 -14   1   39.15    2.92
  -6  14  -1   37.72    3.39
   6  14  -1   38.06    3.57
  -6  14   1   43.45    3.54
   6  14   1   38.28    3.50
  -6  14  -2   43.92    3.75
   6  14  -2   36.39    3.65
  -6  14   2   40.29    3.21
  -6 -14   2   40.40    3.20
  -6  14   3   24.10    3.01
  -6 -14   3   23.49    2.83
   6  14   4   38.43    7.02
   6  14   4   32.86    6.32
  -6  14   4   42.46    3.71
  -6 -14   4   42.74    3.79
  -6 -14   5   12.43    3.10
  -6  14   5    7.70    2.85
  -6  16   0   58.91    3.30
  -6 -16   0   56.77    3.28
  -6  16   1   44.40    2.99
  -6 -16   1   49.20    3.17
  -6  16   2   11.89    2.36
  -6 -16   2   13.14    2.23
   6  16   3   33.31    6.36
  -6  16   3   32.74    3.27
  -6 -16   3   30.87    3.13
   6  16   3   23.34    6.42
  -6 -16   4   32.35    3.39
  -6 -16   5   17.60    3.36
   6  18   0   24.45    4.46
   6  18   1    1.30    3.51
  -6 -18   1    7.22    1.83
   6  18  -1    3.19    3.53
   6  18  -2    5.55    4.38
   6  18   2    9.26    4.39
   6  18   2    6.83    5.87
  -6 -18   2   10.46    2.03
   6  20   0   -0.44    4.23
   6  20  -1    0.93    4.45
   6  20  -2   19.34    6.07
   6  22  -1    0.56    5.61
  -7   1   0   18.53    2.53
  -7   1   1   46.81    3.67
  -7   1  -1   50.36    3.70
   7   1   1   41.86    3.52
  -7   1   2  428.00   10.26
  -7   1  -2  407.67    9.92
  -7   1   3   42.45    3.76
   7   1   3   37.75    2.23
  -7   1   3   41.49    2.20
   7  -1   3   44.19    2.30
  -7  -1   3   41.66    2.22
   7   1   4   21.05    2.34
  -7   1   4   18.18    2.32
   7  -1   4   20.05    2.36
  -7  -1   4   18.82    2.30
   7   1   5   17.31    4.70
   7  -1   5   11.65    3.82
   7   1   5   16.31    2.71
  -7   1   5   17.15    2.81
   7  -1   5   15.92    2.74
  -7  -1   5   18.73    2.83
   7   1   6  102.24    7.81
   7  -1   6  134.38    8.19
  -7   1   6  114.03    5.87
  -7  -1   6  123.78    5.99
  -7   1   7    5.42    3.35
  -7  -1   7    7.07    3.44
  -7   3   0   30.71    3.05
  -7  -3   0   34.60    3.20
  -7   3   1  149.30    5.96
  -7  -3   1  136.68    5.78
  -7   3  -1  136.85    5.67
  -7  -3  -1  133.78    5.59
   7  -3   1  143.83    5.65
   7   3   1  145.24    5.74
  -7   3   2  414.55   10.11
  -7  -3   2  398.28    9.91
  -7   3  -2  392.93    9.65
  -7  -3  -2  401.54    9.78
  -7   3   3  128.75    5.88
  -7  -3   3  129.31    5.94
   7   3   3  136.39    3.92
  -7   3   3  127.98    3.74
   7  -3   3  129.87    3.83
  -7  -3   3  134.24    3.81
  -7  -3   4   13.87    2.92
  -7   3   4   17.69    3.10
   7   3   4   14.01    2.20
  -7   3   4   17.29    2.27
   7  -3   4   10.27    2.06
  -7  -3   4   17.16    2.25
   7   3   5   71.33    6.85
   7  -3   5   68.43    5.71
   7   3   5   84.72    4.73
  -7   3   5   87.32    4.48
   7  -3   5   73.61    4.24
  -7  -3   5   71.86    4.29
   7   3   6  125.93    8.66
  -7   3   6  121.95    5.93
  -7  -3   6  121.63    5.91
   7   3   7   25.09    5.91
  -7   3   7   21.12    3.84
  -7  -3   7   20.68    3.85
  -7   5   0  146.77    5.74
  -7  -5   0  134.13    5.58
  -7   5   1   97.02    4.95
  -7  -5   1  100.53    5.02
  -7   5  -1   98.71    4.85
  -7  -5  -1  103.83    4.99
  -7   5   2  160.88    6.38
  -7  -5   2  164.64    6.37
  -7   5  -2  170.22    6.34
  -7  -5  -2  148.02    5.96
  -7   5   3   59.46    4.25
  -7  -5   3   57.15    4.24
  -7   5   4   45.27    4.01
  -7  -5   4   41.53    3.93
   7  -5   4   50.40    3.31
  -7  -5   4   43.46    3.17
  -7  -5   5   28.98    3.33
   7   5   5   25.33    5.62
   7  -5   5   29.42    3.27
   7   5   6   49.91    6.90
  -7  -5   6   49.76    4.44
  -7   5   7   10.23    3.55
  -7  -5   7   15.46    3.69
   7   7   0  344.81    5.10
  -7   7   0  355.90    8.90
  -7  -7   0  350.88    8.94
  -7   7  -1    7.57    2.14
  -7  -7  -1   12.14    2.50
  -7   7   1    6.35    2.12
  -7  -7   1    7.98    2.44
  -7   7   1    8.62    1.24
   7   7   1    8.23    1.33
  -7   7   2    5.34    2.31
  -7  -7   2    2.79    2.11
  -7  -7  -2    6.33    2.29
  -7   7   3    3.19    2.26
  -7  -7   3    3.70    2.35
   7  -7   4  197.37    7.24
  -7   7   4  219.78    7.71
  -7  -7   4  208.30    7.67
   7  -7   5    0.66    2.40
  -7  -7   5   -0.22    2.36
   7   7   5   -3.86    4.75
  -7  -7   6    2.36    3.01
   7   7   6    2.87    4.82
  -7   9   0  439.63    9.91
  -7  -9   0  426.54    9.86
  -7   9   0  423.01    7.04
   7   9   0  413.44    7.21
  -7   9  -1   -1.72    2.08
  -7  -9  -1   -0.22    2.05
  -7   9   1   -1.08    2.04
  -7  -9   1   -1.32    1.89
   7   9  -1   -0.85    1.65
  -7   9   1    0.61    1.41
   7   9   1    0.11    1.50
  -7   9   2    7.41    2.44
  -7  -9   2    5.91    2.28
  -7   9   3   -0.73    2.18
  -7  -9   3   -0.73    2.18
  -7   9   4  254.23    8.35
  -7  -9   4  251.74    8.40
   7   9   5    0.58    4.75
  -7   9   5   -1.68    2.66
  -7  -9   5   -1.45    2.81
  -7  -9   6   -1.10    3.01
  -7  11   0  178.49    6.17
  -7 -11   0  168.69    6.10
  -7  11   0  165.19    4.95
   7  11   0  168.89    5.11
  -7  11   1    5.48    2.05
  -7 -11   1    8.56    2.29
  -7  11  -1    4.78    1.89
  -7  11  -1    5.62    2.18
  -7 -11  -1    7.19    2.09
  -7  11   1    5.83    1.88
  -7  11   2    5.81    2.29
  -7 -11   2    4.05    2.16
  -7  11   3   -1.20    2.26
  -7 -11   3    3.63    2.46
   7  11   4   91.19    8.48
  -7  11   4   97.13    5.34
  -7 -11   4   99.46    5.56
  -7  11   5    1.09    2.77
  -7 -11   5    3.97    3.13
  -7  13   0   28.24    2.90
  -7 -13   0   31.69    3.06
  -7  13   0   26.84    2.69
  -7  13   1   26.84    2.91
  -7 -13   1   26.89    3.04
  -7 -13  -1   22.23    2.76
  -7  13  -1   25.98    2.88
  -7  13   1   24.69    2.87
  -7  13  -2   49.85    3.61
  -7  13   2   47.70    3.64
  -7  13   2   53.25    3.95
  -7 -13   2   47.46    3.74
  -7  13   3   17.42    3.05
  -7 -13   3   16.51    3.03
  -7  13   4   19.87    3.21
  -7 -13   4    8.62    2.95
  -7  13   5    9.54    3.14
  -7 -13   5    7.68    2.86
  -7  15   0    7.68    2.19
  -7 -15   0    4.84    1.98
  -7 -15   1   26.72    2.88
  -7  15   1   33.23    3.23
  -7  15   2   56.09    3.92
  -7 -15   2   54.81    3.79
  -7 -15   3   22.91    3.14
  -7  15   3   25.71    3.36
  -7 -15   4    3.16    2.52
  -7 -17   0    3.38    1.90
  -7 -17   1    2.01    1.80
  -7 -17   2   22.32    2.88
  -7 -17   3    3.11    2.26
   7  19  -1    1.29    3.97
   7  19  -2   12.24    5.12
  -8   0   0  278.33    8.47
  -8   0  -1   -0.50    2.18
  -8   0   1   -0.76    2.18
  -8   0   2    9.48    2.72
  -8   0  -2   13.57    2.65
  -8   0   3   -1.39    2.33
  -8   0   4  137.78    6.68
  -8   0   4  139.24    4.16
   8   0   5    0.85    3.97
  -8   0   5    0.64    2.85
  -8   2   0  216.57    7.49
  -8   2  -1    0.75    2.06
  -8   2   1    2.29    2.14
  -8   2   2   21.58    3.21
  -8   2  -2   20.76    2.91
  -8   2   3    0.27    0.44
  -8   2   3    3.06    2.56
  -8   2   4   96.99    5.71
  -8   2   4   93.82    3.58
  -8  -2   4   96.02    3.58
   8   2   5    2.81    4.38
   8  -2   5    0.76    3.54
   8   2   6   10.76    4.69
  -8   4   0   66.46    4.36
  -8  -4   0   68.74    4.47
  -8   4  -1    1.49    2.01
  -8  -4  -1    4.24    2.22
  -8   4   1    2.05    2.14
  -8  -4   1    5.36    2.31
  -8   4   2   70.63    4.69
  -8  -4   2   69.96    4.67
  -8   4  -2   65.48    4.49
  -8  -4  -2   68.37    4.57
  -8   4   3    8.63    2.88
  -8  -4   3    6.08    2.54
  -8   4   3    4.88    1.14
  -8   4   4   58.42    4.70
  -8  -4   4   69.21    4.98
  -8   4   4   62.01    3.11
   8   4   5   -2.59    4.34
   8   4   6   23.61    5.54
  -8   6   0   77.54    4.68
  -8  -6   0   78.56    4.69
  -8   6  -1   40.58    3.70
  -8  -6  -1   42.68    3.79
  -8   6   1   42.36    3.71
  -8  -6   1   45.10    3.94
  -8   6   2   57.02    4.36
  -8  -6   2   60.91    4.46
  -8   6  -2   59.11    4.30
  -8  -6  -2   56.47    4.19
  -8   6   3   22.00    1.80
  -8   6   3   24.15    3.40
  -8  -6   3   23.71    3.42
  -8   6   4   44.74    4.38
  -8  -6   4   46.36    4.38
  -8   6   4   44.92    2.97
   8   6   5    3.95    4.68
  -8   8   0   73.65    4.58
  -8  -8   0   63.63    4.32
  -8  -8  -1   28.38    3.28
  -8   8  -1   31.65    3.46
  -8   8   1   33.34    3.46
  -8  -8   1   36.08    3.59
  -8   8   2   38.71    3.74
  -8  -8   2   46.61    4.04
  -8   8   3   20.31    3.25
  -8  -8   3   19.63    3.29
  -8   8   4   37.16    4.20
  -8  -8   4   32.98    4.20
  -8  10   0   25.95    3.20
  -8 -10   0   24.81    3.19
  -8  10   1   -0.98    2.06
  -8 -10   1   -1.24    2.10
  -8  10  -1    0.73    2.20
  -8 -10  -1    0.49    2.03
  -8  10   2   59.14    4.44
  -8 -10   2   48.85    4.22
  -8  10   3    3.98    2.65
  -8 -10   3   -0.54    2.62
  -8 -10   4    9.84    3.06
  -8  10   4   13.25    3.20
  -8  12   0    1.42    2.05
  -8 -12   0   -0.24    2.18
  -8  12   1   -1.92    2.43
  -8 -12   1    0.96    2.26
  -8  12  -1    0.24    2.13
  -8 -12  -1   -0.71    2.02
  -8  12   2   94.66    5.31
  -8 -12   2   96.25    5.33
  -8  12   3   -0.26    2.52
  -8 -12   3    0.26    2.54
  -8  12   4    1.11    2.90
  -8 -12   4   -1.99    2.90
  -8 -14   0   -0.92    2.19
  -8  14   0   -0.69    2.21
  -8  14   1    0.24    2.37
  -8 -14   1    0.93    2.19
  -8  14   2   55.36    4.19
  -8 -14   2   61.49    4.38
  -8  14   3   -1.53    2.74
  -8 -14   3   -1.02    2.68
  -8 -16   0    6.23    2.40
  -8 -16   1    1.76    2.12
  -8 -16   2   12.01    2.70
  -8 -16   3    0.96    2.46
  -9   1   0  195.07    7.62
  -9   1  -1    1.99    2.31
  -9   1   1    3.45    2.39
  -9   1   2   -1.19    2.61
  -9   1  -2   -0.57    2.35
  -9   1   3    0.93    2.58
   9   1   5    1.85    4.21
  -9   3   0   87.54    5.33
  -9  -3   0   95.48    5.60
  -9   3  -1   11.42    2.71
  -9  -3  -1   23.09    3.31
  -9   3   1   22.77    3.46
  -9  -3   1   16.12    3.10
  -9   3  -2   15.23    3.02
  -9  -3  -2   10.65    2.81
  -9   3   2   15.29    3.20
  -9  -3   2    8.91    2.91
  -9   3   3    6.77    2.96
  -9  -3   3   13.12    3.33
   9   3   5    1.55    4.57
  -9   5   0   24.93    3.39
  -9  -5   0   22.14    3.30
  -9   5  -1   42.04    4.04
  -9  -5  -1   38.49    4.08
  -9   5   1   45.46    4.27
  -9  -5   1   42.28    4.08
  -9   5  -2   50.12    4.34
  -9  -5  -2   62.64    4.68
  -9   5   2   58.03    4.77
  -9  -5   2   54.07    4.71
  -9   5   3   26.80    3.80
  -9  -5   3   24.45    3.69
  -9   7   0    5.93    2.73
  -9  -7   0    4.55    2.55
  -9   7  -1   20.97    3.48
  -9  -7  -1   21.70    3.54
  -9   7   1   19.34    3.29
  -9  -7   1   20.57    3.42
  -9   7   2   68.54    5.08
  -9  -7   2   65.84    5.02
  -9   7   3   13.54    3.36
  -9  -7   3   20.38    3.73
  -9   9   0    0.28    2.45
  -9  -9   0   -0.28    2.36
  -9   9   1    0.28    2.55
  -9  -9   1    0.28    2.52
  -9   9  -1    0.28    2.57
  -9  -9  -1   -2.25    2.60
  -9   9   2   66.24    5.02
  -9  -9   2   73.18    5.15
  -9  11   0    1.09    2.54
  -9 -11   0   -1.09    2.42
  -9  11   1   10.77    2.85
  -9 -11   1    7.21    2.96
  -9  11  -1   11.32    2.86
  -9 -11  -1   11.15    2.87
  -9  11   2   46.45    4.40
  -9 -11   2   50.00    4.42
  -9  13   0   -0.27    2.67
  -9 -13   0   -0.27    2.56
  -9  13   1    8.65    3.03
  -9 -13   1    9.14    2.87
  -9  13   2   30.18    3.80
  -9 -15   0   13.80    3.02
  -9 -15   1    6.13    2.63
   0   0   0    0.00    0.00
;
_shelx_hkl_checksum              91943
loop_
_space_group_symop_operation_xyz
'x, y, z'
'-x, -y, z+1/2'
'-x, y, -z+1/2'
'x, -y, -z'
'x+1/2, y+1/2, z'
'-x+1/2, -y+1/2, z+1/2'
'-x+1/2, y+1/2, -z+1/2'
'x+1/2, -y+1/2, -z'
loop_
_atom_site_label
_atom_site_type_symbol
_atom_site_fract_x
_atom_site_fract_y
_atom_site_fract_z
_atom_site_U_iso_or_equiv
_atom_site_adp_type
_atom_site_occupancy
_atom_site_site_symmetry_order
_atom_site_calc_flag
_atom_site_refinement_flags_posn
_atom_site_refinement_flags_adp
_atom_site_refinement_flags_occupancy
Mn1 Mn -0.00026(15) 0.0000 0.0000 0.04221(13) Uani 1 2 d DS T P
Cl1 Cl 0.22621(9) 0.05176(4) 0.2526(2) 0.05890(19) Uani 1 1 d D . .
Cl2 Cl 0.0000 -0.11143(4) 0.2500 0.0578(3) Uani 1 2 d DS T P
C1 C -0.0008(13) 0.3826(3) 0.1470(8) 0.1146(4) Uani 0.5 1 d . U P
H1A H -0.1082 0.4087 0.1203 0.138 Uiso 0.5 1 d R U P
H1B H 0.0909 0.4108 0.0824 0.138 Uiso 0.5 1 d R U P
C2 C -0.0281(10) 0.3107(3) 0.0605(10) 0.1146(4) Uani 1 1 d . U .
H2A H -0.1455 0.3008 0.0175 0.138 Uiso 1 1 d R U .
H2B H 0.0453 0.3099 -0.0591 0.138 Uiso 1 1 d R U .
C3 C 0.0141(3) 0.2607(4) 0.1790(5) 0.1146(4) Uani 0.5 1 d D U P
H3A H -0.0238 0.2136 0.1212 0.138 Uiso 0.5 1 d R U P
F1 F 0.1833(3) 0.2461(4) 0.3032(5) 0.1146(4) Uani 0.5 1 d D U P
N1 N -0.0008(13) 0.3826(3) 0.1470(8) 0.1146(4) Uani 0.5 1 d . U P
H1C H 0.0691 0.4133 0.0845 0.138 Uiso 0.5 1 d R U P
H1D H -0.1175 0.4113 0.1200 0.138 Uiso 0.5 1 d R U P
loop_
_atom_site_aniso_label
_atom_site_aniso_U_11
_atom_site_aniso_U_22
_atom_site_aniso_U_33
_atom_site_aniso_U_23
_atom_site_aniso_U_13
_atom_site_aniso_U_12
Mn1 0.0458(3) 0.0570(3) 0.0239(2) -0.00049(19) 0.000 0.000
Cl1 0.0595(3) 0.0812(4) 0.0360(3) -0.0053(12) 0.0056(6) -0.0239(3)
Cl2 0.0876(6) 0.0477(4) 0.0379(4) 0.000 -0.0014(13) 0.000
C1 0.1282(7) 0.1049(7) 0.1108(7) 0.0069(7) -0.0307(7) 0.0150(7)
C2 0.1282(7) 0.1049(7) 0.1108(7) 0.0069(7) -0.0307(7) 0.0150(7)
C3 0.1282(7) 0.1049(7) 0.1108(7) 0.0069(7) -0.0307(7) 0.0150(7)
F1 0.1282(7) 0.1049(7) 0.1108(7) 0.0069(7) -0.0307(7) 0.0150(7)
N1 0.1282(7) 0.1049(7) 0.1108(7) 0.0069(7) -0.0307(7) 0.0150(7)
loop_
_atom_type_symbol
_atom_type_description
_atom_type_scat_dispersion_real
_atom_type_scat_dispersion_imag
_atom_type_scat_source
C C 0.0033 0.0016 'International Tables Vol C Tables 4.2.6.8 and 6.1.1.4'
H H 0.0000 0.0000 'International Tables Vol C Tables 4.2.6.8 and 6.1.1.4'
N N 0.0061 0.0033 'International Tables Vol C Tables 4.2.6.8 and 6.1.1.4'
F F 0.0171 0.0103 'International Tables Vol C Tables 4.2.6.8 and 6.1.1.4'
Cl Cl 0.1484 0.1585 'International Tables Vol C Tables 4.2.6.8 and 6.1.1.4'
Mn Mn 0.3368 0.7283 'International Tables Vol C Tables 4.2.6.8 and 6.1.1.4'
loop_
_geom_angle_atom_site_label_1
_geom_angle_atom_site_label_2
_geom_angle_atom_site_label_3
_geom_angle
_geom_angle_site_symmetry_1
_geom_angle_site_symmetry_3
Cl1 Mn1 Cl1 93.78(6) 2_554 3
Cl1 Mn1 Cl2 97.11(3) 2_554 .
Cl1 Mn1 Cl2 82.95(3) 3 .
Cl1 Mn1 Cl2 82.95(3) 2_554 2_554
Cl1 Mn1 Cl2 97.11(3) 3 2_554
Cl2 Mn1 Cl2 179.91(5) . 2_554
Cl1 Mn1 Cl1 85.84(3) 2_554 4
Cl1 Mn1 Cl1 179.47(6) 3 4
Cl2 Mn1 Cl1 97.46(3) . 4
Cl2 Mn1 Cl1 82.48(3) 2_554 4
Cl1 Mn1 Cl1 179.47(6) 2_554 .
Cl1 Mn1 Cl1 85.84(3) 3 .
Cl2 Mn1 Cl1 82.47(3) . .
Cl2 Mn1 Cl1 97.46(3) 2_554 .
Cl1 Mn1 Cl1 94.54(6) 4 .
Mn1 Cl1 Mn1 79.228(19) 2 .
Mn1 Cl2 Mn1 78.87(2) 2 .
N1 C1 C1 0.0 3 3
N1 C1 C2 113.6(4) 3 .
C1 C1 C2 113.6(4) 3 .
C3 C2 C1 111.6(6) . .
C3 C2 F1 54.9(3) . 3
C1 C2 F1 117.3(6) . 3
C3 C2 C3 24.3(2) . 3
C1 C2 C3 93.4(5) . 3
F1 C2 C3 48.3(2) 3 3
C3 C3 C2 123.7(4) 3 .
C3 C3 F1 72.7(2) 3 3
C2 C3 F1 84.7(4) . 3
C3 C3 F1 71.6(3) 3 .
C2 C3 F1 132.2(6) . .
F1 C3 F1 139.1(4) 3 .
C3 C3 C2 32.0(3) 3 3
C2 C3 C2 103.6(7) . 3
F1 C3 C2 93.8(3) 3 3
F1 C3 C2 64.5(3) . 3
C3 F1 C3 35.7(2) 3 .
C3 F1 C2 40.4(3) 3 3
C3 F1 C2 67.2(3) . 3
loop_
_geom_bond_atom_site_label_1
_geom_bond_atom_site_label_2
_geom_bond_distance
_geom_bond_site_symmetry_2
Mn1 Cl1 2.5369(13) 2_554
Mn1 Cl1 2.5369(13) 3
Mn1 Cl2 2.5585(6) .
Mn1 Cl2 2.5585(6) 2_554
Mn1 Cl1 2.5609(12) 4
Mn1 Cl1 2.5609(12) .
Cl1 Mn1 2.5369(13) 2
Cl2 Mn1 2.5585(6) 2
C1 N1 1.339(11) 3
C1 C1 1.339(11) 3
C1 C2 1.409(8) .
C2 C3 1.219(8) .
C2 F1 1.875(9) 3
C2 C3 1.915(8) 3
C3 C3 0.948(6) 3
C3 F1 1.540(3) 3
C3 F1 1.550(2) .
C3 C2 1.915(8) 3
F1 C3 1.540(3) 3
F1 C2 1.875(9) 3
