#------------------------------------------------------------------------------
#$Date: 2019-11-03 15:39:56 +0200 (Sun, 03 Nov 2019) $
#$Revision: 221780 $
#$URL: file:///home/coder/svn-repositories/cod/cif/4/12/87/4128704.cif $
#------------------------------------------------------------------------------
#
# This file is available in the Crystallography Open Database (COD),
# http://www.crystallography.net/
#
# All data on this site have been placed in the public domain by the
# contributors.
#
data_4128704
loop_
_publ_author_name
'Harada, Jun'
'Kawamura, Yuto'
'Takahashi, Yukihiro'
'Uemura, Yohei'
'Hasegawa, Tatsuo'
'Taniguchi, Hiroki'
'Maruyama, Koji'
_publ_section_title
;
 Plastic/Ferroelectric Crystals with Easily Switchable Polarization:
 Low-Voltage Operation, Unprecedentedly High Pyroelectric Performance, and
 Large Piezoelectric Effect in Polycrystalline Forms.
;
_journal_issue                   23
_journal_name_full               'Journal of the American Chemical Society'
_journal_page_first              9349
_journal_page_last               9357
_journal_paper_doi               10.1021/jacs.9b03369
_journal_volume                  141
_journal_year                    2019
_chemical_formula_moiety         '2(O2 Re0.5), C5 H8 N1, C1 H4'
_chemical_formula_sum            'C6 H12 N O4 Re'
_chemical_formula_weight         348.37
_space_group_crystal_system      rhombohedral
_space_group_IT_number           160
_space_group_name_Hall           'P 3* -2'
_space_group_name_H-M_alt        'R 3 m :R'
_atom_sites_solution_hydrogens   mixed
_atom_sites_solution_primary     dual
_audit_creation_date             2019-02-10
_audit_creation_method
;
Olex2 1.2
(compiled 2018.05.29 svn.r3508 for OlexSys, GUI svn.r5506)
;
_cell_angle_alpha                89.8460(10)
_cell_angle_beta                 89.8460(10)
_cell_angle_gamma                89.8460(10)
_cell_formula_units_Z            1
_cell_length_a                   6.1776(7)
_cell_length_b                   6.1776(7)
_cell_length_c                   6.1776(7)
_cell_measurement_reflns_used    2663
_cell_measurement_temperature    300
_cell_measurement_theta_max      26.881
_cell_measurement_theta_min      3.298
_cell_volume                     235.75(5)
_computing_cell_refinement       'SAINT v8.34A (Bruker, 2013)'
_computing_data_collection       'Bruker APEX2 2014.1-1 (Bruker, 2014)'
_computing_data_reduction        'SAINT v8.34A (Bruker, 2013)'
_computing_molecular_graphics    'Mercury (Macrae et al., 2006)'
_computing_publication_material  'Olex2 (Dolomanov et al., 2009)'
_computing_structure_refinement  'SHELXL-2018/3 (Sheldrick, 2018)'
_computing_structure_solution    'ShelXT (Sheldrick, 2015)'
_diffrn_ambient_temperature      300
_diffrn_detector_area_resol_mean 8.3333
_diffrn_measured_fraction_theta_full 1.000
_diffrn_measured_fraction_theta_max 1.000
_diffrn_measurement_device_type  'Bruker APEX-II CCD'
_diffrn_measurement_method       '\f and \w scans'
_diffrn_radiation_type           MoK\a
_diffrn_radiation_wavelength     0.71073
_diffrn_reflns_av_R_equivalents  0.0341
_diffrn_reflns_av_unetI/netI     0.0173
_diffrn_reflns_Laue_measured_fraction_full 1.000
_diffrn_reflns_Laue_measured_fraction_max 1.000
_diffrn_reflns_limit_h_max       8
_diffrn_reflns_limit_h_min       -7
_diffrn_reflns_limit_k_max       7
_diffrn_reflns_limit_k_min       -8
_diffrn_reflns_limit_l_max       8
_diffrn_reflns_limit_l_min       -8
_diffrn_reflns_number            3410
_diffrn_reflns_point_group_measured_fraction_full 0.997
_diffrn_reflns_point_group_measured_fraction_max 0.995
_diffrn_reflns_theta_full        25.242
_diffrn_reflns_theta_max         27.400
_diffrn_reflns_theta_min         3.298
_diffrn_source                   'rotating-anode X-ray tube'
_diffrn_standards_number         0
_exptl_absorpt_coefficient_mu    12.864
_exptl_absorpt_correction_T_max  0.4659
_exptl_absorpt_correction_T_min  0.3323
_exptl_absorpt_correction_type   multi-scan
_exptl_absorpt_process_details
'SADABS-2014/4 (Bruker,2014/4) was used for absorption correction. wR2(int) was 0.1009 before and 0.0417 after correction. The Ratio of minimum to maximum transmission is 0.7132. The \l/2 correction factor is Not present.'
_exptl_crystal_colour            colourless
_exptl_crystal_colour_primary    colourless
_exptl_crystal_density_diffrn    2.454
_exptl_crystal_description       block
_exptl_crystal_F_000             162
_exptl_crystal_size_max          0.13
_exptl_crystal_size_mid          0.06
_exptl_crystal_size_min          0.04
_refine_diff_density_max         0.171
_refine_diff_density_min         -0.642
_refine_diff_density_rms         0.106
_refine_ls_abs_structure_details
;
 Refined as an inversion twin.
;
_refine_ls_abs_structure_Flack   0.23(9)
_refine_ls_extinction_method     none
_refine_ls_goodness_of_fit_ref   1.171
_refine_ls_hydrogen_treatment    mixed
_refine_ls_matrix_type           full
_refine_ls_number_parameters     32
_refine_ls_number_reflns         421
_refine_ls_number_restraints     18
_refine_ls_restrained_S_all      1.185
_refine_ls_R_factor_all          0.0168
_refine_ls_R_factor_gt           0.0168
_refine_ls_shift/su_max          0.000
_refine_ls_shift/su_mean         0.000
_refine_ls_structure_factor_coef Fsqd
_refine_ls_weighting_details
'w=1/[\s^2^(Fo^2^)+(0.0267P)^2^+0.0124P] where P=(Fo^2^+2Fc^2^)/3'
_refine_ls_weighting_scheme      calc
_refine_ls_wR_factor_gt          0.0415
_refine_ls_wR_factor_ref         0.0415
_reflns_Friedel_coverage         0.967
_reflns_Friedel_fraction_full    0.994
_reflns_Friedel_fraction_max     0.990
_reflns_number_gt                421
_reflns_number_total             421
_reflns_threshold_expression     'I > 2\s(I)'
_iucr_refine_instructions_details
;
TITL 1-Azabicyclo[2.2.1]heptanium perrhenate at 300 K in R3m
    1-ABCH_ReO4_300K.res
    created by SHELXL-2018/3 at 16:38:54 on 10-Feb-2019
CELL  0.71073   6.1776   6.1776   6.1776   89.846   89.846   89.846
ZERR    1.000   0.0007   0.0007   0.0007    0.001    0.001    0.001
LATT -1
SYMM Z, X, Y
SYMM Y, Z, X
SYMM Y, X, Z
SYMM X, Z, Y
SYMM Z, Y, X
SFAC C H N O RE
UNIT 6 12 1 4 1
TEMP 27
SIZE 0.04 0.06 0.13
L.S. 10
BOND $H
CONF
LIST 4
FMAP 2
PLAN 20
ACTA
EQIV $1 x+1, y+1, z+1
HTAB N1 O1_$1
RIGU
EADP C2 C3
EXYZ C2 C3
DFIX 0.97 C3 H2
TWIN
WGHT    0.026700    0.012400
BASF   0.22601
FVAR       0.37114
RE1   5    0.000000    0.000000    0.000000    10.16667    0.07679    0.07679 =
         0.07679   -0.00603   -0.00603   -0.00603
O1    4   -0.157318   -0.157318   -0.157318    10.16667    0.32111    0.32111 =
         0.32111   -0.13573   -0.13573   -0.13573
O2    4   -0.041670    0.269872   -0.041670    10.50000    0.23121    0.09792 =
         0.23121    0.02954    0.02598    0.02954
N1    3    0.594465    0.594465    0.594465    10.16667    0.16587    0.16587 =
         0.16587   -0.03726   -0.03726   -0.03726
AFIX  13
H1N   2    0.685807    0.685810    0.685810    10.16667   -1.20000
AFIX   0
PART 1
C1    1    0.708491    0.433277    0.433277    10.50000    0.09747    0.20640 =
         0.20640   -0.05391    0.01708    0.01708
AFIX  23
H1A   2    0.795298    0.507329    0.325135    10.50000   -1.20000
H1B   2    0.795298    0.325135    0.507329    10.50000   -1.20000
AFIX   0
C2    1    0.520231    0.348312    0.348312    10.33333    0.11931    0.19457 =
         0.19457   -0.09018    0.02340    0.02340
AFIX  13
H3    2    0.524543    0.236319    0.236319    10.16667   -1.20000
AFIX   0
PART 2
C3    1    0.520231    0.348312    0.348312    10.16667    0.11931    0.19457 =
         0.19457   -0.09018    0.02340    0.02340
H2    2    0.533677    0.311297    0.195801    10.66667   -1.20000
PART 0
HKLF 4




REM  1-Azabicyclo[2.2.1]heptanium perrhenate at 300 K in R3m
REM wR2 = 0.0415, GooF = S = 1.171, Restrained GooF = 1.185 for all data
REM R1 = 0.0168 for 421 Fo > 4sig(Fo) and 0.0168 for all 421 data
REM 32 parameters refined using 18 restraints

END  
     
WGHT      0.0267      0.0124 

REM Highest difference peak  0.171,  deepest hole -0.642,  1-sigma level  0.106
Q1    1   0.1673  0.1673 -0.1638  10.50000  0.05    0.17
Q2    1  -0.0903  0.5191 -0.0323  11.00000  0.05    0.15
Q3    1   0.4929  0.3474  0.0878  11.00000  0.05    0.14
Q4    1   0.5849  0.5849  0.0940  10.50000  0.05    0.13
Q5    1   0.6185  0.1395  0.6185  10.50000  0.05    0.13
Q6    1  -0.1673  0.1663 -0.1673  10.50000  0.05    0.13
Q7    1   0.9926  0.4036  0.4036  10.50000  0.05    0.13
Q8    1   0.9229  0.4146  0.4146  10.50000  0.05    0.13
Q9    1   0.0111  0.4875  0.0972  11.00000  0.05    0.13
Q10   1  -0.1622  0.4539 -0.0175  11.00000  0.05    0.12
Q11   1   0.7909  0.2659  0.2659  10.50000  0.05    0.12
Q12   1   0.4822  0.3397  0.0093  11.00000  0.05    0.12
Q13   1  -0.0915  0.4652 -0.0915  10.50000  0.05    0.12
Q14   1   0.6529  0.5097  0.1001  11.00000  0.05    0.12
Q15   1  -0.2087  0.4381 -0.0107  11.00000  0.05    0.12
Q16   1   0.6004  0.6004  0.2156  10.50000  0.05    0.12
Q17   1   0.8846  0.3491  0.3491  10.50000  0.05    0.12
Q18   1   0.9091  0.4989  0.3431  11.00000  0.05    0.12
Q19   1   0.6792  0.5104 -0.0036  11.00000  0.05    0.11
Q20   1   0.7766  0.4945  0.7766  10.50000  0.05    0.11
;
_cod_data_source_file            ja9b03369_si_002.cif
_cod_data_source_block           1-ABCH_ReO4_300K
_cod_original_cell_volume        235.75(8)
_cod_original_sg_symbol_H-M      'R 3 m:r'
_cod_database_code               4128704
_shelx_shelxl_version_number     2018/3
_shelx_space_group_comment
;
The symmetry employed for this shelxl refinement is uniquely defined
by the following loop, which should always be used as a source of
symmetry information in preference to the above space-group names.
They are only intended as comments.
;
_shelx_estimated_absorpt_t_max   0.627
_shelx_estimated_absorpt_t_min   0.286
_olex2_refinement_description
;
1. Twinned data refinement
 Scales: 0.77(9)
 0.23(9)
2. Fixed Uiso
 At 1.2 times of:
  All C(H) groups, All C(H,H) groups, All N(H) groups
3. Shared sites
{C2, C3}
4. Restrained distances
 C3-H2
 0.97 with sigma of 0.02
5. Uiso/Uaniso restraints and constraints
Uanis(C2) = Uanis(C3)
6. Rigid body (RIGU) restrains
 All non-hydrogen atoms
 with sigma for 1-2 distances of 0.004 and sigma for 1-3 distances of 0.004
7. Others
 Fixed Sof: H1A(0.5) H1B(0.5) C2(0.33333) H3(0.16667) C3(0.16667) H2(0.66667)
8.a Ternary CH refined with riding coordinates:
 N1(H1N), C2(H3)
8.b Secondary CH2 refined with riding coordinates:
 C1(H1A,H1B)
;
_olex2_submission_special_instructions 'No special instructions were received'
loop_
_space_group_symop_operation_xyz
'x, y, z'
'z, x, y'
'y, z, x'
'y, x, z'
'x, z, y'
'z, y, x'
loop_
_atom_site_label
_atom_site_type_symbol
_atom_site_fract_x
_atom_site_fract_y
_atom_site_fract_z
_atom_site_U_iso_or_equiv
_atom_site_adp_type
_atom_site_occupancy
_atom_site_site_symmetry_order
_atom_site_calc_flag
_atom_site_refinement_flags_posn
_atom_site_refinement_flags_adp
_atom_site_refinement_flags_occupancy
_atom_site_disorder_assembly
_atom_site_disorder_group
Re1 Re 0.00000(2) 0.00000(2) 0.00000(2) 0.0768(2) Uani 1 6 d S TU P . .
O1 O -0.157(2) -0.157(2) -0.157(2) 0.32(3) Uani 1 6 d S TU P . .
O2 O -0.042(3) 0.270(3) -0.042(3) 0.187(8) Uani 1 2 d S TU P . .
N1 N 0.594(3) 0.594(3) 0.594(3) 0.166(11) Uani 1 6 d S TU P . .
H1N H 0.685807 0.685810 0.685810 0.199 Uiso 1 6 calc RS T P A .
C1 C 0.708(3) 0.433(3) 0.433(3) 0.170(10) Uani 1 2 d S TU P . 1
H1A H 0.795298 0.507329 0.325135 0.204 Uiso 0.5 1 calc R . . . 1
H1B H 0.795298 0.325135 0.507329 0.204 Uiso 0.5 1 calc R . . . 1
C2 C 0.520(4) 0.348(3) 0.348(3) 0.169(11) Uani 0.6667 2 d S TU P . 1
H3 H 0.524543 0.236319 0.236319 0.203 Uiso 0.3333 2 calc RS T P . 1
C3 C 0.520(4) 0.348(3) 0.348(3) 0.169(11) Uani 0.3333 2 d DS TU P B 2
H2 H 0.53(5) 0.31(5) 0.196(13) 0.203 Uiso 0.6667 1 d DR . . C 2
loop_
_atom_site_aniso_label
_atom_site_aniso_U_11
_atom_site_aniso_U_22
_atom_site_aniso_U_33
_atom_site_aniso_U_23
_atom_site_aniso_U_13
_atom_site_aniso_U_12
Re1 0.0768(2) 0.0768(2) 0.0768(2) -0.00603(10) -0.00603(10) -0.00603(10)
O1 0.32(3) 0.32(3) 0.32(3) -0.136(19) -0.136(19) -0.136(19)
O2 0.231(13) 0.098(8) 0.231(13) 0.030(7) 0.026(16) 0.030(7)
N1 0.166(11) 0.166(11) 0.166(11) -0.037(9) -0.037(9) -0.037(9)
C1 0.097(9) 0.206(15) 0.206(15) -0.054(19) 0.017(7) 0.017(7)
C2 0.119(12) 0.195(18) 0.195(18) -0.09(2) 0.023(6) 0.023(6)
C3 0.119(12) 0.195(18) 0.195(18) -0.09(2) 0.023(6) 0.023(6)
loop_
_atom_type_symbol
_atom_type_description
_atom_type_scat_dispersion_real
_atom_type_scat_dispersion_imag
_atom_type_scat_source
C C 0.0033 0.0016 'International Tables Vol C Tables 4.2.6.8 and 6.1.1.4'
H H 0.0000 0.0000 'International Tables Vol C Tables 4.2.6.8 and 6.1.1.4'
N N 0.0061 0.0033 'International Tables Vol C Tables 4.2.6.8 and 6.1.1.4'
O O 0.0106 0.0060 'International Tables Vol C Tables 4.2.6.8 and 6.1.1.4'
Re Re -1.0185 7.2310 'International Tables Vol C Tables 4.2.6.8 and 6.1.1.4'
loop_
_geom_angle_atom_site_label_1
_geom_angle_atom_site_label_2
_geom_angle_atom_site_label_3
_geom_angle
_geom_angle_site_symmetry_1
_geom_angle_site_symmetry_3
O1 Re1 O2 113.0(9) . .
O1 Re1 O2 113.0(9) . 2
O1 Re1 O2 113.0(9) . 3
O2 Re1 O2 105.7(10) . 2
O2 Re1 O2 105.7(10) . 3
O2 Re1 O2 105.7(10) 3 2
C1 N1 H1N 118.3 3 .
C1 N1 H1N 118.3 . .
C1 N1 H1N 118.3 2 .
C1 N1 C1 99.4(19) . 2
C1 N1 C1 99.4(19) . 3
C1 N1 C1 99.4(19) 3 2
N1 C1 H1A 112.5 . .
N1 C1 H1B 112.5 . .
H1A C1 H1B 110.0 . .
C2 C1 N1 96.1(18) . .
C2 C1 H1A 112.5 . .
C2 C1 H1B 112.5 . .
C1 C2 C2 109.0(11) . 2
C1 C2 C2 109.0(11) . 3
C1 C2 H3 121.2 . .
C1 C2 H2 113(10) . 5
C2 C2 C2 60.001(1) 3 2
C2 C2 H3 121.2 2 .
C2 C2 H3 121.2 3 .
C2 C2 H2 138(10) 2 5
C2 C2 H2 103(10) 3 5
H3 C2 H2 31.4 . 5
H2 C3 H2 62(10) . 5
loop_
_geom_bond_atom_site_label_1
_geom_bond_atom_site_label_2
_geom_bond_distance
_geom_bond_site_symmetry_2
Re1 O1 1.69(2) .
Re1 O2 1.705(14) 3
Re1 O2 1.705(14) .
Re1 O2 1.705(14) 2
N1 H1N 0.9800 .
N1 C1 1.57(3) 3
N1 C1 1.57(3) 2
N1 C1 1.57(3) .
C1 H1A 0.9700 .
C1 H1B 0.9700 .
C1 C2 1.38(4) .
C2 C2 1.50(3) 3
C2 C2 1.50(3) 2
C2 H3 0.9800 .
C2 H2 0.97(3) 5
C3 H2 0.97(3) 5
C3 H2 0.97(3) .
loop_
_geom_hbond_atom_site_label_D
_geom_hbond_atom_site_label_H
_geom_hbond_atom_site_label_A
_geom_hbond_distance_DH
_geom_hbond_distance_HA
_geom_hbond_distance_DA
_geom_hbond_angle_DHA
_geom_hbond_site_symmetry_A
_geom_hbond_publ_flag
N1 H1N O1 0.98 1.68 2.66(4) 180.0 1_666 yes
loop_
_geom_torsion_atom_site_label_1
_geom_torsion_atom_site_label_2
_geom_torsion_atom_site_label_3
_geom_torsion_atom_site_label_4
_geom_torsion
_geom_torsion_site_symmetry_1
_geom_torsion_site_symmetry_4
N1 C1 C2 C2 -31.9(2) . 3
N1 C1 C2 C2 31.9(2) . 2
C1 N1 C1 C2 50.6(13) 3 .
C1 N1 C1 C2 -50.6(13) 2 .
loop_
_refln_index_h
_refln_index_k
_refln_index_l
_refln_F_squared_meas
_refln_F_squared_sigma
0 -1 1 835.89 26.06
1 0 -1 858.44 26.9
1 0 -1 790.86 26.37
0 -1 1 752.16 28.71
0 -1 1 805.04 27.99
-1 1 0 851 25.62
1 0 -1 740.27 28.38
0 1 -1 729.44 28.27
0 1 -1 765.19 26.31
1 -1 0 803.31 27.44
1 -1 0 740.55 27.18
-1 0 1 764.58 27.07
1 -1 0 705.63 26.63
1 -1 0 707.88 27.59
0 0 1 453.05 14
-1 0 0 383.79 14
0 0 -1 355.05 15.48
0 -1 0 401.39 14.19
0 0 -1 423.82 14.5
1 0 0 414.97 15.46
-1 0 0 441.22 14.75
0 -1 0 461.89 14.78
0 -1 0 380.85 13.65
0 -1 0 381.07 13.61
-1 0 0 371.76 15.29
0 0 1 380.03 15.92
0 0 1 450.06 14.76
0 -1 0 424.82 13.11
1 0 0 418.95 14.83
1 1 -1 371.94 12.49
1 1 -1 360.39 11.75
-1 1 1 408.25 11.69
1 -1 -1 387.06 11.6
1 -1 1 346.04 11.79
1 -1 1 392.24 12.09
-1 1 -1 327.36 11.73
1 -1 -1 346.82 11.76
1 -1 1 386.63 11.77
1 1 -1 344.86 11.8
1 -1 -1 333.47 11.69
-1 -1 1 346.19 11.82
-1 1 -1 354.84 11.63
-1 -1 1 373.36 11.7
1 -1 -1 356.95 11.61
0 -1 -1 979.31 29.05
-1 0 -1 1000 30.39
0 -1 -1 857.43 28.86
0 -1 -1 715.52 29.43
1 1 0 940.47 30.86
1 0 1 799.6 31.68
0 -1 -1 991.53 31.51
1 0 1 964.15 30.36
-1 -1 0 722.59 29.66
-1 -1 0 811.72 30.32
-1 0 -1 873.46 29.32
0 -1 -1 794.76 29.93
-1 -1 0 880.74 27.68
-1 -1 -1 485.93 14.29
1 1 1 485.28 16.79
-1 -1 -1 440.77 14.06
-1 -1 -1 372.24 16.94
-1 -1 -1 420.25 14.23
2 -1 -1 253.09 9.16
1 1 -2 286.31 8.91
1 -2 1 279.18 9.03
1 -2 1 286.04 9.21
1 1 -2 286.91 9.19
2 -1 -1 257.88 8.97
1 1 -2 294.76 9.01
-1 -1 2 277.54 9.06
-2 1 1 287.98 9
-1 -1 2 263.93 9.02
-1 2 -1 252.02 8.91
-2 1 1 272.5 9.12
1 -2 1 307.85 8.85
1 -2 1 294.54 9.15
-1 -1 2 246.45 9.13
2 0 -2 210.55 6.79
-2 2 0 219.1 6.76
2 0 -2 213.62 6.92
0 -2 2 212.96 6.89
-2 2 0 205.96 6.89
0 -2 2 210.89 6.92
2 0 -2 202.17 7.08
0 -2 2 216.63 7.18
0 2 -2 202.64 6.97
2 -2 0 209.67 6.91
-2 0 2 217.21 6.97
2 -2 0 208.34 6.92
2 -2 0 210.45 7.09
0 2 -2 208.95 6.83
-2 0 2 209.6 7.07
1 0 -2 376.15 11.83
-2 1 0 370.28 13.28
1 0 -2 386.18 11.74
0 -2 1 395.41 11.81
-2 1 0 344.85 11.89
-2 1 0 352.13 11.81
0 -1 2 350.76 12.12
0 -2 1 371.13 11.91
0 -1 2 367.87 11.81
0 -1 2 379.96 11.91
2 0 -1 350.73 16.25
0 -2 1 361.71 11.92
2 0 -1 361.59 11.91
2 0 -1 364.7 11.76
0 -2 1 370.06 11.93
1 -2 0 399.78 11.96
1 -2 0 347.08 11.78
0 1 -2 367.61 12.13
1 -2 0 358.44 14.24
-2 0 1 341.15 11.94
-1 0 2 374.79 11.88
0 2 -1 350.53 11.76
-2 0 1 378.75 11.89
-1 0 2 349.07 12.13
2 -1 0 360.49 11.93
1 -2 0 422.15 13.01
2 -1 0 336.18 12.03
1 -2 0 365.05 14.4
0 0 -2 482.91 15.69
0 0 2 515.42 17.13
0 -2 0 490.13 15.65
0 -2 0 453.27 16.39
-2 0 0 525.69 15.79
-2 0 0 465.7 20.34
2 0 0 486.35 15.81
-2 0 0 451.12 17.34
0 -2 0 514.22 15.86
0 0 2 499.9 15.75
0 -2 0 467.73 16.57
0 -2 0 551 15.84
2 0 0 468.93 16.04
0 0 2 465.07 20.89
2 -1 -2 221.8 7.11
1 -2 2 222.75 6.92
2 1 -2 226.23 6.95
2 -1 -2 221.78 7.04
2 -1 -2 205.42 7.17
-2 2 1 224.72 7.03
-1 -2 2 214.34 7.25
-1 -2 2 218.08 7.08
1 -2 2 223.1 6.94
-2 2 -1 198.25 6.93
2 1 -2 215.28 7.12
1 -2 2 213.5 7.25
-1 -2 2 219.34 7.1
2 -2 -1 219.89 6.99
1 2 -2 207.07 6.99
2 -2 1 221.1 7.34
-1 2 -2 204.84 6.93
-2 1 2 219.65 7.01
1 2 -2 219.51 6.95
-1 2 -2 215.2 7.03
2 -2 -1 217.15 7.19
2 -2 1 200.71 6.92
-2 1 2 210.41 7.12
2 -2 -1 210.12 6.96
2 -2 -1 211.09 7.16
-2 -1 2 216.27 7.07
2 -2 1 221.58 7.09
1 -1 -2 216.21 7.91
-1 -2 1 233.22 8
-1 2 1 252.12 7.88
-2 1 -1 212.31 7.77
1 -1 2 266.74 7.74
1 -1 -2 229.38 7.97
2 1 -1 234.46 7.85
1 -1 2 232.79 8.09
1 -1 -2 244.32 7.83
-1 -2 1 221 7.87
2 1 -1 247.34 7.86
-1 -2 1 244.53 7.93
2 1 -1 257.76 7.67
2 1 -1 235.95 8.06
-2 1 -1 227.71 7.77
-2 1 -1 265.12 7.7
1 -1 2 246.51 7.85
1 -1 -2 247.28 7.65
-1 -2 1 242.24 7.85
-1 1 -2 218.24 7.97
2 -1 1 230.01 8.08
-2 -1 1 228.5 8.03
-2 -1 1 250.48 7.95
1 -2 -1 249.41 7.82
1 2 -1 246.57 7.67
2 -1 1 254.29 7.95
-1 1 2 252.53 7.77
1 -2 -1 246.42 7.84
1 -2 -1 228.78 7.8
-1 1 -2 230.09 7.79
1 -2 -1 237.14 7.77
1 0 2 396.8 12.08
2 1 0 366.21 12.22
0 -1 -2 360.27 12.18
-2 0 -1 412.61 12.13
2 1 0 380.79 16.12
1 0 2 394.49 12.02
-2 0 -1 370.32 11.96
0 -1 -2 340.77 14.58
-1 -2 0 336.86 11.98
-1 -2 0 398.03 12.22
1 0 2 360.73 12.36
-1 -2 0 348.77 12.05
-2 0 -1 344.73 12.17
0 -1 -2 379.72 12.04
-1 -2 0 370.64 12.82
0 -2 -1 384.26 12
0 1 2 378.11 12.05
0 -2 -1 393.85 12.05
2 0 1 395.4 12.17
0 1 2 394.22 12.09
2 0 1 359.27 12.27
-2 -1 0 381.98 12.12
-2 -1 0 363.31 12.31
-1 0 -2 348.52 12.3
0 -2 -1 364.01 12.44
-2 -1 0 371.53 12.26
0 -2 -1 402.29 12.14
0 -2 -1 331.61 12.7
-2 -1 -1 305.29 9.93
-1 -2 -1 304.42 9.74
-2 -1 -1 307.48 9.73
1 1 2 337.32 9.79
2 1 1 331.51 9.9
1 2 1 328.7 9.83
-1 -2 -1 270.55 9.8
-1 -1 -2 267.84 9.98
-1 -2 -1 299.32 9.82
-1 -1 -2 295.39 9.79
2 1 1 311.24 10.02
-1 -1 -2 309.23 9.91
-2 -1 -1 262.39 9.91
-1 -2 -1 310.4 9.96
2 2 -2 129.63 4.28
-2 -2 2 125.91 4.29
2 -2 2 138.68 4.27
-2 2 -2 130.66 4.23
-2 -2 2 134 4.33
2 -2 -2 129.6 4.21
2 -2 -2 132.25 4.28
2 -2 -2 131.09 4.23
2 -2 2 135.87 4.22
-2 2 2 132.26 4.23
2 2 -2 137.15 4.25
2 -2 2 125.93 4.3
2 2 -2 133.68 4.27
2 -2 -2 129.43 4.39
1 -2 -2 213.19 6.6
2 -1 2 213.41 6.59
-2 1 -2 191.3 6.76
2 -1 2 210.82 6.76
1 -2 -2 203.07 6.8
-2 -2 1 212.07 6.8
1 -2 -2 190.39 6.7
-2 1 -2 201.33 8.35
1 -2 -2 207.38 6.68
2 2 -1 194.7 6.61
2 2 -1 194.45 6.82
2 2 -1 204.9 6.74
-1 2 2 214.81 6.82
2 2 -1 212.05 6.47
-2 -2 1 200.25 6.86
-2 0 -2 164.74 5.83
0 2 2 192.03 5.72
2 0 2 187.29 6
-2 -2 0 167.92 5.91
-2 -2 0 156.42 5.77
0 2 2 186.22 5.75
-2 0 -2 186.31 5.76
0 -2 -2 165.97 5.68
-2 -2 0 184.53 5.85
0 -2 -2 156.98 5.84
0 -2 -2 173.78 5.79
2 2 0 186.46 5.83
2 0 2 187.28 5.9
1 2 2 320.8 9.6
-1 -2 -2 284.06 9.62
-1 -2 -2 291.29 9.55
-2 -2 -1 295.76 9.43
-1 -2 -2 272.87 9.67
-2 -2 -1 291.68 9.64
-1 -2 -2 311.78 9.74
2 1 2 313.86 9.7
-2 -1 -2 273.36 9.74
-2 -1 -2 310.18 9.68
-2 -2 -1 299.61 9.63
2 2 1 308.64 9.63
-2 -1 -2 294.83 9.48
2 1 2 291.54 9.71
-2 -2 -1 263.91 9.74
-2 -2 -2 169.3 5.95
-2 -2 -2 179.75 6.02
-2 -2 -2 171.49 5.86
2 2 2 200.49 6.01
-2 -2 -2 188.22 5.87
-2 3 -2 90.3 2.91
3 -2 -2 88.45 2.9
3 -2 -2 91.18 2.91
2 -3 2 89.17 2.98
2 -3 2 86.41 2.95
2 2 -3 89.8 2.87
3 -2 -2 90.68 2.96
-2 -2 3 93.16 3.01
2 2 -3 90.14 2.98
-2 -2 3 88.01 2.92
2 2 -3 88.17 2.94
-3 2 2 87.46 2.9
1 -3 2 125.83 4.08
1 -3 2 131.99 4.1
2 1 -3 129.72 4.02
-1 -2 3 121.52 4.09
3 -1 -2 125.81 4.11
3 -1 -2 125.11 4.03
-1 -2 3 125.08 4.07
-3 2 1 128.78 4.18
2 1 -3 124.75 4.11
-2 3 -1 127.32 4.04
3 -1 -2 130.48 4.04
1 -3 2 124.79 4.08
1 -3 2 124.71 4.09
-1 -2 3 120.37 4.12
2 1 -3 127.76 4.05
1 2 -3 122.55 4.02
2 -3 1 121.74 4.08
1 2 -3 125.07 4.1
-3 1 2 125.65 4.09
3 -2 -1 127.23 4.05
-3 1 2 126.66 4.04
-1 3 -2 124.04 4.03
3 -2 -1 120.43 4.05
-2 -1 3 124.12 4.12
-2 -1 3 126.34 4.05
2 -3 1 124.9 4.08
2 -3 1 124.28 4.06
3 -2 -1 127.5 4.2
3 -2 -1 127.01 4.09
1 -3 1 205.36 6.78
-1 -1 3 197.61 6.83
-1 -1 3 210.91 6.83
1 1 -3 216.24 6.86
-3 1 1 210.21 6.89
1 -3 1 212.39 6.9
1 -3 1 216.35 6.87
-1 -1 3 207.69 6.74
-3 1 1 210.52 6.89
1 -3 1 227.21 6.76
3 -1 -1 204.11 6.73
3 -1 -1 203.07 6.9
1 1 -3 211.03 6.89
-1 3 -1 200.44 6.78
3 -1 -1 195.85 6.77
0 -3 3 98.14 3.28
-3 3 0 97.2 3.24
0 -3 3 95.86 3.31
-3 3 0 98.04 3.17
0 -3 3 99.35 3.21
3 0 -3 99.69 3.31
3 0 -3 101.51 3.23
3 0 -3 101.83 3.22
3 -3 0 96.54 3.27
0 3 -3 101.77 3.22
-3 0 3 98.88 3.31
-3 0 3 103.51 3.26
3 -3 0 101.38 3.26
3 -3 0 100.72 3.28
2 0 -3 179.71 5.79
3 0 -2 179.01 5.83
-2 3 0 174.61 5.75
3 0 -2 186.53 5.89
-3 2 0 176.96 5.74
2 0 -3 173 5.84
0 -3 2 178.74 5.72
0 -3 2 179.1 5.81
0 -2 3 176.4 5.89
3 0 -2 177.36 5.8
0 -3 2 174.73 5.91
0 -2 3 179.82 5.87
-3 2 0 173.27 5.68
0 -3 2 180.24 5.91
2 0 -3 177.91 6.86
-2 3 0 177.43 5.85
0 -2 3 182.4 5.87
2 -3 0 178.06 5.83
3 -2 0 178.89 5.8
0 2 -3 177.46 5.73
0 3 -2 176.53 5.77
-3 0 2 174.83 5.74
2 -3 0 176.4 5.91
2 -3 0 178.03 5.71
-2 0 3 171.27 5.75
-3 0 2 176.09 5.74
-2 0 3 179.25 8.2
0 2 -3 181.29 5.73
3 -2 0 175.03 5.82
-3 1 0 205.94 6.69
1 0 -3 200.11 6.82
0 -3 1 199.67 6.6
0 -3 1 216.66 6.54
-3 1 0 199.43 6.6
1 0 -3 214.14 6.65
0 -1 3 203.42 6.69
0 -3 1 203.76 6.79
3 0 -1 195.75 6.63
0 -3 1 207.68 6.69
3 0 -1 201.2 6.76
-3 1 0 204.5 6.72
0 -1 3 185.87 6.54
0 -1 3 196.44 6.65
1 0 -3 207.77 6.55
3 0 -1 195.82 6.63
3 -1 0 196.87 6.84
1 -3 0 228 6.67
-3 0 1 205.52 6.68
1 -3 0 201.45 6.64
1 -3 0 201.11 7.45
-3 0 1 207.39 6.79
0 3 -1 195.32 6.53
-1 0 3 197.32 8.68
0 1 -3 202.25 6.87
1 -3 0 197.49 6.63
1 -3 0 217 6.5
-1 0 3 200.31 6.72
3 -1 0 196.09 6.66
-3 0 0 293.1 9.26
0 -3 0 274.74 9.11
0 0 3 288.82 9.56
0 0 -3 287.55 9.27
0 -3 0 313.62 9.45
-3 0 0 282.01 9.23
3 0 0 275.41 9.51
0 -3 0 285.3 9.81
0 0 -3 277.57 9.39
0 -3 0 297.46 9.44
0 -3 0 270.32 9.4
-3 0 0 276.69 9.36
0 0 3 286.8 9.36
3 0 0 283.39 9.43
0 0 3 289.46 9.19
3 1 -3 87.09 2.84
1 -3 3 83.83 2.7
-1 -3 3 84.61 2.83
3 1 -3 86.69 2.72
1 -3 3 84.68 2.8
-1 -3 3 83.67 2.8
3 -1 -3 84.79 2.74
-3 3 -1 81.05 2.75
3 1 -3 85.66 2.77
1 -3 3 86.17 2.84
3 -1 -3 83.88 2.73
-1 -3 3 82.88 2.75
3 -1 -3 82.32 2.81
-3 3 1 82.06 2.71
3 -3 1 79.78 2.79
-3 1 3 84.32 2.76
3 -3 -1 87.19 2.76
3 -3 -1 87.2 2.77
3 -3 1 81.09 2.81
-3 1 3 83.62 2.82
1 3 -3 81.61 2.72
3 -3 -1 84.56 2.78
3 -3 -1 85.45 2.78
-1 3 -3 84.07 2.74
-3 -1 3 83.28 2.84
-3 -1 3 83.28 2.76
1 -2 3 135.09 4.34
-1 -3 2 129.63 4.33
-2 3 1 132.89 4.78
2 -1 -3 127.75 4.32
2 -1 -3 131.64 4.3
3 1 -2 131.05 4.3
-3 2 -1 126.61 4.32
-3 2 -1 131.59 4.29
-1 -3 2 130.68 4.29
3 1 -2 139.45 4.26
1 -2 3 135.41 4.31
-1 -3 2 130.88 4.31
1 -2 3 134.58 4.37
-1 -3 2 134.28 4.33
2 -1 -3 136.16 4.27
3 1 -2 140.45 4.36
-3 -1 2 133.78 4.36
3 -2 1 134.89 4.32
1 3 -2 136.94 4.31
2 -3 -1 133.61 4.28
2 -3 -1 134.39 4.4
-1 2 -3 126.78 4.33
2 -3 -1 134.32 4.3
3 -2 1 132.21 4.36
-2 1 3 133.68 4.29
-1 2 -3 136.48 4.28
-3 -1 2 133.37 4.3
2 -3 -1 131.31 4.32
-2 1 3 131.3 4.34
3 1 -1 199.47 6.63
3 1 -1 198.94 6.46
1 -1 3 207.68 6.57
1 -1 3 206.3 6.46
1 -1 -3 193.22 6.73
-1 -3 1 189.66 6.54
-3 1 -1 198.61 6.48
-3 1 -1 197.56 6.43
1 -1 3 193.22 6.56
-1 -3 1 197.48 6.39
-1 -3 1 214.48 9.25
-1 3 1 204.33 6.5
-3 1 -1 217.61 6.47
3 1 -1 181.36 6.38
-1 -3 1 194.43 6.53
1 -1 -3 198.36 6.39
1 3 -1 198.77 6.41
-3 -1 1 205.06 6.53
1 -3 -1 204.19 6.47
3 -1 1 194.8 6.44
-1 1 3 197.37 6.39
-1 1 -3 200.33 6.59
3 -1 1 195.51 6.63
-1 1 -3 182.84 6.45
-3 -1 1 198.04 6.7
1 -3 -1 198.36 6.47
1 -3 -1 199.59 6.42
1 -3 -1 201.73 6.42
-1 1 3 206.94 6.6
0 -1 -3 200.9 6.8
3 1 0 209.17 6.92
-3 0 -1 202.76 6.74
1 0 3 213.01 7.06
-1 -3 0 212.83 6.74
1 0 3 215.85 6.88
-1 -3 0 206.18 6.69
-1 -3 0 208.96 6.8
-3 0 -1 199.85 6.8
0 -1 -3 196.37 6.98
-3 0 -1 221.43 6.84
-1 -3 0 196.35 6.8
-1 -3 0 200.4 6.82
1 0 3 214.93 6.77
0 -3 -1 221.32 6.93
-1 0 -3 214.89 6.78
0 -3 -1 214.37 6.91
-3 -1 0 218.99 6.99
-1 0 -3 203.22 6.98
3 0 1 210.19 6.85
0 -3 -1 207.54 6.72
-3 -1 0 208.05 10.22
0 1 3 213.46 6.81
-3 -1 0 208.26 6.7
0 1 3 209.09 6.75
3 0 1 211.72 6.99
-3 -1 -1 247.05 8.2
1 1 3 263.53 8.49
3 1 1 271.05 8.51
-1 -3 -1 257.65 8.21
1 3 1 252.82 8.34
-3 -1 -1 240.64 8.48
-1 -1 -3 245.2 8.29
-1 -3 -1 257.67 9.48
-3 -1 -1 264.71 8.37
1 1 3 269.93 8.53
-1 -1 -3 249.17 8.23
-1 -3 -1 232.95 8.82
3 1 1 249.44 8.54
-1 -3 -1 260.11 8.5
1 1 3 268.91 8.26
3 -2 -3 62.15 2.13
3 2 -3 64.18 2.02
-3 3 2 62.52 2.06
3 2 -3 61.56 2.15
-3 3 -2 64.15 2.08
3 -2 -3 63.18 2.07
3 -2 -3 59.73 2.04
-2 -3 3 63.65 2.16
2 -3 3 58.8 2.17
2 -3 3 62.17 2.13
-2 -3 3 61.96 2.09
3 2 -3 61.28 2.11
-3 -2 3 63.76 2.1
-2 3 -3 61.65 2.07
2 3 -3 61.55 2.02
-3 2 3 60.83 2.08
-3 -2 3 64.41 2.17
3 -3 -2 63.62 2.1
2 3 -3 64.72 2.14
3 -3 -2 62.52 2.07
3 -3 2 59.41 2.12
3 -3 -2 62.92 2.07
3 -3 2 62.04 2.16
2 -2 -3 90.94 2.97
-2 -3 2 91.88 3
3 2 -2 89.68 3.05
2 -2 -3 94.43 3.05
2 -2 -3 94.77 2.93
3 2 -2 92.63 2.91
2 -2 3 93.05 3.09
-3 2 -2 92.83 2.98
2 -2 -3 89.01 3
-3 2 -2 90.79 3.04
2 -2 3 94.01 3.02
2 -2 3 92.04 2.94
-2 3 2 92.49 2.98
3 2 -2 90.62 3.02
-2 -3 2 89.11 3.03
2 3 -2 91.34 3.03
2 -3 -2 91.73 2.97
2 -3 -2 90.33 3.04
-2 2 -3 93.47 2.98
-2 2 3 88.21 2.99
3 -2 2 92 3.08
-3 -2 2 87.49 3.05
-3 -2 2 89.49 3
2 -3 -2 93.61 3
2 3 -2 93.58 2.92
2 -3 -2 92.26 2.97
-2 2 -3 88.53 3.04
3 -2 2 89.43 3.02
1 -2 -3 111.15 3.71
-2 -3 1 118.99 3.71
2 -1 3 113.08 3.68
-3 1 -2 111.93 3.74
1 -2 -3 113.21 3.66
-2 -3 1 108.12 3.67
-3 1 -2 119.03 3.64
-3 1 -2 107.98 3.66
2 -1 3 116.75 3.71
3 2 -1 113.17 3.71
-1 3 2 117.25 3.68
2 -1 3 109.95 3.77
-2 -3 1 110.17 3.7
3 2 -1 112.27 3.74
1 -2 -3 110.25 3.68
2 3 -1 112.25 3.72
1 -3 -2 114.12 3.74
-3 -2 1 106.58 3.73
-1 2 3 117.22 3.69
3 -1 2 127.42 3.71
-2 1 -3 107.94 3.73
1 -3 -2 115.36 3.66
3 -1 2 111.51 3.77
2 3 -1 120.44 3.62
1 -3 -2 115.36 3.66
-3 -2 1 116.24 3.71
1 -3 -2 110.21 3.73
-2 -3 0 199.01 6.38
3 2 0 209.04 6.38
2 0 3 199.87 6.37
3 2 0 195.66 6.4
-3 0 -2 197.99 6.46
-3 0 -2 193.63 6.4
-2 -3 0 194.63 6.54
-2 -3 0 192.41 6.55
0 -2 -3 194.71 6.38
0 -2 -3 189.29 6.52
-3 0 -2 215.16 6.47
0 -2 -3 198.6 6.63
2 0 3 205.38 6.44
2 0 3 200.48 6.53
-3 -2 0 198.35 6.6
0 -3 -2 200.81 6.5
-3 -2 0 204.85 6.5
-2 0 -3 196.53 6.62
-2 0 -3 194.53 6.5
0 -3 -2 184.26 6.43
3 0 2 202.39 6.56
0 2 3 206.47 6.31
0 2 3 191.31 6.36
2 3 0 192.32 6.31
2 3 0 200.99 6.38
0 -3 -2 201.98 6.87
0 -3 -2 203.9 6.5
3 0 2 189.76 6.35
2 1 3 152.57 4.95
-2 -3 -1 141.87 4.96
-3 -1 -2 158.83 4.91
-2 -3 -1 149.32 4.85
2 1 3 155.66 6.05
-1 -2 -3 141.99 4.95
-1 -2 -3 145.39 4.85
-2 -3 -1 146.93 4.92
-3 -1 -2 150.88 4.83
3 2 1 165.22 4.91
1 3 2 154.64 4.86
-1 -2 -3 147.95 4.89
-2 -3 -1 154.02 5.02
-3 -1 -2 148.25 4.93
-1 -3 -2 151.9 4.92
3 1 2 154.1 4.88
1 2 3 165.52 4.96
-2 -1 -3 148.12 4.85
2 3 1 155.93 4.9
-1 -3 -2 151.04 4.92
-3 -2 -1 157.57 4.93
-2 -1 -3 151.32 4.9
3 1 2 149.53 4.95
-3 -2 -1 144.46 4.91
1 2 3 158.33 4.9
-1 -3 -2 149.39 4.94
-3 -2 -1 155.74 4.87
-2 -1 -3 147.63 4.92
-1 -3 -2 142.77 4.98
-2 -3 -2 131.88 4.42
-2 -3 -2 132.42 4.31
-2 -2 -3 140.76 4.42
-2 -3 -2 139.05 4.42
-3 -2 -2 137.95 4.31
-2 -2 -3 132.51 4.39
-2 -2 -3 136.56 4.33
-2 -3 -2 130.24 4.42
2 3 2 131.79 4.37
-2 -2 -3 136.73 4.4
-3 -2 -2 131.36 4.41
-3 -2 -2 135.73 4.41
3 2 2 138.5 4.38
2 2 3 134.24 4.34
3 -3 -3 29.75 1.05
3 3 -3 29.34 1.13
-3 3 3 29.37 1.07
3 -3 -3 29.99 1.1
-3 -3 3 30.91 1.16
3 -3 3 30.22 1.13
-3 -3 3 29.21 1.1
3 -3 3 30.66 1.19
3 -3 -3 30.74 1.07
-3 3 -3 29.68 1.08
-3 2 -3 63.37 2.21
3 -2 3 64.53 2.24
2 -3 -3 63.15 2.07
-3 -3 2 62.7 2.15
3 -2 3 60.66 2.15
-2 3 3 63.35 2.13
3 3 -2 65.19 2.18
-3 2 -3 63.65 2.11
2 -3 -3 64.56 2.11
-3 -3 2 63.73 2.19
2 -3 -3 63.86 2.11
1 -3 -3 91.79 3.03
3 -1 3 90.6 3.01
-3 1 -3 94.11 3.13
1 -3 -3 93.08 3.06
1 -3 -3 98.06 3
3 -1 3 91.9 3.07
-3 -3 1 94.05 3.1
-3 -3 1 91.65 3.11
3 -1 3 97.42 3.19
-1 3 3 93.19 3.08
-3 1 -3 95.28 3.05
1 -3 -3 92.69 3.04
3 3 -1 92.1 3.11
-3 0 -3 87.69 2.91
0 -3 -3 90.02 2.92
-3 0 -3 86.86 3
0 3 3 89.67 2.96
-3 0 -3 92.1 2.93
-3 -3 0 91.4 2.98
0 -3 -3 88.39 2.9
3 0 3 89.81 2.93
0 3 3 91.56 2.87
0 -3 -3 87.75 2.9
3 3 0 89.81 2.98
3 0 3 88.36 3.04
-1 -3 -3 114.91 3.9
1 3 3 117.45 3.81
-1 -3 -3 116.34 3.83
-3 -3 -1 121.76 3.77
-3 -1 -3 118.94 3.81
3 1 3 118.12 3.85
-3 -3 -1 114.36 3.91
3 1 3 122.23 3.95
3 3 1 119.54 3.89
-3 -3 -1 116.26 3.87
-3 -1 -3 119.8 3.88
-3 -1 -3 118.92 3.91
-1 -3 -3 121.53 3.84
-1 -3 -3 118.01 3.81
3 3 2 79.75 2.67
-3 -3 -2 80.88 2.68
-3 -2 -3 81.33 2.72
3 2 3 76.88 2.64
-2 -3 -3 83.17 2.61
2 3 3 80.1 2.64
-3 -3 -2 82.23 2.58
-3 -3 -2 77.86 2.72
-3 -2 -3 81.69 2.71
-3 -2 -3 81.26 2.61
-2 -3 -3 78.28 2.66
-2 -3 -3 79.2 2.72
-3 -3 -3 42.3 1.55
-3 -3 -3 42.79 1.41
-3 -3 -3 41.66 1.49
3 3 3 41.77 1.47
3 3 -4 15.63 0.72
-3 4 -3 18.34 0.71
-3 -3 4 17.41 0.72
-3 -3 4 17.8 0.79
3 -4 3 17.58 0.79
4 -3 -3 17.6 0.74
3 -4 3 15.92 0.74
-4 3 3 16 0.67
4 -3 -3 18.63 0.69
-2 -3 4 23.82 0.97
4 -2 -3 22.63 0.84
-4 3 2 22.26 0.84
4 -2 -3 24.81 0.87
3 2 -4 23.1 0.89
2 -4 3 22.67 0.95
2 -4 3 21.4 0.91
3 2 -4 23.96 0.83
4 -2 -3 23.98 0.95
-3 4 -2 23.98 0.87
-2 -3 4 24.23 0.88
3 -4 2 22.75 0.94
-3 -2 4 24.2 0.89
4 -3 -2 22.29 0.87
3 -4 2 23.86 0.94
4 -3 -2 24.46 0.88
-3 -2 4 23.95 0.98
-2 4 -3 23.51 0.87
2 3 -4 23.19 0.82
-4 2 3 23.04 0.87
4 -3 -2 23.59 0.92
2 3 -4 23.36 0.92
2 2 -4 40.12 1.4
-4 2 2 40.66 1.43
4 -2 -2 44.28 1.44
-2 -2 4 42.75 1.45
4 -2 -2 43.33 1.51
2 -4 2 41.63 1.5
2 2 -4 41.54 1.52
-2 4 -2 43.35 1.44
2 2 -4 40.73 1.46
-2 -2 4 41.84 1.54
4 -2 -2 42.11 1.44
2 -4 2 41.35 1.49
3 1 -4 40.01 1.43
4 -1 -3 39.26 1.43
-1 -3 4 39.15 1.32
-1 -3 4 39.04 1.43
4 -1 -3 37.44 1.32
1 -4 3 38.38 1.4
-3 4 -1 38.61 1.33
1 -4 3 37.12 1.39
3 1 -4 37.18 1.3
-1 -3 4 39.21 1.38
4 -1 -3 38.13 1.31
-4 3 1 37.86 1.28
3 1 -4 37.51 1.32
-1 4 -3 39.34 1.31
3 -4 1 36.75 1.37
-4 1 3 37.79 1.34
3 -4 1 36.81 1.38
-3 -1 4 37.82 1.34
1 3 -4 37.27 1.3
4 -3 -1 39.11 1.39
4 -3 -1 37.84 1.35
4 -3 -1 38.82 1.34
-3 -1 4 38.71 1.44
4 -1 -2 65.04 2.1
2 1 -4 61.32 2.06
-2 4 -1 64.02 2.08
-1 -2 4 62.79 2.07
1 -4 2 62.07 2.12
1 -4 2 62.17 2.04
-4 2 1 60.22 2.05
4 -1 -2 63.06 2.17
-1 -2 4 63.96 2.19
2 1 -4 60.66 2.06
4 -1 -2 62.98 2.07
2 1 -4 63.55 2.16
1 -4 2 64.57 2.15
-1 -2 4 61.85 2.09
-2 -1 4 62.99 2.09
-4 1 2 59.65 2.07
2 -4 1 62.05 2.13
-1 4 -2 62.55 2.06
4 -2 -1 63.85 2.16
-4 1 2 64.1 2.21
2 -4 1 60.25 2.07
-2 -1 4 63.04 2.18
1 2 -4 62.7 2.16
4 -2 -1 62.8 2.1
4 -2 -1 62.57 2.08
2 -4 1 62.64 2.1
1 2 -4 61.25 2.06
4 -1 -1 79.01 2.68
1 -4 1 81.28 2.58
1 -4 1 76.54 2.57
1 -4 1 78.34 2.65
-1 -1 4 79.09 2.6
4 -1 -1 80.31 2.63
-4 1 1 78.78 2.59
1 1 -4 80.2 2.68
4 -1 -1 78.42 2.58
1 -4 1 77.74 2.59
-1 4 -1 79.21 2.58
1 1 -4 78.67 2.58
1 1 -4 80.08 2.58
-4 1 1 78.49 2.66
-1 -1 4 82.23 2.71
-4 4 0 21.24 0.78
4 0 -4 21.82 0.88
0 -4 4 19.06 0.83
4 0 -4 19.08 0.76
4 0 -4 19.65 0.74
0 -4 4 19.45 0.74
0 -4 4 19.25 0.86
-4 0 4 20.05 0.79
4 -4 0 20.9 0.83
4 -4 0 20.34 0.82
0 4 -4 19.97 0.76
0 -3 4 43.02 1.46
-3 4 0 43.71 1.5
0 -4 3 44.1 1.56
3 0 -4 44.92 1.48
4 0 -3 45.25 1.61
3 0 -4 42.52 1.47
0 -4 3 44.61 1.56
3 0 -4 44 1.58
-4 3 0 44.01 1.5
0 -4 3 42.84 1.47
0 -3 4 41.9 1.54
4 0 -3 43.51 1.46
0 -3 4 43.71 1.6
4 0 -3 45 1.51
3 -4 0 42.75 1.54
-3 0 4 43.55 1.51
-4 0 3 42.65 1.58
3 -4 0 42.4 1.51
-4 0 3 42.52 1.51
0 3 -4 42.52 1.48
0 4 -3 44.12 1.47
4 -3 0 44.23 1.57
4 -3 0 45.35 1.54
2 0 -4 70.18 2.4
4 0 -2 73.37 2.44
0 -4 2 76.13 2.42
0 -2 4 74.96 2.44
2 0 -4 74.88 2.5
0 -2 4 74.95 2.4
-2 4 0 74.87 2.38
4 0 -2 77.9 2.54
0 -2 4 75.67 2.54
0 -4 2 72.54 2.45
0 -4 2 72.03 2.48
4 0 -2 73.84 2.39
-4 2 0 70.49 2.42
2 0 -4 72.98 2.38
-4 2 0 71.61 2.38
-2 4 0 74.06 2.42
0 -4 2 73.93 2.44
4 -2 0 76.57 2.52
0 4 -2 74.89 2.39
-2 0 4 74.11 2.52
0 2 -4 73.49 2.5
-4 0 2 74.53 2.51
4 -2 0 67.47 2.44
-4 0 2 72.2 2.43
2 -4 0 71.87 2.4
2 -4 0 71.07 2.46
2 -4 0 72.98 2.4
-4 1 0 105.09 3.5
4 0 -1 109.49 3.61
0 -1 4 106.64 3.5
0 -4 1 109.78 3.57
0 -4 1 110.24 3.56
-4 1 0 107.65 3.58
4 0 -1 107.15 3.54
1 0 -4 109.13 3.58
1 0 -4 108.23 3.5
0 -1 4 108.99 3.62
0 -4 1 109.39 3.52
-4 1 0 104.43 3.49
1 0 -4 108.86 3.45
0 -1 4 109.9 3.5
-1 4 0 108.24 3.5
0 -4 1 100.32 3.48
-1 0 4 106.09 3.52
1 -4 0 106.57 3.5
-4 0 1 106.28 3.47
4 -1 0 111.27 3.61
0 1 -4 112.29 3.6
1 -4 0 108.84 3.55
-4 0 1 106.06 3.58
-4 0 1 106.87 3.52
0 1 -4 110.24 3.5
0 4 -1 110.67 3.48
1 -4 0 109.7 3.5
1 -4 0 113.34 3.51
4 0 0 128.73 4.27
0 0 -4 131.73 4.16
0 4 0 125.24 4.13
4 0 0 131.58 4.2
0 0 4 131.01 4.26
0 0 4 133.37 4.12
0 0 4 122.98 4.16
-4 0 0 126.85 4.23
-4 0 0 126.66 4.18
0 0 -4 131.14 4.24
-4 0 0 127.76 4.12
0 -4 0 128.8 4.18
0 -4 0 131.15 4.21
4 1 -4 16.7 0.76
1 -4 4 17.81 0.77
1 -4 4 16.99 0.73
-1 -4 4 16.31 0.66
4 -1 -4 17.29 0.75
-1 -4 4 16.49 0.75
4 1 -4 15.09 0.66
-1 -4 4 16.23 0.73
-4 4 1 17.29 0.67
4 -1 -4 16.6 0.77
4 -1 -4 16.31 0.64
4 1 -4 16.75 0.62
-4 4 -1 17.07 0.68
1 4 -4 16.29 0.63
-4 -1 4 16.64 0.77
-4 -1 4 16.2 0.69
4 -4 -1 16.49 0.7
4 -4 -1 15.14 0.69
4 -4 1 16.66 0.73
-1 4 -4 16.81 0.66
-4 1 4 16.82 0.68
4 -4 1 15.75 0.72
4 1 -3 41.44 1.48
-1 -4 3 43.07 1.53
4 1 -3 43.76 1.58
1 -3 4 44.36 1.59
1 -3 4 42.52 1.41
3 -1 -4 41.3 1.45
4 1 -3 43.12 1.41
-3 4 1 41.25 1.41
-1 -4 3 41.03 1.46
-4 3 -1 44.34 1.48
3 -1 -4 42.62 1.53
1 -3 4 42.45 1.51
-1 -4 3 43.79 1.54
4 -3 1 42.44 1.55
-4 -1 3 43.09 1.56
-3 1 4 42.74 1.48
-1 3 -4 41.09 1.46
1 4 -3 42.54 1.42
4 -3 1 42.44 1.51
-4 -1 3 41.39 1.49
3 -4 -1 41.67 1.46
3 -4 -1 43.49 1.47
3 -4 -1 40.56 1.48
-2 4 1 65.33 2.12
2 -1 -4 65.37 2.2
1 -2 4 64.65 2.1
4 1 -2 64.43 2.09
1 -2 4 64.42 2.16
1 -2 4 64.98 2.26
2 -1 -4 65.45 2.14
4 1 -2 63.59 2.18
-1 -4 2 64.54 2.21
4 1 -2 67.67 2.26
-4 2 -1 62.8 2.14
-1 -4 2 64.96 2.16
-1 -4 2 63.53 2.17
-4 -1 2 63.57 2.17
4 -2 1 64.44 2.19
-1 2 -4 62.67 2.21
-1 2 -4 63.05 2.14
4 -2 1 66.24 2.25
2 -4 -1 65.94 2.11
1 4 -2 65.71 2.09
2 -4 -1 62.34 2.14
2 -4 -1 64.97 2.17
-4 -1 2 63.8 2.23
2 -4 -1 63.32 2.1
1 -1 -4 94.97 3.24
1 -1 4 100.95 3.19
1 -1 4 101.8 3.17
1 -1 4 100.3 3.31
-1 -4 1 97.72 3.22
-1 -4 1 95.54 3.24
-4 1 -1 98.48 3.16
4 1 -1 100.33 3.3
-4 1 -1 96.59 3.17
-1 -4 1 95.51 3.17
4 1 -1 98.79 3.23
-1 -4 1 94.94 3.18
1 -1 -4 96.62 3.18
-4 1 -1 97.99 3.27
4 -1 1 98.11 3.3
4 -1 1 100.3 3.23
-1 1 4 94.13 3.2
-4 -1 1 97.25 3.27
1 -4 -1 98.65 3.17
-1 1 4 98.57 3.26
-4 -1 1 98.52 3.22
-4 -1 1 94.4 3.12
1 -4 -1 93.98 3.21
1 4 -1 101.2 3.13
1 -4 -1 102.82 3.22
-1 1 -4 96.73 3.26
-4 0 -1 123.73 3.96
1 0 4 127.39 3.96
-4 0 -1 120.79 4.07
-1 -4 0 118.86 4.03
-4 0 -1 126.27 4.01
4 1 0 118.93 4.03
0 -1 -4 122.22 4.05
-1 -4 0 121.06 3.99
4 1 0 126.89 4.11
0 -1 -4 119.14 3.99
-1 -4 0 121.64 4.02
1 0 4 126.72 4
-1 -4 0 125.85 4.04
1 0 4 127.64 4.11
4 0 1 126.15 4.03
-4 -1 0 123.79 4.08
0 -4 -1 123.37 4.03
-4 -1 0 123.39 4.04
0 -4 -1 124.75 3.96
1 4 0 124.02 3.98
-1 0 -4 122.41 4.07
0 -4 -1 125.84 4.03
4 0 1 125.71 4.11
0 1 4 120.36 4.01
-1 0 -4 121.59 3.99
-4 -1 0 124.06 3.95
1 1 4 118.25 3.97
4 1 1 120.16 3.92
-1 -1 -4 119.55 3.87
1 4 1 117.32 3.92
1 1 4 122.56 3.87
-4 -1 -1 118.97 3.83
-1 -4 -1 117.88 3.83
-1 -4 -1 120.34 3.83
1 1 4 119.94 3.9
-1 -4 -1 122.12 3.94
-1 -1 -4 120.06 3.94
-1 -4 -1 120.21 3.87
-4 -1 -1 123.62 3.97
-4 -1 -1 117.16 3.92
4 1 1 120.49 3.99
-4 4 -2 13.38 0.58
-2 -4 4 13.35 0.58
4 2 -4 12.92 0.59
2 -4 4 13.08 0.66
-2 -4 4 13.09 0.65
4 -2 -4 13.3 0.64
2 -4 4 13.34 0.63
4 -2 -4 13.28 0.56
2 4 -4 12.73 0.63
4 -4 2 11.73 0.6
4 -4 -2 13.45 0.59
-2 4 -4 13.16 0.56
-4 -2 4 12.35 0.59
-4 2 4 12.2 0.57
-4 -2 4 12.91 0.66
4 -4 -2 12.8 0.56
4 -4 2 12.36 0.64
4 -4 -2 13.12 0.57
2 -3 4 23.88 1.01
3 -2 -4 24.81 0.88
-3 4 2 23.95 0.87
-2 -4 3 24.85 0.96
2 -3 4 23.96 0.94
4 2 -3 24.35 0.93
-2 -4 3 24.16 0.91
-4 3 -2 23.85 0.9
3 -2 -4 24.63 0.93
4 -3 2 22.8 0.94
-3 2 4 23.08 0.9
-2 3 -4 23.32 0.89
4 -3 2 24.36 1
-4 -2 3 24.22 0.99
3 -4 -2 24.09 0.88
2 4 -3 24.86 0.98
3 -4 -2 24.15 0.89
3 -4 -2 22.22 0.89
-4 -2 3 24.06 0.93
-2 -4 2 53.83 1.87
2 -2 -4 53.73 1.82
-4 2 -2 53.59 1.83
-2 4 2 53.63 1.83
4 2 -2 51.36 1.87
2 -2 4 58.3 1.77
-2 -4 2 52.2 1.86
2 -2 -4 55.58 1.87
2 -2 4 55.04 1.86
2 -2 4 55.21 1.97
2 -4 -2 54 1.79
4 -2 2 56.22 1.88
-2 2 -4 55.81 1.84
2 -4 -2 54.3 1.81
2 4 -2 56.41 1.92
4 -2 2 57.24 1.97
-2 2 -4 52.34 1.96
2 -4 -2 52.1 1.83
-4 -2 2 53.81 1.87
-4 -2 2 53.12 1.92
-2 2 4 53.21 1.85
2 -4 -2 53.82 1.82
2 -1 4 72.5 2.37
4 2 -1 72.1 2.41
1 -2 -4 72.64 2.35
-4 1 -2 73.55 2.32
-2 -4 1 70.05 2.41
-2 -4 1 68.75 2.35
2 -1 4 74.95 2.5
-2 -4 1 69.95 2.37
2 -1 4 73.84 2.33
-4 1 -2 68.58 2.34
-1 4 2 69.03 2.37
1 -2 -4 70.64 2.39
-4 1 -2 74.55 2.46
2 4 -1 72.05 2.27
-2 1 -4 70.29 2.36
4 -1 2 73.19 2.39
-1 2 4 69.23 2.38
1 -4 -2 69.09 2.27
-4 -2 1 70.47 2.44
-2 1 -4 70.06 2.44
1 -4 -2 70.96 2.28
1 -4 -2 69.91 2.35
2 4 -1 72.06 2.43
-4 -2 1 70.28 2.41
4 -1 2 72.2 2.48
1 -4 -2 69.76 2.34
-4 0 -2 85.31 2.85
0 -2 -4 82.67 2.78
-2 -4 0 83.48 2.72
-2 -4 0 84.2 2.75
4 2 0 82.81 2.8
2 0 4 87.28 2.89
2 0 4 86.04 2.75
-4 0 -2 84.01 2.73
0 -2 -4 83.64 2.74
2 0 4 84.96 2.74
-4 0 -2 84.14 2.76
-2 -4 0 80.91 2.81
-4 -2 0 84.74 2.85
0 2 4 80.8 2.78
2 4 0 82.72 2.67
4 0 2 80.6 2.78
0 -4 -2 84.63 2.76
2 4 0 88.42 2.83
-2 0 -4 85.4 2.75
0 -4 -2 84.46 2.81
-4 -2 0 84.03 2.82
0 -4 -2 83.03 2.73
-2 0 -4 81.71 2.83
4 0 2 83.62 2.87
-1 -2 -4 90.62 2.96
1 4 2 91.65 2.99
2 1 4 91.72 3
2 1 4 88.82 2.94
-2 -4 -1 92 2.93
-2 -4 -1 91.92 2.9
-2 -4 -1 87.3 2.94
-2 -4 -1 89.83 3.05
-4 -1 -2 91.31 3.06
4 2 1 92.63 3.02
-4 -1 -2 93.53 2.93
-4 -1 -2 92.23 3.02
-1 -2 -4 89.89 3.01
-1 -4 -2 94.08 2.93
4 1 2 91.53 3.09
-4 -2 -1 90.43 3.04
4 1 2 88.93 3.01
-1 -4 -2 91.59 3.05
2 4 1 89.97 3.02
-2 -1 -4 87.2 2.96
1 2 4 89.8 3.01
-4 -2 -1 93.29 3.07
-2 -1 -4 89.38 3.04
-1 -4 -2 88.59 2.92
-1 -4 -2 87.64 2.93
-4 -2 -1 93.3 2.9
-2 -4 -2 70.96 2.4
-4 -2 -2 71.3 2.25
-4 -2 -2 71.42 2.39
2 2 4 69 2.35
-4 -2 -2 68.83 2.38
4 2 2 66.93 2.35
2 4 2 68.73 2.34
-2 -4 -2 71.28 2.27
2 2 4 67.33 2.27
-2 -2 -4 68.32 2.29
-2 -4 -2 67.27 2.27
-2 -2 -4 71.32 2.37
-2 -4 -2 69.6 2.25
4 -3 -4 6.98 0.39
4 -3 -4 7.22 0.44
3 -4 4 6.96 0.49
3 -4 4 5.93 0.44
-3 -4 4 7.24 0.47
4 3 -4 7.27 0.45
-3 -4 4 7.19 0.43
-4 4 3 6.79 0.37
-4 4 -3 7.43 0.4
3 4 -4 7.4 0.46
4 -4 -3 6.85 0.39
-3 4 -4 6.9 0.4
4 -4 3 6.9 0.46
4 -4 3 7.66 0.5
-4 -3 4 6.81 0.48
-4 -3 4 6.51 0.43
-4 3 4 7.04 0.4
4 -4 -3 7.13 0.4
3 -3 -4 19.31 0.76
3 -3 4 20.66 0.91
3 -3 4 18.34 0.8
-3 4 3 18.7 0.76
-3 -4 3 19.49 0.8
-4 3 -3 19.92 0.78
-3 -4 3 20.25 0.84
3 -3 -4 19.76 0.8
4 3 -3 19.31 0.83
-3 3 -4 20.05 0.78
-4 -3 3 18.67 0.81
3 -4 -3 19.11 0.76
4 -3 3 18.68 0.82
4 -3 3 20.8 0.9
3 -4 -3 19.25 0.75
3 4 -3 19.81 0.85
-3 3 4 18.86 0.78
-4 -3 3 20.07 0.86
4 3 -2 29.47 1.11
-3 -4 2 28.32 1.08
3 -2 4 29.67 1.19
2 -3 -4 28.23 1.04
-4 2 -3 28.6 1.04
3 -2 4 28.92 1.08
-2 4 3 28.16 1.05
2 -3 -4 26.56 1.02
-3 -4 2 29.94 1.1
-3 2 -4 28.71 1.05
3 4 -2 28.19 1.12
2 -4 -3 28.57 1.03
4 -2 3 29.24 1.09
4 -2 3 30.37 1.19
-2 3 4 28.35 1.06
-4 -3 2 28.24 1.09
-4 -3 2 29.03 1.13
2 -4 -3 27.3 1
-3 -4 1 44.02 1.61
-4 1 -3 47.1 1.66
-3 -4 1 44.92 1.6
4 3 -1 43.75 1.61
1 -3 -4 45.21 1.54
3 -1 4 46.49 1.51
3 -1 4 47.92 1.72
-1 4 3 44.33 1.58
1 -3 -4 44.77 1.54
-4 1 -3 44.15 1.54
3 -1 4 44.4 1.57
4 -1 3 44.15 1.58
3 4 -1 44.01 1.62
4 -1 3 45.53 1.69
-4 -3 1 44.26 1.63
-3 1 -4 45.72 1.65
1 -4 -3 44.56 1.51
-4 -3 1 45.06 1.62
1 -4 -3 46.15 1.49
-3 1 -4 46.21 1.56
-1 3 4 44.94 1.58
1 -4 -3 44.87 1.53
0 4 3 59.63 2.07
-3 -4 0 60.13 2.05
3 0 4 59.15 2.16
-4 0 -3 60.85 2
3 0 4 60.88 2.01
-3 -4 0 59.39 2.1
3 0 4 60.3 2.03
0 4 3 59.59 1.99
-4 0 -3 58.17 2.02
-4 0 -3 61.99 2.13
0 -3 -4 61.52 2.02
0 -3 -4 61.38 2.01
4 3 0 56.94 2.08
0 3 4 60.2 2.07
-4 -3 0 63.4 2.11
0 -4 -3 60.24 1.96
3 4 0 57.84 2.09
-3 0 -4 62.92 2.13
0 -4 -3 59.95 1.99
-4 -3 0 59.05 2.1
0 -4 -3 59.7 1.95
4 0 3 59.52 2.05
-3 0 -4 61.46 2.01
4 0 3 57.54 2.15
-1 -3 -4 52.95 1.77
4 3 1 51.87 1.85
-4 -1 -3 54.45 1.9
3 1 4 51.5 1.78
-3 -4 -1 54.94 1.81
1 4 3 51.28 1.78
-4 -1 -3 53.39 1.76
-3 -4 -1 54.57 1.89
-4 -1 -3 52.19 1.84
3 1 4 50.68 1.81
-1 -3 -4 54.33 1.81
-4 -3 -1 52.45 1.89
-1 -4 -3 52.58 1.75
-4 -3 -1 55.42 1.88
-1 -4 -3 54.12 1.75
3 4 1 53.01 1.86
-3 -1 -4 52.59 1.78
-1 -4 -3 51.11 1.76
4 1 3 50.6 1.82
-3 -1 -4 53.34 1.89
1 3 4 52.77 1.85
-1 -4 -3 53.03 1.88
3 2 4 38.23 1.33
-3 -4 -2 39.57 1.35
-4 -2 -3 38.59 1.29
4 3 2 38.08 1.39
-2 -3 -4 37.94 1.43
-3 -4 -2 35.05 1.43
-4 -2 -3 39.91 1.43
2 4 3 37.98 1.34
-2 -3 -4 39.97 1.38
-2 -3 -4 39.53 1.32
-4 -2 -3 38.06 1.42
-3 -2 -4 36.77 1.41
-3 -2 -4 39.49 1.42
-2 -4 -3 36.58 1.43
4 2 3 37.77 1.37
2 3 4 38.91 1.41
-4 -3 -2 38.16 1.44
-3 -2 -4 39.02 1.32
3 4 2 36.48 1.38
-2 -4 -3 39.11 1.32
-2 -4 -3 36.51 1.29
-4 -3 -2 38.46 1.41
-4 -3 -3 30.68 1.14
3 4 3 28.75 1.08
-3 -3 -4 31.46 1.12
-3 -3 -4 29.68 1.03
4 3 3 27.58 1.09
-3 -4 -3 28.12 1.17
3 3 4 27.52 1.05
-4 -3 -3 29.16 1.17
-3 -3 -4 28.33 1.16
-3 -4 -3 27.34 1.02
-3 -4 -3 30.84 1.08
-4 -4 4 5.01 0.39
4 -4 -4 4.15 0.33
4 -4 4 3.92 0.4
-4 4 -4 4.33 0.34
4 -4 4 4.36 0.44
4 4 -4 4.17 0.4
4 -4 -4 4.42 0.33
-4 -4 4 5.07 0.43
-4 4 4 4.57 0.34
4 -3 4 8.56 0.5
3 -4 -4 7.7 0.42
-4 -4 3 8.91 0.52
-3 4 4 8.31 0.46
3 -4 -4 8.11 0.43
-4 3 -4 8.01 0.44
4 4 -3 8.65 0.52
4 -3 4 8.63 0.58
-4 -4 3 8.22 0.48
-4 -4 2 17.18 0.76
4 -2 4 17.08 0.74
4 4 -2 17.77 0.8
-2 4 4 15.79 0.71
2 -4 -4 16.51 0.67
2 -4 -4 16.57 0.68
4 -2 4 18.24 0.86
-4 -4 2 18.48 0.79
-4 2 -4 17.12 0.7
4 -1 4 27.06 1.12
4 -1 4 23.73 0.97
-4 -4 1 27.85 1.04
1 -4 -4 25.14 0.93
4 4 -1 25.47 1.04
-1 4 4 25.03 0.99
1 -4 -4 25.22 0.9
-4 -4 1 23.71 1.02
0 -4 -4 26.99 0.94
-4 -4 0 26.89 1.05
-4 0 -4 27.34 0.97
-4 0 -4 25.87 1.08
4 0 4 26.08 1
4 0 4 25.92 0.97
0 -4 -4 27.05 0.96
0 4 4 26.64 1.03
4 4 0 25.71 1.06
-4 -4 0 26.38 1.08
-1 -4 -4 30.76 1.05
-4 -1 -4 27.69 1.1
4 1 4 28.39 1.07
-4 -1 -4 30.36 1.17
1 4 4 28.12 1.14
-4 -4 -1 32.12 1.13
-1 -4 -4 29.44 1.04
4 4 1 27.96 1.13
-4 -4 -1 26.86 1.16
-2 -4 -4 23.25 0.88
-4 -2 -4 24.22 0.86
-2 -4 -4 21.86 0.99
-2 -4 -4 24.65 0.86
4 4 2 21.19 0.93
-4 -4 -2 25.52 0.95
-4 -4 -2 21.94 1
4 2 4 23.58 0.91
-4 -2 -4 22.81 0.97
-4 -2 -4 24.36 0.98
-4 -3 -4 14.67 0.68
-4 -3 -4 13.01 0.71
-4 -4 -3 14.34 0.74
-3 -4 -4 14.92 0.64
-4 -3 -4 14.19 0.57
-3 -4 -4 13.81 0.73
4 4 3 14.3 0.66
-3 -4 -4 14.02 0.57
4 3 4 14.21 0.63
-4 -4 -3 14.96 0.66
-4 -4 -4 11.08 0.57
-4 -4 -4 10.14 0.64
4 -5 4 2.01 0.33
-4 -4 5 1.57 0.29
-4 5 -4 1.71 0.26
-4 -4 5 1.9 0.29
4 -5 4 2.07 0.34
5 -4 -4 1.79 0.27
4 4 -5 1.92 0.3
5 -4 -4 2.05 0.27
-3 -4 5 3.48 0.33
5 -3 -4 3.46 0.3
-3 -4 5 3.65 0.39
-4 5 -3 3.29 0.31
3 -5 4 3.04 0.35
3 -5 4 3.41 0.37
4 3 -5 3.24 0.32
5 -3 -4 3.15 0.35
4 -5 3 3.07 0.36
5 -4 -3 3.26 0.33
-3 5 -4 3.76 0.32
-4 -3 5 3.42 0.39
3 4 -5 3.41 0.35
4 -5 3 3.05 0.37
-4 -3 5 3.39 0.35
-5 3 4 3.27 0.31
5 -4 -3 3.73 0.33
3 -5 3 5.91 0.44
-3 -3 5 6.21 0.46
3 3 -5 6.19 0.39
-3 -3 5 6.26 0.4
-3 5 -3 6.4 0.38
5 -3 -3 6.38 0.38
3 -5 3 6.08 0.43
-5 3 3 6.45 0.36
5 -3 -3 6.3 0.43
-4 5 -2 4.87 0.35
2 -5 4 5.21 0.42
-2 -4 5 5.18 0.34
-2 -4 5 4.72 0.42
5 -2 -4 4.93 0.42
5 -2 -4 5.36 0.33
2 -5 4 4.97 0.41
-5 2 4 4.81 0.34
-2 5 -4 4.76 0.33
4 -5 2 4.83 0.41
4 -5 2 4.84 0.39
2 4 -5 4.92 0.38
5 -4 -2 5.18 0.35
5 -4 -2 5.03 0.35
5 -4 -2 5.4 0.39
-4 -2 5 4.88 0.37
2 -5 3 9.47 0.51
-2 -3 5 10.28 0.57
-3 5 -2 9.83 0.46
3 2 -5 9.1 0.42
5 -2 -3 9.46 0.45
2 -5 3 8.93 0.52
5 -2 -3 10 0.55
-2 -3 5 10.3 0.47
3 2 -5 9.45 0.46
5 -2 -3 9.53 0.45
3 -5 2 8.68 0.53
5 -3 -2 9.5 0.47
5 -3 -2 9.42 0.53
5 -3 -2 9.77 0.47
2 3 -5 9.61 0.42
-2 5 -3 9.53 0.45
3 -5 2 9.65 0.51
-3 -2 5 9.52 0.48
2 3 -5 9.11 0.49
-3 -2 5 10.09 0.57
-5 2 3 9.25 0.45
5 -2 -2 15.96 0.74
5 -2 -2 15.66 0.66
2 2 -5 16.15 0.65
2 -5 2 15.18 0.72
2 2 -5 15.8 0.62
2 -5 2 16.2 0.67
-5 2 2 15.69 0.63
-2 -2 5 16.71 0.77
-2 -2 5 16.71 0.66
-2 5 -2 15.87 0.64
5 -2 -2 16.11 0.65
4 1 -5 6.35 0.33
5 -1 -4 6.44 0.47
-1 -4 5 6.72 0.48
1 -5 4 6.83 0.44
-5 4 1 6.55 0.38
5 -1 -4 6.57 0.35
-4 5 -1 6.38 0.39
1 -5 4 6.5 0.45
-1 -4 5 5.87 0.41
-1 -4 5 6.18 0.36
5 -4 -1 6.19 0.42
4 -5 1 6.12 0.4
5 -4 -1 6.37 0.4
-4 -1 5 7.45 0.41
-5 1 4 6.44 0.4
4 -5 1 6.08 0.43
-1 5 -4 5.62 0.35
1 4 -5 6.31 0.34
-5 3 1 14.94 0.59
5 -1 -3 12.93 0.59
1 -5 3 13.54 0.66
3 1 -5 14.46 0.56
3 1 -5 14.65 0.7
-1 -3 5 13.5 0.62
-1 -3 5 13.38 0.56
5 -1 -3 13.81 0.56
1 -5 3 14.22 0.63
-1 -3 5 14.33 0.71
5 -1 -3 13.44 0.68
-3 5 -1 14.31 0.59
5 -3 -1 13.3 0.61
3 -5 1 13.59 0.65
5 -3 -1 14.07 0.67
-5 1 3 13.5 0.59
1 3 -5 13.2 0.56
3 -5 1 13.34 0.59
-3 -1 5 13.19 0.6
-1 5 -3 12.93 0.55
-5 2 1 20.1 0.77
-2 5 -1 21.41 0.78
-5 2 1 19.58 0.76
1 -5 2 19.96 0.85
-1 -2 5 20.58 0.79
5 -1 -2 20.23 0.81
5 -1 -2 21.39 0.89
-1 -2 5 21.69 0.92
5 -1 -2 20.81 0.77
2 1 -5 21.75 0.89
1 -5 2 19.52 0.79
-1 -2 5 21.48 0.78
2 1 -5 20.25 0.76
2 -5 1 21.39 0.86
1 2 -5 19.59 0.76
2 -5 1 19.46 0.77
-2 -1 5 20.58 0.9
-1 5 -2 20.72 0.76
-2 -1 5 19.73 0.79
-5 1 2 20.04 0.79
5 -2 -1 21.04 0.82
5 -2 -1 21.33 0.89
-1 -1 5 32.19 1.13
5 -1 -1 32.12 1.17
-5 1 1 31.49 1.13
-5 1 1 31.05 1.1
1 -5 1 30.81 1.07
1 1 -5 33 1.23
-1 -1 5 32.24 1.25
1 -5 1 31.49 1.09
1 1 -5 30.81 1.11
5 -1 -1 31.55 1.24
1 -5 1 30.94 1.19
-1 5 -1 31.68 1.1
-5 5 0 3.14 0.3
0 -5 5 3.13 0.36
0 -5 5 3.08 0.36
5 0 -5 3.72 0.45
5 -5 0 3 0.34
-5 0 5 3.44 0.33
5 -5 0 3.07 0.32
0 5 -5 2.67 0.26
-5 4 0 7.65 0.41
0 -4 5 7.95 0.51
-4 5 0 7.44 0.39
4 0 -5 7.56 0.38
5 0 -4 7.62 0.52
0 -5 4 7.19 0.46
0 -5 4 7.77 0.49
5 0 -4 7.17 0.36
4 0 -5 8.51 0.5
0 -4 5 6.9 0.46
5 -4 0 6.79 0.44
-4 0 5 7.63 0.43
5 -4 0 7 0.46
-5 0 4 7.42 0.43
0 4 -5 7.49 0.39
4 -5 0 7.98 0.46
0 5 -4 7.44 0.38
4 -5 0 7.42 0.41
0 -3 5 15.6 0.75
0 -5 3 15.55 0.67
0 -3 5 15.59 0.6
5 0 -3 16.41 0.76
-3 5 0 15.96 0.63
3 0 -5 15.01 0.62
5 0 -3 15.33 0.59
3 0 -5 15.99 0.73
0 -3 5 15.08 0.67
0 -5 3 15.27 0.71
5 0 -3 14.84 0.64
-5 3 0 15.91 0.63
5 -3 0 15.99 0.73
3 -5 0 15.15 0.68
3 -5 0 14.69 0.61
0 5 -3 14.89 0.59
-5 0 3 14.55 0.65
5 -3 0 15.34 0.68
-3 0 5 15.28 0.65
0 3 -5 14.51 0.62
0 -2 5 26.13 0.94
0 -5 2 25.45 0.95
0 -2 5 27.43 1.1
2 0 -5 26.92 1.05
5 0 -2 26.14 1.08
5 0 -2 25.78 0.99
0 -2 5 26.99 0.98
-5 2 0 26.4 0.95
0 -5 2 24.84 1.03
5 0 -2 25.42 0.92
2 0 -5 26.19 0.95
0 -5 2 27.21 0.97
-2 5 0 27.3 0.95
2 -5 0 25.88 0.9
-5 0 2 26.26 0.99
-2 0 5 26.09 0.97
0 5 -2 25.61 0.92
0 2 -5 25.95 0.96
5 -2 0 26.92 1.08
2 -5 0 26.15 0.9
2 -5 0 25.35 1.01
5 -2 0 26.01 1
-5 1 0 35.06 1.26
1 0 -5 35.78 1.28
5 0 -1 37.96 1.42
0 -5 1 36.92 1.24
0 -5 1 33.79 1.22
0 -5 1 37.42 1.36
0 -1 5 37.56 1.26
-5 1 0 36.34 1.28
0 -1 5 36.74 1.28
-1 5 0 37.7 1.27
1 0 -5 37.04 1.37
0 -5 1 36.35 1.29
0 -1 5 38.99 1.42
5 0 -1 38.3 1.34
5 -1 0 38.14 1.42
0 1 -5 37.37 1.38
1 -5 0 37.09 1.29
-5 0 1 34.26 1.3
-1 0 5 36.81 1.3
-5 0 1 36.34 1.38
0 5 -1 38.49 1.25
1 -5 0 35.28 1.33
0 1 -5 37.1 1.28
-5 0 1 35.16 1.23
-5 0 0 43.73 1.59
5 0 0 44.45 1.55
0 0 -5 43.1 1.49
0 5 0 44.06 1.45
0 0 5 44.33 1.5
0 -5 0 42.95 1.55
-5 0 0 43.47 1.44
-5 0 0 41.44 1.51
0 0 -5 43.06 1.57
5 0 0 43.67 1.63
0 -5 0 42.18 1.52
-5 5 1 3.15 0.3
-1 -5 5 3.09 0.36
-5 5 -1 2.78 0.28
5 -1 -5 3.19 0.39
5 -1 -5 3.17 0.28
1 -5 5 3.03 0.36
-1 -5 5 2.22 0.31
1 -5 5 2.94 0.36
5 -5 1 2.68 0.33
5 -5 -1 3.02 0.32
-5 1 5 2.78 0.3
5 -5 1 2.73 0.34
5 -5 -1 2.61 0.29
-1 5 -5 2.04 0.25
-5 -1 5 2.3 0.29
-4 5 1 6.01 0.35
-1 -5 4 6.76 0.46
4 -1 -5 6.38 0.35
-1 -5 4 6.7 0.37
1 -4 5 6.13 0.46
-1 -5 4 6.54 0.43
5 1 -4 6.51 0.38
4 -1 -5 6.45 0.44
-5 4 -1 7.06 0.4
1 -4 5 6.06 0.42
4 -5 -1 6.36 0.36
-1 4 -5 6.3 0.37
5 -4 1 6.87 0.46
-5 -1 4 5.81 0.41
4 -5 -1 5.72 0.4
-4 1 5 6.59 0.4
5 -4 1 6.41 0.43
1 -3 5 14.3 0.62
-5 3 -1 14.15 0.59
-1 -5 3 13.22 0.58
-1 -5 3 13.14 0.66
3 -1 -5 13.06 0.56
5 1 -3 13.65 0.62
1 -3 5 13.42 0.7
-3 5 1 14.08 0.58
-1 -5 3 14.43 0.63
3 -1 -5 14.21 0.66
-3 1 5 13.01 0.6
3 -5 -1 13.7 0.54
5 -3 1 12.94 0.64
-5 -1 3 13.54 0.68
5 -3 1 13.91 0.69
3 -5 -1 13.21 0.61
-5 -1 3 13.45 0.62
3 -5 -1 13.56 0.58
-1 3 -5 13.38 0.58
2 -1 -5 26.78 1.06
1 -2 5 26.59 1.01
-1 -5 2 26.4 1.02
5 1 -2 28.09 1.14
1 -2 5 28.29 1.14
-5 2 -1 26.51 0.99
1 -2 5 27.53 0.96
-1 -5 2 26.29 1.06
-2 5 1 26.96 0.97
-1 -5 2 27.39 1.01
5 1 -2 28.02 1.04
2 -1 -5 26.57 0.99
5 -2 1 28.78 1.13
-5 -1 2 26.68 1.1
2 -5 -1 28.7 0.99
2 -5 -1 26.32 0.9
-5 -1 2 26.19 1.04
5 -2 1 26.76 1.05
2 -5 -1 26.67 0.9
1 5 -2 28.53 0.93
2 -5 -1 26.31 1.03
5 1 -1 32.65 1.24
1 -1 5 35.25 1.34
1 -1 -5 33.77 1.26
-1 -5 1 33.01 1.14
5 1 -1 34.29 1.32
-1 -5 1 32.23 1.25
-5 1 -1 32.03 1.16
-1 -5 1 33.18 1.22
1 -1 5 34.15 1.17
-5 1 -1 32.67 1.17
-1 -5 1 33.88 1.15
1 -1 5 33.06 1.17
1 -1 -5 33.45 1.18
-1 1 -5 32.09 1.18
1 5 -1 35.03 1.13
-5 -1 1 34.61 1.3
-1 1 5 33.93 1.21
5 -1 1 34.07 1.32
1 -5 -1 33.87 1.23
1 -5 -1 32.13 1.21
-5 -1 1 32.72 1.23
-1 1 -5 34.91 1.29
1 -5 -1 34.37 1.17
5 -1 1 33.49 1.24
5 1 0 47.92 1.75
-1 -5 0 45.03 1.64
-5 0 -1 45.1 1.61
-1 -5 0 47.03 1.49
0 -1 -5 47.08 1.66
-5 0 -1 45.77 1.54
-1 -5 0 45.95 1.49
1 0 5 47.62 1.6
-5 0 -1 46.67 1.7
-1 -5 0 45.35 1.65
0 -1 -5 46.56 1.59
5 1 0 45.91 1.64
0 -5 -1 46.2 1.63
0 1 5 46.53 1.61
5 0 1 45.8 1.64
-5 -1 0 47.12 1.7
0 -5 -1 45.19 1.63
-5 -1 0 45.55 1.65
5 0 1 46.59 1.73
-1 0 -5 47.66 1.69
-1 0 -5 46.39 1.59
0 -5 -1 46.66 1.56
1 5 0 47.05 1.53
-5 -1 -1 41.14 1.36
5 1 1 43.11 1.49
-1 -5 -1 40.91 1.49
1 5 1 39.32 1.48
-1 -1 -5 42.96 1.51
-1 -1 -5 40.41 1.42
1 1 5 41.85 1.45
-5 -1 -1 41.42 1.54
-1 -5 -1 40.45 1.37
-5 -1 -1 38.92 1.47
-5 5 -2 2.02 0.26
5 -2 -5 2.41 0.34
2 -5 5 2.3 0.33
5 -2 -5 2.08 0.25
-2 -5 5 2.26 0.27
-2 -5 5 2.39 0.33
2 -5 5 1.99 0.32
-5 5 2 2.31 0.27
-5 -2 5 2.36 0.32
-2 5 -5 1.52 0.24
5 -5 2 1.67 0.31
-5 2 5 2.02 0.26
5 -5 -2 1.81 0.25
5 -5 2 2.13 0.31
2 5 -5 2.26 0.32
4 -2 -5 4.6 0.33
4 -2 -5 4.85 0.4
5 2 -4 5.04 0.36
2 -4 5 4.82 0.39
4 -2 -5 5.04 0.39
-2 -5 4 5.31 0.4
-5 4 -2 5.34 0.36
2 -4 5 5.13 0.45
-2 -5 4 4.63 0.35
4 -5 -2 5.05 0.35
5 -4 2 4.55 0.41
-5 -2 4 5.29 0.4
2 5 -4 4.9 0.43
5 -4 2 5.13 0.43
4 -5 -2 5.07 0.35
4 -5 -2 5.27 0.32
-4 2 5 5 0.36
-2 -5 3 11.59 0.55
2 -3 5 12.18 0.66
3 -2 -5 11.06 0.51
3 -2 -5 11.3 0.56
-2 -5 3 11.96 0.57
-5 3 -2 11.49 0.53
2 -3 5 10.93 0.55
5 2 -3 11.6 0.57
-2 3 -5 11.48 0.53
-5 -2 3 11.43 0.58
3 -5 -2 11.16 0.53
2 5 -3 12.33 0.64
5 -3 2 11.48 0.64
-5 -2 3 11.38 0.63
-3 2 5 11.63 0.55
3 -5 -2 10.95 0.47
5 -3 2 10.71 0.57
3 -5 -2 11.22 0.52
-5 2 -2 18.06 0.69
2 -2 -5 16.91 0.68
5 2 -2 16.92 0.74
-2 -5 2 17.77 0.74
-2 5 2 16.51 0.68
-2 -5 2 17.48 0.71
2 -2 5 17.47 0.71
2 -2 5 17.6 0.83
2 -2 -5 17.16 0.73
2 -5 -2 16.67 0.7
-2 2 5 16.42 0.71
-5 -2 2 16.72 0.74
2 5 -2 17.26 0.79
5 -2 2 18.67 0.84
5 -2 2 16.82 0.74
-5 -2 2 17.7 0.8
2 -5 -2 16.73 0.67
2 -5 -2 16.54 0.58
-2 2 -5 16.98 0.7
2 -5 -2 16.55 0.58
5 2 -1 29.35 1.13
1 -2 -5 29.79 1.12
2 -1 5 32.13 1.24
-2 -5 1 29.07 1.13
1 -2 -5 29.39 1.06
-2 -5 1 29.58 1.07
-5 1 -2 31.13 1.06
-1 5 2 28.85 1.09
2 -1 5 28.58 1.07
2 -1 5 29.24 1.04
-5 -2 1 28.4 1.13
2 5 -1 30.73 1.17
-2 1 -5 29.57 1.17
-5 -2 1 30.59 1.19
5 -1 2 30.24 1.22
1 -5 -2 29.05 1.05
5 -1 2 31.09 1.13
-1 2 5 28.34 1.1
1 -5 -2 28.22 1.09
0 -2 -5 32.27 1.21
-5 0 -2 34.69 1.29
2 0 5 34.96 1.15
5 2 0 32.55 1.23
-5 0 -2 32.39 1.13
-2 -5 0 31 1.23
2 0 5 32.57 1.16
-5 0 -2 32.31 1.18
0 -2 -5 32.58 1.16
-2 -5 0 32.16 1.12
-2 -5 0 32.34 1.1
2 5 0 32.66 1.25
-2 0 -5 32.32 1.25
-5 -2 0 32.84 1.28
0 2 5 32.48 1.2
5 0 2 32.62 1.21
-2 0 -5 32.62 1.17
0 -5 -2 31.98 1.13
-5 -2 0 32.15 1.25
5 0 2 33.64 1.32
0 -5 -2 32.97 1.23
0 -5 -2 32.65 1.19
-2 -5 -1 35.8 1.19
5 2 1 35.63 1.34
-2 -5 -1 35.29 1.36
-5 -1 -2 35.35 1.32
2 1 5 37.11 1.3
-2 -5 -1 36.65 1.2
1 5 2 33.67 1.3
-5 -1 -2 35.91 1.22
-1 -2 -5 36.49 1.27
-1 -2 -5 36.92 1.33
-5 -1 -2 37.89 1.39
5 1 2 34.89 1.32
-2 -1 -5 36.04 1.27
-2 -1 -5 36.28 1.35
2 5 1 34.63 1.33
-5 -2 -1 38.42 1.4
-1 -5 -2 33.88 1.34
-5 -2 -1 35.89 1.36
1 2 5 35.52 1.32
-1 -5 -2 36.24 1.22
-2 -5 -2 24.1 0.84
-2 -5 -2 25.01 0.83
-5 -2 -2 25.22 1.03
-5 -2 -2 24 1
2 5 2 24.4 0.97
-2 -2 -5 25.25 0.99
-2 -5 -2 22.78 1.01
2 2 5 24.63 0.97
-2 -2 -5 25.81 0.92
5 2 2 24.63 0.98
3 -5 5 0.83 0.26
5 -3 -5 1.63 0.23
-3 -5 5 1.54 0.26
5 3 -5 1.14 0.25
-5 5 -3 1.62 0.27
3 -5 5 1.53 0.32
5 -3 -5 1.95 0.3
-3 -5 5 1.5 0.29
-5 3 5 1.28 0.24
3 5 -5 1.28 0.28
5 -5 -3 1.37 0.25
-3 5 -5 1.13 0.23
5 -5 3 1.39 0.28
5 -5 -3 1.41 0.23
5 -5 3 1.64 0.31
-5 -3 5 1.26 0.27
3 -4 5 3.77 0.42
-3 -5 4 3.77 0.37
4 -3 -5 3.71 0.32
5 3 -4 3.39 0.35
4 -3 -5 3.09 0.34
3 -4 5 3.24 0.36
-3 -5 4 3.27 0.34
-5 4 -3 3.41 0.34
3 5 -4 3.57 0.4
4 -5 -3 3.24 0.28
-5 -3 4 3.81 0.38
5 -4 3 2.89 0.34
4 -5 -3 3.8 0.33
5 -4 3 3.27 0.39
-3 4 -5 2.7 0.29
-5 -3 4 3.67 0.41
-4 3 5 3.17 0.32
-3 -5 3 6.9 0.44
-3 5 3 6.21 0.37
3 -3 5 6.32 0.43
3 -3 -5 6.95 0.4
-5 3 -3 6.94 0.4
3 -3 5 6.89 0.53
3 -3 -5 6.56 0.38
-3 -5 3 6.8 0.43
5 3 -3 6.23 0.44
-5 -3 3 7.75 0.51
-3 3 -5 6.49 0.41
3 -5 -3 6.25 0.38
3 5 -3 6.79 0.48
-5 -3 3 6.5 0.45
-3 3 5 6.22 0.41
5 -3 3 7.25 0.52
3 -5 -3 6.69 0.34
5 -3 3 6.77 0.45
3 -2 5 14.2 0.74
5 3 -2 12.79 0.65
-3 -5 2 13.94 0.62
2 -3 -5 14.09 0.6
3 -2 5 12.84 0.61
-3 -5 2 12.93 0.64
-5 2 -3 13.23 0.58
2 -3 -5 12.89 0.57
-2 5 3 12.56 0.58
-5 -3 2 13.15 0.65
2 -5 -3 13.18 0.49
5 -2 3 13.24 0.65
-2 3 5 12.82 0.61
5 -2 3 14.09 0.74
-3 2 -5 13.81 0.6
2 -5 -3 13.09 0.57
-5 -3 2 13.63 0.69
3 5 -2 13.56 0.69
2 -5 -3 13.01 0.51
3 -1 5 17.88 0.74
-5 1 -3 18.42 0.71
-1 5 3 18.47 0.76
-3 -5 1 18.18 0.8
1 -3 -5 18.33 0.72
5 3 -1 17.07 0.79
1 -3 -5 18.06 0.73
-3 -5 1 18.36 0.75
-3 1 -5 17.86 0.73
1 -5 -3 18.83 0.71
-5 -3 1 17.13 0.8
5 -1 3 18.45 0.78
-1 3 5 16.33 0.75
5 -1 3 18.41 0.88
3 5 -1 17.85 0.81
-5 -3 1 18.83 0.84
-3 -5 0 20.5 0.91
0 -3 -5 22.22 0.85
5 3 0 21.96 0.91
-5 0 -3 21.15 0.8
0 5 3 20.9 0.88
3 0 5 21.5 0.82
-5 0 -3 22.66 0.96
-3 -5 0 21.19 0.83
3 0 5 21.68 0.83
-5 0 -3 20.19 0.83
0 -3 -5 21.15 0.82
-3 0 -5 22.61 0.94
0 3 5 22.14 0.89
-5 -3 0 20.36 0.92
0 -5 -3 21.59 0.8
-3 0 -5 22.51 0.83
-5 -3 0 22.77 0.95
3 5 0 21.83 0.93
5 0 3 20.83 0.87
-3 -5 -1 20.94 0.94
-5 -1 -3 22.89 0.96
-1 -3 -5 21.61 0.86
-1 -3 -5 22.19 0.82
3 1 5 21.63 0.86
-3 -5 -1 21.48 0.81
-5 -1 -3 21.87 0.79
5 3 1 21.71 0.9
-5 -1 -3 21.2 0.88
1 5 3 20.17 0.86
-1 -5 -3 21.6 0.93
5 1 3 21.92 0.88
-1 -5 -3 21.92 0.72
-3 -1 -5 22.18 0.83
-5 -3 -1 21.9 0.94
-1 -5 -3 21.94 0.79
-1 -5 -3 21.18 0.72
-5 -3 -1 19.88 0.93
3 5 1 21.19 0.91
1 3 5 21.25 0.9
-3 -1 -5 23.4 0.94
-3 -5 -2 19.52 0.74
-5 -2 -3 18.35 0.85
2 5 3 18.4 0.79
3 2 5 19.41 0.83
-5 -2 -3 21.2 0.9
-2 -3 -5 19.63 0.81
-2 -3 -5 19.57 0.75
5 3 2 20.02 0.84
-3 -5 -2 19.05 0.89
-3 -2 -5 21.15 0.87
-3 -2 -5 20.19 0.76
3 5 2 18.64 0.83
-2 -5 -3 18.13 0.87
-5 -3 -2 20.4 0.87
5 2 3 19.67 0.83
-2 -5 -3 18.63 0.7
2 3 5 18.81 0.84
-2 -5 -3 19.98 0.7
-5 -3 -2 18.39 0.88
3 3 5 12.56 0.64
3 5 3 11.96 0.58
-3 -5 -3 11.69 0.51
-5 -3 -3 11.57 0.67
-5 -3 -3 13.36 0.66
-3 -5 -3 10.76 0.66
-3 -3 -5 12 0.61
5 3 3 12.37 0.6
-3 -3 -5 12.06 0.53
4 -4 5 2.08 0.37
4 -4 -5 1.93 0.27
4 -4 -5 1.77 0.25
-4 -5 4 1.93 0.31
5 4 -4 1.82 0.31
4 -4 5 1.62 0.3
-4 -5 4 1.78 0.29
-5 4 -4 1.85 0.27
-4 4 5 1.68 0.26
-4 4 -5 2 0.27
4 -5 -4 1.73 0.23
-5 -4 4 1.87 0.32
4 -5 -4 2.32 0.27
5 -4 4 1.96 0.36
4 5 -4 1.91 0.33
5 -4 4 2.03 0.33
-5 -4 4 2.31 0.33
-5 3 -4 3.85 0.35
4 -3 5 4.08 0.46
3 -4 -5 3.95 0.32
5 4 -3 3.46 0.39
-3 5 4 3.14 0.31
4 -3 5 3.19 0.35
-4 -5 3 3.57 0.37
3 -4 -5 3.41 0.31
-4 -5 3 4.11 0.38
4 5 -3 4.46 0.44
3 -5 -4 3.41 0.26
-3 4 5 3.54 0.35
5 -3 4 3.93 0.39
-5 -4 3 3.87 0.4
-5 -4 3 4.14 0.41
5 -3 4 4.21 0.46
3 -5 -4 3.67 0.32
-4 -5 2 7.46 0.47
2 -4 -5 7.68 0.38
-5 2 -4 7.19 0.41
-2 5 4 6.72 0.43
2 -4 -5 6.72 0.39
5 4 -2 6.81 0.5
-4 -5 2 6.7 0.47
4 -2 5 7.38 0.45
5 -2 4 7.48 0.47
-5 -4 2 6.58 0.48
2 -5 -4 6.83 0.39
-5 -4 2 7.64 0.5
4 5 -2 6.34 0.5
-4 2 -5 7.44 0.43
-2 4 5 6.54 0.44
2 -5 -4 6.78 0.33
5 -2 4 7.51 0.56
1 -4 -5 9.92 0.47
-1 5 4 9.59 0.53
1 -4 -5 10.33 0.46
-4 -5 1 10.19 0.53
5 4 -1 9.18 0.56
4 -1 5 9.99 0.51
-4 -5 1 8.63 0.56
-4 1 -5 10.03 0.49
1 -5 -4 9.93 0.46
4 5 -1 10.56 0.6
5 -1 4 9.85 0.54
1 -5 -4 9.46 0.39
-1 4 5 9.26 0.53
-5 -4 1 10.59 0.59
-5 -4 1 9.4 0.57
-5 0 -4 13.12 0.69
0 5 4 11.77 0.63
-4 -5 0 13.4 0.61
-4 -5 0 11.72 0.67
5 4 0 13.82 0.68
0 -4 -5 12.93 0.55
-5 0 -4 12.67 0.56
0 -4 -5 13.17 0.56
4 0 5 13.24 0.6
-5 -4 0 12.71 0.66
0 -5 -4 13.14 0.47
4 5 0 12.66 0.68
-5 -4 0 12.35 0.68
-4 0 -5 13.76 0.7
0 4 5 12.48 0.64
0 -5 -4 12.58 0.54
5 0 4 11.99 0.6
-4 -5 -1 12.92 0.58
-5 -1 -4 11.23 0.59
-4 -5 -1 10.91 0.66
5 4 1 11.63 0.63
4 1 5 11.42 0.55
1 5 4 12.38 0.64
4 1 5 12.95 0.59
-5 -1 -4 13.27 0.68
-1 -4 -5 11.66 0.53
-5 -1 -4 12.19 0.52
-1 -4 -5 12.1 0.53
5 1 4 11.42 0.58
-1 -5 -4 12.37 0.47
-5 -4 -1 13.06 0.65
-4 -1 -5 12.73 0.55
-1 -5 -4 12.28 0.52
4 5 1 11.85 0.64
-4 -1 -5 13.26 0.68
1 4 5 11.84 0.62
-5 -4 -1 12.15 0.68
4 2 5 10.54 0.57
-4 -5 -2 10.93 0.53
5 4 2 10.42 0.58
-5 -2 -4 9.99 0.59
-2 -4 -5 11.29 0.53
-4 -5 -2 9.97 0.65
-5 -2 -4 11.87 0.63
-2 -4 -5 10.87 0.5
2 4 5 10.56 0.61
-2 -5 -4 11.34 0.47
4 5 2 10.74 0.59
-5 -4 -2 12.31 0.61
-2 -5 -4 10.35 0.46
5 2 4 10.21 0.55
-5 -4 -2 9.93 0.66
-2 -5 -4 10.42 0.64
-4 -2 -5 10.72 0.49
-4 -2 -5 11.83 0.62
4 3 5 7.9 0.54
-5 -3 -4 7.99 0.57
-3 -4 -5 8.82 0.43
5 4 3 8.26 0.53
-3 -4 -5 9.33 0.49
-4 -5 -3 9.02 0.47
-4 -5 -3 8.67 0.6
-5 -3 -4 9.35 0.56
-4 -3 -5 8.96 0.54
5 3 4 8.42 0.5
-5 -4 -3 7.78 0.6
-3 -5 -4 8.39 0.6
-4 -3 -5 8.86 0.44
4 5 3 8.03 0.51
3 4 5 8.21 0.56
-3 -5 -4 9.91 0.45
-5 -4 -3 9.32 0.54
-4 -3 -5 8.14 0.58
-4 -4 -5 5.02 0.53
-4 -5 -4 4.63 0.51
-4 -4 -5 5.16 0.41
-5 -4 -4 5.82 0.44
-4 -5 -4 5.91 0.39
-5 -4 -4 4.07 0.47
-5 -5 3 2.16 0.33
3 -5 -5 1.69 0.25
5 -3 5 1.92 0.38
5 -3 5 1.74 0.3
-3 5 5 1.92 0.28
-5 -5 3 1.87 0.32
5 5 -3 1.71 0.34
3 -5 -5 1.94 0.24
-5 -5 2 3.58 0.39
5 -2 5 3.06 0.36
5 5 -2 3.17 0.42
2 -5 -5 3.04 0.24
2 -5 -5 2.77 0.29
-2 5 5 2.94 0.33
-5 -5 2 2.75 0.37
1 -5 -5 4.73 0.26
-5 -5 1 4.46 0.45
1 -5 -5 4.38 0.33
-5 -5 1 4.88 0.42
5 5 -1 4.09 0.46
-1 5 5 4.62 0.41
5 -1 5 4.56 0.39
-5 1 -5 5.41 0.37
-5 -5 0 6.3 0.44
5 0 5 5.61 0.41
-5 -5 0 5.65 0.5
0 -5 -5 6.24 0.31
0 5 5 5.99 0.48
0 -5 -5 5.62 0.36
5 5 0 5.88 0.47
1 5 5 5.92 0.47
-5 -1 -5 5.89 0.37
-5 -5 -1 6.26 0.44
-1 -5 -5 6.45 0.32
-5 -5 -1 5.09 0.51
-1 -5 -5 6.07 0.36
5 5 1 6.11 0.48
-5 -1 -5 7.08 0.53
5 1 5 5.48 0.39
-5 -5 -2 6.18 0.42
-5 -2 -5 6.46 0.5
-2 -5 -5 5.6 0.33
5 2 5 5.42 0.42
-5 -2 -5 5.11 0.34
-5 -2 -5 4.45 0.43
-2 -5 -5 5.75 0.33
2 5 5 5.48 0.47
5 5 2 5.52 0.45
-5 -5 -2 4.64 0.51
-5 -5 -3 3.65 0.49
-5 -3 -5 5.45 0.47
-5 -3 -5 3.99 0.45
-5 -5 -3 4.13 0.37
5 5 3 5.01 0.43
3 5 5 3.29 0.4
-3 -5 -5 5.02 0.34
6 -3 -4 1.34 0.24
-3 -4 6 1.35 0.26
-3 -4 6 0.81 0.26
3 -6 4 1.2 0.26
3 -6 4 0.9 0.27
6 -3 -4 1.36 0.28
-4 6 -3 1.05 0.24
6 -4 -3 1.35 0.27
4 -6 3 1.25 0.25
6 -4 -3 1.51 0.25
4 -6 3 1.16 0.28
-4 -3 6 1.02 0.25
-3 6 -4 1.15 0.23
6 -3 -3 1.85 0.31
6 -3 -3 2.22 0.27
-3 -3 6 2.02 0.27
-3 6 -3 2.26 0.27
3 -6 3 2.17 0.35
3 -6 3 2.62 0.32
6 -2 -4 2.18 0.34
2 -6 4 1.42 0.3
2 -6 4 1.75 0.28
-6 4 2 1.65 0.24
-2 -4 6 2.03 0.33
6 -2 -4 2.29 0.26
-4 6 -2 2 0.26
-2 -4 6 1.97 0.26
6 -4 -2 1.85 0.26
-2 6 -4 1.73 0.24
4 -6 2 1.72 0.26
4 -6 2 1.71 0.3
6 -4 -2 1.6 0.29
-6 2 4 1.73 0.24
-4 -2 6 1.66 0.26
6 -2 -3 3.98 0.32
3 2 -6 3.75 0.29
-2 -3 6 4.1 0.32
-2 -3 6 4.36 0.42
-3 6 -2 4.17 0.33
2 -6 3 3.62 0.39
2 -6 3 3.68 0.32
-6 3 2 4.06 0.3
6 -2 -3 4.2 0.41
-2 6 -3 3.56 0.31
-3 -2 6 4.02 0.34
6 -3 -2 4.13 0.41
2 3 -6 4.09 0.29
3 -6 2 4.17 0.41
3 -6 2 3.95 0.31
6 -3 -2 3.55 0.34
-6 2 3 3.87 0.31
2 -6 2 4.88 0.32
-2 -2 6 4.99 0.34
6 -2 -2 5.28 0.36
6 -2 -2 5.46 0.45
2 -6 2 4.88 0.42
2 2 -6 5.39 0.33
-2 6 -2 4.88 0.33
-6 2 2 5.84 0.33
1 -6 5 1.32 0.31
-5 6 -1 1.34 0.25
-1 -5 6 0.93 0.26
-1 -5 6 1.04 0.27
6 -1 -5 1.3 0.31
1 -6 5 1.24 0.26
-6 5 1 0.91 0.2
5 -6 1 0.76 0.25
6 -5 -1 1.23 0.25
-1 6 -5 0.98 0.21
5 -6 1 0.96 0.22
6 -5 -1 1.1 0.25
-6 1 5 1.14 0.24
-5 -1 6 1.04 0.25
1 -6 4 2.58 0.36
-1 -4 6 2.69 0.38
-4 6 -1 2.76 0.29
6 -1 -4 2.36 0.27
-1 -4 6 2.6 0.27
-6 4 1 2.61 0.27
6 -1 -4 2.47 0.35
1 -6 4 3 0.33
-1 -4 6 2.56 0.32
4 -6 1 2.52 0.28
-6 1 4 2.35 0.28
6 -4 -1 2.71 0.34
1 4 -6 2.07 0.23
4 -6 1 2.18 0.31
6 -4 -1 2.55 0.31
-1 6 -4 2.53 0.26
-4 -1 6 2.62 0.3
1 -6 3 4.28 0.41
-6 3 1 5.46 0.33
6 -1 -3 4.85 0.43
3 1 -6 4.27 0.3
1 -6 3 4.43 0.33
6 -1 -3 4.37 0.3
-1 -3 6 4.79 0.45
6 -1 -3 4.31 0.33
-3 6 -1 4.22 0.33
-1 -3 6 4.51 0.31
3 -6 1 4.65 0.3
-6 1 3 4.27 0.34
6 -3 -1 4.63 0.37
1 3 -6 4.36 0.3
-1 6 -3 4.66 0.31
-3 -1 6 4.17 0.35
6 -3 -1 4.47 0.41
3 -6 1 4.44 0.4
-2 6 -1 9.32 0.44
1 -6 2 8 0.5
6 -1 -2 7.98 0.47
1 -6 2 9.02 0.42
6 -1 -2 8.47 0.56
2 1 -6 8.06 0.43
-1 -2 6 8.41 0.43
-6 2 1 9.57 0.43
1 2 -6 8.67 0.44
2 -6 1 8.94 0.39
-1 6 -2 8.74 0.41
2 -6 1 8.94 0.52
-2 -1 6 9.02 0.46
-6 1 2 8.6 0.46
6 -2 -1 8.3 0.55
6 -2 -1 8.5 0.48
-6 1 2 9.22 0.41
-1 6 -1 9.56 0.44
-6 1 1 9.66 0.43
1 -6 1 9.44 0.37
1 -6 1 9.65 0.37
-6 1 1 9.22 0.47
1 -6 1 9.3 0.53
-1 -1 6 9.65 0.47
6 -1 -1 10.13 0.6
1 1 -6 9.9 0.46
1 1 -6 10.03 0.56
-5 6 0 1.18 0.22
0 -6 5 1.24 0.26
0 -5 6 1.09 0.27
-6 5 0 0.84 0.2
0 -6 5 0.79 0.26
0 -5 6 0.96 0.27
0 5 -6 0.63 0.19
-6 0 5 1.09 0.25
5 -6 0 1.01 0.26
-5 0 6 1.05 0.24
6 -5 0 0.99 0.24
5 -6 0 1.02 0.21
6 -5 0 0.93 0.25
4 0 -6 3.46 0.4
4 0 -6 2.89 0.27
0 -6 4 2.16 0.32
-4 6 0 2.57 0.27
0 -4 6 2.29 0.29
-6 4 0 2.97 0.29
0 -6 4 2.76 0.32
0 -4 6 2.35 0.36
-4 0 6 2.63 0.3
0 4 -6 2.7 0.27
4 -6 0 2.37 0.32
6 -4 0 2.29 0.31
4 -6 0 2.84 0.25
-6 0 4 2.89 0.32
6 -4 0 2.41 0.33
0 -6 3 5.77 0.37
6 0 -3 5.47 0.39
0 -3 6 5.16 0.38
-3 6 0 5.96 0.36
3 0 -6 6.52 0.46
0 -3 6 5.8 0.33
-6 3 0 6.4 0.38
0 -3 6 6.26 0.48
0 -6 3 6.21 0.46
3 0 -6 5.65 0.35
0 6 -3 5.8 0.32
3 -6 0 5.5 0.42
3 -6 0 5.73 0.3
0 3 -6 6.4 0.37
-6 0 3 6.07 0.41
6 -3 0 6.45 0.48
-3 0 6 5.65 0.39
6 -3 0 5.76 0.43
0 -6 2 9.28 0.42
-2 6 0 9.08 0.43
6 0 -2 8.25 0.48
6 0 -2 8.48 0.56
0 -6 2 8.11 0.52
0 -2 6 8.74 0.43
0 -2 6 9.01 0.57
2 0 -6 8.68 0.43
2 0 -6 9.36 0.53
-6 2 0 9.48 0.44
-2 0 6 8.51 0.47
0 2 -6 8.43 0.44
6 -2 0 9.04 0.57
6 -2 0 8.3 0.49
2 -6 0 8.24 0.49
-6 0 2 9.27 0.48
0 6 -2 8.83 0.39
-1 6 0 14.05 0.55
1 0 -6 14.5 0.68
1 0 -6 12.7 0.58
0 -6 1 13.97 0.48
0 -6 1 12.32 0.59
-6 1 0 13.64 0.55
0 -6 1 12.87 0.65
0 -6 1 12.95 0.47
6 0 -1 13.8 0.73
6 0 -1 13.12 0.63
0 -1 6 14.04 0.58
0 6 -1 13.58 0.53
6 -1 0 14.05 0.72
6 -1 0 12.8 0.62
-1 0 6 13.45 0.6
1 -6 0 12.86 0.64
-6 0 1 12.46 0.61
0 1 -6 13.31 0.67
0 1 -6 13.6 0.58
0 6 0 15.53 0.58
0 0 -6 15.01 0.63
-6 0 0 13.18 0.65
6 0 0 14.91 0.69
6 0 0 14.14 0.79
0 0 6 14.68 0.64
0 -6 0 15.46 0.7
0 -6 0 14.67 0.65
0 0 -6 15.82 0.72
5 -1 -6 1.14 0.28
-5 6 1 1.31 0.23
-6 5 -1 1.12 0.23
5 -1 -6 1.02 0.2
-1 -6 5 0.78 0.26
1 -5 6 1.07 0.28
1 -5 6 1.18 0.27
-1 -6 5 1.22 0.27
-1 5 -6 1.11 0.23
6 -5 1 0.94 0.24
6 -5 1 1.09 0.29
-5 1 6 1.24 0.25
-6 -1 5 0.99 0.26
5 -6 -1 0.99 0.19
5 -6 -1 1.07 0.24
-1 -6 4 3.07 0.38
-4 6 1 3.03 0.3
-6 4 -1 2.36 0.27
4 -1 -6 2.27 0.31
4 -1 -6 2.75 0.27
1 -4 6 2.54 0.36
6 1 -4 1.92 0.27
1 -4 6 2.48 0.31
-1 -6 4 2.98 0.32
-1 4 -6 2.39 0.27
6 -4 1 2.27 0.33
4 -6 -1 2.81 0.32
-6 -1 4 2.48 0.31
6 -4 1 2.44 0.33
4 -6 -1 2.52 0.23
-4 1 6 2.53 0.3
-1 -6 3 4.96 0.34
6 1 -3 4.9 0.38
-6 3 -1 5.17 0.35
-1 -6 3 4.13 0.39
-3 6 1 4.92 0.33
1 -3 6 4.91 0.45
1 -3 6 5.23 0.37
3 -1 -6 5.12 0.41
3 -1 -6 4.66 0.33
3 -6 -1 4.74 0.23
6 -3 1 5.56 0.46
-3 1 6 5 0.38
6 -3 1 4.83 0.41
3 -6 -1 4.22 0.36
-6 -1 3 4.65 0.39
-1 3 -6 4.78 0.35
2 -1 -6 8.77 0.44
-2 6 1 9.23 0.43
-1 -6 2 8.17 0.53
2 -1 -6 8.44 0.51
6 1 -2 8.42 0.49
-1 -6 2 8.94 0.41
1 -2 6 8.52 0.57
-6 2 -1 8.62 0.42
-1 -6 2 8.71 0.47
1 -2 6 9.27 0.41
2 -6 -1 8.47 0.48
6 -2 1 7.41 0.48
-6 -1 2 9.08 0.5
-1 2 -6 8.19 0.44
6 -2 1 8.6 0.56
-2 1 6 8.84 0.48
-6 1 -1 12.41 0.53
-1 6 1 12.07 0.55
1 -1 -6 13.19 0.64
-1 -6 1 13.49 0.48
1 -1 6 12.51 0.54
1 -1 -6 12.93 0.56
-1 -6 1 12.34 0.64
-1 -6 1 12.25 0.6
6 1 -1 11.87 0.6
1 -6 -1 12.78 0.62
-6 -1 1 12.46 0.62
1 -6 -1 12.68 0.53
6 -1 1 11.98 0.69
-1 1 6 12.39 0.59
-6 -1 1 12.47 0.67
-1 1 -6 12.55 0.56
6 -1 1 13.26 0.63
-6 0 -1 13.85 0.62
6 1 0 14.06 0.66
0 -1 -6 14.71 0.68
-6 0 -1 14.42 0.54
-1 -6 0 13 0.65
0 -1 -6 13.8 0.6
1 0 6 14.11 0.6
-1 -6 0 13.61 0.67
-1 0 -6 14.89 0.7
0 -6 -1 13.75 0.64
-6 -1 0 14.2 0.71
0 1 6 13.71 0.62
0 -6 -1 14.25 0.65
6 0 1 13.83 0.66
-1 0 -6 13.53 0.6
0 -6 -1 14.22 0.56
-6 -1 0 14.14 0.67
1 6 0 12.97 0.67
-6 -1 -1 14.72 0.7
1 1 6 14.61 0.67
-1 -6 -1 14.36 0.71
-6 -1 -1 16.65 0.79
6 1 1 15.27 0.71
1 6 1 14.01 0.69
-1 -1 -6 16.23 0.65
-1 -1 -6 16.61 0.74
2 -4 6 1.68 0.33
6 2 -4 1.58 0.26
4 -2 -6 1.78 0.29
-2 -6 4 1.71 0.26
-2 -6 4 1.89 0.28
-4 6 2 1.79 0.25
2 -4 6 1.75 0.28
-6 4 -2 1.76 0.27
4 -2 -6 2.09 0.25
4 -6 -2 1.73 0.19
2 6 -4 1.36 0.29
6 -4 2 1.8 0.31
6 -4 2 1.43 0.27
4 -6 -2 1.75 0.25
-4 2 6 1.65 0.26
-2 4 -6 1.92 0.27
-6 -2 4 1.81 0.3
6 2 -3 3.87 0.37
2 -3 6 4.26 0.45
3 -2 -6 4.51 0.37
-2 -6 3 3.78 0.35
2 -3 6 4.1 0.35
3 -2 -6 4.23 0.33
-2 -6 3 3.94 0.32
-6 3 -2 4.16 0.33
6 -3 2 4.2 0.4
6 -3 2 4.28 0.45
-3 2 6 3.83 0.36
3 -6 -2 3.73 0.17
2 6 -3 3.88 0.42
-2 3 -6 4.14 0.34
3 -6 -2 4.74 0.34
3 -6 -2 3.63 0.17
-6 -2 3 4.38 0.4
2 -2 -6 7.16 0.44
6 2 -2 6.45 0.45
-2 -6 2 6.77 0.43
-2 -6 2 7.25 0.38
2 -2 -6 6.62 0.39
-6 2 -2 6.9 0.39
2 -2 6 6.99 0.41
6 -2 2 7.37 0.55
-2 2 -6 7.23 0.43
-6 -2 2 7.12 0.48
-6 -2 2 6.59 0.5
-2 2 6 6.84 0.44
2 -6 -2 7.26 0.39
2 6 -2 7.31 0.49
6 -2 2 6.41 0.46
6 2 -1 9.54 0.54
1 -2 -6 8.99 0.47
-2 -6 1 10.33 0.43
-1 6 2 8.94 0.48
2 -1 6 9.62 0.45
-2 -6 1 9.09 0.53
-6 1 -2 9.44 0.44
1 -2 -6 9.89 0.52
-2 1 -6 9.13 0.48
2 6 -1 8.78 0.56
-6 -2 1 10.3 0.6
-1 2 6 9.38 0.51
6 -1 2 9.98 0.62
1 -6 -2 9.62 0.5
-6 -2 1 9.74 0.55
6 -1 2 9.35 0.53
1 -6 -2 9.68 0.44
2 0 6 10.95 0.53
-6 0 -2 12.57 0.5
6 2 0 11.73 0.61
-2 -6 0 12.43 0.44
-2 -6 0 12.3 0.44
-2 -6 0 12.2 0.63
0 -2 -6 12.62 0.61
0 -2 -6 11.85 0.54
0 6 2 9.92 0.55
-6 -2 0 12.72 0.67
0 2 6 10.92 0.58
-2 0 -6 13.22 0.65
-2 0 -6 12.22 0.55
2 6 0 13.2 0.65
-6 -2 0 11.13 0.63
6 0 2 12.08 0.6
0 -6 -2 11.55 0.58
0 -6 -2 11.63 0.61
0 -6 -2 11.76 0.5
2 1 6 11.4 0.55
-6 -1 -2 11.35 0.64
6 2 1 10.57 0.59
1 6 2 10.67 0.57
-1 -2 -6 11.5 0.53
-6 -1 -2 11.33 0.58
-2 -6 -1 10.96 0.63
-1 -2 -6 12.06 0.59
-1 -6 -2 11.19 0.46
1 2 6 10.74 0.57
-1 -6 -2 11.06 0.61
-2 -1 -6 12.42 0.63
-6 -2 -1 11.16 0.63
2 6 1 10.83 0.59
-2 -1 -6 11.46 0.53
6 1 2 11.26 0.59
-6 -2 -1 12.86 0.67
6 2 2 10.72 0.59
-2 -6 -2 9.37 0.59
-2 -2 -6 11.31 0.59
-6 -2 -2 9.63 0.6
-2 -2 -6 10.87 0.52
-6 -2 -2 11.93 0.65
2 6 2 9.72 0.55
2 2 6 10.83 0.57
3 -4 6 1.42 0.33
6 3 -4 1.08 0.26
-6 4 -3 1.52 0.27
4 -3 -6 1.3 0.25
-3 -6 4 1.55 0.28
3 -4 6 1.35 0.28
-3 -6 4 1.36 0.28
4 -3 -6 1.46 0.24
6 -4 3 1.15 0.3
4 -6 -3 1.35 0.23
6 -4 3 1.03 0.28
-4 3 6 1.2 0.25
3 6 -4 1.7 0.33
-6 -3 4 0.9 0.27
-3 4 -6 1.07 0.26
4 -6 -3 1.48 0.17
3 -3 -6 2.71 0.31
3 -3 6 2.71 0.41
-6 3 -3 2.21 0.27
6 3 -3 2.48 0.33
-3 -6 3 2.74 0.33
-3 -6 3 2.61 0.31
3 -3 -6 2.51 0.28
3 -3 6 2.24 0.29
6 -3 3 2.56 0.39
-3 3 -6 2.81 0.32
3 6 -3 2.37 0.38
6 -3 3 3.18 0.37
3 -6 -3 2.41 0.15
-6 -3 3 2.79 0.36
3 -6 -3 2.48 0.28
-6 -3 3 2.31 0.35
-3 3 6 2.4 0.3
2 -3 -6 5.12 0.36
3 -2 6 4.45 0.36
-3 -6 2 4.87 0.35
-3 -6 2 5.08 0.41
2 -3 -6 4.88 0.35
-2 6 3 4.05 0.35
-6 2 -3 4.59 0.33
6 3 -2 4.67 0.42
2 -6 -3 4.28 0.32
6 -2 3 4.81 0.4
-6 -3 2 4.67 0.43
-2 3 6 4.69 0.39
6 -2 3 4.38 0.47
-6 -3 2 4.81 0.45
3 6 -2 4.45 0.43
-3 2 -6 4.83 0.36
-3 -6 1 6.98 0.38
-6 1 -3 6.14 0.36
-1 6 3 6.34 0.43
-3 -6 1 6.62 0.47
6 3 -1 5.75 0.46
1 -3 -6 6.83 0.4
1 -3 -6 6.72 0.4
3 6 -1 6.03 0.49
1 -6 -3 6.4 0.36
-3 1 -6 6.36 0.4
-6 -3 1 6.4 0.5
-1 3 6 5.89 0.43
-6 -3 1 6.94 0.49
6 -1 3 6.86 0.46
3 0 6 7.86 0.42
6 3 0 7.6 0.51
0 6 3 8.13 0.5
0 -3 -6 7.81 0.43
-3 -6 0 8.16 0.54
0 -3 -6 8.06 0.45
-6 0 -3 8.28 0.4
-3 -6 0 8.17 0.39
0 -6 -3 8.23 0.39
3 6 0 7.99 0.53
-6 -3 0 7.42 0.55
-6 -3 0 8.53 0.55
-3 0 -6 8.22 0.53
6 0 3 7.81 0.49
-3 0 -6 8.28 0.45
0 3 6 7.95 0.49
-6 -1 -3 8.92 0.58
-3 -6 -1 8.98 0.37
-1 -3 -6 7.74 0.43
-6 -1 -3 7.49 0.48
6 3 1 7.33 0.5
-3 -6 -1 7.45 0.55
-1 -3 -6 8.7 0.47
3 1 6 7.2 0.45
3 6 1 8.18 0.53
6 1 3 7.89 0.5
-6 -3 -1 7.45 0.56
-3 -1 -6 8.14 0.44
-1 -6 -3 8.22 0.39
-3 -1 -6 8.95 0.54
1 3 6 7.92 0.51
-6 -3 -1 9.43 0.59
-1 -6 -3 8.15 0.55
6 3 2 7.05 0.49
-3 -6 -2 6.53 0.54
-6 -2 -3 7.27 0.52
-2 -3 -6 6.54 0.4
-3 -6 -2 7.85 0.33
-6 -2 -3 7.68 0.55
-2 -3 -6 7.06 0.45
3 2 6 6.43 0.46
-6 -3 -2 7.08 0.52
-3 -2 -6 7.28 0.48
2 3 6 7.83 0.51
6 2 3 6.49 0.47
-6 -3 -2 6.31 0.53
3 6 2 6.89 0.49
-2 -6 -3 6.13 0.53
-3 -2 -6 7.31 0.41
-6 -3 -3 5.38 0.5
3 3 6 5.65 0.46
6 3 3 5.29 0.45
-3 -3 -6 5.7 0.38
-6 -3 -3 6.62 0.52
-3 -6 -3 5.87 0.28
-3 -3 -6 6.25 0.45
-3 -6 -3 4.97 0.5
4 -3 6 1.66 0.29
3 -4 -6 1.81 0.26
-4 -6 3 1.83 0.29
-6 3 -4 1.26 0.25
3 -4 -6 2.02 0.27
-4 -6 3 1.5 0.3
6 4 -3 1.5 0.31
-6 -4 3 1.73 0.32
-6 -4 3 1.78 0.32
4 6 -3 1.81 0.36
3 -6 -4 1.94 0.27
6 -3 4 2.05 0.38
-3 4 6 1.58 0.29
-4 3 -6 1.17 0.25
3 -6 -4 1.49 0.16
6 -3 4 1.87 0.33
6 4 -2 2.31 0.35
-2 6 4 2.2 0.29
-4 -6 2 2.44 0.35
4 -2 6 2.43 0.31
-4 -6 2 2.52 0.31
2 -4 -6 2.61 0.27
-6 2 -4 2.61 0.29
2 -4 -6 2.2 0.26
2 -6 -4 2.72 0.27
-2 4 6 2.02 0.31
-6 -4 2 2.4 0.35
6 -2 4 2.28 0.34
-4 2 -6 2.98 0.33
-6 -4 2 2.56 0.37
4 6 -2 1.7 0.35
6 4 -1 4.08 0.44
-1 6 4 3.28 0.36
1 -4 -6 3.86 0.33
1 -4 -6 4.14 0.31
-4 -6 1 4.11 0.34
-4 -6 1 3.71 0.42
-4 1 -6 4.09 0.36
6 -1 4 4.18 0.42
1 -6 -4 3.55 0.3
-6 -4 1 3.71 0.43
-1 4 6 2.99 0.34
4 6 -1 3.64 0.42
-6 -4 1 3.89 0.42
6 4 0 4.81 0.45
-4 -6 0 4.14 0.45
0 6 4 4.27 0.41
0 -4 -6 4.87 0.34
-6 0 -4 4.9 0.33
-4 -6 0 4.63 0.34
0 -4 -6 4.75 0.34
0 -6 -4 4.48 0.31
6 0 4 4.99 0.41
-6 -4 0 4.84 0.48
4 6 0 4.94 0.47
-6 -4 0 4.97 0.45
-4 0 -6 4.79 0.36
-6 -1 -4 5.71 0.49
-4 -6 -1 5.17 0.51
4 1 6 4.75 0.39
-1 -4 -6 5.29 0.36
-1 -4 -6 5.32 0.36
-4 -6 -1 5.3 0.33
1 6 4 4.98 0.45
6 4 1 4.45 0.45
-6 -4 -1 4.37 0.49
-6 -4 -1 5.97 0.49
4 6 1 5.12 0.47
-4 -1 -6 4.97 0.37
6 1 4 4.66 0.41
-4 -1 -6 5.6 0.47
-1 -6 -4 4.72 0.31
1 4 6 4.47 0.44
-4 -6 -2 5.46 0.32
-6 -2 -4 4.14 0.43
4 2 6 3.97 0.41
-2 -4 -6 4.82 0.34
-6 -2 -4 5.1 0.48
-4 -6 -2 3.99 0.48
-2 -4 -6 5.19 0.37
6 4 2 4.42 0.45
-2 -6 -4 4.22 0.47
6 2 4 4.92 0.41
2 4 6 4.27 0.44
-6 -4 -2 5.28 0.47
-4 -2 -6 4.82 0.34
-4 -2 -6 5.56 0.47
-6 -4 -2 4.52 0.51
4 6 2 4.41 0.43
-2 -6 -4 5.08 0.21
-3 -4 -6 3.64 0.32
-6 -3 -4 3.22 0.43
-4 -6 -3 3.01 0.43
6 4 3 3.31 0.39
4 3 6 3.45 0.4
-6 -3 -4 4.05 0.44
-4 -6 -3 3.75 0.28
-3 -4 -6 3.93 0.36
-3 -6 -4 3.67 0.24
-4 -3 -6 3.84 0.33
6 3 4 3.27 0.37
-3 -6 -4 3.3 0.45
-4 -3 -6 3.55 0.4
-6 -4 -3 2.7 0.43
3 4 6 2.72 0.38
-6 -4 -3 3.58 0.42
1 -5 -6 1.98 0.26
-1 6 5 1.87 0.31
-5 -6 1 1.79 0.35
-5 -6 1 1.76 0.27
6 5 -1 1.64 0.33
1 -5 -6 1.89 0.22
-6 1 -5 1.75 0.25
6 -1 5 1.62 0.3
1 -6 -5 2.08 0.26
-5 1 -6 1.39 0.26
1 -6 -5 1.84 0.11
-6 -5 1 2.12 0.34
5 6 -1 1.51 0.33
-6 -5 1 1.52 0.33
-1 5 6 1.55 0.3
0 -5 -6 2.35 0.23
0 6 5 2.33 0.34
0 -5 -6 2.38 0.27
-6 0 -5 1.86 0.26
-5 -6 0 1.7 0.34
-5 -6 0 2.39 0.3
6 5 0 2.15 0.36
-6 -5 0 2 0.38
5 6 0 2.02 0.37
6 0 5 2.11 0.32
0 -6 -5 1.87 0.09
-6 -5 0 2.76 0.37
0 -6 -5 2.06 0.24
0 5 6 2.24 0.34
-1 -5 -6 2.86 0.28
-1 -5 -6 3.17 0.27
-5 -6 -1 2.55 0.3
6 5 1 2.94 0.4
1 6 5 2.47 0.37
-5 -6 -1 2.46 0.41
-5 -1 -6 3.24 0.42
-1 -6 -5 2.68 0.27
1 5 6 2.36 0.35
5 6 1 2.77 0.4
-6 -5 -1 3 0.45
-6 -5 -1 3.5 0.42
-1 -6 -5 2.87 0.16
-5 -1 -6 2.78 0.3
6 1 5 2.36 0.32
2 -7 3 1.1 0.2
2 -7 3 1.03 0.28
-2 -3 7 1.49 0.24
-3 7 -2 1.22 0.23
7 -2 -3 1.1 0.3
-7 3 2 1.12 0.2
7 -3 -2 0.87 0.27
3 -7 2 1.16 0.19
3 -7 2 1.06 0.28
7 -3 -2 1.04 0.25
-3 -2 7 0.81 0.22
-2 7 -3 1.29 0.22
7 -2 -2 2.04 0.29
-2 7 -2 2.23 0.25
-7 2 2 1.85 0.22
-2 -2 7 1.95 0.26
2 -7 2 1.75 0.2
2 -7 2 1.52 0.3
2 2 -7 2.29 0.26
7 -2 -2 1.65 0.32
3 1 -7 1.7 0.24
7 -1 -3 1.76 0.35
-3 7 -1 2.07 0.26
-1 -3 7 1.39 0.22
1 -7 3 1.48 0.21
7 -1 -3 1.4 0.25
1 -7 3 1.23 0.3
-7 3 1 1.4 0.22
7 -3 -1 1.45 0.28
7 -3 -1 1.36 0.31
-3 -1 7 1.6 0.26
-1 7 -3 1.57 0.21
3 -7 1 1.39 0.3
1 3 -7 1.14 0.21
3 -7 1 1.41 0.17
-7 1 3 1.57 0.26
1 -7 2 2.38 0.2
1 -7 2 2.22 0.32
-2 7 -1 2.53 0.26
7 -1 -2 2.36 0.36
7 -1 -2 2.4 0.3
-1 -2 7 2.45 0.27
2 1 -7 2.45 0.27
-7 2 1 2.46 0.25
7 -2 -1 2.66 0.32
1 2 -7 2.44 0.27
2 -7 1 2.2 0.31
7 -2 -1 1.9 0.33
-2 -1 7 2.16 0.27
2 -7 1 2 0.1
-1 7 -2 2.91 0.26
7 -1 -1 3.77 0.44
1 -7 1 3.4 0.38
1 1 -7 3.63 0.33
-1 -1 7 3.93 0.35
7 -1 -1 3.83 0.37
-1 7 -1 4.08 0.29
0 -7 3 1.27 0.28
0 -7 3 1.86 0.23
-7 3 0 1.71 0.24
3 0 -7 1.5 0.23
-3 7 0 1.87 0.24
7 0 -3 1.5 0.27
0 3 -7 2.01 0.26
-7 0 3 1.94 0.29
7 -3 0 1.44 0.3
7 -3 0 1.48 0.29
3 -7 0 1.76 0.29
-3 0 7 1.87 0.28
7 0 -2 3.01 0.35
2 0 -7 3.37 0.38
0 -2 7 3.36 0.3
0 -7 2 2.81 0.37
0 -7 2 2.94 0.21
-2 7 0 3.19 0.28
2 0 -7 3.02 0.29
-7 2 0 3.3 0.29
-7 0 2 3.6 0.36
2 -7 0 3.14 0.37
-2 0 7 3.04 0.32
7 -2 0 2.99 0.4
7 -2 0 3.05 0.35
0 2 -7 2.38 0.28
7 0 -1 3.24 0.36
1 0 -7 4.42 0.4
0 -1 7 4.11 0.32
1 0 -7 3.9 0.33
0 -7 1 3.53 0.39
-1 7 0 4.23 0.29
-1 0 7 3.89 0.35
0 1 -7 4.32 0.34
1 -7 0 3.56 0.38
-7 0 1 3.59 0.36
7 -1 0 3.93 0.39
0 -7 0 5.19 0.44
0 0 7 4.9 0.37
0 0 -7 5.36 0.38
7 0 0 5.35 0.44
0 0 -7 5.54 0.45
3 -1 -7 1.64 0.23
-1 -7 3 0.82 0.27
3 -1 -7 1.49 0.28
-7 3 -1 1.67 0.24
7 1 -3 1.68 0.28
-3 7 1 1.87 0.25
-1 -7 3 1.67 0.22
-3 1 7 1.41 0.26
7 -3 1 1.94 0.35
3 -7 -1 1.34 0.27
-1 3 -7 1.51 0.25
7 -3 1 2.18 0.34
-7 -1 3 1.43 0.28
-1 -7 2 2.83 0.21
-7 2 -1 2.53 0.26
-1 -7 2 3.07 0.38
-2 7 1 3.05 0.29
7 1 -2 2.73 0.35
2 -1 -7 3.26 0.3
2 -1 -7 2.94 0.35
-2 1 7 2.72 0.31
2 -7 -1 2.67 0.33
-1 2 -7 2.81 0.3
7 -2 1 3.17 0.44
7 -2 1 2.92 0.35
-7 -1 2 2.42 0.32
1 -1 -7 4.13 0.34
1 -1 7 4.72 0.33
-1 7 1 4.61 0.31
1 -1 -7 4.61 0.41
7 1 -1 4.25 0.41
-1 -7 1 4.36 0.44
7 -1 1 4.37 0.41
-1 1 7 4.45 0.38
1 -7 -1 3.94 0.38
-1 1 -7 3.94 0.35
-7 -1 1 4.3 0.41
1 7 -1 4.42 0.45
7 1 0 4.27 0.42
0 -1 -7 4.48 0.35
-1 -7 0 4.4 0.41
1 0 7 5.06 0.36
0 -1 -7 5.09 0.43
0 7 1 5.08 0.3
-7 -1 0 4.06 0.41
-1 0 -7 5.28 0.44
-1 0 -7 5 0.35
7 0 1 4.1 0.41
0 -7 -1 4.68 0.4
0 -7 -1 4.18 0.39
1 7 0 4.65 0.41
0 1 7 4.6 0.4
-1 -7 -1 4.51 0.41
1 7 1 4.67 0.4
1 1 7 5.17 0.39
-7 -1 -1 4.44 0.41
-1 -1 -7 4.6 0.37
-1 -1 -7 5.6 0.43
7 1 1 4.82 0.43
-7 3 -2 1.48 0.25
7 2 -3 0.85 0.26
-3 7 2 1.4 0.24
-2 -7 3 1.38 0.22
3 -2 -7 1.1 0.25
3 -2 -7 1.08 0.23
2 7 -3 0.94 0.27
7 -3 2 0.93 0.28
-3 2 7 1.13 0.25
-2 3 -7 1.41 0.27
-7 -2 3 1.09 0.28
7 -3 2 1.27 0.33
2 -2 -7 2.64 0.33
-2 -7 2 2.43 0.23
-7 2 -2 2.09 0.25
2 -2 -7 1.79 0.26
-2 -7 2 1.56 0.28
7 2 -2 2.11 0.31
-2 2 7 2.4 0.32
-7 -2 2 1.92 0.33
7 -2 2 2.58 0.42
7 -2 2 2.16 0.33
2 7 -2 2.28 0.34
2 -7 -2 2.35 0.26
-2 2 -7 2.29 0.3
-7 1 -2 3.22 0.26
-2 -7 1 3.05 0.36
1 -2 -7 3.93 0.37
1 -2 -7 3.17 0.31
-2 -7 1 3.21 0.19
7 2 -1 3.3 0.37
-1 2 7 3.28 0.35
-7 -2 1 3.83 0.42
7 -1 2 2.61 0.33
-2 1 -7 3.28 0.33
1 -7 -2 3.42 0.28
2 7 -1 2.51 0.36
-2 -7 0 4.02 0.42
7 2 0 4.03 0.42
0 -2 -7 4.09 0.34
0 -2 -7 4.63 0.39
2 0 7 3.89 0.33
-7 -2 0 4.66 0.46
-7 -2 0 3.7 0.42
0 -7 -2 3.91 0.29
7 0 2 4.1 0.41
2 7 0 4.13 0.44
-2 0 -7 4.51 0.36
0 2 7 3.78 0.38
-2 0 -7 4.44 0.42
0 -7 -2 3.4 0.38
7 2 1 4.27 0.43
-2 -7 -1 4.16 0.45
-1 -2 -7 4.35 0.38
1 7 2 3.72 0.37
-1 -2 -7 3.95 0.34
2 1 7 3.81 0.35
-7 -2 -1 3.42 0.42
-2 -1 -7 4.29 0.41
-1 -7 -2 3.82 0.43
7 1 2 3.99 0.42
-2 -1 -7 3.55 0.33
1 2 7 3.95 0.4
2 7 1 3.36 0.38
-7 -2 -1 4.72 0.48
2 2 7 3.8 0.38
-2 -7 -2 3.15 0.41
-2 -2 -7 3.51 0.33
-2 -2 -7 3.86 0.39
2 7 2 3.6 0.39
-7 -2 -2 3.65 0.44
7 2 2 3.56 0.4
-7 -2 -2 3.37 0.42
-3 -7 2 1.71 0.22
7 3 -2 1.34 0.3
-7 2 -3 1.31 0.23
2 -3 -7 1.87 0.28
2 -3 -7 1.55 0.26
-3 -7 2 1.27 0.28
2 -7 -3 1.15 0.21
-7 -3 2 1.5 0.32
-7 -3 2 1.28 0.32
-2 3 7 1.38 0.28
7 -2 3 1.54 0.32
-3 2 -7 1.7 0.28
3 7 -2 1.43 0.33
-7 1 -3 2.66 0.27
1 -3 -7 2.57 0.31
7 3 -1 1.64 0.31
-1 7 3 2.01 0.29
-3 -7 1 1.97 0.33
1 -3 -7 2.61 0.3
-3 -7 1 2.47 0.22
-1 3 7 2.34 0.32
7 -1 3 2.35 0.35
-7 -3 1 2.18 0.36
1 -7 -3 2.62 0.27
3 7 -1 2.17 0.37
-7 -3 1 2.9 0.41
-3 1 -7 2.73 0.32
0 -3 -7 3.62 0.34
0 -3 -7 2.81 0.33
7 3 0 2.32 0.36
-3 -7 0 2.88 0.4
0 7 3 2.38 0.33
-3 -7 0 2.88 0.18
7 0 3 2.56 0.35
0 -7 -3 3.19 0.27
-7 -3 0 2.68 0.39
-3 0 -7 3.17 0.34
3 7 0 2.24 0.37
-7 -3 0 2.55 0.38
0 3 7 2.12 0.31
-1 -3 -7 2.97 0.34
7 3 1 2.84 0.39
-3 -7 -1 2.44 0.38
-1 -3 -7 3.08 0.32
3 1 7 2.9 0.32
-7 -3 -1 3.27 0.44
3 7 1 2.73 0.39
-3 -1 -7 3.8 0.41
-3 -1 -7 3.08 0.32
-7 -3 -1 2.88 0.41
1 3 7 2.32 0.33
-1 -7 -3 2.49 0.37
7 1 3 2.9 0.37
-3 -7 -2 2.03 0.37
3 2 7 2.57 0.34
-7 -2 -3 2.92 0.42
-2 -3 -7 2.5 0.32
7 3 2 2.87 0.39
-2 -3 -7 2.38 0.29
7 2 3 2.56 0.37
-2 -7 -3 2.2 0.38
-3 -2 -7 3.13 0.38
-7 -3 -2 3.32 0.45
-7 -3 -2 1.86 0.37
-3 -2 -7 3.05 0.31
2 3 7 2.62 0.35
3 7 2 2.06 0.33
8 0 0 0.54 0.23
0 -8 0 1.49 0.31
0 0 8 1.29 0.25
0 0 -8 1.26 0.24
loop_
_twin_individual_id
_twin_individual_mass_fraction_refined
1 0.77(9)
2 0.23(9)
