#------------------------------------------------------------------------------
#$Date: 2019-11-03 11:00:12 +0200 (Sun, 03 Nov 2019) $
#$Revision: 221207 $
#$URL: file:///home/coder/svn-repositories/cod/cif/4/12/80/4128076.cif $
#------------------------------------------------------------------------------
#
# This file is available in the Crystallography Open Database (COD),
# http://www.crystallography.net/
#
# All data on this site have been placed in the public domain by the
# contributors.
#
data_4128076
loop_
_publ_author_name
'Yang, Chen-Kai'
'Chen, Wang-Nan'
'Ding, Yan-Ting'
'Wang, Jing'
'Rao, Yin'
'Liao, Wei-Qiang'
'Xie, Yongfa'
'Zou, Wennan'
'Xiong, Ren-Gen'
_publ_section_title
;
 Directional Intermolecular Interactions for Precise Molecular Design of a
 High- T<sub>c</sub> Multiaxial Molecular Ferroelectric.
;
_journal_issue                   4
_journal_name_full               'Journal of the American Chemical Society'
_journal_page_first              1781
_journal_page_last               1787
_journal_paper_doi               10.1021/jacs.8b13223
_journal_volume                  141
_journal_year                    2019
_chemical_formula_moiety         'Cl O4, 0.89(C12)'
_chemical_formula_sum            'C7 H14 Cl N O5'
_chemical_formula_weight         227.64
_space_group_crystal_system      cubic
_space_group_IT_number           221
_space_group_name_Hall           '-P 4 2 3'
_space_group_name_H-M_alt        'P m -3 m'
_symmetry_space_group_name_Hall  '-P 4 2 3'
_symmetry_space_group_name_H-M   'P m -3 m'
_audit_creation_method           SHELXL-2014/7
_cell_angle_alpha                90
_cell_angle_beta                 90
_cell_angle_gamma                90
_cell_formula_units_Z            1
_cell_length_a                   6.3172(4)
_cell_length_b                   6.3172(4)
_cell_length_c                   6.3172(4)
_cell_measurement_reflns_used    120
_cell_measurement_temperature    298(2)
_cell_measurement_theta_max      19.0820
_cell_measurement_theta_min      3.2280
_cell_volume                     252.10(3)
_computing_cell_refinement       'CrysAlisPro 1.171.39.46 (Rigaku OD, 2018)'
_computing_data_collection       'CrysAlisPro 1.171.39.46 (Rigaku OD, 2018)'
_computing_data_reduction        'CrysAlisPro 1.171.39.46 (Rigaku OD, 2018)'
_computing_molecular_graphics    'DIAMOND (Brandenburg & Putz, 2005)'
_computing_publication_material  'SHELXL-2014/7 (Sheldrick, 2014)'
_computing_structure_refinement  'SHELXL-2014/7 (Sheldrick, 2014)'
_computing_structure_solution    'SHELXL-2014/7 (Sheldrick, 2014)'
_diffrn_ambient_temperature      298(2)
_diffrn_measured_fraction_theta_full 1.000
_diffrn_measured_fraction_theta_max 0.865
_diffrn_measurement_device_type  'XtaLAB Synergy R, DW system, HyPix'
_diffrn_measurement_method       'four-circle diffractometer'
_diffrn_radiation_type           MoK\a
_diffrn_radiation_wavelength     0.71073
_diffrn_reflns_av_R_equivalents  0.0179
_diffrn_reflns_av_unetI/netI     0.0282
_diffrn_reflns_Laue_measured_fraction_full 1.000
_diffrn_reflns_Laue_measured_fraction_max 0.865
_diffrn_reflns_limit_h_max       8
_diffrn_reflns_limit_h_min       -6
_diffrn_reflns_limit_k_max       8
_diffrn_reflns_limit_k_min       -3
_diffrn_reflns_limit_l_max       8
_diffrn_reflns_limit_l_min       -7
_diffrn_reflns_number            444
_diffrn_reflns_point_group_measured_fraction_full 1.000
_diffrn_reflns_point_group_measured_fraction_max 0.865
_diffrn_reflns_theta_full        25.242
_diffrn_reflns_theta_max         29.790
_diffrn_reflns_theta_min         3.225
_diffrn_source                   'Rotating-anode X-ray tube'
_exptl_absorpt_coefficient_mu    0.369
_exptl_absorpt_correction_T_max  0.925
_exptl_absorpt_correction_T_min  0.922
_exptl_absorpt_correction_type   multi-scan
_exptl_absorpt_process_details   'CrysAlisPro 1.171.39.46 (Rigaku OD, 2018)'
_exptl_crystal_colour            colourless
_exptl_crystal_density_diffrn    1.499
_exptl_crystal_description       block
_exptl_crystal_F_000             113
_exptl_crystal_size_max          0.220
_exptl_crystal_size_mid          0.210
_exptl_crystal_size_min          0.210
_exptl_transmission_factor_max   0.924
_exptl_transmission_factor_min   0.920
_refine_diff_density_max         0.199
_refine_diff_density_min         -0.145
_refine_diff_density_rms         0.031
_refine_ls_extinction_method     none
_refine_ls_goodness_of_fit_ref   1.035
_refine_ls_hydrogen_treatment    undef
_refine_ls_matrix_type           full
_refine_ls_number_parameters     9
_refine_ls_number_reflns         104
_refine_ls_number_restraints     0
_refine_ls_restrained_S_all      1.035
_refine_ls_R_factor_all          0.0971
_refine_ls_R_factor_gt           0.0754
_refine_ls_shift/su_max          0.000
_refine_ls_shift/su_mean         0.000
_refine_ls_structure_factor_coef Fsqd
_refine_ls_weighting_details
'w=1/[\s^2^(Fo^2^)+(0.0200P)^2^+0.1600P] where P=(Fo^2^+2Fc^2^)/3'
_refine_ls_weighting_scheme      calc
_refine_ls_wR_factor_gt          0.1660
_refine_ls_wR_factor_ref         0.1792
_reflns_Friedel_coverage         0.000
_reflns_number_gt                42
_reflns_number_total             104
_reflns_threshold_expression     'I > 2\s(I)'
_cod_data_source_file            ja8b13223_si_004.cif
_cod_data_source_block           Pm3m
_cod_original_cell_volume        252.10(5)
_cod_database_code               4128076
_shelx_shelxl_version_number     2014/7
_shelx_space_group_comment
;
The symmetry employed for this shelxl refinement is uniquely defined
by the following loop, which should always be used as a source of
symmetry information in preference to the above space-group names.
They are only intended as comments.
;
_shelx_estimated_absorpt_t_min   0.922
_shelx_estimated_absorpt_t_max   0.925
_shelx_res_file
;

    Pm3m.res created by SHELXL-2014/7


TITL Pm3m in Pm-3m
CELL 0.71073   6.3172   6.3172   6.3172  90.000  90.000  90.000
ZERR    1.00   0.0004   0.0004   0.0004   0.000   0.000   0.000
LATT 1
SYMM -X, -Y, Z
SYMM -X, Y, -Z
SYMM X, -Y, -Z
SYMM Z, X, Y
SYMM Z, -X, -Y
SYMM -Z, -X, Y
SYMM -Z, X, -Y
SYMM Y, Z, X
SYMM -Y, Z, -X
SYMM Y, -Z, -X
SYMM -Y, -Z, X
SYMM Y, X, -Z
SYMM -Y, -X, -Z
SYMM Y, -X, Z
SYMM -Y, X, Z
SYMM X, Z, -Y
SYMM -X, Z, Y
SYMM -X, -Z, -Y
SYMM X, -Z, Y
SYMM Z, Y, -X
SYMM Z, -Y, X
SYMM -Z, Y, X
SYMM -Z, -Y, -X
SFAC C  H  N  O  Cl
UNIT 7 14 1 5 1
L.S. 4
ACTA
BOND
FMAP 2
PLAN 20
TEMP 25
SIZE 0.22 0.21 0.21
WGHT    0.020000    0.160000
FVAR       2.28201
MOLE 1
CL1   5    0.000000    0.000000    0.000000    10.02083    0.21601    0.21601 =
         0.21601    0.00000    0.00000    0.00000
O1    4    0.214831    0.000000    0.000000    10.08333    0.22650    0.31376 =
         0.31376    0.00000    0.00000    0.00000
C1    1    0.500000    0.323815    0.323815    10.22238    0.28208    0.34170 =
         0.34170   -0.08718    0.00000    0.00000
HKLF 4

REM  Pm3m in Pm-3m
REM R1 =  0.0754 for      42 Fo > 4sig(Fo)  and  0.0971 for all      90 data
REM      9 parameters refined using      0 restraints

END

WGHT      0.2000      0.0000

REM Highest difference peak  0.199,  deepest hole -0.145,  1-sigma level  0.031
Q1    1   0.2998  0.0000  0.0000  10.12500  0.05    0.11
Q2    1   0.1301  0.1301  0.1301  10.16667  0.05    0.10
Q3    1   0.3637  0.3637  0.1089  10.50000  0.05    0.07
Q4    1   0.5000  0.2785  0.1208  10.50000  0.05    0.06
Q5    1   0.5000  0.5000  0.5000  10.02083  0.05    0.03
Q6    1   0.5000  0.1324  0.0000  10.25000  0.05    0.01
;
_shelx_res_checksum              71116
_shelx_hkl_file
;
   0   0  -1   34.17    1.47
  -1   1   1  563.36   23.96
  -1   0  -1 6326.81  273.77
   0  -1  -1 6593.27  273.77
   0   1   1 6461.37  273.77
   0   0  -2  812.52   34.55
  -1  -1  -2   14.69    0.63
  -2   1   1   13.54    0.62
  -1   1   2   14.39    0.63
   0   1   2  640.65   26.31
   2   0  -1  595.68   26.30
  -1   0  -2  636.34   26.31
  -2   0  -1  619.56   26.30
   0  -1  -2  628.93   26.31
   2   1   1   15.18    0.67
  -2   2   2    0.20    0.10
  -2   1   2   37.01    1.65
  -1   2   2   39.01    1.66
  -2  -1  -2   38.40    1.65
   0   2   2   12.83    0.55
   2   0  -2   11.47    0.54
  -2   0  -2   11.73    0.54
   2  -1  -2   37.62    1.64
   2   1   2   38.00    1.64
   2   2   2    0.30    0.11
   0   0  -3  304.29   12.97
  -3   1   1   69.06    3.05
  -1  -1  -3   75.31    3.08
  -1   1   3   73.59    3.08
  -3   0  -1   30.01    1.30
   0  -1  -3   30.31    1.33
   0   1   3   31.02    1.33
   3   0  -1   29.91    1.30
  -1   0  -3   31.27    1.33
   3   1   1   71.56    3.06
  -3   2   2    0.31    0.10
  -2   3   2    0.46    0.13
  -2   2   3    0.35    0.13
  -2  -2  -3    0.33    0.13
  -2   1   3    2.39    0.17
  -1  -2  -3    2.57    0.18
  -2  -1  -3    2.31    0.17
  -3   2   1    2.15    0.15
  -3  -1  -2    2.36    0.15
  -1   2   3    2.47    0.18
  -3   1   2    2.34    0.15
  -1   3   2    2.31    0.18
  -3   0  -2   67.65    2.89
  -2   0  -3   65.41    2.91
   3   0  -2   65.23    2.89
   0  -2  -3   72.27    2.92
   0   2   3   69.23    2.92
   0   3   2   70.89    2.92
   2   0  -3   64.91    2.91
   3   1   2    2.38    0.15
   3   2   1    2.18    0.15
   3  -1  -2    2.28    0.15
   2   1   3    2.42    0.17
   2  -1  -3    2.29    0.17
   3   2   2    0.43    0.10
   2  -2  -3    0.54    0.12
   2   3   2    0.59    0.13
   2   2   3    0.70    0.13
  -3   3   3   -0.05    0.14
  -3   2   3    8.96    0.45
  -2   3   3    8.94    0.46
  -3   3   2    9.53    0.45
  -1   3   3    9.47    0.47
  -3  -1  -3    9.87    0.45
   3   1  -3    8.81    0.45
   3   0  -3    2.84    0.19
  -3   0  -3    2.90    0.18
   0   3   3    2.86    0.21
   1   3   3    8.72    0.44
   3  -1  -3    8.46    0.42
  -3   1  -3    8.76    0.42
   3   3   2    9.02    0.45
   3   2   3    8.89    0.45
   2   3   3    9.25    0.46
   3   3   3    0.12    0.15
   0   0  -4   47.38    2.07
   4   1  -1   16.86    0.76
  -1  -1  -4   18.99    0.82
  -1   1   4   19.45    0.82
  -1   0  -4   29.75    1.37
   0   1   4   32.06    1.38
   0  -1  -4   31.08    1.38
  -1   1  -4   19.62    0.90
  -4   2   2    6.38    0.34
  -2   4   2    7.69    0.38
  -2  -2  -4    6.92    0.38
  -2   2   4    6.57    0.37
  -1   4   2    4.15    0.26
  -1   2   4    4.48    0.26
  -1  -2  -4    4.45    0.27
   4   1  -2    3.51    0.21
  -2  -1  -4    4.21    0.26
   2   1  -4    3.60    0.26
  -4   2   1    4.23    0.22
  -4   0  -2    8.31    0.39
   2   0  -4    7.95    0.43
   0   4   2    9.17    0.44
   0   2   4    9.19    0.45
  -2   0  -4    8.71    0.43
   0  -2  -4    9.17    0.45
   4   0  -2    8.19    0.39
   1   2   4    4.02    0.26
   4   2   1    3.69    0.21
  -4   1  -2    3.95    0.21
  -2   1  -4    4.34    0.26
   2  -1  -4    3.30    0.25
   1   4   2    4.24    0.27
   2   2   4    7.30    0.39
   2   4   2    7.39    0.39
   4   2   2    6.52    0.35
   2  -2  -4    7.54    0.39
  -3   3   4    1.69    0.21
  -4   3   3    1.97    0.19
  -3   4   3    2.13    0.23
  -3   2   4    0.19    0.16
  -2   3   4    0.19    0.17
  -2   4   3    0.44    0.18
  -4   3   2    0.13    0.13
  -3   4   2   -0.02    0.15
  -3  -2  -4   -0.04    0.16
  -4   2   3    0.23    0.14
   3   1  -4    4.50    0.28
  -3  -1  -4    4.35    0.28
   4   1  -3    3.74    0.25
  -1   4   3    4.70    0.30
  -4   3   1    4.51    0.26
  -4  -1  -3    4.72    0.26
  -1   3   4    4.77    0.30
  -3   0  -4    4.13    0.26
   0   3   4    4.24    0.28
   0   4   3    3.94    0.27
   3   0  -4    3.94    0.26
  -4   0  -3    3.92    0.23
   4   0  -3    3.66    0.23
   3  -1  -4    3.82    0.27
   1   4   3    4.49    0.29
   4   3   1    3.94    0.25
  -4   1  -3    4.24    0.25
   4  -1  -3    4.26    0.25
   1   3   4    4.62    0.29
  -3   1  -4    5.04    0.28
   2   3   4    0.11    0.17
   2   4   3    0.29    0.18
   3   4   2    0.11    0.16
   3   2   4    0.15    0.16
   4   2   3    0.03    0.13
   4   3   2    0.07    0.13
   3  -2  -4    0.02    0.16
   3   4   3    2.44    0.22
   3   3   4    1.85    0.23
   4   3   3    2.23    0.21
  -4   4   4   -0.02    0.18
  -4   3   4   -0.06    0.17
  -3   4   4   -0.09    0.17
  -4   4   3   -0.10    0.16
  -4   4   2    0.80    0.17
  -2   4   4    0.52    0.20
   4   2  -4    0.52    0.17
   4   1  -4    0.88    0.16
  -4  -1  -4    0.69    0.16
  -1   4   4    0.57    0.19
  -4   0  -4    1.29    0.17
   4   0  -4    1.29    0.17
   0   4   4    1.37    0.21
  -4   1  -4    1.06    0.16
   4   4   1    0.98    0.17
   4  -1  -4    0.65    0.17
   1   4   4    0.69    0.20
   4   4   2    0.85    0.17
   2   4   4    0.76    0.20
  -4   2  -4    0.89    0.17
   3   4   4   -0.02    0.18
   4   3   4   -0.28    0.17
   4   4   3   -0.04    0.17
   4   4   4    0.16    0.18
   0   0  -5    0.48    0.17
  -1  -1  -5   -0.02    0.17
  -1   0  -5    6.28    0.37
   0  -1  -5    7.20    0.38
  -1   1  -5    0.21    0.18
  -2   5   2    0.23    0.18
  -2  -2  -5   -0.02    0.18
  -5   2   2    0.09    0.11
  -2   2   5    0.14    0.18
  -2  -1  -5    1.17    0.20
  -1  -2  -5    1.13    0.21
  -5   2   1    0.73    0.10
   5   1  -2    0.95    0.10
  -1   2   5    1.09    0.19
   2   1  -5    0.81    0.18
   5   2   0    0.19    0.07
  -2   0  -5    0.38    0.18
   2   0  -5    0.38    0.17
  -5   2   0    0.26    0.08
   0   2   5    0.66    0.18
   0  -2  -5    0.07    0.19
   2  -1  -5    0.85    0.19
   5   2   1    1.04    0.10
  -5   1  -2    0.97    0.10
   1   2   5    1.28    0.20
  -2   1  -5    1.17    0.20
   2   5   2    0.25    0.18
   5   2   2    0.21    0.11
   2  -2  -5    0.07    0.18
   2   2   5    0.20    0.17
  -3   5   3   -0.32    0.19
  -5   3   3   -0.06    0.14
  -3   5   2    0.18    0.19
  -3  -2  -5    0.24    0.18
  -5   3   2    0.58    0.14
   3   2  -5    0.36    0.18
  -2   5   3    0.25    0.19
   5   2  -3   -0.04    0.13
  -2   3   5    0.07    0.18
  -1   3   5   -0.02    0.18
   3   1  -5    0.41    0.18
  -5   3   1    0.29    0.12
  -3  -1  -5    0.14    0.18
   5   1  -3    0.34    0.12
  -1   5   3    0.27    0.20
   0   5   3    0.49    0.20
   0   3   5    0.49    0.19
  -3   0  -5    0.18    0.18
   3   0  -5    0.36    0.18
  -5   0  -3    0.24    0.12
   5   0  -3    0.41    0.12
  -3   1  -5    0.25    0.18
   1   3   5    0.44    0.19
   5   3   1    0.20    0.12
  -5   1  -3    0.59    0.12
   3  -1  -5    0.07    0.18
   1   5   3    0.34    0.19
   3   5   2    0.34    0.18
   5   3   2    0.01    0.13
   3  -2  -5    0.43    0.19
  -3   2  -5    0.22    0.18
  -5   2  -3    0.24    0.13
   2   5   3    0.29    0.19
   2   3   5    0.54    0.19
   3   5   3   -0.19    0.19
   3   3   5    0.10    0.18
   5   3   3   -0.06    0.14
  -5   4   4    0.07    0.19
  -5   4   3   -0.21    0.17
  -4   3   5   -0.43    0.19
  -5   3   4    0.08    0.16
  -4   5   3   -0.24    0.19
  -4   5   2    0.29    0.19
   4   2  -5    0.05    0.16
   5   2  -4    0.04    0.14
  -5   4   2    0.09    0.15
   4   1  -5   -0.09    0.17
  -5  -1  -4    0.16    0.14
  -5   4   1    0.08    0.14
   5   1  -4    0.02    0.14
  -4  -1  -5    0.27    0.17
  -5   0  -4    0.10    0.14
   5   0  -4    0.44    0.14
  -4   0  -5    0.24    0.17
   4   0  -5    0.04    0.17
   5   4   1    0.17    0.15
  -4   1  -5    0.07    0.17
  -5   1  -4    0.15    0.14
   4  -1  -5   -0.04    0.17
   4   5   2    0.07    0.18
  -4   2  -5    0.28    0.17
   5   4   2   -0.09    0.15
  -5   2  -4    0.04    0.15
   5   4   3    0.19    0.17
   4   3   5   -0.26    0.19
   5   3   4    0.08    0.16
   4   5   3    0.02    0.18
   5   4   4    0.13    0.18
   5   3  -5   -0.24    0.19
   5   2  -5   -0.13    0.17
  -5   5   2    0.19    0.18
  -5   5   1    0.20    0.17
  -5  -1  -5    0.38    0.18
   5   1  -5    0.38    0.16
  -5   0  -5   -0.14    0.17
   5   0  -5   -0.12    0.17
   5  -1  -5    0.02    0.16
  -5   1  -5   -0.02    0.16
   5   5   1   -0.06    0.17
  -5   2  -5    0.27    0.18
   5   5   2    0.10    0.17
   5   5   3    0.07    0.18
  -5   3  -5   -0.02    0.19
   0   0  -6    0.28    0.18
  -1  -1  -6    0.03    0.19
   0   1  -6   -0.03    0.19
  -1   0  -6    0.52    0.19
   0  -1  -6    0.06    0.20
  -1   1  -6    0.20    0.19
   6   2  -2   -0.08    0.08
  -2  -2  -6    0.32    0.20
   2   2  -6    0.09    0.19
   2   1  -6    0.39    0.20
  -2  -1  -6    0.39    0.20
   1   2  -6    0.15    0.20
  -1  -2  -6    0.35    0.19
  -2   0  -6    0.05    0.19
   2   0  -6   -0.03    0.19
   0   2  -6   -0.06    0.19
   0  -2  -6    0.06    0.19
   1  -2  -6   -0.29    0.20
   2  -1  -6   -0.31    0.19
  -1   2  -6   -0.23    0.19
  -6   2  -2    0.14    0.08
   2  -2  -6    0.03    0.19
  -2   2  -6    0.03    0.19
   6   3  -3    0.01    0.13
   3   3  -6   -0.18    0.20
   6   2  -3   -0.01    0.11
  -3  -2  -6    0.54    0.21
   3   2  -6    0.29    0.20
   3   1  -6    0.16    0.19
  -6   3   1   -0.07    0.10
  -3  -1  -6    0.16    0.19
   6   1  -3    0.15    0.10
  -1  -3  -6    0.09    0.20
  -6   3   0    0.05    0.10
  -3   0  -6    0.30    0.19
   3   0  -6    0.19    0.19
   0  -3  -6    0.25    0.21
   6   3   0    0.17    0.09
   6   3   1    0.02    0.09
  -3   1  -6    0.05    0.19
  -6   1  -3    0.04    0.10
   3  -1  -6    0.03    0.20
   1  -3  -6   -0.37    0.20
  -6   2  -3    0.03    0.11
   6   3   2   -0.15    0.11
   3  -2  -6    0.03    0.19
  -3   2  -6   -0.34    0.19
  -3   3  -6    0.03    0.21
   4   3  -6    0.12    0.21
   6   3  -4   -0.18    0.16
   4   2  -6    0.08    0.20
  -4  -2  -6    0.39    0.21
   6   2  -4   -0.16    0.14
   6   1  -4   -0.01    0.13
   4   1  -6    0.03    0.19
  -4  -1  -6   -0.13    0.20
   6   4   0   -0.05    0.13
  -6   0  -4   -0.05    0.13
   6   0  -4    0.05    0.12
  -4   0  -6    0.03    0.19
   4   0  -6    0.08    0.18
  -6   1  -4    0.17    0.14
  -4   1  -6    0.48    0.20
   4  -1  -6    0.43    0.20
   6   4   1   -0.04    0.13
  -4   2  -6    0.45    0.21
  -6   2  -4    0.08    0.14
   6   4   2   -0.12    0.14
   4  -2  -6    0.19    0.21
  -4   3  -6    0.15    0.22
   5   4  -6    0.12    0.24
   6   3  -5    0.29    0.19
   5   3  -6   -0.06    0.22
   5   2  -6   -0.03    0.20
   6   2  -5   -0.08    0.17
   6   1  -5    0.11    0.16
   5   1  -6   -0.05    0.21
  -5  -1  -6    0.18    0.21
  -5   0  -6   -0.28    0.20
   5   0  -6    0.08    0.20
   6   0  -5    0.04    0.16
  -5   1  -6    0.05    0.20
   5  -1  -6    0.13    0.19
  -5   2  -6   -0.16    0.21
  -5   3  -6   -0.14    0.21
  -5   4  -6   -0.24    0.23
   6   1  -6   -0.14    0.20
   6   0  -6   -0.11    0.19
   0   0  -7    0.45    0.21
   1   1  -7   -0.29    0.21
  -1  -1  -7   -0.07    0.21
   0  -1  -7    0.13    0.20
   0   1  -7    0.07    0.20
  -1   0  -7   -0.16    0.21
   1   0  -7    0.29    0.21
  -1   1  -7    0.39    0.21
   1  -1  -7    0.20    0.22
  -2  -2  -7   -0.07    0.21
   2   2  -7    0.23    0.22
  -1  -2  -7   -0.03    0.21
   2   1  -7    0.32    0.22
  -2  -1  -7    0.19    0.21
   1   2  -7    0.10    0.22
   0  -2  -7   -0.07    0.22
  -2   0  -7    0.13    0.21
   2   0  -7    0.39    0.22
   0   2  -7    0.07    0.21
   1  -2  -7   -0.27    0.23
  -2   1  -7   -0.10    0.22
   2  -1  -7   -0.26    0.22
  -1   2  -7    0.13    0.21
   2  -2  -7    0.30    0.23
  -2   2  -7    0.03    0.22
   3   3  -7    0.34    0.24
  -3  -2  -7   -0.16    0.24
   3   2  -7    0.03    0.22
   2   3  -7   -0.14    0.23
   3   1  -7   -0.03    0.22
  -1  -3  -7    0.14    0.23
  -3  -1  -7    0.03    0.22
   1   3  -7    0.07    0.22
   0   3  -7   -0.21    0.22
  -3   0  -7    0.06    0.23
   0  -3  -7    0.25    0.23
   3   0  -7   -0.16    0.21
  -3   1  -7   -0.16    0.22
   3  -1  -7   -0.26    0.23
  -1   3  -7    0.18    0.23
   1  -3  -7   -0.11    0.22
  -3   2  -7   -0.43    0.23
   3  -2  -7    0.23    0.23
  -2   3  -7    0.14    0.22
  -3   3  -7    0.10    0.25
   4   2  -7    0.03    0.23
  -4  -2  -7    0.06    0.24
   4   1  -7   -0.37    0.23
  -4  -1  -7    0.06    0.23
  -4   0  -7   -0.18    0.23
   4   0  -7    0.06    0.23
  -4   1  -7   -0.19    0.23
   4  -1  -7   -0.25    0.23
  -4   2  -7   -0.19    0.24
   4  -2  -7   -0.03    0.23
   5   2  -7   -0.03    0.24
   5   1  -7    0.06    0.23
  -5  -1  -7    0.18    0.24
  -5   0  -7    0.23    0.23
   5   0  -7   -0.47    0.22
   5  -1  -7   -0.06    0.23
  -5   1  -7   -0.06    0.24
  -5   2  -7   -0.09    0.24
   0   0   0    0.00    0.00
;
_shelx_hkl_checksum              87285
loop_
_space_group_symop_operation_xyz
'x, y, z'
'-x, -y, z'
'-x, y, -z'
'x, -y, -z'
'z, x, y'
'z, -x, -y'
'-z, -x, y'
'-z, x, -y'
'y, z, x'
'-y, z, -x'
'y, -z, -x'
'-y, -z, x'
'y, x, -z'
'-y, -x, -z'
'y, -x, z'
'-y, x, z'
'x, z, -y'
'-x, z, y'
'-x, -z, -y'
'x, -z, y'
'z, y, -x'
'z, -y, x'
'-z, y, x'
'-z, -y, -x'
'-x, -y, -z'
'x, y, -z'
'x, -y, z'
'-x, y, z'
'-z, -x, -y'
'-z, x, y'
'z, x, -y'
'z, -x, y'
'-y, -z, -x'
'y, -z, x'
'-y, z, x'
'y, z, -x'
'-y, -x, z'
'y, x, z'
'-y, x, -z'
'y, -x, -z'
'-x, -z, y'
'x, -z, -y'
'x, z, y'
'-x, z, -y'
'-z, -y, x'
'-z, y, -x'
'z, -y, -x'
'z, y, x'
loop_
_atom_site_label
_atom_site_type_symbol
_atom_site_fract_x
_atom_site_fract_y
_atom_site_fract_z
_atom_site_U_iso_or_equiv
_atom_site_adp_type
_atom_site_occupancy
_atom_site_site_symmetry_order
_atom_site_calc_flag
_atom_site_refinement_flags_posn
_atom_site_refinement_flags_adp
_atom_site_refinement_flags_occupancy
Cl1 Cl 0.0000 0.0000 0.0000 0.216(5) Uani 1 48 d S T P
O1 O 0.215(3) 0.0000 0.0000 0.285(9) Uani 0.6666 8 d S T P
C1 C 0.5000 0.3238(10) 0.3238(10) 0.322(10) Uani 0.8895 4 d S T P
loop_
_atom_site_aniso_label
_atom_site_aniso_U_11
_atom_site_aniso_U_22
_atom_site_aniso_U_33
_atom_site_aniso_U_23
_atom_site_aniso_U_13
_atom_site_aniso_U_12
Cl1 0.216(5) 0.216(5) 0.216(5) 0.000 0.000 0.000
O1 0.227(13) 0.314(12) 0.314(12) 0.000 0.000 0.000
C1 0.282(13) 0.342(11) 0.342(11) -0.087(7) 0.000 0.000
loop_
_atom_type_symbol
_atom_type_description
_atom_type_scat_dispersion_real
_atom_type_scat_dispersion_imag
_atom_type_scat_source
C C 0.0033 0.0016 'International Tables Vol C Tables 4.2.6.8 and 6.1.1.4'
H H 0.0000 0.0000 'International Tables Vol C Tables 4.2.6.8 and 6.1.1.4'
N N 0.0061 0.0033 'International Tables Vol C Tables 4.2.6.8 and 6.1.1.4'
O O 0.0106 0.0060 'International Tables Vol C Tables 4.2.6.8 and 6.1.1.4'
Cl Cl 0.1484 0.1585 'International Tables Vol C Tables 4.2.6.8 and 6.1.1.4'
loop_
_geom_angle_atom_site_label_1
_geom_angle_atom_site_label_2
_geom_angle_atom_site_label_3
_geom_angle
_geom_angle_site_symmetry_1
_geom_angle_site_symmetry_3
O1 Cl1 O1 90.0 . 33
O1 Cl1 O1 180.0 . 25
O1 Cl1 O1 90.0 33 25
O1 Cl1 O1 90.0 . 5
O1 Cl1 O1 90.0 33 5
O1 Cl1 O1 90.0 25 5
O1 Cl1 O1 90.0 . 29
O1 Cl1 O1 90.0 33 29
O1 Cl1 O1 90.0 25 29
O1 Cl1 O1 180.0 5 29
O1 Cl1 O1 90.0 . 9
O1 Cl1 O1 180.0 33 9
O1 Cl1 O1 90.0 25 9
O1 Cl1 O1 90.0 5 9
O1 Cl1 O1 90.0 29 9
C1 C1 C1 60.0 10_656 30_655
C1 C1 C1 120.000(1) 10_656 5
C1 C1 C1 90.000(1) 30_655 5
C1 C1 C1 90.000(1) 10_656 9
C1 C1 C1 120.000(1) 30_655 9
C1 C1 C1 60.0 5 9
loop_
_geom_bond_atom_site_label_1
_geom_bond_atom_site_label_2
_geom_bond_distance
_geom_bond_site_symmetry_2
Cl1 O1 1.357(17) .
Cl1 O1 1.357(17) 33
Cl1 O1 1.357(17) 25
Cl1 O1 1.357(17) 5
Cl1 O1 1.357(17) 29
Cl1 O1 1.357(17) 9
C1 C1 1.574(9) 10_656
C1 C1 1.574(9) 30_655
C1 C1 1.574(9) 5
C1 C1 1.574(9) 9
