#------------------------------------------------------------------------------
#$Date: 2019-11-03 10:58:16 +0200 (Sun, 03 Nov 2019) $
#$Revision: 221202 $
#$URL: file:///home/coder/svn-repositories/cod/cif/4/12/80/4128071.cif $
#------------------------------------------------------------------------------
#
# This file is available in the Crystallography Open Database (COD),
# http://www.crystallography.net/
#
# All data on this site have been placed in the public domain by the
# contributors.
#
data_4128071
loop_
_publ_author_name
'Yang, Chen-Kai'
'Chen, Wang-Nan'
'Ding, Yan-Ting'
'Wang, Jing'
'Rao, Yin'
'Liao, Wei-Qiang'
'Xie, Yongfa'
'Zou, Wennan'
'Xiong, Ren-Gen'
_publ_section_title
;
 Directional Intermolecular Interactions for Precise Molecular Design of a
 High- T<sub>c</sub> Multiaxial Molecular Ferroelectric.
;
_journal_issue                   4
_journal_name_full               'Journal of the American Chemical Society'
_journal_page_first              1781
_journal_page_last               1787
_journal_paper_doi               10.1021/jacs.8b13223
_journal_volume                  141
_journal_year                    2019
_chemical_formula_moiety         'Cl O4, 0.779(C12)'
_chemical_formula_sum            'C7 H14 Cl N O4'
_chemical_formula_weight         211.64
_space_group_crystal_system      cubic
_space_group_IT_number           221
_space_group_name_Hall           '-P 4 2 3'
_space_group_name_H-M_alt        'P m -3 m'
_symmetry_space_group_name_Hall  '-P 4 2 3'
_symmetry_space_group_name_H-M   'P m -3 m'
_audit_creation_method           SHELXL-2014/7
_cell_angle_alpha                90
_cell_angle_beta                 90
_cell_angle_gamma                90
_cell_formula_units_Z            1
_cell_length_a                   6.2261(15)
_cell_length_b                   6.2261(15)
_cell_length_c                   6.2261(15)
_cell_measurement_reflns_used    95
_cell_measurement_temperature    298(2)
_cell_measurement_theta_max      29.8300
_cell_measurement_theta_min      3.2600
_cell_volume                     241.35(10)
_computing_cell_refinement       'CrysAlisPro 1.171.39.46 (Rigaku OD, 2018)'
_computing_data_collection       'CrysAlisPro 1.171.39.46 (Rigaku OD, 2018)'
_computing_data_reduction        'CrysAlisPro 1.171.39.46 (Rigaku OD, 2018)'
_computing_molecular_graphics    'DIAMOND (Brandenburg & Putz, 2005)'
_computing_publication_material  'SHELXL-2014/7 (Sheldrick, 2014)'
_computing_structure_refinement  'SHELXL-2014/7 (Sheldrick, 2014)'
_computing_structure_solution    'SHELXL-2014/7 (Sheldrick, 2014)'
_diffrn_ambient_temperature      298(2)
_diffrn_measured_fraction_theta_full 1.000
_diffrn_measured_fraction_theta_max 1.000
_diffrn_measurement_device_type  'XtaLAB Synergy R, DW system, HyPix'
_diffrn_measurement_method       'four-circle diffractometer'
_diffrn_radiation_type           MoK\a
_diffrn_radiation_wavelength     0.71073
_diffrn_reflns_av_R_equivalents  0.4684
_diffrn_reflns_av_unetI/netI     0.1995
_diffrn_reflns_Laue_measured_fraction_full 1.000
_diffrn_reflns_Laue_measured_fraction_max 1.000
_diffrn_reflns_limit_h_max       7
_diffrn_reflns_limit_h_min       -5
_diffrn_reflns_limit_k_max       7
_diffrn_reflns_limit_k_min       -7
_diffrn_reflns_limit_l_max       7
_diffrn_reflns_limit_l_min       -7
_diffrn_reflns_number            1161
_diffrn_reflns_point_group_measured_fraction_full 1.000
_diffrn_reflns_point_group_measured_fraction_max 1.000
_diffrn_reflns_theta_full        25.242
_diffrn_reflns_theta_max         26.707
_diffrn_reflns_theta_min         3.272
_diffrn_source                   'Rotating-anode X-ray tube'
_exptl_absorpt_coefficient_mu    0.379
_exptl_absorpt_correction_T_max  0.923
_exptl_absorpt_correction_T_min  0.920
_exptl_absorpt_correction_type   multi-scan
_exptl_absorpt_process_details   'CrysAlisPro 1.171.39.46 (Rigaku OD, 2018)'
_exptl_crystal_colour            colourless
_exptl_crystal_density_diffrn    1.456
_exptl_crystal_description       block
_exptl_crystal_F_000             105
_exptl_crystal_size_max          0.220
_exptl_crystal_size_mid          0.210
_exptl_crystal_size_min          0.210
_refine_diff_density_max         0.214
_refine_diff_density_min         -0.822
_refine_diff_density_rms         0.111
_refine_ls_extinction_method     none
_refine_ls_goodness_of_fit_ref   1.067
_refine_ls_hydrogen_treatment    undef
_refine_ls_matrix_type           full
_refine_ls_number_parameters     9
_refine_ls_number_reflns         78
_refine_ls_number_restraints     0
_refine_ls_restrained_S_all      1.067
_refine_ls_R_factor_all          0.2098
_refine_ls_R_factor_gt           0.1693
_refine_ls_shift/su_max          0.000
_refine_ls_shift/su_mean         0.000
_refine_ls_structure_factor_coef Fsqd
_refine_ls_weighting_details
'w=1/[\s^2^(Fo^2^)+(0.0200P)^2^+0.0500P] where P=(Fo^2^+2Fc^2^)/3'
_refine_ls_weighting_scheme      calc
_refine_ls_wR_factor_gt          0.3274
_refine_ls_wR_factor_ref         0.3513
_reflns_Friedel_coverage         0.000
_reflns_number_gt                37
_reflns_number_total             78
_reflns_threshold_expression     'I > 2\s(I)'
_cod_data_source_file            ja8b13223_si_002.cif
_cod_data_source_block           Pm3m
_cod_original_cell_volume        241.35(17)
_cod_database_code               4128071
_shelx_shelxl_version_number     2014/7
_shelx_space_group_comment
;
The symmetry employed for this shelxl refinement is uniquely defined
by the following loop, which should always be used as a source of
symmetry information in preference to the above space-group names.
They are only intended as comments.
;
_shelx_estimated_absorpt_t_min   0.921
_shelx_estimated_absorpt_t_max   0.924
_shelx_res_file
;

    Pm3m.res created by SHELXL-2014/7


TITL Pm3m in Pm-3m
CELL 0.71073   6.2261   6.2261   6.2261  90.000  90.000  90.000
ZERR    1.00   0.0015   0.0015   0.0015   0.000   0.000   0.000
LATT 1
SYMM -X, -Y, Z
SYMM -X, Y, -Z
SYMM X, -Y, -Z
SYMM Z, X, Y
SYMM Z, -X, -Y
SYMM -Z, -X, Y
SYMM -Z, X, -Y
SYMM Y, Z, X
SYMM -Y, Z, -X
SYMM Y, -Z, -X
SYMM -Y, -Z, X
SYMM Y, X, -Z
SYMM -Y, -X, -Z
SYMM Y, -X, Z
SYMM -Y, X, Z
SYMM X, Z, -Y
SYMM -X, Z, Y
SYMM -X, -Z, -Y
SYMM X, -Z, Y
SYMM Z, Y, -X
SYMM Z, -Y, X
SYMM -Z, Y, X
SYMM -Z, -Y, -X
SFAC C  H  N  O  Cl
UNIT 7 14 1 4 1
L.S. 10
OMIT 0 54
ACTA
BOND
FMAP 2
PLAN 20
TEMP 25
SIZE 0.22 0.21 0.21
WGHT    0.020000    0.050000
FVAR       1.30001
MOLE 1
CL1   5    0.000000    0.000000    0.000000    10.02083    0.17678    0.17678 =
         0.17678    0.00000    0.00000    0.00000
O1    4    0.000000    0.000000    0.231386    10.08332    0.30575    0.30575 =
         0.20732    0.00000    0.00000    0.00000
MOLE 2
C2    1    0.338504    0.338504    0.500000    10.19463    0.29273    0.29273 =
         0.29024    0.00000    0.00000   -0.10852
HKLF 4

REM  Pm3m in Pm-3m
REM R1 =  0.1693 for      37 Fo > 4sig(Fo)  and  0.2098 for all      78 data
REM      9 parameters refined using      0 restraints

END

WGHT      0.1560      0.0014

REM Highest difference peak  0.214,  deepest hole -0.822,  1-sigma level  0.111
Q1    1   0.2379  0.2379  0.5000  10.25000  0.05    0.21
Q2    1   0.0000  0.0000  0.5000  10.06250  0.05    0.08
Q3    1   0.0000  0.0000  0.3167  10.12500  0.05    0.05
;
_shelx_res_checksum              66932
_shelx_hkl_file
;
  -1   0   0   15.10    5.58
   1   0   0   16.02    5.58
   0  -1   0   14.00    5.58
  -1  -1   0 1233.73  672.43
   1   0   1 1971.53  672.44
   1   0   1 1225.78  672.43
   1   1   0 1907.84  672.43
  -1   0  -1 1993.93  672.44
   1  -1   1   96.07   41.51
   1  -1   1  152.27   41.53
  -1  -1  -1   99.03   41.52
   1   1  -1   96.31   41.52
  -1   1  -1   95.94   41.51
   1   1   1  101.12   41.52
   2   0   0  150.49   81.14
   0  -2   0  139.60   81.13
  -1  -2   0  106.83   60.21
  -1   2   0  502.55   60.26
   0   2  -1  513.61   60.28
   1   2   0  110.94   60.21
  -2  -1   0  112.29   60.22
   0  -2   1  101.51   60.20
   0  -2   1  172.31   60.21
   1   0  -2  534.51   60.24
  -1   0  -2  104.24   60.21
   1   0   2  101.86   60.21
   1  -2   0  544.06   60.27
   0   1  -2  494.81   60.26
   0  -1   2  525.59   60.27
   2   0   1  110.54   60.21
  -2  -1  -1    3.15    1.17
   2  -1   1    2.63    1.13
   1   1   2    1.34    1.16
   2   1   1    3.59    1.17
   1  -2  -1    6.55    1.18
   1  -2   1    2.94    1.15
   2  -1   1    3.65    1.20
  -1  -2  -1    1.95    1.16
  -1   2   1    7.24    1.18
   1  -2   1    9.13    1.30
  -2  -1  -1    2.17    1.17
   1  -1   2    0.95    1.08
   1   1  -2   10.30    1.27
  -1  -2   1    1.37    1.10
  -1   1  -2    1.48    1.09
   2   1   1    1.65    1.17
   1   2  -1    1.95    1.11
  -2   0  -2    1.58    0.83
  -2  -2   0    1.16    0.76
   2   0   2    0.91    0.74
   0   2  -2    5.12    0.94
   2   2   0    0.34    0.77
   2  -2   0    5.28    0.91
  -2   0  -2    1.25    0.75
   2   2   0    1.09    0.67
   0   2  -2    1.20    0.73
  -1  -2  -2    9.47    4.29
  -2   1  -2    6.80    4.26
  -2  -1  -2   13.03    4.31
   2  -2  -1   43.34    4.35
   1   2  -2    7.63    4.26
  -2  -2  -1    9.57    4.29
   2  -2   1   44.93    4.43
   2  -1   2   13.82    4.32
   2   2  -1    8.16    4.28
   2  -1   2    7.53    4.27
   1  -2   2   14.12    4.30
   2   1   2    8.03    4.29
   1   2  -2   43.65    4.42
  -2  -2   1    7.08    4.27
  -2  -2  -1   12.82    4.28
  -1   2  -2   15.02    4.31
   2  -2   1    7.56    4.26
   2   2   2    0.23    0.59
   2   2  -2    0.03    0.46
   2  -2   2    0.63    0.58
   2  -2  -2    0.89    0.44
  -2  -2  -2    0.82    0.56
   2  -2   2    1.12    0.85
  -2  -2  -2   -0.29    0.54
   2  -2   2   -0.12    0.34
   3   0   0   56.50   36.66
   0  -3   0   54.50   36.65
   0   0   3  265.00   36.70
   0   3   0  259.31   36.73
   3   0   1    5.50    2.77
   0  -1   3   24.43    2.88
   0   1  -3   21.47    2.85
   1   3   0    3.98    2.75
  -1   3   0   24.52    2.88
  -1  -3   0    4.93    2.75
   1  -3   0   24.47    2.90
   0   3   1   25.86    2.86
   3   0  -1    5.42    2.78
   3  -1   0    4.66    2.77
   1   0  -3   21.74    2.79
  -3   0  -1    3.68    2.76
  -3  -1   0    2.85    2.76
   0  -3  -1    3.75    2.75
   0  -3   1    3.36    2.72
  -1   0  -3    4.27    2.75
   0  -3   1    5.43    2.73
   3  -1   1   23.60    8.31
  -1  -3   1   14.72    8.27
   1  -3   1   19.65    8.28
   1   3  -1   15.97    8.27
   1  -1   3   71.65    8.39
  -1  -3  -1   15.80    8.28
  -1   3   1   76.45    8.35
   3   1   1   18.14    8.29
   3   1   1   23.73    8.30
   1   1  -3   72.65    8.36
  -1  -1  -3   12.12    8.28
  -1   1  -3   14.71    8.26
   1  -3   1   78.16    8.42
   3  -1   1   14.48    8.28
  -2  -3   1    1.12    0.74
   3   2  -1    1.87    0.81
   1   3  -2    0.96    0.66
   3  -2   1    0.78    0.74
  -2  -1  -3    1.90    0.82
  -3  -2  -1    0.74    0.79
   2   3   1    0.23    0.80
  -2  -1  -3    1.44    0.88
   2  -3  -1    4.63    0.93
   1  -3   2    4.74    1.09
   1   3  -2    6.72    1.10
  -3   1  -2    1.25    0.74
   1   3  -2    0.99    0.67
   1  -3   2    1.79    0.78
  -1  -3  -2    1.99    0.80
  -1   2  -3    2.65    0.86
   3   1   2    0.12    0.80
  -1   2  -3    1.12    0.63
   2  -1   3    1.38    0.72
  -1   3   2    4.04    0.79
   0   3  -2   53.89    5.84
   2  -3   0   56.30    5.82
   0   2  -3   17.32    5.71
   0  -2   3   58.65    5.85
   3   0   2   11.25    5.70
  -3  -2   0   10.26    5.69
   0  -3  -2   10.55    5.69
  -2  -3   0   10.39    5.68
  -3   0  -2   10.22    5.69
  -2   0  -3   10.06    5.68
   2   3   0   10.27    5.69
   2   0   3    7.58    5.68
   0   2  -3   49.64    5.82
   3   2   0   13.89    5.68
  -2   0  -3   17.62    5.73
   2   1   3    0.39    0.79
   3   1  -2   -0.23    0.79
  -3  -1  -2    1.56    0.85
  -1   3  -2    5.64    1.09
   1  -2   3    4.56    1.08
   1   2  -3    5.34    1.01
   2   3  -1    0.94    0.75
  -2  -3  -1    1.68    0.72
  -2  -3  -1    0.99    0.78
   2  -3   1    4.63    1.05
  -2   1  -3    0.92    0.71
   3  -1   2    1.10    0.77
   3  -1   2    2.26    0.89
  -3  -2   1    0.88    0.78
  -2  -3  -2   -0.09    0.60
   2  -2   3    0.19    0.37
   3   2   2    1.12    0.68
   2  -3   2    0.38    0.32
   2  -3   2    0.42    0.89
  -2   2  -3    0.32    0.37
   2  -3  -2    1.71    0.57
  -2   2  -3   -0.04    0.66
   2   3  -2    0.27    0.47
   3  -2   2    0.11    0.46
   3  -2   2    0.42    0.68
   2   2  -3    1.26    0.81
   3   2  -2    0.87    0.58
   2   2  -3   -0.15    0.49
   2   2   3    0.97    0.65
  -2  -3  -2    1.09    0.57
   2  -3   2    0.46    0.63
  -3  -2  -2    0.81    0.62
   3   3   0    2.20    1.38
   3  -3   0    8.25    1.57
   0   3  -3    2.77    1.36
   0  -3  -3    2.22    1.38
  -3   0  -3    2.80    1.46
   3   0   3    2.01    1.37
  -3  -3   0    2.81    1.38
  -3   0  -3    2.92    1.37
   3   3   1    1.09    0.94
  -3  -1  -3    2.07    1.04
   1   3  -3    2.24    0.88
  -3  -1  -3    0.64    0.93
   1   3  -3    1.20    0.78
  -1   3  -3    8.98    1.25
  -1   3  -3    2.56    0.97
   3  -1   3    1.94    1.03
   3  -1   3    1.59    0.88
   3  -3  -1    5.55    1.10
   3   3  -1    1.60    0.79
   3   1   3    1.70    0.95
   1   3  -3    8.40    1.26
  -3   1  -3    1.26    0.87
  -1  -3  -3    1.10    0.95
  -3  -3  -1    1.71    0.95
   3  -3   1    1.43    0.85
  -3  -3   1    0.75    0.88
   3   3  -1    1.57    0.94
   3  -3   1    7.01    1.26
   3  -3   2    1.87    1.19
  -3  -2  -3    3.34    1.22
  -3  -3  -2    2.00    1.14
  -3  -3  -2    3.40    1.13
   2   3  -3    1.63    1.04
  -2  -3  -3    0.74    1.13
   3   2   3    3.33    1.19
   2   3  -3   10.52    1.45
   3  -2   3    1.02    1.03
   3  -3  -2    5.58    1.18
  -3   2  -3    1.19    1.03
   3  -3   2    9.94    1.51
   3   3  -2    1.64    1.11
   3  -2   3    3.53    1.24
   3   2  -3    2.27    1.11
   2  -3   3    2.90    1.18
   3  -3   2    2.22    1.03
   3  -3   3    0.10    0.43
   3   3   3    0.78    0.75
   3  -3   3    0.78    0.77
  -3  -3  -3    0.93    0.72
  -3  -3  -3    0.27    0.69
   3   3  -3    0.04    0.60
   3  -3  -3    0.57    0.53
   3  -3   3    1.72    1.16
   4   0   0    7.93    5.54
   0   4   0   43.31    5.66
   0  -4   0    6.58    5.51
   0   0   4   38.07    5.58
   0   4  -1   31.50    3.50
   4   0   1    9.09    3.33
  -1   0  -4    5.25    3.28
   4   0   1    5.53    3.30
  -1   4   0   31.64    3.45
   1   0   4   26.28    3.40
  -4  -1   0    5.75    3.30
   0   4   1   29.06    3.43
   0   1   4   25.28    3.30
   4   0  -1    5.73    3.31
   0  -4   1    5.01    3.25
  -4   0  -1    3.79    3.28
   0  -4   1    4.52    3.24
   0  -1   4   29.93    3.42
   0  -4  -1    4.87    3.28
  -1  -4   0    5.16    3.27
   4  -1   0    5.65    3.30
   4   1   0    4.81    3.30
   4   1   1    4.26    1.79
  -1  -4   1    3.78    1.70
   1  -4   1   15.83    2.03
  -1  -4  -1    2.39    1.73
   1  -4   1    2.29    1.67
  -1  -1  -4    2.76    1.75
   1  -1   4   15.13    1.93
   1  -4   1    3.75    1.73
  -1   1  -4    4.07    1.82
   4  -1   1    2.25    1.74
  -1   1  -4    2.45    1.70
   1   1  -4   15.48    1.88
   4   1   1    3.63    1.79
  -1   4  -1   14.99    1.98
   4  -1  -1    2.97    1.78
  -1   4   1   16.30    1.90
   1   4  -1    3.10    1.71
   2  -4  -1    6.16    1.07
  -4  -2  -1    0.48    0.89
   4   1   2    1.57    0.92
   4   2  -1    0.83    0.90
  -1   2  -4    2.15    0.98
   4  -2   1    1.08    0.85
   1   4  -2    7.79    1.23
   2   1  -4    5.78    1.01
   1  -4   2    0.77    0.82
  -2  -1  -4    1.98    1.01
   1   4  -2    0.90    0.72
  -4   1  -2    0.74    0.83
   2  -1   4    5.68    1.20
  -1   2  -4    0.87    0.70
   1  -4   2    5.95    1.23
  -1   4   2    4.45    0.95
  -2  -4   1    0.60    0.79
   2   4   1    1.01    0.87
  -1  -4  -2    0.94    0.86
   4   1   2    1.44    0.93
  -2  -1  -4    1.25    0.85
   2   4   0    1.64    1.37
  -2   0  -4    1.09    1.35
   4   2   0    2.18    1.37
  -2  -4   0    1.21    1.35
   4   0   2    2.87    1.47
   0  -2   4   10.70    1.64
  -2   0  -4    4.05    1.52
   4   0   2    1.55    1.39
   4  -2   0    1.35    1.38
   2  -4   0   13.05    1.63
   0   4   2   10.23    1.50
   2   0  -4    8.63    1.42
  -4  -2   0    1.79    1.39
   0   2  -4   10.13    1.59
  -4   0  -2    0.68    1.36
   0  -4  -2    3.12    1.40
  -2  -4  -1    0.89    0.66
   1   2  -4    5.38    1.04
  -1  -2  -4    1.40    0.82
   4   1  -2    0.45    0.84
   4  -1   2    0.54    0.78
  -2   1  -4    1.10    0.71
  -2  -4  -1    1.53    0.80
   4   2   1    1.58    0.81
   1  -2   4    4.97    1.14
   2   4  -1    0.23    0.72
  -4  -1  -2    1.17    0.83
   2  -4   1    5.88    1.19
   4  -2   2    1.10    0.82
   2  -2   4    6.35    1.26
  -2  -2  -4    0.55    0.88
   2   4  -2    0.94    0.77
  -2   2  -4    1.75    1.01
   4  -2   2    1.72    1.04
   2  -4   2    1.59    0.90
   2  -4   2    5.39    1.28
  -2   2  -4    0.76    0.72
   4   2  -2    1.34    0.88
   4   2   2    1.57    0.92
  -2  -4  -2    1.32    0.88
   2   4  -2    7.37    1.30
   2  -4   2    1.19    0.64
   2   2  -4    6.50    1.14
   3  -2   4    1.24    1.12
   4   2   3    1.65    0.78
  -4  -3  -2    0.62    0.75
   2  -4   3    1.05    1.15
   3  -2   4   -0.38    0.51
   3   2  -4    0.47    0.95
   4  -3   2    0.59    0.58
   3  -4  -2    1.11    0.79
   4   3  -2    0.92    0.68
   2   4  -3    0.19    0.47
   3   2  -4   -0.44    0.64
   2  -4   3   -0.08    0.73
  -3  -2  -4    0.39    0.82
  -3  -2  -4   -0.54    0.70
   2   4  -3    1.46    1.10
   3   4   2   -0.12    0.72
   4  -3   2    2.72    1.18
   2   4  -3    0.48    0.39
  -2  -4  -3   -0.94    0.71
   4  -3   2    1.02    0.86
   3   1  -4    5.76    1.04
  -4   1  -3    0.76    0.78
   3   4   1    1.34    0.91
   3  -4  -1    5.65    1.12
   3  -1   4    0.48    0.80
  -4  -3  -1    1.10    0.88
   4   1   3    0.77    0.89
   1   4  -3    0.38    0.63
   4   3  -1    2.27    0.92
  -1  -4  -3    0.78    0.89
  -3  -1  -4    0.19    0.85
  -3  -1  -4    3.03    1.03
   1   4  -3    6.40    1.29
  -1   4   3    4.93    0.83
   4  -3   1    3.65    1.24
  -3  -4   1    1.22    0.82
   4  -3   1    0.78    0.80
  -1   3  -4    1.52    0.93
   4   3  -1    0.93    0.73
   0   4   3    3.78    0.89
   4   0   3    0.92    0.81
   0   3  -4    1.84    0.87
   4   3   0    1.40    0.73
  -3   0  -4    1.17    0.77
   4  -3   0    3.19    1.15
   3  -4   0    3.08    1.13
   0   4  -3    6.76    1.28
  -3   0  -4    0.74    0.96
   0  -4  -3    0.25    0.82
   3   4   0    0.58    0.83
   0  -3  -4    0.58    0.84
   4   3   0    0.91    0.86
  -4  -3   0   -0.10    0.81
   3   0   4    1.12    0.81
  -3  -4   0    0.67    0.82
   0   3  -4    4.91    1.20
  -4   0  -3    0.99    0.81
   1  -3   4    5.65    1.33
   4  -1   3    0.64    0.87
   3   4  -1    1.23    0.86
  -3  -4  -1    0.05    0.89
   4  -1   3    0.11    1.01
   4  -3  -1    4.64    1.14
   3   1   4    0.78    0.90
  -4  -3   1    0.90    0.89
   4   1  -3    0.27    0.93
  -4  -1  -3    0.16    1.00
   1   3  -4    1.46    0.72
   3  -4   1    5.21    1.31
   1   3  -4    4.62    1.21
  -3   1  -4    0.42    0.81
  -1   4  -3    5.51    1.29
  -4  -1  -3    1.35    0.92
   3  -1  -4    3.88    0.80
  -3   2  -4   -0.03    0.50
   4  -2   3   -0.19    0.57
   2   3  -4    0.39    1.00
  -4  -2  -3    0.67    0.79
   3   2   4    0.78    0.74
   3  -4   2    0.38    0.42
   4  -3  -2    1.33    0.80
   3  -4   2   -0.71    0.77
  -3  -4  -2    0.16    0.59
   4   2  -3    0.94    0.71
   4  -2   3    0.17    0.82
   3   4  -2    0.04    0.60
  -3  -4  -2    0.16    0.71
   2   3  -4   -0.21    0.50
  -4  -2  -3    0.61    0.73
   3  -4   2    2.53    1.20
   2  -3   4    1.07    1.12
   4   3  -3    2.47    0.77
  -4  -3  -3    0.15    0.77
   4  -3  -3    1.40    0.70
   4  -3   3    0.45    0.55
   4  -3   3   -1.48    1.21
   4  -3   3    0.34    0.87
   3  -4   3    0.31    0.83
   3   4  -3   -0.04    0.61
   4   3   3    0.54    0.84
  -3  -4  -3    2.24    0.84
   3  -4   3    3.16    1.29
   3   3  -4    1.24    1.10
   3   4  -3    1.33    1.17
   3  -4   3    0.11    0.35
  -3  -4  -3   -0.52    0.73
   3   3  -4    0.91    0.64
  -3  -3  -4    0.06    0.83
  -4   0  -4    0.73    0.74
  -4   0  -4    1.55    1.03
   4   4   0    0.58    0.82
   0   4  -4    0.66    0.73
   0  -4  -4   -0.71    0.82
   4   0   4    0.58    0.77
   0   4  -4    2.09    1.19
   0   4   4    1.85    0.68
   4  -4   0    1.73    1.12
  -4  -4   0    0.85    0.79
  -4  -1  -4    1.13    0.88
   4  -4   1    1.31    1.13
   4   1   4   -0.84    0.75
   1  -4   4    2.72    1.23
   4   4  -1   -0.05    0.71
  -1  -4  -4   -0.24    0.73
  -4  -4  -1    0.34    0.73
   1   4  -4    0.36    0.59
  -4  -1  -4    0.22    0.71
   1   4  -4    2.65    1.16
  -4  -4   1    0.05    0.65
   4  -4   1   -0.19    0.58
   4   4   1   -0.31    0.75
   4  -4  -1    1.07    0.99
   4  -1   4    0.60    0.64
   1   4  -4    0.09    0.24
  -4   1  -4    0.26    0.63
   4  -2   4   -0.12    0.57
   4   4  -2   -0.10    0.34
   4  -4   2    0.11    0.85
  -4  -2  -4    0.48    0.76
   2   4  -4    0.20    0.46
   4   4   2    0.96    0.84
   4  -4   2    0.55    0.53
  -4   2  -4   -0.14    0.56
   4   2   4   -0.54    0.80
   4   4  -2   -0.05    0.70
   4  -4  -2    1.65    0.89
   4   2  -4   -0.06    0.74
   4  -2   4    2.11    1.27
   2   4  -4    0.31    0.55
   2   4  -4   -0.06    1.14
   4  -4   2    2.27    1.23
  -4  -2  -4    1.97    0.96
  -4  -4  -3    0.05    0.75
   4  -3   4   -0.15    0.49
  -4  -3  -4    0.12    0.86
   3   4  -4    0.19    0.59
  -3  -4  -4   -1.15    0.88
   4   4  -3    1.13    0.73
   4  -4   3    0.05    0.46
   4  -4   3    0.44    1.25
   4  -4  -3   -0.41    0.69
   4   3   4    0.59    0.87
   4   3  -4   -0.69    0.68
  -4  -4  -4    0.35    0.85
   4   4  -4    0.36    0.70
   4  -4   4   -0.89    1.35
   0   0   5    4.98    1.03
   5   0   0    1.07    0.98
   0  -5   0    0.80    0.84
   0   5   0    3.79    1.22
   0   0  -5    0.93    0.88
   1   5   0    4.17    1.15
   1   0   5    3.03    0.96
   5   1   0    1.21    0.84
   5   1   0   -0.41    0.84
   0  -5   1    0.52    0.58
   5   0   1    0.67    0.81
   5   0  -1    0.35    0.80
  -1   0  -5    1.21    0.72
   0  -1  -5    0.71    0.76
   0  -5   1    1.02    0.59
   0  -5  -1    0.73    0.73
  -1  -5   0    0.50    0.69
   5   0   1    1.09    0.89
   0   1  -5    0.07    0.66
   1  -5   0    0.65    0.64
   0   5  -1    3.51    1.16
   0   1   5    2.85    0.75
  -1   5   0    2.63    1.08
   5  -1   0    0.44    0.81
   0  -1   5    2.14    0.99
   0   5   1    4.54    1.06
   5  -1   1    0.05    0.70
   1   5  -1    2.33    1.10
   5  -1  -1    0.99    0.74
  -1  -5   1    1.06    0.53
  -1  -1  -5   -0.09    0.66
  -1   5   1    0.24    0.92
   5   1   1    0.91    0.80
   1  -5   1    0.12    0.44
   1  -5  -1   -0.04    0.60
  -1   1  -5    0.11    0.84
   1   5   1    3.49    1.03
   5   1   1    0.95    0.77
  -1   1  -5    0.33    0.56
   1  -5   1    0.11    0.59
   1   1   5    1.80    0.81
  -1   5  -1    2.29    1.07
   1  -1   5    1.08    0.95
  -1  -5  -1   -0.17    0.64
  -2  -5   1    0.07    0.54
   5  -2   1    0.57    0.85
  -2  -1  -5   -0.60    0.65
   5  -2   1    0.62    0.70
  -1   2  -5    0.83    0.83
   1  -5   2    0.15    0.57
  -1  -5  -2    0.97    0.70
   5   1   2   -0.05    0.79
  -2  -1  -5    0.50    0.88
   5  -1  -2    0.32    0.73
  -5  -2  -1   -0.11    0.71
  -1   5   2    0.20    0.81
   2   1  -5    1.47    0.81
   5   2  -1   -0.79    0.75
   2  -1   5    0.76    1.02
  -1   2  -5    0.05    0.45
   5   1   2   -0.06    0.74
   2  -5   0    2.12    1.08
   0  -2   5    2.28    1.06
  -2   0  -5   -0.21    0.63
   0  -2  -5    0.16    0.69
   2   0   5    1.56    0.98
   5   2   0   -0.65    0.69
   5   0   2    0.85    0.85
   2   5   0    0.85    0.67
   0  -5  -2   -0.44    0.64
  -5  -2   0   -0.22    0.70
   0   5   2    1.14    0.88
  -5   0  -2    0.26    0.69
  -2  -5   0    1.00    0.64
   5  -2   0    0.55    0.69
   5   0   2    0.79    0.76
   0   2   5    0.83    0.47
   0   2  -5    0.22    0.49
   5   1  -2    0.98    0.76
   2  -5   1    2.07    1.14
   1  -5  -2    0.34    0.66
   2  -5   1   -0.66    0.70
   2   5  -1    0.42    0.59
   1   2  -5    1.34    0.94
  -2  -5  -1    0.01    0.40
  -1  -2  -5    0.33    0.69
  -2   1  -5    0.25    0.87
  -5  -1  -2   -0.56    0.71
  -2   1  -5    0.49    0.57
   5   2   1    0.67    0.71
   5  -1   2   -0.37    0.69
  -2  -5  -1   -0.34    0.68
   5  -2  -1   -0.24    0.72
  -1   5  -2    2.24    1.14
   5   2   1   -0.51    0.75
   1  -2   5    0.10    1.04
   5   2  -2   -0.37    0.75
   2  -5   2    0.01    0.16
  -2   2  -5   -0.20    0.46
   5  -2   2   -0.59    0.85
  -2   2  -5   -0.49    0.85
   5   2   2    0.60    0.78
   2  -2   5    1.33    1.11
   2  -5   2    0.40    0.68
  -2  -2  -5   -0.11    0.73
   2   5  -2    0.38    0.52
   5  -2   2    0.25    0.65
  -2  -5  -2   -0.17    0.56
  -2  -5  -2   -0.71    0.72
   2   2  -5    0.68    0.93
   2   5  -2   -0.30    1.14
   2  -5   2   -0.17    0.17
   2  -5   2    1.87    1.20
   2  -5   3   -0.71    1.24
  -2   3  -5    0.06    0.88
   5  -3   2    0.14    0.64
   5   3  -2   -0.69    0.79
  -3  -2  -5   -1.01    0.95
   2   5  -3    0.23    0.46
   3   2  -5   -0.40    1.00
   5   2   3   -0.07    0.83
   3  -2   5    0.92    1.18
   5  -3   2    0.55    1.20
   3  -5  -1    1.47    0.98
   5   3  -1   -0.12    0.58
  -1   3  -5   -0.38    0.79
  -1   5   3    1.05    0.72
  -3  -1  -5   -1.14    0.92
   5   1   3    1.49    0.84
   5   3  -1   -0.89    0.79
  -3  -5   1   -0.53    0.65
  -5   1  -3   -0.69    0.67
   3   5   1   -0.66    0.76
  -1  -5  -3    0.76    0.76
  -3  -1  -5   -0.05    0.70
   3  -1   5    1.01    1.11
   3   1  -5    0.92    0.84
   5  -3   1    0.30    0.65
   0   3  -5    0.15    0.32
   0   3  -5    0.79    1.08
   5   0   3   -0.18    0.73
  -3   0  -5    1.21    0.95
   0   3  -5    0.05    0.78
   5   3   0    0.03    0.61
  -3  -5   0    0.83    0.70
   5   0   3   -0.06    0.86
  -3   0  -5   -0.14    0.65
   3   5   0   -0.27    0.68
   0  -5  -3    0.34    0.71
  -5  -3   0    0.76    0.74
   5  -3   0    0.50    0.72
   0   5  -3    1.88    1.18
   5   3   0    0.07    0.78
   3   0  -5    0.14    0.65
   0   5   3    0.13    0.80
  -5   0  -3    0.32    0.71
   3  -5   0    0.59    1.06
   1  -3   5    0.37    1.16
   5  -1   3    0.21    0.74
   1   3  -5    0.21    1.06
  -1  -3  -5    0.55    0.80
  -3   1  -5    0.67    0.65
  -3  -5  -1    0.38    0.71
   1  -5  -3    1.49    0.77
   1   3  -5   -0.14    0.47
   5   1  -3    0.65    0.83
   3   5  -1    1.47    0.70
  -5  -1  -3    0.64    0.78
   3  -5   1    0.43    1.20
   3  -5   2   -0.25    0.38
   2  -3   5    1.19    1.20
  -3   2  -5   -0.14    0.92
  -3  -5  -2    0.11    0.58
   3  -5   2    1.24    0.81
   3   5  -2    0.51    0.63
   2   3  -5   -0.52    1.04
   5   2  -3   -0.96    0.80
   2   3  -5   -0.03    0.53
  -3   2  -5   -0.12    0.50
   5  -2   3    0.05    0.68
   3  -5   2    1.71    1.24
   5   3  -3    0.06    0.78
   3   5  -3    0.04    0.59
   5   3   3   -0.92    0.89
  -3  -5  -3    0.04    0.72
  -3  -3  -5   -0.54    0.95
   3  -5   3    0.16    0.81
   5  -3   3   -0.68    1.30
   5  -3  -3   -0.86    0.79
   5  -3   3    0.39    0.61
   3   3  -5    0.57    0.65
   3  -3   5    0.15    1.24
   3   3  -5   -0.49    1.07
   3  -5   3    1.59    1.32
   5  -4   3   -0.70    0.60
  -4  -3  -5    0.92    0.99
  -3  -5  -4   -0.05    0.82
   5   3   4   -0.49    0.95
   5  -4   3    0.90    1.38
   3  -5   4   -0.41    1.38
   5   4  -3   -0.06    0.81
   4  -3   5    0.72    1.35
   4   3  -5    0.83    0.74
   3   5  -4    0.24    0.56
   4   2  -5   -0.19    1.02
   4  -5  -2   -0.53    0.91
   4   5   2    0.30    0.88
   5   4  -2   -0.21    0.45
   5  -4   2   -0.56    0.65
  -4  -2  -5    0.43    1.02
   2   5  -4   -0.12    0.39
   5   4  -2    0.39    0.81
   5   2   4   -0.83    0.92
   4   2  -5   -0.83    0.81
   4  -2   5    1.26    1.30
   5  -4   2   -0.90    1.29
   4   1  -5   -0.27    0.88
  -1   4  -5    0.32    0.82
  -5   1  -4    0.15    0.69
  -4  -1  -5    0.44    0.97
   5   1   4    1.03    0.83
   4  -1   5    0.30    0.66
   4   5   1   -0.62    0.84
  -4  -5   1   -0.26    0.71
   5   4  -1    0.99    0.85
   5  -4   1   -0.15    0.67
   4  -5  -1    0.86    1.05
   5  -4   1    0.88    1.19
  -4   0  -5   -0.30    0.99
  -4   0  -5   -0.95    0.74
   0   4  -5    0.79    0.76
   5   4   0    2.00    0.88
   5  -4   0   -0.89    0.75
   5  -4   0   -1.08    1.14
  -5   0  -4    0.23    0.74
   0   5   4    0.39    0.69
   4   0   5   -0.35    0.74
  -4  -5   0   -1.31    0.76
   4  -5   0    1.30    1.16
   4   5   0   -0.69    0.77
   5   0   4    0.68    0.76
   4   0  -5    0.06    0.75
   1  -4   5   -0.14    1.26
   1   4  -5    0.12    0.70
   5  -1   4   -0.06    0.73
   1   4  -5    0.06    0.15
   4   5  -1    0.76    0.74
   5   4   1   -0.51    0.82
   1   4  -5   -0.10    0.16
   5   1  -4    0.83    0.84
   4  -5   1    0.16    0.60
   5  -4  -1    0.63    1.03
   4  -1  -5    0.38    0.52
   4  -5   1   -0.80    1.19
  -4   1  -5    0.73    0.67
   2  -4   5    0.08    1.30
   5   4   2   -0.16    0.89
   4  -5   2    0.26    0.52
   2   4  -5    0.20    0.47
   4   5  -2   -0.11    0.69
   2   4  -5    0.30    0.66
  -4   2  -5   -0.26    0.59
   5  -2   4   -0.39    0.68
   5  -4  -2    0.47    0.92
   5   2  -4   -0.40    0.81
   4  -5   2    0.52    1.27
   4   5  -3   -0.05    0.71
   5   3  -4   -0.32    0.81
  -4  -5  -3    0.22    0.73
   3   4  -5   -0.08    0.56
   5  -4  -3   -0.70    0.81
  -3  -4  -5   -0.27    0.93
   5  -3   4    0.32    0.60
   4  -5   3    2.20    1.41
   3  -4   5   -0.97    1.37
  -4  -5  -4   -0.72    0.87
   5   4   4    0.09    0.97
   4   4  -5    0.56    0.68
  -4  -4  -5    0.35    0.97
   5   4  -4   -0.57    0.81
   4   5  -4    0.82    0.66
   5  -4   4    0.18    1.44
   4  -4   5   -0.09    1.45
   4  -5   4   -0.62    1.51
   5   0   5    0.66    0.80
   5  -5   0   -0.45    0.78
   5  -5   0    0.13    1.24
   5   5   0    0.95    0.89
   0   5   5   -0.05    0.46
   5   1   5    0.88    0.87
   5   5   1   -0.39    0.90
   5  -1   5   -0.35    0.75
   5   5  -1    0.21    0.83
   5   1  -5    1.47    0.90
   5  -5  -1   -0.85    1.12
  -5   1  -5   -0.47    0.70
   5  -5   1   -1.01    0.69
   5  -5   1    0.88    1.29
   2  -5   5    1.35    1.46
   2   5  -5   -0.27    0.57
   5   5  -2    0.99    0.84
  -5  -2  -5   -0.08    1.05
   5  -5   2   -0.35    0.61
   2   5  -5    0.32    0.30
   5  -2   5    0.93    0.72
   5   2   5    0.08    0.98
   5  -2   5    1.08    1.38
   5   2  -5    0.98    0.89
   5  -5   2    0.73    1.39
   5  -5  -2   -0.14    1.01
   5   5   2   -1.25    0.96
   5   3  -5   -0.60    0.87
  -5  -3  -5   -0.08    1.04
  -3  -5  -5   -0.07    0.95
   5   5   3    0.45    1.04
   5  -3   5   -0.27    1.45
   3   5  -5    0.40    0.50
   5  -5   3   -0.18    1.47
   5   5  -3    0.88    0.83
  -5  -4  -5   -0.07    1.03
  -4  -5  -5   -0.20    1.02
   5   4  -5   -0.25    0.79
   4   5  -5   -0.54    0.63
   5   5  -4   -0.42    0.76
   0  -6   0   -0.41    0.57
   6   0   0    0.34    0.82
   0   0  -6    0.14    0.65
   0   6   0   -1.27    1.09
   6  -1   0    0.07    0.80
   0  -1  -6   -0.38    0.72
   0   1  -6    0.24    0.62
   6   1   0   -0.26    0.81
   6   0   1   -0.52    0.88
   6   1   0   -0.57    0.83
   0  -6   1   -0.65    0.47
   6   0   1   -0.14    0.81
   0  -6  -1   -0.83    0.65
  -1  -6   0    0.36    0.60
  -1   6   0    0.22    1.05
   1  -6   0    0.71    0.57
  -1   0  -6   -0.47    0.64
   1   0   6    0.08    0.92
   0   6   1    0.45    1.05
   1   6   0    0.29    1.13
   6   0  -1   -1.06    0.85
   1   6   1    1.29    1.11
  -1  -1  -6   -0.11    0.70
  -1  -6   1   -0.19    0.52
   1  -6   1   -0.29    0.59
   6  -1   1   -0.39    0.81
   6   1   1    0.11    0.83
  -1   1  -6    0.55    0.61
  -1   1  -6   -0.14    0.94
   1  -6  -1    0.45    0.64
   6   1   1    0.64    0.84
  -1   6   1   -0.87    0.99
   1   1   6    1.14    0.80
   6  -1  -1   -0.42    0.81
   1  -6   1   -0.14    0.44
   1  -1   6    1.30    1.00
  -1  -6  -1    0.29    0.66
   6   2  -1    0.59    0.76
   6  -2   1   -0.32    0.78
  -1  -6  -2   -0.57    0.74
  -2  -1  -6   -0.23    0.73
   6   2  -1   -0.59    0.86
  -1   2  -6    0.27    0.92
   2  -1   6   -0.50    1.06
   1   2   6    0.42    0.70
  -2  -1  -6   -0.89    0.99
   6  -1  -2    0.22    0.89
  -1   6   2   -0.63    0.94
  -2  -6   1    0.43    0.58
  -1   2  -6   -0.09    0.50
   6   1   2    0.22    0.84
  -2   0  -6    0.20    0.69
   0   2  -6    0.96    0.56
   6   2   0   -0.84    0.79
  -2  -6   0    0.60    0.67
   0   2  -6   -0.44    0.88
   2  -6   0    0.85    0.58
   6   0   2    0.34    0.82
   2   0   6    0.69    1.01
   6   0  -2    0.37    0.87
   0  -6  -2    0.71    0.73
   0   6   2   -0.90    1.00
   6  -2   0    1.06    0.86
   1  -2   6   -0.46    1.09
   1   6   2    0.10    1.02
   1  -6  -2   -0.81    0.70
   2  -6   1    0.49    0.70
  -2   1  -6    1.45    0.98
   6   2   1   -0.40    0.82
   2   1   6    0.48    0.93
  -2  -6  -1    0.05    0.70
   6  -1   2    0.32    0.80
  -2   1  -6    0.37    0.59
   6  -2  -1   -0.07    0.82
   6   2   1   -0.75    0.85
   2  -6   1    0.12    0.45
   6   2  -2   -0.74    0.87
   6   2   2   -0.08    0.89
  -2   2  -6    1.15    1.00
  -2   2  -6    0.48    0.51
   2  -6   2    0.12    0.69
  -2  -6  -2    0.29    0.55
   6  -2   2   -1.40    0.79
  -2  -2  -6    0.68    1.03
   6  -2  -2   -0.08    0.85
   2   2  -6   -0.45    0.96
   2  -2   6    1.27    1.20
  -2   3  -6   -0.43    1.00
   6  -3   2    0.29    0.78
  -3  -2  -6   -0.31    1.04
   6   3  -2    0.08    0.90
   6   2   3   -0.16    0.91
   6  -3   2    0.24    1.32
   3   2  -6   -0.36    0.97
   3  -2   6   -0.36    1.23
   6  -3   1   -0.12    0.78
   6   3  -1    0.23    0.68
  -1   3  -6   -0.13    0.91
  -3  -1  -6   -0.16    1.00
   6   1   3   -0.38    0.86
   3  -1   6   -0.32    1.16
   6   3  -1    0.08    0.88
   6  -1  -3    0.40    0.87
   1   3   6    0.64    0.62
  -1   6   3   -0.92    0.80
   3   1  -6   -0.03    0.81
  -3  -6   1    0.19    0.66
  -1   3  -6   -0.20    0.30
   0   3  -6   -0.41    0.38
  -3  -6   0   -0.21    0.71
   3  -6   0    0.99    1.16
   6   0   3   -0.28    0.80
  -3   0  -6    0.71    0.96
   3   6   0   -0.93    0.80
   6   3   0    0.04    0.70
   0   3  -6   -0.12    0.88
  -3   0  -6    0.47    0.69
   3   0   6    0.59    1.14
   6   3   0    0.85    0.90
   6  -3   0   -0.66    0.84
   0   6   3    0.62    0.92
   1   6   3   -0.54    0.96
   6  -1   3   -0.97    0.82
   1  -3   6    2.61    1.29
   3  -6   1    0.28    1.23
   3  -6   1    1.02    0.83
  -3   1  -6   -0.40    0.65
   1   3  -6    0.62    0.88
   3   6  -1    0.66    0.69
   1   3  -6   -1.05    1.06
   6  -3  -1   -0.64    0.83
   6   1  -3    1.07    0.93
   6   2  -3    0.68    0.90
   3  -6   2    1.16    1.33
  -3   2  -6    0.63    1.08
   3  -6   2    0.15    0.81
   6   3   2   -0.08    0.94
   6  -3  -2   -0.23    0.89
   2   3  -6   -0.33    0.56
   3   6  -2    0.88    0.64
   6  -2   3    0.24    0.77
  -3   2  -6   -0.07    0.54
   2  -3   6    0.07    1.24
   3  -6   3    0.85    1.41
   6   3   3    0.26    0.95
  -3  -6  -3   -0.04    0.69
   6   3  -3   -0.68    0.89
   3   6  -3    0.41    0.59
  -3  -3  -6   -0.71    1.05
   6  -3  -3   -0.41    0.93
   6  -3   3   -0.34    1.43
   3   3  -6    0.52    0.65
   6  -3   3    0.32    0.75
   3  -3   6    2.44    1.39
   6   3   4    0.18    1.00
   3  -6   4   -0.73    1.54
   3   6  -4   -0.12    0.48
  -4  -3  -6    1.15    1.17
  -3  -6  -4    0.10    0.83
   6   4  -3   -0.08    0.90
   6  -4   3    0.18    1.52
   4   3  -6   -0.46    0.76
   4  -3   6    2.50    1.53
  -4  -2  -6    0.50    1.06
   6  -4   2    0.32    0.76
   6   2   4   -0.08    0.94
   6   4  -2   -0.23    0.89
   4   2  -6   -0.25    0.79
   6  -4   2   -1.16    1.42
   4  -2   6    0.32    1.38
   6  -4   1   -0.48    0.76
   6   1   4   -0.39    0.89
   4  -6  -1   -0.97    1.14
  -1   4  -6   -0.63    0.93
  -4  -1  -6    0.75    1.09
   4   6   1    1.10    0.91
   6   4  -1   -0.17    0.55
   4  -1   6   -0.96    1.30
   6  -4   1    0.53    1.33
   6   4  -1    1.32    0.88
   4  -6   0    0.33    1.24
   4   6   0    0.34    0.84
   6   4   0   -0.24    0.92
  -4   0  -6   -0.76    1.11
   0   4  -6   -0.45    0.87
   6   0  -4    1.32    0.99
   6  -4   0    0.20    1.22
   6   0   4    0.93    0.88
   0   6   4   -0.53    0.74
   6  -4   0    0.07    0.81
   1   6   4   -0.08    0.88
   4  -6   1   -0.96    1.34
  -4   1  -6    0.49    0.67
   1   4  -6    0.05    0.78
   4   6  -1    0.98    0.82
   6   4   1   -1.59    1.00
   6  -1   4   -0.26    0.83
   6  -4  -1    1.09    0.89
   4  -6   1    0.23    0.62
   6  -4  -1   -0.54    1.14
   6   1  -4    1.60    0.99
   4   6  -2    0.22    0.74
   2  -4   6    1.87    1.46
   2   4  -6    0.20    0.45
   2   4  -6    0.29    0.78
   6  -2   4    0.35    0.78
  -4   2  -6    0.16    0.57
   6  -4  -2    0.05    1.06
   6   2  -4    0.16    0.93
   4  -6   2   -0.57    1.40
   4  -6   3    0.54    1.53
   3   4  -6   -0.77    0.61
   6   3  -4   -0.61    0.98
  -3  -4  -6    0.23    1.12
   6  -3   4   -0.30    0.79
   6  -3   4   -1.92    1.57
   4   6  -3   -0.84    0.72
   3  -4   6    0.09    1.50
   4   4  -6    0.56    0.68
  -4  -4  -6   -1.29    1.08
   6   4  -4    1.27    0.99
   5   4  -6   -0.12    0.77
   6   5  -4    1.08    0.91
  -5  -3  -6   -0.26    1.13
  -3  -6  -5   -0.63    0.96
   6   5  -3   -0.07    0.93
   5   3  -6   -0.48    0.87
   6   5  -2    0.69    0.92
  -5  -2  -6   -0.62    1.15
   5   6   2    0.09    1.02
   5   2  -6   -1.10    0.96
   5  -2   6    0.62    1.47
   6  -5   2    1.93    1.51
   6   2   5    0.09    1.01
   6  -5   1    0.80    0.80
   5  -6  -1    0.12    1.19
  -5  -1  -6   -0.09    1.16
   5   6   1   -0.17    0.96
   6   1   5    0.90    0.96
   6   5  -1   -0.16    0.94
   5   1  -6    0.16    0.92
   5  -1   6   -1.09    1.45
   6  -5   1    0.08    1.38
   5   6   0   -0.77    0.94
   6   5   0    0.08    0.97
   5  -6   0   -0.39    0.77
   6   0  -5   -0.79    1.00
   6  -5   0    0.13    0.82
   6  -5   0   -0.86    1.33
   6   0   5    1.04    0.91
   5  -6   0    0.49    1.29
   5   6  -1    0.21    0.90
   1   5  -6    0.04    0.72
   6  -5  -1    0.66    0.91
   6  -1   5    0.07    0.86
   6   1  -5   -0.08    0.97
   6  -5  -1    2.32    1.26
   5  -6   1    0.87    1.42
   6   5   1   -0.88    1.00
   6   5   2    0.28    1.03
   5   6  -2    0.40    0.82
   6  -2   5    0.69    0.81
   6  -2   5   -2.51    1.61
   6   2  -5    0.08    0.95
   5  -6   2    0.35    1.50
   6   3  -5   -0.70    0.95
  -3  -5  -6    2.00    1.15
   5   6  -3    0.74    0.78
  -4  -5  -6    0.23    1.10
   6   4  -5    0.07    0.92
   6   6   0   -0.69    1.03
   6  -6   0    0.98    1.44
   6  -6  -1    0.15    0.93
   6   1  -6   -1.49    1.07
   6   6  -1    0.24    0.95
   6  -6   1    1.18    1.53
  -2  -6  -6   -0.68    1.09
   6   6  -2    0.31    0.94
   6   2  -6   -0.58    1.00
   6   3  -6   -0.94    0.99
   6   6  -3    1.09    0.93
   0  -7   0   -0.57    0.62
   0   0  -7   -0.27    0.73
   7   0  -1   -0.91    0.99
   7  -1   0    0.87    0.97
   0  -7  -1    0.66    0.71
   0   1  -7    0.09    0.66
  -1  -7   0   -0.09    0.63
   7   1   0   -0.83    0.96
   7   0   1   -0.08    0.90
  -1   0  -7   -0.22    0.71
   1   0   7    0.99    0.95
   1  -1   7    0.73    1.07
  -1   1  -7    0.05    0.62
   7  -1   1   -0.54    0.89
  -1   1  -7   -0.56    1.05
   7   1   1   -0.42    0.95
  -1  -7  -1    0.27    0.72
   1  -7  -1   -0.44    0.68
   1   1   7   -0.03    0.80
   7  -1  -1   -0.90    0.98
   7   1   2    1.01    0.94
   7  -2   1    0.30    0.89
  -1   2  -7    0.08    1.06
   7   2  -1   -0.26    0.98
  -2  -1  -7   -0.52    1.10
  -1   7   2    0.05    1.01
   2  -7  -1    0.50    0.72
  -1   2  -7   -0.48    0.52
   7  -1  -2    0.77    0.95
   1   2   7    0.19    0.66
   2  -1   7   -0.54    1.19
   7  -2   0   -1.09    0.93
  -2  -7   0   -0.05    0.71
   0   2  -7   -1.11    1.03
   0   2  -7   -0.07    0.55
   7   0   2   -0.80    0.93
   0   7   2    2.00    1.10
   2   0   7   -0.58    1.07
   7   0  -2   -0.60    1.02
   1  -2   7   -0.43    1.15
   1   2  -7   -0.20    0.61
  -2   1  -7    0.42    1.09
   7  -1   2    0.23    0.90
  -2   1  -7   -0.50    0.67
   2   1   7    0.46    0.95
   7   2   1   -0.87    1.01
   7  -2  -1   -1.97    0.98
   7   2   2    0.71    0.99
   7   2  -2   -0.78    1.00
  -2   2  -7    0.41    1.11
  -2  -2  -7    0.87    1.14
   7  -2   2   -0.86    0.89
   2   2   7   -0.04    0.87
   7  -2  -2    0.87    1.01
   2  -2   7   -0.41    1.27
  -2   3  -7   -0.41    1.10
  -3  -2  -7   -0.45    1.17
   7   3  -2   -0.09    0.98
   7  -3   2   -0.34    0.86
   7   2   3    0.64    1.06
   2   3   7    0.65    0.81
   7  -2  -3   -0.92    1.04
   3  -2   7    1.06    1.39
   7  -3   1    2.02    0.95
   7   3  -1   -0.05    0.76
  -1   3  -7    0.23    1.03
  -3  -1  -7   -0.72    1.17
   7   1   3    1.03    1.01
   7   3  -1    1.14    1.03
   7  -1  -3    0.18    1.00
   3  -1   7   -0.14    1.27
   7   0   3   -1.04    0.99
   0   3  -7    0.14    1.05
   7   3   0    0.34    0.76
   3   0   7    1.37    1.18
   0   7   3   -0.37    0.94
   7   3   0    0.27    1.01
   7  -3   0    1.38    0.95
   7   1  -3    0.62    0.99
   7  -1   3    0.15    0.90
  -3   1  -7    0.18    1.12
  -3   1  -7   -0.24    0.66
   1   3  -7    0.67    1.00
   3   1   7    0.11    1.12
   7  -3  -1    0.98    0.95
   2  -3   7   -1.00    1.41
   7   2  -3   -1.49    1.04
  -3   2  -7    0.53    1.18
   7   3   2    0.37    1.06
  -2  -3  -7    0.44    1.15
   2   3  -7   -0.36    0.57
   3   2   7    0.37    1.05
   7  -3  -2   -0.09    0.97
   7  -2   3   -0.28    0.89
  -3   3  -7    1.23    1.16
   7   3  -3    0.17    1.01
  -3  -3  -7   -0.90    1.19
   7  -3  -3    1.03    1.02
   3   3  -7   -0.10    0.65
   7  -3   3    0.38    0.84
   3  -3   7    0.50    1.54
   7   4  -3    0.69    1.04
   4   3  -7    0.89    0.80
   7  -4   2    0.32    0.84
   4   2  -7    0.94    0.88
   7   4  -2   -0.09    0.98
   4  -2   7   -0.25    1.49
   7  -4   1   -1.18    0.91
  -1   4  -7    0.58    1.05
  -4  -1  -7   -0.38    1.17
   7  -4   1   -1.34    1.47
   4  -1   7    0.78    1.46
   7   1   4    1.23    1.03
   7   4  -1   -0.09    0.99
   7   4   0   -1.46    1.07
  -4   0  -7    1.52    1.17
   0   4  -7   -0.13    1.01
   7  -4   0   -1.22    1.38
   4   0   7    0.07    1.34
   7   0   4    1.14    0.95
   7   0  -4   -2.05    1.08
   7  -4   0    1.06    0.97
   4  -7   1    1.14    1.49
   1   4  -7   -0.12    0.93
   7   4   1   -0.38    1.05
   7  -1   4    0.45    0.91
   4   1   7   -1.43    1.33
   7  -4  -1   -1.69    1.31
   4   7  -1   -0.19    0.77
   7  -4  -1    0.57    0.98
   7   1  -4   -1.55    1.07
   7   2  -4   -0.27    1.02
   2  -4   7   -1.46    1.54
   4  -7   2    0.89    1.54
   2   4  -7   -0.40    0.88
   7  -2   4   -0.20    0.89
  -2  -4  -7    0.09    1.20
   7  -4  -2   -0.88    1.06
   4   7  -2    0.06    0.69
   5   2  -7   -0.76    1.03
   5   1  -7   -0.99    1.05
   5  -7   0    0.30    1.44
   5   7   0   -0.95    0.99
   7   0   5    1.32    0.99
   5   0   7   -1.07    1.49
   7  -5   0    1.02    1.44
   7  -5   0    0.29    0.92
   5   7  -1   -0.72    0.88
   7  -1   5    1.19    0.94
   7  -5  -1   -0.08    0.98
   5   7  -2    0.46    0.79
   8   0   0   -1.48    1.23
   8   0  -1    0.47    1.07
   8  -1   0   -0.36    1.03
  -1   0  -8   -1.12    1.23
   8   1   0   -0.66    1.05
   0   1  -8    0.44    1.14
   8   0   1   -0.18    1.05
   8  -1  -1   -0.37    1.06
   8   1  -1   -1.53    1.12
  -1   1  -8    1.18    1.25
   8  -1   1   -0.35    1.00
   8   1   1    0.76    1.04
  -1   2  -8    2.38    1.28
   8  -2   1   -0.85    0.99
   2  -1   8   -0.44    1.21
   8  -2   0    1.06    1.08
   0   2  -8   -0.08    1.15
   8   0   2    0.09    1.03
   2   0   8    0.59    1.11
   8  -1   2   -0.86    1.02
   2  -2   8    0.78    1.43
   8  -2   2   -2.05    1.13
   8  -3   2    0.31    0.94
   3  -2   8   -0.47    1.46
  -1   3  -8   -1.19    1.19
   8  -3   1    0.16    1.00
   3  -1   8    1.00    1.33
   8  -3   0   -0.87    1.05
   0   3  -8    1.21    1.14
   3   0   8    0.38    1.21
   8  -1   3   -0.68    1.02
   1   3  -8    0.15    1.07
   3   1   8    1.88    1.17
   8  -2   3   -1.03    0.97
   2  -3   8    0.32    1.47
   2   3  -8    0.74    1.09
   0   4  -8    0.08    1.06
   4   0   8   -0.07    1.35
   1   4  -8    0.21    1.03
   4   1   8   -0.14    1.26
   0   0   0    0.00    0.00
;
_shelx_hkl_checksum              83470
loop_
_space_group_symop_operation_xyz
'x, y, z'
'-x, -y, z'
'-x, y, -z'
'x, -y, -z'
'z, x, y'
'z, -x, -y'
'-z, -x, y'
'-z, x, -y'
'y, z, x'
'-y, z, -x'
'y, -z, -x'
'-y, -z, x'
'y, x, -z'
'-y, -x, -z'
'y, -x, z'
'-y, x, z'
'x, z, -y'
'-x, z, y'
'-x, -z, -y'
'x, -z, y'
'z, y, -x'
'z, -y, x'
'-z, y, x'
'-z, -y, -x'
'-x, -y, -z'
'x, y, -z'
'x, -y, z'
'-x, y, z'
'-z, -x, -y'
'-z, x, y'
'z, x, -y'
'z, -x, y'
'-y, -z, -x'
'y, -z, x'
'-y, z, x'
'y, z, -x'
'-y, -x, z'
'y, x, z'
'-y, x, -z'
'y, -x, -z'
'-x, -z, y'
'x, -z, -y'
'x, z, y'
'-x, z, -y'
'-z, -y, x'
'-z, y, -x'
'z, -y, -x'
'z, y, x'
loop_
_atom_site_label
_atom_site_type_symbol
_atom_site_fract_x
_atom_site_fract_y
_atom_site_fract_z
_atom_site_U_iso_or_equiv
_atom_site_adp_type
_atom_site_occupancy
_atom_site_site_symmetry_order
_atom_site_calc_flag
_atom_site_refinement_flags_posn
_atom_site_refinement_flags_adp
_atom_site_refinement_flags_occupancy
Cl1 Cl 0.0000 0.0000 0.0000 0.177(7) Uani 1 48 d S T P
O1 O 0.0000 0.0000 0.231(3) 0.273(10) Uani 0.6666 8 d S T P
C2 C 0.3385(14) 0.3385(14) 0.5000 0.292(13) Uani 0.7785 4 d S T P
loop_
_atom_site_aniso_label
_atom_site_aniso_U_11
_atom_site_aniso_U_22
_atom_site_aniso_U_33
_atom_site_aniso_U_23
_atom_site_aniso_U_13
_atom_site_aniso_U_12
Cl1 0.177(7) 0.177(7) 0.177(7) 0.000 0.000 0.000
O1 0.306(18) 0.306(18) 0.207(18) 0.000 0.000 0.000
C2 0.293(15) 0.293(15) 0.29(2) 0.000 0.000 -0.109(11)
loop_
_atom_type_symbol
_atom_type_description
_atom_type_scat_dispersion_real
_atom_type_scat_dispersion_imag
_atom_type_scat_source
C C 0.0033 0.0016 'International Tables Vol C Tables 4.2.6.8 and 6.1.1.4'
H H 0.0000 0.0000 'International Tables Vol C Tables 4.2.6.8 and 6.1.1.4'
N N 0.0061 0.0033 'International Tables Vol C Tables 4.2.6.8 and 6.1.1.4'
O O 0.0106 0.0060 'International Tables Vol C Tables 4.2.6.8 and 6.1.1.4'
Cl Cl 0.1484 0.1585 'International Tables Vol C Tables 4.2.6.8 and 6.1.1.4'
loop_
_geom_angle_atom_site_label_1
_geom_angle_atom_site_label_2
_geom_angle_atom_site_label_3
_geom_angle
_geom_angle_site_symmetry_1
_geom_angle_site_symmetry_3
O1 Cl1 O1 90.0 . 33
O1 Cl1 O1 180.0 . 25
O1 Cl1 O1 90.0 33 25
O1 Cl1 O1 90.0 . 5
O1 Cl1 O1 90.0 33 5
O1 Cl1 O1 90.0 25 5
O1 Cl1 O1 90.0 . 29
O1 Cl1 O1 90.0 33 29
O1 Cl1 O1 90.0 25 29
O1 Cl1 O1 180.0 5 29
O1 Cl1 O1 90.0 . 9
O1 Cl1 O1 180.0 33 9
O1 Cl1 O1 90.0 25 9
O1 Cl1 O1 90.0 5 9
O1 Cl1 O1 90.0 29 9
C2 C2 C2 60.0 11_566 31_556
C2 C2 C2 90.001(3) 11_566 9
C2 C2 C2 120.001(5) 31_556 9
C2 C2 C2 120.001(6) 11_566 5
C2 C2 C2 90.000(4) 31_556 5
C2 C2 C2 60.0 9 5
C2 C2 C2 90.0 11_566 3_656
C2 C2 C2 45.000(1) 31_556 3_656
C2 C2 C2 90.001(2) 9 3_656
C2 C2 C2 45.000(1) 5 3_656
C2 C2 C2 45.000(1) 11_566 27_565
C2 C2 C2 90.0 31_556 27_565
C2 C2 C2 45.000(1) 9 27_565
C2 C2 C2 90.001(1) 5 27_565
C2 C2 C2 90.0 3_656 27_565
loop_
_geom_bond_atom_site_label_1
_geom_bond_atom_site_label_2
_geom_bond_distance
_geom_bond_site_symmetry_2
Cl1 O1 1.441(18) .
Cl1 O1 1.441(18) 33
Cl1 O1 1.441(18) 25
Cl1 O1 1.441(18) 5
Cl1 O1 1.441(18) 29
Cl1 O1 1.441(18) 9
C2 C2 1.422(12) 11_566
C2 C2 1.422(12) 31_556
C2 C2 1.422(12) 9
C2 C2 1.422(12) 5
C2 C2 2.011(17) 3_656
C2 C2 2.011(17) 27_565
