#------------------------------------------------------------------------------
#$Date: 2019-11-03 10:59:04 +0200 (Sun, 03 Nov 2019) $
#$Revision: 221204 $
#$URL: file:///home/coder/svn-repositories/cod/cif/4/12/80/4128073.cif $
#------------------------------------------------------------------------------
#
# This file is available in the Crystallography Open Database (COD),
# http://www.crystallography.net/
#
# All data on this site have been placed in the public domain by the
# contributors.
#
data_4128073
loop_
_publ_author_name
'Yang, Chen-Kai'
'Chen, Wang-Nan'
'Ding, Yan-Ting'
'Wang, Jing'
'Rao, Yin'
'Liao, Wei-Qiang'
'Xie, Yongfa'
'Zou, Wennan'
'Xiong, Ren-Gen'
_publ_section_title
;
 Directional Intermolecular Interactions for Precise Molecular Design of a
 High- T<sub>c</sub> Multiaxial Molecular Ferroelectric.
;
_journal_issue                   4
_journal_name_full               'Journal of the American Chemical Society'
_journal_page_first              1781
_journal_page_last               1787
_journal_paper_doi               10.1021/jacs.8b13223
_journal_volume                  141
_journal_year                    2019
_chemical_formula_moiety         'Cl O4, 0.89(C12)'
_chemical_formula_sum            'C7 H14 Cl N O5'
_chemical_formula_weight         227.64
_space_group_crystal_system      cubic
_space_group_IT_number           221
_space_group_name_Hall           '-P 4 2 3'
_space_group_name_H-M_alt        'P m -3 m'
_symmetry_space_group_name_Hall  '-P 4 2 3'
_symmetry_space_group_name_H-M   'P m -3 m'
_audit_creation_method           SHELXL-2014/7
_cell_angle_alpha                90
_cell_angle_beta                 90
_cell_angle_gamma                90
_cell_formula_units_Z            1
_cell_length_a                   6.1928(7)
_cell_length_b                   6.1928(7)
_cell_length_c                   6.1928(7)
_cell_measurement_reflns_used    88
_cell_measurement_temperature    93(2)
_cell_measurement_theta_max      28.2430
_cell_measurement_theta_min      3.2850
_cell_volume                     237.50(5)
_computing_cell_refinement       'CrysAlisPro 1.171.39.46 (Rigaku OD, 2018)'
_computing_data_collection       'CrysAlisPro 1.171.39.46 (Rigaku OD, 2018)'
_computing_data_reduction        'CrysAlisPro 1.171.39.46 (Rigaku OD, 2018)'
_computing_molecular_graphics    'DIAMOND (Brandenburg & Putz, 2005)'
_computing_publication_material  'SHELXL-2014/7 (Sheldrick, 2014)'
_computing_structure_refinement  'SHELXL-2014/7 (Sheldrick, 2014)'
_computing_structure_solution    'SHELXL-2014/7 (Sheldrick, 2014)'
_diffrn_ambient_temperature      93(2)
_diffrn_measured_fraction_theta_full 1.000
_diffrn_measured_fraction_theta_max 1.000
_diffrn_measurement_device_type  'XtaLAB Synergy R, DW system, HyPix'
_diffrn_measurement_method       'four-circle diffractometer'
_diffrn_radiation_type           MoK\a
_diffrn_radiation_wavelength     0.71073
_diffrn_reflns_av_R_equivalents  0.0707
_diffrn_reflns_av_unetI/netI     0.0581
_diffrn_reflns_Laue_measured_fraction_full 1.000
_diffrn_reflns_Laue_measured_fraction_max 1.000
_diffrn_reflns_limit_h_max       7
_diffrn_reflns_limit_h_min       -3
_diffrn_reflns_limit_k_max       7
_diffrn_reflns_limit_k_min       -7
_diffrn_reflns_limit_l_max       7
_diffrn_reflns_limit_l_min       -4
_diffrn_reflns_number            329
_diffrn_reflns_point_group_measured_fraction_full 1.000
_diffrn_reflns_point_group_measured_fraction_max 1.000
_diffrn_reflns_theta_full        25.242
_diffrn_reflns_theta_max         25.914
_diffrn_reflns_theta_min         3.290
_diffrn_source                   'Rotating-anode X-ray tube'
_exptl_absorpt_coefficient_mu    0.392
_exptl_absorpt_correction_T_max  0.925
_exptl_absorpt_correction_T_min  0.921
_exptl_absorpt_correction_type   multi-scan
_exptl_absorpt_process_details   'CrysAlisPro 1.171.39.46 (Rigaku OD, 2018)'
_exptl_crystal_colour            colourless
_exptl_crystal_density_diffrn    1.592
_exptl_crystal_description       block
_exptl_crystal_F_000             113
_exptl_crystal_size_max          0.210
_exptl_crystal_size_mid          0.200
_exptl_crystal_size_min          0.200
_refine_diff_density_max         0.161
_refine_diff_density_min         -0.191
_refine_diff_density_rms         0.049
_refine_ls_extinction_method     none
_refine_ls_goodness_of_fit_ref   1.020
_refine_ls_hydrogen_treatment    undef
_refine_ls_matrix_type           full
_refine_ls_number_parameters     9
_refine_ls_number_reflns         72
_refine_ls_number_restraints     0
_refine_ls_restrained_S_all      1.020
_refine_ls_R_factor_all          0.1335
_refine_ls_R_factor_gt           0.0999
_refine_ls_shift/su_max          0.000
_refine_ls_shift/su_mean         0.000
_refine_ls_structure_factor_coef Fsqd
_refine_ls_weighting_details
'w=1/[\s^2^(Fo^2^)+(0.0300P)^2^+0.3600P] where P=(Fo^2^+2Fc^2^)/3'
_refine_ls_weighting_scheme      calc
_refine_ls_wR_factor_gt          0.2386
_refine_ls_wR_factor_ref         0.2536
_reflns_Friedel_coverage         0.000
_reflns_number_gt                34
_reflns_number_total             72
_reflns_threshold_expression     'I > 2\s(I)'
_cod_data_source_file            ja8b13223_si_003.cif
_cod_data_source_block           Pm3m
_cod_original_cell_volume        237.50(8)
_cod_database_code               4128073
_shelx_shelxl_version_number     2014/7
_shelx_space_group_comment
;
The symmetry employed for this shelxl refinement is uniquely defined
by the following loop, which should always be used as a source of
symmetry information in preference to the above space-group names.
They are only intended as comments.
;
_shelx_estimated_absorpt_t_min   0.921
_shelx_estimated_absorpt_t_max   0.924
_shelx_res_file
;

    Pm3m.res created by SHELXL-2014/7


TITL Pm3m in Pm-3m
CELL 0.71073   6.1928   6.1928   6.1928  90.000  90.000  90.000
ZERR    1.00   0.0007   0.0007   0.0007   0.000   0.000   0.000
LATT 1
SYMM -X, -Y, Z
SYMM -X, Y, -Z
SYMM X, -Y, -Z
SYMM Z, X, Y
SYMM Z, -X, -Y
SYMM -Z, -X, Y
SYMM -Z, X, -Y
SYMM Y, Z, X
SYMM -Y, Z, -X
SYMM Y, -Z, -X
SYMM -Y, -Z, X
SYMM Y, X, -Z
SYMM -Y, -X, -Z
SYMM Y, -X, Z
SYMM -Y, X, Z
SYMM X, Z, -Y
SYMM -X, Z, Y
SYMM -X, -Z, -Y
SYMM X, -Z, Y
SYMM Z, Y, -X
SYMM Z, -Y, X
SYMM -Z, Y, X
SYMM -Z, -Y, -X
SFAC C  H  N  O  Cl
UNIT 7 14 1 5 1
L.S. 10
OMIT 0 52
ACTA
BOND
FMAP 2
PLAN 20
TEMP -180
SIZE 0.21 0.20 0.20
WGHT    0.030000    0.360000
FVAR       2.21112
MOLE 1
CL1   5    0.000000    0.000000    0.000000    10.02083    0.19161    0.19161 =
         0.19161    0.00000    0.00000    0.00000
O1    4    0.223396    0.000000    0.000000    10.08333    0.21139    0.27027 =
         0.27027    0.00000    0.00000    0.00000
C1    1    0.500000    0.320241    0.320241    10.22238    0.25408    0.30342 =
         0.30342   -0.06636    0.00000    0.00000
HKLF 4

REM  Pm3m in Pm-3m
REM R1 =  0.0999 for      34 Fo > 4sig(Fo)  and  0.1335 for all      72 data
REM      9 parameters refined using      0 restraints

END

WGHT      0.2000      0.0000

REM Highest difference peak  0.161,  deepest hole -0.191,  1-sigma level  0.049
Q1    1   0.3108  0.0000  0.0000  10.12500  0.05    0.15
Q2    1   0.5000  0.2841  0.1048  10.50000  0.05    0.12
Q3    1   0.1323  0.1323  0.1323  10.16667  0.05    0.11
Q4    1   0.5000  0.3826  0.3244  10.50000  0.05    0.09
Q5    1   0.4262  0.3058  0.4262  10.50000  0.05    0.07
Q6    1   0.5000  0.0000  0.5000  10.06250  0.05    0.07
Q7    1   0.5000  0.0968  0.0000  10.25000  0.05    0.03
;
_shelx_res_checksum              99599
_shelx_hkl_file
;
   0  -1   0   49.15    4.05
   1   1  -1  486.43   39.98
   0  -1   1 4907.08  454.64
  -1   0   1 6047.52  454.64
   1   0  -1 5455.98  454.64
   0  -2   0  820.19   67.40
   1   2  -1   13.26    0.94
   2   1  -1   14.69    0.94
  -1   2   1    9.80    0.91
   1   1  -2    9.98    0.93
   1  -2   0  615.21   50.93
  -1   0   2  608.04   50.93
   0  -2   1  646.28   50.94
  -1  -1   2   10.94    1.07
  -1  -2   1   15.26    1.08
   2   2  -2    0.98    0.18
   2   1  -2   23.31    1.94
   2   2  -1   24.59    1.94
   1   2  -2   21.76    1.94
   2   0  -2   21.19    1.80
   0  -2   2   22.65    1.82
   2  -2  -1   20.63    1.70
   0   3   0  407.59   33.51
   1  -3   1   81.96    6.74
  -1   3   1   81.50    6.73
   0   3   1   38.94    2.78
   0  -3   1   33.46    2.79
   1  -3   0   34.98    2.78
   0   3  -1   29.40    2.78
  -1   0   3   28.74    2.77
   1   3   0   36.88    2.79
  -1  -1   3   79.65    7.35
  -1  -3   1  102.96    7.36
   2   3  -2   -0.07    0.18
   3   2  -2   -0.28    0.17
   2   2  -3    0.08    0.16
   2   3  -1    4.02    0.38
   1  -3   2    2.66    0.36
   1   3  -2    3.29    0.37
   3   1  -2    3.47    0.35
   2  -3   1    3.01    0.35
   2   1  -3    2.81    0.35
  -1   3   2    3.76    0.32
  -2   1   3    3.95    0.32
   0  -3   2   92.73    7.63
   2  -3   0   84.39    7.62
  -2   0   3   95.12    7.62
   3   0  -2   99.02    7.62
   2  -3  -1    3.75    0.34
  -1  -2   3    3.28    0.39
  -2  -1   3    3.86    0.38
   3  -1  -2    3.93    0.34
  -1  -3   2    4.17    0.40
  -2  -2   3    0.38    0.19
   3   3  -3    0.28    0.23
   3   2  -3   14.28    1.15
   3   3  -2   13.05    1.16
   2   3  -3   12.41    1.15
   3   3  -1   15.51    1.16
   1  -3   3   11.58    1.15
   3   1  -3   13.23    1.13
   0  -3   3    4.49    0.45
   3   0  -3    4.35    0.41
   3  -3  -1   11.76    0.98
  -2  -3   3   16.39    1.41
   0   4   0   64.39    5.33
  -1   4   1   21.24    1.87
   1   4  -1   23.51    1.90
   1  -4   1   23.29    1.89
   1  -4   0   42.88    3.31
  -1   0   4   35.37    3.30
   0   4  -1   35.68    3.32
   0   4   1   39.99    3.31
   1   4   0   43.67    3.32
   0  -4   1   43.84    3.32
  -1  -1   4   20.73    1.92
   1   4   1   25.42    1.93
   4   2  -2   10.86    0.85
   2   4  -2   10.46    0.86
   2  -4   2    9.38    0.84
  -2   2   4    8.90    0.79
  -2   1   4    3.67    0.35
   4   1  -2    4.15    0.40
   2  -4   1    4.03    0.39
  -1   4   2    3.61    0.35
   1  -4   2    3.29    0.40
   2   4   0   14.41    1.09
   0   4   2   12.97    1.06
  -2   0   4   11.15    1.06
   0  -4   2   12.13    1.08
   0  -2   4   11.12    1.08
   2  -4   0   12.18    1.06
   4   0  -2   13.36    1.06
  -1  -4   2    4.48    0.44
  -2  -1   4    3.49    0.40
  -1  -2   4    3.57    0.41
   4  -1  -2    4.17    0.37
   4  -2  -2    9.00    0.78
  -2  -2   4   10.66    0.84
   3   3  -4    2.94    0.39
   3   4  -3    2.67    0.40
   4   3  -3    3.06    0.39
   3  -4   3    2.61    0.39
   3   4  -2   -0.34    0.26
   4   3  -2   -0.03    0.25
   3  -4   2   -0.05    0.23
   2   4  -3    0.53    0.25
   4   2  -3    0.08    0.22
   2  -4   3    0.05    0.25
   3   2  -4    0.03    0.22
   4   1  -3    5.79    0.54
  -1   4   3    5.77    0.50
   3  -4   1    4.70    0.54
   1  -4   3    5.61    0.57
   3   4  -1    5.32    0.58
   4   3  -1    6.95    0.58
   1  -3   4    5.78    0.58
   0  -4   3    8.27    0.72
   3  -4   0    7.12    0.66
   4   0  -3    7.35    0.66
   4  -1  -3    4.79    0.48
  -1  -4   3    6.22    0.57
   3  -4  -1    5.74    0.48
  -1  -3   4    5.94    0.56
  -2  -3   4    0.03    0.26
   4   4  -4    0.11    0.30
   3   4  -4    0.25    0.28
   4   3  -4   -0.07    0.26
   4   4  -3   -0.07    0.28
   2  -4   4    0.25    0.28
   4   2  -4    0.36    0.25
   4   4  -2    0.76    0.29
   4   4  -1    2.05    0.35
   4   1  -4    1.90    0.29
   1  -4   4    1.87    0.35
   4  -4   0    1.02    0.23
   4   4   0    2.13    0.34
   0  -4   4    1.88    0.33
   4  -4  -1    1.82    0.22
  -2  -4   4    0.50    0.30
   0   5   0    0.28    0.22
  -1   5   1    0.14    0.18
   1   5  -1    0.06    0.24
   1  -5   1    0.11    0.24
   0   5   1    8.74    0.83
  -1   0   5    8.52    0.83
   0   5  -1    7.91    0.84
   1   5   0   10.24    0.86
  -1  -1   5    0.02    0.23
   1   5   1    0.39    0.23
   5   2  -2    0.06    0.25
  -2   2   5   -0.01    0.14
   2  -5   2    0.10    0.26
   1   5  -2    1.43    0.30
  -1   5   2    0.77    0.20
   2  -5   1    1.13    0.27
   1  -5   2    1.56    0.31
   5   1  -2    1.35    0.26
  -2   1   5    0.84    0.20
   2   5  -1    1.50    0.31
   0  -2   5    0.11    0.25
   0  -5   2   -0.08    0.27
   0   5   2    0.02    0.20
   2  -5   0    0.11    0.20
   5   0  -2    0.13    0.19
   2   5   0   -0.24    0.27
  -2   0   5   -0.05    0.21
  -1  -5   2    1.98    0.32
  -2  -1   5    0.42    0.25
   2   5   1    1.23    0.29
  -1  -2   5    0.74    0.28
   1   5   2    1.05    0.25
   5  -1  -2    1.57    0.22
  -2  -2   5   -0.29    0.26
   5  -2  -2    0.33    0.14
   3   5  -3   -0.15    0.29
   3  -5   3   -0.25    0.28
   5   3  -3    0.10    0.28
   5   2  -3   -0.09    0.26
   2   5  -3    0.47    0.28
   3  -5   2    0.03    0.26
   2  -5   3   -0.06    0.28
   3   5  -2    0.29    0.29
   5   3  -2    0.70    0.29
   1  -5   3    0.39    0.29
   5   1  -3    0.35    0.23
   5   3  -1    0.43    0.28
  -1   5   3    0.33    0.15
   3  -5   1    0.20    0.23
   0   5   3    0.37    0.21
   3  -5   0    0.26    0.20
   0  -3   5    0.58    0.28
  -3   0   5    0.30    0.21
   0  -5   3    0.31    0.29
   5   0  -3    0.27    0.20
   3   5   0    0.57    0.30
  -1  -3   5   -0.15    0.29
  -3  -1   5    0.55    0.24
   3   5   1    0.79    0.29
   5  -1  -3    0.08    0.15
  -1  -5   3    0.73    0.31
  -3  -2   5    0.61    0.28
  -2  -3   5    0.27    0.29
  -3  -3   5    0.22    0.29
   4   5  -4    0.22    0.33
   5   4  -4   -0.36    0.35
   3   5  -4   -0.25    0.32
   5   3  -4    0.04    0.29
   4   5  -3   -0.25    0.31
   5   4  -3   -0.04    0.30
   4  -5   2    0.22    0.26
   5   2  -4    0.27    0.26
   5   4  -2    0.19    0.31
   4   5  -2   -0.24    0.32
   5   1  -4   -0.02    0.22
   5   4  -1    0.49    0.30
   4  -5   1   -0.11    0.23
   4   5  -1   -0.08    0.30
  -1   5   4    0.01    0.15
   5   0  -4    0.14    0.19
   0   5   4    0.46    0.21
   4  -5   0   -0.22    0.20
   5  -4  -1    0.05    0.14
   4   5   1    0.08    0.29
   5   4  -5   -0.08    0.35
   5   5  -3   -0.35    0.34
   5  -5   2   -0.09    0.28
   5   5  -2   -0.43    0.35
   5  -5   1   -0.33    0.25
  -1   5   5   -0.07    0.15
   5   5   0    0.17    0.33
   0   6   0    0.22    0.24
  -1   1   6    0.39    0.23
   1   6  -1    0.10    0.26
   1  -6   1    0.40    0.27
   0  -1   6   -0.20    0.26
  -1   0   6   -0.40    0.24
   0   6   1   -0.03    0.22
   1   6   0    0.18    0.25
   0   6  -1    0.06    0.24
   1   6   1    0.03    0.25
  -1  -1   6   -0.03    0.25
   6   2  -2    0.22    0.28
   2   6  -2    0.54    0.28
   2  -6   2   -0.38    0.29
  -2   2   6   -0.18    0.17
   1  -6   2    0.15    0.29
   1   6  -2   -0.32    0.28
  -1   6   2   -0.05    0.19
   2  -6   1   -0.23    0.25
   2   6  -1    0.04    0.30
   6   1  -2   -0.16    0.25
  -2   1   6   -0.02    0.20
   0  -6   2    0.12    0.29
   2   6   0    0.10    0.29
   0  -2   6    0.22    0.28
   6   0  -2   -0.34    0.23
   0   6   2   -0.18    0.23
  -2   0   6   -0.11    0.23
  -2  -1   6   -0.13    0.26
   1   6   2    0.03    0.25
  -1  -2   6   -0.03    0.28
   2   6   1   -0.13    0.27
   6  -1  -2    0.41    0.21
   6  -2  -2   -0.01    0.16
   2   6   2    0.10    0.28
  -2  -2   6    0.03    0.29
   3   6  -3   -0.31    0.34
   6   3  -3    0.04    0.33
  -2   3   6   -0.07    0.12
   3  -6   2   -0.26    0.29
   6   2  -3   -0.41    0.29
   6   3  -2    0.26    0.29
   6   3  -1    0.26    0.31
  -1   6   3    0.08    0.18
   6   1  -3   -0.05    0.25
   3  -6   1   -0.20    0.26
   3   6  -1   -0.36    0.33
   6   0  -3   -0.23    0.22
   0   6   3    0.02    0.22
   3  -6   0   -0.02    0.22
   3   6   0   -0.08    0.30
  -3   0   6    0.18    0.23
   1   6   3    0.21    0.26
   6  -1  -3   -0.22    0.18
  -3  -1   6    0.15    0.25
   3   6   1   -0.04    0.31
  -3  -2   6    0.18    0.28
   3   6   2   -0.11    0.31
   2   6   3    0.03    0.29
   6   3  -4   -0.15    0.32
   6   4  -3   -0.42    0.37
   6   2  -4   -0.06    0.29
   6   4  -2   -0.04    0.35
   4   6  -2   -0.18    0.33
   4  -6   1   -0.17    0.27
  -1   6   4   -0.05    0.16
   6   1  -4   -0.37    0.25
   6   4  -1    0.08    0.33
   6   4   0    0.46    0.34
   6   0  -4    0.18    0.21
   0   6   4   -0.28    0.23
   4   6   0   -0.04    0.34
   1   6   4    0.13    0.27
   4   6   1   -0.59    0.35
   4   6   2   -0.21    0.34
   6   3  -5   -0.19    0.34
   6   2  -5   -0.19    0.31
   0   6   5    0.23    0.23
   1   6   5    0.40    0.29
   0   7   0   -0.03    0.28
   0   0   7    0.06    0.27
   1   7  -1   -0.26    0.30
  -1   1   7   -0.07    0.24
   0   7   1    0.12    0.26
   1   7   0    0.21    0.27
  -1   0   7    0.22    0.27
   1   7   1    0.07    0.28
   7   2  -2   -0.14    0.32
   2   7  -2   -0.61    0.34
  -1   2   7   -0.18    0.22
   2   7  -1   -0.04    0.32
   7   1  -2    0.03    0.29
   2  -7   1    0.11    0.29
  -2   1   7   -0.06    0.23
  -2   0   7   -0.57    0.28
   0   7   2   -0.05    0.24
   2   7   0    0.08    0.30
   7   0  -2    0.08    0.26
   2   7   1   -0.26    0.33
   7  -1  -2    0.27    0.24
   1   7   2   -0.44    0.30
   2   7   2    0.04    0.32
   7   3  -3   -0.48    0.38
   7   2  -3   -0.21    0.34
   7   3  -2    0.08    0.35
   7   1  -3    0.03    0.29
   7   3  -1    0.62    0.36
   3   7  -1   -0.22    0.36
   7   0  -3    0.05    0.25
   0   7   3   -0.14    0.25
  -3   0   7   -0.16    0.25
   3   7   0   -0.26    0.35
   1   7   3    0.03    0.29
   3   7   1   -0.04    0.34
  -3  -1   7    0.11    0.29
   2   7   3    0.07    0.34
   3   7   2    0.41    0.37
   3   7   3    0.52    0.38
   7   2  -4    0.24    0.33
   1   7   4    0.03    0.31
   2   7   4    0.10    0.35
   1   8  -1   -0.17    0.35
   1   8   0    0.27    0.33
   0   8   1   -0.10    0.32
   1   8   1   -0.37    0.33
   8   2  -2    0.27    0.37
   8   1  -2    0.10    0.35
   8   2  -1    0.53    0.37
   0   8   2   -0.47    0.29
   1   8   2    0.44    0.33
   2   8   1    0.04    0.35
   2   8   2   -0.27    0.37
   1   8   3    0.32    0.33
   2   8   3   -0.37    0.38
   0   0   0    0.00    0.00
;
_shelx_hkl_checksum              73419
loop_
_space_group_symop_operation_xyz
'x, y, z'
'-x, -y, z'
'-x, y, -z'
'x, -y, -z'
'z, x, y'
'z, -x, -y'
'-z, -x, y'
'-z, x, -y'
'y, z, x'
'-y, z, -x'
'y, -z, -x'
'-y, -z, x'
'y, x, -z'
'-y, -x, -z'
'y, -x, z'
'-y, x, z'
'x, z, -y'
'-x, z, y'
'-x, -z, -y'
'x, -z, y'
'z, y, -x'
'z, -y, x'
'-z, y, x'
'-z, -y, -x'
'-x, -y, -z'
'x, y, -z'
'x, -y, z'
'-x, y, z'
'-z, -x, -y'
'-z, x, y'
'z, x, -y'
'z, -x, y'
'-y, -z, -x'
'y, -z, x'
'-y, z, x'
'y, z, -x'
'-y, -x, z'
'y, x, z'
'-y, x, -z'
'y, -x, -z'
'-x, -z, y'
'x, -z, -y'
'x, z, y'
'-x, z, -y'
'-z, -y, x'
'-z, y, -x'
'z, -y, -x'
'z, y, x'
loop_
_atom_site_label
_atom_site_type_symbol
_atom_site_fract_x
_atom_site_fract_y
_atom_site_fract_z
_atom_site_U_iso_or_equiv
_atom_site_adp_type
_atom_site_occupancy
_atom_site_site_symmetry_order
_atom_site_calc_flag
_atom_site_refinement_flags_posn
_atom_site_refinement_flags_adp
_atom_site_refinement_flags_occupancy
Cl1 Cl 0.0000 0.0000 0.0000 0.192(7) Uani 1 48 d S T P
O1 O 0.223(4) 0.0000 0.0000 0.251(11) Uani 0.6666 8 d S T P
C1 C 0.5000 0.3202(15) 0.3202(15) 0.287(13) Uani 0.8895 4 d S T P
loop_
_atom_site_aniso_label
_atom_site_aniso_U_11
_atom_site_aniso_U_22
_atom_site_aniso_U_33
_atom_site_aniso_U_23
_atom_site_aniso_U_13
_atom_site_aniso_U_12
Cl1 0.192(7) 0.192(7) 0.192(7) 0.000 0.000 0.000
O1 0.211(17) 0.270(16) 0.270(16) 0.000 0.000 0.000
C1 0.254(16) 0.303(14) 0.303(14) -0.066(10) 0.000 0.000
loop_
_atom_type_symbol
_atom_type_description
_atom_type_scat_dispersion_real
_atom_type_scat_dispersion_imag
_atom_type_scat_source
C C 0.0033 0.0016 'International Tables Vol C Tables 4.2.6.8 and 6.1.1.4'
H H 0.0000 0.0000 'International Tables Vol C Tables 4.2.6.8 and 6.1.1.4'
N N 0.0061 0.0033 'International Tables Vol C Tables 4.2.6.8 and 6.1.1.4'
O O 0.0106 0.0060 'International Tables Vol C Tables 4.2.6.8 and 6.1.1.4'
Cl Cl 0.1484 0.1585 'International Tables Vol C Tables 4.2.6.8 and 6.1.1.4'
loop_
_geom_angle_atom_site_label_1
_geom_angle_atom_site_label_2
_geom_angle_atom_site_label_3
_geom_angle
_geom_angle_site_symmetry_1
_geom_angle_site_symmetry_3
O1 Cl1 O1 90.0 . 33
O1 Cl1 O1 180.0 . 25
O1 Cl1 O1 90.0 33 25
O1 Cl1 O1 90.0 . 5
O1 Cl1 O1 90.0 33 5
O1 Cl1 O1 90.0 25 5
O1 Cl1 O1 90.0 . 29
O1 Cl1 O1 90.0 33 29
O1 Cl1 O1 90.0 25 29
O1 Cl1 O1 180.0 5 29
O1 Cl1 O1 90.0 . 9
O1 Cl1 O1 180.0 33 9
O1 Cl1 O1 90.0 25 9
O1 Cl1 O1 90.0 5 9
O1 Cl1 O1 90.0 29 9
C1 C1 C1 60.0 10_656 30_655
C1 C1 C1 119.998(1) 10_656 5
C1 C1 C1 89.999(2) 30_655 5
C1 C1 C1 90.0 10_656 9
C1 C1 C1 119.998(1) 30_655 9
C1 C1 C1 59.999(1) 5 9
loop_
_geom_bond_atom_site_label_1
_geom_bond_atom_site_label_2
_geom_bond_distance
_geom_bond_site_symmetry_2
Cl1 O1 1.38(2) .
Cl1 O1 1.38(2) 33
Cl1 O1 1.38(2) 25
Cl1 O1 1.38(2) 5
Cl1 O1 1.38(2) 29
Cl1 O1 1.38(2) 9
C1 C1 1.574(13) 10_656
C1 C1 1.574(13) 30_655
C1 C1 1.574(13) 5
C1 C1 1.574(13) 9
