#------------------------------------------------------------------------------
#$Date: 2019-11-03 15:39:56 +0200 (Sun, 03 Nov 2019) $
#$Revision: 221780 $
#$URL: file:///home/coder/svn-repositories/cod/cif/4/12/87/4128703.cif $
#------------------------------------------------------------------------------
#
# This file is available in the Crystallography Open Database (COD),
# http://www.crystallography.net/
#
# All data on this site have been placed in the public domain by the
# contributors.
#
data_4128703
loop_
_publ_author_name
'Harada, Jun'
'Kawamura, Yuto'
'Takahashi, Yukihiro'
'Uemura, Yohei'
'Hasegawa, Tatsuo'
'Taniguchi, Hiroki'
'Maruyama, Koji'
_publ_section_title
;
 Plastic/Ferroelectric Crystals with Easily Switchable Polarization:
 Low-Voltage Operation, Unprecedentedly High Pyroelectric Performance, and
 Large Piezoelectric Effect in Polycrystalline Forms.
;
_journal_issue                   23
_journal_name_full               'Journal of the American Chemical Society'
_journal_page_first              9349
_journal_page_last               9357
_journal_paper_doi               10.1021/jacs.9b03369
_journal_volume                  141
_journal_year                    2019
_chemical_formula_moiety         '4(O1 Re0.25), 4(C1.75)'
_chemical_formula_sum            'C6 H12 N O4 Re'
_chemical_formula_weight         348.37
_space_group_crystal_system      cubic
_space_group_IT_number           221
_space_group_name_Hall           '-P 4 2 3'
_space_group_name_H-M_alt        'P m -3 m'
_atom_sites_solution_primary     dual
_audit_creation_date             2019-02-06
_audit_creation_method
;
Olex2 1.2
(compiled 2018.05.29 svn.r3508 for OlexSys, GUI svn.r5506)
;
_cell_angle_alpha                90
_cell_angle_beta                 90
_cell_angle_gamma                90
_cell_formula_units_Z            1
_cell_length_a                   6.2087(8)
_cell_length_b                   6.2087(8)
_cell_length_c                   6.2087(8)
_cell_measurement_reflns_used    1905
_cell_measurement_temperature    330
_cell_measurement_theta_max      21.773
_cell_measurement_theta_min      3.281
_cell_volume                     239.33(5)
_computing_cell_refinement       'SAINT v8.34A (Bruker, 2013)'
_computing_data_collection       'Bruker APEX2 2014.1-1 (Bruker, 2014)'
_computing_data_reduction        'SAINT v8.34A (Bruker, 2013)'
_computing_molecular_graphics    'Mercury (Macrae et al., 2006)'
_computing_publication_material  'Olex2 (Dolomanov et al., 2009)'
_computing_structure_refinement  'SHELXL-2018/3 (Sheldrick, 2018)'
_computing_structure_solution    'ShelXS (Sheldrick, 2008)'
_diffrn_ambient_temperature      330
_diffrn_detector_area_resol_mean 8.3333
_diffrn_measured_fraction_theta_full 1.000
_diffrn_measured_fraction_theta_max 0.976
_diffrn_measurement_device_type  'Bruker APEX-II CCD'
_diffrn_measurement_method       '\f and \w scans'
_diffrn_radiation_type           MoK\a
_diffrn_radiation_wavelength     0.71073
_diffrn_reflns_av_R_equivalents  0.0204
_diffrn_reflns_av_unetI/netI     0.0048
_diffrn_reflns_Laue_measured_fraction_full 1.000
_diffrn_reflns_Laue_measured_fraction_max 0.976
_diffrn_reflns_limit_h_max       8
_diffrn_reflns_limit_h_min       -8
_diffrn_reflns_limit_k_max       7
_diffrn_reflns_limit_k_min       -8
_diffrn_reflns_limit_l_max       8
_diffrn_reflns_limit_l_min       -8
_diffrn_reflns_number            3418
_diffrn_reflns_point_group_measured_fraction_full 1.000
_diffrn_reflns_point_group_measured_fraction_max 0.976
_diffrn_reflns_theta_full        25.242
_diffrn_reflns_theta_max         27.481
_diffrn_reflns_theta_min         3.281
_diffrn_source                   'rotating-anode X-ray tube'
_diffrn_standards_number         0
_exptl_absorpt_coefficient_mu    12.671
_exptl_absorpt_correction_T_max  0.4086
_exptl_absorpt_correction_T_min  0.2479
_exptl_absorpt_correction_type   multi-scan
_exptl_absorpt_process_details
'SADABS-2014/4 (Bruker,2014/4) was used for absorption correction. wR2(int) was 0.0799 before and 0.0301 after correction. The Ratio of minimum to maximum transmission is 0.6067. The \l/2 correction factor is Not present.'
_exptl_crystal_colour            colourless
_exptl_crystal_colour_primary    colourless
_exptl_crystal_density_diffrn    2.417
_exptl_crystal_description       block
_exptl_crystal_F_000             162
_exptl_crystal_size_max          0.18
_exptl_crystal_size_mid          0.06
_exptl_crystal_size_min          0.05
_refine_diff_density_max         0.360
_refine_diff_density_min         -0.325
_refine_diff_density_rms         0.091
_refine_ls_extinction_method     none
_refine_ls_goodness_of_fit_ref   1.223
_refine_ls_hydrogen_treatment    undef
_refine_ls_matrix_type           full
_refine_ls_number_parameters     9
_refine_ls_number_reflns         80
_refine_ls_number_restraints     2
_refine_ls_restrained_S_all      1.206
_refine_ls_R_factor_all          0.0246
_refine_ls_R_factor_gt           0.0237
_refine_ls_shift/su_max          0.000
_refine_ls_shift/su_mean         0.000
_refine_ls_structure_factor_coef Fsqd
_refine_ls_weighting_details
'w=1/[\s^2^(Fo^2^)+(0.0419P)^2^+0.0445P] where P=(Fo^2^+2Fc^2^)/3'
_refine_ls_weighting_scheme      calc
_refine_ls_wR_factor_gt          0.0655
_refine_ls_wR_factor_ref         0.0660
_reflns_Friedel_coverage         0.000
_reflns_number_gt                79
_reflns_number_total             80
_reflns_threshold_expression     'I > 2\s(I)'
_iucr_refine_instructions_details
;
TITL 1-Azabicyclo[2.2.1]heptanium perrhenate at 330 K in Pm-3m
    1-ABCH_ReO4_330K.res
    created by SHELXL-2018/3 at 15:53:13 on 06-Feb-2019
CELL 0.71073   6.20870   6.20870   6.20870  90.0000  90.0000  90.0000
ZERR    1.00   0.00080   0.00080   0.00080   0.0000   0.0000   0.0000
LATT  1
SYMM -X, -Y, Z
SYMM -X, Y, -Z
SYMM X, -Y, -Z
SYMM Z, X, Y
SYMM Z, -X, -Y
SYMM -Z, -X, Y
SYMM -Z, X, -Y
SYMM Y, Z, X
SYMM -Y, Z, -X
SYMM Y, -Z, -X
SYMM -Y, -Z, X
SYMM Y, X, -Z
SYMM -Y, -X, -Z
SYMM Y, -X, Z
SYMM -Y, X, Z
SYMM X, Z, -Y
SYMM -X, Z, Y
SYMM -X, -Z, -Y
SYMM X, -Z, Y
SYMM Z, Y, -X
SYMM Z, -Y, X
SYMM -Z, Y, X
SYMM -Z, -Y, -X
SFAC C H N O RE
UNIT 6 12 1 4 1
TEMP 57
SIZE 0.05 0.06 0.18
L.S. 10
BOND $H
CONF
ACTA
LIST 4
RIGU
FMAP 2
PLAN 20
WGHT    0.041900    0.044500
FVAR       0.34830
RE1   5    0.000000    0.000000    0.000000    10.02083    0.10929    0.10929 =
         0.10929    0.00000    0.00000    0.00000
O1    4    0.000000    0.000000    0.230930    10.08333    0.34491    0.34491 =
         0.26356    0.00000    0.00000    0.00000
C1    1    0.653642    0.653642    0.500000    10.12500    0.18776
C2    1    0.500000    0.737949    0.500000    10.02083    0.16805
HKLF 4




REM  1-Azabicyclo[2.2.1]heptanium perrhenate at 330 K in Pm-3m
REM wR2 = 0.0660, GooF = S = 1.223, Restrained GooF = 1.206 for all data
REM R1 = 0.0237 for 79 Fo > 4sig(Fo) and 0.0246 for all 80 data
REM 9 parameters refined using 2 restraints

END  
     
WGHT      0.0419      0.0445 

REM Highest difference peak  0.360,  deepest hole -0.325,  1-sigma level  0.091
Q1    1   0.0000  0.0911  0.0000  10.12500  0.05    0.36
Q2    1   0.5000  0.7144  0.5697  10.50000  0.05    0.32
Q3    1   0.5618  0.7233  0.5618  10.50000  0.05    0.28
Q4    1   0.1594  0.1594  0.1594  10.16667  0.05    0.21
Q5    1   0.0000  0.0000  0.2990  10.12500  0.05    0.19
Q6    1   0.0000  0.2154  0.2154  10.25000  0.05    0.08
Q7    1   0.4445  1.0000  0.5000  10.25000  0.05    0.00
;
_cod_data_source_file            ja9b03369_si_002.cif
_cod_data_source_block           1-ABCH_ReO4_330K
_cod_original_cell_volume        239.33(9)
_cod_database_code               4128703
_shelx_shelxl_version_number     2018/3
_shelx_space_group_comment
;
The symmetry employed for this shelxl refinement is uniquely defined
by the following loop, which should always be used as a source of
symmetry information in preference to the above space-group names.
They are only intended as comments.
;
_shelx_estimated_absorpt_t_max   0.570
_shelx_estimated_absorpt_t_min   0.209
_olex2_refinement_description
;
1. Rigid body (RIGU) restrains
 All non-hydrogen atoms
 with sigma for 1-2 distances of 0.004 and sigma for 1-3 distances of 0.004
2. Others
 Fixed Sof: O1(0.08333) C1(0.125) C2(0.02083)
;
_olex2_submission_special_instructions 'No special instructions were received'
loop_
_space_group_symop_operation_xyz
'x, y, z'
'-x, -y, z'
'-x, y, -z'
'x, -y, -z'
'z, x, y'
'z, -x, -y'
'-z, -x, y'
'-z, x, -y'
'y, z, x'
'-y, z, -x'
'y, -z, -x'
'-y, -z, x'
'y, x, -z'
'-y, -x, -z'
'y, -x, z'
'-y, x, z'
'x, z, -y'
'-x, z, y'
'-x, -z, -y'
'x, -z, y'
'z, y, -x'
'z, -y, x'
'-z, y, x'
'-z, -y, -x'
'-x, -y, -z'
'x, y, -z'
'x, -y, z'
'-x, y, z'
'-z, -x, -y'
'-z, x, y'
'z, x, -y'
'z, -x, y'
'-y, -z, -x'
'y, -z, x'
'-y, z, x'
'y, z, -x'
'-y, -x, z'
'y, x, z'
'-y, x, -z'
'y, -x, -z'
'-x, -z, y'
'x, -z, -y'
'x, z, y'
'-x, z, -y'
'-z, -y, x'
'-z, y, -x'
'z, -y, -x'
'z, y, x'
loop_
_atom_site_label
_atom_site_type_symbol
_atom_site_fract_x
_atom_site_fract_y
_atom_site_fract_z
_atom_site_U_iso_or_equiv
_atom_site_adp_type
_atom_site_occupancy
_atom_site_site_symmetry_order
_atom_site_calc_flag
_atom_site_refinement_flags_posn
_atom_site_refinement_flags_adp
_atom_site_refinement_flags_occupancy
Re1 Re 0.000000 0.000000 0.000000 0.1093(6) Uani 1 48 d S TU P
O1 O 0.000000 0.000000 0.231(9) 0.32(2) Uani 0.6666 8 d S TU P
C1 C 0.654(4) 0.654(4) 0.500000 0.188(12) Uiso 0.5 4 d S TU P
C2 C 0.500000 0.74(3) 0.500000 0.17(4) Uiso 0.1666 8 d S TU P
loop_
_atom_site_aniso_label
_atom_site_aniso_U_11
_atom_site_aniso_U_22
_atom_site_aniso_U_33
_atom_site_aniso_U_23
_atom_site_aniso_U_13
_atom_site_aniso_U_12
Re1 0.1093(6) 0.1093(6) 0.1093(6) 0.000 0.000 0.000
O1 0.34(4) 0.34(4) 0.26(5) 0.000 0.000 0.000
loop_
_atom_type_symbol
_atom_type_description
_atom_type_scat_dispersion_real
_atom_type_scat_dispersion_imag
_atom_type_scat_source
C C 0.0033 0.0016 'International Tables Vol C Tables 4.2.6.8 and 6.1.1.4'
H H 0.0000 0.0000 'International Tables Vol C Tables 4.2.6.8 and 6.1.1.4'
N N 0.0061 0.0033 'International Tables Vol C Tables 4.2.6.8 and 6.1.1.4'
O O 0.0106 0.0060 'International Tables Vol C Tables 4.2.6.8 and 6.1.1.4'
Re Re -1.0185 7.2310 'International Tables Vol C Tables 4.2.6.8 and 6.1.1.4'
loop_
_geom_angle_atom_site_label_1
_geom_angle_atom_site_label_2
_geom_angle_atom_site_label_3
_geom_angle
_geom_angle_site_symmetry_1
_geom_angle_site_symmetry_3
O1 Re1 O1 180.0 33 9
O1 Re1 O1 90.0 25 29
O1 Re1 O1 180.0 25 .
O1 Re1 O1 90.000(2) 33 25
O1 Re1 O1 90.000(2) 33 .
O1 Re1 O1 90.000(2) 9 25
O1 Re1 O1 90.0 9 29
O1 Re1 O1 90.0 33 5
O1 Re1 O1 180.0 5 29
O1 Re1 O1 90.0 9 5
O1 Re1 O1 90.000(2) 9 .
O1 Re1 O1 90.0 25 5
O1 Re1 O1 90.000(2) 5 .
O1 Re1 O1 90.0 33 29
O1 Re1 O1 90.000(2) 29 .
C1 C1 C1 60.000(3) 11_566 31_556
C1 C1 C1 45.000(5) 5 3_656
C1 C1 C1 89.999(4) 5 27_565
C1 C1 C1 89.999(4) 11_566 9
C1 C1 C1 90.0 31_556 27_565
C1 C1 C1 119.999(16) 31_556 9
C1 C1 C1 89.999(10) 9 3_656
C1 C1 C1 120.00(2) 11_566 5
C1 C1 C1 45.0 11_566 27_565
C1 C1 C1 60.0 9 5
C1 C1 C1 45.0 9 27_565
C1 C1 C1 89.999(1) 11_566 3_656
C1 C1 C1 90.0 3_656 27_565
C1 C1 C1 45.000(6) 31_556 3_656
C1 C1 C1 89.999(15) 31_556 5
C1 C1 C2 30.8(8) 5 5
C1 C1 C2 101(3) 11_566 5
C1 C1 C2 62(2) 3_656 29_666
C1 C1 C2 62(2) 3_656 5
C1 C1 C2 30.8(8) 9 5
C1 C1 C2 30.8(8) 11_566 29_666
C1 C1 C2 62(2) 27_565 29_666
C1 C1 C2 30.8(8) 31_556 29_666
C1 C1 C2 101(3) 31_556 5
C1 C1 C2 101(3) 9 29_666
C1 C1 C2 101(3) 5 29_666
C1 C1 C2 62(2) 27_565 5
C2 C1 C1 29(9) . 3_656
C2 C1 C1 52(4) . 5
C2 C1 C1 110(6) . 11_566
C2 C1 C1 52(4) 9 9
C2 C1 C1 119(9) 9 3_656
C2 C1 C1 110(6) . 9
C2 C1 C1 110(6) 9 5
C2 C1 C1 52(4) 9 11_566
C2 C1 C1 110(6) 9 31_556
C2 C1 C1 29(9) 9 27_565
C2 C1 C1 119(9) . 27_565
C2 C1 C1 52(4) . 31_556
C2 C1 C2 79(6) . 5
C2 C1 C2 79(6) 9 5
C2 C1 C2 95(7) 29_666 5
C2 C1 C2 79(6) . 29_666
C2 C1 C2 148(10) 9 .
C2 C1 C2 79(6) 9 29_666
C1 C2 C1 77(7) 31_556 3_656
C1 C2 C1 94(10) 3_656 11_566
C1 C2 C1 39(5) . 9
C1 C2 C1 122(10) 31_556 5
C1 C2 C1 85(7) 35_655 11_566
C1 C2 C1 77(7) 3_656 5
C1 C2 C1 57(4) 33_666 35_655
C1 C2 C1 77(7) 31_556 .
C1 C2 C1 39(5) . 11_566
C1 C2 C1 122(10) 3_656 .
C1 C2 C1 94(10) 3_656 9
C1 C2 C1 77(7) 5 .
C1 C2 C1 57(4) 35_655 9
C1 C2 C1 39(5) 31_556 33_666
C1 C2 C1 39(5) 31_556 11_566
C1 C2 C1 39(5) 3_656 33_666
C1 C2 C1 94(10) 5 11_566
C1 C2 C1 94(10) 5 33_666
C1 C2 C1 57(4) 33_666 11_566
C1 C2 C1 94(10) . 33_666
C1 C2 C1 94(10) 31_556 9
C1 C2 C1 94(10) 31_556 35_655
C1 C2 C1 39(5) 5 9
C1 C2 C1 39(5) 3_656 35_655
C1 C2 C1 85(7) 33_666 9
C1 C2 C1 39(5) 5 35_655
C1 C2 C1 57(4) 11_566 9
C1 C2 C1 94(10) . 35_655
loop_
_geom_bond_atom_site_label_1
_geom_bond_atom_site_label_2
_geom_bond_distance
_geom_bond_site_symmetry_2
Re1 O1 1.43(6) 33
Re1 O1 1.43(6) .
Re1 O1 1.43(6) 5
Re1 O1 1.43(6) 9
Re1 O1 1.43(6) 25
Re1 O1 1.43(6) 29
C1 C1 1.35(4) 11_566
C1 C1 1.91(5) 27_565
C1 C1 1.91(5) 3_656
C1 C1 1.35(4) 31_556
C1 C1 1.35(4) 5
C1 C1 1.35(4) 9
C1 C2 1.09(8) .
C1 C2 2.00(12) 29_666
C1 C2 1.09(8) 9
C1 C2 2.00(12) 5
loop_
_geom_torsion_atom_site_label_1
_geom_torsion_atom_site_label_2
_geom_torsion_atom_site_label_3
_geom_torsion_atom_site_label_4
_geom_torsion
_geom_torsion_site_symmetry_1
_geom_torsion_site_symmetry_4
C1 C1 C2 C1 -16(8) 11_566 31_556
C1 C1 C2 C1 -49(2) 27_565 11_566
C1 C1 C2 C1 -20(5) 9 35_655
C1 C1 C2 C1 -113(4) 9 31_556
C1 C1 C2 C1 -29(2) 3_656 33_666
C1 C1 C2 C1 -129(12) 5 31_556
C1 C1 C2 C1 16(8) 31_556 11_566
C1 C1 C2 C1 -64(6) 3_656 31_556
C1 C1 C2 C1 49(2) 3_656 9
C1 C1 C2 C1 -64(6) 27_565 31_556
C1 C1 C2 C1 77.30(17) 11_566 35_655
C1 C1 C2 C1 49(2) 11_566 3_656
C1 C1 C2 C1 29(2) 3_656 35_655
C1 C1 C2 C1 64(6) 31_556 3_656
C1 C1 C2 C1 -113(4) 5 11_566
C1 C1 C2 C1 -49(2) 9 3_656
C1 C1 C2 C1 113(4) 31_556 9
C1 C1 C2 C1 -64(6) 5 3_656
C1 C1 C2 C1 -93(9) 5 33_666
C1 C1 C2 C1 0.0 27_565 3_656
C1 C1 C2 C1 -29(2) 27_565 33_666
C1 C1 C2 C1 49(2) 27_565 9
C1 C1 C2 C1 93(9) 31_556 35_655
C1 C1 C2 C1 113(4) 11_566 5
C1 C1 C2 C1 -36(4) 5 35_655
C1 C1 C2 C1 129(12) 31_556 5
C1 C1 C2 C1 29(2) 27_565 35_655
C1 C1 C2 C1 16(8) 9 5
C1 C1 C2 C1 -98(5) 9 11_566
C1 C1 C2 C1 64(6) 3_656 5
C1 C1 C2 C1 -49(2) 3_656 11_566
C1 C1 C2 C1 64(6) 27_565 5
C1 C1 C2 C1 98(5) 11_566 9
C1 C1 C2 C1 20(5) 11_566 33_666
C1 C1 C2 C1 -16(8) 5 9
C1 C1 C2 C1 36(4) 31_556 33_666
C1 C1 C2 C1 -77.30(16) 9 33_666
C2 C1 C2 C1 64(6) 9 5
C2 C1 C2 C1 16(8) 5 5
C2 C1 C2 C1 -98(5) 5 11_566
C2 C1 C2 C1 -113(4) 5 31_556
C2 C1 C2 C1 -77.30(15) 5 33_666
C2 C1 C2 C1 0.0 9 3_656
C2 C1 C2 C1 29(2) 9 35_655
C2 C1 C2 C1 77.30(16) 29_666 35_655
C2 C1 C2 C1 20(5) 29_666 33_666
C2 C1 C2 C1 -20(5) 5 35_655
C2 C1 C2 C1 0.00(3) 29_666 11_566
C2 C1 C2 C1 -49(2) 9 11_566
C2 C1 C2 C1 49(2) 9 9
C2 C1 C2 C1 -64(6) 9 31_556
C2 C1 C2 C1 113(4) 29_666 5
C2 C1 C2 C1 -16(8) 29_666 31_556
C2 C1 C2 C1 -29(2) 9 33_666
C2 C1 C2 C1 -49(2) 5 3_656
C2 C1 C2 C1 98(5) 29_666 9
C2 C1 C2 C1 0.00(3) 5 9
C2 C1 C2 C1 49(2) 29_666 3_656
loop_
_refln_index_h
_refln_index_k
_refln_index_l
_refln_F_squared_meas
_refln_F_squared_sigma
-1 0 0 448.79 8.76
0 -1 0 398.97 8.78
0 0 -1 439.39 8.15
0 0 -1 462.13 8.18
0 1 0 431.37 7.94
1 0 0 408.86 8.84
0 1 0 425.22 7.93
1 0 0 444.14 9.03
-1 0 0 432.56 8.13
0 -1 0 419.11 9.24
0 0 -1 458.52 9.12
0 0 -1 434.74 9.05
-1 0 0 441.12 7.98
0 0 -1 461.55 8.61
0 1 0 440.16 8.65
-1 0 -1 954.13 17.96
-1 -1 0 895.69 18.13
0 1 -1 1000 17.3
1 0 -1 938.54 17.73
1 0 -1 937.21 18.63
1 0 1 970.88 17.84
1 1 0 926.85 18.4
1 0 -1 923.54 19.03
-1 0 -1 992.94 18.79
-1 1 0 936.44 19.19
0 1 -1 922.76 18.9
1 -1 0 946.25 18.19
1 -1 0 904.75 18.12
1 0 1 923.11 17.79
1 1 0 905.17 18.17
-1 1 0 921.73 17.8
0 -1 -1 890.26 17.76
0 -1 -1 901.46 17.45
-1 -1 0 920.45 18.16
-1 0 -1 925.77 18.38
0 -1 -1 943.75 18.71
0 -1 1 933.17 18.25
1 -1 0 889.91 17.94
-1 -1 0 879.29 18.18
1 0 -1 909.01 17.55
0 -1 -1 919.74 18.46
0 1 1 923.01 17.49
1 1 1 349.04 6.38
1 -1 1 354.54 6.27
1 1 -1 350.88 6.39
1 -1 -1 351.5 6.32
1 -1 1 344.71 6.36
1 1 -1 342.05 6.36
1 -1 -1 344.52 6.39
-1 -1 -1 332.34 6.37
1 1 1 352.72 6.4
-1 -1 -1 355.95 6.31
-1 1 -1 350.89 6.46
-1 1 1 341.28 6.4
1 -1 1 330.14 6.38
-1 -1 -1 343.06 6.43
-1 -1 1 350.47 7.57
1 -1 -1 356.63 6.35
1 -1 -1 336.46 6.32
-1 1 -1 346.26 6.37
1 1 -1 350.14 6.43
0 0 -2 420.35 7.71
0 0 -2 452.75 7.64
0 2 0 409.98 7.64
0 0 -2 413.69 7.74
0 -2 0 395.84 7.68
-2 0 0 421.59 7.68
0 2 0 404.55 7.68
2 0 0 403.09 7.67
0 2 0 407.39 7.62
2 0 0 421.02 7.71
-2 0 0 425.04 7.77
-2 0 0 420.98 7.57
0 -2 0 407.28 7.76
0 0 -2 433.73 7.72
0 0 -2 420.28 7.92
1 0 -2 297.68 5.48
2 -1 0 282.27 5.34
0 1 -2 289.38 5.47
-2 0 -1 293.99 5.4
0 2 -1 290.41 5.42
1 2 0 287.48 5.34
0 2 1 299.12 5.29
0 -2 -1 282.34 5.38
0 -2 1 295.48 5.38
0 2 -1 283.9 5.41
1 0 -2 296.9 5.3
-2 -1 0 289.72 5.45
-2 1 0 295.99 5.49
-1 0 -2 297.92 5.42
0 -2 -1 289.53 5.46
0 -2 1 287.96 7.39
1 0 -2 302.29 5.36
0 -1 -2 298.86 5.41
0 1 -2 305.46 5.3
1 -2 0 290.31 5.37
1 2 0 288.43 5.42
2 0 -1 292.21 5.41
2 0 1 291.86 5.39
0 2 -1 300.02 5.34
0 2 1 282.77 5.43
1 0 -2 305.42 5.4
1 0 2 303.55 5.36
2 -1 0 288.99 5.41
2 1 0 289.5 5.43
-2 0 -1 290.96 5.38
-1 -2 0 291.02 5.48
0 -1 -2 300.96 5.44
0 -1 2 301.84 5.47
1 -2 0 287.94 5.43
-2 -1 0 291.46 5.64
-1 0 -2 290.86 5.45
0 -1 -2 286.22 5.3
0 -1 -2 283.24 5.29
0 1 -2 294.03 5.36
0 1 -2 298.2 5.37
1 -2 0 272.73 5.38
1 2 0 287.17 5.4
2 0 -1 282.63 5.35
2 0 -1 291.94 6.36
2 0 1 288.24 5.39
-2 -1 0 285.17 5.4
-2 1 0 295.2 5.39
-1 0 -2 291.5 6.32
-1 0 -2 295.7 5.36
-1 -2 0 279.24 5.39
-1 2 0 287.78 5.39
-1 2 0 292.16 5.42
0 -1 -2 293.19 5.37
-2 0 -1 301.89 5.48
-2 0 1 287.51 5.48
2 -1 0 286.91 5.38
2 1 0 287.51 5.38
1 0 -2 290.44 5.29
-2 -1 1 190.61 3.58
2 1 -1 193.73 3.62
2 1 1 191.65 3.55
2 -1 -1 187.71 3.54
2 -1 1 192.67 3.54
1 2 1 191.42 3.52
2 -1 -1 186.39 3.59
-1 -2 1 193.31 3.61
-1 -1 -2 191.1 3.58
-1 -1 -2 191.2 3.56
-1 1 -2 186.5 3.58
-1 1 -2 196.62 3.58
-1 2 -1 188.23 3.59
1 -2 -1 183.36 3.57
1 -2 -1 181.02 4.09
-2 -1 -1 199.48 3.62
-2 -1 1 189.52 4.98
-2 1 -1 195.29 3.7
-2 1 1 193.72 3.65
-1 -2 -1 184.83 3.48
-1 -1 -2 195.29 3.57
-1 1 -2 203.88 3.6
-1 1 2 199.34 4.39
-1 2 -1 199.14 3.63
-1 2 1 194.02 3.62
1 1 -2 199.28 3.61
1 2 -1 199.83 3.6
2 -1 -1 193.62 3.55
2 -1 1 186.67 3.57
-2 -1 -1 189.43 3.61
1 -1 2 202.79 3.49
1 1 -2 202.7 3.61
1 1 2 199.21 3.57
1 2 -1 197.48 3.62
-1 -1 2 192.39 3.59
1 -2 -1 192.18 3.68
1 -2 1 186.87 3.6
1 -1 -2 198.74 3.57
1 -1 2 186.22 3.61
1 1 -2 203.77 3.57
1 -2 -1 189.87 3.59
1 1 -2 191.9 3.58
1 2 -1 190.66 3.57
1 2 1 188.47 3.64
2 -1 -1 195.38 3.63
2 -1 1 199.79 3.57
2 1 -1 192.95 3.57
2 1 1 196.99 3.58
-2 -1 1 196.08 3.56
-1 -2 -1 194.15 3.67
-1 -2 1 196.93 3.66
-1 -1 -2 193.9 3.56
1 -2 1 190.13 3.56
1 -1 -2 186.26 3.52
1 -1 -2 194.01 3.52
-1 -2 -1 187.63 3.56
-2 1 -1 192.34 3.59
1 -2 1 202.76 3.53
1 -1 -2 203.28 3.65
-2 -1 -1 188.75 3.57
2 2 0 127.95 2.4
0 2 2 129.77 2.38
0 -2 2 131.95 2.43
0 2 -2 130.56 2.41
-2 -2 0 129.75 2.4
-2 2 0 129.6 2.41
2 0 -2 127.14 2.38
-2 0 2 131.42 2.92
0 2 -2 136.23 2.37
0 2 2 130.57 2.4
2 -2 0 132.9 2.39
2 0 -2 134.21 2.4
2 -2 0 129.32 2.42
0 -2 2 129.51 2.39
0 2 -2 130.35 2.39
2 -2 0 125.04 2.39
2 0 -2 130.79 2.37
-2 -2 0 128.74 2.38
-2 0 -2 134.25 2.41
-2 -2 0 132.12 2.39
-2 0 -2 128.39 2.4
-2 0 2 129.77 2.36
0 -2 -2 130.57 2.41
2 0 2 134.98 2.42
2 2 0 130.43 2.41
-2 0 -2 130.24 2.39
-2 2 0 130.16 2.4
0 -2 -2 126.44 2.41
0 -2 -2 122.78 2.38
2 0 2 126.87 2.38
-1 -2 -2 154.17 2.79
-2 -2 -1 156.42 2.85
-2 -1 -2 159.22 2.86
2 -2 -1 149.8 2.84
2 -2 1 151.41 2.83
2 -1 -2 154.72 2.82
2 -1 2 149.37 2.87
2 -1 2 154.57 2.83
2 1 -2 155.61 2.82
2 1 -2 155.09 2.87
2 2 -1 152.08 2.84
-2 1 -2 156.84 2.87
-2 1 2 155.7 2.92
-2 2 -1 154.87 2.86
-2 2 1 154.09 2.99
-1 2 -2 159.39 2.92
-2 -2 -1 151.99 2.84
-2 -2 1 155.33 2.84
-2 -1 -2 155.46 2.89
-2 1 -2 152.45 2.86
-2 2 -1 153.57 2.84
-1 -2 -2 152.05 2.9
-1 -2 -2 149.73 2.82
-1 2 -2 152.09 2.83
1 -2 -2 152.13 2.85
1 -2 -2 154.8 2.82
1 -2 2 153.58 2.83
1 2 -2 156.27 2.83
1 2 -2 153.04 2.88
2 -2 -1 152.32 2.88
2 -2 1 157.46 2.84
2 -1 -2 149.22 2.85
2 -1 -2 151.93 2.81
-2 -1 2 151.8 2.83
-1 -2 -2 156.37 2.9
-1 -2 2 155.92 2.94
1 -2 -2 157.43 2.84
1 -2 2 148.91 2.88
1 -2 -2 155.97 2.85
1 2 -2 157.18 2.82
1 2 2 157.59 2.89
2 -2 -1 160.59 2.84
2 -2 1 158.26 2.85
2 -1 -2 154.16 2.84
2 -1 2 162.52 2.84
2 1 -2 160.03 2.84
2 1 2 157.01 2.84
2 2 1 152.84 2.84
2 2 -1 155.49 2.84
2 2 1 155.32 2.85
2 2 -1 154.61 2.87
-2 -2 -1 152.75 2.89
-2 -2 1 154.65 2.85
-2 -1 -2 153.68 2.89
2 1 -2 156.68 2.85
-1 2 2 153.88 2.89
1 2 -2 156.73 2.9
-2 -2 -2 84.98 1.6
2 -2 2 86.22 1.59
-2 -2 -2 84.49 1.55
-2 2 -2 83.47 1.62
-2 2 2 85.35 1.58
2 2 -2 85.7 1.6
2 2 -2 84.29 1.58
2 -2 2 83.57 1.59
2 2 2 85.34 1.6
2 -2 -2 85.08 1.56
2 -2 -2 81.59 1.56
-2 -2 2 84.15 1.56
2 -2 -2 81.3 1.57
2 -2 -2 85.59 1.6
2 -2 2 83.77 1.53
2 2 -2 84.51 1.58
2 2 2 81.17 1.58
-2 2 -2 84.48 1.59
-2 -2 -2 83.02 1.58
0 0 -3 191.37 3.41
0 0 -3 191.95 3.48
0 3 0 178.85 3.41
0 0 -3 195.9 3.54
-3 0 0 187.32 3.59
-3 0 0 186.9 3.41
-3 0 0 187.14 3.43
0 -3 0 179.67 3.42
3 0 0 191.07 3.5
0 0 -3 194.67 3.4
0 0 -3 187.11 3.56
0 3 0 186.85 3.43
0 -3 0 184.18 3.44
3 0 0 184.71 3.42
0 3 0 181.85 3.45
3 0 1 126.77 2.33
3 0 -1 122.91 2.32
1 3 0 125.61 2.33
1 -3 0 126.47 2.35
1 3 0 127 2.3
-3 -1 0 124.65 2.33
-3 1 0 123.9 2.33
3 0 1 127.56 2.32
0 1 -3 125.87 2.34
-3 1 0 124.41 2.35
-1 0 -3 124.99 2.33
0 3 -1 123.19 2.32
0 3 1 125.99 2.28
1 -3 0 122.35 2.33
-3 0 -1 122.6 2.31
-1 3 0 122.28 2.31
0 -1 -3 127.78 2.32
0 1 -3 128.85 2.28
1 3 0 123.4 2.33
3 0 -1 124.67 2.33
-3 -1 0 124.83 2.3
-3 0 -1 125.94 2.33
-1 0 -3 127.15 2.29
-1 0 -3 128.98 2.32
0 -3 -1 124.33 2.32
0 -3 1 126.35 2.33
0 3 -1 121.57 2.33
0 3 1 127.42 2.32
1 0 -3 128.13 2.27
1 0 -3 125.57 2.27
3 -1 0 122.65 2.32
3 1 0 123.45 2.33
3 1 0 127.84 2.34
-1 3 0 125.46 2.32
-3 0 1 128.01 2.32
-1 -3 0 124.39 2.33
0 -1 -3 124.21 2.27
0 3 -1 124.95 2.3
0 3 1 124.21 2.33
1 0 -3 129.47 2.31
1 0 3 126.84 2.31
-1 0 -3 125.67 2.33
0 1 -3 126.83 2.29
0 1 -3 129.25 2.31
0 -1 -3 126.15 2.27
-3 0 1 126.48 2.34
3 -1 0 121.02 2.3
1 0 -3 126.95 2.33
-3 0 -1 128.65 2.36
-3 -1 0 125.35 2.33
-1 -3 0 125.93 2.35
0 -1 -3 128.35 2.33
0 -1 3 129.71 2.33
3 -1 0 125.86 2.32
0 -3 -1 122.81 2.35
0 -3 1 126.2 2.34
1 0 -3 129.9 2.31
0 -1 -3 125.3 2.34
1 -3 -1 125.07 2.45
1 -3 1 129.77 2.46
3 -1 -1 130.5 2.4
3 1 -1 133.14 2.47
-3 -1 1 132.81 2.46
3 1 1 135.51 2.47
3 -1 1 132.24 2.44
1 1 -3 131.1 2.43
1 3 -1 131.09 2.46
1 3 1 135.13 2.46
3 -1 -1 130.8 2.45
1 -1 3 132.49 2.46
-1 1 -3 131.05 2.43
-1 1 -3 136.49 2.43
-3 1 -1 131.87 2.46
-3 1 1 134.23 2.45
-1 -3 -1 130.91 2.46
-1 -3 1 131.2 2.46
-1 -1 -3 133.92 2.42
-1 -1 -3 132.83 2.45
1 -3 -1 131.76 2.49
3 -1 1 129.55 2.46
-3 -1 -1 132.02 2.47
-1 3 -1 132.46 2.43
1 -3 -1 126.53 2.46
1 -1 -3 136.32 2.46
1 -1 3 135.18 2.41
1 1 -3 134.71 2.43
1 1 3 134.6 2.44
1 3 -1 133.91 2.46
1 3 1 131.88 2.47
3 -1 -1 134.6 2.46
-1 -1 -3 130.8 2.44
1 -3 1 132 2.47
1 -1 -3 135.67 2.45
-1 3 1 135.4 2.44
1 -1 -3 132.7 2.49
3 -1 1 130.1 2.44
1 3 -1 132.1 2.45
-3 -1 -1 134.62 2.48
-3 -1 1 130.49 2.46
-3 1 -1 134.32 2.5
-3 1 1 132.64 2.47
-1 -3 -1 131.28 2.39
-1 -1 -3 133.81 2.47
-1 1 -3 134.79 2.48
-1 3 -1 134.22 2.47
3 1 -1 131.84 2.45
3 1 1 133.71 2.46
1 1 -3 135.54 2.47
-1 -3 -1 139.43 2.49
1 1 -3 136.02 2.44
-3 -1 -1 132.29 2.45
-3 -1 1 132.15 2.41
-1 -1 3 137.74 2.44
-1 -3 1 135.16 2.47
-3 -2 0 104.74 1.97
-3 -2 0 107.01 1.96
-3 0 -2 105.35 1.98
-2 -3 0 105.77 1.99
-2 3 0 100.23 1.98
0 -2 -3 104.84 1.93
0 -2 -3 103.16 1.93
0 2 -3 106.44 1.95
-2 0 -3 107.72 1.96
0 -3 -2 104.98 1.96
0 3 -2 105.73 1.94
0 3 2 103.4 1.98
3 0 2 106.35 1.97
2 -3 0 104.04 1.97
2 3 0 102.97 1.99
-2 0 -3 106.43 1.99
3 0 -2 106.78 1.96
-3 0 -2 107.12 2.01
-3 0 2 103.62 1.99
-2 -3 0 102.96 1.95
0 2 -3 103.96 1.91
2 -3 0 102.15 1.98
2 3 0 104.8 1.99
-3 0 -2 105.61 1.98
-3 -2 0 104.73 1.99
-3 2 0 104.44 1.98
3 0 -2 107.31 1.96
-3 2 0 105.89 2
0 2 3 108.09 1.98
0 -2 -3 105.57 1.94
0 2 -3 106.87 2
3 0 -2 106.98 1.99
0 2 -3 107.52 1.96
0 -3 2 108.15 1.98
0 3 -2 105.05 1.98
2 0 -3 106.8 1.98
2 0 3 110.15 1.95
3 -2 0 103.97 1.97
3 2 0 105.25 2
0 -3 2 106.43 1.98
3 -2 0 105.6 1.95
-2 0 -3 104 1.95
3 0 2 107.84 1.96
-2 -3 0 106.42 1.99
0 -2 -3 106.62 1.99
0 -2 3 107.51 1.98
2 -3 0 107.61 1.99
-2 0 -3 106.49 1.99
0 3 -2 106.02 1.99
0 3 2 108.94 1.91
2 0 -3 106.76 1.99
2 0 -3 108.43 1.93
2 0 -3 106.12 1.93
3 -2 0 103.56 1.98
3 2 0 105.11 1.99
0 -3 -2 106.46 2.01
-2 0 3 108.21 1.94
0 -3 -2 103.61 1.96
-2 3 0 102.65 1.98
-3 2 -1 67.52 1.34
-1 3 -2 70.3 1.28
-2 1 -3 68.16 1.31
-2 1 -3 70.59 1.33
2 1 3 70.91 1.33
-1 2 3 71.46 1.32
1 3 2 69.45 1.35
2 -1 -3 72.15 1.35
3 -1 2 68.62 1.33
-2 3 1 69.84 1.34
-1 -2 -3 68.27 1.29
1 -2 3 68.63 1.34
-3 -1 -2 70.51 1.36
2 -1 -3 68.69 1.31
-2 -1 3 68.47 1.3
2 -3 1 70.19 1.34
-1 -3 2 69.43 1.34
1 -3 -2 70.32 1.36
3 2 1 68.8 1.34
2 -3 1 70.01 1.34
3 -1 2 73.39 1.34
3 -2 -1 66.75 1.32
2 -3 1 70.52 1.31
2 3 -1 71.15 1.35
-1 -2 -3 68.28 1.3
-3 -2 1 69.57 1.35
3 -1 2 71.85 1.31
3 1 -2 71.03 1.35
3 1 -2 70.07 1.32
1 -3 -2 67.49 1.32
1 -3 -2 68.92 1.32
-1 -2 -3 68.93 1.36
2 -1 -3 69.51 1.28
2 -1 -3 67.91 1.28
-2 3 1 71.56 1.34
-3 -2 1 69.06 1.34
3 -2 -1 68.72 1.33
2 3 -1 69.85 1.35
-3 1 2 70.93 1.35
-2 -3 -1 69.99 1.29
-3 -1 -2 69.39 1.34
-2 1 -3 71.59 1.37
3 2 1 70.32 1.36
1 -3 -2 69.68 1.35
-1 -3 2 71.64 1.34
-3 -1 -2 69.37 1.34
1 2 -3 68.77 1.31
-3 -2 1 69.86 1.31
-1 3 -2 72.02 1.37
1 2 -3 71.36 1.31
3 1 -2 72.7 1.33
-3 2 -1 70.11 1.38
-2 -3 -1 72.05 1.36
1 2 -3 70.93 1.36
1 2 -3 71.79 1.31
2 3 -1 69.79 1.33
3 -2 -1 68.01 1.34
-1 -2 -3 68.98 1.31
-2 -3 -1 68.26 1.35
2 1 -3 70.46 1.36
2 1 -3 72.87 1.31
2 -1 3 69.98 1.35
2 1 -3 70.21 1.3
-2 1 3 70.7 1.34
-1 -3 -2 68.33 1.33
1 3 -2 68.19 1.32
3 -1 -2 69.96 1.35
1 3 -2 69.35 1.35
-3 1 -2 70.02 1.34
2 -1 3 71.61 1.28
-2 -3 1 71.33 1.35
-2 3 -1 68.87 1.34
-2 3 -1 68.61 1.36
-3 -2 -1 70.9 1.34
2 3 1 69.47 1.36
-1 2 -3 69.06 1.32
-1 2 -3 70.84 1.33
1 -2 -3 69.27 1.28
1 -2 -3 71.66 1.29
-2 -1 -3 71.01 1.31
-2 -1 -3 70.28 1.32
2 -3 -1 70.87 1.33
-3 -1 2 69.32 1.35
-3 1 -2 68.23 1.38
1 2 3 70.67 1.34
-3 2 1 70.39 1.34
3 -1 -2 69.42 1.31
-1 -3 -2 67.83 1.32
3 -2 1 68.55 1.31
-1 2 -3 70.77 1.37
3 1 2 71.68 1.34
-3 -2 -1 68.73 1.35
3 -2 1 70.61 1.34
3 1 2 70.79 1.34
-1 3 2 70.4 1.3
1 -3 2 71.53 1.34
-1 -2 3 70.85 1.33
2 1 -3 72.16 1.33
2 3 1 69.29 1.34
3 -1 -2 69.56 1.31
-2 -1 -3 69.1 1.33
-3 -1 2 69.36 1.28
-3 2 1 68.86 1.35
1 -2 -3 70.34 1.35
-2 -3 1 69.1 1.34
1 3 -2 69.16 1.34
-3 -2 -1 68.71 1.34
1 -2 -3 70.87 1.34
-2 -1 -3 69.62 1.36
2 -3 -1 68.46 1.36
-1 -3 -2 70.48 1.37
3 -1 -2 67.78 1.27
3 2 -1 69.2 1.34
1 -3 2 68.68 1.34
3 2 -1 70.44 1.35
3 -2 1 67.41 1.32
2 -3 -1 69.42 1.34
-2 2 3 49.84 0.97
2 2 -3 49.61 1.01
2 3 -2 49.04 0.99
3 -2 2 48.42 0.94
3 2 -2 48.59 0.99
3 2 2 48.6 1
3 2 -2 49.48 0.98
-3 2 2 49.8 0.99
2 -3 2 49.19 0.99
2 -2 -3 49.63 0.96
2 -2 3 49.43 0.99
3 -2 -2 48.79 0.94
3 -2 2 49.28 0.98
2 3 -2 49.82 0.99
2 3 2 49.96 0.98
-2 3 -2 50.93 1.02
-2 3 2 50.48 0.97
-2 -3 2 50.39 0.99
-2 -2 -3 49.16 0.97
-2 -2 -3 49.91 0.96
-2 2 -3 50.12 0.98
-2 3 -2 49.49 0.99
2 -3 -2 48.36 0.96
2 -3 -2 50.16 0.97
2 -3 2 50.82 0.99
2 -2 -3 48.16 0.93
2 -2 -3 48.37 0.94
2 -2 3 50.24 0.97
2 2 -3 51.39 0.97
2 2 -3 49.95 0.96
-3 -2 -2 49.67 1
3 2 2 50.57 0.99
-2 -2 -3 50.65 1.01
-2 -2 3 49.7 0.96
2 -3 -2 49.5 1
-2 2 -3 48.27 1.02
2 -3 -2 49.58 1
2 -2 -3 50.43 1
2 2 -3 50.23 0.97
2 2 3 50.19 0.99
2 3 -2 49.65 0.98
2 3 2 50.57 1.01
3 -2 -2 49.92 1
-3 -2 -2 48.06 0.97
-3 2 -2 48.88 1.03
-2 -3 2 49.59 0.98
-2 -2 -3 48.44 0.94
-3 -2 -2 49.41 0.99
-3 -2 2 50.69 0.98
-3 2 -2 49.08 0.99
-2 -3 -2 49.41 0.99
-3 -2 2 50 0.95
-2 -3 -2 49.98 1.01
3 -2 -2 48.61 0.96
3 -2 -2 49.25 0.97
3 -2 2 50.25 0.99
-3 3 0 44.7 0.9
3 0 -3 44.72 0.85
3 0 -3 43.47 0.84
3 0 -3 44.48 0.89
3 0 3 44.94 0.85
3 3 0 42.1 0.9
-3 0 -3 43.49 0.89
0 3 -3 44.81 0.87
3 -3 0 43.49 0.88
0 3 -3 43.65 0.81
0 3 3 41.81 0.81
0 3 -3 44.16 0.91
-3 -3 0 43.34 0.85
-3 0 -3 43.38 0.91
-3 0 3 43.46 0.89
-3 -3 0 43.07 0.89
-3 0 -3 43.2 0.87
-3 3 0 43.92 0.89
0 -3 -3 42.75 0.85
0 -3 -3 41.84 0.84
-3 -3 0 44.12 0.88
3 -3 0 43.87 0.87
-3 0 3 41.38 0.81
0 -3 -3 43.69 0.91
3 3 0 42.39 0.89
3 -3 0 43.52 0.87
0 3 3 43.91 0.89
0 -3 3 43.77 0.88
-3 -3 1 43.38 0.88
-3 3 -1 42.54 0.88
-1 -3 -3 42.55 0.85
-3 -1 -3 42.4 0.86
1 -3 -3 42.9 0.83
1 -3 -3 42.67 0.83
1 3 -3 42.21 0.85
3 -3 -1 41.81 0.86
-3 1 -3 42.08 0.86
-3 -1 3 42.52 0.89
-3 -3 -1 42.76 0.84
-3 -3 1 41.37 0.85
-3 -1 -3 43.53 0.87
1 -3 -3 42.52 0.89
1 3 -3 43.58 0.83
1 3 3 43.21 0.88
3 -3 -1 42.42 0.87
3 -3 1 41.82 0.84
3 -1 -3 43.79 0.88
3 -1 3 42.41 0.82
3 1 -3 43.7 0.88
3 1 3 42.6 0.86
3 3 -1 42.93 0.89
-3 1 -3 40.95 0.91
-3 1 3 43.93 0.88
-1 -3 -3 42.27 0.84
-3 -3 -1 41.77 0.88
-3 -3 -1 43.12 0.88
-3 -3 1 42.65 0.85
-3 -1 -3 43.03 0.89
-3 -1 3 41.35 0.81
-1 -3 -3 42.65 0.9
-1 -3 3 42.45 0.86
1 -3 -3 42.03 0.88
1 -3 3 43.76 0.88
3 -3 -1 43.94 0.88
3 -3 1 42.35 0.86
3 -1 -3 41.41 0.8
3 -1 3 41.48 0.87
3 1 -3 44.83 0.85
3 1 -3 42.29 0.84
3 3 -1 42.1 0.88
3 3 1 42.45 0.89
-3 3 -1 43 0.9
-3 3 1 43.02 0.88
-1 3 -3 44.5 0.91
-1 3 3 41.64 0.82
1 3 -3 42.82 0.89
3 -1 -3 42.95 0.82
3 -1 -3 43.42 0.83
3 3 1 42.03 0.88
3 -3 1 42.87 0.87
-3 3 -2 27.85 0.66
3 -2 -3 27.15 0.56
3 -3 2 27.6 0.61
-3 -3 -2 28.44 0.63
-3 -3 2 27.96 0.58
-3 -2 -3 27.64 0.63
3 -2 3 28.18 0.61
-3 -3 -2 27.57 0.62
-3 -2 -3 27.33 0.61
-3 2 -3 27.08 0.61
-3 3 -2 27.86 0.62
-2 -3 -3 27.33 0.6
-2 3 -3 28.7 0.62
2 -3 -3 27.61 0.57
2 -3 -3 27.78 0.57
2 3 -3 27.65 0.6
3 -3 -2 26.79 0.58
3 -3 2 27.93 0.61
3 -2 -3 27.31 0.56
3 -2 -3 26.9 0.57
3 2 -3 27.44 0.59
3 3 -2 27.37 0.61
-3 -2 -3 27.52 0.58
-3 2 -3 27.48 0.66
-3 2 3 27.42 0.61
3 -3 -2 27.33 0.6
-3 3 2 27.12 0.6
-2 3 -3 28.16 0.65
-3 -2 3 27.88 0.56
2 -3 -3 27.34 0.63
2 3 -3 27.78 0.59
2 3 3 27.69 0.62
3 -3 -2 27.71 0.62
3 -3 2 27 0.55
3 -2 -3 26.67 0.62
3 2 -3 26.71 0.61
3 2 3 27.58 0.62
3 3 -2 27.9 0.62
3 3 2 28 0.64
2 -3 -3 27.64 0.61
2 -3 3 27.52 0.61
-2 -3 3 28.15 0.59
3 2 -3 27.84 0.63
3 3 -2 28.21 0.62
-2 -3 -3 28.31 0.64
2 3 -3 26.59 0.62
-2 3 3 27.39 0.58
3 3 -3 10.95 0.35
3 3 3 11.08 0.35
-3 -3 -3 11.5 0.36
-3 -3 -3 11.25 0.33
-3 3 -3 11.4 0.35
3 -3 -3 11.15 0.29
3 3 -3 11.3 0.32
-3 -3 3 10.92 0.3
3 -3 -3 11.27 0.3
3 -3 3 11.21 0.33
-3 3 3 11.23 0.32
3 -3 -3 10.8 0.35
3 3 -3 10.8 0.33
-3 3 -3 10.72 0.39
0 0 -4 65.35 1.2
0 4 0 66.72 1.29
4 0 0 65.51 1.29
0 0 -4 67.57 1.2
0 -4 0 66.22 1.32
0 0 -4 66.26 1.29
4 0 0 65.85 1.23
-4 0 0 67.27 1.3
0 -4 0 65.77 1.29
-4 0 0 66.99 1.32
0 0 -4 67.94 1.3
0 4 0 64.49 1.26
0 4 0 65.34 1.28
4 0 0 66.64 1.29
0 0 -4 69.26 1.26
-4 1 0 56.59 1.17
-1 0 -4 59.03 1.15
-4 -1 0 57.03 1.15
4 0 1 58.79 1.14
-4 0 1 58.79 1.16
-4 -1 0 57.46 1.09
-1 0 -4 58.38 1.15
0 -4 -1 58.29 1.18
0 -4 1 58.08 1.16
1 0 -4 58.37 1.13
-4 0 -1 56.95 1.11
-1 -4 0 59.05 1.17
0 -1 -4 59.29 1.15
0 -1 4 60.02 1.14
1 -4 0 58.41 1.17
1 -4 0 56.88 1.14
-4 -1 0 58.98 1.15
-4 1 0 56.32 1.14
0 4 -1 56.88 1.12
0 4 1 56.58 1.14
1 0 -4 60.1 1.12
1 0 4 59.11 1.1
-4 0 -1 58.37 1.15
0 4 1 58.86 1.14
4 -1 0 57.46 1.14
4 1 0 59.1 1.14
4 -1 0 57.78 1.14
4 1 0 59.43 1.15
-1 -4 0 57.94 1.15
-1 4 0 56.32 1.14
0 1 -4 58.25 1.08
0 4 -1 57.19 1.13
0 4 1 56.26 1.08
0 4 -1 58.96 1.15
-1 4 0 56.68 1.12
0 1 -4 58.63 1.09
1 4 0 56.59 1.14
4 0 -1 59.29 1.15
4 0 1 56.25 1.13
-1 0 -4 59.17 1.08
-1 0 -4 59.68 1.09
0 -4 -1 56.96 1.14
0 -4 1 58.4 1.15
0 1 -4 60 1.08
-4 0 1 57.56 1.14
1 4 0 58.77 1.15
4 0 -1 58.11 1.13
-4 0 -1 56.37 1.18
1 4 0 56.28 1.1
-1 4 0 58.67 1.12
0 -1 -4 57.92 1.12
0 1 -4 56.68 1.15
4 -1 0 55.38 1.08
1 0 -4 58.72 1.15
4 -1 -1 47.26 0.95
4 -1 1 45.11 0.91
1 1 -4 46.33 0.96
1 4 -1 45.7 0.93
-1 4 1 47.85 0.91
-4 -1 -1 46.94 0.92
-4 -1 1 46.65 0.87
-1 -4 -1 47.91 0.98
-1 -4 1 45.98 0.95
-1 -1 -4 46 0.96
4 -1 1 46.06 0.93
4 1 1 46.69 0.95
4 1 -1 47.07 0.94
4 1 1 48.02 0.95
-1 1 -4 48.33 0.97
-1 4 -1 47.13 0.95
-4 -1 -1 47.2 0.97
1 -4 -1 46.64 0.94
1 -4 1 46.88 0.95
1 1 -4 47.01 0.87
1 1 -4 46.74 0.88
1 4 -1 47.62 0.95
1 4 1 47.6 0.95
4 -1 -1 46.86 0.93
4 -1 1 47.02 0.94
-4 -1 1 45.21 0.95
-4 1 -1 46.49 0.99
-4 1 1 47.72 0.97
-1 -1 -4 46.79 0.92
1 -1 4 47.29 0.95
1 -1 -4 46.21 0.93
-1 4 -1 45 0.91
-4 -1 -1 46.02 0.96
-4 -1 1 47.37 0.95
-4 1 -1 45.75 0.95
-4 1 1 46.65 0.94
-1 -4 -1 45.8 0.95
-1 -4 1 46.64 0.95
-1 -1 -4 47.65 0.88
-1 -1 -4 47.81 0.88
-1 1 -4 46.22 0.89
-1 -1 4 47.94 0.93
1 -4 -1 46.87 0.98
1 -4 1 45.85 0.96
1 -1 -4 47.33 0.93
-1 1 -4 48.55 0.9
1 -1 4 47.6 0.87
1 1 -4 46.99 0.91
1 1 4 48.4 0.92
1 4 -1 46.1 0.94
1 4 1 46.03 0.95
-1 4 1 46.31 0.94
1 -1 -4 46.72 0.94
-1 4 1 45.94 0.94
2 0 -4 34.77 0.65
2 -4 0 34.69 0.74
-4 0 -2 35.11 0.79
-4 0 2 34.34 0.75
-2 4 0 35.19 0.74
0 -2 -4 35.17 0.69
0 2 -4 34.29 0.76
0 -4 2 34.59 0.73
2 0 4 35.33 0.69
0 2 4 35.93 0.73
2 -4 0 33.7 0.72
2 4 0 34.14 0.75
4 0 -2 34.67 0.75
4 0 2 34.95 0.72
4 0 -2 35.47 0.72
-2 0 -4 35.06 0.75
-4 -2 0 35.15 0.75
-4 -2 0 35.24 0.73
-4 -2 0 34.54 0.7
-2 0 -4 35.09 0.75
0 4 -2 35.19 0.75
-4 2 0 33.25 0.73
-2 0 -4 35.09 0.69
-2 0 -4 34.48 0.7
0 -4 -2 35.21 0.73
0 2 -4 36.2 0.7
0 4 -2 35.59 0.74
2 0 -4 35.7 0.65
4 -2 0 34.75 0.73
4 2 0 35.19 0.74
4 -2 0 34.26 0.73
4 2 0 33.78 0.75
0 -2 -4 34.77 0.75
0 -2 4 35.11 0.73
2 -4 0 35.3 0.75
-4 0 -2 34.57 0.74
-2 -4 0 34.91 0.75
-2 4 0 35.79 0.75
0 -2 -4 34.17 0.65
0 2 -4 35.34 0.69
0 -4 2 34.39 0.74
4 -2 0 34.07 0.69
2 4 0 35.55 0.75
2 4 0 33.15 0.68
4 0 2 35.41 0.73
2 0 -4 35.23 0.73
-4 0 -2 33.89 0.72
-2 -4 0 34.98 0.75
0 4 2 34.54 0.75
2 0 -4 34.85 0.74
-2 0 4 35.63 0.7
0 4 -2 34.26 0.7
-4 2 0 34.04 0.76
0 -4 -2 34.04 0.78
-4 -2 1 30.65 0.67
-1 -2 -4 31.22 0.69
1 2 -4 30.26 0.62
2 -4 1 30.14 0.68
4 -2 -1 30.27 0.68
4 -1 2 29.96 0.65
-1 -4 2 31.35 0.67
-4 -2 1 31.48 0.62
1 4 2 31.41 0.69
4 -1 2 31.44 0.64
-4 -1 -2 30.98 0.68
4 -2 -1 29.87 0.63
2 1 4 31.73 0.65
-2 1 -4 30.53 0.7
-1 4 -2 31.81 0.7
-4 -1 -2 31.91 0.67
-2 -4 -1 31.29 0.7
4 2 1 31.09 0.69
1 -4 -2 31.08 0.72
2 4 -1 31.71 0.69
-1 -2 -4 30 0.62
-4 1 2 31.27 0.69
4 -1 2 31.43 0.67
-2 4 1 31.05 0.66
4 1 -2 31.38 0.69
1 2 -4 31.59 0.62
-4 -1 -2 30.88 0.71
2 -4 1 31.44 0.68
4 -2 -1 30.97 0.66
1 -2 4 31.64 0.68
1 -4 -2 30.82 0.66
-1 2 4 32.79 0.65
-2 -4 -1 31.48 0.68
2 4 -1 30.98 0.65
4 2 1 30.67 0.68
-1 -2 -4 30.85 0.61
-1 -2 -4 30.77 0.61
2 4 -1 30.75 0.68
1 2 -4 31.25 0.63
-2 1 -4 31.45 0.64
1 2 -4 30.87 0.7
-1 4 -2 30.97 0.62
2 -1 -4 30.18 0.64
-2 -1 4 31.94 0.63
-1 -4 2 30.64 0.68
4 1 -2 30.83 0.66
-4 2 -1 31.05 0.68
-4 -2 1 31.22 0.68
2 -1 -4 30.47 0.67
1 -2 -4 30.83 0.68
1 -4 2 31.53 0.68
2 1 -4 31.96 0.65
4 1 2 30.06 0.67
4 -2 1 30.26 0.65
4 2 -1 30.75 0.69
-2 4 -1 31.73 0.69
1 -2 -4 31.8 0.67
-4 -1 2 31.17 0.68
-4 2 1 30.18 0.69
2 -1 4 30.7 0.68
-2 -1 -4 31.71 0.66
1 2 4 31.41 0.66
2 -4 -1 30.62 0.67
-1 4 2 29.89 0.68
2 -4 -1 31.53 0.71
4 2 -1 31.07 0.68
2 1 -4 30.91 0.69
-2 4 -1 31.61 0.69
-2 -4 1 32.09 0.69
1 4 -2 31.63 0.68
-4 1 -2 31.37 0.73
-1 2 -4 31.69 0.71
-4 -2 -1 31.72 0.68
-4 1 -2 30.79 0.68
-4 -2 -1 30.34 0.65
-2 -1 -4 31.55 0.63
-2 -1 -4 31.36 0.63
2 -4 -1 30.83 0.67
-1 -4 -2 30.11 0.67
1 -4 2 31.15 0.68
-4 -2 -1 31.91 0.69
2 4 1 31.09 0.7
1 4 -2 31.43 0.67
2 1 -4 32.09 0.61
2 1 -4 31.13 0.61
-2 4 -1 29.98 0.63
4 -2 1 31.84 0.68
1 4 -2 31.29 0.65
4 -2 1 31.07 0.64
2 4 1 31.34 0.68
-1 4 2 30.5 0.62
-2 -4 1 31.45 0.68
4 1 2 31.32 0.67
-1 -2 4 32.2 0.66
2 -1 4 32.21 0.6
4 -1 -2 31.43 0.65
-2 1 4 31.54 0.68
-2 -1 -4 30.68 0.69
4 -1 -2 32.75 0.69
-1 -4 -2 31.32 0.71
4 2 -2 20.81 0.52
4 -2 2 21.52 0.51
4 2 -2 21.19 0.5
4 -2 2 21.13 0.48
2 2 -4 21.24 0.46
-2 4 -2 21.36 0.52
-4 -2 2 21.07 0.51
-2 -2 -4 21.28 0.47
4 2 2 20.98 0.51
2 -2 -4 20.78 0.41
-4 2 -2 20.86 0.51
-2 -4 2 21.23 0.5
2 2 4 21.65 0.5
-2 -2 4 22.15 0.47
2 -4 -2 20.43 0.54
-2 -4 -2 21.41 0.54
2 -4 -2 21.72 0.49
2 4 -2 21.48 0.5
-4 2 -2 21.62 0.56
-4 2 2 20.77 0.51
-4 -2 -2 20.99 0.51
2 -4 -2 21.03 0.52
2 -2 -4 21.36 0.51
2 4 2 21.6 0.53
4 -2 -2 20.95 0.52
4 -2 2 20.95 0.46
2 -2 -4 21.34 0.48
-4 -2 -2 21.14 0.52
2 4 -2 21.02 0.51
4 -2 -2 21.16 0.48
2 2 -4 21.31 0.48
-4 -2 2 20.67 0.43
2 4 -2 20.92 0.5
-2 2 -4 21.55 0.55
-2 -4 -2 21.02 0.51
-2 4 -2 20.7 0.53
-4 -2 -2 20.56 0.52
2 -4 2 22.2 0.51
-2 2 -4 21.01 0.48
-2 2 4 21.48 0.49
-2 4 2 21.4 0.47
2 2 -4 21.31 0.52
2 -4 2 20.96 0.51
2 -2 4 21.83 0.51
-2 -2 -4 20.73 0.45
-2 -2 -4 20.69 0.53
4 -3 0 18.42 0.46
3 0 4 19.26 0.43
3 0 -4 19.05 0.47
-4 3 0 19.75 0.5
3 -4 0 18.7 0.48
-3 0 4 19.13 0.48
-3 0 -4 18.99 0.49
3 4 0 18.53 0.49
-4 -3 0 19.19 0.45
4 0 3 18.93 0.44
-3 0 -4 18.49 0.49
-4 0 3 19.21 0.48
0 4 -3 19.93 0.5
0 4 3 19.61 0.49
0 -3 4 20.02 0.47
-4 0 -3 18.9 0.47
-3 -4 0 19.12 0.47
0 -3 -4 18.38 0.49
4 -3 0 19.65 0.48
4 3 0 20.19 0.49
-4 -3 0 19.79 0.49
-3 0 -4 19.22 0.45
-4 -3 0 18.99 0.45
0 3 4 19.86 0.48
-3 0 4 19.17 0.4
0 -4 -3 19.25 0.51
0 -4 3 19.38 0.47
-3 -4 0 18.79 0.42
-3 4 0 18.41 0.48
0 3 -4 18.8 0.5
3 -4 0 18.51 0.45
4 -3 0 19.67 0.45
-4 0 -3 18.85 0.47
-4 0 -3 18.38 0.52
4 0 -3 19.13 0.49
-3 -4 0 19.48 0.49
0 -3 -4 18.7 0.41
0 3 -4 20.04 0.45
3 -4 0 19.89 0.48
3 4 0 19.33 0.49
4 0 -3 19.32 0.43
0 -4 -3 18.81 0.44
4 3 0 18.41 0.49
3 0 -4 19.74 0.41
0 4 -3 19.68 0.47
3 0 -4 19.03 0.4
-4 3 -1 15.82 0.46
-3 -4 -1 16.41 0.43
4 3 1 15.07 0.44
-4 -1 -3 15.52 0.42
-3 -1 4 15.79 0.35
1 3 -4 16.18 0.39
3 4 -1 15.37 0.44
-1 3 4 15.73 0.36
4 1 -3 15.77 0.43
4 -3 -1 15.74 0.4
3 4 -1 16.42 0.43
-3 -4 -1 16.54 0.43
4 1 -3 15.77 0.38
-4 -1 -3 16.09 0.45
3 -4 1 17.29 0.44
4 3 1 16.23 0.43
-3 1 -4 15.91 0.46
-1 4 -3 16.78 0.43
-1 4 -3 16.84 0.46
3 -4 1 16.42 0.42
3 -1 -4 16.13 0.34
-3 4 1 15.84 0.42
4 -1 3 15.65 0.37
-4 -3 1 16.18 0.38
-3 1 -4 16.71 0.41
4 -1 3 16.01 0.41
-4 1 3 16.58 0.43
-1 -3 -4 16.72 0.37
1 3 -4 15.16 0.44
3 -4 1 15.51 0.38
4 -3 -1 16.18 0.42
1 4 3 15.95 0.43
3 -1 -4 15.99 0.43
-1 -3 -4 16.21 0.45
3 1 4 15.99 0.4
4 -3 -1 15.3 0.42
1 -4 -3 16.14 0.38
3 -1 -4 15.93 0.34
1 -4 -3 15.95 0.45
-4 -1 -3 15.83 0.42
-1 -4 3 15.79 0.41
-4 3 -1 15.61 0.43
-4 -3 1 15.53 0.4
3 1 -4 15.67 0.41
-4 1 -3 15.68 0.42
4 -1 -3 15.27 0.43
-4 -3 -1 16.54 0.44
-1 4 3 16.48 0.44
-3 -1 -4 16.22 0.4
4 -1 -3 16.51 0.38
-3 -4 1 15.91 0.41
3 -4 -1 15.29 0.42
4 -3 1 15.77 0.39
-3 -1 -4 15.71 0.41
3 4 1 16.29 0.45
-1 -4 -3 15.58 0.4
1 -4 3 15.82 0.42
-1 -3 4 16.01 0.4
-3 -1 -4 15.67 0.43
-4 1 -3 15.93 0.49
-3 4 -1 16.23 0.43
-3 -4 1 15.84 0.39
-3 4 -1 15.5 0.44
1 -3 -4 16.18 0.34
-1 3 -4 16.22 0.46
3 -4 -1 16.07 0.41
1 -3 -4 15.87 0.34
-3 1 4 16.04 0.42
1 4 -3 15.35 0.37
1 4 -3 15.68 0.44
3 1 -4 16.43 0.44
1 3 4 15.97 0.42
1 -3 -4 15.73 0.43
3 -4 -1 17.29 0.44
-4 -1 3 16 0.43
4 3 -1 15.47 0.44
4 -3 1 16.07 0.39
4 3 -1 16.08 0.43
-3 -4 1 16.07 0.43
4 -3 1 16.34 0.43
-4 -3 -1 15.62 0.41
3 1 -4 15.87 0.36
-1 -4 -3 16.13 0.46
1 -3 -4 15.35 0.43
4 1 3 15.81 0.41
3 -1 4 15.61 0.42
-4 -3 -1 16.12 0.4
-4 3 1 15.73 0.43
1 4 -3 16.27 0.41
-3 -4 -2 9.53 0.31
2 -3 4 9.27 0.31
-4 3 -2 8.71 0.32
3 -2 -4 9.09 0.23
-3 -4 -2 8.87 0.33
-2 -4 3 8.88 0.29
4 2 -3 8.71 0.31
-2 3 4 8.95 0.27
-4 3 -2 8.43 0.35
-3 4 2 9.05 0.29
-3 2 -4 8.83 0.36
2 4 3 9.44 0.33
-2 -3 -4 9.34 0.34
3 4 -2 8.96 0.3
-2 -3 -4 9.32 0.27
4 -3 -2 9.26 0.29
4 -2 3 9.65 0.3
2 3 -4 9.1 0.28
2 -4 -3 9.37 0.27
3 4 -2 9.25 0.31
3 -2 -4 9.1 0.22
4 2 -3 9.13 0.28
2 -4 -3 8.99 0.32
-4 2 3 9.19 0.31
-4 -2 -3 9.59 0.32
-4 -2 -3 9.08 0.31
-3 2 -4 8.95 0.3
3 4 -2 9.18 0.31
4 3 2 7.76 0.31
-3 -2 4 9.47 0.25
3 2 4 8.84 0.3
4 -3 -2 8.75 0.32
2 3 -4 9.05 0.27
-4 -3 2 9.43 0.26
-2 4 -3 8.89 0.34
2 -4 -3 8.97 0.33
-4 -2 -3 9.17 0.29
-4 -3 2 9.06 0.3
3 -2 -4 9.02 0.32
3 -4 2 9.39 0.3
2 3 -4 9.63 0.34
2 -3 -4 9.13 0.23
2 4 -3 8.79 0.32
3 2 -4 8.63 0.32
-2 3 -4 8.46 0.35
4 2 3 8.85 0.31
-3 -2 -4 8.61 0.28
-2 4 3 8.89 0.26
2 4 -3 8.82 0.28
-4 2 -3 8.96 0.31
3 -4 -2 9.51 0.29
3 2 -4 8.49 0.29
-3 4 -2 9.27 0.35
-4 3 2 8.94 0.3
4 -3 2 9.03 0.25
4 3 -2 9.31 0.32
4 -2 -3 9.21 0.26
3 4 2 9.06 0.33
2 -3 -4 9.01 0.32
-4 -3 -2 9.22 0.31
2 3 4 8.88 0.31
-4 -3 -2 8.88 0.31
-3 2 4 8.95 0.29
-3 -2 -4 9.03 0.32
4 -2 -3 8.53 0.31
-2 -4 -3 9.08 0.34
-4 -2 3 8.88 0.31
-4 2 -3 8.38 0.36
-3 -4 2 9.29 0.29
3 -2 4 9.1 0.3
4 -3 2 9.26 0.29
2 -3 -4 9.13 0.3
2 4 -3 8.96 0.3
-2 -3 4 8.97 0.27
-3 4 -2 9.36 0.33
3 2 -4 9.08 0.26
2 -3 -4 9.06 0.23
2 -4 3 9.27 0.31
3 -4 -2 8.84 0.32
3 -4 -2 8.35 0.31
-2 -4 -3 9.15 0.29
4 3 -2 9.03 0.31
3 4 -3 5.38 0.25
3 4 -3 5.96 0.26
-3 -4 -3 5.61 0.29
3 3 4 6.04 0.28
-3 3 4 5.97 0.24
-3 4 -3 6.02 0.32
-3 4 3 6.14 0.24
3 3 -4 5.91 0.28
3 4 -3 5.68 0.27
-3 3 -4 5.86 0.31
3 3 -4 5.33 0.24
-3 -4 -3 6 0.26
-3 -3 -4 5.83 0.24
4 -3 3 6.09 0.26
-3 4 -3 6.42 0.3
3 -4 -3 5.87 0.23
3 -3 -4 5.81 0.2
-4 -3 -3 5.98 0.29
-4 -3 -3 6 0.27
-4 3 -3 5.92 0.29
-3 3 -4 6.48 0.27
-4 -3 3 6.39 0.27
-4 3 -3 6.14 0.32
-4 3 3 5.93 0.25
3 3 -4 5.66 0.23
3 -4 -3 5.7 0.29
3 -3 -4 5.88 0.28
-3 -3 4 6.29 0.22
3 -4 -3 6.05 0.26
3 -4 3 6.13 0.27
3 4 3 5.83 0.29
4 -3 -3 5.73 0.28
4 3 -3 6.13 0.27
4 3 3 5.99 0.29
4 -3 -3 6.01 0.23
4 3 -3 5.84 0.25
-3 -3 -4 5.81 0.3
-3 -4 3 6.03 0.24
3 -3 4 6.65 0.28
0 -4 -4 6.87 0.23
4 -4 0 7.12 0.26
4 0 4 7.17 0.23
4 0 -4 7.02 0.29
4 -4 0 6.62 0.26
-4 -4 0 7.37 0.3
-4 0 -4 6.87 0.27
4 4 0 6.83 0.31
0 4 4 7.64 0.31
-4 -4 0 6.95 0.26
-4 0 -4 7.12 0.29
0 -4 -4 7.17 0.31
0 -4 4 6.96 0.27
-4 0 -4 6.99 0.32
-4 0 4 6.91 0.29
0 4 -4 7.51 0.27
4 -4 0 7.46 0.29
4 0 -4 6.95 0.22
4 4 0 7.12 0.3
-4 4 0 6.77 0.29
0 4 -4 7.04 0.31
4 1 4 5.94 0.24
4 4 -1 6.05 0.28
4 4 1 5.95 0.28
1 -4 -4 6.12 0.21
4 -1 -4 6.19 0.2
-4 -4 -1 6.44 0.27
4 -1 -4 6.1 0.29
4 1 -4 6.27 0.28
1 4 4 5.86 0.28
4 -4 -1 5.32 0.26
4 -4 1 5.73 0.23
-4 -4 -1 6.21 0.28
-4 -1 -4 5.74 0.26
-4 1 -4 6.4 0.27
-1 -4 -4 6.32 0.23
-1 4 -4 6.1 0.26
1 4 -4 6.02 0.29
4 4 -1 6.07 0.28
-4 4 -1 5.63 0.29
1 4 -4 6.41 0.25
-4 -4 1 6.63 0.25
-4 -1 -4 5.9 0.28
-1 -4 -4 5.89 0.3
-1 -4 4 6.13 0.25
1 -4 -4 6.27 0.29
1 -4 4 6.35 0.26
4 -4 -1 5.58 0.26
4 -4 1 6.11 0.25
4 -1 4 6.48 0.27
-4 4 1 6.25 0.27
-1 4 -4 6.31 0.31
-4 1 -4 5.62 0.32
4 -4 -1 6.57 0.27
4 -4 1 6.18 0.29
-1 4 4 6.03 0.28
-4 -4 1 6.52 0.24
-4 -1 -4 6.32 0.28
-4 -1 4 6.34 0.27
4 1 -4 6.06 0.21
-4 1 4 6.19 0.27
2 4 4 4.03 0.25
4 2 4 4.19 0.24
4 4 -2 4.19 0.26
-4 -4 -2 4.23 0.25
-2 -4 -4 4.28 0.21
2 -4 -4 4.3 0.18
2 4 -4 4.24 0.23
-4 -2 -4 4.63 0.26
4 -4 -2 4.03 0.26
4 2 -4 4.15 0.2
4 4 -2 4.6 0.26
-4 -4 2 4.38 0.21
-2 -4 -4 4.58 0.28
-2 -4 4 4.34 0.22
-4 2 -4 4.31 0.25
-4 4 -2 4.51 0.28
-4 2 4 4.43 0.24
-4 4 -2 4.04 0.28
-4 4 2 4.57 0.24
2 -4 -4 4.42 0.28
-4 -4 2 4.46 0.23
4 4 2 4.56 0.28
-4 -2 -4 4.5 0.25
-4 -4 -2 4.13 0.25
4 -4 -2 4.07 0.22
4 -2 -4 4.04 0.18
4 2 -4 4.29 0.24
-4 -2 4 4.67 0.25
-4 2 -4 3.97 0.31
4 -2 -4 3.77 0.25
-2 4 -4 4.21 0.28
2 4 -4 4.06 0.26
2 -4 -4 4.8 0.26
2 -4 4 4.95 0.25
4 -4 2 4.43 0.23
4 -2 4 4.57 0.24
-3 -4 -4 2.1 0.18
-3 4 -4 1.75 0.2
3 -4 -4 2.14 0.15
4 -4 3 2.32 0.2
4 4 3 2.11 0.22
-4 -3 -4 1.53 0.19
-3 -4 -4 1.65 0.2
3 4 -4 2.12 0.18
4 -4 -3 1.98 0.16
-4 3 -4 1.52 0.23
-4 3 4 2.22 0.19
-4 -4 -3 1.93 0.21
-4 4 -3 1.72 0.22
-4 4 3 2.17 0.19
-3 -4 4 2.07 0.17
3 -4 4 2.05 0.2
-4 -4 3 2.11 0.2
-4 -3 4 1.87 0.19
4 3 -4 2.08 0.17
4 4 -3 1.92 0.19
4 -4 -3 1.95 0.21
4 -3 -4 2.05 0.22
4 3 -4 2.25 0.21
4 3 4 1.89 0.2
4 4 -3 1.99 0.2
-4 -4 -3 1.75 0.18
-4 -3 -4 2.29 0.2
-4 3 -4 2.18 0.21
-4 4 -3 2.11 0.21
-3 4 -4 1.65 0.21
-3 4 4 2.11 0.17
3 4 -4 1.78 0.2
4 -3 -4 2 0.15
3 -4 -4 1.75 0.21
3 4 4 1.76 0.21
4 -3 4 1.93 0.19
-4 4 -4 1.41 0.21
-4 -4 -4 0.99 0.17
4 4 -4 0.77 0.15
4 -4 4 1.22 0.18
-4 4 -4 1 0.21
-4 4 4 1.21 0.17
4 4 -4 0.87 0.17
-4 -4 -4 0.92 0.2
4 4 -4 0.75 0.16
4 -4 -4 0.92 0.13
4 4 4 0.95 0.19
4 -4 -4 1.08 0.2
0 0 -5 17.9 0.45
5 0 0 17.76 0.44
0 5 0 16.86 0.43
5 0 0 17.31 0.45
0 5 0 16.9 0.44
0 5 0 15.92 0.39
-5 0 0 16.82 0.46
-5 0 0 17.63 0.46
0 -5 0 18 0.48
0 0 -5 17.31 0.44
0 -5 0 17.55 0.45
0 -1 -5 15.95 0.42
0 -1 5 16.75 0.42
1 -5 0 16.31 0.46
0 1 -5 16.17 0.34
-1 5 0 15.99 0.41
0 -5 -1 16.05 0.43
0 -5 1 16.8 0.44
0 5 -1 15.16 0.43
1 -5 0 16.21 0.43
1 5 0 16.44 0.44
5 0 -1 15.93 0.42
5 0 1 16.14 0.43
-5 1 0 15.95 0.45
-5 -1 0 16.05 0.44
0 5 -1 15.62 0.41
0 5 1 14.86 0.42
1 0 -5 16.37 0.4
1 0 5 16.66 0.37
5 -1 0 15.8 0.42
5 0 1 15.83 0.37
-1 0 -5 16.52 0.34
-1 -5 0 15.96 0.45
1 5 0 15.59 0.37
-1 -5 0 16.9 0.44
0 1 -5 16.21 0.33
5 0 1 15.64 0.42
-5 0 1 16.42 0.44
5 1 0 16.21 0.44
0 -1 -5 16.28 0.41
0 1 -5 16.59 0.45
-5 0 -1 16.24 0.44
0 5 -1 15.85 0.41
1 0 -5 16.01 0.43
0 -5 -1 16.06 0.47
0 -5 1 17.41 0.45
1 5 0 16.21 0.43
0 1 5 16.55 0.4
-5 0 -1 16.63 0.47
-1 0 5 16.8 0.41
-1 5 0 15.55 0.4
-1 0 -5 16.34 0.43
-1 0 -5 16.43 0.44
5 -1 0 17.12 0.43
5 1 0 16.51 0.44
-5 -1 0 16.23 0.44
-1 0 -5 16.31 0.34
5 0 -1 15.92 0.44
1 -1 -5 12.96 0.36
1 1 -5 13.2 0.39
1 5 -1 13.11 0.35
-1 1 -5 13.31 0.39
5 -1 1 12.62 0.35
5 1 1 12.72 0.38
5 -1 1 12.83 0.38
1 5 1 12.64 0.38
1 -5 1 13.31 0.39
1 1 -5 12.75 0.27
1 1 -5 13.18 0.27
-1 5 1 12.73 0.32
5 -1 -1 13.22 0.37
-1 -1 -5 13.21 0.38
5 -1 -1 12.85 0.38
1 -5 -1 13.45 0.42
1 -5 1 13.22 0.39
1 -1 -5 12.82 0.36
-5 1 -1 13.59 0.39
-1 -1 -5 12.61 0.27
-1 -1 5 13.22 0.35
5 1 1 13.5 0.39
-1 5 1 13.03 0.37
1 -1 -5 13.11 0.35
1 1 -5 12.74 0.32
1 1 5 13.73 0.34
1 5 -1 12.04 0.37
1 5 -1 13.49 0.38
-5 -1 -1 12.34 0.33
-1 -5 -1 13.39 0.41
-1 -5 1 12.79 0.39
5 1 -1 13 0.37
5 1 -1 12.41 0.38
-1 5 -1 13 0.37
1 -1 5 13.08 0.37
5 -1 1 12.56 0.31
-5 -1 -1 13.02 0.4
-5 -1 1 13.23 0.38
-5 1 -1 13.09 0.42
-5 1 1 12.15 0.38
-1 -1 -5 12.62 0.36
1 -5 -1 12.99 0.37
-1 1 -5 13.14 0.31
-1 5 -1 12.89 0.34
-5 -1 -1 12.68 0.39
-1 5 -1 12.89 0.38
-1 -5 -1 12.93 0.38
-1 -5 1 13.05 0.38
-1 -1 -5 13.27 0.28
-5 0 2 9.83 0.33
0 5 -2 10.11 0.33
2 5 0 9.75 0.34
5 0 2 9.67 0.3
-2 0 -5 10.02 0.27
0 -5 -2 10.26 0.32
5 0 -2 10.22 0.31
5 -2 0 10.61 0.33
5 2 0 10.23 0.34
-2 5 0 9.66 0.31
-2 5 0 9.84 0.31
0 2 -5 10.22 0.35
0 5 2 9.3 0.33
2 0 -5 9.95 0.31
2 0 5 9.76 0.27
5 -2 0 9.49 0.32
-5 0 -2 9.72 0.34
-2 -5 0 10.39 0.34
0 2 -5 10.25 0.27
2 -5 0 10.64 0.34
2 5 0 10.25 0.35
0 -5 -2 10.02 0.37
0 -5 2 9.68 0.33
5 0 2 9.95 0.3
-5 -2 0 10.19 0.33
-2 0 -5 10.6 0.34
0 5 -2 9.64 0.33
2 0 -5 10.21 0.33
0 -2 -5 10.23 0.28
-2 0 5 10.48 0.29
-2 0 -5 10.26 0.34
5 0 -2 9.96 0.34
5 2 0 9.54 0.34
0 2 5 10.25 0.32
-5 0 -2 10.08 0.38
-2 -5 0 10.32 0.34
0 -2 -5 10.27 0.34
0 -2 5 9.93 0.31
2 -5 0 10.01 0.35
-5 -2 0 9.81 0.28
5 -1 2 9.09 0.28
-2 1 -5 9.07 0.27
-1 5 -2 9.42 0.33
5 -2 -1 9.27 0.31
1 2 -5 9.56 0.25
-1 -5 2 9.67 0.33
1 5 2 9.4 0.34
2 1 5 9 0.28
-5 -1 -2 8.75 0.36
-2 1 -5 9.62 0.34
5 -1 2 9.19 0.28
-2 5 1 9.84 0.32
5 1 -2 9.25 0.3
5 2 1 8.99 0.32
-5 -1 -2 9.57 0.3
-2 -5 -1 8.72 0.34
2 5 -1 9.08 0.33
1 -5 -2 9.38 0.37
-5 -2 1 9.5 0.31
5 -2 -1 9.11 0.32
1 2 -5 9.62 0.34
-2 -5 -1 9.41 0.33
-5 2 -1 9.83 0.33
-1 -2 -5 9.72 0.23
-2 -1 5 9.55 0.27
-1 5 -2 9.83 0.33
1 -2 5 9.28 0.31
2 5 -1 9.27 0.34
2 -1 -5 9.06 0.28
-1 -2 -5 8.95 0.22
-5 -1 -2 9.55 0.34
2 -1 -5 9.17 0.31
2 -5 1 9.51 0.33
2 5 -1 8.75 0.28
-5 2 -1 9.05 0.35
-5 1 2 8.67 0.32
1 -5 -2 9.61 0.31
-2 5 1 9.33 0.29
2 -5 1 9.3 0.33
-1 -2 -5 9.42 0.33
-1 2 5 9.8 0.29
5 1 -2 9.37 0.33
5 2 1 8.92 0.33
-5 1 -2 9.3 0.33
-5 1 -2 9.72 0.38
-2 -1 -5 9.82 0.33
-1 5 2 9.38 0.33
5 -2 1 8.75 0.26
-2 5 -1 9.55 0.33
-2 -5 1 10.02 0.33
1 -5 2 9.23 0.32
5 -1 -2 9.67 0.3
-1 -5 -2 9.24 0.31
1 5 -2 9.3 0.31
2 1 -5 9.63 0.33
-2 -1 -5 9 0.3
-5 2 1 9.61 0.33
-2 5 -1 9.15 0.28
5 -2 1 8.95 0.29
5 2 -1 9.71 0.34
-1 2 -5 9.51 0.35
2 5 1 9.19 0.35
-1 -2 5 9.37 0.29
1 -2 -5 9.06 0.32
-5 -2 -1 9.53 0.33
-2 -1 -5 9.35 0.26
-5 -2 -1 9.13 0.29
2 -1 5 9.85 0.32
5 -1 -2 9.76 0.34
1 5 -2 9.52 0.3
2 1 -5 8.87 0.28
-2 1 5 9.17 0.31
1 2 5 9.89 0.31
2 1 -5 9.46 0.22
2 -5 -1 9.9 0.35
5 1 2 9.66 0.31
-5 -1 2 9.49 0.33
5 2 -1 9.98 0.33
-2 -5 1 9.29 0.34
1 -2 -5 9.83 0.32
-5 -2 -1 9.91 0.34
-1 -5 -2 8.98 0.35
2 -5 -1 9.45 0.32
1 5 -2 9.52 0.33
2 1 -5 9.3 0.21
5 -2 1 9.42 0.32
5 -2 -2 5.34 0.24
-5 -2 2 5.6 0.25
-2 2 5 5.44 0.23
-2 -2 -5 5.11 0.27
-5 -2 -2 5.59 0.28
-5 2 -2 5.47 0.27
-2 2 -5 5.53 0.23
2 -5 -2 5.62 0.25
-5 -2 -2 5 0.27
2 5 -2 5.51 0.27
2 2 -5 5.57 0.28
2 5 -2 5.38 0.25
-2 2 -5 5.46 0.29
2 5 -2 5.43 0.26
-2 -2 5 5.74 0.22
2 -5 -2 5.44 0.3
2 -5 2 5.93 0.26
-5 2 -2 5.61 0.31
-5 2 2 5.36 0.25
2 2 -5 5.31 0.21
5 -2 2 5.27 0.22
5 2 -2 5.8 0.28
5 2 2 5.35 0.26
5 -2 -2 5.36 0.27
-5 -2 -2 5.24 0.24
-2 -5 -2 5.45 0.28
2 -2 -5 5.43 0.26
2 -2 5 5.43 0.25
5 2 -2 5.55 0.25
5 -2 2 5.29 0.22
-2 -5 2 5.57 0.25
2 5 2 5.15 0.29
-2 -5 -2 5.79 0.27
-2 -2 -5 5.4 0.2
2 2 -5 5.67 0.19
2 -2 -5 5.61 0.24
-2 5 -2 5.62 0.28
-2 5 2 5.56 0.27
2 2 5 5.71 0.25
-5 -3 0 5.53 0.24
3 0 -5 5.45 0.14
3 0 -5 5.35 0.26
3 5 0 5.94 0.29
-5 3 0 5.26 0.28
-3 -5 0 5.91 0.28
3 0 -5 5.22 0.14
-3 0 -5 5.13 0.22
0 -5 -3 5.41 0.23
0 5 -3 5.55 0.26
-3 0 -5 4.99 0.27
5 0 3 5.02 0.22
5 0 -3 4.74 0.28
-5 0 -3 5.21 0.32
-5 0 3 5.5 0.26
5 0 -3 5.6 0.23
-3 0 5 5 0.26
5 3 0 5.02 0.27
-5 0 -3 5.25 0.27
-3 -5 0 5.05 0.26
0 -3 -5 5.23 0.15
-5 -3 0 5.27 0.22
5 -3 0 5.77 0.27
5 3 0 5.38 0.27
3 -5 0 5.31 0.25
5 -3 0 5.37 0.25
0 -3 -5 5.68 0.28
0 5 -3 5.51 0.28
-3 0 -5 5.65 0.28
0 3 5 5.79 0.27
-3 5 0 5.55 0.27
0 5 3 4.65 0.27
0 3 -5 5.93 0.28
0 -5 -3 5.14 0.3
0 -5 3 4.99 0.24
3 -5 0 5.42 0.27
0 3 -5 5.47 0.22
5 0 3 5.3 0.25
3 -5 0 5.31 0.26
0 -3 5 5.36 0.25
3 5 -1 4.65 0.27
-1 5 -3 4.4 0.27
5 -1 3 4.44 0.2
1 -3 5 5.28 0.25
-1 5 -3 4.89 0.26
5 -3 -1 4.48 0.26
-3 -5 -1 4.57 0.26
-5 -1 -3 4.66 0.27
1 3 -5 4.55 0.2
-3 1 -5 4.44 0.22
-5 -1 -3 4.94 0.24
5 1 -3 4.74 0.22
-3 -5 -1 4.93 0.27
5 -3 -1 4.68 0.25
3 1 5 4.46 0.22
3 5 -1 4.52 0.26
5 3 1 3.98 0.25
-5 1 3 4.82 0.25
-1 -3 -5 4.13 0.17
-1 3 5 4.72 0.27
1 -5 -3 3.89 0.29
-5 -1 -3 4.08 0.28
-3 5 1 4.6 0.24
-1 -3 -5 4.28 0.27
3 -1 -5 4.16 0.25
3 -5 1 4.76 0.25
5 1 -3 4.44 0.26
-5 -3 1 4.88 0.23
-5 3 -1 4.53 0.28
3 -5 1 5.19 0.27
-3 1 -5 4.76 0.28
-1 -5 3 4.63 0.24
5 -1 3 4.49 0.22
1 -5 -3 4.49 0.22
1 3 -5 4.31 0.27
1 5 3 4.24 0.26
-5 -3 -1 4.49 0.23
-1 5 3 4.43 0.26
3 -1 5 4.29 0.25
-1 3 -5 3.85 0.27
-3 -1 -5 4.96 0.25
3 -5 -1 4.4 0.25
1 5 -3 4.76 0.25
5 -1 -3 4.6 0.27
-5 -3 -1 4.95 0.27
-3 5 -1 4.7 0.27
-5 1 -3 4.27 0.31
5 -3 1 4.98 0.27
-1 -5 -3 4.47 0.22
5 1 3 4.33 0.22
-5 3 1 4.6 0.25
1 -5 3 4.58 0.24
5 3 -1 4.26 0.26
5 -3 1 4.83 0.21
1 -3 -5 4.65 0.26
3 5 1 4.38 0.27
5 -3 1 4.46 0.22
3 1 -5 4.71 0.27
5 -1 -3 4.51 0.21
3 1 -5 4.42 0.23
-5 -1 3 4.43 0.25
5 3 -1 4.73 0.27
-5 -3 -1 4.42 0.24
-5 1 -3 4.28 0.27
-1 -3 5 4.87 0.23
-3 -1 -5 4.45 0.25
3 -5 -1 4.62 0.26
-3 -1 -5 4.48 0.21
3 1 -5 4.63 0.16
1 5 -3 4.36 0.26
-1 -5 -3 4.34 0.28
3 -5 -1 4.3 0.25
-1 3 -5 5.15 0.22
1 3 5 4.85 0.25
-3 -5 1 4.94 0.24
-3 1 5 4.51 0.24
5 3 2 3.16 0.24
-3 2 -5 3.14 0.27
3 2 5 3.29 0.22
3 -2 -5 3.36 0.24
-2 3 5 3.77 0.19
2 -3 5 3.11 0.23
5 2 -3 3.43 0.21
-2 -3 -5 3.35 0.19
-3 2 -5 3.35 0.22
3 5 -2 3.26 0.24
2 -5 -3 3.5 0.28
-5 2 3 3.45 0.23
-3 -5 -2 3.11 0.25
-5 3 -2 3.04 0.26
2 3 -5 3.65 0.27
3 5 -2 3.56 0.23
-5 -2 -3 3.46 0.26
-3 5 2 3.36 0.21
2 -5 -3 3.2 0.2
2 5 3 3.23 0.25
3 -5 2 3.14 0.23
2 3 -5 3.21 0.19
5 -2 3 3.42 0.21
3 5 -2 3.47 0.25
5 -3 -2 3.37 0.25
-2 -3 -5 3.27 0.25
-5 -3 2 3.5 0.22
-5 -2 -3 3.1 0.24
-2 5 -3 3.38 0.27
5 -3 -2 3.19 0.22
-3 -5 -2 3.69 0.25
-2 -5 3 2.99 0.22
5 2 -3 3.3 0.24
-5 3 -2 3.4 0.26
-3 2 5 3.57 0.21
-3 -2 -5 3.33 0.2
-5 2 -3 2.82 0.28
-3 5 -2 3.27 0.26
3 5 2 3.34 0.26
-2 3 -5 2.59 0.25
5 2 3 3.74 0.23
-2 -3 5 3.69 0.2
3 -2 5 3.03 0.22
-2 -5 -3 3.06 0.26
2 -5 3 3.81 0.24
2 5 -3 3.36 0.24
2 -3 -5 3.4 0.25
3 2 -5 3.2 0.17
2 5 -3 3.03 0.24
5 -2 -3 3.59 0.2
3 -5 -2 3.25 0.25
3 -5 -2 3.76 0.22
-5 -3 -2 3.28 0.23
-2 -5 -3 3.66 0.22
5 -2 -3 3.12 0.25
-3 -2 -5 3.55 0.26
-5 3 2 3.2 0.23
5 -3 2 3.31 0.2
3 -5 -2 3.26 0.25
-3 -5 2 3.28 0.23
3 2 -5 3.62 0.22
5 3 -2 3.34 0.24
2 -3 -5 3.59 0.23
-2 5 3 3.57 0.26
-5 -3 -2 3.39 0.25
-5 2 -3 3.37 0.26
5 3 -2 3.67 0.26
3 2 -5 3.42 0.25
2 3 5 3.16 0.24
-5 -2 3 3.85 0.25
5 -3 3 1.85 0.18
3 -5 -3 1.58 0.16
3 -3 -5 1.62 0.1
3 3 -5 1.6 0.14
-5 3 -3 2.14 0.22
-3 3 -5 1.71 0.19
5 3 -3 1.19 0.16
5 -3 -3 1.33 0.2
3 -5 3 1.84 0.2
3 -5 -3 1.6 0.21
3 -5 -3 1.71 0.21
3 -3 -5 1.43 0.2
3 3 5 1.55 0.2
-3 -5 -3 1.7 0.18
3 5 3 1.65 0.21
5 3 3 1.32 0.18
5 -3 -3 1.71 0.16
3 5 -3 1.8 0.2
-3 5 -3 1.1 0.2
3 3 -5 1.46 0.2
3 5 -3 1.64 0.18
-5 -3 3 1.48 0.18
-5 3 -3 1.51 0.24
3 5 -3 1.53 0.18
-5 -3 -3 1.83 0.2
-3 -5 3 1.87 0.19
-3 -3 -5 1.46 0.19
-3 -3 -5 1.74 0.16
-3 5 -3 1.69 0.22
-3 3 -5 1.44 0.22
-5 -3 -3 1.52 0.19
-5 3 3 1.61 0.19
-3 -5 -3 1.42 0.21
3 -3 5 1.69 0.2
5 3 -3 1.37 0.19
-3 3 5 1.49 0.16
0 5 -4 2.01 0.19
0 4 -5 2.6 0.2
0 -5 4 2.57 0.21
-4 0 -5 2.3 0.23
4 0 5 2.12 0.22
4 -5 0 2.24 0.2
0 4 -5 2.18 0.23
-4 -5 0 2.21 0.2
0 -4 -5 2.56 0.24
0 -4 5 2.24 0.19
4 -5 0 2.67 0.23
-5 4 0 1.91 0.21
4 0 -5 2.58 0.23
5 0 4 2.27 0.21
-4 5 0 2.35 0.22
-4 0 -5 2.26 0.19
0 -4 -5 2.21 0.15
0 4 5 2.58 0.24
-5 0 -4 2.18 0.25
5 -4 0 2.56 0.22
4 5 0 2.2 0.22
0 5 4 2.59 0.23
0 -5 -4 2.26 0.17
4 0 -5 2.15 0.14
-5 -4 0 2.25 0.18
5 -4 0 1.96 0.19
5 4 0 1.98 0.21
-5 0 4 2.41 0.22
0 -5 -4 2.57 0.25
5 0 -4 2.13 0.16
-4 0 5 2.29 0.22
0 5 -4 2.18 0.23
4 -5 0 2.56 0.21
5 0 -4 2.49 0.24
-5 0 -4 2.36 0.21
-4 1 -5 1.83 0.23
4 -5 1 2.3 0.22
-5 -1 -4 1.67 0.19
-5 -1 -4 2.07 0.22
-1 -5 4 2.01 0.19
-1 -4 -5 2.16 0.16
-4 5 1 2.25 0.21
-4 -5 -1 2.08 0.2
5 -4 -1 1.97 0.2
1 4 -5 1.73 0.16
1 -5 -4 1.54 0.14
-5 -1 -4 2.06 0.21
-5 1 4 2.05 0.21
-1 5 -4 2.1 0.21
-1 4 5 1.69 0.21
5 4 1 1.49 0.19
4 -5 1 1.84 0.19
4 5 -1 1.49 0.2
-4 1 -5 1.83 0.18
-1 5 -4 1.82 0.22
5 1 -4 1.57 0.2
4 -1 -5 1.93 0.12
5 -4 -1 1.87 0.2
1 5 4 2.04 0.21
4 -1 -5 2.05 0.21
-4 -1 5 1.72 0.19
1 -4 5 2.39 0.21
1 -5 -4 2.12 0.24
5 1 -4 1.81 0.16
5 -1 4 1.77 0.19
-1 -4 -5 1.6 0.21
-5 -4 1 2.03 0.18
-5 4 -1 1.62 0.21
4 1 5 2.02 0.18
-4 -5 -1 2.5 0.23
1 4 -5 1.69 0.21
4 5 -1 2.14 0.21
5 -4 1 1.75 0.19
-4 -5 1 1.85 0.19
4 -5 -1 1.83 0.2
4 5 1 2.1 0.23
-5 4 1 2.27 0.22
1 5 -4 2.02 0.21
1 -5 4 1.45 0.17
1 4 5 1.66 0.19
-4 -1 -5 1.4 0.19
-4 1 5 2.45 0.21
-5 -4 -1 1.77 0.21
5 -1 -4 1.87 0.21
-1 4 -5 1.82 0.23
-5 -4 -1 1.83 0.18
-1 -4 5 2.27 0.2
4 1 -5 2.41 0.22
4 -5 -1 2.21 0.21
1 -4 -5 2 0.22
-5 1 -4 2.1 0.21
4 1 -5 2.14 0.14
5 1 4 1.82 0.18
-1 4 -5 2.09 0.19
1 -4 -5 1.81 0.13
-5 -1 4 2.19 0.22
4 -5 -1 1.87 0.2
5 -1 -4 2 0.15
5 4 -1 2.25 0.22
-5 1 -4 1.4 0.23
-4 -1 -5 1.77 0.17
-1 -5 -4 1.82 0.23
-1 -5 -4 1.65 0.16
-1 5 4 2.32 0.23
5 4 -1 1.81 0.21
1 5 -4 2.12 0.2
4 -1 5 1.88 0.2
-4 5 -1 1.86 0.21
-5 2 4 1.16 0.17
-5 -2 -4 1.36 0.19
-4 2 -5 1.33 0.22
2 -5 -4 1.3 0.14
5 2 -4 1.19 0.19
4 2 5 1.49 0.19
-4 5 2 1.36 0.18
4 5 -2 1.18 0.18
-4 -2 5 1.09 0.17
2 -4 5 1.44 0.19
4 -5 2 1.36 0.18
-2 -4 -5 1.35 0.14
-4 2 -5 1.14 0.17
-2 -5 4 1.62 0.18
4 5 -2 1.38 0.2
5 -4 -2 1.09 0.18
4 -2 -5 1.39 0.2
-2 -4 -5 1.23 0.21
4 -2 -5 1.37 0.1
5 2 -4 1.46 0.16
5 -4 -2 1.43 0.17
-5 4 -2 1.15 0.2
2 -5 -4 1.74 0.22
-4 -5 -2 1.74 0.2
2 4 -5 1.24 0.2
2 5 4 1.27 0.2
-5 -2 -4 1.42 0.2
-4 -5 -2 1.13 0.19
-2 5 -4 0.99 0.19
-2 5 -4 0.55 0.16
5 4 2 1.03 0.18
5 -2 4 1.47 0.18
-5 -4 2 1.26 0.17
2 4 -5 1.12 0.15
5 -4 2 1.78 0.18
5 2 4 1.32 0.18
4 5 2 1.28 0.2
5 4 -2 1.34 0.19
-4 5 -2 0.94 0.19
4 -2 5 1.12 0.17
-5 2 -4 1.56 0.2
2 -4 -5 1.38 0.11
4 -5 -2 1.21 0.16
-5 -4 -2 1.07 0.18
-5 2 -4 1.3 0.24
5 -2 -4 1.56 0.21
-2 -4 5 1.71 0.18
4 2 -5 1.3 0.14
2 4 5 1.28 0.19
4 -5 -2 1.53 0.2
4 2 -5 1.19 0.18
-5 -4 -2 1.53 0.19
-4 -2 -5 1.12 0.16
5 -2 -4 1.24 0.14
-2 -5 -4 1.3 0.16
2 5 -4 1.02 0.16
-4 2 5 1.2 0.17
-4 -5 2 1.64 0.18
2 5 -4 1.1 0.19
5 4 -2 1.46 0.19
-5 -2 4 1.04 0.17
2 -5 4 1.1 0.18
-2 4 -5 0.87 0.2
-5 4 2 1.25 0.18
-4 -5 2 1.49 0.16
2 -4 -5 1.31 0.2
-2 -5 -4 0.98 0.2
-4 -2 -5 0.98 0.18
-2 5 4 0.98 0.19
2 -4 -5 1.49 0.19
4 -3 -5 0.87 0.18
3 5 4 1.15 0.21
-5 4 -3 0.49 0.2
5 3 -4 0.77 0.15
3 -5 -4 0.9 0.21
-3 5 -4 0.47 0.19
3 4 -5 0.66 0.18
5 4 3 0.59 0.18
-4 3 -5 0.57 0.21
4 5 -3 0.79 0.17
5 3 -4 0.52 0.17
-4 3 -5 0.88 0.18
-5 -3 -4 0.7 0.17
-5 3 4 0.56 0.15
-4 -5 -3 0.66 0.17
-3 -5 4 0.93 0.16
-3 -4 -5 0.98 0.16
3 -5 -4 0.64 0.13
-5 -4 3 0.94 0.17
-5 -3 -4 0.55 0.17
3 4 -5 0.89 0.15
5 -4 -3 0.56 0.14
4 5 -3 0.81 0.17
-3 5 -4 0.61 0.19
-4 -5 -3 0.58 0.19
-3 -4 -5 0.8 0.2
3 -4 5 1.21 0.19
4 -5 3 1 0.18
5 -3 4 0.89 0.17
4 3 5 0.65 0.17
4 -3 -5 0.94 0.1
5 -4 -3 0.73 0.18
-5 3 -4 0.95 0.19
-4 -3 -5 0.81 0.18
4 3 -5 0.68 0.18
-5 3 -4 0.76 0.24
3 5 -4 0.61 0.16
4 3 -5 0.88 0.17
3 5 -4 0.65 0.17
-4 -3 -5 0.5 0.15
5 4 -3 0.79 0.19
-5 4 3 0.82 0.17
5 -3 -4 0.83 0.18
-5 -4 -3 0.67 0.18
-4 5 -3 0.6 0.21
3 -5 4 0.76 0.17
4 -3 5 0.73 0.17
5 -4 3 0.86 0.16
-3 -5 -4 0.83 0.15
5 4 -3 0.89 0.17
4 5 3 0.64 0.18
-4 5 -3 0.96 0.22
-3 4 -5 0.88 0.21
5 3 4 0.67 0.16
-3 -5 -4 0.56 0.2
-4 -5 3 0.62 0.15
4 3 -5 0.58 0.14
3 -4 -5 0.77 0.1
4 -5 -3 0.74 0.15
3 -4 -5 0.45 0.18
3 4 5 0.7 0.18
4 -5 -3 0.75 0.19
-4 3 5 0.9 0.16
5 -3 -4 0.8 0.13
-5 -3 4 0.63 0.16
-5 -4 -3 0.79 0.18
-3 4 -5 0.45 0.16
4 -4 -5 0.31 0.1
-4 -5 -4 -0.05 0.17
4 4 5 0.26 0.18
4 5 4 0.13 0.18
4 4 -5 0.47 0.18
-5 -4 -4 0.26 0.17
4 -5 4 0.61 0.18
4 -4 5 0.38 0.16
5 -4 -4 0.15 0.18
5 4 -4 0.17 0.16
5 4 4 0.3 0.17
-4 5 -4 0.32 0.2
-4 -4 -5 0.27 0.17
4 -5 -4 0.33 0.2
4 -4 -5 0.52 0.19
5 -4 4 0.5 0.16
-4 4 -5 0.42 0.19
-4 5 -4 0.49 0.2
4 -5 -4 0.2 0.13
-5 -4 -4 0.15 0.17
-5 4 -4 0.29 0.22
4 5 -4 0.19 0.17
-5 4 -4 0.36 0.2
-4 -5 -4 0.35 0.15
-4 -4 -5 0.35 0.15
-5 -4 4 0.36 0.16
5 4 -4 0.35 0.15
-5 4 4 0.42 0.16
-4 4 -5 0.22 0.19
4 4 -5 0.2 0.13
4 5 -4 0.34 0.16
5 -4 -4 0.32 0.12
0 -5 -5 0.75 0.2
-5 0 -5 0.88 0.17
0 -5 -5 0.95 0.13
0 5 -5 0.54 0.15
5 -5 0 0.8 0.18
5 0 -5 0.93 0.13
-5 5 0 0.85 0.18
5 0 5 0.64 0.17
0 5 -5 0.48 0.17
-5 -5 0 0.94 0.16
5 5 0 0.65 0.18
0 -5 5 0.68 0.16
-5 0 5 0.77 0.18
0 5 5 0.64 0.19
5 -5 0 0.61 0.16
5 0 -5 0.73 0.18
-5 0 -5 0.66 0.2
-1 5 5 0.66 0.2
-5 -1 -5 0.73 0.16
-1 -5 -5 0.71 0.13
-5 -1 5 0.89 0.18
-5 1 -5 0.61 0.21
-5 1 5 0.83 0.17
-5 1 -5 0.57 0.17
-5 -5 -1 0.71 0.17
-5 -1 -5 0.46 0.17
-1 -5 -5 0.36 0.19
-1 -5 5 0.77 0.17
1 -5 -5 0.48 0.19
1 -5 5 0.77 0.17
5 -1 5 0.6 0.17
5 5 1 0.66 0.19
5 -1 -5 0.83 0.19
1 5 5 0.43 0.17
5 -5 -1 0.5 0.17
-1 5 -5 0.49 0.16
1 -5 -5 0.59 0.11
1 5 -5 0.54 0.15
5 -5 -1 0.79 0.18
5 -1 -5 0.78 0.12
5 1 -5 0.42 0.12
5 5 -1 0.81 0.18
-5 5 1 0.68 0.17
-1 5 -5 0.84 0.2
1 5 -5 0.82 0.2
-5 5 -1 0.44 0.19
5 1 -5 0.55 0.18
2 5 -5 0.25 0.14
5 -5 -2 0.45 0.16
-2 5 -5 0.58 0.17
-5 -5 -2 0.17 0.16
-5 2 -5 0.45 0.17
-2 -5 -5 0.56 0.14
-5 -2 5 0.46 0.17
-5 2 -5 0.74 0.24
-5 2 5 0.29 0.15
-5 5 -2 0.43 0.19
-5 5 2 0.38 0.16
-2 5 -5 0.35 0.19
2 5 -5 0.46 0.18
5 -5 2 0.53 0.15
-5 -2 -5 0.44 0.16
2 -5 -5 0.37 0.1
-5 -5 -2 0.27 0.17
-5 -2 -5 0.27 0.15
-2 5 5 0.31 0.18
2 5 5 -0.03 0.17
5 -5 -2 0.46 0.18
5 -2 -5 0.22 0.18
5 2 -5 0.34 0.17
5 2 5 0.53 0.16
5 5 -2 0.61 0.18
5 5 2 0.22 0.16
-2 -5 5 0.51 0.15
2 -5 -5 0.34 0.19
2 -5 5 0.36 0.15
5 -2 -5 0.49 0.1
5 -2 5 0.32 0.15
-2 -5 -5 0.43 0.19
5 2 -5 0.39 0.13
5 5 -2 0.58 0.17
5 3 -5 0.17 0.13
5 5 -3 0.16 0.16
5 -3 5 0.4 0.16
5 -3 -5 0.04 0.17
5 5 -3 0.09 0.17
5 5 3 0.05 0.17
-5 -5 -3 0.35 0.16
-5 -3 -5 0.21 0.16
-5 3 -5 0.46 0.19
-3 -5 -5 0.16 0.13
-3 5 -5 0.28 0.19
3 -5 -5 0.22 0.11
3 5 -5 0.2 0.15
5 3 5 0.35 0.16
3 -5 -5 0.24 0.2
3 5 5 0.42 0.19
5 -5 -3 0.06 0.18
5 -3 -5 0.09 0.09
5 3 -5 0.33 0.17
-5 -5 -3 0.1 0.17
-5 -3 -5 0.14 0.18
-3 -5 -5 0.18 0.2
3 -5 5 0.25 0.15
5 -5 3 0.4 0.16
-5 5 3 0.39 0.17
5 -5 -3 0.28 0.14
-5 -5 3 0.46 0.16
3 5 -5 0.26 0.18
-5 3 5 0.28 0.15
-3 5 -5 0.52 0.22
-5 3 -5 0.16 0.22
-5 5 -3 0.29 0.21
-5 -3 5 0.18 0.15
0 0 6 4.4 0.25
6 0 0 4.15 0.25
6 0 0 4.79 0.27
0 -6 0 4.67 0.27
0 -6 0 4.11 0.28
0 6 0 4.5 0.25
-6 0 0 4.32 0.26
0 0 -6 4.51 0.27
0 -1 6 3.92 0.23
1 -6 0 3.66 0.27
0 -1 -6 4.51 0.24
0 1 -6 4.23 0.27
-6 -1 0 4.23 0.25
-6 1 0 3.64 0.26
-1 0 -6 4.11 0.26
0 6 -1 4.01 0.22
-1 6 0 4.18 0.24
0 1 6 4.25 0.22
1 6 0 3.5 0.26
0 -6 1 3.86 0.26
-1 0 6 3.79 0.23
1 0 6 3.89 0.25
6 0 -1 3.5 0.25
6 0 1 3.78 0.23
-1 0 -6 3.98 0.12
-1 0 -6 3.82 0.13
0 -6 -1 4 0.26
6 -1 0 4.23 0.27
6 1 0 4.1 0.26
1 0 -6 4.04 0.21
-6 0 -1 3.66 0.27
-6 0 1 4.02 0.24
-1 -6 0 3.89 0.27
0 -1 -6 4.1 0.25
1 0 -6 3.95 0.26
6 1 0 3.73 0.25
-1 -6 0 4.13 0.26
0 1 -6 4 0.12
0 1 -6 4.11 0.12
1 -6 0 3.91 0.26
6 0 -1 4.25 0.25
0 -6 -1 3.96 0.29
0 6 -1 4.21 0.24
0 6 1 4.07 0.26
6 -1 0 3.69 0.24
-1 -6 -1 4.04 0.26
-6 1 -1 3.45 0.28
-1 6 1 3.55 0.24
6 -1 1 3.45 0.23
1 -6 1 3.67 0.26
1 -1 -6 3.43 0.23
1 -1 6 3.56 0.23
-1 -1 -6 3.66 0.24
-1 1 -6 3.53 0.26
-1 6 -1 3.15 0.23
1 -1 -6 3.58 0.23
1 1 -6 3.58 0.27
-1 -1 -6 3.43 0.25
-6 1 1 3.5 0.24
6 1 1 3.43 0.24
1 6 -1 3.66 0.25
1 6 1 3.63 0.27
6 -1 -1 3.34 0.24
1 -1 -6 3.65 0.23
1 1 6 3.65 0.21
-6 -1 -1 3.21 0.26
-6 -1 1 3.36 0.24
-1 -6 -1 3.31 0.27
-1 -6 1 3.66 0.25
6 -1 1 3.82 0.27
-1 -1 6 3.5 0.22
1 -6 -1 3.47 0.28
1 -6 1 3.62 0.26
-1 1 -6 3.75 0.16
6 1 -1 3.35 0.25
6 1 -1 3.6 0.25
6 -1 -1 3.71 0.25
1 -6 -1 3.57 0.25
0 -6 -2 2.59 0.26
-6 0 -2 2.72 0.23
0 2 -6 2.84 0.25
2 -6 0 2.74 0.23
0 -6 2 2.12 0.21
2 0 -6 2.51 0.19
-2 0 6 2.82 0.19
-6 0 -2 2.54 0.26
-2 -6 0 2.15 0.21
2 0 6 2.44 0.22
-2 6 0 2.54 0.21
0 -6 -2 2.3 0.2
0 6 -2 2.5 0.22
6 -2 0 2.75 0.22
6 2 0 2.92 0.23
-6 -2 0 2.96 0.23
-6 2 0 2.13 0.23
-6 0 2 2.36 0.22
0 -2 -6 3.07 0.24
0 -2 6 2.66 0.21
2 -6 0 2.85 0.25
-2 6 0 2.52 0.2
6 0 -2 3.14 0.26
-2 0 -6 2.45 0.16
-2 -6 0 2.5 0.21
0 2 -6 2.85 0.15
0 2 6 2.94 0.22
6 0 -2 2.47 0.2
6 2 0 2.65 0.24
2 0 -6 2.55 0.22
6 -2 0 2.36 0.21
0 6 2 2.81 0.23
6 0 2 2.64 0.21
2 6 0 2.95 0.25
0 6 -2 2.77 0.22
-2 0 -6 2.88 0.23
-6 -1 -2 2.24 0.25
6 1 -2 2.31 0.2
6 -1 2 2.45 0.19
2 -6 1 2.13 0.21
1 -2 6 2.02 0.2
-2 -6 -1 2.49 0.23
-2 1 -6 2.76 0.25
6 -2 -1 2.72 0.22
-2 6 1 2.94 0.22
6 2 1 1.82 0.21
6 1 -2 2.32 0.22
1 -6 -2 2.08 0.24
-6 -1 -2 2.46 0.23
-1 -2 -6 2.02 0.22
-2 -1 6 2.46 0.19
-1 6 -2 2.62 0.23
2 6 -1 2.49 0.22
2 -1 -6 2.59 0.21
-6 2 -1 2.34 0.24
-1 2 6 2.83 0.21
-6 1 2 2.51 0.22
-2 -6 -1 2.06 0.22
-2 1 -6 2.26 0.17
-1 6 -2 2.22 0.22
1 2 -6 2.65 0.25
1 -6 -2 2.22 0.19
-1 -6 2 2.18 0.2
1 6 2 2.11 0.23
6 -2 -1 2.96 0.23
1 2 -6 2.35 0.14
-6 -2 1 2.57 0.21
2 -1 6 2.02 0.2
1 -2 -6 2.43 0.21
-6 -2 -1 2.19 0.22
-2 -6 1 2.34 0.22
6 2 -1 1.96 0.22
6 -2 1 2.58 0.23
6 2 -1 2.51 0.22
6 1 2 2.08 0.2
6 -1 -2 2.37 0.23
-1 6 2 2.18 0.22
6 -2 1 2.55 0.21
6 -1 -2 2.4 0.2
2 -6 -1 2.08 0.23
1 6 -2 2.59 0.23
2 6 1 2.69 0.25
2 -6 -1 2.55 0.21
-1 -6 -2 1.89 0.22
-6 1 -2 2.57 0.23
-2 6 -1 1.99 0.2
-1 2 -6 2.33 0.24
-2 -1 -6 2.17 0.21
-1 -2 6 2.5 0.19
1 -6 2 2.27 0.22
-2 -1 -6 2.74 0.21
1 2 6 2.52 0.2
-6 -1 2 2.58 0.22
-6 1 -2 2.37 0.27
1 6 -2 2.33 0.2
-2 -1 -6 2.44 0.15
-2 1 6 2.3 0.22
-1 -6 -2 2.39 0.21
-1 2 -6 2.29 0.17
2 1 -6 2.14 0.22
-6 2 1 2.32 0.23
-2 -2 -6 1.53 0.2
-2 6 2 1.29 0.19
2 2 -6 1.82 0.12
2 6 -2 1.73 0.22
6 -2 -2 1.54 0.18
-2 2 6 1.83 0.18
-2 -6 -2 1.67 0.2
-2 -2 -6 1.65 0.13
2 -6 -2 1.66 0.18
6 2 -2 1.42 0.19
2 -2 -6 1.77 0.2
2 2 6 1.99 0.2
-2 2 -6 1.6 0.23
-6 2 2 1.79 0.2
6 -2 2 1.56 0.17
6 2 -2 1.4 0.2
-2 -2 6 1.77 0.17
2 -6 -2 1.61 0.23
2 6 -2 1.7 0.21
2 -2 6 1.62 0.19
6 -2 -2 1.51 0.2
-2 6 -2 1.61 0.21
2 2 -6 1.67 0.21
6 2 2 1.48 0.19
-2 -6 -2 1.59 0.21
-6 -2 2 1.62 0.19
-6 2 -2 1.7 0.24
2 -6 2 1.86 0.2
-6 -2 -2 1.85 0.22
2 6 2 1.84 0.23
-6 -2 -2 1.72 0.22
-2 -6 2 1.54 0.19
2 6 -2 1.69 0.19
-6 0 -3 1.6 0.2
0 3 -6 1.44 0.14
-6 -3 0 1.45 0.18
-3 0 -6 1.46 0.15
0 6 -3 1.35 0.19
3 0 -6 1.62 0.19
6 -3 0 1.57 0.19
6 0 3 1.77 0.18
-6 3 0 1.53 0.22
3 -6 0 1.51 0.2
6 -3 0 1.77 0.21
-3 -6 0 1.08 0.18
0 -6 -3 1.44 0.24
0 6 -3 1.45 0.2
3 0 6 1.57 0.2
0 6 3 1.15 0.19
-3 6 0 1.54 0.18
0 3 6 1.68 0.2
6 0 -3 1.59 0.17
6 0 -3 1.54 0.22
6 0 3 1.59 0.17
0 -3 -6 1.22 0.19
0 -3 6 1.36 0.17
6 3 0 1.19 0.2
-6 0 -3 1.22 0.23
-3 6 0 1.4 0.19
0 3 -6 1.16 0.2
-3 0 -6 2.1 0.22
-3 0 6 1.21 0.18
0 -6 3 1.29 0.18
-6 0 3 1.23 0.18
3 -6 0 1.71 0.21
3 6 0 1.19 0.2
0 -6 -3 1.2 0.16
6 -3 -1 1.05 0.18
1 3 -6 1.25 0.21
1 3 -6 1.41 0.14
6 -1 3 1.04 0.16
3 6 -1 1.44 0.21
6 3 1 1.03 0.19
3 -1 -6 0.85 0.16
-3 1 -6 1.49 0.22
3 -6 1 1.54 0.19
6 1 -3 1.31 0.17
-1 6 -3 1 0.19
-1 -3 -6 1.35 0.2
-3 1 -6 1.19 0.15
-3 -6 -1 1.14 0.18
-1 -6 3 1.32 0.18
1 -6 -3 0.8 0.2
6 1 -3 1.39 0.2
1 -6 -3 1.01 0.16
-6 -1 -3 0.93 0.21
-6 -1 -3 1.29 0.18
6 -3 -1 1.32 0.19
-6 -3 1 1.22 0.16
-6 -1 -3 1.19 0.2
-3 -6 -1 1.72 0.21
-6 1 3 1.25 0.19
1 6 3 1.56 0.22
-3 6 1 1.4 0.18
-6 3 -1 1.23 0.21
1 -3 6 1.17 0.18
-1 3 6 1.21 0.19
-1 6 -3 1.41 0.2
-1 -3 -6 1.26 0.09
3 1 -6 1.44 0.21
3 -6 -1 1.24 0.19
6 -1 -3 1.34 0.16
-1 -6 -3 1.04 0.15
-1 -6 -3 0.98 0.21
3 6 1 1.21 0.21
6 -1 -3 1.01 0.19
1 -6 3 1.22 0.18
3 -1 6 1.21 0.19
-6 1 -3 1.25 0.21
-1 -3 6 1.49 0.18
6 3 -1 1.23 0.19
3 -6 -1 1.11 0.19
1 6 -3 1.42 0.19
-1 3 -6 1.24 0.15
-3 1 6 1.37 0.18
-6 -1 3 1.43 0.2
-6 1 -3 1.4 0.25
-1 3 -6 0.83 0.2
-3 -1 -6 0.99 0.18
3 1 -6 1.18 0.17
1 -3 -6 1.03 0.18
6 -3 1 1.15 0.17
-3 -1 -6 1.26 0.14
-6 3 1 1.27 0.2
-3 -6 1 1.13 0.18
1 3 6 1.52 0.19
6 3 -1 0.79 0.19
1 6 -3 1.17 0.18
-1 6 3 1.17 0.2
-3 6 -1 1.24 0.19
3 1 -6 1.28 0.09
6 1 3 1.24 0.17
3 2 6 1.03 0.17
-6 3 -2 0.66 0.18
3 6 -2 0.69 0.18
-2 -3 -6 1.16 0.13
2 6 3 0.97 0.21
-2 -6 3 0.97 0.17
6 3 2 0.68 0.17
6 -3 -2 0.97 0.17
-6 -3 2 0.94 0.17
2 3 -6 1.15 0.14
6 2 -3 0.87 0.16
3 -2 -6 0.87 0.17
-3 -6 -2 1.05 0.19
-6 -2 -3 1.07 0.17
-3 2 -6 0.98 0.15
6 2 -3 0.87 0.19
2 -3 6 0.99 0.18
-3 -6 -2 0.94 0.19
6 -3 -2 0.87 0.19
-3 6 2 0.73 0.17
-3 2 -6 0.79 0.21
2 -6 -3 0.45 0.19
-2 6 -3 0.82 0.19
3 -6 2 0.82 0.17
3 6 -2 0.73 0.16
-6 -2 -3 1.15 0.2
-2 -3 -6 0.94 0.19
-6 2 3 1.01 0.18
2 3 -6 0.84 0.19
2 -6 -3 0.99 0.16
-2 6 -3 0.7 0.19
2 3 6 0.88 0.18
-6 3 2 0.93 0.18
-3 -6 2 1.02 0.18
6 -2 -3 0.64 0.18
3 6 2 0.58 0.18
-2 -6 -3 1.01 0.17
6 2 3 1.02 0.17
2 -3 -6 1.08 0.19
6 -2 -3 0.92 0.15
-2 -6 -3 1.06 0.2
-3 -2 -6 0.85 0.18
2 -6 3 0.89 0.18
-2 6 3 1.03 0.2
3 2 -6 1.19 0.12
2 6 -3 0.86 0.18
-3 2 6 1 0.16
3 2 -6 1.28 0.22
6 3 -2 0.55 0.19
-6 -3 -2 1.06 0.2
3 -6 -2 0.99 0.21
-2 -3 6 0.93 0.15
-2 3 -6 0.65 0.13
-3 6 -2 0.67 0.19
-6 2 -3 0.77 0.22
3 -2 6 0.64 0.16
6 3 -2 0.96 0.18
3 -6 -2 1.02 0.17
-6 -2 3 0.98 0.18
-2 3 -6 0.96 0.21
-3 -2 -6 0.68 0.13
-6 2 -3 0.74 0.19
2 6 -3 0.91 0.19
-3 -6 3 0.67 0.17
-3 -6 -3 0.63 0.17
6 3 -3 0.29 0.17
-3 3 -6 0.42 0.2
-3 6 -3 0.3 0.18
3 -6 3 0.35 0.15
3 -3 6 0.44 0.16
-6 -3 -3 0.41 0.18
-6 3 -3 0.58 0.22
6 3 -3 0.55 0.16
6 3 3 0.44 0.16
-3 -6 -3 0.55 0.2
-6 -3 3 0.64 0.16
-3 -3 -6 0.43 0.19
3 3 -6 0.35 0.12
3 6 -3 0.41 0.16
6 -3 -3 0.53 0.14
-6 3 3 0.28 0.15
-3 -3 -6 0.6 0.14
6 -3 -3 0.35 0.18
3 3 -6 0.57 0.19
-3 3 -6 0.22 0.14
3 -6 -3 0.32 0.14
-3 6 3 0.49 0.19
-6 -3 -3 0.32 0.16
3 -3 -6 0.52 0.18
3 3 6 0.37 0.17
3 6 3 0.17 0.18
3 6 -3 0.66 0.18
0 6 -4 0.21 0.15
0 -4 -6 0.48 0.07
6 -4 0 0.49 0.18
4 0 6 0.36 0.17
0 -4 6 0.69 0.16
4 -6 0 0.87 0.18
-6 0 -4 0.48 0.17
4 6 0 0.39 0.18
-4 -6 0 0.41 0.15
-6 0 -4 0.34 0.21
-4 0 -6 0.71 0.15
-4 6 0 0.5 0.17
6 0 -4 0.45 0.19
-4 0 6 0.41 0.16
0 6 -4 0.37 0.18
-4 0 -6 0.76 0.2
0 4 -6 0.34 0.18
0 4 6 0.58 0.19
6 0 4 0.51 0.15
0 -6 -4 0.32 0.19
0 -6 4 0.45 0.15
6 0 -4 0.62 0.14
6 -4 0 0.48 0.16
0 4 -6 0.76 0.14
4 -6 0 0.66 0.18
4 0 -6 0.9 0.18
0 -6 -4 0.45 0.13
0 -4 -6 0.57 0.19
6 4 0 0.4 0.17
0 6 4 0.53 0.18
-6 0 4 0.61 0.17
-6 4 0 0.52 0.18
-1 -4 -6 0.84 0.12
-4 1 -6 0.67 0.21
-6 4 -1 0.36 0.18
6 -4 -1 0.61 0.18
4 6 -1 0.39 0.18
-6 1 4 0.5 0.16
4 -1 -6 0.41 0.17
-4 1 -6 0.46 0.15
-4 6 1 0.48 0.17
6 -1 4 0.68 0.15
-1 6 -4 0.39 0.18
6 1 -4 0.38 0.19
6 1 -4 0.57 0.14
-1 4 6 0.58 0.19
-6 -1 -4 0.36 0.17
1 -4 6 0.49 0.16
-4 -1 6 0.42 0.16
1 4 -6 0.33 0.19
1 -6 -4 0.55 0.13
1 -6 -4 0.23 0.2
-1 -6 4 0.61 0.16
-4 -6 -1 0.39 0.16
6 -4 -1 0.4 0.17
-1 -4 -6 0.67 0.19
-6 -1 -4 0.7 0.17
-1 6 -4 0.52 0.16
4 -6 1 0.7 0.16
6 4 1 0.64 0.18
1 6 4 0.61 0.18
1 4 -6 0.43 0.13
1 -6 4 0.44 0.16
-6 1 -4 0.6 0.24
-6 1 -4 0.37 0.18
4 1 -6 0.67 0.1
6 -1 -4 0.59 0.19
-4 -1 -6 0.49 0.13
1 6 -4 0.59 0.17
-4 1 6 0.52 0.16
4 -6 -1 0.45 0.17
1 -4 -6 0.7 0.19
4 6 1 0.66 0.19
4 -6 -1 0.46 0.17
-1 4 -6 0.31 0.18
-1 6 4 0.4 0.19
-4 -1 -6 0.72 0.18
6 -1 -4 0.69 0.14
6 1 4 0.44 0.14
-6 4 1 0.57 0.17
-6 -1 4 0.4 0.16
-4 -6 1 0.51 0.16
4 -1 6 0.44 0.17
1 6 -4 0.67 0.19
1 4 6 0.28 0.17
-4 6 -1 0.66 0.19
4 1 -6 0.64 0.17
-1 -6 -4 0.32 0.2
-1 -6 -4 0.53 0.14
6 4 -1 0.43 0.19
-1 -4 6 0.29 0.14
-1 4 -6 0.27 0.14
6 2 -4 0.19 0.13
6 -4 -2 0.16 0.17
-2 -6 4 0.19 0.15
6 2 -4 0.23 0.17
-2 -4 -6 0.19 0.17
-4 -2 6 0.33 0.16
2 6 4 0.12 0.18
-2 -4 -6 0.29 0.13
-6 -4 2 0.28 0.14
-6 4 -2 0.15 0.18
-2 6 -4 0.25 0.19
2 -6 -4 0.45 0.14
6 4 2 0.42 0.17
2 -6 -4 0.3 0.2
-4 -6 -2 0.12 0.17
2 4 -6 0.29 0.18
-2 6 -4 0.33 0.18
4 -2 -6 0.41 0.18
-6 2 4 0.41 0.17
4 -6 2 0.42 0.16
6 -2 4 0.31 0.14
-4 2 -6 0.22 0.19
6 -4 -2 0.43 0.16
-2 4 6 0.57 0.19
-4 2 -6 0.1 0.15
-6 -2 -4 0.36 0.17
4 6 -2 0.33 0.18
2 4 -6 0.31 0.13
-4 -6 -2 0.2 0.17
2 -4 6 0.46 0.17
-6 -2 -4 0.29 0.16
4 6 -2 0.52 0.19
-2 -6 -4 0.35 0.14
6 2 4 0.47 0.15
-2 -4 6 0.51 0.15
6 -2 -4 0.38 0.19
-2 4 -6 0.21 0.14
-6 -2 4 0.31 0.16
-4 -6 2 0.48 0.16
2 6 -4 0.16 0.17
4 -6 -2 0.35 0.16
-2 -6 -4 0.26 0.19
6 4 -2 0.1 0.17
-4 -2 -6 0.1 0.13
-6 2 -4 0.59 0.19
-2 6 4 0.25 0.18
4 -2 6 0.35 0.16
6 -2 -4 0.35 0.14
4 2 -6 0.39 0.11
-4 2 6 0.37 0.15
4 6 2 0.14 0.18
-6 4 2 0.27 0.17
6 4 -2 0.37 0.17
2 4 6 0.26 0.17
-4 -2 -6 0.35 0.17
2 -6 4 0.33 0.16
-2 4 -6 0.31 0.2
2 6 -4 0.3 0.17
-6 2 -4 0.46 0.23
4 -6 -2 0.58 0.18
-4 6 -2 0.29 0.18
6 -4 -3 0.1 0.14
3 4 -6 0.36 0.14
3 -4 6 0.31 0.17
6 -3 4 0.18 0.15
4 6 -3 0.31 0.17
-4 3 -6 0.15 0.21
6 3 -4 0.31 0.15
-6 4 -3 0.18 0.2
4 3 6 0.1 0.17
6 4 3 0.26 0.17
4 -3 -6 0.19 0.18
6 -4 -3 0.11 0.18
-3 6 -4 -0.09 0.18
6 3 -4 0.42 0.19
-6 -3 -4 0.08 0.17
-4 -6 -3 0.22 0.16
-3 -4 -6 0.3 0.15
-6 3 4 0.26 0.16
-6 -4 3 0.22 0.16
3 -6 -4 0.34 0.14
3 4 -6 0.27 0.19
-3 -4 -6 0.04 0.17
-4 -6 -3 0.11 0.18
-4 3 -6 0.26 0.17
-3 -6 4 0.25 0.15
-6 -3 -4 0.22 0.17
-3 6 -4 0.15 0.18
4 -6 3 0.24 0.16
3 6 4 0.2 0.18
-6 3 -4 0.09 0.19
4 6 3 -0.09 0.18
-3 4 -6 0.05 0.19
-6 3 -4 0.09 0.22
3 -6 4 0.19 0.15
6 -3 -4 0.13 0.18
4 -3 6 0.17 0.16
3 -4 -6 0.07 0.19
-6 -4 -3 0.71 0.21
4 -6 -3 0.16 0.14
-4 -3 -6 0.17 0.15
-4 6 -3 0.23 0.2
-3 -6 -4 0.25 0.15
-6 4 3 0.1 0.16
3 6 -4 0.25 0.16
4 3 -6 0.37 0.13
6 4 -3 0.07 0.16
3 4 6 0.6 0.19
4 -6 -3 0.13 0.19
-3 6 4 -0.07 0.17
6 -3 -4 0.16 0.12
-6 -4 -3 0.25 0.17
-4 -3 -6 -0.09 0.16
3 6 -4 0.42 0.18
-6 -3 4 0.29 0.16
6 3 4 0.15 0.15
-3 4 -6 -0.13 0.15
-4 3 6 0.27 0.15
-3 -6 -4 0.04 0.19
6 4 -3 0.05 0.17
4 3 -6 0.11 0.18
0 -5 -6 0.25 0.2
6 -5 0 0.11 0.18
-5 -6 0 -0.06 0.14
0 5 -6 0.35 0.19
5 0 6 0.03 0.15
0 5 -6 0.19 0.15
-6 0 5 0.35 0.17
-5 6 0 0.21 0.18
6 0 5 0.01 0.15
-6 5 0 0.34 0.19
0 5 6 0.16 0.2
-6 0 -5 -0.04 0.17
0 6 5 0.08 0.19
0 6 -5 0.1 0.16
5 6 0 0.27 0.19
-5 0 -6 0.08 0.15
0 -6 -5 0.2 0.12
-5 0 6 0.01 0.16
0 6 -5 0.08 0.19
6 5 0 0.19 0.18
5 -6 0 0.17 0.18
6 0 -5 0.22 0.13
5 0 -6 0.11 0.18
0 -6 -5 0.07 0.21
0 -6 5 0.27 0.16
-6 0 -5 0.43 0.22
6 0 -5 0.27 0.18
5 0 -6 0.1 0.09
0 -5 6 0.29 0.16
1 5 -6 0.22 0.15
1 5 -6 0.15 0.2
-5 -1 6 0.22 0.17
-1 6 -5 0.03 0.16
-6 -1 -5 0.01 0.16
-5 1 -6 0.2 0.15
-1 -5 -6 0.04 0.1
6 -5 -1 0.43 0.18
-6 1 5 0.3 0.17
-5 1 -6 0.32 0.21
1 -6 -5 0.29 0.12
-1 6 -5 0.42 0.21
5 -1 -6 0.19 0.06
-1 -6 5 0.17 0.15
1 -6 -5 0.02 0.21
1 -5 6 0.23 0.16
6 5 1 -0.05 0.16
-6 -1 -5 0.24 0.17
-5 -6 -1 0.31 0.17
-1 -5 -6 0.03 0.19
6 -1 5 0.26 0.16
-6 5 -1 0.2 0.19
6 -5 -1 0.24 0.17
1 6 5 0.14 0.19
-1 5 6 0.34 0.21
5 -1 -6 0.18 0.18
-5 6 1 0.22 0.17
6 1 -5 0.07 0.13
5 6 -1 0.29 0.19
6 1 -5 0.05 0.18
-1 6 5 -0.12 0.19
-6 -1 5 0.43 0.19
1 -6 5 -0.04 0.15
1 -5 -6 0.34 0.2
-5 6 -1 0.12 0.18
5 -1 6 0.06 0.16
-1 5 -6 0.36 0.19
1 5 6 -0.05 0.18
5 -6 -1 0.1 0.17
1 -5 -6 0.19 0.07
5 6 1 -0.16 0.17
6 -1 -5 0.22 0.19
-6 1 -5 0.26 0.24
6 5 -1 0.19 0.2
-1 -6 -5 0.38 0.13
-5 1 6 0.26 0.16
1 6 -5 0.07 0.16
1 6 -5 0.1 0.2
5 1 -6 -0.09 0.17
-5 -1 -6 0.31 0.16
6 -1 -5 0.38 0.14
-6 1 -5 0.3 0.18
-5 -1 -6 0.37 0.19
-1 -6 -5 0.14 0.21
5 -6 -1 0.21 0.17
5 1 -6 0.21 0.11
-1 -5 6 0.19 0.16
-1 5 -6 0.02 0.15
-6 5 1 0.53 0.19
0 -7 0 0.95 0.19
0 -7 0 1.12 0.21
0 0 7 1.22 0.19
0 7 0 1.17 0.2
0 0 -7 1.27 0.21
7 0 0 1.2 0.19
-7 0 0 0.95 0.19
7 0 0 1.03 0.18
0 -7 1 0.73 0.19
0 7 1 0.85 0.19
-1 -7 0 0.8 0.2
0 1 -7 1 0.22
0 -7 -1 0.51 0.19
-7 0 -1 0.66 0.19
1 0 7 0.93 0.18
7 -1 0 0.77 0.19
0 -7 -1 0.93 0.19
-1 7 0 1.19 0.19
1 7 0 0.99 0.2
7 0 -1 0.74 0.19
7 0 1 0.95 0.18
-7 0 1 1.13 0.19
1 -7 0 0.99 0.2
0 -1 -7 1.05 0.18
1 0 -7 1.38 0.21
0 -1 -7 0.88 0.18
0 -1 7 0.87 0.17
1 -7 0 0.78 0.19
-1 0 7 1.07 0.18
7 -1 0 0.88 0.18
7 1 0 0.76 0.18
-7 -1 0 0.72 0.18
-7 1 0 0.45 0.17
7 0 -1 1.07 0.19
-1 0 -7 1.1 0.22
-1 -7 -1 0.53 0.19
-1 -1 7 0.96 0.17
-1 7 1 1.11 0.2
-1 -7 1 0.73 0.19
7 -1 -1 0.79 0.19
1 -7 -1 0.74 0.2
1 -7 1 0.74 0.18
1 -1 7 0.77 0.17
1 -7 -1 0.77 0.18
-7 -1 -1 0.78 0.2
7 1 -1 0.89 0.19
-1 1 -7 0.6 0.19
-1 -1 -7 0.59 0.17
-7 1 1 0.53 0.17
-7 -1 1 0.98 0.18
1 7 1 0.98 0.2
7 -1 1 0.63 0.16
-1 1 7 0.87 0.18
-1 -7 -1 0.93 0.18
-1 1 -7 0.92 0.09
7 1 -1 0.66 0.19
7 1 1 1.04 0.18
-7 1 -1 0.73 0.2
1 1 -7 1.08 0.22
7 -1 -1 0.94 0.19
1 -1 -7 1.09 0.18
2 -7 0 0.61 0.19
-2 0 -7 0.84 0.19
7 -2 0 1 0.19
0 -7 -2 0.67 0.21
7 0 -2 0.47 0.16
2 0 7 0.64 0.18
-7 0 -2 0.71 0.21
0 2 7 0.72 0.18
2 7 0 0.88 0.2
-7 -2 0 0.48 0.17
-2 -7 0 0.86 0.19
7 -2 0 0.45 0.17
7 2 0 0.61 0.19
0 -7 -2 0.56 0.16
2 -7 0 0.63 0.19
-7 0 2 0.39 0.15
0 2 -7 0.86 0.23
7 0 -2 0.6 0.18
7 0 2 0.83 0.17
-2 0 -7 0.54 0.1
0 -2 -7 0.56 0.17
0 -7 2 0.47 0.17
2 0 -7 1.05 0.2
0 2 -7 0.89 0.11
-7 2 0 0.59 0.19
0 -2 7 0.53 0.15
0 7 2 0.63 0.19
7 -1 2 0.61 0.16
-7 2 -1 0.3 0.18
-2 -7 -1 0.4 0.17
7 -2 -1 0.63 0.18
-2 7 1 0.39 0.17
-1 2 7 0.6 0.18
2 -7 1 0.42 0.18
7 2 1 0.38 0.17
-7 -2 1 0.47 0.16
1 -7 -2 0.41 0.16
1 2 -7 0.52 0.08
1 -2 7 0.47 0.16
7 1 -2 0.82 0.18
2 7 -1 0.13 0.18
1 -7 -2 0.39 0.21
-7 1 2 0.27 0.15
-7 -1 -2 0.23 0.18
-2 1 -7 0.53 0.12
-1 -2 -7 0.53 0.17
-2 -7 -1 0.69 0.19
2 -1 -7 0.45 0.16
7 1 -2 0.59 0.19
7 -2 -1 0.58 0.18
1 2 -7 0.41 0.2
-2 1 -7 0.57 0.19
1 7 2 0.5 0.2
-1 -7 2 0.5 0.18
2 -7 -1 0.51 0.19
-2 -1 -7 0.55 0.09
-1 2 -7 0.61 0.12
2 -1 7 0.67 0.17
-7 2 1 0.76 0.19
7 2 -1 0.6 0.18
2 -7 -1 0.74 0.19
7 -1 -2 0.7 0.17
7 1 2 0.59 0.17
7 -2 1 0.44 0.16
-1 7 2 0.69 0.19
-1 2 -7 0.55 0.19
1 -2 -7 0.76 0.17
7 -1 -2 0.65 0.2
7 2 -1 0.46 0.18
-7 -2 -1 0.42 0.18
-1 -2 7 0.65 0.16
-1 -7 -2 0.41 0.16
1 -7 2 0.44 0.18
2 7 1 0.46 0.2
-2 -7 1 0.56 0.18
-7 -1 2 0.62 0.16
-7 1 -2 0.4 0.2
-2 1 7 0.43 0.16
-2 -1 -7 0.47 0.18
-1 -7 -2 0.36 0.18
2 1 -7 0.42 0.19
2 7 2 0.42 0.21
7 -2 -2 0.35 0.16
-2 7 2 0.16 0.18
2 -7 -2 -0.04 0.19
-2 -2 -7 0.38 0.08
2 2 -7 0.52 0.06
-2 -7 2 0.57 0.17
-2 2 -7 0.49 0.14
-7 2 -2 0.21 0.2
7 2 -2 0.43 0.17
7 -2 -2 0.28 0.18
7 2 -2 0.42 0.19
7 2 2 0.52 0.17
-2 7 -2 0.5 0.19
2 -7 2 0.41 0.17
2 -2 -7 0.2 0.17
2 -7 -2 0.33 0.16
2 2 -7 0.73 0.21
-2 -7 -2 0.55 0.18
-7 -2 2 0.35 0.15
-2 -2 -7 0.63 0.19
2 -2 7 0.45 0.17
-2 -7 -2 0 0.18
-2 2 -7 0.37 0.19
-7 2 2 0.27 0.16
-7 0 -3 0.01 0.2
-3 -7 0 0.12 0.17
7 -3 0 0.47 0.17
-7 3 0 0.19 0.18
7 0 -3 0.43 0.16
0 3 -7 0.46 0.13
0 -3 -7 0.3 0.18
-3 0 -7 0.43 0.13
0 -7 -3 0.23 0.14
7 -3 0 -0.08 0.16
0 7 3 0.19 0.18
0 -3 7 0.39 0.15
0 3 7 0.39 0.18
3 7 0 0.24 0.2
7 0 -3 0.41 0.2
0 -7 -3 -0.11 0.19
0 3 -7 0.33 0.19
3 -7 0 0.44 0.18
3 0 7 0.37 0.17
-3 0 7 0.07 0.15
3 -7 0 0.22 0.18
-7 0 3 0.21 0.15
0 7 -3 0.43 0.19
0 -7 3 0.1 0.16
7 3 0 0.29 0.18
-7 3 -1 0.2 0.19
-1 -7 3 0.35 0.17
-7 -3 1 0.2 0.15
-7 1 3 0.22 0.14
-3 -7 -1 0.26 0.18
-3 1 -7 0.34 0.14
7 1 -3 0.38 0.15
1 -7 -3 0.29 0.21
7 -3 -1 0.25 0.18
1 -7 -3 0.25 0.15
7 1 -3 0.08 0.18
7 -3 -1 0.25 0.18
3 7 -1 0.36 0.19
1 3 -7 0.47 0.12
1 7 3 0.25 0.19
-1 3 7 0.29 0.17
-3 1 -7 0.37 0.19
-7 -1 -3 0.21 0.21
1 3 -7 0.54 0.22
-3 7 1 0.31 0.17
7 3 1 0.36 0.18
1 -3 7 0.58 0.17
3 -1 -7 0.22 0.16
-1 -3 -7 -0.02 0.16
-1 7 -3 0.54 0.19
3 -7 1 0.15 0.16
-7 1 -3 0.04 0.21
1 -3 -7 0.41 0.17
7 3 -1 0.02 0.17
-3 1 7 0.32 0.15
1 -7 3 0.45 0.17
3 1 -7 0.09 0.19
-1 3 -7 0.07 0.18
-1 7 3 0.2 0.18
7 -1 -3 0.23 0.15
-3 -1 -7 0.21 0.17
3 -7 -1 0.47 0.18
7 1 3 0.17 0.15
3 -7 -1 0.38 0.17
-7 3 1 0.08 0.16
-1 -7 -3 0.51 0.22
1 7 -3 0.09 0.17
-3 -1 -7 0.36 0.13
-3 -7 1 0.32 0.17
-1 -7 -3 0.36 0.15
3 -1 7 0.15 0.16
-1 3 -7 0.36 0.13
3 7 1 0.45 0.21
-1 -3 7 0.22 0.15
-7 -1 3 0.31 0.16
1 3 7 0.32 0.18
7 -1 -3 0.38 0.19
-2 -3 -7 -0.06 0.16
7 -3 -2 0.37 0.18
-3 -7 -2 0.49 0.2
7 2 -3 0.12 0.18
-3 2 -7 0.38 0.21
2 -7 -3 0.02 0.14
7 2 -3 0.16 0.16
2 3 -7 0.21 0.2
-7 3 -2 0.14 0.18
-3 2 -7 0.05 0.13
-3 7 2 0.21 0.18
2 3 -7 0.11 0.11
-7 2 3 0.12 0.15
-2 7 -3 0.05 0.18
3 -2 -7 0.22 0.17
7 -3 -2 0.33 0.19
-2 -7 3 0.41 0.17
2 -7 -3 -0.3 0.18
-7 -3 2 0.22 0.15
7 3 2 0.18 0.18
2 -3 7 0.31 0.17
2 7 3 0.22 0.2
-3 -7 -2 0.23 0.17
-2 -3 -7 0.22 0.09
3 -7 2 0.06 0.17
-2 3 7 0.35 0.19
-2 3 -7 0.25 0.19
-3 -2 -7 0.18 0.17
3 -7 -2 -0.08 0.15
2 -7 3 0.22 0.17
3 2 -7 0.13 0.07
-7 -2 3 0.33 0.16
-3 7 -2 0.11 0.18
-7 2 -3 0.12 0.22
-3 2 7 0.25 0.15
7 -2 -3 0.2 0.15
-2 3 -7 0.16 0.14
-2 7 3 0.19 0.2
2 3 7 0.09 0.17
3 7 2 0.22 0.2
7 -2 -3 0.16 0.18
7 3 -2 0.35 0.18
7 2 3 -0.02 0.15
3 -7 -2 0.49 0.21
2 7 -3 0.21 0.19
-3 -7 2 0.27 0.17
-3 -2 -7 0.25 0.13
-7 3 2 0.11 0.17
-2 -7 -3 0.34 0.17
3 -2 7 0.22 0.16
7 3 -2 0.17 0.19
3 2 -7 0.42 0.21
-2 -7 -3 0.1 0.19
-4 0 7 -0.09 0.16
0 0 -8 0.25 0.2
-8 0 0 0.3 0.18
0 0 8 0.2 0.17
0 -8 0 0.02 0.18
8 0 0 0.32 0.19
