#------------------------------------------------------------------------------
#$Date: 2019-11-25 07:55:04 +0200 (Mon, 25 Nov 2019) $
#$Revision: 240420 $
#$URL: file:///home/coder/svn-repositories/cod/cif/4/12/97/4129763.cif $
#------------------------------------------------------------------------------
#
# This file is available in the Crystallography Open Database (COD),
# http://www.crystallography.net/
#
# All data on this site have been placed in the public domain by the
# contributors.
#
data_4129763
loop_
_publ_author_name
'Jeon, Ie-Rang'
'Negru, Bogdan'
'Van Duyne, Richard P.'
'Harris, T. David'
_publ_section_title
;
 A 2D Semiquinone Radical-Containing Microporous Magnet with
 Solvent-Induced Switching from Tc = 26 to 80 K.
;
_journal_issue                   50
_journal_name_full               'Journal of the American Chemical Society'
_journal_page_first              15699
_journal_page_last               15702
_journal_paper_doi               10.1021/jacs.5b10382
_journal_volume                  137
_journal_year                    2015
_chemical_formula_moiety
'C18 Cl6 O12 Zn2, 6(C0.67 H2.67 N0.33), 0.67(O3)'
_chemical_formula_sum            'C40 H62 Cl6 N8 O20 Zn2'
_chemical_formula_weight         1318.41
_space_group_crystal_system      trigonal
_space_group_IT_number           162
_space_group_name_Hall           '-P 3 2'
_space_group_name_H-M_alt        'P -3 1 m'
_atom_sites_solution_hydrogens   geom
_atom_sites_solution_primary     direct
_audit_creation_date             2015-08-30
_audit_creation_method
;
Olex2 1.2
(compiled 2015.01.26 svn.r3150 for OlexSys, GUI svn.r4998)
;
_cell_angle_alpha                90
_cell_angle_beta                 90
_cell_angle_gamma                120
_cell_formula_units_Z            1
_cell_length_a                   13.6682(6)
_cell_length_b                   13.6682(6)
_cell_length_c                   8.8870(5)
_cell_measurement_reflns_used    3679
_cell_measurement_temperature    100(2)
_cell_measurement_theta_max      58.93
_cell_measurement_theta_min      3.73
_cell_volume                     1437.83(12)
_computing_cell_refinement       'SAINT v8.34A (Bruker, 2013)'
_computing_data_reduction        'SAINT v8.34A (Bruker, 2013)'
_computing_molecular_graphics    'Olex2 (Dolomanov et al., 2009)'
_computing_publication_material  'Olex2 (Dolomanov et al., 2009)'
_computing_structure_refinement  'ShelXL (Sheldrick, 2008)'
_computing_structure_solution    'XT (Sheldrick, 2015)'
_diffrn_ambient_temperature      99.99
_diffrn_measured_fraction_theta_full 0.972
_diffrn_measured_fraction_theta_max 0.972
_diffrn_measurement_device_type  'Bruker APEX-II CCD'
_diffrn_measurement_method       '\f and \w scans'
_diffrn_radiation_type           CuK\a
_diffrn_radiation_wavelength     1.54178
_diffrn_reflns_av_R_equivalents  0.0296
_diffrn_reflns_av_unetI/netI     0.0167
_diffrn_reflns_Laue_measured_fraction_full 0.972
_diffrn_reflns_Laue_measured_fraction_max 0.972
_diffrn_reflns_limit_h_max       15
_diffrn_reflns_limit_h_min       -5
_diffrn_reflns_limit_k_max       13
_diffrn_reflns_limit_k_min       -15
_diffrn_reflns_limit_l_max       9
_diffrn_reflns_limit_l_min       -9
_diffrn_reflns_number            6412
_diffrn_reflns_point_group_measured_fraction_full 0.972
_diffrn_reflns_point_group_measured_fraction_max 0.972
_diffrn_reflns_theta_full        58.927
_diffrn_reflns_theta_max         58.927
_diffrn_reflns_theta_min         3.734
_diffrn_standards_number         0
_exptl_absorpt_coefficient_mu    4.251
_exptl_absorpt_correction_T_max  0.7516
_exptl_absorpt_correction_T_min  0.5906
_exptl_absorpt_correction_type   multi-scan
_exptl_absorpt_process_details
;
SADABS-2014/5 (Bruker,2014/5) was used for absorption correction.
wR2(int) was 0.1124 before and 0.0460 after correction.
The Ratio of minimum to maximum transmission is 0.7858.
The \l/2 correction factor is 0.00150.
;
_exptl_crystal_colour            'clear light violet'
_exptl_crystal_colour_lustre     clear
_exptl_crystal_colour_modifier   light
_exptl_crystal_colour_primary    violet
_exptl_crystal_density_diffrn    1.523
_exptl_crystal_description       hexagonal
_exptl_crystal_F_000             680
_exptl_crystal_size_max          0.3
_exptl_crystal_size_mid          0.136
_exptl_crystal_size_min          0.119
_refine_diff_density_max         0.851
_refine_diff_density_min         -0.477
_refine_diff_density_rms         0.179
_refine_ls_extinction_method     none
_refine_ls_goodness_of_fit_ref   1.142
_refine_ls_hydrogen_treatment    constr
_refine_ls_matrix_type           full
_refine_ls_number_parameters     54
_refine_ls_number_reflns         736
_refine_ls_number_restraints     8
_refine_ls_restrained_S_all      1.151
_refine_ls_R_factor_all          0.0983
_refine_ls_R_factor_gt           0.0939
_refine_ls_shift/su_max          0.000
_refine_ls_shift/su_mean         0.000
_refine_ls_structure_factor_coef Fsqd
_refine_ls_weighting_details
'w=1/[\s^2^(Fo^2^)+(0.1977P)^2^+0.0891P] where P=(Fo^2^+2Fc^2^)/3'
_refine_ls_weighting_scheme      calc
_refine_ls_wR_factor_gt          0.2327
_refine_ls_wR_factor_ref         0.2469
_reflns_Friedel_coverage         0.000
_reflns_number_gt                628
_reflns_number_total             736
_reflns_threshold_expression     'I > 2\s(I)'
_cod_data_source_file            ja5b10382_si_002.cif
_cod_data_source_block           compound_2
_cod_original_cell_volume        1437.83(15)
_cod_database_code               4129763
_chemw03_alert_2_a
;
PROBLEM: The ratio of given/expected molecular weight 
as calculated from the _atom_site* data lies outside 
the range 0.90 <> 1.10
RESPONSE:Residual electron density found in the difference 
Fourier map was removed using the solvent mask protocol 
included in Olex2. This residual electron density likely 
arises from either residual DMF solvent molecules. 6 DMF 
solvent molecules are confirmed by elemental and thermal 
analyses and are taken into consideration for the molecular 
formula. Hydrogen atoms for water molecule were not introduced 
but are also taken into consideration for the molecular formula. 
Therefore, there is a hugh difference in given and expected 
molecular weight.
;
_thetm01_alert_3_b
;
PROBLEM: The value of sine(theta_max)/wavelength is less 
than 0.575 Calculated sin(theta_max)/wavelength =    0.5555
RESPONSE: This crystals did not diffract out far, however, 
the structure was solved with out ambiguity.
;
_plat051_alert_1_b
;
PROBLEM: Mu(calc) and Mu(CIF) Ratio Differs from 1.0 by 7.38%
RESPONSE: Same reason as the one for CHEMW03_ALERT_2_A 
;
_shelx_space_group_comment
;
The symmetry employed for this shelxl refinement is uniquely defined
by the following loop, which should always be used as a source of
symmetry information in preference to the above space-group names.
They are only intended as comments.
;
_olex2_refinement_description
;
1. Fixed Uiso
 At 1.2 times of:
  All N(H,H) groups
 At 1.5 times of:
  All C(H,H,H) groups
2. Restrained distances
 N2-C1
 1.45 with sigma of 0.02
3. Rigid bond restraints
 N2, C1
 with sigma for 1-2 distances of 0.01 and sigma for 1-3 distances of 0.01
4. Uiso/Uaniso restraints and constraints
N2 \\sim C1: within 1.7A with sigma of 0.01 and sigma for terminal atoms of 0.02
5. Others
 Fixed Sof: C1(0.33333) H1A(0.33333) H1B(0.33333) H1C(0.33333) N2(0.16667)
 H2A(0.16667) H2B(0.16667) O1(0.16667)
6.a Secondary CH2 refined with riding coordinates:
 N2(H2A,H2B)
6.b Idealised Me refined as rotating group:
 C1(H1A,H1B,H1C)
;
_shelx_res_file
;
    ij664_zn_0m.res created by SHELXL-2014/7

TITL ij664_zn_0m_a.res in P-31m
REM Old TITL IJ664_zn_0m in P-31m #162
REM SHELXT solution in P-31m
REM R1 0.241, Rweak 0.008, Alpha 0.029, Orientation as input
REM Formula found by SHELXT: C9 Cl3 N3 O12 Zn
CELL 1.54178 13.6682 13.6682 8.887 90 90 120
ZERR 1 0.0006 0.0006 0.0005 0 0 0
LATT 1
SYMM -Y,+X-Y,+Z
SYMM +Y-X,-X,+Z
SYMM -Y,-X,-Z
SYMM +Y-X,+Y,-Z
SYMM +X,+X-Y,-Z
SFAC C H Cl N O Zn
UNIT 40 62 6 8 20 2
DFIX 1.45 N2 C1
DELU N2 C1
SIMU 0.01 0.02 1.7 N2 C1

L.S. 100
PLAN  4
TEMP -173.16
BOND $H
HTAB
LIST 6
MORE -1
CONF
fmap 2 53
acta
OMIT 1 1 1
OMIT -1 6 3
OMIT 1 1 3
OMIT -1 5 0
OMIT -1 4 0
OMIT 1 2 1
OMIT 0 2 0
OMIT -1 3 3
OMIT 2 6 3
OMIT 0 2 1
OMIT 1 3 1
OMIT -2 7 4
OMIT -1 2 2
OMIT 0 1 2
OMIT 0 3 1
OMIT 0 0 2
OMIT -1 4 2
OMIT 0 4 2
OMIT 1 2 2
OMIT -2 6 2
OMIT -1 3 6
REM <olex2.extras>
REM <HklSrc "%.\\IJ664_zn_0m-mask.hkl">
REM </olex2.extras>

WGHT    0.197700    0.089100
FVAR       0.74979
ZN01  6    0.666667    0.333333    0.500000    10.16667    0.04714    0.04714 =
         0.10759    0.00000    0.00000    0.02357
CL02  3    1.000000    0.381260    0.806834    10.50000    0.07114    0.09755 =
         0.11234    0.04336    0.00000    0.03557
O003  5    0.802965    0.352206    0.627234    11.00000    0.05085    0.05467 =
         0.10458    0.01800    0.00755    0.02480
C004  1    1.000000    0.445810    0.637914    10.50000    0.05576    0.05186 =
         0.08682    0.01825    0.00000    0.02788
C005  1    0.897359    0.419822    0.574372    11.00000    0.05698    0.04324 =
         0.08779    0.00767    0.00380    0.02756
C1    1    0.898623    0.629005    0.794212    10.33333    0.04155    0.19240 =
         0.29696   -0.17958   -0.03041    0.05520
AFIX 137
H1A   2    0.833609    0.595920    0.725943    10.33333   -1.50000
H1B   2    0.882896    0.664679    0.879287    10.33333   -1.50000
H1C   2    0.912486    0.569535    0.831493    10.33333   -1.50000
AFIX   0
N2    4    1.000000    0.715225    0.712225    10.16667    0.11746    0.17889 =
         0.29956   -0.16775    0.00000    0.05873
AFIX  23
H2A   2    1.000000    0.781759    0.708502    10.16667   -1.20000
H2B   2    0.999999    0.691860    0.616341    10.16667   -1.20000
AFIX   0

O1    5    0.740471    0.370236    1.000000    10.16667    0.10512    0.30855 =
         0.21653    0.12734    0.00000    0.05256
HKLF 4

REM  ij664_zn_0m_a.res in P-31m
REM R1 =  0.0939 for     628 Fo > 4sig(Fo)  and  0.0983 for all     736 data
REM     54 parameters refined using      8 restraints

END

WGHT      0.1958      0.1017

REM Instructions for potential hydrogen bonds
EQIV $1 -y+1, x-y, z
HTAB C1 O003_$1

REM Highest difference peak  0.851,  deepest hole -0.477,  1-sigma level  0.179
Q1    1   0.9467  0.7266  0.6166  11.00000  0.05    0.85
Q2    1   0.8916  0.6024  0.8365  11.00000  0.05    0.80
Q3    1   1.0000  0.7614  0.7843  10.50000  0.05    0.68
Q4    1   0.7199  0.4397  1.0000  10.50000  0.05    0.62
;
_shelx_res_checksum              71607
_shelx_hkl_file
;
   0   0   1 7473.13  203.91
   0   0   3  780.10   23.26
   0   0   4  406.72    7.11
   0   0   5 1308.31   34.75
   0   0   6  232.91   11.70
   0   0   7  223.72   14.20
   0   0   8    2.42    1.60
   0   0   9   16.30    1.90
   1   0   0 5490.79   41.13
   1   0   1 1408.70   18.70
   1   0   3   19.06    0.39
   1   0   4   44.39    1.29
   1   0   5   30.58    1.43
   1   0   6   28.85    1.56
   1   0   7   24.20    2.31
   1   0   8    3.77    0.82
   1   0   9    2.15    0.62
   1   1  -9    0.00    0.85
   1   1  -8  119.52    4.20
   1   1  -7  120.19    6.40
   1   1  -6   47.06    3.60
   1   1  -5  273.97    5.45
   1   1  -4 1145.83   15.79
   1   1  -3   42.54    1.77
   1   1  -1 3884.86   41.57
   1   1   0  518.05   16.48
   1   1   2 6357.59   87.40
   1   1   4  140.63    2.98
   1   1   5  542.35   10.02
   1   1   6  402.44    9.52
   1   1   7    0.78    1.85
   1   1   8   27.49    4.64
   1   1   9   25.79    1.52
   2   0   2  226.93    3.42
   2   0   3    0.00    0.50
   2   0   4  475.14    5.66
   2   0   5  432.44    5.33
   2   0   6    9.54    0.70
   2   0   7    8.81    0.84
   2   0   8   33.08    1.61
   2   0   9    1.67    0.60
   2   1  -9    0.23    0.63
   2   1  -8    1.55    1.81
   2   1  -7   23.12    1.30
   2   1  -5    3.56    0.68
   2   1  -4  328.61    4.55
   2   1  -2 1566.36   20.15
   2   1  -1 6895.86   78.51
   2   1   0 2104.58   23.37
   2   1   3    0.01    0.46
   2   1   4   34.94    1.05
   2   1   5   82.76    2.04
   2   1   6  141.32    2.26
   2   1   7    2.06    0.77
   2   1   8    3.86    1.04
   2   1   9    4.35    0.61
   2   2  -9   17.49    1.24
   2   2  -8    1.54    1.02
   2   2  -7    6.91    1.04
   2   2  -6  157.06    5.69
   2   2  -5  296.41    5.55
   2   2  -4   83.17    1.88
   2   2  -3 2472.16   31.44
   2   2  -2 9927.66  131.38
   2   2  -1 1232.65   13.01
   2   2   0  240.72    3.57
   2   2   1  902.96   19.62
   2   2   2  126.66    3.39
   2   2   3  180.62    3.46
   2   2   4  997.22   15.57
   2   2   5  609.94   13.08
   2   2   6   32.74    1.94
   2   2   7   90.13    4.37
   2   2   8   42.21    1.70
   2   2   9    0.94    0.76
   3   0   0 6591.36   86.03
   3   0   2  120.41    2.43
   3   0   3 2531.75   24.98
   3   0   4 1237.75   13.84
   3   0   5   15.13    1.05
   3   0   6  250.09    3.83
   3   0   7  132.56    5.01
   3   0   8    0.01    0.76
   3   0   9    4.58    0.65
   3   1  -9    7.49    0.67
   3   1  -8    0.00    0.71
   3   1  -7    1.61    2.62
   3   1  -6  230.81    3.39
   3   1  -5  107.09    2.07
   3   1  -4    0.17    0.61
   3   1  -3 1455.25   15.54
   3   1  -1 3972.19   36.45
   3   1   2  255.16    2.07
   3   1   3  523.20    4.98
   3   1   4 1081.67   10.99
   3   1   5    0.12    0.75
   3   1   6   37.73    1.10
   3   1   7  117.41    2.63
   3   1   8    0.15    0.72
   3   1   9    0.01    0.55
   3   2  -9    0.58    0.73
   3   2  -8    5.71    0.76
   3   2  -7   13.72    0.85
   3   2  -6   17.99    0.79
   3   2  -5   77.05    2.03
   3   2  -4  225.75    3.45
   3   2  -3  445.37    5.25
   3   2  -2 2081.89   20.08
   3   2  -1 1945.90   15.11
   3   2   0    4.56    0.30
   3   2   1   88.63    0.37
   3   2   2   26.08    0.73
   3   2   3  236.33    2.81
   3   2   4   61.97    1.25
   3   2   5  374.16    6.44
   3   2   6    1.25    0.67
   3   2   7    0.03    0.75
   3   2   8    8.38    0.74
   3   2   9    1.13    0.51
   3   3  -9    0.03    1.20
   3   3  -8    3.79    1.50
   3   3  -7    6.07    1.39
   3   3  -6   83.56    4.86
   3   3  -5   71.00    1.96
   3   3  -4 1161.32   16.86
   3   3  -3 3333.37   47.34
   3   3  -2 2963.84   45.09
   3   3  -1 4370.62   58.53
   3   3   0  477.05    7.78
   3   3   1   47.95    1.08
   3   3   2    7.81    1.00
   3   3   3  391.60    5.55
   3   3   4  700.61   10.35
   3   3   5  521.64    8.90
   3   3   6  117.57    3.77
   3   3   7    7.80    1.26
   3   3   8    2.29    1.17
   3   3   9    4.09    1.40
   4   0   0  625.44    9.67
   4   0   1   48.88    0.43
   4   0   3  893.57    8.10
   4   0   4  114.94    1.65
   4   0   5    0.03    0.59
   4   0   6   27.89    1.19
   4   0   7   13.05    0.92
   4   0   8    0.09    0.72
   4   0   9    0.15    0.54
   4   1  -9    0.19    0.60
   4   1  -8   19.23    1.34
   4   1  -7    0.11    1.25
   4   1  -6    4.80    0.61
   4   1  -5  290.23    4.31
   4   1  -4  817.78    9.68
   4   1  -3  464.48    7.01
   4   1  -2 1416.28   17.42
   4   1  -1 2803.10   33.26
   4   1   1    1.30    0.73
   4   1   2 1342.73   14.12
   4   1   3 1065.58   12.13
   4   1   4  135.02    2.22
   4   1   5  406.43    5.04
   4   1   6  221.96    5.25
   4   1   7    0.99    0.74
   4   1   8    0.23    0.67
   4   1   9    4.26    0.53
   4   2  -9    0.00    1.54
   4   2  -8    1.51    1.02
   4   2  -7   14.74    1.38
   4   2  -6   44.27    1.93
   4   2  -5   54.99    1.13
   4   2  -4  374.52    4.43
   4   2  -3   93.61    1.51
   4   2  -1 1850.61   18.02
   4   2   0  389.73    3.72
   4   2   1  155.71    2.23
   4   2   2  752.13    8.40
   4   2   3 1453.32   15.13
   4   2   4   33.87    1.06
   4   2   5   75.13    1.62
   4   2   6  134.80    5.02
   4   2   7   12.63    0.89
   4   2   8   13.10    1.22
   4   2   9    1.62    0.67
   4   3  -8    0.16    0.84
   4   3  -7    0.01    1.02
   4   3  -6   26.59    1.36
   4   3  -5    0.53    0.47
   4   3  -4    0.48    0.52
   4   3  -3 1152.78   14.25
   4   3  -2  954.11   12.63
   4   3  -1    6.38    0.90
   4   3   0  362.26    4.34
   4   3   1  141.06    2.30
   4   3   2  545.29    5.34
   4   3   3    4.11    0.49
   4   3   4  335.00    3.67
   4   3   5    3.29    0.57
   4   3   6    4.46    0.77
   4   3   7   57.58    1.97
   4   3   8    0.04    0.76
   4   4  -8   12.73    2.78
   4   4  -7    0.16    2.55
   4   4  -6   87.29    6.81
   4   4  -5  885.08   18.45
   4   4  -4  267.26    4.58
   4   4  -3  262.50    3.92
   4   4  -2  799.71   11.25
   4   4  -1  278.02    4.00
   4   4   0    0.17    0.41
   4   4   1  178.18    4.11
   4   4   2  173.23    3.03
   4   4   3  106.01    2.40
   4   4   4   99.71    2.43
   4   4   5   34.82    2.17
   4   4   6   30.76    1.99
   4   4   7   33.73    2.00
   4   4   8    7.85    1.69
   5   0   0  756.38   12.13
   5   0   1  425.80    4.53
   5   0   2 1329.97   13.30
   5   0   3    0.01    0.48
   5   0   4  251.06    3.14
   5   0   5  442.69    4.75
   5   0   6   36.31    2.40
   5   0   7   28.82    2.77
   5   0   8   11.44    0.96
   5   0   9    0.11    0.62
   5   1  -8    9.39    1.70
   5   1  -7   41.45    3.30
   5   1  -6   43.77    1.68
   5   1  -5   84.73    1.41
   5   1  -4   77.07    1.41
   5   1  -2   28.70    0.96
   5   1  -1  647.97    6.82
   5   1   0  241.14    3.32
   5   1   1    0.03    0.47
   5   1   2   10.66    0.59
   5   1   3   13.98    0.76
   5   1   4   31.07    0.98
   5   1   5   18.40    0.80
   5   1   6  117.32    2.57
   5   1   7   23.30    2.03
   5   1   8    7.22    1.34
   5   2  -8    2.84    1.02
   5   2  -7   18.07    2.00
   5   2  -6   92.89    3.13
   5   2  -5   10.04    0.62
   5   2  -3  496.43    6.42
   5   2  -2  427.25    4.79
   5   2  -1  219.53    2.43
   5   2   0 1435.39   16.38
   5   2   1 1427.80   13.96
   5   2   2   70.28    1.05
   5   2   3  205.56    2.18
   5   2   4  288.65    3.19
   5   2   5  135.30    1.89
   5   2   6  110.80    2.31
   5   2   7   43.34    1.64
   5   2   8    8.77    0.87
   5   3  -8   13.45    1.40
   5   3  -7    6.06    0.93
   5   3  -6   30.13    2.15
   5   3  -5  411.79    5.83
   5   3  -4   58.13    1.01
   5   3  -3  113.94    1.58
   5   3  -2   16.57    1.11
   5   3  -1   26.01    0.85
   5   3   0  171.63    2.16
   5   3   1  478.13    6.06
   5   3   2 1023.79   10.93
   5   3   3   17.28    0.68
   5   3   4    1.19    0.42
   5   3   5  123.20    2.61
   5   3   6    0.02    0.75
   5   3   7    0.17    0.81
   5   3   8   49.57    2.98
   5   4  -7   12.24    0.99
   5   4  -6    5.22    0.78
   5   4  -5   53.97    1.44
   5   4  -4  242.84    3.85
   5   4  -3  122.77    1.73
   5   4  -2    3.75    0.39
   5   4  -1  124.02    1.67
   5   4   0   49.11    0.96
   5   4   1   26.23    0.89
   5   4   2   17.54    0.56
   5   4   3  223.27    2.34
   5   4   4    9.00    0.57
   5   4   5    0.31    0.65
   5   4   6   33.69    1.43
   5   4   7    0.64    0.81
   5   5  -7   22.79    2.50
   5   5  -6  139.43    7.40
   5   5  -5   32.04    2.23
   5   5  -4  170.82    5.32
   5   5  -3  638.18   11.72
   5   5  -2    2.93    0.54
   5   5  -1    0.70    0.55
   5   5   0  280.92    4.66
   5   5   1  101.83    2.01
   5   5   2   82.74    1.62
   5   5   3  501.78    8.01
   5   5   4  135.67    3.20
   5   5   5    0.63    0.99
   5   5   6   36.04    2.11
   5   5   7    1.29    1.09
   6   0   0  592.32   10.74
   6   0   1  687.33    7.41
   6   0   2  207.31    2.92
   6   0   3  153.45    2.51
   6   0   4  229.97    2.84
   6   0   5   62.82    1.38
   6   0   6   34.37    1.58
   6   0   7  108.41    9.04
   6   0   8   16.57    1.45
   6   1  -8    1.50    0.93
   6   1  -7    0.28    3.60
   6   1  -6  130.77    5.66
   6   1  -5    1.07    0.63
   6   1  -4  142.22    2.14
   6   1  -3  418.30    4.45
   6   1  -2   93.16    1.58
   6   1  -1  179.46    2.48
   6   1   0 1073.89   10.66
   6   1   1 1078.20   12.22
   6   1   2   97.56    1.29
   6   1   3  123.11    2.21
   6   1   4  360.29    5.10
   6   1   5   22.01    0.79
   6   1   6    0.01    0.77
   6   1   7   86.06    3.90
   6   1   8    0.08    1.11
   6   2  -8    4.32    1.15
   6   2  -7    0.08    1.07
   6   2  -6    9.50    1.29
   6   2  -5   12.31    0.76
   6   2  -4    0.11    0.46
   6   2  -3   31.77    0.63
   6   2  -2  261.17    2.96
   6   2  -1  574.18    5.74
   6   2   0  190.70    2.67
   6   2   1   69.43    1.24
   6   2   2  144.10    2.05
   6   2   4   10.37    0.62
   6   2   5  167.87    2.81
   6   2   6   38.99    1.40
   6   2   7    0.08    1.40
   6   2   8    3.25    1.13
   6   3  -7   82.82    5.24
   6   3  -6   14.29    0.89
   6   3  -5   87.27    2.58
   6   3  -4  322.39    4.88
   6   3  -3   35.12    1.02
   6   3  -2    0.54    0.33
   6   3  -1  477.50    5.96
   6   3   0  227.61    2.96
   6   3   1  230.99    3.29
   6   3   2  740.54    7.95
   6   3   3  161.72    2.25
   6   3   4   29.28    1.03
   6   3   5   86.56    1.78
   6   3   6    7.39    0.89
   6   3   7    2.13    0.81
   6   4  -7   10.52    1.32
   6   4  -6   84.75    1.99
   6   4  -5    0.22    0.76
   6   4  -4   30.12    2.12
   6   4  -3   47.06    1.57
   6   4  -2    1.83    0.43
   6   4  -1    8.32    0.47
   6   4   0  339.12    3.56
   6   4   1  399.71    4.32
   6   4   2   25.08    0.78
   6   4   3   42.46    1.05
   6   4   4   89.03    2.10
   6   4   5    0.02    0.66
   6   4   6    1.09    0.80
   6   4   7   12.66    0.91
   6   5  -6    6.36    1.13
   6   5  -5   64.80    2.08
   6   5  -4   60.42    1.88
   6   5  -3   34.30    1.37
   6   5  -2   39.60    1.30
   6   5  -1    3.36    0.64
   6   5   0   15.54    0.70
   6   5   1    8.36    0.49
   6   5   2  128.76    1.98
   6   5   3   41.25    1.07
   6   5   4    7.62    0.74
   6   5   5   25.36    1.28
   6   5   6    1.18    0.80
   6   6  -6    0.17    1.20
   6   6  -5   43.91    3.20
   6   6  -4  171.85    5.34
   6   6  -3    1.86    1.31
   6   6  -2    0.94    1.02
   6   6  -1  179.04    4.12
   6   6   0   16.09    0.96
   6   6   1   30.04    1.38
   6   6   2  563.63    9.57
   6   6   3  254.12    4.78
   6   6   4   22.19    1.64
   6   6   5   54.24    3.62
   6   6   6    1.01    1.55
   7   0   0  112.07    2.86
   7   0   1  224.96    2.97
   7   0   2  105.22    1.88
   7   0   3    9.83    0.50
   7   0   4   53.74    1.28
   7   0   5    4.23    0.69
   7   0   6    1.68    0.78
   7   0   7   20.44    1.53
   7   0   8    5.94    1.15
   7   1  -8   30.72    2.87
   7   1  -7    5.56    1.41
   7   1  -6   11.15    1.13
   7   1  -5   36.25    1.43
   7   1  -4   27.77    0.94
   7   1  -3    0.76    0.36
   7   1  -2  390.28    4.17
   7   1  -1  738.26    8.36
   7   1   0 1030.62   11.74
   7   1   1  910.65    9.99
   7   1   2  416.26    4.43
   7   1   3  172.59    2.14
   7   1   4   77.42    1.94
   7   1   5   34.76    1.21
   7   1   6   32.41    1.49
   7   1   7   36.10    2.18
   7   1   8    1.66    1.08
   7   2  -7   58.36    2.32
   7   2  -6    1.85    0.85
   7   2  -5   27.36    1.21
   7   2  -4  345.44    5.07
   7   2  -3   10.84    0.58
   7   2  -2  163.96    1.95
   7   2  -1  137.39    1.31
   7   2   0  266.50    3.07
   7   2   1    0.10    0.32
   7   2   2  149.68    2.06
   7   2   3  270.61    4.70
   7   2   4   17.82    0.85
   7   2   5   24.21    1.17
   7   2   6   26.63    2.03
   7   2   7    0.50    1.01
   7   3  -7    0.14    0.88
   7   3  -6    0.02    0.70
   7   3  -5   11.34    0.83
   7   3  -4   20.37    0.85
   7   3  -3   63.16    1.41
   7   3  -2  162.39    2.05
   7   3  -1   25.12    0.54
   7   3   0    3.78    0.33
   7   3   1  143.95    1.96
   7   3   2   31.03    0.94
   7   3   3    1.26    0.52
   7   3   4  134.02    2.43
   7   3   5   35.79    1.71
   7   3   6    4.27    1.04
   7   3   7    4.32    0.99
   7   4  -6   28.83    1.47
   7   4  -5  157.16    5.05
   7   4  -4    0.24    1.04
   7   4  -3    6.46    0.60
   7   4  -2  226.98    3.83
   7   4  -1   19.71    0.70
   7   4   0   67.29    1.41
   7   4   1  850.01   10.74
   7   4   2  291.16    4.08
   7   4   3   73.63    1.62
   7   4   4  249.21    4.02
   7   4   5   31.65    1.59
   7   4   6    0.08    1.13
   7   5  -6    4.79    0.95
   7   5  -5    0.06    0.79
   7   5  -4    8.26    0.97
   7   5  -3   11.77    0.80
   7   5  -2    6.66    0.62
   7   5  -1   88.84    2.00
   7   5   0  139.97    2.41
   7   5   1   84.66    1.51
   7   5   2  134.86    2.33
   7   5   3  149.41    2.59
   7   5   4   25.16    1.03
   7   5   5    0.09    0.92
   7   5   6    5.25    0.92
   7   6  -5    6.79    0.95
   7   6  -4   17.18    0.94
   7   6  -3   40.11    2.39
   7   6  -2    9.38    0.88
   7   6  -1    0.07    0.60
   7   6   0    0.00    0.55
   7   6   1    8.63    0.59
   7   6   2   14.67    0.60
   7   6   3    4.90    0.60
   7   6   4   13.68    1.12
   7   6   5   12.16    1.56
   7   7  -3   51.63    3.20
   7   7  -2  247.62   10.30
   7   7  -1   39.41    3.50
   7   7   0   23.78    1.73
   7   7   1   94.97    2.80
   7   7   2    0.65    1.26
   7   7   3   14.26    5.10
   8   0   0    6.37    0.68
   8   0   1  466.36    4.99
   8   0   2  465.73    5.87
   8   0   3  166.58    1.86
   8   0   4   32.01    1.09
   8   0   5  114.51    2.34
   8   0   6    0.08    0.91
   8   0   7    0.24    0.92
   8   1  -7    0.15    1.04
   8   1  -6    2.20    0.82
   8   1  -5    5.84    0.74
   8   1  -4   63.83    1.32
   8   1  -3    0.74    0.47
   8   1  -2   39.46    0.94
   8   1  -1  110.46    1.39
   8   1   0  496.57    5.05
   8   1   1  177.40    2.17
   8   1   2   44.70    1.12
   8   1   3  153.76    2.52
   8   1   4   52.30    1.55
   8   1   5    0.25    0.68
   8   1   6   26.20    1.18
   8   1   7    8.25    0.96
   8   2  -7    8.25    0.94
   8   2  -6   35.67    1.42
   8   2  -5    7.95    0.71
   8   2  -4   81.62    1.71
   8   2  -3  252.11    3.18
   8   2  -2   52.75    1.03
   8   2  -1  130.86    2.12
   8   2   0  574.20    6.48
   8   2   1  287.80    3.87
   8   2   2  233.64    3.88
   8   2   3  248.87    4.26
   8   2   4   16.64    1.54
   8   2   5    0.05    0.70
   8   2   6   21.97    1.51
   8   2   7    3.04    0.89
   8   3  -6    4.32    0.69
   8   3  -5   53.70    1.69
   8   3  -4   19.86    0.85
   8   3  -3   30.20    1.53
   8   3  -2   94.62    1.69
   8   3  -1   40.33    1.01
   8   3   0   16.28    0.56
   8   3   1  407.58    6.25
   8   3   2  324.08    5.07
   8   3   3    0.63    0.58
   8   3   4    0.18    0.65
   8   3   5    9.52    0.80
   8   3   6    0.01    0.80
   8   4  -5   13.32    1.04
   8   4  -4   34.82    1.73
   8   4  -3   91.95    2.27
   8   4  -2   55.29    1.39
   8   4  -1    6.62    0.52
   8   4   0    4.56    0.51
   8   4   1    4.03    0.59
   8   4   2   12.46    0.66
   8   4   3   37.18    1.26
   8   4   4   48.75    1.48
   8   4   5    0.88    0.67
   8   5  -4   26.66    1.92
   8   5  -3  186.85    4.70
   8   5  -2   30.36    1.51
   8   5  -1   37.17    1.49
   8   5   0  176.70    3.92
   8   5   1   12.18    0.67
   8   5   2    3.15    0.58
   8   5   3  136.44    2.80
   8   5   4   59.00    3.06
   8   6  -3   20.10    1.02
   8   6  -2  141.44    4.38
   8   6  -1   75.80    1.86
   8   6   0   51.10    1.55
   8   6   1   12.60    0.79
   8   6   2    9.23    0.67
   8   6   3    6.41    0.63
   8   7  -1    6.11    0.88
   8   7   0    4.02    0.72
   8   7   1    6.86    1.18
   9   0   0  949.04   15.22
   9   0   1  657.32    6.70
   9   0   2  201.05    2.36
   9   0   3    2.46    0.46
   9   0   4    1.45    0.61
   9   0   5    6.14    0.75
   9   0   6    1.76    0.81
   9   0   7   19.48    2.48
   9   1  -6   53.40    1.59
   9   1  -5    2.33    0.72
   9   1  -4    9.09    0.66
   9   1  -3  224.67    3.56
   9   1  -2   44.14    1.72
   9   1  -1    4.04    0.49
   9   1   0  338.20    4.27
   9   1   1  174.60    3.40
   9   1   2    6.41    0.59
   9   1   3    1.81    0.53
   9   1   4   20.50    0.80
   9   1   5   15.34    0.98
   9   1   6    8.96    0.76
   9   2  -6    0.37    1.24
   9   2  -5    0.28    0.66
   9   2  -4  103.81    2.20
   9   2  -3  114.71    2.05
   9   2  -2    9.65    0.58
   9   2  -1   32.17    1.02
   9   2   0    6.88    0.51
   9   2   1   48.29    1.34
   9   2   2   20.82    1.16
   9   2   3   80.99    1.87
   9   2   4    1.13    0.62
   9   2   5   26.45    1.14
   9   2   6   24.00    1.12
   9   3  -5   33.68    1.66
   9   3  -4  144.89    2.82
   9   3  -3   48.65    1.42
   9   3  -2   81.68    1.57
   9   3  -1  204.32    3.67
   9   3   0   24.08    1.53
   9   3   1    0.45    0.59
   9   3   2   89.37    2.00
   9   3   3   58.46    1.49
   9   3   4   15.38    1.00
   9   3   5   64.06    3.04
   9   4  -4    0.81    0.89
   9   4  -3   51.40    1.59
   9   4  -2    8.96    0.69
   9   4  -1   18.93    0.70
   9   4   0   50.36    1.37
   9   4   1    3.10    0.61
   9   4   2    0.58    0.64
   9   4   3    1.77    0.60
   9   4   4    8.73    0.66
   9   5  -3    3.20    1.01
   9   5  -2    1.05    0.60
   9   5  -1    0.17    0.62
   9   5   0    2.86    0.62
   9   5   1    3.65    0.66
   9   5   2   62.81    2.64
   9   5   3   75.98    1.96
   9   6  -1  186.34    8.27
   9   6   0   44.78    4.40
   9   6   1   11.05    0.88
  10   0   0    1.44    0.66
  10   0   1   67.92    1.42
  10   0   2   55.46    1.22
  10   0   3   41.24    1.21
  10   0   4    8.40    0.72
  10   0   5   36.33    1.24
  10   0   6    0.02    0.74
  10   1  -5   53.43    1.76
  10   1  -4   94.46    2.68
  10   1  -3  241.50    4.01
  10   1  -2  324.92    4.50
  10   1  -1   52.63    1.29
  10   1   0   12.47    0.74
  10   1   1   19.54    1.01
  10   1   2    0.73    0.55
  10   1   3    0.52    0.61
  10   1   4   57.03    1.52
  10   1   5   33.70    2.07
  10   2  -5   11.29    0.74
  10   2  -4  112.23    2.21
  10   2  -3   18.43    0.74
  10   2  -2    2.68    0.52
  10   2  -1   53.67    1.44
  10   2   0    1.38    0.72
  10   2   1   33.71    1.20
  10   2   2    1.66    0.66
  10   2   3   14.50    0.90
  10   2   4    5.43    0.78
  10   2   5    2.86    0.59
  10   3  -4    7.91    0.90
  10   3  -3    0.03    0.58
  10   3  -2   32.69    1.11
  10   3  -1   17.84    1.19
  10   3   0    0.42    0.58
  10   3   1   78.09    2.07
  10   3   2   70.47    1.89
  10   3   3    0.03    0.65
  10   3   4    6.45    0.69
  10   4  -3   20.77    1.10
  10   4  -2   81.86    1.92
  10   4  -1   14.16    0.88
  10   4   0   14.70    1.05
  10   4   1  102.19    3.84
  10   4   2   34.00    2.57
  10   4   3    4.35    0.65
  11   0   0  108.68    4.08
  11   0   1    0.23    0.52
  11   0   2  135.93    2.41
  11   0   3   50.50    1.66
  11   0   4   31.35    1.19
  11   0   5   50.27    1.55
  11   1  -4    1.45    0.65
  11   1  -3   65.43    2.32
  11   1  -2   86.30    2.17
  11   1  -1   11.07    0.63
  11   1   0  119.49    2.56
  11   1   1   31.68    1.24
  11   1   2   43.22    1.30
  11   1   3    2.88    0.71
  11   1   4    2.72    0.62
  11   2  -3   88.96    1.95
  11   2  -2   59.44    1.49
  11   2  -1   36.93    1.26
  11   2   0   57.68    1.49
  11   2   1    6.22    0.75
  11   2   2    0.25    0.62
  11   2   3   17.59    1.42
  11   3  -2   46.15    1.69
  11   3  -1    0.06    0.56
  11   3   0    0.02    0.62
  11   3   1    1.08    0.65
  11   3   2    1.75    0.72
  12   0   0   47.85    1.93
  12   0   1   38.94    1.30
  12   0   2   75.46    1.75
  12   0   3   66.39    2.44
  12   0   4   33.58    1.27
  12   1  -3   25.67    1.73
  12   1  -2    0.01    0.59
  12   1  -1    3.13    0.57
  12   1   0    4.88    0.64
  12   1   1   20.11    0.96
  12   1   2   20.19    0.95
  12   1   3   32.76    1.72
  12   2   0   17.58    1.47
  13   0   0    4.42    1.10
  13   0   1   44.96    1.57
   0   0   0    0.00    0.00
;
_shelx_hkl_checksum              70832
_shelx_shelxl_version_number     2014/7
_olex2_submission_special_instructions 'No special instructions were received'
loop_
_space_group_symop_operation_xyz
'x, y, z'
'-y, x-y, z'
'-x+y, -x, z'
'-y, -x, -z'
'-x+y, y, -z'
'x, x-y, -z'
'-x, -y, -z'
'y, -x+y, -z'
'x-y, x, -z'
'y, x, z'
'x-y, -y, z'
'-x, -x+y, z'
loop_
_atom_site_label
_atom_site_type_symbol
_atom_site_fract_x
_atom_site_fract_y
_atom_site_fract_z
_atom_site_U_iso_or_equiv
_atom_site_adp_type
_atom_site_occupancy
_atom_site_site_symmetry_order
_atom_site_calc_flag
_atom_site_refinement_flags_posn
_atom_site_refinement_flags_adp
_atom_site_refinement_flags_occupancy
Zn01 Zn 0.6667 0.3333 0.5000 0.0673(8) Uani 1 6 d S T P
Cl02 Cl 1.0000 0.38126(15) 0.8068(3) 0.0966(10) Uani 1 2 d S T P
O003 O 0.8030(3) 0.3522(2) 0.6272(4) 0.0707(10) Uani 1 1 d . . .
C004 C 1.0000 0.4458(4) 0.6379(7) 0.0644(16) Uani 1 2 d S T P
C005 C 0.8974(3) 0.4198(3) 0.5744(5) 0.0616(12) Uani 1 1 d . . .
C1 C 0.8986(12) 0.629(2) 0.794(4) 0.178(12) Uani 0.3333 1 d D U .
H1A H 0.8336 0.5959 0.7259 0.268 Uiso 0.3333 1 calc GR . .
H1B H 0.8829 0.6647 0.8793 0.268 Uiso 0.3333 1 calc GR . .
H1C H 0.9125 0.5695 0.8315 0.268 Uiso 0.3333 1 calc GR . .
N2 N 1.0000 0.715(3) 0.712(4) 0.205(14) Uani 0.3333 2 d DS TU P
H2A H 1.0000 0.7818 0.7085 0.247 Uiso 0.3333 2 calc RS T P
H2B H 1.0000 0.6919 0.6163 0.247 Uiso 0.3333 2 calc RS T P
O1 O 0.740(3) 0.3702(13) 1.0000 0.23(2) Uani 0.3333 2 d S T P
loop_
_atom_site_aniso_label
_atom_site_aniso_U_11
_atom_site_aniso_U_22
_atom_site_aniso_U_33
_atom_site_aniso_U_23
_atom_site_aniso_U_13
_atom_site_aniso_U_12
Zn01 0.0471(9) 0.0471(9) 0.1076(13) 0.000 0.000 0.0236(4)
Cl02 0.0711(12) 0.0976(13) 0.1123(16) 0.0434(10) 0.000 0.0356(6)
O003 0.0509(16) 0.0547(16) 0.105(2) 0.0180(14) 0.0076(14) 0.0248(14)
C004 0.056(3) 0.052(2) 0.087(4) 0.018(2) 0.000 0.0279(16)
C005 0.057(2) 0.043(2) 0.088(3) 0.0077(17) 0.004(2) 0.0276(18)
C1 0.042(6) 0.192(16) 0.30(3) -0.180(19) -0.030(8) 0.055(7)
N2 0.117(12) 0.179(17) 0.30(3) -0.17(2) 0.000 0.059(6)
O1 0.105(15) 0.31(4) 0.22(3) 0.13(3) 0.000 0.053(8)
loop_
_atom_type_symbol
_atom_type_description
_atom_type_scat_dispersion_real
_atom_type_scat_dispersion_imag
_atom_type_scat_source
C C 0.0181 0.0091 'International Tables Vol C Tables 4.2.6.8 and 6.1.1.4'
H H 0.0000 0.0000 'International Tables Vol C Tables 4.2.6.8 and 6.1.1.4'
Cl Cl 0.3639 0.7018 'International Tables Vol C Tables 4.2.6.8 and 6.1.1.4'
N N 0.0311 0.0180 'International Tables Vol C Tables 4.2.6.8 and 6.1.1.4'
O O 0.0492 0.0322 'International Tables Vol C Tables 4.2.6.8 and 6.1.1.4'
Zn Zn -1.5491 0.6778 'International Tables Vol C Tables 4.2.6.8 and 6.1.1.4'
loop_
_geom_angle_atom_site_label_1
_geom_angle_atom_site_label_2
_geom_angle_atom_site_label_3
_geom_angle
_geom_angle_site_symmetry_1
_geom_angle_site_symmetry_3
O003 Zn01 O003 96.24(19) . 4_666
O003 Zn01 O003 78.41(16) 4_666 3_665
O003 Zn01 O003 93.30(13) . 2_655
O003 Zn01 O003 93.30(13) 3_665 2_655
O003 Zn01 O003 167.68(16) 6_556 3_665
O003 Zn01 O003 96.24(19) 3_665 5_656
O003 Zn01 O003 93.30(13) . 3_665
O003 Zn01 O003 78.41(16) . 6_556
O003 Zn01 O003 93.30(13) 6_556 5_656
O003 Zn01 O003 93.30(13) 4_666 5_656
O003 Zn01 O003 78.41(16) 2_655 5_656
O003 Zn01 O003 93.30(13) 4_666 6_556
O003 Zn01 O003 96.24(19) 6_556 2_655
O003 Zn01 O003 167.68(16) 4_666 2_655
O003 Zn01 O003 167.68(16) . 5_656
C005 O003 Zn01 114.7(3) . .
C005 C004 Cl02 118.6(3) 12_765 .
C005 C004 Cl02 118.6(3) . .
C005 C004 C005 122.8(5) . 12_765
O003 C005 C004 125.3(4) . .
O003 C005 C005 116.1(2) . 6_556
C004 C005 C005 118.6(3) . 6_556
H1A C1 H1B 109.5 . .
H1A C1 H1C 109.5 . .
H1B C1 H1C 109.5 . .
N2 C1 H1A 109.5 . .
N2 C1 H1B 109.5 . .
N2 C1 H1C 109.5 . .
C1 N2 C1 108(2) . 12_765
C1 N2 H2A 110.2 12_765 .
C1 N2 H2A 110.2 . .
C1 N2 H2B 110.2 . .
C1 N2 H2B 110.2 12_765 .
H2A N2 H2B 108.5 . .
O1 O1 O1 60.000(4) 3_665 2_655
loop_
_geom_bond_atom_site_label_1
_geom_bond_atom_site_label_2
_geom_bond_distance
_geom_bond_site_symmetry_2
Zn01 O003 2.082(3) .
Zn01 O003 2.082(3) 2_655
Zn01 O003 2.082(3) 4_666
Zn01 O003 2.082(3) 5_656
Zn01 O003 2.082(3) 3_665
Zn01 O003 2.082(3) 6_556
Cl02 C004 1.741(6) .
O003 C005 1.244(5) .
C004 C005 1.384(5) .
C004 C005 1.384(5) 12_765
C005 C005 1.539(9) 6_556
C1 H1A 0.9800 .
C1 H1B 0.9800 .
C1 H1C 0.9800 .
C1 N2 1.486(19) .
N2 C1 1.486(19) 12_765
N2 H2A 0.9100 .
N2 H2B 0.9100 .
O1 O1 1.51(5) 2_655
O1 O1 1.51(5) 3_665
loop_
_geom_torsion_atom_site_label_1
_geom_torsion_atom_site_label_2
_geom_torsion_atom_site_label_3
_geom_torsion_atom_site_label_4
_geom_torsion
_geom_torsion_site_symmetry_1
_geom_torsion_site_symmetry_4
Zn01 O003 C005 C004 -179.6(4) . .
Zn01 O003 C005 C005 0.1(6) . 6_556
Cl02 C004 C005 O003 -0.8(7) . .
Cl02 C004 C005 C005 179.6(4) . 6_556
C005 C004 C005 O003 -179.6(4) 12_765 .
C005 C004 C005 C005 0.8(10) 12_765 6_556
loop_
_smtbx_masks_void_nr
_smtbx_masks_void_average_x
_smtbx_masks_void_average_y
_smtbx_masks_void_average_z
_smtbx_masks_void_volume
_smtbx_masks_void_count_electrons
1 0.000 0.000 -0.582 318.7 43.7
