#------------------------------------------------------------------------------
#$Date: 2019-11-25 07:55:04 +0200 (Mon, 25 Nov 2019) $
#$Revision: 240420 $
#$URL: file:///home/coder/svn-repositories/cod/cif/4/12/97/4129762.cif $
#------------------------------------------------------------------------------
#
# This file is available in the Crystallography Open Database (COD),
# http://www.crystallography.net/
#
# All data on this site have been placed in the public domain by the
# contributors.
#
data_4129762
loop_
_publ_author_name
'Jeon, Ie-Rang'
'Negru, Bogdan'
'Van Duyne, Richard P.'
'Harris, T. David'
_publ_section_title
;
 A 2D Semiquinone Radical-Containing Microporous Magnet with
 Solvent-Induced Switching from Tc = 26 to 80 K.
;
_journal_issue                   50
_journal_name_full               'Journal of the American Chemical Society'
_journal_page_first              15699
_journal_page_last               15702
_journal_paper_doi               10.1021/jacs.5b10382
_journal_volume                  137
_journal_year                    2015
_chemical_formula_moiety
'6(C0.67 H2.67 N0.33), C18 Cl6 Fe2 O12, 0.67(O3)'
_chemical_formula_sum            'C40 H62 Cl6 Fe2 N8 O20'
_chemical_formula_weight         1299.37
_space_group_crystal_system      trigonal
_space_group_IT_number           162
_space_group_name_Hall           '-P 3 2'
_space_group_name_H-M_alt        'P -3 1 m'
_atom_sites_solution_hydrogens   geom
_atom_sites_solution_primary     direct
_audit_creation_date             2015-08-30
_audit_creation_method
;
Olex2 1.2
(compiled 2015.01.26 svn.r3150 for OlexSys, GUI svn.r4998)
;
_cell_angle_alpha                90
_cell_angle_beta                 90
_cell_angle_gamma                120
_cell_formula_units_Z            1
_cell_length_a                   13.5632(5)
_cell_length_b                   13.5632(5)
_cell_length_c                   8.7449(5)
_cell_measurement_reflns_used    3246
_cell_measurement_temperature    100(2)
_cell_measurement_theta_max      65.046
_cell_measurement_theta_min      3.76
_cell_volume                     1393.19(11)
_computing_cell_refinement       'SAINT v8.34A (Bruker, 2013)'
_computing_data_collection       'APEX2 V2.1-4 (Bruker, 2007)'
_computing_data_reduction        'SAINT v8.34A (Bruker, 2013)'
_computing_molecular_graphics    'Olex2 (Dolomanov et al., 2009)'
_computing_publication_material  'Olex2 (Dolomanov et al., 2009)'
_computing_structure_refinement  'ShelXL (Sheldrick, 2008)'
_computing_structure_solution    'XT (Sheldrick, 2015)'
_diffrn_ambient_temperature      99.99
_diffrn_detector_area_resol_mean 8
_diffrn_measured_fraction_theta_full 0.964
_diffrn_measured_fraction_theta_max 0.964
_diffrn_measurement_device_type  'Bruker SMART APEX CCD area detector'
_diffrn_measurement_method       '\w and \f scans'
_diffrn_radiation_monochromator  'MX optics'
_diffrn_radiation_type           CuK\a
_diffrn_radiation_wavelength     1.54178
_diffrn_reflns_av_R_equivalents  0.0221
_diffrn_reflns_av_unetI/netI     0.0169
_diffrn_reflns_Laue_measured_fraction_full 0.964
_diffrn_reflns_Laue_measured_fraction_max 0.964
_diffrn_reflns_limit_h_max       15
_diffrn_reflns_limit_h_min       -15
_diffrn_reflns_limit_k_max       12
_diffrn_reflns_limit_k_min       -15
_diffrn_reflns_limit_l_max       10
_diffrn_reflns_limit_l_min       -8
_diffrn_reflns_number            5182
_diffrn_reflns_point_group_measured_fraction_full 0.964
_diffrn_reflns_point_group_measured_fraction_max 0.964
_diffrn_reflns_theta_full        65.174
_diffrn_reflns_theta_max         65.173
_diffrn_reflns_theta_min         5.057
_diffrn_source                   microsource
_diffrn_standards_number         0
_exptl_absorpt_coefficient_mu    7.504
_exptl_absorpt_correction_T_max  0.7526
_exptl_absorpt_correction_T_min  0.6218
_exptl_absorpt_correction_type   multi-scan
_exptl_absorpt_process_details
;
SADABS-2014/2 (Bruker,2014/2) was used for absorption correction.
wR2(int) was 0.0750 before and 0.0224 after correction.
The Ratio of minimum to maximum transmission is 0.8262.
The \l/2 correction factor is 0.00150.
;
_exptl_crystal_colour            'metallic dark black'
_exptl_crystal_colour_lustre     metallic
_exptl_crystal_colour_modifier   dark
_exptl_crystal_colour_primary    black
_exptl_crystal_density_diffrn    1.549
_exptl_crystal_description       hexagonal
_exptl_crystal_F_000             672
_exptl_crystal_size_max          0.09
_exptl_crystal_size_mid          0.09
_exptl_crystal_size_min          0.02
_refine_diff_density_max         0.880
_refine_diff_density_min         -0.445
_refine_diff_density_rms         0.157
_refine_ls_extinction_method     none
_refine_ls_goodness_of_fit_ref   1.173
_refine_ls_hydrogen_treatment    constr
_refine_ls_matrix_type           full
_refine_ls_number_parameters     54
_refine_ls_number_reflns         831
_refine_ls_number_restraints     31
_refine_ls_restrained_S_all      1.159
_refine_ls_R_factor_all          0.1072
_refine_ls_R_factor_gt           0.0954
_refine_ls_shift/su_max          0.000
_refine_ls_shift/su_mean         0.000
_refine_ls_structure_factor_coef Fsqd
_refine_ls_weighting_details
'w=1/[\s^2^(Fo^2^)+(0.2000P)^2^] where P=(Fo^2^+2Fc^2^)/3'
_refine_ls_weighting_scheme      calc
_refine_ls_wR_factor_gt          0.2481
_refine_ls_wR_factor_ref         0.2651
_reflns_Friedel_coverage         0.000
_reflns_number_gt                701
_reflns_number_total             831
_reflns_threshold_expression     'I > 2\s(I)'
_cod_data_source_file            ja5b10382_si_002.cif
_cod_data_source_block           compound_1
_cod_original_cell_volume        1393.19(13)
_cod_database_code               4129762
_chemw03_alert_2_a
;
PROBLEM: The ratio of given/expected molecular weight 
as calculated from the _atom_site* data lies outside 
the range 0.90 <> 1.10
RESPONSE:Residual electron density found in the difference 
Fourier map was removed using the solvent mask protocol 
included in Olex2. This residual electron density likely 
arises from either residual DMF solvent molecules. 6 DMF 
solvent molecules are confirmed by elemental and thermal 
analyses and are taken into consideration for the molecular 
formula. Hydrogen atoms for water molecule were not introduced 
but are also taken into consideration for the molecular formula. 
Therefore, there is a hugh difference in given and expected 
molecular weight.
;
_shelx_space_group_comment
;
The symmetry employed for this shelxl refinement is uniquely defined
by the following loop, which should always be used as a source of
symmetry information in preference to the above space-group names.
They are only intended as comments.
;
_olex2_refinement_description
;
1. Fixed Uiso
 At 1.2 times of:
  All N(H,H) groups
 At 1.5 times of:
  All C(H,H,H) groups
2. Rigid bond restraints
 N3, C4
 with sigma for 1-2 distances of 0.01 and sigma for 1-3 distances of 0.01
3. Uiso/Uaniso restraints and constraints
N3 \\sim C4: within 1.7A with sigma of 0.01 and sigma for terminal atoms of 0.02
4. Rigid body (RIGU) restrains
 All non-hydrogen atoms
 with sigma for 1-2 distances of 0.004 and sigma for 1-3 distances of 0.004
5. Others
 Fixed Sof: N3(0.16667) H3A(0.16667) H3B(0.16667) C4(0.33333) H4A(0.33333)
 H4B(0.33333) H4C(0.33333) O1(0.16667)
6.a Secondary CH2 refined with riding coordinates:
 N3(H3A,H3B)
6.b Idealised Me refined as rotating group:
 C4(H4A,H4B,H4C)
;
_shelx_res_file
;
    ij647c_0m.res created by SHELXL-2014/7

TITL ij647c_0m_a.res in P-31m
REM Old TITL IJ647C_0m in P-31m #162
REM SHELXT solution in P-31m
REM R1 0.207, Rweak 0.031, Alpha 0.030, Orientation as input
REM Formula found by SHELXT: C15 Cl3 Fe N3 O6
CELL 1.54178 13.5632 13.5632 8.7449 90 90 120
ZERR 1 0.0005 0.0005 0.0005 0 0 0
LATT 1
SYMM -Y,+X-Y,+Z
SYMM +Y-X,-X,+Z
SYMM -Y,-X,-Z
SYMM +Y-X,+Y,-Z
SYMM +X,+X-Y,-Z
SFAC C H Cl Fe N O
UNIT 40 62 6 2 8 20
DELU N3 C4
SIMU 0.01 0.02 1.7 N3 C4
RIGU

L.S. 100 0 0
PLAN  4
TEMP -173.16
BOND $H
LIST 6
MORE -1
CONF
fmap 2 53
acta
OMIT 1 1 1
OMIT -6 12 2
OMIT 1 2 1
OMIT -1 3 2
OMIT 3 3 2
OMIT 0 3 2
OMIT 2 6 3
OMIT 2 3 1
OMIT 0 4 1
OMIT 0 2 0
OMIT -1 2 1
OMIT -1 2 2
OMIT 1 1 3
OMIT 0 1 2
OMIT -1 2 3
OMIT -2 6 2
OMIT 0 5 3
OMIT -1 4 0
REM <olex2.extras>
REM <HklSrc "%.\\IJ647C_0m-mask.hkl">
REM </olex2.extras>

WGHT    0.200000
FVAR       0.80795
N3    5    0.256091    0.000000    0.253043    10.16667    0.19054    0.06643 =
         0.26515    0.00000   -0.03492    0.03322
AFIX  23
H3A   2    0.250044    0.000000    0.356680    10.16667   -1.20000
H3B   2    0.194532    0.000000    0.211655    10.16667   -1.20000
AFIX   0
C4    1    0.358938    0.099969    0.204366    10.33333    0.16912    0.04142 =
         0.23286    0.00067   -0.06337    0.05192
AFIX 137
H4A   2    0.384803    0.084150    0.107603    10.33333   -1.50000
H4B   2    0.418019    0.120814    0.282336    10.33333   -1.50000
H4C   2    0.343977    0.162969    0.190038    10.33333   -1.50000
AFIX   0

FE01  4    0.666667    0.333333    0.500000    10.16667    0.04717    0.04717 =
         0.07269    0.00000    0.00000    0.02359
CL02  3    0.611378    0.000000    0.184145    10.50000    0.08908    0.06708 =
         0.08125    0.00000    0.03235    0.03354
O003  6    0.645506    0.200715    0.370717    11.00000    0.05229    0.04937 =
         0.07507    0.00272    0.01265    0.02480
C004  1    0.550014    0.000000    0.356871    10.50000    0.04896    0.06010 =
         0.06195    0.00000    0.00704    0.03005
C005  1    0.577204    0.102130    0.425738    11.00000    0.04165    0.05062 =
         0.06768    0.00256    0.00602    0.02418
O1    6    0.630889    0.261778    0.000000    10.16667    0.36533    0.06227 =
         0.24767    0.00000    0.12091    0.03114
HKLF 4

REM  ij647c_0m_a.res in P-31m
REM R1 =  0.0954 for     701 Fo > 4sig(Fo)  and  0.1072 for all     831 data
REM     54 parameters refined using     31 restraints

END

WGHT      0.2000      0.0000

REM Highest difference peak  0.880,  deepest hole -0.445,  1-sigma level  0.157
Q1    1   0.6667  0.3333  0.4087  10.33333  0.05    0.57
Q2    1   0.4118  0.1133  0.1479  11.00000  0.05    0.54
Q3    1   0.5601  0.2801  0.0000  10.50000  0.05    0.53
Q4    1   0.5916  0.0000  0.2887  10.50000  0.05    0.50
;
_shelx_res_checksum              65550
_shelx_hkl_file
;
   0   0   1 8139.16   58.79
   0   0   2   69.90    4.06
   0   0   3  898.33    8.62
   0   0   4  994.44   10.36
   0   0   5 1674.18   15.77
   0   0   6  738.93   25.80
   0   0   7  273.07    9.20
   0   0   8    0.00    4.50
   0   0   9   93.49    7.50
   0   0  10    8.30    3.50
   1   0   1 1919.88    4.55
   1   0   3   18.45    0.56
   1   0   4  167.23    1.74
   1   0   5   84.20    1.82
   1   0   6   78.21    3.83
   1   0   7   45.81    3.07
   1   0   8   13.55    1.98
   1   0   9   12.64    1.96
   1   0  10    0.25    1.21
   1   1 -10   25.87    2.56
   1   1  -9    0.00    2.33
   1   1  -8  236.28    5.71
   1   1  -7  358.63    5.82
   1   1  -6   66.22    8.59
   1   1  -5   84.71    2.60
   1   1  -4 1579.69    8.16
   1   1   0 1175.75    4.91
   1   1   2 7201.58   25.07
   1   1   4  201.01    3.25
   1   1   5  875.09    6.93
   1   1   6  372.52    6.86
   1   1   7    4.93    3.61
   1   1   8  196.25    4.65
   1   1   9   72.56    4.98
   1   1  10    2.53    1.90
   2   0   1   82.09    0.51
   2   0   2  461.58    1.72
   2   0   3    8.14    0.62
   2   0   4  714.37    7.38
   2   0   5  527.54    3.75
   2   0   6    2.38    1.78
   2   0   7   30.84    3.05
   2   0   8   93.33    3.30
   2   0   9    0.00    1.77
   2   0  10    5.75    1.48
   2   1 -10    9.86    2.00
   2   1  -9    0.18    1.63
   2   1  -8    0.00    2.07
   2   1  -7   84.42    3.77
   2   1  -6    1.22    1.63
   2   1  -5   19.56    1.27
   2   1  -4  423.56    2.68
   2   1  -3   64.87    0.87
   2   1  -1 9730.28   22.50
   2   1   0 2856.07   14.51
   2   1   2  264.82    1.44
   2   1   3    6.87    0.50
   2   1   4  101.28    1.90
   2   1   5  136.71    2.45
   2   1   6  189.12    4.79
   2   1   7    1.36    1.91
   2   1   8   10.16    2.04
   2   1   9    7.89    2.19
   2   1  10    3.34    1.19
   2   2  -9   51.60    4.40
   2   2  -8   45.10    4.66
   2   2  -7   29.24    2.86
   2   2  -6   96.16    3.77
   2   2  -5  322.43    9.33
   2   2  -4   60.05    2.17
   2   2  -3 1979.31   10.09
   2   2  -2 9302.84   33.79
   2   2  -1 1277.34    4.83
   2   2   0  503.56    3.02
   2   2   1 1268.64    6.41
   2   2   2  547.49    3.46
   2   2   3  176.86    2.98
   2   2   4 1206.83    9.59
   2   2   5  687.83   26.80
   2   2   6   78.14    4.98
   2   2   7  255.71    8.17
   2   2   8   43.24    2.81
   2   2   9    2.61    2.94
   3   0   0 5406.82   19.61
   3   0   1  237.65    1.03
   3   0   3 2676.19   10.66
   3   0   4  957.11    7.30
   3   0   5   27.12    1.67
   3   0   6  537.42    3.70
   3   0   7  158.64    3.13
   3   0   8    0.00    3.28
   3   0   9   36.96    2.21
   3   0  10   23.35    1.68
   3   1  -9   36.23    2.57
   3   1  -8    1.08    1.99
   3   1  -7   11.41    1.71
   3   1  -6  364.12    2.75
   3   1  -5  246.93    9.44
   3   1  -4   14.42    1.14
   3   1  -3 1536.03    6.28
   3   1  -2  547.35    2.02
   3   1  -1 5722.23   31.27
   3   1   1  582.39    2.62
   3   1   2  419.72    2.26
   3   1   3  688.74    7.90
   3   1   4 1350.71    8.12
   3   1   5   11.91    3.50
   3   1   6   92.83    3.43
   3   1   7  214.66    3.71
   3   1   8    3.63    1.76
   3   1   9    3.85    1.69
   3   2  -9    0.00    1.89
   3   2  -8   17.42    2.00
   3   2  -7   13.81    1.85
   3   2  -6   67.05    3.87
   3   2  -5   98.77    3.46
   3   2  -4  265.86    2.78
   3   2  -3  337.09    3.14
   3   2  -2 2234.58   10.31
   3   2  -1 1924.94    8.68
   3   2   0   11.53    0.53
   3   2   2   23.46    0.88
   3   2   3  380.64    3.75
   3   2   4  110.83    8.12
   3   2   5  524.40    6.44
   3   2   6    0.36    2.43
   3   2   7    7.71    2.04
   3   2   8   24.46    1.79
   3   2   9   12.30    1.66
   3   3  -9    6.10    4.40
   3   3  -8   10.40    4.20
   3   3  -6   84.69   18.12
   3   3  -5  211.27    2.26
   3   3  -4  867.68    8.60
   3   3  -3 3523.32   33.66
   3   3  -2 3654.30   20.26
   3   3  -1 5481.23   28.70
   3   3   0  276.51    2.72
   3   3   1  168.46    2.07
   3   3   3  304.38    5.34
   3   3   5  783.34   49.37
   3   3   6  139.29    4.10
   3   3   7    0.80    4.10
   3   3   8   11.62    2.79
   3   3   9   12.75    2.75
   4   0   0  526.13    2.53
   4   0   2  191.61    1.48
   4   0   3  783.99    4.19
   4   0   4   82.70    2.06
   4   0   5    4.71    3.84
   4   0   6   30.25    3.05
   4   0   7    8.67    2.04
   4   0   8    0.00    2.14
   4   0   9    4.29    1.70
   4   1  -9    0.00    1.89
   4   1  -8   31.73    2.86
   4   1  -7    1.37    3.22
   4   1  -6   13.19    3.22
   4   1  -5  267.84   22.34
   4   1  -4 1017.11    8.71
   4   1  -3  699.54    4.87
   4   1  -2 1523.09    6.46
   4   1  -1 2486.75   16.13
   4   1   0   21.57    0.68
   4   1   1   39.35    1.26
   4   1   2 1006.49    4.78
   4   1   3  999.36    5.58
   4   1   4  311.44    3.86
   4   1   5  551.06   46.21
   4   1   6  161.50    9.85
   4   1   7    2.42    1.73
   4   1   8    6.82    2.64
   4   1   9   10.58    2.14
   4   2  -9    0.65    3.10
   4   2  -8   16.04    2.49
   4   2  -7   25.45    2.96
   4   2  -6   45.44    2.46
   4   2  -5  161.29   15.94
   4   2  -4  470.92   10.52
   4   2  -3  288.29    3.24
   4   2  -1 1581.04   10.03
   4   2   0  289.26    1.89
   4   2   1  469.33    2.79
   4   2   2  803.82    4.46
   4   2   3 1964.45   25.13
   4   2   4   19.54    3.24
   4   2   5  186.65    2.57
   4   2   6  194.25    4.76
   4   2   7   83.40    5.26
   4   2   8   24.67    2.18
   4   2   9    9.27    1.80
   4   3  -9   16.43    2.06
   4   3  -8  168.13   87.19
   4   3  -7   11.21    4.34
   4   3  -6   14.20    2.93
   4   3  -5    0.00    0.87
   4   3  -4    4.20    7.70
   4   3  -3 1170.73   13.38
   4   3  -2 1432.98    8.99
   4   3  -1   50.05    1.37
   4   3   0  290.03    2.08
   4   3   1  155.76    1.76
   4   3   2  760.59    7.75
   4   3   3    6.46    1.69
   4   3   4  340.44    6.69
   4   3   5    3.51    0.99
   4   3   6    6.27    2.55
   4   3   7  103.32    5.57
   4   3   8    0.28    2.33
   4   3   9    3.62    1.51
   4   4  -7    0.80    6.10
   4   4  -6   69.29    9.40
   4   4  -5  867.29    8.66
   4   4  -4  143.19    5.00
   4   4  -3  220.08   10.60
   4   4  -2  927.04   11.82
   4   4  -1  168.33    3.60
   4   4   0   25.83    2.71
   4   4   1  244.12    4.43
   4   4   2   18.91    1.80
   4   4   3   17.23    1.39
   4   4   4  216.24    3.26
   4   4   5   38.98    3.39
   4   4   6   23.79    2.02
   4   4   7  114.62    3.87
   4   4   8   15.44    5.15
   5   0   0 1627.08   11.70
   5   0   1  327.88    3.86
   5   0   2 1587.64   12.47
   5   0   4  453.93   12.03
   5   0   5  415.08   69.85
   5   0   6  142.73    9.50
   5   0   7   24.35    2.48
   5   0   8   41.13    3.52
   5   0   9    6.91    1.89
   5   1  -9    0.00    1.69
   5   1  -8   20.72    3.84
   5   1  -7   82.47    6.50
   5   1  -6   76.40    4.15
   5   1  -5   60.02    5.59
   5   1  -4   34.16    2.51
   5   1  -3    5.21    1.36
   5   1  -2    5.29    0.84
   5   1  -1  384.23    4.63
   5   1   0  207.37    2.46
   5   1   1    4.32    0.72
   5   1   2    7.41    0.79
   5   1   3    8.61    1.34
   5   1   4   45.63    7.43
   5   1   5   33.56    1.71
   5   1   6  245.47    3.41
   5   1   7   63.48    4.27
   5   1   8   21.73    2.82
   5   1   9   22.62    2.43
   5   2  -9   62.53    2.88
   5   2  -8    6.53    3.10
   5   2  -7   14.26    3.16
   5   2  -6  145.15    4.11
   5   2  -5    4.81    1.67
   5   2  -4    4.35    1.50
   5   2  -3  646.56    9.11
   5   2  -2  244.68    2.64
   5   2  -1  152.50    3.00
   5   2   0 1424.71    8.49
   5   2   1  597.61   27.52
   5   2   2   11.33    1.71
   5   2   3  315.65    5.05
   5   2   4  235.71    4.84
   5   2   5  152.56    2.64
   5   2   6  247.09    3.45
   5   2   7   64.17    3.52
   5   2   8   10.59    1.87
   5   2   9    6.76    1.46
   5   3  -8   66.67    3.69
   5   3  -7   12.80    6.00
   5   3  -6   24.38    6.08
   5   3  -5  532.98   12.17
   5   3  -4   60.41    6.06
   5   3  -3  168.52    1.80
   5   3  -2   12.03    2.11
   5   3  -1   19.28    1.95
   5   3   0  295.30    3.74
   5   3   1  410.12    3.23
   5   3   2  935.15    7.71
   5   3   3   37.73    1.83
   5   3   4    0.64    0.80
   5   3   5  123.94    3.10
   5   3   6    6.36    1.31
   5   3   7    3.69    2.41
   5   3   8  109.02    2.74
   5   4  -7   13.49    4.71
   5   4  -6    1.63    2.06
   5   4  -5   30.34    1.74
   5   4  -4  178.48    2.15
   5   4  -3  143.81   16.59
   5   4  -2   23.44    2.00
   5   4  -1   96.88    2.03
   5   4   0   36.96    1.99
   5   4   1   39.30    1.30
   5   4   2    4.27    0.74
   5   4   3  129.87    1.52
   5   4   4    5.61    0.97
   5   4   5    3.30    1.31
   5   4   6   54.47    2.71
   5   4   7    0.00    1.69
   5   4   8    2.75    2.04
   5   5  -7   29.10    4.10
   5   5  -6  263.47    7.30
   5   5  -5   38.27    3.39
   5   5  -4  169.14    3.91
   5   5  -3  752.64    7.89
   5   5   0  432.19    4.27
   5   5   1   35.63    1.82
   5   5   2   23.52    1.77
   5   5   3  632.39    4.95
   5   5   4   76.90    4.42
   5   5   5    5.56    2.52
   5   5   6   82.47    4.18
   5   5   7    0.00    2.37
   5   5   8    0.45    2.75
   6   0   0  185.18    2.95
   6   0   1  549.10    5.15
   6   0   2  236.80    3.10
   6   0   3  111.86    2.80
   6   0   4  201.92   15.35
   6   0   5  120.17    2.49
   6   0   6   70.68    3.97
   6   0   7  183.84    8.96
   6   0   8   30.86    2.62
   6   0   9    0.17    1.41
   6   1  -9   53.50    2.59
   6   1  -8    0.59    2.00
   6   1  -7    3.76    1.96
   6   1  -6  198.09    7.13
   6   1  -5    3.15    1.53
   6   1  -4  244.04    3.68
   6   1  -3  367.00   10.92
   6   1  -2  125.27    2.66
   6   1  -1  266.05    3.21
   6   1   0  855.40   10.08
   6   1   1  893.10    6.42
   6   1   2  176.60    3.60
   6   1   3  250.25   17.63
   6   1   4  485.38    7.50
   6   1   5   35.95    1.77
   6   1   6    5.94    1.52
   6   1   7  130.08    8.28
   6   1   8    7.88    2.12
   6   1   9    0.00    1.71
   6   2  -8   12.65    2.64
   6   2  -7    2.75    2.40
   6   2  -6   14.95    3.25
   6   2  -5   24.91    2.63
   6   2  -4    1.18    1.05
   6   2  -3   20.08    1.48
   6   2  -2  149.27    3.62
   6   2  -1  735.74   22.35
   6   2   0  194.96    6.02
   6   2   1    6.33    1.08
   6   2   2  129.34    2.56
   6   2   4    2.87    0.80
   6   2   5  222.34    5.55
   6   2   6   63.97    2.30
   6   2   7    0.00    1.93
   6   2   8    7.56    2.09
   6   3  -8    9.97    1.87
   6   3  -7  190.49    3.77
   6   3  -6   11.64    1.61
   6   3  -5   57.61    2.75
   6   3  -4  374.43   24.37
   6   3  -3    9.98    1.34
   6   3  -2    8.78    1.22
   6   3  -1  632.61   11.33
   6   3   0   97.87    1.49
   6   3   1  150.91    3.99
   6   3   2  871.63    6.98
   6   3   3   92.05    2.30
   6   3   4    5.94    0.95
   6   3   5  174.07    2.36
   6   3   6    9.70    1.25
   6   3   7    0.00    1.98
   6   3   8   67.92    3.24
   6   4  -7   16.04    2.20
   6   4  -6  119.74    6.00
   6   4  -5    0.04    2.27
   6   4  -4   58.83    2.92
   6   4  -3   14.92    2.05
   6   4  -2   18.60    1.70
   6   4  -1   14.71    0.88
   6   4   0  247.50    3.31
   6   4   1  312.95    2.96
   6   4   2   43.43    1.21
   6   4   3   51.76    1.36
   6   4   4   68.84    1.95
   6   4   5    0.00    1.18
   6   4   6    0.62    1.49
   6   4   7   16.86    1.64
   6   5  -7    0.00    1.89
   6   5  -6    2.03    2.71
   6   5  -5   66.01    3.34
   6   5  -4   69.89    3.38
   6   5  -3   51.62    3.03
   6   5  -1    7.40    1.55
   6   5   0    4.51    0.92
   6   5   1    3.09    0.88
   6   5   2   80.72    1.78
   6   5   3   52.05    1.91
   6   5   4    7.79    1.38
   6   5   5   20.27    2.06
   6   5   6    1.25    1.58
   6   5   7    8.53    1.72
   6   6  -6    6.80    4.20
   6   6  -5   52.19    4.80
   6   6  -4  293.07    7.70
   6   6  -3    1.00    3.40
   6   6  -1  201.66    4.88
   6   6   0    6.50    1.80
   6   6   1   22.00    1.62
   6   6   2  742.07    6.17
   6   6   3  244.73    3.68
   6   6   4   16.72    4.90
   6   6   5   68.07    3.46
   6   6   6    0.07    2.15
   7   0   0   18.56    3.93
   7   0   1  240.82    2.86
   7   0   2  129.45    3.53
   7   0   3    0.57    1.05
   7   0   4   81.59    1.90
   7   0   5   14.12    1.14
   7   0   6    2.21    1.79
   7   0   7   34.79    2.16
   7   0   8   12.12    1.89
   7   1  -8   84.76    4.19
   7   1  -7    8.81    4.55
   7   1  -6   12.25    1.77
   7   1  -5   21.86    4.46
   7   1  -4   68.96    3.30
   7   1  -3    7.34    1.30
   7   1  -2  400.73    5.74
   7   1  -1  527.64    4.85
   7   1   0  869.30    6.34
   7   1   1 1004.40    6.40
   7   1   2  180.24    4.33
   7   1   3  107.11    1.77
   7   1   4  131.45    1.84
   7   1   5   33.44    1.51
   7   1   6   41.68    2.14
   7   1   7   83.70    3.18
   7   1   8    3.66    1.92
   7   2  -8    0.85    1.86
   7   2  -7  124.53   10.99
   7   2  -6   16.06    2.16
   7   2  -5   26.47    6.84
   7   2  -4  343.05   19.36
   7   2  -3   12.10    1.77
   7   2  -2  272.42    5.94
   7   2  -1   64.59    1.15
   7   2   0  171.47    1.58
   7   2   1    0.73    0.56
   7   2   2  176.07    1.43
   7   2   3  205.96    2.85
   7   2   4   52.99    1.82
   7   2   5   24.68    1.22
   7   2   6   23.79    1.38
   7   2   7    0.00    1.82
   7   2   8    0.00    2.72
   7   3  -7    0.50    3.49
   7   3  -6    0.00    2.32
   7   3  -5   23.58    3.07
   7   3  -4   20.96    2.46
   7   3  -3   24.32    2.08
   7   3  -2  170.81    1.61
   7   3  -1   28.26    1.19
   7   3   0    2.72    0.63
   7   3   1  128.81    1.58
   7   3   2   39.09    1.25
   7   3   3    3.85    0.95
   7   3   4  126.86    2.05
   7   3   5   46.71    1.95
   7   3   6    4.67    1.37
   7   3   7    9.07    1.67
   7   4  -7    0.00    0.85
   7   4  -6   28.15    2.65
   7   4  -5  222.60   21.00
   7   4  -4    9.63    1.83
   7   4  -3    3.28    1.35
   7   4  -2  195.90    3.38
   7   4  -1    4.13    0.81
   7   4   0   45.23    1.56
   7   4   1  908.11    6.53
   7   4   2  206.39    1.89
   7   4   3   37.07    1.65
   7   4   4  306.74    4.72
   7   4   5   22.27    2.58
   7   4   6    3.24    1.88
   7   4   7   28.35    2.38
   7   5  -6    5.91    2.68
   7   5  -5    0.00    1.75
   7   5  -4    8.30    1.48
   7   5  -3   38.42    2.35
   7   5  -1   57.91    2.60
   7   5   0   92.11    1.90
   7   5   1  161.71    2.24
   7   5   2  201.78    2.21
   7   5   3  100.45    2.44
   7   5   4   26.15    2.38
   7   5   5    0.00    1.74
   7   5   6    0.00    1.63
   7   6  -5   12.20    1.82
   7   6  -4   42.99    3.13
   7   6  -3   41.15    3.92
   7   6  -1    1.30    2.40
   7   6   0    2.69    1.51
   7   6   1    0.84    1.39
   7   6   2   22.64    2.39
   7   6   3    9.52    1.20
   7   6   4    6.31    1.92
   7   6   5   15.25    2.08
   7   7  -3   95.88    2.25
   7   7  -2  300.97    8.40
   7   7  -1   18.50    3.80
   7   7   0    7.20    3.40
   7   7   1   49.92    3.64
   7   7   2   10.51    2.07
   7   7   3   25.86    8.10
   7   7   4   39.80    5.70
   8   0   0   10.00    1.23
   8   0   1  460.60    2.95
   8   0   2  480.56    2.69
   8   0   3  164.88    7.33
   8   0   4   22.38    1.19
   8   0   5  128.46    2.35
   8   0   6    4.81    1.41
   8   0   7    0.50    1.73
   8   0   8   71.71    5.41
   8   1  -8   15.92    2.33
   8   1  -7   12.16    6.95
   8   1  -6    4.99    2.08
   8   1  -5   12.34    1.56
   8   1  -4  178.55    2.97
   8   1  -3   17.56    1.17
   8   1  -2   97.50    2.05
   8   1  -1   35.13    1.09
   8   1   0  515.66    2.82
   8   1   1  209.23    1.64
   8   1   2    1.42    1.29
   8   1   3  129.74    2.25
   8   1   4   73.18    1.92
   8   1   5    0.00    1.09
   8   1   6   45.31    2.27
   8   1   7   16.54    1.58
   8   1   8   12.28    1.74
   8   2  -7   22.18    3.58
   8   2  -6   82.12    3.03
   8   2  -5   10.03    1.82
   8   2  -4   59.16    2.57
   8   2  -3  181.00    2.69
   8   2  -2    7.74    1.45
   8   2  -1   99.67    2.17
   8   2   0  578.54    3.13
   8   2   1  230.85    2.29
   8   2   2  179.50    2.48
   8   2   3  340.13    8.21
   8   2   4    7.68    1.01
   8   2   5    8.63    1.22
   8   2   6   34.15    2.24
   8   2   7    4.98    1.55
   8   3  -7    2.60    2.58
   8   3  -6    7.75    1.61
   8   3  -5   72.23    2.87
   8   3  -4   42.50    5.09
   8   3  -3   30.60    6.53
   8   3  -2   51.94    2.09
   8   3  -1    9.69    0.88
   8   3   0   34.72    1.47
   8   3   1  503.05    5.12
   8   3   2  274.41    2.53
   8   3   3    2.96    0.94
   8   3   4    0.46    1.03
   8   3   5    0.00    1.19
   8   3   6    0.00    1.79
   8   3   7    0.00    1.19
   8   4  -6    9.58    2.09
   8   4  -5   28.83    3.33
   8   4  -4   25.54    3.13
   8   4  -3  110.41    2.80
   8   4  -2   74.75    2.47
   8   4  -1    1.95    1.06
   8   4   0    2.80    0.98
   8   4   1    7.93    0.95
   8   4   2   31.68    1.64
   8   4   3   26.83    1.52
   8   4   4   87.63    3.24
   8   4   5    1.41    1.17
   8   4   6    9.32    1.57
   8   5  -5    4.27    2.05
   8   5  -4   23.57    1.73
   8   5  -3  199.80   10.85
   8   5  -2   12.66    3.66
   8   5  -1   21.09    3.13
   8   5   0  181.68    3.81
   8   5   1    9.70    1.15
   8   5   2    5.44    1.09
   8   5   3  195.93    3.10
   8   5   4   78.64    2.83
   8   5   5    1.79    1.91
   8   6  -4   13.98    1.50
   8   6  -3   61.44   13.45
   8   6  -2  148.04    1.76
   8   6  -1   37.61    4.07
   8   6   0   63.13    8.75
   8   6   1   10.97    1.55
   8   6   2   52.59    4.40
   8   6   3   11.36    1.90
   8   6   4    3.26    1.77
   8   7  -3    0.00    1.73
   8   7  -2    9.21    3.10
   8   7  -1    2.73    2.30
   8   7   0    0.00    2.55
   8   7   1    7.32    2.30
   8   7   2    6.91    1.55
   8   7   3    0.00    3.43
   9   0   0  925.95    7.36
   9   0   1  682.09    4.07
   9   0   2  179.65    2.89
   9   0   3    6.23    0.98
   9   0   4    4.61    1.16
   9   0   5   11.92    1.44
   9   0   6    5.38    1.57
   9   0   7   37.78    2.27
   9   1  -7    3.36    3.40
   9   1  -6   82.98    2.76
   9   1  -5    4.61    1.63
   9   1  -4    2.48    1.37
   9   1  -3  164.59    2.62
   9   1  -2   21.76    1.29
   9   1  -1   13.21    0.91
   9   1   0  321.53    4.11
   9   1   1  163.68    2.69
   9   1   2    1.33    0.91
   9   1   3    1.29    0.97
   9   1   4    2.65    1.12
   9   1   5   43.39    1.93
   9   1   6    7.07    1.69
   9   1   7   21.13    2.16
   9   2  -6    0.43    1.64
   9   2  -5    2.32    1.65
   9   2  -4  159.12    3.11
   9   2  -3  133.76    4.40
   9   2  -2    0.61    1.04
   9   2  -1   45.23    1.86
   9   2   0    8.49    0.87
   9   2   1  133.22    2.10
   9   2   2   19.15    1.07
   9   2   3  120.05    2.20
   9   2   4    1.60    1.11
   9   2   5   39.43    1.95
   9   2   6   46.44    2.25
   9   3  -6    0.00    1.90
   9   3  -5   46.74    2.76
   9   3  -4  165.49    6.15
   9   3  -3   31.01    3.15
   9   3  -2   45.06    2.17
   9   3  -1  163.86    2.55
   9   3   0   12.46    1.07
   9   3   1    7.75    0.95
   9   3   2  108.04    2.16
   9   3   3   56.94    2.07
   9   3   4    7.05    1.24
   9   3   5   81.67    2.75
   9   3   6   23.92    1.67
   9   4  -5   13.47    1.86
   9   4  -4    5.29    1.39
   9   4  -3   45.60    2.79
   9   4  -2    0.00    1.30
   9   4  -1   19.62    1.90
   9   4   0   50.38    1.95
   9   4   1    2.32    1.00
   9   4   2    3.93    1.03
   9   4   3   11.06    1.14
   9   4   4    0.07    1.08
   9   4   5   10.96    2.08
   9   5  -4    9.23    1.72
   9   5  -3    3.76    1.33
   9   5  -2    3.53    1.71
   9   5  -1    0.28    1.22
   9   5   0    2.70    1.38
   9   5   1    0.97    1.20
   9   5   2   53.09    2.20
   9   5   3  108.21    2.65
   9   5   4   21.66    1.70
   9   6  -3    0.00    2.50
   9   6  -2   62.90    4.55
   9   6  -1  186.23    4.67
   9   6   0   29.99    3.52
   9   6   1    9.54    2.26
   9   6   2   41.43    2.39
   9   6   3    7.26    1.66
  10   0   0   27.27    2.44
  10   0   1   98.82    1.94
  10   0   2   80.89    2.28
  10   0   3  101.67    2.46
  10   0   4    6.59    1.39
  10   0   5   54.11    4.39
  10   0   6    0.00    1.61
  10   0   7   24.23    2.55
  10   1  -6   28.50    1.98
  10   1  -5   78.49    2.73
  10   1  -4   97.93    8.06
  10   1  -3  224.68    6.58
  10   1  -2  257.67    7.74
  10   1  -1   35.32    1.94
  10   1   0   13.49    1.08
  10   1   1   38.99    1.76
  10   1   2    4.82    1.14
  10   1   3    6.27    1.42
  10   1   4   43.82    2.14
  10   1   5   22.09    3.50
  10   1   6    2.07    1.59
  10   2  -6    1.40    2.60
  10   2  -5   19.25    2.31
  10   2  -4  121.42    3.27
  10   2  -3    8.77    6.85
  10   2  -2    3.99    1.30
  10   2  -1   48.77    2.11
  10   2   0    2.32    1.04
  10   2   1   13.28    1.11
  10   2   2    3.04    1.09
  10   2   3    4.10    1.20
  10   2   4    0.76    1.16
  10   2   5    5.05    1.18
  10   2   6   11.74    1.85
  10   3  -5   31.77    2.15
  10   3  -4   12.35    1.66
  10   3  -3    4.67    1.76
  10   3  -2   37.44    2.38
  10   3  -1   17.63    1.60
  10   3   0    2.31    1.22
  10   3   1   74.43    2.06
  10   3   2   84.41    2.06
  10   3   3    0.00    1.08
  10   3   4    7.60    1.17
  10   3   5   15.53    2.19
  10   4  -4    5.30    2.50
  10   4  -3   21.20    1.46
  10   4  -2   83.66    3.84
  10   4  -1    9.08    1.31
  10   4   0   12.25    1.39
  10   4   1   92.01    4.44
  10   4   2   42.58    2.03
  10   4   3    4.90    1.02
  10   4   4   55.20    3.12
  10   5  -2   54.45    2.66
  10   5  -1  104.49    2.77
  10   5   0    0.00    1.46
  10   5   1    3.10    2.04
  10   5   2    1.00    2.80
  10   5   3   26.44    2.93
  11   0   0  122.99    3.33
  11   0   1    5.00    1.20
  11   0   2   81.40    2.45
  11   0   3   62.68    3.67
  11   0   4   58.91    5.38
  11   0   5   52.86    2.47
  11   0   6    0.00    2.70
  11   1  -5    0.00    1.79
  11   1  -4    7.12    1.48
  11   1  -3   89.95    4.98
  11   1  -2   87.80    2.63
  11   1  -1    2.39    1.35
  11   1   0  128.90    2.76
  11   1   1   45.88    3.09
  11   1   2   82.31    2.79
  11   1   3    2.39    1.63
  11   1   4    6.04    1.51
  11   1   5   32.74    8.33
  11   2  -4   50.49    4.83
  11   2  -3   90.20    2.58
  11   2  -2   72.15    2.41
  11   2  -1   27.52    1.86
  11   2   0   45.15    1.94
  11   2   1   12.44    1.47
  11   2   2    4.97    1.75
  11   2   3   13.08    1.36
  11   2   4   20.81    2.02
  11   3  -3   31.01    4.51
  11   3  -2  124.21   35.61
  11   3  -1    1.85    1.76
  11   3   0    2.25    1.23
  11   3   1    1.44    1.31
  11   3   2   19.69    1.34
  11   3   3    0.00    1.00
  11   4  -2    0.00    1.75
  11   4  -1    6.50    1.14
  11   4   0   11.97    1.92
  11   4   1   27.52    3.23
  11   4   2   11.15    1.79
  12   0   0   40.71    3.03
  12   0   1   16.86    1.43
  12   0   2   57.14    2.54
  12   0   3   93.18    2.41
  12   0   4   33.60    2.20
  12   0   5   14.31    1.70
  12   1  -4   21.23    2.68
  12   1  -3   24.92    2.14
  12   1  -2    1.54    1.05
  12   1  -1    2.86    1.14
  12   1   0    2.07    1.06
  12   1   1    4.84    1.52
  12   1   2   31.95    2.36
  12   1   3   50.21    2.17
  12   1   4   31.43    2.52
  12   2  -3    7.20    1.40
  12   2  -2    0.00    1.66
  12   2  -1   72.59    5.02
  12   2   0   33.32    2.12
  12   2   1   17.50    1.54
  12   2   2    0.35    1.16
  12   2   3    0.71    1.21
  12   3  -1   25.44    1.73
  12   3   0   13.21    1.33
  12   3   1    0.48    1.37
  13   0   0    2.78    2.01
  13   0   1   56.69    2.89
  13   0   2   50.69    2.22
  13   0   3    4.78    1.50
  13   1  -2   17.10    2.20
  13   1  -1   31.10    2.90
  13   1   0   13.58    1.51
  13   1   1   26.91    2.23
  13   1   2   86.75    2.60
   0   0   0    0.00    0.00
;
_shelx_hkl_checksum              66775
_shelx_shelxl_version_number     2014/7
_olex2_submission_special_instructions 'No special instructions were received'
loop_
_space_group_symop_operation_xyz
'x, y, z'
'-y, x-y, z'
'-x+y, -x, z'
'-y, -x, -z'
'-x+y, y, -z'
'x, x-y, -z'
'-x, -y, -z'
'y, -x+y, -z'
'x-y, x, -z'
'y, x, z'
'x-y, -y, z'
'-x, -x+y, z'
loop_
_atom_site_label
_atom_site_type_symbol
_atom_site_fract_x
_atom_site_fract_y
_atom_site_fract_z
_atom_site_U_iso_or_equiv
_atom_site_adp_type
_atom_site_occupancy
_atom_site_site_symmetry_order
_atom_site_calc_flag
_atom_site_refinement_flags_posn
_atom_site_refinement_flags_adp
_atom_site_refinement_flags_occupancy
N3 N 0.256(4) 0.0000 0.253(7) 0.188(13) Uani 0.3333 2 d S TU P
H3A H 0.2500 0.0000 0.3567 0.225 Uiso 0.3333 2 calc RS T P
H3B H 0.1945 0.0000 0.2117 0.225 Uiso 0.3333 2 calc RS T P
C4 C 0.359(3) 0.1000(16) 0.204(4) 0.148(11) Uani 0.3333 1 d . U .
H4A H 0.3848 0.0842 0.1076 0.222 Uiso 0.3333 1 calc GR . .
H4B H 0.4180 0.1208 0.2823 0.222 Uiso 0.3333 1 calc GR . .
H4C H 0.3440 0.1630 0.1900 0.222 Uiso 0.3333 1 calc GR . .
Fe01 Fe 0.6667 0.3333 0.5000 0.0557(8) Uani 1 6 d S TU P
Cl02 Cl 0.61138(16) 0.0000 0.1841(2) 0.0816(9) Uani 1 2 d S TU P
O003 O 0.6455(3) 0.2007(3) 0.3707(4) 0.0592(10) Uani 1 1 d . U .
C004 C 0.5500(4) 0.0000 0.3569(8) 0.0558(15) Uani 1 2 d S TU P
C005 C 0.5772(3) 0.1021(4) 0.4257(5) 0.0528(11) Uani 1 1 d . U .
O1 O 0.6309(14) 0.262(3) 0.0000 0.26(3) Uani 0.3333 2 d S TU P
loop_
_atom_site_aniso_label
_atom_site_aniso_U_11
_atom_site_aniso_U_22
_atom_site_aniso_U_33
_atom_site_aniso_U_23
_atom_site_aniso_U_13
_atom_site_aniso_U_12
N3 0.19(2) 0.066(10) 0.27(3) 0.000 -0.03(2) 0.033(5)
C4 0.169(18) 0.041(7) 0.23(3) 0.001(10) -0.063(19) 0.052(8)
Fe01 0.0472(8) 0.0472(8) 0.0727(13) 0.000 0.000 0.0236(4)
Cl02 0.0891(12) 0.0671(12) 0.0813(14) 0.000 0.0323(9) 0.0335(6)
O003 0.0523(16) 0.0494(16) 0.075(2) 0.0027(14) 0.0126(14) 0.0248(13)
C004 0.049(2) 0.060(3) 0.062(3) 0.000 0.007(2) 0.0300(16)
C005 0.0417(19) 0.051(2) 0.068(3) 0.0026(18) 0.0060(18) 0.0242(17)
O1 0.37(6) 0.062(13) 0.25(4) 0.000 0.12(5) 0.031(7)
loop_
_atom_type_symbol
_atom_type_description
_atom_type_scat_dispersion_real
_atom_type_scat_dispersion_imag
_atom_type_scat_source
C C 0.0181 0.0091 'International Tables Vol C Tables 4.2.6.8 and 6.1.1.4'
H H 0.0000 0.0000 'International Tables Vol C Tables 4.2.6.8 and 6.1.1.4'
Cl Cl 0.3639 0.7018 'International Tables Vol C Tables 4.2.6.8 and 6.1.1.4'
Fe Fe -1.1336 3.1974 'International Tables Vol C Tables 4.2.6.8 and 6.1.1.4'
N N 0.0311 0.0180 'International Tables Vol C Tables 4.2.6.8 and 6.1.1.4'
O O 0.0492 0.0322 'International Tables Vol C Tables 4.2.6.8 and 6.1.1.4'
loop_
_geom_angle_atom_site_label_1
_geom_angle_atom_site_label_2
_geom_angle_atom_site_label_3
_geom_angle
_geom_angle_site_symmetry_1
_geom_angle_site_symmetry_3
H3A N3 H3B 108.3 . .
C4 N3 H3A 109.8 11 .
C4 N3 H3A 109.8 . .
C4 N3 H3B 109.8 . .
C4 N3 H3B 109.8 11 .
C4 N3 C4 109(5) 11 .
N3 C4 H4A 109.5 . .
N3 C4 H4B 109.5 . .
N3 C4 H4C 109.5 . .
H4A C4 H4B 109.5 . .
H4A C4 H4C 109.5 . .
H4B C4 H4C 109.5 . .
O003 Fe01 O003 91.72(14) 2_655 3_665
O003 Fe01 O003 91.72(14) . 3_665
O003 Fe01 O003 91.72(14) 4_666 5_656
O003 Fe01 O003 91.72(14) . 2_655
O003 Fe01 O003 91.72(14) 5_656 6_556
O003 Fe01 O003 79.07(18) 4_666 2_655
O003 Fe01 O003 99.2(2) 5_656 3_665
O003 Fe01 O003 99.2(2) 2_655 6_556
O003 Fe01 O003 79.07(18) 6_556 3_665
O003 Fe01 O003 91.72(14) 4_666 6_556
O003 Fe01 O003 165.87(19) 5_656 2_655
O003 Fe01 O003 165.86(19) 4_666 3_665
O003 Fe01 O003 79.07(18) . 5_656
O003 Fe01 O003 99.2(2) 4_666 .
O003 Fe01 O003 165.86(19) . 6_556
C005 O003 Fe01 115.2(3) . .
C005 C004 Cl02 119.7(3) 11 .
C005 C004 Cl02 119.7(3) . .
C005 C004 C005 120.6(6) 11 .
O003 C005 C004 125.1(4) . .
O003 C005 C005 115.2(2) . 5_656
C004 C005 C005 119.7(3) . 5_656
O1 O1 O1 60.000(1) 2_655 3_665
loop_
_geom_bond_atom_site_label_1
_geom_bond_atom_site_label_2
_geom_bond_distance
_geom_bond_site_symmetry_2
N3 H3A 0.9100 .
N3 H3B 0.9100 .
N3 C4 1.44(5) .
N3 C4 1.44(5) 11
C4 H4A 0.9800 .
C4 H4B 0.9800 .
C4 H4C 0.9800 .
Fe01 O003 2.020(3) 2_655
Fe01 O003 2.020(3) 5_656
Fe01 O003 2.020(3) .
Fe01 O003 2.020(3) 4_666
Fe01 O003 2.020(3) 3_665
Fe01 O003 2.020(3) 6_556
Cl02 C004 1.725(6) .
O003 C005 1.280(5) .
C004 C005 1.381(6) 11
C004 C005 1.381(6) .
C005 C005 1.480(9) 5_656
O1 O1 1.46(6) 3_665
O1 O1 1.46(6) 2_655
loop_
_geom_torsion_atom_site_label_1
_geom_torsion_atom_site_label_2
_geom_torsion_atom_site_label_3
_geom_torsion_atom_site_label_4
_geom_torsion
_geom_torsion_site_symmetry_1
_geom_torsion_site_symmetry_4
Fe01 O003 C005 C004 179.9(4) . .
Fe01 O003 C005 C005 0.3(6) . 5_656
Cl02 C004 C005 O003 0.7(8) . .
Cl02 C004 C005 C005 -179.7(4) . 5_656
C005 C004 C005 O003 -180.0(4) 11 .
C005 C004 C005 C005 -0.4(10) 11 5_656
loop_
_smtbx_masks_void_nr
_smtbx_masks_void_average_x
_smtbx_masks_void_average_y
_smtbx_masks_void_average_z
_smtbx_masks_void_volume
_smtbx_masks_void_count_electrons
1 0.000 0.000 -0.800 271.3 0.0
