#------------------------------------------------------------------------------
#$Date: 2019-11-03 18:15:05 +0200 (Sun, 03 Nov 2019) $
#$Revision: 222046 $
#$URL: file:///home/coder/svn-repositories/cod/cif/4/12/90/4129039.cif $
#------------------------------------------------------------------------------
#
# This file is available in the Crystallography Open Database (COD),
# http://www.crystallography.net/
#
# All data on this site have been placed in the public domain by the
# contributors.
#
data_4129039
loop_
_publ_author_name
'Yuan, Jingsong'
'Xiong, Wei'
'Zhou, Xuhao'
'Zhang, Yi'
'Shi, Dong'
'Li, Zichen'
'Lu, Hua'
_publ_section_title
;
 4-Hydroxyproline-Derived Sustainable Polythioesters: Controlled
 Ring-Opening Polymerization, Complete Recyclability, and Facile
 Functionalization.
;
_journal_issue                   12
_journal_name_full               'Journal of the American Chemical Society'
_journal_page_first              4928
_journal_page_last               4935
_journal_paper_doi               10.1021/jacs.9b00031
_journal_volume                  141
_journal_year                    2019
_chemical_absolute_configuration ad
_chemical_formula_sum            'C10 H15 N O3 S'
_chemical_formula_weight         229.29
_space_group_crystal_system      monoclinic
_space_group_IT_number           4
_space_group_name_Hall           'P 2yb'
_space_group_name_H-M_alt        'P 1 21 1'
_atom_sites_solution_hydrogens   geom
_audit_creation_method           SHELXL-2014/7
_cell_angle_alpha                90
_cell_angle_beta                 101.54(2)
_cell_angle_gamma                90
_cell_formula_units_Z            2
_cell_length_a                   9.491(2)
_cell_length_b                   6.1160(8)
_cell_length_c                   9.9296(18)
_cell_measurement_reflns_used    1001
_cell_measurement_temperature    179.99(10)
_cell_measurement_theta_max      28.3340
_cell_measurement_theta_min      2.2660
_cell_volume                     564.73(18)
_computing_structure_refinement  'SHELXL-2014/7 (Sheldrick, 2014)'
_diffrn_ambient_temperature      179.99(10)
_diffrn_measured_fraction_theta_full 0.991
_diffrn_measured_fraction_theta_max 0.988
_diffrn_measurement_device_type  'XtaLAB AFC12 (RINC): Kappa single'
_diffrn_radiation_type           MoK\a
_diffrn_radiation_wavelength     0.71073
_diffrn_reflns_av_R_equivalents  0.0281
_diffrn_reflns_av_unetI/netI     0.0500
_diffrn_reflns_Laue_measured_fraction_full 0.991
_diffrn_reflns_Laue_measured_fraction_max 0.988
_diffrn_reflns_limit_h_max       7
_diffrn_reflns_limit_h_min       -12
_diffrn_reflns_limit_k_max       4
_diffrn_reflns_limit_k_min       -7
_diffrn_reflns_limit_l_max       12
_diffrn_reflns_limit_l_min       -10
_diffrn_reflns_number            2873
_diffrn_reflns_point_group_measured_fraction_full 0.761
_diffrn_reflns_point_group_measured_fraction_max 0.726
_diffrn_reflns_theta_full        25.242
_diffrn_reflns_theta_max         27.482
_diffrn_reflns_theta_min         2.093
_exptl_absorpt_coefficient_mu    0.274
_exptl_absorpt_correction_T_max  1.00000
_exptl_absorpt_correction_T_min  0.18165
_exptl_absorpt_correction_type   multi-scan
_exptl_absorpt_process_details
;
CrysAlisPro 1.171.39.29a (Rigaku Oxford Diffraction, 2015)
Empirical absorption correction using spherical harmonics,
 implemented in SCALE3 ABSPACK scaling algorithm.
;
_exptl_crystal_colour            colorless
_exptl_crystal_density_diffrn    1.348
_exptl_crystal_description       rod-like
_exptl_crystal_F_000             244
_exptl_crystal_size_max          0.6
_exptl_crystal_size_mid          0.2
_exptl_crystal_size_min          0.1
_refine_diff_density_max         0.327
_refine_diff_density_min         -0.372
_refine_diff_density_rms         0.060
_refine_ls_abs_structure_details
;
 Flack x determined using 401 quotients [(I+)-(I-)]/[(I+)+(I-)]
 (Parsons, Flack and Wagner, Acta Cryst. B69 (2013) 249-259).
;
_refine_ls_abs_structure_Flack   0.13(12)
_refine_ls_extinction_method     none
_refine_ls_goodness_of_fit_ref   0.809
_refine_ls_hydrogen_treatment    constr
_refine_ls_matrix_type           full
_refine_ls_number_parameters     139
_refine_ls_number_reflns         1874
_refine_ls_number_restraints     1
_refine_ls_restrained_S_all      0.809
_refine_ls_R_factor_all          0.0586
_refine_ls_R_factor_gt           0.0423
_refine_ls_shift/su_max          0.000
_refine_ls_shift/su_mean         0.000
_refine_ls_structure_factor_coef Fsqd
_refine_ls_weighting_details
'w=1/[\s^2^(Fo^2^)+(0.0700P)^2^+0.8000P] where P=(Fo^2^+2Fc^2^)/3'
_refine_ls_weighting_scheme      calc
_refine_ls_wR_factor_gt          0.1054
_refine_ls_wR_factor_ref         0.1185
_reflns_Friedel_coverage         0.342
_reflns_Friedel_fraction_full    0.478
_reflns_Friedel_fraction_max     0.409
_reflns_number_gt                1524
_reflns_number_total             1874
_reflns_threshold_expression     'I > 2\s(I)'
_cod_data_source_file            ja9b00031_si_002.cif
_cod_data_source_block           3
_cod_original_cell_volume        564.70(19)
_cod_original_sg_symbol_H-M      'P 21'
_cod_database_code               4129039
_shelx_shelxl_version_number     2014/7
_shelx_space_group_comment
;
The symmetry employed for this shelxl refinement is uniquely defined
by the following loop, which should always be used as a source of
symmetry information in preference to the above space-group names.
They are only intended as comments.
;
_shelx_res_file
;

    3.res created by SHELXL-2014/7


TITL 3_a.res in P2(1)
REM Old TITL 3 in P2(1)
REM SHELXT solution in P2(1)
REM R1 0.103, Rweak 0.015, Alpha 0.001, Orientation as input
REM Flack x = 0.215 ( 0.240 ) from Parsons' quotients
REM Formula found by SHELXT: C10 N O3 S
CELL 0.71073 9.4906 6.116 9.9296 90 101.542 90
ZERR 2 0.0022 0.0008 0.0018 0 0.02 0
LATT -1
SYMM -X,0.5+Y,-Z
SFAC C H N O S
UNIT 20 30 2 6 2

L.S. 10
PLAN  20
BOND $H
LIST 6
FMAP 2

ACTA

OMIT    0   4   4
OMIT    2   3   5
OMIT    5   3   2
OMIT    2   3   4
OMIT    1   4   4
OMIT    0   4   5
OMIT   -1   4   4

WGHT    0.070000    0.800000
FVAR       0.61352
S1    5    0.897457    0.373407    0.356700    11.00000    0.03546    0.03353 =
         0.03871    0.00069    0.01317    0.00101
O1    4    0.854040    0.801140    0.312277    11.00000    0.05326    0.03496 =
         0.03682    0.00830    0.00389   -0.01153
O2    4    0.466413    0.748558    0.252435    11.00000    0.04003    0.02238 =
         0.03768    0.00062    0.00398    0.00244
O3    4    0.408830    0.387834    0.207529    11.00000    0.03601    0.02400 =
         0.03848    0.00003   -0.00831   -0.00685
N1    3    0.591143    0.472643    0.375650    11.00000    0.02753    0.02108 =
         0.03172   -0.00007   -0.00041    0.00052
C1    1    0.820125    0.638991    0.366286    11.00000    0.03540    0.02692 =
         0.02668    0.00098    0.00146   -0.00339
C2    1    0.704118    0.612878    0.452796    11.00000    0.03218    0.02107 =
         0.03158   -0.00398    0.00513   -0.00179
AFIX  13
H2    2    0.669505    0.750777    0.484592    11.00000   -1.20000
AFIX   0
C3    1    0.773922    0.459262    0.567215    11.00000    0.03612    0.03136 =
         0.02383    0.00099    0.00326   -0.00555
AFIX  23
H3A   2    0.712065    0.428059    0.631661    11.00000   -1.20000
H3B   2    0.866542    0.511956    0.616017    11.00000   -1.20000
AFIX   0
C4    1    0.787477    0.264531    0.473282    11.00000    0.03514    0.02517 =
         0.02766    0.00311    0.00490   -0.00053
AFIX  13
H4    2    0.826390    0.131853    0.522370    11.00000   -1.20000
AFIX   0
C5    1    0.633868    0.241137    0.392605    11.00000    0.03678    0.01833 =
         0.03116    0.00293    0.00664    0.00116
AFIX  23
H5A   2    0.630714    0.170125    0.304703    11.00000   -1.20000
H5B   2    0.574072    0.160995    0.444182    11.00000   -1.20000
AFIX   0
C6    1    0.486301    0.553499    0.274171    11.00000    0.02865    0.02911 =
         0.02709   -0.00155    0.00781    0.00028
C7    1    0.288583    0.428779    0.091094    11.00000    0.02699    0.03715 =
         0.02834   -0.00043   -0.00052   -0.00113
C8    1    0.338752    0.549106   -0.023447    11.00000    0.05195    0.04110 =
         0.03146   -0.00026    0.00997   -0.00546
AFIX 137
H8A   2    0.375228    0.690084    0.008834    11.00000   -1.50000
H8B   2    0.259485    0.567095   -0.099550    11.00000   -1.50000
H8C   2    0.413449    0.466666   -0.052470    11.00000   -1.50000
AFIX   0
C9    1    0.169548    0.549596    0.140840    11.00000    0.03474    0.07656 =
         0.05085   -0.01784    0.01102   -0.00275
AFIX 137
H9A   2    0.148657    0.477089    0.220331    11.00000   -1.50000
H9B   2    0.084877    0.551396    0.069341    11.00000   -1.50000
H9C   2    0.199587    0.696955    0.164410    11.00000   -1.50000
AFIX   0
C10   1    0.242201    0.199688    0.045861    11.00000    0.04887    0.04336 =
         0.04858    0.00207   -0.01186   -0.01448
AFIX 137
H10A  2    0.320442    0.124651    0.017897    11.00000   -1.50000
H10B  2    0.161718    0.206252   -0.029948    11.00000   -1.50000
H10C  2    0.214953    0.122495    0.120871    11.00000   -1.50000
AFIX   0
HKLF 4

REM  3_a.res in P2(1)
REM R1 =  0.0423 for    1524 Fo > 4sig(Fo)  and  0.0586 for all    1874 data
REM    139 parameters refined using      1 restraints

END

WGHT      0.0688      0.0776

REM Highest difference peak  0.327,  deepest hole -0.372,  1-sigma level  0.060
Q1    1   1.0226  0.3716  0.4106  11.00000  0.05    0.33
Q2    1   0.5200  0.5236  0.0595  11.00000  0.05    0.23
Q3    1   0.0186  0.2833  0.2347  11.00000  0.05    0.22
Q4    1   0.9408  0.3829  0.2904  11.00000  0.05    0.21
Q5    1   0.0653  0.3670  0.3255  11.00000  0.05    0.21
Q6    1   0.7994  0.3855  0.2808  11.00000  0.05    0.21
Q7    1   0.8734  0.3299  0.4608  11.00000  0.05    0.20
Q8    1   0.4945  0.5543 -0.0368  11.00000  0.05    0.20
Q9    1   0.9857  0.6636  0.3402  11.00000  0.05    0.20
Q10   1   0.0359  0.4944  0.1391  11.00000  0.05    0.19
Q11   1   0.8011  0.3684  0.1861  11.00000  0.05    0.19
Q12   1   0.0565  0.2515  0.1477  11.00000  0.05    0.18
Q13   1   0.7649  0.6263  0.4182  11.00000  0.05    0.18
Q14   1   0.7743  0.3641  0.3618  11.00000  0.05    0.18
Q15   1   0.8554  0.2197  0.2733  11.00000  0.05    0.18
Q16   1   0.5620  0.5366  0.3236  11.00000  0.05    0.17
Q17   1   0.9177  0.5669  0.2378  11.00000  0.05    0.17
Q18   1   0.9001  0.1497  0.6222  11.00000  0.05    0.17
Q19   1   0.5026  0.1266  0.5027  11.00000  0.05    0.17
Q20   1   0.9189  0.4096  0.1845  11.00000  0.05    0.17
;
_shelx_res_checksum              76085
_shelx_hkl_file
;
   0  -7   0   -1.03    1.52
   0  -7  -1   18.13    2.02
   0  -7   1   18.06    1.99
   0  -7  -2   33.21    2.20
   0  -7  -3    6.73    1.59
   0  -7  -4    2.58    1.58
   0  -7  -5   17.66    2.03
   0  -6   0   33.03    1.96
   0  -6   0   36.11    2.18
   0  -6   1   12.27    1.35
   0  -6   1   13.58    1.50
   0  -6  -1   13.72    1.27
   0  -6  -1   13.20    1.37
   0  -6   2    8.81    1.30
   0  -6  -2   11.44    1.44
   0  -6   2   12.92    1.63
   0  -6   3   21.83    1.83
   0  -6  -3   23.99    1.72
   0  -6  -4   11.17    1.49
   0  -6  -6   10.86    1.67
   0  -6  -7    6.01    1.73
   0  -6  -8    2.17    1.87
   0  -5   0   -0.18    1.00
   0  -5   0   -0.35    0.70
   0  -5   0   -0.83    0.97
   0  -5  -1  110.08    3.80
   0  -5  -1  103.89    3.79
   0  -5   1  105.59    3.95
   0  -5   1  105.28    3.78
   0  -5   1  105.88    3.76
   0  -5  -1  113.14    3.77
   0  -5   2   13.42    1.38
   0  -5  -2   12.80    1.04
   0  -5  -2   13.75    1.29
   0  -5   2   13.47    1.29
   0  -5   2   12.07    1.40
   0  -5  -2   13.62    1.19
   0  -5   3   51.82    2.51
   0  -5  -3   49.15    2.19
   0  -5  -3   49.09    1.97
   0  -5   3   57.16    2.74
   0  -5   4    3.63    1.05
   0  -5  -4    4.74    1.10
   0  -5   4    3.16    1.27
   0  -5  -5    0.78    1.12
   0  -5   6    0.77    1.69
   0  -5   7    2.33    1.58
   0  -5   8    2.92    1.82
   0  -5   9   -2.84    1.95
   0  -4   0    2.83    0.68
   0  -4   0    2.45    0.70
   0  -4   0    1.94    0.48
   0  -4   0    1.98    0.61
   0  -4   1    3.36    0.74
   0  -4   1    3.72    0.78
   0  -4  -1    2.60    0.67
   0  -4   1    2.32    0.60
   0  -4  -1    2.36    0.55
   0  -4   1    2.53    0.61
   0  -4  -1    3.03    0.69
   0  -4  -2   17.62    0.97
   0  -4   2   18.94    1.15
   0  -4   2   18.03    1.24
   0  -4  -2   17.61    1.12
   0  -4  -3    9.73    0.98
   0  -4   3    7.57    0.96
   0  -4   3   10.04    1.16
   0  -4   4   79.96    3.27
   0  -4   4   71.77    3.12
   0  -4   5   28.73    1.93
   0  -4   5   33.15    2.15
   0  -4   6   65.30    3.38
   0  -4   7   71.16    3.71
   0  -4   8   -1.40    1.52
   0  -4   9   12.82    2.18
   0  -4  10    1.10    1.84
   0  -3   0    0.09    0.53
   0  -3   0    0.00    0.31
   0  -3   0    0.20    0.38
   0  -3   0   -0.04    0.50
   0  -3   1  152.61    4.53
   0  -3   1  150.63    4.73
   0  -3  -1  154.75    4.51
   0  -3   1  153.74    4.58
   0  -3   1  147.23    4.53
   0  -3  -1  145.76    4.52
   0  -3   2   47.81    1.86
   0  -3   2   45.73    1.94
   0  -3   2   46.75    1.76
   0  -3  -3   86.89    2.57
   0  -3   3   91.11    3.25
   0  -3   3   96.70    3.21
   0  -3  -4  107.09    3.25
   0  -3   4  105.86    3.87
   0  -3   4  106.57    3.81
   0  -3  -5   26.93    1.29
   0  -3   5   27.84    1.69
   0  -3   6   93.59    3.90
   0  -3  -6  100.47    3.40
   0  -3   7    4.12    1.26
   0  -3   8   50.25    3.14
   0  -3   9   10.77    1.94
   0  -3  10   -0.61    1.64
   0  -3  11   -0.97    1.95
   0  -2   0   81.70    2.58
   0  -2   0   86.46    2.48
   0  -2   0   86.15    2.56
   0  -2   0   86.60    2.67
   0  -2   1  151.91    4.46
   0  -2   1  158.76    4.51
   0  -2   1  159.69    4.64
   0  -2   1  147.91    4.42
   0  -2   2  236.75    6.93
   0  -2  -2  232.12    6.49
   0  -2   2  234.56    6.84
   0  -2   3   38.22    1.68
   0  -2  -3   39.53    1.37
   0  -2  -4  194.32    5.66
   0  -2   4  185.34    6.01
   0  -2  -5   23.63    1.23
   0  -2   5   22.71    1.43
   0  -2   6   12.44    1.25
   0  -2  -6   14.64    1.07
   0  -2  -6   12.23    0.73
   0  -2   7  109.67    4.17
   0  -2  -7   96.59    3.22
   0  -2   8   -0.48    1.10
   0  -2   9   11.90    1.85
   0  -1   0    0.00    0.22
   0  -1   1  983.14   27.05
   0  -1   1  985.42   27.00
   0  -1  -2   49.64    1.62
   0  -1   2   51.68    1.80
   0  -1   3  309.61    9.13
   0  -1  -3  311.66    8.94
   0  -1   3  323.44    9.11
   0  -1  -4    5.89    0.65
   0  -1  -5  136.99    4.16
   0  -1  -5  138.00    4.39
   0  -1  -6  194.19    6.00
   0  -1  -6  189.21    5.71
   0  -1  -7   29.50    1.43
   0  -1   8   72.27    3.52
   0  -1   9   28.47    2.49
   0  -1  10   47.13    3.28
   0  -1  11    2.55    1.78
   0  -1  12   -0.61    1.98
   0   0  -1  514.45   14.10
   0   0  -2    0.60    0.40
   0   0  -2    0.41    0.33
   0   0  -3  472.77   13.05
   0   0   3  464.14   13.22
   0   0  -3  463.79   13.17
   0   0   4   51.70    2.06
   0   0  -4   51.75    2.00
   0   0  -4   52.59    1.86
   0   0   5   25.63    1.45
   0   0  -5   27.89    1.29
   0   0  -5   28.09    1.41
   0   0  -6    1.29    0.59
   0   0   6    1.02    0.72
   0   0   7   57.40    2.76
   0   0   8   34.09    2.37
   0   0   9   -0.74    1.30
   0   0  10   21.91    2.29
   0   0  11   27.66    2.77
   0   0  12    8.11    2.22
   0   1   0    0.01    0.19
   0   1  -1 1017.95   27.58
   0   1  -1 1001.64   27.65
   0   1  -1 1004.64   27.61
   0   1  -2   55.50    1.86
   0   1   2   52.03    1.72
   0   1  -3  323.77    9.01
   0   1   3  302.02    8.94
   0   1  -3  315.72    9.04
   0   1   4    5.21    0.66
   0   1  -4    5.74    0.65
   0   1   5  142.66    4.70
   0   1  -5  143.32    4.55
   0   1   6  193.34    6.36
   0   1   7   29.80    2.02
   0   1   8   71.32    3.44
   0   1   9   26.56    2.30
   0   1  10   46.90    3.12
   0   1  11    4.82    1.86
   0   1  12    1.84    1.90
   0   2   0   87.33    2.50
   0   2  -1  154.50    4.49
   0   2  -1  153.63    4.47
   0   2  -1  158.76    4.51
   0   2  -2  231.98    7.00
   0   2   2  239.50    6.91
   0   2  -2  246.80    7.10
   0   2   3   36.32    1.44
   0   2  -3   38.98    1.61
   0   2  -4  200.70    6.11
   0   2   4  191.30    5.99
   0   2  -4  206.12    6.18
   0   2   5   21.26    1.32
   0   2   6   11.01    1.18
   0   2   7  102.70    3.99
   0   2   8   -1.30    1.15
   0   2   9    8.76    1.67
   0   2  10   -1.30    1.52
   0   2  11    6.94    1.84
   0   2  12    1.51    1.77
   0   3   0    0.14    0.21
   0   3  -1  147.52    4.44
   0   3  -1  157.76    4.49
   0   3  -2   47.45    1.65
   0   3  -2   43.83    1.75
   0   3  -2   48.58    1.78
   0   3  -3   95.90    3.05
   0   3  -3  103.91    3.03
   0   3  -4  110.34    2.31
   0   3   4   99.04    2.09
   0   3   5   26.20    1.46
   0   3  -5   34.25    1.96
   0   3   6   86.02    3.27
   0   3   7    3.55    1.01
   0   3   8   42.61    2.49
   0   3   9    9.16    1.58
   0   4  -1    2.64    0.46
   0   4  -2   18.88    0.98
   0   4  -2   17.74    1.00
   0   4  -3   12.59    1.01
   0   4  -3    5.86    0.85
   0   4  -4    3.66    0.88
   0   4  -5    3.63    1.12
   1  -7  -6    3.35    1.77
   1  -7  -5    7.17    1.76
  -1  -7   4    0.69    1.30
   1  -7  -4    1.40    1.54
  -1  -7   3   17.81    1.94
   1  -7  -3   20.29    1.90
   1  -7  -2   22.46    1.86
  -1  -7   2   24.81    2.33
  -1  -7   2   23.71    2.08
   1  -7  -1    2.41    1.63
  -1  -7   1    3.34    1.66
  -1  -7   1    2.13    1.26
  -1  -7   0   15.66    1.86
   1  -7   0   13.70    1.72
  -1  -7  -1   19.27    2.18
   1  -7   1   15.06    1.91
  -1  -7  -2    4.56    1.50
  -1  -7  -3   10.99    1.73
  -1  -7  -4   34.57    2.43
  -1  -7  -5    4.49    1.76
  -1  -6   6    4.88    1.37
  -1  -6   5   11.31    1.51
  -1  -6   4   38.95    2.40
  -1  -6   3    4.51    1.14
   1  -6  -3    4.16    1.26
  -1  -6   2   21.93    1.74
  -1  -6   2   25.31    1.91
   1  -6  -2   24.30    1.73
  -1  -6   1    7.79    1.45
  -1  -6   1    6.71    1.20
   1  -6  -1    7.06    1.24
  -1  -6   0   18.89    1.79
   1  -6   0   23.64    1.84
  -1  -6   0   18.10    1.54
  -1  -6  -1   12.94    1.45
   1  -6   1   13.41    1.44
  -1  -6  -1   12.89    1.32
  -1  -6  -1   10.68    1.45
  -1  -6  -2    3.82    1.24
   1  -6   2    3.09    1.28
  -1  -6  -2    2.14    1.21
  -1  -6  -3   11.28    1.43
  -1  -6  -3   15.62    1.58
  -1  -6  -4   20.63    1.80
  -1  -6  -4   33.21    2.03
  -1  -6  -5    2.03    1.34
  -1  -6  -5    2.76    1.38
  -1  -6  -6    4.58    1.52
  -1  -6  -7   13.41    2.03
  -1  -6  -8    2.47    1.92
  -1  -5   9    8.05    2.06
  -1  -5   8   -0.65    1.75
  -1  -5   7    2.83    1.55
  -1  -5   7    4.26    1.29
  -1  -5   6   32.81    2.23
  -1  -5   6   34.54    2.40
  -1  -5   5  122.68    4.58
  -1  -5   5  111.31    4.52
  -1  -5   4    3.52    1.16
   1  -5  -4    4.08    1.08
  -1  -5   4    3.56    1.00
  -1  -5   3  110.67    4.21
   1  -5  -3  104.48    3.71
   1  -5  -2  118.69    3.92
  -1  -5   2  120.31    4.41
   1  -5  -2  114.05    4.11
  -1  -5   2  122.32    4.23
  -1  -5   2  125.77    4.53
  -1  -5   1   12.35    1.48
   1  -5  -1   15.33    1.12
  -1  -5   1   14.57    1.17
  -1  -5   1   12.57    1.21
  -1  -5   1   13.87    1.34
   1  -5  -1   12.92    1.24
   1  -5   0   38.23    1.82
  -1  -5   0   40.12    1.96
  -1  -5   0   37.49    2.02
   1  -5   0   33.33    1.59
  -1  -5   0   36.84    1.84
  -1  -5  -1   66.06    2.69
  -1  -5  -1   63.72    2.57
   1  -5   1   64.55    2.52
  -1  -5  -1   62.73    2.62
  -1  -5  -2   16.51    1.41
   1  -5   2   16.82    1.39
  -1  -5  -2   15.66    1.38
  -1  -5  -3   41.31    2.07
  -1  -5  -3   35.62    1.97
  -1  -5  -4   40.86    2.18
   1  -5   4   51.23    2.80
  -1  -5  -5   15.13    1.56
   1  -5   5   19.25    2.00
   1  -5   6   10.43    1.81
  -1  -5  -6    7.28    1.53
   1  -5   7    9.00    1.88
  -1  -5  -7    7.32    1.68
  -1  -5  -8    1.26    1.60
   1  -5   8    0.05    1.61
   1  -5   9    1.02    1.79
  -1  -4  11   35.49    3.37
  -1  -4  10    8.57    2.23
  -1  -4   9   25.22    2.48
  -1  -4   8   62.51    3.28
  -1  -4   7   52.61    2.81
  -1  -4   6    5.17    1.21
  -1  -4   5   46.49    2.34
  -1  -4   5   43.94    2.31
  -1  -4   4   96.82    3.80
  -1  -4   4  106.18    3.77
  -1  -4   3   66.61    2.84
  -1  -4   3   74.78    2.78
  -1  -4   2   10.69    1.20
  -1  -4   2   10.42    0.91
  -1  -4   2   10.63    0.95
  -1  -4   2   10.12    0.99
   1  -4  -2    9.38    0.86
  -1  -4   1  112.59    3.99
  -1  -4   1  126.86    3.75
   1  -4  -1  112.70    3.76
  -1  -4   1  114.77    3.95
  -1  -4   1  113.69    3.83
   1  -4  -1  124.00    3.62
   1  -4   0  118.80    3.58
   1  -4   0  115.41    3.86
   1  -4   0  109.76    3.65
  -1  -4   0  124.91    3.49
  -1  -4   0  110.18    3.83
  -1  -4   0  106.84    3.72
   1  -4   1   23.89    1.23
   1  -4   1   23.93    1.48
  -1  -4  -1   21.45    1.28
  -1  -4  -1   19.70    1.25
   1  -4   1   21.80    1.12
   1  -4   1   21.65    1.31
   1  -4   2   69.30    2.74
   1  -4   2   65.16    2.33
  -1  -4  -2   58.81    2.39
  -1  -4  -2   62.07    2.42
   1  -4   3  188.84    6.12
  -1  -4  -3  175.44    5.70
   1  -4   4   18.51    1.68
  -1  -4  -4   19.71    1.43
   1  -4   5   29.13    2.16
   1  -4   6    0.24    1.26
   1  -4   7    9.63    1.79
   1  -4   8   20.79    2.28
   1  -4   9   -0.53    1.68
   1  -4  10   11.41    2.28
  -1  -3  11    0.82    2.02
  -1  -3  10   65.63    3.82
  -1  -3   9    9.95    1.73
  -1  -3   8    1.51    1.14
  -1  -3   7   53.40    2.74
  -1  -3   7   56.54    2.75
  -1  -3   6   53.16    2.54
  -1  -3   6   52.29    2.51
   1  -3  -6   53.36    2.09
   1  -3  -5   56.49    1.97
  -1  -3   5   52.92    2.42
  -1  -3   4    3.15    0.70
   1  -3  -4    2.10    0.40
  -1  -3   4    3.30    0.74
  -1  -3   3  276.65    8.04
  -1  -3   3  260.04    8.08
  -1  -3   2  162.30    5.25
  -1  -3   2  169.62    5.27
  -1  -3   2  172.10    5.11
  -1  -3   2  165.09    5.06
  -1  -3   1   96.55    2.95
   1  -3  -1   98.70    3.00
  -1  -3   1   93.79    3.05
  -1  -3   1   85.72    3.09
   1  -3  -1   94.46    2.89
  -1  -3   0   38.09    1.56
   1  -3   0   36.07    1.48
   1  -3   0   36.60    1.23
   1  -3   0   34.58    1.37
  -1  -3   0   32.56    1.41
  -1  -3   0   33.92    1.20
  -1  -3  -1   17.16    0.67
  -1  -3  -1   18.56    1.04
   1  -3   1   21.40    1.16
   1  -3   1   23.14    1.03
   1  -3   1   20.67    1.14
  -1  -3  -1   20.11    1.05
   1  -3   2  403.90   11.05
  -1  -3  -2  393.27   10.78
   1  -3   3   35.73    1.84
  -1  -3  -3   34.38    1.31
   1  -3   4   83.53    3.38
  -1  -3  -4   82.88    2.77
   1  -3   5   72.39    3.28
  -1  -3  -5   75.13    2.70
  -1  -3  -6   30.95    1.64
   1  -3   6   27.45    2.06
   1  -3   7    1.09    1.18
   1  -3   8   19.02    2.16
   1  -3   9   16.16    2.19
   1  -3  10   -1.01    1.71
   1  -3  11    7.35    2.15
  -1  -2   9    8.77    1.45
  -1  -2   8    1.90    1.01
  -1  -2   7    1.55    0.84
  -1  -2   7    1.41    0.80
  -1  -2   6  139.93    4.77
   1  -2  -6  139.98    4.42
  -1  -2   6  128.10    4.77
  -1  -2   5   29.09    1.55
   1  -2  -5   28.64    1.30
  -1  -2   5   28.25    1.58
  -1  -2   4  146.23    4.75
   1  -2  -4  147.29    4.37
   1  -2  -3  291.83    8.09
  -1  -2   3  280.10    8.43
  -1  -2   2  106.58    3.35
  -1  -2   2  108.77    3.50
  -1  -2   1  223.24    6.45
  -1  -2   1  218.40    6.35
  -1  -2   1  224.09    6.32
  -1  -2   0   85.80    2.68
  -1  -2   0   84.62    2.50
   1  -2   0   85.27    2.54
   1  -2   1  146.59    4.39
  -1  -2  -1  146.42    4.23
   1  -2   1  137.46    4.06
  -1  -2  -2   22.94    1.00
   1  -2   3  252.52    7.31
  -1  -2  -3  225.71    6.77
   1  -2   4   82.83    3.21
  -1  -2  -4   76.41    2.70
  -1  -2  -5  161.32    5.11
   1  -2   5  158.15    5.61
  -1  -2  -6   28.51    1.61
   1  -2   6   29.35    2.00
   1  -2   7    1.53    1.07
   1  -2   8   15.70    1.84
   1  -2   9   15.66    2.08
  -1  -1  12    7.63    2.29
  -1  -1  11    3.13    1.97
  -1  -1  10   21.36    2.18
  -1  -1   9   40.23    2.54
  -1  -1   8   12.87    1.44
   1  -1  -6    4.94    0.78
  -1  -1   6    7.19    0.82
   1  -1  -5   37.73    1.62
  -1  -1   5   38.84    1.70
   1  -1  -4   10.42    0.73
  -1  -1   4   10.43    0.81
  -1  -1   3  364.99   10.07
   1  -1  -3  349.96    9.90
  -1  -1   3  342.61   10.07
   1  -1  -2   39.74    1.29
  -1  -1   2   38.43    1.41
  -1  -1   1 1367.36   37.32
  -1  -1   1 1361.65   37.39
  -1  -1   0   20.26    0.83
  -1  -1  -1  867.63   23.10
   1  -1   1  800.21   23.06
   1  -1   2   71.91    2.49
  -1  -1  -2   68.92    2.33
   1  -1   3    2.97    0.62
  -1  -1  -3    3.41    0.54
  -1  -1  -4  159.91    4.97
  -1  -1  -5  133.19    4.38
  -1  -1  -7   20.50    1.22
   1  -1   8   60.22    3.30
   1  -1   9   62.18    3.60
   1  -1  10   28.70    2.76
   1  -1  11   28.25    2.91
   1  -1  12    6.90    2.30
  -1   0  12   -2.84    2.02
  -1   0  11    5.52    1.95
  -1   0  10   -1.41    1.37
  -1   0   9   14.89    1.67
  -1   0   8    6.23    1.23
  -1   0   7   81.49    3.32
  -1   0   6   88.20    3.34
   1   0  -5    6.08    0.76
  -1   0   5    5.63    0.76
   1   0  -4  631.26   18.01
  -1   0   4  653.36   17.90
  -1   0   4  640.45   18.11
  -1   0   3    0.29    0.34
   1   0  -3    0.14    0.38
  -1   0   3    0.16    0.30
   1   0  -2 2327.79   63.52
  -1   0  -2 1036.66   28.65
  -1   0  -3  162.59    5.04
   1   0   3  169.23    5.20
  -1   0  -4  133.54    4.30
   1   0   4  133.39    4.49
  -1   0  -5  254.85    7.53
  -1   0  -5  237.49    7.30
   1   0   5  250.32    7.82
   1   0   6  204.63    6.82
  -1   0  -6  199.75    6.20
   1   0   7   -0.66    0.93
   1   0   8   22.28    2.04
   1   0   9   94.28    4.49
   1   0  10   43.69    3.15
   1   0  11    9.21    2.13
   1   0  12    1.47    1.89
  -1   1  12    3.97    2.07
  -1   1  11    1.89    1.88
  -1   1  10   20.81    2.39
  -1   1   9   42.04    2.58
  -1   1   8   11.42    1.35
  -1   1   7   10.91    1.18
  -1   1   6    7.76    0.91
  -1   1   5   39.99    1.80
  -1   1   4   10.80    0.79
  -1   1   3  365.73   10.32
  -1   1   2   39.62    1.30
   1   1  -2   38.97    1.59
   1   1  -2   38.09    1.39
   1   1  -1 1353.15   37.17
   1   1  -1 1361.67   37.12
   1   1   0   18.71    0.82
  -1   1   0   22.41    0.95
  -1   1  -1  811.59   24.12
  -1   1  -1  895.13   23.89
  -1   1  -2   69.52    2.41
   1   1   2   75.92    2.57
  -1   1  -3    2.46    0.47
   1   1   3    2.65    0.62
  -1   1  -3    2.79    0.56
  -1   1  -4  160.77    4.95
   1   1   4  156.49    5.15
  -1   1  -5  129.49    4.24
   1   1   5  129.80    4.54
   1   1   6    6.74    1.08
   1   1   7   22.90    1.82
   1   1   8   58.82    3.16
   1   1   9   62.58    3.48
   1   1  10   31.70    2.72
   1   1  11   30.14    2.94
   1   1  12    6.82    2.28
  -1   2  12   -3.66    2.12
  -1   2  11    5.68    1.86
  -1   2  10    4.36    1.80
  -1   2   9    8.08    1.58
  -1   2   8    0.19    1.00
  -1   2   7   -0.51    0.85
  -1   2   6  134.67    4.50
  -1   2   5   27.65    1.37
   1   2  -4  157.07    5.03
  -1   2   4  150.15    4.62
   1   2  -4  151.10    4.80
   1   2  -3  298.89    3.14
  -1   2   3  299.48    2.46
   1   2  -2  114.02    3.45
   1   2  -2  109.05    3.40
   1   2  -2  102.51    3.41
  -1   2   2  112.19    3.16
   1   2  -1  231.56    6.37
   1   2  -1  222.87    6.44
   1   2  -1  216.66    6.40
  -1   2   0   87.18    2.75
   1   2   0   82.84    2.73
  -1   2  -1  137.80    4.08
  -1   2  -1  145.91    4.24
  -1   2  -1  147.83    4.34
  -1   2  -2   23.73    1.20
  -1   2  -2   24.77    1.24
  -1   2  -3  242.78    7.06
   1   2   3  225.98    7.15
   1   2   4   73.75    2.90
  -1   2  -4   78.82    2.85
   1   2   5  141.18    4.87
   1   2   6   24.91    1.70
   1   2   7    1.75    1.01
   1   2   8   14.56    1.69
   1   2   9   13.40    1.89
   1   2  10   10.13    2.00
   1   2  11    2.33    1.85
  -1   3   9    5.12    1.56
  -1   3   8   -0.81    1.21
  -1   3   7   45.54    2.36
  -1   3   6   48.00    2.19
   1   3  -5   56.25    2.52
  -1   3   5   54.84    2.15
  -1   3   4    2.31    0.52
   1   3  -4    4.51    0.95
   1   3  -4    3.23    0.78
   1   3  -3  283.74    7.34
   1   3  -3  281.83    7.34
   1   3  -2  179.44    5.32
   1   3  -2  180.15    5.37
   1   3  -2  175.71    5.33
   1   3  -1   94.20    2.91
   1   3  -1   94.40    3.06
   1   3  -1   97.23    3.01
   1   3   0   35.06    1.41
  -1   3   0   35.57    1.23
  -1   3  -1   20.89    0.98
  -1   3  -2  404.97   11.45
  -1   3  -2  406.07   11.63
  -1   3  -2  397.13   11.78
  -1   3  -2  412.52   11.30
  -1   3  -3   34.09    1.52
  -1   3  -3   38.46    1.71
  -1   3  -4   -0.39    0.85
  -1   3  -4  102.41    2.24
  -1   3  -5   -0.37    1.40
   1   3   5   62.22    2.26
   1   3   6   23.21    1.83
   1   3   7    0.17    1.10
   1   3   8   14.38    1.94
   1   3   9   16.18    2.18
   1   4  -4   40.60    2.01
   1   4  -3   84.58    2.83
   1   4  -3   71.11    2.72
   1   4  -2   11.56    0.95
   1   4  -2    8.74    0.76
   1   4  -1  116.09    3.70
  -1   4   0  110.41    3.23
  -1   4  -1   21.26    0.98
  -1   4  -2   67.30    2.40
  -1   4  -3  202.70    5.76
  -1   4  -3  206.35    5.98
  -1   4  -4   -1.01    0.69
  -2  -7   6   11.89    1.88
   2  -7  -5    1.14    1.56
  -2  -7   5    1.20    1.35
   2  -7  -4    5.98    1.55
  -2  -7   4    6.01    1.50
   2  -7  -3   14.15    1.73
  -2  -7   3   15.15    1.80
  -2  -7   2    2.66    1.86
   2  -7  -2    2.72    1.31
  -2  -7   2    1.87    1.30
  -2  -7   1    5.59    1.50
   2  -7  -1    5.87    1.63
  -2  -7   1    5.67    1.77
  -2  -7   0   23.23    2.12
  -2  -7  -1    1.78    1.71
  -2  -7  -2    7.53    1.71
  -2  -7  -3    4.33    1.58
  -2  -7  -4    5.80    1.76
  -2  -7  -5    1.61    1.71
  -2  -6   8    4.58    1.64
  -2  -6   7    1.04    1.28
  -2  -6   6   15.18    1.75
  -2  -6   5    1.58    1.11
  -2  -6   4    6.97    1.29
  -2  -6   3   15.49    1.56
   2  -6  -3   15.57    1.50
  -2  -6   2   51.38    2.65
  -2  -6   2   48.78    2.60
   2  -6  -2   47.06    2.28
  -2  -6   1   66.07    2.94
  -2  -6   1   61.71    2.86
  -2  -6   1   60.72    3.00
   2  -6  -1   60.95    2.61
  -2  -6   0   25.40    1.80
   2  -6   0   28.07    1.85
  -2  -6   0   27.46    1.98
  -2  -6   0   21.89    1.90
  -2  -6  -1    2.47    1.04
  -2  -6  -1    2.38    1.30
   2  -6   1    2.28    1.14
  -2  -6  -1    2.39    1.22
  -2  -6  -2   26.58    1.81
  -2  -6  -2   22.88    1.88
  -2  -6  -3   -0.06    1.24
  -2  -6  -3   -0.29    1.30
  -2  -6  -4    4.22    1.38
  -2  -6  -4    2.72    1.36
  -2  -6  -5   10.18    1.72
  -2  -6  -5   13.35    1.74
  -2  -6  -6    2.21    1.60
  -2  -6  -7    1.43    1.77
  -2  -5  10    5.95    2.14
  -2  -5   9    2.97    1.60
  -2  -5   8   -0.92    1.40
  -2  -5   7   33.03    2.33
  -2  -5   7   31.44    2.23
  -2  -5   6   14.43    1.57
  -2  -5   6   14.05    1.66
  -2  -5   5   51.92    2.57
  -2  -5   5   41.96    2.44
  -2  -5   4   25.42    1.85
  -2  -5   4   31.97    1.90
   2  -5  -3   17.22    1.23
  -2  -5   3   18.01    2.04
  -2  -5   3   22.14    1.50
  -2  -5   3   17.23    1.43
  -2  -5   2   38.15    2.05
   2  -5  -2   35.75    1.80
   2  -5  -2   34.02    1.54
  -2  -5   2   36.66    2.22
  -2  -5   2   34.18    1.96
  -2  -5   1   13.40    1.67
   2  -5  -1   14.95    1.28
  -2  -5   1   16.07    1.15
  -2  -5   1   17.03    1.48
  -2  -5   0  109.99    4.26
   2  -5   0  114.26    3.84
  -2  -5  -1   75.89    3.01
  -2  -5  -1   76.88    3.21
  -2  -5  -2   28.88    1.83
  -2  -5  -2   29.68    1.78
  -2  -5  -3  109.31    3.95
  -2  -5  -3  100.55    3.97
  -2  -5  -4   20.16    1.72
   2  -5   4   29.07    2.59
   2  -5   5   14.90    2.17
  -2  -5  -5    9.79    1.49
  -2  -5  -6    4.74    1.50
   2  -5   6    5.54    1.88
   2  -5   7   12.07    2.25
  -2  -5  -7   10.79    1.84
   2  -5   8   14.68    2.57
  -2  -5  -8   12.59    2.09
  -2  -5  -9    9.50    2.20
   2  -5   9    8.49    2.49
  -2  -4  11    1.37    1.98
  -2  -4  10    3.38    1.60
  -2  -4   9    3.44    1.49
  -2  -4   9    6.28    1.48
  -2  -4   8    1.47    1.09
  -2  -4   8    0.65    1.16
  -2  -4   7   -0.76    1.09
  -2  -4   6   74.35    3.22
  -2  -4   5  126.28    4.46
  -2  -4   5  117.60    4.50
  -2  -4   4    9.81    1.06
  -2  -4   4    8.74    1.02
  -2  -4   3   70.38    3.08
  -2  -4   3   70.46    2.67
  -2  -4   3   65.75    2.81
  -2  -4   2  206.30    6.58
  -2  -4   2  207.81    6.21
  -2  -4   2  200.46    6.31
   2  -4  -1  110.32    3.58
   2  -4  -1  113.48    3.33
  -2  -4   1  111.52    3.75
  -2  -4   1  110.29    3.93
  -2  -4   1  111.00    3.52
  -2  -4   0    8.67    1.06
  -2  -4   0    9.31    0.95
  -2  -4   0    8.85    0.63
   2  -4   0   10.49    0.87
  -2  -4  -1  109.90    3.64
  -2  -4  -1  121.02    3.76
   2  -4   1  113.76    3.44
  -2  -4  -2   72.34    2.63
   2  -4   2   82.32    3.34
  -2  -4  -3   25.69    1.54
   2  -4   3   26.85    2.00
   2  -4   4    2.53    1.29
  -2  -4  -4    3.58    1.08
  -2  -4  -5   73.30    3.11
   2  -4   5   69.37    3.62
  -2  -4  -6  199.13    6.70
   2  -4   6  206.13    7.56
   2  -4   7   11.70    1.93
   2  -4   8   15.29    2.27
   2  -4   9    8.16    2.18
   2  -4  10    3.57    2.17
  -2  -3  11    6.23    1.98
  -2  -3  10    0.23    1.39
  -2  -3   9   33.60    2.43
  -2  -3   9   38.82    2.44
  -2  -3   8   30.18    2.12
  -2  -3   8   32.39    2.12
  -2  -3   7   44.34    2.43
  -2  -3   7   46.69    2.41
  -2  -3   6   27.14    1.69
  -2  -3   6   25.56    1.69
   2  -3  -6   23.63    1.26
  -2  -3   5   21.58    1.41
  -2  -3   4  181.34    5.74
  -2  -3   3   20.20    1.54
  -2  -3   3   19.55    1.13
  -2  -3   2  215.08    6.43
  -2  -3   2  221.64    6.67
  -2  -3   2  209.99    6.36
  -2  -3   1   50.89    1.92
  -2  -3   1   49.87    2.07
  -2  -3   1   50.81    1.78
   2  -3   0  371.18   10.46
  -2  -3   0  368.34   10.47
  -2  -3   0  381.99   10.80
   2  -3   1  133.51    3.99
   2  -3   1  138.19    4.82
  -2  -3  -1  136.02    4.31
   2  -3   2   88.02    3.45
  -2  -3  -2   83.23    2.93
  -2  -3  -2   77.86    2.89
  -2  -3  -3   23.15    1.31
   2  -3   3   27.19    1.82
   2  -3   4  161.72    5.84
  -2  -3  -4  153.01    5.07
   2  -3   5   55.85    2.94
  -2  -3  -5   56.66    2.33
   2  -3   6    4.22    1.28
   2  -3   7   79.70    4.04
   2  -3   8   30.84    2.64
   2  -3   9    3.44    1.72
   2  -3  10    8.20    2.13
   2  -3  11    6.32    2.33
  -2  -2   9    1.94    1.17
  -2  -2   8   52.49    2.78
  -2  -2   8   59.75    2.73
  -2  -2   7   61.97    2.89
  -2  -2   7   65.65    2.80
   2  -2  -6   10.67    0.94
  -2  -2   6   12.58    1.12
  -2  -2   6   11.32    1.12
  -2  -2   5  129.41    4.53
  -2  -2   5  136.26    4.52
   2  -2  -5  139.55    4.22
   2  -2  -4   50.01    1.73
  -2  -2   4   49.26    2.03
  -2  -2   4   50.01    2.06
  -2  -2   3   14.49    0.89
  -2  -2   3   15.57    1.31
  -2  -2   2   63.33    2.39
  -2  -2   1  413.56   11.56
  -2  -2   1  408.24   11.72
  -2  -2   0   92.10    3.01
   2  -2   1  457.63   12.62
  -2  -2  -1  447.09   12.01
  -2  -2  -2   58.81    2.12
  -2  -2  -2   54.01    2.31
   2  -2   2   57.39    2.57
   2  -2   3   23.64    1.57
  -2  -2  -3   23.22    1.29
   2  -2   4    9.42    1.15
  -2  -2  -4    9.25    0.92
  -2  -2  -5    2.42    0.73
   2  -2   5    1.34    0.82
   2  -2   6   71.93    3.48
   2  -2   7   21.01    2.03
   2  -2   8   13.92    1.95
   2  -2   9   39.76    3.10
  -2  -1  12    2.27    1.80
  -2  -1  11   12.75    2.01
  -2  -1  10    3.92    1.41
  -2  -1   9   11.44    1.55
  -2  -1   8   21.32    1.73
  -2  -1   8   23.11    1.56
  -2  -1   7   59.15    2.50
   2  -1  -6   58.91    2.33
  -2  -1   6   63.72    2.47
   2  -1  -5  161.40    4.95
  -2  -1   5  159.95    5.05
   2  -1  -4   61.25    2.12
   2  -1  -3   84.27    2.59
  -2  -1   3   79.93    2.71
  -2  -1   2  134.14    4.23
  -2  -1   2  131.88    4.00
  -2  -1   1  128.77    3.93
   2  -1  -1  138.48    3.98
   2  -1   0  170.36    4.81
  -2  -1   0  174.33    4.91
   2  -1   2  210.38    6.76
  -2  -1  -2  211.83    6.52
   2  -1   3  290.96    8.88
  -2  -1  -3  283.54    8.54
  -2  -1  -4    8.34    0.93
  -2  -1  -5  113.24    3.93
   2  -1   8    7.17    1.63
   2  -1   9   22.97    2.39
   2  -1  10   16.96    2.44
   2  -1  11   10.58    2.49
  -2   0  12    1.80    1.80
  -2   0  11    4.77    1.60
  -2   0  10    2.86    1.30
  -2   0   9   21.81    1.81
  -2   0   8  275.05    8.82
  -2   0   7   21.90    1.28
  -2   0   7   21.72    1.54
  -2   0   6   49.28    2.21
  -2   0   6   50.28    1.97
  -2   0   5  140.10    4.65
   2   0  -5  138.94    4.56
   2   0  -4   39.38    1.58
  -2   0   4   37.93    1.58
   2   0  -3  532.65   14.90
  -2   0   3  532.29   14.92
   2   0  -2  511.49   14.17
   2   0  -2  506.54   14.37
   2   0  -1  349.81    9.84
  -2   0   0  294.53    8.45
   2   0   0  304.04    8.34
   2   0   0  306.61    8.46
  -2   0  -1  254.60    7.18
  -2   0  -2 1414.83   39.18
  -2   0  -3   57.32    2.28
   2   0   3   57.00    2.53
  -2   0  -4  199.85    6.26
   2   0   4  200.35    6.64
   2   0   5    8.39    1.13
   2   0   6    3.64    1.06
   2   0   7    0.24    1.03
   2   0   8   15.31    1.90
   2   0   9    3.26    1.57
   2   0  10    3.78    1.86
   2   0  11    1.29    1.92
   2   0  12    7.74    2.59
  -2   1  12   -0.05    2.07
  -2   1  11    9.66    1.91
  -2   1  10    1.32    1.37
  -2   1   9    9.92    1.48
  -2   1   8   21.54    1.68
  -2   1   7   62.45    2.72
  -2   1   6   60.59    2.48
  -2   1   5  156.99    4.88
  -2   1   5  152.07    4.52
  -2   1   4   58.10    1.85
  -2   1   4   60.63    2.13
   2   1  -3   87.96    3.19
  -2   1   3   91.56    2.84
   2   1  -2  134.35    4.14
  -2   1   2  142.39    4.08
  -2   1   0  175.69    4.85
   2   1   0  166.53    4.90
  -2   1  -1   39.45    1.25
  -2   1  -1   41.35    1.77
  -2   1  -2  210.06    6.38
  -2   1  -3  332.39    9.48
   2   1   3  295.88    9.69
   2   1   4   10.22    1.20
   2   1   5  115.13    4.49
   2   1   6    3.15    1.07
   2   1   7   82.53    3.90
   2   1   8    4.43    1.53
   2   1   9   17.33    2.37
   2   1  10   14.04    2.46
   2   1  11    8.95    2.52
  -2   2  12   19.60    2.62
  -2   2  11   -2.38    1.88
  -2   2  10    8.59    1.71
  -2   2   9    0.43    1.10
  -2   2   8   54.58    2.58
  -2   2   7   66.30    2.76
  -2   2   6   11.60    1.03
  -2   2   5  133.49    4.29
   2   2  -5  134.44    4.72
   2   2  -4   49.86    2.01
  -2   2   4   50.23    1.83
   2   2  -4   48.89    2.18
   2   2  -3   15.00    0.94
   2   2  -3   14.43    1.11
  -2   2   3   14.99    0.76
   2   2  -2   63.94    2.19
   2   2  -2   66.08    2.34
  -2   2   2   63.89    2.01
   2   2  -1  406.45   11.48
   2   2   0   92.60    2.99
  -2   2   0   96.40    3.15
  -2   2  -1  450.08   12.81
  -2   2  -2   56.00    1.69
  -2   2  -2   53.90    2.16
  -2   2  -3   22.52    1.25
  -2   2  -3   23.86    1.31
   2   2   4    7.58    1.24
   2   2   5    1.25    0.97
   2   2   6   69.76    3.48
   2   2   7   21.75    2.15
   2   2   8   12.62    2.03
   2   2   9   32.79    3.02
   2   2  10    2.62    1.95
   2   2  11   -0.43    2.02
  -2   3   9   33.74    2.30
  -2   3   8   26.67    1.77
  -2   3   7   36.58    1.93
  -2   3   6   20.43    1.26
  -2   3   5   23.50    1.19
   2   3  -4  193.64    5.78
   2   3  -4  186.10    5.87
  -2   3   4  179.41    5.42
  -2   3   3   19.00    0.81
   2   3  -3   20.84    1.14
   2   3  -2  232.67    6.45
   2   3  -2  225.17    6.39
   2   3  -2  222.41    6.31
   2   3  -1   49.52    1.89
   2   3  -1   51.48    1.92
  -2   3   1   49.95    1.76
  -2   3   1   49.26    1.70
   2   3   0  391.31   11.17
  -2   3   0  394.22   11.19
  -2   3   0  390.59   11.11
  -2   3  -1  124.43    3.99
  -2   3  -1  132.34    4.11
  -2   3  -2   77.09    2.72
  -2   3  -2   76.11    2.79
  -2   3  -3   33.05    1.31
  -2   3  -3   29.57    1.36
  -2   3  -4   55.59    2.32
  -2   3  -5   -0.71    1.39
   2   3   7   62.76    3.54
   2   3   8   21.69    2.50
   2   3   9    1.51    1.78
  -2   4   5  105.93    3.31
  -2   4   4    3.85    0.35
   2   4  -3   68.25    2.55
   2   4  -3   74.60    2.75
   2   4  -2  207.98    6.33
  -2   4   1   87.39    2.77
   2   4  -1  118.81    3.32
  -2   4   0    8.37    0.64
  -2   4  -1  119.63    3.79
  -2   4  -2   71.42    2.60
  -2   4  -3   15.80    0.66
  -2   4  -4    5.48    1.16
   3  -7  -5    6.53    1.72
  -3  -7   5    5.45    1.57
  -3  -7   4    9.48    1.74
   3  -7  -4   10.50    1.66
  -3  -7   3    3.18    1.43
  -3  -7   2   -0.05    1.87
  -3  -7   2    0.88    1.33
  -3  -7   1   23.87    2.27
  -3  -7   1   21.67    2.05
  -3  -7   0   10.98    1.91
  -3  -7  -1    4.35    1.76
  -3  -7  -2    1.06    1.71
  -3  -7  -3   18.06    2.01
  -3  -7  -4    0.46    1.59
  -3  -6   8    3.44    1.52
  -3  -6   7    0.79    1.18
  -3  -6   6    1.26    1.15
  -3  -6   5   18.88    1.80
  -3  -6   4   21.10    1.80
  -3  -6   3    2.11    1.86
   3  -6  -3    3.01    1.17
  -3  -6   3    1.32    1.03
  -3  -6   2   21.67    1.93
  -3  -6   2   17.90    1.68
   3  -6  -2   15.86    1.45
  -3  -6   2   18.46    2.05
   3  -6  -1    2.74    1.03
  -3  -6   1    1.23    1.62
  -3  -6   1    1.93    1.05
  -3  -6   1    2.91    1.33
  -3  -6   0    1.30    1.22
  -3  -6   0    0.19    1.41
  -3  -6  -1    5.99    1.57
  -3  -6  -1    7.16    1.58
  -3  -6  -2    4.53    1.56
  -3  -6  -2    9.78    1.43
  -3  -6  -3   17.29    1.74
  -3  -6  -3   12.10    1.73
  -3  -6  -4    7.65    1.69
  -3  -6  -5   -0.73    1.57
  -3  -6  -6    3.86    1.76
  -3  -6  -7    2.81    1.96
  -3  -5   9    0.96    1.45
  -3  -5   9    1.21    1.36
  -3  -5   8    9.96    1.64
  -3  -5   7    3.43    1.31
  -3  -5   7    3.49    1.20
  -3  -5   6   13.02    1.56
  -3  -5   6   15.98    1.64
  -3  -5   5    8.22    1.30
  -3  -5   5    6.58    1.17
  -3  -5   4   42.31    2.34
  -3  -5   4   49.44    2.35
  -3  -5   3   36.37    2.16
  -3  -5   3   42.04    2.85
  -3  -5   3   44.87    2.08
  -3  -5   2   30.03    1.95
  -3  -5   2   31.45    1.66
  -3  -5   2   29.38    2.19
  -3  -5   1  108.29    3.93
  -3  -5   1   98.90    4.20
  -3  -5   1  108.02    3.60
   3  -5  -1  111.42    3.63
  -3  -5   0   12.95    1.71
   3  -5   0   14.88    1.19
  -3  -5   0   12.99    0.97
  -3  -5   0   15.69    1.58
  -3  -5  -1    2.22    1.03
  -3  -5  -1    4.29    1.23
   3  -5   1    2.74    0.97
  -3  -5  -2    3.77    1.28
  -3  -5  -3   12.42    1.56
   3  -5   4    1.48    1.83
  -3  -5  -4    1.79    1.29
  -3  -5  -5   22.19    1.97
   3  -5   5   25.01    2.95
   3  -5   6   10.50    2.46
  -3  -5  -6    9.39    1.71
  -3  -5  -7    6.07    1.78
   3  -5   7    6.72    2.39
   3  -5   8    3.20    2.47
  -3  -5  -8    3.06    1.93
  -3  -4  11   -1.10    1.89
  -3  -4  10    4.48    1.67
  -3  -4  10    3.78    1.58
  -3  -4   9   13.99    1.80
  -3  -4   9   14.53    1.77
  -3  -4   8    0.06    1.09
  -3  -4   8    0.48    1.00
  -3  -4   7   18.45    1.67
  -3  -4   7   18.80    1.69
  -3  -4   6    8.12    1.21
  -3  -4   5   61.66    2.67
  -3  -4   5   57.19    2.71
  -3  -4   4    7.80    0.95
  -3  -4   4    6.64    1.69
  -3  -4   3   59.11    2.91
  -3  -4   3   53.07    2.20
  -3  -4   2   25.14    1.31
  -3  -4   2   26.32    1.81
  -3  -4   2   25.64    1.55
  -3  -4   1    5.68    1.14
  -3  -4   1    5.31    0.65
  -3  -4   0   20.57    1.05
   3  -4   0   23.33    1.15
  -3  -4   0   22.43    1.55
  -3  -4  -1    6.15    1.12
   3  -4   1    7.87    0.80
  -3  -4  -1    5.74    0.61
  -3  -4  -2   46.00    2.31
  -3  -4  -2   52.03    2.35
  -3  -4  -3   71.98    2.96
   3  -4   3   77.29    3.98
  -3  -4  -4  144.70    5.07
   3  -4   4  152.24    6.22
  -3  -4  -5   48.02    2.52
   3  -4   5   51.50    3.53
   3  -4   6    7.41    2.06
  -3  -4  -6    9.94    1.60
   3  -4   7    6.36    2.09
  -3  -4  -7    8.53    1.69
   3  -4   8   20.91    2.90
  -3  -4  -8   24.10    2.35
   3  -4   9   19.35    3.10
  -3  -4  -9   24.84    2.61
  -3  -3  11   25.77    2.53
  -3  -3  10    4.31    1.45
  -3  -3  10    3.19    1.29
  -3  -3   9   -0.29    1.16
  -3  -3   9    0.18    1.03
  -3  -3   8   23.94    1.93
  -3  -3   8   24.32    1.87
  -3  -3   7    9.81    1.26
  -3  -3   7    8.28    1.26
  -3  -3   6   21.94    1.53
  -3  -3   6   21.80    1.51
  -3  -3   5   21.10    1.38
  -3  -3   4   44.37    1.94
  -3  -3   3   80.18    2.86
  -3  -3   3   83.29    3.41
  -3  -3   2  143.90    4.75
  -3  -3   2  135.84    4.33
  -3  -3   1   80.71    3.04
  -3  -3   1   79.56    2.69
  -3  -3   0   28.34    1.51
  -3  -3   0   26.25    1.19
   3  -3   0   27.84    1.09
  -3  -3  -1   30.69    1.60
   3  -3   1   30.32    1.14
  -3  -3  -2   31.20    1.59
   3  -3   2   29.22    2.24
  -3  -3  -2   28.91    1.89
  -3  -3  -2   30.13    1.45
  -3  -3  -3   43.88    1.99
  -3  -3  -3   40.83    2.00
   3  -3   3   41.52    2.67
  -3  -3  -4   69.94    2.76
  -3  -3  -4   59.40    2.65
   3  -3   4   63.57    3.50
  -3  -3  -5   51.46    2.44
   3  -3   5   43.70    3.02
  -3  -3  -6   58.85    2.76
   3  -3   6   57.17    3.53
   3  -3   7   17.86    2.35
   3  -3   8    4.27    1.89
   3  -3   9    6.91    2.22
   3  -3  10   12.60    2.75
  -3  -2  10   17.09    1.71
  -3  -2   9   60.38    2.92
  -3  -2   8   53.77    2.79
  -3  -2   8   56.25    2.65
  -3  -2   7    0.88    0.86
  -3  -2   7    0.95    0.80
   3  -2  -6   33.95    1.55
  -3  -2   6   35.29    1.82
  -3  -2   6   31.93    1.77
   3  -2  -5   73.97    2.49
  -3  -2   5   67.39    2.71
  -3  -2   4  190.68    5.92
  -3  -2   3  246.47    7.57
  -3  -2   3  277.92    8.10
  -3  -2   2  175.82    5.30
  -3  -2   2  173.41    5.56
   3  -2  -1    4.53    0.62
  -3  -2   1    6.00    0.61
  -3  -2   1    6.21    0.85
  -3  -2   0   60.07    2.18
  -3  -2   0   60.04    1.99
  -3  -2  -1  171.66    5.15
  -3  -2  -1  176.04    5.34
  -3  -2  -2  361.83   10.19
  -3  -2  -2  361.52   11.05
  -3  -2  -2  359.28   10.43
   3  -2   2  333.35   11.35
  -3  -2  -3   68.75    2.82
   3  -2   3   68.93    3.36
   3  -2   4   15.34    1.71
  -3  -2  -4   13.52    1.23
   3  -2   5   51.44    3.09
   3  -2   6    6.20    1.53
   3  -2   7   21.54    2.34
   3  -2   8    2.83    1.68
   3  -2   9   10.86    2.33
  -3  -1  12    1.47    1.70
  -3  -1  11   13.63    1.97
  -3  -1  10   12.20    1.68
  -3  -1   9   59.47    2.72
  -3  -1   9   61.98    3.11
  -3  -1   8   99.20    4.00
  -3  -1   8   99.29    3.71
  -3  -1   7  119.38    4.19
  -3  -1   6    1.22    0.58
   3  -1  -5   13.48    0.90
   3  -1  -4  374.58   10.69
  -3  -1   3  287.02    8.38
  -3  -1   2    5.16    0.52
   3  -1  -2    5.73    0.85
   3  -1  -1  290.11    8.27
   3  -1   0  202.08    5.73
  -3  -1   0  200.45    5.76
  -3  -1  -1  277.34    7.82
  -3  -1  -2   18.81    1.58
  -3  -1  -3  330.42    9.92
   3  -1   3  319.10   10.50
  -3  -1  -4  208.43    6.71
   3  -1   8   66.65    4.10
   3  -1   9    8.44    2.14
   3  -1  10   21.65    3.07
   3  -1  11    8.62    2.78
  -3   0  12    6.45    1.76
  -3   0  11   -0.18    1.42
  -3   0  10   26.54    2.15
  -3   0   9    0.61    1.03
  -3   0   8    4.07    1.07
  -3   0   8    5.14    0.84
  -3   0   7    2.32    0.63
  -3   0   7    3.03    0.82
  -3   0   6  130.99    4.28
  -3   0   6  137.18    4.57
  -3   0   5  485.69   13.89
   3   0  -5  479.07   13.76
   3   0  -4  162.04    4.95
  -3   0   4  161.46    5.00
  -3   0   3  757.01   20.65
   3   0  -3  718.26   20.84
   3   0  -3  736.10   20.57
   3   0  -2 1450.05   39.55
  -3   0   2 1417.71   39.68
   3   0  -1    0.42    0.57
  -3   0   1    0.60    0.54
  -3   0   0  400.44   11.30
   3   0   0  402.19   11.26
   3   0   1  329.49    9.42
  -3   0  -1  333.13    9.21
  -3   0  -1  336.92    9.43
  -3   0  -2    0.82    0.83
  -3   0  -2    0.30    0.45
   3   0   3  232.89    8.21
  -3   0  -3  249.74    7.65
   3   0   4  159.22    5.97
   3   0   5   18.00    1.88
   3   0   6   15.51    1.91
   3   0   7   -0.05    1.31
   3   0   8    3.45    1.73
   3   0   9    5.28    1.99
   3   0  10    8.43    2.43
   3   0  11    6.22    2.59
  -3   1  12   -0.23    1.65
  -3   1  11   11.79    1.89
  -3   1  10    9.88    1.60
  -3   1   9   58.73    2.92
  -3   1   8   95.78    3.80
  -3   1   7  109.35    3.89
  -3   1   7  102.63    3.38
  -3   1   6    2.01    0.65
  -3   1   6    1.14    0.45
  -3   1   5   13.36    0.96
  -3   1   4  388.17   11.12
  -3   1   3  305.51    8.78
   3   1  -2    4.48    0.68
   3   1  -1  309.75    8.79
  -3   1   1  316.70    8.97
   3   1   0  196.29    5.68
  -3   1   0  202.15    5.74
  -3   1  -1  274.79    7.74
  -3   1  -1  273.30    8.58
  -3   1  -2   20.98    0.92
  -3   1  -2   20.86    1.40
  -3   1  -3  330.76    9.98
   3   1   4  194.94    7.07
   3   1   5   26.16    2.19
   3   1   6   31.04    2.52
   3   1   7   32.43    2.76
   3   1   8   67.33    4.13
   3   1   9    5.89    2.17
   3   1  10   14.38    2.84
   3   1  11    9.11    2.76
  -3   2  12    7.81    1.99
  -3   2  11    5.28    1.57
  -3   2  10    9.13    1.64
  -3   2   9   56.49    2.79
  -3   2   8   57.28    2.68
  -3   2   7    0.96    0.78
  -3   2   6   32.97    1.63
  -3   2   5   72.84    2.61
   3   2  -4  195.71    5.92
  -3   2   4  192.81    5.74
   3   2  -4  185.67    6.04
   3   2  -3  267.85    7.92
   3   2  -3  262.29    8.00
  -3   2   3  273.25    7.74
   3   2  -2  175.28    5.38
   3   2  -1    4.88    0.78
   3   2   0   52.84    1.88
   3   2   0   56.01    2.03
  -3   2   0   51.86    2.40
   3   2   1  172.59    5.47
  -3   2  -1  185.33    5.11
  -3   2  -1  173.43    5.76
  -3   2  -2  361.74    9.96
  -3   2  -2  342.99   10.58
  -3   2  -3   72.61    2.65
  -3   2  -3   54.14    1.86
   3   2   6    3.09    1.50
   3   2   7   16.94    2.28
   3   2   8    1.87    1.78
   3   2   9    6.56    2.30
   3   2  10    0.77    2.12
   3   2  11    0.72    2.32
  -3   3   9   -2.30    1.20
  -3   3   8   24.36    1.63
  -3   3   7    9.52    1.10
  -3   3   6   22.37    1.32
  -3   3   5   18.46    1.06
  -3   3   4   44.02    1.63
   3   3  -3   83.36    2.73
  -3   3   3   79.69    2.39
   3   3  -2  139.69    4.29
  -3   3   2  127.85    3.92
   3   3  -1   80.98    2.83
  -3   3   1   80.44    2.66
  -3   3   1   80.02    2.94
  -3   3   0   27.33    1.43
  -3   3   0   29.79    1.35
  -3   3  -1   26.72    1.45
  -3   3  -1   29.85    1.42
  -3   3  -2   27.68    1.55
  -3   3  -4   98.51    3.11
  -3   4   5   50.85    1.87
  -3   4   4    5.56    0.54
  -3   4   3   37.04    1.30
  -3   4   2   16.62    0.76
  -3   4   2   17.55    0.89
  -3   4   1    4.48    0.60
  -3   4   1    6.61    0.67
  -3   4   0   20.22    1.10
  -3   4   0   20.43    1.16
  -3   4  -1    7.09    0.77
  -3   4  -2   52.33    2.13
  -4  -7   5   12.61    1.98
  -4  -7   4   12.84    1.93
  -4  -7   3    1.63    1.37
  -4  -7   2   21.69    2.14
  -4  -7   1   16.31    2.17
  -4  -7   1   18.11    2.13
  -4  -7   0    2.23    1.65
  -4  -7  -1   16.16    2.02
  -4  -7  -2    4.38    1.94
  -4  -6   8   -0.97    1.37
  -4  -6   7    7.24    1.58
  -4  -6   6   27.66    2.25
  -4  -6   5    6.00    1.30
  -4  -6   4    1.52    2.08
  -4  -6   4    1.01    1.06
  -4  -6   3    2.05    1.98
   4  -6  -3    1.38    1.13
  -4  -6   3    1.03    1.04
  -4  -6   2    1.98    1.69
  -4  -6   2    0.74    1.49
  -4  -6   1   14.44    2.14
  -4  -6   1   19.25    1.90
  -4  -6   0    9.22    1.86
  -4  -6   0   14.83    1.76
  -4  -6  -1   55.29    3.20
  -4  -6  -2   10.83    1.83
  -4  -6  -3    0.89    1.53
  -4  -6  -4   13.49    2.02
  -4  -6  -5   20.92    2.38
  -4  -6  -6    8.23    1.97
  -4  -6  -6    3.83    1.92
  -4  -5   9    0.99    1.45
  -4  -5   9    1.16    1.35
  -4  -5   8   66.36    3.48
  -4  -5   7   39.53    2.54
  -4  -5   6    0.89    1.06
  -4  -5   6    1.09    1.00
  -4  -5   5   53.63    2.83
  -4  -5   5   57.09    2.71
  -4  -5   4   18.76    2.49
  -4  -5   4   20.80    1.53
  -4  -5   3    0.22    1.67
  -4  -5   3    1.49    0.83
  -4  -5   2   31.98    2.07
  -4  -5   2   32.98    2.38
  -4  -5   2   32.80    1.74
  -4  -5   1   55.96    2.31
  -4  -5   1   55.11    3.00
   4  -5  -1   58.41    2.24
  -4  -5   0   82.94    3.99
   4  -5   0  102.08    3.29
  -4  -5  -1   16.58    1.73
  -4  -5  -2    8.96    1.58
  -4  -5  -3    7.83    1.53
  -4  -5  -4    2.62    1.30
  -4  -5  -4    0.98    1.37
  -4  -5  -5   14.68    1.72
  -4  -5  -5   12.29    1.79
   4  -5   6    3.18    2.41
  -4  -5  -6    3.09    1.55
  -4  -5  -6    2.22    1.59
   4  -5   7   -1.16    2.57
  -4  -5  -7    1.04    1.78
   4  -5   8    3.84    2.87
  -4  -5  -8    4.52    2.00
  -4  -4  10   23.55    2.26
  -4  -4  10   23.77    2.21
  -4  -4   9   27.94    2.22
  -4  -4   9   26.87    2.25
  -4  -4   8    8.67    1.44
  -4  -4   8   10.75    1.51
  -4  -4   7    2.81    1.07
  -4  -4   7    1.73    0.96
  -4  -4   6   14.21    1.37
  -4  -4   5    7.06    1.07
  -4  -4   4    1.65    1.55
  -4  -4   4    1.90    0.77
  -4  -4   3   41.83    1.94
  -4  -4   3   46.97    2.64
  -4  -4   2   73.13    3.23
  -4  -4   2   66.53    2.55
  -4  -4   1   13.59    1.54
  -4  -4   1   14.32    1.00
   4  -4   0   48.55    1.69
  -4  -4   0   47.75    2.43
  -4  -4   0   42.03    1.81
   4  -4   1   15.41    0.95
  -4  -4  -1   19.76    1.65
  -4  -4  -2    2.49    0.97
  -4  -4  -2    2.00    1.12
  -4  -4  -3    0.19    1.01
  -4  -4  -3   -0.08    1.11
  -4  -4  -4   10.33    1.47
   4  -4   4    8.03    2.19
  -4  -4  -4   12.59    1.39
   4  -4   5    0.52    2.01
  -4  -4  -5    2.27    1.34
   4  -4   6   -0.32    1.97
  -4  -4  -6    1.50    1.36
  -4  -4  -7   45.28    2.82
   4  -4   7   40.61    3.98
   4  -4   8   20.07    3.36
  -4  -4  -8   24.44    2.44
   4  -4   9    0.87    2.46
  -4  -4  -9    1.29    2.00
  -4  -3  11    0.62    1.48
  -4  -3  11    1.24    1.35
  -4  -3  10    0.44    1.31
  -4  -3  10    1.84    1.24
  -4  -3   9    6.83    1.32
  -4  -3   9    6.57    1.41
  -4  -3   8   32.92    2.16
  -4  -3   8   31.11    2.14
  -4  -3   7  112.53    4.24
  -4  -3   7  107.27    4.20
  -4  -3   6   21.03    1.52
  -4  -3   5   28.56    1.64
  -4  -3   4   27.18    1.52
  -4  -3   4   29.89    2.17
  -4  -3   3   12.42    0.95
  -4  -3   3   13.73    1.49
  -4  -3   2    6.98    1.14
   4  -3  -2    5.90    0.91
  -4  -3   2    6.27    0.74
  -4  -3   1   77.72    2.53
  -4  -3   1   85.78    2.99
   4  -3   0   75.06    2.31
  -4  -3   0   71.31    2.94
  -4  -3   0   79.21    2.79
  -4  -3  -1   23.60    1.52
  -4  -3  -1   21.55    1.23
  -4  -3  -2  110.93    3.64
  -4  -3  -2  100.18    4.44
  -4  -3  -2  109.41    3.89
  -4  -3  -3   11.08    1.49
  -4  -3  -3   13.84    1.17
  -4  -3  -3   12.78    1.25
  -4  -3  -4   23.56    1.65
   4  -3   4   17.78    2.34
   4  -3   5    5.84    1.91
  -4  -3  -5    8.18    1.33
  -4  -3  -6   43.46    2.49
   4  -3   6   39.36    3.45
   4  -3   7    2.02    1.88
   4  -3   8    3.96    2.16
   4  -3   9   16.72    3.14
   4  -3  10    2.13    2.59
  -4  -2  11    0.93    1.18
  -4  -2  10   17.83    1.72
  -4  -2   9    4.83    1.17
  -4  -2   8   18.88    1.55
  -4  -2   8   17.82    1.64
  -4  -2   7   54.22    2.61
  -4  -2   7   55.96    2.58
  -4  -2   6  159.01    5.37
  -4  -2   5   31.10    1.65
  -4  -2   4   24.14    1.82
  -4  -2   4   22.12    1.28
  -4  -2   3   30.11    1.49
  -4  -2   3   31.03    1.88
   4  -2  -3   31.79    1.79
  -4  -2   2  189.77    5.90
  -4  -2   2  195.50    6.21
   4  -2  -2  194.72    5.85
   4  -2  -1   22.50    1.09
  -4  -2   1   20.40    1.36
  -4  -2   1   21.71    1.17
  -4  -2   0  160.77    4.83
   4  -2   0  159.33    4.60
  -4  -2  -1  115.67    3.61
  -4  -2  -2    1.53    1.19
  -4  -2  -2    4.06    0.65
  -4  -2  -3   80.46    3.57
   4  -2   4   27.62    2.49
   4  -2   5   38.32    3.05
   4  -2   6   31.46    2.93
   4  -2   7   61.87    4.18
   4  -2   8    8.75    2.39
   4  -2   9    0.64    2.01
  -4  -1  12   18.69    2.32
  -4  -1  11    4.12    1.51
  -4  -1  10    8.71    1.55
  -4  -1  10    8.41    1.25
  -4  -1   9   16.00    1.67
  -4  -1   9   15.07    1.40
  -4  -1   8    9.17    1.16
  -4  -1   8    9.14    1.25
  -4  -1   7    1.25    0.73
   4  -1  -4   50.72    2.47
  -4  -1   3  309.66    8.97
   4  -1  -3  299.45    9.18
  -4  -1   2   25.35    1.25
   4  -1  -2   24.11    1.31
   4  -1  -1  154.59    4.67
  -4  -1   0    7.15    0.59
   4  -1   0    7.61    0.66
   4  -1   1  123.22    3.75
  -4  -1  -1  124.25    4.01
  -4  -1  -1  124.92    3.71
  -4  -1  -2  328.40    9.30
  -4  -1  -2  329.06    9.57
  -4  -1  -2  330.83   10.62
  -4  -1  -3   66.77    2.50
  -4  -1  -3   61.86    3.03
  -4  -1  -4  136.53    4.54
  -4  -1  -5   43.80    2.10
   4  -1   8   12.72    2.51
   4  -1   9   10.07    2.64
   4  -1  10    0.85    2.27
   4  -1  11    2.79    2.80
  -4   0  12   -0.81    1.51
  -4   0  11    4.35    1.48
  -4   0  10   10.28    1.61
  -4   0   9   22.66    1.84
  -4   0   9   19.52    1.39
  -4   0   8   26.35    1.54
  -4   0   8   27.79    1.82
  -4   0   7   54.12    2.47
  -4   0   7   55.84    2.27
  -4   0   6  167.03    5.49
  -4   0   5  167.81    5.37
  -4   0   4  602.70   17.01
   4   0  -4  592.20   17.28
  -4   0   3  106.78    3.43
   4   0  -3   97.53    3.52
   4   0  -2   12.34    1.02
  -4   0   2   12.78    1.15
   4   0  -1    6.88    0.75
   4   0  -1    6.87    0.60
  -4   0   1    7.26    0.83
   4   0   0  144.97    4.35
   4   0   0  139.19    4.09
  -4   0   0  151.22    4.50
   4   0   1  272.71    8.05
  -4   0  -1  274.56    8.09
  -4   0  -1  283.47    7.82
  -4   0  -2  101.30    2.97
  -4   0  -2   99.07    3.25
  -4   0  -2   96.62    4.13
  -4   0  -3  307.79    9.00
  -4   0  -4   42.58    1.86
   4   0   5   11.20    1.91
   4   0   6   63.20    3.97
   4   0   7   49.68    3.83
   4   0   8    2.29    1.91
   4   0   9    1.04    2.08
   4   0  10   -0.39    2.33
   4   0  11   -0.35    2.65
  -4   1  12   14.25    2.07
  -4   1  11    3.89    1.45
  -4   1  10    8.62    1.51
  -4   1   9   14.44    1.56
  -4   1   8   10.21    1.23
  -4   1   8    8.29    0.82
  -4   1   7    0.70    0.51
  -4   1   7    0.97    0.71
  -4   1   6   17.63    1.25
  -4   1   5  110.58    3.74
  -4   1   4   55.59    2.17
  -4   1   3  320.93    9.33
   4   1  -2   24.32    1.17
  -4   1   1  154.14    5.00
   4   1  -1  164.68    4.78
   4   1   0    8.00    0.68
   4   1   0    6.97    0.82
  -4   1   0    8.07    0.77
   4   1   1  132.09    4.20
  -4   1  -1  136.30    4.08
  -4   1  -1  124.66    5.01
  -4   1  -2  316.86    9.11
  -4   1  -2  328.21   10.11
  -4   1  -3   61.18    2.18
  -4   1  -4  108.15    3.53
   4   1   7   59.27    4.05
   4   1   8   11.04    2.51
   4   1   9    6.78    2.50
   4   1  10   -0.23    2.43
   4   1  11   -0.33    2.63
  -4   2  12   -2.38    1.62
  -4   2  11    0.56    1.26
  -4   2  10   15.21    1.72
  -4   2   9    5.15    1.18
  -4   2   8   16.83    1.45
  -4   2   7   51.89    2.33
  -4   2   6  166.88    5.38
  -4   2   5   31.00    1.49
  -4   2   4   23.04    1.19
  -4   2   3   29.92    1.34
   4   2  -2  193.11    6.36
   4   2  -2  228.22    6.35
   4   2  -1   19.85    1.25
   4   2  -1   21.20    1.09
   4   2   0  157.41    4.70
  -4   2   0  152.75    5.64
  -4   2  -1  128.80    3.77
  -4   2  -1  111.08    4.53
  -4   2  -2    3.20    0.91
  -4   2  -2    3.61    0.58
  -4   2  -3   74.85    2.46
  -4   2  -4   25.30    1.27
  -4   3   9    6.23    1.21
  -4   3   8   27.16    1.73
  -4   3   7  107.22    3.80
  -4   3   6   19.89    1.21
  -4   3   5   25.80    1.31
  -4   3   4   25.84    1.22
  -4   3   3   11.51    0.77
  -4   3   1   73.91    3.15
  -4   3   0   68.53    2.85
  -4   3  -1   21.50    1.44
  -4   3  -3   11.85    0.79
  -4   3  -4   19.03    1.05
  -4   4   5    5.38    0.68
  -4   4   4    2.30    0.54
  -4   4   3   32.05    1.30
  -4   4   2   63.26    2.24
  -4   4   2   60.32    2.49
  -4   4   1   14.40    0.99
  -4   4   1   11.80    1.04
  -4   4   0   41.22    1.89
  -4   4  -1   17.07    1.32
  -5  -7   4    1.17    1.39
  -5  -7   3    1.58    1.47
  -5  -7   2    5.20    1.66
  -5  -7   1    2.50    1.90
  -5  -7   0    2.69    1.79
  -5  -7  -1    1.73    1.90
  -5  -7  -2    3.12    2.06
  -5  -6   7   11.09    1.87
  -5  -6   6    3.85    1.34
  -5  -6   5    2.65    1.27
  -5  -6   4   14.64    2.74
  -5  -6   3   37.66    3.17
  -5  -6   2    0.94    1.79
  -5  -6   1   12.93    2.27
  -5  -6   0   15.12    2.22
  -5  -6  -1   17.38    2.32
  -5  -6  -2    1.29    1.65
  -5  -6  -3   19.03    2.31
  -5  -6  -3   26.64    2.12
  -5  -6  -4    4.85    2.00
  -5  -6  -4    8.15    1.77
  -5  -6  -5    4.38    1.79
  -5  -6  -5    2.35    1.96
  -5  -5   9   30.86    2.52
  -5  -5   9   27.81    2.52
  -5  -5   8   11.36    1.77
  -5  -5   7    0.56    1.22
  -5  -5   6    1.37    1.07
  -5  -5   6    1.92    1.12
  -5  -5   5   28.61    1.93
  -5  -5   4   37.36    2.07
  -5  -5   4   41.08    3.15
  -5  -5   3   38.68    2.96
  -5  -5   3   37.29    2.00
  -5  -5   2  125.29    4.40
  -5  -5   2  130.35    5.19
  -5  -5   1   15.23    2.04
  -5  -5   1   14.56    1.26
  -5  -5   0   18.37    2.15
  -5  -5  -1   50.54    2.99
  -5  -5  -1   66.53    2.93
  -5  -5  -2   38.90    2.66
  -5  -5  -2   49.97    2.46
  -5  -5  -3    3.93    1.26
  -5  -5  -3    1.61    1.46
  -5  -5  -4    2.66    1.39
  -5  -5  -4    1.62    1.55
  -5  -5  -5    7.04    1.63
  -5  -5  -5    4.90    1.73
  -5  -5  -6   19.90    2.07
  -5  -5  -6   15.11    2.19
  -5  -5  -7    2.66    1.76
  -5  -5  -7    2.48    1.89
  -5  -4  10    6.51    1.70
  -5  -4  10    6.55    1.63
  -5  -4   9   -0.34    1.25
  -5  -4   9    0.03    1.25
  -5  -4   8   17.05    1.74
  -5  -4   8   17.96    1.79
  -5  -4   7   22.64    1.81
  -5  -4   7   25.02    1.94
  -5  -4   6    2.34    0.94
  -5  -4   5   28.25    1.79
  -5  -4   4   45.24    2.17
  -5  -4   4   42.81    3.12
  -5  -4   3   49.02    2.21
  -5  -4   3   54.34    3.02
  -5  -4   2   20.13    2.02
  -5  -4   2   20.21    1.33
  -5  -4   1   43.75    2.10
  -5  -4   1   39.78    1.84
  -5  -4   1   38.89    2.45
  -5  -4   0   71.33    2.71
  -5  -4   0   69.15    3.23
  -5  -4  -1   70.67    3.37
  -5  -4  -1   92.69    3.35
  -5  -4  -2   41.96    2.45
  -5  -4  -2   46.57    2.14
  -5  -4  -3   19.22    1.81
  -5  -4  -3   21.32    1.61
  -5  -4  -4   34.79    2.33
  -5  -4  -4   42.57    2.22
  -5  -4  -5   11.35    1.50
  -5  -4  -5    9.48    1.65
  -5  -4  -6    8.78    1.61
  -5  -4  -6    7.90    1.79
   5  -4   7   -1.06    2.49
  -5  -4  -7    1.86    1.72
   5  -4   8   -1.77    2.86
  -5  -4  -8    0.73    1.89
  -5  -3  11    0.99    1.51
  -5  -3  11    2.01    1.38
  -5  -3  10    3.94    1.37
  -5  -3  10    5.17    1.52
  -5  -3   9   48.05    2.79
  -5  -3   9   47.33    2.78
  -5  -3   8    5.83    1.23
  -5  -3   8    3.98    1.13
  -5  -3   7   -0.17    0.94
  -5  -3   6   21.90    1.60
  -5  -3   5   49.51    2.32
  -5  -3   4   68.88    2.73
  -5  -3   4   71.31    3.50
   5  -3  -4   63.77    3.01
  -5  -3   3   29.60    1.59
   5  -3  -3   27.87    1.70
  -5  -3   3   31.09    2.10
   5  -3  -2   69.65    2.45
  -5  -3   2   73.66    3.16
   5  -3  -1   46.11    1.59
  -5  -3   1   41.92    2.25
  -5  -3   1   47.28    2.00
  -5  -3   1   40.82    1.92
  -5  -3   0   13.27    1.07
   5  -3   0   10.81    0.58
  -5  -3   0   11.95    1.30
  -5  -3  -1   10.23    1.32
  -5  -3  -1   10.50    1.06
  -5  -3  -2   41.36    2.18
  -5  -3  -2   42.51    1.88
  -5  -3  -3   90.64    3.21
  -5  -3  -3   81.80    3.43
  -5  -3  -4   11.34    1.26
  -5  -3  -4    9.39    1.35
  -5  -3  -5   61.58    2.68
   5  -3   6    3.73    2.23
   5  -3   7   -0.08    2.14
   5  -3   8    4.87    2.66
   5  -3   9    1.92    2.73
  -5  -2  12    7.67    1.66
  -5  -2  11   10.74    1.65
  -5  -2  10   19.57    1.79
  -5  -2   9    6.07    1.23
  -5  -2   8   56.24    2.74
  -5  -2   8   54.10    2.82
  -5  -2   7   67.74    3.03
  -5  -2   6   65.98    2.86
  -5  -2   5   27.31    1.58
  -5  -2   4  154.00    5.11
   5  -2  -4  154.16    5.32
  -5  -2   4  150.74    5.59
  -5  -2   3  107.76    3.82
   5  -2  -3  113.68    3.86
  -5  -2   3  112.44    4.25
   5  -2  -2    3.30    0.85
  -5  -2   2    4.29    0.70
   5  -2  -1  106.87    3.33
  -5  -2   1  102.42    3.50
  -5  -2   0   11.90    0.93
   5  -2   0   13.95    0.84
  -5  -2  -1   39.65    1.73
  -5  -2  -2   36.58    1.57
  -5  -2  -3   85.03    2.95
  -5  -2  -4  160.58    5.07
  -5  -2  -5   10.20    1.38
   5  -2   6   -0.07    1.95
  -5  -2  -6    2.67    1.31
   5  -2   7   15.16    2.99
  -5  -2  -7   19.41    2.01
   5  -2   8    5.30    2.56
  -5  -2  -8    8.96    1.86
   5  -2   9    5.57    2.72
  -5  -2  -9    7.65    2.07
  -5  -2 -10    2.69    2.18
  -5  -1  12   17.45    2.34
  -5  -1  11    8.33    1.79
  -5  -1  11    9.90    1.46
  -5  -1  10    0.45    1.17
  -5  -1  10    1.40    0.96
  -5  -1   9    2.93    1.10
  -5  -1   9    1.24    0.91
  -5  -1   8   10.35    1.20
  -5  -1   8   10.83    1.35
   5  -1  -3   33.32    1.75
  -5  -1   3   34.52    1.64
   5  -1  -2   96.94    3.15
  -5  -1   2   82.66    3.32
   5  -1  -1   24.51    1.25
  -5  -1   1   19.95    1.38
  -5  -1   0   32.28    1.39
   5  -1   0   31.38    1.37
   5  -1   0   29.68    0.99
  -5  -1   0   29.85    1.59
   5  -1   1   37.25    1.59
  -5  -1  -1   39.03    1.82
  -5  -1  -1   41.42    1.56
  -5  -1  -2   91.05    2.91
  -5  -1  -2   94.62    3.31
  -5  -1  -3   43.79    1.69
  -5  -1  -3   43.15    2.00
  -5  -1  -4   92.24    3.42
  -5  -1  -5  158.20    5.36
  -5  -1  -6   20.22    1.75
  -5  -1  -7    8.43    1.56
   5  -1   8    5.94    2.51
  -5  -1  -8    5.88    1.60
   5  -1   9    1.33    2.56
  -5  -1  -9    4.27    1.79
   5  -1  10    0.46    2.78
  -5  -1 -10    0.70    1.88
  -5   0  12    0.29    1.52
  -5   0  11   24.12    2.25
  -5   0  10   35.84    2.44
  -5   0  10   30.44    1.81
  -5   0   9    6.17    1.24
  -5   0   9    5.97    0.99
  -5   0   8   -0.08    0.66
  -5   0   8   -0.69    0.85
  -5   0   7    5.79    1.02
  -5   0   6    7.51    1.01
  -5   0   5  152.75    5.10
  -5   0   4   63.52    2.49
  -5   0   3  158.62    4.70
   5   0  -3  141.77    4.69
   5   0  -2   10.59    1.12
  -5   0   2    9.05    1.15
   5   0  -1  150.68    4.43
   5   0  -1  159.85    4.77
  -5   0   1  144.90    4.91
  -5   0   0    6.37    0.90
   5   0   0    5.41    0.55
   5   0   0    5.25    0.79
   5   0   1  157.58    4.95
  -5   0  -1  164.76    5.11
  -5   0  -2   62.65    2.55
  -5   0  -2   74.83    2.29
  -5   0  -3   71.98    2.28
  -5   0  -3   68.24    2.62
  -5   0  -4   22.03    1.43
  -5   0  -5    2.25    1.01
  -5   0  -6    6.62    1.27
  -5   0  -7    0.54    1.16
   5   0   9    0.25    2.43
   5   0  10    0.55    2.67
  -5   1  12   17.60    2.18
  -5   1  11    7.91    1.75
  -5   1  10    1.99    1.22
  -5   1   9    0.91    0.99
  -5   1   8    7.90    0.85
  -5   1   8    9.18    1.18
  -5   1   7   11.01    1.23
  -5   1   6   60.32    2.55
  -5   1   5   34.51    1.73
  -5   1   4   21.45    1.26
  -5   1   3   35.38    1.67
   5   1  -3   37.02    1.62
   5   1  -2  102.67    3.20
   5   1  -2   96.86    3.43
   5   1  -1   19.20    1.28
  -5   1   1   20.11    1.33
   5   1  -1   21.92    1.02
   5   1   0   30.62    1.25
   5   1   0   26.97    1.46
  -5   1   0   31.09    1.55
  -5   1  -1   41.19    1.74
  -5   1  -2   87.39    2.97
  -5   1  -3   42.00    1.33
  -5   1  -3   37.97    1.72
  -5   1  -4   75.66    2.76
  -5   1  -5  134.73    4.51
  -5   1  -6   15.47    1.47
  -5   1  -7    5.24    1.27
  -5   2  12    7.56    1.66
  -5   2  11   10.45    1.73
  -5   2  10   18.23    1.81
  -5   2   9    5.66    1.19
  -5   2   8   54.30    2.57
  -5   2   7   70.41    2.90
  -5   2   6   66.91    2.70
  -5   2   5   26.47    1.48
  -5   2   4  151.44    4.83
  -5   2   0    7.80    1.07
  -5   2  -1   36.20    1.64
  -5   2  -2   34.36    1.53
  -5   2  -3   77.19    2.68
  -5   2  -4  137.74    4.38
  -5   2  -5    7.76    1.07
  -5   2  -6    1.51    1.00
  -5   2  -7   12.06    1.40
  -5   3   9   44.44    2.38
  -5   3   8    4.28    1.00
  -5   3   7    0.03    0.76
  -5   3   6   19.59    1.29
  -5   3   5   47.04    1.98
  -5   3   4   65.48    2.42
  -5   3   3   28.51    1.40
  -5   3   1   39.94    2.42
  -5   3  -2   -0.14    0.57
  -5   3  -3   94.18    3.06
  -5   3  -4    7.92    0.97
  -5   4   5   20.27    1.20
  -5   4   4   36.20    1.57
  -5   4   3   38.16    1.59
  -5   4   1   34.38    2.00
  -6  -6   6    1.92    1.32
  -6  -6   4   14.01    2.80
  -6  -6   3    0.60    2.16
  -6  -6   2    1.65    1.92
  -6  -6   1    4.00    2.15
  -6  -6   0    1.00    2.05
  -6  -6  -1    1.78    2.05
  -6  -6  -1    2.10    1.63
  -6  -6  -2    1.79    1.91
  -6  -6  -2    2.88    1.68
  -6  -6  -3    3.28    1.86
  -6  -6  -3    6.53    2.07
  -6  -6  -4   -0.38    2.09
  -6  -6  -4   -1.93    1.84
  -6  -5   8    1.55    1.46
  -6  -5   8    2.10    1.36
  -6  -5   7   -0.24    1.19
  -6  -5   6   49.81    2.70
  -6  -5   5    1.07    2.27
  -6  -5   5    0.19    1.00
  -6  -5   4   19.89    1.66
  -6  -5   4   20.49    2.84
  -6  -5   3   21.71    1.64
  -6  -5   3   24.88    2.61
  -6  -5   2   -0.10    1.69
  -6  -5   2    0.20    0.87
  -6  -5   1    5.50    1.00
  -6  -5   1    6.02    1.51
  -6  -5   0   37.79    2.23
  -6  -5   0   32.71    2.68
  -6  -5  -1   41.26    2.30
  -6  -5  -1   35.19    2.70
  -6  -5  -2   26.06    2.26
  -6  -5  -2   36.13    2.35
  -6  -5  -3    0.66    1.60
  -6  -5  -3    0.18    1.35
  -6  -5  -4   23.62    1.96
  -6  -5  -4   15.78    2.19
  -6  -5  -5    5.55    1.72
  -6  -5  -5    2.16    1.89
  -6  -5  -6    2.00    2.01
  -6  -5  -6    2.44    1.76
  -6  -4  10    0.34    1.36
  -6  -4  10    0.74    1.37
  -6  -4   9   11.63    1.78
  -6  -4   9   11.25    1.72
  -6  -4   8   12.76    1.66
  -6  -4   8   14.51    1.73
  -6  -4   7    4.82    1.20
  -6  -4   6   -0.07    0.94
  -6  -4   5    4.03    2.08
  -6  -4   5    5.38    1.09
  -6  -4   4    9.44    2.18
  -6  -4   4   10.25    1.20
  -6  -4   3   10.42    1.86
  -6  -4   3   11.04    1.18
  -6  -4   2    2.26    1.53
  -6  -4   2    2.13    0.84
  -6  -4   1   31.94    1.76
  -6  -4   1   37.04    2.04
  -6  -4   1   29.97    2.44
  -6  -4   0   67.84    2.79
  -6  -4   0   63.56    3.31
  -6  -4  -1   29.32    1.80
  -6  -4  -1   25.40    2.11
  -6  -4  -2   74.94    3.07
  -6  -4  -2   65.67    3.39
  -6  -4  -3    4.78    1.22
  -6  -4  -3    3.53    1.44
  -6  -4  -4    4.81    1.34
  -6  -4  -4    3.00    1.53
  -6  -4  -5    4.06    1.67
  -6  -4  -5    5.23    1.45
  -6  -4  -6    3.97    1.57
  -6  -4  -6    3.67    1.76
  -6  -4  -7    8.16    1.79
  -6  -4  -7    6.32    2.00
  -6  -3  11   -0.42    1.49
  -6  -3  11   -0.25    1.28
  -6  -3  10    5.32    1.57
  -6  -3  10    3.63    1.47
  -6  -3   9    0.79    1.17
  -6  -3   9   -0.93    1.11
  -6  -3   8    1.02    1.10
  -6  -3   8    0.67    0.99
  -6  -3   7   27.42    1.94
  -6  -3   6   65.14    2.96
  -6  -3   5   20.04    1.50
  -6  -3   5   21.00    2.31
  -6  -3   4   21.52    1.50
  -6  -3   4   23.67    2.27
  -6  -3   3   21.80    1.53
  -6  -3   3   20.77    1.94
  -6  -3   2   24.25    1.51
  -6  -3   2   26.91    2.04
  -6  -3   1    4.71    1.30
  -6  -3   1    3.85    0.86
  -6  -3   1    4.23    1.09
  -6  -3   0   15.13    1.29
  -6  -3   0   14.98    1.66
  -6  -3  -1  158.79    5.13
  -6  -3  -2    5.59    1.07
  -6  -3  -3   18.30    1.40
  -6  -3  -4    5.60    1.22
  -6  -3  -5   47.31    2.35
  -6  -3  -6    3.68    1.35
  -6  -3  -7    1.37    1.45
  -6  -2  11   19.89    1.97
  -6  -2  10    7.95    1.45
  -6  -2   9    4.36    1.17
  -6  -2   8   27.28    1.98
  -6  -2   7   22.53    1.74
  -6  -2   6    4.50    1.04
  -6  -2   5  109.52    4.09
  -6  -2   4   78.65    3.15
  -6  -2   3   26.34    1.53
   6  -2  -3   22.96    1.59
  -6  -2   2   17.45    1.28
   6  -2  -2   18.38    1.31
   6  -2  -1  149.63    4.65
   6  -2   0  160.58    4.89
  -6  -2   0  163.35    5.07
  -6  -2  -1   19.02    1.23
  -6  -2  -2   99.12    3.94
  -6  -2  -2  109.93    3.56
  -6  -2  -3    1.26    0.85
  -6  -2  -3    1.35    1.09
  -6  -2  -4   62.47    2.97
  -6  -2  -4   71.00    2.64
  -6  -2  -5   15.45    1.38
  -6  -2  -5   14.38    1.65
  -6  -2  -6   33.11    2.35
  -6  -2  -7   16.39    2.00
  -6  -2  -8    9.11    1.99
  -6  -2  -9    7.80    2.18
  -6  -1  12    2.32    1.75
  -6  -1  11    5.22    1.67
  -6  -1  11    4.43    1.28
  -6  -1  10   35.45    2.25
  -6  -1  10   37.09    2.54
  -6  -1   9   17.58    1.53
  -6  -1   9   17.94    1.79
  -6  -1   8    4.56    1.14
  -6  -1   4    8.55    1.44
  -6  -1   3   28.23    1.60
  -6  -1   3   27.10    1.96
   6  -1  -2  173.02    5.32
  -6  -1   2  159.11    5.64
   6  -1  -1  168.00    5.01
  -6  -1   1  177.03    5.83
  -6  -1   0   -0.02    0.93
   6  -1   0    0.25    0.39
   6  -1   0   -0.72    0.75
  -6  -1  -1   87.75    2.94
   6  -1   1   87.23    3.00
  -6  -1  -1   84.78    3.27
  -6  -1  -2   16.59    1.41
  -6  -1  -2   22.04    1.24
  -6  -1  -3    8.43    0.86
  -6  -1  -3    8.26    1.17
  -6  -1  -4   11.99    1.05
  -6  -1  -4   10.61    1.39
  -6  -1  -5   47.69    2.03
  -6  -1  -5   41.76    2.42
  -6  -1  -6   16.04    1.68
  -6  -1  -7   15.36    1.85
  -6  -1  -8   29.58    2.47
  -6  -1  -9    3.79    1.95
  -6   0  12    4.93    1.76
  -6   0  11   23.33    2.30
  -6   0  10   23.30    2.06
  -6   0   9    2.46    1.17
  -6   0   9    3.26    0.91
  -6   0   8    5.30    1.20
  -6   0   7  267.92    8.57
  -6   0   6    0.29    0.77
  -6   0   5  126.99    4.51
  -6   0   4   35.21    1.81
  -6   0   3    1.12    1.09
  -6   0   3    1.39    0.63
   6   0  -2   37.67    1.45
  -6   0   2   32.27    1.99
  -6   0   1   15.07    1.32
   6   0  -1   18.52    1.01
   6   0   0   10.51    0.72
  -6   0   0   10.53    1.12
  -6   0  -1   12.51    1.16
  -6   0  -2    7.44    0.80
  -6   0  -2    6.28    1.00
  -6   0  -3    7.35    0.74
  -6   0  -3    5.74    1.04
  -6   0  -4   27.06    1.22
  -6   0  -4   20.73    1.57
  -6   0  -5    2.13    1.07
  -6   0  -6    0.38    1.11
  -6   0  -7    1.52    1.30
  -6   0  -8    4.47    1.60
  -6   0  -9    1.09    1.67
  -6   1  12    3.66    1.73
  -6   1  11    4.09    1.54
  -6   1  10   33.32    2.33
  -6   1   9   16.62    1.65
  -6   1   8    4.89    1.12
  -6   1   7    8.01    1.15
  -6   1   6  168.31    5.65
  -6   1   5    2.84    0.84
  -6   1   4    8.59    0.95
  -6   1   2  159.15    5.56
   6   1  -1  177.28    5.26
  -6   1   1  179.28    5.81
  -6   1   0   -0.21    0.91
   6   1   0   -0.13    0.66
  -6   1  -1   97.82    3.55
  -6   1  -2   19.97    1.38
  -6   1  -3    5.17    1.06
  -6   1  -4    9.43    1.17
  -6   1  -5   36.31    1.96
  -6   1  -6   12.76    1.43
  -6   1  -7    9.88    1.50
  -6   1  -8   18.75    1.96
  -6   1  -9    2.83    1.64
  -6   2  11   18.43    2.03
  -6   2  10    7.75    1.46
  -6   2   9    4.49    1.21
  -6   2   8   23.75    1.70
  -6   2   7   22.68    1.60
  -6   2   6    3.22    0.90
  -6   2   5  104.76    3.77
  -6   2   4   75.02    2.86
  -6   2   0  131.77    4.63
  -6   2  -1   20.92    1.52
  -6   2  -2  122.54    4.17
  -6   2  -3    2.57    0.98
  -6   2  -4   59.49    2.45
  -6   2  -5   10.68    1.21
  -6   2  -6   23.04    1.67
  -6   3   9    0.55    0.95
  -6   3   8    1.11    0.87
  -6   3   7   26.03    1.61
  -6   3   6   59.96    2.47
  -6   3   5   20.24    1.33
  -6   3   4   19.54    1.25
  -6   4   5    3.57    0.79
  -6   4   4    6.85    0.87
  -6   4   3    9.34    0.95
  -7  -6   5    1.00    2.81
  -7  -6   4    0.57    2.57
  -7  -6   3    1.90    2.52
  -7  -6   2   14.40    2.72
  -7  -6   1   15.89    2.68
  -7  -6   1   18.56    2.27
  -7  -6   0    6.90    2.31
  -7  -6   0    7.53    1.92
  -7  -6  -1    2.70    1.68
  -7  -6  -1    3.20    2.12
  -7  -6  -2   11.20    2.55
  -7  -6  -2   12.55    2.09
  -7  -5   8   11.13    1.83
  -7  -5   8   14.39    1.95
  -7  -5   7   13.18    1.84
  -7  -5   6   12.00    1.60
  -7  -5   5    5.48    2.64
  -7  -5   5    3.47    1.22
  -7  -5   4    3.93    2.34
  -7  -5   4    3.00    1.12
  -7  -5   3   17.91    2.54
  -7  -5   3   14.61    1.48
  -7  -5   2   10.39    2.16
  -7  -5   2   10.33    1.34
  -7  -5   1   -0.45    2.05
  -7  -5   1    1.70    1.55
  -7  -5   1    2.66    1.08
  -7  -5   0   27.73    2.12
  -7  -5   0   23.98    2.42
  -7  -5  -1    4.80    1.96
  -7  -5  -1    4.81    1.52
  -7  -5  -2    2.45    1.72
  -7  -5  -2    2.34    1.40
  -7  -5  -3    7.02    1.93
  -7  -5  -3   10.02    1.92
  -7  -5  -4    5.89    2.04
  -7  -5  -4    3.93    1.74
  -7  -5  -5    0.68    1.62
  -7  -5  -5    0.04    2.00
  -7  -4   9    4.29    1.51
  -7  -4   9    4.06    1.47
  -7  -4   8   13.63    1.76
  -7  -4   7    6.60    1.43
  -7  -4   6   -0.27    1.00
  -7  -4   5   11.19    2.56
  -7  -4   5   10.97    1.41
  -7  -4   4   28.11    1.88
  -7  -4   4   31.03    3.01
  -7  -4   3   -0.22    1.60
  -7  -4   3    0.15    0.81
  -7  -4   2    0.92    1.52
  -7  -4   2    0.19    0.82
  -7  -4   1    2.99    1.64
  -7  -4   1    2.91    1.32
  -7  -4   1    4.21    1.00
  -7  -4   0   11.10    1.84
  -7  -4   0   13.34    1.52
  -7  -4   0   11.41    1.24
  -7  -4  -1    9.71    1.78
  -7  -4  -1   10.23    1.46
  -7  -4  -2   20.38    2.01
  -7  -4  -2   21.99    1.79
  -7  -4  -3   24.84    2.38
  -7  -4  -3   32.03    2.17
  -7  -4  -4   -0.09    1.25
  -7  -4  -4   -0.19    1.57
  -7  -4  -5   11.75    1.70
  -7  -4  -5    6.30    1.98
  -7  -4  -6    1.66    1.65
  -7  -3  10    5.08    1.54
  -7  -3  10    4.09    1.41
  -7  -3   9   10.90    1.68
  -7  -3   9   10.87    1.67
  -7  -3   8    2.30    1.23
  -7  -3   7   10.94    1.45
  -7  -3   6    6.78    1.23
  -7  -3   5   13.79    2.28
  -7  -3   5   11.71    1.36
  -7  -3   4   11.46    2.06
  -7  -3   4   11.53    1.28
  -7  -3   3   39.41    2.09
  -7  -3   3   39.46    2.71
  -7  -3   2    6.91    1.59
  -7  -3   2    6.67    1.07
  -7  -3   0   18.79    1.52
  -7  -3  -1    2.68    1.11
  -7  -3  -2    5.19    1.22
  -7  -3  -3   30.17    1.88
  -7  -3  -4   10.18    1.34
  -7  -3  -5    1.73    1.25
  -7  -3  -6    0.88    1.63
  -7  -3  -6    2.68    1.42
  -7  -3  -7   17.33    1.99
  -7  -3  -7   11.91    2.29
  -7  -2  11    2.77    1.42
  -7  -2  10    1.74    1.18
  -7  -2   8   27.54    2.12
  -7  -2   7    9.32    1.35
  -7  -2   6   28.84    1.94
  -7  -2   5   47.34    2.43
  -7  -2   4   30.49    1.84
  -7  -2   3   61.54    2.74
  -7  -2   2  154.13    5.30
   7  -2  -1   59.30    2.32
  -7  -2   1   56.07    2.90
  -7  -2   0    9.23    1.51
  -7  -2   0   10.85    1.34
   7  -2   0    8.74    1.06
  -7  -2  -1    1.12    1.09
  -7  -2  -1    0.76    0.97
  -7  -2  -2   23.89    1.49
  -7  -2  -2   24.19    1.92
  -7  -2  -3   29.77    2.12
  -7  -2  -3   35.93    1.85
  -7  -2  -4   25.24    2.04
  -7  -2  -4   28.65    1.63
  -7  -2  -5   18.66    1.94
  -7  -2  -5   24.20    1.69
  -7  -2  -6   25.89    1.87
  -7  -2  -6   19.66    2.15
  -7  -2  -7   15.35    2.14
  -7  -2  -8    5.17    2.05
  -7  -1  11   19.12    2.24
  -7  -1  10   19.10    1.72
  -7  -1  10   22.36    2.16
  -7  -1   9    8.34    1.49
  -7  -1   8   18.49    1.75
  -7  -1   4   65.56    3.45
  -7  -1   3   81.55    3.26
  -7  -1   3   76.74    3.60
  -7  -1   2   11.28    1.46
  -7  -1   1   39.93    2.30
   7  -1  -1   39.55    1.49
  -7  -1   0   65.96    2.97
  -7  -1  -1   70.23    3.01
  -7  -1  -2   46.04    1.98
  -7  -1  -2   46.91    2.46
  -7  -1  -3   88.90    3.87
  -7  -1  -3  110.47    3.51
  -7  -1  -4  104.14    4.21
  -7  -1  -4  114.14    3.63
  -7  -1  -5    3.50    1.36
  -7  -1  -6   14.85    1.82
  -7  -1  -7   16.02    2.08
  -7  -1  -8    1.62    1.78
  -7   0  11    4.68    1.56
  -7   0  10    3.47    1.38
  -7   0   9   56.65    3.02
  -7   0   8   21.26    1.79
  -7   0   7   44.24    2.39
  -7   0   6    3.01    1.07
  -7   0   5   98.68    3.80
  -7   0   4    1.39    0.79
  -7   0   3    2.92    1.40
   7   0  -2   87.93    2.88
  -7   0   2   89.94    3.78
   7   0  -1  106.29    3.33
  -7   0   1  114.81    4.17
  -7   0   0   -0.29    1.00
  -7   0  -1   22.73    1.69
  -7   0  -2    9.48    1.24
  -7   0  -3    1.11    0.84
  -7   0  -3    0.63    1.01
  -7   0  -4   24.00    1.82
  -7   0  -5   15.47    1.59
  -7   0  -6    0.51    1.30
  -7   0  -7    4.85    1.59
  -7   0  -8    2.06    1.61
  -7   1  11   16.87    2.04
  -7   1  10   18.26    1.95
  -7   1   9    5.37    1.31
  -7   1   8   16.82    1.64
  -7   1   7    3.56    1.00
  -7   1   6   12.61    1.32
  -7   1   5    2.83    0.89
  -7   1   4   66.43    2.81
  -7   1   2    6.01    1.65
  -7   1   1   41.41    2.35
  -7   1   0   72.29    3.09
  -7   1  -1   67.75    2.90
  -7   1  -2   41.42    2.15
  -7   1  -3   90.16    3.47
  -7   1  -4   98.27    3.72
  -7   1  -5    3.03    1.20
  -7   1  -6   13.65    1.64
  -7   1  -7   12.75    1.82
  -7   1  -8    1.02    1.53
  -7   2  11    2.06    1.43
  -7   2  10    0.20    1.21
  -7   2   9   18.53    1.70
  -7   2   8   22.07    1.73
  -7   2   7    6.37    1.11
  -7   2   6   28.18    1.80
  -7   2   5   45.00    2.19
  -7   2   4   28.78    1.69
  -7   2   0    6.95    1.52
  -7   2  -1    6.56    1.37
  -7   2  -2   25.02    1.86
  -7   2  -3   33.25    1.98
  -7   2  -4   23.16    1.76
  -7   3   8    1.72    1.04
  -7   3   7   10.24    1.24
  -7   3   6    6.19    1.05
  -7   3   5   11.03    1.15
  -7   3   4    9.14    1.08
  -7   4   4   22.40    1.43
  -8  -6   2   14.28    2.90
  -8  -6   1    2.78    2.38
  -8  -5   7   25.01    2.21
  -8  -5   6   12.05    1.76
  -8  -5   5    9.80    3.03
  -8  -5   5    7.51    1.52
  -8  -5   4   51.41    2.80
  -8  -5   4   67.30    4.49
  -8  -5   3    4.17    2.29
  -8  -5   3    4.30    1.28
  -8  -5   2    0.94    2.05
  -8  -5   2    1.19    1.08
  -8  -5   1    7.83    2.31
  -8  -5   0    1.43    2.04
  -8  -5   0    1.18    1.61
  -8  -5  -1    0.64    1.94
  -8  -5  -1    1.93    1.59
  -8  -5  -2   10.05    2.37
  -8  -5  -2   13.58    1.96
  -8  -5  -3    7.12    2.14
  -8  -5  -3    8.12    1.87
  -8  -4   8    1.85    1.31
  -8  -4   7   10.78    1.65
  -8  -4   6   38.00    2.44
  -8  -4   5   15.35    2.91
  -8  -4   5   12.75    1.51
  -8  -4   4    4.83    2.35
  -8  -4   4    8.17    1.31
  -8  -4   3   11.17    2.31
  -8  -4   3    9.96    1.41
  -8  -4   2   16.69    1.61
  -8  -4   2   22.51    2.48
  -8  -4   1   30.27    2.04
  -8  -4   1   36.55    2.87
  -8  -4   0   -0.07    1.70
  -8  -4   0    0.76    1.46
  -8  -4   0   -0.22    1.06
  -8  -4  -1   20.02    1.87
  -8  -4  -1   18.82    2.39
  -8  -4  -2    3.11    1.74
  -8  -4  -2    3.28    1.39
  -8  -4  -3    2.28    1.40
  -8  -4  -4    3.76    1.81
  -8  -4  -5   -0.28    1.59
  -8  -3  10    2.98    1.62
  -8  -3  10    2.44    1.47
  -8  -3   9   -0.68    1.32
  -8  -3   8    9.05    1.66
  -8  -3   7   29.69    2.24
  -8  -3   6    8.06    1.36
  -8  -3   5   19.97    2.75
  -8  -3   5   22.07    1.82
  -8  -3   4    4.93    1.19
  -8  -3   3   19.62    1.64
  -8  -3   2    8.15    1.23
  -8  -3  -1    4.92    1.29
  -8  -3  -2    5.17    1.29
  -8  -3  -3   22.99    2.31
  -8  -3  -3   25.47    1.83
  -8  -3  -4    4.07    1.75
  -8  -3  -4    5.65    1.64
  -8  -3  -5    1.30    1.34
  -8  -3  -5    1.00    1.72
  -8  -3  -6    2.58    1.97
  -8  -2  10   31.80    2.41
  -8  -2   8   16.35    1.83
  -8  -2   7    4.66    1.29
  -8  -2   6   38.89    2.34
  -8  -2   5    3.09    1.08
  -8  -2   4   32.80    2.04
  -8  -2   3   29.49    1.91
  -8  -2   3   29.30    2.54
  -8  -2   2   25.82    2.21
  -8  -2   1    2.07    1.45
  -8  -2   0   11.47    1.69
  -8  -2  -1   88.47    3.38
  -8  -2  -1   80.03    3.80
  -8  -2  -2   33.35    1.87
  -8  -2  -2   30.00    2.22
  -8  -2  -3    0.36    1.46
  -8  -2  -3    1.78    1.09
  -8  -2  -4    9.15    1.57
  -8  -2  -4    8.09    1.72
  -8  -2  -5    3.44    1.67
  -8  -2  -6   -2.24    1.87
  -8  -2  -7   -3.16    1.99
  -8  -1  11    6.58    1.81
  -8  -1  10    1.10    1.21
  -8  -1  10    2.30    1.42
  -8  -1   9    5.68    1.57
  -8  -1   8    6.00    1.40
  -8  -1   4   33.56    2.68
  -8  -1   3    1.68    1.49
  -8  -1   3    1.49    0.91
  -8  -1   2   -0.25    1.32
  -8  -1   1   53.21    2.96
  -8  -1   0  150.22    5.49
  -8  -1  -1    4.65    1.48
  -8  -1  -2   34.05    2.17
  -8  -1  -3   41.58    2.51
  -8  -1  -4    0.54    1.33
  -8  -1  -5    1.98    1.54
  -8  -1  -6    7.61    1.86
  -8  -1  -7   10.16    2.05
  -8   0  11    0.74    1.45
  -8   0  10   -0.98    1.42
  -8   0   9    3.78    1.40
  -8   0   8   22.28    1.98
  -8   0   7    0.19    1.01
  -8   0   6   27.43    1.95
  -8   0   5   34.70    2.08
  -8   0   4   -0.23    0.85
  -8   0   3   83.62    3.94
  -8   0   2    0.25    1.37
  -8   0   1    1.16    1.24
  -8   0   0    2.46    1.29
  -8   0  -1    6.46    1.48
  -8   0  -2   15.82    1.70
  -8   0  -3    4.14    1.35
  -8   0  -4   -0.42    1.23
  -8   0  -5   18.30    1.91
  -8   0  -6   11.65    1.83
  -8   0  -7    0.08    1.55
  -8   1  11    5.88    1.63
  -8   1  10    0.81    1.29
  -8   1   9    1.88    1.29
  -8   1   8    4.27    1.28
  -8   1   7    9.90    1.39
  -8   1   6    5.74    1.18
  -8   1   5    3.43    1.02
  -8   1   4   37.77    2.12
  -8   1   1   51.72    3.12
  -8   1   0  171.40    6.05
  -8   1  -1    3.04    1.43
  -8   1  -2   36.44    2.41
  -8   1  -3   40.86    2.34
  -8   1  -4    0.69    1.30
  -8   1  -5    0.60    1.37
  -8   1  -6    3.91    1.67
  -8   2  10   26.85    2.14
  -8   2   9   15.12    1.75
  -8   2   8   13.85    1.61
  -8   2   7    2.70    1.10
  -8   2   6   36.19    2.12
  -8   2   5    2.58    0.96
  -8   2   4   33.05    1.95
  -8   2   0    3.73    1.80
  -8   2  -1  103.66    4.18
  -8   2  -2   35.24    2.52
  -8   3   8    8.05    1.32
  -8   3   7   25.29    1.76
  -8   3   6    6.67    1.13
  -8   3   5   19.17    1.49
  -8   3   4    4.66    1.02
  -8   4   4    4.64    1.03
  -9  -5   5    9.36    3.12
  -9  -5   5    7.42    1.60
  -9  -5   4   -1.41    2.75
  -9  -5   4   -0.09    1.18
  -9  -5   3   -1.67    2.51
  -9  -5   3    0.51    1.22
  -9  -5   2   13.68    2.68
  -9  -5   1    1.46    2.25
  -9  -5   0   -0.09    2.24
  -9  -5  -1    3.51    2.20
  -9  -5  -1    6.82    1.91
  -9  -4   7   10.52    1.76
  -9  -4   6    7.23    1.56
  -9  -4   5    5.52    2.68
  -9  -4   5    5.43    1.40
  -9  -4   4    9.79    2.82
  -9  -4   4   10.15    1.58
  -9  -4   3   37.91    2.51
  -9  -4   3   35.96    3.42
  -9  -4   2   23.34    1.90
  -9  -4   2   22.64    2.83
  -9  -4   1   -0.21    1.94
  -9  -4   1   -1.19    1.19
  -9  -4   0   -0.28    1.12
  -9  -4  -1    1.05    1.55
  -9  -4  -2    0.91    1.54
  -9  -4  -3    2.10    1.64
  -9  -3   9   20.32    2.25
  -9  -3   8    6.09    1.60
  -9  -3   7    0.71    1.28
  -9  -3   6    3.13    1.30
  -9  -3   5   29.89    2.19
  -9  -3   4   35.13    2.42
  -9  -3   3    4.79    1.23
  -9  -3   2    8.23    1.42
  -9  -3   0   -1.47    1.86
  -9  -3  -1    1.50    1.73
  -9  -3  -2   16.41    2.21
  -9  -3  -2   16.74    1.79
  -9  -3  -3    5.63    1.86
  -9  -3  -4    3.36    1.90
  -9  -3  -5    3.91    2.09
  -9  -2   8    5.28    1.54
  -9  -2   7    9.72    1.60
  -9  -2   6   19.87    1.92
  -9  -2   5    5.95    2.22
  -9  -2   5    6.12    1.39
  -9  -2   4    8.57    2.24
  -9  -2   4    8.95    1.39
  -9  -2   3   21.96    1.81
  -9  -2   3   20.65    2.51
  -9  -2   2   11.93    2.05
  -9  -2   1   36.84    2.74
  -9  -2   0   26.29    2.37
  -9  -2  -1   12.89    2.01
  -9  -2  -2   17.61    2.10
  -9  -2  -3   -0.41    1.53
  -9  -2  -4   11.83    2.11
  -9  -2  -5   19.48    2.46
  -9  -2  -6    0.31    1.90
  -9  -1  10    0.48    1.55
  -9  -1   9   14.95    1.98
  -9  -1   8   24.47    2.23
  -9  -1   4   23.97    2.69
  -9  -1   3   24.17    1.90
  -9  -1   3   22.32    2.65
  -9  -1   2   31.47    2.61
  -9  -1   1   11.79    1.90
  -9  -1   0    7.45    1.86
  -9  -1  -1   35.05    2.58
  -9  -1  -2   11.37    1.85
  -9  -1  -3   16.21    1.92
  -9  -1  -4   -1.37    1.72
  -9  -1  -5   15.15    2.16
  -9  -1  -6   10.44    2.14
  -9   0  10   33.36    2.73
  -9   0   9   54.90    3.22
  -9   0   8    1.24    1.23
  -9   0   7   11.36    1.61
  -9   0   6   13.59    1.61
  -9   0   5    6.11    1.24
  -9   0   4   -0.03    0.95
  -9   0   3   22.54    2.54
  -9   0   2    5.82    1.83
  -9   0   1   -0.50    1.49
  -9   0   0   -0.23    1.55
  -9   0  -1   30.17    2.31
  -9   0  -2   49.98    2.96
  -9   0  -3    0.94    1.43
  -9   0  -4    1.72    1.41
  -9   0  -5   -0.35    1.54
  -9   0  -6    1.09    1.68
  -9   1  10    0.67    1.49
  -9   1   9   12.46    1.80
  -9   1   8   22.51    1.96
  -9   1   7    9.90    1.51
  -9   1   6    7.55    1.39
  -9   1   5   18.82    1.66
  -9   1   4   24.23    1.85
  -9   1   2   30.57    3.07
  -9   1   1   10.60    2.25
  -9   1   0   11.57    2.03
  -9   1  -1   39.12    2.72
  -9   1  -2    8.48    1.76
  -9   1  -3   14.92    2.04
  -9   1  -4   -1.70    1.56
  -9   2   9    3.03    1.41
  -9   2   8    3.77    1.29
  -9   2   7    8.73    1.43
  -9   2   6   17.21    1.72
  -9   2   5    5.41    1.17
  -9   2   4   10.77    1.38
  -9   3   8    4.52    1.33
  -9   3   7    0.74    1.05
  -9   3   6    3.23    1.18
  -9   3   5   24.64    1.84
  -9   3   4   25.67    1.86
 -10  -4   5    1.83    2.82
 -10  -4   5    2.57    1.44
 -10  -4   4    8.52    2.91
 -10  -4   4    7.95    1.57
 -10  -4   3   -0.70    2.36
 -10  -4   3   -0.03    1.26
 -10  -4   2    2.18    1.29
 -10  -4   1    1.73    1.32
 -10  -4   0   18.28    1.93
 -10  -3   7    5.92    1.57
 -10  -3   6    9.81    1.70
 -10  -3   5   17.93    1.90
 -10  -3   4    2.56    1.29
 -10  -3   3   19.07    1.90
 -10  -3   2    1.47    2.03
 -10  -3   2   -0.03    1.24
 -10  -3   1   12.93    2.38
 -10  -3   0    6.58    2.20
 -10  -3  -1    7.74    2.13
 -10  -3  -2    7.55    2.28
 -10  -3  -3   -0.91    2.05
 -10  -2   8   21.42    2.30
 -10  -2   7   19.86    2.13
 -10  -2   6   12.09    1.73
 -10  -2   5   13.20    2.81
 -10  -2   5   13.27    1.79
 -10  -2   4   30.18    2.23
 -10  -2   4   31.54    3.20
 -10  -2   3    1.16    2.01
 -10  -2   3    1.68    1.20
 -10  -2   2    7.41    2.07
 -10  -2   2    5.00    1.38
 -10  -2   1    2.73    1.84
 -10  -2   0   22.02    2.53
 -10  -2  -1   -0.54    1.63
 -10  -2  -2    4.08    2.04
 -10  -2  -3   20.18    2.58
 -10  -2  -4    3.47    1.91
 -10  -1   9   12.03    2.04
 -10  -1   8   14.30    1.95
 -10  -1   4   -0.59    2.11
 -10  -1   3    0.42    2.21
 -10  -1   3    3.47    1.29
 -10  -1   2   13.68    2.36
 -10  -1   1   25.73    2.57
 -10  -1   0    4.70    2.00
 -10  -1  -1   49.20    3.20
 -10  -1  -2   26.70    2.64
 -10  -1  -3    3.71    1.88
 -10  -1  -4    5.93    1.89
 -10  -1  -5    0.84    1.87
 -10   0   9    0.49    1.57
 -10   0   8    4.15    1.57
 -10   0   7   25.80    2.29
 -10   0   6   13.37    1.78
 -10   0   5   -0.21    1.12
 -10   0   4   41.00    2.53
 -10   0   3    3.53    2.48
 -10   0   2    0.27    2.36
 -10   0   1   49.89    3.43
 -10   0   0   42.31    2.99
 -10   0  -1    6.75    1.93
 -10   0  -2   -0.03    1.61
 -10   0  -3   -0.32    1.80
 -10   0  -4    0.79    1.68
 -10   0  -5   -1.56    1.85
 -10   1   9    9.60    1.84
 -10   1   8   13.71    1.88
 -10   1   7    1.52    1.25
 -10   1   6   10.06    1.55
 -10   1   5   16.64    1.74
 -10   1   4    0.56    1.09
 -10   1   2   16.43    3.22
 -10   1   1   24.92    3.23
 -10   1   0    8.42    2.32
 -10   1  -1   61.13    3.61
 -10   2   8   18.00    1.92
 -10   2   7   15.65    1.81
 -10   2   6    8.88    1.52
 -10   2   5   12.08    1.59
 -10   2   4   26.64    2.05
 -10   3   7    4.39    1.33
 -10   3   6    8.87    1.54
 -10   3   5   11.54    1.54
 -10   3   4    1.30    1.17
 -11  -3   5    9.87    3.15
 -11  -3   5   11.41    1.88
 -11  -3   4   -0.11    2.68
 -11  -3   4    1.55    1.42
 -11  -3   3    8.88    2.95
 -11  -3   3    5.97    1.63
 -11  -3   2   21.41    2.98
 -11  -3   2   15.92    1.96
 -11  -3   1   -1.08    2.20
 -11  -3   1   -1.93    1.49
 -11  -3   0    4.68    2.42
 -11  -2   7   -0.04    1.46
 -11  -2   6    7.39    1.71
 -11  -2   5    3.59    2.69
 -11  -2   5    3.75    1.53
 -11  -2   4    4.75    2.66
 -11  -2   4    6.75    1.61
 -11  -2   3    4.97    2.60
 -11  -2   3    6.15    1.57
 -11  -2   2    4.05    2.34
 -11  -2   2    5.44    1.57
 -11  -2   1    7.11    2.24
 -11  -2   0    0.12    2.24
 -11  -2  -1    2.02    2.06
 -11  -2  -2    3.63    2.05
 -11  -1   4   -0.51    2.46
 -11  -1   3   20.16    3.19
 -11  -1   3   22.68    2.20
 -11  -1   2    9.76    2.61
 -11  -1   1    0.32    2.01
 -11  -1   0   13.00    2.38
 -11  -1  -1    6.68    2.27
 -11  -1  -2    1.36    1.96
 -11  -1  -3    2.88    2.15
 -11   0   8   36.11    2.82
 -11   0   7   19.96    2.21
 -11   0   6    0.04    1.31
 -11   0   5   11.81    1.74
 -11   0   4    5.08    1.45
 -11   0   3   -1.57    2.48
 -11   0   2    5.53    2.52
 -11   0   1    1.19    2.09
 -11   0   0    2.34    2.00
 -11   0  -1   -2.17    2.07
 -11   0  -2    6.37    2.16
 -11   0  -3   16.30    2.53
 -11   1   7    4.14    1.54
 -11   1   6    8.06    1.61
 -11   1   5    3.06    1.35
 -11   1   4    1.14    1.27
 -11   1   2   14.45    3.40
 -11   2   7    1.63    1.34
 -11   2   6    6.53    1.54
 -11   2   5    3.67    1.37
 -11   2   4    6.58    1.52
 -11   3   5    8.66    1.56
 -11   3   4    1.52    1.32
 -12  -1   4    5.90    2.99
 -12  -1   3    1.27    2.81
 -12  -1   3    1.20    1.54
 -12  -1   2    9.14    2.88
 -12  -1   1    0.05    2.31
 -12   0   5    8.70    1.79
 -12   0   4    2.81    1.48
 -12   0   3   -0.33    2.82
 -12   0   3   -0.18    1.36
 -12   0   2    1.89    2.84
 -12   0   1    4.93    2.71
 -12   0   0   -1.46    2.33
 -12   1   4    4.12    1.57
   0   0   0    0.00    0.00
;
_shelx_hkl_checksum              49787
loop_
_space_group_symop_operation_xyz
'x, y, z'
'-x, y+1/2, -z'
loop_
_atom_site_label
_atom_site_type_symbol
_atom_site_fract_x
_atom_site_fract_y
_atom_site_fract_z
_atom_site_U_iso_or_equiv
_atom_site_adp_type
_atom_site_occupancy
_atom_site_site_symmetry_order
_atom_site_calc_flag
_atom_site_refinement_flags_posn
_atom_site_refinement_flags_adp
S1 S 0.89746(11) 0.37341(19) 0.35670(11) 0.0351(3) Uani 1 1 d . .
O1 O 0.8540(4) 0.8011(5) 0.3123(3) 0.0424(9) Uani 1 1 d . .
O2 O 0.4664(3) 0.7486(5) 0.2524(3) 0.0339(7) Uani 1 1 d . .
O3 O 0.4088(3) 0.3878(5) 0.2075(3) 0.0350(7) Uani 1 1 d . .
N1 N 0.5911(4) 0.4726(5) 0.3756(4) 0.0277(8) Uani 1 1 d . .
C1 C 0.8201(5) 0.6390(7) 0.3663(4) 0.0303(9) Uani 1 1 d . .
C2 C 0.7041(5) 0.6129(7) 0.4528(4) 0.0284(9) Uani 1 1 d . .
H2 H 0.6695 0.7508 0.4846 0.034 Uiso 1 1 calc R U
C3 C 0.7739(5) 0.4593(7) 0.5672(4) 0.0308(10) Uani 1 1 d . .
H3A H 0.7121 0.4281 0.6317 0.037 Uiso 1 1 calc R U
H3B H 0.8665 0.5120 0.6160 0.037 Uiso 1 1 calc R U
C4 C 0.7875(4) 0.2645(7) 0.4733(4) 0.0295(9) Uani 1 1 d . .
H4 H 0.8264 0.1319 0.5224 0.035 Uiso 1 1 calc R U
C5 C 0.6339(5) 0.2411(7) 0.3926(4) 0.0288(9) Uani 1 1 d . .
H5A H 0.6307 0.1701 0.3047 0.035 Uiso 1 1 calc R U
H5B H 0.5741 0.1610 0.4442 0.035 Uiso 1 1 calc R U
C6 C 0.4863(5) 0.5535(7) 0.2742(4) 0.0280(9) Uani 1 1 d . .
C7 C 0.2886(5) 0.4288(7) 0.0911(4) 0.0317(10) Uani 1 1 d . .
C8 C 0.3388(6) 0.5491(9) -0.0234(5) 0.0413(12) Uani 1 1 d . .
H8A H 0.3752 0.6901 0.0088 0.062 Uiso 1 1 calc R U
H8B H 0.2595 0.5671 -0.0996 0.062 Uiso 1 1 calc R U
H8C H 0.4134 0.4667 -0.0525 0.062 Uiso 1 1 calc R U
C9 C 0.1695(6) 0.5496(11) 0.1408(6) 0.0537(15) Uani 1 1 d . .
H9A H 0.1487 0.4771 0.2203 0.081 Uiso 1 1 calc R U
H9B H 0.0849 0.5514 0.0693 0.081 Uiso 1 1 calc R U
H9C H 0.1996 0.6970 0.1644 0.081 Uiso 1 1 calc R U
C10 C 0.2422(6) 0.1997(9) 0.0459(6) 0.0499(14) Uani 1 1 d . .
H10A H 0.3204 0.1247 0.0179 0.075 Uiso 1 1 calc R U
H10B H 0.1617 0.2063 -0.0299 0.075 Uiso 1 1 calc R U
H10C H 0.2150 0.1225 0.1209 0.075 Uiso 1 1 calc R U
loop_
_atom_site_aniso_label
_atom_site_aniso_U_11
_atom_site_aniso_U_22
_atom_site_aniso_U_33
_atom_site_aniso_U_23
_atom_site_aniso_U_13
_atom_site_aniso_U_12
S1 0.0355(5) 0.0335(6) 0.0387(5) 0.0007(6) 0.0132(4) 0.0010(6)
O1 0.053(2) 0.0350(19) 0.0368(17) 0.0083(14) 0.0039(15) -0.0115(16)
O2 0.0400(17) 0.0224(17) 0.0377(17) 0.0006(14) 0.0040(13) 0.0024(14)
O3 0.0360(15) 0.0240(15) 0.0385(15) 0.0000(15) -0.0083(12) -0.0068(16)
N1 0.0275(19) 0.0211(19) 0.0317(18) -0.0001(15) -0.0004(15) 0.0005(15)
C1 0.035(2) 0.027(2) 0.027(2) 0.0010(19) 0.0015(17) -0.0034(19)
C2 0.032(2) 0.021(2) 0.032(2) -0.0040(17) 0.0051(18) -0.0018(17)
C3 0.036(2) 0.031(2) 0.024(2) 0.0010(17) 0.0033(17) -0.0055(18)
C4 0.035(2) 0.025(2) 0.028(2) 0.0031(18) 0.0049(17) -0.0005(19)
C5 0.037(2) 0.018(2) 0.031(2) 0.0029(18) 0.0066(17) 0.0012(18)
C6 0.029(2) 0.029(2) 0.027(2) -0.0015(18) 0.0078(17) 0.0003(19)
C7 0.027(2) 0.037(3) 0.0283(19) -0.0004(18) -0.0005(16) -0.0011(18)
C8 0.052(3) 0.041(3) 0.031(2) 0.000(2) 0.010(2) -0.005(2)
C9 0.035(3) 0.077(4) 0.051(3) -0.018(3) 0.011(2) -0.003(3)
C10 0.049(3) 0.043(3) 0.049(3) 0.002(2) -0.012(2) -0.014(3)
loop_
_atom_type_symbol
_atom_type_description
_atom_type_scat_dispersion_real
_atom_type_scat_dispersion_imag
_atom_type_scat_source
C C 0.0033 0.0016 'International Tables Vol C Tables 4.2.6.8 and 6.1.1.4'
H H 0.0000 0.0000 'International Tables Vol C Tables 4.2.6.8 and 6.1.1.4'
N N 0.0061 0.0033 'International Tables Vol C Tables 4.2.6.8 and 6.1.1.4'
O O 0.0106 0.0060 'International Tables Vol C Tables 4.2.6.8 and 6.1.1.4'
S S 0.1246 0.1234 'International Tables Vol C Tables 4.2.6.8 and 6.1.1.4'
loop_
_geom_angle_atom_site_label_1
_geom_angle_atom_site_label_2
_geom_angle_atom_site_label_3
_geom_angle
C1 S1 C4 90.3(2)
C6 O3 C7 121.3(4)
C6 N1 C5 125.3(4)
C6 N1 C2 121.7(3)
C5 N1 C2 110.3(3)
O1 C1 C2 128.5(4)
O1 C1 S1 125.1(4)
C2 C1 S1 106.4(3)
N1 C2 C3 101.1(3)
N1 C2 C1 107.5(3)
C3 C2 C1 103.2(3)
N1 C2 H2 114.5
C3 C2 H2 114.5
C1 C2 H2 114.5
C2 C3 C4 95.9(3)
C2 C3 H3A 112.6
C4 C3 H3A 112.6
C2 C3 H3B 112.6
C4 C3 H3B 112.6
H3A C3 H3B 110.1
C5 C4 C3 101.8(3)
C5 C4 S1 107.9(3)
C3 C4 S1 103.3(3)
C5 C4 H4 114.2
C3 C4 H4 114.2
S1 C4 H4 114.2
N1 C5 C4 100.5(3)
N1 C5 H5A 111.7
C4 C5 H5A 111.7
N1 C5 H5B 111.7
C4 C5 H5B 111.7
H5A C5 H5B 109.4
O2 C6 O3 126.8(4)
O2 C6 N1 123.4(4)
O3 C6 N1 109.7(4)
O3 C7 C8 111.2(3)
O3 C7 C9 109.8(3)
C8 C7 C9 112.1(4)
O3 C7 C10 102.1(3)
C8 C7 C10 110.2(4)
C9 C7 C10 111.0(4)
C7 C8 H8A 109.5
C7 C8 H8B 109.5
H8A C8 H8B 109.5
C7 C8 H8C 109.5
H8A C8 H8C 109.5
H8B C8 H8C 109.5
C7 C9 H9A 109.5
C7 C9 H9B 109.5
H9A C9 H9B 109.5
C7 C9 H9C 109.5
H9A C9 H9C 109.5
H9B C9 H9C 109.5
C7 C10 H10A 109.5
C7 C10 H10B 109.5
H10A C10 H10B 109.5
C7 C10 H10C 109.5
H10A C10 H10C 109.5
H10B C10 H10C 109.5
loop_
_geom_bond_atom_site_label_1
_geom_bond_atom_site_label_2
_geom_bond_distance
S1 C1 1.793(5)
S1 C4 1.832(4)
O1 C1 1.202(5)
O2 C6 1.220(5)
O3 C6 1.345(5)
O3 C7 1.474(5)
N1 C6 1.360(6)
N1 C5 1.473(5)
N1 C2 1.464(5)
C1 C2 1.534(5)
C2 C3 1.520(6)
C2 H2 0.9800
C3 C4 1.534(6)
C3 H3A 0.9700
C3 H3B 0.9700
C4 C5 1.523(6)
C4 H4 0.9800
C5 H5A 0.9700
C5 H5B 0.9700
C7 C8 1.509(6)
C7 C9 1.513(7)
C7 C10 1.510(7)
C8 H8A 0.9600
C8 H8B 0.9600
C8 H8C 0.9600
C9 H9A 0.9600
C9 H9B 0.9600
C9 H9C 0.9600
C10 H10A 0.9600
C10 H10B 0.9600
C10 H10C 0.9600
