#------------------------------------------------------------------------------
#$Date: 2019-11-25 11:18:50 +0200 (Mon, 25 Nov 2019) $
#$Revision: 240742 $
#$URL: file:///home/coder/svn-repositories/cod/cif/4/13/02/4130231.cif $
#------------------------------------------------------------------------------
#
# This file is available in the Crystallography Open Database (COD),
# http://www.crystallography.net/
#
# All data on this site have been placed in the public domain by the
# contributors.
#
data_4130231
loop_
_publ_author_name
'Mfuh, Adelphe M.'
'Doyle, John D.'
'Chhetri, Bhuwan'
'Arman, Hadi D.'
'Larionov, Oleg V.'
_publ_section_title
;
 Scalable, Metal- and Additive-Free, Photoinduced Borylation of Haloarenes
 and Quaternary Arylammonium Salts.
;
_journal_issue                   9
_journal_name_full               'Journal of the American Chemical Society'
_journal_page_first              2985
_journal_page_last               2988
_journal_paper_doi               10.1021/jacs.6b01376
_journal_volume                  138
_journal_year                    2016
_chemical_formula_moiety         'C7 H6 B N O2, 2(H2 O)'
_chemical_formula_sum            'C7 H10 B N O4'
_chemical_formula_weight         182.97
_space_group_crystal_system      triclinic
_space_group_IT_number           2
_space_group_name_Hall           '-P 1'
_space_group_name_H-M_alt        'P -1'
_atom_sites_solution_hydrogens   mixed
_atom_sites_solution_primary     direct
_audit_creation_date             2015-11-09
_audit_creation_method
;
Olex2 1.2
(compiled 2015.01.26 svn.r3150 for OlexSys, GUI svn.r4998)
;
_cell_angle_alpha                93.315(7)
_cell_angle_beta                 91.465(6)
_cell_angle_gamma                94.628(7)
_cell_formula_units_Z            2
_cell_length_a                   3.7693(4)
_cell_length_b                   8.5103(11)
_cell_length_c                   14.0577(17)
_cell_measurement_reflns_used    2179
_cell_measurement_temperature    98
_cell_measurement_theta_max      27.5
_cell_measurement_theta_min      3.7
_cell_volume                     448.51(9)
_computing_cell_refinement
;
CrystalClear-SM Auto 2.0 r15 (Rigaku, 2011)
;
_computing_data_collection
;
CrystalClear-SM Auto 2.0 r15 (Rigaku, 2011)
;
_computing_data_reduction
;
CrystalClear-SM Auto 2.0 r15 (Rigaku, 2011)
;
_computing_molecular_graphics    'Olex2 (Dolomanov et al., 2009)'
_computing_publication_material  'Olex2 (Dolomanov et al., 2009)'
_computing_structure_refinement  'ShelXL (Sheldrick, 2008)'
_computing_structure_solution    'ShelXT (Sheldrick, 2015)'
_diffrn_ambient_temperature      98
_diffrn_detector                 CCD
_diffrn_detector_area_resol_mean 28.5714
_diffrn_measured_fraction_theta_full 0.984
_diffrn_measured_fraction_theta_max 0.984
_diffrn_measurement_details
;
scan:
	Number of images: 246
	           Slice: -68.0000 - 55.0000
	     Image width: 0.5000
	        Exp time: 45.0000
	   Rotation axis: Omega
	           Omega: 0.0000
	           Kappa: 70.0000
	             Phi: 90.0000
	             XTD: 35.0000
	          2theta: -35.0000
scan:
	Number of images: 126
	           Slice: -61.0000 - 2.0000
	     Image width: 0.5000
	        Exp time: 45.0000
	   Rotation axis: Omega
	           Omega: 0.0000
	           Kappa: 70.0000
	             Phi: 270.0000
	             XTD: 35.0000
	          2theta: -35.0000
scan:
	Number of images: 120
	           Slice: -80.0000 - -20.0000
	     Image width: 0.5000
	        Exp time: 45.0000
	   Rotation axis: Omega
	           Omega: 0.0000
	           Kappa: 0.0000
	             Phi: 270.0000
	             XTD: 35.0000
	          2theta: -35.0000
scan:
	Number of images: 80
	           Slice: -67.0000 - -27.0000
	     Image width: 0.5000
	        Exp time: 45.0000
	   Rotation axis: Omega
	           Omega: 0.0000
	           Kappa: 70.0000
	             Phi: 0.0000
	             XTD: 35.0000
	          2theta: -35.0000
scan:
	Number of images: 60
	           Slice: -115.0000 - -85.0000
	     Image width: 0.5000
	        Exp time: 45.0000
	   Rotation axis: Omega
	           Omega: 0.0000
	           Kappa: 0.0000
	             Phi: 180.0000
	             XTD: 35.0000
	          2theta: -35.0000
;
_diffrn_measurement_device
;
AFC12 (Right): Kappa 3 circle
;
_diffrn_measurement_device_type
;
Rigaku Saturn724 (2x2 bin mode)
;
_diffrn_measurement_method       'profile data from \w-scans'
_diffrn_measurement_specimen_support Fiber
_diffrn_orient_matrix_type       d*Trek
_diffrn_orient_matrix_UB_11      0.261753
_diffrn_orient_matrix_UB_12      0.011899
_diffrn_orient_matrix_UB_13      0.022866
_diffrn_orient_matrix_UB_21      0.008391
_diffrn_orient_matrix_UB_22      0.110285
_diffrn_orient_matrix_UB_23      -0.040007
_diffrn_orient_matrix_UB_31      -0.004513
_diffrn_orient_matrix_UB_32      0.028322
_diffrn_orient_matrix_UB_33      0.064912
_diffrn_radiation_monochromator  'Graphite Monochromator'
_diffrn_radiation_type           MoK\a
_diffrn_radiation_wavelength     0.71075
_diffrn_reflns_av_R_equivalents  0.0256
_diffrn_reflns_av_unetI/netI     0.0447
_diffrn_reflns_Laue_measured_fraction_full 0.984
_diffrn_reflns_Laue_measured_fraction_max 0.984
_diffrn_reflns_limit_h_max       3
_diffrn_reflns_limit_h_min       -4
_diffrn_reflns_limit_k_max       10
_diffrn_reflns_limit_k_min       -10
_diffrn_reflns_limit_l_max       16
_diffrn_reflns_limit_l_min       -16
_diffrn_reflns_number            2549
_diffrn_reflns_point_group_measured_fraction_full 0.984
_diffrn_reflns_point_group_measured_fraction_max 0.984
_diffrn_reflns_theta_full        25.041
_diffrn_reflns_theta_max         25.041
_diffrn_reflns_theta_min         3.659
_diffrn_source                   'Sealed Tube'
_diffrn_source_current           40.0
_diffrn_source_power             2.0
_diffrn_source_voltage           50.0
_exptl_absorpt_coefficient_mu    0.108
_exptl_absorpt_correction_T_max  1.000
_exptl_absorpt_correction_T_min  0.439
_exptl_absorpt_correction_type   multi-scan
_exptl_absorpt_process_details   'ABSCOR (Higashi, 1995)'
_exptl_crystal_colour            'clear colourless'
_exptl_crystal_colour_lustre     clear
_exptl_crystal_colour_primary    colourless
_exptl_crystal_density_diffrn    1.355
_exptl_crystal_description       needle
_exptl_crystal_F_000             192
_exptl_crystal_size_max          0.5
_exptl_crystal_size_mid          0.15
_exptl_crystal_size_min          0.1
_refine_diff_density_max         0.490
_refine_diff_density_min         -0.381
_refine_diff_density_rms         0.057
_refine_ls_extinction_method     none
_refine_ls_goodness_of_fit_ref   1.008
_refine_ls_hydrogen_treatment    constr
_refine_ls_matrix_type           full
_refine_ls_number_parameters     136
_refine_ls_number_reflns         1573
_refine_ls_number_restraints     2
_refine_ls_restrained_S_all      1.008
_refine_ls_R_factor_all          0.0861
_refine_ls_R_factor_gt           0.0663
_refine_ls_shift/su_max          0.000
_refine_ls_shift/su_mean         0.000
_refine_ls_structure_factor_coef Fsqd
_refine_ls_weighting_details
'w=1/[\s^2^(Fo^2^)+(0.0200P)^2^+0.8500P] where P=(Fo^2^+2Fc^2^)/3'
_refine_ls_weighting_scheme      calc
_refine_ls_wR_factor_gt          0.1328
_refine_ls_wR_factor_ref         0.1436
_reflns_Friedel_coverage         0.000
_reflns_number_gt                1198
_reflns_number_total             1573
_reflns_threshold_expression     'I > 2\s(I)'
_iucr_refine_instructions_details
;

    cd1377a.res created by SHELXL-2014/7

TITL cd1377a_a.res in P-1
REM Old TITL cd1377a in P-1 #2
REM SHELXT solution in P-1
REM R1 0.252, Rweak 0.016, Alpha 0.063, Orientation as input
REM Formula found by SHELXT: C9 N3 O4A
CELL 0.71075 3.7693 8.5103 14.0577 93.315 91.465 94.628
ZERR 2 0.0004 0.0011 0.0017 0.007 0.006 0.007
LATT 1
SFAC C H B N O
UNIT 14 20 2 2 8
DFIX 0.8 H3b O3
DFIX 1.8 H3b O4A
 
L.S. 5
PLAN  5
SIZE 0.5 0.1 0.15
TEMP 98.15
BOND $H
LIST 4
MORE -1
CONF
fmap 2 53
acta
OMIT -3 50.1
REM <olex2.extras>
REM <HklSrc "%.\\cd1377a.hkl">
REM </olex2.extras>
 
WGHT    0.020000    0.850000
FVAR       1.97664
O2    5    0.894231    0.581108    0.891594    11.00000    0.09761    0.02639 =
         0.02773   -0.00268   -0.00625   -0.01762
O1    5    0.818602    0.324044    0.933244    11.00000    0.11775    0.03220 =
         0.02514   -0.00228   -0.01864    0.01132
N1    4    0.073078    0.185905    0.417941    11.00000    0.04299    0.03282 =
         0.02706   -0.00252   -0.00643   -0.00168
C5    1    0.463119    0.164843    0.644960    11.00000    0.02832    0.02083 =
         0.02769   -0.00471   -0.00042    0.00067
AFIX  43
H5    2    0.453045    0.058584    0.624627    11.00000   -1.20000
AFIX   0
C4    1    0.338677    0.274220    0.585593    11.00000    0.02178    0.02689 =
         0.02114   -0.00434    0.00001   -0.00060
C3    1    0.356400    0.433704    0.615155    11.00000    0.02429    0.02470 =
         0.02473    0.00110   -0.00024    0.00250
AFIX  43
H3    2    0.273865    0.506949    0.575126    11.00000   -1.20000
AFIX   0
C2    1    0.498041    0.481751    0.704644    11.00000    0.02665    0.02110 =
         0.02553   -0.00432   -0.00093    0.00266
AFIX  43
H2A   2    0.509228    0.588193    0.724603    11.00000   -1.20000
AFIX   0
C1    1    0.624782    0.374147    0.765806    11.00000    0.02106    0.02448 =
         0.02238   -0.00289   -0.00071   -0.00257
C6    1    0.602039    0.214763    0.734439    11.00000    0.02971    0.02236 =
         0.02416    0.00128   -0.00001    0.00127
AFIX  43
H6    2    0.681877    0.141017    0.774536    11.00000   -1.20000
AFIX   0
C7    1    0.190313    0.223857    0.492253    11.00000    0.02665    0.02364 =
         0.02927   -0.00082    0.00173   -0.00189
B1    3    0.785506    0.429318    0.867840    11.00000    0.02804    0.02601 =
         0.02063   -0.00200    0.00139   -0.00062
 
AFIX   6
O3    5    1.094016    0.829688    0.788515    11.00000    0.17200    0.06563 =
         0.03925    0.01264   -0.02254   -0.01787
H3A   2    1.026095    0.838143    0.731055    11.00000   -1.50000
AFIX   6
 
PART 1
O4B   5    1.409197    1.029068    0.942189    10.50000    0.19663    0.04062 =
         0.03911    0.00030   -0.00319    0.00062
H4BA  2    1.347733    1.017449    0.999269    10.50000   -1.50000
H4BB  2    1.467710    1.126088    0.934958    10.50000   -1.50000
AFIX   6
 
PART 0
PART 2
O4A   5    1.084967    1.033619    0.927660    10.50000    0.22218    0.03358 =
         0.04210   -0.00450   -0.01440    0.00345
PART 0
H1    2    0.910111    0.343119    0.982911    11.00000   -1.50000
H2    2    0.933760    0.658348    0.853930    11.00000   -1.50000
H3B   2    1.081929    0.903578    0.824710    11.00000   -1.50000
PART 2
H4AA  2    1.057557    1.129808    0.918509    10.50000   -1.50000
H4AB  2    1.141117    1.024609    0.985920    10.50000   -1.50000
AFIX   0
HKLF 4
 
REM  cd1377a_a.res in P-1
REM R1 =  0.0663 for    1198 Fo > 4sig(Fo)  and  0.0861 for all    1573 data
REM    136 parameters refined using      2 restraints
 
END  
     
WGHT      0.0871      0.4483 

REM Highest difference peak  0.490,  deepest hole -0.381,  1-sigma level  0.057
Q1    1   0.8265  0.8254  0.7926  11.00000  0.05    0.49
Q2    1   1.1576  0.8063  0.7794  11.00000  0.05    0.36
Q3    1   1.0179  0.3707  0.9247  11.00000  0.05    0.30
Q4    1   0.8782  0.6168  0.9624  11.00000  0.05    0.28
Q5    1   0.6950  0.4013  0.8144  11.00000  0.05    0.24

REM The information below was added by Olex2.
REM
REM R1 = 0.0663 for 1198 Fo > 4sig(Fo) and 0.0861 for all 3147 data
REM n/a parameters refined using n/a restraints
REM Highest difference peak 0.49, deepest hole -0.38
REM Mean Shift 0, Max Shift 0.000.

REM +++ Tabular Listing of Refinement Information +++
REM R1_all = 0.0861
REM R1_gt = 0.0663
REM wR_ref = 0.1436
REM GOOF = 1.008
REM Shift_max = 0.000
REM Shift_mean = 0
REM Reflections_all = 3147
REM Reflections_gt = 1198
REM Parameters = n/a
REM Hole = -0.38
REM Peak = 0.49
REM Flack = n/a

;
_cod_data_source_file            ja6b01376_si_002.cif
_cod_data_source_block           cd1377a
_cod_database_code               4130231
_shelx_space_group_comment
;
The symmetry employed for this shelxl refinement is uniquely defined
by the following loop, which should always be used as a source of
symmetry information in preference to the above space-group names.
They are only intended as comments.
;
_shelx_estimated_absorpt_t_max   0.989
_shelx_estimated_absorpt_t_min   0.948
_olex2_refinement_description
;
1. Fixed Uiso
 At 1.2 times of:
  All C(H) groups
 At 1.5 times of:
  All O(H) groups, All O(H,H) groups, All O(H,H,H,H,H) groups
2. Restrained distances
 H3B-O3
 0.8 with sigma of 0.02
 H3B-O4A
 1.8 with sigma of 0.02
3. Others
 Fixed Sof: O4B(0.5) H4BA(0.5) H4BB(0.5) O4A(0.5) H4AA(0.5) H4AB(0.5)
4.a Free rotating group:
 O3(H3A), O4B(H4BA,H4BB), O4A(H1,H2,H3B,H4AA,H4AB)
4.b Aromatic/amide H refined with riding coordinates:
 C5(H5), C3(H3), C2(H2A), C6(H6)
;
_shelx_shelxl_version_number     2014/7
_olex2_exptl_crystal_mounting_method 'glass fiber'
_olex2_submission_special_instructions 'No special instructions were received'
loop_
_space_group_symop_operation_xyz
'x, y, z'
'-x, -y, -z'
loop_
_atom_site_label
_atom_site_type_symbol
_atom_site_fract_x
_atom_site_fract_y
_atom_site_fract_z
_atom_site_U_iso_or_equiv
_atom_site_adp_type
_atom_site_occupancy
_atom_site_site_symmetry_order
_atom_site_calc_flag
_atom_site_refinement_flags_posn
_atom_site_refinement_flags_occupancy
_atom_site_disorder_assembly
_atom_site_disorder_group
O2 O 0.8942(8) 0.5811(3) 0.89159(14) 0.0521(7) Uani 1 1 d . . . .
O1 O 0.8186(9) 0.3240(3) 0.93324(15) 0.0586(8) Uani 1 1 d . . . .
N1 N 0.0731(7) 0.1859(3) 0.41794(16) 0.0348(6) Uani 1 1 d . . . .
C5 C 0.4631(7) 0.1648(3) 0.64496(18) 0.0259(6) Uani 1 1 d . . . .
H5 H 0.4530 0.0586 0.6246 0.031 Uiso 1 1 calc R . . .
C4 C 0.3387(7) 0.2742(3) 0.58559(18) 0.0236(6) Uani 1 1 d . . . .
C3 C 0.3564(7) 0.4337(3) 0.61516(18) 0.0246(6) Uani 1 1 d . . . .
H3 H 0.2739 0.5069 0.5751 0.029 Uiso 1 1 calc R . . .
C2 C 0.4980(7) 0.4818(3) 0.70464(18) 0.0246(6) Uani 1 1 d . . . .
H2A H 0.5092 0.5882 0.7246 0.030 Uiso 1 1 calc R . . .
C1 C 0.6248(7) 0.3741(3) 0.76581(18) 0.0231(6) Uani 1 1 d . . . .
C6 C 0.6020(7) 0.2148(3) 0.73444(18) 0.0255(6) Uani 1 1 d . . . .
H6 H 0.6819 0.1410 0.7745 0.031 Uiso 1 1 calc R . . .
C7 C 0.1903(7) 0.2239(3) 0.49225(19) 0.0268(6) Uani 1 1 d . . . .
B1 B 0.7855(8) 0.4293(4) 0.8678(2) 0.0252(7) Uani 1 1 d . . . .
O3 O 1.0940(12) 0.8297(4) 0.78851(19) 0.0939(13) Uani 1 1 d D . . .
H3A H 1.0261 0.8381 0.7311 0.141 Uiso 1 1 d G . . .
O4B O 1.409(3) 1.0291(8) 0.9422(4) 0.093(3) Uani 0.5 1 d . P A 1
H4BA H 1.3477 1.0174 0.9993 0.139 Uiso 0.5 1 d G P A 1
H4BB H 1.4677 1.1261 0.9350 0.139 Uiso 0.5 1 d G P A 1
O4A O 1.085(3) 1.0336(7) 0.9277(4) 0.100(3) Uani 0.5 1 d D P B 2
H1 H 0.9101 0.3431 0.9829 0.150 Uiso 1 1 d G . . .
H2 H 0.9338 0.6583 0.8539 0.150 Uiso 1 1 d G . . .
H3B H 1.0819 0.9036 0.8247 0.150 Uiso 1 1 d DG . . .
H4AA H 1.0576 1.1298 0.9185 0.150 Uiso 0.5 1 d G P B 2
H4AB H 1.1411 1.0246 0.9859 0.150 Uiso 0.5 1 d G P B 2
loop_
_atom_site_aniso_label
_atom_site_aniso_U_11
_atom_site_aniso_U_22
_atom_site_aniso_U_33
_atom_site_aniso_U_23
_atom_site_aniso_U_13
_atom_site_aniso_U_12
O2 0.098(2) 0.0264(12) 0.0277(11) -0.0027(9) -0.0063(12) -0.0176(12)
O1 0.118(2) 0.0322(13) 0.0251(11) -0.0023(10) -0.0186(13) 0.0113(13)
N1 0.0430(15) 0.0328(15) 0.0271(13) -0.0025(11) -0.0064(11) -0.0017(11)
C5 0.0283(14) 0.0208(14) 0.0277(14) -0.0047(11) -0.0004(11) 0.0007(11)
C4 0.0218(13) 0.0269(15) 0.0211(12) -0.0043(11) 0.0000(10) -0.0006(11)
C3 0.0243(13) 0.0247(15) 0.0247(13) 0.0011(11) -0.0002(10) 0.0025(11)
C2 0.0267(14) 0.0211(14) 0.0255(13) -0.0043(11) -0.0009(11) 0.0027(11)
C1 0.0211(13) 0.0245(14) 0.0224(13) -0.0029(11) -0.0007(10) -0.0026(11)
C6 0.0297(14) 0.0224(14) 0.0242(13) 0.0013(11) 0.0000(11) 0.0013(11)
C7 0.0266(14) 0.0236(15) 0.0293(15) -0.0008(12) 0.0017(12) -0.0019(11)
B1 0.0280(16) 0.0260(16) 0.0206(14) -0.0020(12) 0.0014(12) -0.0006(13)
O3 0.172(4) 0.066(2) 0.0393(15) 0.0126(14) -0.023(2) -0.018(2)
O4B 0.197(9) 0.041(4) 0.039(3) 0.000(3) -0.003(5) 0.001(5)
O4A 0.222(10) 0.034(3) 0.042(3) -0.005(3) -0.014(5) 0.003(5)
loop_
_atom_type_symbol
_atom_type_description
_atom_type_scat_dispersion_real
_atom_type_scat_dispersion_imag
_atom_type_scat_source
C C 0.0033 0.0016 'International Tables Vol C Tables 4.2.6.8 and 6.1.1.4'
H H 0.0000 0.0000 'International Tables Vol C Tables 4.2.6.8 and 6.1.1.4'
B B 0.0013 0.0007 'International Tables Vol C Tables 4.2.6.8 and 6.1.1.4'
N N 0.0061 0.0033 'International Tables Vol C Tables 4.2.6.8 and 6.1.1.4'
O O 0.0106 0.0060 'International Tables Vol C Tables 4.2.6.8 and 6.1.1.4'
loop_
_geom_angle_atom_site_label_1
_geom_angle_atom_site_label_2
_geom_angle_atom_site_label_3
_geom_angle
B1 O2 H2 128.3
B1 O1 H1 124.3
C4 C5 H5 120.2
C6 C5 H5 120.2
C6 C5 C4 119.6(2)
C5 C4 C3 120.5(2)
C5 C4 C7 120.2(2)
C3 C4 C7 119.2(2)
C4 C3 H3 120.4
C2 C3 C4 119.2(2)
C2 C3 H3 120.4
C3 C2 H2A 119.3
C3 C2 C1 121.5(2)
C1 C2 H2A 119.3
C2 C1 C6 118.1(2)
C2 C1 B1 121.3(2)
C6 C1 B1 120.5(2)
C5 C6 C1 121.1(2)
C5 C6 H6 119.4
C1 C6 H6 119.4
N1 C7 C4 179.1(3)
O2 B1 C1 121.9(3)
O1 B1 O2 118.2(2)
O1 B1 C1 119.9(3)
H3A O3 H3B 117.6
H4BA O4B H4BB 109.5
H4AA O4A H4AB 109.5
loop_
_geom_bond_atom_site_label_1
_geom_bond_atom_site_label_2
_geom_bond_distance
O2 B1 1.344(4)
O2 H2 0.8736
O1 B1 1.331(4)
O1 H1 0.7735
N1 C7 1.142(3)
C5 H5 0.9300
C5 C4 1.387(4)
C5 C6 1.380(4)
C4 C3 1.392(4)
C4 C7 1.441(4)
C3 H3 0.9300
C3 C2 1.380(3)
C2 H2A 0.9300
C2 C1 1.395(4)
C1 C6 1.397(4)
C1 B1 1.574(4)
C6 H6 0.9300
O3 H3A 0.8499
O3 H3B 0.7907
O4B H4BA 0.8499
O4B H4BB 0.8498
O4A H4AA 0.8500
O4A H4AB 0.8500
loop_
_geom_torsion_atom_site_label_1
_geom_torsion_atom_site_label_2
_geom_torsion_atom_site_label_3
_geom_torsion_atom_site_label_4
_geom_torsion
C5 C4 C3 C2 -0.3(4)
C4 C5 C6 C1 -1.0(4)
C4 C3 C2 C1 0.2(4)
C3 C2 C1 C6 -0.6(4)
C3 C2 C1 B1 -179.9(3)
C2 C1 C6 C5 0.9(4)
C2 C1 B1 O2 -17.8(4)
C2 C1 B1 O1 162.6(3)
C6 C5 C4 C3 0.7(4)
C6 C5 C4 C7 -179.5(3)
C6 C1 B1 O2 162.9(3)
C6 C1 B1 O1 -16.7(4)
C7 C4 C3 C2 179.9(2)
B1 C1 C6 C5 -179.7(3)
loop_
_refln_index_h
_refln_index_k
_refln_index_l
_refln_F_squared_meas
_refln_F_squared_sigma
0 0 3 4.22 2.42
0 0 3 3.15 1.85
0 0 -3 4.24 1.78
0 0 -3 4.67 2.3
0 0 4 340.69 7.91
0 0 -4 317.9 9.21
0 0 -4 338.63 8.27
0 0 5 39.02 3.08
0 0 5 38.73 2.06
0 0 -5 44.58 3.25
0 0 -5 41.34 2.23
0 0 6 5707.46 176.58
0 0 6 5536.74 171.22
0 0 -6 5544.77 173.12
0 0 7 905.9 20.82
0 0 -7 865.02 20.28
0 0 8 15.02 2.72
0 0 -8 12.18 2.96
0 0 9 152.41 5.92
0 0 -9 141.68 5.78
0 0 10 175.82 6.37
0 0 -10 161.89 7.11
0 0 11 307.38 9.55
0 0 -11 296.54 10.16
0 0 12 -1.56 2.51
0 0 -12 2.04 2.94
0 0 13 56.38 4.12
0 0 14 362.2 14.9
0 0 14 334.15 9.85
0 0 15 7.41 2.65
0 0 15 3.43 5.73
0 0 16 16.87 2.94
0 0 16 18.31 6.49
0 0 17 114.75 5.05
0 0 18 -3.67 6.44
0 -1 18 204.88 13.29
0 -1 17 68.13 7.3
0 -1 16 89.33 8.81
0 -1 15 81.42 8.62
0 -1 14 72.39 4.55
0 -1 14 74.88 6.7
0 -1 13 7.98 2.8
0 -1 13 7.6 4.43
0 -1 12 297.27 9.74
0 -1 12 298.12 14.97
0 -1 11 773.7 25.92
0 -1 11 782.46 20.16
0 -1 10 22.29 6.7
0 -1 10 19.66 3.46
0 -1 9 342.18 13.1
0 -1 8 1159.66 31.15
0 -1 7 241.29 9.19
0 -1 7 252.81 6.66
0 -1 6 48.99 3.77
0 -1 6 47.9 3.22
0 -1 5 235.66 5.38
0 -1 5 236.67 6.47
0 -1 5 211.42 8.27
0 1 -4 549.13 11.63
0 -1 4 640.95 13.93
0 -1 4 550.74 15.75
0 -1 4 580.35 13.19
0 1 -3 117.66 4.74
0 1 -3 135.07 4.03
0 -1 3 125.69 6.25
0 1 -2 1518.33 32.34
0 1 -2 1477.32 33.64
0 -1 2 1499.64 33.54
0 1 2 -1.63 2.2
0 -1 -2 -0.05 1.49
0 1 3 411.61 13.76
0 -1 -3 394.72 10.38
0 1 4 6589.6 217.15
0 -1 -4 6666.45 217.3
0 -1 -4 6645.49 219.67
0 1 5 2036.47 50.5
0 -1 -5 1997.05 49.49
0 1 6 957.05 23.31
0 -1 -6 950.08 22.46
0 1 7 1706.06 42.5
0 -1 -7 1727.69 43.37
0 1 8 88.71 4.6
0 -1 -8 103.69 4.95
0 1 9 42.85 4.26
0 -1 -9 37.45 4.17
0 1 10 932.43 24.02
0 -1 -10 896.74 23.88
0 1 11 354.83 11.35
0 -1 -11 347.8 11.63
0 1 12 18.43 3.86
0 -1 -12 22.41 3.93
0 1 13 171.62 6.51
0 -1 -13 158.45 6.18
0 1 14 53.7 4.34
0 -1 -14 64.5 4.29
0 1 15 5.38 2.72
0 -1 -15 9.03 2.72
0 1 16 -2.91 2.3
0 -1 -16 0.71 2.01
0 1 17 1.21 5.95
0 1 17 2.39 2.51
0 1 18 49.98 8.29
0 1 18 26.84 3.53
0 -2 18 62.04 8.67
0 -2 17 66.12 8.53
0 -2 16 79.93 6.82
0 -2 15 3.39 5.66
0 -2 14 113.21 7.86
0 -2 13 86.25 6.89
0 -2 12 2412.74 73.34
0 -2 11 48.23 8.74
0 -2 10 117.85 9.59
0 -2 9 140.07 7.82
0 -2 8 76.59 5.4
0 -2 7 92.5 5.19
0 -2 6 1349.31 32.48
0 -2 5 0.66 2.87
0 2 -4 5807.97 181.31
0 -2 4 5552.54 170.3
0 2 -3 284 11.61
0 2 -2 101.79 7.04
0 2 -1 7904.8 271.16
0 -2 1 8021.96 279.43
0 2 0 521.93 15.02
0 -2 0 555.26 13.36
0 -2 0 563.08 14.5
0 2 1 359.62 8.62
0 -2 -1 382.86 11.58
0 2 2 3.17 2.06
0 2 2 3.81 4.41
0 -2 -2 0.9 2.77
0 2 3 706.8 18
0 2 4 101.53 5.9
0 2 5 3884.66 112.71
0 2 6 393.47 11.56
0 2 7 76.02 5.4
0 -2 -7 84.54 4.97
0 2 8 66.87 5.57
0 -2 -8 61.07 5.12
0 2 9 285.99 10.57
0 -2 -9 277.54 10.33
0 2 10 58.35 6.25
0 -2 -10 67.02 6.25
0 2 11 52.28 5.38
0 -2 -11 52.23 5.99
0 2 12 3.96 3.48
0 -2 -12 4.48 3.36
0 2 13 429.33 12.18
0 -2 -13 393.16 11.75
0 2 14 105.11 5.5
0 -2 -14 99.3 5.45
0 2 15 57.78 4.52
0 -2 -15 58.56 4.26
0 2 16 -0.4 2.39
0 -2 -16 -0.38 2.13
0 2 17 15.82 3.22
0 -3 17 0.52 5.16
0 -3 16 33.64 7.2
0 -3 15 21.08 6.11
0 -3 14 160.49 10.26
0 -3 12 1006.22 30.7
0 -3 11 40.58 7.72
0 -3 10 235.96 12.82
0 -3 9 446.56 14.45
0 3 -8 211.14 11.63
0 -3 8 238.95 10.28
0 3 -7 728.24 21.2
0 3 -6 1769.97 47.76
0 3 -5 163.85 8.72
0 3 -3 69.64 5.57
0 3 -2 3652.63 102.67
0 3 -1 3337.83 92.22
0 3 0 1206.82 31.53
0 -3 0 1262.28 29.4
0 3 1 5289.31 168.95
0 3 1 5348.32 163.9
0 -3 -1 5456.93 167.34
0 3 2 1100.93 30.65
0 3 3 26.29 5.45
0 3 4 94.61 6.82
0 3 5 285.05 11.06
0 3 6 8.76 4.45
0 3 7 65.64 7.06
0 3 8 252.64 11.44
0 -3 -8 262.12 10.21
0 3 9 -1.85 4.57
0 -3 -9 1.45 3.77
0 3 10 396.83 14.43
0 -3 -10 383.19 14.69
0 3 11 6.06 4.69
0 -3 -11 8.34 4.5
0 3 12 146.02 8.13
0 -3 -12 144 7.84
0 3 13 34.3 4.48
0 -3 -13 34.59 4.97
0 3 14 0.54 3.17
0 -3 -14 0.73 2.89
0 3 15 44.18 4.29
0 -3 -15 39.16 4.17
0 3 16 56.59 4.81
0 -3 -16 59.43 4.71
0 3 17 104.14 5.9
0 4 -17 -1.52 6.35
0 4 -16 98.09 7.98
0 -4 16 86.82 5.54
0 4 -15 20.14 6.96
0 -4 15 23.19 4.9
0 4 -14 108.9 8.43
0 -4 14 111.31 5.87
0 4 -13 75.12 8.84
0 4 -12 120.72 8.53
0 4 -11 13.67 5.38
0 4 -10 9.62 7.2
0 4 -9 49.53 8.69
0 4 -8 13.95 5.8
0 4 -7 271.35 13.34
0 4 -5 3299.65 97.72
0 4 -4 163.55 8.98
0 4 -2 211.49 8.15
0 4 -1 1272.37 33.24
0 -4 1 1259.36 29.78
0 4 0 8.1 3.43
0 -4 0 5.09 2.56
0 4 1 107.33 9.48
0 -4 -1 107.64 5
0 4 3 2560.49 74.93
0 4 4 96.22 8.81
0 4 5 563.6 17.22
0 4 6 131.24 10
0 4 7 287.63 14.38
0 4 8 499.81 19.24
0 4 9 2950.64 92.27
0 4 10 277.02 12.7
0 -4 -10 273.58 12.01
0 4 11 93.88 6.96
0 -4 -11 95.94 6.89
0 4 12 -2.11 3.91
0 -4 -12 1.21 3.77
0 4 13 2.13 3.88
0 -4 -13 2.77 4.22
0 4 14 11.39 4.67
0 -4 -14 11.87 4.52
0 4 15 80.14 5.85
0 -4 -15 88.45 5.97
0 4 16 75.9 5.87
0 -4 -16 63.53 5.83
0 5 -16 56.88 9.93
0 5 -15 1.78 5.87
0 5 -14 1.3 6.06
0 5 -13 13.53 6.99
0 5 -12 29.94 7.72
0 5 -11 91.49 9.38
0 5 -10 0.43 4.93
0 5 -9 295.82 14.81
0 5 -8 5.73 6.99
0 5 -7 25.06 6.44
0 5 -6 115.34 10.45
0 5 -5 28.88 5.64
0 5 -4 140.21 7.96
0 5 -3 324.49 11.7
0 5 -2 40.51 6.16
0 5 -1 243.14 11.13
0 -5 1 234.16 7.84
0 -5 0 2323.81 62.96
0 5 1 191.31 10.75
0 -5 -1 197.92 7.49
0 5 2 279.1 16.27
0 5 3 121.33 9.55
0 5 4 210.33 12.34
0 5 5 12.65 6.68
0 5 6 63.7 10.26
0 5 7 119.84 12.25
0 5 8 2235.19 71.99
0 5 9 9.83 6.82
0 5 10 5.92 5.12
0 5 11 6.96 5.05
0 -5 -11 6.73 4.19
0 5 12 14.52 5.61
0 -5 -12 11.42 4.88
0 5 13 192.45 9.5
0 -5 -13 204.03 9.52
0 5 14 60.03 6.16
0 -5 -14 56.19 6.47
0 5 15 9.45 4.9
0 -5 -15 5.28 4.83
0 6 -15 36.36 6.23
0 6 -14 109.11 9.1
0 6 -13 3.22 4.29
0 6 -12 9.78 5.99
0 6 -11 88.45 9.38
0 6 -10 7.18 5.05
0 6 -9 91.25 9.29
0 6 -8 262.04 14.26
0 6 -7 162.22 12.67
0 6 -6 62.51 9.76
0 6 -5 1.66 6.23
0 6 -4 -2.7 6.75
0 6 -3 1073.12 35.41
0 6 -2 532.64 19.02
0 -6 2 547.92 15.82
0 6 -1 5.26 6.02
0 -6 1 10.3 3.81
0 6 0 88.71 11.09
0 -6 0 76.92 5.97
0 6 1 5.73 9.93
0 -6 -1 12.6 4.29
0 6 2 114.82 12.72
0 6 3 -3.06 8.98
0 6 4 528.04 26.58
0 6 5 390.82 19.61
0 6 6 7.18 8.81
0 6 7 228.29 14.95
0 6 8 1154.94 37.71
0 6 9 36.76 7.41
0 6 10 208.29 12.91
0 6 11 44.37 6.87
0 -6 -11 36.55 6.11
0 6 12 9.48 5.31
0 -6 -12 12.65 4.62
0 6 13 29.4 5.73
0 -6 -13 26.06 5.87
0 6 14 313.19 13.91
0 -6 -14 306.25 12.98
0 7 -14 4.83 6.59
0 7 -13 15.66 7.2
0 7 -12 28.62 6.09
0 7 -11 -1.71 5.66
0 7 -10 336.92 13.55
0 7 -9 36.24 7.51
0 7 -8 39.92 7.46
0 7 -7 50.6 7.89
0 7 -6 1.33 4.88
0 7 -5 127.94 12.51
0 7 -4 3634.42 121.52
0 7 -3 256.07 13.79
0 -7 3 228.03 9.62
0 7 -2 7.2 7.3
0 -7 2 20.68 4.45
0 7 -1 6.51 11.54
0 -7 1 12.37 4.95
0 7 0 50.03 11.39
0 -7 0 42.64 5.76
0 7 1 150.47 20.23
0 -7 -1 151.82 8.95
0 7 2 216.37 16.89
0 7 3 175.89 16.72
0 7 4 -8.55 7.53
0 7 5 41.98 10.71
0 7 6 2.84 5.54
0 7 7 70.02 10.04
0 7 8 12.32 7.32
0 7 9 118.78 11.02
0 7 10 234.61 12.86
0 7 11 3.96 5.69
0 7 12 58.13 7.6
0 -7 -12 53.13 7.11
0 7 13 117.95 8.88
0 -7 -13 107.93 8.2
0 8 -13 8.43 6.77
0 8 -12 46.5 6.85
0 8 -11 15.56 6.56
0 8 -10 0.26 3.98
0 8 -9 0.54 5.21
0 8 -8 -1.42 6.09
0 8 -7 15.09 7.27
0 8 -6 3.34 4.88
0 8 -5 10.8 6.87
0 -8 5 9.93 3.06
0 8 -4 523.59 21.11
0 -8 4 489.03 14.71
0 8 -3 189.37 12.98
0 -8 3 167.6 7.39
0 8 -2 3.55 8.22
0 -8 2 4.79 3.41
0 8 -1 3.84 7.13
0 -8 1 8.22 3.55
0 8 0 236.06 15.42
0 -8 0 197.52 8.5
0 8 1 98.12 14.05
0 8 2 243.95 18.26
0 8 3 158.5 16.06
0 8 4 151.96 15.21
0 8 5 56.12 9.55
0 8 6 244.94 15.92
0 8 7 28.52 9.03
0 8 8 34.51 8.55
0 8 9 35.34 8.39
0 8 10 13.93 6.87
0 8 11 58.49 9.5
0 9 -11 6.25 6.47
0 9 -10 28.14 6.75
0 9 -8 94.26 7.86
0 9 -7 -2.82 4.69
0 9 -6 13.34 6.87
0 -9 6 7.08 3.15
0 9 -5 308.59 16.18
0 -9 5 278.79 9.64
0 9 -4 -1.16 5.69
0 9 -4 -0.5 6.16
0 -9 4 0.92 2.98
0 9 -3 52.45 11.92
0 -9 3 53.94 4.88
0 9 -2 41.76 8.95
0 -9 2 28.81 4.31
0 9 -1 -0.88 7.39
0 -9 1 2.91 3.27
0 9 0 1.18 9.1
0 -9 0 -2.13 3.51
0 9 1 193.54 14.21
0 9 2 73.22 10.45
0 9 3 11.39 9.81
0 9 4 31.43 9.03
0 9 5 17.58 9.5
0 9 6 0.78 5.64
0 9 7 28.71 9.43
0 9 8 11.51 8.31
0 9 9 360.19 19.83
0 10 -8 17.77 6.87
0 -10 8 20.99 4.07
0 10 -7 36.2 8.91
0 -10 7 31.81 4.45
0 10 -6 67.56 8.41
0 10 -6 62.23 11.35
0 -10 6 54.22 5.07
0 10 -5 47.59 11.13
0 10 -5 68.18 9.62
0 -10 5 39.06 4.52
0 -10 4 5.42 3.77
0 10 -3 38.49 8.58
0 -10 3 32.15 4.43
0 10 -2 46.34 10.16
0 -10 2 52.87 4.71
0 10 -1 1.26 9.14
0 -10 1 -7.23 3.53
0 10 0 2.44 8.29
0 10 1 4.15 8.74
0 10 2 17.74 10.85
0 10 3 20.82 8.55
0 10 4 37.64 9.9
0 10 5 -3.43 9.12
0 10 6 1.16 7.84
0 11 -2 54.96 12.74
0 -11 2 26.53 4.76
0 11 -1 92.34 15.3
-1 10 6 36.41 11.75
-1 10 5 35.41 9.38
-1 10 4 8.01 9.59
-1 10 3 1.87 8.48
-1 10 2 7.96 7.84
-1 10 1 18.24 10.64
-1 10 0 -7.27 8.95
-1 10 -1 193.23 13.95
-1 10 -2 71.4 10.54
-1 10 -3 14.85 6.96
-1 10 -4 -7.94 8.27
-1 10 -5 -3.39 5.52
-1 10 -5 -3.46 7.63
-1 10 -6 0.76 6.16
-1 10 -6 -0.26 7.15
-1 10 -7 80.42 12.48
-1 10 -7 79.57 8.81
-1 10 -8 39.68 8.88
-1 10 -8 47.02 10.99
-1 9 9 12.1 9.29
-1 9 8 -5.52 8.24
-1 9 7 70.02 12.15
-1 9 6 0.59 7.53
-1 9 5 28.31 8.17
-1 9 4 10.87 9.24
-1 9 3 177.29 16.23
-1 9 2 32.17 9.31
-1 9 1 36.69 11.3
-1 9 0 46.97 12.01
-1 9 -1 -5.52 8.58
-1 9 -2 9.4 6.8
1 -9 3 50.43 3.15
-1 9 -3 114.96 11.3
1 -9 4 -2.13 2.11
-1 9 -4 7.23 5.92
-1 9 -4 -1.59 6.02
-1 9 -5 113.4 12.91
-1 9 -5 118.89 11.13
-1 9 -6 81.47 7.94
-1 9 -6 74.55 9.36
-1 9 -7 1.56 5.47
-1 9 -7 -4.41 5.02
-1 9 -8 25.8 7.98
-1 9 -8 16.96 7.72
-1 9 -9 -1.18 6.7
-1 9 -9 -3.15 4.93
-1 9 -10 18.81 8.08
-1 9 -10 14.38 7.46
-1 9 -11 -1.71 6.54
-1 9 -11 -3.41 5.92
-1 8 11 249.11 16.37
-1 8 10 159.45 15.04
-1 8 9 7.08 6.94
-1 8 8 10.92 8.22
-1 8 7 3.6 7.94
-1 8 6 24 7.94
-1 8 5 76.8 12.44
-1 8 4 80.07 10.07
-1 8 3 130.86 13.67
-1 8 2 58.91 11.75
-1 8 1 -1.99 7.6
-1 8 0 -2.82 6.32
-1 8 -1 3.96 7.41
1 -8 2 73.22 3.34
-1 8 -2 102.31 11.56
1 -8 3 1080.09 27.19
-1 8 -3 1085.8 35.58
-1 8 -3 1118.89 36.43
1 -8 4 43.82 3.25
-1 8 -4 71.18 10.61
-1 8 -4 54.74 6.94
1 -8 5 0.17 1.61
-1 8 -5 3.08 4.12
-1 8 -5 -9.07 6.59
-1 8 -6 6.51 7.2
-1 8 -6 14.88 6.47
-1 8 -7 1.4 6.59
-1 8 -7 8.31 6.61
-1 8 -8 8.2 4.69
-1 8 -8 2.65 6.51
-1 8 -9 90.73 7.49
-1 8 -9 106.69 10.04
-1 8 -10 -3.67 5.92
-1 8 -10 -3.88 4.31
-1 8 -11 14.69 6.75
-1 8 -12 18.6 5.87
1 -7 -13 7.46 3.58
-1 7 13 -12.1 6.11
-1 7 12 30.42 8.43
-1 7 11 10.68 7.23
-1 7 10 6.68 7.2
-1 7 9 86.18 12.22
-1 7 8 16.49 6.92
-1 7 7 62.49 9.05
-1 7 6 200.57 12.93
-1 7 5 114.13 10.78
-1 7 4 136.16 11.82
-1 7 3 5.66 7.34
-1 7 2 107.64 15.63
-1 7 1 46 10.47
-1 7 0 -5.38 9.93
1 -7 1 307.46 8.36
-1 7 -1 376.91 20.89
1 -7 2 2346.13 64.22
-1 7 -2 2381.52 78.03
1 -7 3 9.29 2.39
-1 7 -3 13.22 9.95
-1 7 -3 14.17 7.96
-1 7 -4 3.67 9.4
-1 7 -4 16.75 6.75
-1 7 -5 8.39 6.51
-1 7 -5 6.23 7.11
-1 7 -6 41.57 7.37
-1 7 -6 38.99 8.53
-1 7 -7 84.64 6.87
-1 7 -7 84.19 7.77
-1 7 -8 114.39 9.83
-1 7 -9 9.88 6.23
-1 7 -10 24.47 5.64
-1 7 -11 24.12 7.06
-1 7 -12 14.14 6.59
-1 7 -13 4.36 5.07
-1 7 -14 37.12 7.08
1 -6 -14 81.35 5.83
-1 6 14 83.17 9.76
1 -6 -13 3.7 3.1
-1 6 13 -6.61 5.4
-1 6 12 -1.59 5.61
-1 6 11 46.05 8.39
-1 6 10 36.15 8.6
-1 6 9 714.33 28.88
-1 6 8 5.59 7.84
-1 6 7 -0.36 6.68
-1 6 6 54.77 12.18
-1 6 5 24.54 9.45
-1 6 4 76.68 13.91
-1 6 2 11.32 10.16
-1 6 1 39.96 11.8
-1 6 0 4.6 8.91
1 -6 1 65.4 3.17
-1 6 -1 97.31 11.96
1 -6 2 952.97 23.29
-1 6 -2 1031.03 37.21
-1 6 -2 1102.95 35.65
-1 6 -3 523.97 20.54
-1 6 -3 541.43 25.04
-1 6 -4 5.14 5.54
-1 6 -4 0.05 7.46
-1 6 -5 70.07 9.33
-1 6 -5 63.65 11.06
-1 6 -6 184.3 13.31
-1 6 -6 198.94 14.17
-1 6 -7 116.62 10.57
-1 6 -8 327.69 14.83
-1 6 -9 37.43 7.51
-1 6 -10 121.36 10.52
-1 6 -11 45.86 7.94
-1 6 -12 79.12 6.85
-1 6 -13 5.92 5.47
-1 6 -14 -0.47 4.07
-1 6 -15 68.08 8.65
-1 5 15 1.8 4.64
1 -5 -14 -1.16 2.56
-1 5 14 5.57 4.76
1 -5 -13 17.25 3.36
-1 5 13 21.23 6.61
1 -5 -12 91.44 5.61
-1 5 12 116.22 9.85
-1 5 11 256.29 14.4
-1 5 10 1710.25 54.08
-1 5 9 64.29 9.57
-1 5 8 305.94 19.35
-1 5 7 171.46 16.32
-1 5 6 383.76 18.05
-1 5 5 17.88 7.84
-1 5 4 719.97 28.69
-1 5 3 334.84 18.55
-1 5 1 64.58 8.29
-1 5 0 1478.84 45.58
1 -5 1 261.95 5.69
-1 5 -1 262.87 13.76
-1 5 -2 447.31 15.92
-1 5 -2 452.34 14.07
-1 5 -3 -1.02 4.88
-1 5 -3 -0.24 5.92
-1 5 -4 378.31 15.09
-1 5 -4 399.44 16.42
-1 5 -5 8.86 6.18
-1 5 -5 13.57 6.61
-1 5 -6 57.97 8.69
-1 5 -7 2.98 5.16
-1 5 -8 6.63 5.85
-1 5 -9 43.47 7.58
-1 5 -10 29.52 6.56
-1 5 -11 87.17 7.63
-1 5 -12 28.59 7.58
-1 5 -13 9.57 6.66
-1 5 -14 81.51 9.76
-1 5 -15 280.47 14.92
-1 5 -16 14.9 8.24
-1 4 16 3.53 5.28
-1 4 15 25.58 5.5
1 -4 -14 1.56 2.23
-1 4 14 5.31 4.17
1 -4 -13 5.8 2.46
-1 4 13 -4.67 5.33
1 -4 -12 132.73 5.9
-1 4 12 165.39 10.59
1 -4 -11 9.93 2.82
-1 4 11 13.43 4.88
-1 4 10 817.19 27.91
-1 4 9 197.4 11.87
-1 4 8 26.22 9.03
-1 4 7 25.89 9.1
-1 4 6 102.26 12.27
-1 4 5 97.64 10.26
-1 4 4 273.15 11.82
-1 4 3 133.68 8.01
-1 4 3 90.06 2.37
-1 4 2 897.33 18.03
-1 4 1 641.92 22.36
-1 4 0 809.49 22.6
-1 4 0 812.17 23.17
1 -4 1 771.33 14.81
-1 4 -1 784.29 23.62
-1 4 -2 14.88 4.88
-1 4 -2 12.6 5.69
-1 4 -3 94.8 7.65
-1 4 -3 93.29 5.54
-1 4 -4 29.66 5.45
-1 4 -4 27.34 5.16
-1 4 -5 282.61 12.1
-1 4 -6 93.88 7.49
-1 4 -7 23.83 7.32
-1 4 -8 261.48 14.28
-1 4 -9 140.57 11.37
-1 4 -10 8.01 5.31
-1 4 -11 150.87 10.47
-1 4 -12 48.8 7.84
-1 4 -13 12.7 5.31
-1 4 -14 35.91 7.96
1 -4 15 15.47 3.6
-1 4 -15 7.13 6.73
-1 4 -16 23.4 7.77
-1 3 17 3.27 4.57
-1 3 16 36.98 5.85
-1 3 15 56.31 6.8
1 -3 -14 28.59 2.2
-1 3 14 62.02 6.23
1 -3 -13 13.22 2.06
-1 3 13 18.31 4.97
1 -3 -12 199.89 6.16
-1 3 12 260.32 12.1
1 -3 -11 453.43 12.25
-1 3 11 479.67 16.2
1 -3 -10 95.94 4.52
-1 3 10 90.4 8.43
-1 3 9 246.41 13.83
-1 3 8 0.81 5.71
-1 3 7 1.07 5.47
-1 3 6 157.29 10.21
-1 3 5 501.87 16.3
-1 3 4 469.13 14.85
-1 3 3 1887.09 52.4
-1 3 2 150.38 7.34
-1 3 1 762.47 21.7
-1 3 0 5.38 3.13
-1 3 0 3.25 4.76
-1 3 -1 728.74 18.64
-1 3 -1 739.16 18.43
-1 3 -2 101.34 6.37
-1 3 -2 99.94 5.5
-1 3 -3 4365.85 129.89
-1 3 -3 4379.14 131.42
-1 3 -4 392.38 11.2
-1 3 -5 2796 79
-1 3 -6 139.1 7.65
-1 3 -7 249.16 9.59
1 -3 8 -1.04 3.39
-1 3 -8 4.24 5.24
1 -3 9 164.49 10.21
-1 3 -9 170.84 11.73
1 -3 10 17.39 5.47
1 -3 11 2061.89 61.71
1 -3 12 41.17 6.68
1 -3 13 184.68 8.88
1 -3 14 17.36 4.86
1 -3 15 11.82 5.87
1 -3 16 8.58 5.9
1 -3 17 24.42 7.13
-1 2 17 8.05 4.55
-1 2 16 10.28 4.67
-1 2 15 1.47 3.98
-1 2 14 195.67 9.85
1 -2 -13 4.81 1.18
-1 2 13 11.25 4.62
1 -2 -12 90.37 2.89
-1 2 12 138.32 8.01
1 -2 -11 125.53 3.84
-1 2 11 166.48 9.38
1 -2 -10 -0.85 1.85
-1 2 10 -0.59 4.76
1 -2 -9 28.24 2.89
-1 2 9 37.74 6.99
-1 2 8 13.46 6.28
-1 2 6 809.75 21.79
-1 2 5 1556.16 41.22
-1 2 4 255.67 9.12
-1 2 3 125.15 6.89
-1 2 2 1171.15 29.23
1 -2 -1 32.12 2.2
-1 2 1 33.9 5.4
1 -2 0 26.37 2.04
-1 2 0 24.49 5.12
-1 2 0 32.74 3.29
1 -2 1 1854.71 44.46
-1 2 -1 1948.61 49.63
-1 2 -1 1940.79 47.54
-1 2 -2 77.98 4.57
-1 2 -2 78.53 4.76
-1 2 -3 18 3.43
-1 2 -3 15.85 3.15
-1 2 -4 104.33 3.96
-1 2 -4 91.63 4.34
1 -2 5 95.73 5.24
1 -2 6 431.21 12.29
1 -2 7 167.36 7.94
1 -2 8 88.5 7.18
1 -2 9 -1.75 5.02
1 -2 10 2351.48 70.66
1 -2 11 224.71 12.41
1 -2 12 122.71 7.41
1 -2 13 136.57 9.66
1 -2 14 52.49 7.63
1 -2 15 183.28 10.85
1 -2 16 137.92 8.5
1 -2 17 147.23 9.38
-1 1 17 -3.93 3.51
-1 1 17 3.32 5.21
-1 1 16 26.56 6.28
-1 1 16 28.43 4.79
-1 1 15 313.78 12.79
-1 1 14 148.55 8.34
-1 1 13 14.28 4.83
-1 1 12 7.04 4.52
-1 1 11 88.15 8.05
-1 1 10 155.82 9.64
1 -1 -9 142.91 2.91
-1 1 9 188.66 9.69
1 -1 -8 106.74 2.27
-1 1 8 135.33 7.23
1 -1 -7 1233.33 25.37
-1 1 7 1330.12 33.95
-1 1 6 -1.87 4.07
-1 1 5 34.92 5.5
1 -1 -3 130.76 3.74
-1 1 3 134.39 6.49
1 -1 -2 67.25 3.27
-1 1 2 58.35 6.82
1 -1 0 427.01 9.33
1 -1 0 432.48 11.44
1 -1 0 418.2 11.28
-1 1 0 416.92 9.95
-1 1 0 439.12 10.64
-1 1 0 455.56 13.41
1 -1 1 40.39 3.25
1 -1 1 37.29 2.65
-1 1 -1 43.18 6.77
-1 1 -1 37.05 3.58
-1 1 -1 43.21 5.14
1 -1 2 1402.84 32.6
1 -1 2 1455.36 32.52
-1 1 -2 1406.92 33.07
-1 1 -2 1438.38 31.48
-1 1 -2 1441.15 33.07
-1 1 -2 1392.04 37.81
1 -1 3 60.69 3.48
-1 1 -3 64.34 6.25
-1 1 -3 58.87 2.8
1 -1 4 47.42 3.6
-1 1 -4 36.39 2.16
-1 1 -4 37.12 4.43
1 -1 5 1237.17 28.45
-1 1 -5 1242.69 25.09
-1 1 -5 1233.21 30.84
-1 1 -5 1237.12 25.77
1 -1 6 83.93 5.31
-1 1 -6 70.85 1.71
1 -1 7 5.21 3.32
-1 1 -7 1.66 0.69
-1 1 -7 2.7 3.39
1 -1 8 290.14 9.59
-1 1 -8 286.61 5.83
-1 1 -8 272.16 12.13
1 -1 9 70.36 6.06
-1 1 -9 57.37 2.06
-1 1 -9 67.92 7.94
1 -1 10 1996.6 58.49
-1 1 -10 1973.7 59.15
1 -1 11 147.79 8.93
-1 1 -11 152.34 10.68
1 -1 12 107.26 8.74
-1 1 -12 93.55 8.01
1 -1 13 31.62 5.26
-1 1 -13 34.44 4.48
1 -1 14 53.18 6.04
1 -1 15 26.89 5.5
1 -1 16 228.26 12.89
1 -1 17 6.4 6.23
-1 0 17 1.4 5.42
-1 0 17 -5.95 3.62
-1 0 16 6.47 5.24
-1 0 16 5.83 3.88
-1 0 15 5.45 4.31
-1 0 15 11.13 5.69
-1 0 14 10.16 5.54
-1 0 14 10.8 4.22
-1 0 13 20.89 5.99
-1 0 13 23.4 4.74
-1 0 12 16.63 4.71
-1 0 12 14.66 5
-1 0 11 117.59 6.96
-1 0 10 300.42 12.67
-1 0 9 865.89 25.51
-1 0 8 469.39 14.33
-1 0 7 241.46 9.1
-1 0 5 142.08 6.61
-1 0 4 52.59 4.1
1 0 -3 3407.07 91.37
-1 0 3 3456.51 96.77
-1 0 3 3531.16 93.62
1 0 -2 9227.01 510.04
-1 0 2 9860.42 358.2
-1 0 2 9793.24 361.75
1 0 -1 4033.4 115.46
1 0 -1 3912.35 112.78
-1 0 1 4012.27 115.98
-1 0 1 4018.43 117.47
-1 0 1 3966.91 106.6
1 0 0 40.27 3.51
1 0 0 34.4 3.86
-1 0 0 43.61 4.22
-1 0 0 48.85 4.9
-1 0 0 43.73 5.69
1 0 1 445.32 10.23
-1 0 -1 415.95 13.31
-1 0 -1 463.78 12.25
1 0 2 34.59 2.08
-1 0 -2 34.18 5.76
-1 0 -2 37.03 1.9
1 0 3 3025.71 78.24
-1 0 -3 3191.32 89.47
-1 0 -4 1198.98 29.66
-1 0 -5 382.1 10.83
-1 0 -6 425.19 14.12
-1 0 -7 4.67 0.59
-1 0 -7 4.31 4.36
-1 0 -8 30.46 5.76
-1 0 -8 25.09 1.35
-1 0 -9 35.84 6.49
-1 0 -9 27.76 1.63
-1 0 -10 152.08 10.07
-1 0 -10 148.1 3.72
-1 0 -11 5.24 1.28
-1 0 -12 33.05 5.83
1 0 13 47.87 5.69
-1 0 -13 42.57 5.85
1 0 14 69.93 6.8
-1 0 -14 84.12 6.61
1 0 15 50.01 6.11
-1 0 -15 55.83 6.3
1 0 16 18.36 5.42
-1 0 -16 17.51 4.52
1 0 17 98.95 8.24
-1 -1 17 11.68 4.22
-1 -1 17 9.14 4.81
-1 -1 16 11.68 3.98
-1 -1 16 14.47 5.64
-1 -1 15 139.01 9.78
-1 -1 15 116.97 6.87
-1 -1 14 -5.97 5.31
-1 -1 14 6.44 3.77
-1 -1 13 938.43 26.74
-1 -1 13 927.93 26.37
-1 -1 12 0.78 4.55
-1 -1 12 0.71 3.74
-1 -1 11 9.29 5.16
-1 -1 11 15.14 6.28
-1 -1 10 9.78 3.84
-1 -1 10 11.54 5.52
-1 -1 9 43.8 5.73
-1 -1 9 47.73 6.14
-1 -1 8 7.27 3.15
-1 -1 8 2.13 3.91
-1 -1 7 368.53 11.56
-1 -1 7 397.07 11.23
-1 -1 6 16.68 3.22
-1 -1 5 311.81 9.81
-1 -1 5 324.23 8.41
-1 -1 4 -3.27 2.87
-1 -1 4 -0.47 2.01
1 1 -3 2.53 2.25
1 1 -3 1.3 1.11
-1 -1 3 4.22 3.06
-1 -1 3 2.82 1.75
-1 -1 1 4733.45 140.05
-1 -1 1 4719.93 136.04
-1 -1 1 4557.94 135.12
1 1 0 229.14 5.73
-1 -1 0 228.6 5.05
-1 -1 0 250.01 9.36
-1 -1 0 234.76 9.1
-1 -1 0 241.36 6.85
1 1 1 358.81 7.53
-1 -1 -1 384.18 12.7
1 1 2 299.35 5.78
-1 -1 -2 320.67 10.97
-1 -1 -2 291.35 10.97
-1 -1 -3 355.69 12.41
1 1 4 9999 362.44
-1 -1 -4 9879.75 366.7
1 1 5 105.86 3.29
-1 -1 -5 94.59 6.14
1 1 6 884.56 17.72
-1 -1 -6 869.99 24.26
1 1 7 106.01 2.68
-1 -1 -7 132.35 8.27
1 1 8 834.55 16.8
-1 -1 -8 842.94 17.17
-1 -1 -8 878.54 25.47
1 1 9 4.74 1.4
-1 -1 -9 2.23 5.52
-1 -1 -9 4.62 1.33
1 1 10 89.09 3.01
-1 -1 -10 84.83 2.75
-1 -1 -10 103.8 9.07
1 1 11 51.64 2.51
-1 -1 -11 59.51 7.72
1 1 12 307.12 6.63
-1 -1 -12 320.18 12.63
1 1 13 105.11 3.03
-1 -1 -13 126.78 8.15
1 1 14 84.24 2.58
-1 -1 -14 98.62 7.58
-1 -1 -15 5.73 4.41
-1 -1 -16 35.68 5.19
1 1 17 7.2 4.31
-1 -1 -17 -5.4 3.72
-1 -2 17 19.76 5.09
-1 -2 16 46.03 7.13
-1 -2 15 189.41 10.99
-1 -2 15 194.77 8.41
-1 -2 14 580.09 17.6
-1 -2 14 606.12 20.82
-1 -2 13 418.51 15.45
-1 -2 13 391.91 12.96
-1 -2 12 129.74 8.6
-1 -2 12 124.89 7.34
-1 -2 11 246.79 10.92
-1 -2 11 241.39 12.44
-1 -2 10 372.72 14.38
-1 -2 10 340.15 13.31
-1 -2 9 106.22 8.24
-1 -2 9 115.17 7.63
-1 -2 8 341.88 7.41
-1 -2 8 351.4 11.94
-1 -2 8 361.06 12.08
-1 -2 7 302.6 9.85
-1 -2 7 304.49 10.09
1 2 -6 0.71 3.32
-1 -2 6 4.69 2.77
-1 -2 6 0.73 2.68
1 2 -5 195.01 7.15
-1 -2 5 216.63 8.08
-1 -2 4 1867.26 46.29
1 2 -3 141.87 5.59
1 2 -2 762.28 17.67
-1 -2 2 770.81 16.27
1 2 -1 160.63 5.45
-1 -2 1 151.23 3.55
-1 -2 0 924.05 19.61
-1 -2 0 951.5 23.88
-1 -2 -1 53.54 5.8
-1 -2 -2 40.39 4.05
-1 -2 -3 19.19 5.19
1 2 4 8.98 3.29
-1 -2 -4 9.78 4.43
1 2 5 305.42 8.58
-1 -2 -5 275 11.16
1 2 6 60.86 3.88
-1 -2 -6 86.65 7.06
1 2 7 3.84 2.61
1 2 8 511.08 12.37
-1 -2 -8 496.18 19
1 2 9 292.29 8.08
-1 -2 -9 294.5 12.25
1 2 10 130.76 4.38
-1 -2 -10 171.6 11.54
1 2 11 354.15 8.43
-1 -2 -11 370.37 14.57
1 2 12 79.1 3.13
-1 -2 -12 91.53 7.49
1 2 13 6.8 1.71
-1 -2 -13 6.21 5.12
1 2 14 29.23 1.97
-1 -2 -14 42.19 6.44
-1 -2 -15 95.87 7.01
-1 -2 -16 42.92 5.76
-1 -2 -17 91.2 7.37
1 3 -17 2.65 5.09
-1 -3 17 4.43 5.19
-1 -3 16 4.05 5
-1 -3 15 122.28 8.6
-1 -3 14 709.64 22.5
-1 -3 13 69.12 5.71
1 3 -12 15.75 5.95
-1 -3 12 17.91 4.12
1 3 -11 54.39 8.48
-1 -3 11 73.67 7.23
1 3 -10 69.91 9.24
-1 -3 10 61.61 7.41
1 3 -9 38.07 5.73
-1 -3 9 27.31 3.62
1 3 -8 349.2 14.05
1 3 -7 6.18 4.5
1 3 -6 1925.16 52.59
1 3 -5 777.82 20.04
1 3 -4 437.06 12.89
1 3 -3 161.65 6.75
1 3 -2 690.22 17.34
1 3 -1 8.72 3.22
-1 -3 1 15.4 3.86
-1 -3 0 17.06 4.36
-1 -3 -1 1189.5 32.12
-1 -3 -2 573.27 16.8
-1 -3 -3 86.06 6.16
1 3 4 197.23 8.03
1 3 5 227.62 8.79
-1 -3 -5 234.14 9.4
1 3 6 3.48 3.51
-1 -3 -6 -1.35 4.97
1 3 7 65.48 5.71
-1 -3 -7 92.81 8.79
1 3 8 692.68 18.6
-1 -3 -8 664.4 23.55
1 3 9 156.89 7.15
-1 -3 -9 155.33 12.46
1 3 10 20.63 3.88
-1 -3 -10 27.36 7.27
1 3 11 65.26 4.17
-1 -3 -11 71.56 8.03
1 3 12 49.11 2.72
-1 -3 -12 61.83 7.46
1 3 13 51.93 3.22
-1 -3 -13 57.33 6.96
1 3 14 14.02 2.18
-1 -3 -14 23.81 5.42
-1 -3 -15 97.48 8.05
-1 -3 -16 33.59 6.56
1 4 -16 98.38 7.63
1 4 -15 120.55 8.2
1 4 -14 9.85 6.09
1 4 -13 50.69 7.34
1 4 -12 47 7.27
1 4 -11 9.97 4.88
1 4 -10 60.36 8.91
1 4 -9 76.32 9.83
1 4 -8 217.77 11.42
1 4 -7 80.94 7.75
1 4 -6 -1.23 4.86
1 4 -5 159.07 8.81
1 4 -4 155.61 8.41
1 4 -3 587.84 17.53
1 4 -2 508.88 14.88
1 4 -1 3629.91 107.36
-1 -4 1 3679.61 107.67
-1 -4 0 5.28 4.05
-1 -4 -1 1623.34 43.42
-1 -4 -2 697.16 20.23
-1 -4 -3 815.39 25.04
1 4 4 12.91 6.11
1 4 5 173.66 10.92
1 4 6 128.2 9.12
1 4 7 2305.64 67.39
-1 -4 -7 2342.05 72.42
1 4 8 10.97 5.21
-1 -4 -8 15.18 5.85
1 4 9 170.44 8.31
-1 -4 -9 171.32 11.7
1 4 10 9.78 3.62
-1 -4 -10 12.2 6.11
1 4 11 0.19 2.87
-1 -4 -11 -3.32 5.07
1 4 12 74.83 4.81
-1 -4 -12 87.34 8.67
1 4 13 15.94 2.96
-1 -4 -13 23.57 6.21
1 4 14 7.2 2.08
-1 -4 -14 14.5 5.54
-1 -4 -15 38.33 7.18
1 5 -16 53.56 9.17
1 5 -15 17.79 5.64
1 5 -14 7.53 6.21
1 5 -13 3.03 4
1 5 -12 -3.51 4.93
1 5 -11 33.24 6.35
1 5 -10 97.76 6.59
1 5 -9 107.76 9.29
1 5 -8 86.94 9.81
1 5 -7 164.52 9.69
1 5 -6 315.01 12.56
1 5 -5 6.32 5.71
1 5 -4 164.21 11.13
1 5 -3 12.65 5.97
1 5 -2 1.26 5.57
-1 -5 2 8.88 4.93
-1 -5 1 17.84 5.42
-1 -5 0 185.53 8.1
-1 -5 -1 140.09 8.95
-1 -5 -2 4.93 5.35
1 5 3 350.17 17.65
-1 -5 -3 343.89 13.62
1 5 4 119.86 11.42
1 5 5 88.5 10.3
1 5 6 1186.5 37.85
1 5 7 1717.03 53.42
1 5 8 346.47 13.6
-1 -5 -8 357.49 16.39
1 5 9 190.2 8.91
-1 -5 -9 188.33 11.2
1 5 10 31.67 4.9
-1 -5 -10 31.74 7.27
1 5 11 127.42 6.99
-1 -5 -11 151.09 10.42
1 5 12 76.78 5.42
-1 -5 -12 74.43 8.67
1 5 13 415.26 12.44
-1 -5 -13 437.13 18.05
1 5 14 112.66 5.73
-1 -5 -14 132.28 9.74
-1 -5 -15 1.82 5.76
1 6 -15 16.2 6.44
1 6 -14 24.47 7.27
1 6 -13 72.75 8.46
1 6 -12 -2.06 4.24
1 6 -11 187.92 11.39
1 6 -10 5.64 5.47
1 6 -9 7.72 4.55
1 6 -8 22.65 6.4
1 6 -7 9.52 5.95
1 6 -6 70.05 9.03
1 6 -5 2370.22 72.65
1 6 -4 10.97 7.2
1 6 -3 4.6 7.32
-1 -6 3 7.25 5.38
1 6 -2 516.25 18.64
-1 -6 2 500.94 18.45
-1 -6 1 75.87 7.79
-1 -6 0 -3.53 5.83
-1 -6 -1 100.77 9.31
-1 -6 -2 2.91 5.76
1 6 3 6.89 6.56
-1 -6 -3 -0.05 3.65
1 6 4 158.95 16.27
1 6 5 145.88 12.56
1 6 6 1192.77 37.88
1 6 7 69.6 7.89
1 6 8 98.05 8.31
1 6 9 3.06 4.5
-1 -6 -9 0.97 5.99
1 6 10 8.05 4.45
-1 -6 -10 3.77 4.71
1 6 11 91.72 7.01
-1 -6 -11 93.69 9.07
1 6 12 157.89 7.94
-1 -6 -12 160.11 10.92
1 6 13 0.33 3.39
-1 -6 -13 2.96 5.59
1 7 -14 -8.27 6.51
1 7 -13 125.41 9.69
1 7 -12 0.97 5.12
1 7 -11 30.68 5.5
1 7 -10 95.61 8.93
1 7 -9 7.37 4.64
1 7 -8 0.9 5.16
1 7 -7 82.77 9.36
1 7 -6 153.69 11.56
1 7 -5 884.96 28.45
1 7 -4 101.58 8.34
-1 -7 4 99.78 7.56
1 7 -3 40.84 8.43
-1 -7 3 34.92 6.3
-1 -7 2 35.63 6.23
-1 -7 1 226.2 9.14
-1 -7 0 75.54 8.39
-1 -7 -1 152.51 9.21
1 7 2 85.07 12.79
-1 -7 -2 94.09 8.39
1 7 3 51.83 10.49
1 7 4 24.64 8.98
1 7 5 11.47 7.13
1 7 6 13.55 7.06
1 7 7 -1.49 5.5
1 7 8 5.35 5.12
1 7 9 12.79 5.83
1 7 10 -0.99 4.41
-1 -7 -10 4.55 5.38
1 7 11 1.61 4.5
-1 -7 -11 4.79 5.83
1 7 12 125.27 8.93
-1 -7 -12 155.21 11.18
1 8 -12 10.16 6.14
1 8 -11 14.5 5.05
1 8 -10 -0.12 3.74
1 8 -9 5.33 5.99
1 8 -8 5.52 6.18
1 8 -7 83.62 9.29
1 8 -6 1327.85 42.95
-1 -8 6 1268.81 39.3
1 8 -5 22.2 7.86
-1 -8 5 22.79 5.61
1 8 -4 2.11 6.42
-1 -8 4 3.6 4.74
-1 -8 3 2.11 4.31
-1 -8 2 19.92 5
-1 -8 1 57.23 7.13
-1 -8 0 364.17 14.26
1 8 1 57.99 11.87
-1 -8 -1 75.97 7.08
1 8 2 70.88 9.9
-1 -8 -2 78.65 8.2
1 8 3 35.53 10.9
1 8 4 115.17 12.84
1 8 5 21.72 6.7
1 8 6 32.88 8.24
1 8 7 13.53 6.87
1 8 8 372.77 16.18
1 8 9 79.9 8.29
1 8 10 8.1 5.4
-1 -8 -10 10.92 5.97
1 9 -10 8.74 6.8
1 9 -9 36.91 6.56
1 9 -8 16.51 5.57
1 9 -7 6.99 6.82
-1 -9 7 10.49 4.81
1 9 -6 -0.33 4.79
-1 -9 6 -3.13 4.22
1 9 -5 10.57 7.34
-1 -9 5 11.96 4.83
-1 -9 4 6.59 4.5
-1 -9 3 -1.04 3.86
-1 -9 2 -0.64 4.52
-1 -9 1 -3.46 4.31
1 9 0 16.68 9.74
-1 -9 0 19.47 5.19
1 9 1 67.18 11.75
-1 -9 -1 60.48 7.75
1 9 2 10.19 7.6
1 9 3 24.66 8.13
1 9 4 84.69 11.47
1 9 5 5.9 8.08
1 9 6 28.21 8.95
1 9 7 119.72 12.13
1 9 8 -4.26 6.23
1 10 -6 19.71 8.48
-1 -10 6 21.06 5.4
-1 -10 5 20.23 5.69
-1 -10 4 52.49 6.04
-1 -10 3 25.37 6.56
1 10 -2 20.92 8.53
-1 -10 2 31.88 5.97
1 10 -1 11.13 9.31
-1 -10 1 11.7 4.74
1 10 0 11.13 7.51
-1 -10 0 -3.53 4.05
1 10 1 -0.95 8.62
1 10 2 0.02 8.13
1 10 3 9.36 9.26
1 10 4 154.69 13.69
-2 10 3 7.06 7.41
-2 10 2 1.23 7.98
-2 10 1 148.98 14.59
-2 10 0 12.79 9.03
-2 10 -1 25.49 9.03
-2 10 -2 0.47 6.89
-2 10 -3 17.81 7.04
-2 10 -4 66.4 9.57
-2 10 -5 106.34 9.62
-2 10 -5 93.9 12.86
-2 9 7 3.03 8.91
-2 9 6 13.5 9.59
-2 9 5 12.56 9.48
-2 9 4 57.18 11.32
-2 9 3 6.56 6.47
-2 9 2 10.68 8.41
-2 9 1 75.8 8.86
-2 9 0 73.39 9.97
-2 9 -1 0.9 5.9
-2 9 -2 56.88 7.72
-2 9 -3 44.72 9.19
-2 9 -4 2.13 4.83
-2 9 -4 2.63 6.54
-2 9 -5 39.84 8.27
-2 9 -5 34.63 8.72
-2 9 -6 21.2 7.32
-2 9 -6 17.36 7.84
-2 9 -7 1.94 5.97
-2 9 -7 -4.52 5.47
-2 9 -8 11.42 7.23
-2 9 -8 10.73 6.51
-2 9 -9 0.19 5.99
-2 9 -9 -0.54 4.5
-2 8 10 -5.87 8.69
-2 8 9 24.14 9.74
-2 8 8 88.48 12.93
-2 8 7 62.06 10.14
-2 8 6 11.68 9.83
-2 8 5 97.83 12.93
-2 8 4 -4.71 8.29
-2 8 3 6.75 8.48
-2 8 2 -0.19 6.85
-2 8 1 9.78 7.79
-2 8 0 37.29 7.37
-2 8 -1 655.58 24.21
-2 8 -2 7.63 6.49
-2 8 -3 -0.26 6.25
-2 8 -3 11.84 6.59
-2 8 -4 55.27 6.85
-2 8 -4 34.14 8.24
-2 8 -5 13.08 6.4
-2 8 -5 7.2 5.05
-2 8 -6 -4.29 5.57
-2 8 -6 9.21 4.34
-2 8 -7 71.63 7.11
-2 8 -7 74.26 8.39
-2 8 -8 -1.59 5.33
-2 8 -8 3.55 5
-2 8 -9 -0.78 5.02
-2 8 -9 -2.49 5.26
-2 8 -10 11.7 6.49
-2 8 -10 -0.36 5.45
-2 8 -11 26.41 6.92
-2 8 -11 24.33 7.39
-2 7 12 89.57 11.7
-2 7 11 10.83 6.85
-2 7 10 20.06 9.03
-2 7 9 25.63 9.24
-2 7 8 5.14 6.35
-2 7 7 154.1 15.35
-2 7 6 18.19 8.41
-2 7 5 -11.23 9
-2 7 4 3.39 6.25
-2 7 3 11.58 6.94
-2 7 2 -0.88 6.51
-2 7 1 134.05 11.8
-2 7 0 157.91 12.44
-2 7 -1 646.42 23.69
-2 7 -2 231.23 12.86
-2 7 -2 260.05 11.42
-2 7 -3 -0.4 5.07
-2 7 -3 -1.47 4.07
-2 7 -4 6.42 5.64
-2 7 -4 16.72 6.18
-2 7 -5 29.49 5.24
-2 7 -5 40.91 6.73
-2 7 -6 29.26 5.38
-2 7 -6 29.54 5.78
-2 7 -7 115.39 9.12
-2 7 -7 129.27 7.86
-2 7 -8 14.07 4.95
-2 7 -8 18.83 5.8
-2 7 -9 13.74 5.66
-2 7 -9 21.32 6.02
-2 7 -10 -6.61 4.48
-2 7 -10 7.01 3.84
-2 7 -11 -3.46 4.95
-2 7 -11 0.36 4.12
-2 7 -12 5.8 3.2
-2 7 -12 7.32 5.99
-2 6 13 25.99 7.44
-2 6 12 16.53 8.29
-2 6 11 275.07 16.42
-2 6 10 -2.82 6.7
-2 6 9 -3.15 5.69
-2 6 8 89.16 11.77
-2 6 7 91.18 10.92
-2 6 6 -2.87 6.35
-2 6 5 80.14 12.25
-2 6 4 5.12 6.3
-2 6 3 7.6 8.65
-2 6 2 -2.96 6.59
-2 6 1 501.94 23.67
-2 6 0 1481.7 51.1
-2 6 -1 279.31 17.41
-2 6 -2 71.09 10.28
-2 6 -2 67.99 9.07
-2 6 -3 5.85 5.05
-2 6 -3 6.25 5.99
-2 6 -4 51.38 7.13
-2 6 -4 48.47 7.68
-2 6 -5 17.41 6.18
-2 6 -5 17.51 5.31
-2 6 -6 69.17 6.04
-2 6 -6 73.32 7.13
-2 6 -7 -1.35 2.72
-2 6 -7 0.73 4.43
-2 6 -8 84.36 4.83
-2 6 -8 107.69 8.22
-2 6 -9 37.74 3.51
-2 6 -9 58.01 7.01
-2 6 -10 57.63 4.41
-2 6 -10 70.19 6.11
-2 6 -11 11.61 2.35
-2 6 -11 11.82 5.92
-2 6 -12 9.66 1.78
-2 6 -12 23.76 5.99
-2 6 -13 5.24 1.92
-2 6 -13 17.96 5.9
-2 6 -14 148.15 9.5
-2 5 14 11.35 6.42
-2 5 13 54.01 9.19
-2 5 12 29.14 6.8
-2 5 11 401.5 19.4
-2 5 10 116.93 11.11
-2 5 9 33.85 7.11
-2 5 8 7.68 7.41
-2 5 7 14.4 6.32
-2 5 6 73.2 11.49
-2 5 5 56.88 11.47
-2 5 4 3.15 0.85
-2 5 4 10.75 7.2
-2 5 3 134.62 13.79
-2 5 2 32.19 9.62
-2 5 1 4.52 7.75
-2 5 0 11.16 7.58
-2 5 -1 245.18 15.09
-2 5 -1 254.06 13.5
-2 5 -2 40.25 8.88
-2 5 -2 52.66 7.15
-2 5 -3 66.68 7.63
-2 5 -3 63.86 8.88
2 -5 4 0.69 0.92
-2 5 -4 5.92 4.76
-2 5 -4 0.99 5.28
-2 5 -5 26.15 6.99
-2 5 -5 40.39 7.65
-2 5 -6 0.64 5.33
-2 5 -6 8.88 5.16
-2 5 -7 225.04 11.28
-2 5 -7 251.1 9.76
-2 5 -8 90.94 5.42
-2 5 -8 70.33 7.65
-2 5 -9 77.56 5.07
-2 5 -9 76.68 6.16
-2 5 -10 7.72 3.17
-2 5 -10 15.42 5
-2 5 -11 3.81 2.53
-2 5 -11 0.4 4.62
-2 5 -12 90.06 5.45
-2 5 -12 70.43 7.56
-2 5 -13 119.56 9.85
-2 5 -14 0.95 4.57
-2 5 -15 46.1 7.04
-2 4 15 -2.16 4.67
-2 4 14 1.47 5.07
-2 4 13 320.84 12.41
-2 4 12 761.12 28.02
-2 4 11 26.63 6.63
-2 4 10 221.68 13.72
-2 4 9 4.17 6.63
-2 4 8 19.33 8.05
-2 4 6 140.85 11.35
-2 4 5 60.71 11.02
-2 4 4 683.44 26.13
-2 4 3 155.21 13.41
-2 4 2 290.94 15.82
-2 4 1 75.47 9.12
-2 4 0 221.02 12.34
-2 4 -1 20.49 6.63
-2 4 -1 30.11 5.16
-2 4 -2 555.05 18.52
-2 4 -2 568.77 16.37
-2 4 -3 71.4 6.18
-2 4 -3 84.36 6.99
-2 4 -4 432.18 14.64
-2 4 -4 453.33 14.59
-2 4 -5 -3.36 4.55
-2 4 -5 1.73 3.88
-2 4 -6 80.04 8.08
-2 4 -6 83.22 6.16
-2 4 -7 36.84 5.16
-2 4 -8 5.57 4.26
-2 4 -8 0.78 3.01
-2 4 -9 6.47 4.17
-2 4 -9 10.09 2.98
-2 4 -10 301.18 13.31
-2 4 -10 302.05 8.46
-2 4 -11 -5.38 5.09
-2 4 -11 -0.43 1.82
-2 4 -12 79.17 6.21
-2 4 -12 64.43 3.32
-2 4 -13 163.43 10.09
-2 4 -14 11.39 5.9
-2 4 -15 3.39 5.59
-2 3 15 5.35 5.42
-2 3 14 68.48 8.27
-2 3 13 9.43 6.14
-2 3 12 52.92 7.32
-2 3 11 134.34 9.43
-2 3 10 21.65 7.23
-2 3 9 -0.19 5.97
-2 3 8 40.32 10.38
-2 3 7 20.32 8.98
-2 3 6 -6.28 7.32
-2 3 5 212.01 11.37
-2 3 4 103.54 8.55
-2 3 3 510.99 16.82
-2 3 2 52.09 2.3
-2 3 2 53.28 6.06
-2 3 1 199.06 4.83
-2 3 1 251.93 10.57
-2 3 0 631.16 19.5
-2 3 -1 524.59 16.13
-2 3 -1 512.51 13.34
2 -3 2 8.1 1.33
-2 3 -2 10.68 3.39
-2 3 -2 -3.34 4.17
-2 3 -3 346.47 10.45
-2 3 -3 328.4 10.66
-2 3 -4 75.42 5.71
-2 3 -4 63.65 5
-2 3 -5 171.55 8.34
-2 3 -5 193.25 7.08
-2 3 -6 144.48 8.5
-2 3 -6 139.55 5.95
-2 3 -7 126.38 8.81
-2 3 -7 118.68 5.28
-2 3 -8 6.28 5.59
-2 3 -8 10.73 2.58
-2 3 -9 1044.08 30.56
-2 3 -9 1020.39 23.97
2 -3 10 44.39 5.5
-2 3 -10 49.39 6.35
2 -3 11 4.95 3.81
-2 3 -11 4 4.43
-2 3 -11 0.33 0.92
2 -3 12 16.11 5
-2 3 -12 9.9 4.64
2 -3 13 35.86 4.74
-2 3 -13 46.15 6.96
2 -3 14 25.63 5.61
-2 3 -14 23.17 6.4
2 -3 15 31.17 6.25
-2 3 -15 44.27 6.04
2 -3 16 23.26 6.7
-2 3 -16 38.16 7.72
-2 2 16 120.67 9.88
-2 2 15 43.71 6.89
-2 2 14 19.4 6.06
-2 2 13 35.89 6.77
-2 2 12 52.49 5.85
-2 2 11 8.17 5.99
-2 2 9 13.46 6.73
-2 2 8 228.07 11.44
2 -2 -7 5.07 1.26
-2 2 7 10.35 6.94
-2 2 6 -0.69 6.04
-2 2 5 617.78 22.53
-2 2 4 499.57 16.37
-2 2 3 12.53 4.52
2 -2 -2 1337.06 30.96
2 -2 -1 22.13 1.52
-2 2 1 23.85 5.02
-2 2 1 28.17 2.44
2 -2 0 120.86 3.15
-2 2 0 117.95 4.29
-2 2 -1 1250.81 31.7
-2 2 -1 1180.05 26.08
-2 2 -1 1203.62 27.03
-2 2 -2 87.6 4.05
-2 2 -2 86.96 4.97
-2 2 -3 247.88 7.2
-2 2 -3 246.36 7.6
-2 2 -4 173.45 6.51
-2 2 -4 153.86 9.5
-2 2 -4 165.04 5.28
-2 2 -5 -0.26 3.08
-2 2 -5 1.4 2.01
-2 2 -5 4.93 6.18
2 -2 6 25.87 3.74
-2 2 -6 19.99 5.14
-2 2 -6 15.54 8.76
-2 2 -6 17.41 2.35
2 -2 7 274.86 10
-2 2 -7 274.79 16.89
-2 2 -7 262.23 5.97
2 -2 8 38.94 5.59
-2 2 -8 31.29 10.8
2 -2 9 2338.29 67.35
-2 2 -9 2357.85 76.44
2 -2 10 351.87 12.32
-2 2 -10 361.04 14.5
2 -2 11 101.41 7.2
2 -2 12 -1.4 3.41
2 -2 13 103.19 7.84
2 -2 14 30.7 5.78
2 -2 15 231.82 11.18
2 -2 16 6.96 5.09
-2 1 16 18.17 6.25
-2 1 16 15.59 5.42
-2 1 15 47.85 5.73
-2 1 15 29.52 6.85
-2 1 14 7.86 4.1
-2 1 14 -0.99 5.19
-2 1 13 46.17 7.3
-2 1 12 113.04 9.07
-2 1 11 89.78 8.08
-2 1 9 255.36 13.86
-2 1 8 37.45 8.24
-2 1 7 185.93 12.15
2 -1 -6 7.63 1.14
-2 1 6 4.1 6.09
2 -1 -5 7.49 1.42
-2 1 5 19.57 5
-2 1 4 77.49 6.37
-2 1 3 1901.75 51.12
2 -1 -2 167.53 3.43
-2 1 2 190.27 6.75
-2 1 2 161.06 7.72
-2 1 1 348.53 9.12
-2 1 1 354.12 11.54
-2 1 0 233.78 8.29
-2 1 0 250.06 8.05
-2 1 0 249.47 8.76
-2 1 -1 136.47 3.48
-2 1 -1 139.79 5.52
-2 1 -1 137.42 6.89
-2 1 -1 145.83 6.02
-2 1 -2 401.17 8.29
-2 1 -2 427.15 14.47
-2 1 -2 382.88 9.03
2 -1 3 271.02 6.47
-2 1 -3 265.17 6.42
-2 1 -3 275.05 10.59
-2 1 -3 240.39 5.83
2 -1 4 0.02 1.42
2 -1 4 2.23 1.97
-2 1 -4 2.11 5.28
-2 1 -4 1.68 1.35
2 -1 5 3.7 2.58
-2 1 -5 2.08 0.85
-2 1 -5 0.28 5.92
2 -1 6 91.7 5.69
-2 1 -6 94.14 10.45
2 -1 7 168.14 7.75
-2 1 -7 170.11 13.29
2 -1 8 655.42 19.4
-2 1 -8 614.18 25.75
2 -1 9 158.12 9.12
-2 1 -9 151.73 13.76
2 -1 10 42.31 5.97
-2 1 -10 43.45 6.92
2 -1 11 31.96 5.33
-2 1 -11 22.13 7.27
2 -1 12 27.38 5.73
-2 1 -12 29.68 7.32
2 -1 13 135.29 8.74
-2 1 -13 121.69 10.61
2 -1 14 52.4 6.32
-2 1 -14 47.99 7.91
2 -1 15 12.53 5.69
-2 1 -15 18.69 5.16
2 -1 16 190.46 11.09
-2 0 16 102.41 9.12
-2 0 16 117.05 8.69
-2 0 15 15.4 5.16
-2 0 15 16.08 5.59
-2 0 14 40.89 5.28
-2 0 14 37.69 5.47
-2 0 13 6.96 5.35
-2 0 13 7.32 4.24
-2 0 12 25.82 4.95
-2 0 12 39.47 5.38
-2 0 11 303.48 11.04
-2 0 11 299.07 11.39
-2 0 10 1.49 3.91
-2 0 10 1.47 4.12
-2 0 9 42.19 5.33
-2 0 9 34.94 7.98
-2 0 8 3.6 4.88
-2 0 8 5.76 3.51
-2 0 7 -1.85 4.93
-2 0 7 -0.4 2.65
-2 0 6 12.53 4.86
-2 0 6 18.9 2.89
-2 0 5 204.29 9.69
-2 0 5 201.5 5.99
-2 0 5 203.77 5.57
-2 0 4 5 3.81
-2 0 4 -0.88 2.13
-2 0 4 1.09 1.35
-2 0 3 7835.54 272.99
-2 0 2 1435.32 36.05
-2 0 2 1376.17 34.02
-2 0 1 15.82 3.36
-2 0 1 7.13 3.84
-2 0 1 14.31 3.43
-2 0 0 81.06 4.57
-2 0 0 88.88 5.26
-2 0 0 86.7 6.09
-2 0 -1 111.19 2.42
-2 0 -1 123.87 6.77
-2 0 -1 124.7 7.68
-2 0 -1 115.46 4.29
2 0 2 53.35 2.16
-2 0 -2 70 4.71
-2 0 -2 50.17 5.52
-2 0 -2 59.27 2.7
2 0 3 2020.76 47.76
2 0 3 2025.67 52.64
-2 0 -3 2047.72 58.61
-2 0 -3 2077.1 48.75
2 0 4 5.31 1.92
2 0 4 4.24 1.23
-2 0 -4 6.8 5.83
2 0 5 174.96 6.16
-2 0 -5 175.25 9.83
2 0 6 1.14 3.22
-2 0 -6 7.68 5.38
2 0 7 149.64 7.08
-2 0 -7 147.53 13.01
2 0 8 236.77 9.9
-2 0 -8 231.11 12.77
2 0 9 168.57 9.21
-2 0 -9 185.03 11.54
2 0 10 2.89 3.74
-2 0 -10 -1.42 5.99
2 0 11 52.07 5.9
-2 0 -11 51.29 8.15
2 0 12 -1.21 4.1
-2 0 -12 8.17 5.83
2 0 13 20.23 4.36
-2 0 -13 24.47 6.99
2 0 14 106.58 8.01
-2 0 -14 100.72 9.66
2 0 15 55.74 7.25
-2 0 -15 74.79 8.43
2 0 16 -0.47 4.95
-2 0 -16 3.15 5.52
-2 -1 16 12.34 4.69
-2 -1 16 19.19 5.33
-2 -1 15 170.61 9.29
-2 -1 15 197.02 10.73
-2 -1 14 16.53 4.69
-2 -1 14 15.45 5.73
-2 -1 13 5.5 4.17
-2 -1 13 4.86 4.86
-2 -1 12 106.5 8.62
-2 -1 12 106.76 7.51
-2 -1 11 158.48 7.94
-2 -1 11 170.61 7.68
-2 -1 10 25.2 4.86
-2 -1 10 27.67 6.47
-2 -1 9 52.61 5.19
-2 -1 9 49.46 6.32
-2 -1 8 -1.73 3.32
-2 -1 8 -3.58 5.21
-2 -1 7 39.65 4.19
-2 -1 7 34.61 6.75
-2 -1 6 20.51 2.91
-2 -1 6 19.02 5.83
-2 -1 6 13.81 2.2
2 1 -5 1643.9 39.96
-2 -1 5 1663.73 45.39
-2 -1 5 1611.31 39.68
2 1 -4 2220.79 54.84
-2 -1 4 2200.59 60.31
-2 -1 4 2188.27 56.12
2 1 -3 22.81 1.94
-2 -1 3 19.31 4.45
-2 -1 3 30.53 3.53
-2 -1 2 180.41 7.04
-2 -1 2 192.04 6.8
-2 -1 2 181.17 7.7
-2 -1 1 0.62 2.89
-2 -1 1 6.02 3.91
-2 -1 1 5.8 3.93
-2 -1 0 20.59 0.69
-2 -1 0 20.68 4.67
-2 -1 0 15.49 2.96
-2 -1 0 20.23 4.12
-2 -1 -1 201.24 9.5
-2 -1 -1 158.55 5.12
-2 -1 -1 158.74 7.89
-2 -1 -1 163.22 3.41
-2 -1 -2 326.55 12.48
-2 -1 -2 344.27 13.38
2 1 4 365.8 7.6
-2 -1 -4 423.81 13.83
2 1 5 82.91 2.3
-2 -1 -5 128.11 9.55
-2 -1 -6 10.16 6.06
-2 -1 -7 320.34 14.62
-2 -1 -8 256.62 15.87
-2 -1 -9 72.61 10.16
-2 -1 -10 389.51 16.98
-2 -1 -11 67.87 8.69
-2 -1 -12 3.77 4.83
-2 -1 -13 11.94 6.66
2 1 14 82.41 7.37
-2 -1 -14 80.23 7.25
2 1 15 88.19 8.17
-2 -1 -15 89.52 9.69
2 1 16 32.26 5.52
-2 -1 -16 36.05 7.96
-2 -2 16 27.6 5.59
-2 -2 16 19.95 5.9
-2 -2 15 485.45 16.51
-2 -2 15 461.86 15.45
-2 -2 14 29.04 6.18
-2 -2 14 30.53 5.21
-2 -2 13 15.3 4.6
-2 -2 13 21.96 5.61
-2 -2 12 3.7 4.88
-2 -2 12 5.64 3.81
-2 -2 11 53.65 5.28
-2 -2 11 34.96 4.88
2 2 -10 30.44 5.38
-2 -2 10 32.57 6.09
-2 -2 10 30.82 4.17
2 2 -9 103.99 7.18
-2 -2 9 107.76 6.63
-2 -2 9 127.99 8.95
2 2 -8 -2.51 3.81
-2 -2 8 2.51 5.07
-2 -2 8 -0.33 1.45
2 2 -7 335.76 11.18
-2 -2 7 344.86 14.12
-2 -2 7 342.35 8.62
2 2 -6 5.97 3.62
-2 -2 6 5.02 5.05
-2 -2 6 1.94 2.46
2 2 -5 171.84 6.82
-2 -2 5 161.32 9.07
-2 -2 5 175.77 6.3
2 2 -4 312.9 8.34
-2 -2 4 289.29 9.66
-2 -2 4 300.94 9.24
2 2 -3 1196 27.91
-2 -2 3 1144.19 30.11
-2 -2 3 1158.31 30.01
2 2 -2 32.95 1.56
-2 -2 2 35.04 4.52
-2 -2 2 20.49 4.24
-2 -2 2 43.49 4.76
-2 -2 1 151.39 3.72
-2 -2 1 166.63 8.22
-2 -2 1 165.44 9.07
-2 -2 0 59.93 6.54
-2 -2 0 69.81 6.75
-2 -2 -1 180.39 10.78
-2 -2 -1 171.55 9.9
-2 -2 -2 356.44 14.12
-2 -2 -2 368 15.07
-2 -2 -3 449.92 16.06
-2 -2 -3 454.7 17.43
-2 -2 -4 451.1 20.09
2 2 5 341.9 7.3
-2 -2 -5 409.17 16.46
2 2 6 49.89 3.2
-2 -2 -6 77.23 8.6
2 2 7 52.28 2.2
-2 -2 -7 65.85 8.95
-2 -2 -8 16.98 9.1
-2 -2 -9 65.85 8.95
-2 -2 -10 46.31 8.5
-2 -2 -11 138.32 9.1
-2 -2 -12 74.69 9.24
-2 -2 -13 5.09 6.11
-2 -2 -14 52.3 8.24
-2 -2 -15 25.61 7.56
2 3 -16 198.56 11.23
2 3 -15 17.15 5.61
2 3 -14 110.7 7.96
2 3 -13 -2.94 3.65
2 3 -12 1.09 3.7
-2 -3 12 -0.5 3.39
2 3 -11 21.79 4.74
-2 -3 11 24.4 5.73
2 3 -10 42.31 5.73
-2 -3 10 21.49 4.9
2 3 -9 66.83 6.87
-2 -3 9 73.32 5.97
-2 -3 9 62.54 2.68
2 3 -8 175.13 9.1
-2 -3 8 194.7 11.13
-2 -3 8 205.05 6.25
2 3 -7 4.5 3.58
-2 -3 7 -4.67 3.67
2 3 -6 70.12 6.21
2 3 -5 2.3 3.46
2 3 -4 193.84 8.2
2 3 -3 282.82 9.05
-2 -3 3 282.51 10.49
-2 -3 2 953.94 27.17
-2 -3 2 926.8 26.01
-2 -3 1 23.5 6.4
-2 -3 1 22.31 5.59
-2 -3 0 383.02 14.4
-2 -3 -1 164.59 11.58
-2 -3 -1 141.49 9.9
-2 -3 -2 163.9 11.75
-2 -3 -3 9.19 5.97
-2 -3 -3 10.23 7.08
-2 -3 -4 8.03 7.41
-2 -3 -5 6.35 7.96
2 3 6 379.68 11.84
-2 -3 -6 411.78 17.88
2 3 7 4.05 2.75
-2 -3 -7 11.23 8.03
2 3 8 209.62 5.61
-2 -3 -8 215.52 14.69
2 3 9 351.23 7.3
-2 -3 -9 401.59 15.54
-2 -3 -10 2.46 5.28
-2 -3 -11 27.91 7.23
-2 -3 -12 0.54 4.41
-2 -3 -13 32.38 7.89
-2 -3 -14 2.35 6.11
-2 -3 -15 135.76 9.62
2 4 -15 38.52 7.08
2 4 -14 4 4.97
2 4 -13 12.56 5.14
2 4 -12 -2.11 3.77
2 4 -11 20.3 4.64
2 4 -10 11.61 4.17
2 4 -9 19.71 4.74
2 4 -8 186.97 8.91
2 4 -7 548.2 17.53
2 4 -6 11.89 5
2 4 -5 30.87 6.04
2 4 -4 26.7 5.21
2 4 -3 73.74 6.4
-2 -4 3 67.13 7.37
-2 -4 2 117.35 11.04
-2 -4 1 164.57 10.02
-2 -4 0 106.62 8.15
-2 -4 -1 44.3 9.74
-2 -4 -1 39.96 6.56
-2 -4 -2 169.42 11.77
-2 -4 -2 155.45 10.02
-2 -4 -3 145.19 12.2
-2 -4 -3 129.67 11.99
-2 -4 -4 78.91 10.52
-2 -4 -5 700.45 24.16
2 4 6 721.94 20.82
-2 -4 -6 718.41 27.05
2 4 7 54.96 4.36
-2 -4 -7 81.54 9.81
2 4 8 27.79 3.25
-2 -4 -8 26.7 8.79
2 4 9 3.2 2.25
-2 -4 -9 1.8 7.08
2 4 10 23.59 2.32
-2 -4 -10 32.69 8.79
-2 -4 -11 7.84 7.37
-2 -4 -12 180.63 12.79
-2 -4 -13 70.69 9.43
-2 -4 -14 7.32 6.87
2 5 -14 24.87 6.06
2 5 -13 -7.63 4.81
2 5 -12 84.52 7.2
2 5 -11 6.63 4.6
2 5 -10 -2.84 4.22
2 5 -9 53.42 6.18
2 5 -8 34.68 5.26
2 5 -7 -5.99 4.07
2 5 -6 426.66 15.07
2 5 -5 -5.87 4.57
2 5 -4 192.73 10.78
-2 -5 4 186.1 10.94
2 5 -3 866.84 26.51
-2 -5 3 873.28 30.98
-2 -5 2 5.8 5.73
-2 -5 1 119.34 9.07
-2 -5 0 19.92 6.82
-2 -5 -1 20.37 6.37
-2 -5 -2 22.13 7.86
-2 -5 -3 215.9 14.31
-2 -5 -3 219.33 14.31
-2 -5 -4 53.2 8.65
2 5 5 2219.73 65.19
-2 -5 -5 2155.15 63.75
2 5 6 180.25 9.07
-2 -5 -6 195.22 12.37
2 5 7 76.75 6.06
-2 -5 -7 98.12 10.02
2 5 8 4.19 3.17
-2 -5 -8 -0.9 6.73
2 5 9 29.18 3.55
-2 -5 -9 43.07 8.86
2 5 10 85.45 4.97
-2 -5 -10 123.39 10.99
-2 -5 -11 228.62 12.84
-2 -5 -12 3.43 7.08
-2 -5 -13 -3.88 6.87
2 6 -13 17.62 5.66
2 6 -12 13.27 5.24
2 6 -11 34.4 5.73
2 6 -10 9.19 4.67
2 6 -9 5.78 4.41
2 6 -8 -3.62 4.48
2 6 -7 148.43 9.29
2 6 -6 241.15 11.65
2 6 -5 2.39 4.26
-2 -6 5 -2.39 4.15
2 6 -4 8.2 4.88
-2 -6 4 8.08 6.3
-2 -6 3 50.5 7.94
-2 -6 2 92.01 9.57
-2 -6 1 51.74 7.94
-2 -6 0 75.71 9.52
-2 -6 -1 33.47 7.11
-2 -6 -2 86.63 7.34
-2 -6 -3 150.42 11.49
2 6 5 37.57 6.85
-2 -6 -5 47.21 8.76
2 6 6 183.45 9.45
-2 -6 -6 202.49 10.75
2 6 7 64.95 6.44
-2 -6 -7 56.81 7.44
2 6 8 47.35 5.09
-2 -6 -8 35.72 9.12
2 6 9 58.82 4.95
-2 -6 -9 73.55 9.95
2 6 10 9.33 3.29
-2 -6 -10 11.96 7.56
-2 -6 -11 158.1 11.23
-2 -6 -12 185.1 15.04
2 7 -12 4.19 4.81
2 7 -11 4.31 4.74
2 7 -10 1.78 4.36
2 7 -9 23.55 5.99
2 7 -8 70.76 7.65
2 7 -7 1210.97 37.12
2 7 -6 51.17 7.49
-2 -7 6 48.23 8.08
2 7 -5 5.24 5.42
-2 -7 5 -2.27 5.99
-2 -7 4 14.26 6.96
-2 -7 3 12.08 5.24
-2 -7 2 8.86 5.97
-2 -7 1 189.7 10.97
-2 -7 0 17.6 6.66
-2 -7 -1 49.58 7.56
-2 -7 -2 -11.3 6.25
-2 -7 -3 86.35 9.85
2 7 4 122.35 11.2
2 7 5 107.17 9.95
-2 -7 -5 105.06 10.64
2 7 6 29.61 6.21
-2 -7 -6 23.62 6.18
2 7 7 42 5.8
-2 -7 -7 39.18 8.55
2 7 8 19 5.02
-2 -7 -8 13.57 8.08
2 7 9 1.66 3.48
-2 -7 -9 2.37 6.85
2 7 10 38.75 5.19
-2 -7 -10 54.77 10.19
2 8 -10 3.6 4.34
2 8 -9 123.56 8.69
2 8 -8 68.6 8.13
-2 -8 8 60.95 7.25
2 8 -7 79.83 8.39
-2 -8 7 60.74 8.88
2 8 -6 71.75 8.46
-2 -8 6 74.62 9.45
-2 -8 5 5.38 6.09
-2 -8 4 9.85 5.19
-2 -8 3 34.56 7.3
-2 -8 2 6.04 6.61
-2 -8 1 78.34 9.55
-2 -8 0 70.92 8.67
-2 -8 -1 0.21 4.71
-2 -8 -2 19.45 6.89
2 8 3 83.03 10.04
2 8 4 24.52 7.13
2 8 5 20.92 6.99
2 8 6 124.6 9.95
-2 -8 -6 135.67 11.54
2 8 7 6.68 5.73
-2 -8 -7 9.17 5.85
2 8 8 10.47 5.57
-2 -8 -8 14.4 7.41
2 9 -7 72.51 9.33
-2 -9 7 41.67 9.1
-2 -9 6 -0.4 5.33
-2 -9 5 3.32 6.09
-2 -9 4 13.38 5.33
-2 -9 3 23.1 7.84
-2 -9 2 20.09 7.79
-2 -9 1 2.32 5.35
-2 -9 0 45.81 7.34
-2 -9 -1 62.16 8.48
2 9 2 14.05 7.46
-2 -9 -2 0.12 5
2 9 3 13.46 7.89
2 9 4 1.16 6.82
-3 9 2 15.09 9.14
-3 9 1 6.11 6.94
-3 9 0 26.93 7.91
-3 9 -1 1.47 5.69
-3 9 -2 59.55 8.27
-3 9 -3 60.6 7.37
-3 8 6 -4.5 6.63
-3 8 5 3.03 6.28
-3 8 4 3.48 6.14
-3 8 3 9.05 8.43
-3 8 2 -11.18 8.2
-3 8 1 59.96 10.68
-3 8 0 82.01 9.85
-3 8 -1 -8.53 6.66
-3 8 -2 12.29 6.14
-3 8 -3 15.71 6.02
-3 8 -4 -1.54 4.81
-3 8 -5 -0.17 4.64
-3 8 -5 2.37 4.71
-3 8 -6 21.25 6.18
-3 8 -6 24.3 5.99
-3 8 -7 4.88 5
-3 8 -7 0.43 4.88
-3 7 9 70.69 9.83
-3 7 8 33.9 9.31
-3 7 7 7.37 8.34
-3 7 6 -4.48 7.51
-3 7 5 -10.16 7.91
-3 7 4 19.87 8.27
-3 7 3 4.31 7.2
-3 7 2 141.61 10
-3 7 1 803.88 31.25
-3 7 0 162.01 12.67
-3 7 -1 8.88 6.77
-3 7 -2 -0.52 4.97
-3 7 -3 11.89 5.66
-3 7 -4 -4.1 4.57
-3 7 -4 1.04 4.07
-3 7 -5 45.15 6.09
-3 7 -5 40.86 5.83
-3 7 -6 11.82 4.71
-3 7 -6 10.52 4.57
-3 7 -7 25.09 5.31
-3 7 -7 39.28 5.14
-3 7 -8 -0.36 4.41
-3 7 -8 2.68 3.46
-3 7 -9 16.82 4.83
-3 7 -9 14.26 4.36
-3 7 -10 48.63 6.25
-3 7 -10 51.14 5.45
-3 6 10 2.98 6.02
-3 6 9 40.25 9.88
-3 6 8 21.08 8.27
-3 6 7 4.95 5.5
-3 6 6 -5.38 5.45
-3 6 5 1.54 5.07
-3 6 4 5.95 6.85
-3 6 3 185.1 13.01
-3 6 2 217.13 11.25
-3 6 1 102.81 9.74
-3 6 0 310.42 15.52
-3 6 -1 5.95 5.85
-3 6 -2 29.35 6.66
-3 6 -3 18.64 6.02
-3 6 -3 15.23 4.48
-3 6 -4 0.24 4.43
-3 6 -4 4.26 4
-3 6 -5 24.59 4.69
-3 6 -5 24.57 4.6
-3 6 -6 142.13 8.17
-3 6 -6 128.01 7.23
-3 6 -7 9.97 4.5
-3 6 -7 10.9 3.79
-3 6 -8 16.77 4.24
-3 6 -8 18.86 3.62
-3 6 -9 3.55 3.98
-3 6 -9 0.21 2.56
-3 6 -10 2.51 3.93
-3 6 -11 10.4 4.97
-3 5 12 1.35 5.99
-3 5 11 25.92 7.06
-3 5 10 10.8 7.27
-3 5 9 10.75 7.18
-3 5 8 1.45 6.54
-3 5 7 16.37 7.65
-3 5 6 -3.08 6.54
-3 5 5 22.72 6.96
-3 5 5 11.32 1.11
-3 5 4 9.14 5.28
-3 5 3 120.76 10.28
-3 5 2 391.08 16.58
-3 5 1 216.42 9.78
-3 5 0 14.76 5.71
-3 5 -1 6.77 4.93
-3 5 -2 4.36 4.74
-3 5 -3 27.01 5.28
-3 5 -3 24.83 4.36
-3 5 -4 3.6 4.03
-3 5 -4 4.52 3.32
-3 5 -5 62.37 5.64
-3 5 -5 58.06 5.57
-3 5 -6 129.22 6.8
-3 5 -6 136.78 7.01
-3 5 -7 80.42 6.23
-3 5 -7 91.96 5.31
-3 5 -8 28.47 4.81
-3 5 -8 31.39 3.34
-3 5 -9 1.59 4.12
-3 5 -9 7.46 2.3
-3 5 -10 25.89 4.69
-3 5 -11 25.06 5.24
-3 5 -12 108.42 8.05
-3 4 13 67.35 8.24
-3 4 12 138.53 9.97
-3 4 11 4.43 5.69
-3 4 10 1.14 4.9
-3 4 9 5.69 5.28
-3 4 8 -2.7 5.07
-3 4 7 8.13 6.87
-3 4 6 152.77 11.2
-3 4 4 17.08 5.42
-3 4 4 15.61 1.73
-3 4 3 17.27 5.9
-3 4 3 10.09 1.47
-3 4 2 6.8 5.35
-3 4 1 23.05 6.18
-3 4 0 87.41 7.84
-3 4 -1 2.63 4.22
-3 4 -2 49.39 6.21
-3 4 -3 6.63 3.32
-3 4 -3 -1.85 2.68
-3 4 -4 4.12 3.08
-3 4 -4 7.2 3.34
-3 4 -5 108.68 5.31
-3 4 -5 107.43 5.47
-3 4 -6 18.29 3.77
-3 4 -6 22.24 3.1
-3 4 -7 15.45 3.98
-3 4 -7 15.87 2.63
-3 4 -8 118.51 6.06
-3 4 -8 91.72 3.81
-3 4 -9 9.71 3.84
-3 4 -10 65.83 5.5
-3 4 -11 88.69 6.04
-3 4 -12 22.88 4.69
-3 4 -13 2.87 4.67
-3 3 13 32.45 7.75
-3 3 12 38.75 7.96
-3 3 11 -5.12 5.05
-3 3 10 -2.68 4.6
-3 3 9 44.01 7.3
-3 3 8 13.29 5.99
-3 3 7 0.83 4
-3 3 6 323.8 14.95
-3 3 5 328.89 13.27
-3 3 4 1.02 1.9
-3 3 4 6.54 4.6
-3 3 3 50.1 3.43
-3 3 3 56.33 8.72
-3 3 2 23.12 3.25
-3 3 2 32.79 7.13
-3 3 1 12.48 6.4
-3 3 1 12.89 2.75
-3 3 0 524.94 19.42
-3 3 -1 31.08 6.51
-3 3 -2 67.75 6.4
-3 3 -2 62.82 3.88
-3 3 -3 36.76 4.86
-3 3 -3 24.64 3.2
-3 3 -4 5.52 3.03
-3 3 -4 4.67 2.44
-3 3 -5 6.25 2.37
-3 3 -5 1.18 2.53
-3 3 -6 65.38 4.57
-3 3 -6 66.52 3.25
-3 3 -7 8.91 3.15
-3 3 -7 5.78 1.49
-3 3 -8 454.59 12.18
-3 3 -8 343.18 7.49
-3 3 -9 76.04 6.09
-3 3 -10 42.81 5.02
-3 3 -11 29.59 5
-3 3 -12 4.12 3.84
-3 3 -13 7.37 4.31
-3 2 14 2.49 3.01
-3 2 14 -11.44 5.54
-3 2 13 6.47 4.88
-3 2 13 1.23 2.94
-3 2 12 18.03 6.4
-3 2 12 8.58 3.2
-3 2 11 7.51 4.93
-3 2 10 25.63 5.8
-3 2 9 8.6 6.4
-3 2 8 5.26 4.83
-3 2 7 123.92 10
-3 2 6 -5.97 5.71
-3 2 5 44.11 7.18
-3 2 4 64.81 4.64
-3 2 4 73.53 8.15
3 -2 -3 3.84 0.95
-3 2 3 9.24 3.22
-3 2 3 3.55 4.29
-3 2 2 373.69 11.32
-3 2 2 374.28 14.47
-3 2 1 333.09 10.78
-3 2 1 342.68 13.74
-3 2 0 10.07 3.53
-3 2 0 14.99 4.9
-3 2 -1 11.87 3.96
-3 2 -2 49.51 8.13
-3 2 -2 46.45 4.5
-3 2 -2 42.43 2.53
-3 2 -3 6.37 2.25
-3 2 -3 4.79 8.2
-3 2 -3 9.24 2.75
-3 2 -4 6.18 2.37
-3 2 -4 -7.15 7.7
-3 2 -4 2.18 2.56
-3 2 -5 92.79 4.41
-3 2 -5 111.72 12.06
-3 2 -5 97.27 3.43
-3 2 -6 95.7 2.77
-3 2 -6 87.34 4.31
-3 2 -6 94.38 9.4
-3 2 -7 1142.1 29.16
-3 2 -7 1071.11 37.36
-3 2 -8 99.82 5.31
-3 2 -8 119.11 9.81
-3 2 -9 20.35 3.6
-3 2 -9 12.6 7.04
3 -2 10 19.07 3.58
-3 2 -10 19.16 4.26
-3 2 -10 29.37 8.81
3 -2 11 13.46 3.36
-3 2 -11 10.42 4.36
3 -2 12 59.72 5.02
-3 2 -12 56.4 5.8
3 -2 13 54.25 5.31
-3 2 -13 42.21 6.23
3 -2 14 6.4 4.05
-3 2 -14 4.34 4.83
-3 1 14 -5.02 3.03
-3 1 14 1.82 5.95
-3 1 13 1.75 2.75
-3 1 13 8.01 5.78
-3 1 12 91.89 5.28
-3 1 12 104.87 7.91
-3 1 11 3.77 2.49
-3 1 11 0.76 5.73
-3 1 10 29.8 6.87
-3 1 10 21.15 2.8
-3 1 9 -1.68 3.96
-3 1 9 0.4 1.71
-3 1 8 4.97 4.12
-3 1 8 -0.38 1.78
-3 1 7 52.02 5.78
-3 1 7 37.88 2.51
-3 1 6 3.13 3.91
-3 1 6 0.19 1.26
3 -1 -5 1.59 0.78
-3 1 5 7.11 5.31
-3 1 5 1.3 0.97
-3 1 4 825.48 26.37
-3 1 4 781.4 21.15
-3 1 3 34.04 6.59
-3 1 3 20.18 4.95
-3 1 2 -2.01 4.43
-3 1 2 -2.63 4.5
-3 1 2 0.97 3.27
-3 1 1 100.68 7.53
-3 1 1 105.51 9.12
-3 1 1 117.02 8.01
-3 1 0 4.79 4.1
-3 1 0 2.65 4.24
-3 1 0 3.08 5.99
-3 1 -1 4.17 3.53
-3 1 -1 1.14 4.05
-3 1 -1 2.01 6.66
-3 1 -2 219.78 7.7
-3 1 -2 218.34 14.99
-3 1 -3 7.41 1.63
-3 1 -3 11.61 8.08
-3 1 -3 10.64 2.58
-3 1 -4 6.94 1.94
-3 1 -4 6.75 1.92
-3 1 -4 12.32 7.68
-3 1 -5 208.48 6.11
-3 1 -5 218.98 14.47
-3 1 -5 214.76 4.83
-3 1 -6 7.58 2.37
3 -1 7 429.86 10.8
-3 1 -7 401.38 16.65
3 -1 8 513.5 13.29
-3 1 -8 527.52 19.64
3 -1 9 21.39 3.25
-3 1 -9 27.24 8.43
3 -1 10 -0.24 2.65
-3 1 -10 -5.52 6.47
3 -1 11 35.96 4.15
-3 1 -11 41.41 9
3 -1 12 3.98 3.43
-3 1 -12 8.08 7.37
3 -1 13 84.31 6.11
-3 1 -13 82.56 9.14
3 -1 14 114.3 7.86
-3 1 -14 135.33 10.59
-3 0 14 47.07 6.23
-3 0 14 31.08 4.67
-3 0 13 71.68 4.86
-3 0 13 78.67 7.23
-3 0 12 106.98 8.6
-3 0 12 75.97 4.71
-3 0 11 27.64 3.25
-3 0 11 39.42 7.49
-3 0 10 10.54 2.49
-3 0 10 8.17 5.12
-3 0 9 9.29 2.13
-3 0 9 9.57 6.37
-3 0 8 8.08 1.97
-3 0 8 18.41 5.69
3 0 -7 6.14 1.92
-3 0 7 10.09 5.42
3 0 -6 490.52 11.42
-3 0 6 560.45 19.07
-3 0 5 1144.05 29.94
-3 0 5 1161.24 35.75
-3 0 4 69.31 5.69
-3 0 4 55.57 6.35
-3 0 4 59.91 8.05
-3 0 3 43.71 6.04
-3 0 3 35.25 6.25
-3 0 3 46.76 6.89
-3 0 2 6.21 4.71
-3 0 2 2.51 4.62
-3 0 2 3.72 4.5
-3 0 1 8.27 4.97
-3 0 1 3.77 5.47
-3 0 1 4.15 4.1
-3 0 0 15.63 5.47
-3 0 0 11.37 7.01
-3 0 0 20.49 4.52
-3 0 -1 86.42 5.09
-3 0 -1 99.99 7.7
-3 0 -1 100.13 10.47
-3 0 -2 5.02 5.59
-3 0 -2 7.37 6.94
-3 0 -2 1.35 2.61
-3 0 -3 67.99 2.51
-3 0 -3 79.45 3.48
-3 0 -3 82.41 11.13
3 0 4 -0.97 1.37
-3 0 -4 3.2 6.96
3 0 5 54.51 3.06
-3 0 -5 72.53 8.05
3 0 6 100.75 4.03
-3 0 -6 119.46 11.3
3 0 7 209.19 6.35
-3 0 -7 189.3 11.54
3 0 8 5.35 2.84
-3 0 -8 6.89 6.92
3 0 9 21.98 3.74
-3 0 -9 23.29 6.89
3 0 10 30.32 4.26
-3 0 -10 27.67 8.58
3 0 11 5.99 3.32
-3 0 -11 2.65 5.59
3 0 12 10.83 3.86
-3 0 -12 5.24 7.25
3 0 13 33.76 4.93
-3 0 -13 23.07 7.34
3 0 14 124.91 8.22
-3 0 -14 109.42 12.7
3 1 -14 -0.92 3.34
-3 -1 14 0.07 2.72
-3 -1 14 2.56 4.1
3 1 -13 57.73 4.95
-3 -1 13 56.02 7.98
3 1 -12 -2.58 2.87
-3 -1 12 5 2.32
-3 -1 12 -0.69 5.21
3 1 -11 -0.28 2.35
-3 -1 11 0.5 4.79
3 1 -10 2.39 2.35
-3 -1 10 0.54 5.24
3 1 -9 2.77 2.2
-3 -1 9 2.08 4.15
3 1 -8 14.83 2.72
-3 -1 8 22.08 5.97
3 1 -7 167.05 5.09
-3 -1 7 217.41 10.12
-3 -1 7 171.06 5.28
3 1 -6 3.93 1.68
-3 -1 6 9.48 3.98
-3 -1 6 4.38 2.18
-3 -1 5 840.85 25.75
-3 -1 5 817.78 21.27
-3 -1 4 716.84 22.72
-3 -1 4 793.12 24.42
-3 -1 4 687.59 20.09
-3 -1 3 3.74 5.05
-3 -1 3 -5.14 4.07
-3 -1 3 3.39 4.22
-3 -1 2 156.35 8.5
-3 -1 2 141.04 10.33
-3 -1 2 130.31 8.1
-3 -1 1 1.71 4.24
-3 -1 1 3.46 3.65
-3 -1 0 17.58 3.72
-3 -1 0 19.95 7.3
-3 -1 0 18.22 7.11
-3 -1 -1 265.62 8.58
-3 -1 -1 287.23 13.91
-3 -1 -1 274.77 15.02
-3 -1 -2 182.71 10.12
-3 -1 -2 199.65 11.47
3 1 3 90.59 2.89
-3 -1 -3 123.51 11.58
3 1 4 162.17 4.6
-3 -1 -4 182.76 13.34
3 1 5 38.8 2.77
-3 -1 -5 39.28 7.27
3 1 6 50.81 3.17
-3 -1 -6 44.96 9.24
3 1 7 1.49 2.44
-3 -1 -7 12.13 5.38
3 1 8 52.16 4.03
-3 -1 -8 56.81 9.85
3 1 9 16.96 3.55
-3 -1 -9 20.89 6.7
3 1 10 19.78 3.79
-3 -1 -10 19.26 7.79
3 1 11 20.04 4.26
-3 -1 -11 25.56 7.94
3 1 12 15.8 4.52
-3 -1 -12 16.84 6.47
3 1 13 73.65 6.4
-3 -1 -13 65.19 10.47
3 2 -14 1.02 3.25
-3 -2 14 0.12 4.1
3 2 -13 4.45 3.6
-3 -2 13 3.62 5.61
3 2 -12 12.74 3.6
-3 -2 12 12.22 5.66
3 2 -11 11.04 3.25
-3 -2 11 15.18 5.83
3 2 -10 4.76 2.53
-3 -2 10 8.58 5.16
3 2 -9 14.69 2.72
-3 -2 9 17.25 4.64
3 2 -8 0.05 2.23
-3 -2 8 1.52 3.79
-3 -2 8 2.51 1.54
3 2 -7 180.2 5.9
-3 -2 7 193.37 8.6
-3 -2 7 176.55 5.76
3 2 -6 352.56 9.14
-3 -2 6 384.33 12.2
-3 -2 6 373.19 10.16
-3 -2 5 117.64 5.5
-3 -2 5 112.81 7.91
-3 -2 4 2.63 5.61
-3 -2 4 6.8 3.58
-3 -2 4 0.81 4.41
-3 -2 3 24.52 5.16
-3 -2 3 23.1 7.32
-3 -2 3 25.63 4.93
-3 -2 2 -0.66 3.55
-3 -2 2 0.28 4.41
-3 -2 2 1.37 4.17
-3 -2 1 38.4 6.28
-3 -2 1 41.53 7.84
-3 -2 0 0.36 5.83
-3 -2 -1 44.46 8.22
-3 -2 -1 34.56 8.29
-3 -2 -2 247.95 13.31
-3 -2 -2 269.62 12.1
-3 -2 -3 161.49 10.09
-3 -2 -3 148.72 11.96
-3 -2 -4 4.76 5.4
-3 -2 -5 10 5.76
-3 -2 -6 -4.81 7.01
-3 -2 -7 165.37 11.23
-3 -2 -8 350.81 15.61
-3 -2 -9 50.84 8.03
-3 -2 -10 1.26 6.59
-3 -2 -11 6.56 6.99
-3 -2 -12 29.61 9.21
3 2 13 1.56 3.72
-3 -2 -13 8.93 5.9
3 3 -13 -5.07 3.2
3 3 -12 -2.06 2.53
-3 -3 12 4.05 3.65
3 3 -11 9.9 3.43
-3 -3 11 12.74 5.8
3 3 -10 20.14 3.46
-3 -3 10 4.9 4.81
3 3 -9 69.15 4.43
-3 -3 9 85.92 6.44
3 3 -8 78.86 4.5
-3 -3 8 71.59 3.65
-3 -3 8 90.04 7.79
3 3 -7 0.85 2.25
-3 -3 7 1.37 3.6
-3 -3 7 2.23 2.27
3 3 -6 4.15 2.11
-3 -3 6 4.1 2.96
3 3 -5 0.31 1.75
-3 -3 5 0.59 5.07
-3 -3 5 -0.02 3.08
-3 -3 4 25.35 6.09
-3 -3 4 34.51 4.76
-3 -3 3 1.33 6.02
-3 -3 3 4.97 4.26
-3 -3 2 32.97 6.11
-3 -3 2 30.27 6.92
-3 -3 1 43.8 6.23
-3 -3 1 44.32 7.3
-3 -3 0 4.9 6.61
-3 -3 0 5.35 6.06
-3 -3 -1 134.27 8.39
-3 -3 -1 123.42 9.12
-3 -3 -2 65.59 8.27
-3 -3 -2 76.68 9.9
-3 -3 -3 52.47 7.08
-3 -3 -3 60.5 9.52
-3 -3 -4 76.75 10.07
-3 -3 -5 146.25 10.3
-3 -3 -6 46.97 7.91
-3 -3 -7 42.28 7.68
-3 -3 -8 5.47 5.73
-3 -3 -9 2.04 6.61
-3 -3 -10 11.47 6.37
-3 -3 -11 64.01 10.28
-3 -3 -12 8.62 8.15
3 4 -13 18.07 4.36
3 4 -12 5.71 3.58
3 4 -11 9 3.48
3 4 -10 100.25 5.52
3 4 -9 76.28 5.02
-3 -4 9 76.02 3.74
3 4 -8 4 3.22
-3 -4 8 8.43 2.53
3 4 -7 35.56 3.67
-3 -4 7 40.27 3.79
3 4 -6 2.06 2.35
-3 -4 6 1.09 5.8
-3 -4 6 1.68 3.22
-3 -4 5 120.53 11.11
-3 -4 5 119.18 6.87
-3 -4 4 570.33 23.05
-3 -4 4 545.36 17.36
-3 -4 3 6.7 5.07
-3 -4 3 0.95 4.62
-3 -4 2 34.04 6.3
-3 -4 2 40.98 6.68
-3 -4 1 10.99 6.77
-3 -4 1 12.41 6.18
-3 -4 0 15.3 6.54
-3 -4 -1 6.11 5.02
-3 -4 -1 5.73 6.32
-3 -4 -2 62.87 8.22
-3 -4 -2 67.73 9.48
-3 -4 -3 19.21 7.27
-3 -4 -3 6.23 7.63
-3 -4 -4 792.48 29.94
-3 -4 -5 102.17 9.5
3 4 6 60.41 4.17
-3 -4 -6 80.73 8.88
3 4 7 35.39 2.82
-3 -4 -7 74.52 9.52
-3 -4 -8 14.66 7.77
-3 -4 -9 47.99 10.26
-3 -4 -10 85.75 9.33
-3 -4 -11 4.64 6.3
3 5 -11 10.78 3.79
3 5 -10 11.89 3.62
3 5 -9 52.94 5.02
-3 -5 9 46.95 3.62
3 5 -8 9.19 3.36
-3 -5 8 11.23 3.22
3 5 -7 3.55 3.27
-3 -5 7 -2.63 6.73
-3 -5 7 11.13 3.48
3 5 -6 47.38 4.43
-3 -5 6 61.31 9.57
-3 -5 6 65.93 5.66
-3 -5 5 83.34 10.66
-3 -5 5 77.13 6.47
-3 -5 4 53.7 10.23
-3 -5 4 63.11 7.27
-3 -5 3 0.57 6.59
-3 -5 3 1.63 4.64
-3 -5 2 19.92 6.37
-3 -5 2 14.71 5.9
-3 -5 1 6.87 7.6
-3 -5 1 10.19 5.97
-3 -5 0 2.42 5.95
-3 -5 0 0.9 5.61
-3 -5 -1 78.76 8.01
-3 -5 -1 72.49 9.17
-3 -5 -2 211.52 11.18
-3 -5 -2 228.38 13.98
-3 -5 -3 440.42 20.06
-3 -5 -3 477.4 17.96
-3 -5 -4 23.71 8.1
-3 -5 -5 125.86 12.27
3 5 6 20.7 3.51
-3 -5 -6 29.26 7.34
3 5 7 12.65 2.96
-3 -5 -7 19.26 8.55
-3 -5 -8 60.15 10.85
-3 -5 -9 7.63 8.5
-3 -5 -10 85.04 13.01
3 6 -10 1.78 3.6
3 6 -9 9.95 4.15
-3 -6 9 7.2 3.27
3 6 -8 304.78 11.56
-3 -6 8 356.25 15.85
-3 -6 8 323.85 11.23
3 6 -7 7.58 3.91
-3 -6 7 -0.69 5.87
-3 -6 7 11.89 4.26
-3 -6 6 19.66 7.6
-3 -6 6 2.77 4.71
-3 -6 5 128.39 12.03
-3 -6 5 110.63 7.91
-3 -6 4 14.71 7.2
-3 -6 4 2.75 4.95
-3 -6 3 7.56 6.77
-3 -6 3 1.61 4.71
-3 -6 2 78.05 10.57
-3 -6 2 85.47 8.03
-3 -6 1 -7.44 6.37
-3 -6 1 2.27 3.77
-3 -6 0 1.28 5.19
-3 -6 0 5.78 5.28
-3 -6 -1 117.52 10.45
-3 -6 -1 125.46 8.27
-3 -6 -2 37.17 8.15
-3 -6 -2 33.52 8.03
-3 -6 -3 470.03 17.65
-3 -6 -3 431.73 16.72
-3 -6 -4 340.41 15.59
3 6 5 11.44 4.12
-3 -6 -5 17.93 6.54
3 6 6 6.32 3.79
-3 -6 -6 2.82 7.68
3 6 7 2.82 2.8
-3 -6 -7 -7.32 7.34
-3 -6 -8 7.3 8.72
3 7 -8 22.67 5.33
-3 -7 8 18.36 7.44
-3 -7 8 9.31 4.9
-3 -7 7 40.22 10.9
-3 -7 7 65.64 7.7
-3 -7 6 4.05 6.28
-3 -7 6 4.5 5.05
-3 -7 5 -8.95 5.4
-3 -7 4 12.89 7.6
-3 -7 4 4.34 5.42
-3 -7 3 22.15 7.86
-3 -7 3 21.18 5.83
-3 -7 2 6.18 8.74
-3 -7 2 15.61 4.55
-3 -7 1 55.46 7.72
-3 -7 1 40.18 7.3
-3 -7 0 10.28 6.14
-3 -7 0 19.95 6.09
-3 -7 -1 7.58 5.71
-3 -7 -1 9.21 6.25
-3 -7 -2 19.21 8.08
-3 -7 -2 20.37 5.73
-3 -7 -3 18.48 7.34
-3 -7 -4 0.33 5.95
3 7 5 6.89 4.6
-3 -7 -5 7.75 7.13
3 7 6 6.42 4.93
-3 -7 -6 30.46 6.99
-3 -8 3 36.6 10.61
-3 -8 3 26.2 6.68
-3 -8 2 9.48 8.91
-3 -8 2 7.68 4.45
-3 -8 1 32.86 7.56
-3 -8 1 35.49 6.8
-3 -8 0 39.37 9.4
-3 -8 0 48.66 7.46
-3 -8 -1 14.83 8.17
-3 -8 -1 16.75 6.42
-4 7 1 60.76 8.41
-4 7 0 7.91 5.73
-4 7 -1 -9.24 5.4
-4 6 5 12.15 5.57
-4 6 4 17.03 7.3
-4 6 3 396.41 17.84
-4 6 2 171.89 11.09
-4 6 1 14.02 5.9
-4 6 0 3.51 4.93
-4 6 -1 5.71 5
-4 6 -2 1.78 3.98
-4 6 -3 8.88 4.52
-4 6 -4 34.35 4.71
-4 6 -5 37.95 4.79
-4 5 7 0.02 4.64
-4 5 6 1.78 4.15
-4 5 5 18.07 7.04
-4 5 4 174.82 11.58
-4 5 3 -3.62 5.5
-4 5 2 45.41 6.94
-4 5 1 -3.01 4.64
-4 5 0 3.25 4.36
-4 5 -1 1.63 4.22
-4 5 -2 -2.56 4.05
-4 5 -3 6.89 3.84
-4 5 -4 127.97 6.77
-4 5 -5 2.84 1.87
-4 5 -5 -4.67 2.65
-4 5 -6 9.57 2.96
-4 5 -6 12.18 2.8
-4 5 -7 1.8 2.42
-4 4 9 -6.02 6.35
-4 4 8 10.54 6.59
-4 4 7 59.51 8.17
-4 4 6 31.65 6.56
-4 4 5 5.9 5.05
-4 4 4 72.63 6.77
-4 4 3 -0.97 3.96
-4 4 2 -1.07 3.84
-4 4 1 41.24 5.31
-4 4 0 2.11 3.53
-4 4 -1 7.27 3.46
-4 4 -2 18.03 3.67
-4 4 -3 8.13 2.87
-4 4 -4 28.59 3.2
-4 4 -5 14.62 2.65
-4 4 -7 25.23 2.84
-4 4 -8 8.6 2.46
-4 3 9 7.96 6.25
-4 3 8 111.76 9.07
-4 3 8 75.87 4.26
-4 3 7 -4.17 5.33
-4 3 7 3.13 2.3
-4 3 6 12.06 6.68
-4 3 6 22.88 2.89
-4 3 5 6.35 2.37
-4 3 5 15.49 4.55
-4 3 4 2.7 2.39
-4 3 4 4.17 4.93
-4 3 3 79.52 4.03
-4 3 3 113.63 7.98
-4 3 2 98.36 4.45
-4 3 2 145.05 8.2
-4 3 1 2.23 3.96
-4 3 0 4.15 4.05
-4 3 -1 25.99 4.55
-4 3 -2 -0.45 2.82
-4 3 -3 3.86 2.61
-4 3 -4 20.35 2.75
-4 3 -5 12.27 2.16
-4 3 -8 4.48 2.04
-4 3 -9 15.68 2.7
-4 2 10 10.85 6.92
-4 2 9 8.03 6.3
-4 2 8 78.58 9.03
-4 2 7 58.2 6.37
-4 2 7 46.81 3.93
-4 2 6 6.51 4.9
-4 2 6 -0.78 2.63
-4 2 5 17.43 5.71
-4 2 5 12.53 3.43
-4 2 4 19.69 5.85
-4 2 4 22.91 3.51
-4 2 3 6.37 3.58
-4 2 3 3.08 3.2
-4 2 2 142.2 8.17
-4 2 2 128.98 5.99
-4 2 1 12.67 4.34
-4 2 1 15.61 3.41
-4 2 0 1.94 3.67
-4 2 -1 22.29 3.93
-4 2 -2 1.11 2.58
-4 2 -3 3.77 2.35
-4 2 -4 165.75 5.35
-4 2 -5 55.36 2.7
-4 2 -10 2.98 2.23
-4 1 10 0.92 5.61
-4 1 9 8.31 5.12
-4 1 8 -4.38 5.66
-4 1 7 30.61 4.07
-4 1 7 32.07 7.13
-4 1 6 120.72 6.89
-4 1 6 138.06 9.38
-4 1 5 25.25 4.17
-4 1 5 30.96 6.28
-4 1 4 19.21 3.91
-4 1 4 19.9 5.61
-4 1 3 67.11 5.8
-4 1 3 81.16 6.99
-4 1 2 0 2.94
-4 1 2 1.3 3.79
-4 1 1 7.51 4.9
-4 1 1 5.07 3.62
-4 1 1 5.33 3.7
-4 1 0 18.15 6.35
-4 1 0 11.73 4.6
-4 1 0 22.84 3.91
-4 1 -1 15.02 5.69
-4 1 -1 0.99 2.84
-4 1 -2 -1.82 2.32
-4 1 -2 -4.34 5.87
-4 1 -3 38.68 8.46
-4 1 -3 36.34 3.01
-4 1 -4 35.7 8.93
-4 1 -4 37 2.32
-4 1 -5 562.27 23.78
-4 1 -6 271.24 16.58
-4 1 -7 7.23 6.28
-4 1 -8 8.55 7.89
-4 1 -9 13.53 7.15
-4 1 -10 23.48 9.76
-4 0 10 3.96 6.16
-4 0 9 -4.69 5.9
-4 0 8 98.36 9.12
-4 0 7 24.45 5.02
-4 0 7 16.8 4.48
-4 0 6 205.31 10.59
-4 0 6 186.69 9.1
-4 0 5 142.37 9.21
-4 0 5 148.34 8.65
-4 0 4 9.64 3.67
-4 0 4 -0.09 3.81
-4 0 4 10.14 4.17
-4 0 3 6.75 4.1
-4 0 3 5.35 3.98
-4 0 3 -0.05 3.88
-4 0 2 4.93 3.58
-4 0 2 -0.83 3.93
-4 0 2 -1.8 4.67
-4 0 1 1.4 4.07
-4 0 1 7.94 4.67
-4 0 1 1.23 3.36
-4 0 0 37.93 5.26
-4 0 0 30.72 6.42
-4 0 0 27.55 3.88
-4 0 -1 35.04 5.54
-4 0 -1 22.39 3.34
-4 0 -1 22.27 6.99
-4 0 -2 18.76 2.68
-4 0 -2 14.95 5.54
-4 0 -3 8.01 6.7
-4 0 -4 29.09 6.73
-4 0 -5 70.81 8.22
-4 0 -6 79.52 10.45
-4 0 -7 5.24 7.44
-4 0 -8 7.7 6.3
-4 0 -9 1.45 7.49
-4 -1 10 9.57 6.54
-4 -1 9 12.67 5.26
-4 -1 8 160.35 11.11
-4 -1 7 508 18.34
-4 -1 7 547.9 20.32
-4 -1 6 93.43 5.07
-4 -1 6 111.6 8.05
-4 -1 6 114.16 8.74
-4 -1 5 23.38 3.74
-4 -1 5 29.68 5.85
-4 -1 5 27.62 5.66
-4 -1 4 3.13 3.55
-4 -1 4 4.86 4.69
-4 -1 4 3.6 4.12
-4 -1 3 9 3.32
-4 -1 3 0.88 4.5
-4 -1 3 -1.78 3.93
-4 -1 2 9.74 5.47
-4 -1 2 7.63 4.43
-4 -1 2 1.26 3.84
-4 -1 1 13.69 4
-4 -1 1 11.56 5.35
-4 -1 1 10.83 5.38
-4 -1 0 23.17 3.7
-4 -1 0 22.27 4.41
-4 -1 0 13.03 6.49
-4 -1 -1 141.42 9.29
-4 -1 -1 134.6 10.23
-4 -1 -2 74.24 9.36
-4 -1 -3 3.88 5.07
-4 -1 -4 55.24 9.43
-4 -1 -5 2.32 6.54
-4 -1 -6 47.12 9.48
-4 -1 -7 89.78 9.48
-4 -1 -8 15.59 8.36
-4 -1 -9 3.2 7.7
-4 -2 10 3.29 4.67
-4 -2 9 12.44 5.05
-4 -2 8 46.93 5.87
-4 -2 8 34.14 7.34
-4 -2 7 85.52 7.91
-4 -2 7 68.13 4.22
-4 -2 7 78.98 8.08
-4 -2 6 76.8 4.71
-4 -2 6 98.69 9.07
-4 -2 6 87.17 7.39
-4 -2 5 -6.61 4.97
-4 -2 5 -2.96 3.86
-4 -2 5 2.27 2.82
-4 -2 4 4.74 5.73
-4 -2 4 14.47 3.81
-4 -2 4 0.24 4.24
-4 -2 3 4.03 5
-4 -2 3 1.75 3.58
-4 -2 3 0.43 2.77
-4 -2 2 1.14 4.45
-4 -2 2 1.68 4.55
-4 -2 1 44.75 5.71
-4 -2 1 39.49 6.59
-4 -2 0 118.42 7.6
-4 -2 0 137.25 9.74
-4 -2 -1 25.25 6.37
-4 -2 -1 18.9 6.96
-4 -2 -2 107.69 9.48
-4 -2 -2 107.31 10.04
-4 -2 -3 1.78 5.95
-4 -2 -4 31.39 8.55
-4 -2 -5 96.39 11.28
-4 -2 -6 85.82 9.38
-4 -2 -7 10.73 8.43
-4 -2 -8 3.13 7.82
-4 -3 9 2.8 5.02
-4 -3 8 112.38 10.61
-4 -3 7 7.11 5.95
-4 -3 7 1.82 2.58
-4 -3 6 10.57 6.28
-4 -3 6 2.01 2.87
-4 -3 5 56.95 8.79
-4 -3 5 47.02 4.81
-4 -3 4 3.27 5.59
-4 -3 4 -4.76 3.77
-4 -3 3 -6.23 5.92
-4 -3 3 -3.13 4.43
-4 -3 2 17.55 7.2
-4 -3 2 10.83 5.05
-4 -3 1 13.36 5.12
-4 -3 1 8.05 5.59
-4 -3 0 34.09 7.72
-4 -3 0 35.98 7.11
-4 -3 -1 9.9 6.47
-4 -3 -1 17.88 6.75
-4 -3 -2 20.77 5.4
-4 -3 -2 1.21 6.92
-4 -3 -3 55.22 7.56
-4 -3 -4 -8.81 5.8
-4 -3 -5 56.05 10.12
-4 -3 -6 153.64 11.16
-4 -3 -7 3.2 6.44
-4 -4 7 39.16 9.74
-4 -4 7 34.78 4.07
-4 -4 6 48.94 9.57
-4 -4 6 39.06 4.62
-4 -4 5 17.2 7.86
-4 -4 5 10.8 4.19
-4 -4 4 6.68 6.25
-4 -4 4 -4.03 3.67
-4 -4 3 10.45 6.54
-4 -4 3 4.57 4.5
-4 -4 2 14.43 8.03
-4 -4 2 6.96 5.21
-4 -4 1 6.68 6.54
-4 -4 1 2.44 5.26
-4 -4 0 26.34 7.56
-4 -4 0 17.98 6.96
-4 -4 -1 23.36 8.27
-4 -4 -1 39.51 7.63
-4 -4 -2 137.32 11.84
-4 -4 -2 142.18 11.37
-4 -4 -3 2.82 6.44
-4 -4 -4 -1.47 5.19
-4 -4 -5 9.45 7.98
-4 -4 -6 4 7.7
-4 -5 5 -4.03 5.45
-4 -5 5 0.9 3.72
-4 -5 4 1.14 7.32
-4 -5 4 3.65 4.67
-4 -5 3 22.34 9.59
-4 -5 3 19.28 6.47
-4 -5 2 -11.28 8.1
-4 -5 2 -1.78 5.14
-4 -5 1 0.05 6.51
-4 -5 1 0.66 5.76
-4 -5 0 123.35 9.76
-4 -5 0 117.26 11.44
-4 -5 -1 -0.47 7.53
-4 -5 -1 11.8 5.83
-4 -5 -2 286.35 17.43
-4 -5 -2 269.17 14.19
-4 -5 -3 247.64 16.16
