#------------------------------------------------------------------------------
#$Date: 2019-11-25 13:42:28 +0200 (Mon, 25 Nov 2019) $
#$Revision: 240997 $
#$URL: file:///home/coder/svn-repositories/cod/cif/4/13/05/4130597.cif $
#------------------------------------------------------------------------------
#
# This file is available in the Crystallography Open Database (COD),
# http://www.crystallography.net/
#
# All data on this site have been placed in the public domain by the
# contributors.
#
data_4130597
loop_
_publ_author_name
'Krishna, Gamidi Rama'
'Devarapalli, Ramesh'
'Lal, Garima'
'Reddy, C. Malla'
_publ_section_title
;
 Mechanically Flexible Organic Crystals Achieved by Introducing Weak
 Interactions in Structure: Supramolecular Shape Synthons.
;
_journal_issue                   41
_journal_name_full               'Journal of the American Chemical Society'
_journal_page_first              13561
_journal_page_last               13567
_journal_paper_doi               10.1021/jacs.6b05118
_journal_volume                  138
_journal_year                    2016
_chemical_formula_moiety         'C7 H4 Cl2 O2'
_chemical_formula_sum            'C7 H4 Cl2 O2'
_chemical_formula_weight         191.00
_chemical_name_common            '3,4-dichloro benzoic acid'
_space_group_IT_number           14
_space_group_name_Hall           '-P 2ybc'
_space_group_name_H-M_alt        'P 1 21/c 1'
_symmetry_cell_setting           monoclinic
_symmetry_space_group_name_H-M   'P 1 21/c 1'
_atom_sites_solution_hydrogens   geom
_atom_sites_solution_primary     direct
_atom_sites_solution_secondary   difmap
_audit_creation_method           SHELXL-97
_cell_angle_alpha                90.00
_cell_angle_beta                 90.871(4)
_cell_angle_gamma                90.00
_cell_formula_units_Z            4
_cell_length_a                   3.7527(7)
_cell_length_b                   6.2589(13)
_cell_length_c                   30.957(6)
_cell_measurement_reflns_used    1831
_cell_measurement_temperature    296(2)
_cell_measurement_theta_max      28.58
_cell_measurement_theta_min      2.63
_cell_volume                     727.0(2)
_computing_cell_refinement       'Bruker SAINT'
_computing_data_collection       'Bruker APEX2'
_computing_data_reduction        'Bruker SAINT'
_computing_molecular_graphics    'Bruker SHELXTL'
_computing_publication_material  'Bruker SHELXTL'
_computing_structure_refinement  'SHELXL-97 (Sheldrick, 2008)'
_computing_structure_solution    'SHELXS-97 (Sheldrick, 2008)'
_diffrn_ambient_temperature      296(2)
_diffrn_measured_fraction_theta_full 0.999
_diffrn_measured_fraction_theta_max 0.999
_diffrn_measurement_device_type  'Bruker Kappa APEX-II CCD DUO'
_diffrn_measurement_method       '\ f and \ w scans'
_diffrn_radiation_monochromator  graphite
_diffrn_radiation_source         'fine-focus sealed tube'
_diffrn_radiation_type           MoK\a
_diffrn_radiation_wavelength     0.71073
_diffrn_reflns_av_R_equivalents  0.0368
_diffrn_reflns_av_sigmaI/netI    0.0344
_diffrn_reflns_limit_h_max       4
_diffrn_reflns_limit_h_min       -3
_diffrn_reflns_limit_k_max       8
_diffrn_reflns_limit_k_min       -8
_diffrn_reflns_limit_l_max       40
_diffrn_reflns_limit_l_min       -40
_diffrn_reflns_number            6696
_diffrn_reflns_theta_full        28.00
_diffrn_reflns_theta_max         28.00
_diffrn_reflns_theta_min         2.63
_exptl_absorpt_coefficient_mu    0.828
_exptl_absorpt_correction_T_max  0.928
_exptl_absorpt_correction_T_min  0.888
_exptl_absorpt_correction_type   multi-scan
_exptl_absorpt_process_details   'SADABS; BRUKER, 2008'
_exptl_crystal_colour            Colorless
_exptl_crystal_density_diffrn    1.745
_exptl_crystal_density_method    'not measured'
_exptl_crystal_description       Needle
_exptl_crystal_F_000             384
_exptl_crystal_size_max          0.59
_exptl_crystal_size_mid          0.12
_exptl_crystal_size_min          0.09
_refine_diff_density_max         0.860
_refine_diff_density_min         -0.523
_refine_diff_density_rms         0.101
_refine_ls_extinction_coef       0.011(5)
_refine_ls_extinction_expression Fc^*^=kFc[1+0.001xFc^2^\l^3^/sin(2\q)]^-1/4^
_refine_ls_extinction_method     SHELXL
_refine_ls_goodness_of_fit_ref   1.087
_refine_ls_hydrogen_treatment    mixed
_refine_ls_matrix_type           full
_refine_ls_number_parameters     105
_refine_ls_number_reflns         1743
_refine_ls_number_restraints     1
_refine_ls_restrained_S_all      1.087
_refine_ls_R_factor_all          0.0616
_refine_ls_R_factor_gt           0.0522
_refine_ls_shift/su_max          0.000
_refine_ls_shift/su_mean         0.000
_refine_ls_structure_factor_coef Fsqd
_refine_ls_weighting_details
'calc w=1/[\s^2^(Fo^2^)+(0.1000P)^2^+0.9300P] where P=(Fo^2^+2Fc^2^)/3'
_refine_ls_weighting_scheme      calc
_refine_ls_wR_factor_gt          0.1556
_refine_ls_wR_factor_ref         0.1617
_reflns_number_gt                1526
_reflns_number_total             1743
_reflns_threshold_expression     >2sigma(I)
_cod_data_source_file            ja6b05118_si_011.cif
_cod_data_source_block           2b
_cod_depositor_comments
;
The following automatic conversions were performed:

data item '_symmetry_cell_setting' value 'Monoclinic' was changed to
'monoclinic' in accordance with the
/home/saulius/struct/COD-crude-data/automatic-downloads/DataCite-retrospective/ACS/depositions/lib/dictionaries/cif_core.dic
dictionary named 'cif_core.dic' version 2.4.2 last updated on
2011-04-26.

Automatic conversion script
Id: cif_fix_values 6909 2019-04-08 15:41:33Z antanas 
;
_cod_original_cell_volume        727.0(3)
_cod_original_sg_symbol_H-M      'P 21/c  '
_cod_database_code               4130597
loop_
_symmetry_equiv_pos_as_xyz
'x, y, z'
'-x, y+1/2, -z+1/2'
'-x, -y, -z'
'x, -y-1/2, z-1/2'
loop_
_atom_site_label
_atom_site_type_symbol
_atom_site_fract_x
_atom_site_fract_y
_atom_site_fract_z
_atom_site_U_iso_or_equiv
_atom_site_adp_type
_atom_site_occupancy
_atom_site_symmetry_multiplicity
_atom_site_calc_flag
_atom_site_refinement_flags
Cl1 Cl 0.0629(2) 0.16919(14) 0.28838(2) 0.0202(3) Uani 1 1 d .
Cl2 Cl 0.4304(2) -0.28107(14) 0.30741(3) 0.0210(3) Uani 1 1 d .
C4 C 0.1770(8) 0.0923(5) 0.34019(10) 0.0146(6) Uani 1 1 d .
C1 C 0.1049(9) 0.3172(5) 0.45250(10) 0.0140(6) Uani 1 1 d .
C2 C 0.1897(8) 0.1696(5) 0.41639(10) 0.0136(6) Uani 1 1 d .
C6 C 0.4192(9) -0.1659(5) 0.39087(11) 0.0165(6) Uani 1 1 d .
H6 H 0.5235 -0.2981 0.3964 0.020 Uiso 1 1 calc R
C3 C 0.1043(8) 0.2306(5) 0.37422(10) 0.0133(6) Uani 1 1 d .
H3 H -0.0004 0.3628 0.3688 0.016 Uiso 1 1 calc R
C5 C 0.3338(8) -0.1059(5) 0.34863(10) 0.0158(6) Uani 1 1 d .
C7 C 0.3474(8) -0.0270(5) 0.42460(10) 0.0161(6) Uani 1 1 d .
H7 H 0.4054 -0.0659 0.4528 0.019 Uiso 1 1 calc R
O1 O -0.0662(7) 0.4835(4) 0.44642(7) 0.0197(5) Uani 1 1 d .
O2 O 0.2214(8) 0.2560(4) 0.49033(8) 0.0222(6) Uani 1 1 d D
H2 H 0.169(12) 0.328(8) 0.5052(16) 0.026(13) Uiso 1 1 d D
loop_
_atom_site_aniso_label
_atom_site_aniso_U_11
_atom_site_aniso_U_22
_atom_site_aniso_U_33
_atom_site_aniso_U_23
_atom_site_aniso_U_13
_atom_site_aniso_U_12
Cl1 0.0230(5) 0.0264(5) 0.0110(4) 0.0011(3) -0.0017(3) 0.0005(3)
Cl2 0.0202(5) 0.0241(5) 0.0186(4) -0.0069(3) 0.0022(3) 0.0019(3)
C4 0.0112(15) 0.0211(16) 0.0116(13) 0.0012(12) 0.0004(10) -0.0041(12)
C1 0.0142(15) 0.0155(14) 0.0125(13) 0.0000(12) 0.0017(11) -0.0011(12)
C2 0.0099(14) 0.0170(15) 0.0139(14) -0.0019(12) 0.0020(10) -0.0014(11)
C6 0.0139(15) 0.0162(15) 0.0195(15) -0.0013(12) 0.0010(11) 0.0004(12)
C3 0.0101(15) 0.0157(14) 0.0140(14) -0.0013(11) 0.0007(11) -0.0003(11)
C5 0.0131(15) 0.0168(15) 0.0175(14) -0.0038(12) 0.0022(11) -0.0015(12)
C7 0.0146(16) 0.0185(15) 0.0151(13) 0.0019(12) 0.0005(11) -0.0004(12)
O1 0.0252(13) 0.0196(12) 0.0142(10) -0.0006(9) 0.0012(9) 0.0059(10)
O2 0.0309(15) 0.0237(13) 0.0117(11) -0.0031(10) -0.0020(10) 0.0088(11)
loop_
_atom_type_symbol
_atom_type_description
_atom_type_scat_dispersion_real
_atom_type_scat_dispersion_imag
_atom_type_scat_source
C C 0.0033 0.0016 'International Tables Vol C Tables 4.2.6.8 and 6.1.1.4'
H H 0.0000 0.0000 'International Tables Vol C Tables 4.2.6.8 and 6.1.1.4'
O O 0.0106 0.0060 'International Tables Vol C Tables 4.2.6.8 and 6.1.1.4'
Cl Cl 0.1484 0.1585 'International Tables Vol C Tables 4.2.6.8 and 6.1.1.4'
loop_
_geom_angle_atom_site_label_1
_geom_angle_atom_site_label_2
_geom_angle_atom_site_label_3
_geom_angle
C3 C4 C5 119.8(3)
C3 C4 Cl1 118.8(3)
C5 C4 Cl1 121.4(2)
O1 C1 O2 123.5(3)
O1 C1 C2 121.7(3)
O2 C1 C2 114.9(3)
C7 C2 C3 120.4(3)
C7 C2 C1 120.5(3)
C3 C2 C1 119.0(3)
C7 C6 C5 119.5(3)
C2 C3 C4 119.5(3)
C6 C5 C4 120.4(3)
C6 C5 Cl2 118.3(2)
C4 C5 Cl2 121.3(2)
C2 C7 C6 120.3(3)
loop_
_geom_bond_atom_site_label_1
_geom_bond_atom_site_label_2
_geom_bond_distance
Cl1 C4 1.722(3)
Cl2 C5 1.725(3)
C4 C3 1.394(4)
C4 C5 1.396(5)
C1 O1 1.236(4)
C1 O2 1.301(4)
C1 C2 1.488(4)
C2 C7 1.387(4)
C2 C3 1.393(4)
C6 C7 1.389(4)
C6 C5 1.393(4)
