#------------------------------------------------------------------------------
#$Date: 2019-11-25 20:08:25 +0200 (Mon, 25 Nov 2019) $
#$Revision: 241701 $
#$URL: file:///home/coder/svn-repositories/cod/cif/4/13/15/4131510.cif $
#------------------------------------------------------------------------------
#
# This file is available in the Crystallography Open Database (COD),
# http://www.crystallography.net/
#
# All data on this site have been placed in the public domain by the
# contributors.
#
data_4131510
loop_
_publ_author_name
'Zhang, Wan-Ying'
'Tang, Yuan-Yuan'
'Li, Peng-Fei'
'Shi, Ping-Ping'
'Liao, Wei-Qiang'
'Fu, Da-Wei'
'Ye, Heng-Yun'
'Zhang, Yi'
'Xiong, Ren-Gen'
_publ_section_title
;
 Precise Molecular Design of High-T<sub>c</sub> 3D Organic-Inorganic
 Perovskite Ferroelectric: [MeHdabco]RbI<sub>3</sub> (MeHdabco =
 N-Methyl-1,4-diazoniabicyclo[2.2.2]octane).
;
_journal_issue                   31
_journal_name_full               'Journal of the American Chemical Society'
_journal_page_first              10897
_journal_page_last               10902
_journal_paper_doi               10.1021/jacs.7b06013
_journal_volume                  139
_journal_year                    2017
_chemical_formula_sum            'C0.3 H0.7 I0.13 N0.09 Rb0.04'
_chemical_formula_weight         25.84
_space_group_crystal_system      trigonal
_space_group_IT_number           146
_space_group_name_Hall           'P 3*'
_space_group_name_H-M_alt        'R 3 :R'
_atom_sites_solution_hydrogens   mixed
_audit_creation_method           SHELXL-2014/7
_cell_angle_alpha                84.810(3)
_cell_angle_beta                 84.810(3)
_cell_angle_gamma                84.810(3)
_cell_formula_units_Z            23
_cell_length_a                   7.272(3)
_cell_length_b                   7.272(3)
_cell_length_c                   7.272(3)
_cell_measurement_reflns_used    1270
_cell_measurement_temperature    273(2)
_cell_measurement_theta_max      27.4894
_cell_measurement_theta_min      2.8197
_cell_volume                     380.1(3)
_computing_structure_refinement  'SHELXL-2014/7 (Sheldrick, 2014)'
_diffrn_ambient_temperature      273(2)
_diffrn_measured_fraction_theta_full 0.994
_diffrn_measured_fraction_theta_max 0.995
_diffrn_measurement_device_type  'Rigaku saturn 724'
_diffrn_radiation_type           MoK\a
_diffrn_radiation_wavelength     0.71073
_diffrn_reflns_av_R_equivalents  0.0241
_diffrn_reflns_av_unetI/netI     0.0460
_diffrn_reflns_Laue_measured_fraction_full 0.994
_diffrn_reflns_Laue_measured_fraction_max 0.995
_diffrn_reflns_limit_h_max       3
_diffrn_reflns_limit_h_min       -9
_diffrn_reflns_limit_k_max       7
_diffrn_reflns_limit_k_min       -9
_diffrn_reflns_limit_l_max       9
_diffrn_reflns_limit_l_min       -9
_diffrn_reflns_number            1354
_diffrn_reflns_point_group_measured_fraction_full 0.988
_diffrn_reflns_point_group_measured_fraction_max 0.974
_diffrn_reflns_theta_full        25.242
_diffrn_reflns_theta_max         27.481
_diffrn_reflns_theta_min         2.822
_exptl_absorpt_coefficient_mu    9.320
_exptl_absorpt_correction_T_max  1.0000
_exptl_absorpt_correction_T_min  0.6603
_exptl_absorpt_correction_type   multi-scan
_exptl_crystal_colour            COLORLESS
_exptl_crystal_density_diffrn    2.597
_exptl_crystal_description       BLOCK
_exptl_crystal_F_000             268
_exptl_crystal_size_max          0.15
_exptl_crystal_size_mid          0.12
_exptl_crystal_size_min          0.10
_refine_diff_density_max         0.549
_refine_diff_density_min         -0.823
_refine_diff_density_rms         0.123
_refine_ls_abs_structure_details
;
 Classical Flack method preferred over Parsons because s.u. lower.
;
_refine_ls_abs_structure_Flack   0.07(3)
_refine_ls_extinction_coef       0.029(3)
_refine_ls_extinction_expression Fc^*^=kFc[1+0.001xFc^2^\l^3^/sin(2\q)]^-1/4^
_refine_ls_extinction_method     'SHELXL-2014/7 (Sheldrick 2014'
_refine_ls_goodness_of_fit_ref   0.942
_refine_ls_hydrogen_treatment    constr
_refine_ls_matrix_type           full
_refine_ls_number_parameters     42
_refine_ls_number_reflns         783
_refine_ls_number_restraints     1
_refine_ls_restrained_S_all      0.942
_refine_ls_R_factor_all          0.0260
_refine_ls_R_factor_gt           0.0249
_refine_ls_shift/su_max          0.006
_refine_ls_shift/su_mean         0.002
_refine_ls_structure_factor_coef Fsqd
_refine_ls_weighting_details
'w=1/[\s^2^(Fo^2^)+(0.0266P)^2^] where P=(Fo^2^+2Fc^2^)/3'
_refine_ls_weighting_scheme      calc
_refine_ls_wR_factor_gt          0.0538
_refine_ls_wR_factor_ref         0.0540
_reflns_Friedel_coverage         0.959
_reflns_Friedel_fraction_full    0.983
_reflns_Friedel_fraction_max     0.954
_reflns_number_gt                743
_reflns_number_total             783
_reflns_threshold_expression     'I > 2\s(I)'
_cod_data_source_file            ja7b06013_si_002.cif
_cod_data_source_block           1
_cod_depositor_comments
;
The following automatic conversions were performed:

data item '_exptl_absorpt_correction_type' value 'Multi-scan' was
changed to 'multi-scan' in accordance with the
/home/saulius/struct/COD-crude-data/automatic-downloads/DataCite-retrospective/ACS/depositions/lib/dictionaries/cif_core.dic
dictionary named 'cif_core.dic' version 2.4.2 last updated on
2011-04-26.

Automatic conversion script
Id: cif_fix_values 6909 2019-04-08 15:41:33Z antanas 
;
_cod_original_cell_volume        380.0(4)
_cod_original_formula_sum        'C0.30 H0.70 I0.13 N0.09 Rb0.04'
_cod_database_code               4131510
_shelx_shelxl_version_number     2014/7
_shelx_space_group_comment
;
The symmetry employed for this shelxl refinement is uniquely defined
by the following loop, which should always be used as a source of
symmetry information in preference to the above space-group names.
They are only intended as comments.
;
_shelx_res_file
;

    1.res created by SHELXL-2014/7


TITL 1 in R3
CELL 0.71073   7.2717   7.2717   7.2717  84.810  84.810  84.810
ZERR   23.00   0.0027   0.0027   0.0027   0.003   0.003   0.003
LATT -1
SYMM Z, X, Y
SYMM Y, Z, X

SFAC C H N RB I
UNIT 7 16 2 1 3

L.S. 4
BOND
TEMP 0
ACTA
FMAP 2
PLAN 20

TWIN 0 -1 0 -1 0 0 0 0 -1

WGHT    0.026600
EXTI    0.028717
BASF   0.46418
FVAR       0.85805
I1    5    1.006759    0.937991    0.499797    11.00000    0.03546    0.04375 =
         0.03229   -0.00234   -0.00238   -0.00121
RB3   4    0.994527    0.994527    0.994527    10.33333    0.03405    0.03405 =
         0.03405   -0.00433   -0.00433   -0.00433
N1    3    1.619117    1.619117    0.619117    10.33333    0.04833    0.04833 =
         0.04833   -0.01489   -0.01489   -0.01489
AFIX   3
H1C   2    1.684848    1.684309    0.684309    10.33333   -1.20000
AFIX   0
N2    3    1.436965    1.436965    0.436965    10.33333    0.02772    0.02772 =
         0.02772   -0.00245   -0.00245   -0.00245
C2    1    1.624626    1.337337    0.463528    11.00000    0.02925    0.04856 =
         0.04057   -0.00662    0.00717    0.01205
AFIX  23
H2A   2    1.611465    1.227084    0.547679    11.00000   -1.20000
H2B   2    1.682135    1.299633    0.345716    11.00000   -1.20000
AFIX   0
C1    1    1.745269    1.465733    0.542381    11.00000    0.03691    0.06265 =
         0.05829    0.00094   -0.01176    0.00588
AFIX  23
H1A   2    1.832798    1.515131    0.445949    11.00000   -1.20000
H1B   2    1.814097    1.399044    0.639346    11.00000   -1.20000
AFIX   0
C3    1    1.329423    1.329423    0.329423    10.33333    0.07583    0.07583 =
         0.07583   -0.02418   -0.02418   -0.02418
AFIX   3
H3A   2    1.209883    1.398220    0.317621    11.00000   -1.50000

AFIX   0
HKLF 4

REM  1 in R3
REM R1 =  0.0249 for     743 Fo > 4sig(Fo)  and  0.0260 for all     783 data
REM     42 parameters refined using      1 restraints

END

WGHT      0.0260      0.0000

REM Highest difference peak  0.549,  deepest hole -0.823,  1-sigma level  0.123
Q1    1   0.9767  0.9289  0.5371  11.00000  0.05    0.55
Q2    1   1.0536  0.9405  0.9957  11.00000  0.05    0.42
Q3    1   1.0620  0.8219  0.5448  11.00000  0.05    0.39
Q4    1   0.9305  0.9809  0.5402  11.00000  0.05    0.38
Q5    1   0.8336  1.0355  1.0178  11.00000  0.05    0.37
Q6    1   1.9311  1.6002  0.4779  11.00000  0.05    0.37
Q7    1   1.1074  0.8816  0.2745  11.00000  0.05    0.35
Q8    1   1.0054  1.0376  0.8762  11.00000  0.05    0.35
Q9    1   1.5998  1.3772  0.4543  11.00000  0.05    0.34
Q10   1   0.9993  1.0665  0.4661  11.00000  0.05    0.34
Q11   1   0.9654  1.1002  0.4643  11.00000  0.05    0.34
Q12   1   1.6623  1.4113  0.1684  11.00000  0.05    0.32
Q13   1   1.8156  1.0921  0.7403  11.00000  0.05    0.30
Q14   1   1.9975  1.4764  0.4420  11.00000  0.05    0.30
Q15   1   1.7983  1.6138  0.3916  11.00000  0.05    0.29
Q16   1   1.0992  0.8688  0.4406  11.00000  0.05    0.29
Q17   1   1.0397  1.0530  0.3149  11.00000  0.05    0.29
Q18   1   1.8222  1.5604  0.2549  11.00000  0.05    0.29
Q19   1   1.0521  0.8588  0.3324  11.00000  0.05    0.28
Q20   1   1.0905  0.8203  0.3904  11.00000  0.05    0.28
;
_shelx_res_checksum              6622
_shelx_hkl_file
;
  -3  -3  -3 3144.79   86.70
  -4  -4  -4 2286.70  104.38
  -5  -5  -5  649.54   48.24
  -5  -6  -6   81.72   48.91
  -6  -5  -6   78.36   59.99
  -6  -6  -5   71.79   52.37
  -4  -5  -5   51.38   35.52
  -5  -4  -5   49.77   39.20
  -5  -5  -4   60.58   29.44
  -3  -4  -4  705.91   44.99
  -4  -3  -4  670.29   62.69
  -4  -4  -3  739.44   46.33
  -2  -3  -3   27.57   13.34
  -3  -2  -3   31.88   29.22
  -3  -3  -2   31.91   21.09
  -1  -2  -2 3292.45   60.18
  -2  -1  -2 3189.20   57.04
  -2  -2  -1 3128.05   55.91
   0  -1  -1   20.50   17.09
   0   1   1   17.93   12.41
  -1   0  -1   22.85    3.95
   1   0   1   15.74    4.93
  -1  -1   0   26.09    8.98
   1   1   0   20.58    4.72
   0   0   1 1365.08   23.80
   0  -1   0 1257.89   20.22
   1   0   0 1314.21   24.13
  -1  -1  -2  422.47   22.99
  -1  -2  -1  454.84   23.82
   1   2   1  414.88   21.35
  -2  -1  -1  419.43   21.89
  -2  -2  -3 1321.86   35.56
  -2  -3  -2 1364.53   37.40
  -3  -2  -2 1304.52   34.19
  -3  -3  -4  267.55   36.18
  -3  -4  -3  254.65   23.26
  -4  -3  -3  255.30   22.77
  -4  -4  -5  234.25   25.57
  -4  -5  -4  256.49   25.91
  -5  -4  -4  256.94   36.93
  -5  -5  -6  102.50   56.40
  -5  -6  -5   96.63   54.48
  -6  -5  -5   74.60   43.19
  -4  -6  -5  215.35   41.26
  -5  -4  -6  237.53   31.36
  -6  -5  -4  217.76  109.89
  -3  -5  -4  280.50   66.78
  -4  -3  -5  259.07   37.38
  -5  -4  -3  282.42   27.31
  -2  -4  -3 1374.47   48.52
  -3  -2  -4 1399.95   43.67
  -4  -3  -2 1419.28   44.01
  -1  -3  -2  593.64   32.73
  -2  -1  -3  642.55   34.31
  -3  -2  -1  608.66   31.80
   0  -2  -1 4568.50   73.93
   0   2   1 4746.71   74.96
  -1   0  -2 4733.99   73.49
  -2  -1   0 4754.44   77.45
   0  -1   1  866.62   35.40
  -1   1   0  873.26   37.28
  -1   0   1  880.76   38.23
   1   0  -1  909.58   39.90
   1  -1   0  852.27   36.12
   0  -1  -2 4658.00   76.05
  -1  -2   0 4819.65   73.47
   1   2   0 4634.88   71.16
  -2   0  -1 4701.82   73.44
   2   0   1 4392.13   69.46
  -1  -2  -3  552.19   30.93
  -2  -3  -1  555.49   29.94
  -2  -3  -4 1387.73   46.29
  -3  -4  -2 1348.35   45.35
  -4  -2  -3 1327.71   52.71
  -3  -4  -5  257.31   23.56
  -4  -5  -3  283.28   28.52
  -5  -3  -4  302.64   26.50
  -4  -5  -6  192.60   34.33
  -5  -6  -4  189.51   25.37
  -6  -4  -5  187.41   25.12
  -4  -6  -6  467.00   45.50
  -6  -4  -6  458.81   68.87
  -6  -6  -4  465.24   42.51
  -3  -5  -5  816.85   88.20
  -5  -3  -5  828.86   56.71
  -5  -5  -3  782.58   51.35
  -2  -4  -4 3241.91   77.30
  -4  -2  -4 3068.85  105.31
  -4  -4  -2 3352.48   86.17
  -1  -3  -3 3663.68   78.67
  -3  -1  -3 3873.32   76.24
  -3  -3  -1 3568.84   82.05
   2   0   2 9999.99   55.77
   1  -1  -1 6331.20   96.18
  -1   1   1 6165.91   93.08
  -1  -1  -3 4187.40   75.27
  -3  -1  -1 4286.20   76.87
  -2  -2  -4 5623.93  115.25
  -2  -4  -2 5850.43  116.94
  -4  -2  -2 5919.12  125.27
  -3  -3  -5 1201.05   46.57
  -3  -5  -3 1121.78   74.21
  -5  -3  -3 1189.17   49.03
  -4  -4  -6 1036.90   64.90
  -4  -6  -4 1010.45   74.41
  -6  -4  -4 1026.60   69.36
  -5  -5  -7  218.10   88.32
  -5  -7  -5  182.66  112.98
  -7  -5  -5  216.89   29.45
  -4  -7  -5   67.47   51.81
  -5  -4  -7   66.79   53.38
  -7  -5  -4   60.00   56.03
  -3  -6  -4  431.14   55.97
  -4  -3  -6  382.65   27.82
  -6  -4  -3  364.42   35.40
  -2  -5  -3  346.98   29.48
  -3  -2  -5  313.44   28.21
  -5  -3  -2  272.35   26.01
  -2  -1  -4 1918.76   49.77
  -4  -2  -1 1921.42   50.17
   0  -3  -1  752.33   36.76
  -1   0  -3  763.45   35.69
  -3  -1   0  737.28   38.80
   1  -2   0 3546.21   54.89
  -1   2   0 3457.68   54.67
   0  -1   2 3377.19   52.36
  -2   0   1 3752.45   64.65
   1   2  -1 1361.04   27.73
   2  -1   1 1318.52   27.57
   0  -2  -3 2070.23   48.14
  -2  -3   0 2052.67   45.69
  -3   0  -2 2129.79   44.23
  -1  -3  -4  646.09   54.02
  -3  -4  -1  725.44   40.47
  -4  -1  -3  645.96   37.15
  -2  -4  -5  737.91   50.30
  -4  -5  -2  645.99   41.31
  -5  -2  -4  623.18   62.95
  -3  -5  -6  157.78   85.42
  -5  -6  -3  176.46   43.29
  -6  -3  -5  145.17   23.22
  -4  -6  -7   50.07   46.55
  -6  -7  -4   61.66   35.93
  -7  -4  -6   56.54   41.85
  -4  -7  -6   61.76   42.92
  -6  -4  -7   43.15   54.78
  -7  -6  -4   42.52   32.08
  -3  -6  -5  227.80   25.77
  -5  -3  -6  197.04   23.75
  -6  -5  -3  243.66   69.44
  -2  -5  -4  719.67   45.23
  -4  -2  -5  725.12   45.73
  -5  -4  -2  742.58   46.03
  -1  -4  -3  753.36   43.03
  -3  -1  -4  773.92   41.87
  -4  -3  -1  843.15   46.35
   0  -3  -2 2587.79   56.66
  -2   0  -3 2305.91   54.75
  -3  -2   0 2331.78   49.61
   1  -2  -1 1402.93   30.82
  -1   2   1 1578.50   33.17
   1  -1   2 1576.74   26.39
  -2  -1   1 1459.27   34.12
  -1   0   2 3751.14   61.70
  -2   1   0 3613.42   60.01
  -1   0   2 3612.37   60.99
   0  -1  -3  998.78   47.52
  -1  -3   0  992.65   44.22
  -3   0  -1 1006.30   47.00
  -1  -2  -4 2306.13   56.48
  -2  -4  -1 2204.37   60.57
  -4  -1  -2 2210.87   54.49
  -2  -3  -5  396.90   33.38
  -3  -5  -2  362.16   62.35
  -5  -2  -3  365.17   29.58
  -3  -4  -6  504.29   55.36
  -4  -6  -3  504.69   55.61
  -6  -3  -4  501.05   52.62
  -4  -5  -7   62.37   56.17
  -5  -7  -4   64.84   37.05
  -7  -4  -5   62.29   51.81
  -3  -6  -6  158.00   26.08
  -6  -3  -6  145.17   24.37
  -6  -6  -3  172.94   97.89
  -2  -5  -5   39.35   22.85
  -5  -2  -5   47.10   22.68
  -5  -5  -2   41.50   30.37
  -1  -4  -4  995.91   60.46
  -4  -1  -4 1014.49   53.18
  -4  -4  -1 1028.58   55.21
   0  -3  -3  133.68   18.86
  -3   0  -3  167.01   13.67
   1  -2  -2 2995.38   65.62
  -2   1  -2 3027.19   49.90
   2  -1   2 3128.53   51.10
  -1   2  -1  246.46   11.15
  -2   1   1  234.15   15.78
   1   1  -2  228.98   13.49
   0   0  -3 1847.70   39.02
   0  -3   0 1801.71   36.26
   0   3   0 1754.21   32.35
  -3   0   0 1780.58   41.55
  -1  -1  -4  525.88   31.47
  -1  -4  -1  506.32   31.40
  -4  -1  -1  522.00   33.16
  -2  -2  -5  588.96   39.20
  -2  -5  -2  594.85   37.28
  -5  -2  -2  573.14   36.13
  -3  -3  -6  218.73   27.93
  -3  -6  -3  231.20   39.71
  -6  -3  -3  218.94   36.37
  -4  -4  -7   47.77   45.88
  -4  -7  -4   54.03   35.78
  -7  -4  -4   40.25   38.94
  -4  -3  -7  204.41   24.17
  -3  -7  -4  208.65   87.90
  -7  -4  -3  185.85   32.08
  -3  -2  -6 1089.15   63.03
  -2  -6  -3 1133.97   66.33
  -6  -3  -2 1128.08   66.79
  -2  -1  -5  913.85   50.07
  -1  -5  -2  935.91   51.62
  -5  -2  -1  999.40   56.54
  -1   0  -4 3442.27   70.18
   0  -4  -1 3565.48   71.21
  -4  -1   0 3316.65   72.14
   0   1  -3 1834.37   39.23
   1  -3   0 1967.70   38.96
   0  -1   3 1798.71   35.78
  -3   0   1 1929.73   45.95
  -2   2  -1 4001.18   62.66
  -1  -2   2 3940.42   65.23
   1   2  -2 4057.02   64.86
   2  -2   1 3900.89   61.45
  -2   1   2 4102.73   76.00
   1  -2  -3 1865.88   48.10
  -3   1  -2 1800.36   37.33
  -2  -3   1 1788.30   39.75
   0  -3  -4 2031.07   65.55
  -4   0  -3 2032.97   52.35
  -3  -4   0 2171.38   58.19
  -1  -4  -5  893.63   57.24
  -5  -1  -4  854.53   48.52
  -4  -5  -1  855.78   76.29
  -2  -5  -6  519.39   57.99
  -6  -2  -5  434.14   48.18
  -5  -6  -2  448.18   49.02
  -3  -6  -7  211.03   39.08
  -7  -3  -6  201.31   25.85
  -6  -7  -3  176.74   92.37
  -3  -7  -5  284.95   31.16
  -5  -3  -7  235.96   25.67
  -7  -5  -3  285.61   48.89
  -2  -6  -4  962.47   57.80
  -4  -2  -6 1008.47   60.45
  -6  -4  -2 1082.08   66.00
  -1  -5  -3  859.46   49.70
  -3  -1  -5  776.52   47.21
  -5  -3  -1  871.54   51.76
   0  -4  -2 4859.95   95.77
  -2   0  -4 5186.40   97.98
  -4  -2   0 5023.81  103.31
   1  -3  -1 1955.56   43.87
  -1   1  -3 2097.75   40.21
   1  -1   3 2016.35   36.99
  -3  -1   1 2059.05   47.31
  -2   2   0 7615.42   59.98
  -2   0   2 7600.93  121.24
   1  -1  -3 2156.15   50.61
  -1  -3   1 2092.12   37.92
  -3   1  -1 2138.23   46.39
   1   3  -1 2120.92   38.42
   0  -2  -4 5141.55  101.04
  -2  -4   0 5250.54  101.37
  -4   0  -2 5293.55   95.21
  -1  -3  -5  800.05   52.70
  -3  -5  -1  832.60   46.91
  -5  -1  -3  798.75   43.86
  -2  -4  -6 1084.90   67.94
  -4  -6  -2 1001.77   60.21
  -6  -2  -4  990.05   77.63
  -3  -5  -7  259.75   31.65
  -5  -7  -3  257.26   62.64
  -7  -3  -5  243.34   26.99
  -3  -7  -6  138.95   53.65
  -6  -3  -7  132.65   22.52
  -7  -6  -3  158.72   43.90
  -2  -6  -5  527.09   60.38
  -5  -2  -6  455.97   48.82
  -6  -5  -2  502.28   55.38
  -1  -5  -4  773.95   47.20
  -4  -1  -5  749.40   43.29
  -5  -4  -1  739.18   47.24
   0  -4  -3 1890.71   77.74
  -3   0  -4 1908.31   47.00
  -4  -3   0 1940.61   54.60
  -2   1  -3 1951.01   36.89
   2  -1   3 1699.83   33.35
  -3  -2   1 1832.88   45.72
  -2   2   1 3904.16   68.88
  -3   1   0 1795.94   42.59
   0  -1  -4 3329.99   79.68
  -1  -4   0 3318.37   66.46
  -4   0  -1 3249.10   68.69
  -1  -2  -5  823.73   49.86
  -2  -5  -1  816.92   47.67
  -5  -1  -2  814.96   45.39
  -2  -3  -6  947.04   59.81
  -3  -6  -2  964.33   57.22
  -6  -2  -3  982.86   60.51
  -3  -4  -7  212.13   50.04
  -4  -7  -3  219.23   26.29
  -7  -3  -4  215.57   44.54
  -2  -6  -6  485.28   43.60
  -6  -2  -6  415.89   41.23
  -6  -6  -2  514.00  111.19
  -1  -5  -5  346.77   47.44
  -5  -1  -5  328.76   24.54
  -5  -5  -1  325.11   26.38
   0  -4  -4 2416.07   87.97
  -4   0  -4 2524.55   67.15
  -4  -4   0 2688.31   70.98
   1  -3  -3 1519.51   50.60
  -3   1  -3 1494.88   36.54
  -3  -3   1 1471.62   40.41
  -2  -2   2 4881.40   84.17
  -1   3  -1 2129.86   33.02
  -1  -1   3 2043.13   42.17
   0   0  -4 4899.38  106.67
   0  -4   0 4885.94   86.40
  -4   0   0 4550.77  106.11
  -1  -1  -5  928.46   49.37
  -1  -5  -1  890.28   47.06
  -5  -1  -1  951.08   52.66
  -2  -2  -6 1459.34   79.80
  -2  -6  -2 1578.61   82.55
  -6  -2  -2 1359.62   75.98
  -3  -3  -7  328.13   31.94
  -3  -7  -3  365.07   31.83
  -7  -3  -3  337.37   32.37
  -4  -4  -8  248.47   36.39
  -4  -8  -4  243.86   39.53
  -8  -4  -4  234.25   56.41
  -4  -3  -8  165.18   29.69
  -3  -8  -4  178.33   95.94
  -8  -4  -3  174.14   87.84
  -3  -2  -7  241.26   32.11
  -2  -7  -3  239.70   31.10
  -7  -3  -2  256.30   31.85
  -2  -1  -6 1316.97   69.93
  -1  -6  -2 1264.73   84.24
  -6  -2  -1 1241.63   68.98
  -1   0  -5  817.68   44.77
   0  -5  -1  884.19   45.87
  -5  -1   0  887.99   47.89
   0   1  -4 2901.11   59.65
   1  -4   0 2887.93   58.76
  -4   0   1 2845.35   64.64
  -2   3  -1 2083.67   39.60
  -1  -2   3 2080.50   52.95
  -3   1   2 1857.10   47.81
  -3   2  -2 2702.84   49.25
  -2  -3   2 2523.82   51.67
  -2   2   3 2649.43   59.71
   1  -3  -4 1290.56   48.02
  -4   1  -3 1201.73   33.00
  -3  -4   1 1192.50   36.24
   0  -4  -5  907.24   57.42
  -5   0  -4  889.88   54.49
  -4  -5   0  933.30   52.09
  -1  -5  -6  423.24   50.73
  -6  -1  -5  441.53   47.84
  -5  -6  -1  443.31   49.99
  -2  -6  -7  135.15   45.48
  -7  -2  -6   88.43   59.41
  -6  -7  -2  120.38   68.43
  -3  -8  -5  147.34   42.47
  -5  -3  -8  101.41   82.73
  -8  -5  -3  123.17  106.60
  -2  -7  -4  146.47   34.73
  -4  -2  -7  149.23   77.79
  -7  -4  -2  136.80   72.53
  -1  -6  -3  550.44   67.70
  -3  -1  -6  512.10   72.38
  -6  -3  -1  505.22   53.01
   0  -5  -2  741.72   41.33
  -2   0  -5  699.19   38.39
  -5  -2   0  720.66   46.65
   1  -4  -1  868.92   52.39
  -1   1  -4  900.21   41.98
  -4  -1   1  907.09   47.86
   0  -2   3 1693.01   32.35
  -3   0   2 1828.52   46.05
   0  -2   3 1627.74   35.69
  -2   3   0 1608.14   34.19
  -1  -3   2 1072.79   48.25
  -3   2  -1 1058.46   48.10
   1   3  -2  919.63   40.64
  -2   1   3  835.79   44.68
   1  -2  -4 1800.27   54.15
  -2  -4   1 1740.84   49.02
  -4   1  -2 1778.50   42.55
   0  -3  -5  355.08   27.62
  -3  -5   0  395.79   27.80
  -5   0  -3  348.94   25.22
  -1  -4  -6  644.58   53.67
  -4  -6  -1  677.66   42.42
  -6  -1  -4  657.56   49.08
  -2  -5  -7   44.07   35.02
  -5  -7  -2   37.19   27.36
  -7  -2  -5   41.33   22.86
  -2  -7  -5   50.01   26.79
  -5  -2  -7   40.83   26.35
  -7  -5  -2   50.32   36.26
  -1  -6  -4  613.26   65.25
  -4  -1  -6  508.20   59.42
  -6  -4  -1  503.05   70.69
   0  -5  -3  295.96   39.33
  -3   0  -5  306.27   22.85
  -5  -3   0  299.89   30.10
   1  -4  -2 1469.78   51.54
  -2   1  -4 1542.68   42.41
  -4  -2   1 1478.12   44.13
   1  -2   3  948.62   40.54
  -3  -1   2  834.56   44.78
  -2   3   1  988.33   47.07
  -3   2   0 1574.97   38.24
  -2   0   3 1736.44   44.25
   0   3  -2 1717.19   26.56
   1  -1  -4  956.20   50.35
  -1  -4   1  914.64   41.40
  -4   1  -1  926.08   46.95
   0  -2  -5  535.27   36.28
  -2  -5   0  523.63   34.05
  -5   0  -2  501.18   30.76
  -1  -3  -6  389.29   28.18
  -3  -6  -1  468.03   48.43
  -6  -1  -3  449.95   47.14
  -2  -4  -7   84.06   58.50
  -4  -7  -2   96.34   27.73
  -7  -2  -4   90.69   47.05
  -3  -5  -8   84.87   88.26
  -5  -8  -3   96.00   78.97
  -8  -3  -5  107.82   61.56
  -2  -7  -6  124.64   78.26
  -6  -2  -7  118.61   56.07
  -7  -6  -2  156.04   54.94
  -1  -6  -5  502.84   53.92
  -5  -1  -6  456.98   47.40
  -6  -5  -1  529.52   57.23
   0  -5  -4 1203.66   69.73
  -4   0  -5 1119.92   57.69
  -5  -4   0 1208.50   49.83
   1  -4  -3 1253.92   41.93
  -3   1  -4 1250.89   31.38
  -4  -3   1 1284.04   42.15
   2  -2   3 2775.92   46.66
  -3  -2   2 3038.35   65.21
  -2  -1   3 1994.36   47.03
  -3   2   1 2256.28   51.18
  -4   1   0 2986.08   64.90
   0  -1  -5 1046.37   52.99
  -1  -5   0 1106.72   28.20
  -5   0  -1 1100.45   39.04
  -1  -2  -6 1604.57   84.41
  -2  -6  -1 1595.06   92.40
  -6  -1  -2 1578.62   84.55
  -2  -3  -7  265.73   25.55
  -3  -7  -2  292.94   32.33
  -7  -2  -3  260.99   24.39
  -3  -4  -8  248.36   30.70
  -4  -8  -3  225.79  117.91
  -8  -3  -4  266.71   33.55
  -1  -6  -6  199.74   25.73
  -6  -1  -6  238.77   25.72
  -6  -6  -1  217.83   42.58
   0  -5  -5   39.56   28.91
  -5   0  -5   21.24   16.57
  -5  -5   0   24.98   18.02
   1  -4  -4  636.30   42.68
  -4   1  -4  622.66   33.49
  -4  -4   1  592.33   38.62
   2  -3  -3  380.80   29.97
  -3   2  -3  368.65   19.80
  -3  -3   2  370.17   27.45
   3  -2   3  339.44   19.01
  -2   3  -2  501.42   21.22
  -2  -2   3  510.31   30.03
  -3   2   2  504.22   31.63
  -1   4  -1  707.84   31.00
  -4   1   1  704.37   38.48
  -1  -1   4  742.27   38.80
   0   0  -5  241.11   19.99
   0  -5   0  253.44   17.98
  -5   0   0  243.98   23.12
  -1  -1  -6  344.32   40.72
  -1  -6  -1  354.10   26.50
  -6  -1  -1  368.57   29.64
  -2  -2  -7   39.36   29.69
  -2  -7  -2   40.81   22.35
  -7  -2  -2   49.64   27.30
  -3  -3  -8  116.65   80.17
  -3  -8  -3  124.64   64.57
  -8  -3  -3  126.30   83.55
  -3  -2  -8  448.86   37.50
  -2  -8  -3  522.92   42.80
  -8  -3  -2  499.52   45.15
  -2  -1  -7  546.04   54.97
  -1  -7  -2  575.32   72.30
  -7  -2  -1  531.02   58.72
  -1   0  -6 1758.78   59.81
   0  -6  -1 1883.91   62.02
  -6  -1   0 1937.74   65.50
   0   1  -5 1537.44   39.17
  -5   0   1 1568.38   49.99
  -2   4  -1 2695.86   50.65
  -4   1   2 2579.09   66.43
  -1  -2   4 2696.68   55.21
  -2  -3   3 1874.31   45.22
  -3   2   3 1935.60   54.27
   3  -3   2 1875.32   36.57
   2  -3  -4 2256.90   63.30
  -4   2  -3 2244.66   58.86
  -3  -4   2 2335.75   57.06
   1  -4  -5  966.35   64.58
  -5   1  -4  972.82   51.58
  -4  -5   1  934.74   52.37
   0  -5  -6  681.77   59.94
  -6   0  -5  660.00   45.34
  -5  -6   0  661.48   43.04
  -1  -6  -7  286.56   86.52
  -7  -1  -6  283.71   29.41
  -6  -7  -1  316.85   33.77
  -2  -8  -4  266.97   69.02
  -4  -2  -8  291.64   32.29
  -8  -4  -2  246.18   88.05
  -3  -1  -7  125.68   19.45
  -1  -7  -3  147.90   43.59
  -7  -3  -1  122.97   21.87
   0  -6  -2 1201.96   71.99
  -2   0  -6 1178.30   61.91
  -6  -2   0 1300.88   73.03
  -1   1  -5  358.58   25.87
   1  -5  -1  368.85   25.62
  -5  -1   1  368.78   29.28
  -4   0   2 2755.16   67.43
   0  -2   4 2792.32   56.74
  -2   4   0 2833.28   54.64
  -1  -3   3  644.05   31.00
  -3   3  -1  677.71   33.57
  -3   1   3  669.89   37.92
  -2  -4   2 1967.93   43.61
  -4   2  -2 1886.46   51.37
   1  -3  -5  435.91   34.50
  -3  -5   1  421.99   29.17
  -5   1  -3  397.62   30.44
   0  -4  -6  553.07   58.67
  -4  -6   0  586.12   58.18
  -6   0  -4  581.76   57.21
  -1  -5  -7  114.48   69.26
  -5  -7  -1  124.77   62.79
  -7  -1  -5  116.60   38.15
  -2  -8  -5  209.60   59.08
  -5  -2  -8  244.17   25.23
  -8  -5  -2  242.74   40.04
  -1  -7  -4  414.38   79.45
  -4  -1  -7  432.72   47.65
  -7  -4  -1  431.07   51.41
   0  -6  -3 1393.93   76.58
  -3   0  -6 1327.21   67.63
  -6  -3   0 1348.36   75.24
   1  -5  -2 1377.23   56.55
  -2   1  -5 1478.86   39.54
  -5  -2   1 1448.79   48.82
   1  -2   4 3278.41   56.12
  -4  -1   2 3411.84   78.25
  -3   3   0 1672.61   55.98
  -1  -4   2 3425.14   67.43
  -4   2  -1 3474.23   69.44
   1   4  -2 3228.47   55.73
  -2   1   4 3245.90   73.32
   1  -2  -5 1404.28   90.88
  -2  -5   1 1418.64   41.11
  -5   1  -2 1302.53   51.73
   0  -3  -6 1264.88   74.56
  -3  -6   0 1291.19   71.44
  -6   0  -3 1283.64   68.16
  -1  -4  -7  444.52   53.10
  -4  -7  -1  445.68   57.54
  -7  -1  -4  441.76   52.05
  -2  -5  -8  208.47   28.90
  -5  -8  -2  223.17   46.58
  -8  -2  -5  217.46   28.70
  -1  -7  -5  123.27   42.75
  -5  -1  -7  133.31   21.61
  -7  -5  -1  155.97   23.15
   0  -6  -4  561.57   59.34
  -4   0  -6  500.15   52.92
  -6  -4   0  599.37   63.39
   1  -5  -3  402.81   62.25
  -3   1  -5  411.52   25.63
  -5  -3   1  364.30   30.14
   2  -4  -2 2040.80   53.92
   2  -2   4 2000.63   37.67
  -4  -2   2 1989.25   56.65
  -3  -1   3  696.34   40.22
  -3   3   1  689.08   37.35
   0  -4   2 2861.25   43.34
  -4   2   0 2919.81   63.71
   0   4  -2 2791.16   42.54
  -2   0   4 2813.12   66.07
   1  -1  -5  355.17   37.25
  -1  -5   1  371.75   21.19
  -5   1  -1  375.63   27.75
   0  -2  -6 1178.81   88.78
  -2  -6   0 1213.03   62.40
  -6   0  -2 1114.34   62.69
  -1  -3  -7  109.89   18.99
  -3  -7  -1  141.93   26.94
  -7  -1  -3  126.29   35.43
  -2  -4  -8  225.41   34.47
  -4  -8  -2  270.46   66.88
  -8  -2  -4  235.57   28.60
  -1  -7  -6  186.66  109.12
  -6  -1  -7  229.19   23.30
  -7  -6  -1  227.99   53.95
   0  -6  -5  607.24   63.19
  -5   0  -6  611.18   59.50
  -6  -5   0  586.05   78.76
   1  -5  -4  839.89   79.03
  -4   1  -5  863.84   46.03
  -5  -4   1  819.86   48.62
   2  -4  -3 1975.12   78.47
  -3   2  -4 1986.19   50.67
  -4  -3   2 1991.22   58.03
  -3  -2   3 1889.89   50.71
  -3   3   2 1887.57   51.61
  -4   2   1 2545.47   59.12
  -2  -1   4 2520.04   62.09
   0  -5   1 1509.94   40.91
   0   5  -1 1486.76   30.28
  -5   1   0 1370.73   44.85
  -1   0   5 1462.35   44.73
   0  -1  -6 1679.88   70.03
  -1  -6   0 1631.52   49.59
  -6   0  -1 1683.48   53.86
  -1  -2  -7  494.08   56.45
  -2  -7  -1  543.38   55.21
  -7  -1  -2  479.67   50.67
  -2  -3  -8  363.53   36.09
  -3  -8  -2  347.15  114.14
  -8  -2  -3  332.98   38.63
   0  -6  -6  182.98   25.23
  -6   0  -6  182.07   20.38
  -6  -6   0  168.54   43.30
   1  -5  -5  197.50   40.84
  -5   1  -5  166.93   30.51
  -5  -5   1  188.94   20.07
   2  -4  -4  974.95   57.06
  -4   2  -4 1033.58   52.37
  -4  -4   2 1067.11   57.04
  -3  -3   3  328.85   27.09
   3  -3   3  314.81   16.63
  -3   3   3  297.98   24.97
  -2  -2   4 2300.54   54.79
  -4   2   2 2232.68   58.44
   1  -5   1  254.28   14.78
  -1   5  -1  247.31   12.87
  -5   1   1  243.82   25.28
  -1  -1   5  243.06   20.50
   0   0  -6 1291.83   42.27
   0  -6   0 1242.93   38.60
  -6   0   0 1296.29   59.44
  -1  -1  -7  116.25   22.24
  -1  -7  -1  121.62   25.87
  -7  -1  -1  109.24   24.80
  -2  -2  -8  354.97   31.96
  -2  -8  -2  399.28   66.97
  -8  -2  -2  356.03   33.25
  -3  -2  -9   78.95   54.99
  -2  -9  -3   69.65   59.91
  -9  -3  -2   73.65   67.49
  -2  -1  -8  413.02   34.53
  -1  -8  -2  407.30   32.45
  -8  -2  -1  444.53   43.30
  -1   0  -7  447.51   45.72
   0  -7  -1  457.97   47.17
  -7  -1   0  454.95   51.33
   1  -6   0 1412.31   78.18
  -6   0   1 1317.40   74.39
   0  -1   6 1359.11   68.50
  -5   1   2 1134.83   41.17
  -1  -2   5 1195.97   35.98
  -3   4  -2 1318.90   26.26
  -2  -3   4 1285.44   39.02
  -4   2   3 1490.02   50.99
  -4   3  -3 1149.66   27.15
  -3  -4   3 1072.81   68.25
  -3   3   4 1089.04   45.57
   2  -4  -5  759.33   49.96
  -5   2  -4  805.31   42.47
  -4  -5   2  747.48   44.92
   1  -5  -6  483.64   54.54
  -6   1  -5  519.07   51.22
  -5  -6   1  443.03   46.64
   0  -6  -7  145.96   94.81
  -7   0  -6  163.27   20.73
  -6  -7   0  144.35   84.77
  -3  -1  -8  202.18   32.35
  -1  -8  -3  243.86   50.18
  -8  -3  -1  213.82   29.66
  -2   0  -7  115.16   35.49
   0  -7  -2  105.17   33.78
  -7  -2   0  119.21   20.95
  -1   1  -6  548.91   52.52
   1  -6  -1  577.75   62.42
  -6  -1   1  529.05   55.25
  -5   0   2  405.35   31.76
   0  -2   5  357.75   22.30
  -2   5   0  354.86   22.35
  -1  -3   4  888.02   47.31
  -3   4  -1  905.26   42.46
  -4   1   3  835.54   48.92
  -4   3  -2  554.16   29.34
  -2  -4   3  538.70   29.27
  -3   2   4  465.70   33.49
   2  -3  -5  451.55   51.75
  -5   2  -3  430.89   41.91
  -3  -5   2  402.94   39.56
   1  -4  -6  342.38   56.87
  -6   1  -4  392.70   25.17
  -4  -6   1  373.91   37.09
   0  -5  -7   42.15   36.74
  -7   0  -5   43.66   28.65
  -5  -7   0   33.91   27.80
  -1  -8  -4  158.53   80.16
  -4  -1  -8  223.72   24.10
  -8  -4  -1  209.67   28.22
   0  -7  -3  205.70   30.84
  -3   0  -7  201.84   19.70
  -7  -3   0  223.90   25.61
   1  -6  -2  841.25   50.74
  -2   1  -6  817.37   47.74
  -6  -2   1  788.63   48.82
  -1   2  -5  683.97   32.49
  -5  -1   2  749.04   45.03
   0  -3   4 1207.63   27.73
   0  -3   4 1176.91   27.20
  -4   0   3 1287.55   47.06
  -3   4   0 1207.72   34.46
  -1  -4   3 1171.63   26.62
  -4   3  -1 1216.77   38.29
  -3   1   4 1192.88   44.73
   1   4  -3 1107.61   21.95
  -2  -5   2  687.58   35.94
  -5   2  -2  679.97   37.90
  -2   2   5  869.05   51.92
   1  -3  -6  739.52   50.54
  -3  -6   1  691.84   40.24
  -6   1  -3  663.82   39.72
   0  -4  -7  203.22   33.02
  -4  -7   0  206.26   28.75
  -7   0  -4  214.95   23.07
  -1  -5  -8  128.61   82.78
  -5  -8  -1  168.82   50.57
  -8  -1  -5  161.70   21.52
  -1  -8  -5  195.22   25.62
  -5  -1  -8  167.77   20.21
  -8  -5  -1  167.34   83.96
   0  -7  -4  309.48   37.94
  -4   0  -7  304.29   22.47
  -7  -4   0  319.86   34.55
   1  -6  -3  718.19   47.20
  -3   1  -6  728.77   43.03
  -6  -3   1  682.08   44.83
   2  -5  -2  923.57   50.06
  -2   2  -5  956.05   43.97
  -5  -2   2  930.18   55.01
   1  -3   4 1264.88   20.41
   1  -3   4 1279.60   21.52
  -4  -1   3 1164.82   43.40
  -3   4   1 1261.61   38.17
  -4   3   0 1168.16   36.09
  -3   0   4 1403.44   49.41
  -1  -5   2  901.88   41.94
  -5   2  -1  905.14   48.46
  -2   1   5  787.98   48.84
   1  -2  -6  972.46   56.78
  -2  -6   1 1098.24   56.59
  -6   1  -2  964.33   53.79
   0  -3  -7  245.36   36.59
  -3  -7   0  233.58   42.86
  -7   0  -3  229.85   21.68
  -1  -4  -8  277.06   30.80
  -4  -8  -1  287.34   39.30
  -8  -1  -4  259.55   26.67
   0  -7  -5   46.72   47.29
  -5   0  -7   52.43   39.02
  -7  -5   0   40.50   29.13
   1  -6  -4  336.42   38.71
  -4   1  -6  312.58   18.20
  -6  -4   1  350.38   30.96
   2  -5  -3  423.61   46.21
  -3   2  -5  448.00   42.80
  -5  -3   2  400.45   26.99
  -4  -2   3  468.88   32.36
  -3   4   2  519.38   32.16
  -3  -1   4  858.16   46.81
  -4   3   1  845.24   48.75
   0  -5   2  351.06   16.52
  -5   2   0  339.10   26.44
   0   5  -2  429.39   19.31
  -2   0   5  420.16   43.02
   1  -1  -6  618.86   62.26
  -1  -6   1  573.86   52.73
  -6   1  -1  570.50   56.43
   0  -2  -7   57.60   52.60
  -2  -7   0   66.89   35.68
  -7   0  -2   83.42   18.52
  -1  -3  -8  205.14   25.45
  -3  -8  -1  208.84   59.13
  -8  -1  -3  184.74   23.18
   0  -7  -6  207.91   46.50
  -7  -6   0  177.40   96.52
   1  -6  -5  602.91   65.44
  -5   1  -6  495.28   47.78
  -6  -5   1  557.13   58.87
   2  -5  -4 1003.50   61.65
  -4   2  -5  903.04   51.40
  -5  -4   2  932.41   56.38
  -3   3  -4 1215.90   24.65
  -4  -3   3 1238.09   48.90
  -3   4   3 1118.10   41.41
  -3  -2   4 1661.54   50.31
  -4   3   2 1340.07   45.69
  -5   2   1 1370.44   48.83
  -2  -1   5 1197.14   57.78
   0  -6   1 1609.66   81.78
  -6   1   0 1514.97   79.77
  -1   0   6 1288.42   68.44
   0  -1  -7  489.52   50.10
  -1  -7   0  508.51   58.37
  -7   0  -1  570.73   59.34
  -1  -2  -8  537.37   47.19
  -2  -8  -1  553.67   46.25
  -8  -1  -2  538.90   44.86
  -2  -3  -9   91.56   71.06
  -9  -2  -3   88.22   58.48
   1  -6  -6  156.18   34.04
  -6  -6   1  134.80   71.59
   2  -5  -5  261.34   64.79
  -5  -5   2  242.33   25.00
  -4  -4   3  255.43   23.51
  -3   4   4  233.59   24.32
  -3  -3   4  726.27   42.23
  -4   3   3  678.02   44.22
  -5   2   2  162.08   25.25
  -2  -2   5  163.61   40.41
  -6   1   1  542.86   57.01
  -1  -1   6  568.67   55.91
   0   0  -7    9.66   11.16
  -7   0   0   15.58   15.09
  -1  -1  -8  214.48   22.84
  -8  -1  -1  217.05   26.90
  -2  -2  -9    0.38    7.26
  -9  -2  -2    8.65   17.68
  -2  -1  -9  149.37   21.28
  -9  -2  -1  181.84   27.48
  -1   0  -8  651.59   41.99
  -8  -1   0  678.36   51.68
  -7   0   1  635.11   35.47
   0  -1   7  598.20   58.68
  -6   1   2 1198.02   67.37
  -1  -2   6 1287.16   66.43
  -2  -3   5 1080.07   59.63
  -5   2   3  967.61   55.96
  -3  -4   4 1368.21   70.19
  -4   3   4 1176.97   70.62
  -4  -5   3  625.66   59.89
  -3   4   5  655.22   48.97
   2  -5  -6  481.81   45.41
  -5  -6   2  491.07   35.87
   1  -6  -7  294.58   34.10
  -6  -7   1  259.99   35.89
  -3  -1  -9    1.36    9.56
  -1  -9  -3    4.14    7.85
  -9  -3  -1    9.34   19.84
  -2   0  -8  291.00   24.92
   0  -8  -2  265.66   25.98
  -8  -2   0  281.54   30.85
  -1   1  -7   26.20   28.66
   1  -7  -1   23.65   10.37
  -7  -1   1   25.20   24.69
  -6   0   2  490.49   52.04
   0  -2   6  515.69   49.88
  -2   6   0  550.57   51.14
  -3   5  -1  127.79   11.09
  -1  -3   5  116.97   13.23
  -5   1   3  125.10   20.69
  -4   4  -2  642.06   33.18
  -2  -4   4  605.91   56.74
  -4   2   4  659.55   48.09
  -5   3  -3  137.93   11.76
  -3  -5   3  186.44   15.31
  -3   3   5  135.64   26.67
   2  -4  -6  226.77   69.17
  -6   2  -4  211.18   29.96
  -4  -6   2  198.54   54.82
   1  -5  -7   79.92   53.93
  -7   1  -5   61.12   44.13
  -5  -7   1   56.76   30.23
   0  -8  -3  590.64   42.56
  -3   0  -8  511.32   33.69
  -8  -3   0  577.61   44.53
   1  -7  -2  720.95   46.61
  -2   1  -7  726.86   44.81
  -7  -2   1  697.20   47.50
  -6  -1   2 1779.40   54.83
   1  -2   6 1691.82   80.38
  -2   6   1 1602.44   78.38
  -5   0   3 1279.42   48.06
   0  -3   5 1185.57   30.99
  -3   5   0 1208.17   37.56
  -1  -4   4 2115.47   53.09
  -4   4  -1 2193.31   52.82
  -4   1   4 2084.50   66.29
  -2  -5   3 1163.39   57.38
  -5   3  -2 1132.90   58.63
  -3   2   5 1272.62   72.38
   2  -3  -6 1099.25   65.99
  -3  -6   2 1095.25   58.41
  -6   2  -3 1147.63   62.61
   1  -4  -7  497.28   41.91
  -4  -7   1  487.98   56.16
  -7   1  -4  537.33   36.48
   0  -5  -8  254.65   30.44
  -5  -8   0  256.37   25.64
  -8   0  -5  295.96   30.05
   0  -8  -4   92.78   63.90
  -8  -4   0  116.60   22.44
   1  -7  -3   15.47   15.97
  -3   1  -7   18.01   18.13
  -7  -3   1   27.15   20.47
   2  -6  -2  411.68   50.27
  -2   2  -6  398.42   17.19
  -6  -2   2  397.88   31.20
  -5  -1   3   25.94   18.07
  -3   5   1    7.94   15.14
  -4   4   0  785.49   43.01
  -4   0   4  824.87   52.61
  -1  -5   3    7.42    8.53
  -5   3  -1    3.59   14.75
  -3   1   5   23.85   27.20
  -2  -6   2  386.15   18.06
  -6   2  -2  398.66   21.76
  -2   2   6  383.36   29.65
   1  -3  -7   13.10   14.48
  -7   1  -3   14.21   10.08
   0  -4  -8   89.83   79.75
  -8   0  -4  101.38   48.89
   0  -8  -5  264.66   70.77
  -8  -5   0  255.23   29.66
   1  -7  -4  507.45   96.66
  -7  -4   1  494.31   42.61
   2  -6  -3 1135.48   67.46
  -6  -3   2 1107.13   67.55
  -5  -2   3 1223.55   69.98
  -3   5   2 1095.49   59.96
  -4  -1   4 2094.31   66.03
  -4   4   1 2239.98   57.41
  -5   3   0 1150.58   38.02
  -3   0   5 1286.02   49.56
  -6   2  -1 1700.37   84.76
  -2   1   6 1754.44   53.15
   1  -2  -7  613.38   73.46
  -7   1  -2  658.12   44.33
   0  -3  -8  528.84   43.50
  -8   0  -3  460.48   36.23
   1  -7  -5   59.30   48.29
  -7  -5   1   67.79   23.11
   2  -6  -4  179.11   22.24
  -6  -4   2  174.93   26.30
  -5  -3   3  137.48   67.82
  -3   5   3  116.34   17.01
  -4  -2   4  673.81   46.07
  -4   4   2  622.32   61.76
  -5   3   1  131.27   20.58
  -3  -1   5  130.92   18.36
  -6   2   0  556.39   56.56
  -2   0   6  513.56   52.98
  -7   1  -1   18.42   19.38
   0  -2  -8  266.39   34.96
  -8   0  -2  224.31   23.40
  -1  -3  -9    6.43   17.39
  -9  -1  -3    1.77   12.56
   1  -7  -6  223.04   45.26
  -7  -6   1  203.29   52.94
   2  -6  -5  421.67   46.22
  -6  -5   2  432.12   37.09
  -5  -4   3  622.08   61.63
  -3   5   4  602.84   61.35
  -4  -3   4 1170.40   65.84
  -4   4   3 1392.79   77.61
  -3  -2   5  981.11   57.09
  -5   3   2  920.09   54.43
  -6   2   1 1202.91   67.42
  -2  -1   6 1178.18   73.20
  -7   1   0  575.68   58.47
  -1   0   7  682.82   45.98
   0  -1  -8  527.70   86.37
  -8   0  -1  561.04   44.76
  -1  -2  -9  144.99   33.79
  -9  -1  -2  136.67   22.88
   2  -6  -6   29.74   25.54
  -6  -6   2   46.99   18.50
  -5  -5   3  192.71   21.33
  -3   5   5  163.70   25.03
  -4  -4   4  266.54   27.54
  -4   4   4  256.35   29.21
  -3  -3   5  194.19   21.80
  -5   3   3  201.53   23.64
  -6   2   2  462.51   53.03
  -2  -2   6  429.49   43.46
  -7   1   1   63.88   22.26
  -1  -1   7   62.83   27.78
  -8   0   0  321.20   36.30
   0   0   8  312.81   29.66
  -1  -1  -9   10.85   17.33
  -9  -1  -1   14.93   14.01
  -9  -1   0  124.79   70.21
  -8   0   1  431.05   40.66
   0  -1   8  556.54   39.85
  -7   1   2  449.08   49.51
  -1  -2   7  502.30   50.68
  -2  -3   6  657.27   42.76
  -6   2   3  737.72   49.20
  -3  -4   5  615.43   60.20
  -5   3   4  602.55   63.59
  -4  -5   4  444.29   46.32
  -4   4   5  504.85   54.43
  -5  -6   3  328.71   27.29
  -3   5   6  346.23   36.71
   2  -6  -7  142.58   29.83
  -9  -2   0   25.38   17.90
  -8  -1   1  255.47   32.87
  -7   0   2  108.02   74.21
  -6   1   3  539.24   60.89
  -5   2   4  180.32   27.44
  -4   3   5  465.94   57.77
  -3   4   6  176.02   29.31
   2  -5  -7   61.13   60.22
  -9  -3   0  107.28   22.61
  -8  -2   1  319.12   37.38
  -7  -1   2  441.22   51.08
  -2   7   1  383.38   21.94
  -6   0   3  730.77   48.85
  -3   6   0  785.65   43.24
  -4   5  -1  843.07   44.79
  -5   1   4  756.21   48.24
  -5   4  -2  541.33   50.56
  -4   2   5  682.22   51.29
  -3   3   6  575.93   61.90
   1  -5  -8  189.10   66.95
   1  -8  -3  237.29   22.61
  -8  -3   1  252.21   56.50
   2  -7  -2  302.86   25.35
  -7  -2   2  264.42   33.94
  -6  -1   3  491.17   52.61
  -3   6   1  640.62   39.81
  -5   0   4  428.20   46.60
  -4   5   0  375.96   20.70
  -5   4  -1  585.91   55.20
  -4   1   5  593.44   62.13
  -6   3  -2  446.78   44.34
  -3   2   6  419.67   50.19
  -7   2  -3  200.80   20.66
  -2   3   7  211.91   25.57
   1  -4  -8  188.90   29.13
  -8   1  -4  148.49   83.71
   1  -8  -4  148.08   22.38
  -8  -4   1  155.44   30.23
   2  -7  -3  227.41   22.45
  -7  -3   2  214.81   27.35
  -6  -2   3  391.72   33.68
  -3   6   2  446.80   46.39
  -5  -1   4  619.84   64.35
  -4   5   1  566.04   54.56
  -5   4   0  367.73   25.00
  -4   0   5  395.80   28.39
  -6   3  -1  624.84   60.46
  -3   1   6  556.85   62.02
  -7   2  -2  200.13   21.57
  -2   2   7  237.09   30.19
   1  -3  -8  306.52   35.38
  -8   1  -3  278.55   29.77
   1  -8  -5  203.76   28.27
  -8  -5   1  179.79   27.04
   2  -7  -4  344.90   73.79
  -7  -4   2  313.47   30.02
  -6  -3   3  570.17   76.19
  -3   6   3  625.33   63.44
  -5  -2   4  627.46   63.41
  -4   5   2  503.65   72.02
  -5   4   1  819.21   49.11
  -4  -1   5  793.22   53.12
  -6   3   0  769.05   46.21
  -3   0   6  882.34   58.97
  -7   2  -1  360.26   24.13
  -2   1   7  397.13   30.96
   1  -2  -8  354.56   31.40
  -8   1  -2  338.35   30.59
   0  -3  -9   74.55   70.78
  -9   0  -3  111.96   18.95
   2  -7  -5  118.82   28.42
  -7  -5   2  125.78   26.97
  -6  -4   3  170.86   47.89
  -3   6   4  171.45   22.71
  -5  -3   4  431.01   48.88
  -4   5   3  393.76   31.25
  -4  -2   5  186.28   27.50
  -5   4   2  141.20   17.84
  -6   3   1  482.99   52.68
  -3  -1   6  500.73   53.50
  -7   2   0   93.63   18.17
  -2   0   7  110.94   19.16
  -8   1  -1  325.78   32.95
  -1   1   8  289.88   31.52
   0  -2  -9   15.06   15.80
  -9   0  -2   20.74   13.47
   2  -7  -6  166.82   25.59
  -7  -6   2  177.14   22.63
  -6  -5   3  389.54   33.89
  -3   6   5  340.91   31.83
  -5  -4   4  587.43   59.83
  -4   5   4  463.02   55.29
  -4  -3   5  601.37   61.71
  -5   4   3  585.07   59.56
  -6   3   2  730.12   50.96
  -3  -2   6  743.92   46.58
  -7   2   1  551.31   59.75
  -2  -1   7  473.37   51.36
  -8   1   0  527.97   43.56
  -1   0   8  479.64   39.50
  -9   0  -1  168.31   65.33
  -6  -6   3   50.63   15.16
  -3   6   6   56.93   32.00
  -5  -5   4  230.45   23.63
  -4   5   5  223.27   28.60
  -4  -4   5   72.86   20.81
  -5   4   4   64.86   17.66
  -3  -3   6  403.19   43.95
  -6   3   3  417.77   50.46
  -7   2   2   20.25   15.17
  -2  -2   7   17.61    9.94
  -8   1   1  233.49   27.43
  -1  -1   8  289.11   29.99
  -9   0   0    6.12   11.64
   0   0   9    0.50   12.88
  -9   0   1  152.04   29.50
  -8   1   2  393.63   35.20
  -7   2   3  271.56   29.57
  -6   3   4  413.08   40.19
  -5   4   5  275.28   35.53
  -4   5   6  174.31   25.73
  -9  -1   1   52.84   18.24
  -8   0   2  177.96   31.25
  -7   1   3  164.35   24.87
  -6   2   4  178.69   26.59
  -5   3   5  239.44   27.87
  -4   4   6   78.89   24.59
  -3   5   7   96.51   22.08
  -9  -2   1  167.41   28.81
  -8  -1   2  424.62   36.68
  -7   0   3  313.28   29.73
  -6   1   4  712.00   53.68
  -5   2   5  473.34   56.14
  -4   3   6  557.56   47.00
  -3   4   7  266.62   36.55
  -8  -2   2  116.94   27.44
  -7  -1   3   48.34   42.92
  -6   0   4  109.66   27.11
  -5   1   5   79.70   18.76
  -4   2   6   54.47   36.16
  -3   3   7   72.37   22.21
  -2   4   8    6.50   18.92
   2  -8  -3  348.43   30.15
  -8  -3   2  406.45   51.89
  -7  -2   3  420.77   84.74
  -3   7   2  390.38   30.57
  -6  -1   4  983.25   65.05
  -4   6   1 1041.32   59.15
  -5   5   0  535.32   52.55
  -5   0   5  618.91   65.83
  -6   4  -1  976.95   53.19
  -4   1   6  881.62   59.44
  -7   3  -2  385.83   30.81
  -3   2   7  385.83   34.77
  -8   2  -3  381.95   29.08
  -2   3   8  400.69   38.83
   2  -8  -4   12.94   17.48
  -8  -4   2   16.50   17.74
  -7  -3   3   58.55   19.89
  -3   7   3   64.35   19.76
  -6  -2   4   42.33   22.39
  -4   6   2   56.33   29.82
  -5  -1   5   81.14   19.39
  -5   5   1   74.63   14.27
  -6   4   0  109.92   15.96
  -4   0   6  117.45   25.02
  -7   3  -1   30.48   16.49
  -3   1   7   43.46   20.62
  -8   2  -2   87.69   19.35
  -2   2   8   84.27   19.35
  -7  -4   3  238.45   28.07
  -3   7   4  227.55   23.22
  -6  -3   4  441.85   36.73
  -4   6   3  572.07   41.42
  -5  -2   5  530.86   59.25
  -5   5   2  396.51   27.42
  -6   4   1  800.05   51.79
  -4  -1   6  677.23   46.83
  -7   3   0  314.37   26.97
  -3   0   7  359.99   33.14
  -8   2  -1  466.44   39.41
  -2   1   8  524.66   44.17
  -9   1  -2  145.90   20.08
  -1   2   9  160.64   25.57
  -7  -5   3  114.08   82.60
  -3   7   5  131.84   23.96
  -6  -4   4   57.35   17.08
  -4   6   4   67.20   22.27
  -5  -3   5  218.34   27.28
  -5   5   3  215.12   24.87
  -4  -2   6  172.07   21.95
  -6   4   2  181.00   30.13
  -7   3   1  138.95   21.25
  -3  -1   7  137.86   21.32
  -8   2   0  219.02   30.56
  -2   0   8  189.32   24.05
  -9   1  -1   39.90   56.71
  -1   1   9   53.31   16.69
  -6  -5   4  181.72   24.70
  -4   6   5  223.04   28.17
  -5  -4   5  281.84   31.30
  -5   5   4  248.98   31.87
  -4  -3   6  407.51   34.27
  -6   4   3  442.39   37.03
  -7   3   2  231.19   25.31
  -3  -2   7  290.76   29.49
  -8   2   1  362.34   35.08
  -2  -1   8  401.20   76.61
  -9   1   0   84.48   89.30
  -1   0   9  152.28   53.11
  -5   5   5  258.75   34.68
  -6   4   4  117.97   21.91
  -7   3   3  189.74   26.42
  -8   2   2  184.74   28.78
  -9   1   1   99.01   22.90
  -8   2   3  182.69   26.41
  -7   3   4  165.28   25.90
  -6   4   5  164.90   30.69
  -8   1   3  184.43   30.07
  -7   2   4   84.39   27.87
  -6   3   5  237.00   29.90
  -5   4   6   46.23   43.35
  -9  -1   2  119.79   22.31
  -8   0   3  259.86   34.60
  -7   1   4  288.45   35.14
  -6   2   5  296.25   38.65
  -5   3   6  309.93   38.05
  -4   4   7  213.18   32.82
  -8  -1   3  242.21   34.71
  -7   0   4  161.27   28.39
  -6   1   5  411.91   45.88
  -5   2   6  158.37   27.87
  -4   3   7  240.03   31.15
  -8  -2   3  170.59   24.47
  -7  -1   4  329.76   39.30
  -6   0   5  272.31   34.57
  -5   1   6  441.44   44.95
  -4   2   7  213.04   28.90
  -3   3   8  213.51   29.14
  -8  -3   3  180.62   25.66
  -7  -2   4  240.79   45.19
  -4   7   2  197.14   39.12
  -6  -1   5  372.33   73.47
  -5   6   1  456.74   34.47
  -6   5   0  264.94   25.06
  -5   0   6  316.64   35.91
  -4   1   7  291.82   31.17
  -3   2   8  209.79   29.72
  -7  -3   4  246.57   29.72
  -4   7   3  198.81   24.18
  -6  -2   5  163.08   24.24
  -5   6   2  184.62   21.57
  -6   5   1  418.45   35.74
  -5  -1   6  457.36   44.95
  -7   4   0  152.32   22.69
  -4   0   7  205.01   30.54
  -8   3  -1  278.47   54.32
  -3   1   8  254.97   28.85
  -7  -4   4  186.92   40.09
  -4   7   4  147.23   23.83
  -6  -3   5  286.97   58.34
  -5   6   3  310.00   29.79
  -5  -2   6  302.49   29.80
  -6   5   2  275.67   29.40
  -7   4   1  286.52   28.61
  -4  -1   7  305.40   30.73
  -8   3   0  284.76   32.25
  -3   0   8  299.31   32.37
  -9   2  -1  119.10   25.82
  -6  -4   5   72.88   22.48
  -5   6   4   43.18   43.83
  -5  -3   6  223.53   26.28
  -6   5   3  231.27   26.02
  -7   4   2   69.35   21.57
  -4  -2   7   59.13   22.77
  -8   3   1  218.12   26.42
  -3  -1   8  198.75   24.82
  -6   5   4  192.68   27.88
  -7   4   3  192.71   28.48
  -8   3   2  220.78   33.30
  -7   4   4    6.29   19.21
  -8   1   4  203.23   33.07
  -7   2   5   96.77   27.79
  -6   3   6  143.84   26.38
  -8   0   4   65.23   20.58
  -7   1   5  138.88   32.23
  -6   2   6   74.58   27.81
  -8  -1   4  245.88   38.86
  -7   0   5  137.47   25.38
  -6   1   6  230.89   30.69
  -5   2   7  114.77   22.54
  -7  -1   5   84.77   21.13
  -6   0   6   22.92   23.58
  -5   1   7   69.05   25.26
  -7  -2   5   84.36   93.32
  -6  -1   6  208.60   28.12
  -5   0   7   98.98   26.28
  -4   1   8  227.89   30.42
  -7  -3   5   94.03   79.99
  -6  -2   6   60.49   23.43
  -6   6   2   56.75   16.38
  -7   5   1  123.05   21.90
  -5  -1   7  125.39   27.56
  -8   4   0   58.99   15.71
  -4   0   8   64.51   26.61
  -6  -3   6  124.14   26.94
  -6   6   3  155.57   25.67
  -7   5   2   89.29   23.38
  -5  -2   7   80.20   20.70
  -8   4   1  155.26   87.61
  -4  -1   8  205.25   26.69
   0   0   0    0.00    0.00
;
_shelx_hkl_checksum              4009
loop_
_space_group_symop_operation_xyz
'x, y, z'
'z, x, y'
'y, z, x'
loop_
_atom_site_label
_atom_site_type_symbol
_atom_site_fract_x
_atom_site_fract_y
_atom_site_fract_z
_atom_site_U_iso_or_equiv
_atom_site_adp_type
_atom_site_occupancy
_atom_site_site_symmetry_order
_atom_site_calc_flag
_atom_site_refinement_flags_posn
_atom_site_refinement_flags_adp
_atom_site_refinement_flags_occupancy
I1 I 1.0068(2) 0.9380(2) 0.4998(2) 0.0374(3) Uani 1 1 d . . .
Rb3 Rb 0.99453(2) 0.99453(2) 0.99453(2) 0.0338(6) Uani 1 3 d S T P
N1 N 1.6191(14) 1.6191(14) 0.6191(14) 0.046(5) Uani 1 3 d S T P
H1C H 1.6848 1.6843 0.6843 0.056 Uiso 1 3 d R U P
N2 N 1.4370(13) 1.4370(13) 0.4370(13) 0.028(4) Uani 1 3 d S T P
C2 C 1.625(2) 1.337(2) 0.464(2) 0.041(3) Uani 1 1 d . . .
H2A H 1.6115 1.2271 0.5477 0.049 Uiso 1 1 calc R U .
H2B H 1.6821 1.2996 0.3457 0.049 Uiso 1 1 calc R U .
C1 C 1.745(2) 1.466(2) 0.542(2) 0.053(4) Uani 1 1 d . . .
H1A H 1.8328 1.5151 0.4459 0.064 Uiso 1 1 calc R U .
H1B H 1.8141 1.3990 0.6393 0.064 Uiso 1 1 calc R U .
C3 C 1.329(2) 1.329(2) 0.329(2) 0.073(10) Uani 1 3 d S T P
H3A H 1.2099 1.3982 0.3176 0.109 Uiso 1 1 d R U .
loop_
_atom_site_aniso_label
_atom_site_aniso_U_11
_atom_site_aniso_U_22
_atom_site_aniso_U_33
_atom_site_aniso_U_23
_atom_site_aniso_U_13
_atom_site_aniso_U_12
I1 0.0355(6) 0.0437(6) 0.0323(6) -0.0023(4) -0.0024(4) -0.0012(5)
Rb3 0.0341(6) 0.0341(6) 0.0341(6) -0.0043(6) -0.0043(6) -0.0043(6)
N1 0.048(5) 0.048(5) 0.048(5) -0.015(5) -0.015(5) -0.015(5)
N2 0.028(4) 0.028(4) 0.028(4) -0.002(4) -0.002(4) -0.002(4)
C2 0.029(8) 0.049(9) 0.041(8) -0.007(7) 0.007(6) 0.012(6)
C1 0.037(8) 0.063(10) 0.058(10) 0.001(9) -0.012(7) 0.006(7)
C3 0.076(10) 0.076(10) 0.076(10) -0.024(8) -0.024(8) -0.024(8)
loop_
_atom_type_symbol
_atom_type_description
_atom_type_scat_dispersion_real
_atom_type_scat_dispersion_imag
_atom_type_scat_source
C C 0.0033 0.0016 'International Tables Vol C Tables 4.2.6.8 and 6.1.1.4'
H H 0.0000 0.0000 'International Tables Vol C Tables 4.2.6.8 and 6.1.1.4'
N N 0.0061 0.0033 'International Tables Vol C Tables 4.2.6.8 and 6.1.1.4'
Rb Rb -0.9393 2.9676 'International Tables Vol C Tables 4.2.6.8 and 6.1.1.4'
I I -0.4742 1.8119 'International Tables Vol C Tables 4.2.6.8 and 6.1.1.4'
loop_
_geom_angle_atom_site_label_1
_geom_angle_atom_site_label_2
_geom_angle_atom_site_label_3
_geom_angle
_geom_angle_site_symmetry_1
_geom_angle_site_symmetry_3
Rb3 I1 Rb3 167.08(4) . 1_554
I1 Rb3 I1 79.57(5) . 3
I1 Rb3 I1 79.57(5) . 2
I1 Rb3 I1 79.57(5) 3 2
I1 Rb3 I1 102.451(19) . 3_565
I1 Rb3 I1 167.08(4) 3 3_565
I1 Rb3 I1 88.200(17) 2 3_565
I1 Rb3 I1 88.200(17) . 2_655
I1 Rb3 I1 102.451(19) 3 2_655
I1 Rb3 I1 167.08(4) 2 2_655
I1 Rb3 I1 90.40(5) 3_565 2_655
I1 Rb3 I1 167.08(4) . 1_556
I1 Rb3 I1 88.200(18) 3 1_556
I1 Rb3 I1 102.451(19) 2 1_556
I1 Rb3 I1 90.40(5) 3_565 1_556
I1 Rb3 I1 90.40(5) 2_655 1_556
C1 N1 C1 110.4(9) 3_564 2_654
C1 N1 C1 110.4(9) 3_564 .
C1 N1 C1 110.4(9) 2_654 .
C3 N2 C2 110.3(10) . 3_564
C3 N2 C2 110.3(10) . 2_654
C2 N2 C2 108.6(10) 3_564 2_654
C3 N2 C2 110.3(10) . .
C2 N2 C2 108.6(10) 3_564 .
C2 N2 C2 108.6(10) 2_654 .
C1 C2 N2 109.3(13) . .
C2 C1 N1 107.2(13) . .
loop_
_geom_bond_atom_site_label_1
_geom_bond_atom_site_label_2
_geom_bond_distance
_geom_bond_site_symmetry_2
I1 Rb3 3.650(2) .
I1 Rb3 3.668(2) 1_554
Rb3 I1 3.650(2) 3
Rb3 I1 3.650(2) 2
Rb3 I1 3.668(2) 3_565
Rb3 I1 3.668(2) 2_655
Rb3 I1 3.668(2) 1_556
N1 C1 1.494(17) 3_564
N1 C1 1.494(17) 2_654
N1 C1 1.494(17) .
N2 C3 1.47(3) .
N2 C2 1.506(14) 3_564
N2 C2 1.506(14) 2_654
N2 C2 1.506(14) .
C2 C1 1.52(2) .
