#------------------------------------------------------------------------------
#$Date: 2019-11-25 18:05:01 +0200 (Mon, 25 Nov 2019) $
#$Revision: 241495 $
#$URL: file:///home/coder/svn-repositories/cod/cif/4/13/12/4131246.cif $
#------------------------------------------------------------------------------
#
# This file is available in the Crystallography Open Database (COD),
# http://www.crystallography.net/
#
# All data on this site have been placed in the public domain by the
# contributors.
#
data_4131246
loop_
_publ_author_name
'Slavney, Adam H.'
'Leppert, Linn'
'Bartesaghi, Davide'
'Gold-Parker, Aryeh'
'Toney, Michael F.'
'Savenije, Tom J.'
'Neaton, Jeffrey B.'
'Karunadasa, Hemamala I.'
_publ_section_title
;
 Defect-Induced Band-Edge Reconstruction of a Bismuth-Halide Double
 Perovskite for Visible-Light Absorption.
;
_journal_issue                   14
_journal_name_full               'Journal of the American Chemical Society'
_journal_page_first              5015
_journal_page_last               5018
_journal_paper_doi               10.1021/jacs.7b01629
_journal_volume                  139
_journal_year                    2017
_chemical_formula_moiety         'Bi1 Br6 Tl1, 2(C N H6)'
_chemical_formula_sum            'C2 H12 Bi Br6 N2 Tl'
_chemical_formula_weight         956.95
_chemical_name_systematic
'Bis(methylammonium) Thallium(I) Bismuth Hexabromide'
_space_group_crystal_system      cubic
_space_group_IT_number           225
_space_group_name_Hall           '-F 4 2 3'
_space_group_name_H-M_alt        'F m -3 m'
_atom_sites_solution_primary     'intrinsic phasing'
_atom_sites_solution_secondary   difmap
_audit_creation_date             2016-09-13
_audit_creation_method
;
Olex2 1.2
(compiled 2016.09.09 svn.r3337 for OlexSys, GUI svn.r5227)
;
_cell_angle_alpha                90
_cell_angle_beta                 90
_cell_angle_gamma                90
_cell_formula_units_Z            4
_cell_length_a                   11.9173(10)
_cell_length_b                   11.9173(10)
_cell_length_c                   11.9173(10)
_cell_measurement_reflns_used    3336
_cell_measurement_temperature    296(2)
_cell_measurement_theta_max      25.208
_cell_measurement_theta_min      2.961
_cell_volume                     1692.5(2)
_computing_cell_refinement       'SAINT v8.34A (Bruker, 2013)'
_computing_data_collection       'APEX2 Ver. 2014.11-0 (Bruker-AXS, 2014)'
_computing_data_reduction        'SAINT v8.34A (Bruker, 2013)'
_computing_molecular_graphics    'Olex2 (Dolomanov et al., 2009)'
_computing_publication_material  'Olex2 (Dolomanov et al., 2009)'
_computing_structure_refinement  'ShelXL (Sheldrick, 2015)'
_computing_structure_solution    'ShelXT (Sheldrick, 2015)'
_diffrn_ambient_temperature      296.15
_diffrn_detector                 'CMOS area detector'
_diffrn_detector_area_resol_mean 10.4
_diffrn_detector_type            'PHOTON 100 Detector'
_diffrn_measured_fraction_theta_full 1.000
_diffrn_measured_fraction_theta_max 1.000
_diffrn_measurement_device       'four-circle diffractometer'
_diffrn_measurement_device_type  'Bruker D8 with PHOTON 100 detector'
_diffrn_measurement_method       '\f and \w scans'
_diffrn_radiation_collimation    'focusing mirrors'
_diffrn_radiation_monochromator  graphite
_diffrn_radiation_probe          x-ray
_diffrn_radiation_type           MoK\a
_diffrn_radiation_wavelength     0.71073
_diffrn_reflns_av_R_equivalents  0.0449
_diffrn_reflns_av_unetI/netI     0.0132
_diffrn_reflns_Laue_measured_fraction_full 1.000
_diffrn_reflns_Laue_measured_fraction_max 1.000
_diffrn_reflns_limit_h_max       14
_diffrn_reflns_limit_h_min       -14
_diffrn_reflns_limit_k_max       14
_diffrn_reflns_limit_k_min       -13
_diffrn_reflns_limit_l_max       12
_diffrn_reflns_limit_l_min       -14
_diffrn_reflns_number            3789
_diffrn_reflns_point_group_measured_fraction_full 1.000
_diffrn_reflns_point_group_measured_fraction_max 1.000
_diffrn_reflns_theta_full        25.208
_diffrn_reflns_theta_max         25.208
_diffrn_reflns_theta_min         2.961
_diffrn_source                   'sealed X-ray tube'
_diffrn_source_target            Mo
_diffrn_source_type              'Incoatec I\ms'
_diffrn_standards_number         0
_exptl_absorpt_coefficient_mu    34.023
_exptl_absorpt_correction_T_max  0.4287
_exptl_absorpt_correction_T_min  0.2886
_exptl_absorpt_correction_type   multi-scan
_exptl_absorpt_process_details
;
SADABS-2014/5 (Bruker,2014/5) was used for absorption correction.
wR2(int) was 0.1244 before and 0.0646 after correction.
The Ratio of minimum to maximum transmission is 0.6732.
The \l/2 correction factor is Not present.
;
_exptl_crystal_colour            red
_exptl_crystal_colour_primary    red
_exptl_crystal_density_diffrn    3.755
_exptl_crystal_description       octahedral
_exptl_crystal_F_000             1600
_exptl_crystal_recrystallization_method
;
Soaking of finely divided TlBr in an HBr solution of BiBr3 and (MA)Br
;
_exptl_crystal_size_max          0.05
_exptl_crystal_size_mid          0.05
_exptl_crystal_size_min          0.05
_refine_diff_density_max         1.329
_refine_diff_density_min         -2.063
_refine_diff_density_rms         0.213
_refine_ls_extinction_coef       0.00107(16)
_refine_ls_extinction_expression Fc^*^=kFc[1+0.001xFc^2^\l^3^/sin(2\q)]^-1/4^
_refine_ls_extinction_method     'SHELXL-2014/7 (Sheldrick 2014'
_refine_ls_goodness_of_fit_ref   1.219
_refine_ls_hydrogen_treatment    undef
_refine_ls_matrix_type           full
_refine_ls_number_parameters     9
_refine_ls_number_reflns         110
_refine_ls_number_restraints     4
_refine_ls_restrained_S_all      12.154
_refine_ls_R_factor_all          0.0429
_refine_ls_R_factor_gt           0.0383
_refine_ls_shift/su_max          0.000
_refine_ls_shift/su_mean         0.000
_refine_ls_structure_factor_coef Fsqd
_refine_ls_weighting_details
'w=1/[\s^2^(Fo^2^)+(0.0310P)^2^+124.5127P] where P=(Fo^2^+2Fc^2^)/3'
_refine_ls_weighting_scheme      calc
_refine_ls_wR_factor_gt          0.0930
_refine_ls_wR_factor_ref         0.0969
_reflns_Friedel_coverage         0.000
_reflns_number_gt                100
_reflns_number_total             110
_reflns_threshold_expression     'I > 2\s(I)'
_iucr_refine_instructions_details
;

    g1_fm-3m_0p83_a.res created by SHELXL-2014/7

TITL g1_fm-3m_0p83_a.res in Fm-3m
REM Old TITL g1_fm-3m_0p83 in Fm-3m
REM SHELXT solution in Fm-3m
REM R1 0.202, Rweak 0.003, Alpha 0.018, Orientation as input
REM Formula found by SHELXT: N3 Br
CELL 0.71073 11.9173 11.9173 11.9173 90 90 90
ZERR 4 0.001 0.001 0.001 0 0 0
LATT 4
SYMM -X,-Y,+Z
SYMM -X,+Y,-Z
SYMM +X,-Y,-Z
SYMM +Z,+X,+Y
SYMM +Z,-X,-Y
SYMM -Z,-X,+Y
SYMM -Z,+X,-Y
SYMM +Y,+Z,+X
SYMM -Y,+Z,-X
SYMM +Y,-Z,-X
SYMM -Y,-Z,+X
SYMM +Y,+X,-Z
SYMM -Y,-X,-Z
SYMM +Y,-X,+Z
SYMM -Y,+X,+Z
SYMM +X,+Z,-Y
SYMM -X,+Z,+Y
SYMM -X,-Z,-Y
SYMM +X,-Z,+Y
SYMM +Z,+Y,-X
SYMM +Z,-Y,+X
SYMM -Z,+Y,+X
SYMM -Z,-Y,-X
SFAC Bi Br C N Tl
UNIT 4 24 8 8 4
EQIV $1 0.5-X,1.5-Y,+Z
EQIV $2 +X,1-Z,1-Y
EQIV $3 -0.5+Y,0.5+X,+Z
EQIV $4 0.5-Z,0.5+X,1-Y
EQIV $5 1-Y,0.5+X,0.5-Z
EQIV $6 1-Y,1-X,+Z
EQIV $7 0.5-X,+Y,0.5-Z
EQIV $8 1-Y,1-Z,+X
EQIV $9 +Z,1-X,1-Y
EQIV $10 +Z,+Y,+X
EQIV $11 -0.5+Y,1-X,0.5-Z
EQIV $12 1-Y,0.5+Z,0.5-X
EQIV $13 -0.5+Y,0.5+Z,+X
EQIV $14 0.5-X,0.5+Z,1-Y
EQIV $15 +Z,0.5+X,-0.5+Y
EQIV $16 +X,0.5+Z,-0.5+Y
EQIV $17 +Z,1.5-Y,0.5-X
EQIV $18 0.5-Z,1.5-Y,+X
EQIV $19 0.5-X,1-Z,-0.5+Y
EQIV $20 +X,1.5-Y,0.5-Z
EQIV $21 0.5-Z,1-X,-0.5+Y
EQIV $22 -0.5+Y,1-Z,0.5-X
EQIV $23 0.5-Z,+Y,0.5-X
DFIX 1.5 N1_$19 C1_$15
DFIX 1.5 C1_$19 N1_$15
DFIX 1.5 C1_$5 N1
DFIX 1.5 N1_$5 C1
EADP C1 N1
EXYZ C1 N1
 
L.S. 25
PLAN  15
SIZE 0.05 0.05 0.05
TEMP 23
BIND N1 C1_$20
FREE N1 N1_$22
FREE N1 N1_$2
FREE N1 N1_$19
FREE N1 N1_$8
FREE N1 N1_$21
FREE N1 N1_$18
FREE N1 N1_$23
FREE N1 N1_$4
FREE N1 N1_$6
FREE N1 N1_$5
FREE N1 N1_$12
FREE N1 N1_$15
FREE N1 N1_$16
FREE N1 N1_$20
FREE N1 N1_$17
FREE N1 N1_$1
FREE N1 N1_$14
FREE N1 N1_$7
FREE N1 N1_$3
FREE N1 N1_$13
FREE N1 N1_$11
FREE N1 N1_$9
FREE N1 N1_$10
BIND C1 N1_$20
FREE C1 C1_$15
FREE C1 C1_$16
FREE C1 C1_$19
FREE C1 C1_$21
FREE C1 C1_$18
FREE C1 C1_$23
FREE C1 C1_$4
FREE C1 C1_$1
FREE C1 C1_$6
FREE C1 C1_$3
FREE C1 C1_$20
FREE C1 C1_$17
FREE C1 C1_$8
FREE C1 C1_$5
FREE C1 C1_$12
FREE C1 C1_$22
FREE C1 C1_$2
FREE C1 C1_$9
FREE C1 C1_$11
FREE C1 C1_$10
FREE C1 C1_$13
FREE C1 C1_$14
FREE C1 C1_$7
BOND $H
LIST 4
MORE -1
CONF
fmap 2
acta 52
REM <olex2.extras>
REM <HklSrc "%.\\g1_fm-3m_0p83_a.hkl">
REM </olex2.extras>
 
WGHT    0.031000  124.512703
EXTI    0.001072
FVAR       0.11302
BI1   1    0.500000    0.500000    0.000000    10.02083    0.04228    0.04228 =
         0.04228    0.00000    0.00000    0.00000
BR1   2    0.500000    0.500000    0.237673    10.12500    0.17342    0.17342 =
         0.04696    0.00000    0.00000    0.00000
PART 1
TL1   5    0.500000    0.500000    0.500000    10.02083    0.06104    0.06104 =
         0.06104    0.00000    0.00000    0.00000
 
C1    3    0.250000    0.661496    0.250000    10.04167    0.15123
PART 0
PART 2
N1    4    0.250000    0.661496    0.250000    10.04167    0.15123
HKLF 4
 
REM  g1_fm-3m_0p83_a.res in Fm-3m
REM R1 =  0.0383 for     100 Fo > 4sig(Fo)  and  0.0429 for all     110 data
REM      9 parameters refined using      4 restraints
 
END  
     
WGHT      0.0310    124.4946 

REM Highest difference peak  1.329,  deepest hole -2.063,  1-sigma level  0.213
Q1    1   0.2673  0.7327  0.2673  10.16667  0.05    1.33
Q2    1   0.5000  0.5000  0.5912  10.12500  0.05    1.16
Q3    1   0.5000  0.5593  0.0000  10.12500  0.05    0.73
Q4    1   0.5000  0.5676  0.2116  10.50000  0.05    0.69
Q5    1   0.5000  0.5000  0.2859  10.12500  0.05    0.37
Q6    1   0.5000  0.6778  0.1778  10.25000  0.05    0.33
Q7    1   0.2500  0.5000  0.2500  10.12500  0.05    0.28
Q8    1   0.2687  0.5325  0.2687  10.50000  0.05    0.27
Q9    1   0.5000  0.6726  0.2056  10.50000  0.05    0.23
Q10   1   0.2110  0.5485  0.2890  10.50000  0.05    0.22
Q11   1   0.6024  0.6025  0.2240  10.50000  0.05    0.19
Q12   1   0.1956  0.5193  0.3044  10.50000  0.05    0.19
Q13   1   0.5000  0.6144  0.2901  10.50000  0.05    0.15
Q14   1   0.5000  0.4529  0.3325  10.50000  0.05    0.15
Q15   1   0.6216  0.4393  0.2929  11.00000  0.05    0.11

  REM The information below was added by Olex2.
  REM
  REM R1 = 0.0383 for 100 Fo > 4sig(Fo) and 0.0429 for all 3789 data
  REM n/a parameters refined using n/a restraints
  REM Highest difference peak 1.33, deepest hole -2.06
  REM Mean Shift 0, Max Shift 0.000.
  
  REM +++ Tabular Listing of Refinement Information +++
  REM R1_all = 0.0429
  REM R1_gt = 0.0383
  REM wR_ref = 0.0969
  REM GOOF = 1.219
  REM Shift_max = 0.000
  REM Shift_mean = 0
  REM Reflections_all = 3789
  REM Reflections_gt = 100
  REM Parameters = n/a
  REM Hole = -2.06
  REM Peak = 1.33
  REM Flack = n/a
  
  
;
_cod_data_source_file            ja7b01629_si_004.cif
_cod_data_source_block           g1_fm-3m_0p83_a
_cod_depositor_comments
;
The following automatic conversions were performed:

data item '_atom_sites_solution_secondary' value 'diffmap' was
changed to 'difmap'.

Automatic conversion script
Id: cif_fix_values 6909 2019-04-08 15:41:33Z antanas 
;
_cod_original_cell_volume        1692.5(4)
_cod_original_formula_sum        'C2 H12 Bi Br6 N2 Tl '
_cod_database_code               4131246
_shelx_space_group_comment
;
The symmetry employed for this shelxl refinement is uniquely defined
by the following loop, which should always be used as a source of
symmetry information in preference to the above space-group names.
They are only intended as comments.
;
_shelx_estimated_absorpt_t_max   0.281
_shelx_estimated_absorpt_t_min   0.281
_shelx_shelxl_version_number     2014/7
loop_
_space_group_symop_operation_xyz
'x, y, z'
'-x, -y, z'
'-x, y, -z'
'x, -y, -z'
'z, x, y'
'z, -x, -y'
'-z, -x, y'
'-z, x, -y'
'y, z, x'
'-y, z, -x'
'y, -z, -x'
'-y, -z, x'
'y, x, -z'
'-y, -x, -z'
'y, -x, z'
'-y, x, z'
'x, z, -y'
'-x, z, y'
'-x, -z, -y'
'x, -z, y'
'z, y, -x'
'z, -y, x'
'-z, y, x'
'-z, -y, -x'
'x, y+1/2, z+1/2'
'-x, -y+1/2, z+1/2'
'-x, y+1/2, -z+1/2'
'x, -y+1/2, -z+1/2'
'z, x+1/2, y+1/2'
'z, -x+1/2, -y+1/2'
'-z, -x+1/2, y+1/2'
'-z, x+1/2, -y+1/2'
'y, z+1/2, x+1/2'
'-y, z+1/2, -x+1/2'
'y, -z+1/2, -x+1/2'
'-y, -z+1/2, x+1/2'
'y, x+1/2, -z+1/2'
'-y, -x+1/2, -z+1/2'
'y, -x+1/2, z+1/2'
'-y, x+1/2, z+1/2'
'x, z+1/2, -y+1/2'
'-x, z+1/2, y+1/2'
'-x, -z+1/2, -y+1/2'
'x, -z+1/2, y+1/2'
'z, y+1/2, -x+1/2'
'z, -y+1/2, x+1/2'
'-z, y+1/2, x+1/2'
'-z, -y+1/2, -x+1/2'
'x+1/2, y, z+1/2'
'-x+1/2, -y, z+1/2'
'-x+1/2, y, -z+1/2'
'x+1/2, -y, -z+1/2'
'z+1/2, x, y+1/2'
'z+1/2, -x, -y+1/2'
'-z+1/2, -x, y+1/2'
'-z+1/2, x, -y+1/2'
'y+1/2, z, x+1/2'
'-y+1/2, z, -x+1/2'
'y+1/2, -z, -x+1/2'
'-y+1/2, -z, x+1/2'
'y+1/2, x, -z+1/2'
'-y+1/2, -x, -z+1/2'
'y+1/2, -x, z+1/2'
'-y+1/2, x, z+1/2'
'x+1/2, z, -y+1/2'
'-x+1/2, z, y+1/2'
'-x+1/2, -z, -y+1/2'
'x+1/2, -z, y+1/2'
'z+1/2, y, -x+1/2'
'z+1/2, -y, x+1/2'
'-z+1/2, y, x+1/2'
'-z+1/2, -y, -x+1/2'
'x+1/2, y+1/2, z'
'-x+1/2, -y+1/2, z'
'-x+1/2, y+1/2, -z'
'x+1/2, -y+1/2, -z'
'z+1/2, x+1/2, y'
'z+1/2, -x+1/2, -y'
'-z+1/2, -x+1/2, y'
'-z+1/2, x+1/2, -y'
'y+1/2, z+1/2, x'
'-y+1/2, z+1/2, -x'
'y+1/2, -z+1/2, -x'
'-y+1/2, -z+1/2, x'
'y+1/2, x+1/2, -z'
'-y+1/2, -x+1/2, -z'
'y+1/2, -x+1/2, z'
'-y+1/2, x+1/2, z'
'x+1/2, z+1/2, -y'
'-x+1/2, z+1/2, y'
'-x+1/2, -z+1/2, -y'
'x+1/2, -z+1/2, y'
'z+1/2, y+1/2, -x'
'z+1/2, -y+1/2, x'
'-z+1/2, y+1/2, x'
'-z+1/2, -y+1/2, -x'
'-x, -y, -z'
'x, y, -z'
'x, -y, z'
'-x, y, z'
'-z, -x, -y'
'-z, x, y'
'z, x, -y'
'z, -x, y'
'-y, -z, -x'
'y, -z, x'
'-y, z, x'
'y, z, -x'
'-y, -x, z'
'y, x, z'
'-y, x, -z'
'y, -x, -z'
'-x, -z, y'
'x, -z, -y'
'x, z, y'
'-x, z, -y'
'-z, -y, x'
'-z, y, -x'
'z, -y, -x'
'z, y, x'
'-x, -y+1/2, -z+1/2'
'x, y+1/2, -z+1/2'
'x, -y+1/2, z+1/2'
'-x, y+1/2, z+1/2'
'-z, -x+1/2, -y+1/2'
'-z, x+1/2, y+1/2'
'z, x+1/2, -y+1/2'
'z, -x+1/2, y+1/2'
'-y, -z+1/2, -x+1/2'
'y, -z+1/2, x+1/2'
'-y, z+1/2, x+1/2'
'y, z+1/2, -x+1/2'
'-y, -x+1/2, z+1/2'
'y, x+1/2, z+1/2'
'-y, x+1/2, -z+1/2'
'y, -x+1/2, -z+1/2'
'-x, -z+1/2, y+1/2'
'x, -z+1/2, -y+1/2'
'x, z+1/2, y+1/2'
'-x, z+1/2, -y+1/2'
'-z, -y+1/2, x+1/2'
'-z, y+1/2, -x+1/2'
'z, -y+1/2, -x+1/2'
'z, y+1/2, x+1/2'
'-x+1/2, -y, -z+1/2'
'x+1/2, y, -z+1/2'
'x+1/2, -y, z+1/2'
'-x+1/2, y, z+1/2'
'-z+1/2, -x, -y+1/2'
'-z+1/2, x, y+1/2'
'z+1/2, x, -y+1/2'
'z+1/2, -x, y+1/2'
'-y+1/2, -z, -x+1/2'
'y+1/2, -z, x+1/2'
'-y+1/2, z, x+1/2'
'y+1/2, z, -x+1/2'
'-y+1/2, -x, z+1/2'
'y+1/2, x, z+1/2'
'-y+1/2, x, -z+1/2'
'y+1/2, -x, -z+1/2'
'-x+1/2, -z, y+1/2'
'x+1/2, -z, -y+1/2'
'x+1/2, z, y+1/2'
'-x+1/2, z, -y+1/2'
'-z+1/2, -y, x+1/2'
'-z+1/2, y, -x+1/2'
'z+1/2, -y, -x+1/2'
'z+1/2, y, x+1/2'
'-x+1/2, -y+1/2, -z'
'x+1/2, y+1/2, -z'
'x+1/2, -y+1/2, z'
'-x+1/2, y+1/2, z'
'-z+1/2, -x+1/2, -y'
'-z+1/2, x+1/2, y'
'z+1/2, x+1/2, -y'
'z+1/2, -x+1/2, y'
'-y+1/2, -z+1/2, -x'
'y+1/2, -z+1/2, x'
'-y+1/2, z+1/2, x'
'y+1/2, z+1/2, -x'
'-y+1/2, -x+1/2, z'
'y+1/2, x+1/2, z'
'-y+1/2, x+1/2, -z'
'y+1/2, -x+1/2, -z'
'-x+1/2, -z+1/2, y'
'x+1/2, -z+1/2, -y'
'x+1/2, z+1/2, y'
'-x+1/2, z+1/2, -y'
'-z+1/2, -y+1/2, x'
'-z+1/2, y+1/2, -x'
'z+1/2, -y+1/2, -x'
'z+1/2, y+1/2, x'
loop_
_atom_site_label
_atom_site_type_symbol
_atom_site_fract_x
_atom_site_fract_y
_atom_site_fract_z
_atom_site_U_iso_or_equiv
_atom_site_adp_type
_atom_site_occupancy
_atom_site_site_symmetry_order
_atom_site_calc_flag
_atom_site_refinement_flags_posn
_atom_site_refinement_flags_adp
_atom_site_refinement_flags_occupancy
_atom_site_disorder_assembly
_atom_site_disorder_group
Bi1 Bi 0.5000 0.5000 0.0000 0.0423(10) Uani 1 48 d S T P . .
Br1 Br 0.5000 0.5000 0.2377(3) 0.131(2) Uani 1 8 d S T P . .
Tl1 Tl 0.5000 0.5000 0.5000 0.0610(12) Uani 1 48 d S T P . 1
C1 C 0.2500 0.6615(9) 0.2500 0.15(5) Uiso 0.1667 4 d DS T P A 1
N1 N 0.2500 0.6615(9) 0.2500 0.15(5) Uiso 0.1667 4 d DS T P . 2
loop_
_atom_site_aniso_label
_atom_site_aniso_U_11
_atom_site_aniso_U_22
_atom_site_aniso_U_33
_atom_site_aniso_U_23
_atom_site_aniso_U_13
_atom_site_aniso_U_12
Bi1 0.0423(10) 0.0423(10) 0.0423(10) 0.000 0.000 0.000
Br1 0.173(3) 0.173(3) 0.047(2) 0.000 0.000 0.000
Tl1 0.0610(12) 0.0610(12) 0.0610(12) 0.000 0.000 0.000
loop_
_atom_type_symbol
_atom_type_description
_atom_type_scat_dispersion_real
_atom_type_scat_dispersion_imag
_atom_type_scat_source
Bi Bi -4.1077 10.2566 'International Tables Vol C Tables 4.2.6.8 and 6.1.1.4'
Br Br -0.2901 2.4595 'International Tables Vol C Tables 4.2.6.8 and 6.1.1.4'
C C 0.0033 0.0016 'International Tables Vol C Tables 4.2.6.8 and 6.1.1.4'
N N 0.0061 0.0033 'International Tables Vol C Tables 4.2.6.8 and 6.1.1.4'
Tl Tl -2.8358 9.6688 'International Tables Vol C Tables 4.2.6.8 and 6.1.1.4'
loop_
_geom_angle_atom_site_label_1
_geom_angle_atom_site_label_2
_geom_angle_atom_site_label_3
_geom_angle
_geom_angle_site_symmetry_1
_geom_angle_site_symmetry_3
Br1 Bi1 Br1 90.0 . 129_655
Br1 Bi1 Br1 180.0 53_554 149_565
Br1 Bi1 Br1 90.0 53_554 33_554
Br1 Bi1 Br1 90.0 97_665 149_565
Br1 Bi1 Br1 180.0 129_655 33_554
Br1 Bi1 Br1 90.0 97_665 33_554
Br1 Bi1 Br1 90.0 129_655 149_565
Br1 Bi1 Br1 180.0 . 97_665
Br1 Bi1 Br1 90.0 129_655 53_554
Br1 Bi1 Br1 90.0 . 33_554
Br1 Bi1 Br1 90.0 97_665 53_554
Br1 Bi1 Br1 90.0 129_655 97_665
Br1 Bi1 Br1 90.0 . 149_565
Br1 Bi1 Br1 90.0 149_565 33_554
Br1 Bi1 Br1 90.0 . 53_554
Bi1 Br1 Tl1 180.0 . .
Br1 Tl1 Br1 180.0 105_666 9
Br1 Tl1 Br1 180.0 5 101_666
Br1 Tl1 Br1 90.0 5 .
Br1 Tl1 Br1 90.0 97_666 101_666
Br1 Tl1 Br1 90.0 9 .
Br1 Tl1 Br1 180.0 97_666 .
Br1 Tl1 Br1 90.0 9 101_666
Br1 Tl1 Br1 90.0 105_666 97_666
Br1 Tl1 Br1 90.000(1) 9 5
Br1 Tl1 Br1 90.0 105_666 .
Br1 Tl1 Br1 90.0 97_666 5
Br1 Tl1 Br1 90.0 9 97_666
Br1 Tl1 Br1 90.000(1) 105_666 101_666
Br1 Tl1 Br1 90.0 101_666 .
Br1 Tl1 Br1 90.0 105_666 5
loop_
_geom_bond_atom_site_label_1
_geom_bond_atom_site_label_2
_geom_bond_distance
_geom_bond_site_symmetry_2
Bi1 Br1 2.832(4) .
Bi1 Br1 2.832(4) 33_554
Bi1 Br1 2.832(4) 129_655
Bi1 Br1 2.832(4) 149_565
Bi1 Br1 2.832(4) 97_665
Bi1 Br1 2.832(4) 53_554
Br1 Tl1 3.126(4) .
Tl1 Br1 3.126(4) 105_666
Tl1 Br1 3.126(4) 101_666
Tl1 Br1 3.126(4) 5
Tl1 Br1 3.126(4) 97_666
Tl1 Br1 3.126(4) 9
C1 N1 2.11(2) 28_565
N1 C1 2.11(2) 28_565
loop_
_refln_index_h
_refln_index_k
_refln_index_l
_refln_F_squared_meas
_refln_F_squared_sigma
-1 -1 -1 68.39 4.5
-1 1 -1 75.09 4.1
-1 1 1 72.19 4.2
1 -1 -1 72.99 4.2
1 1 1 68.59 4.4
1 -1 1 75.39 4.4
1 1 -1 68.09 4.2
-1 1 -1 78.99 4.4
-1 1 1 70.29 4.4
-1 -1 1 70.29 5
1 -1 -1 78.59 4.5
1 1 -1 67.39 4.9
1 -1 -1 68.89 4.4
-1 1 1 71.19 4.4
-1 -1 1 72.69 4.2
0 0 2 3711.43 203.18
0 0 2 4013.2 203.38
0 2 0 3835.42 203.18
2 0 0 3815.42 203.28
2 0 0 4217.58 203.48
2 0 0 4453.55 203.48
0 0 -2 4051.19 203.18
-2 0 0 4197.58 203.48
0 -2 0 3482.95 202.78
-2 0 0 3873.21 203.38
0 -2 0 4290.37 203.28
-2 0 0 3884.41 203.28
0 0 -2 3716.33 203.38
-2 2 0 1559.84 86.09
-2 0 2 1590.44 86.39
-2 0 2 1680.93 86.59
2 0 -2 1756.62 86.69
2 0 2 1628.24 85.59
2 2 0 1712.83 87.09
-2 -2 0 1645.44 85.89
-2 0 -2 1684.93 86.49
0 2 2 1654.03 86.09
2 0 2 1564.84 86.09
2 2 0 1777.32 86.59
2 0 2 1746.73 86.49
2 2 0 1642.34 85.89
0 -2 -2 1635.54 86.09
-2 2 0 1680.23 86.19
2 -2 0 1670.73 86.19
-2 0 -2 1608.14 86.09
0 2 -2 1603.74 86.49
2 0 -2 1889.61 86.49
-2 -2 0 1706.83 86.49
0 2 2 1739.33 86.29
2 -2 0 1478.05 85.99
2 -2 -2 158.38 9
2 -2 2 171.88 8.8
-2 2 -2 152.98 9.3
-2 2 2 155.58 9.6
-2 -2 -2 148.29 9.4
-2 2 2 149.39 9
2 -2 2 150.48 9.2
2 2 -2 159.68 9
-2 2 -2 151.08 8.8
2 2 2 170.18 9.7
2 -2 -2 157.28 9.6
-2 -2 2 157.38 10.6
-2 2 2 157.58 9.5
1 1 3 1.1 1
3 1 -1 1.3 0.9
3 1 1 2.3 1
-3 -1 -1 1.5 1
-3 -1 1 0.9 1
-3 1 -1 2.4 0.8
-3 1 1 3.3 1
-1 1 3 1.3 0.9
1 -1 -3 2.4 0.9
1 -1 3 0.8 0.7
1 1 -3 2.3 1
1 1 3 1.1 0.6
3 -1 -1 2 1
3 -1 1 2.6 0.7
3 1 -1 1.4 1.1
3 1 1 2.2 1.1
1 3 -1 3.6 1.2
1 3 1 1.4 0.8
3 -1 1 2.1 0.8
3 1 1 1.1 1
-3 -1 -1 1.9 1.1
-3 -1 1 2.7 1
-3 1 -1 1.3 1
-3 1 1 1.3 1
-1 3 -1 1.8 0.6
-3 1 -1 1.3 0.8
-1 3 1 1.7 0.7
1 -3 -1 1.3 0.8
1 -3 1 1.9 0.7
3 -1 -1 1.4 1
3 -1 1 0.9 1
-1 -1 -3 1.4 0.9
-1 1 -3 1.8 0.9
-1 1 3 1.6 0.9
-1 3 1 1.6 0.7
1 -3 -1 2.2 0.8
1 -1 -3 1.3 1
1 -1 3 2.1 1
-1 -3 -1 1.6 1
-1 -1 3 1.1 0.9
-1 1 -3 1.5 0.5
-3 -1 -1 3.2 1.1
3 3 -1 35.3 2.9
-3 -3 1 32.7 4.8
-3 -3 -1 32.4 3.2
-3 -1 -3 33.2 3
-3 1 -3 33.7 3.1
-3 3 -1 32.9 2.1
-1 -3 -3 31.1 3.1
-1 3 -3 34.4 3.1
-1 3 3 36.8 3.3
3 -3 -1 34.7 2.4
3 -1 -3 35.5 3.1
-3 -1 3 31.9 4.1
-3 1 3 37 4
-3 3 -1 32 3.1
-3 3 1 32.9 3.7
-1 -3 3 37.1 4.7
-1 3 -3 31.7 3.4
1 3 -3 26.3 3.5
3 -3 -1 31.8 3
3 -1 -3 36.4 3.4
3 1 -3 36.3 3.5
3 1 3 32.3 2.9
3 3 -1 25.8 3.7
3 3 1 25.8 3.3
3 1 -3 41.3 3.6
3 3 -1 37.5 3.9
3 3 1 35.9 3.7
-3 -3 -1 28.1 3
-3 -3 1 32.9 2.9
-3 -1 -3 32.2 3.1
-3 -1 3 30.3 3
-3 1 -3 31.1 3.3
-3 1 3 32.1 3.2
-3 3 1 28.5 3.1
-1 3 -3 35.4 3.1
1 -3 -3 32.9 3.3
3 -3 -1 32 3.5
3 -3 1 36 3.4
3 -1 -3 38.7 3.9
3 3 1 36.3 3.5
3 -1 3 35.5 3.2
-3 3 -3 35.8 3.4
-3 3 3 36.3 3.5
3 -3 -3 43.3 4.4
-3 -3 3 34.4 3.5
-3 -3 -3 42 3.6
-3 -3 3 39.6 5.4
-3 3 3 37 4.3
-3 -3 -3 35.1 3.7
-3 3 -3 39.8 3.2
3 -3 -3 34 3.4
3 -3 3 40.7 3.3
3 3 3 44.9 4.5
3 -3 -3 36.6 3.5
3 3 -3 39.5 4.5
3 3 -3 33 3.3
0 4 0 9099.39 456.15
0 0 -4 8686.23 456.05
4 0 0 8339.37 456.35
0 -4 0 8565.74 456.15
0 -4 0 8109.99 455.45
4 0 0 9737.03 456.85
0 0 4 8661.23 456.25
4 0 0 8762.12 456.75
-4 0 0 9091.79 456.75
0 0 4 9999 456.85
-4 -2 0 3939.71 196.58
0 2 4 3708.43 195.18
2 4 0 3701.23 196.18
-4 2 0 4120.09 194.98
-4 -2 0 3826.22 195.48
4 0 2 3392.36 194.38
-2 4 0 3712.13 194.58
2 -4 0 3849.61 194.58
4 0 -2 3920.51 195.48
4 0 2 4081.49 195.58
-4 -2 0 3730.53 194.88
-4 2 0 3763.82 195.28
4 0 2 4288.77 195.18
2 0 -4 3559.44 195.18
4 -2 0 3912.61 194.18
4 2 0 3647.44 195.38
-4 0 2 3694.63 195.58
-4 0 -2 3623.14 195.28
-4 0 2 3690.43 195.28
-2 -4 0 3705.83 193.98
-2 0 -4 3872.71 194.98
0 -4 -2 3698.43 196.38
0 4 2 3929.61 194.88
0 4 -2 3667.23 193.78
2 0 -4 3557.64 195.78
4 -2 0 3919.31 195.48
-4 0 -2 4157.28 195.18
2 0 4 3888.41 193.88
4 2 0 3885.31 196.48
4 0 -2 4082.89 195.88
-2 0 4 3520.85 196.18
2 0 -4 3833.52 195.38
0 -2 -4 3616.24 194.88
0 -2 4 3768.12 195.68
0 2 -4 3710.63 195.28
0 2 4 3916.01 194.88
-4 0 -2 3686.13 194.88
-2 4 0 3523.85 193.68
0 -2 -4 3610.14 194.98
0 2 -4 3578.24 195.08
-2 -4 0 3858.71 195.38
4 2 0 3763.02 194.98
-2 2 4 1471.45 79.59
-4 -2 -2 1609.94 79.79
-4 -2 2 1573.04 79.29
-2 2 -4 1432.66 78.59
-2 -2 4 1624.64 81.09
-4 2 2 1538.15 79.89
4 2 -2 1621.94 79.39
-4 -2 2 1574.24 81.39
-4 2 -2 1663.33 78.69
4 -2 2 1666.93 79.79
-2 4 -2 1300.17 78.29
2 -2 -4 1600.94 79.79
2 2 -4 1493.15 78.99
2 4 -2 1507.95 78.19
4 -2 -2 1563.54 79.89
-2 4 2 1445.46 79.19
2 -4 -2 1563.54 79.59
2 -4 2 1458.25 78.79
-4 2 -2 1595.14 79.89
-4 2 2 1523.65 79.89
-2 2 -4 1574.74 79.69
-2 4 -2 1462.35 78.89
4 -2 2 1641.24 78.69
4 2 2 1540.85 79.89
-2 4 2 1439.86 79.59
-4 -2 -2 1382.36 79.59
-4 2 -2 1343.57 78.69
-2 -4 -2 1483.65 79.69
-2 -2 -4 1560.04 79.79
-2 2 -4 1671.03 79.29
4 2 2 1607.44 79.99
2 -2 4 1582.74 79.29
2 2 4 1551.74 79.69
2 4 2 1478.15 79.69
-2 4 2 1509.55 78.59
2 -4 -2 1394.06 78.59
2 -2 -4 1536.15 79.39
2 -2 -4 1497.35 79.59
2 2 -4 1464.05 80.29
2 2 4 1542.25 78.89
2 4 -2 1347.17 80.59
4 -2 -2 1592.14 79.79
4 -2 2 1361.46 78.39
4 2 -2 1504.15 80.99
4 2 2 1476.75 80.09
-4 0 4 5653.53 292.67
4 4 0 5738.03 291.37
-4 0 -4 4906.61 291.47
0 4 -4 5638.44 292.57
0 4 4 6155.18 292.17
4 0 -4 5534.95 292.57
4 0 4 5399.16 289.97
4 4 0 5722.73 293.57
-4 0 4 5502.85 292.07
-4 4 0 5615.14 291.87
4 -4 0 5946.71 291.77
4 0 -4 4964.6 291.77
-4 -4 0 5736.03 292.57
0 4 4 5761.22 291.77
-4 4 0 6157.98 291.77
4 4 0 6032.4 292.67
0 -4 -4 5751.32 291.77
4 0 4 6460.45 291.97
-4 0 -4 5038 292.07
-2 -4 4 2754.32 149.29
-4 4 -2 2894.21 147.29
4 4 2 2746.43 147.99
-2 4 -4 2870.21 146.99
2 -4 -4 2963.1 147.59
2 4 -4 2718.73 146.09
4 -4 -2 2956.7 147.49
4 -4 2 2885.91 147.09
4 -2 -4 2914.31 147.69
4 -2 4 3150.48 147.79
4 2 -4 2810.82 146.89
4 4 -2 2848.52 146.49
4 4 -2 2821.52 148.09
4 4 2 2972.1 147.99
-4 4 -2 2502.45 145.49
-2 -4 -4 2841.72 147.39
-2 4 -4 2942.11 146.59
-4 4 2 2616.14 147.19
-4 -4 -2 2856.91 146.99
-4 -2 -4 2859.31 147.59
-4 -2 4 2813.92 147.19
-4 2 -4 2920.51 147.69
-4 4 2 2694.73 147.39
-4 -4 2 2829.82 149.69
-4 -2 4 2755.22 148.89
-4 2 4 3015.7 147.99
-4 4 -2 2774.72 146.39
-2 4 -4 2736.93 147.09
-2 4 4 2753.02 147.39
2 -4 -4 2865.61 147.59
2 4 -4 2919.31 149.19
4 -4 -2 2780.12 147.39
4 -2 -4 2819.42 147.59
4 2 -4 2785.22 148.69
4 2 4 2727.63 146.79
4 4 -2 2811.12 149.49
-4 2 4 2883.01 147.79
-4 2 -4 3069.99 146.69
4 -4 -2 2718.43 145.89
-4 -4 -2 2876.01 147.79
4 -2 -4 2852.41 147.09
4 2 4 2841.92 147.69
-4 -2 -4 3045.8 147.69
-2 4 4 2966.7 146.89
2 -4 -4 2486.35 146.39
2 4 4 2817.42 147.39
-4 4 4 3521.85 182.48
4 -4 -4 3551.74 182.78
-4 4 -4 3473.05 182.18
-4 -4 4 3748.82 185.18
-4 4 -4 3328.27 180.68
-4 4 4 3351.36 182.48
4 -4 4 3788.82 182.18
-4 -4 -4 3534.75 182.18
-4 -4 4 3571.64 181.38
-4 -4 -4 3225.78 182.38
-4 4 -4 3467.35 180.88
4 4 4 3826.52 183.08
4 -4 4 3393.76 180.98
4 4 -4 3612.64 184.48
4 -4 -4 3344.67 181.18
4 -4 -4 3475.25 182.48
-1 1 5 160.18 10.5
-1 5 -1 163.48 9.7
-1 1 -5 156.68 10.1
-5 -1 -1 182.38 11.4
-5 -1 1 175.78 11.5
-5 1 -1 156.88 10
-5 1 1 146.59 10.4
-1 -1 -5 160.18 9.6
1 1 5 161.28 10.5
1 1 -5 164.58 10.3
1 -1 -5 166.78 10.1
1 -1 5 162.18 10
1 1 -5 165.68 10.2
1 1 5 164.48 9.8
5 -1 -1 171.78 10.5
5 -1 1 154.98 10.1
5 1 -1 167.08 11
5 1 1 153.18 10.4
-1 5 1 178.18 9.7
1 -5 -1 168.78 9.8
1 -1 5 166.38 10.5
-1 -1 5 173.78 10.8
-1 1 -5 171.68 9.5
-5 -1 -1 152.68 10.2
-5 -1 -1 171.98 10.4
-5 1 -1 164.38 10.3
-1 -5 -1 158.18 10.1
-1 -1 -5 156.68 10.2
5 1 -1 182.58 10.8
5 1 1 172.98 10.7
5 -1 1 170.78 10.7
1 -5 -1 161.38 9.8
1 -5 1 160.98 9.1
1 5 -1 163.48 10.6
5 -1 -1 162.98 10.1
5 -1 1 156.08 9.9
5 1 -1 168.88 10.8
5 1 1 154.08 10.3
-5 -1 1 158.18 10.2
-5 1 -1 159.28 10.4
-5 1 1 158.58 10.3
-1 5 -1 167.28 9.2
5 -1 -1 173.48 10.7
5 3 1 57.59 5.8
-5 -1 -3 54.19 5.1
-3 -1 5 57.79 5.8
5 1 -3 58.99 5.8
3 -1 -5 50.69 4.5
-5 -3 1 61.09 7
-5 3 -1 52.29 4.8
3 1 5 58.79 3.9
-5 -3 1 45.9 4.2
-3 5 1 55.59 5.1
3 5 -1 51.59 5.5
-5 1 3 53.49 5.1
-3 5 1 61.59 4.6
5 -3 -1 52.29 4.1
-1 -3 -5 59.89 4.8
5 -1 3 51.59 5.5
3 -1 -5 59.29 5
1 3 -5 62.79 4.8
5 -3 -1 59.39 4.8
-5 3 -1 55.59 4.8
5 3 1 51.29 5.4
-3 1 -5 52.19 4.8
5 1 -3 51.49 5.1
3 5 -1 58.59 5.4
-3 -5 -1 58.69 4.4
3 1 5 55.29 5.2
5 -3 -1 51.49 5.3
-3 5 1 53.49 3.5
1 -5 -3 59.69 4.4
-1 3 5 61.69 5.2
-1 5 -3 54.69 4.1
3 -5 1 63.99 4.8
3 5 -1 55.59 4
-3 1 -5 53.59 4.3
1 -5 -3 58.29 5
5 -1 3 57.29 3.8
3 -1 -5 62.39 5.5
-5 1 3 58.99 5.6
5 -1 3 47.3 5.2
1 5 3 51.79 5.2
-1 3 5 56.89 5.2
-3 -5 -1 49.3 4.5
1 3 -5 45.6 4.9
-5 -1 -3 53.69 4.6
5 3 1 64.39 5.5
5 1 3 55.19 5.4
1 -3 -5 56.19 4.6
1 5 -3 53.99 3.5
-1 -3 5 61.89 6.8
3 1 -5 55.89 5.1
-3 1 5 54.09 5.5
-5 -1 3 52.29 4.6
-1 3 -5 55.99 5.1
-3 -5 1 52.69 3.9
-3 5 -1 48.2 4.2
1 3 5 58.69 5
-5 1 -3 44.3 4.2
-5 3 1 59.39 5.4
5 -3 1 58.39 3.8
5 3 -1 57.69 6.1
-1 5 3 54.49 5.4
5 1 3 56.29 5.1
3 -5 -1 57.39 3.7
-5 1 -3 54.19 5
3 5 1 52.89 5.3
-5 -3 -1 57.69 5.2
-3 -1 -5 63.09 4.9
-3 -1 -5 53.79 4.8
5 3 -1 52.39 5.5
5 -3 1 51.29 5.2
5 3 -1 55.19 5.1
3 -1 5 65.19 5.3
-5 1 -3 54.79 4.4
-3 5 -1 51.89 4.9
5 -3 1 53.19 4.3
-5 3 1 58.99 4.8
-5 -1 3 51.49 6
5 1 3 56.99 5.5
-5 -3 -1 52.29 4.4
1 3 5 57.79 5.4
5 -1 -3 62.89 5.4
5 -1 -3 55.09 5.3
-1 3 -5 52.19 4.4
1 -3 -5 62.89 4.6
3 -5 -1 61.69 5.1
1 5 -3 55.49 5.3
-1 -5 -3 53.29 4.6
3 1 -5 57.99 5.2
3 5 -3 18.2 2.3
5 -3 -3 13.6 2.9
-5 -3 -3 17.3 3
3 3 -5 18.8 3.2
3 -3 -5 19.9 3.3
-5 3 3 11.3 2.3
-3 -5 -3 19.3 2.4
-5 3 3 13.8 2.8
-5 3 -3 16.1 2.8
-3 -5 -3 16.9 2.7
-3 -3 -5 17.3 2.8
-3 3 -5 11.3 2.1
-3 3 5 14.8 2.6
3 -5 3 15.7 2.8
5 3 3 10.7 1.9
3 3 5 18.9 3.4
-3 5 3 15.3 2.6
3 -5 -3 15.8 3
5 3 -3 19.8 3.7
-3 3 -5 10.4 2.2
-3 5 -3 15.9 2.3
5 -3 -3 16.1 2.7
-3 5 -3 17.3 2.4
3 -3 5 20.9 3.4
3 -3 -5 13.8 2.5
3 -3 -5 13.7 2.4
-3 5 3 15.2 2.6
-3 -3 5 10.2 3.3
5 -3 3 12.6 2.6
5 3 -3 15.8 2.6
3 5 3 20 3.4
-5 -3 3 16.5 3.6
-5 3 -3 21.3 2.5
5 -3 -3 12.1 2.1
5 -3 3 15.2 2.5
5 3 3 20.2 3.7
-5 -3 -3 17.7 2.9
-5 -3 3 11.4 1.9
-5 3 -3 18.7 3
-3 3 -5 11.8 1.9
-3 3 5 12.5 2.7
-3 5 3 12.9 2.7
3 3 -5 19.1 3.6
5 1 -5 107.19 9
5 -1 -5 113.89 8.7
1 5 -5 111.39 9.5
1 5 5 117.89 9
5 -1 -5 124.49 9.2
5 1 -5 117.39 8.9
5 5 -1 108.49 8.8
5 5 1 128.59 8.8
5 5 1 109.39 9.1
-5 1 -5 128.19 9.3
-5 1 5 115.69 8.6
-5 5 -1 123.49 8.5
-5 5 1 117.29 8.5
-1 5 -5 139.19 8
5 -5 1 120.19 8.9
-5 -5 -1 119.69 7.9
-5 -5 1 111.09 7.5
-5 -1 -5 129.19 9.1
-5 -1 5 121.99 8.6
-5 -5 -1 116.99 8.7
-5 -1 -5 105.29 8.4
-5 1 -5 136.49 8.4
-1 -5 -5 126.59 8.5
-1 5 -5 129.29 8.2
-1 5 5 123.29 8.7
1 -5 -5 124.69 8.2
1 5 5 110.39 8.9
5 -1 -5 124.49 8.7
5 -1 5 111.29 8.6
5 1 5 115.89 9.1
5 5 -1 129.19 9.9
-1 5 5 117.09 9.3
-5 5 -1 105.89 8.3
-5 5 1 128.99 8.9
-1 5 -5 118.59 8.7
5 1 5 120.39 7.9
1 -5 -5 118.99 8.9
5 -5 -1 128.49 9
-5 -1 5 118.69 9.9
-5 1 5 114.79 9.6
5 5 -1 119.19 9.7
5 5 1 111.49 9.2
-5 3 -5 57.29 5.1
5 -3 5 73.29 5.9
-5 -5 -3 63.69 6.4
-5 -3 -5 64.99 5.9
5 5 3 67.19 7
-5 5 -3 64.79 4.7
5 3 5 57.79 6.8
5 5 -3 75.89 7.1
-3 5 -5 60.89 5.6
3 -5 -5 69.69 7.1
3 5 -5 67.69 5.5
5 -5 -3 70.89 6.8
5 -5 3 68.39 6.4
5 -3 -5 75.09 7.4
5 -3 5 64.29 7.1
5 3 -5 59.79 6
5 5 -3 74.29 6.6
3 -5 -5 60.69 5.8
3 5 -5 64.39 6.8
5 -5 -3 72.59 6.2
5 -3 -5 67.29 6.1
5 3 -5 65.29 7.3
5 3 5 65.19 5.6
5 5 -3 65.69 7.3
5 5 3 63.29 6.4
-3 -5 -5 75.49 6.3
-3 5 -5 66.29 5
-3 5 5 75.49 6.2
3 -5 -5 69.29 5.3
3 5 5 66.79 7
5 -5 -3 51.99 5.9
5 -3 -5 71.59 5.6
-5 -5 -3 59.79 5.5
-5 -5 3 68.79 5.2
-5 -3 -5 68.69 6.3
-5 -3 5 75.99 6
-5 3 -5 74.59 6.3
-5 3 5 75.99 6.4
-5 5 -3 62.19 5.7
-5 5 3 77.59 6.1
-5 -5 3 75.29 9.6
-5 -3 5 59.59 8.2
-5 3 -5 72.49 4.2
-5 3 5 61.89 7.2
-5 5 -3 72.09 5.6
-5 5 3 69.39 6.8
-3 -5 5 71.69 9.4
-3 5 -5 66.09 5.4
-3 5 5 67.29 6.9
-5 5 -5 70.59 5.3
-5 5 5 62.79 7.7
-5 -5 5 71.79 10
-5 5 -5 75.79 6.4
-5 -5 -5 70.69 6.1
5 5 -5 69.89 7.8
-5 -5 -5 74.29 6.4
5 5 5 48.4 6.6
5 -5 -5 74.39 6.8
-5 5 5 62.69 6.3
5 -5 -5 64.79 7.7
5 -5 5 57.49 7
5 5 -5 60.59 5.9
-5 5 -5 60.09 4.8
5 -5 -5 71.29 5.4
0 0 -6 1907.41 100.19
0 0 6 2066.29 100.59
0 6 0 1915.91 99.49
6 0 0 1970.8 99.99
-6 0 0 2090.09 100.69
0 0 -6 1931.11 99.39
0 0 6 1928.31 99.69
6 0 0 1689.63 100.09
0 -6 0 1905.41 98.29
6 0 0 1775.82 100.19
-6 0 0 1846.32 100.19
6 -2 0 766.92 40.1
6 2 0 762.72 39.9
-2 0 -6 727.93 38.1
0 -2 -6 747.33 39.1
2 0 6 718.63 38.3
6 -2 0 737.53 39.4
6 2 0 727.43 40.8
6 0 2 782.82 39.6
0 -2 6 728.93 40.3
0 2 -6 751.62 39.4
0 2 6 721.23 39.3
-6 0 -2 732.73 40
-6 0 2 649.04 39.6
-2 -6 0 710.03 37.8
-2 6 0 762.12 39.3
2 -6 0 751.02 38.6
6 0 -2 702.33 40.3
-2 6 0 718.43 38.2
-6 -2 0 735.53 41.2
-2 0 -6 784.72 39.7
-6 -2 0 713.83 39.5
-6 2 0 720.03 40
0 -6 -2 739.23 38.9
2 0 -6 732.63 39.6
-6 2 0 828.12 39.9
0 -6 -2 717.03 39.2
0 6 2 730.53 39.3
6 0 -2 694.33 39.8
6 0 2 731.53 40.1
0 -2 -6 633.74 39.3
0 2 -6 731.33 39.8
0 2 6 685.13 39.7
-6 0 -2 731.13 39.8
-6 0 2 723.33 40.4
-2 0 6 707.03 39.9
2 0 -6 704.83 39.6
-6 0 -2 701.33 39.4
-2 -6 0 691.33 39.7
6 0 2 712.73 39.5
2 0 6 707.43 39.8
6 -2 0 786.62 38.8
2 6 0 703.03 39.7
6 2 0 740.63 40.1
2 0 -6 716.43 39.7
-6 2 -2 109.89 7.5
-6 -2 -2 119.59 8.5
6 -2 -2 122.49 8.6
6 -2 2 113.69 7.4
6 2 -2 102.19 9
6 2 2 106.89 8.5
6 -2 2 110.29 7.8
6 2 -2 111.59 8.8
-2 2 6 119.19 8.8
2 -2 -6 113.39 8.1
2 -2 6 104.59 8.4
2 6 -2 110.69 8.8
-2 -2 6 126.89 9.9
-2 2 -6 119.19 7.1
2 -6 -2 112.89 8.2
2 -6 2 120.89 7.3
2 2 -6 105.39 8.1
6 -2 -2 105.99 8.7
6 2 2 122.69 8.9
-2 -6 -2 120.19 8.4
-2 -2 -6 121.09 8.2
-2 2 -6 118.09 8
-2 2 6 117.09 8.7
-2 6 -2 122.49 7.6
-2 6 2 114.59 7.4
-6 -2 -2 122.59 9.4
-6 -2 2 122.69 10.5
-6 2 -2 126.29 7.9
-6 2 2 121.89 9.2
2 2 6 114.59 8.8
2 6 -2 116.49 9.1
2 6 2 111.39 8.7
-2 6 2 114.69 8.7
2 -2 -6 116.49 8.2
2 2 -6 121.29 8.7
2 2 6 124.29 7.8
6 -2 2 119.89 8.9
6 2 2 117.59 9
-6 -2 -2 115.29 8.3
-6 -2 2 118.69 8.2
-6 2 -2 116.39 8.4
-6 2 2 110.19 8.2
-2 6 -2 120.69 7.5
2 2 -6 121.39 8.5
2 -6 -2 112.49 7.6
6 2 -2 123.29 8.7
6 -4 0 1468.65 75.99
6 0 4 1510.55 76.39
0 4 6 1503.75 77.89
0 -6 -4 1452.45 77.69
4 0 -6 1431.56 78.59
6 -4 0 1561.94 77.89
6 4 0 1468.35 80.19
0 6 4 1486.65 77.79
4 0 -6 1461.25 78.49
4 0 6 1390.76 77.89
-6 -4 0 1387.06 77.39
-6 4 0 1336.87 78.09
-4 0 -6 1371.96 78.39
6 4 0 1402.36 78.69
-6 4 0 1615.14 78.09
-4 0 -6 1559.14 78.09
-6 0 4 1493.75 79.09
-4 6 0 1477.55 77.99
0 4 -6 1371.36 78.29
-4 -6 0 1437.16 78.69
0 -4 -6 1446.26 77.89
0 4 -6 1494.95 78.09
0 4 6 1448.66 78.09
4 6 0 1440.16 78.59
6 0 4 1597.84 78.09
6 0 4 1333.87 78.39
-6 0 -4 1356.96 78.49
-6 0 4 1490.05 78.59
4 6 0 1451.05 79.69
6 0 -4 1382.16 78.89
-4 0 6 1496.05 78.99
0 -6 -4 1464.35 77.69
0 6 -4 1520.35 76.39
4 0 -6 1637.84 78.49
6 -4 0 1494.85 78.19
6 4 0 1529.45 78.09
4 -6 0 1511.55 77.49
6 0 -4 1662.13 78.59
-6 -4 0 1477.55 80.29
-6 0 -4 1558.04 78.09
0 6 -4 1417.46 78.89
0 6 4 1483.35 78.49
-4 -6 0 1509.25 76.59
-4 6 0 1380.96 77.49
6 4 2 682.93 38.4
-4 2 -6 645.74 38.3
4 -2 -6 706.73 38.2
4 2 6 780.32 38.8
4 -2 -6 656.63 38.4
6 4 2 614.84 38.4
2 4 -6 741.53 37.3
-6 -4 2 703.33 40.6
4 6 -2 696.23 39.1
4 -6 2 706.13 37.5
-6 4 -2 695.63 38.4
-6 2 4 666.63 38.9
-4 6 2 648.24 38.1
2 -6 -4 697.43 37.3
-2 4 6 711.73 38.4
2 4 -6 672.33 39.2
-2 -4 -6 697.13 38.4
4 6 -2 716.93 40.2
-2 4 6 679.53 38
4 6 -2 688.03 36.6
4 2 6 710.53 36.7
6 -4 -2 759.62 38.5
6 2 -4 738.93 38.2
6 4 2 653.63 39.1
-6 -2 -4 663.93 38.4
6 2 -4 673.83 39.7
-6 2 4 722.43 38.8
-4 -6 -2 659.63 37.1
4 -2 -6 691.23 38.4
-6 -4 2 749.53 37.6
6 -4 -2 683.93 36.6
-4 2 -6 745.83 37.7
2 6 4 675.03 38.4
-2 6 -4 681.53 37.1
6 -2 4 697.93 38.6
6 -4 -2 624.34 38.1
-6 4 -2 663.83 36.3
2 -6 -4 760.12 38.6
-4 6 2 698.73 37.9
-4 -6 -2 694.03 38.6
-2 6 -4 662.53 36.9
-6 4 -2 724.63 37.3
-4 -2 6 664.43 39.7
-6 -2 -4 657.53 38.2
6 -2 4 667.53 37.3
6 4 -2 700.93 39.2
2 -4 -6 625.94 38.1
6 2 4 633.94 38.6
6 -4 2 713.33 36.1
-2 4 -6 650.83 37.8
-2 4 -6 751.32 37.8
-6 4 2 666.83 38.5
-2 -6 -4 681.43 38.1
-2 6 4 711.63 37.4
-6 4 2 658.13 38.4
-4 -2 -6 677.23 38.1
2 6 -4 646.34 39.3
-4 -6 2 708.83 36.5
4 2 -6 691.03 39.5
-2 -4 6 681.83 40
6 4 -2 674.83 40.2
-4 6 -2 656.63 37.4
6 2 4 664.23 38.6
-4 6 -2 693.03 37.5
4 -6 -2 709.43 38.2
2 -4 -6 647.34 37.6
4 -6 -2 688.63 36.3
-6 -4 -2 695.53 37.9
4 6 2 662.73 38.6
-4 -2 -6 695.23 38.4
2 6 -4 687.33 36.1
-4 2 6 669.13 38.7
-2 6 4 693.83 38.6
6 -4 2 688.43 38.3
4 2 -6 694.83 37.9
-6 -4 -2 704.43 38.7
6 4 -2 704.13 37.8
-6 -2 4 732.33 38.4
-6 -2 4 663.93 39.9
-6 2 -4 663.73 36.4
-6 2 -4 687.13 38.6
2 4 6 706.33 38.6
6 -2 -4 738.13 38.9
4 -2 6 701.03 37.9
6 2 4 663.93 38
6 -2 -4 714.33 38.7
2 4 6 733.43 37.9
-6 4 -4 1153.68 55.59
-4 -4 6 1129.39 60.19
-4 4 -6 1084.79 55.59
-4 4 6 1076.79 57.89
-4 6 4 1003.4 57.39
4 -4 -6 1137.59 57.89
4 4 -6 1041.4 58.79
4 6 -4 1043.5 59.49
6 -4 -4 1108.29 57.99
6 4 -4 1059.89 59.49
4 -6 4 1167.88 56.69
4 -4 -6 1003.9 57.59
4 4 -6 1206.58 56.59
4 6 -4 1105.69 55.59
6 -4 -4 1059.59 57.79
6 -4 4 987.8 56.99
6 4 -4 1071.39 56.59
-6 -4 4 1118.79 56.69
-6 4 -4 1033.8 57.39
-6 4 4 972.3 57.49
-4 -6 -4 1087.09 56.69
-4 -6 -4 1019.6 57.39
-4 -4 -6 1041.4 57.49
-4 4 -6 935.71 55.99
-4 6 -4 892.51 55.69
-4 6 4 1072.99 56.09
4 -6 -4 983.5 55.59
4 -4 -6 1004.6 56.59
-6 4 4 1075.49 57.99
6 4 4 986.1 57.69
6 4 4 1035.2 57.69
4 -4 6 1032.5 56.49
4 4 6 979.5 57.39
-4 -4 -6 1049 57.19
-6 -4 4 1023.5 59.79
-6 -4 -4 1113.39 57.29
-6 -4 -4 1089.29 57.79
-6 4 -4 1061.49 55.79
-4 6 4 1061.19 56.99
4 -6 -4 1047.6 57.49
-4 4 -6 1059.49 57.29
4 6 4 1083.79 57.89
6 -4 -4 1012.1 55.99
6 -4 4 1214.18 55.89
-4 6 -4 1020.7 56.59
0 6 6 413.36 24.6
6 0 6 390.36 24.6
6 6 0 440.36 25.6
0 6 -6 422.26 23.4
-6 -6 0 433.26 23.4
-6 0 -6 407.96 24.9
-6 0 6 446.36 25
-6 6 0 398.76 24.2
-6 0 6 385.96 25.4
-6 6 0 436.76 24.4
0 6 -6 415.16 25.2
0 6 6 429.96 25
6 0 -6 404.06 25.2
6 6 0 423.46 26.4
0 -6 -6 406.96 24.1
0 6 -6 409.56 24.2
6 6 0 449.36 24.4
6 -6 0 381.16 24.3
-6 6 2 201.38 14.3
-6 -6 -2 214.18 13.1
-6 -6 2 210.58 12.5
-6 -2 -6 220.68 14.1
-6 -2 6 241.08 14
-6 2 -6 214.58 14.4
-6 2 6 216.48 14.1
-6 6 -2 211.28 13.9
-6 6 2 206.48 13.9
-2 6 -6 208.48 13.1
2 -6 -6 215.28 14.6
2 6 -6 182.78 13.4
6 -6 -2 211.28 14.7
6 -6 2 231.48 14.3
6 -2 -6 198.58 14.5
6 2 -6 192.08 13.9
6 6 -2 221.98 13.4
-2 -6 -6 223.38 14.1
-2 6 -6 194.18 13.4
-2 6 6 191.88 14.4
2 6 -6 213.48 15.3
2 6 6 211.88 14.4
6 -2 -6 212.38 14.3
6 2 -6 207.28 14.9
6 2 6 210.28 13.6
6 6 -2 213.48 15.6
6 6 2 198.48 14.5
-2 6 6 219.48 14.1
6 6 2 193.68 14.5
-6 2 6 200.38 14.9
-6 6 -2 212.28 13.5
-6 -6 -2 214.28 14.3
6 -2 -6 209.08 13.8
6 -2 6 208.88 13.8
-6 -2 6 200.18 15.5
6 -6 -2 219.38 11.5
-6 -2 -6 212.38 13.9
2 -6 -6 205.78 13.2
6 2 6 207.18 14.7
6 6 -2 224.58 15.4
2 6 6 198.08 14.4
-6 2 -6 226.98 13.3
-6 -6 -4 368.76 22.3
-6 -6 4 401.56 21.6
6 -6 -4 376.16 23.8
4 -6 -6 354.96 23.5
4 6 -6 378.86 21.6
-4 6 -6 376.06 22.6
-6 -6 -4 382.56 23.5
-6 -4 -6 384.96 23.1
-6 4 -6 362.36 21.7
-6 6 -4 387.16 21
-4 -6 -6 422.16 23.6
-4 6 -6 375.86 21.5
-6 -4 -6 402.16 23.2
-6 4 -6 382.16 23.3
-6 4 6 351.36 23
-6 6 -4 381.16 23
-6 6 4 399.06 23.3
-4 -6 -6 379.36 22.5
-6 6 -4 383.06 21.8
-4 -6 6 357.86 26.5
-4 6 -6 390.16 22
4 6 -6 400.86 24.7
6 -6 -4 397.16 23.5
6 -4 -6 411.26 23.8
6 4 -6 399.16 25.1
6 4 6 387.16 22.6
6 6 -4 375.26 25
6 6 4 387.16 23.7
-4 6 6 388.16 22.7
4 -6 -6 376.06 21.9
6 -6 4 345.37 22.5
6 4 -6 404.06 22.6
6 6 -4 387.66 22
6 -4 6 370.36 22.1
6 -4 -6 369.36 22.1
6 -6 -4 350.46 21
6 6 -6 222.08 16.1
-6 -6 -6 199.58 14.3
6 -6 -6 228.18 14.8
6 -6 -6 205.78 12.9
-6 6 -6 187.88 12.2
6 6 -6 202.08 13.3
-6 6 -6 189.28 12.1
-6 -6 -6 215.78 13.8
-6 6 -6 186.68 13.9
6 6 6 205.88 14.1
-7 -1 -1 16.4 2.9
1 7 -1 25.3 4.3
1 7 1 24.8 4.2
-7 1 -1 17.2 3.1
-7 1 1 19.5 3.3
-1 -7 -1 20.3 2.8
-1 7 -1 19.3 2.1
7 1 1 22 3.7
7 -1 -1 29.5 4.1
7 -1 1 24.5 4
1 -7 -1 17.7 2.6
1 -7 1 21.8 2.4
7 -1 -1 15.6 3.2
7 -1 1 17 3.5
7 1 -1 26.9 4.5
7 1 1 22 3.7
-7 -1 1 24.1 3.4
7 1 -1 19.6 3.7
-7 1 -1 18.6 2.9
-7 -1 -1 13.7 3.1
-7 -1 1 21.6 3.8
-7 1 -1 21.1 3.9
-7 1 1 19 3.3
-1 -1 -7 18.1 2.5
-1 -1 7 27.5 4.7
-1 1 7 16 3.1
-1 -7 -1 17.7 3
-1 -1 -7 26.1 2.9
-1 1 -7 17.1 3.1
-1 1 7 25.9 4.4
-1 7 -1 19.5 3.3
-1 7 1 24.8 3.5
1 -7 -1 17.9 2.6
1 -1 -7 23.3 3.4
1 -1 7 13.7 3
1 1 -7 14.7 3
1 1 7 26.5 4.7
7 1 1 15.8 3
1 -1 -7 26 3
1 -1 7 21.9 4.1
1 1 -7 25.7 3.1
7 -1 -1 26.3 3.4
7 -1 1 26.8 3.1
7 1 -1 24.2 4.4
7 3 1 13.1 3.3
3 -1 -7 17.9 3.1
7 -3 -1 17.7 3.3
7 3 1 14 2.7
3 7 -1 21.3 4.2
3 1 7 18.3 3.7
7 -3 -1 18.5 3.3
1 3 -7 20.7 3
-3 -7 -1 23.9 2.9
-1 7 -3 19.6 2.3
-3 1 -7 15.4 2.7
7 -1 3 15.3 3.5
1 7 3 14.9 3.1
-7 1 3 15 2.8
-3 1 -7 21.8 2.8
-7 -1 -3 14.4 2.7
-7 -1 -3 16.2 3
-7 3 -1 14.8 2.6
-1 3 7 13.4 2.8
-3 -1 7 13.8 3.3
1 -3 7 15.2 3
1 3 -7 13.6 2.2
7 3 1 20.4 3.4
3 7 -1 14.2 3.1
-1 3 7 23.1 3.7
7 1 -3 16.1 3.3
1 -7 -3 16.5 2.8
-3 -7 -1 17.3 2.9
7 -1 3 13.2 2.9
-7 1 3 13.9 3.1
-3 7 1 15 3
-7 -3 1 21.9 3.1
-7 3 -1 26.2 3.8
7 1 -3 17.7 3.3
-3 7 1 17.4 2.4
1 -7 -3 19 3.3
-3 7 1 16.8 2.7
-7 -3 1 21.5 4.1
-1 -3 -7 22.4 3.2
3 1 7 21.8 3
3 -1 -7 23.5 3.6
3 -1 -7 15.8 3.2
-1 3 -7 19.5 2.8
7 1 3 11 2.9
1 -3 -7 21.7 3.1
-3 1 7 17.1 3.3
-1 7 3 10.5 3
1 7 -3 14.3 2.8
7 -3 1 15 2.5
7 3 -1 15 2.8
-7 1 -3 17.5 2.8
7 -3 1 15.7 2.4
-7 -3 -1 23.7 3.2
-7 -3 -1 13.6 3.3
-7 -1 3 13.9 2.5
-3 -1 -7 20 3.2
-7 3 1 13.4 2.8
1 3 7 13.4 3.2
-7 -1 3 20.1 3.8
-7 1 -3 14.2 2.7
7 1 3 14.8 3.2
3 1 -7 14.9 2.9
-1 -3 7 18.4 3.8
-7 1 -3 17.3 2.7
-3 7 -1 19.4 2.1
-1 3 -7 18.9 3.1
7 -1 -3 22.2 3.7
1 -3 -7 18.2 3.3
-1 7 3 19.9 3.1
3 -7 -1 19.7 2.6
1 7 -3 21.3 3.9
-7 -3 -1 18.5 3.4
7 1 3 22.3 3.2
3 -1 7 21 3.6
3 -7 -1 18.5 2.8
7 -1 -3 13.3 2.9
3 7 1 19.8 3.6
-7 3 1 18.7 3
7 3 -1 14.9 3.4
-1 -7 -3 21.2 3.4
3 1 -7 14.9 2.8
7 -3 1 16.2 3.3
7 3 -1 18.2 3.3
1 3 7 15.5 2.8
-3 7 -1 15.8 2.3
7 3 3 2.9 2.2
-7 3 3 7.2 2.5
-3 -7 -3 7.9 1.6
-3 3 -7 5.9 2.1
-3 7 3 3.6 2.2
-7 3 -3 11.4 2
3 3 -7 9.8 2.9
7 -3 -3 9.2 3.3
7 -3 3 11.4 2.8
7 3 -3 8.6 3
7 -3 3 9.3 1.5
7 3 -3 5.7 2.3
3 -3 -7 7.3 2.9
-7 -3 3 8.9 3.5
-7 3 -3 7.8 2
-7 3 3 5.2 2.4
-3 -3 7 6.6 4.1
-3 3 -7 11.7 2.1
-3 -7 -3 9 2.2
-3 -3 -7 5.8 1.9
-3 3 -7 6.2 1.8
-3 3 7 6.8 2.4
7 3 3 6.1 2.9
-7 -3 -3 9.3 2.3
-3 3 7 7.4 2.6
3 -3 -7 9.2 2
3 3 -7 7.5 2.3
3 3 7 6.3 2
3 7 -3 6.9 2.5
7 -3 -3 6.2 2
-7 -3 -3 9.9 2.2
-7 -3 3 7.4 1.9
-7 3 -3 5.8 2.3
-3 7 -3 8.1 1.6
3 -7 -3 8 2.7
3 -7 3 6.5 2.4
3 3 7 3.9 2.9
-3 7 -3 7.2 1.6
-3 7 3 9 2.2
3 -7 -3 7.5 1.5
3 -3 -7 9.5 2.1
3 -3 7 10.8 2.8
3 3 -7 2.1 2
7 3 3 9.2 2.8
3 7 -3 10.9 3.2
3 7 3 7.7 2.7
7 3 -3 12.9 3.4
-5 7 1 1.1 2.4
7 -5 -1 1.6 1.4
5 7 -1 1.6 1.9
-5 1 -7 0.1 1.6
5 7 -1 2.1 2.9
5 -1 -7 3.3 3
-7 1 5 0.5 2.2
-5 -7 -1 -1.2 1.3
7 1 -5 5.8 3
1 7 5 -1.2 2.7
-1 7 -5 3 1.6
-7 -5 1 -1 3.5
-7 5 -1 0.8 2.1
1 7 5 3.2 2.7
-5 -1 7 1.3 3.4
-5 1 -7 0.3 2.1
-1 7 -5 1.6 1.9
7 -5 -1 -1.4 2.7
-1 5 7 2 2.5
-5 7 1 3.4 1.9
5 1 7 2.9 0.9
-1 -5 -7 1.5 1.8
5 1 7 2.1 1.3
-7 5 -1 3.9 2.1
7 -1 5 1.5 2.4
7 -5 -1 2.9 1
-7 -1 -5 2.5 2.4
1 -7 -5 3 1.7
7 5 1 4.7 2.5
-7 -5 1 3.9 1.6
7 -1 5 4.8 3.1
5 1 7 -1.2 2.7
-7 1 5 -0.9 2.4
7 5 1 5.7 3
5 -1 -7 5.1 2
1 5 -7 0 2
-5 -7 -1 1.9 2.4
5 7 -1 1.5 2.6
5 -7 1 4 2.4
7 -5 -1 2 1.2
7 5 1 1.3 2.8
1 -7 -5 -1.2 2.6
5 -1 -7 1.9 1.9
1 5 -7 0.1 1.8
-7 -1 -5 2.9 1.9
7 1 -5 -1 2
-1 5 7 2.5 2.9
1 7 -5 2.3 2.3
7 1 5 5.9 3.2
7 1 5 -4.4 2.6
-1 5 -7 0.4 1.7
-5 7 -1 -0.7 2.2
5 7 1 -0.2 2.6
-7 -5 -1 3.5 1.7
5 1 -7 0.9 2.9
-1 5 -7 4.6 1.7
-7 -5 -1 2.8 2.2
-5 -1 -7 0 1.7
7 5 -1 4.1 2.5
-1 -7 -5 0 1.7
-7 -1 5 1.1 2
-5 -7 1 -0.8 1.7
7 5 -1 1.3 2.6
7 -5 1 1.6 2.7
-7 -1 5 1.6 3.1
5 -7 -1 1.7 2.6
5 1 -7 4.7 2.3
-1 7 5 3.2 2.6
5 7 1 1.6 2.2
7 -1 -5 5.2 2
-7 1 -5 5.3 1.7
7 1 5 5.7 1.7
-5 1 7 4.1 3
7 -1 -5 5.2 2.8
5 -1 7 -0.4 2.5
-1 5 -7 3.2 1.6
-7 5 1 5 2.1
-5 -1 -7 2.2 2.1
-7 1 -5 -0.1 2.2
1 -5 -7 7.8 3
1 7 -5 0.9 1.4
1 7 -5 4.1 1.3
1 5 7 0.9 2.6
7 5 -1 -2 2.8
1 5 7 0.7 2.4
5 1 -7 0.9 2.3
-7 5 1 1.5 2.3
-1 7 5 1.1 2.4
-5 -3 7 4.6 3.9
-7 -3 -5 0.4 2.1
3 5 -7 1.7 2.3
7 -3 5 2.9 2.2
-7 3 5 1.8 3.7
-7 5 -3 0 1.5
-5 3 -7 1.7 1.5
-7 5 -3 2.1 2
-3 7 -5 0.7 1.4
3 -7 -5 3.9 1.5
3 7 5 -3.5 3
-5 -7 -3 -3.1 2.3
-3 -5 -7 3.9 2.2
7 -3 5 -0.3 3
-3 5 7 2.8 2.8
7 -5 -3 1.7 1.9
-3 5 7 0.7 2.6
5 7 -3 1.9 3.8
-7 -5 3 1.1 4.5
-7 5 -3 2 2.2
-7 3 5 -0.3 2.2
-5 -7 -3 1.4 1.6
-5 3 -7 0.5 2.5
-3 7 -5 2.1 1.7
3 -7 -5 3.1 3.6
5 3 7 -5.2 3.3
7 -5 -3 0 3.7
5 7 -3 4.3 3.1
-5 7 3 -1 2.4
7 3 -5 2.5 2.9
-7 -3 -5 4.7 2.2
5 -3 -7 2.4 1.8
5 7 -3 2.2 1.8
7 5 3 -0.3 2.4
3 5 -7 3.2 2.3
5 -3 -7 1.7 1.8
5 -7 3 4.2 2.4
5 3 7 0.4 1.9
-5 7 3 2.3 2.2
-7 -5 3 1.2 1.7
7 3 -5 0.2 2.4
-7 5 3 1 2.6
-7 -3 5 -1.5 2.1
5 -7 -3 2.6 3.3
-7 5 3 -1.6 2.3
7 3 5 -2.1 3
3 -5 -7 2.2 1.8
-5 -3 -7 -1.4 2.2
5 7 3 1.6 2.8
7 -3 -5 1.2 1.8
7 5 -3 -2.7 2.8
-3 7 5 -0.9 2.1
3 7 -5 0.6 2.8
5 3 -7 -3.6 2.6
5 -3 7 0.5 2.5
3 7 -5 2.2 1.4
5 3 -7 2.7 2.7
7 -5 3 4.9 1.5
-7 3 -5 -2.8 2.4
7 5 -3 3.9 2.5
7 3 5 4.2 2.2
-3 5 -7 1.8 1.7
-7 -5 -3 0.7 2
-7 3 -5 1.5 1.3
-7 -5 -3 2.5 2.3
-5 7 -3 1.3 2.1
-5 -3 -7 1 2
-3 -5 7 3.8 4.5
-3 5 -7 1.4 1.5
5 -7 -3 1.8 1.6
3 -5 -7 2.5 1.7
3 5 7 1.6 2.4
7 -5 3 -0.1 2.8
5 7 3 2.2 2.3
7 -3 -5 0.3 1.8
-7 3 -5 2.1 1.6
-3 -7 -5 5.1 1.8
3 5 7 1.6 3.3
3 -5 -7 -3.1 3.1
-5 3 7 2 2.9
-5 -7 3 2.8 2
-5 7 -3 1.1 2
-3 5 -7 2.2 2.3
7 5 -5 13.2 3.3
5 5 -7 8.8 2.7
-7 5 -5 9.7 1.8
-7 -5 -5 14.7 3
-7 -5 5 5.8 2.4
-7 5 -5 11.2 3
-7 5 5 14.4 2.9
-5 -7 -5 11.6 2.4
-5 -5 -7 7.9 2.7
-5 5 -7 13.2 3.2
-5 7 -5 8.8 2.4
5 -7 -5 12.7 4.7
-7 -5 -5 11.6 3
-7 5 -5 12 2.3
-5 5 -7 7.8 1.8
-5 5 -7 10.5 1.6
-5 7 -5 11 2.5
5 -5 -7 9.3 2.3
5 5 -7 9.1 3
5 7 -5 6.5 3.2
7 -5 -5 12.8 2.9
5 7 -5 10.6 3.8
7 -5 5 9.9 3.9
-5 -7 -5 9.8 2.9
-5 -5 -7 12.1 3
-5 5 -7 11.5 2
-5 7 -5 8.1 1.6
5 -7 -5 12.1 2.1
5 -5 -7 12.2 2.4
7 -5 -5 7.3 1.9
7 -5 5 13.1 2.8
7 5 -5 12.4 2.8
7 5 5 4.1 2.5
7 7 -1 -6.3 3.2
7 7 1 -2.9 3.2
-7 7 -1 -4.2 2.3
-7 7 1 -0.4 2.7
-1 7 -7 -2.6 2.6
1 7 -7 -2 2.5
1 7 7 0.1 3.5
7 -1 -7 -1.2 2.5
7 1 -7 -1.5 2.5
-7 -7 -1 -4.2 2.6
1 7 -7 2.8 2.2
7 -1 -7 1.8 2.6
7 -1 7 2.9 3.5
-7 7 1 -2.9 2.6
-1 7 -7 -1.4 2.1
7 7 -1 0.2 2.9
-1 7 7 2.8 3.4
1 -7 -7 -2.5 2
-7 -1 7 -4.4 2.3
1 -7 -7 -2.5 3.4
1 7 -7 1.8 1.7
1 7 -7 -3.3 1.9
7 -7 -1 4.3 3.4
-7 -1 -7 -0.2 2.4
-7 1 -7 -2 2.1
-1 -7 -7 -2 2.2
-1 7 -7 0.5 1.9
-7 -7 -1 -0.8 1.9
-7 -1 -7 -0.8 2.9
-7 7 -1 4.9 2.5
-7 1 -7 -1.2 2.6
7 -7 1 5.1 3.5
7 3 -7 1.8 3
-7 7 -3 -0.1 2.3
-7 7 -3 -2.1 2.7
-7 7 3 -0.9 2.9
-3 7 -7 1.5 2.3
-3 7 -7 -1.7 2.2
3 7 7 -0.2 3.4
-7 -7 -3 -4 2.7
-7 -3 -7 3 2.5
7 7 -3 1.9 2.8
7 -3 7 -0.1 3
7 3 7 -3.6 2.3
7 7 -3 -1.2 3.1
-7 -7 -3 0.2 2.1
-7 -7 3 -0.6 1.8
-7 -3 -7 -3.2 2.9
-7 3 -7 -1.6 3
3 7 -7 -2.1 2.4
7 -7 3 2.8 3.5
7 7 3 -2.9 2.9
-3 7 7 4.5 3.1
3 -7 -7 1.8 2.1
7 -7 -3 2.2 1.6
7 -3 -7 -2.7 2.3
-7 3 7 -1.2 2.8
-3 -7 -7 2.9 2.3
-3 7 -7 -0.2 2
7 -3 -7 3 2.3
7 3 -7 -3.9 3.1
-7 3 -7 0 2
-7 -7 5 0.4 2.1
-7 -5 -7 4.2 3.2
-7 5 -7 10.4 3.4
5 7 -7 4.2 2.7
7 -7 5 4.7 4.9
5 7 -7 0.7 3.3
-7 7 -5 0.1 2.3
-5 7 -7 2.8 2.1
-7 7 -5 1.1 3
-7 7 5 5.1 3.1
-5 -7 -7 2.9 2.8
-5 7 -7 1.1 3.1
-7 -7 -5 4.2 2.5
-7 -7 -5 -3.5 3.6
-7 -5 -7 7.3 4.2
-7 5 -7 4.7 2.1
-7 7 -5 2.9 2.1
-5 7 -7 6.5 1.9
5 -7 -7 3.5 2.2
7 -7 -5 2.5 1.7
7 -5 -7 6.1 2.4
7 -5 7 5.3 3.4
7 7 5 6.6 2.9
7 5 -7 3 3.4
7 7 -5 5 3.1
7 5 7 2.2 2.6
7 7 -5 1.5 4.3
7 -5 -7 3.8 2.9
-5 7 -7 0.5 2
-7 7 -7 1.5 2.1
7 7 -7 6.2 3.9
-7 7 -7 5 2.1
7 -7 -7 5.9 2.6
7 7 7 1.2 3.4
7 7 -7 3.7 3.7
7 -7 -7 10.1 3.2
-7 -7 -7 3.3 3.7
-7 7 -7 1.2 3.8
-7 -7 -7 1.2 3.4
-8 0 0 2498.35 130.49
0 0 8 2599.04 130.29
0 8 0 2531.25 129.29
8 0 0 2524.75 129.59
0 0 -8 2338.87 128.69
0 0 8 2425.26 129.29
8 0 0 2401.96 130.09
8 0 0 2480.95 130.19
-8 0 0 2490.35 130.29
0 -8 0 2461.95 127.29
0 0 -8 2496.65 129.99
0 2 8 1488.95 81.29
8 0 2 1387.46 80.69
0 8 -2 1570.54 80.69
8 -2 0 1551.84 81.69
8 2 0 1513.85 81.39
-8 0 -2 1557.64 81.69
2 8 0 1475.65 80.99
8 0 -2 1575.94 81.29
0 -8 -2 1521.85 80.49
-8 -2 0 1643.44 83.09
-8 2 0 1574.84 81.19
-2 0 8 1478.55 81.29
2 0 -8 1561.84 80.89
2 0 8 1469.45 79.59
8 -2 0 1411.26 80.59
8 2 0 1586.74 82.69
0 -2 -8 1578.74 80.29
8 0 2 1474.15 81.59
-8 0 2 1542.75 82.19
-2 0 -8 1537.05 81.09
0 2 -8 1509.15 81.19
-8 0 -2 1389.76 81.29
-8 0 2 1470.15 81.29
-2 8 0 1635.14 79.19
2 -8 0 1525.85 79.29
8 0 -2 1420.76 81.19
-8 0 -2 1490.85 80.89
-2 8 0 1542.15 79.39
0 -2 -8 1515.25 81.09
2 0 8 1530.65 81.19
8 -2 0 1443.36 79.99
8 2 0 1483.05 81.39
0 -2 8 1541.35 81.79
0 2 -8 1579.44 80.29
0 2 8 1520.35 80.59
8 0 -2 1657.13 82.49
8 0 2 1491.55 80.49
0 8 2 1611.94 80.79
2 0 -8 1413.96 81.19
2 0 -8 1608.24 81.09
-8 -2 0 1579.24 81.19
-8 2 0 1470.95 81.49
2 8 -2 930.71 51.39
8 -2 -2 926.91 50.59
-8 -2 -2 940.31 52.19
2 8 2 881.41 51.09
-2 8 -2 934.41 49.7
2 -8 -2 920.21 49.7
-8 -2 -2 985.8 51.69
2 -2 8 959.4 51.39
2 2 -8 1028.2 51.79
-8 -2 2 957.6 53.39
-8 2 -2 870.71 50.39
-8 2 2 967.7 51.89
-2 -2 8 901.51 52.29
-2 2 -8 976.5 49.2
-2 2 8 939.81 51.29
-2 8 2 967.9 51.79
2 -2 -8 951.7 50.89
2 -2 8 872.51 50.09
2 2 -8 973.7 51.39
2 2 8 959.8 50.09
2 8 -2 934.51 52.59
8 -2 -2 944.01 51.49
8 -2 2 983.1 50.19
8 2 -2 904.01 52.79
8 2 2 985.8 51.89
2 -8 -2 936.21 50.29
2 -8 2 920.21 49
2 -2 -8 850.81 50.89
2 2 -8 1031.9 50.89
8 -2 -2 974.9 51.89
8 -2 2 941.01 51.69
8 2 2 984.8 51.89
-2 -8 -2 895.61 49.2
-2 2 -8 913.21 50.99
8 -2 2 930.81 50.39
-2 2 8 899.31 51.29
8 2 -2 915.01 51.89
2 -2 -8 955 51.29
-8 2 -2 911.31 51.59
-8 2 2 848.22 51.29
-8 -2 -2 979.1 51.59
-8 -2 2 883.81 51.09
2 2 8 978 51.79
-8 2 -2 935.11 50.29
-2 -8 -2 943.01 51.19
-2 -2 -8 896.51 50.99
8 2 2 837.02 51.19
-2 8 -2 927.21 49.1
4 8 0 1518.35 84.99
8 0 -4 1628.64 84.99
4 8 0 1519.65 83.79
-8 -4 0 1686.13 82.99
-8 4 0 1554.34 83.69
-8 0 -4 1650.13 82.39
-8 0 4 1427.26 84.29
-4 8 0 1551.64 83.39
0 -8 -4 1478.35 82.39
0 -4 8 1665.73 84.59
-4 0 -8 1534.65 83.19
0 -8 -4 1533.75 82.59
0 8 4 1472.45 82.59
4 0 -8 1651.83 83.79
4 0 8 1641.74 83.59
8 4 0 1569.54 83.29
8 4 0 1556.74 83.99
-4 -8 0 1584.24 80.79
-4 8 0 1536.35 82.19
4 -8 0 1533.75 81.99
8 0 -4 1489.55 83.19
8 0 4 1529.05 83.99
-4 0 -8 1616.24 83.79
-8 -4 0 1665.63 85.99
-8 0 -4 1732.63 84.49
-8 0 -4 1467.55 82.89
0 -4 -8 1618.24 83.29
0 4 -8 1501.05 83.09
0 4 8 1542.25 83.49
8 0 4 1518.15 82.99
8 0 4 1533.05 81.39
-8 4 0 1526.85 83.09
-4 0 8 1479.65 83.89
0 8 -4 1502.75 84.19
8 -4 0 1481.45 82.79
8 4 0 1540.95 85.19
8 -4 0 1628.54 81.29
0 4 -8 1527.45 82.89
0 4 8 1579.34 82.99
-8 0 4 1602.54 83.89
0 8 4 1565.44 84.19
4 0 -8 1549.45 83.29
8 -4 0 1530.95 83.49
4 0 -8 1551.84 83.69
2 4 -8 1035.3 57.89
4 -2 -8 1075.59 58.89
8 4 2 1086.09 60.29
8 4 2 1119.09 59.39
8 4 2 1062.29 59.49
-2 4 8 1057.89 59.09
-4 8 2 1171.68 56.49
8 -2 4 1218.28 58.19
-8 4 -2 1101.59 59.29
-4 -8 -2 1069.29 57.09
-8 -4 2 1097.49 61.49
-4 2 -8 1096.79 58.39
8 2 -4 1050.49 58.79
2 -8 -4 1085.89 57.79
4 8 -2 1109.59 59.89
-4 8 2 1047.8 57.79
-4 8 2 1018.4 58.89
-8 4 -2 1109.29 58.09
-2 8 -4 1059.79 57.29
4 2 8 1179.58 57.09
8 -2 4 991.9 60.29
2 -8 -4 1086.59 58.79
4 2 8 1118.19 60.99
-8 -2 -4 1105.89 59.39
-4 -2 8 1080.49 60.69
8 2 -4 1080.69 61.19
-8 -4 2 1015 58.29
-4 -8 -2 1117.19 59.49
-8 2 4 1080.89 59.89
-4 2 -8 1090.69 59.09
-2 4 8 1055.29 58.89
4 -2 -8 1071.59 59.09
-2 -4 -8 1101.89 59.19
-8 -2 -4 1111.79 59.19
8 -4 -2 1050.09 58.99
2 4 -8 1064.39 59.49
4 8 -2 1014.6 60.79
2 8 4 1085.69 59.19
2 4 -8 1144.39 59.59
-8 2 4 1127.19 59.69
4 -8 2 1069.49 57.39
-8 2 -4 1093.79 59.59
8 -2 -4 1025.5 59.39
8 2 4 1032.4 58.29
8 2 4 1038.7 59.39
-2 -8 -4 1088.59 58.79
-8 4 2 1047.2 59.49
2 8 -4 1086.29 59.39
-2 4 -8 1053.79 58.29
8 -4 2 1079.89 57.69
8 2 4 1050.99 59.19
-8 -2 4 1183.18 63.99
2 -4 -8 1059.09 58.59
-8 2 -4 1177.58 58.39
2 4 8 1120.79 58.19
-8 -2 4 1090.69 58.99
4 -8 -2 1046.3 56.39
2 -4 -8 1188.58 63.09
-2 8 4 1096.19 57.69
-8 -4 -2 1099.89 59.59
2 -4 -8 1069.09 58.69
-2 -4 8 1024.5 60.89
-8 4 2 1125.19 59.49
2 8 -4 1068.39 60.69
8 4 -2 1019.2 58.49
-4 8 -2 984.9 58.19
4 2 -8 1052.09 59.59
8 -4 2 1108.69 56.59
4 2 -8 1050.99 58.59
-4 2 8 1026.7 59.59
4 8 2 1055.09 59.39
-2 4 -8 944.01 58.19
-8 -4 -2 1148.19 58.89
-4 8 -2 1078.39 57.49
-4 -2 -8 1096.29 59.09
4 -8 -2 1067.49 58.19
8 4 -2 1135.99 61.29
8 -4 2 1016.7 59.09
4 -2 8 1080.69 58.79
8 4 -2 1057.39 59.99
4 2 -8 1139.39 60.09
-4 -2 -8 1028 58.69
-2 4 -8 1136.49 57.39
-8 2 -4 1080.89 57.59
4 4 8 929.41 53.19
4 8 -4 1001.1 56.99
4 8 -4 969.3 51.39
8 4 4 1010.3 55.39
4 -8 4 887.91 52.89
-8 -4 -4 1047.6 54.69
-8 -4 4 984.2 54.09
-8 4 -4 1090.09 55.49
4 4 -8 968.6 53.79
4 -4 -8 987.8 54.19
4 -4 8 1019.2 54.19
4 4 -8 1006.7 55.29
8 -4 -4 926.31 53.09
-4 -4 -8 1034.9 54.89
-4 4 -8 937.41 54.49
-4 8 -4 913.11 52.99
-8 -4 -4 1008.9 55.19
4 -4 -8 1009.8 54.89
4 -8 -4 1022.1 52.79
-8 4 -4 1056.89 53.09
-4 -8 -4 1002.4 54.89
-4 -4 -8 938.51 54.39
4 -8 -4 964.8 54.59
-4 4 -8 1089.39 53.99
8 4 -4 1044.4 54.29
-8 4 4 1018.2 55.59
-4 -8 -4 950.7 52.99
-4 -4 8 1020.4 57.29
8 -4 -4 952.6 54.89
8 -4 4 896.71 52.49
4 4 -8 1008.6 56.19
-4 8 4 1063.99 53.09
-4 8 -4 957.2 52.49
8 4 -4 1037.8 57.19
-8 6 0 627.44 36.1
-6 8 0 547.35 35.2
-6 0 -8 606.64 36
0 6 -8 625.84 34.7
6 -8 0 601.94 35.2
0 8 -6 619.54 36.6
0 -6 -8 668.03 35.9
8 6 0 657.53 38
-6 0 -8 621.74 35.4
0 -8 -6 636.74 35.3
-8 0 -6 617.24 36.2
-8 0 6 680.53 36.2
0 6 -8 651.83 36.2
0 6 8 606.04 36.1
6 8 0 649.74 37.7
8 0 -6 631.64 37.6
-6 8 0 632.04 35.3
-8 0 -6 602.24 35.1
8 0 6 525.65 35.4
-8 -6 0 592.14 34.5
-8 6 0 552.94 35.5
-6 -8 0 666.43 33.8
0 6 -8 683.33 35.8
0 8 -6 670.23 34
8 6 0 626.44 35.7
0 8 6 632.54 36
6 0 -8 627.44 36.3
6 0 -8 628.74 36.6
0 -8 -6 603.34 35.8
2 -8 -6 436.96 27.2
8 2 -6 417.16 28.1
2 -8 -6 436.86 25.5
6 -2 -8 453.65 26.6
6 8 -2 457.95 29.1
-2 8 -6 465.75 25.3
8 -6 -2 434.86 23.7
2 6 -8 463.65 27.6
8 -6 -2 471.35 26.8
8 6 2 450.35 28.4
8 6 2 433.56 27.2
6 2 8 423.46 24.8
-8 -2 -6 458.55 26.6
-6 8 2 463.05 26.5
-2 -6 -8 468.55 26.5
-8 2 6 450.75 26.9
8 -6 -2 462.75 23.6
-2 8 -6 455.35 26.7
-2 6 8 411.86 26.5
6 8 -2 414.26 26.3
-8 6 -2 407.46 26
2 6 -8 478.25 25.4
-6 -8 -2 429.86 24.9
6 -8 2 433.96 26
-6 2 -8 454.15 27
-2 8 -6 426.16 24.8
-8 -6 2 445.96 25.4
-6 2 -8 480.15 26.1
2 6 -8 497.45 27.3
8 -2 6 423.46 26.1
-8 -2 -6 436.36 26.9
-6 -8 -2 438.06 27.1
6 -2 -8 451.15 27
6 2 8 453.75 24
-8 6 -2 449.86 26.7
-6 8 -2 448.56 26
2 8 -6 435.16 24.1
-6 -2 -8 442.06 26.3
2 6 8 433.86 27
-8 6 2 427.66 27
-6 -2 -8 451.25 26.8
-2 6 -8 450.95 25.8
6 -8 -2 426.56 26.6
-8 -6 -2 421.36 25.6
-6 8 -2 422.86 26.1
8 -2 -6 435.86 27.2
8 -2 -6 452.25 26.4
-8 2 -6 486.45 26
6 2 -8 488.45 28.1
-6 -8 2 432.26 24.3
-2 -8 -6 446.96 26.4
2 -6 -8 451.05 26.1
-8 -6 -2 447.16 27.3
2 8 -6 425.96 23.7
8 6 -2 406.96 28.1
-2 8 6 422.36 26
2 8 -6 438.16 28
6 2 -8 427.16 27.7
-8 -2 6 445.56 26.3
-8 2 -6 486.45 27.5
6 8 2 445.96 27.8
8 6 -2 458.15 26.3
-2 6 -8 441.36 25.9
-2 6 -8 446.36 25.8
6 -2 8 405.96 26.3
6 2 -8 405.96 26.9
8 2 6 451.75 24.9
6 4 8 446.16 26.5
-4 -6 -8 462.55 27.9
-6 4 -8 473.55 26.8
4 6 -8 479.35 29.2
6 8 -4 485.05 30.6
8 4 -6 485.15 30.6
8 4 -6 424.76 27.2
4 -8 -6 470.25 26.5
-8 4 6 477.15 28.2
-6 -8 -4 449.06 26.5
8 -6 -4 464.45 25.5
6 4 8 522.25 26.9
-8 -4 -6 465.35 27.7
-8 6 -4 442.36 25.1
6 -4 -8 491.85 28.5
4 6 -8 497.55 26.8
-6 4 -8 481.25 28.2
-4 8 -6 445.76 26.6
-4 8 -6 458.55 27.1
8 -4 6 434.76 26.6
8 6 4 480.15 29
8 -6 -4 452.25 27.8
-4 -6 -8 462.35 27.5
-8 -4 -6 498.75 28.2
-8 -6 4 462.65 26.7
-4 8 -6 436.56 25.6
6 -8 4 428.96 27.1
6 -4 -8 461.35 27.2
-6 8 4 444.96 27.3
-8 6 -4 459.25 27.9
-8 6 -4 459.55 26.5
-6 -8 -4 454.45 28
-8 4 -6 433.46 26.1
6 4 -8 478.75 30
-8 -4 6 479.05 27
-4 6 -8 447.96 26.6
4 -6 -8 435.66 26.8
-4 6 -8 443.86 25.8
8 -4 -6 448.46 26.7
-4 -8 -6 470.25 27.7
6 8 4 475.85 28.8
-4 8 6 479.55 27.2
-8 4 -6 491.15 28.5
-6 8 -4 425.06 26.8
6 -4 8 459.15 27.4
-6 8 -4 448.86 27.1
-4 -8 -6 473.45 26.9
8 4 6 437.56 27.4
8 6 -4 480.35 27.2
-8 -6 -4 467.85 27.2
-8 -6 -4 472.85 28.5
-8 6 4 481.15 28.5
4 6 8 482.95 28
8 -4 -6 441.46 28.1
6 -8 -4 453.75 25.2
6 4 -8 439.66 27.1
4 8 -6 463.45 25.2
-6 -4 -8 470.25 27.8
8 6 -4 490.85 30.3
-4 6 -8 478.15 27.6
4 8 -6 486.55 29.9
-6 -4 -8 460.45 27.9
-6 8 -6 271.57 15.9
6 -6 -8 250.57 17.1
-8 6 -6 258.37 14.6
6 -8 -6 242.78 14.7
6 -6 -8 239.88 15.5
8 -6 -6 218.38 14.7
-8 -6 -6 231.48 15.9
-8 -6 6 236.98 15.4
-8 6 -6 233.48 16.9
-8 6 6 224.18 16.7
-6 -8 -6 249.68 15.7
-6 6 -8 250.87 16.5
-6 8 -6 230.98 16.1
6 6 -8 221.58 15.7
6 6 8 209.38 16.8
6 8 -6 268.37 18.5
8 6 -6 241.98 18
8 6 6 234.68 16.8
-6 -8 -6 260.27 17.3
-6 -6 -8 246.68 16.3
-6 6 -8 250.57 15.2
-6 8 -6 242.48 14.1
-8 6 -6 240.68 14.3
8 6 -6 231.28 16.4
8 -6 -6 245.78 17.2
-8 -6 -6 240.78 16.4
6 6 -8 260.37 18.4
6 8 -6 230.78 14.9
6 8 6 235.98 17.2
0 -8 -8 522.15 29
-8 0 -8 512.95 28.9
8 0 -8 510.85 31
8 8 0 435.16 34.9
-8 8 0 454.15 29.1
0 8 -8 459.95 27.4
0 8 -8 489.45 29.7
-8 -8 0 471.55 27.4
0 8 -8 504.05 29
-8 0 -8 497.25 29.8
8 0 -8 497.55 29.7
-8 8 -2 414.76 25.3
8 8 2 446.66 27.6
8 2 -8 422.76 27.4
8 8 -2 411.46 27.1
-8 -8 -2 399.86 23.9
-8 -8 2 409.86 23.5
-8 -2 -8 397.36 25.3
-8 8 -2 400.06 25.1
-8 8 2 402.16 25.4
-2 8 -8 413.66 24.1
2 8 -8 455.05 23.5
8 8 -2 406.66 24.6
2 8 -8 420.86 25.4
-8 -8 -2 426.56 26.2
-8 2 -8 400.16 24.4
-2 -8 -8 368.06 25.5
-2 8 -8 419.06 25.2
-8 2 -8 415.96 26
8 -2 -8 410.06 25.2
2 8 -8 438.96 26.9
8 -2 -8 409.36 25.8
-2 8 -8 379.96 23.9
2 -8 -8 398.76 24.5
-8 -4 -8 344.57 21.6
-4 8 -8 335.07 20.7
8 8 -4 375.36 24.6
8 4 8 332.27 20.6
4 8 -8 331.47 25
8 8 4 332.87 22.6
8 4 -8 341.87 24
-8 -8 -4 335.67 20.4
4 8 -8 354.96 19.7
8 8 -4 342.97 20.7
-8 8 -4 323.27 20.9
-4 8 -8 343.17 20.8
-8 -8 4 342.87 19.5
-8 -4 -8 344.97 21.6
-8 4 -8 318.67 21.6
-8 8 -4 317.47 21.4
-8 8 4 294.37 24.2
8 -4 -8 323.57 22
-8 -8 -4 321.27 22.3
-8 4 -8 354.46 20.5
-4 -8 -8 344.67 21.3
-4 8 -8 339.87 20.1
4 -8 -8 358.76 20.9
8 -8 -4 322.47 18.7
8 -4 -8 321.47 20.7
8 -4 8 295.27 21.2
-4 -8 -8 344.67 20.8
-8 -8 -6 173.38 17.3
-8 -6 -8 179.08 13.9
8 8 6 188.98 15.6
8 -6 -8 179.68 14.1
-6 8 -8 192.48 12.9
-8 -6 -8 196.18 13.9
8 -8 -6 194.88 12.3
8 -6 -8 191.88 13.6
-8 6 -8 183.28 15.2
-8 8 -6 187.78 14.6
-6 -8 -8 198.08 13.7
-6 8 -8 194.88 14.2
6 8 -8 194.28 15.8
-8 6 -8 191.28 12.8
-6 -8 -8 195.78 15
-6 8 -8 156.18 12.1
6 -8 -8 205.58 13.5
-8 -8 -6 200.28 15
8 8 -6 212.38 16.4
8 6 -8 202.48 15.7
8 6 8 189.88 14.6
8 8 8 135.39 12.6
-8 8 -8 121.69 12.6
-8 -8 -8 112.49 11.5
8 8 -8 138.09 14.7
-8 -8 -8 109.19 11
8 -8 -8 132.89 10.1
-1 9 -1 113.59 8.7
9 -1 -1 114.89 13
9 1 -1 117.49 10.1
1 -1 9 102.99 9.8
-1 9 1 125.69 9
1 9 -1 118.79 9.6
1 9 1 112.79 9.6
9 -1 -1 118.99 9.5
9 -1 1 118.59 9.2
9 1 -1 117.69 10.2
9 1 1 112.19 9.8
9 -1 1 120.59 8.8
9 1 -1 115.59 10.3
9 1 1 103.39 9.5
1 1 -9 104.09 8.8
-1 1 -9 120.99 7.7
-1 1 9 120.69 10.1
1 -9 1 114.99 6.7
1 -1 9 123.39 9.8
-9 -1 -1 126.19 9.3
-9 -1 1 112.29 9.2
-9 1 -1 108.49 8.9
-9 1 1 117.59 9.4
-1 -9 -1 114.29 7.1
-1 -9 -1 113.89 7.4
1 -9 -1 119.09 7.9
1 1 -9 127.69 8.6
1 1 9 115.49 9.2
9 -1 -1 117.09 9.1
1 -1 -9 115.79 8.4
-1 -9 -1 113.79 8.7
-1 -1 -9 132.29 9.2
-1 1 -9 106.89 8.8
-9 -1 -1 112.69 11
-9 -1 1 105.79 11.4
-9 1 -1 121.39 10.2
-9 1 1 111.99 10.4
-1 -1 -9 101.89 7.6
-1 -1 9 130.19 10.6
1 -1 -9 105.69 8.9
1 -9 -3 68.49 6.5
9 1 -3 83.99 10.2
1 -9 -3 74.49 7.6
9 1 -3 79.19 8.9
-9 1 3 70.29 10.1
9 3 1 72.49 8.8
1 3 -9 76.29 7.3
3 9 -1 74.49 8.5
-3 1 -9 78.59 6.4
1 -3 9 84.39 9
-1 9 -3 74.59 7.7
-3 1 -9 79.39 7.1
9 3 1 75.79 8.3
-9 -1 -3 68.79 8.4
-9 3 -1 76.49 7.8
9 3 1 74.29 8.6
-1 3 9 70.59 8.5
9 -1 3 72.29 7.9
1 3 -9 74.49 7
-9 -3 1 62.79 6.8
3 9 -1 81.09 7.5
9 -1 3 77.89 6
9 1 -3 61.69 8
3 -9 1 74.19 6.3
-9 -1 -3 71.69 7.3
-3 9 1 79.49 5.6
-9 1 3 78.19 7.6
1 9 3 74.69 7.9
3 -1 -9 64.79 6.7
3 -1 -9 75.59 6.9
3 1 9 80.39 6.5
-9 -3 1 94.59 10.8
-1 -3 -9 71.69 6.8
-9 -1 -3 66.09 7.4
-9 3 -1 67.79 7.4
9 -3 -1 75.19 6.7
-3 -9 -1 80.29 5.5
-3 -1 9 75.99 9.2
-3 -9 -1 76.29 7.4
9 -3 -1 83.69 7.1
-1 -9 -3 72.99 7
3 -1 9 69.69 6.1
9 1 3 71.39 6.8
-1 3 -9 70.19 6.9
1 -3 -9 66.09 6.7
9 3 -1 85.09 8.5
3 9 1 80.89 8.4
9 -1 -3 84.29 8.7
-1 9 3 70.49 7.2
-9 -3 -1 83.19 10.3
-1 3 -9 77.29 6
9 3 -1 67.89 8.7
-3 9 -1 74.89 5.5
-3 1 9 70.89 9
1 9 -3 71.09 7.5
3 -9 -1 73.89 6.8
-1 -3 9 77.89 10
9 -1 -3 81.69 7.8
-1 -9 -3 67.39 6.9
3 1 -9 64.99 7.1
-9 1 -3 71.89 7.5
9 -3 1 81.79 6.9
9 3 -1 57.29 9.8
-3 9 -1 69.09 5.4
-9 -3 -1 76.69 7.2
1 3 9 77.89 8.1
-9 -1 3 79.59 7.6
-9 3 1 73.99 8.5
1 9 -3 78.39 8.6
1 -3 -9 76.19 6.6
9 -3 1 79.69 6.5
9 1 3 77.39 8.3
3 1 -9 73.89 7
3 1 -9 74.39 7.9
-9 1 -3 78.29 8.4
-9 1 -3 69.79 7
-9 3 1 77.39 7.2
3 -3 -9 63.79 6.1
-3 -3 -9 49.8 6.2
9 3 3 52.39 6.7
-9 -3 -3 44.6 6.9
-9 3 -3 45.3 5.1
3 3 9 56.79 6.7
-3 3 -9 60.99 6
-3 9 -3 46.9 4.9
-3 9 -3 55.39 5.6
-3 9 3 48.1 5.7
3 -9 -3 43.3 4.9
3 -3 -9 47.5 6
3 3 -9 54.39 6.8
3 9 -3 47.2 7.1
9 -3 -3 52.49 6.5
9 -3 3 48.9 5
9 3 -3 52.29 8.3
3 9 -3 58.19 8.6
-9 -3 3 61.39 6.2
-9 3 -3 55.19 6.7
-9 3 3 57.69 6.9
-3 -9 -3 59.49 4.6
-3 3 -9 57.99 6.7
-3 9 -3 59.09 4.5
-9 -3 -3 56.19 6.2
-3 -9 -3 42.2 6.2
3 -3 9 53.59 7.8
3 3 -9 50.29 6.7
9 3 -3 44.8 7.5
9 -3 3 49.7 5.9
-9 3 -3 45.9 6.2
-3 -3 9 40 7.2
-3 3 -9 54.29 4.1
-3 3 9 54.49 8.7
3 -9 -3 48.4 7.4
3 3 -9 53.79 7.1
9 -3 -3 60.69 7.1
3 9 3 50.19 8.3
9 -5 -1 49.4 4.7
5 -1 -9 68.09 6.6
9 -5 -1 50.39 6.5
9 -1 5 52.89 4.8
-9 5 -1 65.39 7.5
-5 9 1 49.1 5.5
1 5 -9 56.79 6.9
-9 5 -1 54.29 6.9
5 -9 1 63.59 6.8
9 -5 -1 64.29 5.1
-1 9 -5 51.39 4
1 -9 -5 57.19 8.4
-1 -5 -9 39.4 5.8
1 -9 -5 50.89 5.3
5 9 -1 54.39 8
-1 5 9 57.49 8.6
-9 -1 -5 49.6 7
9 1 -5 54.49 7.4
-9 1 5 49.6 7
-5 -9 -1 47 4.6
5 -1 -9 51.09 6.8
-9 -1 -5 53.99 6.7
9 5 1 46.3 7.9
1 5 -9 51.39 6
9 -1 5 46.2 7.8
-1 9 -5 60.59 6.9
-5 -9 -1 55.59 7
1 9 5 43.8 7.8
-9 -5 1 48.3 5.8
9 5 1 35 6.1
-5 -1 -9 48.7 6.8
-9 1 -5 43.3 6.9
-5 9 -1 61.79 8.1
-1 5 -9 50.09 5.8
1 9 -5 64.49 8.8
-9 -1 5 46.2 6.9
-9 5 1 51.89 8.5
1 5 9 41.6 8
9 -5 1 63.29 5.9
-5 9 -1 45.9 5.7
-1 -9 -5 45.4 5.9
-9 -5 -1 56.79 6.1
5 -9 -1 65.29 7.5
-5 -9 1 50.99 4.3
-1 -9 -5 44.2 7.6
-1 5 -9 46.9 5.8
5 1 -9 58.69 6.9
-1 5 -9 55.79 6
-9 1 -5 40.1 6.2
9 5 -1 65.69 8.6
1 -5 -9 58.89 5.8
9 5 -1 62.39 8.3
-5 -1 -9 45.6 6
-9 5 1 44.1 6.3
1 9 -5 44.6 7.3
-1 9 5 49.7 7.3
-1 -5 9 36.8 6.7
9 -5 1 55.39 4.3
5 1 -9 56.09 7.1
5 9 1 59.79 7.7
9 -1 -5 42.4 6.9
9 1 5 46.9 5
-5 9 3 30.3 5.3
9 -5 -3 42.7 4.1
3 -9 -5 35.8 5
-9 -3 -5 34.4 5.5
9 3 -5 38.4 6
-9 3 5 55.29 6.9
-9 5 -3 50.19 6.8
3 5 -9 29.9 5.3
-3 9 -5 40.9 4.4
9 -3 5 27.3 4.8
-5 3 -9 49 5.2
3 -9 -5 36.3 6
5 -9 3 42.8 6.3
5 -3 -9 41.9 5.9
9 -5 -3 43.5 6
-9 -5 3 48.8 5.9
-5 -9 -3 34.2 5.5
-5 -9 -3 40 4.7
9 5 3 47.5 8.1
3 5 -9 32.7 5.2
3 5 -9 37.7 7.1
5 3 9 36.8 5.8
5 9 -3 29 5.3
-5 3 -9 51.39 6.6
-9 5 -3 56.29 6.6
-9 -3 -5 37.5 5.8
-3 -5 -9 41.9 5.3
9 3 5 43.1 6.2
-9 -3 5 37.2 5.4
-3 5 -9 45 5.4
-5 -3 -9 58.79 6.6
-3 5 -9 43 6.3
-3 5 -9 33.7 4.4
-3 9 5 57.59 7
-9 -5 -3 35.3 5.8
5 -3 9 35.7 8.3
5 3 -9 62.79 9.7
3 5 9 28.4 5.1
5 9 3 42.1 7.3
3 9 -5 41.9 7.5
3 -5 -9 38.3 5.7
5 -9 -3 41.2 4.4
-9 -5 -3 41.3 5.7
-5 -3 -9 49.5 5.8
-9 3 -5 36.6 5.5
9 5 -3 30.2 5.1
9 5 -3 54.79 8.2
3 -5 -9 48.5 5.6
-9 3 -5 45.6 6.7
-5 9 -3 38.7 7.2
9 -3 -5 47.5 5.5
9 -5 3 44.4 4.5
9 -3 -5 34 6.6
-3 -9 -5 38.8 4.6
-3 -9 -5 48.2 6.4
5 -9 -3 36.3 6.1
5 3 -9 47 6.7
-9 5 3 43 6.2
-9 3 -5 38.9 5.8
-5 -5 -9 20.4 4.5
9 -5 -5 19.6 3.8
5 9 -5 11.9 4.6
-9 -5 -5 24.6 4.4
9 5 5 17 3.9
-9 -5 5 23.9 3.7
-9 5 -5 26.6 4.5
-5 -9 -5 22.2 6.2
-5 -5 -9 15.6 3.4
-5 5 -9 27.8 4.7
5 -9 -5 21.7 2.9
5 -5 -9 18.7 3.4
5 5 -9 27.3 4.6
5 -5 -9 18.6 3.3
-5 9 -5 19 3.9
5 5 9 20.8 4.2
9 5 -5 15.9 4.4
-9 5 5 18.5 4.6
-5 -9 -5 19.1 3.1
-5 5 -9 13.6 3.8
-5 9 -5 17.3 3.3
5 5 -9 22.6 5.5
9 -5 -5 15.2 2.7
5 5 -9 23.4 4.9
-9 -5 -5 11 3.2
-9 5 -5 20.8 4.2
9 -5 5 17.1 3.4
9 5 -5 27.7 5.1
7 9 -1 10.4 3.9
1 7 -9 13.8 3.3
7 -1 -9 15.9 3.4
9 1 -7 9.8 3.7
-9 -1 -7 12.4 3.5
-1 -7 -9 19.1 3.3
-9 1 7 23.1 3.7
-7 9 1 12.5 3.5
7 -9 1 10.1 4.4
-1 9 -7 8.1 2.2
-7 1 -9 14.2 2.9
9 7 1 15.1 5.6
7 -1 -9 10.6 2.8
-7 1 -9 15.7 3.9
1 -9 -7 13 3.1
1 7 -9 10.3 3.5
-1 9 -7 10.6 3.4
-9 -7 1 16.4 2.8
-9 7 -1 5.8 3.8
1 7 -9 10 3.7
-7 -9 -1 12.8 2.3
-1 9 -7 14.9 3
9 7 1 7.8 4
-9 -1 -7 15.2 3.8
-7 -1 -9 12.5 3.3
-9 -7 -1 13.3 2.8
1 9 -7 12.3 3.8
-1 -9 -7 20.8 3.6
-7 -1 -9 10.7 3.8
7 9 1 7.7 6.2
-9 1 -7 14.5 4.1
9 -1 -7 12.3 3.3
9 -1 -7 11.6 3.5
7 1 -9 10.6 3.6
7 1 -9 14.7 3.8
-1 7 -9 15.3 3.1
1 9 -7 17.5 2.6
9 7 -1 10.5 6.2
1 9 -7 16 2.4
-1 7 -9 9.6 2.8
-7 9 -1 12.6 3.4
-9 7 1 12.4 3.6
1 -7 -9 15.3 3.3
-9 -1 7 10.6 3.4
9 7 -1 17.9 4.8
9 -7 -3 12.9 2.3
7 -9 3 9.3 4.6
-9 -3 -7 8.8 3.5
9 -7 -3 11.6 1.9
3 -9 -7 15.2 2.9
3 7 -9 13.7 3.5
9 -3 7 13.5 4.7
-7 -9 -3 9.1 2.6
9 3 -7 4 4
-3 -7 -9 14.3 3.5
-7 3 -9 16.4 3.9
7 -3 -9 10.4 3.2
-9 -7 3 8.8 2.9
-9 7 -3 12.7 4
9 -7 -3 9.7 3.1
-9 7 -3 12.4 4.1
3 7 -9 19.3 4.1
-3 9 -7 12.2 2.7
-9 3 7 13 4.1
-7 -9 -3 13 4.1
3 7 -9 17.6 4.1
7 9 -3 8.4 3.5
-3 9 -7 12.2 3.2
7 -3 -9 9.6 3.3
7 9 -3 11.3 4.6
7 3 9 9 2.6
9 7 3 9.7 4
-7 9 3 7.9 3.3
-7 3 -9 12.6 2.9
-3 9 -7 7.6 2.5
-3 7 -9 11.7 3.6
-3 -9 -7 13.2 3.8
9 7 -3 4.4 4.4
3 -7 -9 9 3.1
-9 3 -7 5.2 3.6
-7 -3 -9 9.9 3.4
-9 -3 7 11 3.6
3 9 -7 10.4 4.1
9 3 7 13 2.6
-7 -3 -9 9.4 3.6
-7 9 -3 13.5 3.3
9 7 -3 18.2 4.6
-9 -7 -3 11 3
-9 7 3 20 4.4
-7 9 -3 3.6 3.5
-3 7 -9 6.1 2.5
9 -3 -7 13.9 3.3
7 3 -9 6.1 3.6
9 -3 -7 3 3.1
-7 -9 3 10.7 2.2
-9 -7 -3 5.5 4.1
-9 3 -7 14.5 2.9
-3 7 -9 8.9 2.8
-3 9 7 6.9 4.2
3 9 -7 12.9 2.1
3 9 -7 12.3 2.3
7 3 -9 12.3 4.1
9 5 -7 11.4 4.3
5 -9 -7 12.3 2.9
9 -7 -5 14 2.3
-7 -9 -5 12.1 4.6
-5 -7 -9 11.7 3.5
-9 -7 5 9.1 3.3
7 -5 -9 2.8 3.1
-9 5 7 7.6 4
-7 -9 -5 9.2 3.1
-5 9 -7 6.1 3.4
7 -5 -9 13.9 3.4
-7 5 -9 6.6 4.1
7 5 9 7.1 3
-5 9 -7 10.4 3.1
-5 9 -7 11.2 3.8
5 7 -9 11.7 4.2
7 9 -5 14 4.6
-9 -5 -7 8.7 3.7
-7 5 -9 7.3 2.9
-9 -5 -7 4.1 3.7
-5 9 -7 20.8 3.7
9 -7 -5 13.4 3.9
-5 -7 -9 10.7 3.9
9 7 5 11.7 4.3
5 7 -9 4.4 4.2
5 -7 -9 12.7 3.3
9 7 -5 11.7 4.3
-5 7 -9 11.2 2.7
-9 7 5 13.1 4.3
-9 -7 -5 6.1 3.8
-7 9 -5 4.4 3.6
9 -5 -7 12.5 3
9 5 7 3.8 3.7
7 -9 -5 8.4 2.3
-9 -5 7 6.9 3.5
-9 5 -7 6.6 4.2
9 7 -5 5 4.5
-9 -7 -5 11.3 3.2
-5 -9 -7 11.9 3.5
-7 -5 -9 15.5 3.7
-5 -9 -7 15.6 3.2
-7 9 -5 7.5 4
7 -5 9 10.1 5.5
-5 7 -9 10.5 1.9
-5 7 -9 12.5 4
5 9 -7 -0.3 4.4
-9 5 -7 12.9 2.8
9 -5 -7 2.2 3.6
7 5 -9 3.8 4.3
7 7 9 6.1 4
9 -7 -7 1.4 3.9
7 -7 -9 4.5 4
7 7 -9 4.8 4.9
-7 9 -7 3.5 3.2
-9 -7 -7 7.3 3.9
-9 7 -7 1.4 5
-7 -9 -7 1.4 3.8
-7 -7 -9 4.3 4.2
-7 7 -9 -1.9 4.9
-7 9 -7 -3.1 4.5
7 9 -7 3.9 5
7 9 7 -3 4.5
7 -9 -7 7.7 3
7 -7 -9 11.6 3.4
9 -7 -7 7.2 2.9
9 7 -7 -1.6 5.3
9 7 7 2.8 4.7
-7 7 -9 5.6 3
-9 7 -7 7.8 3.4
-7 -9 -7 -0.8 4.5
-7 -7 -9 2.2 4.4
-9 -7 -7 8.9 4.6
9 9 1 10.5 4.7
-9 -9 -1 12.5 3
-9 -9 1 18.8 3.1
9 9 -1 9.7 5
1 9 -9 8.6 3.8
9 -1 -9 11.2 3.8
9 1 -9 4.5 4
-1 9 -9 13.2 3.9
-9 -1 -9 7 4.2
-9 1 -9 7.1 4.3
-9 9 -1 15 6.7
-9 -1 -9 17.2 3.6
-9 1 -9 6.6 5.9
-1 -9 -9 9.7 4
-1 9 -9 13 3.5
1 -9 -9 12.7 3.6
1 9 -9 7.2 4
9 -1 -9 10.4 4.5
9 1 -9 14.9 4.7
1 9 -9 14.7 2.9
-9 9 1 9.9 4.4
-1 9 -9 5.9 3.1
-3 -9 -9 7.1 3.8
-9 -3 -9 8.4 4
-9 3 -9 1.3 4.3
-3 9 -9 14.8 3.2
-9 3 -9 11.2 3.5
-9 -9 -3 13.9 3.5
-9 -9 3 7.6 3.2
3 -9 -9 14.9 3.7
3 9 -9 15.4 4.8
9 -3 -9 5 4.1
-3 9 -9 7.2 3.6
3 9 -9 -1.8 4.2
9 -3 -9 2.9 3.8
9 3 -9 12.8 4.4
9 9 -3 7.2 5
9 9 3 -1.8 5.1
-9 9 3 3.9 4.3
-3 9 -9 9.5 3.6
3 9 -9 11.1 2.8
-9 -9 -3 8.7 4.8
-9 -3 -9 15.4 3.8
-5 -9 -9 3.6 4.3
-5 -9 -9 5 4.5
-9 5 -9 3.5 3.6
-9 9 5 7.5 4.7
5 -9 -9 2.5 3.6
9 -5 -9 6.8 4.9
-9 -9 -5 2.9 4.7
-9 -5 -9 7.7 4.4
-9 -9 -5 8.9 6.4
-9 -5 -9 7.9 4.4
-9 5 -9 1.6 5.3
-9 9 -5 5.3 5.1
9 5 -9 -4.8 5.2
9 9 -5 -3.6 5.5
9 9 5 -1 5
9 -5 -9 -1.4 3.9
-5 9 -9 1.3 4.4
5 9 -9 9 4.4
0 0 -10 386.46 24.4
0 10 0 415.46 24.2
-10 0 0 429.16 24.9
10 0 0 399.26 24.8
-10 0 0 386.06 25.9
0 0 -10 398.56 23.2
0 0 10 396.66 24.6
10 0 0 430.36 24.8
-10 0 -2 279.97 18
-10 0 2 274.97 17.7
2 -10 0 282.97 15.4
-10 0 -2 271.17 18.7
0 -2 -10 270.77 16.4
0 -2 10 269.27 19
0 2 -10 275.17 16.2
0 2 10 271.47 18.1
10 0 -2 271.17 18.4
10 0 2 246.88 16.5
0 -10 -2 258.97 15.9
0 10 2 272.67 17.3
2 0 -10 248.28 17.2
10 -2 0 270.97 17
-10 -2 0 294.67 17.7
-10 2 0 271.77 18.1
-2 0 -10 246.18 16.8
0 -10 -2 251.97 16.5
-2 10 0 260.67 16
0 2 -10 278.77 17.4
2 10 0 277.37 18.2
10 0 -2 257.57 18.1
-10 -2 0 253.87 19.4
-10 2 0 246.88 18
-2 0 10 235.88 18.4
2 0 -10 265.37 16.7
2 0 10 266.47 16.8
10 -2 0 278.97 17.2
10 2 0 297.07 19.4
0 10 -2 251.47 17.1
0 -2 -10 274.17 17.3
10 0 2 246.88 17.5
2 2 10 192.08 13.3
10 -2 -2 169.28 12.9
-2 2 -10 168.08 10.7
-10 2 2 189.98 13.8
-2 -10 -2 173.08 10.5
-2 2 10 168.98 14.3
-2 -10 -2 166.58 12
2 -10 -2 175.28 12.2
2 -2 -10 180.38 12.9
2 2 -10 195.28 13.6
2 10 2 165.68 13.8
10 -2 -2 180.68 13.3
10 -2 2 189.78 13.3
2 10 -2 202.08 14.7
10 -2 2 188.48 12.2
2 10 -2 185.88 14.6
10 2 -2 189.08 15.1
10 2 2 180.08 13.8
2 -2 -10 187.68 12.9
2 -2 10 168.78 14.9
2 2 -10 182.68 12.7
-10 -2 -2 199.58 13.4
-10 -2 2 200.08 13.2
-10 2 -2 182.78 13.3
-10 -2 -2 186.18 13.4
-2 -10 -2 189.18 13.3
-2 -2 -10 179.98 12.8
-2 2 -10 186.08 12.9
-2 10 -2 179.88 12.1
-2 10 2 180.48 12.1
2 -10 -2 173.18 11.5
-10 2 -2 186.48 13.6
-2 -2 10 192.18 15.9
-10 -2 -2 172.68 15
-10 0 -4 337.17 20.4
-10 0 -4 303.37 19.7
10 0 4 312.77 20.7
0 -10 -4 325.67 20.2
4 10 0 326.87 22
0 10 -4 325.47 21.1
0 10 4 311.77 20.2
4 0 -10 358.96 20.9
10 -4 0 326.07 18.8
-10 4 0 305.47 20.7
0 10 -4 311.07 21.3
4 0 -10 299.57 20
10 -4 0 298.57 19.6
-10 0 -4 327.87 20.7
-10 0 4 280.97 20.4
0 -10 -4 311.17 19.6
10 4 0 308.77 21.6
0 -4 10 333.57 22.6
0 4 -10 313.47 19.2
0 4 10 320.37 20.9
0 -4 -10 305.97 20
0 4 -10 292.77 19.7
-4 10 0 307.17 18.2
4 -10 0 310.77 19
-4 0 -10 337.37 20.1
10 0 -4 313.27 21.3
10 0 4 313.67 18.6
-10 4 0 318.67 20.4
-4 0 -10 315.87 20.3
-10 -4 0 331.27 19.9
-2 10 -4 229.98 12.8
-10 -2 -4 229.78 15.7
2 -10 -4 214.68 15.9
-4 2 -10 237.28 15.8
-10 -2 -4 239.38 16.1
2 -10 -4 222.78 14.6
4 -2 -10 248.38 16
10 -4 -2 225.88 14.8
-10 4 -2 227.38 16.3
-2 10 -4 227.38 15.4
-10 -4 2 262.67 15.6
4 -10 2 228.98 14.3
-4 10 2 190.08 13.1
-2 -4 -10 185.58 17.7
2 4 -10 214.88 15.4
-10 4 -2 209.68 15.7
-4 -10 -2 235.98 16.2
4 -2 -10 238.88 15.7
10 -4 -2 230.48 15.8
10 4 2 263.37 17.1
10 -2 4 230.58 14
2 4 -10 242.48 16.1
-4 2 -10 243.28 15.3
-4 -10 -2 227.88 13.3
10 -2 4 233.58 15.9
10 2 -4 235.78 18
2 4 -10 206.38 15.7
2 10 -4 223.08 17.6
-2 4 -10 250.47 15.5
10 -2 -4 243.18 16.4
-10 -2 4 257.87 16.3
-10 2 -4 233.88 15.7
10 -2 -4 224.88 16.5
2 10 -4 228.78 16.9
4 2 -10 226.08 16
2 -4 -10 218.68 15.3
2 -4 -10 237.28 15.5
-10 4 2 263.07 18.1
-10 2 -4 228.68 15.2
-2 -10 -4 224.38 15.8
10 -4 2 210.58 14.4
-2 4 -10 214.88 15.3
-4 -2 -10 221.28 17.1
-10 -4 -2 240.08 15.7
-2 -10 -4 246.68 15.7
4 -10 -2 213.18 15.3
-2 10 4 235.98 15.3
-10 2 -4 203.48 20.5
-4 10 -2 236.78 13.9
-10 -4 -2 225.08 16.1
10 -4 2 216.88 14.3
-2 -4 10 225.18 19.4
2 4 10 228.88 16.1
-2 4 -10 228.28 13.6
10 2 4 243.48 15.7
10 4 -2 259.27 18.4
-4 10 -4 252.97 14.4
4 -10 -4 235.38 14.7
-10 -4 -4 196.98 18.2
-4 10 4 223.98 14.9
-10 4 -4 235.98 17.4
-10 4 4 249.08 17.4
10 4 -4 248.08 19.3
4 -4 -10 252.37 16.7
-10 -4 -4 230.28 16.7
4 4 10 249.68 16.3
4 10 -4 251.47 18.5
-10 4 -4 249.58 15.9
10 4 4 234.88 17.1
4 -4 -10 241.58 16.3
4 4 -10 247.38 17.5
10 -4 -4 238.28 15.2
4 -10 -4 250.07 17.1
10 -4 -4 262.87 16.9
10 -4 4 271.07 15.6
-4 -10 -4 230.98 14.7
-4 -4 -10 240.38 16.6
4 4 -10 239.28 17.5
-10 4 -4 226.88 14.9
-4 -10 -4 240.68 16.5
-4 -4 -10 224.68 16.3
-4 4 -10 248.08 15.8
-4 10 -4 245.38 14.4
-10 -4 4 236.48 16.3
-4 4 -10 228.48 16.2
6 0 -10 155.78 14.1
-10 6 0 151.98 14.7
0 -6 -10 161.98 12.9
0 6 -10 162.58 12.6
10 0 -6 169.28 14
0 10 -6 161.98 13.8
0 -10 -6 165.08 14.9
0 6 -10 173.28 12.7
10 6 0 187.38 15.1
-10 0 -6 160.48 13.1
-6 10 0 170.08 11.8
6 -10 0 166.88 13.8
10 -6 0 169.78 12.8
-10 0 6 179.78 13.7
-6 -10 0 167.08 10.2
-10 -6 0 168.68 12.1
10 0 6 170.78 10.4
6 10 0 203.38 15.4
-6 0 -10 180.38 13.3
-10 0 -6 179.68 13.1
6 0 -10 176.28 13
0 -10 -6 172.88 12.3
-6 10 2 157.18 10.9
2 6 -10 136.29 12
6 -10 2 138.49 12
-2 -6 -10 129.49 11.1
10 -6 -2 144.79 9
-10 -6 2 161.18 11.2
-10 6 -2 140.19 12.7
-10 6 -2 151.38 12.7
10 6 2 142.19 13.2
-10 2 6 137.89 12.5
-6 2 -10 142.69 11.3
6 -2 -10 139.29 13
10 -6 -2 152.38 9.6
2 6 -10 147.99 12.4
6 10 -2 120.89 13.2
-6 -10 -2 140.89 12.3
10 2 -6 125.89 13.6
-6 -10 -2 148.19 9.5
2 -10 -6 147.49 10.6
-10 -2 -6 122.89 13.1
-2 10 -6 146.99 12.1
6 -2 -10 139.19 11.9
-2 10 -6 152.98 10.2
-10 -2 -6 122.79 11.7
10 -6 -2 168.18 11.6
2 6 -10 133.39 11.1
10 -2 6 166.28 13.1
-6 2 -10 147.39 12
-6 -2 -10 175.58 12.2
6 2 -10 137.99 12.2
-2 -10 -6 143.99 13.5
2 -6 -10 113.39 12.7
2 10 -6 121.89 16.1
-10 -6 -2 134.69 11
-6 10 -2 135.79 10.7
-2 6 -10 151.18 11.2
10 -2 -6 149.79 12.3
10 6 -2 157.28 13.8
-10 6 2 120.39 12.2
-2 6 -10 133.79 10.2
6 10 2 153.38 13.1
10 -2 -6 138.19 11.5
-6 -2 -10 149.69 11.1
-2 -10 -6 140.69 11.4
10 2 6 142.79 10
-10 -2 6 155.58 16.7
-10 2 -6 153.08 12.7
-10 -6 -2 145.29 12.6
6 2 -10 144.39 12.9
-2 10 6 155.78 12.8
-10 2 -6 144.79 11.4
-2 6 -10 156.18 11.1
6 10 -4 160.78 14.8
10 4 -6 129.69 14
-10 4 6 135.49 11.9
-6 -10 -4 143.99 10.2
-10 -6 4 138.99 11.2
-4 -6 -10 145.49 11.9
6 -10 4 127.99 12.3
-4 10 -6 158.98 12
-6 -10 -4 138.99 12.1
10 6 4 158.28 13.4
-4 10 -6 136.39 9.9
4 -10 -6 140.39 10.3
-10 -4 -6 164.48 12.3
10 -6 -4 113.09 11.7
10 -6 -4 138.49 9.4
6 -4 -10 119.69 11.6
-10 6 -4 160.68 12.3
6 4 10 132.99 10.2
-6 4 -10 156.88 11.2
-10 6 -4 161.28 12
-4 10 -6 150.78 9.4
4 6 -10 155.08 13.1
-4 -6 -10 143.89 11.7
4 6 -10 144.09 13
-6 4 -10 150.38 12.4
-10 -4 -6 131.09 11.7
10 -4 6 143.29 12.1
-6 -4 -10 141.29 12
10 -4 -6 141.89 10.7
-10 4 -6 138.69 12.9
4 6 10 135.09 13.7
6 10 4 129.29 12.8
10 -4 -6 151.48 12.7
-4 6 -10 156.58 10.8
-10 6 4 144.89 12.7
10 4 6 144.49 11.9
-10 -4 6 147.39 11.3
-6 -4 -10 146.89 11.6
-10 4 -6 147.99 10.8
-10 -6 -4 146.39 12
-4 10 6 146.29 12.3
-6 10 -4 157.18 10.7
6 -10 -4 128.09 9.5
-4 6 -10 125.59 12
4 10 -6 145.79 13.3
6 4 -10 155.68 13.8
-4 -10 -6 136.19 11.7
4 -6 -10 124.89 12.1
6 4 -10 131.89 11.7
10 6 -4 161.88 14.8
-4 -10 -6 141.69 10.6
-10 6 -6 109.39 8.3
6 -6 -10 105.99 10.5
-6 -10 -6 97.59 10.2
-6 -6 -10 105.49 10.6
10 -6 -6 95.39 10.4
10 -6 -6 93.89 8.3
-6 -6 -10 101.59 9.8
-6 6 -10 106.09 11.2
6 -6 -10 103.79 10.6
6 6 -10 97.29 11.2
10 6 6 94.49 11.9
6 10 -6 126.69 13
-10 6 -6 97.79 11.1
-10 6 6 124.09 11.2
6 10 6 111.89 11.9
-6 10 -6 108.99 9.6
-6 -10 -6 98.09 9.3
6 6 -10 76.39 12.8
10 6 -6 101.29 13.2
-10 -6 -6 122.99 10.2
6 -10 -6 99.99 8
-6 6 -10 96.19 9.6
-10 -6 -6 106.19 11.1
10 0 -8 151.28 14.2
-10 0 -8 165.18 13.2
0 -10 -8 152.78 14.1
-8 10 0 166.68 12.9
8 10 0 187.88 15.6
0 10 -8 172.98 12.8
0 8 -10 176.48 11.8
0 8 -10 161.18 12.3
8 0 -10 155.58 14.3
10 0 -8 158.78 13.9
-8 -10 0 169.88 10.8
-10 8 0 137.89 13.8
-8 0 -10 171.78 13.6
10 8 0 165.48 15.4
-10 -8 0 155.48 11.8
0 10 -8 177.28 14.3
8 0 -10 157.98 13.1
-8 0 -10 169.28 12.7
0 -8 -10 149.59 12.3
-10 0 -8 159.88 12.6
-10 0 8 151.48 13
0 8 -10 167.68 12.8
8 -2 -10 121.89 11.6
10 2 -8 95.19 14
8 10 -2 129.19 13.7
-8 2 -10 121.39 11.6
-2 10 -8 118.89 9.3
-2 10 -8 155.38 13
2 -10 -8 133.19 11.1
-8 2 -10 146.69 11.2
-10 8 -2 162.08 13
-2 10 -8 112.69 10.3
-2 -8 -10 144.59 11.7
-8 -10 -2 133.99 9.8
-10 -2 -8 121.39 11.6
8 -2 -10 131.89 12.1
-10 2 8 143.49 12.6
-10 -2 -8 146.99 11.6
2 8 -10 119.09 11.9
10 8 2 141.79 14.1
2 -8 -10 135.79 11.5
-8 10 -2 137.89 11.7
-8 -10 2 147.59 9.9
-10 8 2 114.59 12.7
-2 8 -10 145.09 10.8
8 2 -10 132.49 12.8
-10 2 -8 128.39 12.4
-8 -2 -10 147.69 11.6
-2 8 -10 124.99 11
-8 -2 -10 144.29 12.5
-10 -8 -2 124.19 10.7
2 10 -8 120.19 13
-2 -10 -8 156.48 11.1
8 2 -10 112.39 12.9
10 8 -2 125.89 13.3
-2 8 -10 156.38 11.4
8 10 2 141.49 13.1
10 -2 -8 138.69 12.9
-10 2 -8 131.19 11.1
10 -2 -8 108.69 12.1
-10 -2 8 138.19 11.9
-8 -10 -4 118.09 11.8
4 8 -10 133.59 12.7
-8 4 -10 122.69 10.3
-4 10 -8 126.89 11.6
-8 -10 -4 124.09 10.2
-10 8 -4 133.79 12.6
10 4 -8 105.09 13.8
4 -10 -8 126.99 10.4
-8 10 4 112.29 10.9
4 8 -10 130.29 13.1
-4 10 -8 124.49 10.1
-4 -8 -10 136.79 11.5
-10 -8 4 125.49 10.5
10 8 4 151.98 13.7
-10 -4 -8 127.19 11.7
8 10 -4 137.29 13.7
8 -4 -10 129.19 11.2
-10 -4 -8 113.59 11.1
-10 4 8 115.99 12.4
8 -4 -10 120.69 12.4
-4 10 -8 125.49 9.4
-8 4 -10 144.39 12.4
-10 4 -8 132.39 10.5
-4 -10 -8 130.69 11.3
-10 4 -8 107.59 12
-10 8 4 129.19 12.1
-10 -8 -4 127.49 11.8
-8 -4 -10 116.89 11.6
4 10 -8 103.99 13.3
-4 8 -10 117.29 10.6
4 -8 -10 126.59 11
10 8 -4 141.39 13.8
-10 -8 -4 116.69 11.4
-4 -10 -8 123.49 10.7
10 -4 -8 103.89 10.7
-8 10 -4 135.79 11.4
8 4 -10 88.29 13.4
-4 8 -10 131.09 11.8
-8 -4 -10 125.69 11.2
-4 8 -10 131.39 10.7
8 4 -10 125.29 13.2
8 10 4 146.59 13.4
10 -4 -8 127.39 11.3
-6 10 -8 82.49 10.1
-8 -10 -6 78.49 9.2
10 8 6 82.99 12.4
-10 -6 -8 82.89 10.8
-8 -10 -6 87.39 10.4
-6 -8 -10 83.39 10
-10 -6 -8 90.39 9.9
8 -6 -10 83.29 10.3
6 -10 -8 81.39 8.7
-10 8 -6 71.09 11.2
-8 6 -10 73.19 11.9
-8 6 -10 101.79 8.6
8 -6 -10 71.29 9.7
10 6 -8 54.99 8.6
8 10 -6 58.29 8.7
-10 -8 -6 78.09 9.9
6 -8 -10 77.69 9.7
-6 8 -10 94.69 8.7
-10 8 6 81.19 11.4
10 8 -6 72.09 13.6
-8 10 -6 85.99 12.6
-6 8 -10 57.39 7.9
6 10 -8 85.29 13
-10 -8 -6 89.59 10.2
-8 -6 -10 83.19 10.1
8 10 6 77.09 11.6
-6 -10 -8 69.39 10.3
10 -6 -8 76.39 8.8
8 6 -10 69.19 13.1
-10 6 -8 67.39 8.5
-6 -10 -8 79.79 9.8
-8 -6 -10 105.39 10.9
10 0 -10 67.89 11.7
-10 0 -10 69.39 10.3
-10 10 0 50.99 7.3
0 10 -10 70.49 9
10 10 0 88.59 13.2
-10 0 -10 86.29 8.9
0 -10 -10 72.99 9.6
-10 10 -2 77.39 11.7
-10 -2 -10 64.49 10.9
-10 -10 -2 64.09 7.9
2 10 -10 55.89 10.5
10 -2 -10 70.69 10.8
10 2 -10 66.09 11.7
-2 10 -10 75.49 9.1
-10 2 -10 64.99 10.5
-2 10 -10 51.79 6.9
10 10 -2 75.79 13.8
10 10 2 51.79 7.5
2 -10 -10 62.39 9.6
-10 10 2 79.09 11.9
-2 -10 -10 66.69 9.6
-1 -1 -11 14.1 3.6
-11 -1 -1 13.5 3.8
-11 -1 1 11.2 3.1
-11 1 -1 16.3 4.2
-11 1 1 11.9 3.7
1 -11 -1 14.6 2.7
-11 -1 -1 6.6 4.7
-11 1 -1 12.3 4.8
-1 -1 -11 11.7 2.3
-1 -1 11 12.1 4.8
-1 1 -11 10.2 2
-1 1 11 7.2 4
1 -1 -11 8.2 2.4
1 -1 11 6.2 4.1
1 1 -11 11.3 2.4
1 1 11 8 3.5
11 -1 -1 9.7 3.1
11 -1 1 10.5 2.7
11 1 -1 12.6 3.3
11 1 1 9.7 3.1
-1 11 1 10.1 3.6
1 11 1 7.8 4.1
11 -1 -1 8.3 4.3
11 -1 1 16.8 4.4
1 11 -1 12.9 4.7
1 1 -11 8.5 3.5
1 -1 -11 9.5 3.8
-1 11 -1 9 3.7
-11 -3 1 5.2 2.9
11 3 1 -2.6 3.7
3 11 -1 6.4 3.6
-11 -1 -3 3 3.5
-1 11 -3 1.3 3.8
1 -11 -3 7.8 2.8
-11 -1 -3 10 4.7
-1 -3 -11 7.9 3.1
11 -3 -1 3.7 3.3
1 -3 11 9.3 4.6
1 3 -11 3.4 2.3
-11 3 -1 1.8 3.8
3 -1 -11 6.1 2.4
11 -1 3 8.9 2.2
-11 1 3 2.3 3.6
11 1 -3 2.4 3.5
11 -1 3 4.4 4.5
3 -1 -11 7.4 3.1
1 11 3 2.6 4.7
11 -3 -1 8 2.8
-11 -1 -3 4.2 3.3
-11 3 -1 9.5 3.7
-3 1 -11 2.2 3.8
1 -11 -3 4.5 3.6
3 1 11 7.8 3.2
1 3 -11 0.7 3.2
11 -1 -3 11.6 4.8
-3 11 -1 6.5 2.5
3 1 -11 8 3.3
-11 1 -3 -0.1 3.6
11 -3 1 4.3 2.5
3 -11 -1 8.1 3.3
1 -3 -11 7.9 3.2
11 -3 1 2.2 3.6
-11 3 1 11.2 3.3
-1 -11 -3 8 3.2
-1 11 3 1.1 3.8
1 11 -3 6.7 5.4
-11 1 -3 4.1 3.2
-11 1 -3 7.6 4.2
-1 -3 11 5.9 5.5
-1 3 -11 5.4 1.8
1 -3 -11 5 2.2
1 3 11 4.5 4.3
11 -1 -3 6.3 3.1
3 1 -11 7.7 2.7
-3 -1 -11 5.9 2.9
11 1 3 7.9 2.5
-11 -3 -1 13.3 3.2
3 -1 11 8.3 3
-1 -11 -3 8.2 4
-3 -11 -3 3.7 3.5
-3 -3 -11 -6.5 3.2
-11 -3 3 -2 3.4
-11 3 -3 -2.7 3.5
-3 -11 -3 0.6 2
-3 3 -11 2.9 3.7
3 -11 -3 -0.8 4.1
3 3 -11 3.6 3
3 3 11 3.8 3.8
3 11 -3 -2.4 3.9
-3 11 3 -0.4 3.2
-11 -3 -3 -5.2 3.3
-3 -11 -3 1.1 3.4
11 -3 -3 2.8 4.2
11 -3 3 -0.2 4.1
-3 3 -11 3.6 1.6
3 -3 -11 2.3 2.4
3 3 -11 0.4 3.3
3 -3 -11 0.3 3.1
3 -11 -3 -0.4 2.4
11 -3 3 -2.5 2.1
11 3 -3 -1.1 4
11 3 3 -3.8 3.6
-11 3 -3 1.3 3.8
1 -11 -5 12.9 5.6
1 -11 -5 -1.2 3.2
5 11 -1 -4.6 4.1
-5 11 1 -2.8 2.3
-11 -1 -5 -0.7 3.7
5 -11 1 8 3.9
-1 11 -5 3 5.8
-11 -5 1 5 3.1
-5 -11 -1 -3.3 2.7
-11 -1 -5 -1.5 3.9
11 5 1 6.1 3.9
-11 1 5 0.8 4.4
-11 5 -1 -7 4
-1 11 -5 3.9 3.5
-5 1 -11 2.4 3
11 -5 -1 -4.7 2.8
11 -1 5 -0.2 1.9
-5 1 -11 -2.7 3.5
5 -1 -11 -3.1 3
-11 -1 5 -3.1 4.1
-1 5 -11 2 3.1
5 1 -11 -5 3.9
11 -5 1 0.6 2.6
-11 -5 -1 -1.3 3.2
-1 -11 -5 -3.9 3.4
-1 11 5 -2.9 4.9
11 -1 -5 -4 3.8
-5 11 -1 -1.3 2.3
-1 -5 11 2.4 6.6
5 -11 -1 1.6 4.3
-1 5 -11 5 3.3
-5 -1 -11 -0.7 3.6
5 11 1 2.4 4.2
-1 -11 -5 2.9 5
-5 -1 -11 -0.2 3
11 1 5 -0.1 2.2
-1 5 -11 1.4 2.3
-11 1 -5 1.6 3.4
-11 5 1 -0.7 3.7
-11 1 -5 -6.1 4
1 -5 -11 2.1 3.3
1 11 -5 -2 4
11 5 -1 0.4 4.4
5 11 -3 3.8 4.7
-5 -11 -3 1.6 4.2
3 5 -11 -2.2 3.6
-11 5 -3 -5.9 4.2
-11 -3 -5 -3.1 4.1
-11 5 -3 1.3 3.8
11 -3 5 2.4 4.5
-11 -5 3 -6.9 3.6
3 -11 -5 -2.2 3
-5 -11 -3 -0.3 2.2
3 5 -11 1.8 3.7
-3 11 -5 -0.2 2.2
-11 3 5 -6.6 4.5
11 -5 -3 -1 2.4
-11 -3 -5 0 3.9
5 -3 -11 0.8 3
-3 11 -5 6.6 3.6
11 5 3 -1.9 4.1
11 3 -5 -7.4 4.5
11 3 5 -2.5 3.3
-11 -5 -3 -1.5 3.5
11 -3 -5 -5 3.7
5 3 -11 -1.2 4.1
3 -5 -11 2.1 3.2
-3 5 -11 -0.3 1.6
-11 3 -5 -0.4 3.2
-3 5 -11 7 3.8
5 11 3 -0.5 4.4
-3 -11 -5 4.9 5.1
11 5 -3 -3.7 4.4
-5 11 -3 -4 2.6
-11 -5 -3 -0.9 4.3
-5 -3 -11 -4.4 3.5
11 -3 -5 1.7 3.4
11 -3 -5 3 6
-3 11 5 3.1 4.7
-3 -11 -5 -1 3.7
-11 -3 5 -0.9 3.9
-11 3 -5 -1.2 4.5
-11 5 3 -4.9 4.5
-5 -3 -11 -4.7 3.8
3 11 -5 1.1 4.5
3 5 11 3.9 4.8
-3 -11 -5 2.3 2.6
-5 -5 -11 3.2 3.7
5 -11 -5 -3.6 3
5 -5 -11 0.1 3.6
-11 5 5 2.3 4.7
11 -5 -5 0.9 3
5 5 -11 -7.3 4.9
11 5 5 3.8 4.4
5 11 -5 4.3 5.4
-11 5 -5 6.1 4.8
-5 -11 -5 -0.7 3.1
-5 -5 -11 6.3 4.2
5 -5 -11 3.9 3.1
11 5 -5 -6.8 5
-11 -5 -5 -3.9 4.3
-11 5 -5 -1.8 3.1
-11 -5 -5 0.5 4
11 -5 -5 -4.8 3.7
-5 5 -11 -2.8 4.8
-5 -11 -5 -1.8 4.4
5 5 -11 -8.2 4.3
-5 11 -5 1.5 2.8
-11 -1 -7 3.4 4.2
7 -1 -11 10.3 3.8
1 7 -11 -7.2 4
-7 11 1 -5 3.5
11 7 1 -5.6 4.6
7 -1 -11 3.2 4.2
-7 -11 -1 -3.2 2.8
1 7 -11 0 3.8
-1 11 -7 -2.8 3.5
-1 11 -7 2 5.3
1 -11 -7 1.9 3.7
-11 1 7 -5.3 4.7
-11 -7 1 4 3.6
-11 7 -1 9.4 4.9
-7 1 -11 4.5 3.4
-11 -1 -7 -2.6 4
-1 -7 -11 -1.1 3.8
7 11 -1 4.1 5.3
-7 1 -11 -6 4.7
-1 7 -11 3.8 3.8
-11 7 1 -7.7 4.7
7 1 -11 8.5 4.5
-1 -11 -7 7 3.9
-1 7 -11 2.4 3.9
-11 -7 -1 -2.8 3.6
-1 7 -11 -3 3.2
-11 -1 7 -2.5 4.7
-11 1 -7 0.3 4
11 -1 -7 -4.9 4
7 1 -11 -6.7 4
1 -7 -11 -3 4.1
-7 11 -1 -0.6 3.7
11 -1 -7 -4.6 4.3
-7 -1 -11 -3.9 4.2
1 11 -7 1.6 4.6
11 7 -1 -1.7 4.8
-7 -1 -11 5.2 3.8
7 11 1 -9.1 5
-11 1 -7 -3.2 4.5
-7 11 3 -1.5 3.8
-7 -11 -3 -0.3 3
7 -3 -11 -0.6 3.8
-11 -3 -7 5.5 4.3
-3 -7 -11 -1.2 4.2
11 7 3 4 4.7
-11 -7 3 -5.1 4
3 7 -11 -1.8 4.4
-3 11 -7 4.7 4.3
3 7 -11 -3.3 4.3
7 11 -3 -6.4 5.5
-11 -3 -7 -8.4 4.2
-7 3 -11 4.5 3.9
3 -11 -7 0.9 3.3
-11 3 7 -3.8 5.1
-7 3 -11 -8.5 4.6
-7 -11 -3 -9.6 4.9
11 -7 -3 1.6 3.9
11 7 -3 5.8 5.1
-3 7 -11 -3.4 3
3 -7 -11 2.5 4.1
-3 -11 -7 8.3 3.4
-3 7 -11 -3.7 3.6
3 11 -7 0.6 5.2
-11 -7 -3 -7.1 4.7
-11 -3 7 -0.2 4.4
7 3 -11 -4.5 4.6
-3 7 -11 -1.2 4.6
-11 3 -7 -4.5 3.8
11 -3 -7 -2.4 4.4
-7 -3 -11 -3.8 3.9
-7 11 -3 -3.9 3.7
-11 7 3 -9.8 5.1
7 11 3 -1.6 4.7
-11 3 -7 -0.3 5
7 3 -11 -6.8 5.4
11 -3 -7 2.2 4.3
7 -5 -11 2.7 4.3
-7 5 -11 4.6 8.1
-11 -5 -7 6.3 4.9
-7 -11 -5 5.5 5.1
11 -7 -5 -4.5 4.1
-7 5 -11 -4.1 5.4
-11 5 7 1.4 5.3
-11 -7 5 -3 4.3
-11 -5 -7 -3.9 4.8
-11 7 -5 6.2 5.6
5 7 -11 -2.4 5.1
5 -11 -7 4.5 4.3
-5 11 -7 0.3 4.2
-5 -7 -11 13.6 5
7 11 -5 2.3 5.9
-5 -7 -11 0.8 4.5
11 5 -7 -10.2 5.7
5 7 -11 4.8 5.4
-7 -11 -5 0.3 3.7
-5 11 -7 1.3 4.6
7 -5 -11 4.9 4.6
-7 -5 -11 -4 4.7
11 -5 -7 -5.7 3.8
-11 5 -7 -6.8 5.4
-5 -11 -7 -2.6 4.9
-11 -7 -5 -0.7 4.2
5 11 -7 -1.6 5.4
5 -7 -11 7.5 4.3
-7 11 -5 11.9 4.3
-5 7 -11 -2.9 5.4
-5 -11 -7 -1.6 4
7 5 -11 1.6 5.6
-11 5 -7 -2.1 3.8
-11 7 5 4.8 5.6
-7 -5 -11 6.8 4.2
11 7 -5 1.6 5.7
-11 -5 7 -3.7 4.8
7 5 -11 -7.5 5.2
7 11 5 2.4 5.2
-11 -7 -5 12.4 5.1
-1 11 -9 -3.2 5
9 11 -1 7.3 6.6
-9 11 1 -4.9 5
11 1 -9 -7 5.3
-11 -9 1 4.3 4.3
-11 -1 -9 8.1 4.8
1 9 -11 4.9 4.5
1 9 -11 -1.9 4.8
9 -1 -11 2 4.8
11 9 1 0.6 5.8
-1 -9 -11 -3.9 4.6
11 1 -9 -5.2 5.8
9 -1 -11 3.6 5.6
-1 11 -9 6.9 5
1 -11 -9 5 4.4
-11 9 -1 -9.5 5.9
-11 -1 -9 -3.6 5.3
-9 1 -11 -2.5 4.6
-1 -11 -9 8.2 4.4
9 11 1 8.6 6.4
11 -1 -9 9.4 5.3
-9 -1 -11 5.5 4.6
11 9 -1 -2.5 5.9
-1 9 -11 1.7 4.2
-11 1 -9 -9.1 5.5
1 -9 -11 4.6 4.5
9 1 -11 2.6 4.8
11 -1 -9 -11.3 5.9
1 11 -9 8 5.2
-9 11 -1 -2.6 5.1
-11 -9 -1 4.8 4.1
-1 9 -11 -3.2 4.3
1 11 -9 7.3 5.1
-11 9 1 -1.2 6.1
-9 -1 -11 2.6 4.9
9 1 -11 -2.8 6
-11 1 -9 4.1 4.7
-12 0 0 414.66 26.2
0 12 0 351.96 24.9
12 0 0 415.86 26
0 0 -12 445.66 26
0 0 12 411.36 26.8
0 0 -12 438.46 24.3
-12 0 -2 338.57 21.6
-12 2 0 311.57 21.6
0 -2 12 331.67 24.2
0 2 -12 349.47 19.9
0 2 12 300.77 22.3
12 0 -2 275.67 27.3
12 -2 0 339.57 21.2
12 0 2 325.17 20.9
-12 0 2 329.57 21.6
0 2 -12 362.06 21.5
-2 0 -12 335.87 21.1
-12 -2 0 322.77 21.4
12 -2 0 309.27 21.5
-12 0 -2 303.97 23.2
-2 12 0 322.67 20.1
0 -2 -12 341.17 21.2
2 0 -12 343.47 20.6
0 12 -2 301.07 21.6
0 12 2 314.77 22.1
2 0 -12 350.86 21.6
12 2 0 376.76 23.3
-12 2 -2 309.47 19.7
2 2 -12 290.27 18
2 2 -12 248.18 17.9
-12 -2 2 281.57 18.4
12 -2 2 270.17 19
-12 2 -2 238.08 20.3
2 -2 -12 277.87 17.7
12 2 -2 273.47 19.9
-12 -2 -2 278.37 18.2
12 -2 2 278.17 17.6
12 -2 -2 253.17 18.9
2 12 -2 278.37 20.1
12 -2 -2 250.77 22.1
-2 12 2 271.67 17.7
-2 2 -12 256.77 15.6
12 2 2 278.27 19.2
-2 -2 -12 281.87 17.9
2 -2 -12 276.87 18.7
-2 2 -12 268.17 17.8
-2 -12 -2 251.87 15.3
-12 2 2 286.87 18.7
0 -12 -4 281.57 19.2
12 -4 0 310.97 19.5
-12 -4 0 286.67 19
-4 0 -12 271.27 19.1
4 0 -12 273.07 23.2
-12 4 0 289.27 19.8
12 0 -4 295.57 20.7
12 0 4 270.37 17.6
-12 0 -4 282.17 20
-12 0 4 278.17 20.2
-12 0 -4 311.27 19.6
12 4 0 297.77 22
0 4 -12 275.77 18.9
4 0 -12 277.57 19.4
-4 0 -12 289.67 19.5
0 4 -12 287.07 17.8
0 -4 -12 277.47 19
0 12 -4 285.17 20.5
0 12 -4 277.27 21.7
4 12 0 296.77 21.1
12 -2 4 211.68 15
-12 -2 -4 234.58 17.5
-4 2 -12 245.28 17.2
2 -12 -4 245.78 15.7
2 4 -12 268.57 17.8
-4 2 -12 218.18 16.1
4 12 -2 251.07 18.5
-12 4 -2 245.08 17.8
-12 -2 -4 204.48 16.6
4 -2 -12 222.18 16.6
12 -4 -2 267.07 17.5
-12 2 4 245.28 17.4
12 4 2 238.78 18.8
2 4 -12 242.18 16.8
4 -2 -12 223.28 17
-12 4 -2 239.08 18.5
12 2 -4 247.78 19.3
-2 -4 -12 204.18 15.9
-12 -4 2 287.87 17.1
-12 2 -4 249.18 17.4
12 -4 2 259.37 16.3
-4 -2 -12 220.18 16
12 -2 -4 231.78 17.7
-2 4 -12 255.27 16.8
12 2 4 239.68 16.4
-4 -2 -12 217.68 16.7
4 2 -12 239.28 17.3
2 12 -4 264.97 18.7
-12 -2 4 251.07 17.7
-2 4 -12 255.37 16.9
2 -4 -12 227.68 16.4
-2 4 -12 216.48 14
-12 -4 -2 257.47 17.1
4 2 -12 244.08 22.5
-12 4 2 252.47 17.6
-2 -12 -4 247.38 17
12 4 -2 240.08 20.5
-2 -12 -4 227.38 14.3
-4 -12 -4 204.08 15.3
-4 -4 -12 184.48 14.1
-12 4 -4 187.48 14.8
-4 4 -12 207.68 15.2
12 -4 -4 185.58 13.4
4 12 -4 202.28 17.3
4 4 -12 181.08 16
-4 4 -12 188.58 14
4 -4 -12 198.38 14.5
-12 -4 -4 182.48 15.4
-12 -4 -4 189.38 14.6
-12 -4 4 200.08 15.2
-12 4 4 182.08 15.6
-4 -12 -4 183.98 12.3
4 -4 -12 210.98 14.7
12 -4 -4 219.58 15.8
12 4 -4 184.78 18.1
12 4 4 199.48 16.1
-4 -4 -12 205.88 15.1
4 4 -12 203.18 15.3
-12 0 -6 144.49 14.7
-12 -6 0 164.88 13.3
-12 0 6 186.28 14.6
-12 0 -6 184.68 14
0 -12 -6 167.38 13.3
-12 6 0 157.68 14.5
6 0 -12 176.38 13.8
12 6 0 185.18 16.4
-6 0 -12 159.48 13
-6 0 -12 179.18 14.1
0 -6 -12 150.28 13.4
0 6 -12 170.88 13.5
-6 12 0 174.48 11.9
6 12 0 170.38 15.8
0 6 -12 163.78 13
0 6 -12 171.38 13.1
0 12 -6 174.88 15.2
6 0 -12 175.88 13.5
12 0 -6 146.39 15.8
-12 -2 -6 157.68 13.1
2 6 -12 131.29 13.1
6 12 -2 163.48 14.8
-2 -6 -12 155.68 12.8
12 6 2 162.88 14.3
-12 6 -2 147.19 13.7
6 -2 -12 134.69 12.6
-6 2 -12 137.59 12.9
-2 12 -6 150.28 13.6
2 6 -12 131.69 12.7
2 -12 -6 138.29 11.9
-6 2 -12 141.39 11.9
6 -2 -12 127.29 12.9
-2 12 -6 144.69 10.6
12 2 -6 104.49 15.4
12 -6 -2 173.88 13.1
-12 -6 2 177.98 12.4
-12 -2 -6 133.79 12.3
-2 -12 -6 159.38 12.6
2 -6 -12 146.79 12.5
-2 6 -12 139.59 12
-12 -2 6 159.08 13.3
12 -2 -6 137.09 13.4
-12 2 -6 151.98 13.3
-6 12 -2 137.09 10.7
6 2 -12 143.59 13
-6 -2 -12 162.98 13.1
-12 2 -6 128.59 12.2
6 2 -12 135.59 13.8
6 12 2 132.29 15
-6 -2 -12 149.09 12
-2 6 -12 154.18 12
2 12 -6 149.29 14.7
-12 6 2 121.39 13.6
12 6 -2 133.59 15.1
-2 6 -12 129.79 12.3
-2 -12 -6 154.08 10.9
-12 -6 -2 158.88 12.2
6 -4 -12 101.89 11.4
-6 -12 -4 134.09 13
-12 4 6 115.99 12.5
-12 -4 -6 143.39 12
6 12 -4 105.59 15.1
4 6 -12 117.99 12
-4 -6 -12 131.79 11.8
6 -4 -12 118.39 11.9
-12 -6 4 131.49 11.9
-12 6 -4 118.99 13.2
12 4 -6 101.29 13.9
-12 -4 -6 124.99 12.8
-6 4 -12 119.79 13.1
-4 12 -6 138.39 14.1
-4 -6 -12 118.69 11.4
4 6 -12 117.49 13.6
12 -6 -4 97.69 12.5
-4 6 -12 115.79 10.7
-12 -6 -4 119.09 13.1
6 12 4 88.39 14.2
12 -4 -6 130.39 13.2
12 6 -4 111.29 15.3
-12 -4 6 120.49 12.2
-12 4 -6 105.69 12.7
-6 -4 -12 120.09 12.2
-6 -4 -12 141.39 11.9
-12 -6 -4 126.79 11.8
-4 -12 -6 117.39 11.8
4 -6 -12 136.99 11.4
-6 12 -4 100.89 12.2
-4 6 -12 93.99 12.6
12 -4 -6 131.89 11
-4 -12 -6 119.99 10.1
4 12 -6 119.49 14.7
6 4 -12 101.09 13.8
6 4 -12 97.79 12.1
-12 6 4 109.59 13.6
-12 4 -6 120.09 10.7
-13 -1 -1 62.19 8.7
13 1 1 37.8 5.8
13 1 -1 29.7 5.4
-1 1 -13 45.1 5.6
1 -1 -13 50.29 7.2
1 1 -13 54.49 8.3
13 -1 -1 39.1 5.8
13 -1 1 54.59 8.5
-1 1 -13 57.39 7.5
1 -1 -13 46.6 6.1
-1 -1 -13 46.4 7.1
-13 1 -1 35.4 5.9
-13 -1 1 57.49 9
13 3 1 22.1 5.5
-13 -1 -3 39.6 5.7
13 1 -3 28.4 5.1
-13 1 3 33.9 5.6
13 -3 -1 28.3 4.6
1 3 -13 28 4.9
3 13 -1 12 5.3
-13 3 -1 24.5 5.2
13 -1 3 45.7 7.5
3 -1 -13 20.8 4.1
-3 1 -13 25.7 4.5
-13 3 1 39.2 5.6
3 1 -13 44.7 7.4
-13 -1 3 30.8 5.6
1 -3 -13 32.8 5.1
13 -3 1 23.2 4.6
13 3 -1 12 5.2
-1 3 -13 23.5 5
13 1 3 24.2 4.2
13 -1 -3 15.9 4.9
-13 1 -3 30.9 5.4
-3 -1 -13 33.4 5.2
-13 -3 -1 38.5 5.3
1 13 -3 19.2 5.4
-13 3 -3 30.7 5.4
-3 -3 -13 11.7 4.4
-3 3 -13 24.6 4.4
-3 -13 -3 27.2 5.9
3 3 -13 12.2 4.8
13 3 -3 9.3 5.3
13 3 3 18.5 5
13 -3 -3 31.5 5.1
3 3 -13 24.4 5.5
-13 3 3 25.4 5.9
-3 3 -13 31.9 5.3
-13 -3 -3 21.8 5.1
-13 -3 3 18.2 5.1
3 -3 -13 24.8 5
13 -3 3 15.9 4
3 -3 -13 22.7 4.2
-13 1 5 12.4 5.9
5 -1 -13 17.9 4.8
5 13 -1 6.5 5.3
13 -5 -1 15.8 4.6
-13 -5 1 25.1 5
13 5 1 1.8 5.8
-13 -1 -5 13.2 5
1 5 -13 10.2 3.9
5 -1 -13 15.7 4.3
-1 13 -5 18.2 5.5
1 5 -13 5.3 4.7
-5 1 -13 15.7 4.8
-5 1 -13 11.8 4.4
-13 -1 -5 14.3 5.4
-13 5 -1 19.8 5.5
1 -13 -5 5.1 4.8
-1 -13 -5 14.9 5.1
-13 -1 5 12.2 5.7
1 13 -5 15.5 5.6
1 -5 -13 23.1 5
-13 1 -5 16.3 9.2
-5 -1 -13 14 4.7
-13 1 -5 20.6 5.5
5 1 -13 18.9 4.6
-13 -5 -1 16 4.6
13 -5 1 14.1 4
-13 5 1 24.6 5.4
-5 -1 -13 8 5.7
-1 5 -13 25.2 4.9
5 13 1 21.6 5.9
13 -1 -5 6.4 4.9
-1 5 -13 18.1 4.5
13 5 -1 5.7 6
13 5 3 10 5.8
3 5 -13 7.7 4.5
5 -3 -13 7.3 5.3
-13 -3 -5 12.6 5.5
-3 -5 -13 7.2 5.1
5 13 -3 19.6 6.4
-13 5 -3 9.5 5.8
3 5 -13 8.6 5.4
-13 3 5 11.6 6.4
-13 -3 -5 8.5 5.4
-3 13 -5 18.3 5.2
-5 3 -13 9.5 5.4
-5 3 -13 2.9 4.7
13 3 -5 1.9 6.1
13 -5 -3 8.9 5
5 -3 -13 12.5 4.1
-13 -5 3 16.3 5.3
13 -3 -5 17.5 5.2
-3 5 -13 16.3 4.3
3 13 -5 13.2 5.9
3 -5 -13 18.4 4.7
-13 -3 5 16.4 5.5
-3 5 -13 17 5.4
13 5 -3 -3 6.1
-5 -3 -13 12.2 4.7
13 -3 -5 11.8 5.3
-3 -13 -5 21.9 5.5
5 3 -13 3.1 4.8
5 3 -13 -2.7 5.4
-13 -5 -3 13.4 5
-13 3 -5 16.3 5.9
5 13 3 7.8 6.3
-13 5 3 8.2 6
-5 -3 -13 13.1 5.8
-14 0 0 90.49 11.1
0 0 -14 80.49 8.2
14 0 0 66.89 11.8
0 0 -14 109.79 10.1
-14 -2 0 78.59 10.4
14 0 2 69.69 10.5
-14 0 -2 64.39 7.7
0 2 -14 72.59 8.2
2 0 -14 54.99 7.7
14 -2 0 84.49 11
14 2 0 51.69 7.5
-2 0 -14 73.19 8.9
0 2 -14 74.99 9.9
14 0 -2 51.99 7.4
14 2 2 47.4 7.9
14 2 -2 40.6 7.8
2 14 -2 49.1 6.9
-2 -2 -14 62.39 9.8
-2 2 -14 68.09 8.9
2 -2 -14 69.99 8.9
2 2 -14 46.4 6.9
14 -2 -2 79.39 11.9
14 -2 2 70.69 9.8
2 -2 -14 71.99 8.6
2 2 -14 61.59 10.5
-14 -2 -2 70.19 11
-14 -2 2 83.49 10.4
-14 2 -2 49.7 7.1
-14 2 2 57.29 7.8
-2 2 -14 72.69 10.7
