#------------------------------------------------------------------------------
#$Date: 2019-11-25 23:01:00 +0200 (Mon, 25 Nov 2019) $
#$Revision: 242010 $
#$URL: file:///home/coder/svn-repositories/cod/cif/4/13/19/4131929.cif $
#------------------------------------------------------------------------------
#
# This file is available in the Crystallography Open Database (COD),
# http://www.crystallography.net/
#
# All data on this site have been placed in the public domain by the
# contributors.
#
data_4131929
loop_
_publ_author_name
'Wurzenberger, Maximilian H. H.'
'Szimhardt, Norbert'
'Stierstorfer, J\"org'
_publ_section_title
;
 Copper(II) Chlorate Complexes: The Renaissance of a Forgotten and
 Misjudged Energetic Anion.
;
_journal_issue                   9
_journal_name_full               'Journal of the American Chemical Society'
_journal_page_first              3206
_journal_page_last               3209
_journal_paper_doi               10.1021/jacs.7b13230
_journal_volume                  140
_journal_year                    2018
_chemical_formula_moiety         'C10 H16 Cl2 Cu N16 O6'
_chemical_formula_sum            'C10 H16 Cl2 Cu N16 O6'
_chemical_formula_weight         590.83
_chemical_name_common
' dichlorato bis(1,2-ditetrazolyl)propane copper(II)'
_chemical_name_systematic
;
 dichlorato bis(1,2-ditetrazolyl)propane copper(II)
;
_space_group_IT_number           2
_space_group_name_Hall           '-P 1'
_space_group_name_H-M_alt        'P -1'
_symmetry_cell_setting           triclinic
_symmetry_Int_Tables_number      2
_symmetry_space_group_name_Hall  '-P 1'
_symmetry_space_group_name_H-M   'P -1'
_atom_sites_solution_hydrogens   geom
_audit_creation_date
;
'Wed Apr 26 16:46:18 2017'
;
_audit_creation_method           SHELXL-2013
_audit_update_record             05.07.2017
_cell_angle_alpha                108.068(11)
_cell_angle_beta                 101.188(10)
_cell_angle_gamma                90.137(10)
_cell_formula_units_Z            1
_cell_length_a                   6.7837(8)
_cell_length_b                   8.1820(10)
_cell_length_c                   10.1959(12)
_cell_measurement_reflns_used    598
_cell_measurement_temperature    173(2)
_cell_measurement_theta_max      22.7160
_cell_measurement_theta_min      4.5480
_cell_volume                     526.60(12)
_computing_cell_refinement
;
CrysAlisPro, Agilent Technologies,
Version 1.171.37.33 (release 27-03-2014 CrysAlis171 .NET)
(compiled Mar 27 2014,17:12:48)
;
_computing_data_collection
;
CrysAlisPro, Agilent Technologies,
Version 1.171.37.33 (release 27-03-2014 CrysAlis171 .NET)
(compiled Mar 27 2014,17:12:48)
;
_computing_data_reduction
;
CrysAlisPro, Agilent Technologies,
Version 1.171.37.33 (release 27-03-2014 CrysAlis171 .NET)
(compiled Mar 27 2014,17:12:48)
;
_computing_structure_refinement  'SHELXL-2013 (Sheldrick, 2013)'
_diffrn_ambient_temperature      173(2)
_diffrn_detector                 'CCD plate'
_diffrn_detector_area_resol_mean 15.9809
_diffrn_detector_type            Sapphire3
_diffrn_measured_fraction_theta_full 0.775
_diffrn_measured_fraction_theta_max 0.777
_diffrn_measurement_details
;
#__ type_ start__ end____ width___ exp.time_
  1 omega  -81.00   12.00   1.0000   35.0000
omega____ theta____ kappa____ phi______ frames
    -      -11.5028  -57.0000  150.0000 93

#__ type_ start__ end____ width___ exp.time_
  2 omega  -34.00   56.00   1.0000   35.0000
omega____ theta____ kappa____ phi______ frames
    -      -11.5028   57.0000  -60.0000 90

#__ type_ start__ end____ width___ exp.time_
  3 omega  -17.00   72.00   1.0000   35.0000
omega____ theta____ kappa____ phi______ frames
    -       12.5965   77.0000   60.0000 89

;
_diffrn_measurement_device       'four-circle diffractometer'
_diffrn_measurement_device_type  'Xcalibur, Sapphire3'
_diffrn_measurement_method       '\w scans'
_diffrn_orient_matrix_UB_11      -0.0811162000
_diffrn_orient_matrix_UB_12      0.0302359000
_diffrn_orient_matrix_UB_13      0.0336672000
_diffrn_orient_matrix_UB_21      0.0652217000
_diffrn_orient_matrix_UB_22      0.0674580000
_diffrn_orient_matrix_UB_23      0.0511485000
_diffrn_orient_matrix_UB_31      -0.0240428000
_diffrn_orient_matrix_UB_32      0.0537382000
_diffrn_orient_matrix_UB_33      -0.0428907000
_diffrn_radiation_monochromator  graphite
_diffrn_radiation_probe          x-ray
_diffrn_radiation_type           MoK\a
_diffrn_radiation_wavelength     0.71073
_diffrn_reflns_av_R_equivalents  0.0388
_diffrn_reflns_av_sigmaI/netI    0.0975
_diffrn_reflns_av_unetI/netI     0.1129
_diffrn_reflns_Laue_measured_fraction_full 0.775
_diffrn_reflns_Laue_measured_fraction_max 0.777
_diffrn_reflns_limit_h_max       7
_diffrn_reflns_limit_h_min       -7
_diffrn_reflns_limit_k_max       6
_diffrn_reflns_limit_k_min       -9
_diffrn_reflns_limit_l_max       10
_diffrn_reflns_limit_l_min       -10
_diffrn_reflns_number            2222
_diffrn_reflns_point_group_measured_fraction_full 0.775
_diffrn_reflns_point_group_measured_fraction_max 0.777
_diffrn_reflns_theta_full        25.242
_diffrn_reflns_theta_max         25.219
_diffrn_reflns_theta_min         4.171
_diffrn_source                   'Enhance (Mo) X-ray Source'
_exptl_absorpt_coefficient_mu    1.361
_exptl_absorpt_correction_T_max  1.00000
_exptl_absorpt_correction_T_min  0.93606
_exptl_absorpt_correction_type   multi-scan
_exptl_absorpt_process_details
;
CrysAlisPro, Agilent Technologies,
Version 1.171.37.33 (release 27-03-2014 CrysAlis171 .NET)
(compiled Mar 27 2014,17:12:48)
Empirical absorption correction using spherical harmonics,
 implemented in SCALE3 ABSPACK scaling algorithm.
;
_exptl_crystal_colour            blue
_exptl_crystal_density_diffrn    1.863
_exptl_crystal_description       block
_exptl_crystal_F_000             299
_exptl_crystal_size_max          0.130
_exptl_crystal_size_mid          0.090
_exptl_crystal_size_min          0.040
_refine_diff_density_max         0.380
_refine_diff_density_min         -0.493
_refine_diff_density_rms         0.084
_refine_ls_extinction_method     none
_refine_ls_goodness_of_fit_ref   0.889
_refine_ls_hydrogen_treatment    constr
_refine_ls_matrix_type           full
_refine_ls_number_parameters     160
_refine_ls_number_reflns         1471
_refine_ls_number_restraints     0
_refine_ls_restrained_S_all      0.889
_refine_ls_R_factor_all          0.0831
_refine_ls_R_factor_gt           0.0439
_refine_ls_shift/su_max          0.000
_refine_ls_shift/su_mean         0.000
_refine_ls_structure_factor_coef Fsqd
_refine_ls_weighting_details
'w=1/[\s^2^(Fo^2^)+(0.0073P)^2^] where P=(Fo^2^+2Fc^2^)/3'
_refine_ls_weighting_scheme      calc
_refine_ls_wR_factor_gt          0.0577
_refine_ls_wR_factor_ref         0.0658
_reflns_Friedel_coverage         0.000
_reflns_number_gt                987
_reflns_number_total             1471
_reflns_threshold_expression     'I > 2\s(I)'
_cod_data_source_file            ja7b13230_si_002.cif
_cod_data_source_block           mx192
_cod_original_cell_volume        526.60(11)
_cod_database_code               4131929
_shelx_space_group_comment
;
The symmetry employed for this shelxl refinement is uniquely defined
by the following loop, which should always be used as a source of
symmetry information in preference to the above space-group names.
They are only intended as comments.
;
_shelx_estimated_absorpt_t_min   0.843
_shelx_estimated_absorpt_t_max   0.948
_shelxl_version_number           2013-4
_shelx_res_file
;
TITL v1 in P-1
CELL  0.71073   6.7837   8.1820  10.1959  108.068  101.188   90.137
ZERR     1.00   0.0008   0.0010   0.0012    0.011    0.010    0.010
LATT   1
SFAC  C    CL   CU   N    O    H
UNIT  10   2    1    16   6    16
MERG   2
OMIT    -2.00  52.00
FMAP   2
PLAN   20
SIZE     0.040   0.090   0.130
ACTA
BOND   $H
CONF
L.S.   5
TEMP  -100.00
WGHT    0.007300
FVAR       0.41778
CU1   3    0.500000    0.000000    0.500000    10.50000    0.01774    0.02713 =
         0.01889    0.01034    0.00132   -0.00161
CL1   2    0.167774    0.336324    0.593738    11.00000    0.01950    0.03476 =
         0.03456    0.01557    0.00917    0.00531
O1    5    0.204558    0.163016    0.502003    11.00000    0.01610    0.02594 =
         0.02882    0.00216    0.00100    0.00033
O2    5    0.295529    0.465919    0.569827    11.00000    0.04264    0.03331 =
         0.05295    0.02664    0.01224    0.00048
O3    5    0.233433    0.340665    0.741845    11.00000    0.04539    0.04527 =
         0.02707    0.01553    0.01683    0.00591
N1    4    0.785860    0.446741    0.782722    11.00000    0.01216    0.02796 =
         0.01589    0.00762    0.00073   -0.00102
N2    4    0.794963    0.351608    0.870083    11.00000    0.02275    0.02747 =
         0.02607    0.01309    0.00044   -0.00002
N3    4    0.719394    0.199045    0.792258    11.00000    0.02268    0.03113 =
         0.02370    0.01031   -0.00007   -0.00088
N4    4    0.663151    0.194756    0.655158    11.00000    0.01082    0.02577 =
         0.01790    0.00911    0.00391    0.00361
N5    4    0.738445    0.132436    0.194451    11.00000    0.02538    0.03266 =
         0.03316    0.01458    0.01274    0.00680
N6    4    0.551489    0.189108    0.185869    11.00000    0.02504    0.02316 =
         0.01787    0.00843    0.00544   -0.00083
N7    4    0.458617    0.167949    0.281300    11.00000    0.02711    0.03011 =
         0.02409    0.01393    0.01124   -0.00109
N8    4    0.586583    0.091461    0.355880    11.00000    0.02103    0.01946 =
         0.01554    0.00868   -0.00097   -0.00306
C1    1    0.706270    0.351414    0.654189    11.00000    0.01142    0.02784 =
         0.01940    0.01277    0.00434    0.00524
AFIX  43
H1    6    0.683304    0.388832    0.573448    11.00000   -1.20000
AFIX   0
C2    1    0.863879    0.627770    0.833683    11.00000    0.02007    0.02239 =
         0.02997    0.00812   -0.00061   -0.00114
AFIX  23
H2A   6    0.840874    0.675291    0.754138    11.00000   -1.20000
H2B   6    1.010894    0.634543    0.870484    11.00000   -1.20000
AFIX   0
C3    1    0.763029    0.734828    0.948602    11.00000    0.02461    0.03188 =
         0.02360    0.01213    0.00265   -0.00018
AFIX  23
H3A   6    0.810627    0.856920    0.971899    11.00000   -1.20000
H3B   6    0.809595    0.700390    1.033831    11.00000   -1.20000
AFIX   0
C4    1    0.465218    0.276194    0.082719    11.00000    0.02999    0.03683 =
         0.02501    0.01676    0.00825   -0.00068
AFIX  23
H4A   6    0.512370    0.223249   -0.006118    11.00000   -1.20000
H4B   6    0.515318    0.398943    0.119747    11.00000   -1.20000
AFIX   0
C5    1    0.752092    0.072540    0.302068    11.00000    0.01402    0.03004 =
         0.02531    0.01222    0.00291   -0.00145
AFIX  43
H5    6    0.867586    0.021475    0.337243    11.00000   -1.20000
AFIX   0
HKLF    4

REM  v1 in P-1
REM R1 =  0.0439 for     987 Fo > 4sig(Fo)  and  0.0831 for all    1471 data
REM    160 parameters refined using      0 restraints

END

WGHT      0.0073      0.0000

REM Highest difference peak  0.380,  deepest hole -0.493,  1-sigma level  0.084
Q1    1   0.8287  0.1000  0.7870  11.00000  0.05    0.37
Q2    1   0.6324  0.0957  0.6002  11.00000  0.05    0.35
Q3    1   0.4997  0.0251  0.3748  11.00000  0.05    0.34
Q4    1   0.1422  0.4587  0.5650  11.00000  0.05    0.33
Q5    1   0.2715  0.6173  0.6192  11.00000  0.05    0.31
Q6    1   0.6180  0.5178  0.7036  11.00000  0.05    0.30
Q7    1   0.1222  0.0466  0.5051  11.00000  0.05    0.30
Q8    1   0.2739  0.3423  0.8325  11.00000  0.05    0.28
Q9    1   0.6331  0.3713  0.7080  11.00000  0.05    0.27
Q10   1   0.4759  0.1452  0.5163  11.00000  0.05    0.27
Q11   1   0.1882  0.0412  0.3235  11.00000  0.05    0.26
Q12   1   0.3287  0.3239  0.7133  11.00000  0.05    0.26
Q13   1   0.7339 -0.0056  0.1951  11.00000  0.05    0.26
Q14   1   0.6130  0.2332  0.6379  11.00000  0.05    0.26
Q15   1   0.7908 -0.0863  0.3479  11.00000  0.05    0.25
Q16   1   0.2083  0.4841  0.7673  11.00000  0.05    0.25
Q17   1   0.8314  0.2458  0.2954  11.00000  0.05    0.25
Q18   1   0.1489  0.6166  0.6166  11.00000  0.05    0.24
Q19   1   0.7265  0.2348  0.6621  11.00000  0.05    0.24
Q20   1   0.2088  0.5903  0.7068  11.00000  0.05    0.24
;
_shelx_res_checksum              83834
_shelx_hkl_file
;
  -7  -1   1  188.20   19.48
  -7  -1   2   84.46   13.33
  -7  -1   3   -2.05    6.62
  -7  -1   4    4.20    6.27
  -7  -1   5    9.16    7.46
  -7   0   0    3.50    6.87
  -7   0   1   16.08    8.61
  -7   0   2   15.68    7.79
  -7   0   3   -1.39    5.94
  -7   0   4    2.86    5.88
  -7   0   5   55.11   11.18
  -7   1  -1    1.85    5.61
  -7   1   0    4.37    5.42
  -7   1   1   27.95    8.69
  -7   1   2  106.73   14.16
  -7   1   3   46.92   10.08
  -7   1   4   14.82    7.02
  -7   1   5   31.48    8.91
  -7   1   6   29.40    8.77
  -7   2  -2   58.66   11.12
  -7   2  -1   27.03    8.22
  -7   2   0   14.60    7.15
  -7   2   1   25.93    8.22
  -7   2   2    3.18    5.80
  -7   2   3   -2.72    5.36
  -7   2   4    4.64    5.50
  -7   2   5    6.21    5.94
  -7   2   6   -1.97    4.98
  -7   3  -2   15.61    7.01
  -7   3  -1    5.88    5.52
  -7   3   0    4.52    5.06
  -7   3   1   20.92    7.40
  -7   3   2    4.04    5.10
  -7   3   3    8.35    5.92
  -7   4  -3    1.74    4.27
  -7   4  -2   -1.20    4.24
  -7   4  -1    3.08    4.52
  -6  -5   1   28.58    8.76
  -6  -5   2    2.82    5.59
  -6  -5   3    1.88    5.74
  -6  -5   4    6.19    6.85
  -6  -4   0   17.52    7.84
  -6  -4   1    7.31    5.94
  -6  -4   2   17.40    7.86
  -6  -4   3   99.48   14.09
  -6  -4   4   37.64    9.32
  -6  -4   5   50.27   11.06
  -6  -4   6   64.55   11.92
  -6  -3  -1    5.87    5.81
  -6  -3   0  126.33   15.19
  -6  -3   1   84.66   12.92
  -6  -3   2   42.49   10.06
  -6  -3   3   72.25   11.63
  -6  -3   4   20.04    8.53
  -6  -3   5   37.86   10.03
  -6  -3   6    2.20    6.95
  -6  -3   7    9.43    7.81
  -6  -2  -2   47.06   10.26
  -6  -2  -1    7.24    6.43
  -6  -2   0    3.94    5.42
  -6  -2   1    9.61    6.27
  -6  -2   2   13.19    7.64
  -6  -2   2   -5.53    6.43
  -6  -2   3   29.68    9.14
  -6  -2   4   11.52    7.58
  -6  -2   5    9.11    7.69
  -6  -2   6    8.80    7.53
  -6  -2   7   79.15   12.89
  -6  -1  -3    2.09    5.53
  -6  -1  -2    0.28    5.71
  -6  -1  -1   17.43    7.34
  -6  -1   0    5.05    6.22
  -6  -1   1   29.76    8.75
  -6  -1   2  111.45   13.48
  -6  -1   3  106.54   13.55
  -6  -1   4   62.00   11.04
  -6  -1   5  122.12   14.57
  -6  -1   6   -2.17    6.09
  -6  -1   7   -0.39    6.68
  -6   0  -3   18.56    7.47
  -6   0  -2   56.02   10.91
  -6   0  -1   73.95   11.47
  -6   0   0   46.04    9.53
  -6   0   1  111.96   13.80
  -6   0   2  140.27   14.46
  -6   0   3    0.55    5.46
  -6   0   4   28.07    8.59
  -6   0   5    4.78    6.09
  -6   0   6    4.14    6.57
  -6   0   7   -5.32    6.32
  -6   1  -4   66.83   12.03
  -6   1  -3  102.35   13.70
  -6   1  -2  102.12   13.23
  -6   1  -1   59.60   10.47
  -6   1   0    2.77    5.77
  -6   1   1   13.89    6.95
  -6   1   2   -1.04    5.53
  -6   1   3   -2.41    5.58
  -6   1   4   71.75   11.30
  -6   1   5   60.60   10.81
  -6   1   6  117.99   14.12
  -6   1   7   47.61   10.24
  -6   2  -4   24.66    7.72
  -6   2  -3   44.00    9.37
  -6   2  -2   11.57    6.50
  -6   2  -1    9.78    5.65
  -6   2   0   27.79    7.52
  -6   2   1   29.01    7.92
  -6   2   2   52.47    8.81
  -6   2   3  342.21   20.87
  -6   2   4   95.95   12.39
  -6   2   5   10.34    6.54
  -6   2   6   20.58    7.30
  -6   2   7    8.17    6.44
  -6   3  -5    1.57    5.29
  -6   3  -4    2.08    4.87
  -6   3  -3    3.57    4.54
  -6   3  -2   56.41    9.84
  -6   3  -1   38.35    8.28
  -6   3   0   39.37    8.23
  -6   3   1   57.55    9.73
  -6   3   2   26.42    6.52
  -6   3   3   20.28    6.60
  -6   3   4    2.59    5.04
  -6   3   5    2.03    5.60
  -6   3   6    5.01    5.94
  -6   4  -5   28.41    8.02
  -6   4  -4   32.33    7.86
  -6   4  -3    6.34    5.23
  -6   4  -2   22.05    7.09
  -6   4  -1   52.54    8.87
  -6   4   0    7.87    5.71
  -6   4   1    0.54    3.91
  -5  -7   4    6.04    5.59
  -5  -7   5   38.34    9.27
  -5  -7   6   37.94    9.80
  -5  -6  -1   -1.20    4.86
  -5  -6   0    0.38    4.75
  -5  -6   1   38.59    8.59
  -5  -6   2   22.27    7.22
  -5  -6   3    0.10    5.09
  -5  -6   4   20.77    7.63
  -5  -6   5   17.81    7.72
  -5  -6   6   36.03    9.73
  -5  -6   7   24.24    8.68
  -5  -5  -2    6.01    5.95
  -5  -5  -1    6.14    5.18
  -5  -5   0   79.45   11.82
  -5  -5   1   28.47    7.87
  -5  -5   2   44.11    9.31
  -5  -5   3   11.26    6.67
  -5  -5   4    0.07    5.88
  -5  -5   5   -2.21    6.25
  -5  -5   6   56.13   10.88
  -5  -5   7   13.31    7.90
  -5  -5   8    8.72    7.48
  -5  -4  -3  119.67   14.85
  -5  -4  -2   68.99   11.20
  -5  -4  -1   -2.91    4.74
  -5  -4   0   21.19    7.50
  -5  -4   1    3.23    5.37
  -5  -4   2    4.71    6.19
  -5  -4   3   38.17    9.10
  -5  -4   4   12.34    7.52
  -5  -4   5    9.38    6.90
  -5  -4   6    2.72    6.66
  -5  -4   7  152.93   16.75
  -5  -4   8   97.44   14.52
  -5  -3  -4   37.16    9.49
  -5  -3  -3   -1.85    5.93
  -5  -3  -2   -0.57    5.25
  -5  -3  -1   25.96    8.09
  -5  -3   0    1.75    5.26
  -5  -3   1   44.48    9.27
  -5  -3   2  195.55   16.64
  -5  -3   3  375.18   22.94
  -5  -3   4  140.10   14.97
  -5  -3   5   18.44    7.45
  -5  -3   6   50.01   10.66
  -5  -3   7   61.40   11.46
  -5  -3   8   45.62   10.81
  -5  -2  -4   10.18    6.88
  -5  -2  -3   31.11    9.04
  -5  -2  -2  145.95   15.05
  -5  -2  -1   70.14   10.90
  -5  -2   0   72.92   11.30
  -5  -2   1  261.25   18.92
  -5  -2   2  156.93   14.68
  -5  -2   3   10.51    6.89
  -5  -2   4   19.82    7.60
  -5  -2   5   -0.53    6.36
  -5  -2   6    0.36    6.47
  -5  -2   7   11.44    7.82
  -5  -2   8   56.95   11.72
  -5  -2   9  128.08   16.45
  -5  -1  -5   72.49   12.47
  -5  -1  -4  108.37   13.80
  -5  -1  -3   35.67    8.63
  -5  -1  -2   22.65    7.67
  -5  -1  -1   22.48    7.51
  -5  -1   0    7.67    5.94
  -5  -1   1   27.39    8.16
  -5  -1   2    1.20    6.63
  -5  -1   3    4.78    6.73
  -5  -1   4   56.34   10.12
  -5  -1   5  131.81   14.17
  -5  -1   6   12.95    7.61
  -5  -1   7   86.06   12.79
  -5  -1   8  112.26   14.95
  -5  -1   9   62.33   12.31
  -5   0  -5   -6.34    6.18
  -5   0  -4   14.58    7.25
  -5   0  -3    1.67    5.62
  -5   0  -2    6.24    6.55
  -5   0  -1   29.13    8.01
  -5   0   0   11.24    6.54
  -5   0   1   -1.52    6.16
  -5   0   2   49.86    9.00
  -5   0   3  145.16   13.62
  -5   0   4   33.93    8.62
  -5   0   5  109.85   12.82
  -5   0   6   32.81    8.97
  -5   0   7   10.94    6.94
  -5   0   8   20.41    8.18
  -5   0   9    2.66    6.42
  -5   1  -6    2.75    5.23
  -5   1  -5   35.95    9.00
  -5   1  -4    0.47    5.42
  -5   1  -3  126.25   13.88
  -5   1  -2   29.95    7.57
  -5   1  -1   52.73    9.38
  -5   1   0   93.31   11.22
  -5   1   1   -1.99    6.05
  -5   1   2    4.57    5.36
  -5   1   3  130.10   12.75
  -5   1   4   15.19    7.00
  -5   1   5   10.64    6.42
  -5   1   6   50.83    9.59
  -5   1   7    1.78    6.14
  -5   1   8    1.43    6.15
  -5   1   9   19.40    8.13
  -5   2  -6   16.00    6.77
  -5   2  -5   64.36   11.01
  -5   2  -4   69.22   10.84
  -5   2  -3  153.15   14.48
  -5   2  -2   55.59    9.17
  -5   2  -1   73.38   10.13
  -5   2   0   13.58    6.12
  -5   2   1    0.45    5.54
  -5   2   2   32.30    7.34
  -5   2   3    9.97    5.69
  -5   2   4   63.74    9.36
  -5   2   5   19.09    6.89
  -5   2   6   31.35    8.17
  -5   2   7   51.29   10.39
  -5   2   8   29.00    8.44
  -5   3  -6  160.11   16.39
  -5   3  -5   85.45   11.81
  -5   3  -4    1.80    4.25
  -5   3  -3    1.07    4.37
  -5   3  -2   20.62    6.30
  -5   3  -1    5.08    4.89
  -5   3   0   51.28    8.36
  -5   3   2   29.16    6.46
  -5   3   3   58.52    8.29
  -5   3   4  112.82   11.27
  -5   3   5   50.56    8.50
  -5   3   6    9.16    5.96
  -5   3   7   68.30   10.78
  -5   3   8   -2.38    5.05
  -5   4  -7    5.00    5.54
  -5   4  -6    0.92    4.59
  -5   4  -5   14.11    5.92
  -5   4  -4   -1.42    4.34
  -5   4  -3    0.19    3.85
  -5   4  -2  133.63   12.48
  -5   4  -1  103.73   10.64
  -5   4   0  127.51   11.54
  -5   4   1  240.49   15.56
  -5   4   2   19.00    4.99
  -5   4   3    4.97    4.52
  -5   5  -7    5.67    4.82
  -5   5  -6   31.34    7.71
  -5   5  -5   34.61    7.51
  -5   5  -4   89.51   10.72
  -5   5  -3   52.77    8.15
  -5   5  -2   -1.73    3.41
  -4  -8   3   32.22   10.27
  -4  -7   3    9.05    8.06
  -4  -7   4    6.26    7.70
  -4  -7   4   -2.13    5.22
  -4  -7   4   11.48    5.82
  -4  -7   5   24.64    7.83
  -4  -7   6    4.61    5.78
  -4  -7   7   29.10    8.34
  -4  -7   8   48.91   10.26
  -4  -6  -2   28.10    7.35
  -4  -6  -1   40.88    8.23
  -4  -6   0   35.72    7.69
  -4  -6   1   38.15    8.05
  -4  -6   2   16.64    6.17
  -4  -6   3    5.54    5.26
  -4  -6   4   28.57    8.30
  -4  -6   4   18.22    7.10
  -4  -6   5    5.65    5.97
  -4  -6   6   83.14   11.98
  -4  -6   7   69.37   11.59
  -4  -6   8   53.14   10.78
  -4  -6   9   16.31    7.72
  -4  -5  -4    6.11    5.78
  -4  -5  -3   14.99    6.36
  -4  -5  -2    0.02    4.47
  -4  -5  -1   -1.71    4.74
  -4  -5   0   11.70    5.66
  -4  -5   1    0.04    5.05
  -4  -5   2  115.78   12.69
  -4  -5   3   82.27   11.13
  -4  -5   4   75.58   11.21
  -4  -5   5   58.35   10.22
  -4  -5   6   34.40    8.90
  -4  -5   7   -0.97    5.98
  -4  -5   8    7.30    6.71
  -4  -5   9   -1.62    5.98
  -4  -4  -5    0.63    4.75
  -4  -4  -4    3.47    4.88
  -4  -4  -3    4.35    4.76
  -4  -4  -2   12.59    5.82
  -4  -4  -1   17.04    6.11
  -4  -4   0   79.92   10.57
  -4  -4   1   56.02    9.22
  -4  -4   2  259.09   17.69
  -4  -4   3   73.13   10.55
  -4  -4   4    0.55    5.75
  -4  -4   5   38.70    9.16
  -4  -4   6   24.00    8.33
  -4  -4   7    6.97    6.70
  -4  -4   8    9.43    6.93
  -4  -4   9   85.98   13.90
  -4  -3  -5  102.12   13.83
  -4  -3  -4   38.35    8.90
  -4  -3  -3    4.23    4.72
  -4  -3  -2  192.88   16.30
  -4  -3  -1   17.56    6.59
  -4  -3   0   10.55    5.94
  -4  -3   1   14.05    6.79
  -4  -3   2   13.24    6.09
  -4  -3   3    7.46    6.47
  -4  -3   4   11.94    6.55
  -4  -3   5   54.71    9.55
  -4  -3   6   28.18    8.28
  -4  -3   7   68.50   11.30
  -4  -3   8  215.80   19.23
  -4  -3   9  106.42   15.44
  -4  -2  -6   85.08   13.20
  -4  -2  -5   44.54    9.62
  -4  -2  -4   10.37    6.30
  -4  -2  -3    9.06    6.20
  -4  -2  -2   -2.50    5.40
  -4  -2  -1   82.10   10.73
  -4  -2   0   15.21    6.45
  -4  -2   1   41.59    7.79
  -4  -2   2  198.78   15.28
  -4  -2   3  395.39   20.40
  -4  -2   4  400.56   20.73
  -4  -2   5  156.73   14.49
  -4  -2   6    8.94    6.56
  -4  -2   7   -2.36    6.96
  -4  -2   8   26.12    9.28
  -4  -2   9    3.47    6.25
  -4  -1  -6    0.82    4.80
  -4  -1  -5   24.25    7.47
  -4  -1  -4   25.86    7.51
  -4  -1  -3   55.35    9.16
  -4  -1  -2   55.47    9.23
  -4  -1  -1  281.41   17.38
  -4  -1   0  403.74   20.47
  -4  -1   1  123.78   11.55
  -4  -1   2  108.76   11.09
  -4  -1   3    1.07    5.56
  -4  -1   4   70.70   10.06
  -4  -1   5   36.66    8.77
  -4  -1   6   28.87    8.44
  -4  -1   7    2.01    6.89
  -4  -1   8    9.42    6.72
  -4  -1   9  170.12   17.94
  -4   0  -7   30.30    9.16
  -4   0  -6    8.71    6.67
  -4   0  -5   19.50    7.24
  -4   0  -4  195.06   16.22
  -4   0  -3  141.96   13.08
  -4   0  -2  158.78   13.67
  -4   0  -1   40.53    8.08
  -4   0   0  316.51   17.70
  -4   0   1   13.08    5.67
  -4   0   2   99.77   10.49
  -4   0   3   64.16    8.96
  -4   0   4  193.74   14.39
  -4   0   5  225.65   16.19
  -4   0   6  126.13   13.31
  -4   0   7   63.67   10.95
  -4   0   8   14.25    7.55
  -4   0   9   10.82    7.32
  -4   1  -7   11.20    6.66
  -4   1  -6   72.75   11.76
  -4   1  -5    9.98    6.44
  -4   1  -4   82.59   10.68
  -4   1  -3   44.59    8.35
  -4   1  -2    2.06    5.07
  -4   1  -1    6.68    5.35
  -4   1   0   13.95    5.72
  -4   1   1   -3.84    5.15
  -4   1   2   95.39    9.81
  -4   1   3  355.35   17.67
  -4   1   4    8.26    5.60
  -4   1   5   64.14    9.78
  -4   1   6   87.52   11.61
  -4   1   7   -0.59    5.67
  -4   1   8   14.81    7.15
  -4   1   9    6.06    6.57
  -4   2  -7    3.81    5.86
  -4   2  -6    7.37    5.67
  -4   2  -5    1.09    4.95
  -4   2  -4   50.31    8.57
  -4   2  -3   29.08    6.57
  -4   2  -2   36.68    7.08
  -4   2  -1    8.25    4.78
  -4   2   0   43.88    7.40
  -4   2   1  706.33   22.78
  -4   2   2   58.02    7.89
  -4   2   3   39.50    7.08
  -4   2   4   17.59    5.91
  -4   2   5    7.08    5.63
  -4   2   6   -1.47    5.09
  -4   2   7   16.15    7.53
  -4   2   8    8.63    6.38
  -4   2   9   -0.03    5.87
  -4   3  -8    9.55    5.89
  -4   3  -7    7.38    5.91
  -4   3  -6    3.74    4.90
  -4   3  -5  185.90   15.36
  -4   3  -4   18.40    5.95
  -4   3  -3   32.15    6.66
  -4   3  -2  186.03   13.21
  -4   3  -1   64.10    8.12
  -4   3   0   42.69    6.95
  -4   3   1   -0.97    4.27
  -4   3   2   11.22    4.54
  -4   3   3   43.80    6.91
  -4   3   4   10.08    4.98
  -4   3   5   34.57    7.36
  -4   3   6   34.89    7.90
  -4   3   7  101.91   12.27
  -4   3   8   59.74   10.99
  -4   3   9    2.34    5.25
  -4   4  -8   33.09    8.71
  -4   4  -7   56.43    9.83
  -4   4  -6  115.66   12.86
  -4   4  -5   17.98    5.62
  -4   4  -4    6.86    4.39
  -4   4  -3    8.14    4.69
  -4   4  -2    1.41    3.55
  -4   4  -1    6.74    4.09
  -4   4   0   11.11    4.13
  -4   4   1   35.42    5.13
  -4   4   2  163.96   10.64
  -4   4   3  102.30    9.08
  -4   4   4   51.63    7.36
  -4   4   5  113.47   11.12
  -4   4   6   11.02    5.54
  -4   5  -8   42.88    9.03
  -4   5  -7   19.65    6.48
  -4   5  -6    6.23    4.94
  -4   5  -5    3.16    3.79
  -4   5  -4   97.62    9.81
  -4   5  -3   13.21    4.37
  -4   5  -2   26.81    5.03
  -4   5  -1  236.79   12.57
  -4   5   0  179.25   10.50
  -4   5   1  161.44   10.36
  -3  -8   2    8.89    9.04
  -3  -8   3    4.61    8.59
  -3  -8   4   63.93   13.21
  -3  -8   5   17.43    9.09
  -3  -7   0   20.27   11.13
  -3  -7   1   17.01   10.62
  -3  -7   2   16.33    9.32
  -3  -7   3   16.95    8.48
  -3  -7   4   98.88   13.98
  -3  -7   4   83.91   10.69
  -3  -7   5   54.25   10.93
  -3  -7   5   41.74    8.17
  -3  -7   6    6.78    5.69
  -3  -7   7   49.01    9.27
  -3  -7   8   21.78    7.68
  -3  -7   9   -0.72    5.54
  -3  -6  -2   26.97    6.73
  -3  -6  -1   89.09   10.23
  -3  -6   0  102.48   10.59
  -3  -6   0  133.43   17.34
  -3  -6   1   64.92    8.46
  -3  -6   1   75.05   13.24
  -3  -6   2  107.51   10.69
  -3  -6   2  107.57   14.74
  -3  -6   3   67.52    9.30
  -3  -6   3   63.97   11.41
  -3  -6   4    1.17    4.82
  -3  -6   4   16.62    9.68
  -3  -6   5   81.23   10.78
  -3  -6   5  101.83   12.05
  -3  -6   6   18.68    7.02
  -3  -6   6   12.62    6.27
  -3  -6   7   35.10    8.50
  -3  -6   8   13.04    6.78
  -3  -6   9  105.72   14.07
  -3  -6  10   43.20   10.55
  -3  -5  -5   47.25    9.51
  -3  -5  -4  126.23   13.39
  -3  -5  -3  111.80   12.39
  -3  -5  -2   12.66    5.34
  -3  -5  -1   59.38    8.69
  -3  -5   0    8.90    5.02
  -3  -5   0   14.60    9.93
  -3  -5   1   13.28    9.15
  -3  -5   1    5.15    4.56
  -3  -5   2   25.10    9.59
  -3  -5   2   22.65    6.21
  -3  -5   2    9.15    5.29
  -3  -5   3   16.33    7.59
  -3  -5   3   18.93    6.58
  -3  -5   4   31.77    7.60
  -3  -5   4   33.57    8.77
  -3  -5   5   37.30    7.73
  -3  -5   5   28.15    7.63
  -3  -5   6   48.10    9.44
  -3  -5   6   52.33    7.61
  -3  -5   7   64.10   10.56
  -3  -5   8   99.26   13.20
  -3  -5   9  185.55   18.47
  -3  -5  10   80.87   13.16
  -3  -4  -6   37.32    9.14
  -3  -4  -5   88.99   12.27
  -3  -4  -4    8.37    5.03
  -3  -4  -3    6.68    5.33
  -3  -4  -2   -1.08    4.41
  -3  -4  -1   -1.29    4.50
  -3  -4   0    1.51    4.53
  -3  -4   1   59.13    8.48
  -3  -4   2  431.44   20.17
  -3  -4   2  486.64   21.44
  -3  -4   3  301.99   16.30
  -3  -4   3  288.71   16.68
  -3  -4   4   70.88    8.28
  -3  -4   4   76.39   10.04
  -3  -4   5   65.60    7.07
  -3  -4   5   70.51    9.94
  -3  -4   6  154.99    8.31
  -3  -4   6  172.40   14.93
  -3  -4   7   15.87    7.12
  -3  -4   8    7.05    7.08
  -3  -4   9    5.07    6.72
  -3  -4  10    6.70    6.92
  -3  -3  -6   23.03    7.59
  -3  -3  -5   -1.11    5.09
  -3  -3  -4   -1.97    4.55
  -3  -3  -3   87.77   10.60
  -3  -3  -2   89.98   10.14
  -3  -3  -1    6.11    4.97
  -3  -3   0  330.18   17.04
  -3  -3   1  137.85   11.46
  -3  -3   1  138.15   11.39
  -3  -3   2    2.16    5.13
  -3  -3   3    8.23    5.74
  -3  -3   4    0.29    4.55
  -3  -3   5    2.22    5.05
  -3  -3   6   19.85    7.50
  -3  -3   7    4.85    5.91
  -3  -3   8   32.07    9.30
  -3  -3   9   25.20    8.13
  -3  -3  10   60.55   11.79
  -3  -2  -7    7.37    6.10
  -3  -2  -6   14.20    6.63
  -3  -2  -5   40.79    8.29
  -3  -2  -4  144.18   13.58
  -3  -2  -3   15.00    6.21
  -3  -2  -2    3.82    4.44
  -3  -2  -1  102.46   10.05
  -3  -2   0    6.02    5.10
  -3  -2   1    5.22    4.93
  -3  -2   2  120.54   10.69
  -3  -2   3   14.22    5.51
  -3  -2   4  271.56   16.00
  -3  -2   5   48.41    8.57
  -3  -2   6   48.48    9.05
  -3  -2   7  241.41   18.04
  -3  -2   8   36.77    9.44
  -3  -2   9    8.23    6.96
  -3  -2  10   17.62    8.13
  -3  -1  -7   57.64   10.68
  -3  -1  -6   25.52    7.59
  -3  -1  -5   41.61    8.43
  -3  -1  -4    9.74    5.45
  -3  -1  -3   30.08    6.78
  -3  -1  -2   23.07    6.22
  -3  -1  -1  100.84    9.70
  -3  -1   0   27.18    6.26
  -3  -1   1   35.81    6.55
  -3  -1   2   37.26    7.29
  -3  -1   3  122.38   10.40
  -3  -1   4  200.74   13.80
  -3  -1   5  232.18   15.66
  -3  -1   6  110.49   11.88
  -3  -1   7    3.86    6.65
  -3  -1   8   10.16    7.42
  -3  -1   9    1.05    6.07
  -3  -1  10    1.53    6.30
  -3   0  -8   84.51   12.96
  -3   0  -7    9.59    6.61
  -3   0  -6   26.04    7.93
  -3   0  -5    1.57    5.65
  -3   0  -4   75.35    9.84
  -3   0  -3  261.54   15.75
  -3   0  -2   58.19    7.97
  -3   0  -1   52.88    7.49
  -3   0   0  704.28   22.56
  -3   0   1   66.50    7.35
  -3   0   2  224.66   12.64
  -3   0   3  116.72   10.21
  -3   0   4   58.92    8.41
  -3   0   5  142.44   12.58
  -3   0   6   68.85    9.97
  -3   0   7    4.95    6.78
  -3   0   8    9.51    7.26
  -3   0   9   65.01   11.73
  -3   0  10  137.91   16.79
  -3   1  -8   -4.33    6.65
  -3   1  -7    3.86    5.29
  -3   1  -6   61.63   10.21
  -3   1  -5  155.87   13.83
  -3   1  -4  389.26   19.62
  -3   1  -3  174.48   12.51
  -3   1  -2  623.51   21.59
  -3   1  -1   84.93    8.28
  -3   1   1  436.98   15.94
  -3   1   2  153.41   10.06
  -3   1   3   25.92    5.80
  -3   1   4   46.15    7.51
  -3   1   5   70.13    9.30
  -3   1   5   64.60    5.75
  -3   1   6   68.62    6.17
  -3   1   6   70.34    9.93
  -3   1   7  164.89   15.19
  -3   1   8  116.16   13.65
  -3   1   9   39.14    9.66
  -3   1  10    5.67    6.34
  -3   2  -8  124.17   15.00
  -3   2  -7  186.21   16.73
  -3   2  -6  270.52   18.47
  -3   2  -5   25.78    7.02
  -3   2  -4    6.70    4.71
  -3   2  -3    4.17    3.93
  -3   2  -2    9.27    4.34
  -3   2  -1    1.90    3.35
  -3   2   1  229.08   11.29
  -3   2   2  108.62    8.37
  -3   2   3  144.85   10.19
  -3   2   4   38.99    6.90
  -3   2   4   33.26    5.02
  -3   2   5   60.18    6.70
  -3   2   5   71.00    9.40
  -3   2   6  135.93   10.32
  -3   2   6  148.80   13.49
  -3   2   7   96.63   12.15
  -3   2   8    1.73    5.63
  -3   2   9   11.96    6.98
  -3   3  -9   10.20    6.36
  -3   3  -8   52.63   10.07
  -3   3  -7    2.50    5.14
  -3   3  -6    4.52    5.14
  -3   3  -5    0.26    4.09
  -3   3  -4   57.72    7.85
  -3   3  -3   53.96    6.90
  -3   3  -2  151.85    9.93
  -3   3  -1  263.59   12.27
  -3   3   0  196.48   10.40
  -3   3   1  162.24    8.99
  -3   3   2  108.38    8.04
  -3   3   3   -0.16    3.76
  -3   3   4    4.41    4.55
  -3   3   5    4.92    5.32
  -3   3   6    5.59    5.03
  -3   3   7    2.62    4.90
  -3   3   8   14.75    7.29
  -3   3   9    1.32    5.12
  -3   4  -9    4.38    5.48
  -3   4  -8   -0.87    4.81
  -3   4  -7  104.05   12.23
  -3   4  -6    5.23    4.76
  -3   4  -5   62.39    8.47
  -3   4  -4  244.54   14.03
  -3   4  -3    2.25    3.37
  -3   4  -2    9.60    3.25
  -3   4  -1  107.96    7.67
  -3   4   0   -0.26    2.56
  -3   4   1   80.39    5.91
  -3   4   2    6.49    3.31
  -3   4   3    2.95    3.53
  -3   4   3    5.22    3.25
  -3   4   4   15.18    4.94
  -3   4   5    2.85    4.32
  -3   4   6   17.54    5.83
  -3   4   7   53.04    9.10
  -3   5  -9   18.63    7.01
  -3   5  -8   46.94    9.23
  -3   5  -7   40.06    8.01
  -3   5  -6   44.78    7.53
  -3   5  -5   16.59    5.07
  -3   5  -4   10.98    3.96
  -3   5  -3    8.10    3.26
  -3   5  -2    0.68    2.26
  -3   5  -1   17.61    3.13
  -3   5   0   24.01    3.39
  -3   5   2  109.70    6.70
  -2  -9   4   39.33   12.12
  -2  -9   5   17.95    9.20
  -2  -8   1  107.73   17.75
  -2  -8   2   30.85   11.77
  -2  -8   3    4.48    7.93
  -2  -8   4   20.01    8.99
  -2  -8   5    0.80    6.49
  -2  -8   6   -6.23    6.83
  -2  -7  -1   86.35   15.43
  -2  -7   0   29.72   11.06
  -2  -7   1   39.36   12.49
  -2  -7   2   17.80    9.90
  -2  -7   3    1.17    7.62
  -2  -7   4   -2.27    6.38
  -2  -7   4    2.60    4.15
  -2  -7   5   11.55    6.75
  -2  -7   5   29.51    6.53
  -2  -7   6   34.61    7.62
  -2  -7   6   48.33    8.05
  -2  -7   7    2.50    4.70
  -2  -7   8   43.62    8.93
  -2  -7   9   29.83    8.09
  -2  -7  10    7.89    6.01
  -2  -6  -3   16.17   11.26
  -2  -6  -2    8.45    3.91
  -2  -6  -2   20.03   11.31
  -2  -6  -1    1.13    3.32
  -2  -6  -1    8.20    9.93
  -2  -6   0   15.90    4.48
  -2  -6   0   14.72    9.75
  -2  -6   1   15.70   10.51
  -2  -6   1    4.68    3.35
  -2  -6   2  230.93   19.52
  -2  -6   2  198.07   11.93
  -2  -6   3   61.93    7.81
  -2  -6   3   65.20   11.56
  -2  -6   4   83.28   11.13
  -2  -6   4   88.19    9.74
  -2  -6   5  148.33   12.29
  -2  -6   5  138.63   12.66
  -2  -6   6   28.49    6.97
  -2  -6   6   29.04    7.36
  -2  -6   7   11.12    6.00
  -2  -6   7    3.53    5.22
  -2  -6   8   -0.07    5.30
  -2  -6   9   17.55    7.49
  -2  -6  10   15.08    7.08
  -2  -5  -6    3.57    5.04
  -2  -5  -5   -2.83    4.71
  -2  -5  -4   68.39    9.49
  -2  -5  -3   25.32    6.30
  -2  -5  -2   -4.64    4.02
  -2  -5  -2   11.76   10.26
  -2  -5  -1   24.11    5.37
  -2  -5  -1   37.58   11.75
  -2  -5   0  263.17   13.82
  -2  -5   0  245.00   19.61
  -2  -5   1  311.22   20.93
  -2  -5   1  275.54   13.85
  -2  -5   2  194.24   12.41
  -2  -5   2  201.22   16.18
  -2  -5   3   57.03    9.35
  -2  -5   3   54.94    7.62
  -2  -5   4   17.08    5.64
  -2  -5   4    7.43    5.93
  -2  -5   5   19.77    6.27
  -2  -5   5   -2.57    6.25
  -2  -5   6   19.13    6.79
  -2  -5   6   32.25    6.51
  -2  -5   7    2.41    3.80
  -2  -5   7   -4.17    5.51
  -2  -5   8    2.72    5.63
  -2  -5   9  193.19   17.64
  -2  -5  10   60.11   11.65
  -2  -4  -7    4.21    5.33
  -2  -4  -6   61.29   10.46
  -2  -4  -5   75.62   10.71
  -2  -4  -4   29.59    7.00
  -2  -4  -3  279.60   16.41
  -2  -4  -2  113.80   10.26
  -2  -4  -2  126.72   15.27
  -2  -4  -1    3.51    8.69
  -2  -4  -1    3.10    3.50
  -2  -4   0   85.52   11.73
  -2  -4   0   82.94    7.90
  -2  -4   1   66.28    7.24
  -2  -4   1  103.74   12.21
  -2  -4   2   28.62    7.92
  -2  -4   2    8.82    4.57
  -2  -4   3   42.17    6.83
  -2  -4   3   36.55    6.95
  -2  -4   4   80.17    7.57
  -2  -4   4   88.19    9.06
  -2  -4   5  105.62    8.32
  -2  -4   5  109.60   10.73
  -2  -4   6  204.87   15.25
  -2  -4   6  214.80   10.77
  -2  -4   7  379.71   21.33
  -2  -4   7  418.62   14.72
  -2  -4   8  136.02   14.13
  -2  -4   9    5.39    5.73
  -2  -4  10   37.98    9.85
  -2  -3  -7   84.56   12.59
  -2  -3  -6   50.74    9.62
  -2  -3  -5   16.12    6.30
  -2  -3  -4   59.33    8.81
  -2  -3  -3  107.33   10.38
  -2  -3  -2   35.70    6.17
  -2  -3  -1   26.62    5.42
  -2  -3  -1   39.68    9.28
  -2  -3   0   18.63    7.41
  -2  -3   0   14.77    4.63
  -2  -3   1  150.74    9.95
  -2  -3   1  153.36   11.47
  -2  -3   2  388.10   15.63
  -2  -3   2  391.33   15.87
  -2  -3   3  499.75   18.28
  -2  -3   3  479.61   15.61
  -2  -3   4  458.90   13.36
  -2  -3   4  466.42   19.20
  -2  -3   5   48.14    7.92
  -2  -3   5   57.63    4.83
  -2  -3   6   38.07    7.42
  -2  -3   6   39.42    3.90
  -2  -3   7  143.00    6.97
  -2  -3   7  138.53   13.45
  -2  -3   8    3.14    6.24
  -2  -3   9   78.89   12.32
  -2  -3  10   66.77   11.76
  -2  -2  -8   41.92    9.85
  -2  -2  -7    7.51    5.90
  -2  -2  -6    3.45    5.53
  -2  -2  -5    5.43    5.34
  -2  -2  -4    8.81    4.90
  -2  -2  -3   22.52    5.84
  -2  -2  -2  263.98   14.01
  -2  -2  -1  104.97    8.74
  -2  -2   0  105.58    8.44
  -2  -2   1  239.24   11.97
  -2  -2   2   22.38    5.08
  -2  -2   2   14.20    5.50
  -2  -2   3   17.42    3.33
  -2  -2   3    8.20    4.85
  -2  -2   4   64.17    3.32
  -2  -2   4   76.90    8.91
  -2  -2   5   14.73    6.18
  -2  -2   6   23.21    2.12
  -2  -2   6   20.89    2.38
  -2  -2   6   25.61    7.16
  -2  -2   7   -0.19    2.18
  -2  -2   7   -0.04    5.61
  -2  -2   8   29.68    8.42
  -2  -2   9  124.74   14.65
  -2  -2  10    7.50    7.57
  -2  -1  -8   46.41   10.13
  -2  -1  -7    6.13    6.05
  -2  -1  -6    4.82    5.82
  -2  -1  -5   49.74    8.55
  -2  -1  -4  114.63   10.85
  -2  -1  -3  153.61   11.29
  -2  -1  -2  271.89   13.57
  -2  -1  -1  433.78   15.99
  -2  -1   0    4.12    4.52
  -2  -1   1  277.98   12.57
  -2  -1   2   13.89    5.34
  -2  -1   3   15.07    5.25
  -2  -1   4   78.95    8.40
  -2  -1   5  164.02   12.44
  -2  -1   6   -2.45    1.81
  -2  -1   6    2.17    5.17
  -2  -1   7   64.46    9.81
  -2  -1   7   45.48    4.49
  -2  -1   8   52.18    9.77
  -2  -1   9   13.77    7.72
  -2  -1  10    0.95    6.30
  -2   0  -9   49.05   10.86
  -2   0  -8   41.57    9.75
  -2   0  -7   51.99    9.49
  -2   0  -6   59.07    9.70
  -2   0  -5   88.50   10.17
  -2   0  -4   70.09    8.62
  -2   0  -3    0.54    4.09
  -2   0  -2    3.70    4.63
  -2   0  -1   11.19    5.39
  -2   0   0  713.91   17.81
  -2   0   1    0.35    4.24
  -2   0   2  864.02   20.15
  -2   0   3   96.88    8.89
  -2   0   4    0.85    1.39
  -2   0   4    3.77    4.54
  -2   0   5  294.08    9.67
  -2   0   5  296.14   16.08
  -2   0   6   68.58    9.23
  -2   0   6   61.76    5.48
  -2   0   7    5.15    3.47
  -2   0   7    0.71    6.09
  -2   0   8    8.00    6.54
  -2   0   9    8.22    7.13
  -2   0  10   11.09    6.87
  -2   1  -9   29.91    8.60
  -2   1  -8   18.31    6.77
  -2   1  -7   59.73    9.76
  -2   1  -6    6.07    5.99
  -2   1  -5   24.40    6.07
  -2   1  -4   11.31    4.81
  -2   1  -3   80.85    8.02
  -2   1  -2  114.35    8.44
  -2   1  -1   19.66    4.69
  -2   1   0 1784.39   25.40
  -2   1   1 2128.21   27.61
  -2   1   2   18.81    4.60
  -2   1   3    5.10    2.38
  -2   1   3    5.09    4.06
  -2   1   4   15.04    4.87
  -2   1   4   20.72    3.77
  -2   1   5   24.08    4.59
  -2   1   5   26.33    6.48
  -2   1   6   41.55    7.95
  -2   1   6   40.15    5.93
  -2   1   7   11.12    6.46
  -2   1   7    9.39    4.16
  -2   1   8   50.09    9.69
  -2   1   9   33.05    9.18
  -2   1  10    4.19    6.66
  -2   2  -9    1.89    5.17
  -2   2  -8   65.06   10.59
  -2   2  -7   87.25   11.33
  -2   2  -6  182.48   14.27
  -2   2  -5  155.76   12.36
  -2   2  -4  160.99   11.14
  -2   2  -3  304.41   13.74
  -2   2  -2  459.56   14.76
  -2   2  -1  660.98   16.06
  -2   2   0  114.43    6.17
  -2   2   1  119.06    6.52
  -2   2   2    4.18    3.05
  -2   2   2    4.41    3.16
  -2   2   3   -0.79    2.85
  -2   2   3    0.72    3.39
  -2   2   4   28.73    5.29
  -2   2   4   29.23    5.11
  -2   2   4   21.39    5.11
  -2   2   5   41.03    6.27
  -2   2   5   44.87    7.48
  -2   2   6  165.45   13.57
  -2   2   7  276.10   18.42
  -2   2   8   62.22   10.18
  -2   2   9   24.07    7.89
  -2   3  -9   14.52    6.46
  -2   3  -8   57.04   10.00
  -2   3  -7  320.29   19.93
  -2   3  -6  244.39   15.99
  -2   3  -5    2.27    4.06
  -2   3  -4    5.62    3.92
  -2   3  -3    8.02    3.33
  -2   3  -2   15.92    3.31
  -2   3  -1   66.18    4.99
  -2   3   1  123.49    9.80
  -2   3   1  114.57    5.94
  -2   3   2  518.64   19.61
  -2   3   2  516.43   14.37
  -2   3   3  480.52   16.19
  -2   3   3  466.91   15.99
  -2   3   4  167.99   11.13
  -2   3   4  159.81   10.63
  -2   3   5   99.05   10.01
  -2   3   6   19.08    6.26
  -2   3   7   32.18    8.17
  -2   3   8   -0.31    5.03
  -2   3   9    0.03    5.06
  -2   4 -10   20.13    8.26
  -2   4  -9    2.02    5.06
  -2   4  -8   41.70    8.72
  -2   4  -7   20.80    5.93
  -2   4  -6   -3.59    4.42
  -2   4  -5   69.55    8.07
  -2   4  -4   53.46    6.36
  -2   4  -3    4.05    2.86
  -2   4  -2  129.11    6.73
  -2   4  -1  311.91    8.49
  -2   4   0  301.49    8.25
  -2   4   1   86.67    5.01
  -2   4   1   75.93    4.24
  -2   4   2    3.09    2.11
  -2   4   2    8.31    3.02
  -2   4   3   69.07    6.73
  -2   4   3   70.65    6.50
  -2   4   4    1.75    3.00
  -2   4   4    0.99    3.69
  -2   4   5    9.61    5.14
  -2   4   6    7.02    4.88
  -2   4   7   -1.66    4.81
  -2   4   8   20.51    7.23
  -2   5 -10    8.64    5.90
  -2   5  -9   18.83    6.93
  -2   5  -8   19.27    6.52
  -2   5  -7    9.91    4.84
  -2   5  -6   89.46    9.69
  -2   5  -5  123.53    9.78
  -2   5  -4   66.49    6.54
  -2   5  -3   50.44    4.81
  -2   5  -2   10.07    1.86
  -2   5   1    7.52    1.50
  -2   5   2    5.76    2.14
  -2   5   2    4.21    2.29
  -2   5   3    4.05    2.99
  -2   5   4   44.46    6.15
  -2   6  -8   -0.39    3.75
  -2   6  -7   26.75    6.11
  -2   6  -6  124.45   10.29
  -2   6  -5   50.10    6.25
  -1  -9   4   -1.20    8.36
  -1  -9   5   -7.41    9.55
  -1  -9   6   20.65    8.47
  -1  -9   7   59.96   11.68
  -1  -8   0   10.29   10.71
  -1  -8   1   10.60    9.69
  -1  -8   2   49.51   12.03
  -1  -8   3   52.35   12.10
  -1  -8   4   20.84    8.55
  -1  -8   5   65.47   11.92
  -1  -8   6   73.62   12.24
  -1  -8   7   65.85   11.36
  -1  -7  -2    5.78    9.60
  -1  -7  -1   94.99   15.98
  -1  -7   0   88.54   15.27
  -1  -7   1   64.81   12.90
  -1  -7   2  141.62   16.47
  -1  -7   3   45.48   10.04
  -1  -7   4   14.75    8.23
  -1  -7   5   79.56   11.81
  -1  -7   5   58.81    7.45
  -1  -7   6   10.69    6.22
  -1  -7   6   12.53    4.93
  -1  -7   7   27.41    6.57
  -1  -7   7   31.65    8.38
  -1  -7   8   23.82    6.97
  -1  -7   8   33.55    7.98
  -1  -7   9   67.43   10.57
  -1  -7  10   39.44    9.25
  -1  -6  -4  139.12   19.05
  -1  -6  -3   86.46   15.44
  -1  -6  -2   15.14   11.28
  -1  -6  -1   21.55   10.85
  -1  -6  -1    4.12    2.83
  -1  -6   0    0.42    2.30
  -1  -6   0    6.41    9.07
  -1  -6   1    6.46    7.55
  -1  -6   1    2.87    2.04
  -1  -6   2   -4.45    8.51
  -1  -6   2    7.40    2.52
  -1  -6   3   44.59   10.11
  -1  -6   3   39.85    5.62
  -1  -6   4   30.80    8.59
  -1  -6   4   18.16    5.10
  -1  -6   5   16.39    6.65
  -1  -6   5   10.51    4.72
  -1  -6   5   11.45    3.75
  -1  -6   6   93.23    9.92
  -1  -6   6  100.97   11.47
  -1  -6   7   80.58   10.53
  -1  -6   7   86.85   10.55
  -1  -6   8  112.34   12.32
  -1  -6   8  125.35   12.21
  -1  -6   9   96.67   12.36
  -1  -6  10   22.88    7.66
  -1  -5  -6   29.61    7.39
  -1  -5  -5   12.08    5.24
  -1  -5  -4    4.15    9.77
  -1  -5  -4   -1.15    4.11
  -1  -5  -3   25.65   10.68
  -1  -5  -3   17.46    4.92
  -1  -5  -2    0.70    8.77
  -1  -5  -2    3.81    3.29
  -1  -5  -1   84.95   14.39
  -1  -5  -1   65.93    6.23
  -1  -5   0   12.52    2.98
  -1  -5   0   12.20    8.50
  -1  -5   1  128.79    7.29
  -1  -5   1  111.95   12.60
  -1  -5   2  251.13   11.27
  -1  -5   2  229.09   15.73
  -1  -5   3   72.66    7.15
  -1  -5   3   80.77   10.54
  -1  -5   4   82.48    7.99
  -1  -5   4   82.31    9.61
  -1  -5   5   36.32    6.56
  -1  -5   5   41.11    7.25
  -1  -5   5   34.42    5.66
  -1  -5   6   85.90    9.81
  -1  -5   6   81.90    8.67
  -1  -5   7   10.79    4.61
  -1  -5   7    8.75    5.62
  -1  -5   8   21.38    5.14
  -1  -5   8    9.49    6.16
  -1  -5   9    3.23    5.28
  -1  -5  10    3.17    5.47
  -1  -4  -8   10.18    6.00
  -1  -4  -7    6.54    5.40
  -1  -4  -6    0.86    4.40
  -1  -4  -5   46.86    8.28
  -1  -4  -4    7.25    9.80
  -1  -4  -4    5.71    4.42
  -1  -4  -3  230.66   13.45
  -1  -4  -3  255.79   21.04
  -1  -4  -2   34.26   10.14
  -1  -4  -2   44.73    6.02
  -1  -4  -1    0.53    2.62
  -1  -4  -1   24.67    9.56
  -1  -4   0  324.71   11.60
  -1  -4   0  325.45   18.53
  -1  -4   1   46.10    7.83
  -1  -4   1   56.67    5.10
  -1  -4   2  -10.33    5.47
  -1  -4   2    2.40    3.08
  -1  -4   3    3.41    4.56
  -1  -4   3    1.29    3.38
  -1  -4   4   59.41    7.08
  -1  -4   4   59.66    7.22
  -1  -4   5   -1.60    3.36
  -1  -4   5    3.00    3.35
  -1  -4   5    5.62    4.88
  -1  -4   6   45.35    6.30
  -1  -4   6   35.34    7.13
  -1  -4   7   94.75    8.59
  -1  -4   7   82.44   10.50
  -1  -4   8    9.78    3.76
  -1  -4   8    5.41    5.90
  -1  -4   9    9.38    6.47
  -1  -4  10  107.51   14.02
  -1  -3  -8   23.89    7.91
  -1  -3  -7    0.46    4.98
  -1  -3  -6    2.98    4.93
  -1  -3  -5   93.31   10.65
  -1  -3  -4   47.75    7.52
  -1  -3  -3   43.86    9.99
  -1  -3  -3   46.39    6.54
  -1  -3  -2  733.40   20.46
  -1  -3  -2  758.16   27.56
  -1  -3  -1  223.94   10.10
  -1  -3  -1  233.78   15.98
  -1  -3   0  128.01    7.23
  -1  -3   0  125.13   11.03
  -1  -3   1   11.13    5.55
  -1  -3   1   26.83    4.32
  -1  -3   2   18.20    5.46
  -1  -3   2    6.90    3.52
  -1  -3   3  397.36   14.45
  -1  -3   3  393.67   14.09
  -1  -3   4  195.11    9.51
  -1  -3   4  190.33   11.24
  -1  -3   5   51.14    5.34
  -1  -3   5   46.22    6.84
  -1  -3   5   46.88    6.48
  -1  -3   6  179.53    9.77
  -1  -3   6  171.50   13.08
  -1  -3   7  238.51   16.34
  -1  -3   8   83.56   11.11
  -1  -3   9   12.32    6.71
  -1  -3  10   30.79    8.95
  -1  -2  -8  121.04   14.47
  -1  -2  -7  128.73   13.83
  -1  -2  -6   90.09   11.22
  -1  -2  -5   90.71   10.19
  -1  -2  -4   12.30    4.84
  -1  -2  -3  100.29    8.62
  -1  -2  -2  505.40   16.37
  -1  -2  -2  505.79   20.66
  -1  -2  -1  472.52   13.80
  -1  -2  -1  464.76   18.00
  -1  -2   0  156.09    7.59
  -1  -2   0  173.06   11.42
  -1  -2   1   -2.77    5.00
  -1  -2   1    4.52    3.68
  -1  -2   2  693.36   16.34
  -1  -2   2  680.71   14.83
  -1  -2   3  226.69   11.02
  -1  -2   3  219.83    7.81
  -1  -2   4  320.72    9.43
  -1  -2   4  311.78   14.01
  -1  -2   5  572.73   20.57
  -1  -2   5  554.81   20.09
  -1  -2   6  114.35   11.10
  -1  -2   7    8.27    5.80
  -1  -2   8   99.14   12.38
  -1  -2   9   -1.90    5.92
  -1  -2  10    1.55    5.93
  -1  -1  -9   96.75   14.00
  -1  -1  -8   64.15   11.02
  -1  -1  -7    9.12    5.78
  -1  -1  -6    3.45    4.78
  -1  -1  -5   -1.36    5.23
  -1  -1  -4   87.39    8.66
  -1  -1  -3   17.94    5.00
  -1  -1  -2   90.15    7.45
  -1  -1  -1 1279.16   21.58
  -1  -1   2 1203.26   20.53
  -1  -1   3  176.93    9.78
  -1  -1   4  289.72   13.54
  -1  -1   4  293.61   13.20
  -1  -1   5  145.67   11.25
  -1  -1   6    2.31    3.74
  -1  -1   6   -0.09    5.27
  -1  -1   7    5.00    4.53
  -1  -1   7    2.74    5.79
  -1  -1   8   34.51    6.61
  -1  -1   8   39.40    8.85
  -1  -1   9  266.72   20.30
  -1  -1  10   10.61    6.75
  -1   0  -9    4.02    6.46
  -1   0  -8    9.25    6.05
  -1   0  -7   26.04    7.15
  -1   0  -6  157.40   13.44
  -1   0  -5  279.10   15.79
  -1   0  -4  231.76   13.21
  -1   0  -3   50.89    6.58
  -1   0  -2  529.71   15.18
  -1   0   2  365.93   11.24
  -1   0   2  334.54    6.68
  -1   0   3   -0.29    2.70
  -1   0   3    3.37    4.85
  -1   0   3    7.93    3.66
  -1   0   4    4.24    3.28
  -1   0   4    0.11    4.23
  -1   0   4    0.36    3.23
  -1   0   5   22.52    4.82
  -1   0   5   14.62    5.43
  -1   0   6   32.17    7.19
  -1   0   6   46.24    6.87
  -1   0   7  241.97   16.87
  -1   0   7  219.91   14.21
  -1   0   8  116.22   13.25
  -1   0   9   70.86   11.72
  -1   0  10    8.24    7.03
  -1   1  -9    9.64    6.86
  -1   1  -8  109.95   13.12
  -1   1  -7  333.63   19.97
  -1   1  -6  250.61   16.15
  -1   1  -5   43.52    7.16
  -1   1  -4   27.17    5.92
  -1   1  -3    4.03    4.19
  -1   1  -2  687.24   15.85
  -1   1   1   36.07    3.79
  -1   1   1   39.64    3.59
  -1   1   2    8.04    3.29
  -1   1   2   16.39    3.96
  -1   1   3  380.25   13.55
  -1   1   3  391.57   13.83
  -1   1   3  369.51   12.93
  -1   1   4    9.33    3.74
  -1   1   4    2.24    3.74
  -1   1   4    8.81    4.49
  -1   1   5  156.26   11.41
  -1   1   5  138.23   10.08
  -1   1   6  309.56   17.40
  -1   1   6  283.91   15.55
  -1   1   7   13.87    6.68
  -1   1   8    1.43    5.44
  -1   1   9   29.57    8.65
  -1   1  10   16.45    8.09
  -1   2 -10    8.13    7.71
  -1   2  -9   57.39   10.53
  -1   2  -8   23.60    7.38
  -1   2  -7    3.84    4.57
  -1   2  -6   -1.83    4.88
  -1   2  -5   24.23    5.77
  -1   2  -4    1.58    3.85
  -1   2  -3  272.39   11.32
  -1   2  -2   80.14    5.51
  -1   2  -1  499.40    9.28
  -1   2   0  566.25   16.05
  -1   2   1  442.37   14.62
  -1   2   1  429.14    9.32
  -1   2   2    2.49    2.39
  -1   2   2    5.36    3.05
  -1   2   2   -1.35    3.98
  -1   2   3   33.14    5.07
  -1   2   3   32.12    4.63
  -1   2   3   28.52    5.30
  -1   2   4   53.92    6.74
  -1   2   4   57.33    6.45
  -1   2   4   66.02    7.69
  -1   2   5   25.07    5.90
  -1   2   6   -1.80    4.76
  -1   2   7    1.19    5.11
  -1   2   8    3.53    5.58
  -1   2   9   44.02   10.00
  -1   3 -10   16.46    8.13
  -1   3  -9    7.11    6.23
  -1   3  -8    6.16    6.17
  -1   3  -7   48.67    8.69
  -1   3  -6   41.17    7.22
  -1   3  -5  585.22   20.67
  -1   3  -4  153.58    9.71
  -1   3  -3    1.73    2.41
  -1   3  -2  313.14    8.93
  -1   3  -1   32.37    5.25
  -1   3  -1   36.60    2.13
  -1   3   0   -0.44    3.12
  -1   3   1    6.94    1.74
  -1   3   1    6.50    3.84
  -1   3   1    8.63    2.04
  -1   3   2   44.93    6.58
  -1   3   2   43.68    4.48
  -1   3   2   44.98    4.44
  -1   3   3   38.23    5.35
  -1   3   3   45.49    5.24
  -1   3   4   69.66    7.67
  -1   3   4   76.21    7.59
  -1   3   5   22.00    5.79
  -1   3   6   42.73    7.77
  -1   3   7  150.65   14.16
  -1   3   8   46.52    9.30
  -1   3   9   24.63    8.04
  -1   4  -9   73.17   11.41
  -1   4  -8   29.99    7.60
  -1   4  -7   41.16    8.05
  -1   4  -6  344.15   17.32
  -1   4  -5  188.11   11.44
  -1   4  -4   43.74    5.59
  -1   4  -3   29.35    3.94
  -1   4   1  155.23    5.82
  -1   4   1  158.16    5.61
  -1   4   2  449.59   13.01
  -1   4   2  442.94   12.71
  -1   4   3  186.76   10.38
  -1   4   3  192.21   10.14
  -1   4   4   14.34    4.00
  -1   4   4   12.78    4.50
  -1   4   5  188.22   13.45
  -1   4   6    8.35    5.22
  -1   4   7   -3.51    4.86
  -1   4   8   14.46    6.55
  -1   5   1  296.16    7.22
  -1   5   1  311.27    8.10
  -1   5   2   11.62    3.04
  -1   5   2   10.56    2.57
  -1   5   3   29.45    4.72
  -1   5   3   23.45    4.02
  -1   5   4   70.11    7.95
  -1   5   5    2.34    4.07
  -1   5   6    1.11    4.15
   0  -9   5   19.97    8.94
   0  -9   6   14.62    8.41
   0  -9   7   -2.22    5.71
   0  -8   0   -9.56    9.43
   0  -8   1   19.09    9.90
   0  -8   2    2.28    9.01
   0  -8   3   22.19    9.87
   0  -8   4   15.38    8.71
   0  -8   5   15.86    8.19
   0  -8   6   31.99    9.24
   0  -8   7   43.71   10.15
   0  -8   8   39.99    9.35
   0  -7  -3   38.58   13.53
   0  -7  -2   30.53   12.38
   0  -7  -1   17.03   10.19
   0  -7   0   -3.00    8.86
   0  -7   1   26.67    8.55
   0  -7   2  168.09   18.37
   0  -7   3  203.06   18.77
   0  -7   4  208.56   18.40
   0  -7   5   75.85   11.72
   0  -7   6   -3.20    6.10
   0  -7   7   25.43    7.48
   0  -7   8    7.49    5.97
   0  -6  -5    7.55    9.61
   0  -6  -4   33.95   11.56
   0  -6  -3   54.26   13.63
   0  -6  -2   16.91   10.86
   0  -6  -1   77.87   14.29
   0  -6   0  227.83   18.86
   0  -6   1  216.45   17.71
   0  -6   2   41.40   10.15
   0  -6   3  125.59    6.76
   0  -6   3  105.47    4.72
   0  -6   3  114.43   13.49
   0  -6   4    2.16    2.08
   0  -6   4   -4.14    6.82
   0  -6   4   -0.29    2.86
   0  -6   5   -1.16    3.47
   0  -6   5    1.10    2.38
   0  -6   5   -6.78    6.71
   0  -6   6    4.02    5.33
   0  -6   6    3.02    4.07
   0  -6   7    2.12    4.62
   0  -6   7    0.34    4.43
   0  -6   8  112.23   12.38
   0  -6   8   98.33   11.27
   0  -6   9   75.20   10.38
   0  -6   9   66.58   10.44
   0  -6  10   44.44    9.50
   0  -5  -6   46.58    8.33
   0  -5  -6   87.52   15.06
   0  -5  -5   12.68    9.49
   0  -5  -5   16.35    5.40
   0  -5  -4    6.64    8.39
   0  -5  -4    7.90    4.11
   0  -5  -3  258.48   13.34
   0  -5  -3  270.05   21.84
   0  -5  -2   68.29   12.79
   0  -5  -2   57.80    5.79
   0  -5  -1   38.67    9.37
   0  -5  -1   48.11    4.36
   0  -5   0   26.00    7.04
   0  -5   0   38.93    2.80
   0  -5   1   18.31    8.16
   0  -5   2   22.41    2.84
   0  -5   2   22.68    7.42
   0  -5   2   16.25    1.91
   0  -5   2   18.31    1.77
   0  -5   3   10.41    2.29
   0  -5   3    2.46    5.46
   0  -5   3   13.54    3.30
   0  -5   4  290.45   17.19
   0  -5   4  285.04   11.64
   0  -5   4  303.13   12.60
   0  -5   5   73.14    9.01
   0  -5   5   58.97    7.25
   0  -5   5   56.58    6.41
   0  -5   6  170.03   13.05
   0  -5   6  144.36   11.50
   0  -5   7  184.82   14.34
   0  -5   7  159.33   13.15
   0  -5   8   59.84    8.67
   0  -5   8   57.64    9.46
   0  -5   9    7.69    6.17
   0  -5   9    4.08    3.77
   0  -5  10   32.88    8.75
   0  -4  -7   71.63   10.78
   0  -4  -6    0.96    4.57
   0  -4  -5   32.98   10.86
   0  -4  -5   37.23    7.24
   0  -4  -4   24.51    9.83
   0  -4  -4   24.51    5.69
   0  -4  -3   27.81   10.42
   0  -4  -3    5.78    3.68
   0  -4  -2  125.51    7.94
   0  -4  -2  130.31   13.82
   0  -4  -1   -3.03    7.42
   0  -4  -1    5.20    2.05
   0  -4   0   34.64    7.97
   0  -4   0   38.12    2.64
   0  -4   1    7.73    5.74
   0  -4   2  213.77    6.53
   0  -4   2  230.56    7.78
   0  -4   2  225.95   14.12
   0  -4   3   47.68    7.27
   0  -4   3   37.94    4.48
   0  -4   3   39.94    4.11
   0  -4   4  246.33   13.80
   0  -4   4  232.58   11.41
   0  -4   4  250.96   11.28
   0  -4   5   92.06    9.03
   0  -4   5   78.79    8.13
   0  -4   5   85.12    7.96
   0  -4   6   36.65    6.84
   0  -4   6   39.58    6.60
   0  -4   7    6.47    4.96
   0  -4   8   72.39   10.32
   0  -4   9    5.36    5.93
   0  -4  10   26.65    8.36
   0  -3  -8   44.31    9.35
   0  -3  -7    2.58    4.81
   0  -3  -6    2.01    4.93
   0  -3  -5    4.51    4.55
   0  -3  -5    1.92    7.67
   0  -3  -4   39.12   10.20
   0  -3  -4   18.61    5.23
   0  -3  -3   34.74    9.67
   0  -3  -3   10.14    3.78
   0  -3  -2  245.71   10.43
   0  -3  -2  230.01   15.53
   0  -3  -1   76.06    8.76
   0  -3  -1   90.70    5.23
   0  -3   0   74.66    3.35
   0  -3   0   78.10    9.13
   0  -3   1   15.46    2.28
   0  -3   1   12.00    5.61
   0  -3   2   68.37    7.32
   0  -3   2   62.61    4.51
   0  -3   2   57.44    3.94
   0  -3   3   42.77    5.73
   0  -3   3   37.89    4.59
   0  -3   3   42.79    4.54
   0  -3   4   10.27    3.26
   0  -3   4   13.61    4.09
   0  -3   4    8.98    3.65
   0  -3   5  318.47   14.93
   0  -3   5  318.44   15.12
   0  -3   6    4.84    4.72
   0  -3   7   17.33    6.00
   0  -3   8   93.81   11.79
   0  -3   9   34.28    8.30
   0  -3  10    3.56    5.95
   0  -2  -8    3.20    5.99
   0  -2  -7   -0.01    4.71
   0  -2  -6   23.31    6.95
   0  -2  -5   78.92    9.28
   0  -2  -4  128.61   10.13
   0  -2  -4  136.47   12.72
   0  -2  -3   96.99    7.92
   0  -2  -3   97.81   10.24
   0  -2  -2  469.42   13.49
   0  -2  -2  460.15   18.27
   0  -2  -1 1776.89   19.90
   0  -2  -1 1668.24   29.71
   0  -2   0  115.34    8.68
   0  -2   1  111.91    4.15
   0  -2   1   97.64    6.75
   0  -2   2   28.91    3.64
   0  -2   2   32.23    4.47
   0  -2   2   34.25    3.47
   0  -2   3   58.64    5.86
   0  -2   3   60.13    5.49
   0  -2   4   18.15    3.86
   0  -2   4   15.84    4.50
   0  -2   5   34.78    5.92
   0  -2   7   56.81    9.14
   0  -2   8  101.36   12.48
   0  -2   9   13.70    6.70
   0  -2  10   28.51    8.97
   0  -1  -9   15.80    7.48
   0  -1  -8   22.09    7.84
   0  -1  -7  284.85   18.93
   0  -1  -6  279.57   17.19
   0  -1  -5  194.27   13.24
   0  -1  -4   44.12    6.73
   0  -1  -3    1.59    4.15
   0  -1  -2  183.82    8.49
   0  -1  -2  179.89   10.24
   0  -1   2  715.51   14.11
   0  -1   3   87.12    6.65
   0  -1   4  534.29   17.77
   0  -1   9   48.05    9.81
   0  -1  10    9.36    7.10
   0   0  -9   61.79   11.46
   0   0  -8   14.50    6.94
   0   0  -7   98.45   11.58
   0   0  -6   45.56    8.23
   0   0  -5    0.55    4.54
   0   0  -4   34.01    5.93
   0   0  -3  195.12   10.35
   0   0   2   25.04    3.37
   0   0   3  204.69    9.98
   0   0   4   34.11    5.51
   0   0   5    6.05    5.00
   0   0   6   49.77    8.16
   0   0  10   42.86   10.03
   0   1  -8   37.96    8.78
   0   1  -7   25.75    7.38
   0   1  -6  319.27   17.52
   0   1  -5  248.36   13.92
   0   1  -4  534.69   17.75
   0   1  -3   92.14    7.33
   0   1  -2  718.23   14.19
   0   1   2  189.92    8.35
   0   1   2  175.54    9.91
   0   1   3   11.83    5.53
   0   1   3    5.47    3.22
   0   1   4   41.86    5.90
   0   1   4   44.04    7.60
   0   1   5  200.91   14.00
   0   2  -7   80.99   10.31
   0   2  -6   69.95    9.13
   0   2  -5   24.80    5.50
   0   2  -4   18.56    5.16
   0   2  -3   69.48    6.17
   0   2  -1  110.41    6.77
   0   2  -1  103.25    4.00
   0   2   0   96.28    4.02
   0   2   0  103.05    7.62
   0   2   1 1645.48   19.42
   0   2   1 1696.96   29.50
   0   2   2  462.90   13.31
   0   2   2  464.60   17.35
   0   2   3  101.55    7.63
   0   2   3   82.76    8.71
   0   2   4  132.77    9.93
   0   3  -2   67.18    6.63
   0   3  -2   56.08    4.22
   0   3  -1   14.72    4.26
   0   3  -1   14.34    2.17
   0   3   0   65.15    4.09
   0   3   0   71.96    7.37
   0   3   1   80.20    5.00
   0   3   1   85.82    8.85
   0   3   2  247.23   10.29
   0   3   2  256.78   15.04
   0   3   3   10.40    3.36
   0   4  -2  234.40   13.20
   0   4  -2  209.52    7.36
   0   4  -1    6.22    4.09
   0   4  -1    3.71    1.71
   0   4   0   34.27    3.43
   0   4   1    4.16    1.99
   0   4   2  126.12    7.86
   0   4   3    8.00    3.38
   0   5  -2   20.00    2.63
   0   5  -1    2.95    1.52
   0   5   0   38.32    3.83
   0   5   1   45.67    4.88
   0   5   2   53.29    5.63
   0   5   3  239.13   12.67
   0   6  -2   25.67    2.76
   0   6  -1  182.92    6.80
   0   6   0  243.94    8.89
   1  -8   0  -32.72   11.79
   1  -8   1   67.44   14.32
   1  -8   2   71.47   13.43
   1  -8   3   12.62    8.63
   1  -8   4   37.49   10.30
   1  -8   5    1.54    6.67
   1  -8   6   70.32   12.86
   1  -8   7   -4.67    6.79
   1  -8   8   39.36    9.68
   1  -8   9   16.90    7.26
   1  -7  -3   15.98   10.53
   1  -7  -2   15.39    9.44
   1  -7  -1  -16.30   10.64
   1  -7   0   -5.88    7.64
   1  -7   1   32.05   10.29
   1  -7   2   -2.68    6.83
   1  -7   3   26.12    8.64
   1  -7   4   -3.70    7.33
   1  -7   5  -10.84    8.92
   1  -7   6   34.69    8.89
   1  -7   7   97.29   13.19
   1  -7   8   98.87   13.01
   1  -7   9   49.93    9.86
   1  -6  -5   -2.76    8.57
   1  -6  -4   28.87   11.65
   1  -6  -3    5.28    8.80
   1  -6  -2    0.82    8.34
   1  -6  -1  -25.97   12.31
   1  -6   0   56.22   11.74
   1  -6   1   63.81   11.52
   1  -6   2   39.21    9.84
   1  -6   3   50.15    9.56
   1  -6   4  136.93   14.17
   1  -6   4  112.71    6.87
   1  -6   5  249.73   18.16
   1  -6   5  207.98   11.16
   1  -6   6    9.59    5.58
   1  -6   6   10.27    4.27
   1  -6   7    1.16    4.45
   1  -6   7    3.88    4.34
   1  -6   8    5.33    5.10
   1  -6   8   -3.18    5.02
   1  -6   9    1.76    4.53
   1  -6   9    3.74    5.04
   1  -6  10    2.58    5.13
   1  -6  10    1.69    4.31
   1  -5  -7   15.06    9.77
   1  -5  -6    3.74    8.51
   1  -5  -5   -2.09    8.24
   1  -5  -4   76.30   14.03
   1  -5  -3   33.95   10.32
   1  -5  -2   -7.71    9.75
   1  -5  -1  362.01   22.04
   1  -5   0  177.54   15.59
   1  -5   1   49.60    8.96
   1  -5   2   -7.51    7.20
   1  -5   3   58.22    8.93
   1  -5   3   55.90    4.04
   1  -5   3   59.46    4.31
   1  -5   4  151.98   13.25
   1  -5   4  150.91    8.58
   1  -5   4  143.92    8.10
   1  -5   5   27.92    4.82
   1  -5   5   30.82    5.40
   1  -5   5   36.19    7.48
   1  -5   6   26.83    5.91
   1  -5   6   32.38    7.45
   1  -5   7    2.53    4.39
   1  -5   7    0.78    4.83
   1  -5   8    2.02    4.77
   1  -5   9   72.47   10.83
   1  -5  10  110.60   13.93
   1  -4  -6   12.41    8.90
   1  -4  -5  175.26   17.81
   1  -4  -4   34.20   10.60
   1  -4  -3  201.70   16.66
   1  -4  -2  403.96   21.30
   1  -4  -1  159.18   13.90
   1  -4   0   24.04    6.99
   1  -4   1   15.64    5.14
   1  -4   2  125.05   11.10
   1  -4   2  119.19    4.79
   1  -4   2  115.99    4.43
   1  -4   3   23.02    6.00
   1  -4   3   28.76    3.73
   1  -4   3   27.87    3.55
   1  -4   4   31.55    4.67
   1  -4   4   44.42    7.14
   1  -4   4   36.59    5.00
   1  -4   5  180.31   11.43
   1  -4   8   24.39    7.07
   1  -4   9   61.61   10.38
   1  -4  10   17.83    6.87
   1  -3  -6   56.08   10.94
   1  -3  -5   29.09    8.95
   1  -3  -4   76.67   11.46
   1  -3  -3   41.02    8.28
   1  -3  -2   20.88    5.74
   1  -3  -1   15.02    6.32
   1  -3   0   -4.47    5.36
   1  -3   1   36.55    6.73
   1  -3   2  322.21   14.54
   1  -3   2  330.10    9.32
   1  -3   3    4.98    2.48
   1  -3   4  158.40    9.65
   1  -3  10   10.81    6.76
   1  -2  -5   28.67    8.14
   1  -2  -4   70.09    9.25
   1  -2  -3   27.38    6.36
   1  -2  -2   -4.83    5.32
   1  -2  -1  439.50   15.45
   1  -2   0  559.89   16.16
   1  -2   1  488.14   15.36
   1  -2   1  480.06    9.77
   1  -2   2   80.25    5.25
   1  -2   3  284.59   11.43
   1  -2   4    3.96    3.24
   1  -1  -4   11.66    5.06
   1  -1  -3  387.88   13.84
   1  -1  -2   -4.87    4.54
   1  -1  -1   37.35    3.80
   1  -1  -1   40.49    3.38
   1  -1   1    4.00    2.12
   1  -1   2  695.89   15.90
   1  -1   3    4.20    3.14
   1  -1   4   26.55    5.11
   1   0  -2  350.70   10.93
   1   0  -2  352.13    6.69
   1   0   2  528.15   14.91
   1   0   3   55.06    5.95
   1   0   4  227.28   12.84
   1   1  -3  181.82    9.45
   1   1  -2 1204.94   20.31
   1   1   0  681.86   15.36
   1   1   1 1343.09   21.41
   1   1   1 1305.14   24.55
   1   1   2   95.62    7.37
   1   1   2  101.47    9.43
   1   1   3   27.93    7.21
   1   1   3   17.44    4.52
   1   2  -4  331.82   13.85
   1   2  -3  228.54   10.54
   1   2  -2  690.34   14.44
   1   2  -2  686.93   16.13
   1   2  -1    7.87    4.18
   1   2  -1    3.29    3.10
   1   2   0  141.00    7.70
   1   2   0  152.58    9.59
   1   2   1  468.86   13.97
   1   2   1  472.31   17.71
   1   2   2  525.36   16.53
   1   2   2  500.25   20.10
   1   2   3  105.23    8.59
   1   3  -4  184.61   10.81
   1   3  -3  397.39   13.21
   1   3  -3  374.15   13.84
   1   3  -2    0.77    3.41
   1   3  -2    3.47    2.82
   1   3  -1   26.48    5.11
   1   3  -1   26.09    4.16
   1   3   0  115.11    7.48
   1   3   0  128.24   10.29
   1   3   1  236.62   10.74
   1   3   1  208.94   13.42
   1   3   2  739.15   20.72
   1   3   3   40.63    6.05
   1   4  -5    0.95    3.26
   1   4  -4   52.92    6.10
   1   4  -3   -1.04    2.76
   1   4  -3    1.85    2.58
   1   4  -2    0.36    3.62
   1   4  -2    0.88    2.69
   1   4  -1   49.97    5.50
   1   4  -1   53.63    7.32
   1   4   0  311.21   12.75
   1   4   1   -0.33    3.01
   1   4   1    4.85    3.22
   1   4   2   41.23    5.66
   1   5  -5   36.46    5.97
   1   5  -4   77.73    7.43
   1   5  -3   66.96    6.47
   1   5  -2  246.89   11.27
   1   5  -1  119.78    8.03
   1   5   0   12.84    3.95
   1   5   1   61.86    7.00
   1   5   2    2.74    3.40
   1   6  -4   13.69    3.93
   1   6  -3   35.68    5.02
   1   6  -2    7.34    3.14
   1   6  -1    3.48    2.80
   1   6   0   -0.35    2.72
   2  -8   0   12.58    8.91
   2  -8   1   73.68   14.35
   2  -8   2   53.75   12.48
   2  -8   3   93.52   15.21
   2  -8   4  138.74   17.94
   2  -8   5   29.52    9.24
   2  -8   6    6.62    6.93
   2  -7  -3    4.08    8.80
   2  -7  -2  -16.11   11.08
   2  -7  -1  149.63   17.88
   2  -7   0   91.87   14.40
   2  -7   1    9.42    7.69
   2  -7   2   45.09   10.42
   2  -7   3   -1.64    8.21
   2  -7   4    3.45    5.79
   2  -7   5    5.50    5.83
   2  -7   6    1.10    5.95
   2  -7   7    0.35    5.22
   2  -7   8   37.40    9.93
   2  -6  -6    2.57    8.71
   2  -6  -5   13.70   10.26
   2  -6  -4   45.07   11.73
   2  -6  -3   18.72    9.13
   2  -6  -2   12.37    7.32
   2  -6  -1   72.09   12.88
   2  -6   0   24.67    9.04
   2  -6   1   29.54    9.00
   2  -6   2   10.35    6.83
   2  -6   3    8.32    6.09
   2  -6   4   37.69    9.02
   2  -6   5   52.27    9.85
   2  -6   6  150.62   15.54
   2  -6   6  114.25    9.67
   2  -6   7   18.51    5.50
   2  -6   7   15.55    6.51
   2  -6   8    0.95    4.43
   2  -6   8    5.29    5.41
   2  -6   9   15.51    6.57
   2  -5  -8   53.23   12.53
   2  -5  -7    9.00    8.66
   2  -5  -6    0.70    8.44
   2  -5  -5   31.29   11.19
   2  -5  -4   41.76   10.79
   2  -5  -3   -9.12    9.88
   2  -5  -2   24.99    9.20
   2  -5  -1   12.89    7.40
   2  -5   0   -8.95    7.93
   2  -5   1   18.34    7.01
   2  -5   2   15.19    6.91
   2  -5   3   46.57    9.05
   2  -5   3   41.49    3.85
   2  -5   3   51.81    4.99
   2  -5   4   70.02   10.34
   2  -5   4   52.47    5.81
   2  -5   5  116.63   12.96
   2  -5  10    4.18    4.91
   2  -4  -7    2.89    7.57
   2  -4  -6   -0.83    7.53
   2  -4  -5   16.98    8.48
   2  -4  -4   -8.24    8.17
   2  -4  -3   47.64    8.16
   2  -4  -2   10.13    7.06
   2  -4  -1   82.31   10.44
   2  -4   0  301.13   17.60
   2  -4   1  303.02   17.02
   2  -4   1  264.91    6.27
   2  -4   2  126.86   11.80
   2  -4   2  128.87    6.07
   2  -4   3    0.13    5.35
   2  -4   3    3.44    2.57
   2  -4   4   45.11    5.73
   2  -3  -7   38.61    9.50
   2  -3  -6   17.61    8.32
   2  -3  -5  126.94   13.17
   2  -3  -4  136.20   12.85
   2  -3  -3  483.48   20.88
   2  -3  -2  512.52   20.93
   2  -3  -1  121.84    5.89
   2  -3  -1  105.79    9.80
   2  -3   0   19.69    5.52
   2  -3   0   21.25    2.66
   2  -3   1   67.60    7.88
   2  -3   1   74.24    4.79
   2  -3   2   19.35    3.65
   2  -3   3    9.92    3.26
   2  -3   4    4.35    3.27
   2  -2  -6  181.26   14.27
   2  -2  -5   61.69    9.70
   2  -2  -4   21.31    5.49
   2  -2  -3   10.39    5.65
   2  -2  -2    1.10    3.89
   2  -2  -2    3.56    2.49
   2  -2  -1  111.35    8.42
   2  -2  -1  115.37    6.48
   2  -2   0  118.88    8.80
   2  -2   0  110.81    6.20
   2  -2   1  671.26   15.46
   2  -2   2  471.24   15.25
   2  -2   3  311.99   14.00
   2  -1  -5   23.47    5.62
   2  -1  -4   17.60    4.57
   2  -1  -3    8.94    3.71
   2  -1  -3    4.64    3.14
   2  -1  -2   21.88    3.98
   2  -1  -2   21.41    4.16
   2  -1  -1 2175.08   29.12
   2  -1   0 1816.69   26.00
   2  -1   2  109.24    8.05
   2  -1   3   84.19    8.01
   2   0  -4    1.54    2.18
   2   0  -4    1.68    3.10
   2   0  -3   84.14    7.47
   2   0  -3   88.72    4.27
   2   0  -2  883.67   20.74
   2   0  -1    1.99    3.29
   2   0   0  691.89   18.37
   2   0   1    6.44    4.26
   2   0   2    2.17    3.35
   2   0   3    0.39    3.36
   2   1  -4   82.36    8.24
   2   1  -3   15.59    4.52
   2   1  -2   14.05    4.32
   2   1  -2   20.66    3.31
   2   1  -1  288.30   12.38
   2   1   0   -0.29    4.02
   2   1   1  456.71   16.20
   2   1   2  269.22   13.58
   2   2  -4   79.74    8.11
   2   2  -3   10.76    2.45
   2   2  -3   11.76    4.14
   2   2  -2   11.48    3.35
   2   2  -2   17.34    4.65
   2   2  -1  227.31   11.58
   2   2  -1  237.13   11.58
   2   2   0  101.28    8.65
   2   2   0  126.14   10.41
   2   2   1  112.78    8.79
   2   2   1  110.23    8.92
   2   2   1  102.10    9.76
   2   2   2  301.70   14.90
   2   3  -4  442.14   12.47
   2   3  -4  475.91   18.55
   2   3  -3  507.36   18.28
   2   3  -3  494.40   15.38
   2   3  -2  396.71   15.90
   2   3  -2  393.77   15.12
   2   3  -1  143.02    9.88
   2   3  -1  144.91   10.46
   2   3   0   14.22    5.36
   2   3   0   15.09    4.37
   2   3   1   33.09    5.73
   2   4  -4   83.75    7.30
   2   4  -3   38.12    5.73
   2   4  -3   37.55    6.07
   2   4  -2    5.43    3.55
   2   4  -2    8.93    4.43
   2   4  -1   68.38    7.51
   2   4   0   78.94    8.49
   2   5  -5   18.53    4.53
   2   5  -3   54.90    7.20
   2   5  -2  198.91   12.32
   2   5  -1  282.64   14.71
   3  -7  -3  -16.37   10.29
   3  -7  -2   19.91   10.23
   3  -7  -1   20.35    8.94
   3  -7   0   11.93    8.16
   3  -7   1    7.92    6.78
   3  -7   2   25.43    8.77
   3  -7   3   54.49   11.59
   3  -7   4   62.85   11.96
   3  -7   5  110.57   15.20
   3  -7   6   38.69    9.84
   3  -6  -6   17.42    9.37
   3  -6  -5   -0.36    7.05
   3  -6  -4    6.87    7.67
   3  -6  -3   -4.56    8.01
   3  -6  -2   28.34    9.57
   3  -6  -1  120.67   15.14
   3  -6   0   84.97   13.42
   3  -6   1   -1.13    6.13
   3  -6   2   18.44    8.37
   3  -6   3  155.20   16.31
   3  -6   4   21.76    7.97
   3  -6   5   -0.55    5.93
   3  -6   6   18.68    7.95
   3  -6   7   -5.53    6.16
   3  -5  -7    6.41    7.65
   3  -5  -6   44.06   11.01
   3  -5  -5   16.03    8.19
   3  -5  -4   -3.94    8.33
   3  -5  -3  218.72   18.89
   3  -5  -2   96.69   13.35
   3  -5  -1   -9.21    7.45
   3  -5   0   28.51    7.82
   3  -5   1   22.88    7.80
   3  -5   2   -0.78    5.74
   3  -5   3    2.04    5.19
   3  -5   4    5.84    5.75
   3  -4  -7   54.93   11.26
   3  -4  -6   27.44    9.24
   3  -4  -5   -2.36    6.86
   3  -4  -4   -4.53    8.76
   3  -4  -3    5.54    6.77
   3  -4  -2    4.97    6.08
   3  -4  -1   80.70   10.52
   3  -4  -1   74.65    5.42
   3  -4   0    2.18    5.30
   3  -4   0    1.25    2.17
   3  -4   1  119.52   12.16
   3  -4   1  111.08    6.87
   3  -4   2    5.03    4.72
   3  -4   2   13.26    3.52
   3  -3  -7    0.14    6.14
   3  -3  -6   17.18    7.95
   3  -3  -5   -5.70    6.91
   3  -3  -4   18.07    7.50
   3  -3  -3   -0.19    2.85
   3  -3  -3   -1.34    4.66
   3  -3  -2  108.10    7.79
   3  -3  -2  104.59   10.09
   3  -3  -1  169.13   12.41
   3  -3  -1  164.76    8.97
   3  -3   0  184.71   13.19
   3  -3   0  192.40    9.58
   3  -3   1  267.07   11.71
   3  -3   2  143.89    9.49
   3  -2  -7  108.64   11.38
   3  -2  -6  163.54   13.18
   3  -2  -5   56.30    7.85
   3  -2  -4   37.61    6.42
   3  -2  -3  134.53    9.80
   3  -2  -3  141.33   10.13
   3  -2  -2  118.10    9.36
   3  -2  -2  122.00    8.65
   3  -2  -1  244.60   13.22
   3  -2  -1  259.20   12.01
   3  -2   0    3.66    3.24
   3  -2   1    3.16    3.23
   3  -1  -6   71.09    7.54
   3  -1  -5   66.65    6.84
   3  -1  -4   33.56    4.89
   3  -1  -3   30.23    4.57
   3  -1  -3   20.95    4.78
   3  -1  -2  148.25    8.72
   3  -1  -2  148.15    9.85
   3  -1  -1  434.10   16.38
   3  -1   0   11.32    4.12
   3  -1   1   99.17    8.54
   3   0  -5  119.08    5.78
   3   0  -4   51.83    3.96
   3   0  -3  120.20    6.05
   3   0  -3  116.54    9.72
   3   0  -2  238.39   13.06
   3   0  -1   66.43    7.30
   3   0   0  743.43   22.30
   3   0   1   62.78    7.28
   3   1  -2   36.78    6.05
   3   1  -1   36.90    6.11
   3   1   0   30.60    5.93
   3   2  -4  255.90    7.09
   3   2  -3   17.84    3.69
   3   2  -2  123.30    8.92
   3   2  -1   11.75    4.91
   3   2   0    0.85    5.10
   3   3  -4    0.32    2.19
   3   3  -3    7.20    3.48
   3   3  -2   -3.45    4.00
   3   3  -1  137.31   11.72
   3   4  -5   61.28    5.66
   3   4  -4   63.49    6.88
   3   4  -3  295.18   15.21
   3   5  -5   15.98    4.06
   4  -7  -2   67.88   13.77
   4  -7  -1   23.63    9.65
   4  -7   0   -2.68    7.44
   4  -7   1   17.97    7.90
   4  -7   2   -0.81    5.69
   4  -7   3   20.82    8.86
   4  -6  -5   -0.28    7.30
   4  -6  -4  -31.87   10.24
   4  -6  -3   19.28    8.96
   4  -6  -2   13.85    7.94
   4  -6  -1   -1.83    7.39
   4  -6   0  -15.38    8.69
   4  -6   1   22.42    8.03
   4  -6   2    8.06    6.29
   4  -6   3  133.78   15.82
   4  -6   4  100.44   14.17
   4  -6   5   66.75   12.17
   4  -5  -6   13.17    8.72
   4  -5  -5   -6.77    8.06
   4  -5  -4   15.89    8.22
   4  -5  -3   15.02    7.60
   4  -5  -2   27.11    8.36
   4  -5  -1  136.96   15.08
   4  -5   0  169.85   16.24
   4  -5   1  243.86   19.11
   4  -5   2   24.52    7.73
   4  -5   3   11.73    6.60
   4  -4  -6   13.21    7.04
   4  -4  -5   97.35   12.30
   4  -4  -4   55.56    9.98
   4  -4  -3   99.27   12.12
   4  -4  -2  145.48   13.85
   4  -4  -1   40.77    8.25
   4  -4  -1   33.73    5.12
   4  -4   0   11.15    3.82
   4  -4   0   10.21    6.00
   4  -4   1    3.72    5.58
   4  -4   1    2.57    3.15
   4  -4   2    5.62    3.71
   4  -3  -6   28.37    7.77
   4  -3  -5   23.33    6.14
   4  -3  -4   10.89    6.23
   4  -3  -3   33.50    6.70
   4  -3  -2   11.66    5.78
   4  -3  -2    8.36    4.02
   4  -3  -1   -1.73    4.90
   4  -3  -1    0.96    3.36
   4  -3   0   38.59    7.30
   4  -3   0   42.50    6.28
   4  -3   1   61.17    7.75
   4  -2  -6    1.36    4.61
   4  -2  -5   16.61    5.96
   4  -2  -4   11.53    4.81
   4  -2  -3   40.16    6.50
   4  -2  -2   55.22    7.53
   4  -2  -1  679.94   22.76
   4  -1  -6   81.46    7.43
   4  -1  -5   63.44    6.69
   4  -1  -4    5.66    3.14
   4  -1  -3  353.65   14.46
   4   0  -6   95.13    4.83
   4   0  -5  230.90    8.42
   4   0  -4  196.20    8.58
   4   2  -4  360.88   12.05
   4   2  -3  356.41   14.95
   4   2  -2  194.71   12.60
   4   3  -5   43.12    3.91
   4   3  -4   13.99    3.95
   4   3  -3    4.31    3.78
   4   4  -4    1.99    3.22
   5  -6  -4   16.19    7.89
   5  -6  -3   35.10   10.40
   5  -6  -2   37.37   10.37
   5  -6  -1  -13.08    8.75
   5  -6   0   16.96    7.84
   5  -6   1   -3.04    5.82
   5  -6   2   12.12    7.10
   5  -6   3    7.10    6.42
   5  -5  -5   15.88    7.07
   5  -5  -4   10.49    7.10
   5  -5  -3   25.47    8.49
   5  -5  -2   -0.34    6.07
   5  -5  -1    6.45    6.38
   5  -5   0    8.43    6.44
   5  -5   1   44.84    9.96
   5  -5   2   -2.93    6.25
   5  -5   3   63.92   11.70
   5  -4  -5   35.98    8.66
   5  -4  -4    4.12    5.55
   5  -4  -3   -5.10    6.98
   5  -4  -2   18.66    7.03
   5  -4  -1  211.29   17.29
   5  -4   0  109.37   12.99
   5  -4   1   95.64   12.80
   5  -3  -5   54.98    9.38
   5  -3  -4  111.80   11.84
   5  -3  -3   67.94    9.95
   5  -3  -2   30.85    7.26
   5  -3  -1   59.16    8.94
   5  -2  -5   20.20    5.47
   5  -2  -4   65.20    8.09
   5  -2  -3    4.74    4.18
   5  -2  -2   33.49    6.77
   5  -1  -5    5.06    3.39
   5  -1  -4   15.97    4.45
   5  -1  -3  118.04    9.77
   5   0  -5  110.67    7.19
   5   0  -4   26.50    4.36
   5   2  -3   11.81    5.44
   6  -5  -3    6.09    6.50
   6  -5  -2   15.30    6.39
   6  -5  -1   10.48    6.86
   6  -5   0   -2.14    5.59
   6  -5   1    0.08    5.68
   6  -4  -3    1.52    5.13
   6  -4  -2   31.13    8.27
   6  -4  -1   -0.83    5.40
   6  -4   0   -3.58    5.64
   6  -4   1   44.59    9.92
   6  -3  -3   17.42    6.64
   6  -3  -2   28.16    7.30
   6  -3  -1   54.51    9.74
   6  -2  -3  364.15   19.92
   6  -2  -2   52.23    8.60
   7  -4  -2   14.85    6.75
   7  -4  -1    7.20    6.31
   7  -4   0    0.25    5.58
   7  -3  -2    0.24    4.63
   7  -3  -1   23.25    7.75
   7  -2  -2   -2.47    5.14
   0   0   0    0.00    0.00
;
_shelx_hkl_checksum              16013
loop_
_space_group_symop_operation_xyz
'x, y, z'
'-x, -y, -z'
loop_
_atom_site_label
_atom_site_type_symbol
_atom_site_fract_x
_atom_site_fract_y
_atom_site_fract_z
_atom_site_U_iso_or_equiv
_atom_site_adp_type
_atom_site_occupancy
_atom_site_site_symmetry_order
_atom_site_calc_flag
_atom_site_refinement_flags_posn
_atom_site_refinement_flags_adp
_atom_site_refinement_flags_occupancy
Cu1 Cu 0.5000 0.0000 0.5000 0.0209(3) Uani 1 2 d S . P
Cl1 Cl 0.1678(2) 0.33632(16) 0.59374(15) 0.0280(4) Uani 1 1 d . . .
O1 O 0.2046(5) 0.1630(4) 0.5020(3) 0.0257(9) Uani 1 1 d . . .
O2 O 0.2955(6) 0.4659(4) 0.5698(4) 0.0396(11) Uani 1 1 d . . .
O3 O 0.2334(6) 0.3407(4) 0.7418(4) 0.0369(11) Uani 1 1 d . . .
N1 N 0.7859(6) 0.4467(5) 0.7827(5) 0.0188(11) Uani 1 1 d . . .
N2 N 0.7950(7) 0.3516(5) 0.8701(5) 0.0250(12) Uani 1 1 d . . .
N3 N 0.7194(7) 0.1990(5) 0.7923(5) 0.0261(12) Uani 1 1 d . . .
N4 N 0.6632(6) 0.1948(5) 0.6552(4) 0.0175(11) Uani 1 1 d . . .
N5 N 0.7384(7) 0.1324(5) 0.1945(5) 0.0285(12) Uani 1 1 d . . .
N6 N 0.5515(7) 0.1891(5) 0.1859(4) 0.0214(11) Uani 1 1 d . . .
N7 N 0.4586(7) 0.1679(5) 0.2813(5) 0.0250(11) Uani 1 1 d . . .
N8 N 0.5866(6) 0.0915(4) 0.3559(4) 0.0186(11) Uani 1 1 d . . .
C1 C 0.7063(7) 0.3514(6) 0.6542(6) 0.0181(13) Uani 1 1 d . . .
H1 H 0.6833 0.3888 0.5734 0.022 Uiso 1 1 calc R U .
C2 C 0.8639(8) 0.6278(5) 0.8337(5) 0.0250(14) Uani 1 1 d . . .
H2A H 0.8409 0.6753 0.7541 0.030 Uiso 1 1 calc R U .
H2B H 1.0109 0.6345 0.8705 0.030 Uiso 1 1 calc R U .
C3 C 0.7630(8) 0.7348(6) 0.9486(5) 0.0262(14) Uani 1 1 d . . .
H3A H 0.8106 0.8569 0.9719 0.031 Uiso 1 1 calc R U .
H3B H 0.8096 0.7004 1.0338 0.031 Uiso 1 1 calc R U .
C4 C 0.4652(8) 0.2762(6) 0.0827(6) 0.0286(15) Uani 1 1 d . . .
H4A H 0.5124 0.2232 -0.0061 0.034 Uiso 1 1 calc R U .
H4B H 0.5153 0.3989 0.1197 0.034 Uiso 1 1 calc R U .
C5 C 0.7521(8) 0.0725(5) 0.3021(5) 0.0225(14) Uani 1 1 d . . .
H5 H 0.8676 0.0215 0.3372 0.027 Uiso 1 1 calc R U .
loop_
_atom_site_aniso_label
_atom_site_aniso_U_11
_atom_site_aniso_U_22
_atom_site_aniso_U_33
_atom_site_aniso_U_23
_atom_site_aniso_U_13
_atom_site_aniso_U_12
Cu1 0.0177(7) 0.0271(6) 0.0189(7) 0.0103(5) 0.0013(5) -0.0016(5)
Cl1 0.0195(9) 0.0348(9) 0.0346(11) 0.0156(8) 0.0092(8) 0.0053(7)
O1 0.016(2) 0.026(2) 0.029(3) 0.0022(17) 0.0010(19) 0.0003(16)
O2 0.043(3) 0.033(2) 0.053(3) 0.027(2) 0.012(2) 0.000(2)
O3 0.045(3) 0.045(2) 0.027(3) 0.016(2) 0.017(2) 0.006(2)
N1 0.012(3) 0.028(3) 0.016(3) 0.008(2) 0.001(2) -0.001(2)
N2 0.023(3) 0.027(3) 0.026(3) 0.013(2) 0.000(2) 0.000(2)
N3 0.023(3) 0.031(3) 0.024(3) 0.010(2) 0.000(2) -0.001(2)
N4 0.011(3) 0.026(3) 0.018(3) 0.009(2) 0.004(2) 0.004(2)
N5 0.025(3) 0.033(3) 0.033(3) 0.015(2) 0.013(3) 0.007(2)
N6 0.025(3) 0.023(3) 0.018(3) 0.008(2) 0.005(2) -0.001(2)
N7 0.027(3) 0.030(3) 0.024(3) 0.014(2) 0.011(3) -0.001(2)
N8 0.021(3) 0.019(3) 0.016(3) 0.009(2) -0.001(2) -0.003(2)
C1 0.011(3) 0.028(3) 0.019(4) 0.013(3) 0.004(3) 0.005(3)
C2 0.020(4) 0.022(3) 0.030(4) 0.008(3) -0.001(3) -0.001(3)
C3 0.025(4) 0.032(3) 0.024(4) 0.012(3) 0.003(3) 0.000(3)
C4 0.030(4) 0.037(4) 0.025(4) 0.017(3) 0.008(3) -0.001(3)
C5 0.014(4) 0.030(3) 0.025(4) 0.012(3) 0.003(3) -0.001(3)
loop_
_atom_type_symbol
_atom_type_description
_atom_type_scat_dispersion_real
_atom_type_scat_dispersion_imag
_atom_type_scat_source
C C 0.0033 0.0016 'International Tables Vol C Tables 4.2.6.8 and 6.1.1.4'
Cl Cl 0.1484 0.1585 'International Tables Vol C Tables 4.2.6.8 and 6.1.1.4'
Cu Cu 0.3201 1.2651 'International Tables Vol C Tables 4.2.6.8 and 6.1.1.4'
N N 0.0061 0.0033 'International Tables Vol C Tables 4.2.6.8 and 6.1.1.4'
O O 0.0106 0.0060 'International Tables Vol C Tables 4.2.6.8 and 6.1.1.4'
H H 0.0000 0.0000 'International Tables Vol C Tables 4.2.6.8 and 6.1.1.4'
loop_
_geom_angle_atom_site_label_1
_geom_angle_atom_site_label_2
_geom_angle_atom_site_label_3
_geom_angle
_geom_angle_site_symmetry_1
_geom_angle_site_symmetry_3
N4 Cu1 N4 180.0 . 2_656
N4 Cu1 N8 90.11(16) . 2_656
N4 Cu1 N8 89.89(16) 2_656 2_656
N4 Cu1 N8 89.89(16) . .
N4 Cu1 N8 90.11(16) 2_656 .
N8 Cu1 N8 180.00(10) 2_656 .
N4 Cu1 O1 88.69(13) . 2_656
N4 Cu1 O1 91.31(13) 2_656 2_656
N8 Cu1 O1 92.09(13) 2_656 2_656
N8 Cu1 O1 87.91(13) . 2_656
N4 Cu1 O1 91.31(13) . .
N4 Cu1 O1 88.69(13) 2_656 .
N8 Cu1 O1 87.90(13) 2_656 .
N8 Cu1 O1 92.10(13) . .
O1 Cu1 O1 180.0 2_656 .
O2 Cl1 O3 108.0(2) . .
O2 Cl1 O1 108.3(2) . .
O3 Cl1 O1 107.66(18) . .
Cl1 O1 Cu1 131.69(19) . .
C1 N1 N2 109.5(4) . .
C1 N1 C2 128.8(4) . .
N2 N1 C2 121.7(4) . .
N3 N2 N1 106.1(4) . .
N2 N3 N4 109.8(4) . .
C1 N4 N3 105.9(4) . .
C1 N4 Cu1 128.3(3) . .
N3 N4 Cu1 124.8(3) . .
C5 N5 N6 101.1(4) . .
N7 N6 N5 114.0(4) . .
N7 N6 C4 123.4(4) . .
N5 N6 C4 122.5(4) . .
N6 N7 N8 105.3(4) . .
N7 N8 C5 106.9(4) . .
N7 N8 Cu1 120.9(3) . .
C5 N8 Cu1 131.7(3) . .
N1 C1 N4 108.7(4) . .
N1 C1 H1 125.7 . .
N4 C1 H1 125.7 . .
N1 C2 C3 111.5(4) . .
N1 C2 H2A 109.3 . .
C3 C2 H2A 109.3 . .
N1 C2 H2B 109.3 . .
C3 C2 H2B 109.3 . .
H2A C2 H2B 108.0 . .
C2 C3 C4 116.9(4) . 2_666
C2 C3 H3A 108.1 . .
C4 C3 H3A 108.1 2_666 .
C2 C3 H3B 108.1 . .
C4 C3 H3B 108.1 2_666 .
H3A C3 H3B 107.3 . .
N6 C4 C3 112.8(4) . 2_666
N6 C4 H4A 109.0 . .
C3 C4 H4A 109.0 2_666 .
N6 C4 H4B 109.0 . .
C3 C4 H4B 109.0 2_666 .
H4A C4 H4B 107.8 . .
N5 C5 N8 112.8(4) . .
N5 C5 H5 123.6 . .
N8 C5 H5 123.6 . .
loop_
_geom_bond_atom_site_label_1
_geom_bond_atom_site_label_2
_geom_bond_distance
_geom_bond_site_symmetry_2
Cu1 N4 2.004(4) .
Cu1 N4 2.004(4) 2_656
Cu1 N8 2.020(4) 2_656
Cu1 N8 2.020(4) .
Cu1 O1 2.410(3) 2_656
Cu1 O1 2.410(3) .
Cl1 O2 1.474(3) .
Cl1 O3 1.478(3) .
Cl1 O1 1.489(3) .
N1 C1 1.306(6) .
N1 N2 1.346(5) .
N1 C2 1.468(5) .
N2 N3 1.294(5) .
N3 N4 1.365(5) .
N4 C1 1.318(5) .
N5 C5 1.322(5) .
N5 N6 1.348(5) .
N6 N7 1.310(5) .
N6 C4 1.478(5) .
N7 N8 1.329(5) .
N8 C5 1.331(6) .
C1 H1 0.9500 .
C2 C3 1.512(6) .
C2 H2A 0.9900 .
C2 H2B 0.9900 .
C3 C4 1.516(6) 2_666
C3 H3A 0.9900 .
C3 H3B 0.9900 .
C4 C3 1.516(6) 2_666
C4 H4A 0.9900 .
C4 H4B 0.9900 .
C5 H5 0.9500 .
loop_
_geom_torsion_atom_site_label_1
_geom_torsion_atom_site_label_2
_geom_torsion_atom_site_label_3
_geom_torsion_atom_site_label_4
_geom_torsion
_geom_torsion_site_symmetry_4
O2 Cl1 O1 Cu1 64.9(3) .
O3 Cl1 O1 Cu1 -51.6(3) .
C1 N1 N2 N3 -0.2(5) .
C2 N1 N2 N3 -178.4(4) .
N1 N2 N3 N4 0.5(5) .
N2 N3 N4 C1 -0.6(5) .
N2 N3 N4 Cu1 -169.9(3) .
C5 N5 N6 N7 0.8(5) .
C5 N5 N6 C4 177.4(4) .
N5 N6 N7 N8 -1.0(5) .
C4 N6 N7 N8 -177.7(4) .
N6 N7 N8 C5 0.8(5) .
N6 N7 N8 Cu1 -171.3(3) .
N2 N1 C1 N4 -0.2(5) .
C2 N1 C1 N4 177.8(4) .
N3 N4 C1 N1 0.5(5) .
Cu1 N4 C1 N1 169.2(3) .
C1 N1 C2 C3 124.3(5) .
N2 N1 C2 C3 -57.9(6) .
N1 C2 C3 C4 -52.1(6) 2_666
N7 N6 C4 C3 -26.4(6) 2_666
N5 N6 C4 C3 157.2(4) 2_666
N6 N5 C5 N8 -0.2(5) .
N7 N8 C5 N5 -0.4(6) .
Cu1 N8 C5 N5 170.6(3) .
