#------------------------------------------------------------------------------
#$Date: 2019-11-26 01:36:57 +0200 (Tue, 26 Nov 2019) $
#$Revision: 242299 $
#$URL: file:///home/coder/svn-repositories/cod/cif/4/13/23/4132301.cif $
#------------------------------------------------------------------------------
#
# This file is available in the Crystallography Open Database (COD),
# http://www.crystallography.net/
#
# All data on this site have been placed in the public domain by the
# contributors.
#
data_4132301
loop_
_publ_author_name
'Hashim, Mohamed I.'
'Le, Ha T. M.'
'Chen, Teng-Hao'
'Chen, Yu-Sheng'
'Daugulis, Olafs'
'Hsu, Chia-Wei'
'Jacobson, Allan J.'
'Kaveevivitchai, Watchareeya'
'Liang, Xiao'
'Makarenko, Tatyana'
'Miljani\'c, Ognjen \<S'
'Popovs, Ilja'
'Tran, Hung Vu'
'Wang, Xiqu'
'Wu, Chia-Hua'
'Wu, Judy I.'
_publ_section_title
;
 Dissecting Porosity in Molecular Crystals: Influence of Geometry,
 Hydrogen Bonding, and [\p&#x00B7;&#x00B7;&#x00B7;\p] Stacking on the
 Solid-State Packing of Fluorinated Aromatics.
;
_journal_issue                   18
_journal_name_full               'Journal of the American Chemical Society'
_journal_page_first              6014
_journal_page_last               6026
_journal_paper_doi               10.1021/jacs.8b02869
_journal_volume                  140
_journal_year                    2018
_chemical_formula_sum            'C21 H12 N6'
_chemical_formula_weight         348.37
_space_group_crystal_system      monoclinic
_space_group_IT_number           4
_space_group_name_Hall           'P 2yb'
_space_group_name_H-M_alt        'P 1 21 1'
_atom_sites_solution_hydrogens   mixed
_audit_creation_method           SHELXL-2014/7
_cell_angle_alpha                90
_cell_angle_beta                 106.8400(10)
_cell_angle_gamma                90
_cell_formula_units_Z            2
_cell_length_a                   9.5700(3)
_cell_length_b                   9.4056(3)
_cell_length_c                   10.6320(3)
_cell_measurement_reflns_used    6105
_cell_measurement_temperature    123(2)
_cell_measurement_theta_max      66.47
_cell_measurement_theta_min      4.34
_cell_volume                     915.96(5)
_computing_cell_refinement       'SAINT v7.60A (Bruker-Nonius, 2013)'
_computing_data_collection       'APEX2 v2013.4-1 (Bruker-Nonius, 2013)'
_computing_data_reduction        'SAINT v7.60A (Bruker-Nonius, 2013)'
_computing_structure_refinement  'SHELXL 2014 (G.M. Sheldrick, 2014)'
_computing_structure_solution    'SHELXS v6.12 (G.M. Sheldrick, 2001)'
_diffrn_ambient_temperature      123(2)
_diffrn_measured_fraction_theta_full 0.951
_diffrn_measured_fraction_theta_max 0.951
_diffrn_measurement_device_type  'Bruker DUO APEX II CCD'
_diffrn_measurement_method       'narrow frame'
_diffrn_radiation_type           CuK\a
_diffrn_radiation_wavelength     1.54178
_diffrn_reflns_av_R_equivalents  0.0198
_diffrn_reflns_av_unetI/netI     0.0246
_diffrn_reflns_Laue_measured_fraction_full 0.951
_diffrn_reflns_Laue_measured_fraction_max 0.951
_diffrn_reflns_limit_h_max       10
_diffrn_reflns_limit_h_min       -11
_diffrn_reflns_limit_k_max       9
_diffrn_reflns_limit_k_min       -10
_diffrn_reflns_limit_l_max       12
_diffrn_reflns_limit_l_min       0
_diffrn_reflns_number            6148
_diffrn_reflns_point_group_measured_fraction_full 0.954
_diffrn_reflns_point_group_measured_fraction_max 0.953
_diffrn_reflns_theta_full        66.473
_diffrn_reflns_theta_max         66.473
_diffrn_reflns_theta_min         4.345
_exptl_absorpt_coefficient_mu    0.641
_exptl_absorpt_correction_T_max  0.7528
_exptl_absorpt_correction_T_min  0.6314
_exptl_absorpt_correction_type   empirical
_exptl_absorpt_process_details   'SAINT v7.60A'
_exptl_crystal_colour            Yellow
_exptl_crystal_density_diffrn    1.263
_exptl_crystal_description       'diamond column'
_exptl_crystal_F_000             360
_exptl_crystal_size_max          0.45
_exptl_crystal_size_mid          0.30
_exptl_crystal_size_min          0.20
_refine_diff_density_max         0.169
_refine_diff_density_min         -0.114
_refine_diff_density_rms         0.027
_refine_ls_abs_structure_details
;
 Refined as an inversion twin.
;
_refine_ls_abs_structure_Flack   0.3(4)
_refine_ls_extinction_coef       0.014(2)
_refine_ls_extinction_expression Fc^*^=kFc[1+0.001xFc^2^\l^3^/sin(2\q)]^-1/4^
_refine_ls_extinction_method     'SHELXL-2014/7 (Sheldrick 2014'
_refine_ls_goodness_of_fit_ref   1.068
_refine_ls_hydrogen_treatment    constr
_refine_ls_matrix_type           full
_refine_ls_number_parameters     246
_refine_ls_number_reflns         2587
_refine_ls_number_restraints     1
_refine_ls_restrained_S_all      1.068
_refine_ls_R_factor_all          0.0265
_refine_ls_R_factor_gt           0.0265
_refine_ls_shift/su_max          0.000
_refine_ls_shift/su_mean         0.000
_refine_ls_structure_factor_coef Fsqd
_refine_ls_weighting_details
'w=1/[\s^2^(Fo^2^)+(0.0425P)^2^+0.1342P] where P=(Fo^2^+2Fc^2^)/3'
_refine_ls_weighting_scheme      calc
_refine_ls_wR_factor_gt          0.0741
_refine_ls_wR_factor_ref         0.0741
_reflns_Friedel_coverage         0.878
_reflns_Friedel_fraction_full    0.956
_reflns_Friedel_fraction_max     0.956
_reflns_number_gt                2585
_reflns_number_total             2587
_reflns_threshold_expression     'I > 2\s(I)'
_cod_data_source_file            ja8b02869_si_009.cif
_cod_data_source_block           19cif_k1427
_cod_depositor_comments
;
The following automatic conversions were performed:

data item '_exptl_absorpt_correction_type' value 'Empirical' was
changed to 'empirical' in accordance with the
/home/saulius/struct/COD-crude-data/automatic-downloads/DataCite-retrospective/ACS/depositions/lib/dictionaries/cif_core.dic
dictionary named 'cif_core.dic' version 2.4.2 last updated on
2011-04-26.

Automatic conversion script
Id: cif_fix_values 6909 2019-04-08 15:41:33Z antanas 
;
_cod_original_sg_symbol_H-M      'P 21'
_cod_database_code               4132301
_shelx_shelxl_version_number     2014/7
_shelx_space_group_comment
;
The symmetry employed for this shelxl refinement is uniquely defined
by the following loop, which should always be used as a source of
symmetry information in preference to the above space-group names.
They are only intended as comments.
;
_shelx_estimated_absorpt_t_min   0.761
_shelx_estimated_absorpt_t_max   0.883
_shelx_res_file
;

    k1427.res created by SHELXL-2014/7


TITL k1427     P2(1)        R = 0.03
CELL  1.54178    9.5700    9.4056   10.6320    90.000   106.840    90.000
ZERR        2    0.0003    0.0003    0.0003     0.000     0.001     0.000
LATT  -1
SYMM             - X ,    0.50000 + Y ,            - Z
SFAC  C  H  N
UNIT    42   24  12
LIST 6 ! automatically inserted. Change 6 to 4 for CHECKCIF!!
TEMP  -150
SIZE    0.2000    0.3000    0.4500
L.S. 9
ACTA
FMAP 2
PLAN -20
ACTA
BOND $H
CONF
TWIN
WGHT    0.042500    0.134200
EXTI    0.013535
BASF   0.33168
FVAR       0.56998
RESI 0
N1    3    0.825058    0.077961   -0.021211    11.00000    0.03473    0.02654 =
         0.02859    0.00039    0.01474   -0.00055
AFIX   3
H1N   2    0.892138    0.077991   -0.074781    11.00000   -1.20000
AFIX   0
N2    3    0.785997   -0.043935    0.027559    11.00000    0.04508    0.02441 =
         0.03556    0.00153    0.01852    0.00296
N3    3    0.037115   -0.041801    0.743065    11.00000    0.03483    0.02201 =
         0.03944    0.00486    0.01428   -0.00014
AFIX   3
H3N   2    0.001005   -0.133011    0.756295    11.00000   -1.20000
AFIX   0
N4    3    0.003866    0.070439    0.808347    11.00000    0.03677    0.03110 =
         0.03366   -0.00371    0.01651   -0.00552
N5    3    0.190478    1.203873    0.122092    11.00000    0.03933    0.02186 =
         0.03277   -0.00039    0.01015   -0.00098
AFIX   3
H5N   2    0.197008    1.291003    0.066822    11.00000   -1.20000
AFIX   0
N6    3    0.104820    1.206627    0.204298    11.00000    0.03435    0.02432 =
         0.03727   -0.00343    0.01103   -0.00127
C1    1    0.481932    0.383293    0.312074    11.00000    0.02675    0.02253 =
         0.02721   -0.00223    0.00958   -0.00086
C2    1    0.421131    0.312981    0.399105    11.00000    0.02904    0.02118 =
         0.02799    0.00002    0.00742    0.00049
AFIX  43
H2    2    0.440133    0.214685    0.416487    11.00000   -1.20000
AFIX   0
C3    1    0.332300    0.386452    0.460945    11.00000    0.02906    0.02335 =
         0.02496   -0.00073    0.00848   -0.00151
C4    1    0.305479    0.530907    0.435720    11.00000    0.02931    0.02300 =
         0.02770   -0.00204    0.01060    0.00020
AFIX  43
H4    2    0.246437    0.581439    0.478619    11.00000   -1.20000
AFIX   0
C5    1    0.364845    0.601663    0.347848    11.00000    0.02926    0.02012 =
         0.02732   -0.00105    0.00562   -0.00077
C6    1    0.454548    0.527427    0.287273    11.00000    0.02969    0.02653 =
         0.02810    0.00001    0.01182   -0.00197
AFIX  43
H6    2    0.496971    0.575734    0.228895    11.00000   -1.20000
AFIX   0
C7    1    0.565368    0.302468    0.243377    11.00000    0.03188    0.02550 =
         0.03407    0.00179    0.01067   -0.00171
C8    1    0.626534    0.232483    0.184521    11.00000    0.02917    0.02743 =
         0.03285    0.00269    0.01251   -0.00204
C9    1    0.699334    0.145955    0.110840    11.00000    0.03082    0.02613 =
         0.03098   -0.00127    0.01208    0.00162
C10   1    0.775437    0.192275    0.025795    11.00000    0.03436    0.02396 =
         0.03003    0.00131    0.01190    0.00009
AFIX  43
H10   2    0.789620    0.288369    0.004834    11.00000   -1.20000
AFIX   0
C11   1    0.710531   -0.002592    0.107948    11.00000    0.04797    0.02600 =
         0.03921    0.00232    0.02302    0.00045
AFIX  43
H11   2    0.669310   -0.065647    0.157292    11.00000   -1.20000
AFIX   0
C12   1    0.263199    0.308008    0.543008    11.00000    0.03429    0.02280 =
         0.03130   -0.00184    0.01029    0.00147
C13   1    0.203373    0.235188    0.602338    11.00000    0.03308    0.03036 =
         0.02898   -0.00106    0.01292    0.00292
C14   1    0.130071    0.144187    0.671354    11.00000    0.02985    0.02471 =
         0.03095    0.00299    0.01112   -0.00041
C15   1    0.111381   -0.001777    0.660346    11.00000    0.03987    0.02769 =
         0.04167    0.00276    0.02171    0.00385
AFIX  43
H15   2    0.145310   -0.062503    0.604051    11.00000   -1.20000
AFIX   0
C16   1    0.059488    0.183544    0.764825    11.00000    0.03882    0.02883 =
         0.03481   -0.00338    0.01694   -0.00544
AFIX  43
H16   2    0.052357    0.278314    0.793254    11.00000   -1.20000
AFIX   0
C17   1    0.326793    0.746858    0.313177    11.00000    0.03174    0.02862 =
         0.02655   -0.00099    0.01066   -0.00187
C18   1    0.286028    0.863483    0.277484    11.00000    0.03323    0.02253 =
         0.03039   -0.00433    0.01295   -0.00407
C19   1    0.231253    1.001451    0.230011    11.00000    0.03331    0.02029 =
         0.03044   -0.00255    0.00948   -0.00325
C20   1    0.266809    1.083023    0.135137    11.00000    0.03671    0.02319 =
         0.03478   -0.00231    0.01276   -0.00039
AFIX  43
H20   2    0.333470    1.057600    0.087866    11.00000   -1.20000
AFIX   0
C21   1    0.128883    1.084790    0.268295    11.00000    0.03543    0.02379 =
         0.03439   -0.00074    0.01208   -0.00238
AFIX  43
H21   2    0.082694    1.056872    0.332346    11.00000   -1.20000
AFIX   0
HKLF 4

REM  k1427     P2(1)        R = 0.03
REM R1 =  0.0265 for    2585 Fo > 4sig(Fo)  and  0.0265 for all    2587 data
REM    246 parameters refined using      1 restraints

END

WGHT      0.0413      0.1405

REM Highest difference peak  0.169,  deepest hole -0.114,  1-sigma level  0.027
Q1    1   0.2322  0.3186  0.6013  11.00000  0.05    0.17
Q2    1   0.9558  0.0790 -0.1326  11.00000  0.05    0.15
Q3    1   0.5794  0.2975  0.1671  11.00000  0.05    0.14
Q4    1   0.1758  0.0697  0.6976  11.00000  0.05    0.12
Q5    1   0.3514  0.8314  0.3355  11.00000  0.05    0.12
Q6    1   0.3763  0.5804  0.4242  11.00000  0.05    0.11
Q7    1   0.6401  0.2323  0.2505  11.00000  0.05    0.11
Q8    1   0.5885  0.2009  0.2157  11.00000  0.05    0.10
Q9    1   0.0205 -0.0288  0.8528  11.00000  0.05    0.10
Q10   1   0.3245  1.0745  0.2379  11.00000  0.05    0.10
Q11   1   0.3671  0.4771  0.4767  11.00000  0.05    0.10
Q12   1   0.8985 -0.0337  0.0096  11.00000  0.05    0.10
Q13   1   0.4155  0.4478  0.2615  11.00000  0.05    0.10
Q14   1   0.4219  0.5786  0.3388  11.00000  0.05    0.10
Q15   1   0.7484 -0.1178 -0.0363  11.00000  0.05    0.09
Q16   1   0.4373  0.5677  0.1774  11.00000  0.05    0.09
Q17   1   0.2108 -0.0729  0.6876  11.00000  0.05    0.09
Q18   1   0.2693  0.8173  0.3122  11.00000  0.05    0.09
Q19   1   0.6555  0.2065  0.1480  11.00000  0.05    0.09
Q20   1   0.3009  0.8068  0.2427  11.00000  0.05    0.09
;
_shelx_res_checksum              52926
_shelx_hkl_file
;
   3 -10   0   12.42    0.31
   4 -10   0    8.70    0.17
   2  -9   0   38.42    0.90
   3  -9   0   13.36    0.21
   4  -9   0   87.98    1.06
   5  -9   0   10.75    0.15
   6  -9   0   22.98    0.32
   2  -8   0   23.71    0.44
   3  -8   0   13.06    0.19
   4  -8   0    7.68    0.11
   5  -8   0   81.70    0.90
   6  -8   0   17.61    0.21
   7  -8   0   13.31    0.20
   2  -7   0    1.21    0.03
   3  -7   0    2.72    0.06
   4  -7   0    5.76    0.09
   5  -7   0   14.04    0.18
   6  -7   0   31.23    0.36
   7  -7   0   31.32    0.36
   8  -7   0    1.50    0.04
   1  -6   0    2.13    0.06
   2  -6   0    2.98    0.07
   3  -6   0    6.89    0.11
   4  -6   0   14.12    0.18
   5  -6   0   39.42    0.38
   6  -6   0   95.72    0.87
   7  -6   0   20.06    0.21
   8  -6   0    8.07    0.10
   9  -6   0    0.78    0.04
   0  -5   0    0.11    0.03
   1  -5   0    7.89    0.23
   2  -5   0   97.55    2.51
   3  -5   0  251.19    4.21
   4  -5   0   14.93    0.20
   5  -5   0   24.63    0.25
   6  -5   0   34.41    0.33
   7  -5   0   28.99    0.29
   8  -5   0   31.45    0.36
   9  -5   0    8.65    0.15
   0  -4   0  110.65    2.85
   1  -4   0  207.27    4.34
   2  -4   0   32.38    0.84
   3  -4   0   21.32    0.58
   4  -4   0    7.40    0.15
   5  -4   0   34.45    0.45
   6  -4   0   22.24    0.22
   7  -4   0  140.08    1.38
   8  -4   0   12.67    0.18
   9  -4   0   13.31    0.22
  10  -4   0    3.71    0.09
   0  -3   0    0.06    0.02
   1  -3   0   17.52    0.38
   2  -3   0  187.10    4.62
   3  -3   0    8.42    0.25
   4  -3   0   16.84    0.46
   5  -3   0   10.61    0.23
   6  -3   0   47.40    0.53
   7  -3   0   25.49    0.30
   8  -3   0   12.75    0.22
   9  -3   0   29.47    0.44
  10  -3   0   13.64    0.26
   0  -2   0  493.62   13.16
   1  -2   0  627.22   16.87
   2  -2   0   62.43    1.89
   3  -2   0   31.95    0.82
   4  -2   0  191.56    5.71
   5  -2   0   25.13    0.58
   6  -2   0   24.73    0.39
   7  -2   0   16.67    0.26
   8  -2   0   15.86    0.26
   9  -2   0    0.32    0.03
  10  -2   0    0.84    0.05
   1  -1   0  160.26    3.80
   3  -1   0  153.72    3.02
   4  -1   0   63.73    2.71
   5  -1   0   29.84    1.14
   6  -1   0    2.43    0.08
   7  -1   0   66.36    1.19
   8  -1   0   11.28    0.25
   9  -1   0   11.64    0.23
  10  -1   0   10.66    0.21
   1   0   0   33.90    1.01
   2   0   0  720.84   25.77
   3   0   0    3.74    0.11
   4   0   0   52.67    1.36
   6   0   0    2.52    0.08
   7   0   0    5.46    0.11
   8   0   0    2.51    0.13
   9   0   0   17.45    0.50
  10   0   0    5.08    0.12
   1   1   0  162.67    4.66
   3   1   0  152.20    6.45
   4   1   0   63.77    1.75
   5   1   0   30.19    1.07
   6   1   0    2.55    0.11
   7   1   0   64.88    1.21
   8   1   0   11.47    0.25
   9   1   0   11.24    0.35
  10   1   0   10.72    0.21
   0   2   0  477.36   19.20
   1   2   0  615.33   16.70
   2   2   0   60.54    1.69
   3   2   0   31.15    1.17
   4   2   0  191.42    6.78
   5   2   0   26.06    0.92
   6   2   0   23.75    0.90
   7   2   0   16.23    0.50
   8   2   0   15.47    0.33
   9   2   0    0.32    0.04
  10   2   0    0.82    0.04
   1   3   0   18.86    0.67
   2   3   0  170.33    4.92
   4   3   0   15.72    0.62
   5   3   0   10.67    0.43
   6   3   0   46.20    1.69
   7   3   0   24.74    0.74
   8   3   0   12.94    0.28
   9   3   0   30.09    0.58
  10   3   0   13.53    0.38
   0   4   0  105.70    4.08
   1   4   0  214.79    9.63
   4   4   0    7.65    0.33
   5   4   0   34.10    1.26
   6   4   0   23.00    0.86
   7   4   0  139.92    3.79
   8   4   0   12.67    0.27
   9   4   0   13.44    0.42
   0   5   0    0.10    0.03
   1   5   0    6.91    0.33
   4   5   0   16.41    0.61
   5   5   0   24.98    0.94
   6   5   0   33.85    1.28
   8   5   0   31.18    0.90
   9   5   0    8.86    0.29
   3   6   0    7.18    0.33
   4   6   0   14.57    0.59
   5   6   0   38.59    1.45
   7   6   0   20.35    0.61
   8   6   0    8.26    0.28
   1   7   0    5.46    0.27
   2   7   0    1.10    0.11
   3   7   0    2.45    0.17
   4   7   0    5.51    0.30
   7   7   0   31.29    0.89
   8   7   0    1.52    0.09
   7   8   0   13.48    0.41
  -5 -10   1    1.09    0.05
  -4 -10   1    3.20    0.11
  -3 -10   1   14.89    0.37
   3 -10   1    7.49    0.16
   4 -10   1   11.08    0.28
  -6  -9   1   14.04    0.21
  -5  -9   1   11.52    0.18
  -4  -9   1   16.73    0.25
  -3  -9   1   44.16    0.61
  -2  -9   1   19.66    0.49
   2  -9   1   11.15    0.19
   3  -9   1   10.04    0.18
   4  -9   1    1.02    0.04
   5  -9   1   20.31    0.26
   6  -9   1    2.65    0.07
  -7  -8   1   58.74    0.80
  -6  -8   1    8.34    0.11
  -5  -8   1   19.45    0.23
  -4  -8   1    9.73    0.13
  -3  -8   1    6.18    0.12
  -2  -8   1    2.77    0.08
   1  -8   1   19.14    0.41
   2  -8   1   66.50    0.99
   3  -8   1   25.49    0.30
   4  -8   1    1.59    0.04
   5  -8   1   48.92    0.55
   6  -8   1   45.23    0.51
   7  -8   1   10.79    0.16
  -8  -7   1    1.75    0.03
  -7  -7   1   15.07    0.16
  -6  -7   1   19.04    0.20
  -5  -7   1   72.07    0.67
  -4  -7   1  163.08    1.43
  -3  -7   1   55.11    0.53
  -2  -7   1   18.75    0.26
  -1  -7   1    0.81    0.06
   0  -7   1    2.52    0.08
   1  -7   1   39.46    0.50
   2  -7   1    0.75    0.03
   3  -7   1   56.06    0.63
   4  -7   1   14.89    0.19
   5  -7   1    9.45    0.13
   6  -7   1   22.05    0.27
   7  -7   1   27.44    0.32
   8  -7   1   38.81    0.61
  -9  -6   1    2.13    0.04
  -8  -6   1   14.68    0.16
  -7  -6   1   26.75    0.27
  -6  -6   1  150.49    1.35
  -5  -6   1   62.92    0.57
  -4  -6   1   28.09    0.27
  -3  -6   1    1.48    0.04
  -2  -6   1   53.42    0.89
  -1  -6   1  210.31    4.60
   1  -6   1   38.72    0.78
   2  -6   1    1.23    0.04
   3  -6   1   54.30    0.69
   4  -6   1   56.29    0.63
   5  -6   1   11.98    0.16
   6  -6   1   25.80    0.31
   7  -6   1   18.53    0.23
   8  -6   1    9.34    0.16
  -9  -5   1   13.02    0.21
  -8  -5   1   16.27    0.20
  -7  -5   1   47.46    0.45
  -6  -5   1   41.68    0.40
  -5  -5   1   17.08    0.19
  -4  -5   1  141.02    1.67
  -3  -5   1   12.37    0.23
  -2  -5   1  108.56    2.81
  -1  -5   1    2.31    0.09
   0  -5   1    9.43    0.22
   1  -5   1  300.06   10.55
   2  -5   1   21.34    0.43
   3  -5   1   12.91    0.23
   4  -5   1    5.53    0.10
   5  -5   1    9.64    0.12
   6  -5   1   59.57    0.56
   7  -5   1   19.30    0.20
   8  -5   1   62.71    0.75
   9  -5   1   17.57    0.34
 -10  -4   1    5.10    0.12
  -9  -4   1    4.59    0.10
  -8  -4   1   10.32    0.14
  -7  -4   1    9.55    0.12
  -6  -4   1   47.80    0.49
  -5  -4   1    1.42    0.04
  -4  -4   1   24.47    0.48
  -3  -4   1    8.20    0.25
  -2  -4   1   81.90    2.16
  -1  -4   1  285.61    5.87
   0  -4   1  158.37    3.23
   1  -4   1   26.99    0.56
   2  -4   1   88.30    2.60
   3  -4   1   20.15    0.84
   4  -4   1   65.04    1.25
   5  -4   1    6.87    0.10
   6  -4   1   19.22    0.20
   7  -4   1   14.53    0.17
   8  -4   1   21.07    0.27
   9  -4   1   15.27    0.24
 -10  -3   1   13.23    0.25
  -9  -3   1    5.17    0.11
  -8  -3   1    1.99    0.06
  -7  -3   1   24.00    0.26
  -6  -3   1    6.26    0.09
  -5  -3   1  251.42    3.88
  -4  -3   1   57.30    1.47
  -3  -3   1   39.64    1.02
  -2  -3   1   16.64    0.45
  -1  -3   1    4.93    0.12
   0  -3   1   39.66    0.85
   1  -3   1  305.38    6.93
   2  -3   1  116.37    3.68
   3  -3   1   85.17    3.23
   4  -3   1   17.39    0.73
   5  -3   1    9.99    0.23
   6  -3   1   25.61    0.27
   7  -3   1   39.14    0.44
   8  -3   1    2.51    0.07
   9  -3   1    0.28    0.03
  10  -3   1    2.83    0.07
 -10  -2   1    7.03    0.15
  -9  -2   1    2.95    0.09
  -8  -2   1   13.91    0.23
  -7  -2   1    0.48    0.04
  -6  -2   1   16.36    0.35
  -5  -2   1   92.77    2.39
  -4  -2   1    8.92    0.26
  -3  -2   1   43.15    1.12
  -2  -2   1  315.57    9.42
  -1  -2   1   19.05    0.48
   0  -2   1  512.73   10.96
   1  -2   1   68.17    1.33
   2  -2   1  134.24    2.75
   3  -2   1    4.91    0.23
   4  -2   1  276.67   10.48
   5  -2   1    0.34    0.04
   6  -2   1    5.61    0.11
   7  -2   1   22.68    0.34
   8  -2   1    1.59    0.06
   9  -2   1   14.42    0.23
  10  -2   1    1.88    0.06
 -11  -1   1    1.00    0.04
 -10  -1   1    9.01    0.19
  -9  -1   1   12.26    0.24
  -8  -1   1    2.43    0.07
  -7  -1   1    0.57    0.06
  -6  -1   1   43.84    1.23
  -5  -1   1   58.38    1.49
  -4  -1   1  140.17    4.06
  -3  -1   1  199.15    5.61
  -2  -1   1  314.16    9.01
  -1  -1   1   27.44    0.60
   0  -1   1  290.39    7.79
   1  -1   1  602.09   15.61
   3  -1   1   62.89    1.35
   4  -1   1   53.37    1.99
   6  -1   1   52.93    0.79
   7  -1   1    3.64    0.15
   8  -1   1    0.22    0.05
   9  -1   1    0.51    0.04
  10  -1   1    0.75    0.04
 -11   0   1    2.14    0.06
 -10   0   1    0.33    0.04
  -9   0   1    3.30    0.08
  -8   0   1   41.69    0.80
  -7   0   1    8.53    0.29
  -6   0   1   59.17    1.62
  -5   0   1   53.90    2.00
  -4   0   1   10.50    0.23
  -3   0   1  373.43   10.29
   0   0   1   14.62    0.51
   1   0   1   10.43    0.22
   2   0   1   18.73    0.50
   3   0   1    0.97    0.04
   4   0   1  182.29    4.67
   6   0   1   56.76    1.47
   7   0   1    2.90    0.09
   8   0   1   15.69    0.32
   9   0   1    4.29    0.17
  10   0   1    8.42    0.17
 -11   1   1    0.89    0.05
 -10   1   1    9.29    0.19
  -9   1   1   11.71    0.26
  -8   1   1    2.12    0.08
  -6   1   1   45.12    1.23
  -5   1   1   58.84    2.04
  -4   1   1  136.98    5.20
  -3   1   1  199.64    8.54
  -2   1   1  328.59   12.72
  -1   1   1   26.66    0.73
   0   1   1  287.38    6.43
   1   1   1  563.88   21.54
   3   1   1   62.85    2.28
   4   1   1   53.53    1.87
   5   1   1   13.19    0.50
   6   1   1   51.30    0.98
   7   1   1    3.48    0.10
   8   1   1    0.23    0.05
   9   1   1    0.46    0.06
  10   1   1    0.71    0.04
 -10   2   1    6.74    0.12
  -9   2   1    2.72    0.09
  -8   2   1   13.45    0.29
  -7   2   1    0.54    0.06
  -6   2   1   17.02    0.39
  -3   2   1   46.00    2.23
  -2   2   1  314.98   12.68
  -1   2   1   18.24    0.70
   0   2   1  495.64   11.15
   1   2   1   66.16    1.74
   2   2   1  125.25    4.68
   3   2   1    5.20    0.21
   4   2   1  285.35    9.88
   6   2   1    5.21    0.25
   7   2   1   21.98    0.66
   8   2   1    1.62    0.07
   9   2   1   14.51    0.42
  10   2   1    1.85    0.06
 -10   3   1   12.74    0.25
  -9   3   1    5.47    0.14
  -8   3   1    2.00    0.08
  -7   3   1   24.29    0.70
  -6   3   1    6.02    0.28
  -3   3   1   39.53    1.46
  -2   3   1   16.80    0.63
  -1   3   1    4.95    0.14
   0   3   1   42.08    1.83
   1   3   1  308.74    7.31
   2   3   1  122.23    5.99
   3   3   1   84.32    3.07
   4   3   1   18.66    0.68
   5   3   1   10.34    0.42
   6   3   1   25.00    0.96
   7   3   1   38.59    1.10
   8   3   1    2.33    0.08
   9   3   1    0.29    0.03
  10   3   1    2.74    0.11
 -10   4   1    4.95    0.14
  -9   4   1    4.33    0.18
  -8   4   1   10.35    0.35
  -7   4   1    9.79    0.26
  -6   4   1   47.78    1.73
  -2   4   1   82.44    3.36
  -1   4   1  284.90    7.50
   0   4   1  151.19    4.02
   1   4   1   26.45    0.57
   2   4   1   86.58    2.61
   3   4   1   22.11    0.79
   4   4   1   68.51    2.33
   5   4   1    7.13    0.32
   6   4   1   19.65    0.76
   8   4   1   21.32    0.63
   9   4   1   15.02    0.31
  -9   5   1   13.03    0.41
  -8   5   1   16.43    0.51
  -7   5   1   46.49    1.33
  -6   5   1   41.98    1.53
  -5   5   1   18.15    0.69
  -1   5   1    2.19    0.13
   0   5   1    9.29    0.22
   1   5   1  298.37    7.69
   2   5   1   22.72    0.60
   3   5   1   14.06    0.53
   4   5   1    5.46    0.27
   5   5   1    9.29    0.42
   8   5   1   63.28    1.17
  -8   6   1   14.57    0.45
  -7   6   1   26.82    0.78
  -5   6   1   63.38    2.26
  -1   6   1  211.03    7.85
   0   6   1    3.92    0.21
   1   6   1   41.07    1.42
   2   6   1    1.12    0.10
   3   6   1   54.05    1.94
   4   6   1   55.27    2.02
   5   6   1   11.96    0.53
   8   6   1    9.02    0.30
  -8   7   1    1.70    0.09
  -7   7   1   15.52    0.47
  -4   7   1  164.98    5.68
  -3   7   1   55.40    1.99
   2   7   1    0.60    0.09
   3   7   1   53.37    2.00
   7   7   1   27.57    0.79
  -7   8   1   59.81    1.61
  -6   8   1    8.62    0.28
  -5 -10   2    6.41    0.17
  -4 -10   2   11.27    0.20
  -3 -10   2    3.98    0.12
   2 -10   2    9.15    0.29
   3 -10   2   39.43    0.69
   4 -10   2    9.11    0.23
  -6  -9   2    1.25    0.03
  -5  -9   2    2.78    0.05
  -4  -9   2    7.09    0.11
  -3  -9   2    2.97    0.07
  -2  -9   2    8.15    0.16
  -1  -9   2   32.67    0.75
   1  -9   2   14.51    0.32
   2  -9   2   31.69    0.49
   3  -9   2    8.13    0.15
   4  -9   2    3.22    0.06
   5  -9   2    1.22    0.04
  -7  -8   2    3.57    0.06
  -6  -8   2   17.26    0.20
  -5  -8   2   39.93    0.44
  -4  -8   2   56.32    0.60
  -3  -8   2  157.08    1.62
  -2  -8   2  150.24    1.88
  -1  -8   2    0.42    0.06
   0  -8   2   18.62    0.36
   1  -8   2   70.95    1.05
   2  -8   2   16.02    0.27
   3  -8   2   16.57    0.23
   4  -8   2    4.19    0.07
   5  -8   2    3.35    0.06
   6  -8   2    1.92    0.04
  -8  -7   2    5.96    0.08
  -7  -7   2    9.80    0.12
  -6  -7   2   16.14    0.17
  -5  -7   2  138.30    1.25
  -4  -7   2  118.61    1.20
  -3  -7   2   27.54    0.30
  -2  -7   2    8.25    0.11
  -1  -7   2    6.73    0.13
   0  -7   2    5.95    0.12
   1  -7   2    4.69    0.09
   2  -7   2   48.68    0.61
   3  -7   2   22.14    0.27
   4  -7   2   20.45    0.25
   5  -7   2    8.84    0.13
   6  -7   2    1.56    0.04
   7  -7   2   19.21    0.23
  -9  -6   2   20.74    0.26
  -8  -6   2    5.07    0.07
  -7  -6   2    0.58    0.03
  -6  -6   2   49.54    0.47
  -5  -6   2   47.11    0.43
  -4  -6   2   47.75    0.43
  -3  -6   2  165.08    1.59
  -2  -6   2   15.77    0.23
  -1  -6   2   26.59    0.61
   0  -6   2   13.76    0.30
   1  -6   2    1.74    0.07
   2  -6   2    5.65    0.10
   3  -6   2   11.22    0.15
   4  -6   2    1.50    0.04
   5  -6   2   30.16    0.36
   6  -6   2    1.02    0.04
   7  -6   2    9.47    0.13
   8  -6   2   35.01    0.60
 -10  -5   2   30.15    0.51
  -9  -5   2    8.93    0.16
  -8  -5   2   25.16    0.29
  -7  -5   2   30.24    0.30
  -6  -5   2   28.35    0.27
  -5  -5   2  157.01    1.49
  -4  -5   2    1.62    0.04
  -3  -5   2   37.23    0.54
  -2  -5   2    2.21    0.10
  -1  -5   2  236.43    6.17
   0  -5   2   99.50    3.57
   1  -5   2   45.45    1.24
   2  -5   2    5.79    0.21
   3  -5   2   38.19    0.49
   4  -5   2    8.22    0.12
   5  -5   2   45.83    0.52
   6  -5   2   18.98    0.24
   7  -5   2   26.20    0.31
   8  -5   2   16.93    0.31
 -10  -4   2   11.70    0.22
  -9  -4   2   32.17    0.47
  -8  -4   2    3.37    0.06
  -7  -4   2   13.68    0.18
  -6  -4   2    9.36    0.11
  -5  -4   2   14.32    0.18
  -4  -4   2    4.08    0.11
  -3  -4   2   50.44    1.30
  -2  -4   2   13.01    0.37
  -1  -4   2   61.16    1.75
   0  -4   2   15.18    0.41
   1  -4   2   74.80    2.64
   3  -4   2  135.02    3.76
   4  -4   2   86.68    1.09
   5  -4   2   41.80    0.48
   6  -4   2    2.89    0.05
   7  -4   2    3.95    0.08
   8  -4   2   18.19    0.28
   9  -4   2   43.29    0.78
 -10  -3   2   14.25    0.27
  -9  -3   2    6.14    0.15
  -8  -3   2    9.37    0.15
  -7  -3   2   33.39    0.35
  -6  -3   2  125.20    1.24
  -5  -3   2  221.78    3.77
  -4  -3   2   83.81    2.77
  -3  -3   2   64.74    1.80
  -2  -3   2    1.83    0.08
  -1  -3   2   30.26    0.78
   0  -3   2  222.01    6.84
   1  -3   2  178.25    4.68
   2  -3   2   35.66    1.29
   4  -3   2   42.56    0.82
   5  -3   2    3.89    0.07
   6  -3   2   67.15    0.72
   7  -3   2   12.18    0.16
   8  -3   2    1.76    0.06
   9  -3   2    6.06    0.11
 -11  -2   2    3.22    0.08
 -10  -2   2   15.05    0.29
  -9  -2   2   18.03    0.34
  -8  -2   2   33.72    0.50
  -7  -2   2   25.13    0.30
  -6  -2   2    7.91    0.16
  -5  -2   2   45.30    1.17
  -4  -2   2  102.10    3.00
  -3  -2   2  222.83    6.33
  -2  -2   2  188.14    4.81
  -1  -2   2  175.78    4.58
   0  -2   2   43.06    1.13
   1  -2   2  184.87    5.00
   2  -2   2  100.95    3.39
   3  -2   2   32.52    1.13
   5  -2   2   10.03    0.23
   6  -2   2   13.23    0.19
   7  -2   2    5.73    0.10
   8  -2   2   28.81    0.43
   9  -2   2   12.14    0.20
  10  -2   2    0.44    0.03
 -11  -1   2   12.34    0.23
 -10  -1   2   31.71    0.54
  -9  -1   2    0.61    0.04
  -8  -1   2    6.76    0.13
  -7  -1   2   20.58    0.32
  -6  -1   2    2.60    0.10
  -5  -1   2   51.98    1.34
  -4  -1   2   23.63    0.62
  -3  -1   2   76.67    2.04
  -2  -1   2   13.10    0.35
  -1  -1   2  620.11   16.40
   3  -1   2   57.83    2.57
   5  -1   2   64.75    1.22
   6  -1   2    7.31    0.17
   8  -1   2    8.48    0.20
   9  -1   2    2.13    0.06
  10  -1   2    7.56    0.15
 -11   0   2    0.42    0.03
 -10   0   2    4.39    0.09
  -9   0   2    0.47    0.04
  -8   0   2   37.25    0.72
  -7   0   2  102.21    1.87
  -6   0   2   23.50    0.68
  -5   0   2   64.50    2.40
  -4   0   2   62.17    1.62
  -3   0   2  208.40    5.76
  -2   0   2   11.77    0.31
  -1   0   2  211.19    5.04
   0   0   2  829.17   21.58
   1   0   2    8.46    0.19
   4   0   2  183.01    6.49
   5   0   2   46.37    1.21
   6   0   2    0.08    0.03
   7   0   2    4.34    0.12
   8   0   2   15.36    0.32
   9   0   2    3.63    0.08
  10   0   2    3.62    0.09
 -11   1   2   12.50    0.30
 -10   1   2   30.29    0.46
  -9   1   2    0.56    0.04
  -8   1   2    6.72    0.17
  -7   1   2   19.86    0.41
  -5   1   2   54.00    1.95
  -4   1   2   23.79    0.89
  -3   1   2   77.94    2.16
  -2   1   2   13.30    0.34
  -1   1   2  605.55   16.20
   3   1   2   55.10    1.67
   4   1   2   41.89    1.48
   5   1   2   65.42    1.35
   6   1   2    7.34    0.24
   8   1   2    8.26    0.19
   9   1   2    2.09    0.11
  10   1   2    8.04    0.16
 -11   2   2    3.23    0.10
 -10   2   2   15.05    0.29
  -9   2   2   17.84    0.37
  -8   2   2   32.79    0.65
  -7   2   2   24.76    0.73
  -6   2   2    7.59    0.26
  -4   2   2  106.28    3.91
  -3   2   2  225.69    9.81
  -2   2   2  185.73    6.97
  -1   2   2  184.42    5.28
   0   2   2   42.47    1.00
   1   2   2  194.77    4.07
   2   2   2   91.10    2.45
   3   2   2   31.74    0.83
   4   2   2  329.41    8.40
   5   2   2   10.33    0.25
   6   2   2   12.93    0.31
   7   2   2    6.09    0.21
   8   2   2   28.93    0.77
   9   2   2   12.52    0.36
  10   2   2    0.51    0.03
 -10   3   2   14.14    0.27
  -9   3   2    6.10    0.23
  -8   3   2    9.25    0.32
  -7   3   2   34.33    0.96
  -6   3   2  125.59    3.38
  -3   3   2   64.61    2.57
  -2   3   2    1.95    0.11
  -1   3   2   30.38    0.77
   0   3   2  218.53    6.17
   1   3   2  187.68    4.72
   2   3   2   37.39    0.95
   3   3   2  103.07    2.70
   4   3   2   43.93    1.13
   5   3   2    3.98    0.21
   6   3   2   65.50    1.39
   7   3   2   11.83    0.38
   9   3   2    6.18    0.20
 -10   4   2   11.27    0.36
  -9   4   2   31.41    0.92
  -8   4   2    4.09    0.17
  -7   4   2   13.52    0.34
  -3   4   2   50.47    1.87
  -2   4   2   13.28    0.52
  -1   4   2   60.73    1.60
   0   4   2   15.69    0.42
   1   4   2   75.86    1.95
   2   4   2   50.30    1.30
   3   4   2  137.33    3.52
   4   4   2   90.50    3.07
   5   4   2   41.76    1.52
   6   4   2    2.77    0.18
   8   4   2   17.89    0.54
   9   4   2   41.87    1.08
  -9   5   2    8.97    0.21
  -8   5   2   25.18    0.74
  -7   5   2   29.48    0.87
  -6   5   2   29.03    1.08
  -2   5   2    2.13    0.13
  -1   5   2  247.74   11.23
   0   5   2   99.57    2.69
   1   5   2   44.43    1.16
   2   5   2    6.27    0.28
   3   5   2   37.84    1.39
   4   5   2    8.27    0.37
   5   5   2   43.95    1.66
   8   5   2   16.07    0.50
  -9   6   2   21.76    0.43
  -8   6   2    4.75    0.19
  -7   6   2    0.62    0.07
   1   6   2    1.74    0.12
   2   6   2    5.73    0.28
   3   6   2   11.70    0.48
   4   6   2    1.38    0.13
  -8   7   2    5.71    0.21
  -7   7   2   10.54    0.33
  -6   7   2   15.77    0.49
   2   7   2   47.13    1.75
   3   7   2   21.04    0.86
   7   7   2   19.11    0.56
  -7   8   2    3.43    0.14
  -6   8   2   16.86    0.51
  -4 -10   3   15.23    0.26
  -3 -10   3    8.99    0.16
   1 -10   3    5.10    0.19
   2 -10   3   45.39    0.79
   3 -10   3    7.10    0.19
  -6  -9   3    4.68    0.07
  -5  -9   3   17.68    0.20
  -4  -9   3    1.89    0.05
  -3  -9   3    2.98    0.06
  -2  -9   3   15.17    0.38
  -1  -9   3   90.21    1.54
   0  -9   3   19.75    0.60
   1  -9   3   16.12    0.35
   2  -9   3   10.66    0.19
   3  -9   3   14.88    0.25
   4  -9   3   14.62    0.20
   5  -9   3   18.08    0.43
  -7  -8   3    2.01    0.04
  -6  -8   3   12.24    0.15
  -5  -8   3   92.28    0.96
  -4  -8   3    2.51    0.05
  -3  -8   3    6.52    0.10
  -2  -8   3   50.60    0.60
  -1  -8   3   16.62    0.32
   0  -8   3   12.90    0.22
   1  -8   3   39.40    0.60
   2  -8   3    7.50    0.15
   3  -8   3    3.85    0.08
   4  -8   3    0.95    0.04
   5  -8   3    1.11    0.04
   6  -8   3    0.77    0.03
  -8  -7   3    1.39    0.03
  -7  -7   3   12.01    0.15
  -6  -7   3   28.08    0.32
  -5  -7   3   59.07    0.63
  -4  -7   3   76.34    0.75
  -3  -7   3   23.27    0.26
  -2  -7   3   61.73    0.63
  -1  -7   3   68.49    0.83
   0  -7   3    1.48    0.05
   1  -7   3   67.73    0.99
   2  -7   3   31.24    0.40
   3  -7   3   47.13    0.59
   4  -7   3   15.91    0.20
   5  -7   3   20.13    0.25
   6  -7   3    1.69    0.04
   7  -7   3    0.76    0.04
  -9  -6   3   12.97    0.19
  -8  -6   3   12.45    0.14
  -7  -6   3   19.22    0.21
  -6  -6   3    2.87    0.05
  -5  -6   3   65.95    0.56
  -4  -6   3  125.35    1.10
  -3  -6   3  161.62    1.66
  -2  -6   3   68.40    0.77
  -1  -6   3   15.78    0.21
   0  -6   3   27.78    0.57
   1  -6   3   80.47    1.16
   2  -6   3    2.46    0.06
   3  -6   3   52.79    0.59
   4  -6   3   12.67    0.17
   5  -6   3    6.04    0.10
   6  -6   3   12.12    0.16
   7  -6   3    0.93    0.03
 -10  -5   3    5.37    0.12
  -9  -5   3   21.61    0.33
  -8  -5   3   51.03    0.51
  -7  -5   3   15.15    0.17
  -6  -5   3   31.37    0.28
  -5  -5   3    1.27    0.03
  -4  -5   3    8.46    0.12
  -3  -5   3    0.81    0.04
  -2  -5   3   72.97    1.37
  -1  -5   3   14.78    0.35
   0  -5   3  203.01    4.54
   1  -5   3   19.59    0.59
   2  -5   3   38.90    0.57
   3  -5   3   32.31    0.43
   4  -5   3    2.62    0.06
   5  -5   3    5.20    0.09
   6  -5   3   17.32    0.22
   7  -5   3    4.97    0.10
   8  -5   3    2.36    0.07
 -10  -4   3    3.64    0.09
  -9  -4   3   57.92    0.98
  -8  -4   3   26.70    0.31
  -7  -4   3   14.52    0.15
  -6  -4   3   10.31    0.11
  -5  -4   3    8.29    0.10
  -4  -4   3  402.91    5.70
  -3  -4   3   89.70    2.34
  -2  -4   3   27.19    0.72
  -1  -4   3   11.42    0.32
   0  -4   3   14.60    0.55
   1  -4   3   88.01    3.87
   2  -4   3   65.72    1.78
   3  -4   3    1.46    0.05
   4  -4   3   32.82    0.43
   5  -4   3    0.44    0.03
   6  -4   3   19.72    0.27
   7  -4   3    0.58    0.04
   8  -4   3   54.50    0.92
 -10  -3   3    9.07    0.19
  -9  -3   3   12.56    0.25
  -8  -3   3   28.24    0.38
  -7  -3   3   16.15    0.21
  -6  -3   3    2.71    0.05
  -5  -3   3   29.54    0.53
  -4  -3   3   23.93    0.64
  -3  -3   3   53.34    1.38
  -2  -3   3  185.29    4.80
  -1  -3   3   37.76    0.97
   0  -3   3    5.96    0.18
   1  -3   3   49.37    1.68
   2  -3   3  129.89    4.62
   4  -3   3   15.11    0.24
   5  -3   3    0.78    0.05
   6  -3   3   29.99    0.39
   7  -3   3    2.47    0.07
   8  -3   3    3.09    0.10
   9  -3   3    1.27    0.05
 -11  -2   3   27.34    0.47
 -10  -2   3   94.23    1.53
  -9  -2   3    7.69    0.15
  -8  -2   3    7.91    0.15
  -7  -2   3    5.30    0.10
  -6  -2   3   18.99    0.35
  -5  -2   3   22.56    0.46
  -4  -2   3  156.06    4.09
  -3  -2   3  570.79   16.59
  -2  -2   3   94.04    2.42
  -1  -2   3   22.70    0.60
   0  -2   3   87.26    2.30
   1  -2   3   22.78    0.60
   2  -2   3   50.39    1.81
   3  -2   3   44.37    1.60
   4  -2   3  394.42    7.49
   5  -2   3   10.90    0.16
   6  -2   3    5.92    0.12
   7  -2   3    9.35    0.14
   8  -2   3    0.43    0.03
   9  -2   3    1.67    0.05
 -11  -1   3   12.54    0.23
 -10  -1   3   14.82    0.24
  -9  -1   3    8.42    0.16
  -8  -1   3   57.14    0.82
  -7  -1   3   18.03    0.28
  -6  -1   3   78.01    2.18
  -5  -1   3   78.37    2.01
  -4  -1   3   95.93    2.47
  -3  -1   3    0.86    0.05
  -2  -1   3  140.46    4.02
  -1  -1   3  184.10    5.15
   0  -1   3   57.25    1.53
   1  -1   3  224.12    6.75
   2  -1   3  117.15    4.42
   3  -1   3  197.62    6.68
   4  -1   3  364.22    7.66
   5  -1   3    6.82    0.19
   6  -1   3   32.46    0.47
   7  -1   3    2.07    0.08
   8  -1   3    3.95    0.09
   9  -1   3    5.45    0.10
 -11   0   3   52.01    1.15
 -10   0   3    0.54    0.04
  -9   0   3    2.10    0.06
  -8   0   3   22.28    0.35
  -7   0   3    6.84    0.13
  -6   0   3  163.56    3.56
  -5   0   3    0.24    0.05
  -4   0   3   52.21    1.34
  -3   0   3   13.24    0.35
  -2   0   3   69.82    1.83
  -1   0   3  216.55    6.61
   0   0   3   86.24    2.23
   1   0   3   39.74    1.04
   2   0   3   54.15    2.02
   3   0   3 1000.00   37.58
   4   0   3   34.19    1.22
   6   0   3   17.07    0.50
   7   0   3   52.91    0.97
   8   0   3   17.88    0.36
   9   0   3    8.22    0.14
 -11   1   3   12.76    0.31
 -10   1   3   14.77    0.29
  -9   1   3    8.20    0.15
  -8   1   3   56.85    1.07
  -7   1   3   17.25    0.54
  -6   1   3   82.02    2.18
  -5   1   3   80.19    2.91
  -4   1   3   95.17    3.63
  -3   1   3    0.81    0.04
  -2   1   3  135.98    3.93
  -1   1   3  183.66    4.69
   0   1   3   59.71    1.71
   1   1   3  227.01    4.95
   2   1   3  130.13    3.26
   3   1   3  184.36    4.82
   4   1   3  385.82   13.05
   5   1   3    6.79    0.18
   6   1   3   33.15    0.88
   7   1   3    2.09    0.12
   8   1   3    3.90    0.11
   9   1   3    5.74    0.19
 -10   2   3   92.09    1.58
  -9   2   3    7.55    0.17
  -8   2   3    8.53    0.29
  -7   2   3    5.59    0.14
  -6   2   3   19.01    0.56
  -5   2   3   24.75    0.54
  -4   2   3  160.36    7.33
  -3   2   3  582.75   23.54
  -2   2   3   91.53    2.62
  -1   2   3   23.26    0.59
   0   2   3   90.48    2.43
   1   2   3   23.56    0.60
   2   2   3   52.51    1.34
   3   2   3   45.94    1.17
   4   2   3  413.55   14.07
   5   2   3   10.81    0.27
   6   2   3    5.66    0.17
   7   2   3    8.72    0.30
   8   2   3    0.50    0.05
   9   2   3    1.62    0.09
 -10   3   3    8.76    0.30
  -9   3   3   12.29    0.40
  -8   3   3   27.28    0.57
  -7   3   3   18.13    0.51
  -6   3   3    2.47    0.12
  -5   3   3   29.88    0.84
  -4   3   3   23.16    0.90
  -3   3   3   55.07    2.00
  -2   3   3  184.87    6.98
  -1   3   3   37.85    0.97
   0   3   3    6.13    0.18
   1   3   3   45.38    1.19
   2   3   3  128.60    3.36
   3   3   3   53.58    1.38
   4   3   3   15.50    0.60
   5   3   3    0.54    0.08
   6   3   3   30.07    0.66
   7   3   3    2.62    0.13
   9   3   3    1.35    0.08
 -10   4   3    3.47    0.15
  -9   4   3   58.31    1.13
  -8   4   3   26.31    0.54
  -7   4   3   14.71    0.36
  -6   4   3   10.40    0.33
  -5   4   3    8.44    0.27
  -3   4   3   89.61    3.29
  -2   4   3   26.70    1.03
  -1   4   3   11.38    0.32
   0   4   3   14.75    0.40
   1   4   3   91.00    2.52
   2   4   3   65.02    1.67
   3   4   3    1.63    0.12
   4   4   3   32.44    1.21
   5   4   3    0.34    0.08
   6   4   3   19.56    0.56
   7   4   3    0.64    0.07
   9   4   3   14.96    0.40
  -9   5   3   21.87    0.45
  -8   5   3   52.48    1.43
  -7   5   3   14.10    0.47
  -6   5   3   30.17    0.89
  -2   5   3   74.91    2.73
  -1   5   3   13.87    0.59
   0   5   3  217.64    5.43
   1   5   3   20.32    0.75
   2   5   3   37.97    1.40
   3   5   3   31.81    1.19
   4   5   3    2.33    0.17
   7   5   3    4.74    0.19
   8   5   3    2.41    0.10
  -9   6   3   13.11    0.28
  -8   6   3   12.81    0.28
  -7   6   3   18.92    0.58
  -6   6   3    3.36    0.14
  -5   6   3   66.07    1.80
   1   6   3   81.51    2.83
   2   6   3    2.54    0.16
   3   6   3   48.92    1.87
   7   6   3    0.93    0.07
  -8   7   3    1.39    0.06
  -7   7   3   11.07    0.37
  -6   7   3   27.48    0.80
   2   7   3   29.68    1.16
  -7   8   3    1.89    0.10
  -6   9   3    4.49    0.16
  -4 -10   4    2.11    0.05
  -3 -10   4    2.99    0.10
  -6  -9   4    2.92    0.06
  -5  -9   4    1.07    0.04
  -4  -9   4   10.67    0.16
  -3  -9   4   15.35    0.22
  -2  -9   4    9.49    0.20
  -1  -9   4   11.07    0.23
   0  -9   4   32.46    0.66
   1  -9   4    3.61    0.09
   2  -9   4   10.49    0.18
   3  -9   4   16.17    0.26
   4  -9   4   27.33    0.49
  -7  -8   4    8.02    0.11
  -6  -8   4    5.44    0.08
  -5  -8   4   58.21    0.62
  -4  -8   4    7.62    0.11
  -3  -8   4    3.25    0.06
  -2  -8   4   21.08    0.27
  -1  -8   4   70.33    1.03
   0  -8   4   25.33    0.40
   1  -8   4   11.71    0.21
   2  -8   4   10.89    0.20
   3  -8   4    0.80    0.04
   4  -8   4    8.88    0.13
   5  -8   4    7.86    0.12
  -8  -7   4   14.40    0.18
  -7  -7   4    5.73    0.08
  -6  -7   4    8.44    0.12
  -5  -7   4   37.25    0.38
  -4  -7   4   15.55    0.18
  -3  -7   4  491.47    4.90
  -2  -7   4  114.02    1.13
  -1  -7   4  113.92    1.36
   0  -7   4   10.78    0.16
   1  -7   4   20.75    0.34
   2  -7   4   19.46    0.27
   3  -7   4   51.66    0.64
   4  -7   4    3.93    0.08
   5  -7   4    1.26    0.04
   6  -7   4    2.73    0.05
  -9  -6   4    2.31    0.07
  -8  -6   4    8.09    0.11
  -7  -6   4   34.02    0.38
  -6  -6   4   18.55    0.21
  -5  -6   4   74.86    0.71
  -4  -6   4   87.86    0.83
  -3  -6   4   36.31    0.36
  -2  -6   4    4.29    0.07
  -1  -6   4  111.32    1.14
   0  -6   4    1.04    0.04
   1  -6   4   43.01    0.53
   2  -6   4    0.53    0.03
   3  -6   4   12.40    0.18
   4  -6   4   16.65    0.21
   5  -6   4   37.74    0.43
   6  -6   4    7.63    0.11
   7  -6   4   13.01    0.19
 -10  -5   4    0.10    0.02
  -9  -5   4    4.83    0.12
  -8  -5   4   49.66    0.54
  -7  -5   4   97.36    0.89
  -6  -5   4   19.84    0.20
  -5  -5   4    9.05    0.10
  -4  -5   4   11.18    0.15
  -3  -5   4   31.23    0.38
  -2  -5   4    6.96    0.20
  -1  -5   4  112.44    1.89
   0  -5   4    9.64    0.20
   1  -5   4   25.73    0.40
   2  -5   4   14.84    0.24
   3  -5   4    4.93    0.08
   4  -5   4   18.11    0.23
   5  -5   4   39.96    0.46
   6  -5   4    0.70    0.03
   7  -5   4    0.51    0.04
 -10  -4   4    6.38    0.14
  -9  -4   4    7.30    0.17
  -8  -4   4   13.81    0.21
  -7  -4   4   12.16    0.14
  -6  -4   4   18.49    0.19
  -5  -4   4    3.74    0.06
  -4  -4   4   23.57    0.36
  -3  -4   4  100.10    1.86
  -2  -4   4   16.61    0.34
  -1  -4   4   40.36    1.46
   0  -4   4    0.20    0.03
   1  -4   4  109.14    2.36
   2  -4   4  123.29    2.32
   3  -4   4   39.93    0.52
   4  -4   4    4.82    0.08
   5  -4   4   18.45    0.23
   6  -4   4   35.39    0.45
   7  -4   4   24.33    0.44
   8  -4   4    2.41    0.07
 -10  -3   4    1.25    0.06
  -9  -3   4   33.90    0.51
  -8  -3   4   71.89    1.03
  -7  -3   4    5.62    0.10
  -6  -3   4    9.24    0.11
  -5  -3   4    7.04    0.13
  -4  -3   4   43.09    0.82
  -3  -3   4  234.07    6.04
  -2  -3   4  259.09    6.70
  -1  -3   4   36.85    0.94
   0  -3   4   18.31    0.69
   1  -3   4   21.14    0.80
   2  -3   4   66.86    2.35
   3  -3   4   98.72    1.39
   4  -3   4   37.91    0.49
   5  -3   4   49.16    0.60
   6  -3   4   51.81    0.88
   7  -3   4    1.60    0.07
   8  -3   4    6.55    0.22
 -11  -2   4   18.32    0.32
 -10  -2   4    0.63    0.04
  -9  -2   4    7.15    0.14
  -8  -2   4    8.40    0.16
  -7  -2   4   18.71    0.39
  -6  -2   4   61.22    1.32
  -5  -2   4  180.22    3.94
  -4  -2   4   80.61    2.04
  -3  -2   4   29.41    0.78
  -2  -2   4   63.03    1.61
  -1  -2   4  125.77    3.83
   0  -2   4  159.21    4.05
   1  -2   4  241.80    8.61
   2  -2   4  180.81    6.00
   3  -2   4  327.86    7.06
   4  -2   4   54.55    0.93
   5  -2   4   66.76    1.12
   6  -2   4   70.74    0.99
   7  -2   4    8.03    0.15
   8  -2   4    3.77    0.11
 -11  -1   4    7.01    0.19
 -10  -1   4    7.46    0.14
  -9  -1   4   25.64    0.39
  -8  -1   4   70.21    1.01
  -7  -1   4   11.45    0.20
  -6  -1   4   18.27    0.54
  -5  -1   4   64.36    1.21
  -4  -1   4   36.79    0.94
  -3  -1   4  214.78    5.46
  -2  -1   4    3.28    0.11
  -1  -1   4  257.87    6.87
   0  -1   4   63.69    1.67
   1  -1   4   12.42    0.34
   2  -1   4   93.67    4.88
   3  -1   4  211.19    7.33
   4  -1   4  634.82    9.61
   5  -1   4   11.55    0.23
   6  -1   4    7.47    0.17
   7  -1   4    7.27    0.18
   8  -1   4    0.65    0.04
   9  -1   4    1.78    0.09
 -11   0   4    9.99    0.25
 -10   0   4  147.17    2.47
  -9   0   4   52.02    0.91
  -8   0   4    0.05    0.02
  -7   0   4    8.43    0.18
  -6   0   4    5.14    0.20
  -5   0   4   14.84    0.36
  -4   0   4   17.61    0.47
  -3   0   4    2.00    0.09
  -2   0   4    5.77    0.17
  -1   0   4   73.62    2.06
   0   0   4  138.71    3.94
   1   0   4  111.38    2.88
   2   0   4  213.50    7.91
   3   0   4   27.30    0.99
   4   0   4   67.33    2.37
   5   0   4    1.38    0.07
   6   0   4   19.68    0.57
   7   0   4   22.12    0.44
   8   0   4    0.42    0.04
   9   0   4    0.86    0.04
 -10   1   4    7.69    0.27
  -9   1   4   25.45    0.47
  -8   1   4   71.59    1.95
  -7   1   4   11.67    0.26
  -6   1   4   17.33    0.37
  -5   1   4   65.58    1.42
  -4   1   4   35.45    1.37
  -3   1   4  209.05    5.86
  -2   1   4    3.33    0.14
  -1   1   4  258.47    7.19
   0   1   4   65.14    1.85
   1   1   4   12.56    0.34
   2   1   4   98.75    2.83
   3   1   4  200.60    7.37
   4   1   4  608.39   13.01
   5   1   4   11.56    0.29
   6   1   4    7.60    0.26
   7   1   4    7.43    0.26
   8   1   4    0.69    0.05
   9   1   4    1.73    0.05
 -10   2   4    0.64    0.07
  -9   2   4    7.22    0.27
  -8   2   4    8.33    0.21
  -7   2   4   18.93    0.40
  -6   2   4   59.72    1.16
  -5   2   4  180.65    3.99
  -4   2   4   80.03    2.96
  -3   2   4   30.43    1.13
  -2   2   4   59.72    1.60
  -1   2   4  124.53    4.24
   0   2   4  154.34    4.49
   1   2   4  245.78    6.29
   2   2   4  159.04    4.32
   3   2   4  345.38   11.81
   4   2   4   58.63    1.99
   5   2   4   68.27    1.41
   6   2   4   71.25    1.84
   7   2   4    8.46    0.27
   8   2   4    3.85    0.11
   9   2   4    1.37    0.07
 -10   3   4    1.19    0.08
  -9   3   4   34.29    0.68
  -8   3   4   71.84    1.38
  -7   3   4    5.51    0.15
  -6   3   4    9.20    0.30
  -5   3   4    7.32    0.24
  -4   3   4   42.72    1.62
  -3   3   4  228.56   10.88
  -2   3   4  263.06    7.30
  -1   3   4   35.67    0.93
   0   3   4   18.87    0.50
   1   3   4   21.97    0.58
   2   3   4   67.55    1.72
   3   3   4  100.44    3.53
   4   3   4   36.82    1.38
   5   3   4   48.74    1.04
   6   3   4   51.03    1.36
   7   3   4    1.70    0.10
   8   3   4    6.32    0.21
 -10   4   4    6.19    0.22
  -9   4   4    7.58    0.18
  -8   4   4   13.93    0.31
  -7   4   4   11.44    0.39
  -6   4   4   21.05    0.57
  -5   4   4    3.45    0.15
  -3   4   4   96.85    3.65
  -2   4   4   16.79    0.67
  -1   4   4   40.91    1.05
   0   4   4    0.16    0.04
   1   4   4  110.87    3.94
   2   4   4  120.80    4.36
   3   4   4   39.16    1.45
   4   4   4    4.63    0.25
   6   4   4   35.48    0.95
   7   4   4   24.95    0.68
   8   4   4    2.52    0.11
  -9   5   4    4.91    0.13
  -8   5   4   51.16    0.98
  -7   5   4   96.10    2.65
  -6   5   4   20.09    0.59
  -5   5   4    8.35    0.29
   0   5   4    9.81    0.39
   1   5   4   25.39    0.95
   2   5   4   14.54    0.59
   4   5   4   17.35    0.72
   6   5   4    0.69    0.07
   8   5   4    0.11    0.03
  -9   6   4    2.39    0.11
  -8   6   4    7.96    0.19
  -7   6   4   34.30    0.97
  -6   6   4   17.22    0.54
   1   6   4   39.09    1.52
   2   6   4    0.59    0.09
   3   6   4   11.57    0.52
  -8   7   4   14.77    0.43
  -7   7   4    6.01    0.22
  -7   8   4    8.08    0.26
  -6   8   4    5.34    0.20
  -6  -9   5    0.31    0.02
  -5  -9   5    6.83    0.11
  -4  -9   5    7.07    0.11
  -3  -9   5   24.50    0.30
  -2  -9   5    2.12    0.07
  -1  -9   5    5.28    0.14
   0  -9   5    3.70    0.11
   1  -9   5   81.00    1.18
   2  -9   5    3.62    0.08
   3  -9   5   18.67    0.34
  -7  -8   5   31.28    0.36
  -6  -8   5    1.97    0.05
  -5  -8   5   72.82    0.76
  -4  -8   5    7.10    0.10
  -3  -8   5   13.49    0.18
  -2  -8   5    8.78    0.13
  -1  -8   5   93.78    1.35
   0  -8   5   77.31    1.50
   1  -8   5   43.92    0.67
   2  -8   5    4.46    0.10
   3  -8   5   11.23    0.16
   4  -8   5    3.76    0.07
  -8  -7   5    2.46    0.05
  -7  -7   5    7.80    0.11
  -6  -7   5    7.20    0.10
  -5  -7   5    0.40    0.03
  -4  -7   5   23.92    0.28
  -3  -7   5   67.53    0.72
  -2  -7   5   28.48    0.32
  -1  -7   5    9.90    0.15
   0  -7   5   38.46    0.49
   1  -7   5   26.62    0.43
   2  -7   5   15.27    0.22
   3  -7   5   35.02    0.45
   4  -7   5    4.42    0.08
   5  -7   5   14.34    0.19
   6  -7   5    3.95    0.12
  -9  -6   5    6.23    0.13
  -8  -6   5   13.12    0.17
  -7  -6   5   24.46    0.28
  -6  -6   5   35.51    0.37
  -5  -6   5    2.04    0.05
  -4  -6   5    3.00    0.05
  -3  -6   5   18.36    0.20
  -2  -6   5   57.80    0.55
  -1  -6   5  130.24    1.46
   0  -6   5   11.91    0.15
   1  -6   5   14.77    0.30
   2  -6   5   23.87    0.32
   3  -6   5   11.01    0.17
   4  -6   5   24.90    0.33
   5  -6   5    5.61    0.09
   6  -6   5    0.52    0.03
 -10  -5   5   12.91    0.24
  -9  -5   5   16.61    0.31
  -8  -5   5   22.89    0.26
  -7  -5   5    0.71    0.03
  -6  -5   5    5.86    0.08
  -5  -5   5   17.79    0.19
  -4  -5   5   35.88    0.35
  -3  -5   5   15.41    0.17
  -2  -5   5  157.71    1.61
  -1  -5   5    9.11    0.13
   0  -5   5    3.93    0.07
   1  -5   5   27.15    0.36
   2  -5   5   55.12    0.80
   3  -5   5   18.40    0.25
   4  -5   5   27.21    0.32
   5  -5   5    0.22    0.02
   6  -5   5   18.46    0.27
   7  -5   5    4.98    0.12
 -10  -4   5   10.77    0.21
  -9  -4   5    9.53    0.17
  -8  -4   5   11.56    0.20
  -7  -4   5  147.16    1.52
  -6  -4   5  135.10    1.26
  -5  -4   5   31.70    0.34
  -4  -4   5    0.15    0.02
  -3  -4   5    6.59    0.12
  -2  -4   5  227.42    4.97
  -1  -4   5    9.54    0.25
   0  -4   5   64.30    1.10
   1  -4   5    9.64    0.16
   2  -4   5   23.09    0.36
   3  -4   5    9.58    0.13
   4  -4   5    3.83    0.07
   5  -4   5   12.58    0.21
   6  -4   5    2.44    0.08
   7  -4   5    1.43    0.06
 -10  -3   5    0.99    0.04
  -9  -3   5    4.72    0.10
  -8  -3   5   25.16    0.39
  -7  -3   5    7.82    0.15
  -6  -3   5    3.57    0.06
  -5  -3   5    7.32    0.10
  -4  -3   5   49.19    1.09
  -3  -3   5   99.00    1.83
  -2  -3   5  140.52    3.51
  -1  -3   5   82.75    2.81
   0  -3   5    0.66    0.07
   1  -3   5   15.09    0.37
   2  -3   5    2.90    0.06
   3  -3   5   18.96    0.26
   4  -3   5   71.81    0.97
   5  -3   5   30.61    0.44
   6  -3   5   19.02    0.36
   7  -3   5   14.43    0.27
 -11  -2   5   15.48    0.36
 -10  -2   5   16.82    0.26
  -9  -2   5    5.11    0.11
  -8  -2   5   22.36    0.35
  -7  -2   5    6.88    0.13
  -6  -2   5    5.57    0.13
  -5  -2   5   15.29    0.37
  -4  -2   5   10.48    0.23
  -3  -2   5   41.80    1.08
  -2  -2   5  181.06    4.60
  -1  -2   5  216.18    6.14
   0  -2   5   57.09    1.97
   1  -2   5   38.23    1.39
   2  -2   5   47.45    1.67
   3  -2   5   13.19    0.23
   4  -2   5   71.66    0.97
   5  -2   5    1.28    0.06
   6  -2   5   93.90    1.56
   7  -2   5    6.30    0.14
   8  -2   5    0.28    0.05
 -10  -1   5   21.50    0.40
  -9  -1   5  145.61    2.47
  -8  -1   5  121.08    1.69
  -7  -1   5   19.21    0.37
  -6  -1   5   29.37    0.60
  -5  -1   5   19.06    0.44
  -4  -1   5  305.04    7.72
  -3  -1   5  115.54    2.98
  -2  -1   5   87.09    2.23
  -1  -1   5   54.18    1.44
   0  -1   5    0.63    0.04
   2  -1   5   73.57    2.64
   3  -1   5   27.75    0.62
   4  -1   5    0.49    0.04
   5  -1   5   26.26    0.47
   6  -1   5   14.21    0.23
   7  -1   5    0.51    0.04
   8  -1   5    9.76    0.21
 -10   0   5   19.63    0.60
  -9   0   5    3.07    0.16
  -8   0   5    0.78    0.08
  -7   0   5   53.66    1.05
  -6   0   5  308.59    5.88
  -5   0   5   32.01    0.91
  -4   0   5    4.40    0.15
  -3   0   5    7.96    0.23
  -2   0   5   56.78    1.46
  -1   0   5  175.64    4.81
   0   0   5    3.24    0.11
   1   0   5   52.14    1.33
   2   0   5    1.69    0.12
   3   0   5   11.23    0.27
   4   0   5   11.10    0.28
   5   0   5  362.17    5.93
   6   0   5   11.28    0.36
   7   0   5    6.72    0.16
   8   0   5    0.79    0.05
 -10   1   5   21.60    0.65
  -9   1   5  146.82    3.95
  -8   1   5  120.02    2.29
  -7   1   5   19.45    0.41
  -6   1   5   30.33    0.60
  -5   1   5   18.03    0.55
  -4   1   5  291.56   11.22
  -3   1   5  115.39    2.96
  -2   1   5   83.82    2.31
  -1   1   5   58.45    1.57
   0   1   5    0.63    0.04
   1   1   5    1.24    0.06
   2   1   5   77.48    2.65
   3   1   5   29.50    1.06
   4   1   5    0.52    0.05
   5   1   5   27.12    0.60
   6   1   5   14.41    0.43
   7   1   5    0.47    0.05
   8   1   5   10.11    0.21
 -10   2   5   16.33    0.51
  -9   2   5    5.09    0.14
  -8   2   5   21.29    0.46
  -7   2   5    6.53    0.17
  -6   2   5    4.97    0.14
  -5   2   5   14.85    0.32
  -4   2   5    9.83    0.43
  -3   2   5   41.38    1.57
  -2   2   5  175.93    4.97
  -1   2   5  224.34    5.94
   0   2   5   55.39    1.43
   1   2   5   38.94    1.01
   2   2   5   46.57    1.21
   3   2   5   13.20    0.53
   4   2   5   75.00    2.58
   5   2   5    1.29    0.08
   6   2   5   95.40    2.43
   7   2   5    6.47    0.22
   8   2   5    0.28    0.03
 -10   3   5    0.99    0.08
  -9   3   5    4.72    0.13
  -8   3   5   24.89    0.52
  -7   3   5    8.25    0.20
  -6   3   5    3.35    0.11
  -5   3   5    7.08    0.17
  -3   3   5   95.00    3.61
  -2   3   5  132.95    4.16
  -1   3   5   76.35    2.14
   0   3   5    0.54    0.05
   1   3   5   16.48    0.61
   2   3   5    2.92    0.17
   3   3   5   19.33    0.74
   4   3   5   71.12    2.55
   5   3   5   32.45    0.86
   6   3   5   19.60    0.55
   7   3   5   14.05    0.42
   8   3   5    9.69    0.28
 -10   4   5   11.28    0.24
  -9   4   5    9.49    0.22
  -8   4   5   11.25    0.26
  -7   4   5  146.05    2.80
  -6   4   5  135.39    2.55
  -5   4   5   31.24    0.89
  -4   4   5    0.22    0.04
  -1   4   5    9.16    0.38
   0   4   5   66.67    2.28
   1   4   5    9.90    0.41
   2   4   5   23.63    0.89
   3   4   5    9.67    0.43
   4   4   5    3.47    0.22
   5   4   5   13.10    0.39
   6   4   5    2.43    0.12
   7   4   5    1.48    0.09
  -9   5   5   16.38    0.35
  -8   5   5   22.88    0.47
  -7   5   5    0.70    0.05
  -6   5   5    6.11    0.23
  -5   5   5   18.81    0.54
  -3   5   5   15.75    0.46
   0   5   5    4.01    0.21
   1   5   5   27.72    1.02
   2   5   5   52.21    1.96
   3   5   5   18.06    0.74
   5   5   5    0.18    0.05
   6   5   5   18.57    0.52
  -9   6   5    6.15    0.21
  -8   6   5   13.32    0.41
  -7   6   5   25.53    0.72
  -6   6   5   35.94    1.01
  -4   6   5    3.07    0.14
   1   6   5   14.34    0.59
   5   6   5    5.65    0.20
  -8   7   5    2.52    0.11
  -7   7   5    7.87    0.27
  -6   7   5    7.41    0.26
  -5   7   5    0.50    0.07
  -4   7   5   23.30    0.69
  -7   8   5   30.00    0.85
  -6   8   5    1.85    0.10
  -5   8   5   70.05    1.94
  -5  -9   6    8.47    0.13
  -4  -9   6    6.74    0.11
  -3  -9   6    0.70    0.03
  -2  -9   6    7.77    0.27
  -1  -9   6   10.33    0.24
   0  -9   6    9.93    0.23
   1  -9   6   15.86    0.25
   2  -9   6   24.12    0.44
  -7  -8   6    2.01    0.04
  -6  -8   6    6.33    0.09
  -5  -8   6    0.51    0.03
  -4  -8   6   48.29    0.57
  -3  -8   6   63.04    0.74
  -2  -8   6   81.72    1.19
  -1  -8   6   35.45    0.72
   0  -8   6   10.70    0.19
   1  -8   6    2.33    0.07
   2  -8   6    7.90    0.15
   3  -8   6    8.89    0.16
   4  -8   6    8.29    0.22
  -8  -7   6    1.12    0.03
  -7  -7   6    0.39    0.02
  -6  -7   6   18.87    0.22
  -5  -7   6   71.39    0.75
  -4  -7   6    5.38    0.08
  -3  -7   6   52.40    0.57
  -2  -7   6    3.87    0.07
  -1  -7   6   68.85    1.01
   0  -7   6   42.86    0.66
   1  -7   6   26.00    0.42
   2  -7   6    7.58    0.15
   3  -7   6    0.58    0.03
   4  -7   6    3.49    0.07
   5  -7   6   13.42    0.23
  -9  -6   6    8.47    0.16
  -8  -6   6   12.92    0.15
  -7  -6   6   16.90    0.20
  -6  -6   6    9.56    0.13
  -5  -6   6    1.02    0.04
  -4  -6   6    0.35    0.02
  -3  -6   6   98.13    0.92
  -2  -6   6  108.46    1.09
  -1  -6   6  163.33    1.64
   0  -6   6   47.12    0.59
   1  -6   6   27.25    0.44
   2  -6   6   10.15    0.16
   3  -6   6    7.42    0.12
   4  -6   6   19.12    0.26
   5  -6   6    9.03    0.17
   6  -6   6    1.83    0.05
  -9  -5   6    6.56    0.12
  -8  -5   6   17.90    0.21
  -7  -5   6    3.09    0.06
  -6  -5   6   20.36    0.24
  -5  -5   6  165.11    1.65
  -4  -5   6   41.27    0.41
  -3  -5   6   13.46    0.15
  -2  -5   6    4.18    0.06
  -1  -5   6    8.56    0.10
   0  -5   6   10.03    0.15
   1  -5   6   89.87    1.08
   2  -5   6    7.03    0.12
   3  -5   6   14.72    0.21
   4  -5   6    2.03    0.05
   5  -5   6    9.36    0.16
   6  -5   6   22.87    0.32
 -10  -4   6    3.61    0.09
  -9  -4   6   39.39    0.58
  -8  -4   6    8.17    0.16
  -7  -4   6    7.49    0.11
  -6  -4   6  163.40    1.62
  -5  -4   6    2.55    0.05
  -4  -4   6   14.70    0.18
  -3  -4   6    0.37    0.02
  -2  -4   6   15.63    0.21
  -1  -4   6  142.36    1.86
   0  -4   6   18.56    0.28
   1  -4   6    6.67    0.10
   2  -4   6    1.23    0.04
   3  -4   6   54.45    0.68
   4  -4   6   80.18    1.08
   5  -4   6   13.90    0.22
   6  -4   6   11.17    0.22
   7  -4   6   10.32    0.25
 -10  -3   6    4.22    0.09
  -9  -3   6    2.30    0.07
  -8  -3   6   24.90    0.39
  -7  -3   6    6.67    0.11
  -6  -3   6   17.13    0.18
  -5  -3   6   16.65    0.21
  -4  -3   6   15.19    0.23
  -3  -3   6    6.15    0.18
  -2  -3   6   11.87    0.24
  -1  -3   6   64.55    1.12
   0  -3   6  257.19    4.38
   1  -3   6   24.83    0.35
   2  -3   6   36.83    0.49
   3  -3   6   23.65    0.34
   4  -3   6   37.29    0.52
   5  -3   6   15.76    0.24
   6  -3   6    7.67    0.17
   7  -3   6    7.96    0.16
 -10  -2   6    4.41    0.19
  -9  -2   6    1.17    0.06
  -8  -2   6    3.20    0.08
  -7  -2   6   59.84    0.88
  -6  -2   6   49.56    0.75
  -5  -2   6    1.84    0.05
  -4  -2   6    6.19    0.14
  -3  -2   6  138.29    2.62
  -2  -2   6   22.98    0.63
  -1  -2   6   23.36    0.85
   0  -2   6   40.12    1.46
   1  -2   6    2.01    0.14
   2  -2   6   12.82    0.31
   3  -2   6    3.14    0.07
   4  -2   6   15.58    0.24
   5  -2   6   71.81    1.21
   6  -2   6   46.64    0.80
   7  -2   6    1.10    0.05
 -10  -1   6    8.43    0.30
  -9  -1   6   66.56    1.84
  -8  -1   6    9.64    0.35
  -7  -1   6   26.92    0.56
  -6  -1   6   72.97    1.39
  -5  -1   6   58.78    1.00
  -4  -1   6   40.79    0.90
  -3  -1   6   30.27    0.81
  -2  -1   6   23.29    0.62
  -1  -1   6    5.38    0.18
   0  -1   6    7.62    0.33
   1  -1   6  112.19    3.87
   2  -1   6    1.48    0.07
   3  -1   6   10.46    0.27
   4  -1   6   12.18    0.24
   5  -1   6    1.68    0.07
   6  -1   6  109.10    1.82
   7  -1   6   27.12    0.73
 -10   0   6    0.34    0.06
  -9   0   6    2.26    0.13
  -8   0   6  211.80    4.07
  -7   0   6  143.99    2.73
  -6   0   6   10.72    0.36
  -5   0   6    0.65    0.05
  -4   0   6   12.04    0.29
  -3   0   6    0.71    0.05
  -2   0   6    0.54    0.05
  -1   0   6   65.82    1.68
   0   0   6    0.98    0.06
   1   0   6   75.92    2.66
   2   0   6    9.86    0.42
   3   0   6   15.01    0.61
   4   0   6   38.50    0.59
   5   0   6    0.90    0.05
   6   0   6   22.44    0.44
   7   0   6    0.54    0.04
 -10   1   6    8.51    0.29
  -9   1   6   65.50    1.28
  -8   1   6   10.17    0.24
  -7   1   6   27.02    0.56
  -6   1   6   70.33    1.38
  -5   1   6   57.95    1.13
  -3   1   6   31.02    0.80
  -2   1   6   22.96    0.62
  -1   1   6    5.51    0.18
   0   1   6    7.87    0.24
   1   1   6  110.30    3.93
   2   1   6    1.67    0.13
   3   1   6   11.02    0.46
   4   1   6   12.00    0.30
   5   1   6    1.45    0.06
   6   1   6  113.63    2.84
   7   1   6   26.47    0.50
 -10   2   6    4.63    0.18
  -9   2   6    1.10    0.06
  -8   2   6    3.21    0.11
  -7   2   6   63.30    1.20
  -6   2   6   50.67    0.98
  -5   2   6    1.90    0.07
  -4   2   6    6.35    0.22
  -2   2   6   23.60    0.63
  -1   2   6   22.43    0.61
   0   2   6   40.71    1.45
   1   2   6    1.87    0.13
   2   2   6   13.75    0.54
   3   2   6    2.96    0.19
   4   2   6   15.49    0.38
   5   2   6   73.34    1.88
   6   2   6   47.24    1.24
   7   2   6    1.13    0.05
 -10   3   6    4.25    0.11
  -9   3   6    2.43    0.09
  -8   3   6   24.96    0.52
  -7   3   6    6.94    0.18
  -6   3   6   17.46    0.37
  -5   3   6   17.07    0.50
  -4   3   6   14.11    0.45
  -2   3   6   12.26    0.47
  -1   3   6   70.00    2.32
   0   3   6  255.85    9.13
   1   3   6   24.95    0.93
   2   3   6   39.07    1.37
   3   3   6   23.24    0.91
   5   3   6   16.18    0.47
   6   3   6    7.78    0.26
   7   3   6    7.90    0.25
  -9   4   6   39.62    0.78
  -8   4   6    8.47    0.21
  -7   4   6    8.09    0.20
  -6   4   6  167.15    4.45
  -5   4   6    2.64    0.13
  -4   4   6   14.44    0.45
  -3   4   6    0.43    0.06
  -1   4   6  140.04    4.93
   0   4   6   18.33    0.71
   1   4   6    6.77    0.32
   2   4   6    1.17    0.12
   5   4   6   14.13    0.42
   6   4   6   10.91    0.33
  -9   5   6    6.60    0.23
  -8   5   6   17.81    0.54
  -7   5   6    3.21    0.15
  -6   5   6   21.40    0.62
  -5   5   6  169.98    4.37
  -4   5   6   41.42    1.14
   0   5   6   10.45    0.43
   1   5   6   83.45    3.12
   5   5   6    9.96    0.30
   6   5   6   22.94    0.62
  -9   6   6    8.05    0.27
  -8   6   6   12.94    0.40
  -7   6   6   17.00    0.51
  -6   6   6    9.55    0.32
  -5   6   6    0.95    0.08
  -4   6   6    0.32    0.05
   5   6   6    8.92    0.28
  -8   7   6    1.10    0.07
  -7   7   6    0.30    0.05
  -6   7   6   18.56    0.56
  -5   7   6   68.62    1.91
  -6   8   6    6.26    0.21
  -4  -9   7    2.36    0.08
  -6  -8   7    0.67    0.03
  -5  -8   7    5.82    0.09
  -4  -8   7    2.34    0.06
  -3  -8   7    6.73    0.11
  -2  -8   7    0.78    0.05
  -1  -8   7   11.64    0.27
   0  -8   7    2.92    0.07
   1  -8   7   36.17    0.55
   2  -8   7   53.15    0.93
  -7  -7   7    0.98    0.03
  -6  -7   7   15.74    0.19
  -5  -7   7   17.66    0.21
  -4  -7   7    1.69    0.05
  -3  -7   7    8.85    0.12
  -2  -7   7   14.25    0.20
  -1  -7   7   44.25    0.88
   0  -7   7   79.87    1.18
   1  -7   7    0.39    0.05
   2  -7   7    3.23    0.08
   3  -7   7    1.21    0.04
   4  -7   7    8.54    0.23
  -8  -6   7   26.31    0.31
  -7  -6   7    0.06    0.01
  -6  -6   7    0.22    0.02
  -5  -6   7   12.78    0.16
  -4  -6   7   26.38    0.28
  -3  -6   7   22.66    0.27
  -2  -6   7    0.42    0.03
  -1  -6   7   53.37    0.67
   0  -6   7   15.12    0.26
   1  -6   7   27.78    0.44
   2  -6   7   20.86    0.28
   3  -6   7    3.51    0.07
   4  -6   7    6.35    0.11
   5  -6   7    0.12    0.02
  -9  -5   7    6.14    0.13
  -8  -5   7    1.01    0.03
  -7  -5   7   46.56    0.50
  -6  -5   7   28.91    0.32
  -5  -5   7   29.36    0.31
  -4  -5   7   32.54    0.34
  -3  -5   7    4.42    0.07
  -2  -5   7   11.51    0.14
  -1  -5   7   33.59    0.36
   0  -5   7  124.51    1.66
   1  -5   7   57.28    0.71
   2  -5   7    5.07    0.09
   3  -5   7    8.81    0.15
   4  -5   7   10.09    0.20
   5  -5   7    1.21    0.05
  -9  -4   7    9.05    0.16
  -8  -4   7   19.58    0.26
  -7  -4   7   13.70    0.17
  -6  -4   7    0.32    0.02
  -5  -4   7  102.77    0.96
  -4  -4   7  115.38    1.08
  -3  -4   7   25.09    0.26
  -2  -4   7   19.78    0.23
  -1  -4   7   10.94    0.14
   0  -4   7   11.20    0.16
   1  -4   7    1.88    0.05
   2  -4   7    3.32    0.08
   3  -4   7    4.28    0.09
   4  -4   7   18.83    0.34
   5  -4   7    4.04    0.08
   6  -4   7   23.46    0.53
  -9  -3   7    6.95    0.26
  -8  -3   7    1.29    0.07
  -7  -3   7   22.88    0.32
  -6  -3   7   36.07    0.40
  -5  -3   7   30.03    0.34
  -4  -3   7   14.73    0.18
  -3  -3   7   19.44    0.24
  -2  -3   7    5.21    0.13
  -1  -3   7  129.62    2.77
   0  -3   7   56.86    0.78
   1  -3   7   53.03    0.68
   2  -3   7    6.12    0.11
   3  -3   7    9.21    0.19
   4  -3   7    5.20    0.10
   5  -3   7   21.94    0.40
   6  -3   7   25.47    0.45
 -10  -2   7   33.93    0.98
  -9  -2   7   20.52    0.63
  -8  -2   7   10.70    0.38
  -7  -2   7    7.33    0.20
  -6  -2   7    1.82    0.06
  -5  -2   7   25.00    0.31
  -4  -2   7    4.97    0.10
  -3  -2   7   71.60    1.21
  -2  -2   7   27.29    0.48
  -1  -2   7    0.78    0.06
   0  -2   7   13.10    0.33
   1  -2   7    2.51    0.08
   2  -2   7   30.04    0.46
   3  -2   7    0.96    0.05
   4  -2   7    1.13    0.05
   5  -2   7    6.71    0.15
   6  -2   7    1.23    0.05
 -10  -1   7    2.94    0.14
  -9  -1   7   12.07    0.41
  -8  -1   7   40.57    0.82
  -7  -1   7   74.36    1.46
  -6  -1   7   76.72    1.47
  -5  -1   7   76.37    1.29
  -4  -1   7   33.26    0.59
  -3  -1   7    0.64    0.04
  -2  -1   7   70.06    1.51
  -1  -1   7   19.32    0.46
   0  -1   7  103.95    2.22
   1  -1   7    4.40    0.24
   2  -1   7    7.23    0.15
   3  -1   7    2.05    0.06
   4  -1   7   14.47    0.28
   5  -1   7    4.84    0.12
   6  -1   7    6.34    0.14
 -10   0   7    1.93    0.11
  -9   0   7   41.26    0.82
  -8   0   7   33.94    0.69
  -7   0   7  296.70    5.72
  -6   0   7    0.53    0.05
  -5   0   7    3.20    0.15
  -4   0   7  301.94    5.12
  -3   0   7    0.35    0.04
  -2   0   7  238.63    5.17
  -1   0   7   47.48    1.70
   0   0   7   43.43    1.56
   1   0   7   18.42    0.72
   2   0   7    4.18    0.10
   3   0   7   17.85    0.42
   4   0   7    1.62    0.07
   5   0   7    0.68    0.05
   6   0   7    6.90    0.24
 -10   1   7    2.81    0.13
  -9   1   7   12.18    0.28
  -8   1   7   41.16    0.82
  -7   1   7   76.44    1.46
  -6   1   7   74.74    1.46
  -5   1   7   76.55    1.47
  -4   1   7   32.84    0.94
  -3   1   7    0.75    0.05
  -2   1   7   70.89    2.48
  -1   1   7   20.57    0.76
   0   1   7  105.69    3.67
   1   1   7    4.98    0.25
   2   1   7    7.19    0.34
   3   1   7    2.11    0.09
   4   1   7   14.46    0.44
   5   1   7    4.60    0.12
   6   1   7    5.97    0.15
 -10   2   7   34.67    0.68
  -9   2   7   20.59    0.43
  -8   2   7   10.66    0.25
  -7   2   7    7.68    0.19
  -6   2   7    1.89    0.08
  -5   2   7   25.28    0.73
  -4   2   7    4.09    0.18
  -3   2   7   71.81    1.93
  -2   2   7   25.93    0.60
  -1   2   7    0.60    0.08
   0   2   7   13.52    0.54
   1   2   7    2.55    0.17
   2   2   7   29.90    1.13
   4   2   7    1.22    0.10
   5   2   7    7.07    0.24
   6   2   7    1.33    0.09
 -10   3   7    4.30    0.16
  -9   3   7    6.84    0.17
  -8   3   7    1.24    0.07
  -7   3   7   23.63    0.48
  -6   3   7   36.68    1.02
  -5   3   7   30.94    0.86
  -4   3   7   13.61    0.44
  -3   3   7   19.59    0.57
  -1   3   7  129.28    4.50
   0   3   7   56.05    2.03
   1   3   7   52.51    1.90
   2   3   7    5.70    0.30
   4   3   7    5.27    0.21
   5   3   7   22.11    0.62
   6   3   7   26.44    0.70
  -9   4   7    9.13    0.30
  -8   4   7   20.82    0.59
  -7   4   7   13.33    0.43
  -6   4   7    0.45    0.07
  -5   4   7  103.69    2.75
  -4   4   7  115.72    3.06
  -1   4   7   11.46    0.30
   0   4   7   10.69    0.25
   1   4   7    1.68    0.14
   4   4   7   19.79    0.56
   5   4   7    4.36    0.17
  -9   5   7    6.26    0.21
  -8   5   7    0.93    0.08
  -7   5   7   47.41    1.29
  -6   5   7   27.33    0.82
  -5   5   7   29.18    0.84
  -4   5   7   33.17    0.92
  -1   5   7   32.69    0.79
   4   5   7   10.38    0.32
   5   5   7    1.11    0.08
  -8   6   7   26.38    0.74
  -6   6   7    0.19    0.04
  -5   6   7   12.57    0.40
  -1   6   7   52.36    1.22
   4   6   7    6.10    0.21
  -7   7   7    1.02    0.07
  -6   7   7   15.44    0.47
  -4   9   7    2.29    0.08
  -5  -8   8    4.19    0.09
  -4  -8   8   25.74    0.42
  -3  -8   8   10.02    0.22
  -2  -8   8    2.60    0.09
  -1  -8   8    2.16    0.08
   0  -8   8   22.34    0.41
   1  -8   8   10.98    0.28
  -7  -7   8    3.55    0.08
  -6  -7   8    0.47    0.03
  -5  -7   8    2.50    0.06
  -4  -7   8   14.17    0.20
  -3  -7   8    7.47    0.12
  -2  -7   8    1.85    0.08
  -1  -7   8   32.18    0.50
   0  -7   8    1.48    0.05
   1  -7   8    1.10    0.04
   2  -7   8    2.57    0.08
  -8  -6   8    1.87    0.05
  -7  -6   8    1.30    0.04
  -6  -6   8    1.05    0.03
  -5  -6   8   16.39    0.20
  -4  -6   8   20.07    0.27
  -3  -6   8   65.65    0.82
  -2  -6   8   20.28    0.28
  -1  -6   8    2.11    0.07
   0  -6   8   29.21    0.46
   1  -6   8   32.53    0.50
   2  -6   8   25.34    0.37
   3  -6   8    6.58    0.11
   4  -6   8    0.90    0.05
  -8  -5   8   13.41    0.18
  -7  -5   8   36.91    0.40
  -6  -5   8   38.39    0.39
  -5  -5   8    3.56    0.06
  -4  -5   8    4.35    0.08
  -3  -5   8   78.86    0.97
  -2  -5   8   24.88    0.29
  -1  -5   8   39.93    0.62
   0  -5   8   45.43    0.69
   1  -5   8   40.02    0.51
   2  -5   8   12.22    0.20
   3  -5   8   12.63    0.23
   4  -5   8    3.46    0.08
  -9  -4   8    2.33    0.12
  -8  -4   8    2.93    0.08
  -7  -4   8    1.17    0.05
  -6  -4   8   10.95    0.15
  -5  -4   8    2.09    0.05
  -4  -4   8  157.50    2.28
  -3  -4   8   33.55    0.52
  -2  -4   8    8.56    0.13
  -1  -4   8   12.43    0.22
   0  -4   8    4.23    0.08
   1  -4   8  125.85    1.68
   2  -4   8   39.48    0.56
   3  -4   8   50.05    0.80
   4  -4   8    1.36    0.05
   5  -4   8   17.40    0.29
  -9  -3   8    1.26    0.09
  -8  -3   8   13.78    0.45
  -7  -3   8   34.83    0.53
  -6  -3   8   21.02    0.35
  -5  -3   8   14.06    0.25
  -4  -3   8   32.39    0.46
  -3  -3   8    5.73    0.10
  -2  -3   8    2.42    0.08
  -1  -3   8   28.61    0.48
   0  -3   8   11.68    0.18
   1  -3   8    0.83    0.05
   2  -3   8   12.43    0.24
   3  -3   8    3.56    0.10
   4  -3   8    4.15    0.10
   5  -3   8    2.88    0.11
  -9  -2   8   14.97    0.48
  -8  -2   8    5.37    0.16
  -7  -2   8    1.56    0.08
  -6  -2   8   22.50    0.36
  -5  -2   8   62.96    0.86
  -4  -2   8   19.06    0.33
  -3  -2   8   20.32    0.31
  -2  -2   8    1.31    0.06
  -1  -2   8    5.86    0.18
   0  -2   8    6.52    0.14
   1  -2   8    8.12    0.21
   2  -2   8   72.43    1.14
   3  -2   8    7.64    0.16
   4  -2   8    0.82    0.04
   5  -2   8    0.04    0.02
  -9  -1   8    0.50    0.07
  -8  -1   8   43.15    0.87
  -7  -1   8   18.26    0.40
  -6  -1   8   80.78    1.56
  -5  -1   8   53.82    1.05
  -4  -1   8   26.58    0.39
  -3  -1   8    5.87    0.13
  -2  -1   8   15.90    0.29
  -1  -1   8    2.27    0.07
   0  -1   8    4.87    0.12
   1  -1   8   20.19    0.43
   2  -1   8    5.78    0.19
   3  -1   8    1.64    0.05
   4  -1   8    3.14    0.09
   5  -1   8    2.08    0.07
  -9   0   8   15.03    0.33
  -8   0   8   11.17    0.27
  -7   0   8    0.75    0.06
  -6   0   8  371.58    7.17
  -5   0   8   78.47    1.16
  -4   0   8   33.14    0.54
  -2   0   8   25.58    0.43
  -1   0   8   19.38    0.33
   0   0   8    4.01    0.13
   1   0   8    3.59    0.12
   2   0   8   14.15    0.28
   3   0   8   37.02    1.00
   4   0   8    2.20    0.08
   5   0   8    3.06    0.09
  -9   1   8    0.42    0.04
  -8   1   8   43.45    0.86
  -7   1   8   18.37    0.40
  -6   1   8   79.81    2.18
  -5   1   8   51.82    0.94
  -4   1   8   26.33    0.49
  -3   1   8    6.53    0.14
  -2   1   8   16.50    0.29
  -1   1   8    2.35    0.09
   0   1   8    5.47    0.15
   1   1   8   19.92    0.42
   2   1   8    5.94    0.14
   3   1   8    1.61    0.10
   4   1   8    3.29    0.09
   5   1   8    1.99    0.07
  -9   2   8   15.19    0.33
  -8   2   8    5.73    0.15
  -7   2   8    1.73    0.11
  -6   2   8   22.51    0.43
  -5   2   8   62.17    1.72
  -4   2   8   18.70    0.36
  -3   2   8   21.34    0.40
  -2   2   8    1.21    0.06
  -1   2   8    6.21    0.16
   0   2   8    6.47    0.17
   1   2   8    8.42    0.21
   3   2   8    6.81    0.25
   4   2   8    0.78    0.05
   5   2   8    0.04    0.04
  -9   3   8    1.32    0.08
  -8   3   8   13.62    0.43
  -7   3   8   34.31    0.63
  -6   3   8   22.06    0.64
  -5   3   8   14.10    0.45
  -4   3   8   31.55    0.59
  -3   3   8    5.75    0.14
  -2   3   8    2.35    0.11
  -1   3   8   29.22    0.58
   0   3   8   11.43    0.27
   3   3   8    3.64    0.16
   4   3   8    4.14    0.17
   5   3   8    2.79    0.12
  -9   4   8    2.36    0.11
  -8   4   8    3.05    0.09
  -7   4   8    1.13    0.09
  -6   4   8   10.81    0.36
  -5   4   8    2.23    0.12
  -4   4   8  158.84    4.17
  -3   4   8   33.31    0.80
  -2   4   8    8.72    0.25
  -1   4   8   12.60    0.34
   0   4   8    3.95    0.15
   4   4   8    1.49    0.10
   5   4   8   17.56    0.49
  -8   5   8   13.76    0.26
  -7   5   8   38.13    1.04
  -6   5   8   38.84    1.08
  -5   5   8    3.47    0.16
  -2   5   8   25.39    0.61
  -1   5   8   41.34    0.95
   4   5   8    3.40    0.14
  -8   6   8    1.88    0.07
  -7   6   8    1.35    0.08
  -6   6   8    0.88    0.08
  -3   6   8   69.41    1.52
  -2   6   8   21.35    0.51
  -1   6   8    1.92    0.09
  -7   7   8    3.52    0.11
  -4   7   8   14.28    0.37
  -3   7   8    7.49    0.22
  -2   7   8    1.71    0.08
  -5   8   8    4.20    0.13
  -4   8   8   25.82    0.60
  -3   8   8    9.53    0.25
  -5  -7   9    0.32    0.03
  -4  -7   9    1.35    0.06
  -3  -7   9   13.37    0.29
  -2  -7   9    4.83    0.13
  -1  -7   9    5.21    0.13
   0  -7   9    0.50    0.04
   1  -7   9    2.63    0.10
  -6  -6   9   21.95    0.65
  -5  -6   9    9.89    0.23
  -4  -6   9    6.79    0.13
  -3  -6   9    4.91    0.14
  -2  -6   9    9.11    0.22
  -1  -6   9    8.47    0.16
   0  -6   9   17.42    0.34
   1  -6   9   45.17    0.79
   2  -6   9    6.81    0.19
  -7  -5   9   11.79    0.39
  -6  -5   9    0.51    0.03
  -5  -5   9   38.18    0.58
  -4  -5   9   23.82    0.50
  -3  -5   9   39.46    0.81
  -2  -5   9   81.38    1.21
  -1  -5   9   36.01    0.55
   0  -5   9    5.86    0.15
   1  -5   9    7.13    0.13
   2  -5   9   18.01    0.27
   3  -5   9   20.01    0.33
  -8  -4   9    0.14    0.04
  -7  -4   9    2.91    0.10
  -6  -4   9   20.46    0.44
  -5  -4   9    6.36    0.13
  -4  -4   9   13.88    0.32
  -3  -4   9    1.51    0.06
  -2  -4   9   20.23    0.34
  -1  -4   9    5.89    0.15
   0  -4   9    6.24    0.12
   1  -4   9   36.18    0.51
   2  -4   9   40.53    0.66
   3  -4   9    7.24    0.14
   4  -4   9   10.74    0.19
  -8  -3   9   25.51    0.53
  -7  -3   9    9.62    0.23
  -6  -3   9    3.30    0.12
  -5  -3   9   31.91    0.66
  -4  -3   9    4.06    0.13
  -3  -3   9   74.53    1.11
  -2  -3   9   31.56    0.59
  -1  -3   9   15.20    0.32
   0  -3   9    0.49    0.04
   1  -3   9    4.65    0.10
   2  -3   9    2.90    0.08
   3  -3   9   12.81    0.23
   4  -3   9    1.45    0.05
  -9  -2   9    0.47    0.06
  -8  -2   9    1.49    0.07
  -7  -2   9    8.82    0.23
  -6  -2   9   14.37    0.33
  -5  -2   9    1.43    0.08
  -4  -2   9   29.11    0.54
  -3  -2   9    4.82    0.14
  -2  -2   9   27.72    0.52
  -1  -2   9   23.18    0.45
   0  -2   9   23.81    0.45
   1  -2   9   17.67    0.31
   2  -2   9   10.47    0.20
   3  -2   9    1.92    0.07
   4  -2   9    4.36    0.14
  -9  -1   9    3.75    0.11
  -8  -1   9   55.51    1.09
  -7  -1   9   32.83    0.67
  -6  -1   9   17.29    0.39
  -5  -1   9    4.13    0.19
  -4  -1   9  149.03    2.54
  -3  -1   9   42.22    0.70
  -2  -1   9   64.24    0.99
  -1  -1   9    3.50    0.11
   0  -1   9    8.00    0.25
   1  -1   9   14.30    0.38
   2  -1   9    2.26    0.07
   3  -1   9    1.10    0.05
   4  -1   9    9.10    0.18
   5  -1   9    3.99    0.12
  -9   0   9    1.99    0.07
  -8   0   9    5.08    0.14
  -7   0   9    4.88    0.14
  -6   0   9   16.58    0.52
  -5   0   9  221.42    3.85
  -4   0   9    1.45    0.07
  -3   0   9    2.50    0.08
  -2   0   9   38.52    0.63
  -1   0   9    2.99    0.11
   0   0   9   65.58    1.51
   1   0   9    2.41    0.11
   2   0   9   23.21    0.57
   3   0   9   14.73    0.28
   4   0   9    0.05    0.02
  -9   1   9    3.74    0.11
  -8   1   9   55.48    1.52
  -7   1   9   32.29    0.94
  -6   1   9   17.61    0.34
  -5   1   9    3.91    0.12
  -4   1   9  146.57    2.53
  -3   1   9   45.06    0.78
  -2   1   9   60.90    0.99
  -1   1   9    3.48    0.14
   0   1   9    7.76    0.24
   1   1   9   13.93    0.28
   2   1   9    2.26    0.08
   3   1   9    1.01    0.05
   4   1   9    9.30    0.18
  -9   2   9    0.49    0.06
  -8   2   9    1.38    0.10
  -7   2   9    9.45    0.32
  -6   2   9   13.90    0.29
  -5   2   9    1.57    0.07
  -4   2   9   28.07    0.53
  -3   2   9    4.97    0.13
  -2   2   9   27.53    0.68
  -1   2   9   23.37    0.58
   0   2   9   23.53    0.59
   1   2   9   17.01    0.44
   2   2   9   10.20    0.33
   3   2   9    1.82    0.10
   4   2   9    3.99    0.10
  -9   3   9    0.25    0.05
  -8   3   9   25.81    0.74
  -7   3   9    9.14    0.20
  -6   3   9    3.23    0.10
  -5   3   9   31.57    0.58
  -4   3   9    4.09    0.12
  -3   3   9   77.08    1.72
  -2   3   9   31.11    0.76
  -1   3   9   15.73    0.40
   2   3   9    2.99    0.14
   3   3   9   12.72    0.38
   4   3   9    1.32    0.08
  -8   4   9    0.22    0.03
  -7   4   9    3.15    0.09
  -6   4   9   20.06    0.39
  -5   4   9    6.44    0.15
  -4   4   9   13.56    0.37
  -3   4   9    1.52    0.09
  -2   4   9   20.74    0.51
  -1   4   9    6.10    0.19
   0   4   9    5.85    0.19
   3   4   9    7.02    0.23
  -8   5   9    0.48    0.04
  -7   5   9   11.90    0.24
  -6   5   9    0.51    0.04
  -5   5   9   37.60    0.89
  -4   5   9   23.24    0.58
  -3   5   9   40.95    0.94
  -2   5   9   83.33    1.85
  -1   5   9   34.77    0.84
   3   5   9   19.94    0.55
  -7   6   9    3.03    0.10
  -6   6   9   22.07    0.53
  -5   6   9    9.46    0.27
  -4   6   9    6.84    0.21
  -3   6   9    5.36    0.17
  -2   6   9    9.29    0.25
  -5   7   9    0.38    0.04
  -4   7   9    1.45    0.07
  -3   7   9   13.76    0.34
  -2   7   9    4.58    0.14
  -4  -6  10    5.76    0.21
  -3  -6  10    3.82    0.16
  -2  -6  10   11.39    0.35
  -1  -6  10   31.98    0.57
   0  -6  10   12.78    0.32
  -6  -5  10    9.26    0.30
  -5  -5  10    6.22    0.16
  -4  -5  10   15.56    0.34
  -3  -5  10    4.00    0.12
  -2  -5  10   40.84    0.73
  -1  -5  10    1.51    0.06
   0  -5  10   17.94    0.34
   1  -5  10    5.19    0.12
  -7  -4  10    2.51    0.12
  -6  -4  10    9.46    0.22
  -5  -4  10   27.63    0.57
  -4  -4  10    6.81    0.18
  -3  -4  10    6.85    0.16
  -2  -4  10   35.80    0.66
  -1  -4  10   30.32    0.56
   0  -4  10    5.87    0.14
   1  -4  10   23.44    0.39
   2  -4  10    8.17    0.15
  -7  -3  10    0.95    0.05
  -6  -3  10   16.91    0.37
  -5  -3  10    5.02    0.15
  -4  -3  10   15.97    0.50
  -3  -3  10   21.68    0.42
  -2  -3  10   44.05    0.81
  -1  -3  10    5.15    0.14
   0  -3  10   10.97    0.18
   1  -3  10   18.05    0.31
   2  -3  10    0.24    0.03
   3  -3  10   11.55    0.20
  -8  -2  10    5.38    0.20
  -7  -2  10   21.46    0.45
  -6  -2  10   12.04    0.40
  -5  -2  10    8.04    0.30
  -4  -2  10   25.03    0.48
  -3  -2  10    5.90    0.15
  -2  -2  10   18.05    0.36
  -1  -2  10   19.03    0.38
   0  -2  10   15.86    0.29
   1  -2  10    0.34    0.04
   2  -2  10    2.34    0.07
   3  -2  10   11.53    0.21
  -8  -1  10    2.14    0.08
  -7  -1  10    5.64    0.22
  -6  -1  10   38.99    1.09
  -5  -1  10   67.18    1.18
  -4  -1  10  146.78    2.51
  -3  -1  10   46.50    0.84
  -2  -1  10    9.72    0.22
  -1  -1  10    0.69    0.07
   0  -1  10    1.10    0.08
   1  -1  10    4.67    0.11
   2  -1  10    7.31    0.15
   3  -1  10    1.18    0.06
  -8   0  10    0.55    0.06
  -7   0  10    7.68    0.28
  -6   0  10   48.32    1.34
  -5   0  10    0.14    0.03
  -3   0  10   19.30    0.38
  -2   0  10    0.10    0.03
  -1   0  10    3.64    0.15
   0   0  10    0.76    0.07
   1   0  10    1.93    0.10
   2   0  10    6.40    0.13
   3   0  10    0.11    0.03
  -8   1  10    2.02    0.11
  -7   1  10    5.98    0.22
  -6   1  10   37.75    0.69
  -5   1  10   66.72    1.17
  -4   1  10  147.40    2.51
  -3   1  10   47.06    0.84
  -2   1  10   10.11    0.29
  -1   1  10    0.68    0.07
   0   1  10    1.18    0.08
   1   1  10    4.64    0.16
   3   1  10    1.18    0.05
  -8   2  10    5.39    0.20
  -7   2  10   21.01    0.40
  -6   2  10   11.97    0.25
  -5   2  10    8.35    0.19
  -4   2  10   25.07    0.47
  -3   2  10    6.29    0.20
  -2   2  10   18.86    0.47
  -1   2  10   21.05    0.50
   0   2  10   15.84    0.41
   1   2  10    0.34    0.05
   2   2  10    2.22    0.11
   3   2  10   11.64    0.28
  -8   3  10    1.03    0.07
  -7   3  10    1.04    0.05
  -6   3  10   16.39    0.32
  -5   3  10    5.00    0.13
  -4   3  10   15.38    0.41
  -3   3  10   21.59    0.54
  -2   3  10   46.27    1.05
  -1   3  10    5.30    0.17
   0   3  10   11.10    0.30
   1   3  10   17.36    0.50
   2   3  10    0.31    0.05
  -7   4  10    3.08    0.08
  -6   4  10    9.44    0.20
  -5   4  10   27.49    0.66
  -4   4  10    6.71    0.21
  -3   4  10    6.91    0.21
  -2   4  10   36.39    0.85
  -1   4  10   30.42    0.72
   1   4  10   22.20    0.63
   2   4  10    7.96    0.26
  -7   5  10    0.22    0.03
  -6   5  10    9.51    0.25
  -5   5  10    6.15    0.19
  -4   5  10   15.58    0.40
  -3   5  10    4.36    0.14
  -2   5  10   41.15    0.95
  -1   5  10    1.68    0.08
  -5   6  10    4.28    0.14
  -4   6  10    5.62    0.17
  -3   6  10    3.84    0.13
  -2   6  10   10.72    0.28
  -4  -5  11    7.85    0.26
  -3  -5  11    3.46    0.14
  -2  -5  11    0.55    0.04
  -1  -5  11   21.72    0.52
  -6  -4  11    3.87    0.15
  -5  -4  11    3.82    0.16
  -4  -4  11   18.57    0.55
  -3  -4  11   13.28    0.27
  -2  -4  11   16.07    0.31
  -1  -4  11   15.11    0.29
   0  -4  11    8.25    0.23
  -6  -3  11    7.55    0.26
  -5  -3  11    0.79    0.08
  -4  -3  11    2.15    0.07
  -3  -3  11    0.70    0.05
  -2  -3  11    8.27    0.18
  -1  -3  11    7.79    0.17
   0  -3  11    4.80    0.10
   1  -3  11   15.98    0.27
  -7  -2  11    3.94    0.16
  -6  -2  11   21.98    0.64
  -5  -2  11    2.29    0.13
  -4  -2  11   19.90    0.38
  -3  -2  11    4.90    0.13
  -2  -2  11   97.03    1.67
  -1  -2  11    7.96    0.16
   0  -2  11    8.75    0.17
   1  -2  11    3.91    0.09
   2  -2  11    0.51    0.03
  -7  -1  11    2.68    0.13
  -6  -1  11    6.92    0.25
  -5  -1  11    6.64    0.16
  -4  -1  11   16.10    0.32
  -3  -1  11    5.38    0.14
  -2  -1  11   21.30    0.40
  -1  -1  11   19.14    0.49
   0  -1  11   17.94    0.31
   1  -1  11    4.16    0.10
   2  -1  11    3.00    0.07
  -8   0  11    8.90    0.29
  -7   0  11   27.12    0.77
  -6   0  11    0.13    0.04
  -5   0  11    1.66    0.07
  -4   0  11   17.47    0.34
  -3   0  11  185.76    3.15
  -2   0  11   12.37    0.34
  -1   0  11    0.50    0.06
   0   0  11    0.25    0.05
   1   0  11    0.69    0.04
   2   0  11    5.20    0.15
  -7   1  11    2.68    0.13
  -6   1  11    6.52    0.15
  -5   1  11    7.26    0.16
  -4   1  11   15.76    0.31
  -3   1  11    5.64    0.18
  -2   1  11   20.77    0.53
  -1   1  11   19.47    0.49
   0   1  11   17.61    0.45
   1   1  11    4.17    0.14
   2   1  11    3.04    0.10
  -7   2  11    3.93    0.10
  -6   2  11   21.54    0.40
  -5   2  11    2.20    0.07
  -4   2  11   19.53    0.49
  -3   2  11    4.65    0.16
  -2   2  11   97.25    2.19
  -1   2  11    8.30    0.24
   0   2  11    8.66    0.24
  -7   3  11    0.06    0.02
  -6   3  11    7.70    0.16
  -5   3  11    0.64    0.06
  -4   3  11    2.08    0.10
  -3   3  11    0.63    0.06
  -2   3  11    8.48    0.24
  -1   3  11    8.11    0.22
   0   3  11    4.73    0.15
  -6   4  11    4.00    0.13
  -5   4  11    3.84    0.13
  -4   4  11   18.21    0.45
  -3   4  11   14.39    0.35
  -2   4  11   15.54    0.40
  -1   4  11   15.42    0.38
  -5   5  11    2.13    0.08
  -4   5  11    7.70    0.21
  -3   5  11    3.55    0.12
  -2   5  11    0.57    0.05
  -3  -3  12    5.09    0.15
  -2  -3  12    3.07    0.11
  -5  -2  12   30.04    0.85
  -4  -2  12   15.24    0.29
  -3  -2  12   21.77    0.40
  -2  -2  12   22.34    0.55
  -1  -2  12    7.74    0.22
  -5  -1  12   11.79    0.23
  -4  -1  12    2.54    0.08
  -3  -1  12    9.54    0.26
  -2  -1  12    9.08    0.25
  -1  -1  12   24.72    0.41
   0  -1  12    1.09    0.06
  -6   0  12    1.80    0.10
  -5   0  12    3.45    0.09
  -4   0  12   21.60    0.40
  -3   0  12    3.47    0.13
  -2   0  12   54.41    1.24
  -1   0  12    0.07    0.02
   0   0  12    4.67    0.10
  -6   1  12    0.67    0.05
  -5   1  12   11.19    0.30
  -4   1  12    2.42    0.10
  -3   1  12    9.99    0.27
  -2   1  12    8.90    0.25
  -1   1  12   25.30    0.59
   0   1  12    1.12    0.04
  -5   2  12   31.11    0.71
  -4   2  12   15.47    0.38
  -3   2  12   22.22    0.53
  -2   2  12   23.29    0.55
  -1   2  12    7.98    0.21
  -4   3  12    0.12    0.03
  -3   3  12    5.10    0.15
  -2   3  12    2.97    0.10
   0   0   0    0.00    0.00
;
_shelx_hkl_checksum              87006
loop_
_space_group_symop_operation_xyz
'x, y, z'
'-x, y+1/2, -z'
loop_
_atom_site_label
_atom_site_type_symbol
_atom_site_fract_x
_atom_site_fract_y
_atom_site_fract_z
_atom_site_U_iso_or_equiv
_atom_site_adp_type
_atom_site_occupancy
_atom_site_site_symmetry_order
_atom_site_calc_flag
_atom_site_refinement_flags_posn
_atom_site_refinement_flags_adp
N1 N 0.82506(16) 0.0780(2) -0.02121(14) 0.0288(4) Uani 1 1 d . .
H1N H 0.8921 0.0780 -0.0748 0.035 Uiso 1 1 d R U
N2 N 0.7860(2) -0.0439(2) 0.02756(16) 0.0336(4) Uani 1 1 d . .
N3 N 0.03711(18) -0.0418(2) 0.74306(16) 0.0314(4) Uani 1 1 d . .
H3N H 0.0010 -0.1330 0.7563 0.038 Uiso 1 1 d R U
N4 N 0.00387(16) 0.0704(2) 0.80835(14) 0.0325(4) Uani 1 1 d . .
N5 N 0.19048(17) 1.2039(2) 0.12209(15) 0.0314(4) Uani 1 1 d . .
H5N H 0.1970 1.2910 0.0668 0.038 Uiso 1 1 d R U
N6 N 0.10482(17) 1.2066(2) 0.20430(16) 0.0318(4) Uani 1 1 d . .
C1 C 0.48193(19) 0.3833(2) 0.31207(17) 0.0251(4) Uani 1 1 d . .
C2 C 0.42113(19) 0.3130(2) 0.39911(17) 0.0262(4) Uani 1 1 d . .
H2 H 0.4401 0.2147 0.4165 0.031 Uiso 1 1 calc R U
C3 C 0.33230(19) 0.3865(2) 0.46094(17) 0.0257(4) Uani 1 1 d . .
C4 C 0.30548(19) 0.5309(2) 0.43572(18) 0.0262(4) Uani 1 1 d . .
H4 H 0.2464 0.5814 0.4786 0.031 Uiso 1 1 calc R U
C5 C 0.36484(19) 0.6017(2) 0.34785(17) 0.0261(4) Uani 1 1 d . .
C6 C 0.4545(2) 0.5274(2) 0.28727(18) 0.0274(4) Uani 1 1 d . .
H6 H 0.4970 0.5757 0.2289 0.033 Uiso 1 1 calc R U
C7 C 0.5654(2) 0.3025(2) 0.2434(2) 0.0302(5) Uani 1 1 d . .
C8 C 0.62653(19) 0.2325(2) 0.18452(19) 0.0291(4) Uani 1 1 d . .
C9 C 0.6993(2) 0.1460(2) 0.11084(19) 0.0287(5) Uani 1 1 d . .
C10 C 0.7754(2) 0.1923(2) 0.02580(19) 0.0289(4) Uani 1 1 d . .
H10 H 0.7896 0.2884 0.0048 0.035 Uiso 1 1 calc R U
C11 C 0.7105(2) -0.0026(2) 0.1079(2) 0.0355(5) Uani 1 1 d . .
H11 H 0.6693 -0.0656 0.1573 0.043 Uiso 1 1 calc R U
C12 C 0.2632(2) 0.3080(2) 0.54301(19) 0.0293(4) Uani 1 1 d . .
C13 C 0.20337(19) 0.2352(2) 0.60234(18) 0.0300(5) Uani 1 1 d . .
C14 C 0.1301(2) 0.1442(2) 0.67135(19) 0.0280(5) Uani 1 1 d . .
C15 C 0.1114(2) -0.0018(2) 0.6603(2) 0.0343(5) Uani 1 1 d . .
H15 H 0.1453 -0.0625 0.6041 0.041 Uiso 1 1 calc R U
C16 C 0.0595(2) 0.1835(3) 0.7648(2) 0.0328(5) Uani 1 1 d . .
H16 H 0.0524 0.2783 0.7933 0.039 Uiso 1 1 calc R U
C17 C 0.3268(2) 0.7469(2) 0.31318(18) 0.0285(5) Uani 1 1 d . .
C18 C 0.2860(2) 0.8635(2) 0.27748(18) 0.0279(4) Uani 1 1 d . .
C19 C 0.2313(2) 1.0015(2) 0.23001(17) 0.0280(4) Uani 1 1 d . .
C20 C 0.2668(2) 1.0830(2) 0.13514(18) 0.0311(4) Uani 1 1 d . .
H20 H 0.3335 1.0576 0.0879 0.037 Uiso 1 1 calc R U
C21 C 0.1289(2) 1.0848(2) 0.26830(18) 0.0308(4) Uani 1 1 d . .
H21 H 0.0827 1.0569 0.3323 0.037 Uiso 1 1 calc R U
loop_
_atom_site_aniso_label
_atom_site_aniso_U_11
_atom_site_aniso_U_22
_atom_site_aniso_U_33
_atom_site_aniso_U_23
_atom_site_aniso_U_13
_atom_site_aniso_U_12
N1 0.0347(8) 0.0265(9) 0.0286(7) 0.0004(8) 0.0147(6) -0.0006(8)
N2 0.0451(9) 0.0244(10) 0.0356(8) 0.0015(8) 0.0185(7) 0.0030(8)
N3 0.0348(8) 0.0220(10) 0.0394(9) 0.0049(8) 0.0143(7) -0.0001(7)
N4 0.0368(8) 0.0311(10) 0.0337(8) -0.0037(9) 0.0165(6) -0.0055(8)
N5 0.0393(9) 0.0219(10) 0.0328(8) -0.0004(7) 0.0101(7) -0.0010(7)
N6 0.0344(8) 0.0243(10) 0.0373(8) -0.0034(8) 0.0110(7) -0.0013(7)
C1 0.0268(8) 0.0225(12) 0.0272(8) -0.0022(8) 0.0096(7) -0.0009(7)
C2 0.0290(9) 0.0212(11) 0.0280(9) 0.0000(7) 0.0074(7) 0.0005(7)
C3 0.0291(9) 0.0234(12) 0.0250(8) -0.0007(8) 0.0085(7) -0.0015(7)
C4 0.0293(8) 0.0230(12) 0.0277(8) -0.0020(7) 0.0106(7) 0.0002(7)
C5 0.0293(8) 0.0201(12) 0.0273(8) -0.0011(8) 0.0056(7) -0.0008(7)
C6 0.0297(8) 0.0265(12) 0.0281(8) 0.0000(8) 0.0118(7) -0.0020(8)
C7 0.0319(9) 0.0255(12) 0.0341(9) 0.0018(9) 0.0107(8) -0.0017(8)
C8 0.0292(9) 0.0274(12) 0.0329(9) 0.0027(9) 0.0125(7) -0.0020(8)
C9 0.0308(10) 0.0261(12) 0.0310(10) -0.0013(8) 0.0121(8) 0.0016(8)
C10 0.0344(10) 0.0240(11) 0.0300(9) 0.0013(9) 0.0119(8) 0.0001(8)
C11 0.0480(12) 0.0260(13) 0.0392(11) 0.0023(9) 0.0230(9) 0.0005(9)
C12 0.0343(9) 0.0228(11) 0.0313(9) -0.0018(8) 0.0103(8) 0.0015(8)
C13 0.0331(9) 0.0304(12) 0.0290(9) -0.0011(9) 0.0129(7) 0.0029(9)
C14 0.0298(10) 0.0247(13) 0.0310(9) 0.0030(8) 0.0111(8) -0.0004(8)
C15 0.0399(10) 0.0277(13) 0.0417(11) 0.0028(9) 0.0217(8) 0.0038(9)
C16 0.0388(10) 0.0288(13) 0.0348(10) -0.0034(9) 0.0169(8) -0.0054(9)
C17 0.0317(9) 0.0286(14) 0.0265(9) -0.0010(8) 0.0107(7) -0.0019(9)
C18 0.0332(9) 0.0225(12) 0.0304(9) -0.0043(8) 0.0130(7) -0.0041(8)
C19 0.0333(9) 0.0203(11) 0.0304(9) -0.0026(8) 0.0095(7) -0.0032(8)
C20 0.0367(9) 0.0232(11) 0.0348(9) -0.0023(9) 0.0128(7) -0.0004(9)
C21 0.0354(9) 0.0238(12) 0.0344(9) -0.0007(9) 0.0121(7) -0.0024(9)
loop_
_atom_type_symbol
_atom_type_description
_atom_type_scat_dispersion_real
_atom_type_scat_dispersion_imag
_atom_type_scat_source
C C 0.0181 0.0091 'International Tables Vol C Tables 4.2.6.8 and 6.1.1.4'
H H 0.0000 0.0000 'International Tables Vol C Tables 4.2.6.8 and 6.1.1.4'
N N 0.0311 0.0180 'International Tables Vol C Tables 4.2.6.8 and 6.1.1.4'
loop_
_geom_angle_atom_site_label_1
_geom_angle_atom_site_label_2
_geom_angle_atom_site_label_3
_geom_angle
C10 N1 N2 111.85(14)
C10 N1 H1N 126.0
N2 N1 H1N 121.7
C11 N2 N1 105.10(17)
C15 N3 N4 111.57(18)
C15 N3 H3N 129.6
N4 N3 H3N 118.6
C16 N4 N3 105.57(14)
C20 N5 N6 111.25(17)
C20 N5 H5N 128.3
N6 N5 H5N 120.2
C21 N6 N5 105.50(16)
C6 C1 C2 119.74(18)
C6 C1 C7 121.22(17)
C2 C1 C7 118.95(18)
C1 C2 C3 120.33(18)
C1 C2 H2 119.8
C3 C2 H2 119.8
C4 C3 C2 119.61(18)
C4 C3 C12 121.61(18)
C2 C3 C12 118.66(17)
C3 C4 C5 120.38(18)
C3 C4 H4 119.8
C5 C4 H4 119.8
C4 C5 C6 119.55(19)
C4 C5 C17 120.28(17)
C6 C5 C17 120.05(17)
C1 C6 C5 120.38(18)
C1 C6 H6 119.8
C5 C6 H6 119.8
C8 C7 C1 176.4(2)
C7 C8 C9 179.1(2)
C10 C9 C11 103.95(19)
C10 C9 C8 127.3(2)
C11 C9 C8 128.8(2)
N1 C10 C9 107.67(19)
N1 C10 H10 126.2
C9 C10 H10 126.2
N2 C11 C9 111.4(2)
N2 C11 H11 124.3
C9 C11 H11 124.3
C13 C12 C3 174.5(2)
C12 C13 C14 178.4(2)
C15 C14 C16 104.15(19)
C15 C14 C13 128.17(19)
C16 C14 C13 127.7(2)
N3 C15 C14 107.7(2)
N3 C15 H15 126.1
C14 C15 H15 126.1
N4 C16 C14 111.0(2)
N4 C16 H16 124.5
C14 C16 H16 124.5
C18 C17 C5 175.0(2)
C17 C18 C19 177.4(2)
C20 C19 C21 103.95(17)
C20 C19 C18 127.94(17)
C21 C19 C18 128.12(17)
N5 C20 C19 107.72(16)
N5 C20 H20 126.1
C19 C20 H20 126.1
N6 C21 C19 111.58(16)
N6 C21 H21 124.2
C19 C21 H21 124.2
loop_
_geom_bond_atom_site_label_1
_geom_bond_atom_site_label_2
_geom_bond_distance
N1 C10 1.330(3)
N1 N2 1.355(2)
N1 H1N 0.9738
N2 C11 1.327(3)
N3 C15 1.335(3)
N3 N4 1.351(2)
N3 H3N 0.9504
N4 C16 1.331(3)
N5 C20 1.336(3)
N5 N6 1.361(2)
N5 H5N 1.0208
N6 C21 1.318(3)
C1 C6 1.391(3)
C1 C2 1.394(3)
C1 C7 1.445(3)
C2 C3 1.399(3)
C2 H2 0.9500
C3 C4 1.394(3)
C3 C12 1.441(3)
C4 C5 1.395(3)
C4 H4 0.9500
C5 C6 1.400(3)
C5 C17 1.434(3)
C6 H6 0.9500
C7 C8 1.175(3)
C8 C9 1.441(3)
C9 C10 1.385(3)
C9 C11 1.402(3)
C10 H10 0.9500
C11 H11 0.9500
C12 C13 1.185(3)
C13 C14 1.436(3)
C14 C15 1.385(3)
C14 C16 1.404(3)
C15 H15 0.9500
C16 H16 0.9500
C17 C18 1.189(3)
C18 C19 1.435(3)
C19 C20 1.386(3)
C19 C21 1.404(3)
C20 H20 0.9500
C21 H21 0.9500
loop_
_geom_torsion_atom_site_label_1
_geom_torsion_atom_site_label_2
_geom_torsion_atom_site_label_3
_geom_torsion_atom_site_label_4
_geom_torsion
C10 N1 N2 C11 -0.4(2)
C15 N3 N4 C16 -0.1(2)
C20 N5 N6 C21 -0.3(2)
C6 C1 C2 C3 0.3(3)
C7 C1 C2 C3 -176.04(17)
C1 C2 C3 C4 -0.4(3)
C1 C2 C3 C12 175.69(17)
C2 C3 C4 C5 1.0(3)
C12 C3 C4 C5 -174.98(16)
C3 C4 C5 C6 -1.5(3)
C3 C4 C5 C17 174.47(17)
C2 C1 C6 C5 -0.8(3)
C7 C1 C6 C5 175.44(17)
C4 C5 C6 C1 1.4(3)
C17 C5 C6 C1 -174.55(17)
N2 N1 C10 C9 0.2(2)
C11 C9 C10 N1 0.1(2)
C8 C9 C10 N1 -179.99(18)
N1 N2 C11 C9 0.5(2)
C10 C9 C11 N2 -0.4(3)
C8 C9 C11 N2 179.74(18)
N4 N3 C15 C14 0.5(2)
C16 C14 C15 N3 -0.7(2)
C13 C14 C15 N3 179.85(18)
N3 N4 C16 C14 -0.4(2)
C15 C14 C16 N4 0.7(2)
C13 C14 C16 N4 -179.87(18)
N6 N5 C20 C19 -0.1(2)
C21 C19 C20 N5 0.4(2)
C18 C19 C20 N5 -179.84(18)
N5 N6 C21 C19 0.6(2)
C20 C19 C21 N6 -0.6(2)
C18 C19 C21 N6 179.63(18)
