#------------------------------------------------------------------------------
#$Date: 2019-11-25 23:49:47 +0200 (Mon, 25 Nov 2019) $
#$Revision: 242094 $
#$URL: file:///home/coder/svn-repositories/cod/cif/4/13/20/4132052.cif $
#------------------------------------------------------------------------------
#
# This file is available in the Crystallography Open Database (COD),
# http://www.crystallography.net/
#
# All data on this site have been placed in the public domain by the
# contributors.
#
data_4132052
loop_
_publ_author_name
'Spanopoulos, Ioannis'
'Ke, Weijun'
'Stoumpos, Constantinos C.'
'Schueller, Emily C.'
'Kontsevoi, Oleg Y.'
'Seshadri, Ram'
'Kanatzidis, Mercouri G.'
_publ_section_title
;
 Unraveling the Chemical Nature of the 3D &quot;Hollow&quot; Hybrid Halide
 Perovskites.
;
_journal_issue                   17
_journal_name_full               'Journal of the American Chemical Society'
_journal_page_first              5728
_journal_page_last               5742
_journal_paper_doi               10.1021/jacs.8b01034
_journal_volume                  140
_journal_year                    2018
_chemical_formula_moiety         (H3NCH2CH2NH3)PbI4
_chemical_formula_sum            'C2 H12 I4 N2 O2 Pb'
_chemical_formula_weight         810.9
_chemical_name_common            'ethylenediamonium lead iodide'
_space_group_IT_number           12
_space_group_name_Hall           '-C 2y'
_space_group_name_H-M_alt        'C 1 2/m 1'
_symmetry_cell_setting           monoclinic
_symmetry_Int_Tables_number      12
_symmetry_space_group_name_Hall  '-C 2y'
_symmetry_space_group_name_H-M   'C 1 2/m 1'
_cell_angle_alpha                90
_cell_angle_beta                 113.907(12)
_cell_angle_gamma                90
_cell_formula_units_Z            2
_cell_length_a                   16.492(3)
_cell_length_b                   4.7532(11)
_cell_length_c                   10.4165(18)
_cell_measurement_reflns_used    3357
_cell_measurement_temperature    293
_cell_measurement_theta_max      29.00
_cell_measurement_theta_min      2.14
_cell_volume                     746.5(3)
_diffrn_ambient_temperature      293
_diffrn_detector                 'image plate (34 cm diameter)'
_diffrn_detector_area_resol_mean 6.67
_diffrn_measured_fraction_theta_full 0.98
_diffrn_measured_fraction_theta_max 0.98
_diffrn_measurement_device       'four-circle diffractometer'
_diffrn_measurement_device_type  'IPDS Stoe'
_diffrn_measurement_method       'rotation method'
_diffrn_radiation_monochromator  graphite
_diffrn_radiation_probe          x-ray
_diffrn_radiation_source         'X-ray tube'
_diffrn_radiation_type           'Mo K\a'
_diffrn_radiation_wavelength     0.71073
_diffrn_reflns_av_R_equivalents  0.0916
_diffrn_reflns_av_unetI/netI     0.0239
_diffrn_reflns_limit_h_max       22
_diffrn_reflns_limit_h_min       -22
_diffrn_reflns_limit_k_max       6
_diffrn_reflns_limit_k_min       -6
_diffrn_reflns_limit_l_max       14
_diffrn_reflns_limit_l_min       -14
_diffrn_reflns_number            3610
_diffrn_reflns_theta_full        29.25
_diffrn_reflns_theta_max         29.25
_diffrn_reflns_theta_min         2.14
_diffrn_source
'sealed X-ray tube, 12 x 0.4 mm long-fine focus'
_diffrn_source_current           40
_diffrn_source_power             2.00
_diffrn_source_voltage           50
_exptl_absorpt_coefficient_mu    19.546
_exptl_absorpt_correction_T_max  0.3446
_exptl_absorpt_correction_T_min  0.0901
_exptl_absorpt_correction_type   integration
_exptl_absorpt_process_details   X-Shape
_exptl_crystal_colour            yellow
_exptl_crystal_density_diffrn    3.6077
_exptl_crystal_description       'yellow block'
_exptl_crystal_F_000             696
_exptl_crystal_size_max          0.1275
_exptl_crystal_size_mid          0.0389
_exptl_crystal_size_min          0.0304
_refine_diff_density_max         4.41
_refine_diff_density_min         -4.77
_refine_ls_extinction_method     none
_refine_ls_goodness_of_fit_gt    3.61
_refine_ls_goodness_of_fit_ref   3.36
_refine_ls_hydrogen_treatment    constr
_refine_ls_number_constraints    0
_refine_ls_number_parameters     42
_refine_ls_number_reflns         1119
_refine_ls_number_restraints     0
_refine_ls_R_factor_all          0.0692
_refine_ls_R_factor_gt           0.0605
_refine_ls_shift/su_max          0.0684
_refine_ls_shift/su_mean         0.0057
_refine_ls_structure_factor_coef Fsqd
_refine_ls_weighting_details     w=1/(\s^2^(I)+0.0004I^2^)
_refine_ls_weighting_scheme      sigma
_refine_ls_wR_factor_gt          0.1326
_refine_ls_wR_factor_ref         0.1332
_reflns_number_gt                964
_reflns_number_total             1119
_reflns_threshold_expression     I>2\s(I)
_cod_data_source_file            ja8b01034_si_005.cif
_cod_data_source_block           I
_cod_depositor_comments
;
The following automatic conversions were performed:

data item '_diffrn_radiation_probe' value 'X-ray' was changed to
'x-ray' in accordance with the
/home/saulius/struct/COD-crude-data/automatic-downloads/DataCite-retrospective/ACS/depositions/lib/dictionaries/cif_core.dic
dictionary named 'cif_core.dic' version 2.4.2 last updated on
2011-04-26.

Automatic conversion script
Id: cif_fix_values 6909 2019-04-08 15:41:33Z antanas 
;
_cod_original_formula_sum        'C2 H12 I4 N2 O2 Pb1'
_cod_database_code               4132052
loop_
_space_group_symop_id
_space_group_symop_operation_xyz
1 x,y,z
2 -x,y,-z
3 -x,-y,-z
4 x,-y,z
5 x+1/2,y+1/2,z
6 -x+1/2,y+1/2,-z
7 -x+1/2,-y+1/2,-z
8 x+1/2,-y+1/2,z
loop_
_atom_site_label
_atom_site_type_symbol
_atom_site_fract_x
_atom_site_fract_y
_atom_site_fract_z
_atom_site_adp_type
_atom_site_U_iso_or_equiv
_atom_site_site_symmetry_multiplicity
_atom_site_occupancy
_atom_site_calc_flag
Pb Pb 0.5 0 0.5 Uani 0.0337(5) 2 1 d
I1 I 0.36043(11) 0 0.17986(16) Uani 0.0413(6) 4 1 d
I2 I 0.11205(11) 0 0.43235(17) Uani 0.0407(7) 4 1 d
N N 0.12512(11) 0 0.075(4) Uiso 0.121(10) 4 1 d
C C 0.0341(8) 0 0.0743(6) Uiso 0.121(10) 4 1 d
O O 0.1977(13) 0.5 0.230(2) Uiso 0.058(5) 4 1 d
H1n H 0.156766 -0.164418 0.122506 Uiso 0.1454 8 0.5 d
H2n H 0.120286 0 -0.02048 Uiso 0.1454 4 1 d
H3n H 0.156551 0.165392 0.121664 Uiso 0.1454 8 0.5 d
H1c H 0.026819 -0.164908 0.121763 Uiso 0.1454 8 0.5 d
H2c H 0.026819 0.164908 0.121763 Uiso 0.1454 8 0.5 d
H1o H 0.218569 0.643838 0.274302 Uiso 0.0692 8 0.5 d
loop_
_atom_site_aniso_label
_atom_site_aniso_type_symbol
_atom_site_aniso_U_11
_atom_site_aniso_U_22
_atom_site_aniso_U_33
_atom_site_aniso_U_12
_atom_site_aniso_U_13
_atom_site_aniso_U_23
Pb Pb 0.0357(8) 0.0370(7) 0.0264(7) 0 0.0104(6) 0
I1 I 0.0362(9) 0.0547(10) 0.0289(9) 0 0.0090(7) 0
I2 I 0.0447(10) 0.0414(9) 0.0405(10) 0 0.0220(8) 0
loop_
_atom_type_symbol
_atom_type_scat_dispersion_real
_atom_type_scat_dispersion_imag
_atom_type_scat_source
C 0.0033 0.0016 'International Tables Vol C tables 4.2.6.8 and 6.1.1.1'
H 0.0000 0.0000 'International Tables Vol C tables 4.2.6.8 and 6.1.1.1'
I -0.4742 1.8119 'International Tables Vol C tables 4.2.6.8 and 6.1.1.1'
N 0.0061 0.0033 'International Tables Vol C tables 4.2.6.8 and 6.1.1.1'
O 0.0106 0.0060 'International Tables Vol C tables 4.2.6.8 and 6.1.1.1'
Pb -3.3944 10.1111 'International Tables Vol C tables 4.2.6.8 and 6.1.1.1'
loop_
_exptl_crystal_face_index_h
_exptl_crystal_face_index_k
_exptl_crystal_face_index_l
_exptl_crystal_face_perp_dist
-11 1 30 0.0304
5 1 -30 0.0311
-6 30 -3 0.1275
15 -30 -2 0.1193
30 0 -8 0.0376
-30 0 9 0.0389
loop_
_geom_angle_atom_site_label_1
_geom_angle_atom_site_label_2
_geom_angle_atom_site_label_3
_geom_angle_site_symmetry_1
_geom_angle_site_symmetry_3
_geom_angle
I1 Pb I1 . 2_656 180.0(5)
I1 Pb I2 . 5_545 90.35(4)
I1 Pb I2 . 5_555 90.35(4)
I1 Pb I2 . 6_546 89.65(4)
I1 Pb I2 . 6_556 89.65(4)
I1 Pb I2 2_656 5_545 89.65(4)
I1 Pb I2 2_656 5_555 89.65(4)
I1 Pb I2 2_656 6_546 90.35(4)
I1 Pb I2 2_656 6_556 90.35(4)
I2 Pb I2 5_545 5_555 93.68(4)
I2 Pb I2 5_545 6_546 86.32(4)
I2 Pb I2 5_545 6_556 180.0(5)
I2 Pb I2 5_555 6_546 180.0(5)
I2 Pb I2 5_555 6_556 86.32(4)
I2 Pb I2 6_546 6_556 93.68(4)
Pb I1 N . . 123.5(7)
Pb I1 N . 6_545 121.9(3)
Pb I1 N . 6_555 121.9(3)
N I1 N . 6_545 99.2(5)
N I1 N . 6_555 99.2(5)
N I1 N 6_545 6_555 81.5(6)
Pb I2 Pb 5_445 5_455 93.68(6)
Pb I2 N 5_445 . 118.19(4)
Pb I2 N 5_455 . 118.19(4)
I1 N I1 . 6_545 80.8(5)
I1 N I1 . 6_555 80.8(5)
I1 N I2 . . 100.7(7)
I1 N C . . 164(2)
I1 N H1n . . 63.0(5)
I1 N H1n . 4_555 63.0(5)
I1 N H2n . . 86.6(9)
I1 N H3n . . 63.2(5)
I1 N H3n . 4_555 63.2(5)
I1 N I1 6_545 6_555 81.5(9)
I1 N I2 6_545 . 139.2(4)
I1 N C 6_545 . 111.0(10)
I1 N H1n 6_545 . 70.2(19)
I1 N H1n 6_545 4_555 137(2)
I1 N H2n 6_545 . 41.5(5)
I1 N H3n 6_545 . 136(2)
I1 N H3n 6_545 4_555 69.7(19)
I1 N I2 6_555 . 139.2(4)
I1 N C 6_555 . 111.0(10)
I1 N H1n 6_555 . 137(2)
I1 N H1n 6_555 4_555 70.2(19)
I1 N H2n 6_555 . 41.5(5)
I1 N H3n 6_555 . 69.7(19)
I1 N H3n 6_555 4_555 136(2)
I2 N C . . 63.4(14)
I2 N H1n . . 74(2)
I2 N H1n . 4_555 74(2)
I2 N H2n . . 172.7(2)
I2 N H3n . . 75(2)
I2 N H3n . 4_555 75(2)
C N H1n . . 110(2)
C N H1n . 4_555 110(2)
C N H2n . . 109.3(13)
C N H3n . . 110(2)
C N H3n . 4_555 110(2)
H1n N H1n . 4_555 109(2)
H1n N H2n . . 109(2)
H1n N H3n . . 110(2)
H1n N H3n . 4_555 0.553(7)
H1n N H2n 4_555 . 109(2)
H1n N H3n 4_555 . 0.553(7)
H1n N H3n 4_555 4_555 110(2)
H2n N H3n . . 109(2)
H2n N H3n . 4_555 109(2)
H3n N H3n . 4_555 110(2)
N C C . 2_555 109.6(17)
N C H1c . . 109.4(10)
N C H1c . 4_555 109.4(10)
C C H1c 2_555 . 109.5(7)
C C H1c 2_555 4_555 109.5(7)
H1c C H1c . 4_555 109.5(10)
H1o O H1o . 4_565 113.3(19)
N H1n H3n . 4_555 90(2)
N H3n H1n . 4_555 89(2)
loop_
_geom_bond_atom_site_label_1
_geom_bond_atom_site_label_2
_geom_bond_site_symmetry_2
_geom_bond_distance
Pb I1 . 3.193(2)
Pb I1 2_656 3.193(2)
Pb I2 5_545 3.2581(17)
Pb I2 5_555 3.2581(17)
Pb I2 6_546 3.2581(17)
Pb I2 6_556 3.2581(17)
I1 N . 3.580(6)
I1 N 6_545 3.64(3)
I1 N 6_555 3.64(3)
I2 N . 3.81(4)
N C . 1.50(2)
N H1n . 0.958(12)
N H1n 4_555 0.958(12)
N H2n . 0.97(4)
N H3n . 0.959(12)
N H3n 4_555 0.959(12)
C C 2_555 1.500(9)
C H1c . 0.960(6)
C H1c 4_555 0.960(6)
O H1o . 0.819(9)
O H1o 4_565 0.819(9)
H1n H3n 4_555 0.0093
loop_
_geom_hbond_atom_site_label_D
_geom_hbond_atom_site_label_H
_geom_hbond_atom_site_label_A
_geom_hbond_site_symmetry_A
_geom_hbond_distance_DH
_geom_hbond_distance_HA
_geom_hbond_distance_DA
_geom_hbond_angle_DHA
N H1n O 1_545 0.958(12) 1.908(10) 2.850(19) 166.8(19)
N H3n O . 0.959(12) 1.909(10) 2.850(19) 166.6(19)
loop_
_refln_index_h
_refln_index_k
_refln_index_l
_refln_F_squared_calc
_refln_F_squared_meas
_refln_F_squared_sigma
_refln_observed_status
2 0 0 16738.00 21679.90 422.96 o
4 0 0 44567.20 39685.20 380.98 o
6 0 0 21736.40 23281.50 269.02 o
8 0 0 84997.70 86674.30 421.41 o
10 0 0 6687.22 6723.84 189.71 o
12 0 0 404.32 814.82 171.05 o
14 0 0 4191.54 4008.80 199.04 o
16 0 0 3848.70 3702.46 213.04 o
18 0 0 562.40 522.48 233.25 o
20 0 0 1030.39 1124.27 259.69 o
1 1 0 10868.30 8662.92 129.07 o
3 1 0 4683.63 3955.93 116.62 o
5 1 0 57381.40 48712.00 245.69 o
7 1 0 33373.40 30904.10 217.70 o
9 1 0 646.71 645.33 129.07 o
11 1 0 225.96 363.87 146.17 o
13 1 0 20516.20 21516.60 192.82 o
15 1 0 12512.00 13320.20 181.93 o
17 1 0 475.10 531.81 208.37 o
19 1 0 55.36 216.15 172.60 <
0 2 0 183606.00 149007.00 413.63 o
2 2 0 10209.60 8529.20 99.52 o
4 2 0 19304.40 20759.30 136.84 o
6 2 0 10796.80 11435.50 127.51 o
8 2 0 51707.70 51030.60 199.04 o
10 2 0 4855.90 5521.82 121.29 o
12 2 0 257.64 352.99 122.85 o
14 2 0 2831.26 3279.50 143.06 o
16 2 0 2655.85 3268.62 161.72 o
18 2 0 398.74 608.01 188.15 o
1 3 0 4899.91 6196.69 87.08 o
3 3 0 3431.39 3881.29 83.97 o
5 3 0 22213.20 22973.60 133.73 o
7 3 0 14158.20 16714.70 127.51 o
9 3 0 135.94 237.92 104.18 o
11 3 0 56.31 287.68 113.51 o
13 3 0 9506.40 10717.10 155.50 o
15 3 0 5745.07 5871.69 158.61 o
17 3 0 175.32 435.40 161.72 o
0 4 0 38849.40 41411.30 214.59 o
2 4 0 3010.66 3456.77 93.30 o
4 4 0 3430.90 3531.41 96.41 o
6 4 0 2824.21 2253.20 105.74 o
8 4 0 13516.40 8983.26 135.29 o
10 4 0 1996.68 1550.34 122.85 o
12 4 0 35.32 130.62 139.95 <
14 4 0 807.66 897.24 166.38 o
16 4 0 1097.16 1054.29 169.49 o
1 5 0 1129.87 1253.33 91.75 o
3 5 0 1352.68 1458.59 101.07 o
5 5 0 5137.91 5436.29 121.29 o
7 5 0 2843.63 3027.59 124.40 o
9 5 0 30.88 13.99 135.29 <
11 5 0 48.53 213.04 155.50 <
13 5 0 1995.56 1225.34 166.38 o
0 6 0 5107.31 5342.99 303.23 o
2 6 0 731.23 562.91 119.74 o
4 6 0 194.01 499.16 133.73 o
6 6 0 468.39 564.47 147.73 o
8 6 0 2396.88 1783.59 261.24 o
-20 0 1 119.23 -18.66 259.69 <
-18 0 1 6004.22 6033.41 231.70 o
-16 0 1 13606.00 13858.20 230.14 o
-14 0 1 599.57 489.83 169.49 o
-12 0 1 2648.21 2271.86 169.49 o
-10 0 1 49590.90 48569.00 315.67 o
-8 0 1 66904.40 66924.20 379.42 o
-6 0 1 3649.66 5865.47 222.37 o
-4 0 1 547.05 500.71 228.59 o
-2 0 1 65123.80 49427.30 663.99 o
0 0 1 44755.80 33488.60 629.78 o
2 0 1 15818.90 11905.10 269.02 o
4 0 1 15300.70 13318.60 227.03 o
6 0 1 7860.90 8028.48 197.49 o
8 0 1 820.14 1076.06 161.72 o
10 0 1 19445.60 21928.70 250.36 o
12 0 1 19544.30 21395.30 253.47 o
14 0 1 201.17 362.32 213.04 <
16 0 1 147.49 216.15 217.70 <
18 0 1 5323.50 6209.13 477.39 o
-21 1 1 352.54 586.24 315.67 <
-19 1 1 45.19 214.59 167.94 <
-17 1 1 1721.58 2013.73 153.95 o
-15 1 1 3590.26 3683.80 153.95 o
-13 1 1 3001.46 2851.88 136.84 o
-11 1 1 12957.70 12898.80 175.71 o
-9 1 1 14090.10 16237.30 172.60 o
-7 1 1 2158.15 1778.92 125.96 o
-5 1 1 11617.90 11741.80 146.17 o
-3 1 1 183107.00 124436.00 359.21 o
-1 1 1 20750.70 22721.70 174.16 o
1 1 1 27539.80 26907.80 194.38 o
3 1 1 12360.30 12418.30 203.71 o
5 1 1 148932.00 126565.00 413.63 o
7 1 1 12471.40 13082.20 174.16 o
9 1 1 9615.07 10454.30 217.70 o
11 1 1 6577.37 6792.26 214.59 o
13 1 1 18860.40 19827.90 247.25 o
15 1 1 1002.29 1030.97 153.95 o
17 1 1 69.55 129.07 177.27 <
19 1 1 1027.59 962.55 191.26 o
-20 2 1 41.37 393.42 202.15 <
-18 2 1 4351.84 4887.38 185.04 o
-16 2 1 8779.50 10034.40 188.15 o
-14 2 1 239.47 404.30 183.49 o
-12 2 1 1333.70 1472.59 152.39 o
-10 2 1 30267.10 29837.40 214.59 o
-8 2 1 44120.40 44092.10 183.49 o
-6 2 1 965.88 1024.75 96.41 o
-4 2 1 253.59 715.30 83.97 o
-2 2 1 37595.80 39035.30 191.26 o
0 2 1 28697.60 31156.10 147.73 o
2 2 1 9229.39 10689.10 108.85 o
4 2 1 10003.70 13772.70 153.95 o
6 2 1 5145.62 5779.95 111.96 o
8 2 1 886.27 803.94 97.97 o
10 2 1 13842.10 15592.00 153.95 o
12 2 1 12418.30 14051.00 155.50 o
14 2 1 117.29 157.05 136.84 <
16 2 1 43.58 216.15 155.50 <
18 2 1 3574.43 4772.31 195.93 o
-19 3 1 52.56 82.42 514.71 <
-17 3 1 781.81 855.25 157.05 o
-15 3 1 1697.88 2128.80 144.62 o
-13 3 1 1901.17 2615.52 136.84 o
-11 3 1 5904.85 6579.22 125.96 o
-9 3 1 4606.51 5147.06 107.29 o
-7 3 1 580.41 772.84 90.19 o
-5 3 1 5711.84 6437.71 96.41 o
-3 3 1 56999.80 53798.50 195.93 o
-1 3 1 6074.06 6719.17 88.64 o
1 3 1 7987.38 9207.18 94.86 o
3 3 1 5681.97 5414.52 91.75 o
5 3 1 53209.10 52804.80 185.04 o
7 3 1 4771.62 4298.03 110.40 o
9 3 1 2967.46 3270.17 115.07 o
11 3 1 2882.71 3760.00 121.29 o
13 3 1 8272.60 9889.82 160.16 o
15 3 1 710.40 1110.27 144.62 o
17 3 1 68.09 334.33 177.27 <
-16 4 1 2860.07 2999.60 164.83 o
-14 4 1 48.86 300.12 139.95 o
-12 4 1 248.57 342.10 124.40 o
-10 4 1 8984.87 9255.38 130.62 o
-8 4 1 12912.40 9994.01 129.07 o
-6 4 1 67.01 13.99 87.08 <
-4 4 1 178.36 118.18 85.53 <
-2 4 1 9586.33 11765.20 124.40 o
0 4 1 10084.70 11413.70 108.85 o
2 4 1 3851.91 4251.38 93.30 o
4 4 1 2637.57 3282.61 116.62 o
6 4 1 1642.64 990.54 102.63 o
8 4 1 832.44 338.99 110.40 o
10 4 1 4399.62 2980.94 138.40 o
12 4 1 3610.45 2711.93 153.95 o
14 4 1 28.54 244.14 157.05 <
-13 5 1 784.17 458.73 171.05 o
-11 5 1 1602.66 914.34 147.73 o
-9 5 1 873.63 485.16 129.07 o
-7 5 1 53.05 37.32 118.18 <
-5 5 1 1771.92 2071.26 111.96 o
-3 5 1 10019.60 11192.90 111.96 o
-1 5 1 1117.95 1394.84 113.51 o
1 5 1 909.62 1289.10 99.52 o
3 5 1 1428.36 1617.20 127.51 o
5 5 1 9802.64 10751.30 135.29 o
7 5 1 1332.51 1262.66 125.96 o
9 5 1 288.93 329.66 138.40 o
11 5 1 739.39 642.22 158.61 o
-8 6 1 2059.96 1749.38 161.72 o
-6 6 1 74.81 166.38 144.62 <
-4 6 1 44.41 181.93 132.18 <
-2 6 1 1407.13 1051.18 127.51 o
0 6 1 1871.03 1842.68 125.96 o
2 6 1 826.23 497.60 209.93 o
4 6 1 441.83 580.02 133.73 o
6 6 1 219.35 514.71 160.16 o
-20 0 2 671.37 422.96 219.26 <
-18 0 2 7764.58 7624.18 214.59 o
-16 0 2 2160.34 2279.64 181.93 o
-14 0 2 177.41 303.23 181.93 <
-12 0 2 6006.38 5737.96 188.15 o
-10 0 2 7985.46 8160.66 189.71 o
-8 0 2 17481.50 18748.70 241.03 o
-6 0 2 45413.90 49869.00 380.98 o
-4 0 2 14204.10 17287.00 312.56 o
-2 0 2 1883.79 679.54 270.57 o
0 0 2 20498.60 24499.10 396.53 o
4 0 2 12029.30 13436.80 228.59 o
6 0 2 19863.10 19484.20 380.98 o
8 0 2 13892.20 13198.90 203.71 o
10 0 2 50876.40 49766.30 343.66 o
12 0 2 1961.75 2421.14 371.65 o
14 0 2 1269.40 1948.42 427.63 o
16 0 2 2218.16 2836.33 264.35 o
18 0 2 3689.49 4204.73 279.90 o
-21 1 2 1474.44 1453.93 177.27 o
-19 1 2 4552.25 4554.61 167.94 o
-17 1 2 58.45 236.36 146.17 <
-15 1 2 944.24 1141.37 139.95 o
-13 1 2 28235.20 30067.60 202.15 o
-11 1 2 43555.20 48702.70 225.48 o
-9 1 2 5651.50 6481.25 136.84 o
-7 1 2 4363.26 4486.19 130.62 o
-5 1 2 95953.50 78058.10 278.35 o
-3 1 2 114622.00 86731.90 295.45 o
-1 1 2 4842.38 6129.82 130.62 o
1 1 2 432.72 909.68 111.96 o
3 1 2 62034.10 61438.20 427.63 o
5 1 2 17536.30 18251.10 195.93 o
7 1 2 4402.68 4733.43 150.84 o
9 1 2 9237.44 10213.30 175.71 o
11 1 2 2124.30 2862.76 183.49 o
13 1 2 384.61 488.27 144.62 o
15 1 2 4326.72 4389.77 183.49 o
17 1 2 3918.85 4772.31 247.25 o
-20 2 2 369.16 637.55 188.15 o
-18 2 2 5556.38 5974.32 233.25 o
-16 2 2 1638.77 2038.61 169.49 o
-14 2 2 129.29 203.71 146.17 <
-12 2 2 4004.90 3951.26 136.84 o
-10 2 2 5037.34 5078.64 121.29 o
-8 2 2 10248.50 10368.80 124.40 o
-6 2 2 28142.00 26677.60 183.49 o
-4 2 2 7530.16 8087.57 102.63 o
-2 2 2 1293.32 1452.37 80.86 o
0 2 2 12973.80 16389.70 141.51 o
2 2 2 100251.00 91345.60 264.35 o
4 2 2 6824.75 7352.06 116.62 o
6 2 2 10536.90 11813.40 139.95 o
8 2 2 8385.87 9130.98 135.29 o
10 2 2 32740.60 34835.20 192.82 o
12 2 2 1601.21 1806.91 116.62 o
14 2 2 839.03 859.92 135.29 o
16 2 2 1537.37 2060.38 171.05 o
18 2 2 2669.58 2472.46 200.60 o
-19 3 2 2036.60 2449.13 202.15 o
-17 3 2 25.21 46.65 171.05 <
-15 3 2 238.59 380.98 141.51 o
-13 3 2 12372.80 13379.30 150.84 o
-11 3 2 18674.70 17500.00 143.06 o
-9 3 2 1208.04 1889.33 102.63 o
-7 3 2 978.32 1245.56 93.30 o
-5 3 2 34824.00 35287.70 150.84 o
-3 3 2 41305.90 41128.30 152.39 o
-1 3 2 224.09 356.10 82.42 o
1 3 2 123.97 192.82 76.20 o
3 3 2 20683.30 23000.10 132.18 o
5 3 2 9616.21 10734.20 144.62 o
7 3 2 2875.19 3142.66 111.96 o
9 3 2 3733.70 2595.30 127.51 o
11 3 2 1061.53 789.94 124.40 o
13 3 2 347.55 292.34 129.07 o
15 3 2 2124.92 1670.07 155.50 o
-16 4 2 852.54 1020.08 169.49 o
-14 4 2 158.87 158.61 146.17 <
-12 4 2 996.49 1044.96 133.73 o
-10 4 2 1714.48 2205.00 115.07 o
-8 4 2 3722.31 3991.69 111.96 o
-6 4 2 7249.41 6213.79 104.18 o
-4 4 2 1827.51 1875.33 96.41 o
-2 4 2 250.97 371.65 87.08 o
0 4 2 3907.08 4402.22 102.63 o
2 4 2 24524.20 28378.80 139.95 o
4 4 2 1984.12 2407.15 101.07 o
6 4 2 2225.91 2302.96 108.85 o
8 4 2 2808.01 3077.35 125.96 o
10 4 2 9919.91 6818.69 150.84 o
12 4 2 685.03 443.18 157.05 o
14 4 2 80.48 206.82 171.05 <
-13 5 2 2580.79 2096.15 164.83 o
-11 5 2 3754.88 3036.92 158.61 o
-9 5 2 64.59 141.51 130.62 <
-7 5 2 70.38 65.31 113.51 <
-5 5 2 6678.71 6798.48 113.51 o
-3 5 2 8720.50 8987.92 115.07 o
-1 5 2 131.78 115.07 99.52 <
1 5 2 89.78 241.03 122.85 <
3 5 2 3884.83 4142.53 110.40 o
5 5 2 2622.91 3083.57 127.51 o
7 5 2 978.42 1108.72 132.18 o
9 5 2 762.67 688.87 150.84 o
11 5 2 173.84 433.85 180.38 o
-8 6 2 918.26 872.36 153.95 o
-6 6 2 1365.35 1323.31 143.06 o
-4 6 2 276.14 418.30 136.84 o
-2 6 2 22.33 267.46 127.51 o
0 6 2 1038.46 964.10 132.18 o
2 6 2 3452.73 2441.36 177.27 o
4 6 2 410.53 460.28 189.71 o
6 6 2 82.07 273.68 253.47 <
-22 0 3 910.42 723.08 227.03 o
-20 0 3 383.80 175.71 209.93 <
-18 0 3 51.52 79.31 167.94 <
-16 0 3 9278.52 9784.08 209.93 o
-14 0 3 20177.80 20501.20 233.25 o
-12 0 3 726.93 894.13 158.61 o
-10 0 3 5031.68 4792.52 183.49 o
-8 0 3 73526.40 66412.60 373.20 o
-6 0 3 133794.00 122443.00 567.58 o
-4 0 3 16229.40 16966.60 293.90 o
-2 0 3 11984.30 15472.30 307.89 o
0 0 3 119331.00 98896.70 597.12 o
2 0 3 75569.20 70427.70 458.73 o
4 0 3 169.17 371.65 132.18 o
6 0 3 236.87 354.54 147.73 o
8 0 3 18665.40 22202.30 256.58 o
10 0 3 6966.45 8421.90 244.14 o
12 0 3 1634.44 2169.23 245.69 o
14 0 3 3816.59 4766.09 283.01 o
16 0 3 635.54 891.02 239.47 o
18 0 3 29.45 326.55 272.13 <
-21 1 3 4939.17 4164.30 185.04 o
-19 1 3 1121.46 1116.49 149.28 o
-17 1 3 947.93 1128.93 130.62 o
-15 1 3 2188.67 1993.51 136.84 o
-13 1 3 20999.80 21585.00 178.82 o
-11 1 3 9198.23 9822.96 152.39 o
-9 1 3 1174.97 1701.17 125.96 o
-7 1 3 11343.60 11379.50 141.51 o
-5 1 3 8445.33 9706.33 136.84 o
-3 1 3 15860.70 20042.40 171.05 o
-1 1 3 87443.90 78793.60 323.44 o
1 1 3 10136.10 11609.70 160.16 o
3 1 3 6471.21 7247.87 138.40 o
5 1 3 13118.70 13220.60 217.70 o
7 1 3 64367.50 46014.10 247.25 o
9 1 3 4519.91 4602.81 152.39 o
11 1 3 4896.07 5932.34 211.48 o
13 1 3 3016.16 3598.28 205.26 o
15 1 3 11026.10 13256.40 205.26 o
17 1 3 276.30 429.18 209.93 o
-20 2 3 239.07 544.25 247.25 o
-18 2 3 49.54 273.68 174.16 <
-16 2 3 6952.81 7244.76 186.60 o
-14 2 3 12821.80 13772.70 174.16 o
-12 2 3 417.32 362.32 133.73 o
-10 2 3 1923.16 2307.63 121.29 o
-8 2 3 45539.90 42660.00 188.15 o
-6 2 3 75287.40 68185.40 213.04 o
-4 2 3 5512.12 6258.89 102.63 o
-2 2 3 4620.71 4506.40 96.41 o
0 2 3 66700.30 69922.30 227.03 o
2 2 3 47386.80 45793.30 231.70 o
4 2 3 116.34 177.27 111.96 <
6 2 3 280.42 452.51 119.74 o
8 2 3 12227.20 13076.00 158.61 o
10 2 3 4734.73 3612.27 124.40 o
12 2 3 1438.15 839.70 138.40 o
14 2 3 2634.30 1258.00 155.50 o
16 2 3 367.15 359.21 216.15 <
-19 3 3 658.45 1062.07 203.71 o
-17 3 3 291.66 317.22 172.60 <
-15 3 3 1004.73 1152.26 147.73 o
-13 3 3 9204.73 10384.30 149.28 o
-11 3 3 4521.50 5000.89 119.74 o
-9 3 3 618.68 805.49 111.96 o
-7 3 3 3624.82 3926.38 105.74 o
-5 3 3 3635.51 3727.34 94.86 o
-3 3 3 6980.06 7112.59 96.41 o
-1 3 3 27203.00 21945.80 124.40 o
1 3 3 3864.13 4565.49 105.74 o
3 3 3 1800.36 2130.35 88.64 o
5 3 3 5629.59 6230.90 153.95 o
7 3 3 26564.10 29059.90 189.71 o
9 3 3 2099.91 1097.83 133.73 o
11 3 3 1678.55 922.12 139.95 o
13 3 3 1599.22 1209.79 169.49 o
15 3 3 5195.51 3260.84 216.15 o
-16 4 3 2162.39 2579.75 172.60 o
-14 4 3 3868.06 3814.42 146.17 o
-12 4 3 61.57 259.69 130.62 <
-10 4 3 223.89 351.43 115.07 o
-8 4 3 13893.30 16232.70 139.95 o
-6 4 3 19698.00 19577.50 130.62 o
-4 4 3 562.19 483.61 87.08 o
-2 4 3 371.05 432.29 80.86 o
0 4 3 17152.50 17849.90 122.85 o
2 4 3 13746.20 16007.20 143.06 o
4 4 3 273.73 234.81 96.41 o
6 4 3 174.03 191.26 118.18 <
8 4 3 3317.53 3427.23 141.51 o
10 4 3 1981.65 1914.21 172.60 o
12 4 3 581.04 464.95 172.60 o
-13 5 3 2341.35 1570.55 169.49 o
-11 5 3 1369.93 1099.39 139.95 o
-9 5 3 254.76 311.00 132.18 o
-7 5 3 634.53 432.29 111.96 o
-5 5 3 845.59 757.29 110.40 o
-3 5 3 2082.21 2163.01 108.85 o
-1 5 3 5017.08 5504.71 113.51 o
1 5 3 659.68 925.23 115.07 o
3 5 3 143.33 119.74 116.62 <
5 5 3 1663.65 1376.18 158.61 o
7 5 3 5454.53 5736.41 186.60 o
9 5 3 667.66 598.68 202.15 o
-8 6 3 2036.95 1564.33 160.16 o
-6 6 3 2856.33 2680.83 144.62 o
-4 6 3 19.79 283.01 135.29 o
-2 6 3 29.76 228.59 136.84 <
0 6 3 2436.89 2683.94 146.17 o
2 6 3 2396.34 2041.72 194.38 o
4 6 3 104.05 349.88 158.61 o
-22 0 4 558.74 281.46 234.81 <
-20 0 4 1182.94 1051.18 199.04 o
-18 0 4 1183.68 917.45 171.05 o
-16 0 4 23478.90 21571.00 237.92 o
-14 0 4 4061.72 3853.30 171.05 o
-12 0 4 4211.73 4646.35 171.05 o
-10 0 4 10930.90 10844.60 211.48 o
-8 0 4 48078.50 50265.50 360.76 o
-6 0 4 12318.60 12317.20 259.69 o
-4 0 4 7932.11 9373.56 261.24 o
-2 0 4 15896.90 18073.80 292.34 o
0 0 4 8584.11 9784.08 248.80 o
2 0 4 8593.35 11099.60 217.70 o
4 0 4 45498.10 45661.10 338.99 o
6 0 4 11233.60 10710.90 206.82 o
8 0 4 3363.42 4027.46 216.15 o
10 0 4 3613.95 4027.46 275.24 o
12 0 4 19465.90 22396.70 328.11 o
14 0 4 987.35 1079.17 244.14 o
16 0 4 641.18 426.07 258.13 <
-21 1 4 864.55 676.43 149.28 o
-19 1 4 1300.54 1248.67 141.51 o
-17 1 4 3304.29 3520.53 130.62 o
-15 1 4 713.70 698.20 130.62 o
-13 1 4 84.10 115.07 135.29 <
-11 1 4 26514.50 27221.90 186.60 o
-9 1 4 47264.50 46269.10 230.14 o
-7 1 4 4125.62 4637.02 122.85 o
-5 1 4 3235.30 3910.83 129.07 o
-3 1 4 87375.40 75689.80 301.67 o
-1 1 4 87899.00 80919.30 345.21 o
1 1 4 3569.43 4769.20 132.18 o
3 1 4 2690.74 3349.48 127.51 o
5 1 4 47684.80 48292.20 250.35 o
7 1 4 20648.20 20154.40 225.48 o
9 1 4 96.29 174.16 147.73 <
11 1 4 1376.29 1234.67 158.61 o
13 1 4 4146.98 3564.07 188.15 o
15 1 4 795.98 670.21 202.15 o
17 1 4 455.44 440.07 376.31 <
-20 2 4 582.89 835.04 171.05 o
-18 2 4 736.36 1118.05 180.38 o
-16 2 4 15489.00 17465.80 192.82 o
-14 2 4 3223.27 3543.85 163.27 o
-12 2 4 2650.26 2592.19 139.95 o
-10 2 4 6156.15 6201.35 125.96 o
-8 2 4 30352.00 29797.00 167.94 o
-6 2 4 7969.65 8297.50 118.18 o
-4 2 4 4493.95 4727.21 102.63 o
-2 2 4 8641.38 9524.40 115.07 o
0 2 4 4724.58 5221.70 107.29 o
2 2 4 6655.31 6862.23 160.16 o
4 2 4 27927.50 32602.20 191.26 o
6 2 4 6349.35 7118.81 136.84 o
8 2 4 1605.30 1800.69 121.29 o
10 2 4 2642.49 1248.67 141.51 o
12 2 4 12538.50 6597.88 189.71 o
14 2 4 862.55 631.33 217.70 o
16 2 4 405.02 430.74 244.14 <
-19 3 4 722.21 497.60 216.15 o
-17 3 4 1463.60 1548.78 236.36 o
-15 3 4 352.33 609.56 188.15 o
-13 3 4 114.88 166.38 160.16 <
-11 3 4 12569.50 12884.80 177.27 o
-9 3 4 19602.70 20311.50 141.51 o
-7 3 4 987.83 1163.14 104.18 o
-5 3 4 578.73 738.63 85.53 o
-3 3 4 36416.90 34188.30 147.73 o
-1 3 4 34651.80 44428.00 171.05 o
1 3 4 780.32 954.77 90.19 o
3 3 4 486.82 754.18 110.40 o
5 3 4 19472.30 22706.20 199.04 o
7 3 4 9611.17 9687.67 236.36 o
9 3 4 73.96 149.28 124.40 <
11 3 4 626.23 136.84 160.16 <
13 3 4 1824.49 878.58 177.27 o
-16 4 4 5051.91 5426.96 175.71 o
-14 4 4 1254.04 1467.92 155.50 o
-12 4 4 406.49 412.08 127.51 o
-10 4 4 1428.20 1754.04 115.07 o
-8 4 4 8129.16 8728.24 122.85 o
-6 4 4 3348.55 3658.92 108.85 o
-4 4 4 1173.88 1035.63 93.30 o
-2 4 4 1726.78 1309.31 96.41 o
0 4 4 1625.11 1707.39 101.07 o
2 4 4 2669.81 2788.12 102.63 o
4 4 4 7681.84 8866.63 133.73 o
6 4 4 1900.59 1956.19 146.17 o
8 4 4 250.31 258.13 183.49 <
10 4 4 1198.23 1354.41 172.60 o
12 4 4 4502.14 4554.61 195.93 o
-13 5 4 102.55 394.97 158.61 o
-11 5 4 3136.43 1838.01 146.17 o
-9 5 4 3857.55 2946.73 129.07 o
-7 5 4 57.05 -49.76 116.62 <
-5 5 4 32.63 93.30 118.18 <
-3 5 4 7497.37 7969.39 127.51 o
-1 5 4 7358.31 7748.58 124.40 o
1 5 4 34.83 211.48 118.18 <
3 5 4 44.63 85.53 121.29 <
5 5 4 3946.98 3977.70 200.60 o
7 5 4 2302.27 2074.37 177.27 o
9 5 4 43.76 209.93 239.47 <
-8 6 4 1443.75 870.80 178.82 o
-6 6 4 767.63 987.43 149.28 o
-4 6 4 318.61 444.73 155.50 o
-2 6 4 277.61 259.69 150.84 <
0 6 4 322.64 297.01 158.61 <
2 6 4 824.79 828.82 143.06 o
-22 0 5 107.59 283.01 231.70 <
-20 0 5 191.06 370.09 183.49 o
-18 0 5 2446.72 2534.66 186.60 o
-16 0 5 2698.86 2680.83 167.94 o
-14 0 5 7108.88 7036.39 178.82 o
-12 0 5 10531.50 10104.40 177.27 o
-10 0 5 138.06 74.64 153.95 <
-8 0 5 177.24 584.68 213.04 o
-6 0 5 55119.20 52767.50 362.32 o
-4 0 5 73440.10 66100.10 416.74 o
-2 0 5 7340.22 7725.26 222.37 o
0 0 5 4684.78 5484.50 194.38 o
2 0 5 81672.60 79557.10 454.06 o
4 0 5 41284.60 42045.70 335.88 o
6 0 5 2346.33 2539.32 199.04 o
8 0 5 92.96 214.59 223.92 <
10 0 5 15263.00 19224.50 345.21 o
12 0 5 5208.21 4173.63 267.46 o
14 0 5 33.49 68.42 270.57 <
16 0 5 551.84 390.31 281.46 <
-21 1 5 379.59 466.50 158.61 o
-19 1 5 10596.10 10387.40 153.95 o
-17 1 5 1909.01 2276.53 136.84 o
-15 1 5 5197.47 5601.12 136.84 o
-13 1 5 4202.13 4248.27 143.06 o
-11 1 5 56514.20 55297.50 220.81 o
-9 1 5 9686.42 10214.80 149.28 o
-7 1 5 6404.38 6423.72 147.73 o
-5 1 5 10638.10 10930.10 155.50 o
-3 1 5 59267.40 57544.50 267.46 o
-1 1 5 7627.61 8518.31 161.72 o
1 1 5 5795.79 6425.28 147.73 o
3 1 5 10423.60 11755.80 158.61 o
5 1 5 1428.35 1561.22 115.07 o
7 1 5 4046.40 4162.75 136.84 o
9 1 5 13060.10 13601.60 203.71 o
11 1 5 2476.40 2046.38 188.15 o
13 1 5 415.66 443.18 200.60 o
15 1 5 697.84 611.12 234.81 o
-20 2 5 151.38 298.56 175.71 <
-18 2 5 1753.80 1680.96 152.39 o
-16 2 5 1836.73 2290.52 155.50 o
-14 2 5 5293.90 5447.18 152.39 o
-12 2 5 7265.09 7481.12 135.29 o
-10 2 5 115.10 174.16 122.85 <
-8 2 5 295.70 340.55 107.29 o
-6 2 5 36236.90 34522.60 167.94 o
-4 2 5 44181.00 46096.50 188.15 o
-2 2 5 3011.54 3921.72 99.52 o
0 2 5 2117.63 2690.16 132.18 o
2 2 5 50080.00 57036.00 234.81 o
4 2 5 28289.60 30963.20 194.38 o
6 2 5 1259.01 1216.01 119.74 o
8 2 5 70.02 209.93 127.51 <
10 2 5 10626.00 10813.50 181.93 o
12 2 5 3502.09 3144.22 205.26 o
14 2 5 27.38 217.70 234.81 <
-19 3 5 5167.16 5744.18 269.02 o
-17 3 5 990.77 1254.89 225.48 o
-15 3 5 1797.94 1884.66 188.15 o
-13 3 5 1921.05 2111.70 166.38 o
-11 3 5 22708.10 23869.30 191.27 o
-9 3 5 4453.71 5426.96 139.95 o
-7 3 5 1842.53 2152.12 97.97 o
-5 3 5 3456.99 3825.31 94.86 o
-3 3 5 21123.50 23587.90 139.95 o
-1 3 5 4446.42 5084.86 108.85 o
1 3 5 2476.79 3212.64 116.62 o
3 3 5 3719.88 4071.00 178.82 o
5 3 5 900.57 1121.16 129.07 o
7 3 5 2368.43 2509.78 132.18 o
9 3 5 6077.60 7030.17 169.49 o
11 3 5 1237.60 1673.18 166.38 o
13 3 5 102.17 301.67 222.37 <
-16 4 5 852.07 971.88 174.16 o
-14 4 5 1913.16 1942.20 152.39 o
-12 4 5 2219.69 2421.14 135.29 o
-10 4 5 128.09 234.81 116.62 o
-8 4 5 330.36 480.50 107.29 o
-6 4 5 11654.10 13135.10 129.07 o
-4 4 5 12893.70 10037.50 125.96 o
-2 4 5 407.15 421.41 110.40 o
0 4 5 174.74 311.00 102.63 o
2 4 5 14671.50 13806.90 149.28 o
4 4 5 8420.03 9059.45 177.27 o
6 4 5 158.30 104.18 139.95 <
8 4 5 36.49 208.37 158.61 <
10 4 5 2867.23 3200.20 191.26 o
-13 5 5 476.98 838.15 169.49 o
-11 5 5 4804.14 5061.54 164.83 o
-9 5 5 1220.33 1040.30 130.62 o
-7 5 5 234.05 161.72 130.62 <
-5 5 5 634.38 410.52 121.29 o
-3 5 5 4011.52 4361.79 130.62 o
-1 5 5 1383.55 1688.73 129.07 o
1 5 5 707.92 733.96 132.18 o
3 5 5 697.99 869.25 149.28 o
5 5 5 350.46 517.82 231.70 o
7 5 5 1023.92 920.56 175.71 o
-6 6 5 2069.66 2071.26 163.27 o
-4 6 5 1794.41 1746.27 164.83 o
-2 6 5 17.55 217.70 149.28 <
-22 0 6 2604.10 2105.47 222.37 o
-20 0 6 964.25 839.70 200.60 o
-18 0 6 1327.04 1509.91 194.38 o
-16 0 6 1765.91 1825.57 177.27 o
-14 0 6 36048.40 32964.50 253.47 o
-12 0 6 7016.23 7462.46 195.93 o
-10 0 6 12974.80 13146.00 217.70 o
-8 0 6 8126.21 8731.35 219.26 o
-6 0 6 92635.80 91244.50 433.85 o
-4 0 6 9742.67 10188.40 227.03 o
-2 0 6 1609.88 1528.57 188.15 o
0 0 6 9071.09 9911.59 222.37 o
2 0 6 26121.60 27963.60 297.01 o
4 0 6 4702.76 4458.20 216.15 o
6 0 6 3506.74 4151.86 233.25 o
8 0 6 5425.80 5831.26 281.46 o
10 0 6 201.74 189.71 290.79 <
12 0 6 636.47 729.30 292.34 o
14 0 6 4081.13 3388.35 334.33 o
-21 1 6 2609.53 2548.65 161.72 o
-19 1 6 3928.49 3808.20 143.06 o
-17 1 6 452.49 671.76 130.62 o
-15 1 6 668.00 898.79 136.84 o
-13 1 6 4479.85 4252.94 132.18 o
-11 1 6 3810.01 4016.57 136.84 o
-9 1 6 13056.60 12830.30 152.39 o
-7 1 6 25642.00 25275.00 185.04 o
-5 1 6 331.10 600.23 136.84 o
-3 1 6 445.06 803.94 130.62 o
-1 1 6 49999.00 48794.50 275.24 o
1 1 6 41462.20 43872.90 250.36 o
3 1 6 1695.82 1926.65 130.62 o
5 1 6 1307.86 1800.69 141.51 o
7 1 6 23816.00 25682.40 233.25 o
9 1 6 12496.60 14153.60 222.37 o
11 1 6 424.39 536.48 208.37 o
13 1 6 104.85 124.40 258.13 <
-20 2 6 581.27 598.68 153.95 o
-18 2 6 668.28 782.17 136.84 o
-16 2 6 1362.99 1665.41 152.39 o
-14 2 6 22933.70 24727.70 178.82 o
-12 2 6 4764.85 4966.68 144.62 o
-10 2 6 7693.37 7921.19 138.40 o
-8 2 6 4897.51 5378.76 121.29 o
-6 2 6 57219.90 55397.00 211.48 o
-4 2 6 6171.43 6846.68 124.40 o
-2 2 6 968.63 982.76 132.18 o
0 2 6 6024.11 8415.68 185.04 o
2 2 6 15984.40 17800.10 169.49 o
4 2 6 3502.99 4310.47 129.07 o
6 2 6 2800.88 2606.19 138.40 o
8 2 6 3294.47 3791.10 157.05 o
10 2 6 196.22 477.39 178.82 o
12 2 6 680.38 786.83 202.15 o
-19 3 6 1918.13 2130.35 251.91 o
-17 3 6 331.36 255.02 192.82 <
-15 3 6 306.72 348.32 152.39 o
-13 3 6 2097.90 2047.94 139.95 o
-11 3 6 2558.41 2823.89 127.51 o
-9 3 6 6713.02 6739.39 138.40 o
-7 3 6 10492.90 11531.90 124.40 o
-5 3 6 88.99 90.19 91.75 <
-3 3 6 89.71 133.73 97.97 <
-1 3 6 21721.20 21535.20 169.49 o
1 3 6 17858.60 17876.30 211.48 o
3 3 6 452.18 603.34 135.29 o
5 3 6 321.02 859.92 172.60 o
7 3 6 10475.30 10413.90 180.38 o
9 3 6 5643.23 6137.60 171.05 o
11 3 6 136.49 242.58 220.81 <
-16 4 6 678.10 973.43 174.16 o
-14 4 6 7287.44 7907.19 161.72 o
-12 4 6 1349.34 1416.61 143.06 o
-10 4 6 1641.85 2041.72 125.96 o
-8 4 6 1503.41 1514.57 122.85 o
-6 4 6 14498.40 14259.40 138.40 o
-4 4 6 2282.30 1523.90 115.07 o
-2 4 6 157.41 228.59 110.40 o
0 4 6 1431.87 1604.76 129.07 o
2 4 6 4952.82 5045.99 166.38 o
4 4 6 1693.05 1841.12 133.73 o
6 4 6 1041.66 765.06 153.95 o
8 4 6 1211.42 1146.04 166.38 o
-13 5 6 458.64 516.26 174.16 o
-11 5 6 893.05 1010.75 153.95 o
-9 5 6 2147.51 1637.42 143.06 o
-7 5 6 2223.28 1111.83 144.62 o
-5 5 6 70.65 32.66 135.29 <
-3 5 6 206.33 189.71 132.18 <
-1 5 6 4989.18 4727.21 141.51 o
1 5 6 3748.40 3299.72 158.61 o
3 5 6 33.35 116.62 197.49 <
5 5 6 39.75 202.15 225.48 <
-22 0 7 3358.05 3183.09 236.36 o
-20 0 7 63.84 371.65 209.93 <
-18 0 7 158.01 292.34 175.71 <
-16 0 7 9289.36 8886.85 192.82 o
-14 0 7 10383.80 10084.20 211.48 o
-12 0 7 629.56 673.32 195.93 o
-10 0 7 2545.66 2962.28 209.93 o
-8 0 7 6554.05 6560.56 219.26 o
-6 0 7 4644.85 4570.16 213.04 o
-4 0 7 14276.50 15152.00 234.81 o
-2 0 7 24782.40 23999.90 256.58 o
0 0 7 233.92 500.71 160.16 o
2 0 7 653.88 922.12 205.26 o
4 0 7 24688.70 26744.50 351.43 o
6 0 7 18160.70 19457.80 349.88 o
8 0 7 504.48 502.27 343.66 <
10 0 7 50.72 83.97 351.43 <
12 0 7 6083.01 4361.79 447.84 o
-21 1 7 26.60 356.10 141.51 o
-19 1 7 959.29 1004.53 149.28 o
-17 1 7 9727.01 9395.33 158.61 o
-15 1 7 2226.38 2273.42 125.96 o
-13 1 7 3879.68 4139.42 138.40 o
-11 1 7 6028.21 5891.91 143.06 o
-9 1 7 57466.90 55149.80 231.70 o
-7 1 7 5830.37 5839.04 146.17 o
-5 1 7 8336.62 7952.29 167.94 o
-3 1 7 8188.47 8320.82 164.83 o
-1 1 7 55952.80 56833.80 295.45 o
1 1 7 3357.91 3657.37 133.73 o
3 1 7 369.36 626.67 143.06 o
5 1 7 6853.48 5101.97 175.71 o
7 1 7 5392.89 5537.37 183.49 o
9 1 7 655.72 699.75 209.93 o
11 1 7 1460.92 1429.05 242.58 o
13 1 7 1339.34 1769.59 312.56 o
-20 2 7 47.12 306.34 144.62 o
-18 2 7 124.57 261.24 152.39 <
-16 2 7 6422.65 6383.29 158.61 o
-14 2 7 7189.56 7313.18 150.84 o
-12 2 7 652.46 684.20 139.95 o
-10 2 7 1931.77 1915.76 133.73 o
-8 2 7 4142.69 4148.75 127.51 o
-6 2 7 3861.74 3800.43 125.96 o
-4 2 7 11030.70 11039.00 146.17 o
-2 2 7 15089.20 15705.50 188.15 o
0 2 7 228.77 101.07 108.85 <
2 2 7 184.00 264.35 121.29 o
4 2 7 15784.30 19048.80 191.26 o
6 2 7 12092.00 9955.13 177.27 o
8 2 7 236.60 171.05 177.27 <
10 2 7 52.48 241.03 199.04 <
12 2 7 4206.94 3402.35 256.58 o
-19 3 7 647.68 995.20 209.93 o
-17 3 7 4774.39 3761.55 188.15 o
-15 3 7 1047.99 1030.97 149.28 o
-13 3 7 1479.61 1460.15 146.17 o
-11 3 7 2821.89 2816.11 132.18 o
-9 3 7 23950.10 25175.50 195.93 o
-7 3 7 2486.93 2585.97 127.51 o
-5 3 7 3082.91 3585.84 124.40 o
-3 3 7 3462.51 3742.89 130.62 o
-1 3 7 22766.80 18849.80 203.71 o
1 3 7 1959.18 2232.99 127.51 o
3 3 7 93.68 194.38 135.29 <
5 3 7 3010.84 3584.28 217.70 o
7 3 7 2862.36 3150.44 166.38 o
9 3 7 564.32 701.31 197.49 o
-16 4 7 1707.24 1897.10 192.82 o
-14 4 7 2816.22 3071.13 174.16 o
-12 4 7 553.37 583.13 143.06 o
-10 4 7 621.99 959.44 138.40 o
-8 4 7 1580.41 1558.11 127.51 o
-6 4 7 2056.50 2329.40 132.18 o
-4 4 7 4254.45 3299.72 135.29 o
-2 4 7 4752.22 3997.91 144.62 o
0 4 7 153.69 105.74 161.72 <
2 4 7 51.21 104.18 147.73 <
4 4 7 5271.89 5812.60 166.38 o
6 4 7 3453.15 1856.67 181.93 o
8 4 7 87.82 216.15 181.93 <
-13 5 7 165.80 667.10 433.85 <
-11 5 7 674.31 892.57 174.16 o
-9 5 7 4726.66 4033.68 166.38 o
-7 5 7 636.42 407.41 155.50 o
-5 5 7 500.10 461.84 147.73 o
-3 5 7 714.14 870.80 147.73 o
-1 5 7 4723.93 4475.30 177.27 o
1 5 7 659.54 542.70 200.60 o
3 5 7 30.74 329.66 186.60 <
-22 0 8 421.77 469.61 233.25 o
-20 0 8 1346.04 1528.57 199.04 o
-18 0 8 887.97 919.01 202.15 o
-16 0 8 114.73 295.45 191.26 <
-14 0 8 3654.40 3764.66 191.26 o
-12 0 8 27513.40 28094.20 259.69 o
-10 0 8 4374.62 5021.11 223.92 o
-8 0 8 7937.10 8790.44 222.37 o
-6 0 8 7796.19 7364.50 200.60 o
-4 0 8 71056.20 69647.10 360.76 o
-2 0 8 3360.14 3705.57 200.60 o
0 0 8 5563.85 3857.96 219.26 o
2 0 8 6966.68 7787.46 255.02 o
4 0 8 21950.10 21550.80 362.32 o
6 0 8 1063.26 1121.16 363.87 o
-21 1 8 187.82 245.69 163.27 <
-19 1 8 5844.86 5173.50 146.17 o
-17 1 8 9042.26 8708.02 144.62 o
-15 1 8 150.56 298.56 138.40 o
-13 1 8 377.58 485.16 124.40 o
-11 1 8 13058.30 12192.80 158.61 o
-9 1 8 15676.60 15012.00 167.94 o
-7 1 8 1035.80 990.54 141.51 o
-5 1 8 3656.16 3857.96 161.72 o
-3 1 8 4798.93 5005.56 166.38 o
-1 1 8 1729.74 1693.40 160.16 o
1 1 8 10935.80 13772.70 197.49 o
3 1 8 11230.20 13343.50 208.37 o
5 1 8 112.66 171.05 174.16 <
7 1 8 54.96 113.51 200.60 <
9 1 8 6365.40 5613.56 273.68 o
11 1 8 4405.78 3431.89 317.22 o
-20 2 8 1174.42 1184.91 177.27 o
-18 2 8 541.81 766.62 155.50 o
-16 2 8 55.63 259.69 149.28 <
-14 2 8 2812.81 2984.05 136.84 o
-12 2 8 17275.40 18044.30 172.60 o
-10 2 8 2901.44 2848.77 132.18 o
-8 2 8 4547.05 4500.18 133.73 o
-6 2 8 4713.16 4867.16 139.95 o
-4 2 8 45470.40 45228.80 225.48 o
-2 2 8 2553.40 2896.97 149.28 o
0 2 8 3587.43 4021.24 143.06 o
2 2 8 4865.02 5279.24 157.05 o
4 2 8 15031.90 17358.50 211.48 o
6 2 8 805.85 1012.31 177.27 o
8 2 8 39.95 169.49 188.15 <
10 2 8 1774.24 1486.58 228.59 o
-19 3 8 2545.75 2054.16 202.15 o
-17 3 8 4113.27 4329.13 189.71 o
-15 3 8 30.28 167.94 167.94 <
-13 3 8 95.53 146.17 146.17 <
-11 3 8 5828.26 6154.70 155.50 o
-9 3 8 7983.21 8065.80 144.62 o
-7 3 8 1045.85 1245.56 144.62 o
-5 3 8 1795.71 2147.46 125.96 o
-3 3 8 2305.88 2540.88 143.06 o
-1 3 8 1313.19 1085.39 185.04 o
1 3 8 5541.96 6157.81 161.72 o
3 3 8 4910.56 5650.88 167.94 o
5 3 8 65.26 139.95 214.59 <
7 3 8 32.34 189.71 192.82 <
9 3 8 2857.99 2245.43 354.54 o
-16 4 8 20.60 483.61 195.93 o
-14 4 8 1032.09 1581.44 167.94 o
-12 4 8 5392.52 6010.09 164.83 o
-10 4 8 774.24 754.18 146.17 o
-8 4 8 1160.58 1262.66 144.62 o
-6 4 8 1639.44 1925.09 150.84 o
-4 4 8 12386.80 12869.20 175.71 o
-2 4 8 926.77 754.18 164.83 o
0 4 8 651.76 858.36 152.39 o
2 4 8 1498.25 1704.28 171.05 o
4 4 8 5037.40 3511.20 194.38 o
6 4 8 670.18 279.90 186.60 <
-11 5 8 1499.69 1233.12 191.26 o
-9 5 8 2255.79 1685.62 175.71 o
-7 5 8 638.61 500.71 169.49 o
-5 5 8 568.97 413.63 174.16 o
-3 5 8 595.15 676.43 180.38 o
-1 5 8 643.52 388.75 203.71 <
1 5 8 1547.82 1393.28 211.48 o
-20 0 9 4684.00 3354.14 237.92 o
-18 0 9 228.07 297.01 208.37 <
-16 0 9 639.79 1052.74 194.38 o
-14 0 9 13431.20 13939.10 206.82 o
-12 0 9 16795.60 17912.10 247.25 o
-10 0 9 382.22 625.11 191.26 o
-8 0 9 84.09 96.41 186.60 <
-6 0 9 13844.10 13814.70 217.70 o
-4 0 9 9938.84 9672.12 203.71 o
-2 0 9 1669.24 1856.67 202.15 o
0 0 9 4421.21 4280.92 228.59 o
2 0 9 3232.29 3082.02 440.07 o
4 0 9 319.37 261.24 343.66 <
-21 1 9 273.76 340.55 160.16 o
-19 1 9 1148.91 1058.96 139.95 o
-17 1 9 1447.50 1494.36 141.51 o
-15 1 9 4056.00 4374.23 153.95 o
-13 1 9 2571.64 2786.57 133.73 o
-11 1 9 347.28 480.50 135.29 o
-9 1 9 4173.67 4175.18 138.40 o
-7 1 9 32982.20 33182.20 209.93 o
-5 1 9 3898.09 4097.43 174.16 o
-3 1 9 4143.52 4643.24 164.83 o
-1 1 9 4032.02 3938.82 160.16 o
1 1 9 29625.00 31816.90 261.24 o
3 1 9 1731.32 2150.57 200.60 o
5 1 9 1441.17 1696.51 216.15 o
7 1 9 2488.82 2856.54 264.35 o
9 1 9 4380.87 4128.53 331.22 o
-20 2 9 3196.19 2567.31 166.38 o
-18 2 9 125.58 318.78 167.94 <
-16 2 9 455.11 380.98 150.84 o
-14 2 9 9455.36 8739.12 157.05 o
-12 2 9 11709.60 11595.70 186.60 o
-10 2 9 193.33 357.65 146.17 o
-8 2 9 91.06 199.04 152.39 <
-6 2 9 9385.60 9437.32 160.16 o
-4 2 9 6814.46 6911.99 152.39 o
-2 2 9 1603.41 1893.99 144.62 o
0 2 9 2960.03 1425.94 164.83 o
2 2 9 1967.08 2365.16 167.94 o
4 2 9 358.83 416.74 245.69 <
6 2 9 2955.59 2725.92 208.37 o
8 2 9 3478.15 1820.91 233.25 o
-17 3 9 948.83 1144.48 183.49 o
-15 3 9 1915.69 1991.96 171.05 o
-13 3 9 1051.96 1189.58 161.72 o
-11 3 9 115.98 311.00 155.50 <
-9 3 9 2119.89 2139.69 143.06 o
-7 3 9 13866.40 14119.40 178.82 o
-5 3 9 1654.98 1965.52 144.62 o
-3 3 9 1443.14 1219.12 152.39 o
-1 3 9 2054.71 1074.51 155.50 o
1 3 9 13168.40 14551.70 192.82 o
3 3 9 1122.27 1520.79 172.60 o
5 3 9 364.51 405.86 197.49 o
7 3 9 1374.65 956.33 228.59 o
-14 4 9 3041.57 3108.45 185.04 o
-12 4 9 4145.82 4585.71 180.38 o
-10 4 9 49.77 391.86 161.72 o
-8 4 9 80.20 236.36 161.72 <
-6 4 9 3194.78 3819.09 161.72 o
-4 4 9 3012.93 2281.19 171.05 o
-2 4 9 807.15 1006.09 202.15 o
0 4 9 993.19 965.66 185.04 o
2 4 9 657.59 649.99 169.49 o
-7 5 9 2606.53 1604.76 186.60 o
-5 5 9 348.15 569.13 205.26 o
-20 0 10 686.23 771.28 233.25 o
-18 0 10 33.83 312.56 216.15 <
-16 0 10 1137.53 1180.25 197.49 o
-14 0 10 2273.97 2352.72 185.04 o
-12 0 10 3072.71 3685.36 195.93 o
-10 0 10 7859.27 8526.08 199.04 o
-8 0 10 3450.25 3845.52 205.26 o
-6 0 10 269.41 222.37 199.04 <
-4 0 10 3311.82 3232.85 199.04 o
-2 0 10 24426.60 25293.70 289.23 o
0 0 10 2196.66 2708.82 255.02 o
2 0 10 1947.68 1670.07 312.56 o
-19 1 10 81.32 331.22 150.84 o
-17 1 10 7100.11 7103.26 153.95 o
-15 1 10 8785.53 9028.35 152.39 o
-13 1 10 850.67 976.54 133.73 o
-11 1 10 548.78 390.31 144.62 o
-9 1 10 16329.20 15842.40 171.05 o
-7 1 10 14861.40 14856.50 175.71 o
-5 1 10 338.49 331.22 143.06 o
-3 1 10 282.44 464.95 147.73 o
-1 1 10 9754.78 11081.00 214.59 o
1 1 10 2921.45 2842.55 219.26 o
3 1 10 825.26 758.84 326.55 o
5 1 10 2828.34 2491.12 269.02 o
7 1 10 1159.65 951.66 307.89 o
-18 2 10 56.82 245.69 160.16 <
-16 2 10 728.26 1026.30 163.27 o
-14 2 10 1453.45 1525.46 161.72 o
-12 2 10 2539.37 2463.13 177.27 o
-10 2 10 5105.89 5375.65 174.16 o
-8 2 10 1984.16 1926.65 157.05 o
-6 2 10 104.48 276.79 136.84 o
-4 2 10 2373.46 2030.83 158.61 o
-2 2 10 15890.30 17706.80 272.13 o
0 2 10 1763.48 1999.73 181.93 o
2 2 10 1135.30 1374.62 185.04 o
4 2 10 1790.15 1886.22 326.55 o
6 2 10 6497.68 6095.61 251.91 o
-17 3 10 3401.78 2968.50 203.71 o
-15 3 10 4179.06 3971.48 192.82 o
-13 3 10 224.50 352.99 166.38 o
-11 3 10 121.90 203.71 163.27 <
-9 3 10 7739.89 7661.50 164.83 o
-7 3 10 7517.65 7478.01 157.05 o
-5 3 10 55.56 130.62 146.17 <
-3 3 10 183.75 261.24 197.49 <
-1 3 10 4448.41 4649.46 183.49 o
1 3 10 1569.67 1654.52 197.49 o
3 3 10 415.04 478.94 197.49 o
-12 4 10 872.01 1086.95 189.71 o
-10 4 10 1555.97 1864.45 178.82 o
-8 4 10 502.07 500.71 166.38 o
-6 4 10 46.69 223.92 164.83 <
-4 4 10 1027.59 788.39 192.82 o
-2 4 10 5017.83 5329.00 206.82 o
0 4 10 597.73 726.19 183.49 o
-20 0 11 2717.82 2240.76 219.26 o
-18 0 11 3544.74 3780.21 228.59 o
-16 0 11 224.79 352.99 181.93 <
-14 0 11 330.67 412.08 186.60 o
-12 0 11 11799.00 11863.10 214.59 o
-10 0 11 13427.50 14009.00 237.92 o
-8 0 11 1152.77 1399.50 195.93 o
-6 0 11 351.48 606.45 191.26 o
-4 0 11 14121.20 15469.20 275.24 o
-2 0 11 8600.01 8844.86 267.46 o
0 0 11 63.73 205.26 284.57 <
2 0 11 545.43 528.70 416.74 <
-19 1 11 343.87 443.18 158.61 o
-17 1 11 4409.91 4235.83 147.73 o
-15 1 11 1716.73 1932.87 141.51 o
-13 1 11 232.68 391.86 135.29 o
-11 1 11 1890.04 1909.54 139.95 o
-9 1 11 1808.53 1774.26 144.62 o
-7 1 11 2361.12 2178.56 150.84 o
-5 1 11 8177.43 8750.01 177.27 o
-3 1 11 2215.40 2327.84 161.72 o
-1 1 11 272.51 163.27 206.82 <
1 1 11 1478.48 1576.77 228.59 o
3 1 11 8304.21 6174.92 279.90 o
5 1 11 702.69 757.29 317.22 o
-18 2 11 2226.98 2144.35 166.38 o
-16 2 11 85.65 223.92 167.94 <
-14 2 11 203.00 365.43 164.83 o
-12 2 11 8093.18 7941.40 188.15 o
-10 2 11 9780.57 9707.89 169.49 o
-8 2 11 669.92 665.54 155.50 o
-6 2 11 183.82 320.33 146.17 o
-4 2 11 9906.30 9109.21 195.93 o
-2 2 11 5709.38 4837.62 199.04 o
0 2 11 41.51 45.10 197.49 <
2 2 11 386.72 461.84 206.82 o
4 2 11 2642.35 1169.36 230.14 o
-15 3 11 982.29 990.54 214.59 o
-13 3 11 128.36 342.10 189.71 <
-11 3 11 743.97 712.19 171.05 o
-9 3 11 833.69 775.95 160.16 o
-7 3 11 1301.55 1038.74 155.50 o
-5 3 11 3843.16 3562.51 178.82 o
-3 3 11 994.68 653.10 174.16 o
-1 3 11 65.41 74.64 195.93 <
1 3 11 1105.81 1063.62 214.59 o
-10 4 11 3448.05 2739.92 191.26 o
-8 4 11 38.02 203.71 185.04 <
-6 4 11 22.97 307.89 191.26 <
-4 4 11 3150.80 3043.14 306.34 o
-18 0 12 725.93 673.32 225.48 o
-16 0 12 448.66 603.34 200.60 o
-14 0 12 1263.93 1618.76 200.60 o
-12 0 12 6483.14 5971.21 217.70 o
-10 0 12 1625.79 1662.30 199.04 o
-8 0 12 743.52 816.38 214.59 o
-6 0 12 2538.27 2456.91 233.25 o
-4 0 12 985.80 886.35 227.03 o
-2 0 12 825.69 556.69 270.57 o
0 0 12 4689.74 5129.96 365.43 o
-17 1 12 61.06 197.49 160.16 <
-15 1 12 3944.98 3671.36 155.50 o
-13 1 12 5188.76 5514.04 152.39 o
-11 1 12 300.45 292.34 150.84 <
-9 1 12 218.42 373.20 143.06 o
-7 1 12 9580.65 9752.98 174.16 o
-5 1 12 8633.15 8426.57 180.38 o
-3 1 12 306.12 315.67 174.16 <
-1 1 12 41.66 178.82 237.92 <
1 1 12 6438.99 5877.91 292.34 o
-16 2 12 251.29 645.33 166.38 o
-14 2 12 954.67 967.21 172.60 o
-12 2 12 4086.46 4173.63 188.15 o
-10 2 12 1262.79 1299.98 169.49 o
-8 2 12 602.61 657.77 157.05 o
-6 2 12 1502.35 1537.90 171.05 o
-4 2 12 826.50 486.72 208.37 o
-2 2 12 791.65 634.44 217.70 o
0 2 12 3238.42 3388.35 225.48 o
-13 3 12 2561.03 2372.94 194.38 o
-11 3 12 68.56 284.57 189.71 <
-9 3 12 31.49 99.52 189.71 <
-7 3 12 4696.84 3299.72 178.82 o
-5 3 12 4158.22 3624.71 219.26 o
-3 3 12 80.95 293.90 217.70 <
-16 0 13 1201.92 948.55 219.26 o
-14 0 13 51.12 382.53 197.49 <
-12 0 13 51.80 164.83 216.15 <
-10 0 13 4895.77 4657.24 241.03 o
-8 0 13 5571.01 5542.03 228.59 o
-6 0 13 206.43 273.68 241.03 <
-4 0 13 72.63 380.98 242.58 <
-2 0 13 6726.81 6100.28 346.77 o
0 0 13 4377.23 2659.06 534.92 o
-15 1 13 6148.55 5602.68 171.05 o
-13 1 13 964.37 922.12 152.39 o
-11 1 13 257.91 443.18 147.73 o
-9 1 13 1626.27 1834.90 174.16 o
-7 1 13 4624.82 4574.82 175.71 o
-5 1 13 653.41 424.52 183.49 o
-3 1 13 633.76 382.53 241.03 <
-1 1 13 1430.44 1545.67 286.12 o
-14 2 13 62.10 147.73 366.98 <
-12 2 13 74.76 169.49 178.82 <
-10 2 13 3336.47 3360.36 174.16 o
-8 2 13 4088.10 3313.71 192.82 o
-6 2 13 122.07 205.26 186.60 <
-4 2 13 65.22 306.34 253.47 <
-12 0 14 1025.14 696.64 237.92 o
-10 0 14 6839.43 5890.35 258.13 o
-8 0 14 698.53 653.10 223.92 o
-6 0 14 101.23 297.01 261.24 <
-11 1 14 1640.81 1685.62 178.82 o
-9 1 14 54.32 275.24 175.71 <
-7 1 14 33.35 180.38 222.37 <
