#------------------------------------------------------------------------------
#$Date: 2019-11-26 01:35:18 +0200 (Tue, 26 Nov 2019) $
#$Revision: 242294 $
#$URL: file:///home/coder/svn-repositories/cod/cif/4/13/22/4132297.cif $
#------------------------------------------------------------------------------
#
# This file is available in the Crystallography Open Database (COD),
# http://www.crystallography.net/
#
# All data on this site have been placed in the public domain by the
# contributors.
#
data_4132297
loop_
_publ_author_name
'Hashim, Mohamed I.'
'Le, Ha T. M.'
'Chen, Teng-Hao'
'Chen, Yu-Sheng'
'Daugulis, Olafs'
'Hsu, Chia-Wei'
'Jacobson, Allan J.'
'Kaveevivitchai, Watchareeya'
'Liang, Xiao'
'Makarenko, Tatyana'
'Miljani\'c, Ognjen \<S'
'Popovs, Ilja'
'Tran, Hung Vu'
'Wang, Xiqu'
'Wu, Chia-Hua'
'Wu, Judy I.'
_publ_section_title
;
 Dissecting Porosity in Molecular Crystals: Influence of Geometry,
 Hydrogen Bonding, and [\p&#x00B7;&#x00B7;&#x00B7;\p] Stacking on the
 Solid-State Packing of Fluorinated Aromatics.
;
_journal_issue                   18
_journal_name_full               'Journal of the American Chemical Society'
_journal_page_first              6014
_journal_page_last               6026
_journal_paper_doi               10.1021/jacs.8b02869
_journal_volume                  140
_journal_year                    2018
_chemical_formula_sum            'C12 H6 F4 N4'
_chemical_formula_weight         282.21
_space_group_crystal_system      monoclinic
_space_group_IT_number           14
_space_group_name_Hall           '-P 2yn'
_space_group_name_H-M_alt        'P 1 21/n 1'
_atom_sites_solution_hydrogens   mixed
_audit_creation_method           SHELXL-2014/7
_cell_angle_alpha                90
_cell_angle_beta                 97.711(2)
_cell_angle_gamma                90
_cell_formula_units_Z            2
_cell_length_a                   5.3834(3)
_cell_length_b                   5.7482(3)
_cell_length_c                   16.8992(8)
_cell_measurement_reflns_used    3114
_cell_measurement_temperature    123(2)
_cell_measurement_theta_max      66.59
_cell_measurement_theta_min      5.28
_cell_volume                     518.21(5)
_computing_cell_refinement       'SAINT v7.60A (Bruker-Nonius, 2013)'
_computing_data_collection       'APEX2 v2013.4-1 (Bruker-Nonius, 2013)'
_computing_data_reduction        'SAINT v7.60A (Bruker-Nonius, 2013)'
_computing_structure_refinement  'SHELXL-2014/7 (Sheldrick, 2014)'
_computing_structure_solution    'SHELXS v6.12 (G.M. Sheldrick, 2001)'
_diffrn_ambient_temperature      123(2)
_diffrn_detector_area_resol_mean 4K
_diffrn_measured_fraction_theta_full 0.962
_diffrn_measured_fraction_theta_max 0.962
_diffrn_measurement_device_type  'Bruker DUO APEX II CCD'
_diffrn_measurement_method       'narrow frame'
_diffrn_radiation_type           CuK\a
_diffrn_radiation_wavelength     1.54178
_diffrn_reflns_av_R_equivalents  0.0177
_diffrn_reflns_av_unetI/netI     0.0157
_diffrn_reflns_Laue_measured_fraction_full 0.962
_diffrn_reflns_Laue_measured_fraction_max 0.962
_diffrn_reflns_number            884
_diffrn_reflns_point_group_measured_fraction_full 0.962
_diffrn_reflns_point_group_measured_fraction_max 0.962
_diffrn_reflns_theta_full        66.589
_diffrn_reflns_theta_max         66.589
_diffrn_reflns_theta_min         5.282
_exptl_absorpt_coefficient_mu    1.453
_exptl_absorpt_correction_T_max  0.7528
_exptl_absorpt_correction_T_min  0.6000
_exptl_absorpt_correction_type   empirical
_exptl_absorpt_process_details   'SAINT v7.60A'
_exptl_crystal_colour            Colorless
_exptl_crystal_density_diffrn    1.809
_exptl_crystal_description       plate
_exptl_crystal_F_000             284
_exptl_crystal_size_max          0.35
_exptl_crystal_size_mid          0.35
_exptl_crystal_size_min          0.06
_refine_diff_density_max         0.279
_refine_diff_density_min         -0.201
_refine_diff_density_rms         0.045
_refine_ls_extinction_coef       0.016(2)
_refine_ls_extinction_expression Fc^*^=kFc[1+0.001xFc^2^\l^3^/sin(2\q)]^-1/4^
_refine_ls_extinction_method     'SHELXL-2014/7 (Sheldrick 2014'
_refine_ls_goodness_of_fit_ref   1.091
_refine_ls_hydrogen_treatment    mixed
_refine_ls_matrix_type           full
_refine_ls_number_parameters     96
_refine_ls_number_reflns         884
_refine_ls_number_restraints     0
_refine_ls_restrained_S_all      1.091
_refine_ls_R_factor_all          0.0295
_refine_ls_R_factor_gt           0.0294
_refine_ls_shift/su_max          0.000
_refine_ls_shift/su_mean         0.000
_refine_ls_structure_factor_coef Fsqd
_refine_ls_weighting_details
'w=1/[\s^2^(Fo^2^)+(0.0309P)^2^+0.3692P] where P=(Fo^2^+2Fc^2^)/3'
_refine_ls_weighting_scheme      calc
_refine_ls_wR_factor_gt          0.0725
_refine_ls_wR_factor_ref         0.0726
_reflns_Friedel_coverage         0.000
_reflns_number_gt                876
_reflns_number_total             884
_reflns_threshold_expression     'I > 2\s(I)'
_cod_data_source_file            ja8b02869_si_002.cif
_cod_data_source_block           2cif_K1434
_cod_depositor_comments
;
The following automatic conversions were performed:

data item '_exptl_absorpt_correction_type' value 'Empirical' was
changed to 'empirical' in accordance with the
/home/saulius/struct/COD-crude-data/automatic-downloads/DataCite-retrospective/ACS/depositions/lib/dictionaries/cif_core.dic
dictionary named 'cif_core.dic' version 2.4.2 last updated on
2011-04-26.

Automatic conversion script
Id: cif_fix_values 6909 2019-04-08 15:41:33Z antanas 
;
_cod_original_sg_symbol_H-M      'P 21/n'
_cod_database_code               4132297
_shelx_shelxl_version_number     2014/7
_shelx_space_group_comment
;
The symmetry employed for this shelxl refinement is uniquely defined
by the following loop, which should always be used as a source of
symmetry information in preference to the above space-group names.
They are only intended as comments.
;
_shelx_res_file
;

    K1434.res created by SHELXL-2014/7


TITL K1434
CELL 1.54178   5.3834   5.7482  16.8992  90.000  97.711  90.000
ZERR    2.00   0.0003   0.0003   0.0008   0.000   0.002   0.000
LATT  1
SYMM 0.5-X, 0.5+Y, 0.5-Z
SFAC C H N F
UNIT 24 8 8 8
LIST 6 ! automatically inserted. Change 6 to 4 for CHECKCIF!!
TEMP -150C
MERG
L.S. 12
ACTA
FMAP 2
PLAN 5
CONF
WGHT    0.030900    0.369200
EXTI    0.015917
FVAR       0.45584
F1    4    0.188709    0.132234    0.498515    11.00000    0.02238    0.01722 =
         0.02115   -0.00453    0.00969   -0.00925
F2    4    0.489036    0.155043    0.390681    11.00000    0.02376    0.01721 =
         0.01752   -0.00682    0.00856   -0.00479
N1    3   -0.126513    0.354895    0.693162    11.00000    0.01648    0.01834 =
         0.01668    0.00210    0.00713   -0.00140
H1N   2   -0.235228    0.267654    0.717092    11.00000    0.03052
N2    3   -0.056158    0.567988    0.722367    11.00000    0.01879    0.01834 =
         0.01689    0.00028    0.00670    0.00179
C1    1   -0.002022    0.291364    0.633198    11.00000    0.01739    0.01803 =
         0.01446    0.00023    0.00511   -0.00016
AFIX  43
H1    2   -0.021259    0.149159    0.604383    11.00000   -1.20000
AFIX   0
C2    1    0.160518    0.471529    0.620817    11.00000    0.01350    0.01636 =
         0.01212    0.00192    0.00252    0.00140
C3    1    0.116983    0.638882    0.678729    11.00000    0.01703    0.01673 =
         0.01545    0.00058    0.00503    0.00021
AFIX  43
H3    2    0.201246    0.784167    0.685572    11.00000   -1.20000
AFIX   0
C4    1    0.332051    0.486193    0.560496    11.00000    0.01337    0.01519 =
         0.01227    0.00183    0.00244    0.00123
C5    1    0.342711    0.317812    0.501596    11.00000    0.01377    0.01332 =
         0.01583    0.00087    0.00246   -0.00308
C6    1    0.501444    0.330679    0.444152    11.00000    0.01658    0.01377 =
         0.01214   -0.00291    0.00260   -0.00009

HKLF 4

REM  K1434
REM R1 =  0.0294 for     876 Fo > 4sig(Fo)  and  0.0295 for all     884 data
REM     96 parameters refined using      0 restraints

END

WGHT      0.0314      0.3593

REM Highest difference peak  0.279,  deepest hole -0.201,  1-sigma level  0.045
Q1    1   0.2456  0.4734  0.5972  11.00000  0.05    0.28
Q2    1   0.4470  0.3138  0.4798  11.00000  0.05    0.24
Q3    1   0.2026  0.5300  0.6572  11.00000  0.05    0.18
Q4    1   0.0690  0.3866  0.6197  11.00000  0.05    0.18
Q5    1   0.1517  0.5596  0.6487  11.00000  0.05    0.18
;
_shelx_res_checksum              86300
_shelx_hkl_file
;
   1   0   0   -0.23    0.00
   2   0   0  168.78    3.75
   3   0   0   -0.22    0.01
   4   0   0    0.08    0.01
   6   0   0  155.48    3.77
   1   1   0  281.62    3.81
   2   1   0   92.99    1.47
   3   1   0   68.34    1.29
   4   1   0    5.13    0.07
   5   1   0   23.64    0.28
   6   1   0   19.76    0.51
   0   2   0   35.12    0.73
   1   2   0  133.01    2.08
   2   2   0   94.16    1.32
   3   2   0    0.58    0.03
   4   2   0   28.54    0.34
   5   2   0    4.12    0.10
   0   3   0   -0.16    0.02
   1   3   0   40.33    0.56
   2   3   0   17.38    0.51
   3   3   0   47.45    0.67
   4   3   0    0.75    0.05
   5   3   0    8.96    0.25
   0   4   0  183.71    3.25
   1   4   0   23.30    0.30
   2   4   0   10.46    0.15
   3   4   0   23.73    0.34
   4   4   0    0.13    0.02
   5   4   0    1.84    0.07
   0   5   0    0.13    0.03
   1   5   0    3.54    0.06
   2   5   0   40.68    0.56
   3   5   0    4.42    0.08
   4   5   0   15.70    0.40
   0   6   0  145.44    2.39
   1   6   0   88.69    1.02
   2   6   0    1.32    0.04
   3   6   0    4.41    0.13
  -6   0   1    0.00    0.01
  -5   0   1   65.34    0.86
  -3   0   1  324.72    8.81
  -1   0   1   10.60    0.22
   0   0   1   -0.23    0.00
   1   0   1   44.35    0.65
   2   0   1   -0.01    0.01
   3   0   1   30.43    0.84
   4   0   1    0.00    0.01
   5   0   1    7.50    0.15
   6   0   1    0.15    0.03
  -6   1   1    0.54    0.04
  -5   1   1   43.47    0.45
  -4   1   1   98.86    0.92
  -3   1   1   78.45    1.30
  -2   1   1   24.43    0.37
  -1   1   1    0.03    0.01
   0   1   1  183.48    2.49
   2   1   1   10.77    0.14
   3   1   1   15.45    0.25
   4   1   1    4.51    0.07
   5   1   1    5.48    0.10
  -5   2   1    8.80    0.18
  -4   2   1   40.90    0.48
  -3   2   1    0.11    0.01
  -2   2   1  154.50    2.47
  -1   2   1   71.77    1.01
   0   2   1   27.33    0.46
   1   2   1    1.69    0.03
   2   2   1  140.14    2.25
   3   2   1   10.50    0.22
   4   2   1   79.34    1.36
   5   2   1   13.84    0.38
  -5   3   1    0.01    0.01
  -3   3   1    1.26    0.04
  -2   3   1    9.13    0.15
  -1   3   1  134.64    1.89
   0   3   1   54.05    0.79
   1   3   1    0.07    0.01
   2   3   1   49.17    0.72
   3   3   1   36.34    0.52
   4   3   1    3.40    0.12
  -5   4   1    0.39    0.03
  -4   4   1    0.11    0.02
  -3   4   1  113.38    1.53
  -2   4   1  131.53    1.42
  -1   4   1   21.89    0.28
   0   4   1   59.65    0.74
   1   4   1    4.15    0.06
   2   4   1    1.42    0.03
   3   4   1   82.43    1.34
   4   4   1   26.64    0.43
  -4   5   1    0.78    0.03
  -3   5   1   30.81    0.43
  -2   5   1    2.91    0.05
  -1   5   1   16.80    0.21
   0   5   1  103.15    1.21
   1   5   1   45.35    0.53
   2   5   1    5.53    0.10
   3   5   1    2.90    0.07
   4   5   1    0.02    0.02
  -3   6   1    4.22    0.09
  -2   6   1   12.54    0.19
  -1   6   1   13.47    0.17
   0   6   1    1.98    0.04
   1   6   1   37.92    0.52
   2   6   1    2.75    0.06
  -6   0   2   71.06    1.10
  -5   0   2    0.06    0.02
  -4   0   2   14.10    0.25
  -3   0   2    0.01    0.01
  -2   0   2  111.38    2.16
  -1   0   2   -0.44    0.01
   0   0   2  165.64    3.35
   2   0   2  136.56    2.78
   3   0   2    0.02    0.01
   4   0   2   16.08    0.28
   5   0   2    0.06    0.02
  -6   1   2    0.61    0.05
  -5   1   2   35.12    0.34
  -4   1   2    0.01    0.01
  -3   1   2   90.16    1.40
  -2   1   2  190.41    3.21
  -1   1   2  149.79    2.87
   0   1   2   44.45    0.64
   2   1   2    2.21    0.05
   3   1   2   73.30    0.96
   4   1   2   43.18    0.49
   5   1   2    2.74    0.08
  -5   2   2   22.69    0.22
  -4   2   2    9.63    0.12
  -3   2   2   85.82    1.01
  -2   2   2   38.22    0.57
  -1   2   2   19.54    0.27
   0   2   2   19.87    0.29
   1   2   2   49.73    0.76
   2   2   2   41.71    0.67
   3   2   2    0.08    0.01
   4   2   2    0.08    0.02
   5   2   2   20.73    0.55
  -5   3   2   10.59    0.17
  -4   3   2    1.90    0.04
  -3   3   2   73.61    0.89
  -2   3   2   90.98    1.61
  -1   3   2  225.83    3.30
   0   3   2   13.46    0.20
   1   3   2   12.59    0.19
   2   3   2   12.36    0.27
   3   3   2   24.07    0.46
   4   3   2   63.78    1.29
  -5   4   2    0.38    0.03
  -4   4   2   35.72    0.50
  -3   4   2    4.63    0.09
  -2   4   2    4.55    0.07
  -1   4   2    5.71    0.10
   0   4   2    4.74    0.08
   1   4   2   22.20    0.28
   2   4   2    2.88    0.05
   3   4   2   29.06    0.49
   4   4   2   15.62    0.26
  -4   5   2    6.06    0.10
  -3   5   2    0.95    0.03
  -2   5   2  117.47    1.37
  -1   5   2    4.43    0.07
   0   5   2   71.19    0.82
   1   5   2   13.21    0.20
   2   5   2    6.20    0.13
   3   5   2    0.05    0.01
   4   5   2    9.81    0.26
  -3   6   2   28.02    0.48
  -2   6   2    3.83    0.07
  -1   6   2    1.88    0.04
   0   6   2   43.40    0.51
   1   6   2   49.47    0.67
   2   6   2    1.60    0.05
  -6   0   3    0.02    0.01
  -5   0   3    1.51    0.04
  -4   0   3    0.00    0.01
  -3   0   3   70.21    2.55
  -2   0   3   -0.11    0.01
  -1   0   3   85.14    3.07
   0   0   3   -0.07    0.01
   2   0   3   -0.08    0.01
   3   0   3    1.28    0.05
   4   0   3    0.01    0.01
   5   0   3   45.46    1.14
  -6   1   3    0.74    0.02
  -5   1   3  159.26    1.47
  -4   1   3   54.28    0.47
  -3   1   3  135.26    2.10
  -2   1   3   87.73    1.54
  -1   1   3    0.99    0.02
   0   1   3  327.92    4.30
   2   1   3    0.77    0.02
   3   1   3  182.03    2.39
   4   1   3    2.70    0.05
   5   1   3    0.22    0.02
  -6   2   3   50.20    1.20
  -5   2   3    0.83    0.02
  -4   2   3    9.10    0.10
  -3   2   3   30.90    0.41
  -2   2   3  115.79    1.78
  -1   2   3  135.74    1.88
   0   2   3  138.35    2.15
   1   2   3   49.97    0.92
   2   2   3   10.30    0.22
   3   2   3    0.15    0.01
   4   2   3   67.88    0.92
   5   2   3    2.32    0.10
  -5   3   3    0.69    0.03
  -4   3   3    2.90    0.06
  -3   3   3    7.90    0.09
  -2   3   3   42.82    0.58
  -1   3   3    0.00    0.01
   0   3   3   25.74    0.36
   1   3   3   73.55    1.27
   2   3   3   22.60    0.28
   3   3   3    0.07    0.01
   4   3   3   43.38    0.89
  -5   4   3   79.10    1.33
  -4   4   3    0.04    0.01
  -3   4   3    0.61    0.02
  -2   4   3    0.27    0.02
  -1   4   3    4.99    0.09
   0   4   3   17.68    0.20
   1   4   3   23.76    0.26
   2   4   3    2.98    0.04
   3   4   3    2.27    0.06
   4   4   3   16.57    0.36
  -4   5   3    6.61    0.10
  -3   5   3    2.11    0.05
  -2   5   3   19.82    0.25
  -1   5   3   41.60    0.49
   0   5   3   38.66    0.46
   1   5   3  128.73    1.76
   2   5   3    0.64    0.03
   3   5   3   51.13    0.65
  -3   6   3    6.74    0.13
  -2   6   3    9.72    0.13
  -1   6   3    0.02    0.01
   0   6   3   12.14    0.16
   1   6   3   10.75    0.20
   2   6   3   19.39    0.33
  -6   0   4    3.82    0.07
  -5   0   4    0.02    0.01
  -4   0   4    3.73    0.06
  -2   0   4  371.45   11.78
  -1   0   4   -0.02    0.01
   0   0   4    2.81    0.06
   1   0   4    0.00    0.01
   2   0   4  273.73    7.51
   3   0   4    0.02    0.01
   4   0   4  115.74    2.15
   5   0   4    0.01    0.02
  -6   1   4   51.92    0.48
  -5   1   4   61.73    0.58
  -4   1   4   29.40    0.25
  -3   1   4  111.61    1.40
  -2   1   4  103.49    1.83
  -1   1   4    0.38    0.01
   0   1   4   98.65    1.43
   1   1   4  393.90    6.82
   2   1   4   15.30    0.31
   3   1   4   17.67    0.24
   4   1   4    7.27    0.11
   5   1   4   21.18    0.39
  -6   2   4    1.22    0.04
  -5   2   4    7.83    0.09
  -4   2   4  111.57    0.93
  -3   2   4   14.58    0.18
  -2   2   4   99.91    1.61
  -1   2   4   59.65    0.80
   0   2   4    1.83    0.04
   1   2   4   12.24    0.25
   2   2   4  184.38    3.65
   3   2   4   69.22    0.72
   4   2   4   12.25    0.22
   5   2   4    4.57    0.15
  -5   3   4   23.73    0.29
  -4   3   4    0.09    0.01
  -3   3   4    9.57    0.11
  -2   3   4    5.91    0.08
  -1   3   4  282.71    4.76
   0   3   4   20.91    0.30
   1   3   4  158.91    2.58
   2   3   4   30.37    0.37
   3   3   4    9.68    0.13
   4   3   4    0.04    0.02
  -5   4   4   20.21    0.36
  -4   4   4   13.66    0.21
  -3   4   4    0.10    0.01
  -2   4   4   18.40    0.21
  -1   4   4   20.45    0.26
   0   4   4   40.43    0.39
   1   4   4    0.73    0.02
   2   4   4   77.67    0.68
   3   4   4    0.33    0.02
   4   4   4    0.05    0.01
  -4   5   4    2.72    0.05
  -3   5   4    3.43    0.06
  -2   5   4   35.74    0.43
  -1   5   4   12.22    0.16
   0   5   4   56.34    0.65
   1   5   4   69.99    1.14
   2   5   4    0.50    0.03
   3   5   4    1.12    0.04
  -2   6   4   28.76    0.34
  -1   6   4    4.56    0.07
   0   6   4    5.70    0.10
   1   6   4   10.42    0.19
   2   6   4    4.16    0.07
  -6   0   5    0.04    0.01
  -5   0   5    0.45    0.03
  -4   0   5    0.03    0.01
  -3   0   5   10.51    0.22
  -2   0   5   -0.11    0.01
  -1   0   5  431.60   12.77
   1   0   5  532.54   15.90
   2   0   5    0.06    0.02
   3   0   5   12.37    0.25
   4   0   5    0.01    0.01
   5   0   5    5.51    0.18
  -6   1   5    8.62    0.09
  -5   1   5    0.83    0.02
  -4   1   5    2.10    0.03
  -3   1   5   10.86    0.17
  -2   1   5   16.40    0.33
  -1   1   5   70.94    1.34
   0   1   5   50.14    0.76
   1   1   5    0.51    0.02
   2   1   5  483.15   10.99
   3   1   5   33.81    0.33
   4   1   5    4.16    0.07
   5   1   5    3.70    0.09
  -6   2   5   22.62    0.40
  -5   2   5    4.73    0.06
  -4   2   5  169.87    1.33
  -3   2   5    0.87    0.03
  -2   2   5   64.85    1.15
  -1   2   5    1.25    0.03
   0   2   5  120.74    1.68
   2   2   5  589.16   13.54
   3   2   5   10.79    0.13
   4   2   5    1.17    0.04
   5   2   5    3.28    0.12
  -5   3   5   14.64    0.19
  -4   3   5   51.77    0.49
  -3   3   5   15.81    0.16
  -2   3   5   94.85    1.11
  -1   3   5    8.11    0.18
   0   3   5  201.89    3.25
   1   3   5    0.03    0.01
   2   3   5    0.11    0.01
   3   3   5    0.06    0.01
   4   3   5    3.49    0.11
  -5   4   5   11.56    0.21
  -4   4   5   11.40    0.18
  -3   4   5   15.13    0.20
  -2   4   5    8.34    0.10
  -1   4   5   93.77    0.99
   0   4   5   12.94    0.13
   1   4   5  165.40    1.56
   2   4   5  111.01    0.96
   3   4   5    3.92    0.07
   4   4   5   24.84    0.38
  -4   5   5   10.13    0.15
  -3   5   5   29.79    0.36
  -2   5   5   20.70    0.26
  -1   5   5    4.32    0.07
   0   5   5    0.34    0.03
   1   5   5   42.50    0.71
   2   5   5    2.74    0.06
   3   5   5   23.48    0.49
  -2   6   5   33.76    0.39
  -1   6   5   16.92    0.21
   0   6   5   12.67    0.23
   1   6   5    2.41    0.06
   2   6   5    0.35    0.02
  -6   0   6    0.17    0.02
  -5   0   6    0.01    0.01
  -4   0   6   76.16    0.86
  -3   0   6    0.02    0.01
  -2   0   6 1000.00   28.97
  -1   0   6   -0.05    0.01
   0   0   6  108.78    2.61
   1   0   6   -0.24    0.01
   2   0   6    0.25    0.03
   3   0   6    0.00    0.01
   4   0   6   79.86    1.25
   5   0   6    0.01    0.02
  -6   1   6   32.27    0.33
  -5   1   6   29.99    0.27
  -4   1   6    0.14    0.01
  -3   1   6   31.72    0.30
  -2   1   6    3.57    0.09
  -1   1   6   64.55    1.16
   0   1   6   13.37    0.19
   1   1   6    3.10    0.06
   2   1   6   69.01    1.41
   3   1   6   15.14    0.16
   4   1   6   19.32    0.23
   5   1   6    3.87    0.10
  -6   2   6    7.86    0.15
  -5   2   6    1.24    0.02
  -4   2   6   47.49    0.41
  -3   2   6   35.81    0.41
  -2   2   6   16.01    0.27
  -1   2   6  331.33    5.19
   0   2   6  117.09    1.68
   1   2   6   28.08    0.45
   2   2   6   76.77    1.20
   3   2   6    4.08    0.06
   4   2   6    2.33    0.05
   5   2   6    9.48    0.27
  -5   3   6   32.43    0.39
  -4   3   6   47.44    0.45
  -3   3   6   21.88    0.22
  -2   3   6    1.06    0.03
  -1   3   6   10.43    0.16
   0   3   6    0.95    0.03
   1   3   6    1.54    0.06
   2   3   6    0.81    0.02
   3   3   6   30.01    0.38
   4   3   6    4.03    0.12
  -5   4   6    1.86    0.05
  -4   4   6   79.65    0.91
  -3   4   6    0.03    0.01
  -2   4   6   47.89    0.46
  -1   4   6   42.43    0.45
   0   4   6   70.54    0.65
   1   4   6  101.30    0.89
   2   4   6   82.75    1.01
   3   4   6    1.08    0.03
   4   4   6    6.50    0.11
  -4   5   6    0.18    0.01
  -3   5   6    3.55    0.06
  -2   5   6   19.68    0.25
  -1   5   6    3.45    0.06
   0   5   6   40.01    0.67
   1   5   6    0.89    0.03
   2   5   6    2.05    0.04
   3   5   6    0.72    0.03
  -2   6   6   17.64    0.21
  -1   6   6   94.11    1.51
   0   6   6    2.11    0.06
   1   6   6    0.76    0.02
   2   6   6    0.45    0.03
  -6   0   7    0.01    0.01
  -5   0   7  197.09    2.23
  -3   0   7    0.25    0.02
  -2   0   7    0.01    0.01
  -1   0   7   20.68    0.57
   0   0   7   -0.01    0.01
   1   0   7   12.96    0.27
   3   0   7   19.32    0.28
   4   0   7    0.05    0.01
   5   0   7   24.98    0.65
  -6   1   7    0.80    0.02
  -5   1   7    4.99    0.06
  -4   1   7   19.17    0.16
  -3   1   7    5.47    0.07
  -2   1   7   14.05    0.29
  -1   1   7  462.78    8.10
   0   1   7  255.38    3.88
   1   1   7   21.99    0.44
   2   1   7    8.71    0.13
   3   1   7   15.04    0.16
   4   1   7   24.56    0.29
   5   1   7   34.14    0.61
  -5   2   7    0.02    0.01
  -4   2   7   82.37    0.70
  -3   2   7  126.67    1.42
  -2   2   7   10.01    0.18
  -1   2   7   14.68    0.21
   0   2   7   92.47    1.53
   1   2   7    1.52    0.05
   2   2   7  174.17    1.91
   3   2   7   92.82    0.84
   4   2   7    3.78    0.06
  -5   3   7    3.25    0.06
  -4   3   7    4.72    0.06
  -3   3   7   24.16    0.24
  -2   3   7   23.72    0.29
  -1   3   7    8.96    0.17
   0   3   7    9.60    0.12
   1   3   7    1.34    0.03
   2   3   7    6.18    0.09
   3   3   7    2.74    0.06
   4   3   7    0.13    0.02
  -4   4   7  114.15    1.14
  -3   4   7    2.10    0.04
  -2   4   7   28.03    0.33
  -1   4   7    2.33    0.04
   0   4   7   28.04    0.27
   1   4   7    5.77    0.07
   2   4   7   78.67    0.82
   3   4   7    0.49    0.02
   4   4   7    0.14    0.01
  -4   5   7    2.28    0.06
  -3   5   7   33.42    0.39
  -2   5   7    6.93    0.10
  -1   5   7   71.20    0.80
   0   5   7   27.83    0.38
   1   5   7    9.62    0.12
   2   5   7    4.66    0.07
   3   5   7    3.30    0.09
  -2   6   7    0.30    0.02
  -1   6   7    5.62    0.11
   0   6   7    0.07    0.02
   1   6   7    8.35    0.12
  -6   0   8   26.77    0.43
  -5   0   8    0.17    0.02
  -4   0   8  131.65    1.81
  -3   0   8    0.02    0.01
  -2   0   8   16.82    0.48
   0   0   8  131.50    2.10
   1   0   8    0.00    0.01
   2   0   8   16.38    0.32
   3   0   8    0.01    0.01
   4   0   8    4.93    0.11
   5   0   8    0.01    0.02
  -6   1   8   10.43    0.11
  -5   1   8   31.14    0.28
  -4   1   8   68.26    0.54
  -3   1   8  115.52    1.13
  -2   1   8    2.51    0.06
  -1   1   8   70.49    1.17
   0   1   8   16.27    0.27
   1   1   8    2.40    0.07
   2   1   8  152.48    1.49
   3   1   8    2.85    0.05
   4   1   8    2.01    0.04
   5   1   8    7.67    0.12
  -5   2   8   67.54    0.59
  -4   2   8    1.39    0.03
  -3   2   8    0.96    0.02
  -2   2   8    0.40    0.02
  -1   2   8   57.91    0.70
   0   2   8   19.65    0.32
   1   2   8   95.39    1.19
   2   2   8    3.80    0.05
   3   2   8  163.86    1.37
   4   2   8   11.46    0.15
  -5   3   8    0.74    0.03
  -4   3   8   27.46    0.27
  -3   3   8  459.42    4.29
  -2   3   8   28.91    0.31
  -1   3   8    0.02    0.01
   0   3   8    8.28    0.10
   1   3   8   11.81    0.12
   2   3   8   97.66    0.90
   3   3   8  356.86    4.31
   4   3   8    2.19    0.04
  -4   4   8   12.39    0.14
  -3   4   8    2.16    0.04
  -2   4   8    4.70    0.07
  -1   4   8    0.60    0.03
   0   4   8    1.38    0.03
   1   4   8    9.10    0.10
   2   4   8   31.56    0.34
   3   4   8    4.63    0.07
   4   4   8    7.82    0.18
  -3   5   8    2.86    0.05
  -2   5   8    6.23    0.09
  -1   5   8   23.92    0.33
   0   5   8    3.11    0.06
   1   5   8   36.79    0.39
   2   5   8    3.70    0.06
   3   5   8    1.70    0.06
  -2   6   8    3.50    0.10
  -1   6   8    0.75    0.03
   0   6   8    0.94    0.03
  -5   0   9   12.67    0.17
  -4   0   9    0.03    0.01
  -3   0   9   22.46    0.26
  -2   0   9    0.01    0.01
  -1   0   9   64.18    1.76
   0   0   9   -0.14    0.02
   1   0   9    7.60    0.16
   2   0   9    0.07    0.02
   3   0   9   32.69    0.46
   4   0   9    0.04    0.01
   5   0   9   34.71    0.55
  -5   1   9   19.08    0.16
  -4   1   9   28.04    0.23
  -3   1   9    0.51    0.02
  -2   1   9   27.30    0.45
  -1   1   9  104.07    2.26
   0   1   9   76.64    1.52
   1   1   9  160.85    2.12
   2   1   9   10.58    0.10
   3   1   9   35.58    0.38
   4   1   9    0.21    0.02
   5   1   9    0.03    0.01
  -5   2   9    0.07    0.01
  -4   2   9   47.02    0.41
  -3   2   9   40.19    0.35
  -2   2   9    0.20    0.02
  -1   2   9   65.92    0.98
   0   2   9    0.07    0.01
   1   2   9   42.81    0.38
   2   2   9    1.39    0.03
   3   2   9   31.79    0.33
   4   2   9   54.39    0.60
  -5   3   9    8.90    0.12
  -4   3   9   18.83    0.19
  -3   3   9   17.38    0.18
  -2   3   9   59.70    0.61
  -1   3   9   69.04    0.82
   0   3   9  174.56    1.76
   1   3   9    5.83    0.08
   2   3   9   43.42    0.47
   3   3   9    0.86    0.03
   4   3   9   21.12    0.26
  -4   4   9    0.03    0.01
  -3   4   9    0.11    0.01
  -2   4   9   61.24    0.69
  -1   4   9   12.63    0.19
   0   4   9    1.07    0.03
   1   4   9   18.96    0.22
   2   4   9    9.81    0.12
   3   4   9    0.07    0.01
  -3   5   9    4.00    0.06
  -2   5   9    8.51    0.11
  -1   5   9   42.21    0.55
   0   5   9    1.09    0.04
   1   5   9    2.05    0.04
   2   5   9   20.15    0.25
  -1   6   9    3.22    0.10
  -5   0  10    0.00    0.01
  -4   0  10   94.77    0.95
  -3   0  10    0.02    0.01
  -2   0  10   17.62    0.31
  -1   0  10    0.00    0.01
   0   0  10  307.61    4.51
   1   0  10    0.01    0.01
   2   0  10   16.12    0.21
   3   0  10    0.10    0.03
   4   0  10    0.60    0.03
  -5   1  10   11.94    0.11
  -4   1  10    5.67    0.06
  -3   1  10    0.37    0.01
  -2   1  10   10.26    0.13
  -1   1  10   47.58    0.70
   0   1  10    1.48    0.03
   1   1  10   51.47    0.50
   2   1  10   11.52    0.11
   3   1  10   23.90    0.28
   4   1  10    2.21    0.05
  -5   2  10    7.95    0.09
  -4   2  10    3.07    0.04
  -3   2  10   28.71    0.26
  -2   2  10   48.16    0.48
  -1   2  10   11.53    0.17
   0   2  10   21.98    0.27
   1   2  10   97.79    0.75
   2   2  10    0.30    0.01
   3   2  10   22.59    0.24
   4   2  10   59.81    0.58
  -5   3  10    0.05    0.01
  -4   3  10    0.16    0.02
  -3   3  10  127.15    1.28
  -2   3  10   45.85    0.47
  -1   3  10   15.73    0.20
   0   3  10   13.67    0.17
   1   3  10   10.11    0.12
   2   3  10    2.23    0.04
   3   3  10   85.40    0.89
   4   3  10   21.39    0.26
  -4   4  10    1.52    0.03
  -3   4  10   14.12    0.18
  -2   4  10   31.32    0.36
  -1   4  10    0.34    0.03
   0   4  10  122.70    1.31
   1   4  10    1.25    0.03
   2   4  10    7.46    0.10
   3   4  10    1.04    0.03
  -3   5  10    1.00    0.03
  -2   5  10   14.43    0.20
  -1   5  10    1.62    0.04
   0   5  10    0.12    0.02
   1   5  10    0.61    0.03
   2   5  10    3.75    0.06
  -5   0  11    3.95    0.06
  -4   0  11    0.01    0.01
  -3   0  11  205.97    2.04
  -2   0  11    0.05    0.01
  -1   0  11   32.19    0.81
   0   0  11    0.01    0.01
   1   0  11    8.47    0.12
   2   0  11    0.02    0.01
   3   0  11   15.10    0.27
  -5   1  11    2.29    0.03
  -4   1  11  102.81    0.80
  -3   1  11   45.43    0.38
  -2   1  11    0.07    0.02
  -1   1  11   11.93    0.18
   0   1  11  100.58    1.07
   1   1  11   60.58    0.45
   2   1  11   11.04    0.10
   3   1  11   10.45    0.14
   4   1  11    0.22    0.02
  -5   2  11    5.72    0.06
  -4   2  11    2.81    0.04
  -3   2  11    0.34    0.02
  -2   2  11  340.04    3.34
  -1   2  11    0.13    0.01
   0   2  11  128.55    1.30
   1   2  11    1.07    0.02
   2   2  11   38.94    0.39
   3   2  11    0.68    0.02
   4   2  11   13.15    0.15
  -5   3  11    0.12    0.02
  -4   3  11   59.27    0.56
  -3   3  11    7.89    0.09
  -2   3  11  110.09    1.07
  -1   3  11    7.87    0.11
   0   3  11    0.66    0.02
   2   3  11    4.50    0.07
   3   3  11   38.31    0.41
   4   3  11   85.80    1.70
  -4   4  11    0.90    0.02
  -3   4  11   38.34    0.43
  -2   4  11   57.43    0.74
  -1   4  11    9.72    0.18
   0   4  11   39.49    0.43
   1   4  11   30.48    0.30
   2   4  11    3.50    0.05
   3   4  11    2.14    0.04
  -3   5  11   19.36    0.48
  -2   5  11    0.13    0.01
  -1   5  11    0.07    0.02
   0   5  11    0.14    0.02
   1   5  11   19.24    0.42
  -5   0  12    0.01    0.01
  -4   0  12    9.59    0.13
  -3   0  12    0.03    0.01
  -2   0  12   45.95    0.51
  -1   0  12    0.02    0.01
   0   0  12   11.11    0.21
   1   0  12    0.01    0.01
   2   0  12  174.93    2.04
   3   0  12    0.02    0.01
   4   0  12   21.68    0.36
  -5   1  12    0.33    0.01
  -4   1  12    2.68    0.04
  -3   1  12   54.98    0.49
  -2   1  12    4.18    0.05
  -1   1  12   48.27    0.50
   0   1  12    5.07    0.08
   1   1  12   21.81    0.18
   2   1  12    5.15    0.06
   3   1  12    2.56    0.05
   4   1  12    5.18    0.07
  -5   2  12   19.36    0.18
  -4   2  12   17.93    0.18
  -3   2  12   78.03    0.71
  -2   2  12   95.79    1.04
  -1   2  12    0.30    0.02
   0   2  12    6.16    0.08
   1   2  12   73.25    0.61
   2   2  12    0.03    0.01
   3   2  12   26.24    0.25
   4   2  12   37.53    0.54
  -4   3  12   11.30    0.12
  -3   3  12    3.30    0.05
  -2   3  12    2.03    0.04
  -1   3  12    1.85    0.04
   0   3  12    7.60    0.11
   1   3  12   19.11    0.18
   2   3  12    2.45    0.05
   3   3  12    2.78    0.05
  -4   4  12    4.16    0.12
  -3   4  12   44.10    0.49
  -2   4  12   44.70    0.69
  -1   4  12  125.66    1.91
   0   4  12   31.38    0.40
   1   4  12   15.75    0.19
   2   4  12    0.86    0.02
  -2   5  12   23.19    0.53
  -1   5  12   12.41    0.21
   0   5  12    4.57    0.09
  -5   0  13   76.43    0.96
  -4   0  13    0.02    0.01
  -3   0  13  165.80    2.11
  -2   0  13    0.02    0.01
  -1   0  13    2.28    0.07
   0   0  13    0.02    0.01
   1   0  13    9.46    0.13
   2   0  13    0.01    0.01
   3   0  13   28.36    0.46
   4   0  13    0.18    0.02
  -5   1  13    6.08    0.06
  -4   1  13   25.32    0.21
  -3   1  13    4.10    0.05
  -2   1  13  133.83    1.17
  -1   1  13  173.78    2.05
   0   1  13    5.83    0.09
   1   1  13   10.72    0.12
   2   1  13    2.64    0.04
   3   1  13    0.25    0.02
   4   1  13    8.91    0.14
  -5   2  13    3.25    0.07
  -4   2  13    1.45    0.03
  -3   2  13    0.86    0.02
  -2   2  13   27.39    0.32
  -1   2  13   12.40    0.19
   0   2  13    4.80    0.08
   1   2  13    7.79    0.10
   2   2  13    6.01    0.08
   3   2  13    0.14    0.01
  -4   3  13   15.00    0.16
  -3   3  13    5.95    0.08
  -2   3  13   14.69    0.18
  -1   3  13    0.90    0.03
   0   3  13    0.22    0.02
   1   3  13   29.58    0.30
   2   3  13    3.75    0.06
   3   3  13   14.46    0.16
  -3   4  13    1.49    0.03
  -2   4  13    0.11    0.02
  -1   4  13   36.09    0.56
   0   4  13    0.41    0.02
   1   4  13    0.61    0.02
   2   4  13    4.38    0.06
  -1   5  13   62.63    1.38
   0   5  13    6.33    0.17
  -5   0  14    0.10    0.02
  -4   0  14    0.58    0.03
  -3   0  14    0.02    0.01
  -2   0  14   33.99    0.55
  -1   0  14    0.12    0.03
   0   0  14   18.66    0.34
   1   0  14    0.00    0.01
   2   0  14   22.13    0.27
   3   0  14    0.04    0.01
  -5   1  14    8.53    0.20
  -4   1  14    3.89    0.06
  -3   1  14   25.02    0.24
  -2   1  14   10.18    0.12
  -1   1  14   70.41    0.94
   0   1  14    7.17    0.11
   1   1  14    3.20    0.06
   2   1  14   13.95    0.13
   3   1  14   26.72    0.26
  -4   2  14    1.85    0.03
  -3   2  14   46.55    0.46
  -2   2  14    0.23    0.01
  -1   2  14   41.61    0.42
   0   2  14    0.51    0.02
   1   2  14   25.14    0.26
   2   2  14    4.30    0.06
   3   2  14   12.65    0.15
  -4   3  14    5.75    0.16
  -3   3  14    9.21    0.12
  -2   3  14   11.30    0.13
  -1   3  14    1.40    0.04
   0   3  14   13.16    0.17
   1   3  14  135.68    1.31
   2   3  14   13.55    0.16
  -3   4  14    3.52    0.11
  -2   4  14   11.93    0.17
  -1   4  14   10.15    0.18
   0   4  14    6.71    0.11
   1   4  14    0.15    0.01
   2   4  14   22.58    0.52
  -4   0  15    0.01    0.01
  -3   0  15    0.24    0.02
  -2   0  15    0.00    0.01
  -1   0  15    2.74    0.06
   0   0  15    0.00    0.01
   1   0  15   52.51    0.88
   2   0  15    0.01    0.01
   3   0  15   11.16    0.20
  -4   1  15    5.00    0.06
  -3   1  15    3.27    0.05
  -2   1  15    0.06    0.01
  -1   1  15  109.25    1.09
   0   1  15   16.49    0.22
   1   1  15    4.23    0.06
   2   1  15   12.01    0.12
   3   1  15   18.18    0.24
  -4   2  15   17.70    0.21
  -3   2  15   18.60    0.22
  -2   2  15   19.45    0.23
  -1   2  15   45.53    0.46
   0   2  15    6.35    0.09
   1   2  15    0.20    0.01
   2   2  15   40.36    0.44
   3   2  15    0.04    0.01
  -3   3  15    3.80    0.06
  -2   3  15   74.55    0.73
  -1   3  15   13.78    0.17
   0   3  15    9.52    0.13
   1   3  15    0.52    0.02
   2   3  15   23.93    0.37
  -2   4  15    5.88    0.11
  -1   4  15   13.58    0.23
   0   4  15   15.01    0.20
   1   4  15    0.15    0.02
  -4   0  16   11.43    0.19
  -3   0  16    0.09    0.02
  -2   0  16   79.95    1.24
   0   0  16  263.44    4.36
   1   0  16    0.02    0.01
   2   0  16    0.33    0.02
   3   0  16    0.04    0.01
  -4   1  16   22.43    0.29
  -3   1  16    2.15    0.04
  -2   1  16  109.47    1.79
  -1   1  16   26.30    0.31
   0   1  16   79.21    0.93
   1   1  16    0.13    0.01
   2   1  16    5.64    0.07
  -4   2  16    3.62    0.10
  -3   2  16   13.40    0.16
  -2   2  16   15.09    0.18
  -1   2  16  104.79    1.02
   0   2  16    6.21    0.11
   1   2  16    3.60    0.06
   2   2  16   26.80    0.36
  -3   3  16    2.00    0.06
  -2   3  16    0.66    0.02
  -1   3  16    0.10    0.01
   0   3  16    0.56    0.02
   1   3  16    0.22    0.01
  -1   4  16    8.46    0.21
   0   4  16    2.72    0.09
  -4   0  17    0.02    0.01
  -3   0  17   18.55    0.31
  -2   0  17    0.09    0.02
  -1   0  17    5.89    0.10
   0   0  17    0.04    0.01
   1   0  17   12.12    0.23
   2   0  17    0.02    0.01
  -3   1  17    0.49    0.03
  -2   1  17    0.26    0.02
  -1   1  17   10.68    0.14
   0   1  17   18.78    0.27
   1   1  17   18.55    0.23
   2   1  17    1.42    0.03
  -3   2  17   10.21    0.18
  -2   2  17   15.11    0.21
  -1   2  17   21.55    0.29
   0   2  17   13.14    0.20
   1   2  17    1.32    0.04
   2   2  17   10.56    0.26
  -2   3  17    0.50    0.02
  -1   3  17    3.13    0.05
   0   3  17    8.55    0.12
   1   3  17    4.59    0.09
  -3   0  18    0.00    0.01
  -2   0  18    9.91    0.18
  -1   0  18    0.00    0.01
   0   0  18  155.67    1.96
   1   0  18    0.07    0.01
  -3   1  18   45.76    0.93
  -2   1  18    0.10    0.02
  -1   1  18   13.95    0.17
   0   1  18    0.27    0.02
   1   1  18   13.94    0.20
  -2   2  18    0.23    0.02
  -1   2  18    0.11    0.01
   0   2  18    4.35    0.07
   1   2  18    1.55    0.04
  -1   3  18   15.74    0.25
  -2   0  19    0.10    0.02
  -1   0  19   22.62    0.30
   0   0  19    0.02    0.01
   1   0  19  147.86    2.17
  -2   1  19    0.50    0.03
  -1   1  19   39.11    0.44
   0   1  19    6.99    0.10
   1   1  19   11.16    0.15
  -1   2  19   35.88    0.54
   0   2  19    5.84    0.10
   0   0   0    0.00    0.00
;
_shelx_hkl_checksum              49628
loop_
_space_group_symop_operation_xyz
'x, y, z'
'-x+1/2, y+1/2, -z+1/2'
'-x, -y, -z'
'x-1/2, -y-1/2, z-1/2'
loop_
_atom_site_label
_atom_site_type_symbol
_atom_site_fract_x
_atom_site_fract_y
_atom_site_fract_z
_atom_site_U_iso_or_equiv
_atom_site_adp_type
_atom_site_occupancy
_atom_site_site_symmetry_order
_atom_site_calc_flag
_atom_site_refinement_flags_posn
_atom_site_refinement_flags_adp
F1 F 0.18871(15) 0.13223(14) 0.49852(5) 0.0196(3) Uani 1 1 d . .
F2 F 0.48904(15) 0.15504(14) 0.39068(5) 0.0190(3) Uani 1 1 d . .
N1 N -0.1265(2) 0.3549(2) 0.69316(7) 0.0167(3) Uani 1 1 d . .
H1N H -0.235(4) 0.268(4) 0.7171(11) 0.031(5) Uiso 1 1 d . .
N2 N -0.0562(2) 0.5680(2) 0.72237(7) 0.0176(3) Uani 1 1 d . .
C1 C -0.0020(3) 0.2914(3) 0.63320(8) 0.0164(3) Uani 1 1 d . .
H1 H -0.0213 0.1492 0.6044 0.020 Uiso 1 1 calc R U
C2 C 0.1605(2) 0.4715(2) 0.62082(8) 0.0139(3) Uani 1 1 d . .
C3 C 0.1170(3) 0.6389(3) 0.67873(8) 0.0161(3) Uani 1 1 d . .
H3 H 0.2012 0.7842 0.6856 0.019 Uiso 1 1 calc R U
C4 C 0.3321(2) 0.4862(2) 0.56050(8) 0.0135(3) Uani 1 1 d . .
C5 C 0.3427(3) 0.3178(2) 0.50160(8) 0.0143(3) Uani 1 1 d . .
C6 C 0.5014(3) 0.3307(2) 0.44415(8) 0.0141(3) Uani 1 1 d . .
loop_
_atom_site_aniso_label
_atom_site_aniso_U_11
_atom_site_aniso_U_22
_atom_site_aniso_U_33
_atom_site_aniso_U_23
_atom_site_aniso_U_13
_atom_site_aniso_U_12
F1 0.0224(5) 0.0172(5) 0.0211(5) -0.0045(3) 0.0097(3) -0.0093(3)
F2 0.0238(5) 0.0172(5) 0.0175(4) -0.0068(3) 0.0086(3) -0.0048(3)
N1 0.0165(6) 0.0183(7) 0.0167(6) 0.0021(5) 0.0071(5) -0.0014(5)
N2 0.0188(6) 0.0183(6) 0.0169(6) 0.0003(5) 0.0067(5) 0.0018(5)
C1 0.0174(7) 0.0180(7) 0.0145(7) 0.0002(6) 0.0051(5) -0.0002(6)
C2 0.0135(7) 0.0164(7) 0.0121(6) 0.0019(5) 0.0025(5) 0.0014(5)
C3 0.0170(7) 0.0167(7) 0.0154(7) 0.0006(6) 0.0050(5) 0.0002(6)
C4 0.0134(7) 0.0152(7) 0.0123(6) 0.0018(5) 0.0024(5) 0.0012(5)
C5 0.0138(7) 0.0133(7) 0.0158(7) 0.0009(5) 0.0025(5) -0.0031(5)
C6 0.0166(7) 0.0138(7) 0.0121(6) -0.0029(5) 0.0026(5) -0.0001(5)
loop_
_atom_type_symbol
_atom_type_description
_atom_type_scat_dispersion_real
_atom_type_scat_dispersion_imag
_atom_type_scat_source
C C 0.0181 0.0091 'International Tables Vol C Tables 4.2.6.8 and 6.1.1.4'
H H 0.0000 0.0000 'International Tables Vol C Tables 4.2.6.8 and 6.1.1.4'
N N 0.0311 0.0180 'International Tables Vol C Tables 4.2.6.8 and 6.1.1.4'
F F 0.0727 0.0534 'International Tables Vol C Tables 4.2.6.8 and 6.1.1.4'
loop_
_geom_angle_atom_site_label_1
_geom_angle_atom_site_label_2
_geom_angle_atom_site_label_3
_geom_angle
_geom_angle_site_symmetry_1
_geom_angle_site_symmetry_3
C1 N1 N2 112.23(12) . .
C3 N2 N1 104.94(11) . .
N1 C1 C2 107.46(13) . .
C1 C2 C3 103.69(12) . .
C1 C2 C4 127.97(13) . .
C3 C2 C4 128.33(13) . .
N2 C3 C2 111.68(13) . .
C6 C4 C5 113.33(13) 3_666 .
C6 C4 C2 123.58(13) 3_666 .
C5 C4 C2 123.09(13) . .
F1 C5 C6 116.84(12) . .
F1 C5 C4 119.52(12) . .
C6 C5 C4 123.63(13) . .
F2 C6 C5 116.83(12) . .
F2 C6 C4 120.14(12) . 3_666
C5 C6 C4 123.03(13) . 3_666
loop_
_geom_bond_atom_site_label_1
_geom_bond_atom_site_label_2
_geom_bond_distance
_geom_bond_site_symmetry_2
F1 C5 1.3477(16) .
F2 C6 1.3506(16) .
N1 C1 1.3385(18) .
N1 N2 1.3554(18) .
N2 C3 1.3278(19) .
C1 C2 1.390(2) .
C2 C3 1.414(2) .
C2 C4 1.4668(18) .
C4 C6 1.392(2) 3_666
C4 C5 1.395(2) .
C5 C6 1.379(2) .
C6 C4 1.392(2) 3_666
loop_
_geom_torsion_atom_site_label_1
_geom_torsion_atom_site_label_2
_geom_torsion_atom_site_label_3
_geom_torsion_atom_site_label_4
_geom_torsion
_geom_torsion_site_symmetry_1
_geom_torsion_site_symmetry_4
C1 N1 N2 C3 0.25(16) . .
N2 N1 C1 C2 -0.31(16) . .
N1 C1 C2 C3 0.23(15) . .
N1 C1 C2 C4 -178.44(13) . .
N1 N2 C3 C2 -0.09(16) . .
C1 C2 C3 N2 -0.09(16) . .
C4 C2 C3 N2 178.58(13) . .
C1 C2 C4 C6 -176.17(14) . 3_666
C3 C2 C4 C6 5.5(2) . 3_666
C1 C2 C4 C5 4.3(2) . .
C3 C2 C4 C5 -174.04(13) . .
C6 C4 C5 F1 -179.10(12) 3_666 .
C2 C4 C5 F1 0.5(2) . .
C6 C4 C5 C6 -0.2(2) 3_666 .
C2 C4 C5 C6 179.39(13) . .
F1 C5 C6 F2 -0.56(19) . .
C4 C5 C6 F2 -179.52(12) . .
F1 C5 C6 C4 179.15(12) . 3_666
C4 C5 C6 C4 0.2(2) . 3_666
