#------------------------------------------------------------------------------
#$Date: 2019-11-25 23:49:19 +0200 (Mon, 25 Nov 2019) $
#$Revision: 242093 $
#$URL: file:///home/coder/svn-repositories/cod/cif/4/13/20/4132051.cif $
#------------------------------------------------------------------------------
#
# This file is available in the Crystallography Open Database (COD),
# http://www.crystallography.net/
#
# All data on this site have been placed in the public domain by the
# contributors.
#
data_4132051
loop_
_publ_author_name
'Spanopoulos, Ioannis'
'Ke, Weijun'
'Stoumpos, Constantinos C.'
'Schueller, Emily C.'
'Kontsevoi, Oleg Y.'
'Seshadri, Ram'
'Kanatzidis, Mercouri G.'
_publ_section_title
;
 Unraveling the Chemical Nature of the 3D &quot;Hollow&quot; Hybrid Halide
 Perovskites.
;
_journal_issue                   17
_journal_name_full               'Journal of the American Chemical Society'
_journal_page_first              5728
_journal_page_last               5742
_journal_paper_doi               10.1021/jacs.8b01034
_journal_volume                  140
_journal_year                    2018
_chemical_formula_moiety
(H2NCHNH2)0.73(H3NCH2CH2NH3)0.27(Pb)0.811(I)2.892
_chemical_formula_sum            'C H5 I3 N2 Pb0.96'
_chemical_formula_weight         624.7
_chemical_name_common
'27% ethylenediamonium formamidinium lead iodide'
_space_group_IT_number           38
_space_group_name_Hall           'A 2 -2'
_space_group_name_H-M_alt        'A m m 2'
_symmetry_cell_setting           orthorhombic
_symmetry_Int_Tables_number      38
_symmetry_space_group_name_Hall  'A 2 -2'
_symmetry_space_group_name_H-M   'A m m 2'
_cell_angle_alpha                90
_cell_angle_beta                 90
_cell_angle_gamma                90
_cell_formula_units_Z            2
_cell_length_a                   6.3652(19)
_cell_length_b                   9.002(2)
_cell_length_c                   9.0065(13)
_cell_measurement_reflns_used    2658
_cell_measurement_temperature    293
_cell_measurement_theta_max      29.52
_cell_measurement_theta_min      3.11
_cell_volume                     516.1(2)
_diffrn_ambient_temperature      293
_diffrn_detector                 'image plate (34 cm diameter)'
_diffrn_detector_area_resol_mean 6.67
_diffrn_measured_fraction_theta_full 0.98
_diffrn_measured_fraction_theta_max 0.98
_diffrn_measurement_device       'four-circle diffractometer'
_diffrn_measurement_device_type  'STOE IPDS 2T'
_diffrn_measurement_method       'rotation method'
_diffrn_radiation_monochromator  graphite
_diffrn_radiation_probe          x-ray
_diffrn_radiation_source         'X-ray tube'
_diffrn_radiation_type           'Mo K\a'
_diffrn_radiation_wavelength     0.71073
_diffrn_reflns_av_R_equivalents  0.1234
_diffrn_reflns_av_unetI/netI     0.1005
_diffrn_reflns_limit_h_max       8
_diffrn_reflns_limit_h_min       -8
_diffrn_reflns_limit_k_max       11
_diffrn_reflns_limit_k_min       -12
_diffrn_reflns_limit_l_max       12
_diffrn_reflns_limit_l_min       -12
_diffrn_reflns_number            2524
_diffrn_reflns_theta_full        29.33
_diffrn_reflns_theta_max         29.33
_diffrn_reflns_theta_min         3.2
_diffrn_source
'sealed X-ray tube, 12 x 0.4 mm long-fine focus'
_diffrn_source_current           40
_diffrn_source_power             1.20
_diffrn_source_voltage           50
_exptl_absorpt_coefficient_mu    24.598
_exptl_absorpt_correction_T_max  0.5699
_exptl_absorpt_correction_T_min  0.0829
_exptl_absorpt_correction_type   integration
_exptl_crystal_colour            black
_exptl_crystal_density_diffrn    4.0202
_exptl_crystal_description       'Black octahedron'
_exptl_crystal_F_000             525
_exptl_crystal_size_max          0.6632
_exptl_crystal_size_mid          0.0482
_exptl_crystal_size_min          0.0330
_refine_diff_density_max         1.49
_refine_diff_density_min         -2.21
_refine_ls_abs_structure_details
'  432 of Friedel pairs used in the refinement'
_refine_ls_abs_structure_Flack   0.26(7)
_refine_ls_extinction_method     none
_refine_ls_goodness_of_fit_gt    3.90
_refine_ls_goodness_of_fit_ref   3.02
_refine_ls_hydrogen_treatment    constr
_refine_ls_number_constraints    10
_refine_ls_number_parameters     22
_refine_ls_number_reflns         1402
_refine_ls_number_restraints     2
_refine_ls_R_factor_all          0.1161
_refine_ls_R_factor_gt           0.0801
_refine_ls_shift/su_max          0.0406
_refine_ls_shift/su_mean         0.0079
_refine_ls_structure_factor_coef Fsqd
_refine_ls_weighting_details     w=1/(\s^2^(I)+0.0004I^2^)
_refine_ls_weighting_scheme      sigma
_refine_ls_wR_factor_gt          0.2226
_refine_ls_wR_factor_ref         0.2264
_reflns_number_gt                820
_reflns_number_total             1402
_reflns_threshold_expression     I>2\s(I)
_cod_data_source_file            ja8b01034_si_007.cif
_cod_data_source_block           27%_EN_FAPbI3
_cod_depositor_comments
;
The following automatic conversions were performed:

data item '_diffrn_radiation_probe' value 'X-ray' was changed to
'x-ray' in accordance with the
/home/saulius/struct/COD-crude-data/automatic-downloads/DataCite-retrospective/ACS/depositions/lib/dictionaries/cif_core.dic
dictionary named 'cif_core.dic' version 2.4.2 last updated on
2011-04-26.

Automatic conversion script
Id: cif_fix_values 6909 2019-04-08 15:41:33Z antanas 
;
_cod_original_cell_volume        516.0(2)
_cod_original_sg_symbol_Hall     'A -2x;-2y;2z'
_cod_original_formula_sum        'C1 H5 I3 N2 Pb0.96'
_cod_database_code               4132051
loop_
_space_group_symop_id
_space_group_symop_operation_xyz
1 x,y,z
2 -x,-y,z
3 x,-y,z
4 -x,y,z
5 x,y+1/2,z+1/2
6 -x,-y+1/2,z+1/2
7 x,-y+1/2,z+1/2
8 -x,y+1/2,z+1/2
loop_
_atom_site_label
_atom_site_type_symbol
_atom_site_fract_x
_atom_site_fract_y
_atom_site_fract_z
_atom_site_adp_type
_atom_site_U_iso_or_equiv
_atom_site_site_symmetry_multiplicity
_atom_site_occupancy
_atom_site_calc_flag
Pb1 Pb 0 0 -0.0045(5) Uani 0.033(4) 2 0.960(17) d
I1 I 0.5 0 -0.0330(12) Uani 0.049(7) 2 1 d
I2 I 0 0.7465(18) 0.2450(13) Uani 0.083(4) 4 1 d
C1 C 0.5 0.5 0.085(12) Uiso 0.16(4) 2 1 d
N1 N 0.5 0.63090(10) 0.024(12) Uiso 0.16(4) 4 1 d
H1c1 H 0.5 0.5 0.191324 Uiso 0.197 2 1 d
H1n1 H 0.5 0.639319 -0.072499 Uiso 0.197 4 1 d
H2n1 H 0.5 0.710066 0.079137 Uiso 0.197 4 1 d
loop_
_atom_site_aniso_label
_atom_site_aniso_type_symbol
_atom_site_aniso_U_11
_atom_site_aniso_U_22
_atom_site_aniso_U_33
_atom_site_aniso_U_12
_atom_site_aniso_U_13
_atom_site_aniso_U_23
Pb1 Pb 0.0296(19) 0.041(8) 0.029(7) 0 0 0
I1 I 0.022(3) 0.079(15) 0.047(13) 0 0 0
I2 I 0.118(4) 0.076(9) 0.055(8) 0 0 0.053(2)
loop_
_atom_type_symbol
_atom_type_scat_dispersion_real
_atom_type_scat_dispersion_imag
_atom_type_scat_source
C 0.0033 0.0016 'International Tables Vol C tables 4.2.6.8 and 6.1.1.1'
H 0.0000 0.0000 'International Tables Vol C tables 4.2.6.8 and 6.1.1.1'
I -0.4742 1.8119 'International Tables Vol C tables 4.2.6.8 and 6.1.1.1'
N 0.0061 0.0033 'International Tables Vol C tables 4.2.6.8 and 6.1.1.1'
Pb -3.3944 10.1111 'International Tables Vol C tables 4.2.6.8 and 6.1.1.1'
loop_
_exptl_crystal_face_index_h
_exptl_crystal_face_index_k
_exptl_crystal_face_index_l
_exptl_crystal_face_perp_dist
12 11 30 0.0482
-10 -11 -30 0.0451
-4 30 7 0.0330
5 -30 -5 0.0362
30 3 1 0.6632
-30 -1 -1 0.6416
loop_
_geom_angle_atom_site_label_1
_geom_angle_atom_site_label_2
_geom_angle_atom_site_label_3
_geom_angle_site_symmetry_1
_geom_angle_site_symmetry_3
_geom_angle
I1 Pb1 I1 1_455 . 170.8(3)
I1 Pb1 I2 1_455 1_545 93.24(14)
I1 Pb1 I2 1_455 5_544 86.71(15)
I1 Pb1 I2 1_455 2_565 93.24(14)
I1 Pb1 I2 1_455 6_554 86.71(15)
I1 Pb1 I2 . 1_545 93.24(14)
I1 Pb1 I2 . 5_544 86.71(15)
I1 Pb1 I2 . 2_565 93.24(14)
I1 Pb1 I2 . 6_554 86.71(15)
I2 Pb1 I2 1_545 5_544 179.1(4)
I2 Pb1 I2 1_545 2_565 90.9(4)
I2 Pb1 I2 1_545 6_554 90.0(4)
I2 Pb1 I2 5_544 2_565 90.0(4)
I2 Pb1 I2 5_544 6_554 89.0(4)
I2 Pb1 I2 2_565 6_554 179.1(4)
Pb1 I1 Pb1 . 1_655 170.8(4)
Pb1 I1 N1 . 1_545 89.30(15)
Pb1 I1 N1 . 5_544 94.4(2)
Pb1 I1 N1 . 2_665 89.30(15)
Pb1 I1 N1 . 6_654 94.4(2)
Pb1 I1 N1 1_655 1_545 89.30(15)
Pb1 I1 N1 1_655 5_544 94.4(2)
Pb1 I1 N1 1_655 2_665 89.30(15)
Pb1 I1 N1 1_655 6_654 94.4(2)
N1 I1 N1 1_545 5_544 115.2(18)
N1 I1 N1 1_545 2_665 163(3)
N1 I1 N1 1_545 6_654 82.3(18)
N1 I1 N1 5_544 2_665 82.3(18)
N1 I1 N1 5_544 6_654 32.9(6)
N1 I1 N1 2_665 6_654 115.2(18)
Pb1 I2 Pb1 1_565 5_555 179.1(5)
Pb1 I2 N1 1_565 1_455 80.3(10)
Pb1 I2 N1 1_565 . 80.3(10)
Pb1 I2 N1 1_565 6_565 103.4(9)
Pb1 I2 N1 1_565 6_665 103.4(9)
Pb1 I2 N1 5_555 1_455 100.2(10)
Pb1 I2 N1 5_555 . 100.2(10)
Pb1 I2 N1 5_555 6_565 76.0(9)
Pb1 I2 N1 5_555 6_665 76.0(9)
N1 I2 N1 1_455 . 109.5(16)
N1 I2 N1 1_455 6_565 75.9(15)
N1 I2 N1 1_455 6_665 174.0(18)
N1 I2 N1 . 6_565 174.0(18)
N1 I2 N1 . 6_665 75.9(15)
N1 I2 N1 6_565 6_665 98.5(14)
N1 C1 N1 . 2_665 130(10)
N1 C1 H1c1 . . 115
N1 C1 H1c1 2_665 . 115
I1 N1 I1 1_565 5_555 115(2)
I1 N1 I2 1_565 . 79.3(6)
I1 N1 I2 1_565 1_655 79.3(6)
I1 N1 I2 1_565 6_564 69.5(10)
I1 N1 I2 1_565 6_664 69.5(10)
I1 N1 C1 1_565 . 164(7)
I1 N1 H1n1 1_565 . 76.25
I1 N1 H2n1 1_565 . 43.75
I1 N1 I2 5_555 . 65.5(15)
I1 N1 I2 5_555 1_655 65.5(15)
I1 N1 I2 5_555 6_564 130.4(11)
I1 N1 I2 5_555 6_664 130.4(11)
I1 N1 C1 5_555 . 49(6)
I1 N1 H1n1 5_555 . 168.56
I1 N1 H2n1 5_555 . 71.45
I2 N1 I2 . 1_655 110(2)
I2 N1 I2 . 6_564 67.5(3)
I2 N1 I2 . 6_664 148.7(6)
I2 N1 C1 . . 91(4)
I2 N1 H1n1 . . 119.09
I2 N1 H2n1 . . 59.2
I2 N1 I2 1_655 6_564 148.7(6)
I2 N1 I2 1_655 6_664 67.5(3)
I2 N1 C1 1_655 . 91(4)
I2 N1 H1n1 1_655 . 119.09
I2 N1 H2n1 1_655 . 59.2
I2 N1 I2 6_564 6_664 98(2)
I2 N1 C1 6_564 . 119(3)
I2 N1 H1n1 6_564 . 51.82
I2 N1 H2n1 6_564 . 97.32
I2 N1 C1 6_664 . 119(3)
I2 N1 H1n1 6_664 . 51.82
I2 N1 H2n1 6_664 . 97.32
C1 N1 H1n1 . . 120
C1 N1 H2n1 . . 120
H1n1 N1 H2n1 . . 120
loop_
_geom_bond_atom_site_label_1
_geom_bond_atom_site_label_2
_geom_bond_site_symmetry_2
_geom_bond_distance
Pb1 I1 1_455 3.193(2)
Pb1 I1 . 3.193(2)
Pb1 I2 1_545 3.203(14)
Pb1 I2 5_544 3.164(14)
Pb1 I2 2_565 3.203(14)
Pb1 I2 6_554 3.164(14)
I1 N1 1_545 3.362(16)
I1 N1 5_544 4.16(10)
I1 N1 2_665 3.362(16)
I1 N1 6_654 4.16(10)
I2 N1 1_455 3.90(5)
I2 N1 . 3.90(5)
I2 N1 6_565 4.20(6)
I2 N1 6_665 4.20(6)
C1 N1 . 1.30(6)
C1 N1 2_665 1.30(6)
C1 H1c1 . 0.96
N1 H1n1 . 0.87
N1 H2n1 . 0.87
loop_
_geom_hbond_atom_site_label_D
_geom_hbond_atom_site_label_H
_geom_hbond_atom_site_label_A
_geom_hbond_site_symmetry_A
_geom_hbond_distance_DH
_geom_hbond_distance_HA
_geom_hbond_distance_DA
_geom_hbond_angle_DHA
C1 H1c1 I1 5_555 0.96 2.48 3.44(11) **
loop_
_refln_index_h
_refln_index_k
_refln_index_l
_refln_F_squared_calc
_refln_F_squared_meas
_refln_F_squared_sigma
_refln_observed_status
1 0 0 37002.00 36060.90 712.21 o
2 0 0 145335.00 124137.00 846.98 o
3 0 0 13892.90 21211.60 408.30 o
4 0 0 44127.90 55602.40 511.36 o
5 0 0 2575.60 3237.30 351.48 o
6 0 0 11871.40 13521.40 438.69 o
7 0 0 329.84 257.66 420.19 <
8 0 0 3234.25 2866.01 511.36 o
0 -2 0 3516.20 6116.52 646.14 o
1 2 0 16251.10 22642.60 547.04 o
1 -2 0 16760.60 22354.60 541.75 o
2 2 0 5717.87 6512.93 396.40 o
2 -2 0 5428.41 6288.30 380.55 o
3 2 0 2829.10 4278.53 347.52 o
3 -2 0 3208.19 4388.20 344.87 o
4 2 0 7783.24 9347.22 384.51 o
4 -2 0 7520.10 9337.97 388.48 o
5 2 0 97.83 245.77 359.41 <
5 -2 0 320.07 190.27 338.27 <
6 2 0 5625.76 5667.27 421.51 o
6 -2 0 5476.63 5576.09 410.94 o
7 2 0 68.35 206.13 424.15 <
7 -2 0 169.25 83.25 416.23 <
8 2 0 2419.73 1523.52 547.04 o
8 -2 0 2357.26 1908.03 499.47 o
0 -4 0 82693.10 97211.60 718.81 o
1 4 0 28071.20 19215.10 377.91 o
1 -4 0 28643.80 36580.20 517.97 o
2 4 0 56902.80 64545.30 578.75 o
2 -4 0 56352.70 62004.30 553.65 o
3 4 0 11084.50 14339.30 404.33 o
3 -4 0 11582.80 14277.20 379.23 o
4 4 0 22193.50 23798.80 429.44 o
4 -4 0 21779.20 23740.70 433.40 o
5 4 0 2370.39 2591.17 376.58 o
5 -4 0 2680.77 2395.61 367.33 o
6 4 0 6776.93 6395.33 413.58 o
6 -4 0 6556.95 6095.38 430.76 o
7 4 0 412.23 358.09 462.47 <
7 -4 0 556.85 461.15 441.33 <
8 4 0 1970.61 984.41 577.43 <
8 -4 0 1879.29 1107.29 510.04 o
0 -6 0 1527.00 1123.15 322.41 o
1 -6 0 1627.57 561.57 270.88 o
2 6 0 2565.66 1974.10 482.29 o
2 -6 0 2037.83 1960.88 356.76 o
3 6 0 294.92 281.45 371.30 <
3 -6 0 771.64 219.34 358.09 <
4 6 0 2991.61 3020.60 405.65 o
4 -6 0 2633.11 2645.34 387.15 o
5 6 0 305.39 265.59 403.01 <
5 -6 0 580.84 369.98 381.87 <
6 6 0 2115.78 1695.29 465.11 o
6 -6 0 1926.76 1269.82 440.01 o
7 6 0 225.82 203.49 525.90 <
7 -6 0 353.12 558.93 502.11 <
0 -8 0 11938.40 13010.00 428.12 o
1 -8 0 7081.36 8191.04 284.09 o
2 -8 0 8792.96 9071.06 329.02 o
3 8 0 3504.69 3920.44 565.54 o
3 -8 0 3774.35 3808.13 392.44 o
4 8 0 4148.57 1736.25 364.69 o
4 -8 0 3922.87 3407.76 425.47 o
5 8 0 1171.48 1026.69 470.40 o
5 -8 0 1334.96 1227.53 454.54 o
6 8 0 1467.41 1035.94 551.00 <
6 -8 0 1348.85 750.53 529.86 <
0 -10 0 388.19 557.61 428.12 <
1 -10 0 386.13 508.72 305.23 <
2 -10 0 431.90 728.06 313.16 o
3 -10 0 417.40 181.02 311.84 <
4 -10 0 445.82 564.22 399.05 <
5 -10 0 350.83 311.84 433.40 <
0 -12 0 912.30 821.88 537.79 <
1 -12 0 1027.27 710.89 372.62 <
2 -12 0 709.10 695.03 539.11 <
0 -11 1 1032.53 1153.54 494.18 o
1 -11 1 1066.11 981.76 352.80 o
2 -11 1 849.02 808.67 356.76 o
3 -11 1 734.76 762.42 372.62 o
0 -9 1 1944.94 2009.77 417.55 o
1 -9 1 1271.26 1186.57 294.66 o
2 -9 1 1724.19 1826.10 305.23 o
3 -9 1 1006.57 996.30 351.48 o
4 -9 1 1173.59 1059.72 463.79 o
5 -9 1 602.26 676.53 483.61 <
0 -7 1 8965.17 9776.66 405.65 o
1 -7 1 4032.79 4415.95 288.05 o
2 -7 1 7236.60 5462.46 293.34 o
3 -7 1 2528.94 2834.29 385.83 o
3 7 -1 2127.89 2681.02 409.62 o
4 -7 1 4027.31 4012.94 403.01 o
4 7 -1 4314.76 4045.97 425.47 o
5 -7 1 1142.15 1013.47 421.51 o
5 7 -1 915.59 926.27 436.05 o
6 -7 1 1720.79 1593.55 470.40 o
6 7 -1 1873.54 1423.09 507.40 o
7 -7 1 418.65 218.02 528.54 <
7 7 -1 314.15 766.38 607.82 <
0 -5 1 15167.90 18464.50 454.54 o
1 -5 1 2636.52 2613.63 285.41 o
1 5 -1 1895.40 2873.93 426.80 o
2 -5 1 12605.20 14616.80 385.83 o
2 5 -1 13379.60 15244.40 426.80 o
3 -5 1 1933.30 1787.79 355.44 o
3 5 -1 1392.60 2147.19 356.76 o
4 -5 1 7557.03 7455.05 379.23 o
4 5 -1 8020.32 7704.79 396.40 o
5 -5 1 1053.91 902.48 389.80 o
5 5 -1 744.60 938.16 410.94 o
6 -5 1 3446.39 2777.48 433.40 o
6 5 -1 3670.23 2872.61 443.97 o
7 -5 1 428.29 277.48 474.36 <
7 5 -1 285.50 367.33 507.40 <
0 -3 1 41829.90 45330.20 955.34 o
1 -3 1 5436.96 6169.38 429.44 o
1 3 -1 4359.27 6327.94 401.69 o
2 -3 1 31198.30 34314.10 486.26 o
2 3 -1 31992.70 35410.80 515.33 o
3 -3 1 3009.44 2941.32 343.55 o
3 3 -1 2343.88 2932.07 355.44 o
4 -3 1 15673.50 18567.60 400.37 o
4 3 -1 16113.80 19108.00 412.26 o
5 -3 1 1177.72 864.16 369.98 o
5 3 -1 847.47 983.08 368.66 o
6 -3 1 6282.51 6186.56 405.65 o
6 3 -1 6493.52 6375.51 417.55 o
7 -3 1 381.44 153.28 442.65 <
7 3 -1 241.01 331.66 470.40 <
8 -3 1 2121.42 1283.03 519.29 o
8 3 -1 2207.15 1557.87 537.79 o
0 -1 1 43242.60 25483.50 1109.93 o
0 1 -1 44245.10 24581.10 1112.58 o
1 -1 1 5132.53 5772.97 467.76 o
1 1 -1 4602.89 5560.24 514.01 o
2 -1 1 33920.60 44814.90 577.43 o
2 1 -1 34564.10 29890.20 454.54 o
3 -1 1 2173.24 477.01 315.80 <
3 1 -1 1884.43 1820.82 352.80 o
4 -1 1 18920.50 25470.30 420.19 o
4 1 -1 19193.30 24961.60 418.87 o
5 -1 1 748.54 662.00 336.94 <
5 1 -1 603.64 432.08 334.30 <
6 -1 1 8017.57 8839.82 405.65 o
6 1 -1 8127.83 8901.93 414.90 o
7 -1 1 234.58 224.63 441.33 <
7 1 -1 169.99 311.84 426.80 <
8 -1 1 2749.00 2184.19 523.25 o
8 1 -1 2790.50 2102.27 532.50 o
0 1 1 44055.70 35338.20 967.23 o
0 -1 -1 43432.00 30325.00 917.02 o
1 1 1 4702.96 2515.85 438.69 o
1 -1 -1 5032.46 5051.52 498.15 o
2 1 1 34442.50 22844.80 457.19 o
2 -1 -1 34042.20 43945.40 572.14 o
3 1 1 1938.99 1823.46 367.33 o
3 -1 -1 2118.68 1690.01 346.19 o
4 1 1 19141.70 25504.70 424.15 o
4 -1 -1 18972.10 24968.20 428.12 o
5 1 1 631.01 704.28 350.16 o
5 -1 -1 721.16 317.12 385.83 <
6 1 1 8107.00 5927.57 358.09 o
6 -1 -1 8038.40 8780.36 410.94 o
7 1 1 182.19 191.60 432.08 <
7 -1 -1 222.38 244.45 436.05 <
8 1 1 2782.66 2206.65 539.11 o
8 -1 -1 2756.84 2338.79 517.97 o
0 3 1 42854.80 47966.30 823.20 o
0 -3 -1 41857.20 44659.00 807.34 o
1 3 1 4464.48 6432.33 502.11 o
1 -3 -1 5331.74 6466.68 421.51 o
2 3 1 31968.30 24352.50 659.35 o
2 -3 -1 31222.70 34726.40 490.22 o
3 3 1 2404.53 2745.76 339.59 o
3 -3 -1 2948.79 2810.51 331.66 o
4 3 1 16093.60 17769.50 406.98 o
4 -3 -1 15693.70 18235.90 420.19 o
5 3 1 874.22 920.98 371.30 o
5 -3 -1 1150.97 893.23 363.37 o
6 3 1 6480.80 6005.53 438.69 o
6 -3 -1 6295.23 6256.59 389.80 o
7 3 1 251.31 507.40 463.79 <
7 -3 -1 371.13 112.32 433.40 <
8 3 1 2201.41 1268.49 580.07 o
8 -3 -1 2127.16 1510.30 521.93 o
0 -5 -1 15243.70 9744.95 331.66 o
1 5 1 1892.74 2873.93 414.90 o
1 -5 -1 2639.17 2908.29 303.91 o
2 5 1 13322.30 14709.30 494.18 o
2 -5 -1 12662.60 14519.00 396.40 o
3 5 1 1397.47 1252.64 618.39 o
3 -5 -1 1928.43 1789.11 347.52 o
4 5 1 7992.40 8279.57 414.90 o
4 -5 -1 7584.95 7678.36 392.44 o
5 5 1 752.31 952.69 379.23 o
5 -5 -1 1046.20 854.91 363.37 o
6 5 1 3659.49 3053.64 463.79 o
6 -5 -1 3457.13 2896.40 445.30 o
7 5 1 290.46 422.83 535.15 <
7 -5 -1 423.33 317.12 484.93 <
0 -7 -1 8956.48 10520.60 420.19 o
1 -7 -1 3996.76 4615.47 323.73 o
2 7 1 7667.53 7670.43 519.29 o
2 -7 -1 7232.17 7555.47 321.09 o
3 7 1 2149.50 3016.64 491.54 o
3 -7 -1 2507.33 2681.02 384.51 o
4 7 1 4313.30 2040.16 303.91 o
4 -7 -1 4028.77 3900.62 408.30 o
5 7 1 924.48 819.24 432.08 <
5 -7 -1 1133.26 770.35 414.90 <
6 7 1 1870.88 1560.51 480.97 o
6 -7 -1 1723.45 1540.69 474.36 o
7 7 1 317.29 578.75 598.57 <
7 -7 -1 415.52 311.84 521.93 <
0 -9 -1 1960.46 2190.80 406.98 o
1 -9 -1 1276.62 1420.45 284.09 o
2 -9 -1 1736.09 1668.86 331.66 o
3 -9 -1 1008.40 1042.54 344.87 o
4 9 1 1325.18 676.53 617.07 <
4 -9 -1 1179.30 1269.82 377.91 o
5 9 1 490.60 697.67 667.28 <
5 -9 -1 601.75 557.61 494.18 <
0 -11 -1 1030.06 1098.04 451.90 o
1 -11 -1 1061.55 950.05 339.59 o
2 -11 -1 847.40 825.84 351.48 o
3 -11 -1 732.03 716.17 366.01 <
0 -12 2 119.94 381.87 560.25 <
1 -12 2 185.07 334.30 401.69 <
0 -10 2 3335.67 3128.95 470.40 o
1 -10 2 2853.33 2683.66 343.55 o
2 -10 2 2510.49 2510.56 351.48 o
3 -10 2 1648.51 1330.60 359.41 o
4 -10 2 1177.35 1240.75 438.69 o
0 -8 2 663.62 605.18 421.51 <
1 -8 2 507.12 232.56 294.66 <
2 -8 2 814.15 913.05 330.34 o
3 -8 2 487.09 420.19 362.05 <
3 8 -2 230.18 437.37 610.46 <
4 -8 2 988.34 967.23 434.72 o
4 8 -2 1192.74 1178.64 560.25 o
5 -8 2 470.81 362.05 473.04 <
5 8 -2 318.34 137.42 700.32 <
6 -8 2 725.76 588.00 528.54 <
6 8 -2 834.05 528.54 787.52 <
0 -6 2 30765.10 36059.60 525.90 o
1 -6 2 14480.80 19982.80 379.23 o
1 6 -2 13888.00 1004.23 396.40 o
2 -6 2 22020.00 26438.90 393.76 o
2 6 -2 22551.70 25613.00 669.92 o
3 -6 2 6900.37 7852.78 399.05 o
3 6 -2 6456.86 7949.23 609.14 o
4 -6 2 9189.91 9096.17 410.94 o
4 6 -2 9537.54 8985.17 449.26 o
5 -6 2 2042.68 1971.45 416.23 o
5 6 -2 1786.28 1695.29 475.69 o
6 -6 2 2948.50 1852.53 440.01 o
6 6 -2 3127.65 2556.81 512.68 o
7 -6 2 534.73 326.37 524.58 <
7 6 -2 415.58 561.57 586.68 <
0 -4 2 1514.72 1786.46 665.96 o
0 4 -2 2295.61 14.53 288.05 <
1 -4 2 3970.63 4873.13 362.05 o
1 4 -2 3222.95 4142.43 568.18 o
2 -4 2 2563.77 3031.17 368.66 o
2 4 -2 3226.75 2459.03 544.40 o
3 -4 2 1225.25 0.00 332.98 <
3 4 -2 676.98 397.73 383.19 <
4 -4 2 4103.65 3712.99 356.76 o
4 4 -2 4529.26 4717.22 404.33 o
5 -4 2 524.54 166.49 371.30 <
5 4 -2 212.74 93.82 403.01 <
6 -4 2 3170.80 2903.00 412.26 o
6 4 -2 3386.50 2967.75 447.94 o
7 -4 2 327.42 231.24 482.29 <
7 4 -2 185.43 -27.75 502.11 <
8 -4 2 1401.49 909.09 578.75 <
8 4 -2 1490.72 1375.52 591.96 o
0 -2 2 128609.00 92119.20 1283.03 o
0 2 -2 129070.00 93977.00 1313.42 o
1 -2 2 39016.30 45010.40 619.71 o
1 2 -2 38525.10 42696.80 835.09 o
2 -2 2 83197.80 87230.20 732.03 o
2 2 -2 83639.00 87742.90 778.28 o
3 -2 2 14368.60 17954.50 436.05 o
3 2 -2 13967.90 18216.10 438.69 o
4 -2 2 30256.90 35665.90 462.47 o
4 2 -2 30574.50 36793.00 471.72 o
5 -2 2 2916.94 2690.27 383.19 o
5 2 -2 2677.97 2933.39 381.87 o
6 -2 2 8772.13 9277.19 432.08 o
6 2 -2 8937.86 9249.44 449.26 o
7 -2 2 518.79 458.51 449.26 <
7 2 -2 409.78 442.65 455.86 <
8 -2 2 2460.56 2207.97 549.68 o
8 2 -2 2528.70 1867.07 553.65 o
0 0 2 4050.74 5487.56 628.96 o
0 0 -2 4106.00 5441.31 697.67 o
1 0 2 17594.50 23903.20 664.64 o
1 0 -2 17475.80 24135.80 675.21 o
2 0 2 5850.84 6600.14 529.86 o
2 0 -2 5918.26 6382.12 465.11 o
3 0 2 3250.47 4614.15 416.23 o
3 0 -2 3162.16 4215.10 380.55 o
4 0 2 7708.38 9620.74 403.01 o
4 0 -2 7769.67 9193.95 380.55 o
5 0 2 288.06 262.95 377.91 <
5 0 -2 236.29 231.24 366.01 <
6 0 2 5550.83 6123.13 428.12 o
6 0 -2 5585.57 6022.71 422.83 o
7 0 2 157.49 186.31 454.54 <
7 0 -2 133.98 163.85 445.30 <
8 0 2 2386.23 1987.31 527.22 o
8 0 -2 2400.78 2016.38 553.65 o
0 2 2 128983.00 123014.00 1146.93 o
0 -2 -2 128696.00 104147.00 1071.61 o
1 2 2 38617.90 42189.30 695.03 o
1 -2 -2 38923.50 44043.20 507.40 o
2 2 2 83555.60 42647.90 515.33 o
2 -2 -2 83281.20 51454.70 495.51 o
3 2 2 14043.60 8461.92 372.62 o
3 -2 -2 14292.90 17452.40 453.22 o
4 2 2 30514.50 25438.60 440.01 o
4 -2 -2 30316.90 37082.30 482.29 o
5 2 2 2723.12 3265.05 412.26 o
5 -2 -2 2871.79 2875.26 392.44 o
6 2 2 8906.55 6220.91 379.23 o
6 -2 -2 8803.44 8994.42 430.76 o
7 2 2 430.38 533.83 482.29 <
7 -2 -2 498.20 397.73 469.08 <
8 2 2 2515.83 1894.81 541.75 o
8 -2 -2 2473.43 2012.41 557.61 o
0 4 2 2214.00 1732.29 467.76 o
0 -4 -2 1596.32 1734.93 475.69 o
1 4 2 3289.41 4376.31 447.94 o
1 -4 -2 3904.17 4433.13 301.27 o
2 4 2 3157.63 2847.51 375.26 o
2 -4 -2 2632.89 2813.15 362.05 o
3 4 2 727.97 625.00 358.09 <
3 -4 -2 1174.26 621.03 362.05 <
4 4 2 4485.69 4632.65 381.87 o
4 -4 -2 4147.22 4252.10 363.37 o
5 4 2 242.77 384.51 413.58 <
5 -4 -2 494.50 257.66 397.73 <
6 4 2 3364.91 3424.94 461.15 o
6 -4 -2 3192.39 2912.25 434.72 o
7 4 2 199.33 -103.07 511.36 <
7 -4 -2 313.52 91.17 467.76 <
8 4 2 1481.89 619.71 758.45 <
8 -4 -2 1410.32 1103.33 576.11 <
0 -6 -2 30788.90 37786.60 668.60 o
1 6 2 13927.50 18201.60 480.97 o
1 -6 -2 14441.30 18894.00 329.02 o
2 6 2 22528.50 25277.40 562.90 o
2 -6 -2 22043.30 23777.70 364.69 o
3 6 2 6486.30 8265.04 475.69 o
3 -6 -2 6870.93 8646.91 399.05 o
4 6 2 9519.20 4504.48 290.70 o
4 -6 -2 9208.24 9315.51 429.44 o
5 6 2 1802.86 1997.88 418.87 o
5 -6 -2 2026.11 1868.39 400.37 o
6 6 2 3117.14 2640.06 499.47 o
6 -6 -2 2959.01 2707.44 469.08 o
7 6 2 423.08 467.76 570.82 <
7 -6 -2 527.24 525.90 517.97 <
0 -8 -2 682.69 610.46 367.33 <
1 -8 -2 499.39 200.85 310.52 <
2 8 2 1104.18 1133.72 491.54 o
2 -8 -2 830.13 817.91 321.09 o
3 8 2 237.59 107.03 644.82 <
3 -8 -2 479.68 322.41 330.34 <
4 8 2 1182.94 713.53 553.65 <
4 -8 -2 998.15 1105.97 350.16 o
5 8 2 323.78 63.42 591.96 <
5 -8 -2 465.37 339.59 475.69 <
6 8 2 829.26 369.98 693.71 <
6 -8 -2 730.55 656.71 527.22 <
0 -10 -2 3336.94 3156.70 445.30 o
1 -10 -2 2846.44 2531.70 306.55 o
2 -10 -2 2512.08 2016.38 284.09 o
3 10 2 1540.13 -101.74 897.20 <
3 -10 -2 1643.80 1470.66 385.83 o
4 10 2 1266.22 1144.29 688.42 <
4 -10 -2 1179.11 1174.68 424.15 o
0 -12 -2 122.10 158.56 529.86 <
1 -12 -2 185.07 -5.29 348.84 <
0 -11 3 242.82 356.76 537.79 <
1 -11 3 267.74 523.25 368.66 <
2 -11 3 249.41 467.76 393.76 <
3 -11 3 275.01 91.17 426.80 <
0 -9 3 4004.84 3586.14 463.79 o
1 -9 3 3078.83 2831.65 330.34 o
2 -9 3 3084.18 3332.44 404.33 o
3 -9 3 1826.02 1962.20 416.23 o
3 9 -3 1660.30 239.16 315.80 <
4 -9 3 1536.57 1461.41 446.62 o
4 9 -3 1648.67 1874.99 677.85 o
5 -9 3 757.79 688.42 500.79 <
5 9 -3 661.76 1133.72 759.78 <
0 -7 3 2545.41 2859.40 463.79 o
1 -7 3 767.52 813.95 347.52 o
2 -7 3 2462.75 2971.71 362.05 o
2 7 -3 2863.44 2758.98 581.39 o
3 -7 3 811.61 965.91 359.41 o
3 7 -3 545.83 1062.36 561.57 <
4 -7 3 1979.94 1939.74 340.91 o
4 7 -3 2235.79 2128.69 595.93 o
5 -7 3 642.95 438.69 446.62 <
5 7 -3 474.46 363.37 614.43 <
6 -7 3 1129.97 1153.54 502.11 o
6 7 -3 1259.63 1189.21 701.64 <
0 -5 3 21849.00 24865.10 747.88 o
1 -5 3 7468.68 9663.02 388.48 o
1 5 -3 6762.86 9344.58 595.93 o
2 -5 3 16557.30 13550.40 383.19 o
2 5 -3 16990.70 16991.20 607.82 o
3 -5 3 4138.57 3029.85 270.88 o
3 5 -3 3632.72 3670.71 574.79 o
4 -5 3 8067.83 8123.65 416.23 o
4 5 -3 8383.97 8564.98 486.26 o
5 -5 3 1556.51 1350.42 406.98 o
5 5 -3 1280.54 1461.41 474.36 o
6 -5 3 3072.76 2492.06 470.40 o
6 5 -3 3247.31 2819.76 507.40 o
7 -5 3 492.79 314.48 531.18 <
7 5 -3 369.92 223.31 611.78 <
0 -3 3 19339.30 19517.60 778.27 o
0 3 -3 20187.70 18413.00 803.38 o
1 -3 3 1302.84 1876.32 395.08 o
1 3 -3 792.56 1732.29 528.54 o
2 -3 3 15885.60 19147.70 462.47 o
2 3 -3 16581.30 17328.20 594.61 o
3 -3 3 1293.43 1041.22 347.52 o
3 3 -3 890.05 1141.65 441.33 o
4 -3 3 9548.83 9965.61 417.55 o
4 3 -3 9962.22 10462.40 465.11 o
5 -3 3 897.60 552.32 388.48 <
5 3 -3 648.31 570.82 424.15 <
6 -3 3 4423.71 4056.54 461.15 o
6 3 -3 4618.41 4007.65 486.26 o
7 -3 3 402.56 258.98 525.90 <
7 3 -3 283.70 344.87 533.83 <
8 -3 3 1610.23 1247.35 611.78 o
8 3 -3 1687.69 1193.18 646.14 <
0 -1 3 41142.60 44291.60 899.84 o
0 1 -3 41498.90 42736.40 988.37 o
1 -1 3 6246.38 6760.02 601.21 o
1 1 -3 5568.06 6844.59 702.96 o
2 -1 3 30966.00 38395.80 654.07 o
2 1 -3 31250.10 37975.60 648.78 o
3 -1 3 3327.02 3064.21 479.65 o
3 1 -3 2925.70 2900.36 443.97 o
4 -1 3 15757.90 19326.00 508.72 o
4 1 -3 15942.50 18907.20 467.76 o
5 -1 3 1264.98 835.09 389.80 o
5 1 -3 1079.46 866.80 385.83 o
6 -1 3 6352.86 6434.97 466.44 o
6 1 -3 6453.66 6327.94 455.86 o
7 -1 3 403.56 244.45 517.97 <
7 1 -3 329.01 354.12 502.11 <
8 -1 3 2150.50 1606.76 619.71 o
8 1 -3 2193.76 1569.76 605.18 o
0 1 3 41260.10 42307.00 783.56 o
0 -1 -3 41381.40 41450.70 782.24 o
1 1 3 5794.64 6806.27 454.54 o
1 -1 -3 6019.81 4086.93 351.48 o
2 1 3 31070.70 35775.50 585.36 o
2 -1 -3 31145.40 36096.60 605.18 o
3 1 3 3066.62 2852.79 474.36 o
3 -1 -3 3186.09 2905.65 412.26 o
4 1 3 15844.70 17888.40 507.40 o
4 -1 -3 15855.80 18964.00 457.19 o
5 1 3 1150.15 1013.47 445.30 o
5 -1 -3 1194.28 987.05 379.23 o
6 1 3 6407.47 6416.47 486.26 o
6 -1 -3 6399.05 6561.82 454.54 o
7 1 3 359.32 354.12 515.33 <
7 -1 -3 373.25 434.72 475.69 <
8 1 3 2175.13 1927.85 648.78 o
8 -1 -3 2169.13 1556.55 584.04 o
0 3 3 20027.40 32834.20 1115.22 o
0 -3 -3 19499.60 20021.10 599.89 o
1 3 3 888.97 2000.52 418.87 o
1 -3 -3 1206.43 1860.46 348.84 o
2 3 3 16449.80 17153.80 442.65 o
2 -3 -3 16017.00 17900.30 400.37 o
3 3 3 966.26 1423.09 401.69 o
3 -3 -3 1217.22 1117.86 367.33 o
4 3 3 9884.11 4834.82 420.19 o
4 -3 -3 9626.93 9828.19 403.01 o
5 3 3 695.41 486.26 408.30 <
5 -3 -3 850.50 480.97 387.15 <
6 3 3 4581.63 3335.08 531.18 o
6 -3 -3 4460.50 3746.02 449.26 o
7 3 3 306.15 245.77 532.50 <
7 -3 -3 380.11 173.10 482.29 <
8 3 3 1673.06 853.59 636.89 <
8 -3 -3 1624.87 882.66 585.36 <
0 5 3 22278.30 25808.60 580.07 o
0 -5 -3 21891.70 24842.70 580.07 o
1 5 3 6865.76 9045.96 467.76 o
1 -5 -3 7365.78 9464.82 323.73 o
2 5 3 16950.00 18308.60 491.54 o
2 -5 -3 16598.00 18578.20 364.69 o
3 5 3 3701.10 4553.37 461.15 o
3 -5 -3 4070.19 4297.03 336.94 o
4 5 3 8351.73 7801.24 470.40 o
4 -5 -3 8100.06 8376.03 391.12 o
5 5 3 1314.71 1232.82 342.23 o
5 -5 -3 1522.34 1589.58 410.94 o
6 5 3 3228.27 2752.37 491.54 o
6 -5 -3 3091.80 2424.68 463.79 o
7 5 3 384.31 397.73 574.79 <
7 -5 -3 478.39 146.67 516.65 <
0 -7 -3 2601.06 2790.69 525.90 o
1 7 3 452.94 948.73 471.72 o
1 -7 -3 755.32 919.66 313.16 o
2 7 3 2818.81 1375.52 755.81 <
2 -7 -3 2507.38 2741.80 319.77 o
3 7 3 559.22 930.23 454.54 o
3 -7 -3 798.22 671.24 317.12 o
4 7 3 2211.18 2161.73 520.61 o
4 -7 -3 2004.54 1831.39 366.01 o
5 7 3 485.23 245.77 529.86 <
5 -7 -3 632.17 406.98 405.65 <
6 7 3 1248.79 832.45 618.39 <
6 -7 -3 1140.81 1029.33 517.97 <
0 -9 -3 4005.47 3732.81 397.73 o
1 -9 -3 3058.45 3073.46 339.59 o
2 9 3 3235.78 3172.56 552.32 o
2 -9 -3 3086.19 2807.87 358.09 o
3 9 3 1673.55 1667.54 574.79 o
3 -9 -3 1812.77 1686.04 364.69 o
4 9 3 1645.19 993.65 611.78 <
4 -9 -3 1540.05 1253.96 395.08 o
5 9 3 668.08 931.55 642.18 <
5 -9 -3 751.47 650.10 418.87 <
0 -11 -3 249.66 169.13 465.11 <
1 -11 -3 268.61 268.23 350.16 <
2 11 3 320.40 385.83 984.41 <
2 -11 -3 254.87 426.80 340.91 <
3 -11 -3 274.79 204.81 441.33 <
0 -10 4 131.70 241.81 537.79 <
1 -10 4 130.53 302.59 375.26 <
2 -10 4 160.82 440.01 392.44 <
3 -10 4 183.47 572.14 483.61 <
4 -10 4 221.62 556.29 523.25 <
4 10 -4 289.99 -30.39 401.69 <
0 -8 4 8724.79 9554.67 507.40 o
1 -8 4 6159.52 6811.55 428.12 o
2 -8 4 6360.15 6841.94 428.12 o
2 8 -4 6557.42 7140.57 680.49 o
3 -8 4 3233.05 3298.09 430.76 o
3 8 -4 3035.60 3295.44 659.35 o
4 -8 4 2750.22 2762.94 437.37 o
4 8 -4 2887.48 2892.43 665.96 o
5 -8 4 1105.90 1201.11 523.25 o
5 8 -4 993.04 1383.45 716.17 <
6 -8 4 908.79 864.16 745.24 <
6 8 -4 984.57 1362.31 778.28 <
0 -6 4 717.87 985.73 673.89 <
1 -6 4 884.80 240.49 368.66 <
1 6 -4 496.85 81.92 597.25 <
2 -6 4 956.49 504.76 377.91 <
2 6 -4 1373.00 1248.67 569.50 o
3 -6 4 489.15 236.52 395.08 <
3 6 -4 189.59 -56.82 543.07 <
4 -6 4 1411.27 1395.34 420.19 o
4 6 -4 1674.64 864.16 581.39 <
5 -6 4 470.63 539.11 432.08 <
5 6 -4 290.64 541.75 613.11 <
6 -6 4 1139.81 502.11 381.87 <
6 6 -4 1272.56 786.20 580.07 <
7 -6 4 306.18 97.78 630.28 <
7 6 -4 219.96 293.34 776.95 <
0 -4 4 43136.30 52151.00 911.73 o
0 4 -4 43709.90 51461.30 940.80 o
1 -4 4 20761.50 25946.00 473.04 o
1 4 -4 20156.90 21263.10 721.46 o
2 -4 4 30621.30 37157.70 514.01 o
2 4 -4 31108.10 34562.50 673.89 o
3 -4 4 9262.96 11251.30 480.97 o
3 4 -4 8830.25 9540.14 562.90 o
4 -4 4 12519.50 8757.90 389.80 o
4 4 -4 12832.60 12798.60 581.39 o
5 -4 4 2482.39 2091.70 453.22 o
5 4 -4 2243.07 1604.12 523.25 o
6 -4 4 3917.11 3290.16 527.22 o
6 4 -4 4077.83 3535.93 632.93 o
7 -4 4 594.69 478.33 613.11 <
7 4 -4 486.53 350.16 730.71 <
0 -2 4 1818.15 1955.60 614.43 o
0 2 -4 2331.40 1580.33 675.21 o
1 -2 4 4117.79 4743.64 479.65 o
1 2 -4 3673.77 4546.76 553.65 o
2 -2 4 2773.04 3140.85 548.36 o
2 2 -4 3208.13 3020.60 462.47 o
3 -2 4 1278.04 605.18 451.90 <
3 2 -4 943.27 486.26 451.90 <
4 -2 4 4202.47 4833.49 568.18 o
4 2 -4 4478.52 4640.58 642.18 o
5 -2 4 568.25 155.92 507.40 <
5 2 -4 373.68 200.85 517.97 <
6 -2 4 3222.67 3200.31 539.11 o
6 2 -4 3360.58 2958.50 548.36 o
7 -2 4 354.23 42.28 636.89 <
7 2 -4 264.74 43.60 607.82 <
8 -2 4 1424.76 1117.86 753.17 <
8 2 -4 1481.40 994.98 763.74 <
0 0 4 85454.00 80027.50 998.94 o
0 0 -4 85583.60 80754.20 1061.04 o
1 0 4 29876.60 36055.60 644.82 o
1 0 -4 29743.20 36363.50 683.14 o
2 0 4 58018.40 63695.60 697.67 o
2 0 -4 58146.50 62999.30 704.28 o
3 0 4 12256.50 15336.90 491.54 o
3 0 -4 12140.40 14896.90 487.58 o
4 0 4 22299.10 26119.10 802.06 o
4 0 -4 22395.60 25040.90 593.29 o
5 0 4 2888.91 2600.41 569.50 o
5 0 -4 2816.61 2720.66 479.65 o
6 0 4 6708.99 6415.15 599.89 o
6 0 -4 6760.23 6516.89 507.40 o
7 0 4 604.08 348.84 646.14 <
7 0 -4 570.39 367.33 558.93 <
8 0 4 1929.46 1150.89 761.10 <
8 0 -4 1950.73 1646.40 709.56 o
0 2 4 2168.49 1683.40 494.18 o
0 -2 -4 1981.06 698.99 385.83 <
1 2 4 3832.47 4175.46 369.98 o
1 -2 -4 3959.09 4188.68 348.84 o
2 2 4 3069.78 2864.68 356.76 o
2 -2 -4 2911.38 3039.10 377.91 o
3 2 4 1059.11 552.32 387.15 <
3 -2 -4 1162.19 517.97 401.69 <
4 2 4 4389.52 2387.68 286.73 o
4 -2 -4 4291.47 4470.12 459.83 o
5 2 4 439.32 290.70 515.33 <
5 -2 -4 502.61 27.75 417.55 <
6 2 4 3315.36 3324.51 588.00 o
6 -2 -4 3267.89 2823.72 467.76 o
7 2 4 294.57 487.58 615.75 <
7 -2 -4 324.39 227.27 533.83 <
8 2 4 1462.67 1375.52 747.88 <
8 -2 -4 1443.49 1127.11 662.00 <
0 4 4 43601.60 55150.50 742.60 o
0 -4 -4 43244.70 50572.00 689.74 o
1 4 4 20271.10 14809.70 971.19 o
1 -4 -4 20647.30 24187.30 408.30 o
2 4 4 31016.20 34997.20 558.93 o
2 -4 -4 30713.30 36395.20 428.12 o
3 4 4 8912.00 9982.79 471.72 o
3 -4 -4 9181.21 10187.60 372.62 o
4 4 4 12773.40 12225.10 491.54 o
4 -4 -4 12578.70 12587.20 418.87 o
5 4 4 2288.29 853.59 603.86 <
5 -4 -4 2437.18 2131.34 434.72 o
6 4 4 4047.46 1606.76 339.59 o
6 -4 -4 3947.47 3287.52 496.83 o
7 4 4 506.96 157.24 462.47 <
7 -4 -4 574.26 251.06 556.29 <
0 6 4 1145.46 433.40 498.15 <
0 -6 -4 781.25 705.60 504.76 <
1 6 4 536.10 343.55 453.22 <
1 -6 -4 845.54 421.51 295.98 <
2 6 4 1319.50 940.80 389.80 o
2 -6 -4 1009.99 1009.51 317.12 o
3 6 4 222.11 245.77 451.90 <
3 -6 -4 456.62 31.71 322.41 <
4 6 4 1641.23 1156.18 413.58 o
4 -6 -4 1444.68 1367.60 377.91 o
5 6 4 311.65 44.93 527.22 <
5 -6 -4 449.63 330.34 399.05 <
6 6 4 1255.97 910.41 591.96 <
6 -6 -4 1156.40 823.20 445.30 <
7 6 4 230.40 177.06 1156.18 <
7 -6 -4 295.73 79.28 511.36 <
0 -8 -4 8734.71 4885.03 332.98 o
1 8 4 5917.93 3004.75 610.46 o
1 -8 -4 6131.98 6362.30 343.55 o
2 8 4 6547.06 6047.81 543.07 o
2 -8 -4 6370.51 6157.49 350.16 o
3 8 4 3055.00 3017.96 525.90 o
3 -8 -4 3213.65 2895.08 373.94 o
4 8 4 2878.18 2139.26 554.97 o
4 -8 -4 2759.52 2353.32 388.48 o
5 8 4 1003.41 248.41 617.07 <
5 -8 -4 1095.52 717.49 432.08 <
6 8 4 978.62 952.69 660.67 <
0 -10 -4 143.01 104.39 469.08 <
1 10 4 43.56 186.31 991.01 <
1 -10 -4 129.11 80.60 301.27 <
2 -10 -4 170.03 121.56 381.87 <
3 10 4 113.72 211.42 650.10 <
3 -10 -4 181.23 121.56 408.30 <
4 10 4 284.72 59.46 677.85 <
4 -10 -4 226.89 134.78 430.76 <
0 -11 5 1433.53 1153.54 627.64 <
1 -11 5 1444.65 983.08 446.62 o
0 -9 5 224.91 216.70 535.15 <
1 -9 5 124.61 383.19 371.30 <
2 -9 5 258.05 639.53 487.58 <
3 -9 5 196.56 38.32 516.65 <
3 9 -5 122.62 -74.00 779.60 <
4 -9 5 318.45 404.33 581.39 <
4 9 -5 405.61 39.64 787.52 <
0 -7 5 8636.70 9608.85 787.52 o
1 -7 5 5815.20 6466.68 429.44 o
1 7 -5 5502.14 6096.70 714.85 o
2 -7 5 6414.65 6880.26 455.86 o
2 7 -5 6578.34 7159.07 652.75 o
3 -7 5 3138.75 3234.66 482.29 o
3 7 -5 2914.58 3195.02 654.07 o
4 -7 5 2920.96 3056.28 560.25 o
4 7 -5 3048.73 2749.73 680.49 o
5 -7 5 1124.18 861.52 654.07 <
5 7 -5 1001.19 850.95 599.89 <
6 -7 5 1027.05 787.52 840.38 <
6 7 -5 1102.69 517.97 763.74 <
0 -5 5 2778.73 2959.82 646.14 o
0 5 -5 3284.87 2932.07 689.74 o
1 -5 5 518.45 877.38 392.44 o
1 5 -5 253.49 695.03 635.57 <
2 -5 5 2776.67 3017.96 414.90 o
2 5 -5 3199.70 3331.12 643.50 o
3 -5 5 652.92 772.99 462.47 <
3 5 -5 425.38 566.86 564.22 <
4 -5 5 2381.27 2304.43 537.79 o
4 5 -5 2638.80 2026.95 568.18 o
5 -5 5 630.06 504.76 689.74 <
5 5 -5 478.46 138.74 595.93 <
6 -5 5 1422.17 1353.06 909.09 <
6 5 -5 1546.84 839.06 644.82 <
7 -5 5 347.06 113.64 1412.52 <
7 5 -5 270.53 738.63 746.56 <
0 -3 5 22180.00 28160.60 787.52 o
0 3 -5 22463.70 21390.00 792.81 o
1 -3 5 7973.05 10255.00 462.47 o
1 3 -5 7390.78 9737.02 482.29 o
2 -3 5 16809.70 20194.20 535.15 o
2 3 -5 17075.80 18908.50 594.61 o
3 -3 5 4438.86 4707.97 491.54 o
3 3 -5 4043.37 4799.14 510.04 o
4 -3 5 8192.85 8817.36 512.68 o
4 3 -5 8397.38 7821.06 463.79 o
5 -3 5 1679.52 1446.88 525.90 o
5 3 -5 1476.48 1462.73 527.22 o
6 -3 5 3122.80 3007.39 581.39 o
6 3 -5 3240.79 2963.79 576.11 o
7 -3 5 533.72 274.84 639.53 <
7 3 -5 446.65 618.39 660.67 <
0 -1 5 15459.50 18275.60 644.82 o
0 1 -5 15987.50 18834.50 753.17 o
1 -1 5 3056.25 3073.46 425.47 o
1 1 -5 2894.34 3024.57 537.79 o
2 -1 5 12867.40 15470.40 517.97 o
2 1 -5 13280.70 15154.60 537.79 o
3 -1 5 2222.05 1979.38 426.80 o
3 1 -5 2076.29 1935.78 433.40 o
4 -1 5 7741.02 7967.73 433.40 o
4 1 -5 7962.31 7488.08 487.58 o
5 -1 5 1201.87 469.08 313.16 <
5 1 -5 1098.51 673.89 477.01 <
6 -1 5 3542.93 3250.52 1018.76 o
6 1 -5 3638.67 2723.30 531.18 o
7 -1 5 486.11 475.69 1109.93 <
7 1 -5 432.70 458.51 585.36 <
0 1 5 15784.90 17650.60 611.78 o
0 -1 -5 15662.10 17678.30 638.21 o
1 1 5 3067.65 3047.03 363.37 o
1 -1 -5 2882.95 3006.07 373.94 o
2 1 5 13113.70 14667.00 462.47 o
2 -1 -5 13034.50 14417.20 540.43 o
3 1 5 2201.13 1634.51 406.98 o
3 -1 -5 2097.21 1864.42 572.14 o
4 1 5 7860.88 7942.63 467.76 o
4 -1 -5 7842.45 8118.37 627.64 o
5 1 5 1168.77 940.80 469.08 o
5 -1 -5 1131.61 713.53 544.40 <
6 1 5 3589.03 1635.83 389.80 o
6 -1 -5 3592.57 3238.63 591.96 o
7 1 5 464.81 203.49 585.36 <
7 -1 -5 454.00 298.62 685.78 <
8 1 5 1300.80 -5.29 1013.47 <
8 -1 -5 1304.79 292.02 1520.87 <
0 3 5 22363.70 24664.30 601.21 o
0 -3 -5 22280.10 24075.00 605.18 o
1 3 5 7531.24 9709.27 377.91 o
1 -3 -5 7832.59 8857.00 377.91 o
2 3 5 16984.30 17489.40 471.72 o
2 -3 -5 16901.20 18802.80 391.12 o
3 3 5 4145.29 4676.25 440.01 o
3 -3 -5 4336.94 3409.08 336.94 o
4 3 5 8331.24 8300.71 469.08 o
4 -3 -5 8258.98 6415.15 395.08 o
5 3 5 1532.81 1236.78 478.33 o
5 -3 -5 1623.19 1358.35 478.33 o
6 3 5 3204.56 2813.15 532.50 o
6 -3 -5 3159.03 2673.09 525.90 o
7 3 5 471.92 599.89 626.32 <
7 -3 -5 508.45 409.62 609.14 <
0 5 5 3189.24 3294.12 462.47 o
0 -5 -5 2874.36 2852.79 469.08 o
1 5 5 303.55 519.29 445.30 <
1 -5 -5 468.39 533.83 356.76 <
2 5 5 3119.78 2644.02 436.05 o
2 -5 -5 2856.60 3159.35 326.37 o
3 5 5 468.37 215.38 951.37 <
3 -5 -5 609.93 611.78 368.66 <
4 5 5 2590.14 3282.23 905.12 o
4 -5 -5 2429.93 2358.61 401.69 o
5 5 5 507.10 798.09 484.93 <
5 -5 -5 601.42 683.14 447.94 <
6 5 5 1523.28 1358.35 582.72 o
6 -5 -5 1445.72 1004.23 495.51 o
7 5 5 284.99 178.38 687.10 <
7 -5 -5 332.60 244.45 574.79 <
0 -7 -5 8653.88 8802.83 584.04 o
1 7 5 5551.00 3689.21 2198.72 <
1 -7 -5 5766.35 5880.00 331.66 o
2 7 5 6561.12 6419.11 495.51 o
2 -7 -5 6431.88 6643.74 344.87 o
3 7 5 2947.76 2788.05 498.15 o
3 -7 -5 3105.57 2895.08 362.05 o
4 7 5 3033.90 2390.32 532.50 o
4 -7 -5 2935.79 2501.31 406.98 o
5 7 5 1018.19 -165.17 848.31 <
5 -7 -5 1107.18 909.09 445.30 o
6 7 5 1093.32 1993.92 1194.50 <
6 -7 -5 1036.42 628.96 524.58 <
0 9 5 368.76 -46.25 2143.23 <
0 -9 -5 246.06 306.55 422.83 <
1 9 5 43.37 -101.74 1250.00 <
1 -9 -5 122.40 475.69 366.01 <
2 9 5 380.14 689.74 580.07 <
2 -9 -5 275.18 523.25 392.44 <
3 9 5 126.45 224.63 594.61 <
3 -9 -5 192.72 67.39 421.51 <
4 9 5 395.94 293.34 599.89 <
4 -9 -5 328.11 595.93 442.65 <
0 11 5 1464.19 2378.43 2259.51 <
0 -11 -5 1432.45 1425.74 544.40 o
1 11 5 1388.91 697.67 1298.89 <
1 -11 -5 1437.73 1173.36 388.48 o
0 -10 6 2440.50 2118.12 644.82 o
1 -10 6 2287.74 1930.49 483.61 o
2 -10 6 1762.39 1732.29 597.25 o
0 -8 6 166.49 159.88 562.90 <
1 -8 6 142.61 -35.68 491.54 <
2 -8 6 162.16 429.44 504.76 <
2 8 -6 310.74 783.56 780.92 <
3 -8 6 127.47 43.60 548.36 <
3 8 -6 50.06 469.08 717.49 <
4 -8 6 269.73 319.77 662.00 <
4 8 -6 361.96 615.75 767.70 <
5 -8 6 205.24 183.67 874.73 <
5 8 -6 151.12 540.43 825.84 <
0 -6 6 12615.70 14488.60 778.28 o
0 6 -6 12791.60 13232.00 630.28 o
1 -6 6 8630.63 9504.46 462.47 o
1 6 -6 8348.85 8966.67 684.46 o
2 -6 6 9078.29 9914.08 471.72 o
2 6 -6 9240.92 8983.85 716.17 o
3 -6 6 4354.49 4184.71 507.40 o
3 6 -6 4151.74 3705.06 638.21 o
4 -6 6 3794.01 3652.21 594.61 o
4 6 -6 3916.03 3496.29 648.78 o
5 -6 6 1391.97 1185.25 815.27 <
5 6 -6 1279.87 998.94 697.67 <
6 -6 6 1207.13 758.45 728.06 <
6 6 -6 1277.62 1000.26 733.35 <
0 -4 6 830.64 627.64 591.96 <
0 4 -6 1202.39 676.53 673.89 <
1 -4 6 907.68 277.48 434.72 <
1 4 -6 657.91 352.80 602.53 <
2 -4 6 1023.79 795.45 440.01 <
2 4 -6 1338.08 856.23 622.35 <
3 -4 6 522.02 367.33 525.90 <
3 4 -6 320.18 161.21 556.29 <
4 -4 6 1440.82 1363.63 535.15 o
4 4 -6 1637.81 1579.01 564.22 o
5 -4 6 511.63 -138.74 556.29 <
5 4 -6 384.42 426.80 668.60 <
6 -4 6 1160.05 1390.06 625.00 o
6 4 -6 1258.33 710.89 610.46 <
7 -4 6 332.02 -507.40 720.14 <
7 4 -6 269.51 -120.24 721.46 <
0 -2 6 31890.20 37172.20 749.21 o
0 2 -6 32130.70 35519.20 910.41 o
1 -2 6 16273.50 19039.30 507.40 o
1 2 -6 15975.10 17979.60 646.14 o
2 -2 6 22801.10 26128.40 599.89 o
2 2 -6 23019.40 25184.90 625.00 o
3 -2 6 7795.23 8019.27 528.54 o
3 2 -6 7572.35 7768.21 537.79 o
4 -2 6 9494.12 9290.40 532.50 o
4 2 -6 9649.57 8302.04 718.81 o
5 -2 6 2329.32 1701.90 520.61 o
5 2 -6 2202.30 2000.52 517.97 o
6 -2 6 3044.44 2560.77 562.90 o
6 2 -6 3128.87 2293.86 582.72 o
7 -2 6 614.36 636.89 644.82 <
7 2 -6 556.18 2.64 619.71 <
0 0 6 1773.29 1223.57 500.79 o
0 0 -6 1913.04 1183.93 573.47 o
1 0 6 1647.06 533.83 393.76 <
1 0 -6 1499.05 453.22 467.76 <
2 0 6 2216.67 1959.56 469.08 o
2 0 -6 2339.65 2093.02 454.54 o
3 0 6 838.22 -60.78 451.90 <
3 0 -6 727.15 338.27 475.69 <
4 0 6 2756.91 2983.61 453.22 o
4 0 -6 2840.43 2645.34 409.62 o
5 0 6 673.69 529.86 499.47 <
5 0 -6 609.52 432.08 432.08 <
6 0 6 2012.62 1978.06 544.40 o
6 0 -6 2056.66 1861.78 543.07 o
7 0 6 409.83 295.98 610.46 <
7 0 -6 380.17 151.96 533.83 <
0 2 6 31992.50 35009.10 689.74 o
0 -2 -6 32028.40 41425.60 722.78 o
1 2 6 16104.00 19022.10 454.54 o
1 -2 -6 16144.60 18612.50 450.58 o
2 2 6 22900.90 24446.30 528.54 o
2 -2 -6 22919.50 25609.10 507.40 o
3 2 6 7668.83 7526.40 471.72 o
3 -2 -6 7698.76 7739.14 514.01 o
4 2 6 9572.85 8891.36 466.44 o
4 -2 -6 9570.84 9401.40 582.72 o
5 2 6 2258.17 1771.93 490.22 o
5 -2 -6 2273.45 1886.89 677.85 o
6 2 6 3089.58 2188.15 556.29 o
6 -2 -6 3083.73 2572.67 876.05 o
7 2 6 582.19 -3.96 556.29 <
7 -2 -6 588.35 188.95 475.69 <
0 4 6 1102.78 749.21 495.51 <
0 -4 -6 930.26 691.07 499.47 <
1 4 6 739.14 206.13 342.23 <
1 -4 -6 826.45 392.44 336.94 <
2 4 6 1253.51 914.37 437.37 o
2 -4 -6 1108.36 845.66 352.80 o
3 4 6 382.39 144.03 438.69 <
3 -4 -6 459.81 -17.18 383.19 <
4 4 6 1584.24 1351.74 463.79 o
4 -4 -6 1494.40 1549.94 457.19 o
5 4 6 421.45 306.55 495.51 <
5 -4 -6 474.60 515.33 556.29 <
6 4 6 1231.27 1022.72 483.61 o
6 -4 -6 1187.11 964.59 647.46 <
7 4 6 287.16 369.98 684.46 <
7 -4 -6 314.37 204.81 790.17 <
0 6 6 12758.30 13752.60 562.90 o
0 -6 -6 12648.90 13266.30 569.50 o
1 6 6 8402.09 8823.97 557.61 o
1 -6 -6 8577.40 5594.59 282.77 o
2 6 6 9210.19 9371.01 515.33 o
2 -6 -6 9109.01 9196.59 381.87 o
3 6 6 4190.05 3705.06 508.72 o
3 -6 -6 4316.18 4282.49 410.94 o
4 6 6 3892.98 2946.61 506.08 o
4 -6 -6 3817.06 3567.64 462.47 o
5 6 6 1301.05 1276.42 543.07 o
5 -6 -6 1370.79 917.02 510.04 <
6 6 6 1264.31 915.70 638.21 <
6 -6 -6 1220.45 746.56 601.21 <
0 -8 -6 193.50 23.78 590.64 <
1 8 6 63.21 -46.25 597.25 <
1 -8 -6 134.64 207.45 364.69 <
2 8 6 288.42 403.01 545.72 <
2 -8 -6 184.48 358.09 389.80 <
3 8 6 58.41 391.12 573.47 <
3 -8 -6 119.12 130.81 418.87 <
4 8 6 348.69 352.80 574.79 <
4 -8 -6 283.00 305.23 449.26 <
5 8 6 157.76 202.17 570.82 <
5 -8 -6 198.61 243.13 504.76 <
0 -10 -6 2440.36 1954.28 532.50 o
1 -10 -6 2277.18 1707.18 438.69 o
2 -10 -6 1763.11 1244.71 450.58 o
0 -9 7 2969.19 2821.08 667.28 o
1 -9 7 2718.23 2499.99 557.61 o
2 -9 7 2136.54 1987.31 594.61 o
2 9 -7 2161.18 297.30 528.54 <
3 -9 7 1440.56 1193.18 702.96 <
3 9 -7 1374.67 1289.64 866.80 <
0 -7 7 243.42 327.70 794.13 <
1 -7 7 96.88 190.27 477.01 <
1 7 -7 35.77 313.16 774.31 <
2 -7 7 257.80 480.97 498.15 <
2 7 -7 413.49 556.29 706.92 <
3 -7 7 147.93 332.98 573.47 <
3 7 -7 86.68 97.78 733.35 <
4 -7 7 349.52 470.40 688.42 <
4 7 -7 442.08 17.18 762.42 <
5 -7 7 233.39 68.71 770.35 <
5 7 -7 186.19 149.31 776.95 <
0 -5 7 8881.98 9933.90 761.10 o
0 5 -7 8992.01 8752.62 804.70 o
1 -5 7 6222.31 6551.25 537.79 o
1 5 -7 5951.00 5188.94 763.74 o
2 -5 7 6586.65 7200.03 487.58 o
2 5 -7 6694.74 6039.89 652.75 o
3 -5 7 3367.34 3072.14 652.75 o
3 5 -7 3180.37 3019.28 643.50 o
4 -5 7 2989.27 2667.80 627.64 o
4 5 -7 3079.24 2624.20 660.67 o
5 -5 7 1210.43 992.33 644.82 <
5 5 -7 1112.76 465.11 687.10 <
6 -5 7 1048.64 665.96 720.14 <
6 5 -7 1104.31 572.14 757.13 <
0 -3 7 2596.04 2942.64 594.61 o
0 3 -7 2931.43 2465.64 746.56 o
1 -3 7 874.18 861.52 440.01 <
1 3 -7 748.47 1017.44 597.25 <
2 -3 7 2519.23 2858.08 552.32 o
2 3 -7 2793.84 2727.26 562.90 o
3 -3 7 934.66 926.27 517.97 <
3 3 -7 818.37 897.20 586.68 <
4 -3 7 2037.14 1540.69 560.25 o
4 3 -7 2196.67 1914.63 577.43 o
5 -3 7 742.22 625.00 566.86 <
5 3 -7 659.20 597.25 601.21 <
6 -3 7 1168.67 1004.23 648.78 <
6 3 -7 1242.89 1099.36 655.39 <
0 -1 7 9458.75 10228.60 603.86 o
0 1 -7 9537.34 10294.60 710.89 o
1 -1 7 4756.00 4648.51 437.37 o
1 1 -7 4481.84 4611.51 578.75 o
2 -1 7 7618.43 8087.98 520.61 o
2 1 -7 7699.85 7992.84 561.57 o
3 -1 7 3002.25 2934.72 484.93 o
3 1 -7 2821.06 2447.14 502.11 o
4 -1 7 4226.47 4252.10 514.01 o
4 1 -7 4299.35 3831.91 523.25 o
5 -1 7 1362.12 1054.44 535.15 <
5 1 -7 1273.21 816.59 553.65 <
6 -1 7 1805.79 1364.95 581.39 o
6 1 -7 1852.18 1383.45 594.61 o
7 -1 7 499.65 239.16 651.42 <
7 1 -7 462.58 240.49 676.53 <
0 1 7 9421.49 9546.75 557.61 o
0 -1 -7 9574.60 10348.80 614.43 o
1 1 7 4601.30 4525.62 413.58 o
1 -1 -7 4636.54 4641.90 450.58 o
2 1 7 7599.43 7633.43 499.47 o
2 -1 -7 7718.84 6357.01 516.65 o
3 1 7 2909.48 2563.42 458.51 o
3 -1 -7 2913.84 2764.26 479.65 o
4 1 7 4232.71 4056.54 494.18 o
4 -1 -7 4293.11 3698.46 494.18 o
5 1 7 1323.92 1251.32 515.33 o
5 -1 -7 1311.40 1277.74 525.90 o
6 1 7 1817.21 1679.43 584.04 o
6 -1 -7 1840.76 1378.17 580.07 o
7 1 7 486.19 228.59 665.96 <
7 -1 -7 476.04 232.56 638.21 <
0 3 7 2835.01 2986.25 510.04 o
0 -3 -7 2692.46 2799.94 521.93 o
1 3 7 821.76 903.80 380.55 o
1 -3 -7 800.89 913.05 373.94 o
2 3 7 2710.89 2743.12 492.86 o
2 -3 -7 2602.19 2174.94 366.01 o
3 3 7 877.17 776.95 453.22 <
3 -3 -7 875.85 943.44 442.65 o
4 3 7 2142.80 2017.70 495.51 o
4 -3 -7 2091.02 1255.28 515.33 o
5 3 7 695.95 621.03 515.33 <
5 -3 -7 705.48 356.76 560.25 <
6 3 7 1215.20 722.78 585.36 <
6 -3 -7 1196.35 399.05 568.18 <
0 5 7 8955.75 8820.00 585.36 o
0 -5 -7 8918.24 8144.80 590.64 o
1 5 7 6012.55 5544.38 486.26 o
1 -5 -7 6160.76 5622.34 417.55 o
2 5 7 6660.62 5965.89 494.18 o
2 -5 -7 6620.78 6239.41 383.19 o
3 5 7 3224.87 2740.48 510.04 o
3 -5 -7 3322.84 2864.68 430.76 o
4 5 7 3052.93 2930.75 532.50 o
4 -5 -7 3015.58 2778.80 502.11 o
5 5 7 1137.45 849.63 487.58 <
5 -5 -7 1185.74 1132.40 606.50 <
6 5 7 1088.87 738.63 644.82 <
6 -5 -7 1064.08 1059.72 832.45 <
0 7 7 396.21 220.66 584.04 <
0 -7 -7 279.01 544.40 597.25 <
1 7 7 47.32 284.09 585.36 <
1 -7 -7 85.34 323.73 362.05 <
2 7 7 384.08 147.99 544.40 <
2 -7 -7 287.21 350.16 396.40 <
3 7 7 98.25 306.55 565.54 <
3 -7 -7 136.36 260.31 442.65 <
4 7 7 424.59 463.79 574.79 <
4 -7 -7 367.01 425.47 525.90 <
5 7 7 195.11 0.00 610.46 <
5 -7 -7 224.47 440.01 606.50 <
0 -9 -7 2969.52 1371.56 446.62 o
1 -9 -7 2702.90 1964.85 442.65 o
2 9 7 2159.70 1933.13 672.57 o
2 -9 -7 2138.01 1543.34 469.08 o
3 9 7 1384.87 792.81 698.99 <
3 -9 -7 1430.35 1079.54 502.11 o
0 -8 8 3591.84 3073.46 709.56 o
1 -8 8 3262.24 2509.24 597.25 o
1 8 -8 3169.96 -107.03 400.37 <
2 -8 8 2557.31 2235.72 627.64 o
2 8 -8 2577.80 2192.12 845.66 o
3 -8 8 1692.13 1094.08 685.78 <
3 8 -8 1628.98 1062.36 922.30 <
0 -6 8 199.78 310.52 784.88 <
0 6 -8 350.59 214.06 767.70 <
1 -6 8 139.08 240.49 488.90 <
1 6 -8 86.34 -64.75 803.38 <
2 -6 8 178.82 274.84 517.97 <
2 6 -8 304.05 30.39 720.14 <
3 -6 8 131.05 11.89 737.31 <
3 6 -8 79.09 150.63 728.06 <
4 -6 8 274.28 613.11 721.46 <
4 6 -8 349.63 257.66 757.13 <
5 -6 8 219.71 975.16 783.56 <
0 -4 8 9273.71 10018.50 709.56 o
0 4 -8 9365.97 8401.14 886.62 o
1 -4 8 7041.65 6627.89 508.72 o
1 4 -8 6867.09 2917.54 455.86 o
2 -4 8 6738.74 6659.60 589.32 o
2 4 -8 6826.77 5746.55 668.60 o
3 -4 8 3704.85 3554.43 603.86 o
3 4 -8 3580.06 2497.35 712.21 o
4 -4 8 2891.07 2422.03 617.07 o
4 4 -8 2960.81 2530.38 650.10 o
5 -4 8 1271.86 1061.04 671.24 <
5 4 -8 1203.44 426.80 757.13 <
0 -2 8 760.10 651.42 603.86 <
0 2 -8 919.46 751.85 746.56 <
1 -2 8 555.84 206.13 446.62 <
1 2 -8 445.82 261.63 630.28 <
2 -2 8 879.11 1012.15 508.72 <
2 2 -8 1015.32 946.09 632.93 <
3 -2 8 569.34 352.80 503.43 <
3 2 -8 479.37 239.16 535.15 <
4 -2 8 1033.39 812.63 545.72 <
4 2 -8 1120.82 352.80 763.74 <
5 -2 8 564.43 409.62 603.86 <
5 2 -8 506.82 494.18 618.39 <
6 -2 8 762.11 355.44 669.92 <
6 2 -8 806.79 285.41 655.39 <
0 0 8 12825.10 12671.70 621.03 o
0 0 -8 12916.00 13639.00 754.49 o
1 0 8 8577.98 8366.78 467.76 o
1 0 -8 8497.35 8472.49 585.36 o
2 0 8 9423.42 9215.09 506.08 o
2 0 -8 9502.51 8817.36 606.50 o
3 0 8 4581.87 3796.24 488.90 o
3 0 -8 4519.04 3949.51 527.22 o
4 0 8 4182.83 3857.02 516.65 o
4 0 -8 4235.41 3883.44 560.25 o
5 0 8 1624.57 1223.57 589.32 o
5 0 -8 1586.48 1547.30 581.39 o
6 0 8 1435.40 1384.77 651.42 o
6 0 -8 1463.03 593.29 659.35 <
0 2 8 841.95 549.68 548.36 <
0 -2 -8 837.61 886.62 695.03 <
1 2 8 522.64 173.10 424.15 <
1 -2 -8 479.01 194.24 425.47 <
2 2 8 947.74 766.38 441.33 <
2 -2 -8 946.69 835.09 471.72 <
3 2 8 537.51 326.37 498.15 <
3 -2 -8 511.20 401.69 492.86 <
4 2 8 1075.48 853.59 499.47 <
4 -2 -8 1078.73 968.55 543.07 <
5 2 8 541.08 469.08 562.90 <
5 -2 -8 530.18 632.93 578.75 <
6 2 8 782.68 507.40 623.68 <
6 -2 -8 786.22 656.71 660.67 <
0 4 8 9316.33 8535.91 614.43 o
0 -4 -8 9323.36 9212.45 627.64 o
1 4 8 6923.38 6656.96 425.47 o
1 -4 -8 6985.36 6349.08 420.19 o
2 4 8 6783.22 5513.99 502.11 o
2 -4 -8 6782.29 6551.25 422.83 o
3 4 8 3621.55 2698.19 512.68 o
3 -4 -8 3663.36 2938.68 488.90 o
4 4 8 2930.99 2406.18 529.86 o
4 -4 -8 2920.89 2359.93 597.25 o
5 4 8 1227.31 1024.05 590.64 <
5 -4 -8 1247.98 926.27 831.13 <
0 6 8 315.72 -451.90 541.75 <
0 -6 -8 234.65 -186.31 627.64 <
1 6 8 104.84 289.38 549.68 <
1 -6 -8 120.58 13.21 321.09 <
2 6 8 274.64 636.89 554.97 <
2 -6 -8 208.24 302.59 417.55 <
3 6 8 95.18 453.22 554.97 <
3 -6 -8 114.96 212.74 458.51 <
4 6 8 331.24 430.76 602.53 <
4 -6 -8 292.67 470.40 561.57 <
5 6 8 191.22 893.23 668.60 <
5 -6 -8 208.65 309.20 734.67 <
0 -8 -8 3594.91 3039.10 712.21 o
1 8 8 3187.40 2197.40 650.10 o
1 -8 -8 3244.81 2279.33 457.19 o
2 8 8 2573.93 1778.54 663.32 o
2 -8 -8 2561.18 1868.39 477.01 o
3 8 8 1640.91 1108.61 662.00 <
3 -8 -8 1680.20 1197.14 532.50 o
0 -7 9 3111.56 2720.66 1014.80 o
1 -7 9 2932.17 1865.74 594.61 o
1 7 -9 2847.60 2067.91 988.37 o
2 -7 9 2233.69 1703.22 638.21 o
2 7 -9 2245.42 1680.76 920.98 <
3 -7 9 1554.06 798.09 827.16 <
3 7 -9 1497.28 1432.34 906.45 <
0 -5 9 242.06 436.05 757.13 <
0 5 -9 366.36 654.07 1002.90 <
1 -5 9 125.05 307.87 543.07 <
1 5 -9 96.66 -21.14 840.38 <
2 -5 9 267.33 319.77 640.85 <
2 5 -9 369.35 577.43 794.13 <
3 -5 9 217.41 240.49 738.63 <
3 5 -9 184.60 236.52 831.13 <
4 -5 9 326.11 443.97 718.81 <
4 5 -9 385.68 506.08 772.99 <
0 -3 9 4317.03 3779.06 696.35 o
0 3 -9 4358.95 3427.58 947.41 o
1 -3 9 3709.53 3033.82 521.93 o
1 3 -9 3574.94 2991.53 746.56 o
2 -3 9 3314.39 3054.96 618.39 o
2 3 -9 3358.36 3251.84 746.56 o
3 -3 9 2204.34 1889.53 589.32 o
3 3 -9 2111.93 1748.14 647.46 o
4 -3 9 1640.13 1310.78 631.60 o
4 3 -9 1680.37 1293.60 672.57 <
5 -3 9 916.59 713.53 693.71 <
5 3 -9 868.58 355.44 726.74 <
0 -1 9 2035.66 1984.67 581.39 o
0 1 -9 2163.00 2251.58 819.24 o
1 -1 9 1552.43 1363.63 514.01 o
1 1 -9 1519.87 1411.20 688.42 o
2 -1 9 1811.45 1793.07 494.18 o
2 1 -9 1915.36 1958.24 635.57 o
3 -1 9 1235.58 1343.81 586.68 o
3 1 -9 1200.51 787.52 597.25 <
4 -1 9 1242.71 1248.67 586.68 o
4 1 -9 1302.56 1031.97 655.39 <
5 -1 9 742.55 857.55 630.28 <
5 1 -9 714.34 700.32 651.42 <
0 1 9 2102.30 2085.09 593.29 o
0 -1 -9 2096.36 2399.57 695.03 o
1 1 9 1575.44 1298.89 466.44 o
1 -1 -9 1496.86 1481.23 533.83 o
2 1 9 1862.56 1539.37 486.26 o
2 -1 -9 1864.24 1894.81 591.96 o
3 1 9 1243.44 1145.61 528.54 o
3 -1 -9 1192.65 1067.65 627.64 <
4 1 9 1267.23 1224.89 553.65 o
4 -1 -9 1278.03 909.09 606.50 <
5 1 9 740.36 591.96 610.46 <
5 -1 -9 716.53 531.18 636.89 <
0 3 9 4319.73 3707.71 590.64 o
0 -3 -9 4356.25 3627.10 668.60 o
1 3 9 3622.03 2842.22 467.76 o
1 -3 -9 3662.43 2773.51 478.33 o
2 3 9 3323.04 2340.11 561.57 o
2 -3 -9 3349.71 2341.43 418.87 o
3 3 9 2147.46 1109.93 536.47 o
3 -3 -9 2168.81 1355.70 610.46 o
4 3 9 1655.06 1667.54 569.50 o
4 -3 -9 1665.44 751.85 492.86 <
5 3 9 889.48 763.74 656.71 <
5 -3 -9 895.69 354.12 662.00 <
0 5 9 332.84 339.59 614.43 <
0 -5 -9 275.57 323.73 627.64 <
1 5 9 115.58 280.13 628.96 <
1 -5 -9 106.12 290.70 463.79 <
2 5 9 340.91 662.00 535.15 <
2 -5 -9 295.78 502.11 465.11 <
3 5 9 200.93 21.14 581.39 <
3 -5 -9 201.08 515.33 541.75 <
4 5 9 367.63 628.96 617.07 <
4 -5 -9 344.16 479.65 688.42 <
0 -7 -9 3116.42 2350.68 770.35 o
1 7 9 2866.34 1869.71 705.60 o
1 -7 -9 2913.44 1697.93 438.69 o
2 7 9 2240.02 1374.20 676.53 o
2 -7 -9 2239.08 1803.64 498.15 o
3 7 9 1510.25 1368.92 669.92 o
3 -7 -9 1541.09 718.81 562.90 <
0 -6 10 2680.75 2032.23 909.09 o
0 6 -10 2687.53 0.00 615.75 <
1 -6 10 2648.76 1690.01 640.85 o
1 6 -10 2587.40 1530.12 1041.22 <
2 -6 10 1926.84 1152.22 841.70 <
2 6 -10 1937.16 928.91 887.95 <
0 -4 10 153.90 272.20 758.45 <
0 4 -10 227.93 443.97 1098.04 <
1 -4 10 134.16 170.45 585.36 <
1 4 -10 107.77 301.27 954.01 <
2 -4 10 171.79 84.57 705.60 <
2 4 -10 233.42 194.24 846.98 <
3 -4 10 208.89 524.58 738.63 <
3 4 -10 183.02 120.24 849.63 <
4 -4 10 229.13 212.74 735.99 <
4 4 -10 266.47 124.21 864.16 <
0 -2 10 3742.42 3373.40 720.14 o
0 2 -10 3782.66 3324.51 1021.40 o
1 -2 10 3587.53 2547.56 625.00 o
1 2 -10 3525.43 2632.13 898.52 o
2 -2 10 2800.44 2307.08 650.10 o
2 2 -10 2837.71 2396.93 769.03 o
3 -2 10 2072.98 1767.96 614.43 o
3 2 -10 2027.51 1257.92 692.39 <
4 -2 10 1295.34 1343.81 663.32 o
4 2 -10 1323.60 281.45 564.22 <
0 0 10 417.00 400.37 685.78 <
0 0 -10 453.50 772.99 881.34 <
1 0 10 454.40 395.08 537.79 <
1 0 -10 415.25 484.93 709.56 <
2 0 10 457.62 515.33 591.96 <
2 0 -10 490.03 384.51 897.20 <
3 0 10 508.18 424.15 618.39 <
3 0 -10 478.28 554.97 638.21 <
4 0 10 474.02 749.21 614.43 <
4 0 -10 496.70 268.23 664.64 <
5 0 10 436.35 262.95 693.71 <
5 0 -10 418.40 447.94 722.78 <
0 2 10 3747.89 3140.85 692.39 o
0 -2 -10 3777.19 1678.11 639.53 o
1 2 10 3557.91 2703.48 532.50 o
1 -2 -10 3555.05 2751.05 658.03 o
2 2 10 2807.27 2318.97 547.04 o
2 -2 -10 2830.88 2613.63 791.49 o
3 2 10 2052.76 1265.85 591.96 o
3 -2 -10 2047.73 1433.66 647.46 o
4 2 10 1302.89 1071.61 618.39 <
4 -2 -10 1316.05 1378.17 722.78 <
0 4 10 202.43 38.32 705.60 <
0 -4 -10 179.40 375.26 745.24 <
1 4 10 128.03 9.25 630.28 <
1 -4 -10 113.89 169.13 551.00 <
2 4 10 211.33 403.01 635.57 <
2 -4 -10 193.89 281.45 549.68 <
3 4 10 199.28 103.07 603.86 <
3 -4 -10 192.64 317.12 771.67 <
4 4 10 251.77 410.94 650.10 <
4 -4 -10 243.84 322.41 721.46 <
0 6 10 2680.13 2244.97 798.09 o
0 -6 -10 2688.15 2001.84 803.38 o
1 6 10 2603.43 1563.16 658.03 o
1 -6 -10 2632.73 1156.18 447.94 o
2 6 10 1929.92 1343.81 675.21 <
2 -6 -10 1934.08 1497.09 549.68 o
0 -5 11 1630.70 1026.69 932.87 <
0 5 -11 1633.20 1345.13 1256.60 <
1 -5 11 1774.67 775.63 735.99 <
1 5 -11 1731.99 854.91 1176.00 <
0 -3 11 246.09 453.22 858.88 <
0 3 -11 294.52 496.83 1310.78 <
1 -3 11 319.95 389.80 841.70 <
1 3 -11 308.61 418.87 628.96 <
2 -3 11 255.90 597.25 735.99 <
2 3 -11 295.87 758.45 1012.15 <
3 -3 11 336.83 240.49 729.39 <
3 3 -11 323.71 507.40 910.41 <
0 -1 11 1148.48 1125.79 817.91 <
0 1 -11 1159.87 1189.21 1158.82 <
1 -1 11 1372.72 1170.72 755.81 <
1 1 -11 1330.90 1029.33 1050.47 <
2 -1 11 942.34 832.45 680.49 <
2 1 -11 954.80 562.90 833.77 <
3 -1 11 945.11 825.84 643.50 <
3 1 -11 916.18 377.91 664.64 <
0 1 11 1137.91 1038.58 783.56 <
0 -1 -11 1170.44 1179.96 1001.58 <
1 1 11 1353.14 998.94 656.71 <
1 -1 -11 1350.48 976.48 667.28 <
2 1 11 935.37 775.63 664.64 <
2 -1 -11 961.77 980.44 757.13 <
3 1 11 933.39 380.55 692.39 <
3 -1 -11 927.91 708.24 783.56 <
0 3 11 275.50 184.99 800.74 <
0 -3 -11 265.10 623.68 902.48 <
1 3 11 323.67 525.90 679.17 <
1 -3 -11 304.89 495.51 665.96 <
2 3 11 279.33 151.96 677.85 <
2 -3 -11 272.44 406.98 823.20 <
3 3 11 335.90 39.64 716.17 <
3 -3 -11 324.64 322.41 739.96 <
0 5 11 1626.05 998.94 861.52 <
0 -5 -11 1637.84 1253.96 928.91 <
1 5 11 1744.97 1112.58 769.03 <
1 -5 -11 1761.68 631.60 500.79 <
0 -2 12 120.42 33.03 1053.12 <
0 2 -12 140.72 384.51 1580.33 <
1 -2 12 223.44 85.89 883.98 <
1 2 -12 212.21 17.18 819.24 <
0 0 12 1074.66 874.73 961.94 <
0 0 -12 1088.30 971.19 1355.70 <
1 0 12 1362.20 237.84 843.02 <
1 0 -12 1350.59 1503.70 1142.97 <
0 2 12 129.72 191.60 935.52 <
0 -2 -12 131.42 71.35 1213.00 <
1 2 12 223.47 31.71 832.45 <
1 -2 -12 212.18 229.91 971.19 <
loop_
_twin_individual_id
_twin_individual_mass_fraction_refined
_twin_individual_twin_matrix_11
_twin_individual_twin_matrix_12
_twin_individual_twin_matrix_13
_twin_individual_twin_matrix_21
_twin_individual_twin_matrix_22
_twin_individual_twin_matrix_23
_twin_individual_twin_matrix_31
_twin_individual_twin_matrix_32
_twin_individual_twin_matrix_33
1 0.35(8) 1 0 0 0 1 0 0 0 1
2 0.38(4) -1 0 0 0 0 -1 0 -1 0
3 0.26(7) -1 0 0 0 -1 0 0 0 -1
loop_
_restr_distance_atom_site_label_1
_restr_distance_atom_site_label_2
_restr_distance_target
_restr_distance_target_weight_param
C1 N1 1.3 0.001
loop_
_restr_angle_atom_site_label_1
_restr_angle_site_symmetry_1
_restr_angle_atom_site_label_2
_restr_angle_atom_site_label_3
_restr_angle_target
_restr_angle_target_weight_param
N1 2_665 C1 N1 130 0.01
