#------------------------------------------------------------------------------
#$Date: 2019-11-25 23:48:37 +0200 (Mon, 25 Nov 2019) $
#$Revision: 242091 $
#$URL: file:///home/coder/svn-repositories/cod/cif/4/13/20/4132049.cif $
#------------------------------------------------------------------------------
#
# This file is available in the Crystallography Open Database (COD),
# http://www.crystallography.net/
#
# All data on this site have been placed in the public domain by the
# contributors.
#
data_4132049
loop_
_publ_author_name
'Spanopoulos, Ioannis'
'Ke, Weijun'
'Stoumpos, Constantinos C.'
'Schueller, Emily C.'
'Kontsevoi, Oleg Y.'
'Seshadri, Ram'
'Kanatzidis, Mercouri G.'
_publ_section_title
;
 Unraveling the Chemical Nature of the 3D &quot;Hollow&quot; Hybrid Halide
 Perovskites.
;
_journal_issue                   17
_journal_name_full               'Journal of the American Chemical Society'
_journal_page_first              5728
_journal_page_last               5742
_journal_paper_doi               10.1021/jacs.8b01034
_journal_volume                  140
_journal_year                    2018
_chemical_formula_moiety
(H2NCHNH2)0.61(H3NCH2CH2NH3)0.39(Pb)0.727(I)2.844
_chemical_formula_sum            'C H0 I3 N2 Pb0.755'
_chemical_formula_weight         577.2
_chemical_name_common
'39% ethylenediamonium formamidinium lead iodide'
_space_group_IT_number           127
_space_group_name_Hall           '-P 4 2ab'
_space_group_name_H-M_alt        'P 4/m b m'
_symmetry_cell_setting           tetragonal
_symmetry_Int_Tables_number      127
_symmetry_space_group_name_Hall  '-P 4 2ab'
_symmetry_space_group_name_H-M   'P 4/m b m'
_cell_angle_alpha                90
_cell_angle_beta                 90
_cell_angle_gamma                90
_cell_formula_units_Z            2
_cell_length_a                   9.0452(8)
_cell_length_b                   9.0452(8)
_cell_length_c                   6.4036(11)
_cell_measurement_reflns_used    1604
_cell_measurement_temperature    293
_cell_measurement_theta_max      23.85
_cell_measurement_theta_min      3.18
_cell_volume                     523.91(11)
_diffrn_ambient_temperature      293
_diffrn_detector                 'image plate (34 cm diameter)'
_diffrn_detector_area_resol_mean 6.67
_diffrn_measured_fraction_theta_full 0.99
_diffrn_measured_fraction_theta_max 0.99
_diffrn_measurement_device       'four-circle diffractometer'
_diffrn_measurement_device_type  'IPDS Stoe'
_diffrn_measurement_method       'rotation method'
_diffrn_radiation_monochromator  graphite
_diffrn_radiation_probe          x-ray
_diffrn_radiation_source         'X-ray tube'
_diffrn_radiation_type           'Mo K\a'
_diffrn_radiation_wavelength     0.71073
_diffrn_reflns_av_R_equivalents  0.1301
_diffrn_reflns_av_unetI/netI     0.0191
_diffrn_reflns_limit_h_max       12
_diffrn_reflns_limit_h_min       -12
_diffrn_reflns_limit_k_max       12
_diffrn_reflns_limit_k_min       -12
_diffrn_reflns_limit_l_max       8
_diffrn_reflns_limit_l_min       -8
_diffrn_reflns_number            4394
_diffrn_reflns_theta_full        29.18
_diffrn_reflns_theta_max         29.18
_diffrn_reflns_theta_min         3.18
_diffrn_source
'sealed X-ray tube, 12 x 0.4 mm long-fine focus'
_diffrn_source_current           40
_diffrn_source_power             1.20
_diffrn_source_voltage           50
_exptl_absorpt_coefficient_mu    20.948
_exptl_absorpt_correction_T_max  0.2492
_exptl_absorpt_correction_T_min  0.1434
_exptl_absorpt_correction_type   integration
_exptl_absorpt_process_details   X-Shape
_exptl_crystal_colour            red
_exptl_crystal_density_diffrn    3.6587
_exptl_crystal_description       'Red octahedron'
_exptl_crystal_F_000             482
_exptl_crystal_size_max          0.0567
_exptl_crystal_size_mid          0.0403
_exptl_crystal_size_min          0.0323
_refine_diff_density_max         2.48
_refine_diff_density_min         -3.05
_refine_ls_extinction_method     none
_refine_ls_goodness_of_fit_gt    3.01
_refine_ls_goodness_of_fit_ref   2.86
_refine_ls_hydrogen_treatment    constr
_refine_ls_number_constraints    1
_refine_ls_number_parameters     14
_refine_ls_number_reflns         419
_refine_ls_number_restraints     2
_refine_ls_R_factor_all          0.0664
_refine_ls_R_factor_gt           0.0606
_refine_ls_shift/su_max          0.0437
_refine_ls_shift/su_mean         0.0162
_refine_ls_structure_factor_coef Fsqd
_refine_ls_weighting_details     w=1/(\s^2^(I)+0.0004I^2^)
_refine_ls_weighting_scheme      sigma
_refine_ls_wR_factor_gt          0.1071
_refine_ls_wR_factor_ref         0.1077
_reflns_number_gt                378
_reflns_number_total             419
_reflns_threshold_expression     I>2\s(I)
_cod_data_source_file            ja8b01034_si_009.cif
_cod_data_source_block           39%_EN_FAPbI3-centro
_cod_depositor_comments
;
The following automatic conversions were performed:

data item '_diffrn_radiation_probe' value 'X-ray' was changed to
'x-ray' in accordance with the
/home/saulius/struct/COD-crude-data/automatic-downloads/DataCite-retrospective/ACS/depositions/lib/dictionaries/cif_core.dic
dictionary named 'cif_core.dic' version 2.4.2 last updated on
2011-04-26.

data item '_exptl_absorpt_correction_type' value 'Integration' was
changed to 'integration' in accordance with the
/home/saulius/struct/COD-crude-data/automatic-downloads/DataCite-retrospective/ACS/depositions/lib/dictionaries/cif_core.dic
dictionary named 'cif_core.dic' version 2.4.2 last updated on
2011-04-26.

Automatic conversion script
Id: cif_fix_values 6909 2019-04-08 15:41:33Z antanas 
;
_cod_original_sg_symbol_Hall     '-P 4;-2ab'
_cod_original_formula_sum        'C1 H0 I3 N2 Pb0.755'
_cod_database_code               4132049
loop_
_space_group_symop_id
_space_group_symop_operation_xyz
1 x,y,z
2 -x,-y,z
3 -y,x,z
4 y,-x,z
5 -x+1/2,y+1/2,-z
6 x+1/2,-y+1/2,-z
7 y+1/2,x+1/2,-z
8 -y+1/2,-x+1/2,-z
9 -x,-y,-z
10 x,y,-z
11 y,-x,-z
12 -y,x,-z
13 x+1/2,-y+1/2,z
14 -x+1/2,y+1/2,z
15 -y+1/2,-x+1/2,z
16 y+1/2,x+1/2,z
loop_
_atom_site_label
_atom_site_type_symbol
_atom_site_fract_x
_atom_site_fract_y
_atom_site_fract_z
_atom_site_adp_type
_atom_site_U_iso_or_equiv
_atom_site_site_symmetry_multiplicity
_atom_site_occupancy
_atom_site_calc_flag
I1 I 0 0 0 Uani 0.0853(8) 2 1 d
Pb1 Pb 0 0 0.5 Uani 0.0577(5) 2 0.755(7) d
I2 I 0.2152(3) 0.7152(3) 0.5 Uani 0.1218(10) 4 1 d
C C 0 0.5 0 Uiso 0.179(18) 2 1 d
N N 0.1071(17) 0.3929(17) -0.095(8) Uiso 0.179(18) 8 0.5 d
loop_
_atom_site_aniso_label
_atom_site_aniso_type_symbol
_atom_site_aniso_U_11
_atom_site_aniso_U_22
_atom_site_aniso_U_33
_atom_site_aniso_U_12
_atom_site_aniso_U_13
_atom_site_aniso_U_23
I1 I 0.1067(15) 0.1067(15) 0.0424(12) 0 0 0
Pb1 Pb 0.0594(8) 0.0594(8) 0.0542(10) 0 0 0
I2 I 0.1329(18) 0.1329(18) 0.0998(15) 0.0780(18) 0 0
loop_
_atom_type_symbol
_atom_type_scat_dispersion_real
_atom_type_scat_dispersion_imag
_atom_type_scat_source
C 0.0033 0.0016 'International Tables Vol C tables 4.2.6.8 and 6.1.1.1'
H 0.0000 0.0000 'International Tables Vol C tables 4.2.6.8 and 6.1.1.1'
I -0.4742 1.8119 'International Tables Vol C tables 4.2.6.8 and 6.1.1.1'
N 0.0061 0.0033 'International Tables Vol C tables 4.2.6.8 and 6.1.1.1'
Pb -3.3944 10.1111 'International Tables Vol C tables 4.2.6.8 and 6.1.1.1'
loop_
_exptl_crystal_face_index_h
_exptl_crystal_face_index_k
_exptl_crystal_face_index_l
_exptl_crystal_face_perp_dist
30 -20 -23 0.0567
-5 -30 -11 0.0403
-1 -2 -30 0.0561
7 30 11 0.0323
-30 1 -20 0.0437
30 23 -19 0.0456
-3 30 28 0.0513
30 -30 9 0.0558
-21 -30 -3 0.0433
21 30 11 0.0357
-5 -19 30 0.0450
-30 29 -10 0.0475
loop_
_geom_angle_atom_site_label_1
_geom_angle_atom_site_label_2
_geom_angle_atom_site_label_3
_geom_angle_site_symmetry_1
_geom_angle_site_symmetry_3
_geom_angle
Pb1 I1 Pb1 1_554 . 180.0(5)
I1 Pb1 I1 . 1_556 180.0(5)
I1 Pb1 I2 . 1_545 90
I1 Pb1 I2 . 2_565 90
I1 Pb1 I2 . 3_655 90
I1 Pb1 I2 . 4_455 90
I1 Pb1 I2 1_556 1_545 90
I1 Pb1 I2 1_556 2_565 90
I1 Pb1 I2 1_556 3_655 90
I1 Pb1 I2 1_556 4_455 90
I2 Pb1 I2 1_545 2_565 180.0(5)
I2 Pb1 I2 1_545 3_655 90.00(7)
I2 Pb1 I2 1_545 4_455 90.00(7)
I2 Pb1 I2 2_565 3_655 90.00(7)
I2 Pb1 I2 2_565 4_455 90.00(7)
I2 Pb1 I2 3_655 4_455 180.0(5)
Pb1 I2 Pb1 1_565 5_556 164.15(9)
loop_
_geom_bond_atom_site_label_1
_geom_bond_atom_site_label_2
_geom_bond_site_symmetry_2
_geom_bond_distance
I1 Pb1 1_554 3.2018(11)
I1 Pb1 . 3.2018(11)
Pb1 I2 1_545 3.229(3)
Pb1 I2 2_565 3.229(3)
Pb1 I2 3_655 3.229(3)
Pb1 I2 4_455 3.229(3)
loop_
_twin_individual_id
_twin_individual_mass_fraction_refined
_twin_individual_twin_matrix_11
_twin_individual_twin_matrix_12
_twin_individual_twin_matrix_13
_twin_individual_twin_matrix_21
_twin_individual_twin_matrix_22
_twin_individual_twin_matrix_23
_twin_individual_twin_matrix_31
_twin_individual_twin_matrix_32
_twin_individual_twin_matrix_33
1 0.940(6) 1 0 0 0 1 0 0 0 1
2 0 -1 0 0 0 -1 0 0 0 -1
3 0.060(6) -0.5 0.5 0.5 0.5 -0.5 0.5 1 1 0
loop_
_restr_distance_atom_site_label_1
_restr_distance_atom_site_label_2
_restr_distance_target
_restr_distance_target_weight_param
C N 1.5 0.001
loop_
_restr_angle_atom_site_label_1
_restr_angle_atom_site_label_2
_restr_angle_atom_site_label_3
_restr_angle_target
_restr_angle_target_weight_param
N C N 130 0.01
loop_
_twin_refln_datum_id
_twin_refln_individual_id
_twin_refln_index_h
_twin_refln_index_k
_twin_refln_index_l
_twin_refln_f_squared_calc
_twin_refln_f_squared_meas
_twin_refln_f_squared_sigma
_twin_refln_include_status
1 3 1 -1 0 27880.00 24108.50 308.23 o
1 2 1 -1 0 27880.00 24108.50 308.23 o
1 1 -1 1 0 27880.00 24108.50 308.23 o
2 3 0 0 1 28053.50 19846.20 165.37 o
2 2 -1 -1 0 28053.50 19846.20 165.37 o
2 1 1 1 0 28053.50 19846.20 165.37 o
3 3 1 -1 1 2617.81 2890.29 64.29 o
3 2 0 -2 0 2617.81 2890.29 64.29 o
3 1 0 2 0 2617.81 2890.29 64.29 o
4 2 -1 -2 0 2616.58 2571.10 44.45 o
4 1 1 2 0 2616.58 2571.10 44.45 o
5 3 0 0 2 87549.30 80475.60 238.73 o
5 2 -2 -2 0 87549.30 80475.60 238.73 o
5 1 2 2 0 87549.30 80475.60 238.73 o
6 3 3 -3 0 4371.66 5043.81 107.39 o
6 2 3 -3 0 4371.66 5043.81 107.39 o
6 1 -3 3 0 4371.66 5043.81 107.39 o
7 3 2 -2 1 32915.70 33489.90 212.91 o
7 2 1 -3 0 32915.70 33489.90 212.91 o
7 1 -1 3 0 32915.70 33489.90 212.91 o
8 3 1 -1 2 33289.60 30214.80 107.52 o
8 2 -1 -3 0 33289.60 30214.80 107.52 o
8 1 1 3 0 33289.60 30214.80 107.52 o
9 2 -2 -3 0 1043.16 1161.33 32.79 o
9 1 2 3 0 1043.16 1161.33 32.79 o
10 3 0 0 3 4867.22 4531.99 62.47 o
10 2 -3 -3 0 4867.22 4531.99 62.47 o
10 1 3 3 0 4867.22 4531.99 62.47 o
11 3 4 -4 0 18084.20 15854.50 234.01 o
11 2 4 -4 0 18084.20 15854.50 234.01 o
11 1 -4 4 0 18084.20 15854.50 234.01 o
12 3 3 -3 1 3575.28 3568.34 70.29 o
12 2 2 -4 0 3575.28 3568.34 70.29 o
12 1 -2 4 0 3575.28 3568.34 70.29 o
13 3 2 -2 2 37067.90 35727.00 122.95 o
13 2 0 -4 0 37067.90 35727.00 122.95 o
13 1 0 4 0 37067.90 35727.00 122.95 o
14 2 -1 -4 0 4708.80 5153.14 49.23 o
14 1 1 4 0 4708.80 5153.14 49.23 o
15 3 1 -1 3 3541.02 3259.52 41.78 o
15 2 -2 -4 0 3541.02 3259.52 41.78 o
15 1 2 4 0 3541.02 3259.52 41.78 o
16 2 -3 -4 0 902.14 811.86 26.84 o
16 1 3 4 0 902.14 811.86 26.84 o
17 3 0 0 4 18818.90 17917.70 92.29 o
17 2 -4 -4 0 18818.90 17917.70 92.29 o
17 1 4 4 0 18818.90 17917.70 92.29 o
18 3 5 -5 0 384.58 559.73 78.37 o
18 2 5 -5 0 384.58 559.73 78.37 o
18 1 -5 5 0 384.58 559.73 78.37 o
19 3 4 -4 1 13824.00 14763.60 115.91 o
19 2 3 -5 0 13824.00 14763.60 115.91 o
19 1 -3 5 0 13824.00 14763.60 115.91 o
20 3 3 -3 2 6928.36 7545.97 77.80 o
20 2 1 -5 0 6928.36 7545.97 77.80 o
20 1 -1 5 0 6928.36 7545.97 77.80 o
21 3 2 -2 3 7042.91 7259.15 58.63 o
21 2 -1 -5 0 7042.91 7259.15 58.63 o
21 1 1 5 0 7042.91 7259.15 58.63 o
22 2 -2 -5 0 23.74 29.20 22.97 <
22 1 2 5 0 23.74 29.20 22.97 <
23 3 1 -1 4 14180.20 13900.10 58.21 o
23 2 -3 -5 0 14180.20 13900.10 58.21 o
23 1 3 5 0 14180.20 13900.10 58.21 o
24 2 -4 -5 0 0.40 30.83 23.99 <
24 1 4 5 0 0.40 30.83 23.99 <
25 3 0 0 5 469.55 658.12 39.81 o
25 2 -5 -5 0 469.55 658.12 39.81 o
25 1 5 5 0 469.55 658.12 39.81 o
26 3 5 -5 1 930.75 711.43 58.79 o
26 2 4 -6 0 930.75 711.43 58.79 o
26 1 -4 6 0 930.75 711.43 58.79 o
27 3 4 -4 2 8136.29 9071.45 81.07 o
27 2 2 -6 0 8136.29 9071.45 81.07 o
27 1 -2 6 0 8136.29 9071.45 81.07 o
28 3 3 -3 3 4218.12 3716.64 46.98 o
28 2 0 -6 0 4218.12 3716.64 46.98 o
28 1 0 6 0 4218.12 3716.64 46.98 o
29 2 -1 -6 0 1609.04 1772.54 30.51 o
29 1 1 6 0 1609.04 1772.54 30.51 o
30 3 2 -2 4 8431.32 8411.29 51.95 o
30 2 -2 -6 0 8431.32 8411.29 51.95 o
30 1 2 6 0 8431.32 8411.29 51.95 o
31 2 -3 -6 0 584.19 542.85 25.53 o
31 1 3 6 0 584.19 542.85 25.53 o
32 3 1 -1 5 921.55 759.32 31.60 o
32 2 -4 -6 0 921.55 759.32 31.60 o
32 1 4 6 0 921.55 759.32 31.60 o
33 2 -5 -6 0 53.11 35.24 29.93 <
33 1 5 6 0 53.11 35.24 29.93 <
34 3 0 0 6 3317.77 3508.22 52.22 o
34 2 -6 -6 0 3317.77 3508.22 52.22 o
34 1 6 6 0 3317.77 3508.22 52.22 o
35 3 6 -6 1 2680.59 2589.82 78.20 o
35 2 5 -7 0 2680.59 2589.82 78.20 o
35 1 -5 7 0 2680.59 2589.82 78.20 o
36 3 5 -5 2 933.27 1065.24 52.74 o
36 2 3 -7 0 933.27 1065.24 52.74 o
36 1 -3 7 0 933.27 1065.24 52.74 o
37 3 4 -4 3 3743.85 4186.43 62.22 o
37 2 1 -7 0 3743.85 4186.43 62.22 o
37 1 -1 7 0 3743.85 4186.43 62.22 o
38 3 3 -3 4 3782.08 3827.33 44.52 o
38 2 -1 -7 0 3782.08 3827.33 44.52 o
38 1 1 7 0 3782.08 3827.33 44.52 o
39 2 -2 -7 0 135.79 174.31 26.77 o
39 1 2 7 0 135.79 174.31 26.77 o
40 3 2 -2 5 961.96 1009.85 32.21 o
40 2 -3 -7 0 961.96 1009.85 32.21 o
40 1 3 7 0 961.96 1009.85 32.21 o
41 2 -4 -7 0 114.11 125.82 26.05 o
41 1 4 7 0 114.11 125.82 26.05 o
42 3 1 -1 6 2765.54 2549.12 34.60 o
42 2 -5 -7 0 2765.54 2549.12 34.60 o
42 1 5 7 0 2765.54 2549.12 34.60 o
43 2 -6 -7 0 10.98 27.05 33.69 <
43 1 6 7 0 10.98 27.05 33.69 <
44 3 0 0 7 42.69 73.38 42.25 <
44 2 -7 -7 0 42.69 73.38 42.25 <
44 1 7 7 0 42.69 73.38 42.25 <
45 3 7 -7 1 72.30 95.15 104.96 <
45 2 6 -8 0 72.30 95.15 104.96 <
45 1 -6 8 0 72.30 95.15 104.96 <
46 3 6 -6 2 1464.33 1936.52 65.41 o
46 2 4 -8 0 1464.33 1936.52 65.41 o
46 1 -4 8 0 1464.33 1936.52 65.41 o
47 3 5 -5 3 1312.54 1027.88 49.81 o
47 2 2 -8 0 1312.54 1027.88 49.81 o
47 1 -2 8 0 1312.54 1027.88 49.81 o
48 3 4 -4 4 1727.52 2142.07 43.79 o
48 2 0 -8 0 1727.52 2142.07 43.79 o
48 1 0 8 0 1727.52 2142.07 43.79 o
49 2 -1 -8 0 206.43 245.64 26.84 o
49 1 1 8 0 206.43 245.64 26.84 o
50 3 3 -3 5 1311.42 1087.55 38.76 o
50 2 -2 -8 0 1311.42 1087.55 38.76 o
50 1 2 8 0 1311.42 1087.55 38.76 o
51 2 -3 -8 0 181.52 182.28 26.84 o
51 1 3 8 0 181.52 182.28 26.84 o
52 3 2 -2 6 1541.91 1885.34 39.59 o
52 2 -4 -8 0 1541.91 1885.34 39.59 o
52 1 4 8 0 1541.91 1885.34 39.59 o
53 2 -5 -8 0 72.56 76.16 28.43 o
53 1 5 8 0 72.56 76.16 28.43 o
54 3 1 -1 7 72.19 55.84 32.23 <
54 2 -6 -8 0 72.19 55.84 32.23 <
54 1 6 8 0 72.19 55.84 32.23 <
55 2 -7 -8 0 5.00 114.04 32.09 o
55 1 7 8 0 5.00 114.04 32.09 o
56 3 7 -7 2 126.07 165.91 59.47 o
56 2 5 -9 0 126.07 165.91 59.47 o
56 1 -5 9 0 126.07 165.91 59.47 o
57 3 6 -6 3 730.86 762.00 57.91 o
57 2 3 -9 0 730.86 762.00 57.91 o
57 1 -3 9 0 730.86 762.00 57.91 o
58 3 5 -5 4 732.09 667.64 61.17 o
58 2 1 -9 0 732.09 667.64 61.17 o
58 1 -1 9 0 732.09 667.64 61.17 o
59 3 4 -4 5 731.38 737.76 34.36 o
59 2 -1 -9 0 731.38 737.76 34.36 o
59 1 1 9 0 731.38 737.76 34.36 o
60 2 -2 -9 0 31.61 62.45 28.67 o
60 1 2 9 0 31.61 62.45 28.67 o
61 3 3 -3 6 748.78 766.88 36.29 o
61 2 -3 -9 0 748.78 766.88 36.29 o
61 1 3 9 0 748.78 766.88 36.29 o
62 2 -4 -9 0 58.44 75.89 28.27 o
62 1 4 9 0 58.44 75.89 28.27 o
63 3 2 -2 7 126.91 197.49 36.66 o
63 2 -5 -9 0 126.91 197.49 36.66 o
63 1 5 9 0 126.91 197.49 36.66 o
64 2 -6 -9 0 27.38 61.78 34.30 <
64 1 6 9 0 27.38 61.78 34.30 <
65 3 7 -7 3 168.67 92.95 55.77 <
65 2 4 -10 0 168.67 92.95 55.77 <
65 1 -4 10 0 168.67 92.95 55.77 <
66 3 6 -6 4 321.93 501.64 56.23 o
66 2 2 -10 0 321.93 501.64 56.23 o
66 1 -2 10 0 321.93 501.64 56.23 o
67 3 5 -5 5 467.85 371.96 42.65 o
67 2 0 -10 0 467.85 371.96 42.65 o
67 1 0 10 0 467.85 371.96 42.65 o
68 2 -1 -10 0 12.42 47.62 28.61 <
68 1 1 10 0 12.42 47.62 28.61 <
69 3 4 -4 6 332.28 497.90 39.83 o
69 2 -2 -10 0 332.28 497.90 39.83 o
69 1 2 10 0 332.28 497.90 39.83 o
70 2 -3 -10 0 22.50 82.84 32.31 o
70 1 3 10 0 22.50 82.84 32.31 o
71 3 3 -3 7 168.80 140.63 36.40 o
71 2 -4 -10 0 168.80 140.63 36.40 o
71 1 4 10 0 168.80 140.63 36.40 o
72 3 1 1 0 30590.10 25603.30 181.63 o
72 2 0 0 -1 30590.10 25603.30 181.63 o
72 1 0 0 1 30590.10 25603.30 181.63 o
73 3 2 0 0 644.23 958.52 52.33 o
73 2 1 -1 -1 644.23 958.52 52.33 o
73 1 -1 1 1 644.23 958.52 52.33 o
74 3 1 1 1 509.06 873.36 41.17 o
74 2 -1 -1 -1 509.06 873.36 41.17 o
74 1 1 1 1 509.06 873.36 41.17 o
75 3 3 -1 0 16809.20 15598.40 119.87 o
75 2 2 -2 -1 16809.20 15598.40 119.87 o
75 1 -2 2 1 16809.20 15598.40 119.87 o
76 3 2 0 1 17800.10 18350.40 77.70 o
76 2 0 -2 -1 17800.10 18350.40 77.70 o
76 1 0 2 1 17800.10 18350.40 77.70 o
77 2 -1 -2 -1 4243.50 4461.93 30.55 o
77 1 1 2 1 4243.50 4461.93 30.55 o
78 3 1 1 2 16079.90 15241.40 75.17 o
78 2 -2 -2 -1 16079.90 15241.40 75.17 o
78 1 2 2 1 16079.90 15241.40 75.17 o
79 3 4 -2 0 846.70 766.61 42.71 o
79 2 3 -3 -1 846.70 766.61 42.71 o
79 1 -3 3 1 846.70 766.61 42.71 o
80 3 3 -1 1 2433.94 2483.53 36.76 o
80 2 1 -3 -1 2433.94 2483.53 36.76 o
80 1 -1 3 1 2433.94 2483.53 36.76 o
81 3 2 0 2 2445.91 2274.52 29.02 o
81 2 -1 -3 -1 2445.91 2274.52 29.02 o
81 1 1 3 1 2445.91 2274.52 29.02 o
82 2 -2 -3 -1 237.91 293.22 18.29 o
82 1 2 3 1 237.91 293.22 18.29 o
83 3 1 1 3 625.60 637.87 28.78 o
83 2 -3 -3 -1 625.60 637.87 28.78 o
83 1 3 3 1 625.60 637.87 28.78 o
84 3 5 -3 0 4471.19 4798.14 66.22 o
84 2 4 -4 -1 4471.19 4798.14 66.22 o
84 1 -4 4 1 4471.19 4798.14 66.22 o
85 3 4 -2 1 1118.19 1247.01 34.53 o
85 2 2 -4 -1 1118.19 1247.01 34.53 o
85 1 -2 4 1 1118.19 1247.01 34.53 o
86 3 3 -1 2 8038.30 8326.53 46.87 o
86 2 0 -4 -1 8038.30 8326.53 46.87 o
86 1 0 4 1 8038.30 8326.53 46.87 o
87 2 -1 -4 -1 3685.31 3831.13 26.64 o
87 1 1 4 1 3685.31 3831.13 26.64 o
88 3 2 0 3 1344.30 1242.44 22.84 o
88 2 -2 -4 -1 1344.30 1242.44 22.84 o
88 1 2 4 1 1344.30 1242.44 22.84 o
89 2 -3 -4 -1 973.03 995.30 21.11 o
89 1 3 4 1 973.03 995.30 21.11 o
90 3 1 1 4 4186.94 4085.96 40.26 o
90 2 -4 -4 -1 4186.94 4085.96 40.26 o
90 1 4 4 1 4186.94 4085.96 40.26 o
91 3 6 -4 0 230.83 185.77 51.59 o
91 2 5 -5 -1 230.83 185.77 51.59 o
91 1 -5 5 1 230.83 185.77 51.59 o
92 3 5 -3 1 3907.55 3935.44 44.76 o
92 2 3 -5 -1 3907.55 3935.44 44.76 o
92 1 -3 5 1 3907.55 3935.44 44.76 o
93 3 4 -2 2 276.39 166.17 25.70 o
93 2 1 -5 -1 276.39 166.17 25.70 o
93 1 -1 5 1 276.39 166.17 25.70 o
94 3 3 -1 3 138.91 146.16 20.77 o
94 2 -1 -5 -1 138.91 146.16 20.77 o
94 1 1 5 1 138.91 146.16 20.77 o
95 2 -2 -5 -1 34.61 56.11 16.35 o
95 1 2 5 1 34.61 56.11 16.35 o
96 3 2 0 4 3810.67 3576.24 26.54 o
96 2 -3 -5 -1 3810.67 3576.24 26.54 o
96 1 3 5 1 3810.67 3576.24 26.54 o
97 2 -4 -5 -1 0.09 26.03 17.46 <
97 1 4 5 1 0.09 26.03 17.46 <
98 3 1 1 5 173.70 173.54 27.81 o
98 2 -5 -5 -1 173.70 173.54 27.81 o
98 1 5 5 1 173.70 173.54 27.81 o
99 3 7 -5 0 1375.81 1519.89 82.30 o
99 2 6 -6 -1 1375.81 1519.89 82.30 o
99 1 -6 6 1 1375.81 1519.89 82.30 o
100 3 6 -4 1 38.28 73.30 40.20 <
100 2 4 -6 -1 38.28 73.30 40.20 <
100 1 -4 6 1 38.28 73.30 40.20 <
101 3 5 -3 2 1962.31 2016.23 38.17 o
101 2 2 -6 -1 1962.31 2016.23 38.17 o
101 1 -2 6 1 1962.31 2016.23 38.17 o
102 3 4 -2 3 197.76 151.77 23.34 o
102 2 0 -6 -1 197.76 151.77 23.34 o
102 1 0 6 1 197.76 151.77 23.34 o
103 2 -1 -6 -1 1291.15 1340.23 19.67 o
103 1 1 6 1 1291.15 1340.23 19.67 o
104 3 3 -1 4 1861.00 1952.70 23.81 o
104 2 -2 -6 -1 1861.00 1952.70 23.81 o
104 1 2 6 1 1861.00 1952.70 23.81 o
105 2 -3 -6 -1 599.69 503.68 19.34 o
105 1 3 6 1 599.69 503.68 19.34 o
106 3 2 0 5 78.53 98.86 20.20 o
106 2 -4 -6 -1 78.53 98.86 20.20 o
106 1 4 6 1 78.53 98.86 20.20 o
107 2 -5 -6 -1 49.88 54.96 19.86 o
107 1 5 6 1 49.88 54.96 19.86 o
108 3 1 1 6 1371.43 1594.14 34.26 o
108 2 -6 -6 -1 1371.43 1594.14 34.26 o
108 1 6 6 1 1371.43 1594.14 34.26 o
109 3 7 -5 1 1175.69 912.71 52.43 o
109 2 5 -7 -1 1175.69 912.71 52.43 o
109 1 -5 7 1 1175.69 912.71 52.43 o
110 3 6 -4 2 83.39 90.21 32.18 o
110 2 3 -7 -1 83.39 90.21 32.18 o
110 1 -3 7 1 83.39 90.21 32.18 o
111 3 5 -3 3 773.28 744.78 30.31 o
111 2 1 -7 -1 773.28 744.78 30.31 o
111 1 -1 7 1 773.28 744.78 30.31 o
112 3 4 -2 4 798.50 792.18 24.04 o
112 2 -1 -7 -1 798.50 792.18 24.04 o
112 1 1 7 1 798.50 792.18 24.04 o
113 2 -2 -7 -1 89.46 109.29 19.08 o
113 1 2 7 1 89.46 109.29 19.08 o
114 3 3 -1 5 43.66 81.08 20.92 o
114 2 -3 -7 -1 43.66 81.08 20.92 o
114 1 3 7 1 43.66 81.08 20.92 o
115 2 -4 -7 -1 109.40 113.98 17.89 o
115 1 4 7 1 109.40 113.98 17.89 o
116 3 2 0 6 1178.97 962.25 22.20 o
116 2 -5 -7 -1 1178.97 962.25 22.20 o
116 1 5 7 1 1178.97 962.25 22.20 o
117 2 -6 -7 -1 11.45 20.06 21.16 <
117 1 6 7 1 11.45 20.06 21.16 <
118 3 1 1 7 11.20 53.91 30.66 <
118 2 -7 -7 -1 11.20 53.91 30.66 <
118 1 7 7 1 11.20 53.91 30.66 <
119 3 8 -6 1 6.60 39.94 56.84 <
119 2 6 -8 -1 6.60 39.94 56.84 <
119 1 -6 8 1 6.60 39.94 56.84 <
120 3 7 -5 2 597.01 849.63 41.24 o
120 2 4 -8 -1 597.01 849.63 41.24 o
120 1 -4 8 1 597.01 849.63 41.24 o
121 3 6 -4 3 246.05 150.35 34.53 o
121 2 2 -8 -1 246.05 150.35 34.53 o
121 1 -2 8 1 246.05 150.35 34.53 o
122 3 5 -3 4 458.23 485.42 25.53 o
122 2 0 -8 -1 458.23 485.42 25.53 o
122 1 0 8 1 458.23 485.42 25.53 o
123 2 -1 -8 -1 195.62 226.05 19.57 o
123 1 1 8 1 195.62 226.05 19.57 o
124 3 4 -2 5 248.14 133.20 22.44 o
124 2 -2 -8 -1 248.14 133.20 22.44 o
124 1 2 8 1 248.14 133.20 22.44 o
125 2 -3 -8 -1 152.03 164.97 18.26 o
125 1 3 8 1 152.03 164.97 18.26 o
126 3 3 -1 6 610.82 833.80 24.58 o
126 2 -4 -8 -1 610.82 833.80 24.58 o
126 1 4 8 1 610.82 833.80 24.58 o
127 2 -5 -8 -1 64.20 73.99 19.66 o
127 1 5 8 1 64.20 73.99 19.66 o
128 3 2 0 7 10.31 63.06 21.79 o
128 2 -6 -8 -1 10.31 63.06 21.79 o
128 1 6 8 1 10.31 63.06 21.79 o
129 2 -7 -8 -1 4.78 63.48 29.00 o
129 1 7 8 1 4.78 63.48 29.00 o
130 3 8 -6 2 28.45 23.41 49.44 <
130 2 5 -9 -1 28.45 23.41 49.44 <
130 1 -5 9 1 28.45 23.41 49.44 <
131 3 7 -5 3 276.73 270.48 36.95 o
131 2 3 -9 -1 276.73 270.48 36.95 o
131 1 -3 9 1 276.73 270.48 36.95 o
132 3 6 -4 4 221.21 240.88 31.92 o
132 2 1 -9 -1 221.21 240.88 31.92 o
132 1 -1 9 1 221.21 240.88 31.92 o
133 3 5 -3 5 210.15 231.13 23.64 o
133 2 -1 -9 -1 210.15 231.13 23.64 o
133 1 1 9 1 210.15 231.13 23.64 o
134 2 -2 -9 -1 29.02 58.04 20.67 o
134 1 2 9 1 29.02 58.04 20.67 o
135 3 4 -2 6 290.89 252.26 26.44 o
135 2 -3 -9 -1 290.89 252.26 26.44 o
135 1 3 9 1 290.89 252.26 26.44 o
136 2 -4 -9 -1 52.09 64.73 20.85 o
136 1 4 9 1 52.09 64.73 20.85 o
137 3 3 -1 7 24.83 81.75 24.44 o
137 2 -5 -9 -1 24.83 81.75 24.44 o
137 1 5 9 1 24.83 81.75 24.44 o
138 3 7 -5 4 134.74 226.64 37.03 o
138 2 2 -10 -1 134.74 226.64 37.03 o
138 1 -2 10 1 134.74 226.64 37.03 o
139 3 6 -4 5 178.09 100.36 28.37 o
139 2 0 -10 -1 178.09 100.36 28.37 o
139 1 0 10 1 178.09 100.36 28.37 o
140 2 -1 -10 -1 11.40 46.57 20.75 o
140 1 1 10 1 11.40 46.57 20.75 o
141 3 5 -3 6 144.33 202.55 27.27 o
141 2 -2 -10 -1 144.33 202.55 27.27 o
141 1 2 10 1 144.33 202.55 27.27 o
142 2 -3 -10 -1 19.82 83.66 21.53 o
142 1 3 10 1 19.82 83.66 21.53 o
143 3 3 1 0 22648.90 23710.50 107.28 o
143 2 1 -1 -2 22648.90 23710.50 107.28 o
143 1 -1 1 2 22648.90 23710.50 107.28 o
144 3 2 2 1 21545.30 22661.70 102.09 o
144 2 -1 -1 -2 21545.30 22661.70 102.09 o
144 1 1 1 2 21545.30 22661.70 102.09 o
145 3 4 0 0 52736.80 55094.60 161.99 o
145 2 2 -2 -2 52736.80 55094.60 161.99 o
145 1 -2 2 2 52736.80 55094.60 161.99 o
146 3 3 1 1 2621.62 2990.02 33.67 o
146 2 0 -2 -2 2621.62 2990.02 33.67 o
146 1 0 2 2 2621.62 2990.02 33.67 o
147 2 -1 -2 -2 1890.24 2126.44 20.47 o
147 1 1 2 2 1890.24 2126.44 20.47 o
148 3 2 2 2 53808.80 54715.50 120.92 o
148 2 -2 -2 -2 53808.80 54715.50 120.92 o
148 1 2 2 2 53808.80 54715.50 120.92 o
149 3 5 -1 0 4114.34 4562.05 49.69 o
149 2 3 -3 -2 4114.34 4562.05 49.69 o
149 1 -3 3 2 4114.34 4562.05 49.69 o
150 3 4 0 1 21895.60 23236.90 72.76 o
150 2 1 -3 -2 21895.60 23236.90 72.76 o
150 1 -1 3 2 21895.60 23236.90 72.76 o
151 3 3 1 2 22844.30 23620.70 58.25 o
151 2 -1 -3 -2 22844.30 23620.70 58.25 o
151 1 1 3 2 22844.30 23620.70 58.25 o
152 2 -2 -3 -2 389.10 453.89 16.83 o
152 1 2 3 2 389.10 453.89 16.83 o
153 3 2 2 3 4036.11 4203.25 39.47 o
153 2 -3 -3 -2 4036.11 4203.25 39.47 o
153 1 3 3 2 4036.11 4203.25 39.47 o
154 3 6 -2 0 12064.90 12818.10 77.89 o
154 2 4 -4 -2 12064.90 12818.10 77.89 o
154 1 -4 4 2 12064.90 12818.10 77.89 o
155 3 5 -1 1 3118.73 3247.72 37.98 o
155 2 2 -4 -2 3118.73 3247.72 37.98 o
155 1 -2 4 2 3118.73 3247.72 37.98 o
156 3 4 0 2 25705.50 25431.40 68.12 o
156 2 0 -4 -2 25705.50 25431.40 68.12 o
156 1 0 4 2 25705.50 25431.40 68.12 o
157 2 -1 -4 -2 2667.83 2955.83 21.19 o
157 1 1 4 2 2667.83 2955.83 21.19 o
158 3 3 1 3 3175.83 3187.58 25.43 o
158 2 -2 -4 -2 3175.83 3187.58 25.43 o
158 1 2 4 2 3175.83 3187.58 25.43 o
159 2 -3 -4 -2 595.72 554.65 16.03 o
159 1 3 4 2 595.72 554.65 16.03 o
160 3 2 2 4 12628.80 12109.10 54.71 o
160 2 -4 -4 -2 12628.80 12109.10 54.71 o
160 1 4 4 2 12628.80 12109.10 54.71 o
161 3 7 -3 0 462.57 645.97 43.69 o
161 2 5 -5 -2 462.57 645.97 43.69 o
161 1 -5 5 2 462.57 645.97 43.69 o
162 3 6 -2 1 9874.68 10579.70 59.51 o
162 2 3 -5 -2 9874.68 10579.70 59.51 o
162 1 -3 5 2 9874.68 10579.70 59.51 o
163 3 5 -1 2 5261.04 5568.56 38.77 o
163 2 1 -5 -2 5261.04 5568.56 38.77 o
163 1 -1 5 2 5261.04 5568.56 38.77 o
164 3 4 0 3 5090.87 5226.20 32.83 o
164 2 -1 -5 -2 5090.87 5226.20 32.83 o
164 1 1 5 2 5090.87 5226.20 32.83 o
165 2 -2 -5 -2 18.03 27.65 15.31 <
165 1 2 5 2 18.03 27.65 15.31 <
166 3 3 1 4 10315.10 10255.40 37.22 o
166 2 -3 -5 -2 10315.10 10255.40 37.22 o
166 1 3 5 2 10315.10 10255.40 37.22 o
167 2 -4 -5 -2 0.16 16.96 16.53 <
167 1 4 5 2 0.16 16.96 16.53 <
168 3 2 2 5 459.03 600.76 32.02 o
168 2 -5 -5 -2 459.03 600.76 32.02 o
168 1 5 5 2 459.03 600.76 32.02 o
169 3 8 -4 0 2213.38 2677.16 76.62 o
169 2 6 -6 -2 2213.38 2677.16 76.62 o
169 1 -6 6 2 2213.38 2677.16 76.62 o
170 3 7 -3 1 785.34 695.99 34.95 o
170 2 4 -6 -2 785.34 695.99 34.95 o
170 1 -4 6 2 785.34 695.99 34.95 o
171 3 6 -2 2 5753.84 5993.04 47.60 o
171 2 2 -6 -2 5753.84 5993.04 47.60 o
171 1 -2 6 2 5753.84 5993.04 47.60 o
172 3 5 -1 3 3361.84 3120.70 33.87 o
172 2 0 -6 -2 3361.84 3120.70 33.87 o
172 1 0 6 2 3361.84 3120.70 33.87 o
173 2 -1 -6 -2 960.10 1005.78 17.57 o
173 1 1 6 2 960.10 1005.78 17.57 o
174 3 4 0 4 5979.01 6163.85 32.14 o
174 2 -2 -6 -2 5979.01 6163.85 32.14 o
174 1 2 6 2 5979.01 6163.85 32.14 o
175 2 -3 -6 -2 387.24 339.13 17.77 o
175 1 3 6 2 387.24 339.13 17.77 o
176 3 3 1 5 793.66 625.68 22.29 o
176 2 -4 -6 -2 793.66 625.68 22.29 o
176 1 4 6 2 793.66 625.68 22.29 o
177 2 -5 -6 -2 34.32 32.05 17.36 <
177 1 5 6 2 34.32 32.05 17.36 <
178 3 2 2 6 2342.25 2538.82 34.88 o
178 2 -6 -6 -2 2342.25 2538.82 34.88 o
178 1 6 6 2 2342.25 2538.82 34.88 o
179 3 9 -5 0 49.62 93.36 68.60 <
179 2 7 -7 -2 49.62 93.36 68.60 <
179 1 -7 7 2 49.62 93.36 68.60 <
180 3 8 -4 1 1913.81 1831.27 42.02 o
180 2 5 -7 -2 1913.81 1831.27 42.02 o
180 1 -5 7 2 1913.81 1831.27 42.02 o
181 3 7 -3 2 817.52 923.28 35.89 o
181 2 3 -7 -2 817.52 923.28 35.89 o
181 1 -3 7 2 817.52 923.28 35.89 o
182 3 6 -2 3 2778.71 2891.66 34.22 o
182 2 1 -7 -2 2778.71 2891.66 34.22 o
182 1 -1 7 2 2778.71 2891.66 34.22 o
183 3 5 -1 4 2888.98 2962.71 29.40 o
183 2 -1 -7 -2 2888.98 2962.71 29.40 o
183 1 1 7 2 2888.98 2962.71 29.40 o
184 2 -2 -7 -2 76.46 120.61 17.83 o
184 1 2 7 2 76.46 120.61 17.83 o
185 3 4 0 5 793.75 900.11 23.40 o
185 2 -3 -7 -2 793.75 900.11 23.40 o
185 1 3 7 2 793.75 900.11 23.40 o
186 2 -4 -7 -2 74.49 89.87 18.63 o
186 1 4 7 2 74.49 89.87 18.63 o
187 3 3 1 6 2017.78 1770.27 24.75 o
187 2 -5 -7 -2 2017.78 1770.27 24.75 o
187 1 5 7 2 2017.78 1770.27 24.75 o
188 2 -6 -7 -2 7.47 49.46 21.65 o
188 1 6 7 2 7.47 49.46 21.65 o
189 3 2 2 7 45.23 148.96 32.11 o
189 2 -7 -7 -2 45.23 148.96 32.11 o
189 1 7 7 2 45.23 148.96 32.11 o
190 3 9 -5 1 71.10 49.67 49.35 <
190 2 6 -8 -2 71.10 49.67 49.35 <
190 1 -6 8 2 71.10 49.67 49.35 <
191 3 8 -4 2 1057.87 1370.61 49.82 o
191 2 4 -8 -2 1057.87 1370.61 49.82 o
191 1 -4 8 2 1057.87 1370.61 49.82 o
192 3 7 -3 3 1013.02 798.27 34.59 o
192 2 2 -8 -2 1013.02 798.27 34.59 o
192 1 -2 8 2 1013.02 798.27 34.59 o
193 3 6 -2 4 1261.97 1393.86 28.59 o
193 2 0 -8 -2 1261.97 1393.86 28.59 o
193 1 0 8 2 1261.97 1393.86 28.59 o
194 2 -1 -8 -2 134.13 147.84 17.61 o
194 1 1 8 2 134.13 147.84 17.61 o
195 3 5 -1 5 1013.02 859.77 25.72 o
195 2 -2 -8 -2 1013.02 859.77 25.72 o
195 1 2 8 2 1013.02 859.77 25.72 o
196 2 -3 -8 -2 112.91 97.19 19.13 o
196 1 3 8 2 112.91 97.19 19.13 o
197 3 4 0 6 1122.20 1339.44 25.55 o
197 2 -4 -8 -2 1122.20 1339.44 25.55 o
197 1 4 8 2 1122.20 1339.44 25.55 o
198 2 -5 -8 -2 46.40 58.84 22.27 o
198 1 5 8 2 46.40 58.84 22.27 o
199 3 3 1 7 70.40 117.37 22.79 o
199 2 -6 -8 -2 70.40 117.37 22.79 o
199 1 6 8 2 70.40 117.37 22.79 o
200 3 9 -5 2 112.13 155.65 51.22 o
200 2 5 -9 -2 112.13 155.65 51.22 o
200 1 -5 9 2 112.13 155.65 51.22 o
201 3 8 -4 3 543.30 548.39 40.72 o
201 2 3 -9 -2 543.30 548.39 40.72 o
201 1 -3 9 2 543.30 548.39 40.72 o
202 3 7 -3 4 587.60 581.49 35.03 o
202 2 1 -9 -2 587.60 581.49 35.03 o
202 1 -1 9 2 587.60 581.49 35.03 o
203 3 6 -2 5 568.71 588.18 27.63 o
203 2 -1 -9 -2 568.71 588.18 27.63 o
203 1 1 9 2 568.71 588.18 27.63 o
204 2 -2 -9 -2 20.47 43.46 19.81 o
204 1 2 9 2 20.47 43.46 19.81 o
205 3 5 -1 6 576.15 558.86 27.95 o
205 2 -3 -9 -2 576.15 558.86 27.95 o
205 1 3 9 2 576.15 558.86 27.95 o
206 2 -4 -9 -2 37.59 67.50 21.99 o
206 1 4 9 2 37.59 67.50 21.99 o
207 3 4 0 7 107.50 142.72 24.72 o
207 2 -5 -9 -2 107.50 142.72 24.72 o
207 1 5 9 2 107.50 142.72 24.72 o
208 3 8 -4 4 240.18 352.55 40.77 o
208 2 2 -10 -2 240.18 352.55 40.77 o
208 1 -2 10 2 240.18 352.55 40.77 o
209 3 7 -3 5 356.71 270.07 28.28 o
209 2 0 -10 -2 356.71 270.07 28.28 o
209 1 0 10 2 356.71 270.07 28.28 o
210 2 -1 -10 -2 8.09 65.26 20.47 o
210 1 1 10 2 8.09 65.26 20.47 o
211 3 6 -2 6 249.87 396.28 28.48 o
211 2 -2 -10 -2 249.87 396.28 28.48 o
211 1 2 10 2 249.87 396.28 28.48 o
212 2 -3 -10 -2 14.46 80.04 21.51 o
212 1 3 10 2 14.46 80.04 21.51 o
213 3 3 3 0 12112.90 12418.80 86.49 o
213 2 0 0 -3 12112.90 12418.80 86.49 o
213 1 0 0 3 12112.90 12418.80 86.49 o
214 3 4 2 0 312.28 254.98 32.45 o
214 2 1 -1 -3 312.28 254.98 32.45 o
214 1 -1 1 3 312.28 254.98 32.45 o
215 3 3 3 1 125.30 157.45 33.95 o
215 2 -1 -1 -3 125.30 157.45 33.95 o
215 1 1 1 3 125.30 157.45 33.95 o
216 3 5 1 0 5904.08 6071.96 57.21 o
216 2 2 -2 -3 5904.08 6071.96 57.21 o
216 1 -2 2 3 5904.08 6071.96 57.21 o
217 3 4 2 1 4650.47 4868.83 32.38 o
217 2 0 -2 -3 4650.47 4868.83 32.38 o
217 1 0 2 3 4650.47 4868.83 32.38 o
218 2 -1 -2 -3 1018.89 1218.39 16.84 o
218 1 1 2 3 1018.89 1218.39 16.84 o
219 3 3 3 2 5711.15 5416.81 49.16 o
219 2 -2 -2 -3 5711.15 5416.81 49.16 o
219 1 2 2 3 5711.15 5416.81 49.16 o
220 3 6 0 0 502.39 470.83 32.25 o
220 2 3 -3 -3 502.39 470.83 32.25 o
220 1 -3 3 3 502.39 470.83 32.25 o
221 3 5 1 1 973.32 1062.40 24.47 o
221 2 1 -3 -3 973.32 1062.40 24.47 o
221 1 -1 3 3 973.32 1062.40 24.47 o
222 3 4 2 2 1168.01 1043.48 23.41 o
222 2 -1 -3 -3 1168.01 1043.48 23.41 o
222 1 1 3 3 1168.01 1043.48 23.41 o
223 2 -2 -3 -3 185.50 216.63 15.69 o
223 1 2 3 3 185.50 216.63 15.69 o
224 3 3 3 3 247.84 349.17 26.37 o
224 2 -3 -3 -3 247.84 349.17 26.37 o
224 1 3 3 3 247.84 349.17 26.37 o
225 3 7 -1 0 1898.87 1894.99 41.83 o
225 2 4 -4 -3 1898.87 1894.99 41.83 o
225 1 -4 4 3 1898.87 1894.99 41.83 o
226 3 6 0 1 360.92 310.00 25.52 o
226 2 2 -4 -3 360.92 310.00 25.52 o
226 1 -2 4 3 360.92 310.00 25.52 o
227 3 5 1 2 2606.21 2615.96 27.45 o
227 2 0 -4 -3 2606.21 2615.96 27.45 o
227 1 0 4 3 2606.21 2615.96 27.45 o
228 2 -1 -4 -3 1421.05 1509.78 18.78 o
228 1 1 4 3 1421.05 1509.78 18.78 o
229 3 4 2 3 372.09 275.29 20.84 o
229 2 -2 -4 -3 372.09 275.29 20.84 o
229 1 2 4 3 372.09 275.29 20.84 o
230 2 -3 -4 -3 331.95 358.57 15.41 o
230 1 3 4 3 331.95 358.57 15.41 o
231 3 3 3 4 1810.68 1874.34 33.89 o
231 2 -4 -4 -3 1810.68 1874.34 33.89 o
231 1 4 4 3 1810.68 1874.34 33.89 o
232 3 8 -2 0 140.04 82.98 35.59 o
232 2 5 -5 -3 140.04 82.98 35.59 o
232 1 -5 5 3 140.04 82.98 35.59 o
233 3 7 -1 1 1565.44 1581.02 28.64 o
233 2 3 -5 -3 1565.44 1581.02 28.64 o
233 1 -3 5 3 1565.44 1581.02 28.64 o
234 3 6 0 2 288.77 217.18 23.45 o
234 2 1 -5 -3 288.77 217.18 23.45 o
234 1 -1 5 3 288.77 217.18 23.45 o
235 3 5 1 3 78.30 108.84 19.63 o
235 2 -1 -5 -3 78.30 108.84 19.63 o
235 1 1 5 3 78.30 108.84 19.63 o
236 2 -2 -5 -3 10.38 9.38 16.86 <
236 1 2 5 3 10.38 9.38 16.86 <
237 3 4 2 4 1644.89 1620.01 22.84 o
237 2 -3 -5 -3 1644.89 1620.01 22.84 o
237 1 3 5 3 1644.89 1620.01 22.84 o
238 2 -4 -5 -3 0.08 30.44 15.93 <
238 1 4 5 3 0.08 30.44 15.93 <
239 3 3 3 5 58.60 67.91 27.18 o
239 2 -5 -5 -3 58.60 67.91 27.18 o
239 1 5 5 3 58.60 67.91 27.18 o
240 3 9 -3 0 626.66 770.96 55.25 o
240 2 6 -6 -3 626.66 770.96 55.25 o
240 1 -6 6 3 626.66 770.96 55.25 o
241 3 8 -2 1 31.10 36.05 25.79 <
241 2 4 -6 -3 31.10 36.05 25.79 <
241 1 -4 6 3 31.10 36.05 25.79 <
242 3 7 -1 2 801.33 813.67 30.24 o
242 2 2 -6 -3 801.33 813.67 30.24 o
242 1 -2 6 3 801.33 813.67 30.24 o
243 3 6 0 3 106.16 125.71 21.60 o
243 2 0 -6 -3 106.16 125.71 21.60 o
243 1 0 6 3 106.16 125.71 21.60 o
244 2 -1 -6 -3 530.27 534.88 18.10 o
244 1 1 6 3 530.27 534.88 18.10 o
245 3 5 1 4 776.19 823.17 23.72 o
245 2 -2 -6 -3 776.19 823.17 23.72 o
245 1 2 6 3 776.19 823.17 23.72 o
246 2 -3 -6 -3 220.15 184.03 16.59 o
246 1 3 6 3 220.15 184.03 16.59 o
247 3 4 2 5 18.48 43.39 18.98 o
247 2 -4 -6 -3 18.48 43.39 18.98 o
247 1 4 6 3 18.48 43.39 18.98 o
248 2 -5 -6 -3 19.60 7.22 17.15 <
248 1 5 6 3 19.60 7.22 17.15 <
249 3 3 3 6 637.44 759.45 32.45 o
249 2 -6 -6 -3 637.44 759.45 32.45 o
249 1 6 6 3 637.44 759.45 32.45 o
250 3 10 -4 0 14.82 63.95 61.17 <
250 2 7 -7 -3 14.82 63.95 61.17 <
250 1 -7 7 3 14.82 63.95 61.17 <
251 3 9 -3 1 545.41 462.83 33.59 o
251 2 5 -7 -3 545.41 462.83 33.59 o
251 1 -5 7 3 545.41 462.83 33.59 o
252 3 8 -2 2 95.58 67.38 30.09 o
252 2 3 -7 -3 95.58 67.38 30.09 o
252 1 -3 7 3 95.58 67.38 30.09 o
253 3 7 -1 3 363.24 383.21 25.00 o
253 2 1 -7 -3 363.24 383.21 25.00 o
253 1 -1 7 3 363.24 383.21 25.00 o
254 3 6 0 4 446.67 417.20 24.48 o
254 2 -1 -7 -3 446.67 417.20 24.48 o
254 1 1 7 3 446.67 417.20 24.48 o
255 2 -2 -7 -3 42.13 76.18 18.01 o
255 1 2 7 3 42.13 76.18 18.01 o
256 3 5 1 5 32.75 62.48 21.67 o
256 2 -3 -7 -3 32.75 62.48 21.67 o
256 1 3 7 3 32.75 62.48 21.67 o
257 2 -4 -7 -3 42.72 62.25 17.66 o
257 1 4 7 3 42.72 62.25 17.66 o
258 3 4 2 6 577.96 472.95 21.98 o
258 2 -5 -7 -3 577.96 472.95 21.98 o
258 1 5 7 3 577.96 472.95 21.98 o
259 2 -6 -7 -3 4.36 45.62 19.71 o
259 1 6 7 3 4.36 45.62 19.71 o
260 3 3 3 7 4.42 60.35 33.20 <
260 2 -7 -7 -3 4.42 60.35 33.20 <
260 1 7 7 3 4.42 60.35 33.20 <
261 3 9 -3 2 278.04 373.04 33.73 o
261 2 4 -8 -3 278.04 373.04 33.73 o
261 1 -4 8 3 278.04 373.04 33.73 o
262 3 8 -2 3 152.23 104.68 34.24 o
262 2 2 -8 -3 152.23 104.68 34.24 o
262 1 -2 8 3 152.23 104.68 34.24 o
263 3 7 -1 4 210.88 209.69 26.22 o
263 2 0 -8 -3 210.88 209.69 26.22 o
263 1 0 8 3 210.88 209.69 26.22 o
264 2 -1 -8 -3 76.84 89.46 17.55 o
264 1 1 8 3 76.84 89.46 17.55 o
265 3 6 0 5 145.57 72.82 25.53 o
265 2 -2 -8 -3 145.57 72.82 25.53 o
265 1 2 8 3 145.57 72.82 25.53 o
266 2 -3 -8 -3 64.30 81.37 19.52 o
266 1 3 8 3 64.30 81.37 19.52 o
267 3 5 1 6 292.72 393.45 22.47 o
267 2 -4 -8 -3 292.72 393.45 22.47 o
267 1 4 8 3 292.72 393.45 22.47 o
268 2 -5 -8 -3 26.77 68.93 19.65 o
268 1 5 8 3 26.77 68.93 19.65 o
269 3 9 -3 3 142.77 160.05 37.06 o
269 2 3 -9 -3 142.77 160.05 37.06 o
269 1 -3 9 3 142.77 160.05 37.06 o
270 3 8 -2 4 139.38 150.31 27.79 o
270 2 1 -9 -3 139.38 150.31 27.79 o
270 1 -1 9 3 139.38 150.31 27.79 o
271 3 7 -1 5 114.68 141.26 29.09 o
271 2 -1 -9 -3 114.68 141.26 29.09 o
271 1 1 9 3 114.68 141.26 29.09 o
272 2 -2 -9 -3 11.82 60.29 21.90 o
272 1 2 9 3 11.82 60.29 21.90 o
273 3 6 0 6 166.85 136.40 23.56 o
273 2 -3 -9 -3 166.85 136.40 23.56 o
273 1 3 9 3 166.85 136.40 23.56 o
274 2 -4 -9 -3 21.78 60.64 21.00 o
274 1 4 9 3 21.78 60.64 21.00 o
275 3 4 4 0 29577.10 32280.20 112.62 o
275 2 0 0 -4 29577.10 32280.20 112.62 o
275 1 0 0 4 29577.10 32280.20 112.62 o
276 3 5 3 0 10038.40 10371.90 59.80 o
276 2 1 -1 -4 10038.40 10371.90 59.80 o
276 1 -1 1 4 10038.40 10371.90 59.80 o
277 3 4 4 1 9397.46 10165.90 56.21 o
277 2 -1 -1 -4 9397.46 10165.90 56.21 o
277 1 1 1 4 9397.46 10165.90 56.21 o
278 3 6 2 0 16681.00 17119.30 75.31 o
278 2 2 -2 -4 16681.00 17119.30 75.31 o
278 1 -2 2 4 16681.00 17119.30 75.31 o
279 3 5 3 1 2397.88 2788.42 24.74 o
279 2 0 -2 -4 2397.88 2788.42 24.74 o
279 1 0 2 4 2397.88 2788.42 24.74 o
280 2 -1 -2 -4 489.88 602.02 14.97 o
280 1 1 2 4 489.88 602.02 14.97 o
281 3 4 4 2 16950.10 17222.00 60.97 o
281 2 -2 -2 -4 16950.10 17222.00 60.97 o
281 1 2 2 4 16950.10 17222.00 60.97 o
282 3 7 1 0 2496.37 2517.94 37.07 o
282 2 3 -3 -4 2496.37 2517.94 37.07 o
282 1 -3 3 4 2496.37 2517.94 37.07 o
283 3 6 2 1 8298.01 9306.05 39.06 o
283 2 1 -3 -4 8298.01 9306.05 39.06 o
283 1 -1 3 4 8298.01 9306.05 39.06 o
284 3 5 3 2 8840.08 9413.42 34.92 o
284 2 -1 -3 -4 8840.08 9413.42 34.92 o
284 1 1 3 4 8840.08 9413.42 34.92 o
285 2 -2 -3 -4 57.59 95.52 14.84 o
285 1 2 3 4 57.59 95.52 14.84 o
286 3 4 4 3 2369.90 2282.11 38.07 o
286 2 -3 -3 -4 2369.90 2282.11 38.07 o
286 1 3 3 4 2369.90 2282.11 38.07 o
287 3 8 0 0 4342.12 4375.49 46.16 o
287 2 4 -4 -4 4342.12 4375.49 46.16 o
287 1 -4 4 4 4342.12 4375.49 46.16 o
288 3 7 1 1 1959.91 2205.97 29.92 o
288 2 2 -4 -4 1959.91 2205.97 29.92 o
288 1 -2 4 4 1959.91 2205.97 29.92 o
289 3 6 2 2 9273.71 9098.46 39.54 o
289 2 0 -4 -4 9273.71 9098.46 39.54 o
289 1 0 4 4 9273.71 9098.46 39.54 o
290 2 -1 -4 -4 600.73 730.29 16.22 o
290 1 1 4 4 600.73 730.29 16.22 o
291 3 5 3 3 2014.15 2102.99 27.22 o
291 2 -2 -4 -4 2014.15 2102.99 27.22 o
291 1 2 4 4 2014.15 2102.99 27.22 o
292 2 -3 -4 -4 153.93 117.16 16.35 o
292 1 3 4 4 153.93 117.16 16.35 o
293 3 4 4 4 4521.06 3938.71 44.31 o
293 2 -4 -4 -4 4521.06 3938.71 44.31 o
293 1 4 4 4 4521.06 3938.71 44.31 o
294 3 9 -1 0 398.17 499.32 37.39 o
294 2 5 -5 -4 398.17 499.32 37.39 o
294 1 -5 5 4 398.17 499.32 37.39 o
295 3 8 0 1 3803.93 4043.33 37.48 o
295 2 3 -5 -4 3803.93 4043.33 37.48 o
295 1 -3 5 4 3803.93 4043.33 37.48 o
296 3 7 1 2 2522.95 2526.26 29.41 o
296 2 1 -5 -4 2522.95 2526.26 29.41 o
296 1 -1 5 4 2522.95 2526.26 29.41 o
297 3 6 2 3 2387.48 2459.52 27.50 o
297 2 -1 -5 -4 2387.48 2459.52 27.50 o
297 1 1 5 4 2387.48 2459.52 27.50 o
298 2 -2 -5 -4 5.22 31.37 16.14 <
298 1 2 5 4 5.22 31.37 16.14 <
299 3 5 3 4 4033.00 3868.65 32.08 o
299 2 -3 -5 -4 4033.00 3868.65 32.08 o
299 1 3 5 4 4033.00 3868.65 32.08 o
300 2 -4 -5 -4 0.03 8.32 15.85 <
300 1 4 5 4 0.03 8.32 15.85 <
301 3 4 4 5 374.58 467.84 31.26 o
301 2 -5 -5 -4 374.58 467.84 31.26 o
301 1 5 5 4 374.58 467.84 31.26 o
302 3 10 -2 0 848.43 986.77 51.69 o
302 2 6 -6 -4 848.43 986.77 51.69 o
302 1 -6 6 4 848.43 986.77 51.69 o
303 3 9 -1 1 493.27 476.60 26.33 o
303 2 4 -6 -4 493.27 476.60 26.33 o
303 1 -4 6 4 493.27 476.60 26.33 o
304 3 8 0 2 2300.15 2295.30 30.01 o
304 2 2 -6 -4 2300.15 2295.30 30.01 o
304 1 -2 6 4 2300.15 2295.30 30.01 o
305 3 7 1 3 1665.59 1750.68 29.39 o
305 2 0 -6 -4 1665.59 1750.68 29.39 o
305 1 0 6 4 1665.59 1750.68 29.39 o
306 2 -1 -6 -4 231.07 219.57 16.30 o
306 1 1 6 4 231.07 219.57 16.30 o
307 3 6 2 4 2371.19 2128.73 28.64 o
307 2 -2 -6 -4 2371.19 2128.73 28.64 o
307 1 2 6 4 2371.19 2128.73 28.64 o
308 2 -3 -6 -4 103.53 71.23 17.24 o
308 1 3 6 4 103.53 71.23 17.24 o
309 3 5 3 5 500.82 449.41 23.60 o
309 2 -4 -6 -4 500.82 449.41 23.60 o
309 1 4 6 4 500.82 449.41 23.60 o
310 2 -5 -6 -4 9.12 25.78 16.72 <
310 1 5 6 4 9.12 25.78 16.72 <
311 3 4 4 6 894.83 955.59 35.08 o
311 2 -6 -6 -4 894.83 955.59 35.08 o
311 1 6 6 4 894.83 955.59 35.08 o
312 3 10 -2 1 751.71 660.54 32.99 o
312 2 5 -7 -4 751.71 660.54 32.99 o
312 1 -5 7 4 751.71 660.54 32.99 o
313 3 9 -1 2 482.06 516.03 30.30 o
313 2 3 -7 -4 482.06 516.03 30.30 o
313 1 -3 7 4 482.06 516.03 30.30 o
314 3 8 0 3 1221.93 1241.61 28.42 o
314 2 1 -7 -4 1221.93 1241.61 28.42 o
314 1 -1 7 4 1221.93 1241.61 28.42 o
315 3 7 1 4 1291.16 1228.57 27.77 o
315 2 -1 -7 -4 1291.16 1228.57 27.77 o
315 1 1 7 4 1291.16 1228.57 27.77 o
316 2 -2 -7 -4 17.54 81.25 18.24 o
316 1 2 7 4 17.54 81.25 18.24 o
317 3 6 2 5 455.92 475.72 24.45 o
317 2 -3 -7 -4 455.92 475.72 24.45 o
317 1 3 7 4 455.92 475.72 24.45 o
318 2 -4 -7 -4 20.06 48.90 18.16 o
318 1 4 7 4 20.06 48.90 18.16 o
319 3 5 3 6 803.55 653.78 24.01 o
319 2 -5 -7 -4 803.55 653.78 24.01 o
319 1 5 7 4 803.55 653.78 24.01 o
320 2 -6 -7 -4 2.13 64.96 20.59 o
320 1 6 7 4 2.13 64.96 20.59 o
321 3 10 -2 2 442.02 527.28 39.35 o
321 2 4 -8 -4 442.02 527.28 39.35 o
321 1 -4 8 4 442.02 527.28 39.35 o
322 3 9 -1 3 486.45 442.20 32.49 o
322 2 2 -8 -4 486.45 442.20 32.49 o
322 1 -2 8 4 486.45 442.20 32.49 o
323 3 8 0 4 568.84 558.83 28.26 o
323 2 0 -8 -4 568.84 558.83 28.26 o
323 1 0 8 4 568.84 558.83 28.26 o
324 2 -1 -8 -4 35.96 66.42 18.41 o
324 1 1 8 4 35.96 66.42 18.41 o
325 3 7 1 5 485.51 405.19 26.57 o
325 2 -2 -8 -4 485.51 405.19 26.57 o
325 1 2 8 4 485.51 405.19 26.57 o
326 2 -3 -8 -4 29.15 62.90 19.56 o
326 1 3 8 4 29.15 62.90 19.56 o
327 3 6 2 6 465.52 549.14 27.66 o
327 2 -4 -8 -4 465.52 549.14 27.66 o
327 1 4 8 4 465.52 549.14 27.66 o
328 3 9 -1 4 289.55 295.22 30.83 o
328 2 1 -9 -4 289.55 295.22 30.83 o
328 1 -1 9 4 289.55 295.22 30.83 o
329 3 8 0 5 275.13 285.39 27.17 o
329 2 -1 -9 -4 275.13 285.39 27.17 o
329 1 1 9 4 275.13 285.39 27.17 o
330 2 -2 -9 -4 5.56 59.28 22.43 o
330 1 2 9 4 5.56 59.28 22.43 o
331 3 5 5 0 1712.74 1931.95 63.32 o
331 2 0 0 -5 1712.74 1931.95 63.32 o
331 1 0 0 5 1712.74 1931.95 63.32 o
332 3 6 4 0 87.31 69.11 29.75 o
332 2 1 -1 -5 87.31 69.11 29.75 o
332 1 -1 1 5 87.31 69.11 29.75 o
333 3 5 5 1 39.31 45.84 29.82 <
333 2 -1 -1 -5 39.31 45.84 29.82 <
333 1 1 1 5 39.31 45.84 29.82 <
334 3 7 3 0 911.10 872.32 36.05 o
334 2 2 -2 -5 911.10 872.32 36.05 o
334 1 -2 2 5 911.10 872.32 36.05 o
335 3 6 4 1 667.32 644.01 21.39 o
335 2 0 -2 -5 667.32 644.01 21.39 o
335 1 0 2 5 667.32 644.01 21.39 o
336 2 -1 -2 -5 141.80 196.57 15.78 o
336 1 1 2 5 141.80 196.57 15.78 o
337 3 5 5 2 878.83 826.49 30.18 o
337 2 -2 -2 -5 878.83 826.49 30.18 o
337 1 2 2 5 878.83 826.49 30.18 o
338 3 8 2 0 122.58 86.82 31.05 o
338 2 3 -3 -5 122.58 86.82 31.05 o
338 1 -3 3 5 122.58 86.82 31.05 o
339 3 7 3 1 165.42 249.21 22.67 o
339 2 1 -3 -5 165.42 249.21 22.67 o
339 1 -1 3 5 165.42 249.21 22.67 o
340 3 6 4 2 213.53 215.59 19.64 o
340 2 -1 -3 -5 213.53 215.59 19.64 o
340 1 1 3 5 213.53 215.59 19.64 o
341 2 -2 -3 -5 30.65 49.89 15.30 o
341 1 2 3 5 30.65 49.89 15.30 o
342 3 5 5 3 42.22 91.45 27.01 o
342 2 -3 -3 -5 42.22 91.45 27.01 o
342 1 3 3 5 42.22 91.45 27.01 o
343 3 9 1 0 387.32 355.78 32.74 o
343 2 4 -4 -5 387.32 355.78 32.74 o
343 1 -4 4 5 387.32 355.78 32.74 o
344 3 8 2 1 63.84 40.75 24.27 <
344 2 2 -4 -5 63.84 40.75 24.27 <
344 1 -2 4 5 63.84 40.75 24.27 <
345 3 7 3 2 446.75 391.91 20.97 o
345 2 0 -4 -5 446.75 391.91 20.97 o
345 1 0 4 5 446.75 391.91 20.97 o
346 2 -1 -4 -5 220.11 255.35 14.63 o
346 1 1 4 5 220.11 255.35 14.63 o
347 3 6 4 3 49.11 42.22 19.99 o
347 2 -2 -4 -5 49.11 42.22 19.99 o
347 1 2 4 5 49.11 42.22 19.99 o
348 2 -3 -4 -5 51.45 37.00 15.03 o
348 1 3 4 5 51.45 37.00 15.03 o
349 3 5 5 4 364.43 305.84 34.02 o
349 2 -4 -4 -5 364.43 305.84 34.02 o
349 1 4 4 5 364.43 305.84 34.02 o
350 3 10 0 0 37.41 33.46 42.84 <
350 2 5 -5 -5 37.41 33.46 42.84 <
350 1 -5 5 5 37.41 33.46 42.84 <
351 3 9 1 1 320.65 302.55 26.74 o
351 2 3 -5 -5 320.65 302.55 26.74 o
351 1 -3 5 5 320.65 302.55 26.74 o
352 3 8 2 2 95.52 86.49 22.27 o
352 2 1 -5 -5 95.52 86.49 22.27 o
352 1 -1 5 5 95.52 86.49 22.27 o
353 3 7 3 3 32.65 67.08 20.55 o
353 2 -1 -5 -5 32.65 67.08 20.55 o
353 1 1 5 5 32.65 67.08 20.55 o
354 2 -2 -5 -5 1.58 12.90 16.14 <
354 1 2 5 5 1.58 12.90 16.14 <
355 3 6 4 4 339.28 306.56 22.79 o
355 2 -3 -5 -5 339.28 306.56 22.79 o
355 1 3 5 5 339.28 306.56 22.79 o
356 2 -4 -5 -5 0.02 22.83 17.46 <
356 1 4 5 5 0.02 22.83 17.46 <
357 3 5 5 5 7.91 48.42 37.95 <
357 2 -5 -5 -5 7.91 48.42 37.95 <
357 1 5 5 5 7.91 48.42 37.95 <
358 3 10 0 1 22.39 60.23 26.42 o
358 2 4 -6 -5 22.39 60.23 26.42 o
358 1 -4 6 5 22.39 60.23 26.42 o
359 3 9 1 2 187.22 155.61 25.84 o
359 2 2 -6 -5 187.22 155.61 25.84 o
359 1 -2 6 5 187.22 155.61 25.84 o
360 3 8 2 3 48.41 88.69 21.21 o
360 2 0 -6 -5 48.41 88.69 21.21 o
360 1 0 6 5 48.41 88.69 21.21 o
361 2 -1 -6 -5 87.15 90.02 15.82 o
361 1 1 6 5 87.15 90.02 15.82 o
362 3 7 3 4 179.98 166.44 24.24 o
362 2 -2 -6 -5 179.98 166.44 24.24 o
362 1 2 6 5 179.98 166.44 24.24 o
363 2 -3 -6 -5 35.89 47.91 17.46 o
363 1 3 6 5 35.89 47.91 17.46 o
364 3 6 4 5 11.72 55.46 25.68 o
364 2 -4 -6 -5 11.72 55.46 25.68 o
364 1 4 6 5 11.72 55.46 25.68 o
365 2 -5 -6 -5 3.32 48.06 20.06 o
365 1 5 6 5 3.32 48.06 20.06 o
366 3 10 0 2 41.88 68.17 27.73 o
366 2 3 -7 -5 41.88 68.17 27.73 o
366 1 -3 7 5 41.88 68.17 27.73 o
367 3 9 1 3 100.98 106.69 24.29 o
367 2 1 -7 -5 100.98 106.69 24.29 o
367 1 -1 7 5 100.98 106.69 24.29 o
368 3 8 2 4 124.75 116.20 24.95 o
368 2 -1 -7 -5 124.75 116.20 24.95 o
368 1 1 7 5 124.75 116.20 24.95 o
369 2 -2 -7 -5 7.32 69.12 18.20 o
369 1 2 7 5 7.32 69.12 18.20 o
370 3 7 3 5 20.31 62.42 25.01 o
370 2 -3 -7 -5 20.31 62.42 25.01 o
370 1 3 7 5 20.31 62.42 25.01 o
371 2 -4 -7 -5 7.27 48.91 19.30 o
371 1 4 7 5 7.27 48.91 19.30 o
372 3 9 1 4 64.62 70.57 27.74 o
372 2 0 -8 -5 64.62 70.57 27.74 o
372 1 0 8 5 64.62 70.57 27.74 o
373 2 -1 -8 -5 13.10 42.93 19.15 o
373 1 1 8 5 13.10 42.93 19.15 o
374 3 6 6 0 5677.67 5764.59 91.00 o
374 2 0 0 -6 5677.67 5764.59 91.00 o
374 1 0 0 6 5677.67 5764.59 91.00 o
375 3 7 5 0 2705.21 2625.47 53.04 o
375 2 1 -1 -6 2705.21 2625.47 53.04 o
375 1 -1 1 6 2705.21 2625.47 53.04 o
376 3 6 6 1 2615.74 2621.12 34.90 o
376 2 -1 -1 -6 2615.74 2621.12 34.90 o
376 1 1 1 6 2615.74 2621.12 34.90 o
377 3 8 4 0 3428.35 3321.45 54.08 o
377 2 2 -2 -6 3428.35 3321.45 54.08 o
377 1 -2 2 6 3428.35 3321.45 54.08 o
378 3 7 5 1 1228.50 1227.17 24.17 o
378 2 0 -2 -6 1228.50 1227.17 24.17 o
378 1 0 2 6 1228.50 1227.17 24.17 o
379 2 -1 -2 -6 45.96 89.65 15.69 o
379 1 1 2 6 45.96 89.65 15.69 o
380 3 6 6 2 3479.69 3286.00 37.38 o
380 2 -2 -2 -6 3479.69 3286.00 37.38 o
380 1 2 2 6 3479.69 3286.00 37.38 o
381 3 9 3 0 907.11 836.23 38.28 o
381 2 3 -3 -6 907.11 836.23 38.28 o
381 1 -3 3 6 907.11 836.23 38.28 o
382 3 8 4 1 2131.66 2234.79 30.48 o
382 2 1 -3 -6 2131.66 2234.79 30.48 o
382 1 -1 3 6 2131.66 2234.79 30.48 o
383 3 7 5 2 2221.93 2270.63 25.99 o
383 2 -1 -3 -6 2221.93 2270.63 25.99 o
383 1 1 3 6 2221.93 2270.63 25.99 o
384 2 -2 -3 -6 6.56 14.99 15.99 <
384 1 2 3 6 6.56 14.99 15.99 <
385 3 6 6 3 899.95 792.62 33.86 o
385 2 -3 -3 -6 899.95 792.62 33.86 o
385 1 3 3 6 899.95 792.62 33.86 o
386 3 10 2 0 1010.66 894.42 43.73 o
386 2 4 -4 -6 1010.66 894.42 43.73 o
386 1 -4 4 6 1010.66 894.42 43.73 o
387 3 9 3 1 767.11 813.62 26.28 o
387 2 2 -4 -6 767.11 813.62 26.28 o
387 1 -2 4 6 767.11 813.62 26.28 o
388 3 8 4 2 2064.16 1795.75 24.31 o
388 2 0 -4 -6 2064.16 1795.75 24.31 o
388 1 0 4 6 2064.16 1795.75 24.31 o
389 2 -1 -4 -6 62.21 83.22 16.07 o
389 1 1 4 6 62.21 83.22 16.07 o
390 3 7 5 3 785.52 798.78 22.67 o
390 2 -2 -4 -6 785.52 798.78 22.67 o
390 1 2 4 6 785.52 798.78 22.67 o
391 2 -3 -4 -6 15.89 42.00 16.54 o
391 1 3 4 6 15.89 42.00 16.54 o
392 3 6 6 4 1046.72 887.38 34.58 o
392 2 -4 -4 -6 1046.72 887.38 34.58 o
392 1 4 4 6 1046.72 887.38 34.58 o
393 3 10 2 1 901.99 857.23 25.76 o
393 2 3 -5 -6 901.99 857.23 25.76 o
393 1 -3 5 6 901.99 857.23 25.76 o
394 3 9 3 2 791.35 732.45 25.50 o
394 2 1 -5 -6 791.35 732.45 25.50 o
394 1 -1 5 6 791.35 732.45 25.50 o
395 3 8 4 3 773.17 721.30 24.00 o
395 2 -1 -5 -6 773.17 721.30 24.00 o
395 1 1 5 6 773.17 721.30 24.00 o
396 2 -2 -5 -6 0.53 51.25 16.28 o
396 1 2 5 6 0.53 51.25 16.28 o
397 3 7 5 4 944.25 893.09 25.40 o
397 2 -3 -5 -6 944.25 893.09 25.40 o
397 1 3 5 6 944.25 893.09 25.40 o
398 2 -4 -5 -6 0.00 60.73 17.37 o
398 1 4 5 6 0.00 60.73 17.37 o
399 3 10 2 2 593.65 509.77 28.46 o
399 2 2 -6 -6 593.65 509.77 28.46 o
399 1 -2 6 6 593.65 509.77 28.46 o
400 3 9 3 3 518.95 553.51 25.29 o
400 2 0 -6 -6 518.95 553.51 25.29 o
400 1 0 6 6 518.95 553.51 25.29 o
401 2 -1 -6 -6 25.20 75.42 17.13 o
401 1 1 6 6 25.20 75.42 17.13 o
402 3 8 4 4 607.47 516.48 24.06 o
402 2 -2 -6 -6 607.47 516.48 24.06 o
402 1 2 6 6 607.47 516.48 24.06 o
403 2 -3 -6 -6 11.25 89.05 18.05 o
403 1 3 6 6 11.25 89.05 18.05 o
404 3 7 7 0 88.54 124.82 63.41 <
404 2 0 0 -7 88.54 124.82 63.41 <
404 1 0 0 7 88.54 124.82 63.41 <
405 3 8 6 0 13.64 43.30 47.42 <
405 2 1 -1 -7 13.64 43.30 47.42 <
405 1 -1 1 7 13.64 43.30 47.42 <
406 3 7 7 1 9.73 30.75 39.69 <
406 2 -1 -1 -7 9.73 30.75 39.69 <
406 1 1 1 7 9.73 30.75 39.69 <
407 3 9 5 0 62.78 88.97 34.89 o
407 2 2 -2 -7 62.78 88.97 34.89 o
407 1 -2 2 7 62.78 88.97 34.89 o
408 3 8 6 1 64.55 108.27 23.67 o
408 2 0 -2 -7 64.55 108.27 23.67 o
408 1 0 2 7 64.55 108.27 23.67 o
409 2 -1 -2 -7 10.20 77.52 18.23 o
409 1 1 2 7 10.20 77.52 18.23 o
410 3 7 7 2 57.54 70.93 31.00 o
410 2 -2 -2 -7 57.54 70.93 31.00 o
410 1 2 2 7 57.54 70.93 31.00 o
411 3 10 4 0 16.88 84.65 40.50 o
411 2 3 -3 -7 16.88 84.65 40.50 o
411 1 -3 3 7 16.88 84.65 40.50 o
412 3 9 5 1 14.55 59.55 24.92 o
412 2 1 -3 -7 14.55 59.55 24.92 o
412 1 -1 3 7 14.55 59.55 24.92 o
413 3 8 6 2 17.48 88.21 21.89 o
413 2 -1 -3 -7 17.48 88.21 21.89 o
413 1 1 3 7 17.48 88.21 21.89 o
414 2 -2 -3 -7 1.82 59.55 17.90 o
414 1 2 3 7 1.82 59.55 17.90 o
415 3 7 7 3 6.33 48.37 32.93 <
415 2 -3 -3 -7 6.33 48.37 32.93 <
415 1 3 3 7 6.33 48.37 32.93 <
416 3 10 4 1 10.18 61.27 26.20 o
416 2 2 -4 -7 10.18 61.27 26.20 o
416 1 -2 4 7 10.18 61.27 26.20 o
417 3 9 5 2 39.98 64.17 24.99 o
417 2 0 -4 -7 39.98 64.17 24.99 o
417 1 0 4 7 39.98 64.17 24.99 o
418 2 -1 -4 -7 15.11 71.28 16.86 o
418 1 1 4 7 15.11 71.28 16.86 o
419 3 8 6 3 6.47 66.64 22.95 o
419 2 -2 -4 -7 6.47 66.64 22.95 o
419 1 2 4 7 6.47 66.64 22.95 o
