#------------------------------------------------------------------------------
#$Date: 2019-11-26 08:52:33 +0200 (Tue, 26 Nov 2019) $
#$Revision: 243110 $
#$URL: file:///home/coder/svn-repositories/cod/cif/4/13/32/4133278.cif $
#------------------------------------------------------------------------------
#
# This file is available in the Crystallography Open Database (COD),
# http://www.crystallography.net/
#
# All data on this site have been placed in the public domain by the
# contributors.
#
data_4133278
loop_
_publ_author_name
'B\"orgel, Jonas'
'Tanwar, Lalita'
'Berger, Florian'
'Ritter, Tobias'
_publ_section_title
;
 Late-Stage Aromatic C-H Oxygenation.
;
_journal_issue                   47
_journal_name_full               'Journal of the American Chemical Society'
_journal_page_first              16026
_journal_page_last               16031
_journal_paper_doi               10.1021/jacs.8b09208
_journal_volume                  140
_journal_year                    2018
_chemical_absolute_configuration rmad
_chemical_formula_moiety         'C2 H6 O6 S2'
_chemical_formula_sum            'C2 H6 O6 S2'
_chemical_formula_weight         190.19
_chemical_name_common            bis(Methanesulfonyl)peroxide
_chemical_name_systematic
;
  (((Methylsulfonyl)peroxy)sulfonyl)methane
;
_chemical_properties_physical    'air- and moisture-sensitive'
_space_group_crystal_system      triclinic
_space_group_IT_number           2
_space_group_name_Hall           '-P 1'
_space_group_name_H-M_alt        'P -1'
_atom_sites_solution_hydrogens   geom
_atom_sites_solution_primary     direct
_atom_sites_solution_secondary   difmap
_audit_block_code                BOJ-BA-599-02_11224_100K
_audit_creation_date             2017-12-19
_audit_creation_method
;
Olex2 1.2
(compiled 2017.08.10 svn.r3458 for OlexSys, GUI svn.r5381)
;
_cell_angle_alpha                93.728(6)
_cell_angle_beta                 94.854(5)
_cell_angle_gamma                105.912(4)
_cell_formula_units_Z            2
_cell_length_a                   5.3608(3)
_cell_length_b                   7.6509(4)
_cell_length_c                   8.9401(6)
_cell_measurement_reflns_used    9103
_cell_measurement_temperature    100(2)
_cell_measurement_theta_max      35.9965
_cell_measurement_theta_min      2.7732
_cell_volume                     349.87(4)
_computing_cell_refinement       'REVALCCD V. 1.6, 2008'
_computing_data_collection       'DATCOL (Bruker AXS, 2006)'
_computing_data_reduction        'REVALCCD V. 1.6, 2008'
_computing_molecular_graphics    'DIAMOND (Crystal Impact GbR, 1997-2013)'
_computing_publication_material  'Olex2 (Dolomanov et al., 2009)'
_computing_structure_refinement  'SHELXL (Sheldrick, 2015)'
_computing_structure_solution    'SHELXT (Sheldrick, 2015)'
_diffrn_ambient_temperature      100(2)
_diffrn_detector_area_resol_mean 18.02
_diffrn_measured_fraction_theta_full 0.992
_diffrn_measured_fraction_theta_max 0.992
_diffrn_measurement_device_type  'Bruker AXS Enraf-Nonius KappaCCD'
_diffrn_measurement_method       'CCD \f- and \w-scans'
_diffrn_radiation_monochromator  'Incoatec Helios focusing multilayer optics'
_diffrn_radiation_source         '0.2 x 2mm^2^ focus rotating anode'
_diffrn_radiation_type           MoK\a
_diffrn_radiation_wavelength     0.71073
_diffrn_reflns_av_R_equivalents  0.0244
_diffrn_reflns_av_unetI/netI     0.0283
_diffrn_reflns_Laue_measured_fraction_full 0.992
_diffrn_reflns_Laue_measured_fraction_max 0.992
_diffrn_reflns_limit_h_max       8
_diffrn_reflns_limit_h_min       -8
_diffrn_reflns_limit_k_max       12
_diffrn_reflns_limit_k_min       -12
_diffrn_reflns_limit_l_max       14
_diffrn_reflns_limit_l_min       -14
_diffrn_reflns_number            8714
_diffrn_reflns_point_group_measured_fraction_full 0.992
_diffrn_reflns_point_group_measured_fraction_max 0.992
_diffrn_reflns_theta_full        25.242
_diffrn_reflns_theta_max         36.072
_diffrn_reflns_theta_min         2.780
_diffrn_standards_number         0
_exptl_absorpt_coefficient_mu    0.735
_exptl_absorpt_correction_T_max  0.94656
_exptl_absorpt_correction_T_min  0.91624
_exptl_absorpt_correction_type   gaussian
_exptl_absorpt_process_details   'SADABS (Bruker AXS, 2012)'
_exptl_crystal_colour            colorless
_exptl_crystal_density_diffrn    1.805
_exptl_crystal_description       prism
_exptl_crystal_F_000             196
_exptl_crystal_recrystallization_method
'Re-crystallisation from solvent:  dichloromethane '
_exptl_crystal_size_max          0.14
_exptl_crystal_size_mid          0.10
_exptl_crystal_size_min          0.09
_refine_diff_density_max         0.563
_refine_diff_density_min         -0.622
_refine_diff_density_rms         0.079
_refine_ls_extinction_method     none
_refine_ls_goodness_of_fit_ref   1.044
_refine_ls_hydrogen_treatment    refall
_refine_ls_matrix_type           full
_refine_ls_number_parameters     115
_refine_ls_number_reflns         3304
_refine_ls_number_restraints     0
_refine_ls_restrained_S_all      1.044
_refine_ls_R_factor_all          0.0366
_refine_ls_R_factor_gt           0.0304
_refine_ls_shift/su_max          0.001
_refine_ls_shift/su_mean         0.000
_refine_ls_structure_factor_coef Fsqd
_refine_ls_weighting_details
'w=1/[\s^2^(Fo^2^)+(0.0421P)^2^+0.1261P] where P=(Fo^2^+2Fc^2^)/3'
_refine_ls_weighting_scheme      calc
_refine_ls_wR_factor_gt          0.0788
_refine_ls_wR_factor_ref         0.0831
_reflns_Friedel_coverage         0.000
_reflns_number_gt                2886
_reflns_number_total             3304
_reflns_threshold_expression     'I > 2\s(I)'
_cod_data_source_file            ja8b09208_si_002.cif
_cod_data_source_block           11224sadabs
_cod_database_code               4133278
_shelx_space_group_comment
;
The symmetry employed for this shelxl refinement is uniquely defined
by the following loop, which should always be used as a source of
symmetry information in preference to the above space-group names.
They are only intended as comments.
;
_olex2_refinement_description
;
;
_shelx_res_file
;
TITL 11224sadabs_a.res in P-1
    11224sadabs.res
    created by SHELXL-2016/6 at 09:34:35 on 19-Dec-2017
REM Old TITL 11224sadabs in P-1
REM SHELXT solution in P-1
REM R1 0.062, Rweak 0.003, Alpha 0.045, Orientation as input
REM Formula found by SHELXT: C O3 S
CELL 0.71073 5.3608 7.6509 8.9401 93.728 94.854 105.912
ZERR 2 0.0003 0.0004 0.0006 0.006 0.005 0.004
LATT 1
SFAC C H O S
UNIT 4 12 12 4

L.S. 10
PLAN  20
TEMP -173
BOND $H
list 4
fmap 2
ACTA
REM <olex2.extras>
REM <HklSrc "%.\\11224sadabs.hkl">
REM </olex2.extras>

WGHT    0.042100    0.126100
FVAR       1.74522
S1    4    0.788238    0.685202    0.353818    11.00000    0.01498    0.01325 =
         0.01245   -0.00091    0.00161    0.00423
S2    4    0.690078    0.214672    0.164910    11.00000    0.01294    0.01360 =
         0.01430   -0.00233   -0.00024    0.00479
O1    3    0.831036    0.480407    0.363071    11.00000    0.02282    0.01377 =
         0.01124   -0.00075   -0.00015    0.00595
O2    3    0.888581    0.419947    0.212615    11.00000    0.01510    0.01523 =
         0.01580   -0.00330    0.00271    0.00348
O3    3    0.712158    0.714884    0.500051    11.00000    0.02354    0.02036 =
         0.01676   -0.00345    0.00741    0.00355
O4    3    0.617149    0.681287    0.222105    11.00000    0.02149    0.02015 =
         0.02031   -0.00080   -0.00428    0.00965
O5    3    0.700778    0.106037    0.287178    11.00000    0.02629    0.01544 =
         0.02134    0.00168   -0.00250    0.00737
O6    3    0.784070    0.173274    0.026073    11.00000    0.01764    0.02309 =
         0.01979   -0.00770    0.00364    0.00630
C1    1    1.104116    0.821328    0.338821    11.00000    0.01806    0.01737 =
         0.01856    0.00071    0.00364    0.00196
H1A   2    1.086751    0.944655    0.341042    11.00000    0.03927
H1B   2    1.212731    0.804464    0.429970    11.00000    0.03808
H1C   2    1.154835    0.781900    0.246437    11.00000    0.02866
C2    1    0.382987    0.251287    0.135780    11.00000    0.01265    0.02003 =
         0.01623   -0.00060    0.00001    0.00578
H2A   2    0.387460    0.333284    0.061764    11.00000    0.04008
H2B   2    0.342469    0.295328    0.226271    11.00000    0.02608
H2C   2    0.268890    0.133330    0.088908    11.00000    0.03515
HKLF 4




REM  11224sadabs_a.res in P-1
REM R1 =  0.0304 for    2886 Fo > 4sig(Fo)  and  0.0366 for all    3304 data
REM    115 parameters refined using      0 restraints

END

WGHT      0.0421      0.1261

REM Highest difference peak  0.563,  deepest hole -0.622,  1-sigma level  0.079
Q1    1   0.5297  0.2408  0.1532  11.00000  0.05    0.56
Q2    1   0.7103  0.1561  0.2276  11.00000  0.05    0.43
Q3    1   0.9426  0.7790  0.3185  11.00000  0.05    0.40
Q4    1   0.7397  0.1897  0.0833  11.00000  0.05    0.40
Q5    1   0.6388  0.6512  0.2778  11.00000  0.05    0.36
Q6    1   0.8683  0.5810  0.3468  11.00000  0.05    0.35
Q7    1   0.7597  0.6967  0.4351  11.00000  0.05    0.34
Q8    1   0.7395  0.4255  0.1302  11.00000  0.05    0.33
Q9    1   0.6760  0.6023  0.2555  11.00000  0.05    0.31
Q10   1   0.7690  0.6819  0.2357  11.00000  0.05    0.30
Q11   1   0.8154  0.8927  0.3066  11.00000  0.05    0.27
Q12   1   0.8877  0.4242  0.2495  11.00000  0.05    0.26
Q13   1   0.6803  0.7380  0.4186  11.00000  0.05    0.26
Q14   1   0.7875  0.3511  0.1906  11.00000  0.05    0.24
Q15   1   0.7020  0.5312  0.3634  11.00000  0.05    0.24
Q16   1   1.1142  0.8469  0.4592  11.00000  0.05    0.24
Q17   1   0.9774  0.5340  0.3916  11.00000  0.05    0.24
Q18   1   0.9728  0.6878  0.3526  11.00000  0.05    0.24
Q19   1   0.7297  0.7310  0.2778  11.00000  0.05    0.23
Q20   1   0.6261  0.5016  0.2168  11.00000  0.05    0.23
;
_shelx_res_checksum              12032
_olex2_submission_special_instructions 'No special instructions were received'
_shelx_shelxl_version_number     2016/6
loop_
_space_group_symop_operation_xyz
'x, y, z'
'-x, -y, -z'
loop_
_atom_site_label
_atom_site_type_symbol
_atom_site_fract_x
_atom_site_fract_y
_atom_site_fract_z
_atom_site_U_iso_or_equiv
_atom_site_adp_type
_atom_site_occupancy
_atom_site_site_symmetry_order
_atom_site_calc_flag
S1 S 0.78824(5) 0.68520(3) 0.35382(3) 0.01359(6) Uani 1 1 d
S2 S 0.69008(4) 0.21467(3) 0.16491(3) 0.01367(6) Uani 1 1 d
O1 O 0.83104(15) 0.48041(10) 0.36307(8) 0.01599(13) Uani 1 1 d
O2 O 0.88858(14) 0.41995(10) 0.21262(8) 0.01568(13) Uani 1 1 d
O3 O 0.71216(17) 0.71488(11) 0.50005(9) 0.02067(15) Uani 1 1 d
O4 O 0.61715(16) 0.68129(11) 0.22211(9) 0.02040(15) Uani 1 1 d
O5 O 0.70078(17) 0.10604(10) 0.28718(9) 0.02102(15) Uani 1 1 d
O6 O 0.78407(16) 0.17327(11) 0.02607(9) 0.02040(15) Uani 1 1 d
C1 C 1.1041(2) 0.82133(14) 0.33882(12) 0.01854(17) Uani 1 1 d
H1A H 1.087(4) 0.945(3) 0.341(2) 0.039(5) Uiso 1 1 d
H1B H 1.213(4) 0.804(3) 0.430(2) 0.038(5) Uiso 1 1 d
H1C H 1.155(4) 0.782(3) 0.246(2) 0.029(4) Uiso 1 1 d
C2 C 0.38299(19) 0.25129(14) 0.13578(12) 0.01626(16) Uani 1 1 d
H2A H 0.387(4) 0.333(3) 0.062(2) 0.040(5) Uiso 1 1 d
H2B H 0.342(4) 0.295(2) 0.226(2) 0.026(4) Uiso 1 1 d
H2C H 0.269(4) 0.133(3) 0.089(2) 0.035(5) Uiso 1 1 d
loop_
_atom_site_aniso_label
_atom_site_aniso_U_11
_atom_site_aniso_U_22
_atom_site_aniso_U_33
_atom_site_aniso_U_23
_atom_site_aniso_U_13
_atom_site_aniso_U_12
S1 0.01498(10) 0.01325(10) 0.01245(10) -0.00091(7) 0.00161(7) 0.00423(7)
S2 0.01294(10) 0.01360(10) 0.01430(10) -0.00233(7) -0.00024(7) 0.00479(7)
O1 0.0228(3) 0.0138(3) 0.0112(3) -0.0008(2) -0.0002(2) 0.0059(2)
O2 0.0151(3) 0.0152(3) 0.0158(3) -0.0033(2) 0.0027(2) 0.0035(2)
O3 0.0235(4) 0.0204(3) 0.0168(3) -0.0035(3) 0.0074(3) 0.0035(3)
O4 0.0215(4) 0.0201(3) 0.0203(3) -0.0008(3) -0.0043(3) 0.0096(3)
O5 0.0263(4) 0.0154(3) 0.0213(4) 0.0017(3) -0.0025(3) 0.0074(3)
O6 0.0176(3) 0.0231(3) 0.0198(3) -0.0077(3) 0.0036(3) 0.0063(3)
C1 0.0181(4) 0.0174(4) 0.0186(4) 0.0007(3) 0.0036(3) 0.0020(3)
C2 0.0126(4) 0.0200(4) 0.0162(4) -0.0006(3) 0.0000(3) 0.0058(3)
loop_
_atom_type_symbol
_atom_type_description
_atom_type_scat_dispersion_real
_atom_type_scat_dispersion_imag
_atom_type_scat_source
C C 0.0033 0.0016 'International Tables Vol C Tables 4.2.6.8 and 6.1.1.4'
H H 0.0000 0.0000 'International Tables Vol C Tables 4.2.6.8 and 6.1.1.4'
O O 0.0106 0.0060 'International Tables Vol C Tables 4.2.6.8 and 6.1.1.4'
S S 0.1246 0.1234 'International Tables Vol C Tables 4.2.6.8 and 6.1.1.4'
loop_
_exptl_crystal_face_index_h
_exptl_crystal_face_index_k
_exptl_crystal_face_index_l
_exptl_crystal_face_perp_dist
0.00 0.00 1.00 0.0500
0.00 0.00 -1.00 0.0500
1.00 0.00 0.00 0.0450
-1.00 0.00 0.00 0.0450
0.00 1.00 0.00 0.0700
0.00 -1.00 0.00 0.0700
loop_
_geom_angle_atom_site_label_1
_geom_angle_atom_site_label_2
_geom_angle_atom_site_label_3
_geom_angle
O1 S1 C1 102.42(5)
O3 S1 O1 100.32(4)
O3 S1 C1 111.10(5)
O4 S1 O1 108.45(4)
O4 S1 O3 120.78(5)
O4 S1 C1 111.51(5)
O2 S2 C2 104.01(4)
O5 S2 O2 108.70(4)
O5 S2 O6 120.49(5)
O5 S2 C2 110.57(5)
O6 S2 O2 99.47(4)
O6 S2 C2 111.70(5)
O2 O1 S1 107.53(5)
O1 O2 S2 106.98(5)
S1 C1 H1A 104.1(12)
S1 C1 H1B 105.6(12)
S1 C1 H1C 107.3(11)
H1A C1 H1B 111.7(17)
H1A C1 H1C 113.0(16)
H1B C1 H1C 114.2(16)
S2 C2 H2A 108.5(13)
S2 C2 H2B 108.4(12)
S2 C2 H2C 104.3(12)
H2A C2 H2B 112.2(16)
H2A C2 H2C 105.5(17)
H2B C2 H2C 117.3(16)
loop_
_geom_bond_atom_site_label_1
_geom_bond_atom_site_label_2
_geom_bond_distance
S1 O1 1.6509(8)
S1 O3 1.4246(8)
S1 O4 1.4235(8)
S1 C1 1.7492(11)
S2 O2 1.6433(8)
S2 O5 1.4222(8)
S2 O6 1.4273(8)
S2 C2 1.7454(10)
O1 O2 1.4785(10)
C1 H1A 0.97(2)
C1 H1B 1.00(2)
C1 H1C 0.947(18)
C2 H2A 0.94(2)
C2 H2B 0.922(18)
C2 H2C 0.98(2)
