#------------------------------------------------------------------------------
#$Date: 2020-02-29 01:46:15 +0200 (Sat, 29 Feb 2020) $
#$Revision: 248548 $
#$URL: file:///home/coder/svn-repositories/cod/cif/4/13/42/4134281.cif $
#------------------------------------------------------------------------------
#
# This file is available in the Crystallography Open Database (COD),
# http://www.crystallography.net/
#
# All data on this site have been placed in the public domain by the
# contributors.
#
data_4134281
loop_
_publ_author_name
'Zhang, Han-Yue'
'Song, Xian-Jiang'
'Chen, Xiao-Gang'
'Zhang, Zhi-Xu'
'You, Yu-Meng'
'Tang, Yuan-Yuan'
'Xiong, Ren-Gen'
_publ_section_title
;
 Observation of vortex domains in a two-dimensional lead iodide perovskite
 ferroelectric.
;
_journal_name_full               'Journal of the American Chemical Society'
_journal_paper_doi               10.1021/jacs.0c00371
_journal_year                    2020
_chemical_formula_moiety         'I4 Pb, 2(C2 N), C6'
_chemical_formula_sum            'C10 H0 F0 I4 N2 Pb'
_chemical_formula_weight         862.92
_space_group_crystal_system      tetragonal
_space_group_IT_number           139
_space_group_name_Hall           '-I 4 2'
_space_group_name_H-M_alt        'I 4/m m m'
_audit_creation_method           SHELXL-2014/7
_cell_angle_alpha                90
_cell_angle_beta                 90
_cell_angle_gamma                90
_cell_formula_units_Z            2
_cell_length_a                   6.5653(7)
_cell_length_b                   6.5653(7)
_cell_length_c                   25.810(7)
_cell_measurement_reflns_used    622
_cell_measurement_temperature    453(2)
_cell_measurement_theta_max      29.2680
_cell_measurement_theta_min      3.8920
_cell_volume                     1112.5(3)
_computing_structure_refinement  'SHELXL-2014/7 (Sheldrick, 2014)'
_diffrn_ambient_temperature      453(2)
_diffrn_measured_fraction_theta_full 0.997
_diffrn_measured_fraction_theta_max 0.847
_diffrn_measurement_device_type  'XtaLAB Synergy R, DW system, HyPix'
_diffrn_radiation_type           MoK\a
_diffrn_radiation_wavelength     0.71073
_diffrn_reflns_av_R_equivalents  0.0511
_diffrn_reflns_av_unetI/netI     0.0489
_diffrn_reflns_Laue_measured_fraction_full 0.997
_diffrn_reflns_Laue_measured_fraction_max 0.847
_diffrn_reflns_limit_h_max       5
_diffrn_reflns_limit_h_min       -9
_diffrn_reflns_limit_k_max       7
_diffrn_reflns_limit_k_min       -9
_diffrn_reflns_limit_l_max       26
_diffrn_reflns_limit_l_min       -36
_diffrn_reflns_number            2216
_diffrn_reflns_point_group_measured_fraction_full 0.997
_diffrn_reflns_point_group_measured_fraction_max 0.847
_diffrn_reflns_theta_full        25.242
_diffrn_reflns_theta_max         30.412
_diffrn_reflns_theta_min         3.157
_diffrn_source                   'Rotating-anode X-ray tube'
_exptl_absorpt_coefficient_mu    13.119
_exptl_absorpt_correction_T_max  0.049
_exptl_absorpt_correction_T_min  0.027
_exptl_absorpt_correction_type   multi-scan
_exptl_absorpt_process_details
;
CrysAlisPro 1.171.40.14e (Rigaku Oxford Diffraction, 2018)
Empirical absorption correction using spherical harmonics,
 implemented in SCALE3 ABSPACK scaling algorithm.
;
_exptl_crystal_colour            red
_exptl_crystal_density_diffrn    2.576
_exptl_crystal_description       sheet
_exptl_crystal_F_000             736
_exptl_crystal_size_max          0.3
_exptl_crystal_size_mid          0.26
_exptl_crystal_size_min          0.23
_refine_diff_density_max         0.762
_refine_diff_density_min         -1.741
_refine_diff_density_rms         0.216
_refine_ls_extinction_method     none
_refine_ls_goodness_of_fit_ref   1.164
_refine_ls_hydrogen_treatment    undef
_refine_ls_matrix_type           full
_refine_ls_number_parameters     27
_refine_ls_number_reflns         471
_refine_ls_number_restraints     18
_refine_ls_restrained_S_all      1.143
_refine_ls_R_factor_all          0.1066
_refine_ls_R_factor_gt           0.0594
_refine_ls_shift/su_max          0.000
_refine_ls_shift/su_mean         0.000
_refine_ls_structure_factor_coef Fsqd
_refine_ls_weighting_details
'w=1/[\s^2^(Fo^2^)+(0.1034P)^2^] where P=(Fo^2^+2Fc^2^)/3'
_refine_ls_weighting_scheme      calc
_refine_ls_wR_factor_gt          0.1765
_refine_ls_wR_factor_ref         0.1999
_reflns_Friedel_coverage         0.000
_reflns_number_gt                258
_reflns_number_total             556
_reflns_threshold_expression     'I > 2\s(I)'
_cod_data_source_file            ja0c00371_si_011.cif
_cod_data_source_block           I4MMM
_cod_original_cell_volume        1112.5(4)
_cod_database_code               4134281
_shelx_shelxl_version_number     2014/7
_shelx_space_group_comment
;
The symmetry employed for this shelxl refinement is uniquely defined
by the following loop, which should always be used as a source of
symmetry information in preference to the above space-group names.
They are only intended as comments.
;
_shelx_res_file
;

    I4MMM.res created by SHELXL-2014/7

TITL I4MMM in I4/mmm
CELL 0.71073   6.5653   6.5653  25.8096  90.000  90.000  90.000
ZERR    2.00   0.0007   0.0007   0.0068   0.000   0.000   0.000
LATT 2
SYMM -X, -Y, Z
SYMM -Y, X, Z
SYMM Y, -X, Z
SYMM -X, Y, -Z
SYMM X, -Y, -Z
SYMM Y, X, -Z
SYMM -Y, -X, -Z
SFAC C  H  N  F  I  Pb
UNIT 20 0 4 0 8 2
L.S. 200
ACTA
BOND
FMAP 2
PLAN 5
SIMU 0.01
WGHT    0.103400
FVAR       0.12059
MOLE 1
PB1   6    0.000000    1.000000    0.000000    10.06250    0.09725    0.09725 =
         0.08747    0.00000    0.00000    0.00000
I1    5    0.000000    0.500000    0.000000    10.12500    0.15789    0.07899 =
         0.12698    0.00000    0.00000    0.00000
I2    5    0.000000    1.000000    0.122579    10.12500    0.23266    0.23266 =
         0.09553    0.00000    0.00000    0.00000
C1    1    0.500000    0.671446    0.874232    10.25000    0.31857    0.31365 =
         0.10052   -0.00394    0.00000    0.00000
C2    1    0.646605    0.646605    0.803539    10.25000    0.31963    0.31963 =
         0.10523   -0.00155   -0.00155   -0.00276
C3    1    0.500000    0.500000    0.787940    10.12500    0.32187    0.32187 =
         0.10874    0.00000    0.00000    0.00000
N1    3    0.500000    0.500000    0.900432    10.12500    0.31675    0.31675 =
         0.09916    0.00000    0.00000    0.00000
HKLF 4

REM  I4MMM in I4/mmm
REM R1 =  0.0594 for     258 Fo > 4sig(Fo)  and  0.1066 for all     471 data
REM     27 parameters refined using     18 restraints

END

WGHT      0.1229      0.0000

REM Highest difference peak  0.762,  deepest hole -1.741,  1-sigma level  0.216
Q1    1   0.5000  0.7542  0.8012  10.50000  0.05    0.76
Q2    1   0.0000  0.6333  0.0000  10.25000  0.05    0.66
Q3    1   0.0000  1.1770  0.0000  10.25000  0.05    0.61
Q4    1   0.5000  0.5000  0.7452  10.12500  0.05    0.55
Q5    1  -0.0983  0.5000 -0.0214  10.50000  0.05    0.51
;
_shelx_res_checksum              12191
_shelx_hkl_file
;
   0   0   4  219.00   11.00
   0   0   6 1460.81   70.64
   0   0   8 2637.26  127.15
   0   0  10 1401.31   68.27
   0   0  12   27.74    2.70
   0   0  14  240.85   12.99
   0   0  16  515.61   25.61
   0   0 -16  495.05   24.82
   0   0 -18  140.45    7.78
   0   0  18  143.73    8.56
   0   0 -18  150.23    8.69
   0   0 -20   12.79    1.69
   0   0 -20    8.13    2.38
   0   0 -22   18.80    2.98
   0   0 -22   17.39    2.06
   0   0 -24   39.11    3.99
   0   0 -24   40.97    3.15
   0   0 -26   12.82    2.86
   0   0 -28   -0.22    2.45
   0   0 -30    1.98    2.54
   0   0 -32    2.38    2.66
  -1   0   1  540.74   26.05
   1   0  -1  545.84   26.04
   1   0  -3  179.01    8.67
  -1   0   5    4.00    0.44
   1   0  -5    5.06    0.83
   0  -1   5    5.58    0.77
   1   0  -5    4.33    0.43
   0  -1   7  794.43   38.73
   1   0  -7  824.59   38.93
   1   0  -7  795.44   38.46
  -1   0  -7  795.08   38.66
  -1   0   7  795.61   38.55
   0  -1  -9  430.81   21.36
   1   0  -9  423.79   21.02
   0  -1   9  426.36   21.45
  -1   0  -9  451.18   21.44
  -1   0   9  424.73   21.17
   1   0  -9  452.91   21.65
   0  -1  11   12.50    1.80
  -1   0  11   10.80    1.78
   0  -1 -11   12.89    1.60
   0   1 -11   10.67    1.38
   1   0 -11   12.12    1.85
  -1   0 -11   12.84    1.63
   1   0 -11   12.54    1.13
   0  -1  13    7.68    1.85
   0   1 -13    5.87    1.37
   1   0 -13    6.30    0.98
  -1   0  13    6.58    1.77
   1   0 -13    7.28    1.87
  -1   0 -13    5.49    1.55
   0   1 -15  137.03    7.55
  -1   0 -15  124.07    7.63
   0  -1 -15  131.33    7.08
  -1   0  15  130.58    7.81
   1   0 -15  127.18    6.87
   0  -1  15  130.01    7.86
   1   0 -15  135.94    7.83
  -1   0  17  150.19    8.66
  -1   0 -17  140.04    8.40
   0  -1  17  143.71    8.72
   0   1 -17  149.36    8.34
   0  -1 -17  152.76    7.85
   1   0 -17  131.32    7.52
   0   1 -19    8.26    2.06
  -1   0 -19    8.07    2.24
   1   0 -19    4.62    1.19
   0  -1 -19    5.37    1.47
   0  -1  19    2.47    2.33
  -1   0  19    4.68    2.19
  -1   0 -21    1.67    2.05
   0  -1 -21   -0.22    1.35
   0   1 -21    1.68    2.17
  -1   0  21    1.37    2.16
   1   0 -21    0.16    1.10
   0  -1  21   -0.42    2.27
   0   1 -23   18.11    2.84
   0   1 -23   15.65    2.01
   0  -1 -23   19.33    2.25
   0  -1  23   18.93    3.07
   1   0 -23   17.00    1.85
  -1   0 -23   13.94    2.80
  -1   0  23   16.14    2.88
   0   1 -25   15.51    2.93
   0  -1 -25   16.48    2.95
   0   1 -25   15.78    1.99
   1   0 -25   12.71    1.83
   0  -1  25   18.67    3.21
   0  -1 -25   14.51    2.30
  -1   0 -25   14.90    2.98
  -1   0 -27    2.07    2.29
   0   1 -27    2.60    2.62
   0  -1 -27    2.37    2.47
  -1   0 -29   -1.47    2.46
   0  -1 -29    0.64    2.39
   1   0 -29    3.45    2.45
   0  -1 -31   -1.29    2.46
  -1   0 -31    5.71    2.84
   1   0 -31    0.88    2.52
  -1   0 -33   -0.23    2.74
  -1  -1 -32    0.67    2.66
  -1  -1 -30    0.44    2.53
  -1  -1 -28    2.53    2.46
  -1  -1 -26    0.20    2.22
   1   1 -24    8.46    1.56
  -1  -1 -24    8.33    2.46
  -1  -1 -22   -0.56    2.02
  -1  -1 -20    3.37    1.92
   1  -1  18    3.60    1.99
  -1  -1 -18    6.36    1.78
   1  -1  16   57.94    4.32
  -1  -1 -16   48.51    3.64
  -1  -1 -14    2.05    1.06
   1  -1  14    1.77    1.72
   1  -1  12  127.72    7.57
   1  -1  10    9.22    1.80
   1  -1   8  156.33    8.48
   1  -1   6   45.93    2.99
   1  -1   4  614.11   29.71
  -1  -1   0  405.32   19.43
   1  -1  -2   59.11    3.14
  -1  -1   2   68.06    3.17
  -1  -1   4  605.90   29.39
   1  -1  -4  619.81   29.86
   1  -1  -4  612.72   29.35
  -1  -1   6   40.85    2.33
   1  -1  -6   43.00    2.24
   1  -1  -6   44.29    3.00
  -1   1  -6   42.45    2.39
  -1   1  -8  147.55    7.76
   1  -1  -8  150.76    8.37
  -1  -1   8  151.69    7.69
  -1  -1   8  151.91    7.89
   1  -1  -8  152.25    7.54
  -1   1 -10    9.04    1.32
  -1  -1  10    8.38    1.11
   1  -1 -10    8.43    0.92
   1  -1 -10    8.67    1.78
  -1  -1  10    7.85    1.38
   1  -1 -12  131.23    6.73
   1  -1 -12  125.15    7.65
  -1  -1  12  124.59    7.32
  -1   1 -12  133.41    7.24
  -1  -1  14    4.32    1.61
   1  -1 -14    4.43    0.95
   1  -1 -14    1.85    1.71
  -1   1 -14    6.78    1.62
   1  -1 -16   52.41    3.35
   1  -1 -16   54.45    4.37
  -1  -1  16   57.48    4.37
  -1   1 -16   63.73    4.19
  -1   1 -18    5.24    1.98
   1  -1 -18    5.49    1.23
   1  -1 -18    5.44    2.12
  -1  -1  18    7.92    2.45
   1  -1 -20    8.79    1.42
  -1  -1  20    7.09    2.52
  -1   1 -20    4.85    2.05
   1  -1 -20    4.57    2.31
   1  -1 -22   -1.28    1.25
  -1  -1  22   -0.46    2.44
  -1   1 -22    1.68    2.09
   1  -1 -22   -1.46    2.18
   1  -1 -24    6.46    2.55
  -1  -1  24    8.37    3.22
  -1   1 -24   14.24    2.78
   1  -1 -24   11.01    1.72
  -1   1 -26    1.57    2.24
  -1   1 -28    1.64    2.42
  -1   1 -30   -0.21    2.53
  -1   1 -32    1.54    2.95
  -2   0   0 2083.48   99.76
  -2   0   2  944.75   46.92
   0   2  -2 1020.21   46.88
   2   0  -2  954.71   46.90
   2   0  -4  264.10   12.53
   0   2  -4  267.46   12.61
   0  -2  -4  265.31   12.62
  -2   0   4  268.14   12.86
  -2   0   4  240.18   12.54
  -2   0   6  650.92   31.31
   0   2  -6  627.92   31.02
   2   0  -6  645.94   30.87
  -2   0   8 1240.49   62.58
   2   0  -8 1312.57   62.02
   0   2  -8 1287.41   62.23
  -2   0   8 1286.62   62.11
   0  -2  10  490.57   24.31
   0   2 -10  498.13   24.13
  -2   0  10  495.23   24.06
   0  -2 -10  485.44   24.14
  -2   0  12   91.52    5.01
   2   0 -12   88.92    5.54
   0   2 -12   98.15    5.05
   2   0 -12   91.16    4.74
   0  -2  12   83.71    5.24
  -2   0 -12   90.01    5.18
   0  -2 -12   86.36    5.00
   2   0 -14  141.91    7.15
   0  -2 -14  139.96    7.44
   0  -2 -14  132.53    7.67
  -2   0 -14  138.87    7.76
  -2   0  14  131.37    7.47
   0   2 -14  138.07    7.40
   0  -2  14  135.37    7.89
   2   0 -14  158.38    8.27
   0  -2  16  244.82   13.52
   0  -2 -16  237.33   13.31
  -2   0 -16  242.26   13.34
   0   2 -16  261.82   12.89
   0  -2 -16  263.87   12.95
   2   0 -16  246.68   12.60
  -2   0  16  241.66   13.10
   2   0 -16  280.34   13.87
   0   2 -18   87.27    5.07
  -2   0 -18   80.37    5.69
   0  -2 -18   84.14    5.66
   2   0 -18   88.30    4.83
   0  -2  18   79.18    5.86
   2   0 -18   93.98    6.12
   0  -2 -18   90.19    5.18
  -2   0 -20   10.16    2.45
   0  -2 -20   11.00    2.32
   2   0 -20   14.95    1.50
   2   0 -20   13.32    2.68
   0   2 -20   15.09    1.81
   0  -2  20   11.37    2.71
   0  -2 -20   12.38    1.89
   0  -2 -22   14.66    2.02
   2   0 -22   14.43    1.61
   0   2 -22   13.74    1.84
  -2   0 -22   10.18    2.59
   0  -2  22   11.77    2.87
  -2   0 -24   26.17    3.46
   2   0 -24   29.05    3.70
   2   0 -24   25.65    2.23
   0  -2  24   24.93    3.61
   0   2 -24   27.37    2.57
  -2   0  24   26.80    3.66
   0  -2 -24   29.50    2.91
   2   0 -26   10.60    2.92
  -2   0 -26    6.14    2.62
  -2   0 -28    0.66    2.59
  -2   0 -30    3.74    2.77
  -2   0 -32    1.58    2.89
  -2  -1 -31    0.23    2.81
  -1  -2 -31   -1.35    2.63
  -2  -1 -29   -0.44    2.58
  -1  -2 -29   -2.21    2.75
  -2  -1 -27   -0.21    2.34
  -1  -2 -27   -0.65    2.38
   1  -2  25   11.38    2.63
  -1  -2 -25    5.26    2.47
  -2  -1 -25    5.70    2.54
  -2  -1 -23    6.72    2.35
   1  -2  23    7.05    2.45
  -1  -2 -23    8.49    2.30
   2   1 -23   11.57    1.53
   1   2 -23    9.26    1.53
   1   2 -21    0.97    1.14
  -2  -1 -21   -0.33    1.72
   1  -2  21    2.67    2.19
  -1  -2 -21    1.35    1.87
   1  -2  19    5.53    2.27
  -2  -1 -19    4.25    1.73
  -2   1  19    4.65    2.03
   1   2 -19    4.07    1.19
  -2  -1 -17   77.55    4.91
  -2   1  17   69.72    5.28
   1   2 -17   81.57    4.51
   1  -2  17   83.47    5.62
   1   2 -15   88.58    4.63
  -2   1  15   89.37    5.56
   1  -2  15   79.72    5.51
  -2   1  15   72.15    4.82
  -2  -1 -15   83.57    4.89
  -2   1  13    6.18    1.85
   1  -2  13    4.99    1.65
   1   2 -13    7.62    1.01
   1  -2  11   18.60    1.94
  -2   1  11   18.87    2.30
   1   2 -11   17.70    1.32
   1   2  -9  300.67   14.53
  -2   1   9  305.80   15.43
   1  -2   9  284.93   14.88
   1  -2   7  349.84   16.79
  -2   1   7  342.89   17.34
   1   2  -7  335.72   16.56
  -1   2   7  344.94   16.74
   1   2  -5   38.37    1.96
  -2   1   5   39.21    2.72
  -1   2   5   35.92    2.05
  -2   1   3   21.63    1.76
   1   2  -3   21.60    1.12
  -1   2   3   21.77    1.18
  -2   1   1  502.28   22.62
  -1   2   1  458.52   22.27
  -1  -2   1  475.28   22.52
  -2  -1   1  460.91   22.55
  -1  -2   3   21.63    1.20
   2  -1  -3   24.11    1.56
   2  -1  -3   25.44    1.21
   1  -2  -3   22.28    1.13
   1  -2  -5   38.46    2.00
  -2   1  -5   39.10    2.24
  -1  -2   5   36.44    2.11
   2  -1  -5   38.80    2.02
   2  -1  -5   43.58    2.70
   2  -1  -7  377.51   17.76
  -2   1  -7  353.93   17.20
  -2  -1   7  355.37   16.95
  -1  -2   7  335.00   17.04
   1  -2  -7  338.42   16.85
   2  -1  -7  350.53   16.85
   1  -2  -9  313.56   15.51
  -2   1  -9  301.46   15.37
   2  -1  -9  296.02   14.89
   2  -1  -9  319.71   16.00
  -2  -1   9  301.87   15.05
   1  -2  -9  315.31   14.97
   2  -1 -11   19.07    2.42
  -1  -2  11   15.95    1.69
  -2  -1  11   17.42    1.55
   1  -2 -11   17.41    2.00
  -2   1 -11   21.11    1.98
   1  -2 -11   20.39    1.42
  -1  -2  13    4.38    1.35
   1  -2 -13    5.61    1.64
   2  -1 -13    8.16    0.91
   2  -1 -13    8.22    2.12
  -2   1 -13    5.86    1.54
  -2  -1  13    4.08    1.04
   1  -2 -13    8.30    1.03
   1  -2 -15   90.94    4.91
  -2   1 -15   95.62    5.59
  -2  -1  15   77.27    5.15
  -1  -2  15   84.70    5.59
  -2  -1  15   84.19    5.77
   1  -2 -15   80.38    5.72
   2  -1 -15  102.94    6.23
   2  -1 -15   93.73    4.82
   2  -1 -17   73.90    5.52
   1  -2 -17   73.32    4.38
  -1  -2  17   73.64    5.27
  -2  -1  17   78.89    5.56
   1  -2 -17   68.74    5.30
  -2   1 -17   82.14    5.24
   2  -1 -17   82.04    4.36
   1  -2 -19    3.74    2.24
  -2   1 -19    8.64    2.07
  -1  -2  19    4.76    2.38
   2  -1 -19    5.80    1.15
  -2  -1  19    5.60    2.50
   2  -1 -19    6.11    2.33
   1  -2 -19    5.69    1.24
  -2   1 -21    0.48    1.92
  -2  -1  21    2.60    2.46
  -1  -2  21    0.22    2.40
   1  -2 -21    0.20    2.03
   2  -1 -21    2.33    2.30
   2  -1 -21    1.03    1.09
   1  -2 -21    1.47    1.19
   2  -1 -23   11.07    1.55
   2  -1 -23   14.03    2.93
   1  -2 -23    9.72    1.72
  -2  -1  23   14.77    3.21
   1  -2 -23    8.02    2.58
  -1  -2  23    9.47    2.85
  -2   1 -23   10.05    2.41
   2  -1 -25   11.77    2.86
  -2   1 -25    7.82    2.46
   1  -2 -25    4.57    2.52
  -2   1 -27    2.10    2.40
   2  -1 -27   -0.67    2.54
   1  -2 -27   -2.97    2.61
   2  -1 -29   -0.22    2.50
   1  -2 -29   -1.63    2.54
  -2   1 -29   -2.51    2.45
   2  -1 -31    1.13    2.72
   1  -2 -31   -0.46    2.71
  -2   1 -31    1.20    2.68
  -2   1 -33    0.42    2.83
  -2  -2 -30   -2.48    2.68
  -2  -2 -28    1.10    2.40
  -2  -2 -26    3.02    2.32
  -2  -2 -24   12.45    2.66
   2   2 -22    9.95    1.43
  -2  -2 -22    8.12    2.15
  -2  -2 -20   10.67    2.04
   2   2 -20   12.44    1.47
   2   2 -18   62.59    3.61
  -2  -2 -18   58.89    4.08
   2   2 -16  136.32    7.08
  -2   2  14   85.66    4.96
   2  -2  14   82.10    5.26
   2  -2  12   63.20    4.30
  -2   2  12   68.46    3.91
   2   2 -10  303.86   14.26
   2  -2  10  279.02   14.88
  -2   2  10  278.40   14.47
  -2   2   8  576.66   28.45
   2  -2   8  592.13   28.84
   2   2  -8  591.78   28.31
   2  -2   6  328.17   16.39
   2   2  -6  339.20   16.06
  -2   2   6  323.36   16.14
  -2   2   4  223.27   11.19
   2   2  -4  234.97   11.14
  -2   2   2  538.14   25.87
   2  -2   0  977.39   48.18
  -2  -2   0 1001.71   47.90
  -2   2   0 1002.34   47.90
  -2  -2   2  534.87   26.27
   2  -2  -2  619.52   26.90
   2  -2  -4  243.06   11.33
   2  -2  -4  234.14   12.13
  -2  -2   4  221.31   11.38
   2  -2  -6  337.11   16.33
   2  -2  -6  348.73   17.36
  -2  -2   6  336.28   16.44
   2  -2  -8  573.90   28.09
  -2  -2   8  592.81   28.27
   2  -2  -8  602.73   29.32
  -2  -2  10  284.61   14.59
   2  -2 -10  294.92   15.66
   2  -2 -10  298.74   14.36
  -2  -2  12   71.06    4.18
   2  -2 -12   77.70    5.25
  -2  -2  12   72.28    4.41
  -2  -2  14   88.62    5.19
   2  -2 -14   94.87    6.20
  -2  -2  14   86.61    5.45
   2  -2 -16  129.50    8.13
  -2  -2  16  113.88    7.55
   2  -2 -16  136.87    6.84
  -2  -2  18   50.23    4.51
   2  -2 -18   62.91    4.98
   2  -2 -18   62.23    3.56
  -2  -2  20   12.87    2.66
   2  -2 -20   12.77    1.50
   2  -2 -20   14.63    2.87
   2  -2 -22    5.02    2.64
   2  -2 -22    8.17    1.39
  -2  -2  22    7.25    2.74
   2  -2 -24   17.14    3.29
   2  -2 -26    7.07    2.88
   2  -2 -28   -2.98    2.62
   2  -2 -30    0.71    2.71
  -3   0   1  175.71    8.57
   0  -3  -3    8.32    0.46
  -3   0   3    7.08    0.57
   0  -3  -5    8.21    0.70
  -3   0   5    9.85    1.21
  -3   0   5    6.11    0.63
   3   0  -5   10.13    0.71
   0   3  -5    8.66    0.68
   3   0  -7  138.17    6.97
   0   3  -7  147.74    7.10
  -3   0   7  147.26    7.62
   0  -3  -7  134.47    7.07
  -3   0   9  123.62    6.87
   0  -3  -9  120.18    6.23
   3   0  -9  123.06    6.05
   0   3  -9  138.04    6.33
  -3   0   9  106.39    6.09
  -3   0  11   11.24    1.91
   0   3 -11    8.98    1.19
   3   0 -11    7.97    0.82
  -3   0  11    6.54    0.90
   0  -3 -11   10.08    1.15
  -3   0 -13    2.17    1.14
   0  -3 -13    3.54    0.93
  -3   0  13    2.19    1.82
   3   0 -13    2.15    0.77
  -3   0  13    1.64    0.79
   0  -3  13    3.06    1.21
   0   3 -13    3.56    1.08
  -3   0 -15   39.94    3.10
  -3   0  15   42.14    3.72
   0   3 -15   42.97    2.77
   3   0 -15   41.83    2.38
   0  -3 -15   33.28    2.54
  -3   0  15   37.09    2.73
   0   3 -17   40.59    2.90
   0  -3 -17   38.47    3.22
  -3   0  17   38.89    4.03
   0  -3  17   32.86    3.25
  -3   0  17   34.56    2.95
   0  -3 -17   40.19    2.78
  -3   0 -17   37.95    3.36
   3   0 -17   43.97    2.60
   0  -3 -19    3.09    1.80
   0   3 -19    3.10    1.42
  -3   0  19    1.54    2.37
  -3   0  19   -0.14    1.73
   0  -3  19    0.16    1.98
   0  -3 -19    3.38    1.30
  -3   0 -19    2.01    1.97
  -3   0 -21   -0.19    2.17
   0  -3 -21    0.92    1.87
   0  -3 -21    0.66    1.32
  -3   0  21    1.41    2.45
   0  -3  21    0.74    2.12
   0   3 -21   -0.70    1.44
   0   3 -23    5.48    1.78
   0  -3 -23    4.37    1.72
   0  -3  23    2.64    2.34
   0  -3 -23    4.01    2.27
  -3   0 -23    3.81    2.62
  -3   0 -25    1.05    2.61
   0  -3 -25    3.72    2.55
  -3   0 -27   -1.57    2.64
   0  -3 -27   -0.23    2.59
  -3   0 -29    0.71    2.90
  -3   0 -31    1.17    3.07
  -3   0 -33    2.15    3.27
  -3  -1 -32   -0.49    3.21
  -3  -1 -30    0.71    2.99
  -1  -3 -30   -1.21    2.72
  -3  -1 -28   -0.69    2.69
  -1  -3 -28   -2.76    2.59
   1  -3  26    0.72    2.16
  -3  -1 -26    1.11    2.60
   1   3 -24    2.61    1.47
   1  -3  24    1.13    2.24
  -3  -1 -24    3.18    2.42
  -1  -3 -24   -3.17    2.63
   1   3 -22    1.28    1.29
  -1  -3 -22   -1.73    2.29
  -3   1  22    3.57    2.29
   1  -3  22   -1.08    2.03
  -3  -1 -22   -0.18    2.03
   1   3 -20   -0.08    1.18
  -3  -1 -20    1.09    1.75
  -3   1  20   -0.58    2.09
   1  -3  20   -0.17    1.84
   1   3 -18    3.15    1.16
   1  -3  18    3.00    1.86
  -3   1  18   -0.12    1.42
  -3   1  18    1.86    2.05
  -3  -1 -18    3.21    1.44
  -3   1  16   11.76    2.49
  -3   1  16    8.85    1.43
   1   3 -16    9.39    1.30
   1  -3  16    9.66    1.96
  -3   1  14    0.17    1.84
   1   3 -14    0.40    0.80
  -3   1  14    0.16    0.91
   1  -3  14    1.95    1.37
   1  -3  12   10.08    1.47
   1   3 -12   11.29    1.08
  -3   1  12   12.53    2.22
  -3   1  12   10.00    1.16
   1   3 -10    1.99    0.57
   1  -3  10    1.63    0.84
  -3   1  10    2.32    1.56
  -3   1   8   21.00    2.24
  -3   1   6    4.63    1.28
   1   3  -6    5.78    0.51
  -1   3   4   56.09    2.85
  -3   1   4   52.81    3.32
   1   3  -4   53.11    2.66
  -3   1   2    2.59    0.85
  -1   3   2    2.12    0.31
  -1  -3   0   21.45    1.13
  -3   1   0   21.86    1.44
  -3  -1   0   23.56    1.24
  -1   3   0   22.02    1.13
  -3  -1   2    2.24    0.35
  -1  -3   2    2.29    0.30
   3  -1  -4   50.06    2.51
  -1  -3   4   51.03    2.64
   1  -3  -4   51.96    2.43
  -1  -3   6    6.19    0.89
   1  -3  -6    5.83    0.50
  -3  -1   6    5.10    0.58
   3  -1  -6    5.59    0.58
  -3  -1   8   20.08    1.35
  -3   1  -8   23.14    1.71
   3  -1  -8   21.74    1.32
   1  -3 -10    2.35    0.61
   3  -1 -10    1.84    1.43
  -3  -1  10    2.41    0.64
  -3  -1  10    3.24    1.16
  -3   1 -10    2.02    1.10
   3  -1 -10    2.34    0.59
   3  -1 -12   14.75    2.23
   1  -3 -12   11.85    1.61
  -3   1 -12   12.42    1.71
   3  -1 -12   11.72    1.08
  -3  -1  12   12.20    1.29
   1  -3 -12   15.78    1.26
  -3  -1  12   16.24    1.96
   1  -3 -14    2.24    1.45
   3  -1 -14    2.21    2.03
  -1  -3  14    1.17    1.12
  -3  -1  14   -0.34    1.06
   3  -1 -14    0.32    0.74
   1  -3 -14    0.17    0.79
  -3   1 -14    0.22    1.42
   1  -3 -16    9.57    1.24
  -1  -3  16    6.37    1.75
   3  -1 -16   10.17    1.18
   3  -1 -16    8.69    2.49
  -3  -1  16   11.52    1.62
  -3   1 -16   11.86    2.01
   1  -3 -16   10.31    2.09
  -3  -1  18    0.76    1.44
   3  -1 -18    2.01    1.08
   1  -3 -18    2.13    1.86
   3  -1 -18    2.16    2.31
   1  -3 -18    1.70    0.98
  -1  -3  18    1.33    1.77
  -3   1 -18    2.93    1.72
   3  -1 -20   -0.89    2.28
  -1  -3  20   -1.53    1.99
   1  -3 -20    0.79    1.01
   1  -3 -20   -0.79    1.91
  -3   1 -20    0.15    1.79
  -3   1 -22    0.92    1.83
   1  -3 -22    1.15    1.15
   3  -1 -22    3.92    2.60
  -1  -3  22   -0.39    2.14
   1  -3 -22   -1.07    2.20
  -1   3 -22   -2.50    1.71
   1  -3 -24    2.39    1.33
  -1   3 -24    2.67    1.83
   3  -1 -24    1.65    2.74
  -3   1 -24    2.07    2.02
   1  -3 -24    1.35    2.48
  -3   1 -26   -0.85    2.11
   3  -1 -26    2.66    2.73
   1  -3 -26   -1.15    2.51
   1  -3 -28    6.59    2.84
  -3   1 -28    1.82    2.35
  -3   1 -30    0.75    2.51
  -3   1 -32   -0.79    2.71
  -2  -3 -29   -0.68    2.65
  -3  -2 -29    0.91    2.67
  -3  -2 -27    2.07    2.37
  -2  -3 -27   -0.86    2.39
  -2  -3 -25    2.56    2.30
  -3  -2 -25    4.01    2.32
  -2  -3 -23    3.25    2.09
   2   3 -23    3.39    1.35
  -3  -2 -23    1.36    1.96
   2   3 -21    2.43    1.18
   3   2 -21   -0.40    1.22
  -2  -3 -21    2.25    1.72
   2  -3  21    2.32    1.81
  -3  -2 -21    2.29    1.68
   2  -3  19    1.87    1.72
   3   2 -19    2.85    1.14
   2   3 -19    5.38    1.15
  -3   2  17   17.56    2.09
   2  -3  17   18.21    2.56
   2  -3  15   18.62    2.51
  -3   2  15   20.36    2.03
  -3   2  13    1.93    1.00
   3   2 -13    6.04    0.82
   2   3 -13    5.46    0.87
   2  -3  13    2.40    1.56
  -2   3  11   10.84    1.32
  -3   2  11   10.62    1.12
   2   3 -11   12.10    0.96
   3   2 -11    9.59    0.91
   2  -3  11    9.01    1.50
   2   3  -9   64.05    3.28
  -3   2   9   61.46    3.42
   2  -3   9   54.89    3.60
   3   2  -9   66.12    3.32
  -2   3   9   65.78    3.58
  -2   3   7   83.28    4.31
   3   2  -7   85.93    4.17
   2   3  -7   85.54    4.12
   2   3  -5   15.80    0.87
   3   2  -5   13.14    0.86
  -3   2   5   11.96    0.92
  -2   3   5   15.38    0.98
  -3   2   3   12.27    0.83
  -3  -2  -1  104.85    5.11
  -2  -3  -1  104.91    5.07
  -3   2   1  101.55    5.13
  -2   3   1  103.07    5.09
  -2   3  -1  115.90    5.15
  -2  -3   1   99.84    5.16
  -3  -2   1  101.93    5.20
  -3   2  -1  101.27    5.16
   3  -2  -3   14.56    1.29
  -3  -2   3   13.75    0.90
   2  -3  -5   15.99    1.43
  -2  -3   5   13.86    0.98
   3  -2  -5   15.01    1.67
  -3  -2   5   12.32    0.95
   3  -2  -5   13.05    0.87
   2  -3  -5   16.51    0.88
   2  -3  -7   95.41    5.00
   3  -2  -7   93.73    5.33
  -2  -3   7   77.39    4.34
   2  -3  -7   80.17    4.15
   3  -2  -7   86.89    4.22
   3  -2  -9   65.97    3.39
   2  -3  -9   74.31    4.44
  -2  -3   9   65.36    3.65
   3  -2  -9   69.02    4.68
   2  -3  -9   62.25    3.34
  -3  -2   9   64.25    3.54
  -3  -2  11    9.16    1.09
  -2  -3  11   11.87    1.32
   3  -2 -11   11.22    0.96
   2  -3 -11   11.21    0.96
   2  -3 -11   10.00    1.97
  -2  -3  13    5.35    1.28
   2  -3 -13    6.76    1.94
  -3  -2  13    4.75    1.09
   3  -2 -13    4.54    0.79
   2  -3 -13    4.21    0.88
   3  -2 -13    6.94    2.23
   3  -2 -15   26.72    3.30
  -2  -3  15   18.37    2.14
   3  -2 -15   26.05    1.78
   2  -3 -15   18.85    2.82
  -3  -2  15   23.21    2.11
  -3   2 -17   18.66    1.87
  -2  -3  17   17.12    2.29
   3  -2 -17   26.76    1.86
  -3  -2  17   18.61    2.26
   2  -3 -17   22.21    3.09
   2  -3 -19    4.69    1.14
  -3  -2  19    0.42    1.62
   3  -2 -19    3.53    2.31
   3  -2 -19    2.90    1.20
   2  -3 -19    5.88    2.42
  -3  -2  19    1.83    1.97
  -3   2 -19    0.51    1.13
  -2  -3  19    2.28    1.73
  -2  -3  21   -0.53    1.94
   2  -3 -21    2.96    1.13
   2  -3 -21    1.75    2.34
   3  -2 -21   -0.63    1.33
   3  -2 -21    5.49    2.81
   2  -3 -23    3.27    1.26
   3  -2 -23    1.89    2.62
   2  -3 -23    2.70    2.44
   3  -2 -25    4.07    2.65
   2  -3 -25    5.37    2.89
   2  -3 -27    4.84    2.93
   3  -2 -27    1.67    2.80
   2  -3 -29    1.48    2.87
   3  -2 -29   -0.71    2.78
  -3  -3 -28   -2.14    2.47
  -3  -3 -26   -0.60    2.33
  -3  -3 -24   -0.17    1.91
  -3  -3 -22    1.06    1.73
   3   3 -20    0.38    1.20
   3   3 -18    0.51    1.04
   3   3 -16    3.20    0.90
  -3   3  16   -0.22    1.32
  -3   3  14    0.09    1.11
   3   3 -14    0.27    0.73
   3   3 -12    0.31    0.60
  -3   3  12    0.22    0.95
  -3   3  10    1.32    0.72
   3   3 -10    1.27    0.55
   3   3  -8    4.44    0.57
  -3   3   8    4.35    0.73
  -3   3   6    1.20    0.48
   3   3  -6    0.92    0.35
  -3   3   4    3.98    0.55
  -3  -3  -2    0.67    0.29
  -3   3   2    0.34    0.36
  -3  -3   0    5.58    0.49
  -3   3   0    4.61    0.48
   3  -3   0    5.43    0.97
  -3   3  -2    0.75    0.28
   3  -3  -2   -0.51    1.20
  -3  -3   2   -0.12    0.36
  -3  -3   4    3.35    0.53
   3  -3  -4    3.84    1.56
  -3  -3   6    1.02    0.45
   3  -3  -6    0.99    0.34
   3  -3  -6    1.77    1.66
   3  -3  -8    3.46    0.52
  -3  -3   8    4.29    0.70
   3  -3  -8    2.80    1.85
  -3  -3  10    1.18    0.75
   3  -3 -10    2.09    0.57
   3  -3 -10    2.40    1.96
   3  -3 -12   -0.61    0.61
   3  -3 -12   -0.74    2.06
  -3  -3  12   -0.81    0.95
   3  -3 -14    1.37    2.16
  -3  -3  14    1.24    1.22
  -3  -3  14   -0.09    1.01
   3  -3 -14   -1.07    0.76
   3  -3 -16    4.35    2.40
  -3  -3  16    1.67    1.35
  -3  -3  16    1.17    1.25
   3  -3 -16    2.28    0.90
  -3  -3  18    1.24    1.47
   3  -3 -18   -0.44    2.37
   3  -3 -18    1.49    1.11
   3  -3 -20   -1.01    1.31
   3  -3 -20    3.42    2.65
   3  -3 -22    0.68    2.46
   3  -3 -24    0.69    2.54
   3  -3 -26    0.92    2.61
   3  -3 -28   -0.71    2.81
  -4   0   0  384.52   18.65
  -4   0  -2  197.60    9.69
  -4   0   2  199.28    9.73
   0   4  -4   99.86    4.80
  -4   0   4   97.51    5.04
   4   0  -6  151.13    7.52
   0   4  -6  155.52    7.46
  -4   0   6  160.48    8.22
  -4   0   6  141.07    7.58
   0  -4  -6  155.03    7.46
   0  -4  -8  224.96   11.55
  -4   0   8  207.57   12.21
   4   0  -8  250.00   11.55
   0   4  -8  236.80   11.54
  -4   0  10  117.72    6.83
   4   0 -10  120.07    5.70
   0   4 -10  134.15    5.90
   0  -4 -10  114.74    5.83
  -4   0  12   45.59    3.75
   0   4 -12   47.00    2.73
   0  -4 -12   39.45    2.52
   4   0 -12   42.56    2.34
  -4   0 -14   46.30    3.08
  -4   0  14   41.70    3.92
  -4   0  14   37.34    2.57
   0   4 -14   51.74    2.95
   0  -4  14   28.71    2.67
   0  -4 -14   39.58    2.58
   4   0 -14   40.36    2.39
   0  -4 -16   45.80    3.06
  -4   0 -16   51.67    3.80
  -4   0  16   52.24    4.67
   0  -4  16   35.70    3.30
  -4   0  16   44.61    3.22
   4   0 -16   55.78    2.96
   0   4 -16   63.83    3.59
   0  -4  18   13.10    2.29
  -4   0 -18   18.95    2.84
   0  -4 -18   19.61    2.35
   4   0 -18   23.24    1.73
  -4   0  18   25.01    3.64
  -4   0  18   20.96    2.24
   0  -4 -18   20.27    1.82
   0   4 -18   27.11    2.45
   0  -4 -20    6.37    1.24
   0  -4  20    5.04    1.98
  -4   0  20    4.37    1.78
   0   4 -20    4.96    1.80
   0  -4 -20    6.68    1.91
  -4   0 -20    4.84    2.47
  -4   0  20    7.03    3.01
   0  -4 -22    4.33    1.32
   0   4 -22    2.50    1.69
   0  -4 -22    6.99    2.31
  -4   0 -22    3.39    2.64
   0  -4  22    1.84    2.08
   0  -4 -24    3.28    1.39
   0  -4 -24    6.38    2.49
   0   4 -24    5.22    1.86
  -4   0 -24    6.66    2.95
  -4   0 -26   -1.85    3.07
   0  -4 -26    0.66    2.46
  -4   0 -28   -2.94    3.45
   0  -4 -28    0.48    2.66
  -4   0 -30    0.26    3.50
  -4   0 -32    2.04    3.42
  -4  -1 -31    0.27    3.48
  -4  -1 -29   -1.81    3.31
  -4  -1 -27   -0.50    3.24
   1  -4  25    1.06    2.09
  -4  -1 -25   -0.22    2.72
  -1  -4 -23    2.67    1.84
   1   4 -23    3.20    1.66
  -1  -4 -23    1.82    2.07
  -4  -1 -23    4.40    2.45
   1  -4  23    0.84    1.98
  -4   1  21    1.14    1.70
   1   4 -21    2.29    1.46
  -1  -4 -21    0.53    1.60
  -1  -4 -21    3.20    1.83
  -4   1  21    5.34    2.66
  -4  -1 -21    1.74    2.17
   1  -4  21    0.16    1.81
   1   4 -19    6.47    1.50
  -1  -4 -19    3.86    1.48
  -4  -1 -19    4.52    1.68
  -4   1  19    7.45    2.79
   4   1 -19    5.22    1.10
  -4   1  19    3.79    1.49
   1  -4  19    2.09    1.73
  -4   1  17   15.31    1.86
   1  -4  17   12.66    2.05
  -1  -4 -17   16.56    1.96
  -4   1  17   18.64    3.09
   1   4 -17   22.50    1.86
  -4   1  15   18.24    1.72
   1  -4  15   17.79    2.06
  -4   1  15   16.03    2.96
  -4   1  13    9.45    1.13
   1   4 -13   13.65    1.18
   1  -4  13    7.86    1.44
  -4   1  13    9.53    2.44
  -4   1  11   15.98    1.30
   1  -4  11   16.68    1.55
  -4   1  11   19.86    2.64
  -4   1   9   69.28    4.84
   1   4  -9   71.38    3.66
  -4   1   7   77.30    5.16
   1   4  -7   85.18    4.20
   1   4  -5   36.58    1.85
  -4   1   5   38.67    2.86
  -1  -4  -3   41.44    2.05
  -4   1   3   43.96    2.85
  -4  -1  -1  108.52    5.38
  -4   1   1  106.79    5.74
  -4  -1   1  106.58    5.28
  -4   1  -1  107.52    5.48
  -1  -4   1  103.14    5.23
  -1   4  -3   35.40    1.73
  -4  -1   3   33.38    1.94
   1  -4  -5   35.96    1.70
  -4  -1   5   26.91    1.85
   4  -1  -7   80.81    3.86
   1  -4  -7   75.61    3.73
   4  -1  -9   72.42    3.65
  -4   1  -9   66.53    3.90
  -4  -1   9   66.57    4.28
   1  -4  -9   69.13    3.58
  -4   1 -11   17.10    1.82
   4  -1 -11   20.82    1.33
  -4  -1  11   19.72    2.14
  -4  -1  11   15.55    1.36
   1  -4 -13   12.10    1.21
  -4  -1  13    8.79    1.13
  -4  -1  13   11.51    2.05
  -4   1 -13    7.23    1.53
   4  -1 -13    9.76    1.00
  -4   1 -15   17.49    2.14
   1  -4 -15   20.36    2.24
  -4  -1  15   21.54    2.83
  -1  -4  15   14.10    1.81
   1  -4 -15   23.15    1.75
   4  -1 -15   20.09    1.47
  -4  -1  15   16.83    1.69
  -1   4 -17   19.06    2.33
  -4  -1  17   18.49    3.04
  -1  -4  17   12.93    1.93
  -4  -1  17   13.28    1.81
   1  -4 -17   18.48    1.67
   1  -4 -17   15.39    2.24
   4  -1 -17   19.38    1.54
  -4   1 -17   16.99    2.21
  -1   4 -19    4.31    1.87
   1  -4 -19    4.40    1.13
  -4  -1  19    4.77    2.58
  -4  -1  19    4.63    1.52
   1  -4 -19    1.89    1.77
  -4   1 -19    3.81    1.76
   4  -1 -19    3.41    1.08
  -1  -4  19    1.82    1.50
  -4  -1  21   -0.59    1.71
   1  -4 -21    0.94    1.01
  -4   1 -21    1.63    1.76
  -1  -4  21    0.95    1.78
   1  -4 -21    0.76    1.95
  -1   4 -21    1.35    1.83
  -1   4 -23    1.62    1.93
  -4   1 -23    3.00    2.04
   1  -4 -23    2.37    1.15
   1  -4 -23    0.83    2.17
  -4   1 -25    3.01    2.13
   1  -4 -25    0.45    2.55
  -4   1 -27    0.49    2.11
   1  -4 -27   -2.10    2.71
  -4   1 -29    0.52    2.43
  -4   1 -31    2.74    2.62
  -4   1 -33    1.57    2.74
  -4  -2 -28   -2.43    2.66
  -2  -4 -26    1.70    2.41
  -4  -2 -26    2.03    2.48
   2  -4  24    2.51    1.90
  -4  -2 -24    2.51    2.22
  -2  -4 -24    3.35    2.27
  -4  -2 -22    5.28    1.98
   2  -4  22    5.94    2.04
  -4   2  20    1.84    1.55
   2  -4  20    2.73    1.76
  -4   2  18   11.48    1.78
   4   2 -18   15.69    1.42
   2  -4  18    9.12    2.03
   2   4 -16   35.29    2.07
   4   2 -16   28.39    1.87
   2  -4  16   15.25    2.33
  -4   2  16   23.12    2.27
  -4   2  14   22.85    1.95
   2   4 -14   34.12    1.90
   2  -4  14   15.25    2.14
   4   2 -14   27.24    1.73
  -4   2  12   32.37    2.90
   2   4 -12   32.90    1.86
   4   2 -12   34.58    1.89
  -4   2  12   26.90    2.03
   4   2 -10   74.00    3.49
  -4   2  10   61.04    4.27
   2  -4  10   48.91    3.65
   2   4 -10   75.03    3.43
  -4   2  10   56.52    3.56
   4   2  -8  117.76    5.85
  -4   2   8  107.74    6.54
  -2   4   8  107.92    6.19
   2   4  -8  121.13    5.80
   2   4  -6   91.44    4.32
  -4   2   6   92.19    5.05
  -4   2   6   75.99    4.47
  -2   4   6   89.24    4.63
  -2   4   4   76.46    3.67
  -4   2   4   65.01    3.62
  -4  -2  -2  115.03    5.63
  -4   2   2  111.86    5.65
  -2  -4  -2  111.34    5.53
  -2   4   2  115.25    5.62
  -4   2   0  170.07    8.48
  -2   4   0  177.15    8.42
  -2  -4   0  168.60    8.42
  -4  -2   0  174.70    8.50
  -4   2  -2  111.55    5.64
  -4  -2   2  107.75    5.68
  -2  -4   2  116.91    5.65
  -2   4  -2  116.18    5.56
  -4  -2   4   61.72    3.45
  -2  -4   4   72.38    3.50
   2  -4  -6   81.32    3.96
  -4  -2   6   73.62    4.14
  -2  -4   6   86.27    4.33
   4  -2  -8  115.66    5.58
  -2  -4   8  110.01    5.97
   2  -4  -8  108.34    5.50
   2  -4 -10   63.24    4.05
   4  -2 -10   69.18    3.39
   2  -4 -10   62.43    3.29
  -2  -4  10   64.21    4.00
  -4  -2  10   58.29    3.50
   2  -4 -12   26.74    2.62
  -4  -2  12   27.29    2.44
   4  -2 -12   32.70    3.16
   2  -4 -12   29.63    1.77
   4  -2 -12   29.25    1.80
  -4  -2  12   27.17    1.97
   2  -4 -14   20.54    2.65
  -4  -2  14   20.38    2.41
   4  -2 -14   32.39    3.41
   2  -4 -14   33.84    1.98
   4  -2 -14   28.00    1.79
  -4  -2  14   22.82    2.03
   2  -4 -16   24.90    2.94
  -4  -2  16   24.91    2.72
   4  -2 -16   28.29    3.53
  -2  -4  16   18.19    2.22
   2  -4 -16   35.13    2.17
   4  -2 -16   26.97    1.85
  -4  -2  16   26.37    2.33
  -4  -2  18   11.17    1.88
  -4  -2  18   10.79    2.27
  -2  -4  18   10.51    1.90
   4  -2 -18   12.31    2.97
   4  -2 -18   17.28    1.49
   2  -4 -18   10.93    2.50
  -4  -2  20    4.62    1.71
   4  -2 -20    7.85    2.85
   2  -4 -20    3.66    2.34
   4  -2 -22    6.00    2.89
   2  -4 -22    0.85    2.32
  -4  -2  22    0.49    1.97
   4  -2 -24    4.68    3.01
   2  -4 -24    1.54    2.55
   2  -4 -26    3.62    2.79
  -4  -3 -27    1.01    2.39
  -3  -4 -25    0.56    2.17
  -4  -3 -25    1.56    2.04
  -4  -3 -23   -0.15    1.72
   3   4 -21   -0.20    1.36
  -4   3  19    0.40    1.65
   3   4 -19    2.68    1.14
   4   3 -17    5.79    1.02
  -4   3  17    4.00    1.54
   3   4 -17    6.46    1.12
   3   4 -15    6.56    0.95
  -4   3  15    4.83    1.36
   4   3 -15    6.29    0.93
   3  -4  15    3.01    1.16
  -3   4  13    4.75    1.48
  -4   3  13    3.35    1.06
   3   4 -13    6.36    0.83
   3  -4  13    3.73    1.15
   4   3 -13    5.35    0.84
   4   3 -11   10.38    0.92
  -3   4  11    6.21    1.34
   3  -4  11    5.27    1.21
  -4   3  11    9.62    1.14
   3   4 -11   10.37    0.90
   4   3  -9   22.99    1.25
  -3   4   9   17.32    1.60
  -4   3   9   18.67    1.44
   3   4  -9   22.38    1.26
   3  -4   7    9.11    1.07
  -3   4   7   20.98    1.33
   3  -4   5    7.84    0.78
  -4   3   5   11.79    0.96
  -3  -4  -3   17.40    1.01
  -4  -3  -3   15.95    1.02
  -4   3   3   13.38    1.06
   3  -4   1   20.39    1.63
  -4  -3  -1   26.33    1.47
  -3   4   1   25.52    1.44
  -4   3   1   24.69    1.46
  -3  -4  -1   24.81    1.39
   3  -4  -1   22.82    1.85
  -3  -4   1   24.43    1.42
  -4  -3   1   23.95    1.45
  -3   4  -1   25.10    1.38
  -4   3  -1   24.88    1.43
  -3   4  -3   15.66    0.94
  -4   3  -3   15.67    0.97
  -4  -3   3   14.74    1.06
   4  -3  -5   11.83    1.40
  -4  -3   5   10.77    0.97
   3  -4  -5   10.72    1.74
  -3  -4   5   13.66    1.02
   4  -3  -7   20.07    2.06
   3  -4  -7   17.58    2.18
  -3  -4   7   17.61    1.39
   3  -4  -9   20.33    1.19
   4  -3  -9   19.07    1.17
   4  -3  -9   12.91    2.21
   3  -4  -9   14.55    2.25
  -3  -4   9   13.33    1.46
  -4  -3   9   18.07    1.39
  -3  -4  11    7.97    1.32
   4  -3 -11    9.83    2.14
  -4  -3  11    7.66    1.07
   3  -4 -11    7.42    2.11
   4  -3 -11   11.26    0.90
   3  -4 -11    7.56    0.79
  -3  -4  13    4.61    1.34
  -4  -3  13    3.28    1.03
   4  -3 -13    3.87    2.02
   3  -4 -13    4.28    0.77
   4  -3 -13    4.95    0.79
   3  -4 -13    5.87    2.11
  -4  -3  15    3.06    1.29
  -3  -4  15    4.36    1.64
   4  -3 -15    5.18    2.31
   4  -3 -15    5.86    0.94
   3  -4 -15    6.23    0.98
   3  -4 -15    4.74    2.13
  -4  -3  17    6.13    1.59
   4  -3 -17    4.25    0.97
   4  -3 -17    4.31    2.49
   3  -4 -17    4.28    1.17
   3  -4 -17    4.80    2.33
   3  -4 -19   -1.61    2.21
   4  -3 -19    3.24    2.57
  -4  -3  19    1.20    1.58
   3  -4 -19    1.24    1.20
   4  -3 -19    0.48    1.01
   3  -4 -21    2.71    2.48
   4  -3 -21    1.99    2.56
   3  -4 -21    0.07    1.30
   4  -3 -23    2.68    2.66
   3  -4 -23    2.62    2.60
   3  -4 -25   -0.91    2.67
   4  -3 -25   -1.35    2.67
   3  -4 -27   -0.67    2.74
   4  -3 -27   -0.46    2.75
  -4   4  18    0.43    1.93
   4   4 -18    2.77    1.05
  -4   4  16    4.21    1.78
   4   4 -16    7.52    1.07
  -4   4  14    5.90    1.60
   4   4 -14    7.28    0.95
  -4   4  12    8.89    1.56
   4   4 -12   11.08    1.00
   4   4 -10   18.75    1.19
  -4   4  10   13.27    1.55
  -4   4   8   24.94    1.80
  -4  -4  -6   22.66    1.36
  -4   4   6   23.19    1.60
  -4  -4  -4   21.65    1.36
  -4   4   2   27.60    1.71
  -4  -4  -2   27.56    1.62
  -4  -4   0   29.49    1.79
  -4   4   0   32.22    1.78
   4  -4  -2   20.24    1.68
  -4  -4   2   24.29    1.60
  -4   4  -4   22.41    1.31
   4  -4  -4   18.08    1.83
   4  -4  -6   13.49    2.02
  -4  -4   6   21.59    1.45
   4  -4  -8   17.36    2.42
  -4  -4   8   22.46    1.65
   4  -4 -10   13.14    2.33
   4  -4 -10   16.77    1.11
  -4  -4  10   13.98    1.51
   4  -4 -12   12.30    0.96
  -4  -4  12    6.49    1.42
   4  -4 -12    6.79    2.23
   4  -4 -14    5.77    2.28
   4  -4 -14    7.17    0.92
  -4  -4  14    5.90    1.52
  -4  -4  16    4.15    1.65
   4  -4 -16    7.26    2.43
   4  -4 -16    7.81    1.08
  -4  -4  18    2.23    1.73
   4  -4 -18    2.82    2.30
   4  -4 -18    2.91    1.08
   4  -4 -20   -0.58    2.18
   4  -4 -22    5.19    2.72
   4  -4 -24    1.04    2.44
   4  -4 -26    2.57    2.79
  -5   0  -1   11.26    0.95
  -5   0   1   10.14    0.93
  -5   0   3    2.13    0.61
  -5   0  -3    2.99    0.50
  -5   0   5    1.94    1.35
  -5   0   5    2.18    0.60
  -5   0   7    6.89    0.88
   0  -5  -7    6.73    0.51
   0   5  -7    7.94    0.54
   5   0  -9    9.62    0.91
  -5   0   9   10.65    2.13
  -5   0  11    2.72    2.10
   0  -5 -11    3.67    1.01
   0   5 -11    5.30    0.83
  -5   0  11    1.83    0.69
   5   0 -11    2.83    0.76
  -5   0  13    0.77    2.33
   0  -5 -13    1.84    1.08
   0   5 -13    1.92    1.00
  -5   0  13    2.45    0.84
   5   0 -13    1.09    0.78
  -5   0  15    2.49    0.95
   0   5 -15    5.38    1.33
   0  -5  15    4.71    1.33
  -5   0 -15    3.82    1.79
   5   0 -15    3.64    0.89
   0  -5 -15    2.40    1.13
  -5   0  15    0.88    2.51
  -5   0  17    0.26    1.12
   0  -5 -17    3.49    1.07
   0   5 -17    5.69    1.57
   0  -5  17    2.09    1.49
  -5   0 -17    2.60    2.22
  -5   0  17    5.98    3.06
   0  -5 -19    1.01    0.94
   0   5 -19    4.50    1.68
   0  -5  19    1.75    1.55
   0  -5 -19    3.79    1.70
  -5   0 -19   -1.18    2.57
   0  -5  21   -0.44    1.83
   0   5 -21    1.42    1.72
   0  -5 -21    0.36    0.90
   0  -5 -21    2.39    1.84
  -5   0 -21   -3.99    3.04
   0  -5 -23   -0.72    0.98
   0   5 -23    0.11    1.79
   0  -5 -23   -1.29    2.08
  -5   0 -23   -0.73    3.26
   0  -5 -25   -0.81    2.28
  -5   0 -25    2.02    3.37
  -5   0 -27   -0.26    3.58
  -5   0 -29   -0.28    3.99
  -5  -1 -30   -1.81    4.39
  -5  -1 -28   -1.77    4.00
  -5  -1 -26   -0.27    3.56
  -5   1  24   -0.16    2.13
  -1  -5 -24    3.79    2.35
  -5  -1 -24   -2.37    3.10
  -5   1  22    0.41    1.64
  -1  -5 -22   -0.43    1.17
   1   5 -22    1.86    1.62
  -1  -5 -22    1.18    1.91
  -5  -1 -22   -0.21    2.61
   1  -5  22    0.31    1.91
  -1  -5 -20   -0.40    1.11
  -5   1  20   -1.13    1.53
   1   5 -20    1.23    1.43
   1  -5  20   -1.10    1.82
  -5  -1 -20   -0.16    2.00
  -1  -5 -18    0.68    0.93
   1  -5  18   -0.62    1.56
  -5   1  18    0.77    1.25
  -5   1  18    0.73    2.78
  -1  -5 -16    0.76    0.92
  -5   1  16    1.03    0.98
   1  -5  16    0.31    1.32
  -5   1  16   -0.69    2.80
  -1  -5 -14   -0.49    0.88
   5   1 -14    0.04    0.76
  -5   1  14    1.51    0.91
   1  -5  14    0.61    1.09
  -5   1  14    2.10    2.47
  -1  -5 -12    0.45    0.78
  -5   1  12    2.12    0.78
   1   5 -12   -0.54    0.70
   5   1 -12    0.49    0.74
  -5   1  12   -0.58    2.31
  -5   1  10    1.36    0.62
   1   5 -10   -0.21    0.53
  -5   1  10   -0.17    2.09
  -1  -5 -10    0.92    0.76
  -1  -5  -8    0.62    0.73
  -5   1   8    0.70    0.70
   1   5  -8    1.90    0.39
  -5   1   8    1.02    1.86
  -1  -5  -6    0.23    0.71
  -5   1   6    0.12    1.64
  -5   1   6    0.45    0.66
  -5   1   4    1.99    1.45
  -5  -1  -4    2.20    0.48
  -5   1   4    1.78    0.65
  -5   1   2    1.62    1.20
  -5   1   2    0.45    0.57
  -5  -1  -2    0.58    0.46
  -5   1   0    1.34    0.98
  -5  -1   0    1.87    0.56
  -5  -1   2    0.43    0.54
  -5   1  -2    1.10    0.79
  -5  -1   4    0.66    0.62
  -1   5  -6   -0.70    0.64
  -5  -1   6    0.25    0.60
  -1   5  -8    0.74    1.01
  -5  -1   8    0.70    0.68
  -5  -1   8    0.95    1.31
   1  -5  -8    1.49    0.35
  -1   5 -10    0.62    1.20
  -5  -1  10    0.24    1.39
  -5   1 -10    0.62    1.06
   5  -1 -10    0.92    0.64
   1  -5 -10   -0.04    0.53
  -1   5 -12   -0.17    1.39
  -5  -1  12    0.11    0.71
  -5  -1  12    0.57    1.66
   1  -5 -12    0.69    0.84
   5  -1 -12    1.66    0.78
  -5   1 -12    0.78    1.19
  -1   5 -14   -0.10    1.53
   5  -1 -14    1.04    0.75
  -5  -1  14   -1.14    1.94
  -5  -1  14    0.86    0.84
  -5   1 -14   -1.25    1.42
  -1   5 -16   -1.60    1.76
  -5  -1  16    1.15    2.36
  -5  -1  16    0.40    1.01
  -1  -5  16    1.47    1.22
   1  -5 -16    2.11    1.45
  -5   1 -16    1.07    1.47
  -5   1 -18   -0.21    1.50
  -1   5 -18   -1.13    1.95
  -5  -1  18   -0.10    1.28
  -1  -5  18    0.78    1.40
   1  -5 -18   -0.28    1.54
  -5   1 -20   -0.47    1.70
  -1   5 -20    0.24    2.05
  -5  -1  20   -1.64    1.61
   1  -5 -20    1.03    1.17
   1  -5 -20    1.84    1.85
  -5  -1  22   -0.28    1.75
  -1   5 -22   -0.86    2.07
  -5   1 -22   -1.43    1.87
   1  -5 -22    0.83    1.11
   1  -5 -22    2.37    1.94
  -5   1 -24   -0.54    1.94
   1  -5 -24    1.76    2.13
  -5  -1  24    1.99    2.03
  -5   1 -26   -0.29    2.07
  -5   1 -28    0.16    2.39
  -5  -2 -27   -2.46    2.99
  -5  -2 -25    1.21    2.53
  -5   2  23   -2.01    2.06
  -5  -2 -23    1.99    2.11
  -5   2  21   -1.59    1.85
   2   5 -21   -0.66    1.55
   2  -5  21    0.27    1.76
  -5   2  19   -1.55    1.53
   2   5 -19    0.13    1.30
   2  -5  19    2.15    1.67
  -5   2  17    0.85    1.25
   2   5 -17    2.16    1.03
   2  -5  17    0.11    1.49
   2  -5  15    0.95    1.31
   5   2 -15    2.36    0.82
  -5   2  15    1.85    1.03
  -5   2  15    2.93    1.90
   2   5 -15    1.80    0.85
   2   5 -13    1.40    0.67
   2  -5  13    1.65    1.18
  -5   2  13    2.04    0.91
   5   2 -13    2.29    0.82
  -5   2  13    3.32    1.82
  -5   2  11    2.16    0.76
   2  -5  11    1.25    0.91
  -5   2  11    1.71    1.56
   2   5 -11    2.67    0.60
   5   2 -11    2.54    0.66
   2   5  -9    7.14    0.65
  -5   2   9    6.32    1.63
   5   2  -9    5.87    0.76
  -5   2   7    5.17    0.83
  -5   2   7    5.43    1.40
  -2  -5  -5    3.86    0.42
  -5   2   5    3.19    0.70
  -5   2   5    3.71    1.12
  -2   5   3    2.00    0.78
  -5  -2  -3    3.68    0.60
  -5   2   3    2.66    0.92
  -2  -5  -3    2.39    0.41
  -5   2   3    2.41    0.67
  -5  -2  -1    6.72    0.76
  -2   5   1    5.65    0.65
  -5   2   1    6.56    0.75
  -5  -2   1    5.21    0.74
  -5   2  -1    7.78    0.75
  -2  -5   1    6.83    0.74
  -2  -5   3    3.50    0.99
  -5   2  -3    3.32    0.54
  -2   5  -3    2.93    0.39
  -5  -2   3    3.16    0.70
  -2  -5   5    3.29    1.39
  -2   5  -5    3.74    0.37
  -5  -2   5    2.07    0.65
  -5  -2   7    5.35    0.85
   2  -5  -9    7.21    0.63
  -5  -2  11    2.81    0.79
   2  -5 -11    4.11    1.22
   2  -5 -11    2.43    0.59
   5  -2 -11    2.15    0.66
   2  -5 -13    0.95    0.70
  -5  -2  13    1.42    0.87
  -5  -2  13   -0.86    1.45
   2  -5 -13    1.68    1.37
   5  -2 -13    1.87    0.75
   5  -2 -15    3.49    0.88
  -5  -2  15    1.81    1.03
  -5  -2  15    2.44    1.72
   2  -5 -15    0.57    1.62
   2  -5 -15    1.91    1.06
  -5  -2  17   -0.66    1.26
   2  -5 -17    2.52    1.38
   2  -5 -17    1.42    1.83
  -5  -2  19   -0.57    1.56
   2  -5 -19    1.05    1.73
   2  -5 -19   -0.86    1.88
  -2   5 -21   -1.68    2.33
  -5  -2  21   -0.14    1.83
   2  -5 -21   -1.49    1.73
   2  -5 -21   -0.56    2.18
  -5  -2  23   -0.47    1.97
   2  -5 -23    0.40    2.36
   2  -5 -25    1.04    2.42
  -5  -3 -24    3.64    2.07
  -5   3  22   -0.78    2.13
   3   5 -20   -1.71    1.21
  -5   3  20   -2.71    1.85
  -5   3  18   -2.03    1.64
   3   5 -18   -0.27    1.03
  -5   3  16   -0.68    1.33
   3   5 -16    0.83    0.90
   3  -5  16    0.34    1.28
  -5   3  14    0.88    1.08
   3  -5  14   -0.08    1.14
   5   3 -14    1.63    0.77
   3   5 -14    0.26    0.70
  -5   3  12    0.53    0.88
   3   5 -12    0.66    0.68
   3  -5  12    0.20    1.06
   5   3 -12    0.53    0.62
  -3   5  10   -0.37    1.35
  -5   3  10    1.31    0.80
   3   5 -10    1.42    0.51
   3  -5  10   -0.87    0.93
  -3   5   8    0.64    1.08
   3  -5   8    0.46    0.66
  -3   5   6   -0.37    0.90
  -3  -5  -6    0.66    0.35
  -5   3   6   -0.56    0.71
  -5  -3  -6    1.41    0.52
  -5  -3  -4   -0.12    0.52
  -3   5   4    0.36    0.67
  -5   3   4   -0.27    0.63
  -3  -5  -4    0.42    0.41
  -5  -3  -2    0.62    0.57
  -3   5   2    0.63    0.55
  -3  -5  -2    0.02    0.48
  -5   3   2    0.24    0.59
  -3   5   0   -0.63    0.57
  -3  -5   0    0.76    0.55
  -5  -3   0    0.77    0.57
  -5   3   0   -0.06    0.54
  -5   3  -2    0.69    0.52
  -3  -5   2    0.89    0.58
  -3   5  -2   -0.35    0.48
  -5  -3   2    0.04    0.61
  -5   3  -4    0.98    0.47
  -3  -5   4    0.14    0.67
  -5  -3   4    0.34    0.61
   3  -5  -4    0.75    0.97
  -3   5  -4   -0.09    0.39
  -3  -5   6   -0.06    0.87
  -5   3  -6    0.95    0.52
  -5  -3   6   -0.59    0.69
  -3   5  -6    0.61    0.36
   3  -5  -6    0.64    1.17
  -3  -5   8    0.16    1.20
   3  -5  -8    2.22    1.33
  -3  -5  10   -0.22    1.44
  -5  -3  10    2.59    0.81
   3  -5 -10   -0.76    1.52
   3  -5 -10    1.30    0.50
   5  -3 -12    1.19    0.64
  -5  -3  12    0.67    0.86
   3  -5 -12    0.89    0.64
   3  -5 -12   -0.28    1.61
  -3  -5  12   -2.33    1.97
  -5  -3  14   -0.16    1.04
   3  -5 -14   -0.31    1.84
   5  -3 -14    0.36    0.72
   3  -5 -14    0.43    0.76
  -5  -3  16    0.20    1.31
   3  -5 -16    0.14    1.00
   3  -5 -16    2.24    2.04
  -5  -3  18   -0.34    1.56
   3  -5 -18   -0.99    1.25
   3  -5 -18   -0.18    2.10
  -5  -3  20   -2.19    1.83
   3  -5 -20   -1.88    1.60
   3  -5 -20    1.69    2.18
   3  -5 -22    1.17    2.33
  -5  -3  22   -0.16    2.11
   3  -5 -24   -1.60    2.58
  -5   4  19   -2.35    2.13
  -5   4  17   -0.75    1.66
   4   5 -17    1.31    0.90
  -4   5  15   -0.97    1.99
  -5   4  15    0.87    1.55
   4   5 -15    1.18    0.81
  -5   4  13    1.33    1.29
   4   5 -13    2.58    0.72
   5   4 -13    2.40    0.78
  -4   5  11    0.28    1.49
  -5   4  11    2.34    1.10
  -4   5   9    1.46    1.20
  -5   4   9    2.73    0.98
  -5  -4  -7    2.10    0.56
  -4   5   7    3.62    1.05
  -4  -5  -7    1.96    0.51
  -5   4   7    3.60    0.91
  -4   5   5    3.95    0.91
  -5  -4  -5    2.51    0.70
  -4  -5  -5    1.76    0.53
  -4  -5  -3    1.77    0.57
  -5   4   3    1.94    0.77
  -5  -4  -3    1.53    0.62
  -5  -4  -1    2.11    0.65
   4  -5   1    0.97    0.38
  -4   5   1    1.32    0.70
  -4  -5  -1    2.20    0.64
  -5   4   1    2.64    0.72
   4  -5  -1    0.72    0.95
  -5   4  -1    2.24    0.63
  -4  -5   1    2.56    0.75
  -4   5  -1    2.21    0.63
  -5  -4   1    1.56    0.71
  -4   5  -3    2.50    0.57
  -5  -4   3    1.18    0.75
  -5   4  -3    2.02    0.64
   4  -5  -3    0.15    1.22
  -4   5  -5    2.54    0.58
  -4  -5   5    3.37    0.89
  -5   4  -5    2.20    0.65
   4  -5  -5    1.16    1.37
  -4  -5   7    2.83    1.04
  -5  -4   7    2.01    0.79
  -4   5  -7    2.96    0.54
  -5   4  -7    2.44    0.62
   4  -5  -7    0.34    1.47
   4  -5  -9    0.25    1.61
  -4  -5   9    0.97    1.16
  -5  -4   9    1.99    0.87
   4  -5 -11    1.81    1.77
  -4  -5  11    0.40    1.46
  -5  -4  11    0.93    0.94
   4  -5 -13   -0.15    1.85
  -4  -5  13    1.09    1.68
  -5  -4  13    0.17    1.17
   5  -4 -13    2.22    0.74
   5  -4 -13    1.17    1.64
   4  -5 -13    2.14    0.71
  -4  -5  15   -0.15    2.01
   4  -5 -15    1.29    1.98
  -5  -4  15   -1.16    1.47
   5  -4 -15   -0.15    1.84
   4  -5 -15    1.49    0.81
  -5  -4  17   -0.48    1.63
   4  -5 -17   -0.87    2.12
   4  -5 -17    1.16    1.02
   5  -4 -17    0.48    1.94
  -5  -4  19   -2.13    2.05
   4  -5 -19   -1.64    2.32
   5  -4 -19    0.17    2.11
  -5  -4  21   -0.83    2.24
   4  -5 -21   -2.06    2.30
   5  -4 -21    1.98    2.28
   4  -5 -23   -2.05    2.43
   5  -4 -23   -0.19    2.39
  -5   5  18   -2.68    2.63
  -5   5  16   -0.71    2.16
  -5   5  14   -0.48    1.82
  -5   5  12   -1.15    1.67
  -5   5  10    1.59    1.29
  -5  -5 -10    1.17    0.58
  -5   5   8    0.42    1.07
  -5  -5  -8    1.11    0.62
  -5  -5  -6    0.62    0.63
  -5   5   6    1.20    0.98
  -5  -5  -4   -0.10    0.62
  -5   5   2   -1.11    0.87
  -5  -5  -2   -0.46    0.69
  -5   5   0   -0.04    0.75
  -5  -5   0    0.57    0.77
  -5  -5   2   -0.40    0.83
  -5   5  -2   -0.10    0.71
  -5   5  -4    0.88    0.68
  -5   5  -6    0.50    0.64
  -5  -5   6    0.99    0.94
  -5  -5   8    0.51    1.08
   5  -5  -8    2.02    1.17
  -5   5  -8    0.51    0.68
  -5  -5  10    0.09    1.24
  -5   5 -10    0.36    0.69
   5  -5 -10    0.69    1.35
  -5  -5  12   -0.21    1.56
   5  -5 -12   -0.24    1.58
  -5  -5  14   -2.62    1.88
   5  -5 -14    0.53    1.76
  -5  -5  16   -0.15    2.04
   5  -5 -16   -0.29    1.93
  -5  -5  18   -1.03    2.54
   5  -5 -18    1.23    1.99
   5  -5 -20   -1.94    2.11
   5  -5 -22   -1.66    2.27
  -6   0   0   27.66    1.82
  -6   0  -2   23.40    1.51
  -6   0   2   21.20    1.57
  -6   0  -4   15.36    1.12
  -6   0   4   14.92    1.98
  -6   0   4   13.85    1.31
  -6   0  -6   16.67    1.19
  -6   0   6   18.31    2.32
  -6   0   6   18.22    1.52
  -6   0   8   18.83    2.55
  -6   0   8   16.38    1.50
  -6   0  10   10.28    2.66
   0   6 -10   13.20    0.85
   0  -6 -10   13.51    0.86
  -6   0  12    8.60    2.73
  -6   0  12    6.32    1.09
   0   6 -12    9.77    0.94
  -6   0  14    4.58    2.79
   0  -6  16    3.41    1.45
  -6   0 -16    7.37    2.63
  -6   0  16    7.42    3.15
   0   6 -18    5.81    1.53
  -6   0 -18    7.56    3.42
   0   6 -20    2.40    1.51
   0  -6 -20    3.70    1.79
  -6   0 -20    1.97    3.38
   0   6 -22    1.55    1.70
   0  -6 -22   -0.82    1.90
  -6   0 -22    1.66    3.91
  -6   0 -24    5.11    4.18
  -6  -1 -27   -4.39    4.96
  -6  -1 -25   -1.50    4.02
  -6  -1 -23    1.57    3.45
  -6   1  21   -0.59    1.70
   1   6 -21   -1.74    1.72
  -6  -1 -21    3.35    2.70
   1  -6  19    2.33    1.87
  -6   1  19    0.52    1.35
   1   6 -19    1.63    1.36
  -6  -1 -19    0.99    2.35
  -6   1  17    0.96    1.18
   1  -6  17    1.59    1.55
   1   6 -17    3.14    1.20
  -6   1  17   -1.22    3.05
  -1  -6 -15    1.14    1.14
  -6   1  15    2.84    1.05
   1  -6  15    3.30    1.44
   1   6 -15    3.53    0.87
  -6   1  15    1.34    2.71
   1   6 -13    3.14    0.67
  -1  -6 -13    4.34    1.44
  -6   1  13    3.97    1.00
  -6   1  13    5.50    2.65
  -1  -6 -11    7.83    1.95
  -6   1  11    5.51    0.99
  -6   1  11    4.23    2.49
   1   6 -11    5.83    0.59
  -6   1   9    9.25    2.44
  -6   1   7    9.56    1.14
  -6   1   7    9.25    2.13
  -6   1   5    5.89    1.85
  -6  -1  -5    8.63    0.83
  -6   1   5    8.13    1.02
  -6   1   3    8.79    1.03
  -6  -1  -3   11.75    1.07
  -6   1   1   14.44    1.71
  -6   1   1   14.57    1.22
  -6  -1  -1   14.64    1.22
  -6   1  -1   12.27    1.44
  -6  -1   1   14.86    1.24
  -6   1  -1   15.10    1.20
  -6   1  -3   11.79    1.07
  -6  -1   3   11.94    1.14
  -6   1  -5   10.49    0.88
  -6  -1   5    7.39    1.01
  -6  -1   7   11.26    1.96
  -6  -1   7    9.92    1.14
  -6  -1   9   10.76    1.98
  -1   6 -11    6.11    1.00
  -6  -1  11    4.05    1.92
  -6  -1  11    5.18    0.97
  -6   1 -11    5.65    1.45
   1  -6 -11    5.58    0.61
   1  -6 -13    3.64    0.85
  -1   6 -13    4.48    1.25
  -6  -1  13    1.68    2.06
  -6  -1  13    3.09    0.95
  -6   1 -13   -0.30    1.38
  -1   6 -15    3.85    1.52
  -6  -1  15    2.61    1.07
   1  -6 -15    5.25    1.60
  -6   1 -15    2.92    1.47
  -1   6 -17    1.21    1.64
  -6  -1  17    1.38    1.11
   1  -6 -17    2.77    1.61
  -6   1 -17    1.53    1.51
  -6   1 -19   -0.50    1.68
  -6  -1  19   -0.73    1.41
  -1   6 -19    0.48    1.78
   1  -6 -19    0.88    1.72
  -6  -1  21   -1.67    1.63
  -6   1 -21    1.02    1.81
  -1   6 -21   -1.44    1.85
   1  -6 -21    0.51    1.91
   1  -6 -23    0.18    2.11
  -6  -2 -26    2.29    3.00
  -6  -2 -24   -0.19    2.55
  -6  -2 -22    4.04    2.34
  -6   2  20   -2.56    1.69
   2   6 -20   -1.47    1.32
   2   6 -18    1.63    1.00
  -6   2  18    1.00    1.43
  -6   2  16    2.24    1.25
   2   6 -16    4.52    0.90
  -6   2  16    4.03    2.10
  -2  -6 -14    1.75    0.90
   2  -6  14    1.91    1.38
  -6   2  14    2.83    1.11
  -6   2  14    4.46    2.02
   2   6 -14    4.54    0.76
   2   6 -12    6.89    0.65
  -6   2  12    5.22    1.07
   2  -6  12    2.51    1.24
  -6   2  12    3.71    1.78
  -6   2  10    6.39    1.01
  -6   2  10    6.00    1.72
  -2  -6  -8   12.42    0.78
  -6   2   8    8.25    1.63
  -6  -2  -6   11.40    0.95
  -6   2   6    8.27    1.42
  -6   2   6   11.07    1.18
  -2  -6  -6   10.33    0.77
  -6  -2  -4   13.32    1.12
  -6   2   4    8.47    1.28
  -6   2   4    8.87    1.10
  -2  -6  -4   13.80    0.92
  -6   2   2   12.81    1.20
  -6  -2  -2   14.50    1.22
  -6  -2   0   17.78    1.38
  -6   2   0   16.03    1.33
  -6  -2   2   11.85    1.23
  -6   2  -2   14.78    1.16
  -6   2  -4   12.57    1.06
  -6  -2   4    9.79    1.13
  -2   6  -6    9.35    1.29
  -6   2  -6   12.21    0.95
  -6  -2   6    9.93    1.14
  -2   6  -6    8.80    0.67
  -2   6  -8   11.13    1.61
  -2   6  -8    9.80    0.66
  -2   6 -10    7.62    1.72
  -6  -2  10    7.17    1.04
  -6  -2  10    8.70    1.91
  -2   6 -12    3.57    1.85
   2  -6 -12    7.87    0.72
  -6  -2  12    4.57    1.03
   2  -6 -12    5.44    1.57
  -2   6 -14    4.88    1.98
  -6  -2  14    3.68    1.08
   2  -6 -14    6.15    0.95
  -2   6 -16    6.03    2.10
  -6  -2  16    2.90    1.25
   2  -6 -16    2.18    1.71
  -2   6 -18    1.04    2.00
  -6  -2  18    0.40    1.30
   2  -6 -18    2.07    1.88
  -2   6 -20    0.60    2.14
  -6  -2  20   -0.47    1.56
   2  -6 -20   -1.02    2.07
   2  -6 -22   -0.73    2.22
  -6   3  21   -1.38    1.90
  -6   3  19   -1.09    1.80
  -6   3  17   -1.80    1.48
   3   6 -17    1.44    0.87
  -6   3  15   -0.26    1.21
   3   6 -15    2.16    0.77
   3   6 -13    2.20    0.65
  -6   3  13    2.65    1.15
  -6   3  11    2.84    1.06
  -3  -6  -9    3.13    0.49
   3  -6   9    2.23    0.96
  -6   3   9    2.51    0.87
  -3  -6  -7    3.56    0.58
  -6  -3  -7    2.85    0.70
  -3   6   5    2.55    1.31
  -6   3   5    3.80    0.94
  -6  -3  -5    3.63    0.88
  -3  -6  -5    2.29    0.67
  -3  -6  -3    4.38    0.83
  -6   3   3    2.98    0.85
  -6  -3  -3    3.47    0.81
  -6   3   1    4.07    0.85
  -3   6   1    4.26    0.86
  -6  -3  -1    3.93    0.86
  -3  -6   1    7.36    1.29
  -3   6  -1    5.61    0.75
  -6   3  -1    5.86    0.87
  -6  -3   3    2.44    0.82
  -6   3  -3    2.46    0.75
  -3  -6   5    3.70    2.89
  -6  -3   5    3.27    0.95
   3  -6  -5    4.73    1.28
  -6   3  -5    4.58    0.88
  -3   6  -5    2.52    0.59
   3  -6  -7    2.79    1.34
  -3   6  -7    3.01    0.55
  -6   3  -7    4.04    0.77
  -6  -3   9    3.56    0.91
  -3   6  -9    2.61    0.50
   3  -6  -9    1.86    1.48
  -6  -3  11    2.78    0.97
   3  -6 -11    3.28    1.66
  -6  -3  13    2.45    1.12
   3  -6 -13    0.43    1.67
  -6  -3  15    0.26    1.18
   3  -6 -15   -0.15    1.81
  -6  -3  17   -1.42    1.40
   3  -6 -17    0.50    1.98
  -6  -3  19   -0.95    1.64
   3  -6 -19   -0.18    2.18
   3  -6 -21    4.22    2.48
  -6   4  20   -0.92    2.31
  -6   4  18   -1.44    2.00
  -6   4  16   -0.70    1.75
  -6   4  14    0.29    1.41
  -6   4  12    2.18    1.24
  -4   6  10    1.49    1.76
  -4  -6 -10    2.10    0.57
  -6  -4 -10    2.06    0.73
  -6   4  10    3.56    1.16
  -4   6   8    2.05    1.50
  -6  -4  -8    3.16    0.77
  -6   4   8    2.15    0.99
  -4  -6  -8    2.25    0.65
  -4   6   6    2.56    1.33
  -4  -6  -6    1.94    0.67
  -6  -4  -6    2.45    0.81
  -4   6   4    3.63    1.16
  -6   4   4    1.12    0.91
  -6  -4  -4    2.55    0.83
  -4  -6  -4    3.46    0.79
  -6  -4  -2    3.18    0.85
  -4   6   2    3.28    0.97
  -4  -6  -2    2.74    0.92
  -6   4   2    2.78    0.93
   4  -6   0    1.53    1.07
  -6  -4   0    2.60    0.88
  -6   4   0    2.24    0.86
  -6   4  -2    2.60    0.78
  -4  -6   2    3.54    1.15
  -4   6  -2    2.50    0.82
  -6  -4   2    2.54    0.94
   4  -6  -2    0.47    1.23
  -4  -6   4    1.95    1.35
  -6  -4   4    1.78    0.96
  -6   4  -4    4.71    0.88
  -4   6  -4    2.95    0.74
   4  -6  -4   -0.28    1.39
  -4  -6   6    1.47    1.74
  -4   6  -6    2.01    0.65
  -6   4  -6    3.99    0.88
   4  -6  -6    1.08    1.54
  -4   6  -8    2.50    0.66
  -4  -6   8    2.78    2.28
  -6   4  -8    4.07    0.88
  -6  -4   8    2.33    0.94
   4  -6  -8    2.64    1.72
  -4  -6  10   -0.18    2.74
  -6  -4  10    2.05    1.04
  -4   6 -10    2.24    0.61
  -6   4 -10    3.44    0.92
   4  -6 -10    2.08    1.75
  -4  -6  12   -3.04    3.74
  -6  -4  12    1.28    1.17
   4  -6 -12    0.56    1.78
   4  -6 -14    0.45    1.88
  -6  -4  14    1.21    1.32
   4  -6 -16    2.52    2.13
  -6  -4  16   -0.77    1.59
   4  -6 -18    2.33    2.27
  -6  -4  18   -3.17    1.98
   4  -6 -20    1.05    2.27
   4  -6 -22   -1.47    2.43
  -6   5  19   -4.32    2.81
  -6   5  17   -1.54    2.35
  -6   5  15   -2.86    2.22
  -5   6  13   -2.06    2.31
  -6   5  13   -0.34    1.75
  -6  -5 -13    1.17    0.74
  -5   6  11   -0.91    1.83
  -6   5  11   -0.19    1.45
  -6  -5 -11    0.86    0.75
  -5  -6 -11    0.84    0.72
  -5   6   9   -2.38    1.80
  -6   5   9    0.40    1.24
  -6  -5  -9    0.25    0.83
  -5  -6  -9    0.71    0.70
  -5   6   7   -0.24    1.38
  -6   5   7    0.90    1.09
  -5  -6  -7    0.30    0.72
  -6  -5  -7    0.88    0.78
  -5   6   5   -0.07    1.18
  -6   5   5    2.17    1.04
  -6  -5  -5    1.23    0.79
  -5  -6  -5   -0.53    0.83
  -6  -5  -3    0.70    0.82
  -5   6   3    2.54    1.08
  -5  -6  -3    0.13    0.91
  -5  -6  -1   -0.35    1.03
  -6   5   1    0.15    0.93
  -6  -5  -1   -0.40    0.85
  -5   6  -1    0.58    0.98
  -6  -5   1    0.36    0.94
  -6   5  -1    0.39    0.86
  -6   5  -3    0.04    0.80
  -5   6  -3   -0.99    0.89
  -5  -6   5   -0.09    1.38
  -6  -5   5    2.41    1.01
  -6   5  -5    0.28    0.81
  -5   6  -5    0.67    0.79
  -5  -6   7    0.10    1.65
  -6  -5   7    1.67    1.15
  -5   6  -7   -0.54    0.79
  -6   5  -7    0.54    0.83
  -5   6  -9    0.59    0.73
  -5  -6   9   -2.19    2.07
  -6  -5   9    0.25    1.24
  -6   5  -9    1.05    0.96
  -5  -6  11   -0.31    2.45
  -6  -5  11    0.59    1.40
  -6   5 -11    0.78    0.87
  -5   6 -11    1.48    0.78
  -6  -5  13   -0.80    1.72
  -5   6 -13    0.67    0.71
  -6   5 -13    1.20    0.99
  -6  -5  15   -3.07    2.15
  -6  -5  17   -1.23    2.12
  -6   6  12   -2.39    2.30
  -6   6  10   -0.55    1.85
  -6   6   8   -1.01    1.62
  -6   6   6    0.94    1.36
  -6   6   4    1.65    1.24
  -6   6  -2   -0.60    1.05
  -6  -6   4    1.96    1.42
  -6   6  -4   -0.27    0.99
  -6   6  -6   -0.08    0.95
  -6   6  -8   -0.04    0.95
  -6   6 -10    0.31    0.97
  -6   6 -12    0.43    1.00
  -6   6 -14    1.36    0.93
  -7   0   1    0.81    0.79
  -7   0   1    0.49    1.18
  -7   0  -1    0.36    0.75
  -7   0  -3    0.04    0.67
  -7   0   3    0.68    1.39
  -7   0   3   -1.07    0.99
  -7   0   5    1.90    1.54
  -7   0  -5    0.61    0.77
  -7   0   5    0.24    0.94
  -7   0   7   -1.46    1.89
  -7   0  -7    1.65    0.65
  -7   0   9   -0.94    2.12
  -7   0  -9    1.43    0.68
  -7   0  11   -0.88    2.26
  -7   0  13   -2.82    2.78
  -7   0 -15    2.85    3.02
  -7   0 -17    1.28    3.85
  -7  -1 -20   -4.07    3.27
  -7  -1 -18    1.56    2.43
  -7   1  16    1.14    1.20
  -7   1  14    0.80    1.06
  -7   1  14   -0.19    2.53
  -7   1  12    1.30    1.02
  -7   1  12   -0.86    2.24
  -7   1  10   -0.46    2.10
  -7  -1  -8    0.84    0.63
  -7   1   8    1.23    1.85
  -7   1   6    0.66    1.02
  -7  -1  -6    1.08    0.69
  -7   1   6   -0.35    1.57
  -7  -1  -4    1.62    0.74
  -7   1   4    0.05    0.89
  -7   1   4   -0.59    1.45
  -7   1   2   -0.73    1.31
  -7   1   2    0.10    0.86
  -7  -1  -2    0.50    0.78
  -7   1   0   -0.07    1.08
  -7  -1   0   -0.47    0.80
  -7   1   0    0.22    0.74
  -7   1  -2   -0.61    1.00
  -7   1  -2   -0.09    0.75
  -7  -1   2   -1.12    0.98
  -7   1  -4    0.54    0.80
  -7   1  -4    0.49    0.68
  -7  -1   4    0.34    0.93
  -7   1  -6    1.06    0.72
  -7  -1   6   -0.31    1.02
  -7  -1   6   -1.15    1.65
  -7   1  -6    0.59    0.71
  -7   1  -8    0.55    0.67
  -7  -1   8   -1.33    1.11
  -7  -1   8    0.71    1.79
  -7   1  -8    0.60    0.59
  -7  -1  10   -1.75    2.01
  -7   1 -10   -1.56    1.32
  -7  -1  12    1.01    1.01
  -7   1 -12   -1.24    1.31
  -7  -1  14    0.40    1.08
  -7  -1  16    0.52    1.17
   1  -7 -18    1.37    1.74
  -7  -2 -21    2.45    2.20
  -7   2  15   -0.17    1.18
  -7   2  13    1.27    1.17
  -7   2  13    2.94    1.68
  -7   2  11    0.70    0.99
  -7   2  11   -0.31    1.40
  -7  -2  -9    1.10    0.69
  -7   2   9    0.81    1.33
  -7   2   7   -0.55    1.06
  -7   2   7    0.23    1.11
  -7  -2  -7    0.64    0.70
  -7  -2  -5   -0.51    0.75
  -7   2   5   -0.17    0.94
  -7   2   3   -0.36    0.86
  -7  -2  -3    0.66    0.82
  -7   2   1   -0.19    0.82
  -7  -2  -1   -0.44    0.88
  -7  -2   1   -0.31    0.86
  -7   2  -1   -0.09    0.81
  -7  -2   3    0.66    0.95
  -7   2  -3    0.36    0.83
  -7   2  -5    0.88    0.78
  -7  -2   5   -0.37    1.02
  -7  -2   7   -0.64    1.08
  -7   2  -7    2.02    0.83
  -7   2  -9    1.01    0.73
  -7  -2  11    1.55    1.00
  -2   7 -11    0.21    0.36
  -7  -2  13   -0.30    1.02
   2  -7 -13    1.38    1.77
  -7  -2  15    0.17    1.13
   2  -7 -15   -1.50    1.84
   2  -7 -17   -0.85    2.03
   2  -7 -19    1.24    2.17
  -7   3  14    0.26    1.24
  -7   3  12    0.39    1.15
  -7  -3 -12    0.41    0.72
  -7   3  10    1.60    1.03
  -7  -3 -10    0.59    0.72
  -7  -3  -8    1.18    0.89
  -7  -3  -6    0.40    0.83
  -7   3   6   -2.14    1.09
  -7   3   4   -0.62    1.00
  -7  -3  -4    0.14    0.83
  -7  -3  -2   -0.34    0.88
  -7   3   2    0.85    0.87
  -7  -3   0   -1.10    0.99
  -7   3   0   -1.07    0.92
  -7   3  -2   -1.32    0.88
  -7  -3   2    0.11    0.90
  -7  -3   4    0.18    1.03
  -7   3  -4    1.32    0.91
  -7   3  -6    0.09    0.85
  -3   7  -6    0.67    0.34
  -7  -3   6   -1.36    1.07
   3  -7  -6    1.20    1.40
  -3   7  -8    0.02    0.56
   3  -7  -8    0.73    1.58
  -7   3  -8    1.84    0.91
  -7  -3  10    0.35    0.96
   3  -7 -10   -0.99    1.83
  -7   3 -10    1.31    0.94
  -7  -3  12    1.09    1.13
  -7   3 -12    1.63    1.04
   3  -7 -12    0.91    1.95
  -7  -3  14    1.28    1.22
   3  -7 -14    0.97    2.00
   3  -7 -16    0.69    2.11
   3  -7 -18    0.18    2.40
  -7   4  13    1.37    1.40
  -7  -4 -13    1.56    0.85
  -7  -4 -11    0.21    0.83
  -7   4  11    0.49    1.20
  -7   4   9    1.38    1.07
  -7  -4  -9    1.11    0.95
  -7  -4  -7    0.42    0.89
  -7  -4  -5    0.29    0.90
  -7  -4  -3    0.19    0.90
  -7   4   3    0.17    1.04
  -7   4   1    0.26    0.93
  -7  -4  -1   -1.43    1.04
  -7  -4   1   -0.16    0.92
  -7   4  -1   -0.51    1.05
  -7   4  -3   -0.58    0.94
  -7  -4   3   -0.99    1.07
  -7   4  -5    0.81    1.01
  -7   4  -7   -0.05    1.04
  -7  -4   9    2.41    1.13
  -7   4  -9    0.79    1.21
  -7  -4  11    0.90    1.25
  -7   4 -11    0.33    1.09
  -7  -4  13    0.18    1.33
  -7   4 -13    0.73    1.15
  -7   5  12   -0.31    1.66
  -7  -5 -10   -0.41    0.89
  -7   5  10    1.53    1.49
  -7   5   8    2.49    1.31
  -7  -5  -8   -0.19    0.90
  -7  -5  -6    0.05    0.89
  -7   5   6    1.41    1.19
  -7  -5  -4   -0.66    1.04
  -7   5   2   -0.85    1.22
  -7  -5  -2   -0.57    1.02
  -7   5   0    0.35    1.15
  -7  -5   0    1.17    1.12
  -7  -5   2    0.12    1.18
  -7   5  -2    0.11    1.04
  -7   5  -4   -0.79    1.13
  -7   5  -6   -0.61    1.10
  -7  -5   6    2.43    1.20
  -7  -5   8    0.33    1.21
  -7   5  -8    0.05    1.14
  -7   5 -10    0.05    1.17
  -7  -5  10   -0.09    1.37
  -7   5 -12    0.56    1.30
  -8   0   2    2.25    1.32
  -8   0   4    0.40    1.44
  -8   0   6    1.28    1.68
  -8   0   8    0.52    1.83
  -8   1   5   -1.16    1.24
  -8  -1  -5    1.24    0.96
  -8  -1  -3    0.62    0.91
  -8   1   3    0.18    1.08
  -8  -1  -1    1.44    0.92
  -8   1   1    0.98    1.07
  -8   1  -1    0.92    0.92
  -8  -1   1    1.77    1.14
  -8  -1   3    2.12    1.69
  -8   1  -3    1.39    0.94
  -8  -1   3    0.76    1.13
  -8  -1   5    1.04    1.89
  -8  -1   5    2.03    1.28
  -8   1  -5    2.22    1.01
  -8   2   4   -0.07    1.15
  -8  -2  -4    0.59    0.99
  -8  -2  -2    1.52    1.01
  -8   2   2    0.58    1.06
  -8  -2   0    0.67    1.10
  -8   2   0    1.98    1.06
  -8   2  -2    0.89    0.97
  -8  -2   2    1.14    1.14
  -8  -2   4   -0.07    1.28
  -8   2  -4    2.36    1.04
   2  -8 -12    1.92    2.39
   2  -8 -14    1.30    2.43
  -8   3   1    0.59    1.08
  -8   3  -1    0.12    1.13
   0   0   0    0.00    0.00
;
_shelx_hkl_checksum              40490
loop_
_space_group_symop_operation_xyz
'x, y, z'
'-x, -y, z'
'-y, x, z'
'y, -x, z'
'-x, y, -z'
'x, -y, -z'
'y, x, -z'
'-y, -x, -z'
'x+1/2, y+1/2, z+1/2'
'-x+1/2, -y+1/2, z+1/2'
'-y+1/2, x+1/2, z+1/2'
'y+1/2, -x+1/2, z+1/2'
'-x+1/2, y+1/2, -z+1/2'
'x+1/2, -y+1/2, -z+1/2'
'y+1/2, x+1/2, -z+1/2'
'-y+1/2, -x+1/2, -z+1/2'
'-x, -y, -z'
'x, y, -z'
'y, -x, -z'
'-y, x, -z'
'x, -y, z'
'-x, y, z'
'-y, -x, z'
'y, x, z'
'-x+1/2, -y+1/2, -z+1/2'
'x+1/2, y+1/2, -z+1/2'
'y+1/2, -x+1/2, -z+1/2'
'-y+1/2, x+1/2, -z+1/2'
'x+1/2, -y+1/2, z+1/2'
'-x+1/2, y+1/2, z+1/2'
'-y+1/2, -x+1/2, z+1/2'
'y+1/2, x+1/2, z+1/2'
loop_
_atom_site_label
_atom_site_type_symbol
_atom_site_fract_x
_atom_site_fract_y
_atom_site_fract_z
_atom_site_U_iso_or_equiv
_atom_site_adp_type
_atom_site_occupancy
_atom_site_site_symmetry_order
_atom_site_calc_flag
_atom_site_refinement_flags_posn
_atom_site_refinement_flags_adp
_atom_site_refinement_flags_occupancy
_atom_site_disorder_assembly
_atom_site_disorder_group
Pb1 Pb 0.0000 1.0000 0.0000 0.0940(8) Uani 1 16 d S T P . .
I1 I 0.0000 0.5000 0.0000 0.1213(11) Uani 1 8 d S T P . .
I2 I 0.0000 1.0000 0.12258(13) 0.1869(18) Uani 1 8 d S T P . .
C1 C 0.5000 0.671(16) 0.8742(19) 0.244(19) Uani 0.5 2 d S TU P . .
C2 C 0.647(11) 0.647(11) 0.804(2) 0.248(19) Uani 0.5 2 d S TU P . .
C3 C 0.5000 0.5000 0.788(3) 0.25(2) Uani 1 8 d S TU P . .
N1 N 0.5000 0.5000 0.900(2) 0.244(19) Uani 1 8 d S TU P . .
loop_
_atom_site_aniso_label
_atom_site_aniso_U_11
_atom_site_aniso_U_22
_atom_site_aniso_U_33
_atom_site_aniso_U_23
_atom_site_aniso_U_13
_atom_site_aniso_U_12
Pb1 0.0973(9) 0.0973(9) 0.0875(13) 0.000 0.000 0.000
I1 0.158(2) 0.0790(13) 0.127(2) 0.000 0.000 0.000
I2 0.233(3) 0.233(3) 0.096(2) 0.000 0.000 0.000
C1 0.32(3) 0.31(3) 0.10(2) -0.004(8) 0.000 0.000
C2 0.32(3) 0.32(3) 0.11(2) -0.002(5) -0.002(5) -0.003(7)
C3 0.32(3) 0.32(3) 0.11(2) 0.000 0.000 0.000
N1 0.32(3) 0.32(3) 0.10(2) 0.000 0.000 0.000
loop_
_atom_type_symbol
_atom_type_description
_atom_type_scat_dispersion_real
_atom_type_scat_dispersion_imag
_atom_type_scat_source
C C 0.0033 0.0016 'International Tables Vol C Tables 4.2.6.8 and 6.1.1.4'
H H 0.0000 0.0000 'International Tables Vol C Tables 4.2.6.8 and 6.1.1.4'
N N 0.0061 0.0033 'International Tables Vol C Tables 4.2.6.8 and 6.1.1.4'
F F 0.0171 0.0103 'International Tables Vol C Tables 4.2.6.8 and 6.1.1.4'
I I -0.4742 1.8119 'International Tables Vol C Tables 4.2.6.8 and 6.1.1.4'
Pb Pb -3.3944 10.1111 'International Tables Vol C Tables 4.2.6.8 and 6.1.1.4'
loop_
_geom_angle_atom_site_label_1
_geom_angle_atom_site_label_2
_geom_angle_atom_site_label_3
_geom_angle
_geom_angle_site_symmetry_1
_geom_angle_site_symmetry_3
_geom_angle_publ_flag
I2 Pb1 I2 180.0 . 17_575 ?
I2 Pb1 I1 90.0 . . ?
I2 Pb1 I1 90.0 17_575 . ?
I2 Pb1 I1 90.0 . 1_565 ?
I2 Pb1 I1 90.0 17_575 1_565 ?
I1 Pb1 I1 180.0 . 1_565 ?
I2 Pb1 I1 90.0 . 3_565 ?
I2 Pb1 I1 90.0 17_575 3_565 ?
I1 Pb1 I1 90.0 . 3_565 ?
I1 Pb1 I1 90.0 1_565 3_565 ?
I2 Pb1 I1 90.0 . 3_665 ?
I2 Pb1 I1 90.0 17_575 3_665 ?
I1 Pb1 I1 90.0 . 3_665 ?
I1 Pb1 I1 90.0 1_565 3_665 ?
I1 Pb1 I1 180.0 3_565 3_665 ?
Pb1 I1 Pb1 180.0 1_545 . ?
N1 C1 C1 52.7(17) . 3_655 ?
N1 C1 C1 52.7(17) . 4_565 ?
C1 C1 C1 90.00(6) 3_655 4_565 ?
N1 C1 C2 113(6) . . ?
C1 C1 C2 106(3) 3_655 . ?
C1 C1 C2 67(2) 4_565 . ?
N1 C1 C2 113(6) . 3_655 ?
C1 C1 C2 67(2) 3_655 3_655 ?
C1 C1 C2 106(3) 4_565 3_655 ?
C2 C1 C2 55(4) . 3_655 ?
C3 C2 C2 47.3(12) . 4_565 ?
C3 C2 C2 47.3(12) . 3_655 ?
C2 C2 C2 89.999(10) 4_565 3_655 ?
C3 C2 C1 89(6) . . ?
C2 C2 C1 95(3) 4_565 . ?
C2 C2 C1 62(2) 3_655 . ?
C3 C2 C1 89(6) . 4_565 ?
C2 C2 C1 62(2) 4_565 4_565 ?
C2 C2 C1 95(3) 3_655 4_565 ?
C1 C2 C1 45(4) . 4_565 ?
C2 C3 C2 85(2) 2_665 4_565 ?
C2 C3 C2 85(2) 2_665 3_655 ?
C2 C3 C2 147(9) 4_565 3_655 ?
C2 C3 C2 147(9) 2_665 . ?
C2 C3 C2 85(2) 4_565 . ?
C2 C3 C2 85(2) 3_655 . ?
C1 N1 C1 75(4) . 3_655 ?
C1 N1 C1 118(8) . 2_665 ?
C1 N1 C1 75(4) 3_655 2_665 ?
C1 N1 C1 75(4) . 4_565 ?
C1 N1 C1 118(8) 3_655 4_565 ?
C1 N1 C1 75(4) 2_665 4_565 ?
loop_
_geom_bond_atom_site_label_1
_geom_bond_atom_site_label_2
_geom_bond_distance
_geom_bond_site_symmetry_2
_geom_bond_publ_flag
Pb1 I2 3.164(3) . ?
Pb1 I2 3.164(3) 17_575 ?
Pb1 I1 3.2826(4) . ?
Pb1 I1 3.2826(4) 1_565 ?
Pb1 I1 3.2826(4) 3_565 ?
Pb1 I1 3.2826(4) 3_665 ?
I1 Pb1 3.2826(4) 1_545 ?
C1 N1 1.31(9) . ?
C1 C1 1.59(15) 3_655 ?
C1 C1 1.59(15) 4_565 ?
C1 C2 2.07(7) . ?
C1 C2 2.07(7) 3_655 ?
C2 C3 1.42(9) . ?
C2 C2 1.92(14) 4_565 ?
C2 C2 1.92(14) 3_655 ?
C2 C1 2.07(7) 4_565 ?
C3 C2 1.42(9) 2_665 ?
C3 C2 1.42(9) 4_565 ?
C3 C2 1.42(9) 3_655 ?
N1 C1 1.31(9) 3_655 ?
N1 C1 1.31(9) 2_665 ?
N1 C1 1.31(9) 4_565 ?
