#------------------------------------------------------------------------------
#$Date: 2020-03-26 01:37:56 +0200 (Thu, 26 Mar 2020) $
#$Revision: 249708 $
#$URL: file:///home/coder/svn-repositories/cod/cif/4/13/45/4134539.cif $
#------------------------------------------------------------------------------
#
# This file is available in the Crystallography Open Database (COD),
# http://www.crystallography.net/
#
# All data on this site have been placed in the public domain by the
# contributors.
#
data_4134539
loop_
_publ_author_name
'Konrad, David B.'
'Savasci, G\"okcen'
'Allmendinger, Lars'
'Trauner, Dirk'
'Ochsenfeld, Christian'
'Ali, Ahmed M.'
_publ_section_title
;
 Computational Design and Synthesis of a Deeply Red-Shifted and Bistable
 Azobenzene
;
_journal_name_full               'Journal of the American Chemical Society'
_journal_paper_doi               10.1021/jacs.9b10430
_journal_year                    2020
_chemical_formula_moiety         'C12 H6 Cl2 F2 N2'
_chemical_formula_sum            'C12 H6 Cl2 F2 N2'
_chemical_formula_weight         287.09
_chemical_name_common            3-23
_space_group_crystal_system      monoclinic
_space_group_IT_number           14
_space_group_name_Hall           '-P 2yn'
_space_group_name_H-M_alt        'P 1 21/n 1'
_atom_sites_solution_hydrogens   geom
_audit_block_code                C12H6Cl2F2N2_xv135_wanner
_audit_creation_method           'APEX3 v2018.7-2'
_audit_update_record             04-Mar-19
_cell_angle_alpha                90
_cell_angle_beta                 113.794(8)
_cell_angle_gamma                90
_cell_formula_units_Z            2
_cell_length_a                   11.806(3)
_cell_length_b                   3.8446(10)
_cell_length_c                   13.595(4)
_cell_measurement_reflns_used    2841
_cell_measurement_temperature    108.(2)
_cell_measurement_theta_max      25.0320
_cell_measurement_theta_min      2.9581
_cell_volume                     564.6(3)
_computing_cell_refinement       'SAINT V8.38A (Bruker AXS Inc., 2017)'
_computing_data_collection       'APEX3 v2016.5-0, Bruker AXS (2016)'
_computing_data_reduction        'SAINT V8.38A (Bruker AXS Inc., 2017)'
_computing_molecular_graphics    'shelXle (C.B. Huebschle, rev 924)'
_computing_structure_refinement  'SHELXL-2018/3 (Sheldrick, 2018)'
_computing_structure_solution    'XT, VERSION 2014/5'
_diffrn_ambient_temperature      108.(2)
_diffrn_detector_area_resol_mean 7.3910
_diffrn_measured_fraction_theta_full 0.941
_diffrn_measured_fraction_theta_max 0.943
_diffrn_measurement_device       'fixed-chi three-circle diffractometer'
_diffrn_measurement_device_type  'Bruker D8 Venture TXS'
_diffrn_measurement_method       'mix of phi and omega scans'
_diffrn_radiation_monochromator  'focusing mirrors'
_diffrn_radiation_type           MoK\a
_diffrn_radiation_wavelength     0.71073
_diffrn_reflns_av_R_equivalents  0.0504
_diffrn_reflns_av_unetI/netI     0.0433
_diffrn_reflns_Laue_measured_fraction_full 0.941
_diffrn_reflns_Laue_measured_fraction_max 0.943
_diffrn_reflns_limit_h_max       12
_diffrn_reflns_limit_h_min       -14
_diffrn_reflns_limit_k_max       4
_diffrn_reflns_limit_k_min       0
_diffrn_reflns_limit_l_max       16
_diffrn_reflns_limit_l_min       0
_diffrn_reflns_number            951
_diffrn_reflns_point_group_measured_fraction_full 0.941
_diffrn_reflns_point_group_measured_fraction_max 0.943
_diffrn_reflns_theta_full        25.061
_diffrn_reflns_theta_max         25.061
_diffrn_reflns_theta_min         3.275
_diffrn_source                   'rotating anode (TXS)'
_diffrn_source_current           50
_diffrn_source_power             2.5
_diffrn_source_type              'Bruker TXS'
_diffrn_source_voltage           50
_exptl_absorpt_coefficient_mu    0.581
_exptl_absorpt_correction_T_max  0.99
_exptl_absorpt_correction_T_min  0.89
_exptl_absorpt_correction_type   multi-scan
_exptl_absorpt_process_details
'TWINABS - Bruker AXS scaling for twinned crystals - Version 2012/1'
_exptl_crystal_colour            orange
_exptl_crystal_density_diffrn    1.689
_exptl_crystal_density_method    'not measured'
_exptl_crystal_description       platelet
_exptl_crystal_F_000             288
_exptl_crystal_size_max          0.060
_exptl_crystal_size_mid          0.030
_exptl_crystal_size_min          0.010
_refine_diff_density_max         0.579
_refine_diff_density_min         -0.381
_refine_diff_density_rms         0.100
_refine_ls_extinction_method     none
_refine_ls_goodness_of_fit_ref   1.225
_refine_ls_hydrogen_treatment    constr
_refine_ls_matrix_type           full
_refine_ls_number_parameters     83
_refine_ls_number_reflns         951
_refine_ls_number_restraints     0
_refine_ls_restrained_S_all      1.225
_refine_ls_R_factor_all          0.0579
_refine_ls_R_factor_gt           0.0514
_refine_ls_shift/su_max          0.000
_refine_ls_shift/su_mean         0.000
_refine_ls_structure_factor_coef Fsqd
_refine_ls_weighting_details
'w=1/[\s^2^(Fo^2^)+(0.0218P)^2^+1.7717P] where P=(Fo^2^+2Fc^2^)/3'
_refine_ls_weighting_scheme      calc
_refine_ls_wR_factor_gt          0.1080
_refine_ls_wR_factor_ref         0.1112
_reflns_Friedel_coverage         0.000
_reflns_number_gt                884
_reflns_number_total             951
_reflns_threshold_expression     'I > 2\s(I)'
_cod_data_source_file            ja9b10430_si_003.cif
_cod_data_source_block           xv135
_cod_depositor_comments
;
The following automatic conversions were performed:

data item '_exptl_absorpt_correction_type' value 'Multi-Scan' was
changed to 'multi-scan' in accordance with the
/home/data/users/saulius/crontab/automatic-downloads/rss-feeds/ACS/lib/dictionaries/cif_core.dic
dictionary named 'cif_core.dic' version 2.4.2 last updated on
2011-04-26.

Automatic conversion script
Id: cif_fix_values 7556 2019-12-06 15:28:31Z antanas 
;
_cod_database_code               4134539
_shelx_estimated_absorpt_t_min   0.966
_shelx_estimated_absorpt_t_max   0.994
_shelx_space_group_comment
;
The symmetry employed for this shelxl refinement is uniquely defined
by the following loop, which should always be used as a source of
symmetry information in preference to the above space-group names.
They are only intended as comments.
;
_shelx_res_file
;

TITL xv135_0m_4_a.res in P2(1)/n
    xv135_0m_5.res
    created by SHELXL-2018/3 at 08:37:35 on 04-Mar-2019
REM Old TITL xv135_0m_4 in P2(1)/n
REM SHELXT solution in P2(1)/n
REM R1 0.205,  Rweak 0.023,  Alpha 0.095,  Orientation as input
REM Formula found by SHELXT:  C6 Cl F N
CELL  0.71073  11.8057   3.8446  13.5955   90.000  113.794   90.000
ZERR    2.000   0.0032   0.0010   0.0037    0.000    0.008    0.000
LATT  1
SYMM 1/2-X, 1/2+Y, 1/2-Z
SFAC C H CL F N
UNIT 24 12 4 4 4
TEMP -165
SIZE 0.01 0.03 0.06
L.S. 7
BOND $H
LIST 4
CONF
ACTA
SHEL 9.0 0.80
FMAP 2
PLAN -20
WGHT    0.021800    1.771700
BASF   0.44211
FVAR       1.18457
CL1   3    0.751855    0.283765    0.440400    11.00000    0.01842    0.02441 =
         0.01692    0.00088    0.00370    0.00596
F1    4    0.327590    0.828829    0.331220    11.00000    0.02007    0.02891 =
         0.02143    0.00383    0.00767    0.00690
N1    5    0.547499    0.531210    0.491658    11.00000    0.01968    0.01143 =
         0.01351    0.00304    0.00485    0.00153
C1    1    0.523196    0.561547    0.380337    11.00000    0.01872    0.01482 =
         0.01432    0.00199    0.00604   -0.00353
C2    1    0.615291    0.461929    0.345999    11.00000    0.01757    0.00904 =
         0.01868   -0.00405    0.00276   -0.00215
C3    1    0.602193    0.497817    0.241011    11.00000    0.01946    0.01254 =
         0.02222   -0.00131    0.01207   -0.00367
AFIX  43
H3    2    0.665821    0.422944    0.219961    11.00000   -1.20000
AFIX   0
C4    1    0.493978    0.645828    0.166453    11.00000    0.02657    0.02067 =
         0.01261   -0.00118    0.00982   -0.00433
AFIX  43
H4    2    0.484404    0.675030    0.094131    11.00000   -1.20000
AFIX   0
C5    1    0.400577    0.750551    0.196074    11.00000    0.01721    0.01511 =
         0.01998    0.00198   -0.00002   -0.00359
AFIX  43
H5    2    0.326707    0.850025    0.144768    11.00000   -1.20000
AFIX   0
C6    1    0.416291    0.708226    0.301972    11.00000    0.01265    0.01324 =
         0.02138   -0.00712    0.00269   -0.00628
HKLF 5




REM  xv135_0m_4_a.res in P2(1)/n
REM wR2 = 0.111190, GooF = S = 1.22497, Restrained GooF = 1.22497 for all data
REM R1 = 0.051431 for 884 Fo > 4sig(Fo) and 0.057880 for all 951 data
REM 83 parameters refined using 0 restraints

END

WGHT      0.0218      1.7717

REM Highest difference peak  0.579,  deepest hole -0.381,  1-sigma level  0.100
Q1    1   0.6968  0.2999  0.4788  11.00000  0.05    0.58
Q2    1   0.8117  0.2741  0.4019  11.00000  0.05    0.47
Q3    1   0.2788  0.8237  0.3741  11.00000  0.05    0.35
Q4    1   0.7538  0.2030  0.5876  11.00000  0.05    0.32
Q5    1   0.9164 -0.0224  0.4991  11.00000  0.05    0.30
Q6    1   0.6924  0.4379  0.3778  11.00000  0.05    0.30
Q7    1   0.4594  0.8065  0.2045  11.00000  0.05    0.29
Q8    1   0.3787  0.8305  0.2608  11.00000  0.05    0.29
Q9    1   0.6556 -0.0869  0.3404  11.00000  0.05    0.28
Q10   1   0.5634  0.6456  0.3260  11.00000  0.05    0.28
Q11   1   0.4797  1.0361  0.1588  11.00000  0.05    0.27
Q12   1   0.8316  0.4291  0.3421  11.00000  0.05    0.27
Q13   1   0.7881  0.1408  0.3179  11.00000  0.05    0.27
Q14   1   0.6917  0.1455  0.5434  11.00000  0.05    0.27
Q15   1   0.6337  0.3923  0.5224  11.00000  0.05    0.26
Q16   1   0.5280  0.0602  0.1983  11.00000  0.05    0.26
Q17   1   0.7417  0.5545  0.4680  11.00000  0.05    0.26
Q18   1   0.3385  0.7951  0.0775  11.00000  0.05    0.26
Q19   1   0.6017  0.5659  0.4576  11.00000  0.05    0.25
Q20   1   0.9300  0.3589  0.6022  11.00000  0.05    0.25
;
_shelx_res_checksum              78836
_shelx_hkl_file
;
   2   0   0 24.3118 2.48284   1
  -1   0   4 -0.3107 7.41783  -2
   3   0   0 -0.3107 7.41783   1
  -1   0   5 2933.09 52.0032  -2
   4   0   0 2933.09 52.0032   1
  -1   0   6 1.12875 6.24656  -2
   5   0   0 1.12875 6.24656   1
  -1   0   7 1553.02 66.7531  -2
   6   0   0 1553.02 66.7531   1
  -2   0   9 4.15502 10.6690  -2
   7   0   0 4.15502 10.6690   1
  -2   0  10 989.985 22.0669  -2
   8   0   0 989.985 22.0669   1
  -2   0  11 -3.1927 7.17776  -2
   9   0   0 -3.1927 7.17776   1
  11   0   0 10.0320 15.4438   1
   0   1   0 -4.0889 2.29030  -2
   0   1   0 -4.0889 2.29030   1
   0   1   1 5597.27 84.9559  -2
   1   1   0 5597.27 84.9559   1
   0   1   2 2611.01 100.839  -2
   2   1   0 2611.01 100.839   1
  -1   1   4 883.415 13.2328  -2
   3   1   0 883.415 13.2328   1
  -1   1   5 131.656 4.92565  -2
   4   1   0 131.656 4.92565   1
  -1   1   6 244.276 6.76835  -2
   5   1   0 244.276 6.76835   1
  -1   1   7 1180.53 19.6932  -2
   6   1   0 1180.53 19.6932   1
  -2   1   9 8.33686 7.30528  -2
   7   1   0 8.33686 7.30528   1
  -2   1  10 30.5659 5.86438  -2
   8   1   0 30.5659 5.86438   1
  -2   1  11 235.356 7.65713  -2
   9   1   0 235.356 7.65713   1
  -2   1  12 403.451 14.8977  -2
  10   1   0 403.451 14.8977   1
  11   1   0 4.59007 19.4367   1
  -3   1  15 236.715 15.6417  -2
  12   1   0 236.715 15.6417   1
   0   2   0 960.102 17.8853  -2
   0   2   0 960.102 17.8853   1
   0   2   1 31.2911 6.83334  -2
   1   2   0 31.2911 6.83334   1
   0   2   2 1892.89 38.5546  -2
   2   2   0 1892.89 38.5546   1
  -1   2   4 94.6791 6.02371  -2
   3   2   0 94.6791 6.02371   1
  -1   2   5 1136.34 16.5307  -2
   4   2   0 1136.34 16.5307   1
  -1   2   6 337.796 8.55575  -2
   5   2   0 337.796 8.55575   1
  -1   2   7 587.045 18.8787  -2
   6   2   0 587.045 18.8787   1
  -2   2   9 559.340 20.0093  -2
   7   2   0 559.340 20.0093   1
  -2   2  10 239.095 11.9455  -2
   8   2   0 239.095 11.9455   1
  -2   2  11 44.0302 6.98037  -2
   9   2   0 44.0302 6.98037   1
  -2   2  12 117.843 10.9468  -2
  10   2   0 117.843 10.9468   1
   0   3   0 4.45628 5.55562  -2
   0   3   0 4.45628 5.55562   1
   0   3   1 149.512 10.9247  -2
   1   3   0 149.512 10.9247   1
   2   3   0 101.548 15.9993   1
  -1   3   4 392.800 15.8097  -2
   3   3   0 392.800 15.8097   1
  -1   3   5 144.440 7.23001  -2
   4   3   0 144.440 7.23001   1
  -1   3   6 91.1244 10.0022  -2
   5   3   0 91.1244 10.0022   1
  -1   3   7 361.087 22.7141  -2
   6   3   0 361.087 22.7141   1
  -2   3   9 106.064 22.5034  -2
   7   3   0 106.064 22.5034   1
  -2   3  10 378.961 14.5749  -2
   8   3   0 378.961 14.5749   1
  -2   3  11 35.3890 8.86515  -2
   9   3   0 35.3890 8.86515   1
   0   4   0 736.328 21.6893  -2
   0   4   0 736.328 21.6893   1
   0   4   1 -12.112 26.5349  -2
   1   4   0 -12.112 26.5349   1
   2   4   0 50.9274 21.9627   1
  -1   4   5 50.7512 12.1223  -2
   4   4   0 50.7512 12.1223   1
  -1   4   6 664.015 23.4648  -2
   5   4   0 664.015 23.4648   1
  -4   0  16 301.792 31.8601  -2
 -13   0   1 301.792 31.8601   1
 -12   0   1 11.8434 17.1659   1
  -3   0  13 857.100 50.6109  -2
 -11   0   1 857.100 50.6109   1
  -3   0  12 1.73018 9.74488  -2
 -10   0   1 1.73018 9.74488   1
  -3   0  11 1237.72 29.6935  -2
  -9   0   1 1237.72 29.6935   1
  -3   0  10 11.5278 11.9549  -2
  -8   0   1 11.5278 11.9549   1
  -2   0   8 1460.76 38.1291  -2
  -7   0   1 1460.76 38.1291   1
  -2   0   7 5.77779 7.05867  -2
  -6   0   1 5.77779 7.05867   1
  -2   0   6 2059.31 47.7194  -2
  -5   0   1 2059.31 47.7194   1
  -2   0   5 1.01924 6.54123  -2
  -4   0   1 1.01924 6.54123   1
  -3   0   1 227.717 5.59302   1
  -1   0   2 4.04174 5.19717  -2
  -2   0   1 4.04174 5.19717   1
   0   0   3 -2.0954 9.79455  -2
   2   0   1 -2.0954 9.79455   1
   0   0   4 245.267 6.80614  -2
   3   0   1 245.267 6.80614   1
   0   0   5 -2.5927 5.24768  -2
   4   0   1 -2.5927 5.24768   1
   0   0   6 942.842 45.2960  -2
   5   0   1 942.842 45.2960   1
  -1   0   8 5.51061 10.2254  -2
   6   0   1 5.51061 10.2254   1
  -1   0   9 448.821 13.1096  -2
   7   0   1 448.821 13.1096   1
  -1   0  10 0.51726 6.85307  -2
   8   0   1 0.51726 6.85307   1
  -1   0  11 402.298 21.6061  -2
   9   0   1 402.298 21.6061   1
  10   0   1 15.8343 13.7134   1
  -2   0  15 8.16265 12.8020  -2
  12   0   1 8.16265 12.8020   1
  -3   1  13 1023.84 28.3732  -2
 -11   1   1 1023.84 28.3732   1
  -3   1  12 145.107 7.92930  -2
 -10   1   1 145.107 7.92930   1
  -3   1  11 228.964 9.85789  -2
  -9   1   1 228.964 9.85789   1
  -3   1  10 6.44837 9.73252  -2
  -8   1   1 6.44837 9.73252   1
  -2   1   8 556.139 11.8536  -2
  -7   1   1 556.139 11.8536   1
  -2   1   7 255.354 6.89294  -2
  -6   1   1 255.354 6.89294   1
  -2   1   6 269.182 6.88736  -2
  -5   1   1 269.182 6.88736   1
  -2   1   5 235.911 6.75159  -2
  -4   1   1 235.911 6.75159   1
  -3   1   1 1206.80 16.0744   1
  -1   1   2 1042.57 16.9663  -2
  -2   1   1 1042.57 16.9663   1
  -1   1   1 23.7001 2.11109  -2
  -1   1   1 23.7001 2.11109   1
   1   1   0 4993.53 90.0477  -2
   0   1   1 4993.53 90.0477   1
   1   1   1 9481.30 162.462   1
   0   1   3 2726.74 40.8894  -2
   2   1   1 2726.74 40.8894   1
   0   1   4 3938.60 54.7913  -2
   3   1   1 3938.60 54.7913   1
   0   1   5 115.928 5.38454  -2
   4   1   1 115.928 5.38454   1
   0   1   6 992.591 16.1214  -2
   5   1   1 992.591 16.1214   1
  -1   1   8 326.704 12.3637  -2
   6   1   1 326.704 12.3637   1
  -1   1   9 930.249 15.6131  -2
   7   1   1 930.249 15.6131   1
  -1   1  10 75.3234 5.54720  -2
   8   1   1 75.3234 5.54720   1
  -1   1  11 321.769 13.2274  -2
   9   1   1 321.769 13.2274   1
  -2   1  14 269.756 14.9204  -2
  11   1   1 269.756 14.9204   1
  -2   1  15 30.7617 13.6011  -2
  12   1   1 30.7617 13.6011   1
  -3   2  13 495.427 17.1294  -2
 -11   2   1 495.427 17.1294   1
  -3   2  12 88.3921 8.55339  -2
 -10   2   1 88.3921 8.55339   1
  -3   2  11 349.112 16.7825  -2
  -9   2   1 349.112 16.7825   1
  -3   2  10 70.9836 18.7778  -2
  -8   2   1 70.9836 18.7778   1
  -2   2   8 301.550 12.6297  -2
  -7   2   1 301.550 12.6297   1
  -2   2   7 282.253 8.29665  -2
  -6   2   1 282.253 8.29665   1
  -2   2   6 94.6926 4.16904  -2
  -5   2   1 94.6926 4.16904   1
  -2   2   5 111.014 7.55658  -2
  -4   2   1 111.014 7.55658   1
  -1   2   3 1814.76 74.2250  -2
  -3   2   1 1814.76 74.2250   1
  -1   2   2 1377.78 24.1174  -2
  -2   2   1 1377.78 24.1174   1
  -1   2   1 1.78589 2.57468  -2
  -1   2   1 1.78589 2.57468   1
   1   2   0 50.3476 7.19643  -2
   0   2   1 50.3476 7.19643   1
   1   2   1 2440.07 74.1376  -2
   1   2   1 2440.07 74.1376   1
   0   2   3 419.886 9.69274  -2
   2   2   1 419.886 9.69274   1
   0   2   4 2323.00 29.2323  -2
   3   2   1 2323.00 29.2323   1
   0   2   5 173.438 6.74178  -2
   4   2   1 173.438 6.74178   1
   0   2   6 150.822 8.64100  -2
   5   2   1 150.822 8.64100   1
  -1   2   8 120.086 11.0238  -2
   6   2   1 120.086 11.0238   1
  -1   2   9 14.7973 8.69118  -2
   7   2   1 14.7973 8.69118   1
  -1   2  10 213.488 10.0320  -2
   8   2   1 213.488 10.0320   1
  -1   2  11 147.724 11.6116  -2
   9   2   1 147.724 11.6116   1
  -2   2  14 68.1721 12.0199  -2
  11   2   1 68.1721 12.0199   1
  -3   3  12 26.1040 13.0986  -2
 -10   3   1 26.1040 13.0986   1
  -3   3  11 193.335 13.1270  -2
  -9   3   1 193.335 13.1270   1
  -3   3  10 217.027 25.3996  -2
  -8   3   1 217.027 25.3996   1
  -2   3   8 56.8541 16.7489  -2
  -7   3   1 56.8541 16.7489   1
  -2   3   7 383.898 12.7732  -2
  -6   3   1 383.898 12.7732   1
  -2   3   6 1240.75 23.7460  -2
  -5   3   1 1240.75 23.7460   1
  -2   3   5 641.214 19.4042  -2
  -4   3   1 641.214 19.4042   1
  -3   3   1 70.1516 17.2012   1
  -1   3   2 298.777 11.2574  -2
  -2   3   1 298.777 11.2574   1
  -1   3   1 246.617 6.84836  -2
  -1   3   1 246.617 6.84836   1
   1   3   0 147.702 11.0410  -2
   0   3   1 147.702 11.0410   1
   1   3   1 961.599 33.1504  -2
   1   3   1 961.599 33.1504   1
   0   3   3 754.109 20.6212  -2
   2   3   1 754.109 20.6212   1
   0   3   4 854.432 14.7663  -2
   3   3   1 854.432 14.7663   1
   0   3   5 121.604 8.48916  -2
   4   3   1 121.604 8.48916   1
   0   3   6 155.690 23.5164  -2
   5   3   1 155.690 23.5164   1
  -1   3   8 277.717 18.4058  -2
   6   3   1 277.717 18.4058   1
  -1   3   9 142.343 13.0471  -2
   7   3   1 142.343 13.0471   1
  -1   3  10 377.464 15.2358  -2
   8   3   1 377.464 15.2358   1
  -1   3  11 307.576 16.2456  -2
   9   3   1 307.576 16.2456   1
  -2   4   7 291.555 17.9676  -2
  -6   4   1 291.555 17.9676   1
  -2   4   6 50.2159 12.1577  -2
  -5   4   1 50.2159 12.1577   1
  -2   4   5 380.634 14.6255  -2
  -4   4   1 380.634 14.6255   1
  -3   4   1 106.748 18.9719   1
  -1   4   1 30.2748 9.95710  -2
  -1   4   1 30.2748 9.95710   1
   1   4   0 -6.7146 25.0172  -2
   0   4   1 -6.7146 25.0172   1
   1   4   1 141.845 32.6050  -2
   1   4   1 141.845 32.6050   1
   0   4   4 55.6537 20.9519  -2
   3   4   1 55.6537 20.9519   1
   0   4   5 124.149 30.7121  -2
   4   4   1 124.149 30.7121   1
  -4   0  14 53.3155 28.7036  -2
 -12   0   2 53.3155 28.7036   1
  -4   0  13 31.1913 9.28475  -2
 -11   0   2 31.1913 9.28475   1
  -4   0  12 2690.51 66.4170  -2
 -10   0   2 2690.51 66.4170   1
  -4   0  11 13.1378 15.6046  -2
  -9   0   2 13.1378 15.6046   1
  -3   0   9 149.850 13.7716  -2
  -8   0   2 149.850 13.7716   1
  -3   0   8 2.46320 7.04042  -2
  -7   0   2 2.46320 7.04042   1
  -3   0   7 584.735 13.7878  -2
  -6   0   2 584.735 13.7878   1
  -3   0   6 5.83157 8.16885  -2
  -5   0   2 5.83157 8.16885   1
  -4   0   2 1338.06 22.6855   1
  -2   0   3 2.38651 4.62097  -2
  -3   0   2 2.38651 4.62097   1
  -2   0   2 2689.83 44.9080  -2
  -2   0   2 2689.83 44.9080   1
  -2   0   1 -0.5342 4.28243  -2
  -1   0   2 -0.5342 4.28243   1
   0   0   2 324.157 6.31544   1
   1   0   2 -1.8744 2.21154   1
   1   0   3 2853.54 46.7070  -2
   2   0   2 2853.54 46.7070   1
   1   0   4 -2.9371 5.13471  -2
   3   0   2 -2.9371 5.13471   1
   1   0   5 9766.12 219.557  -2
   4   0   2 9766.12 219.557   1
   0   0   7 4.68774 14.7545  -2
   5   0   2 4.68774 14.7545   1
   0   0   8 1111.02 23.4787  -2
   6   0   2 1111.02 23.4787   1
   0   0   9 -7.3126 5.86033  -2
   7   0   2 -7.3126 5.86033   1
   0   0  10 358.194 16.3298  -2
   8   0   2 358.194 16.3298   1
   9   0   2 11.9984 14.2156   1
  -1   0  14 1.61672 11.9282  -2
  11   0   2 1.61672 11.9282   1
  -1   0  15 206.048 29.8458  -2
  12   0   2 206.048 29.8458   1
 -13   1   2 67.3691 18.5556   1
  -4   1  14 36.0992 13.0307  -2
 -12   1   2 36.0992 13.0307   1
  -4   1  13 120.674 9.12460  -2
 -11   1   2 120.674 9.12460   1
  -4   1  12 634.275 21.4287  -2
 -10   1   2 634.275 21.4287   1
  -4   1  11 721.902 17.6010  -2
  -9   1   2 721.902 17.6010   1
  -3   1   9 1360.47 22.1710  -2
  -8   1   2 1360.47 22.1710   1
  -3   1   8 79.9761 4.85374  -2
  -7   1   2 79.9761 4.85374   1
  -3   1   7 1656.90 22.4894  -2
  -6   1   2 1656.90 22.4894   1
  -3   1   6 936.066 16.1505  -2
  -5   1   2 936.066 16.1505   1
  -2   1   4 3538.40 135.468  -2
  -4   1   2 3538.40 135.468   1
  -2   1   3 54.5806 4.20122  -2
  -3   1   2 54.5806 4.20122   1
  -2   1   2 4457.95 53.7041  -2
  -2   1   2 4457.95 53.7041   1
  -2   1   1 1069.27 16.2091  -2
  -1   1   2 1069.27 16.2091   1
   2   1   0 2717.26 107.727  -2
   0   1   2 2717.26 107.727   1
   1   1   2 849.065 16.2366  -2
   1   1   2 849.065 16.2366   1
   1   1   3 326.565 6.17693  -2
   2   1   2 326.565 6.17693   1
   1   1   4 249.641 6.39608  -2
   3   1   2 249.641 6.39608   1
   1   1   5 1249.62 20.2149  -2
   4   1   2 1249.62 20.2149   1
   0   1   7 373.094 14.3920  -2
   5   1   2 373.094 14.3920   1
   0   1   8 508.825 10.3149  -2
   6   1   2 508.825 10.3149   1
   0   1   9 49.9958 5.38510  -2
   7   1   2 49.9958 5.38510   1
   0   1  10 530.200 12.8766  -2
   8   1   2 530.200 12.8766   1
  -1   1  13 126.964 10.9936  -2
  10   1   2 126.964 10.9936   1
  -1   1  14 3.81743 10.5644  -2
  11   1   2 3.81743 10.5644   1
  -4   2  14 123.457 21.7305  -2
 -12   2   2 123.457 21.7305   1
  -4   2  13 84.4749 13.7044  -2
 -11   2   2 84.4749 13.7044   1
  -4   2  12 110.032 11.7004  -2
 -10   2   2 110.032 11.7004   1
  -4   2  11 61.5033 29.3553  -2
  -9   2   2 61.5033 29.3553   1
  -3   2   9 706.827 21.9884  -2
  -8   2   2 706.827 21.9884   1
  -3   2   8 13.0083 6.78925  -2
  -7   2   2 13.0083 6.78925   1
  -3   2   7 175.438 5.82004  -2
  -6   2   2 175.438 5.82004   1
  -3   2   6 174.396 7.94147  -2
  -5   2   2 174.396 7.94147   1
  -2   2   4 229.875 16.6691  -2
  -4   2   2 229.875 16.6691   1
  -2   2   3 823.151 15.0823  -2
  -3   2   2 823.151 15.0823   1
  -2   2   2 464.957 7.67166  -2
  -2   2   2 464.957 7.67166   1
  -2   2   1 1208.42 24.0284  -2
  -1   2   2 1208.42 24.0284   1
   2   2   0 1704.37 49.2999  -2
   0   2   2 1704.37 49.2999   1
   1   2   2 41.9062 9.81001  -2
   1   2   2 41.9062 9.81001   1
   1   2   3 2426.54 33.4281  -2
   2   2   2 2426.54 33.4281   1
   1   2   4 260.129 6.70924  -2
   3   2   2 260.129 6.70924   1
   1   2   5 874.185 16.9613  -2
   4   2   2 874.185 16.9613   1
   0   2   7 121.582 10.5651  -2
   5   2   2 121.582 10.5651   1
   0   2   8 1978.47 35.8101  -2
   6   2   2 1978.47 35.8101   1
   0   2   9 123.288 8.31341  -2
   7   2   2 123.288 8.31341   1
   0   2  10 345.943 14.3406  -2
   8   2   2 345.943 14.3406   1
  -1   2  13 264.906 21.0078  -2
  10   2   2 264.906 21.0078   1
  -4   3  12 168.608 31.5567  -2
 -10   3   2 168.608 31.5567   1
  -4   3  11 93.8102 37.3671  -2
  -9   3   2 93.8102 37.3671   1
  -3   3   9 610.702 32.6875  -2
  -8   3   2 610.702 32.6875   1
  -3   3   8 58.3270 10.8430  -2
  -7   3   2 58.3270 10.8430   1
  -3   3   7 193.666 10.4496  -2
  -6   3   2 193.666 10.4496   1
  -3   3   6 313.011 17.4662  -2
  -5   3   2 313.011 17.4662   1
  -2   3   4 228.309 16.0845  -2
  -4   3   2 228.309 16.0845   1
  -2   3   3 160.332 8.26771  -2
  -3   3   2 160.332 8.26771   1
  -2   3   2 211.387 6.19162  -2
  -2   3   2 211.387 6.19162   1
  -2   3   1 342.657 11.3602  -2
  -1   3   2 342.657 11.3602   1
   2   3   0 332.267 30.6889  -2
   0   3   2 332.267 30.6889   1
   1   3   2 127.636 10.0698  -2
   1   3   2 127.636 10.0698   1
   1   3   3 9.08428 5.51906  -2
   2   3   2 9.08428 5.51906   1
   1   3   4 689.625 15.9868  -2
   3   3   2 689.625 15.9868   1
   1   3   5 264.125 26.6193  -2
   4   3   2 264.125 26.6193   1
   0   3   7 519.793 26.4767  -2
   5   3   2 519.793 26.4767   1
   0   3   8 124.431 13.5154  -2
   6   3   2 124.431 13.5154   1
   0   3   9 46.2791 7.83412  -2
   7   3   2 46.2791 7.83412   1
   0   3  10 93.3159 15.7169  -2
   8   3   2 93.3159 15.7169   1
  -3   4   7 110.405 12.9684  -2
  -6   4   2 110.405 12.9684   1
  -3   4   6 290.379 27.9894  -2
  -5   4   2 290.379 27.9894   1
  -2   4   2 208.653 10.4611  -2
  -2   4   2 208.653 10.4611   1
  -2   4   1 297.041 34.0778  -2
  -1   4   2 297.041 34.0778   1
   0   4   2 28.1466 16.4483   1
   1   4   3 74.8966 11.8486  -2
   2   4   2 74.8966 11.8486   1
   1   4   4 131.177 17.0396  -2
   3   4   2 131.177 17.0396   1
   1   4   5 300.468 32.7567  -2
   4   4   2 300.468 32.7567   1
  -5   0  15 372.853 24.0907  -2
 -13   0   3 372.853 24.0907   1
  -5   0  14 1.31350 11.3109  -2
 -12   0   3 1.31350 11.3109   1
  -5   0  13 127.165 12.3935  -2
 -11   0   3 127.165 12.3935   1
  -5   0  12 28.9469 13.3318  -2
 -10   0   3 28.9469 13.3318   1
  -4   0  10 332.390 16.4494  -2
  -9   0   3 332.390 16.4494   1
  -4   0   9 -0.2985 7.21220  -2
  -8   0   3 -0.2985 7.21220   1
  -4   0   8 1256.61 24.8876  -2
  -7   0   3 1256.61 24.8876   1
  -4   0   7 -6.1381 9.98492  -2
  -6   0   3 -6.1381 9.98492   1
  -5   0   3 1983.60 36.5032   1
  -3   0   4 -0.8778 5.82156  -2
  -4   0   3 -0.8778 5.82156   1
  -3   0   3 9999.99 160.290  -2
  -3   0   3 9999.99 160.290   1
  -3   0   2 -0.5262 5.11008  -2
  -2   0   3 -0.5262 5.11008   1
  -1   0   3 1938.84 31.4022   1
   2   0   1 -4.6175 11.0538  -2
   0   0   3 -4.6175 11.0538   1
   2   0   2 3212.67 65.6786  -2
   1   0   3 3212.67 65.6786   1
   2   0   3 -1.1676 5.45493  -2
   2   0   3 -1.1676 5.45493   1
   2   0   4 220.788 21.9790  -2
   3   0   3 220.788 21.9790   1
   1   0   6 -24.450 22.4496  -2
   4   0   3 -24.450 22.4496   1
   1   0   7 1451.90 26.7750  -2
   5   0   3 1451.90 26.7750   1
   1   0   8 11.2842 5.74632  -2
   6   0   3 11.2842 5.74632   1
   1   0   9 606.012 19.3462  -2
   7   0   3 606.012 19.3462   1
   8   0   3 7.75263 12.9958   1
   0   0  12 532.406 36.4212  -2
   9   0   3 532.406 36.4212   1
   0   0  13 14.2428 11.6905  -2
  10   0   3 14.2428 11.6905   1
   0   0  14 284.215 22.5215  -2
  11   0   3 284.215 22.5215   1
  -5   1  15 140.725 19.6621  -2
 -13   1   3 140.725 19.6621   1
  -5   1  14 46.0774 7.99498  -2
 -12   1   3 46.0774 7.99498   1
  -5   1  13 136.892 11.3127  -2
 -11   1   3 136.892 11.3127   1
  -5   1  12 132.131 25.8525  -2
 -10   1   3 132.131 25.8525   1
  -4   1  10 370.801 12.6115  -2
  -9   1   3 370.801 12.6115   1
  -4   1   9 315.548 7.17116  -2
  -8   1   3 315.548 7.17116   1
  -4   1   8 707.061 10.4074  -2
  -7   1   3 707.061 10.4074   1
  -4   1   7 2.35265 5.37805  -2
  -6   1   3 2.35265 5.37805   1
  -3   1   5 16.0427 10.6122  -2
  -5   1   3 16.0427 10.6122   1
  -3   1   4 146.909 8.31200  -2
  -4   1   3 146.909 8.31200   1
  -3   1   3 911.530 11.9257  -2
  -3   1   3 911.530 11.9257   1
  -3   1   2 65.1424 4.73375  -2
  -2   1   3 65.1424 4.73375   1
  -3   1   1 1123.58 33.1426  -2
  -1   1   3 1123.58 33.1426   1
   2   1   1 2334.98 39.9185  -2
   0   1   3 2334.98 39.9185   1
   2   1   2 257.193 5.79587  -2
   1   1   3 257.193 5.79587   1
   2   1   3 21.8600 5.41777  -2
   2   1   3 21.8600 5.41777   1
   2   1   4 1736.33 30.3241  -2
   3   1   3 1736.33 30.3241   1
   1   1   6 324.607 11.6267  -2
   4   1   3 324.607 11.6267   1
   1   1   7 960.839 16.5556  -2
   5   1   3 960.839 16.5556   1
   1   1   8 713.560 12.2023  -2
   6   1   3 713.560 12.2023   1
   1   1   9 1481.36 25.1714  -2
   7   1   3 1481.36 25.1714   1
   8   1   3 4.70202 20.9563   1
   0   1  12 457.696 16.7941  -2
   9   1   3 457.696 16.7941   1
   0   1  13 38.1596 12.5365  -2
  10   1   3 38.1596 12.5365   1
   0   1  14 75.0910 26.6082  -2
  11   1   3 75.0910 26.6082   1
  -5   2  14 125.122 13.0790  -2
 -12   2   3 125.122 13.0790   1
  -5   2  13 349.191 10.8981  -2
 -11   2   3 349.191 10.8981   1
  -5   2  12 105.952 38.5623  -2
 -10   2   3 105.952 38.5623   1
  -4   2  10 483.723 36.9440  -2
  -9   2   3 483.723 36.9440   1
  -4   2   9 478.885 13.0697  -2
  -8   2   3 478.885 13.0697   1
  -4   2   8 1632.52 27.3582  -2
  -7   2   3 1632.52 27.3582   1
  -4   2   7 122.778 6.39412  -2
  -6   2   3 122.778 6.39412   1
  -3   2   5 986.217 24.2849  -2
  -5   2   3 986.217 24.2849   1
  -3   2   4 92.1379 6.92186  -2
  -4   2   3 92.1379 6.92186   1
  -3   2   3 393.339 7.27231  -2
  -3   2   3 393.339 7.27231   1
  -3   2   2 726.741 13.7369  -2
  -2   2   3 726.741 13.7369   1
  -3   2   1 1883.99 53.7186  -2
  -1   2   3 1883.99 53.7186   1
   2   2   1 344.613 14.7165  -2
   0   2   3 344.613 14.7165   1
   2   2   2 2274.96 39.3805  -2
   1   2   3 2274.96 39.3805   1
   2   2   3 513.679 12.8244  -2
   2   2   3 513.679 12.8244   1
   2   2   4 148.196 7.97745  -2
   3   2   3 148.196 7.97745   1
   1   2   6 405.485 13.7073  -2
   4   2   3 405.485 13.7073   1
   1   2   7 170.956 7.71466  -2
   5   2   3 170.956 7.71466   1
   1   2   8 420.861 10.9310  -2
   6   2   3 420.861 10.9310   1
   1   2   9 400.569 16.3683  -2
   7   2   3 400.569 16.3683   1
   8   2   3 52.5966 17.1300   1
   0   2  12 380.482 25.0339  -2
   9   2   3 380.482 25.0339   1
   0   2  13 32.9287 12.2116  -2
  10   2   3 32.9287 12.2116   1
 -10   3   3 85.4452 10.7979   1
  -4   3   9 320.093 24.4946  -2
  -8   3   3 320.093 24.4946   1
  -4   3   8 146.152 8.56978  -2
  -7   3   3 146.152 8.56978   1
  -4   3   7 328.165 32.7388  -2
  -6   3   3 328.165 32.7388   1
  -5   3   3 15.6860 13.9671   1
  -3   3   4 12.0194 13.0165  -2
  -4   3   3 12.0194 13.0165   1
  -3   3   3 5.35905 3.45094  -2
  -3   3   3 5.35905 3.45094   1
  -3   3   2 205.749 8.51338  -2
  -2   3   3 205.749 8.51338   1
  -3   3   1 487.505 27.7125  -2
  -1   3   3 487.505 27.7125   1
   2   3   1 731.871 21.3875  -2
   0   3   3 731.871 21.3875   1
   2   3   2 37.6689 7.75521  -2
   1   3   3 37.6689 7.75521   1
   2   3   3 56.5817 8.17451  -2
   2   3   3 56.5817 8.17451   1
   2   3   4 414.510 19.8503  -2
   3   3   3 414.510 19.8503   1
   1   3   6 107.005 23.1472  -2
   4   3   3 107.005 23.1472   1
   1   3   7 73.6984 13.9312  -2
   5   3   3 73.6984 13.9312   1
   1   3   8 90.1454 7.12533  -2
   6   3   3 90.1454 7.12533   1
   1   3   9 343.706 37.3798  -2
   7   3   3 343.706 37.3798   1
  -3   4   3 56.9111 8.95321  -2
  -3   4   3 56.9111 8.95321   1
  -3   4   2 9.74569 20.6447  -2
  -2   4   3 9.74569 20.6447   1
   2   4   2 94.5061 11.3879  -2
   1   4   3 94.5061 11.3879   1
   2   4   3 240.967 20.3132  -2
   2   4   3 240.967 20.3132   1
   2   4   4 133.767 27.7992  -2
   3   4   3 133.767 27.7992   1
   1   4   6 201.599 29.3140  -2
   4   4   3 201.599 29.3140   1
  -6   0  15 26.7181 13.9739  -2
 -13   0   4 26.7181 13.9739   1
  -6   0  14 216.771 14.4472  -2
 -12   0   4 216.771 14.4472   1
  -6   0  13 4.02754 15.1804  -2
 -11   0   4 4.02754 15.1804   1
  -5   0  11 348.448 21.5767  -2
 -10   0   4 348.448 21.5767   1
  -5   0  10 -8.1154 11.3938  -2
  -9   0   4 -8.1154 11.3938   1
  -5   0   9 462.788 12.3056  -2
  -8   0   4 462.788 12.3056   1
  -5   0   8 14.4943 12.7910  -2
  -7   0   4 14.4943 12.7910   1
  -4   0   6 2475.20 74.0030  -2
  -6   0   4 2475.20 74.0030   1
  -4   0   5 10.8541 17.1804  -2
  -5   0   4 10.8541 17.1804   1
  -4   0   4 8.51721 3.30522  -2
  -4   0   4 8.51721 3.30522   1
  -4   0   3 2.51541 5.51934  -2
  -3   0   4 2.51541 5.51934   1
  -4   0   2 1217.42 52.0975  -2
  -2   0   4 1217.42 52.0975   1
   3   0   0 3.79407 7.30914  -2
  -1   0   4 3.79407 7.30914   1
   3   0   1 185.145 6.71629  -2
   0   0   4 185.145 6.71629   1
   3   0   2 -0.4707 6.33651  -2
   1   0   4 -0.4707 6.33651   1
   3   0   3 259.900 16.1095  -2
   2   0   4 259.900 16.1095   1
   2   0   5 14.4908 12.3335  -2
   3   0   4 14.4908 12.3335   1
   2   0   6 462.559 14.6436  -2
   4   0   4 462.559 14.6436   1
   2   0   7 0.23672 5.70606  -2
   5   0   4 0.23672 5.70606   1
   2   0   8 1458.17 31.0829  -2
   6   0   4 1458.17 31.0829   1
   7   0   4 -7.0184 10.6552   1
   1   0  11 234.855 26.7089  -2
   8   0   4 234.855 26.7089   1
   1   0  12 2.62551 13.4396  -2
   9   0   4 2.62551 13.4396   1
   1   0  13 524.565 27.7767  -2
  10   0   4 524.565 27.7767   1
  -6   1  15 27.3238 8.81073  -2
 -13   1   4 27.3238 8.81073   1
  -6   1  14 583.548 17.6995  -2
 -12   1   4 583.548 17.6995   1
  -6   1  13 66.8013 25.2581  -2
 -11   1   4 66.8013 25.2581   1
  -5   1  11 496.062 22.5384  -2
 -10   1   4 496.062 22.5384   1
  -5   1  10 177.097 7.08128  -2
  -9   1   4 177.097 7.08128   1
  -5   1   9 522.577 8.66890  -2
  -8   1   4 522.577 8.66890   1
  -5   1   8 30.3185 7.26648  -2
  -7   1   4 30.3185 7.26648   1
  -4   1   6 759.308 28.5231  -2
  -6   1   4 759.308 28.5231   1
  -4   1   5 967.296 23.2623  -2
  -5   1   4 967.296 23.2623   1
  -4   1   4 2471.32 34.1659  -2
  -4   1   4 2471.32 34.1659   1
  -4   1   3 129.229 4.75993  -2
  -3   1   4 129.229 4.75993   1
  -2   1   4 3574.48 42.1583   1
   3   1   0 687.524 12.4191  -2
  -1   1   4 687.524 12.4191   1
   3   1   1 3878.80 56.4603  -2
   0   1   4 3878.80 56.4603   1
   3   1   2 212.132 6.67251  -2
   1   1   4 212.132 6.67251   1
   3   1   3 2040.14 49.6644  -2
   2   1   4 2040.14 49.6644   1
   2   1   5 199.045 7.81512  -2
   3   1   4 199.045 7.81512   1
   2   1   6 1329.87 20.3648  -2
   4   1   4 1329.87 20.3648   1
   2   1   7 215.378 6.66620  -2
   5   1   4 215.378 6.66620   1
   2   1   8 621.889 14.6121  -2
   6   1   4 621.889 14.6121   1
   7   1   4 165.113 15.1492   1
   1   1  11 169.389 10.6013  -2
   8   1   4 169.389 10.6013   1
   1   1  12 34.9193 9.95096  -2
   9   1   4 34.9193 9.95096   1
   1   1  13 440.764 38.1820  -2
  10   1   4 440.764 38.1820   1
  -6   2  14 99.9600 11.6344  -2
 -12   2   4 99.9600 11.6344   1
  -6   2  13 44.3185 24.4179  -2
 -11   2   4 44.3185 24.4179   1
  -5   2  11 645.834 54.8479  -2
 -10   2   4 645.834 54.8479   1
  -5   2  10 252.526 16.9465  -2
  -9   2   4 252.526 16.9465   1
  -5   2   9 65.3083 8.99910  -2
  -8   2   4 65.3083 8.99910   1
  -5   2   8 144.564 12.2943  -2
  -7   2   4 144.564 12.2943   1
  -4   2   6 438.619 19.2180  -2
  -6   2   4 438.619 19.2180   1
  -4   2   5 1050.20 17.5636  -2
  -5   2   4 1050.20 17.5636   1
  -4   2   4 142.552 4.85025  -2
  -4   2   4 142.552 4.85025   1
  -4   2   3 71.9957 6.46561  -2
  -3   2   4 71.9957 6.46561   1
  -4   2   2 207.551 11.7869  -2
  -2   2   4 207.551 11.7869   1
   3   2   0 80.2927 8.17647  -2
  -1   2   4 80.2927 8.17647   1
   3   2   1 1873.25 33.1158  -2
   0   2   4 1873.25 33.1158   1
   3   2   2 283.749 9.43570  -2
   1   2   4 283.749 9.43570   1
   3   2   3 150.124 13.3238  -2
   2   2   4 150.124 13.3238   1
   2   2   5 92.6139 9.62090  -2
   3   2   4 92.6139 9.62090   1
   2   2   6 182.547 8.10642  -2
   4   2   4 182.547 8.10642   1
   2   2   7 108.856 5.67512  -2
   5   2   4 108.856 5.67512   1
   2   2   8 39.0629 16.9678  -2
   6   2   4 39.0629 16.9678   1
   7   2   4 64.1826 17.1249   1
   1   2  11 222.210 20.7613  -2
   8   2   4 222.210 20.7613   1
   1   2  12 9.17037 8.65773  -2
   9   2   4 9.17037 8.65773   1
  -5   3  10 78.5075 21.2796  -2
  -9   3   4 78.5075 21.2796   1
  -5   3   9 153.276 10.4530  -2
  -8   3   4 153.276 10.4530   1
  -5   3   8 557.034 17.8379  -2
  -7   3   4 557.034 17.8379   1
  -4   3   5 280.266 18.8918  -2
  -5   3   4 280.266 18.8918   1
  -4   3   4 761.339 15.0782  -2
  -4   3   4 761.339 15.0782   1
  -4   3   3 14.7799 8.91280  -2
  -3   3   4 14.7799 8.91280   1
  -4   3   2 299.959 22.6459  -2
  -2   3   4 299.959 22.6459   1
   3   3   0 611.750 26.7180  -2
   3   3   0 611.750 26.7180  -2
  -1   3   4 611.750 26.7180   1
  -1   3   4 611.750 26.7180   1
   3   3   0 351.089 17.2389  -2
  -1   3   4 351.089 17.2389   1
   3   3   1 860.553 15.5868  -2
   0   3   4 860.553 15.5868   1
   3   3   2 574.134 17.2816  -2
   1   3   4 574.134 17.2816   1
   3   3   3 404.677 15.3648  -2
   2   3   4 404.677 15.3648   1
   2   3   5 220.486 26.9081  -2
   3   3   4 220.486 26.9081   1
   2   3   6 408.276 18.9970  -2
   4   3   4 408.276 18.9970   1
   2   3   7 230.563 12.4626  -2
   5   3   4 230.563 12.4626   1
   2   3   8 108.716 13.0738  -2
   6   3   4 108.716 13.0738   1
  -4   4   5 284.200 26.8123  -2
  -5   4   4 284.200 26.8123   1
  -4   4   4 3.44118 15.5322  -2
  -4   4   4 3.44118 15.5322   1
  -4   4   3 55.4492 30.5309  -2
  -3   4   4 55.4492 30.5309   1
  -4   4   1 277.018 37.1125  -2
  -2   4   4 277.018 37.1125   1
   3   4   0 347.183 33.4214  -2
  -1   4   4 347.183 33.4214   1
   3   4   1 104.567 13.4057  -2
   0   4   4 104.567 13.4057   1
   3   4   2 121.069 14.8922  -2
   1   4   4 121.069 14.8922   1
   3   4   3 108.091 28.1934  -2
   2   4   4 108.091 28.1934   1
   2   4   5 96.7553 18.8746  -2
   3   4   4 96.7553 18.8746   1
  -7   0  15 414.748 20.5935  -2
 -13   0   5 414.748 20.5935   1
  -7   0  14 26.8607 15.9798  -2
 -12   0   5 26.8607 15.9798   1
  -6   0  12 496.961 33.0825  -2
 -11   0   5 496.961 33.0825   1
  -6   0  11 19.9622 23.7346  -2
 -10   0   5 19.9622 23.7346   1
  -6   0  10 1024.99 25.6762  -2
  -9   0   5 1024.99 25.6762   1
  -6   0   9 -11.952 14.2366  -2
  -8   0   5 -11.952 14.2366   1
  -5   0   7 460.796 30.1668  -2
  -7   0   5 460.796 30.1668   1
  -5   0   6 -9.3841 16.7135  -2
  -6   0   5 -9.3841 16.7135   1
  -5   0   5 1017.39 20.8418  -2
  -5   0   5 1017.39 20.8418   1
  -5   0   4 -3.0418 7.15411  -2
  -4   0   5 -3.0418 7.15411   1
  -5   0   3 2270.34 67.5670  -2
  -3   0   5 2270.34 67.5670   1
  -4   0   1 6.73159 9.81236  -2
  -2   0   5 6.73159 9.81236   1
   4   0   0 3497.14 56.9248  -2
  -1   0   5 3497.14 56.9248   1
   4   0   1 1.97122 6.58606  -2
   0   0   5 1.97122 6.58606   1
   4   0   2 9336.02 356.674  -2
   1   0   5 9336.02 356.674   1
   3   0   4 9.00110 11.1939  -2
   2   0   5 9.00110 11.1939   1
   3   0   5 2724.55 58.1608  -2
   3   0   5 2724.55 58.1608   1
   3   0   6 -2.0746 4.96568  -2
   4   0   5 -2.0746 4.96568   1
   3   0   7 1242.14 27.3832  -2
   5   0   5 1242.14 27.3832   1
   2   0  10 1398.42 50.5904  -2
   7   0   5 1398.42 50.5904   1
   2   0  11 13.2796 18.1038  -2
   8   0   5 13.2796 18.1038   1
   2   0  12 21.8677 16.0754  -2
   9   0   5 21.8677 16.0754   1
  -7   1  15 145.702 17.0357  -2
 -13   1   5 145.702 17.0357   1
  -7   1  14 101.208 14.3397  -2
 -12   1   5 101.208 14.3397   1
  -6   1  12 452.699 17.6500  -2
 -11   1   5 452.699 17.6500   1
  -6   1  11 291.440 22.0047  -2
 -10   1   5 291.440 22.0047   1
  -6   1  10 346.716 11.4624  -2
  -9   1   5 346.716 11.4624   1
  -6   1   9 255.623 14.2936  -2
  -8   1   5 255.623 14.2936   1
  -5   1   7 1616.67 40.7365  -2
  -7   1   5 1616.67 40.7365   1
  -5   1   6 139.570 7.56268  -2
  -6   1   5 139.570 7.56268   1
  -5   1   5 30.4093 3.43562  -2
  -5   1   5 30.4093 3.43562   1
  -5   1   4 870.425 17.2468  -2
  -4   1   5 870.425 17.2468   1
  -3   1   5 17.7397 2.88019   1
  -4   1   1 277.123 7.30195  -2
  -2   1   5 277.123 7.30195   1
   4   1   0 156.039 4.95193  -2
  -1   1   5 156.039 4.95193   1
   4   1   1 93.7846 8.57778  -2
   0   1   5 93.7846 8.57778   1
   4   1   2 1104.40 20.6183  -2
   1   1   5 1104.40 20.6183   1
   3   1   4 146.033 7.07728  -2
   2   1   5 146.033 7.07728   1
   3   1   5 223.017 6.58903  -2
   3   1   5 223.017 6.58903   1
   3   1   6 26.3592 4.20458  -2
   4   1   5 26.3592 4.20458   1
   3   1   7 517.347 14.5806  -2
   5   1   5 517.347 14.5806   1
   6   1   5 73.0641 11.5884   1
   2   1  10 85.4620 13.7303  -2
   7   1   5 85.4620 13.7303   1
   2   1  11 84.7500 10.3697  -2
   8   1   5 84.7500 10.3697   1
   2   1  12 237.879 17.7069  -2
   9   1   5 237.879 17.7069   1
  -7   2  14 39.5597 25.3340  -2
 -12   2   5 39.5597 25.3340   1
  -6   2  12 729.115 37.1809  -2
 -11   2   5 729.115 37.1809   1
  -6   2  11 -10.215 30.5364  -2
 -10   2   5 -10.215 30.5364   1
  -6   2  10 351.518 17.4093  -2
  -9   2   5 351.518 17.4093   1
  -6   2   9 92.6020 14.7532  -2
  -8   2   5 92.6020 14.7532   1
  -5   2   7 238.465 31.0543  -2
  -7   2   5 238.465 31.0543   1
  -5   2   6 151.749 9.54849  -2
  -6   2   5 151.749 9.54849   1
  -5   2   5 186.348 7.14046  -2
  -5   2   5 186.348 7.14046   1
  -5   2   4 1230.60 20.2050  -2
  -4   2   5 1230.60 20.2050   1
  -5   2   3 876.466 39.5808  -2
  -3   2   5 876.466 39.5808   1
  -4   2   1 90.4942 8.93080  -2
  -2   2   5 90.4942 8.93080   1
   4   2   0 1276.10 22.4996  -2
  -1   2   5 1276.10 22.4996   1
   4   2   1 163.569 7.47334  -2
   0   2   5 163.569 7.47334   1
   4   2   2 969.612 24.8241  -2
   1   2   5 969.612 24.8241   1
   3   2   4 84.6502 11.0249  -2
   2   2   5 84.6502 11.0249   1
   3   2   5 1131.43 20.7470  -2
   3   2   5 1131.43 20.7470   1
   3   2   6 197.921 6.93456  -2
   4   2   5 197.921 6.93456   1
   3   2   7 620.184 18.8746  -2
   5   2   5 620.184 18.8746   1
   2   2   9 65.9072 23.1122  -2
   6   2   5 65.9072 23.1122   1
   2   2  10 341.939 22.3742  -2
   7   2   5 341.939 22.3742   1
   2   2  11 263.353 12.2965  -2
   8   2   5 263.353 12.2965   1
   2   2  12 151.776 26.0988  -2
   9   2   5 151.776 26.0988   1
  -6   3  11 81.4988 17.3641  -2
 -10   3   5 81.4988 17.3641   1
  -6   3  10 117.077 18.2316  -2
  -9   3   5 117.077 18.2316   1
  -7   3   5 25.3492 6.28757   1
  -5   3   6 57.7500 10.6454  -2
  -6   3   5 57.7500 10.6454   1
  -5   3   5 133.162 8.95884  -2
  -5   3   5 133.162 8.95884   1
  -5   3   4 214.556 16.9287  -2
  -4   3   5 214.556 16.9287   1
  -5   3   3 14.0956 18.3494  -2
  -3   3   5 14.0956 18.3494   1
  -4   3   2 177.582 36.5567  -2
  -3   3   5 177.582 36.5567   1
  -4   3   1 569.728 27.1220  -2
  -2   3   5 569.728 27.1220   1
   4   3   0 120.691 7.64274  -2
  -1   3   5 120.691 7.64274   1
   4   3   1 112.866 7.89976  -2
   0   3   5 112.866 7.89976   1
   4   3   2 239.041 16.9119  -2
   1   3   5 239.041 16.9119   1
   3   3   4 193.831 20.3107  -2
   2   3   5 193.831 20.3107   1
   3   3   5 155.190 19.5692  -2
   3   3   5 155.190 19.5692   1
   3   3   6 28.1206 10.3519  -2
   4   3   5 28.1206 10.3519   1
   3   3   7 156.153 20.4038  -2
   5   3   5 156.153 20.4038   1
   2   3  10 119.125 24.3037  -2
   7   3   5 119.125 24.3037   1
  -5   4   6 128.045 20.2770  -2
  -6   4   5 128.045 20.2770   1
  -5   4   5 72.8161 10.3267  -2
  -5   4   5 72.8161 10.3267   1
  -5   4   4 204.381 37.8234  -2
  -4   4   5 204.381 37.8234   1
   4   4   0 96.3193 11.2512  -2
  -1   4   5 96.3193 11.2512   1
   4   4   1 175.304 26.5173  -2
   0   4   5 175.304 26.5173   1
   3   4   4 131.028 20.2772  -2
   2   4   5 131.028 20.2772   1
   3   4   5 19.3706 13.9348  -2
   3   4   5 19.3706 13.9348   1
 -14   0   6 188.014 13.8123   1
  -8   0  15 -5.6188 18.2266  -2
 -13   0   6 -5.6188 18.2266   1
  -7   0  13 99.4295 23.8971  -2
 -12   0   6 99.4295 23.8971   1
  -7   0  12 7.55597 12.4815  -2
 -11   0   6 7.55597 12.4815   1
  -7   0  11 2257.11 57.9342  -2
 -10   0   6 2257.11 57.9342   1
  -7   0  10 -1.5327 25.7435  -2
  -9   0   6 -1.5327 25.7435   1
  -6   0   8 1099.93 38.3437  -2
  -8   0   6 1099.93 38.3437   1
  -6   0   7 7.15287 7.41698  -2
  -7   0   6 7.15287 7.41698   1
  -6   0   6 2938.58 49.0058  -2
  -6   0   6 2938.58 49.0058   1
  -6   0   5 -1.4799 8.54448  -2
  -5   0   6 -1.4799 8.54448   1
  -4   0   6 395.469 12.6191   1
  -5   0   2 -6.7442 8.63207  -2
  -3   0   6 -6.7442 8.63207   1
  -5   0   1 2367.00 42.7968  -2
  -2   0   6 2367.00 42.7968   1
   5   0   0 6.21132 7.49635  -2
  -1   0   6 6.21132 7.49635   1
   5   0   1 934.604 50.5767  -2
   0   0   6 934.604 50.5767   1
   4   0   3 5.88005 10.5227  -2
   1   0   6 5.88005 10.5227   1
   4   0   4 452.569 14.5888  -2
   2   0   6 452.569 14.5888   1
   4   0   5 0.52660 5.02759  -2
   3   0   6 0.52660 5.02759   1
   4   0   6 779.744 19.7941  -2
   4   0   6 779.744 19.7941   1
   5   0   6 -2.4443 10.8368   1
   3   0   9 2224.43 97.6824  -2
   6   0   6 2224.43 97.6824   1
   3   0  10 18.1148 11.5975  -2
   7   0   6 18.1148 11.5975   1
   3   0  11 225.062 29.9801  -2
   8   0   6 225.062 29.9801   1
  -8   1  15 30.8242 37.0219  -2
 -13   1   6 30.8242 37.0219   1
  -7   1  12 123.107 17.4373  -2
 -11   1   6 123.107 17.4373   1
  -7   1  11 687.793 23.3933  -2
 -10   1   6 687.793 23.3933   1
  -7   1  10 133.192 13.9845  -2
  -9   1   6 133.192 13.9845   1
  -6   1   8 676.876 29.6819  -2
  -8   1   6 676.876 29.6819   1
  -6   1   7 0.77345 6.51435  -2
  -7   1   6 0.77345 6.51435   1
  -6   1   6 596.974 10.3262  -2
  -6   1   6 596.974 10.3262   1
  -6   1   5 118.399 7.94221  -2
  -5   1   6 118.399 7.94221   1
  -6   1   4 663.176 38.7966  -2
  -4   1   6 663.176 38.7966   1
  -5   1   2 1197.54 18.8898  -2
  -3   1   6 1197.54 18.8898   1
  -5   1   1 209.396 5.78606  -2
  -2   1   6 209.396 5.78606   1
   5   1   0 229.130 6.03899  -2
  -1   1   6 229.130 6.03899   1
   5   1   1 976.378 21.1152  -2
   0   1   6 976.378 21.1152   1
   4   1   3 278.235 8.80205  -2
   1   1   6 278.235 8.80205   1
   4   1   4 1543.96 23.3623  -2
   2   1   6 1543.96 23.3623   1
   4   1   5 17.1002 3.80481  -2
   3   1   6 17.1002 3.80481   1
   4   1   6 1351.63 27.4658  -2
   4   1   6 1351.63 27.4658   1
   3   1   8 108.134 14.0679  -2
   5   1   6 108.134 14.0679   1
   3   1   9 733.459 25.0644  -2
   6   1   6 733.459 25.0644   1
   3   1  10 58.9065 8.49731  -2
   7   1   6 58.9065 8.49731   1
   3   1  11 399.953 14.9892  -2
   8   1   6 399.953 14.9892   1
  -7   2  13 186.903 33.0955  -2
 -12   2   6 186.903 33.0955   1
  -7   2  12 131.976 17.7542  -2
 -11   2   6 131.976 17.7542   1
  -7   2  11 154.788 30.5179  -2
 -10   2   6 154.788 30.5179   1
  -7   2  10 2.31212 25.9316  -2
  -9   2   6 2.31212 25.9316   1
  -8   2   6 151.052 21.0592   1
  -6   2   7 18.7627 10.5558  -2
  -7   2   6 18.7627 10.5558   1
  -6   2   6 776.007 16.2805  -2
  -6   2   6 776.007 16.2805   1
  -6   2   5 119.193 7.47123  -2
  -5   2   6 119.193 7.47123   1
  -6   2   4 552.200 17.5924  -2
  -4   2   6 552.200 17.5924   1
  -5   2   2 206.782 7.17066  -2
  -3   2   6 206.782 7.17066   1
  -5   2   1 88.4187 6.14183  -2
  -2   2   6 88.4187 6.14183   1
   5   2   0 364.075 9.46453  -2
  -1   2   6 364.075 9.46453   1
   5   2   1 148.533 11.5189  -2
   0   2   6 148.533 11.5189   1
   4   2   3 400.304 15.9198  -2
   1   2   6 400.304 15.9198   1
   4   2   4 214.915 10.0219  -2
   2   2   6 214.915 10.0219   1
   4   2   5 158.570 7.30083  -2
   3   2   6 158.570 7.30083   1
   4   2   6 410.325 14.5837  -2
   4   2   6 410.325 14.5837   1
   5   2   6 39.6692 13.3636   1
   3   2   9 54.1830 12.2419  -2
   6   2   6 54.1830 12.2419   1
   3   2  10 55.5508 8.86956  -2
   7   2   6 55.5508 8.86956   1
   3   2  11 141.815 15.2142  -2
   8   2   6 141.815 15.2142   1
  -7   3  11 126.315 18.0561  -2
 -10   3   6 126.315 18.0561   1
  -7   3  10 98.9072 32.0505  -2
  -9   3   6 98.9072 32.0505   1
  -6   3   6 203.023 7.71440  -2
  -6   3   6 203.023 7.71440   1
  -6   3   5 54.2218 28.2057  -2
  -5   3   6 54.2218 28.2057   1
  -6   3   4 240.570 17.3629  -2
  -4   3   6 240.570 17.3629   1
  -5   3   2 397.912 16.5891  -2
  -3   3   6 397.912 16.5891   1
  -5   3   1 1056.22 21.9831  -2
  -2   3   6 1056.22 21.9831   1
   5   3   0 119.705 9.15546  -2
  -1   3   6 119.705 9.15546   1
   5   3   1 237.113 21.6507  -2
   0   3   6 237.113 21.6507   1
   4   3   3 97.4001 18.1056  -2
   1   3   6 97.4001 18.1056   1
   4   3   4 486.736 27.3228  -2
   2   3   6 486.736 27.3228   1
   4   3   5 21.0147 10.1433  -2
   3   3   6 21.0147 10.1433   1
   4   3   6 52.5113 18.6188  -2
   4   3   6 52.5113 18.6188   1
   3   3   8 178.745 30.8151  -2
   5   3   6 178.745 30.8151   1
   3   3   9 390.340 24.9435  -2
   6   3   6 390.340 24.9435   1
  -6   4   6 2.93838 10.4015  -2
  -6   4   6 2.93838 10.4015   1
  -6   4   5 115.594 17.7151  -2
  -5   4   6 115.594 17.7151   1
  -5   4   2 244.935 27.6261  -2
  -3   4   6 244.935 27.6261   1
  -5   4   1 112.256 13.3702  -2
  -2   4   6 112.256 13.3702   1
   5   4   0 621.618 21.5657  -2
  -1   4   6 621.618 21.5657   1
   5   4   1 52.5719 27.0693  -2
   0   4   6 52.5719 27.0693   1
   4   4   3 264.946 23.6827  -2
   1   4   6 264.946 23.6827   1
 -14   0   7 9.47041 14.8244   1
  -8   0  14 43.3701 16.3185  -2
 -13   0   7 43.3701 16.3185   1
  -8   0  13 -5.8622 12.9020  -2
 -12   0   7 -5.8622 12.9020   1
  -8   0  12 30.8962 22.5427  -2
 -11   0   7 30.8962 22.5427   1
  -8   0  11 43.1467 29.7309  -2
 -10   0   7 43.1467 29.7309   1
  -7   0   9 370.801 36.3457  -2
  -9   0   7 370.801 36.3457   1
  -7   0   8 -0.0044 7.93983  -2
  -8   0   7 -0.0044 7.93983   1
  -7   0   7 618.344 13.4842  -2
  -7   0   7 618.344 13.4842   1
  -7   0   6 -0.4323 8.70917  -2
  -6   0   7 -0.4323 8.70917   1
  -5   0   7 566.116 14.5301   1
  -6   0   3 7.51363 14.1446  -2
  -4   0   7 7.51363 14.1446   1
  -6   0   2 710.615 19.6778  -2
  -3   0   7 710.615 19.6778   1
  -6   0   1 1.97900 8.73771  -2
  -2   0   7 1.97900 8.73771   1
   6   0   0 1577.26 50.7321  -2
  -1   0   7 1577.26 50.7321   1
   5   0   2 -1.2524 10.5724  -2
   0   0   7 -1.2524 10.5724   1
   5   0   3 1188.91 25.2039  -2
   1   0   7 1188.91 25.2039   1
   5   0   4 3.92803 5.33919  -2
   2   0   7 3.92803 5.33919   1
   5   0   5 1315.35 28.6612  -2
   3   0   7 1315.35 28.6612   1
   4   0   7 -13.258 21.5072  -2
   4   0   7 -13.258 21.5072   1
   4   0   8 147.528 20.2456  -2
   5   0   7 147.528 20.2456   1
   4   0   9 2.88235 14.5660  -2
   6   0   7 2.88235 14.5660   1
   4   0  10 412.449 35.2962  -2
   7   0   7 412.449 35.2962   1
   3   0  13 390.797 36.5018  -2
   9   0   7 390.797 36.5018   1
  -8   1  14 293.038 26.8781  -2
 -13   1   7 293.038 26.8781   1
  -8   1  13 36.5610 15.7056  -2
 -12   1   7 36.5610 15.7056   1
  -8   1  12 87.6025 10.2096  -2
 -11   1   7 87.6025 10.2096   1
  -8   1  11 264.201 27.9049  -2
 -10   1   7 264.201 27.9049   1
  -7   1   9 227.197 32.0626  -2
  -9   1   7 227.197 32.0626   1
  -7   1   8 68.4079 8.94438  -2
  -8   1   7 68.4079 8.94438   1
  -7   1   7 721.122 12.2765  -2
  -7   1   7 721.122 12.2765   1
  -7   1   6 -1.6535 5.86204  -2
  -6   1   7 -1.6535 5.86204   1
  -6   1   4 1827.21 83.4504  -2
  -5   1   7 1827.21 83.4504   1
  -7   1   5 1792.60 58.3473  -2
  -5   1   7 1792.60 58.3473   1
  -6   1   3 -0.0091 4.59597  -2
  -4   1   7 -0.0091 4.59597   1
  -6   1   2 1812.25 23.1887  -2
  -3   1   7 1812.25 23.1887   1
  -6   1   1 314.732 7.20847  -2
  -2   1   7 314.732 7.20847   1
   6   1   0 1437.32 28.9093  -2
  -1   1   7 1437.32 28.9093   1
   5   1   2 340.442 11.6040  -2
   0   1   7 340.442 11.6040   1
   5   1   3 749.388 11.9077  -2
   1   1   7 749.388 11.9077   1
   5   1   4 240.184 6.35745  -2
   2   1   7 240.184 6.35745   1
   5   1   5 420.498 13.2289  -2
   3   1   7 420.498 13.2289   1
   4   1   7 324.435 17.6838  -2
   4   1   7 324.435 17.6838   1
   4   1   8 763.747 22.9426  -2
   5   1   7 763.747 22.9426   1
   4   1   9 159.508 9.99322  -2
   6   1   7 159.508 9.99322   1
   4   1  10 481.881 18.1686  -2
   7   1   7 481.881 18.1686   1
  -8   2  13 90.8038 17.9468  -2
 -12   2   7 90.8038 17.9468   1
  -8   2  12 21.7940 12.6808  -2
 -11   2   7 21.7940 12.6808   1
  -8   2  11 -4.3866 29.5392  -2
 -10   2   7 -4.3866 29.5392   1
  -9   2   7 179.372 23.5368   1
  -7   2   8 193.640 15.8822  -2
  -8   2   7 193.640 15.8822   1
  -7   2   7 292.780 9.57183  -2
  -7   2   7 292.780 9.57183   1
  -7   2   6 5.62725 9.88983  -2
  -6   2   7 5.62725 9.88983   1
  -7   2   5 234.651 14.5638  -2
  -5   2   7 234.651 14.5638   1
  -6   2   3 96.1071 6.16707  -2
  -4   2   7 96.1071 6.16707   1
  -6   2   2 163.332 6.19086  -2
  -3   2   7 163.332 6.19086   1
  -6   2   1 333.127 11.1069  -2
  -2   2   7 333.127 11.1069   1
   6   2   0 609.512 18.8005  -2
  -1   2   7 609.512 18.8005   1
   5   2   2 117.332 11.7979  -2
   0   2   7 117.332 11.7979   1
   5   2   3 169.898 10.0121  -2
   1   2   7 169.898 10.0121   1
   5   2   4 107.586 7.41649  -2
   2   2   7 107.586 7.41649   1
   5   2   5 608.957 29.2671  -2
   3   2   7 608.957 29.2671   1
   4   2   7 20.2242 8.15518   1
   4   2   8 305.528 15.9051  -2
   5   2   7 305.528 15.9051   1
   4   2   9 60.4595 9.76188  -2
   6   2   7 60.4595 9.76188   1
   4   2  10 790.610 27.1085  -2
   7   2   7 790.610 27.1085   1
  -8   3  11 191.853 35.5838  -2
 -10   3   7 191.853 35.5838   1
  -7   3   8 152.652 30.3705  -2
  -8   3   7 152.652 30.3705   1
  -7   3   7 564.807 17.4719  -2
  -7   3   7 564.807 17.4719   1
  -7   3   6 130.444 12.4627  -2
  -6   3   7 130.444 12.4627   1
  -6   3   3 200.051 13.6209  -2
  -4   3   7 200.051 13.6209   1
  -6   3   2 189.785 11.9136  -2
  -3   3   7 189.785 11.9136   1
  -6   3   1 293.624 11.8959  -2
  -2   3   7 293.624 11.8959   1
   6   3   0 465.458 21.3251  -2
  -1   3   7 465.458 21.3251   1
   5   3   2 716.556 26.1304  -2
   0   3   7 716.556 26.1304   1
   5   3   3 89.4439 12.0682  -2
   1   3   7 89.4439 12.0682   1
   5   3   4 201.569 13.4836  -2
   2   3   7 201.569 13.4836   1
   5   3   5 138.872 21.1510  -2
   3   3   7 138.872 21.1510   1
   4   3   7 242.918 23.8611  -2
   4   3   7 242.918 23.8611   1
   4   3   8 105.395 17.4824  -2
   5   3   7 105.395 17.4824   1
  -5   4   7 57.0766 24.4408   1
  -6   4   2 127.246 10.6856  -2
  -3   4   7 127.246 10.6856   1
  -6   4   1 316.704 16.4543  -2
  -2   4   7 316.704 16.4543   1
   6   4   0 370.682 37.2342  -2
  -1   4   7 370.682 37.2342   1
   5   4   2 59.6850 19.2883  -2
   0   4   7 59.6850 19.2883   1
  -9   0  14 30.5748 15.0541  -2
 -13   0   8 30.5748 15.0541   1
  -9   0  13 1061.67 43.3042  -2
 -12   0   8 1061.67 43.3042   1
 -10   0   8 35.7767 12.7670   1
  -8   0   9 2.43730 8.79392  -2
  -9   0   8 2.43730 8.79392   1
  -8   0   8 243.848 8.50185  -2
  -8   0   8 243.848 8.50185   1
  -8   0   7 -7.2078 6.96111  -2
  -7   0   8 -7.2078 6.96111   1
  -6   0   8 828.918 19.8173   1
  -7   0   4 -7.9099 10.7783  -2
  -5   0   8 -7.9099 10.7783   1
  -7   0   3 1567.28 34.9242  -2
  -4   0   8 1567.28 34.9242   1
  -7   0   2 -8.8409 6.72583  -2
  -3   0   8 -8.8409 6.72583   1
  -7   0   1 1723.63 38.7498  -2
  -2   0   8 1723.63 38.7498   1
   6   0   1 -9.4637 16.7348  -2
  -1   0   8 -9.4637 16.7348   1
   6   0   2 1178.85 25.2818  -2
   0   0   8 1178.85 25.2818   1
   6   0   3 2.63161 5.61468  -2
   1   0   8 2.63161 5.61468   1
   6   0   4 1638.66 33.1923  -2
   2   0   8 1638.66 33.1923   1
   5   0   6 8.58659 14.5496  -2
   3   0   8 8.58659 14.5496   1
   5   0   7 123.193 19.8420  -2
   4   0   8 123.193 19.8420   1
   5   0   8 5.57666 10.7597  -2
   5   0   8 5.57666 10.7597   1
   5   0   9 292.437 23.6401  -2
   6   0   8 292.437 23.6401   1
   4   0  12 360.423 35.2322  -2
   8   0   8 360.423 35.2322   1
  -9   1  14 84.2135 16.8242  -2
 -13   1   8 84.2135 16.8242   1
  -9   1  13 105.673 14.8951  -2
 -12   1   8 105.673 14.8951   1
  -9   1  12 124.526 33.1203  -2
 -11   1   8 124.526 33.1203   1
 -10   1   8 91.6738 17.7702   1
  -8   1   9 40.5297 12.2758  -2
  -9   1   8 40.5297 12.2758   1
  -8   1   8 190.640 8.50669  -2
  -8   1   8 190.640 8.50669   1
  -8   1   7 29.2386 7.94039  -2
  -7   1   8 29.2386 7.94039   1
  -8   1   6 570.274 18.5635  -2
  -6   1   8 570.274 18.5635   1
  -7   1   4 40.5764 5.56227  -2
  -5   1   8 40.5764 5.56227   1
  -7   1   3 578.651 10.1645  -2
  -4   1   8 578.651 10.1645   1
  -7   1   2  99.999 5.86744  -2
  -3   1   8  99.999 5.86744   1
  -7   1   1 499.605 11.2074  -2
  -2   1   8 499.605 11.2074   1
   6   1   1 273.883 9.78117  -2
  -1   1   8 273.883 9.78117   1
   6   1   2 395.871 8.93717  -2
   0   1   8 395.871 8.93717   1
   6   1   3 825.400 12.4333  -2
   1   1   8 825.400 12.4333   1
   6   1   4 668.367 18.3412  -2
   2   1   8 668.367 18.3412   1
   5   1   6 87.1988 17.5262  -2
   3   1   8 87.1988 17.5262   1
   5   1   7 615.426 34.7723  -2
   4   1   8 615.426 34.7723   1
   5   1   8 14.0647 8.39491  -2
   5   1   8 14.0647 8.39491   1
   5   1   9 63.2136 9.39155  -2
   6   1   8 63.2136 9.39155   1
  -9   2  13 295.776 21.9184  -2
 -12   2   8 295.776 21.9184   1
  -9   2  12 129.130 36.1457  -2
 -11   2   8 129.130 36.1457   1
 -10   2   8 104.290 24.5409   1
  -8   2   9 76.5487 21.1882  -2
  -9   2   8 76.5487 21.1882   1
  -8   2   8 453.503 15.1213  -2
  -8   2   8 453.503 15.1213   1
  -8   2   7 218.473 11.0283  -2
  -7   2   8 218.473 11.0283   1
  -8   2   6 584.842 36.7391  -2
  -6   2   8 584.842 36.7391   1
  -7   2   4 186.833 8.42281  -2
  -5   2   8 186.833 8.42281   1
  -7   2   3 1377.36 21.8550  -2
  -4   2   8 1377.36 21.8550   1
  -7   2   2 23.1608 6.26441  -2
  -3   2   8 23.1608 6.26441   1
  -7   2   1 425.522 16.6340  -2
  -2   2   8 425.522 16.6340   1
   6   2   1 111.102 10.8678  -2
  -1   2   8 111.102 10.8678   1
   6   2   2 2466.44 41.2400  -2
   0   2   8 2466.44 41.2400   1
   6   2   3 437.317 13.5780  -2
   1   2   8 437.317 13.5780   1
   6   2   4 30.0621 14.5165  -2
   2   2   8 30.0621 14.5165   1
   3   2   8 44.5893 17.8478   1
   5   2   7 247.266 14.2923  -2
   4   2   8 247.266 14.2923   1
   5   2   8 526.956 17.5463  -2
   5   2   8 526.956 17.5463   1
   5   2   9 640.408 32.2009  -2
   6   2   8 640.408 32.2009   1
  -8   3   9 83.3721 29.7451  -2
  -9   3   8 83.3721 29.7451   1
  -8   3   8 89.1007 11.1620  -2
  -8   3   8 89.1007 11.1620   1
  -8   3   7 120.843 24.0287  -2
  -7   3   8 120.843 24.0287   1
  -6   3   8 14.7004 8.49787   1
  -7   3   4 462.636 18.1046  -2
  -5   3   8 462.636 18.1046   1
  -7   3   3 115.194 8.40542  -2
  -4   3   8 115.194 8.40542   1
  -7   3   2 37.7219 9.63962  -2
  -3   3   8 37.7219 9.63962   1
  -7   3   1 81.7873 14.8113  -2
  -2   3   8 81.7873 14.8113   1
   6   3   1 282.898 22.4748  -2
  -1   3   8 282.898 22.4748   1
   6   3   2 114.030 12.7147  -2
   0   3   8 114.030 12.7147   1
   6   3   3 82.7160 15.0822  -2
   1   3   8 82.7160 15.0822   1
   6   3   4 101.956 20.5093  -2
   2   3   8 101.956 20.5093   1
   5   3   6 155.901 22.3538  -2
   3   3   8 155.901 22.3538   1
   5   3   7 81.2447 16.7247  -2
   4   3   8 81.2447 16.7247   1
 -11   0   9 405.357 25.1031   1
  -9   0  10 37.8956 27.5693  -2
 -10   0   9 37.8956 27.5693   1
  -9   0   9 480.836 12.8014  -2
  -9   0   9 480.836 12.8014   1
  -9   0   8 -16.996 14.0857  -2
  -8   0   9 -16.996 14.0857   1
  -9   0   7 270.531 22.7578  -2
  -7   0   9 270.531 22.7578   1
  -8   0   5 -0.8779 8.72425  -2
  -6   0   9 -0.8779 8.72425   1
  -8   0   4 420.848 12.5161  -2
  -5   0   9 420.848 12.5161   1
  -8   0   3 2.56371 7.41575  -2
  -4   0   9 2.56371 7.41575   1
  -8   0   2 152.653 10.8098  -2
  -3   0   9 152.653 10.8098   1
   7   0   0 7.88649 13.7003  -2
  -2   0   9 7.88649 13.7003   1
   7   0   1 348.104 12.0207  -2
  -1   0   9 348.104 12.0207   1
   7   0   2 -0.7769 5.72469  -2
   0   0   9 -0.7769 5.72469   1
   7   0   3 565.775 21.7436  -2
   1   0   9 565.775 21.7436   1
   6   0   5 -1.3745 21.0844  -2
   2   0   9 -1.3745 21.0844   1
   6   0   6 2532.66 75.2814  -2
   3   0   9 2532.66 75.2814   1
   6   0   7 -10.254 10.4340  -2
   4   0   9 -10.254 10.4340   1
   6   0   8 275.396 17.0413  -2
   5   0   9 275.396 17.0413   1
   5   0  11 106.731 22.5913  -2
   7   0   9 106.731 22.5913   1
 -10   1  14 417.815 16.1749  -2
 -13   1   9 417.815 16.1749   1
 -10   1  13 60.6523 24.6004  -2
 -12   1   9 60.6523 24.6004   1
  -9   1  11 706.913 50.3421  -2
 -11   1   9 706.913 50.3421   1
  -9   1  10 307.756 28.2378  -2
 -10   1   9 307.756 28.2378   1
  -9   1   9 317.921 11.7493  -2
  -9   1   9 317.921 11.7493   1
  -9   1   8 39.2793 12.1725  -2
  -8   1   9 39.2793 12.1725   1
  -9   1   7 250.018 17.6766  -2
  -7   1   9 250.018 17.6766   1
  -8   1   5 337.722 13.6468  -2
  -6   1   9 337.722 13.6468   1
  -8   1   4 714.227 12.1087  -2
  -5   1   9 714.227 12.1087   1
  -8   1   3 258.265 8.25308  -2
  -4   1   9 258.265 8.25308   1
  -8   1   2 1269.17 25.7532  -2
  -3   1   9 1269.17 25.7532   1
   7   1   0 6.66868 7.48706  -2
  -2   1   9 6.66868 7.48706   1
   7   1   1 971.141 17.8693  -2
  -1   1   9 971.141 17.8693   1
   7   1   2 63.3946 6.83558  -2
   0   1   9 63.3946 6.83558   1
   7   1   3 1683.76 32.0625  -2
   1   1   9 1683.76 32.0625   1
   6   1   5 657.610 24.7148  -2
   2   1   9 657.610 24.7148   1
   6   1   6 781.722 39.7549  -2
   3   1   9 781.722 39.7549   1
   6   1   7 196.198 10.8829  -2
   4   1   9 196.198 10.8829   1
   6   1   8 85.8213 9.60728  -2
   5   1   9 85.8213 9.60728   1
   6   1   9 262.707 34.0928  -2
   6   1   9 262.707 34.0928   1
   5   1  11 496.055 37.2516  -2
   7   1   9 496.055 37.2516   1
 -12   2   9 26.0212 11.7877   1
  -9   2  11 161.010 38.1492  -2
 -11   2   9 161.010 38.1492   1
  -9   2  10 119.953 23.2613  -2
 -10   2   9 119.953 23.2613   1
  -9   2   9 896.828 25.8500  -2
  -9   2   9 896.828 25.8500   1
  -9   2   8 63.9479 10.7140  -2
  -8   2   9 63.9479 10.7140   1
  -9   2   7 115.582 28.9589  -2
  -7   2   9 115.582 28.9589   1
  -8   2   5 78.0693 6.97330  -2
  -6   2   9 78.0693 6.97330   1
  -8   2   4 71.5707 6.39063  -2
  -5   2   9 71.5707 6.39063   1
  -8   2   3 476.998 12.8874  -2
  -4   2   9 476.998 12.8874   1
  -8   2   2 644.705 15.1723  -2
  -3   2   9 644.705 15.1723   1
   7   2   0 479.313 18.5242  -2
  -2   2   9 479.313 18.5242   1
   7   2   1 1.91326 7.51368  -2
  -1   2   9 1.91326 7.51368   1
   7   2   2 101.644 12.9111  -2
   0   2   9 101.644 12.9111   1
   7   2   3 257.687 18.9649  -2
   1   2   9 257.687 18.9649   1
   2   2   9 9.88815 10.6278   1
   6   2   6 48.3594 15.1163  -2
   3   2   9 48.3594 15.1163   1
   6   2   7 35.5845 9.17082  -2
   4   2   9 35.5845 9.17082   1
   6   2   8 511.496 27.2667  -2
   5   2   9 511.496 27.2667   1
  -9   3   9 92.0610 13.0192  -2
  -9   3   9 92.0610 13.0192   1
  -9   3   8 35.0850 20.5450  -2
  -8   3   9 35.0850 20.5450   1
  -8   3   5 163.095 26.7481  -2
  -6   3   9 163.095 26.7481   1
  -8   3   4 167.548 12.9344  -2
  -5   3   9 167.548 12.9344   1
  -8   3   3 300.633 14.0366  -2
  -4   3   9 300.633 14.0366   1
  -8   3   2 557.742 28.3782  -2
  -3   3   9 557.742 28.3782   1
   7   3   0 148.684 19.9774  -2
  -2   3   9 148.684 19.9774   1
   7   3   1 124.901 10.5505  -2
  -1   3   9 124.901 10.5505   1
   7   3   2 28.0281 9.79831  -2
   0   3   9 28.0281 9.79831   1
   7   3   3 358.307 21.0330  -2
   1   3   9 358.307 21.0330   1
   6   3   5 79.0925 20.6903  -2
   2   3   9 79.0925 20.6903   1
   6   3   6 335.022 23.3829  -2
   3   3   9 335.022 23.3829   1
 -12   0  10 144.913 18.0107   1
 -10   0  11 38.8330 28.9202  -2
 -11   0  10 38.8330 28.9202   1
 -10   0  10 330.627 14.1356  -2
 -10   0  10 330.627 14.1356   1
 -10   0   9 -15.351 14.3779  -2
  -9   0  10 -15.351 14.3779   1
 -10   0   8 1593.05 75.8770  -2
  -8   0  10 1593.05 75.8770   1
  -9   0   6 -14.300 14.6440  -2
  -7   0  10 -14.300 14.6440   1
  -9   0   5 855.372 20.3239  -2
  -6   0  10 855.372 20.3239   1
  -9   0   4 8.72044 8.68776  -2
  -5   0  10 8.72044 8.68776   1
  -9   0   3 288.226 14.6246  -2
  -4   0  10 288.226 14.6246   1
  -8   0   1 4.32993 17.7027  -2
  -3   0  10 4.32993 17.7027   1
   8   0   0 999.050 25.0653  -2
  -2   0  10 999.050 25.0653   1
   8   0   1 3.54003 6.53301  -2
  -1   0  10 3.54003 6.53301   1
   8   0   2 413.943 19.3921  -2
   0   0  10 413.943 19.3921   1
   1   0  10 -2.6365 8.65847   1
   7   0   5 1412.74 65.4675  -2
   2   0  10 1412.74 65.4675   1
   7   0   6 15.4496 10.1026  -2
   3   0  10 15.4496 10.1026   1
   7   0   7 381.025 18.8536  -2
   4   0  10 381.025 18.8536   1
   6   0  10 300.009 28.9702  -2
   6   0  10 300.009 28.9702   1
 -13   1  10 59.0555 17.2034   1
 -10   1  12 306.911 37.5434  -2
 -12   1  10 306.911 37.5434   1
 -10   1  11 123.059 16.0907  -2
 -11   1  10 123.059 16.0907   1
 -10   1  10 35.0459 8.15234  -2
 -10   1  10 35.0459 8.15234   1
 -10   1   9 334.448 14.0988  -2
  -9   1  10 334.448 14.0988   1
  -8   1  10 1086.67 31.2337   1
  -9   1   6 193.963 11.1025  -2
  -7   1  10 193.963 11.1025   1
  -9   1   5 337.354 8.94768  -2
  -6   1  10 337.354 8.94768   1
  -9   1   4 155.951 8.00610  -2
  -5   1  10 155.951 8.00610   1
  -9   1   3 355.524 13.2108  -2
  -4   1  10 355.524 13.2108   1
  -8   1   1 -1.7123 8.85228  -2
  -3   1  10 -1.7123 8.85228   1
   8   1   0 41.8520 8.05247  -2
  -2   1  10 41.8520 8.05247   1
   8   1   1 81.1290 6.85003  -2
  -1   1  10 81.1290 6.85003   1
   8   1   2 494.288 17.6547  -2
   0   1  10 494.288 17.6547   1
   7   1   4 169.296 26.4385  -2
   1   1  10 169.296 26.4385   1
   7   1   5 39.6280 13.4759  -2
   2   1  10 39.6280 13.4759   1
   7   1   6 66.6575 8.75836  -2
   3   1  10 66.6575 8.75836   1
   7   1   7 560.396 14.8070  -2
   4   1  10 560.396 14.8070   1
   7   1   8 189.041 32.2071  -2
   5   1  10 189.041 32.2071   1
   6   1  10 256.607 27.4303  -2
   6   1  10 256.607 27.4303   1
 -10   2  11 194.272 24.1454  -2
 -11   2  10 194.272 24.1454   1
 -10   2  10 1491.91 38.8382  -2
 -10   2  10 1491.91 38.8382   1
 -10   2   9 130.122 13.4728  -2
  -9   2  10 130.122 13.4728   1
 -10   2   8 105.611 35.5889  -2
  -8   2  10 105.611 35.5889   1
  -9   2   6 32.2264 12.8512  -2
  -7   2  10 32.2264 12.8512   1
  -9   2   5 322.859 9.51440  -2
  -6   2  10 322.859 9.51440   1
  -9   2   4 341.889 18.6702  -2
  -5   2  10 341.889 18.6702   1
  -9   2   3 596.863 21.0614  -2
  -4   2  10 596.863 21.0614   1
  -8   2   1 62.6676 10.0253  -2
  -3   2  10 62.6676 10.0253   1
   8   2   0 239.237 12.6782  -2
  -2   2  10 239.237 12.6782   1
   8   2   1 250.724 15.0968  -2
  -1   2  10 250.724 15.0968   1
   8   2   2 288.118 15.1644  -2
   0   2  10 288.118 15.1644   1
   7   2   4 128.173 30.1102  -2
   1   2  10 128.173 30.1102   1
   7   2   5 396.794 17.9417  -2
   2   2  10 396.794 17.9417   1
   7   2   6 71.6637 10.1336  -2
   3   2  10 71.6637 10.1336   1
   7   2   7 858.930 36.5354  -2
   4   2  10 858.930 36.5354   1
  -9   3  10 251.944 14.9119   1
  -9   3   6 39.2957 25.2904  -2
  -7   3  10 39.2957 25.2904   1
  -9   3   5 98.8478 12.0448  -2
  -6   3  10 98.8478 12.0448   1
  -9   3   4 46.5666 12.3993  -2
  -5   3  10 46.5666 12.3993   1
  -9   3   3 88.0426 16.5710  -2
  -4   3  10 88.0426 16.5710   1
  -8   3   1 278.782 17.7771  -2
  -3   3  10 278.782 17.7771   1
   8   3   0 447.305 17.4736  -2
  -2   3  10 447.305 17.4736   1
   8   3   1 356.862 17.1920  -2
  -1   3  10 356.862 17.1920   1
   8   3   2 27.4952 17.6122  -2
   0   3  10 27.4952 17.6122   1
   7   3   4 100.542 23.5400  -2
   1   3  10 100.542 23.5400   1
   7   3   5 78.7193 23.2996  -2
   2   3  10 78.7193 23.2996   1
 -13   0  11 89.1750 18.4617   1
 -11   0  12 10.5294 28.6303  -2
 -12   0  11 10.5294 28.6303   1
 -11   0  11 197.627 14.3546  -2
 -11   0  11 197.627 14.3546   1
 -11   0  10 -20.969 20.2540  -2
 -10   0  11 -20.969 20.2540   1
  -9   0  11 71.5892 12.0153   1
 -10   0   7 29.6306 20.5381  -2
  -8   0  11 29.6306 20.5381   1
 -10   0   6 2968.24 61.9895  -2
  -7   0  11 2968.24 61.9895   1
 -10   0   5 20.4389 12.0971  -2
  -6   0  11 20.4389 12.0971   1
 -10   0   4 374.873 25.9873  -2
  -5   0  11 374.873 25.9873   1
  -9   0   2 40.8807 16.0450  -2
  -4   0  11 40.8807 16.0450   1
  -9   0   1 1134.55 28.3784  -2
  -3   0  11 1134.55 28.3784   1
   9   0   0 -3.9763 9.19725  -2
  -2   0  11 -3.9763 9.19725   1
   9   0   1 567.829 19.5636  -2
  -1   0  11 567.829 19.5636   1
   0   0  11 11.7863 13.7879   1
   8   0   5 10.6491 10.5961  -2
   2   0  11 10.6491 10.5961   1
   8   0   6 161.807 13.5153  -2
   3   0  11 161.807 13.5153   1
   7   0   9 114.605 21.6744  -2
   5   0  11 114.605 21.6744   1
 -11   1  12 42.5806 20.8473  -2
 -12   1  11 42.5806 20.8473   1
 -11   1  11 29.5874 7.98880  -2
 -11   1  11 29.5874 7.98880   1
 -11   1  10 76.8642 14.7202  -2
 -10   1  11 76.8642 14.7202   1
 -11   1   9 658.245 49.3549  -2
  -9   1  11 658.245 49.3549   1
 -10   1   7 274.822 12.0149  -2
  -8   1  11 274.822 12.0149   1
 -10   1   6 787.410 15.0261  -2
  -7   1  11 787.410 15.0261   1
 -10   1   5 386.202 11.7641  -2
  -6   1  11 386.202 11.7641   1
 -10   1   4 417.796 15.7413  -2
  -5   1  11 417.796 15.7413   1
  -9   1   2 628.092 16.5102  -2
  -4   1  11 628.092 16.5102   1
  -9   1   1 212.111 9.27129  -2
  -3   1  11 212.111 9.27129   1
   9   1   0 257.125 8.46280  -2
  -2   1  11 257.125 8.46280   1
   9   1   1 315.552 15.9062  -2
  -1   1  11 315.552 15.9062   1
   8   1   3 28.0623 23.6511  -2
   0   1  11 28.0623 23.6511   1
   8   1   4 132.955 14.1977  -2
   1   1  11 132.955 14.1977   1
   8   1   5 72.8811 8.43328  -2
   2   1  11 72.8811 8.43328   1
   8   1   6 306.970 13.0995  -2
   3   1  11 306.970 13.0995   1
   8   1   7 31.2311 28.5578  -2
   4   1  11 31.2311 28.5578   1
 -11   2  11 208.557 18.0806  -2
 -11   2  11 208.557 18.0806   1
 -11   2  10 223.599 17.6689  -2
 -10   2  11 223.599 17.6689   1
 -11   2   9 153.073 36.6474  -2
  -9   2  11 153.073 36.6474   1
 -10   2   7 37.2150 18.1656  -2
  -8   2  11 37.2150 18.1656   1
 -10   2   6 195.624 12.5670  -2
  -7   2  11 195.624 12.5670   1
 -10   2   5 36.6335 7.51617  -2
  -6   2  11 36.6335 7.51617   1
 -10   2   4 867.780 32.8273  -2
  -5   2  11 867.780 32.8273   1
  -9   2   2 11.1159 13.4300  -2
  -4   2  11 11.1159 13.4300   1
  -9   2   1 360.562 11.8877  -2
  -3   2  11 360.562 11.8877   1
   9   2   0 37.0410 6.89107  -2
  -2   2  11 37.0410 6.89107   1
   9   2   1 130.428 13.1412  -2
  -1   2  11 130.428 13.1412   1
   8   2   3 221.853 32.2786  -2
   0   2  11 221.853 32.2786   1
   8   2   4 224.600 19.2355  -2
   1   2  11 224.600 19.2355   1
   8   2   5 257.329 13.4116  -2
   2   2  11 257.329 13.4116   1
   8   2   6 112.236 14.3302  -2
   3   2  11 112.236 14.3302   1
 -10   3   6 215.204 15.2827  -2
  -7   3  11 215.204 15.2827   1
 -10   3   5 18.6276 19.0164  -2
  -6   3  11 18.6276 19.0164   1
 -10   3   4 119.105 16.9875  -2
  -5   3  11 119.105 16.9875   1
  -9   3   2 89.7399 14.7754  -2
  -4   3  11 89.7399 14.7754   1
  -9   3   1 190.640 11.7870  -2
  -3   3  11 190.640 11.7870   1
   9   3   0 46.6812 11.4960  -2
  -2   3  11 46.6812 11.4960   1
   9   3   1 198.008 18.5332  -2
  -1   3  11 198.008 18.5332   1
   8   3   3 82.5432 23.0162  -2
   0   3  11 82.5432 23.0162   1
 -12   0  12 40.9843 11.2272  -2
 -12   0  12 40.9843 11.2272   1
 -12   0  11 33.7788 30.6093  -2
 -11   0  12 33.7788 30.6093   1
 -12   0  10 127.858 37.3813  -2
 -10   0  12 127.858 37.3813   1
 -11   0   8 19.4710 32.1306  -2
  -9   0  12 19.4710 32.1306   1
 -11   0   7 51.0164 9.10187  -2
  -8   0  12 51.0164 9.10187   1
 -11   0   6 5.99782 11.5235  -2
  -7   0  12 5.99782 11.5235   1
 -11   0   5 399.635 27.5837  -2
  -6   0  12 399.635 27.5837   1
 -10   0   3 10.3584 13.9642  -2
  -5   0  12 10.3584 13.9642   1
 -10   0   2 2290.70 45.9786  -2
  -4   0  12 2290.70 45.9786   1
 -10   0   1 18.2607 11.0611  -2
  -3   0  12 18.2607 11.0611   1
  10   0   0 69.7283 17.1058  -2
  -2   0  12 69.7283 17.1058   1
  -1   0  12 -12.307 13.1020   1
   9   0   3 498.762 48.4376  -2
   0   0  12 498.762 48.4376   1
   9   0   4 8.14385 10.1986  -2
   1   0  12 8.14385 10.1986   1
   9   0   5 39.0241 18.6559  -2
   2   0  12 39.0241 18.6559   1
   3   0  12 -9.8481 14.3443   1
   8   0   8 277.020 20.7972  -2
   4   0  12 277.020 20.7972   1
 -12   1  12 213.041 11.7231  -2
 -12   1  12 213.041 11.7231   1
 -12   1  11 37.3114 14.4732  -2
 -11   1  12 37.3114 14.4732   1
 -12   1  10 341.925 24.0506  -2
 -10   1  12 341.925 24.0506   1
 -11   1   8 136.012 15.2472  -2
  -9   1  12 136.012 15.2472   1
 -11   1   7 52.0496 6.16837  -2
  -8   1  12 52.0496 6.16837   1
 -11   1   6 136.752 9.70138  -2
  -7   1  12 136.752 9.70138   1
 -11   1   5 566.366 30.4401  -2
  -6   1  12 566.366 30.4401   1
 -10   1   3 161.289 13.7480  -2
  -5   1  12 161.289 13.7480   1
 -10   1   2 843.217 18.9142  -2
  -4   1  12 843.217 18.9142   1
 -10   1   1 118.745 9.07934  -2
  -3   1  12 118.745 9.07934   1
  10   1   0 477.972 18.6465  -2
  -2   1  12 477.972 18.6465   1
  -1   1  12 81.2990 13.5841   1
   9   1   3 588.494 21.2426  -2
   0   1  12 588.494 21.2426   1
   9   1   4 26.9017 7.75017  -2
   1   1  12 26.9017 7.75017   1
   9   1   5 209.591 11.1864  -2
   2   1  12 209.591 11.1864   1
   3   1  12 53.9369 14.1058   1
 -10   2  12 48.5654 21.8727   1
 -11   2   8 49.8072 39.7154  -2
  -9   2  12 49.8072 39.7154   1
 -11   2   7 30.9253 9.10373  -2
  -8   2  12 30.9253 9.10373   1
 -11   2   6 97.9199 8.01133  -2
  -7   2  12 97.9199 8.01133   1
 -11   2   5 772.296 26.0203  -2
  -6   2  12 772.296 26.0203   1
 -10   2   3 108.625 15.0109  -2
  -5   2  12 108.625 15.0109   1
 -10   2   2 116.664 10.8148  -2
  -4   2  12 116.664 10.8148   1
 -10   2   1 66.8400 7.82496  -2
  -3   2  12 66.8400 7.82496   1
  10   2   0 97.5331 12.8044  -2
  -2   2  12 97.5331 12.8044   1
   9   2   2 112.039 29.9766  -2
  -1   2  12 112.039 29.9766   1
   9   2   3 336.276 19.2560  -2
   0   2  12 336.276 19.2560   1
   9   2   4 16.6240 9.08982  -2
   1   2  12 16.6240 9.08982   1
   9   2   5 190.011 20.8015  -2
   2   2  12 190.011 20.8015   1
  -6   3  12 115.554 37.1262   1
 -10   3   3 388.784 23.1467  -2
  -5   3  12 388.784 23.1467   1
 -10   3   2 293.568 19.6239  -2
  -4   3  12 293.568 19.6239   1
 -10   3   1 75.6981 17.3770  -2
  -3   3  12 75.6981 17.3770   1
 -12   0  13 10.5651 13.3604   1
 -13   0  11 570.129 48.4173  -2
 -11   0  13 570.129 48.4173   1
 -12   0   9 45.8694 16.5466  -2
 -10   0  13 45.8694 16.5466   1
 -12   0   8 910.860 27.3080  -2
  -9   0  13 910.860 27.3080   1
  -7   0  13 62.4625 17.6069   1
  -6   0  13 8.23737 12.7187   1
 -11   0   3 130.796 18.0459  -2
  -5   0  13 130.796 18.0459   1
 -11   0   2 6.23169 11.4890  -2
  -4   0  13 6.23169 11.4890   1
 -11   0   1 1189.50 42.6306  -2
  -3   0  13 1189.50 42.6306   1
  10   0   2 552.003 31.0137  -2
  -1   0  13 552.003 31.0137   1
  10   0   3 7.36859 14.0078  -2
   0   0  13 7.36859 14.0078   1
  10   0   4 618.918 33.3476  -2
   1   0  13 618.918 33.3476   1
   2   0  13 9.31419 16.1587   1
 -11   1  13 14.3612 8.21852   1
 -12   1   9 67.3475 14.6447  -2
 -10   1  13 67.3475 14.6447   1
 -12   1   8 125.524 8.67312  -2
  -9   1  13 125.524 8.67312   1
 -12   1   7 54.0141 13.5753  -2
  -8   1  13 54.0141 13.5753   1
 -12   1   6 277.321 22.5196  -2
  -7   1  13 277.321 22.5196   1
 -11   1   4 46.7403 10.9458  -2
  -6   1  13 46.7403 10.9458   1
 -11   1   3 121.035 9.61639  -2
  -5   1  13 121.035 9.61639   1
 -11   1   2 124.450 11.2126  -2
  -4   1  13 124.450 11.2126   1
 -11   1   1 886.077 23.4374  -2
  -3   1  13 886.077 23.4374   1
  -2   1  13 100.181 14.4992   1
  10   1   2 108.871 13.3618  -2
  -1   1  13 108.871 13.3618   1
  10   1   3 39.7891 10.3384  -2
   0   1  13 39.7891 10.3384   1
  10   1   4 335.992 16.4428  -2
   1   1  13 335.992 16.4428   1
   2   1  13 23.1646 12.9217   1
 -12   2   8 392.730 18.8904  -2
  -9   2  13 392.730 18.8904   1
 -12   2   7 105.539 11.3680  -2
  -8   2  13 105.539 11.3680   1
 -12   2   6 140.306 21.3652  -2
  -7   2  13 140.306 21.3652   1
 -11   2   4 61.1977 16.0413  -2
  -6   2  13 61.1977 16.0413   1
 -11   2   3 377.795 13.1055  -2
  -5   2  13 377.795 13.1055   1
 -11   2   2 115.270 9.86905  -2
  -4   2  13 115.270 9.86905   1
 -11   2   1 405.925 17.9599  -2
  -3   2  13 405.925 17.9599   1
  10   2   1 25.1244 27.4980  -2
  -2   2  13 25.1244 27.4980   1
  10   2   2 361.334 15.4373  -2
  -1   2  13 361.334 15.4373   1
  10   2   3 61.8572 11.5446  -2
   0   2  13 61.8572 11.5446   1
 -13   0  10 39.9872 16.3584  -2
 -11   0  14 39.9872 16.3584   1
 -13   0   9 267.740 16.7385  -2
 -10   0  14 267.740 16.7385   1
 -13   0   8 34.1843 12.9199  -2
  -9   0  14 34.1843 12.9199   1
 -13   0   7 99.5546 36.1288  -2
  -8   0  14 99.5546 36.1288   1
 -12   0   5 -1.9574 24.1814  -2
  -7   0  14 -1.9574 24.1814   1
 -12   0   4 322.175 23.2411  -2
  -6   0  14 322.175 23.2411   1
 -12   0   3 55.2954 15.8175  -2
  -5   0  14 55.2954 15.8175   1
 -12   0   2 60.8850 36.4368  -2
  -4   0  14 60.8850 36.4368   1
  -3   0  14 5.28688 15.4635   1
  11   0   1 18.7715 19.1708  -2
  -2   0  14 18.7715 19.1708   1
  11   0   2 4.78274 12.9674  -2
  -1   0  14 4.78274 12.9674   1
  11   0   3 263.379 25.2936  -2
   0   0  14 263.379 25.2936   1
   1   0  14 18.9398 17.8782   1
 -13   1   9 448.125 20.3383  -2
 -10   1  14 448.125 20.3383   1
 -13   1   8 99.3164 17.9317  -2
  -9   1  14 99.3164 17.9317   1
 -13   1   7 310.597 29.2538  -2
  -8   1  14 310.597 29.2538   1
 -12   1   5 118.392 39.3649  -2
  -7   1  14 118.392 39.3649   1
 -12   1   4 497.055 15.2098  -2
  -6   1  14 497.055 15.2098   1
 -12   1   3 53.3811 10.2336  -2
  -5   1  14 53.3811 10.2336   1
 -12   1   2 55.5708 12.8754  -2
  -4   1  14 55.5708 12.8754   1
  -3   1  14 54.8271 19.4884   1
  11   1   1 351.920 17.9458  -2
  -2   1  14 351.920 17.9458   1
  11   1   2 15.9823 9.22514  -2
  -1   1  14 15.9823 9.22514   1
  11   1   3 158.023 13.1651  -2
   0   1  14 158.023 13.1651   1
  -8   2  14 115.621 12.9280   1
 -12   2   5 106.211 24.5398  -2
  -7   2  14 106.211 24.5398   1
 -12   2   4 90.6753 10.6534  -2
  -6   2  14 90.6753 10.6534   1
 -12   2   3 101.443 10.5791  -2
  -5   2  14 101.443 10.5791   1
 -12   2   2 101.180 15.1569  -2
  -4   2  14 101.180 15.1569   1
  11   2   0 52.3624 31.2173  -2
  -3   2  14 52.3624 31.2173   1
  11   2   1 132.163 19.3128  -2
  -2   2  14 132.163 19.3128   1
 -10   0  15 6.02795 8.50125   1
 -14   0   8 431.679 48.1564  -2
  -9   0  15 431.679 48.1564   1
 -13   0   6 7.99658 21.8167  -2
  -8   0  15 7.99658 21.8167   1
 -13   0   5 427.182 26.4771  -2
  -7   0  15 427.182 26.4771   1
 -13   0   4 47.0570 19.3084  -2
  -6   0  15 47.0570 19.3084   1
 -13   0   3 383.519 45.8700  -2
  -5   0  15 383.519 45.8700   1
  -4   0  15 5.65980 12.5938   1
  12   0   0 425.117 29.0379  -2
  -3   0  15 425.117 29.0379   1
  12   0   1 -7.8724 13.5514  -2
  -2   0  15 -7.8724 13.5514   1
  12   0   2 309.707 34.1923  -2
  -1   0  15 309.707 34.1923   1
  -9   1  15 199.362 10.6236   1
 -13   1   6 42.8189 15.0315  -2
  -8   1  15 42.8189 15.0315   1
 -13   1   5 211.161 16.7178  -2
  -7   1  15 211.161 16.7178   1
 -13   1   4 17.8761 10.4615  -2
  -6   1  15 17.8761 10.4615   1
 -13   1   3 256.916 18.6159  -2
  -5   1  15 256.916 18.6159   1
  -4   1  15 25.2178 17.6425   1
  12   1   0 272.829 17.9549  -2
  -3   1  15 272.829 17.9549   1
  12   1   1 32.6538 11.9122  -2
  -2   1  15 32.6538 11.9122   1
 -14   0   5 26.3379 29.7040  -2
  -7   0  16 26.3379 29.7040   1
  -6   0  16 325.963 19.5169   1
  -5   0  16 5.43863 13.3729   1
 -13   0   1 399.377 29.8826  -2
  -4   0  16 399.377 29.8826   1
   0   0   0    0.00    0.00   0
;
_shelx_hkl_checksum              72809
loop_
_space_group_symop_operation_xyz
'x, y, z'
'-x+1/2, y+1/2, -z+1/2'
'-x, -y, -z'
'x-1/2, -y-1/2, z-1/2'
loop_
_atom_site_label
_atom_site_type_symbol
_atom_site_fract_x
_atom_site_fract_y
_atom_site_fract_z
_atom_site_U_iso_or_equiv
_atom_site_adp_type
_atom_site_occupancy
_atom_site_site_symmetry_order
_atom_site_calc_flag
_atom_site_refinement_flags_posn
_atom_site_refinement_flags_adp
_atom_site_refinement_flags_occupancy
_atom_site_disorder_assembly
_atom_site_disorder_group
Cl1 Cl 0.75185(12) 0.2838(4) 0.44040(11) 0.0210(3) Uani 1 1 d . . . . .
F1 F 0.3276(3) 0.8288(8) 0.3312(2) 0.0237(8) Uani 1 1 d . . . . .
N1 N 0.5475(4) 0.5312(11) 0.4917(3) 0.0155(10) Uani 1 1 d . . . . .
C1 C 0.5232(5) 0.5615(13) 0.3803(4) 0.0162(11) Uani 1 1 d . . . . .
C2 C 0.6153(5) 0.4619(13) 0.3460(4) 0.0166(12) Uani 1 1 d . . . . .
C3 C 0.6022(5) 0.4978(14) 0.2410(4) 0.0169(12) Uani 1 1 d . . . . .
H3 H 0.665821 0.422944 0.219961 0.020 Uiso 1 1 calc R U . . .
C4 C 0.4940(5) 0.6458(13) 0.1665(4) 0.0193(12) Uani 1 1 d . . . . .
H4 H 0.484404 0.675030 0.094131 0.023 Uiso 1 1 calc R U . . .
C5 C 0.4006(5) 0.7506(16) 0.1961(4) 0.0199(12) Uani 1 1 d . . . . .
H5 H 0.326707 0.850025 0.144768 0.024 Uiso 1 1 calc R U . . .
C6 C 0.4163(4) 0.7082(14) 0.3020(4) 0.0171(11) Uani 1 1 d . . . . .
loop_
_atom_site_aniso_label
_atom_site_aniso_U_11
_atom_site_aniso_U_22
_atom_site_aniso_U_33
_atom_site_aniso_U_23
_atom_site_aniso_U_13
_atom_site_aniso_U_12
Cl1 0.0184(7) 0.0244(7) 0.0169(7) 0.0009(6) 0.0037(4) 0.0060(6)
F1 0.0201(19) 0.029(2) 0.0214(18) 0.0038(15) 0.0077(13) 0.0069(14)
N1 0.020(2) 0.011(2) 0.014(2) 0.0030(19) 0.0049(19) 0.002(2)
C1 0.019(3) 0.015(3) 0.014(3) 0.002(2) 0.006(2) -0.004(2)
C2 0.018(3) 0.009(3) 0.019(3) -0.004(2) 0.003(2) -0.002(2)
C3 0.019(3) 0.013(3) 0.022(3) -0.001(2) 0.012(2) -0.004(2)
C4 0.027(3) 0.021(3) 0.013(3) -0.001(2) 0.010(2) -0.004(2)
C5 0.017(3) 0.015(3) 0.020(3) 0.002(3) 0.000(2) -0.004(3)
C6 0.013(2) 0.013(3) 0.021(3) -0.007(2) 0.003(2) -0.006(2)
loop_
_atom_type_symbol
_atom_type_description
_atom_type_scat_dispersion_real
_atom_type_scat_dispersion_imag
_atom_type_scat_source
C C 0.0033 0.0016 'International Tables Vol C Tables 4.2.6.8 and 6.1.1.4'
H H 0.0000 0.0000 'International Tables Vol C Tables 4.2.6.8 and 6.1.1.4'
Cl Cl 0.1484 0.1585 'International Tables Vol C Tables 4.2.6.8 and 6.1.1.4'
F F 0.0171 0.0103 'International Tables Vol C Tables 4.2.6.8 and 6.1.1.4'
N N 0.0061 0.0033 'International Tables Vol C Tables 4.2.6.8 and 6.1.1.4'
loop_
_geom_angle_atom_site_label_1
_geom_angle_atom_site_label_2
_geom_angle_atom_site_label_3
_geom_angle
_geom_angle_site_symmetry_1
_geom_angle_site_symmetry_3
_geom_angle_publ_flag
N1 N1 C1 113.3(5) 3_666 . ?
C2 C1 C6 116.1(5) . . ?
C2 C1 N1 118.7(5) . . ?
C6 C1 N1 125.0(4) . . ?
C3 C2 C1 122.7(5) . . ?
C3 C2 Cl1 119.0(4) . . ?
C1 C2 Cl1 118.3(4) . . ?
C2 C3 C4 118.8(5) . . ?
C2 C3 H3 120.6 . . ?
C4 C3 H3 120.6 . . ?
C5 C4 C3 120.9(5) . . ?
C5 C4 H4 119.5 . . ?
C3 C4 H4 119.5 . . ?
C4 C5 C6 118.8(5) . . ?
C4 C5 H5 120.6 . . ?
C6 C5 H5 120.6 . . ?
F1 C6 C5 118.3(4) . . ?
F1 C6 C1 119.0(4) . . ?
C5 C6 C1 122.7(5) . . ?
loop_
_geom_bond_atom_site_label_1
_geom_bond_atom_site_label_2
_geom_bond_distance
_geom_bond_site_symmetry_2
_geom_bond_publ_flag
Cl1 C2 1.745(6) . ?
F1 C6 1.344(6) . ?
N1 N1 1.254(8) 3_666 ?
N1 C1 1.427(7) . ?
C1 C2 1.399(7) . ?
C1 C6 1.400(8) . ?
C2 C3 1.379(7) . ?
C3 C4 1.392(7) . ?
C3 H3 0.9500 . ?
C4 C5 1.378(8) . ?
C4 H4 0.9500 . ?
C5 C6 1.385(7) . ?
C5 H5 0.9500 . ?
loop_
_geom_torsion_atom_site_label_1
_geom_torsion_atom_site_label_2
_geom_torsion_atom_site_label_3
_geom_torsion_atom_site_label_4
_geom_torsion
_geom_torsion_site_symmetry_1
_geom_torsion_site_symmetry_2
_geom_torsion_site_symmetry_3
_geom_torsion_site_symmetry_4
_geom_torsion_publ_flag
N1 N1 C1 C2 -149.0(5) 3_666 . . . ?
N1 N1 C1 C6 35.8(9) 3_666 . . . ?
C6 C1 C2 C3 -1.2(8) . . . . ?
N1 C1 C2 C3 -176.8(5) . . . . ?
C6 C1 C2 Cl1 179.0(4) . . . . ?
N1 C1 C2 Cl1 3.4(7) . . . . ?
C1 C2 C3 C4 1.4(8) . . . . ?
Cl1 C2 C3 C4 -178.9(4) . . . . ?
C2 C3 C4 C5 -0.9(8) . . . . ?
C3 C4 C5 C6 0.4(8) . . . . ?
C4 C5 C6 F1 176.4(5) . . . . ?
C4 C5 C6 C1 -0.3(8) . . . . ?
C2 C1 C6 F1 -176.0(4) . . . . ?
N1 C1 C6 F1 -0.7(8) . . . . ?
C2 C1 C6 C5 0.7(8) . . . . ?
N1 C1 C6 C5 176.0(5) . . . . ?
