#------------------------------------------------------------------------------
#$Date: 2020-02-29 01:43:53 +0200 (Sat, 29 Feb 2020) $
#$Revision: 248538 $
#$URL: file:///home/coder/svn-repositories/cod/cif/4/13/42/4134271.cif $
#------------------------------------------------------------------------------
#
# This file is available in the Crystallography Open Database (COD),
# http://www.crystallography.net/
#
# All data on this site have been placed in the public domain by the
# contributors.
#
data_4134271
loop_
_publ_author_name
'Gao, Ji-Xing'
'Zhang, Wan-Ying'
'Wu, Zheng-Guang'
'Zheng, You-Xuan'
'Fu, Da-Wei'
_publ_section_title
;
 Enantiomorphic Perovskite Ferroelectrics with Circularly Polarized
 Luminescence.
;
_journal_name_full               'Journal of the American Chemical Society'
_journal_paper_doi               10.1021/jacs.9b13291
_journal_year                    2020
_chemical_absolute_configuration rm
_chemical_formula_moiety         'Br3 Mn, C4 H9 F N'
_chemical_formula_sum            'C4 H9 Br3 F Mn N'
_chemical_formula_weight         384.76
_space_group_crystal_system      orthorhombic
_space_group_IT_number           20
_space_group_name_Hall           'C 2c 2'
_space_group_name_H-M_alt        'C 2 2 21'
_atom_sites_solution_hydrogens   difmap
_audit_creation_method           SHELXL-2014/7
_cell_angle_alpha                90
_cell_angle_beta                 90
_cell_angle_gamma                90
_cell_formula_units_Z            4
_cell_length_a                   7.8873(10)
_cell_length_b                   18.012(2)
_cell_length_c                   6.7513(8)
_cell_measurement_reflns_used    1514
_cell_measurement_temperature    293(2)
_cell_measurement_theta_max      29.4320
_cell_measurement_theta_min      2.8140
_cell_volume                     959.1(2)
_computing_cell_refinement       'CrysAlisPro 1.171.39.46 (Rigaku OD, 2018)'
_computing_data_collection       'CrysAlisPro 1.171.39.46 (Rigaku OD, 2018)'
_computing_data_reduction        'CrysAlisPro 1.171.39.46 (Rigaku OD, 2018)'
_computing_molecular_graphics    'DIAMOND (Brandenburg & Putz, 2005)'
_computing_publication_material  'SHELXL-2014/7 (Sheldrick, 2014)'
_computing_structure_refinement  'SHELXL-2014/7 (Sheldrick, 2014)'
_computing_structure_solution    'SHELXL-2014/7 (Sheldrick, 2014)'
_diffrn_ambient_temperature      293(2)
_diffrn_measured_fraction_theta_full 0.996
_diffrn_measured_fraction_theta_max 0.996
_diffrn_measurement_device_type  'XtaLAB Synergy R, DW system, HyPix'
_diffrn_measurement_method       'four-circle diffractometer'
_diffrn_radiation_type           MoK\a
_diffrn_radiation_wavelength     0.71073
_diffrn_reflns_av_R_equivalents  0.0328
_diffrn_reflns_av_unetI/netI     0.0322
_diffrn_reflns_Laue_measured_fraction_full 0.996
_diffrn_reflns_Laue_measured_fraction_max 0.996
_diffrn_reflns_limit_h_max       7
_diffrn_reflns_limit_h_min       -9
_diffrn_reflns_limit_k_max       20
_diffrn_reflns_limit_k_min       -21
_diffrn_reflns_limit_l_max       8
_diffrn_reflns_limit_l_min       -7
_diffrn_reflns_number            1995
_diffrn_reflns_point_group_measured_fraction_full 0.998
_diffrn_reflns_point_group_measured_fraction_max 0.998
_diffrn_reflns_theta_full        25.199
_diffrn_reflns_theta_max         25.198
_diffrn_reflns_theta_min         2.819
_diffrn_source                   'Rotating-anode X-ray tube'
_exptl_absorpt_coefficient_mu    13.822
_exptl_absorpt_correction_T_max  0.077
_exptl_absorpt_correction_T_min  0.063
_exptl_absorpt_correction_type   multi-scan
_exptl_absorpt_process_details   'CrysAlisPro 1.171.39.46 (Rigaku OD, 2018)'
_exptl_crystal_colour            Red
_exptl_crystal_density_diffrn    2.665
_exptl_crystal_description       Prism
_exptl_crystal_F_000             716
_exptl_crystal_size_max          0.210
_exptl_crystal_size_mid          0.200
_exptl_crystal_size_min          0.200
_refine_diff_density_max         0.981
_refine_diff_density_min         -0.884
_refine_diff_density_rms         0.198
_refine_ls_abs_structure_details
;
 Refined as an inversion twin.
;
_refine_ls_abs_structure_Flack   0.16(10)
_refine_ls_extinction_method     none
_refine_ls_goodness_of_fit_ref   1.089
_refine_ls_hydrogen_treatment    constr
_refine_ls_matrix_type           full
_refine_ls_number_parameters     74
_refine_ls_number_reflns         843
_refine_ls_number_restraints     55
_refine_ls_restrained_S_all      1.108
_refine_ls_R_factor_all          0.0432
_refine_ls_R_factor_gt           0.0390
_refine_ls_shift/su_max          0.000
_refine_ls_shift/su_mean         0.000
_refine_ls_structure_factor_coef Fsqd
_refine_ls_weighting_details
'w=1/[\s^2^(Fo^2^)+(0.0752P)^2^] where P=(Fo^2^+2Fc^2^)/3'
_refine_ls_weighting_scheme      calc
_refine_ls_wR_factor_gt          0.1056
_refine_ls_wR_factor_ref         0.1080
_reflns_Friedel_coverage         0.669
_reflns_Friedel_fraction_full    1.000
_reflns_Friedel_fraction_max     1.000
_reflns_number_gt                730
_reflns_number_total             843
_reflns_threshold_expression     'I > 2\s(I)'
_cod_data_source_file            ja9b13291_si_003.cif
_cod_data_source_block           C
_cod_original_cell_volume        959.2(2)
_cod_database_code               4134271
_shelx_shelxl_version_number     2014/7
_shelx_space_group_comment
;
The symmetry employed for this shelxl refinement is uniquely defined
by the following loop, which should always be used as a source of
symmetry information in preference to the above space-group names.
They are only intended as comments.
;
_shelx_estimated_absorpt_t_min   0.159
_shelx_estimated_absorpt_t_max   0.169
_shelx_res_file
;

    C.res created by SHELXL-2014/7


TITL C2221 in C222(1)
CELL 0.71073   7.8873  18.0124   6.7513  90.000  90.000  90.000
ZERR    4.00   0.0010   0.0021   0.0008   0.000   0.000   0.000
LATT -7
SYMM -X, -Y, 0.5+Z
SYMM -X, Y, 0.5-Z
SYMM X, -Y, -Z
SFAC C  H  N  F  Mn Br
UNIT 16 36 4 4 4 12
OMIT 0 50.5
OMIT 5 7 1
L.S. 25
ACTA
BOND
FMAP 2
PLAN 10
SIZE 0.20 0.20 0.21
EADP F1 F1'
ISOR 0.02 F1 F1' C3 C4 N1
ISOR 0.01 C1 C2
DFIX 0.50 0.001 F1 F1'
DFIX 1.50 0.02 C1 C2 C1 N1 C2 C3 C3 C4 C4 N1
DFIX 1.33 0.01 C2 F1 C3 F1'
DFIX 2.30 0.02 C1 C4 N1 C3 C4 C2 C3 C1 C2 N1
TWIN
CONF
TEMP 20
WGHT    0.075200
BASF   0.16284
FVAR       0.17223
MN1   5    0.500453    0.500000    1.000000    10.50000    0.03593    0.04493 =
         0.02053   -0.00128    0.00000    0.00000
BR1   6    0.500000    0.617820    0.750000    10.50000    0.06247    0.03712 =
         0.03148    0.00000   -0.00146    0.00000
BR2   6    0.734237    0.444366    0.750731    11.00000    0.04049    0.05937 =
         0.02856   -0.00205    0.00040    0.01325
F1    4    0.834679    0.244710    0.221610    10.25000    0.10523    0.10604 =
         0.12552   -0.02757   -0.03951    0.01279
F1'   4    0.808526    0.255471    0.160556    10.25000    0.10523    0.10604 =
         0.12552   -0.02757   -0.03951    0.01279
N1    3    0.973742    0.381107    0.346784    10.50000    0.05027    0.04955 =
         0.04782    0.00317   -0.01672    0.02807
AFIX   3
H1A   2    1.054350    0.407907    0.408344    10.50000   -1.20000
H1B   2    0.871692    0.400537    0.376314    10.50000   -1.20000
AFIX   0
C1    1    0.974209    0.305658    0.424644    10.50000    0.04412    0.05673 =
         0.05732    0.02685    0.01562   -0.01540
AFIX   3
H1C   2    0.871059    0.291048    0.489275    10.50000   -1.20000
H1D   2    1.067119    0.297918    0.514154    10.50000   -1.20000
AFIX   0
C2    1    1.000000    0.257859    0.250000    10.50000    0.11446    0.08616 =
         0.15504    0.00000    0.00100    0.00000
AFIX   3
H2A   2    1.087430    0.221950    0.225310    10.50000   -1.20000
AFIX   0
C3    1    0.928136    0.299276    0.084627    10.50000    0.13832    0.13974 =
         0.15629   -0.01216    0.01606    0.00283
AFIX   3
H3A   2    0.807236    0.299886    0.100977    10.50000   -1.20000
H3B   2    0.956036    0.284896   -0.048353    10.50000   -1.20000
AFIX   0
C4    1    0.989902    0.375268    0.129097    10.50000    0.07589    0.09849 =
         0.04382    0.02528   -0.02465   -0.00011
AFIX   3
H4A   2    1.108441    0.376338    0.096947    10.50000   -1.20000
H4B   2    0.934022    0.416388    0.066457    10.50000   -1.20000

AFIX   0
HKLF 4

REM  C2221 in C222(1)
REM R1 =  0.0390 for     730 Fo > 4sig(Fo)  and  0.0432 for all     843 data
REM     74 parameters refined using     55 restraints

END

WGHT      0.0747      0.0000

REM Highest difference peak  0.981,  deepest hole -0.884,  1-sigma level  0.198
Q1    1   0.6200  0.4373  0.7509  11.00000  0.05    0.98
Q2    1   0.6153  0.5000  1.0000  10.50000  0.05    0.93
Q3    1   0.3842  0.5000  1.0000  10.50000  0.05    0.89
Q4    1   0.6161  0.6190  0.7512  11.00000  0.05    0.86
Q5    1   0.8598  0.4416  0.7504  11.00000  0.05    0.74
Q6    1   1.0022  0.2653  0.1405  11.00000  0.05    0.74
Q7    1   0.7365  0.4171  0.3784  11.00000  0.05    0.62
Q8    1   0.7354  0.4170  0.1229  11.00000  0.05    0.60
Q9    1   0.4995  0.5829  1.0967  11.00000  0.05    0.56
Q10   1   0.7464  0.4023  0.2498  11.00000  0.05    0.56
;
_shelx_res_checksum              90680
_shelx_hkl_file
;
   0   0  -1    0.01    0.13
   0   0   2 2073.46   27.53
   0   0   3   -0.14    0.45
   0   0   4 2174.03   30.20
   0   0   4 2161.09   29.29
   0   0   5   -0.85    1.18
   0   0   5    0.25    0.84
   0   0   6  388.17    7.59
   0   0   6  361.25    6.37
   0   0   7    0.16    1.25
   0   0   7   -0.36    1.63
   0   0   8  330.27    6.34
   0   2  -2  299.92    4.08
   0  -2   1    7.69    0.44
   0  -2   1    7.79    0.37
   0   2   2  305.53    4.07
   0   2   2  286.94    4.24
   0   2   3   85.47    1.69
   0  -2   3   89.72    2.02
   0  -2   4  964.32   14.17
   0   2   4  999.83   13.83
   0   2   5   20.34    1.08
   0   2   5   22.26    1.67
   0  -2   5   20.27    1.29
   0  -2   5   22.64    1.70
   0   2   6   57.89    2.69
   0  -2   6   57.55    2.29
   0   2   6   51.70    1.85
   0  -2   6   60.59    2.79
   0   2   7    5.27    1.86
   0   2   7    5.28    1.21
   0  -2   7    4.90    1.50
   0  -2   8  136.83    3.89
   0  -2   9    1.69    1.77
   0   4  -5  362.96    5.04
   0   4  -4   16.63    0.52
   0   4  -3  591.43    8.04
   0   4  -2  536.08    7.33
   0   4   0   13.56    0.46
   0  -4   0   13.30    0.45
   0  -4   1 1367.45   18.44
   0  -4   1 1344.34   18.29
   0   4   2  523.47    7.21
   0  -4   2  538.53    8.10
   0   4   3  635.13    8.58
   0  -4   3  616.62    9.86
   0  -4   4   16.50    1.20
   0   4   4   15.55    0.76
   0  -4   5  368.34    6.35
   0   4   5  369.89    6.63
   0  -4   6  107.03    3.60
   0  -4   6  107.57    3.16
   0   4   6  108.53    3.44
   0  -4   7  134.12    3.92
   0   4   7  132.05    4.13
   0  -4   8    0.51    1.60
   0  -4   9   38.91    2.83
   0   6  -6  200.96    3.08
   0   6  -4   44.99    1.11
   0   6  -3 1402.35   18.81
   0   6  -2 1242.02   16.71
   0  -6  -1 2196.53   28.79
   0   6  -1 2167.83   29.00
   0   6   0  281.70    4.26
   0  -6   0  277.07    4.21
   0  -6   1 2237.39   29.66
   0  -6   1 2175.31   29.59
   0   6   2 1231.73   16.73
   0  -6   2 1274.20   17.60
   0  -6   2 1245.18   17.34
   0  -6   3 1396.18   19.89
   0   6   3 1375.97   18.52
   0  -6   4   39.17    1.93
   0   6   4   42.46    1.05
   0  -6   4   38.96    1.75
   0   6   5  547.94    9.04
   0  -6   5  555.88    9.14
   0  -6   6  206.88    4.75
   0   6   6  212.46    4.84
   0   6   6  203.12    3.22
   0   6   7  235.89    5.67
   0  -6   7  276.98    6.16
   0  -6   8    3.77    2.07
   0  -6   9   73.60    3.53
   0   8  -5   66.25    1.53
   0   8  -4    6.54    0.69
   0   8  -3  125.18    2.32
   0   8  -2  271.54    4.25
   0   8  -1  313.03    4.77
   0  -8  -1  313.04    4.58
   0   8   0   10.62    0.67
   0   8   0   10.98    0.67
   0  -8   1  308.31    5.02
   0  -8   1  309.37    5.01
   0  -8   2  270.35    4.76
   0  -8   2  277.08    4.94
   0   8   2  268.13    4.22
   0   8   3  128.35    2.35
   0  -8   3  119.12    3.11
   0  -8   3  120.19    2.91
   0  -8   4    6.32    1.34
   0   8   4    7.17    0.72
   0  -8   5   68.44    2.55
   0   8   5   61.91    1.44
   0   8   5   67.81    2.26
   0  -8   5   61.22    2.63
   0  -8   6  139.55    3.94
   0   8   6  140.36    3.76
   0  -8   7   31.31    2.61
   0   8   7   32.53    2.23
   0  -8   8    0.56    1.95
   0   8   8    1.81    1.78
   0  10  -5  104.53    2.25
   0  10  -4   38.61    1.30
   0  10  -3  260.94    4.31
   0 -10  -2  647.67    8.81
   0  10  -2  651.60    9.37
   0 -10  -1  528.10    7.56
   0  10  -1  520.06    7.74
   0  10   0   41.27    1.27
   0  10   0   43.32    1.37
   0  10   1  541.15    7.59
   0 -10   1  518.11    8.16
   0  10   2  643.64    9.30
   0 -10   2  658.22   10.00
   0 -10   2  636.34    9.89
   0 -10   3  252.49    5.15
   0 -10   3  251.03    4.99
   0 -10   4   37.58    2.07
   0  10   4   41.00    1.41
   0  10   5  102.29    2.68
   0 -10   5  103.34    3.50
   0  10   5  108.13    2.26
   0 -10   6  141.60    4.11
   0  10   6  140.68    3.55
   0  10   7   48.37    2.32
   0  10   7   47.12    1.46
   0  12  -5  183.03    3.47
   0  12  -4   52.84    1.72
   0  12  -3  325.02    5.36
   0  12  -2  501.74    7.55
   0 -12  -2  491.55    6.97
   0 -12  -1  496.36    7.34
   0  12  -1  490.79    7.53
   0 -12   0  166.98    3.23
   0  12   0  167.70    3.19
   0  12   1  510.34    7.36
   0 -12   1  492.75    7.92
   0  12   2  512.14    7.01
   0 -12   2  497.16    8.25
   0  12   2  500.82    7.67
   0 -12   3  307.57    5.91
   0 -12   3  310.49    5.96
   0  12   3  316.57    5.18
   0 -12   4   48.82    2.33
   0 -12   4   48.46    2.27
   0  12   4   46.07    1.37
   0  12   5  174.14    3.49
   0 -12   5  174.28    4.63
   0 -12   6  149.81    4.37
   0  12   6  142.04    3.30
   0 -12   7   69.64    3.58
   0  14  -5   21.44    1.43
   0  14  -4    4.10    1.12
   0  14  -3   39.66    1.62
   0  14  -2   79.44    2.25
   0 -14  -2   81.72    1.79
   0  14  -1   31.54    1.44
   0 -14  -1   33.37    1.28
   0 -14   0    0.79    0.85
   0  14   0    0.91    0.88
   0  14   1   32.38    1.44
   0 -14   1   33.39    1.62
   0  14   2   80.74    2.21
   0 -14   2   76.21    2.53
   0 -14   3   41.19    2.13
   0  14   3   40.07    1.60
   0 -14   4    3.28    1.40
   0  14   4    3.99    1.20
   0 -14   4    3.62    1.55
   0 -14   5   19.58    2.01
   0  14   5   19.60    0.91
   0  14   5   23.14    1.49
   0  16  -5    3.52    1.34
   0  16  -4  197.54    4.19
   0  16  -3    2.09    1.18
   0 -16  -2   97.33    2.13
   0  16  -2   98.61    2.69
   0 -16  -1    2.10    0.96
   0  16  -1    2.19    1.18
   0  16   0  426.47    6.88
   0 -16   0  392.25    6.69
   0 -16   1    1.93    1.21
   0  16   1    1.12    1.12
   0 -16   2   91.56    2.90
   0  16   2   92.28    2.50
   0  16   3    1.84    1.21
   0 -16   3    2.12    1.50
   0  16   4  190.23    3.99
   0 -16   4  164.42    4.45
   0 -16   5    2.50    1.87
   0  16   5    3.67    1.39
   0 -18  -2   72.49    1.86
   0 -18  -1   21.23    1.36
   0 -18   0  234.62    4.68
   0 -18   1   22.03    1.65
   0 -18   2   69.88    2.63
   0 -18   3    9.42    1.73
   0 -18   4  122.66    3.91
   0 -18   5    6.39    2.05
   0 -20  -1    0.37    1.18
   0 -20   0   17.44    1.71
   0 -20   1   -0.07    1.60
   0 -20   2    0.32    1.64
   0 -20   3    0.86    1.79
   0 -20   4   10.80    2.25
   0 -22   0    0.95    1.45
   0 -22   1   34.11    2.32
   0 -22   2   17.49    2.16
   0 -22   3   25.54    2.49
   0 -24   1   24.00    2.07
  -1  -1  -4  535.97    8.12
  -1   1  -4  559.36    8.38
  -1  -1  -3  161.88    2.80
  -1   1  -3  162.10    3.00
  -1  -1  -3  153.72    2.20
  -1  -1  -2   27.44    0.98
  -1   1  -2   21.12    1.00
   1   1  -2   23.55    0.71
  -1   1  -2   21.09    0.85
  -1  -1  -2   29.81    0.86
  -1  -1  -1    0.94    0.18
   1   1  -1    0.92    0.22
   1   1   0  790.19   10.07
  -1  -1   0  704.64    9.99
   1   1   2   22.26    0.83
   1   1   2   15.18    0.60
   1  -1   3  155.54    2.94
  -1  -1   3  155.91    2.22
   1   1   3  150.97    3.07
  -1   1   3  148.73    2.54
   1  -1   3  152.31    3.20
   1   1   4  586.13    8.59
  -1  -1   4  561.57    8.64
   1  -1   4  550.41    9.09
   1  -1   4  561.27    8.61
  -1   1   4  578.86    8.47
   1   1   4  555.54    9.01
   1   1   5   46.77    1.72
   1  -1   5   45.18    2.05
  -1   1   5   44.48    1.62
  -1  -1   5   46.99    1.81
   1   1   5   44.82    1.97
   1  -1   5   48.34    1.87
   1   1   6    3.79    1.43
  -1   1   6    3.73    1.03
   1   1   6    3.90    1.08
   1  -1   6    4.58    1.26
  -1  -1   6    3.75    1.23
   1  -1   6    2.94    1.43
  -1   1   7   14.30    1.57
   1  -1   7   14.32    1.95
   1  -1   7   13.39    1.59
  -1   1   7   15.45    2.17
   1   1   7   14.35    2.02
  -1  -1   7   12.05    1.54
  -1  -1   8   57.07    2.50
  -1   1   8   51.86    2.16
  -1  -1   9    3.78    1.69
   1   3  -4    3.84    0.61
  -1  -3  -4    2.58    0.57
  -1   3  -3  116.46    2.55
  -1  -3  -3  115.69    2.10
  -1  -3  -3  116.06    1.78
  -1  -3  -2  667.80    9.11
  -1   3  -2  641.80    9.91
  -1  -3  -2  652.46    8.86
  -1   3  -2  653.71    9.57
  -1  -3  -1  203.87    2.95
  -1  -3  -1  205.56    3.02
  -1  -3   0  251.60    3.60
   1  -3   1  220.48    3.55
   1  -3   2  635.65    9.48
  -1  -3   2  643.39    8.73
   1   3   2  654.80    9.06
   1  -3   3  120.15    2.57
   1   3   3  112.49    2.42
   1   3   3  109.75    1.91
  -1  -3   3  120.37    1.83
   1   3   4    1.94    0.78
  -1  -3   4    1.41    0.84
   1  -3   4    2.31    0.88
   1   3   4    1.45    0.56
  -1   3   4    2.19    0.56
   1   3   5   56.76    2.13
  -1  -3   5   61.99    2.18
   1  -3   5   58.66    2.09
   1  -3   5   58.86    2.35
  -1   3   5   54.63    1.60
  -1  -3   6  101.97    3.68
   1   3   6  102.34    3.18
   1  -3   6  108.00    3.12
  -1   3   6  100.00    2.47
  -1  -3   6  104.70    3.06
   1  -3   6  106.47    3.44
  -1   3   7   12.29    1.99
   1  -3   7   13.67    1.94
  -1  -3   7   12.07    1.58
   1   3   7   11.64    1.86
  -1   3   7   10.15    1.12
   1  -3   8    2.10    1.72
  -1  -3   8    2.05    1.86
  -1   3   8    1.93    1.12
  -1  -3   9    1.79    1.72
   1   5  -5   57.26    1.41
  -1   5  -5   54.29    1.10
  -1   5  -4   14.33    1.25
  -1  -5  -4   13.18    0.66
  -1   5  -3  151.27    3.19
  -1  -5  -3  143.37    2.30
  -1  -5  -2  566.85    7.85
   1   5  -2  558.38    7.88
  -1   5  -2  581.44    8.65
   1   5  -1  223.96    3.40
  -1  -5  -1  220.60    3.35
  -1  -5   0   28.01    0.76
   1   5   0   29.82    0.81
  -1   5   0   29.64    0.93
   1  -5   1  241.93    3.94
  -1   5   1  236.24    3.58
   1   5   2  565.96    7.84
   1   5   2  560.68    7.75
  -1  -5   2  563.83    7.80
   1  -5   2  556.02    8.38
   1  -5   2  559.11    8.53
   1  -5   3  157.38    3.43
   1   5   3  150.56    2.80
  -1   5   3  150.89    2.27
   1  -5   4   15.55    1.30
   1   5   4   13.95    1.00
   1   5   4   12.93    0.61
  -1   5   4   12.42    0.57
  -1  -5   4   14.16    1.23
   1  -5   5   60.47    2.29
  -1   5   5   51.59    1.35
  -1   5   5   55.47    1.09
   1   5   5   56.91    2.01
  -1  -5   5   56.86    2.24
   1   5   5   56.79    1.45
   1  -5   6  176.79    4.19
  -1  -5   6  178.11    4.21
   1  -5   6  179.48    4.59
   1   5   6  178.45    4.08
  -1   5   7   20.09    2.21
   1  -5   7   18.82    2.14
  -1  -5   7   18.13    2.00
   1   5   7   18.87    1.96
   1  -5   8    1.43    2.07
  -1  -5   8   -0.18    1.92
  -1  -5   9    3.55    1.93
   1  -5   9    4.39    2.11
   1   7  -6    7.67    0.86
  -1   7  -6    7.62    0.61
  -1   7  -5  103.18    1.93
   1   7  -5   98.30    1.99
  -1   7  -4  129.51    2.33
  -1   7  -3  139.73    3.29
   1   7  -3  137.00    2.46
  -1  -7  -3  136.19    2.08
   1   7  -2   70.67    1.56
   1   7  -1  115.84    2.14
  -1   7  -1  116.87    2.65
  -1  -7  -1  120.80    2.12
  -1  -7   0  341.67    5.11
  -1   7   0  347.39    5.38
   1   7   0  346.10    5.17
   1  -7   0  346.71    5.27
  -1  -7   0  348.88    5.10
   1  -7   1  124.01    2.49
  -1   7   1  117.26    2.09
   1  -7   2   65.63    1.84
  -1   7   2   65.17    1.08
   1   7   3  138.03    2.45
   1   7   3  137.15    2.45
   1  -7   3  131.45    3.21
   1   7   4  126.19    2.68
  -1   7   4  130.91    2.31
  -1  -7   4  124.13    3.54
   1  -7   4  127.97    3.43
   1  -7   5  102.72    3.26
  -1  -7   5  104.24    3.14
  -1  -7   5  103.32    3.46
   1   7   5  103.60    2.61
   1  -7   5  112.38    3.29
  -1   7   5   99.12    1.84
   1   7   6    8.06    1.29
   1   7   6    9.29    1.00
  -1  -7   6    9.25    1.68
   1  -7   6    8.76    1.69
  -1  -7   7   28.20    2.29
   1  -7   7   26.10    2.21
   1   7   7   28.34    1.95
  -1   7   7   26.91    2.27
  -1  -7   8   15.33    2.20
   1   7   8   15.99    1.94
   1  -7   8   17.13    2.60
  -1   9  -6    0.42    0.68
   1   9  -6    0.68    0.78
  -1   9  -5   19.07    0.97
  -1   9  -4  235.79    3.88
   1   9  -4  230.74    3.87
   1   9  -3   13.07    0.86
  -1   9  -2    0.20    0.90
   1   9  -2    2.38    0.66
  -1   9  -1   17.94    1.15
  -1   9  -1   18.08    1.13
   1   9  -1   16.12    0.86
   1  -9  -1   19.51    0.80
   1   9   0  261.51    4.19
  -1  -9   0  256.45    4.03
   1  -9   0  269.85    4.32
  -1   9   0  260.63    4.43
  -1   9   1   16.18    0.75
   1  -9   1   16.17    0.96
   1   9   2    0.01    0.62
   1  -9   2    1.73    0.76
  -1  -9   2    0.20    0.82
  -1  -9   2    0.59    0.78
   1  -9   3   10.67    1.19
  -1  -9   3   10.63    1.24
   1   9   3   12.62    0.85
  -1  -9   3   12.41    1.27
  -1   9   4  238.99    3.89
   1   9   4  231.46    3.88
   1  -9   4  227.13    4.96
  -1  -9   4  227.18    5.20
   1  -9   5   18.42    1.72
   1   9   5   19.10    1.17
  -1  -9   5   19.41    1.84
  -1   9   5   18.59    0.95
   1  -9   5   22.92    2.03
  -1  -9   5   18.41    1.88
  -1  -9   6    0.33    1.63
   1  -9   6    2.25    1.65
   1   9   6    0.78    0.74
  -1   9   6    1.05    0.66
   1   9   6    0.85    1.12
   1   9   7    3.79    1.29
  -1  -9   7    3.57    1.86
   1   9   7    4.04    1.59
  -1   9   7    4.57    1.75
   1  -9   7    3.16    1.92
  -1  -9   8   24.75    2.62
   1  -9   8   30.12    2.86
  -1  11  -6   38.68    1.44
  -1  11  -5   75.25    1.94
  -1  11  -4    3.99    0.95
   1  11  -4   12.55    1.05
  -1  11  -3  172.81    3.27
   1  11  -3  165.06    3.22
   1  11  -2  105.95    2.32
  -1  11  -2  107.04    3.27
  -1 -11  -2  103.66    1.94
  -1  11  -1  157.61    3.77
   1  11  -1  150.37    3.01
   1  11   0   15.19    0.95
   1 -11   0   16.43    1.00
  -1 -11   0   15.62    0.96
  -1  11   0   18.18    1.15
   1 -11   1  155.74    3.24
  -1 -11   1  146.04    3.17
  -1 -11   1  150.13    3.09
  -1 -11   2  104.10    2.76
   1 -11   2  101.61    2.68
   1  11   2  108.73    2.35
  -1 -11   2  105.59    2.79
  -1 -11   3  156.26    3.82
  -1  11   3  168.16    3.18
   1  11   3  170.01    3.20
   1 -11   3  155.57    3.71
  -1 -11   3  159.68    3.83
  -1 -11   4    3.49    1.35
  -1 -11   4    3.52    1.36
  -1  11   4    3.60    0.87
   1 -11   4    4.00    1.43
   1  11   4    5.99    0.96
  -1  11   5   72.78    1.86
  -1 -11   5   71.75    3.10
   1 -11   5   68.01    2.71
   1 -11   6   40.13    2.65
  -1 -11   6   41.05    2.66
  -1  11   6   36.22    1.34
   1 -11   7   24.20    2.49
  -1 -11   7   22.99    2.40
  -1  11   7   22.17    2.06
  -1  13  -5    0.43    0.95
   1  13  -4    7.81    1.08
  -1  13  -4    9.15    1.19
   1  13  -3    1.16    0.97
  -1 -13  -3    1.05    0.30
  -1  13  -3    1.38    1.04
  -1 -13  -2  212.57    3.61
   1  13  -2  220.32    4.06
   1  13  -1    0.46    0.89
  -1  13  -1    0.66    1.18
   1 -13  -1    0.11    0.74
  -1 -13  -1    0.31    0.68
   1  13   0    0.97    0.85
  -1 -13   0    1.88    0.77
   1 -13   0    2.14    0.83
  -1  13   0    2.50    1.04
  -1 -13   1    0.18    0.96
  -1  13   1    0.78    0.80
   1 -13   1    0.51    1.01
   1 -13   2  208.74    4.44
  -1 -13   2  216.87    4.57
  -1  13   2  221.32    4.09
  -1 -13   2  212.61    4.41
  -1 -13   3    1.57    1.18
  -1 -13   3    1.90    1.32
  -1  13   3    1.34    0.94
   1  13   3    1.21    1.01
   1 -13   3    1.79    1.27
   1  13   4    8.94    1.18
   1 -13   4    7.84    1.64
  -1  13   4    7.96    1.12
  -1 -13   4   10.29    1.59
  -1 -13   4    6.77    1.67
  -1  13   5    0.77    0.99
   1 -13   5    0.86    1.67
  -1  13   6   55.07    2.23
  -1 -13   6   56.93    3.06
  -1  13   6   59.37    1.88
  -1  15  -5   21.45    1.51
  -1  15  -4   31.22    1.76
   1  15  -4   29.45    1.67
  -1 -15  -3   38.42    0.89
  -1  15  -3   44.21    1.91
   1  15  -3   42.03    1.83
  -1  15  -2    5.38    1.27
   1  15  -2    3.83    1.17
  -1 -15  -2    3.98    0.77
  -1  15  -1   38.06    2.18
  -1  15  -1   37.33    1.73
   1  15  -1   40.32    1.74
  -1 -15  -1   34.03    1.45
   1 -15  -1   40.07    1.66
   1  15   0   42.97    1.74
  -1 -15   0   41.28    1.69
  -1  15   0   47.01    2.16
  -1  15   0   43.66    1.78
   1 -15   0   42.41    1.67
  -1  15   1   34.98    1.62
   1 -15   1   36.83    1.85
  -1 -15   1   34.61    1.73
   1  15   1   37.28    1.66
  -1  15   1   39.42    1.69
  -1 -15   2    4.99    1.36
   1  15   2    5.01    1.17
  -1  15   2    4.13    0.90
   1 -15   2    4.23    1.47
  -1  15   2    3.47    1.07
  -1 -15   3   36.57    1.97
   1 -15   3   44.11    2.35
  -1 -15   3   40.65    2.26
  -1  15   3   40.13    1.72
   1  15   3   44.15    1.88
   1 -15   4   32.18    2.30
  -1 -15   4   29.64    2.16
   1  15   4   31.75    1.72
  -1  15   4   29.12    1.61
  -1 -15   4   28.04    2.04
  -1  15   5   22.05    1.55
  -1 -15   5   20.83    2.30
   1 -15   5   22.92    2.27
  -1  15   6    3.28    1.24
  -1  17  -3    0.13    1.39
   1  17  -3    0.11    1.36
  -1  17  -2   11.26    1.57
  -1 -17  -2   10.43    0.96
   1  17  -2   11.22    1.55
   1 -17  -1    0.94    0.97
  -1  17  -1    1.60    1.37
  -1 -17  -1    1.20    0.98
   1  17  -1    0.08    1.22
   1 -17   0  111.28    2.90
  -1  17   0  113.70    3.06
   1  17   0  112.42    2.92
  -1 -17   0  108.06    2.89
  -1 -17   1    0.37    1.23
  -1  17   1    0.72    1.19
  -1  17   1    1.49    1.09
   1 -17   1    0.96    1.23
   1  17   1   -0.05    1.16
   1 -17   2   11.86    1.62
  -1  17   2    9.98    1.35
  -1 -17   2   11.48    1.60
   1  17   2   12.60    1.51
  -1  17   2   10.48    1.05
  -1  17   3    0.18    1.27
   1  17   3   -0.39    1.33
  -1 -17   3    0.85    1.56
   1 -17   3    0.92    1.61
  -1  17   3    0.37    0.66
  -1 -17   4   71.96    3.05
   1 -17   4   72.88    3.15
  -1 -17   5   -1.18    2.02
   1 -17   5   -1.10    1.95
  -1 -19  -2    3.36    1.02
   1 -19  -1   20.14    1.45
  -1 -19  -1   19.50    1.44
  -1 -19   0   15.81    1.57
   1 -19   0   14.81    1.57
  -1 -19   1   18.54    1.81
   1 -19   1   19.02    1.76
  -1 -19   2    2.79    1.68
   1 -19   2    3.29    1.55
   1 -19   3   15.10    1.99
  -1 -19   3   13.57    2.03
  -1 -19   4    9.05    2.14
   1 -19   4    8.31    1.98
  -1 -21  -1   -0.69    1.33
  -1 -21   0    4.79    1.43
   1 -21   0    5.59    1.80
   1 -21   1   -0.07    1.60
  -1 -21   1    0.63    1.58
  -1 -21   2   29.88    2.27
   1 -21   2   29.20    2.17
   1 -21   3   -0.24    1.78
  -1 -21   3    0.45    1.81
   1 -23   0    0.37    1.55
  -1 -23   0    0.50    1.69
   1 -23   1    8.49    2.03
  -1 -23   1    7.78    1.76
   1 -23   2    6.71    2.18
  -1 -23   2    5.77    1.90
  -2   0  -6  199.12    4.18
  -2   0  -5   -0.04    0.32
  -2   0  -5   -0.15    0.94
  -2   0  -4   33.59    1.46
  -2   0  -4   32.91    0.88
  -2   0  -3    0.57    0.77
  -2   0  -3    1.79    0.64
  -2   0  -3    0.19    0.69
  -2   0  -2  916.16   13.40
  -2   0  -2  962.13   13.55
  -2   0  -2  932.09   13.35
  -2   0  -1    2.16    0.66
  -2   0   0   46.82    1.56
  -2   0   2  860.67   12.31
  -2   0   3    0.23    0.53
  -2   0   5    0.43    0.29
   2   0   5   -0.29    1.03
  -2   0   5    1.48    0.97
   2   0   6  188.27    4.35
  -2   0   6  199.01    4.15
  -2   0   7   -0.10    1.32
  -2   0   8    1.34    1.39
  -2   2  -6  280.76    5.53
  -2  -2  -6  287.96    5.14
  -2   2  -5  440.47    6.20
  -2   2  -5  433.19    7.34
  -2  -2  -5  426.81    6.89
  -2  -2  -5  425.41    5.90
  -2   2  -4   66.44    2.18
  -2   2  -4   70.81    2.21
  -2  -2  -4   70.21    1.33
  -2  -2  -4   67.31    1.86
  -2   2  -3  876.59   12.66
  -2   2  -3  887.45   13.19
  -2  -2  -3  868.65   12.69
   2   2  -3  846.00   12.63
  -2  -2  -3  872.30   12.40
   2   2  -2 1089.09   15.33
  -2  -2  -2 1096.03   15.02
  -2   2  -2 1137.91   15.89
  -2   2  -2 1156.78   15.88
  -2  -2  -2 1116.51   15.44
  -2  -2  -1 1829.30   24.28
   2   2  -1 1813.98   24.37
   2   2   0  276.93    4.22
  -2  -2   0  279.40    4.21
   2   2   2 1092.83   15.14
  -2   2   3  895.37   12.93
   2   2   3  823.28   12.62
   2  -2   4   68.65    2.11
  -2   2   4   67.77    2.04
  -2  -2   4   69.05    1.31
  -2  -2   5  426.42    7.25
  -2   2   5  432.21    6.86
  -2  -2   5  427.57    5.83
  -2   2   5  425.20    5.98
   2  -2   5  439.45    7.28
   2   2   5  413.63    7.11
   2  -2   6  265.86    5.61
  -2   2   6  282.47    5.06
   2   2   6  271.61    5.41
  -2  -2   6  282.35    5.43
  -2   2   7  155.23    3.52
  -2  -2   7  162.87    4.04
  -2   2   8    7.63    1.46
  -2  -2   8    7.92    1.67
  -2  -2   9   49.20    2.63
  -2   4  -6  192.90    2.79
  -2   4  -6  201.38    3.02
  -2   4  -5  368.35    6.80
  -2  -4  -5  361.26    5.80
  -2   4  -5  355.60    6.54
   2   4  -5  350.85    6.82
   2   4  -4   27.07    1.23
  -2  -4  -4   24.02    1.06
  -2  -4  -4   26.42    0.81
  -2   4  -4   26.68    1.64
  -2   4  -3  864.22   13.93
  -2   4  -3  928.58   13.58
  -2  -4  -3  938.27   12.97
  -2  -4  -3  906.66   12.37
   2   4  -3  889.92   12.60
   2   4  -2 1020.27   14.15
  -2  -4  -2 1026.93   14.26
  -2   4  -2 1038.82   15.21
  -2  -4  -2 1029.16   14.03
   2   4  -1 1145.37   15.49
   2   4   0  219.60    3.43
   2   4   2 1035.29   14.16
  -2  -4   2 1035.42   14.04
   2   4   3  934.61   12.82
  -2  -4   3  903.49   12.51
   2  -4   4   34.46    1.79
   2   4   4   31.23    1.35
  -2   4   5  363.50    5.94
   2  -4   5  406.16    7.05
  -2   4   5  414.48    7.08
  -2  -4   5  361.90    6.76
  -2  -4   6  200.55    4.46
  -2   4   6  193.06    3.58
  -2   4   7  118.08    2.74
  -2  -4   7  137.37    3.77
  -2   4   8    4.46    1.09
  -2  -4   8    4.46    1.83
  -2  -4   9   39.73    2.76
  -2   6  -6    0.40    0.48
   2   6  -6    1.62    1.44
  -2   6  -6    0.09    1.22
   2   6  -5   59.60    1.76
  -2  -6  -5   56.76    1.55
  -2  -6  -4  225.97    3.81
   2   6  -4  232.76    3.92
  -2  -6  -4  230.57    3.63
  -2   6  -4  235.64    4.94
  -2   6  -3   81.01    2.78
  -2   6  -3   84.67    2.60
   2   6  -3   76.83    1.73
  -2  -6  -3   80.27    1.66
  -2  -6  -2    2.44    0.46
  -2  -6  -2    2.33    0.39
  -2  -6  -1   86.51    1.72
  -2   6   0  563.62    8.43
  -2  -6   0  530.65    7.71
   2  -6   1  101.22    2.19
  -2   6   1   78.51    2.15
   2  -6   2    2.79    0.80
  -2  -6   2    3.97    0.52
  -2  -6   3   82.71    1.67
   2   6   3   76.52    1.72
   2  -6   4  239.11    4.73
   2   6   4  228.97    3.88
  -2  -6   4  226.29    3.60
   2   6   5   61.94    1.90
  -2   6   5   56.07    1.40
  -2  -6   5   59.06    2.37
  -2  -6   6   -0.44    1.48
  -2   6   6    0.45    0.46
   2  -6   6    0.49    1.77
  -2   6   6    0.11    0.60
   2   6   6    0.94    2.20
  -2   6   6    0.28    1.80
   2  -6   7   18.66    2.10
  -2  -6   7   16.85    2.02
  -2   6   7   11.42    0.89
  -2  -6   8   30.64    2.48
   2   8  -6  122.80    2.82
  -2   8  -6  119.56    2.24
  -2   8  -5    8.12    1.66
  -2  -8  -5    8.06    0.66
   2   8  -5    9.32    1.04
  -2  -8  -4  931.53   12.96
  -2   8  -4  983.26   14.75
  -2   8  -3   13.45    1.41
  -2  -8  -3   13.66    0.82
  -2   8  -2  669.13   11.11
  -2  -8  -2  693.44    9.73
  -2   8  -1    5.98    1.05
  -2  -8  -1    6.71    0.59
  -2  -8   0 2181.91   29.58
  -2   8   0 2264.80   30.20
  -2   8   1    6.90    0.84
   2  -8   1    6.82    0.85
  -2   8   2  678.77    9.91
  -2  -8   2  684.15    9.84
  -2  -8   3   11.51    0.78
  -2   8   3   10.22    0.59
   2   8   4  926.75   13.03
  -2  -8   5    7.69    1.44
   2   8   5    7.49    0.97
   2  -8   5    8.10    1.55
  -2   8   6  123.95    2.30
   2  -8   6  146.50    4.22
   2   8   6  138.32    3.17
  -2  -8   6  124.04    3.80
   2  -8   7    1.75    2.00
  -2  -8   7    1.94    1.81
  -2   8   7    5.29    1.86
   2  -8   8  169.00    4.86
  -2  -8   8  149.18    4.57
  -2  10  -6   64.25    1.70
   2  10  -6   62.83    1.98
   2  10  -5    1.01    0.91
  -2 -10  -4  503.24    7.16
  -2  10  -4  576.38    9.62
  -2  10  -3   10.10    1.63
  -2  10  -2  227.78    5.20
  -2 -10  -2  228.89    3.93
  -2 -10  -1   31.06    1.14
  -2  10  -1   34.83    1.74
   2  10  -1   31.60    1.20
  -2  10  -1   30.22    1.71
  -2 -10   0 1255.14   17.36
  -2  10   0 1298.37   18.12
  -2 -10   0 1264.84   17.46
   2  10   0 1272.12   17.54
  -2  10   1   30.56    1.26
   2 -10   1   37.46    1.62
  -2  10   2  211.12    3.63
  -2 -10   2  228.79    3.84
   2 -10   3    8.50    1.20
  -2  10   3    7.99    0.40
   2 -10   4  511.26    8.69
  -2 -10   4  499.54    9.11
   2  10   5    1.10    0.83
  -2 -10   5    0.65    1.44
  -2 -10   5    1.35    1.64
  -2  10   5    0.83    0.81
   2  10   6   62.50    1.97
  -2 -10   6   62.96    2.90
  -2  10   6   60.36    1.61
   2 -10   7    4.39    2.37
  -2 -10   7    1.38    1.87
  -2  12  -5   32.62    1.52
  -2 -12  -4   31.79    0.71
  -2  12  -3   77.74    3.39
  -2  12  -3   88.92    3.30
  -2  12  -2   38.04    2.30
  -2  12  -2   43.16    2.24
   2  12  -2   40.02    1.51
  -2  12  -1   84.66    2.67
   2  12  -1   81.97    2.12
  -2  12  -1   82.29    2.90
   2 -12   0   18.85    1.19
   2  12   0   17.83    1.11
  -2  12   0   18.33    1.34
  -2 -12   0   16.62    0.83
  -2  12   1   77.08    2.09
  -2 -12   1   81.45    2.23
   2  12   2   39.79    1.50
  -2  12   2   36.82    1.19
  -2 -12   2   39.87    1.77
  -2 -12   3   75.66    2.66
   2 -12   3   72.94    2.54
  -2 -12   3   77.42    2.71
  -2 -12   4   31.61    2.15
   2 -12   4   32.69    2.01
  -2 -12   4   30.61    1.98
  -2  12   5   30.29    1.39
   2  12   6    6.84    1.13
   2 -12   6    8.34    2.10
  -2  12   6    8.15    1.03
  -2 -12   6    6.67    1.94
   2 -12   7   18.97    2.88
  -2 -12   7   13.29    2.35
  -2  14  -5  142.12    3.26
  -2  14  -4    2.90    1.32
  -2  14  -3  248.72    6.46
  -2 -14  -3  233.19    3.75
  -2  14  -2  136.97    4.41
   2  14  -2  131.29    3.00
  -2  14  -1  415.41    8.02
  -2  14  -1  417.41    7.48
   2  14  -1  404.32    6.67
   2 -14   0    8.56    1.08
  -2  14   0    7.36    1.39
   2  14   0    7.34    1.03
  -2 -14   1  393.31    6.71
   2  14   1  404.34    6.71
  -2 -14   2  125.77    3.21
   2 -14   2  137.57    3.51
   2  14   2  130.66    2.99
  -2 -14   2  120.26    3.37
  -2 -14   3  225.51    5.06
  -2 -14   3  232.29    5.14
  -2 -14   4    1.38    1.62
  -2 -14   4    2.06    1.47
   2 -14   4    0.68    1.58
  -2  14   4    1.74    1.08
   2 -14   5  137.74    4.20
  -2 -14   5  131.30    4.10
  -2  14   5  124.92    2.90
  -2  14   6   29.39    1.41
   2  14   6   27.32    1.52
  -2  16  -4    1.51    1.47
  -2 -16  -3   96.83    2.01
   2  16  -3   91.44    2.60
  -2  16  -2   38.69    2.83
  -2 -16  -2   32.65    1.35
   2  16  -2   39.48    1.79
  -2 -16  -1  126.36    2.96
   2  16  -1  135.59    3.18
  -2 -16   0    7.44    1.21
   2  16   0    7.91    1.23
  -2  16   0    7.97    1.60
  -2 -16   1  123.45    3.34
  -2  16   1  128.35    3.70
   2  16   1  135.89    3.20
   2 -16   2   37.32    2.07
  -2 -16   2   32.59    2.01
  -2 -16   2   32.44    1.72
   2  16   2   37.83    1.78
  -2 -16   3   95.51    3.27
   2 -16   3  100.45    3.34
  -2  16   3   92.16    2.64
  -2 -16   3   86.43    2.86
  -2 -16   4    2.15    1.53
   2 -16   4    2.81    1.76
  -2 -16   4    0.91    1.75
  -2  16   4    1.69    1.26
   2 -16   5   42.64    2.80
  -2 -16   5   41.90    2.74
  -2  16   5   38.62    1.82
  -2 -18  -2   30.51    1.46
  -2 -18  -1   18.35    1.39
  -2  18  -1   22.15    2.56
  -2  18   0   -0.95    1.85
  -2 -18   0    0.41    1.15
  -2  18   1   20.21    1.98
   2 -18   1   20.70    1.76
  -2 -18   1   18.14    1.69
   2 -18   2   35.06    2.35
  -2 -18   2   27.49    2.05
  -2  18   2   32.16    1.96
   2 -18   3   10.22    1.90
  -2 -18   3    8.38    1.47
  -2 -18   3   10.51    1.96
  -2 -18   4    0.41    1.91
   2 -18   4   -1.18    1.89
  -2 -20  -2   71.22    2.16
  -2 -20  -1   41.89    1.93
  -2 -20   0   20.70    1.79
  -2  20   0   23.18    2.45
   2 -20   1   46.79    2.39
  -2  20   1   45.95    2.58
  -2 -20   1   45.14    2.36
  -2  20   2   73.18    2.77
   2 -20   2   79.86    3.25
  -2 -20   2   70.91    2.96
   2 -20   3   32.10    2.68
  -2 -20   3   31.39    2.51
  -2 -22   0    5.06    1.67
  -2 -22   1    2.26    1.61
  -2 -22   2   25.06    2.22
   2 -22   2   26.45    2.35
  -2 -24   1    0.39    1.77
  -3  -1  -7   22.54    1.79
  -3   1  -7   22.04    1.88
  -3  -1  -6   18.88    1.59
  -3   1  -6   17.73    1.71
  -3  -1  -6   17.73    0.64
  -3  -1  -5   67.85    2.38
  -3   1  -5   66.05    2.42
  -3   1  -5   65.97    1.69
  -3   1  -4  116.23    2.90
  -3  -1  -4  107.79    3.17
  -3  -1  -4  116.21    3.09
  -3   1  -4  111.81    3.08
  -3  -1  -4  110.32    2.27
  -3   1  -4  108.97    3.36
  -3   1  -3  174.02    4.17
  -3  -1  -3  176.73    4.19
  -3   1  -3  177.80    4.04
  -3   1  -3  168.26    3.99
  -3  -1  -2   86.20    2.25
  -3   1  -2   85.62    2.72
  -3  -1  -1  124.97    2.73
   3   1  -1  102.62    2.76
   3   1   0   83.51    2.37
  -3  -1   0  100.33    2.37
  -3  -1   2   87.64    2.27
  -3   1   2   84.63    2.70
  -3  -1   3  168.16    3.23
  -3   1   3  184.08    3.99
  -3   1   4  112.19    2.75
  -3   1   5   66.53    1.65
  -3   1   6   17.32    1.40
  -3  -1   6   16.58    1.57
  -3  -1   6   16.47    0.57
  -3   1   6   17.92    0.63
  -3   1   7   19.50    1.60
  -3  -1   7   19.11    1.73
  -3   1   8   10.18    1.56
  -3  -1   8    8.91    1.65
  -3  -3  -7   45.27    1.97
  -3   3  -7   45.12    2.45
  -3   3  -6  109.23    3.37
  -3  -3  -6  110.31    1.89
  -3   3  -6  104.51    2.16
  -3  -3  -6  111.77    2.90
  -3   3  -5  142.28    3.58
  -3  -3  -5  142.80    3.32
  -3   3  -5  144.73    3.80
  -3  -3  -5  151.87    2.61
  -3   3  -4    4.03    1.58
  -3   3  -4    5.07    1.42
  -3  -3  -4    4.31    1.08
  -3  -3  -4    3.37    0.97
  -3   3  -4    3.78    1.27
   3   3  -4    4.21    1.52
  -3   3  -3  281.35    5.54
  -3   3  -3  271.00    5.56
  -3   3  -2  485.41    8.44
   3   3  -2  436.25    7.03
   3   3  -1  265.34    4.42
  -3  -3  -1  266.95    4.26
   3   3   0    7.81    0.67
  -3  -3   0    8.82    0.61
   3   3   2  421.04    6.70
   3   3   3  237.12    4.67
   3   3   4    3.23    1.50
  -3  -3   4    4.17    0.59
  -3   3   4    4.66    1.60
  -3   3   5  147.55    3.51
  -3  -3   5  141.30    2.46
  -3  -3   6  104.84    1.79
  -3   3   6  101.61    2.63
  -3  -3   6  101.41    3.07
  -3   3   7   40.90    1.82
  -3  -3   7   39.94    2.20
  -3   3   8   -0.21    1.10
  -3  -3   8   -0.75    1.51
  -3  -3   9    8.86    1.84
  -3  -5  -6   82.13    2.31
  -3   5  -6   82.25    3.03
  -3  -5  -5    0.13    0.60
  -3   5  -5    0.36    1.36
   3   5  -5    0.21    1.75
  -3  -5  -5    0.22    0.86
  -3   5  -5    1.18    1.50
  -3  -5  -4    0.78    0.63
   3   5  -4    2.10    1.05
  -3   5  -4    3.34    1.54
  -3  -5  -4    0.35    1.03
  -3   5  -4   -0.05    1.23
  -3  -5  -3   -0.23    0.56
  -3   5  -3   -0.19    1.24
  -3  -5  -3    0.19    0.65
   3   5  -3    0.23    0.75
  -3   5  -3    0.02    1.14
  -3   5  -2  268.44    5.50
   3   5  -2  260.92    4.40
   3   5  -1    7.92    0.71
   3   5   0    5.47    0.70
   3   5   2  281.72    4.73
  -3  -5   3    0.25    0.58
   3   5   3   -0.01    0.70
  -3  -5   4    1.15    0.62
   3   5   4    0.25    0.98
  -3  -5   5    0.11    0.59
   3   5   5    1.16    1.80
  -3   5   5   -0.31    1.63
  -3   5   6   73.63    2.05
  -3  -5   6   79.09    2.83
  -3   5   7    0.01    0.92
  -3  -5   7    0.32    1.56
  -3  -5   8    2.49    1.71
  -3   7  -6    2.28    1.43
   3   7  -6    3.16    1.94
  -3  -7  -6    3.51    0.91
   3   7  -5   29.15    1.65
  -3  -7  -5   26.46    1.28
  -3   7  -5   30.78    2.26
  -3  -7  -5   30.68    1.13
  -3   7  -4  243.56    6.28
  -3   7  -4  252.45    5.75
  -3  -7  -4  240.70    4.22
  -3  -7  -3   38.62    1.31
  -3   7  -3   43.50    2.25
   3   7  -3   41.51    1.51
  -3  -7  -3   39.58    1.30
   3   7  -2    9.41    0.83
  -3  -7  -2   10.04    0.78
  -3   7  -1   50.84    2.24
  -3  -7  -1   47.78    1.33
   3   7  -1   48.13    1.41
  -3   7   0  442.05    8.27
  -3  -7   0  452.92    6.81
   3   7   2    9.37    0.84
  -3  -7   2   10.15    0.80
   3   7   3   43.49    1.63
  -3  -7   3   39.19    1.28
   3   7   4  256.59    4.58
  -3  -7   4  239.73    4.06
   3   7   5   32.07    1.81
  -3  -7   5   29.27    1.10
  -3  -7   6    3.46    1.58
  -3   7   6    5.11    1.92
  -3   7   6    3.07    0.71
   3   7   6    5.39    2.30
  -3  -7   7    6.52    1.77
  -3   7   7    6.15    0.54
  -3   7   7    4.36    0.79
  -3   7   7    8.64    1.56
  -3  -7   8   31.39    2.54
   3   9  -6   19.22    1.81
   3   9  -5    5.41    1.46
  -3  -9  -5    3.12    0.78
  -3   9  -5    3.59    1.76
  -3   9  -4  338.19    7.13
   3   9  -4  337.02    5.68
  -3  -9  -4  328.77    5.32
  -3  -9  -3    1.26    0.76
   3   9  -3    1.68    0.86
  -3   9  -2   47.98    2.40
  -3   9  -2   47.64    2.49
  -3  -9  -2   40.32    1.30
  -3  -9  -2   42.67    0.95
  -3   9  -1    6.37    1.34
  -3  -9  -1    4.86    0.76
  -3   9   0  521.15    8.58
  -3  -9   0  461.29    7.12
  -3   9   1    4.73    1.07
  -3   9   2   34.96    1.69
  -3  -9   2   41.01    1.31
   3  -9   3    1.19    1.09
  -3   9   3    0.34    0.72
  -3  -9   3    1.51    0.77
  -3  -9   4  325.66    5.25
   3   9   4  327.53    5.58
  -3   9   5    3.10    0.47
   3   9   5    3.34    1.16
   3  -9   5    4.44    1.53
   3   9   6   16.23    1.59
  -3  -9   6   14.29    1.87
  -3  -9   7    1.37    1.79
  -3   9   7    0.41    2.54
   3  11  -5   10.78    1.39
  -3 -11  -5    7.56    0.70
  -3  11  -4   16.92    2.37
  -3  11  -4   18.73    2.35
   3  11  -4   18.90    1.36
  -3  11  -3   18.65    2.21
  -3 -11  -3   17.11    1.14
  -3  11  -2   28.18    2.20
  -3  11  -2   23.80    2.12
  -3 -11  -2   24.16    1.19
  -3 -11  -1    5.31    0.80
  -3  11  -1    7.56    1.47
  -3 -11   0   40.10    1.44
  -3  11   0   43.40    2.05
  -3  11   1    6.79    1.08
  -3  11   2   20.70    1.19
  -3 -11   2   25.27    1.21
   3 -11   3   18.11    1.65
  -3 -11   3   16.53    1.10
   3 -11   4   19.93    1.74
   3  11   4   19.65    1.28
   3  11   5    9.01    1.31
   3  11   6    9.87    1.38
  -3  11   6    9.85    0.98
  -3 -11   6   10.43    1.92
   3 -11   6   11.05    2.08
  -3 -11   7    1.96    1.94
   3  13  -5   15.28    1.48
  -3  13  -4   10.86    2.40
  -3  13  -3   27.90    2.79
  -3  13  -3   35.25    2.70
  -3 -13  -2  185.00    3.62
  -3  13  -2  185.89    5.44
  -3  13  -1   30.43    2.18
  -3 -13  -1   25.73    1.30
  -3  13  -1   27.00    2.23
  -3 -13   0    6.60    0.77
  -3 -13   0    7.75    0.96
  -3  13   0    7.24    1.46
  -3 -13   1   23.45    1.32
  -3  13   1   23.80    1.49
  -3  13   2  159.39    3.34
  -3 -13   2  186.96    3.51
   3 -13   3   27.54    1.95
  -3 -13   3   26.30    1.86
  -3  13   3   22.43    0.94
   3 -13   4   12.10    1.71
  -3 -13   4   10.26    1.72
  -3 -13   4   11.28    1.81
   3 -13   5   16.49    2.05
   3  13   5   14.24    1.38
  -3  13   6   43.73    1.68
  -3 -13   6   48.88    2.83
   3  13   6   49.06    2.10
   3  15  -5   25.29    1.76
  -3  15  -5   34.18    2.16
  -3  15  -3   53.41    3.59
  -3  15  -2   29.25    2.83
  -3  15  -2   31.15    2.56
  -3  15  -1   58.54    2.78
  -3  15  -1   56.47    3.14
  -3 -15   0    2.65    0.68
  -3  15   0    2.37    1.34
  -3  15   1   48.51    1.96
  -3 -15   1   56.00    1.90
  -3 -15   2   28.20    1.73
  -3  15   2   22.38    1.25
   3 -15   3   54.02    2.53
  -3 -15   3   51.18    2.38
  -3 -15   3   52.13    2.52
  -3 -15   4    3.68    1.65
   3 -15   4    2.98    1.69
  -3 -15   4    2.69    1.74
   3 -15   5   27.78    2.41
  -3  15   5   24.68    1.55
  -3 -15   5   29.40    2.51
   3  15   5   27.55    1.78
  -3  17  -3   -0.12    2.50
  -3 -17  -3    1.20    0.84
  -3  17  -2    2.61    2.36
  -3  17  -1   -0.31    1.98
  -3  17   0   22.56    2.36
  -3 -17   1    0.96    0.97
  -3 -17   2    2.00    1.25
  -3 -17   2    1.32    1.57
  -3 -17   3   -0.42    1.67
  -3 -17   3    0.96    1.33
   3 -17   3    0.99    1.63
   3 -17   4   19.65    2.19
  -3 -17   4   17.66    2.23
  -3 -19  -2    8.08    1.22
  -3  19  -2    9.20    2.99
  -3  19  -1   36.58    3.53
  -3 -19  -1   29.61    1.75
  -3 -19   0    3.31    1.32
  -3  19   0    4.41    2.28
  -3  19   1   31.75    2.74
  -3 -19   1   27.71    2.07
  -3  19   2    7.21    1.86
  -3 -19   2    8.22    1.78
  -3 -19   3   23.27    2.33
   3 -19   4    2.86    2.06
  -3  21  -1    2.14    2.79
  -3 -21  -1    3.20    1.39
  -3  21   0    2.38    2.62
  -3 -21   0    1.58    1.49
  -3  21   1    2.08    2.16
  -3 -21   1    3.68    1.67
  -3 -21   2   20.02    2.22
  -3  21   2   16.66    2.35
  -3 -23   0    1.94    1.63
  -3 -23   1    1.01    1.81
  -4   0  -7    0.73    1.73
  -4   0  -6  150.79    4.11
  -4   0  -5    0.19    0.89
  -4   0  -5   -0.64    1.48
  -4   0  -5   -0.11    1.43
  -4   0  -4  984.44   14.51
  -4   0  -4  969.80   15.50
  -4   0  -4  960.73   15.60
  -4   0  -3    0.58    1.11
  -4   0  -3    0.43    1.65
  -4   0  -3    0.04    1.28
  -4   0  -2  733.52   11.74
  -4   0  -1    1.17    1.11
  -4   0   0 2811.60   38.81
  -4   0   2  729.50   11.58
  -4   0   3   -0.28    1.07
  -4   0   4  964.43   14.31
  -4   0   5    0.97    0.94
  -4   0   7   -0.21    1.26
  -4   0   7   -0.23    0.44
  -4   0   8  126.32    3.51
  -4  -2  -7    2.25    1.51
  -4  -2  -6   21.73    1.91
  -4   2  -6   21.04    2.15
  -4   2  -6   19.10    1.21
  -4  -2  -6   22.09    1.02
  -4  -2  -5    9.17    1.68
  -4   2  -5    7.40    1.88
  -4  -2  -5    6.99    1.52
  -4   2  -5   10.25    1.81
  -4   2  -5    9.37    1.76
  -4   2  -4  446.55    8.94
  -4  -2  -4  441.11    8.38
  -4  -2  -4  468.49    9.23
  -4   2  -4  451.33    8.97
  -4   2  -3   14.93    2.01
  -4   2  -3   20.73    1.89
  -4  -2  -3   21.94    1.28
  -4  -2  -3   16.65    1.40
  -4   2  -3   17.97    1.80
  -4   2  -2  109.98    3.49
  -4  -2  -2   93.37    2.52
  -4   2  -1    2.15    1.23
   4   2  -1    1.82    0.96
  -4  -2  -1    1.31    0.86
  -4  -2   0  761.78   11.30
   4   2   0  660.87   11.39
   4   2   2   65.62    2.43
  -4  -2   2   91.35    2.49
  -4   2   3   22.28    2.00
  -4  -2   3   16.84    1.12
  -4   2   4  532.80    9.27
  -4   2   5    9.15    1.61
  -4  -2   6   21.67    0.99
  -4   2   7    2.09    0.54
  -4   2   7    2.83    1.24
  -4  -2   7    3.03    1.46
  -4   2   8   49.90    2.15
  -4  -2   8   55.80    2.60
  -4   4  -6   39.67    2.01
  -4  -4  -6   46.36    2.25
  -4   4  -6   46.77    2.77
  -4  -4  -6   45.16    1.31
  -4   4  -5  158.18    5.21
  -4   4  -5  157.81    4.60
  -4   4  -5  163.85    4.29
  -4  -4  -5  159.61    3.07
  -4  -4  -4    7.49    1.27
  -4   4  -4    8.25    1.92
  -4   4  -4    6.78    1.62
  -4  -4  -4    7.63    2.03
  -4   4  -4    6.23    1.65
   4   4  -4    7.01    1.80
  -4   4  -3  231.44    5.89
   4   4  -3  236.90    5.05
  -4   4  -2  120.11    4.44
   4   4  -2  163.78    3.33
   4   4  -1  392.40    6.52
  -4  -4   0    1.15    0.67
   4   4   0    1.19    0.83
   4   4   2  164.33    3.51
  -4   4   3  314.99    6.36
   4   4   3  250.28    5.38
  -4   4   4    9.93    2.19
   4   4   4    6.28    1.74
  -4   4   5  198.52    4.71
  -4  -4   5  161.24    3.11
  -4  -4   6   39.57    1.20
  -4   4   6   49.34    2.42
  -4   4   7   42.66    1.81
  -4  -4   7   47.35    2.48
  -4  -4   8    1.38    1.72
  -4  -6  -6   91.99    2.75
  -4   6  -6   88.09    3.03
  -4  -6  -6   88.43    1.97
  -4   6  -5  273.45    7.27
  -4  -6  -5  277.17    5.51
  -4   6  -5  251.76    6.18
   4   6  -5  279.30    6.44
  -4  -6  -5  254.89    4.36
  -4   6  -5  234.78    5.64
  -4  -6  -4   11.73    1.25
  -4   6  -4    9.37    2.03
   4   6  -4    8.70    1.29
  -4   6  -4    9.69    1.87
  -4  -6  -4    9.02    0.93
   4   6  -3  520.11    8.47
  -4   6  -3  562.83   10.51
  -4   6  -3  579.10   10.77
  -4  -6  -3  523.37    8.39
  -4  -6  -3  531.51    8.04
   4   6  -2  385.19    6.37
   4   6  -1  858.08   12.54
   4   6   0   27.91    1.50
   4   6   2  386.89    6.41
   4   6   3  538.86    8.63
  -4  -6   3  535.54    8.11
   4   6   4    9.59    1.47
  -4  -6   4    8.92    0.98
   4   6   5  262.51    6.29
  -4  -6   5  251.37    4.33
  -4   6   6  119.69    3.78
  -4  -6   6   84.98    1.92
  -4   6   7   78.56    2.21
  -4  -6   7   92.26    3.36
  -4  -6   8    1.06    1.80
  -4  -8  -6   63.99    1.76
   4   8  -6   62.12    3.24
  -4   8  -6   59.13    2.74
  -4  -8  -5   36.36    1.43
  -4  -8  -5   38.53    2.04
  -4   8  -5   35.15    3.24
   4   8  -5   34.14    2.02
  -4  -8  -4    1.98    0.92
  -4   8  -4    1.22    2.15
  -4   8  -4    1.53    1.76
   4   8  -4    3.01    1.23
  -4  -8  -3   73.18    1.93
  -4  -8  -3   76.76    2.06
   4   8  -2  160.26    3.32
  -4  -8  -2  151.44    3.05
  -4  -8  -1  111.59    2.47
   4   8  -1  140.60    3.02
  -4  -8   0    0.90    0.68
   4   8   0    0.79    0.89
  -4   8   0   -0.61    1.56
   4   8   2  162.63    3.37
  -4  -8   2  155.48    3.13
  -4  -8   3   74.12    2.07
   4   8   3   94.87    2.78
  -4  -8   4    1.37    0.88
   4   8   4    1.68    1.17
   4   8   5   32.08    1.99
  -4  -8   5   34.19    1.37
  -4   8   6   71.17    3.15
   4   8   6   65.29    3.37
  -4   8   7   26.97    2.77
  -4  -8   7   14.72    1.98
   4  10  -5   42.15    2.10
  -4 -10  -5   46.24    2.05
  -4  10  -5   39.21    3.60
  -4 -10  -5   40.37    1.60
  -4  10  -4   17.38    2.45
  -4 -10  -4   17.73    1.26
   4  10  -4   20.49    1.66
  -4 -10  -3   91.02    2.29
   4  10  -3  119.12    3.06
  -4  10  -2  256.09    6.30
  -4 -10  -2  249.71    4.51
   4  10  -1  163.48    3.40
  -4 -10  -1  165.03    3.27
   4  10   0   20.26    1.25
  -4 -10   0   21.32    1.17
  -4  10   1   95.22    3.48
   4  10   2  286.61    4.67
  -4 -10   2  257.92    4.25
  -4 -10   3   89.85    2.13
   4  10   3  109.30    2.73
  -4 -10   4   16.26    1.19
   4  10   4   19.33    1.70
   4  10   5   36.97    1.95
  -4 -10   5   42.25    1.60
  -4 -10   6   64.68    2.91
   4  10   6   64.73    2.59
  -4 -10   7   16.76    2.22
   4  12  -5   97.86    3.47
  -4  12  -4   33.30    3.44
  -4 -12  -4   27.37    1.51
   4  12  -4   34.15    2.18
  -4  12  -3  125.77    5.11
  -4  12  -3  132.94    4.75
   4  12  -3  127.58    3.16
  -4 -12  -3  118.88    2.81
  -4  12  -2  283.21    6.87
   4  12  -2  288.65    5.11
  -4  12  -1  189.40    5.27
  -4 -12  -1  181.01    3.66
   4  12   0   85.30    2.41
  -4 -12   0   74.79    2.08
  -4  12   1  145.59    4.19
   4  12   1  198.64    3.84
   4  12   2  277.69    4.88
  -4 -12   2  268.75    4.62
   4  12   3  129.52    3.06
  -4 -12   3  120.96    2.69
  -4 -12   4   27.66    1.51
   4  12   4   29.69    1.88
   4  12   5   82.47    2.88
   4  12   6   73.92    2.68
  -4 -12   6   74.90    3.39
   4  14  -4    1.31    1.58
  -4  14  -4    0.53    2.68
  -4  14  -3   23.55    3.19
   4  14  -3   23.85    1.70
  -4 -14  -3   23.19    1.52
  -4  14  -2   40.38    3.09
  -4 -14  -2   38.83    1.71
  -4  14  -2   39.65    3.25
  -4 -14  -1   19.28    0.71
  -4 -14  -1   18.90    1.33
  -4  14  -1   19.30    2.28
  -4  14   0    0.15    1.59
  -4 -14   0   -0.27    0.96
  -4  14   1   15.07    1.65
   4  14   2   41.61    1.95
  -4 -14   2   40.05    1.74
   4  14   3   26.12    1.70
  -4 -14   3   23.25    1.47
   4  14   4    0.02    1.44
  -4  14   4    0.33    0.56
   4  14   5   10.57    1.62
  -4 -14   5   10.34    2.12
  -4  16  -4   82.76    5.27
  -4  16  -3    1.50    2.75
  -4  16  -2   32.66    3.39
  -4  16  -1    4.36    2.33
  -4  16  -1    2.59    2.05
  -4 -16  -1    2.41    1.21
  -4 -16   0  173.34    3.20
  -4 -16   0  166.09    3.62
  -4 -16   1    2.87    1.10
  -4  16   1    2.34    1.40
  -4 -16   2   27.64    1.86
  -4  16   2   24.57    1.56
  -4 -16   3    2.70    1.49
  -4  16   3    1.73    0.82
  -4 -16   4   76.81    3.41
  -4  18  -3    5.90    3.22
  -4  18  -2   35.87    3.86
  -4  18  -1   12.88    2.88
  -4  18   0   98.19    3.49
  -4  18   0   77.38    4.33
  -4  18   1   11.54    1.65
  -4 -18   3    6.64    1.64
  -4 -18   3    7.04    2.06
  -4  20  -3    0.73    3.52
  -4  20  -2    2.00    3.44
  -4  20  -1    0.27    3.03
  -4  20   0    8.93    2.77
  -4 -20   0    9.08    1.67
  -4  20   1   -0.48    2.27
  -4 -20   1    1.65    1.77
  -4 -20   2    1.14    1.84
  -4  22  -2    6.71    3.92
  -4  22  -1   16.43    3.81
  -4  22   0   -0.51    3.03
  -4 -22   0    0.57    1.52
  -4  22   1   13.05    3.09
  -4 -22   1   15.17    1.98
  -5   1  -6   17.89    2.59
  -5  -1  -6   22.03    2.59
  -5   1  -6   21.34    2.61
  -5   1  -5    2.93    1.66
  -5   1  -5    2.30    2.15
  -5  -1  -5    1.91    1.80
  -5  -1  -5    2.70    2.28
  -5   1  -5    3.43    2.39
  -5   1  -4  369.96    7.01
  -5  -1  -4  296.57    9.44
  -5   1  -4  270.98    8.36
  -5  -1  -4  330.36    6.30
  -5   1  -4  360.90    8.14
  -5  -1  -4  340.74    7.47
  -5   1  -3    5.50    1.67
  -5  -1  -3    4.32    1.40
  -5   1  -3    1.16    2.20
  -5  -1  -2   77.16    2.95
  -5   1  -2   79.34    3.06
  -5   1  -1    1.45    1.34
  -5  -1  -1   -0.02    1.19
  -5  -1   0  603.87   10.22
  -5   1   0  643.82   10.71
  -5   1   2   88.59    3.37
  -5  -1   2   84.86    3.16
  -5   1   3    6.09    1.68
  -5  -1   3    4.71    1.27
  -5   1   4  404.80    7.18
  -5  -1   4  310.22    6.13
  -5   1   5    2.10    1.50
  -5  -1   7    1.11    0.83
  -5   1   7    0.35    0.85
  -5   1   8   35.24    2.07
  -5  -1   8   38.06    2.28
  -5   3  -6   14.86    1.64
  -5   3  -6   18.66    2.94
  -5  -3  -6   19.99    2.45
  -5  -3  -6   18.86    1.28
  -5   3  -5    0.05    2.35
  -5  -3  -5    1.11    1.56
  -5  -3  -5    0.92    2.23
  -5   3  -5   -0.61    2.08
  -5   3  -5    0.90    1.64
  -5   3  -4   14.14    2.41
  -5   3  -4   19.13    2.01
  -5  -3  -4   14.53    3.72
  -5   3  -4   20.08    2.75
  -5  -3  -4   16.53    1.83
  -5  -3  -3    2.34    1.12
  -5   3  -3    0.85    2.24
  -5   3  -3    3.95    1.70
  -5  -3  -2   61.31    2.16
   5   3  -2   51.19    2.34
  -5   3  -1    2.02    1.49
  -5  -3  -1    1.88    1.12
   5   3  -1    2.09    1.07
  -5  -3   0   54.47    2.05
   5   3   0   52.24    2.19
  -5  -3   2   63.34    2.13
   5   3   2   55.43    2.38
  -5  -3   3    3.09    1.09
  -5   3   3    3.19    1.91
  -5   3   4   23.50    2.40
  -5   3   5    2.48    1.85
  -5   3   6   17.89    1.98
  -5  -3   6   19.44    1.30
  -5  -3   7    1.33    0.75
  -5  -3   8    5.10    1.67
  -5   5  -6   74.97    2.88
  -5   5  -6   84.11    4.86
  -5  -5  -6   87.10    3.47
  -5  -5  -6   83.88    2.20
  -5  -5  -5   70.92    2.88
  -5   5  -5   68.19    3.77
  -5   5  -5   70.16    3.06
  -5  -5  -5   76.44    2.22
   5   5  -4    8.74    1.90
  -5   5  -4    7.76    2.54
  -5   5  -4    9.21    2.02
  -5  -5  -4    6.81    1.28
  -5   5  -4    6.92    2.48
  -5   5  -3  143.94    4.03
   5   5  -3  126.98    3.66
  -5   5  -2   78.96    4.68
   5   5  -2  189.92    3.84
   5   5  -1  148.25    3.40
   5   5   0    8.63    1.14
   5   5   2  195.84    4.29
  -5   5   3  171.65    4.71
   5   5   3  134.47    4.04
  -5   5   4    9.88    2.22
   5   5   4    7.52    1.95
  -5  -5   5   78.13    2.30
  -5   5   5   89.00    3.56
  -5   5   6   99.15    3.48
  -5  -5   6   80.81    2.14
  -5   5   7   29.48    1.95
  -5  -5   7   26.97    1.12
  -5   7  -6   26.27    2.17
  -5  -7  -6   28.49    1.42
  -5   7  -5   58.17    4.53
   5   7  -5   53.04    3.07
  -5  -7  -5   51.85    1.88
  -5   7  -5   54.61    2.92
  -5  -7  -4    2.36    1.08
  -5   7  -4    1.01    2.71
  -5  -7  -4    3.64    1.14
   5   7  -4    3.08    1.60
  -5   7  -4    1.73    2.06
   5   7  -3   68.93    2.51
  -5  -7  -3   63.17    2.10
  -5   7  -3   72.43    4.39
  -5  -7  -3   70.53    2.12
   5   7  -2   93.59    2.73
  -5   7  -1   35.67    3.22
   5   7  -1   70.67    2.20
   5   7   0    3.79    1.03
   5   7   2   93.83    2.78
   5   7   3   73.78    2.67
  -5  -7   3   74.29    2.21
  -5  -7   4    2.63    1.10
   5   7   4    2.99    1.71
  -5   7   5   56.35    3.03
  -5  -7   5   54.59    1.97
   5   7   5   50.70    3.07
  -5   7   6   35.60    2.67
  -5  -7   6   27.98    1.40
  -5  -7   7   14.09    2.02
  -5   9  -6   11.53    3.68
  -5   9  -6   11.99    2.20
  -5  -9  -6   12.74    1.28
  -5   9  -5   14.95    3.63
   5   9  -5    9.15    1.89
  -5  -9  -5   16.89    3.33
  -5  -9  -5   11.05    1.24
  -5   9  -4   18.48    3.36
  -5  -9  -4   15.28    1.30
   5   9  -4   16.88    1.88
  -5  -9  -4   17.25    1.43
   5   9  -3   12.04    1.59
  -5  -9  -3   13.54    1.37
  -5  -9  -3   12.17    1.08
   5   9  -2   39.66    1.95
  -5  -9  -2   35.13    1.60
  -5  -9  -1   14.07    1.19
   5   9  -1   20.87    1.78
  -5  -9   0   13.56    1.17
   5   9   0   16.57    1.52
   5   9   2   37.18    1.95
  -5  -9   2   34.21    1.62
   5   9   3   13.30    1.59
  -5  -9   3   13.17    1.37
   5   9   4   17.83    1.93
  -5  -9   4   15.68    1.38
   5   9   5   12.15    1.97
  -5  -9   5   11.72    1.35
  -5   9   6   12.18    2.40
   5   9   6   10.51    2.47
  -5  -9   6   12.80    1.25
   5  11  -5   57.81    2.98
  -5 -11  -5   55.07    2.03
  -5 -11  -4    0.15    1.15
   5  11  -4    0.14    1.57
  -5 -11  -3   99.07    2.19
  -5 -11  -3   97.80    2.62
  -5  11  -3   94.78    5.44
  -5 -11  -2   69.19    2.17
   5  11  -2   79.23    2.58
   5  11  -1  130.57    3.19
  -5 -11  -1  116.22    2.79
  -5 -11   0    0.48    0.98
   5  11   0   -0.28    1.20
  -5  11   0    1.44    1.78
  -5  11   1   51.12    3.24
   5  11   1  124.59    3.02
  -5 -11   2   73.97    2.20
   5  11   2   77.35    2.54
   5  11   3  121.14    3.41
  -5 -11   3   99.64    2.49
  -5 -11   4    0.15    1.21
  -5  11   4    0.23    1.07
   5  11   4    0.77    1.55
   5  11   5   57.00    2.70
  -5 -11   5   53.56    1.94
  -5  11   6   25.07    2.29
   5  11   6   20.73    2.34
  -5 -13  -5    6.62    1.39
  -5  13  -4    2.18    3.30
  -5 -13  -4    0.80    1.31
  -5  13  -3    7.54    2.95
  -5 -13  -3    9.00    1.36
  -5  13  -2   36.87    3.34
   5  13  -2   55.15    2.38
  -5 -13  -2   45.29    1.89
  -5 -13  -2   42.59    1.08
  -5  13  -2   29.99    3.52
  -5  13  -1    8.58    2.19
   5  13  -1   12.87    1.61
  -5 -13  -1   10.80    1.20
  -5 -13   0    0.39    0.92
   5  13   0    1.12    1.29
  -5  13   0    1.69    1.74
  -5  13   1    5.17    1.81
   5  13   1   14.91    1.56
   5  13   2   59.56    2.58
  -5 -13   2   47.92    1.92
  -5  13   3    3.27    1.20
  -5 -13   3    8.75    1.36
  -5  13   4    0.02    0.95
  -5 -13   4   -0.10    1.35
  -5 -13   5    7.11    1.45
  -5  15  -4   30.06    4.59
  -5 -15  -4   29.69    1.94
  -5  15  -3    4.55    3.29
  -5 -15  -3    2.21    1.39
  -5  15  -2    1.73    2.83
  -5 -15  -2    1.83    1.25
  -5 -15  -1    2.07    1.14
  -5  15  -1    0.65    2.10
  -5  15   0   28.19    2.72
  -5 -15   0   42.40    1.83
  -5 -15   1    0.80    1.17
  -5  15   1    1.42    1.59
  -5  15   2    0.23    1.30
  -5 -15   2    1.07    1.24
  -5  15   3    1.27    1.11
  -5 -15   3    2.16    1.30
  -5 -15   4   30.01    1.91
  -5  17  -4   45.28    5.25
  -5  17  -3   -0.54    3.50
  -5  17  -2   13.78    3.57
  -5 -17  -2   15.18    1.64
  -5  17  -1   -0.84    2.52
  -5 -17  -1    1.33    1.31
  -5  17   0   50.39    3.13
  -5 -17   0   72.11    2.39
  -5  17   1    0.46    1.58
  -5 -17   1    0.93    1.31
  -5  17   2    9.79    1.47
  -5 -17   2   15.79    1.64
  -5  19  -3    0.61    4.22
  -5  19  -2   -1.01    3.43
  -5  19  -1   -0.92    3.06
  -5  19   0    3.55    2.60
  -5  19   1    0.82    1.54
  -5  21  -2   10.39    4.45
  -5  21  -1    2.15    3.39
  -5  21   0   -0.41    2.89
  -5  21   1    0.36    2.49
  -5  23  -1    5.57    4.18
  -6   0  -6   55.70    3.93
  -6   0  -5   -0.29    1.44
  -6   0  -5   -0.44    2.40
  -6   0  -5   -0.25    3.37
  -6   0  -4    4.82    2.47
  -6   0  -4    2.52    1.62
  -6   0  -4   -1.82    4.11
  -6   0  -3    0.14    2.08
  -6   0  -2  207.94    5.10
  -6   0  -1   -0.16    1.47
  -6   0   0    2.50    1.52
  -6   0   2  207.53    5.13
  -6   0   3    0.66    1.79
  -6   0   4    4.17    1.89
  -6   0   5    0.49    1.52
  -6   0   8    0.32    1.57
  -6   2  -6   87.40    5.03
  -6  -2  -6   72.79    3.73
  -6   2  -5   95.46    5.26
  -6  -2  -5   87.98    3.98
  -6  -2  -5   79.96    6.28
  -6   2  -5   92.37    3.43
  -6   2  -4   14.08    2.13
  -6   2  -4   16.80    3.30
  -6  -2  -4    3.54    5.11
  -6   2  -4    1.99    3.04
  -6  -2  -4   10.20    1.61
  -6  -2  -4   14.08    2.34
  -6   2  -3  212.31    5.17
  -6  -2  -3  160.07    4.16
  -6   2  -2  287.37    6.23
  -6  -2  -2  276.34    5.96
  -6   2  -1  306.25    6.41
  -6  -2  -1  268.50    5.76
  -6   2   0   39.75    2.50
  -6  -2   0   36.95    2.11
  -6   2   2  320.42    6.80
  -6  -2   2  285.61    6.27
  -6   2   3  214.60    5.24
  -6  -2   3  153.69    4.07
  -6   2   4   15.49    2.09
  -6  -2   4   11.94    1.65
  -6   2   5  103.00    3.57
  -6   2   6   67.96    2.77
  -6  -2   8    0.93    1.75
  -6   4  -6   56.01    2.74
  -6  -4  -6   56.13    2.13
  -6  -4  -5   74.81    3.51
  -6  -4  -5   82.18    6.95
  -6   4  -5   83.81    3.32
  -6   4  -4    9.74    3.47
  -6  -4  -4    4.61    1.70
  -6   4  -4    4.64    1.80
  -6   4  -4    1.50    2.69
  -6   4  -3   54.27    5.63
  -6   4  -3  176.42    4.68
   6   4  -2  147.80    4.21
  -6  -4  -2  179.62    4.18
  -6  -4  -1  174.18    3.98
   6   4  -1  150.65    4.16
  -6  -4   0   13.87    1.42
  -6   4   0   16.84    2.16
   6   4   2  153.03    4.40
  -6  -4   2  177.14    4.13
  -6   4   3  210.33    5.73
  -6   4   4    8.31    2.19
  -6   4   5   96.67    3.68
  -6   4   6   64.58    3.07
  -6  -4   6   61.92    2.29
  -6  -6  -6    0.77    1.23
  -6   6  -6   -0.16    1.77
  -6   6  -6   -0.10    4.04
  -6  -6  -5   15.97    1.90
  -6   6  -5   25.44    4.65
  -6   6  -5   17.35    2.19
  -6  -6  -5   22.61    6.69
  -6  -6  -5   19.09    1.64
   6   6  -4   38.96    2.78
  -6  -6  -4   44.16    2.36
   6   6  -3   19.62    2.22
  -6   6  -3   23.06    2.12
  -6   6  -2    3.80    1.71
   6   6  -2    2.49    1.43
   6   6  -1   17.63    1.59
   6   6   0   54.64    2.23
   6   6   1   20.03    1.71
  -6   6   2    7.46    2.18
   6   6   2    2.77    1.53
   6   6   3   18.58    2.23
  -6   6   3   27.34    2.61
   6   6   4   42.25    2.88
  -6  -6   4   45.27    1.98
  -6   6   5   21.70    2.45
  -6  -6   5   17.24    1.71
  -6   6   6    0.38    2.05
  -6  -6   6    2.16    1.29
  -6   8  -6   22.23    2.33
  -6   8  -6   26.45    5.46
  -6  -8  -6   19.52    1.50
  -6  -8  -5    5.01    1.42
  -6   8  -5    4.55    2.38
  -6   8  -5    4.09    4.57
   6   8  -5    5.44    2.30
  -6  -8  -5    5.27    1.43
  -6  -8  -5    4.95    5.46
  -6  -8  -4  184.86    4.41
  -6   8  -4  225.06    5.79
   6   8  -4  200.46    5.56
  -6  -8  -4  212.76    4.47
  -6   8  -4  228.14    9.71
   6   8  -3    7.00    1.64
  -6  -8  -3   13.36    1.50
   6   8  -2   94.09    3.03
  -6  -8  -2   95.90    2.64
   6   8  -1   10.63    1.68
  -6   8  -1    3.43    2.91
   6   8   0  422.33    7.78
   6   8   1   10.24    1.66
   6   8   2   92.30    3.08
  -6  -8   2   95.68    2.67
   6   8   3    9.03    1.75
  -6  -8   3    8.11    1.44
  -6   8   4  219.81    5.60
  -6  -8   4  217.00    4.55
  -6  -8   5    6.19    1.48
  -6   8   5    6.00    2.23
   6   8   5    4.71    2.30
  -6   8   6   23.95    2.57
  -6  -8   6   21.61    1.56
  -6  10  -6   15.08    2.83
  -6 -10  -6   10.76    1.48
  -6 -10  -5    2.30    1.34
  -6  10  -5    2.10    4.46
  -6  10  -5    1.80    2.34
  -6 -10  -4  122.90    3.23
  -6 -10  -4  140.64    3.54
  -6  10  -4  142.40    8.32
  -6 -10  -3    3.20    1.46
   6  10  -3    3.74    1.91
  -6 -10  -3    1.72    1.00
   6  10  -2   42.57    2.28
  -6 -10  -2   42.16    1.99
  -6 -10  -1    7.09    1.28
   6  10  -1   10.59    1.60
   6  10   0  233.85    4.82
  -6 -10   0  216.52    4.31
   6  10   1    8.27    1.51
  -6  10   1    3.40    2.43
   6  10   2   43.72    2.31
  -6 -10   2   44.68    2.02
  -6 -10   3    4.29    1.45
   6  10   3    5.38    1.87
   6  10   4  117.83    3.94
  -6 -10   4  138.73    3.47
  -6 -10   5    2.38    1.33
  -6  10   5    2.56    1.88
  -6 -10   6   12.38    1.50
  -6  10   6   11.68    2.38
  -6 -12  -5    7.15    1.55
  -6 -12  -4   15.15    1.58
  -6  12  -3    8.86    3.92
  -6 -12  -3   10.07    1.47
  -6 -12  -3   10.61    1.03
  -6 -12  -2    3.32    1.38
  -6  12  -1    5.23    2.67
  -6 -12  -1   12.22    1.42
  -6  12   0    7.53    2.29
  -6 -12   0   20.62    1.58
  -6  12   1    5.05    2.22
  -6 -12   2    2.96    1.38
  -6  12   2    1.44    1.88
  -6  12   3    5.62    1.90
  -6 -12   3   10.87    1.49
  -6  12   4    5.21    1.58
  -6 -12   4   16.58    1.67
  -6 -12   5    6.14    1.54
  -6  12   6    0.06    1.89
  -6 -12   6    2.16    1.41
  -6 -14  -5   33.50    1.98
  -6  14  -4    1.22    4.37
  -6 -14  -4    1.77    1.55
  -6 -14  -3   60.36    2.38
  -6  14  -3   32.01    5.07
  -6  14  -2    4.59    2.77
  -6 -14  -2   18.38    1.71
  -6 -14  -1   76.53    2.44
  -6 -14   0    0.02    1.19
  -6  14   0    0.05    2.08
  -6  14   1   33.37    3.02
  -6 -14   1   75.58    2.37
  -6  14   2    6.69    1.84
  -6 -14   2   19.21    1.66
  -6  14   3   18.68    1.87
  -6 -14   3   64.75    2.42
  -6 -14   4    1.55    1.45
  -6 -14   5   32.50    1.99
  -6 -16  -4    1.37    1.56
  -6  16  -3   12.48    4.47
  -6 -16  -3   23.64    1.93
  -6  16  -2   -0.23    2.80
  -6 -16  -2    6.91    1.59
  -6 -16  -1   30.47    1.85
  -6 -16   0    2.33    1.31
  -6  16   1   11.80    2.14
  -6 -16   1   30.66    1.83
  -6  16   2    0.85    1.46
  -6 -16   2    6.49    1.57
  -6 -16   3   28.54    2.01
  -6 -16   4    1.28    1.68
  -6  18  -2    3.48    3.54
  -6  18  -1   -0.54    2.66
  -6  20  -1    3.65    3.41
  -6  20   0    0.50    2.90
  -7   1  -6   31.68    4.37
  -7  -1  -6   25.93    3.45
  -7   1  -6   19.60    1.91
  -7  -1  -5   19.74    3.33
  -7   1  -5   19.34    4.01
  -7   1  -5   18.33    2.15
  -7   1  -4   -1.10    3.47
  -7  -1  -4   -0.55    2.88
  -7  -1  -4    0.03    1.66
  -7   1  -4    1.37    2.02
  -7   1  -3   40.70    2.68
  -7  -1  -3   44.75    2.97
  -7   1  -2   91.11    3.44
  -7  -1  -2   86.42    3.30
  -7   1  -1   51.54    2.79
  -7  -1  -1   49.62    2.84
  -7   1   0   -0.16    1.79
  -7  -1   0    0.71    1.82
  -7   1   2   99.62    3.74
  -7  -1   2   84.67    3.33
  -7   1   3   46.38    2.92
  -7  -1   3   41.45    2.73
  -7  -1   4    0.34    1.77
  -7   1   4   -0.33    1.89
  -7   1   5   18.83    2.30
  -7  -3  -6   31.12    3.06
  -7   3  -6   31.11    2.30
  -7   3  -5   70.95    6.39
  -7   3  -5   77.77    3.71
  -7   3  -4    1.10    4.16
  -7  -3  -4    2.25    2.24
  -7   3  -4    1.31    1.90
  -7   3  -3  116.12    4.09
  -7  -3  -3   89.75    3.26
  -7   3  -2  117.99    3.88
  -7  -3  -2  103.82    3.41
  -7   3  -1  130.45    4.20
  -7  -3  -1  122.39    3.76
  -7  -3   0    2.67    1.64
  -7   3   0    2.60    1.83
  -7   3   2  145.78    4.51
  -7  -3   2  104.94    3.44
  -7   3   3  121.84    4.27
  -7  -3   3   86.99    3.17
  -7   3   4    2.65    2.15
  -7   3   5   74.62    3.62
  -7   3   6   39.21    2.74
  -7  -5  -6    9.02    1.67
  -7   5  -6   15.40    5.81
  -7  -5  -6    7.36    2.30
  -7   5  -6   11.62    2.55
  -7   5  -5   12.23    2.20
  -7   5  -5   13.85    5.68
  -7  -5  -5    9.81    2.09
  -7   5  -4    6.67    4.97
  -7  -5  -4    3.69    1.79
  -7   5  -4    5.88    2.05
  -7   5  -3   22.79    2.39
   7   5  -2   17.93    2.13
  -7   5  -2   29.00    2.61
   7   5  -1   18.36    1.91
  -7   5  -1   32.78    2.80
   7   5   0    8.08    1.58
  -7   5   0   16.52    2.65
   7   5   1   20.16    1.95
   7   5   2   16.68    2.15
  -7   5   2   29.71    2.88
  -7   5   3   24.97    2.66
  -7   5   4    8.68    2.52
  -7   5   5   16.12    2.47
  -7  -5   5   11.08    1.76
  -7   5   6   11.78    2.53
  -7  -5   6   11.57    1.83
  -7  -7  -5    0.27    1.63
  -7   7  -5    2.66    6.11
  -7   7  -5    0.26    1.99
  -7  -7  -5    1.10    1.74
  -7   7  -4   75.32    8.36
  -7  -7  -4   72.69    3.16
  -7  -7  -4   88.23    3.07
  -7   7  -3    0.04    1.98
  -7   7  -2   21.20    2.33
   7   7  -2   17.10    2.26
  -7   7  -1    0.96    1.88
   7   7  -1   -0.34    1.71
  -7   7   0  173.57    5.00
   7   7   0  126.18    4.10
   7   7   1    0.28    1.67
  -7   7   1    0.52    2.03
   7   7   2   16.25    2.29
  -7   7   2   19.43    2.63
  -7   7   3    0.04    2.60
  -7   7   4  108.76    4.17
  -7  -7   4   86.15    3.06
  -7  -7   5    0.91    1.73
  -7   7   5    0.55    2.15
  -7   7   6    8.19    2.28
  -7  -7   6    5.87    1.77
  -7  -9  -5    0.28    1.69
  -7   9  -5    1.69    2.43
  -7  -9  -4  109.85    3.43
  -7   9  -4   86.30    9.35
  -7   9  -4  121.64    4.56
  -7  -9  -4   85.30    3.07
  -7   9  -3    0.72    2.17
  -7  -9  -3   -1.39    1.53
  -7  -9  -2   31.71    2.02
  -7  -9  -1    0.53    1.30
  -7   9   0  109.90    6.80
  -7  -9   0  135.58    3.46
  -7  -9   1   -0.91    1.35
  -7  -9   2   30.24    1.99
  -7  -9   3   -0.35    1.61
  -7   9   3    0.82    2.20
  -7  -9   4  105.34    3.39
  -7   9   4  116.94    4.33
  -7  -9   5   -0.11    1.67
  -7   9   5    0.30    2.19
  -7   9   6   10.13    2.42
  -7  -9   6   10.27    1.68
  -7 -11  -5    0.68    1.63
  -7  11  -5    2.97    2.91
  -7  11  -4    9.31    6.16
  -7 -11  -4   11.80    1.90
  -7 -11  -3    1.31    1.69
  -7 -11  -3    1.26    1.10
  -7 -11  -2    2.19    1.55
  -7 -11  -1    2.63    1.43
  -7 -11   0   22.61    1.82
  -7 -11   1    1.74    1.47
  -7  11   1    0.38    2.72
  -7 -11   2    1.15    1.51
  -7  11   2   -0.06    2.51
  -7 -11   3    1.97    1.68
  -7  11   4   13.19    2.54
  -7 -11   4   15.09    1.97
  -7 -11   5    1.35    1.66
  -7  11   5    1.78    2.21
  -7 -11   6   -0.49    1.67
  -7  11   6    0.59    2.13
  -7 -13  -5   10.79    1.93
  -7  13  -5   19.94    3.94
  -7 -13  -4    1.11    1.76
  -7  13  -3    1.75    3.94
  -7 -13  -3   17.84    1.90
  -7 -13  -2   30.91    2.10
  -7 -13  -1   24.86    1.97
  -7 -13   0    0.61    1.48
  -7 -13   1   22.37    1.98
  -7  13   2   13.78    2.74
  -7 -13   2   31.16    2.07
  -7  13   3    6.92    2.05
  -7 -13   3   20.13    1.93
  -7 -13   4    0.02    1.67
  -7  13   5    9.90    2.20
  -7 -13   5   12.32    1.97
  -7  15  -2    1.47    3.32
  -7 -15  -2   18.00    1.90
  -7 -15  -1   17.16    1.74
  -7 -15   0    0.45    1.40
  -7 -15   1   16.65    1.74
  -7 -15   2   18.72    1.98
  -7 -15   3   15.36    1.97
  -8   0  -6    9.63    4.04
  -8   0  -5   -0.58    1.89
  -8   0  -5   -1.45    3.46
  -8   0  -4  124.65    4.04
  -8   0  -4   44.42    4.64
  -8   0  -3   -0.59    1.98
  -8   0  -2   52.94    3.09
  -8   0  -1   -0.61    2.05
  -8   0   0  318.79    7.60
  -8   0   1   -0.70    2.26
  -8   0   2   55.90    3.22
  -8   0   3   -0.38    2.18
  -8   0   4  132.79    4.36
  -8   0   5    0.33    1.95
  -8  -2  -6   -0.34    3.24
  -8   2  -5    0.96    4.89
  -8  -2  -5   -1.05    3.16
  -8   2  -5    1.71    2.37
  -8   2  -4   18.06    4.56
  -8  -2  -4   52.20    2.86
  -8  -2  -4   28.49    3.62
  -8   2  -4   65.30    3.31
  -8  -2  -3    2.54    1.94
  -8   2  -3    2.07    2.10
  -8  -2  -2    7.82    2.00
  -8   2  -2    7.42    2.07
  -8   2  -1    1.02    2.00
  -8  -2  -1    0.94    1.92
  -8   2   0  129.35    4.26
  -8  -2   0  119.60    3.99
  -8   2   1    1.78    2.06
  -8  -2   1    0.57    1.82
  -8  -2   2    6.77    2.07
  -8   2   2    9.11    2.25
  -8  -2   3    0.48    1.84
  -8   2   3    2.54    2.38
  -8   2   4   70.36    3.52
  -8   2   5    1.93    2.40
  -8   2   6    1.38    2.04
  -8   4  -5   19.75    6.84
  -8  -4  -5   11.11    2.81
  -8   4  -5   19.04    3.00
  -8  -4  -4    1.55    2.19
  -8   4  -4    1.43    4.38
  -8   4  -4    4.60    2.17
  -8   4  -3   35.06    2.70
  -8   4  -2   22.44    2.57
  -8   4  -1   38.70    2.74
  -8  -4  -1   37.62    2.47
  -8  -4   0    3.79    1.66
  -8   4   0    5.14    2.11
  -8   4   1   46.96    3.06
  -8  -4   1   38.26    2.43
  -8   4   2   27.78    2.99
  -8   4   3   35.28    3.10
  -8   4   4    5.90    2.43
  -8   4   5   23.27    2.85
  -8  -4   6    6.12    2.00
  -8   4   6    7.08    2.43
  -8   6  -5   33.82    2.77
  -8  -6  -5   27.55    2.39
  -8   6  -4   -0.40    2.30
  -8   6  -4   -1.13    5.24
  -8  -6  -4    1.83    2.00
  -8   6  -3   62.03    3.28
  -8   6  -2   37.07    2.88
  -8   6  -1   95.16    4.02
  -8   6   0   -0.08    2.21
  -8   6   1  101.99    4.45
  -8   6   2   37.64    3.20
  -8   6   3   76.85    3.76
  -8   6   4   -0.53    2.52
  -8   6   5   32.87    2.76
  -8  -6   5   27.85    2.49
  -8  -6   6   11.22    2.14
  -8   6   6   12.44    2.66
  -8  -8  -5    8.19    2.14
  -8   8  -5    8.27    2.62
  -8  -8  -4    1.55    1.90
  -8   8  -4   -3.20    6.28
  -8   8  -4    1.16    2.23
  -8  -8  -3   11.58    1.95
  -8   8  -3   15.23    2.79
  -8   8  -2   29.33    3.14
  -8   8  -1   21.64    2.77
  -8   8   0    0.42    2.27
  -8   8   1   22.92    2.96
  -8   8   2   34.52    3.39
  -8   8   3   18.38    3.07
  -8  -8   3   11.18    1.92
  -8  -8   4    0.42    1.78
  -8   8   4    0.52    2.31
  -8  -8   5    6.08    2.12
  -8   8   5    8.86    2.56
  -8  -8   6    9.92    2.13
  -8   8   6    9.84    2.37
  -8 -10  -5    1.91    1.92
  -8  10  -5    1.41    2.57
  -8 -10  -4    2.33    2.04
  -8  10  -4    2.22    2.87
  -8 -10  -3    4.38    1.98
  -8  10  -3    4.27    2.66
  -8  10  -2   47.25    3.39
  -8 -10  -2   37.29    2.48
  -8 -10  -1    4.71    1.75
  -8  10  -1    9.24    2.60
  -8 -10   0    3.81    1.59
  -8  10   0    3.20    2.37
  -8 -10   1    5.85    1.74
  -8  10   1    8.58    2.66
  -8  10   2   48.67    3.35
  -8 -10   2   34.08    2.33
  -8 -10   3    4.67    1.94
  -8  10   3    3.14    2.65
  -8 -10   4    1.33    2.08
  -8  10   4    0.78    2.65
  -8 -10   5    2.55    1.99
  -8  10   5    0.28    2.17
  -8 -12  -3   10.96    2.07
  -8 -12  -2   48.81    2.74
  -8 -12  -1   14.36    1.95
  -8 -12   0    9.53    1.81
  -8 -12   1   13.48    1.98
  -8 -12   2   48.03    2.78
  -8 -12   3    9.80    2.03
  -8  12   3   11.48    2.90
  -9   1  -5    0.52    2.04
  -9  -1  -5    0.19    3.29
  -9  -1  -4    3.68    2.33
  -9   1  -4    4.14    2.89
  -9  -1  -4   57.19    3.03
  -9   1  -4   66.75    3.27
  -9  -1  -3    0.69    1.97
  -9   1  -3    0.95    2.07
  -9  -1  -2   18.00    2.42
  -9   1  -2   22.22    2.64
  -9  -1  -1    2.07    2.21
  -9   1  -1    0.60    2.22
  -9  -1   0  125.06    4.59
  -9   1   0  136.52    5.10
  -9  -1   1    0.34    2.19
  -9   1   1    0.52    2.48
  -9  -1   2   19.81    2.63
  -9   1   2   23.32    2.76
  -9  -1   3   -1.67    2.16
  -9   1   3    0.26    2.30
  -9  -1   4   61.49    3.37
  -9   1   4   67.63    3.50
  -9   1   5    1.64    2.21
  -9  -3  -5    4.30    2.89
  -9   3  -5    5.03    2.57
  -9  -3  -4    3.32    2.05
  -9   3  -4    3.46    3.87
  -9   3  -4   12.51    2.68
  -9   3  -3   11.56    2.45
  -9  -3  -2    2.25    2.06
  -9   3  -2    2.30    2.12
  -9   3  -1   14.32    2.36
  -9  -3  -1   12.13    2.15
  -9   3   0   18.22    2.53
  -9  -3   0   18.43    2.20
  -9   3   1   17.01    2.61
  -9  -3   1   13.03    2.12
  -9  -3   2    2.23    2.06
  -9   3   2    1.56    2.48
  -9   3   3   12.08    2.66
  -9   3   4   11.88    2.76
  -9   3   5    6.76    2.41
  -9  -5  -4    1.61    2.16
  -9   5  -4    0.20    2.33
  -9   5  -3   36.01    2.97
  -9   5  -2   36.86    3.11
  -9   5  -1   47.93    3.36
  -9   5   0    2.10    2.45
  -9   5   1   55.17    3.68
  -9   5   2   40.06    3.46
  -9   5   3   40.02    3.16
  -9   5   4    0.82    2.57
  -9   7  -3   14.44    2.63
  -9   7  -2   32.16    2.94
  -9   7  -1   17.23    2.65
  -9   7   0    0.83    2.24
  -9   7   1   19.18    2.81
  -9   7   2   36.31    3.24
  -9   7   3   17.26    2.76
  -9   9   0    0.73    2.89
  -9   9   1    3.87    2.95
  -9  -9   1    2.40    1.83
   0   0   0    0.00    0.00
;
_shelx_hkl_checksum              28582
loop_
_space_group_symop_operation_xyz
'x, y, z'
'-x, -y, z+1/2'
'-x, y, -z+1/2'
'x, -y, -z'
'x+1/2, y+1/2, z'
'-x+1/2, -y+1/2, z+1/2'
'-x+1/2, y+1/2, -z+1/2'
'x+1/2, -y+1/2, -z'
loop_
_atom_site_label
_atom_site_type_symbol
_atom_site_fract_x
_atom_site_fract_y
_atom_site_fract_z
_atom_site_U_iso_or_equiv
_atom_site_adp_type
_atom_site_occupancy
_atom_site_site_symmetry_order
_atom_site_calc_flag
_atom_site_refinement_flags_posn
_atom_site_refinement_flags_adp
_atom_site_refinement_flags_occupancy
_atom_site_disorder_assembly
_atom_site_disorder_group
Mn1 Mn 0.5005(9) 0.5000 1.0000 0.0338(5) Uani 1 2 d S T P . .
Br1 Br 0.5000 0.61782(5) 0.7500 0.0437(4) Uani 1 2 d S T P . .
Br2 Br 0.73424(11) 0.44437(4) 0.7507(3) 0.0428(4) Uani 1 1 d . . . . .
F1 F 0.835(2) 0.245(2) 0.222(5) 0.112(9) Uani 0.25 1 d D U P . .
F1' F 0.809(5) 0.255(3) 0.161(5) 0.112(9) Uani 0.25 1 d D U P . .
N1 N 0.974(5) 0.3811(9) 0.347(5) 0.049(10) Uani 0.5 1 d D U P . .
H1A H 1.0543 0.4079 0.4083 0.059 Uiso 0.5 1 d R U P . .
H1B H 0.8717 0.4005 0.3763 0.059 Uiso 0.5 1 d R U P . .
C1 C 0.974(4) 0.3057(11) 0.425(3) 0.053(8) Uani 0.5 1 d D U P . .
H1C H 0.8711 0.2910 0.4893 0.063 Uiso 0.5 1 d R U P . .
H1D H 1.0671 0.2979 0.5142 0.063 Uiso 0.5 1 d R U P . .
C2 C 1.0000 0.2579(8) 0.2500 0.119(7) Uani 1 2 d DS TU P . .
H2A H 1.0874 0.2220 0.2253 0.142 Uiso 0.5 1 d R U P . .
C3 C 0.928(5) 0.2993(16) 0.085(4) 0.14(2) Uani 0.5 1 d D U P . .
H3A H 0.8072 0.2999 0.1010 0.174 Uiso 0.5 1 d R U P . .
H3B H 0.9560 0.2849 -0.0484 0.174 Uiso 0.5 1 d R U P . .
C4 C 0.990(8) 0.3753(13) 0.129(5) 0.073(17) Uani 0.5 1 d D U P . .
H4A H 1.1084 0.3763 0.0969 0.087 Uiso 0.5 1 d R U P . .
H4B H 0.9340 0.4164 0.0665 0.087 Uiso 0.5 1 d R U P . .
loop_
_atom_site_aniso_label
_atom_site_aniso_U_11
_atom_site_aniso_U_22
_atom_site_aniso_U_33
_atom_site_aniso_U_23
_atom_site_aniso_U_13
_atom_site_aniso_U_12
Mn1 0.0359(10) 0.0449(9) 0.0205(7) -0.0013(5) 0.000 0.000
Br1 0.0625(9) 0.0371(6) 0.0315(6) 0.000 -0.001(2) 0.000
Br2 0.0405(6) 0.0594(6) 0.0286(5) -0.0020(12) 0.0004(12) 0.0132(3)
F1 0.105(15) 0.106(12) 0.126(19) -0.028(14) -0.040(13) 0.013(12)
F1' 0.105(15) 0.106(12) 0.126(19) -0.028(14) -0.040(13) 0.013(12)
N1 0.05(2) 0.050(12) 0.048(12) 0.003(9) -0.017(13) 0.028(13)
C1 0.044(15) 0.057(10) 0.057(10) 0.027(8) 0.016(9) -0.015(10)
C2 0.114(13) 0.086(9) 0.155(13) 0.000 0.001(13) 0.000
C3 0.14(3) 0.14(3) 0.16(3) -0.01(2) 0.02(2) 0.00(2)
C4 0.08(3) 0.10(3) 0.044(15) 0.025(16) -0.02(2) 0.00(2)
loop_
_atom_type_symbol
_atom_type_description
_atom_type_scat_dispersion_real
_atom_type_scat_dispersion_imag
_atom_type_scat_source
C C 0.0033 0.0016 'International Tables Vol C Tables 4.2.6.8 and 6.1.1.4'
H H 0.0000 0.0000 'International Tables Vol C Tables 4.2.6.8 and 6.1.1.4'
N N 0.0061 0.0033 'International Tables Vol C Tables 4.2.6.8 and 6.1.1.4'
F F 0.0171 0.0103 'International Tables Vol C Tables 4.2.6.8 and 6.1.1.4'
Mn Mn 0.3368 0.7283 'International Tables Vol C Tables 4.2.6.8 and 6.1.1.4'
Br Br -0.2901 2.4595 'International Tables Vol C Tables 4.2.6.8 and 6.1.1.4'
loop_
_geom_angle_atom_site_label_1
_geom_angle_atom_site_label_2
_geom_angle_atom_site_label_3
_geom_angle
_geom_angle_site_symmetry_1
_geom_angle_site_symmetry_3
_geom_angle_publ_flag
Br2 Mn1 Br2 93.5(2) . 4_567 ?
Br2 Mn1 Br2 86.53(3) . 3_656 ?
Br2 Mn1 Br2 179.89(10) 4_567 3_656 ?
Br2 Mn1 Br2 179.89(10) . 2_665 ?
Br2 Mn1 Br2 86.53(3) 4_567 2_665 ?
Br2 Mn1 Br2 93.5(2) 3_656 2_665 ?
Br2 Mn1 Br1 95.67(12) . 2_665 ?
Br2 Mn1 Br1 84.44(9) 4_567 2_665 ?
Br2 Mn1 Br1 95.67(12) 3_656 2_665 ?
Br2 Mn1 Br1 84.23(9) 2_665 2_665 ?
Br2 Mn1 Br1 84.44(9) . . ?
Br2 Mn1 Br1 95.67(12) 4_567 . ?
Br2 Mn1 Br1 84.23(9) 3_656 . ?
Br2 Mn1 Br1 95.67(12) 2_665 . ?
Br1 Mn1 Br1 179.8(3) 2_665 . ?
Mn1 Br1 Mn1 76.99(3) 2_664 . ?
Mn1 Br2 Mn1 77.53(2) . 2_664 ?
F1' F1 C2 117(6) . . ?
F1' F1 C3 57(5) . . ?
C2 F1 C3 60.4(14) . . ?
F1 F1' C3 105(6) . . ?
F1 F1' C2 47(4) . . ?
C3 F1' C2 58.0(15) . . ?
C4 N1 N1 101(10) 3_755 3_755 ?
C4 N1 C1 63(9) 3_755 . ?
N1 N1 C1 110.1(15) 3_755 . ?
C4 N1 C4 112(10) 3_755 . ?
N1 N1 C4 13(3) 3_755 . ?
C1 N1 C4 107.0(14) . . ?
C4 N1 C3 41(6) 3_755 3_755 ?
N1 N1 C3 97(3) 3_755 3_755 ?
C1 N1 C3 26.7(18) . 3_755 ?
C4 N1 C3 100(2) . 3_755 ?
C3 C1 C4 85(4) 3_755 3_755 ?
C3 C1 N1 96(4) 3_755 . ?
C4 C1 N1 13(4) 3_755 . ?
C3 C1 C2 73(2) 3_755 . ?
C4 C1 C2 108(2) 3_755 . ?
N1 C1 C2 104.9(12) . . ?
F1 C2 F1 160(4) 3_755 . ?
F1 C2 C3 125(3) 3_755 . ?
F1 C2 C3 66.6(18) . . ?
F1 C2 C3 66.6(18) 3_755 3_755 ?
F1 C2 C3 125(3) . 3_755 ?
C3 C2 C3 118(2) . 3_755 ?
F1 C2 C1 95(2) 3_755 3_755 ?
F1 C2 C1 97.1(17) . 3_755 ?
C3 C2 C1 30.9(18) . 3_755 ?
C3 C2 C1 105.1(13) 3_755 3_755 ?
F1 C2 C1 97.1(17) 3_755 . ?
F1 C2 C1 95(2) . . ?
C3 C2 C1 105.1(13) . . ?
C3 C2 C1 30.9(18) 3_755 . ?
C1 C2 C1 108.5(18) 3_755 . ?
F1 C2 F1' 15.9(11) 3_755 3_755 ?
F1 C2 F1' 162(2) . 3_755 ?
C3 C2 F1' 131(2) . 3_755 ?
C3 C2 F1' 50.8(8) 3_755 3_755 ?
C1 C2 F1' 101(2) 3_755 3_755 ?
C1 C2 F1' 81.2(15) . 3_755 ?
F1 C2 F1' 162(2) 3_755 . ?
F1 C2 F1' 15.9(11) . . ?
C3 C2 F1' 50.8(8) . . ?
C3 C2 F1' 131(2) 3_755 . ?
C1 C2 F1' 81.2(15) 3_755 . ?
C1 C2 F1' 101(2) . . ?
F1' C2 F1' 177(3) 3_755 . ?
C1 C3 F1' 145(4) 3_755 . ?
C1 C3 C2 76(3) 3_755 . ?
F1' C3 C2 71.2(19) . . ?
C1 C3 C4 64(4) 3_755 . ?
F1' C3 C4 135(4) . . ?
C2 C3 C4 100.9(17) . . ?
C1 C3 F1 128(3) 3_755 . ?
F1' C3 F1 18.3(10) . . ?
C2 C3 F1 53.0(10) . . ?
C4 C3 F1 129(3) . . ?
C1 C3 N1 57(3) 3_755 3_755 ?
F1' C3 N1 136(4) . 3_755 ?
C2 C3 N1 93(2) . 3_755 ?
C4 C3 N1 9(3) . 3_755 ?
F1 C3 N1 127(3) . 3_755 ?
N1 C4 C1 104(10) 3_755 3_755 ?
N1 C4 N1 65(10) 3_755 . ?
C1 C4 N1 110.8(19) 3_755 . ?
N1 C4 C3 130(8) 3_755 . ?
C1 C4 C3 32(2) 3_755 . ?
N1 C4 C3 103.8(16) . . ?
N1 C4 C4 57(9) 3_755 3_755 ?
C1 C4 C4 104(2) 3_755 3_755 ?
N1 C4 C4 11(3) . 3_755 ?
C3 C4 C4 103.5(19) . 3_755 ?
loop_
_geom_bond_atom_site_label_1
_geom_bond_atom_site_label_2
_geom_bond_distance
_geom_bond_site_symmetry_2
_geom_bond_publ_flag
Mn1 Br2 2.690(5) . ?
Mn1 Br2 2.690(5) 4_567 ?
Mn1 Br2 2.701(5) 3_656 ?
Mn1 Br2 2.701(5) 2_665 ?
Mn1 Br1 2.7115(8) 2_665 ?
Mn1 Br1 2.7116(8) . ?
Br1 Mn1 2.7116(8) 2_664 ?
Br2 Mn1 2.701(5) 2_664 ?
F1 F1' 0.5000(14) . ?
F1 C2 1.339(13) . ?
F1 C3 1.54(4) . ?
F1' C3 1.332(13) . ?
F1' C2 1.63(3) . ?
N1 C4 0.35(8) 3_755 ?
N1 N1 1.37(7) 3_755 ?
N1 C1 1.457(19) . ?
N1 C4 1.479(19) . ?
N1 C3 1.73(5) 3_755 ?
C1 C3 0.78(5) 3_755 ?
C1 C4 1.34(5) 3_755 ?
C1 C2 1.474(19) . ?
C2 F1 1.339(13) 3_755 ?
C2 C3 1.46(2) . ?
C2 C3 1.46(2) 3_755 ?
C2 C1 1.474(19) 3_755 ?
C2 F1' 1.63(3) 3_755 ?
C3 C1 0.78(5) 3_755 ?
C3 C4 1.48(2) . ?
C3 N1 1.73(5) 3_755 ?
C4 N1 0.35(8) 3_755 ?
C4 C1 1.34(5) 3_755 ?
C4 C4 1.64(7) 3_755 ?
loop_
_geom_torsion_atom_site_label_1
_geom_torsion_atom_site_label_2
_geom_torsion_atom_site_label_3
_geom_torsion_atom_site_label_4
_geom_torsion
_geom_torsion_site_symmetry_1
_geom_torsion_site_symmetry_2
_geom_torsion_site_symmetry_3
_geom_torsion_site_symmetry_4
_geom_torsion_publ_flag
C2 F1 F1' C3 -8(13) . . . . ?
C3 F1 F1' C2 8(13) . . . . ?
C4 N1 C1 C3 -29(11) 3_755 . . 3_755 ?
N1 N1 C1 C3 64(5) 3_755 . . 3_755 ?
C4 N1 C1 C3 77(4) . . . 3_755 ?
N1 N1 C1 C4 93(13) 3_755 . . 3_755 ?
C4 N1 C1 C4 106(11) . . . 3_755 ?
C3 N1 C1 C4 29(11) 3_755 . . 3_755 ?
C4 N1 C1 C2 -104(11) 3_755 . . . ?
N1 N1 C1 C2 -11(5) 3_755 . . . ?
C4 N1 C1 C2 3(4) . . . . ?
C3 N1 C1 C2 -74(3) 3_755 . . . ?
F1' F1 C2 F1 -122(14) . . . 3_755 ?
C3 F1 C2 F1 -130.1(18) . . . 3_755 ?
F1' F1 C2 C3 8(13) . . . . ?
F1' F1 C2 C3 117(13) . . . 3_755 ?
C3 F1 C2 C3 109(3) . . . 3_755 ?
F1' F1 C2 C1 3(14) . . . 3_755 ?
C3 F1 C2 C1 -5(2) . . . 3_755 ?
F1' F1 C2 C1 112(14) . . . . ?
C3 F1 C2 C1 104.4(15) . . . . ?
F1' F1 C2 F1' -172(10) . . . 3_755 ?
C3 F1 C2 F1' -180(7) . . . 3_755 ?
C3 F1 C2 F1' -8(13) . . . . ?
C3 C1 C2 F1 9(4) 3_755 . . 3_755 ?
C4 C1 C2 F1 88(4) 3_755 . . 3_755 ?
N1 C1 C2 F1 101(3) . . . 3_755 ?
C3 C1 C2 F1 172(3) 3_755 . . . ?
C4 C1 C2 F1 -109(4) 3_755 . . . ?
N1 C1 C2 F1 -95(3) . . . . ?
C3 C1 C2 C3 -121(3) 3_755 . . . ?
C4 C1 C2 C3 -42(4) 3_755 . . . ?
N1 C1 C2 C3 -28(3) . . . . ?
C4 C1 C2 C3 79(4) 3_755 . . 3_755 ?
N1 C1 C2 C3 92(4) . . . 3_755 ?
C3 C1 C2 C1 -89(3) 3_755 . . 3_755 ?
C4 C1 C2 C1 -10(3) 3_755 . . 3_755 ?
N1 C1 C2 C1 3.8(19) . . . 3_755 ?
C3 C1 C2 F1' 10(4) 3_755 . . 3_755 ?
C4 C1 C2 F1' 88(4) 3_755 . . 3_755 ?
N1 C1 C2 F1' 102(3) . . . 3_755 ?
C3 C1 C2 F1' -173(3) 3_755 . . . ?
C4 C1 C2 F1' -94(4) 3_755 . . . ?
N1 C1 C2 F1' -80(3) . . . . ?
F1 F1' C2 F1 105(20) . . . 3_755 ?
C3 F1' C2 F1 -84(7) . . . 3_755 ?
C3 F1' C2 F1 171(15) . . . . ?
F1 F1' C2 C3 -171(15) . . . . ?
F1 F1' C2 C3 -75(14) . . . 3_755 ?
C3 F1' C2 C3 96(4) . . . 3_755 ?
F1 F1' C2 C1 -177(14) . . . 3_755 ?
C3 F1' C2 C1 -6(3) . . . 3_755 ?
F1 F1' C2 C1 -70(14) . . . . ?
C3 F1' C2 C1 101(2) . . . . ?
F1 F1' C3 C1 28(17) . . . 3_755 ?
C2 F1' C3 C1 21(8) . . . 3_755 ?
F1 F1' C3 C2 7(12) . . . . ?
F1 F1' C3 C4 -80(13) . . . . ?
C2 F1' C3 C4 -87(4) . . . . ?
C2 F1' C3 F1 -7(12) . . . . ?
F1 F1' C3 N1 -67(14) . . . 3_755 ?
C2 F1' C3 N1 -75(4) . . . 3_755 ?
F1 C2 C3 C1 -9(4) 3_755 . . 3_755 ?
F1 C2 C3 C1 -170(4) . . . 3_755 ?
C3 C2 C3 C1 71(3) 3_755 . . 3_755 ?
C1 C2 C3 C1 101(3) . . . 3_755 ?
F1' C2 C3 C1 10(4) 3_755 . . 3_755 ?
F1' C2 C3 C1 -167(5) . . . 3_755 ?
F1 C2 C3 F1' 158(3) 3_755 . . . ?
F1 C2 C3 F1' -3(5) . . . . ?
C3 C2 C3 F1' -122(3) 3_755 . . . ?
C1 C2 C3 F1' 167(5) 3_755 . . . ?
C1 C2 C3 F1' -92(3) . . . . ?
F1' C2 C3 F1' 177(3) 3_755 . . . ?
F1 C2 C3 C4 -68(4) 3_755 . . . ?
F1 C2 C3 C4 131(4) . . . . ?
C3 C2 C3 C4 12(2) 3_755 . . . ?
C1 C2 C3 C4 -59(4) 3_755 . . . ?
C1 C2 C3 C4 42(3) . . . . ?
F1' C2 C3 C4 -49(3) 3_755 . . . ?
F1' C2 C3 C4 134(4) . . . . ?
F1 C2 C3 F1 161(4) 3_755 . . . ?
C3 C2 C3 F1 -119(3) 3_755 . . . ?
C1 C2 C3 F1 170(4) 3_755 . . . ?
C1 C2 C3 F1 -89(3) . . . . ?
F1' C2 C3 F1 180(3) 3_755 . . . ?
F1' C2 C3 F1 3(5) . . . . ?
F1 C2 C3 N1 -64(3) 3_755 . . 3_755 ?
F1 C2 C3 N1 135(3) . . . 3_755 ?
C3 C2 C3 N1 16.2(15) 3_755 . . 3_755 ?
C1 C2 C3 N1 -55(3) 3_755 . . 3_755 ?
C1 C2 C3 N1 46(3) . . . 3_755 ?
F1' C2 C3 N1 -45(3) 3_755 . . 3_755 ?
F1' C2 C3 N1 138(4) . . . 3_755 ?
F1' F1 C3 C1 -160(13) . . . 3_755 ?
C2 F1 C3 C1 12(5) . . . 3_755 ?
C2 F1 C3 F1' 171(14) . . . . ?
F1' F1 C3 C2 -171(14) . . . . ?
F1' F1 C3 C4 116(13) . . . . ?
C2 F1 C3 C4 -73(4) . . . . ?
F1' F1 C3 N1 127(12) . . . 3_755 ?
C2 F1 C3 N1 -62(4) . . . 3_755 ?
C4 N1 C4 N1 -39(17) 3_755 . . 3_755 ?
C1 N1 C4 N1 -106(8) . . . 3_755 ?
C3 N1 C4 N1 -79(9) 3_755 . . 3_755 ?
C4 N1 C4 C1 57(8) 3_755 . . 3_755 ?
N1 N1 C4 C1 96(10) 3_755 . . 3_755 ?
C1 N1 C4 C1 -10(5) . . . 3_755 ?
C3 N1 C4 C1 17(5) 3_755 . . 3_755 ?
C4 N1 C4 C3 90(8) 3_755 . . . ?
N1 N1 C4 C3 128(10) 3_755 . . . ?
C1 N1 C4 C3 23(4) . . . . ?
C3 N1 C4 C3 49(4) 3_755 . . . ?
N1 N1 C4 C4 39(17) 3_755 . . 3_755 ?
C1 N1 C4 C4 -67(9) . . . 3_755 ?
C3 N1 C4 C4 -41(9) 3_755 . . 3_755 ?
C1 C3 C4 N1 -38(17) 3_755 . . 3_755 ?
F1' C3 C4 N1 104(18) . . . 3_755 ?
C2 C3 C4 N1 30(17) . . . 3_755 ?
F1 C3 C4 N1 81(18) . . . 3_755 ?
F1' C3 C4 C1 142(5) . . . 3_755 ?
C2 C3 C4 C1 68(3) . . . 3_755 ?
F1 C3 C4 C1 119(4) . . . 3_755 ?
N1 C3 C4 C1 38(17) 3_755 . . 3_755 ?
C1 C3 C4 N1 -107(4) 3_755 . . . ?
F1' C3 C4 N1 35(5) . . . . ?
C2 C3 C4 N1 -39(4) . . . . ?
F1 C3 C4 N1 11(5) . . . . ?
N1 C3 C4 N1 -69(16) 3_755 . . . ?
C1 C3 C4 C4 -96(6) 3_755 . . 3_755 ?
F1' C3 C4 C4 46(7) . . . 3_755 ?
C2 C3 C4 C4 -28(6) . . . 3_755 ?
F1 C3 C4 C4 23(7) . . . 3_755 ?
N1 C3 C4 C4 -58(15) 3_755 . . 3_755 ?
