#------------------------------------------------------------------------------
#$Date: 2020-02-29 01:44:05 +0200 (Sat, 29 Feb 2020) $
#$Revision: 248539 $
#$URL: file:///home/coder/svn-repositories/cod/cif/4/13/42/4134272.cif $
#------------------------------------------------------------------------------
#
# This file is available in the Crystallography Open Database (COD),
# http://www.crystallography.net/
#
# All data on this site have been placed in the public domain by the
# contributors.
#
data_4134272
loop_
_publ_author_name
'Gao, Ji-Xing'
'Zhang, Wan-Ying'
'Wu, Zheng-Guang'
'Zheng, You-Xuan'
'Fu, Da-Wei'
_publ_section_title
;
 Enantiomorphic Perovskite Ferroelectrics with Circularly Polarized
 Luminescence.
;
_journal_name_full               'Journal of the American Chemical Society'
_journal_paper_doi               10.1021/jacs.9b13291
_journal_year                    2020
_chemical_absolute_configuration rm
_chemical_formula_moiety         'C4 H9 F N, Br3 Mn'
_chemical_formula_sum            'C4 H9 Br3 F Mn N'
_chemical_formula_weight         384.76
_space_group_crystal_system      orthorhombic
_space_group_IT_number           20
_space_group_name_Hall           'C 2c 2'
_space_group_name_H-M_alt        'C 2 2 21'
_atom_sites_solution_hydrogens   difmap
_audit_creation_method           SHELXL-2014/7
_cell_angle_alpha                90
_cell_angle_beta                 90
_cell_angle_gamma                90
_cell_formula_units_Z            4
_cell_length_a                   7.9069(5)
_cell_length_b                   18.0192(12)
_cell_length_c                   6.7589(4)
_cell_measurement_reflns_used    1434
_cell_measurement_temperature    293(2)
_cell_measurement_theta_max      30.8970
_cell_measurement_theta_min      2.8260
_cell_volume                     962.98(11)
_computing_cell_refinement       'CrysAlisPro 1.171.39.46 (Rigaku OD, 2018)'
_computing_data_collection       'CrysAlisPro 1.171.39.46 (Rigaku OD, 2018)'
_computing_data_reduction        'CrysAlisPro 1.171.39.46 (Rigaku OD, 2018)'
_computing_molecular_graphics    'DIAMOND (Brandenburg & Putz, 2005)'
_computing_publication_material  'SHELXL-2014/7 (Sheldrick, 2014)'
_computing_structure_refinement  'SHELXL-2014/7 (Sheldrick, 2014)'
_computing_structure_solution    'SHELXL-2014/7 (Sheldrick, 2014)'
_diffrn_ambient_temperature      293(2)
_diffrn_measured_fraction_theta_full 0.998
_diffrn_measured_fraction_theta_max 0.823
_diffrn_measurement_device_type  'XtaLAB Synergy R, DW system, HyPix'
_diffrn_measurement_method       'four-circle diffractometer'
_diffrn_radiation_type           MoK\a
_diffrn_radiation_wavelength     0.71073
_diffrn_reflns_av_R_equivalents  0.0476
_diffrn_reflns_av_unetI/netI     0.0541
_diffrn_reflns_Laue_measured_fraction_full 0.998
_diffrn_reflns_Laue_measured_fraction_max 0.823
_diffrn_reflns_limit_h_max       11
_diffrn_reflns_limit_h_min       -10
_diffrn_reflns_limit_k_max       26
_diffrn_reflns_limit_k_min       -23
_diffrn_reflns_limit_l_max       9
_diffrn_reflns_limit_l_min       -9
_diffrn_reflns_number            2627
_diffrn_reflns_point_group_measured_fraction_full 0.999
_diffrn_reflns_point_group_measured_fraction_max 0.815
_diffrn_reflns_theta_full        25.242
_diffrn_reflns_theta_max         31.517
_diffrn_reflns_theta_min         2.813
_diffrn_source                   'Rotating-anode X-ray tube'
_exptl_absorpt_coefficient_mu    13.767
_exptl_absorpt_correction_T_max  0.078
_exptl_absorpt_correction_T_min  0.064
_exptl_absorpt_correction_type   multi-scan
_exptl_absorpt_process_details   'CrysAlisPro 1.171.39.46 (Rigaku OD, 2018)'
_exptl_crystal_colour            Red
_exptl_crystal_density_diffrn    2.654
_exptl_crystal_description       Prism
_exptl_crystal_F_000             716
_exptl_crystal_size_max          0.210
_exptl_crystal_size_mid          0.200
_exptl_crystal_size_min          0.200
_refine_diff_density_max         0.796
_refine_diff_density_min         -0.715
_refine_diff_density_rms         0.154
_refine_ls_abs_structure_details
;
 Refined as an inversion twin.
;
_refine_ls_abs_structure_Flack   0.24(10)
_refine_ls_extinction_method     none
_refine_ls_goodness_of_fit_ref   1.001
_refine_ls_hydrogen_treatment    constr
_refine_ls_matrix_type           full
_refine_ls_number_parameters     74
_refine_ls_number_reflns         1434
_refine_ls_number_restraints     50
_refine_ls_restrained_S_all      1.007
_refine_ls_R_factor_all          0.0588
_refine_ls_R_factor_gt           0.0401
_refine_ls_shift/su_max          0.000
_refine_ls_shift/su_mean         0.000
_refine_ls_structure_factor_coef Fsqd
_refine_ls_weighting_details
'w=1/[\s^2^(Fo^2^)+(0.0605P)^2^] where P=(Fo^2^+2Fc^2^)/3'
_refine_ls_weighting_scheme      calc
_refine_ls_wR_factor_gt          0.0987
_refine_ls_wR_factor_ref         0.1049
_reflns_Friedel_coverage         0.705
_reflns_Friedel_fraction_full    1.000
_reflns_Friedel_fraction_max     0.805
_reflns_number_gt                929
_reflns_number_total             1434
_reflns_threshold_expression     'I > 2\s(I)'
_cod_data_source_file            ja9b13291_si_005.cif
_cod_data_source_block           C
_cod_database_code               4134272
_shelx_shelxl_version_number     2014/7
_shelx_space_group_comment
;
The symmetry employed for this shelxl refinement is uniquely defined
by the following loop, which should always be used as a source of
symmetry information in preference to the above space-group names.
They are only intended as comments.
;
_shelx_estimated_absorpt_t_min   0.160
_shelx_estimated_absorpt_t_max   0.169
_shelx_res_file
;

    C.res created by SHELXL-2014/7


TITL C in C222(1)
CELL 0.71073   7.9069  18.0192   6.7589  90.000  90.000  90.000
ZERR    4.00   0.0005   0.0012   0.0004   0.000   0.000   0.000
LATT -7
SYMM -X, -Y, 0.5+Z
SYMM -X, Y, 0.5-Z
SYMM X, -Y, -Z
SFAC C  H  N  F  Mn Br
UNIT 16 36 4 4 4 12
L.S. 50
ACTA
BOND
FMAP 2
PLAN 20
CONF
TWIN
DFIX 1.33 0.01 C2 F1 C3 F1'
DFIX 1.50 0.02 C1 C2 C1 N1 C2 C3 C3 C4 C4 N1
DFIX 0.50 0.001 F1 F1'
ISOR 0.02 F1 F1' C1 C2 C3 C4 N1
EADP F1 F1'
TEMP 20
SIZE 0.20 0.20 0.21
WGHT    0.060500
BASF   0.24235
FVAR       0.13148
MN1   5    0.500300    0.500000    0.000000    10.50000    0.03327    0.04271 =
         0.02172   -0.00120    0.00000    0.00000
BR1   6    0.500000    0.382144    0.250000    10.50000    0.06342    0.03474 =
         0.03271    0.00000   -0.00955    0.00000
BR2   6    0.265664    0.555657    0.249995    11.00000    0.03995    0.05735 =
         0.02952    0.00108    0.00092    0.01374
F1    4    0.165783    0.753534    0.782150    10.25000    0.10528    0.10510 =
         0.13560   -0.03654   -0.04517   -0.00133
F1'   4    0.190402    0.743322    0.844623    10.25000    0.10528    0.10510 =
         0.13560   -0.03654   -0.04517   -0.00133
N1    3    0.007636    0.615869    0.650348    10.50000    0.06204    0.02605 =
         0.05287    0.00491    0.01831   -0.01788
AFIX   3
H1C   2    0.117256    0.601619    0.623048    10.50000   -1.20000
H1D   2   -0.065114    0.583439    0.587848    10.50000   -1.20000
AFIX   0
C1    1    0.025561    0.693939    0.571616    10.50000    0.03826    0.06088 =
         0.07045    0.04197    0.01890   -0.00451
AFIX   3
H1A   2   -0.066429    0.700709    0.480696    10.50000   -1.20000
H1B   2    0.128331    0.708419    0.506606    10.50000   -1.20000
AFIX   0
C2    1    0.000000    0.741148    0.750000    10.50000    0.11932    0.06464 =
         0.19711    0.00000    0.00488    0.00000
AFIX   3
H2A   2   -0.089130    0.777248    0.756420    10.50000   -1.20000
AFIX   0
C3    1    0.067071    0.702386    0.924767    10.50000    0.11048    0.10824 =
         0.13194   -0.00937    0.00936   -0.00106
AFIX   3
H3A   2    0.004331    0.715136    1.041527    10.50000   -1.20000
H3B   2    0.186251    0.707367    0.948367    10.50000   -1.20000
AFIX   0
C4    1   -0.031638    0.633450    0.867683    10.50000    0.08840    0.09342 =
         0.05227    0.03332    0.00329    0.00319
AFIX   3
H4A   2    0.016482    0.593060    0.941263    10.50000   -1.20000
H4B   2   -0.150418    0.636930    0.895563    10.50000   -1.20000

AFIX   0
HKLF 4

REM  C in C222(1)
REM R1 =  0.0401 for     929 Fo > 4sig(Fo)  and  0.0588 for all    1236 data
REM     74 parameters refined using     50 restraints

END

WGHT      0.0592      0.0000

REM Highest difference peak  0.796,  deepest hole -0.715,  1-sigma level  0.154
Q1    1   0.3883  0.5569  0.2493  11.00000  0.05    0.80
Q2    1   0.1209  0.5620  0.2496  11.00000  0.05    0.73
Q3    1   0.6269  0.3898  0.2500  11.00000  0.05    0.71
Q4    1   0.3479  0.5000  0.0000  10.50000  0.05    0.61
Q5    1   0.6715  0.5000  0.0000  10.50000  0.05    0.61
Q6    1   0.1936  0.5633  0.3400  11.00000  0.05    0.47
Q7    1  -0.0678  0.5502  0.7499  11.00000  0.05    0.47
Q8    1   0.1958  0.5639  0.1597  11.00000  0.05    0.43
Q9    1  -0.1252  0.8507  0.7505  11.00000  0.05    0.41
Q10   1   0.1118  0.6075  0.3385  11.00000  0.05    0.41
Q11   1  -0.0013  0.5888  1.1658  11.00000  0.05    0.41
Q12   1   0.6151  0.4641  0.2515  11.00000  0.05    0.41
Q13   1   0.3784  0.6270  0.4193  11.00000  0.05    0.41
Q14   1   0.1970  0.6355  0.2562  11.00000  0.05    0.40
Q15   1  -0.0001  0.7255  0.6320  11.00000  0.05    0.40
Q16   1   0.0891  0.5206  0.1965  11.00000  0.05    0.39
Q17   1   0.0945  0.5190  0.3099  11.00000  0.05    0.39
Q18   1   0.1106  0.6068  0.1656  11.00000  0.05    0.39
Q19   1   0.3781  0.6281  0.0816  11.00000  0.05    0.38
Q20   1   0.4989  0.5624  0.1949  11.00000  0.05    0.38
;
_shelx_res_checksum              95640
_shelx_hkl_file
;
   0   0  -5   -0.09    0.81
   0   0  -4 1386.17   38.49
   0   0  -3    0.48    0.39
   0   0  -2 1364.37   37.69
   0   0  -1    0.10    0.10
   0   0   2 1178.49   32.62
   0   0   3   -0.12    0.40
   0   0   4 1262.34   35.02
   0   0   5   -0.06    0.60
   0   0   6  199.14    5.87
   0   0   7    0.45    0.77
   0   0   8  165.44    4.97
   0   2  -7    2.58    1.49
   0   2  -6   35.16    1.87
   0   2  -5   13.33    1.08
   0   2  -4  598.16   16.85
   0   2  -3   54.59    1.82
   0   2  -2  181.92    5.26
   0  -2  -1    4.37    0.30
   0   2  -1    4.94    0.29
   0   2   1    4.28    0.30
   0   2   2  171.75    4.79
   0  -2   2  168.15    4.88
   0  -2   3   48.02    1.60
   0  -2   4  531.94   14.95
   0  -2   5   11.80    0.89
   0   2   5   11.07    0.85
   0   2   6   27.31    1.23
   0  -2   6   27.27    1.31
   0   2   7    2.86    0.77
   0  -2   7    3.42    0.90
   0   2   8   65.75    2.22
   0   4  -7   81.75    3.35
   0   4  -6   70.22    2.77
   0   4  -5  234.33    7.07
   0   4  -4   10.48    0.87
   0   4  -3  383.71   10.96
   0   4  -3  383.31   10.89
   0   4  -2  323.53    9.16
   0  -4  -1  843.05   23.38
   0   4  -1  834.25   23.21
   0   4   0    7.50    0.76
   0   4   1  825.38   23.07
   0   4   2  325.96    8.94
   0   4   2  302.17    9.28
   0   4   3  323.57    9.63
   0  -4   3  337.81    9.44
   0   4   4    7.77    0.88
   0  -4   4    8.64    0.69
   0  -4   5  165.60    4.83
   0  -4   5  177.78    5.09
   0   4   5  167.78    5.41
   0   4   6   52.86    1.91
   0  -4   6   54.99    2.01
   0   4   7   61.17    2.10
   0   4   8    0.43    0.76
   0   6  -8    3.05    2.08
   0   6  -7  153.55    5.26
   0   6  -6  140.50    4.25
   0  -6  -6  116.08    3.44
   0   6  -5  341.87   10.05
   0   6  -4   27.96    1.40
   0   6  -4   24.67    1.47
   0   6  -3  826.26   23.13
   0  -6  -2  796.62   22.70
   0   6  -2  811.87   22.50
   0  -6  -1 1408.98   39.37
   0   6  -1 1412.38   39.08
   0   6   0  167.48    5.35
   0  -6   1 1154.90   32.44
   0   6   2  726.09   20.58
   0   6   3  746.95   22.30
   0   6   3  793.52   21.76
   0  -6   4   22.85    1.17
   0   6   4   20.25    1.35
   0   6   5  247.14    7.58
   0  -6   6   83.72    2.57
   0   6   7  113.36    3.51
   0   6   8    1.96    0.72
   0   8  -8   -0.42    2.10
   0   8  -7   20.17    2.01
   0   8  -6   88.30    3.43
   0   8  -5   41.90    1.95
   0   8  -5   35.22    2.05
   0   8  -4    5.08    0.98
   0   8  -4    4.16    0.94
   0   8  -3   71.97    2.53
   0  -8  -3   76.82    2.81
   0  -8  -2  178.25    5.56
   0   8  -2  172.33    5.20
   0  -8  -1  197.27    6.13
   0   8  -1  192.91    5.68
   0   8   0    6.77    1.20
   0  -8   1  186.75    6.17
   0  -8   2  162.09    5.52
   0   8   3   63.68    1.81
   0   8   3   67.95    2.68
   0   8   4    4.44    1.14
   0   8   5   32.62    1.95
   0  10  -8    2.72    2.23
   0  10  -7   36.52    2.45
   0  10  -6   96.98    3.73
   0  10  -5   67.61    2.73
   0  10  -5   63.07    2.71
   0  10  -4   25.08    1.47
   0  10  -4   23.43    1.46
   0 -10  -3  160.10    5.35
   0  10  -3  161.20    5.02
   0  10  -2  411.59   11.65
   0 -10  -2  396.60   12.09
   0 -10  -1  336.99   10.26
   0  10   0   25.36    2.02
   0 -10   1  257.04    8.36
   0 -10   2  361.96   11.25
   0  10   3  143.52    4.97
   0 -10   3  139.12    5.41
   0  10   4   20.30    1.77
   0  10   5   50.76    2.64
   0  12  -7   42.58    2.69
   0  12  -6  100.43    3.93
   0  12  -5  118.99    4.23
   0  12  -4   30.35    1.73
   0  12  -3  200.80    6.24
   0 -12  -3  207.44    6.71
   0  12  -2  322.47    9.39
   0 -12  -2  318.73    9.92
   0 -12  -1  311.42    9.78
   0  12   0  100.57    4.25
   0  12   1  284.07    9.22
   0 -12   2  292.34    9.80
   0 -12   3  176.13    6.61
   0  12   4   24.17    2.14
   0 -12   4   30.00    2.88
   0  14  -7    7.22    2.10
   0  14  -6   12.86    1.91
   0 -14  -4    3.52    1.64
   0  14  -3   25.58    1.54
   0  14  -3   27.57    1.61
   0 -14  -3   23.76    2.01
   0  14  -2   47.99    2.04
   0 -14  -2   47.48    2.70
   0 -14  -1   19.39    2.00
   0  14   0    1.30    1.85
   0  14   0    1.16    0.92
   0  14   1   19.38    2.52
   0 -14   2   40.49    3.25
   0 -14   3   21.38    2.98
   0  14   3   16.64    0.68
   0 -14   4    4.27    2.66
   0 -14   5   12.91    3.00
   0 -14   6   10.02    3.19
   0  16  -6   14.39    2.16
   0  16  -4  120.25    4.27
   0 -16  -4  118.56    4.84
   0  16  -3    1.93    1.25
   0 -16  -3    2.65    1.69
   0 -16  -2   57.02    3.13
   0  16  -2   57.41    2.27
   0  16  -1    0.45    1.04
   0 -16  -1    0.68    1.74
   0  16   0  250.18    8.91
   0  16   0  263.12    7.78
   0  16   1    0.70    2.46
   0  16   2   56.22    1.84
   0  16   3    0.89    0.45
   0 -16   3    0.44    2.96
   0 -16   4  106.34    5.69
   0 -16   5    3.58    3.17
   0 -16   6   11.17    3.53
   0  18  -5    4.21    1.85
   0  18  -4   86.84    3.53
   0 -18  -4   86.41    4.11
   0 -18  -3    7.28    2.10
   0  18  -3    8.06    1.52
   0  18  -2   49.33    2.23
   0 -18  -2   45.43    3.00
   0  18  -1   14.37    1.23
   0 -18  -1   12.36    2.12
   0  18   0  142.70    4.44
   0  18   1   12.64    0.98
   0  18   2   46.95    1.73
   0  18   3    5.09    0.62
   0 -18   3    2.82    3.29
   0 -18   4   80.69    5.66
   0 -18   5    2.09    3.86
   0  20  -4    8.54    1.85
   0 -20  -4    9.06    2.39
   0 -20  -3    1.13    2.10
   0  20  -3   -1.28    1.59
   0 -20  -2    0.13    2.13
   0  20  -2    1.27    1.40
   0 -20  -1    2.86    2.30
   0  20  -1   -0.19    1.29
   0 -20   0    8.06    2.44
   0  20   0    9.98    1.27
   0  20   1    1.14    1.04
   0  20   2    1.05    0.92
   0 -20   4    4.54    3.93
   0 -22  -3   15.83    2.68
   0  22  -3   17.92    1.98
   0 -22  -2    9.98    2.48
   0  22  -2   11.52    1.70
   0 -22  -1   20.36    2.98
   0  22  -1   20.64    1.76
   0 -22   0    2.23    2.61
   0  22   0    2.33    1.28
   0  22   1   21.66    1.56
   0  22   2   12.68    1.23
   0  24  -2    1.50    1.86
   0  24  -1   17.14    1.90
   0  24   0    2.54    1.52
   0  26  -1   -0.48    1.87
   1   1  -7    8.31    1.49
   1   1  -6    3.20    1.03
   1  -1  -6    2.11    1.04
   1  -1  -5   29.07    1.33
   1   1  -5   29.15    1.43
   1  -1  -4  356.40   10.13
   1   1  -3   95.70    2.90
  -1  -1  -3   91.42    2.67
   1   1  -2   13.06    0.54
   1  -1  -2   15.54    0.56
   1  -1   0  367.04   10.28
  -1   1   0  362.85   10.26
  -1   1   1    0.73    0.25
   1  -1   1    0.78    0.31
   1  -1   2   11.45    0.55
   1   1   2   18.19    0.70
  -1   1   3   88.90    2.51
   1  -1   3   85.91    2.95
   1   1   3   91.84    2.69
  -1  -1   3   83.19    2.55
   1  -1   3   93.08    2.74
  -1   1   4  307.54    8.61
   1   1   4  306.11    8.77
   1  -1   4  313.61    9.04
   1  -1   5   24.80    1.38
  -1   1   5   23.28    0.86
   1  -1   6    1.17    0.98
  -1   1   6    2.33    0.50
   1   1   6    2.20    1.06
   1  -1   7    5.73    1.20
   1   1   7    5.92    1.12
   1   1   8   30.33    1.68
   1  -1   8   30.81    1.67
   1   3  -8   -0.04    1.82
   1   3  -7    8.32    1.53
   1   3  -6   62.23    2.51
   1   3  -5   37.85    1.69
  -1   3  -5   36.00    1.79
   1  -3  -5   34.33    1.50
  -1   3  -4    1.27    0.70
   1  -3  -4    1.24    0.49
   1   3  -4   -0.21    0.86
   1  -3  -4    1.83    0.41
   1  -3  -3   68.57    2.13
   1  -3  -3   67.80    2.05
   1   3  -3   68.23    2.18
  -1   3  -3   69.17    2.26
   1   3  -2  390.39   11.11
  -1   3  -2  406.27   11.19
  -1   3  -1  125.17    3.74
   1  -3  -1  125.13    3.77
  -1   3  -1  129.73    3.69
   1  -3   0  155.81    4.40
   1  -3   0  154.25    4.38
   1   3   0  150.37    4.61
   1  -3   1  116.98    3.65
   1   3   1  126.54    3.72
  -1   3   1  124.70    3.49
   1  -3   1  126.36    3.61
   1   3   2  340.79    9.76
   1  -3   3   67.10    2.11
   1   3   3   67.44    2.08
   1   3   3   63.94    2.34
   1  -3   3   64.81    2.26
   1  -3   4    1.88    0.52
   1  -3   4    0.28    0.71
  -1   3   4    0.54    0.30
   1   3   4    1.32    0.51
   1  -3   5   29.42    1.53
  -1   3   5   31.03    1.04
   1  -3   6   53.97    2.18
   1   3   6   50.12    2.29
  -1   3   6   52.19    1.63
   1  -3   7    6.27    1.20
   1   3   7    5.75    1.14
   1   3   8    0.30    1.05
   1  -3   8    2.67    1.20
   1   5  -9    2.46    2.41
   1   5  -8    0.52    1.80
   1   5  -7   14.81    1.73
  -1   5  -6  123.20    4.24
   1   5  -6  115.49    4.10
   1  -5  -5   35.47    1.40
   1   5  -5   36.80    1.70
  -1   5  -5   36.48    1.81
   1   5  -4    8.07    0.89
  -1   5  -4    8.96    0.94
   1   5  -3   91.60    2.94
  -1   5  -3   96.69    3.02
  -1   5  -2  347.98    9.93
   1   5  -2  358.75    9.90
   1  -5  -2  343.56   10.12
  -1   5  -2  344.53    9.99
  -1   5  -1  129.72    3.84
   1  -5  -1  130.50    4.03
   1  -5   0   17.12    0.71
   1   5   0   16.52    1.13
  -1   5   0   17.24    0.64
  -1   5   1  124.58    3.51
   1  -5   1  117.20    3.90
   1  -5   1  121.46    3.66
   1   5   2  312.12    9.14
   1  -5   3   87.86    2.83
   1   5   3   82.55    2.96
   1  -5   4    8.04    0.91
   1   5   4    7.69    0.59
   1   5   4    7.06    0.99
   1   5   5   29.14    1.74
  -1   5   5   27.49    1.04
   1  -5   5   31.47    1.59
   1  -5   5   30.50    1.40
   1  -5   6   90.22    3.22
  -1   5   6   90.64    2.65
   1  -5   7    9.07    1.30
   1   5   7    6.71    1.30
   1  -5   8    1.35    1.32
   1   5   8    0.82    1.07
   1   7  -9    7.09    2.44
   1   7  -8   10.09    2.00
   1   7  -7   18.33    1.92
  -1   7  -7   20.52    2.08
   1  -7  -6    4.85    0.76
  -1   7  -6    5.70    1.48
   1   7  -6    5.79    1.34
   1   7  -5   59.26    2.47
   1  -7  -5   58.05    1.97
   1   7  -4   76.55    2.71
  -1   7  -4   81.31    2.79
   1   7  -3   87.87    2.83
  -1   7  -3   82.32    2.90
  -1   7  -3   86.21    2.84
   1   7  -2   44.01    1.57
   1  -7  -2   40.82    1.75
  -1   7  -2   39.75    1.57
  -1   7  -1   70.33    2.20
   1  -7  -1   70.10    2.58
  -1   7   0  195.46    5.67
  -1   7   0  199.78    5.61
   1   7   0  191.53    6.31
   1  -7   1   71.21    2.40
  -1   7   1   75.10    2.14
   1  -7   1   70.87    2.85
  -1   7   1   72.19    2.23
   1   7   2   41.66    1.97
   1   7   3   76.91    2.86
   1  -7   3   70.60    2.51
   1  -7   4   65.68    2.47
   1   7   4   65.20    2.77
   1   7   4   68.91    2.11
   1   7   5   51.76    2.54
   1  -7   5   53.04    2.18
   1  -7   6    5.30    1.21
  -1   7   6    3.10    0.50
   1  -7   6    4.70    0.95
  -1   7   7    7.49    0.35
   1  -7   7   15.86    1.56
   1   7   8    6.05    1.19
   1   9  -8   20.31    2.39
   1   9  -7    2.28    1.71
   1  -9  -7    3.08    0.70
  -1   9  -7    4.16    1.82
  -1   9  -6   -0.29    1.46
   1   9  -6   -0.89    1.56
   1   9  -6    0.45    1.46
   1  -9  -6    0.88    0.69
   1   9  -5   11.53    1.33
  -1   9  -5   11.38    1.35
  -1   9  -4  150.05    4.61
  -1   9  -4  141.59    4.68
   1   9  -4  138.55    4.53
   1   9  -3    7.62    0.86
  -1   9  -3    7.10    0.98
   1  -9  -3    7.11    1.13
   1   9  -2    0.29    0.64
  -1   9  -2    0.95    0.66
   1  -9  -2    1.18    0.90
   1  -9  -1   10.16    1.14
  -1   9  -1   10.48    0.69
  -1   9   0  161.73    4.64
   1   9   0  151.39    5.46
  -1   9   0  160.41    4.73
   1  -9   1   10.40    1.41
  -1   9   1   11.17    0.51
  -1   9   1   10.49    0.65
   1  -9   2    0.20    1.16
   1   9   3    6.55    1.36
   1  -9   4  129.12    4.22
   1   9   4  124.45    4.57
   1   9   4  126.86    3.71
   1  -9   5   12.29    1.33
   1   9   5    9.83    1.58
  -1   9   5    8.09    1.37
   1  -9   6    0.25    0.79
  -1   9   7    0.95    0.26
  -1  11  -7   14.41    2.03
   1  11  -7   12.77    2.00
  -1  11  -6   27.63    2.01
   1  11  -6   25.00    2.05
   1  11  -5   48.27    2.23
  -1  11  -5   45.22    2.41
  -1  11  -5   47.23    2.27
   1  11  -5   42.33    2.20
   1  11  -4    1.93    1.05
  -1  11  -4    1.53    1.13
   1  11  -3   99.12    3.33
   1 -11  -3   98.59    3.76
  -1  11  -3   97.87    3.39
   1 -11  -2   66.32    2.77
   1  11  -2   64.22    2.34
  -1  11  -2   63.39    2.34
  -1  11  -2   63.80    2.24
  -1  11  -1   94.26    2.98
   1 -11  -1   96.86    3.71
  -1  11   0    9.83    0.82
  -1  11   0   10.57    0.68
   1  11   0    9.42    1.72
  -1  11   1   85.78    2.78
  -1  11   1   90.10    2.63
   1 -11   1   81.20    3.65
   1 -11   2   53.73    2.98
   1 -11   3   77.75    3.55
   1  11   4    1.53    1.62
  -1  13  -7    0.77    1.97
   1  13  -7    2.05    1.88
   1  13  -6   41.69    2.49
  -1  13  -6   37.75    2.38
  -1  13  -5    0.57    1.34
   1  13  -5    1.02    1.40
   1  13  -4    4.85    1.29
   1 -13  -4    5.43    1.60
  -1  13  -4    3.44    1.34
   1 -13  -3    1.00    1.28
  -1  13  -3    2.01    0.96
  -1  13  -3    0.77    1.02
   1  13  -3    0.57    0.97
  -1  13  -2  130.59    4.16
   1 -13  -2  134.20    4.85
   1  13  -2  134.78    4.28
  -1  13  -1    0.51    0.64
  -1  13  -1   -0.33    0.86
   1 -13  -1    0.52    1.37
  -1  13   0    1.84    0.76
   1  13   0    2.99    1.76
  -1  13   0    1.30    0.57
  -1  13   1    0.64    0.69
  -1  13   1    0.17    0.48
   1  13   1    0.24    1.94
  -1  13   2  124.42    3.85
  -1  13   2  126.49    3.65
   1 -13   2  125.26    5.26
   1 -13   3    0.38    2.08
   1 -13   4    4.33    2.15
   1 -13   5    0.60    2.22
  -1  15  -6    1.78    1.79
   1  15  -6    3.37    1.91
   1 -15  -4   20.46    2.12
  -1  15  -4   18.01    1.63
   1 -15  -3   25.58    2.17
  -1  15  -3   24.75    1.54
   1 -15  -2    3.10    1.56
   1  15  -2    3.02    1.09
  -1  15  -2    2.18    0.87
  -1  15  -1   23.13    1.40
  -1  15  -1   21.89    1.21
   1 -15  -1   19.62    2.08
  -1  15   0   23.99    1.36
   1  15   0   26.95    2.67
  -1  15   0   24.53    1.14
  -1  15   1   23.01    1.04
  -1  15   1   20.64    1.24
   1 -15   2    1.12    2.18
  -1  15   2    2.96    0.81
  -1  15   2    2.25    0.55
  -1  15   3   21.49    1.18
   1 -15   3   24.72    3.15
   1 -15   4   16.85    2.84
  -1  15   5   10.59    0.92
   1 -15   5   10.84    2.74
   1 -15   6    3.49    2.72
  -1  17  -5    0.34    1.62
   1 -17  -4   50.68    3.10
  -1  17  -4   47.53    2.43
   1  17  -4   46.48    2.46
  -1  17  -3    1.13    1.26
   1 -17  -3    0.82    1.77
   1 -17  -2    6.42    1.93
  -1  17  -2    7.01    1.15
  -1  17  -1    0.34    0.87
   1 -17  -1   -0.39    1.85
  -1  17   0   66.19    2.56
  -1  17   0   65.61    2.32
  -1  17   1    0.93    0.95
  -1  17   1    0.18    0.70
  -1  17   2    5.37    0.97
  -1  17   2    6.78    0.77
   1 -17   3   -0.81    2.82
  -1  17   3    0.82    0.88
   1 -17   4   43.18    4.04
  -1  17   4   37.67    1.63
  -1  17   5    0.45    0.93
   1 -17   5    0.60    3.17
   1 -17   6    1.42    3.29
  -1  19  -5    7.55    1.96
   1  19  -5    7.47    2.10
   1  19  -4    4.84    1.75
   1 -19  -4    5.25    2.23
  -1  19  -4    6.67    1.67
   1 -19  -3    9.80    2.19
  -1  19  -3   10.07    1.55
  -1  19  -2    3.81    1.27
   1 -19  -2    1.20    1.96
  -1  19  -1   11.62    1.26
   1 -19  -1   12.24    2.27
  -1  19   0   10.98    1.18
  -1  19   1   10.86    1.01
   1 -19   4    3.82    3.56
  -1  19   4    4.84    1.06
   1 -19   5    4.96    3.87
   1  21  -4    3.28    2.09
  -1  21  -4    3.29    1.79
   1  21  -3    0.70    1.70
   1 -21  -3    0.70    2.19
  -1  21  -3    0.51    1.60
   1 -21  -2   21.20    2.76
  -1  21  -2   18.21    1.65
   1 -21  -1    1.37    2.29
  -1  21  -1    0.02    1.25
  -1  21   0    3.17    1.18
   1 -21   0   -0.71    2.44
  -1  21   1    0.27    1.09
  -1  23  -3    5.67    1.81
   1  23  -3    6.81    2.19
  -1  23  -2    4.28    1.64
   1  23  -2    3.83    1.87
  -1  23  -1    4.77    1.51
   1 -23  -1    3.62    2.58
   1  23  -1    6.46    1.65
  -1  23   0   -0.07    1.32
   1  23   0    0.39    1.53
   1 -23   0    2.40    2.73
   1  23   1    7.59    1.46
  -1  23   1    4.17    1.42
  -1  25  -2    0.39    1.88
   1  25  -1    2.63    1.94
  -1  25  -1    1.46    1.74
   1  25   0    5.29    1.81
   2   0  -8    1.06    1.73
   2   0  -7    0.23    1.27
   2   0  -6  131.40    4.26
   2   0  -3    0.23    0.30
  -2   0  -3   -0.20    0.47
  -2   0  -2  531.98   14.88
  -2   0   0   27.59    0.94
  -2   0   1    1.74    0.25
  -2   0   2  514.84   14.43
   2   0   3    0.86    0.65
  -2   0   3   -0.82    0.61
   2   0   4   19.83    1.09
   2   0   5    1.09    0.79
   2   0   6  112.40    4.11
   2   0   7    0.09    1.37
   2   0   8   -0.14    1.50
   2   0   9    1.54    1.62
   2   2  -8    6.57    1.75
   2  -2  -7  107.48    3.80
   2   2  -7  107.83    3.86
   2   2  -6  178.58    5.55
   2  -2  -6  177.21    5.46
   2  -2  -5  276.05    8.16
  -2  -2  -5  286.31    8.03
   2   2  -4   42.56    1.61
  -2  -2  -4   42.62    1.44
   2  -2  -3  525.31   14.91
   2   2  -3  537.38   14.85
   2  -2  -2  699.83   19.62
   2  -2   0  191.36    5.67
  -2   2   0  187.15    5.67
  -2   2   0  185.89    5.43
   2   2   0  195.60    5.45
   2  -2   1 1286.62   36.39
  -2   2   1 1285.65   36.40
  -2   2   1 1322.70   36.13
   2   2   1 1308.61   36.20
   2  -2   2  627.61   18.54
   2   2   2  638.78   18.48
   2  -2   3  464.79   13.12
  -2  -2   4   36.63    1.31
   2   2   4   38.36    1.53
   2  -2   4   36.07    1.97
   2  -2   4   40.67    1.61
   2  -2   5  241.47    7.38
   2   2   5  241.32    6.95
  -2  -2   5  229.41    6.86
   2  -2   6  152.74    5.08
   2  -2   7   88.03    3.37
   2   2   7   85.29    3.46
   2  -2   8    4.14    1.57
   2   2   8    4.49    1.42
   2  -2   9   26.64    1.95
   2   4  -9   33.20    2.85
   2   4  -8    2.36    1.73
   2   4  -7   95.45    3.63
   2   4  -6  129.11    4.25
   2  -4  -6  125.81    4.05
   2  -4  -5  219.89    6.31
  -2  -4  -5  213.70    6.18
   2   4  -5  221.88    6.61
   2   4  -4   16.02    0.93
   2  -4  -4   15.73    0.96
   2   4  -3  524.37   14.73
   2  -4  -3  526.08   14.85
   2  -4  -2  651.45   18.26
   2  -4  -1  786.27   21.56
   2  -4  -1  772.86   21.39
  -2  -4  -1  754.26   21.49
  -2   4   0  139.13    4.26
   2  -4   0  137.71    4.17
   2   4   0  141.69    4.29
   2  -4   1  746.37   20.70
   2  -4   1  735.26   20.82
   2  -4   1  743.59   20.66
   2  -4   1  733.27   20.83
   2   4   1  742.74   20.78
  -2  -4   1  733.97   20.88
   2   4   2  630.65   18.10
   2  -4   2  638.27   17.94
   2  -4   2  652.77   17.98
  -2   4   2  632.87   17.95
   2  -4   3  488.40   13.28
  -2   4   3  446.06   13.20
   2   4   3  463.69   13.40
   2   4   4   14.67    0.96
   2   4   4   12.68    1.23
  -2   4   4   14.25    1.00
   2  -4   4   15.39    1.31
   2  -4   4   16.39    1.11
   2  -4   5  195.40    6.03
  -2   4   5  179.99    5.78
   2   4   5  183.02    6.12
   2   4   5  196.35    5.58
  -2  -4   5  185.55    5.39
  -2  -4   6   94.62    2.98
   2   4   6   99.68    3.94
   2  -4   6  110.72    3.73
  -2   4   6  104.61    3.57
   2  -4   7   75.24    3.11
   2  -4   8    2.35    1.54
   2   4   8    2.70    1.51
   2  -4   9   21.94    1.93
   2   6  -9    4.11    2.16
   2   6  -8   21.20    2.24
   2   6  -7   12.45    1.73
  -2  -6  -6    1.11    0.49
   2   6  -5   36.19    1.74
   2  -6  -5   38.47    1.59
   2  -6  -4  126.02    4.17
   2   6  -4  139.87    4.24
  -2   6  -3   51.08    1.98
   2   6  -3   51.65    1.83
   2  -6  -2    0.75    0.30
   2  -6  -2    1.43    0.63
  -2  -6  -2    2.28    0.57
   2  -6  -1   47.04    1.59
   2  -6  -1   51.73    1.92
   2  -6   0  302.88    8.94
   2   6   0  313.76    9.28
   2  -6   0  308.93    8.88
  -2   6   0  310.78    9.25
  -2   6   0  325.52    8.89
   2  -6   1   53.91    1.97
   2  -6   1   55.98    2.20
  -2  -6   1   49.82    2.24
  -2   6   1   55.07    1.70
   2  -6   1   52.50    1.86
   2   6   2    1.29    0.76
  -2   6   2    2.23    0.68
   2  -6   2    3.04    0.69
  -2   6   2    2.41    0.30
   2  -6   2    2.20    0.74
  -2   6   3   45.67    1.34
   2   6   3   42.82    2.01
  -2   6   3   43.77    1.82
   2  -6   4  130.70    4.26
   2   6   4  122.25    4.39
   2  -6   4  123.74    3.94
  -2   6   4  124.75    4.10
   2  -6   5   32.29    1.95
  -2   6   5   31.33    1.68
   2   6   5   29.70    2.05
   2   6   5   33.44    1.42
   2   6   6    1.16    0.78
  -2  -6   6    1.58    0.47
   2  -6   7   12.35    1.70
   2  -6   8   16.47    1.84
   2   6   8   13.44    1.82
   2  -6   9    5.07    1.81
   2   8  -8  114.05    4.48
  -2  -8  -7    1.80    0.61
   2   8  -7    2.66    1.76
   2  -8  -6   79.15    2.69
   2   8  -6   76.71    3.11
   2   8  -5    3.84    1.07
  -2   8  -5    5.10    1.31
   2  -8  -5    3.46    0.72
   2   8  -4  610.47   17.48
  -2   8  -4  622.75   17.60
   2   8  -3    8.57    0.90
  -2   8  -2  426.12   12.26
   2  -8  -2  433.33   12.46
  -2  -8  -2  423.44   12.34
   2  -8  -1    3.89    0.78
  -2  -8  -1    2.57    0.74
  -2   8  -1    3.96    0.60
   2   8   0 1278.04   36.51
  -2   8   0 1308.75   35.90
   2  -8   0 1278.44   36.02
  -2   8   0 1300.99   36.42
   2  -8   1    4.54    0.69
  -2  -8   1    4.23    1.26
  -2   8   1    3.48    0.47
   2  -8   1    4.04    1.13
  -2  -8   2  407.58   12.20
  -2   8   2  402.12   11.18
   2  -8   2  399.59   11.58
   2  -8   2  381.29   11.84
  -2   8   3    6.54    1.04
   2   8   3    6.61    1.31
  -2   8   3    6.75    0.42
  -2   8   4  484.26   13.48
   2  -8   4  514.74   14.20
   2   8   4  492.32   14.44
  -2   8   4  477.58   14.13
   2   8   5    4.51    1.48
   2  -8   5    6.43    1.31
   2   8   5    4.15    0.77
  -2   8   5    3.42    1.12
   2  -8   5    4.55    0.89
   2  -8   6   69.09    3.02
   2   8   6   70.39    2.34
   2  -8   6   70.75    2.63
   2  -8   7    2.82    1.63
   2  -8   8   84.60    3.57
   2  10  -8   59.26    3.21
   2  10  -7    0.81    1.85
   2  10  -6   39.32    2.12
   2 -10  -6   32.44    1.52
  -2  10  -5   -0.33    1.31
   2  10  -5    0.39    1.07
   2 -10  -5    1.59    0.65
   2  10  -4  323.89    9.51
   2  10  -3    6.81    0.98
   2 -10  -3    5.27    1.17
  -2 -10  -3    5.09    1.04
  -2  10  -3    4.51    1.11
   2 -10  -2  142.50    4.87
  -2  10  -2  146.95    4.46
  -2 -10  -2  143.81    4.76
  -2  10  -1   20.28    1.03
  -2 -10  -1   19.06    1.39
   2 -10  -1   18.12    1.42
  -2  10  -1   20.32    1.09
  -2  10   0  735.50   21.21
   2  10   0  690.09   21.31
  -2  10   0  747.00   20.54
  -2  10   1   18.02    0.88
   2 -10   1   13.82    1.64
  -2 -10   1   17.06    1.81
  -2  10   2  132.03    3.82
   2 -10   2  122.94    4.22
   2 -10   2  121.69    4.77
  -2 -10   2  136.70    5.21
  -2  10   3    5.30    0.53
   2 -10   3    7.28    1.58
  -2  10   4  278.72    7.84
   2 -10   4  278.02    8.53
   2  10   4  288.69    9.00
  -2  10   4  273.38    8.59
   2 -10   5    2.26    1.36
  -2  10   5   -0.05    0.33
  -2  10   5    1.89    1.39
   2 -10   5    1.82    0.78
   2  10   5   -0.15    0.69
   2 -10   6   36.36    2.25
   2  10   6   37.51    1.44
   2 -10   6   34.46    1.73
   2 -10   7    2.74    1.74
   2  12  -7    9.19    2.11
  -2  12  -6    4.68    1.80
   2 -12  -6    3.67    0.84
   2  12  -5   18.67    1.60
  -2  12  -5   18.31    1.75
   2  12  -4   22.28    1.55
  -2  12  -4   17.18    1.69
   2  12  -3   46.65    2.05
   2 -12  -3   46.09    2.41
  -2 -12  -3   49.30    2.30
  -2  12  -3   46.30    1.97
  -2  12  -3   46.87    2.15
   2 -12  -2   24.32    1.74
  -2 -12  -2   25.05    1.69
  -2  12  -2   22.21    1.24
  -2 -12  -1   52.61    2.46
  -2  12  -1   47.50    1.81
  -2  12  -1   49.32    1.93
   2 -12  -1   51.01    2.48
  -2  12   0   10.53    0.91
  -2  12   0   11.89    1.74
  -2  12   0   11.58    0.78
   2  12   0    7.99    1.78
  -2  12   1   49.19    2.81
  -2  12   1   46.88    1.72
   2  12   1   46.12    2.89
   2 -12   2   25.16    2.38
  -2 -12   2   19.56    2.77
  -2  12   2   24.28    1.12
  -2  12   3   42.78    1.50
   2 -12   3   36.85    2.66
   2 -12   4   16.93    2.22
  -2  12   4   16.82    0.84
  -2  12   5   13.30    0.69
   2  12   5   15.45    0.97
   2 -14  -6   16.47    1.13
   2  14  -6   19.25    2.02
   2 -14  -4    1.88    1.56
  -2 -14  -4    1.67    1.46
  -2  14  -4    1.29    1.23
  -2 -14  -3  142.40    5.12
  -2  14  -3  147.25    4.73
  -2  14  -3  152.45    4.89
   2 -14  -3  152.11    5.29
   2  14  -3  144.25    4.81
   2 -14  -2   82.64    3.40
  -2 -14  -2   77.21    3.28
  -2  14  -2   75.22    2.69
  -2  14  -1  243.93    7.21
  -2 -14  -1  239.75    7.93
  -2  14  -1  244.87    7.29
   2 -14  -1  257.01    8.03
  -2  14   0    5.43    1.90
   2  14   0    3.94    1.96
  -2  14   0    3.24    0.75
  -2  14   0    4.63    0.90
  -2  14   1  239.26    7.03
  -2  14   1  248.64    8.19
   2  14   1  236.71    8.48
  -2  14   2   72.43    2.42
   2 -14   2   69.35    3.82
  -2 -14   2   75.44    4.29
  -2  14   3  136.94    4.15
  -2 -14   3  151.64    6.72
   2 -14   3  137.24    5.72
   2 -14   4    2.67    2.25
  -2 -14   4    1.93    3.42
  -2  14   4    1.60    0.67
   2 -14   5   68.82    3.83
   2  14   5   73.30    2.25
  -2  14   5   62.78    2.13
   2 -14   6   18.30    2.80
  -2 -14   6   29.44    4.75
   2  16  -6    9.01    2.08
  -2  16  -5   27.53    2.15
  -2  16  -4    0.35    1.32
   2 -16  -4    0.30    1.71
  -2 -16  -4    0.23    1.68
   2 -16  -3   60.24    3.08
  -2  16  -3   59.44    2.47
  -2 -16  -3   61.16    2.96
  -2  16  -2   20.48    1.39
  -2 -16  -2   20.62    2.07
   2 -16  -2   23.37    2.16
  -2  16  -1   79.07    2.89
  -2  16  -1   78.80    2.77
  -2 -16  -1   84.52    3.73
   2 -16  -1   81.88    3.74
  -2  16   0    4.14    0.88
  -2  16   0    3.13    2.06
   2  16   0    5.10    2.17
  -2  16   0    4.47    0.96
  -2  16   1   75.93    3.95
  -2  16   1   74.23    2.61
   2  16   1   73.54    4.24
  -2  16   2   20.61    1.20
  -2  16   3   52.62    1.95
   2 -16   3   53.09    3.89
  -2 -16   4    1.68    4.14
  -2  16   4    0.37    0.74
   2 -16   4    0.44    2.68
   2 -16   5   22.69    3.10
  -2  16   5   20.41    1.05
   2 -16   6    8.02    2.83
  -2 -16   6   12.32    5.06
  -2  18  -5    3.56    1.83
  -2  18  -4    0.62    1.55
   2 -18  -4    1.73    2.06
  -2 -18  -4    2.15    1.99
  -2  18  -3    6.56    1.47
   2 -18  -3    7.59    1.95
  -2 -18  -3    8.10    1.87
   2 -18  -2   20.29    2.25
  -2 -18  -2   19.19    2.26
  -2  18  -2   19.11    1.49
  -2  18  -1   11.46    1.22
   2 -18  -1   12.57    2.17
  -2 -18  -1   13.19    2.20
  -2  18   0    0.16    1.02
  -2  18   1   11.23    1.17
  -2  18   2   16.57    1.22
   2 -18   3    7.76    2.88
  -2  18   3    4.74    0.93
  -2  18   4    0.12    0.86
   2 -18   4   -0.59    3.23
  -2 -18   4    0.27    5.04
   2 -18   5    1.18    3.30
  -2 -18   5    0.87    5.35
   2 -20  -4    7.32    2.37
  -2 -20  -4    7.57    2.37
  -2  20  -4    5.86    1.79
   2 -20  -3   17.91    2.45
  -2 -20  -3   18.36    2.39
  -2  20  -3   19.39    1.83
   2 -20  -2   51.16    3.18
  -2 -20  -2   44.34    3.17
  -2  20  -2   47.31    2.27
  -2 -20  -1   26.54    2.87
  -2  20  -1   28.10    1.76
   2 -20  -1   31.42    2.85
   2 -20   0   12.22    2.46
  -2 -20   0   12.98    2.64
   2 -20   4    5.10    3.35
  -2 -20   4    9.74    5.52
  -2  22  -3    1.16    1.76
  -2 -22  -2   16.01    2.77
  -2  22  -2   17.60    1.89
   2 -22  -2   17.16    2.71
  -2 -22  -1   -0.56    2.43
   2 -22  -1    3.14    2.47
  -2  22  -1    2.40    1.47
   2 -22   0    3.19    2.64
  -2 -22   0    2.99    2.72
   3   1  -8    8.11    1.76
   3  -1  -8    8.10    1.69
   3   1  -7   14.05    1.62
   3  -1  -7   13.07    1.45
  -3  -1  -5   51.58    1.97
   3   1  -4   64.39    2.11
  -3  -1  -4   74.30    2.40
   3  -1  -3   99.84    2.82
  -3  -1  -3   94.43    3.07
  -3   1  -2   47.40    1.72
  -3  -1  -2   42.18    1.48
  -3   1   0   70.32    2.23
   3  -1   0   61.41    2.19
  -3   1   1   84.76    2.43
  -3  -1   1   79.10    2.53
  -3   1   1   84.69    2.73
   3   1   1   83.93    2.50
  -3   1   2   44.94    1.72
  -3  -1   2   41.02    1.43
   3  -1   3   96.85    3.31
  -3  -1   3   89.77    2.95
   3   1   4   62.77    2.45
   3  -1   4   60.72    2.40
  -3  -1   4   66.62    2.34
   3  -1   5   38.23    1.82
   3   1   5   37.07    1.79
  -3  -1   5   39.29    1.81
   3  -1   6    9.48    1.97
   3   1   6   12.47    1.27
   3   1   7   10.20    2.07
   3  -1   7   10.05    1.96
   3  -1   8    4.31    1.87
   3   1   8    7.32    1.98
   3  -1   9    1.97    1.83
   3   1   9    2.04    1.86
   3   3  -8    1.19    1.68
   3  -3  -7   29.53    1.78
   3   3  -7   29.52    1.93
  -3  -3  -6   82.17    2.55
   3  -3  -6   69.25    2.67
   3   3  -5   85.34    2.89
  -3  -3  -5   85.96    2.78
  -3  -3  -4    3.14    0.52
   3   3  -4    2.90    0.63
   3  -3  -3  156.31    4.77
   3  -3  -2  305.73    8.80
   3  -3  -2  296.99    8.48
   3   3   0    6.40    0.52
  -3   3   0    5.78    0.53
  -3   3   0    5.78    0.76
   3  -3   0    6.86    0.78
   3  -3   1  193.69    5.85
  -3  -3   1  194.93    5.74
   3   3   1  187.41    5.63
  -3   3   1  196.78    5.93
  -3   3   2  285.00    8.27
   3  -3   2  299.11    8.61
   3   3   2  288.82    8.46
  -3   3   3  150.16    4.38
   3   3   3  139.63    4.58
   3  -3   3  139.59    4.54
   3  -3   4    2.92    1.00
  -3   3   4    1.48    0.68
   3   3   4    2.14    1.01
   3  -3   4    0.63    1.48
  -3  -3   4    2.99    0.50
   3   3   5   73.85    3.13
   3   3   5   76.51    2.75
   3  -3   5   77.39    2.85
  -3   3   5   75.91    2.72
  -3  -3   5   75.39    2.54
   3  -3   5   80.52    3.42
   3  -3   6   59.35    3.00
   3   3   6   62.23    2.39
  -3   3   6   59.09    2.43
   3   3   6   57.11    3.00
  -3  -3   6   60.80    2.24
   3  -3   7   20.99    2.13
   3  -3   8    0.04    1.90
   3   3   8   -0.68    1.95
   3   3   9    6.49    1.86
   3  -3   9    7.21    2.16
   3   5  -9    1.16    2.19
   3   5  -8    2.30    1.86
   3   5  -7    0.15    1.38
   3  -5  -6   46.06    1.84
  -3  -5  -6   51.75    1.81
   3   5  -6   44.84    2.21
   3   5  -5   -0.42    0.84
   3  -5  -5    0.31    0.60
   3   5  -4    0.77    0.65
   3  -5  -4    1.05    0.83
   3  -5  -3   -0.06    0.74
   3  -5  -2  160.29    4.54
   3  -5  -2  152.10    4.82
   3  -5  -1    5.60    0.61
   3  -5  -1    3.98    0.63
  -3   5   0    3.41    0.68
   3  -5   0    2.72    0.54
   3   5   0    3.59    0.67
   3  -5   0    3.06    0.76
   3  -5   1    3.80    0.89
   3  -5   1    5.36    0.63
   3  -5   1    5.47    0.81
  -3  -5   1    4.87    0.92
   3  -5   1    4.18    0.88
   3  -5   2  153.87    5.12
  -3   5   2  162.05    4.78
   3  -5   2  152.56    4.89
   3  -5   2  154.53    4.84
   3   5   2  160.12    4.98
  -3   5   3    0.37    0.70
   3   5   3    1.18    0.91
   3  -5   3   -0.02    0.87
   3  -5   3    0.68    0.90
   3  -5   4   -0.04    1.26
   3   5   4    0.13    1.08
  -3   5   4    0.33    0.76
   3  -5   4    0.46    0.96
   3   5   5    0.25    0.97
   3  -5   5   -0.11    1.26
  -3   5   5   -0.11    0.87
   3   5   5    0.88    1.34
   3  -5   5    1.30    0.82
   3  -5   6   42.72    2.51
   3   5   6   43.76    1.86
  -3  -5   6   43.15    1.68
   3  -5   7   -0.08    1.80
   3   5   8   -0.38    2.16
   3  -5   8   -0.76    2.08
   3  -5   9    1.90    2.01
   3   7  -8   23.59    2.36
  -3  -7  -7    3.30    0.92
   3   7  -6    2.16    1.19
   3   7  -5   17.78    1.29
   3  -7  -5   18.88    1.24
   3   7  -4  137.53    3.79
   3  -7  -4  141.81    3.97
   3  -7  -3   20.50    1.10
   3  -7  -2    5.84    0.66
  -3  -7  -2    5.88    0.71
   3  -7  -2    5.59    0.82
   3  -7  -1   32.58    1.44
   3  -7  -1   31.03    1.29
   3  -7  -1   29.92    1.36
  -3  -7  -1   32.45    1.39
   3  -7   0  281.45    8.03
   3  -7   0  255.49    7.89
  -3   7   0  273.14    8.11
   3   7   0  281.35    8.17
   3  -7   1   29.71    1.52
   3  -7   1   30.19    1.46
   3  -7   1   29.73    1.27
   3  -7   1   30.53    1.70
  -3  -7   1   33.08    1.84
   3  -7   2    4.56    1.06
   3  -7   2    5.02    0.96
  -3  -7   2    4.77    1.33
   3  -7   2    5.61    0.69
   3  -7   2    6.25    0.91
   3   7   3   21.80    1.69
   3  -7   3   22.15    1.15
   3  -7   3   20.97    1.39
  -3   7   3   20.09    1.35
  -3   7   4  127.08    4.32
   3   7   4  129.75    4.73
   3  -7   4  128.13    4.63
   3  -7   4  143.17    4.38
  -3   7   5   15.42    1.36
   3   7   5   13.88    1.83
   3   7   5   15.00    1.31
   3  -7   5   16.02    1.85
   3  -7   6    3.10    1.69
   3   7   6    1.97    0.99
   3  -7   6    3.14    0.91
   3  -7   7    3.41    2.02
   3  -7   8   21.87    2.35
   3   9  -8   31.09    2.67
  -3  -9  -7    1.45    0.76
   3   9  -6   12.17    1.45
   3  -9  -6   12.66    1.18
   3  -9  -5    0.82    0.91
   3   9  -5    2.15    1.06
   3   9  -4  184.95    5.52
   3  -9  -4  175.80    5.44
   3  -9  -3    1.20    0.61
   3  -9  -2   27.04    1.48
  -3  -9  -2   26.07    1.37
   3  -9  -2   24.63    0.99
   3  -9  -1    2.50    0.86
  -3  -9  -1    2.79    0.83
  -3   9  -1    1.57    0.79
   3  -9  -1    3.28    0.65
   3  -9   0  279.46    8.41
  -3   9   0  287.62    8.71
   3   9   0  286.22    8.73
   3  -9   0  282.03    8.29
  -3   9   0  292.31    8.28
   3  -9   1    2.85    0.99
  -3   9   1    3.10    1.19
   3  -9   1    3.28    1.17
  -3   9   1    2.49    0.60
   3  -9   1    3.85    0.84
   3  -9   2   30.88    1.81
   3  -9   2   27.49    1.91
  -3  -9   2   27.35    2.29
  -3   9   2   24.24    1.06
   3  -9   2   24.70    1.41
  -3   9   3    2.84    1.11
   3   9   3    1.15    1.34
   3  -9   3    2.52    1.30
  -3  -9   3    3.62    2.29
   3  -9   3    2.48    1.27
   3  -9   3    0.93    0.69
   3  -9   4  181.18    5.51
  -3   9   4  177.91    5.75
   3   9   4  174.94    6.18
  -3   9   5    2.61    1.36
   3   9   5    3.15    1.80
   3  -9   5    2.86    1.74
   3  -9   5    1.51    1.03
   3  -9   6   11.75    1.91
   3   9   6   10.58    1.14
   3  -9   6   11.37    1.37
   3  -9   7   -0.17    1.94
   3  -9   8   25.29    2.54
   3  11  -6    7.70    1.45
   3 -11  -6    5.64    1.07
   3 -11  -5    3.54    0.86
   3  11  -5    4.12    1.26
   3  11  -4   10.35    1.18
   3 -11  -4    9.62    0.89
   3 -11  -3   10.81    1.35
  -3 -11  -3   11.34    1.24
   3 -11  -2   16.50    1.43
  -3 -11  -2   14.88    1.31
   3 -11  -1    4.65    1.09
  -3 -11  -1    4.26    1.10
  -3  11  -1    4.68    0.89
  -3  11   0   25.44    1.94
   3  11   0   24.84    1.95
  -3  11   0   27.12    1.30
   3  11   1    4.04    1.55
   3 -11   1    4.23    1.10
  -3  11   1    5.31    1.47
  -3  11   1    4.09    0.71
  -3  11   2   13.43    0.82
  -3 -11   2   15.85    2.50
   3 -11   2   15.20    1.47
   3 -11   2   15.38    2.01
   3 -11   3    7.56    1.46
  -3 -11   3   11.23    2.79
  -3  11   3    7.32    0.65
   3 -11   3   10.84    1.75
   3  11   4    8.79    1.97
   3 -11   4   10.30    1.87
   3 -11   4   11.40    1.02
   3 -11   5    4.42    1.68
   3 -11   5    3.69    1.04
   3 -11   6    6.11    1.95
   3  11   6    7.02    1.06
   3 -11   7    3.13    2.03
   3 -13  -6   24.00    1.39
   3 -13  -5    8.63    0.99
   3  13  -4    6.07    1.20
   3 -13  -3   16.17    1.60
  -3 -13  -3   17.21    1.56
   3 -13  -2  123.84    4.30
  -3 -13  -2  114.99    4.17
  -3  13  -2  112.08    3.90
   3 -13  -1   17.71    1.67
  -3 -13  -1   17.32    1.58
  -3  13  -1   14.28    1.23
  -3  13   0    3.06    1.61
   3  13   0    5.54    1.66
  -3  13   0    4.26    0.84
   3  13   1   14.82    2.29
  -3  13   1   14.97    1.00
  -3  13   1   16.69    2.06
   3 -13   2  103.78    4.48
  -3 -13   2  115.59    5.07
  -3  13   2  104.23    3.27
  -3  13   3   13.83    0.86
   3 -13   3   16.93    2.39
   3 -13   3   16.52    1.72
  -3 -13   3   17.18    3.48
  -3  13   4    5.13    0.64
   3 -13   4    5.66    2.08
  -3 -13   4    9.63    3.63
   3 -13   5    8.55    1.94
   3 -13   5    8.23    1.16
   3 -13   5    7.23    2.25
  -3 -13   5   10.27    4.32
  -3 -13   6   41.02    5.34
   3 -15  -3   35.14    2.25
  -3 -15  -3   34.31    2.12
   3 -15  -2   19.08    1.88
  -3 -15  -2   14.82    1.74
  -3  15  -1   33.53    1.78
   3 -15  -1   37.25    2.34
  -3  15   0   -0.55    1.88
   3  15   0    2.01    1.88
  -3  15   0    1.72    0.94
  -3  15   1   31.31    1.46
   3  15   1   33.37    2.82
  -3  15   1   36.95    2.80
  -3  15   2   16.17    1.01
  -3  15   2   16.68    2.26
   3  15   2   15.04    2.68
  -3  15   3   28.78    1.29
  -3 -15   3   39.62    4.42
   3 -15   3   34.52    3.09
   3 -15   4    2.66    2.54
  -3 -15   4    3.43    4.16
  -3  15   4    1.64    0.68
   3 -15   5   13.81    2.62
  -3 -15   5   19.15    5.30
   3 -15   6    5.79    2.57
  -3 -15   6   14.63    5.25
   3 -17  -4   11.78    2.07
  -3 -17  -4   12.18    1.99
   3 -17  -3    0.86    1.65
  -3 -17  -3    0.60    1.56
   3 -17  -2    1.93    1.63
  -3 -17  -2    1.52    1.72
   3 -17  -1    0.85    1.75
  -3 -17  -1   -0.15    1.66
  -3  17   0   14.58    1.28
  -3 -17   0   15.86    2.24
  -3  17   1    0.23    0.92
  -3  17   2    0.71    0.83
   3 -17   3    1.18    2.49
  -3  17   3    0.57    0.83
  -3 -17   3   -0.55    4.03
  -3  17   4    8.72    0.91
   3 -17   4    9.18    2.96
  -3 -17   4   13.40    5.54
   3 -17   5   -0.89    2.89
  -3 -17   5   -3.45    5.51
   3 -19  -4    3.38    2.01
  -3 -19  -4    1.23    1.85
  -3 -19  -3   14.98    2.16
   3 -19  -3   15.46    2.12
   3 -19  -2    6.09    2.00
  -3 -19  -2    3.44    1.95
   3 -19  -1   22.03    2.40
  -3 -19  -1   20.91    2.53
   3 -19   0    3.87    2.18
  -3 -19   0    2.42    2.17
  -3  19   3   12.78    1.11
  -3 -19   4    2.39    5.23
   3 -19   4    1.07    3.00
   3 -21  -3    3.96    2.12
  -3 -21  -3    3.87    2.15
   3 -21  -2   16.04    2.48
  -3 -21  -2   13.61    2.53
   3 -21  -1    1.78    2.13
  -3 -21  -1    0.98    2.39
   3 -21   0    1.74    2.35
  -3 -21   0   -0.22    2.72
   3 -23   0    3.89    2.49
   4   0  -4  604.55   17.04
  -4   0  -4  649.20   17.50
  -4   0  -3   -0.39    0.71
  -4   0  -2  369.11   10.59
  -4   0   0 1405.72   39.07
  -4   0   1    0.66    0.21
   4   0   1    0.34    0.26
  -4   0   1    0.73    0.45
  -4   0   2  356.02   10.24
  -4   0   3   -0.49    0.74
   4   0   4  571.75   17.36
  -4   0   4  625.19   17.23
   4   0   5   -0.32    1.24
   4   0   6   79.89    3.10
   4   0   7   -1.96    2.31
   4   0   8   87.80    4.20
   4   0   9   -2.34    2.32
   4   2  -8   43.47    2.64
   4  -2  -7    2.33    1.30
   4   2  -5    4.41    0.73
  -4  -2  -5    5.10    0.98
   4   2  -4  248.88    7.19
  -4  -2  -4  257.19    7.41
  -4   2  -3   16.04    1.17
  -4  -2  -3   11.17    0.78
  -4   2  -2   56.29    2.15
  -4  -2  -2   52.86    1.87
   4  -2   0  475.86   13.65
  -4   2   0  474.40   13.63
   4  -2   1    1.54    0.45
  -4  -2   1    1.41    0.50
  -4   2   1    0.45    0.69
   4  -2   1    1.14    0.70
  -4   2   2   55.51    1.81
   4   2   2   53.76    1.93
  -4   2   2   53.86    2.20
  -4  -2   2   52.63    1.85
  -4   2   3   10.36    0.75
   4   2   3    8.77    0.96
  -4  -2   3    9.52    0.70
  -4   2   4  250.80    7.04
   4   2   4  228.06    7.34
   4  -2   4  227.30    7.31
  -4  -2   4  236.93    7.01
  -4   2   5    4.22    0.91
   4   2   5    3.88    1.46
   4  -2   5    2.93    1.84
   4  -2   5    4.28    1.32
  -4  -2   5    2.82    0.99
   4   2   5    4.54    1.31
  -4   2   6   12.90    1.28
   4   2   6   14.82    1.94
   4   2   6   10.88    1.43
   4  -2   6   12.57    2.32
   4  -2   7    0.51    2.20
   4  -2   8   35.44    2.97
   4   2   8   34.49    3.06
   4   2   9    3.41    2.33
   4  -2   9    0.18    2.38
   4   4  -8    1.85    1.81
  -4  -4  -6   31.04    1.58
   4   4  -6   24.17    1.55
   4   4  -5   87.96    2.93
  -4  -4  -5   92.56    2.99
  -4  -4  -4    4.63    0.67
   4  -4  -3  175.21    5.43
   4  -4  -2  137.37    4.22
   4  -4  -2  124.31    4.02
   4  -4   0    0.79    0.39
  -4  -4   0    0.46    0.34
   4  -4   0    0.79    0.77
  -4  -4   1  297.34    8.65
   4  -4   1  281.91    8.59
  -4   4   2  121.14    3.86
   4   4   2  122.84    4.03
  -4   4   3  160.98    4.99
   4   4   3  163.52    5.26
   4  -4   3  152.29    5.33
   4  -4   3  173.04    5.29
   4  -4   3  179.23    5.72
  -4   4   4    3.71    0.78
   4   4   4    3.13    1.19
  -4  -4   4    4.47    0.66
  -4   4   5   82.98    2.95
   4   4   5   78.82    3.45
  -4  -4   5   82.68    2.78
   4   4   5   84.06    3.27
   4  -4   5   81.38    3.22
   4  -4   5   91.84    3.81
   4  -4   6   23.16    2.40
   4   4   6   23.97    1.68
  -4  -4   6   23.25    1.58
   4  -4   7   27.17    2.66
   4   4   8   -2.13    2.69
   4  -4   8   -1.74    2.45
   4   4   9    9.05    2.64
   4   6  -8    0.04    1.81
  -4  -6  -7   75.64    2.71
   4   6  -6   50.17    2.19
   4  -6  -6   51.18    1.91
  -4  -6  -6   56.62    2.03
   4   6  -5  156.80    5.03
   4  -6  -5  169.35    5.08
   4  -6  -4    7.77    1.10
   4  -6  -3  357.10   10.46
   4  -6  -2  251.01    7.36
   4  -6  -2  258.74    7.64
   4  -6  -1  522.77   14.42
  -4  -6  -1  507.08   14.32
   4  -6  -1  493.09   14.57
   4  -6   0   13.98    1.30
  -4   6   0   14.18    1.07
   4   6   0   14.08    1.02
   4  -6   0   12.74    1.02
  -4  -6   0   13.56    0.85
   4  -6   1  497.62   14.40
  -4  -6   1  504.26   14.43
   4  -6   1  488.24   14.65
   4  -6   1  512.45   14.45
   4  -6   2  239.80    7.76
   4  -6   2  251.88    7.45
  -4  -6   2  263.41    7.75
   4  -6   2  225.59    7.48
   4  -6   2  247.44    7.43
  -4   6   3  329.28    9.70
   4   6   3  322.09   10.02
   4  -6   3  335.36   10.25
   4  -6   3  309.32    9.89
  -4   6   4    5.72    1.07
   4   6   4    5.30    1.43
   4  -6   4    7.60    1.22
  -4   6   5  140.36    4.63
   4   6   5  134.23    5.13
   4  -6   5  134.98    5.15
   4  -6   5  142.25    4.58
   4  -6   6   43.41    2.94
   4   6   6   47.77    2.25
  -4  -6   6   50.68    1.90
   4  -6   7   54.95    3.34
   4  -6   8   -0.84    2.39
   4   8  -8    0.08    1.97
  -4  -8  -7    9.75    1.12
   4   8  -6   34.84    1.86
   4   8  -5   21.02    1.38
   4  -8  -5   24.67    1.46
   4  -8  -4    1.28    0.95
   4  -8  -3   40.86    1.78
   4  -8  -2   96.43    3.18
  -4  -8  -2   98.11    3.07
   4  -8  -1   72.60    2.54
  -4  -8  -1   71.30    2.49
   4  -8  -1   75.34    2.65
  -4   8   0   -0.29    0.97
   4   8   0    0.88    0.92
   4  -8   0   -0.93    1.06
   4  -8   0    0.72    0.66
   4  -8   0   -0.23    1.01
  -4   8   1   72.73    2.66
   4   8   1   70.46    2.67
   4  -8   1   64.59    2.70
   4  -8   1   62.33    2.55
   4  -8   1   61.87    2.35
   4  -8   2   86.51    3.47
   4  -8   2   86.39    3.28
   4  -8   2   98.61    3.48
  -4  -8   2  106.53    3.94
   4  -8   2   81.14    2.99
   4  -8   3   36.67    2.39
   4  -8   3   41.21    2.18
   4  -8   3   40.27    1.90
  -4   8   3   42.25    1.98
   4   8   3   44.06    2.37
  -4   8   4    0.91    1.10
   4   8   4    0.75    1.40
   4  -8   4    1.61    1.27
   4  -8   4    1.06    1.12
  -4   8   5   18.80    1.63
   4   8   5   19.26    2.19
   4  -8   5   25.01    1.66
   4  -8   5   17.84    2.21
   4  -8   6   34.02    2.74
   4   8   6   34.39    1.92
   4   8   7    9.35    1.42
   4  -8   7   10.13    2.44
   4  -8   8    0.05    2.36
  -4 -10  -7   12.82    1.11
   4  10  -6   40.33    2.13
   4 -10  -6   48.64    2.00
   4  10  -5   23.73    1.55
   4 -10  -5   23.60    1.50
   4 -10  -4    8.78    1.03
   4 -10  -3   47.22    1.62
   4 -10  -3   52.45    1.98
   4 -10  -2  163.16    4.82
  -4 -10  -2  156.89    4.73
   4 -10  -2  150.51    4.66
   4 -10  -1  106.75    3.47
  -4 -10  -1  102.46    3.38
   4 -10  -1   98.61    3.40
  -4  10   0   12.86    1.43
   4 -10   0   12.56    1.36
   4  10   0   12.06    1.35
   4 -10   0   10.57    1.15
   4 -10   0   12.78    0.94
   4 -10   1  102.46    3.76
   4 -10   1   95.92    3.19
  -4  10   1  104.33    3.76
   4  10   1   98.41    3.78
   4 -10   2  150.22    5.39
   4 -10   2  147.23    4.85
   4 -10   2  144.67    5.09
   4 -10   2  183.72    5.74
  -4 -10   2  193.27    6.15
   4 -10   3   52.37    2.74
   4 -10   3   53.62    2.14
   4 -10   3   46.93    2.38
   4  10   4    8.96    2.01
   4 -10   4   10.08    1.81
   4 -10   4    8.26    1.10
   4 -10   5   20.94    2.55
   4 -10   5   26.75    1.76
   4 -10   6   41.11    2.97
   4  10   6   41.10    2.13
   4 -10   7   10.04    2.42
   4 -12  -6   48.69    2.09
   4 -12  -5   37.78    1.83
   4  12  -4   16.55    1.49
   4 -12  -4   14.04    1.13
   4 -12  -3   75.87    2.96
  -4 -12  -3   79.26    2.88
   4 -12  -2  180.20    5.39
  -4 -12  -2  168.67    5.27
   4 -12  -1  128.85    4.33
  -4 -12  -1  122.17    4.28
  -4  12   0   52.25    2.59
   4  12   0   46.48    2.53
   4 -12   0   51.51    2.42
   4  12   1  106.12    4.41
   4 -12   1  112.61    4.18
  -4  12   1  120.43    4.34
   4 -12   2  183.68    6.02
  -4 -12   2  192.03    6.48
   4 -12   2  155.56    5.60
   4 -12   2  152.80    5.04
   4 -12   3   67.85    3.26
   4 -12   3   67.65    2.61
   4 -12   3   74.39    3.59
   4 -12   4   12.98    2.00
   4 -12   4   15.01    1.25
   4 -12   4   12.50    2.17
   4 -12   5   43.39    2.95
   4 -12   5   39.40    2.87
   4 -12   5   41.92    2.10
   4 -12   6   44.01    3.02
   4 -12   7   16.16    2.76
   4 -14  -3   16.33    1.58
  -4 -14  -3   13.65    1.48
   4 -14  -2   24.19    1.78
  -4 -14  -2   23.39    1.84
   4 -14  -1   14.45    1.59
  -4 -14  -1   12.57    1.58
  -4 -14   0   -1.66    1.54
  -4  14   0    0.28    1.62
   4  14   0    0.77    1.53
  -4  14   1   13.92    2.01
   4  14   1   11.14    2.03
  -4  14   1    9.15    1.02
  -4  14   2   24.61    2.38
   4  14   2   20.22    2.49
   4 -14   2   23.91    2.12
  -4 -14   3   21.22    3.98
   4 -14   3   13.00    2.05
   4 -14   3   18.91    2.73
   4 -14   4    2.26    2.06
   4 -14   4    1.36    2.33
  -4 -14   4   -1.37    4.18
   4 -14   5    3.14    2.23
  -4 -14   5   10.92    5.11
   4 -14   6    7.22    2.57
   4 -14   6    7.58    2.54
  -4 -14   6   12.62    5.28
   4 -16  -3    2.99    1.49
  -4 -16  -3    2.45    1.41
   4 -16  -2   19.93    1.90
  -4 -16  -2   21.44    1.87
   4 -16  -1    2.83    1.51
  -4 -16  -1    2.40    1.58
   4 -16   0  118.30    4.32
  -4 -16   0  110.63    4.41
  -4  16   1    0.77    0.95
  -4  16   1    2.34    2.10
  -4  16   2   15.16    1.14
  -4 -16   3   -0.89    3.61
   4 -16   3    5.79    2.49
   4 -16   4   53.85    3.97
  -4 -16   4   65.95    6.38
   4 -16   5    3.42    2.79
  -4 -16   5    1.43    5.73
   4 -16   6    2.50    2.64
  -4 -16   6   10.35    6.39
   4 -18  -3    5.84    1.71
  -4 -18  -3    7.23    1.78
   4 -18  -2   23.00    2.06
  -4 -18  -2   21.49    2.17
   4 -18  -1    8.94    1.90
  -4 -18  -1    7.69    1.96
   4 -18   0   83.25    3.89
  -4 -18   0   75.61    3.90
  -4  18   2   16.74    1.25
  -4  18   3    3.04    0.96
   4 -18   4   36.26    3.48
  -4 -18   4   46.67    6.10
   4 -18   5    4.91    3.26
  -4 -18   5    2.26    6.45
   4 -20  -3    0.51    1.86
  -4 -20  -3    1.34    1.91
   4 -20  -2    1.98    1.88
  -4 -20  -2    0.30    2.09
   4 -20  -1   -0.20    1.86
  -4 -20  -1   -0.36    2.09
   4 -20   0    5.18    2.23
  -4 -20   0    4.69    2.24
   4 -22  -2    4.77    2.35
   4 -22  -1   11.56    2.35
  -4 -22  -1    9.08    2.61
   4 -22   0   -1.72    2.41
  -4 -22   0   -1.72    2.62
   4 -22   1   12.75    2.76
  -4 -22   1    8.14    3.18
   5   1  -5    1.15    0.56
  -5  -1  -5    1.18    1.10
  -5   1  -4  233.47    6.94
  -5  -1  -4  212.56    6.80
  -5   1  -3    2.53    0.89
  -5  -1  -3    2.37    0.76
  -5   1  -2   38.29    1.72
  -5  -1  -2   36.59    1.56
  -5   1   0  307.82    8.90
  -5  -1   0  296.30    8.73
  -5   1   1   -0.05    0.69
  -5  -1   1    0.49    0.53
  -5   1   2   41.93    1.39
   5   1   2   42.03    1.53
  -5   1   2   36.17    1.75
  -5  -1   2   35.07    1.59
  -5   1   3    3.23    0.65
   5   1   3    3.36    0.85
  -5   1   3    2.11    0.89
  -5  -1   3    2.21    0.72
  -5   1   4  201.00    5.98
   5   1   4  189.44    6.27
   5  -1   4  174.29    6.55
  -5   1   4  226.31    6.47
  -5  -1   4  207.96    6.25
  -5   1   5    1.15    0.94
   5   1   5    2.01    1.37
   5   1   5   -0.97    1.68
  -5  -1   5    0.62    1.13
  -5   1   6   12.17    1.35
   5  -1   6    9.42    2.39
   5  -1   7    0.42    2.55
   5  -1   8   32.69    3.26
   5   1   8   30.63    3.30
  -5  -3  -6   12.70    1.40
  -5  -3  -5   -0.35    1.03
   5   3  -5    0.76    0.74
  -5  -3  -4   10.08    0.99
   5  -3  -3    1.43    0.77
  -5  -3  -3    3.11    0.71
  -5   3  -2   49.36    2.14
  -5  -3  -2   46.00    1.78
  -5   3   0   38.84    1.82
   5  -3   0   38.53    1.84
   5   3   1    0.79    0.47
  -5   3   1    1.11    0.55
  -5   3   1    0.46    0.90
   5  -3   1    1.90    0.89
  -5  -3   2   44.77    1.70
  -5   3   2   41.51    1.59
   5   3   2   44.49    1.68
  -5   3   3    2.00    0.73
   5   3   3    1.24    0.91
  -5  -3   3    2.41    0.65
  -5   3   4   10.61    1.02
   5   3   4   11.59    1.33
  -5  -3   4   11.13    0.98
  -5   3   5   -0.47    0.95
   5   3   5    1.19    1.43
   5  -3   5   -0.48    2.06
   5   3   5   -2.01    1.77
  -5  -3   5   -0.71    1.05
   5  -3   6    9.89    2.52
  -5  -3   6   10.10    1.39
   5  -3   7    2.14    2.54
   5   3   8    1.54    2.89
   5  -3   8    2.09    2.61
  -5  -5  -7   24.15    1.71
  -5  -5  -6   53.54    2.29
   5   5  -5   40.81    1.72
  -5  -5  -5   43.54    1.81
  -5  -5  -4    5.27    0.86
   5  -5  -3   86.89    2.80
   5  -5  -3  102.76    3.32
   5  -5  -2  151.29    4.93
   5  -5  -2  163.66    5.04
   5  -5  -1  135.79    4.53
   5  -5   0    5.33    0.52
  -5  -5   0    6.35    0.50
   5  -5   0    5.65    1.12
   5  -5   0    7.23    1.01
  -5   5   1  118.03    3.75
   5   5   1  114.40    3.73
   5  -5   2  153.22    5.02
  -5  -5   2  158.52    5.17
   5  -5   2  164.72    5.17
   5  -5   2  163.29    5.51
   5  -5   3  102.88    3.45
   5  -5   3   97.96    3.87
  -5   5   3   89.14    3.08
   5   5   3   94.88    3.34
  -5   5   4    6.29    1.08
   5   5   4    4.95    1.33
  -5  -5   4    6.22    0.84
   5  -5   5   47.40    2.95
  -5   5   5   44.31    2.04
   5   5   5   37.27    2.47
  -5  -5   5   40.45    1.79
   5  -5   6   48.72    3.20
  -5  -5   6   45.54    2.11
   5  -5   7   14.18    2.75
  -5  -7  -7   10.28    1.47
  -5  -7  -6   18.05    1.28
   5   7  -5   28.17    1.54
  -5  -7  -5   32.12    1.50
   5  -7  -4    2.78    1.05
   5  -7  -3   51.87    2.24
   5  -7  -2   59.30    2.28
   5  -7  -2   60.48    2.39
   5  -7  -1   49.93    2.22
   5  -7  -1   47.99    1.75
  -5  -7  -1   48.68    1.72
   5  -7   0    1.88    0.61
  -5  -7   0    2.43    0.62
   5  -7   0    2.55    1.16
   5  -7   0    2.76    0.97
   5  -7   1   51.34    2.50
   5  -7   1   47.84    2.44
   5  -7   1   50.03    2.13
  -5   7   1   49.92    2.09
   5   7   1   47.07    2.05
   5  -7   2   64.04    2.97
   5  -7   2   61.46    2.49
   5  -7   2   63.23    2.67
   5  -7   3   47.91    2.72
   5  -7   3   45.06    2.34
  -5  -7   3   53.30    3.01
   5  -7   3   53.88    2.24
  -5   7   4    0.67    1.13
   5   7   4    2.00    1.41
   5  -7   4    3.09    1.20
  -5   7   5   29.72    1.86
   5   7   5   27.09    2.29
   5  -7   5   27.97    2.45
  -5  -7   6   17.38    1.28
   5  -7   6   12.76    2.42
   5  -7   7    9.76    2.87
  -5  -9  -6    9.17    1.08
   5   9  -5    8.33    1.19
   5  -9  -5    9.96    1.18
   5  -9  -4   10.90    1.24
   5  -9  -3    8.30    1.22
   5  -9  -2   22.08    1.29
  -5  -9  -2   23.17    1.22
   5  -9  -2   20.76    1.31
   5  -9  -2   21.57    1.45
   5  -9  -1    9.02    0.88
  -5  -9  -1    9.33    0.92
   5  -9  -1    8.19    1.33
   5  -9  -1    6.26    0.98
   5  -9  -1    8.49    1.36
   5  -9   0    8.10    1.41
   5  -9   0    7.32    0.96
   5  -9   0    8.46    1.52
   5  -9   0    8.57    0.94
  -5  -9   0    9.83    0.99
  -5   9   1    8.83    1.34
   5   9   1    9.12    1.25
   5  -9   1    7.51    1.39
   5  -9   1    8.37    1.55
   5  -9   1    7.44    0.99
  -5  -9   2   24.73    2.17
   5  -9   2   19.54    1.95
   5  -9   2   19.88    1.78
   5  -9   2   20.39    1.46
   5  -9   2   22.14    1.88
  -5  -9   3    9.30    2.37
   5  -9   3    5.68    1.80
   5  -9   3    7.14    1.66
   5  -9   3    9.32    1.27
   5  -9   3    7.44    1.69
   5  -9   4   10.21    1.82
  -5  -9   4   13.31    3.17
   5  -9   4    8.94    2.03
   5  -9   4    9.27    1.34
  -5   9   5    5.81    1.69
   5  -9   5    9.18    1.38
  -5  -9   6    9.41    1.15
   5  -9   6    7.78    2.50
   5  -9   7    2.07    2.79
   5 -11  -5   33.32    1.80
   5 -11  -4   -1.24    1.21
   5 -11  -3   49.06    1.92
   5 -11  -3   58.03    2.26
   5 -11  -2   46.59    1.89
  -5 -11  -2   43.84    1.85
   5 -11  -2   36.38    1.75
   5 -11  -2   35.64    1.80
   5 -11  -1   75.64    2.60
  -5 -11  -1   77.39    2.63
   5 -11  -1   72.52    2.86
   5 -11  -1   63.32    2.65
   5 -11  -1   61.45    2.49
   5 -11   0    0.50    1.39
   5 -11   0    0.03    1.02
  -5 -11   0   -0.40    1.05
   5 -11   0    0.14    1.27
   5 -11   0    0.16    0.81
   5 -11   1   77.78    3.33
  -5  11   1   75.43    2.97
   5  11   1   70.41    2.91
   5 -11   1   59.06    2.77
   5 -11   1   61.96    2.47
  -5  11   2   39.04    2.24
   5  11   2   40.67    2.35
   5 -11   2   40.79    2.53
   5 -11   2   39.83    2.29
   5 -11   2   34.65    1.75
   5 -11   3   56.69    3.19
   5 -11   3   59.19    2.54
   5 -11   4    2.37    1.79
  -5 -11   4    0.08    3.29
   5 -11   4   -0.94    1.20
   5 -11   4    1.02    1.97
  -5 -11   5   41.53    4.41
   5 -11   5   39.54    2.11
   5 -11   6   13.94    2.64
   5 -13  -2   29.60    1.66
  -5 -13  -2   28.22    1.68
   5 -13  -1    7.45    1.17
  -5 -13  -1    6.20    1.24
   5 -13  -1    6.59    1.19
   5 -13   0    0.03    1.09
  -5 -13   0    0.50    1.33
   5 -13   0    0.04    1.58
   5 -13   0   -0.46    1.23
   5  13   1    6.80    1.61
   5 -13   1    6.09    1.69
  -5  13   1    7.49    1.72
   5 -13   1    6.18    1.40
   5 -13   2   27.87    2.46
  -5  13   2   32.08    2.42
   5  13   2   25.68    2.43
   5 -13   3    4.92    2.04
  -5 -13   3    5.40    3.02
   5 -13   3    6.39    2.16
   5 -13   4    0.37    2.16
   5 -13   4   -0.06    2.33
  -5 -13   4    1.04    3.99
   5 -13   5    3.78    2.41
  -5 -13   5    8.66    4.59
   5 -13   6    8.21    2.60
   5 -13   6    8.29    2.46
  -5 -13   6   12.41    5.05
   5 -15  -3    2.15    1.25
  -5 -15  -3    3.20    1.37
   5 -15  -2    0.83    1.15
  -5 -15  -2    1.36    1.19
   5 -15  -1    1.11    1.25
  -5 -15  -1    0.69    1.35
   5 -15   0   32.41    2.11
  -5 -15   0   26.96    2.08
  -5  15   1    1.98    1.86
   5  15   1    2.56    1.72
   5 -15   2    0.05    1.93
  -5  15   2    0.45    2.13
   5  15   2    1.02    2.15
   5 -15   3    1.98    2.17
   5 -15   4   14.52    2.56
   5 -15   4   18.34    3.06
   5 -15   5   -0.13    2.75
  -5 -15   5    4.15    5.36
   5 -15   6   -1.22    2.80
  -5 -15   6   -2.18    5.61
   5 -17  -3   -0.14    1.32
  -5 -17  -3    2.22    1.60
  -5 -17  -2   13.22    1.78
   5 -17  -2    9.75    1.58
   5 -17  -1    1.10    1.52
  -5 -17  -1    0.53    1.61
   5 -17   0   51.82    2.78
  -5 -17   0   52.54    2.93
  -5 -17   4   40.90    5.37
   5 -17   4   32.59    3.49
   5 -17   5    3.15    3.09
  -5 -17   5    0.68    5.86
   5 -19  -3    0.61    1.64
  -5 -19  -3    0.44    1.65
   5 -19  -2   -0.62    1.63
  -5 -19  -2    1.58    1.66
   5 -19  -1    0.58    1.55
  -5 -19  -1   -1.09    1.88
   5 -19   0    7.90    2.06
  -5 -19   0   10.86    2.34
   5 -21  -2    8.19    1.95
  -5 -21  -2    9.26    2.17
   5 -21  -1    2.18    1.91
  -5 -21  -1    1.75    2.13
   5 -21   0   -0.52    2.19
  -5 -21   0    2.11    2.34
   5 -21   1    2.14    2.29
  -5 -21   1    3.51    2.67
  -6   0  -5    0.33    1.34
  -6   0  -4    1.23    1.10
  -6   0  -3   -0.61    1.02
  -6   0  -2  104.95    3.61
  -6   0   0   -0.05    0.78
  -6   0   1   -0.59    0.85
  -6   0   2  101.21    3.00
   6   0   2  104.92    3.07
  -6   0   2   98.12    3.49
  -6   0   3   -0.09    0.60
   6   0   3    0.59    0.75
  -6   0   3   -1.39    0.95
  -6   0   4    2.32    0.82
   6   0   4    1.98    1.01
  -6   0   4    0.08    1.11
  -6   0   5    1.22    0.99
   6   0   5    1.34    1.31
  -6   0   5   -0.40    1.38
  -6   0   6   34.39    1.91
   6   0   7   -0.38    2.73
  -6  -2  -6   61.47    2.72
   6   2  -5   44.13    1.65
  -6  -2  -5   54.87    2.30
  -6  -2  -4    6.76    1.14
   6  -2  -4    6.26    0.78
  -6   2  -3  108.17    3.74
  -6  -2  -3  100.21    3.50
  -6   2  -2  157.84    5.07
  -6  -2  -2  156.39    4.95
  -6   2   0   18.59    1.30
  -6  -2   0   20.42    1.17
  -6   2   1  156.73    5.00
  -6  -2   1  155.12    4.85
   6  -2   2  163.43    4.72
  -6  -2   2  159.82    4.74
  -6   2   2  152.53    5.08
  -6  -2   2  148.65    4.91
  -6   2   3  103.77    3.23
   6   2   3  105.05    3.37
  -6   2   3  109.76    3.77
  -6   2   4    9.11    1.01
   6   2   4    7.31    1.17
  -6   2   4    8.08    1.44
  -6  -2   4    5.79    1.17
  -6   2   5   50.26    2.10
   6   2   5   52.02    2.45
  -6  -2   5   49.38    2.29
  -6  -2   6   48.67    2.48
   6  -2   6   53.59    3.55
   6  -2   7   23.23    3.11
  -6  -4  -6   36.46    2.00
   6   4  -5   41.23    1.72
  -6  -4  -5   45.77    2.11
  -6  -4  -4    4.54    1.07
   6  -4  -3  107.21    3.44
  -6  -4  -3  101.80    3.51
  -6  -4  -2  139.77    4.47
  -6   4   0    9.49    1.20
  -6  -4   0   10.14    0.94
  -6   4   1  145.75    4.43
  -6  -4   1  136.79    4.06
   6  -4   2  129.95    4.16
  -6  -4   2  133.28    4.22
  -6  -4   2  131.05    4.23
  -6  -4   3   98.61    3.38
  -6   4   3   99.64    3.30
   6   4   3  102.90    3.42
  -6   4   4    3.20    0.97
   6   4   4    2.58    1.19
   6  -4   4    3.24    1.85
  -6  -4   4    4.01    0.98
  -6   4   5   44.22    2.11
   6   4   5   48.95    2.50
  -6  -4   5   43.50    2.12
  -6  -4   6   32.49    1.96
   6  -4   6   40.66    3.23
   6  -4   7   18.06    3.01
  -6  -6  -6    1.40    1.27
   6   6  -5    9.77    1.14
  -6  -6  -5    9.70    1.18
  -6  -6  -4   32.78    1.69
   6  -6  -3   11.92    1.05
   6  -6  -3   18.52    1.42
   6  -6  -2    2.46    1.13
   6  -6  -2    2.90    1.09
   6  -6  -1   17.72    1.36
   6  -6  -1   17.79    1.57
   6  -6   0   43.32    1.50
  -6  -6   0   44.50    1.49
  -6   6   1   15.75    1.09
   6   6   1   14.20    0.97
   6  -6   1   20.68    1.39
   6  -6   1   20.14    1.74
  -6  -6   2    2.70    1.20
   6  -6   2    2.33    1.46
   6  -6   2    2.32    1.09
   6  -6   2    3.30    1.14
   6  -6   3   13.74    1.46
  -6  -6   3   15.97    1.91
   6  -6   3   16.32    1.51
   6  -6   3   16.26    2.05
  -6  -6   4   31.60    1.65
  -6   6   4   31.86    1.80
   6   6   4   28.52    1.91
   6  -6   4   29.25    2.53
  -6   6   5   11.30    1.52
   6   6   5   10.65    1.79
  -6  -6   5   11.69    1.27
   6  -6   6    0.23    2.20
  -6  -6   6    0.71    1.22
   6  -6   7    2.26    2.53
  -6  -8  -6   13.85    1.36
   6   8  -5    3.84    1.23
  -6  -8  -5    4.94    1.12
   6  -8  -4  143.73    4.74
   6  -8  -3    7.85    1.17
   6  -8  -2   64.14    2.68
   6  -8  -2   71.74    2.74
  -6  -8  -1    5.47    0.70
   6  -8  -1    5.07    0.69
   6  -8  -1    8.47    1.14
   6  -8  -1    6.38    1.36
   6  -8   0  251.58    7.50
  -6  -8   0  253.44    7.52
   6  -8   0  273.32    7.93
  -6   8   1    5.81    1.09
   6   8   1    5.43    0.94
   6  -8   1    7.05    1.77
   6  -8   1    6.27    1.64
   6  -8   1   10.49    1.14
   6  -8   2   68.33    3.11
  -6   8   2   61.46    2.54
   6   8   2   55.64    2.43
   6  -8   2   62.45    2.99
   6  -8   2   71.89    2.65
   6  -8   3    6.34    1.62
  -6  -8   3    5.97    2.02
   6  -8   3    4.63    1.87
   6  -8   3    6.49    1.25
   6  -8   4  133.02    5.36
   6  -8   4  133.34    5.06
  -6  -8   4  150.87    5.71
   6  -8   4  152.58    4.88
  -6   8   5    3.00    1.61
   6   8   5    2.93    1.93
  -6  -8   5    4.65    1.19
  -6  -8   6   15.37    1.45
   6  -8   6   13.55    2.58
  -6 -10  -6    9.68    1.28
   6 -10  -2   30.26    1.87
   6 -10  -2   22.83    1.62
   6 -10  -1    4.54    1.48
   6 -10  -1    4.71    0.78
  -6 -10  -1    4.54    0.82
   6 -10  -1    6.32    1.48
   6 -10   0  140.80    4.47
  -6 -10   0  143.24    4.51
   6 -10   0  151.68    5.16
   6 -10   0  147.17    4.99
  -6  10   1    5.18    1.27
   6  10   1    3.94    1.05
   6 -10   1    4.87    1.63
   6 -10   1    4.25    1.77
   6 -10   2   31.21    2.25
   6 -10   2   23.74    2.14
  -6  10   2   28.90    1.99
   6  10   2   21.92    1.76
   6 -10   3    2.99    1.94
  -6 -10   3    2.00    2.31
   6 -10   3    1.08    1.74
   6 -10   4   86.52    4.19
   6 -10   4   89.17    4.04
   6 -10   5    1.76    1.97
  -6 -10   5    4.17    3.27
   6 -10   6    7.86    2.34
  -6 -10   6   14.82    4.11
  -6 -10   6   12.05    1.49
   6 -10   6    9.48    2.70
   6 -12  -2    2.14    0.91
  -6 -12  -2    1.90    0.99
   6 -12  -2    2.86    1.30
  -6 -12  -1    8.73    1.16
   6 -12  -1    7.52    1.62
   6 -12  -1    7.39    1.01
   6 -12  -1    6.96    1.46
   6 -12   0   12.87    1.18
  -6 -12   0   13.66    1.34
   6 -12   0   10.63    1.90
   6 -12   0   12.55    1.73
   6 -12   1    8.46    2.05
  -6  12   1    8.67    1.57
   6  12   1    7.43    1.30
   6 -12   1    6.95    1.64
  -6  12   2    1.20    1.75
   6  12   2    1.14    1.47
   6 -12   2    3.77    2.16
  -6 -12   3    6.32    2.50
   6 -12   3    6.36    2.07
   6 -12   3    7.86    2.24
   6 -12   4   12.35    2.51
  -6 -12   4   11.14    3.57
   6 -12   4   12.78    2.52
   6 -12   5    1.66    2.32
  -6 -12   5    7.13    4.03
   6 -12   5    3.91    2.70
   6 -12   6    1.32    2.29
  -6 -12   6    0.82    4.16
   6 -14  -2   12.61    1.25
  -6 -14  -2   12.88    1.35
   6 -14  -1   52.43    2.19
  -6 -14  -1   55.69    2.32
   6 -14   0   -0.22    1.89
   6 -14   0    0.44    1.19
  -6 -14   0    0.63    1.28
   6 -14   0   -0.48    1.45
   6  14   1   46.91    2.48
   6 -14   1   48.18    3.02
   6 -14   2   12.82    2.37
  -6  14   2   14.24    2.15
   6  14   2   10.58    1.92
   6 -14   3   37.55    3.04
   6 -14   4   -0.68    2.40
  -6 -14   4   -0.96    3.55
   6 -14   4    3.66    2.59
   6 -14   5   19.37    3.04
  -6 -14   5   26.05    4.84
   6 -14   6    3.90    2.79
  -6 -14   6    9.86    4.96
   6 -16  -2    3.81    1.22
  -6 -16  -2    4.52    1.39
   6 -16  -1   23.09    1.73
  -6 -16  -1   21.94    1.83
   6 -16   0    1.93    1.38
  -6 -16   0    4.03    1.64
   6 -16   1   24.67    2.06
  -6 -16   1   23.21    2.23
   6 -16   2    4.01    2.48
   6 -16   3   12.37    2.66
  -6 -16   5   10.78    4.80
   6 -16   5    8.66    3.11
   6 -18  -3    1.34    1.38
   6 -18  -2    9.53    1.52
  -6 -18  -2    7.48    1.64
   6 -18  -1    0.81    1.47
  -6 -18  -1    0.77    1.71
   6 -18   0    1.95    1.69
  -6 -18   0    0.57    1.81
   6 -18   1    0.79    1.82
  -6 -18   1    1.40    2.10
   6 -20  -3    5.08    1.66
  -6 -20  -3    4.29    1.81
   6 -20  -2   15.31    1.82
  -6 -20  -2   15.36    2.05
   6 -20  -1    5.35    1.78
  -6 -20  -1    4.01    1.99
   6 -20   0    3.54    1.88
  -6 -20   0    4.48    2.04
   6 -20   1    5.69    2.21
  -6 -20   1    2.72    2.45
  -7  -1  -5   11.42    1.57
  -7   1  -4   -0.10    1.36
  -7  -1  -4   -1.21    1.28
  -7   1  -3   21.94    1.65
  -7  -1  -3   21.71    1.71
  -7   1  -2   43.11    2.11
  -7  -1  -2   47.39    2.20
  -7   1   0    0.08    0.99
  -7  -1   0    0.32    0.95
  -7   1   1   18.74    1.42
  -7  -1   1   24.39    1.53
  -7   1   2   42.80    2.04
  -7  -1   2   42.13    2.09
   7   1   3   20.30    1.11
  -7  -1   3   24.93    1.07
   7  -1   3   22.22    1.08
  -7   1   3   23.24    1.63
  -7  -1   3   18.97    1.60
  -7   1   3   21.31    1.07
  -7   1   4   -0.13    0.89
   7   1   4    0.40    0.96
  -7  -1   4    0.39    0.79
   7  -1   4    0.83    0.90
  -7   1   4    0.68    1.28
  -7  -1   4   -1.81    1.29
  -7   1   5   12.15    1.31
  -7  -1   5   10.77    1.19
  -7  -1   5   10.13    1.59
  -7  -3  -6   26.83    2.00
  -7  -3  -5   35.70    2.08
   7  -3  -4    1.69    0.74
  -7  -3  -4   -0.44    1.32
  -7  -3  -3   58.60    2.51
  -7   3  -2   72.85    2.96
  -7  -3  -2   72.02    2.83
  -7   3   0    1.77    1.10
  -7  -3   0    2.54    0.92
  -7   3   1   74.77    2.94
  -7  -3   1   72.05    2.74
  -7  -3   2   61.61    1.78
   7  -3   2   64.86    1.84
  -7   3   2   58.88    1.89
  -7   3   2   70.92    2.75
  -7  -3   2   67.82    2.52
   7  -3   3   61.32    2.32
  -7  -3   3   60.03    2.39
  -7   3   3   62.60    2.72
  -7  -3   3   54.39    2.46
  -7   3   4    0.84    1.01
   7   3   4    1.52    1.05
  -7  -3   4    1.34    1.22
  -7   3   5   37.20    1.86
  -7  -3   5   32.55    2.08
  -7  -3   6   22.78    1.88
   7  -3   6   23.95    2.85
  -7  -5  -6    4.00    1.51
  -7  -5  -5    7.55    1.48
  -7  -5  -4    2.89    1.27
   7  -5  -3   13.93    1.23
  -7  -5  -3   13.98    1.30
  -7  -5  -2   16.32    1.37
   7  -5  -2   15.47    1.45
   7  -5  -1   17.98    1.52
  -7  -5   0   10.89    1.21
  -7  -5   1   20.87    1.44
  -7   5   2   14.40    1.07
  -7  -5   2   16.64    1.31
   7  -5   3   14.62    1.89
   7  -5   3   12.00    1.35
  -7  -5   3   13.89    1.64
  -7  -5   3   11.96    1.27
   7   5   4    2.90    1.18
  -7  -5   4    4.06    1.95
   7  -5   4    1.52    2.00
  -7  -5   4    3.32    1.21
  -7   5   5    8.35    1.45
  -7  -5   5    6.46    1.45
   7  -5   6    8.71    2.61
  -7  -5   6    4.35    1.58
  -7  -7  -6    1.90    1.40
  -7  -7  -5   -0.03    1.23
  -7  -7  -4   65.08    2.68
   7  -7  -3    0.02    0.97
  -7  -7  -3    2.20    1.14
   7  -7  -2    9.81    1.38
   7  -7  -1    0.19    1.34
   7  -7   0  103.79    3.91
   7  -7   1    0.19    0.48
  -7  -7   1    0.05    0.55
   7  -7   1   -0.04    1.50
  -7   7   2   10.44    1.23
   7  -7   2    9.29    1.77
   7   7   2    7.14    0.96
   7  -7   3    0.18    1.36
  -7  -7   3    0.55    1.66
   7  -7   3   -0.23    1.63
  -7  -7   3    2.66    1.15
   7  -7   4   68.20    3.45
   7  -7   4   58.07    2.94
  -7  -7   4   63.49    3.28
  -7  -7   4   62.60    2.64
   7  -7   5   -0.67    1.75
  -7  -7   5    1.58    2.45
  -7  -7   5    0.82    1.30
  -7  -7   6    4.52    1.60
  -7  -9  -6    6.95    1.45
  -7  -9  -5    2.48    1.27
   7  -9  -2   22.10    1.74
   7  -9  -1    0.83    1.50
   7  -9   0   91.75    2.99
  -7  -9   0   97.61    3.03
   7  -9   1   -0.35    0.66
  -7  -9   1    0.18    0.80
   7  -9   1    1.00    1.59
  -7   9   2   19.37    1.60
   7   9   2   16.83    1.36
   7  -9   3    0.16    1.49
   7  -9   3   -0.22    1.70
   7  -9   4   66.65    3.54
   7  -9   4   71.54    3.54
  -7  -9   4   78.92    3.95
   7  -9   5    1.06    2.02
  -7  -9   5    2.45    2.82
   7  -9   5    1.35    2.35
  -7  -9   5    1.89    1.39
  -7  -9   6    7.62    3.16
  -7  -9   7    2.58    3.61
  -7 -11  -6    1.23    1.43
   7 -11  -2    0.40    1.42
   7 -11  -2    1.62    1.49
   7 -11  -1    2.52    1.65
   7 -11  -1    2.65    0.77
  -7 -11  -1    3.00    0.86
   7 -11  -1    3.00    1.58
   7 -11   0   11.07    0.96
  -7 -11   0   13.50    1.10
   7 -11   0   16.36    2.08
   7 -11   0   14.31    1.88
   7 -11   1    1.39    0.88
  -7 -11   1    1.92    0.99
   7 -11   1    2.23    1.85
   7  11   2    1.38    1.18
   7 -11   2    2.75    2.02
  -7  11   2    0.39    1.48
  -7  11   3    0.74    1.76
   7 -11   3    0.56    2.19
   7 -11   4   10.23    2.40
  -7 -11   4    7.84    2.81
   7 -11   4   10.09    2.44
   7 -11   5   -0.16    2.27
  -7 -11   5    2.10    3.31
  -7 -11   6    0.35    3.54
  -7 -13  -6    9.31    1.63
   7 -13  -1   13.46    1.10
  -7 -13  -1   13.45    1.25
   7 -13  -1   15.28    2.03
   7 -13  -1   16.45    1.83
   7 -13   0   -0.60    1.89
   7 -13   0    0.30    0.87
  -7 -13   0    0.41    1.04
   7 -13   1   16.14    2.28
   7 -13   1   15.40    1.35
  -7 -13   1   13.55    1.51
   7 -13   2   22.44    2.64
  -7  13   2   18.65    2.03
  -7  13   3   13.73    2.37
   7 -13   3   14.87    2.68
   7 -13   4    1.61    2.24
   7 -13   4   -1.31    2.49
  -7 -13   5    9.55    3.70
  -7 -13   6    8.78    4.22
   7 -15  -2   12.61    1.25
  -7 -15  -2   12.99    1.42
   7 -15  -1   11.16    1.11
  -7 -15  -1   12.57    1.30
   7 -15   0   -0.15    2.17
   7 -15   0    0.18    1.04
  -7 -15   0   -0.71    1.23
   7 -15   1   13.09    2.49
  -7 -15   1   10.45    1.62
   7 -15   1   11.70    1.47
   7 -15   2   10.56    2.45
   7 -15   3    9.20    2.55
  -7 -15   5    8.87    3.83
  -7 -17  -2    4.41    1.46
   7 -17  -1    0.41    1.08
  -7 -17  -1    0.68    1.43
   7 -17   0   -0.05    1.20
  -7 -17   0    0.28    1.47
   7 -17   1    0.64    1.44
  -7 -17   1    1.42    1.73
   7 -17   2    1.90    2.69
  -7 -19  -2    5.26    1.68
  -7 -19  -1    5.17    1.71
  -7 -19   0    0.43    1.81
  -7 -19   1    6.03    2.16
  -7 -19   2    2.33    2.37
  -7 -21  -1    3.52    1.87
  -7 -21   0    0.41    2.05
  -7 -21   1    3.61    2.35
  -8   0  -5    1.09    1.58
  -8   0  -4   81.44    3.39
  -8   0  -3    0.13    1.28
  -8   0  -2   25.55    1.78
  -8   0   0  132.32    4.59
  -8   0   1   -1.16    1.22
  -8   0   2   23.33    1.74
  -8   0   3   -0.35    1.26
  -8   0   4   69.07    2.42
  -8   0   4   74.17    3.12
  -8   0   5    2.96    1.62
  -8  -2  -6    0.31    1.65
  -8  -2  -5    0.55    1.52
  -8  -2  -4   36.80    2.24
  -8   2  -3    1.08    1.44
  -8  -2  -3   -0.04    1.54
  -8   2  -2    5.90    1.45
  -8  -2  -2    5.47    1.46
  -8   2   0   61.75    2.70
  -8  -2   0   62.25    2.70
  -8   2   1    1.21    1.23
  -8  -2   1    1.14    1.25
  -8   2   2    4.73    1.39
  -8  -2   2    3.34    1.37
  -8  -2   3    0.43    0.41
  -8   2   3    0.10    1.34
  -8  -2   3   -2.14    1.41
  -8  -2   4   30.46    2.02
  -8  -2   5   -0.10    1.49
  -8  -4  -6    4.48    1.67
  -8  -4  -5    8.06    1.71
  -8  -4  -4    1.49    1.55
  -8  -4  -3   19.37    1.74
   8  -4  -3   19.12    1.47
  -8  -4  -2   13.56    1.56
  -8   4   0    3.37    1.31
  -8  -4   0    2.18    1.26
  -8  -4   1   27.45    1.81
  -8  -4   2   10.72    1.40
  -8  -4   3   19.07    0.85
  -8  -4   3   17.59    1.70
  -8   4   3   17.23    1.17
   8  -4   4    2.39    1.99
  -8  -4   4    2.66    1.53
  -8  -4   4    0.70    1.54
   8  -4   5    8.95    2.41
  -8  -4   5    7.23    1.69
  -8  -6  -6    5.35    1.69
  -8  -6  -5   18.18    1.96
  -8  -6  -4   -0.21    1.46
   8  -6  -3   35.93    1.85
  -8  -6  -3   41.96    2.20
   8  -6  -2   22.79    1.69
  -8  -6  -2   24.72    1.75
  -8  -6  -1   56.98    2.51
   8  -6  -1   56.58    2.63
   8  -6   0   -0.73    1.45
  -8  -6   0    2.32    1.16
  -8  -6   1   58.52    2.54
   8  -6   1   52.72    2.69
  -8  -6   2   21.48    1.60
   8  -6   2   19.92    2.01
  -8  -6   3   41.86    2.16
  -8   6   3   34.40    1.81
   8  -6   3   38.12    2.55
   8  -6   4   -0.39    2.09
  -8  -6   4    1.91    1.78
  -8  -6   4    1.24    1.55
   8  -6   5   21.52    2.55
  -8  -6   5   17.26    2.41
  -8  -6   5   21.51    2.12
  -8  -8  -6    6.22    1.82
  -8  -8  -5    6.77    1.71
  -8  -8  -4    1.22    1.42
  -8  -8  -3   11.75    1.57
   8  -8  -2   18.67    1.78
  -8  -8  -2   20.73    1.67
   8  -8  -1   12.76    1.67
   8  -8   0    0.03    1.56
  -8  -8   1   10.74    0.62
   8  -8   1   13.81    1.87
   8  -8   2   15.92    2.00
  -8  -8   2   13.93    0.99
   8  -8   3    7.69    1.89
  -8  -8   3   10.09    1.59
   8  -8   4   -0.93    2.06
  -8  -8   4    2.15    1.92
  -8  -8   4    1.70    1.46
  -8  -8   5    6.26    1.77
  -8 -10  -6    9.90    1.84
  -8 -10  -5    2.90    1.49
  -8 -10  -4    2.96    1.49
   8 -10  -2   23.81    1.86
   8 -10  -1    6.08    1.78
   8 -10   0    3.78    1.73
  -8 -10   1    3.66    0.81
   8 -10   1    6.43    1.84
   8 -10   2   24.82    2.27
  -8 -10   2   22.01    1.41
   8 -10   3    5.06    1.92
   8 -10   4    0.54    2.12
  -8 -10   4    3.46    1.57
  -8 -10   5    0.96    1.62
  -8 -12  -5    6.52    1.73
   8 -12  -1   10.13    1.94
  -8 -12   0    7.83    0.96
   8 -12   0    8.34    2.09
  -8 -12   1    7.64    1.10
   8 -12   1   10.76    2.07
   8 -12   2   35.38    2.72
  -8 -12   2   26.10    1.74
   8 -12   3    8.39    2.34
   8 -14  -1    2.26    2.15
   8 -14   0    0.59    2.00
  -8 -14   0    0.11    1.01
   8 -14   1    3.31    2.18
  -8 -14   1    1.78    1.22
   8 -14   2    8.91    2.41
  -8 -14   2    5.38    1.58
   8 -16   1    1.22    2.43
  -9  -1  -5    1.80    1.79
  -9   1  -4   44.56    2.59
  -9  -1  -4   41.50    2.61
  -9   1  -3   -0.16    1.63
  -9  -1  -3    0.11    1.42
  -9   1  -2   10.32    1.70
  -9  -1  -2    9.42    1.67
  -9   1  -1   -0.90    1.37
  -9  -1  -1   -1.38    1.51
  -9   1   0   58.13    2.74
  -9  -1   0   58.33    2.82
  -9   1   1    0.96    1.32
  -9  -1   1   -2.21    1.56
  -9   1   2    9.72    1.62
  -9  -1   2    8.05    1.56
  -9   1   3    0.68    1.47
  -9  -1   3   -0.73    1.47
  -9   1   4   37.77    2.43
  -9  -1   4   40.20    2.49
  -9  -1   5    2.24    1.84
  -9  -3  -6    3.67    1.97
  -9  -3  -5    2.39    1.78
  -9  -3  -4    5.02    1.78
  -9  -3  -3    4.14    1.84
  -9  -3  -2    0.29    1.60
  -9   3  -1   10.24    1.62
  -9  -3  -1    7.87    1.78
  -9   3   0    9.06    1.57
  -9  -3   0   10.38    1.73
  -9   3   1    9.54    1.59
  -9  -3   1    8.31    1.77
  -9  -3   2   -0.44    1.64
  -9  -3   3    3.00    1.72
  -9  -3   4    5.53    1.77
  -9  -3   5    1.79    1.79
  -9  -5  -6    8.20    2.02
  -9  -5  -5    9.28    1.94
  -9  -5  -4   -0.83    1.86
  -9  -5  -3   19.56    2.09
  -9  -5  -2   21.65    1.95
   9  -5  -2   20.66    1.70
  -9  -5  -1   27.66    2.13
   9  -5  -1   23.40    1.84
   9  -5   0   -0.86    1.53
  -9  -5   0   -0.08    1.51
  -9  -5   1   30.25    2.10
   9  -5   1   22.89    2.07
   9  -5   2   17.09    2.04
  -9  -5   2   20.87    1.85
   9  -5   3   16.44    2.21
  -9  -5   3   21.68    2.07
  -9  -5   4   -1.24    1.90
  -9  -5   5    9.66    2.02
  -9  -7  -5    4.16    1.99
  -9  -7  -4    1.04    1.75
  -9  -7  -3   11.51    1.93
   9  -7  -2   22.15    1.80
  -9  -7  -2   22.17    1.92
   9  -7  -1   12.02    1.70
  -9  -7  -1   12.61    1.63
   9  -7   0    1.33    1.54
  -9  -7   0    2.10    1.44
   9  -7   1   10.57    1.83
  -9  -7   1   12.25    1.64
  -9  -7   2   26.30    1.92
   9  -7   2   19.64    2.17
   9  -7   3    6.89    1.93
  -9  -7   3   11.29    1.87
  -9  -7   4    1.52    1.84
  -9  -7   5    5.69    2.13
  -9  -9  -4    0.86    1.76
  -9  -9  -3    1.76    1.57
  -9  -9  -2   16.40    1.80
   9  -9  -1    4.04    1.66
  -9  -9  -1    4.33    1.49
   9  -9   0    0.83    1.66
  -9  -9   0    4.14    1.43
   9  -9   1    1.87    1.66
  -9  -9   1    4.87    1.53
   9  -9   2   16.06    2.08
  -9  -9   2   17.65    1.77
   9  -9   3    2.21    1.90
  -9  -9   3    3.37    1.63
   9 -11  -1   16.58    2.08
   9 -11   0    1.33    1.81
   9 -11   1   15.60    2.22
   9 -11   2   12.05    2.14
   9 -13   0    1.59    1.99
   9 -13   1    8.29    2.26
   9 -15   0    7.18    2.28
 -10   0  -3    0.30    1.88
 -10   0  -2   11.66    2.02
 -10   0  -1   -0.70    1.64
 -10   0   0   -1.75    1.69
 -10   0   1    0.81    1.58
 -10   0   2   10.30    1.93
 -10  -2  -3    4.53    1.90
 -10   2  -2   17.52    2.07
 -10  -2  -2   13.19    2.08
 -10   2  -1    7.97    1.80
 -10  -2  -1    4.95    1.79
 -10   2   0    2.98    1.68
 -10  -2   0   -0.77    1.80
 -10   2   1    5.37    1.70
 -10  -2   1    2.46    1.74
 -10   2   2   13.53    1.93
 -10  -2   2   11.58    1.95
 -10  -4  -2   11.20    2.24
  10  -4  -1    3.62    1.61
 -10  -4  -1    5.67    1.89
 -10  -4   0   -2.07    1.90
 -10  -4   1    5.10    1.87
  10  -6  -1    3.83    1.64
  10  -6   0    3.13    1.66
  10  -6   1    1.11    1.74
  10  -6   2    1.09    1.77
  10  -8   0   14.89    1.87
  10  -8   1    1.73    1.73
  10 -10   0   12.25    2.04
  10 -10   1    0.37    1.77
  11  -5   0    1.65    1.74
   0   0   0    0.00    0.00
;
_shelx_hkl_checksum              20075
loop_
_space_group_symop_operation_xyz
'x, y, z'
'-x, -y, z+1/2'
'-x, y, -z+1/2'
'x, -y, -z'
'x+1/2, y+1/2, z'
'-x+1/2, -y+1/2, z+1/2'
'-x+1/2, y+1/2, -z+1/2'
'x+1/2, -y+1/2, -z'
loop_
_atom_site_label
_atom_site_type_symbol
_atom_site_fract_x
_atom_site_fract_y
_atom_site_fract_z
_atom_site_U_iso_or_equiv
_atom_site_adp_type
_atom_site_occupancy
_atom_site_site_symmetry_order
_atom_site_calc_flag
_atom_site_refinement_flags_posn
_atom_site_refinement_flags_adp
_atom_site_refinement_flags_occupancy
_atom_site_disorder_assembly
_atom_site_disorder_group
Mn1 Mn 0.5003(6) 0.5000 0.0000 0.0326(3) Uani 1 2 d S T P . .
Br1 Br 0.5000 0.38214(5) 0.2500 0.0436(3) Uani 1 2 d S T P . .
Br2 Br 0.26566(8) 0.55566(4) 0.2500(3) 0.0423(3) Uani 1 1 d . . . . .
F1 F 0.166(2) 0.754(2) 0.782(5) 0.115(8) Uani 0.25 1 d D U P . .
F1' F 0.190(4) 0.743(3) 0.845(5) 0.115(8) Uani 0.25 1 d D U P . .
N1 N 0.008(6) 0.6159(12) 0.650(5) 0.047(6) Uani 0.5 1 d D U P . .
H1C H 0.1173 0.6016 0.6230 0.056 Uiso 0.5 1 d R U P . .
H1D H -0.0651 0.5834 0.5878 0.056 Uiso 0.5 1 d R U P . .
C1 C 0.026(3) 0.6939(12) 0.572(3) 0.057(8) Uani 0.5 1 d D U P . .
H1A H -0.0664 0.7007 0.4807 0.068 Uiso 0.5 1 d R U P . .
H1B H 0.1283 0.7084 0.5066 0.068 Uiso 0.5 1 d R U P . .
C2 C 0.0000 0.7411(10) 0.7500 0.127(7) Uani 1 2 d DS TU P . .
H2A H -0.0891 0.7772 0.7564 0.152 Uiso 0.5 1 d R U P . .
C3 C 0.067(4) 0.7024(19) 0.925(5) 0.117(16) Uani 0.5 1 d D U P . .
H3A H 0.0043 0.7151 1.0415 0.140 Uiso 0.5 1 d R U P . .
H3B H 0.1863 0.7074 0.9484 0.140 Uiso 0.5 1 d R U P . .
C4 C -0.032(6) 0.6334(18) 0.868(6) 0.078(14) Uani 0.5 1 d D U P . .
H4A H 0.0165 0.5931 0.9413 0.094 Uiso 0.5 1 d R U P . .
H4B H -0.1504 0.6369 0.8956 0.094 Uiso 0.5 1 d R U P . .
loop_
_atom_site_aniso_label
_atom_site_aniso_U_11
_atom_site_aniso_U_22
_atom_site_aniso_U_33
_atom_site_aniso_U_23
_atom_site_aniso_U_13
_atom_site_aniso_U_12
Mn1 0.0333(7) 0.0427(7) 0.0217(6) -0.0012(5) 0.000 0.000
Br1 0.0634(7) 0.0347(5) 0.0327(5) 0.000 -0.0095(15) 0.000
Br2 0.0399(4) 0.0574(5) 0.0295(4) 0.0011(17) 0.0009(10) 0.0137(3)
F1 0.105(12) 0.105(12) 0.136(19) -0.037(14) -0.045(12) -0.001(10)
F1' 0.105(12) 0.105(12) 0.136(19) -0.037(14) -0.045(12) -0.001(10)
N1 0.062(12) 0.026(7) 0.053(10) 0.005(6) 0.018(13) -0.018(14)
C1 0.038(19) 0.061(12) 0.070(13) 0.042(10) 0.019(11) -0.005(10)
C2 0.119(14) 0.065(9) 0.20(2) 0.000 0.00(2) 0.000
C3 0.11(2) 0.11(2) 0.13(3) -0.01(2) 0.01(2) -0.001(19)
C4 0.09(2) 0.09(2) 0.052(17) 0.033(18) 0.003(15) 0.003(19)
loop_
_atom_type_symbol
_atom_type_description
_atom_type_scat_dispersion_real
_atom_type_scat_dispersion_imag
_atom_type_scat_source
C C 0.0033 0.0016 'International Tables Vol C Tables 4.2.6.8 and 6.1.1.4'
H H 0.0000 0.0000 'International Tables Vol C Tables 4.2.6.8 and 6.1.1.4'
N N 0.0061 0.0033 'International Tables Vol C Tables 4.2.6.8 and 6.1.1.4'
F F 0.0171 0.0103 'International Tables Vol C Tables 4.2.6.8 and 6.1.1.4'
Mn Mn 0.3368 0.7283 'International Tables Vol C Tables 4.2.6.8 and 6.1.1.4'
Br Br -0.2901 2.4595 'International Tables Vol C Tables 4.2.6.8 and 6.1.1.4'
loop_
_geom_angle_atom_site_label_1
_geom_angle_atom_site_label_2
_geom_angle_atom_site_label_3
_geom_angle
_geom_angle_site_symmetry_1
_geom_angle_site_symmetry_3
_geom_angle_publ_flag
Br2 Mn1 Br2 93.44(16) 3_655 2_664 ?
Br2 Mn1 Br2 86.64(2) 3_655 . ?
Br2 Mn1 Br2 179.93(16) 2_664 . ?
Br2 Mn1 Br2 179.93(16) 3_655 4_565 ?
Br2 Mn1 Br2 86.64(2) 2_664 4_565 ?
Br2 Mn1 Br2 93.29(16) . 4_565 ?
Br2 Mn1 Br1 84.35(7) 3_655 . ?
Br2 Mn1 Br1 95.72(8) 2_664 . ?
Br2 Mn1 Br1 84.29(7) . . ?
Br2 Mn1 Br1 95.64(8) 4_565 . ?
Br2 Mn1 Br1 95.72(8) 3_655 2_664 ?
Br2 Mn1 Br1 84.35(7) 2_664 2_664 ?
Br2 Mn1 Br1 95.64(8) . 2_664 ?
Br2 Mn1 Br1 84.29(7) 4_565 2_664 ?
Br1 Mn1 Br1 179.9(2) . 2_664 ?
Mn1 Br1 Mn1 77.02(2) 2_665 . ?
Mn1 Br2 Mn1 77.459(17) 2_665 . ?
F1' F1 C2 117(5) . . ?
F1' F1 C3 57(4) . . ?
C2 F1 C3 60.7(13) . . ?
F1 F1' C3 105(5) . . ?
F1 F1' C2 47(4) . . ?
C3 F1' C2 58.3(15) . . ?
C4 N1 N1 111(10) 3_556 3_556 ?
C4 N1 C1 24(10) 3_556 . ?
N1 N1 C1 111.1(16) 3_556 . ?
C4 N1 C4 103(10) 3_556 . ?
N1 N1 C4 14(2) 3_556 . ?
C1 N1 C4 99(3) . . ?
C4 N1 C3 49(10) 3_556 3_556 ?
N1 N1 C3 105(2) 3_556 3_556 ?
C1 N1 C3 25.3(16) . 3_556 ?
C4 N1 C3 91(2) . 3_556 ?
C3 C1 C4 103(4) 3_556 3_556 ?
C3 C1 C2 74(3) 3_556 . ?
C4 C1 C2 105(2) 3_556 . ?
C3 C1 N1 95(5) 3_556 . ?
C4 C1 N1 8(4) 3_556 . ?
C2 C1 N1 103.5(19) . . ?
F1 C2 F1 161(4) 3_556 . ?
F1 C2 C3 66.3(16) 3_556 3_556 ?
F1 C2 C3 124(2) . 3_556 ?
F1 C2 C3 124(2) 3_556 . ?
F1 C2 C3 66.3(16) . . ?
C3 C2 C3 123(3) 3_556 . ?
F1 C2 C1 95.5(15) 3_556 . ?
F1 C2 C1 95(2) . . ?
C3 C2 C1 29.3(16) 3_556 . ?
C3 C2 C1 109.3(18) . . ?
F1 C2 C1 95(2) 3_556 3_556 ?
F1 C2 C1 95.5(15) . 3_556 ?
C3 C2 C1 109.3(18) 3_556 3_556 ?
C3 C2 C1 29.3(16) . 3_556 ?
C1 C2 C1 110.3(19) . 3_556 ?
F1 C2 F1' 15.8(10) 3_556 3_556 ?
F1 C2 F1' 163(2) . 3_556 ?
C3 C2 F1' 50.6(7) 3_556 3_556 ?
C3 C2 F1' 131(2) . 3_556 ?
C1 C2 F1' 79.8(14) . 3_556 ?
C1 C2 F1' 102(2) 3_556 3_556 ?
F1 C2 F1' 163(2) 3_556 . ?
F1 C2 F1' 15.8(10) . . ?
C3 C2 F1' 131(2) 3_556 . ?
C3 C2 F1' 50.6(7) . . ?
C1 C2 F1' 102(2) . . ?
C1 C2 F1' 79.8(14) 3_556 . ?
F1' C2 F1' 177(3) 3_556 . ?
C1 C3 F1' 147(4) 3_556 . ?
C1 C3 C2 77(3) 3_556 . ?
F1' C3 C2 71.1(17) . . ?
C1 C3 C4 49(4) 3_556 . ?
F1' C3 C4 136(4) . . ?
C2 C3 C4 90(2) . . ?
C1 C3 F1 129(3) 3_556 . ?
F1' C3 F1 18.2(9) . . ?
C2 C3 F1 53.0(10) . . ?
C4 C3 F1 126(3) . . ?
C1 C3 N1 60(4) 3_556 3_556 ?
F1' C3 N1 129(4) . 3_556 ?
C2 C3 N1 94(3) . 3_556 ?
C4 C3 N1 11(3) . 3_556 ?
F1 C3 N1 122(3) . 3_556 ?
N1 C4 C1 148(10) 3_556 3_556 ?
N1 C4 C3 120(10) 3_556 . ?
C1 C4 C3 29(2) 3_556 . ?
N1 C4 N1 55(10) 3_556 . ?
C1 C4 N1 121(3) 3_556 . ?
C3 C4 N1 108(3) . . ?
N1 C4 C4 64(10) 3_556 3_556 ?
C1 C4 C4 109(2) 3_556 3_556 ?
C3 C4 C4 95(3) . 3_556 ?
N1 C4 C4 13(2) . 3_556 ?
loop_
_geom_bond_atom_site_label_1
_geom_bond_atom_site_label_2
_geom_bond_distance
_geom_bond_site_symmetry_2
_geom_bond_publ_flag
Mn1 Br2 2.699(4) 3_655 ?
Mn1 Br2 2.699(4) 2_664 ?
Mn1 Br2 2.702(4) . ?
Mn1 Br2 2.702(4) 4_565 ?
Mn1 Br1 2.7139(7) . ?
Mn1 Br1 2.7139(7) 2_664 ?
Br1 Mn1 2.7139(7) 2_665 ?
Br2 Mn1 2.699(4) 2_665 ?
F1 F1' 0.5000(14) . ?
F1 C2 1.347(13) . ?
F1 C3 1.55(4) . ?
F1' C3 1.337(13) . ?
F1' C2 1.64(3) . ?
N1 C4 0.39(5) 3_556 ?
N1 N1 1.35(6) 3_556 ?
N1 C1 1.511(19) . ?
N1 C4 1.534(19) . ?
N1 C3 1.74(5) 3_556 ?
C1 C3 0.75(4) 3_556 ?
C1 C4 1.17(4) 3_556 ?
C1 C2 1.49(2) . ?
C2 F1 1.347(13) 3_556 ?
C2 C3 1.47(2) 3_556 ?
C2 C3 1.47(2) . ?
C2 C1 1.49(2) 3_556 ?
C2 F1' 1.64(3) 3_556 ?
C3 C1 0.75(4) 3_556 ?
C3 C4 1.52(2) . ?
C3 N1 1.74(5) 3_556 ?
C4 N1 0.39(5) 3_556 ?
C4 C1 1.17(4) 3_556 ?
C4 C4 1.67(8) 3_556 ?
loop_
_geom_torsion_atom_site_label_1
_geom_torsion_atom_site_label_2
_geom_torsion_atom_site_label_3
_geom_torsion_atom_site_label_4
_geom_torsion
_geom_torsion_site_symmetry_1
_geom_torsion_site_symmetry_2
_geom_torsion_site_symmetry_3
_geom_torsion_site_symmetry_4
_geom_torsion_publ_flag
C2 F1 F1' C3 7(13) . . . . ?
C3 F1 F1' C2 -7(13) . . . . ?
C4 N1 C1 C3 -175(24) 3_556 . . 3_556 ?
N1 N1 C1 C3 -81(6) 3_556 . . 3_556 ?
C4 N1 C1 C3 -73(4) . . . 3_556 ?
N1 N1 C1 C4 94(25) 3_556 . . 3_556 ?
C4 N1 C1 C4 102(23) . . . 3_556 ?
C3 N1 C1 C4 175(24) 3_556 . . 3_556 ?
C4 N1 C1 C2 -100(23) 3_556 . . . ?
N1 N1 C1 C2 -6(6) 3_556 . . . ?
C4 N1 C1 C2 2(3) . . . . ?
C3 N1 C1 C2 75(3) 3_556 . . . ?
F1' F1 C2 F1 120(14) . . . 3_556 ?
C3 F1 C2 F1 127(2) . . . 3_556 ?
F1' F1 C2 C3 -122(13) . . . 3_556 ?
C3 F1 C2 C3 -115(4) . . . 3_556 ?
F1' F1 C2 C3 -7(13) . . . . ?
F1' F1 C2 C1 -115(14) . . . . ?
C3 F1 C2 C1 -109(2) . . . . ?
F1' F1 C2 C1 -4(14) . . . 3_556 ?
C3 F1 C2 C1 2(3) . . . 3_556 ?
F1' F1 C2 F1' 172(10) . . . 3_556 ?
C3 F1 C2 F1' 179(7) . . . 3_556 ?
C3 F1 C2 F1' 7(13) . . . . ?
C3 C1 C2 F1 -4(5) 3_556 . . 3_556 ?
C4 C1 C2 F1 -104(4) 3_556 . . 3_556 ?
N1 C1 C2 F1 -96(3) . . . 3_556 ?
C3 C1 C2 F1 -169(5) 3_556 . . . ?
C4 C1 C2 F1 92(4) 3_556 . . . ?
N1 C1 C2 F1 100(3) . . . . ?
C4 C1 C2 C3 -99(5) 3_556 . . 3_556 ?
N1 C1 C2 C3 -91(5) . . . 3_556 ?
C3 C1 C2 C3 124(5) 3_556 . . . ?
C4 C1 C2 C3 25(4) 3_556 . . . ?
N1 C1 C2 C3 33(3) . . . . ?
C3 C1 C2 C1 93(4) 3_556 . . 3_556 ?
C4 C1 C2 C1 -6(3) 3_556 . . 3_556 ?
N1 C1 C2 C1 2.0(19) . . . 3_556 ?
C3 C1 C2 F1' -6(5) 3_556 . . 3_556 ?
C4 C1 C2 F1' -105(4) 3_556 . . 3_556 ?
N1 C1 C2 F1' -97(3) . . . 3_556 ?
C3 C1 C2 F1' 177(5) 3_556 . . . ?
C4 C1 C2 F1' 77(4) 3_556 . . . ?
N1 C1 C2 F1' 85(3) . . . . ?
F1 F1' C2 F1 -109(20) . . . 3_556 ?
C3 F1' C2 F1 78(7) . . . 3_556 ?
C3 F1' C2 F1 -172(15) . . . . ?
F1 F1' C2 C3 69(14) . . . 3_556 ?
C3 F1' C2 C3 -103(5) . . . 3_556 ?
F1 F1' C2 C3 172(15) . . . . ?
F1 F1' C2 C1 67(14) . . . . ?
C3 F1' C2 C1 -105(3) . . . . ?
F1 F1' C2 C1 176(14) . . . 3_556 ?
C3 F1' C2 C1 4(3) . . . 3_556 ?
F1 F1' C3 C1 -19(20) . . . 3_556 ?
C2 F1' C3 C1 -13(11) . . . 3_556 ?
F1 F1' C3 C2 -6(12) . . . . ?
F1 F1' C3 C4 63(14) . . . . ?
C2 F1' C3 C4 69(4) . . . . ?
C2 F1' C3 F1 6(12) . . . . ?
F1 F1' C3 N1 74(13) . . . 3_556 ?
C2 F1' C3 N1 80(3) . . . 3_556 ?
F1 C2 C3 C1 14(6) 3_556 . . 3_556 ?
F1 C2 C3 C1 175(5) . . . 3_556 ?
C3 C2 C3 C1 -69(4) 3_556 . . 3_556 ?
C1 C2 C3 C1 -97(5) . . . 3_556 ?
F1' C2 C3 C1 -4(6) 3_556 . . 3_556 ?
F1' C2 C3 C1 173(6) . . . 3_556 ?
F1 C2 C3 F1' -159(2) 3_556 . . . ?
F1 C2 C3 F1' 2(5) . . . . ?
C3 C2 C3 F1' 119(3) 3_556 . . . ?
C1 C2 C3 F1' 90(3) . . . . ?
C1 C2 C3 F1' -173(6) 3_556 . . . ?
F1' C2 C3 F1' -177(4) 3_556 . . . ?
F1 C2 C3 C4 61(4) 3_556 . . . ?
F1 C2 C3 C4 -138(4) . . . . ?
C3 C2 C3 C4 -21(2) 3_556 . . . ?
C1 C2 C3 C4 -50(3) . . . . ?
C1 C2 C3 C4 47(3) 3_556 . . . ?
F1' C2 C3 C4 43(4) 3_556 . . . ?
F1' C2 C3 C4 -140(4) . . . . ?
F1 C2 C3 F1 -162(4) 3_556 . . . ?
C3 C2 C3 F1 116(3) 3_556 . . . ?
C1 C2 C3 F1 87(3) . . . . ?
C1 C2 C3 F1 -175(5) 3_556 . . . ?
F1' C2 C3 F1 -179(3) 3_556 . . . ?
F1' C2 C3 F1 -2(5) . . . . ?
F1 C2 C3 N1 71(3) 3_556 . . 3_556 ?
F1 C2 C3 N1 -127(3) . . . 3_556 ?
C3 C2 C3 N1 -11.0(14) 3_556 . . 3_556 ?
C1 C2 C3 N1 -40(2) . . . 3_556 ?
C1 C2 C3 N1 58(4) 3_556 . . 3_556 ?
F1' C2 C3 N1 53(3) 3_556 . . 3_556 ?
F1' C2 C3 N1 -130(4) . . . 3_556 ?
F1' F1 C3 C1 167(14) . . . 3_556 ?
C2 F1 C3 C1 -6(7) . . . 3_556 ?
C2 F1 C3 F1' -173(14) . . . . ?
F1' F1 C3 C2 173(14) . . . . ?
F1' F1 C3 C4 -130(13) . . . . ?
C2 F1 C3 C4 57(4) . . . . ?
F1' F1 C3 N1 -118(12) . . . 3_556 ?
C2 F1 C3 N1 69(3) . . . 3_556 ?
C1 C3 C4 N1 -177(15) 3_556 . . 3_556 ?
F1' C3 C4 N1 49(15) . . . 3_556 ?
C2 C3 C4 N1 111(13) . . . 3_556 ?
F1 C3 C4 N1 69(14) . . . 3_556 ?
F1' C3 C4 C1 -134(5) . . . 3_556 ?
C2 C3 C4 C1 -72(3) . . . 3_556 ?
F1 C3 C4 C1 -114(4) . . . 3_556 ?
N1 C3 C4 C1 177(15) 3_556 . . 3_556 ?
C1 C3 C4 N1 123(4) 3_556 . . . ?
F1' C3 C4 N1 -11(6) . . . . ?
C2 C3 C4 N1 51(3) . . . . ?
F1 C3 C4 N1 9(5) . . . . ?
N1 C3 C4 N1 -60(12) 3_556 . . . ?
C1 C3 C4 C4 121(5) 3_556 . . 3_556 ?
F1' C3 C4 C4 -13(6) . . . 3_556 ?
C2 C3 C4 C4 49(4) . . . 3_556 ?
F1 C3 C4 C4 7(6) . . . 3_556 ?
N1 C3 C4 C4 -62(12) 3_556 . . 3_556 ?
C4 N1 C4 N1 -125(26) 3_556 . . 3_556 ?
C1 N1 C4 N1 -149(15) . . . 3_556 ?
C3 N1 C4 N1 -173(15) 3_556 . . 3_556 ?
C4 N1 C4 C1 17(10) 3_556 . . 3_556 ?
N1 N1 C4 C1 142(16) 3_556 . . 3_556 ?
C1 N1 C4 C1 -7(5) . . . 3_556 ?
C3 N1 C4 C1 -31(4) 3_556 . . 3_556 ?
C4 N1 C4 C3 -11(11) 3_556 . . . ?
N1 N1 C4 C3 114(15) 3_556 . . . ?
C1 N1 C4 C3 -35(3) . . . . ?
C3 N1 C4 C3 -59(3) 3_556 . . . ?
N1 N1 C4 C4 125(26) 3_556 . . 3_556 ?
C1 N1 C4 C4 -24(11) . . . 3_556 ?
C3 N1 C4 C4 -48(11) 3_556 . . 3_556 ?
