#------------------------------------------------------------------------------
#$Date: 2020-02-29 01:43:28 +0200 (Sat, 29 Feb 2020) $
#$Revision: 248536 $
#$URL: file:///home/coder/svn-repositories/cod/cif/4/13/42/4134269.cif $
#------------------------------------------------------------------------------
#
# This file is available in the Crystallography Open Database (COD),
# http://www.crystallography.net/
#
# All data on this site have been placed in the public domain by the
# contributors.
#
data_4134269
loop_
_publ_author_name
'Gao, Ji-Xing'
'Zhang, Wan-Ying'
'Wu, Zheng-Guang'
'Zheng, You-Xuan'
'Fu, Da-Wei'
_publ_section_title
;
 Enantiomorphic Perovskite Ferroelectrics with Circularly Polarized
 Luminescence.
;
_journal_name_full               'Journal of the American Chemical Society'
_journal_paper_doi               10.1021/jacs.9b13291
_journal_year                    2020
_chemical_absolute_configuration rm
_chemical_formula_moiety         'Br3 Mn, C4 H9 F N'
_chemical_formula_sum            'C4 H9 Br3 F Mn N'
_chemical_formula_weight         384.76
_space_group_crystal_system      monoclinic
_space_group_IT_number           4
_space_group_name_Hall           'P 2yb'
_space_group_name_H-M_alt        'P 1 21 1'
_atom_sites_solution_hydrogens   geom
_audit_creation_method           SHELXL-2014/7
_cell_angle_alpha                90
_cell_angle_beta                 113.64
_cell_angle_gamma                90
_cell_formula_units_Z            2
_cell_length_a                   7.8540(11)
_cell_length_b                   6.7448(9)
_cell_length_c                   9.7912(14)
_cell_measurement_reflns_used    1560
_cell_measurement_temperature    223(2)
_cell_measurement_theta_max      30.9010
_cell_measurement_theta_min      3.7600
_cell_volume                     475.15(11)
_computing_cell_refinement       'CrysAlisPro 1.171.39.46 (Rigaku OD, 2018)'
_computing_data_collection       'CrysAlisPro 1.171.39.46 (Rigaku OD, 2018)'
_computing_data_reduction        'CrysAlisPro 1.171.39.46 (Rigaku OD, 2018)'
_computing_molecular_graphics    'DIAMOND (Brandenburg & Putz, 2005)'
_computing_publication_material  'SHELXL-2014/7 (Sheldrick, 2014)'
_computing_structure_refinement  'SHELXL-2014/7 (Sheldrick, 2014)'
_computing_structure_solution    'SHELXL-2014/7 (Sheldrick, 2014)'
_diffrn_ambient_temperature      223(2)
_diffrn_measured_fraction_theta_full 0.908
_diffrn_measured_fraction_theta_max 0.909
_diffrn_measurement_device_type  'XtaLAB Synergy R, DW system, HyPix'
_diffrn_measurement_method       'four-circle diffractometer'
_diffrn_radiation_type           MoK\a
_diffrn_radiation_wavelength     0.71073
_diffrn_reflns_av_R_equivalents  0.0349
_diffrn_reflns_av_unetI/netI     0.0331
_diffrn_reflns_Laue_measured_fraction_full 0.908
_diffrn_reflns_Laue_measured_fraction_max 0.909
_diffrn_reflns_limit_h_max       9
_diffrn_reflns_limit_h_min       -8
_diffrn_reflns_limit_k_max       8
_diffrn_reflns_limit_k_min       -7
_diffrn_reflns_limit_l_max       11
_diffrn_reflns_limit_l_min       -11
_diffrn_reflns_number            2034
_diffrn_reflns_point_group_measured_fraction_full 0.917
_diffrn_reflns_point_group_measured_fraction_max 0.918
_diffrn_reflns_theta_full        25.232
_diffrn_reflns_theta_max         25.232
_diffrn_reflns_theta_min         2.831
_diffrn_source                   'Rotating-anode X-ray tube'
_exptl_absorpt_coefficient_mu    13.950
_exptl_absorpt_correction_T_max  0.075
_exptl_absorpt_correction_T_min  0.061
_exptl_absorpt_correction_type   multi-scan
_exptl_absorpt_process_details   'CrysAlisPro 1.171.39.46 (Rigaku OD, 2018)'
_exptl_crystal_colour            Red
_exptl_crystal_density_diffrn    2.689
_exptl_crystal_description       Prism
_exptl_crystal_F_000             358
_exptl_crystal_size_max          0.210
_exptl_crystal_size_mid          0.200
_exptl_crystal_size_min          0.200
_refine_diff_density_max         1.843
_refine_diff_density_min         -1.242
_refine_diff_density_rms         0.271
_refine_ls_abs_structure_details
;
 Refined as an inversion twin.
;
_refine_ls_abs_structure_Flack   0.31(4)
_refine_ls_extinction_coef       0.0077(15)
_refine_ls_extinction_expression Fc^*^=kFc[1+0.001xFc^2^\l^3^/sin(2\q)]^-1/4^
_refine_ls_extinction_method     'SHELXL-2014/7 (Sheldrick 2014'
_refine_ls_goodness_of_fit_ref   1.001
_refine_ls_hydrogen_treatment    constr
_refine_ls_matrix_type           full
_refine_ls_number_parameters     93
_refine_ls_number_reflns         1560
_refine_ls_number_restraints     43
_refine_ls_restrained_S_all      0.992
_refine_ls_R_factor_all          0.0607
_refine_ls_R_factor_gt           0.0547
_refine_ls_shift/su_max          0.004
_refine_ls_shift/su_mean         0.001
_refine_ls_structure_factor_coef Fsqd
_refine_ls_weighting_details
'w=1/[\s^2^(Fo^2^)+(0.1052P)^2^+3.4896P] where P=(Fo^2^+2Fc^2^)/3'
_refine_ls_weighting_scheme      calc
_refine_ls_wR_factor_gt          0.1506
_refine_ls_wR_factor_ref         0.1545
_reflns_Friedel_coverage         0.849
_reflns_Friedel_fraction_full    0.927
_reflns_Friedel_fraction_max     0.928
_reflns_number_gt                1091
_reflns_number_total             1560
_reflns_threshold_expression     'I > 2\s(I)'
_cod_data_source_file            ja9b13291_si_004.cif
_cod_data_source_block           P21
_cod_original_cell_volume        475.13(11)
_cod_original_sg_symbol_H-M      'P 21'
_cod_database_code               4134269
_shelx_shelxl_version_number     2014/7
_shelx_space_group_comment
;
The symmetry employed for this shelxl refinement is uniquely defined
by the following loop, which should always be used as a source of
symmetry information in preference to the above space-group names.
They are only intended as comments.
;
_shelx_estimated_absorpt_t_min   0.158
_shelx_estimated_absorpt_t_max   0.167
_shelx_res_file
;

    P21.res created by SHELXL-2014/7


TITL P21 in P2(1)
CELL 0.71073   7.8540   6.7448   9.7912  90.000 113.645  90.000
ZERR    2.00   0.0011   0.0009   0.0014   0.000   0.000   0.000
LATT -1
SYMM -X, 0.5+Y, -Z
SFAC C  H  N  F  Br Mn
UNIT 8 18 2 2 6 2
OMIT  -3.00  50.50
L.S. 59
ACTA
BOND
FMAP 2
PLAN 20
ISOR 0.01 C1 C2 C3 F1 C4 N1
DFIX 1.33 0.02 F1 C2
DFIX 1.50 0.02 N1 C1 C1 C2 C2 C3 C3 C4 C4 N1
CONF
TWIN
TEMP -50
SIZE 0.20 0.20 0.21
WGHT    0.105200    3.489600
EXTI    0.007707
BASF   0.31473
FVAR       0.33990
MN1   6    0.002226   -0.000488   -0.001318    11.00000    0.02517    0.01284 =
         0.04936   -0.00178    0.01773   -0.00060
BR1   5   -0.176556    0.247698    0.114990    11.00000    0.03893    0.01708 =
         0.05927   -0.00316    0.03197   -0.00381
BR2   5   -0.118278    0.254960   -0.236597    11.00000    0.04392    0.01914 =
         0.04415   -0.00365    0.01620   -0.00004
BR3   5    0.290946    0.248501    0.107570    11.00000    0.02293    0.01830 =
         0.06082    0.00199    0.01329    0.00065
N1    3    0.636879    0.858212    0.234731    11.00000    0.05655    0.04127 =
         0.05815   -0.00160    0.02799    0.01357
AFIX  23
H1A   2    0.735224    0.871307    0.210285    11.00000   -1.20000
H1B   2    0.537756    0.915031    0.162691    11.00000   -1.20000
AFIX   0
C1    1    0.675977    0.956930    0.380379    11.00000    0.07650    0.06034 =
         0.06975   -0.00451    0.01907    0.00265
AFIX  23
H1C   2    0.777030    1.053426    0.403635    11.00000   -1.20000
H1D   2    0.565128    1.025087    0.379056    11.00000   -1.20000
AFIX   0
C2    1    0.730415    0.793053    0.490218    11.00000    0.08630    0.08398 =
         0.06898    0.00036    0.03313   -0.00065
AFIX  13
H2    2    0.845176    0.817290    0.580371    11.00000   -1.20000
AFIX   0
C3    1    0.730557    0.601844    0.407796    11.00000    0.09521    0.08134 =
         0.08214    0.02099    0.03238   -0.00235
AFIX  23
H3A   2    0.855549    0.572147    0.413891    11.00000   -1.20000
H3B   2    0.687503    0.490292    0.449731    11.00000   -1.20000
AFIX   0
F1    4    0.572199    0.803693    0.511981    11.00000    0.16377    0.17946 =
         0.13756   -0.02370    0.06983    0.00277
C4    1    0.598353    0.640214    0.248415    11.00000    0.04278    0.03821 =
         0.04446   -0.00781    0.01976    0.00109
AFIX  23
H4A   2    0.468818    0.617492    0.233447    11.00000   -1.20000
H4B   2    0.628204    0.558583    0.178176    11.00000   -1.20000
AFIX   0
HKLF 4

REM  P21 in P2(1)
REM R1 =  0.0547 for    1091 Fo > 4sig(Fo)  and  0.0607 for all    1269 data
REM     93 parameters refined using     43 restraints

END

WGHT      0.1007      1.8461

REM Highest difference peak  1.843,  deepest hole -1.242,  1-sigma level  0.271
Q1    1   0.3031  0.2512  0.1877  11.00000  0.05    1.84
Q2    1  -0.2514  0.2501  0.0198  11.00000  0.05    1.46
Q3    1  -0.2263  0.2479  0.1873  11.00000  0.05    1.43
Q4    1   0.1826  0.2471  0.0600  11.00000  0.05    1.26
Q5    1   0.9559  0.7407  0.5111  11.00000  0.05    1.11
Q6    1   0.4225  0.2498  0.2118  11.00000  0.05    1.02
Q7    1   0.1703  0.0756  0.1246  11.00000  0.05    0.76
Q8    1  -0.1378  0.1583  0.1936  11.00000  0.05    0.75
Q9    1   0.6844  0.2519  0.5209  11.00000  0.05    0.72
Q10   1   0.4365  0.4112  0.1185  11.00000  0.05    0.71
Q11   1  -0.0692  0.2464  0.1469  11.00000  0.05    0.71
Q12   1  -0.1703 -0.0741 -0.1235  11.00000  0.05    0.69
Q13   1  -0.2114  0.3426  0.2739  11.00000  0.05    0.69
Q14   1   0.8776  0.9297  0.4552  11.00000  0.05    0.65
Q15   1  -0.0141  0.2209 -0.1417  11.00000  0.05    0.64
Q16   1   0.4379  1.0881  0.1440  11.00000  0.05    0.63
Q17   1  -0.0850  0.3326 -0.1639  11.00000  0.05    0.61
Q18   1   1.0720  0.7518  0.6651  11.00000  0.05    0.61
Q19   1  -0.1330  0.3073 -0.3229  11.00000  0.05    0.61
Q20   1   0.3056  0.2021  0.0028  11.00000  0.05    0.61
;
_shelx_res_checksum              87289
_shelx_hkl_file
;
   0   1   0    0.09    0.26
   0   2   0 2106.51   21.83
   0   3   0    1.74    1.01
   0   4   0 2304.87   25.05
   0   5   0   -0.10    1.52
   0   6   0  506.23    9.24
   0   7   0    1.52    2.77
   0   8   0  566.34   11.28
   0   1  -1    5.55    0.40
   0  -2   1  302.77    3.45
   0   2  -1  331.03    4.58
   0   3  -1  119.31    3.00
   0   3   1  110.73    1.51
   0   4  -1  972.48   12.14
   0   5  -1   33.39    2.34
   0   6  -1   95.13    4.09
   0   7  -1   16.47    2.95
   0   8  -1  226.20    7.08
   0   0   2   16.34    0.89
   0   1   2 1134.90   11.87
   0   1  -2 1155.92   11.88
   0   1   2 1146.03   11.86
   0   2  -2  567.71    6.81
   0   2   2  476.96    6.59
   0   3  -2  624.75    7.84
   0   3   2  622.54    6.75
   0   4   2   20.76    0.89
   0   4  -2   18.62    1.60
   0  -4   2   20.85    0.91
   0   5  -2  451.35    7.86
   0   5   2  459.15    7.90
   0   6   2  146.71    4.95
   0   6  -2  142.10    4.91
   0   7   2  192.57    5.92
   0   7  -2  189.66    5.84
   0   8  -2    2.74    3.33
   0   8   2    1.36    3.34
   0   0   3  271.33    4.35
   0   1   3 1886.87   18.77
   0   1  -3 1883.00   18.61
   0   2  -3  927.88   10.49
   0   2   3  940.91   10.58
   0   3   3 1327.62   14.10
   0   3   3 1370.87   15.01
   0   4   3   42.44    2.25
   0   4  -3   42.30    2.24
   0  -4   3   41.35    1.49
   0   4   3   41.34    1.43
   0   5   3  677.88   10.46
   0   5  -3  706.79   10.58
   0   5   3  699.94    8.14
   0   6  -3  289.01    6.71
   0   6   3  278.85    6.71
   0   7  -3  346.09    7.76
   0   7   3  354.65    7.90
   0   8   3    8.24    3.44
   0   8  -3   10.31    3.51
   0   0  -4    8.96    1.22
   0   0   4    7.66    1.30
   0  -1  -4  240.13    4.28
   0  -1   4  237.57    4.41
   0   2  -4  227.97    3.66
   0   2   4  224.30    3.68
   0   3   4   87.35    2.28
   0  -3   4   89.70    2.34
   0   3   4  107.55    2.72
   0   3  -4   84.21    2.51
   0   3   4  106.05    2.70
   0   4   4   21.76    1.96
   0  -4   4   21.95    1.44
   0   4   4   22.50    1.90
   0   4  -4   23.22    1.93
   0   5   4   78.59    2.27
   0  -5   4   73.92    2.28
   0   5  -4   75.75    3.27
   0   5   4   71.01    3.24
   0   6  -4  177.48    5.17
   0   6   4  170.88    5.22
   0   6   4  188.53    5.11
   0   7  -4   43.77    3.68
   0   7   4   45.63    3.81
   0   8  -4   10.59    3.40
   0   8   4    8.00    3.42
   0   0   5   37.48    2.15
   0  -1   5  461.68    7.20
   0  -1  -5  413.97    6.63
   0   2   5  546.34    7.02
   0  -2  -5  567.01    8.12
   0  -2   5  576.03    8.58
   0   2   5  553.85    6.87
   0   2  -5  529.15    6.59
   0   3   5  209.79    4.07
   0  -3   5  198.43    4.07
   0   3   5  208.33    3.88
   0   3  -5  211.11    3.86
   0   4   5   40.94    1.92
   0   4   5   42.91    2.20
   0  -4   5   42.45    1.97
   0   4   5   45.50    2.30
   0   4  -5   41.72    2.27
   0   5   5  125.60    3.90
   0  -5   5  115.53    3.21
   0   5  -5  118.50    3.91
   0   5   5  131.72    3.93
   0   5   5  131.86    3.49
   0   6   5  215.82    4.29
   0   6  -5  208.04    5.62
   0   6   5  210.61    5.44
   0   7   5   81.69    4.69
   0   7  -5   78.56    4.11
   0   8  -5   11.39    3.54
   0   8   5    9.80    3.65
   0   0  -6  120.99    2.03
   0  -1   6  435.68    7.47
   0  -1  -6  408.82    7.02
   0  -2  -6  442.77    7.45
   0  -2   6  421.40    7.80
   0   3   6  243.48    4.30
   0   3  -6  283.93    4.59
   0  -3   6  255.91    5.10
   0  -3   6  263.95    5.98
   0   3   6  258.78    4.48
   0   3   6  274.34    5.16
   0   4   6   44.90    2.22
   0   4  -6   43.98    2.25
   0   4   6   49.43    2.40
   0  -4   6   42.68    2.26
   0   4   6   43.96    2.27
   0   5   6  198.94    4.88
   0   5   6  212.47    4.88
   0   5  -6  207.46    4.92
   0   5   6  208.40    4.82
   0   6   6  206.42    5.42
   0   6   6  194.11    5.45
   0  -6   6  190.74    4.64
   0   6  -6  211.96    5.49
   0   7  -6  106.91    4.87
   0   7   6   99.96    4.77
   0   0  -7    1.15    0.61
   0  -1  -7   32.81    2.48
   0  -1   7   26.60    2.47
   0  -2   7   51.70    2.82
   0  -2  -7   57.95    2.85
   0  -2   7   57.57    2.69
   0   2  -7   58.52    1.52
   0   2   7   61.44    2.76
   0   3   7   39.81    2.47
   0  -3   7   34.36    2.28
   0  -3   7   37.88    2.83
   0  -3  -7   35.51    2.63
   0   4   7    4.45    1.71
   0  -4   7    5.42    1.95
   0   4   7    5.79    1.92
   0  -4  -7    4.62    2.26
   0   5   7   30.28    2.60
   0  -5   7   34.98    3.09
   0   5   7   31.91    2.85
   0   6   7   18.90    2.73
   0   6   7   18.31    2.58
   0  -6   7   19.75    2.59
   0   0   8  360.93    6.91
   0  -1   8    5.63    2.55
   0  -1   8    4.89    1.94
   0  -2  -8   88.54    3.74
   0  -2   8   90.33    3.65
   0   2   8   95.38    3.64
   0  -3   8    3.36    2.00
   0  -3  -8    3.86    2.06
   0   3   8    2.16    1.98
   0  -4  -8  177.63    5.19
   0  -4   8  185.45    5.23
   0   5   8    6.29    2.88
   0   5   8    3.17    1.97
   0  -5   8    5.28    2.65
   0  -5  -8    2.71    2.48
   0  -6   8   24.38    3.03
   0  -6  -8   21.87    3.27
   0   0   9  213.58    5.68
   0   1  -9   12.43    1.11
   0  -1   9   17.84    2.56
   0  -2   9   60.70    3.26
   0   2   9   63.68    3.29
   0  -2  -9   66.66    3.52
   0   3   9    8.64    1.34
   0  -3  -9   11.51    2.69
   0  -3   9   10.41    2.45
   0   3   9   10.47    2.34
   0   4   9  133.93    4.68
   0  -4   9  123.30    4.57
   0  -4  -9  120.50    4.47
   0   5   9    8.63    3.17
   0  -5  -9    5.12    2.86
   0  -5   9    7.99    2.83
   0   6   9   24.49    3.47
   0  -6  -9   20.17    3.36
   0   0  10   13.57    2.69
   0  -1  10   -1.27    2.47
   0  -2  10   -0.03    2.49
   0   2  10    0.12    2.36
   0  -3 -10    3.16    2.68
   0   3  10    0.94    2.97
   0  -3  10    1.67    2.99
   0  -4 -10   11.41    3.07
   0   4  10   14.74    3.24
   0  -4  10   11.50    3.25
   0  -5  10    1.51    3.21
   0   5  10    3.66    3.25
   0  -5 -10    0.51    2.92
   0   6  10    1.23    3.53
   0   0  11    0.04    2.86
   0   1  11   36.63    3.63
   0  -1  11   38.18    3.70
   0  -2  11   16.12    3.56
   0   2  11   18.81    3.63
   0  -3  11   30.80    3.64
   0   3  11   33.73    3.75
   0   4  11    0.05    3.90
   0  -4  11    2.13    3.63
   1   0  -1  486.26    5.75
  -1   1   1    2.69    0.51
  -1   1   0    2.82    0.49
  -1   2   0   21.04    1.06
   1  -2  -1   35.26    1.36
  -1   3   0  187.87    3.77
   1  -3  -1  182.54    3.83
   1   3  -1  199.69    2.49
   1  -3  -1  196.12    2.48
   1   4  -1  622.32    9.11
   1  -4  -1  626.94    9.05
  -1   4   0  648.05    9.12
  -1   5   0   55.28    2.86
   1   5  -1   54.10    2.93
  -1   6   0    5.41    2.23
   1   6  -1    7.37    2.43
   1   7  -1   22.51    3.09
  -1   7   0   25.41    3.20
   1   8  -1  101.63    5.39
  -1   8   0   91.08    4.92
   1   0  -2  197.13    3.01
   1   0  -2  202.00    2.97
  -1   0   2  199.12    2.94
   1  -1  -2  229.57    3.10
  -1  -1   2  225.97    3.17
   1  -2  -2  718.86    7.68
   1  -2  -2  718.25    8.46
   1   2  -2  707.06    7.63
  -1   3  -1  129.50    3.08
   1  -3   1  116.10    2.93
   1  -4   1    5.99    1.56
   1  -4  -2    5.31    1.48
   1   4  -2    5.56    1.46
  -1   4  -1    4.61    1.36
  -1   5  -1   74.87    3.25
   1   5  -2   85.70    3.52
   1   6  -2  125.98    4.36
  -1   6  -1  137.11    4.63
  -1   7  -1   19.45    3.04
   1   7   1   17.59    3.09
  -1   7   2   22.18    3.14
   1   7  -2   22.20    3.14
   1   8  -2    4.55    3.56
  -1   8  -1    7.53    3.45
  -1   8   2    6.02    3.53
   1   8   1    7.37    3.68
  -1   0   3    6.83    0.69
   1   0  -3    6.39    0.66
   1  -1  -3  132.01    2.54
  -1  -1   3  109.26    2.69
   1  -1   2  247.81    2.90
   1  -1  -3  146.64    2.97
  -1   2   3  485.78    6.27
  -1  -2   3  414.89    5.71
   1  -2  -3  424.06    5.76
  -1   2   3  461.53    5.78
   1  -2   2  490.96    5.90
  -1   3   3  136.39    3.38
   1  -3   2  179.70    3.61
  -1   3   3  144.16    2.74
  -1   3  -2  185.46    3.57
   1  -3  -3  142.87    3.35
  -1   3   3  145.48    3.28
  -1   4   3   17.01    1.76
   1   4   2   20.38    1.92
  -1   4  -2   22.61    1.87
  -1   4   3   17.20    1.84
   1   4  -3   14.82    1.78
  -1   5   3   69.12    3.19
   1   5   2   99.38    3.94
  -1   5  -2   89.85    3.47
   1  -5   2   74.42    1.57
   1   5  -3   70.15    3.57
  -1   5   3   64.87    3.06
   1   5   2   85.17    1.67
  -1   6   3  231.36    5.81
   1   6   2  195.35    5.31
   1   6  -3  190.53    5.22
  -1   6  -2  218.08    5.53
  -1   6   3  216.82    5.53
  -1   7   3   21.52    3.07
   1   7  -3   25.73    3.28
  -1   7  -2   29.96    3.27
   1   7   2   30.68    3.40
   1   8  -3    2.64    3.52
   1   8   2    1.57    3.58
   1   0   3  288.41    4.55
  -1   0   4  294.93    4.50
   1   0   3  279.07    3.69
  -1   1  -3  103.36    1.99
  -1  -1   4   93.98    2.61
   1  -1  -4   71.38    1.69
  -1  -1   4   78.19    2.17
  -1  -1  -3  107.56    2.16
   1  -1  -4   72.78    2.09
   1  -1   3   99.66    1.84
   1   1   3   96.30    1.32
  -1   1   4   77.53    1.84
   1  -2  -4   46.16    1.67
  -1   2   4   46.71    1.67
  -1  -2   4   44.54    1.74
  -1  -3   4  118.41    2.77
   1   3   3  154.87    3.32
   1   3  -4  121.99    2.98
   1  -3   3  163.31    3.33
  -1   3   4  130.03    3.26
  -1   3   4  105.59    2.60
   1  -3  -4  123.41    3.07
  -1   4   4  165.17    3.94
  -1   4  -3  132.62    3.58
   1   4   3  137.22    3.80
   1   4  -4  149.70    3.89
  -1   4   4  149.17    3.68
  -1   4   4  171.10    3.28
  -1   5  -3  139.52    4.08
   1  -5   3  130.39    2.75
   1   5   3  137.31    2.73
  -1   5   4  113.61    4.05
   1   5   3  150.48    4.56
   1   5  -4  122.31    4.20
  -1   5   4  101.91    3.71
  -1   6   4    8.44    2.65
   1   6  -4    7.44    2.28
   1  -6   3   15.53    1.23
   1   6   3   16.32    1.24
  -1   6   4    9.03    2.45
   1   6   3   14.66    2.46
  -1   6  -3   14.25    2.47
   1   7  -4   37.70    3.65
  -1   7  -3   51.35    3.81
  -1   7   4   37.42    3.64
   1   7   3   50.60    3.84
   1   8   3   25.33    4.07
   1   8  -4   30.67    4.05
  -1   0   5  324.14    4.51
   1   0   4  157.16    4.00
   1  -1  -5   18.46    1.75
  -1  -1   5   19.22    1.30
  -1  -1   5   20.82    1.79
   1  -1  -5   17.73    1.22
   1  -1   4    8.65    0.76
  -1   1  -4   12.93    0.92
   1  -1  -5   19.72    0.91
  -1  -1  -4   10.58    1.21
  -1   1   5   18.17    1.03
   1   2  -5   18.37    1.13
   1   2   4   13.16    0.92
   1   2   4   11.61    1.04
   1  -2  -5   16.88    1.13
  -1   2   5   20.86    1.43
  -1  -2   5   17.02    1.37
  -1  -2  -4   13.53    1.25
   1  -2   4   11.05    1.00
   1   3  -5    8.91    1.27
  -1   3   5   12.92    1.64
   1   3   4    9.54    1.33
  -1  -3   5   11.32    1.46
  -1   3   5   11.75    1.59
  -1  -4   5  308.43    5.24
   1   4  -5  317.64    5.91
  -1   4   5  305.90    5.19
  -1   4   5  300.22    5.49
   1   5   4   22.26    1.68
   1   5  -5   25.36    2.21
   1  -5   4   20.11    1.61
  -1   5   5   27.57    2.62
   1   5   4   21.30    2.16
   1   6   4    4.13    2.46
   1  -6   4    3.44    1.48
   1   6   4    4.64    1.62
   1   6  -5   10.57    2.52
  -1   6   5   10.80    2.69
   1   7   4    9.94    3.42
   1   7  -5   10.48    3.36
   1   8   4   38.68    4.26
   1   8  -5   50.24    4.32
  -1   0   6   18.75    1.47
   1   0   5    4.86    1.47
   1   1  -6   59.39    1.41
   1  -1   5  163.92    3.82
  -1   1   6   77.23    1.79
  -1  -1   6   57.13    2.27
   1  -1  -6   61.36    2.07
  -1  -1   6   82.79    3.34
   1   1  -6   57.10    1.62
   1  -1  -6   71.26    3.16
  -1   2   6   58.90    2.54
  -1  -2   6   57.72    2.83
  -1   2  -5  127.22    2.48
   1   2   5  133.77    2.60
  -1  -2   6   58.68    2.56
   1   2   5  106.81    1.85
  -1  -2  -5  129.26    3.01
   1   2  -6   57.32    1.92
   1   3   5  160.23    3.23
   1   3  -6  102.56    2.91
  -1  -3  -5  185.51    3.79
  -1   3   6  110.91    3.40
  -1   3   6  108.47    3.34
   1   3   5  173.05    3.04
  -1  -3   6  102.58    3.40
  -1   4   6   13.71    1.77
   1   4  -6    9.88    1.58
  -1   4   6    7.65    1.93
   1   4   5    0.95    1.47
  -1  -4   6    9.83    2.31
   1   4   5    3.81    1.53
  -1  -4   6   12.36    1.79
   1   5   5   99.71    3.01
   1   5   5  103.30    3.49
   1   5   5   91.21    3.59
  -1  -5   6   62.07    2.84
  -1   5   6   65.92    3.26
  -1   5   6   63.41    2.78
   1  -5   5   94.21    3.01
   1   5  -6   74.54    3.25
   1   6   5   67.07    3.56
   1   6   5   68.17    3.97
   1   6  -6   52.04    3.57
  -1   6   6   49.73    3.38
   1  -6   5   67.92    2.79
   1   6   5   68.32    2.64
   1   7   5   38.54    3.68
   1   7  -6   28.11    3.43
   1   8   5    5.64    3.81
   1   8  -6   10.87    3.84
  -1   0   7    0.87    1.28
   1   0   6    3.69    1.84
   1   0  -7    1.93    1.95
  -1  -1   7   11.35    2.29
   1  -1  -7   13.50    2.09
   1  -1  -7   10.57    1.19
  -1  -1   7   11.12    1.68
   1  -1   6    6.11    1.72
   1   2  -7  151.83    2.89
   1  -2   6  186.15    4.97
   1   2   6  199.03    3.21
  -1   2   7  170.93    4.44
  -1  -2   7  160.69    4.30
  -1   2   7  177.80    3.28
   1  -2  -7  152.00    4.61
  -1  -2   7  158.61    4.73
  -1   2  -6  233.28    3.58
  -1  -2  -6  213.05    4.47
  -1   3   7   15.72    2.00
   1   3   6    1.24    1.34
   1   3  -7   17.04    1.55
   1   3   6    4.85    1.17
  -1  -3  -6    2.38    1.63
  -1  -3   7   14.60    2.31
  -1  -3   7   17.09    2.14
   1   4  -7    7.61    1.92
  -1  -4  -6   10.81    1.92
   1   4   6   14.63    1.98
  -1   4   7    4.95    2.02
  -1   4   7    4.25    1.81
  -1  -4   7    4.90    1.80
   1   4   6   15.43    1.65
   1  -5   6    3.11    1.71
   1   5   6    2.69    1.92
  -1   5   7    9.60    2.25
  -1   5   7    8.20    2.31
   1   5   6    5.26    2.06
   1   5   6    4.30    2.24
   1   5  -7    9.46    2.27
  -1  -5   7    8.07    2.22
   1   6   6   83.72    3.25
   1   6   6   81.08    3.88
   1   6  -7   77.37    3.75
   1   6   6   78.62    3.43
   1  -6   6   76.56    3.22
  -1   6   7   70.16    3.81
   1   7  -7    5.65    3.12
   1   7   6    6.00    3.25
   1   7   6    5.17    2.35
   1   8  -7    2.73    3.48
   1   8   6    2.53    3.59
   1   0  -8   10.47    1.38
  -1   0   8   14.86    1.99
   1  -1   7    7.10    2.37
  -1  -1   8   68.68    3.06
   1  -1  -8   61.33    1.95
   1  -1  -8   63.67    3.27
  -1   2  -7   -0.14    0.88
   1  -2  -8   10.48    2.49
  -1   2   8   10.83    1.97
   1  -2   7    1.25    2.15
  -1   2   8    7.22    1.05
  -1  -2   8   10.59    2.44
  -1  -2   8   10.79    2.01
   1  -3  -8   63.21    3.39
  -1   3   8   56.45    2.13
  -1  -3  -7   14.58    2.18
  -1   3  -7   21.90    1.68
   1   3  -8   60.68    1.95
   1   3   7   14.41    1.68
  -1   3   8   75.19    3.41
  -1  -3   8   75.59    3.50
   1  -4   7   36.87    2.65
   1   4   7   39.29    2.01
   1   4  -8   22.72    2.11
  -1   4   8   19.97    2.50
  -1  -4  -7   42.46    2.64
  -1  -4   8   16.65    2.44
   1   4   7   45.78    2.45
   1   4   7   42.78    2.75
   1   5  -8   41.72    2.78
  -1   5   8   48.23    3.24
   1   5   7   16.11    2.15
  -1  -5   8   41.96    3.23
   1  -5   7    8.57    2.24
   1   5   7   15.76    2.50
   1   5   7    8.46    2.26
  -1  -5  -7    6.56    2.22
   1   6   7    0.43    2.30
   1  -6   7    1.32    2.39
  -1   6   8    3.52    2.58
   1   6   7    1.79    2.67
  -1  -6  -7    0.65    2.33
   1   6  -8    6.88    2.51
   1   7   7   13.31    3.32
   1   7  -8   24.39    3.38
  -1   0   9   65.29    3.47
   1   0  -9   50.67    2.00
   1  -1   8    0.92    2.61
  -1  -1   9    2.51    2.19
   1  -1  -9    2.35    2.71
   1  -2  -9    2.27    2.58
  -1   2   9    1.08    2.21
  -1  -2   9    2.16    2.13
  -1   3   9    1.75    2.53
  -1   3  -8    0.24    1.31
  -1  -3   9   -0.04    2.69
  -1   3   9   -0.29    1.43
  -1  -3  -8    1.69    2.27
   1  -3  -9    0.75    2.61
   1  -4   8   97.27    4.06
  -1   4  -8  100.31    2.97
   1  -4  -9   41.91    3.55
  -1   4   9   46.83    3.31
   1   4   8  104.90    4.16
  -1  -4  -8  104.61    3.76
  -1  -4   9   43.03    3.30
  -1   4   9   52.57    2.58
   1  -5   8    0.79    2.32
  -1   5   9    1.93    2.77
   1  -5  -9   -0.57    2.98
   1   5   8    0.15    2.21
  -1  -5   9    0.52    2.79
  -1  -5  -8    0.88    2.15
   1   6   8   16.53    3.28
   1  -6   8   14.01    3.16
  -1  -6  -8   12.12    2.77
  -1   0  10    1.87    2.40
   1   0 -10    2.26    1.15
  -1  -1  10   23.40    2.88
  -1   2  10   16.05    3.02
   1  -2 -10   14.79    3.14
  -1  -2  10   20.17    3.13
   1  -3 -10   15.26    3.14
   1   3   9   12.05    2.85
  -1  -3  10   17.97    3.11
   1  -3   9    9.08    2.66
   1  -4   9   16.84    2.82
  -1   4  10    1.60    2.83
   1  -4 -10    3.02    3.04
   1   4   9   19.04    2.92
  -1  -4  10    3.89    2.79
  -1   4  10    6.23    1.95
  -1  -4  -9   20.71    2.96
   1  -5   9    9.81    3.26
   1  -5 -10   11.59    3.57
  -1  -5  -9   10.35    2.70
  -1  -5  10   14.35    3.34
  -1   5  10   17.39    3.64
   1   5   9   12.46    3.31
   1  -6 -10    5.82    3.39
   1   6   9    0.81    3.43
   1   0  10    0.03    2.59
  -1   0  11    5.32    3.04
   1  -1  10    4.00    2.73
  -1  -1  11    2.69    3.19
  -1  -2  11   44.91    4.07
   1  -2  10   18.89    3.21
   1   2  10   20.06    3.21
  -1   2  11   47.58    4.45
   1  -3  10    1.07    2.65
  -1   3  11    0.45    3.13
   1  -3 -11    3.90    3.29
   1   3  10    2.28    2.73
  -1  -3  11    1.87    2.90
  -1  -4  11    8.54    3.43
   1   4  10    0.85    2.96
   1  -4  10    1.97    2.96
   1  -4 -11    6.92    3.42
  -1   4  11    8.02    3.48
  -1   5  11    1.14    3.67
   1  -5 -11    1.44    3.28
   1  -5  10    1.06    3.11
  -1  -5  11    1.71    3.55
   1   5  10    1.69    3.23
   1   0  11   -0.39    3.05
  -1   0  12    0.98    3.48
  -1   1  12    4.51    3.42
   1  -1  11   12.32    3.27
   1   1  11   12.36    3.30
  -1  -1  12    4.85    3.51
   1  -2  11    5.70    3.07
   1  -4 -12    3.11    3.76
   2   0  -1   42.29    1.63
  -2   1   1    2.57    0.85
  -2   1   1    3.63    0.77
   2   1  -1    5.41    0.53
  -2   2   1 1057.00   12.45
  -2  -2   1 1075.04   11.25
   2  -3  -1    2.13    1.33
  -2   3   1    1.79    1.20
  -2   4   1   59.09    2.56
   2  -4  -1   63.56    2.88
   2  -5  -1    2.80    0.57
   2  -5  -1    3.06    2.14
  -2   5   1    2.33    1.93
   2   5  -1    2.24    0.75
   2   6  -1  298.82    7.22
   2   7  -1    3.11    3.33
   2   8  -1   10.27    3.25
   2   0  -2  273.75    4.54
  -2   1   0 2485.15   25.50
  -2   1   0 2534.16   25.85
   2   1  -2 2450.70   25.23
  -2  -2   2 1461.15   15.21
   2  -2  -2 1364.14   16.30
   2  -2  -2 1433.80   16.16
  -2   2   0 1394.97   15.87
   2  -3  -2 1033.14   13.15
  -2   3   0 1083.29   12.95
   2  -4  -2  109.42    3.69
   2   4  -2  105.27    2.10
   2  -4  -2  112.61    2.20
   2  -5  -2  596.16    9.86
   2   5  -2  556.95    9.76
  -2   6   2  403.21    7.86
   2   6  -2  359.88    7.74
   2   7  -2  292.09    8.15
   2   8  -2   21.01    3.52
   2   0  -3  234.09    4.20
   2   0   1  206.16    4.10
  -2   1  -1 1392.85   16.18
   2   1  -3 1420.75   15.89
  -2   1  -1 1422.96   15.50
   2  -1  -3 1428.08   15.35
  -2  -2   3 1174.54   13.56
  -2   2  -1 1158.65   13.36
   2  -2   1 1129.41   13.47
   2  -2  -3 1188.68   13.60
   2  -2  -3 1233.04   14.52
   2   2  -3 1179.44   12.93
   2  -2  -3 1180.89   12.96
  -2   2   3 1168.55   13.92
  -2   3   3  983.37   12.40
   2   3  -3 1007.86   11.15
   2  -3   1  988.08   12.35
   2  -3  -3  976.66   12.49
   2  -3  -3  982.72   11.11
  -2   3  -1 1005.08   12.34
   2  -4  -3   39.16    1.39
   2  -4  -3   44.48    2.67
   2  -4   1   37.10    2.57
   2   4  -3   40.55    1.42
  -2   4   3   44.93    2.54
  -2   5   3  466.63    8.01
   2  -5   1  483.70    8.29
   2   5   1  472.93    8.62
   2   5  -3  484.81    8.66
   2  -5  -3  488.73    8.37
   2   6   1  251.19    6.19
   2   6  -3  260.87    6.29
   2   7  -3  256.82    7.59
   2   7   1  258.23    7.59
   2   8   1   12.69    3.39
   2   8  -3   16.77    3.56
   2   0  -4  568.16    7.82
   2   0  -4  488.71    6.80
   2   0   2  491.54    5.89
   2   0  -4  566.84    6.84
   2   0   2  454.02    6.73
  -2   1  -2  100.26    2.54
  -2   1   4   94.53    2.56
  -2   1  -2   87.91    2.11
   2  -1  -4   93.15    2.37
   2  -1  -4   85.75    2.73
   2   1  -4   79.20    2.70
   2   1   2  112.59    2.06
  -2  -2   4   10.54    1.33
  -2   2  -2    4.49    1.12
   2  -2  -4   12.36    1.44
  -2   2  -2    4.27    0.99
   2  -2   2    3.25    1.09
   2  -2  -4   10.69    1.00
   2   2  -4    6.65    0.86
  -2   2   4    4.88    1.28
   2  -2  -4   10.37    1.22
  -2  -2  -2    2.44    0.52
  -2  -3   4   99.24    2.95
  -2   3   4   95.51    3.01
   2  -3   2   90.14    2.73
   2  -3  -4  101.57    2.90
   2  -3  -4   99.12    2.39
   2   3  -4   98.53    2.35
   2  -4  -4  291.98    5.84
   2  -4   2  300.25    5.74
  -2   5   4   95.69    3.74
   2   5   2   74.30    3.46
   2  -5  -4   89.43    3.66
   2  -5   2   77.35    3.39
   2   5  -4   85.65    3.58
   2   6   2    2.37    2.46
  -2   6   4    1.42    2.65
   2  -6   2    2.73    0.97
   2   6  -4    1.15    2.42
   2   7   2   23.61    3.26
   2   7  -4   34.74    3.75
   2   8   2   61.85    4.64
   2   8  -4   63.23    4.56
   2   0  -5 2154.61   23.01
   2   0   3 2182.23   22.95
   2   0  -5 2136.43   22.85
   2   0   3 2204.68   22.85
   2   0  -5 2172.05   24.45
  -2   1   5   16.16    1.22
   2   1  -5   23.36    1.98
   2  -1  -5   20.56    1.60
  -2   1  -3    3.59    0.87
   2  -1  -5   21.18    1.33
  -2   1  -3    4.02    1.11
  -2  -1   5   23.29    1.53
  -2   2   5  722.71    8.85
  -2   2  -3  691.14    8.87
  -2   2  -3  607.12    8.42
   2  -2  -5  711.41    8.74
   2  -2   3  662.39    8.58
   2  -2  -5  687.29    9.43
  -2   2   5  710.78    9.07
  -2  -2   5  647.50    8.95
  -2  -2  -3  643.50    7.76
  -2  -3  -3    7.29    0.96
   2  -3   3   11.81    1.45
   2  -3  -5   19.65    1.58
  -2  -3   5   17.85    1.86
  -2  -4   5 1042.20   13.61
  -2   4   5 1062.70   13.56
   2  -4  -5 1037.21   13.22
  -2   5   5   16.51    2.45
   2   5   3    9.88    2.57
   2   5  -5   14.35    2.45
   2   6   3  216.50    6.46
   2   6  -5  213.09    6.46
   2   7   3    2.88    1.25
   2   7   3    4.41    2.84
   2   7  -5    6.02    2.88
   2   8  -5  283.00    7.97
   2   8   3  295.35    8.19
   2   0   4 1073.20   13.01
   2   0  -6 1065.40   11.82
   2  -1  -6   25.08    1.29
  -2   1  -4   28.05    1.61
  -2   1   6   23.51    1.49
   2   1  -6   19.09    1.44
  -2  -1   6   24.25    1.79
   2  -1  -6   20.74    1.86
   2   1  -6   22.80    2.32
  -2   2  -4  178.95    3.59
   2  -2  -6  219.55    4.68
  -2  -2   6  215.35    4.51
   2  -2   4  164.36    3.48
   2  -2  -6  212.12    3.75
  -2   2  -4  224.75    4.23
  -2   2   6  224.08    4.12
  -2   2   6  218.74    4.49
  -2  -3   6   10.44    1.93
   2  -3  -6   10.71    1.64
   2  -3   4   10.05    1.60
  -2   3   6   10.50    1.67
  -2  -3   6    9.44    1.67
  -2  -3  -4    8.53    1.01
  -2  -4   6  481.32    8.33
  -2   4   6  523.94    8.29
   2   4   4  495.67    8.08
   2   4  -6  570.60    8.37
   2  -4  -6  590.84    8.40
   2  -4   4  502.82    7.91
  -2  -4  -4  443.56    6.75
  -2  -5   6    1.94    2.28
  -2   5   6    1.06    2.22
   2   5  -6    2.33    2.18
   2   5   4    0.48    2.18
   2   6  -6   94.93    4.26
   2   6   4   94.16    4.32
   2   7   4    5.90    3.09
   2   7  -6    7.95    3.05
   2   7   4    5.29    1.92
   2   8  -6  177.83    6.88
   2   8   4  173.42    6.90
  -2   0   7   14.79    1.67
   2   0   5   13.89    1.93
   2  -1  -7   68.11    3.31
   2  -1   5   82.54    3.07
   2  -1   5   76.32    1.85
   2   1   5   76.69    2.25
   2  -1  -7   76.38    1.92
  -2  -1   7   75.37    2.88
   2   1  -7   59.84    1.91
   2  -1  -7   65.98    2.69
  -2   2  -5   40.82    1.90
   2  -2  -7   26.87    2.07
   2  -2  -7   28.92    1.75
   2  -2   5   40.13    1.86
  -2   2   7   26.49    2.17
  -2   2   7   29.23    1.83
  -2  -2   7   27.78    2.19
  -2   2  -5   40.54    1.70
  -2   3   7   83.71    2.72
  -2  -3   7   91.26    3.39
   2   3   5   89.62    2.30
  -2   3  -5   84.59    2.84
  -2  -3  -5   80.19    2.47
   2  -3  -7   85.20    2.68
   2  -3   5   74.97    2.51
   2   3   5   72.89    2.56
   2   3  -7   81.16    2.67
  -2   3   7   96.17    3.45
  -2   3  -5   94.99    2.92
  -2  -4  -5   25.94    1.88
   2   4   5   27.42    2.28
  -2  -4   7   29.41    2.88
   2   5  -7   53.27    3.36
   2   5   5   50.14    3.45
  -2   5   7   38.81    2.85
  -2  -5  -5   31.00    2.06
   2   6   5   12.29    2.11
   2   6   5   11.84    2.64
   2   6  -7    9.78    2.62
   2  -6   5   11.98    2.02
   2   7  -7   33.68    3.68
   2   7   5   28.44    3.83
   2   7   5   26.63    2.41
   2   8   5    8.68    3.93
   2   8  -7   13.95    4.01
   2   0  -8    2.33    0.60
   2   0   6    4.44    0.55
  -2   0   8    4.50    1.83
   2  -1   6  319.28    6.20
   2  -1  -8  287.70    3.54
   2  -1   6  232.70    3.41
   2  -1  -8  364.51    5.87
   2  -1  -8  392.89    7.47
  -2  -1   8  404.11    6.62
   2   1  -8  264.89    3.70
  -2   2  -6  121.27    2.66
  -2   2   8   94.88    2.73
   2   2   6   95.02    2.27
   2   2  -8   95.24    2.40
   2  -2  -8   97.79    4.25
  -2  -2   8   99.04    3.73
  -2   2   8  107.97    3.84
  -2  -2   8  101.28    4.31
   2  -2   6  113.19    4.24
  -2   2  -6   97.52    2.64
  -2   3   8  270.65    5.87
  -2   3  -6  244.51    5.01
   2   3   6  216.77    4.64
   2   3  -8  237.72    4.61
  -2   3  -6  219.29    4.55
  -2   3   8  250.76    4.93
  -2  -3   8  258.36    5.85
   2   3   6  251.17    3.47
  -2  -4  -6    2.17    1.52
  -2  -4   8   -0.19    2.14
  -2   4  -6    3.51    1.67
  -2   4   8    3.53    1.84
  -2   4   8    1.31    2.17
   2   4   6    2.96    1.53
   2   4   6    2.69    1.75
  -2   4  -6    2.87    2.03
   2   4  -8    1.97    1.63
   2   5  -8  157.55    4.35
   2   5   6  143.85    4.30
   2  -6   6   31.63    2.65
   2   6  -8   43.71    3.37
   2   6   6   45.28    3.01
   2   6   6   48.37    3.07
   2   6   6   41.61    3.50
  -2  -6  -6   33.70    2.48
   2   7   6  102.16    5.00
   2   7  -8   99.29    4.78
   2   0   7    7.46    2.43
   2   0  -9    4.75    2.77
   2   0  -9    2.41    1.92
  -2   0   9    3.35    1.94
   2  -1  -9  107.64    4.63
   2  -1  -9  108.74    3.42
  -2  -1   9  114.62    4.07
   2  -1   7  102.73    4.24
   2  -2   7   29.91    2.99
   2   2  -9   26.79    1.42
   2   2  -9   31.79    1.35
   2   2   7   27.50    1.35
  -2   2   9   45.04    3.08
  -2  -2   9   42.15    3.05
   2  -2  -9   35.66    3.30
   2   2   7   27.65    1.62
  -2   2  -7   33.22    1.66
  -2   3  -7   83.08    2.71
  -2   3   9   90.69    2.86
  -2   3   9  106.90    4.17
   2   3  -9   88.15    2.50
   2   3   7   75.89    2.45
  -2   3  -7   82.13    2.68
  -2  -3   9   97.44    4.07
   2  -3  -9   90.12    4.33
   2   4   7    2.49    1.97
  -2   4  -7    2.63    1.86
   2   4  -9    1.58    1.81
  -2   4   9    1.72    1.94
  -2   4  -7    1.76    2.05
  -2  -4   9    1.20    2.47
  -2   4   9    0.41    2.38
  -2  -5  -7   37.95    2.48
  -2   5   9   52.70    3.01
   2   5  -9   61.98    3.35
   2   5   7   51.32    3.26
  -2   5  -7   47.31    2.92
  -2   6  -7   22.27    2.83
   2   6  -9   19.84    2.88
   2   6   7   21.70    3.01
  -2   6   9   18.81    2.83
   2   6   7   18.43    2.72
   2  -6   7   12.75    2.59
   2   7   7   29.05    3.85
   2   0 -10    0.86    2.02
  -2   0  10    3.22    2.49
   2  -1 -10   18.25    3.17
  -2  -1  10   17.23    2.71
   2  -1 -10   16.55    2.05
   2  -1   8   21.60    3.07
  -2  -2  10   43.00    3.34
  -2   2  10   40.97    3.38
   2  -2 -10   36.75    3.62
  -2   3  10    6.71    1.59
  -2   3  10   10.83    2.89
   2  -3 -10    9.47    3.15
  -2  -3  10   11.05    2.89
  -2   4  10    1.45    1.94
   2   4   8    0.97    1.92
   2  -4 -10    1.22    3.06
  -2   4  10    2.88    2.83
  -2  -4  10    2.04    2.87
   2  -5 -10    4.30    3.38
  -2   5  10    7.42    2.36
   2  -5   8    6.45    2.76
   2   5   8    7.50    2.59
   2   5   8    7.32    2.90
   2  -6 -10   18.30    3.94
   2   6   8   18.71    2.89
  -2   0  11   26.43    3.37
   2   1 -11   33.91    2.58
  -2  -1  11   51.49    3.85
  -2  -2  11   85.00    4.53
   2  -2 -11   82.08    4.77
  -2   2  11   93.89    4.60
  -2   3  11   36.26    3.81
  -2  -3  11   39.20    3.97
   2  -3 -11   27.59    3.74
   2  -4 -11   15.37    3.86
   2  -4   9    8.19    2.93
   2   4   9    9.72    3.00
  -2   4  11   16.42    3.52
  -2  -4  11   18.11    3.65
   2  -5 -11   16.75    4.05
   2   5   9   16.26    3.36
   2  -5   9   14.31    3.07
   2   6   9   35.14    4.14
  -2   0  12    7.32    3.26
  -2   1  12    4.46    3.21
  -2  -1  12    6.49    3.28
   2  -2 -12   25.42    3.86
  -2   2  12   26.86    3.81
  -2  -2  12   26.13    3.92
   2  -3 -12    4.57    3.63
  -2   3  12    4.09    3.61
  -2  -3  12    3.61    3.53
   2  -3  10    1.45    3.03
   2   3  10    2.98    3.11
   2  -4 -12    1.82    3.63
   3   0  -2  127.60    3.47
  -3   1   1  160.35    3.76
   3   1  -2  136.56    2.81
   3  -1  -2  124.24    3.42
   3  -1  -2  149.08    3.71
   3  -2  -2   61.13    2.54
  -3   2   1   80.58    2.65
  -3   2   2   63.76    2.39
  -3   2   1   85.17    2.76
   3  -3  -2  180.28    4.42
  -3  -3   1  219.26    3.07
  -3   3   2  197.76    4.57
  -3  -3   2  199.17    3.38
  -3   3   1  220.15    4.67
  -3   4   2  154.24    4.20
  -3   4   1  160.55    4.40
   3  -4  -2  158.53    4.49
  -3  -4   2  152.69    3.12
  -3   5   1   90.71    3.59
   3  -5  -2   91.11    2.28
   3   5  -2   91.09    2.29
   3   6  -2   19.85    1.04
   3  -6  -2   18.06    1.05
   3  -6  -1   19.69    1.07
   3   6  -1   19.41    1.19
   3   7  -2   31.13    3.92
   3   8  -2   25.27    4.60
   3   0  -3   15.21    1.49
   3  -1   0  323.03    5.30
   3  -1  -3  288.35    5.31
  -3   1   0  342.95    5.75
   3  -1  -3  265.05    5.58
   3   1  -3  293.05    4.96
  -3  -2   3  618.14    7.93
  -3   2   0  608.60    8.62
  -3   3   0  311.43    5.56
   3  -3   0  317.73    5.98
   3  -3  -3  299.57    5.90
  -3  -3   0  299.40    3.47
  -3  -4   3    5.23    1.35
   3  -4  -3    3.74    1.88
  -3   4   0    8.41    1.91
   3  -4  -3    4.69    1.12
   3   4  -3    5.58    1.14
   3  -4   0    6.69    1.95
   3  -5  -3  167.86    3.26
  -3   5   3  170.21    4.77
  -3   5   0  196.77    4.95
   3  -5   0  207.58    5.68
   3  -5  -3  187.78    5.51
   3   5  -3  159.94    3.09
   3   6   0  162.57    5.79
   3   6  -3  161.33    5.77
   3   7   0   62.70    4.33
   3   7  -3   61.41    4.20
   3   8   0    3.73    4.11
   3   8  -3    2.56    3.99
   3   0  -4    3.26    1.22
   3   0   1    6.64    1.03
   3   0  -4    1.76    1.05
   3   0   1    7.74    1.30
  -3   1   4    6.91    1.34
   3  -1   1   11.15    1.19
   3   1  -4    4.98    1.36
   3  -1   1   11.74    1.38
   3  -1  -4    5.19    1.24
   3  -1  -4    4.81    1.09
   3  -1  -4    3.79    1.52
  -3   1  -1   10.33    1.51
   3  -2  -4  324.90    6.60
   3   2  -4  330.46    5.35
  -3   2  -1  333.79    6.06
   3  -2  -4  344.80    5.42
  -3   2   4  342.10    6.03
  -3   2  -1  319.61    5.65
   3  -3  -4    7.95    1.21
  -3  -3   4   11.06    1.59
  -3   3  -1    5.56    1.48
  -3   3   4    6.94    1.41
  -3   3   4    7.28    1.64
  -3   3  -1    4.15    1.59
   3  -3   1    4.95    1.69
   3  -3  -4    8.42    1.79
   3   3  -4    8.75    1.15
  -3  -4   4    1.56    1.44
  -3   4   4    0.67    1.93
  -3   4  -1    0.78    1.64
   3  -4   1    0.38    1.89
   3  -4  -4    2.40    1.97
   3  -4  -4    1.41    1.18
   3   4  -4    1.69    1.09
  -3  -5   4    3.52    1.77
   3  -5  -4    4.06    2.62
  -3   5   4    3.51    2.09
   3   5  -4    4.93    1.21
  -3   5  -1    3.23    2.11
   3  -5   1    5.27    2.59
  -3  -6   4  115.01    3.74
   3   6   1  113.06    4.87
   3   6  -4  111.78    4.88
   3   7  -4    1.88    2.96
   3   7   1    2.60    0.81
   3   7   1    1.41    3.00
   3   8   1    2.55    4.13
   3   8  -4    2.31    4.07
   3   0   2  501.38    7.48
   3   0  -5  426.34    7.36
   3   0  -5  448.68    7.96
   3   0   2  498.98    6.42
   3   0  -5  503.99    7.39
   3  -1  -5   60.03    2.86
  -3   1  -2   44.99    2.28
  -3   1   5   56.11    2.39
   3   1   2   48.41    1.43
   3   1  -5   59.44    2.67
   3  -2  -5    5.40    1.82
  -3  -2   5    3.99    1.52
   3  -2  -5    6.71    1.24
  -3   2  -2   21.40    1.96
  -3   2   5    6.60    1.49
   3   2  -5    6.67    1.26
  -3   2  -2   19.21    1.60
  -3   3  -2   37.74    2.23
  -3   3   5   46.96    2.35
  -3   3   5   45.00    2.62
   3  -3   2   43.35    2.35
   3  -3  -5   56.95    2.62
   3  -3  -5   57.68    3.00
   3  -3  -5   48.25    1.91
  -3   3  -2   48.33    2.44
   3   3  -5   49.00    1.97
  -3  -3   5   53.80    2.49
   3   4  -5  250.47    4.61
  -3   4  -2  302.17    5.61
   3  -4  -5  247.09    5.37
   3  -4   2  283.37    5.55
  -3  -4  -2  258.72    3.18
   3  -4  -5  235.99    4.53
  -3   4   5  255.54    5.64
  -3  -4   5  239.32    5.10
  -3  -5   5   45.86    2.65
  -3   5   5   46.22    3.13
  -3   5  -2   39.53    2.97
   3  -5  -5   52.86    3.26
   3  -5   2   37.70    3.03
  -3  -6   5    3.04    2.24
   3   6  -5    4.20    2.75
   3   6   2    7.98    2.89
   3   7  -5   12.57    3.49
   3   7   2    9.37    3.46
   3   8  -5   50.61    4.41
   3   8   2   62.30    4.71
   3   0  -6  434.53    7.20
   3   0  -6  417.80    6.73
   3   0  -6  414.56    7.88
   3   1  -6    8.60    1.83
   3  -1  -6    6.29    1.31
   3   1   3    7.01    1.53
   3  -1  -6    7.27    1.85
  -3   1  -3    6.89    1.54
  -3   1   6    4.51    1.38
   3   1  -6    4.72    1.40
   3   1   3    9.22    1.17
   3  -2  -6   30.84    2.64
   3  -2   3   71.07    2.58
   3  -2  -6   24.50    1.95
  -3   2  -3   68.89    2.77
  -3   2   6   33.02    2.23
   3   2  -6   26.26    1.81
   3  -2  -6   30.36    2.04
  -3   2  -3   78.42    2.50
  -3   3   6    3.01    1.56
  -3   3  -3    4.43    1.58
   3  -3   3    3.27    1.82
  -3  -3   6    2.43    1.78
  -3   3  -3    3.70    1.69
   3  -3  -6    3.39    1.84
   3   3  -6    2.56    1.34
  -3  -4  -3  371.42    4.37
  -3   4  -3  384.61    6.68
  -3   4  -3  387.75    6.87
  -3   4   6  344.46    6.64
   3  -4   3  437.66    7.27
   3  -4  -6  356.66    6.89
  -3   4   6  352.55    7.24
  -3  -4   6  307.92    6.56
  -3  -5   6    6.12    2.27
  -3   5   6    7.01    2.36
  -3   5  -3    6.07    2.39
   3  -5  -6    7.32    2.33
   3  -5   3    7.39    2.30
  -3  -5  -3    6.52    1.03
   3   6   3   35.36    3.83
   3   6  -6   21.41    3.49
   3   7  -6    1.37    3.64
   3   7   3   -0.92    3.75
   3   8  -6   62.00    4.53
   3   8   3   79.49    4.98
   3   0   4   60.52    2.40
   3   0  -7   17.42    2.42
   3   0  -7   24.26    1.77
   3   0   4   56.03    2.14
   3   1  -7   24.49    2.45
   3   1   4    3.77    1.45
   3  -1  -7   20.92    2.25
   3   1   4    6.77    1.46
   3   1  -7   18.31    1.77
  -3   2  -4   15.60    1.86
  -3   2   7   30.49    2.04
   3  -2  -7   37.64    2.83
   3  -2   4   13.25    1.66
   3  -2  -7   38.13    2.07
  -3   2  -4   11.05    1.60
  -3   3  -4   11.39    1.83
   3  -3   4   16.05    1.83
   3  -3  -7   32.16    2.15
  -3   3  -4   21.72    2.18
  -3   3   7   31.34    2.34
  -3  -3   7   28.08    2.80
  -3   4  -4   26.74    2.34
  -3   4   7    7.95    1.92
  -3   4  -4   31.60    2.39
   3  -4  -7   12.06    2.31
   3  -4   4   30.98    2.56
  -3  -4   7    5.99    2.50
  -3   5   7   17.50    2.84
  -3  -5  -4    4.09    1.08
  -3   5  -4    9.29    2.29
   3  -5  -7   19.85    2.69
   3   5  -7   16.63    2.69
  -3   5  -4    5.81    2.28
   3  -5   4   10.11    2.48
   3   5   4    6.07    2.54
  -3  -6  -4    5.71    1.36
   3   6   4   12.50    3.17
   3   7  -7    9.30    3.49
   3   7   4    5.40    3.63
   3   7   4    2.56    2.01
   3   0   5    4.65    1.68
   3   0  -8    5.48    2.24
  -3   0   8    7.05    1.94
   3   1  -8   11.68    2.76
   3  -1   5   45.93    2.73
   3   1   5   45.09    2.07
   3   1  -8    8.87    1.66
   3  -1  -8    5.18    2.33
   3  -1  -8    6.22    1.49
   3  -2  -8  167.72    4.80
   3  -2   5  151.91    3.50
   3  -2  -8  163.52    3.59
  -3   2  -5  149.97    4.00
  -3   2  -5  158.13    3.44
  -3   2   8  150.25    3.85
  -3  -3   8    5.81    2.70
  -3   3  -5   53.49    2.87
  -3   3   8   20.02    2.36
   3  -3   5   54.75    2.70
   3  -3  -8   10.27    2.12
  -3   3  -5   58.12    2.62
  -3   4  -5   12.78    2.38
   3  -4  -8   15.95    2.31
   3  -4   5   10.48    2.15
  -3   4  -5   12.61    2.32
  -3   4   8   14.86    2.31
   3   4   5    8.05    2.21
   3   4  -8   11.69    2.35
  -3   5  -5   32.77    2.73
  -3   5   8   14.55    2.58
  -3   5  -5   32.00    2.84
   3   5   5   23.94    2.78
   3   5  -8    8.25    2.52
  -3   6  -5   64.69    3.63
  -3   6   8   74.64    3.80
   3   6   5   72.33    4.52
   3   6  -8   76.25    4.41
  -3   7  -5   16.08    3.18
   3   7  -8    8.43    3.22
   3   7   5   11.63    3.37
   3   0   6    1.05    2.00
  -3   0   9    7.50    2.25
   3  -1   6   79.68    3.48
   3  -1   6   73.10    2.07
   3  -1  -9   21.12    1.61
   3   1   6   70.04    2.20
  -3  -1   9   25.33    2.80
   3   1  -9   22.11    1.57
   3  -1  -9   20.76    2.65
   3  -2   6   27.93    2.63
   3  -2  -9   13.76    2.48
   3  -2   6   31.50    1.90
   3  -2  -9   12.21    1.70
   3   2   6   26.94    2.00
   3   2  -9    9.60    1.65
   3  -2  -9   12.97    3.02
  -3   3   9   35.39    2.45
   3  -3  -9   29.31    2.15
   3  -3   6   73.79    2.59
   3   3   6   69.77    2.78
   3   3  -9   27.59    2.24
  -3   3  -6   84.55    2.88
  -3   3  -6   78.75    3.16
  -3   4  -6    1.60    2.28
  -3   4   9   11.41    2.63
  -3   4  -6    2.30    2.05
   3   4   6    4.31    1.41
   3   4   6    0.72    1.93
   3   4  -9    9.43    2.04
  -3   5  -6   55.50    3.54
   3   5   6   52.85    2.63
   3   5  -9   24.46    3.04
   3   5   6   50.57    3.50
  -3   5  -6   54.25    3.39
  -3   5   9   22.09    2.90
  -3   6   9   13.70    2.94
   3   6  -9   12.65    2.80
   3   6   6   17.08    2.90
  -3   6  -6   18.96    2.98
  -3   7  -6   28.35    3.50
   3   7  -9   19.26    3.72
   3   7   6   30.10    3.99
  -3   7   9   19.07    3.42
   3   0   7    8.73    2.65
   3   0   7    3.43    0.62
   3   0 -10   18.47    0.78
  -3   0  10   48.48    3.31
   3   0 -10   38.81    3.07
   3  -1   7    1.20    2.43
   3  -1 -10    1.10    2.92
   3  -1 -10    0.69    2.25
   3  -1 -10    0.67    1.00
  -3  -1  10   -0.17    2.54
   3   2 -10    0.63    1.14
   3  -2 -10    2.48    2.94
   3   2   7    5.21    1.55
   3  -2 -10    3.40    2.30
   3   2   7    5.19    1.28
   3   2 -10    1.00    1.49
   3  -3 -10    0.22    3.16
  -3   3  10    2.00    1.83
   3   3 -10    1.52    1.80
   3   3   7    0.55    1.84
  -3   4  10   30.79    2.76
   3   4 -10   25.33    2.09
   3   4   7    8.94    1.96
  -3   4  -7    9.54    2.24
   3  -4 -10   29.86    3.95
  -3   5  10    1.45    2.83
   3   5   7    0.84    2.39
  -3   6  10    1.12    2.87
   3   6   7    2.88    3.11
   3   0 -11    8.02    2.58
  -3   0  11    9.80    2.98
   3  -1 -11   27.82    3.70
   3  -1 -11   23.75    2.78
  -3  -1  11   28.09    3.49
   3  -2 -11    3.86    3.26
   3  -3 -11   18.57    3.65
   3   3   8   24.67    1.91
   3  -4 -11    5.07    3.46
   3  -5 -11    9.63    3.78
   3   6   8   14.23    3.62
  -3   0  12    1.91    3.12
   3  -1 -12    3.12    3.40
  -3   1  12    1.00    3.17
  -3  -1  12   -1.89    3.21
   3  -2 -12   13.97    3.76
   3  -3 -12    2.00    3.57
   4   0  -2 2312.83   26.61
  -4   1   2    3.27    1.44
   4  -1  -2    4.43    1.57
  -4   2   2  907.92   12.97
  -4   3   2    2.55    1.61
  -4   3   2    2.90    1.55
  -4   4   2 1284.98   17.53
   4  -4  -2 1320.63   17.77
  -4  -4   2 1403.36   14.91
  -4   4   2 1371.31   17.57
  -4  -5   2    2.78    1.22
  -4   5   2    3.67    2.42
   4  -5  -2    3.26    2.54
   4   6  -2  217.97    4.03
   4  -6  -2  211.19    4.01
  -4  -7   2    1.88    1.82
   4   7  -2   -1.16    3.61
   4   7  -2    2.15    1.03
   4   8  -2  279.09    8.44
   4   0  -3  895.35   12.51
   4  -1  -3    6.09    1.61
   4  -1  -3    6.62    1.81
   4  -1  -1   11.67    1.82
  -4   1   1   10.52    1.72
   4   2  -3  117.61    3.05
  -4   2   1  112.79    3.83
   4  -3  -3   22.91    2.45
  -4   3   1   33.31    2.43
  -4   3   3   22.66    2.36
  -4   3   1   34.79    2.47
  -4   4   1  553.78    9.63
   4  -4  -3  587.03    9.88
  -4   4   1  565.39    9.49
  -4   5   1   22.47    2.62
   4  -5  -3   16.36    2.70
  -4  -5   1   21.13    1.20
   4  -5  -3   11.84    1.59
   4   5  -3   12.13    1.53
  -4  -5   3   14.08    1.54
  -4  -6   3   54.79    2.53
   4  -6  -3   47.32    1.99
   4   6  -3   53.97    2.23
  -4  -7   1   11.58    1.79
  -4  -7   3    8.49    2.04
   4   7  -1    8.84    1.27
   4   7  -3    6.36    3.61
   4   8  -3  112.16    6.01
   4   0   0    5.01    1.48
   4   0  -4    7.32    1.67
  -4   1   0  509.46    8.56
   4  -1  -4  503.24    9.24
  -4   1   4  504.48    8.41
   4  -1   0  504.37    8.36
   4   1  -4  488.15    7.90
   4  -1   0  492.86    7.96
   4  -2  -4  215.09    5.82
   4   2  -4  220.79    4.95
  -4   2   0  298.41    6.04
  -4   2   4  244.42    5.56
   4  -2   0  264.38    5.41
  -4   2   0  262.82    5.24
   4  -3  -4  367.83    7.81
  -4   3   0  369.87    7.10
  -4   3   4  382.48    7.31
  -4   3   0  373.85    6.80
   4   4  -4   13.67    1.66
  -4   4   0    7.65    2.09
  -4   4   4   17.94    2.19
   4  -4  -4   15.86    2.43
  -4   4   0    9.39    2.13
   4  -4   0    7.33    2.30
   4  -4  -4   13.74    1.68
  -4   4   4   13.42    2.26
  -4  -4   4   16.59    1.74
  -4   5   0  229.53    5.79
  -4   5   0  216.03    5.62
   4  -5   0  213.52    5.84
   4  -5  -4  219.14    5.91
   4   5  -4  231.67    4.59
   4  -5  -4  229.86    4.63
  -4  -5   0  210.09    3.05
  -4   5   4  236.26    6.18
  -4  -5   4  244.60    4.86
   4  -6  -4   55.66    2.25
   4   6  -4   57.93    2.18
  -4  -7   4  100.47    3.69
   4   7   0   97.03    5.43
   4   7  -4   95.01    5.40
   4   8   0    1.22    3.90
   4   8  -4    2.14    3.84
   4   0  -5   23.62    1.87
   4   0   1   39.05    2.37
   4   0  -5   24.69    2.14
   4   0   1   36.25    2.05
   4  -1   1  942.59   12.93
   4  -1   1  993.33   12.60
   4  -1  -5  967.32   12.98
   4   1  -5  939.65   13.27
  -4   1  -1  979.34   13.58
  -4   1   5  962.47   13.49
   4  -1  -5  982.16   12.33
   4  -1  -5  924.32   14.23
   4   1  -5  945.33   13.24
   4  -2  -5  452.73    8.76
  -4   2  -1  512.60    8.47
  -4   2   5  475.50    8.13
   4   2  -5  481.99    7.47
   4  -2  -5  461.40    7.32
  -4   2  -1  494.13    7.61
   4  -3   1  714.43   10.92
   4  -3  -5  751.93   11.23
   4  -3  -5  736.91   12.12
  -4   3  -1  737.73   10.55
  -4   3  -1  672.99   10.71
  -4   3   5  743.18   11.03
   4  -3  -5  687.60    9.67
   4   3  -5  690.54    9.70
  -4   4  -1   19.33    2.46
   4  -4   1   18.00    2.57
   4  -4  -5   13.73    2.58
  -4   4   5   12.63    2.55
   4  -4  -5   11.56    1.74
   4   4  -5   16.49    1.90
  -4  -4   5   13.25    1.91
  -4   4  -1   14.43    2.25
  -4   4   5   13.91    2.29
  -4   5  -1  326.41    7.19
  -4   5   5  358.81    7.34
  -4   5  -1  349.80    7.13
   4  -5   1  325.09    7.07
   4  -5  -5  341.27    7.26
   4  -5  -5  332.14    5.61
   4   5  -5  332.25    5.51
  -4   5   5  349.78    7.35
  -4  -6  -1   94.69    1.55
  -4  -6   5  125.02    3.68
   4   7   1  177.71    6.69
   4   7  -5  172.22    6.57
   4   0  -6    0.42    1.72
   4   0  -6   -0.77    1.69
   4   0   2    0.67    1.20
   4   0   2    0.05    1.71
   4   0  -6    0.65    1.32
   4   1   2  107.85    2.31
   4  -1  -6  150.36    3.72
   4  -1   2  109.57    3.46
   4  -1   2  104.46    3.02
   4  -1  -6  134.27    3.74
   4   1   2  116.16    3.89
   4   1  -6  130.39    3.93
   4  -1  -6  129.68    4.69
   4   1  -6  130.80    4.23
   4  -2  -6  172.02    5.41
  -4   2  -2  190.43    4.92
  -4   2   6  182.97    4.74
   4   2  -6  206.80    4.72
   4  -2  -6  202.13    4.67
   4  -3   2   73.59    3.36
   4  -3  -6   99.14    3.55
   4  -3  -6  115.51    4.65
  -4   3  -2   84.06    3.82
  -4   3   6  105.61    3.91
   4  -3  -6  103.86    3.23
   4   3  -6   98.35    3.02
  -4   3  -2   53.33    2.98
   4  -4  -6    8.85    1.58
  -4  -4   6    7.94    2.16
  -4   4  -2    5.48    2.15
  -4   4  -2    7.60    2.22
  -4   4   6    7.96    2.13
   4   4  -6    6.85    1.57
   4  -4   2    9.07    2.49
   4  -4  -6    9.33    2.61
  -4   5  -2   38.87    3.11
  -4   5  -2   43.93    3.14
  -4   5   6   50.90    3.33
   4  -5   2   36.76    3.08
   4  -5  -6   53.94    3.40
  -4  -5   6   56.42    3.18
  -4   6  -2   95.21    4.28
  -4   6   6   95.14    4.27
  -4   7  -2   25.00    3.44
   4   7   2   23.92    4.22
   4   7  -6   26.59    4.05
   4   0   3   15.13    1.34
   4   0   3   22.60    2.32
   4   0  -7   46.83    2.58
   4   0  -7   46.19    2.38
   4   0  -7   45.76    2.97
   4   1  -7  157.29    5.14
   4   1  -7  191.22    4.41
   4  -1  -7  195.29    4.49
   4   1   3  201.50    3.75
   4  -1  -7  157.52    5.35
   4   1   3  222.30    5.08
   4   1  -7  166.70    4.65
   4   1   3  210.01    3.72
   4  -2  -7  324.71    7.47
   4  -2  -7  336.24    5.96
   4   2  -7  316.24    5.74
  -4   2   7  340.08    6.76
   4  -3  -7  115.73    4.78
  -4   3  -3  143.61    4.61
   4  -3   3  125.30    4.03
   4  -3  -7  116.76    4.02
  -4   3   7  136.82    4.46
   4  -3  -7  125.53    3.78
   4   3  -7  118.65    3.67
  -4   3  -3  138.75    4.05
   4  -4   3   24.63    2.78
   4  -4  -7   33.33    2.92
  -4   4  -3   24.56    2.71
  -4   4   7   35.51    2.91
  -4  -4   7   35.91    2.81
  -4   4  -3   15.03    2.35
  -4   5  -3   70.27    3.64
   4  -5   3   73.78    4.30
  -4   5  -3   67.00    3.63
  -4   6  -3  109.24    4.58
   4   6   3  105.52    5.19
   4   6  -7  117.14    5.41
  -4   7  -3   39.42    3.91
  -4   7   7   30.86    3.64
   4   7   3   34.92    4.15
   4   7  -7   29.22    3.96
   4   0   4   83.35    3.00
   4   0   4   74.63    2.94
   4   0  -8   83.46    3.05
   4   0  -8   82.56    3.95
   4   1  -8  188.31    5.64
   4   1   4  172.00    3.01
   4   1   4  218.84    4.83
   4   1  -8  182.60    4.56
   4  -1  -8  230.49    5.12
   4   1  -8  226.66    4.92
   4  -1  -8  174.66    5.44
   4  -1  -8  180.30    5.81
   4   1   4  218.60    4.33
   4  -2  -8  280.62    6.80
   4  -2   4  265.84    5.55
   4  -2  -8  289.79    5.69
   4   2  -8  264.62    5.90
  -4   2  -4  268.54    6.12
  -4   2   8  282.66    6.20
  -4   3  -4  137.44    4.44
  -4   3   8  159.32    4.71
   4  -3  -8  137.86    5.10
   4  -3   4  152.50    4.45
   4  -3  -8  156.18    4.54
  -4   3  -4  137.87    3.90
  -4   4  -4   28.55    3.16
   4  -4   4   24.70    2.50
   4  -4  -8   38.14    2.73
  -4   4   8   40.11    3.38
  -4   4  -4   26.48    2.69
  -4   5  -4  113.47    4.43
  -4   5   8  106.44    4.51
   4   6   4  106.90    5.09
   4   6  -8  112.75    5.09
  -4   6  -4  123.45    4.92
  -4   6   8  133.52    5.14
  -4   7   8   50.44    4.13
   4   7  -8   48.06    4.72
   4   7   4   51.12    4.94
  -4   7  -4   46.10    4.05
   4   0   5    3.16    1.80
   4   0  -9    2.75    2.54
   4   1  -9   27.51    3.38
   4  -1   5   14.36    2.19
   4   1   5   15.98    2.22
   4   1  -9   28.06    2.27
   4  -1  -9   26.33    3.11
   4  -2  -9   38.78    3.53
   4  -2   5   27.83    2.24
   4  -2  -9   35.78    2.32
   4   2   5   33.22    2.47
   4   2  -9   32.21    2.34
   4  -3  -9   31.87    3.43
   4  -3   5   17.88    2.21
   4  -3  -9   28.24    2.36
  -4   3  -5   20.24    2.46
  -4   3  -5   20.18    2.55
  -4   3   9   31.98    2.84
  -4   4  -5    3.39    2.42
  -4   4  -5    2.47    2.46
  -4   4   9    2.34    2.40
   4  -4   5    2.35    2.50
   4  -4  -9    2.34    2.47
  -4   5  -5   16.68    3.32
  -4   5   9   22.37    3.15
   4   5  -9   19.41    3.05
  -4   6  -5   13.15    3.25
  -4   6   9   14.70    3.23
   4   6   5   10.96    3.39
   4   6  -9   12.51    3.24
  -4   7   9   11.64    3.47
   4   7  -9   12.05    3.72
   4   7   5    9.10    3.95
  -4   7  -5    8.46    3.55
   4   0 -10  177.90    5.65
   4   0   6  183.13    5.13
   4   1   6    0.92    1.61
   4  -1   6    2.74    2.35
   4  -1 -10    8.76    2.85
   4  -1   6    1.90    1.50
   4  -1 -10    7.19    1.76
   4   1 -10    7.70    1.62
   4   2   6   30.27    2.38
   4  -2   6   29.04    2.88
   4  -2 -10   41.63    3.40
   4   2 -10   34.84    2.38
   4  -2   6   23.61    2.08
   4  -2 -10   38.31    2.34
   4  -2 -10   41.50    3.81
   4  -3 -10    2.53    3.42
  -4   3  10    5.06    2.32
   4  -3   6    0.47    2.18
  -4   4  10  101.30    4.03
   4  -4   6   89.29    3.56
   4   4   6   85.62    3.79
   4   4 -10   83.32    3.63
  -4   4  -6  100.64    4.27
  -4   5  -6    1.81    2.71
  -4   5  10    5.92    2.96
   4   5   6    1.85    2.59
   4   5 -10    4.92    2.60
  -4   6  10   14.15    3.71
   4   6   6   11.03    3.82
  -4   7  10    3.06    3.39
   4   7   6    4.11    3.63
   4   0   7  112.51    4.53
   4   0 -11  107.27    4.73
   4  -1   7   10.94    2.96
   4  -1   7    8.93    1.40
   4  -1 -11   10.92    2.94
   4  -2 -11   36.75    3.52
   4   2   7   33.62    2.40
   4  -2   7   24.94    1.87
   4  -2 -11   34.76    4.01
   4  -3 -11    8.18    3.53
   4   3   7    7.68    2.09
   4   4   7   59.03    3.28
  -4   4  11   67.01    3.56
   4   5   7    2.61    2.59
  -4   5  11    6.59    2.88
   4   0 -12   13.15    3.37
   4  -1 -12    0.82    3.54
   4  -1 -12    0.26    2.93
   4  -2 -12   -0.29    3.40
   4  -3 -12    0.82    3.78
   5   0  -3  683.08   11.26
   5  -1  -2    0.98    1.81
  -5   1   2    1.13    2.05
   5   1  -3    1.22    1.83
   5  -1  -3    1.01    1.88
   5   2  -3   65.07    2.29
   5   2  -2   68.39    1.99
   5  -2  -2   72.22    3.60
  -5   3   2    8.03    2.47
   5  -4  -3  411.27    8.63
  -5   4   2  429.98    8.59
  -5   4   2  419.16    8.13
  -5   5   2    4.37    2.50
  -5   6   2   30.17    3.31
   5  -6  -3   23.13    2.17
   5   6  -3   23.64    2.07
  -5  -6   3   34.26    2.13
  -5   7   2    3.25    3.09
   5   0  -1   67.85    3.38
   5   0  -4   68.66    3.31
   5  -1  -1    7.52    2.11
   5   1  -4    2.27    1.46
   5  -1  -4    1.99    1.82
   5  -1  -4    1.31    2.07
  -5   1   1    2.53    2.03
   5  -1  -1    3.55    2.00
   5   1  -1    4.03    2.00
   5   1  -4    2.72    1.91
  -5   2   1  114.03    4.27
   5   2  -4   78.91    2.90
   5  -2  -1  104.60    4.16
   5  -2  -4   89.52    4.16
   5  -3  -4    3.22    2.55
  -5   3   1    3.99    2.22
   5  -4  -1   15.80    2.81
   5  -4  -4   19.87    3.23
  -5   4   1   19.13    2.68
  -5   4   4   19.11    2.75
  -5   4   1   16.11    2.46
  -5   5   1    2.70    2.43
  -5   5   4    3.28    2.51
   5  -5  -4    1.21    1.78
   5   5  -4    1.05    1.66
  -5   6   1   32.12    3.42
  -5   6   4   27.13    3.31
   5  -6  -4   30.52    2.41
   5   6  -4   28.03    2.19
  -5  -6   4   34.60    2.44
  -5   7   4    2.22    3.16
  -5   7   1    4.83    3.20
   5   0   0   21.63    2.48
   5   0   0   16.58    2.08
   5   1  -5  211.75    5.58
   5  -1  -5  214.57    6.47
   5   1   0  271.21    6.22
   5  -1   0  255.79    5.98
   5  -1  -5  210.81    5.69
   5   1  -5  183.53    5.04
   5  -1   0  241.30    5.54
   5   2  -5  225.78    5.65
   5  -2   0  300.58    6.53
  -5   2   0  338.64    7.36
  -5   2   5  305.61    7.07
   5  -2  -5  265.48    7.04
  -5   3   5  197.14    5.71
  -5   3   0  183.44    4.86
   5  -4   0   15.39    2.92
  -5   4   0   17.55    2.76
  -5   4   5   11.22    2.36
   5  -4  -5    8.31    2.79
  -5   4   0   14.12    2.38
   5  -4  -5    7.89    1.89
   5   4  -5    6.97    1.88
   5  -5  -5   87.11    3.23
   5   5  -5   83.10    3.10
  -5   5   0  103.51    4.45
  -5   5   5   95.72    4.38
  -5  -6   5  118.99    3.89
  -5   6   0  134.42    5.43
  -5   6   5  121.65    5.24
  -5   7   0   50.07    4.17
  -5   7   5   42.75    4.05
   5   0   1    7.22    1.75
   5   0   1    8.80    2.34
   5   0  -6    9.82    1.73
   5   0  -6   11.49    2.38
   5  -1   1  108.15    3.93
   5  -1   1  102.87    3.68
   5  -1  -6  100.34    3.85
   5  -1  -6   87.26    3.29
   5   1  -6   83.51    3.23
   5  -1  -6   94.65    4.63
   5   1   1  112.90    4.04
   5   1  -6   91.05    3.72
   5   1  -6   82.66    3.74
   5   2  -6   80.30    3.72
   5  -2  -6   91.06    3.29
   5   2  -6   88.56    3.30
  -5   2   6   88.75    3.97
   5  -2  -6   85.86    4.51
  -5   3  -1  103.20    4.17
   5  -3  -6   79.69    4.31
  -5   3   6   94.00    4.06
   5  -3  -6   86.08    3.26
   5   3  -6   84.41    3.23
  -5   3  -1   97.23    3.72
  -5   4  -1    6.43    2.80
  -5   4   6   12.28    2.79
  -5   4  -1    4.14    2.24
   5  -4   1    6.32    2.85
   5  -4  -6   12.62    2.81
   5  -4  -6   13.76    2.33
   5   4  -6   13.26    2.15
   5  -5  -6   59.59    2.79
   5   5  -6   66.15    2.95
  -5   5   6   71.50    4.18
   5   6  -6   26.24    2.27
  -5   6   6   30.29    3.47
  -5  -6   6   31.42    2.94
  -5   7  -1   35.24    4.18
  -5   7   6   27.25    3.77
   5   0   2   27.60    3.04
   5   0  -7   45.87    3.07
   5   0  -7   41.26    2.48
   5   0  -7   39.06    3.10
   5   0   2   19.75    2.03
   5   1   2   19.50    1.30
   5   1  -7   11.29    2.46
   5  -1   2   21.21    2.08
   5  -1   2   21.75    2.37
   5  -1  -7   12.66    2.17
   5  -1  -7    9.25    2.91
   5  -1  -7   15.15    2.02
   5   1  -7   13.59    1.95
   5   1   2   26.45    2.75
   5   1  -7   12.57    2.41
   5   2  -7   24.33    3.04
   5  -2  -7   34.69    2.76
   5   2  -7   32.96    2.74
  -5   2   7   23.49    2.75
   5  -2  -7   23.45    3.51
  -5   3  -2   16.03    2.54
  -5   3   7    9.56    2.41
   5  -3  -7   10.81    2.80
   5  -3  -7   12.00    3.03
   5  -3  -7   13.35    2.06
   5   3  -7   10.43    1.91
   5  -4   2   22.40    3.07
   5  -4  -7   33.15    3.17
  -5   4  -2   23.02    3.28
  -5   4   7   36.59    3.47
   5  -4  -7   29.15    2.20
   5   4  -7   30.45    2.27
  -5   4  -2   19.51    2.57
  -5   5  -2   19.37    3.01
  -5   5   7   14.09    2.94
   5  -5  -7   14.63    2.28
   5   5  -7   15.20    2.24
  -5   6  -2   23.18    3.56
  -5   6   7   14.49    3.45
  -5   7  -2    6.77    3.47
  -5   7   7    4.27    3.33
   5   7   2    3.06    4.15
   5   7  -7   -0.60    4.02
   5   0  -8   -0.16    2.30
   5   0   3    0.20    2.08
   5   0   3    2.10    1.45
   5   0  -8    1.10    2.13
   5   0  -8    0.33    1.85
   5   1   3  173.48    4.75
   5   1  -8  112.84    4.31
   5   1  -8  126.77    4.07
   5  -1  -8   99.96    4.85
   5   1   3  161.66    3.65
   5  -1  -8  137.27    4.14
   5   1   3  148.83    3.14
   5   1  -8   94.08    4.33
   5  -2  -8   73.43    3.13
   5   2  -8   78.56    3.18
  -5   2   8   85.09    4.09
   5   2  -8   76.65    3.62
   5  -2  -8   66.39    4.36
   5  -3  -8   94.30    4.85
   5  -3  -8  103.76    4.41
   5  -3  -8   99.62    3.49
   5   3  -8  103.60    3.55
  -5   4  -3    1.35    2.53
  -5   4  -3    4.08    2.51
  -5   4   8    1.42    2.60
   5  -4   3    3.00    2.92
   5  -4  -8    0.63    2.88
   5  -4  -8    1.44    1.99
   5   4  -8    1.58    1.97
  -5   5  -3   96.55    4.92
  -5   5   8   76.64    4.71
  -5   6  -3   46.08    3.92
  -5   6   8   33.75    3.97
   5   7   3   35.48    4.75
  -5   7  -3   37.66    4.11
  -5   7   8   28.74    4.15
   5   7  -8   21.51    4.32
   5   0  -9    0.89    2.74
   5   0   4    1.43    1.74
   5   0  -9    1.70    1.89
   5   0   4    1.71    2.06
   5  -1  -9   -0.13    2.76
   5   1   4   22.09    1.45
   5   1  -9    4.05    2.84
   5   1   4   29.32    2.88
   5  -1  -9    2.62    2.92
   5   1   4   25.66    2.04
   5   1  -9    3.44    2.35
   5  -2  -9   50.04    4.16
   5   2   4   67.75    2.34
   5   2   4   69.12    3.47
   5   2  -9   47.18    3.12
   5  -3   4   14.87    2.65
   5  -3  -9    2.43    2.41
   5  -3  -9    3.22    3.32
  -5   3  -4   14.14    2.65
  -5   3   9    3.47    2.39
  -5   4   9   -0.03    2.59
  -5   4  -4   -0.39    2.49
   5  -4   4    0.49    2.59
   5  -4  -9    0.42    2.58
  -5   4  -4    0.31    2.59
  -5   5  -4   16.00    3.21
  -5   5   9    4.74    3.25
  -5   6  -4   34.85    4.29
  -5   6   9   34.75    4.39
   5   6   4   24.37    4.13
   5   6  -9   24.38    4.04
  -5   7  -4   11.46    4.01
   5   7   4    5.17    3.88
   5   0   5   55.82    2.92
   5   0 -10   25.88    3.46
   5  -1 -10    8.48    3.08
   5   1 -10   10.07    3.39
   5  -1   5    0.48    2.32
   5   1   5    1.53    2.15
   5  -1 -10    4.55    3.44
   5   1 -10    6.63    2.07
   5   2 -10   -2.27    2.19
   5  -2 -10    1.56    3.28
   5  -2   5    3.41    2.14
   5  -2 -10   -0.10    2.19
   5   2   5    5.04    2.32
   5   3   5    1.90    1.40
  -5   3  10    4.49    2.76
   5   3   5    0.93    2.56
   5   3 -10    5.90    2.30
   5  -3   5    2.28    2.49
   5  -3 -10   10.75    2.61
   5  -3 -10    9.66    3.45
   5  -4   5   40.54    3.45
  -5   4  -5   37.62    3.39
  -5   4  10   28.91    3.42
  -5   5  -5    0.62    2.81
  -5   5  10    2.68    3.05
  -5   6  -5    0.77    3.25
  -5   6  10    1.56    3.49
   5   6   5   -1.29    3.92
   5   6 -10    1.24    3.70
   5   0 -11   55.03    4.57
   5   0 -11   61.17    4.81
   5  -1 -11    1.39    3.39
   5  -1   6    1.21    2.48
   5   1   6    1.29    1.98
   5   1 -11    4.35    3.34
   5  -1 -11    1.22    3.21
   5   2   6   28.10    2.92
   5  -2   6   22.94    2.53
   5  -3 -11    0.63    3.63
   5  -3 -11    1.65    3.48
  -5   4  11   46.26    3.77
   5   5   6    1.80    3.07
  -5   5  11   -0.76    3.19
   5   0 -12    5.24    3.67
   5   0 -12    3.10    3.35
   5  -1 -12    1.75    3.50
   5  -2 -12    2.22    3.75
   5  -2 -12    5.49    3.37
   6   0  -3    1.45    2.34
   6  -1  -3    1.57    2.36
   6   1  -3    2.67    2.19
   6  -1  -3    2.63    2.34
   6   2  -3  179.38    3.94
  -6   2   3  233.54    6.29
  -6   3   3    2.01    2.46
  -6   4   3    8.75    2.96
  -6   5   3    3.51    3.06
  -6   6   3   95.71    4.96
  -6   7   3    2.41    3.72
   6   0  -4   70.37    3.86
   6  -1  -4  385.58    8.53
   6   1  -4  381.08    8.22
   6   2  -4  288.40    5.66
   6   2  -2  261.63    4.26
   6  -2  -2  324.18    7.55
  -6   2   2  333.82    7.68
  -6   3   2  267.31    6.96
   6  -3  -2  254.36    6.94
  -6   4   2   22.45    3.41
  -6   5   2  166.37    6.07
  -6   6   2  124.71    5.54
   6   6  -4  118.17    3.94
  -6   7   2   80.51    5.12
   6   0  -1   24.30    3.23
   6   0  -1   23.88    2.71
   6  -1  -1  311.19    7.27
   6  -1  -5  309.20    7.26
   6  -1  -5  305.06    8.04
   6   1  -1  316.78    7.13
   6   1  -5  317.82    7.30
   6  -1  -1  305.48    7.13
   6  -2  -1  276.96    7.13
  -6   2   1  279.00    7.34
  -6   2   5  299.88    7.26
   6  -2  -5  299.39    8.00
  -6   3   1  238.46    6.69
  -6   3   5  252.47    6.69
   6  -3  -5  235.62    7.22
   6  -3  -1  238.60    6.78
  -6   4   1   10.42    2.95
  -6   4   5   13.31    3.00
   6  -5  -5  116.44    4.08
   6   5  -5  109.36    3.93
  -6   6   1   94.71    5.01
   6   6  -5   91.43    3.51
  -6   7   1   65.07    4.82
  -6   7   5   62.93    4.72
   6   0  -6  114.31    4.88
   6   0   0  122.71    4.40
   6  -1   0   31.40    2.97
   6  -1  -6   40.46    3.85
   6  -1   0   34.89    3.36
   6   1  -6   30.50    2.75
   6   1   0   33.88    3.27
   6   1  -6   41.20    3.52
   6  -1  -6   45.04    3.41
   6   2  -6    4.21    2.13
   6   2  -6    5.68    2.51
   6  -2  -6    4.87    3.22
  -6   2   0    0.82    2.40
  -6   2   6    3.48    2.56
   6  -2   0    2.44    2.52
  -6   3   0   31.66    3.45
  -6   3   6   36.04    3.49
   6  -3  -6   37.60    4.23
   6  -3  -6   28.18    2.43
   6   3  -6   27.38    2.48
  -6   4   6   67.80    4.12
   6  -4  -6   67.53    4.95
   6  -4  -6   55.76    3.09
   6   4  -6   55.26    3.09
  -6   5   0   26.98    3.91
  -6   5   6   35.30    3.97
   6  -5  -6   30.76    2.73
   6   5  -6   29.45    2.64
  -6   6   0    1.42    3.58
  -6   6   6    1.61    3.20
   6   6  -6    3.07    2.21
   6   0   1  847.67   13.17
   6   0  -7  679.46   11.93
   6   0  -7  580.37   10.36
   6   0   1  754.68   11.28
   6   1  -7   22.89    2.86
   6  -1   1   12.60    2.68
   6  -1  -7   26.44    3.02
   6  -1   1    9.61    2.63
   6  -1  -7   23.58    2.40
   6   1  -7   21.76    2.36
   6  -1  -7   27.15    3.76
   6   1   1    8.53    2.72
   6   1  -7   22.05    2.75
   6   2  -7  141.01    5.17
   6  -2   1  172.47    5.13
  -6   2  -1  173.48    6.06
  -6   2   7  180.04    6.02
   6   2   1  179.84    5.59
   6  -2  -7  157.43    4.61
   6   2  -7  152.23    4.52
   6   2  -7  161.97    5.39
   6  -2  -7  166.99    6.46
   6  -3  -7   19.00    3.82
   6  -3  -7   17.78    2.25
   6   3  -7   16.26    2.27
  -6   3  -1   10.55    3.02
  -6   3   7   19.09    3.14
  -6   4  -1  333.43    8.07
  -6   4   7  344.48    8.26
   6  -4  -7  323.09    9.16
   6  -4  -7  318.91    6.97
   6   4  -7  341.20    7.34
  -6   5  -1    4.33    3.36
  -6   5   7    9.81    3.48
  -6   6  -1   57.02    4.89
  -6   6   7   55.15    4.93
   6   0   2  334.04    6.47
   6   0  -8  352.65    7.78
   6   1   2    9.07    1.27
   6   1  -8    7.37    2.60
   6   1   2   10.60    2.81
   6   1  -8    7.44    2.51
   6   1   2    8.82    2.22
   6  -1  -8    8.07    3.32
   6  -1   2    7.38    2.51
   6  -1   2   10.50    2.24
   6   2  -8   60.79    4.06
   6   2   2   53.10    3.65
   6   2  -8   64.69    3.64
   6  -2  -8   72.66    4.99
   6  -3  -8    7.70    3.66
  -6   3  -2    3.42    2.71
  -6   3   8    2.91    2.64
  -6   4  -2  200.66    6.33
  -6   4   8  207.19    6.31
   6  -4  -8  204.30    7.56
  -6   5  -2    1.23    3.10
  -6   5   8    0.73    3.05
  -6   6  -2   22.67    4.26
  -6   6   8   29.89    4.33
   6   0   3   14.64    2.18
   6   0   3   19.24    2.92
   6   0  -9   28.10    2.90
   6   0  -9   26.02    3.53
   6   1  -9   17.83    3.29
   6   1   3   28.45    3.39
   6   1  -9   21.63    3.04
   6  -1  -9   18.80    3.71
   6  -1  -9   18.08    3.35
   6   1   3   20.17    1.67
   6   1   3   21.90    2.20
   6   2  -9    2.44    2.79
   6  -2  -9    0.91    3.43
   6   2   3    9.51    2.85
   6   2  -9    2.49    2.60
   6  -3  -9   21.91    3.90
   6  -3   3   17.33    3.16
   6   3  -9   16.96    2.88
  -6   3  -3   18.64    3.39
  -6   3   9   16.94    3.27
  -6   4  -3   20.99    3.54
  -6   4   9   26.00    3.73
  -6   5  -3   10.05    3.30
  -6   5   9   11.22    3.50
  -6   6  -3    5.33    3.54
  -6   6   9    0.62    3.62
   6   0 -10    2.54    3.07
   6   0   4    1.64    1.89
   6   0   4    0.33    2.47
   6   0 -10    1.59    2.20
   6   1 -10  121.83    5.54
   6   1   4  141.63    5.10
   6   1 -10  131.56    4.61
   6  -1 -10  146.04    6.41
   6  -1 -10  120.91    5.51
   6  -2 -10   23.59    4.28
   6   2   4   37.28    3.34
   6   2 -10   24.09    3.00
   6   2   4   35.57    2.19
   6  -3 -10   94.55    5.55
   6  -3   4   81.27    4.24
  -6   4  -4    1.86    3.19
  -6   4  10   -1.26    3.02
  -6   5  -4   51.86    4.65
  -6   5  10   53.32    4.58
  -6   6  -4    8.09    3.66
  -6   6  10   10.45    3.83
   6   0 -11    2.68    3.36
   6   0 -11    1.66    3.87
   6   1 -11   38.44    4.56
   6   1   5   40.67    3.20
   6  -1 -11   43.00    4.92
   6  -1 -11   36.39    4.25
   6  -2 -11    6.51    3.55
   6  -2 -11   12.94    4.17
   6  -2   5    6.42    2.59
   6   2   5   13.41    3.14
   6  -3 -11   35.46    4.66
  -6   5  11   20.14    3.70
   6   6   5    4.47    4.12
  -6   6  11    9.97    4.08
   6   0 -12    4.88    3.84
   6   0 -12    1.19    3.55
   6  -1 -12    2.24    3.65
   6  -1 -12   -1.22    3.98
   6  -2 -12   21.96    4.60
   6  -3 -12    3.16    4.39
   6   0 -13    9.92    4.21
   6   1 -13   10.53    3.99
   7   0  -4    0.93    2.93
   7   1  -4   60.73    4.17
   7  -1  -4   57.59    4.08
   7  -1  -4   56.08    4.18
   7  -2  -3   99.65    5.10
  -7   2   3  102.50    5.24
   7   2  -4   67.39    2.96
   7   2  -3   77.80    2.69
   7  -3  -3   67.07    4.80
  -7   3   3   59.21    4.16
  -7   4   3    0.74    2.78
  -7   5   3   32.18    3.97
  -7   6   3   37.35    4.58
   7   0  -2    4.45    3.24
   7   0  -5    9.02    3.28
   7   0  -2    3.16    2.75
   7   1  -2  205.42    6.35
   7   1  -5  172.26    5.98
   7  -1  -2  196.41    6.30
   7  -1  -5  165.79    5.96
   7  -1  -2  212.87    6.69
   7   2  -5  127.03    4.21
   7   2  -2  125.02    2.72
   7  -3  -5  132.15    6.15
   7  -3  -2  147.08    5.89
  -7   3   2  144.95    5.69
  -7   3   5  131.34    5.49
   7  -4  -5    7.35    4.09
  -7   4   2    3.93    2.87
  -7   4   5    4.74    3.04
  -7   5   2   97.36    5.20
  -7   5   5   82.59    5.03
  -7   6   2   67.16    5.26
  -7   6   5   67.01    5.29
   7   0  -6   12.33    3.35
   7   0  -1   23.58    3.61
   7   0  -1   20.91    3.21
   7   1  -1   43.26    3.70
   7   1  -6   35.41    3.47
   7  -1  -6   36.64    4.11
   7  -1  -1   45.30    4.09
   7   1  -6   26.40    2.88
   7  -1  -6   34.16    3.59
   7  -1  -1   36.54    3.63
   7   2  -6   36.14    3.05
   7  -2  -1   36.41    3.67
   7  -3  -1   26.41    3.81
   7  -3  -6   23.99    4.49
  -7   3   1   27.30    3.54
  -7   3   6   22.00    3.33
   7  -4  -6    6.00    4.40
  -7   4   1    5.20    3.26
  -7   4   6    4.54    3.23
  -7   5   1   15.19    3.65
  -7   5   6   12.05    3.54
  -7   6   6   22.64    4.31
  -7   6   1   19.77    4.27
   7   0   0  321.18    8.14
   7   0   0  291.94    7.15
   7   1  -7   -0.28    2.56
   7   1   0    0.20    2.78
   7  -1   0    0.35    2.86
   7   1  -7    0.38    2.83
   7  -1  -7    0.66    3.21
   7  -1   0   -0.07    2.66
   7  -1  -7    0.24    2.66
   7   2  -7   15.21    2.75
   7  -2  -7   19.99    4.02
   7  -3  -7    2.48    4.19
  -7   3   0    1.31    3.19
  -7   3   7   -0.54    3.03
   7  -4  -7  128.25    6.70
  -7   4   7  137.35    6.09
  -7   5   0   -1.09    3.43
  -7   5   7    0.05    3.34
  -7   6   0   10.99    3.89
  -7   6   7    6.40    3.69
   7   0   1  299.30    7.54
   7   0   1  280.21    6.55
   7   1  -8    1.86    2.83
   7  -1   1    1.26    2.90
   7   1   1    0.04    3.03
   7   1   1    0.41    2.68
   7  -1  -8   -1.13    3.22
   7   1  -8   -0.16    2.90
   7  -1   1    1.99    2.55
   7   2  -8   33.17    3.61
   7  -2  -8   44.88    4.87
  -7   3  -1   -0.90    3.36
  -7   3   8    1.09    3.23
   7  -3  -8    0.67    4.32
   7  -4  -8  144.35    7.05
  -7   4   8  148.08    6.05
  -7   5  -1    1.71    3.44
  -7   5   8    2.28    3.44
  -7   6  -1   15.03    4.15
   7   0   2   44.40    3.32
   7   0   2   43.25    3.83
   7   0  -9   27.18    3.33
   7   0  -9   19.09    3.46
   7   1  -9    3.82    2.87
   7  -1  -9    1.20    3.72
   7   1   2    9.19    2.85
   7  -1   2    5.39    2.59
   7   2  -9    1.68    3.21
   7  -2  -9    2.93    4.09
   7  -3  -9    0.42    4.17
  -7   4  -2   17.60    3.81
  -7   4   9   14.10    3.60
   7  -4  -9   17.43    4.94
  -7   5  -2    4.91    3.86
  -7   5   9   -0.05    3.86
   7   0 -10    0.60    3.26
   7   0 -10    0.11    3.71
   7   0   3    0.75    2.18
   7   1 -10   17.38    3.68
   7  -1 -10   20.11    4.68
   7  -1 -10   16.99    3.85
   7  -2 -10   41.47    5.22
   7   2   3   61.41    3.44
   7  -3 -10   17.50    4.48
  -7   4  -3   -0.14    3.75
  -7   4  10   -2.84    3.66
   7  -4 -10    0.67    4.53
  -7   5  -3   20.12    3.82
  -7   5  10   14.67    3.91
   7   0 -11    0.31    3.40
   7   0 -11    0.96    4.42
   7  -1 -11   18.26    4.14
   7   1 -11   19.53    4.04
   7  -1 -11   22.28    5.06
   7  -2 -11   12.82    4.00
   7  -2 -11   19.50    4.58
   7  -3 -11   19.91    4.76
  -7   5  11   14.10    4.11
   7   0 -12    4.98    4.09
   7   0 -12    3.39    4.03
   7   1 -12    2.38    4.06
   7  -1 -12    0.17    4.29
   7  -2 -12    3.49    4.76
   7  -3 -12    0.11    4.50
   7   0 -13    2.07    4.71
   7   1 -13   11.18    4.48
   7  -1 -13   12.59    4.79
   7  -2 -13    8.23    4.89
   8   0  -4  434.39   10.06
   8  -1  -4    5.02    3.71
   8   2  -4   72.43    3.12
   8  -2  -4  103.10    5.86
  -8   3   4    2.60    3.50
   8  -3  -4    3.14    3.80
  -8   4   4  223.89    7.50
  -8   5   4    0.37    3.85
   8   0  -3  215.11    7.53
   8   1  -5    2.58    2.36
   8  -1  -3    6.72    3.93
   8   2  -5   19.41    2.49
   8   2  -3   11.71    1.67
   8  -2  -3   18.61    4.18
  -8   3   3    5.31    3.66
   8  -3  -3    3.41    4.28
  -8   4   3   95.00    5.30
  -8   5   3    3.24    3.72
   8   0  -2    2.98    3.23
   8   1  -6   66.62    3.85
   8  -1  -2   83.87    5.19
   8   2  -6   22.28    2.97
   8  -2  -6   37.43    4.93
   8  -3  -6   66.49    5.71
   8  -3  -2   59.95    4.99
  -8   3   2   64.97    5.10
  -8   3   6   63.77    5.12
   8  -4  -6    8.37    4.68
  -8   4   2    4.96    3.50
  -8   4   6    6.90    3.50
  -8   5   2   38.37    4.98
  -8   5   6   39.96    4.69
   8   0  -1    1.91    3.51
   8  -1  -1  178.18    6.43
   8  -1  -7  195.43    7.51
   8  -2  -1   71.80    4.71
   8  -2  -7   63.02    5.65
   8  -3  -7  141.21    7.59
  -8   4   1    2.92    3.48
  -8   4   7    0.44    3.62
   8  -4  -7   -2.47    4.76
  -8   5   1   62.35    5.25
  -8   5   7   65.69    5.30
   8   0  -8   -1.27    2.92
   8   0   0    1.92    3.16
   8  -1   0   36.29    4.05
   8   1   0   27.32    3.80
   8  -1  -8   38.41    4.97
   8   1  -8   30.12    3.70
   8   2  -8   36.85    3.82
   8  -2   0   44.74    4.21
   8  -2  -8   50.30    5.37
   8  -3  -8   31.93    5.67
  -8   4   0   -1.04    3.90
  -8   4   8   -0.92    3.82
   8  -4  -8   -1.16    4.77
  -8   5   0    9.80    4.02
  -8   5   8   16.33    4.16
   8   0  -9    7.45    3.19
   8   0  -9    6.79    4.09
   8   0   1    5.75    2.96
   8  -1   1   27.17    3.61
   8  -1  -9   17.12    5.08
   8   1   1   25.38    3.51
   8   2  -9   55.70    4.53
   8   2   1   67.55    4.10
   8  -3  -9   10.06    5.17
  -8   4  -1    1.06    4.05
  -8   4   9    2.20    4.02
   8  -4  -9    7.37    5.21
   8   0   2   15.82    2.94
   8   0 -10   21.19    3.99
   8   1 -10   23.73    3.92
   8  -1 -10   33.84    5.31
   8  -1 -10   25.86    4.19
   8   1   2   35.97    3.42
   8  -2 -10  102.36    6.87
   8   2   2   82.05    4.03
   8  -3 -10   25.09    5.10
   8   0 -11    0.90    3.57
   8   0 -11   -3.23    4.78
   8  -1 -11    8.97    3.83
   8   1 -11    8.80    3.82
   8  -1 -11   14.60    5.47
   8   1   3    5.99    2.45
   8  -2 -11   14.53    4.97
   8   0 -12   30.45    5.03
   8  -1 -12    6.74    4.95
   9   0  -5  215.04    8.24
   9   0  -4  205.08    7.75
   9   1  -4    5.12    2.41
   9   1  -5    1.10    2.44
   9  -1  -5    1.53    4.87
   9  -1  -4    5.50    4.47
   9   2  -5   27.03    2.71
   9  -2  -5   39.85    5.22
   9  -2  -4   38.83    5.19
   9  -3  -5    2.93    4.62
   9  -3  -4    3.47    4.79
   9  -4  -5  117.68    7.38
  -9   4   4  117.36    6.65
   9   0  -3   25.00    4.35
   9   1  -6   12.70    2.87
   9  -1  -3   32.59    4.78
   9   2  -6    2.73    2.53
   9  -2  -3   11.19    4.70
   9  -3  -3   17.23    4.75
  -9   4   3   13.24    4.57
  -9   4   6   16.90    4.53
   9   0  -2    6.52    4.12
   9  -1  -2   91.66    5.79
   9   1  -2   85.76    5.46
   9  -1  -7   82.06    6.43
   9  -2  -7   62.63    6.11
   9  -2  -2   77.22    5.42
   9  -3  -7   67.78    6.73
   9  -3  -2   65.51    5.76
   9   0  -8    2.46    3.41
   9   0  -8    2.97    4.82
   9   0  -1    5.11    3.99
   9  -1  -1   35.99    4.77
   9   1  -1   33.14    4.18
   9  -1  -8   45.36    5.92
   9   1  -8   28.80    3.88
   9  -2  -8   54.96    6.10
   9  -2  -1   69.26    5.52
   9  -3  -8   35.84    6.19
   9   0  -9   -0.15    3.35
   9   0  -9    0.48    5.13
   9   0   0    4.51    3.85
   9   1  -9    2.81    3.19
   9   1   0   11.75    3.96
   9  -1  -9    8.43    5.46
   9  -1   0   10.07    3.79
   9  -2  -9   39.09    5.80
   9  -2   0   42.48    4.65
   9   2   0   46.59    4.40
   9   0 -10    3.68    3.80
   9   0 -10   -0.13    5.09
   9   0   1    3.86    3.82
   9   1 -10   23.43    4.20
   9  -1   1   49.36    4.34
   9  -1 -10   40.31    6.16
   9  -1 -10   28.10    4.37
   9   1   1   53.10    4.28
   9   2 -10   19.47    4.09
   9   2   1   38.24    3.99
   9   1 -11    7.96    4.02
  10   0  -5   -1.25    4.48
  10   1  -5   -0.11    4.37
  10  -1  -5    2.50    5.06
  10  -2  -5   40.81    6.15
  10   0  -6    5.06    4.69
  10   0  -4    3.32    4.83
  10   1  -4   35.68    5.20
  10  -1  -6   35.23    5.84
  10  -1  -4   37.70    5.52
  10  -2  -4   50.75    6.30
  10   0  -7    4.47    3.49
  10   0  -3    4.68    5.00
  10  -1  -3   35.20    5.36
  10   1  -3   26.67    5.05
  10   1  -7   24.50    3.59
  10  -2  -3   36.69    5.44
  10   0  -8    8.76    3.64
  10   0  -2   13.20    4.83
  10   1  -8    9.36    3.60
  10   1  -2    7.19    4.27
  10  -1  -2    7.14    4.85
  10   2  -2    1.28    4.07
  10  -2  -2    2.78    4.94
  10   0  -1   75.86    5.76
  10   0  -9   54.03    4.77
  10   1  -9    5.46    3.64
  10   1  -1    3.93    4.60
  10  -1  -1    4.91    4.61
  10   2  -1    9.23    4.31
  10  -2  -1    9.06    4.61
  10   0   0   50.62    5.12
  10   0 -10   39.72    4.74
  10   1 -10    3.30    4.00
  10   1   0    4.66    4.18
  10  -1   0    3.10    4.39
  10   2   0    3.48    3.95
   0   0   0    0.00    0.00
;
_shelx_hkl_checksum              6840
loop_
_space_group_symop_operation_xyz
'x, y, z'
'-x, y+1/2, -z'
loop_
_atom_site_label
_atom_site_type_symbol
_atom_site_fract_x
_atom_site_fract_y
_atom_site_fract_z
_atom_site_U_iso_or_equiv
_atom_site_adp_type
_atom_site_occupancy
_atom_site_site_symmetry_order
_atom_site_calc_flag
_atom_site_refinement_flags_posn
_atom_site_refinement_flags_adp
_atom_site_refinement_flags_occupancy
_atom_site_disorder_assembly
_atom_site_disorder_group
Mn1 Mn 0.0022(3) -0.0005(3) -0.0013(3) 0.0282(3) Uani 1 1 d . . . . .
Br1 Br -0.17656(9) 0.2477(2) 0.11499(7) 0.03452(17) Uani 1 1 d . . . . .
Br2 Br -0.11828(11) 0.25496(19) -0.23660(7) 0.0362(2) Uani 1 1 d . . . . .
Br3 Br 0.29095(9) 0.2485(3) 0.10757(8) 0.03513(19) Uani 1 1 d . . . . .
N1 N 0.6369(13) 0.8582(12) 0.2347(8) 0.050(3) Uani 1 1 d D U . . .
H1A H 0.7352 0.8713 0.2103 0.060 Uiso 1 1 calc R U . . .
H1B H 0.5378 0.9150 0.1627 0.060 Uiso 1 1 calc R U . . .
C1 C 0.676(2) 0.9569(17) 0.3804(10) 0.072(4) Uani 1 1 d D U . . .
H1C H 0.7770 1.0534 0.4036 0.087 Uiso 1 1 calc R U . . .
H1D H 0.5651 1.0251 0.3791 0.087 Uiso 1 1 calc R U . . .
C2 C 0.7304(13) 0.7931(15) 0.4902(10) 0.079(4) Uani 1 1 d D U . . .
H2 H 0.8452 0.8173 0.5804 0.095 Uiso 1 1 calc R U . . .
C3 C 0.731(2) 0.6018(19) 0.4078(11) 0.087(4) Uani 1 1 d D U . . .
H3A H 0.8555 0.5721 0.4139 0.105 Uiso 1 1 calc R U . . .
H3B H 0.6875 0.4903 0.4497 0.105 Uiso 1 1 calc R U . . .
F1 F 0.5722(13) 0.804(3) 0.5120(11) 0.157(5) Uani 1 1 d D U . . .
C4 C 0.5984(15) 0.6402(13) 0.2484(9) 0.041(3) Uani 1 1 d D U . . .
H4A H 0.4688 0.6175 0.2334 0.049 Uiso 1 1 calc R U . . .
H4B H 0.6282 0.5586 0.1782 0.049 Uiso 1 1 calc R U . . .
loop_
_atom_site_aniso_label
_atom_site_aniso_U_11
_atom_site_aniso_U_22
_atom_site_aniso_U_33
_atom_site_aniso_U_23
_atom_site_aniso_U_13
_atom_site_aniso_U_12
Mn1 0.0252(4) 0.0128(5) 0.0494(4) -0.0018(4) 0.0177(3) -0.0006(4)
Br1 0.0389(3) 0.0171(3) 0.0593(3) -0.0032(6) 0.0320(2) -0.0038(6)
Br2 0.0439(4) 0.0191(3) 0.0441(3) -0.0036(7) 0.0162(2) 0.0000(7)
Br3 0.0229(3) 0.0183(3) 0.0608(3) 0.0020(7) 0.0133(2) 0.0006(6)
N1 0.057(4) 0.041(4) 0.058(4) -0.002(3) 0.028(3) 0.014(4)
C1 0.076(6) 0.060(6) 0.070(5) -0.005(5) 0.019(4) 0.003(5)
C2 0.086(6) 0.084(7) 0.069(4) 0.000(5) 0.033(4) -0.001(5)
C3 0.095(7) 0.081(7) 0.082(6) 0.021(5) 0.032(4) -0.002(5)
F1 0.164(8) 0.179(12) 0.138(6) -0.024(7) 0.070(5) 0.003(8)
C4 0.043(4) 0.038(5) 0.044(4) -0.008(3) 0.020(3) 0.001(4)
loop_
_atom_type_symbol
_atom_type_description
_atom_type_scat_dispersion_real
_atom_type_scat_dispersion_imag
_atom_type_scat_source
C C 0.0033 0.0016 'International Tables Vol C Tables 4.2.6.8 and 6.1.1.4'
H H 0.0000 0.0000 'International Tables Vol C Tables 4.2.6.8 and 6.1.1.4'
N N 0.0061 0.0033 'International Tables Vol C Tables 4.2.6.8 and 6.1.1.4'
F F 0.0171 0.0103 'International Tables Vol C Tables 4.2.6.8 and 6.1.1.4'
Br Br -0.2901 2.4595 'International Tables Vol C Tables 4.2.6.8 and 6.1.1.4'
Mn Mn 0.3368 0.7283 'International Tables Vol C Tables 4.2.6.8 and 6.1.1.4'
loop_
_geom_angle_atom_site_label_1
_geom_angle_atom_site_label_2
_geom_angle_atom_site_label_3
_geom_angle
_geom_angle_site_symmetry_1
_geom_angle_site_symmetry_3
_geom_angle_publ_flag
Br3 Mn1 Br1 94.05(9) . 2_545 ?
Br3 Mn1 Br2 95.79(8) . 2_545 ?
Br1 Mn1 Br2 85.37(7) 2_545 2_545 ?
Br3 Mn1 Br3 179.09(13) . 2_545 ?
Br1 Mn1 Br3 86.66(8) 2_545 2_545 ?
Br2 Mn1 Br3 83.69(8) 2_545 2_545 ?
Br3 Mn1 Br1 86.79(8) . . ?
Br1 Mn1 Br1 178.92(12) 2_545 . ?
Br2 Mn1 Br1 93.86(10) 2_545 . ?
Br3 Mn1 Br1 92.50(9) 2_545 . ?
Br3 Mn1 Br2 83.77(8) . . ?
Br1 Mn1 Br2 96.40(10) 2_545 . ?
Br2 Mn1 Br2 178.20(12) 2_545 . ?
Br3 Mn1 Br2 96.72(8) 2_545 . ?
Br1 Mn1 Br2 84.37(7) . . ?
Mn1 Br1 Mn1 77.32(2) 2 . ?
Mn1 Br2 Mn1 76.94(2) 2 . ?
Mn1 Br3 Mn1 77.59(2) . 2 ?
C1 N1 C4 108.7(8) . . ?
C2 C1 N1 104.5(9) . . ?
F1 C2 C1 93.4(11) . . ?
F1 C2 C3 109.1(12) . . ?
C1 C2 C3 108.0(8) . . ?
C4 C3 C2 104.9(9) . . ?
C3 C4 N1 100.3(8) . . ?
loop_
_geom_bond_atom_site_label_1
_geom_bond_atom_site_label_2
_geom_bond_distance
_geom_bond_site_symmetry_2
_geom_bond_publ_flag
Mn1 Br3 2.676(3) . ?
Mn1 Br1 2.687(3) 2_545 ?
Mn1 Br2 2.697(3) 2_545 ?
Mn1 Br3 2.707(3) 2_545 ?
Mn1 Br1 2.712(3) . ?
Mn1 Br2 2.724(3) . ?
Br1 Mn1 2.687(3) 2 ?
Br2 Mn1 2.697(3) 2 ?
Br3 Mn1 2.707(3) 2 ?
N1 C1 1.490(12) . ?
N1 C4 1.518(11) . ?
C1 C2 1.481(13) . ?
C2 F1 1.344(14) . ?
C2 C3 1.522(14) . ?
C3 C4 1.510(12) . ?
loop_
_geom_torsion_atom_site_label_1
_geom_torsion_atom_site_label_2
_geom_torsion_atom_site_label_3
_geom_torsion_atom_site_label_4
_geom_torsion
_geom_torsion_site_symmetry_1
_geom_torsion_site_symmetry_2
_geom_torsion_site_symmetry_3
_geom_torsion_site_symmetry_4
_geom_torsion_publ_flag
C4 N1 C1 C2 20.8(14) . . . . ?
N1 C1 C2 F1 -108.8(12) . . . . ?
N1 C1 C2 C3 2.5(15) . . . . ?
F1 C2 C3 C4 75.7(13) . . . . ?
C1 C2 C3 C4 -24.5(15) . . . . ?
C2 C3 C4 N1 35.2(13) . . . . ?
C1 N1 C4 C3 -35.2(13) . . . . ?
