#------------------------------------------------------------------------------
#$Date: 2016-03-23 00:21:43 +0200 (Wed, 23 Mar 2016) $
#$Revision: 179106 $
#$URL: svn://www.crystallography.net/cod/cif/4/30/68/4306875.cif $
#------------------------------------------------------------------------------
#
# This file is available in the Crystallography Open Database (COD),
# http://www.crystallography.net/
#
# All data on this site have been placed in the public domain by the
# contributors.
#
data_4306875
loop_
_publ_author_name
'Zheming Wang'
'Bin Zhang'
'Katsuya Inoue'
'Hideki Fujiwara'
'Takeo Otsuka'
'Hayao Kobayashi'
'Mohamedally Kurmoo'
_publ_section_title
;
Occurrence of a Rare 49.66 Structural Topology, Chirality, and Weak
Ferromagnetism in the [NH4][MII(HCOO)3] (M = Mn, Co, Ni) Frameworks
;
_journal_name_full               'Inorganic Chemistry'
_journal_page_first              437
_journal_page_last               445
_journal_paper_doi               10.1021/ic0610031
_journal_volume                  46
_journal_year                    2007
_chemical_formula_sum            'C3 H7 Mn N O6'
_chemical_formula_weight         208.04
_chemical_name_systematic
; 
 ? 
;
_space_group_IT_number           182
_symmetry_cell_setting           hexagonal
_symmetry_space_group_name_Hall  'P 6c 2c'
_symmetry_space_group_name_H-M   'P 63 2 2'
_atom_sites_solution_hydrogens   difmap
_atom_sites_solution_primary     direct
_atom_sites_solution_secondary   difmap
_audit_creation_method           SHELXL-97
_cell_angle_alpha                90.00
_cell_angle_beta                 90.00
_cell_angle_gamma                120.00
_cell_formula_units_Z            2
_cell_length_a                   7.3557(15)
_cell_length_b                   7.3557(15)
_cell_length_c                   8.4779(17)
_cell_measurement_reflns_used    3485
_cell_measurement_temperature    293(2)
_cell_measurement_theta_max      27.4835
_cell_measurement_theta_min      3.1979
_cell_volume                     397.25(14)
_computing_cell_refinement       'CrystalClear (Rigaku Corp., 2000)'
_computing_data_collection       'CrystalClear (Rigaku Corp., 2000)'
_computing_data_reduction        'CrystalClear (Rigaku Corp., 2000)'
_computing_molecular_graphics    'Bruker SHELXTL V5.1 (Sheldrick, 1998)'
_computing_publication_material  'SHELXL-97 (Sheldrick, 1997)'
_computing_structure_refinement  'SHELXL-97 (Sheldrick, 1997)'
_computing_structure_solution    'SHELXS-97 (Sheldrick, 1997)'
_diffrn_ambient_temperature      293(2)
_diffrn_detector_area_resol_mean 0.76
_diffrn_measured_fraction_theta_full 0.995
_diffrn_measured_fraction_theta_max 0.995
_diffrn_measurement_device_type  'Rigaku Mercury CCD (AFC7)'
_diffrn_measurement_method       CCD
_diffrn_radiation_detector       CCD
_diffrn_radiation_monochromator  'Graphite Monochromator'
_diffrn_radiation_source         'Rotating Anode'
_diffrn_radiation_type           MoK\a
_diffrn_radiation_wavelength     0.71073
_diffrn_reflns_av_R_equivalents  0.0378
_diffrn_reflns_av_sigmaI/netI    0.0128
_diffrn_reflns_limit_h_max       9
_diffrn_reflns_limit_h_min       -9
_diffrn_reflns_limit_k_max       9
_diffrn_reflns_limit_k_min       -9
_diffrn_reflns_limit_l_max       10
_diffrn_reflns_limit_l_min       -11
_diffrn_reflns_number            6804
_diffrn_reflns_theta_full        27.46
_diffrn_reflns_theta_max         27.46
_diffrn_reflns_theta_min         3.20
_diffrn_source_current           100.0000
_diffrn_source_power             '5.4 kW'
_diffrn_source_voltage           50.0000
_diffrn_standards_decay_%        0
_exptl_absorpt_coefficient_mu    1.648
_exptl_absorpt_correction_T_max  1.0000
_exptl_absorpt_correction_T_min  0.8821
_exptl_absorpt_correction_type   multi-scan
_exptl_absorpt_process_details   'Jacobson, R. (1998) Private Communication'
_exptl_crystal_colour            colorless
_exptl_crystal_density_diffrn    1.739
_exptl_crystal_density_method    'not measured'
_exptl_crystal_description       block
_exptl_crystal_F_000             210
_exptl_crystal_size_max          0.11
_exptl_crystal_size_mid          0.10
_exptl_crystal_size_min          0.09
_refine_diff_density_max         0.153
_refine_diff_density_min         -0.189
_refine_diff_density_rms         0.039
_refine_ls_abs_structure_details 'Flack H D (1983), Acta Cryst. A39, 876-881'
_refine_ls_abs_structure_Flack   0.01(4)
_refine_ls_extinction_coef       0.050(10)
_refine_ls_extinction_expression Fc^*^=kFc[1+0.001xFc^2^\l^3^/sin(2\q)]^-1/4^
_refine_ls_extinction_method     SHELXL
_refine_ls_goodness_of_fit_ref   1.152
_refine_ls_hydrogen_treatment    refall
_refine_ls_matrix_type           full
_refine_ls_number_parameters     26
_refine_ls_number_reflns         313
_refine_ls_number_restraints     0
_refine_ls_restrained_S_all      1.152
_refine_ls_R_factor_all          0.0216
_refine_ls_R_factor_gt           0.0195
_refine_ls_shift/su_max          0.000
_refine_ls_shift/su_mean         0.000
_refine_ls_structure_factor_coef Fsqd
_refine_ls_weighting_details
'calc w=1/[\s^2^(Fo^2^)+(0.0195P)^2^+0.1097P] where P=(Fo^2^+2Fc^2^)/3'
_refine_ls_weighting_scheme      calc
_refine_ls_wR_factor_gt          0.0441
_refine_ls_wR_factor_ref         0.0443
_reflns_number_gt                291
_reflns_number_total             313
_reflns_threshold_expression     >2sigma(I)
_cod_data_source_file            ic0610031si20060606_094555_1.cif
_cod_data_source_block           1Mn
_cod_depositor_comments
;
The following automatic conversions were performed:
'_symmetry_cell_setting' value 'Hexagonal' changed to 'hexagonal'
according to '/home/saulius/struct/CIF-dictionaries/cif_core.dic'
dictionary named 'cif_core.dic' version 2.4.1 from
2010-06-29.

'_exptl_absorpt_correction_type' value 'Multi-scan' changed
to 'multi-scan' according to
'/home/saulius/struct/CIF-dictionaries/cif_core.dic' dictionary named
'cif_core.dic' version 2.4.1 from 2010-06-29.

Automatic conversion script
Id: cif_fix_enum 1527 2010-12-29 10:47:43Z saulius 
;
_cod_database_code               4306875
loop_
_symmetry_equiv_pos_as_xyz
'x, y, z'
'-y, x-y, z'
'-x+y, -x, z'
'-x, -y, z+1/2'
'y, -x+y, z+1/2'
'x-y, x, z+1/2'
'y, x, -z'
'x-y, -y, -z'
'-x, -x+y, -z'
'-y, -x, -z+1/2'
'-x+y, y, -z+1/2'
'x, x-y, -z+1/2'
loop_
_atom_site_label
_atom_site_type_symbol
_atom_site_fract_x
_atom_site_fract_y
_atom_site_fract_z
_atom_site_U_iso_or_equiv
_atom_site_adp_type
_atom_site_occupancy
_atom_site_symmetry_multiplicity
_atom_site_calc_flag
_atom_site_refinement_flags
_atom_site_disorder_assembly
_atom_site_disorder_group
Mn1 Mn 0.3333 0.6667 0.2500 0.0208(2) Uani 1 6 d S . .
N1 N 0.0000 1.0000 0.2500 0.081(2) Uani 1 6 d S . .
O1 O 0.10587(19) 0.69757(19) 0.10338(12) 0.0340(3) Uani 1 1 d . . .
C1 C 0.0000 0.5700(4) 0.0000 0.0427(8) Uani 1 2 d S . .
H1 H 0.0000 0.418(6) 0.0000 0.120(16) Uiso 1 2 d S . .
H2 H 0.023(6) 0.906(5) 0.183(2) 0.063(11) Uiso 0.67 1 d P . .
loop_
_atom_site_aniso_label
_atom_site_aniso_U_11
_atom_site_aniso_U_22
_atom_site_aniso_U_33
_atom_site_aniso_U_23
_atom_site_aniso_U_13
_atom_site_aniso_U_12
Mn1 0.0234(2) 0.0234(2) 0.0156(3) 0.000 0.000 0.01168(12)
N1 0.0388(15) 0.0388(15) 0.166(7) 0.000 0.000 0.0194(7)
O1 0.0360(7) 0.0392(8) 0.0303(6) -0.0098(6) -0.0149(6) 0.0213(6)
C1 0.0460(16) 0.0329(10) 0.0536(16) -0.0156(7) -0.0312(15) 0.0230(8)
loop_
_atom_type_symbol
_atom_type_description
_atom_type_scat_dispersion_real
_atom_type_scat_dispersion_imag
_atom_type_scat_source
C C 0.0033 0.0016 'International Tables Vol C Tables 4.2.6.8 and 6.1.1.4'
H H 0.0000 0.0000 'International Tables Vol C Tables 4.2.6.8 and 6.1.1.4'
N N 0.0061 0.0033 'International Tables Vol C Tables 4.2.6.8 and 6.1.1.4'
O O 0.0106 0.0060 'International Tables Vol C Tables 4.2.6.8 and 6.1.1.4'
Mn Mn 0.3368 0.7283 'International Tables Vol C Tables 4.2.6.8 and 6.1.1.4'
loop_
_geom_angle_atom_site_label_1
_geom_angle_atom_site_label_2
_geom_angle_atom_site_label_3
_geom_angle
_geom_angle_site_symmetry_1
_geom_angle_site_symmetry_3
_geom_angle_publ_flag
O1 Mn1 O1 82.29(6) . 10_665 ?
O1 Mn1 O1 96.94(6) . 12_565 ?
O1 Mn1 O1 90.85(4) 10_665 12_565 ?
O1 Mn1 O1 90.85(4) . 3_565 ?
O1 Mn1 O1 96.94(6) 10_665 3_565 ?
O1 Mn1 O1 169.67(6) 12_565 3_565 ?
O1 Mn1 O1 90.85(4) . 2_665 ?
O1 Mn1 O1 169.67(6) 10_665 2_665 ?
O1 Mn1 O1 82.29(6) 12_565 2_665 ?
O1 Mn1 O1 90.85(4) 3_565 2_665 ?
O1 Mn1 O1 169.67(6) . 11 ?
O1 Mn1 O1 90.85(4) 10_665 11 ?
O1 Mn1 O1 90.85(4) 12_565 11 ?
O1 Mn1 O1 82.29(6) 3_565 11 ?
O1 Mn1 O1 96.94(6) 2_665 11 ?
C1 O1 Mn1 123.32(14) . . ?
O1 C1 O1 127.2(3) . 9 ?
O1 C1 H1 116.41(13) . . ?
O1 C1 H1 116.41(13) 9 . ?
loop_
_geom_bond_atom_site_label_1
_geom_bond_atom_site_label_2
_geom_bond_distance
_geom_bond_site_symmetry_2
_geom_bond_publ_flag
Mn1 O1 2.1856(11) . ?
Mn1 O1 2.1856(11) 10_665 ?
Mn1 O1 2.1856(11) 12_565 ?
Mn1 O1 2.1856(11) 3_565 ?
Mn1 O1 2.1856(11) 2_665 ?
Mn1 O1 2.1856(11) 11 ?
N1 H2 0.97(2) . ?
O1 C1 1.2347(17) . ?
C1 O1 1.2347(17) 9 ?
C1 H1 1.12(5) . ?
loop_
_geom_hbond_atom_site_label_D
_geom_hbond_atom_site_label_H
_geom_hbond_atom_site_label_A
_geom_hbond_distance_DH
_geom_hbond_distance_HA
_geom_hbond_distance_DA
_geom_hbond_angle_DHA
_geom_hbond_site_symmetry_A
N1 H2 O1 0.97(2) 2.03(2) 2.9720(12) 163(2) .
C1 H1 O1 1.12(5) 2.42(2) 3.127(3) 119.2(10) 2_665
