#------------------------------------------------------------------------------
#$Date: 2016-03-23 03:24:00 +0200 (Wed, 23 Mar 2016) $
#$Revision: 179244 $
#$URL: svn://www.crystallography.net/cod/cif/4/31/64/4316414.cif $
#------------------------------------------------------------------------------
#
# This file is available in the Crystallography Open Database (COD),
# http://www.crystallography.net/
#
# All data on this site have been placed in the public domain by the
# contributors.
#
data_4316414
loop_
_publ_author_name
'Alvaro S. de Sousa'
'Manuel A. Fernandes'
'Kamentheren Padayachy'
'Helder M. Marques'
_publ_section_title
;
 Amino-Alcohol Ligands: Synthesis and Structure of
 N,N'-bis(2-hydroxycyclopentyl)ethane-1,2-diamine and Its Salts, and an
 Assessment of Its Fitness and That of Related Ligands for Complexing
 Metal Ions
;
_journal_name_full               'Inorganic Chemistry'
_journal_page_first              8003
_journal_page_last               8011
_journal_paper_doi               10.1021/ic101018b
_journal_volume                  49
_journal_year                    2010
_chemical_formula_moiety         'C12 H26 N2 O2, 2(Cl)'
_chemical_formula_sum            'C12 H26 Cl2 N2 O2'
_chemical_formula_weight         301.25
_chemical_name_systematic
;
 ?
;
_space_group_IT_number           2
_symmetry_cell_setting           triclinic
_symmetry_space_group_name_Hall  '-P 1'
_symmetry_space_group_name_H-M   'P -1'
_atom_sites_solution_hydrogens   geom
_atom_sites_solution_primary     direct
_atom_sites_solution_secondary   difmap
_audit_creation_method           SHELXL-97
_cell_angle_alpha                103.417(3)
_cell_angle_beta                 94.390(3)
_cell_angle_gamma                109.438(3)
_cell_formula_units_Z            1
_cell_length_a                   5.8335(3)
_cell_length_b                   7.1178(4)
_cell_length_c                   9.9264(4)
_cell_measurement_reflns_used    1098
_cell_measurement_temperature    173(2)
_cell_measurement_theta_max      26.44
_cell_measurement_theta_min      3.29
_cell_volume                     372.71(3)
_computing_cell_refinement       'Bruker SMART'
_computing_data_collection       'Bruker SMART'
_computing_data_reduction        'Bruker SAINT'
_computing_molecular_graphics    'Bruker SHELXTL'
_computing_publication_material  'Bruker SHELXTL'
_computing_structure_refinement  'SHELXL-97 (Sheldrick, 1997)'
_computing_structure_solution    'Bruker SHELXTL'
_diffrn_ambient_temperature      173(2)
_diffrn_measured_fraction_theta_full 0.999
_diffrn_measured_fraction_theta_max 0.999
_diffrn_measurement_device_type  'CCD area detector'
_diffrn_measurement_method       'phi and omega scans'
_diffrn_radiation_monochromator  graphite
_diffrn_radiation_source         'fine-focus sealed tube'
_diffrn_radiation_type           MoK\a
_diffrn_radiation_wavelength     0.71073
_diffrn_reflns_av_R_equivalents  0.0465
_diffrn_reflns_av_sigmaI/netI    0.0675
_diffrn_reflns_limit_h_max       7
_diffrn_reflns_limit_h_min       -7
_diffrn_reflns_limit_k_max       7
_diffrn_reflns_limit_k_min       -9
_diffrn_reflns_limit_l_max       13
_diffrn_reflns_limit_l_min       -13
_diffrn_reflns_number            3923
_diffrn_reflns_theta_full        28.00
_diffrn_reflns_theta_max         28.00
_diffrn_reflns_theta_min         2.14
_exptl_absorpt_coefficient_mu    0.433
_exptl_absorpt_correction_T_max  0.9787
_exptl_absorpt_correction_T_min  0.8492
_exptl_absorpt_correction_type   integration
_exptl_absorpt_process_details
;
Face indexed absorption corrections carried out with XPREP
;
_exptl_crystal_colour            Colourless
_exptl_crystal_density_diffrn    1.342
_exptl_crystal_density_method    'not measured'
_exptl_crystal_description       Plate
_exptl_crystal_F_000             162
_exptl_crystal_size_max          0.39
_exptl_crystal_size_mid          0.30
_exptl_crystal_size_min          0.05
_refine_diff_density_max         0.501
_refine_diff_density_min         -0.401
_refine_diff_density_rms         0.065
_refine_ls_extinction_method     none
_refine_ls_goodness_of_fit_ref   0.977
_refine_ls_hydrogen_treatment    constr
_refine_ls_matrix_type           full
_refine_ls_number_parameters     83
_refine_ls_number_reflns         1796
_refine_ls_number_restraints     0
_refine_ls_restrained_S_all      0.977
_refine_ls_R_factor_all          0.0569
_refine_ls_R_factor_gt           0.0403
_refine_ls_shift/su_max          0.000
_refine_ls_shift/su_mean         0.000
_refine_ls_structure_factor_coef Fsqd
_refine_ls_weighting_details
'calc w=1/[\s^2^(Fo^2^)+(0.0424P)^2^+0.0000P] where P=(Fo^2^+2Fc^2^)/3'
_refine_ls_weighting_scheme      calc
_refine_ls_wR_factor_gt          0.0904
_refine_ls_wR_factor_ref         0.0963
_reflns_number_gt                1366
_reflns_number_total             1796
_reflns_threshold_expression     >2sigma(I)
_cod_data_source_file            ic101018b_si_002_4.cif
_cod_data_source_block           766044
_cod_depositor_comments
;
The following automatic conversions were performed:

'_symmetry_cell_setting' value 'Triclinic' changed to 'triclinic'
according to the built-in table from CIF Core dictionary named
'cif_core.dic' version 2.4.1 from 2010-06-29.

Automatic conversion script
Id: cif_fix_values 1646 2011-03-28 12:23:43Z adriana 
;
_cod_database_code               4316414
loop_
_symmetry_equiv_pos_as_xyz
'x, y, z'
'-x, -y, -z'
loop_
_atom_site_label
_atom_site_type_symbol
_atom_site_fract_x
_atom_site_fract_y
_atom_site_fract_z
_atom_site_U_iso_or_equiv
_atom_site_adp_type
_atom_site_occupancy
_atom_site_symmetry_multiplicity
_atom_site_calc_flag
_atom_site_refinement_flags
_atom_site_disorder_assembly
_atom_site_disorder_group
C1 C 0.6192(4) 0.2509(3) 0.6992(2) 0.0212(4) Uani 1 1 d . . .
H1 H 0.4594 0.1310 0.6651 0.025 Uiso 1 1 calc R . .
C2 C 0.8207(4) 0.1696(3) 0.7274(2) 0.0256(5) Uani 1 1 d . . .
H2 H 0.9847 0.2823 0.7397 0.031 Uiso 1 1 calc R . .
C3 C 0.7851(5) 0.1173(4) 0.8665(2) 0.0340(5) Uani 1 1 d . . .
H3A H 0.9463 0.1472 0.9237 0.041 Uiso 1 1 calc R . .
H3B H 0.6841 -0.0310 0.8503 0.041 Uiso 1 1 calc R . .
C4 C 0.6530(6) 0.2544(4) 0.9409(2) 0.0450(7) Uani 1 1 d . . .
H4A H 0.7562 0.3486 1.0308 0.054 Uiso 1 1 calc R . .
H4B H 0.4943 0.1681 0.9608 0.054 Uiso 1 1 calc R . .
C5 C 0.6087(4) 0.3794(4) 0.8416(2) 0.0298(5) Uani 1 1 d . . .
H5A H 0.4456 0.3933 0.8441 0.036 Uiso 1 1 calc R . .
H5B H 0.7385 0.5191 0.8663 0.036 Uiso 1 1 calc R . .
C6 C 0.4797(4) 0.4590(3) 0.5636(2) 0.0202(4) Uani 1 1 d . . .
H6A H 0.4935 0.5733 0.6464 0.024 Uiso 1 1 calc R . .
H6B H 0.3121 0.3529 0.5470 0.024 Uiso 1 1 calc R . .
N1 N 0.6655(3) 0.3668(2) 0.59126(16) 0.0178(4) Uani 1 1 d . . .
H1B H 0.8180 0.4710 0.6197 0.021 Uiso 1 1 calc R . .
H1C H 0.6705 0.2784 0.5086 0.021 Uiso 1 1 calc R . .
O1 O 0.8001(4) 0.0031(3) 0.61210(16) 0.0447(5) Uani 1 1 d . . .
H1A H 0.9054 -0.0484 0.6297 0.067 Uiso 1 1 calc R . .
Cl1 Cl 0.86879(9) 0.23620(8) 0.30616(5) 0.02328(16) Uani 1 1 d . . .
loop_
_atom_site_aniso_label
_atom_site_aniso_U_11
_atom_site_aniso_U_22
_atom_site_aniso_U_33
_atom_site_aniso_U_23
_atom_site_aniso_U_13
_atom_site_aniso_U_12
C1 0.0245(10) 0.0215(10) 0.0221(10) 0.0108(8) 0.0048(8) 0.0105(8)
C2 0.0328(12) 0.0262(11) 0.0243(10) 0.0101(9) 0.0051(9) 0.0166(10)
C3 0.0448(14) 0.0341(13) 0.0282(11) 0.0141(10) 0.0019(10) 0.0180(11)
C4 0.0702(19) 0.0536(17) 0.0279(12) 0.0182(12) 0.0150(13) 0.0373(15)
C5 0.0377(13) 0.0386(13) 0.0216(10) 0.0114(10) 0.0085(10) 0.0215(11)
C6 0.0212(10) 0.0225(10) 0.0232(10) 0.0116(8) 0.0046(8) 0.0122(9)
N1 0.0207(8) 0.0179(8) 0.0184(8) 0.0067(7) 0.0041(7) 0.0102(7)
O1 0.0721(13) 0.0488(11) 0.0309(9) 0.0086(8) 0.0070(8) 0.0461(10)
Cl1 0.0224(3) 0.0228(3) 0.0263(3) 0.00834(19) 0.00537(19) 0.0090(2)
loop_
_atom_type_symbol
_atom_type_description
_atom_type_scat_dispersion_real
_atom_type_scat_dispersion_imag
_atom_type_scat_source
C C 0.0033 0.0016 'International Tables Vol C Tables 4.2.6.8 and 6.1.1.4'
H H 0.0000 0.0000 'International Tables Vol C Tables 4.2.6.8 and 6.1.1.4'
N N 0.0061 0.0033 'International Tables Vol C Tables 4.2.6.8 and 6.1.1.4'
O O 0.0106 0.0060 'International Tables Vol C Tables 4.2.6.8 and 6.1.1.4'
Cl Cl 0.1484 0.1585 'International Tables Vol C Tables 4.2.6.8 and 6.1.1.4'
loop_
_geom_angle_atom_site_label_1
_geom_angle_atom_site_label_2
_geom_angle_atom_site_label_3
_geom_angle
_geom_angle_site_symmetry_1
_geom_angle_site_symmetry_3
_geom_angle_publ_flag
N1 C1 C2 111.97(15) . . ?
N1 C1 C5 114.14(16) . . ?
C2 C1 C5 104.50(16) . . ?
N1 C1 H1 108.7 . . ?
C2 C1 H1 108.7 . . ?
C5 C1 H1 108.7 . . ?
O1 C2 C1 109.04(17) . . ?
O1 C2 C3 115.89(18) . . ?
C1 C2 C3 103.96(16) . . ?
O1 C2 H2 109.2 . . ?
C1 C2 H2 109.2 . . ?
C3 C2 H2 109.2 . . ?
C2 C3 C4 105.72(18) . . ?
C2 C3 H3A 110.6 . . ?
C4 C3 H3A 110.6 . . ?
C2 C3 H3B 110.6 . . ?
C4 C3 H3B 110.6 . . ?
H3A C3 H3B 108.7 . . ?
C3 C4 C5 106.84(18) . . ?
C3 C4 H4A 110.4 . . ?
C5 C4 H4A 110.4 . . ?
C3 C4 H4B 110.4 . . ?
C5 C4 H4B 110.4 . . ?
H4A C4 H4B 108.6 . . ?
C1 C5 C4 103.10(18) . . ?
C1 C5 H5A 111.1 . . ?
C4 C5 H5A 111.1 . . ?
C1 C5 H5B 111.1 . . ?
C4 C5 H5B 111.1 . . ?
H5A C5 H5B 109.1 . . ?
N1 C6 C6 109.88(18) . 2_666 ?
N1 C6 H6A 109.7 . . ?
C6 C6 H6A 109.7 2_666 . ?
N1 C6 H6B 109.7 . . ?
C6 C6 H6B 109.7 2_666 . ?
H6A C6 H6B 108.2 . . ?
C6 N1 C1 114.55(14) . . ?
C6 N1 H1B 108.6 . . ?
C1 N1 H1B 108.6 . . ?
C6 N1 H1C 108.6 . . ?
C1 N1 H1C 108.6 . . ?
H1B N1 H1C 107.6 . . ?
C2 O1 H1A 109.5 . . ?
loop_
_geom_bond_atom_site_label_1
_geom_bond_atom_site_label_2
_geom_bond_distance
_geom_bond_site_symmetry_2
_geom_bond_publ_flag
C1 N1 1.486(2) . ?
C1 C2 1.507(3) . ?
C1 C5 1.513(3) . ?
C1 H1 1.0000 . ?
C2 O1 1.408(2) . ?
C2 C3 1.523(3) . ?
C2 H2 1.0000 . ?
C3 C4 1.532(3) . ?
C3 H3A 0.9900 . ?
C3 H3B 0.9900 . ?
C4 C5 1.533(3) . ?
C4 H4A 0.9900 . ?
C4 H4B 0.9900 . ?
C5 H5A 0.9900 . ?
C5 H5B 0.9900 . ?
C6 N1 1.481(2) . ?
C6 C6 1.512(4) 2_666 ?
C6 H6A 0.9900 . ?
C6 H6B 0.9900 . ?
N1 H1B 0.9200 . ?
N1 H1C 0.9200 . ?
O1 H1A 0.8400 . ?
loop_
_geom_hbond_atom_site_label_D
_geom_hbond_atom_site_label_H
_geom_hbond_atom_site_label_A
_geom_hbond_distance_DH
_geom_hbond_distance_HA
_geom_hbond_distance_DA
_geom_hbond_angle_DHA
_geom_hbond_site_symmetry_A
N1 H1B Cl1 0.92 2.18 3.0876(17) 167 2_766
N1 H1C O1 0.92 2.78 3.212(3) 110 2_656
N1 H1C Cl1 0.92 2.40 3.2103(15) 147 .
O1 H1A Cl1 0.84 2.32 3.1436(17) 168 2_756
loop_
_geom_torsion_atom_site_label_1
_geom_torsion_atom_site_label_2
_geom_torsion_atom_site_label_3
_geom_torsion_atom_site_label_4
_geom_torsion
_geom_torsion_site_symmetry_1
_geom_torsion_site_symmetry_2
_geom_torsion_site_symmetry_3
_geom_torsion_site_symmetry_4
_geom_torsion_publ_flag
N1 C1 C2 O1 -72.6(2) . . . . ?
C5 C1 C2 O1 163.41(17) . . . . ?
N1 C1 C2 C3 163.27(17) . . . . ?
C5 C1 C2 C3 39.2(2) . . . . ?
O1 C2 C3 C4 -144.3(2) . . . . ?
C1 C2 C3 C4 -24.7(2) . . . . ?
C2 C3 C4 C5 1.5(3) . . . . ?
N1 C1 C5 C4 -160.52(19) . . . . ?
C2 C1 C5 C4 -37.9(2) . . . . ?
C3 C4 C5 C1 22.2(3) . . . . ?
C6 C6 N1 C1 -170.5(2) 2_666 . . . ?
C2 C1 N1 C6 -177.30(16) . . . . ?
C5 C1 N1 C6 -58.8(2) . . . . ?
