#------------------------------------------------------------------------------
#$Date: 2016-03-23 03:32:24 +0200 (Wed, 23 Mar 2016) $
#$Revision: 179250 $
#$URL: svn://www.crystallography.net/cod/cif/4/31/70/4317035.cif $
#------------------------------------------------------------------------------
#
# This file is available in the Crystallography Open Database (COD),
# http://www.crystallography.net/
#
# All data on this site have been placed in the public domain by the
# contributors.
#
data_4317035
loop_
_publ_author_name
'Jiong-Peng Zhao'
'Bo-Wen Hu'
'Francesc Lloret'
'Jun Tao'
'Qian Yang'
'Xiao-Feng Zhang'
'Xian-He Bu'
_publ_section_title
;
 Magnetic Behavior Control in Niccolite Structural Metal Formate
 Frameworks [NH2(CH3)2][FeIIIMII(HCOO)6] (M = Fe, Mn, and Co) by Varying
 the Divalent Metal Ions
;
_journal_name_full               'Inorganic Chemistry'
_journal_page_first              10390
_journal_page_last               10399
_journal_paper_doi               10.1021/ic1014863
_journal_volume                  49
_journal_year                    2010
_chemical_formula_sum            'C8 H14 Fe Mn N O12'
_chemical_formula_weight         426.99
_chemical_name_systematic
; 
 ? 
;
_space_group_IT_number           163
_symmetry_cell_setting           trigonal
_symmetry_space_group_name_Hall  '-P 3 2c'
_symmetry_space_group_name_H-M   'P -3 1 c'
_atom_sites_solution_hydrogens   geom
_atom_sites_solution_primary     direct
_atom_sites_solution_secondary   difmap
_audit_creation_method           SHELXL-97
_cell_angle_alpha                90.00
_cell_angle_beta                 90.00
_cell_angle_gamma                120.00
_cell_formula_units_Z            2
_cell_length_a                   8.3151(12)
_cell_length_b                   8.3151(12)
_cell_length_c                   14.001(3)
_cell_measurement_reflns_used    7745
_cell_measurement_temperature    293(2)
_cell_measurement_theta_max      27.5
_cell_measurement_theta_min      3.2
_cell_volume                     838.3(2)
_computing_cell_refinement       'Bruker XSCANS'
_computing_data_collection       'Bruker XSCANS'
_computing_data_reduction        'Bruker SHELXTL'
_computing_molecular_graphics    'Bruker SHELXTL'
_computing_publication_material  'Bruker SHELXTL'
_computing_structure_refinement  'SHELXL-97 (Sheldrick, 1997)'
_computing_structure_solution    'SHELXS-97 (Sheldrick, 1990)'
_diffrn_ambient_temperature      293(2)
_diffrn_measured_fraction_theta_full 0.997
_diffrn_measured_fraction_theta_max 0.997
_diffrn_measurement_device_type  'Bruker P4'
_diffrn_measurement_method       '\w scans'
_diffrn_radiation_monochromator  graphite
_diffrn_radiation_source         'fine-focus sealed tube'
_diffrn_radiation_type           MoK\a
_diffrn_radiation_wavelength     0.71073
_diffrn_reflns_av_R_equivalents  0.0435
_diffrn_reflns_av_sigmaI/netI    0.0164
_diffrn_reflns_limit_h_max       10
_diffrn_reflns_limit_h_min       -10
_diffrn_reflns_limit_k_max       10
_diffrn_reflns_limit_k_min       -10
_diffrn_reflns_limit_l_max       18
_diffrn_reflns_limit_l_min       -18
_diffrn_reflns_number            8378
_diffrn_reflns_theta_full        27.48
_diffrn_reflns_theta_max         27.48
_diffrn_reflns_theta_min         3.18
_diffrn_standards_decay_%        0
_diffrn_standards_interval_count 0
_diffrn_standards_interval_time  0
_diffrn_standards_number         0
_exptl_absorpt_coefficient_mu    1.675
_exptl_absorpt_correction_type   none
_exptl_crystal_colour            dark
_exptl_crystal_density_diffrn    1.692
_exptl_crystal_density_method    'not measured'
_exptl_crystal_description       block
_exptl_crystal_F_000             432
_exptl_crystal_size_max          0.5
_exptl_crystal_size_mid          0.45
_exptl_crystal_size_min          0.4
_refine_diff_density_max         0.309
_refine_diff_density_min         -0.596
_refine_diff_density_rms         0.062
_refine_ls_extinction_method     none
_refine_ls_goodness_of_fit_ref   1.276
_refine_ls_hydrogen_treatment    mixed
_refine_ls_matrix_type           full
_refine_ls_number_parameters     52
_refine_ls_number_reflns         647
_refine_ls_number_restraints     0
_refine_ls_restrained_S_all      1.276
_refine_ls_R_factor_all          0.0395
_refine_ls_R_factor_gt           0.0342
_refine_ls_shift/su_max          0.000
_refine_ls_shift/su_mean         0.000
_refine_ls_structure_factor_coef Fsqd
_refine_ls_weighting_details
'calc w=1/[\s^2^(Fo^2^)+(0.0268P)^2^+0.5469P] where P=(Fo^2^+2Fc^2^)/3'
_refine_ls_weighting_scheme      calc
_refine_ls_wR_factor_gt          0.0687
_refine_ls_wR_factor_ref         0.0703
_reflns_number_gt                596
_reflns_number_total             647
_reflns_threshold_expression     >2sigma(I)
_cod_data_source_file            ic1014863_si_002_3.cif
_cod_data_source_block           2
_cod_depositor_comments
;
The following automatic conversions were performed:

'_symmetry_cell_setting' value 'Trigonal' changed to 'trigonal'
according to the built-in table from CIF Core dictionary named
'cif_core.dic' version 2.4.1 from 2010-06-29.

Automatic conversion script
Id: cif_fix_values 1646 2011-03-28 12:23:43Z adriana 
;
_cod_database_code               4317035
loop_
_symmetry_equiv_pos_as_xyz
'x, y, z'
'-y, x-y, z'
'-x+y, -x, z'
'-y, -x, -z+1/2'
'-x+y, y, -z+1/2'
'x, x-y, -z+1/2'
'-x, -y, -z'
'y, -x+y, -z'
'x-y, x, -z'
'y, x, z-1/2'
'x-y, -y, z-1/2'
'-x, -x+y, z-1/2'
loop_
_atom_site_label
_atom_site_type_symbol
_atom_site_fract_x
_atom_site_fract_y
_atom_site_fract_z
_atom_site_U_iso_or_equiv
_atom_site_adp_type
_atom_site_occupancy
_atom_site_symmetry_multiplicity
_atom_site_calc_flag
_atom_site_refinement_flags
_atom_site_disorder_assembly
_atom_site_disorder_group
Mn1 Mn 0.3333 0.6667 0.2500 0.0178(2) Uani 1 6 d S . .
Fe2 Fe 0.0000 1.0000 0.0000 0.0157(2) Uani 1 6 d S . .
O1 O 0.1122(2) 0.6602(2) 0.16582(12) 0.0401(5) Uani 1 1 d . . .
O2 O -0.0120(2) 0.7949(2) 0.08130(12) 0.0295(4) Uani 1 1 d . . .
C1 C 0.1223(4) 0.7888(4) 0.11776(17) 0.0331(5) Uani 1 1 d . . .
C2 C 0.3333 0.6667 0.844(3) 0.254(15) Uani 1 3 d S . .
N1 N 0.2839(16) 0.568(3) 0.7500 0.20(3) Uani 0.33 2 d SP . .
H1 H 0.240(6) 0.898(6) 0.107(2) 0.080(12) Uiso 1 1 d . . .
H3 H 0.268(19) 0.525(18) 0.718(7) 0.04(4) Uiso 0.33 1 d P . .
H2 H 0.25(3) 0.72(3) 0.872(9) 0.42(8) Uiso 1 1 d . . .
loop_
_atom_site_aniso_label
_atom_site_aniso_U_11
_atom_site_aniso_U_22
_atom_site_aniso_U_33
_atom_site_aniso_U_23
_atom_site_aniso_U_13
_atom_site_aniso_U_12
Mn1 0.0164(3) 0.0164(3) 0.0204(4) 0.000 0.000 0.00822(13)
Fe2 0.0148(2) 0.0148(2) 0.0177(3) 0.000 0.000 0.00738(12)
O1 0.0343(10) 0.0330(9) 0.0522(10) 0.0139(9) -0.0104(8) 0.0163(8)
O2 0.0258(8) 0.0267(8) 0.0362(8) 0.0088(7) -0.0028(7) 0.0134(7)
C1 0.0280(13) 0.0293(13) 0.0413(13) 0.0101(10) -0.0025(10) 0.0139(10)
C2 0.068(5) 0.068(5) 0.63(5) 0.000 0.000 0.034(2)
N1 0.053(10) 0.021(11) 0.50(8) 0.000 0.11(2) 0.010(5)
loop_
_atom_type_symbol
_atom_type_description
_atom_type_scat_dispersion_real
_atom_type_scat_dispersion_imag
_atom_type_scat_source
C C 0.0033 0.0016 'International Tables Vol C Tables 4.2.6.8 and 6.1.1.4'
H H 0.0000 0.0000 'International Tables Vol C Tables 4.2.6.8 and 6.1.1.4'
N N 0.0061 0.0033 'International Tables Vol C Tables 4.2.6.8 and 6.1.1.4'
O O 0.0106 0.0060 'International Tables Vol C Tables 4.2.6.8 and 6.1.1.4'
Mn Mn 0.3368 0.7283 'International Tables Vol C Tables 4.2.6.8 and 6.1.1.4'
Fe Fe 0.3463 0.8444 'International Tables Vol C Tables 4.2.6.8 and 6.1.1.4'
loop_
_geom_angle_atom_site_label_1
_geom_angle_atom_site_label_2
_geom_angle_atom_site_label_3
_geom_angle
_geom_angle_site_symmetry_1
_geom_angle_site_symmetry_3
_geom_angle_publ_flag
O1 Mn1 O1 88.71(10) . 4_665 ?
O1 Mn1 O1 93.11(7) . 3_565 ?
O1 Mn1 O1 85.12(9) 4_665 3_565 ?
O1 Mn1 O1 85.12(9) . 6_565 ?
O1 Mn1 O1 93.11(7) 4_665 6_565 ?
O1 Mn1 O1 177.53(10) 3_565 6_565 ?
O1 Mn1 O1 177.53(10) . 5 ?
O1 Mn1 O1 93.11(7) 4_665 5 ?
O1 Mn1 O1 88.71(10) 3_565 5 ?
O1 Mn1 O1 93.11(7) 6_565 5 ?
O1 Mn1 O1 93.11(7) . 2_665 ?
O1 Mn1 O1 177.53(10) 4_665 2_665 ?
O1 Mn1 O1 93.11(7) 3_565 2_665 ?
O1 Mn1 O1 88.71(10) 6_565 2_665 ?
O1 Mn1 O1 85.12(9) 5 2_665 ?
O2 Fe2 O2 180.0 2_675 8_455 ?
O2 Fe2 O2 88.89(7) 2_675 9_665 ?
O2 Fe2 O2 91.11(7) 8_455 9_665 ?
O2 Fe2 O2 91.11(7) 2_675 3_465 ?
O2 Fe2 O2 88.89(7) 8_455 3_465 ?
O2 Fe2 O2 180.0 9_665 3_465 ?
O2 Fe2 O2 91.11(7) 2_675 . ?
O2 Fe2 O2 88.89(7) 8_455 . ?
O2 Fe2 O2 88.89(7) 9_665 . ?
O2 Fe2 O2 91.11(7) 3_465 . ?
O2 Fe2 O2 88.89(7) 2_675 7_575 ?
O2 Fe2 O2 91.11(7) 8_455 7_575 ?
O2 Fe2 O2 91.11(7) 9_665 7_575 ?
O2 Fe2 O2 88.89(7) 3_465 7_575 ?
O2 Fe2 O2 180.00(9) . 7_575 ?
C1 O1 Mn1 126.08(17) . . ?
C1 O2 Fe2 126.73(15) . . ?
O1 C1 O2 125.7(2) . . ?
N1 C2 N1 49(2) 3_565 . ?
N1 C2 N1 49(2) 3_565 2_665 ?
N1 C2 N1 49(2) . 2_665 ?
N1 N1 N1 60.0 2_665 3_565 ?
N1 N1 C2 65.6(10) 2_665 . ?
N1 N1 C2 65.6(10) 3_565 . ?
N1 N1 C2 65.6(10) 2_665 4_666 ?
N1 N1 C2 65.6(10) 3_565 4_666 ?
C2 N1 C2 123(2) . 4_666 ?
loop_
_geom_bond_atom_site_label_1
_geom_bond_atom_site_label_2
_geom_bond_distance
_geom_bond_site_symmetry_2
_geom_bond_publ_flag
Mn1 O1 2.1621(16) . ?
Mn1 O1 2.1621(16) 4_665 ?
Mn1 O1 2.1621(16) 3_565 ?
Mn1 O1 2.1621(16) 6_565 ?
Mn1 O1 2.1621(16) 5 ?
Mn1 O1 2.1621(16) 2_665 ?
Fe2 O2 2.0110(15) 2_675 ?
Fe2 O2 2.0110(15) 8_455 ?
Fe2 O2 2.0110(15) 9_665 ?
Fe2 O2 2.0110(15) 3_465 ?
Fe2 O2 2.0110(15) . ?
Fe2 O2 2.0110(15) 7_575 ?
O1 C1 1.230(3) . ?
O2 C1 1.252(3) . ?
C2 N1 1.49(3) 3_565 ?
C2 N1 1.49(3) . ?
C2 N1 1.49(3) 2_665 ?
N1 N1 1.23(4) 2_665 ?
N1 N1 1.23(4) 3_565 ?
N1 C2 1.49(3) 4_666 ?
