#------------------------------------------------------------------------------
#$Date: 2016-02-16 22:30:59 +0200 (Tue, 16 Feb 2016) $
#$Revision: 176467 $
#$URL: svn://www.crystallography.net/cod/cif/4/32/07/4320706.cif $
#------------------------------------------------------------------------------
#
# This file is available in the Crystallography Open Database (COD),
# http://www.crystallography.net/
#
# All data on this site have been placed in the public domain by the
# contributors.
#
data_4320706
loop_
_publ_author_name
'Martine Bujoli-Doeuff'
'Michel Evain'
'Pascal Janvier'
'Dominique Massiot'
'Abraham Clearfield'
'Zhehong Gan'
'Bruno Bujoli'
_publ_section_title
;
 New Pillared Layered Gallium Phosphonates in the
 Gallium/1,2-Ethylenediphosphonic Acid System
;
_journal_name_full               'Inorganic Chemistry'
_journal_page_first              6694
_journal_page_last               6698
_journal_paper_doi               10.1021/ic010588q
_journal_volume                  40
_journal_year                    2001
_chemical_formula_sum            'C3 H6 Ga2 O9 P3'
_chemical_formula_weight         418.4
_space_group_IT_number           2
_symmetry_cell_setting           triclinic
_symmetry_space_group_name_Hall  '-P 1'
_symmetry_space_group_name_H-M   'P -1'
_cell_angle_alpha                91.341(11)
_cell_angle_beta                 101.400(10)
_cell_angle_gamma                90.857(10)
_cell_formula_units_Z            2
_cell_length_a                   5.1480(4)
_cell_length_b                   8.0354(7)
_cell_length_c                   12.3827(11)
_cell_volume                     501.88(8)
_diffrn_measurement_device       'imaging plate system'
_diffrn_measurement_device_type  'IPDS Stoe'
_diffrn_measurement_method       '??integration method??'
_diffrn_radiation_probe          x-ray
_diffrn_radiation_type           'Mo K\a'
_diffrn_radiation_wavelength     0.71069
_diffrn_reflns_av_R_equivalents  0.0418
_diffrn_reflns_av_sigmaI/netI    0.0300
_diffrn_reflns_limit_h_max       6
_diffrn_reflns_limit_h_min       -6
_diffrn_reflns_limit_k_max       10
_diffrn_reflns_limit_k_min       -10
_diffrn_reflns_limit_l_max       16
_diffrn_reflns_limit_l_min       -16
_diffrn_reflns_number            8253
_diffrn_reflns_theta_max         27.94
_diffrn_reflns_theta_min         2.54
_exptl_absorpt_coefficient_mu    5.8822
_exptl_absorpt_correction_T_max  0.5511
_exptl_absorpt_correction_T_min  0.3487
_exptl_absorpt_correction_type   gaussian
_exptl_crystal_density_diffrn    2.768
_exptl_crystal_F_000             406
_refine_diff_density_max         0.66
_refine_diff_density_min         -0.52
_refine_ls_extinction_method     none
_refine_ls_goodness_of_fit_obs   0.98
_refine_ls_goodness_of_fit_ref   1.06
_refine_ls_number_parameters     155
_refine_ls_number_reflns         2190
_refine_ls_R_factor_all          0.0352
_refine_ls_R_factor_gt           0.0240
_refine_ls_shift/su_max          0.0007
_refine_ls_shift/su_mean         0.0000
_refine_ls_structure_factor_coef Fsqd
_refine_ls_weighting_details     w=1/(\s^2^(I)+0.001024I^2^)
_refine_ls_weighting_scheme      sigma
_refine_ls_wR_factor_gt          0.0513
_refine_ls_wR_factor_ref         0.0530
_reflns_limit_h_max              6
_reflns_limit_h_min              -6
_reflns_limit_k_max              10
_reflns_limit_k_min              -10
_reflns_limit_l_max              16
_reflns_limit_l_min              0
_reflns_number_observed          1770
_reflns_number_total             2190
_reflns_observed_criterion       2
_cod_data_source_file            ic010588q.cif
_cod_data_source_block           Ga2P3O9C3H6
_cod_depositor_comments
;
The following automatic conversions were performed:

'_diffrn_radiation_probe' value 'X-ray' changed to 'x-ray' according
to the built-in table from CIF Core dictionary named 'cif_core.dic'
version 2.4.1 from 2010-06-29.

Automatic conversion script
Id: cif_fix_values 1646 2011-03-28 12:23:43Z adriana 
;
_cod_original_cell_volume        501.88(7)
_cod_original_formula_sum        'Ga2 P3 O9 C3 H6'
_cod_database_code               4320706
loop_
_symmetry_equiv_pos_site_id
_symmetry_equiv_pos_as_xyz
1 x,y,z
2 -x,-y,-z
loop_
_atom_site_label
_atom_site_type_symbol
_atom_site_adp_type
_atom_site_fract_x
_atom_site_fract_y
_atom_site_fract_z
_atom_site_U_iso_or_equiv
_atom_site_symmetry_multiplicity
_atom_site_occupancy
Ga1 Ga Uani 0.04034(6) 0.55789(3) 0.81078(2) 0.00586(10) 2 1
Ga2 Ga Uani 0.49701(7) 0.88497(3) 0.26073(2) 0.00713(10) 2 1
P1 P Uani 0.50026(15) 0.73148(8) 0.71883(6) 0.0056(2) 2 1
P2 P Uani 0.06260(16) 0.74151(9) 0.37395(6) 0.0066(2) 2 1
P3 P Uani 0.13050(17) 0.74926(9) 0.05157(6) 0.0075(2) 2 1
O1 O Uani 0.3484(4) 0.5880(2) 0.75657(18) 0.0116(6) 2 1
O2 O Uani -0.1246(4) 0.4260(2) 0.67143(18) 0.0128(7) 2 1
O3 O Uani -0.2045(4) 0.7224(2) 0.76479(18) 0.0106(6) 2 1
O4 O Uani 0.1821(5) 0.6826(2) 0.94358(18) 0.0168(7) 2 1
O5 O Uani 0.0237(5) 0.3664(2) 0.8880(2) 0.0167(7) 2 1
O6 O Uani 0.2234(4) 0.8853(2) 0.33597(18) 0.0127(7) 2 1
O7 O Uani 0.7679(4) 0.7816(2) 0.34764(18) 0.0135(7) 2 1
O8 O Uani 0.6033(4) 1.0998(2) 0.24820(18) 0.0103(6) 2 1
O9 O Uani 0.4046(4) 0.7955(2) 0.12373(18) 0.0147(7) 2 1
C1 C Uani 0.4394(6) 0.7233(4) 0.5710(2) 0.0122(9) 2 1
C2 C Uani 0.1442(6) 0.7434(3) 0.5216(2) 0.0101(9) 2 1
C3 C Uani -0.0610(6) 0.9336(3) 0.0318(2) 0.0130(9) 2 1
H1c1 H Uiso 0.532921 0.815599 0.540477 0.029(4) 2 1
H2c1 H Uiso 0.488354 0.61403 0.541284 0.029(4) 2 1
H1c2 H Uiso 0.097515 0.851009 0.554085 0.029(4) 2 1
H2c2 H Uiso 0.054444 0.649117 0.552013 0.029(4) 2 1
H1c3 H Uiso -0.074562 0.989276 0.103466 0.029(4) 2 1
H2c3 H Uiso -0.242703 0.910373 -0.012623 0.029(4) 2 1
loop_
_atom_site_aniso_label
_atom_site_aniso_type_symbol
_atom_site_aniso_U_11
_atom_site_aniso_U_22
_atom_site_aniso_U_33
_atom_site_aniso_U_12
_atom_site_aniso_U_13
_atom_site_aniso_U_23
Ga1 Ga 0.00597(19) 0.00542(14) 0.00600(15) 0.00020(12) 0.00072(12) 0.00039(11)
Ga2 Ga 0.00613(19) 0.00731(15) 0.00714(16) 0.00025(13) -0.00056(12)
-0.00072(11)
P1 P 0.0048(4) 0.0058(3) 0.0060(3) 0.0003(3) 0.0005(2) -0.0007(2)
P2 P 0.0055(4) 0.0076(3) 0.0061(3) 0.0006(3) -0.0003(2) -0.0008(2)
P3 P 0.0103(4) 0.0053(3) 0.0058(3) -0.0006(3) -0.0008(2) 0.0000(2)
O1 O 0.0108(12) 0.0088(9) 0.0178(11) 0.0005(9) 0.0087(9) 0.0005(8)
O2 O 0.0132(13) 0.0098(9) 0.0135(11) 0.0012(9) -0.0016(9) -0.0052(8)
O3 O 0.0051(12) 0.0086(9) 0.0157(11) 0.0009(9) -0.0035(8) -0.0017(8)
O4 O 0.0207(14) 0.0169(11) 0.0108(11) 0.0008(10) -0.0011(9) -0.0064(8)
O5 O 0.0185(14) 0.0122(10) 0.0193(12) -0.0006(10) 0.0029(10) 0.0077(8)
O6 O 0.0105(12) 0.0111(9) 0.0179(11) 0.0008(9) 0.0059(9) 0.0001(8)
O7 O 0.0067(12) 0.0185(11) 0.0142(11) 0.0022(9) -0.0013(9) 0.0046(8)
O8 O 0.0096(12) 0.0079(9) 0.0145(11) 0.0025(9) 0.0049(8) -0.0008(8)
O9 O 0.0111(12) 0.0193(11) 0.0121(11) -0.0011(10) -0.0008(9) -0.0068(8)
C1 C 0.0095(17) 0.0185(15) 0.0074(14) 0.0024(13) -0.0015(11) -0.0001(11)
C2 C 0.0096(17) 0.0143(13) 0.0057(13) 0.0017(12) 0.0003(11) -0.0028(10)
C3 C 0.0126(18) 0.0097(13) 0.0185(16) 0.0030(13) 0.0065(13) 0.0063(12)
loop_
_atom_type_symbol
_atom_type_oxidation_number
_atom_type_scat_dispersion_real
_atom_type_scat_dispersion_imag
_atom_type_scat_source
_atom_type_scat_versus_stol_list
Ga 0 0.231 1.608 'International Tables Vol C Tables  4.2.6.8 and 6.1.1.1'
;
stol      0.00    0.05    0.10    0.15    0.20    0.25    0.30    0.35    0.40
  f      31.000  30.308  28.675  26.783  24.935  23.174  21.481  19.847  18.278
stol      0.45    0.50    0.55    0.60    0.65    0.70    0.75    0.80    0.85
  f      16.794  15.410  14.142  12.996  11.974  11.073  10.286   9.604   9.016
stol      0.90    0.95    1.00    1.05    1.10    1.15    1.20    1.25    1.30
  f       8.510   8.076   7.702   7.380   7.099   6.853   6.633   6.436   6.254
stol      1.35    1.40    1.45    1.50    1.55    1.60    1.65    1.70    1.75
  f       6.085   5.926   5.774   5.627   5.483   4.792   4.657   4.523   4.391
;
P 0 0.102 0.094 'International Tables Vol C Tables  4.2.6.8 and 6.1.1.1'
;
stol      0.00    0.05    0.10    0.15    0.20    0.25    0.30    0.35    0.40
  f      15.000  14.458  13.138  11.629  10.327   9.335   8.600   8.029   7.547
stol      0.45    0.50    0.55    0.60    0.65    0.70    0.75    0.80    0.85
  f       7.103   6.674   6.250   5.829   5.418   5.020   4.640   4.284   3.953
stol      0.90    0.95    1.00    1.05    1.10    1.15    1.20    1.25    1.30
  f       3.649   3.372   3.122   2.898   2.698   2.521   2.364   2.226   2.104
stol      1.35    1.40    1.45    1.50    1.55    1.60    1.65    1.70    1.75
  f       1.997   1.903   1.820   1.747   1.683   1.453   1.420   1.389   1.360
;
O 0 0.011 0.006 'International Tables Vol C Tables  4.2.6.8 and 6.1.1.1'
;
stol      0.00    0.05    0.10    0.15    0.20    0.25    0.30    0.35    0.40
  f       8.000   7.798   7.245   6.472   5.623   4.808   4.089   3.489   3.006
stol      0.45    0.50    0.55    0.60    0.65    0.70    0.75    0.80    0.85
  f       2.629   2.338   2.115   1.946   1.816   1.714   1.635   1.568   1.512
stol      0.90    0.95    1.00    1.05    1.10    1.15    1.20    1.25    1.30
  f       1.463   1.419   1.377   1.337   1.298   1.259   1.221   1.183   1.145
stol      1.35    1.40    1.45    1.50    1.55    1.60    1.65    1.70    1.75
  f       1.107   1.070   1.033   0.997   0.961   0.792   0.761   0.731   0.702
;
C 0 0.003 0.002 'International Tables Vol C Tables  4.2.6.8 and 6.1.1.1'
;
stol      0.00    0.05    0.10    0.15    0.20    0.25    0.30    0.35    0.40
  f       6.000   5.749   5.107   4.311   3.560   2.949   2.494   2.171   1.948
stol      0.45    0.50    0.55    0.60    0.65    0.70    0.75    0.80    0.85
  f       1.794   1.685   1.603   1.537   1.479   1.426   1.374   1.322   1.271
stol      0.90    0.95    1.00    1.05    1.10    1.15    1.20    1.25    1.30
  f       1.219   1.166   1.114   1.063   1.012   0.962   0.914   0.867   0.822
stol      1.35    1.40    1.45    1.50    1.55    1.60    1.65    1.70    1.75
  f       0.778   0.736   0.697   0.659   0.622   0.468   0.442   0.418   0.395
;
H 0 0.000 0.000 'International Tables Vol C Tables  4.2.6.8 and 6.1.1.1'
;
stol      0.00    0.05    0.10    0.15    0.20    0.25    0.30    0.35    0.40
  f       1.000   0.960   0.854   0.713   0.568   0.438   0.331   0.248   0.184
stol      0.45    0.50    0.55    0.60    0.65    0.70    0.75    0.80    0.85
  f       0.138   0.103   0.078   0.060   0.046   0.036   0.028   0.022   0.018
stol      0.90    0.95    1.00    1.05    1.10    1.15    1.20    1.25    1.30
  f       0.014   0.011   0.009   0.007   0.006   0.005   0.004   0.004   0.003
stol      1.35    1.40    1.45    1.50    1.55    1.60    1.65    1.70    1.75
  f       0.003   0.002   0.002   0.002   0.002   0.002   0.001   0.001   0.000
;
loop_
_geom_angle_atom_site_label_1
_geom_angle_atom_site_label_2
_geom_angle_atom_site_label_3
_geom_angle
_geom_angle_site_symmetry_1
_geom_angle_site_symmetry_2
_geom_angle_site_symmetry_3
O1 Ga1 O2 89.92(10) . . .
O1 Ga1 O3 111.93(10) . . .
O1 Ga1 O4 92.31(11) . . .
O1 Ga1 O5 115.20(11) . . .
O2 Ga1 O3 87.54(9) . . .
O2 Ga1 O4 177.72(11) . . .
O2 Ga1 O5 88.07(9) . . .
O3 Ga1 O4 91.17(10) . . .
O3 Ga1 O5 132.64(11) . . .
O4 Ga1 O5 91.43(10) . . .
O6 Ga2 O7 106.09(11) . . .
O6 Ga2 O8 108.39(10) . . .
O6 Ga2 O9 113.11(11) . . .
O7 Ga2 O8 107.40(10) . . .
O7 Ga2 O9 114.10(11) . . .
O8 Ga2 O9 107.50(10) . . .
O1 P1 O3 111.63(13) . . 1_655
O1 P1 O8 111.09(14) . . 2_676
O1 P1 C1 108.06(14) . . .
O3 P1 O8 109.73(12) 1_655 . 2_676
O3 P1 C1 109.94(15) 1_655 . .
O8 P1 C1 106.23(14) 2_676 . .
O2 P2 O6 112.51(14) 2_566 . .
O2 P2 O7 113.53(13) 2_566 . 1_455
O2 P2 C2 109.80(14) 2_566 . .
O6 P2 O7 109.35(13) . . 1_455
O6 P2 C2 107.01(14) . . .
O7 P2 C2 104.11(15) 1_455 . .
O4 P3 O5 115.64(14) 1_554 . 2_566
O4 P3 O9 106.50(15) 1_554 . .
O4 P3 C3 110.62(15) 1_554 . .
O5 P3 O9 110.64(13) 2_566 . .
O5 P3 C3 104.92(16) 2_566 . .
O9 P3 C3 108.39(14) . . .
Ga1 O1 P1 137.43(15) . . .
Ga1 O2 P2 132.19(14) . . 2_566
Ga1 O3 P1 137.28(13) . . 1_455
Ga1 O4 P3 145.88(18) . . 1_556
Ga1 O5 P3 149.51(18) . . 2_566
Ga2 O6 P2 131.61(14) . . .
Ga2 O7 P2 148.63(17) . . 1_655
Ga2 O8 P1 133.06(16) . . 2_676
Ga2 O9 P3 131.61(17) . . .
P1 C1 C2 111.3(2) . . .
P1 C1 H1c1 112.2(2) . . .
P1 C1 H2c1 112.2(2) . . .
P1 C1 H1c2 94.15(16) . . .
P1 C1 H2c2 95.15(16) . . .
C2 C1 H1c1 105.5(2) . . .
C2 C1 H2c1 105.6(2) . . .
C2 C1 H1c2 28.45(13) . . .
C2 C1 H2c2 28.56(14) . . .
H1c1 C1 H2c1 109.6(3) . . .
H1c1 C1 H1c2 92.7(2) . . .
H1c1 C1 H2c2 134.0(2) . . .
H2c1 C1 H1c2 134.0(2) . . .
H2c1 C1 H2c2 91.6(2) . . .
H1c2 C1 H2c2 47.48(8) . . .
P2 C2 C1 115.0(2) . . .
P2 C2 H1c1 97.93(16) . . .
P2 C2 H2c1 98.86(16) . . .
P2 C2 H1c2 111.6(2) . . .
P2 C2 H2c2 111.4(2) . . .
C1 C2 H1c1 28.13(14) . . .
C1 C2 H2c1 28.10(13) . . .
C1 C2 H1c2 104.4(2) . . .
C1 C2 H2c2 104.3(2) . . .
H1c1 C2 H2c1 47.12(8) . . .
H1c1 C2 H1c2 91.9(2) . . .
H1c1 C2 H2c2 132.4(2) . . .
H2c1 C2 H1c2 132.5(2) . . .
H2c1 C2 H2c2 90.6(2) . . .
H1c2 C2 H2c2 109.6(3) . . .
P3 C3 C3 112.9(2) . . 2_575
P3 C3 H1c3 111.8(2) . . .
P3 C3 H1c3 96.35(17) . . 2_575
P3 C3 H2c3 111.9(2) . . .
P3 C3 H2c3 96.34(16) . . 2_575
C3 C3 H1c3 105.2(2) 2_575 . .
C3 C3 H1c3 28.20(14) 2_575 . 2_575
C3 C3 H2c3 105.2(2) 2_575 . .
C3 C3 H2c3 28.16(13) 2_575 . 2_575
H1c3 C3 H1c3 133.4(2) . . 2_575
H1c3 C3 H2c3 109.5(3) . . .
H1c3 C3 H2c3 91.9(2) . . 2_575
H1c3 C3 H1c3 133.4(2) 2_575 . .
H1c3 C3 H2c3 92.0(2) 2_575 . .
H1c3 C3 H2c3 47.11(8) 2_575 . 2_575
H2c3 C3 H2c3 133.4(2) . . 2_575
H2c3 C3 H2c3 133.4(2) 2_575 . .
C1 H1c1 C2 46.4(2) . . .
C1 H1c1 H2c1 35.2(2) . . .
C2 H1c1 H2c1 66.49(9) . . .
C1 H2c1 C2 46.3(2) . . .
C1 H2c1 H1c1 35.2(2) . . .
C1 H2c1 H2c1 168.07(18) . . 2_666
C2 H2c1 H1c1 66.39(9) . . .
C2 H2c1 H2c1 121.83(8) . . 2_666
H1c1 H2c1 H2c1 146.2129 . . 2_666
C1 H1c2 C2 47.1(2) . . .
C1 H1c2 H2c2 66.26(9) . . .
C2 H1c2 H2c2 35.3(2) . . .
C1 H2c2 C2 47.2(2) . . .
C1 H2c2 H1c2 66.26(9) . . .
C2 H2c2 H1c2 35.13(19) . . .
C3 H1c3 C3 46.6(2) . . 2_575
C3 H1c3 H2c3 35.2(2) . . .
C3 H1c3 C3 46.6(2) 2_575 . .
C3 H1c3 H2c3 66.46(9) 2_575 . .
C3 H2c3 C3 46.6(2) . . 2_575
C3 H2c3 H1c3 35.3(2) . . .
C3 H2c3 C3 46.6(2) 2_575 . .
C3 H2c3 H1c3 66.43(9) 2_575 . .
loop_
_geom_bond_atom_site_label_1
_geom_bond_atom_site_label_2
_geom_bond_distance
_geom_bond_site_symmetry_1
_geom_bond_site_symmetry_2
Ga1 O1 1.855(2) . .
Ga1 O2 2.032(2) . .
Ga1 O3 1.860(2) . .
Ga1 O4 1.915(2) . .
Ga1 O5 1.840(2) . .
Ga2 O6 1.836(2) . .
Ga2 O7 1.810(2) . .
Ga2 O8 1.823(2) . .
Ga2 O9 1.799(2) . .
P1 O1 1.517(2) . .
P1 O3 1.517(2) . 1_655
P1 O8 1.539(2) . 2_676
P1 C1 1.795(3) . .
P2 O2 1.509(2) . 2_566
P2 O6 1.547(2) . .
P2 O7 1.528(2) . 1_455
P2 C2 1.793(3) . .
P3 O4 1.502(2) . 1_554
P3 O5 1.517(2) . 2_566
P3 O9 1.548(2) . .
P3 C3 1.786(3) . .
O1 Ga1 1.855(2) . .
O1 P1 1.517(2) . .
O2 Ga1 2.032(2) . .
O2 P2 1.509(2) . 2_566
O3 Ga1 1.860(2) . .
O3 P1 1.517(2) . 1_455
O4 Ga1 1.915(2) . .
O4 P3 1.502(2) . 1_556
O5 Ga1 1.840(2) . .
O5 P3 1.517(2) . 2_566
O6 Ga2 1.836(2) . .
O6 P2 1.547(2) . .
O7 Ga2 1.810(2) . .
O7 P2 1.528(2) . 1_655
O8 Ga2 1.823(2) . .
O8 P1 1.539(2) . 2_676
O9 Ga2 1.799(2) . .
O9 P3 1.548(2) . .
C1 P1 1.795(3) . .
C1 C2 1.534(4) . .
C1 H1c1 0.999(3) . .
C1 H2c1 0.999(3) . .
C1 H1c2 2.028(3) . .
C1 H2c2 2.028(3) . .
C2 P2 1.793(3) . .
C2 C1 1.534(4) . .
C2 H1c1 2.042(3) . .
C2 H2c1 2.043(3) . .
C2 H1c2 0.998(3) . .
C2 H2c2 1.001(3) . .
C3 P3 1.786(3) . .
C3 C3 1.539(4) . 2_575
C3 H1c3 1.000(3) . .
C3 H1c3 2.043(3) . 2_575
C3 H2c3 0.999(3) . .
C3 H2c3 2.043(3) . 2_575
H1c1 C1 0.999(3) . .
H1c1 C2 2.042(3) . .
H1c1 H2c1 1.633 . .
H2c1 C1 0.999(3) . .
H2c1 C2 2.043(3) . .
H2c1 H1c1 1.633 . .
H2c1 H2c1 2.0941 . 2_666
H1c2 C1 2.028(3) . .
H1c2 C2 0.998(3) . .
H1c2 H2c2 1.633 . .
H2c2 C1 2.028(3) . .
H2c2 C2 1.001(3) . .
H2c2 H1c2 1.633 . .
H1c3 C3 1.000(3) . .
H1c3 C3 2.043(3) . 2_575
H1c3 H2c3 1.633 . .
H2c3 C3 0.999(3) . .
H2c3 C3 2.043(3) . 2_575
H2c3 H1c3 1.633 . .
loop_
_refln_index_h
_refln_index_k
_refln_index_l
_refln_F_meas
_refln_F_calc
_refln_F_sigma
1 0 0 75.9 72.6 2.1
2 0 0 303.2 293.2 4.9
3 0 0 118.6 117.7 2.2
4 0 0 126.2 125.4 2.3
5 0 0 66.8 63.5 2.2
6 0 0 62.3 62.9 3.0
-5 1 0 66.2 67.0 3.1
-3 1 0 318.0 305.1 5.2
-2 1 0 93.5 90.2 2.5
0 1 0 53.0 51.8 2.0
1 1 0 118.8 118.8 2.2
2 1 0 40.2 42.5 2.0
4 1 0 59.0 58.5 1.7
5 1 0 45.8 47.2 2.4
-1 2 0 99.0 99.4 2.1
0 2 0 164.4 162.4 2.8
1 2 0 27.2 26.3 2.5
2 2 0 29.3 29.2 2.2
3 2 0 92.9 94.1 1.7
4 2 0 45.5 46.3 1.9
6 2 0 26.5 28.0 5.5
-2 3 0 30.9 32.8 3.8
0 3 0 87.4 86.7 1.8
1 3 0 112.7 106.4 2.0
2 3 0 108.4 109.0 1.9
3 3 0 26.1 24.7 2.6
4 3 0 29.2 29.9 2.5
5 3 0 63.1 64.4 1.8
6 3 0 54.8 55.4 2.6
-1 4 0 173.6 175.5 2.9
1 4 0 107.6 109.6 1.9
2 4 0 87.5 89.3 1.6
3 4 0 72.5 70.4 1.6
4 4 0 150.6 151.6 2.5
5 4 0 34.0 35.9 3.2
6 4 0 93.1 95.6 2.3
-2 5 0 177.7 174.9 3.0
-1 5 0 66.9 67.5 1.6
0 5 0 108.4 109.4 1.9
1 5 0 177.9 179.9 2.9
2 5 0 27.4 26.7 2.3
3 5 0 265.2 267.6 4.3
5 5 0 98.2 100.2 2.0
-3 6 0 99.8 93.9 2.5
-2 6 0 51.4 54.2 1.9
0 6 0 253.6 252.1 4.1
1 6 0 94.6 93.8 1.8
2 6 0 166.7 169.4 2.7
3 6 0 23.9 20.5 3.5
4 6 0 66.3 68.3 1.8
-2 7 0 108.0 107.3 2.1
-1 7 0 61.8 61.8 1.6
0 7 0 138.4 139.3 2.3
1 7 0 21.9 19.8 3.0
2 7 0 72.6 73.9 1.7
3 7 0 54.0 52.5 1.8
4 7 0 59.6 61.4 2.0
-3 8 0 125.1 124.1 2.5
-2 8 0 23.2 24.1 4.0
-1 8 0 100.4 100.5 1.9
0 8 0 65.5 65.9 1.7
1 8 0 97.5 98.0 1.8
2 8 0 39.8 38.8 2.1
3 8 0 115.7 116.3 2.1
4 8 0 40.5 38.3 2.9
0 9 0 94.9 93.6 1.9
2 9 0 110.6 111.4 2.1
-2 10 0 56.7 59.5 2.9
-1 10 0 144.5 147.7 2.5
0 10 0 58.3 55.7 2.3
1 10 0 97.3 99.5 2.0
2 10 0 31.7 26.1 7.4
-1 -10 1 78.9 77.4 2.0
0 -10 1 72.9 71.6 2.0
1 -10 1 57.5 57.9 2.4
2 -10 1 54.7 54.7 4.1
-3 -9 1 36.1 38.8 3.3
-1 -9 1 25.3 27.2 3.8
0 -9 1 21.6 14.5 4.4
2 -9 1 36.2 35.9 3.2
3 -9 1 30.1 27.7 5.6
-4 -8 1 66.1 66.0 2.1
-3 -8 1 55.5 54.7 1.9
-2 -8 1 31.6 29.3 2.7
-1 -8 1 74.6 74.8 1.6
1 -8 1 115.1 116.0 2.1
2 -8 1 61.1 61.5 2.0
3 -8 1 118.3 116.3 2.4
-4 -7 1 46.3 47.4 2.2
-3 -7 1 42.1 42.8 2.0
-2 -7 1 82.1 83.0 1.7
-1 -7 1 72.5 73.8 1.5
0 -7 1 99.9 100.6 1.8
1 -7 1 33.4 34.9 2.3
2 -7 1 65.4 64.3 2.0
-5 -6 1 60.2 57.5 2.2
-3 -6 1 94.7 94.6 1.8
-2 -6 1 67.2 68.8 1.5
-1 -6 1 129.3 130.5 2.2
0 -6 1 34.1 34.2 2.1
1 -6 1 141.6 143.3 2.4
2 -6 1 66.1 66.0 1.8
3 -6 1 94.9 95.8 2.5
-5 -5 1 47.5 44.8 2.2
-4 -5 1 104.0 103.0 1.9
-3 -5 1 35.6 34.0 2.0
-2 -5 1 159.5 161.4 2.6
-1 -5 1 61.4 60.6 1.4
0 -5 1 173.0 174.5 2.8
1 -5 1 24.8 23.9 2.6
2 -5 1 180.0 179.0 3.0
-6 -4 1 23.3 17.5 5.8
-5 -4 1 61.8 61.8 2.0
-4 -4 1 87.8 89.5 1.8
-3 -4 1 117.5 117.8 2.0
-2 -4 1 134.3 134.3 2.3
-1 -4 1 106.8 105.3 1.9
0 -4 1 75.5 76.3 1.6
1 -4 1 115.0 114.0 2.1
2 -4 1 139.8 140.3 2.5
3 -4 1 125.5 123.1 2.8
-5 -3 1 164.0 167.5 2.7
-3 -3 1 233.0 235.0 3.8
-2 -3 1 50.0 50.4 1.5
-1 -3 1 191.9 197.4 3.2
0 -3 1 25.1 19.8 2.7
1 -3 1 279.7 278.1 4.6
2 -3 1 72.3 70.7 2.2
3 -3 1 158.6 155.2 3.7
-6 -2 1 158.8 160.5 2.8
-4 -2 1 161.3 162.2 2.7
-3 -2 1 36.2 36.5 1.8
-2 -2 1 128.9 134.9 2.2
-1 -2 1 48.5 50.4 1.7
0 -2 1 205.1 208.4 3.4
1 -2 1 221.7 211.7 3.7
2 -2 1 22.9 16.4 4.9
3 -2 1 217.1 214.0 3.7
-6 -1 1 41.9 39.7 3.2
-5 -1 1 51.5 52.1 2.3
-3 -1 1 54.2 56.2 1.6
-2 -1 1 19.0 17.3 3.8
-1 -1 1 19.0 19.6 3.2
0 -1 1 102.6 105.2 2.1
1 -1 1 129.8 128.2 2.6
2 -1 1 71.7 76.4 2.4
4 -1 1 79.9 81.5 2.1
6 -1 1 34.2 36.0 8.3
-6 0 1 47.5 47.7 3.6
-5 0 1 22.4 18.9 5.3
-4 0 1 101.6 103.7 2.0
-2 0 1 78.8 72.2 1.9
-1 0 1 109.1 110.5 2.3
1 0 1 114.6 110.4 2.3
2 0 1 20.0 17.1 4.1
3 0 1 86.9 84.7 1.8
4 0 1 42.9 44.3 2.4
5 0 1 70.5 67.7 2.1
6 0 1 73.4 73.5 2.9
-5 1 1 45.1 45.0 4.4
-4 1 1 77.2 76.7 2.4
-2 1 1 31.4 29.5 7.2
1 1 1 33.2 36.2 2.0
3 1 1 122.1 125.2 2.1
4 1 1 121.0 119.4 2.2
5 1 1 156.4 157.4 2.7
6 1 1 89.6 90.7 2.3
-1 2 1 96.5 96.5 2.1
0 2 1 328.2 329.1 5.3
1 2 1 23.5 21.0 3.1
2 2 1 208.3 213.8 3.4
3 2 1 75.7 77.5 1.5
4 2 1 246.0 247.4 4.0
6 2 1 89.4 89.2 2.2
-2 3 1 36.2 35.0 3.5
-1 3 1 125.8 133.4 2.3
0 3 1 26.2 23.6 2.7
1 3 1 234.4 240.3 3.8
2 3 1 60.0 58.5 1.5
3 3 1 226.7 225.1 3.7
4 3 1 104.1 105.8 1.9
5 3 1 65.6 63.9 2.0
6 3 1 92.4 92.9 2.2
-2 4 1 75.3 77.0 1.9
-1 4 1 132.8 132.9 2.3
0 4 1 50.5 57.4 1.6
1 4 1 41.5 43.0 1.7
2 4 1 69.6 69.4 1.5
3 4 1 34.9 32.7 2.1
4 4 1 39.7 37.6 2.3
5 4 1 39.9 42.8 2.8
-2 5 1 134.3 134.0 2.4
-1 5 1 33.0 32.2 2.0
0 5 1 117.9 120.2 2.0
1 5 1 54.8 56.6 1.4
2 5 1 46.3 45.7 1.7
4 5 1 74.2 73.8 1.7
5 5 1 26.4 30.1 4.2
-3 6 1 111.9 108.4 2.5
-2 6 1 19.8 23.2 4.2
-1 6 1 76.3 76.4 1.7
0 6 1 48.8 47.0 1.7
1 6 1 107.1 107.7 1.9
2 6 1 22.5 23.4 2.9
3 6 1 59.9 58.8 1.6
4 6 1 38.5 40.2 2.7
5 6 1 49.5 49.4 2.6
-2 7 1 98.0 98.1 2.0
-1 7 1 24.0 26.6 3.1
0 7 1 132.2 135.3 2.2
1 7 1 20.6 21.4 3.1
2 7 1 104.0 104.6 1.9
3 7 1 86.8 88.6 1.8
-3 8 1 103.0 100.5 2.4
-1 8 1 113.8 115.9 2.1
0 8 1 101.7 101.9 1.9
1 8 1 20.0 15.1 3.8
2 8 1 109.0 108.0 2.0
4 8 1 125.2 128.5 2.4
0 9 1 70.5 69.7 1.8
1 9 1 63.9 63.2 1.9
2 9 1 87.3 89.9 1.9
3 9 1 59.1 59.4 2.3
-1 10 1 132.9 134.2 2.4
0 10 1 26.5 20.7 4.3
1 10 1 96.9 99.1 2.1
-2 -10 2 41.7 35.4 5.6
-1 -10 2 39.3 37.3 2.9
1 -10 2 61.9 61.9 2.2
-3 -9 2 35.0 32.6 3.0
-2 -9 2 73.4 72.9 1.8
0 -9 2 111.8 110.2 2.1
1 -9 2 35.9 31.7 3.1
2 -9 2 78.3 76.2 2.2
-4 -8 2 85.7 90.3 2.0
-3 -8 2 128.1 129.6 2.2
-1 -8 2 181.8 183.6 3.0
0 -8 2 23.5 23.2 3.5
1 -8 2 128.0 129.4 2.2
2 -8 2 70.7 70.4 2.0
3 -8 2 63.3 62.8 2.6
-4 -7 2 108.5 111.7 2.0
-3 -7 2 51.7 53.4 1.8
-2 -7 2 155.7 155.9 2.6
-1 -7 2 32.9 34.9 2.0
0 -7 2 104.4 104.6 1.9
1 -7 2 55.2 57.0 1.6
3 -7 2 60.5 59.8 2.4
-5 -6 2 61.3 61.2 2.2
-4 -6 2 138.7 140.0 2.4
-3 -6 2 33.6 33.5 2.4
-2 -6 2 41.5 39.0 1.7
-1 -6 2 115.3 115.5 2.0
1 -6 2 139.0 140.9 2.4
2 -6 2 21.1 20.3 3.9
3 -6 2 116.2 118.8 2.5
-5 -5 2 77.9 77.4 1.9
-4 -5 2 30.4 28.8 2.5
-3 -5 2 61.5 62.1 1.5
-2 -5 2 146.7 147.2 2.4
-1 -5 2 33.8 31.3 1.8
0 -5 2 154.9 160.1 2.6
1 -5 2 53.2 53.2 1.5
2 -5 2 167.3 165.7 2.8
3 -5 2 42.8 42.8 3.2
-6 -4 2 41.9 38.3 3.2
-5 -4 2 53.9 51.8 2.2
-4 -4 2 60.6 61.2 1.6
-3 -4 2 103.8 103.8 1.9
-2 -4 2 40.4 42.5 1.6
-1 -4 2 62.6 66.0 1.4
0 -4 2 45.1 45.7 1.6
1 -4 2 271.5 270.2 4.4
2 -4 2 52.7 51.8 1.8
3 -4 2 122.7 122.3 2.5
-6 -3 2 32.3 29.7 4.0
-5 -3 2 33.8 31.8 2.7
-4 -3 2 47.0 47.2 1.8
-3 -3 2 136.6 137.2 2.3
-2 -3 2 77.2 79.1 1.6
-1 -3 2 206.8 197.3 3.4
0 -3 2 257.0 254.1 4.2
1 -3 2 161.8 156.8 2.7
2 -3 2 191.4 192.9 3.3
3 -3 2 26.2 24.6 4.7
4 -3 2 53.9 51.1 3.2
-6 -2 2 37.3 35.9 3.8
-4 -2 2 164.4 166.3 2.7
-3 -2 2 76.6 78.0 1.6
-2 -2 2 70.4 68.6 1.5
-1 -2 2 288.7 281.1 4.7
0 -2 2 148.5 152.1 2.5
1 -2 2 78.8 80.8 1.9
2 -2 2 80.3 75.8 2.0
3 -2 2 71.8 69.6 2.0
5 -2 2 28.3 27.9 6.0
-6 -1 2 53.3 53.0 2.7
-5 -1 2 52.7 51.4 2.2
-3 -1 2 202.7 206.0 3.3
-2 -1 2 86.1 86.6 1.7
-1 -1 2 428.5 435.9 6.9
0 -1 2 64.3 63.2 1.8
1 -1 2 206.9 222.0 3.5
2 -1 2 184.6 172.0 3.2
3 -1 2 118.8 117.4 2.2
5 -1 2 55.8 55.7 3.1
6 -1 2 59.8 58.1 3.9
-6 0 2 153.7 154.0 2.9
-5 0 2 32.1 30.9 3.6
-4 0 2 291.0 288.9 4.7
-3 0 2 29.4 29.6 2.7
-2 0 2 330.1 324.0 5.4
-1 0 2 160.2 162.2 2.8
0 0 2 269.5 309.8 4.6
1 0 2 224.1 215.6 3.7
2 0 2 75.2 80.6 1.8
3 0 2 119.7 116.3 2.1
4 0 2 63.4 62.1 1.9
5 0 2 132.6 132.7 2.4
-5 1 2 122.2 116.3 3.0
-4 1 2 27.5 25.2 4.9
-3 1 2 225.8 216.4 3.8
-1 1 2 79.9 80.7 2.4
0 1 2 37.1 36.6 2.2
1 1 2 130.0 130.4 2.3
2 1 2 54.8 45.3 1.6
3 1 2 19.3 17.6 3.3
4 1 2 176.2 177.5 2.9
5 1 2 36.8 35.3 2.8
6 1 2 70.7 70.0 2.7
-2 2 2 45.8 46.1 5.1
-1 2 2 112.6 106.1 2.3
0 2 2 90.3 87.2 1.8
1 2 2 24.4 20.7 3.0
2 2 2 31.6 33.7 2.1
3 2 2 56.7 55.2 1.5
4 2 2 69.3 68.6 1.6
-2 3 2 109.0 107.1 2.4
-1 3 2 170.0 159.0 2.9
0 3 2 20.5 22.1 3.4
1 3 2 133.3 132.2 2.3
2 3 2 56.4 57.6 1.5
3 3 2 83.7 82.3 1.7
5 3 2 44.8 44.5 2.6
6 3 2 33.2 38.2 4.7
-2 4 2 75.4 76.3 1.9
0 4 2 216.7 210.5 3.5
2 4 2 166.3 168.7 2.7
3 4 2 25.1 22.8 2.8
4 4 2 113.9 112.9 2.0
-3 5 2 188.9 183.5 4.2
-1 5 2 246.7 247.8 4.0
1 5 2 270.6 271.9 4.4
2 5 2 23.4 24.9 2.9
3 5 2 201.4 204.2 3.3
5 5 2 126.6 126.4 2.3
-3 6 2 50.5 46.9 3.3
-2 6 2 145.4 145.5 2.5
-1 6 2 18.3 15.1 3.8
0 6 2 203.6 205.5 3.3
2 6 2 112.6 114.2 2.0
3 6 2 26.4 23.3 3.0
4 6 2 59.8 61.4 1.9
-2 7 2 61.9 62.9 2.0
-1 7 2 56.2 59.7 1.7
0 7 2 134.9 136.2 2.3
2 7 2 116.6 117.1 2.0
3 7 2 22.2 19.5 4.2
4 7 2 44.5 40.7 2.7
-3 8 2 73.0 71.6 2.6
-1 8 2 126.0 127.2 2.2
1 8 2 113.1 115.0 2.0
2 8 2 55.3 54.0 2.0
3 8 2 52.4 53.1 2.3
-3 9 2 67.7 68.6 2.9
-2 9 2 123.6 127.6 2.3
-1 9 2 46.3 40.3 2.5
0 9 2 79.6 78.5 1.9
1 9 2 46.3 45.5 2.1
2 9 2 51.6 50.0 2.4
3 9 2 27.7 20.7 6.0
-1 10 2 64.9 63.6 2.3
0 10 2 75.3 76.1 2.0
1 10 2 21.8 17.7 5.4
-1 -10 3 35.1 34.6 3.5
0 -10 3 86.9 86.9 2.0
-2 -9 3 58.9 59.4 2.1
-1 -9 3 73.6 72.8 1.8
0 -9 3 72.8 71.6 1.9
1 -9 3 127.5 128.4 2.3
2 -9 3 98.4 96.2 2.2
3 -9 3 73.2 74.4 3.0
-3 -8 3 90.2 88.4 1.9
-2 -8 3 88.3 90.6 1.8
-1 -8 3 119.2 120.5 2.1
0 -8 3 58.3 57.3 1.8
1 -8 3 53.3 52.8 2.0
3 -8 3 46.3 47.1 4.0
-4 -7 3 78.7 79.6 1.8
-3 -7 3 51.7 52.5 1.8
-2 -7 3 96.9 99.6 1.8
-1 -7 3 29.4 30.3 2.2
0 -7 3 27.5 27.6 2.5
1 -7 3 33.1 34.6 2.4
2 -7 3 51.9 50.3 2.2
4 -7 3 100.7 96.6 4.2
-5 -6 3 106.7 105.2 2.1
-3 -6 3 100.8 101.0 1.8
-2 -6 3 62.3 61.7 1.5
-1 -6 3 40.7 37.8 1.8
0 -6 3 80.8 80.5 1.6
1 -6 3 174.7 176.0 2.9
2 -6 3 24.9 25.9 3.4
3 -6 3 115.2 116.8 2.4
4 -6 3 33.3 33.1 7.6
-4 -5 3 118.0 118.8 2.1
-3 -5 3 45.2 44.7 1.6
-2 -5 3 158.3 158.6 2.6
0 -5 3 254.5 259.6 4.1
1 -5 3 20.2 17.3 3.0
2 -5 3 135.4 136.6 2.4
3 -5 3 64.5 64.5 2.2
4 -5 3 27.7 27.0 6.7
-6 -4 3 53.6 57.0 2.7
-5 -4 3 62.7 63.5 2.0
-4 -4 3 83.8 84.3 1.7
-3 -4 3 112.8 113.0 2.0
-2 -4 3 159.3 157.0 2.6
-1 -4 3 83.7 87.0 1.6
0 -4 3 87.5 89.3 1.7
2 -4 3 41.0 40.4 2.0
3 -4 3 59.2 59.1 2.4
4 -4 3 70.3 70.6 2.8
-6 -3 3 25.5 24.1 5.1
-5 -3 3 166.8 170.3 2.8
-4 -3 3 28.0 28.2 2.5
-3 -3 3 260.3 260.6 4.2
-2 -3 3 48.9 49.9 1.5
-1 -3 3 109.3 111.1 1.9
0 -3 3 135.5 142.9 2.3
1 -3 3 17.3 17.6 4.1
2 -3 3 203.6 204.7 3.4
3 -3 3 22.4 21.8 5.0
4 -3 3 152.7 150.7 2.8
-6 -2 3 133.2 136.3 2.4
-4 -2 3 76.0 75.3 1.6
-3 -2 3 113.7 116.8 2.0
-2 -2 3 37.4 40.6 1.7
-1 -2 3 141.7 147.3 2.4
0 -2 3 17.6 17.6 4.4
1 -2 3 183.4 185.0 3.1
2 -2 3 85.6 87.0 1.9
3 -2 3 61.0 63.0 2.2
4 -2 3 44.9 48.0 2.6
5 -2 3 112.2 114.0 2.6
-5 -1 3 43.8 45.2 2.5
-4 -1 3 76.6 76.5 1.7
-2 -1 3 142.2 141.2 2.4
0 -1 3 24.5 27.1 2.6
1 -1 3 30.9 32.8 3.4
2 -1 3 63.0 62.7 2.2
4 -1 3 157.6 157.5 2.8
5 -1 3 40.4 39.7 3.6
6 -1 3 60.2 62.1 3.5
-6 0 3 28.7 26.6 5.7
-5 0 3 74.0 74.3 2.2
-4 0 3 70.4 71.0 1.9
-3 0 3 51.5 51.5 1.8
-2 0 3 120.7 112.2 2.2
-1 0 3 37.0 37.1 2.0
0 0 3 63.2 63.6 2.2
1 0 3 103.0 98.9 2.1
2 0 3 70.1 68.6 1.7
3 0 3 240.4 233.9 3.9
4 0 3 77.7 77.6 1.8
5 0 3 73.3 71.7 2.1
-5 1 3 35.2 35.4 7.0
-3 1 3 105.2 104.5 2.2
-1 1 3 201.0 205.7 3.5
0 1 3 301.8 292.1 4.9
1 1 3 245.3 232.6 4.0
2 1 3 164.4 159.5 2.7
3 1 3 149.8 147.2 2.5
4 1 3 72.1 72.9 1.7
5 1 3 46.1 45.7 2.7
-2 2 3 283.6 279.2 4.7
0 2 3 310.3 300.5 5.0
1 2 3 65.5 59.4 1.6
2 2 3 190.4 190.0 3.1
3 2 3 81.2 78.5 1.7
4 2 3 103.3 104.2 1.9
5 2 3 112.0 108.7 2.2
6 2 3 72.0 70.2 2.6
-2 3 3 34.7 32.9 3.0
-1 3 3 87.0 92.9 1.8
0 3 3 81.0 81.1 1.7
1 3 3 181.2 178.1 3.0
2 3 3 75.6 76.9 1.6
3 3 3 131.2 130.3 2.2
4 3 3 159.1 159.1 2.7
5 3 3 60.7 60.8 2.2
-2 4 3 44.2 41.7 2.1
-1 4 3 18.8 15.7 3.6
0 4 3 51.2 50.7 1.5
1 4 3 69.0 66.4 1.5
2 4 3 45.3 45.1 1.8
3 4 3 18.7 18.8 3.7
5 4 3 24.1 21.2 4.5
-3 5 3 39.2 41.0 4.7
-2 5 3 36.6 37.3 2.7
-1 5 3 70.7 67.0 1.6
0 5 3 109.8 110.9 1.9
1 5 3 24.5 22.4 2.8
2 5 3 35.5 35.3 2.0
3 5 3 66.8 67.5 1.7
5 5 3 93.1 94.9 2.1
-3 6 3 109.5 108.3 2.4
-1 6 3 98.9 98.8 1.9
1 6 3 48.5 46.4 1.7
2 6 3 93.0 92.9 1.7
3 6 3 76.2 74.9 1.7
4 6 3 118.6 119.6 2.1
-2 7 3 114.8 112.3 2.1
-1 7 3 100.6 101.1 1.9
0 7 3 32.1 31.9 2.2
1 7 3 169.7 167.4 2.8
2 7 3 27.8 24.1 3.0
3 7 3 137.9 135.5 2.4
4 7 3 43.5 40.3 2.8
-3 8 3 38.8 40.3 4.1
-2 8 3 122.4 121.6 2.2
0 8 3 153.6 152.7 2.6
2 8 3 84.0 84.4 1.9
-3 9 3 79.8 77.9 2.6
-2 9 3 81.2 79.5 2.2
0 9 3 24.9 23.2 4.0
2 9 3 46.0 48.2 2.7
-1 10 3 54.9 54.9 2.7
0 10 3 41.7 43.1 3.1
1 10 3 77.5 82.3 2.4
-1 -10 4 30.8 29.9 4.1
-3 -9 4 25.8 32.2 4.6
-2 -9 4 118.6 117.9 2.2
-1 -9 4 40.0 37.6 2.4
0 -9 4 22.4 21.1 4.3
1 -9 4 62.2 61.5 2.0
2 -9 4 36.7 36.0 4.0
-3 -8 4 126.4 125.5 2.2
-2 -8 4 55.2 55.0 2.0
-1 -8 4 103.6 103.9 1.9
0 -8 4 76.4 76.7 1.7
1 -8 4 109.6 110.1 2.0
2 -8 4 82.9 81.4 2.1
3 -8 4 57.2 57.2 3.5
-4 -7 4 68.9 68.2 1.9
-3 -7 4 48.6 48.8 1.8
-2 -7 4 41.6 44.8 1.9
-1 -7 4 41.7 40.4 1.9
0 -7 4 80.0 82.0 1.6
1 -7 4 98.7 94.7 1.9
2 -7 4 94.2 91.5 1.9
3 -7 4 139.7 139.6 2.7
4 -7 4 63.8 62.6 3.9
-5 -6 4 36.6 37.2 3.2
-1 -6 4 93.4 92.7 1.7
0 -6 4 18.3 17.8 3.7
1 -6 4 169.3 169.0 2.8
2 -6 4 65.4 63.2 1.7
3 -6 4 146.1 149.3 2.7
-5 -5 4 29.5 30.6 3.5
-4 -5 4 46.4 46.8 1.9
-3 -5 4 33.0 33.6 2.1
-2 -5 4 118.5 123.7 2.0
-1 -5 4 58.4 58.2 1.5
0 -5 4 264.0 267.8 4.3
1 -5 4 60.4 59.3 1.7
2 -5 4 126.8 128.0 2.3
3 -5 4 61.1 59.1 2.4
4 -5 4 32.7 30.1 5.4
-6 -4 4 28.2 28.3 4.7
-5 -4 4 35.1 32.0 2.9
-4 -4 4 21.0 12.4 4.0
-3 -4 4 131.6 132.0 2.2
-1 -4 4 190.5 192.3 3.1
0 -4 4 37.6 36.1 1.7
1 -4 4 205.9 205.4 3.4
2 -4 4 37.8 38.3 2.8
-6 -3 4 55.4 54.1 2.5
-5 -3 4 47.7 46.9 2.1
-4 -3 4 136.1 137.9 2.3
-2 -3 4 331.7 328.1 5.3
-1 -3 4 38.1 34.3 1.8
0 -3 4 173.3 174.2 2.9
2 -3 4 126.2 128.1 2.3
3 -3 4 57.8 58.4 2.2
4 -3 4 131.5 129.1 2.5
5 -3 4 35.5 34.6 4.9
-5 -2 4 107.5 108.2 2.0
-3 -2 4 174.0 173.0 2.9
-2 -2 4 126.1 121.4 2.2
-1 -2 4 142.3 145.4 2.4
0 -2 4 73.2 72.7 1.6
1 -2 4 114.7 118.6 2.2
2 -2 4 69.3 69.9 1.8
3 -2 4 150.2 151.0 2.6
4 -2 4 43.6 41.1 3.2
5 -2 4 31.1 28.4 5.1
-6 -1 4 33.3 30.7 3.8
-5 -1 4 153.4 153.6 2.6
-4 -1 4 37.3 34.8 2.2
-3 -1 4 183.7 186.3 3.0
-2 -1 4 19.9 15.6 3.2
-1 -1 4 194.3 192.5 3.2
0 -1 4 82.3 76.4 2.0
1 -1 4 120.6 123.7 2.2
2 -1 4 173.1 170.0 3.0
3 -1 4 47.0 46.5 2.6
4 -1 4 166.5 165.5 2.9
5 -1 4 38.4 37.4 4.5
6 -1 4 108.8 114.7 2.8
-6 0 4 125.7 125.6 2.6
-5 0 4 44.4 44.2 2.9
-4 0 4 136.6 133.8 2.4
-3 0 4 27.1 28.0 2.7
-2 0 4 189.8 190.8 3.2
-1 0 4 153.9 149.9 2.7
0 0 4 145.8 148.2 2.7
1 0 4 279.9 285.0 4.6
3 0 4 261.2 255.9 4.3
5 0 4 115.5 115.6 2.3
6 0 4 87.2 89.4 3.1
-5 1 4 64.7 63.1 3.6
-4 1 4 24.4 25.4 5.5
-3 1 4 133.9 137.9 2.5
-2 1 4 107.5 105.7 2.2
-1 1 4 24.8 17.3 5.1
0 1 4 282.4 266.5 4.6
1 1 4 59.4 54.8 1.7
2 1 4 179.1 170.6 3.0
4 1 4 83.9 84.5 1.8
5 1 4 22.7 24.1 5.4
-1 2 4 65.6 63.4 1.8
0 2 4 23.2 18.7 3.3
1 2 4 139.0 131.0 2.4
2 2 4 37.7 39.0 1.8
4 2 4 55.9 55.3 2.0
5 2 4 66.1 65.9 2.1
-3 3 4 27.0 27.3 5.0
-2 3 4 54.0 53.3 2.3
0 3 4 114.7 107.0 2.0
1 3 4 135.8 131.6 2.3
2 3 4 55.8 55.2 1.5
3 3 4 138.6 136.5 2.3
4 3 4 106.4 103.8 2.0
5 3 4 82.9 82.7 2.0
-2 4 4 114.5 113.1 2.1
-1 4 4 17.3 14.5 4.0
0 4 4 240.5 234.9 3.9
1 4 4 40.3 40.1 1.6
2 4 4 217.2 214.1 3.5
3 4 4 48.8 47.6 1.7
4 4 4 96.3 94.5 1.9
5 4 4 41.5 36.1 3.0
-3 5 4 194.5 199.0 3.4
-1 5 4 281.4 277.3 4.6
1 5 4 246.6 242.6 4.0
2 5 4 95.9 95.3 1.8
3 5 4 78.7 77.6 1.7
4 5 4 134.5 132.4 2.3
5 5 4 25.5 24.5 5.2
-2 6 4 186.2 189.2 3.1
-1 6 4 52.3 52.6 1.7
0 6 4 143.4 143.0 2.4
1 6 4 96.4 96.5 1.8
3 6 4 48.2 46.2 1.9
4 6 4 22.8 18.3 5.0
-3 7 4 86.8 87.8 2.2
-2 7 4 80.6 79.4 1.9
0 7 4 38.5 38.8 2.3
1 7 4 73.2 73.5 1.7
2 7 4 61.1 61.6 1.8
3 7 4 23.9 21.7 3.8
4 7 4 55.5 58.9 2.5
-3 8 4 103.7 105.4 2.3
-2 8 4 22.3 26.5 5.4
-1 8 4 63.6 63.3 1.8
1 8 4 115.8 117.2 2.1
2 8 4 21.2 11.9 4.6
3 8 4 53.4 55.7 2.4
-2 9 4 71.7 71.1 2.4
0 9 4 49.2 47.2 2.2
1 9 4 33.6 35.8 3.6
-1 10 4 61.3 60.3 2.9
0 10 4 77.9 81.4 2.4
-1 -10 5 33.0 30.1 7.3
0 -10 5 103.0 104.3 2.3
-3 -9 5 97.9 101.9 2.2
-2 -9 5 83.3 80.7 1.9
-1 -9 5 65.0 66.7 1.9
1 -9 5 62.1 60.5 2.3
2 -9 5 47.5 43.3 3.0
-4 -8 5 65.0 63.8 2.2
-3 -8 5 38.7 37.9 2.6
-2 -8 5 31.0 28.3 3.0
-1 -8 5 36.3 38.7 2.2
0 -8 5 36.3 35.0 2.4
1 -8 5 67.8 64.9 2.0
2 -8 5 22.5 19.8 5.1
3 -8 5 43.3 42.7 4.2
-4 -7 5 25.4 33.3 4.4
-2 -7 5 78.6 78.8 1.7
-1 -7 5 26.9 26.5 3.1
0 -7 5 72.6 71.1 1.7
1 -7 5 31.4 28.1 3.0
2 -7 5 42.2 40.6 2.5
3 -7 5 32.3 28.7 4.8
-5 -6 5 99.4 97.3 2.0
-4 -6 5 29.7 30.1 3.4
-3 -6 5 138.7 136.4 2.4
-1 -6 5 155.5 154.6 2.6
1 -6 5 119.2 119.8 2.1
2 -6 5 96.1 95.3 2.0
3 -6 5 56.1 57.9 2.4
4 -6 5 73.8 71.7 3.1
-5 -5 5 34.4 32.2 2.9
-4 -5 5 159.1 158.5 2.6
-2 -5 5 126.1 125.6 2.2
-1 -5 5 93.6 94.2 1.7
0 -5 5 62.3 62.9 1.6
1 -5 5 163.3 163.3 2.7
2 -5 5 25.4 23.7 3.7
3 -5 5 124.3 123.5 2.3
4 -5 5 29.2 26.6 5.3
-6 -4 5 74.2 73.7 2.4
-5 -4 5 61.5 59.5 2.0
-4 -4 5 51.0 50.5 1.9
-3 -4 5 25.5 23.9 2.7
-2 -4 5 21.9 19.9 3.1
-1 -4 5 145.2 142.4 2.4
0 -4 5 71.7 73.0 1.5
1 -4 5 51.1 51.5 1.6
2 -4 5 70.3 69.1 2.0
3 -4 5 87.2 87.6 2.0
4 -4 5 111.7 111.3 2.3
5 -4 5 113.4 114.2 2.8
-5 -3 5 46.4 45.1 2.1
-4 -3 5 138.7 141.8 2.4
-3 -3 5 38.6 39.8 1.9
-2 -3 5 191.1 193.0 3.1
0 -3 5 155.9 156.5 2.6
1 -3 5 21.3 20.0 3.2
2 -3 5 167.8 169.0 2.8
4 -3 5 165.2 166.2 2.9
5 -3 5 29.1 26.6 6.2
-6 -2 5 56.1 55.0 2.7
-5 -2 5 82.5 82.3 1.8
-4 -2 5 28.4 28.9 2.6
-3 -2 5 109.8 111.8 1.9
-2 -2 5 58.4 58.4 1.5
-1 -2 5 31.9 37.9 2.2
0 -2 5 17.3 15.3 3.6
1 -2 5 180.2 184.8 3.0
2 -2 5 22.3 21.3 3.6
3 -2 5 126.4 126.1 2.3
5 -2 5 82.0 83.8 2.4
-6 -1 5 61.9 58.8 2.4
-5 -1 5 72.9 71.0 1.9
-4 -1 5 23.4 20.1 3.3
-3 -1 5 25.0 25.8 2.4
-2 -1 5 157.8 156.2 2.6
-1 -1 5 41.6 40.1 1.9
2 -1 5 165.3 165.4 2.8
3 -1 5 23.1 23.7 4.8
4 -1 5 98.4 95.9 2.2
5 -1 5 34.5 34.4 4.5
-6 0 5 75.5 76.4 2.6
-5 0 5 58.9 59.2 2.4
-3 0 5 108.2 110.3 2.0
-2 0 5 93.7 90.3 1.8
-1 0 5 140.1 149.8 2.5
1 0 5 215.0 219.1 3.6
2 0 5 23.8 23.1 3.1
3 0 5 173.5 169.3 2.9
5 0 5 51.2 49.2 3.1
-5 1 5 161.2 166.3 3.1
-4 1 5 133.5 135.1 2.6
-3 1 5 144.8 148.4 2.6
-2 1 5 41.7 46.6 2.3
-1 1 5 47.3 53.0 2.5
0 1 5 226.4 215.8 3.7
1 1 5 82.9 81.1 1.7
4 1 5 32.0 29.6 3.2
-4 2 5 197.5 192.7 3.5
-2 2 5 182.1 183.6 3.1
-1 2 5 97.4 96.1 1.9
0 2 5 224.3 213.7 3.7
1 2 5 62.2 63.1 1.6
2 2 5 172.3 167.7 2.8
3 2 5 172.5 170.2 2.9
4 2 5 26.4 19.1 3.6
5 2 5 173.2 172.9 2.9
-3 3 5 144.0 144.1 2.6
-2 3 5 66.5 67.5 2.0
-1 3 5 169.0 162.8 2.8
0 3 5 101.1 99.3 1.9
1 3 5 107.2 107.1 1.9
2 3 5 136.9 135.3 2.3
3 3 5 55.6 56.2 1.7
4 3 5 145.4 144.9 2.5
-2 4 5 97.6 95.7 2.0
-1 4 5 89.9 86.4 1.7
0 4 5 38.9 38.9 1.8
1 4 5 87.2 86.3 1.7
2 4 5 46.9 44.9 1.8
4 4 5 26.9 18.9 3.9
5 4 5 30.5 31.8 4.3
-3 5 5 45.4 45.4 3.1
-1 5 5 67.4 67.8 1.7
1 5 5 69.5 65.7 1.6
2 5 5 18.3 15.9 3.8
3 5 5 70.5 69.4 1.7
4 5 5 55.8 54.4 2.0
-2 6 5 129.1 128.1 2.3
-1 6 5 35.4 33.9 2.3
0 6 5 91.3 89.2 1.7
1 6 5 36.8 38.0 2.1
2 6 5 81.8 81.1 1.8
3 6 5 114.0 115.8 2.1
4 6 5 114.8 114.9 2.2
-3 7 5 170.7 171.1 3.0
-1 7 5 120.1 119.0 2.1
0 7 5 20.1 25.8 4.5
1 7 5 148.5 147.7 2.5
2 7 5 21.0 22.2 4.6
3 7 5 140.9 139.3 2.4
-3 8 5 24.8 22.2 6.0
-2 8 5 100.7 99.5 2.1
-1 8 5 22.3 21.0 4.8
0 8 5 138.6 137.9 2.4
2 8 5 139.1 141.8 2.4
3 8 5 27.9 28.5 4.5
-2 9 5 32.6 29.1 4.4
-1 9 5 22.2 19.7 5.3
0 9 5 61.4 62.0 2.2
1 9 5 43.6 41.4 2.9
-3 -9 6 34.1 31.7 6.9
-2 -9 6 80.3 80.6 2.0
-1 -9 6 32.7 33.9 3.6
0 -9 6 45.2 45.9 2.8
1 -9 6 75.3 76.0 2.1
-4 -8 6 47.1 43.2 5.1
-3 -8 6 108.4 105.4 2.1
-2 -8 6 83.4 80.2 1.8
-1 -8 6 84.9 83.4 1.8
0 -8 6 170.4 165.7 2.9
1 -8 6 46.6 45.7 2.5
2 -8 6 234.0 234.4 3.8
-4 -7 6 45.3 42.8 2.5
-3 -7 6 78.7 77.5 1.8
-2 -7 6 21.8 25.5 3.8
-1 -7 6 176.0 175.5 2.9
0 -7 6 90.0 88.8 1.8
1 -7 6 142.5 141.0 2.4
2 -7 6 64.5 63.8 2.2
3 -7 6 29.2 29.6 6.0
-5 -6 6 30.5 30.3 3.8
-4 -6 6 41.8 41.3 2.3
-3 -6 6 61.5 61.1 1.6
-2 -6 6 90.3 90.8 1.7
-1 -6 6 192.1 193.3 3.1
0 -6 6 32.2 31.6 2.1
1 -6 6 63.0 61.5 1.6
2 -6 6 69.3 69.1 2.1
3 -6 6 35.1 31.6 4.0
-5 -5 6 41.0 39.9 2.8
-4 -5 6 94.0 94.5 1.8
-3 -5 6 23.7 23.8 3.2
-2 -5 6 100.4 102.1 1.8
-1 -5 6 51.7 52.7 1.5
0 -5 6 44.5 43.3 1.8
1 -5 6 26.5 24.0 2.9
2 -5 6 33.0 29.4 2.8
4 -5 6 46.7 46.2 3.3
-5 -4 6 86.1 85.4 1.9
-3 -4 6 100.5 99.0 1.8
-1 -4 6 102.2 103.7 1.8
0 -4 6 18.5 17.3 3.0
1 -4 6 165.3 165.2 2.8
2 -4 6 31.9 32.4 3.3
3 -4 6 59.0 57.0 2.2
4 -4 6 51.6 51.3 3.1
-6 -3 6 99.0 97.5 2.1
-5 -3 6 26.5 26.1 3.8
-4 -3 6 115.2 115.0 2.0
-2 -3 6 268.0 271.5 4.3
-1 -3 6 18.4 16.7 3.1
0 -3 6 194.1 196.0 3.2
1 -3 6 65.2 67.8 1.7
2 -3 6 101.6 100.3 2.0
3 -3 6 122.7 125.4 2.2
5 -3 6 163.5 164.6 3.0
-5 -2 6 121.8 122.3 2.2
-4 -2 6 79.8 81.5 1.7
-3 -2 6 237.8 240.4 3.9
-2 -2 6 85.2 84.8 1.6
-1 -2 6 146.2 145.5 2.5
0 -2 6 45.8 47.1 1.6
2 -2 6 191.6 191.3 3.2
3 -2 6 71.1 70.0 1.9
4 -2 6 108.7 106.3 2.2
5 -2 6 26.9 28.7 6.4
-6 -1 6 35.7 36.2 4.4
-5 -1 6 143.7 145.3 2.5
-4 -1 6 33.3 33.3 2.5
-3 -1 6 100.4 101.1 1.9
-2 -1 6 79.7 80.4 1.7
0 -1 6 157.0 167.8 2.7
1 -1 6 28.0 24.8 2.9
2 -1 6 220.2 222.3 3.6
3 -1 6 51.4 51.4 2.4
4 -1 6 87.9 86.1 2.2
5 -1 6 56.8 55.1 2.9
-6 0 6 121.1 123.0 2.7
-5 0 6 28.7 25.5 4.1
-4 0 6 48.3 46.6 2.1
-3 0 6 121.1 121.5 2.1
-2 0 6 33.4 32.7 2.7
-1 0 6 237.1 245.7 3.9
0 0 6 85.8 86.4 1.9
1 0 6 222.7 224.6 3.7
2 0 6 118.3 118.1 2.2
3 0 6 120.3 119.1 2.2
4 0 6 25.7 21.0 4.9
5 0 6 99.7 101.4 2.4
-4 1 6 63.9 64.5 2.3
-3 1 6 20.5 20.1 4.3
-2 1 6 152.2 154.2 2.6
-1 1 6 70.8 72.8 1.9
0 1 6 89.0 88.9 1.9
2 1 6 122.0 120.2 2.1
3 1 6 49.2 49.2 1.9
4 1 6 91.6 90.4 2.0
5 1 6 37.2 34.2 3.8
-4 2 6 40.4 40.6 3.1
-3 2 6 41.7 39.8 2.7
-2 2 6 37.7 39.7 2.4
-1 2 6 174.6 169.7 3.0
0 2 6 132.8 125.0 2.3
1 2 6 248.1 243.9 4.0
2 2 6 120.5 116.0 2.1
3 2 6 108.1 105.3 2.0
4 2 6 50.7 50.3 2.1
5 2 6 52.2 49.3 2.7
-4 3 6 51.4 52.5 2.8
-2 3 6 187.3 185.8 3.2
-1 3 6 174.4 168.9 2.9
0 3 6 257.0 249.4 4.2
1 3 6 150.7 147.6 2.5
2 3 6 38.4 39.3 2.1
3 3 6 19.8 23.7 4.4
4 3 6 32.9 29.1 3.3
-3 4 6 147.7 150.5 2.6
-2 4 6 291.3 289.0 4.7
-1 4 6 32.6 34.5 2.6
0 4 6 169.3 166.0 2.8
1 4 6 77.9 76.6 1.7
2 4 6 73.5 71.4 1.6
3 4 6 77.3 75.3 1.7
4 4 6 24.5 23.6 4.3
5 4 6 50.1 57.8 6.5
-3 5 6 220.2 224.1 3.7
-2 5 6 73.8 73.0 1.8
-1 5 6 133.3 132.0 2.3
0 5 6 189.8 186.1 3.1
1 5 6 69.4 67.9 1.6
2 5 6 126.8 127.6 2.2
3 5 6 105.2 107.6 2.0
4 5 6 74.2 74.4 2.1
-3 6 6 44.5 45.8 3.3
-2 6 6 39.3 37.4 2.7
-1 6 6 56.3 56.4 1.7
0 6 6 57.1 55.5 1.7
1 6 6 45.4 45.6 2.2
2 6 6 36.9 35.5 2.5
-2 7 6 24.9 20.3 4.0
0 7 6 92.4 92.5 1.8
3 7 6 95.8 92.5 2.0
-3 8 6 85.9 87.2 2.6
-2 8 6 28.4 26.2 4.3
-1 8 6 39.0 39.5 3.0
0 8 6 45.9 48.0 2.5
1 8 6 58.6 56.0 2.0
2 8 6 100.6 101.5 2.1
-1 9 6 77.1 73.3 2.1
0 9 6 79.9 80.6 2.1
1 9 6 132.8 133.7 2.4
-2 -9 7 28.1 23.8 4.4
-1 -9 7 41.3 38.0 2.7
-3 -8 7 37.5 36.9 2.8
-2 -8 7 53.4 53.6 1.9
1 -8 7 43.7 42.7 2.6
-4 -7 7 55.1 50.9 2.2
-3 -7 7 23.9 15.4 3.8
-2 -7 7 52.7 51.0 1.8
2 -7 7 38.5 36.4 3.6
-5 -6 7 149.3 149.5 2.6
-4 -6 7 34.2 33.8 2.8
-3 -6 7 89.3 86.5 1.7
-2 -6 7 66.5 65.2 1.7
-1 -6 7 102.0 100.3 1.9
0 -6 7 59.1 56.9 1.7
1 -6 7 81.2 79.2 1.8
2 -6 7 151.6 153.2 2.6
4 -6 7 156.0 159.7 2.9
-5 -5 7 53.0 50.0 2.5
-4 -5 7 74.6 77.1 1.7
-3 -5 7 68.0 65.2 1.6
-2 -5 7 63.7 67.6 1.5
-1 -5 7 127.2 127.4 2.2
0 -5 7 50.4 49.6 1.7
1 -5 7 158.7 160.1 2.6
3 -5 7 188.7 184.8 3.2
-5 -4 7 34.9 33.9 3.1
-3 -4 7 40.1 40.5 1.9
-2 -4 7 65.0 65.7 1.6
-1 -4 7 182.9 180.2 3.0
0 -4 7 123.0 123.0 2.1
1 -4 7 89.1 91.3 1.9
2 -4 7 81.0 83.7 1.8
3 -4 7 66.1 64.0 2.1
-6 -3 7 37.5 34.2 3.7
-5 -3 7 37.3 33.7 3.0
-4 -3 7 154.5 155.4 2.6
-3 -3 7 29.1 28.2 2.3
-2 -3 7 160.2 159.6 2.7
0 -3 7 106.2 108.2 1.9
1 -3 7 51.7 50.7 2.2
2 -3 7 82.0 82.8 1.8
3 -3 7 68.4 68.5 2.1
4 -3 7 69.0 67.5 2.5
-6 -2 7 42.9 39.7 3.2
-5 -2 7 91.2 90.7 1.9
-4 -2 7 51.8 50.9 1.7
-3 -2 7 144.6 141.8 2.4
-2 -2 7 79.4 79.5 1.6
-1 -2 7 55.3 57.2 1.5
1 -2 7 131.4 136.0 2.3
2 -2 7 32.4 32.0 3.0
3 -2 7 118.2 118.7 2.2
5 -2 7 68.6 67.0 2.7
-6 -1 7 87.8 88.4 2.4
-5 -1 7 23.1 22.5 4.6
-4 -1 7 87.7 87.2 1.8
-2 -1 7 156.1 156.5 2.6
0 -1 7 149.9 158.0 2.6
1 -1 7 18.1 16.7 4.0
2 -1 7 223.6 226.8 3.7
3 -1 7 26.7 27.1 4.0
4 -1 7 97.2 96.6 2.2
5 -1 7 85.2 83.5 2.4
-5 0 7 163.1 165.6 2.9
-3 0 7 123.7 124.5 2.3
-2 0 7 30.9 30.3 2.9
-1 0 7 226.2 231.3 3.7
0 0 7 61.8 60.2 1.6
1 0 7 195.9 199.9 3.3
2 0 7 124.6 125.4 2.3
3 0 7 22.5 18.3 4.4
4 0 7 108.5 108.7 2.2
5 0 7 43.7 40.0 4.0
-6 1 7 63.5 61.9 4.3
-5 1 7 61.9 62.1 2.5
-4 1 7 36.7 34.2 3.2
-3 1 7 68.6 68.2 1.9
-2 1 7 50.5 50.0 1.9
-1 1 7 68.9 69.1 1.8
0 1 7 18.0 14.4 4.4
1 1 7 19.8 19.6 3.4
2 1 7 163.0 159.3 2.7
3 1 7 76.4 77.7 1.7
4 1 7 112.4 110.7 2.1
5 1 7 30.2 29.7 5.6
-5 2 7 55.0 56.7 3.2
-4 2 7 131.3 132.3 2.4
-3 2 7 40.9 40.6 2.7
-2 2 7 155.2 158.0 2.6
-1 2 7 257.8 259.5 4.2
1 2 7 231.8 233.4 3.8
2 2 7 45.4 46.1 1.8
3 2 7 151.0 147.4 2.6
5 2 7 103.7 104.3 2.3
-4 3 7 70.2 69.9 2.4
-3 3 7 95.5 94.7 2.0
-2 3 7 154.2 150.1 2.7
-1 3 7 28.9 30.2 2.5
0 3 7 104.2 104.2 1.9
2 3 7 68.7 67.1 1.6
3 3 7 60.6 56.6 1.9
4 3 7 96.8 97.2 2.0
-3 4 7 41.9 41.9 2.7
-2 4 7 40.1 39.1 2.8
-1 4 7 19.2 17.2 4.3
1 4 7 45.2 41.8 1.8
2 4 7 43.6 44.7 1.9
3 4 7 107.1 105.9 2.0
4 4 7 72.4 71.1 2.0
0 5 7 42.0 42.6 2.0
1 5 7 67.5 65.0 1.6
2 5 7 158.0 158.8 2.6
3 5 7 113.2 112.9 2.1
4 5 7 102.9 103.2 2.1
-4 6 7 54.9 53.7 3.7
-3 6 7 35.8 33.0 3.9
-2 6 7 94.7 93.6 2.0
-1 6 7 60.9 58.7 1.9
0 6 7 131.0 127.7 2.3
1 6 7 134.7 134.1 2.3
2 6 7 88.1 85.6 1.9
3 6 7 20.9 18.5 5.1
-4 7 7 33.9 34.2 7.1
-3 7 7 136.0 139.7 2.6
-1 7 7 162.2 161.3 2.7
0 7 7 26.2 23.0 3.4
1 7 7 114.5 112.4 2.1
2 7 7 96.8 97.0 2.0
3 7 7 44.8 43.0 2.9
-2 8 7 113.5 113.4 2.2
-1 8 7 31.3 31.0 3.8
0 8 7 73.9 75.7 1.9
1 8 7 86.1 84.3 2.0
2 8 7 50.3 49.2 2.6
0 9 7 42.5 40.8 3.2
-2 -9 8 39.2 29.7 6.2
-1 -9 8 133.0 133.1 2.4
-3 -8 8 25.7 18.2 4.3
-2 -8 8 198.6 197.4 3.3
0 -8 8 134.6 132.6 2.3
2 -8 8 109.2 111.0 2.5
-4 -7 8 59.1 55.7 2.3
-3 -7 8 98.2 95.8 1.9
-2 -7 8 40.0 40.4 2.5
-1 -7 8 97.2 95.4 1.9
0 -7 8 22.4 25.0 4.2
1 -7 8 46.6 43.7 2.4
2 -7 8 26.6 20.4 5.2
3 -7 8 46.2 46.2 3.7
-4 -6 8 36.8 34.8 2.9
-3 -6 8 29.6 29.8 2.9
-2 -6 8 38.0 36.3 2.2
-1 -6 8 74.4 73.9 1.7
0 -6 8 24.7 24.1 3.6
1 -6 8 42.0 42.3 2.3
-4 -5 8 29.4 23.8 3.6
-3 -5 8 43.8 44.7 2.1
-2 -5 8 75.8 76.2 1.6
-1 -5 8 51.5 53.0 1.6
0 -5 8 63.0 62.2 1.6
1 -5 8 46.9 48.3 2.5
3 -5 8 56.3 53.5 2.5
-5 -4 8 90.5 90.6 2.0
-4 -4 8 46.9 42.3 2.0
-3 -4 8 122.2 121.0 2.1
-2 -4 8 33.2 31.0 2.1
-1 -4 8 103.5 101.6 1.9
0 -4 8 91.3 90.4 1.7
1 -4 8 33.9 33.9 2.7
2 -4 8 132.2 131.3 2.3
4 -4 8 80.5 80.3 2.5
-6 -3 8 119.0 121.5 2.4
-5 -3 8 23.6 24.3 4.5
-4 -3 8 176.0 174.0 2.9
-3 -3 8 46.0 45.8 1.7
-2 -3 8 155.4 155.7 2.6
-1 -3 8 211.0 208.5 3.4
0 -3 8 60.8 59.7 1.9
1 -3 8 196.7 203.6 3.3
2 -3 8 25.8 24.2 3.3
3 -3 8 144.9 144.3 2.5
-6 -2 8 42.9 41.4 3.6
-5 -2 8 84.5 82.7 1.9
-4 -2 8 62.1 60.1 1.8
-3 -2 8 24.2 23.0 2.9
-2 -2 8 166.4 163.3 2.8
-1 -2 8 56.9 57.1 1.5
0 -2 8 125.8 130.4 2.2
1 -2 8 67.5 65.8 1.8
2 -2 8 135.7 135.2 2.3
3 -2 8 80.5 80.4 2.0
4 -2 8 78.9 80.7 2.2
-4 -1 8 116.3 114.7 2.1
-2 -1 8 68.8 69.5 1.7
-1 -1 8 40.2 41.9 2.0
0 -1 8 166.1 168.5 2.8
1 -1 8 36.1 31.5 2.4
2 -1 8 185.9 182.9 3.1
4 -1 8 86.2 85.6 2.1
5 -1 8 28.2 14.2 6.0
-5 0 8 63.7 62.9 2.4
-4 0 8 40.7 42.6 2.5
-3 0 8 46.1 46.2 2.2
-2 0 8 35.8 38.6 2.3
-1 0 8 191.2 191.4 3.1
0 0 8 29.4 28.0 2.5
1 0 8 186.9 187.7 3.1
2 0 8 28.7 27.2 3.4
3 0 8 68.4 67.9 2.2
4 0 8 32.9 31.8 4.6
5 0 8 35.4 34.8 5.4
-5 1 8 48.5 47.7 3.1
-3 1 8 42.0 42.4 2.3
-2 1 8 215.6 213.5 3.5
-1 1 8 66.9 65.6 1.6
0 1 8 160.1 164.0 2.7
2 1 8 68.6 69.0 1.7
4 1 8 60.5 60.0 2.6
-5 2 8 105.3 105.9 2.5
-4 2 8 27.9 29.2 4.5
-3 2 8 198.8 201.9 3.3
-2 2 8 56.1 56.7 2.0
-1 2 8 201.1 210.8 3.3
0 2 8 21.2 22.3 3.8
1 2 8 83.8 85.5 1.7
2 2 8 62.0 64.9 1.7
3 2 8 57.9 55.2 2.0
-5 3 8 63.0 65.3 3.6
-4 3 8 179.3 179.9 3.1
-3 3 8 109.3 109.7 2.1
-2 3 8 157.7 154.7 2.7
0 3 8 43.7 39.4 2.0
1 3 8 23.4 22.2 3.4
2 3 8 31.4 28.9 2.7
3 3 8 19.2 15.1 4.6
-4 4 8 120.2 121.6 2.4
-2 4 8 108.2 108.1 2.1
-1 4 8 127.9 128.0 2.2
0 4 8 75.2 73.9 1.7
1 4 8 70.6 70.4 1.6
2 4 8 60.1 59.5 1.9
3 4 8 107.9 105.6 2.0
4 4 8 31.1 32.4 4.1
-4 5 8 86.0 87.3 2.5
-3 5 8 97.7 98.0 2.2
-2 5 8 78.4 77.4 2.0
-1 5 8 150.9 150.3 2.5
0 5 8 77.5 75.8 1.7
1 5 8 52.9 51.7 1.9
2 5 8 151.3 150.4 2.5
3 5 8 47.4 48.6 2.3
4 5 8 90.6 94.4 3.4
-4 6 8 39.5 39.4 4.7
-2 6 8 40.2 39.7 2.7
-1 6 8 32.0 27.9 3.0
0 6 8 26.3 21.9 3.5
1 6 8 104.4 101.7 2.0
3 6 8 52.4 51.0 2.4
-4 7 8 71.4 73.6 3.4
-3 7 8 32.1 34.0 5.2
-2 7 8 38.6 39.6 3.3
-1 7 8 54.9 55.0 2.3
0 7 8 65.8 64.5 1.9
1 7 8 48.6 49.2 2.2
2 7 8 36.8 37.7 3.5
-3 8 8 54.4 59.1 4.0
-2 8 8 57.4 57.6 2.5
-1 8 8 84.3 84.4 2.1
0 8 8 88.3 88.0 2.1
1 8 8 53.6 53.2 2.4
2 8 8 40.3 48.0 6.7
-3 -8 9 39.4 39.1 6.2
-2 -8 9 41.9 36.2 2.9
-1 -8 9 31.2 29.1 3.8
0 -8 9 22.6 18.3 5.4
1 -8 9 35.0 32.8 3.6
-4 -7 9 30.0 37.3 5.9
-2 -7 9 44.7 42.8 2.3
0 -7 9 31.1 30.5 3.4
1 -7 9 83.9 84.9 1.9
2 -7 9 81.3 80.5 2.5
-4 -6 9 61.4 59.4 2.2
-3 -6 9 45.4 44.2 2.4
-2 -6 9 143.2 141.7 2.4
0 -6 9 171.2 169.8 2.8
2 -6 9 192.8 193.6 3.2
-5 -5 9 63.7 63.9 2.4
-3 -5 9 123.4 123.2 2.1
-2 -5 9 60.1 58.2 1.7
-1 -5 9 206.6 205.9 3.4
1 -5 9 109.3 106.9 2.1
2 -5 9 46.3 44.9 2.8
3 -5 9 101.8 101.3 2.2
-5 -4 9 98.6 95.1 2.1
-4 -4 9 96.3 95.0 1.9
-3 -4 9 95.4 92.4 1.8
-2 -4 9 31.3 30.0 2.2
-5 -3 9 42.5 41.1 2.6
-4 -3 9 99.9 97.9 1.9
-1 -3 9 33.7 32.8 2.3
0 -3 9 59.1 62.2 2.0
1 -3 9 80.4 85.1 1.7
2 -3 9 94.9 95.6 2.0
3 -3 9 39.4 39.4 3.5
4 -3 9 27.8 25.8 5.6
-6 -2 9 33.4 32.9 4.8
-5 -2 9 50.6 49.9 2.4
-4 -2 9 24.2 24.3 3.9
-3 -2 9 32.3 32.0 2.3
-2 -2 9 61.0 60.4 1.7
-1 -2 9 141.4 145.3 2.4
0 -2 9 30.0 31.6 3.0
1 -2 9 117.1 116.7 2.1
2 -2 9 20.9 19.5 4.9
3 -2 9 37.6 36.9 2.8
4 -2 9 76.5 76.1 2.4
-6 -1 9 89.0 90.4 2.7
-4 -1 9 148.3 147.6 2.5
-3 -1 9 23.1 25.8 3.7
-2 -1 9 270.2 270.3 4.4
-1 -1 9 21.4 23.1 4.8
0 -1 9 137.3 136.4 2.3
1 -1 9 114.6 113.8 2.1
3 -1 9 123.0 122.1 2.2
-5 0 9 178.6 182.4 3.1
-3 0 9 152.6 156.0 2.6
-2 0 9 59.1 60.6 2.1
-1 0 9 36.2 34.9 2.4
0 0 9 111.3 110.6 2.0
2 0 9 164.6 168.6 2.8
4 0 9 86.0 87.3 2.3
-6 1 9 69.9 71.4 3.3
-5 1 9 64.9 64.3 2.5
-2 1 9 115.7 115.1 2.1
-1 1 9 79.5 76.3 1.8
0 1 9 107.0 106.4 2.0
2 1 9 32.7 35.1 2.8
3 1 9 40.4 38.4 2.9
4 1 9 76.5 77.8 2.4
-6 2 9 54.3 55.5 8.9
-5 2 9 117.4 120.3 2.5
-4 2 9 27.6 26.2 4.2
-3 2 9 162.9 166.8 2.8
-2 2 9 38.3 36.2 2.5
-1 2 9 134.3 134.3 2.4
0 2 9 87.2 88.8 1.9
1 2 9 67.5 68.7 1.7
2 2 9 28.8 28.1 3.5
3 2 9 126.5 127.9 2.2
-4 3 9 86.3 87.8 2.1
-3 3 9 43.3 43.3 2.9
-2 3 9 56.6 54.5 2.3
-1 3 9 38.1 42.9 2.8
0 3 9 73.7 72.9 1.7
1 3 9 81.7 82.0 1.7
2 3 9 187.1 187.5 3.1
4 3 9 106.4 108.3 2.2
-5 4 9 46.1 45.4 5.5
-3 4 9 23.4 19.5 4.8
-2 4 9 27.5 29.5 3.4
-1 4 9 113.7 112.2 2.0
0 4 9 105.8 106.2 1.9
1 4 9 186.2 186.4 3.1
2 4 9 50.7 48.2 2.0
3 4 9 91.2 90.7 2.0
-4 5 9 76.0 77.1 2.5
-3 5 9 75.5 76.6 2.0
-2 5 9 170.9 170.1 2.9
-1 5 9 90.8 88.9 1.9
0 5 9 148.7 145.6 2.5
1 5 9 34.2 32.8 2.8
2 5 9 60.1 61.3 2.2
3 5 9 24.7 22.3 5.1
-4 6 9 96.9 98.9 2.6
-3 6 9 67.0 66.4 2.6
-2 6 9 83.3 84.2 2.0
0 6 9 27.6 23.8 3.4
1 6 9 22.3 19.8 4.9
3 6 9 30.0 33.8 5.1
-3 7 9 75.9 76.4 2.9
-2 7 9 79.3 79.2 2.1
-1 7 9 77.9 76.8 2.0
0 7 9 70.4 69.3 2.0
1 7 9 63.0 61.3 2.2
2 7 9 85.3 85.8 2.1
-2 8 9 56.0 54.3 2.8
-1 8 9 38.9 37.4 3.4
0 8 9 91.8 90.6 2.1
1 8 9 36.9 37.8 5.1
-2 -8 10 103.8 104.0 2.2
0 -8 10 85.8 84.4 2.1
-3 -7 10 73.2 68.7 2.0
-2 -7 10 23.5 26.4 5.0
-1 -7 10 70.2 70.5 1.9
0 -7 10 42.6 39.9 2.7
1 -7 10 24.3 21.6 5.8
2 -7 10 86.0 83.4 2.5
-4 -6 10 64.1 65.2 2.2
-2 -6 10 59.6 55.7 1.9
-1 -6 10 27.0 28.4 3.8
0 -6 10 21.7 20.7 4.9
-4 -5 10 45.8 42.6 2.6
-3 -5 10 39.9 37.9 2.5
3 -5 10 53.3 51.7 3.0
-5 -4 10 87.4 85.3 2.1
-4 -4 10 32.8 29.7 3.0
-3 -4 10 52.9 51.6 1.9
-2 -4 10 58.6 60.6 1.8
-1 -4 10 88.2 87.9 1.8
0 -4 10 101.7 104.8 2.1
1 -4 10 21.7 22.3 5.0
2 -4 10 145.4 144.8 2.5
3 -4 10 41.4 37.7 3.5
-5 -3 10 88.1 83.3 2.1
-4 -3 10 74.3 72.9 1.9
-3 -3 10 115.1 112.1 2.1
-2 -3 10 84.5 84.4 1.7
-1 -3 10 234.7 237.8 3.8
0 -3 10 20.1 16.7 4.3
1 -3 10 208.5 212.3 3.4
2 -3 10 35.9 39.1 2.9
3 -3 10 140.7 140.5 2.5
4 -3 10 27.8 28.3 6.3
-4 -2 10 94.0 93.3 1.9
-2 -2 10 127.4 127.8 2.2
-1 -2 10 93.9 95.2 1.9
0 -2 10 156.1 158.3 2.6
1 -2 10 78.8 78.9 1.7
2 -2 10 57.2 54.5 2.0
3 -2 10 47.2 44.0 2.7
-4 -1 10 94.4 94.1 2.1
-3 -1 10 65.7 66.4 1.8
-2 -1 10 155.3 158.7 2.6
-1 -1 10 59.4 58.4 2.0
0 -1 10 126.2 124.7 2.2
1 -1 10 30.5 25.4 2.7
2 -1 10 41.9 40.8 2.5
3 -1 10 60.0 57.1 2.3
4 -1 10 51.3 49.2 3.0
-5 0 10 37.8 37.5 4.0
-3 0 10 112.2 113.4 2.1
-2 0 10 64.6 65.1 1.7
-1 0 10 137.0 135.5 2.4
0 0 10 89.0 83.8 1.8
1 0 10 71.0 71.2 1.7
3 0 10 117.2 119.8 2.3
4 0 10 27.7 27.3 6.0
-5 1 10 43.8 42.5 3.3
-4 1 10 129.0 127.5 2.3
-2 1 10 145.2 146.0 2.5
0 1 10 114.4 115.1 2.1
1 1 10 22.2 21.8 4.1
2 1 10 83.0 84.1 2.0
-5 2 10 147.6 151.7 2.7
-3 2 10 125.0 124.4 2.3
-2 2 10 36.6 39.9 2.6
-1 2 10 123.9 123.2 2.2
1 2 10 89.5 91.3 1.9
2 2 10 118.0 122.8 2.2
3 2 10 36.2 32.7 3.6
4 2 10 117.7 120.7 2.5
-5 3 10 29.7 29.6 6.1
-4 3 10 69.1 68.8 2.4
-3 3 10 38.3 35.4 3.2
-2 3 10 65.3 64.5 1.8
-1 3 10 79.3 81.4 1.9
0 3 10 39.5 39.1 2.4
1 3 10 108.9 107.4 2.0
2 3 10 76.0 77.3 1.8
3 3 10 116.4 118.4 2.2
-4 4 10 58.3 56.4 2.8
-3 4 10 42.1 38.7 2.8
-2 4 10 33.5 34.5 3.5
-1 4 10 120.8 120.2 2.2
0 4 10 24.4 19.7 4.0
1 4 10 145.1 147.2 2.5
2 4 10 24.6 15.8 4.6
3 4 10 64.9 60.4 2.2
-4 5 10 58.5 59.6 3.1
-3 5 10 33.0 29.7 4.0
-2 5 10 103.5 105.2 2.1
-1 5 10 47.6 48.9 2.3
0 5 10 125.1 124.5 2.2
1 5 10 44.9 42.3 2.6
2 5 10 108.4 107.9 2.1
3 5 10 82.8 85.2 2.3
-3 6 10 25.4 23.8 6.2
-1 6 10 84.6 82.6 2.0
0 6 10 38.7 39.4 3.0
1 6 10 69.6 66.8 2.0
-2 7 10 96.0 95.4 2.3
-1 7 10 39.6 42.1 3.5
0 7 10 83.5 82.3 2.1
1 7 10 67.6 68.5 2.2
-1 8 10 73.9 72.1 2.4
0 8 10 86.3 85.0 3.6
-3 -7 11 111.7 109.5 2.6
-2 -7 11 78.2 77.5 2.1
-1 -7 11 75.5 73.9 2.0
0 -7 11 38.5 34.1 3.3
1 -7 11 65.2 64.8 2.8
-4 -6 11 153.3 151.0 3.1
-3 -6 11 27.5 24.1 4.2
-2 -6 11 126.4 124.7 2.2
-1 -6 11 21.0 11.9 4.9
0 -6 11 116.1 116.3 2.2
1 -6 11 25.2 26.0 5.7
2 -6 11 146.9 146.3 2.6
-4 -5 11 27.6 26.0 4.1
-3 -5 11 65.3 63.0 1.9
-2 -5 11 34.2 29.8 3.1
-1 -5 11 125.4 127.4 2.2
1 -5 11 94.2 95.2 2.2
2 -5 11 55.4 54.6 2.7
-4 -4 11 20.9 24.0 5.2
-2 -4 11 41.5 40.9 2.3
-1 -4 11 43.5 43.3 2.5
0 -4 11 59.1 59.8 2.1
1 -4 11 35.1 34.6 2.9
3 -4 11 41.8 41.2 3.8
-5 -3 11 28.2 22.8 4.8
-4 -3 11 46.4 47.3 2.4
-3 -3 11 43.8 42.5 2.2
-2 -3 11 77.5 77.4 1.8
1 -3 11 33.1 28.9 3.0
3 -3 11 39.5 38.3 3.7
-5 -2 11 97.5 95.6 2.3
-4 -2 11 30.3 27.9 4.0
-3 -2 11 92.9 93.7 2.0
-2 -2 11 20.7 16.0 5.1
-1 -2 11 24.3 23.4 3.7
0 -2 11 82.5 85.6 1.8
2 -2 11 33.5 37.2 3.1
-4 -1 11 109.8 108.5 2.2
-3 -1 11 109.9 109.6 2.1
-2 -1 11 20.7 17.1 4.8
-1 -1 11 147.9 151.4 2.5
0 -1 11 19.1 17.8 3.8
1 -1 11 112.7 113.0 2.1
3 -1 11 167.5 169.2 2.8
-5 0 11 60.0 59.4 2.8
-4 0 11 110.6 113.2 2.3
-2 0 11 97.4 98.3 1.8
-1 0 11 18.9 17.5 3.9
0 0 11 109.9 105.0 2.0
2 0 11 199.1 201.2 3.3
-5 1 11 29.4 24.1 5.4
-4 1 11 83.1 82.8 2.1
-2 1 11 41.8 42.1 2.3
-1 1 11 42.2 36.6 2.0
0 1 11 63.0 61.4 1.7
1 1 11 79.4 79.2 2.0
2 1 11 57.4 61.1 2.2
3 1 11 29.4 20.8 5.1
-5 2 11 44.2 44.2 4.0
-4 2 11 70.9 72.7 2.3
-3 2 11 63.0 62.2 2.1
-1 2 11 118.2 117.4 2.1
1 2 11 118.2 122.8 2.2
3 2 11 74.2 76.0 2.6
-4 3 11 94.2 94.8 2.2
-2 3 11 110.3 109.2 2.1
-1 3 11 36.0 35.8 3.5
0 3 11 103.0 108.7 2.0
2 3 11 72.3 72.6 2.0
3 3 11 37.6 36.2 3.6
-5 4 11 117.7 121.6 4.4
-4 4 11 51.4 54.0 3.1
-3 4 11 108.2 106.1 2.2
-2 4 11 41.0 39.0 2.9
-1 4 11 100.3 103.4 2.1
1 4 11 92.0 95.0 2.0
3 4 11 47.5 45.1 3.3
-4 5 11 81.6 84.0 2.7
-2 5 11 86.7 86.5 2.2
-1 5 11 34.0 25.8 4.1
0 5 11 58.7 58.1 2.1
1 5 11 21.0 18.3 5.0
2 5 11 29.1 24.6 4.3
-2 6 11 54.0 55.4 3.0
0 6 11 27.7 25.9 4.4
1 6 11 47.4 44.0 2.9
-2 7 11 54.0 52.9 3.5
-1 7 11 73.8 71.6 2.2
0 7 11 91.3 91.8 2.2
-2 -7 12 63.2 63.8 4.2
0 -7 12 48.8 51.1 4.3
-3 -6 12 27.2 31.4 4.9
-2 -6 12 54.9 52.8 2.3
1 -6 12 43.6 43.0 3.8
-1 -5 12 38.9 38.6 2.9
0 -5 12 75.1 76.5 2.0
1 -5 12 103.2 103.4 2.1
2 -5 12 104.9 108.6 2.4
-4 -4 12 43.7 42.5 2.8
-3 -4 12 27.0 24.6 3.9
-2 -4 12 144.4 146.3 2.5
-1 -4 12 72.7 73.1 2.0
0 -4 12 184.9 191.6 3.1
2 -4 12 92.7 92.8 2.1
-5 -3 12 108.1 104.4 3.1
-3 -3 12 173.3 173.0 2.9
-1 -3 12 198.9 206.1 3.3
0 -3 12 50.1 52.9 2.1
1 -3 12 65.3 61.2 2.1
2 -3 12 103.1 102.0 2.1
3 -3 12 60.2 58.7 2.8
-4 -2 12 130.8 131.1 2.4
-3 -2 12 42.2 42.3 2.6
-2 -2 12 64.6 66.7 2.1
-1 -2 12 27.7 31.6 3.8
2 -2 12 32.1 33.9 3.6
-5 -1 12 28.5 25.3 5.5
-4 -1 12 54.3 52.3 2.8
-2 -1 12 51.4 52.0 2.1
-1 -1 12 23.0 17.0 4.3
0 -1 12 43.3 44.1 2.4
2 -1 12 83.3 80.0 2.0
3 -1 12 25.9 17.8 5.2
-5 0 12 56.6 55.8 2.9
-4 0 12 22.6 24.9 5.5
-3 0 12 85.2 85.4 1.9
-2 0 12 83.4 82.7 1.9
-1 0 12 128.2 125.5 2.3
0 0 12 22.7 14.5 4.3
1 0 12 53.4 52.1 2.0
2 0 12 31.6 31.3 3.5
-5 1 12 54.9 56.8 3.1
-4 1 12 125.4 126.2 2.3
-3 1 12 24.3 22.4 4.2
-2 1 12 95.0 94.1 1.9
-1 1 12 22.0 20.6 4.2
0 1 12 51.1 49.7 2.0
1 1 12 97.3 101.1 2.0
2 1 12 57.5 58.0 2.6
3 1 12 109.9 111.3 2.4
-5 2 12 124.6 126.3 2.6
-3 2 12 87.3 85.7 2.0
-2 2 12 109.7 106.9 2.0
0 2 12 176.7 177.0 3.0
2 2 12 141.3 145.4 2.5
-3 3 12 89.4 86.8 2.1
-1 3 12 142.3 145.9 2.5
0 3 12 30.7 31.2 3.6
1 3 12 49.2 48.2 2.6
-3 4 12 70.8 70.1 2.3
-1 4 12 82.9 82.8 2.3
0 4 12 44.6 44.3 2.8
1 4 12 111.4 117.2 2.2
2 4 12 32.1 27.3 3.7
-4 5 12 51.1 56.4 4.3
-3 5 12 49.7 47.9 3.2
-2 5 12 94.2 97.5 2.3
-1 5 12 31.9 34.1 4.1
0 5 12 130.5 133.5 2.4
2 5 12 115.0 124.3 3.2
-3 6 12 81.3 82.9 2.6
-2 6 12 63.8 64.1 2.8
-1 6 12 137.7 140.6 2.6
0 6 12 40.2 41.2 3.2
1 6 12 64.5 73.4 3.3
-2 -6 13 116.4 117.0 2.3
0 -6 13 78.3 80.8 2.5
-3 -5 13 78.4 72.5 2.1
-1 -5 13 34.8 37.5 4.4
0 -5 13 79.3 80.7 2.3
-4 -4 13 56.2 58.0 2.8
2 -4 13 29.7 27.3 5.8
-1 -3 13 34.1 34.9 3.9
1 -3 13 26.7 28.4 4.2
2 -3 13 51.0 51.2 2.8
-4 -2 13 29.2 29.6 5.4
-1 -2 13 31.4 29.2 3.2
0 -2 13 73.6 70.3 2.0
1 -2 13 82.3 82.1 2.0
2 -2 13 133.8 131.2 2.4
-4 -1 13 39.4 38.5 4.1
-3 -1 13 107.5 106.7 2.1
-1 -1 13 169.3 166.2 2.8
0 -1 13 20.4 20.9 4.9
1 -1 13 187.2 183.8 3.1
-4 0 13 131.8 128.4 2.4
-3 0 13 36.4 33.4 3.3
-2 0 13 143.5 141.4 2.5
0 0 13 154.5 151.1 2.6
1 0 13 31.2 34.5 3.5
2 0 13 81.7 79.1 2.2
-4 1 13 69.5 68.7 2.5
-3 1 13 31.9 32.6 3.8
-2 1 13 56.4 59.0 2.1
-1 1 13 27.9 26.0 3.5
2 1 13 47.4 45.6 3.0
-3 2 13 59.5 61.3 2.4
-1 2 13 90.0 85.5 1.9
1 2 13 110.1 108.2 2.2
-4 3 13 58.6 59.9 3.0
-2 3 13 70.3 69.7 2.1
-1 3 13 53.5 51.4 2.4
0 3 13 106.6 108.7 2.2
1 3 13 25.9 23.2 5.5
-3 4 13 104.3 103.9 2.3
-1 4 13 65.3 64.3 2.4
0 4 13 65.0 66.4 2.5
-2 5 13 51.8 51.3 3.2
-1 5 13 105.9 106.9 2.4
0 5 13 33.5 39.4 4.3
-1 6 13 65.5 69.9 4.5
-2 -5 14 99.2 102.3 2.3
-1 -5 14 61.3 63.5 2.8
0 -5 14 52.8 58.9 3.5
-2 -4 14 118.9 121.5 2.4
0 -4 14 91.8 94.7 2.1
1 -4 14 51.3 55.6 3.4
-3 -3 14 101.7 103.6 2.3
-2 -3 14 60.6 63.6 2.6
-1 -3 14 98.3 102.5 2.0
0 -3 14 57.0 51.1 2.5
1 -3 14 86.1 84.9 2.1
-4 -2 14 60.0 61.4 3.0
-2 -2 14 35.4 35.6 3.3
-4 -1 14 43.3 44.0 3.3
-3 -1 14 39.4 35.6 3.3
-2 -1 14 55.9 52.4 2.2
0 -1 14 29.2 26.2 3.7
1 -1 14 46.9 43.1 2.9
-4 0 14 54.5 51.3 2.7
-1 0 14 34.9 30.2 3.3
0 0 14 73.9 70.7 2.0
1 0 14 48.8 44.6 2.7
2 0 14 72.6 74.4 2.4
-4 1 14 26.3 26.6 5.8
-3 1 14 80.5 79.0 2.2
-1 1 14 119.9 118.3 2.2
1 1 14 119.8 118.5 2.3
-4 2 14 120.6 121.8 2.5
-3 2 14 48.5 45.2 3.0
-2 2 14 140.2 138.4 2.5
-1 2 14 33.5 22.1 3.4
0 2 14 156.6 158.3 2.7
1 2 14 35.6 33.3 4.2
-3 3 14 55.2 52.9 2.7
-1 3 14 82.4 80.1 2.1
0 3 14 28.8 28.9 5.2
-3 4 14 83.2 85.8 2.6
-1 4 14 96.4 101.8 2.4
0 4 14 35.9 38.4 4.6
-2 -3 15 65.0 65.9 2.6
-1 -3 15 33.4 35.2 3.6
0 -3 15 134.9 137.0 2.5
-3 -2 15 60.1 60.3 2.6
-2 -2 15 99.4 98.0 2.1
-1 -2 15 77.8 77.9 2.1
0 -2 15 82.1 80.7 2.1
-3 -1 15 140.6 144.5 2.5
-2 -1 15 51.1 45.7 2.6
-1 -1 15 97.2 94.0 2.1
0 -1 15 74.6 71.2 2.1
1 -1 15 90.0 88.4 2.2
-3 0 15 50.8 45.8 2.8
-2 0 15 33.1 30.4 3.9
-1 0 15 49.6 47.2 2.8
0 0 15 68.2 65.6 2.2
-2 1 15 83.0 79.7 2.1
-1 1 15 73.1 68.6 2.2
0 1 15 57.3 57.7 2.5
-3 2 15 83.0 80.0 2.4
-2 2 15 55.5 53.9 2.5
-1 2 15 77.7 77.9 2.0
-1 3 15 58.8 55.1 2.5
0 3 15 36.5 37.6 4.7
-2 0 16 48.2 47.5 4.5
-1 0 16 61.9 58.5 2.9
-1 1 16 155.1 157.4 3.2
