#------------------------------------------------------------------------------
#$Date: 2016-03-23 15:18:08 +0200 (Wed, 23 Mar 2016) $
#$Revision: 179321 $
#$URL: svn://www.crystallography.net/cod/cif/4/32/18/4321812.cif $
#------------------------------------------------------------------------------
#
# This file is available in the Crystallography Open Database (COD),
# http://www.crystallography.net/
#
# All data on this site have been placed in the public domain by the
# contributors.
#
data_4321812
loop_
_publ_author_name
'Fred B. Stocker'
'Teodora P. Staeva'
'Chad M. Rienstra'
'Doyle Britton'
_publ_contact_author
;
Fred Stocker
Department of Chemistry
Macalester College
St. Paul, MN 55105
;
_publ_contact_author_email       stocker@macalester.edu
_publ_contact_author_fax         612-696-6432
_publ_contact_author_phone       612-696-6351
_publ_section_title
;
 Crystal Structures of a Series of Complexes Produced by Reaction of
 Copper(I) Cyanide with Diamines
;
_journal_name_full               'Inorganic Chemistry'
_journal_page_first              984
_journal_page_last               991
_journal_paper_doi               10.1021/ic970226b
_journal_volume                  38
_journal_year                    1999
_chemical_compound_source        systhesis
_chemical_formula_sum            'C9 H13 Cu2 N5'
_chemical_formula_weight         318.33
_chemical_name_systematic
' hydrogen cyanide/copper(I) cyanide/diazobicyclooctane complex'
_space_group_IT_number           173
_symmetry_cell_setting           hexagonal
_symmetry_space_group_name_Hall  'P 6c'
_symmetry_space_group_name_H-M   'P 63'
_cell_angle_alpha                90
_cell_angle_beta                 90
_cell_angle_gamma                120
_cell_formula_units_Z            2
_cell_length_a                   8.714(3)
_cell_length_b                   8.714(3)
_cell_length_c                   8.083(4)
_cell_measurement_reflns_used    25
_cell_measurement_temperature    297
_cell_measurement_theta_max      25
_cell_measurement_theta_min      10
_cell_volume                     531.5(4)
_computing_cell_refinement       CAD-4
_computing_data_collection       CAD-4
_computing_data_reduction        TEXSAN
_computing_molecular_graphics    TEXSAN
_computing_structure_refinement  TEXSAN
_computing_structure_solution    TEXSAN
_diffrn_ambient_temperature      297
_diffrn_measurement_device       'CAD-4 diffractometer'
_diffrn_measurement_method       'omega scans'
_diffrn_radiation_monochromator  graphite
_diffrn_radiation_source         'X-ray tube'
_diffrn_radiation_type           'Mo K alpha'
_diffrn_radiation_wavelength     0.71073
_diffrn_reflns_av_R_equivalents  0.037
_diffrn_reflns_limit_h_max       12
_diffrn_reflns_limit_h_min       -12
_diffrn_reflns_limit_k_max       12
_diffrn_reflns_limit_k_min       -12
_diffrn_reflns_limit_l_max       11
_diffrn_reflns_limit_l_min       0
_diffrn_reflns_number            3300
_diffrn_reflns_theta_max         30.0
_diffrn_reflns_theta_min         0
_diffrn_standards_decay_%        <1%
_diffrn_standards_interval_time  '60 min'
_diffrn_standards_number         3
_exptl_absorpt_coefficient_mu    39.91
_exptl_absorpt_correction_T_max  1.00
_exptl_absorpt_correction_T_min  0.93
_exptl_absorpt_correction_type   psi-scan
_exptl_crystal_colour            colorless
_exptl_crystal_density_diffrn    1.989
_exptl_crystal_density_meas      ?
_exptl_crystal_description       prism
_exptl_crystal_F_000             320
_exptl_crystal_size_max          0.40
_exptl_crystal_size_mid          0.10
_exptl_crystal_size_min          0.10
_refine_diff_density_max         1.35
_refine_diff_density_min         -1.57
_refine_ls_abs_structure_details 'enantiomer that gave lower wR reported'
_refine_ls_extinction_method     none
_refine_ls_goodness_of_fit_obs   1.76
_refine_ls_hydrogen_treatment
'at idealized positions with B = 1.2 B of attached atom'
_refine_ls_matrix_type           full
_refine_ls_number_reflns         560
_refine_ls_R_factor_obs          0.030
_refine_ls_shift/esd_max         0.01
_refine_ls_structure_factor_coef F
_refine_ls_weighting_details     'w = 1/(sigma squared F)'
_refine_ls_weighting_scheme      calc
_refine_ls_wR_factor_obs         0.038
_reflns_number_observed          485
_reflns_number_total             560
_reflns_observed_criterion       I>2sigma(I)
_cod_data_source_file            ic970226b_2.cif
_cod_data_source_block           2-dabcoH
_cod_depositor_comments
;
The following automatic conversions were performed:

'_exptl_crystal_density_meas' value 'not measured' was changed to '?'
- the value is perceived as not measured.

Automatic conversion script
Id: cif_fix_values 3008 2015-01-20 13:52:24Z robertas 

The following automatic conversions were performed:

'_refine_ls_weighting_scheme' value 'w = 1/(sigma squared F)' was
changed to 'calc'. New tag '_refine_ls_weighting_details' was
created. The value of the new tag was set to 'w = 1/(sigma squared
F)'.

Automatic conversion script
Id: cif_fix_values 3143 2015-03-26 13:38:13Z robertas 
;
_cod_original_cell_volume        531.5(6)
_cod_database_code               4321812
loop_
_symmetry_equiv_pos_as_xyz
'x, y, z'
'-y, x-y, z'
'-x+y, -x, z'
'-x, -y, z+1/2'
'x-y, x, z+1/2'
'y, -x+y, z+1/2'
loop_
_atom_site_aniso_label
_atom_site_aniso_U_11
_atom_site_aniso_U_22
_atom_site_aniso_U_33
_atom_site_aniso_U_12
_atom_site_aniso_U_13
_atom_site_aniso_U_23
CU1 0.0225(3) 0.0225 0.0429(6) 0.0112 0 0
CU2 0.0244(3) 0.0244 0.0200(4) 0.0122 0 0
C1N 0.020(2) 0.017(2) 0.040(2) 0.009(1) -0.003(2) -0.000(2)
N2C 0.025(2) 0.023(2) 0.027(2) 0.014(2) -0.002(2) -0.000(2)
N11 0.016(2) 0.016 0.010(3) 0.008 0 0
C12 0.020(2) 0.020(2) 0.017(2) 0.002(2) 0.001(2) -0.000(2)
C13 0.020(2) 0.028(2) 0.019(3) 0.005(2) 0.001(2) 0.004(2)
N14 0.027(2) 0.027 0.008(3) 0.013 0 0
loop_
_atom_site_label
_atom_site_fract_x
_atom_site_fract_y
_atom_site_fract_z
_atom_site_U_iso_or_equiv
CU1 0 0 0 2.31(3)
CU2 0.66667 0.33333 0.0725 1.81(2)
C1N 0.2585(5) 0.1129(5) 0.0072(9) 2.1(1)
N2C 0.4104(5) 0.1877(5) 0.0209(7) 1.9(1)
N11 0.66667 0.33333 0.3493(8) 1.1(1)
C12 0.5027(6) 0.1809(6) 0.4118(6) 1.8(1)
C13 0.4980(7) 0.1792(7) 0.6018(6) 2.0(2)
N14 0.66667 0.33333 0.6647(8) 1.6(1)
H1 0.4040 0.1876 0.3709 2.1
H2 0.4962 0.0747 0.3736 2.1
loop_
_atom_type_symbol
_atom_type_description
_atom_type_scat_dispersion_real
_atom_type_scat_dispersion_imag
_atom_type_scat_source
H H 0.000 0.000 'International Tables Vol IV Table 2.2A'
C C 0.002 0.002 'International Tables Vol IV Tables 2.2A and 2.3.1'
N N 0.004 0.003 'International Tables Vol IV Tables 2.2A and 2.3.1'
Cu Cu 0.263 1.266 'International Tables Vol IV Tables 2.2A and 2.3.1'
loop_
_diffrn_standard_refln_index_h
_diffrn_standard_refln_index_k
_diffrn_standard_refln_index_l
? ? ?
loop_
_geom_angle_atom_site_label_1
_geom_angle_atom_site_label_2
_geom_angle_atom_site_label_3
_geom_angle
N1C CU1 N1C 119.91(2)
N2C CU2 N2C 115.7(1)
N2C CU2 N11 102.1(2)
CU1 C1N N2C 174.7(3)
CU2 N2C C1N 171.7(6)
CU2 N11 C12 110.1(3)
C12 N11 C12 108.9(3)
N11 C12 C13 111.2(5)
C12 C13 N14 108.7(4)
C13 N14 C13 109.1(3)
loop_
_geom_bond_atom_site_label_1
_geom_bond_atom_site_label_2
_geom_bond_distance
CU1 C1N 1.957(4)
CU2 N2C 1.984(4)
CU2 N11 2.238(6)
C1N N2C 1.151(6)
N11 C12 1.470(5)
C12 C13 1.537(6)
C13 N14 1.499(5)
