#------------------------------------------------------------------------------
#$Date: 2016-03-23 15:42:34 +0200 (Wed, 23 Mar 2016) $
#$Revision: 179343 $
#$URL: svn://www.crystallography.net/cod/cif/4/32/40/4324036.cif $
#------------------------------------------------------------------------------
#
# This file is available in the Crystallography Open Database (COD),
# http://www.crystallography.net/
#
# All data on this site have been placed in the public domain by the
# contributors.
#
data_4324036
loop_
_publ_author_name
'Hidetaka Yuge'
'Yohsuke Noda'
'Toschitake Iwamoto'
_publ_section_title
;
 Variations in Catenation Behavior in Aromatic Guest Clathrates Containing
 Rigid Host Entitiesp-Xylylenediamine (p-xda) and Tetracyanonickelate(II)
 Linking Octahedral Cadmium(II) in [Cd(p-xda)nNi(CN)4] Host (n= 1, 1.5, or
 2) and the Related Complex [Cd(C6H5NH2)2(p-xda)Ni(CN)4]
;
_journal_name_full               'Inorganic Chemistry'
_journal_page_first              1842
_journal_page_last               1848
_journal_paper_doi               10.1021/ic950382n
_journal_volume                  35
_journal_year                    1996
_chemical_formula_moiety         '(C4 N4 Ni), (C8 H14 N2)'
_chemical_formula_sum            'C12 H14 N6 Ni'
_chemical_formula_weight         300.98
_space_group_IT_number           2
_symmetry_cell_setting           triclinic
_symmetry_space_group_name_Hall  '-P 1'
_symmetry_space_group_name_H-M   'P -1'
_cell_angle_alpha                90.89(2)
_cell_angle_beta                 101.49(2)
_cell_angle_gamma                70.92(2)
_cell_formula_units_Z            1
_cell_length_a                   7.392(3)
_cell_length_b                   7.921(2)
_cell_length_c                   6.247(1)
_cell_measurement_reflns_used    25
_cell_measurement_temperature    293
_cell_measurement_theta_max      17.48
_cell_measurement_theta_min      16.70
_cell_volume                     338.27(18)
_diffrn_measurement_device       'RIGAKU AFC5R diffractometer'
_diffrn_measurement_method       '2\q-\w scans'
_diffrn_radiation_type           'Mo K\a'
_diffrn_radiation_wavelength     0.70926
_diffrn_reflns_av_R_equivalents  0.009
_diffrn_reflns_limit_h_max       10
_diffrn_reflns_limit_h_min       0
_diffrn_reflns_limit_k_max       11
_diffrn_reflns_limit_k_min       -10
_diffrn_reflns_limit_l_max       8
_diffrn_reflns_limit_l_min       -8
_diffrn_reflns_number            2176
_diffrn_reflns_theta_max         30.00
_diffrn_standards_decay_%        0.0
_diffrn_standards_interval_count 200
_diffrn_standards_number         3
_exptl_absorpt_coefficient_mu    1.434
_exptl_absorpt_correction_type   none
_exptl_crystal_colour            yellow
_exptl_crystal_density_diffrn    1.48
_exptl_crystal_density_meas      1.46(1)
_exptl_crystal_density_method    'flotation in mesitylene-bromoform'
_exptl_crystal_description       plate-like
_exptl_crystal_size_max          0.26
_exptl_crystal_size_mid          0.20
_exptl_crystal_size_min          0.18
_refine_diff_density_max         0.68
_refine_diff_density_min         -0.76
_refine_ls_extinction_method     none
_refine_ls_goodness_of_fit_obs   2.171
_refine_ls_hydrogen_treatment    refall
_refine_ls_number_parameters     116
_refine_ls_number_reflns         1646
_refine_ls_R_factor_obs          0.0507
_refine_ls_shift/esd_max         0.000
_refine_ls_structure_factor_coef F
_refine_ls_weighting_details     w=1/(\s^2^(Fo)+0.00005Fo^2^)
_refine_ls_weighting_scheme      calc
_refine_ls_wR_factor_obs         0.0456
_reflns_number_observed          1646
_reflns_number_total             1890
_reflns_observed_criterion       >4sigma(F)
_cod_data_source_file            ic950382n_7.cif
_cod_data_source_block           compound_(6)
_cod_depositor_comments
;
The following automatic conversions were performed:

'_refine_ls_weighting_scheme' value 'calc
w=1/(\s^2^(Fo)+0.00005Fo^2^)' was changed to 'calc'. New tag
'_refine_ls_weighting_details' was created. The value of the new tag
was set to 'w=1/(\s^2^(Fo)+0.00005Fo^2^)'.

Automatic conversion script
Id: cif_fix_values 3143 2015-03-26 13:38:13Z robertas 
;
_cod_original_cell_volume        338.2(2)
_cod_database_code               4324036
loop_
_symmetry_equiv_pos_as_xyz
+x,+y,+z
-x,-y,-z
loop_
_atom_site_aniso_label
_atom_site_aniso_U_11
_atom_site_aniso_U_22
_atom_site_aniso_U_33
_atom_site_aniso_U_12
_atom_site_aniso_U_13
_atom_site_aniso_U_23
Ni .0298(3) .0242(3) .0257(3) -.0027(2) .0010(2) .0021(2)
N(1) .037(2) .045(2) .047(2) -.003(1) .001(1) .016(1)
N(2) .052(2) .035(1) .037(1) -.001(1) -.000(1) -.004(1)
C(1) .029(2) .035(2) .031(2) -.008(1) .004(1) .000(1)
C(2) .031(2) .029(2) .031(2) .002(1) .002(1) .004(1)
N(3) .035(2) .028(1) .035(1) -.005(1) -.000(1) .008(1)
C(3) .044(2) .031(2) .037(2) .001(2) .009(2) .010(1)
C(4) .035(2) .028(1) .033(2) -.002(1) .010(1) .008(1)
C(5) .037(2) .037(2) .032(2) -.008(1) .000(1) .009(1)
C(6) .045(2) .031(2) .036(2) -.006(2) .007(2) .004(1)
loop_
_atom_site_label
_atom_site_fract_x
_atom_site_fract_y
_atom_site_fract_z
_atom_site_U_iso_or_equiv
_atom_site_thermal_displace_type
Ni .5 .5 .5 .0288(2) Uani
N(1) .2182(4) .8064(4) .1959(5) .047(1) Uani
N(2) .4417(4) .2356(3) .1681(4) .046(1) Uani
C(1) .3267(4) .6886(4) .3079(5) .033(1) Uani
C(2) .4638(4) .3374(4) .2929(5) .034(1) Uani
N(3) .2101(4) .0827(4) .8555(4) .035(1) Uani
C(3) .2448(6) .1369(4) .6441(6) .041(1) Uani
C(4) .1174(4) .3254(4) .5709(5) .034(1) Uani
C(5) .1314(5) .4665(4) .6960(5) .038(1) Uani
C(6) .0147(5) .6398(4) .6260(5) .039(1) Uani
H(1) .071(6) .113(5) .848(6) .057(11) Uiso
H(2) .256(5) .138(5) .969(6) .054(11) Uiso
H(3) .266(5) -.038(5) .886(5) .052(10) Uiso
H(4) .382(6) .121(5) .666(6) .055(11) Uiso
H(5) .218(5) .048(5) .539(5) .050(10) Uiso
H(6) .223(5) .450(4) .821(5) .041(9) Uiso
H(7) .020(5) .741(4) .712(5) .042(9) Uiso
loop_
_geom_angle_atom_site_label_1
_geom_angle_atom_site_label_2
_geom_angle_atom_site_label_3
_geom_angle
_geom_angle_site_symmetry_1
_geom_angle_site_symmetry_2
_geom_angle_site_symmetry_3
C(1) Ni C(2) 90.2(1) . . .
Ni C(1) N(1) 177.9(3) . . .
Ni C(2) N(2) 179.0(3) . . .
N(3) C(3) C(4) 111.1(3) . . .
C(3) C(4) C(5) 121.1(3) . . .
C(4) C(5) C(6) 120.7(3) . . .
C(5) C(6) C(4) 120.7(3) . . 2_566
C(3) N(3) H(1) 110(2) . . .
C(3) N(3) H(2) 113(2) . . .
C(3) N(3) H(3) 112(2) . . .
H(1) N(3) H(2) 107(3) . . .
H(1) N(3) H(3) 108(3) . . .
H(2) N(3) H(3) 108(3) . . .
N(3) C(3) H(4) 107(2) . . .
N(3) C(3) H(5) 106(2) . . .
C(4) C(3) H(4) 113(2) . . .
C(4) C(3) H(5) 113(2) . . .
H(4) C(3) H(5) 108(3) . . .
C(4) C(5) H(6) 121(2) . . .
C(6) C(5) H(6) 118(2) . . .
C(5) C(6) H(7) 122(2) . . .
C(4) C(6) H(7) 117(2) 2_566 . .
loop_
_geom_bond_atom_site_label_1
_geom_bond_atom_site_label_2
_geom_bond_distance
_geom_bond_site_symmetry_1
_geom_bond_site_symmetry_2
Ni C(1) 1.872(3) . .
Ni C(2) 1.855(3) . .
C(1) N(1) 1.145(4) . .
C(2) N(2) 1.141(4) . .
N(3) C(3) 1.489(4) . .
C(3) C(4) 1.502(4) . .
C(4) C(5) 1.373(4) . .
C(5) C(6) 1.383(4) . .
C(6) C(4) 1.378(4) . 2_566
N(3) H(1) 0.97(4) . .
N(3) H(2) 0.89(4) . .
N(3) H(3) 0.92(4) . .
C(3) H(4) 0.96(4) . .
C(3) H(5) 1.00(3) . .
C(5) H(6) 0.91(3) . .
C(6) H(7) 0.97(3) . .
loop_
_geom_contact_atom_site_label_1
_geom_contact_atom_site_label_2
_geom_contact_distance
_geom_contact_site_symmetry_1
_geom_contact_site_symmetry_2
N(3) N(1) 2.947(4) . 2_566
N(3) N(2) 2.857(4) . 1_556
N(3) N(1) 3.053(4) . 1_546
N(3) N(2) 2.983(4) . 2_656
H(1) N(1) 1.99(4) . 2_566
H(2) N(2) 2.01(4) . 1_556
H(3) N(1) 2.45(4) . 1_546
H(3) N(2) 2.30(3) . 2_656
