#------------------------------------------------------------------------------
#$Date: 2016-02-16 22:30:59 +0200 (Tue, 16 Feb 2016) $
#$Revision: 176467 $
#$URL: svn://www.crystallography.net/cod/cif/4/32/53/4325322.cif $
#------------------------------------------------------------------------------
#
# This file is available in the Crystallography Open Database (COD),
# http://www.crystallography.net/
#
# All data on this site have been placed in the public domain by the
# contributors.
#
data_4325322
loop_
_publ_author_name
'Charles J. Simmons'
'Horst Stratemeier'
'Michael A. Hitchman'
'Dirk Reinen'
'Vanessa M. Masters'
'Mark J. Riley'
_publ_contact_author_address
;Dr. Charles J. Simmons
Chemistry Department
University of Hawaii at Hilo
200 W. Kawili Street
Hilo, Hawaii 96720
;
_publ_contact_author_email       ' simmonsc@hawaii.edu'
_publ_contact_author_fax         808-974-7693
_publ_contact_author_name        'Dr. Charles J. Simmons'
_publ_contact_author_phone       '808-974-7317 '
_publ_section_title
;
 Temperature Dependence of the Crystal Structure and g-Values of
 trans-Diaquabis(methoxyacetato)Copper(II): Evidence for a Thermal
 Equilibrium Between Complexes with tetragonally Elongated and Compressed
 Geometries
;
_journal_name_full               'Inorganic Chemistry'
_journal_page_first              4900
_journal_page_last               4916
_journal_paper_doi               10.1021/ic200554f
_journal_volume                  50
_journal_year                    2011
_chemical_formula_moiety         'C6 H14 O8 Ni '
_chemical_formula_sum            'C6 H14 Ni O8'
_chemical_formula_weight         272.87
_space_group_IT_number           14
_symmetry_cell_setting           monoclinic
_symmetry_Int_Tables_number      14
_symmetry_space_group_name_Hall  '-P 2yn'
_symmetry_space_group_name_H-M   'P 1 21/n 1'
_cell_angle_alpha                90
_cell_angle_beta                 98.2997(12)
_cell_angle_gamma                90
_cell_formula_units_Z            2
_cell_length_a                   6.92840(10)
_cell_length_b                   9.9899(2)
_cell_length_c                   7.18800(10)
_cell_measurement_reflns_used    4710
_cell_measurement_temperature    250
_cell_measurement_theta_max      36.31
_cell_measurement_theta_min      2.04
_cell_volume                     492.300(14)
_computing_cell_refinement       'HKL Scalepack'
_computing_data_collection       'KappaCCD Server Software'
_computing_data_reduction        'HKL Denzo and Scalepack'
_computing_publication_material  'teXsan for Windows v. 1.06 MSC'
_computing_structure_refinement  'teXsan for Windows v. 1.06 MSC'
_computing_structure_solution
;
SIR92 (Altomare, et. al. 1994)
;
_diffrn_ambient_temperature      250
_diffrn_measured_fraction_theta_full 0.999
_diffrn_measured_fraction_theta_max 0.999
_diffrn_measurement_device       'Rigaku AFC7'
_diffrn_measurement_method       \w-2\q
_diffrn_radiation_detector       'scintillation counter'
_diffrn_radiation_monochromator  graphite
_diffrn_radiation_source         'Rigaku rotating anode'
_diffrn_radiation_type           'Mo K\a'
_diffrn_radiation_wavelength     0.7107
_diffrn_reflns_av_R_equivalents  0.01213
_diffrn_reflns_av_sigmaI/netI    0.038
_diffrn_reflns_limit_h_max       11
_diffrn_reflns_limit_h_min       -11
_diffrn_reflns_limit_k_max       15
_diffrn_reflns_limit_k_min       -16
_diffrn_reflns_limit_l_max       11
_diffrn_reflns_limit_l_min       -11
_diffrn_reflns_number            4710
_diffrn_reflns_theta_full        36.31
_diffrn_reflns_theta_max         36.31
_diffrn_reflns_theta_min         2.04
_diffrn_standards_decay_%        0.00
_diffrn_standards_interval_count 0
_diffrn_standards_number         0
_exptl_absorpt_coefficient_mu    1.994
_exptl_absorpt_correction_T_max  0.901
_exptl_absorpt_correction_T_min  0.729
_exptl_absorpt_correction_type   multi-scan
_exptl_absorpt_process_details   '(DENZO-SMN; Otwinowski & Minor, 1997)'
_exptl_crystal_colour            green
_exptl_crystal_density_diffrn    1.841
_exptl_crystal_description       sphere
_exptl_crystal_F_000             284.00
_exptl_crystal_size_max          0.30
_exptl_crystal_size_mid          0.30
_exptl_crystal_size_min          0.30
_exptl_crystal_size_rad          0.30
_refine_diff_density_max         0.43
_refine_diff_density_min         -0.32
_refine_ls_extinction_coef       0.0000045(2)
_refine_ls_extinction_expression 'equ(3) Acta Cryst.(1968) A24, p213.'
_refine_ls_extinction_method     'Zachariasen (1967)'
_refine_ls_goodness_of_fit_all   1.949
_refine_ls_goodness_of_fit_ref   1.950
_refine_ls_hydrogen_treatment    refall
_refine_ls_matrix_type           full
_refine_ls_number_constraints    0
_refine_ls_number_parameters     99
_refine_ls_number_reflns         1774
_refine_ls_number_restraints     0
_refine_ls_R_factor_all          0.0213
_refine_ls_R_factor_gt           0.0210
_refine_ls_shift/su_max          0.0100
_refine_ls_shift/su_mean         0.0007
_refine_ls_structure_factor_coef F
_refine_ls_weighting_details     'w = 1/[\s^2^(Fo)]'
_refine_ls_weighting_scheme      sigma
_refine_ls_wR_factor_all         0.0220
_refine_ls_wR_factor_ref         0.0220
_reflns_number_gt                1774
_reflns_number_total             2497
_reflns_threshold_expression     I>4.00\s(I)
_cod_data_source_file            ic200554f_si_002_17.cif
_cod_data_source_block           '_Template_texray.inf20'
_cod_original_cell_volume        492.300(13)
_cod_original_sg_symbol_H-M      'P 21/n '
_cod_original_formula_sum        'C6 H14 O8 Ni '
_cod_database_code               4325322
loop_
_symmetry_equiv_pos_as_xyz
'   +x,   +y,   +z'
1/2-x,1/2+y,1/2-z
'   -x,   -y,   -z'
1/2+x,1/2-y,1/2+z
loop_
_atom_site_label
_atom_site_fract_x
_atom_site_fract_y
_atom_site_fract_z
_atom_site_U_iso_or_equiv
_atom_site_occupancy
_atom_site_refinement_flags
_atom_site_adp_type
_atom_site_calc_flag
Ni(1) 0.0000 0.0000 0.0000 0.01705(3) 1.000 S Uani d
O(1) 0.18705(6) 0.11169(6) -0.12648(6) 0.02386(12) 1.000 . Uani d
O(2) 0.47929(6) 0.20858(5) -0.08739(7) 0.02419(12) 1.000 . Uani d
O(3) 0.21222(7) 0.03542(6) 0.22300(7) 0.02402(12) 1.000 . Uani d
O(4) -0.13555(8) 0.17516(6) 0.06521(8) 0.0273(1) 1.000 . Uani d
C(1) 0.34401(9) 0.14591(7) -0.02749(9) 0.0181(2) 1.000 . Uani d
C(2) 0.37591(9) 0.10894(8) 0.17972(9) 0.0201(2) 1.000 . Uani d
C(3) 0.23652(13) -0.02506(9) 0.40403(11) 0.0277(2) 1.000 . Uani d
H(2A) 0.4943(11) 0.0562(9) 0.2087(11) 0.023(2) 1.000 . Uiso d
H(2B) 0.3918(10) 0.1906(8) 0.2531(11) 0.027(2) 1.000 . Uiso d
H(3A) 0.1123(11) -0.0685(8) 0.4101(11) 0.031(2) 1.000 . Uiso d
H(3B) 0.3501(11) -0.0887(9) 0.4113(11) 0.036(2) 1.000 . Uiso d
H(3C) 0.262(2) 0.0430(12) 0.502(2) 0.057(3) 1.000 . Uiso d
H(4B) -0.257(1) 0.1893(9) 0.0329(12) 0.032(2) 1.000 . Uiso d
H(4A) -0.1054(13) 0.2048(11) 0.167(1) 0.053(3) 1.000 . Uiso d
loop_
_atom_site_aniso_label
_atom_site_aniso_U_11
_atom_site_aniso_U_22
_atom_site_aniso_U_33
_atom_site_aniso_U_12
_atom_site_aniso_U_13
_atom_site_aniso_U_23
Ni(1) 0.01317(6) 0.02262(7) 0.01477(6) -0.00119(4) -0.00001(4) -0.00065(5)
O(1) 0.0185(2) 0.0344(3) 0.0177(2) -0.0052(2) -0.0007(2) 0.0030(2)
O(2) 0.0195(2) 0.0296(3) 0.0233(3) -0.0050(2) 0.0022(2) 0.0048(2)
O(3) 0.0197(2) 0.0356(3) 0.0156(2) -0.0078(2) -0.0015(2) 0.0050(2)
O(4) 0.0214(3) 0.0319(3) 0.0270(3) 0.0057(2) -0.0019(2) -0.0087(3)
C(1) 0.0178(3) 0.0181(3) 0.0184(3) 0.0023(3) 0.0021(2) -0.0004(3)
C(2) 0.0177(3) 0.0237(4) 0.0182(3) -0.0039(3) 0.0003(2) 0.0003(3)
C(3) 0.0296(4) 0.0344(5) 0.0181(3) -0.0052(3) 0.0001(3) 0.0065(3)
loop_
_atom_type_symbol
_atom_type_oxidation_number
_atom_type_number_in_cell
_atom_type_scat_dispersion_real
_atom_type_scat_dispersion_imag
_atom_type_scat_source
H 0 28 0.000 0.000
;International Tables for Crystallography
(1992, Vol. C, Table 6.1.1.2)
;
O 0 16 0.008 0.006
;International Tables for Crystallography
(1992, Vol. C, Table 6.1.1.2)
;
C 0 12 0.002 0.002
;International Tables for Crystallography
(1992, Vol. C, Table 6.1.1.2)
;
Ni 0 2 0.285 1.113
;International Tables for Crystallography
(1992, Vol. C, Tables 4.2.6.8 and 6.1.1.1)
;
loop_
_diffrn_standard_refln_index_h
_diffrn_standard_refln_index_k
_diffrn_standard_refln_index_l
0 0 0
loop_
_geom_angle_atom_site_label_1
_geom_angle_atom_site_label_2
_geom_angle_atom_site_label_3
_geom_angle
_geom_angle_site_symmetry_3
_geom_angle_publ_flag
? ? ? ? ? ?
O1 Ni1 O1 180.0(0) 3 no
O1 Ni1 O3 79.74(3) . no
O1 Ni1 O4 88.66(3) . no
O3 Ni1 O3 180.0(0) 3 no
O3 Ni1 O4 88.54(3) . no
O4 Ni1 O4 180.0(0) 3 no
Ni1 O1 C1 116.96(6) . no
Ni1 O3 C2 115.08(5) . no
Ni1 O3 C3 128.37(6) . no
C2 O3 C3 115.25(7) . no
Ni1 O4 H4A 117.3(10) . no
Ni1 O4 H4B 122.7(8) . no
H4A O4 H4B 108.1(12) . no
O1 C1 O2 124.71(8) . no
O1 C1 C2 118.68(8) . no
O2 C1 C2 116.60(7) . no
O3 C2 C1 109.40(7) . no
O3 C2 H2A 110.4(7) . no
O3 C2 H2B 110.3(6) . no
C1 C2 H2A 109.9(6) . no
C1 C2 H2B 108.5(6) . no
H2A C2 H2B 108.3(8) . no
O3 C3 H3A 104.0(7) . no
O3 C3 H3B 107.7(7) . no
O3 C3 H3C 110.4(10) . no
H3A C3 H3B 114.0(9) . no
H3A C3 H3C 110.2(11) . no
H3B C3 H3C 110.2(11) . no
loop_
_geom_bond_atom_site_label_1
_geom_bond_atom_site_label_2
_geom_bond_distance
_geom_bond_publ_flag
? ? ? ?
Ni1 O1 2.0227(7) yes
Ni1 O3 2.0436(6) yes
Ni1 O4 2.0714(8) yes
O1 C1 1.258(1) no
O2 C1 1.254(1) no
O3 C2 1.423(1) no
O3 C3 1.422(1) no
O4 H4A 0.79(1) no
O4 H4B 0.85(1) no
C1 C2 1.519(1) no
C2 H2A 0.97(1) no
C2 H2B 0.97(1) no
C3 H3A 0.97(1) no
C3 H3B 1.00(1) no
C3 H3C 0.98(1) no
loop_
_geom_contact_atom_site_label_1
_geom_contact_atom_site_label_2
_geom_contact_distance
_geom_contact_site_symmetry_2
_geom_contact_publ_flag
O2 H4B 1.917(13) 1_655 no
O2 H4A 1.98(1) 4_554 no
