#------------------------------------------------------------------------------
#$Date: 2016-02-16 22:30:59 +0200 (Tue, 16 Feb 2016) $
#$Revision: 176467 $
#$URL: svn://www.crystallography.net/cod/cif/4/32/53/4325315.cif $
#------------------------------------------------------------------------------
#
# This file is available in the Crystallography Open Database (COD),
# http://www.crystallography.net/
#
# All data on this site have been placed in the public domain by the
# contributors.
#
data_4325315
loop_
_publ_author_name
'Charles J. Simmons'
'Horst Stratemeier'
'Michael A. Hitchman'
'Dirk Reinen'
'Vanessa M. Masters'
'Mark J. Riley'
_publ_contact_author_address
;Dr. Charles J. Simmons
Chemistry Department
University of Hawaii at Hilo
200 W. Kawili Street
Hilo, Hawaii 96720
;
_publ_contact_author_email       ' simmonsc@hawaii.edu'
_publ_contact_author_fax         808-974-7693
_publ_contact_author_name        'Dr. Charles J. Simmons'
_publ_contact_author_phone       '808-974-7317 '
_publ_section_title
;
 Temperature Dependence of the Crystal Structure and g-Values of
 trans-Diaquabis(methoxyacetato)Copper(II): Evidence for a Thermal
 Equilibrium Between Complexes with tetragonally Elongated and Compressed
 Geometries
;
_journal_name_full               'Inorganic Chemistry'
_journal_page_first              4900
_journal_page_last               4916
_journal_paper_doi               10.1021/ic200554f
_journal_volume                  50
_journal_year                    2011
_chemical_formula_moiety         'C6 H14 Cu O8 '
_chemical_formula_sum            'C6 H14 Cu O8'
_chemical_formula_weight         277.72
_space_group_IT_number           14
_symmetry_cell_setting           monoclinic
_symmetry_Int_Tables_number      14
_symmetry_space_group_name_Hall  '-P 2yn'
_symmetry_space_group_name_H-M   'P 1 21/n 1'
_cell_angle_alpha                90
_cell_angle_beta                 95.8447(12)
_cell_angle_gamma                90
_cell_formula_units_Z            2
_cell_length_a                   6.91320(10)
_cell_length_b                   9.9450(2)
_cell_length_c                   7.20350(10)
_cell_measurement_reflns_used    4490
_cell_measurement_temperature    180
_cell_measurement_theta_max      35.6
_cell_measurement_theta_min      2.05
_cell_volume                     492.679(14)
_computing_cell_refinement       'HKL Scalepack'
_computing_data_collection       'KappaCCD Server Software'
_computing_data_reduction        'HKL Denzo and Scalepack'
_computing_publication_material  'teXsan for Windows v. 1.06 MSC'
_computing_structure_refinement  'teXsan for Windows v. 1.06 MSC'
_computing_structure_solution
;
SIR92 (Altomare, et. al. 1994)
;
_diffrn_ambient_temperature      180
_diffrn_measured_fraction_theta_full 0.997
_diffrn_measured_fraction_theta_max 0.997
_diffrn_measurement_device       'Nonius CCD camera'
_diffrn_measurement_method       '\f scans \w scans with \k offsets'
_diffrn_radiation_detector       'Nonius Kappa CCD'
_diffrn_radiation_monochromator  graphite
_diffrn_radiation_source         'fine-focus sealed X-ray tube'
_diffrn_radiation_type           'Mo K\a'
_diffrn_radiation_wavelength     0.7107
_diffrn_reflns_av_R_equivalents  0.01290
_diffrn_reflns_av_sigmaI/netI    0.035
_diffrn_reflns_limit_h_max       11
_diffrn_reflns_limit_h_min       -11
_diffrn_reflns_limit_k_max       16
_diffrn_reflns_limit_k_min       -15
_diffrn_reflns_limit_l_max       11
_diffrn_reflns_limit_l_min       -11
_diffrn_reflns_number            4490
_diffrn_reflns_theta_full        35.60
_diffrn_reflns_theta_max         35.60
_diffrn_reflns_theta_min         2.05
_diffrn_standards_decay_%        0.00
_diffrn_standards_interval_count 0
_diffrn_standards_number         0
_exptl_absorpt_coefficient_mu    2.240
_exptl_absorpt_correction_T_max  0.891
_exptl_absorpt_correction_T_min  0.757
_exptl_absorpt_correction_type   multi-scan
_exptl_absorpt_process_details   '(DENZO-SMN; Otwinowski & Minor, 1997)'
_exptl_crystal_colour            blue
_exptl_crystal_density_diffrn    1.872
_exptl_crystal_description       sphere
_exptl_crystal_F_000             286.00
_exptl_crystal_size_max          0.30
_exptl_crystal_size_mid          0.30
_exptl_crystal_size_min          0.30
_exptl_crystal_size_rad          0.30
_refine_diff_density_max         0.43
_refine_diff_density_min         -0.33
_refine_ls_extinction_coef       0.0000064(2)
_refine_ls_extinction_expression 'equ(3) Acta Cryst.(1968) A24, p213.'
_refine_ls_extinction_method     'Zachariasen (1967)'
_refine_ls_goodness_of_fit_all   1.992
_refine_ls_goodness_of_fit_ref   1.990
_refine_ls_hydrogen_treatment    refall
_refine_ls_matrix_type           full
_refine_ls_number_constraints    0
_refine_ls_number_parameters     99
_refine_ls_number_reflns         1751
_refine_ls_number_restraints     0
_refine_ls_R_factor_all          0.0198
_refine_ls_R_factor_gt           0.0200
_refine_ls_shift/su_max          0.0100
_refine_ls_shift/su_mean         0.0020
_refine_ls_structure_factor_coef F
_refine_ls_weighting_details     'w = 1/[\s^2^(Fo)]'
_refine_ls_weighting_scheme      sigma
_refine_ls_wR_factor_all         0.0220
_refine_ls_wR_factor_ref         0.0220
_reflns_number_gt                1751
_reflns_number_total             2370
_reflns_threshold_expression     I>4.00\s(I)
_cod_data_source_file            ic200554f_si_002_10.cif
_cod_data_source_block           '_Template_texray.inf5'
_cod_original_cell_volume        492.679(12)
_cod_original_sg_symbol_H-M      'P 21/n '
_cod_original_formula_sum        'C6 H14 Cu O8 '
_cod_database_code               4325315
loop_
_symmetry_equiv_pos_as_xyz
'   +x,   +y,   +z'
1/2-x,1/2+y,1/2-z
'   -x,   -y,   -z'
1/2+x,1/2-y,1/2+z
loop_
_atom_site_label
_atom_site_fract_x
_atom_site_fract_y
_atom_site_fract_z
_atom_site_U_iso_or_equiv
_atom_site_occupancy
_atom_site_refinement_flags
_atom_site_adp_type
_atom_site_calc_flag
Cu(1) 0.0000 0.0000 0.0000 0.01401(3) 1.000 S Uani d
O(1) 0.19292(6) 0.10764(6) -0.11217(6) 0.01870(12) 1.000 . Uani d
O(2) 0.48314(7) 0.20538(5) -0.08375(7) 0.01930(12) 1.000 . Uani d
O(3) 0.21620(7) 0.03505(6) 0.23932(7) 0.02062(12) 1.000 . Uani d
O(4) -0.13446(8) 0.17560(6) 0.07037(8) 0.0224(1) 1.000 . Uani d
C(1) 0.34818(9) 0.14322(7) -0.01718(9) 0.0149(2) 1.000 . Uani d
C(2) 0.37878(10) 0.10888(8) 0.18915(9) 0.0167(2) 1.000 . Uani d
C(3) 0.24359(13) -0.02608(9) 0.41890(11) 0.0223(2) 1.000 . Uani d
H(2B) 0.3909(10) 0.1955(9) 0.2543(11) 0.021(2) 1.000 . Uiso d
H(2A) 0.4923(11) 0.0537(9) 0.2132(11) 0.019(2) 1.000 . Uiso d
H(3B) 0.3549(11) -0.0863(10) 0.4259(11) 0.026(2) 1.000 . Uiso d
H(3C) 0.2593(13) 0.0399(11) 0.5083(13) 0.029(3) 1.000 . Uiso d
H(3A) 0.1241(11) -0.0701(9) 0.4260(10) 0.017(2) 1.000 . Uiso d
H(4A) -0.109(1) 0.2117(12) 0.165(2) 0.052(3) 1.000 . Uiso d
H(4B) -0.259(2) 0.1894(10) 0.039(1) 0.034(3) 1.000 . Uiso d
loop_
_atom_site_aniso_label
_atom_site_aniso_U_11
_atom_site_aniso_U_22
_atom_site_aniso_U_33
_atom_site_aniso_U_12
_atom_site_aniso_U_13
_atom_site_aniso_U_23
Cu(1) 0.01054(6) 0.01875(7) 0.01247(6) -0.00112(4) -0.00014(4) -0.00074(4)
O(1) 0.0151(2) 0.0258(3) 0.0149(2) -0.0025(2) 0.0003(2) 0.0018(2)
O(2) 0.0168(2) 0.0225(3) 0.0187(2) -0.0035(2) 0.0024(2) 0.0017(2)
O(3) 0.0170(2) 0.0302(3) 0.0142(2) -0.0054(2) -0.0005(2) 0.0050(2)
O(4) 0.0173(3) 0.0276(3) 0.0215(3) 0.0026(2) -0.0021(2) -0.0060(2)
C(1) 0.0150(3) 0.0145(3) 0.0154(3) 0.0026(3) 0.0020(2) -0.0013(2)
C(2) 0.0149(3) 0.0192(3) 0.0159(3) -0.0026(3) 0.0006(2) -0.0001(3)
C(3) 0.0257(4) 0.0254(4) 0.0156(3) -0.0024(3) 0.0016(3) 0.0046(3)
loop_
_atom_type_symbol
_atom_type_oxidation_number
_atom_type_number_in_cell
_atom_type_scat_dispersion_real
_atom_type_scat_dispersion_imag
_atom_type_scat_source
H 0 28 0.000 0.000
;International Tables for Crystallography
(1992, Vol. C, Table 6.1.1.2)
;
O 0 16 0.008 0.006
;International Tables for Crystallography
(1992, Vol. C, Table 6.1.1.2)
;
C 0 12 0.002 0.002
;International Tables for Crystallography
(1992, Vol. C, Table 6.1.1.2)
;
Cu 0 2 0.263 1.266
;International Tables for Crystallography
(1992, Vol. C, Tables 4.2.6.8 and 6.1.1.1)
;
loop_
_diffrn_standard_refln_index_h
_diffrn_standard_refln_index_k
_diffrn_standard_refln_index_l
0 0 0
loop_
_geom_angle_atom_site_label_1
_geom_angle_atom_site_label_2
_geom_angle_atom_site_label_3
_geom_angle
_geom_angle_site_symmetry_3
_geom_angle_publ_flag
? ? ? ? ? ?
O1 Cu1 O1 180.0(0) 3 no
O1 Cu1 O3 78.35(3) . no
O1 Cu1 O4 88.94(3) . no
O3 Cu1 O3 180.0(0) 3 no
O3 Cu1 O4 87.73(3) . no
O4 Cu1 O4 180.0(0) 3 no
Cu1 O1 C1 120.59(6) . no
Cu1 O3 C2 112.10(5) . no
Cu1 O3 C3 131.56(7) . no
C2 O3 C3 114.61(8) . no
Cu1 O4 H4A 122.6(11) . no
Cu1 O4 H4B 121.5(10) . no
H4A O4 H4B 106.6(13) . no
O1 C1 O2 123.71(8) . no
O1 C1 C2 119.55(8) . no
O2 C1 C2 116.74(8) . no
O3 C2 C1 109.29(7) . no
O3 C2 H2A 108.2(7) . no
O3 C2 H2B 111.3(6) . no
C1 C2 H2A 109.6(7) . no
C1 C2 H2B 105.5(7) . no
H2A C2 H2B 112.8(10) . no
O3 C3 H3A 102.2(7) . no
O3 C3 H3B 109.9(7) . no
O3 C3 H3C 109.1(9) . no
H3A C3 H3B 113.9(10) . no
H3A C3 H3C 109.7(10) . no
H3B C3 H3C 111.6(11) . no
loop_
_geom_bond_atom_site_label_1
_geom_bond_atom_site_label_2
_geom_bond_distance
_geom_bond_publ_flag
? ? ? ?
Cu1 O1 1.9486(6) yes
Cu1 O3 2.1915(7) yes
Cu1 O4 2.0656(8) yes
O1 C1 1.263(1) no
O2 C1 1.255(1) no
O3 C2 1.420(1) no
O3 C3 1.424(1) no
O4 H4A 0.78(2) no
O4 H4B 0.88(1) no
C1 C2 1.519(1) no
C2 H2A 0.96(1) no
C2 H2B 0.98(1) no
C3 H3A 0.94(1) no
C3 H3B 0.97(1) no
C3 H3C 0.92(1) no
loop_
_geom_contact_atom_site_label_1
_geom_contact_atom_site_label_2
_geom_contact_distance
_geom_contact_site_symmetry_2
_geom_contact_publ_flag
O2 H4B 1.91(2) 1_655 no
O2 H4A 2.03(2) 4_554 no
