#------------------------------------------------------------------------------
#$Date: 2016-02-16 22:30:59 +0200 (Tue, 16 Feb 2016) $
#$Revision: 176467 $
#$URL: svn://www.crystallography.net/cod/cif/4/32/53/4325326.cif $
#------------------------------------------------------------------------------
#
# This file is available in the Crystallography Open Database (COD),
# http://www.crystallography.net/
#
# All data on this site have been placed in the public domain by the
# contributors.
#
data_4325326
loop_
_publ_author_name
'Charles J. Simmons'
'Horst Stratemeier'
'Michael A. Hitchman'
'Dirk Reinen'
'Vanessa M. Masters'
'Mark J. Riley'
_publ_contact_author_address
;Dr. Charles J. Simmons
Chemistry Department
University of Hawaii at Hilo
200 W. Kawili Street
Hilo, Hawaii 96720
;
_publ_contact_author_email       ' simmonsc@hawaii.edu'
_publ_contact_author_fax         808-974-7693
_publ_contact_author_name        'Dr. Charles J. Simmons'
_publ_contact_author_phone       '808-974-7317 '
_publ_section_title
;
 Temperature Dependence of the Crystal Structure and g-Values of
 trans-Diaquabis(methoxyacetato)Copper(II): Evidence for a Thermal
 Equilibrium Between Complexes with tetragonally Elongated and Compressed
 Geometries
;
_journal_name_full               'Inorganic Chemistry'
_journal_page_first              4900
_journal_page_last               4916
_journal_paper_doi               10.1021/ic200554f
_journal_volume                  50
_journal_year                    2011
_chemical_formula_moiety         'C6 H14 O8 Ni '
_chemical_formula_sum            'C6 H14 Ni O8'
_chemical_formula_weight         272.87
_space_group_IT_number           14
_symmetry_cell_setting           monoclinic
_symmetry_Int_Tables_number      14
_symmetry_space_group_name_Hall  '-P 2yn'
_symmetry_space_group_name_H-M   'P 1 21/n 1'
_cell_angle_alpha                90
_cell_angle_beta                 98.1913(13)
_cell_angle_gamma                90
_cell_formula_units_Z            2
_cell_length_a                   6.94140(10)
_cell_length_b                   10.0762(2)
_cell_length_c                   7.1970(2)
_cell_measurement_reflns_used    4748
_cell_measurement_temperature    350
_cell_measurement_theta_max      36.30
_cell_measurement_theta_min      2.02
_cell_volume                     498.244(19)
_computing_cell_refinement       'HKL Scalepack'
_computing_data_collection       'KappaCCD Server Software'
_computing_data_reduction        'Denzo and Scalepack'
_computing_publication_material  'teXsan for Windows v. 1.06 MSC'
_computing_structure_refinement  'teXsan for Windows v. 1.06 MSC'
_computing_structure_solution
;
SIR92 (Altomare, et. al. 1994)
;
_diffrn_ambient_temperature      350
_diffrn_measured_fraction_theta_full 0.999
_diffrn_measured_fraction_theta_max 0.999
_diffrn_measurement_device       'Nonius CCD camera'
_diffrn_measurement_method       '\f scans \w scans with \k offsets'
_diffrn_radiation_detector       'Nonius Kappa CCD'
_diffrn_radiation_monochromator  graphite
_diffrn_radiation_source         'fine-focus sealed X-ray tube'
_diffrn_radiation_type           'Mo K\a'
_diffrn_radiation_wavelength     0.7107
_diffrn_reflns_av_R_equivalents  0.01669
_diffrn_reflns_av_sigmaI/netI    0.046
_diffrn_reflns_limit_h_max       11
_diffrn_reflns_limit_h_min       -11
_diffrn_reflns_limit_k_max       15
_diffrn_reflns_limit_k_min       -16
_diffrn_reflns_limit_l_max       11
_diffrn_reflns_limit_l_min       -11
_diffrn_reflns_number            4748
_diffrn_reflns_theta_full        36.30
_diffrn_reflns_theta_max         36.30
_diffrn_reflns_theta_min         2.02
_diffrn_standards_decay_%        0.00
_diffrn_standards_interval_count 0
_diffrn_standards_number         0
_exptl_absorpt_coefficient_mu    1.970
_exptl_absorpt_correction_T_max  0.867
_exptl_absorpt_correction_T_min  0.727
_exptl_absorpt_correction_type   multi-scan
_exptl_absorpt_process_details   '(DENZO-SMN; Otwinowski & Minor, 1997)'
_exptl_crystal_colour            green
_exptl_crystal_density_diffrn    1.819
_exptl_crystal_description       sphere
_exptl_crystal_F_000             284.00
_exptl_crystal_size_max          0.30
_exptl_crystal_size_mid          0.30
_exptl_crystal_size_min          0.30
_exptl_crystal_size_rad          0.30
_refine_diff_density_max         0.49
_refine_diff_density_min         -0.32
_refine_ls_extinction_coef       0.0000066(3)
_refine_ls_extinction_expression 'equ(3) Acta Cryst.(1968) A24, p213.'
_refine_ls_extinction_method     'Zachariasen (1967)'
_refine_ls_goodness_of_fit_all   1.967
_refine_ls_goodness_of_fit_ref   1.970
_refine_ls_hydrogen_treatment    refall
_refine_ls_matrix_type           full
_refine_ls_number_constraints    0
_refine_ls_number_parameters     99
_refine_ls_number_reflns         1577
_refine_ls_number_restraints     0
_refine_ls_R_factor_all          0.0232
_refine_ls_R_factor_gt           0.0230
_refine_ls_shift/su_max          0.0000
_refine_ls_shift/su_mean         0.0002
_refine_ls_structure_factor_coef F
_refine_ls_weighting_details     'w = 1/[\s^2^(Fo)]'
_refine_ls_weighting_scheme      sigma
_refine_ls_wR_factor_all         0.0240
_refine_ls_wR_factor_ref         0.0240
_reflns_number_gt                1577
_reflns_number_total             2529
_reflns_threshold_expression     I>4.00\s(I)
_cod_data_source_file            ic200554f_si_002_21.cif
_cod_data_source_block           '_Template_texray.inf22'
_cod_original_cell_volume        498.24(2)
_cod_original_sg_symbol_H-M      'P 21/n '
_cod_original_formula_sum        'C6 H14 O8 Ni '
_cod_database_code               4325326
loop_
_symmetry_equiv_pos_as_xyz
'   +x,   +y,   +z'
1/2-x,1/2+y,1/2-z
'   -x,   -y,   -z'
1/2+x,1/2-y,1/2+z
loop_
_atom_site_label
_atom_site_fract_x
_atom_site_fract_y
_atom_site_fract_z
_atom_site_U_iso_or_equiv
_atom_site_occupancy
_atom_site_refinement_flags
_atom_site_adp_type
_atom_site_calc_flag
Ni(1) 0.0000 0.0000 0.0000 0.02467(4) 1.0000 S Uani d
O(1) 0.18534(8) 0.11214(7) -0.12579(8) 0.0340(2) 1.000 . Uani d
O(2) 0.47632(8) 0.20791(7) -0.08782(8) 0.0346(2) 1.000 . Uani d
O(3) 0.21286(8) 0.03431(7) 0.22225(8) 0.0337(2) 1.000 . Uani d
O(4) -0.13776(10) 0.17290(7) 0.06713(10) 0.0398(2) 1.000 . Uani d
C(1) 0.34235(10) 0.14572(9) -0.02750(11) 0.0262(2) 1.000 . Uani d
C(2) 0.37392(12) 0.10860(10) 0.17857(12) 0.0292(2) 1.000 . Uani d
C(3) 0.2352(2) -0.02423(12) 0.40259(13) 0.0400(3) 1.000 . Uani d
H(2A) 0.4985(13) 0.0530(10) 0.2097(13) 0.032(2) 1.000 . Uiso d
H(2B) 0.3875(12) 0.1905(11) 0.249(2) 0.048(3) 1.000 . Uiso d
H(3A) 0.1126(13) -0.0695(11) 0.410(1) 0.045(3) 1.000 . Uiso d
H(3B) 0.3455(13) -0.0874(12) 0.4171(13) 0.045(3) 1.000 . Uiso d
H(3C) 0.274(2) 0.045(2) 0.495(2) 0.080(4) 1.000 . Uiso d
H(4B) -0.251(2) 0.1893(13) 0.031(2) 0.061(4) 1.000 . Uiso d
H(4A) -0.110(2) 0.210(1) 0.170(2) 0.067(4) 1.000 . Uiso d
loop_
_atom_site_aniso_label
_atom_site_aniso_U_11
_atom_site_aniso_U_22
_atom_site_aniso_U_33
_atom_site_aniso_U_12
_atom_site_aniso_U_13
_atom_site_aniso_U_23
Ni(1) 0.01904(8) 0.03284(10) 0.02126(8) -0.00192(6) -0.00015(5) -0.00095(7)
O(1) 0.0256(3) 0.0496(4) 0.0252(3) -0.0077(3) -0.0015(2) 0.0051(3)
O(2) 0.0269(3) 0.0433(4) 0.0334(3) -0.0077(3) 0.0031(2) 0.0071(3)
O(3) 0.0262(3) 0.0510(4) 0.0221(3) -0.0112(3) -0.0025(2) 0.0065(3)
O(4) 0.0294(3) 0.0469(5) 0.0407(4) 0.0091(3) -0.0032(3) -0.0137(4)
C(1) 0.0248(4) 0.0272(4) 0.0262(4) 0.0023(3) 0.0026(3) -0.0002(4)
C(2) 0.0263(4) 0.0344(5) 0.0259(4) -0.0072(4) 0.0002(3) -0.0001(4)
C(3) 0.0415(5) 0.0508(7) 0.0262(4) -0.0089(5) -0.0007(4) 0.0101(4)
loop_
_atom_type_symbol
_atom_type_oxidation_number
_atom_type_number_in_cell
_atom_type_scat_dispersion_real
_atom_type_scat_dispersion_imag
_atom_type_scat_source
H 0 28 0.000 0.000
;International Tables for Crystallography
(1992, Vol. C, Table 6.1.1.2)
;
O 0 16 0.008 0.006
;International Tables for Crystallography
(1992, Vol. C, Table 6.1.1.2)
;
C 0 12 0.002 0.002
;International Tables for Crystallography
(1992, Vol. C, Table 6.1.1.2)
;
Ni 0 2 0.285 1.113
;International Tables for Crystallography
(1992, Vol. C, Tables 4.2.6.8 and 6.1.1.1)
;
loop_
_diffrn_standard_refln_index_h
_diffrn_standard_refln_index_k
_diffrn_standard_refln_index_l
0 0 0
loop_
_geom_angle_atom_site_label_1
_geom_angle_atom_site_label_2
_geom_angle_atom_site_label_3
_geom_angle
_geom_angle_site_symmetry_3
_geom_angle_publ_flag
? ? ? ? ? ?
O1 Ni1 O1 180.0(0) 3 no
O1 Ni1 O3 79.68(3) . no
O1 Ni1 O4 88.78(4) . no
O3 Ni1 O3 180.0(0) 3 no
O3 Ni1 O4 88.94(4) . no
O4 Ni1 O4 180.0(0) 3 no
Ni1 O1 C1 117.02(7) . no
Ni1 O3 C2 114.85(7) . no
Ni1 O3 C3 128.29(8) . no
C2 O3 C3 115.91(9) . no
Ni1 O4 H4A 122.0(11) . no
Ni1 O4 H4B 123.6(13) . no
H4A O4 H4B 106.9(16) . no
O1 C1 O2 124.6(1) . no
O1 C1 C2 118.5(1) . no
O2 C1 C2 116.93(9) . no
O3 C2 C1 109.81(8) . no
O3 C2 H2A 109.2(7) . no
O3 C2 H2B 110.8(8) . no
C1 C2 H2A 110.4(7) . no
C1 C2 H2B 107.1(9) . no
H2A C2 H2B 109.6(10) . no
O3 C3 H3A 105.1(8) . no
O3 C3 H3B 110.3(8) . no
O3 C3 H3C 108.2(13) . no
H3A C3 H3B 111.2(12) . no
H3A C3 H3C 117.4(14) . no
H3B C3 H3C 104.6(14) . no
loop_
_geom_bond_atom_site_label_1
_geom_bond_atom_site_label_2
_geom_bond_distance
_geom_bond_publ_flag
? ? ? ?
Ni1 O1 2.0207(8) yes
Ni1 O3 2.0464(7) yes
Ni1 O4 2.077(1) yes
O1 C1 1.258(1) no
O2 C1 1.249(1) no
O3 C2 1.418(1) no
O3 C3 1.414(2) no
O4 H4A 0.83(2) no
O4 H4B 0.81(2) no
C1 C2 1.515(2) no
C2 H2A 1.03(1) no
C2 H2B 0.97(2) no
C3 H3A 0.97(1) no
C3 H3B 0.99(1) no
C3 H3C 0.97(2) no
loop_
_geom_contact_atom_site_label_1
_geom_contact_atom_site_label_2
_geom_contact_distance
_geom_contact_site_symmetry_2
_geom_contact_publ_flag
O2 H4A 1.94(2) 4_554 no
O2 H4B 1.97(2) 1_655 no
