#------------------------------------------------------------------------------
#$Date: 2016-03-23 16:41:03 +0200 (Wed, 23 Mar 2016) $
#$Revision: 179389 $
#$URL: svn://www.crystallography.net/cod/cif/4/32/86/4328608.cif $
#------------------------------------------------------------------------------
#
# This file is available in the Crystallography Open Database (COD),
# http://www.crystallography.net/
#
# All data on this site have been placed in the public domain by the
# contributors.
#
data_4328608
loop_
_publ_author_name
'Michael H. Holthausen'
'Kai-Oliver Feldmann'
'Stephen Schulz'
'Alexander Hepp'
'Jan J. Weigand'
_publ_section_title
;
 Formation of Cationic [RP5Cl]+-Cages via Insertion of [RPCl]+-Cations
 into a P-P Bond of the P4 Tetrahedron
;
_journal_name_full               'Inorganic Chemistry'
_journal_page_first              3374
_journal_page_last               3387
_journal_paper_doi               10.1021/ic2013304
_journal_volume                  51
_journal_year                    2012
_chemical_formula_moiety         'C2 H5 Cl P5, Cl4 Ga '
_chemical_formula_sum            'C2 H5 Cl5 Ga P5'
_chemical_formula_weight         430.88
_chemical_name_systematic
;
 ?
;
_space_group_IT_number           14
_symmetry_cell_setting           monoclinic
_symmetry_space_group_name_Hall  '-P 2yn'
_symmetry_space_group_name_H-M   'P 1 21/n 1'
_atom_sites_solution_hydrogens   geom
_atom_sites_solution_primary     direct
_atom_sites_solution_secondary   difmap
_audit_creation_method           SHELXL-97
_cell_angle_alpha                90.00
_cell_angle_beta                 112.9510(10)
_cell_angle_gamma                90.00
_cell_formula_units_Z            4
_cell_length_a                   12.6761(6)
_cell_length_b                   8.9880(4)
_cell_length_c                   13.2882(6)
_cell_measurement_reflns_used    900
_cell_measurement_temperature    153(2)
_cell_measurement_theta_max      22.5
_cell_measurement_theta_min      1
_cell_volume                     1394.11(11)
_computing_cell_refinement       'APEX2(Bruker AXS, 2007)'
_computing_data_collection       'APEX2(Bruker AXS, 2007)'
_computing_data_reduction        'SAINT,SADABS (Bruker AXS, 2007 )'
_computing_molecular_graphics
;
ORTEP3,L.J. Farrugia, J. Appl. Cryst. (1997) 30, 565
;
_computing_structure_refinement
;
SHELXL-97, G. M. Sheldrick, Acta Cryst. (2008) A64, 112-122
;
_computing_structure_solution
;
SHELXS-97 , G. M. Sheldrick, Acta Cryst. (2008) A64, 112-122
;
_diffrn_ambient_temperature      153(1)
_diffrn_detector_area_resol_mean 80
_diffrn_measured_fraction_theta_full 1.000
_diffrn_measured_fraction_theta_max 1.000
_diffrn_measurement_device_type  'CCD area detector'
_diffrn_measurement_method       'Omega and Phi scans'
_diffrn_radiation_monochromator  graphite
_diffrn_radiation_source         'rotating anode'
_diffrn_radiation_type           MoK\a
_diffrn_radiation_wavelength     0.71073
_diffrn_reflns_av_R_equivalents  0.0238
_diffrn_reflns_av_sigmaI/netI    0.0203
_diffrn_reflns_limit_h_max       16
_diffrn_reflns_limit_h_min       -16
_diffrn_reflns_limit_k_max       11
_diffrn_reflns_limit_k_min       -11
_diffrn_reflns_limit_l_max       17
_diffrn_reflns_limit_l_min       -17
_diffrn_reflns_number            13799
_diffrn_reflns_theta_full        25.00
_diffrn_reflns_theta_max         27.87
_diffrn_reflns_theta_min         1.88
_exptl_absorpt_coefficient_mu    3.462
_exptl_absorpt_correction_T_max  0.9033
_exptl_absorpt_correction_T_min  0.5443
_exptl_absorpt_correction_type   multi-scan
_exptl_absorpt_process_details
; 
 Corrections were done with the SADABS program, utilizing the none merged
 raw data obtained from the integration process. Integration and final cell
 refinement were done with SAINT.

 SADABS reports ratio of Tmin/Tmax =  0.534422 

;
_exptl_crystal_colour            colourless
_exptl_crystal_density_diffrn    2.053
_exptl_crystal_description       plate
_exptl_crystal_F_000             832
_exptl_crystal_size_max          0.20
_exptl_crystal_size_mid          0.06
_exptl_crystal_size_min          0.03
_refine_diff_density_max         0.378
_refine_diff_density_min         -0.311
_refine_diff_density_rms         0.068
_refine_ls_extinction_method     none
_refine_ls_goodness_of_fit_ref   1.061
_refine_ls_hydrogen_treatment    noref
_refine_ls_matrix_type           full
_refine_ls_number_parameters     119
_refine_ls_number_reflns         3327
_refine_ls_number_restraints     0
_refine_ls_restrained_S_all      1.061
_refine_ls_R_factor_all          0.0229
_refine_ls_R_factor_gt           0.0196
_refine_ls_shift/su_max          0.001
_refine_ls_shift/su_mean         0.000
_refine_ls_structure_factor_coef Fsqd
_refine_ls_weighting_details
'calc w=1/[\s^2^(Fo^2^)+(0.0279P)^2^+0.0912P] where P=(Fo^2^+2Fc^2^)/3'
_refine_ls_weighting_scheme      calc
_refine_ls_wR_factor_gt          0.0483
_refine_ls_wR_factor_ref         0.0496
_reflns_number_gt                3008
_reflns_number_total             3327
_reflns_threshold_expression     >2sigma(I)
_cod_data_source_file            ic2013304_si_004.cif
_cod_data_source_block           sad
_cod_original_sg_symbol_H-M      'P 21/n'
_cod_database_code               4328608
loop_
_symmetry_equiv_pos_as_xyz
'x, y, z'
'-x+1/2, y+1/2, -z+1/2'
'-x, -y, -z'
'x-1/2, -y-1/2, z-1/2'
loop_
_atom_site_label
_atom_site_type_symbol
_atom_site_fract_x
_atom_site_fract_y
_atom_site_fract_z
_atom_site_U_iso_or_equiv
_atom_site_adp_type
_atom_site_occupancy
_atom_site_symmetry_multiplicity
_atom_site_calc_flag
_atom_site_refinement_flags
C1 C 0.23842(13) 0.09793(17) 0.89516(12) 0.0217(3) Uani 1 1 d .
H1A H 0.3229 0.1039 0.9319 0.026 Uiso 1 1 calc R
H1B H 0.2154 -0.0055 0.9023 0.026 Uiso 1 1 calc R
C2 C 0.20270(15) 0.1347(2) 0.77395(13) 0.0316(4) Uani 1 1 d .
H2A H 0.1199 0.1200 0.7358 0.047 Uiso 1 1 calc R
H2B H 0.2434 0.0692 0.7423 0.047 Uiso 1 1 calc R
H2C H 0.2219 0.2386 0.7662 0.047 Uiso 1 1 calc R
P1 P 0.17523(3) 0.22146(4) 0.96261(3) 0.01729(9) Uani 1 1 d .
P2 P 0.21219(4) 0.45618(5) 0.96099(3) 0.02347(10) Uani 1 1 d .
P3 P 0.23750(4) 0.22019(5) 1.13852(3) 0.02125(9) Uani 1 1 d .
P4 P 0.18583(4) 0.45972(5) 1.11862(4) 0.02631(10) Uani 1 1 d .
P5 P 0.35356(4) 0.39865(5) 1.12079(3) 0.02596(10) Uani 1 1 d .
Cl1 Cl 0.00583(3) 0.17764(5) 0.89598(3) 0.02919(10) Uani 1 1 d .
Cl2 Cl 0.26549(3) 0.82943(4) 0.11215(3) 0.02643(9) Uani 1 1 d .
Cl3 Cl 0.51447(3) 1.04581(4) 0.17057(4) 0.02915(10) Uani 1 1 d .
Cl4 Cl 0.52851(4) 0.72021(5) 0.32666(3) 0.03109(10) Uani 1 1 d .
Cl5 Cl 0.49164(5) 0.68567(5) 0.04925(4) 0.03900(12) Uani 1 1 d .
Ga1 Ga 0.452725(14) 0.819772(18) 0.165685(13) 0.01861(6) Uani 1 1 d .
loop_
_atom_site_aniso_label
_atom_site_aniso_U_11
_atom_site_aniso_U_22
_atom_site_aniso_U_33
_atom_site_aniso_U_23
_atom_site_aniso_U_13
_atom_site_aniso_U_12
C1 0.0216(8) 0.0217(8) 0.0226(8) -0.0017(6) 0.0095(6) 0.0023(6)
C2 0.0305(9) 0.0441(10) 0.0214(8) -0.0001(7) 0.0115(7) 0.0117(8)
P1 0.01707(19) 0.01849(19) 0.01621(18) -0.00146(15) 0.00639(15) -0.00123(15)
P2 0.0303(2) 0.0192(2) 0.0190(2) 0.00374(15) 0.00756(17) -0.00080(16)
P3 0.0300(2) 0.0174(2) 0.01703(19) 0.00151(15) 0.00988(17) 0.00031(16)
P4 0.0374(2) 0.0191(2) 0.0251(2) -0.00159(16) 0.01510(19) 0.00438(18)
P5 0.0240(2) 0.0262(2) 0.0221(2) 0.00031(16) 0.00291(17) -0.00593(16)
Cl1 0.01801(19) 0.0401(2) 0.0286(2) -0.00871(17) 0.00816(16) -0.00521(16)
Cl2 0.01875(19) 0.0296(2) 0.0284(2) 0.00586(15) 0.00643(16) -0.00221(14)
Cl3 0.0255(2) 0.01647(18) 0.0423(2) 0.00082(16) 0.00975(17) -0.00232(15)
Cl4 0.0290(2) 0.0322(2) 0.0282(2) 0.00946(17) 0.00697(17) 0.00637(17)
Cl5 0.0570(3) 0.0290(2) 0.0481(3) -0.01300(19) 0.0392(3) -0.01045(19)
Ga1 0.01947(10) 0.01584(9) 0.02159(10) -0.00002(6) 0.00919(7) -0.00048(6)
loop_
_atom_type_symbol
_atom_type_description
_atom_type_scat_dispersion_real
_atom_type_scat_dispersion_imag
_atom_type_scat_source
C C 0.0033 0.0016 'International Tables Vol C Tables 4.2.6.8 and 6.1.1.4'
H H 0.0000 0.0000 'International Tables Vol C Tables 4.2.6.8 and 6.1.1.4'
P P 0.1023 0.0942 'International Tables Vol C Tables 4.2.6.8 and 6.1.1.4'
Cl Cl 0.1484 0.1585 'International Tables Vol C Tables 4.2.6.8 and 6.1.1.4'
Ga Ga 0.2307 1.6083 'International Tables Vol C Tables 4.2.6.8 and 6.1.1.4'
loop_
_geom_angle_atom_site_label_1
_geom_angle_atom_site_label_2
_geom_angle_atom_site_label_3
_geom_angle
C2 C1 P1 112.62(11)
C2 C1 H1A 109.1
P1 C1 H1A 109.1
C2 C1 H1B 109.1
P1 C1 H1B 109.1
H1A C1 H1B 107.8
C1 C2 H2A 109.5
C1 C2 H2B 109.5
H2A C2 H2B 109.5
C1 C2 H2C 109.5
H2A C2 H2C 109.5
H2B C2 H2C 109.5
C1 P1 Cl1 105.39(5)
C1 P1 P3 119.40(5)
Cl1 P1 P3 110.61(2)
C1 P1 P2 117.17(6)
Cl1 P1 P2 112.57(2)
P3 P1 P2 91.54(2)
P1 P2 P5 82.05(2)
P1 P2 P4 83.86(2)
P5 P2 P4 58.29(2)
P1 P3 P4 84.27(2)
P1 P3 P5 81.99(2)
P4 P3 P5 58.30(2)
P5 P4 P3 61.179(19)
P5 P4 P2 60.727(19)
P3 P4 P2 87.33(2)
P4 P5 P2 60.99(2)
P4 P5 P3 60.52(2)
P2 P5 P3 87.12(2)
Cl5 Ga1 Cl4 109.80(2)
Cl5 Ga1 Cl3 111.275(18)
Cl4 Ga1 Cl3 109.957(18)
Cl5 Ga1 Cl2 108.00(2)
Cl4 Ga1 Cl2 110.053(17)
Cl3 Ga1 Cl2 107.712(16)
loop_
_geom_bond_atom_site_label_1
_geom_bond_atom_site_label_2
_geom_bond_distance
C1 C2 1.530(2)
C1 P1 1.7994(15)
C1 H1A 0.9900
C1 H1B 0.9900
C2 H2A 0.9800
C2 H2B 0.9800
C2 H2C 0.9800
P1 Cl1 2.0167(5)
P1 P3 2.1559(5)
P1 P2 2.1630(6)
P2 P5 2.2406(6)
P2 P4 2.2462(6)
P3 P4 2.2358(6)
P3 P5 2.2501(6)
P4 P5 2.1851(6)
Cl2 Ga1 2.1977(4)
Cl3 Ga1 2.1691(4)
Cl4 Ga1 2.1671(4)
Cl5 Ga1 2.1645(5)
