#------------------------------------------------------------------------------
#$Date: 2016-03-23 16:58:48 +0200 (Wed, 23 Mar 2016) $
#$Revision: 179402 $
#$URL: svn://www.crystallography.net/cod/cif/4/32/99/4329980.cif $
#------------------------------------------------------------------------------
#
# This file is available in the Crystallography Open Database (COD),
# http://www.crystallography.net/
#
# All data on this site have been placed in the public domain by the
# contributors.
#
data_4329980
loop_
_publ_author_name
'Romain J. Adcock'
'Duc Hanh Nguyen'
'Sonia Ladeira'
'Carole Le Berre'
'Philippe Serp'
'Philippe Kalck'
_publ_section_title
;
 Reactivity of Rhodium(I) Complexes Bearing Nitrogen-Containing Ligands
 toward CH3I: Synthesis and Full Characterization of Neutral
 cis-[RhX(CO)2(L)] and Acetyl [RhI(\m-I)(COMe)(CO)(L)]2 Complexes
;
_journal_name_full               'Inorganic Chemistry'
_journal_page_first              8670
_journal_page_last               8685
_journal_paper_doi               10.1021/ic2019988
_journal_volume                  51
_journal_year                    2012
_chemical_compound_source        'synthesis as described'
_chemical_formula_moiety         'C6 H6 I N2 O2 Rh'
_chemical_formula_sum            'C6 H6 I N2 O2 Rh'
_chemical_formula_weight         367.94
_chemical_name_systematic
;
 ?
;
_space_group_IT_number           14
_symmetry_cell_setting           monoclinic
_symmetry_Int_Tables_number      14
_symmetry_space_group_name_Hall  '-P 2ybc'
_symmetry_space_group_name_H-M   'P 1 21/c 1'
_atom_sites_solution_hydrogens   geom
_atom_sites_solution_primary     direct
_atom_sites_solution_secondary   difmap
_cell_angle_alpha                90
_cell_angle_beta                 126.628(5)
_cell_angle_gamma                90
_cell_formula_units_Z            4
_cell_length_a                   11.2116(10)
_cell_length_b                   7.5428(6)
_cell_length_c                   14.1730(11)
_cell_measurement_reflns_used    3760
_cell_measurement_temperature    180(2)
_cell_measurement_theta_max      30.31
_cell_measurement_theta_min      2.26
_cell_measurement_wavelength     0.71073
_cell_volume                     961.88(15)
_computing_cell_refinement       'Bruker SMART'
_computing_data_collection       'Bruker SMART'
_computing_data_reduction        'Bruker SAINT'
_computing_molecular_graphics    'Ortep-3 for Windows (Farrugia, 1997)'
_computing_publication_material  'WinGX publication routines (Farrugia, 1999)'
_computing_structure_refinement  'SHELXL-97 (Sheldrick, 1997)'
_computing_structure_solution    'SHELXS-97 (Sheldrick, 1990)'
_diffrn_ambient_temperature      180(2)
_diffrn_measured_fraction_theta_full 0.997
_diffrn_measured_fraction_theta_max 0.997
_diffrn_measurement_device_type  'Bruker Kappa APEX II'
_diffrn_measurement_method       \w-\f
_diffrn_radiation_monochromator  graphite
_diffrn_radiation_probe          x-ray
_diffrn_radiation_source         'fine-focus sealed tube'
_diffrn_radiation_type           MoK\a
_diffrn_radiation_wavelength     0.71073
_diffrn_reflns_av_R_equivalents  0.0262
_diffrn_reflns_av_unetI/netI     0.0287
_diffrn_reflns_limit_h_max       15
_diffrn_reflns_limit_h_min       -15
_diffrn_reflns_limit_k_max       10
_diffrn_reflns_limit_k_min       -9
_diffrn_reflns_limit_l_max       20
_diffrn_reflns_limit_l_min       -17
_diffrn_reflns_number            10584
_diffrn_reflns_theta_full        30.46
_diffrn_reflns_theta_max         30.46
_diffrn_reflns_theta_min         2.26
_diffrn_standards_decay_%        0
_diffrn_standards_interval_count 0
_diffrn_standards_interval_time  0
_diffrn_standards_number         0
_exptl_absorpt_coefficient_mu    4.947
_exptl_absorpt_correction_T_max  0.820
_exptl_absorpt_correction_T_min  0.620
_exptl_absorpt_correction_type   multi-scan
_exptl_absorpt_process_details
;
        [c.f. r.h. blessing, acta cryst. (1995), a51, 33-38]
;
_exptl_crystal_colour            orange
_exptl_crystal_density_diffrn    2.541
_exptl_crystal_description       plate
_exptl_crystal_F_000             680
_exptl_crystal_size_max          0.12
_exptl_crystal_size_mid          0.08
_exptl_crystal_size_min          0.04
_refine_diff_density_max         0.488
_refine_diff_density_min         -0.511
_refine_diff_density_rms         0.113
_refine_ls_extinction_method     none
_refine_ls_goodness_of_fit_ref   0.985
_refine_ls_hydrogen_treatment    constr
_refine_ls_matrix_type           full
_refine_ls_number_parameters     110
_refine_ls_number_reflns         2914
_refine_ls_number_restraints     0
_refine_ls_restrained_S_all      0.985
_refine_ls_R_factor_all          0.0407
_refine_ls_R_factor_gt           0.0211
_refine_ls_shift/su_max          0.011
_refine_ls_shift/su_mean         0
_refine_ls_structure_factor_coef Fsqd
_refine_ls_weighting_details
'calc w=1/[\s^2^(Fo^2^)+(0.0149P)^2^+0.2642P] where P=(Fo^2^+2Fc^2^)/3'
_refine_ls_weighting_scheme      calc
_refine_ls_wR_factor_gt          0.0374
_refine_ls_wR_factor_ref         0.0423
_reflns_number_gt                2116
_reflns_number_total             2914
_reflns_threshold_expression     >2sigma(I)
_cod_data_source_file            ic2019988_si_002_06.cif
_cod_data_source_block           4d
_cod_original_sg_symbol_H-M      'P 21/c'
_cod_database_code               4329980
loop_
_symmetry_equiv_pos_as_xyz
'x, y, z'
'-x, y+1/2, -z+1/2'
'-x, -y, -z'
'x, -y-1/2, z-1/2'
loop_
_atom_site_label
_atom_site_type_symbol
_atom_site_fract_x
_atom_site_fract_y
_atom_site_fract_z
_atom_site_U_iso_or_equiv
_atom_site_adp_type
_atom_site_occupancy
_atom_site_symmetry_multiplicity
_atom_site_calc_flag
_atom_site_refinement_flags
I1 I 1.142659(19) 0.65183(2) 0.685192(14) 0.02639(5) Uani 1 1 d .
Rh1 Rh 0.99743(2) 0.64974(3) 0.780109(17) 0.02388(6) Uani 1 1 d .
O1 O 1.2922(2) 0.6302(3) 1.01471(17) 0.0413(5) Uani 1 1 d .
O2 O 0.8403(2) 0.6386(3) 0.89177(18) 0.0382(5) Uani 1 1 d .
N1 N 0.7899(2) 0.6654(3) 0.61458(18) 0.0247(5) Uani 1 1 d .
N2 N 0.6067(2) 0.6122(3) 0.43006(18) 0.0237(5) Uani 1 1 d .
C1 C 1.1796(3) 0.6367(4) 0.9252(2) 0.0300(6) Uani 1 1 d .
C2 C 0.9008(3) 0.6443(4) 0.8508(2) 0.0293(6) Uani 1 1 d .
C3 C 0.7510(3) 0.5870(3) 0.5164(2) 0.0253(6) Uani 1 1 d .
H3 H 0.8169 0.5215 0.5084 0.03 Uiso 1 1 calc R
C4 C 0.5493(3) 0.7127(4) 0.4748(2) 0.0322(6) Uani 1 1 d .
H4 H 0.4496 0.7521 0.4342 0.039 Uiso 1 1 calc R
C5 C 0.6630(3) 0.7444(4) 0.5882(2) 0.0308(6) Uani 1 1 d .
H5 H 0.6563 0.8113 0.6416 0.037 Uiso 1 1 calc R
C6 C 0.5234(3) 0.5434(4) 0.3104(2) 0.0375(7) Uani 1 1 d .
H6A H 0.591 0.5244 0.2892 0.056 Uiso 1 1 calc R
H6B H 0.4465 0.6289 0.256 0.056 Uiso 1 1 calc R
H6C H 0.4766 0.4308 0.3057 0.056 Uiso 1 1 calc R
loop_
_atom_site_aniso_label
_atom_site_aniso_U_11
_atom_site_aniso_U_22
_atom_site_aniso_U_33
_atom_site_aniso_U_23
_atom_site_aniso_U_13
_atom_site_aniso_U_12
I1 0.02090(9) 0.03452(10) 0.02429(9) 0.00118(8) 0.01377(8) -0.00007(8)
Rh1 0.01917(11) 0.03237(12) 0.01885(10) -0.00164(9) 0.01066(9) -0.00165(9)
O1 0.0270(12) 0.0664(15) 0.0224(10) 0.0009(10) 0.0103(9) 0.0008(11)
O2 0.0405(13) 0.0476(12) 0.0378(11) -0.0087(10) 0.0294(11) -0.0075(11)
N1 0.0208(11) 0.0285(11) 0.0224(11) -0.0014(10) 0.0117(10) -0.0014(10)
N2 0.0197(11) 0.0280(12) 0.0221(11) -0.0008(9) 0.0117(10) 0.0016(9)
C1 0.0299(15) 0.0372(16) 0.0278(14) -0.0006(13) 0.0198(13) 0.0004(13)
C2 0.0281(15) 0.0319(14) 0.0259(13) -0.0055(13) 0.0150(12) -0.0041(13)
C3 0.0195(13) 0.0299(14) 0.0237(13) 0.0007(11) 0.0114(12) 0.0016(11)
C4 0.0211(15) 0.0402(16) 0.0328(16) -0.0007(13) 0.0148(13) 0.0051(12)
C5 0.0255(15) 0.0354(15) 0.0311(15) -0.0073(13) 0.0166(13) -0.0006(13)
C6 0.0259(15) 0.0514(18) 0.0245(14) -0.0073(14) 0.0093(13) -0.0007(15)
loop_
_atom_type_symbol
_atom_type_description
_atom_type_scat_dispersion_real
_atom_type_scat_dispersion_imag
_atom_type_scat_source
C C 0.0033 0.0016 'International Tables Vol C Tables 4.2.6.8 and 6.1.1.4'
H H 0 0 'International Tables Vol C Tables 4.2.6.8 and 6.1.1.4'
I I -0.4742 1.8119 'International Tables Vol C Tables 4.2.6.8 and 6.1.1.4'
N N 0.0061 0.0033 'International Tables Vol C Tables 4.2.6.8 and 6.1.1.4'
O O 0.0106 0.006 'International Tables Vol C Tables 4.2.6.8 and 6.1.1.4'
Rh Rh -1.1178 0.9187 'International Tables Vol C Tables 4.2.6.8 and 6.1.1.4'
loop_
_geom_angle_atom_site_label_1
_geom_angle_atom_site_label_2
_geom_angle_atom_site_label_3
_geom_angle
C1 Rh1 C2 90.67(12)
C1 Rh1 N1 179.83(12)
C2 Rh1 N1 89.41(10)
C1 Rh1 I1 87.67(8)
C2 Rh1 I1 178.13(9)
N1 Rh1 I1 92.25(6)
C3 N1 C5 105.6(2)
C3 N1 Rh1 126.79(18)
C5 N1 Rh1 127.30(17)
C3 N2 C4 107.5(2)
C3 N2 C6 126.8(2)
C4 N2 C6 125.7(2)
O1 C1 Rh1 179.4(3)
O2 C2 Rh1 178.6(3)
N1 C3 N2 111.0(2)
N1 C3 H3 124.5
N2 C3 H3 124.5
C5 C4 N2 106.1(2)
C5 C4 H4 126.9
N2 C4 H4 126.9
C4 C5 N1 109.7(2)
C4 C5 H5 125.1
N1 C5 H5 125.1
N2 C6 H6A 109.5
N2 C6 H6B 109.5
H6A C6 H6B 109.5
N2 C6 H6C 109.5
H6A C6 H6C 109.5
H6B C6 H6C 109.5
loop_
_geom_bond_atom_site_label_1
_geom_bond_atom_site_label_2
_geom_bond_distance
I1 Rh1 2.6599(3)
Rh1 C1 1.844(3)
Rh1 C2 1.863(3)
Rh1 N1 2.102(2)
O1 C1 1.138(3)
O2 C2 1.127(3)
N1 C3 1.323(3)
N1 C5 1.372(3)
N2 C3 1.338(3)
N2 C4 1.370(3)
N2 C6 1.458(3)
C3 H3 0.95
C4 C5 1.349(4)
C4 H4 0.95
C5 H5 0.95
C6 H6A 0.98
C6 H6B 0.98
C6 H6C 0.98
