#------------------------------------------------------------------------------
#$Date: 2016-03-23 20:25:45 +0200 (Wed, 23 Mar 2016) $
#$Revision: 179411 $
#$URL: svn://www.crystallography.net/cod/cif/4/33/08/4330861.cif $
#------------------------------------------------------------------------------
#
# This file is available in the Crystallography Open Database (COD),
# http://www.crystallography.net/
#
# All data on this site have been placed in the public domain by the
# contributors.
#
data_4330861
loop_
_publ_author_name
'Alexey Y. Timoshkin'
'Michael Bodensteiner'
'Tatiana N. Sevastianova'
'Anna S. Lisovenko'
'Elena I. Davydova'
'Manfred Scheer'
'Christian Gra\&sl'
'Alina V. Butlak'
_publ_section_title
;
 Do Solid-State Structures Reflect Lewis Acidity Trends of Heavier Group
 13 Trihalides? Experimental and Theoretical Case Study
;
_journal_name_full               'Inorganic Chemistry'
_journal_page_first              11602
_journal_page_last               11611
_journal_paper_doi               10.1021/ic301507c
_journal_volume                  51
_journal_year                    2012
_chemical_compound_source        'see text'
_chemical_formula_moiety         'C5 H5 Cl3 Ga N'
_chemical_formula_sum            'C5 H5 Cl3 Ga N'
_chemical_formula_weight         255.17
_chemical_name_systematic        ?
_space_group_IT_number           14
_symmetry_cell_setting           monoclinic
_symmetry_Int_Tables_number      14
_symmetry_space_group_name_Hall  '-P 2yn'
_symmetry_space_group_name_H-M   'P 1 21/n 1'
_atom_sites_solution_hydrogens   geom
_atom_sites_solution_primary     direct
_atom_sites_solution_secondary   difmap
_cell_angle_alpha                90
_cell_angle_beta                 103.213(3)
_cell_angle_gamma                90
_cell_formula_units_Z            4
_cell_length_a                   6.3425(2)
_cell_length_b                   15.9402(5)
_cell_length_c                   9.1176(3)
_cell_measurement_reflns_used    2297
_cell_measurement_temperature    123(1)
_cell_measurement_theta_max      66.4445
_cell_measurement_theta_min      4.9784
_cell_volume                     897.39(5)
_computing_cell_refinement
;
CrysAlisPro, Agilent Technologies,
Version 1.171.35.11 (release 16-05-2011 CrysAlis171 .NET)
(compiled May 16 2011,17:55:39)
;
_computing_data_collection
;
CrysAlisPro, Agilent Technologies,
Version 1.171.35.11 (release 16-05-2011 CrysAlis171 .NET)
(compiled May 16 2011,17:55:39)
;
_computing_data_reduction
;
CrysAlisPro, Agilent Technologies,
Version 1.171.35.11 (release 16-05-2011 CrysAlis171 .NET)
(compiled May 16 2011,17:55:39)
;
_computing_molecular_graphics    'SXGRAPH (Farrugia, 1999)'
_computing_publication_material  'PLATON (Spek, 2003)'
_computing_structure_refinement  'SHELXL-97 (Sheldrick, 2008)'
_computing_structure_solution    'SUPERFLIP (Palatinus, Chapuis, 2007)'
_diffrn_ambient_temperature      123(1)
_diffrn_detector_area_resol_mean 10.5431
_diffrn_measured_fraction_theta_full 0.982
_diffrn_measured_fraction_theta_max 0.982
_diffrn_measurement_device_type  'Xcalibur, Ruby, Gemini ultra'
_diffrn_measurement_method       '\w scans'
_diffrn_radiation_monochromator  mirror
_diffrn_radiation_probe          x-ray
_diffrn_radiation_source         'Enhance Ultra (Cu) x-ray Source'
_diffrn_radiation_type           CuK\a
_diffrn_radiation_wavelength     1.54186
_diffrn_reflns_av_R_equivalents  0.0306
_diffrn_reflns_av_sigmaI/netI    0.0368
_diffrn_reflns_limit_h_max       6
_diffrn_reflns_limit_h_min       -7
_diffrn_reflns_limit_k_max       17
_diffrn_reflns_limit_k_min       -18
_diffrn_reflns_limit_l_max       10
_diffrn_reflns_limit_l_min       -5
_diffrn_reflns_number            3327
_diffrn_reflns_reduction_process
;
;
_diffrn_reflns_theta_full        66.56
_diffrn_reflns_theta_max         66.56
_diffrn_reflns_theta_min         5.55
_exptl_absorpt_coefficient_mu    11.828
_exptl_absorpt_correction_T_max  1.00000
_exptl_absorpt_correction_T_min  0.63604
_exptl_absorpt_correction_type   multi-scan
_exptl_absorpt_process_details
;
CrysAlisPro, Agilent Technologies,
Version 1.171.35.11 (release 16-05-2011 CrysAlis171 .NET)
(compiled May 16 2011,17:55:39)
empirical absorption correction using spherical harmonics,
 implemented in SCALE3 ABSPACK scaling algorithm.
;
_exptl_crystal_colour            colourless
_exptl_crystal_density_diffrn    1.889
_exptl_crystal_density_method    'Not Measured'
_exptl_crystal_description       block
_exptl_crystal_F_000             496
_exptl_crystal_size_max          0.15
_exptl_crystal_size_mid          0.06
_exptl_crystal_size_min          0.04
_refine_diff_density_max         0.511
_refine_diff_density_min         -0.362
_refine_diff_density_rms         0.086
_refine_ls_extinction_method     none
_refine_ls_goodness_of_fit_ref   1.051
_refine_ls_hydrogen_treatment    constr
_refine_ls_matrix_type           full
_refine_ls_number_parameters     91
_refine_ls_number_reflns         1559
_refine_ls_number_restraints     0
_refine_ls_restrained_S_all      1.051
_refine_ls_R_factor_all          0.0299
_refine_ls_R_factor_gt           0.0270
_refine_ls_shift/su_max          0.001
_refine_ls_shift/su_mean         0.000
_refine_ls_structure_factor_coef Fsqd
_refine_ls_weighting_details
'calc w=1/[\s^2^(Fo^2^)+(0.0412P)^2^]         where P=(Fo^2^+2Fc^2^)/3'
_refine_ls_weighting_scheme      calc
_refine_ls_wR_factor_gt          0.0702
_refine_ls_wR_factor_ref         0.0725
_reflns_number_gt                1428
_reflns_number_total             1559
_reflns_threshold_expression     >2\s(i)
_cod_data_source_file            ic301507c_si_002_01.cif
_cod_data_source_block           GaClpy
_cod_original_sg_symbol_H-M      'P 21/n'
_cod_database_code               4330861
loop_
_symmetry_equiv_pos_site_id
_symmetry_equiv_pos_as_xyz
1 x,y,z
2 1/2-x,1/2+y,1/2-z
3 -x,-y,-z
4 1/2+x,1/2-y,1/2+z
loop_
_atom_site_aniso_label
_atom_site_aniso_U_11
_atom_site_aniso_U_22
_atom_site_aniso_U_33
_atom_site_aniso_U_23
_atom_site_aniso_U_13
_atom_site_aniso_U_12
Ga1 0.0188(2) 0.0192(2) 0.0232(2) -0.0003(1) 0.0068(1) 0.0008(1)
Cl1 0.0297(3) 0.0287(4) 0.0267(3) -0.0043(2) 0.0051(2) -0.0040(2)
Cl2 0.0337(4) 0.0339(4) 0.0286(3) 0.0089(2) 0.0120(3) 0.0051(3)
Cl3 0.0195(3) 0.0278(4) 0.0476(4) -0.0056(2) 0.0112(3) 0.0012(2)
N1 0.0200(10) 0.0202(11) 0.0204(10) -0.0001(7) 0.0064(8) 0.0006(8)
C1 0.0218(12) 0.0250(13) 0.0268(12) -0.0026(11) 0.0091(10) -0.0023(11)
C2 0.0279(13) 0.0245(13) 0.0344(13) -0.0055(11) 0.0114(11) 0.0005(11)
C3 0.0345(14) 0.0203(14) 0.0352(13) -0.0011(11) 0.0101(11) 0.0013(11)
C4 0.0327(14) 0.0274(14) 0.0353(14) 0.0036(11) 0.0109(11) -0.0031(12)
C5 0.0251(12) 0.0287(14) 0.0271(13) 0.0017(10) 0.0111(10) 0.0000(11)
loop_
_atom_site_label
_atom_site_type_symbol
_atom_site_thermal_displace_type
_atom_site_fract_x
_atom_site_fract_y
_atom_site_fract_z
_atom_site_occupancy
_atom_site_U_iso_or_equiv
_atom_site_calc_flag
_atom_site_refinement_flags
Ga1 Ga Uani 0.90745(5) 0.81112(2) 0.22304(3) 1.000 0.0201(1) d .
Cl1 Cl Uani 1.09025(10) 0.86749(4) 0.42822(7) 1.000 0.0286(2) d .
Cl2 Cl Uani 0.97763(11) 0.86915(4) 0.02667(7) 1.000 0.0313(2) d .
Cl3 Cl Uani 0.56635(10) 0.81165(4) 0.22126(8) 1.000 0.0311(2) d .
N1 N Uani 0.9876(3) 0.69192(13) 0.2248(2) 1.000 0.0199(6) d .
C1 C Uani 1.1278(4) 0.66323(17) 0.1458(3) 1.000 0.0240(7) d .
C2 C Uani 1.1780(4) 0.57900(17) 0.1436(3) 1.000 0.0283(8) d .
C3 C Uani 1.0814(5) 0.52319(18) 0.2224(3) 1.000 0.0297(8) d .
C4 C Uani 0.9354(5) 0.55240(19) 0.3034(3) 1.000 0.0313(8) d .
C5 C Uani 0.8929(4) 0.63710(17) 0.3022(3) 1.000 0.0261(8) d .
H1 H Uiso 1.19230 0.70090 0.09160 1.000 0.0290 c R
H2 H Uiso 1.27620 0.56030 0.08920 1.000 0.0340 c R
H3 H Uiso 1.11340 0.46630 0.22170 1.000 0.0360 c R
H4 H Uiso 0.86800 0.51550 0.35720 1.000 0.0380 c R
H5 H Uiso 0.79570 0.65710 0.35640 1.000 0.0310 c R
loop_
_atom_type_symbol
_atom_type_description
_atom_type_scat_dispersion_real
_atom_type_scat_dispersion_imag
_atom_type_scat_source
C C 0.0181 0.0091 ' International Tables Vol C Tables 4.2.6.8 and 6.1.1.4'
H H 0.0000 0.0000 ' International Tables Vol C Tables 4.2.6.8 and 6.1.1.4'
Cl Cl 0.3639 0.7018 ' International Tables Vol C Tables 4.2.6.8 and 6.1.1.4'
Ga Ga -1.2846 0.7763 ' International Tables Vol C Tables 4.2.6.8 and 6.1.1.4'
N N 0.0311 0.0180 ' International Tables Vol C Tables 4.2.6.8 and 6.1.1.4'
loop_
_geom_angle_atom_site_label_1
_geom_angle_atom_site_label_2
_geom_angle_atom_site_label_3
_geom_angle
_geom_angle_publ_flag
Cl1 Ga1 Cl2 111.72(3) yes
Cl1 Ga1 Cl3 110.09(3) yes
Cl1 Ga1 N1 107.97(6) yes
Cl2 Ga1 Cl3 112.94(3) yes
Cl2 Ga1 N1 108.68(6) yes
Cl3 Ga1 N1 105.10(6) yes
Ga1 N1 C1 121.69(17) yes
Ga1 N1 C5 119.05(17) yes
C1 N1 C5 119.2(2) yes
N1 C1 C2 121.4(2) yes
C1 C2 C3 119.4(3) no
C2 C3 C4 119.5(3) no
C3 C4 C5 118.5(3) no
N1 C5 C4 122.0(2) yes
N1 C1 H1 119.00 no
C2 C1 H1 119.00 no
C1 C2 H2 120.00 no
C3 C2 H2 120.00 no
C2 C3 H3 120.00 no
C4 C3 H3 120.00 no
C3 C4 H4 121.00 no
C5 C4 H4 121.00 no
N1 C5 H5 119.00 no
C4 C5 H5 119.00 no
loop_
_geom_bond_atom_site_label_1
_geom_bond_atom_site_label_2
_geom_bond_distance
_geom_bond_publ_flag
Ga1 Cl1 2.1587(7) yes
Ga1 Cl2 2.1503(7) yes
Ga1 Cl3 2.1598(7) yes
Ga1 N1 1.966(2) yes
N1 C1 1.346(3) yes
N1 C5 1.348(3) yes
C1 C2 1.381(4) no
C2 C3 1.373(4) no
C3 C4 1.390(4) no
C4 C5 1.376(4) no
C1 H1 0.9300 no
C2 H2 0.9300 no
C3 H3 0.9300 no
C4 H4 0.9300 no
C5 H5 0.9300 no
loop_
_geom_hbond_atom_site_label_D
_geom_hbond_atom_site_label_H
_geom_hbond_atom_site_label_A
_geom_hbond_distance_DH
_geom_hbond_distance_HA
_geom_hbond_distance_DA
_geom_hbond_angle_DHA
_geom_hbond_site_symmetry_A
_geom_hbond_publ_flag
C3 H3 Cl3 0.9300 2.8100 3.568(3) 139.00 2_645 yes
loop_
_geom_torsion_atom_site_label_1
_geom_torsion_atom_site_label_2
_geom_torsion_atom_site_label_3
_geom_torsion_atom_site_label_4
_geom_torsion
_geom_torsion_publ_flag
Cl1 Ga1 N1 C1 -100.93(18) no
Cl2 Ga1 N1 C1 20.4(2) no
Cl3 Ga1 N1 C1 141.58(18) no
Cl1 Ga1 N1 C5 81.82(18) no
Cl2 Ga1 N1 C5 -156.83(17) no
Cl3 Ga1 N1 C5 -35.68(18) no
Ga1 N1 C1 C2 -177.86(19) no
C5 N1 C1 C2 -0.6(4) no
Ga1 N1 C5 C4 177.5(2) no
C1 N1 C5 C4 0.2(4) no
N1 C1 C2 C3 0.6(4) no
C1 C2 C3 C4 -0.2(4) no
C2 C3 C4 C5 -0.2(4) no
C3 C4 C5 N1 0.3(4) no
