#------------------------------------------------------------------------------
#$Date: 2016-02-16 22:30:59 +0200 (Tue, 16 Feb 2016) $
#$Revision: 176467 $
#$URL: svn://www.crystallography.net/cod/cif/4/33/33/4333392.cif $
#------------------------------------------------------------------------------
#
# This file is available in the Crystallography Open Database (COD),
# http://www.crystallography.net/
#
# All data on this site have been placed in the public domain by the
# contributors.
#
data_4333392
loop_
_publ_author_name
'Legrand, Yves-Marie'
'van der Lee, Arie'
'Masquelez, Nathalie'
'Rabu, Pierre'
'Barboiu, Mihail'
_publ_section_title
;
 Temperature induced single-crystal-to-single-crystal transformations and
 structure directed effects on magnetic properties.
;
_journal_issue                   22
_journal_name_full               'Inorganic chemistry'
_journal_page_first              9083
_journal_page_last               9089
_journal_paper_doi               10.1021/ic700867b
_journal_volume                  46
_journal_year                    2007
_chemical_formula_moiety         'C10 H12 Cu1 N2 O8 S2'
_chemical_formula_sum            'C10 H12 Cu N2 O8 S2'
_chemical_formula_weight         415.89
_space_group_IT_number           14
_symmetry_cell_setting           monoclinic
_symmetry_space_group_name_Hall  '-P 2yn'
_symmetry_space_group_name_H-M   'P 1 21/n 1'
_atom_sites_solution_hydrogens   geom
_atom_sites_solution_primary     direct
_audit_creation_date             06-06-14
_audit_creation_method           CRYSTALS_ver_12.39
_cell_angle_alpha                90
_cell_angle_beta                 115.017(6)
_cell_angle_gamma                90
_cell_formula_units_Z            2
_cell_length_a                   9.0249(4)
_cell_length_b                   8.9181(3)
_cell_length_c                   9.5654(5)
_cell_measurement_reflns_used    6523
_cell_measurement_temperature    175
_cell_measurement_theta_max      33
_cell_measurement_theta_min      5
_cell_volume                     697.64(6)
_computing_cell_refinement       'CrysAlis RED, (Oxford Diffraction, 2002)'
_computing_data_collection       'Xcalibur, (Oxford Diffraction, 2002)'
_computing_data_reduction        'CrysAlis RED, (Oxford Diffraction, 2002)'
_computing_molecular_graphics    'CAMERON (Watkin et al 1996)'
_computing_publication_material  'CRYSTALS (Betteridge et al 2003)'
_computing_structure_refinement  'CRYSTALS (Betteridge et al 2003)'
_computing_structure_solution    'SIR2002 (Burla et al., 2003)'
_diffrn_ambient_temperature      175
_diffrn_measured_fraction_theta_full 0.996
_diffrn_measured_fraction_theta_max 0.932
_diffrn_measurement_device_type  'Oxford Diffraction XCALIBUR'
_diffrn_measurement_method       \w/2\q
_diffrn_radiation_monochromator  graphite
_diffrn_radiation_type           'Mo K\a'
_diffrn_radiation_wavelength     0.71073
_diffrn_reflns_av_R_equivalents  0.020
_diffrn_reflns_limit_h_max       13
_diffrn_reflns_limit_h_min       -12
_diffrn_reflns_limit_k_max       13
_diffrn_reflns_limit_k_min       -12
_diffrn_reflns_limit_l_max       14
_diffrn_reflns_limit_l_min       -12
_diffrn_reflns_number            10192
_diffrn_reflns_theta_full        30.091
_diffrn_reflns_theta_max         32.708
_diffrn_reflns_theta_min         4.085
_diffrn_standards_decay_%        0.00
_diffrn_standards_interval_time  30
_diffrn_standards_number         '4 frames'
_exptl_absorpt_coefficient_mu    1.911
_exptl_absorpt_correction_T_max  0.75
_exptl_absorpt_correction_T_min  0.74
_exptl_absorpt_correction_type   empirical
_exptl_absorpt_process_details
; 
AbsPack - CrysAlis RED (Oxford Diffraction, 2002)
;
_exptl_crystal_colour            blue
_exptl_crystal_density_diffrn    1.980
_exptl_crystal_description       prismatic
_exptl_crystal_F_000             422
_exptl_crystal_size_max          0.66
_exptl_crystal_size_mid          0.16
_exptl_crystal_size_min          0.15
_refine_diff_density_max         0.45
_refine_diff_density_min         -0.41
_refine_ls_extinction_method     None
_refine_ls_goodness_of_fit_ref   1.0616
_refine_ls_hydrogen_treatment    refxyz
_refine_ls_matrix_type           full
_refine_ls_number_parameters     124
_refine_ls_number_reflns         1908
_refine_ls_number_restraints     0
_refine_ls_R_factor_all          0.0335
_refine_ls_R_factor_gt           0.0241
_refine_ls_shift/su_max          0.000453
_refine_ls_structure_factor_coef F
_refine_ls_weighting_details
;
 Method, part 1, Chebychev polynomial, (Watkin, 1994, Prince, 1982) 
 [weight] = 1.0/[A~0~*T~0~(x)+A~1~*T~1~(x) ... +A~n-1~]*T~n-1~(x)] 
 where A~i~ are the Chebychev coefficients listed below and x= Fcalc/Fmax 
 Method = Robust Weighting (Prince, 1982) 
 W = [weight] * [1-(deltaF/6*sigmaF)^2^]^2^ 
 A~i~ are: 
 24.7 -22.9 18.9 
;
_refine_ls_weighting_scheme      calc
_refine_ls_wR_factor_all         0.0303
_refine_ls_wR_factor_gt          0.0284
_refine_ls_wR_factor_ref         0.0284
_reflns_limit_h_max              12
_reflns_limit_h_min              -13
_reflns_limit_k_max              13
_reflns_limit_k_min              0
_reflns_limit_l_max              14
_reflns_limit_l_min              0
_reflns_number_gt                1908
_reflns_number_total             2400
_reflns_threshold_expression     I>2.00u(I)
_oxford_diffrn_Wilson_B_factor   0.00
_oxford_diffrn_Wilson_scale      0.00
_oxford_refine_ls_scale          8.405(14)
_oxford_structure_analysis_title mih14
_cod_data_source_file            ic700867bsup8.cif
_cod_data_source_block           CRYSTALS_cif
_cod_depositor_comments
;
The following automatic conversions were performed:

'_symmetry_cell_setting' value 'Monoclinic' changed to 'monoclinic'
according to /home/saulius/struct/CIF-dictionaries/cif_core.dic
dictionary named 'cif_core.dic' version 2.4.2 from 2011-04-26.

Automatic conversion script
Id: cif_fix_values 1891 2012-01-12 08:04:46Z andrius 

 Adding full bibliography for 4333385--4333393.cif.
;
_cod_original_sg_symbol_H-M      'P 21/n'
_cod_original_formula_sum        'C10 H12 Cu1 N2 O8 S2'
_cod_database_code               4333392
loop_
_symmetry_equiv_pos_as_xyz
x,y,z
-x,-y,-z
-x+1/2,y+1/2,-z+1/2
x+1/2,-y+1/2,z+1/2
loop_
_atom_site_label
_atom_site_type_symbol
_atom_site_fract_x
_atom_site_fract_y
_atom_site_fract_z
_atom_site_U_iso_or_equiv
_atom_site_occupancy
_atom_site_adp_type
_atom_site_refinement_flags_posn
Cu1 Cu 0.0000 0.5000 0.5000 0.0160 1.0000 Uani S
N2 N 0.08963(12) 0.53440(12) 0.72694(11) 0.0159 1.0000 Uani .
C3 C 0.20223(13) 0.44372(13) 0.82981(12) 0.0151 1.0000 Uani .
C4 C 0.25777(13) 0.46682(13) 0.98646(12) 0.0140 1.0000 Uani .
C5 C 0.19634(15) 0.58512(14) 1.04013(13) 0.0172 1.0000 Uani .
C6 C 0.08118(15) 0.67870(14) 0.93369(14) 0.0190 1.0000 Uani .
C7 C 0.03150(15) 0.65026(14) 0.77851(14) 0.0187 1.0000 Uani .
S8 S 0.40402(3) 0.34577(3) 1.12122(3) 0.0163 1.0000 Uani .
O9 O 0.49049(11) 0.27343(11) 1.04123(11) 0.0206 1.0000 Uani .
O10 O 0.30930(13) 0.23984(12) 1.16667(11) 0.0237 1.0000 Uani .
O11 O 0.50472(13) 0.44299(14) 1.24649(12) 0.0298 1.0000 Uani .
O12 O 0.22197(12) 0.49310(12) 0.50409(12) 0.0205 1.0000 Uani .
H13 H 0.243(4) 0.370(3) 0.790(3) 0.0500 1.0000 Uiso .
H14 H 0.228(4) 0.597(3) 1.144(3) 0.0500 1.0000 Uiso .
H15 H 0.036(4) 0.759(3) 0.964(3) 0.0500 1.0000 Uiso .
H16 H -0.042(3) 0.714(3) 0.703(3) 0.0500 1.0000 Uiso .
H17 H 0.292(5) 0.511(3) 0.578(5) 0.0500 1.0000 Uiso .
H18 H 0.233(4) 0.551(3) 0.445(4) 0.0500 1.0000 Uiso .
loop_
_atom_site_aniso_label
_atom_site_aniso_U_11
_atom_site_aniso_U_22
_atom_site_aniso_U_33
_atom_site_aniso_U_23
_atom_site_aniso_U_13
_atom_site_aniso_U_12
Cu1 0.01334(9) 0.02169(11) 0.00815(9) -0.00025(7) -0.00006(7) 0.00271(7)
N2 0.0150(4) 0.0187(4) 0.0097(4) -0.0001(3) 0.0009(3) 0.0020(3)
C3 0.0151(4) 0.0168(5) 0.0099(4) -0.0003(4) 0.0018(3) 0.0016(4)
C4 0.0127(4) 0.0173(5) 0.0097(4) 0.0001(3) 0.0024(3) -0.0016(3)
C5 0.0183(5) 0.0203(5) 0.0123(4) -0.0034(4) 0.0057(4) -0.0024(4)
C6 0.0191(5) 0.0193(5) 0.0183(5) -0.0034(4) 0.0076(4) 0.0003(4)
C7 0.0169(5) 0.0190(5) 0.0163(5) 0.0005(4) 0.0032(4) 0.0030(4)
S8 0.01464(12) 0.02103(14) 0.00930(11) 0.00177(9) 0.00124(9) 0.00060(9)
O9 0.0188(4) 0.0237(4) 0.0192(4) 0.0043(3) 0.0079(3) 0.0038(3)
O10 0.0280(5) 0.0258(5) 0.0200(4) 0.0082(3) 0.0128(4) 0.0032(4)
O11 0.0236(5) 0.0357(6) 0.0158(4) -0.0056(4) -0.0054(4) -0.0001(4)
O12 0.0143(4) 0.0272(5) 0.0143(4) -0.0020(3) 0.0005(3) 0.0012(3)
loop_
_atom_type_symbol
_atom_type_scat_dispersion_real
_atom_type_scat_dispersion_imag
_atom_type_scat_Cromer_Mann_a1
_atom_type_scat_Cromer_Mann_b1
_atom_type_scat_Cromer_Mann_a2
_atom_type_scat_Cromer_Mann_b2
_atom_type_scat_Cromer_Mann_a3
_atom_type_scat_Cromer_Mann_b3
_atom_type_scat_Cromer_Mann_a4
_atom_type_scat_Cromer_Mann_b4
_atom_type_scat_Cromer_Mann_c
_atom_type_scat_source
C 0.0033 0.0016 2.3100 20.8439 1.0200 10.2075 1.5886 0.5687 0.8650 51.6512
0.2156 'International Tables Vol C 4.2.6.8 and 6.1.1.4'
H 0.0000 0.0000 0.4930 10.5109 0.3229 26.1257 0.1402 3.1424 0.0408 57.7998
0.0030 'International Tables Vol C 4.2.6.8 and 6.1.1.4'
O 0.0106 0.0060 3.0485 13.2771 2.2868 5.7011 1.5463 0.3239 0.8670 32.9089
0.2508 'International Tables Vol C 4.2.6.8 and 6.1.1.4'
N 0.0061 0.0033 12.2126 0.0057 3.1322 9.8933 2.0125 28.9975 1.1663 0.5826
-11.5290 'International Tables Vol C 4.2.6.8 and 6.1.1.4'
S 0.1246 0.1234 6.9053 1.4679 5.2034 22.2151 1.4379 0.2536 1.5863 56.1720
0.8669 'International Tables Vol C 4.2.6.8 and 6.1.1.4'
Cu 0.3201 1.2651 13.3380 3.5828 7.1676 0.2470 5.6158 11.3966 1.6735 64.8126
1.1910 'International Tables Vol C 4.2.6.8 and 6.1.1.4'
loop_
_geom_angle_atom_site_label_1
_geom_angle_site_symmetry_1
_geom_angle_atom_site_label_2
_geom_angle_atom_site_label_3
_geom_angle_site_symmetry_3
_geom_angle
_geom_angle_publ_flag
O9 3_556 Cu1 O9 4_454 179.995 yes
O9 3_556 Cu1 N2 2_566 90.20(4) yes
O9 4_454 Cu1 N2 2_566 89.80(4) yes
O9 3_556 Cu1 O12 2_566 93.95(4) yes
O9 4_454 Cu1 O12 2_566 86.05(4) yes
N2 2_566 Cu1 O12 2_566 92.40(4) yes
O9 3_556 Cu1 N2 . 89.80(4) yes
O9 4_454 Cu1 N2 . 90.20(4) yes
N2 2_566 Cu1 N2 . 179.994 yes
O12 2_566 Cu1 N2 . 87.60(4) yes
O9 3_556 Cu1 O12 . 86.05(4) yes
O9 4_454 Cu1 O12 . 93.95(4) yes
N2 2_566 Cu1 O12 . 87.60(4) yes
O12 2_566 Cu1 O12 . 179.994 yes
N2 . Cu1 O12 . 92.40(4) yes
Cu1 . N2 C3 . 122.49(8) yes
Cu1 . N2 C7 . 118.45(8) yes
C3 . N2 C7 . 119.03(10) yes
N2 . C3 C4 . 121.32(11) yes
N2 . C3 H13 . 116.2(19) no
C4 . C3 H13 . 122.4(19) no
C3 . C4 C5 . 119.80(10) yes
C3 . C4 S8 . 121.10(9) yes
C5 . C4 S8 . 119.09(9) yes
C4 . C5 C6 . 118.64(11) yes
C4 . C5 H14 . 119.9(19) no
C6 . C5 H14 . 121.4(19) no
C5 . C6 C7 . 118.76(11) yes
C5 . C6 H15 . 121.8(18) no
C7 . C6 H15 . 119.4(18) no
C6 . C7 N2 . 122.44(11) yes
C6 . C7 H16 . 121.5(17) no
N2 . C7 H16 . 116.1(17) no
C4 . S8 O9 . 106.76(5) yes
C4 . S8 O10 . 105.17(6) yes
O9 . S8 O10 . 112.46(6) yes
C4 . S8 O11 . 104.57(6) yes
O9 . S8 O11 . 114.38(7) yes
O10 . S8 O11 . 112.54(7) yes
Cu1 3_546 O9 S8 . 125.65(6) yes
Cu1 . O12 H17 . 117(3) no
Cu1 . O12 H18 . 113(2) no
H17 . O12 H18 . 103(3) no
loop_
_geom_bond_atom_site_label_1
_geom_bond_atom_site_label_2
_geom_bond_site_symmetry_2
_geom_bond_distance
_geom_bond_publ_flag
Cu1 O9 3_556 2.4774(10) yes
Cu1 O9 4_454 2.4774(10) yes
Cu1 N2 2_566 1.9939(10) yes
Cu1 O12 2_566 1.9880(10) yes
Cu1 N2 . 1.9939(10) yes
Cu1 O12 . 1.9880(10) yes
N2 C3 . 1.3451(14) yes
N2 C7 . 1.3435(16) yes
C3 C4 . 1.3798(15) yes
C3 H13 . 0.91(3) no
C4 C5 . 1.3873(17) yes
C4 S8 . 1.7692(11) yes
C5 C6 . 1.3850(17) yes
C5 H14 . 0.91(3) no
C6 C7 . 1.3805(17) yes
C6 H15 . 0.93(3) no
C7 H16 . 0.94(3) no
S8 O9 . 1.4544(10) yes
S8 O10 . 1.4583(10) yes
S8 O11 . 1.4466(10) yes
O12 H17 . 0.74(4) no
O12 H18 . 0.80(3) no
