#------------------------------------------------------------------------------
#$Date: 2016-03-23 21:43:14 +0200 (Wed, 23 Mar 2016) $
#$Revision: 179455 $
#$URL: svn://www.crystallography.net/cod/cif/4/33/52/4335209.cif $
#------------------------------------------------------------------------------
#
# This file is available in the Crystallography Open Database (COD),
# http://www.crystallography.net/
#
# All data on this site have been placed in the public domain by the
# contributors.
#
data_4335209
loop_
_publ_author_name
'Miguel Cortijo'
'Santiago Herrero'
'Reyes Jim\'enez-Aparicio'
'Emilio Matesanz'
_publ_contact_author_address
;
Departamento de Qu\'imica Inorg\'anica
Facultad de Ciencias Qu\'imicas
Universidad Complutense de Madrid
Ciudad Universitaria
28040 Madrid (Spain)
;
_publ_contact_author_email       sherrero@quim.ucm.es
_publ_contact_author_name        'Herrero, Santiago'
_publ_section_title
;
 Modulation of the Magnetic Properties of Two-Dimensional Compounds
 [NiX2(N-N)] by Tailoring Their Crystal Structure
;
_journal_name_full               'Inorganic Chemistry'
_journal_page_first              7087
_journal_page_last               7093
_journal_paper_doi               10.1021/ic400632c
_journal_volume                  52
_journal_year                    2013
_chemical_formula_sum            'C4 H4 Cl2 N2 Ni'
_chemical_formula_weight         209.69
_chemical_name_systematic        ' ?'
_space_group_IT_number           65
_symmetry_cell_setting           orthorhombic
_symmetry_space_group_name_Hall  '-C 2 2'
_symmetry_space_group_name_H-M   'C m m m'
_cell_angle_alpha                90.00000
_cell_angle_beta                 90.00000
_cell_angle_gamma                90.00000
_cell_formula_units_Z            2
_cell_length_a                   12.04909(15)
_cell_length_b                   7.00406(9)
_cell_length_c                   3.51307(5)
_cell_measurement_temperature    298(3)
_cell_volume                     296.477(7)
_computing_structure_refinement  'FULLPROF (Rodr\'iguez-Carvajal, 1993)'
_computing_structure_solution    'FOX (Favre-Nicolin & Cerny, 2002)'
_diffrn_ambient_temperature      298(3)
_diffrn_detector_type            'Panalytical B.V. X\'Celerator'
_diffrn_measurement_device_type  'Panalytical B.V. X\'Pert PRO'
_diffrn_radiation_monochromator  'Ge 111'
_diffrn_radiation_type           'Cu K\a~1~'
_diffrn_radiation_wavelength     1.5406
_diffrn_source                   'sealed x-ray tube'
_diffrn_source_target            Cu
_pd_char_colour                  light_green
_pd_meas_2theta_range_inc        0.017000
_pd_meas_2theta_range_max        119.99640
_pd_meas_2theta_range_min        5.00840
_pd_meas_number_of_points        6765
_pd_meas_scan_method             cont
_pd_proc_2theta_range_inc        0.017000
_pd_proc_2theta_range_max        119.9964
_pd_proc_2theta_range_min        5.0084
_pd_proc_ls_prof_R_factor        9.9431
_pd_proc_ls_prof_wR_expected     9.0097
_pd_proc_ls_prof_wR_factor       12.8931
_pd_proc_wavelength              1.540600
_pd_spec_mounting
; 
pressed powder
;
_pd_spec_mount_mode              reflection
_refine_ls_number_parameters     18
_refine_ls_number_reflns         147
_refine_ls_number_restraints     0
_refine_ls_R_I_factor            4.8126
_cod_data_source_file            ic400632c_1.cif
_cod_data_source_block           MC356
_cod_database_code               4335209
#BEGIN Tags that were not found in dictionaries:
_pd_proc_ls_prof_cr_factor       15.7679
_pd_proc_ls_prof_cwr_factor      17.1304
_pd_proc_ls_prof_cwr_expected    11.9707
_pd_proc_ls_prof_chi2            2.0478
_pd_proc_ls_prof_echi2           2.2050
#END Tags that were not found in dictionaries
loop_
_symmetry_equiv_pos_as_xyz
x,y,z
x,-y,-z
-x,y,-z
-x,-y,z
-x,-y,-z
-x,y,z
x,-y,z
x,y,-z
x+1/2,y+1/2,z
x+1/2,-y+1/2,-z
-x+1/2,y+1/2,-z
-x+1/2,-y+1/2,z
-x+1/2,-y+1/2,-z
-x+1/2,y+1/2,z
x+1/2,-y+1/2,z
x+1/2,y+1/2,-z
loop_
_atom_site_label
_atom_site_fract_x
_atom_site_fract_y
_atom_site_fract_z
_atom_site_U_iso_or_equiv
_atom_site_occupancy
_atom_site_adp_type
_atom_site_type_symbol
Ni 0.00000 0.00000 0.00000 0.00000 1.00000 Uiso Ni
Cl1 0.13922(14) 0.00000 0.50000 0.00000 1.00000 Uiso Cl
N1 0.00000 0.2989(8) 0.00000 0.00000 1.00000 Uiso N
C1 0.0975(3) 0.3944(6) 0.00000 0.00000 1.00000 Uiso C
loop_
_atom_type_symbol
_atom_type_scat_Cromer_Mann_a1
_atom_type_scat_Cromer_Mann_b1
_atom_type_scat_Cromer_Mann_a2
_atom_type_scat_Cromer_Mann_b2
_atom_type_scat_Cromer_Mann_a3
_atom_type_scat_Cromer_Mann_b3
_atom_type_scat_Cromer_Mann_a4
_atom_type_scat_Cromer_Mann_b4
_atom_type_scat_Cromer_Mann_c
_atom_type_scat_dispersion_real
_atom_type_scat_dispersion_imag
_atom_type_scat_source
ni 12.83760 3.87850 7.29200 0.25650 4.44380 12.17630 2.38000 66.34210 1.03410
-2.95600 0.50900
International_Tables_for_Crystallography_Vol.C(1991)_Tables_6.1.1.4_and_6.1.1.5
cl 11.46040 0.01040 7.19640 1.16620 6.25560 18.51940 1.64550 47.77840 -9.55740
0.34800 0.70200
International_Tables_for_Crystallography_Vol.C(1991)_Tables_6.1.1.4_and_6.1.1.5
n 12.21260 0.00570 3.13220 9.89330 2.01250 28.99750 1.16630 0.58260 -11.52900
0.02900 0.01800
International_Tables_for_Crystallography_Vol.C(1991)_Tables_6.1.1.4_and_6.1.1.5
c 2.31000 20.84390 1.02000 10.20750 1.58860 0.56870 0.86500 51.65120 0.21560
0.01700 0.00900
International_Tables_for_Crystallography_Vol.C(1991)_Tables_6.1.1.4_and_6.1.1.5
loop_
_geom_angle_atom_site_label_1
_geom_angle_atom_site_label_2
_geom_angle_atom_site_label_3
_geom_angle
_geom_angle_site_symmetry_1
_geom_angle_site_symmetry_3
Cl1 Ni Cl1 92.64(4) 8_555 1_555
Cl1 Ni Cl1 87.36(9) 1_555 6_555
Cl1 Ni N1 90.0(2) 1_555 1_555
N1 Ni N1 180.0(5) 1_555 7_555
Ni N1 C1 119.7(4) 1_555 1_555
C1 N1 C1 120.7(5) 1_555 6_555
N1 C1 C1 119.7(5) 1_555 7_565
loop_
_geom_bond_atom_site_label_1
_geom_bond_atom_site_label_2
_geom_bond_distance
_geom_bond_site_symmetry_2
Ni Cl1 2.4289(12) .
Ni N1 2.094(6) .
N1 C1 1.352(5) .
C1 C1 1.479(6) 2_565
