#------------------------------------------------------------------------------
#$Date: 2016-03-23 21:51:50 +0200 (Wed, 23 Mar 2016) $
#$Revision: 179458 $
#$URL: svn://www.crystallography.net/cod/cif/4/33/55/4335516.cif $
#------------------------------------------------------------------------------
#
# This file is available in the Crystallography Open Database (COD),
# http://www.crystallography.net/
#
# All data on this site have been placed in the public domain by the
# contributors.
#
data_4335516
loop_
_publ_author_name
'Igor M. Shlyapnikov'
'H\'el\`ene P. A. Mercier'
'Evgeny A. Goreshnik'
'Gary J. Schrobilgen'
'Zoran Mazej'
_publ_contact_author_address
;
Department of Inorganic Chemistry and Technology
Jozef Stefan Institute
Jamova 39 1000 Ljubljana
SLOVENIA
;
_publ_contact_author_email       evgeny.goreshnik@ijs.si
_publ_contact_author_fax         386(1)4773645
_publ_contact_author_name        'Goreshnik, Evgeny'
_publ_contact_author_phone       386(1)4773155
_publ_section_title
;
 Crystal Structures and Raman Spectra of Imidazolium
 Poly[perfluorotitanate(IV)] Salts Containing the [TiF6]2-,
 ([Ti2F9]-)\\infty, and [Ti2F11]3- and the New [Ti4F20]4- and [Ti5F23]3-
 Anions
;
_journal_name_full               'Inorganic Chemistry'
_journal_page_first              8315
_journal_page_last               8326
_journal_paper_doi               10.1021/ic302468j
_journal_volume                  52
_journal_year                    2013
_chemical_formula_moiety         'F20 Ti4, 4(C3 H5 N2)'
_chemical_formula_sum            'C12 H20 F20 N8 Ti4'
_chemical_formula_weight         847.96
_space_group_IT_number           2
_symmetry_cell_setting           triclinic
_symmetry_space_group_name_Hall  '-P 1'
_symmetry_space_group_name_H-M   'P -1'
_atom_sites_solution_hydrogens   geom
_atom_sites_solution_primary     direct
_atom_sites_solution_secondary   difmap
_audit_creation_date             2013-06-05T12:44:49-00:00
_audit_creation_method           'WinGX routine CIF_UPDATE'
_cell_angle_alpha                118.808(8)
_cell_angle_beta                 92.366(3)
_cell_angle_gamma                113.595(8)
_cell_formula_units_Z            1
_cell_length_a                   8.791(3)
_cell_length_b                   9.971(4)
_cell_length_c                   10.126(4)
_cell_measurement_reflns_used    554
_cell_measurement_temperature    200
_cell_measurement_theta_max      28.5511
_cell_measurement_theta_min      2.4243
_cell_volume                     681.7(5)
_computing_cell_refinement       'CrystalClear (Rigaku Corporation, 1999)'
_computing_data_collection       'CrystalClear (Rigaku Corporation, 1999)'
_computing_data_reduction        'CrystalClear (Rigaku Corporation, 1999)'
_computing_molecular_graphics    'Diamond (Pennington, 1999)'
_computing_publication_material
;
WinGX 1.70 (Farrugia, L. J., 1999), enCIFer v.1.2 (Allen et al., 2004)
;
_computing_structure_refinement  'SHELXL-97 (Sheldrick, 1997)'
_computing_structure_solution
;
SIR92 (Altomare et al., 1993), 
TeXsan (Molecular Structure Corporation, 1997--1999).
;
_diffrn_ambient_temperature      200
_diffrn_measured_fraction_theta_full 0.974
_diffrn_measured_fraction_theta_max 0.812
_diffrn_measurement_device
;
        Mercury CCD (2x2 bin mode)
;
_diffrn_measurement_method       dtprofit.ref
_diffrn_radiation_type           MoK\a
_diffrn_radiation_wavelength     0.71069
_diffrn_reflns_av_R_equivalents  0.0238
_diffrn_reflns_limit_h_max       10
_diffrn_reflns_limit_h_min       -11
_diffrn_reflns_limit_k_max       12
_diffrn_reflns_limit_k_min       -12
_diffrn_reflns_limit_l_max       13
_diffrn_reflns_limit_l_min       -13
_diffrn_reflns_number            6582
_diffrn_reflns_theta_full        25
_diffrn_reflns_theta_max         29.23
_diffrn_reflns_theta_min         2.4
_exptl_absorpt_coefficient_mu    1.288
_exptl_absorpt_correction_T_max  0.912
_exptl_absorpt_correction_T_min  0.843
_exptl_absorpt_correction_type   multi-scan
_exptl_absorpt_process_details   'Blessing R.H., 1995'
_exptl_crystal_colour            Colorless
_exptl_crystal_density_diffrn    2.066
_exptl_crystal_description       Block
_exptl_crystal_F_000             416
_exptl_crystal_size_max          0.15
_exptl_crystal_size_mid          0.1
_exptl_crystal_size_min          0.08
_refine_diff_density_max         0.642
_refine_diff_density_min         -0.578
_refine_ls_extinction_method     none
_refine_ls_goodness_of_fit_ref   1.136
_refine_ls_hydrogen_treatment    constr
_refine_ls_matrix_type           full
_refine_ls_number_parameters     199
_refine_ls_number_reflns         3002
_refine_ls_number_restraints     6
_refine_ls_restrained_S_all      1.135
_refine_ls_R_factor_all          0.0508
_refine_ls_R_factor_gt           0.0466
_refine_ls_shift/su_max          0.000
_refine_ls_shift/su_mean         0.000
_refine_ls_structure_factor_coef Fsqd
_refine_ls_weighting_details
'calc w=1/[\s^2^(Fo^2^)+(0.0461P)^2^+1.3228P] where P=(Fo^2^+2Fc^2^)/3'
_refine_ls_weighting_scheme      calc
_refine_ls_wR_factor_gt          0.1136
_refine_ls_wR_factor_ref         0.1181
_reflns_number_gt                2760
_reflns_number_total             3002
_reflns_threshold_expression     I>2\s(I)
_iucr_refine_instructions_details
;
TITL Template texray.inf
CELL  0.71069   8.7914   9.9706  10.1262  118.808   92.366  113.595
ZERR     1.00   0.0032   0.0043   0.0040    0.008    0.003    0.008
LATT   1
SFAC  TI   F    N    C    H
UNIT  4    20   8    12   20
MERG   2
FMAP   2
PLAN   20
L.S.  12
ACTA 50
BOND $H
FLAT C1 > H2
FLAT C4 > H4
WGHT    0.046100    1.322800
FVAR       6.53511
TI1   1    0.206462    0.002615    0.320708    11.00000    0.03027    0.01707 =
         0.01590    0.00972    0.00683    0.00905
TI2   1    0.179479    0.372827    0.682694    11.00000    0.03042    0.01697 =
         0.01780    0.01005    0.00611    0.00909
F1    2    0.136055    0.159147    0.480610    11.00000    0.05176    0.02774 =
         0.02404    0.00974    0.01468    0.02198
F2    2   -0.006487   -0.199391    0.282423    11.00000    0.03779    0.02459 =
         0.03056    0.01735    0.01181    0.00657
F5    2    0.399766    0.188522    0.358229    11.00000    0.03523    0.02868 =
         0.03273    0.01904    0.00574    0.00342
F3    2    0.077012    0.003086    0.177817    11.00000    0.03962    0.02779 =
         0.02504    0.01557    0.00180    0.01311
F4    2    0.262736   -0.148838    0.169543    11.00000    0.05288    0.03171 =
         0.02574    0.01663    0.01852    0.02640
F6    2    0.304741   -0.007344    0.477564    11.00000    0.04213    0.03135 =
         0.02397    0.01741    0.00590    0.01645
F7    2   -0.004901    0.362358    0.580312    11.00000    0.04389    0.03800 =
         0.03133    0.01763    0.00431    0.02360
F10   2    0.340428    0.348962    0.771628    11.00000    0.03697    0.04678 =
         0.04427    0.03128    0.00603    0.01907
F8    2    0.330539    0.506953    0.628367    11.00000    0.04560    0.03675 =
         0.04456    0.03065    0.01534    0.01021
F9    2    0.194808    0.549152    0.869006    11.00000    0.06332    0.02524 =
         0.02248    0.00747    0.00985    0.02019
C1    4    0.661107    0.347612    0.685049    11.00000    0.03313    0.02217 =
         0.04278    0.01086    0.00594    0.01174
AFIX  43
H5    5    0.597465    0.226563    0.621624    11.00000   -1.20000
AFIX   0
N1    3    0.749828    0.438996    0.832718    11.00000    0.04237    0.04252 =
         0.04092    0.03165    0.01140    0.02176
AFIX  43
H1    5    0.759685    0.397066    0.887567    11.00000   -1.20000
AFIX   0
C2    4    0.778376    0.621237    0.766278    11.00000    0.05583    0.03227 =
         0.05976    0.03049    0.01986    0.02240
AFIX  43
H6    5    0.809698    0.722714    0.767439    11.00000   -1.20000
AFIX   0
C3    4    0.824148    0.610897    0.886044    11.00000    0.04460    0.03081 =
         0.03087    0.00445   -0.00175    0.01088
AFIX  43
H7    5    0.893967    0.703871    0.987389    11.00000   -1.20000
AFIX   0
N2    3    0.676698    0.454670    0.641303    11.00000    0.04234    0.04918 =
         0.02589    0.02014    0.00627    0.02336
AFIX  43
H2    5    0.630278    0.424893    0.548542    11.00000   -1.20000
AFIX   0
C4    4    0.792805    0.183531    0.252899    11.00000    0.05041    0.05560 =
         0.03480    0.02367    0.01065    0.03075
AFIX  43
H8    5    0.854926    0.301701    0.331436    11.00000   -1.20000
AFIX   0
N3    3    0.737229    0.115337    0.100082    11.00000    0.04596    0.04582 =
         0.03441    0.02889    0.01291    0.02258
AFIX  43
H3    5    0.752550    0.174201    0.057112    11.00000   -1.20000
AFIX   0
C5    4    0.656451   -0.100354    0.131387    11.00000    0.04797    0.06332 =
         0.07503    0.05549    0.03333    0.03626
AFIX  43
H9    5    0.608706   -0.211062    0.114473    11.00000   -1.20000
AFIX   0
C6    4    0.652282   -0.061760    0.021271    11.00000    0.04357    0.04717 =
         0.03389    0.02483    0.01644    0.02468
AFIX  43
H10   5    0.601542   -0.140372   -0.086859    11.00000   -1.20000
AFIX   0
N4    3    0.744710    0.055374    0.272776    11.00000    0.05855    0.08204 =
         0.03509    0.04086    0.02212    0.04572
AFIX  43
H4    5    0.765401    0.066685    0.362333    11.00000   -1.20000
 
HKLF    4
 
REM  Template texray.inf
REM R1 =  0.0466 for   2760 Fo > 4sig(Fo)  and  0.0508 for all   3002 data
REM    199 parameters refined using      6 restraints
 
END  
;
_cod_data_source_file            ic302468j_si_002_4.cif
_cod_data_source_block           shelxl
_cod_original_cell_volume        681.8(5)
_cod_database_code               4335516
loop_
_symmetry_equiv_pos_as_xyz
'x, y, z'
'-x, -y, -z'
loop_
_atom_site_label
_atom_site_type_symbol
_atom_site_fract_x
_atom_site_fract_y
_atom_site_fract_z
_atom_site_U_iso_or_equiv
_atom_site_adp_type
_atom_site_occupancy
_atom_site_symmetry_multiplicity
_atom_site_calc_flag
_atom_site_refinement_flags
Ti1 Ti 0.20646(7) 0.00261(7) 0.32071(6) 0.02162(15) Uani 1 1 d .
Ti2 Ti 0.17948(7) 0.37283(7) 0.68269(6) 0.02238(16) Uani 1 1 d .
F1 F 0.1361(3) 0.1591(3) 0.4806(2) 0.0354(5) Uani 1 1 d .
F2 F -0.0065(3) -0.1994(2) 0.2824(2) 0.0331(4) Uani 1 1 d .
F5 F 0.3998(3) 0.1885(3) 0.3582(2) 0.0359(5) Uani 1 1 d .
F3 F 0.0770(3) 0.0031(2) 0.1778(2) 0.0317(4) Uani 1 1 d .
F4 F 0.2627(3) -0.1488(3) 0.1695(2) 0.0336(4) Uani 1 1 d .
F6 F 0.3047(3) -0.0073(3) 0.4776(2) 0.0319(4) Uani 1 1 d .
F7 F -0.0049(3) 0.3624(3) 0.5803(2) 0.0370(5) Uani 1 1 d .
F10 F 0.3404(3) 0.3490(3) 0.7716(3) 0.0401(5) Uani 1 1 d .
F8 F 0.3305(3) 0.5070(3) 0.6284(3) 0.0418(5) Uani 1 1 d .
F9 F 0.1948(3) 0.5492(3) 0.8690(2) 0.0403(5) Uani 1 1 d .
C1 C 0.6611(5) 0.3476(4) 0.6850(4) 0.0369(8) Uani 1 1 d D
H5 H 0.5975 0.2266 0.6216 0.044 Uiso 1 1 calc R
N1 N 0.7498(4) 0.4390(4) 0.8327(4) 0.0370(7) Uani 1 1 d D
H1 H 0.7597 0.3971 0.8876 0.044 Uiso 1 1 calc R
C2 C 0.7784(6) 0.6212(5) 0.7663(5) 0.0460(9) Uani 1 1 d D
H6 H 0.8097 0.7227 0.7674 0.055 Uiso 1 1 calc R
C3 C 0.8241(5) 0.6109(5) 0.8860(5) 0.0449(9) Uani 1 1 d D
H7 H 0.8940 0.7039 0.9874 0.054 Uiso 1 1 calc R
N2 N 0.6767(4) 0.4547(4) 0.6413(3) 0.0389(7) Uani 1 1 d D
H2 H 0.6303 0.4249 0.5485 0.047 Uiso 1 1 calc RD
C4 C 0.7928(5) 0.1835(6) 0.2529(5) 0.0454(9) Uani 1 1 d D
H8 H 0.8549 0.3017 0.3314 0.054 Uiso 1 1 calc R
N3 N 0.7372(4) 0.1153(4) 0.1001(4) 0.0383(7) Uani 1 1 d D
H3 H 0.7526 0.1742 0.0571 0.046 Uiso 1 1 calc R
C5 C 0.6565(6) -0.1004(6) 0.1314(6) 0.0489(10) Uani 1 1 d D
H9 H 0.6087 -0.2111 0.1145 0.059 Uiso 1 1 calc R
C6 C 0.6523(5) -0.0618(5) 0.0213(4) 0.0388(8) Uani 1 1 d D
H10 H 0.6015 -0.1404 -0.0869 0.047 Uiso 1 1 calc R
N4 N 0.7447(5) 0.0554(5) 0.2728(4) 0.0490(9) Uani 1 1 d D
H4 H 0.7654 0.0667 0.3623 0.059 Uiso 1 1 calc RD
loop_
_atom_site_aniso_label
_atom_site_aniso_U_11
_atom_site_aniso_U_22
_atom_site_aniso_U_33
_atom_site_aniso_U_23
_atom_site_aniso_U_13
_atom_site_aniso_U_12
Ti1 0.0303(3) 0.0171(3) 0.0159(3) 0.0097(2) 0.0068(2) 0.0090(2)
Ti2 0.0304(3) 0.0170(3) 0.0178(3) 0.0100(2) 0.0061(2) 0.0091(2)
F1 0.0518(12) 0.0277(10) 0.0240(9) 0.0097(8) 0.0147(9) 0.0220(9)
F2 0.0378(11) 0.0246(9) 0.0306(10) 0.0174(8) 0.0118(8) 0.0066(8)
F5 0.0352(11) 0.0287(10) 0.0327(10) 0.0190(9) 0.0057(8) 0.0034(9)
F3 0.0396(11) 0.0278(9) 0.0250(9) 0.0156(8) 0.0018(8) 0.0131(9)
F4 0.0529(12) 0.0317(10) 0.0257(9) 0.0166(8) 0.0185(9) 0.0264(10)
F6 0.0421(11) 0.0313(10) 0.0240(9) 0.0174(8) 0.0059(8) 0.0164(9)
F7 0.0439(12) 0.0380(11) 0.0313(10) 0.0176(9) 0.0043(9) 0.0236(10)
F10 0.0370(11) 0.0468(12) 0.0443(12) 0.0313(11) 0.0060(9) 0.0191(10)
F8 0.0456(12) 0.0368(11) 0.0446(12) 0.0307(10) 0.0153(10) 0.0102(10)
F9 0.0633(14) 0.0252(10) 0.0225(10) 0.0075(8) 0.0099(9) 0.0202(10)
C1 0.0331(18) 0.0222(16) 0.043(2) 0.0109(15) 0.0059(15) 0.0117(14)
N1 0.0424(17) 0.0425(17) 0.0409(17) 0.0316(15) 0.0114(14) 0.0218(15)
C2 0.056(2) 0.0323(19) 0.060(3) 0.0305(19) 0.020(2) 0.0224(19)
C3 0.045(2) 0.0308(19) 0.0309(19) 0.0044(15) -0.0017(16) 0.0109(17)
N2 0.0423(17) 0.0492(19) 0.0259(15) 0.0201(14) 0.0063(13) 0.0234(15)
C4 0.050(2) 0.056(2) 0.035(2) 0.0237(19) 0.0107(17) 0.031(2)
N3 0.0460(18) 0.0458(18) 0.0344(16) 0.0289(15) 0.0129(14) 0.0226(15)
C5 0.048(2) 0.063(3) 0.075(3) 0.055(3) 0.033(2) 0.036(2)
C6 0.044(2) 0.047(2) 0.0339(18) 0.0248(17) 0.0164(16) 0.0247(18)
N4 0.059(2) 0.082(3) 0.0351(17) 0.0409(19) 0.0221(16) 0.046(2)
loop_
_atom_type_symbol
_atom_type_description
_atom_type_scat_dispersion_real
_atom_type_scat_dispersion_imag
_atom_type_scat_source
Ti Ti 0.2776 0.4457 'International Tables Vol C Tables 4.2.6.8 and 6.1.1.4'
F F 0.0171 0.0103 'International Tables Vol C Tables 4.2.6.8 and 6.1.1.4'
N N 0.0061 0.0033 'International Tables Vol C Tables 4.2.6.8 and 6.1.1.4'
C C 0.0033 0.0016 'International Tables Vol C Tables 4.2.6.8 and 6.1.1.4'
H H 0 0 'International Tables Vol C Tables 4.2.6.8 and 6.1.1.4'
loop_
_geom_angle_atom_site_label_1
_geom_angle_atom_site_label_2
_geom_angle_atom_site_label_3
_geom_angle
_geom_angle_site_symmetry_3
F5 Ti1 F3 93.95(10) .
F5 Ti1 F4 92.40(10) .
F3 Ti1 F4 92.37(10) .
F5 Ti1 F6 93.67(10) .
F3 Ti1 F6 170.14(10) .
F4 Ti1 F6 93.55(9) .
F5 Ti1 F1 89.71(10) .
F3 Ti1 F1 86.70(10) .
F4 Ti1 F1 177.75(10) .
F6 Ti1 F1 87.09(9) .
F5 Ti1 F2 179.14(9) .
F3 Ti1 F2 86.22(9) .
F4 Ti1 F2 88.43(10) .
F6 Ti1 F2 86.07(9) .
F1 Ti1 F2 89.46(9) .
F8 Ti2 F10 94.02(11) .
F8 Ti2 F9 96.48(11) .
F10 Ti2 F9 93.06(11) .
F8 Ti2 F7 92.43(11) .
F10 Ti2 F7 171.41(10) .
F9 Ti2 F7 91.85(10) .
F8 Ti2 F1 90.58(10) .
F10 Ti2 F1 88.11(10) .
F9 Ti2 F1 172.74(10) .
F7 Ti2 F1 86.15(10) .
F8 Ti2 F2 173.08(10) 2_556
F10 Ti2 F2 86.17(10) 2_556
F9 Ti2 F2 90.41(10) 2_556
F7 Ti2 F2 86.74(10) 2_556
F1 Ti2 F2 82.51(9) 2_556
Ti1 F1 Ti2 154.16(13) .
Ti1 F2 Ti2 160.53(12) 2_556
N1 C1 N2 108.4(3) .
N1 C1 H5 125.8 .
N2 C1 H5 125.8 .
C1 N1 C3 109.0(3) .
C1 N1 H1 125.5 .
C3 N1 H1 125.5 .
C3 C2 N2 106.7(3) .
C3 C2 H6 126.6 .
N2 C2 H6 126.6 .
C2 C3 N1 107.0(3) .
C2 C3 H7 126.5 .
N1 C3 H7 126.5 .
C1 N2 C2 108.9(3) .
C1 N2 H2 125.5 .
C2 N2 H2 125.5 .
N4 C4 N3 107.3(4) .
N4 C4 H8 126.3 .
N3 C4 H8 126.3 .
C4 N3 C6 109.8(3) .
C4 N3 H3 125.1 .
C6 N3 H3 125.1 .
C6 C5 N4 106.3(4) .
C6 C5 H9 126.8 .
N4 C5 H9 126.8 .
C5 C6 N3 106.1(4) .
C5 C6 H10 126.9 .
N3 C6 H10 126.9 .
C4 N4 C5 110.4(3) .
C4 N4 H4 124.8 .
C5 N4 H4 124.8 .
loop_
_geom_bond_atom_site_label_1
_geom_bond_atom_site_label_2
_geom_bond_distance
_geom_bond_site_symmetry_2
Ti1 F5 1.793(2) .
Ti1 F3 1.8066(19) .
Ti1 F4 1.8169(19) .
Ti1 F6 1.8403(19) .
Ti1 F1 1.965(2) .
Ti1 F2 1.970(2) .
Ti2 F8 1.790(2) .
Ti2 F10 1.800(2) .
Ti2 F9 1.806(2) .
Ti2 F7 1.826(2) .
Ti2 F1 1.989(2) .
Ti2 F2 1.989(2) 2_556
F2 Ti2 1.9889(19) 2_556
C1 N1 1.302(5) .
C1 N2 1.303(5) .
C1 H5 0.9300 .
N1 C3 1.356(5) .
N1 H1 0.8600 .
C2 C3 1.325(6) .
C2 N2 1.361(5) .
C2 H6 0.9300 .
C3 H7 0.9300 .
N2 H2 0.8600 .
C4 N4 1.294(6) .
C4 N3 1.324(5) .
C4 H8 0.9300 .
N3 C6 1.360(5) .
N3 H3 0.8600 .
C5 C6 1.347(5) .
C5 N4 1.365(6) .
C5 H9 0.9300 .
C6 H10 0.9300 .
N4 H4 0.8600 .
