#------------------------------------------------------------------------------
#$Date: 2016-03-23 21:43:14 +0200 (Wed, 23 Mar 2016) $
#$Revision: 179455 $
#$URL: svn://www.crystallography.net/cod/cif/4/33/52/4335212.cif $
#------------------------------------------------------------------------------
#
# This file is available in the Crystallography Open Database (COD),
# http://www.crystallography.net/
#
# All data on this site have been placed in the public domain by the
# contributors.
#
data_4335212
loop_
_publ_author_name
'Miguel Cortijo'
'Santiago Herrero'
'Reyes Jim\'enez-Aparicio'
'Emilio Matesanz'
_publ_contact_author_address
;
Departamento de Qu\'imica Inorg\'anica
Facultad de Ciencias Qu\'imicas
Universidad Complutense de Madrid
Ciudad Universitaria
28040 Madrid (Spain)
;
_publ_contact_author_email       sherrero@quim.ucm.es
_publ_contact_author_name        'Herrero, Santiago'
_publ_section_title
;
 Modulation of the Magnetic Properties of Two-Dimensional Compounds
 [NiX2(N-N)] by Tailoring Their Crystal Structure
;
_journal_name_full               'Inorganic Chemistry'
_journal_page_first              7087
_journal_page_last               7093
_journal_paper_doi               10.1021/ic400632c
_journal_volume                  52
_journal_year                    2013
_chemical_formula_sum            'C12 H12 Cl2 N2 Ni'
_chemical_formula_weight         313.84
_chemical_name_systematic        ' ?'
_space_group_IT_number           14
_symmetry_cell_setting           monoclinic
_symmetry_space_group_name_Hall  '-P 2yab'
_symmetry_space_group_name_H-M   'P 1 21/a 1'
_cell_angle_alpha                90.00000
_cell_angle_beta                 97.629(4)
_cell_angle_gamma                90.00000
_cell_formula_units_Z            2
_cell_length_a                   11.71243(17)
_cell_length_b                   13.58998(15)
_cell_length_c                   3.67828(9)
_cell_measurement_temperature    298(3)
_cell_volume                     580.296(19)
_computing_structure_refinement  'FULLPROF (Rodr\'iguez-Carvajal, 1993)'
_computing_structure_solution    'FOX (Favre-Nicolin & Cerny, 2002)'
_diffrn_ambient_temperature      298(3)
_diffrn_detector_type            'Panalytical B.V. X\'Celerator'
_diffrn_measurement_device_type  'Panalytical B.V. X\'Pert PRO'
_diffrn_radiation_monochromator  'Ge 111'
_diffrn_radiation_type           'Cu K\a~1~'
_diffrn_radiation_wavelength     1.5406
_diffrn_source                   'sealed x-ray tube'
_diffrn_source_target            Cu
_pd_char_colour                  light_green
_pd_meas_2theta_range_inc        0.017000
_pd_meas_2theta_range_max        99.99400
_pd_meas_2theta_range_min        5.01500
_pd_meas_number_of_points        5588
_pd_meas_scan_method             cont
_pd_proc_2theta_range_inc        0.017000
_pd_proc_2theta_range_max        99.9609
_pd_proc_2theta_range_min        4.9819
_pd_proc_ls_prof_R_factor        9.2915
_pd_proc_ls_prof_wR_expected     6.4140
_pd_proc_ls_prof_wR_factor       12.9175
_pd_proc_wavelength              1.540600
_pd_spec_mounting
; 
pressed powder
;
_pd_spec_mount_mode              reflection
_refine_ls_number_parameters     29
_refine_ls_number_reflns         885
_refine_ls_number_restraints     22
_refine_ls_R_I_factor            5.8864
_cod_data_source_file            ic400632c_5.cif
_cod_data_source_block           MC362
_cod_original_cell_volume        580.296(17)
_cod_database_code               4335212
#BEGIN Tags that were not found in dictionaries:
_pd_proc_ls_prof_cr_factor       14.6676
_pd_proc_ls_prof_cwr_factor      18.3203
_pd_proc_ls_prof_cwr_expected    9.0967
_pd_proc_ls_prof_chi2            4.0560
_pd_proc_ls_prof_echi2           4.0560
#END Tags that were not found in dictionaries
loop_
_symmetry_equiv_pos_as_xyz
x,y,z
-x+1/2,y+1/2,-z
-x,-y,-z
x+1/2,-y+1/2,z
loop_
_atom_site_label
_atom_site_fract_x
_atom_site_fract_y
_atom_site_fract_z
_atom_site_U_iso_or_equiv
_atom_site_occupancy
_atom_site_adp_type
_atom_site_type_symbol
Ni1 0.00000 0.00000 0.00000 0.00000 1.00000 Uiso Ni
Cl1 0.1447(3) 0.00000 0.5571(13) 0.00000 1.00000 Uiso Cl
N1 0.02324(10) 0.157337(7) 0.0425(15) 0.00000 1.00000 Uiso N
C1 -0.06946(17) 0.213055(14) -0.066(3) 0.00000 1.00000 Uiso C
C2 -0.06343(10) 0.314848(7) -0.0597(14) 0.00000 1.00000 Uiso C
C3 0.03914(5) 0.362373(6) 0.0623(8) 0.00000 1.00000 Uiso C
C4 0.13330(9) 0.302843(6) 0.1498(14) 0.00000 1.00000 Uiso C
C5 0.1232(2) 0.203192(16) 0.142(3) 0.00000 1.00000 Uiso C
C6 0.05503(10) 0.472930(8) 0.0609(15) 0.00000 1.00000 Uiso C
loop_
_atom_type_symbol
_atom_type_scat_Cromer_Mann_a1
_atom_type_scat_Cromer_Mann_b1
_atom_type_scat_Cromer_Mann_a2
_atom_type_scat_Cromer_Mann_b2
_atom_type_scat_Cromer_Mann_a3
_atom_type_scat_Cromer_Mann_b3
_atom_type_scat_Cromer_Mann_a4
_atom_type_scat_Cromer_Mann_b4
_atom_type_scat_Cromer_Mann_c
_atom_type_scat_dispersion_real
_atom_type_scat_dispersion_imag
_atom_type_scat_source
ni 12.83760 3.87850 7.29200 0.25650 4.44380 12.17630 2.38000 66.34210 1.03410
-2.95600 0.50900
International_Tables_for_Crystallography_Vol.C(1991)_Tables_6.1.1.4_and_6.1.1.5
cl 11.46040 0.01040 7.19640 1.16620 6.25560 18.51940 1.64550 47.77840 -9.55740
0.34800 0.70200
International_Tables_for_Crystallography_Vol.C(1991)_Tables_6.1.1.4_and_6.1.1.5
n 12.21260 0.00570 3.13220 9.89330 2.01250 28.99750 1.16630 0.58260 -11.52900
0.02900 0.01800
International_Tables_for_Crystallography_Vol.C(1991)_Tables_6.1.1.4_and_6.1.1.5
c 2.31000 20.84390 1.02000 10.20750 1.58860 0.56870 0.86500 51.65120 0.21560
0.01700 0.00900
International_Tables_for_Crystallography_Vol.C(1991)_Tables_6.1.1.4_and_6.1.1.5
loop_
_geom_angle_atom_site_label_1
_geom_angle_atom_site_label_2
_geom_angle_atom_site_label_3
_geom_angle
_geom_angle_site_symmetry_1
_geom_angle_site_symmetry_3
Cl1 Ni1 Cl1 95.2(3) 1_554 1_555
Cl1 Ni1 Cl1 84.8(2) 1_554 3_555
Cl1 Ni1 Cl1 180.0(3) 1_554 3_556
Cl1 Ni1 N1 87.56(20) 1_554 1_555
Cl1 Ni1 N1 92.44(19) 1_554 3_555
Cl1 Ni1 N1 82.78(17) 1_555 1_555
Cl1 Ni1 N1 97.22(19) 1_555 3_555
N1 Ni1 N1 180.00(3) 1_555 3_555
Ni1 N1 C1 116.66(13) 1_555 1_555
Ni1 N1 C5 125.47(16) 1_555 1_555
C1 N1 C5 117.7(4) 1_555 1_555
N1 C1 C2 121.45(15) 1_555 1_555
C1 C2 C3 120.74(15) 1_555 1_555
C2 C3 C4 115.91(17) 1_555 1_555
C2 C3 C6 124.29(11) 1_555 1_555
C4 C3 C6 119.40(8) 1_555 1_555
C3 C4 C5 121.19(11) 1_555 1_555
N1 C5 C4 122.82(15) 1_555 1_555
C3 C6 C6 112.74(10) 1_555 3_565
loop_
_geom_bond_atom_site_label_1
_geom_bond_atom_site_label_2
_geom_bond_distance
_geom_bond_site_symmetry_2
Ni1 Cl1 2.502(4) 1_554
Ni1 Cl1 2.480(4) .
Ni1 N1 2.1585(3) .
N1 C1 1.340(3) .
N1 C5 1.334(3) .
C1 C2 1.3852(3) .
C2 C3 1.3851(16) .
C3 C4 1.3712(12) .
C3 C6 1.5140(2) .
C4 C5 1.3594(3) .
C6 C6 1.5001(20) 3_565
