#------------------------------------------------------------------------------
#$Date: 2016-03-23 22:36:42 +0200 (Wed, 23 Mar 2016) $
#$Revision: 179486 $
#$URL: svn://www.crystallography.net/cod/cif/4/33/83/4338386.cif $
#------------------------------------------------------------------------------
#
# This file is available in the Crystallography Open Database (COD),
# http://www.crystallography.net/
#
# All data on this site have been placed in the public domain by the
# contributors.
#
data_4338386
loop_
_publ_author_name
'Abrahams, Brendan F.'
'Dharma, A. David'
'Grannas, Martin J.'
'Hudson, Timothy A.'
'Maynard-Casely, Helen E'
'Oliver, Graham R.'
'Robson, Richard'
'White, Keith F.'
_publ_section_title
;
 Isomeric Ionic Lithium Isonicotinate Three-Dimensional Networks and
 Single-Crystal-to-Single-Crystal Rearrangements Generating Microporous
 Materials.
;
_journal_issue                   10
_journal_name_full               'Inorganic chemistry'
_journal_page_first              4956
_journal_page_last               4969
_journal_paper_doi               10.1021/ic403134c
_journal_volume                  53
_journal_year                    2014
_chemical_formula_sum            'C6 H4 Li N O2'
_chemical_formula_weight         129.04
_chemical_name_systematic
;
 ?
;
_space_group_crystal_system      orthorhombic
_space_group_IT_number           33
_space_group_name_Hall           'P 2c -2n'
_space_group_name_H-M_alt        'P n a 21'
_symmetry_space_group_name_Hall  'P 2c -2n'
_symmetry_space_group_name_H-M   'P n a 21'
_atom_sites_solution_hydrogens   geom
_audit_creation_method           SHELXL-2014
_cell_angle_alpha                90
_cell_angle_beta                 90
_cell_angle_gamma                90
_cell_formula_units_Z            4
_cell_length_a                   10.680(2)
_cell_length_b                   13.732(2)
_cell_length_c                   4.9114(10)
_cell_measurement_reflns_used    604
_cell_measurement_temperature    130(2)
_cell_measurement_theta_max      73.7135
_cell_measurement_theta_min      3.2157
_cell_volume                     720.3(2)
_computing_cell_refinement
;
CrysAlisPro, Oxford Diffraction Ltd.,
Version 1.171.35.19 (release 27-10-2011 CrysAlis171 .NET)
(compiled Oct 27 2011,15:02:11)
;
_computing_data_collection
;
CrysAlisPro, Oxford Diffraction Ltd.,
Version 1.171.35.19 (release 27-10-2011 CrysAlis171 .NET)
(compiled Oct 27 2011,15:02:11)
;
_computing_data_reduction
;
CrysAlisPro, Oxford Diffraction Ltd.,
Version 1.171.35.19 (release 27-10-2011 CrysAlis171 .NET)
(compiled Oct 27 2011,15:02:11)
;
_computing_structure_refinement  'SHELXL-2014 (Sheldrick, 2014)'
_computing_structure_solution    'SHELXS-1997 (Sheldrick, 1997)'
_diffrn_ambient_temperature      130(2)
_diffrn_measured_fraction_theta_full 0.974
_diffrn_measured_fraction_theta_max 0.973
_diffrn_measurement_device_type  'SuperNova, Dual, Cu at zero, Atlas'
_diffrn_measurement_method       '\w scans'
_diffrn_radiation_type           CuK\a
_diffrn_radiation_wavelength     1.54184
_diffrn_reflns_av_R_equivalents  0.0083
_diffrn_reflns_av_unetI/netI     0.0088
_diffrn_reflns_Laue_measured_fraction_full 0.974
_diffrn_reflns_Laue_measured_fraction_max 0.973
_diffrn_reflns_limit_h_max       12
_diffrn_reflns_limit_h_min       -6
_diffrn_reflns_limit_k_max       14
_diffrn_reflns_limit_k_min       -16
_diffrn_reflns_limit_l_max       5
_diffrn_reflns_limit_l_min       -5
_diffrn_reflns_number            1307
_diffrn_reflns_point_group_measured_fraction_full 0.973
_diffrn_reflns_point_group_measured_fraction_max 0.972
_diffrn_reflns_theta_full        67.684
_diffrn_reflns_theta_max         68.430
_diffrn_reflns_theta_min         6.447
_diffrn_source                   'SuperNova (Cu) X-ray Source'
_exptl_absorpt_coefficient_mu    0.738
_exptl_absorpt_correction_T_max  1.00000
_exptl_absorpt_correction_T_min  0.65158
_exptl_absorpt_correction_type   multi-scan
_exptl_absorpt_process_details
;
CrysAlisPro, Agilent Technologies,
Version 1.171.35.19 (release 27-10-2011 CrysAlis171 .NET)
(compiled Oct 27 2011,15:02:11)
Empirical absorption correction using spherical harmonics,
 implemented in SCALE3 ABSPACK scaling algorithm.
;
_exptl_crystal_colour            colourless
_exptl_crystal_density_diffrn    1.190
_exptl_crystal_description       block
_exptl_crystal_F_000             264
_exptl_crystal_size_max          0.56
_exptl_crystal_size_mid          0.36
_exptl_crystal_size_min          0.15
_refine_diff_density_max         0.241
_refine_diff_density_min         -0.474
_refine_diff_density_rms         0.071
_refine_ls_abs_structure_details
;
 Refined as an inversion twin.
;
_refine_ls_abs_structure_Flack   1.1(6)
_refine_ls_extinction_method     none
_refine_ls_goodness_of_fit_ref   1.089
_refine_ls_hydrogen_treatment    constr
_refine_ls_matrix_type           full
_refine_ls_number_parameters     92
_refine_ls_number_reflns         917
_refine_ls_number_restraints     1
_refine_ls_restrained_S_all      1.088
_refine_ls_R_factor_all          0.0648
_refine_ls_R_factor_gt           0.0628
_refine_ls_shift/su_max          0.000
_refine_ls_shift/su_mean         0.000
_refine_ls_structure_factor_coef Fsqd
_refine_ls_weighting_details
'w=1/[\s^2^(Fo^2^)+(0.1497P)^2^+0.0335P] where P=(Fo^2^+2Fc^2^)/3'
_refine_ls_weighting_scheme      calc
_refine_ls_wR_factor_gt          0.1726
_refine_ls_wR_factor_ref         0.1748
_reflns_Friedel_coverage         0.775
_reflns_Friedel_fraction_full    0.972
_reflns_Friedel_fraction_max     0.971
_reflns_number_gt                854
_reflns_number_total             917
_reflns_threshold_expression     'I > 2\s(I)'
_cod_data_source_file            ic403134c_si_002.cif
_cod_data_source_block           Li_inic_TypeIII
_cod_depositor_comments
'Adding full bibliography for 4338378--4338389.cif.'
_cod_original_cell_volume        720.3(3)
_cod_database_code               4338386
#BEGIN Tags that were not found in dictionaries:
_shelx_space_group_comment
;
The symmetry employed for this shelxl refinement is uniquely defined
by the following loop, which should always be used as a source of
symmetry information in preference to the above space-group names.
They are only intended as comments.
;
_shelxl_version_number           2014-1
_shelx_res_file
;
TITL KWLIINICDMFDRIEDSINGLECRYSTAL in Pna2(1)
CELL  1.54184  10.6798  13.7318   4.9114   90.000   90.000   90.000
ZERR     4.00   0.0024   0.0024   0.0010    0.000    0.000    0.000
LATT  -1
SYMM  - X, - Y, 1/2 + Z
SYMM  1/2 + X, 1/2 - Y,   Z
SYMM  1/2 - X, 1/2 + Y, 1/2 + Z
SFAC  C    H    LI   N    O
UNIT  24   16   4    4    8
MERG   2
FMAP   2
PLAN   20
ACTA
OMIT  0 137
TWIN
BOND
L.S.  25
TEMP   -143.00
WGHT    0.149700    0.033500
BASF   1.10025
FVAR      14.35520
MOLE    1
O2    5    0.905721    0.542669    0.198062    11.00000    0.05627    0.02936 =
         0.03441   -0.00033    0.00441    0.00368
N1    4    0.628137    0.831260    0.018284    11.00000    0.05937    0.03487 =
         0.03565    0.00190    0.00069    0.00635
O1    5    0.915864    0.628661    0.583996    11.00000    0.06774    0.04634 =
         0.03393   -0.00006   -0.00486    0.01660
C6    1    0.878053    0.614729    0.346927    11.00000    0.05360    0.03476 =
         0.03159    0.00063    0.00232    0.00357
C2    1    0.709707    0.668244    0.018848    11.00000    0.06106    0.03325 =
         0.04184   -0.00138   -0.00125    0.00429
AFIX  43
H2    2    0.709197    0.604815   -0.058376    11.00000   -1.20000
AFIX   0
C3    1    0.789772    0.690328    0.228285    11.00000    0.05529    0.03047 =
         0.03300   -0.00087    0.00402    0.00497
C4    1    0.788459    0.784429    0.334480    11.00000    0.06295    0.03758 =
         0.04381   -0.00581   -0.01088    0.00736
AFIX  43
H4    2    0.842718    0.802303    0.479381    11.00000   -1.20000
AFIX   0
C1    1    0.629441    0.739623   -0.078981    11.00000    0.05918    0.03842 =
         0.03911   -0.00443   -0.00420    0.00521
AFIX  43
H1    2    0.572893    0.723063   -0.220936    11.00000   -1.20000
AFIX   0
C5    1    0.705937    0.851119    0.223039    11.00000    0.07007    0.03169 =
         0.04928   -0.00079   -0.00382    0.00920
AFIX  43
H5    2    0.704665    0.915024    0.297087    11.00000   -1.20000
AFIX   0
LI1   3    0.993867    0.432985    0.360348    11.00000    0.05557    0.03188 =
         0.02836    0.00039    0.00199    0.00165
HKLF    4

REM  KWLIINICDMFDRIEDSINGLECRYSTAL in Pna2(1)
REM R1 =  0.0628 for     854 Fo > 4sig(Fo)  and  0.0648 for all     917 data
REM     92 parameters refined using      1 restraints

END

WGHT      0.1493      0.0000

REM Highest difference peak  0.241,  deepest hole -0.474,  1-sigma level  0.071
Q1    1   1.0932  0.4892  0.4077  11.00000  0.05    0.24
Q2    1   1.0781  0.6674  0.5094  11.00000  0.05    0.19
Q3    1   1.0695  0.3902  0.3735  11.00000  0.05    0.18
Q4    1   0.6131  0.7800  0.3433  11.00000  0.05    0.17
Q5    1   1.1075  0.4752  0.2203  11.00000  0.05    0.16
Q6    1   0.8490  0.5660  0.0368  11.00000  0.05    0.14
Q7    1   0.6062  0.7544 -0.5474  11.00000  0.05    0.14
Q8    1   0.9290  0.6789  0.9005  11.00000  0.05    0.14
Q9    1   0.8635  0.3766  0.1525  11.00000  0.05    0.14
Q10   1   0.6307  0.6917  0.2667  11.00000  0.05    0.14
Q11   1   0.5626  0.9565  0.2984  11.00000  0.05    0.14
Q12   1   1.0049  0.5295  0.5222  11.00000  0.05    0.14
Q13   1   0.9900  0.6142  0.1994  11.00000  0.05    0.14
Q14   1   1.0190  0.7036  0.5579  11.00000  0.05    0.13
Q15   1   0.6572  0.6767 -0.4976  11.00000  0.05    0.13
Q16   1   0.7617  0.4519  0.3337  11.00000  0.05    0.13
Q17   1   0.9455  0.7134  0.1689  11.00000  0.05    0.12
Q18   1   0.5981  0.6693 -0.5230  11.00000  0.05    0.12
Q19   1   0.8198  0.6342 -0.1014  11.00000  0.05    0.12
Q20   1   1.0382  0.6340  0.4455  11.00000  0.05    0.12
;
_shelx_res_checksum              39558
_shelx_hkl_file
;
   0   0   1 642.375 55.4103   1
   0   0   2 8742.91 171.947   3
   0   0   2 8822.47 104.373   1
   0   0   4 7318.27 203.873   4
   0   0   5 239.059 165.467   4
   0   1   0 37.8305 18.0989   1
   0   1   1 512094. 590.807   1
   0   1   2 121.763 130.042   3
   0   1   2 56.8200 80.3026   1
   0  -1   2 57.2360 108.989   3
   0   1   3 174953. 767.947   3
   0   1   4 45.7000 171.773   4
   0  -1   4 17.9565 170.704   4
   0   1   5 12715.8 223.658   4
   0  -1   5 12788.2 223.195   4
   0   2   0 584881. 573.998   1
   0   2   1 160.252 76.3190   1
   0   2   2 107058. 461.503   3
   0   2   2 106620. 421.885   1
   0   2   3-233.177 198.934   3
   0   2   4 11129.3 214.150   4
   0  -2   4 11343.8 219.009   4
   0   2   5 17.6860 174.497   4
   0   3  -1 65387.0 172.416   2
   0   3   0 12.3306 75.2000   1
   0   3   1 79006.5 333.417   1
   0   3   2 129.903 102.583   1
   0   3   3 27923.3 350.129   3
   0   3   4-7.92086 186.696   4
   0  -3   4-145.680 181.037   4
   0   3   5 9718.95 204.686   4
   0   4   0 192109. 484.799   1
   0   4   1 221.040 86.2366   1
   0   4   2 91746.5 452.433   1
   0   4   3-70.6754 157.493   1
   0   4   3 253.440 182.825   3
   0   4   4 35518.7 303.510   4
   0   4   5 72.6033 154.895   4
   0   5  -1 9592.65 122.392   1
   0   5   0 54.3682 85.0076   1
   0   5   1 9208.59 169.330   1
   0   5   2-35.1021 114.910   1
   0   5   3 58445.5 502.275   3
   0   5   3 58601.8 502.035   1
   0   5   4-357.511 212.952   4
   0   5   5 15272.7 217.696   4
   0   6  -1 107.131 94.8276   1
   0   6   0 73306.2 390.617   1
   0   6   1 147.000 116.516   1
   0   6   2 125719. 626.139   1
   0   6   3 74.8899 185.008   1
   0   6   4 55316.5 362.797   4
   0  -6   5 328.370 144.258   7
   0   7   0 21.5819 114.940   1
   0   7   1 312801. 975.642   1
   0   7   2 111.672 149.288   1
   0   7   3 6449.30 292.925   1
   0  -7   5 27246.1 223.914   7
   0   8   0 3724.60 164.327   1
   0   8   1 53.0680 148.444   1
   0   8   2 11399.3 290.359   1
   0  -8   4 22774.4 237.863   7
   0  -8   5 257.395 111.569   7
   0  -9  -2 20.0899 126.382   5
   0   9   0-10.0769 141.923   1
   0   9   1 1297.11 184.351   1
   0   9   2 210.267 181.027   1
   0  -9   2 36.1613 161.850   7
   0  -9   3 12973.8 213.556   7
   0  -9   4 597.478 158.601   7
   0  -9   5 2798.88 111.143   7
   0 -10  -1 127.360 139.313   5
   0  10   0 48179.4 475.748   1
   0 -10   0 48876.9 284.397   5
   0  10   1 71.8298 188.313   1
   0 -10   2 14965.2 215.371   7
   0 -10   3 26.9246 160.377   7
   0 -10   4 6470.66 171.260   7
   0 -11  -1 95258.3 416.472   5
   0 -11   0 50.1478 125.842   5
   0  11   1 102959. 819.541   1
   0 -11   2 564.357 184.881   7
   0 -11   3 568.678 159.515   7
   0 -11   4 52.6123 119.935   7
   0 -12  -1 101.610 132.818   5
   0 -12   0 6595.76 174.140   5
   0 -12   1 123.622 144.055   5
   0 -12   3 208.711 146.677   7
   0 -12   4 6215.90 122.855   7
   0 -13  -1 28721.4 250.334   5
   0 -13   0 112.366 138.001   5
   0 -13   1 33616.1 289.615   5
   0 -13   2-10.1801 120.926   5
   0 -13   3 6904.12 149.075   5
   0 -14  -1-31.6759 99.8349   5
   0 -14   0 6045.03 160.885   5
   0 -14   1 33.0707 117.501   5
   0 -14   2 1854.06 128.546   5
   0 -15   0 18.1192 98.2925   5
   0 -15   1 878.253 112.144   5
   0 -15   2-129.690 88.1796   5
   0 -16   0 171.408 88.0699   5
   1   0   0 73.0469 19.1700   2
   1   0   2 33.7123 127.065   3
   1   0   3 665.372 202.213   3
  -1   0   4 7.77378 168.246   4
   1   0   4-283.236 186.326   4
  -1   0   5 253.507 159.235   4
   1   0   5-101.654 169.552   4
   1   1  -1 8090.85 103.072   2
  -1   1   1 9703.72 115.653   3
   1   1   1 9613.11 102.475   1
  -1   1   2 36996.0 282.801   3
   1  -1   2 37084.4 300.410   3
  -1   1   2 37387.0 230.706   1
   1   1   2 36965.9 300.310   3
  -1  -1   2 36648.1 164.152   1
   1   1   3 8503.31 268.843   3
   1  -1   3 8559.57 269.718   3
   1   1   4 1913.83 188.908   4
  -1   1   4 2187.46 177.517   4
   1  -1   4 1699.92 188.937   4
  -1  -1   4 2110.94 176.891   4
   1  -1   5 3084.65 182.933   4
   1   1   5 3144.78 184.503   4
   1   2  -1 41358.4 178.284   2
   1   2   0 129662. 290.071   1
   1   2   1 46709.7 219.774   1
   1  -2   1 46776.9 223.409   3
  -1   2   1 46923.7 193.841   3
   1   2   2 9521.10 154.278   1
  -1   2   2 9524.57 156.658   1
  -1   2   2 9203.15 185.688   3
   1  -2   2 9392.38 191.809   3
  -1   2   3 41732.2 395.302   3
   1   2   3 41271.0 435.502   3
  -1   2   4 2683.67 181.531   4
   1  -2   4 2858.84 179.365   4
   1   2   4 2510.03 192.937   4
  -1  -2   4 2468.18 182.411   4
  -1   2   5 8614.95 196.504   4
   1   2   5 8525.75 211.635   4
   1   3  -1 59640.1 217.899   2
   1   3   0 64711.1 245.589   1
   1   3   1 62545.4 287.768   1
   1   3   2 49521.6 311.022   1
  -1   3   2 48866.9 328.539   1
  -1   3   3 3908.57 212.305   3
   1   3   3 4284.76 232.575   3
  -1   3   4 15687.6 225.552   4
   1  -3   4 15521.2 238.898   4
   1   3   4 15134.7 252.052   4
  -1   3   5 88.8005 151.503   4
   1   3   5 2.00870 167.355   4
  -1   4  -1 10199.9 104.417   1
   1   4  -1 10300.4 114.744   2
   1   4   0 42307.0 230.704   1
   1   4   1 10863.6 155.386   1
   1   4   2 4817.99 147.683   1
  -1   4   2 4821.90 157.341   1
  -1   4   2 4920.30 162.330   3
   1   4   3 24469.0 371.026   3
  -1   4   3 24362.2 330.096   3
  -1   4   3 24488.9 346.018   1
   1  -4   4 1872.91 196.873   4
   1   4   4 1857.74 210.527   4
  -1   4   4 2309.85 183.524   4
   1   4   5-106.609 175.779   4
  -1   4   5 253.235 147.234   4
   1   5  -1 69716.3 276.270   2
  -1   5  -1 69840.1 274.604   1
  -1   5   0 68199.9 353.727   1
   1   5   0 68235.9 325.634   1
  -1   5   1 73664.2 412.408   1
   1   5   1 73794.6 391.471   1
   1   5   2 11454.4 210.400   1
  -1   5   2 11238.0 197.726   3
  -1   5   2 11010.8 220.150   1
  -1   5   3 30437.7 409.783   1
   1   5   3 29959.8 418.651   3
   1   5   4 19441.4 289.347   4
  -1   5   4 19683.3 251.075   4
   1  -5   5 8064.69 192.315   7
   1   5   5 7917.11 212.383   4
  -1   6  -1 125939. 413.308   1
   1   6  -1 126094. 397.816   2
  -1   6   0 169.118 111.973   1
   1   6   0 172.434 97.6511   1
   1   6   1 132889. 579.374   1
  -1   6   1 133219. 604.291   1
  -1   6   2 64053.3 470.470   1
   1   6   2 62770.3 447.171   1
   1   6   3 29086.7 430.532   3
  -1   6   3 28767.7 428.935   1
   1   6   4 57271.4 384.354   4
   1   6   5 5005.65 175.740   4
   1  -6   5 3903.58 164.391   7
   1   7  -1 56280.6 307.166   2
  -1   7   0 35411.1 326.882   1
   1   7   0 35344.3 308.805   1
   1   7   1 58614.2 435.758   1
  -1   7   1 58576.3 449.932   1
   1   7   2 14583.1 284.605   1
  -1   7   2 14794.2 298.597   1
  -1   7   3 23455.1 435.474   1
   1   7   4 2735.25 205.285   4
   1  -7   4 2247.53 193.456   7
   1  -7   5 5962.05 172.388   7
  -1  -7   5 5643.74 164.776   7
   1   8   0 395.701 125.423   1
  -1   8   0 481.565 135.959   1
   1   8   1 22193.1 324.582   1
  -1   8   1 21916.3 331.434   1
   1   8   2 207.605 164.415   1
  -1   8   2 78.7888 177.290   1
   1  -8   3 5677.19 191.493   7
   1   8   4 2174.74 173.369   4
   1  -8   4 2227.80 183.157   7
  -1  -8   5 1171.24 111.664   7
   1  -8   5 1237.10 119.611   7
  -1  -9  -2 1703.62 138.842   5
  -1   9   0 28381.8 358.825   1
   1   9   0 28572.4 342.421   1
   1   9   0 28387.0 281.878   2
  -1   9   1 10012.9 280.915   1
   1   9   1 9558.27 274.488   1
   1  -9   2 1824.18 172.373   7
  -1   9   2 1806.65 233.769   1
   1   9   2 2044.43 218.599   1
  -1  -9   3 1195.28 176.977   7
   1  -9   3 1234.56 176.122   7
   1  -9   4 5682.75 173.697   7
  -1  -9   4 6125.03 172.769   7
  -1  -9   5 445.187 97.1956   7
   1  -9   5 229.522 97.2455   7
  -1 -10  -2 3062.19 150.703   5
   1 -10  -1 39850.0 277.619   5
  -1 -10  -1 39171.6 282.935   5
  -1 -10   0 4430.38 147.198   5
  -1  10   0 4026.01 226.620   1
   1 -10   0 4315.31 143.715   5
   1  10   1 41205.6 505.953   1
  -1  10   1 40537.1 505.553   1
   1 -10   2 4135.24 197.023   7
  -1 -10   3 632.974 167.360   7
   1 -10   3 593.637 167.742   7
   1 -10   4 1206.18 148.776   7
  -1 -10   4 1621.38 144.284   7
  -1 -11  -1 10505.8 196.276   5
   1 -11  -1 10911.5 193.267   5
   1 -11   0 10620.5 185.466   5
  -1 -11   0 10395.4 194.324   5
  -1  11   1 10430.7 349.809   1
   1 -11   2 16074.8 228.526   7
  -1 -11   3 813.408 158.243   7
   1 -11   3 588.347 158.974   7
   1 -11   4 350.254 118.730   7
  -1 -11   4 400.777 119.087   7
  -1 -12  -1 1806.05 141.912   5
   1 -12  -1 1913.28 140.387   5
   1 -12   0 20402.7 234.106   5
  -1 -12   0 20410.4 231.476   5
   1 -12   1 2291.77 154.903   5
   1 -12   2 17616.9 232.835   7
   1 -12   3 2969.65 163.876   7
   1 -12   4 1163.41 110.372   7
   1 -13  -1 30885.6 252.946   5
  -1 -13  -1 30606.4 258.550   5
  -1 -13   0 15646.9 219.583   5
   1 -13   0 15944.7 212.791   5
   1 -13   1 36409.7 294.421   5
  -1 -13   1 36116.3 286.834   5
   1 -13   2 1236.40 128.422   5
   1 -13   3 4409.83 139.337   7
   1 -14  -1 487.697 105.523   5
  -1 -14  -1 488.486 103.177   5
  -1 -14   0 9593.41 171.701   5
   1 -14   0 9995.89 179.056   5
   1 -14   1 607.943 128.187   5
  -1 -14   1 509.643 119.581   5
   1 -14   2 6143.22 144.540   5
  -1 -14   2 6250.63 153.957   5
  -1 -14   3 2720.41 107.889   5
   1 -15   0 646.151 104.244   5
  -1 -15   0 729.815 104.086   5
  -1 -15   1 1617.15 118.404   5
   1 -15   1 1663.91 111.446   5
  -1 -15   2 714.299 99.2273   5
  -1 -16   0 7273.70 128.576   5
  -1 -16   1 3954.32 110.615   5
   1 -16   1 4043.26 98.0594   5
   2   0  -1 999999. 1017.70   2
   2   0   0 281379. 367.970   2
   2   0   2 31556.9 304.300   3
   2   0   3 58551.4 517.084   3
  -2   0   4 28562.7 270.015   4
   2   0   4 28937.4 290.515   4
   2   0   5 13772.1 221.328   4
   2   1  -1 323322. 570.796   2
   2  -1   0 2312.33 80.1808   2
   2   1   0 2169.40 71.2562   2
   2  -1   1 368411. 317.950   2
   2  -1   2 127567. 546.883   3
   2  -1   3 20551.6 355.498   3
   2   1   3 20515.5 358.303   3
   2  -1   4 25032.5 277.615   4
  -2   1   4 25477.3 247.097   4
  -2  -1   4 24984.8 256.479   4
   2   1   4 25214.5 284.819   4
   2  -1   5 1750.18 170.410   4
   2   1   5 1516.91 179.303   4
   2   2  -1 228520. 481.491   2
   2   2   0 464265. 561.460   2
   2  -2   1 250117. 505.948   3
   2  -2   2 32638.9 304.385   3
   2   2   3 8739.39 273.457   3
  -2   2   4 928.369 169.374   4
   2  -2   4 807.273 179.449   4
   2   2   4 429.222 195.238   4
   2  -2   5 1857.68 166.167   4
   2   2   5 1863.54 176.542   4
   2   3  -2 2326.58 131.870   2
   2   3  -1 17428.9 157.729   2
   2   3   0 408834. 607.017   2
  -2   3   1 18955.3 124.314   3
  -2   3   2 3425.96 157.960   3
   2   3   3 11655.3 303.603   3
   2   3   4 7079.74 230.973   4
   2  -3   4 7154.44 199.885   4
  -2   3   4 7533.37 192.322   4
   2   3   5-270.045 177.613   4
   2  -3   5 102.364 167.317   7
   2   4  -2 7197.76 168.611   2
   2   4  -1 213017. 506.336   2
   2   4   0 954.989 80.1753   2
   2   4   1 217844. 598.237   1
  -2   4   2 9038.88 193.035   3
   2   4   3 21300.2 374.254   3
  -2   4   3 21489.1 345.292   1
   2   4   4 17930.2 281.440   4
   2  -4   4 18436.0 245.057   4
   2  -4   5 12548.3 213.162   7
   2   4   5 12452.5 241.779   4
   2   5  -2 40026.5 306.200   2
   2   5  -1 155078. 472.100   2
   2   5   0 30284.0 213.128   2
   2   5   1 152536. 554.568   1
  -2   5   2 45941.2 401.584   1
  -2   5   3 11919.6 314.818   1
   2   5   3 12259.1 327.691   3
   2   5   4 31017.6 324.357   4
   2   5   5 8901.37 218.825   4
   2  -5   5 8542.93 201.934   7
  -2   6  -1 45885.6 296.501   1
   2   6  -1 45604.2 294.020   2
   2   6   0 88891.2 372.371   2
   2   6   1 43471.2 345.472   1
  -2   6   1 43405.5 373.713   1
  -2   6   2 3757.24 197.795   1
  -2   6   3 34626.5 487.392   1
   2   6   3 34441.7 475.922   3
   2  -6   4 6125.85 217.903   7
   2   6   5 4677.25 169.313   4
   2  -6   5 4253.85 166.954   7
   2   7  -1 3234.32 138.878   2
  -2   7   0 4395.50 175.183   1
   2   7   0 4603.66 137.884   2
  -2   7   1 3294.92 183.464   1
   2   7   1 3043.67 160.344   1
  -2   7   2 57979.3 519.697   1
   2   7   3 3603.05 255.112   3
   2  -7   3 3564.18 173.127   7
   2  -7   4 41139.2 295.991   7
   2   7   5 2170.64 128.801   4
   2  -7   5 2045.96 141.461   7
   2   8  -1 34283.7 303.831   2
  -2   8   0 12286.8 251.164   1
   2   8   0 12170.2 196.393   2
  -2   8   1 33226.6 405.795   1
  -2   8   2 11620.0 323.913   1
   2  -8   2 11864.0 198.889   7
   2  -8   3 29516.9 264.482   7
   2   8   4 4357.04 178.612   4
   2  -8   4 3746.18 179.150   7
   2  -8   5 1976.22 116.646   7
  -2  -8   5 1772.81 110.573   7
  -2  -9  -2 15383.9 194.175   5
   2   9   0 2941.02 154.322   2
  -2   9   0 3015.42 195.713   1
  -2   9   1 10619.9 292.215   1
  -2   9   2 18306.0 406.332   1
   2  -9   2 17548.1 233.247   7
   2  -9   3 2438.88 181.508   7
   2   9   4 2410.62 142.446   4
  -2  -9   4 2209.08 154.797   7
   2  -9   4 2030.70 157.820   7
   2  -9   5 664.094 88.6383   7
  -2  -9   5 719.380 90.5774   7
  -2 -10  -2 3051.17 143.908   5
   2 -10  -1 2445.94 140.000   5
  -2 -10  -1 2476.47 148.462   5
   2  10   0 8988.20 236.822   2
  -2  10   0 8645.44 277.625   1
  -2 -10   0 9050.92 170.442   5
  -2  10   1 2896.46 239.406   1
   2 -10   2 3584.76 191.285   7
   2 -10   3 10729.8 208.833   7
  -2 -10   3 11077.9 197.047   7
  -2 -10   4 598.687 128.215   7
   2 -10   4 373.682 131.030   7
   2 -11  -1 1353.37 132.862   5
  -2 -11  -1 1127.07 142.170   5
   2 -11   0 127955. 441.807   5
  -2 -11   0 127806. 457.576   5
   2 -11   1 1496.15 170.477   7
   2 -11   1 1558.01 135.942   5
   2 -11   2 2255.07 188.529   7
   2 -11   3 545.062 154.709   7
   2 -11   4 587.108 117.434   7
   2 -12  -1 15239.4 195.636   5
  -2 -12  -1 15240.1 201.133   5
  -2 -12   0 5975.31 170.508   5
   2 -12   0 6176.68 164.124   5
   2 -12   1 17099.8 219.688   5
   2 -12   1 17862.8 206.961   7
   2 -12   2 11091.6 208.254   7
   2 -12   3 7376.50 172.534   7
   2 -12   4 805.318 97.7248   7
   2 -13  -1 6165.33 148.379   5
  -2 -13  -1 6037.84 154.224   5
  -2 -13   0 35460.1 275.028   5
   2 -13   0 35298.6 269.204   5
   2 -13   1 6790.73 172.158   5
  -2 -13   1 6565.83 166.385   5
   2 -13   2 7103.35 166.393   7
   2 -13   3 388.862 117.370   7
  -2 -14  -1 9874.92 152.334   5
  -2 -14   0-81.1541 109.172   5
   2 -14   0 20.6054 107.233   5
  -2 -14   1 11258.4 171.257   5
   2 -14   1 11272.4 173.565   5
  -2 -14   2 2719.12 133.687   5
  -2 -14   3 2243.69 106.648   5
   2 -15   0 6982.90 135.955   5
  -2 -15   0 6446.02 135.104   5
  -2 -15   1 2368.31 120.110   5
   2 -15   1 2403.30 104.858   5
  -2 -15   2 5095.13 126.325   5
  -2 -16   0 2236.71 93.1624   5
  -2 -16   1 568.689 82.7920   5
   3   0  -1 50.7814 90.1536   2
   3   0   0-2.39642 68.2355   2
   3   0   1 422.534 66.3120   2
   3   0   2 146.123 154.335   3
   3   0   3 88.2745 230.288   3
   3   0   4 60.8550 169.462   4
   3   0   5 264.646 159.634   4
   3   1  -1 166604. 479.432   2
   3   1   0 44744.3 204.461   2
   3  -1   0 44956.5 206.764   2
   3  -1   2 25792.3 294.590   3
   3  -1   3 54807.2 507.640   3
   3   1   3 55835.5 541.592   3
  -3   1   4 3770.13 179.881   4
   3  -1   4 3402.44 189.173   4
   3   1   4 3341.83 202.947   4
   3   1   5 9636.13 209.102   4
   3  -1   5 9237.87 195.074   4
   3   2  -2 54389.9 373.497   2
   3   2  -1 117473. 412.588   2
   3   2   0 191175. 426.922   2
   3  -2   1 129673. 406.291   3
   3  -2   2 65028.4 417.680   3
   3  -2   3 5035.33 257.561   3
   3   2   3 5392.00 272.882   3
   3   2   4 23337.2 283.218   4
   3  -2   4 22789.8 254.938   4
   3   2   5 2437.63 190.933   4
   3  -2   5 2466.86 159.753   4
   3   3  -2 15459.4 239.420   2
   3   3  -1 336118. 702.924   2
   3   3   0 46323.6 240.622   2
   3  -3   1 341645. 615.751   3
   3  -3   2 17305.5 251.739   3
   3   3   3 6597.39 281.140   3
   3   3   4 2677.72 215.456   4
   3  -3   4 2539.00 172.604   4
   3   3   5 12560.2 240.232   4
   3   4  -2 35528.0 328.812   2
   3   4  -1 27914.2 241.504   2
   3   4   0 189003. 501.375   2
  -3   4   3 15387.0 332.554   1
   3   4   3 14757.0 355.130   3
   3   4   4 21661.0 297.513   4
   3  -4   4 21738.3 242.720   4
   3  -4   4 21809.0 238.840   7
   3   4   5 7842.00 214.296   4
   3   5  -2 13974.9 246.475   2
   3   5  -1 5897.54 157.863   2
   3   5   0 3700.54 120.616   2
  -3   5   3 8029.19 300.821   1
   3  -5   3 7612.75 162.236   7
   3  -5   4 7628.04 210.253   7
   3  -5   5 6064.29 176.958   7
   3   5   5 5266.61 183.768   4
   3   6  -2 21865.7 303.416   2
   3   6  -1 6037.47 170.670   2
   3   6   0 7515.82 154.869   2
  -3   6   2 20942.4 335.759   1
  -3   6   3 6364.67 301.663   1
   3  -6   3 6496.10 171.679   7
   3  -6   4 12527.5 224.945   7
   3  -6   5 2823.40 151.501   7
   3   6   5 2567.86 147.776   4
   3   7  -1 36280.8 317.571   2
   3   7   0 56684.4 348.536   2
  -3   7   2 18445.0 372.366   1
   3  -7   3 17089.7 219.088   7
   3  -7   4 2045.31 177.379   7
   3  -7   5 1348.00 127.773   7
   3   7   5 1352.36 116.519   4
  -3  -7   5 1039.35 112.252   7
   3   8  -1 12794.2 241.337   2
   3   8   0 1463.18 144.122   2
  -3   8   0 1646.33 172.103   1
  -3   8   1 13342.7 317.708   1
  -3   8   2 63885.0 625.498   1
   3  -8   2 63303.4 323.972   7
   3  -8   3 2928.40 185.473   7
   3  -8   4 11369.1 202.840   7
   3   8   5-80.1571 84.2439   4
   3  -8   5-18.2983 99.9608   7
  -3  -8   5 5.44799 96.3664   7
   3   9   0 3951.98 175.598   2
  -3   9   0 3912.72 219.164   1
   3   9   1 2621.20 169.632   2
  -3   9   1 2556.18 231.900   1
   3  -9   1 2350.32 158.775   7
  -3   9   2 1786.85 271.308   1
   3  -9   2 2314.91 181.024   7
   3  -9   3 41158.1 297.080   7
   3  -9   4 3558.36 165.142   7
  -3  -9   4 3825.22 153.004   7
  -3 -10  -1 1818.33 144.296   5
   3 -10  -1 1854.28 126.066   5
   3  10   0 189911. 783.000   2
  -3 -10   0 190132. 507.610   5
  -3  10   0 189736. 952.523   1
  -3  10   1 2012.98 245.848   1
   3  10   1 2297.97 195.952   2
   3 -10   1 1848.17 167.091   7
   3 -10   2 3388.61 187.580   7
   3 -10   3 1382.40 162.425   7
   3  10   4 1422.95 109.860   4
   3 -10   4 1348.88 134.582   7
  -3 -11  -1 21307.6 223.357   5
   3 -11  -1 20821.7 207.114   5
  -3 -11   0 3213.10 154.970   5
   3 -11   1 24338.0 234.030   7
   3 -11   2 2317.91 176.297   7
   3 -11   3 13880.3 196.666   7
   3 -11   4 70.0715 105.459   7
  -3 -12  -1 177.072 117.796   5
   3 -12   0 20864.6 208.466   5
  -3 -12   0 21328.6 224.324   5
   3 -12   1 262.933 150.501   7
   3 -12   2 2046.72 164.326   7
   3 -12   3 1102.20 133.271   7
   3 -12   4 1924.93 90.4946   7
  -3 -13  -1 804.798 114.076   5
  -3 -13   0 10109.6 177.125   5
   3 -13   0 10092.5 160.702   5
  -3 -13   1 850.356 118.908   5
   3 -13   1 966.625 138.550   7
   3 -13   2 2705.63 147.082   7
   3 -13   3 677.107 107.995   7
  -3 -14  -1 375.219 94.2023   5
  -3 -14   0 5893.54 141.498   5
   3 -14   0 6017.51 134.179   5
  -3 -14   1 482.680 105.681   5
  -3 -14   2 5057.99 136.508   5
   3 -14   2 4902.83 125.684   7
  -3 -14   3 202.853 79.0547   5
  -3 -15   0 104.753 88.1280   5
  -3 -15   1 1339.50 104.307   5
  -3 -15   2 22.6110 83.6169   5
  -3 -16   0-20.0306 67.6135   5
  -3 -16   1 631.375 75.7430   5
   4   0  -1 11605.7 181.670   2
   4   0   0 222555. 514.279   2
   4   0   1 13134.4 130.476   2
   4   0   3 22653.2 386.246   3
   4   0   4 919.055 159.190   4
   4   0   5 13034.4 196.761   4
   4  -1  -1 35094.7 276.957   2
   4   1  -1 34804.5 269.139   2
   4  -1   0 42986.9 243.375   2
   4   1   0 43060.4 237.148   2
   4  -1   1 37429.9 193.434   2
   4   1   1 37667.0 210.283   2
   4   1   2 82266.0 319.013   2
   4  -1   2 82750.1 485.375   3
   4  -1   3 11006.5 310.199   3
   4   1   3 11026.5 323.843   3
   4  -1   4 59.2536 155.744   4
   4   1   4 167.338 166.373   4
   4  -1   5 3229.95 151.525   4
   4   1   5 2962.44 173.804   4
   4   2  -2 93384.5 533.604   2
   4   2  -1 92048.1 421.515   2
   4  -2   0 2687.57 119.222   2
   4   2   0 2915.62 100.990   2
   4   2   1 94478.3 340.600   2
   4  -2   1 93578.6 375.230   3
   4  -2   2 103848. 533.089   3
   4  -2   3 7715.84 282.540   3
   4   2   3 7548.83 306.469   3
   4   2   4 1081.34 185.209   4
   4  -2   4 1112.98 158.175   4
   4   2   5 508.011 166.768   4
   4  -2   5 549.389 130.744   4
   4   3  -2 29307.3 345.012   2
   4   3  -1 214092. 653.662   2
   4   3   0 256617. 595.717   2
   4  -3   1 212066. 520.093   3
   4   3   1 211915. 543.298   2
   4  -3   2 32740.2 332.299   3
   4   3   3 8334.99 328.477   3
   4   3   4 251.793 201.634   4
   4   3   5 8508.35 209.953   4
   4   4  -2 2341.77 190.420   2
   4   4  -1 21829.9 255.088   2
   4   4   0 4400.22 128.233   2
   4   4   1 21185.1 210.573   2
   4   4   3 15916.3 395.148   3
  -4   4   3 14901.6 369.041   1
   4  -4   4 37190.3 257.174   7
   4   4   5 2333.80 171.279   4
   4   5  -2 19865.0 315.717   2
   4   5  -1 47987.1 362.660   2
   4   5   0 54175.3 330.734   2
   4   5   1 43565.5 296.381   2
  -4   5   3 29371.5 481.764   1
   4  -5   3 29636.1 220.063   7
   4  -5   4 14782.5 217.969   7
   4   5   5 16.2552 140.999   4
   4   6  -2 6712.26 255.141   2
   4   6  -1 4745.44 186.035   2
   4   6   0 3423.46 140.008   2
   4   6   1 3830.51 147.975   2
  -4   6   3 3050.51 252.811   1
   4  -6   3 3654.86 161.250   7
   4  -6   4 5110.17 183.143   7
   4   6   5 1116.85 132.366   4
   4   7  -1 16619.1 283.132   2
   4   7   0 2430.42 143.303   2
   4   7   1 14154.3 232.522   2
  -4   7   2 911.827 205.697   1
   4  -7   2 1123.42 161.113   7
   4  -7   3 10211.8 195.168   7
   4  -7   4 2016.16 170.428   7
  -4  -7   5 3202.90 111.799   7
   4   7   5 3302.55 124.214   4
   4   8  -1 18851.0 307.889   2
   4   8   0 46256.7 369.585   2
   4   8   1 16867.0 263.168   2
   4  -8   1 17469.9 192.389   7
  -4   8   1 17041.5 367.306   1
   4   8   2 20348.0 328.079   2
   4  -8   2 20370.4 225.211   7
   4  -8   3 15258.0 218.149   7
   4  -8   4 9696.36 189.309   7
   4   8   5 171.275 78.5380   4
   4   9  -1 2089.03 205.626   2
   4  -9   0 91337.0 331.112   7
  -4   9   0 91911.3 670.017   1
   4   9   0 91270.4 539.281   2
  -4   9   1 2201.53 264.199   1
   4   9   1 1994.14 188.351   2
   4  -9   1 2085.76 161.054   7
   4  -9   2 19858.3 233.438   7
   4  -9   3 11223.7 201.741   7
   4  -9   4 805.895 140.268   7
  -4 -10   0 7752.45 169.734   5
   4 -10   0 8302.63 174.671   7
   4  10   0 8454.90 251.145   2
   4 -10   1 36638.0 256.230   7
   4 -10   2 1521.33 172.237   7
   4 -10   3 11289.4 191.863   7
   4  10   4 3549.28 115.049   4
   4 -10   4 3133.45 142.874   7
  -4 -11  -1 7002.86 153.894   5
   4 -11   0 13139.7 181.579   7
  -4 -11   0 13522.9 187.944   5
   4 -11   1 7840.38 183.010   7
   4 -11   2 1417.54 159.396   7
   4 -11   3 283.876 130.926   7
   4 -11   4 2265.08 109.300   7
  -4 -12  -1 4142.64 134.688   5
  -4 -12   0 2417.40 135.221   5
   4 -12   0 2319.19 134.497   7
   4 -12   1 5059.91 161.864   7
   4 -12   2 6692.20 167.633   7
   4 -12   3 7766.24 147.134   7
  -4 -13  -1 3153.89 112.775   5
  -4 -13   0-35.5354 109.883   5
   4 -13   0 2.73042 118.322   7
  -4 -13   1 3606.27 136.281   5
   4 -13   1 3685.82 140.411   7
   4 -13   2 5908.46 145.204   7
   4 -13   3 531.493 97.1272   7
  -4 -14  -1 759.185 85.7732   5
  -4 -14   0 23212.4 196.722   5
  -4 -14   1 801.146 102.487   5
   4 -14   1 858.441 107.327   7
   4 -14   2 3011.45 108.004   7
  -4 -14   2 3114.66 113.801   5
  -4 -14   3 1029.76 74.4566   5
  -4 -15   0 306.686 78.2529   5
  -4 -15   1 2442.44 100.572   5
  -4 -15   2 606.878 76.8846   5
   5   0  -4 26.1665 104.258   8
   5   0  -1 29.7395 134.561   2
   5   0   0 90.1414 116.948   2
   5   0   1 3.06895 95.2677   2
   5   0   3 8.83848 213.693   3
   5   0   4-0.20714 143.802   4
   5   0   5 142.458 120.709   4
   5   1  -3 1560.43 105.994   8
   5   1  -1 4068.80 165.594   2
   5  -1  -1 4055.71 172.083   2
   5   1   0 141773. 490.893   2
   5  -1   0 141862. 512.618   2
   5   1   1 4443.65 125.455   2
   5  -1   2 31351.6 347.753   3
   5   1   3 1181.67 250.490   3
   5  -1   3 1444.68 246.464   3
   5  -1   4 765.523 149.428   4
   5   1   4 855.445 159.408   4
   5   1   5 2328.91 146.732   4
   5   2  -2 51565.0 471.724   2
   5   2  -1 2931.08 155.567   2
   5  -2   0 24273.8 244.716   2
   5   2   0 24055.8 227.757   2
   5  -2   1 3435.16 155.861   3
   5   2   1 3067.80 122.937   2
   5  -2   2 53852.3 431.772   3
   5   2   2 52810.8 313.431   2
   5  -2   3 45114.3 498.951   3
   5   2   3 44964.9 534.111   3
   5   2   4 5587.91 210.719   4
   5   2   5 13595.4 204.980   4
   5  -3  -5 3520.03 104.754   8
   5   3  -2 172995. 825.268   2
   5   3  -1 15640.5 245.616   2
   5   3   0 13241.6 188.430   2
   5   3   1 15472.7 195.561   2
   5   3   2 160181. 540.602   2
   5   3   3 1046.18 291.994   3
   5   3   4 52703.1 362.816   4
   5   3   5 3772.92 175.378   4
   5  -4  -5 1603.61 89.5832   8
   5   4  -2 11402.4 314.442   2
   5   4  -1 88202.3 510.196   2
   5   4   0 23817.9 246.149   2
   5   4   1 79658.3 397.313   2
   5   4   2 11246.0 211.054   2
   5   4   3 68889.3 699.307   3
   5   4   5 2011.48 155.943   4
   5  -5  -5 797.490 77.1231   8
   5   5  -2 6553.38 271.684   2
   5   5  -1 13702.6 267.286   2
   5   5   0 883.260 124.142   2
   5   5   1 12180.9 204.270   2
   5   5   2 5983.71 191.800   2
   5  -5   3 2579.39 153.594   7
   5   5   5 956.519 139.431   4
   5  -6  -5 93.9139 69.4287   8
   5   6  -2 7472.66 295.383   2
   5   6  -1 86341.7 565.469   2
   5   6   0 525.111 127.919   2
   5   6   1 71096.3 432.209   2
   5   6   2 7392.36 220.919   2
   5  -6   3 4756.81 158.558   7
   5  -6   4 1827.63 151.031   7
   5   6   5 210.091 119.759   4
   5  -7  -5 254.568 63.1962   8
   5   7  -2 27060.5 436.990   2
   5   7  -1 4823.79 229.950   2
   5   7   0 9976.92 218.031   2
   5   7   1 4066.08 181.583   2
   5  -7   1 4469.83 153.164   7
   5   7   2 25806.1 346.607   2
   5  -7   2 25575.9 223.589   7
   5  -7   3 2658.96 156.415   7
   5  -7   4 3129.82 157.064   7
   5   7   5 112.406 97.9191   4
   5   8  -1 42436.5 463.859   2
   5  -8   0 33791.3 231.687   7
   5   8   0 34396.8 357.191   2
   5   8   1 39412.4 385.861   2
   5  -8   1 39360.5 248.235   7
   5  -8   2 5561.55 178.244   7
   5  -8   3 1527.06 154.076   7
   5  -8   4 913.721 143.577   7
   5   9  -1 15522.4 340.290   2
   5  -9   0 941.292 144.504   7
  -5   9   0 1076.77 185.662   1
   5   9   0 1096.33 174.858   2
   5  -9   1 14782.6 197.170   7
   5   9   1 15550.0 297.218   2
  -5   9   1 15034.0 421.292   1
   5  -9   2 30049.6 251.737   7
   5  -9   3 9699.90 179.989   7
   5  -9   4 17924.7 188.018   7
   5 -10   0 13317.9 182.481   7
   5 -10   1 40677.5 261.994   7
   5 -10   2 4544.73 175.380   7
   5 -10   3 11477.9 175.783   7
   5  10   4 374.943 95.0025   4
   5 -10   4 241.997 106.046   7
  -5 -11   0 7840.41 154.657   5
   5 -11   0 8074.34 155.107   7
   5 -11   1 8433.07 172.652   7
   5 -11   2 18317.5 204.494   7
   5 -11   3 1291.29 124.743   7
   5 -11   4 900.786 80.8475   7
  -5 -12   0 832.552 112.958   5
   5 -12   0 830.577 122.712   7
  -5 -12   1 4066.80 134.947   5
   5 -12   1 4252.84 144.766   7
   5 -12   2 469.648 123.557   7
   5 -12   3 90.9322 100.034   7
  -5 -13   0 14305.8 163.446   5
  -5 -13   1 367.409 99.6927   5
   5 -13   1 286.554 110.407   7
  -5 -13   2 1725.23 108.385   5
   5 -13   2 1747.16 113.532   7
  -5 -13   3 2227.55 91.7063   5
   5 -13   3 2364.49 89.6448   7
  -5 -14   0 55.4248 80.6118   5
  -5 -14   1 4196.63 113.555   5
   5 -14   1 4189.44 113.848   7
  -5 -14   2 372.149 81.3530   5
   5 -14   2 354.340 82.7426   7
  -5 -15   1 2201.31 79.6349   5
   6   0  -4 128.587 100.982   8
   6   0  -3 5515.57 139.484   8
   6   0  -1 14677.0 281.441   2
   6   0   0 66585.2 431.278   2
   6   0   1 15269.3 215.688   2
   6   0   2 48654.4 443.480   3
   6   0   3 5494.88 269.445   3
   6  -1  -4 610.698 102.884   8
   6   1  -4 700.911 110.641   8
   6   1  -3 1953.67 122.508   8
   6  -1  -1 13611.0 273.138   2
   6   1  -1 14097.2 270.398   2
   6   1   0 17266.9 247.763   2
   6  -1   0 17329.9 260.976   2
   6   1   1 14907.5 216.182   2
   6  -1   2 6431.56 251.742   3
   6   1   3 2048.68 259.690   3
   6   1   4 785.201 145.095   4
   6  -2  -4 5569.47 130.152   8
   6   2  -3 13880.0 181.452   8
   6   2  -2 10616.8 321.791   2
   6   2  -1 24655.1 335.711   2
   6   2   0 8508.40 201.426   2
   6   2   1 25783.2 261.955   2
   6   2   3 13194.8 377.933   3
   6   2   4 5815.10 178.772   4
   6   2   5 771.886 121.210   4
   6   3  -3 9587.47 161.368   8
   6   3  -2 29549.1 462.740   2
   6   3  -1 11819.2 265.287   2
   6   3   0 184012. 662.059   2
   6   3   1 11747.1 211.000   2
   6   3   4 1485.99 168.001   4
   6   3   5 3783.54 138.337   4
   6  -4  -5 2628.36 85.0800   8
   6   4  -2 15281.8 392.172   2
   6   4  -2 15930.3 175.639   8
   6   4  -1 16971.8 308.345   2
   6   4   0 4133.81 182.049   2
   6   4   1 15561.6 237.313   2
   6   4   2 13226.4 234.433   2
   6   4   4 6016.61 195.685   4
   6   4   5 3239.82 140.459   4
   6  -5  -5 549.949 68.4650   8
   6   5  -2 14596.0 172.129   8
   6   5  -2 16034.1 408.605   2
   6   5  -1 58377.8 521.102   2
   6   5   0 16258.6 264.738   2
   6   5   1 51188.5 389.273   2
   6   5   2 13527.7 254.800   2
   6   5   5 659.072 119.961   4
   6   6  -2 1164.90 281.866   2
   6   6  -1 4544.16 254.850   2
   6   6   0 1495.26 168.494   2
   6   6   1 3546.76 184.496   2
   6   6   2 793.141 182.454   2
   6  -6   3 1367.83 135.785   7
   6   6   5 990.281 105.776   4
   6   7  -1 25813.0 420.588   2
   6  -7   0 1861.00 137.991   7
   6   7   0 1989.45 188.418   2
   6   7   1 22479.5 224.729   6
   6  -7   1 22231.3 203.965   7
   6   7   1 22301.3 322.879   2
   6  -7   2 2001.44 150.548   7
   6  -7   3 3506.75 145.026   7
   6  -8   0 6423.20 155.355   7
   6   8   0 6602.10 243.206   2
   6   8   1 30128.0 253.761   6
   6  -8   1 30270.4 227.707   7
   6  -8   2 3934.34 165.080   7
   6  -8   3 1568.01 139.391   7
   6  -9   0 11536.3 170.770   7
   6   9   1 2516.55 147.756   6
   6  -9   1 2287.83 158.112   7
   6  -9   2 25346.9 228.310   7
   6  -9   3 6195.41 150.517   7
   6   9   4 3435.12 134.954   4
   6 -10  -4 938.055 59.5520   8
   6 -10   0 2326.26 137.701   7
   6 -10   1 20977.0 206.174   7
   6 -10   2 7687.83 172.592   7
   6 -10   3 4795.60 134.804   7
   6  10   4 983.620 90.9681   4
   6 -11   0 160.058 121.809   7
  -6 -11   1 597.865 112.841   5
   6 -11   1 604.285 130.145   7
   6 -11   2 7168.67 148.904   7
   6 -11   3 1460.06 108.492   7
  -6 -12   1 1001.55 99.4128   5
   6 -12   1 1001.49 113.763   7
   6 -12   2 2242.06 117.818   7
   6 -12   3 56.6566 84.3609   7
   6  13   0 259.357 91.0517   6
  -6 -13   1 1234.22 88.0786   5
   6 -13   1 1238.60 105.855   7
  -6 -13   2 184.167 76.8596   5
   6 -13   2 246.989 87.3393   7
   6  14  -2 991.139 75.4273   6
   6  14   0 2047.00 88.7204   6
   7   0  -4-60.1046 94.4814   8
   7   0  -3-63.2271 120.539   8
   7   0  -2 154.646 113.322   8
   7   0  -1 205.575 208.093   2
   7   0   0 237.847 171.178   2
   7   0   2-41.6247 124.461   6
   7  -1  -4 4893.22 128.055   8
   7   1  -4 4735.63 131.604   8
   7   1  -3 8528.93 171.521   8
   7  -1  -3 8365.95 168.895   8
   7   1  -2 39323.5 259.709   8
   7  -1  -2 39242.3 256.195   8
   7   1  -1 14699.7 350.665   2
   7   1   0 881.643 186.684   2
   7  -1   0 869.202 197.136   2
   7  -1   2 27861.0 251.336   6
   7   1   2 27428.6 245.708   6
   7   2  -4 3836.51 122.568   8
   7  -2  -4 3653.71 120.189   8
   7   2  -3 58620.9 321.643   8
   7  -2  -3 59050.2 310.885   8
   7   2  -2 9743.82 172.102   8
   7   2  -1 27271.5 436.303   2
   7   2   0 22496.7 344.579   2
   7   2   1 29678.4 360.344   2
   7  -2   2 6646.79 186.027   6
   7   2   2 6249.69 171.621   6
   7   2   4 4404.60 157.101   4
   7  -3  -4 2180.91 103.302   8
   7   3  -3 1461.14 128.517   8
   7   3  -2 21327.6 219.953   8
   7   3  -2 20899.5 487.586   2
   7   3  -1 24172.7 409.738   2
   7   3   0 1041.81 180.827   2
   7   3   1 24116.7 322.072   2
   7   3   2 15562.0 205.393   6
   7   3   4 2790.17 154.811   4
   7  -4  -4 545.359 86.5152   8
   7   4  -3 26275.6 230.783   8
   7   4  -2 2038.75 124.788   6
   7   4  -2 2346.03 334.154   2
   7   4  -2 2182.92 138.456   8
   7   4  -1 7909.38 314.143   2
   7   4  -1 8059.96 164.415   8
   7   4   0 28648.6 368.610   2
   7  -4   1 7231.68 183.579   6
   7   4   1 7751.90 172.977   6
   7   4   1 7632.34 243.516   2
   7   4   4 867.343 154.310   4
   7  -5  -4 4084.62 107.613   8
   7   5  -3 3313.02 123.768   8
   7   5  -2 15332.9 197.964   8
   7   5  -1 1847.11 246.392   2
   7   5   0 610.501 128.367   6
   7   5   0 404.828 190.887   2
   7  -5   0 579.849 126.271   6
   7   5   1 1743.34 145.447   6
   7   5   1 1684.34 194.285   2
   7   5   4 5593.63 185.190   4
   7  -6  -4 6435.97 116.205   8
   7   6  -1 17621.6 417.812   2
   7   6   0 110.685 195.295   2
   7  -6   0 100.473 118.021   7
   7   6   1 15894.7 220.945   6
   7  -6   1 15664.2 178.271   7
   7   6   1 16196.7 319.313   2
   7  -6   2 3032.61 142.825   7
   7   6   4 8739.76 203.165   4
   7  -7  -4 6580.45 112.541   8
   7   7   0 5732.24 270.509   2
   7  -7   0 5174.82 144.673   7
   7   7   1 5477.25 170.992   6
   7  -7   1 5414.68 155.723   7
   7  -7   2 3062.31 143.239   7
   7  -7   3 251.169 117.916   7
   7   7   4 8983.19 196.023   4
   7  -8  -4 3855.51 89.1822   8
   7   8  -3 3970.81 126.274   6
   7  -8   0 94.0924 126.200   7
   7   8   1 27844.6 260.957   6
   7  -8   1 28156.1 219.345   7
   7  -8   2 12586.8 181.499   7
   7  -8   3 4956.76 132.346   7
   7   8   4 4569.84 155.493   4
   7  -9  -4 1818.79 66.4100   8
   7   9  -3 7675.27 142.724   6
   7  -9   0 167.438 126.761   7
   7   9   1 1236.57 136.339   6
   7  -9   1 1254.95 139.475   7
   7  -9   2 35230.3 229.304   7
   7  -9   3 11180.7 145.314   7
   7   9   4 2240.39 111.418   4
   7  10  -3 909.918 85.5348   6
   7 -10   0 19348.4 187.784   7
   7  10   1 20323.0 209.220   6
   7 -10   1 20697.0 187.077   7
   7 -10   2 973.359 126.576   7
   7 -10   3 1085.78 101.439   7
   7  11  -3 1232.22 77.3017   6
   7  11   0 9953.26 159.666   6
   7 -11   1 3551.41 123.898   7
   7 -11   2 8853.14 136.228   7
   7 -11   3 2019.77 87.3428   7
   7  12  -2 57.7090 85.4992   6
   7  12   0 342.697 94.0034   6
   7 -12   1-10.1796 100.975   7
   7 -12   2 21.2263 88.7077   7
   7  13  -2 1145.67 80.4662   6
   7  13  -1 3280.35 109.593   6
   7  13   0 3110.70 101.033   6
   7  14  -1 1645.59 75.0292   6
   8   0  -4 4383.86 119.995   8
   8   0  -3 15801.1 199.078   8
   8   0  -2 28908.9 243.531   8
   8   0  -1 15832.2 208.514   6
   8   0  -1 15795.8 193.461   8
   8   0   0 6461.15 166.960   6
   8   0   0 5874.60 313.912   2
   8   0   1 14197.6 222.273   6
   8   0   2 20484.2 241.773   6
   8   1  -4 2443.15 108.969   8
   8  -1  -4 2365.55 105.748   8
   8   1  -3 3746.47 143.631   8
   8  -1  -3 3810.91 147.632   8
   8   1  -2 4231.19 150.455   8
   8  -1  -2 3642.52 152.195   8
   8  -1  -1 12024.9 193.398   6
   8   1  -1 12186.2 193.027   6
   8   1  -1 12042.5 180.521   8
   8  -1  -1 12002.6 169.648   8
   8  -1   0 15542.5 219.330   6
   8   1   0 15883.8 212.603   6
   8   1   0 15607.6 180.477   8
   8  -1   1 10464.0 210.596   6
   8   1   1 10611.5 197.147   6
   8  -1   2 2917.81 162.887   6
   8   1   2 2866.95 156.027   6
   8   2  -4 1247.29 95.6954   8
   8  -2  -4 1092.74 89.4528   8
   8   2  -3 3283.00 135.400   8
   8  -2  -3 3250.90 137.290   8
   8   2  -2 8088.04 172.510   8
   8  -2  -2 8234.07 169.006   8
   8   2  -1 3553.77 140.709   6
   8   2  -1 2838.86 296.682   2
   8   2  -1 3481.18 137.859   8
   8  -2  -1 2948.63 120.982   8
   8  -2   0 167.075 122.386   6
   8   2   0 156.791 118.240   6
   8   2   0 57.3692 100.452   8
   8   2   0-82.9111 224.326   2
   8  -2   1 2809.17 153.888   6
   8   2   1 2819.58 153.460   6
   8  -2   2 6241.31 187.007   6
   8   2   2 6316.37 179.486   6
   8  -3  -4-10.2656 80.2459   8
   8   3  -3 1583.32 123.272   8
   8  -3  -3 1538.21 119.569   8
   8   3  -2 8028.61 176.218   6
   8   3  -2 8378.28 177.063   8
   8  -3  -2 8132.07 162.814   8
   8   3  -1 5647.98 152.937   6
   8   3  -1 5514.01 155.607   8
   8  -3   0 1572.50 135.596   6
   8   3   0 1577.63 135.327   6
   8   3   0 1716.40 233.576   2
   8  -3   1 4894.25 174.913   6
   8   3   1 5051.27 181.225   6
   8   3   2 6482.85 185.550   6
   8  -4  -4 1975.50 94.9710   8
   8   4  -3 179.080 105.646   8
   8  -4  -3 167.725 103.210   8
   8   4  -2 3335.51 140.163   6
   8   4  -2 3554.35 146.229   8
   8  -4  -2 3494.50 131.435   8
   8   4  -1 23901.6 237.448   6
   8   4  -1 24219.1 525.225   2
   8   4  -1 24123.6 250.343   8
   8  -4  -1 24016.4 189.244   8
   8   4   0 624.611 129.079   6
   8  -4   0 563.562 132.025   6
   8   4   0 429.718 225.724   2
   8   4   1 24568.8 278.031   6
   8  -4   1 24551.7 279.023   6
   8   4   2 3117.79 159.864   6
   8  -5  -4 4039.21 102.766   8
   8  -5  -3 14493.9 167.331   8
   8   5  -2 4627.02 148.496   6
   8   5  -2 4887.32 151.736   8
   8  -5  -2 4606.43 130.718   8
   8   5  -1 2937.72 134.960   6
   8   5   0 16913.1 413.198   2
   8   5   0 18183.0 227.017   6
   8   5   1 3065.06 174.449   6
   8   5   2 4675.71 178.501   6
   8  -6  -4 1605.94 83.1437   8
   8  -6  -3 473.728 92.1815   8
   8   6  -2 4454.43 145.846   6
   8  -6  -2 4346.32 123.663   8
   8   6  -1 1475.10 119.284   6
   8   6   0 9678.80 192.057   6
   8   6   1 1587.00 155.736   6
   8  -6   1 1727.30 124.495   7
   8   6   4 2077.05 140.470   4
   8  -7  -4 6455.71 100.866   8
   8  -7  -3 1804.29 94.0666   8
   8   7  -2 15320.8 192.334   6
   8  -7  -2 15234.9 163.950   8
   8   7  -1 2758.64 128.889   6
   8   7   0 408.744 122.497   6
   8   7   1 3034.55 160.913   6
   8  -7   1 3144.48 132.285   7
   8  -7   2 16247.3 169.138   7
   8  -8  -3 4825.06 107.816   8
   8   8  -2 4698.03 142.530   6
   8  -8  -2 4766.97 108.602   8
   8   8  -1 12990.3 182.416   6
   8   8   0 568.481 114.112   6
   8   8   1 13222.2 208.356   6
   8  -8   1 13302.4 165.686   7
   8  -8   2 4973.44 132.698   7
   8  -9  -3 211.244 70.4194   8
   8   9  -2 3694.23 134.498   6
   8   9  -1 1248.73 116.452   6
   8   9   0 300.534 111.538   6
   8   9   1 1297.27 129.593   6
   8  -9   1 1791.29 124.614   7
   8  -9   2 4084.95 119.711   7
   8  10  -2 882.148 102.679   6
   8  10  -1 1297.58 110.494   6
   8  10   0 109.385 103.698   6
   8  10   1 1147.78 111.071   6
   8 -10   1 1392.83 117.481   7
   8 -10   2 1058.67 99.1588   7
   8  11  -2 1105.99 96.5459   6
   8  11  -1 7576.86 138.451   6
   8  11   0 8798.70 144.547   6
   8 -11   2 1307.88 91.1671   7
   8  12  -2 1188.41 79.0942   6
   8  12  -1 4945.79 120.550   6
   8  12   0 1882.50 99.8113   6
   8  13  -1 244.943 68.9881   6
   8  13   0 3482.66 84.3087   6
   9   0  -4 3.44791 68.6943   8
   9   0  -3 61.5264 93.5603   8
   9   0  -2-32.2136 110.389   8
   9   0  -1 90.9652 120.676   6
   9   0  -1-2.13783 104.730   8
   9   0   0-135.225 134.599   6
   9   0   0-84.1856 121.011   8
   9   0   1 156.401 131.201   6
   9   0   2 69.0070 130.519   6
   9   1  -4 378.659 70.2406   8
   9  -1  -4 320.543 72.9660   8
   9   1  -3 2204.58 124.265   8
   9  -1  -3 2320.15 122.078   8
   9   1  -2 4347.43 150.299   8
   9  -1  -2 3879.62 149.177   8
   9  -1  -1 1516.96 141.383   6
   9   1  -1 1439.66 138.433   6
   9   1  -1 1464.43 127.988   8
   9  -1  -1 1133.22 118.952   8
   9  -1   0 14569.5 240.164   6
   9   1   0 13843.8 240.896   6
   9  -1   1 1282.53 149.866   6
   9   1   1 1214.61 149.826   6
   9  -1   2 3200.56 168.634   6
   9   1   2 3332.80 170.045   6
   9  -2  -4 857.194 76.1152   8
   9   2  -3 1517.00 117.915   8
   9  -2  -3 1436.81 112.637   8
   9   2  -2 15958.0 222.134   8
   9  -2  -2 16684.0 210.526   8
   9  -2  -1 4630.28 177.591   6
   9   2  -1 4680.68 166.197   6
   9   2  -1 4430.09 157.232   8
   9  -2  -1 4839.76 138.566   8
   9  -2   0 12245.6 232.094   6
   9   2   0 12164.7 221.172   6
   9  -2   1 4587.84 179.209   6
   9   2   1 4435.69 190.876   6
   9   2   2 13672.9 235.078   6
   9  -3  -4 300.618 70.6614   8
   9   3  -3 2394.30 122.505   8
   9  -3  -3 2530.55 117.489   8
   9   3  -2 979.051 125.269   6
   9   3  -2 949.786 127.238   8
   9  -3  -2 1011.86 124.464   8
   9   3  -1 5272.69 164.039   6
   9   3  -1 5261.26 166.514   8
   9  -3  -1 5488.46 133.291   8
   9  -3   0 189.902 133.857   6
   9   3   0 138.479 125.428   6
   9  -3   1 5100.43 196.252   6
   9   3   1 5204.55 195.878   6
   9   3   2 914.308 150.830   6
   9  -4  -4 2069.97 85.2207   8
   9  -4  -3 19.2538 87.9897   8
   9   4  -2 6258.18 163.966   6
   9   4  -2 6095.02 163.366   8
   9  -4  -2 6390.61 150.801   8
   9   4  -1 123.453 110.729   6
   9  -4  -1 36.6054 98.2033   8
   9  -4   0 84.7253 135.684   6
   9   4   0 11.4118 122.575   6
   9   4   1 131.485 141.295   6
   9   4   2 5737.16 197.473   6
   9  -5  -4 3918.89 93.7616   8
   9  -5  -3 706.960 93.0491   8
   9   5  -2 4577.64 149.886   6
   9  -5  -2 4890.23 131.272   8
   9   5  -1 6057.65 157.538   6
   9   5   0 1851.84 144.473   6
   9   5   1 6798.18 194.246   6
   9   5   2 4707.46 184.353   6
   9  -6  -3 7427.56 121.392   8
   9   6  -2 8118.85 166.749   6
   9  -6  -2 8181.04 137.234   8
   9   6  -1 2237.20 129.017   6
   9   6   0 1288.46 130.193   6
   9   6   1 2588.50 159.580   6
   9  -7  -3 3479.25 97.2335   8
   9   7  -2 546.558 104.242   6
   9  -7  -2 599.907 83.7518   8
   9   7  -1 2500.02 126.839   6
   9   7   0 154.522 107.694   6
   9   7   1 2442.58 147.398   6
   9  -8  -3 393.398 65.3832   8
   9   8  -2 1563.46 107.126   6
   9   8  -1 2622.06 120.746   6
   9   8   0 11441.7 172.232   6
   9   8   1 2458.19 133.718   6
   9   9  -2 739.144 93.8538   6
   9   9  -1 8180.50 152.609   6
   9   9   0 1590.85 114.568   6
   9   9   1 6555.68 150.453   6
   9  10  -2 3346.26 105.743   6
   9  10  -1 529.851 98.7443   6
   9  10   0 1918.28 109.526   6
   9  10   1 490.742 90.4450   6
   9  11  -2 904.751 72.1226   6
   9  11  -1 2058.80 104.526   6
   9  11   0 208.113 82.7424   6
   9  12  -1 1533.73 80.3520   6
   9  12   0 324.257 68.6658   6
  10   0  -3 3061.85 124.695   8
  10   0  -2 6598.58 183.892   8
  10   0  -1 13353.4 268.349   6
  10   0  -1 13456.1 216.827   8
  10   0   0 36633.8 382.961   6
  10   0   1 16165.1 264.809   6
  10   0   2 6242.94 217.366   6
  10   1  -3 1773.36 110.917   8
  10  -1  -3 1645.24 109.578   8
  10   1  -2 11640.8 192.542   8
  10  -1  -2 11266.5 181.876   8
  10  -1  -1 5216.14 204.904   6
  10   1  -1 5182.04 192.953   6
  10   1  -1 5067.18 165.071   8
  10  -1  -1 4931.08 164.714   8
  10  -1   0 3727.03 192.404   6
  10   1   0 3584.41 179.427   6
  10  -1   1 5933.22 203.149   6
  10   1   1 6025.93 212.275   6
  10   1   2 10451.7 237.130   6
  10   2  -3 640.901 96.9612   8
  10  -2  -3 792.428 95.5077   8
  10   2  -2 29.4145 103.414   8
  10  -2  -2 5.39731 102.751   8
  10  -2  -1 4178.68 186.045   6
  10   2  -1 4460.57 165.152   6
  10  -2  -1 4100.01 143.830   8
  10  -2   0 67.2298 128.903   6
  10   2   0-16.8230 119.770   6
  10  -2   1 4540.71 197.753   6
  10   2   1 4631.24 198.533   6
  10   2   2-23.0116 143.066   6
  10  -3  -3 2701.95 107.981   8
  10   3  -2 3047.45 135.258   6
  10  -3  -2 3026.95 127.146   8
  10   3  -1 454.088 109.632   6
  10  -3  -1 379.373 98.3329   8
  10  -3   0 107.482 131.314   6
  10   3   0 121.728 113.914   6
  10   3   1 567.612 144.580   6
  10  -3   1 363.401 137.265   6
  10   3   2 2772.76 166.179   6
  10  -4  -3 66.9290 75.4294   8
  10   4  -2 350.343 105.729   6
  10  -4  -2 481.036 94.9307   8
  10   4  -1 411.193 103.602   6
  10   4   0 792.162 118.186   6
  10   4   1 378.656 136.332   6
  10   4   2 468.946 130.585   6
  10  -5  -3 1167.13 81.0102   8
  10   5  -2 4748.49 139.202   6
  10  -5  -2 4508.75 121.508   8
  10   5  -1 135.367 95.2468   6
  10   5   0 213.727 104.222   6
  10   5   1 116.607 124.551   6
  10   5   2 3803.80 166.171   6
  10  -6  -3 4537.12 96.6949   8
  10   6  -2 295.304 92.3572   6
  10  -6  -2 261.575 78.9615   8
  10   6  -1 414.024 98.7278   6
  10   6   0 989.366 115.181   6
  10   6   1 373.587 119.299   6
  10   7  -2 392.810 84.5576   6
  10   7  -1 7175.65 144.827   6
  10   7   0 1068.05 112.827   6
  10   7   1 5914.02 167.940   6
  10   8  -2 933.526 83.0892   6
  10   8  -1 744.848 97.4949   6
  10   8   0 1909.66 117.654   6
  10   8   1 541.744 99.5207   6
  10   9  -2 523.541 70.9717   6
  10   9  -1 423.555 87.9624   6
  10   9   0 2867.01 115.822   6
  10   9   1 247.487 80.8194   6
  10  10  -1 1249.41 89.2026   6
  10  10   0 193.065 79.4557   6
  11   0  -2-12.6119 88.1626   8
  11   0  -1-11.6478 112.662   6
  11   0   0-105.492 120.286   6
  11   0   1 94.8197 117.301   6
  11  -1  -3 288.534 74.5935   8
  11  -1  -2 676.147 99.8214   8
  11  -1  -1 681.815 126.129   6
  11   1  -1 291.881 118.680   6
  11  -1   0 1612.96 145.214   6
  11   1   0 1529.50 139.308   6
  11  -1   1 478.143 133.054   6
  11   1   1 515.537 132.106   6
  11  -2  -3 1694.84 89.0026   8
  11  -2  -2 189.340 87.8736   8
  11   2  -1 794.370 117.023   6
  11  -2  -1 666.357 97.4364   8
  11  -2  -1 1050.09 134.256   6
  11  -2   0 147.167 124.982   6
  11   2   0 117.440 108.406   6
  11   2   1 833.662 135.971   6
  11  -2   1 756.504 136.627   6
  11   2   2 247.500 125.038   6
  11  -3  -3 188.159 64.7115   8
  11  -3  -2 434.116 83.2883   8
  11   3  -1 241.600 102.684   6
  11   3   0 1308.73 122.033   6
  11   3   1 221.722 125.743   6
  11   3   2 517.221 118.884   6
  11  -4  -3 1278.85 67.3233   8
  11  -4  -2 26.9157 72.8366   8
  11   4  -1 1409.90 114.534   6
  11   4   0-85.8984 93.2119   6
  11   4   1 1517.13 142.912   6
  11   4   2 63.9993 105.565   6
  11   5  -2 812.545 87.9287   6
  11   5  -1 622.995 98.1401   6
  11   5   0 7.23474 87.2103   6
  11   5   1 597.177 114.412   6
  11   5   2 729.257 103.388   6
  11   6  -2 2332.48 90.4965   6
  11   6  -1 2567.59 118.446   6
  11   6   0 37.6297 85.6899   6
  11   6   1 2097.96 129.340   6
  11   7  -1-11.0158 78.3391   6
  11   7   0 747.765 95.4162   6
  11   7   1 7.09959 79.2448   6
  11   8  -1 697.179 81.3486   6
  11   8   0 23.5828 75.6896   6
  11   8   1 406.072 74.5185   6
  11   9  -1-11.5695 63.7907   6
  11   9   0-16.7202 65.1460   6
  12   0  -1 277.335 123.799   6
  12   0   0 6170.41 198.282   6
  12   0   1 277.670 141.905   6
  12   1  -1 4690.29 160.223   6
  12   1   0-164.779 124.281   6
  12  -1   0-23.0007 132.148   6
  12   1   1 5208.25 188.998   6
  12   2  -1 619.186 106.771   6
  12   2   0 6441.16 188.424   6
  12   2   1 701.441 123.937   6
  12   3  -1 367.593 89.5615   6
  12   3   0 172.483 94.6941   6
  12   3   1 362.723 105.575   6
  12   4  -1 31.3932 84.6413   6
  12   4   0 71.1168 82.8204   6
  12   4   1 112.966 92.7804   6
  12   5  -1 3386.13 116.803   6
  12   5   0 210.405 80.3294   6
  12   5   1 2645.67 120.713   6
  12   6  -1-113.802 70.2941   6
  12   6   0 934.346 89.8032   6
  12   6   1 6.31334 65.9852   6
  12   7   0-27.9098 62.2184   6
  13   2   0-2.59043 71.1173   6
  13   3   0 42.7710 67.3164   6
;
_shelx_hkl_checksum              21281
#END Tags that were not found in dictionaries
loop_
_space_group_symop_operation_xyz
'x, y, z'
'-x, -y, z+1/2'
'x+1/2, -y+1/2, z'
'-x+1/2, y+1/2, z+1/2'
loop_
_atom_site_label
_atom_site_type_symbol
_atom_site_fract_x
_atom_site_fract_y
_atom_site_fract_z
_atom_site_U_iso_or_equiv
_atom_site_adp_type
_atom_site_occupancy
_atom_site_site_symmetry_order
_atom_site_calc_flag
_atom_site_refinement_flags_posn
_atom_site_refinement_flags_adp
O2 O 0.9057(2) 0.54267(16) 0.1981(6) 0.0400(7) Uani 1 1 d . .
N1 N 0.6281(3) 0.83126(19) 0.0183(8) 0.0433(8) Uani 1 1 d . .
O1 O 0.9159(3) 0.62866(18) 0.5840(7) 0.0493(8) Uani 1 1 d . .
C6 C 0.8781(3) 0.6147(3) 0.3469(8) 0.0400(9) Uani 1 1 d . .
C2 C 0.7097(3) 0.6682(2) 0.0188(10) 0.0454(9) Uani 1 1 d . .
H2 H 0.7092 0.6048 -0.0584 0.054 Uiso 1 1 calc R U
C3 C 0.7898(3) 0.6903(2) 0.2283(9) 0.0396(8) Uani 1 1 d . .
C4 C 0.7885(4) 0.7844(3) 0.3345(10) 0.0481(10) Uani 1 1 d . .
H4 H 0.8427 0.8023 0.4794 0.058 Uiso 1 1 calc R U
C1 C 0.6294(3) 0.7396(2) -0.0790(9) 0.0456(10) Uani 1 1 d . .
H1 H 0.5729 0.7231 -0.2209 0.055 Uiso 1 1 calc R U
C5 C 0.7059(4) 0.8511(2) 0.2230(11) 0.0503(10) Uani 1 1 d . .
H5 H 0.7047 0.9150 0.2971 0.060 Uiso 1 1 calc R U
Li1 Li 0.9939(5) 0.4330(4) 0.3603(14) 0.0386(12) Uani 1 1 d . .
loop_
_atom_site_aniso_label
_atom_site_aniso_U_11
_atom_site_aniso_U_22
_atom_site_aniso_U_33
_atom_site_aniso_U_23
_atom_site_aniso_U_13
_atom_site_aniso_U_12
O2 0.0563(12) 0.0294(11) 0.0344(15) -0.0003(12) 0.0044(12) 0.0037(8)
N1 0.0594(16) 0.0349(13) 0.0356(18) 0.0019(14) 0.0007(15) 0.0063(11)
O1 0.0677(15) 0.0463(14) 0.0339(18) -0.0001(13) -0.0049(13) 0.0166(11)
C6 0.0536(17) 0.0348(16) 0.032(2) 0.0006(16) 0.0023(15) 0.0036(13)
C2 0.0611(18) 0.0333(15) 0.042(2) -0.0014(19) -0.0012(18) 0.0043(12)
C3 0.0553(17) 0.0305(15) 0.0330(18) -0.0009(16) 0.0040(17) 0.0050(12)
C4 0.0629(19) 0.0376(17) 0.044(2) -0.0058(18) -0.0109(19) 0.0074(13)
C1 0.0592(17) 0.0384(16) 0.039(2) -0.0044(16) -0.0042(17) 0.0052(13)
C5 0.070(2) 0.0317(16) 0.049(2) -0.0008(19) -0.004(2) 0.0092(14)
Li1 0.056(2) 0.032(2) 0.028(3) 0.000(2) 0.002(3) 0.002(2)
loop_
_atom_type_symbol
_atom_type_description
_atom_type_scat_dispersion_real
_atom_type_scat_dispersion_imag
_atom_type_scat_source
C C 0.0181 0.0091 'International Tables Vol C Tables 4.2.6.8 and 6.1.1.4'
H H 0.0000 0.0000 'International Tables Vol C Tables 4.2.6.8 and 6.1.1.4'
Li Li 0.0008 0.0003 'International Tables Vol C Tables 4.2.6.8 and 6.1.1.4'
N N 0.0311 0.0180 'International Tables Vol C Tables 4.2.6.8 and 6.1.1.4'
O O 0.0492 0.0322 'International Tables Vol C Tables 4.2.6.8 and 6.1.1.4'
loop_
_geom_angle_atom_site_label_1
_geom_angle_atom_site_label_2
_geom_angle_atom_site_label_3
_geom_angle
_geom_angle_site_symmetry_1
_geom_angle_site_symmetry_3
C6 O2 Li1 118.8(3) . .
C6 O2 Li1 118.2(3) . 2_764
Li1 O2 Li1 102.08(18) . 2_764
C5 N1 C1 116.9(3) . .
C5 N1 Li1 122.6(3) . 4_654
C1 N1 Li1 120.4(3) . 4_654
C6 O1 Li1 140.9(3) . 2_765
O1 C6 O2 125.7(3) . .
O1 C6 C3 117.0(3) . .
O2 C6 C3 117.2(3) . .
O1 C6 Li1 88.4(3) . .
O2 C6 Li1 37.8(2) . .
C3 C6 Li1 153.8(3) . .
C3 C2 C1 119.2(3) . .
C2 C3 C4 118.6(3) . .
C2 C3 C6 121.6(3) . .
C4 C3 C6 119.8(4) . .
C5 C4 C3 118.2(4) . .
N1 C1 C2 122.9(4) . .
N1 C5 C4 124.1(3) . .
O1 Li1 O2 107.6(4) 2_764 .
O1 Li1 O2 113.6(3) 2_764 2_765
O2 Li1 O2 118.0(3) . 2_765
O1 Li1 N1 107.0(3) 2_764 4_645
O2 Li1 N1 111.9(3) . 4_645
O2 Li1 N1 98.0(3) 2_765 4_645
O1 Li1 C6 128.2(3) 2_764 .
O2 Li1 C6 23.46(14) . .
O2 Li1 C6 96.2(2) 2_765 .
N1 Li1 C6 109.6(2) 4_645 .
O1 Li1 Li1 146.2(4) 2_764 2_765
O2 Li1 Li1 83.4(3) . 2_765
O2 Li1 Li1 38.30(11) 2_765 2_765
N1 Li1 Li1 97.6(2) 4_645 2_765
C6 Li1 Li1 60.1(2) . 2_765
O1 Li1 Li1 70.65(18) 2_764 2_764
O2 Li1 Li1 39.6(2) . 2_764
O2 Li1 Li1 122.6(3) 2_765 2_764
N1 Li1 Li1 137.2(4) 4_645 2_764
C6 Li1 Li1 57.5(2) . 2_764
Li1 Li1 Li1 106.2(3) 2_765 2_764
loop_
_geom_bond_atom_site_label_1
_geom_bond_atom_site_label_2
_geom_bond_distance
_geom_bond_site_symmetry_2
O2 C6 1.265(4) .
O2 Li1 1.947(6) .
O2 Li1 2.003(7) 2_764
N1 C5 1.333(6) .
N1 C1 1.346(5) .
N1 Li1 2.062(6) 4_654
O1 C6 1.247(5) .
O1 Li1 1.868(7) 2_765
C6 C3 1.519(5) .
C6 Li1 2.786(6) .
C2 C3 1.372(6) .
C2 C1 1.388(5) .
C3 C4 1.394(5) .
C4 C5 1.384(5) .
Li1 O1 1.868(7) 2_764
Li1 O2 2.003(7) 2_765
Li1 N1 2.062(6) 4_645
Li1 Li1 3.072(6) 2_765
Li1 Li1 3.072(6) 2_764
