#------------------------------------------------------------------------------
#$Date: 2016-03-23 22:59:06 +0200 (Wed, 23 Mar 2016) $
#$Revision: 179498 $
#$URL: svn://www.crystallography.net/cod/cif/4/33/95/4339515.cif $
#------------------------------------------------------------------------------
#
# This file is available in the Crystallography Open Database (COD),
# http://www.crystallography.net/
#
# All data on this site have been placed in the public domain by the
# contributors.
#
data_4339515
loop_
_publ_author_name
'Denehy, Emma'
'White, Jonathan M.'
'Williams, Spencer J.'
_publ_section_title
;
 Electronic structure of the sulfonyl and phosphonyl groups: a
 computational and crystallographic study.
;
_journal_issue                   21
_journal_name_full               'Inorganic chemistry'
_journal_page_first              8871
_journal_page_last               8886
_journal_paper_doi               10.1021/ic700687t
_journal_volume                  46
_journal_year                    2007
_chemical_formula_sum            'C7 H7 N O5 S'
_chemical_formula_weight         217.20
_chemical_name_common            '3-nitrophenyl mesylate'
_chemical_name_systematic
;
 ?
;
_space_group_IT_number           2
_symmetry_cell_setting           triclinic
_symmetry_space_group_name_Hall  '-P 1'
_symmetry_space_group_name_H-M   'P -1'
_atom_sites_solution_hydrogens   geom
_atom_sites_solution_primary     direct
_atom_sites_solution_secondary   difmap
_audit_creation_method           SHELXL-97
_cell_angle_alpha                77.771(4)
_cell_angle_beta                 70.901(4)
_cell_angle_gamma                70.220(5)
_cell_formula_units_Z            2
_cell_length_a                   6.6200(18)
_cell_length_b                   8.012(2)
_cell_length_c                   9.370(3)
_cell_measurement_reflns_used    2033
_cell_measurement_temperature    130(2)
_cell_measurement_theta_max      27.44
_cell_measurement_theta_min      2.32
_cell_volume                     439.0(2)
_computing_cell_refinement       'Bruker SMART'
_computing_data_collection       'Bruker SMART'
_computing_data_reduction        'Bruker SAINT'
_computing_molecular_graphics    'Bruker SHELXTL'
_computing_publication_material  'Bruker SHELXTL'
_computing_structure_refinement  'Bruker SHELXTL'
_computing_structure_solution    'Bruker SHELXTL'
_diffrn_ambient_temperature      130(2)
_diffrn_measured_fraction_theta_full 0.988
_diffrn_measured_fraction_theta_max 0.988
_diffrn_measurement_device_type  'CCD area detector'
_diffrn_measurement_method       'phi and omega scans'
_diffrn_radiation_monochromator  graphite
_diffrn_radiation_source         'fine-focus sealed tube'
_diffrn_radiation_type           MoK\a
_diffrn_radiation_wavelength     0.71073
_diffrn_reflns_av_R_equivalents  0.0296
_diffrn_reflns_av_sigmaI/netI    0.0248
_diffrn_reflns_limit_h_max       7
_diffrn_reflns_limit_h_min       -7
_diffrn_reflns_limit_k_max       8
_diffrn_reflns_limit_k_min       -9
_diffrn_reflns_limit_l_max       11
_diffrn_reflns_limit_l_min       -11
_diffrn_reflns_number            2307
_diffrn_reflns_theta_full        25.00
_diffrn_reflns_theta_max         25.00
_diffrn_reflns_theta_min         2.32
_exptl_absorpt_coefficient_mu    0.364
_exptl_absorpt_correction_T_max  1.00
_exptl_absorpt_correction_T_min  0.88
_exptl_absorpt_correction_type   multi-scan
_exptl_absorpt_process_details   SADABS
_exptl_crystal_colour            colourless
_exptl_crystal_density_diffrn    1.643
_exptl_crystal_density_method    'not measured'
_exptl_crystal_description       block
_exptl_crystal_F_000             224
_exptl_crystal_size_max          0.45
_exptl_crystal_size_mid          0.30
_exptl_crystal_size_min          0.20
_refine_diff_density_max         0.245
_refine_diff_density_min         -0.328
_refine_diff_density_rms         0.046
_refine_ls_extinction_coef       0.070(6)
_refine_ls_extinction_expression Fc^*^=kFc[1+0.001xFc^2^\l^3^/sin(2\q)]^-1/4^
_refine_ls_extinction_method     SHELXL
_refine_ls_goodness_of_fit_ref   1.067
_refine_ls_hydrogen_treatment    mixed
_refine_ls_matrix_type           full
_refine_ls_number_parameters     129
_refine_ls_number_reflns         1520
_refine_ls_number_restraints     0
_refine_ls_restrained_S_all      1.067
_refine_ls_R_factor_all          0.0301
_refine_ls_R_factor_gt           0.0289
_refine_ls_shift/su_max          0.000
_refine_ls_shift/su_mean         0.000
_refine_ls_structure_factor_coef Fsqd
_refine_ls_weighting_details
'calc w=1/[\s^2^(Fo^2^)+(0.0347P)^2^+0.2285P] where P=(Fo^2^+2Fc^2^)/3'
_refine_ls_weighting_scheme      calc
_refine_ls_wR_factor_gt          0.0762
_refine_ls_wR_factor_ref         0.0769
_reflns_number_gt                1441
_reflns_number_total             1520
_reflns_threshold_expression     >2sigma(I)
_cod_data_source_file            ic700687t-file003.cif
_cod_data_source_block           jmwsw30
_cod_depositor_comments
;
The following automatic conversions were performed:

'_symmetry_cell_setting' value 'Triclinic' changed to 'triclinic'
according to
/usr/data/users/saulius/automatic-downloads/retrospective/ACS/lib/dictionaries/cif_core.dic
dictionary named 'cif_core.dic' version 2.4.2 from
2011-04-26.

'_exptl_absorpt_correction_type' value 'multiscan'
changed to 'multi-scan' according to
/usr/data/users/saulius/automatic-downloads/retrospective/ACS/lib/dictionaries/cif_core.dic
dictionary named 'cif_core.dic' version 2.4.2 from 2011-04-26.

Automatic conversion script
Id: cif_fix_values 2281 2013-09-26 08:29:07Z andrius 
;
_cod_original_sg_symbol_H-M      'P-1   '
_cod_database_code               4339515
loop_
_symmetry_equiv_pos_as_xyz
'x, y, z'
'-x, -y, -z'
loop_
_atom_site_label
_atom_site_type_symbol
_atom_site_fract_x
_atom_site_fract_y
_atom_site_fract_z
_atom_site_U_iso_or_equiv
_atom_site_adp_type
_atom_site_occupancy
_atom_site_symmetry_multiplicity
_atom_site_calc_flag
_atom_site_refinement_flags
C1 C 0.6524(3) 0.2581(2) 0.22996(18) 0.0213(4) Uani 1 1 d .
C2 C 0.6794(3) 0.1319(2) 0.14073(18) 0.0209(4) Uani 1 1 d .
H2 H 0.6497 0.0212 0.1838 0.025 Uiso 1 1 calc R
C3 C 0.7519(3) 0.1744(2) -0.01497(18) 0.0202(4) Uani 1 1 d .
C4 C 0.7962(3) 0.3341(2) -0.08110(19) 0.0225(4) Uani 1 1 d .
H4 H 0.8458 0.3591 -0.1884 0.027 Uiso 1 1 calc R
C5 C 0.7665(3) 0.4564(2) 0.01344(19) 0.0230(4) Uani 1 1 d .
H5 H 0.7951 0.5675 -0.0295 0.028 Uiso 1 1 calc R
C6 C 0.6953(3) 0.4196(2) 0.17035(19) 0.0232(4) Uani 1 1 d .
H6 H 0.6766 0.5035 0.2351 0.028 Uiso 1 1 calc R
C7 C 0.1823(3) 0.1981(2) 0.4277(2) 0.0276(4) Uani 1 1 d .
H7A H 0.2340 0.0689 0.4555 0.041 Uiso 1 1 calc R
H7B H 0.2051 0.2231 0.3174 0.041 Uiso 1 1 calc R
H7C H 0.0230 0.2434 0.4796 0.041 Uiso 1 1 calc R
N1 N 0.7830(2) 0.04340(19) -0.11414(16) 0.0239(3) Uani 1 1 d .
O1 O 0.58731(19) 0.21361(15) 0.38928(12) 0.0249(3) Uani 1 1 d .
O2 O 0.2723(2) 0.48892(16) 0.43137(13) 0.0293(3) Uani 1 1 d .
O3 O 0.3332(2) 0.24559(17) 0.63635(13) 0.0315(3) Uani 1 1 d .
O4 O 0.7490(2) -0.10005(16) -0.05497(14) 0.0286(3) Uani 1 1 d .
O5 O 0.8444(3) 0.08227(19) -0.25141(14) 0.0408(4) Uani 1 1 d .
S1 S 0.33357(7) 0.30306(5) 0.48202(4) 0.02382(17) Uani 1 1 d .
loop_
_atom_site_aniso_label
_atom_site_aniso_U_11
_atom_site_aniso_U_22
_atom_site_aniso_U_33
_atom_site_aniso_U_23
_atom_site_aniso_U_13
_atom_site_aniso_U_12
C1 0.0187(8) 0.0220(8) 0.0201(8) -0.0016(6) -0.0056(6) -0.0022(6)
C2 0.0178(8) 0.0179(8) 0.0245(9) -0.0002(6) -0.0056(6) -0.0035(6)
C3 0.0164(8) 0.0194(8) 0.0237(8) -0.0042(6) -0.0057(6) -0.0026(6)
C4 0.0173(8) 0.0244(9) 0.0225(8) -0.0003(7) -0.0044(6) -0.0046(7)
C5 0.0186(8) 0.0191(8) 0.0298(9) 0.0003(7) -0.0059(7) -0.0060(6)
C6 0.0192(8) 0.0210(9) 0.0299(9) -0.0059(7) -0.0077(7) -0.0038(6)
C7 0.0299(10) 0.0258(9) 0.0260(9) -0.0045(7) -0.0066(7) -0.0070(7)
N1 0.0217(7) 0.0248(8) 0.0246(8) -0.0047(6) -0.0062(6) -0.0053(6)
O1 0.0287(7) 0.0228(6) 0.0192(6) -0.0012(5) -0.0070(5) -0.0028(5)
O2 0.0320(7) 0.0197(7) 0.0278(7) -0.0032(5) -0.0004(5) -0.0042(5)
O3 0.0464(8) 0.0296(7) 0.0187(6) -0.0020(5) -0.0056(5) -0.0152(6)
O4 0.0320(7) 0.0206(7) 0.0327(7) -0.0043(5) -0.0064(5) -0.0086(5)
O5 0.0640(10) 0.0412(8) 0.0204(7) -0.0042(6) -0.0065(6) -0.0238(7)
S1 0.0307(3) 0.0190(3) 0.0182(3) -0.00273(16) -0.00309(18) -0.00598(18)
loop_
_atom_type_symbol
_atom_type_description
_atom_type_scat_dispersion_real
_atom_type_scat_dispersion_imag
_atom_type_scat_source
C C 0.0033 0.0016 'International Tables Vol C Tables 4.2.6.8 and 6.1.1.4'
H H 0.0000 0.0000 'International Tables Vol C Tables 4.2.6.8 and 6.1.1.4'
N N 0.0061 0.0033 'International Tables Vol C Tables 4.2.6.8 and 6.1.1.4'
O O 0.0106 0.0060 'International Tables Vol C Tables 4.2.6.8 and 6.1.1.4'
S S 0.1246 0.1234 'International Tables Vol C Tables 4.2.6.8 and 6.1.1.4'
loop_
_geom_angle_atom_site_label_1
_geom_angle_atom_site_label_2
_geom_angle_atom_site_label_3
_geom_angle
C2 C1 C6 122.83(15)
C2 C1 O1 117.27(14)
C6 C1 O1 119.84(15)
C1 C2 C3 116.64(15)
C1 C2 H2 121.7
C3 C2 H2 121.7
C4 C3 C2 123.11(15)
C4 C3 N1 118.53(14)
C2 C3 N1 118.35(14)
C3 C4 C5 118.02(15)
C3 C4 H4 121.0
C5 C4 H4 121.0
C4 C5 C6 121.01(15)
C4 C5 H5 119.5
C6 C5 H5 119.5
C1 C6 C5 118.38(15)
C1 C6 H6 120.8
C5 C6 H6 120.8
S1 C7 H7A 109.5
S1 C7 H7B 109.5
H7A C7 H7B 109.5
S1 C7 H7C 109.5
H7A C7 H7C 109.5
H7B C7 H7C 109.5
O5 N1 O4 123.51(14)
O5 N1 C3 118.13(14)
O4 N1 C3 118.35(13)
C1 O1 S1 118.42(10)
O3 S1 O2 119.57(8)
O3 S1 O1 103.44(7)
O2 S1 O1 108.84(7)
O3 S1 C7 110.55(8)
O2 S1 C7 109.90(8)
O1 S1 C7 103.07(8)
loop_
_geom_bond_atom_site_label_1
_geom_bond_atom_site_label_2
_geom_bond_distance
C1 C2 1.375(2)
C1 C6 1.380(2)
C1 O1 1.4138(19)
C2 C3 1.384(2)
C2 H2 0.9500
C3 C4 1.381(2)
C3 N1 1.466(2)
C4 C5 1.381(2)
C4 H4 0.9500
C5 C6 1.388(2)
C5 H5 0.9500
C6 H6 0.9500
C7 S1 1.7479(18)
C7 H7A 0.9800
C7 H7B 0.9800
C7 H7C 0.9800
N1 O5 1.2208(19)
N1 O4 1.2256(18)
O1 S1 1.6075(13)
O2 S1 1.4229(13)
O3 S1 1.4211(13)
loop_
_geom_torsion_atom_site_label_1
_geom_torsion_atom_site_label_2
_geom_torsion_atom_site_label_3
_geom_torsion_atom_site_label_4
_geom_torsion
C6 C1 C2 C3 -0.3(2)
O1 C1 C2 C3 -177.45(13)
C1 C2 C3 C4 -0.1(2)
C1 C2 C3 N1 179.95(14)
C2 C3 C4 C5 0.0(2)
N1 C3 C4 C5 -179.99(13)
C3 C4 C5 C6 0.4(2)
C2 C1 C6 C5 0.7(2)
O1 C1 C6 C5 177.77(13)
C4 C5 C6 C1 -0.7(2)
C4 C3 N1 O5 -0.8(2)
C2 C3 N1 O5 179.13(15)
C4 C3 N1 O4 178.15(14)
C2 C3 N1 O4 -1.9(2)
C2 C1 O1 S1 -105.21(14)
C6 C1 O1 S1 77.55(17)
C1 O1 S1 O3 -174.01(11)
C1 O1 S1 O2 -45.86(13)
C1 O1 S1 C7 70.78(13)
