#------------------------------------------------------------------------------
#$Date: 2016-03-23 23:34:53 +0200 (Wed, 23 Mar 2016) $
#$Revision: 179507 $
#$URL: svn://www.crystallography.net/cod/cif/4/34/04/4340458.cif $
#------------------------------------------------------------------------------
#
# This file is available in the Crystallography Open Database (COD),
# http://www.crystallography.net/
#
# All data on this site have been placed in the public domain by the
# contributors.
#
data_4340458
loop_
_publ_author_name
'Kole\<sa-Dobravc, Tanja'
'Lodyga-Chruscinska, Elzbieta'
'Symonowicz, Marzena'
'Sanna, Daniele'
'Meden, Anton'
'Perdih, Franc'
'Garribba, Eugenio'
_publ_section_title
;
 Synthesis and Characterization of V(IV)O Complexes of Picolinate and
 Pyrazine Derivatives. Behavior in the Solid State and Aqueous Solution
 and Biotransformation in the Presence of Blood Plasma Proteins.
;
_journal_issue                   15
_journal_name_full               'Inorganic chemistry'
_journal_page_first              7960
_journal_paper_doi               10.1021/ic500766t
_journal_volume                  53
_journal_year                    2014
_chemical_formula_moiety         'C10 H8 N4 O6 V'
_chemical_formula_sum            'C10 H8 N4 O6 V'
_chemical_formula_weight         331.14
_chemical_name_systematic
;
\D-aqua-bis(pyrazine-2-carboxylato-N,O)-oxidovanadium(IV)
;
_space_group_IT_number           4
_symmetry_cell_setting           monoclinic
_symmetry_space_group_name_Hall  'P 2yb'
_symmetry_space_group_name_H-M   'P 1 21 1'
_atom_sites_solution_hydrogens   geom
_atom_sites_solution_primary     direct
_atom_sites_solution_secondary   difmap
_audit_creation_method           SHELXL-97
_cell_angle_alpha                90.00
_cell_angle_beta                 105.377(2)
_cell_angle_gamma                90.00
_cell_formula_units_Z            2
_cell_length_a                   5.96600(10)
_cell_length_b                   13.0237(2)
_cell_length_c                   8.51240(10)
_cell_measurement_reflns_used    5253
_cell_measurement_temperature    293(2)
_cell_measurement_theta_max      74.6030
_cell_measurement_theta_min      5.3630
_cell_volume                     637.731(17)
_computing_cell_refinement       'CrysAlis PRO (Agilent, 2011)'
_computing_data_collection       'CrysAlis PRO (Agilent, 2011)'
_computing_data_reduction        'CrysAlis PRO (Agilent, 2011)'
_computing_molecular_graphics
'ORTEP-3 for Windows version 2.02 (Farrugia, 2008)'
_computing_publication_material  'WinGX publication routines (Farrugia, 1999)'
_computing_structure_refinement  'SHELXL-97 (Sheldrick, 2008)'
_computing_structure_solution    'SHELXS-97 (Sheldrick, 2008)'
_diffrn_ambient_temperature      293(2)
_diffrn_detector_area_resol_mean 10.4933
_diffrn_measured_fraction_theta_full 0.997
_diffrn_measured_fraction_theta_max 0.997
_diffrn_measurement_device_type  'SuperNova, Dual, Cu at zero, Atlas'
_diffrn_measurement_method       '\w scans'
_diffrn_radiation_monochromator  Mirror
_diffrn_radiation_source         'SuperNova (Cu) X-ray Source'
_diffrn_radiation_type           CuK\a
_diffrn_radiation_wavelength     1.54184
_diffrn_reflns_av_R_equivalents  0.0337
_diffrn_reflns_av_sigmaI/netI    0.0317
_diffrn_reflns_limit_h_max       7
_diffrn_reflns_limit_h_min       -7
_diffrn_reflns_limit_k_max       16
_diffrn_reflns_limit_k_min       -16
_diffrn_reflns_limit_l_max       8
_diffrn_reflns_limit_l_min       -10
_diffrn_reflns_number            5923
_diffrn_reflns_theta_full        74.80
_diffrn_reflns_theta_max         74.80
_diffrn_reflns_theta_min         5.39
_exptl_absorpt_coefficient_mu    6.874
_exptl_absorpt_correction_T_max  0.8203
_exptl_absorpt_correction_T_min  0.2783
_exptl_absorpt_correction_type   multi-scan
_exptl_absorpt_process_details   '(CrysAlis PRO; Agilent, 2011)'
_exptl_crystal_colour            'dark yellow'
_exptl_crystal_density_diffrn    1.724
_exptl_crystal_density_method    'not measured'
_exptl_crystal_description       plate
_exptl_crystal_F_000             334
_exptl_crystal_size_max          0.25
_exptl_crystal_size_mid          0.10
_exptl_crystal_size_min          0.03
_refine_diff_density_max         0.287
_refine_diff_density_min         -0.287
_refine_diff_density_rms         0.056
_refine_ls_abs_structure_details 'Flack H D (1983), Acta Cryst. A39, 876-881'
_refine_ls_abs_structure_Flack   -0.001(4)
_refine_ls_extinction_coef       0.0230(13)
_refine_ls_extinction_expression Fc^*^=kFc[1+0.001xFc^2^\l^3^/sin(2\q)]^-1/4^
_refine_ls_extinction_method     SHELXL
_refine_ls_goodness_of_fit_ref   1.044
_refine_ls_hydrogen_treatment    mixed
_refine_ls_matrix_type           full
_refine_ls_number_parameters     197
_refine_ls_number_reflns         2608
_refine_ls_number_restraints     3
_refine_ls_restrained_S_all      1.043
_refine_ls_R_factor_all          0.0295
_refine_ls_R_factor_gt           0.0294
_refine_ls_shift/su_max          0.000
_refine_ls_shift/su_mean         0.000
_refine_ls_structure_factor_coef Fsqd
_refine_ls_weighting_details
'calc w=1/[\s^2^(Fo^2^)+(0.0569P)^2^+0.0232P] where P=(Fo^2^+2Fc^2^)/3'
_refine_ls_weighting_scheme      calc
_refine_ls_wR_factor_gt          0.0768
_refine_ls_wR_factor_ref         0.0769
_reflns_number_gt                2591
_reflns_number_total             2608
_reflns_threshold_expression     >2\s(I)
_cod_data_source_file            ic500766t_si_002.cif
_cod_data_source_block           5-delta
_cod_depositor_comments
'Adding full bibliography for 4340454--4340458.cif.'
_cod_original_cell_volume        637.731(16)
_cod_original_sg_symbol_H-M      'P 21'
_cod_database_code               4340458
loop_
_symmetry_equiv_pos_as_xyz
'x, y, z'
'-x, y+1/2, -z'
loop_
_atom_site_label
_atom_site_type_symbol
_atom_site_fract_x
_atom_site_fract_y
_atom_site_fract_z
_atom_site_U_iso_or_equiv
_atom_site_adp_type
_atom_site_occupancy
_atom_site_symmetry_multiplicity
_atom_site_calc_flag
_atom_site_refinement_flags
V1 V 0.53387(5) 0.59594(2) 0.88405(3) 0.02485(12) Uani 1 1 d .
N1 N 0.8186(3) 0.66694(15) 1.0521(2) 0.0318(4) Uani 1 1 d .
N3 N 1.2163(5) 0.7249(2) 1.2855(3) 0.0531(6) Uani 1 1 d .
N2 N 0.5181(3) 0.71875(12) 0.71399(19) 0.0256(3) Uani 1 1 d .
N4 N 0.5568(3) 0.87829(14) 0.5072(2) 0.0340(4) Uani 1 1 d .
O1 O 0.3327(3) 0.64517(13) 0.9499(2) 0.0401(4) Uani 1 1 d .
O2 O 0.6700(3) 0.47699(12) 1.02109(19) 0.0350(3) Uani 1 1 d .
O3 O 1.0010(3) 0.41825(13) 1.1871(3) 0.0460(4) Uani 1 1 d .
O4 O 0.7849(3) 0.55848(12) 0.75299(19) 0.0305(3) Uani 1 1 d .
O5 O 0.9545(3) 0.60703(17) 0.5603(2) 0.0430(4) Uani 1 1 d .
O6 O 0.3229(3) 0.50165(13) 0.7181(2) 0.0354(3) Uani 1 1 d D
C1 C 0.8763(4) 0.48766(16) 1.1181(3) 0.0322(4) Uani 1 1 d .
C2 C 0.9566(3) 0.5977(2) 1.1449(2) 0.0315(4) Uani 1 1 d .
C3 C 1.1546(5) 0.6266(2) 1.2614(3) 0.0447(6) Uani 1 1 d .
H3 H 1.2473 0.5764 1.3246 0.054 Uiso 1 1 calc R
C4 C 1.0792(6) 0.7923(2) 1.1921(4) 0.0520(7) Uani 1 1 d .
H4 H 1.1187 0.8614 1.2057 0.062 Uiso 1 1 calc R
C5 C 0.8789(5) 0.76550(19) 1.0745(3) 0.0433(6) Uani 1 1 d .
H5 H 0.7869 0.8160 1.0115 0.052 Uiso 1 1 calc R
C6 C 0.8187(3) 0.61936(14) 0.6465(2) 0.0281(4) Uani 1 1 d .
C7 C 0.6722(3) 0.71526(15) 0.6240(2) 0.0260(4) Uani 1 1 d .
C8 C 0.6905(4) 0.79496(17) 0.5217(3) 0.0329(4) Uani 1 1 d .
H8 H 0.7990 0.7905 0.4612 0.040 Uiso 1 1 calc R
C9 C 0.4028(4) 0.88056(17) 0.5937(3) 0.0369(5) Uani 1 1 d .
H9 H 0.3056 0.9373 0.5845 0.044 Uiso 1 1 calc R
C10 C 0.3805(4) 0.80118(17) 0.6982(3) 0.0336(4) Uani 1 1 d .
H10 H 0.2698 0.8056 0.7570 0.040 Uiso 1 1 calc R
H6B H 0.378(6) 0.470(2) 0.655(3) 0.050 Uiso 1 1 d D
H6A H 0.210(4) 0.531(2) 0.659(4) 0.050 Uiso 1 1 d D
loop_
_atom_site_aniso_label
_atom_site_aniso_U_11
_atom_site_aniso_U_22
_atom_site_aniso_U_33
_atom_site_aniso_U_23
_atom_site_aniso_U_13
_atom_site_aniso_U_12
V1 0.02757(17) 0.02246(17) 0.02624(17) 0.00006(13) 0.01014(11) -0.00074(13)
N1 0.0405(10) 0.0281(9) 0.0274(8) -0.0002(7) 0.0101(7) -0.0087(8)
N3 0.0592(14) 0.0521(13) 0.0415(12) -0.0043(10) 0.0022(10) -0.0210(11)
N2 0.0277(8) 0.0233(8) 0.0271(7) 0.0005(6) 0.0094(6) 0.0019(6)
N4 0.0343(9) 0.0289(9) 0.0351(9) 0.0080(7) 0.0030(7) -0.0039(7)
O1 0.0444(9) 0.0399(8) 0.0436(9) -0.0028(7) 0.0252(7) 0.0004(7)
O2 0.0377(8) 0.0268(7) 0.0377(8) 0.0068(6) 0.0052(6) -0.0058(6)
O3 0.0418(9) 0.0368(9) 0.0556(11) 0.0150(8) 0.0064(8) 0.0019(7)
O4 0.0297(7) 0.0288(6) 0.0359(7) 0.0049(6) 0.0138(6) 0.0062(6)
O5 0.0379(7) 0.0546(10) 0.0434(8) 0.0094(9) 0.0227(6) 0.0164(8)
O6 0.0284(7) 0.0349(8) 0.0411(8) -0.0116(7) 0.0063(6) 0.0019(6)
C1 0.0372(11) 0.0299(10) 0.0301(9) 0.0054(8) 0.0103(8) -0.0035(8)
C2 0.0368(9) 0.0332(9) 0.0260(8) 0.0000(11) 0.0108(7) -0.0060(9)
C3 0.0473(13) 0.0500(15) 0.0332(11) 0.0008(9) 0.0043(10) -0.0087(10)
C4 0.0705(19) 0.0404(14) 0.0421(13) -0.0070(10) 0.0093(13) -0.0261(13)
C5 0.0589(16) 0.0293(11) 0.0397(12) -0.0010(9) 0.0094(11) -0.0095(10)
C6 0.0239(8) 0.0300(11) 0.0302(8) 0.0005(7) 0.0069(7) 0.0028(7)
C7 0.0236(8) 0.0274(9) 0.0269(8) -0.0014(7) 0.0065(7) 0.0001(7)
C8 0.0297(10) 0.0370(11) 0.0325(10) 0.0069(8) 0.0089(8) -0.0028(8)
C9 0.0392(11) 0.0250(10) 0.0437(11) 0.0036(9) 0.0060(9) 0.0045(9)
C10 0.0353(10) 0.0276(10) 0.0402(11) 0.0010(8) 0.0142(8) 0.0063(8)
loop_
_atom_type_symbol
_atom_type_description
_atom_type_scat_dispersion_real
_atom_type_scat_dispersion_imag
_atom_type_scat_source
C C 0.0181 0.0091 'International Tables Vol C Tables 4.2.6.8 and 6.1.1.4'
H H 0.0000 0.0000 'International Tables Vol C Tables 4.2.6.8 and 6.1.1.4'
N N 0.0311 0.0180 'International Tables Vol C Tables 4.2.6.8 and 6.1.1.4'
O O 0.0492 0.0322 'International Tables Vol C Tables 4.2.6.8 and 6.1.1.4'
V V 0.0687 2.1097 'International Tables Vol C Tables 4.2.6.8 and 6.1.1.4'
loop_
_geom_angle_atom_site_label_1
_geom_angle_atom_site_label_2
_geom_angle_atom_site_label_3
_geom_angle
O1 V1 O2 109.78(8)
O1 V1 O6 95.86(8)
O2 V1 O6 91.06(7)
O1 V1 N1 97.54(9)
O2 V1 N1 79.26(7)
O6 V1 N1 165.52(7)
O1 V1 N2 92.02(8)
O2 V1 N2 156.93(7)
O6 V1 N2 94.20(7)
N1 V1 N2 90.80(7)
O1 V1 O4 166.27(8)
O2 V1 O4 83.95(6)
O6 V1 O4 83.72(6)
N1 V1 O4 84.56(7)
N2 V1 O4 74.35(6)
C2 N1 C5 117.8(2)
C2 N1 V1 111.34(16)
C5 N1 V1 130.83(18)
C4 N3 C3 116.5(2)
C10 N2 C7 117.67(17)
C10 N2 V1 125.69(14)
C7 N2 V1 116.47(13)
C9 N4 C8 116.99(19)
C1 O2 V1 117.63(13)
C6 O4 V1 119.83(13)
V1 O6 H6B 119(3)
V1 O6 H6A 114(2)
H6B O6 H6A 104(3)
O3 C1 O2 125.7(2)
O3 C1 C2 120.2(2)
O2 C1 C2 114.12(19)
N1 C2 C3 121.3(3)
N1 C2 C1 115.58(18)
C3 C2 C1 123.1(2)
N3 C3 C2 121.5(3)
N3 C3 H3 119.2
C2 C3 H3 119.2
N3 C4 C5 123.3(3)
N3 C4 H4 118.3
C5 C4 H4 118.3
N1 C5 C4 119.6(3)
N1 C5 H5 120.2
C4 C5 H5 120.2
O5 C6 O4 126.77(19)
O5 C6 C7 118.70(18)
O4 C6 C7 114.52(18)
N2 C7 C8 121.01(18)
N2 C7 C6 114.61(17)
C8 C7 C6 124.38(18)
N4 C8 C7 121.78(19)
N4 C8 H8 119.1
C7 C8 H8 119.1
N4 C9 C10 122.5(2)
N4 C9 H9 118.7
C10 C9 H9 118.7
N2 C10 C9 120.0(2)
N2 C10 H10 120.0
C9 C10 H10 120.0
loop_
_geom_bond_atom_site_label_1
_geom_bond_atom_site_label_2
_geom_bond_distance
V1 O1 1.5884(16)
V1 O2 1.9794(15)
V1 O6 2.0359(16)
V1 N1 2.1206(19)
V1 N2 2.1426(16)
V1 O4 2.1475(14)
N1 C2 1.331(3)
N1 C5 1.333(3)
N3 C4 1.313(4)
N3 C3 1.333(4)
N2 C10 1.336(3)
N2 C7 1.345(2)
N4 C9 1.321(3)
N4 C8 1.333(3)
O2 C1 1.295(3)
O3 C1 1.218(3)
O4 C6 1.260(3)
O5 C6 1.239(2)
O6 H6B 0.815(10)
O6 H6A 0.821(10)
C1 C2 1.509(3)
C2 C3 1.378(3)
C3 H3 0.9300
C4 C5 1.385(4)
C4 H4 0.9300
C5 H5 0.9300
C6 C7 1.507(3)
C7 C8 1.377(3)
C8 H8 0.9300
C9 C10 1.393(3)
C9 H9 0.9300
C10 H10 0.9300
loop_
_geom_hbond_atom_site_label_D
_geom_hbond_atom_site_label_H
_geom_hbond_atom_site_label_A
_geom_hbond_distance_DH
_geom_hbond_distance_HA
_geom_hbond_distance_DA
_geom_hbond_angle_DHA
_geom_hbond_site_symmetry_A
O6 H6B N4 0.815(10) 1.939(13) 2.740(2) 167(4) 2_646
O6 H6A O5 0.821(10) 1.824(12) 2.637(2) 170(4) 1_455
loop_
_geom_torsion_atom_site_label_1
_geom_torsion_atom_site_label_2
_geom_torsion_atom_site_label_3
_geom_torsion_atom_site_label_4
_geom_torsion
O1 V1 N1 C2 117.25(15)
O2 V1 N1 C2 8.44(13)
O6 V1 N1 C2 -40.3(3)
N2 V1 N1 C2 -150.61(14)
O4 V1 N1 C2 -76.41(14)
O1 V1 N1 C5 -64.4(2)
O2 V1 N1 C5 -173.2(2)
O6 V1 N1 C5 138.0(3)
N2 V1 N1 C5 27.8(2)
O4 V1 N1 C5 102.0(2)
O1 V1 N2 C10 2.61(18)
O2 V1 N2 C10 -158.68(18)
O6 V1 N2 C10 98.64(18)
N1 V1 N2 C10 -94.96(19)
O4 V1 N2 C10 -179.08(19)
O1 V1 N2 C7 177.69(15)
O2 V1 N2 C7 16.4(2)
O6 V1 N2 C7 -86.28(14)
N1 V1 N2 C7 80.12(14)
O4 V1 N2 C7 -4.00(13)
O1 V1 O2 C1 -107.76(17)
O6 V1 O2 C1 155.62(17)
N1 V1 O2 C1 -13.53(16)
N2 V1 O2 C1 52.3(3)
O4 V1 O2 C1 72.05(16)
O1 V1 O4 C6 9.1(4)
O2 V1 O4 C6 -170.12(16)
O6 V1 O4 C6 98.14(16)
N1 V1 O4 C6 -90.38(16)
N2 V1 O4 C6 1.98(15)
V1 O2 C1 O3 -165.7(2)
V1 O2 C1 C2 15.5(2)
C5 N1 C2 C3 0.5(3)
V1 N1 C2 C3 179.09(17)
C5 N1 C2 C1 178.2(2)
V1 N1 C2 C1 -3.2(2)
O3 C1 C2 N1 173.6(2)
O2 C1 C2 N1 -7.5(3)
O3 C1 C2 C3 -8.7(3)
O2 C1 C2 C3 170.1(2)
C4 N3 C3 C2 -0.3(4)
N1 C2 C3 N3 -0.2(4)
C1 C2 C3 N3 -177.7(2)
C3 N3 C4 C5 0.5(5)
C2 N1 C5 C4 -0.3(4)
V1 N1 C5 C4 -178.6(2)
N3 C4 C5 N1 -0.2(5)
V1 O4 C6 O5 -178.82(18)
V1 O4 C6 C7 0.2(2)
C10 N2 C7 C8 1.3(3)
V1 N2 C7 C8 -174.17(16)
C10 N2 C7 C6 -179.14(18)
V1 N2 C7 C6 5.4(2)
O5 C6 C7 N2 175.4(2)
O4 C6 C7 N2 -3.7(2)
O5 C6 C7 C8 -5.1(3)
O4 C6 C7 C8 175.9(2)
C9 N4 C8 C7 -1.0(3)
N2 C7 C8 N4 -0.2(3)
C6 C7 C8 N4 -179.70(18)
C8 N4 C9 C10 1.0(3)
C7 N2 C10 C9 -1.3(3)
V1 N2 C10 C9 173.77(17)
N4 C9 C10 N2 0.1(4)
