#------------------------------------------------------------------------------
#$Date: 2016-03-23 23:36:17 +0200 (Wed, 23 Mar 2016) $
#$Revision: 179508 $
#$URL: svn://www.crystallography.net/cod/cif/4/34/05/4340596.cif $
#------------------------------------------------------------------------------
#
# This file is available in the Crystallography Open Database (COD),
# http://www.crystallography.net/
#
# All data on this site have been placed in the public domain by the
# contributors.
#
data_4340596
loop_
_publ_author_name
'Garc\'ia-Saiz, Abel'
'de Pedro, Imanol'
'Migowski, Pedro'
'Vallcorba, Oriol'
'Junquera, Javier'
'Blanco, Jes\'us Angel'
'Fabelo, Oscar'
'Sheptyakov, Denis'
'Waerenborgh, Joao Carlos'
'Fern\'andez-D\'iaz, Mar\'ia Teresa'
'Rius, Jordi'
'Dupont, Jairton'
'Gonzalez, Jes\'us Antonio'
'Fern\'andez, Jes\'us Rodr\'iguez'
_publ_section_title
;
 Anion-\p and Halide-Halide Nonbonding Interactions in a New Ionic Liquid
 Based on Imidazolium Cation with Three-Dimensional Magnetic Ordering in
 the Solid State.
;
_journal_issue                   16
_journal_name_full               'Inorganic chemistry'
_journal_page_first              8384
_journal_page_last               8396
_journal_paper_doi               10.1021/ic500882z
_journal_volume                  53
_journal_year                    2014
_chemical_formula_moiety         'C5 H9 N2 1+, Br4 Fe 1-'
_chemical_formula_sum            'C5 H9 Br4 Fe N2'
_chemical_formula_weight         472.59
_chemical_name_systematic        '1,3-dimethylimidazolium Tetrabromoferrate'
_space_group_crystal_system      monoclinic
_space_group_IT_number           4
_space_group_name_H-M_alt        'P 1 21 1'
_symmetry_Int_Tables_number      4
_symmetry_space_group_name_Hall  'P 2yb'
_symmetry_space_group_name_H-M   'P 1 21 1'
_cell_angle_alpha                90.0000
_cell_angle_beta                 90.80(2)
_cell_angle_gamma                90.0000
_cell_formula_units_Z            2
_cell_length_a                   6.745(3)
_cell_length_b                   14.364(3)
_cell_length_c                   6.759(3)
_cell_measurement_temperature    300
_cell_volume                     654.8(4)
_computing_data_reduction        'DAJUST (Vallcorba et al., 2012a)'
_computing_publication_material  'PLATON (Spek, 2003)'
_computing_structure_refinement  'RIBOLS (Rius, 2012)'
_diffrn_ambient_temperature      300
_diffrn_radiation_wavelength     1.88570
_diffrn_source                   neutron
_exptl_crystal_density_diffrn    2.397
_pd_meas_2theta_range_inc        0.05
_pd_meas_2theta_range_max        164.70
_pd_meas_2theta_range_min        3.75
_pd_meas_number_of_points        3220
_pd_proc_2theta_range_inc        0.05
_pd_proc_2theta_range_max        80.0
_pd_proc_2theta_range_min        12.0
_pd_proc_ls_background_function
'linear extrapolation of automatically determined points'
_pd_proc_ls_profile_function     Pseudo-Voigt
_pd_proc_ls_prof_R_factor        0.008
_pd_proc_ls_prof_wR_expected     0.008
_pd_proc_ls_prof_wR_factor       0.011
_pd_proc_number_of_points        1360
_pd_spec_mounting                capillary
_pd_spec_mount_mode              transmission
_refine_ls_goodness_of_fit_all   1.291
_refine_ls_hydrogen_treatment    refxyz
_refine_ls_matrix_type           full
_refine_ls_number_parameters     71
_refine_ls_number_reflns         240
_refine_ls_number_restraints     63
_refine_ls_R_I_factor            0.008
_refine_ls_shift/su_max          0.016
_refine_ls_weighting_details     1/Yobs
_refine_ls_weighting_scheme      calc
_cod_data_source_file            ic500882z_si_001.cif
_cod_data_source_block           diminfeBr4_300K_neut_ribols
_cod_depositor_comments
'Adding full bibliography for 4340596--4340597.cif.'
_cod_database_code               4340596
loop_
_symmetry_equiv_pos_as_xyz
+X,+Y,+Z
-X,+Y+1/2,-Z
loop_
_atom_site_label
_atom_site_type_symbol
_atom_site_fract_x
_atom_site_fract_y
_atom_site_fract_z
_atom_site_occupancy
_atom_site_thermal_displace_type
_atom_site_U_iso_or_equiv
Fe FE 0.266(4) 0.00008 0.783(3) 1.0000 Uiso 0.040(2)
Br1 BR 0.190(7) 0.010(5) 0.437(3) 1.0000 Uiso 0.040(2)
Br2 BR 0.095(9) -0.138(3) 0.911(3) 1.0000 Uiso 0.040(2)
Br3 BR 0.614(6) 0.026(4) 0.842(3) 1.0000 Uiso 0.040(2)
Br4 BR 0.105(9) 0.134(4) 0.941(3) 1.0000 Uiso 0.040(2)
N1 N 0.612(4) 0.202(2) 0.444(3) 1.0000 Uiso 0.040(2)
C2 C 0.569(5) 0.260(3) 0.595(3) 1.0000 Uiso 0.040(2)
H2 H 0.676(8) 0.281(4) 0.708(3) 1.0000 Uiso 0.040(2)
N3 N 0.385(4) 0.295(2) 0.568(3) 1.0000 Uiso 0.040(2)
C4 C 0.305(5) 0.256(3) 0.397(3) 1.0000 Uiso 0.040(2)
H4 H 0.165(5) 0.282(3) 0.338(3) 1.0000 Uiso 0.040(2)
C5 C 0.451(5) 0.202(3) 0.314(3) 1.0000 Uiso 0.040(2)
H5 H 0.454(10) 0.153(3) 0.191(3) 1.0000 Uiso 0.040(2)
C1' C 0.795(5) 0.152(3) 0.391(3) 1.0000 Uiso 0.040(2)
H1A' H 0.754(11) 0.080(3) 0.423(3) 1.0000 Uiso 0.040(2)
H1B' H 0.802(11) 0.166(5) 0.231(3) 1.0000 Uiso 0.040(2)
H1C' H 0.928(6) 0.179(6) 0.467(3) 1.0000 Uiso 0.040(2)
C1" C 0.292(6) 0.359(3) 0.712(3) 1.0000 Uiso 0.040(2)
H1A" H 0.392(10) 0.419(3) 0.692(3) 1.0000 Uiso 0.040(2)
H1B" H 0.137(7) 0.379(6) 0.688(3) 1.0000 Uiso 0.040(2)
H1C" H 0.307(14) 0.327(5) 0.858(3) 1.0000 Uiso 0.040(2)
loop_
_geom_angle_atom_site_label_1
_geom_angle_atom_site_label_2
_geom_angle_atom_site_label_3
_geom_angle
_geom_angle_publ_flag
Br2 Fe Br4 105.4(19) nos
Br3 Fe Br4 104.1(19) nos
Br1 Fe Br2 107.3(18) nos
Br1 Fe Br3 110.4(16) nos
Br1 Fe Br4 106.7(19) nos
Br2 Fe Br3 121.9(19) nos
C1' N1 C5 120(2) nos
C2 N1 C5 108(3) nos
C1' N1 C2 132(3) nos
C1" N3 C4 129(3) nos
C1" N3 C2 123(2) nos
C2 N3 C4 108(3) nos
N1 C2 N3 110(2) nos
N3 C4 C5 107(3) nos
N1 C5 C4 107(2) nos
N1 C1' H1C' 113(4) no
N1 C1' H1A' 101(4) no
N1 C1' H1B' 101(5) no
H1A' C1' H1C' 117(6) no
H1B' C1' H1C' 110(5) no
H1A' C1' H1B' 112(5) no
H1A" C1" H1B" 111(6) no
H1A" C1" H1C" 113(5) no
N3 C1" H1A" 98(3) no
N3 C1" H1B" 119(4) no
N3 C1" H1C" 107(5) no
H1B" C1" H1C" 109(6) no
N3 C2 H2 126(4) no
N1 C2 H2 124(4) no
N3 C4 H4 120(4) no
C5 C4 H4 132(3) no
C4 C5 H5 134(5) no
N1 C5 H5 117(5) no
loop_
_geom_bond_atom_site_label_1
_geom_bond_atom_site_label_2
_geom_bond_distance
_geom_bond_publ_flag
Br1 Fe 2.39(3) no
Br2 Fe 2.46(5) no
Br3 Fe 2.40(5) no
Br4 Fe 2.46(6) no
N1 C1' 1.48(4) no
N1 C2 1.35(4) no
N1 C5 1.39(4) no
N3 C4 1.39(4) no
N3 C1" 1.48(4) no
N3 C2 1.35(4) no
C4 C5 1.38(5) no
C1' H1A' 1.09(6) no
C1' H1B' 1.10(3) no
C1' H1C' 1.10(6) no
C1" H1A" 1.10(7) no
C1" H1B" 1.09(7) no
C1" H1C" 1.09(4) no
C2 H2 1.09(5) no
C4 H4 1.09(5) no
C5 H5 1.09(5) no
loop_
_geom_hbond_atom_site_label_D
_geom_hbond_atom_site_label_H
_geom_hbond_atom_site_label_A
_geom_hbond_distance_DH
_geom_hbond_distance_HA
_geom_hbond_distance_DA
_geom_hbond_angle_DHA
_geom_hbond_site_symmetry_A
_geom_hbond_publ_flag
C1' H1B' Br4 1.10(3) 2.89(7) 3.72(5) 133(5) 1_654 no
C4 H4 Br2 1.09(5) 2.67(5) 3.71(6) 160(3) 2_556 no
C5 H5 Br4 1.09(5) 2.89(8) 3.55(5) 119(5) 1_554 no
loop_
_geom_torsion_atom_site_label_1
_geom_torsion_atom_site_label_2
_geom_torsion_atom_site_label_3
_geom_torsion_atom_site_label_4
_geom_torsion
_geom_torsion_publ_flag
C1' N1 C2 N3 174(3) no
C5 N1 C2 N3 2(4) no
C1' N1 C5 C4 -178(3) no
C2 N1 C5 C4 -4(4) no
C1" N3 C2 N1 178(3) no
C4 N3 C2 N1 2(4) no
C1" N3 C4 C5 180(3) no
C2 N3 C4 C5 -4(4) no
N3 C4 C5 N1 5(4) no
