#------------------------------------------------------------------------------
#$Date: 2016-03-23 23:39:14 +0200 (Wed, 23 Mar 2016) $
#$Revision: 179510 $
#$URL: svn://www.crystallography.net/cod/cif/4/34/07/4340715.cif $
#------------------------------------------------------------------------------
#
# This file is available in the Crystallography Open Database (COD),
# http://www.crystallography.net/
#
# All data on this site have been placed in the public domain by the
# contributors.
#
data_4340715
loop_
_publ_author_name
'Le Gal, Yann'
'Roisnel, Thierry'
'Auban-Senzier, Pascale'
'Guizouarn, Thierry'
'Lorcy, Dominique'
_publ_section_title
;
 Hydrogen-bonding interactions in a single-component molecular conductor:
 a hydroxyethyl-substituted radical gold dithiolene complex.
;
_journal_issue                   16
_journal_name_full               'Inorganic chemistry'
_journal_page_first              8755
_journal_page_last               8761
_journal_paper_doi               10.1021/ic501437g
_journal_volume                  53
_journal_year                    2014
_chemical_compound_source        'synthesis as described'
_chemical_formula_moiety         'C10 H10 Au N2 O2 S8'
_chemical_formula_sum            'C10 H10 Au N2 O2 S8'
_chemical_formula_weight         643.65
_chemical_name_systematic
;
 ?
;
_space_group_IT_number           14
_symmetry_cell_setting           monoclinic
_symmetry_Int_Tables_number      14
_symmetry_space_group_name_Hall  '-P 2yab'
_symmetry_space_group_name_H-M   'P 1 21/a 1'
_atom_sites_solution_hydrogens   geom
_atom_sites_solution_primary     direct
_atom_sites_solution_secondary   difmap
_audit_conform_dict_location     ftp://ftp.iucr.org/pub/cif_core.dic
_audit_conform_dict_name         cif_core.dic
_audit_conform_dict_version      2.4
_audit_creation_date             2013-01-10T09:50:33-00:00
_audit_creation_method           'WinGX routine CIF_UPDATE'
_cell_angle_alpha                90
_cell_angle_beta                 93.286(3)
_cell_angle_gamma                90
_cell_formula_units_Z            2
_cell_length_a                   14.2789(9)
_cell_length_b                   4.1546(3)
_cell_length_c                   14.3699(8)
_cell_measurement_reflns_used    3672
_cell_measurement_temperature    150(2)
_cell_measurement_theta_max      26.87
_cell_measurement_theta_min      2.84
_cell_measurement_wavelength     0.71073
_cell_volume                     851.07(9)
_computing_cell_refinement       'Bruker APEX2 (Bruker, 2006)'
_computing_data_collection       'Bruker APEX2 (Bruker, 2006)'
_computing_data_reduction        'Bruker APEX2 (Bruker, 2006)'
_computing_molecular_graphics    'Ortep-3 for Windows (Farrugia, 1997)'
_computing_publication_material
;
           WinGX publication routines (Farrugia, 1999),
           CRYSCAL (T. Roisnel, local program)
;
_computing_structure_refinement  'SHELXL-97 (Sheldrick, 1997)'
_computing_structure_solution    'SIR97 (Altomare et al., 1999)'
_diffrn_ambient_temperature      150(2)
_diffrn_detector                 'CCD plate'
_diffrn_measured_fraction_theta_full 0.998
_diffrn_measured_fraction_theta_max 0.998
_diffrn_measurement_device_type  'APEXII, Bruker-AXS'
_diffrn_measurement_method       'CCD rotation images, thin slices'
_diffrn_radiation_monochromator  graphite
_diffrn_radiation_probe          x-ray
_diffrn_radiation_type           MoK\a
_diffrn_radiation_wavelength     0.71073
_diffrn_reflns_av_R_equivalents  0.0476
_diffrn_reflns_av_unetI/netI     0.0373
_diffrn_reflns_limit_h_max       18
_diffrn_reflns_limit_h_min       -18
_diffrn_reflns_limit_k_max       5
_diffrn_reflns_limit_k_min       -5
_diffrn_reflns_limit_l_max       18
_diffrn_reflns_limit_l_min       -18
_diffrn_reflns_number            10798
_diffrn_reflns_theta_full        27.46
_diffrn_reflns_theta_max         27.46
_diffrn_reflns_theta_min         3.12
_exptl_absorpt_coefficient_mu    9.631
_exptl_absorpt_correction_T_max  0.749
_exptl_absorpt_correction_T_min  0.597
_exptl_absorpt_correction_type   multi-scan
_exptl_absorpt_process_details
;
  [Sheldrick, G.M. (2002). SADABS Bruker AXS Inc., Madison, Wisconsin, USA]
;
_exptl_crystal_colour            black
_exptl_crystal_density_diffrn    2.512
_exptl_crystal_density_method    'not measured'
_exptl_crystal_description       prism
_exptl_crystal_F_000             614
_exptl_crystal_size_max          0.06
_exptl_crystal_size_mid          0.04
_exptl_crystal_size_min          0.03
_refine_diff_density_max         1.446
_refine_diff_density_min         -0.952
_refine_diff_density_rms         0.165
_refine_ls_extinction_method     none
_refine_ls_goodness_of_fit_ref   1.09
_refine_ls_hydrogen_treatment    constr
_refine_ls_matrix_type           full
_refine_ls_number_parameters     107
_refine_ls_number_reflns         1959
_refine_ls_number_restraints     0
_refine_ls_restrained_S_all      1.09
_refine_ls_R_factor_all          0.035
_refine_ls_R_factor_gt           0.0255
_refine_ls_shift/su_max          0
_refine_ls_shift/su_mean         0
_refine_ls_structure_factor_coef Fsqd
_refine_ls_weighting_details
'calc w=1/[\s^2^(Fo^2^)+(0.0230P)^2^+1.4839P] where P=(Fo^2^+2Fc^2^)/3'
_refine_ls_weighting_scheme      calc
_refine_ls_wR_factor_gt          0.0556
_refine_ls_wR_factor_ref         0.0599
_reflns_number_gt                1617
_reflns_number_total             1959
_reflns_threshold_expression     >2sigma(I)
_iucr_refine_instructions_details
;
 .res file for SHELXL : job.res
.................................................................
TITL import in P 21/a
CELL  0.71073  14.2789   4.1546  14.3699   90.000   93.286   90.000
ZERR     2.00   0.0009   0.0003   0.0008    0.000    0.003    0.000
LATT   1
SYMM  1/2 - X, 1/2 + Y, - Z
SFAC  C    H    N    O    S    AU
UNIT  20   20   4    4    16   2
MERG   2
FMAP   2
PLAN   20
ACTA
BOND   $H
CONF
LIST   4
WPDB  -2
L.S.   4
TEMP  -123.00
WGHT    0.023000    1.483900
FVAR       0.36353
AU1   6    0.000000    0.000000    0.000000    10.50000    0.01285    0.01913 =
         0.01496    0.00161    0.00097   -0.00045
S1    5   -0.151658    0.203138   -0.010922    11.00000    0.01466    0.02862 =
         0.01686   -0.00013    0.00074    0.00286
S2    5   -0.012862   -0.186712   -0.152332    11.00000    0.01688    0.02797 =
         0.01688   -0.00050   -0.00037    0.00331
S3    5   -0.291729    0.174904   -0.180189    11.00000    0.01548    0.03488 =
         0.02207    0.00628   -0.00076    0.00127
S4    5   -0.332192   -0.068673   -0.374482    11.00000    0.02971    0.04865 =
         0.02906    0.00587   -0.01004   -0.00866
C1    1   -0.182861    0.098074   -0.123823    11.00000    0.01258    0.02448 =
         0.01955    0.00612    0.00216    0.00104
C2    1   -0.126864   -0.070852   -0.181259    11.00000    0.01667    0.01921 =
         0.01780    0.00515   -0.00185   -0.00556
N3    3   -0.171187   -0.142436   -0.267428    11.00000    0.02370    0.02033 =
         0.01560    0.00250    0.00203   -0.00502
C4    1   -0.261282   -0.029610   -0.280104    11.00000    0.02134    0.02300 =
         0.02683    0.01010   -0.00215   -0.01089
C5    1   -0.129494   -0.343938   -0.337610    11.00000    0.03682    0.01855 =
         0.02083   -0.00534   -0.00168    0.00017
AFIX  23
H5A   2   -0.179147   -0.479986   -0.368240    11.00000   -1.20000
H5B   2   -0.082618   -0.488758   -0.306117    11.00000   -1.20000
AFIX   0
C6    1   -0.082059   -0.151155   -0.411992    11.00000    0.03872    0.03428 =
         0.02682   -0.00493    0.00419   -0.00674
AFIX  23
H6A   2   -0.051050   -0.302600   -0.453618    11.00000   -1.20000
H6B   2   -0.130769   -0.033487   -0.450178    11.00000   -1.20000
AFIX   0
O7    4   -0.016986    0.064666   -0.376911    11.00000    0.04477    0.06105 =
         0.05685   -0.00063    0.00887   -0.00286
AFIX 147
H7    2    0.029090   -0.034977   -0.351976    11.00000   -1.50000
HKLF    4

REM  import in P 21/a
REM R1 =  0.0255 for   1617 Fo > 4sig(Fo)  and  0.0350 for all   1959 data
REM    107 parameters refined using      0 restraints

END

WGHT      0.0255      1.2305
 REM Highest difference peak   1.45,  deepest hole  -0.95,  1-sigma level   0.17
Q1    1  -0.1122  0.0613 -0.4557  11.00000  0.05    1.45
Q2    1  -0.0339 -0.3482 -0.4626  11.00000  0.05    1.23
Q3    1  -0.0070 -0.0010  0.0808  11.00000  0.05    0.85
Q4    1  -0.0995  0.0145 -0.0045  11.00000  0.05    0.54
Q5    1   0.0793 -0.1061 -0.1407  11.00000  0.05    0.54
Q6    1  -0.3005 -0.1571 -0.2988  11.00000  0.05    0.51
Q7    1  -0.1334  0.0853 -0.1519  11.00000  0.05    0.49
Q8    1  -0.1003 -0.3146 -0.3773  11.00000  0.05    0.49
Q9    1  -0.1766 -0.6700 -0.4404  11.00000  0.05    0.48
Q10   1  -0.3788 -0.0079 -0.3636  11.00000  0.05    0.47
Q11   1  -0.2913  0.0089 -0.3509  11.00000  0.05    0.47
Q12   1  -0.0626  0.2008 -0.2068  11.00000  0.05    0.47
Q13   1  -0.3215  0.1961 -0.1162  11.00000  0.05    0.46
Q14   1  -0.2204  0.3545 -0.2013  11.00000  0.05    0.46
Q15   1  -0.0033 -0.0265 -0.1539  11.00000  0.05    0.45
Q16   1  -0.3765 -0.1821 -0.1553  11.00000  0.05    0.44
Q17   1  -0.1759 -0.4598 -0.2161  11.00000  0.05    0.44
Q18   1  -0.1568 -0.2540 -0.2987  11.00000  0.05    0.44
Q19   1  -0.3786  0.2020 -0.3407  11.00000  0.05    0.44
Q20   1   0.0412  0.1421 -0.0367  11.00000  0.05    0.44
;
_cod_data_source_file            ic501437g_si_001.cif
_cod_data_source_block           AuEtOHThiazdt2
_cod_depositor_comments
'Adding full bibliography for 4340712--4340715.cif.'
_cod_original_sg_symbol_H-M      'P 21/a'
_cod_database_code               4340715
loop_
_symmetry_equiv_pos_as_xyz
'x, y, z'
'-x+1/2, y+1/2, -z'
'-x, -y, -z'
'x-1/2, -y-1/2, z'
loop_
_atom_site_label
_atom_site_type_symbol
_atom_site_fract_x
_atom_site_fract_y
_atom_site_fract_z
_atom_site_U_iso_or_equiv
_atom_site_adp_type
_atom_site_occupancy
_atom_site_symmetry_multiplicity
_atom_site_calc_flag
_atom_site_refinement_flags
Au1 Au 0 0 0 0.01564(9) Uani 1 2 d S
S1 S -0.15166(8) 0.2031(3) -0.01092(8) 0.0201(3) Uani 1 1 d .
S2 S -0.01286(8) -0.1867(3) -0.15233(8) 0.0206(3) Uani 1 1 d .
S3 S -0.29173(8) 0.1749(3) -0.18019(8) 0.0242(3) Uani 1 1 d .
S4 S -0.33219(11) -0.0687(4) -0.37448(10) 0.0363(4) Uani 1 1 d .
C1 C -0.1829(3) 0.0981(12) -0.1238(3) 0.0188(10) Uani 1 1 d .
C2 C -0.1269(3) -0.0709(11) -0.1813(3) 0.0180(10) Uani 1 1 d .
N3 N -0.1712(3) -0.1424(10) -0.2674(2) 0.0198(9) Uani 1 1 d .
C4 C -0.2613(4) -0.0296(12) -0.2801(4) 0.0239(11) Uani 1 1 d .
C5 C -0.1295(4) -0.3439(13) -0.3376(3) 0.0255(11) Uani 1 1 d .
H5A H -0.1791 -0.48 -0.3682 0.031 Uiso 1 1 calc R
H5B H -0.0826 -0.4888 -0.3061 0.031 Uiso 1 1 calc R
C6 C -0.0821(4) -0.1512(15) -0.4120(4) 0.0332(13) Uani 1 1 d .
H6A H -0.051 -0.3026 -0.4536 0.04 Uiso 1 1 calc R
H6B H -0.1308 -0.0335 -0.4502 0.04 Uiso 1 1 calc R
O7 O -0.0170(4) 0.0647(11) -0.3769(4) 0.0540(13) Uani 1 1 d .
H7 H 0.0291 -0.035 -0.352 0.081 Uiso 1 1 calc R
loop_
_atom_site_aniso_label
_atom_site_aniso_U_11
_atom_site_aniso_U_22
_atom_site_aniso_U_33
_atom_site_aniso_U_23
_atom_site_aniso_U_13
_atom_site_aniso_U_12
Au1 0.01285(13) 0.01913(14) 0.01496(13) 0.00161(11) 0.00097(9) -0.00045(11)
S1 0.0147(6) 0.0286(7) 0.0169(5) -0.0001(5) 0.0007(4) 0.0029(5)
S2 0.0169(6) 0.0280(7) 0.0169(5) -0.0005(5) -0.0004(5) 0.0033(5)
S3 0.0155(6) 0.0349(8) 0.0221(6) 0.0063(6) -0.0008(5) 0.0013(6)
S4 0.0297(8) 0.0486(10) 0.0291(7) 0.0059(6) -0.0100(6) -0.0087(7)
C1 0.013(2) 0.024(3) 0.020(2) 0.006(2) 0.0022(19) 0.0010(19)
C2 0.017(2) 0.019(3) 0.018(2) 0.0052(19) -0.0018(19) -0.0056(19)
N3 0.024(2) 0.020(2) 0.0156(19) 0.0025(17) 0.0020(17) -0.0050(18)
C4 0.021(3) 0.023(3) 0.027(3) 0.010(2) -0.002(2) -0.011(2)
C5 0.037(3) 0.019(3) 0.021(2) -0.005(2) -0.002(2) 0.000(2)
C6 0.039(3) 0.034(3) 0.027(3) -0.005(3) 0.004(2) -0.007(3)
O7 0.045(3) 0.061(3) 0.057(3) -0.001(2) 0.009(2) -0.003(2)
loop_
_atom_type_symbol
_atom_type_description
_atom_type_scat_dispersion_real
_atom_type_scat_dispersion_imag
_atom_type_scat_source
C C 0.0033 0.0016 'International Tables Vol C Tables 4.2.6.8 and 6.1.1.4'
H H 0 0 'International Tables Vol C Tables 4.2.6.8 and 6.1.1.4'
N N 0.0061 0.0033 'International Tables Vol C Tables 4.2.6.8 and 6.1.1.4'
O O 0.0106 0.006 'International Tables Vol C Tables 4.2.6.8 and 6.1.1.4'
S S 0.1246 0.1234 'International Tables Vol C Tables 4.2.6.8 and 6.1.1.4'
Au Au -2.0133 8.8022 'International Tables Vol C Tables 4.2.6.8 and 6.1.1.4'
loop_
_geom_angle_atom_site_label_1
_geom_angle_atom_site_label_2
_geom_angle_atom_site_label_3
_geom_angle
_geom_angle_site_symmetry_1
_geom_angle_site_symmetry_3
S2 Au1 S2 180 3 .
S2 Au1 S1 91.99(4) 3 3
S2 Au1 S1 88.01(4) . 3
S2 Au1 S1 88.01(4) 3 .
S2 Au1 S1 91.99(4) . .
S1 Au1 S1 180 3 .
C1 S1 Au1 99.34(17) . .
C2 S2 Au1 99.01(16) . .
C1 S3 C4 92.0(2) . .
C2 C1 S1 124.7(4) . .
C2 C1 S3 110.4(4) . .
S1 C1 S3 124.8(3) . .
C1 C2 N3 113.2(4) . .
C1 C2 S2 124.8(4) . .
N3 C2 S2 122.0(4) . .
C4 N3 C2 114.9(4) . .
C4 N3 C5 121.3(4) . .
C2 N3 C5 123.6(4) . .
N3 C4 S4 126.9(4) . .
N3 C4 S3 109.5(3) . .
S4 C4 S3 123.6(3) . .
N3 C5 C6 113.4(4) . .
N3 C5 H5A 108.9 . .
C6 C5 H5A 108.9 . .
N3 C5 H5B 108.9 . .
C6 C5 H5B 108.9 . .
H5A C5 H5B 107.7 . .
O7 C6 C5 113.9(4) . .
O7 C6 H6A 108.8 . .
C5 C6 H6A 108.8 . .
O7 C6 H6B 108.8 . .
C5 C6 H6B 108.8 . .
H6A C6 H6B 107.7 . .
C6 O7 H7 109.5 . .
loop_
_geom_bond_atom_site_label_1
_geom_bond_atom_site_label_2
_geom_bond_distance
_geom_bond_site_symmetry_2
Au1 S2 2.3197(11) 3
Au1 S2 2.3197(11) .
Au1 S1 2.3211(12) 3
Au1 S1 2.3211(12) .
S1 C1 1.714(5) .
S2 C2 1.725(5) .
S3 C1 1.741(5) .
S3 C4 1.745(5) .
S4 C4 1.653(5) .
C1 C2 1.374(7) .
C2 N3 1.390(6) .
N3 C4 1.372(7) .
N3 C5 1.463(6) .
C5 C6 1.525(7) .
C5 H5A 0.99 .
C5 H5B 0.99 .
C6 O7 1.367(7) .
C6 H6A 0.99 .
C6 H6B 0.99 .
O7 H7 0.84 .
loop_
_geom_torsion_atom_site_label_1
_geom_torsion_atom_site_label_2
_geom_torsion_atom_site_label_3
_geom_torsion_atom_site_label_4
_geom_torsion
_geom_torsion_site_symmetry_1
S2 Au1 S1 C1 179.73(18) 3
S2 Au1 S1 C1 -0.27(18) .
S1 Au1 S2 C2 178.91(16) 3
S1 Au1 S2 C2 -1.09(16) .
Au1 S1 C1 C2 2.3(5) .
Au1 S1 C1 S3 179.3(3) .
C4 S3 C1 C2 1.2(4) .
C4 S3 C1 S1 -176.3(3) .
S1 C1 C2 N3 176.1(4) .
S3 C1 C2 N3 -1.3(5) .
S1 C1 C2 S2 -4.0(7) .
S3 C1 C2 S2 178.6(3) .
Au1 S2 C2 C1 3.0(4) .
Au1 S2 C2 N3 -177.1(4) .
C1 C2 N3 C4 0.8(6) .
S2 C2 N3 C4 -179.1(3) .
C1 C2 N3 C5 -174.5(4) .
S2 C2 N3 C5 5.6(6) .
C2 N3 C4 S4 179.0(4) .
C5 N3 C4 S4 -5.6(7) .
C2 N3 C4 S3 0.1(5) .
C5 N3 C4 S3 175.5(4) .
C1 S3 C4 N3 -0.7(4) .
C1 S3 C4 S4 -179.7(3) .
C4 N3 C5 C6 87.9(6) .
C2 N3 C5 C6 -97.1(6) .
N3 C5 C6 O7 53.8(7) .
