#------------------------------------------------------------------------------
#$Date: 2016-03-24 00:12:42 +0200 (Thu, 24 Mar 2016) $
#$Revision: 179527 $
#$URL: svn://www.crystallography.net/cod/cif/4/34/24/4342493.cif $
#------------------------------------------------------------------------------
#
# This file is available in the Crystallography Open Database (COD),
# http://www.crystallography.net/
#
# All data on this site have been placed in the public domain by the
# contributors.
#
data_4342493
loop_
_publ_author_name
'Gonz\'alez-Riopedre, Gustavo'
'Bermejo, Manuel R.'
'Fern\'andez-Garc\'ia, M Isabel'
'Gonz\'alez-Noya, Ana M'
'Pedrido, Rosa'
'Rodr\'iguez-Dout\'on, M Jes\'us'
'Maneiro, Marcelino'
_publ_section_title
;
 Alkali-Metal-Ion-Directed Self-Assembly of Redox-Active Manganese(III)
 Supramolecular Boxes.
;
_journal_issue                   6
_journal_name_full               'Inorganic chemistry'
_journal_page_first              2512
_journal_page_last               2521
_journal_paper_doi               10.1021/ic501842x
_journal_volume                  54
_journal_year                    2015
_chemical_compound_source        'synthesis as described'
_chemical_formula_moiety         'C16 H16 N2 O4'
_chemical_formula_sum            'C16 H16 N2 O4'
_chemical_formula_weight         300.31
_chemical_name_systematic
;
 ?
;
_space_group_IT_number           2
_symmetry_cell_setting           triclinic
_symmetry_Int_Tables_number      2
_symmetry_space_group_name_Hall  '-P 1'
_symmetry_space_group_name_H-M   'P -1'
_atom_sites_solution_hydrogens   geom
_atom_sites_solution_primary     direct
_atom_sites_solution_secondary   difmap
_audit_conform_dict_location     ftp://ftp.iucr.org/pub/cif_core.dic
_audit_conform_dict_name         cif_core.dic
_audit_conform_dict_version      2.3
_audit_creation_date             2006-04-05T16:30:58-00:00
_audit_creation_method           'WinGX routine CIF_UPDATE'
_cell_angle_alpha                94.310(8)
_cell_angle_beta                 94.205(10)
_cell_angle_gamma                95.464(16)
_cell_formula_units_Z            2
_cell_length_a                   6.545(3)
_cell_length_b                   6.964(3)
_cell_length_c                   15.297(8)
_cell_measurement_reflns_used    1123
_cell_measurement_temperature    100(2)
_cell_measurement_theta_max      26.3145
_cell_measurement_theta_min      2.6835
_cell_measurement_wavelength     0.71073
_cell_volume                     689.8(6)
_computing_cell_refinement       'BRUKER SMART'
_computing_data_collection       'BRUKER SMART'
_computing_data_reduction        'BRUKER SAINT'
_computing_molecular_graphics    'Ortep-3 for Windows (Farrugia, 1997)'
_computing_publication_material  'WinGX publication routines (Farrugia, 1999)'
_computing_structure_refinement  'SHELXL-97 (Sheldrick, 1997)'
_computing_structure_solution    'Sir 97'
_diffrn_ambient_temperature      100(2)
_diffrn_measured_fraction_theta_full 0.987
_diffrn_measured_fraction_theta_max 0.987
_diffrn_measurement_device_type  'Smart-CCD-1000 BRUKER'
_diffrn_measurement_method       'omega scans'
_diffrn_radiation_monochromator  graphite
_diffrn_radiation_probe          x-ray
_diffrn_radiation_type           MoK\a
_diffrn_radiation_wavelength     0.71073
_diffrn_reflns_av_R_equivalents  0.0414
_diffrn_reflns_av_unetI/netI     0.0717
_diffrn_reflns_limit_h_max       7
_diffrn_reflns_limit_h_min       -7
_diffrn_reflns_limit_k_max       8
_diffrn_reflns_limit_k_min       -8
_diffrn_reflns_limit_l_max       18
_diffrn_reflns_limit_l_min       0
_diffrn_reflns_number            2589
_diffrn_reflns_theta_full        25.68
_diffrn_reflns_theta_max         25.68
_diffrn_reflns_theta_min         1.34
_exptl_absorpt_coefficient_mu    0.105
_exptl_absorpt_correction_T_max  1
_exptl_absorpt_correction_T_min  0.616633
_exptl_absorpt_correction_type   multi-scan
_exptl_absorpt_process_details   'BRUKER SADABS'
_exptl_crystal_colour            Colourless
_exptl_crystal_density_diffrn    1.446
_exptl_crystal_density_method    'not measured'
_exptl_crystal_description       plate
_exptl_crystal_F_000             316
_exptl_crystal_size_max          0.31
_exptl_crystal_size_mid          0.28
_exptl_crystal_size_min          0.06
_refine_diff_density_max         0.501
_refine_diff_density_min         -0.457
_refine_diff_density_rms         0.103
_refine_ls_extinction_method     none
_refine_ls_goodness_of_fit_ref   0.884
_refine_ls_hydrogen_treatment    mixed
_refine_ls_matrix_type           full
_refine_ls_number_parameters     247
_refine_ls_number_reflns         2589
_refine_ls_number_restraints     0
_refine_ls_restrained_S_all      0.884
_refine_ls_R_factor_all          0.1256
_refine_ls_R_factor_gt           0.0708
_refine_ls_shift/su_max          0
_refine_ls_shift/su_mean         0
_refine_ls_structure_factor_coef Fsqd
_refine_ls_weighting_details
'calc w=1/[\s^2^(Fo^2^)+(0.1426P)^2^+0.0000P] where P=(Fo^2^+2Fc^2^)/3'
_refine_ls_weighting_scheme      calc
_refine_ls_wR_factor_gt          0.1799
_refine_ls_wR_factor_ref         0.2117
_reflns_number_gt                1390
_reflns_number_total             2589
_reflns_threshold_expression     >2sigma(I)
_cod_data_source_file            ic501842x_si_005.cif
_cod_data_source_block           be12if2n
_cod_depositor_comments
'Adding full bibliography for 4342493--4342496.cif.'
_cod_original_cell_volume        689.9(6)
_cod_database_code               4342493
loop_
_symmetry_equiv_pos_as_xyz
'x, y, z'
'-x, -y, -z'
loop_
_atom_site_label
_atom_site_type_symbol
_atom_site_fract_x
_atom_site_fract_y
_atom_site_fract_z
_atom_site_U_iso_or_equiv
_atom_site_adp_type
_atom_site_occupancy
_atom_site_symmetry_multiplicity
_atom_site_calc_flag
O1 O -0.3460(3) 0.2905(3) 0.70754(16) 0.0269(6) Uani 1 1 d
C2 C -0.1890(5) 0.2472(4) 0.7635(2) 0.0199(8) Uani 1 1 d
C3 C -0.2243(5) 0.2202(5) 0.8499(2) 0.0271(8) Uani 1 1 d
C4 C -0.0709(5) 0.1698(4) 0.9079(2) 0.0244(8) Uani 1 1 d
C5 C 0.1255(5) 0.1454(4) 0.8792(2) 0.0236(8) Uani 1 1 d
C6 C 0.1631(5) 0.1769(5) 0.7941(2) 0.0228(8) Uani 1 1 d
C7 C 0.0099(5) 0.2322(4) 0.7342(2) 0.0195(7) Uani 1 1 d
C8 C 0.0475(5) 0.2790(4) 0.6437(2) 0.0194(7) Uani 1 1 d
O9 O -0.0970(3) 0.3199(3) 0.59155(14) 0.0246(6) Uani 1 1 d
N10 N 0.2380(4) 0.2759(4) 0.61696(18) 0.0217(7) Uani 1 1 d
C11 C 0.2883(5) 0.3248(5) 0.5297(2) 0.0218(8) Uani 1 1 d
C12 C 0.2201(5) 0.1595(5) 0.4596(2) 0.0233(8) Uani 1 1 d
N13 N 0.2730(4) 0.2090(4) 0.37315(18) 0.0212(7) Uani 1 1 d
C14 C 0.4641(5) 0.2066(4) 0.3473(2) 0.0215(8) Uani 1 1 d
O15 O 0.6095(3) 0.1674(3) 0.39916(14) 0.0266(6) Uani 1 1 d
C16 C 0.5034(5) 0.2548(4) 0.2562(2) 0.0200(8) Uani 1 1 d
C17 C 0.3455(5) 0.2619(4) 0.1907(2) 0.0221(8) Uani 1 1 d
C18 C 0.3885(5) 0.3102(5) 0.1080(2) 0.0251(8) Uani 1 1 d
C19 C 0.5913(5) 0.3486(5) 0.0880(2) 0.0243(8) Uani 1 1 d
C20 C 0.7511(5) 0.3403(5) 0.1516(2) 0.0240(8) Uani 1 1 d
C21 C 0.7094(5) 0.2916(4) 0.2353(2) 0.0210(8) Uani 1 1 d
O22 O 0.8673(3) 0.2798(3) 0.29609(15) 0.0266(6) Uani 1 1 d
H1 H -0.280(5) 0.308(5) 0.652(2) 0.032 Uiso 1 1 d
H3 H -0.356(6) 0.235(5) 0.868(2) 0.032 Uiso 1 1 d
H4 H -0.100(5) 0.140(5) 0.967(2) 0.032 Uiso 1 1 d
H5 H 0.232(5) 0.111(5) 0.921(2) 0.032 Uiso 1 1 d
H6 H 0.296(6) 0.171(5) 0.776(2) 0.032 Uiso 1 1 d
H10 H 0.338(6) 0.269(5) 0.660(2) 0.032 Uiso 1 1 d
H11A H 0.433(6) 0.363(5) 0.532(2) 0.032 Uiso 1 1 d
H11B H 0.238(5) 0.438(5) 0.517(2) 0.032 Uiso 1 1 d
H12A H 0.268(5) 0.048(5) 0.476(2) 0.032 Uiso 1 1 d
H12B H 0.063(6) 0.127(5) 0.459(2) 0.032 Uiso 1 1 d
H13 H 0.178(6) 0.227(5) 0.330(2) 0.032 Uiso 1 1 d
H17 H 0.195(5) 0.234(5) 0.206(2) 0.032 Uiso 1 1 d
H18 H 0.286(5) 0.299(5) 0.060(2) 0.032 Uiso 1 1 d
H19 H 0.622(5) 0.380(5) 0.027(2) 0.032 Uiso 1 1 d
H20 H 0.891(6) 0.379(5) 0.139(2) 0.032 Uiso 1 1 d
H22 H 0.809(6) 0.249(5) 0.346(2) 0.032 Uiso 1 1 d
loop_
_atom_site_aniso_label
_atom_site_aniso_U_11
_atom_site_aniso_U_22
_atom_site_aniso_U_33
_atom_site_aniso_U_23
_atom_site_aniso_U_13
_atom_site_aniso_U_12
O1 0.0138(12) 0.0369(14) 0.0339(14) 0.0054(11) 0.0040(10) 0.0185(10)
C2 0.0125(16) 0.0184(16) 0.0302(19) 0.0015(13) -0.0021(14) 0.0118(12)
C3 0.0199(19) 0.0284(19) 0.035(2) -0.0033(15) 0.0043(16) 0.0157(14)
C4 0.0246(19) 0.0214(17) 0.0292(19) 0.0023(14) 0.0042(16) 0.0104(14)
C5 0.0200(18) 0.0213(17) 0.032(2) 0.0039(14) -0.0019(15) 0.0151(13)
C6 0.0190(18) 0.0224(17) 0.0297(19) 0.0017(14) 0.0024(15) 0.0160(13)
C7 0.0144(17) 0.0172(16) 0.0280(18) -0.0006(13) -0.0019(14) 0.0127(12)
C8 0.0155(17) 0.0169(16) 0.0273(18) -0.0007(13) -0.0032(14) 0.0148(12)
O9 0.0173(13) 0.0303(13) 0.0293(13) 0.0049(10) 0.0001(10) 0.0174(10)
N10 0.0137(15) 0.0259(15) 0.0281(16) 0.0034(12) -0.0006(12) 0.0162(11)
C11 0.0134(17) 0.0253(18) 0.0302(19) 0.0091(15) 0.0013(14) 0.0145(13)
C12 0.0188(18) 0.0244(18) 0.0298(19) 0.0060(15) 0.0012(15) 0.0153(14)
N13 0.0129(15) 0.0261(15) 0.0272(16) 0.0046(12) -0.0003(12) 0.0143(11)
C14 0.0154(17) 0.0194(16) 0.0302(19) -0.0009(14) -0.0058(15) 0.0119(13)
O15 0.0166(13) 0.0344(14) 0.0322(14) 0.0076(10) 0.0011(10) 0.0170(10)
C16 0.0195(18) 0.0181(16) 0.0255(18) 0.0015(13) 0.0035(14) 0.0169(13)
C17 0.0162(18) 0.0232(17) 0.0282(19) 0.0011(14) -0.0021(15) 0.0126(13)
C18 0.0220(19) 0.0306(19) 0.0250(19) 0.0004(15) -0.0012(15) 0.0174(14)
C19 0.026(2) 0.0247(17) 0.0256(19) 0.0051(14) 0.0077(16) 0.0155(14)
C20 0.0184(18) 0.0252(18) 0.032(2) 0.0033(15) 0.0064(15) 0.0167(14)
C21 0.0138(17) 0.0185(16) 0.033(2) 0.0001(14) 0.0024(15) 0.0148(12)
O22 0.0164(13) 0.0367(14) 0.0304(14) 0.0065(11) 0.0027(10) 0.0181(10)
loop_
_atom_type_symbol
_atom_type_description
_atom_type_scat_dispersion_real
_atom_type_scat_dispersion_imag
_atom_type_scat_source
C C 0.0033 0.0016 'International Tables Vol C Tables 4.2.6.8 and 6.1.1.4'
H H 0 0 'International Tables Vol C Tables 4.2.6.8 and 6.1.1.4'
N N 0.0061 0.0033 'International Tables Vol C Tables 4.2.6.8 and 6.1.1.4'
O O 0.0106 0.006 'International Tables Vol C Tables 4.2.6.8 and 6.1.1.4'
loop_
_geom_angle_atom_site_label_1
_geom_angle_atom_site_label_2
_geom_angle_atom_site_label_3
_geom_angle
C2 O1 H1 103(2)
O1 C2 C3 119.3(3)
O1 C2 C7 120.5(3)
C3 C2 C7 120.1(3)
C4 C3 C2 121.0(3)
C4 C3 H3 120(2)
C2 C3 H3 119(2)
C3 C4 C5 119.9(3)
C3 C4 H4 121(2)
C5 C4 H4 119(2)
C6 C5 C4 119.3(3)
C6 C5 H5 122(2)
C4 C5 H5 119(2)
C5 C6 C7 121.7(3)
C5 C6 H6 120(2)
C7 C6 H6 118(2)
C6 C7 C2 117.8(3)
C6 C7 C8 123.4(3)
C2 C7 C8 118.8(3)
O9 C8 N10 119.9(3)
O9 C8 C7 120.8(3)
N10 C8 C7 119.3(3)
C8 N10 C11 122.5(3)
C8 N10 H10 116(2)
C11 N10 H10 121(2)
N10 C11 C12 112.2(3)
N10 C11 H11A 108(2)
C12 C11 H11A 112(2)
N10 C11 H11B 110(2)
C12 C11 H11B 113(2)
H11A C11 H11B 101(3)
N13 C12 C11 111.7(3)
N13 C12 H12A 114(2)
C11 C12 H12A 110(2)
N13 C12 H12B 109.3(18)
C11 C12 H12B 109.2(19)
H12A C12 H12B 102(3)
C14 N13 C12 122.7(3)
C14 N13 H13 114(2)
C12 N13 H13 123(2)
O15 C14 N13 120.8(3)
O15 C14 C16 120.2(3)
N13 C14 C16 119.0(3)
C17 C16 C21 118.8(3)
C17 C16 C14 122.7(3)
C21 C16 C14 118.5(3)
C18 C17 C16 120.8(3)
C18 C17 H17 120.7(18)
C16 C17 H17 118.5(18)
C17 C18 C19 120.3(3)
C17 C18 H18 122(2)
C19 C18 H18 117(2)
C20 C19 C18 120.1(3)
C20 C19 H19 120(2)
C18 C19 H19 120(2)
C19 C20 C21 120.1(3)
C19 C20 H20 119.7(19)
C21 C20 H20 120.0(19)
O22 C21 C20 119.4(3)
O22 C21 C16 120.6(3)
C20 C21 C16 120.0(3)
C21 O22 H22 106(2)
loop_
_geom_bond_atom_site_label_1
_geom_bond_atom_site_label_2
_geom_bond_distance
O1 C2 1.360(4)
O1 H1 0.99(4)
C2 C3 1.381(5)
C2 C7 1.418(4)
C3 C4 1.379(5)
C3 H3 0.94(4)
C4 C5 1.410(5)
C4 H4 0.98(3)
C5 C6 1.373(5)
C5 H5 0.97(3)
C6 C7 1.409(4)
C6 H6 0.94(4)
C7 C8 1.479(4)
C8 O9 1.260(4)
C8 N10 1.342(4)
N10 C11 1.455(4)
N10 H10 0.90(4)
C11 C12 1.523(5)
C11 H11A 0.96(4)
C11 H11B 0.91(4)
C12 N13 1.449(4)
C12 H12A 0.92(4)
C12 H12B 1.03(4)
N13 C14 1.340(4)
N13 H13 0.89(4)
C14 O15 1.257(4)
C14 C16 1.493(4)
C16 C17 1.393(4)
C16 C21 1.413(4)
C17 C18 1.375(4)
C17 H17 1.04(3)
C18 C19 1.390(5)
C18 H18 0.95(3)
C19 C20 1.384(5)
C19 H19 1.00(3)
C20 C21 1.388(4)
C20 H20 0.97(3)
C21 O22 1.351(4)
O22 H22 0.91(3)
loop_
_geom_torsion_atom_site_label_1
_geom_torsion_atom_site_label_2
_geom_torsion_atom_site_label_3
_geom_torsion_atom_site_label_4
_geom_torsion
O1 C2 C3 C4 177.8(3)
C7 C2 C3 C4 -3.0(5)
C2 C3 C4 C5 0.1(5)
C3 C4 C5 C6 1.6(5)
C4 C5 C6 C7 -0.4(5)
C5 C6 C7 C2 -2.4(5)
C5 C6 C7 C8 176.2(3)
O1 C2 C7 C6 -176.7(3)
C3 C2 C7 C6 4.1(4)
O1 C2 C7 C8 4.6(4)
C3 C2 C7 C8 -174.6(3)
C6 C7 C8 O9 177.0(3)
C2 C7 C8 O9 -4.3(4)
C6 C7 C8 N10 -2.3(5)
C2 C7 C8 N10 176.3(3)
O9 C8 N10 C11 2.2(4)
C7 C8 N10 C11 -178.5(3)
C8 N10 C11 C12 -78.3(4)
N10 C11 C12 N13 -179.4(2)
C11 C12 N13 C14 77.8(4)
C12 N13 C14 O15 -2.7(5)
C12 N13 C14 C16 178.4(3)
O15 C14 C16 C17 167.0(3)
N13 C14 C16 C17 -14.1(4)
O15 C14 C16 C21 -11.9(4)
N13 C14 C16 C21 167.0(3)
C21 C16 C17 C18 -2.2(4)
C14 C16 C17 C18 178.9(3)
C16 C17 C18 C19 1.5(5)
C17 C18 C19 C20 -0.7(5)
C18 C19 C20 C21 0.7(5)
C19 C20 C21 O22 178.5(3)
C19 C20 C21 C16 -1.4(4)
C17 C16 C21 O22 -177.8(3)
C14 C16 C21 O22 1.2(4)
C17 C16 C21 C20 2.2(4)
C14 C16 C21 C20 -178.9(3)
loop_
_refln_index_h
_refln_index_k
_refln_index_l
_refln_F_squared_calc
_refln_F_squared_meas
_refln_F_squared_sigma
_refln_observed_status
1 0 0 14.04 19.34 2.02 o
2 0 0 1470.35 1858.46 48.81 o
3 0 0 6.98 9.41 3.75 o
4 0 0 7.29 6.48 4.57 o
5 0 0 3.43 12.02 5.92 o
6 0 0 27.76 29.60 8.22 o
7 0 0 6.20 9.18 8.22 o
-7 1 0 38.43 55.16 10.72 o
-6 1 0 0.39 0.82 6.28 o
-5 1 0 267.77 319.17 14.16 o
-4 1 0 0.28 0.48 3.16 o
-3 1 0 1038.71 1594.65 34.85 o
-2 1 0 16.47 23.29 3.34 o
-1 1 0 47.52 42.22 2.86 o
0 1 0 4.93 3.01 2.19 o
1 1 0 227.96 169.69 4.64 o
4 1 0 0.88 0.87 3.83 o
5 1 0 46.87 59.75 13.78 o
6 1 0 11.84 5.72 5.56 o
7 1 0 46.93 25.67 9.95 o
-7 2 0 6.87 8.52 8.96 o
-6 2 0 193.19 226.92 13.11 o
-5 2 0 0.35 0.00 6.48 o
-4 2 0 43.58 45.06 5.64 o
-3 2 0 37.50 49.22 5.28 o
-2 2 0 1847.60 2621.44 55.42 o
-1 2 0 791.54 1070.86 23.73 o
0 2 0 25711.40 25420.59 606.00 o
1 2 0 757.50 611.69 14.75 o
2 2 0 0.01 1.91 1.91 o
3 2 0 0.00 1.07 1.66 o
4 2 0 0.17 0.00 3.42 o
5 2 0 11.17 5.33 4.36 o
6 2 0 43.28 30.39 11.66 o
7 2 0 10.09 10.21 7.58 o
-7 3 0 1.44 0.00 9.18 o
-6 3 0 80.14 108.08 12.63 o
-5 3 0 619.11 655.11 18.73 o
-4 3 0 91.24 105.83 6.94 o
-3 3 0 274.12 349.08 11.25 o
-2 3 0 82.08 98.25 5.36 o
-1 3 0 6.05 3.57 4.13 o
0 3 0 72.92 87.08 5.46 o
1 3 0 161.38 162.47 5.51 o
2 3 0 317.67 267.59 7.48 o
3 3 0 170.82 142.01 5.41 o
4 3 0 1.07 0.00 3.85 o
5 3 0 3.61 0.00 4.59 o
6 3 0 0.09 0.00 5.74 o
7 3 0 2.69 0.00 9.06 o
-7 4 0 55.97 64.55 12.55 o
-6 4 0 1025.77 1022.33 34.95 o
-5 4 0 11.75 17.07 6.43 o
-4 4 0 220.08 247.02 10.31 o
-3 4 0 16.35 13.70 5.46 o
-2 4 0 277.64 318.18 10.49 o
-1 4 0 233.83 230.95 8.47 o
0 4 0 483.99 488.36 16.53 o
1 4 0 149.73 180.89 9.41 o
2 4 0 40.73 49.70 4.85 o
3 4 0 0.03 0.61 4.46 o
4 4 0 43.98 57.94 7.99 o
5 4 0 6.91 9.59 6.61 o
6 4 0 1.00 0.00 6.76 o
-6 5 0 81.09 99.38 13.29 o
-5 5 0 535.09 515.40 17.35 o
-4 5 0 418.57 409.98 14.44 o
-3 5 0 1.08 3.34 5.79 o
-2 5 0 47.13 43.53 8.34 o
-1 5 0 8.81 12.68 6.00 o
0 5 0 97.03 95.09 7.45 o
1 5 0 0.54 0.00 4.54 o
2 5 0 159.47 127.59 7.58 o
3 5 0 182.33 180.79 11.81 o
4 5 0 0.73 0.00 6.02 o
5 5 0 1.29 1.38 7.22 o
-6 6 0 1039.16 713.92 37.86 o
-5 6 0 47.60 47.53 11.38 o
-4 6 0 49.54 51.36 10.61 o
-3 6 0 3.86 6.00 7.73 o
-2 6 0 27.24 33.70 8.70 o
-1 6 0 0.63 2.19 6.56 o
0 6 0 65.85 83.97 9.75 o
1 6 0 0.11 9.49 6.40 o
2 6 0 1.77 2.17 5.51 o
3 6 0 0.02 0.00 6.71 o
4 6 0 55.17 83.99 11.81 o
5 6 0 0.07 0.00 8.57 o
-5 7 0 92.71 90.65 13.83 o
-4 7 0 520.84 428.14 19.72 o
-3 7 0 38.00 28.47 9.82 o
-2 7 0 0.00 0.00 8.34 o
-1 7 0 33.97 39.21 9.47 o
0 7 0 54.96 76.41 10.54 o
1 7 0 7.84 12.14 7.25 o
2 7 0 11.83 18.06 9.47 o
3 7 0 38.41 44.34 11.61 o
-3 8 0 49.26 49.88 12.65 o
-2 8 0 94.48 100.78 13.52 o
-1 8 0 15.01 14.90 9.87 o
0 8 0 9.14 13.55 9.11 o
1 8 0 3.76 2.07 8.62 o
-1 -8 1 2.47 6.76 8.88 o
0 -8 1 2.79 0.00 8.90 o
1 -8 1 1.27 2.63 8.85 o
2 -8 1 65.43 89.09 13.32 o
3 -8 1 63.82 65.01 12.32 o
-3 -7 1 0.01 2.50 9.44 o
-2 -7 1 25.95 41.20 8.42 o
-1 -7 1 16.90 18.45 7.68 o
0 -7 1 6.67 0.66 7.25 o
1 -7 1 20.72 17.27 8.34 o
2 -7 1 59.54 81.34 11.51 o
3 -7 1 76.62 74.40 11.69 o
4 -7 1 0.05 5.05 9.39 o
5 -7 1 27.59 44.27 12.22 o
-5 -6 1 2.66 0.00 8.34 o
-4 -6 1 10.37 14.08 7.71 o
-3 -6 1 30.66 37.17 9.31 o
-2 -6 1 32.11 36.10 6.94 o
-1 -6 1 3.13 0.64 5.38 o
0 -6 1 3.79 6.97 6.76 o
1 -6 1 1.93 0.00 6.35 o
2 -6 1 15.35 24.01 8.34 o
3 -6 1 103.40 113.41 9.77 o
4 -6 1 23.71 27.15 9.39 o
5 -6 1 42.98 44.22 11.17 o
6 -6 1 0.01 27.78 13.88 o
-5 -5 1 41.79 65.37 10.26 o
-4 -5 1 34.73 42.15 8.42 o
-3 -5 1 85.13 74.07 7.65 o
-2 -5 1 114.08 114.07 7.12 o
-1 -5 1 238.04 218.65 10.10 o
0 -5 1 8.00 10.33 5.61 o
1 -5 1 25.50 26.46 6.81 o
2 -5 1 52.94 68.30 9.06 o
3 -5 1 19.15 21.33 7.83 o
4 -5 1 66.58 98.97 9.44 o
5 -5 1 1526.95 1495.04 37.12 o
6 -5 1 222.81 194.75 13.85 o
-6 -4 1 20.33 16.28 8.57 o
-5 -4 1 3.36 4.08 6.02 o
-4 -4 1 66.23 65.26 6.86 o
-3 -4 1 62.91 58.35 4.52 o
-2 -4 1 423.30 390.13 12.94 o
-1 -4 1 146.48 144.30 7.25 o
0 -4 1 49.74 68.66 6.20 o
1 -4 1 26.64 48.71 6.43 o
2 -4 1 201.38 219.83 8.52 o
3 -4 1 2.33 0.18 4.64 o
4 -4 1 43.66 62.05 7.65 o
5 -4 1 209.34 183.16 9.36 o
6 -4 1 8.51 12.45 9.75 o
7 -4 1 11.62 13.19 10.66 o
-7 -3 1 10.95 6.10 8.93 o
-6 -3 1 0.79 1.56 5.72 o
-5 -3 1 16.29 8.27 5.10 o
-4 -3 1 29.38 43.65 5.77 o
-3 -3 1 863.40 795.79 18.37 o
-2 -3 1 150.08 139.05 4.87 o
-1 -3 1 382.48 323.87 10.56 o
0 -3 1 0.15 0.94 2.91 o
1 -3 1 2.73 3.34 2.81 o
2 -3 1 12.02 20.31 4.29 o
3 -3 1 168.19 226.08 8.60 o
4 -3 1 79.94 83.00 6.07 o
5 -3 1 4528.02 5049.24 179.56 o
6 -3 1 108.62 113.43 10.31 o
7 -3 1 31.83 23.60 10.10 o
-7 -2 1 10.78 3.09 7.76 o
-6 -2 1 32.57 31.02 9.62 o
-5 -2 1 0.51 1.00 4.57 o
-3 -2 1 99.88 72.94 3.83 o
-2 -2 1 1103.64 1008.70 21.99 o
-1 -2 1 403.49 301.57 7.99 o
0 -2 1 102.82 83.28 8.47 o
1 -2 1 10.82 12.43 3.29 o
2 -2 1 1147.67 1723.83 37.40 o
3 -2 1 52.36 67.84 5.66 o
4 -2 1 3.60 3.42 3.93 o
5 -2 1 201.47 208.14 11.86 o
6 -2 1 0.08 0.00 6.68 o
7 -2 1 6.72 6.38 8.52 o
-7 -1 1 63.28 70.29 18.11 o
-6 -1 1 5.01 11.53 6.05 o
-5 -1 1 133.90 167.24 9.64 o
-4 -1 1 1.23 1.48 4.06 o
-3 -1 1 1895.80 2351.87 62.25 o
-2 -1 1 33.49 36.05 2.50 o
-1 -1 1 59.04 43.22 2.68 o
0 -1 1 0.57 1.66 1.25 o
1 -1 1 4282.57 6024.83 121.93 o
2 -1 1 2.29 4.39 2.60 o
3 -1 1 791.75 1091.37 24.82 o
4 -1 1 8.98 3.24 3.27 o
5 -1 1 2935.71 3445.71 92.74 o
6 -1 1 3.20 3.37 6.51 o
7 -1 1 15.12 16.23 8.83 o
-7 0 1 21.49 25.18 9.31 o
-6 0 1 105.37 111.06 9.36 o
-5 0 1 10.22 12.86 6.07 o
-4 0 1 44.87 71.77 6.33 o
-3 0 1 32.01 42.86 3.78 o
-2 0 1 137.48 186.61 5.82 o
-1 0 1 12.33 13.17 1.38 o
0 0 1 1115.87 603.19 21.18 o
1 0 1 0.94 0.54 0.79 o
2 0 1 1169.60 1337.04 35.59 o
3 0 1 0.52 0.00 3.19 o
4 0 1 199.04 243.78 10.66 o
5 0 1 73.84 81.41 7.65 o
6 0 1 15.43 15.56 7.19 o
7 0 1 29.16 23.22 8.96 o
-7 1 1 87.80 95.88 12.14 o
-6 1 1 11.34 1.66 7.09 o
-5 1 1 214.88 266.46 12.99 o
-4 1 1 0.59 0.00 3.34 o
-3 1 1 567.29 748.62 18.04 o
-2 1 1 0.29 0.00 2.55 o
-1 1 1 3731.55 5180.25 105.22 o
0 1 1 4.03 1.84 1.53 o
1 1 1 9389.82 8535.24 171.86 o
2 1 1 0.59 0.00 1.51 o
4 1 1 0.31 0.00 3.16 o
6 1 1 43.00 36.20 9.59 o
7 1 1 4.63 2.42 7.22 o
-7 2 1 3.67 3.57 8.62 o
-6 2 1 116.56 116.88 10.10 o
-5 2 1 9.33 16.38 7.12 o
-4 2 1 3.60 3.14 4.13 o
-3 2 1 63.43 66.00 4.72 o
-2 2 1 35.08 61.41 4.92 o
-1 2 1 162.68 201.17 6.45 o
0 2 1 1348.96 1369.59 29.24 o
1 2 1 372.27 299.71 8.09 o
2 2 1 85.29 73.12 3.37 o
3 2 1 54.27 49.78 4.03 o
4 2 1 35.85 48.30 9.75 o
5 2 1 23.06 13.85 5.10 o
6 2 1 18.52 6.56 6.10 o
7 2 1 75.59 104.86 18.75 o
-7 3 1 51.41 62.25 12.35 o
-6 3 1 14.95 17.50 8.67 o
-5 3 1 93.75 110.35 7.58 o
-4 3 1 9.96 12.53 5.15 o
-3 3 1 0.16 0.84 4.18 o
-2 3 1 0.76 2.09 3.57 o
-1 3 1 2494.79 2882.88 60.44 o
0 3 1 6.55 5.72 2.30 o
1 3 1 1705.65 1763.65 38.45 o
2 3 1 4.17 2.81 2.14 o
3 3 1 70.52 52.92 3.42 o
4 3 1 1.31 0.00 3.62 o
5 3 1 27.09 30.82 6.10 o
6 3 1 8.09 0.00 6.02 o
7 3 1 4.98 6.58 9.29 o
-7 4 1 134.79 127.62 15.46 o
-6 4 1 14.15 9.64 9.26 o
-5 4 1 29.35 26.10 7.17 o
-4 4 1 13.15 10.00 5.77 o
-3 4 1 142.95 144.25 7.50 o
-2 4 1 0.72 0.00 4.08 o
-1 4 1 6.78 10.49 5.05 o
0 4 1 179.16 269.60 12.76 o
1 4 1 690.01 633.99 15.41 o
2 4 1 9.41 7.99 2.78 o
3 4 1 18.76 18.96 5.74 o
4 4 1 20.44 21.28 6.17 o
5 4 1 12.88 7.12 6.40 o
6 4 1 2.74 5.36 7.53 o
-6 5 1 294.36 244.06 15.03 o
-5 5 1 1063.20 1075.09 35.97 o
-4 5 1 79.52 81.72 8.90 o
-3 5 1 46.58 54.78 7.55 o
-2 5 1 1.75 6.94 6.30 o
-1 5 1 369.69 383.32 15.18 o
0 5 1 23.57 23.22 6.12 o
1 5 1 27.52 30.97 6.20 o
2 5 1 39.49 49.83 6.79 o
3 5 1 168.74 160.45 11.12 o
4 5 1 12.93 15.97 7.25 o
5 5 1 1.68 0.00 7.76 o
-6 6 1 41.80 49.27 16.48 o
-5 6 1 196.46 157.75 12.17 o
-4 6 1 63.28 61.49 11.30 o
-3 6 1 16.45 11.02 8.27 o
-2 6 1 84.14 91.31 9.75 o
-1 6 1 54.30 64.32 9.52 o
0 6 1 3.72 13.83 7.22 o
1 6 1 269.06 253.58 12.50 o
2 6 1 7.58 4.34 6.00 o
3 6 1 1.06 0.00 7.27 o
4 6 1 36.29 55.52 10.97 o
-5 7 1 934.34 687.69 26.87 o
-4 7 1 89.61 76.69 12.48 o
-3 7 1 19.71 14.11 9.16 o
-2 7 1 0.05 0.84 8.06 o
-1 7 1 61.52 47.38 10.15 o
0 7 1 18.15 9.11 8.22 o
1 7 1 27.89 21.43 8.16 o
2 7 1 65.76 84.07 10.97 o
3 7 1 40.96 48.35 12.14 o
-3 8 1 26.86 27.38 11.48 o
-2 8 1 46.75 47.33 11.84 o
-1 8 1 18.04 0.51 9.59 o
0 8 1 27.66 33.47 9.98 o
1 8 1 32.59 33.60 10.21 o
-1 -8 2 4.16 0.00 8.50 o
0 -8 2 41.44 54.96 11.10 o
1 -8 2 5.97 0.00 8.80 o
2 -8 2 52.75 70.39 12.35 o
3 -8 2 58.93 48.58 12.22 o
-3 -7 2 5.11 7.45 9.57 o
-2 -7 2 4.18 2.73 6.91 o
-1 -7 2 48.47 48.40 8.83 o
0 -7 2 18.44 19.06 8.06 o
1 -7 2 6.05 4.90 7.55 o
2 -7 2 5.92 9.62 8.39 o
3 -7 2 172.10 163.24 11.74 o
4 -7 2 174.24 149.54 11.84 o
5 -7 2 4.77 16.07 9.98 o
-5 -6 2 0.07 2.42 8.85 o
-4 -6 2 0.01 0.00 6.99 o
-3 -6 2 0.02 0.00 6.35 o
-2 -6 2 11.73 4.85 5.89 o
-1 -6 2 2.61 6.45 6.00 o
0 -6 2 13.00 11.63 6.74 o
1 -6 2 19.24 15.41 7.25 o
2 -6 2 348.73 336.65 15.38 o
3 -6 2 84.20 90.78 11.51 o
4 -6 2 84.75 73.02 10.74 o
5 -6 2 40.08 33.47 10.26 o
6 -6 2 98.29 98.94 19.21 o
-5 -5 2 1.70 6.76 6.56 o
-4 -5 2 0.04 0.00 5.59 o
-3 -5 2 18.93 23.93 6.86 o
-2 -5 2 8.00 17.73 5.15 o
-1 -5 2 44.91 52.92 7.19 o
0 -5 2 58.17 79.58 8.22 o
1 -5 2 85.20 97.61 7.60 o
2 -5 2 9.53 9.13 6.53 o
3 -5 2 148.69 198.34 11.40 o
4 -5 2 383.09 391.38 13.93 o
5 -5 2 6.73 24.14 7.99 o
6 -5 2 1.15 1.81 8.88 o
-6 -4 2 19.94 22.55 9.13 o
-5 -4 2 3.70 13.73 6.74 o
-4 -4 2 54.09 50.70 6.53 o
-3 -4 2 7.87 6.66 3.62 o
-2 -4 2 51.94 63.71 5.08 o
-1 -4 2 4.43 8.78 4.03 o
0 -4 2 296.08 296.31 11.20 o
1 -4 2 17.39 14.47 4.98 o
2 -4 2 738.12 862.21 21.28 o
3 -4 2 46.67 66.28 6.76 o
4 -4 2 39.83 49.73 7.02 o
5 -4 2 49.31 54.85 7.71 o
6 -4 2 1172.49 1062.23 35.80 o
7 -4 2 33.78 40.29 12.07 o
-7 -3 2 113.11 100.73 11.02 o
-6 -3 2 45.89 57.00 8.47 o
-5 -3 2 21.67 25.97 5.87 o
-4 -3 2 2.57 2.50 4.16 o
-3 -3 2 658.66 639.22 15.36 o
-2 -3 2 89.46 76.13 3.67 o
-1 -3 2 68.77 60.88 4.24 o
0 -3 2 90.34 92.23 5.05 o
1 -3 2 378.08 438.66 11.35 o
2 -3 2 27.03 36.03 4.46 o
3 -3 2 10.38 17.20 4.67 o
4 -3 2 192.45 208.52 8.75 o
5 -3 2 41.51 54.45 10.61 o
6 -3 2 112.84 122.29 11.69 o
7 -3 2 33.94 44.19 10.66 o
-7 -2 2 15.45 12.04 7.60 o
-6 -2 2 46.10 21.71 8.16 o
-5 -2 2 12.02 10.72 4.95 o
-4 -2 2 136.16 107.31 12.25 o
-3 -2 2 64.04 63.07 4.01 o
-2 -2 2 0.98 0.28 1.76 o
-1 -2 2 41.74 35.62 2.45 o
0 -2 2 1150.10 1071.06 27.48 o
1 -2 2 3.20 3.27 2.63 o
2 -2 2 138.85 173.31 6.35 o
3 -2 2 3.08 6.12 3.39 o
4 -2 2 2.69 0.03 3.78 o
5 -2 2 6.69 0.00 6.10 o
6 -2 2 2547.17 2690.97 75.55 o
7 -2 2 10.30 17.78 9.06 o
-7 -1 2 76.17 62.92 18.42 o
-6 -1 2 15.51 11.10 6.23 o
-5 -1 2 11.72 16.58 6.17 o
-4 -1 2 7.49 5.59 4.54 o
-3 -1 2 3048.09 3634.21 74.98 o
-2 -1 2 59.94 68.89 3.60 o
-1 -1 2 1294.01 1017.33 26.71 o
0 -1 2 17.46 14.85 1.22 o
1 -1 2 1140.44 1337.86 28.17 o
2 -1 2 7.71 5.61 2.42 o
3 -1 2 9.83 14.47 3.01 o
4 -1 2 5.03 3.98 3.04 o
5 -1 2 9.56 2.88 5.66 o
6 -1 2 136.94 147.37 10.33 o
7 -1 2 34.14 29.98 9.34 o
-7 0 2 0.21 3.37 7.99 o
-6 0 2 5.89 2.35 7.14 o
-5 0 2 0.80 3.21 5.77 o
-4 0 2 0.17 0.59 2.88 o
-3 0 2 127.07 136.04 5.18 o
-2 0 2 90.24 126.93 4.41 o
-1 0 2 7.90 9.98 1.66 o
0 0 2 2543.82 1797.36 45.69 o
1 0 2 6.64 7.14 1.33 o
2 0 2 144.05 142.70 4.21 o
3 0 2 0.72 3.39 3.47 o
4 0 2 0.65 4.80 4.31 o
5 0 2 4.08 2.63 5.56 o
6 0 2 1368.09 1583.53 47.12 o
7 0 2 0.19 4.95 7.93 o
-7 1 2 3.51 6.51 8.39 o
-6 1 2 5.31 2.42 7.04 o
-5 1 2 1.37 2.50 5.64 o
-4 1 2 4.60 7.78 3.80 o
-3 1 2 1650.20 2280.74 48.83 o
-2 1 2 150.25 178.29 6.12 o
-1 1 2 1754.44 1959.34 40.80 o
0 1 2 1.45 0.38 1.45 o
1 1 2 639.02 502.52 11.10 o
2 1 2 6.76 8.32 4.82 o
3 1 2 71.49 56.23 7.68 o
4 1 2 2.01 3.37 3.27 o
5 1 2 0.28 1.15 4.54 o
6 1 2 4.69 0.00 5.59 o
7 1 2 22.45 11.84 7.48 o
-7 2 2 10.76 20.08 9.90 o
-6 2 2 21.17 17.40 8.39 o
-5 2 2 16.52 9.16 6.89 o
-4 2 2 88.78 95.91 5.87 o
-3 2 2 8.88 6.07 3.72 o
-2 2 2 50.13 63.40 4.92 o
-1 2 2 932.33 1081.85 23.98 o
0 2 2 18693.58 17640.27 354.87 o
1 2 2 598.91 472.26 11.25 o
2 2 2 171.53 119.48 4.36 o
3 2 2 3.13 2.99 2.96 o
4 2 2 0.02 0.00 3.32 o
5 2 2 4.49 4.34 4.90 o
6 2 2 87.39 102.87 13.37 o
7 2 2 0.91 0.00 7.91 o
-7 3 2 72.93 107.34 14.06 o
-6 3 2 10.69 1.68 7.91 o
-5 3 2 33.97 47.48 7.25 o
-4 3 2 18.88 16.51 5.51 o
-3 3 2 1.86 5.26 4.24 o
-2 3 2 150.53 182.80 7.25 o
-1 3 2 53.74 60.77 4.26 o
0 3 2 0.86 0.41 2.17 o
1 3 2 252.23 236.28 7.02 o
2 3 2 5.89 5.72 2.40 o
3 3 2 168.65 137.01 5.20 o
4 3 2 0.54 0.00 3.88 o
5 3 2 0.83 0.00 4.77 o
6 3 2 16.26 17.50 6.94 o
-7 4 2 49.10 59.70 12.78 o
-6 4 2 3.47 8.90 9.24 o
-5 4 2 19.28 12.25 6.63 o
-4 4 2 4.11 3.32 5.54 o
-3 4 2 48.27 55.01 6.99 o
-2 4 2 149.95 130.35 6.84 o
-1 4 2 1364.80 1493.97 33.75 o
0 4 2 7147.44 7420.34 151.83 o
1 4 2 559.68 514.28 13.22 o
2 4 2 0.14 0.00 2.63 o
3 4 2 3.56 1.63 3.57 o
4 4 2 6.33 8.88 5.46 o
5 4 2 0.57 0.00 5.82 o
6 4 2 10.38 15.38 8.55 o
-6 5 2 0.68 3.34 9.18 o
-5 5 2 272.36 233.73 11.07 o
-4 5 2 9.76 0.77 6.45 o
-3 5 2 108.84 107.97 9.24 o
-2 5 2 3.55 0.00 5.10 o
-1 5 2 75.99 80.14 8.29 o
0 5 2 0.75 0.94 5.54 o
1 5 2 56.37 62.53 7.50 o
2 5 2 120.52 126.14 7.91 o
3 5 2 25.24 41.23 8.24 o
4 5 2 3.26 3.65 6.76 o
5 5 2 4.52 1.91 8.19 o
-6 6 2 35.38 19.80 14.19 o
-5 6 2 0.00 0.00 9.21 o
-4 6 2 134.51 129.58 10.54 o
-3 6 2 94.28 96.65 11.81 o
-2 6 2 66.69 96.31 11.46 o
-1 6 2 471.16 418.88 17.27 o
0 6 2 912.73 915.68 29.34 o
1 6 2 138.23 139.97 9.64 o
2 6 2 6.03 9.98 6.35 o
3 6 2 0.83 0.00 7.63 o
4 6 2 26.09 30.79 10.61 o
-5 7 2 509.95 319.66 17.25 o
-4 7 2 230.71 171.25 13.01 o
-3 7 2 13.93 16.30 9.06 o
-2 7 2 66.35 55.87 10.49 o
-1 7 2 88.47 105.19 12.25 o
0 7 2 0.17 0.69 7.25 o
1 7 2 0.68 4.06 7.81 o
2 7 2 118.81 102.51 12.04 o
3 7 2 0.29 0.00 9.26 o
-3 8 2 30.27 14.70 10.77 o
-2 8 2 0.63 0.00 9.82 o
-1 8 2 40.37 49.98 11.79 o
0 8 2 28.84 16.63 10.10 o
1 8 2 3.80 10.10 9.70 o
-1 -8 3 0.36 0.00 8.55 o
0 -8 3 57.27 68.15 11.48 o
1 -8 3 3.44 0.00 8.96 o
2 -8 3 3.15 13.57 10.08 o
3 -8 3 6.22 3.57 10.10 o
-3 -7 3 0.33 0.00 8.42 o
-2 -7 3 0.64 0.97 6.81 o
-1 -7 3 15.58 13.55 7.32 o
0 -7 3 19.70 18.22 8.11 o
1 -7 3 136.45 134.15 10.56 o
2 -7 3 35.38 37.22 9.75 o
3 -7 3 1.04 0.00 8.34 o
4 -7 3 9.92 16.18 9.59 o
-5 -6 3 0.86 0.00 8.32 o
-4 -6 3 1.73 0.84 7.78 o
-3 -6 3 0.17 0.00 6.30 o
-2 -6 3 130.01 133.36 8.47 o
-1 -6 3 12.71 23.27 6.35 o
0 -6 3 21.19 21.15 7.02 o
1 -6 3 28.66 30.16 7.99 o
2 -6 3 130.52 151.01 10.26 o
3 -6 3 14.27 14.44 7.76 o
4 -6 3 11.38 6.66 8.14 o
5 -6 3 83.81 90.55 12.22 o
6 -6 3 121.29 124.91 19.19 o
-5 -5 3 23.24 35.26 8.29 o
-4 -5 3 30.19 33.98 8.22 o
-3 -5 3 0.40 0.00 4.18 o
-2 -5 3 0.00 1.76 4.29 o
-1 -5 3 8.04 5.23 4.77 o
0 -5 3 93.60 98.28 7.78 o
1 -5 3 98.89 110.24 8.62 o
2 -5 3 98.06 102.72 8.01 o
3 -5 3 246.55 283.28 13.19 o
4 -5 3 0.00 0.00 6.79 o
5 -5 3 119.82 117.13 8.75 o
6 -5 3 1.44 0.92 8.96 o
-6 -4 3 113.06 113.97 11.20 o
-5 -4 3 0.01 0.15 6.63 o
-4 -4 3 2.91 4.67 5.23 o
-3 -4 3 34.44 41.77 4.80 o
-2 -4 3 44.69 44.52 4.59 o
-1 -4 3 27.98 28.35 4.67 o
0 -4 3 0.99 5.69 3.93 o
1 -4 3 20.50 15.51 5.18 o
2 -4 3 549.82 722.93 18.37 o
3 -4 3 105.77 121.57 6.86 o
4 -4 3 33.59 30.85 6.23 o
5 -4 3 16.79 12.88 6.28 o
6 -4 3 265.70 225.06 14.06 o
7 -4 3 3.41 0.59 10.05 o
-7 -3 3 89.85 95.11 11.97 o
-6 -3 3 5.01 0.00 8.16 o
-5 -3 3 0.00 0.00 3.70 o
-4 -3 3 55.82 49.16 5.33 o
-3 -3 3 63.64 73.25 4.11 o
-2 -3 3 28.86 25.51 2.99 o
-1 -3 3 158.98 139.38 5.79 o
0 -3 3 120.34 110.04 5.43 o
1 -3 3 289.38 282.97 8.14 o
2 -3 3 68.91 82.43 4.77 o
3 -3 3 598.10 758.21 19.24 o
4 -3 3 13.33 17.40 4.95 o
5 -3 3 230.00 250.03 13.17 o
6 -3 3 6.71 7.27 8.14 o
7 -3 3 4.00 2.60 9.08 o
-7 -2 3 0.09 1.25 8.50 o
-6 -2 3 136.90 141.55 21.48 o
-5 -2 3 0.23 2.81 4.80 o
-4 -2 3 31.77 36.64 10.95 o
-3 -2 3 81.47 94.27 4.92 o
-2 -2 3 538.13 503.71 12.02 o
-1 -2 3 2.52 1.28 1.56 o
0 -2 3 0.14 1.20 1.56 o
1 -2 3 0.04 1.71 2.35 o
2 -2 3 477.32 649.04 15.72 o
3 -2 3 29.85 37.84 4.36 o
4 -2 3 267.54 295.40 9.77 o
5 -2 3 30.36 31.28 7.65 o
6 -2 3 255.67 275.47 14.31 o
7 -2 3 0.24 0.23 8.39 o
-7 -1 3 42.44 43.65 18.06 o
-6 -1 3 3.17 0.00 6.63 o
-5 -1 3 39.84 44.90 7.78 o
-4 -1 3 5.80 7.02 4.82 o
-3 -1 3 821.69 964.46 27.96 o
-2 -1 3 96.95 107.49 4.01 o
-1 -1 3 577.16 466.52 13.19 o
0 -1 3 6.16 4.87 1.86 o
1 -1 3 3279.34 3379.10 68.94 o
2 -1 3 3.80 3.85 2.25 o
3 -1 3 111.82 120.12 4.80 o
4 -1 3 2.85 0.31 2.83 o
5 -1 3 2425.23 2671.63 73.02 o
6 -1 3 8.69 9.98 6.84 o
7 -1 3 5.51 6.86 8.44 o
-7 0 3 1.19 0.00 7.86 o
-6 0 3 70.14 81.95 10.61 o
-5 0 3 2.73 0.00 5.20 o
-4 0 3 67.66 97.84 5.00 o
-3 0 3 63.36 72.33 3.83 o
-2 0 3 4054.91 4450.69 90.73 o
-1 0 3 1.31 1.79 1.71 o
0 0 3 12.44 13.68 2.09 o
1 0 3 5.51 6.58 2.22 o
2 0 3 11.90 14.87 2.14 o
3 0 3 3.17 3.98 1.96 o
4 0 3 174.31 219.75 9.90 o
5 0 3 121.35 105.88 7.99 o
6 0 3 132.80 154.97 10.38 o
7 0 3 2.03 0.00 13.93 o
-7 1 3 9.35 5.36 8.93 o
-6 1 3 7.99 2.73 7.02 o
-5 1 3 3.09 0.05 5.66 o
-4 1 3 49.80 70.19 5.38 o
-3 1 3 1455.05 1965.39 42.56 o
-2 1 3 50.29 61.18 3.85 o
-1 1 3 125.51 137.65 4.85 o
0 1 3 3.67 5.20 1.84 o
1 1 3 337.21 250.29 6.25 o
2 1 3 3.17 2.68 1.43 o
4 1 3 90.07 93.97 10.64 o
6 1 3 99.75 106.83 14.49 o
7 1 3 16.44 9.54 7.83 o
-7 2 3 0.66 0.10 8.65 o
-6 2 3 40.70 41.43 9.29 o
-5 2 3 5.46 7.04 5.13 o
-4 2 3 53.90 81.57 5.61 o
-3 2 3 2.79 2.35 3.60 o
-2 2 3 1212.22 1671.75 36.51 o
-1 2 3 212.45 223.81 7.04 o
0 2 3 910.03 766.38 17.35 o
1 2 3 9.34 7.73 2.07 o
2 2 3 416.24 308.82 8.16 o
3 2 3 12.86 12.30 3.50 o
4 2 3 20.03 17.71 4.57 o
5 2 3 97.07 104.91 12.45 o
6 2 3 19.59 9.70 6.28 o
7 2 3 51.21 44.90 15.69 o
-7 3 3 125.24 139.58 15.59 o
-6 3 3 12.44 3.78 7.78 o
-5 3 3 197.86 201.15 9.29 o
-4 3 3 73.91 93.10 7.22 o
-3 3 3 472.70 499.50 14.57 o
-2 3 3 18.74 26.74 4.59 o
-1 3 3 154.10 191.28 6.89 o
0 3 3 7.46 12.94 3.04 o
1 3 3 905.04 918.59 20.84 o
2 3 3 3.82 4.75 2.47 o
3 3 3 316.58 291.52 10.31 o
4 3 3 92.18 90.29 5.87 o
5 3 3 695.47 755.28 24.14 o
6 3 3 91.20 95.47 7.83 o
-7 4 3 11.38 1.07 10.56 o
-6 4 3 39.74 39.09 10.36 o
-5 4 3 48.24 64.91 8.47 o
-4 4 3 30.69 42.76 7.25 o
-3 4 3 19.98 20.67 5.72 o
-2 4 3 27.46 18.42 5.05 o
-1 4 3 86.98 86.87 5.26 o
0 4 3 1190.84 1219.01 27.86 o
1 4 3 247.58 235.01 7.71 o
2 4 3 47.13 47.97 4.11 o
3 4 3 48.66 49.09 4.36 o
4 4 3 88.54 83.71 8.11 o
5 4 3 37.80 55.44 9.21 o
6 4 3 0.01 0.00 7.83 o
-6 5 3 0.83 2.35 9.18 o
-5 5 3 150.32 137.37 9.03 o
-4 5 3 14.96 15.95 6.94 o
-3 5 3 71.51 67.00 8.01 o
-2 5 3 22.71 23.01 7.53 o
-1 5 3 294.29 326.75 14.34 o
0 5 3 9.52 9.29 5.97 o
1 5 3 944.99 956.02 28.91 o
2 5 3 19.90 16.12 5.84 o
3 5 3 42.99 62.84 10.31 o
4 5 3 16.91 20.10 8.27 o
5 5 3 31.36 40.75 10.10 o
-6 6 3 31.38 19.65 11.02 o
-5 6 3 29.25 31.10 10.44 o
-4 6 3 117.97 121.70 13.60 o
-3 6 3 15.44 0.08 8.19 o
-2 6 3 168.30 154.38 11.10 o
-1 6 3 16.02 11.94 7.76 o
0 6 3 469.95 475.09 18.62 o
1 6 3 404.55 366.83 15.44 o
2 6 3 2.57 0.00 6.53 o
3 6 3 8.32 0.00 8.22 o
4 6 3 16.76 19.93 10.15 o
-4 7 3 1.02 0.00 9.85 o
-3 7 3 28.90 48.17 10.77 o
-2 7 3 19.29 13.37 9.34 o
-1 7 3 113.81 106.72 10.77 o
0 7 3 0.34 0.00 8.06 o
1 7 3 231.05 219.11 13.11 o
2 7 3 0.99 3.95 9.67 o
3 7 3 1.31 0.00 9.54 o
-2 8 3 7.98 9.21 10.49 o
-1 8 3 79.22 66.46 12.68 o
0 8 3 49.64 43.65 11.00 o
1 8 3 227.16 209.13 13.98 o
-1 -8 4 2.06 0.38 8.83 o
0 -8 4 2.65 5.64 9.36 o
1 -8 4 5.94 0.00 9.16 o
2 -8 4 0.06 1.91 9.82 o
3 -8 4 24.23 19.21 10.84 o
-3 -7 4 0.90 6.53 9.36 o
-2 -7 4 133.54 142.62 9.92 o
-1 -7 4 177.35 162.16 10.41 o
0 -7 4 22.73 36.00 8.50 o
1 -7 4 0.03 2.99 7.45 o
2 -7 4 28.34 17.53 8.65 o
3 -7 4 0.00 0.00 8.29 o
4 -7 4 0.58 6.10 9.39 o
-5 -6 4 0.42 1.33 7.91 o
-4 -6 4 18.49 29.80 9.11 o
-3 -6 4 5.20 3.06 7.14 o
-2 -6 4 94.05 113.08 7.93 o
-1 -6 4 23.09 18.24 6.58 o
0 -6 4 55.95 80.44 9.36 o
1 -6 4 21.58 22.76 7.17 o
2 -6 4 60.91 82.94 10.41 o
3 -6 4 63.80 72.97 10.21 o
4 -6 4 55.99 57.46 9.85 o
5 -6 4 9.31 3.32 8.80 o
-5 -5 4 91.26 90.96 9.18 o
-4 -5 4 0.15 0.00 5.72 o
-3 -5 4 0.23 0.38 3.85 o
-2 -5 4 93.09 98.07 6.48 o
-1 -5 4 644.19 665.32 20.90 o
0 -5 4 18.40 23.24 6.05 o
1 -5 4 5.36 3.65 5.59 o
2 -5 4 71.73 75.67 7.91 o
3 -5 4 567.53 632.63 21.97 o
4 -5 4 39.33 53.88 9.01 o
5 -5 4 31.71 28.09 7.50 o
6 -5 4 45.42 32.76 10.18 o
-6 -4 4 37.00 46.05 10.10 o
-5 -4 4 0.82 2.53 6.40 o
-4 -4 4 136.95 138.92 9.82 o
-3 -4 4 1.55 2.17 3.21 o
-2 -4 4 16.30 26.15 4.26 o
-1 -4 4 50.21 59.45 5.03 o
0 -4 4 316.92 319.53 11.61 o
1 -4 4 46.00 49.27 4.41 o
2 -4 4 710.47 776.81 19.42 o
3 -4 4 57.31 75.90 7.04 o
4 -4 4 133.25 116.65 7.19 o
5 -4 4 1.84 0.89 7.09 o
6 -4 4 259.78 253.89 14.47 o
7 -4 4 32.30 33.88 11.43 o
-7 -3 4 0.05 0.00 10.13 o
-6 -3 4 43.21 0.00 7.76 o
-5 -3 4 60.30 76.64 14.49 o
-4 -3 4 1.89 3.65 4.34 o
-3 -3 4 13.37 11.12 2.96 o
-2 -3 4 36.90 34.65 3.01 o
-1 -3 4 1237.35 1094.51 28.70 o
0 -3 4 7.27 7.02 3.24 o
1 -3 4 0.04 1.45 2.42 o
2 -3 4 66.04 72.38 4.64 o
3 -3 4 2279.78 2938.53 62.76 o
4 -3 4 68.65 74.35 6.17 o
5 -3 4 51.76 67.13 9.47 o
6 -3 4 24.06 19.26 8.70 o
7 -3 4 20.20 14.19 9.90 o
-7 -2 4 32.37 12.37 8.39 o
-5 -2 4 3.39 0.79 4.90 o
-4 -2 4 34.24 19.06 7.19 o
-3 -2 4 14.78 17.17 3.62 o
-2 -2 4 229.37 161.88 5.77 o
-1 -2 4 28.66 26.56 2.14 o
0 -2 4 25.97 30.41 2.19 o
1 -2 4 26.27 25.67 2.88 o
2 -2 4 1850.96 2584.76 54.34 o
3 -2 4 0.83 0.15 3.14 o
4 -2 4 48.43 58.30 5.59 o
5 -2 4 0.98 2.86 5.69 o
6 -2 4 0.31 0.00 6.86 o
7 -2 4 1.14 0.00 8.01 o
-7 -1 4 102.20 132.77 22.45 o
-6 -1 4 93.68 103.48 9.77 o
-5 -1 4 10.97 24.75 6.94 o
-4 -1 4 1.51 0.89 2.76 o
-3 -1 4 493.24 519.56 16.81 o
-2 -1 4 24.93 26.84 2.63 o
-1 -1 4 399.60 309.48 9.67 o
0 -1 4 1.10 0.74 1.22 o
1 -1 4 4.49 4.16 1.91 o
2 -1 4 1.27 0.28 1.91 o
3 -1 4 1743.36 2136.84 45.26 o
4 -1 4 0.05 0.00 4.29 o
5 -1 4 7.61 14.49 6.48 o
6 -1 4 5.21 5.82 7.27 o
7 -1 4 3.25 3.14 8.11 o
-7 0 4 40.90 68.73 11.71 o
-6 0 4 467.72 459.12 19.19 o
-5 0 4 4.98 4.49 5.84 o
-4 0 4 120.66 116.65 5.49 o
-3 0 4 70.97 81.13 4.24 o
-2 0 4 729.36 697.06 16.12 o
-1 0 4 0.72 2.02 1.89 o
0 0 4 1300.24 1002.40 26.59 o
1 0 4 1.98 1.25 0.94 o
2 0 4 633.85 689.30 15.36 o
3 0 4 18.58 23.91 2.86 o
4 0 4 9.84 17.25 5.10 o
5 0 4 16.79 19.59 6.30 o
6 0 4 629.25 634.98 35.92 o
7 0 4 2.89 16.84 7.48 o
-7 1 4 285.77 277.77 15.69 o
-6 1 4 43.18 47.76 9.31 o
-5 1 4 53.95 67.15 9.08 o
-4 1 4 11.42 12.12 4.24 o
-3 1 4 2795.28 3827.70 79.91 o
-2 1 4 32.91 38.27 3.88 o
-1 1 4 253.49 279.60 7.78 o
0 1 4 84.07 68.38 3.27 o
1 1 4 196.55 146.22 4.44 o
2 1 4 35.99 32.07 2.50 o
3 1 4 40.60 63.27 9.49 o
4 1 4 37.67 69.27 12.27 o
5 1 4 69.48 67.05 14.11 o
6 1 4 10.31 2.86 6.33 o
7 1 4 23.81 14.98 8.55 o
-7 2 4 10.11 4.08 9.72 o
-6 2 4 244.94 230.06 13.50 o
-5 2 4 0.89 0.00 4.92 o
-4 2 4 122.52 134.15 6.79 o
-3 2 4 131.01 136.24 6.45 o
-2 2 4 117.05 117.39 5.43 o
-1 2 4 42.36 46.13 3.78 o
0 2 4 1132.82 1086.98 23.88 o
1 2 4 0.31 0.31 1.96 o
2 2 4 55.04 39.55 2.86 o
3 2 4 11.21 9.21 2.68 o
4 2 4 8.22 7.68 4.08 o
5 2 4 35.55 36.15 6.28 o
6 2 4 988.10 1135.61 54.06 o
7 2 4 13.46 3.39 7.30 o
-7 3 4 105.84 119.74 14.85 o
-6 3 4 0.92 1.38 8.32 o
-5 3 4 7.75 0.54 5.61 o
-4 3 4 8.72 6.07 5.05 o
-3 3 4 2283.48 2882.68 62.28 o
-2 3 4 531.54 573.06 15.33 o
-1 3 4 322.61 348.41 10.21 o
0 3 4 110.34 94.58 4.44 o
1 3 4 400.37 416.94 11.10 o
2 3 4 42.35 38.37 3.50 o
3 3 4 71.85 64.14 4.64 o
4 3 4 0.72 3.55 3.85 o
5 3 4 181.05 158.64 8.73 o
6 3 4 5.66 3.62 6.74 o
-7 4 4 2.83 0.00 10.49 o
-6 4 4 8.03 4.98 9.06 o
-5 4 4 33.86 35.54 7.58 o
-4 4 4 2.88 2.50 5.26 o
-3 4 4 44.27 48.55 6.84 o
-2 4 4 0.92 0.31 4.57 o
-1 4 4 377.28 377.52 11.48 o
0 4 4 26.56 32.12 4.46 o
1 4 4 34.17 34.85 4.16 o
2 4 4 16.95 12.65 3.80 o
3 4 4 3.32 1.96 3.85 o
4 4 4 0.52 0.00 6.15 o
5 4 4 11.88 12.99 7.42 o
6 4 4 310.16 266.16 16.23 o
-6 5 4 14.91 4.75 10.13 o
-5 5 4 1.72 3.06 7.19 o
-4 5 4 105.07 108.79 9.18 o
-3 5 4 462.42 498.92 16.02 o
-2 5 4 502.90 464.07 14.52 o
-1 5 4 81.04 100.50 9.16 o
0 5 4 16.81 18.75 7.07 o
1 5 4 315.16 318.89 13.73 o
2 5 4 0.39 0.00 5.31 o
3 5 4 10.43 7.65 6.97 o
4 5 4 21.12 16.86 7.96 o
5 5 4 64.55 73.96 11.79 o
-5 6 4 47.73 45.13 11.74 o
-4 6 4 64.91 68.43 12.04 o
-3 6 4 1.24 5.36 8.19 o
-2 6 4 44.92 36.84 9.34 o
-1 6 4 496.25 487.21 19.59 o
0 6 4 278.79 262.36 13.60 o
1 6 4 59.14 67.82 9.29 o
2 6 4 36.52 30.64 10.05 o
3 6 4 2.19 0.00 8.78 o
4 6 4 0.83 0.00 9.92 o
-4 7 4 70.28 62.18 12.65 o
-3 7 4 16.68 9.67 9.92 o
-2 7 4 79.96 73.61 11.66 o
-1 7 4 0.31 0.00 8.55 o
0 7 4 0.00 0.00 7.99 o
1 7 4 149.46 149.51 12.04 o
2 7 4 40.51 54.09 13.04 o
3 7 4 5.55 2.17 11.30 o
-2 8 4 44.30 35.62 11.46 o
-1 8 4 253.87 225.11 14.85 o
0 8 4 140.19 136.80 15.16 o
-1 -8 5 1.13 8.60 8.62 o
0 -8 5 105.30 125.04 13.47 o
1 -8 5 6.24 1.45 9.21 o
2 -8 5 0.49 0.56 10.03 o
-3 -7 5 24.26 26.59 10.97 o
-2 -7 5 6.21 1.40 6.89 o
-1 -7 5 65.66 82.56 10.21 o
0 -7 5 23.83 27.22 8.39 o
1 -7 5 80.86 99.89 11.76 o
2 -7 5 8.68 3.70 8.47 o
3 -7 5 0.72 0.54 8.70 o
4 -7 5 0.97 7.02 9.41 o
-4 -6 5 25.29 31.92 8.85 o
-3 -6 5 16.13 29.60 8.50 o
-2 -6 5 7.38 8.42 6.00 o
-1 -6 5 0.47 0.00 5.72 o
0 -6 5 180.48 197.58 10.82 o
1 -6 5 0.29 9.29 7.19 o
2 -6 5 0.14 1.25 7.25 o
3 -6 5 3.94 6.48 8.06 o
4 -6 5 159.89 162.01 11.35 o
5 -6 5 30.67 24.80 9.75 o
-5 -5 5 23.24 46.13 9.26 o
-4 -5 5 5.24 0.00 6.05 o
-3 -5 5 1.14 1.73 4.39 o
-2 -5 5 17.01 22.68 5.23 o
-1 -5 5 552.77 574.87 18.75 o
0 -5 5 98.11 105.65 7.12 o
1 -5 5 10.95 15.79 6.12 o
2 -5 5 29.65 39.16 7.81 o
3 -5 5 40.15 50.90 8.96 o
4 -5 5 0.38 0.26 6.66 o
5 -5 5 7.75 5.59 7.55 o
6 -5 5 2.31 21.66 16.15 o
-6 -4 5 3.83 2.45 8.65 o
-5 -4 5 0.30 0.79 6.86 o
-4 -4 5 96.84 81.57 7.68 o
-3 -4 5 7.03 8.19 3.70 o
-2 -4 5 75.73 68.15 4.80 o
-1 -4 5 43.95 46.72 4.82 o
0 -4 5 86.97 89.02 5.87 o
1 -4 5 18.15 15.59 3.34 o
2 -4 5 78.98 85.27 5.28 o
3 -4 5 4.59 4.69 4.69 o
4 -4 5 15.50 16.10 5.59 o
5 -4 5 42.48 33.83 8.73 o
6 -4 5 3.95 3.32 8.29 o
-7 -3 5 2.75 4.49 11.53 o
-6 -3 5 0.10 0.00 7.88 o
-5 -3 5 9.43 0.94 5.69 o
-4 -3 5 32.10 34.26 5.87 o
-3 -3 5 56.11 41.54 3.70 o
-2 -3 5 71.29 65.26 3.60 o
-1 -3 5 1865.59 1652.85 35.06 o
0 -3 5 163.94 142.93 6.23 o
1 -3 5 74.55 70.93 3.78 o
2 -3 5 25.03 24.31 4.03 o
3 -3 5 0.02 0.00 3.90 o
4 -3 5 1.64 1.28 4.44 o
5 -3 5 62.89 80.11 10.03 o
6 -3 5 0.20 0.00 7.50 o
7 -3 5 0.80 9.06 15.61 o
-7 -2 5 5.47 4.26 8.57 o
-6 -2 5 11.20 8.32 6.81 o
-5 -2 5 6.56 3.98 4.98 o
-4 -2 5 149.70 137.47 6.91 o
-3 -2 5 0.16 0.05 2.35 o
-2 -2 5 520.30 480.80 15.03 o
-1 -2 5 110.79 84.71 3.29 o
0 -2 5 4.27 4.18 1.84 o
1 -2 5 3.45 5.66 2.37 o
2 -2 5 929.61 1210.75 26.74 o
3 -2 5 9.77 13.60 3.47 o
4 -2 5 3.30 4.08 3.65 o
5 -2 5 9.81 5.74 6.02 o
6 -2 5 77.59 84.60 10.46 o
7 -2 5 3.77 1.94 14.13 o
-7 -1 5 50.85 46.66 9.16 o
-6 -1 5 2.88 0.00 7.12 o
-5 -1 5 52.73 77.38 8.06 o
-4 -1 5 29.12 37.68 4.24 o
-3 -1 5 37.97 37.12 3.83 o
-2 -1 5 29.98 31.64 2.86 o
-1 -1 5 919.41 834.78 22.99 o
0 -1 5 9.03 7.07 2.60 o
1 -1 5 24.91 33.40 3.67 o
2 -1 5 0.38 1.20 1.99 o
3 -1 5 115.36 154.10 5.54 o
4 -1 5 0.36 1.22 4.34 o
5 -1 5 12.87 0.51 5.66 o
6 -1 5 1.51 0.00 6.89 o
7 -1 5 3.25 5.69 8.65 o
-7 0 5 24.67 23.80 10.64 o
-6 0 5 53.20 64.37 9.92 o
-5 0 5 0.26 0.00 6.02 o
-4 0 5 43.09 56.51 4.69 o
-3 0 5 1.34 0.00 2.55 o
-2 0 5 156.18 128.26 4.85 o
-1 0 5 0.38 0.00 1.94 o
0 0 5 33.76 36.84 3.72 o
1 0 5 0.01 0.00 2.30 o
2 0 5 1707.72 1752.07 45.82 o
3 0 5 28.27 34.21 4.39 o
4 0 5 58.50 54.45 6.38 o
5 0 5 7.86 8.55 5.00 o
7 0 5 0.08 4.64 7.81 o
-7 1 5 203.95 211.79 13.68 o
-6 1 5 14.76 15.08 8.44 o
-5 1 5 0.00 2.63 6.25 o
-4 1 5 17.39 22.30 4.64 o
-3 1 5 35.86 47.63 4.77 o
-2 1 5 2.69 0.64 2.78 o
-1 1 5 0.78 2.09 2.47 o
0 1 5 133.59 110.45 4.75 o
1 1 5 986.27 742.45 16.48 o
2 1 5 13.47 13.27 2.30 o
3 1 5 158.73 113.18 5.84 o
4 1 5 64.90 72.89 9.44 o
6 1 5 22.09 16.35 6.63 o
7 1 5 14.19 3.32 8.27 o
-7 2 5 72.28 79.12 13.01 o
-6 2 5 35.21 36.28 9.72 o
-5 2 5 35.44 34.95 6.25 o
-4 2 5 3.50 5.49 4.72 o
-3 2 5 7.31 4.98 4.03 o
-2 2 5 645.77 725.78 17.94 o
-1 2 5 11.79 12.65 3.16 o
0 2 5 62.51 65.37 3.65 o
1 2 5 40.16 34.26 3.14 o
2 2 5 579.60 486.80 12.09 o
3 2 5 108.02 90.55 4.34 o
4 2 5 145.72 132.01 6.99 o
5 2 5 41.03 44.67 6.58 o
6 2 5 240.14 224.67 11.38 o
-7 3 5 118.13 102.79 14.31 o
-6 3 5 34.08 31.10 9.77 o
-5 3 5 25.01 14.93 6.20 o
-4 3 5 151.40 146.83 7.93 o
-3 3 5 90.19 86.36 5.92 o
-2 3 5 40.54 43.12 5.13 o
-1 3 5 31.96 35.00 4.46 o
0 3 5 136.01 140.20 5.77 o
1 3 5 1019.59 974.93 22.48 o
2 3 5 8.06 7.35 3.16 o
3 3 5 32.02 32.07 4.77 o
4 3 5 167.26 154.46 7.65 o
5 3 5 326.53 284.53 11.94 o
6 3 5 54.51 65.09 8.52 o
-7 4 5 12.50 10.59 11.79 o
-6 4 5 4.24 5.89 9.21 o
-5 4 5 40.39 34.42 7.58 o
-4 4 5 36.83 45.95 6.53 o
-3 4 5 14.63 25.18 6.23 o
-2 4 5 731.23 764.00 20.05 o
-1 4 5 35.27 42.35 5.46 o
0 4 5 0.14 2.12 3.42 o
1 4 5 30.06 32.22 4.41 o
2 4 5 33.02 39.75 4.24 o
3 4 5 17.86 17.27 4.77 o
4 4 5 17.92 16.61 5.46 o
5 4 5 39.64 46.05 9.72 o
6 4 5 92.39 86.11 10.72 o
-6 5 5 29.49 39.78 9.29 o
-5 5 5 1.38 4.24 7.32 o
-4 5 5 94.78 83.74 9.21 o
-3 5 5 0.61 0.00 5.74 o
-2 5 5 98.11 105.19 7.91 o
-1 5 5 1.55 2.45 6.74 o
0 5 5 12.47 12.88 6.86 o
1 5 5 55.88 50.77 8.14 o
2 5 5 0.76 0.00 5.54 o
3 5 5 0.05 7.73 9.11 o
4 5 5 125.45 129.33 11.79 o
5 5 5 155.50 171.45 13.80 o
-5 6 5 0.38 2.68 9.90 o
-4 6 5 29.28 12.71 9.72 o
-3 6 5 14.67 18.17 9.39 o
-2 6 5 70.64 80.37 11.25 o
-1 6 5 50.14 42.84 9.82 o
0 6 5 55.98 62.97 10.08 o
1 6 5 2.99 1.56 7.37 o
2 6 5 6.95 0.00 8.90 o
3 6 5 3.92 0.00 9.49 o
4 6 5 10.11 10.64 11.12 o
-4 7 5 11.85 0.00 10.44 o
-3 7 5 4.94 6.63 10.26 o
-2 7 5 127.98 112.18 13.57 o
-1 7 5 26.64 19.08 9.82 o
0 7 5 5.38 0.84 8.55 o
1 7 5 43.96 37.58 10.10 o
2 7 5 12.59 0.00 11.23 o
-1 -8 6 1.07 6.20 9.13 o
0 -8 6 32.88 55.95 10.84 o
1 -8 6 4.17 0.61 9.44 o
2 -8 6 4.75 0.00 10.10 o
-3 -7 6 3.88 6.97 10.23 o
-2 -7 6 53.72 75.85 9.77 o
-1 -7 6 31.55 33.81 7.96 o
0 -7 6 13.54 15.69 8.11 o
1 -7 6 115.91 110.86 9.87 o
2 -7 6 0.56 1.00 8.09 o
3 -7 6 25.58 23.19 9.95 o
4 -7 6 33.15 27.30 14.42 o
-4 -6 6 383.12 411.97 21.69 o
-3 -6 6 117.29 115.50 10.61 o
-2 -6 6 0.40 2.22 5.56 o
-1 -6 6 5.19 6.10 5.94 o
0 -6 6 6.71 3.78 6.63 o
1 -6 6 9.80 2.27 6.91 o
2 -6 6 44.91 48.58 8.85 o
3 -6 6 3.08 0.00 7.42 o
4 -6 6 78.96 83.40 16.76 o
5 -6 6 41.79 34.52 14.67 o
-5 -5 6 29.31 37.15 9.18 o
-4 -5 6 47.04 47.10 8.44 o
-3 -5 6 11.51 9.54 4.54 o
-2 -5 6 193.13 205.56 9.13 o
-1 -5 6 21.59 32.40 6.05 o
0 -5 6 20.21 26.74 6.15 o
1 -5 6 77.81 73.89 8.50 o
2 -5 6 26.52 26.97 7.45 o
3 -5 6 68.08 79.93 9.72 o
4 -5 6 1.11 0.84 6.81 o
-6 -4 6 21.35 15.87 8.96 o
-5 -4 6 4.59 3.70 6.71 o
-4 -4 6 241.86 211.97 12.50 o
-3 -4 6 68.26 60.52 4.67 o
-2 -4 6 46.60 48.78 4.64 o
-1 -4 6 31.78 41.97 5.05 o
0 -4 6 90.48 89.73 5.84 o
1 -4 6 25.97 25.00 3.80 o
2 -4 6 0.15 1.89 3.85 o
3 -4 6 17.77 23.47 5.13 o
4 -4 6 0.64 0.87 5.03 o
5 -4 6 15.98 0.00 12.09 o
6 -4 6 1.00 0.00 13.14 o
-6 -3 6 5.65 0.00 9.34 o
-5 -3 6 3.50 0.00 7.45 o
-4 -3 6 16.82 17.81 4.49 o
-3 -3 6 33.26 37.38 4.18 o
-2 -3 6 111.19 102.13 4.64 o
-1 -3 6 707.87 669.88 15.67 o
0 -3 6 11.39 8.47 2.45 o
1 -3 6 16.33 16.18 3.01 o
2 -3 6 48.41 45.92 4.59 o
3 -3 6 111.53 135.68 6.58 o
4 -3 6 0.24 2.17 4.16 o
5 -3 6 34.02 33.19 8.09 o
6 -3 6 0.84 0.61 13.45 o
7 -3 6 27.76 29.03 17.15 o
-7 -2 6 3.26 5.15 9.18 o
-6 -2 6 1.26 2.65 6.89 o
-5 -2 6 0.93 0.00 5.08 o
-4 -2 6 10.90 6.71 3.21 o
-3 -2 6 12.40 8.96 3.21 o
-2 -2 6 131.71 152.37 6.99 o
-1 -2 6 71.68 64.12 2.96 o
0 -2 6 646.60 570.43 16.74 o
1 -2 6 12.26 12.14 2.60 o
2 -2 6 458.33 477.23 12.07 o
3 -2 6 6.31 5.05 3.21 o
4 -2 6 95.14 97.54 5.33 o
5 -2 6 0.52 0.00 6.02 o
6 -2 6 312.05 319.58 24.42 o
7 -2 6 6.34 3.39 14.80 o
-7 -1 6 0.01 13.29 8.60 o
-6 -1 6 23.50 28.58 8.83 o
-5 -1 6 87.85 93.89 8.70 o
-4 -1 6 13.09 8.55 3.57 o
-3 -1 6 28.31 37.99 3.98 o
-2 -1 6 0.40 0.94 2.22 o
-1 -1 6 2402.92 2160.67 56.28 o
0 -1 6 9.74 10.89 3.11 o
1 -1 6 21.89 24.62 3.60 o
2 -1 6 0.31 0.00 1.96 o
3 -1 6 1646.38 1914.72 40.80 o
4 -1 6 1.76 2.32 4.69 o
5 -1 6 46.94 56.72 8.01 o
6 -1 6 9.25 0.00 12.22 o
7 -1 6 72.05 82.20 19.36 o
-7 0 6 1.62 3.55 9.29 o
-6 0 6 281.16 278.74 14.49 o
-5 0 6 9.70 2.93 6.23 o
-4 0 6 193.15 184.16 7.30 o
-3 0 6 0.19 0.00 2.63 o
-2 0 6 0.69 0.94 2.32 o
-1 0 6 39.20 36.48 2.99 o
0 0 6 632.86 551.25 16.12 o
1 0 6 6.83 12.14 3.09 o
2 0 6 1001.03 1041.54 28.68 o
3 0 6 8.39 3.27 2.27 o
4 0 6 27.30 17.68 5.56 o
5 0 6 0.50 4.90 4.72 o
7 0 6 0.02 1.76 14.29 o
-7 1 6 11.21 7.96 9.47 o
-6 1 6 80.39 88.71 11.63 o
-5 1 6 32.88 30.79 5.84 o
-4 1 6 40.52 36.74 5.43 o
-3 1 6 59.95 61.21 4.62 o
-2 1 6 4.17 2.86 2.93 o
-1 1 6 795.95 707.87 16.69 o
0 1 6 32.57 33.35 2.99 o
1 1 6 130.83 85.60 3.93 o
2 1 6 82.24 60.37 3.04 o
3 1 6 1960.43 1778.70 37.89 o
4 1 6 66.62 73.12 9.26 o
5 1 6 40.43 17.83 7.83 o
6 1 6 0.09 0.00 6.38 o
7 1 6 52.20 63.89 17.09 o
-7 2 6 4.68 10.54 9.72 o
-6 2 6 759.98 674.27 25.59 o
-5 2 6 10.87 11.00 5.64 o
-4 2 6 3.21 0.15 4.52 o
-3 2 6 1.20 3.44 4.01 o
-2 2 6 222.46 242.38 8.39 o
-1 2 6 2.04 2.76 3.01 o
0 2 6 11.63 15.92 3.14 o
1 2 6 14.04 10.26 2.91 o
2 2 6 104.72 81.36 4.11 o
3 2 6 5.95 5.00 3.37 o
4 2 6 39.11 28.01 4.95 o
5 2 6 2.19 3.16 5.20 o
6 2 6 35.11 49.06 8.04 o
-7 3 6 94.93 119.38 14.80 o
-6 3 6 83.43 87.26 12.20 o
-5 3 6 1.49 4.46 5.87 o
-4 3 6 8.79 9.62 5.54 o
-3 3 6 363.58 386.89 12.50 o
-2 3 6 3.60 6.53 4.31 o
-1 3 6 21.74 18.37 4.06 o
0 3 6 0.67 0.00 2.86 o
1 3 6 23.80 23.22 3.95 o
2 3 6 106.51 96.06 4.92 o
3 3 6 389.11 330.02 11.89 o
4 3 6 96.98 99.12 6.28 o
5 3 6 0.04 0.00 4.82 o
6 3 6 0.03 0.36 6.45 o
-6 4 6 521.05 390.49 18.80 o
-5 4 6 2.22 11.20 7.53 o
-4 4 6 75.24 96.26 9.08 o
-3 4 6 1.90 1.81 5.15 o
-2 4 6 195.66 209.52 8.75 o
-1 4 6 7.76 0.77 4.16 o
0 4 6 152.63 121.88 6.10 o
1 4 6 1.38 0.36 3.39 o
2 4 6 9.90 4.87 4.03 o
3 4 6 1.56 0.84 4.26 o
4 4 6 61.93 61.87 6.43 o
5 4 6 15.38 13.73 8.65 o
-6 5 6 9.00 5.49 8.62 o
-5 5 6 23.36 21.84 8.27 o
-4 5 6 6.00 0.00 6.89 o
-3 5 6 430.14 416.84 14.31 o
-2 5 6 81.08 85.73 8.24 o
-1 5 6 1.00 1.38 5.08 o
0 5 6 12.37 17.60 7.04 o
1 5 6 10.21 1.86 6.40 o
2 5 6 48.64 59.65 8.50 o
3 5 6 0.98 0.00 8.24 o
4 5 6 8.10 3.21 8.78 o
5 5 6 41.34 43.04 11.81 o
-5 6 6 0.86 4.41 10.79 o
-4 6 6 26.67 22.94 10.28 o
-3 6 6 3.36 2.55 8.83 o
-2 6 6 52.66 46.05 10.13 o
-1 6 6 78.89 85.04 11.76 o
0 6 6 76.93 87.15 11.07 o
1 6 6 1.27 0.00 7.35 o
2 6 6 4.08 0.00 9.85 o
3 6 6 5.52 0.00 9.98 o
-4 7 6 41.96 29.39 12.09 o
-3 7 6 157.49 151.24 14.06 o
-2 7 6 166.42 145.73 13.19 o
-1 7 6 0.09 2.65 9.49 o
0 7 6 11.26 21.81 9.59 o
1 7 6 63.62 89.14 12.35 o
2 7 6 3.20 0.00 11.71 o
0 -8 7 24.06 27.99 10.05 o
1 -8 7 0.05 5.92 15.54 o
-3 -7 7 154.21 166.48 14.62 o
-2 -7 7 37.87 38.60 8.50 o
-1 -7 7 43.52 49.47 8.67 o
0 -7 7 10.74 6.99 7.88 o
1 -7 7 165.28 156.55 10.95 o
2 -7 7 36.64 25.44 14.95 o
3 -7 7 7.98 0.10 13.88 o
4 -7 7 23.00 14.93 15.77 o
-4 -6 7 46.79 56.26 10.10 o
-3 -6 7 0.91 0.00 5.74 o
-2 -6 7 1.21 0.26 5.59 o
-1 -6 7 15.11 17.45 6.51 o
0 -6 7 1.86 0.00 6.25 o
1 -6 7 5.26 6.63 7.12 o
2 -6 7 2.84 2.32 7.09 o
3 -6 7 194.57 209.39 18.75 o
4 -6 7 342.75 280.01 21.33 o
5 -6 7 2.70 0.00 12.65 o
-5 -5 7 84.92 91.75 9.57 o
-4 -5 7 0.26 0.00 6.10 o
-3 -5 7 358.01 375.82 13.50 o
-2 -5 7 13.99 12.04 4.92 o
-1 -5 7 1.62 0.28 4.44 o
0 -5 7 8.64 7.71 5.43 o
1 -5 7 39.91 40.85 7.25 o
2 -5 7 2.99 0.00 6.20 o
3 -5 7 0.00 0.00 8.57 o
4 -5 7 20.78 15.21 11.07 o
-6 -4 7 3.37 0.00 8.73 o
-5 -4 7 13.22 10.23 7.25 o
-4 -4 7 56.02 61.77 8.85 o
-3 -4 7 4.39 4.21 3.65 o
-2 -4 7 21.39 19.08 4.26 o
-1 -4 7 24.80 33.91 4.95 o
0 -4 7 31.41 40.72 5.31 o
1 -4 7 0.06 0.89 3.39 o
2 -4 7 0.18 0.92 3.85 o
3 -4 7 40.10 38.19 5.51 o
4 -4 7 763.25 651.00 22.50 o
5 -4 7 0.36 0.00 12.48 o
6 -4 7 5.16 0.00 15.18 o
-6 -3 7 0.18 0.00 9.72 o
-5 -3 7 88.43 0.79 7.48 o
-4 -3 7 0.62 0.03 3.04 o
-3 -3 7 203.54 184.62 6.76 o
-2 -3 7 4.92 3.52 2.68 o
-1 -3 7 877.01 805.62 18.42 o
0 -3 7 36.21 35.13 3.52 o
1 -3 7 463.35 400.59 10.66 o
2 -3 7 0.26 0.00 3.24 o
3 -3 7 89.56 103.23 5.54 o
4 -3 7 2.77 5.92 6.00 o
5 -3 7 299.70 290.45 21.97 o
6 -3 7 0.04 1.25 14.39 o
-7 -2 7 14.53 14.80 9.82 o
-6 -2 7 20.08 10.74 7.22 o
-5 -2 7 10.10 4.13 5.49 o
-4 -2 7 7.44 3.78 3.39 o
-3 -2 7 6.11 1.73 2.83 o
-2 -2 7 0.21 0.00 2.22 o
-1 -2 7 139.63 125.30 4.36 o
0 -2 7 107.36 92.08 4.11 o
1 -2 7 4.60 3.16 2.55 o
2 -2 7 28.65 33.22 3.65 o
3 -2 7 2.59 2.60 3.19 o
4 -2 7 418.81 395.10 14.44 o
5 -2 7 0.02 0.00 11.10 o
6 -2 7 15.49 1.91 13.11 o
7 -2 7 1.58 0.00 15.44 o
-7 -1 7 63.60 76.77 15.36 o
-6 -1 7 2.92 7.99 7.99 o
-5 -1 7 15.78 27.89 7.35 o
-4 -1 7 9.55 9.34 4.03 o
-3 -1 7 43.79 53.58 3.98 o
-2 -1 7 6.62 5.41 2.55 o
-1 -1 7 5739.47 5520.88 140.38 o
0 -1 7 1.41 3.65 2.91 o
1 -1 7 137.73 124.15 5.87 o
2 -1 7 2.66 3.04 2.17 o
3 -1 7 180.23 174.23 6.05 o
4 -1 7 0.82 0.61 4.59 o
5 -1 7 20.77 19.72 11.00 o
6 -1 7 3.12 6.05 12.83 o
7 -1 7 1.20 5.10 15.49 o
-7 0 7 15.29 8.27 9.77 o
-6 0 7 50.27 52.89 10.31 o
-5 0 7 0.00 0.00 6.28 o
-4 0 7 287.59 291.90 9.77 o
-3 0 7 18.57 20.00 3.60 o
-2 0 7 228.29 198.04 6.58 o
-1 0 7 212.78 193.98 6.56 o
0 0 7 8.17 6.30 3.04 o
1 0 7 4.39 1.94 2.76 o
2 0 7 334.08 324.05 9.72 o
3 0 7 2.15 0.00 2.45 o
4 0 7 22.56 10.49 4.54 o
5 0 7 0.77 2.22 9.39 o
6 0 7 14.94 12.45 12.20 o
7 0 7 3.41 13.27 14.21 o
-7 1 7 21.21 5.82 10.54 o
-6 1 7 0.63 0.00 7.65 o
-5 1 7 3.06 1.20 4.77 o
-4 1 7 32.15 39.80 5.84 o
-3 1 7 318.60 313.00 10.00 o
-2 1 7 9.79 11.12 3.24 o
-1 1 7 3856.46 3738.76 76.95 o
0 1 7 142.72 105.80 4.41 o
1 1 7 171.79 119.48 4.54 o
2 1 7 8.81 7.04 2.40 o
3 1 7 90.58 67.10 3.85 o
4 1 7 13.23 9.64 4.13 o
5 1 7 6.27 6.00 5.10 o
6 1 7 6.50 2.58 10.44 o
-7 2 7 8.09 10.69 10.69 o
-6 2 7 44.17 45.85 10.54 o
-5 2 7 5.34 4.39 5.54 o
-4 2 7 269.81 261.67 9.92 o
-3 2 7 47.27 53.07 5.97 o
-2 2 7 457.61 446.62 12.73 o
-1 2 7 0.02 0.00 2.93 o
0 2 7 29.31 34.16 4.06 o
1 2 7 20.66 24.65 3.57 o
2 2 7 446.23 375.79 10.36 o
3 2 7 46.07 46.72 5.28 o
4 2 7 18.13 15.79 4.44 o
5 2 7 1.75 1.73 4.92 o
6 2 7 0.03 0.00 11.10 o
-7 3 7 17.82 18.57 11.79 o
-6 3 7 3.63 0.00 9.36 o
-5 3 7 3.46 0.00 5.77 o
-4 3 7 0.01 1.07 5.38 o
-3 3 7 85.68 95.55 6.51 o
-2 3 7 15.51 15.92 4.82 o
-1 3 7 339.26 332.47 10.49 o
0 3 7 160.61 136.88 6.05 o
1 3 7 35.24 34.85 4.52 o
2 3 7 0.76 0.41 3.50 o
3 3 7 8.74 3.85 4.06 o
4 3 7 57.96 60.21 6.10 o
5 3 7 0.50 1.33 5.15 o
6 3 7 9.22 11.76 11.35 o
-6 4 7 9.96 5.69 9.77 o
-5 4 7 71.24 81.87 9.29 o
-4 4 7 20.05 5.94 6.40 o
-3 4 7 39.10 45.36 7.07 o
-2 4 7 16.05 15.56 5.61 o
-1 4 7 42.70 48.71 6.15 o
0 4 7 0.00 0.00 3.95 o
1 4 7 1.62 0.00 3.62 o
2 4 7 221.22 193.62 7.83 o
3 4 7 88.26 83.91 6.35 o
4 4 7 1.73 0.00 5.36 o
5 4 7 3.86 0.00 8.34 o
-6 5 7 22.21 19.62 9.21 o
-5 5 7 52.19 45.21 9.16 o
-4 5 7 50.79 43.25 8.50 o
-3 5 7 0.57 2.30 6.15 o
-2 5 7 8.79 9.31 5.97 o
-1 5 7 3.78 4.75 5.38 o
0 5 7 78.39 93.35 9.24 o
1 5 7 65.40 71.23 9.39 o
2 5 7 0.29 0.00 8.24 o
3 5 7 2.58 5.51 9.16 o
4 5 7 92.27 106.88 11.79 o
-5 6 7 86.85 79.68 13.39 o
-4 6 7 32.01 32.27 10.79 o
-3 6 7 17.19 12.53 9.57 o
-2 6 7 53.88 60.93 10.92 o
-1 6 7 1.69 3.37 8.11 o
0 6 7 2.50 8.52 8.16 o
1 6 7 30.40 24.88 9.41 o
2 6 7 50.06 51.44 12.53 o
3 6 7 38.81 54.68 13.24 o
-3 7 7 9.28 2.81 11.07 o
-2 7 7 34.06 48.32 12.40 o
-1 7 7 14.11 11.17 10.41 o
0 7 7 19.11 26.43 10.69 o
1 7 7 87.02 124.89 14.57 o
-3 -7 8 0.14 10.82 10.69 o
-2 -7 8 0.96 1.17 7.07 o
-1 -7 8 0.64 0.00 6.86 o
0 -7 8 0.37 0.00 11.05 o
1 -7 8 15.49 20.36 14.01 o
2 -7 8 7.86 0.00 12.32 o
3 -7 8 21.65 11.28 14.16 o
-4 -6 8 96.60 89.65 10.44 o
-3 -6 8 94.66 106.19 7.96 o
-2 -6 8 3.08 0.46 5.69 o
-1 -6 8 0.18 0.00 5.77 o
0 -6 8 27.67 39.95 7.96 o
1 -6 8 49.83 57.74 13.39 o
2 -6 8 311.43 291.42 20.79 o
3 -6 8 12.56 22.38 12.02 o
4 -6 8 146.50 139.56 19.75 o
-5 -5 8 32.13 57.53 10.69 o
-4 -5 8 99.77 97.44 9.26 o
-3 -5 8 24.93 26.02 5.66 o
-2 -5 8 30.11 40.34 6.10 o
-1 -5 8 14.97 13.60 5.28 o
0 -5 8 8.42 10.05 5.49 o
1 -5 8 32.83 30.97 9.98 o
2 -5 8 3.09 2.45 8.47 o
3 -5 8 3.10 0.00 8.88 o
4 -5 8 12.51 0.94 10.36 o
-6 -4 8 0.02 0.00 8.85 o
-5 -4 8 39.29 46.72 9.41 o
-4 -4 8 976.15 960.51 38.24 o
-3 -4 8 190.85 179.18 7.93 o
-2 -4 8 63.32 58.96 4.77 o
-1 -4 8 0.82 0.69 3.75 o
0 -4 8 0.47 0.69 4.06 o
1 -4 8 29.40 35.03 5.97 o
2 -4 8 0.46 0.00 4.44 o
3 -4 8 1.01 0.00 5.26 o
4 -4 8 610.62 472.00 17.76 o
5 -4 8 22.72 10.87 12.53 o
6 -4 8 4.01 0.00 14.44 o
-6 -3 8 0.84 0.00 10.28 o
-5 -3 8 124.23 0.00 7.91 o
-4 -3 8 275.74 287.72 10.72 o
-3 -3 8 230.10 201.71 7.40 o
-2 -3 8 109.26 91.87 4.39 o
-1 -3 8 46.40 36.20 3.57 o
0 -3 8 7.52 7.45 2.91 o
1 -3 8 306.26 255.80 7.99 o
2 -3 8 0.06 0.00 4.34 o
3 -3 8 69.17 68.22 6.00 o
4 -3 8 0.33 0.38 5.61 o
5 -3 8 66.76 50.52 13.37 o
6 -3 8 4.92 0.00 13.29 o
-7 -2 8 11.14 9.82 9.98 o
-6 -2 8 67.45 105.88 19.08 o
-5 -2 8 0.79 0.00 5.89 o
-4 -2 8 1945.48 1995.39 54.75 o
-3 -2 8 107.15 89.02 6.25 o
-2 -2 8 86.68 79.55 5.51 o
-1 -2 8 1.18 0.20 1.89 o
0 -2 8 60.14 61.82 3.21 o
1 -2 8 16.39 14.90 3.98 o
2 -2 8 126.35 103.18 6.15 o
3 -2 8 0.08 2.30 4.46 o
4 -2 8 395.90 309.20 19.75 o
5 -2 8 0.00 0.00 10.05 o
6 -2 8 34.19 21.89 13.96 o
-7 -1 8 99.35 165.89 24.34 o
-6 -1 8 14.30 16.76 8.57 o
-5 -1 8 120.20 162.04 10.33 o
-4 -1 8 206.50 234.70 8.55 o
-3 -1 8 261.92 214.01 7.55 o
-2 -1 8 4.34 5.84 2.76 o
-1 -1 8 9.75 7.19 2.27 o
0 -1 8 11.56 11.91 3.55 o
1 -1 8 382.70 369.39 12.58 o
2 -1 8 1.71 5.64 3.83 o
3 -1 8 57.55 53.83 5.38 o
4 -1 8 0.81 1.35 8.24 o
5 -1 8 11.36 0.00 9.29 o
6 -1 8 1.98 0.00 12.86 o
-7 0 8 33.20 33.88 11.28 o
-6 0 8 108.34 114.30 10.15 o
-5 0 8 21.39 11.53 7.22 o
-4 0 8 850.66 881.52 21.99 o
-3 0 8 1.41 1.10 3.27 o
-2 0 8 4.23 1.07 2.60 o
-1 0 8 1.56 0.00 2.09 o
0 0 8 508.50 527.72 16.30 o
1 0 8 1.68 0.00 3.09 o
2 0 8 4.46 1.91 1.84 o
3 0 8 0.45 0.79 2.68 o
4 0 8 12.90 0.00 7.93 o
5 0 8 15.22 14.87 10.56 o
6 0 8 0.21 0.00 10.41 o
-7 1 8 75.86 82.18 12.63 o
-6 1 8 29.13 30.03 9.49 o
-5 1 8 10.86 6.40 5.41 o
-4 1 8 2.10 2.30 4.64 o
-3 1 8 22.13 17.66 4.41 o
-2 1 8 123.31 105.42 5.36 o
-1 1 8 109.61 91.19 5.05 o
0 1 8 59.59 57.56 3.85 o
1 1 8 55.98 49.52 3.52 o
2 1 8 35.53 34.29 3.39 o
3 1 8 28.13 29.37 3.55 o
4 1 8 1.83 0.00 7.83 o
5 1 8 1.25 0.00 8.73 o
6 1 8 7.08 0.00 10.79 o
-7 2 8 3.29 0.87 10.38 o
-6 2 8 0.15 0.00 8.55 o
-5 2 8 0.01 1.38 5.61 o
-4 2 8 22.69 20.03 5.82 o
-3 2 8 22.50 23.09 5.10 o
-2 2 8 22.42 19.85 4.64 o
-1 2 8 0.67 0.00 3.19 o
0 2 8 488.71 488.46 13.04 o
1 2 8 43.56 45.47 4.57 o
2 2 8 85.01 73.05 4.36 o
3 2 8 4.95 3.55 3.88 o
4 2 8 21.70 21.53 4.95 o
5 2 8 19.73 24.21 10.36 o
6 2 8 68.78 93.00 16.84 o
-7 3 8 19.56 20.05 12.09 o
-6 3 8 0.06 0.00 9.24 o
-5 3 8 2.06 3.39 6.35 o
-4 3 8 58.98 61.28 7.71 o
-3 3 8 24.50 31.48 6.07 o
-2 3 8 63.56 70.77 6.17 o
-1 3 8 134.14 112.39 6.17 o
0 3 8 102.93 92.28 5.28 o
1 3 8 0.17 0.00 3.67 o
2 3 8 55.58 60.62 5.15 o
3 3 8 191.74 180.05 8.60 o
4 3 8 8.04 8.19 5.20 o
5 3 8 3.97 0.00 9.24 o
-6 4 8 138.53 132.57 11.91 o
-5 4 8 21.05 19.70 8.04 o
-4 4 8 3.87 0.28 6.00 o
-3 4 8 15.13 16.10 6.30 o
-2 4 8 6.57 2.35 5.28 o
-1 4 8 9.06 4.95 4.75 o
0 4 8 159.44 163.41 7.42 o
1 4 8 20.37 14.26 4.75 o
2 4 8 9.71 6.97 4.67 o
3 4 8 0.07 1.96 5.23 o
4 4 8 0.80 0.00 6.15 o
-5 5 8 0.76 6.20 8.34 o
-4 5 8 45.80 43.42 8.39 o
-3 5 8 2.27 1.96 6.28 o
-2 5 8 0.28 0.00 5.61 o
-1 5 8 18.54 16.41 6.17 o
0 5 8 27.95 30.21 6.12 o
1 5 8 6.83 1.86 6.97 o
2 5 8 34.03 41.94 11.33 o
3 5 8 118.62 137.03 12.86 o
4 5 8 37.21 53.02 12.63 o
-4 6 8 6.14 2.40 9.87 o
-3 6 8 1.63 0.36 9.34 o
-2 6 8 4.01 0.00 8.62 o
-1 6 8 4.72 0.00 8.50 o
0 6 8 3.78 0.00 8.44 o
1 6 8 0.10 8.09 8.55 o
2 6 8 22.66 24.29 12.83 o
3 6 8 12.25 5.92 12.07 o
-3 7 8 13.12 7.07 10.97 o
-2 7 8 0.06 0.00 9.64 o
-1 7 8 2.30 0.00 10.26 o
0 7 8 0.57 0.00 9.90 o
1 7 8 3.48 2.07 10.64 o
-2 -7 9 0.03 0.00 11.00 o
-1 -7 9 1.53 8.39 11.46 o
0 -7 9 85.72 87.36 16.46 o
1 -7 9 614.73 602.22 33.78 o
2 -7 9 98.74 119.07 19.70 o
3 -7 9 18.37 13.47 13.52 o
-4 -6 9 0.00 0.00 7.91 o
-3 -6 9 11.19 10.79 6.56 o
-2 -6 9 19.61 21.48 6.68 o
-1 -6 9 11.76 0.00 8.47 o
0 -6 9 68.57 73.12 13.98 o
1 -6 9 24.31 11.86 10.38 o
2 -6 9 56.56 55.31 14.13 o
3 -6 9 174.67 125.48 14.08 o
4 -6 9 14.37 20.72 12.40 o
-5 -5 9 2.80 1.15 8.22 o
-4 -5 9 2.24 1.35 7.22 o
-3 -5 9 80.22 76.62 6.12 o
-2 -5 9 1.34 0.79 5.03 o
-1 -5 9 102.88 108.31 7.14 o
0 -5 9 27.17 29.11 10.15 o
1 -5 9 1336.32 1235.60 51.51 o
2 -5 9 73.65 73.71 13.17 o
3 -5 9 0.00 3.09 8.70 o
4 -5 9 10.12 3.16 10.26 o
-5 -4 9 6.52 9.41 8.47 o
-4 -4 9 98.74 126.14 9.92 o
-3 -4 9 13.16 12.73 4.52 o
-2 -4 9 80.64 72.94 5.18 o
-1 -4 9 5.48 4.11 4.21 o
0 -4 9 197.73 189.36 13.37 o
1 -4 9 54.55 58.30 10.66 o
2 -4 9 61.67 65.01 6.71 o
3 -4 9 123.48 114.07 7.78 o
4 -4 9 37.05 22.45 7.30 o
5 -4 9 0.35 0.00 12.22 o
6 -4 9 61.71 53.71 16.92 o
-6 -3 9 0.00 0.00 10.87 o
-5 -3 9 22.16 5.56 8.73 o
-4 -3 9 25.03 28.50 5.38 o
-3 -3 9 600.65 589.31 15.54 o
-2 -3 9 0.51 0.00 2.73 o
-1 -3 9 375.72 350.25 9.62 o
0 -3 9 1.82 0.00 3.88 o
1 -3 9 606.78 586.91 18.96 o
2 -3 9 8.18 6.91 4.87 o
3 -3 9 13.19 7.17 5.51 o
4 -3 9 4.51 2.19 5.97 o
5 -3 9 576.61 464.30 28.63 o
6 -3 9 0.30 2.58 13.32 o
-6 -2 9 0.01 0.00 7.93 o
-5 -2 9 9.17 0.28 6.43 o
-4 -2 9 710.35 829.70 26.38 o
-3 -2 9 44.75 45.29 6.53 o
-2 -2 9 87.50 86.41 4.18 o
-1 -2 9 4.80 4.39 2.19 o
0 -2 9 208.19 182.75 8.09 o
1 -2 9 9.91 7.50 4.39 o
2 -2 9 2.00 0.00 4.06 o
3 -2 9 1.65 0.23 4.64 o
4 -2 9 285.50 225.21 16.74 o
5 -2 9 1.68 0.00 10.28 o
6 -2 9 24.92 12.96 13.45 o
-7 -1 9 7.21 51.97 11.12 o
-6 -1 9 2.19 0.26 7.91 o
-5 -1 9 30.75 43.19 8.83 o
-4 -1 9 174.18 173.26 7.42 o
-3 -1 9 854.81 834.83 20.39 o
-2 -1 9 4.84 2.32 2.78 o
-1 -1 9 22.93 27.38 4.82 o
0 -1 9 4.20 4.01 3.50 o
1 -1 9 0.04 1.91 3.80 o
2 -1 9 1.43 0.43 4.13 o
3 -1 9 72.85 91.64 6.38 o
4 -1 9 1.44 1.12 8.11 o
5 -1 9 555.74 480.50 28.14 o
6 -1 9 0.52 0.00 12.60 o
-7 0 9 0.18 0.00 10.21 o
-6 0 9 9.48 9.13 9.21 o
-5 0 9 5.14 8.88 5.31 o
-4 0 9 819.31 867.41 21.92 o
-3 0 9 151.15 129.18 5.97 o
-2 0 9 47.66 56.46 4.06 o
-1 0 9 1.23 0.36 2.07 o
0 0 9 51.59 47.35 4.34 o
1 0 9 7.13 5.26 3.90 o
2 0 9 5.98 0.00 3.95 o
3 0 9 11.27 9.41 4.98 o
4 0 9 313.51 298.69 19.59 o
5 0 9 2.12 0.48 9.95 o
6 0 9 6.18 5.66 12.50 o
-7 1 9 0.23 2.17 11.23 o
-6 1 9 7.51 16.97 9.26 o
-5 1 9 17.39 31.43 6.58 o
-4 1 9 102.62 112.16 6.71 o
-3 1 9 91.89 90.57 6.00 o
-2 1 9 27.13 22.12 4.34 o
-1 1 9 965.70 935.81 21.94 o
0 1 9 43.49 47.00 4.06 o
1 1 9 57.38 49.34 4.36 o
2 1 9 0.01 0.00 3.85 o
3 1 9 73.61 71.74 6.20 o
4 1 9 3.98 5.33 7.78 o
5 1 9 118.70 110.78 13.19 o
6 1 9 2.61 0.00 12.25 o
-7 2 9 3.27 0.00 10.89 o
-6 2 9 0.62 1.38 9.01 o
-5 2 9 4.20 3.06 6.15 o
-4 2 9 112.60 125.91 7.55 o
-3 2 9 103.90 89.07 5.97 o
-2 2 9 65.47 73.45 5.82 o
-1 2 9 55.73 59.73 5.23 o
0 2 9 1.78 1.33 3.47 o
1 2 9 2.18 0.46 3.50 o
2 2 9 6.78 3.98 3.67 o
3 2 9 6.49 0.92 7.65 o
4 2 9 68.37 75.39 12.88 o
5 2 9 1.52 4.95 9.67 o
6 2 9 4.39 0.00 11.43 o
-6 3 9 4.65 6.23 10.31 o
-5 3 9 8.26 6.25 6.97 o
-4 3 9 0.63 8.32 6.02 o
-3 3 9 61.49 66.00 7.45 o
-2 3 9 159.38 156.25 7.73 o
-1 3 9 1192.15 1169.62 28.01 o
0 3 9 110.14 99.86 5.79 o
1 3 9 36.16 39.06 5.23 o
2 3 9 0.30 1.66 4.06 o
3 3 9 39.38 51.44 10.26 o
4 3 9 2.63 9.95 8.65 o
5 3 9 1.34 1.00 9.98 o
-6 4 9 45.83 54.32 10.08 o
-5 4 9 0.07 3.62 7.22 o
-4 4 9 19.28 6.25 6.94 o
-3 4 9 5.14 11.89 6.33 o
-2 4 9 122.58 109.33 7.04 o
-1 4 9 13.15 4.49 5.03 o
0 4 9 3.78 0.00 4.59 o
1 4 9 4.34 3.29 4.57 o
2 4 9 32.74 36.38 6.00 o
3 4 9 5.29 1.71 5.43 o
4 4 9 2.73 21.35 9.85 o
-5 5 9 28.78 23.83 9.47 o
-4 5 9 32.73 21.64 8.37 o
-3 5 9 57.02 62.74 8.96 o
-2 5 9 101.21 98.02 7.71 o
-1 5 9 288.93 254.22 10.54 o
0 5 9 53.92 69.70 7.68 o
1 5 9 82.35 105.14 11.58 o
2 5 9 1.25 0.00 10.49 o
3 5 9 21.32 55.90 12.81 o
-4 6 9 27.52 32.48 11.58 o
-3 6 9 7.81 4.82 10.00 o
-2 6 9 48.97 52.97 10.89 o
-1 6 9 4.62 0.59 9.08 o
0 6 9 5.22 0.00 9.13 o
1 6 9 1.84 3.11 9.16 o
2 6 9 26.03 12.09 13.39 o
-2 7 9 11.49 9.52 10.89 o
-1 7 9 8.54 3.47 10.61 o
0 7 9 16.43 15.41 11.53 o
-2 -7 10 6.92 17.60 11.48 o
-1 -7 10 2.51 1.15 11.71 o
0 -7 10 61.49 65.65 15.44 o
1 -7 10 45.35 57.46 15.13 o
2 -7 10 11.72 0.00 12.65 o
-3 -6 10 10.93 0.00 9.29 o
-2 -6 10 1.93 0.00 8.39 o
-1 -6 10 0.85 0.00 8.73 o
0 -6 10 17.82 21.71 10.36 o
1 -6 10 88.08 76.54 15.28 o
2 -6 10 1057.02 1013.91 46.77 o
3 -6 10 73.62 62.53 14.85 o
4 -6 10 143.37 117.77 14.82 o
-4 -5 10 4.41 0.00 7.22 o
-3 -5 10 1.66 0.97 5.10 o
-2 -5 10 6.76 6.68 8.01 o
-1 -5 10 18.06 15.87 8.90 o
0 -5 10 8.27 5.51 8.90 o
1 -5 10 327.84 315.78 19.98 o
2 -5 10 1.52 0.00 8.34 o
3 -5 10 0.37 0.00 8.96 o
4 -5 10 3.07 9.67 11.81 o
-5 -4 10 57.27 67.43 11.23 o
-4 -4 10 1.85 0.74 6.66 o
-3 -4 10 57.43 59.17 6.10 o
-2 -4 10 0.58 0.00 6.17 o
-1 -4 10 0.33 0.00 6.91 o
0 -4 10 5.35 1.30 6.97 o
1 -4 10 20.62 10.92 7.73 o
2 -4 10 1958.71 1890.35 52.69 o
3 -4 10 5.97 6.10 6.51 o
4 -4 10 3.92 0.43 6.99 o
5 -4 10 5.78 8.98 13.27 o
-6 -3 10 9.87 0.00 12.04 o
-5 -3 10 7.21 0.00 5.56 o
-4 -3 10 64.28 64.52 6.00 o
-3 -3 10 149.08 162.78 6.79 o
-2 -3 10 0.16 0.18 2.93 o
-1 -3 10 80.43 66.85 5.61 o
0 -3 10 1.50 0.00 3.14 o
1 -3 10 416.47 394.67 14.52 o
2 -3 10 4.50 0.20 5.10 o
3 -3 10 0.04 0.00 5.26 o
4 -3 10 0.26 0.03 5.87 o
5 -3 10 27.81 23.73 13.70 o
6 -3 10 0.01 8.73 14.72 o
-6 -2 10 0.54 4.95 8.44 o
-5 -2 10 32.48 27.81 7.48 o
-4 -2 10 444.76 444.57 16.89 o
-3 -2 10 136.92 126.80 7.88 o
-2 -2 10 2.57 1.00 2.86 o
-1 -2 10 2.17 0.00 3.90 o
0 -2 10 188.17 174.84 8.22 o
1 -2 10 1.31 5.56 4.77 o
2 -2 10 783.38 744.51 23.22 o
3 -2 10 0.58 0.00 5.00 o
4 -2 10 295.17 265.77 18.65 o
5 -2 10 0.04 0.00 10.82 o
6 -2 10 0.29 11.15 13.37 o
-6 -1 10 0.22 0.00 8.62 o
-5 -1 10 0.36 0.00 7.55 o
-4 -1 10 204.12 184.74 7.96 o
-3 -1 10 985.28 991.76 23.73 o
-2 -1 10 0.88 2.88 2.86 o
-1 -1 10 31.12 30.46 5.31 o
0 -1 10 13.17 9.29 4.08 o
1 -1 10 49.04 42.28 6.00 o
2 -1 10 8.92 7.76 5.00 o
3 -1 10 43.05 42.15 7.02 o
4 -1 10 1.96 0.00 8.14 o
5 -1 10 0.04 0.00 10.41 o
6 -1 10 0.19 0.00 11.94 o
-7 0 10 0.06 0.00 11.23 o
-6 0 10 6.38 12.63 9.72 o
-5 0 10 31.54 35.59 6.51 o
-4 0 10 1467.55 1530.61 35.49 o
-3 0 10 102.96 87.56 5.36 o
-2 0 10 25.68 27.58 4.18 o
-1 0 10 0.68 0.87 2.45 o
0 0 10 92.00 73.02 5.43 o
1 0 10 0.45 0.00 4.31 o
2 0 10 0.38 0.00 4.44 o
3 0 10 4.87 5.84 5.05 o
4 0 10 527.14 476.39 26.69 o
5 0 10 15.90 21.84 11.00 o
6 0 10 33.49 21.51 13.98 o
-7 1 10 10.28 13.11 11.40 o
-6 1 10 8.02 8.70 9.36 o
-5 1 10 19.41 25.87 6.99 o
-4 1 10 173.72 178.39 8.34 o
-3 1 10 1095.66 1023.78 24.95 o
-2 1 10 44.81 45.18 5.18 o
-1 1 10 39.69 38.12 4.92 o
0 1 10 1.33 2.55 3.85 o
1 1 10 69.40 74.27 6.56 o
2 1 10 0.47 0.59 4.49 o
3 1 10 90.49 75.42 9.41 o
4 1 10 0.01 0.71 9.03 o
5 1 10 3.60 1.56 10.28 o
6 1 10 6.21 0.00 11.58 o
-6 2 10 36.93 39.09 10.89 o
-5 2 10 169.98 165.12 8.96 o
-4 2 10 1052.32 1088.21 27.50 o
-3 2 10 11.50 9.21 5.13 o
-2 2 10 30.61 21.99 5.18 o
-1 2 10 11.92 9.47 4.41 o
0 2 10 42.60 56.05 5.61 o
1 2 10 0.45 0.33 4.62 o
2 2 10 64.46 61.92 6.63 o
3 2 10 14.07 13.52 9.11 o
4 2 10 158.46 167.11 14.54 o
5 2 10 31.87 45.80 13.29 o
-6 3 10 66.07 78.68 13.01 o
-5 3 10 52.04 54.34 9.11 o
-4 3 10 21.85 27.04 7.14 o
-3 3 10 193.64 178.72 8.90 o
-2 3 10 152.37 144.08 7.71 o
-1 3 10 52.07 54.60 6.02 o
0 3 10 37.82 47.38 5.89 o
1 3 10 43.93 50.62 6.00 o
2 3 10 17.00 17.12 6.53 o
3 3 10 36.90 41.10 10.33 o
4 3 10 7.01 1.43 9.36 o
5 3 10 0.77 0.00 10.03 o
-6 4 10 29.56 21.61 9.62 o
-5 4 10 80.71 97.13 10.38 o
-4 4 10 208.85 189.26 10.03 o
-3 4 10 2.42 0.51 5.97 o
-2 4 10 2.19 0.74 4.92 o
-1 4 10 18.19 14.42 5.41 o
0 4 10 179.93 174.41 8.19 o
1 4 10 0.66 0.00 4.82 o
2 4 10 1.55 1.51 7.42 o
3 4 10 1.86 0.00 9.16 o
4 4 10 0.70 0.00 9.92 o
-5 5 10 53.41 57.92 10.15 o
-4 5 10 1.44 3.93 7.55 o
-3 5 10 16.21 15.92 7.53 o
-2 5 10 54.37 55.24 7.58 o
-1 5 10 1.00 0.00 5.61 o
0 5 10 78.28 93.69 7.78 o
1 5 10 1.28 6.15 8.24 o
-4 6 10 17.82 19.72 11.30 o
-3 6 10 4.40 0.00 10.05 o
-2 6 10 3.46 0.00 9.82 o
-1 6 10 1.92 4.26 9.54 o
0 6 10 126.40 139.10 12.99 o
1 6 10 1.95 5.00 10.05 o
-1 -7 11 10.97 0.00 11.51 o
0 -7 11 24.56 18.62 13.50 o
1 -7 11 2.07 0.00 12.99 o
-3 -6 11 0.07 0.00 10.18 o
-2 -6 11 48.34 55.36 12.88 o
-1 -6 11 1.07 0.00 9.85 o
0 -6 11 0.92 0.00 9.54 o
1 -6 11 5.49 6.43 11.46 o
2 -6 11 174.80 159.13 16.02 o
3 -6 11 2.62 0.79 12.40 o
-3 -5 11 57.38 62.10 11.63 o
-2 -5 11 0.17 7.63 7.99 o
-1 -5 11 47.08 44.75 11.05 o
0 -5 11 75.75 87.66 11.23 o
1 -5 11 262.49 270.75 18.55 o
2 -5 11 106.84 102.05 12.07 o
3 -5 11 49.76 44.09 13.22 o
4 -5 11 0.40 0.00 11.17 o
-5 -4 11 29.84 42.94 10.13 o
-4 -4 11 54.70 80.09 12.22 o
-3 -4 11 3.83 7.40 7.73 o
-2 -4 11 0.93 0.00 7.60 o
-1 -4 11 6.19 7.55 7.58 o
0 -4 11 0.31 0.00 7.22 o
1 -4 11 57.76 67.02 11.84 o
2 -4 11 896.92 873.30 38.83 o
3 -4 11 26.19 29.93 7.76 o
4 -4 11 46.00 45.36 9.47 o
5 -4 11 6.49 3.83 13.73 o
-6 -3 11 36.26 0.00 12.50 o
-5 -3 11 2.92 4.62 6.17 o
-4 -3 11 8.39 9.98 5.18 o
-3 -3 11 65.29 56.28 8.06 o
-2 -3 11 1.35 0.00 4.77 o
-1 -3 11 9.40 6.30 5.08 o
0 -3 11 23.34 23.37 5.49 o
1 -3 11 1308.78 1266.19 36.79 o
2 -3 11 71.78 79.65 6.97 o
3 -3 11 39.92 37.91 7.27 o
4 -3 11 0.20 0.00 10.72 o
5 -3 11 21.59 19.62 13.83 o
-6 -2 11 133.47 214.65 21.48 o
-5 -2 11 2.66 3.72 7.42 o
-4 -2 11 4.17 5.20 4.64 o
-3 -2 11 1.29 0.48 3.75 o
-2 -2 11 42.33 37.22 6.12 o
-1 -2 11 0.02 0.00 4.34 o
0 -2 11 4.62 8.09 4.54 o
1 -2 11 67.41 66.95 5.94 o
2 -2 11 1322.40 1162.76 34.24 o
3 -2 11 0.27 0.00 5.31 o
4 -2 11 16.11 20.31 11.25 o
5 -2 11 0.11 0.00 11.48 o
6 -2 11 4.31 0.00 14.13 o
-6 -1 11 33.46 39.57 9.90 o
-5 -1 11 6.09 2.73 8.04 o
-4 -1 11 12.33 6.10 4.92 o
-3 -1 11 7.03 4.57 3.52 o
-2 -1 11 6.14 4.13 4.98 o
-1 -1 11 73.07 77.36 5.97 o
0 -1 11 5.78 4.18 4.54 o
1 -1 11 1219.42 1182.86 34.34 o
2 -1 11 2.22 0.00 4.90 o
3 -1 11 8.26 3.44 5.77 o
4 -1 11 5.26 0.00 9.44 o
5 -1 11 84.54 76.39 14.90 o
6 -1 11 0.55 0.00 12.86 o
-6 0 11 45.82 54.83 11.46 o
-5 0 11 15.30 8.67 6.00 o
-4 0 11 356.28 396.53 12.81 o
-3 0 11 57.98 64.68 6.38 o
-2 0 11 64.37 79.81 8.01 o
-1 0 11 65.34 68.04 6.45 o
0 0 11 65.11 60.31 4.52 o
1 0 11 3.18 0.00 4.59 o
2 0 11 404.85 383.19 14.49 o
3 0 11 73.25 67.84 7.14 o
4 0 11 9.54 10.44 10.10 o
5 0 11 0.69 0.00 10.33 o
6 0 11 18.95 29.26 15.03 o
-6 1 11 4.10 0.00 9.36 o
-5 1 11 35.29 43.50 7.37 o
-4 1 11 249.74 228.14 9.49 o
-3 1 11 197.74 195.36 8.44 o
-2 1 11 6.05 5.77 4.21 o
-1 1 11 203.48 225.46 10.23 o
0 1 11 20.64 22.78 5.26 o
1 1 11 268.66 257.41 11.20 o
2 1 11 13.29 11.05 5.36 o
3 1 11 4.28 0.00 7.86 o
4 1 11 23.81 19.08 10.21 o
5 1 11 263.89 274.14 21.38 o
-6 2 11 11.68 3.06 8.29 o
-5 2 11 0.12 0.00 6.45 o
-4 2 11 1107.97 1135.94 28.75 o
-3 2 11 385.43 380.33 12.65 o
-2 2 11 19.10 22.53 5.33 o
-1 2 11 80.49 80.50 6.76 o
0 2 11 102.96 97.92 7.04 o
1 2 11 8.52 8.44 5.69 o
2 2 11 0.69 1.15 5.56 o
3 2 11 60.99 67.10 9.54 o
4 2 11 18.49 22.30 10.46 o
5 2 11 2.97 0.00 10.79 o
-6 3 11 10.91 6.02 8.88 o
-5 3 11 38.89 40.18 8.44 o
-4 3 11 329.79 316.57 12.50 o
-3 3 11 99.94 91.08 7.27 o
-2 3 11 14.29 6.25 5.46 o
-1 3 11 9.46 7.14 5.46 o
0 3 11 0.00 1.53 5.56 o
1 3 11 14.14 9.95 6.05 o
2 3 11 9.41 8.83 6.86 o
3 3 11 6.37 2.70 8.47 o
4 3 11 14.88 3.98 10.00 o
-5 4 11 66.39 58.53 9.41 o
-4 4 11 689.56 634.55 19.72 o
-3 4 11 467.46 443.35 18.68 o
-2 4 11 5.23 0.00 5.26 o
-1 4 11 3.13 4.54 5.31 o
0 4 11 36.86 44.19 8.01 o
1 4 11 3.92 3.37 6.43 o
2 4 11 15.13 12.50 8.62 o
3 4 11 7.37 8.50 9.62 o
4 4 11 19.77 25.49 12.09 o
-4 5 11 69.91 71.34 10.31 o
-3 5 11 1.33 4.08 7.71 o
-2 5 11 109.77 123.38 12.02 o
-1 5 11 28.64 21.99 6.45 o
0 5 11 8.02 5.23 7.25 o
1 5 11 17.56 29.65 8.22 o
-3 6 11 177.45 177.98 15.54 o
-2 6 11 14.52 13.11 10.95 o
-1 6 11 3.71 0.00 10.00 o
0 6 11 8.39 12.02 15.03 o
1 6 11 0.66 0.00 15.16 o
-2 -6 12 0.00 2.86 10.66 o
-1 -6 12 32.43 28.32 12.17 o
0 -6 12 0.13 0.00 11.97 o
1 -6 12 26.38 22.68 11.63 o
2 -6 12 44.23 51.41 15.28 o
3 -6 12 9.17 0.00 13.80 o
-3 -5 12 1.68 0.00 8.62 o
-2 -5 12 8.03 0.00 8.70 o
-1 -5 12 221.60 187.78 14.82 o
0 -5 12 68.37 61.87 12.91 o
1 -5 12 43.40 43.42 11.97 o
2 -5 12 6.61 1.68 11.07 o
3 -5 12 13.40 30.97 13.14 o
4 -5 12 15.66 42.15 14.57 o
-4 -4 12 2.08 0.00 8.32 o
-3 -4 12 0.30 0.00 8.60 o
-2 -4 12 2.82 3.24 7.65 o
-1 -4 12 27.19 27.96 9.44 o
0 -4 12 9.64 0.26 8.62 o
1 -4 12 27.03 28.22 9.95 o
2 -4 12 153.52 138.33 13.09 o
3 -4 12 13.01 9.41 9.90 o
4 -4 12 39.19 50.44 10.00 o
5 -4 12 0.93 0.00 14.57 o
-4 -3 12 0.02 0.00 6.99 o
-3 -3 12 13.26 8.85 7.40 o
-2 -3 12 1.89 0.00 5.54 o
-1 -3 12 125.47 99.30 7.25 o
0 -3 12 2.66 0.00 5.10 o
1 -3 12 74.99 79.99 7.02 o
2 -3 12 10.54 4.34 6.45 o
3 -3 12 11.95 11.74 6.94 o
4 -3 12 0.65 0.00 11.74 o
5 -3 12 37.05 25.08 15.08 o
-6 -2 12 43.59 42.17 12.30 o
-5 -2 12 21.91 19.67 8.93 o
-4 -2 12 1.39 0.00 6.07 o
-3 -2 12 0.04 3.93 5.64 o
-2 -2 12 3.43 0.00 4.98 o
-1 -2 12 3.19 7.37 5.26 o
0 -2 12 2.37 0.43 4.85 o
1 -2 12 18.13 15.00 6.05 o
2 -2 12 1039.66 1010.29 31.10 o
3 -2 12 0.10 0.00 6.05 o
4 -2 12 46.13 56.13 14.29 o
5 -2 12 0.72 1.71 13.14 o
-6 -1 12 20.85 35.74 16.92 o
-5 -1 12 50.67 49.85 9.64 o
-4 -1 12 0.81 0.00 5.84 o
-3 -1 12 2.47 2.12 5.59 o
-2 -1 12 0.32 0.00 5.03 o
-1 -1 12 2.73 4.03 4.59 o
0 -1 12 0.08 1.10 4.62 o
1 -1 12 660.09 650.85 21.53 o
2 -1 12 68.00 74.78 7.37 o
3 -1 12 13.21 8.34 6.38 o
4 -1 12 0.95 0.00 9.59 o
5 -1 12 67.76 118.13 18.34 o
-6 0 12 60.11 77.43 12.65 o
-5 0 12 1.02 3.29 5.89 o
-4 0 12 46.08 37.81 6.43 o
-3 0 12 4.86 2.60 5.49 o
-2 0 12 2.23 0.79 4.87 o
-1 0 12 28.91 32.05 6.15 o
0 0 12 56.70 65.39 6.76 o
1 0 12 146.66 151.98 7.09 o
2 0 12 865.23 825.21 21.05 o
3 0 12 0.07 0.18 5.87 o
4 0 12 2.95 0.00 9.90 o
5 0 12 0.39 0.00 11.25 o
-6 1 12 0.84 9.47 11.17 o
-5 1 12 95.11 92.64 9.13 o
-4 1 12 4.01 2.40 5.38 o
-3 1 12 420.61 469.30 17.86 o
-2 1 12 4.33 5.54 5.46 o
-1 1 12 100.44 87.72 6.81 o
0 1 12 51.57 56.97 7.17 o
1 1 12 643.97 581.76 19.82 o
2 1 12 131.42 127.41 8.32 o
3 1 12 0.11 0.00 8.14 o
4 1 12 0.32 0.00 9.44 o
5 1 12 33.86 62.61 15.21 o
-6 2 12 10.98 5.05 11.05 o
-5 2 12 80.80 100.86 10.21 o
-4 2 12 211.54 180.87 9.11 o
-3 2 12 48.79 48.42 6.81 o
-2 2 12 8.84 2.99 5.84 o
-1 2 12 71.98 73.33 7.50 o
0 2 12 104.15 92.26 7.25 o
1 2 12 71.50 76.44 7.65 o
2 2 12 131.89 114.30 8.52 o
3 2 12 18.29 22.09 9.98 o
4 2 12 61.49 91.64 15.46 o
5 2 12 6.64 5.31 12.91 o
-5 3 12 45.63 45.82 8.96 o
-4 3 12 0.18 0.00 6.38 o
-3 3 12 900.57 999.57 31.59 o
-2 3 12 90.79 86.13 14.75 o
-1 3 12 14.52 4.11 6.53 o
0 3 12 76.43 73.02 7.86 o
1 3 12 121.62 123.79 8.62 o
2 3 12 55.75 54.19 9.13 o
3 3 12 14.50 9.16 9.92 o
4 3 12 1.33 5.38 11.35 o
-5 4 12 193.96 160.51 10.31 o
-4 4 12 167.82 141.12 9.34 o
-3 4 12 79.59 103.25 12.55 o
-2 4 12 0.04 3.37 5.97 o
-1 4 12 12.14 14.77 6.76 o
0 4 12 8.74 12.55 7.14 o
1 4 12 1.68 2.55 6.58 o
2 4 12 0.01 0.00 8.32 o
3 4 12 39.79 60.21 13.47 o
-4 5 12 5.25 9.52 8.62 o
-3 5 12 403.92 357.73 14.19 o
-2 5 12 163.33 126.78 15.59 o
-1 5 12 7.89 1.79 6.58 o
0 5 12 4.31 3.65 7.58 o
1 5 12 3.60 0.00 7.86 o
-1 6 12 6.80 20.56 15.31 o
-2 -6 13 40.48 62.61 14.93 o
-1 -6 13 5.56 3.88 10.87 o
0 -6 13 2.03 0.00 11.25 o
1 -6 13 0.11 0.00 11.30 o
2 -6 13 25.94 11.38 13.96 o
-3 -5 13 3.41 6.15 10.31 o
-2 -5 13 2.45 0.00 9.90 o
-1 -5 13 5.68 0.00 9.67 o
0 -5 13 3.57 2.42 10.15 o
1 -5 13 4.12 20.44 10.97 o
2 -5 13 17.69 15.54 12.71 o
3 -5 13 68.33 74.96 16.94 o
-4 -4 13 0.04 0.00 9.52 o
-3 -4 13 0.83 0.00 8.67 o
-2 -4 13 82.30 88.97 13.68 o
-1 -4 13 7.76 0.00 8.73 o
0 -4 13 4.41 0.00 8.96 o
1 -4 13 2.50 0.00 9.21 o
2 -4 13 3.94 0.00 10.21 o
3 -4 13 0.44 0.00 11.89 o
-4 -3 13 0.94 0.00 8.29 o
-3 -3 13 24.39 7.83 8.32 o
-2 -3 13 7.05 2.63 6.35 o
-1 -3 13 0.82 0.38 5.64 o
0 -3 13 9.42 10.05 6.07 o
1 -3 13 72.30 66.82 7.42 o
2 -3 13 29.68 25.21 7.96 o
3 -3 13 8.70 21.33 8.16 o
4 -3 13 0.45 12.63 12.86 o
-5 -2 13 5.33 4.06 15.64 o
-4 -2 13 19.59 20.08 6.07 o
-3 -2 13 15.88 18.73 6.74 o
-2 -2 13 24.06 11.51 5.51 o
-1 -2 13 0.06 0.71 5.38 o
0 -2 13 5.35 2.63 5.31 o
1 -2 13 12.00 6.40 6.25 o
2 -2 13 552.48 618.70 21.87 o
3 -2 13 2.63 0.00 6.30 o
4 -2 13 78.68 87.03 16.53 o
5 -2 13 3.37 0.00 14.21 o
-6 -1 13 25.07 34.49 17.48 o
-5 -1 13 14.54 19.98 8.27 o
-4 -1 13 23.63 30.46 7.60 o
-3 -1 13 152.72 152.75 9.29 o
-2 -1 13 3.51 0.00 5.36 o
-1 -1 13 7.74 9.92 5.77 o
0 -1 13 1.64 0.31 4.90 o
1 -1 13 436.88 434.88 16.35 o
2 -1 13 32.22 34.95 7.30 o
3 -1 13 25.04 25.13 7.27 o
4 -1 13 3.56 0.00 10.95 o
5 -1 13 172.27 171.96 17.99 o
-6 0 13 92.47 152.85 25.05 o
-5 0 13 0.43 0.00 7.42 o
-4 0 13 60.33 89.32 10.38 o
-3 0 13 34.39 37.17 7.65 o
-2 0 13 0.07 0.00 5.08 o
-1 0 13 3.47 0.71 5.23 o
0 0 13 57.67 74.91 8.19 o
1 0 13 0.00 0.00 5.46 o
2 0 13 1473.08 1583.55 45.64 o
3 0 13 81.38 102.74 15.38 o
4 0 13 45.67 51.15 13.75 o
5 0 13 11.52 6.97 13.55 o
-6 1 13 65.56 95.34 14.59 o
-5 1 13 2.43 0.00 7.81 o
-4 1 13 24.46 27.71 8.09 o
-3 1 13 135.89 134.92 9.11 o
-2 1 13 0.56 1.00 5.43 o
-1 1 13 13.02 7.04 5.61 o
0 1 13 27.06 20.36 5.84 o
1 1 13 364.26 350.63 14.31 o
2 1 13 17.58 10.33 6.51 o
3 1 13 60.09 71.49 13.45 o
4 1 13 0.45 0.00 9.87 o
-5 2 13 16.28 22.22 9.62 o
-4 2 13 0.05 0.00 7.30 o
-3 2 13 1.50 0.00 6.38 o
-2 2 13 3.59 0.71 5.72 o
-1 2 13 1.99 5.59 5.64 o
0 2 13 18.56 19.19 6.53 o
1 2 13 32.95 24.98 6.91 o
2 2 13 841.27 894.48 29.09 o
3 2 13 203.19 205.05 16.92 o
4 2 13 2.14 0.00 10.92 o
-5 3 13 22.54 22.32 8.47 o
-4 3 13 13.18 14.82 8.65 o
-3 3 13 19.03 24.52 7.55 o
-2 3 13 0.27 0.18 6.38 o
-1 3 13 0.35 1.48 6.79 o
0 3 13 20.15 30.00 8.04 o
1 3 13 85.06 98.66 9.16 o
2 3 13 3.09 0.00 8.52 o
3 3 13 13.75 0.00 10.36 o
-4 4 13 137.30 130.63 11.51 o
-3 4 13 67.16 90.19 16.30 o
-2 4 13 30.16 17.68 6.15 o
-1 4 13 15.48 13.78 6.66 o
0 4 13 7.95 1.86 7.40 o
1 4 13 39.17 51.31 9.06 o
2 4 13 97.71 90.93 10.97 o
3 4 13 113.13 128.03 13.85 o
-3 5 13 0.98 0.00 8.88 o
-2 5 13 12.90 8.57 7.09 o
-1 5 13 8.38 2.86 6.74 o
0 5 13 2.22 11.99 8.47 o
1 5 13 8.62 7.60 8.75 o
0 -6 14 6.17 11.89 11.74 o
-3 -5 14 12.02 2.07 10.77 o
-2 -5 14 21.52 17.68 11.58 o
-1 -5 14 43.07 39.72 12.60 o
0 -5 14 36.22 30.21 12.27 o
1 -5 14 51.42 72.33 15.82 o
2 -5 14 0.10 0.00 12.12 o
3 -5 14 3.25 13.32 15.00 o
-4 -4 14 40.47 66.39 12.86 o
-3 -4 14 1.29 0.00 9.41 o
-2 -4 14 15.03 19.01 10.51 o
-1 -4 14 56.03 59.80 12.83 o
0 -4 14 55.42 88.17 14.64 o
1 -4 14 6.03 0.00 10.13 o
2 -4 14 141.43 150.68 14.85 o
3 -4 14 0.05 0.00 12.25 o
-4 -3 14 5.45 3.04 9.54 o
-3 -3 14 17.34 23.78 9.34 o
-2 -3 14 9.22 10.66 9.34 o
-1 -3 14 344.86 289.63 13.32 o
0 -3 14 22.13 21.30 6.84 o
1 -3 14 155.56 143.64 9.29 o
2 -3 14 4.80 10.77 7.58 o
3 -3 14 1.12 3.65 7.86 o
4 -3 14 3.11 0.00 14.08 o
-5 -2 14 4.59 0.00 15.38 o
-4 -2 14 10.13 11.40 8.09 o
-3 -2 14 0.38 0.00 6.51 o
-2 -2 14 3.74 7.14 6.28 o
-1 -2 14 74.52 66.21 8.52 o
0 -2 14 22.94 28.29 7.14 o
1 -2 14 7.09 4.16 6.40 o
2 -2 14 75.80 99.27 9.47 o
3 -2 14 1.79 0.00 7.17 o
4 -2 14 0.59 0.00 12.35 o
-5 -1 14 27.54 23.42 8.85 o
-4 -1 14 0.00 3.85 6.89 o
-3 -1 14 7.04 0.74 6.38 o
-2 -1 14 4.57 1.58 4.62 o
-1 -1 14 444.65 413.96 16.48 o
0 -1 14 10.70 5.54 5.84 o
1 -1 14 43.23 47.00 7.76 o
2 -1 14 1.99 2.53 6.81 o
3 -1 14 21.41 15.10 11.12 o
4 -1 14 0.16 0.00 12.32 o
-5 0 14 3.65 9.59 8.55 o
-4 0 14 0.01 0.00 7.25 o
-3 0 14 15.77 8.47 6.63 o
-2 0 14 9.48 2.70 5.79 o
-1 0 14 42.89 35.90 7.30 o
0 0 14 13.42 20.67 6.10 o
1 0 14 20.30 19.36 6.58 o
2 0 14 6.34 7.02 6.71 o
3 0 14 1.04 0.00 9.85 o
4 0 14 0.50 0.00 11.74 o
-5 1 14 30.27 45.87 9.98 o
-4 1 14 1.09 0.84 7.12 o
-3 1 14 54.29 72.43 9.49 o
-2 1 14 50.43 58.25 8.80 o
-1 1 14 118.02 103.20 8.16 o
0 1 14 32.70 32.07 6.86 o
1 1 14 50.04 66.79 8.44 o
2 1 14 15.20 6.89 6.91 o
3 1 14 86.57 103.64 16.20 o
4 1 14 0.80 0.00 11.51 o
-5 2 14 9.61 4.59 9.72 o
-4 2 14 0.58 0.00 7.45 o
-3 2 14 40.80 40.57 8.60 o
-2 2 14 16.14 5.89 6.74 o
-1 2 14 1.41 0.00 6.00 o
0 2 14 37.75 47.74 8.50 o
1 2 14 100.56 101.26 8.47 o
2 2 14 60.57 73.66 9.92 o
3 2 14 5.06 1.53 10.89 o
4 2 14 0.15 0.00 10.69 o
-4 3 14 2.37 3.47 9.26 o
-3 3 14 0.65 2.02 7.02 o
-2 3 14 25.74 18.96 7.04 o
-1 3 14 0.14 5.59 7.19 o
0 3 14 5.39 4.06 7.35 o
1 3 14 213.41 211.86 12.09 o
2 3 14 75.95 78.30 11.05 o
3 3 14 62.07 86.95 16.10 o
-4 4 14 6.78 12.48 9.87 o
-3 4 14 3.25 0.61 7.73 o
-2 4 14 2.22 1.45 6.23 o
-1 4 14 11.49 8.83 6.99 o
0 4 14 5.16 0.64 7.71 o
1 4 14 64.67 89.43 11.53 o
2 4 14 29.69 52.15 13.42 o
-2 5 14 8.09 2.14 7.07 o
-1 5 14 2.18 1.35 7.55 o
0 5 14 71.87 91.19 19.24 o
-2 -5 15 0.06 13.27 11.69 o
-1 -5 15 2.82 0.00 11.56 o
0 -5 15 2.86 0.00 11.46 o
1 -5 15 17.22 21.25 13.70 o
2 -5 15 1.16 0.00 14.01 o
-3 -4 15 0.10 0.00 10.38 o
-2 -4 15 18.10 12.25 11.38 o
-1 -4 15 1.97 0.00 10.10 o
0 -4 15 18.81 22.45 12.45 o
1 -4 15 1.38 0.00 10.41 o
2 -4 15 18.99 32.68 13.96 o
3 -4 15 0.54 5.89 13.37 o
-4 -3 15 9.89 8.24 10.38 o
-3 -3 15 0.40 0.00 8.50 o
-2 -3 15 12.50 6.12 9.57 o
-1 -3 15 12.58 6.94 6.97 o
0 -3 15 0.57 0.00 6.79 o
1 -3 15 1.01 2.65 7.50 o
2 -3 15 3.36 4.64 8.55 o
3 -3 15 100.17 138.05 18.88 o
-4 -2 15 10.91 12.30 8.29 o
-3 -2 15 0.14 0.00 6.53 o
-2 -2 15 93.66 93.02 10.28 o
-1 -2 15 11.96 5.10 6.51 o
0 -2 15 0.03 1.48 6.56 o
1 -2 15 0.57 0.00 6.71 o
2 -2 15 84.15 118.66 11.84 o
3 -2 15 6.80 4.24 8.37 o
4 -2 15 87.53 136.80 21.07 o
-5 -1 15 108.95 143.46 10.95 o
-4 -1 15 2.03 1.28 7.58 o
-3 -1 15 0.12 0.56 6.38 o
-2 -1 15 29.49 29.34 7.60 o
-1 -1 15 86.76 86.95 8.70 o
0 -1 15 11.19 2.65 6.40 o
1 -1 15 18.40 20.10 7.50 o
2 -1 15 17.23 13.60 7.96 o
3 -1 15 132.00 152.19 16.00 o
4 -1 15 0.60 0.00 12.68 o
-5 0 15 5.78 8.55 9.29 o
-4 0 15 9.46 15.54 8.42 o
-3 0 15 0.09 0.00 6.68 o
-2 0 15 58.62 48.96 8.27 o
-1 0 15 6.89 2.91 6.00 o
0 0 15 0.20 2.32 5.92 o
1 0 15 1.79 2.53 6.15 o
2 0 15 0.13 0.48 7.22 o
3 0 15 5.71 9.41 12.35 o
4 0 15 2.07 0.00 12.40 o
-5 1 15 2.55 7.71 9.11 o
-4 1 15 12.73 8.83 8.24 o
-3 1 15 13.68 9.85 7.42 o
-2 1 15 6.27 0.00 6.81 o
-1 1 15 75.93 72.69 8.34 o
0 1 15 96.93 87.51 8.65 o
1 1 15 93.31 92.38 8.47 o
2 1 15 6.47 7.73 7.58 o
3 1 15 26.02 33.14 14.98 o
-4 2 15 2.23 0.87 8.55 o
-3 2 15 7.28 1.48 7.53 o
-2 2 15 6.07 9.87 7.22 o
-1 2 15 0.00 0.74 6.86 o
0 2 15 8.75 10.03 7.14 o
1 2 15 3.00 0.00 6.79 o
2 2 15 172.69 183.32 16.05 o
3 2 15 14.82 24.82 12.53 o
-4 3 15 37.33 42.76 11.05 o
-3 3 15 38.50 32.10 9.16 o
-2 3 15 0.80 3.24 6.94 o
-1 3 15 2.59 0.00 7.35 o
0 3 15 124.17 136.80 10.26 o
1 3 15 63.99 80.14 11.10 o
2 3 15 2.65 0.00 10.31 o
-2 4 15 4.74 0.00 7.35 o
-1 4 15 0.64 4.34 7.22 o
0 4 15 10.53 21.30 9.49 o
1 4 15 39.83 48.22 10.33 o
-2 -4 16 0.42 0.00 10.03 o
-1 -4 16 1.51 0.00 10.87 o
0 -4 16 47.71 80.01 16.53 o
1 -4 16 1.99 0.36 11.89 o
2 -4 16 4.19 0.00 12.63 o
-3 -3 16 14.71 31.38 11.46 o
-2 -3 16 4.78 0.00 8.85 o
-1 -3 16 10.52 21.13 11.15 o
0 -3 16 0.05 2.37 7.37 o
1 -3 16 2.66 1.15 8.04 o
2 -3 16 0.01 0.00 8.75 o
3 -3 16 0.31 1.45 10.15 o
-4 -2 16 85.06 143.16 11.05 o
-3 -2 16 0.10 4.49 6.25 o
-2 -2 16 13.43 10.26 7.71 o
-1 -2 16 10.04 12.04 7.48 o
0 -2 16 9.25 5.23 6.97 o
1 -2 16 1.86 2.58 7.07 o
2 -2 16 22.19 29.42 9.36 o
3 -2 16 0.35 18.32 15.31 o
-4 -1 16 23.00 69.07 10.38 o
-3 -1 16 0.73 0.00 7.60 o
-2 -1 16 0.37 0.77 6.30 o
-1 -1 16 109.07 99.55 7.02 o
0 -1 16 3.38 0.00 6.56 o
1 -1 16 24.91 21.02 8.29 o
2 -1 16 0.80 0.61 7.81 o
3 -1 16 10.10 0.00 13.39 o
-4 0 16 45.45 83.23 11.51 o
-3 0 16 10.82 8.39 7.81 o
-2 0 16 24.30 33.75 8.29 o
-1 0 16 16.19 11.25 7.07 o
0 0 16 74.32 73.02 9.80 o
1 0 16 4.08 4.01 7.04 o
2 0 16 59.13 73.76 10.38 o
3 0 16 1.45 0.00 12.63 o
-4 1 16 8.93 22.71 9.90 o
-3 1 16 2.98 3.44 7.81 o
-2 1 16 10.72 0.15 7.17 o
-1 1 16 151.94 141.50 10.13 o
0 1 16 3.52 1.63 6.86 o
1 1 16 32.09 38.45 8.78 o
2 1 16 2.89 0.41 8.14 o
3 1 16 1.28 7.07 12.63 o
-4 2 16 2.60 0.00 9.39 o
-3 2 16 1.46 3.09 8.37 o
-2 2 16 0.02 2.40 7.83 o
-1 2 16 22.41 22.20 8.80 o
0 2 16 10.27 1.61 7.68 o
1 2 16 2.16 2.86 7.88 o
2 2 16 31.52 39.55 12.12 o
-3 3 16 3.79 1.17 8.44 o
-2 3 16 53.01 57.53 9.72 o
-1 3 16 52.08 58.35 10.15 o
0 3 16 19.50 30.08 9.85 o
1 3 16 3.90 9.26 8.80 o
0 -4 17 7.50 0.00 11.79 o
-2 -3 17 3.91 1.22 9.92 o
-1 -3 17 0.30 5.74 10.84 o
0 -3 17 3.36 0.00 11.35 o
1 -3 17 161.11 241.33 13.78 o
2 -3 17 0.37 0.00 9.18 o
-3 -2 17 0.36 3.98 8.14 o
-2 -2 17 5.24 14.11 8.80 o
-1 -2 17 0.04 0.00 7.76 o
0 -2 17 27.48 28.58 9.08 o
1 -2 17 3.96 9.16 8.80 o
2 -2 17 2.94 2.27 8.19 o
-3 -1 17 2.01 1.94 8.11 o
-2 -1 17 1.69 0.00 7.22 o
-1 -1 17 3.17 0.00 7.04 o
0 -1 17 1.50 2.83 6.20 o
1 -1 17 22.00 20.97 7.37 o
2 -1 17 3.37 0.00 7.04 o
-3 0 17 2.23 6.84 8.67 o
-2 0 17 23.43 14.62 8.06 o
-1 0 17 0.49 0.00 6.97 o
0 0 17 13.02 9.62 7.73 o
1 0 17 0.00 1.58 7.78 o
2 0 17 17.71 15.56 8.90 o
-3 1 17 5.09 6.15 8.70 o
-2 1 17 18.54 19.67 9.03 o
-1 1 17 35.46 28.12 9.18 o
0 1 17 3.90 0.00 8.16 o
1 1 17 0.05 0.46 7.96 o
2 1 17 27.21 30.51 9.54 o
-2 2 17 54.05 50.62 10.82 o
-1 2 17 0.82 4.24 8.01 o
0 2 17 1.12 4.82 8.04 o
1 2 17 0.10 3.29 8.14 o
-2 -2 18 0.43 6.71 6.86 o
-1 -2 18 0.67 0.00 8.88 o
0 -2 18 137.08 211.92 13.24 o
1 -2 18 0.84 0.00 8.96 o
-2 -1 18 0.42 1.79 9.03 o
-1 -1 18 2.42 0.00 8.01 o
0 -1 18 11.80 27.86 9.36 o
1 -1 18 17.91 25.77 9.62 o
-2 0 18 2.80 0.00 8.47 o
-1 0 18 0.09 0.00 7.81 o
0 0 18 41.15 96.49 11.81 o
1 0 18 4.50 1.91 8.19 o
-2 1 18 5.73 5.36 8.75 o
-1 1 18 4.31 3.11 8.80 o
0 1 18 0.11 1.94 8.62 o
