#------------------------------------------------------------------------------
#$Date: 2016-03-24 00:18:40 +0200 (Thu, 24 Mar 2016) $
#$Revision: 179530 $
#$URL: svn://www.crystallography.net/cod/cif/4/34/27/4342720.cif $
#------------------------------------------------------------------------------
#
# This file is available in the Crystallography Open Database (COD),
# http://www.crystallography.net/
#
# All data on this site have been placed in the public domain by the
# contributors.
#
data_4342720
loop_
_publ_author_name
'Scrase, Tom G.'
'O'Neill, Michael J'
'Peel, Andrew J.'
'Senior, Paul W.'
'Matthews, Peter D.'
'Shi, Heyao'
'Boss, Sally R.'
'Barker, Paul D.'
_publ_section_title
;
 Selective Lability of Ruthenium(II) Arene Amino Acid Complexes.
;
_journal_issue                   7
_journal_name_full               'Inorganic chemistry'
_journal_page_first              3118
_journal_page_last               3124
_journal_paper_doi               10.1021/ic502051y
_journal_volume                  54
_journal_year                    2015
_chemical_formula_moiety         'C9 H13 N2 O2 Ru 1+, F6 P 1-'
_chemical_formula_sum            'C9 H13 F6 N2 O2 P Ru'
_chemical_formula_weight         427.25
_chemical_name_systematic
; 
 ? 
;
_space_group_IT_number           2
_symmetry_cell_setting           triclinic
_symmetry_space_group_name_Hall  '-P 1'
_symmetry_space_group_name_H-M   'P -1'
_atom_sites_solution_hydrogens   geom
_atom_sites_solution_primary     direct
_atom_sites_solution_secondary   difmap
_audit_creation_method           SHELXL-97
_cell_angle_alpha                99.231(2)
_cell_angle_beta                 103.992(2)
_cell_angle_gamma                96.007(2)
_cell_formula_units_Z            2
_cell_length_a                   6.4223(2)
_cell_length_b                   9.4407(3)
_cell_length_c                   11.7926(4)
_cell_measurement_reflns_used    19553
_cell_measurement_temperature    180(2)
_cell_measurement_theta_max      30.03
_cell_measurement_theta_min      1.00
_cell_volume                     677.08(4)
_computing_cell_refinement       'HKL Scalepack (Otwinowski & Minor 1997)'
_computing_data_collection       'Collect (Nonius B.V. 1998)'
_computing_data_reduction
;
 HKL Denzo and Scalepack (Otwinowski & Minor 1997)
;
_computing_publication_material  'SHELXL-97 (Sheldrick 1997)'
_computing_structure_refinement  'SHELXL-97 (Sheldrick 1997)'
_computing_structure_solution    'SIR-92 (Altomare et al. 1994)'
_diffrn_ambient_temperature      180(2)
_diffrn_measured_fraction_theta_full 0.990
_diffrn_measured_fraction_theta_max 0.990
_diffrn_measurement_device_type  'Nonius Kappa CCD'
_diffrn_measurement_method       'Thin slice \w and \f scans'
_diffrn_radiation_source         'fine-focus sealed tube'
_diffrn_radiation_type           MoK\a
_diffrn_radiation_wavelength     0.71073
_diffrn_reflns_av_R_equivalents  0.0346
_diffrn_reflns_av_sigmaI/netI    0.0333
_diffrn_reflns_limit_h_max       9
_diffrn_reflns_limit_h_min       -9
_diffrn_reflns_limit_k_max       13
_diffrn_reflns_limit_k_min       -13
_diffrn_reflns_limit_l_max       16
_diffrn_reflns_limit_l_min       -15
_diffrn_reflns_number            11305
_diffrn_reflns_theta_full        30.05
_diffrn_reflns_theta_max         30.05
_diffrn_reflns_theta_min         3.63
_exptl_absorpt_coefficient_mu    1.351
_exptl_absorpt_correction_T_max  0.887
_exptl_absorpt_correction_T_min  0.751
_exptl_absorpt_correction_type   multi-scan
_exptl_absorpt_process_details
;
multi-scan from symmetry-related measurements 
 Sortav (Blessing 1995)
;
_exptl_crystal_colour            yellow
_exptl_crystal_density_diffrn    2.096
_exptl_crystal_density_method    'not measured'
_exptl_crystal_description       block
_exptl_crystal_F_000             420
_exptl_crystal_size_max          0.28
_exptl_crystal_size_mid          0.12
_exptl_crystal_size_min          0.10
_refine_diff_density_max         2.113
_refine_diff_density_min         -1.200
_refine_diff_density_rms         0.133
_refine_ls_extinction_method     none
_refine_ls_goodness_of_fit_ref   1.145
_refine_ls_hydrogen_treatment    constr
_refine_ls_matrix_type           full
_refine_ls_number_parameters     227
_refine_ls_number_reflns         3925
_refine_ls_number_restraints     21
_refine_ls_restrained_S_all      1.157
_refine_ls_R_factor_all          0.0509
_refine_ls_R_factor_gt           0.0470
_refine_ls_shift/su_max          0.005
_refine_ls_shift/su_mean         0.000
_refine_ls_structure_factor_coef Fsqd
_refine_ls_weighting_details
'calc w=1/[\s^2^(Fo^2^)+(0.0244P)^2^+2.9552P] where P=(Fo^2^+2Fc^2^)/3'
_refine_ls_weighting_scheme      calc
_refine_ls_wR_factor_gt          0.1092
_refine_ls_wR_factor_ref         0.1110
_reflns_number_gt                3663
_reflns_number_total             3925
_reflns_threshold_expression     >2sigma(I)
_cod_data_source_file            ic502051y_si_002.cif
_cod_data_source_block           DL1PF6
_cod_depositor_comments
'Adding full bibliography for 4342719--4342724.cif.'
_cod_original_cell_volume        677.07(4)
_cod_original_sg_symbol_H-M      P-1
_cod_database_code               4342720
loop_
_symmetry_equiv_pos_as_xyz
'x, y, z'
'-x, -y, -z'
loop_
_atom_site_label
_atom_site_type_symbol
_atom_site_fract_x
_atom_site_fract_y
_atom_site_fract_z
_atom_site_U_iso_or_equiv
_atom_site_adp_type
_atom_site_occupancy
_atom_site_symmetry_multiplicity
_atom_site_calc_flag
_atom_site_refinement_flags
_atom_site_disorder_assembly
_atom_site_disorder_group
Ru1 Ru 0.83241(5) 0.14432(3) 0.74378(3) 0.02507(10) Uani 1 1 d . . .
O1 O 0.5036(5) 0.1063(3) 0.6498(3) 0.0306(6) Uani 1 1 d . . .
O2 O 0.2705(5) 0.1825(4) 0.5083(3) 0.0400(7) Uani 1 1 d . . .
N1 N 0.7714(6) 0.3550(4) 0.7179(3) 0.0338(7) Uani 1 1 d . . .
H1A H 0.6977 0.3954 0.7697 0.041 Uiso 1 1 calc R . .
H1B H 0.8979 0.4160 0.7262 0.041 Uiso 1 1 calc R . .
N2 N 0.8599(6) 0.1407(4) 0.5669(3) 0.0333(7) Uani 1 1 d . . .
H2A H 1.0042 0.1499 0.5674 0.040 Uiso 1 1 calc R . .
H2B H 0.7921 0.0528 0.5199 0.040 Uiso 1 1 calc R . .
C1 C 1.1585(10) 0.1542(11) 0.8515(9) 0.082(3) Uani 1 1 d . . .
H1 H 1.2913 0.2065 0.8488 0.098 Uiso 1 1 calc R . .
C2 C 1.0372(16) 0.2145(7) 0.9214(6) 0.080(3) Uani 1 1 d . . .
H2 H 1.0851 0.3104 0.9659 0.095 Uiso 1 1 calc R . .
C3 C 0.8467(14) 0.1389(9) 0.9286(5) 0.071(2) Uani 1 1 d . . .
H3 H 0.7650 0.1812 0.9787 0.085 Uiso 1 1 calc R . .
C4 C 0.7767(10) 0.0003(8) 0.8613(6) 0.064(2) Uani 1 1 d . . .
H4 H 0.6446 -0.0525 0.8645 0.077 Uiso 1 1 calc R . .
C5 C 0.8972(14) -0.0624(6) 0.7892(5) 0.067(2) Uani 1 1 d . . .
H5 H 0.8496 -0.1580 0.7439 0.081 Uiso 1 1 calc R . .
C6 C 1.0851(13) 0.0155(11) 0.7845(6) 0.075(3) Uani 1 1 d . . .
H6 H 1.1672 -0.0262 0.7343 0.090 Uiso 1 1 calc R . .
C7 C 0.4497(7) 0.1901(6) 0.5774(5) 0.0405(10) Uani 1 1 d . . .
C8 C 0.6331(10) 0.3222(7) 0.5912(5) 0.0533(13) Uani 1 1 d . . .
H8 H 0.5737 0.4090 0.5652 0.064 Uiso 1 1 calc R . .
C9 C 0.7622(13) 0.2584(8) 0.5158(6) 0.0653(18) Uani 1 1 d . . .
H9A H 0.8778 0.3335 0.5110 0.078 Uiso 1 1 calc R . .
H9B H 0.6688 0.2195 0.4343 0.078 Uiso 1 1 calc R . .
P1 P 0.34947(19) 0.59290(12) 0.80042(11) 0.0338(2) Uani 0.64 1 d PD A 1
F1 F 0.5075(6) 0.6295(4) 0.7206(4) 0.0627(10) Uani 0.64 1 d PD A 1
F2 F 0.1892(6) 0.5536(4) 0.8792(3) 0.0617(10) Uani 0.64 1 d PD A 1
F3 F 0.5522(10) 0.5472(10) 0.8846(5) 0.0650(17) Uani 0.64 1 d PD A 1
F4 F 0.2892(13) 0.4320(6) 0.7287(7) 0.0590(16) Uani 0.64 1 d PD A 1
F5 F 0.1471(12) 0.6372(12) 0.7168(8) 0.082(2) Uani 0.64 1 d PD A 1
F6 F 0.4110(17) 0.7525(7) 0.8756(11) 0.086(3) Uani 0.64 1 d PD A 1
P1' P 0.34947(19) 0.59290(12) 0.80042(11) 0.0338(2) Uani 0.36 1 d PD B 2
F1' F 0.5075(6) 0.6295(4) 0.7206(4) 0.0627(10) Uani 0.36 1 d PD B 2
F2' F 0.1892(6) 0.5536(4) 0.8792(3) 0.0617(10) Uani 0.36 1 d PD B 2
F3' F 0.500(2) 0.683(2) 0.9192(11) 0.100(6) Uani 0.36 1 d PD B 2
F4' F 0.438(3) 0.4490(17) 0.827(2) 0.111(7) Uani 0.36 1 d PD B 2
F5' F 0.190(3) 0.501(2) 0.6800(10) 0.123(8) Uani 0.36 1 d PD B 2
F6' F 0.258(3) 0.7333(18) 0.7726(19) 0.099(6) Uani 0.36 1 d PD B 2
loop_
_atom_site_aniso_label
_atom_site_aniso_U_11
_atom_site_aniso_U_22
_atom_site_aniso_U_33
_atom_site_aniso_U_23
_atom_site_aniso_U_13
_atom_site_aniso_U_12
Ru1 0.02423(15) 0.02421(15) 0.02704(16) 0.00450(11) 0.00828(11) 0.00186(10)
O1 0.0236(13) 0.0320(14) 0.0339(15) 0.0047(12) 0.0074(11) -0.0033(11)
O2 0.0225(14) 0.0507(19) 0.0397(17) 0.0031(14) 0.0014(12) -0.0024(13)
N1 0.0311(18) 0.0293(17) 0.040(2) 0.0062(15) 0.0080(15) 0.0062(14)
N2 0.0338(18) 0.0377(19) 0.0305(18) 0.0055(14) 0.0129(14) 0.0059(15)
C1 0.030(3) 0.113(7) 0.108(6) 0.084(6) -0.007(3) -0.002(3)
C2 0.108(6) 0.037(3) 0.056(4) 0.004(3) -0.043(4) 0.000(3)
C3 0.097(6) 0.102(6) 0.031(3) 0.024(3) 0.025(3) 0.062(5)
C4 0.041(3) 0.088(5) 0.069(4) 0.059(4) 0.004(3) -0.004(3)
C5 0.113(6) 0.029(2) 0.043(3) 0.007(2) -0.013(3) 0.014(3)
C6 0.081(5) 0.123(7) 0.058(4) 0.052(4) 0.038(4) 0.077(5)
C7 0.0238(19) 0.050(3) 0.044(3) 0.014(2) 0.0048(18) -0.0065(18)
C8 0.058(3) 0.056(3) 0.047(3) 0.014(3) 0.009(3) 0.022(3)
C9 0.082(5) 0.068(4) 0.045(3) 0.017(3) 0.005(3) 0.031(4)
P1 0.0315(5) 0.0272(5) 0.0435(6) 0.0044(4) 0.0137(5) 0.0028(4)
F1 0.069(2) 0.0513(19) 0.089(3) 0.0243(18) 0.054(2) 0.0075(16)
F2 0.068(2) 0.0503(19) 0.074(2) -0.0007(16) 0.047(2) -0.0051(16)
F3 0.049(3) 0.108(6) 0.039(3) 0.016(3) 0.006(2) 0.023(4)
F4 0.071(4) 0.039(3) 0.061(4) -0.014(3) 0.026(3) -0.004(3)
F5 0.060(4) 0.120(7) 0.087(6) 0.050(5) 0.023(4) 0.056(5)
F6 0.097(7) 0.035(3) 0.133(9) -0.020(4) 0.076(6) -0.016(3)
P1' 0.0315(5) 0.0272(5) 0.0435(6) 0.0044(4) 0.0137(5) 0.0028(4)
F1' 0.069(2) 0.0513(19) 0.089(3) 0.0243(18) 0.054(2) 0.0075(16)
F2' 0.068(2) 0.0503(19) 0.074(2) -0.0007(16) 0.047(2) -0.0051(16)
F3' 0.064(9) 0.145(17) 0.057(7) -0.010(10) 0.000(6) -0.055(10)
F4' 0.132(15) 0.087(10) 0.20(2) 0.091(12) 0.131(15) 0.076(10)
F5' 0.117(14) 0.159(18) 0.050(8) -0.041(9) 0.032(8) -0.094(13)
F6' 0.131(16) 0.085(10) 0.133(16) 0.059(11) 0.085(13) 0.077(11)
loop_
_atom_type_symbol
_atom_type_description
_atom_type_scat_dispersion_real
_atom_type_scat_dispersion_imag
_atom_type_scat_source
C C 0.0033 0.0016 'International Tables Vol C Tables 4.2.6.8 and 6.1.1.4'
H H 0.0000 0.0000 'International Tables Vol C Tables 4.2.6.8 and 6.1.1.4'
N N 0.0061 0.0033 'International Tables Vol C Tables 4.2.6.8 and 6.1.1.4'
O O 0.0106 0.0060 'International Tables Vol C Tables 4.2.6.8 and 6.1.1.4'
F F 0.0171 0.0103 'International Tables Vol C Tables 4.2.6.8 and 6.1.1.4'
P P 0.1023 0.0942 'International Tables Vol C Tables 4.2.6.8 and 6.1.1.4'
Ru Ru -1.2594 0.8363 'International Tables Vol C Tables 4.2.6.8 and 6.1.1.4'
loop_
_geom_angle_atom_site_label_1
_geom_angle_atom_site_label_2
_geom_angle_atom_site_label_3
_geom_angle
O1 Ru1 N1 77.66(13)
O1 Ru1 N2 79.60(13)
N1 Ru1 N2 77.98(15)
O1 Ru1 C6 136.3(3)
N1 Ru1 C6 143.3(3)
N2 Ru1 C6 93.15(19)
O1 Ru1 C2 140.7(3)
N1 Ru1 C2 95.4(2)
N2 Ru1 C2 137.3(3)
C6 Ru1 C2 67.2(3)
O1 Ru1 C4 91.99(18)
N1 Ru1 C4 137.6(3)
N2 Ru1 C4 141.1(3)
C6 Ru1 C4 67.0(3)
C2 Ru1 C4 67.2(3)
O1 Ru1 C1 171.13(19)
N1 Ru1 C1 110.2(3)
N2 Ru1 C1 105.6(3)
C6 Ru1 C1 37.7(3)
C2 Ru1 C1 37.0(3)
C4 Ru1 C1 79.4(2)
O1 Ru1 C5 104.3(2)
N1 Ru1 C5 174.1(2)
N2 Ru1 C5 107.7(2)
C6 Ru1 C5 37.0(3)
C2 Ru1 C5 79.6(2)
C4 Ru1 C5 37.5(3)
C1 Ru1 C5 67.4(3)
O1 Ru1 C3 107.2(2)
N1 Ru1 C3 106.5(2)
N2 Ru1 C3 172.4(2)
C6 Ru1 C3 79.5(2)
C2 Ru1 C3 37.3(3)
C4 Ru1 C3 37.4(3)
C1 Ru1 C3 67.2(3)
C5 Ru1 C3 67.6(3)
C7 O1 Ru1 114.9(3)
C8 N1 Ru1 101.1(3)
C8 N1 H1A 111.6
Ru1 N1 H1A 111.6
C8 N1 H1B 111.6
Ru1 N1 H1B 111.6
H1A N1 H1B 109.4
C9 N2 Ru1 111.8(3)
C9 N2 H2A 109.3
Ru1 N2 H2A 109.3
C9 N2 H2B 109.3
Ru1 N2 H2B 109.3
H2A N2 H2B 107.9
C2 C1 C6 119.0(6)
C2 C1 Ru1 71.0(4)
C6 C1 Ru1 70.5(4)
C2 C1 H1 120.5
C6 C1 H1 120.5
Ru1 C1 H1 130.5
C1 C2 C3 121.3(6)
C1 C2 Ru1 71.9(4)
C3 C2 Ru1 72.3(3)
C1 C2 H2 119.3
C3 C2 H2 119.3
Ru1 C2 H2 128.8
C2 C3 C4 118.7(6)
C2 C3 Ru1 70.4(4)
C4 C3 Ru1 70.8(3)
C2 C3 H3 120.6
C4 C3 H3 120.6
Ru1 C3 H3 130.7
C3 C4 C5 120.7(6)
C3 C4 Ru1 71.9(3)
C5 C4 Ru1 71.5(3)
C3 C4 H4 119.6
C5 C4 H4 119.6
Ru1 C4 H4 129.5
C6 C5 C4 118.9(6)
C6 C5 Ru1 70.6(3)
C4 C5 Ru1 71.0(3)
C6 C5 H5 120.5
C4 C5 H5 120.5
Ru1 C5 H5 130.4
C5 C6 C1 121.2(6)
C5 C6 Ru1 72.4(4)
C1 C6 Ru1 71.8(4)
C5 C6 H6 119.4
C1 C6 H6 119.4
Ru1 C6 H6 128.7
O2 C7 O1 126.2(4)
O2 C7 C8 120.2(5)
O1 C7 C8 113.4(4)
C9 C8 N1 107.7(5)
C9 C8 C7 101.5(5)
N1 C8 C7 108.4(4)
C9 C8 H8 112.8
N1 C8 H8 112.8
C7 C8 H8 112.8
C8 C9 N2 109.1(5)
C8 C9 H9A 109.9
N2 C9 H9A 109.9
C8 C9 H9B 109.9
N2 C9 H9B 109.9
H9A C9 H9B 108.3
F5 P1 F4 90.7(5)
F5 P1 F6 90.4(6)
F4 P1 F6 178.4(5)
F5 P1 F3 179.6(5)
F4 P1 F3 89.0(4)
F6 P1 F3 89.9(5)
F5 P1 F1 94.1(3)
F4 P1 F1 90.2(3)
F6 P1 F1 90.8(3)
F3 P1 F1 86.1(3)
F5 P1 F2 85.7(3)
F4 P1 F2 88.9(3)
F6 P1 F2 90.1(3)
F3 P1 F2 94.0(3)
F1 P1 F2 179.0(2)
loop_
_geom_bond_atom_site_label_1
_geom_bond_atom_site_label_2
_geom_bond_distance
Ru1 O1 2.098(3)
Ru1 N1 2.122(4)
Ru1 N2 2.130(4)
Ru1 C6 2.137(5)
Ru1 C2 2.144(6)
Ru1 C4 2.154(5)
Ru1 C1 2.155(6)
Ru1 C5 2.160(5)
Ru1 C3 2.168(5)
O1 C7 1.267(6)
O2 C7 1.227(5)
N1 C8 1.506(7)
N1 H1A 0.9200
N1 H1B 0.9200
N2 C9 1.473(7)
N2 H2A 0.9200
N2 H2B 0.9200
C1 C2 1.365(13)
C1 C6 1.385(12)
C1 H1 0.9500
C2 C3 1.378(12)
C2 H2 0.9500
C3 C4 1.384(11)
C3 H3 0.9500
C4 C5 1.387(11)
C4 H4 0.9500
C5 C6 1.364(11)
C5 H5 0.9500
C6 H6 0.9500
C7 C8 1.582(8)
C8 C9 1.459(9)
C8 H8 1.0000
C9 H9A 0.9900
C9 H9B 0.9900
P1 F5 1.569(6)
P1 F4 1.574(5)
P1 F6 1.578(6)
P1 F3 1.580(6)
P1 F1 1.590(3)
P1 F2 1.598(3)
