#------------------------------------------------------------------------------
#$Date: 2015-10-06 15:59:47 +0300 (Tue, 06 Oct 2015) $
#$Revision: 160523 $
#$URL: svn://www.crystallography.net/cod/cif/4/34/40/4344054.cif $
#------------------------------------------------------------------------------
#
# This file is available in the Crystallography Open Database (COD),
# http://www.crystallography.net/
#
# All data on this site have been placed in the public domain by the
# contributors.
#
data_4344054
loop_
_publ_author_name
'Liu, Wei'
'Wang, Lu'
'Su, Yu-Jun'
'Chen, Yan-Cong'
'Tucek, Jiri'
'Zboril, Radek'
'Ni, Zhao-Ping'
'Tong, Ming-Liang'
_publ_section_title
;
 Hysteretic Spin Crossover in Two-Dimensional (2D) Hofmann-Type
 Coordination Polymers.
;
_journal_issue                   17
_journal_name_full               'Inorganic chemistry'
_journal_page_first              8711
_journal_page_last               8716
_journal_paper_doi               10.1021/acs.inorgchem.5b01341
_journal_volume                  54
_journal_year                    2015
_chemical_formula_moiety         'C14 H12 Fe N8 Ni'
_chemical_formula_sum            'C14 H12 Fe N8 Ni'
_chemical_formula_weight         406.88
_space_group_crystal_system      monoclinic
_space_group_IT_number           12
_space_group_name_Hall           '-C 2y'
_space_group_name_H-M_alt        'C 1 2/m 1'
_symmetry_space_group_name_Hall  '-C 2y'
_symmetry_space_group_name_H-M   'C 1 2/m 1'
_atom_sites_solution_hydrogens   mixed
_audit_creation_date             2015-07-29
_audit_creation_method
;
Olex2 1.2
(compiled 2015.01.26 svn.r3150 for OlexSys, GUI svn.r4998)
;
_cell_angle_alpha                90
_cell_angle_beta                 97.715(14)
_cell_angle_gamma                90
_cell_formula_units_Z            2
_cell_length_a                   15.5187(19)
_cell_length_b                   6.9647(9)
_cell_length_c                   7.0685(9)
_cell_measurement_temperature    120(2)
_cell_volume                     757.07(17)
_computing_molecular_graphics    'Olex2 (Dolomanov et al., 2009)'
_computing_publication_material  'Olex2 (Dolomanov et al., 2009)'
_computing_structure_refinement  'ShelXL (Sheldrick, 2008)'
_diffrn_ambient_temperature      120.15
_diffrn_measured_fraction_theta_full 0.986
_diffrn_measured_fraction_theta_max 0.986
_diffrn_measurement_device_type  'multiwire proportional'
_diffrn_measurement_method       'phi and omega scans'
_diffrn_radiation_monochromator  graphite
_diffrn_radiation_type           CuK\a
_diffrn_radiation_wavelength     1.54178
_diffrn_reflns_av_R_equivalents  0.0306
_diffrn_reflns_av_unetI/netI     0.0272
_diffrn_reflns_laue_measured_fraction_full 0.986
_diffrn_reflns_laue_measured_fraction_max 0.986
_diffrn_reflns_limit_h_max       17
_diffrn_reflns_limit_h_min       -17
_diffrn_reflns_limit_k_max       7
_diffrn_reflns_limit_k_min       -7
_diffrn_reflns_limit_l_max       8
_diffrn_reflns_limit_l_min       -6
_diffrn_reflns_number            1915
_diffrn_reflns_point_group_measured_fraction_full 0.986
_diffrn_reflns_point_group_measured_fraction_max 0.986
_diffrn_reflns_theta_full        60.770
_diffrn_reflns_theta_max         60.770
_diffrn_reflns_theta_min         5.754
_exptl_absorpt_coefficient_mu    9.355
_exptl_absorpt_correction_T_max  1
_exptl_absorpt_correction_T_min  0.39418
_exptl_absorpt_correction_type   multi-scan
_exptl_absorpt_process_details   CrysAlisPro
_exptl_crystal_colour            red
_exptl_crystal_colour_primary    red
_exptl_crystal_density_diffrn    1.785
_exptl_crystal_description       block
_exptl_crystal_F_000             412
_exptl_crystal_size_max          0.24
_exptl_crystal_size_mid          0.17
_exptl_crystal_size_min          0.12
_refine_diff_density_max         0.822
_refine_diff_density_min         -0.720
_refine_diff_density_rms         0.099
_refine_ls_extinction_method     none
_refine_ls_goodness_of_fit_ref   1.074
_refine_ls_hydrogen_treatment    constr
_refine_ls_matrix_type           full
_refine_ls_number_parameters     69
_refine_ls_number_reflns         623
_refine_ls_number_restraints     7
_refine_ls_restrained_S_all      1.123
_refine_ls_R_factor_all          0.0474
_refine_ls_R_factor_gt           0.0461
_refine_ls_shift/su_max          0.000
_refine_ls_shift/su_mean         0.000
_refine_ls_structure_factor_coef Fsqd
_refine_ls_weighting_details
'w=1/[\s^2^(Fo^2^)+(0.0846P)^2^+1.6177P] where P=(Fo^2^+2Fc^2^)/3'
_refine_ls_weighting_scheme      calc
_refine_ls_wR_factor_gt          0.1246
_refine_ls_wR_factor_ref         0.1264
_reflns_Friedel_coverage         0.000
_reflns_number_gt                597
_reflns_number_total             623
_reflns_threshold_expression     'I > 2\s(I)'
_cod_data_source_file            ic5b01341_si_002.cif
_cod_data_source_block           120K
_cod_depositor_comments
'Adding full bibliography for 4344054--4344055.cif.'
_cod_database_code               4344054
_shelx_space_group_comment
;
The symmetry employed for this shelxl refinement is uniquely defined
by the following loop, which should always be used as a source of
symmetry information in preference to the above space-group names.
They are only intended as comments.
;
_shelx_estimated_absorpt_t_max   0.400
_shelx_estimated_absorpt_t_min   0.212
_olex2_refinement_description
;
1. Fixed Uiso
 At 1.2 times of:
  All C(H) groups, All N(H) groups
2. Rigid bond restraints
 N3, C3
 with sigma for 1-2 distances of 0.005 and sigma for 1-3 distances of 0.005
3. Uiso/Uaniso restraints and constraints
Uanis(N3) \\sim Ueq: with sigma of 0.001 and sigma for terminal atoms of 0.002
4.a Riding coordinates:
 N3(H3)
4.b Aromatic/amide H refined with riding coordinates:
 C2(H2), C4(H4), C5(H5), C6(H6)
;
_shelx_res_file
;
    fem.res created by SHELXL-2014/7

TITL fem in C2/m
CELL 1.54178 15.5187 6.9647 7.0685 90 97.715 90
ZERR 2 0.0019 0.0009 0.0009 0 0.014 0
LATT 7
SYMM -X,+Y,-Z
SFAC C H N Fe Ni
UNIT 28 24 16 2 2
DELU 0.005 0.005 N3 C3
ISOR 0.001 0.002 N3

L.S. 40
PLAN  -1
SIZE 0.24 0.17 0.12
TEMP -153
BOND $H
CONF
fmap 2
acta
OMIT 1 7 0
REM <olex2.extras>
REM <HklSrc "%.\\fem.hkl">
REM </olex2.extras>

WGHT    0.084600    1.617700
FVAR       5.66143
NI1   5    0.500000    0.000000    1.000000    10.25000    0.02514    0.01774 =
         0.01667    0.00000    0.00448    0.00000
FE1   4    0.500000   -0.500000    0.500000    10.25000    0.02274    0.01745 =
         0.01487    0.00000    0.00514    0.00000
N1    3    0.510684   -0.301640    0.697451    11.00000    0.02470    0.02216 =
         0.01870    0.00112    0.00629    0.00223
N2    3    0.629778   -0.500000    0.493845    10.50000    0.02533    0.02406 =
         0.01786    0.00000    0.00548    0.00000
N3    3    0.781392   -0.500000    0.139443    10.50000    0.05105    0.06729 =
         0.04749    0.00000    0.01007    0.00000
AFIX   3
H3    2    0.759412   -0.393000    0.070453    11.00000   -1.20000
AFIX   0
C1    1    0.508189   -0.188415    0.814782    11.00000    0.02482    0.02010 =
         0.01749    0.00640    0.00435   -0.00060
C2    1    0.663901   -0.500000    0.328342    10.50000    0.03474    0.04163 =
         0.02553    0.00000   -0.00101    0.00000
AFIX  43
H2    2    0.624915   -0.500000    0.212596    10.50000   -1.20000
AFIX   0
C3    1    0.750431   -0.500000    0.316627    10.50000    0.02765    0.04778 =
         0.03185    0.00000    0.00569    0.00000
C4    1    0.808890   -0.500000    0.482863    10.50000    0.02408    0.04430 =
         0.03144    0.00000    0.00372    0.00000
AFIX  43
H4    2    0.869870   -0.500000    0.479333    10.50000   -1.20000
AFIX   0
C5    1    0.775276   -0.500000    0.653325    10.50000    0.03304    0.06690 =
         0.02588    0.00000    0.00431    0.00000
AFIX  43
H5    2    0.813379   -0.500000    0.770345    10.50000   -1.20000
AFIX   0
C6    1    0.687178   -0.500000    0.655092    10.50000    0.03124    0.04976 =
         0.02195    0.00000    0.00508    0.00000
AFIX  43
H6    2    0.665595   -0.500000    0.774660    10.50000   -1.20000
AFIX   0
HKLF 4

REM  fem in C2/m
REM R1 =  0.0461 for     597 Fo > 4sig(Fo)  and  0.0474 for all     623 data
REM     69 parameters refined using      7 restraints

END

WGHT      0.0846      1.6181

REM Highest difference peak  0.822,  deepest hole -0.720,  1-sigma level  0.099
Q1    1   0.7828 -0.4037  0.1362  11.00000  0.05    0.82
;
_shelx_res_checksum              84706
_shelx_hkl_file
;
   0  -6   0 178618. 3529.10  18
   0  -6   0 180084. 3270.36  11
   0  -6  -1 9796.24 884.947  11
   0  -6   1 9606.14 940.706  18
   0  -6   2 29220.9 1356.41  22
   0  -6   2 31181.1 1530.78   7
   0  -6   2 29502.2 1530.12  18
   0  -6  -2 32041.9 1576.11  11
   0  -6  -3 1078.32 526.495  11
   0  -6   3 543.051 370.127   7
   0  -6   3 700.938 409.371  22
   0  -6   3 982.698 485.483  18
   0  -6   4 29637.4 1367.43  22
   0  -6   4 30399.7 1375.63   7
   0  -6  -4 31908.1 1483.88  11
   0  -6   4 31151.9 1441.01  18
   0  -6  -5 2707.92 450.565  11
   0  -6   5 3316.41 454.154   7
   0  -4   1 38614.8 1242.97   7
   0  -4  -1 38581.2 1291.91  11
   0  -4   2 78570.7 1978.51  18
   0  -4   2 77786.4 1926.09  22
   0  -4  -2 80423.4 2091.26  11
   0  -4   2 78474.5 1866.59   7
   0  -4   3 2233.71 444.861   7
   0  -4   3 2242.13 490.734  18
   0  -4   3 1932.06 459.571  22
   0  -4  -3 1517.40 450.830  11
   0  -4   4 62861.0 2075.83  22
   0  -4   4 65257.7 1983.66   7
   0  -4  -4 65823.9 2221.65  11
   0  -4   4 66835.4 2073.37  18
   0  -4   5 13872.3 1004.46  22
   0  -4   5 14688.8 977.053  18
   0  -4  -5 14054.1 1048.33  11
   0  -4   5 14564.4 1027.41   7
   0  -4   6 83086.7 2240.45   7
   0  -2   3 731.329 547.722   4
   0  -2   4 64665.5 1586.00  18
   0  -2   4 67399.3 1673.85  22
   0  -2   5 13985.8 944.120   7
   0  -2   6 97342.7 2620.17   7
   0  -2   7 8449.43 787.897   7
   0   0   1 176938. 2747.37   4
   0   0   2 16992.2 1359.93   4
   0   0   3 1673.26 663.123   4
   0   0   4 108352. 2010.68   9
   0   0   4 113563. 4998.71   4
   0   0   5 35622.3 3187.25   4
   0   0   5 36952.8 1414.07  15
   0   0   5 39983.6 1463.43   9
   0   0   6 235348. 3855.36  15
   0   0   6 247623. 3949.52   9
   0   0   7 2791.70 535.101   9
   0   2   0 816176. 11637.6   2
   0   2  -1 98343.6 3250.74   2
   0   2   2 409261. 9245.28   1
   0   2   3 1023.68 536.277   4
   0   2   4 61223.0 1532.94   9
   0   2   4 64961.5 1717.21  17
   0   2   4 67336.8 1881.80  14
   0   2   4 67830.1 4317.06   4
   0   2   5 14893.3 976.393  17
   0   2   5 13610.8 887.918   9
   0   2   5 13726.7 1081.40  14
   0   2   6 99815.6 2644.69  15
   0   2   6 100319. 2471.62   9
   0   2   7 9604.58 785.053  15
   0   2   7 8550.07 728.137   9
   0   4   0 431910. 15656.9   2
   0   4  -1 37791.3 3988.08   2
   0   4   1 39660.8 1243.83  16
   0   4   2 76963.3 1903.00  16
   0   4  -2 74700.9 5093.97   2
   0   4   2 82993.6 5664.09   1
   0   4   3 1600.90 383.367  16
   0   4  -3 556.161 696.896   2
   0   4   3 1248.86 921.392   4
   0   4   5 14814.9 1142.92  14
   0   4   6 89421.8 2420.88  14
   0   6   0 181914. 3282.38  16
   0   6   1 9216.67 841.010  16
   0   6   2 29164.4 1489.04  16
   0   6   5 3142.29 475.982  14
  -1  -7   3 38403.0 1500.18  18
   1  -7  -3 38294.0 1472.56  11
  -1  -7   2 776.264 376.275  18
   1  -7  -2 669.156 411.198  11
  -1  -7   1 22501.0 1254.28  18
   1  -7  -1 27533.1 1315.48  11
  -1  -7   0-31.0658 336.770  18
   1  -7   0 185.638 302.771  18
   1  -7   1 27549.7 1342.60  18
  -1  -7  -1 26995.3 1239.50  11
   1  -7   2 1477.69 446.027  18
  -1  -7  -2 1532.55 426.810  11
  -1  -7  -3 35482.9 1377.26  11
   1  -7   3 34554.9 1397.44  18
  -1  -5   6 848.302 315.169   7
   1  -5  -5 77458.2 2250.57  11
  -1  -5   5 77536.0 2104.19  18
  -1  -5   5 77305.5 2159.33   7
  -1  -5   5 78487.4 2248.66  22
  -1  -5   4 1017.68 389.358  18
  -1  -5   4 1966.56 495.863   7
  -1  -5   4 1255.72 530.163  22
   1  -5  -4 1341.79 557.981  11
  -1  -5   3 9795.32 947.661  22
  -1  -5   3 10375.5 921.897  18
  -1  -5   3 10782.3 858.796   7
   1  -5  -3 10771.5 1002.67  11
  -1  -5   2 440.577 372.772   7
  -1  -5   2 752.631 398.959  22
   1  -5  -2 496.187 476.310  11
  -1  -5   2 409.440 368.300  18
   1  -5  -1 109737. 2547.96  11
  -1  -5   1 107878. 2459.47   7
  -1  -5   0 5338.82 560.585  11
   1  -5   0 5140.81 581.680  11
   1  -5   1 127300. 2734.36  18
   1  -5   1 126764. 2530.83  22
   1  -5   1 129041. 2840.59   7
  -1  -5  -1 129299. 2746.14  11
  -1  -5  -2 1080.75 484.619  11
   1  -5   2 944.638 419.511  22
   1  -5   2 1088.88 457.255   7
   1  -5   2 1420.80 479.309  18
   1  -5   3 9352.32 905.664  22
   1  -5   3 10783.4 965.525  18
  -1  -5  -3 10518.2 1020.86  11
   1  -5   3 10255.9 906.163   7
  -1  -5  -4 2893.85 654.666  11
   1  -5   4 3033.10 639.229   7
   1  -5   4 3167.95 587.873  18
   1  -5   4 2325.26 598.049  22
   1  -5   5 93745.6 2403.72   7
  -1  -5  -5 95300.5 2530.34  11
   1  -5   6 3154.12 449.572   7
  -1  -3   7 34448.4 1375.65   7
  -1  -3   6 1369.48 484.578   7
  -1  -3   5 15095.3 1006.16  22
  -1  -3   5 16054.4 1054.66   7
  -1  -3   4 937.954 363.797   5
  -1  -3   4 672.440 370.730  22
   1  -3  -4 624.176 351.979  11
  -1  -3   4 530.267 283.219  18
  -1  -3   4 749.594 351.050   7
   1  -3  -3 228516. 3296.35  11
  -1  -3   3 231068. 2917.29   7
  -1  -3   3 230381. 3028.19  18
  -1  -3   3 229615. 3164.81  22
   1  -3   3 223798. 3133.76  18
   1  -3   3 226488. 3006.84   7
   1  -3   3 222163. 3187.47  22
   1  -3   4 586.610 336.978  18
   1  -3   4 917.373 402.410   7
   1  -3   4 326.575 344.690  22
   1  -3   5 20954.9 1154.07  22
  -1  -3  -5 22260.8 1277.57  11
   1  -3   5 23371.5 1261.81   7
   1  -3   6 17433.2 1112.84   7
   1  -3   7 58995.3 1729.56   7
  -1  -1   7 21496.4 1240.53   7
  -1  -1   7 23623.8 1178.42   9
  -1  -1   6 4795.28 587.600  15
  -1  -1   6 5610.03 650.900   9
  -1  -1   5 129391. 6100.35   4
  -1  -1   5 123954. 2459.98   9
  -1  -1   5 127349. 2513.99  15
  -1  -1   4 1481.48 646.868   4
  -1  -1   4 1395.66 290.565   9
  -1  -1   3 55250.3 2866.82   4
  -1  -1   2 14960.1 1272.82   4
  -1  -1   1 361294. 4599.88   4
   1  -1   1 630381. 6194.35   4
   1  -1   1 628760. 4121.63   3
   1  -1   2 22749.5 1534.30   4
   1  -1   3 96118.5 3761.32   4
   1  -1   4 3909.36 422.325   9
   1  -1   4 4263.61 1018.87   4
   1  -1   5 125228. 2555.31   9
   1  -1   5 117807. 5721.15   4
   1  -1   6 15805.6 1012.03   9
   1  -1   7 45392.3 1682.89   7
   1  -1   7 46548.4 1614.82   9
  -1   1   7 23120.4 1256.01  15
  -1   1   7 24817.4 1265.62   9
  -1   1   6 4841.14 684.425  15
  -1   1   6 5828.78 722.991   9
  -1   1   5 120092. 6306.82   4
  -1   1   5 124320. 2529.94   9
  -1   1   5 120575. 2906.76  14
  -1   1   5 120959. 2679.28  15
  -1   1   4 1302.10 305.509   9
  -1   1   4 820.053 252.215  17
  -1   1   4 1020.50 327.628  14
  -1   1   4 1402.32 814.782   4
  -1   1   3 51476.0 3049.95   4
  -1   1   2 10784.9 1325.42   4
  -1   1   1 374658. 6512.80   1
  -1   1   0 15697.3 1030.59   2
   1   1   0 14987.4 670.601   3
   1   1   0 15363.0 975.644   2
   1   1   1 705551. 8788.42   1
   1   1   2 18083.2 1504.89   4
   1   1   3 90300.6 3874.06   4
   1   1   4 3676.27 462.999  14
   1   1   4 3967.59 1105.60   4
   1   1   4 3897.85 441.024   9
   1   1   4 3505.51 398.319  17
   1   1   5 123107. 2540.52  17
   1   1   5 125733. 2597.46   9
   1   1   6 16533.1 1083.98   9
   1   1   6 15289.2 1027.36  15
   1   1   7 47307.5 1681.24   9
  -1   3   7 35322.3 1368.30  15
  -1   3   6 1577.03 526.458  15
  -1   3   6 647.274 538.675  14
  -1   3   5 13711.1 873.221   9
  -1   3   5 15362.3 1212.37  14
  -1   3   4-549.064 725.871   4
   1   3  -4 818.573 775.394   2
   1   3  -3 221161. 7184.92   2
  -1   3   3 212687. 2957.94  17
  -1   3   3 212028. 3003.46  16
  -1   3   3 218936. 7741.40   4
  -1   3   2 4660.14 1436.17   1
   1   3  -2 4064.85 958.630   2
   1   3  -1 83585.0 4262.24   2
   1   3   0 3010.09 1034.01   2
  -1   3   0 3128.45 1030.08   2
  -1   3  -1 146112. 5672.42   2
   1   3   2 1621.60 1050.84   1
  -1   3  -2 657.579 506.113   2
   1   3   3 209691. 2904.36  16
   1   3   3 213581. 7450.80   4
   1   3   3 208873. 2933.32  17
  -1   3  -3 215452. 7202.23   2
   1   3   4 972.408 388.164  17
  -1   3  -4 1282.72 877.572   2
   1   3   4 2211.75 991.735   4
   1   3   5 21756.8 1286.63  14
   1   3   5 21077.3 1029.22   9
   1   3   5 20589.7 1228.81  17
   1   3   6 15903.9 922.224   9
   1   3   6 17701.5 1190.77  14
   1   3   7 55573.8 1606.28  15
  -1   5   6 756.763 298.724  15
  -1   5   6 827.487 396.840  14
  -1   5   5 79874.2 2324.56  14
  -1   5   2-75.3320 380.988  16
   1   5  -1 90653.6 8098.90   2
  -1   5   1 94992.3 7369.42   1
  -1   5   1 110217. 2446.95  16
   1   5   0 5195.93 2502.53   2
  -1   5   0 5393.41 542.782  16
  -1   5   0 5445.48 2322.72   2
   1   5   0 5528.36 571.929  16
  -1   5  -1 106073. 8757.02   2
   1   5   1 113542. 8152.55   1
   1   5   1 124454. 2634.73  16
   1   5   2 1254.28 501.641  16
   1   5   3 9283.14 886.342  16
   1   5   5 95518.6 2447.40  14
   1   7   0-227.184 325.135  16
   1   7   1 28651.3 1367.13  16
  -2  -6   5 1308.04 350.651  22
   2  -6  -5 862.445 323.076  11
  -2  -6   4 33770.4 1469.38  22
  -2  -6   4 32982.4 1470.93  18
  -2  -6   4 33504.8 1349.79   7
   2  -6  -4 32783.1 1484.63  11
  -2  -6   3 2877.91 557.071  22
   2  -6  -3 2888.88 632.563  11
  -2  -6   3 2963.20 608.521  18
  -2  -6   3 2920.91 511.619   7
  -2  -6   2 24022.2 1422.93  18
   2  -6  -2 23577.8 1366.06  11
  -2  -6   2 21808.6 1190.60  22
   2  -6  -1 2982.32 571.257  11
   2  -6   0 37489.5 1525.70  18
   2  -6   0 41177.4 1647.69  11
  -2  -6  -1 2623.77 545.496  11
   2  -6   1 2711.83 537.864  18
   2  -6   2 28122.3 1476.81  18
  -2  -6  -2 28054.8 1473.34  11
   2  -6   2 27973.5 1500.24   7
  -2  -6  -3 3745.96 688.642  11
   2  -6   3 2926.66 569.327  18
   2  -6   3 2618.09 603.793   7
  -2  -6  -4 25820.6 1311.90  11
   2  -6   4 24182.2 1252.80  18
   2  -6   4 23841.9 1255.47   7
  -2  -4   6 9129.16 724.782  22
  -2  -4   6 9752.71 781.535   7
   2  -4  -5 1139.57 427.338  11
  -2  -4   5 1474.10 493.706  22
  -2  -4   5 1362.23 453.036   7
   2  -4  -4 94080.4 2540.21  11
  -2  -4   4 91611.1 2365.79  18
  -2  -4   4 89223.5 2216.26   7
  -2  -4   4 88800.4 2495.08  22
  -2  -4   3 2621.93 479.552  18
  -2  -4   3 2202.68 479.051  22
   2  -4  -3 1986.18 510.432  11
  -2  -4   3 2208.76 424.273   7
  -2  -4   2 76636.4 1935.41  22
  -2  -4   2 76280.5 1734.37   7
   2  -4  -2 76091.3 2006.67  11
  -2  -4   1 6863.16 538.297  22
   2  -4  -1 7001.64 589.342  11
   2  -4   0 24887.5 984.660  11
   2  -4   0 22906.0 1009.98   7
   2  -4   1 4498.85 440.084  11
   2  -4   1 4576.92 490.067  18
  -2  -4  -1 4579.68 505.046  11
   2  -4   1 4428.06 501.266   7
   2  -4   1 4792.06 503.466  22
   2  -4   2 90280.8 2117.90   7
   2  -4   2 88963.1 2174.21  18
  -2  -4  -2 88898.5 2255.62  11
   2  -4   2 90732.1 2170.14  22
   2  -4   3 1316.54 442.861  22
   2  -4   3 1231.83 408.946  18
  -2  -4  -3 1157.67 482.157  11
   2  -4   3 1249.15 412.883   7
   2  -4   4 64805.9 2036.39   7
  -2  -4  -4 66144.2 2302.24  11
   2  -4   4 65004.2 2127.56  22
   2  -4   4 66169.1 2130.43  18
  -2  -4  -5 1567.56 584.293  11
   2  -4   5 1572.54 525.994   7
   2  -4   6 7580.93 692.664   7
  -2  -4  -6 7210.98 667.657  11
  -2  -2   7 509.537 364.917   7
  -2  -2   6 3255.55 574.465   7
  -2  -2   5 10275.6 742.964  15
  -2  -2   5 9804.30 720.319   5
  -2  -2   4 155627. 2428.74  15
  -2  -2   4 152435. 2332.70   5
  -2  -2   4 156642. 2549.92  22
  -2  -2   3 25546.4 2102.09   4
   2  -2   1 8401.99 630.689   3
   2  -2   4 84883.4 2005.30   7
   2  -2   4 88429.1 1996.13  22
   2  -2   5 9178.63 793.827   7
   2  -2   5 9717.37 749.785   9
   2  -2   6 2230.58 414.436   9
   2  -2   6 3133.65 580.241   7
   2  -2   7 1265.56 373.533   7
  -2   0   8 2089.11 399.562   7
  -2   0   7 3646.80 580.188  15
  -2   0   6 46085.1 1736.36   9
  -2   0   6 45766.0 1845.26  15
  -2   0   5 5426.62 594.616   9
  -2   0   5 5575.57 632.786  15
  -2   0   5 5965.60 1388.02   4
  -2   0   4 263340. 7843.40   4
  -2   0   4 261749. 3182.38  15
  -2   0   4 259766. 3097.80   9
  -2   0   3 11302.8 1353.11   4
  -2   0   2 27837.6 1777.19   4
  -2   0   1 15515.6 899.150   4
   2   0   0 173707. 2576.78   3
   2   0   1 47345.7 1649.64   3
   2   0   1 48574.1 1413.19   4
   2   0   2 89800.2 2910.54   4
   2   0   3 1924.70 637.458   4
   2   0   4 162367. 2633.44   9
   2   0   4 167732. 5845.76   4
   2   0   5 1684.67 639.451   4
   2   0   5 3558.42 557.811   9
   2   0   6 28310.6 1399.23   9
   2   0   7 2066.94 398.589   7
   2   0   7 2650.89 499.194   9
  -2   2   7 624.068 402.997  15
  -2   2   6 4113.46 672.963  15
  -2   2   6 2840.96 514.577   9
  -2   2   5 9818.02 773.720   9
  -2   2   5 9363.54 957.330  14
  -2   2   4 153651. 6699.90   4
  -2   2   4 149719. 2419.15   9
  -2   2   4 153351. 2849.00  14
  -2   2   3 21336.9 2233.71   4
  -2   2   2 391842. 9031.72   1
  -2   2   1 44693.8 3539.59   1
   2   2  -1 40260.7 2107.89   2
   2   2   0 106453. 4333.58   2
  -2   2   0 108661. 4608.95   2
  -2   2  -1 10243.7 1077.44   2
   2   2   1 10098.0 1754.47   1
   2   2   2 495566. 9217.57   4
  -2   2  -2 494024. 8262.90   2
   2   2   2 504986. 9665.17   1
   2   2   3 2555.00 757.792   4
   2   2   4 83507.1 1863.11   9
   2   2   4 84840.5 1991.27  17
   2   2   4 80783.9 2033.03  14
   2   2   4 85192.6 4594.44   4
   2   2   5 10109.9 839.176  17
   2   2   5 9042.00 856.949  14
   2   2   5 9065.89 745.775   9
   2   2   6 2417.57 535.733  17
   2   2   6 2648.37 506.226   9
   2   2   6 3483.48 609.054  15
   2   2   7 1256.11 390.829   9
  -2   4   6 9827.92 811.185  15
  -2   4   6 10517.3 920.970  14
  -2   4   5 3062.96 728.089  14
  -2   4   3 1931.72 989.526   4
   2   4  -3 1015.83 838.399   2
  -2   4   2 75668.2 5445.69   1
  -2   4   2 70929.7 1864.82  16
   2   4  -2 75228.9 5134.06   2
   2   4  -1 6364.52 1708.80   2
  -2   4   1 6699.62 538.255  16
   2   4  -1 6686.41 504.146  16
  -2   4   1 4601.05 1088.83   1
  -2   4   0 20422.5 3490.06   2
   2   4   0 23441.2 3755.65   2
   2   4   0 26382.8 1002.02  16
   2   4   1 4976.20 492.798  16
  -2   4  -1 3616.84 1497.72   2
   2   4   1 1760.33 1639.44   1
   2   4   2 84847.6 2028.88  16
  -2   4  -2 84539.0 5643.68   2
   2   4   2 92555.9 5837.45   1
  -2   4  -3 2971.44 1145.74   2
   2   4   3 1004.21 390.660  16
   2   4   3 3934.60 1214.72   4
   2   4   4 61321.6 1972.06  17
   2   4   5 1177.70 539.319  14
  -2   6   5 795.407 360.943  14
   2   6   0 40840.9 1646.23  16
   2   6   1 3897.96 693.074  16
   2   6   2 26771.6 1416.54  16
   2   6   3 2682.69 574.700  16
  -3  -7   3 38447.8 1479.11  18
   3  -7  -3 43688.6 1567.32  11
   3  -7  -2 1332.57 456.859  11
  -3  -7   2 559.842 383.092  18
  -3  -7   1 11372.0 926.248  18
   3  -7  -1 12660.4 935.097  11
  -3  -7   0 2662.33 511.162  18
   3  -7   0 1793.13 424.709  11
   3  -7   1 15576.0 950.779  18
   3  -7   2 874.470 308.601  19
   3  -7   2 953.008 345.941  18
  -3  -7  -2 1185.84 380.292  11
  -3  -7  -3 35184.5 1272.76  11
   3  -7   3 37136.8 1367.65  18
  -3  -5   6 352.250 272.703  22
  -3  -5   5 67054.5 1903.86   7
  -3  -5   5 66856.2 2109.74  22
   3  -5  -5 64964.1 1992.02  11
  -3  -5   4 614.275 493.448  22
   3  -5  -4 1547.42 574.215  11
  -3  -5   4 977.156 393.461   7
  -3  -5   4 1683.88 474.148  18
  -3  -5   3 13802.2 1077.32  22
  -3  -5   3 13488.2 1029.67  18
   3  -5  -3 15245.8 1133.91  11
   3  -5  -2 804.189 497.382  11
  -3  -5   2 496.539 358.202  22
   3  -5  -1 74492.7 2152.05  11
   3  -5   0 1120.73 416.400  11
   3  -5   0 1003.72 367.858  18
   3  -5   1 66395.9 1991.68  18
   3  -5   1 66216.3 1894.42  20
   3  -5   1 66072.5 1872.60  11
  -3  -5  -1 69047.3 2020.02  11
   3  -5   1 66996.3 2181.95   7
   3  -5   2 534.041 415.503  22
  -3  -5  -2 793.030 470.903  11
   3  -5   2 1221.62 460.082  18
   3  -5   2 899.519 494.155   7
   3  -5   3 22626.6 1335.51   7
   3  -5   3 21801.1 1310.15  22
  -3  -5  -3 19139.7 1312.09  11
   3  -5   3 21283.4 1311.17  18
   3  -5   3 18326.2 1052.34  19
   3  -5   4 2423.68 588.384  18
   3  -5   4 3161.91 632.305   7
  -3  -5  -4 2128.72 588.562  11
   3  -5   5 50104.7 1748.64   7
  -3  -5  -5 48936.6 1797.20  11
  -3  -3   7 27151.8 1217.38   7
  -3  -3   6 1071.50 421.843   7
  -3  -3   5 7863.71 767.412  22
  -3  -3   5 7256.23 770.350   5
  -3  -3   5 8248.99 753.092   7
  -3  -3   4 590.402 318.246  22
  -3  -3   4 682.383 340.896   7
   3  -3  -4 446.432 342.558  11
  -3  -3   4 456.575 307.920  12
  -3  -3   4 1317.27 438.623   5
  -3  -3   3 302454. 3220.99   7
   3  -3  -3 300512. 3725.58  11
  -3  -3   3 303857. 3707.44  12
  -3  -3   3 302128. 3278.44   5
  -3  -3   3 305646. 3438.93  18
   3  -3   2 18750.9 829.016   7
   3  -3   2 19641.9 916.455  22
   3  -3   2 20101.1 905.016  18
   3  -3   3 260162. 3402.64   7
   3  -3   3 261620. 3698.26  22
   3  -3   3 259408. 3165.27  19
   3  -3   3 258711. 3622.15  18
   3  -3   4 2780.27 512.384  18
   3  -3   4 2835.22 534.995   7
   3  -3   4 2586.60 533.189  22
   3  -3   5 6701.68 757.736   7
   3  -3   6 1851.04 464.501   7
  -3  -1   7 12577.3 894.360  15
  -3  -1   6 739.295 378.037   9
  -3  -1   6 560.505 390.856   5
  -3  -1   6 1293.17 470.823  15
  -3  -1   5 89626.0 5177.16   4
  -3  -1   5 89499.6 2095.68   9
  -3  -1   5 92474.5 2286.11  15
  -3  -1   4 1116.13 265.039   9
  -3  -1   4 875.664 290.492  15
  -3  -1   4 716.425 707.746   4
  -3  -1   3 204160. 5613.96   4
  -3  -1   2 4703.16 769.653   4
  -3  -1   1 227327. 3775.17   4
   3  -1   1 120888. 2850.75   3
   3  -1   2 20820.0 1402.11   3
   3  -1   2 21537.8 1441.14   4
   3  -1   3 159481. 4827.90   4
   3  -1   4 950.292 327.489   9
   3  -1   4 1099.58 306.018   8
   3  -1   4 1439.00 689.130   4
   3  -1   5 74451.3 2088.99   9
   3  -1   6 10995.5 869.667   9
   3  -1   6 10075.6 850.082   7
   3  -1   7 10556.3 769.993   9
   3  -1   7 9587.13 689.783   7
  -3   1   7 16595.8 1101.49  15
  -3   1   6 1425.11 536.098  15
  -3   1   6 960.933 430.701   9
  -3   1   5 88375.2 2306.80  15
  -3   1   5 88972.0 2179.67   9
  -3   1   5 86184.5 2529.86  14
  -3   1   5 84608.3 5431.07   4
  -3   1   4 386.712 570.394   4
  -3   1   4 910.096 285.517   9
  -3   1   4 511.402 345.367  14
  -3   1   3 193093. 6056.96   4
  -3   1   2 3865.93 803.894   4
  -3   1   1 236986. 4852.55   1
   3   1  -1 233792. 3453.69   3
  -3   1   0 7264.72 898.323   2
   3   1   0 6226.68 713.674   2
   3   1   0 6257.20 625.338   3
   3   1   1 127361. 3201.42   1
   3   1   1 133166. 3494.88   3
  -3   1  -1 131246. 2771.31   2
   3   1   2 20379.6 1431.48   4
   3   1   3 151819. 4795.34   4
   3   1   4 1098.47 332.314  17
   3   1   4 291.353 655.262   4
   3   1   4 787.973 303.424   9
   3   1   4 1087.86 323.323  14
   3   1   5 72470.8 2025.12  17
   3   1   5 74781.8 2130.41   9
   3   1   6 9077.69 778.981  17
   3   1   6 11178.3 904.240   9
   3   1   7 10559.4 803.932   9
  -3   3   7 29650.7 1279.27  15
  -3   3   6 792.685 497.129  15
  -3   3   6 457.556 575.857  14
  -3   3   5 8001.17 963.766  14
  -3   3   4 455.448 692.245   4
   3   3  -4 642.037 619.716   2
  -3   3   3 282086. 8923.60   4
   3   3  -3 286969. 8218.77   2
   3   3  -2 1531.82 676.091   2
  -3   3   2 1227.15 987.116   1
   3   3  -1 45624.2 3273.30   2
  -3   3   1 42943.9 4252.10   1
  -3   3   0 6114.37 1742.01   2
   3   3   0 6627.49 1578.22   2
   3   3   1 36851.7 3882.73   1
  -3   3  -1 38855.6 3170.71   2
   3   3   2 16326.2 2277.69   1
  -3   3  -2 14923.0 1901.23   2
   3   3   2 17375.9 778.157  13
  -3   3  -3 248414. 7947.32   2
   3   3   3 241855. 3130.13  16
   3   3   3 239178. 7329.09   4
   3   3   3 240718. 3302.34  17
  -3   3  -4 1855.40 929.171   2
   3   3   4 2689.84 521.764  17
   3   3   4 3172.97 589.093  14
   3   3   5 7241.70 802.074  17
   3   3   5 5698.14 666.291  14
   3   3   6 1332.30 382.619   9
  -3   5   6 911.320 365.047  14
  -3   5   6 341.774 271.824  15
  -3   5   5 69362.9 2171.13  14
   3   5  -1 78025.6 2021.40  16
   3   5   0 1591.28 438.772  16
   3   5   1 65734.7 2000.52  16
   3   5   2 1591.44 543.236  16
   3   5   3 19568.4 1163.31  16
   3   7   0 2884.67 542.482  16
   3   7   1 15783.0 1024.03  16
   3   7   2 1758.86 427.866  16
  -4  -6   5 1329.46 346.739  22
   4  -6  -4 12020.4 931.316  11
  -4  -6   4 12566.3 913.174  22
  -4  -6   4 12384.2 874.815  18
  -4  -6   3 1594.99 478.798  22
   4  -6  -3 1459.84 507.799  11
  -4  -6   3 1733.58 508.312  18
  -4  -6   2 10051.2 998.898  18
  -4  -6   2 10655.5 846.679  22
   4  -6  -2 11813.7 1039.37  11
   4  -6  -1 1015.01 547.425  11
   4  -6   0 58957.3 1999.44  11
   4  -6   1 2917.12 532.494  18
   4  -6   1 1461.81 407.923  11
  -4  -6  -2 10422.4 916.128  11
   4  -6   2 10032.9 891.676  18
   4  -6   3 351.276 305.469  19
   4  -6   3 626.412 436.190   7
   4  -6   3 563.460 380.875  18
  -4  -6  -3 277.992 415.970  11
  -4  -6  -4 16253.2 1006.38  11
   4  -6   4 17119.3 1034.92   7
  -4  -4   6 22142.9 1095.36   7
  -4  -4   6 24246.4 1170.61  22
  -4  -4   5 601.664 467.204  22
  -4  -4   5 734.852 356.514   7
  -4  -4   4 20724.2 1258.41  22
  -4  -4   4 19854.8 1029.97   7
   4  -4  -4 22351.4 1252.18  11
   4  -4  -3 13867.3 974.615  11
  -4  -4   3 11577.9 870.409  18
  -4  -4   3 13096.3 933.806  12
   4  -4  -2 37413.1 1470.19  11
  -4  -4   2 38854.7 1475.39  12
   4  -4  -1 1152.30 342.723  11
  -4  -4   1 1143.74 323.632  12
   4  -4   0 96009.0 2116.80  11
   4  -4   1 2110.64 439.906   7
   4  -4   1 1487.80 360.340  11
   4  -4   1 1811.48 388.648  18
   4  -4   2 23489.6 1175.18   7
   4  -4   2 23018.0 1242.55  22
   4  -4   2 24189.3 1207.30  18
   4  -4   2 23252.9 1114.35  20
   4  -4   3 3514.55 491.551  19
   4  -4   3 3617.70 614.064  18
   4  -4   3 4318.83 600.353   7
   4  -4   4 36549.2 1580.64   7
  -4  -4  -5 916.836 495.507  11
   4  -4   5 732.613 427.275   7
   4  -4   6 21205.9 1049.29   7
  -4  -4  -6 17637.4 967.744  11
  -4  -2   7 959.988 384.621   7
  -4  -2   6 14201.4 1031.48   7
  -4  -2   6 14025.1 975.938   5
  -4  -2   5 898.864 324.806  22
  -4  -2   5 690.561 387.802   5
  -4  -2   4 14750.2 812.977   5
  -4  -2   4 15709.1 863.563  15
  -4  -2   4 14961.3 1877.36   4
  -4  -2   4 15556.3 844.989  12
  -4  -2   3 13147.3 1547.22   4
   4  -2   1 812.068 350.203   3
   4  -2   3 3595.13 456.935  22
   4  -2   3 3332.41 443.365  18
   4  -2   3 4530.10 434.174   7
   4  -2   3 3531.83 387.532  19
   4  -2   3 3692.74 393.997   8
   4  -2   4 30340.1 1240.32   7
   4  -2   4 30127.0 1207.71   9
   4  -2   4 30000.7 1158.58   8
   4  -2   4 28738.3 1111.43  19
   4  -2   5 1671.89 467.176   7
   4  -2   5 1605.63 454.361   9
   4  -2   6 24007.3 1193.07   7
   4  -2   6 22081.7 1120.36   9
   4  -2   7 750.400 289.620   7
  -4   0   7 2700.25 556.654  15
  -4   0   6 85914.4 2503.14  15
  -4   0   5 990.228 401.561  15
  -4   0   5 1987.40 1087.99   4
  -4   0   5 1197.64 377.659   9
  -4   0   4 20024.8 949.581   9
  -4   0   4 20690.2 948.250  15
  -4   0   4 19066.9 2181.38   4
  -4   0   3 70732.7 3476.91   4
  -4   0   2 11191.7 1180.07   4
  -4   0   1 6394.46 620.972   4
   4   0   0 999999. 8891.26   3
   4   0   1 35377.6 1826.35   3
   4   0   1 27327.0 932.687   4
   4   0   2 6153.77 932.805   3
   4   0   2 5218.67 661.567   4
   4   0   3 1925.62 507.176   4
   4   0   4 54985.4 1508.58  19
   4   0   4 57297.2 1733.62   9
   4   0   4 58221.4 1612.32   8
   4   0   4 57669.7 1511.48  17
   4   0   5 1581.76 496.112   9
   4   0   6 79631.3 2307.65   9
   4   0   7 5502.42 595.112   9
  -4   2   7 770.132 404.947  15
  -4   2   6 15695.3 1137.06  15
  -4   2   5 1388.66 447.851  15
  -4   2   5 685.061 518.654  14
  -4   2   4 13567.3 2097.45   4
  -4   2   4 15892.6 988.040  14
  -4   2   3 12697.0 1759.95   4
  -4   2   2 238543. 6952.18   4
   4   2  -2 241652. 5846.60   2
   4   2  -1 37677.0 2131.31   2
   4   2  -1 37869.6 1605.76   3
  -4   2   1 38696.0 3086.62   1
   4   2   0 28283.6 1660.74   3
  -4   2   0 27216.7 2725.50   2
   4   2   0 28392.3 2537.56   2
  -4   2  -1 1119.12 526.397   2
   4   2   1 375.998 594.938   1
   4   2   1 714.484 463.685   3
   4   2   2 119255. 3904.37   4
  -4   2  -2 117345. 4020.55   2
   4   2   3 3991.47 431.334  17
   4   2   3 3389.05 396.947  13
  -4   2  -3 3045.44 811.043   2
   4   2   4 31906.7 1332.30  17
   4   2   4 28937.3 1196.91   9
   4   2   5 2114.70 545.868  17
   4   2   5 1654.91 451.175   9
   4   2   6 22410.9 1217.58  17
   4   2   6 23378.5 1194.82   9
   4   2   7 866.968 293.611   9
  -4   4   6 21258.3 1110.65  15
  -4   4   6 24108.0 1304.91  14
  -4   4   5 843.125 557.792  14
  -4   4   3 8556.37 1689.25   4
   4   4  -3 10951.3 2033.54   2
  -4   4   2 35538.0 3602.65   1
   4   4  -2 36937.5 3759.39   2
   4   4  -1 677.035 816.121   2
  -4   4   1 863.162 1447.87   1
   4   4   0 90726.2 7600.58   2
   4   4   0 95981.8 2077.82  16
  -4   4   0 84898.9 7303.99   2
  -4   4  -1-365.032 1024.01   2
   4   4   1 2510.81 431.692  16
   4   4   1 993.707 1342.55   1
   4   4   1 1578.88 346.776  13
  -4   4  -2 19274.1 2890.45   2
   4   4   2 18455.3 2540.53   1
   4   4   2 21017.2 1090.95  16
   4   4   3 3373.87 542.338  16
   4   4   3 3457.55 511.339  17
   4   4   4 35708.0 1538.40  17
   4   4   5 80.1556 364.584  17
  -4   6   5 1808.48 427.959  14
   4   6  -1 639.623 362.717  16
   4   6   0 61014.9 2054.95  16
   4   6   1 2220.04 562.084  16
   4   6   2 11397.0 942.985  16
   4   6   3 794.536 430.735  16
   5  -7  -3 21925.8 1064.89  11
  -5  -7   3 19549.1 1010.49  18
  -5  -7   2 601.685 351.315  18
   5  -7  -2 803.505 367.486  11
   5  -7  -1 9221.94 769.558  11
  -5  -7   1 8577.03 820.316  18
   5  -7   0 1275.36 360.756  11
   5  -7   2 341.164 244.467  19
  -5  -5   5 56341.4 1922.61  22
  -5  -5   4 2653.48 604.514  22
   5  -5  -4 2569.36 588.787  11
  -5  -5   3 2046.54 546.139  22
   5  -5  -3 2432.64 598.539  11
  -5  -5   3 1774.81 449.106  18
   5  -5  -2 1115.25 525.287  11
  -5  -5   2 727.743 407.684  22
   5  -5  -1 66687.7 2170.70  11
   5  -5   0 1204.07 429.270  11
   5  -5   1 46974.7 1724.77  11
  -5  -5  -1 48596.7 1730.16  11
   5  -5   1 48123.2 1817.95  20
   5  -5   1 52219.2 1785.76  18
   5  -5   2 11356.9 920.426  20
  -5  -5  -2 12061.6 1004.35  11
   5  -5   2 11598.1 971.807  18
   5  -5   2 11549.7 1010.33   7
   5  -5   3 1155.85 382.741  19
  -5  -5  -3 1953.25 617.860  11
   5  -5   3 2095.26 594.007   7
   5  -5   3 2278.90 554.296  18
  -5  -5  -4 668.222 474.056  11
   5  -5   4 927.484 479.366   7
   5  -5   5 39008.5 1442.50   7
  -5  -5  -5 38501.6 1517.65  11
   5  -5   5 38825.6 1493.64  21
  -5  -3   7 33534.4 1238.40   7
  -5  -3   6 1547.32 421.650  22
  -5  -3   6 2088.72 551.443   5
  -5  -3   6 1743.83 442.502   7
  -5  -3   5 4799.73 624.240  22
  -5  -3   5 5944.75 641.364   7
  -5  -3   5 5199.20 705.053   5
  -5  -3   4 1561.68 456.141  12
  -5  -3   4 980.721 480.303   5
   5  -3  -3 114835. 2352.85  11
  -5  -3   3 116674. 2165.68   5
  -5  -3   3 117607. 2451.39  12
  -5  -3   2 3983.66 479.826  12
   5  -3  -2 3952.55 471.858  11
  -5  -3   2 4173.01 428.598   5
   5  -3   0 11454.4 1284.09   3
   5  -3   1 47887.1 1360.58  20
   5  -3   1 45547.9 1331.93  11
   5  -3   2 4385.72 481.610  19
   5  -3   2 3833.24 485.892  18
   5  -3   2 4580.91 507.541  20
   5  -3   2 3726.14 444.939   7
   5  -3   3 66786.8 1826.72   7
   5  -3   3 66828.0 1821.71  19
   5  -3   3 65515.6 2037.46  18
   5  -3   3 63151.3 1710.39   8
   5  -3   4 9666.89 808.792   7
   5  -3   4 8853.64 716.667  19
   5  -3   5 3055.80 502.119   7
   5  -3   6 1379.41 359.580   7
  -5  -3  -6-46.0257 342.866  11
  -5  -1   7 25847.7 1212.19   5
  -5  -1   6 2243.42 527.944  15
  -5  -1   6 2083.10 548.242   5
  -5  -1   5 78571.8 2190.19  15
  -5  -1   4 1628.40 310.161  12
  -5  -1   4 2748.01 955.087   4
  -5  -1   4 2843.79 438.884  15
  -5  -1   3 9173.49 1217.93   4
  -5  -1   2 884.355 429.333   4
   5  -1   0 40465.5 2147.54   3
   5  -1   1 172125. 4388.10   3
   5  -1   2 40502.1 2324.89   3
   5  -1   3 5850.18 487.447  19
   5  -1   3 5723.32 487.199   8
   5  -1   4 667.143 313.358  19
   5  -1   4 1354.96 371.353   8
   5  -1   5 44762.0 1708.68   9
   5  -1   6 1340.72 464.498   9
   5  -1   7 9991.79 691.167   9
  -5   1   7 30844.5 1448.30  15
  -5   1   6 2257.72 615.648  15
  -5   1   5 76396.2 2184.50  15
  -5   1   4 2304.79 1035.66   4
  -5   1   4 2129.60 373.882  15
  -5   1   4 2083.28 423.195  14
  -5   1   3 7281.58 1218.14   4
   5   1  -2 359.261 245.005   3
  -5   1   2 658.492 507.137   4
  -5   1   1 151524. 3803.37   4
   5   1  -1 156852. 3831.71   3
   5   1  -1 155479. 3091.95   2
   5   1   0 36493.8 1936.30   3
  -5   1   0 30553.2 1574.14   1
   5   1   1 173636. 4733.50   3
  -5   1  -1 164082. 3310.33   2
   5   1   2 41149.3 2708.01   3
   5   1   3 6293.45 520.297  17
   5   1   3 5949.19 489.315   8
   5   1   4 808.408 368.302  17
   5   1   4 200.026 302.314   9
   5   1   5 43656.0 1641.86  17
   5   1   5 46247.1 1752.57   9
   5   1   6 1037.00 423.825  17
   5   1   6 683.033 441.277   9
   5   1   7 10277.3 719.248   9
  -5   3   7 38329.6 1393.65  15
  -5   3   6 1781.32 488.009  15
  -5   3   6 1450.30 543.257  14
  -5   3   5 5517.61 693.595  15
  -5   3   5 6128.94 803.464  14
   5   3  -4 2941.02 997.972   2
  -5   3   4 2005.37 573.719  14
  -5   3   3 102986. 5375.75   4
   5   3  -3 107767. 5125.34   2
  -5   3   2 2726.44 1208.72   1
   5   3  -2 3130.66 955.837   2
   5   3  -1 32809.6 3031.30   2
  -5   3   1 30860.0 3251.78   1
   5   3   0 10269.5 2243.37   2
  -5   3   0 10822.8 2329.27   2
  -5   3  -1 39505.9 3630.27   2
   5   3   1 44781.2 1291.05  16
   5   3   1 40425.9 3610.37   1
   5   3   1 47609.2 1250.64  13
   5   3   2 3523.51 422.435  17
   5   3   2 3389.87 420.873  16
   5   3   2 3518.45 446.657  13
   5   3   3 67534.3 1862.65  17
   5   3   4 10097.5 860.029  17
   5   3   5 3605.50 614.766  17
   5   3   6 863.623 378.340  17
  -5   5   5 53931.8 1835.89  14
   5   5  -2 1548.08 404.989  16
   5   5  -1 68608.5 2054.35  16
   5   5   0 1701.57 527.313  16
   5   5   1 48996.7 1820.91  16
   5   5   2 12283.6 966.325  16
   5   5   3 1141.84 478.146  16
   5   5   4-290.407 342.495  17
   5   7  -1 8991.63 687.531  16
   5   7   0 1472.52 471.735  16
   5   7   1 10680.1 821.502  16
   5   7   2-129.412 303.915  16
  -6  -6   4 25707.1 1202.32  22
   6  -6  -4 25089.8 1230.24  11
  -6  -6   3 1036.78 407.954  22
   6  -6  -3 1649.72 536.484  11
  -6  -6   3 1134.56 411.119  18
   6  -6  -2 25006.3 1413.10  11
   6  -6  -1 3647.03 664.437  11
   6  -6   0 70149.8 2252.25  11
   6  -6   0 68429.9 2215.27  20
   6  -6   1 1319.71 459.134  20
   6  -6   2 17960.3 1143.25  21
   6  -6   2 15660.7 1068.25  19
  -6  -6  -2 16731.7 1033.60  11
   6  -6   2 18559.3 1124.12  18
   6  -6   3 1438.90 422.197  21
   6  -6   3 853.075 348.179  19
  -6  -6  -3 1184.44 350.237  11
   6  -6   4 15465.2 894.676  21
  -6  -4   6 42842.4 1539.37  22
   6  -4  -6 38440.6 1419.93   6
  -6  -4   5 1131.29 462.083  22
   6  -4  -4 62627.8 2023.91  11
  -6  -4   4 60242.5 2119.54  12
  -6  -4   3 919.263 478.143  12
   6  -4  -3 916.357 445.422  11
   6  -4  -2 70792.3 2087.28  11
   6  -4  -2 67466.9 2114.51  10
  -6  -4   2 67901.1 2017.99  12
   6  -4  -1 7408.67 727.715  10
   6  -4  -1 9582.65 841.516  11
  -6  -4   1 8435.90 755.742  12
   6  -4   0 102678. 2241.02  21
   6  -4   0 105509. 2452.35  11
   6  -4   1 781.215 397.883   7
   6  -4   1 402.382 338.166  20
   6  -4   1 852.182 410.159  11
   6  -4   1 943.610 354.381  18
   6  -4   2 58812.0 1946.96   7
   6  -4   2 57600.7 1934.74  20
   6  -4   2 58799.6 1913.76  19
   6  -4   2 60541.6 1990.24  18
   6  -4   3 1060.86 452.605   7
   6  -4   3 464.318 370.854  19
   6  -4   4 40563.7 1610.87   7
   6  -4   4 38795.7 1499.43  19
   6  -4   5 1274.09 409.779  21
  -6  -4  -5 1330.15 495.833  11
   6  -4   5 1703.26 426.856   7
  -6  -2   7 2751.69 440.970   7
  -6  -2   7 2798.48 455.597   5
  -6  -2   6 34418.0 1473.45   7
  -6  -2   6 38411.9 1575.25   5
  -6  -2   5-225.011 364.429  12
  -6  -2   5 519.972 466.597   5
  -6  -2   4 104947. 2270.37   5
  -6  -2   4 104650. 4930.37   4
  -6  -2   4 104365. 2368.11  12
  -6  -2   3 11621.8 679.526   5
  -6  -2   3 10929.7 725.488  12
   6  -2   0 43032.0 2572.24   3
   6  -2   1 7610.57 1074.03   3
   6  -2   2 253838. 3149.75  19
   6  -2   2 255878. 3266.29  20
   6  -2   3 1830.64 386.275  19
   6  -2   3 1067.97 324.239   8
   6  -2   4 42360.0 1538.24  19
   6  -2   4 43481.5 1572.48   8
   6  -2   5 335.138 370.435   9
   6  -2   6 11528.6 811.521   9
  -6   0   7 3710.72 578.255  15
  -6   0   7 5007.30 690.590   5
  -6   0   6 147744. 3313.54  15
  -6   0   5 967.640 439.180  15
   6   0  -4 143120. 2467.92   6
  -6   0   4 147872. 2625.03  15
  -6   0   4 144464. 5952.63   4
  -6   0   3 920.772 508.637   4
  -6   0   2 25806.6 1704.32   4
   6   0  -1 100060. 3667.15   3
   6   0   0 621444. 8980.43   3
   6   0   1 8317.96 1109.16   3
   6   0   2 53003.4 3067.00   3
   6   0   3 307.748 246.366  19
   6   0   3 1114.42 617.839   3
   6   0   3 464.276 273.243  17
   6   0   3 720.639 292.519   8
   6   0   4 76731.1 2072.95  19
   6   0   4 81783.5 2102.87   8
   6   0   4 78438.7 1944.75  17
   6   0   5 4474.71 585.042  17
   6   0   5 2758.36 600.078   9
   6   0   6 40548.8 1636.77   9
   6   0   7 611.776 301.869   9
  -6   2   7 4492.15 586.063  15
  -6   2   6 39564.2 1686.40  15
  -6   2   5 890.754 440.777  15
  -6   2   5 478.965 479.171  14
  -6   2   4 98941.7 2187.79  15
  -6   2   4 94666.9 2312.22  14
  -6   2   4 92475.7 5228.80   4
   6   2  -3 10287.2 1430.11   2
  -6   2   3 8638.19 1445.39   4
  -6   2   3 9371.02 577.212  15
  -6   2   2 214503. 6263.58   4
   6   2  -2 220062. 5625.02   2
   6   2  -1 3001.50 649.837   3
   6   2  -1 3015.66 752.853   2
   6   2   0 40213.2 2376.32   3
   6   2   1 7170.85 1161.05   3
   6   2   2 246302. 2998.35  17
   6   2   2 246627. 2930.22  13
   6   2   3 1275.58 372.983  17
   6   2   3 887.860 324.381  13
   6   2   4 43798.2 1553.72   9
   6   2   4 45353.9 1662.55  17
   6   2   5 523.827 444.570  17
   6   2   5 420.364 404.129   9
   6   2   6 11736.3 865.550  17
   6   2   6 11370.3 811.964   9
  -6   4   6 38536.0 1377.23  15
  -6   4   6 40895.7 1569.35  14
  -6   4   5 1186.09 370.793  15
  -6   4   5 2273.09 577.112  14
   6   4   0 110426. 2435.36  16
   6   4   0 109997. 2146.03  13
   6   4   1 1029.03 415.190  16
   6   4   1 377.473 329.263  13
   6   4   2 54214.6 1778.67  16
   6   4   2 57008.5 1810.34  13
   6   4   3 1045.49 425.578  17
   6   4   3 1268.60 426.577  16
   6   4   4 40273.5 1629.24  17
   6   4   5 877.424 412.228  17
  -6   6   4 23715.9 1107.77  14
   6   6  -1 3640.23 611.973  16
   6   6   0 73784.5 2289.63  16
   6   6   1 896.872 501.470  16
   6   6   2 18770.9 1148.84  16
   6   6   3 546.063 325.694  16
   7  -7  -2 816.561 340.344  11
  -7  -7   2 241.079 269.470  18
   7  -7  -1 20186.4 1067.70  11
   7  -7  -1 19784.2 990.870  20
   7  -7   0 1110.85 378.995  19
   7  -7   0 486.731 264.732  20
   7  -7   1 20524.1 1035.56  19
  -7  -5   5 69253.1 2063.50  22
  -7  -5   4 420.060 371.072  22
   7  -5  -4 1331.14 451.240  11
   7  -5  -3 9827.48 949.105  11
  -7  -5   3 8406.07 810.910  18
   7  -5  -2 4980.62 809.425  11
   7  -5  -1 113667. 2935.62  11
   7  -5   0 10531.3 947.236  11
   7  -5   1 74205.3 2365.16  20
   7  -5   1 76208.7 2387.74  21
   7  -5   2 1014.62 430.673  19
  -7  -5  -2 1558.06 526.893  11
   7  -5   2 1912.86 597.220  21
   7  -5   3 14709.8 1146.64  21
   7  -5   3 13635.4 968.246  19
  -7  -5  -3 13388.9 1044.01  11
   7  -5   3 13805.1 1029.61   7
   7  -5   4 6987.73 750.233  21
   7  -5   4 5850.25 576.318  19
  -7  -5  -4 6861.88 710.150  11
   7  -5   4 6875.27 674.851   7
  -7  -3   6 2949.02 473.129  22
   7  -3  -6 3032.87 557.283   6
  -7  -3   6 3296.65 622.978   5
  -7  -3   5 18924.0 1223.73   5
  -7  -3   5 17452.4 1152.24  12
  -7  -3   4 1189.70 479.879  12
  -7  -3   4 1067.87 515.892   5
   7  -3  -3 171675. 3034.13  11
  -7  -3   3 179553. 2848.32   5
  -7  -3   3 177759. 3268.03  12
  -7  -3   2 495.891 333.648  12
   7  -3  -2 527.233 336.650  11
  -7  -3   2 926.829 332.178   5
   7  -3  -2 1402.58 469.065  10
   7  -3  -1 104162. 2275.36  11
   7  -3  -1 108821. 2450.26  10
   7  -3  -1 104956. 4869.77   3
  -7  -3   1 102780. 2096.08  12
   7  -3   0 24321.1 1094.71  11
   7  -3   0 23666.8 1045.92  21
   7  -3   0 23229.0 2119.13   3
   7  -3   1 69690.1 1888.01  20
   7  -3   1 71819.7 1799.89  18
   7  -3   1 72235.4 2006.80  21
   7  -3   1 69160.5 1737.60   7
   7  -3   2 6853.23 619.059   7
   7  -3   2 6587.49 699.070  20
   7  -3   2 6922.79 666.021  19
   7  -3   3 138708. 2691.07   7
   7  -3   3 139529. 2887.08  19
   7  -3   3 136770. 2816.84   8
   7  -3   4 1737.57 508.751  21
   7  -3   4 1512.26 440.608  19
   7  -3   4 1959.15 528.110   8
   7  -3   5 20807.0 1143.85  21
  -7  -3  -6 6748.40 604.729  11
  -7  -1   7 21858.0 1089.84   7
  -7  -1   7 26395.5 1234.83   5
  -7  -1   6 7196.81 845.428   5
   7  -1  -5 123351. 3039.88   6
  -7  -1   5 119579. 2827.42  15
  -7  -1   4 2124.47 428.163  12
  -7  -1   4 2814.39 900.419   4
   7  -1  -4 2014.59 419.549   6
  -7  -1   4 2407.28 440.303  15
  -7  -1   3 86863.0 1854.24  15
  -7  -1   3 87051.0 1961.71  12
   7  -1  -1 327633. 7597.03   3
   7  -1   0 73930.5 3523.24   3
   7  -1   1 141294. 4846.84   3
   7  -1   2 495.578 478.876   3
   7  -1   2 772.366 254.428  19
   7  -1   2 548.462 226.029  21
   7  -1   3 76285.9 1962.91  19
   7  -1   3 69907.8 3936.46   3
   7  -1   3 74972.5 1725.31  17
   7  -1   3 81239.4 2009.46   8
   7  -1   3 75994.9 1900.70  21
   7  -1   4 2906.56 512.126  19
   7  -1   4 3169.32 584.576   8
   7  -1   5 88495.6 2456.78   9
   7  -1   6 3008.35 519.071   9
  -7   1   7 27762.2 1309.53  15
  -7   1   6 8199.74 855.327  15
  -7   1   5 118707. 2715.51  15
  -7   1   4 2092.51 952.253   4
  -7   1   4 2304.63 429.715  15
  -7   1   3 81392.9 1821.18  12
  -7   1   3 84194.4 4041.84   4
   7   1  -2 3601.14 806.569   3
   7   1  -1 317067. 6729.84   3
   7   1   0 71070.8 3327.85   3
   7   1   1 139137. 5041.40   3
   7   1   2 478.868 250.844  19
   7   1   2 366.753 243.397  17
   7   1   2 100.788 494.811   3
   7   1   3 79654.6 1952.83  17
   7   1   3 79315.1 1893.64   8
   7   1   3 74590.5 1674.36  13
   7   1   4 2261.88 483.542  17
   7   1   5 87609.0 2344.57  17
   7   1   5 87972.5 2442.61   9
   7   1   6 1987.24 423.379  17
   7   1   6 2803.00 520.972   9
  -7   3   6 3068.24 516.466  15
  -7   3   5 16908.4 1034.08  15
  -7   3   5 15360.0 1081.70  14
  -7   3   3 143453. 6184.00   4
   7   3   1 66080.0 1572.58  17
   7   3   1 67835.7 1705.33  13
   7   3   2 5443.01 567.989  17
   7   3   2 5498.60 573.844  16
   7   3   2 5862.50 625.544  13
   7   3   3 135774. 2771.72  17
   7   3   3 135927. 2790.49  13
   7   3   4 2429.55 586.636  17
   7   3   5 21266.5 1224.29  17
   7   3   6 7960.68 644.829  17
  -7   5   5 58690.2 1720.45  14
   7   5  -2 3449.51 553.045  16
   7   5  -1 117337. 2807.25  16
   7   5   0 10923.2 993.030  16
   7   5   1 71576.4 2244.63  16
   7   5   1 71163.7 2062.74  13
   7   5   2 858.609 454.509  16
   7   5   3 12761.1 882.226  16
   7   5   4 5837.32 567.905  17
   7   7  -1 18814.4 917.100  16
   7   7   0 1421.07 407.626  16
   7   7   1 24263.8 1105.55  16
  -8  -6   4 23122.7 1056.14  22
  -8  -6   3 1136.96 368.793  22
   8  -6  -3 438.801 332.557  11
   8  -6  -2 14356.7 1035.96  11
   8  -6  -1 370.076 406.253  20
   8  -6  -1 1493.85 466.358  11
   8  -6   0 45999.4 1813.50  20
   8  -6   1 446.963 386.440  20
   8  -6   1 586.550 375.806  19
   8  -6   2 15538.4 980.498  19
   8  -6   2 16763.9 1018.67  21
   8  -6   3 1311.24 307.918  19
   8  -6   3 2023.74 396.286  21
  -8  -4   6 16842.5 931.184  22
   8  -4  -6 15733.6 873.942   6
  -8  -4   5 2271.37 541.542  22
   8  -4  -5 2540.50 653.815  10
   8  -4  -4 47762.2 2106.35  10
  -8  -4   4 48627.0 1971.50  12
  -8  -4   3 972.926 530.861  12
   8  -4  -3 1278.15 503.152  11
   8  -4  -3 1227.80 597.635  10
   8  -4  -2 55417.0 2106.47  10
   8  -4  -2 57582.3 2018.42  11
  -8  -4   2 54941.7 1925.44  12
  -8  -4   1 843.080 392.738  12
   8  -4  -1 1388.05 478.916  11
   8  -4  -1 771.150 459.939  10
   8  -4   0 66063.9 2003.73  21
   8  -4   0 66776.6 2145.42  11
   8  -4   1 1506.73 556.483  20
   8  -4   1 1421.54 528.801  21
   8  -4   1 989.793 459.028  19
   8  -4   2 37108.7 1801.57  21
   8  -4   2 34431.6 1636.07  20
   8  -4   2 34340.4 1562.47  19
   8  -4   2 33785.9 1495.48   7
   8  -4   3 656.453 511.409  21
   8  -4   3 1403.08 471.795   7
   8  -4   3 1007.61 445.448  19
   8  -4   3 608.750 363.559   8
   8  -4   4 37788.2 1712.88  21
   8  -4   4 36203.5 1474.35  19
   8  -4   5 662.990 279.834  21
  -8  -4  -5 523.336 355.111  11
  -8  -2   7 589.803 353.140   5
   8  -2  -6 8417.20 910.301   6
  -8  -2   6 8480.78 856.304   5
  -8  -2   5 2368.69 498.041  12
   8  -2  -5 1971.74 521.737   6
  -8  -2   5 2739.26 645.217   5
  -8  -2   4 74009.9 2080.98   5
  -8  -2   4 76566.3 2258.45  12
  -8  -2   3 3601.86 596.963  12
  -8  -2   3 3654.04 509.934   5
  -8  -2   2 197675. 2513.94   5
  -8  -2   2 195783. 3045.62  12
   8  -2  -1 12513.6 838.041  10
   8  -2  -1 10946.2 1629.42   3
   8  -2  -1 10212.2 678.861  11
  -8  -2   1 10756.5 677.005  12
   8  -2   0 27297.2 1119.82  21
   8  -2   0 28451.0 1029.17  19
   8  -2   0 30483.3 2536.32   3
   8  -2   1 12420.8 820.479  21
   8  -2   1 13095.4 834.827  20
   8  -2   1 13503.7 788.886  19
   8  -2   1 10923.6 1472.40   3
   8  -2   2 110553. 2584.73  21
   8  -2   2 111027. 2364.36  19
   8  -2   3 753.894 454.224  21
   8  -2   3 662.679 346.427  19
   8  -2   3 1245.46 486.367   8
   8  -2   4 39929.8 1640.86  19
   8  -2   4 38980.4 1613.36  21
   8  -2   4 41623.6 1660.31   8
   8  -2   5 561.156 369.492  19
   8  -2   5 272.022 367.832   9
  -8   0   7 1788.78 555.775   5
  -8   0   6 55245.1 1998.09  15
  -8   0   5 5948.95 728.073  15
   8   0  -4 88736.6 2215.86   6
  -8   0   4 89369.5 2178.39  15
  -8   0   4 90909.2 2231.01  12
  -8   0   3 3403.73 503.301  12
   8   0  -3 2828.36 831.128   3
   8   0  -3 3307.81 457.518   6
  -8   0   3 2497.71 373.499  15
  -8   0   2 61407.6 1604.96  12
   8   0  -2 63392.6 1516.50   6
   8   0  -2 59814.6 3477.92   3
   8   0  -1 6358.50 1165.86   3
   8   0   0 365846. 8179.58   3
   8   0   1 4186.04 1007.98   3
   8   0   2 9676.74 693.131  19
   8   0   2 10515.2 682.559  17
   8   0   2 10561.6 698.051   8
   8   0   2 9139.03 1499.41   3
   8   0   3 5668.41 635.033  19
   8   0   3 4995.56 1311.60   3
   8   0   3 6136.46 625.021  17
   8   0   3 6573.98 669.315   8
   8   0   4 68236.2 1982.23  17
   8   0   4 67633.4 2128.52   8
   8   0   5 1483.56 434.479  17
   8   0   5 1269.08 507.672   9
   8   0   6 48471.5 1655.72   9
  -8   2   7 276.651 275.444  15
  -8   2   6 8032.79 742.871  15
  -8   2   5 3524.76 558.598  15
  -8   2   4 73736.2 1976.67  15
  -8   2   3 3550.45 519.912  12
   8   2  -1 10107.8 1354.34   3
   8   2   0 27428.0 2305.00   3
   8   2   1 12492.3 1707.94   3
   8   2   1 11686.5 717.427  17
   8   2   2 108976. 5496.26   3
   8   2   2 107577. 2293.82  17
   8   2   2 108782. 2223.94  13
   8   2   3 827.295 389.577  17
   8   2   3 768.755 397.898  13
   8   2   4 42904.5 1723.96  17
   8   2   4 40042.4 1576.07   9
   8   2   5 897.096 471.609  17
   8   2   5 448.162 342.692   9
   8   2   6 16698.0 920.577  17
   8   2   6 16203.9 855.647   9
   8   4   0 67400.3 1867.35  13
   8   4   1 863.733 433.733  16
   8   4   1 1109.84 420.914  13
   8   4   2 33381.1 1431.41  16
   8   4   2 33456.4 1503.90  13
   8   4   3 1212.44 448.651  17
   8   4   4 35646.5 1486.04  17
   8   4   5 1017.93 361.604  17
   8   6  -2 12891.8 867.098  16
   8   6  -1 724.897 421.599  16
   8   6   0 48264.4 1810.95  16
   8   6   1 19.6443 367.666  16
   8   6   2 16776.1 1002.91  16
  -9  -5   5 52346.0 1665.77  22
   9  -5  -5 53751.9 1604.16   6
  -9  -5   4 2282.10 521.376  22
   9  -5  -4 1840.57 487.698  10
   9  -5  -3 17512.8 1147.82  11
   9  -5  -3 18418.2 1206.50  10
   9  -5  -2 1527.83 526.560  11
   9  -5  -1 39005.9 1792.64  11
   9  -5   0 452.324 453.865  20
   9  -5   0 1132.90 467.177  19
   9  -5   1 53276.9 2011.12  21
   9  -5   1 51433.7 2012.67  20
   9  -5   1 52461.6 1980.53  19
   9  -5   2 1033.76 502.424  21
   9  -5   2 1719.36 493.659  19
  -9  -5  -2 1336.53 446.933  11
   9  -5   2 483.137 337.213   8
   9  -5   3 17128.2 1119.76  21
   9  -5   3 16842.4 1014.18  19
  -9  -5  -3 17004.3 1045.41  11
   9  -5   4 5049.31 546.517  21
  -9  -5  -4 3801.34 484.087  11
  -9  -3   6 1649.62 363.081  22
   9  -3  -6 1888.38 409.459   6
   9  -3  -5 14333.4 1071.07   6
  -9  -3   5 14670.6 1077.84   5
  -9  -3   5 14151.0 1085.34  12
  -9  -3   4 33146.8 1456.55   5
  -9  -3   4 34036.0 1666.44  12
   9  -3  -3 181966. 3991.72  10
  -9  -3   3 187893. 3032.13   5
  -9  -3   3 188327. 3630.64  12
  -9  -3   2 1205.89 460.794  12
   9  -3  -2 1032.93 391.422  11
   9  -3  -2 1221.60 566.209  10
   9  -3  -1 17102.7 1048.77  11
   9  -3  -1 13977.1 1914.12   3
   9  -3  -1 17520.5 1180.73  10
  -9  -3   1 16122.3 949.232  12
   9  -3   0 6915.31 699.723  21
   9  -3   0 5383.87 637.881  20
   9  -3   0 7163.04 685.456  19
   9  -3   0 5917.97 1243.94   3
   9  -3   1 65994.6 2160.58  21
   9  -3   1 65759.4 2108.71  20
   9  -3   1 67610.9 2011.05  19
   9  -3   2 27799.5 1552.31  21
   9  -3   2 27666.4 1367.83  19
   9  -3   3 111012. 3048.66  21
   9  -3   3 109617. 2741.08  19
   9  -3   3 107445. 2708.31   8
   9  -3   4 1388.27 470.953  21
   9  -3   4 1931.83 494.988  19
   9  -3   4 1650.13 488.343   8
   9  -3   5 2369.20 427.456  19
  -9  -1   7 12559.7 834.662   5
  -9  -1   6 1353.01 587.587   5
   9  -1  -5 78144.6 2482.50   6
  -9  -1   5 78858.4 2294.09  12
   9  -1  -4 24584.1 1288.58   6
  -9  -1   4 24513.3 1302.97  12
   9  -1  -3 99204.2 2307.09   6
   9  -1  -3 96388.0 5312.71   3
  -9  -1   3 96988.8 2446.09  12
  -9  -1   2 1708.76 400.959  12
   9  -1  -2 1726.25 735.039   3
   9  -1  -2 2182.66 396.270   6
   9  -1  -2 2262.48 475.632  10
  -9  -1   1 63196.9 1647.40  12
   9  -1  -1 63361.3 1483.35   6
   9  -1  -1 63944.6 1802.76  10
   9  -1  -1 63743.5 3881.13   3
   9  -1   0 15744.3 1897.82   3
   9  -1   1 137899. 2411.01  19
   9  -1   1 132713. 5528.83   3
   9  -1   2 11186.2 839.408  21
   9  -1   2 11672.3 815.189  19
   9  -1   2 11959.3 769.357  17
   9  -1   2 13385.3 913.634   8
   9  -1   2 9513.78 1541.68   3
   9  -1   3 61092.3 1986.37  19
   9  -1   3 60440.1 1776.36  17
   9  -1   3 61671.3 1990.42   8
   9  -1   4 5890.82 731.908  19
   9  -1   4 5341.85 750.507   8
   9  -1   5 20869.9 1214.79   9
   9  -1   6 3051.78 460.327   9
  -9   1   6 858.844 395.704  15
  -9   1   5 77254.3 2212.52  15
  -9   1   4 28535.1 1328.66  12
  -9   1   4 26145.4 1214.93  15
  -9   1   3 94515.2 2330.96  12
   9   1  -2 2331.65 763.004   3
  -9   1   2 2122.04 412.948  12
   9   1  -1 59372.7 3473.63   3
   9   1   0 17585.2 1978.95   3
   9   1   1 133622. 2413.99  17
   9   1   1 135826. 5765.72   3
   9   1   2 11748.1 811.264  17
   9   1   2 12019.0 766.272   8
   9   1   2 11098.7 714.750  13
   9   1   2 9518.91 1725.99   3
   9   1   3 62460.1 1952.61  17
   9   1   3 59123.8 1836.19   8
   9   1   4 4765.85 657.708  17
   9   1   5 21287.9 1183.76  17
   9   1   5 20221.4 1180.17   9
   9   1   6 2135.65 363.491  17
   9   1   6 3165.05 450.165   9
  -9   3   3 173548. 3075.11  12
   9   3   1 63484.6 1707.11  17
   9   3   1 65360.6 1895.63  13
   9   3   2 25244.0 1205.77  17
   9   3   2 25650.5 1287.47  13
   9   3   3 107504. 2608.22  17
   9   3   3 105708. 2595.94  13
   9   3   4 1141.48 486.072  17
   9   3   5 1952.74 435.048  17
   9   5  -3 14697.4 942.750  16
   9   5  -2 1305.55 438.878  16
   9   5  -1 39302.7 1696.12  16
   9   5   0 1814.27 589.835  16
   9   5   0 746.319 386.453  13
   9   5   1 53681.5 1932.66  16
   9   5   1 50285.4 1781.40  13
   9   5   2 1403.68 426.418  16
  10  -6  -2 10190.2 816.000  20
 -10  -6   2 6040.98 617.157  18
  10  -6  -1-460.365 385.999  20
  10  -6  -1 660.313 307.090  19
  10  -6   0 30073.4 1356.83  20
  10  -6   0 29193.5 1290.60  19
  10  -6   1 677.728 335.734  19
 -10  -4   5 1310.08 436.763  22
  10  -4  -5 381.210 384.924   6
  10  -4  -5 325.854 447.330  10
  10  -4  -4 29127.8 1496.04   6
  10  -4  -4 28935.8 1634.15  10
 -10  -4   4 27476.5 1493.96  12
 -10  -4   3 636.851 531.053  12
  10  -4  -3 609.828 540.920  10
  10  -4  -2 30679.6 1543.97  11
  10  -4  -2 32541.9 1715.02  10
 -10  -4   2 30765.4 1499.95  12
  10  -4  -1 648.738 360.666  19
  10  -4   0 43241.0 1829.20  20
  10  -4   0 41620.3 1707.94  19
  10  -4   1 529.540 486.752  21
  10  -4   1 779.419 548.650  20
  10  -4   1 656.657 445.114  19
  10  -4   2 51718.8 2160.19  21
  10  -4   2 50118.7 1915.67  19
  10  -4   3 2250.26 593.742  21
  10  -4   3 1709.65 468.010  19
  10  -4   3 1835.78 466.159   8
  10  -4   4 19569.5 1024.77  19
  10  -4   4 15168.1 865.814   8
 -10  -2   6 14078.7 961.207   5
 -10  -2   5 301.521 428.264  12
  10  -2  -5 968.746 509.921   6
 -10  -2   5 1112.47 538.214   5
  10  -2  -4 46242.6 1873.64   6
 -10  -2   4 46560.9 1696.81   5
 -10  -2   4 49851.9 1994.96  12
  10  -2  -3 7631.87 777.426   6
  10  -2  -3 8700.01 1016.84  10
 -10  -2   3 7654.21 662.852   5
 -10  -2   3 9928.02 955.276  12
  10  -2  -2 82743.4 2126.37   6
  10  -2  -2 82677.1 2492.19  10
 -10  -2   2 86428.8 2283.86  12
  10  -2  -1 6460.30 1457.99   3
  10  -2  -1 5984.88 541.634   6
  10  -2  -1 6832.86 765.827  10
 -10  -2   1 5668.26 617.810  12
  10  -2   0 13415.6 1852.92   3
  10  -2   0 16014.3 950.799  20
  10  -2   0 16156.8 887.207  19
  10  -2   1 3497.39 1020.99   3
  10  -2   1 4951.14 632.322  20
  10  -2   1 5672.57 620.500  19
  10  -2   2 147166. 3313.86  21
  10  -2   2 150639. 3072.37  19
  10  -2   2 147477. 2738.77  17
  10  -2   3 1359.73 535.607  21
  10  -2   3 1195.41 461.709  19
  10  -2   3 1508.75 551.145   8
  10  -2   4 20501.3 1230.89  19
  10  -2   4 17814.3 1141.88   8
  10  -2   5 158.897 309.709   9
 -10   0   7 1190.75 418.635   5
 -10   0   4 53581.2 1942.02  12
 -10   0   3 1171.78 535.293  12
  10   0  -3 1312.08 740.845   3
  10   0  -3 629.222 365.152  10
 -10   0   2 14421.5 942.165  12
  10   0  -2 12517.9 1810.58   3
 -10   0   1 11881.4 797.546  12
  10   0  -1 10961.9 1649.30   3
 -10   0   0 166119. 2663.49  12
  10   0   0 176756. 6633.33   3
  10   0   1 9266.20 1630.43   3
  10   0   1 8868.16 688.015  19
  10   0   1 9429.63 707.167   8
  10   0   2 57274.1 1853.29  19
  10   0   2 56950.7 1793.78  17
  10   0   2 57642.6 1776.13   8
  10   0   3 10115.0 926.191  19
  10   0   3 9739.50 865.635  17
  10   0   3 9491.02 864.828   8
  10   0   4 33845.1 1459.42  17
  10   0   4 30930.9 1496.06   8
  10   0   5 1016.17 398.070  17
  10   0   5 392.529 353.750   9
 -10   2   4 48267.0 1701.11  12
 -10   2   3 7696.53 769.691  12
 -10   2   2 77604.3 2153.22  12
  10   2  -1 3686.18 939.180   3
  10   2   0 15913.3 881.350  17
  10   2   0 14433.3 1906.17   3
  10   2   1 5249.63 589.538  17
  10   2   1 3626.47 1145.85   3
  10   2   2 157883. 3059.57  17
  10   2   2 154031. 2936.53  13
  10   2   3 1198.37 501.411  17
  10   2   3 1219.79 489.878  13
  10   2   4 20552.0 1226.57  17
  10   2   4 18066.6 1059.96   9
  10   2   5 455.697 355.908  17
  10   2   5 198.057 283.979   9
 -10   4   3 1230.36 439.758  12
  10   4  -1 661.854 386.884  13
  10   4   0 41798.8 1624.80  13
  10   4   1 954.576 487.261  16
  10   4   1-343.900 437.977  13
  10   4   2 45908.1 1637.30  16
  10   4   2 48852.4 1861.82  13
  10   4   3 1822.18 449.528  17
  10   4   4 17839.0 958.341  17
  10   6  -2 9168.78 687.673  16
  10   6  -1 1216.03 415.788  16
  10   6   0 31275.1 1353.38  16
  10   6   1 352.528 358.896  16
 -11  -5   4 15526.0 944.458  22
  11  -5  -4 16887.7 918.479   6
  11  -5  -3 793.908 374.514   6
  11  -5  -2 989.208 454.991  20
  11  -5  -1 43320.0 1779.28  20
  11  -5   0 884.585 468.940  20
  11  -5   0 292.226 345.717  19
  11  -5   1 12462.8 911.312  19
  11  -5   2 14522.4 930.627  19
  11  -5   2 10153.7 838.154   8
  11  -3  -6 992.942 428.203  10
 -11  -3   5 1155.98 428.839  12
  11  -3  -5 672.571 413.529   6
  11  -3  -5 1166.13 651.163  10
  11  -3  -4 11322.4 1001.31   6
  11  -3  -4 10916.4 1138.87  10
 -11  -3   4 10743.9 1012.03  12
  11  -3  -3 31641.9 1568.11   6
  11  -3  -3 34881.1 1905.18  10
 -11  -3   3 32498.1 1651.94  12
 -11  -3   2 3108.90 607.325  12
  11  -3  -2 2783.09 539.136   6
  11  -3  -2 3472.71 771.294  10
  11  -3  -1 29561.3 1408.29  20
 -11  -3   1 27670.6 1302.93  12
  11  -3   0 1545.10 513.622  20
  11  -3   0 1099.93 381.486  19
  11  -3   1 10039.0 933.794  20
  11  -3   1 10968.7 929.837  19
  11  -3   2 6128.89 735.413  19
  11  -3   2 6083.68 814.453   8
  11  -3   3 22724.3 1289.16  19
  11  -3   3 22760.1 1269.55   8
  11  -3   4 7227.21 711.678  19
  11  -3   4 4436.79 552.327   8
  11  -1  -6 888.476 486.909  10
 -11  -1   6 688.984 439.100   5
 -11  -1   5 24440.9 1307.09   5
 -11  -1   5 23951.1 1356.07  12
  11  -1  -4 53025.5 2196.53  10
 -11  -1   4 50826.3 1748.11   5
 -11  -1   4 53169.8 2065.51  12
 -11  -1   3 4297.43 731.708  12
  11  -1  -3 4150.32 624.660   6
  11  -1  -3 4232.80 743.387  10
 -11  -1   2 646.118 440.391  12
  11  -1  -2 634.302 390.046   6
  11  -1  -2 1228.88 541.962  10
 -11  -1   1 77520.8 2116.74  12
  11  -1  -1 71916.0 4583.00   3
  11  -1   0 1542.82 776.384   3
  11  -1   1 20310.8 1078.68  19
  11  -1   2 29220.6 1402.14  19
  11  -1   2 28708.5 1359.73  17
  11  -1   2 30586.5 1438.78   8
  11  -1   3 8094.20 872.700  19
  11  -1   3 6701.79 689.145  17
  11  -1   3 6715.41 797.373   8
  11  -1   4 245.759 400.724   8
  11  -1   5 27343.8 1225.38   9
 -11   1   4 53372.4 1956.72  12
 -11   1   3 4708.65 665.922  12
  11   1  -2 1624.87 625.501   3
 -11   1   2 634.647 408.811  12
 -11   1   1 73080.2 2050.84  12
  11   1  -1 67279.6 4198.90   3
  11   1   0 1528.80 779.260   3
 -11   1   0 2130.83 473.743  12
  11   1   1 20792.6 1113.99  17
  11   1   2 30947.2 1446.83  17
  11   1   2 28656.3 1241.82  13
  11   1   3 7492.43 829.824  17
  11   1   3 7113.42 732.422   8
  11   1   4 243.099 398.990  17
  11   1   5 24968.2 1133.32  17
  11   1   5 25803.6 1164.34   9
 -11   3   3 30824.2 1429.55  12
  11   3   0 1273.75 480.910  13
  11   3   1 9759.87 775.319  17
  11   3   1 10177.7 929.173  13
  11   3   2 5384.31 662.559  17
  11   3   2 5869.42 741.567  13
  11   3   3 23600.8 1245.65  17
  11   3   3 22687.8 1216.36  13
  11   3   4 6851.60 691.221  17
  11   5  -3 63.0368 306.441  16
  11   5  -2 341.989 379.636  16
  11   5  -1 43373.6 1743.76  16
  11   5   0 806.176 468.290  16
  11   5   0 106.850 353.777  13
  11   5   1 12775.9 927.846  16
  11   5   1 10848.6 822.957  13
  11   5   2 11118.0 735.602  16
 -12  -4   4 7300.21 759.224  12
  12  -4  -4 7846.21 751.858   6
  12  -4  -4 8896.20 903.340  10
 -12  -4   3 4075.75 658.700  12
  12  -4  -3 4831.75 636.179   6
  12  -4  -2 23884.3 1311.83  20
 -12  -4   2 23379.0 1256.43  12
  12  -4  -1 1836.97 503.021  20
  12  -4   0 29146.2 1488.74  20
  12  -4   0 29316.4 1389.20  19
  12  -4   1 2231.90 502.199  19
  12  -4   2 1419.18 422.011  19
  12  -4   2 1326.35 447.286   8
  12  -4   3 3798.94 516.748  19
  12  -4   3 3307.37 505.222   8
  12  -2  -6 5371.95 668.877  10
 -12  -2   6 5287.23 555.785   5
 -12  -2   5-258.223 399.752  12
  12  -2  -5 675.194 520.122  10
 -12  -2   5 524.582 386.410   5
  12  -2  -4 15966.9 1159.57   6
  12  -2  -4 16311.3 1340.06  10
 -12  -2   4 14440.2 910.683   5
 -12  -2   4 17234.6 1276.36  12
 -12  -2   3 3688.65 783.457  12
  12  -2  -3 2581.70 613.296   6
  12  -2  -3 3242.32 807.771  10
  12  -2  -2 76451.2 2171.75   6
  12  -2  -2 74714.6 2562.51  10
 -12  -2   2 74890.9 2342.49  12
 -12  -2   1 2814.06 556.843  12
  12  -2   0 12699.6 888.922  20
  12  -2   1 1197.94 423.353  19
  12  -2   2 9590.62 884.587  19
  12  -2   2 8904.83 756.307  17
  12  -2   2 8219.53 891.013   8
  12  -2   3 12945.4 1007.93  19
  12  -2   3 12002.5 989.318   8
  12  -2   4 15784.7 1014.01  19
  12  -2   4 10798.3 822.775   8
 -12   0   6 34176.7 1329.77   5
 -12   0   5 2538.92 545.069  12
 -12   0   4 16440.3 1212.55  12
 -12   0   3 21290.1 1371.54  12
 -12   0   2 31891.4 1574.88  12
 -12   0   1 13986.4 996.628  12
 -12   0   0 102736. 2358.49  12
  12   0   1 17306.2 1045.47  19
  12   0   1 18333.8 1124.17  17
  12   0   1 17605.2 1024.88   8
  12   0   2 2659.96 583.918  17
  12   0   2 2445.74 534.493   8
  12   0   3 4905.05 683.576  17
  12   0   3 3336.48 596.362   8
  12   0   4 26560.3 1248.10  17
  12   0   5 1414.79 332.020   9
 -12   2   4 18043.6 1127.81  12
 -12   2   3 3381.86 638.008  12
 -12   2   2 73075.2 2271.23  12
 -12   2   1 3041.08 624.301  12
  12   2   0 12834.5 877.869  17
  12   2   1 1536.84 509.359  17
  12   2   1 1487.32 535.018  13
  12   2   2 10341.5 913.900  17
  12   2   2 8807.50 831.003  13
  12   2   3 12613.5 983.734  17
  12   2   3 11575.9 843.712  13
  12   2   4 15597.3 997.189  17
  12   2   4 13094.6 815.945   9
 -12   4   3 4256.16 590.911  12
 -12   4   2 25802.4 1321.91  12
  12   4  -1 1787.48 462.574  13
  12   4   0 26860.2 1428.18  16
  12   4   0 29991.9 1393.30  13
  12   4   1 2314.48 519.184  16
  12   4   1 2373.74 568.293  13
  12   4   2 1574.80 445.609  13
  12   4   3 3123.23 408.584  17
  13  -5  -2 877.996 345.971  20
  13  -5  -1 21723.7 1078.87  20
 -13  -3   5 6664.56 661.981  12
  13  -3  -5 6041.19 693.405  10
  13  -3  -4 18893.9 1302.81  10
 -13  -3   4 16706.9 1117.79  12
  13  -3  -3 79770.3 2285.96   6
  13  -3  -3 79168.3 2662.18  10
 -13  -3   3 75504.0 2377.51  12
 -13  -3   2 3209.36 588.818  12
  13  -3  -1 16136.5 1052.28  20
  13  -3   0 685.231 449.647  20
  13  -3   1 28873.5 1382.87  19
  13  -3   2 10854.6 880.984  19
  13  -3   2 9894.94 897.143   8
  13  -3   3 32638.7 1378.87  19
  13  -3   3 29216.3 1270.21   8
  13  -1  -5 32152.6 1534.82  10
 -13  -1   5 33040.2 1268.01   5
  13  -1  -4 7603.42 894.962  10
 -13  -1   4 9173.55 987.811  12
  13  -1  -3 40449.5 1839.99  10
 -13  -1   3 42976.4 1925.72  12
 -13  -1   2 768.365 519.389  12
 -13  -1   1 46191.4 1768.91  12
  13  -1   1 52083.3 1809.49  19
  13  -1   1 52481.2 1902.37   8
  13  -1   2 4062.62 634.461  19
  13  -1   2 4003.56 595.705  17
  13  -1   2 3992.81 629.930   8
  13  -1   3 18544.9 1064.93  17
  13  -1   3 18013.8 1102.54   8
 -13   1   4 7527.28 816.758  12
 -13   1   3 43642.7 1893.15  12
 -13   1   2 473.048 554.968  12
 -13   1   1 46484.5 1820.44  12
 -13   1   0 1519.50 459.917  12
  13   1   0 1558.49 483.558  17
  13   1   1 53372.5 1924.04  17
  13   1   2 4606.62 670.086  17
  13   1   2 3928.54 544.507  13
  13   1   3 19804.1 1183.33  17
  13   1   4 1437.94 388.362  17
  13   1   4 303.792 317.330   9
 -13   3   4 16744.0 943.418  12
 -13   3   3 75142.4 2198.67  12
 -13   3   2 4264.60 690.889  12
 -13   3   1 16254.1 1133.02  12
  13   3   0 287.164 474.083  13
  13   3   1 27547.8 1243.19  17
  13   3   1 31439.9 1482.30  13
  13   3   2 9991.32 791.841  17
  13   3   2 10661.6 882.261  13
  13   3   3 33685.4 1312.07  17
 -13   5   2 1854.03 363.439  12
  13   5  -2 978.698 344.583  16
 -13   5   1 21647.6 1059.65  12
  13   5  -1 20907.1 1082.47  16
  13   5   0 836.145 372.522  16
  13   5   0 78.8455 284.742  13
 -14  -4   3 844.336 334.928  12
  14  -4  -1 532.708 358.446  20
  14  -4   1 269.954 270.762  19
  14  -4   1 345.879 368.874   8
 -14  -2   5 1603.65 398.416  12
  14  -2  -5 1408.53 447.138  10
  14  -2  -4 30661.3 1551.10  10
 -14  -2   4 31091.5 1522.40  12
 -14  -2   3 5710.07 768.135  12
 -14  -2   2 27907.5 1466.48  12
 -14  -2   1 12882.0 938.348  12
  14  -2   1 5696.29 636.964  19
  14  -2   1 5437.21 662.628  17
  14  -2   1 5023.28 716.833   8
  14  -2   2 66174.5 2023.00  19
  14  -2   2 64459.6 1831.25  17
  14  -2   2 64225.6 2010.86   8
  14  -2   3 777.134 347.966   8
 -14   0   5 1332.64 436.132  12
 -14   0   4 31055.4 1527.37  12
 -14   0   3 1071.66 537.249  12
 -14   0   2 7533.39 897.380  12
 -14   0   1 1525.21 539.235  12
  14   0   1 5625.17 708.426  17
  14   0   2 34330.1 1552.63  17
  14   0   2 31804.5 1338.04   8
  14   0   3 8102.11 720.512  17
  14   0   3 6815.39 627.786   8
 -14   2   4 29962.2 1341.01  12
 -14   2   3 7144.32 797.120  12
 -14   2   2 26620.6 1421.42  12
 -14   2   1 12719.5 1014.04  12
 -14   2   0 11379.9 957.798  12
  14   2   0 10221.2 825.482  17
  14   2   1 6224.28 705.665  17
  14   2   1 5896.99 704.495  13
  14   2   2 68002.4 2024.13  17
  14   2   2 68458.1 1948.80  13
  14   2   3 564.120 362.117  17
 -14   4   3 775.706 343.471  12
 -14   4   2 12671.8 876.481  12
 -14   4   1 353.657 372.823  12
  14   4  -1 178.319 335.953  16
  14   4  -1 798.515 381.364  13
 -14   4   0 17274.8 1039.93  12
  14   4   0 14452.8 903.748  16
  14   4   0 16911.9 979.053  13
 -14   4  -1 170.807 327.506  12
  14   4   1 845.407 390.200  13
 -15  -3   3 35005.0 1409.83  12
 -15  -3   2 8.63405 305.061  12
  15  -3   1 14205.4 993.675   8
 -15  -1   4 2158.65 549.833  12
 -15  -1   3 18422.5 1224.70  12
 -15  -1   2 6101.90 758.606  12
 -15  -1   1 27990.4 1337.58  12
  15  -1   1 28593.3 1373.03  17
  15  -1   1 23994.0 1201.69   8
  15  -1   2 1822.21 431.727  17
  15  -1   2 410.974 352.772   8
 -15   1   4 1587.02 462.121  12
 -15   1   3 17180.8 1154.50  12
 -15   1   2 6852.58 836.512  12
 -15   1   1 30901.6 1504.86  12
  15   1  -1 28879.0 1320.16  17
 -15   1   0 1439.04 511.209  12
  15   1   0 290.670 392.409  17
  15   1   1 29481.6 1391.41  17
  15   1   1 28379.0 1254.31  13
  15   1   2 787.544 377.869  17
  15   1   3 14405.1 843.219  17
 -15   3   3 39685.8 1448.33  12
 -15   3   2 857.396 389.238  12
  15   3  -2 205.760 360.670  13
 -15   3   1 14541.3 995.598  12
  15   3  -1 13863.2 920.077  13
 -15   3   0 1411.46 435.078  12
  15   3   0 630.558 333.919  16
  15   3   0 1455.31 461.184  13
  15   3   1 17647.1 993.597  13
 -16  -2   3 1800.46 430.535  12
 -16  -2   2 40035.3 1449.81  12
  16  -2   0 14899.7 925.884  17
  16  -2   0 10421.5 848.146   8
  16  -2   1 8589.87 661.364  17
  16  -2   1 7687.63 673.024   8
 -16   0   4 30321.1 1277.91  12
 -16   0   3 104.689 375.546  12
 -16   0   2 27653.7 1367.12  12
  16   0  -1 24480.9 1232.83  17
 -16   0   1 22151.9 1167.51  12
  16   0   0 51754.9 1778.82  17
  16   0   1 620.648 399.801  17
  16   0   2 10738.5 760.786  17
 -16   2   3 2514.30 463.667  12
 -16   2   2 48973.9 1718.44  12
 -16   2   1 1416.49 474.276  12
 -16   2   0 16381.0 1012.70  12
  16   2   0 15727.0 939.322  13
  16   2   1 9458.41 670.658  17
  16   2   1 10059.2 708.560  13
 -17  -1   2 466.619 335.677  12
  17  -1  -1 24178.2 1137.81  17
  17  -1   0 1007.24 337.989  17
 -17   1   2 292.832 309.078  12
 -17   1   1 21325.6 1058.74  12
  17   1  -1 20122.8 942.070  17
  17   1   0 375.801 297.600  17
  17   1   0-491.368 289.185  13
;
_shelx_hkl_checksum              23836
_shelx_shelxl_version_number     2014/7
_olex2_submission_special_instructions 'No special instructions were received'
loop_
_space_group_symop_operation_xyz
'x, y, z'
'-x, y, -z'
'x+1/2, y+1/2, z'
'-x+1/2, y+1/2, -z'
'-x, -y, -z'
'x, -y, z'
'-x+1/2, -y+1/2, -z'
'x+1/2, -y+1/2, z'
loop_
_atom_site_label
_atom_site_type_symbol
_atom_site_fract_x
_atom_site_fract_y
_atom_site_fract_z
_atom_site_U_iso_or_equiv
_atom_site_adp_type
_atom_site_occupancy
_atom_site_site_symmetry_order
_atom_site_calc_flag
_atom_site_refinement_flags_posn
_atom_site_refinement_flags_adp
_atom_site_refinement_flags_occupancy
Ni1 Ni 0.5000 0.0000 1.0000 0.0197(5) Uani 1 4 d S T P
Fe1 Fe 0.5000 -0.5000 0.5000 0.0181(4) Uani 1 4 d S T P
N1 N 0.5107(2) -0.3016(5) 0.6975(4) 0.0215(8) Uani 1 1 d . . .
N2 N 0.6298(3) -0.5000 0.4938(6) 0.0222(11) Uani 1 2 d S T P
N3 N 0.7814(4) -0.5000 0.1394(9) 0.0550(16) Uani 1 2 d S TU P
H3 H 0.7594 -0.3930 0.0705 0.066 Uiso 1 1 d R . .
C1 C 0.5082(2) -0.1884(6) 0.8148(5) 0.0207(9) Uani 1 1 d . . .
C2 C 0.6639(4) -0.5000 0.3283(9) 0.0344(15) Uani 1 2 d S T P
H2 H 0.6249 -0.5000 0.2126 0.041 Uiso 1 2 calc RS T P
C3 C 0.7504(4) -0.5000 0.3166(10) 0.0356(15) Uani 1 2 d S TU P
C4 C 0.8089(4) -0.5000 0.4829(9) 0.0333(15) Uani 1 2 d S T P
H4 H 0.8699 -0.5000 0.4793 0.040 Uiso 1 2 calc RS T P
C5 C 0.7753(4) -0.5000 0.6533(9) 0.0419(18) Uani 1 2 d S T P
H5 H 0.8134 -0.5000 0.7703 0.050 Uiso 1 2 calc RS T P
C6 C 0.6872(4) -0.5000 0.6551(8) 0.0342(15) Uani 1 2 d S T P
H6 H 0.6656 -0.5000 0.7747 0.041 Uiso 1 2 calc RS T P
loop_
_atom_site_aniso_label
_atom_site_aniso_U_11
_atom_site_aniso_U_22
_atom_site_aniso_U_33
_atom_site_aniso_U_23
_atom_site_aniso_U_13
_atom_site_aniso_U_12
Ni1 0.0251(8) 0.0177(7) 0.0167(7) 0.000 0.0045(5) 0.000
Fe1 0.0227(7) 0.0174(7) 0.0149(7) 0.000 0.0051(5) 0.000
N1 0.0247(17) 0.0222(18) 0.0187(17) 0.0011(15) 0.0063(13) 0.0022(14)
N2 0.025(2) 0.024(2) 0.018(2) 0.000 0.0055(18) 0.000
N3 0.051(2) 0.067(2) 0.047(2) 0.000 0.0101(17) 0.000
C1 0.025(2) 0.020(2) 0.017(2) 0.0064(18) 0.0043(15) -0.0006(16)
C2 0.035(4) 0.042(4) 0.026(3) 0.000 -0.001(3) 0.000
C3 0.028(3) 0.048(4) 0.032(3) 0.000 0.006(2) 0.000
C4 0.024(3) 0.044(4) 0.031(3) 0.000 0.004(3) 0.000
C5 0.033(4) 0.067(5) 0.026(3) 0.000 0.004(3) 0.000
C6 0.031(3) 0.050(4) 0.022(3) 0.000 0.005(3) 0.000
loop_
_atom_type_symbol
_atom_type_description
_atom_type_scat_dispersion_real
_atom_type_scat_dispersion_imag
_atom_type_scat_source
C C 0.0181 0.0091 'International Tables Vol C Tables 4.2.6.8 and 6.1.1.4'
H H 0.0000 0.0000 'International Tables Vol C Tables 4.2.6.8 and 6.1.1.4'
N N 0.0311 0.0180 'International Tables Vol C Tables 4.2.6.8 and 6.1.1.4'
Fe Fe -1.1336 3.1974 'International Tables Vol C Tables 4.2.6.8 and 6.1.1.4'
Ni Ni -3.0029 0.5091 'International Tables Vol C Tables 4.2.6.8 and 6.1.1.4'
loop_
_geom_angle_atom_site_label_1
_geom_angle_atom_site_label_2
_geom_angle_atom_site_label_3
_geom_angle
_geom_angle_site_symmetry_1
_geom_angle_site_symmetry_3
C1 Ni1 C1 180.0 . 5_657
C1 Ni1 C1 90.9(2) . 2_657
C1 Ni1 C1 89.1(2) 5_657 2_657
C1 Ni1 C1 90.9(2) 5_657 6
C1 Ni1 C1 89.1(2) . 6
C1 Ni1 C1 180.0 6 2_657
N1 Fe1 N1 90.07(18) 5_646 6_545
N1 Fe1 N1 89.93(18) 5_646 2_656
N1 Fe1 N1 89.93(18) 6_545 .
N1 Fe1 N1 180.0 5_646 .
N1 Fe1 N1 180.00(18) 6_545 2_656
N1 Fe1 N1 90.07(18) 2_656 .
N1 Fe1 N2 91.50(13) 5_646 5_646
N1 Fe1 N2 91.50(13) 2_656 5_646
N1 Fe1 N2 88.50(13) . 5_646
N1 Fe1 N2 91.50(13) 6_545 .
N1 Fe1 N2 88.50(13) 2_656 .
N1 Fe1 N2 91.50(13) . .
N1 Fe1 N2 88.50(13) 6_545 5_646
N1 Fe1 N2 88.50(13) 5_646 .
N2 Fe1 N2 180.0(2) 5_646 .
C1 N1 Fe1 173.0(3) . .
C2 N2 Fe1 121.9(4) . .
C2 N2 C6 116.2(5) . .
C6 N2 Fe1 121.9(4) . .
C3 N3 H3 108.9 . .
N1 C1 Ni1 177.6(4) . .
N2 C2 H2 117.9 . .
N2 C2 C3 124.1(6) . .
C3 C2 H2 117.9 . .
C2 C3 N3 121.1(6) . .
C2 C3 C4 119.3(6) . .
C4 C3 N3 119.6(6) . .
C3 C4 H4 121.3 . .
C5 C4 C3 117.4(6) . .
C5 C4 H4 121.3 . .
C4 C5 H5 119.8 . .
C6 C5 C4 120.3(6) . .
C6 C5 H5 119.8 . .
N2 C6 C5 122.6(6) . .
N2 C6 H6 118.7 . .
C5 C6 H6 118.7 . .
loop_
_geom_bond_atom_site_label_1
_geom_bond_atom_site_label_2
_geom_bond_distance
_geom_bond_site_symmetry_2
Ni1 C1 1.870(4) .
Ni1 C1 1.870(4) 6
Ni1 C1 1.870(4) 5_657
Ni1 C1 1.870(4) 2_657
Fe1 N1 1.955(3) 5_646
Fe1 N1 1.955(3) .
Fe1 N1 1.955(3) 2_656
Fe1 N1 1.955(3) 6_545
Fe1 N2 2.020(5) 5_646
Fe1 N2 2.020(5) .
N1 C1 1.149(6) .
N2 C2 1.347(8) .
N2 C6 1.349(8) .
N3 H3 0.9300 .
N3 C3 1.400(9) .
C2 H2 0.9500 .
C2 C3 1.356(9) .
C3 C4 1.385(9) .
C4 H4 0.9500 .
C4 C5 1.376(9) .
C5 H5 0.9500 .
C5 C6 1.369(10) .
C6 H6 0.9500 .
loop_
_geom_torsion_atom_site_label_1
_geom_torsion_atom_site_label_2
_geom_torsion_atom_site_label_3
_geom_torsion_atom_site_label_4
_geom_torsion
Fe1 N2 C2 C3 180.000(1)
Fe1 N2 C6 C5 180.000(1)
N2 C2 C3 N3 180.000(1)
N2 C2 C3 C4 0.000(1)
N3 C3 C4 C5 180.000(1)
C2 N2 C6 C5 0.000(1)
C2 C3 C4 C5 0.000(1)
C3 C4 C5 C6 0.000(1)
C4 C5 C6 N2 0.000(1)
C6 N2 C2 C3 0.000(1)
