#------------------------------------------------------------------------------
#$Date: 2015-10-06 15:59:47 +0300 (Tue, 06 Oct 2015) $
#$Revision: 160523 $
#$URL: svn://www.crystallography.net/cod/cif/4/34/40/4344055.cif $
#------------------------------------------------------------------------------
#
# This file is available in the Crystallography Open Database (COD),
# http://www.crystallography.net/
#
# All data on this site have been placed in the public domain by the
# contributors.
#
data_4344055
loop_
_publ_author_name
'Liu, Wei'
'Wang, Lu'
'Su, Yu-Jun'
'Chen, Yan-Cong'
'Tucek, Jiri'
'Zboril, Radek'
'Ni, Zhao-Ping'
'Tong, Ming-Liang'
_publ_section_title
;
 Hysteretic Spin Crossover in Two-Dimensional (2D) Hofmann-Type
 Coordination Polymers.
;
_journal_issue                   17
_journal_name_full               'Inorganic chemistry'
_journal_page_first              8711
_journal_page_last               8716
_journal_paper_doi               10.1021/acs.inorgchem.5b01341
_journal_volume                  54
_journal_year                    2015
_chemical_formula_moiety         'C14 H12 Fe N8 Ni'
_chemical_formula_sum            'C14 H12 Fe N8 Ni'
_chemical_formula_weight         406.88
_space_group_crystal_system      monoclinic
_space_group_IT_number           12
_space_group_name_Hall           '-C 2y'
_space_group_name_H-M_alt        'C 1 2/m 1'
_symmetry_space_group_name_Hall  '-C 2y'
_symmetry_space_group_name_H-M   'C 1 2/m 1'
_atom_sites_solution_hydrogens   mixed
_audit_creation_date             2015-07-29
_audit_creation_method
;
Olex2 1.2
(compiled 2015.01.26 svn.r3150 for OlexSys, GUI svn.r4998)
;
_cell_angle_alpha                90
_cell_angle_beta                 103.731(11)
_cell_angle_gamma                90
_cell_formula_units_Z            2
_cell_length_a                   15.8713(16)
_cell_length_b                   7.2488(5)
_cell_length_c                   7.2169(6)
_cell_measurement_temperature    220(2)
_cell_volume                     806.56(13)
_computing_molecular_graphics    'Olex2 (Dolomanov et al., 2009)'
_computing_publication_material  'Olex2 (Dolomanov et al., 2009)'
_computing_structure_refinement  'ShelXL (Sheldrick, 2008)'
_diffrn_ambient_temperature      220.15
_diffrn_measured_fraction_theta_full 0.964
_diffrn_measured_fraction_theta_max 0.964
_diffrn_measurement_device_type  'multiwire proportional'
_diffrn_measurement_method       'phi and omega scans'
_diffrn_radiation_monochromator  graphite
_diffrn_radiation_type           CuK\a
_diffrn_radiation_wavelength     1.54178
_diffrn_reflns_av_R_equivalents  0.0453
_diffrn_reflns_av_unetI/netI     0.0501
_diffrn_reflns_laue_measured_fraction_full 0.964
_diffrn_reflns_laue_measured_fraction_max 0.964
_diffrn_reflns_limit_h_max       17
_diffrn_reflns_limit_h_min       -14
_diffrn_reflns_limit_k_max       8
_diffrn_reflns_limit_k_min       -8
_diffrn_reflns_limit_l_max       8
_diffrn_reflns_limit_l_min       -6
_diffrn_reflns_number            1116
_diffrn_reflns_point_group_measured_fraction_full 0.964
_diffrn_reflns_point_group_measured_fraction_max 0.964
_diffrn_reflns_theta_full        60.398
_diffrn_reflns_theta_max         60.398
_diffrn_reflns_theta_min         5.739
_exptl_absorpt_coefficient_mu    8.781
_exptl_absorpt_correction_T_max  1
_exptl_absorpt_correction_T_min  0.96060
_exptl_absorpt_correction_type   multi-scan
_exptl_absorpt_process_details   CrysAlisPro
_exptl_crystal_colour            yellow
_exptl_crystal_colour_primary    yellow
_exptl_crystal_density_diffrn    1.675
_exptl_crystal_description       block
_exptl_crystal_F_000             412
_exptl_crystal_size_max          0.24
_exptl_crystal_size_mid          0.17
_exptl_crystal_size_min          0.12
_refine_diff_density_max         1.105
_refine_diff_density_min         -0.968
_refine_diff_density_rms         0.112
_refine_ls_extinction_method     none
_refine_ls_goodness_of_fit_ref   1.094
_refine_ls_hydrogen_treatment    constr
_refine_ls_matrix_type           full
_refine_ls_number_parameters     69
_refine_ls_number_reflns         637
_refine_ls_number_restraints     7
_refine_ls_restrained_S_all      1.119
_refine_ls_R_factor_all          0.0657
_refine_ls_R_factor_gt           0.0559
_refine_ls_shift/su_max          0.000
_refine_ls_shift/su_mean         0.000
_refine_ls_structure_factor_coef Fsqd
_refine_ls_weighting_details
'w=1/[\s^2^(Fo^2^)+(0.0780P)^2^+4.5834P] where P=(Fo^2^+2Fc^2^)/3'
_refine_ls_weighting_scheme      calc
_refine_ls_wR_factor_gt          0.1384
_refine_ls_wR_factor_ref         0.1503
_reflns_Friedel_coverage         0.000
_reflns_number_gt                555
_reflns_number_total             637
_reflns_threshold_expression     'I > 2\s(I)'
_cod_data_source_file            ic5b01341_si_002.cif
_cod_data_source_block           220K
_cod_depositor_comments
'Adding full bibliography for 4344054--4344055.cif.'
_cod_original_cell_volume        806.56(12)
_cod_database_code               4344055
_shelx_space_group_comment
;
The symmetry employed for this shelxl refinement is uniquely defined
by the following loop, which should always be used as a source of
symmetry information in preference to the above space-group names.
They are only intended as comments.
;
_shelx_estimated_absorpt_t_max   0.419
_shelx_estimated_absorpt_t_min   0.227
_olex2_refinement_description
;
1. Fixed Uiso
 At 1.2 times of:
  All C(H) groups, All N(H) groups
2. Rigid bond restraints
 N3, C3
 with sigma for 1-2 distances of 0.01 and sigma for 1-3 distances of 0.01
3. Uiso/Uaniso restraints and constraints
Uanis(N3) \\sim Ueq: with sigma of 0.001 and sigma for terminal atoms of 0.002
4.a Riding coordinates:
 N3(H3)
4.b Aromatic/amide H refined with riding coordinates:
 C2(H2), C4(H4), C5(H5), C6(H6)
;
_shelx_res_file
;
    fem.res created by SHELXL-2014/7

TITL fem in C2/m
CELL 1.54178 15.8713 7.2488 7.2169 90 103.731 90
ZERR 2 0.0016 0.0005 0.0006 0 0.011 0
LATT 7
SYMM -X,+Y,-Z
SFAC C H N Fe Ni
UNIT 28 24 16 2 2
DELU N3 C3
ISOR 0.001 0.002 N3

L.S. 40
PLAN  -1
SIZE 0.24 0.17 0.12
TEMP -53
BOND $H
CONF
fmap 2
acta
OMIT -3 121
REM <olex2.extras>
REM <HklSrc "%.\\fem.hkl">
REM </olex2.extras>

WGHT    0.078000    4.583400
FVAR       7.19096
NI1   5    0.500000    0.000000    1.000000    10.25000    0.02883    0.01140 =
         0.01894    0.00000    0.00925    0.00000
FE1   4    0.500000   -0.500000    0.500000    10.25000    0.02744    0.01130 =
         0.01979    0.00000    0.01084    0.00000
N1    3    0.522909   -0.290974    0.717439    11.00000    0.03519    0.02172 =
         0.03133   -0.00295    0.01173   -0.00034
N2    3    0.636481   -0.500000    0.489870    10.50000    0.03154    0.02504 =
         0.02402    0.00000    0.01001    0.00000
N3    3    0.773775   -0.500000    0.150275    10.50000    0.09187    0.09938 =
         0.08983    0.00000    0.02631    0.00000
AFIX   3
H3    2    0.751795   -0.393000    0.081285    11.00000   -1.20000
AFIX   0
C1    1    0.515614   -0.181377    0.828429    11.00000    0.03080    0.01604 =
         0.02744    0.00509    0.01064   -0.00289
C2    1    0.662925   -0.500000    0.328509    10.50000    0.03432    0.06777 =
         0.03240    0.00000    0.01141    0.00000
AFIX  43
H2    2    0.620564   -0.500000    0.212719    10.50000   -1.20000
AFIX   0
C3    1    0.748906   -0.500000    0.321083    10.50000    0.03464    0.08627 =
         0.03796    0.00000    0.00540    0.00000
C4    1    0.810942   -0.500000    0.484512    10.50000    0.02932    0.05402 =
         0.04998    0.00000    0.01282    0.00000
AFIX  43
H4    2    0.870021   -0.500000    0.483173    10.50000   -1.20000
AFIX   0
C5    1    0.785305   -0.500000    0.653497    10.50000    0.03438    0.13161 =
         0.03881    0.00000   -0.00040    0.00000
AFIX  43
H5    2    0.826739   -0.500000    0.770675    10.50000   -1.20000
AFIX   0
C6    1    0.698827   -0.500000    0.648774    10.50000    0.03583    0.09948 =
         0.03004    0.00000    0.01112    0.00000
AFIX  43
H6    2    0.682456   -0.500000    0.765695    10.50000   -1.20000
AFIX   0
HKLF 4

REM  fem in C2/m
REM R1 =  0.0559 for     555 Fo > 4sig(Fo)  and  0.0657 for all     637 data
REM     69 parameters refined using      7 restraints

END

WGHT      0.0781      4.5708

REM Highest difference peak  1.105,  deepest hole -0.968,  1-sigma level  0.112
Q1    1   0.7700 -0.3986  0.1460  11.00000  0.05    1.10
;
_shelx_res_checksum              85834
_shelx_hkl_file
;
   0  -8   0 24427.2 2291.93  10
   0  -8   1 4153.69 1136.41  10
   0  -6   2 93351.0 5257.71  10
   0  -6   3 7821.87 1871.02  10
   0  -6   4 56742.7 4112.25  10
   0  -6   5-1253.94 959.997  10
   0  -4   1 78145.0 4622.40   4
   0  -4   2 139843. 6418.18   4
   0  -4   3 5361.14 1362.42   4
   0  -4   3 6079.19 1568.20  10
   0  -4   4 154068. 6735.96  10
   0  -4   5 17826.9 2514.18  10
   0  -2   0 999999. 14419.0   2
   0  -2   1 204515. 5420.52   4
   0  -2   1 208008. 5357.24   2
   0  -2   2 682775. 12998.9   4
   0  -2   3 3011.76 1032.23   3
   0  -2   4 96784.9 5283.34   3
   0  -2   4 95679.5 3592.39   6
   0  -2   4 91380.3 4349.38  10
   0  -2   5 11742.2 1574.68   6
   0   0   1 233999. 4450.32   1
   0   0   1 233127. 4454.05   3
   0   0   2 27132.6 1828.05   1
   0   0   2 27016.3 1818.76   3
   0   0   4 199760. 5592.15   6
   0   0   5 43114.4 2915.25   6
   0   0   5 41024.3 2814.77   9
   0   0   6 265999. 8298.80   9
   0   0   6 287799. 8835.84   6
   0   0   7-962.642 931.809   9
   0   2   4 97429.4 3900.69   6
   0   2   4 94976.8 3891.34   8
   0   2   5 12829.3 1852.15   9
   0   2   5 9647.18 1481.91   6
   0   2   6 171754. 6845.47   9
   0   2   6 170876. 6568.51   6
   0   2   7 21165.6 2244.41   6
   0   2   7 19875.9 2238.60   9
   0   4   1 92652.4 3853.59  11
   0   4   2 176639. 5861.42  11
   0   4   3 6353.25 1355.47  11
   0   4   4 178948. 6450.66  11
   0   4   5 19143.6 2397.90   9
   0   4   6 96572.2 4799.98   9
   0   6   0 287003. 8617.04  11
   0   6   1 6642.63 1629.34  11
   0   6   2 109599. 5613.92  11
   0   6   3 6942.69 1883.43  11
   0   6   4 66687.4 4119.39  11
   0   6   5 1030.41 840.804  11
   0   8   1 7640.27 1461.86  11
  -1  -7   4 1207.84 719.385  10
  -1  -7   3 66032.5 4075.89  10
  -1  -7   2 5004.62 1357.07  10
  -1  -7   1 44947.3 3565.14  10
   1  -7   1 59916.1 4156.36  10
   1  -7   2 9660.17 1962.37  10
   1  -7   3 62211.4 4017.92  10
   1  -7   4 1576.73 897.019  10
  -1  -5   5 114093. 5906.73  10
  -1  -5   4 8532.96 1877.38  10
  -1  -5   3 31077.5 3042.18  10
  -1  -5   2 2551.87 1255.08  10
  -1  -5   1 196797. 8250.39   4
   1  -5   0 6449.35 1752.19   4
  -1  -5   0 7314.98 1730.88   4
   1  -5   1 191672. 8595.79   4
   1  -5   2 2331.57 1332.92  10
   1  -5   2 2791.40 1104.61   4
   1  -5   3 32834.7 3138.29  10
   1  -5   4 9278.17 2108.07  10
   1  -5   5 112439. 5835.13  10
  -1  -3   5 37257.5 3375.81  10
  -1  -3   4 7227.58 1607.56  10
  -1  -3   3 366885. 8739.55  10
  -1  -3   3 339454. 9665.92   4
  -1  -3   2 4705.78 1058.13   4
  -1  -3   2 3071.37 1004.69   2
  -1  -3   1 153336. 5286.99   2
  -1  -3   1 151242. 5338.58   4
  -1  -3   0 11049.3 1247.87   2
   1  -3   0 9974.90 981.367   2
   1  -3   1 241975. 7425.21   4
   1  -3   2 7028.81 1532.14   4
   1  -3   3 284148. 9624.66   4
   1  -3   3 297722. 7896.41  10
   1  -3   4 9488.95 1700.09  10
   1  -3   4 8194.46 1673.88   3
   1  -3   5 57073.1 4140.68  10
  -1  -1   7 28338.9 2500.72   9
  -1  -1   6 11417.0 1643.58   9
  -1  -1   6 10264.7 1833.22   6
  -1  -1   5 172298. 5964.53   6
  -1  -1   5 180130. 5906.91   9
  -1  -1   4 1731.39 887.652  10
  -1  -1   4 2815.81 854.451   6
  -1  -1   3 112858. 4427.61   3
  -1  -1   2 21638.0 1534.97   3
  -1  -1   1 417681. 6708.76   4
   1  -1   1 842763. 13058.6   4
   1  -1   3 148326. 5914.22   3
   1  -1   4 10142.8 2081.10   3
   1  -1   4 11619.8 1329.43   6
   1  -1   4 11780.7 1588.09  10
   1  -1   5 142538. 5060.81   9
   1  -1   5 145448. 5516.66   6
   1  -1   6 7254.49 1407.33   6
  -1   1   7 28155.3 2684.70   9
  -1   1   6 12304.4 2009.59   9
  -1   1   6 12681.3 1984.62   6
  -1   1   5 172050. 6042.84   6
  -1   1   5 175988. 5965.25   8
  -1   1   5 180268. 6266.04   9
  -1   1   4 2627.28 869.774   9
  -1   1   4 1838.72 682.702   6
  -1   1   4 2428.07 958.834   1
  -1   1   3 113651. 4988.74   1
   1   1   3 142020. 5055.44   1
   1   1   5 150381. 5789.84   9
   1   1   5 149162. 5753.02   6
   1   1   6 7539.10 1676.19   6
   1   1   6 7531.61 1759.41   9
   1   1   7 75767.8 4189.69   6
   1   1   7 61023.5 3647.06   9
  -1   3   7 38347.9 2893.98   9
  -1   3   6 2661.14 1366.58   9
  -1   3   6 3238.37 1117.11   6
  -1   3   5 32905.7 2828.96   8
  -1   3   5 32714.5 2582.96   6
  -1   3   5 32624.7 2874.71   9
  -1   3   4 6942.91 1262.45  11
  -1   3   3 429690. 9179.63  11
   1   3   3 335607. 8052.15  11
   1   3   4 9235.68 1411.69  11
   1   3   4 7664.89 1319.95   6
   1   3   5 56959.3 3455.61   6
   1   3   6 31427.3 3034.38   9
   1   3   6 30400.7 2619.82   6
   1   3   7 60484.1 3486.82   9
  -1   5   6 2953.55 1028.71   9
  -1   5   5 99460.6 4811.44   8
  -1   5   5 104124. 4723.69   9
  -1   5   4 8917.33 1877.32  11
  -1   5   3 38923.2 3241.56  11
  -1   5   2 3494.97 1199.13  11
  -1   5   1 225267. 7247.95  11
   1   5   0 7936.37 1466.14  11
  -1   5   0 8997.20 1498.44  11
   1   5   1 217528. 7119.14  11
   1   5   2-112.408 1016.32  11
   1   5   3 39064.2 3319.82  11
   1   5   4 13182.1 2104.50  11
   1   5   5 98516.6 4803.69   9
   1   5   6 1913.96 787.825   9
  -1   7   4 1332.21 940.423  11
  -1   7   3 73918.9 4329.52  11
  -1   7   2 4667.22 1564.08  11
  -1   7   1 58731.6 3962.73  11
   1   7   0 1394.45 938.119  11
  -1   7   0 1591.54 961.827  11
   1   7   1 69010.3 4227.56  11
   1   7   2 9761.39 1808.51  11
   1   7   3 71195.5 4132.94  11
   2  -8   0 7999.73 1516.36  10
   2  -8   1 2154.03 857.943  10
  -2  -6   5 4915.28 1274.65  10
  -2  -6   4 44488.6 3565.04  10
  -2  -6   3 8681.22 1799.77  10
  -2  -6   2 41160.6 3324.03  10
   2  -6   2 61083.0 4409.66  10
   2  -6   3 6364.89 1899.20  10
   2  -6   4 27591.4 2942.59  10
   2  -6   5 1993.25 964.915  10
  -2  -4   5 1735.50 1334.25  10
  -2  -4   4 152619. 6426.42  10
  -2  -4   3 1418.99 967.971  10
  -2  -4   2 116135. 5781.66   2
  -2  -4   2 111819. 4535.60  10
  -2  -4   1 9137.93 1457.05   4
  -2  -4   1 12339.5 1689.10   2
  -2  -4   0 82365.6 4126.22   2
   2  -4   0 84482.1 5036.23   4
   2  -4   1 7057.65 1678.13   4
   2  -4   2 113857. 4896.53  10
   2  -4   2 119438. 6443.08   4
   2  -4   3 1996.46 1337.72  10
   2  -4   3 2490.07 1363.99   4
   2  -4   4 112431. 5699.34  10
   2  -4   5-862.870 1228.87  10
  -2  -2   6 10272.7 1603.82   9
  -2  -2   5 14495.3 1641.00   9
  -2  -2   4 219944. 6290.20   7
  -2  -2   4 204847. 6525.58  10
  -2  -2   4 203395. 5594.87   9
  -2  -2   3 20995.9 1860.64   3
  -2  -2   2 599922. 10567.8   4
  -2  -2   2 587672. 12346.0   2
  -2  -2   1 111916. 4089.46   2
  -2  -2   1 115707. 3464.77   4
   2  -2   0 144156. 4674.15   4
   2  -2   1 2635.57 860.126   4
   2  -2   2 742697. 14998.4   4
   2  -2   3-283.077 704.372   3
   2  -2   4 108287. 4880.56  10
   2  -2   4 107699. 6271.55   3
   2  -2   5 8978.30 1449.17   6
  -2   0   8 7880.56 1123.75   9
  -2   0   7 17840.9 2201.01   9
  -2   0   6 37727.6 3072.48   7
  -2   0   6 42711.9 3300.24   9
  -2   0   6 41380.3 3233.14   6
  -2   0   5 3078.18 1165.77   9
  -2   0   5 2932.71 1132.74   7
  -2   0   5 3826.91 1069.06   6
  -2   0   4 444769. 12442.9   1
  -2   0   4 425904. 8864.91   6
  -2   0   3 15482.7 1983.11   1
  -2   0   1 49289.0 1711.92   2
   2   0   0 230765. 3954.46   4
   2   0   1 142702. 3977.76   3
   2   0   2 158726. 5384.72   3
   2   0   4 235456. 6936.69   5
   2   0   4 229894. 6115.95   9
   2   0   5 3126.29 1113.81   6
   2   0   5 3303.60 1164.40   9
   2   0   6 24750.2 2403.37   9
   2   0   6 20397.3 2396.65   6
   2   0   7 8667.13 1650.64   6
  -2   2   7-737.059 941.442   9
  -2   2   6 10605.0 1567.41   6
  -2   2   6 8571.43 1887.48   9
  -2   2   6 9626.55 1875.58   8
  -2   2   5 13978.0 1973.80   9
  -2   2   5 12804.9 1821.41   8
  -2   2   5 14149.9 1748.72   6
  -2   2   4 198050. 8416.41   1
  -2   2   4 214231. 6387.34   8
  -2   2   4 210186. 6163.04   9
  -2   2   4 209028. 5748.99   6
   2   2   5 10155.6 1650.70   6
   2   2   6 17796.7 2210.45   6
   2   2   6 18494.8 2217.65   9
   2   2   7 3338.86 1175.48   6
   2   2   7 3582.56 1164.94   9
  -2   4   7 5641.28 1006.07   9
  -2   4   6 19537.1 2265.28   9
  -2   4   6 19164.1 2168.42   8
  -2   4   5-80.7363 1002.98   9
  -2   4   5 2667.71 1098.34   8
  -2   4   4 174448. 6287.40  11
  -2   4   3 2843.94 1221.02  11
  -2   4   2 121002. 4756.67  11
  -2   4   1 8699.14 1242.97  11
   2   4   1 7274.50 1168.32  11
   2   4   2 125857. 5025.02  11
   2   4   3 1699.83 1109.85  11
   2   4   4 125286. 5447.61  11
   2   4   6 15415.7 2046.27   9
  -2   6   5 3052.49 741.715  11
  -2   6   5 4903.93 1232.35   8
  -2   6   4 61838.0 3981.80  11
  -2   6   3 5341.17 1642.78  11
  -2   6   2 48202.1 3817.69  11
  -2   6   1 8869.83 1777.61  11
  -2   6   0 107694. 5111.31  11
   2   6   0 106805. 5080.68  11
   2   6   1 9870.17 1839.99  11
   2   6   2 69543.9 4547.73  11
   2   6   3 8365.88 1855.35  11
   2   6   4 32700.0 2955.97  11
  -2   8   1 938.799 940.628  11
  -3  -7   3 62489.4 3677.92  10
  -3  -7   2 281.697 668.464  10
  -3  -7   1 27782.7 2608.47  10
   3  -7   1 43463.1 3643.39  10
   3  -7   2 4388.21 1280.37  10
   3  -7   3 47090.2 3384.47  10
  -3  -5   5 105524. 5459.70  10
  -3  -5   4 2181.33 1396.58  10
  -3  -5   3 23803.0 2558.52  10
  -3  -5   2 504.898 969.352  10
   3  -5  -1 141245. 7667.91   4
   3  -5   0 3982.93 1675.05   4
   3  -5   1 120237. 7096.13   4
   3  -5   2 4049.76 1578.51  10
   3  -5   3 54359.4 4041.26  10
   3  -5   4 13712.3 2187.63  10
   3  -5   5 49433.5 3625.58  10
  -3  -3   5 19998.3 2429.52  10
  -3  -3   4 1880.33 990.755  10
  -3  -3   3 409095. 9220.02  10
  -3  -3   3 419016. 12239.8   2
  -3  -3   2 2838.99 953.991   2
  -3  -3   1 84729.8 4227.90   2
  -3  -3   1 80037.1 3509.82   4
   3  -3   0 7339.15 1372.01   4
   3  -3   1 103353. 5160.23   4
   3  -3   2 22955.0 2673.37   4
   3  -3   3 274551. 7870.72  10
   3  -3   4 13052.0 1929.76  10
   3  -3   4 13968.4 2461.87   3
   3  -3   5 29518.1 3059.89  10
  -3  -1   7 34993.3 2813.33   9
  -3  -1   6 1391.11 1087.51   9
  -3  -1   6 3525.83 1426.90   7
  -3  -1   5 128173. 5036.05   9
  -3  -1   5 118808. 5031.66   7
  -3  -1   4 3213.63 885.000   7
  -3  -1   4 1669.51 749.725   9
  -3  -1   4 1400.99 649.308   6
  -3  -1   2 12663.7 798.586   3
  -3  -1   2 13124.9 1473.88   2
  -3  -1   1 343208. 4792.76   4
   3  -1   0 22787.6 1491.83   4
   3  -1   1 210711. 5837.81   4
   3  -1   2 21839.4 2200.04   3
   3  -1   3 227053. 8358.35   3
   3  -1   4 2748.89 983.755   5
   3  -1   4 4155.28 1681.19   3
   3  -1   5 79324.6 4095.44   6
   3  -1   6 14866.8 1910.17   6
  -3   1   8 275.541 805.728   9
  -3   1   7 33394.2 2908.21   9
  -3   1   7 27830.2 2691.24   7
  -3   1   6 1733.09 1274.57   7
  -3   1   6-711.845 1294.76   9
  -3   1   5 124998. 4981.50   6
  -3   1   5 123998. 5135.64   9
  -3   1   5 117529. 6898.38   1
  -3   1   5 129567. 5352.41   8
  -3   1   4 2154.78 800.910   9
  -3   1   4 2135.52 660.058   8
  -3   1   4 289.900 536.101   6
  -3   1   4 3276.31 1378.42   1
  -3   1   1 293401. 4517.90   2
   3   1   4 1213.02 970.640   5
   3   1   5 76080.8 4288.75   6
   3   1   5 74303.7 4049.92   9
   3   1   6 13988.5 2195.65   6
   3   1   6 15048.8 2134.12   9
   3   1   7 21236.5 2192.27   6
   3   1   7 17209.2 1850.27   9
  -3   3   7 48840.5 3236.44   9
  -3   3   7 38626.6 2629.47   7
  -3   3   6 3652.91 1333.15   9
  -3   3   6 2867.67 1429.80   8
  -3   3   5 20343.4 2416.77   8
  -3   3   5 16573.5 2103.67   9
  -3   3   4 2046.44 883.716   9
  -3   3   3 482001. 9916.49  11
   3   3   2 25855.1 1973.51  11
   3   3   3 324060. 8353.66  11
   3   3   4 18330.9 1933.74  11
   3   3   5 27409.6 2568.08   6
   3   3   6 2191.76 1070.58   6
   3   3   6 554.962 1052.02   9
  -3   5   6 2037.04 806.731   8
  -3   5   5 106811. 5311.87   8
  -3   5   4 3422.65 1290.03  11
  -3   5   3 37264.7 3160.94  11
  -3   5   2 1106.14 1120.79  11
  -3   5   1 167019. 6237.46  11
   3   5   0 3180.41 1098.53  11
  -3   5   0 2991.55 1138.45  11
   3   5   1 126947. 5490.14  11
   3   5   2 6280.16 1686.57  11
   3   5   3 62947.1 4198.97  11
   3   5   4 14746.7 2146.46  11
  -3   7   4 1486.22 1138.83  11
  -3   7   3 80850.9 4473.24  11
  -3   7   2 846.803 1283.29  11
  -3   7   1 32734.8 3040.69  11
  -3   7   0 12300.2 1836.01  11
   3   7   0 5008.28 1452.40  11
   3   7   1 51396.0 3608.76  11
   3   7   2 4017.30 1419.85  11
   3   7   3 47564.9 3253.27  11
   4  -8   0 4909.68 1229.98  10
  -4  -6   5 4101.07 1004.95  10
  -4  -6   4 35232.8 2858.24  10
  -4  -6   3 3707.12 1295.85  10
   4  -6   2 32206.4 3241.13  10
   4  -6   3-167.529 1199.77  10
   4  -6   4 14065.1 2154.56  10
  -4  -4   5 771.892 1208.59  10
  -4  -4   4 48658.7 3511.17  10
  -4  -4   3 38419.0 3801.14   2
  -4  -4   3 29743.0 2509.12  10
  -4  -4   2 69858.8 4854.88   2
  -4  -4   2 72910.3 3443.51  10
   4  -4  -1 1976.44 1104.37   4
  -4  -4   1 1248.98 652.199   2
   4  -4   0 174515. 7708.26   4
   4  -4   1 5061.19 1423.07   4
   4  -4   2 35627.1 2887.50  10
   4  -4   2 35559.2 3853.53   4
   4  -4   3 7646.21 1581.55  10
   4  -4   4 77972.8 4795.73  10
   4  -4   5-122.393 874.421  10
  -4  -2   6 47918.4 3348.26   9
  -4  -2   5 6730.47 1501.36   7
  -4  -2   5 4876.56 1234.97   9
  -4  -2   4 23018.7 2082.62   7
  -4  -2   4 26148.1 2272.08  10
  -4  -2   4 27032.6 2075.36   9
  -4  -2   3 8452.83 1656.94   2
  -4  -2   2 348909. 9417.76   2
   4  -2   0 62608.4 3292.40   4
   4  -2   1 3508.77 1098.14   4
   4  -2   2 172286. 7036.05   4
   4  -2   3 24693.1 2088.98  10
   4  -2   3 22910.0 2888.93   3
   4  -2   3 21609.2 1824.77   5
   4  -2   4 42515.4 3075.97  10
   4  -2   4 39375.9 2938.77   5
   4  -2   4 36059.3 4245.71   3
  -4   0   8 10978.1 1552.65   9
  -4   0   7 8410.37 1618.44   7
  -4   0   7 7858.38 1746.92   9
  -4   0   6 156339. 6444.67   7
  -4   0   6 150269. 6215.47   9
  -4   0   5 997.781 911.959   9
  -4   0   4 31524.9 2135.26   9
  -4   0   4 26944.2 3110.62   1
  -4   0   4 32635.6 2281.44   8
  -4   0   3 65151.4 4096.41   1
  -4   0   2 15572.1 1719.44   1
  -4   0   2 13962.4 1310.61   2
   4   0  -1 1436.01 247.855   4
   4   0   1 204186. 5800.95   3
   4   0   2 3721.72 1154.29   3
   4   0   4 87022.4 4391.62   5
   4   0   5 22.4672 1120.87   6
   4   0   6 51272.6 3568.51   6
   4   0   7 10172.2 1491.48   6
  -4   2   7 46.9799 929.539   7
  -4   2   7 1062.55 1179.61   9
  -4   2   6 50752.6 3688.95   9
  -4   2   6 54374.9 3882.35   8
  -4   2   5 9833.19 2112.68   1
  -4   2   5 7726.02 1505.78   9
  -4   2   5 5522.64 1516.73   8
  -4   2   4 20936.5 1817.16   9
  -4   2   4 23642.2 2244.75   8
  -4   2   4 22054.5 1758.17   6
   4   2   3 24706.9 2003.37   5
   4   2   5 2100.04 1190.47   6
   4   2   6 44769.7 3319.61   6
   4   2   6 42115.7 3172.44   9
   4   2   7 1408.66 757.283   6
  -4   4   7 242.142 548.144   9
  -4   4   6 48538.9 3193.47   9
  -4   4   6 48877.6 3603.30   8
  -4   4   5-606.975 1277.49   8
  -4   4   5-1453.01 929.131   9
  -4   4   4 54439.9 3463.83  11
  -4   4   3 38859.5 2934.93  11
  -4   4   2 89279.5 4196.88  11
  -4   4   1 1462.51 867.881  11
  -4   4   0 187966. 5761.00  11
   4   4   0 179866. 5575.91  11
  -4   4  -1 7284.33 1086.82  11
   4   4   1 7359.39 1300.70  11
   4   4   2 40280.6 3022.71  11
   4   4   3 7364.36 1579.65  11
   4   4   4 83763.2 4553.82  11
   4   4   6 16632.6 1952.60   9
  -4   6   5 7049.15 1270.11  11
  -4   6   5 6965.45 1443.83   8
  -4   6   4 37408.9 3145.12  11
  -4   6   3 1755.81 1421.11  11
  -4   6   2 35618.8 3312.76  11
  -4   6   1 773.739 1187.97  11
  -4   6   0 95454.1 4923.74  11
   4   6   0 102681. 5053.32  11
   4   6   1 9605.42 1669.15  11
   4   6   2 41750.4 3585.07  11
   4   6   3-638.923 1132.77  11
   4   6   4 20326.7 2198.35  11
   5  -7   1 39757.6 3372.44  10
   5  -7   2 1425.04 1009.51  10
  -5  -5   5 97189.5 4894.56  10
  -5  -5   4 2975.44 1076.76  10
   5  -5   2 17109.9 2218.16  10
   5  -5   3 18203.4 2446.34  10
   5  -5   4 4501.19 1585.48  10
  -5  -3   4 2840.36 1044.59  10
  -5  -3   3 226533. 8999.78   2
  -5  -3   3 208909. 5958.06  10
  -5  -3   2 7788.54 1661.30   2
   5  -3  -1 82850.8 4580.90   4
   5  -3   0 4161.34 1345.86   4
   5  -3   1 89013.8 5156.01   4
   5  -3   2 4033.78 1497.07   4
   5  -3   2 2909.84 964.381  10
   5  -3   3 83233.8 4212.05  10
   5  -3   3 79750.0 5879.96   3
   5  -3   4 29138.2 2861.69  10
  -5  -1   7 56365.0 3672.95   9
  -5  -1   6 5804.31 1606.56   7
  -5  -1   6 4092.90 1537.36   9
  -5  -1   5 162897. 5936.28   9
  -5  -1   5 166117. 6307.22   7
  -5  -1   4 3556.06 1045.99   7
  -5  -1   4 3756.08 920.599   9
  -5  -1   3 27658.7 2517.45   2
  -5  -1   2 6554.36 1309.54   2
   5  -1  -1 237689. 5576.85   4
   5  -1   0 47179.4 2564.67   4
   5  -1   1 258284. 7505.21   4
   5  -1   2 65120.5 4211.78   3
   5  -1   3 27496.8 2198.06   5
   5  -1   3 24677.1 3030.02   3
   5  -1   4 1263.53 953.874   5
   5  -1   5 45625.8 3172.19   6
   5  -1   6 3282.94 1007.45   6
  -5   1   8 1008.59 780.329   9
  -5   1   7 53518.7 3727.61   9
  -5   1   7 51096.0 3661.43   7
  -5   1   6 4951.99 1666.83   9
  -5   1   5 160156. 5902.30   9
  -5   1   5 159980. 8668.06   1
  -5   1   5 155224. 6184.29   8
  -5   1   4 3254.88 1422.17   1
  -5   1   4 4294.88 1037.91   8
  -5   1   4 4587.00 1038.84   9
  -5   1   2 5536.93 880.126   2
   5   1   3 23367.3 2007.39   5
   5   1   4 938.635 973.100   5
   5   1   5 45417.6 3162.42   9
   5   1   6 3961.74 1272.46   6
   5   1   7 13832.6 1670.66   6
  -5   3   7 63917.0 3621.96   9
  -5   3   6 953.138 1089.76   8
  -5   3   6 777.796 990.090   9
  -5   3   5 20034.9 2128.48   9
  -5   3   5 18004.0 2503.93   8
  -5   3   4 3186.55 945.167   9
  -5   3   3 270957. 7186.90  11
   5   3   3 83846.9 4279.27  11
   5   3   4 28856.6 2561.14  11
   5   3   5 22958.9 2386.52   6
   5   3   6 4501.31 1155.71   9
   5   3   6 2605.14 1023.96   6
  -5   5   6-266.224 684.622   8
  -5   5   5 105174. 5432.96   8
  -5   5   4 5007.32 1681.66  11
  -5   5   3 11394.0 2101.62  11
  -5   5   2 99.4915 1139.53  11
  -5   5   1 152755. 6218.15  11
  -5   5   0 1790.60 1101.80  11
   5   5   0 3298.44 1216.12  11
   5   5   1 75269.5 4385.94  11
  -5   5  -1 69456.2 3754.92  11
   5   5   2 19787.5 2503.95  11
   5   5   3 22944.0 2717.42  11
   5   5   4 6509.51 1599.46  11
  -5   7   3 70069.7 4032.46  11
  -5   7   2 1467.83 1164.60  11
  -5   7   1 22654.5 2413.41  11
  -5   7   0 3132.14 1040.79  11
   5   7   1 41683.8 3193.42  11
   5   7   2 2382.38 1236.00  11
   5   7   3 24119.3 2154.52  11
   6  -6   1 714.521 1162.42  10
   6  -6   2 53475.3 3775.41  10
   6  -6   3 4199.64 1260.53  10
   6  -4  -3-1981.80 1459.36   4
  -6  -4   3 1893.95 872.688   2
  -6  -4   2 159881. 7976.24   2
   6  -4  -2 167146. 7736.39   4
   6  -4  -1 21523.2 2895.90   4
  -6  -4   1 22563.2 2894.28   2
   6  -4   0 184246. 8433.06   4
   6  -4   1 645.893 1136.09   4
   6  -4   2 88311.8 4471.90  10
   6  -4   3 1662.78 1125.29  10
   6  -4   4 71804.3 4299.49  10
  -6  -2   6 64670.1 4051.88   9
  -6  -2   5 1253.52 1077.95   9
  -6  -2   5 1934.28 1177.02   7
  -6  -2   4 225849. 9175.13   2
  -6  -2   4 220630. 6672.14   9
  -6  -2   4 226886. 6929.79   7
  -6  -2   3 24865.6 2785.99   2
  -6  -2   3 27212.0 2013.55   7
  -6  -2   2 425843. 11525.0   2
   6  -2  -2 438344. 10041.0   4
   6  -2  -1 2414.27 855.677   4
   6  -2   0 106769. 4864.35   4
   6  -2   1 57249.9 3883.68   4
   6  -2   2 304986. 7634.29   5
   6  -2   3 7271.77 1830.79   3
   6  -2   3 3895.36 1266.14   5
   6  -2   4 60866.7 3889.74   5
  -6   0   8 13428.2 1722.77   9
  -6   0   7 4222.90 1425.72   7
  -6   0   7 2390.71 1382.31   9
  -6   0   6 204532. 7417.33   9
  -6   0   6 189400. 7449.18   7
  -6   0   5 2097.87 1039.88   9
  -6   0   4 331576. 7938.73   9
  -6   0   4 329553. 8352.29   8
  -6   0   4 328918. 11681.6   1
  -6   0   3 515.148 857.804   1
  -6   0   3 422.222 271.956   2
  -6   0   2 98255.0 4665.38   1
   6   0  -1 275202. 5160.97   3
   6   0   0 840483. 14101.2   3
   6   0   1 47412.1 3071.83   3
   6   0   2 155979. 6793.21   3
   6   0   3 17224.3 1823.99   5
   6   0   4 106682. 5279.32   5
   6   0   5 2537.14 1199.90   6
   6   0   6 32235.6 2779.29   6
  -6   2   7 9136.45 1796.57   7
  -6   2   7 14531.0 2022.32   9
  -6   2   6 61488.3 3916.50   9
  -6   2   6 63499.4 4370.52   8
  -6   2   5 196.466 1114.38   8
  -6   2   5 1596.37 1009.85   9
  -6   2   4 222093. 6233.98   9
  -6   2   4 211787. 6969.33   8
   6   2   2 282953. 7038.90   5
   6   2   3 5436.37 1261.45   5
   6   2   6 31344.1 2668.18   6
   6   2   6 32107.8 2429.01   9
  -6   4   6 71714.8 4402.21   8
  -6   4   5 9806.80 2119.87   8
  -6   4   4 135749. 5590.63  11
  -6   4   3-665.637 1080.55  11
  -6   4   2 187943. 6588.12  11
  -6   4   1 24432.5 2285.58  11
  -6   4   0 213804. 6767.57  11
   6   4   0 215415. 6702.14  11
   6   4   1 1342.90 993.802  11
  -6   4  -1 1747.86 841.710  11
   6   4   2 93892.7 4909.58  11
   6   4   3 1427.89 1131.77  11
   6   4   4 87363.9 4716.77  11
   6   4   5 949.644 712.415   6
  -6   6   5 612.669 1118.28   8
  -6   6   4 72991.8 4244.95  11
  -6   6   3 8586.22 1842.12  11
  -6   6   2 61750.1 4317.41  11
  -6   6   1 3247.76 1329.68  11
  -6   6   0 139064. 5988.14  11
   6   6   0 119623. 5533.40  11
   6   6   1 3376.52 1260.21  11
   6   6   2 58713.3 4081.93  11
   6   6   3 4329.27 1461.52  11
   6   6   4 14940.8 1834.21  11
   7  -7   0 781.306 963.227  10
   7  -7   1 68410.3 3738.19  10
   7  -5   1 112002. 5363.81  10
   7  -5   2 889.871 1142.28  10
   7  -5   3 44392.4 3318.34  10
  -7  -3   3 322781. 11602.4   2
   7  -3  -2 1875.89 1093.62   4
  -7  -3   2 484.928 1011.20   2
   7  -3  -1 192556. 5659.55   5
   7  -3  -1 195676. 7633.06   4
   7  -3   0 31546.1 2113.74   5
   7  -3   0 34335.1 3258.85   4
   7  -3   1 112753. 4367.28   5
   7  -3   1 131599. 6878.38   4
   7  -3   2 12212.0 1559.43   5
  -7  -1   7 45386.0 3408.34   9
  -7  -1   6 7322.65 1741.85   9
  -7  -1   6 6098.35 1787.31   7
  -7  -1   5 178936. 6462.71   9
  -7  -1   5 168459. 6539.90   7
  -7  -1   4 103.613 738.610   7
  -7  -1   4 1792.35 988.918   9
  -7  -1   4 392.726 725.202   2
  -7  -1   3 187793. 7169.12   2
  -7  -1   3 189290. 5399.44   9
   7  -1  -1 585084. 11037.5   4
   7  -1   0 60465.0 3416.01   4
   7  -1   1 204381. 7473.07   3
   7  -1   2 2671.29 1384.79   3
   7  -1   2 843.358 694.001   5
   7  -1   3 125977. 7448.49   3
   7  -1   3 136148. 5678.38   5
   7  -1   4 7102.12 1650.93   5
   7  -1   5 73284.4 3979.63   6
   7  -1   6 954.313 867.284   6
  -7   1   8 1908.74 891.146   9
  -7   1   7 46033.0 3393.38   9
  -7   1   7 42037.8 3426.73   7
  -7   1   6 9465.27 1755.47   9
  -7   1   5 169444. 6147.07   9
  -7   1   5 173589. 6781.83   8
  -7   1   4 1793.75 940.553   8
  -7   1   4 32.9339 825.554   1
  -7   1   4 2141.51 904.611   9
   7   1   2 1119.68 520.552   5
   7   1   3 127910. 5410.04   5
   7   1   4 7985.71 1595.00   5
   7   1   6 1840.80 1066.31   6
  -7   3   7 69531.4 3498.56   9
  -7   3   6 5382.73 1292.87   9
  -7   3   6 7320.80 1933.94   8
  -7   3   5 33884.7 3322.91   8
  -7   3   3 336975. 8702.60  11
  -7   3   2 1278.94 830.429  11
  -7   3   1 219480. 6565.80  11
  -7   3   0 42077.5 2716.75  11
  -7   3  -1 136140. 4998.77  11
   7   3   4 1558.64 1101.18  11
   7   3   5 53788.4 3460.16   6
  -7   5   6 3226.83 988.169   8
  -7   5   5 128146. 5955.09   8
  -7   5   4 1606.67 1182.88  11
  -7   5   3 35191.4 3226.94  11
  -7   5   2 13163.6 2154.22  11
  -7   5   1 200736. 7526.53  11
  -7   5   0 4623.62 1418.06  11
   7   5   0 6324.23 1631.90  11
   7   5   1 111561. 5503.59  11
  -7   5  -1 102540. 4976.20  11
   7   5   2 2586.51 1396.37  11
   7   5   3 52932.9 3982.01  11
   7   5   4 22036.6 2318.94  11
  -7   7   3 75133.8 3940.61  11
  -7   7   2 2581.49 1106.27  11
  -7   7   1 33314.8 2826.80  11
  -7   7   0 923.778 853.489  11
   7   7   1 66921.6 3652.41  11
   7   7   2 5278.61 1405.01  11
   8  -6   1 671.835 904.645  10
   8  -4  -2 81747.2 5464.03   4
   8  -4  -1 4997.74 1429.88   4
   8  -4   0 105284. 6567.64   4
  -8  -2   4 118209. 6981.15   2
  -8  -2   3 10547.4 1919.08   2
   8  -2  -1 63261.1 3740.81   4
   8  -2  -1 66188.4 3282.68   5
   8  -2   0 79791.3 4665.10   4
   8  -2   0 81383.1 3653.15   5
   8  -2   1 41576.7 3804.91   4
   8  -2   1 42478.5 2779.61   5
   8  -2   2 120256. 5150.18   5
   8  -2   2 135196. 7360.40   3
   8  -2   3 3460.24 1402.20   5
   8  -2   4 42385.7 3528.22   5
  -8   0   7 5077.94 1524.57   7
  -8   0   7 4323.01 1399.10   9
  -8   0   6 121801. 5701.89   9
  -8   0   6 114794. 5802.74   7
  -8   0   5 8507.34 1551.56   9
  -8   0   5 10746.8 1878.41   7
  -8   0   4 134287. 4948.85   9
  -8   0   4 135127. 7538.75   1
  -8   0   3 1542.80 1137.50   1
  -8   0   3 2088.53 724.159   9
  -8   0   3 1917.24 1054.28   2
  -8   0   2 112069. 5325.56   1
  -8   0   1 9684.02 1268.54   1
   8   0   0 384138. 9112.47   3
   8   0   1 44804.1 3387.14   3
   8   0   1 45531.5 2765.34   5
   8   0   2 60623.5 3544.65   5
   8   0   3 29837.8 2806.62   5
   8   0   4 75240.2 4717.17   5
   8   0   5 142.327 981.299   6
   8   0   6 23526.5 2024.44   6
  -8   2   7 2335.52 1214.14   7
  -8   2   7 15.3098 717.926   9
  -8   2   6 26173.3 2543.82   9
  -8   2   6 25943.4 2951.56   8
  -8   2   5 3318.70 1568.48   8
  -8   2   5 4685.62 1177.74   9
  -8   2   4 133049. 5583.86   8
  -8   2   3 13589.9 1518.31  11
  -8   2   3 11538.2 1503.34   8
  -8   2   2 263735. 7061.17  11
  -8   2   1 65610.6 3269.37  11
  -8   2   0 81389.8 3706.38  11
  -8   2  -1 37121.7 2610.24  11
   8   2   2 131312. 5061.34   5
   8   2   3 1987.93 1036.79   5
   8   2   4 46617.2 3538.82   5
  -8   4   6 44794.7 3496.83   8
  -8   4   5 5015.74 1666.73   8
  -8   4   4 91445.0 4752.80  11
  -8   4   3 2808.91 1220.07  11
  -8   4   2 106026. 5172.87  11
  -8   4   1 2290.82 1386.18  11
  -8   4   0 109538. 5126.45  11
  -8   4  -1-331.280 754.997  11
   8   4   2 64016.1 4328.70  11
   8   4   3 3204.54 1469.12  11
   8   4   4 63167.1 3874.76  11
  -8   6   5 2803.76 1104.31   8
  -8   6   4 56241.2 3648.48   8
  -8   6   4 62546.3 3726.62  11
  -8   6   3 2404.63 1431.90  11
  -8   6   2 30777.6 3005.10  11
  -8   6   1 2732.60 1360.37  11
   8   6   0 70761.8 4041.69  11
  -8   6   0 67616.2 4241.12  11
   8   6   1 1024.64 934.558  11
   8   6   2 48667.0 3578.46  11
   8   6   3 2993.72 1006.78  11
   9  -3  -2 21479.8 2167.29   5
  -9  -3   2 16983.8 2633.51   2
   9  -3  -1 40635.8 2931.09   5
   9  -3   0 1068.22 901.740   5
   9  -3   0 1539.50 1154.90   4
   9  -3   1 110903. 6841.51   4
   9  -3   1 122161. 5188.00   5
   9  -3   2 25096.8 2487.46   5
   9  -3   3 81082.1 4434.14   5
  -9  -1   6 2764.94 1398.42   7
  -9  -1   5 166417. 6551.82   7
  -9  -1   4 25464.9 2307.59   7
  -9  -1   3 97946.6 5507.14   2
   9  -1  -1 68170.3 3433.58   5
   9  -1   0 24527.0 2114.18   5
   9  -1   1 233337. 8800.09   3
   9  -1   1 232651. 7210.48   5
   9  -1   2 13176.5 1836.09   5
   9  -1   2 8466.59 2418.94   3
   9  -1   3 81106.1 4772.14   5
   9  -1   4 2366.07 1446.23   5
   9  -1   5 9896.33 1447.14   6
  -9   1   7 23764.7 2499.21   7
  -9   1   7 28185.2 2519.50   9
  -9   1   6 5702.29 1602.15   7
  -9   1   6 3814.34 1179.20   9
  -9   1   5 167743. 6144.81   9
  -9   1   5 166142. 6723.60   8
  -9   1   4 20291.7 1925.80   9
  -9   1   4 21402.8 2278.96   8
  -9   1   4 21081.3 3102.04   1
  -9   1   3 105537. 6478.57   1
  -9   1   3 108972. 4224.22   8
  -9   1   2 3392.40 929.579  11
   9   1  -2 1543.03 819.401   5
  -9   1   1 63332.7 3286.24  11
  -9   1   0 21657.8 2052.14  11
   9   1   0 22117.7 1872.04   5
   9   1   1 230067. 6892.27   5
   9   1   2 10161.2 1656.58   5
   9   1   3 88111.3 4890.92   5
   9   1   4 2409.58 1364.15   5
  -9   3   7 37238.7 2779.48   7
  -9   3   6 2278.94 1295.53   8
  -9   3   5 38146.4 3440.87   8
  -9   3   4 31918.3 2979.64   8
  -9   3   3 253424. 7844.34  11
  -9   3   2 16287.1 2008.31  11
  -9   3   1 38831.6 2978.95  11
  -9   3   0 341.720 963.380  11
  -9   3  -1 118644. 5276.03  11
   9   3   4 8853.98 1658.03  11
   9   3   5 16372.7 1690.70   6
   9   3   5 14837.8 1495.33   9
  -9   5   5 94239.9 4754.82   8
  -9   5   4-736.349 1132.83  11
  -9   5   4 2361.71 1409.76   8
  -9   5   3 38293.8 3295.06  11
  -9   5   2 4025.91 1673.57  11
  -9   5   1 77342.4 4774.60  11
  -9   5   0 26.4564 962.279  11
   9   5   0 418.155 1041.92  11
   9   5   1 64295.0 4247.69  11
  -9   5  -1 56731.2 3773.02  11
   9   5   2-219.793 843.543  11
   9   5   3 49304.3 3487.68  11
  -9   7   2 858.539 500.556  11
  -9   7   1 12989.8 1669.82  11
  10  -4  -4 29883.1 2740.01   5
  10  -4  -3 2890.65 1316.07   5
  10  -4  -2 84023.5 4350.64   5
 -10  -2   3 2830.65 1255.79   2
  10  -2  -2 119317. 5263.34   5
  10  -2  -1 16369.2 2047.77   5
  10  -2   0 59066.3 3616.26   5
  10  -2   1 17843.3 2191.18   5
  10  -2   1 16301.8 2402.88   3
  10  -2   2 104744. 5352.23   5
  10  -2   3 4589.62 1540.67   5
  10  -2   4 25454.9 2718.84   5
 -10   0   7 2823.30 1261.12   7
 -10   0   6 101699. 5316.99   7
 -10   0   5 17626.6 2304.49   7
 -10   0   5 17525.0 2273.22   9
 -10   0   4 81177.4 6005.44   1
 -10   0   4 69766.4 3770.17   7
 -10   0   3 3623.96 1285.47   1
  10   0  -2 55734.8 3286.99   5
  10   0  -1 64581.0 3537.68   5
  10   0   0 156891. 5736.61   5
  10   0   1 49919.0 3435.52   5
  10   0   2 103856. 5219.25   5
  10   0   3 9564.59 2004.28   5
  10   0   4 24747.2 2872.63   5
  10   0   5 2939.10 948.088   6
 -10   2   7 2264.68 999.657   7
 -10   2   7 227.836 652.027   9
 -10   2   5 9113.31 1851.02   8
 -10   2   4 78497.2 4276.77   8
 -10   2   3 3774.02 1189.94  11
 -10   2   2 115881. 5013.38  11
 -10   2   1 13963.3 1962.45  11
 -10   2   0 59975.5 3766.15  11
  10   2   1 21283.4 2014.14   5
  10   2   2 100445. 4867.42   5
  10   2   3 4362.86 1334.50   5
  10   2   5-480.519 743.476   6
 -10   4   6 30483.6 2691.86   8
 -10   4   5 872.223 1105.35   8
 -10   4   4 30672.8 2991.93   8
 -10   4   4 33256.8 2906.21  11
 -10   4   3 3829.65 1528.27  11
 -10   4   2 82094.2 4866.04  11
 -10   4   1 1979.66 1356.94  11
 -10   4   0 55014.7 3989.16  11
 -10   4  -1-746.950 1198.06  11
  10   4   2 41600.6 3582.30  11
  10   4   3 1510.51 1130.11  11
  10   4   4 30043.0 2348.83  11
 -10   6   4 30073.2 2270.06  11
 -10   6   3 2925.24 1248.89  11
 -10   6   3 3682.67 810.612   8
 -10   6   2 22134.2 2373.61  11
 -10   6   1 3909.40 1159.79  11
  10   6   0 34381.1 2706.53  11
 -10   6   0 36236.0 2900.46  11
  10   6   1 1717.88 1048.17  11
  10   6   2 30767.6 2435.69  11
  11  -3  -4 6572.99 1692.66   5
  11  -3  -3 72232.9 4447.57   5
  11  -3  -2 8973.07 1698.00   5
  11  -3  -1 84453.8 4635.30   5
  11  -3   0 1328.08 1150.15   5
  11  -3   1 8707.54 1799.27   5
  11  -3   2 8536.17 1630.27   5
  11  -3   3 12985.5 1788.20   5
 -11  -1   5 20954.3 2393.60   7
  11  -1  -3 37480.9 3196.53   5
  11  -1  -2 5216.86 1430.11   5
  11  -1  -1 133962. 5643.77   5
  11  -1   0 541.617 1052.61   5
  11  -1   1 9010.04 1693.33   5
  11  -1   2 44584.9 3714.13   5
  11  -1   3 13101.5 2243.57   5
  11  -1   4 2786.52 1238.45   5
 -11   1   7 26003.0 2471.99   7
 -11   1   6 774.394 1163.36   7
 -11   1   5 20167.6 2508.58   7
  11   1  -3 37003.1 2798.34   5
 -11   1   3 28374.3 2433.79  11
 -11   1   2 3705.70 1224.80  11
  11   1  -2 3067.26 1044.93   5
  11   1  -1 135505. 5279.09   5
 -11   1   1 133141. 5615.82  11
  11   1   0 1639.78 956.458   5
  11   1   1 8253.87 1569.80   5
  11   1   2 42953.5 3408.40   5
  11   1   3 14883.3 2214.04   5
  11   1   4 1871.54 1117.42   5
  11   1   5 19116.4 1820.62   6
 -11   3   5 2135.39 1158.30   8
 -11   3   4 7073.43 1679.72   8
 -11   3   3 76384.6 4430.16  11
 -11   3   2 12323.3 1986.74  11
 -11   3   1 82058.6 4829.37  11
 -11   3   0-492.655 1238.45  11
  11   3   4 3053.50 928.114  11
 -11   5   5 26527.5 2294.58   8
 -11   5   4 28617.1 2511.50  11
 -11   5   4 25381.9 2359.65   8
 -11   5   3 5076.00 1605.87  11
 -11   5   2 4673.92 1641.72  11
 -11   5   1 65899.2 4323.94  11
 -11   5   0 1670.62 1265.02  11
  11   5   0 3865.77 1322.10  11
  11   5   1 10956.4 1813.66  11
  11   5   2 19290.3 2370.63  11
  12  -4  -5 2502.14 885.119   5
  12  -4  -4 24458.5 2434.04   5
  12  -4  -3 1571.20 1024.07   5
  12  -4  -2 63638.9 3945.61   5
  12  -4  -1 1807.86 1103.12   5
  12  -2  -4 59813.2 4307.04   5
  12  -2  -3 1672.51 1261.79   5
  12  -2  -2 96570.6 5217.95   5
  12  -2  -1 16128.7 2209.61   5
  12  -2   0 52950.4 3903.07   5
  12  -2   1 3108.76 1472.58   5
  12  -2   2 10155.8 2069.58   5
  12  -2   3 6685.80 1602.43   5
  12  -2   4 21635.6 2152.91   5
 -12   0   6 67037.0 3921.01   7
 -12   0   5 401.839 845.645   7
  12   0  -4 43448.3 3480.57   5
  12   0  -3 7555.18 1780.09   5
  12   0  -2 99104.6 4964.72   5
  12   0  -1 18293.8 2148.78   5
  12   0   0 70596.8 4289.63   5
  12   0   1 49732.0 3763.17   5
  12   0   2 12782.2 2298.88   5
  12   0   3 2114.36 1265.55   5
  12   0   4 21746.2 2380.92   5
 -12   2   6 13653.1 2059.38   7
 -12   2   3 993.540 979.192  11
 -12   2   2 94452.3 5070.08  11
 -12   2   1 12995.1 2145.17  11
  12   2   2 7712.59 1514.49   5
  12   2   3 7161.22 1548.31   5
 -12   4   5-1549.51 973.493   8
 -12   4   4 23828.1 2417.46  11
 -12   4   3 3785.54 1492.70  11
 -12   4   2 69192.8 4562.95  11
 -12   4   1 1527.52 1426.55  11
 -12   4   0 31065.3 3110.13  11
  12   4   2 11603.8 1974.67  11
  12   4   3 1074.97 932.886  11
 -12   6   2 10647.6 1634.65  11
 -12   6   1 1167.80 866.228  11
  13  -3  -6 3074.79 916.556   5
  13  -3  -5 39607.0 3218.49   5
  13  -3  -4 44464.7 3650.55   5
  13  -3  -3 92551.6 5121.79   5
  13  -3  -2 15995.7 2293.42   5
  13  -3  -1 45443.4 3557.31   5
  13  -3   0 4696.59 1209.89   5
  13  -3   1 64649.3 4130.69   5
  13  -3   2 12506.6 1874.47   5
  13  -1  -6-443.040 906.485   5
  13  -1  -5 136363. 6253.24   5
  13  -1  -4 19966.5 2700.80   5
  13  -1  -3 53586.1 4053.43   5
  13  -1  -2-1416.07 1264.50   5
  13  -1  -1 54273.8 4024.82   5
  13  -1   0 318.342 1208.71   5
  13  -1   1 116992. 5994.09   5
  13  -1   2 9399.32 2041.41   5
  13  -1   3 30372.5 2874.21   5
  13  -1   4 1857.96 835.926   5
  13   1  -4 18512.1 2262.72   5
  13   1  -3 60902.1 3926.81   5
  13   1  -2-421.045 1142.39   5
  13   1  -1 50311.9 3577.57   5
  13   1   0-1816.42 1049.99   5
  13   1   1 112755. 5605.69   5
  13   1   2 10505.8 1819.90   5
  13   1   3 25552.8 2571.25   5
 -13   3   3 84541.7 4865.31  11
 -13   3   2 14064.1 2295.44  11
 -13   3   1 42465.0 3675.67  11
  13   3   3 20198.9 1981.75  11
 -13   5   3 23941.2 2345.46  11
 -13   5   2 6355.66 1535.53  11
 -13   5   1 30589.5 2787.30  11
  13   5   0 751.197 735.679  11
  13   5   1 30378.7 2288.47  11
  14  -4  -4 23511.6 2173.27   5
  14  -4  -3 3053.94 1091.55   5
  14  -4  -2 33015.6 2634.69   5
  14  -4  -1 639.405 1022.59   5
  14  -2  -6 22488.9 2298.34   5
  14  -2  -5 6065.91 1539.60   5
  14  -2  -4 79615.6 4745.92   5
  14  -2  -3 7781.95 2010.97   5
  14  -2  -2 29003.5 3020.49   5
  14  -2  -1 8896.06 1893.18   5
  14  -2   0 54651.3 4124.31   5
  14  -2   1 17733.8 2357.33   5
  14  -2   2 38640.0 3235.13   5
  14  -2   3 1660.11 607.758   5
  14   0  -6 66215.0 3578.02   5
  14   0  -5 8720.37 1722.43   5
  14   0  -4 66948.6 4368.92   5
  14   0  -3 7476.89 1606.52   5
  14   0  -2 27130.8 2860.09   5
  14   0  -1 11064.1 2047.95   5
  14   0   0 39559.6 3501.76   5
  14   0   1 10931.9 2101.12   5
  14   0   2 81338.1 4779.70   5
  14   0   3 8415.90 1390.57   5
 -14   4   3 1493.36 1035.11  11
 -14   4   2 37813.1 3165.20  11
  14   4   0 24027.6 2382.09  11
  14   4   1 901.111 998.608  11
  15  -3  -4 6638.33 1592.25   5
  15  -3  -3 51905.0 3559.08   5
  15  -3  -2-702.952 1034.23   5
  15  -3  -1 43572.6 3319.45   5
  15  -3   0 3607.38 1270.98   5
  15  -3   1 15035.2 1720.36   5
  15  -1  -5 38618.9 3009.80   5
  15  -1  -4 4295.72 1630.83   5
  15  -1  -3 62301.9 4304.18   5
  15  -1  -2 9568.67 1996.89   5
  15  -1  -1 45296.5 3748.29   5
  15  -1   0 1057.95 1129.58   5
  15  -1   1 24902.6 2770.14   5
  15  -1   2 1910.55 1150.04   5
  15   1  -3 54669.3 3619.95   5
  15   1  -2 10440.2 1908.62   5
  15   1  -1 45240.4 3343.69   5
  15   1   0 393.359 1085.08   5
  15   1   1 23185.3 2355.65   5
  15   1   2 633.444 703.272   5
  16  -2  -4 39321.6 3003.62   5
  16  -2  -3 4639.90 1394.03   5
  16  -2  -2 52645.6 3683.00   5
  16  -2  -1 632.700 883.405   5
  16  -2   0 41129.7 3163.08   5
  16  -2   1 6228.40 1383.69   5
  16   0  -5 997.079 697.309   5
  16   0  -4 30166.7 2611.29   5
  16   0  -3 895.652 887.450   5
  16   0  -2 71830.0 4357.34   5
  16   0  -1 17637.5 2276.52   5
  16   0   0 22631.9 2484.12   5
  16   0   1 1380.24 952.926   5
  17  -1  -4 2258.37 795.243   5
  17  -1  -3 17781.8 2077.45   5
  17  -1  -2 547.979 888.454   5
  17  -1  -1 16586.0 2036.57   5
  17  -1   0 2199.99 1120.24   5
;
_shelx_hkl_checksum              70477
_shelx_shelxl_version_number     2014/7
_olex2_submission_special_instructions 'No special instructions were received'
loop_
_space_group_symop_operation_xyz
'x, y, z'
'-x, y, -z'
'x+1/2, y+1/2, z'
'-x+1/2, y+1/2, -z'
'-x, -y, -z'
'x, -y, z'
'-x+1/2, -y+1/2, -z'
'x+1/2, -y+1/2, z'
loop_
_atom_site_label
_atom_site_type_symbol
_atom_site_fract_x
_atom_site_fract_y
_atom_site_fract_z
_atom_site_U_iso_or_equiv
_atom_site_adp_type
_atom_site_occupancy
_atom_site_site_symmetry_order
_atom_site_calc_flag
_atom_site_refinement_flags_posn
_atom_site_refinement_flags_adp
_atom_site_refinement_flags_occupancy
Ni1 Ni 0.5000 0.0000 1.0000 0.0191(6) Uani 1 4 d S T P
Fe1 Fe 0.5000 -0.5000 0.5000 0.0186(5) Uani 1 4 d S T P
N1 N 0.5229(3) -0.2910(7) 0.7174(7) 0.0288(11) Uani 1 1 d . . .
N2 N 0.6365(4) -0.5000 0.4899(9) 0.0263(16) Uani 1 2 d S T P
N3 N 0.7738(8) -0.5000 0.1503(18) 0.093(4) Uani 1 2 d S TU P
H3 H 0.7518 -0.3930 0.0813 0.111 Uiso 1 1 d R . .
C1 C 0.5156(4) -0.1814(8) 0.8284(8) 0.0241(12) Uani 1 1 d . . .
C2 C 0.6629(6) -0.5000 0.3285(13) 0.044(3) Uani 1 2 d S T P
H2 H 0.6206 -0.5000 0.2127 0.053 Uiso 1 2 calc RS T P
C3 C 0.7489(6) -0.5000 0.3211(15) 0.053(3) Uani 1 2 d S TU P
C4 C 0.8109(6) -0.5000 0.4845(14) 0.044(2) Uani 1 2 d S T P
H4 H 0.8700 -0.5000 0.4832 0.053 Uiso 1 2 calc RS T P
C5 C 0.7853(7) -0.5000 0.6535(15) 0.070(4) Uani 1 2 d S T P
H5 H 0.8267 -0.5000 0.7707 0.084 Uiso 1 2 calc RS T P
C6 C 0.6988(6) -0.5000 0.6488(13) 0.055(3) Uani 1 2 d S T P
H6 H 0.6825 -0.5000 0.7657 0.065 Uiso 1 2 calc RS T P
loop_
_atom_site_aniso_label
_atom_site_aniso_U_11
_atom_site_aniso_U_22
_atom_site_aniso_U_33
_atom_site_aniso_U_23
_atom_site_aniso_U_13
_atom_site_aniso_U_12
Ni1 0.0288(11) 0.0114(10) 0.0189(9) 0.000 0.0093(8) 0.000
Fe1 0.0274(10) 0.0113(9) 0.0198(9) 0.000 0.0108(7) 0.000
N1 0.035(3) 0.022(3) 0.031(2) -0.003(2) 0.012(2) 0.000(2)
N2 0.032(4) 0.025(4) 0.024(3) 0.000 0.010(3) 0.000
N3 0.092(4) 0.099(4) 0.090(4) 0.000 0.026(2) 0.000
C1 0.031(3) 0.016(3) 0.027(3) 0.005(3) 0.011(2) -0.003(3)
C2 0.034(5) 0.068(7) 0.032(5) 0.000 0.011(4) 0.000
C3 0.035(5) 0.086(9) 0.038(5) 0.000 0.005(4) 0.000
C4 0.029(5) 0.054(7) 0.050(6) 0.000 0.013(4) 0.000
C5 0.034(6) 0.132(13) 0.039(6) 0.000 0.000(5) 0.000
C6 0.036(6) 0.099(10) 0.030(5) 0.000 0.011(4) 0.000
loop_
_atom_type_symbol
_atom_type_description
_atom_type_scat_dispersion_real
_atom_type_scat_dispersion_imag
_atom_type_scat_source
C C 0.0181 0.0091 'International Tables Vol C Tables 4.2.6.8 and 6.1.1.4'
H H 0.0000 0.0000 'International Tables Vol C Tables 4.2.6.8 and 6.1.1.4'
N N 0.0311 0.0180 'International Tables Vol C Tables 4.2.6.8 and 6.1.1.4'
Fe Fe -1.1336 3.1974 'International Tables Vol C Tables 4.2.6.8 and 6.1.1.4'
Ni Ni -3.0029 0.5091 'International Tables Vol C Tables 4.2.6.8 and 6.1.1.4'
loop_
_geom_angle_atom_site_label_1
_geom_angle_atom_site_label_2
_geom_angle_atom_site_label_3
_geom_angle
_geom_angle_site_symmetry_1
_geom_angle_site_symmetry_3
C1 Ni1 C1 90.2(3) 5_657 6
C1 Ni1 C1 180.0 5_657 .
C1 Ni1 C1 89.8(3) 6 .
C1 Ni1 C1 180.0 6 2_657
C1 Ni1 C1 89.8(3) 5_657 2_657
C1 Ni1 C1 90.2(3) 2_657 .
N1 Fe1 N1 90.3(3) 5_646 6_545
N1 Fe1 N1 89.7(3) 5_646 2_656
N1 Fe1 N1 89.7(3) 6_545 .
N1 Fe1 N1 180.0 5_646 .
N1 Fe1 N1 180.0 6_545 2_656
N1 Fe1 N1 90.3(3) 2_656 .
N1 Fe1 N2 88.44(18) 5_646 .
N1 Fe1 N2 88.44(18) 2_656 .
N1 Fe1 N2 91.56(18) . .
N1 Fe1 N2 88.44(18) 6_545 5_646
N1 Fe1 N2 91.56(18) 2_656 5_646
N1 Fe1 N2 88.44(18) . 5_646
N1 Fe1 N2 91.56(18) 6_545 .
N1 Fe1 N2 91.56(18) 5_646 5_646
N2 Fe1 N2 180.0 . 5_646
C1 N1 Fe1 164.8(5) . .
C2 N2 Fe1 123.5(6) . .
C6 N2 Fe1 120.9(6) . .
C6 N2 C2 115.6(8) . .
C3 N3 H3 108.9 . .
N1 C1 Ni1 177.6(5) . .
N2 C2 H2 118.1 . .
N2 C2 C3 123.8(9) . .
C3 C2 H2 118.1 . .
C2 C3 N3 122.0(10) . .
C4 C3 N3 118.6(10) . .
C4 C3 C2 119.4(9) . .
C3 C4 H4 121.0 . .
C3 C4 C5 118.0(9) . .
C5 C4 H4 121.0 . .
C4 C5 H5 120.5 . .
C6 C5 C4 119.1(9) . .
C6 C5 H5 120.5 . .
N2 C6 C5 124.2(9) . .
N2 C6 H6 117.9 . .
C5 C6 H6 117.9 . .
loop_
_geom_bond_atom_site_label_1
_geom_bond_atom_site_label_2
_geom_bond_distance
_geom_bond_site_symmetry_2
Ni1 C1 1.862(6) 5_657
Ni1 C1 1.862(6) 2_657
Ni1 C1 1.862(6) 6
Ni1 C1 1.862(6) .
Fe1 N1 2.149(5) 5_646
Fe1 N1 2.149(5) .
Fe1 N1 2.149(5) 2_656
Fe1 N1 2.149(5) 6_545
Fe1 N2 2.185(7) .
Fe1 N2 2.185(7) 5_646
N1 C1 1.153(8) .
N2 C2 1.328(11) .
N2 C6 1.325(12) .
N3 H3 0.9427 .
N3 C3 1.381(16) .
C2 H2 0.9400 .
C2 C3 1.378(14) .
C3 C4 1.345(14) .
C4 H4 0.9400 .
C4 C5 1.374(15) .
C5 H5 0.9400 .
C5 C6 1.365(15) .
C6 H6 0.9400 .
loop_
_geom_torsion_atom_site_label_1
_geom_torsion_atom_site_label_2
_geom_torsion_atom_site_label_3
_geom_torsion_atom_site_label_4
_geom_torsion
Fe1 N2 C2 C3 180.000(1)
Fe1 N2 C6 C5 180.000(2)
N2 C2 C3 N3 180.000(1)
N2 C2 C3 C4 0.000(2)
N3 C3 C4 C5 180.000(2)
C2 N2 C6 C5 0.000(2)
C2 C3 C4 C5 0.000(2)
C3 C4 C5 C6 0.000(3)
C4 C5 C6 N2 0.000(3)
C6 N2 C2 C3 0.000(2)
