#------------------------------------------------------------------------------
#$Date: 2017-04-04 16:05:38 +0300 (Tue, 04 Apr 2017) $
#$Revision: 194820 $
#$URL: file:///home/coder/svn-repositories/cod/cif/4/34/55/4345503.cif $
#------------------------------------------------------------------------------
#
# This file is available in the Crystallography Open Database (COD),
# http://www.crystallography.net/
#
# All data on this site have been placed in the public domain by the
# contributors.
#
data_4345503
loop_
_publ_author_name
'Sun, Xiao-Fen'
'Wang, Zhongxia'
'Li, Peng-Fei'
'Liao, Wei-Qiang'
'Ye, Heng-Yun'
'Zhang, Yi'
_publ_section_title
;
 Tunable Dielectric Responses Triggered by Dimensionality Modification in
 Organic-Inorganic Hybrid Phase Transition Compounds (C5H6N)CdnCl2n+1 (n =
 1 and 2).
;
_journal_issue                   6
_journal_name_full               'Inorganic chemistry'
_journal_page_first              3506
_journal_page_last               3511
_journal_paper_doi               10.1021/acs.inorgchem.6b03074
_journal_volume                  56
_journal_year                    2017
_chemical_formula_moiety         'Cd Cl3, C5 H6 N'
_chemical_formula_sum            'C5 H6 Cd Cl3 N'
_chemical_formula_weight         298.87
_space_group_crystal_system      orthorhombic
_space_group_IT_number           63
_space_group_name_Hall           '-A 2a 2a'
_space_group_name_H-M_alt        'A m m a'
_symmetry_space_group_name_Hall  '-A 2a 2a'
_symmetry_space_group_name_H-M   'A m m a'
_atom_sites_solution_hydrogens   difmap
_audit_creation_method           SHELXL-2014/7
_cell_angle_alpha                90
_cell_angle_beta                 90
_cell_angle_gamma                90
_cell_formula_units_Z            4
_cell_length_a                   6.7876(14)
_cell_length_b                   7.3532(15)
_cell_length_c                   17.718(4)
_cell_measurement_reflns_used    2323
_cell_measurement_temperature    293(2)
_cell_measurement_theta_max      27.345
_cell_measurement_theta_min      3.782
_cell_volume                     884.3(3)
_computing_structure_refinement  'SHELXL-2014/7 (Sheldrick, 2014)'
_diffrn_ambient_temperature      293(2)
_diffrn_measured_fraction_theta_full 0.953
_diffrn_measured_fraction_theta_max 0.963
_diffrn_measurement_device_type  'Rigaku, SCXmini'
_diffrn_measurement_method       '\w scans'
_diffrn_radiation_type           MoK\a
_diffrn_radiation_wavelength     0.71073
_diffrn_reflns_av_R_equivalents  0.0427
_diffrn_reflns_av_unetI/netI     0.0269
_diffrn_reflns_Laue_measured_fraction_full 0.953
_diffrn_reflns_Laue_measured_fraction_max 0.963
_diffrn_reflns_limit_h_max       8
_diffrn_reflns_limit_h_min       -7
_diffrn_reflns_limit_k_max       9
_diffrn_reflns_limit_k_min       -9
_diffrn_reflns_limit_l_max       22
_diffrn_reflns_limit_l_min       -22
_diffrn_reflns_number            2920
_diffrn_reflns_point_group_measured_fraction_full 0.953
_diffrn_reflns_point_group_measured_fraction_max 0.963
_diffrn_reflns_theta_full        25.242
_diffrn_reflns_theta_max         27.345
_diffrn_reflns_theta_min         3.782
_exptl_absorpt_coefficient_mu    3.300
_exptl_crystal_colour            COLOURLESS
_exptl_crystal_density_diffrn    2.245
_exptl_crystal_description       BLOCK
_exptl_crystal_F_000             568
_refine_diff_density_max         0.675
_refine_diff_density_min         -1.528
_refine_diff_density_rms         0.124
_refine_ls_extinction_method     none
_refine_ls_goodness_of_fit_ref   1.111
_refine_ls_hydrogen_treatment    constr
_refine_ls_matrix_type           full
_refine_ls_number_parameters     33
_refine_ls_number_reflns         567
_refine_ls_number_restraints     0
_refine_ls_restrained_S_all      1.111
_refine_ls_R_factor_all          0.0544
_refine_ls_R_factor_gt           0.0519
_refine_ls_shift/su_max          0.000
_refine_ls_shift/su_mean         0.000
_refine_ls_structure_factor_coef Fsqd
_refine_ls_weighting_details
'w=1/[\s^2^(Fo^2^)+(0.0426P)^2^+6.5116P] where P=(Fo^2^+2Fc^2^)/3'
_refine_ls_weighting_scheme      calc
_refine_ls_wR_factor_gt          0.1153
_refine_ls_wR_factor_ref         0.1171
_reflns_Friedel_coverage         0.000
_reflns_number_gt                536
_reflns_number_total             567
_reflns_threshold_expression     'I > 2\s(I)'
_cod_data_source_file            ic6b03074_si_002.cif
_cod_data_source_block           new
_cod_depositor_comments
'Adding full bibliography for 4345502--4345505.cif.'
_cod_database_code               4345503
_shelx_shelxl_version_number     2014/7
_shelx_space_group_comment
;
The symmetry employed for this shelxl refinement is uniquely defined
by the following loop, which should always be used as a source of
symmetry information in preference to the above space-group names.
They are only intended as comments.
;
_shelx_res_file
;

    new.res created by SHELXL-2014/7

TITL new in Amma
CELL 0.71073   6.7876   7.3532  17.7177  90.000  90.000  90.000
ZERR    4.00   0.0014   0.0015   0.0035   0.000   0.000   0.000
LATT 5
SYMM 0.5+X, -Y, -Z
SYMM 0.5-X, -Y, Z
SYMM -X, Y, -Z
SFAC C  H  N  Cl Cd
UNIT 20  24  4  12  4
OMIT 8   1   1
L.S. 14
ACTA
BOND $H
FMAP 2
PLAN 20
HTAB N1 Cl2_$1
HTAB C1 Cl2_$1
HTAB N1 Cl2_$1
HTAB C1 Cl2_$1
HTAB N1 Cl2_$1
HTAB C1 Cl2_$1
HTAB N1 Cl2_$1
HTAB C1 Cl2_$1
HTAB N1 Cl2_$1
HTAB C1 Cl2_$1
HTAB N1 Cl2_$1
HTAB C1 Cl2_$1
HTAB N1 Cl2_$1
HTAB C1 Cl2_$1
HTAB N1 Cl2_$1
HTAB C1 Cl2_$1
HTAB N1 Cl2_$2
HTAB C1 Cl2_$2
EQIV $2 x+1, y, z+1
HTAB N1 Cl2_$1
HTAB C1 Cl2_$1
HTAB N1 Cl2_$1
HTAB C1 Cl2_$1
HTAB N1 Cl2_$1
HTAB C1 Cl2_$1
EXYZ C1 N1
EADP C1 N1
CONF
HTAB
EQIV $1 x+1, y, z
HTAB C1 Cl2_$1
HTAB N1 Cl2_$1
HTAB C1 Cl2_$1
HTAB N1 Cl2_$1
HTAB C1 Cl2_$1
HTAB N1 Cl2_$1
HTAB C1 Cl2_$1
HTAB N1 Cl2_$1
HTAB C1 Cl2_$2
HTAB N1 Cl2_$2
HTAB C1 Cl2_$1
HTAB N1 Cl2_$1
HTAB C1 Cl2_$1
HTAB N1 Cl2_$1
HTAB C1 Cl2_$1
HTAB N1 Cl2_$1
HTAB C1 Cl2_$1
HTAB N1 Cl2_$1
HTAB C1 Cl2_$1
HTAB N1 Cl2_$1
HTAB C1 Cl2_$1
HTAB N1 Cl2_$1
TEMP 20
WGHT    0.042600    6.511600
FVAR       0.19854
CD1   5    0.000000    0.500000    0.000000    10.25000    0.01860    0.13815 =
         0.03488    0.00000   -0.00017    0.00000
CL2   4    0.250000    0.500000   -0.114483    10.25000    0.02923    0.12929 =
         0.02746    0.00000    0.00000    0.00000
CL1   4    0.250000    0.258380    0.055102    10.50000    0.03616    0.10953 =
         0.04588    0.00808    0.00000    0.00000
C1    1    0.847345    0.500000    0.751591    10.25000    0.09815    0.18513 =
         0.06341    0.00000   -0.04387    0.00000
N1    3    0.847345    0.500000    0.751591    10.25000    0.09815    0.18513 =
         0.06341    0.00000   -0.04387    0.00000
AFIX   3
H1A   2    0.916504    0.500000    0.794921    10.50000   -1.20000
AFIX   0
C3    1    0.836510    0.500000    0.623165    10.50000    0.12154    0.16649 =
         0.04152    0.00000    0.03335    0.00000
AFIX   3
H3A   2    0.906940    0.500000    0.576176    10.50000   -1.20000
AFIX   0
C2    1    0.937569    0.500000    0.684855    10.50000    0.03467    0.27281 =
         0.13574    0.00000    0.02606    0.00000
AFIX   3
H2A   2    1.078950    0.500000    0.683365    10.50000   -1.20000
AFIX   0
HKLF 4

REM  new in Amma
REM R1 =  0.0519 for     536 Fo > 4sig(Fo)  and  0.0544 for all     567 data
REM     33 parameters refined using      0 restraints

END

WGHT      0.0454      4.5238

REM Instructions for potential hydrogen bonds
HTAB C1 Cl2_$2
HTAB N1 Cl2_$2

REM Highest difference peak  0.675,  deepest hole -1.528,  1-sigma level  0.124
Q1    1   0.2500  0.5000  0.0537  10.25000  0.05    0.67
Q2    1   0.0000  0.7393  0.0000  10.50000  0.05    0.63
Q3    1   0.0000  0.4400  0.0000  10.50000  0.05    0.52
Q4    1   0.7500  0.7060  0.5600  10.50000  0.05    0.51
Q5    1   1.0000  0.5000  0.5000  10.25000  0.05    0.47
Q6    1   0.2500  0.5000 -0.0509  10.25000  0.05    0.42
Q7    1   0.2500  0.6599 -0.0605  10.50000  0.05    0.36
Q8    1   0.2500  0.4314  0.1121  10.50000  0.05    0.35
Q9    1   0.2500  0.0488  0.0587  10.50000  0.05    0.31
Q10   1   0.3169  0.2050  0.0010  11.00000  0.05    0.30
Q11   1   0.1242  0.6488 -0.0110  11.00000  0.05    0.30
Q12   1   0.1879  0.0830  0.0302  11.00000  0.05    0.29
Q13   1   1.2500  0.5000  0.6561  10.25000  0.05    0.29
Q14   1   0.2500  0.2145  0.0624  10.50000  0.05    0.29
Q15   1   1.0550  0.5000  0.7900  10.50000  0.05    0.29
Q16   1   0.9990  0.7311  0.6833  11.00000  0.05    0.29
Q17   1   0.7500  0.5240  0.6420  10.50000  0.05    0.28
Q18   1   0.7500  0.5968  0.6205  10.50000  0.05    0.27
Q19   1   0.2500  0.7318 -0.1045  10.50000  0.05    0.27
Q20   1   0.2236  0.7214 -0.1239  11.00000  0.05    0.27
;
_shelx_res_checksum              5874
_shelx_hkl_file
;
  -1   0   0    0.40    0.07
   1   0   0   -0.01    0.06
   1   0   0    0.05    0.07
  -1   0   0    0.08    0.07
  -2   0   0    2.87    0.23
   2   0   0    2.52    0.14
   2   0   0    2.52    0.61
  -3   0   0    0.15    0.19
   3   0   0   -0.03    0.10
   3   0   0    0.37    0.14
  -5   0   0   -0.01    0.20
   5   0   0   -0.04    0.20
  -6   0   0   14.63    0.63
   7   0   0    0.14    0.12
  -1   0   2   24.69    0.67
   1   0  -2   25.48    0.69
   1   0   2   25.96    0.70
  -1   0  -2   24.18    0.68
  -1   0   2   26.06    0.66
  -2   0   2  139.51    3.48
   2   0  -2  138.28    3.42
  -2   0  -2  128.62    3.27
   2   0  -2  141.46    3.51
  -2   0   2  142.48    3.52
  -3   0  -2   25.57    0.72
  -3   0   2   26.58    0.96
   3   0   2   27.51    0.92
   3   0  -2   27.59    0.82
  -3   0   2   28.43    0.86
  -5   0  -2    0.21    0.07
  -5   0  -2    0.29    0.15
  -5   0   2    0.41    0.29
   5   0   2    0.74    0.46
   5   0  -2    1.19    0.46
   7   0  -2    0.36    0.25
   7   0   2    0.50    0.24
   8   0   2  166.28   22.64
  -3   0   4   66.18    1.89
  -3   0   4   76.37    2.11
  -4   0   4  278.52    7.54
  -5   0   4   82.08    2.25
   5   0  -4   76.20    2.06
  -6   0   4  321.78   13.45
   6   0  -4  285.52   11.94
   6   0   4  395.79   17.18
  -7   0   4   12.44    0.91
   7   0   4   13.94    1.01
   8   0   4   56.73    7.91
   0   0   6  164.93    4.15
   0   0  -6  153.81    3.81
   0   0  -6  169.62    4.21
   3   0   6  459.60    7.82
  -4   0   6  174.11    4.99
  -5   0   6   85.71    4.08
  -6   0   6  312.62    3.64
   6   0   6  292.49   10.19
  -7   0   6   47.03    2.30
   7   0   6   42.96    2.38
   8   0   6   36.63    1.94
   0   0   8  471.65   12.51
   0   0   8  536.00   14.16
   1   0   8   73.57    2.18
  -1   0   8   72.27    2.06
  -1   0   8   80.38    2.23
   1   0   8   70.70    2.06
   1   0  -8   79.16    2.20
   3   0   8   49.13    1.34
  -3   0   8   50.69    1.60
   3   0   8   52.80    1.75
   3   0  -8   48.71    1.32
   4   0  -8  115.54    2.75
  -5   0   8   21.91    1.39
   5   0   8   21.39    1.20
  -6   0   8  297.79    3.38
  -7   0   8    6.49    1.07
   7   0   8    6.59    1.61
   8   0   8   55.66    4.56
   0   0  10  163.05    2.83
   0   0  10  169.71    3.01
   1   0  10  107.90    1.97
  -1   0  10   97.44    1.85
  -1   0  10  108.87    2.02
   1   0  10   94.43    1.90
   2   0  10  830.54    2.65
   3   0  10   45.97    1.17
  -3   0  10   50.78    1.56
   3   0  10   54.62    1.79
   3   0 -10   49.37    1.23
   3   0 -10   51.25    1.27
  -4   0  10  160.61    7.47
   4   0  10  158.69    7.40
  -5   0  10   16.57    1.19
   5   0  10   14.96    1.76
  -7   0  10   11.46    1.74
   7   0  10   10.78    2.14
   0   0  12   71.41    2.14
   0   0  12   73.63    2.15
   1   0  12  159.81    4.21
  -1   0  12  147.99    4.07
  -1   0  12  161.26    4.10
   1   0  12  166.31    4.38
   2   0  12  625.60    3.43
   3   0  12   91.78    4.22
  -3   0  12  103.17    4.92
   3   0  12   85.91    4.20
  -4   0  12   42.56    2.16
   4   0  12   41.51    1.93
  -5   0  12   54.73    3.10
   5   0  12   48.05    2.85
  -7   0  12   13.35    1.09
   7   0  12   11.69    1.66
   0   0  14   82.01    2.21
   0   0  14   83.62    2.57
   1   0  14    7.50    0.75
  -1   0  14    6.68    0.68
  -1   0  14    6.58    0.80
   1   0  14    6.89    0.82
   2   0  14  266.81   12.22
  -2   0  14  266.84   12.24
   2   0  14  274.17   12.87
   2   0 -14  291.88   13.24
   3   0  14   10.10    0.65
  -3   0  14   11.70    0.99
   3   0  14   10.66    1.02
  -4   0  14   83.86    4.54
   4   0  14   83.15    4.57
  -5   0  14    7.95    0.87
   5   0  14    6.73    1.26
  -6   0  14   97.53   13.80
   6   0  14   72.90   10.16
   0   0  16  437.77   18.35
   0   0  16  445.39    5.10
   1   0  16   -0.37    0.38
  -1   0  16    1.00    0.53
  -1   0  16    0.37    0.15
   1   0  16    0.56    0.26
   2   0  16   17.88    0.82
  -2   0  16   18.05    1.93
   2   0  16   20.73    1.05
  -3   0  16    0.58    0.54
   3   0  16    0.09    0.39
  -4   0  16  175.95    2.59
   4   0  16  155.07    8.03
  -5   0  16    0.87    0.47
   5   0  16    0.03    0.21
  -6   0  16   19.45    1.77
   6   0  16   16.10    1.68
   0   0  18  275.07    5.32
   0   0  18  260.40   13.36
   1   0  18    4.52    0.64
  -1   0  18    3.32    0.82
  -1   0  18    2.54    0.82
   1   0  18    3.07    0.66
   2   0  18    1.48    0.45
  -2   0  18    1.97    0.70
   2   0  18    1.43    0.44
  -3   0  18    0.69    0.75
   3   0  18    0.68    0.35
  -4   0  18  208.51    3.69
   4   0  18  173.52   23.99
  -5   0  18    0.17    0.35
   5   0  18    0.39    0.30
   0   0  20   86.39    6.20
   0   0  20   82.00    5.87
   1   0  20    1.73    0.42
  -1   0  20    1.93    0.56
   1   0  20    1.30    0.47
  -2   0  20   29.10    2.04
   2   0  20   24.25    1.47
  -3   0  20    1.70    0.63
   3   0  20    1.48    0.36
  -4   0  20   55.99    5.59
   4   0  20   54.22    5.20
   0   0  22   11.33    1.16
  -1   0  22    7.08    1.10
   1   0  22    9.36    1.08
  -2   0  22   53.54    5.22
   2   0  22   48.32    4.77
   1   1  -1   40.08    1.06
  -1  -1   1   37.93    1.00
   1   1   1   38.31    0.99
  -1  -1  -1   38.40    0.98
  -1   1  -1   37.16    0.97
   1  -1   1   39.51    1.03
  -1   1   1   38.90    1.02
   1  -1  -1   35.63    1.06
  -1  -1   1   39.87    1.01
   1   1   1   37.50    0.99
  -1  -1  -1   37.82    1.01
   1  -1   1   39.60    1.10
  -1   1  -1   37.19    1.00
   1  -1  -1   38.95    1.13
  -1   1   1   38.25    1.06
  -1  -1   1   38.26    1.00
  -3   1  -1   89.22    2.44
  -3   1   1   81.77    2.25
   3  -1   1   86.29    2.33
  -3  -1   1   80.22    2.20
  -3  -1  -1   80.88    2.18
   3   1  -1   89.07    2.45
   3   1   1   85.75    2.38
  -3  -1   1   79.14    2.17
   3  -1   1   87.63    2.55
   3  -1  -1   86.55    2.48
   4  -1   1  733.24    3.71
   4  -1  -1  730.10    3.82
  -5   1  -1   10.41    0.44
  -5   1   1    8.89    0.47
  -5  -1  -1    9.79    0.44
  -5  -1   1   10.08    0.58
   5   1  -1    9.46    0.45
   5   1   1    8.04    0.38
   5  -1   1    8.76    0.95
   5  -1  -1    8.99    0.47
  -6   1   1  124.65    5.28
  -6  -1   1  124.93    5.26
   6   1  -1  125.61    5.48
   6   1   1  121.29    5.23
   6  -1   1  124.63    5.36
   6  -1  -1  131.26    5.65
   7   1  -1    4.75    0.91
   7   1   1    4.51    1.13
   7  -1   1    4.84    1.05
   7  -1  -1    4.80    0.46
   8  -1   1  343.90    6.09
  -1  -1   3   84.45    2.15
   1  -1   3   83.43    2.09
   1   1   3   84.97    2.12
  -1   1   3   80.60    2.10
   1  -1  -3   96.68    2.49
  -1  -1   3   85.06    2.18
   1   1   3   90.92    2.31
  -1  -1  -3   83.11    2.12
   1  -1   3   89.29    2.31
  -1   1  -3   83.74    2.16
  -1  -1   3   87.90    2.18
   1  -1  -3   88.04    2.27
  -1   1   3   87.63    2.26
  -3  -1  -3   12.34    0.39
  -3   1  -3   12.25    0.44
  -3   1   3   12.23    0.53
  -3  -1   3   11.66    0.48
  -3  -1  -3   11.87    0.45
   3   1   3   12.49    0.54
   3  -1   3   12.64    0.55
  -3  -1   3   12.26    0.40
   3  -1  -3   12.47    0.53
  -3   1   3   12.36    0.51
  -4  -1  -3  205.87    5.53
  -4   1   3  266.43    7.24
  -4  -1  -3  257.72    6.90
   4   1   3  229.62    6.41
   4  -1   3  254.88    7.21
  -4  -1   3  240.36    6.48
  -5   1  -3   10.66    0.50
  -5   1   3   10.83    0.58
  -5  -1  -3   10.64    0.36
  -5  -1   3   10.49    0.60
   5  -1   3   10.28    0.32
   5   1  -3   10.48    0.43
   5   1   3   10.90    0.56
   5  -1   3   11.62    1.38
   5  -1  -3   13.30    0.59
  -6   1   3  219.98    9.23
  -6  -1   3  219.44    9.33
   6   1  -3  230.94    9.73
   6   1   3  216.07    9.26
   6  -1  -3  224.66    9.52
   7   1   3    2.40    0.70
   7  -1   3    3.31    0.94
   7  -1  -3    2.88    0.76
   8   1   3   62.52    8.55
   8  -1   3   99.80   13.68
   0  -1   5  404.35    1.33
   1  -1   5   33.79    0.91
   1   1   5   33.01    0.89
  -1   1   5   31.92    0.98
  -1  -1  -5   30.94    0.85
  -1  -1   5   31.29    0.95
   1  -1   5   31.65    0.86
   1  -1  -5   29.35    0.81
   1   1   5   33.80    1.02
  -1  -1   5   30.50    0.83
   1  -1   5   31.96    0.94
   1   1  -5   33.10    0.86
   1  -1  -5   33.24    0.93
   2  -1   5  792.92    2.39
   3  -1   5   19.98    0.39
   3   1   5   18.43    0.69
   3  -1   5   17.55    0.66
   3  -1  -5   19.78    0.69
  -3   1   5   18.08    0.50
  -4   1   5  187.14    5.19
  -4  -1   5  176.96    4.97
   4   1   5  167.54    4.81
   4  -1   5  177.47    5.55
   4  -1  -5  185.28    5.14
  -4  -1   5  183.97    4.96
  -5   1   5    1.77    0.52
  -5  -1   5    1.10    0.26
   5   1   5    1.20    0.47
   5  -1   5    1.65    0.48
   5  -1  -5    1.33    0.34
  -6   1   5  297.67   10.71
  -6  -1   5  306.23    2.54
   6   1   5  305.24   10.93
   6  -1   5  300.44   10.79
   6  -1  -5  316.84    2.04
  -7   1   5    2.11    0.38
  -7  -1   5    1.59    0.56
   7   1   5    1.54    0.39
   7  -1   5    1.98    0.55
   8   1   5   56.06    2.55
   8  -1   5   64.60    3.06
   0   1   7  561.50   14.83
   0  -1   7  536.83   14.17
   1  -1   7    6.65    0.62
   1   1   7    6.49    0.30
  -1   1   7    7.07    0.50
  -1  -1  -7    5.42    0.29
  -1  -1   7    6.30    0.48
   1  -1   7    6.24    0.29
   1  -1  -7    5.99    0.67
   1   1   7    6.56    0.37
   1  -1   7    6.97    0.51
   1   1  -7    6.66    0.49
   1  -1  -7    7.45    0.68
   2   1   7  545.92   14.42
  -2  -1   7  498.10   13.20
   2  -1  -7  483.13   12.75
   2   1   7  565.79   15.23
   3  -1   7   19.89    0.40
  -3   1   7   20.95    0.81
  -3  -1  -7   17.75    0.36
  -3  -1   7   22.56    0.81
   3   1   7   17.98    0.67
   3  -1   7   16.59    0.62
   3  -1  -7   19.60    0.59
  -3   1   7   22.14    0.71
  -4  -1   7  368.65    8.95
   4   1   7  344.35    8.98
   4  -1   7  369.27    9.26
   4  -1  -7  379.25    1.99
  -5   1   7   42.13    2.23
  -5  -1   7   43.17    2.19
   5   1   7   41.77    2.09
   5  -1   7   40.79    2.08
   5  -1  -7   43.64    2.08
  -6   1   7  120.80    6.35
  -6  -1   7  121.34    6.35
   6   1   7  123.67    2.78
   6  -1   7  144.69    2.78
  -7   1   7    5.42    1.36
  -7  -1   7    6.03    0.75
   7   1   7    8.11    1.58
   7  -1   7   19.56    4.28
   8   1   7   80.98    6.03
   8  -1   7   86.62    2.09
   1   1   9    4.32    0.39
  -1   1   9    5.01    0.98
  -1  -1   9    3.87    0.45
   1  -1   9    3.28    0.27
   1   1   9    4.19    1.12
  -1  -1   9    3.43    0.40
   1  -1   9    3.84    0.27
   1   1  -9    3.40    0.32
   1  -1  -9    4.28    0.38
   2   1   9  248.38    4.88
   2  -1   9  248.03    4.32
   2   1  -9  241.79    3.84
   2  -1  -9  245.16    4.04
   3  -1   9    1.20    0.20
  -3   1   9    0.41    0.58
  -3  -1   9    1.02    0.34
  -3  -1  -9    0.77    0.13
   3  -1  -9    0.58    0.18
   3   1   9    1.18    0.39
   3  -1   9    0.61    0.32
   3  -1  -9    0.84    0.25
  -4   1   9  362.27    8.76
  -4  -1   9  368.89    8.91
   4   1   9  376.75    9.64
   4  -1   9  394.46    9.95
  -5   1   9    7.56    0.74
  -5  -1   9    6.92    0.64
   5   1   9    8.76    1.98
   5  -1   9   10.07    0.88
  -6   1   9   63.57    3.35
  -6  -1   9   61.06    3.43
   6   1   9   59.45    3.32
  -7   1   9    0.58    0.36
  -7  -1   9   -0.02    0.39
   7   1   9    0.63    0.47
   7  -1   9    1.92    0.79
   8   1   9   89.67    8.68
   8  -1   9   79.89    7.76
   0   1  11  294.93    8.04
   0  -1  11  325.50    8.83
   0   1  11  306.32    8.46
   0  -1  11  304.83    8.35
   1   1  11   34.44    1.13
  -1   1  11   40.81    1.48
   1  -1  11   37.75    1.24
  -1  -1  11   36.73    1.31
   1   1  11   37.38    1.47
  -1  -1  11   35.56    1.31
   2  -1  11  263.74    6.37
  -2  -1  11  270.60    6.68
  -2  -1  11  291.96    7.05
   2   1  11  269.11    7.34
   2   1 -11  265.96    6.35
   3   1  11   20.87    0.78
  -3   1  11   25.46    1.28
   3  -1  11   19.08    0.61
  -3  -1  11   20.31    1.06
   3   1  11   21.84    0.96
   3  -1 -11   20.86    0.72
  -4   1  11  155.69    5.11
  -4  -1  11  136.23    4.44
   4   1  11  147.37    5.29
  -5   1  11    8.55    0.85
  -5  -1  11    8.65    0.75
   5   1  11    8.53    0.86
   5  -1  11   25.85    5.23
  -6   1  11   99.54    4.79
  -6  -1  11  101.58    5.37
   6   1  11  104.16    5.00
   6  -1  11  130.79    6.30
  -7   1  11    6.73    0.74
  -7  -1  11    5.43    0.63
   7   1  11    7.29    2.15
   7  -1  11    6.07    1.37
   0   1  13  153.30    3.91
   0  -1  13  145.72    3.64
   0   1  13  154.44    4.33
   0  -1  13  140.64    3.63
   1   1  13    0.43    0.47
  -1   1  13    0.70    0.33
   1  -1  13    0.15    0.28
  -1  -1  13    0.61    0.41
   1   1  13    0.25    0.23
  -1  -1  13    0.16    0.16
   1  -1  13    0.43    0.20
   2   1  13  292.53   13.56
  -2   1  13  323.53    3.10
   2  -1  13  283.40   12.92
  -2  -1  13  274.10   12.53
  -2  -1  13  320.39    2.06
   2   1  13  316.89    3.98
   2  -1  13  339.26    4.59
   2  -1 -13  299.78   13.78
   3   1  13    0.49    0.12
  -3   1  13    1.10    0.52
   3  -1  13    0.49    0.17
  -3  -1  13    0.78    0.50
   3   1  13    0.40    0.33
   3  -1  13    0.80    0.30
   3  -1 -13    0.55    0.26
  -4   1  13   64.18    3.55
  -4  -1  13   61.20    2.41
   4   1  13   67.91    2.77
  -5   1  13    0.30    0.46
  -5  -1  13    1.71    0.56
   5   1  13    0.61    0.38
   5  -1  13    0.58    0.45
  -6   1  13  124.54    6.51
  -6  -1  13  136.64   44.66
   6   1  13  133.68   43.73
   6  -1  13  135.18   44.20
  -7   1  13    0.29    0.47
  -7  -1  13    0.72    0.53
   7   1  13    0.27    0.32
   7  -1  13    0.70    0.43
   0   1  15  107.66    3.60
   0  -1  15  100.62    3.31
   0   1  15  105.51    3.71
   0  -1  15  110.77    3.73
   1   1  15    2.76    0.70
  -1   1  15    1.30    0.35
   1  -1  15    2.02    0.61
  -1  -1  15    1.62    0.44
   1   1  15    2.39    0.49
  -1  -1  15    1.93    0.76
   1  -1  15    2.68    0.61
   2   1  15  141.70    6.06
  -2   1  15  144.46    6.53
   2  -1  15  139.81    6.01
  -2  -1  15  134.86    5.76
   2   1  15  146.96    6.86
   2  -1  15  140.07    6.01
   2  -1 -15  144.28    6.20
  -3   1  15   10.75    0.81
  -3  -1  15   10.63    2.27
   3   1  15   11.48    1.05
   3  -1  15   12.03    0.89
  -4   1  15   85.96    4.44
  -4  -1  15   84.01    4.33
   4   1  15   87.00    4.78
   4  -1  15   75.83    4.43
  -5   1  15    8.96    1.06
  -5  -1  15    8.73    1.10
   5   1  15   10.95    1.74
   5  -1  15   10.01    1.98
  -6   1  15   53.82    2.56
  -6  -1  15   54.61    2.87
   6   1  15   44.47    3.10
   6  -1  15   46.71    2.37
   0   1  17  144.30    4.94
   0  -1  17  146.22    5.13
   0   1  17  152.38    5.49
   0  -1  17  150.11    6.14
   1   1  17    5.13    1.29
  -1   1  17    7.41    0.92
   1  -1  17    5.52    1.55
  -1  -1  17    5.86    1.23
   1   1  17    6.86    1.54
  -1  -1  17    5.24    0.67
   1  -1  17    6.11    0.70
   1  -1 -17    4.55    1.48
   2   1  17   34.64    2.06
  -2   1  17   35.18    2.07
   2  -1  17   35.02    1.96
  -2  -1  17   31.89    1.89
   2   1  17   36.95    2.07
   2  -1  17   33.55    1.98
  -3   1  17    0.15    0.64
  -3  -1  17   -0.07    0.58
   3   1  17    0.49    0.26
   3  -1  17    0.38    0.31
  -4   1  17  112.12    8.00
  -4  -1  17  119.58    2.63
   4   1  17  123.66    3.02
   4  -1  17   97.05    7.15
  -5   1  17   -0.22    0.46
  -5  -1  17    0.32    0.47
   5   1  17    0.21    0.40
   5  -1  17    0.20    0.19
   0   1  19   84.75    3.98
   0  -1  19   87.84    4.16
   0   1  19   91.39    4.39
   0  -1  19   90.98    4.31
   1   1  19    4.36    1.05
  -1   1  19    3.05    1.11
   1  -1  19    3.99    0.72
  -1  -1  19    4.16    0.60
   1   1  19    4.67    0.77
   1  -1  19    3.57    1.17
   1  -1 -19    3.71    0.85
  -2   1  19   43.24    3.37
  -2  -1  19   40.17    3.53
   2   1  19   42.17    3.87
   2  -1  19   43.49    4.60
  -3   1  19    2.12    0.95
  -3  -1  19    2.38    0.50
   3   1  19    2.06    0.90
   3  -1  19    2.47    0.92
  -4   1  19   47.97    2.30
  -4  -1  19   49.43    2.52
   4   1  19   48.04    2.53
   4  -1  19   47.57    2.57
   0   1  21   23.21    3.28
   0  -1  21   23.46    3.32
   0   1  21   21.86    3.29
   1   1  21    1.02    0.51
  -1   1  21    1.27    0.61
   1  -1  21    0.84    0.49
  -1  -1  21    1.08    0.63
   1   1  21    0.61    0.29
   1  -1  21    0.87    0.51
  -2   1  21   41.38    2.10
  -2  -1  21   46.83    2.47
   2   1  21   52.50    3.81
   2  -1  21   43.41    2.26
  -3   1  21    0.61    0.66
  -3  -1  21    0.91    0.67
   3   1  21    0.47    0.40
   3  -1  21    0.32    0.26
   1   2   0    0.25    0.22
  -1  -2   0    0.17    0.15
  -1   2   0    0.06    0.14
   1  -2   0    0.32    0.18
   1  -2   0   -0.16    0.42
  -1   2   0    0.30    0.46
  -1  -2   0    0.30    0.18
   1   2   0    0.04    0.20
  -2  -2   0  982.36    3.51
   3   2   0    0.83    0.33
  -3   2   0    0.25    0.15
   3   2   0    0.26    0.18
   3  -2   0    0.88    0.44
  -4   2   0  117.30    3.32
  -4  -2   0  112.79    3.12
   4   2   0  123.37    3.59
   4  -2   0  117.66    3.42
  -5   2   0    0.09    0.15
  -5  -2   0    0.28    0.23
   5   2   0    0.24    0.25
   5  -2   0    0.21    0.32
  -6   2   0  216.77    9.21
  -6  -2   0  208.99    8.76
   6   2   0  226.22    9.78
   6  -2   0  218.70    9.33
   7   2   0    0.00    0.20
   7  -2   0    0.34    0.22
   8  -2   0   38.54    1.99
   0   2  -2   17.93    0.60
   0  -2   2   17.79    0.57
   0   2   2   18.18    0.71
   0  -2  -2   19.70    0.60
   0  -2   2   17.66    0.63
   0   2  -2   19.28    0.65
   0  -2  -2   15.09    0.66
   0   2   2   18.21    0.65
   1  -2   2  565.35    1.64
   1   2  -2  561.37    1.61
   3   2   2  128.83    3.52
  -3   2   2  135.88    3.71
  -3  -2   2  130.49    3.64
   3   2   2  130.01    3.75
  -3  -2   2  133.96    3.65
   3  -2   2  131.43    3.72
   3  -2  -2  134.91    3.70
  -4   2  -2  147.58    4.08
  -4   2   2  160.86    4.51
  -4  -2   2  144.96    4.03
  -4  -2  -2  152.14    4.24
   4   2  -2  150.57    4.19
   4   2   2  150.19    4.36
   4  -2   2  153.34    4.38
   4  -2  -2  146.14    4.06
  -5   2  -2   79.45    2.04
  -5   2   2   86.92    2.34
  -5  -2   2   82.48    2.22
  -5  -2  -2   74.02    1.91
   5   2  -2   82.40    2.15
   5   2   2   84.15    2.24
   5  -2   2   77.81    2.35
   5  -2  -2   81.97    2.35
  -6   2   2  281.05   11.72
  -6  -2   2  258.05   10.72
   6   2  -2  269.15   11.34
   6   2   2  270.69   11.44
   6  -2   2  252.72   10.81
   6  -2  -2  271.28   11.78
   7   2   2   25.22    1.53
   7  -2   2   26.66    1.73
   7  -2  -2   25.25    1.61
   8  -2   2   37.59    1.79
   0   2  -4  171.69    4.38
   0   2   4  187.91    4.68
   0   2  -4  168.60    4.34
   0  -2  -4  177.06    4.48
   1   2  -4  277.86    6.93
   1  -2   4  273.46    6.77
   1   2   4  289.31    7.17
  -1   2   4  301.37    2.11
   1   2   4  301.94    1.89
   1  -2   4  300.76    1.98
   1  -2  -4  298.36    1.51
   2  -2   4 1000.00    5.04
  -3   2  -4  212.18    3.59
  -3  -2  -4  210.97    3.52
   3   2   4  223.19    4.19
   3  -2   4  217.58    4.28
  -4   2  -4  108.39    3.00
  -4  -2  -4  102.19    2.82
  -4   2   4  110.13    3.27
   4  -2   4  102.12    2.78
  -4  -2   4  103.62    2.95
   4   2   4  114.11    3.45
  -4  -2   4  105.02    2.90
   4  -2   4  110.21    3.35
   4  -2  -4  113.83    3.23
  -4  -2   4  111.18    3.08
  -5   2  -4   45.00    2.11
  -5   2   4   47.34    2.36
  -5  -2   4   46.82    2.32
  -5  -2  -4   40.15    1.88
   5   2   4   44.65    2.25
   5  -2   4   41.65    2.24
   5  -2  -4   45.54    2.25
  -6   2   4  262.61    9.03
  -6  -2   4  253.14    8.39
   6   2   4  271.45    9.48
   6  -2   4  251.15    8.75
   6  -2  -4  257.36    9.02
  -7   2   4   25.90    1.36
  -7  -2   4   23.91    1.30
   7   2   4   24.99    1.48
   7  -2   4   22.99    1.59
   8   2   4   30.41    1.59
   8  -2   4   27.13    1.56
   0   2  -6  601.80    2.20
   0   2   6  590.61   15.91
   0  -2   6  609.34    2.59
   0  -2  -6  589.44   15.69
  -1   2  -6    6.70    0.84
  -1   2   6    5.61    0.42
  -1  -2   6    6.59    1.30
   1   2   6    5.48    0.35
   1  -2   6    6.15    0.36
  -1  -2   6    5.74    0.50
   1   2  -6    5.70    0.31
   1  -2  -6    6.78    0.54
  -2   2  -6  378.45   10.09
  -2   2   6  371.82    9.94
  -2  -2   6  386.32   10.31
   2   2   6  391.94   11.12
   2  -2   6  373.79   10.12
   2  -2  -6  363.34    9.71
   2   2  -6  386.49   10.19
  -3   2  -6    7.75    0.27
   3   2   6    8.36    0.28
   3  -2   6    8.59    0.32
  -3  -2  -6    7.75    0.29
  -3   2   6    7.72    0.51
  -3  -2   6    8.04    0.58
   3   2   6    8.29    0.42
   3  -2   6    7.97    1.40
   3  -2  -6    8.18    0.90
  -4   2  -6  337.59    8.14
   4  -2   6  332.48    7.97
  -4   2   6  362.82    8.93
  -4  -2   6  346.57    8.49
   4  -2   6  325.48    8.41
   4  -2  -6  357.33    8.64
  -5   2   6   13.11    0.94
  -5  -2   6   17.61    1.08
   5   2   6   14.24    0.81
   5  -2   6   11.11    0.83
   5  -2  -6   11.62    0.62
  -6   2   6   72.73    3.86
  -6  -2   6   71.35    3.78
   6   2   6   76.14    4.30
   6  -2   6   69.60    3.87
   6  -2  -6   70.11    3.73
  -7   2   6    0.73    0.30
  -7  -2   6    0.95    0.28
   7   2   6    1.56    0.52
   7  -2   6    0.86    0.46
   8   2   6   64.82    4.82
   8  -2   6   65.97    5.18
   1   2   8    1.89    0.50
  -1   2   8    1.48    0.37
  -1  -2   8    1.03    0.35
   1  -2   8    1.85    0.51
   1   2   8    2.82    0.46
  -1  -2   8    1.57    0.43
   1  -2   8    1.06    0.27
   1   2  -8    1.30    0.30
   1  -2  -8    1.48    0.33
   2   2   8    1.03    0.23
  -2   2   8    2.24    0.56
  -2  -2   8    0.90    0.34
   2  -2   8    1.09    0.23
   2   2   8    1.94    0.45
  -2  -2   8    1.58    0.16
   2  -2   8    0.73    0.13
   2  -2  -8    1.34    0.38
   3   2   8    0.31    0.06
   3  -2   8    0.22    0.09
  -3   2   8    0.30    0.46
  -3  -2  -8    0.21    0.08
  -3  -2   8    0.43    0.52
   3  -2   8    0.78    0.25
   3   2   8    0.20    0.20
   3  -2   8    0.44    0.46
   3  -2  -8    0.16    0.22
  -4   2   8  510.86   12.46
  -4  -2   8  516.37   12.43
   4   2   8  532.89    5.35
   4  -2   8  483.20   12.30
   4  -2  -8  518.19   12.31
  -5   2   8    0.90    0.44
  -5  -2   8    0.31    0.34
   5   2   8    0.76    0.46
   5  -2   8    0.20    0.24
   5  -2  -8    0.59    0.32
  -6   2   8   17.87    1.21
  -6  -2   8   17.32    1.24
   6   2   8   18.76    1.44
   6  -2   8   17.36    1.22
  -7   2   8   -0.06    0.33
  -7  -2   8    0.14    0.46
   7   2   8    0.30    0.29
   7  -2   8    0.23    0.23
   8   2   8  138.19   13.06
   8  -2   8  218.01   21.07
   0   2  10  742.49   20.08
   0  -2  10  763.65    2.81
   0  -2  10  760.90   20.63
   1   2  10    4.93    0.95
  -1   2  10    4.31    0.47
  -1  -2  10    5.60    0.56
   1  -2  10    4.88    0.36
   1   2  10    5.61    0.67
  -1  -2  10    4.77    0.50
   1  -2  10    5.06    0.53
   1  -2 -10    5.96    0.92
   2   2  10   28.61    0.94
  -2   2  10   25.86    0.97
  -2  -2  10   26.25    1.04
   2  -2  10   26.25    0.95
   2   2  10   29.28    1.92
  -2  -2  10   23.92    0.67
   2  -2  10   25.40    1.06
   2   2 -10   26.89    0.72
   2  -2 -10   26.98    1.00
   3   2  10    1.55    0.37
  -3   2  10    1.79    0.46
  -3  -2  10    2.82    0.66
   3  -2  10    1.10    0.27
   3   2  10    1.12    0.70
   3  -2  10    1.61    0.40
   3  -2 -10    1.50    0.52
  -4   2  10  493.74  235.25
  -4  -2  10  594.62  283.32
   4   2  10  476.11   15.53
   4  -2  10  498.04  237.31
   4  -2 -10  478.36   14.79
  -5   2  10    0.25    0.42
  -5  -2  10    0.36    0.39
   5   2  10    0.56    0.41
   5  -2  10    0.22    0.29
  -6   2  10   11.61    1.20
  -6  -2  10   10.10    0.95
   6   2  10   10.79    0.91
   6  -2  10   10.63    1.33
  -7   2  10    1.05    0.45
  -7  -2  10    0.54    0.43
   7   2  10    1.29    0.49
   7  -2  10    1.79    0.56
   0   2  12  210.25    5.31
   0  -2  12  208.98    5.21
   0   2  12  214.93    5.85
   0  -2  12  217.15    5.57
   1   2  12    5.43    0.47
  -1   2  12    7.54    1.73
  -1  -2  12    6.74    1.56
   1  -2  12    6.28    0.48
   1   2  12    5.88    0.55
  -1  -2  12    7.81    0.53
   1  -2  12    6.50    1.25
   1  -2 -12    7.08    0.90
   2   2  12  161.82    4.05
  -2   2  12  147.63    3.79
  -2  -2  12  145.98    3.90
   2  -2  12  140.64    3.58
   2   2  12  150.15    4.80
   2  -2  12  145.67    4.23
   2  -2 -12  148.03    4.24
   3   2  12    4.61    0.41
  -3   2  12    5.41    1.44
  -3  -2  12    6.16    0.85
   3  -2  12    5.60    0.60
   3   2  12    6.16    1.40
   3  -2  12    4.79    0.87
   3  -2 -12    5.04    0.50
  -4   2  12  117.23    4.55
  -4  -2  12  124.34    4.36
   4   2  12  116.36    4.16
   4  -2  12  110.54    4.21
   4  -2 -12  113.58    3.92
  -5   2  12    2.01    0.54
  -5  -2  12    3.24    0.78
   5   2  12    2.54    0.61
   5  -2  12    2.46    0.54
  -6   2  12   58.44    3.22
  -6  -2  12   53.63    3.20
   6   2  12   58.58    3.32
   6  -2  12   74.44    4.87
  -7   2  12    2.56    0.82
  -7  -2  12    2.48    1.34
   7   2  12    2.68    0.68
   7  -2  12    3.15    0.94
   0   2  14   30.43    1.64
   0  -2  14   36.78    1.95
   0   2  14   33.55    1.93
   0  -2  14   41.81    2.38
   1   2  14   98.01    3.34
  -1   2  14   85.90    3.02
  -1  -2  14  110.84    3.89
   1  -2  14  103.53    3.46
   1   2  14   92.38    3.28
   1  -2 -14   98.20    3.38
   2   2  14  239.12    7.69
  -2   2  14  211.21    7.40
   2  -2  14  236.72    7.44
  -2  -2  14  245.53    7.86
   2   2  14  231.88    7.78
   2  -2  14  253.70    8.27
   2  -2 -14  244.24    7.77
   3   2  14   54.70    2.05
  -3   2  14   51.90    2.08
   3  -2  14   47.13    1.69
  -3  -2  14   50.34    2.05
   3   2  14   47.76    2.30
   3  -2  14   56.71    2.26
   3  -2 -14   47.05    1.78
  -4   2  14   37.92    2.19
  -4  -2  14   37.58    2.20
   4   2  14   40.19    2.52
   4  -2  14   44.40    2.46
  -5   2  14   19.45    2.36
  -5  -2  14   24.69    2.06
   5   2  14   21.99    1.76
   5  -2  14   37.68    3.38
  -6   2  14   69.42    1.57
  -6  -2  14   66.71    2.98
   6   2  14   71.10    1.61
   0   2  16   84.73    3.17
   0  -2  16   87.49    3.17
   0  -2  16   81.75    3.02
   1   2  16   34.52    1.92
  -1   2  16   36.03    1.67
   1  -2  16   35.18    1.47
  -1  -2  16   37.33    1.67
   1   2  16   35.48    1.68
  -1  -2  16   37.22    1.73
   1  -2  16   42.02    1.74
   1  -2 -16   41.11    1.85
   2   2  16  104.80    5.55
  -2   2  16   97.43    5.20
   2  -2  16   95.88    5.00
  -2  -2  16   99.03    5.35
   2   2  16  103.86    5.60
   2  -2 -16  113.45    6.22
  -3   2  16   28.29    2.00
  -3  -2  16   24.78    1.64
   3   2  16   26.96    1.82
  -4   2  16   25.73    2.04
  -4  -2  16   29.25    2.37
   4   2  16   26.68    2.25
   4  -2  16   35.25    2.95
  -5   2  16   14.34    2.15
  -5  -2  16   13.77    2.09
   5   2  16   14.97    2.25
   5  -2  16   17.54    3.23
  -6   2  16   49.01    4.79
  -6  -2  16   50.16    4.87
   6   2  16   44.63    4.71
   6  -2  16   51.46    4.98
   0   2  18   28.26    1.99
   0  -2  18   31.84    2.04
   0  -2  18   30.73    2.12
   1   2  18    1.60    0.63
  -1   2  18    0.85    0.47
   1  -2  18    1.71    0.45
  -1  -2  18    0.81    0.43
   1   2  18    1.28    0.65
   1  -2  18    1.77    0.38
   1  -2 -18    1.25    0.55
   2   2  18   62.37    2.98
  -2   2  18   60.93    3.11
   2  -2  18   54.05    2.95
  -2  -2  18   61.07    3.03
   2   2  18   61.80    3.03
   2  -2  18   60.17    2.99
  -3   2  18    0.27    0.50
  -3  -2  18   -0.29    0.48
   3   2  18    0.57    0.55
   3  -2  18    0.25    0.27
  -4   2  18   30.99    4.35
  -4  -2  18   30.05    4.24
   4   2  18   30.38    4.43
   4  -2  18   32.99    4.68
  -5   2  18    0.62    0.46
  -5  -2  18    0.49    0.31
   5   2  18    0.42    0.41
   5  -2  18    0.56    0.55
   0   2  20    5.80    2.35
   0  -2  20    4.93    1.87
   0  -2 -20   10.43    1.02
   1   2  20   18.18    1.49
  -1   2  20   18.51    1.34
   1  -2  20   16.73    1.16
  -1  -2  20   15.35    1.12
   1   2  20   18.12    1.57
   1  -2  20   16.99    1.87
  -2   2  20   63.71    8.71
  -2  -2  20   66.64    9.16
   2   2  20   67.60    9.24
   2  -2  20   66.13    9.06
  -3   2  20   10.72    3.33
  -3  -2  20   14.84    1.49
   3   2  20   13.98    1.86
   3  -2  20   11.34    2.29
   0   2  22    1.70    0.66
   0  -2  22    2.56    0.52
   0  -2 -22    2.06    0.67
  -1   2  22    1.21    0.57
  -1  -2  22    0.62    0.55
   1   2  22    1.45    0.81
   0   3  -1  331.48    9.06
   0  -3   1  336.68    9.04
   0  -3  -1  339.88    9.31
   1   3  -1    0.46    0.17
   1   3   1    0.12    0.19
  -1   3  -1    0.83    0.41
  -1   3   1    0.37    0.21
   1  -3   1    0.95    0.40
   1  -3  -1    0.42    0.34
  -1  -3   1    0.94    0.30
  -1  -3  -1    1.15    0.36
   2   3  -1  226.16    6.20
   2   3   1  224.85    6.25
  -2   3  -1  215.41    6.16
   2  -3   1  232.25    6.35
   2  -3  -1  250.23    6.96
  -2  -3   1  242.43    6.75
   3   3  -1   32.59    1.10
   3   3   1   32.68    0.87
  -3   3  -1   33.21    0.84
  -3   3   1   33.03    0.89
   3  -3   1   32.51    0.89
   3  -3  -1   33.24    1.00
  -3  -3   1   33.83    0.87
   4   3   1  241.31    6.05
  -4   3  -1  254.05    6.57
  -4   3   1  242.55    6.62
  -4  -3   1  242.26    5.92
   4   3   1  249.64    6.33
   4  -3   1  234.72    5.87
   4  -3  -1  252.90    6.39
  -4  -3   1  253.07    6.40
  -5   3  -1    5.83    0.70
  -5   3   1    6.63    1.27
  -5  -3   1    7.37    0.61
  -5  -3  -1    5.87    0.54
   5   3   1    6.18    1.00
   5  -3   1    5.99    1.73
   5  -3  -1    7.45    0.68
  -6   3   1   68.21    3.65
  -6  -3   1   68.59    3.65
   6   3  -1   69.41    3.68
   6   3   1   74.26    3.98
   6  -3   1   70.11    3.79
   6  -3  -1   67.21    3.77
   7   3   1    2.76    0.66
   7  -3   1    3.42    0.83
   7  -3  -1    3.80    0.62
   8  -3   1   47.59    3.65
   8  -3  -1   46.29    3.51
   0   3  -3  331.97    8.96
   0   3   3  375.56   10.11
   0  -3  -3  298.61    8.07
   1   3  -3   54.08    1.64
   1   3   3   58.63    1.71
  -1   3   3   52.15    1.61
   1  -3   3   50.51    1.54
  -1  -3   3   52.08    1.55
   1  -3  -3   53.28    1.65
  -1  -3  -3   52.91    1.69
   2   3   3  345.81    9.17
  -2  -3   3  371.42   10.02
   3   3   3   19.19    0.72
  -3   3  -3   21.78    0.81
  -3   3   3   18.74    0.83
   3   3   3   17.37    0.73
   3  -3   3   17.50    0.90
   3  -3  -3   17.82    0.93
  -3  -3   3   17.71    0.67
   4   3   3  100.54    2.65
  -4   3  -3  100.07    2.68
  -4   3   3  103.44    2.78
  -4  -3   3  111.07    2.95
   4   3   3   99.96    2.95
   4  -3   3  101.50    2.99
   4  -3  -3   96.59    2.59
  -4  -3   3  100.17    2.84
  -5   3  -3   11.77    0.63
  -5   3   3   12.55    0.68
  -5  -3   3   13.05    0.77
  -5  -3  -3   11.94    0.84
   5   3   3   10.50    1.94
   5  -3   3   11.19    0.90
   5  -3  -3   11.15    0.61
  -5  -3   3   13.97    0.71
  -6   3   3  111.23    5.88
  -6  -3   3  116.52    6.08
   6   3   3  107.48    5.67
   6  -3   3  110.18    5.97
   6  -3  -3  109.16    5.98
   7   3   3    3.70    0.97
   7  -3   3    4.30    1.14
   7  -3  -3    3.69    0.91
   8  -3   3   22.73    1.86
   0   3  -5  195.62    5.43
   0  -3   5  204.94    5.65
   0  -3  -5  196.78    5.58
   1   3  -5    1.61    0.41
  -1   3  -5    1.01    0.34
   1   3   5    1.14    0.50
  -1   3   5    1.43    0.30
   1  -3   5    1.08    0.36
  -1  -3   5    0.69    0.28
   1  -3  -5    1.51    0.42
  -1  -3  -5    2.00    0.43
   2   3  -5  291.05    5.66
  -2   3  -5  306.27    5.27
   2   3   5  326.76    5.37
  -2   3   5  317.58    5.87
   2   3   5  287.08    5.30
   2  -3   5  287.08    5.09
   2  -3  -5  298.61    5.09
   2   3  -5  301.54    4.95
   3   3   5    1.11    0.33
  -3   3   5    1.06    0.53
  -3  -3   5    1.27    0.33
   3   3   5    1.07    0.29
  -3  -3   5    1.03    0.22
   3  -3   5    1.50    0.46
   3  -3  -5    1.46    0.52
  -3  -3   5    1.03    0.26
   4   3   5   86.17    2.28
  -4   3  -5   82.20    2.15
  -4   3   5   91.23    2.62
  -4  -3   5   80.76    2.26
   4   3   5   79.56    2.20
   4  -3   5   83.38    2.49
   4  -3  -5   84.09    2.28
  -4  -3   5   80.91    2.12
  -5   3   5    0.22    0.18
  -5  -3   5   -0.21    0.34
  -5  -3  -5    0.22    0.15
   5   3   5    0.58    0.23
   5  -3   5    0.28    0.29
   5  -3  -5   -0.25    0.37
  -6   3   5  128.89    6.67
  -6  -3   5  132.10    6.61
   6   3   5  124.83    6.36
   6  -3   5  121.49    6.23
   6  -3  -5  120.06    6.34
  -7   3   5    1.36    0.45
  -7  -3   5    0.55    0.38
   7   3   5    0.13    0.33
   7  -3   5    0.99    0.53
   8   3   5   24.86    2.44
   8  -3   5   22.61    2.81
   0   3   7  279.70    5.49
   0  -3   7  301.68    5.03
   0  -3  -7  282.42    5.01
  -1   3  -7    1.73    0.37
   1   3   7    1.32    0.28
  -1   3   7    1.21    0.32
   1  -3   7    1.70    0.52
  -1  -3   7    1.46    0.28
   1  -3  -7    2.08    0.55
  -1  -3  -7    1.13    0.26
  -2   3  -7  153.20    4.33
   2   3   7  148.99    4.17
  -2   3   7  158.33    4.81
  -2  -3   7  158.55    4.47
   2   3   7  153.95    4.37
   2  -3   7  158.68    4.70
  -2  -3   7  157.80    4.30
   2  -3  -7  144.26    4.09
   2   3  -7  146.52    4.00
  -3   3  -7    8.10    0.86
   3   3   7    7.28    0.42
  -3   3   7    7.11    1.82
  -3  -3   7    7.36    0.67
   3   3   7    7.36    0.62
  -3  -3   7    6.59    0.48
   3  -3   7    7.17    1.91
  -3  -3   7    6.62    0.33
   3  -3  -7    7.41    0.63
  -4   3  -7  186.75    8.57
   4   3   7  193.92    8.96
  -4   3   7  199.25    9.24
  -4  -3   7  184.19    8.53
   4   3   7  182.99    8.82
   4  -3   7  188.13    9.05
   4  -3  -7  189.84    8.72
  -5   3   7   14.53    1.25
  -5  -3   7   14.46    0.95
   5   3   7   12.01    0.81
   5  -3   7   13.38    1.58
   5  -3  -7   13.34    0.79
  -6   3   7   44.33    3.02
  -6  -3   7   50.92    3.12
   6   3   7   42.40    2.68
   6  -3   7   38.71    2.79
   6  -3  -7   41.86    2.45
  -7   3   7    2.00    0.46
  -7  -3   7    1.74    0.43
   7   3   7    1.49    0.60
   7  -3   7    2.42    0.90
   0   3   9  325.73    9.34
   0  -3   9  344.40    9.42
   0  -3   9  345.83    9.78
   0  -3  -9  395.66   10.88
   1   3   9    2.52    0.65
  -1   3   9    2.71    0.62
  -1  -3   9    2.32    0.52
   1  -3   9    2.48    0.58
  -1  -3   9    2.88    0.85
   1  -3  -9    3.82    0.92
  -2   3  -9   63.70    1.89
   2   3   9   67.33    1.87
  -2   3   9   63.18    1.86
  -2  -3   9   59.38    1.81
   2   3   9   64.21    1.94
   2  -3   9   70.92    2.06
  -2  -3   9   68.53    1.83
   2  -3  -9   62.61    2.17
   2   3  -9   61.36    1.59
  -3   3  -9    0.35    0.21
   3   3   9    0.15    0.18
  -3   3   9    0.58    0.27
  -3  -3   9    0.55    0.40
   3   3   9    0.57    0.32
  -3  -3   9    0.16    0.05
   3  -3  -9    0.86    0.59
   4   3   9  199.61    6.27
  -4   3   9  212.16    6.94
  -4  -3   9  198.78    6.82
   4   3   9  204.83    6.57
   4  -3   9  205.96    6.84
   4  -3  -9  195.22    6.28
  -5   3   9    2.42    0.73
  -5  -3   9    2.28    0.60
   5   3   9    1.86    0.80
   5  -3   9    2.35    0.76
   5  -3  -9    1.50    0.26
  -6   3   9   19.77    1.71
  -6  -3   9   22.64    1.56
   6   3   9   18.43    1.33
   6  -3   9   20.14    1.41
  -7   3   9   -0.27    0.42
  -7  -3   9    0.47    0.39
   7   3   9    0.36    0.46
   7  -3   9    0.53    0.36
   0   3  11  142.38    3.67
   0  -3  11  141.52    3.68
   0  -3  11  140.87    3.73
   0  -3 -11  142.61    3.86
   1   3  11    5.82    0.75
  -1   3  11    7.14    1.46
  -1  -3  11    5.77    0.60
   1  -3  11    6.50    0.89
  -1  -3  11    6.47    1.17
   1  -3  11    7.07    0.69
   1  -3 -11    7.00    0.55
   2   3  11  102.46    2.69
  -2   3  11  110.03    2.96
  -2  -3  11  103.56    2.91
   2  -3  11  108.40    3.72
   2   3  11  105.49    2.82
  -2  -3  11  101.57    2.65
   2  -3  11  109.06    3.02
   2  -3 -11  105.62    2.97
   3   3  11    3.48    0.62
  -3   3  11    3.21    0.85
  -3  -3  11    3.60    0.57
   3  -3  11    3.74    0.94
   3   3  11    3.76    0.83
   3  -3  11    3.72    0.62
   3  -3 -11    3.27    0.60
  -4   3  11   68.92    2.83
  -4  -3  11   67.26    2.69
   4   3  11   64.31    3.10
   4  -3  11   70.00    2.73
   4  -3 -11   65.03    2.37
  -5   3  11    1.47    0.44
  -5  -3  11    2.30    0.56
   5   3  11    2.12    0.76
   5  -3  11    2.57    0.47
  -6   3  11   39.29    2.51
  -6  -3  11   40.01    2.27
   6   3  11   39.25    2.54
   6  -3  11   37.68    2.15
  -7   3  11    1.12    0.58
  -7  -3  11    1.91    0.53
   7   3  11    1.20    0.57
   7  -3  11    1.68    0.59
   0   3  13   54.75    3.44
   0  -3  13   54.64    2.77
   0  -3  13   54.45    2.69
   0  -3 -13   55.33    2.82
   1   3  13    1.49    0.41
  -1   3  13    1.49    0.79
  -1  -3  13    0.87    0.37
   1  -3  13    1.31    0.35
  -1  -3  13    1.12    0.23
   1  -3  13    1.53    0.31
   1  -3 -13    1.56    0.45
   2   3  13  131.04    4.31
  -2   3  13  135.63    4.64
  -2  -3  13  129.54    4.33
   2  -3  13  130.72    4.26
   2   3  13  137.70    4.61
   2  -3  13  142.22    4.90
   2  -3 -13  131.13    4.59
   3   3  13    0.41    0.22
  -3   3  13    0.22    0.61
  -3  -3  13    0.58    0.46
   3  -3  13    0.50    0.25
   3   3  13    0.54    0.32
   3  -3  13    0.48    0.26
  -4   3  13   25.87    1.91
  -4  -3  13   28.05    1.93
   4   3  13   23.67    1.49
   4  -3  13   24.82    1.60
   4  -3 -13   22.72    1.32
  -5   3  13   -0.25    0.57
  -5  -3  13    1.22    0.67
   5   3  13    0.18    0.38
   5  -3  13    0.59    0.49
  -6   3  13   64.37    3.14
  -6  -3  13   61.40    2.83
   6   3  13   62.11    2.97
   6  -3  13   59.92    4.43
   0   3  15   33.14    1.79
   0  -3  15   31.92    1.38
   0  -3  15   34.67    1.79
   0  -3 -15   33.95    1.51
   1   3  15    2.30    0.42
  -1   3  15    3.63    1.06
  -1  -3  15    3.09    0.60
   1  -3  15    3.23    0.47
  -1  -3  15    2.60    0.73
   1  -3  15    2.74    0.54
   1  -3 -15    2.59    0.48
   2   3  15   79.39    4.22
  -2   3  15   77.39    4.42
  -2  -3  15   79.88    4.34
   2  -3  15   73.10    4.00
   2   3  15   77.82    4.24
   2  -3  15   77.88    4.22
   2  -3 -15   81.43    4.39
  -3   3  15    8.20    2.04
  -3  -3  15    8.96    1.02
   3   3  15    7.18    2.04
   3  -3  15    8.36    1.56
   3  -3 -15    7.06    1.25
  -4   3  15   29.91    1.83
  -4  -3  15   32.49    1.92
   4   3  15   29.80    1.69
   4  -3  15   28.38    1.87
  -5   3  15    5.62    1.88
  -5  -3  15    5.94    1.02
   5   3  15    4.77    1.76
   5  -3  15    5.24    1.21
  -6   3  15   28.50    2.85
  -6  -3  15   27.52    2.75
   6   3  15   26.56    2.82
   6  -3  15   36.41    3.90
   0   3  17   57.04    3.40
   0  -3  17   66.93    4.05
   0  -3  17   65.66    3.85
   0  -3 -17   59.90    3.75
   1   3  17    1.54    0.48
  -1   3  17    2.75    0.65
  -1  -3  17    1.84    0.56
   1  -3  17    1.42    0.38
   1  -3  17    3.99    1.27
   1  -3 -17    1.67    0.51
   2   3  17   21.13    1.29
  -2   3  17   22.85    1.44
  -2  -3  17   25.28    1.57
   2  -3  17   25.47    1.41
   2   3  17   21.65    1.27
   2  -3  17   28.26    2.09
   2  -3 -17   24.82    1.43
  -3   3  17    0.31    0.35
  -3  -3  17    1.06    0.70
   3   3  17    0.58    0.53
   3  -3  17    0.44    0.44
  -4   3  17   40.57    5.76
  -4  -3  17   43.06    6.01
   4   3  17   38.00    5.33
   4  -3  17   75.07   10.41
  -5   3  17    0.78    0.62
  -5  -3  17    0.11    0.53
   5   3  17    0.04    0.41
   5  -3  17    2.18    1.18
   0   3  19   33.21    2.11
   0  -3  19   34.08    2.00
   0  -3 -19   38.18    2.32
   1   3  19    4.57    1.09
  -1   3  19    3.06    1.14
   1  -3  19    4.51    0.62
  -1  -3  19    3.51    0.73
   1  -3  19    3.17    0.67
   1  -3 -19    2.36    1.70
  -1  -3 -19    3.03    1.15
  -2   3  19   21.14    3.12
  -2  -3  19   20.55    3.06
   2   3  19   21.72    3.26
   2  -3  19   21.60    3.15
  -3   3  19    2.32    0.84
  -3  -3  19    3.75    0.79
   3   3  19    2.57    0.81
   3  -3  19    2.06    1.00
  -4   3  19   16.41    2.06
  -4  -3  19   18.20    2.06
   4   3  19   17.31    2.17
   4  -3  19   21.97    2.74
   0   3  21   10.63    1.09
   0  -3  21    9.05    0.99
   0  -3 -21    8.55    2.50
   1   3  21    1.01    0.63
  -1   3  21    1.96    0.59
   1  -3  21    1.28    0.37
  -1  -3  21    1.18    0.68
  -1  -3 -21    2.32    0.85
  -2   3  21   18.95    2.03
  -2  -3  21   20.64    2.20
   2  -3  21   18.18    2.33
   0  -4   0  872.14    4.79
   1   4   0   -0.02    0.28
  -1   4   0    1.74    0.52
   1  -4   0   -0.59    0.52
   2   4   0    0.39    0.27
  -2   4   0    0.37    0.24
   2  -4   0    1.61    0.71
  -2  -4   0    0.40    0.50
   3   4   0   -0.01    0.30
  -3   4   0    0.16    0.22
   3  -4   0    0.30    0.56
  -3  -4   0    0.46    0.54
   4   4   0  259.61   12.18
  -4   4   0  334.32    5.45
   4  -4   0  276.39   12.74
  -4  -4   0  266.13   12.40
  -5   4   0    0.05    0.32
  -5  -4   0    0.96    0.36
   5  -4   0    0.13    0.40
  -5  -4   0    0.52    0.45
  -6   4   0    3.50    0.89
  -6  -4   0    1.67    0.29
   6  -4   0    2.04    0.50
  -6  -4   0    2.87    0.84
   7  -4   0    0.13    0.22
   0   4  -2  313.48    7.12
   0  -4  -2  296.22    5.58
   1   4  -2    0.26    0.14
  -1   4  -2   -0.03    0.33
   1   4   2   -0.03    0.23
  -1   4   2    0.29    0.26
   1  -4   2   -0.10    0.48
   1  -4  -2    0.07    0.50
  -1  -4   2    2.33    0.49
  -1  -4  -2    0.23    0.41
   2   4  -2   25.84    1.00
   2   4   2   23.70    0.88
  -2   4  -2   27.29    1.06
  -2   4   2   24.63    1.02
   2  -4   2   26.78    1.25
   2  -4  -2   25.46    1.23
  -2  -4   2   25.44    1.11
  -2  -4  -2   23.83    1.41
   3   4  -2    4.60    1.12
   3   4   2    3.90    0.78
  -3   4  -2    3.72    0.74
  -3   4   2    3.05    0.87
   3  -4   2    4.28    0.67
   3  -4  -2    3.32    0.67
  -3  -4   2    3.56    0.47
  -3  -4  -2    4.00    0.75
   4   4   2  182.86    8.77
  -4   4  -2  207.86    9.93
  -4   4   2  189.16    8.90
   4  -4   2  189.30    8.81
   4  -4  -2  197.45    9.27
  -4  -4   2  207.38    9.75
  -4  -4  -2  187.12    8.82
  -5   4  -2    0.90    0.40
  -5   4   2   -0.07    0.30
  -5  -4   2    0.36    0.32
   5  -4   2    0.66    0.32
   5  -4  -2    0.03    0.41
  -5  -4   2    0.31    0.14
  -5  -4  -2    0.40    0.36
  -6   4   2   11.37    1.24
  -6  -4   2   11.76    0.91
   6  -4   2   10.83    0.95
   6  -4  -2   13.46    1.00
   7  -4   2    0.76    0.67
   7  -4  -2    0.32    0.33
   0   4  -4   94.72    2.32
   0   4   4   95.65    2.22
   0  -4   4   90.39    1.94
  -1   4  -4   41.63    1.63
  -1   4   4   42.08    1.01
   1  -4   4   41.45    1.12
  -1  -4   4   44.15    1.29
   1  -4  -4   42.13    1.23
  -1  -4  -4   47.95    1.46
   2   4  -4  159.07    4.78
  -2   4  -4  166.28    4.83
   2   4   4  160.61    4.60
  -2   4   4  168.16    5.16
   2  -4   4  159.92    4.71
   2  -4  -4  162.95    4.81
  -2  -4   4  170.26    4.86
  -2  -4  -4  158.35    4.95
   3   4  -4   21.03    1.35
   3   4   4   23.53    0.93
  -3   4  -4   19.83    0.81
  -3   4   4   22.49    2.09
   3  -4   4   19.77    1.10
   3  -4  -4   18.38    0.96
  -3  -4   4   19.78    0.85
  -3  -4  -4   20.24    1.27
   4   4   4   50.50    2.51
  -4   4  -4   48.01    2.39
  -4   4   4   49.14    2.53
  -4  -4   4   49.73    2.56
   4  -4   4   48.81    2.49
   4  -4  -4   53.40    2.79
  -4  -4   4   47.40    2.34
   5   4   4   14.93    0.80
  -5   4  -4   14.43    0.79
  -5   4   4   15.86    0.87
  -5  -4   4   17.96    1.05
   5   4   4   15.41    0.96
   5  -4   4   16.06    1.02
   5  -4  -4   16.24    0.93
  -6   4   4   52.20    3.20
  -6  -4   4   54.39    3.25
   6   4   4   51.14    3.18
   6  -4   4   54.67    3.28
   6  -4  -4   53.61    3.13
  -7   4   4    3.41    0.91
   7   4   4    2.29    1.02
   7  -4   4    3.52    0.97
   7  -4  -4    2.61    0.83
   0   4  -6   24.40    1.05
   0   4   6   25.28    1.00
   0  -4   6   24.05    1.07
   0  -4  -6   26.81    1.17
   1   4  -6  106.09    3.09
  -1   4  -6  112.67    3.39
   1   4   6  102.94    3.25
  -1   4   6  103.07    3.46
   1  -4   6  106.78    3.16
  -1  -4   6  112.10    3.27
   1  -4  -6  102.98    3.42
  -1  -4  -6  104.50    3.28
   2   4  -6  216.97    6.09
  -2   4  -6  252.64    6.72
   2   4   6  243.16    6.35
  -2   4   6  239.75    6.70
   2  -4   6  231.66    6.33
  -2  -4   6  228.13    5.63
   2  -4  -6  216.11    5.55
  -2  -4  -6  217.67    5.99
  -3   4  -6   57.42    1.74
   3   4   6   57.79    1.69
  -3   4   6   59.78    1.89
  -3  -4   6   58.66    1.79
   3  -4   6   58.45    1.88
  -3  -4   6   58.52    1.84
   3  -4  -6   58.95    2.03
  -3  -4  -6   61.87    3.80
   4   4   6   26.45    1.08
  -4   4  -6   25.33    1.01
  -4   4   6   27.56    1.30
  -4  -4   6   28.48    1.33
   4   4   6   25.89    1.17
   4  -4   6   26.74    1.58
   4  -4  -6   25.99    1.13
  -4  -4   6   27.48    1.06
  -5   4   6   22.15    1.43
  -5  -4   6   22.48    1.54
   5   4   6   21.51    1.96
   5  -4   6   21.57    1.43
   5  -4  -6   21.39    1.29
  -6   4   6   61.26    3.01
  -6  -4   6   58.88    2.88
   6   4   6   53.81    3.13
   6  -4   6   56.57    3.10
   6  -4  -6   57.55    2.84
  -7   4   6   11.71    1.07
  -7  -4   6   14.08    1.10
   7   4   6    8.51    2.10
   7  -4   6    9.42    2.22
   0   4  -8   65.86    2.16
   0   4   8   65.63    2.44
   0  -4   8   70.63    2.12
   0  -4  -8   65.91    2.02
   1   4  -8   17.06    2.15
  -1   4  -8   13.57    0.74
   1   4   8   13.11    0.82
  -1   4   8   13.31    0.78
   1  -4   8   12.47    0.76
  -1  -4   8   14.36    0.62
   1  -4  -8   14.05    1.00
  -1  -4  -8   14.32    0.90
  -2   4  -8  116.21    3.16
   2   4   8  103.93    2.86
  -2   4   8  115.89    3.49
  -2  -4   8  119.14    3.35
   2  -4   8  119.22    3.39
  -2  -4   8  119.30    3.00
   2  -4  -8  110.35    3.09
  -2  -4  -8  106.78    3.16
  -3   4  -8    9.70    0.62
   3   4   8   10.80    0.85
  -3   4   8   10.14    0.89
  -3  -4   8   10.47    0.90
   3  -4   8   10.90    1.09
  -3  -4   8   10.31    0.64
   3  -4  -8   10.55    1.77
  -4   4  -8   17.21    0.90
   4   4   8   18.41    0.94
  -4   4   8   17.22    1.11
  -4  -4   8   16.54    1.12
   4   4   8   18.26    1.18
   4  -4   8   22.86    1.27
   4  -4  -8   16.44    1.01
  -5   4   8    6.44    1.41
  -5  -4   8    4.41    0.66
   5   4   8    4.04    0.89
   5  -4   8    5.70    1.33
   5  -4  -8    4.49    0.55
  -6   4   8   46.85    3.60
  -6  -4   8   46.97    3.49
   6   4   8   48.42    3.60
   6  -4   8   41.37    3.31
   6  -4  -8   45.84    3.37
  -7   4   8    2.57    0.80
  -7  -4   8    3.08    0.76
   7   4   8    1.20    0.93
   7  -4   8    2.18    0.63
   0   4  10   17.52    0.90
   0  -4  10   17.95    0.90
   0  -4  10   18.58    0.85
   0  -4 -10   16.66    0.94
  -1   4 -10   16.71    0.95
   1   4  10   16.57    0.77
  -1   4  10   16.81    0.80
  -1  -4  10   18.25    0.92
   1  -4  10   17.47    0.99
  -1  -4  10   18.80    1.45
   1  -4 -10   18.30    1.21
  -1  -4 -10   17.81    0.97
  -2   4 -10  125.28    5.97
   2   4  10  152.23    7.43
  -2   4  10  124.08    6.00
  -2  -4  10  119.25    6.15
   2  -4  10  127.02    6.05
  -2  -4  10  127.27    5.92
   2  -4 -10  128.57    6.27
  -2  -4 -10  116.93    5.59
  -3   4 -10    9.57    1.08
   3   4  10    7.99    0.58
  -3   4  10    8.79    1.90
  -3  -4  10    7.91    0.71
   3   4  10    8.36    0.74
   3  -4  10    8.90    0.83
   3  -4 -10    8.09    0.73
   4   4  10   19.27    1.15
  -4   4  10   20.19    2.55
  -4  -4  10   20.64    1.55
   4   4  10   20.10    1.69
   4  -4  10   21.11    2.56
   4  -4 -10   19.68    1.37
  -5   4  10    3.41    0.51
  -5  -4  10    5.22    0.74
   5   4  10    3.94    0.97
   5  -4  10    3.40    0.85
   5  -4 -10    4.20    0.55
  -6   4  10   43.12    6.42
  -6  -4  10   38.50    5.45
   6   4  10   36.27    5.12
   6  -4  10   36.40    5.28
   0   4  12    8.42    1.77
   0  -4  12    8.69    1.89
   0  -4  12    8.26    1.02
   0  -4 -12    7.75    0.82
   1   4  12   32.13    1.34
  -1   4  12   29.88    1.73
  -1  -4  12   32.13    1.43
   1  -4  12   34.46    1.44
  -1  -4  12   33.10    1.46
   1  -4  12   34.06    1.67
   1  -4 -12   33.97    1.71
  -1  -4 -12   31.44    2.37
   2   4  12  103.50    4.63
  -2   4  12  109.77    5.10
  -2  -4  12  107.16    4.78
   2  -4  12  111.70    4.84
   2  -4  12  113.28    4.98
   2  -4 -12  109.09    4.77
  -2  -4 -12  112.59    5.12
   3   4  12   22.48    1.44
  -3   4  12   23.46    1.88
  -3  -4  12   22.25    1.39
   3  -4  12   23.76    1.41
   3   4  12   22.01    1.52
   3  -4  12   20.94    1.58
   3  -4 -12   23.22    1.53
  -4   4  12    5.83    1.49
  -4  -4  12    5.78    1.25
   4   4  12    6.05    1.75
   4  -4  12    5.74    1.28
   4  -4 -12    5.23    0.60
  -5   4  12   10.04    2.69
  -5  -4  12   10.37    1.21
   5   4  12   10.97    2.28
   5  -4  12   11.33    2.43
  -6   4  12   42.15    4.14
  -6  -4  12   48.10    3.77
   6   4  12   37.40    2.99
   6  -4  12   36.34    3.03
   0   4  14   14.51    0.83
   0  -4  14   14.13    0.94
   0  -4  14   15.31    0.79
   0  -4 -14   15.37    0.98
   1   4  14    3.36    0.82
  -1   4  14    3.74    0.89
  -1  -4  14    3.06    0.55
   1  -4  14    3.14    0.48
  -1  -4  14    2.44    0.67
   1  -4  14    3.24    0.64
   1  -4 -14    3.82    0.95
  -1  -4 -14    2.83    0.76
   2   4  14   46.72    2.58
  -2   4  14   48.16    2.73
  -2  -4  14   44.78    2.59
   2  -4  14   47.41    2.57
   2  -4  14   47.95    3.15
   2  -4 -14   49.84    2.85
  -2  -4 -14   49.33    3.16
   3   4  14    3.40    0.70
  -3   4  14    4.03    1.00
  -3  -4  14    2.89    0.68
   3  -4  14    3.45    0.41
   3   4  14    2.95    1.75
   3  -4  14    4.03    0.93
   3  -4 -14    3.57    0.66
  -4   4  14   16.19    1.69
  -4  -4  14   14.32    1.37
   4   4  14   14.71    2.11
   4  -4  14   17.43    2.07
  -5   4  14    4.93    1.22
  -5  -4  14    4.00    0.79
   5   4  14    2.89    0.80
   5  -4  14    2.16    0.68
   0   4  16   77.35    1.65
   0  -4  16   77.64    1.96
   0  -4  16   72.73    4.19
   0  -4 -16   78.20    1.85
   1   4  16    0.19    0.36
  -1   4  16    0.21    0.28
  -1  -4  16    0.25    0.39
   1  -4  16    0.99    0.59
   1  -4  16    0.43    0.31
   1  -4 -16    0.55    0.63
  -1  -4 -16    0.30    0.35
   2   4  16    2.63    0.66
  -2   4  16    3.03    0.70
  -2  -4  16    3.21    0.65
   2  -4  16    3.03    0.48
   2  -4  16    2.76    0.71
   2  -4 -16    2.44    0.87
  -2  -4 -16    3.42    0.88
  -3   4  16    0.67    0.39
  -3  -4  16    0.48    0.68
   3   4  16   -0.02    0.43
   3  -4  16    0.56    0.27
   3  -4 -16    0.47    0.38
  -4   4  16   31.68    2.81
  -4  -4  16   42.27    2.30
   4   4  16   30.34    2.16
   4  -4  16   33.13    2.77
  -5   4  16    0.23    0.45
  -5  -4  16    0.62    0.64
   5   4  16    0.86    0.67
   5  -4  16    0.57    0.41
   0   4  18   56.03    3.03
   0  -4  18   56.34    3.09
   0  -4 -18   57.73    3.31
   1   4  18    1.31    0.71
  -1   4  18    1.44    0.73
  -1  -4  18    1.66    0.64
   1  -4  18    0.66    0.40
   1  -4  18    1.95    0.61
   1  -4 -18    1.27    0.58
  -1  -4 -18    0.62    0.31
  -2   4  18    0.81    0.46
  -2  -4  18    0.74    0.89
   2  -4  18    0.37    0.34
   2  -4  18    0.81    0.43
   2  -4 -18   -0.04    0.36
  -2  -4 -18    0.47    0.47
  -3   4  18    0.78    0.64
  -3  -4  18    0.46    0.55
   3  -4  18    0.54    0.35
   0   4  20   19.51    1.77
   0  -4  20   22.92    2.01
   0  -4 -20   14.78    3.05
   1   4  20    0.06    0.22
  -1   4  20    0.79    0.46
   1  -4  20    0.20    0.37
  -1  -4  20   -0.19    0.53
   1  -4 -20    0.86    0.51
  -1  -4 -20    0.22    0.55
  -2   4  20    2.05    1.02
  -2  -4  20    2.33    0.93
   2  -4  20    4.40    1.49
  -2  -4 -20    3.15    1.35
   0   5  -1   92.14    3.89
   0   5   1   93.04    3.55
   0  -5   1   91.52    3.12
   0  -5  -1   92.33    3.31
   1   5  -1    0.31    0.18
   1   5   1    0.50    0.32
  -1   5  -1    0.30    0.37
  -1   5   1    0.96    0.28
   1  -5   1    0.56    0.58
   1  -5  -1    0.61    0.47
  -1  -5   1    0.31    0.72
  -1  -5  -1    0.07    0.34
   2   5  -1   15.43    1.03
   2   5   1   13.92    0.88
  -2   5  -1   14.81    0.92
  -2   5   1   12.55    1.11
   2  -5   1   16.86    1.27
   2  -5  -1   13.78    1.29
  -2  -5   1   14.43    1.56
  -2  -5  -1   12.93    1.06
   3   5  -1    2.02    0.41
   3   5   1    2.23    0.51
  -3   5  -1    1.81    0.42
  -3   5   1    1.36    0.43
   3  -5   1    2.40    0.68
   3  -5  -1    2.69    0.92
  -3  -5   1    2.59    0.71
  -3  -5  -1    2.31    0.72
   4   5  -1   53.50    2.83
   4   5   1   55.20    2.62
  -4   5  -1   60.52    2.86
  -4   5   1   53.66    2.61
   4  -5   1   59.28    3.11
   4  -5  -1   56.39    2.98
  -4  -5   1   58.59    2.81
  -4  -5  -1   50.52    2.84
   5   5   1    0.40    0.20
  -5   5  -1    0.62    0.47
  -5   5   1    0.82    0.38
  -5  -5   1    0.70    0.48
   5  -5   1    0.55    0.71
   5  -5  -1    0.35    0.34
  -5  -5   1    0.79    0.46
  -5  -5  -1    0.88    0.30
  -6   5   1    4.80    0.93
  -6  -5   1    5.15    0.85
   6  -5   1    5.14    1.43
   6  -5  -1    3.89    1.02
  -6  -5  -1    5.56    1.08
   7  -5   1    0.48    0.23
   7  -5  -1    0.66    0.43
   0   5  -3   49.87    2.05
   0  -5   3   40.84    1.83
   0  -5  -3   49.53    2.01
   1   5  -3   -0.03    0.44
  -1   5  -3    0.38    0.51
   1   5   3    0.49    0.43
  -1   5   3    0.45    0.27
   1  -5   3    0.46    0.64
  -1  -5   3    0.83    0.32
   1  -5  -3    1.39    0.62
  -1  -5  -3    1.37    0.92
   2   5  -3   46.89    2.32
   2   5   3   51.94    2.06
  -2   5  -3   51.65    2.25
  -2   5   3   58.16    4.30
   2  -5   3   49.17    1.86
   2  -5  -3   48.39    1.90
  -2  -5   3   51.38    1.86
  -2  -5  -3   57.43    2.56
   3   5  -3    0.36    0.43
   3   5   3    0.19    0.22
  -3   5  -3    0.32    0.26
  -3   5   3    0.00    0.51
   3  -5   3    0.50    0.73
   3  -5  -3    0.89    0.82
  -3  -5   3   -0.01    0.40
  -3  -5  -3   -0.25    0.46
   4   5  -3   18.09    1.20
   4   5   3   19.71    1.10
  -4   5  -3   18.58    1.02
  -4   5   3   18.82    1.18
   4  -5   3   18.41    1.27
   4  -5  -3   17.95    1.15
  -4  -5   3   21.72    2.35
  -4  -5  -3   17.66    1.24
   5   5   3    0.16    0.17
  -5   5  -3    0.01    0.13
  -5   5   3    0.71    0.30
  -5  -5   3    0.05    0.38
   5  -5   3    0.13    0.50
   5  -5  -3   -0.24    0.44
  -5  -5  -3    0.72    0.47
  -6   5   3   14.97    1.60
  -6  -5   3   15.54    1.36
   6  -5   3   16.67    3.46
   6  -5  -3   15.61    1.38
  -6  -5  -3   17.54    1.62
   7  -5   3    0.31    0.30
   7  -5  -3    0.66    0.28
   0   5  -5   20.51    1.21
   0   5   5   19.53    1.09
   0  -5   5   19.06    1.19
   0  -5  -5   16.80    1.18
   1   5  -5    6.20    1.22
  -1   5  -5    5.82    1.32
   1   5   5    5.72    0.60
  -1   5   5    6.79    1.07
   1  -5   5    5.64    0.77
  -1  -5   5    5.90    1.35
   1  -5  -5    5.54    1.59
  -1  -5  -5    5.23    0.69
   2   5  -5   58.54    2.49
  -2   5  -5   60.55    2.08
   2   5   5   57.73    2.31
  -2   5   5   57.25    2.36
   2  -5   5   58.54    2.14
  -2  -5   5   59.68    1.99
   2  -5  -5   58.96    2.38
  -2  -5  -5   52.54    2.34
   3   5  -5    3.11    0.78
  -3   5  -5    3.57    0.61
   3   5   5    3.35    0.62
  -3   5   5    3.47    0.49
   3  -5   5    4.45    0.68
   3  -5  -5    3.83    0.80
  -3  -5   5    2.91    0.47
  -3  -5  -5    3.65    0.98
   4   5   5    7.86    1.61
  -4   5  -5    7.64    1.47
  -4   5   5    8.16    1.56
  -4  -5   5    7.84    0.75
   4  -5   5    7.58    1.96
   4  -5  -5    6.54    0.76
  -4  -5   5    8.21    0.58
  -4  -5  -5    9.07    2.60
   5   5   5    2.02    0.48
  -5   5  -5    1.34    0.28
  -5   5   5    1.69    0.39
  -5  -5   5    1.79    0.54
   5  -5   5    1.38    0.63
   5  -5  -5    1.17    0.42
  -5  -5  -5    0.86    0.50
  -6   5   5   20.73    1.45
  -6  -5   5   21.75    1.55
   6  -5   5   23.09    1.65
   6  -5  -5   22.84    1.50
  -6  -5  -5   23.91    2.92
  -7   5   5    1.17    0.25
  -7  -5   5    1.12    0.36
   7  -5   5    0.52    0.32
   7  -5  -5    0.69    0.41
  -7  -5  -5    1.85    0.76
   0   5  -7   25.94    1.29
   0   5   7   28.01    1.26
   0  -5   7   24.13    1.05
   0  -5  -7   20.83    1.18
   1   5  -7    1.64    0.32
  -1   5  -7    2.78    0.66
   1   5   7    2.75    0.71
  -1   5   7    2.56    0.60
   1  -5   7    3.84    0.80
  -1  -5   7    3.53    0.55
   1  -5  -7    2.84    0.65
  -1  -5  -7    2.64    0.94
   2   5  -7   35.12    2.84
  -2   5  -7   34.37    2.05
   2   5   7   35.28    2.03
  -2   5   7   33.99    2.30
   2  -5   7   34.76    2.00
  -2  -5   7   33.75    1.88
   2  -5  -7   33.71    2.07
  -2  -5  -7   29.57    2.19
  -3   5  -7    4.64    0.77
   3   5   7    4.25    0.65
  -3   5   7    4.77    0.97
  -3  -5   7    3.95    0.52
   3  -5   7    4.88    1.35
  -3  -5   7    3.92    0.61
   3  -5  -7    4.04    1.19
  -3  -5  -7    4.98    0.80
  -4   5  -7   17.76    1.28
   4   5   7   17.75    1.24
  -4   5   7   16.42    1.19
  -4  -5   7   18.85    1.62
   4  -5   7   17.47    3.00
   4  -5  -7   18.16    1.33
  -4  -5  -7   17.20    2.33
  -5   5   7    4.35    0.90
  -5  -5   7    4.04    0.59
   5  -5   7    3.45    1.03
   5  -5  -7    3.23    0.62
  -5  -5  -7    4.78    1.22
  -6   5   7   14.43    2.57
  -6  -5   7   11.40    1.82
   6  -5   7    8.51    2.52
   6  -5  -7   13.40    2.06
  -6  -5  -7   15.01    2.62
   0   5  -9   31.77    1.89
   0   5   9   28.38    1.55
   0  -5   9   32.93    1.53
   0  -5  -9   26.98    1.51
   1   5  -9    0.15    0.37
  -1   5  -9    0.52    0.43
   1   5   9    0.52    0.52
  -1   5   9   -0.26    0.47
   1  -5   9   -0.11    0.36
  -1  -5   9    0.13    0.41
   1  -5  -9   -0.17    0.53
  -1  -5  -9    0.58    0.76
  -2   5  -9   19.89    1.84
   2   5   9   18.22    1.53
  -2   5   9   16.91    2.78
  -2  -5   9   14.78    0.98
   2  -5   9   20.88    3.17
  -2  -5   9   15.90    0.94
   2  -5  -9   19.48    1.41
  -2  -5  -9   17.09    1.47
  -3   5  -9    0.97    0.33
   3   5   9    0.99    0.30
  -3   5   9    1.17    0.44
  -3  -5   9    0.62    0.52
   3  -5   9    0.58    0.31
   3  -5  -9    0.67    0.75
  -3  -5  -9    0.36    0.52
  -4   5  -9   20.21    1.27
   4   5   9   22.94    1.56
  -4   5   9   20.99    1.56
  -4  -5   9   22.82    1.63
   4  -5   9   22.66    2.13
   4  -5  -9   20.79    1.60
  -4  -5  -9   20.99    1.34
  -5   5   9    0.65    0.34
  -5  -5   9    0.86    0.58
   5  -5   9    0.96    0.62
   5  -5  -9    0.80    0.51
  -5  -5  -9    1.16    0.73
  -6   5   9    8.08    1.35
  -6  -5   9    5.58    0.77
   6  -5   9    6.97    1.29
  -6  -5  -9    5.65    2.07
   0   5  11   14.59    2.65
   0  -5  11   15.28    2.35
   0  -5 -11   15.47    1.13
  -1   5 -11    5.03    1.79
   1   5  11    5.63    1.43
  -1   5  11    5.51    1.49
  -1  -5  11    5.85    0.64
   1  -5  11    6.59    1.43
  -1  -5  11    5.94    0.78
   1  -5 -11    5.78    1.35
  -1  -5 -11    5.78    0.79
  -2   5 -11   23.48    1.89
   2   5  11   21.85    1.05
  -2   5  11   20.38    1.14
  -2  -5  11   23.57    1.41
   2  -5  11   21.09    2.42
   2  -5 -11   22.01    1.25
  -2  -5 -11   21.27    1.37
  -3   5 -11    2.69    1.01
   3   5  11    3.84    0.79
  -3   5  11    3.96    0.81
  -3  -5  11    3.94    0.74
   3  -5  11    4.11    1.22
   3  -5 -11    4.06    0.68
  -3  -5 -11    3.40    0.77
  -4   5  11    8.89    1.93
  -4  -5  11    7.14    0.96
   4  -5  11    7.23    1.73
   4  -5 -11    5.56    1.36
  -4  -5 -11    6.75    0.79
  -5   5  11    1.30    0.52
  -5  -5  11    1.93    0.53
   5  -5  11    2.67    0.74
   5  -5 -11    3.12    0.76
  -5  -5 -11    1.67    0.74
  -6   5  11    7.46    2.03
  -6  -5  11    7.28    1.09
   6  -5  11    5.80    1.43
   0   5  13    8.87    1.62
   0  -5  13    9.19    1.09
   0  -5  13    9.50    2.23
   0  -5 -13    9.28    1.02
   1   5  13    0.78    0.39
  -1   5  13    0.94    0.43
  -1  -5  13    0.60    0.59
   1  -5  13   -0.03    0.41
   1  -5  13    1.03    0.47
  -1  -5  13    0.13    0.23
   1  -5 -13    0.55    0.28
  -1  -5 -13    0.04    0.47
   2   5  13   19.00    1.45
  -2   5  13   15.62    1.13
  -2  -5  13   17.93    1.56
   2  -5  13   19.83    1.40
   2  -5  13   22.21    1.63
   2  -5 -13   19.79    2.96
  -2  -5 -13   21.53    1.56
   3   5  13    0.23    0.14
  -3   5  13    0.59    0.36
  -3  -5  13    0.09    0.38
   3  -5  13    1.06    0.41
   3  -5  13    0.64    0.43
   3  -5 -13    0.70    0.46
  -3  -5 -13    0.87    0.57
  -4   5  13    4.32    0.97
  -4  -5  13    4.69    0.70
   4  -5  13    4.43    0.94
   4  -5 -13    3.44    1.13
  -4  -5 -13    4.91    1.45
  -5   5  13    0.86    0.40
   5  -5  13    0.35    0.24
  -5  -5 -13    0.75    0.47
   0   5  15   10.96    1.34
   0  -5  15   12.07    1.09
   0  -5  15   10.05    1.16
   0  -5 -15   12.06    3.76
   1   5  15    0.42    0.20
  -1   5  15    0.70    0.43
  -1  -5  15    0.75    0.44
   1  -5  15    0.20    0.40
   1  -5  15    0.27    0.33
   1  -5 -15    1.00    0.67
  -1  -5 -15    0.76    0.49
   2   5  15    7.74    1.82
  -2   5  15    7.26    1.81
  -2  -5  15    6.96    0.98
   2  -5  15    6.88    0.79
   2  -5  15    6.01    1.19
   2  -5 -15    7.19    1.83
  -2  -5 -15    7.78    1.28
  -3   5  15    1.39    0.62
  -3  -5  15   -0.17    0.45
   3  -5  15    0.80    0.29
   3  -5 -15    1.61    0.85
  -3  -5 -15    1.04    0.54
  -4   5  15    9.16    1.84
  -4  -5  15    8.69    1.00
   4  -5  15    6.73    1.54
  -4  -5 -15    7.70    2.63
   0   5  17   14.87    3.32
   0  -5  17   14.93    2.19
   0  -5 -17   12.53    2.73
   1   5  17    0.67    0.31
  -1   5  17    0.65    0.32
  -1  -5  17    0.04    0.44
   1  -5  17   -0.35    0.37
   1  -5  17    0.21    0.32
   1  -5 -17    1.09    0.49
  -1  -5 -17    0.54    0.41
   2   5  17    1.18    0.35
  -2   5  17    1.02    0.33
  -2  -5  17    0.74    0.48
   2  -5  17    2.13    0.49
   2  -5  17    0.83    0.20
   2  -5 -17    0.49    0.58
  -2  -5 -17    1.56    0.84
  -3   5  17    0.01    0.41
  -3  -5  17    0.76    0.49
   3  -5  17    0.37    0.23
  -3  -5 -17    0.43    0.28
   0   5  19    6.30    1.48
   0  -5  19    5.25    1.05
   0  -5 -19    4.21    1.69
   1   5  19    0.27    0.20
  -1   5  19    1.12    0.52
  -1  -5  19    0.40    0.47
   1  -5  19   -0.02    0.35
   1  -5 -19    0.02    0.43
  -1  -5 -19    0.37    0.52
   0   6   0    4.17    0.96
   0  -6   0    2.24    1.09
   1   6   0    0.28    0.19
  -1   6   0    0.57    0.50
   1  -6   0    1.13    0.81
  -1  -6   0    0.46    0.93
   2   6   0   18.18    3.22
  -2   6   0   23.48    1.59
   2  -6   0   17.20    1.62
  -2  -6   0   22.77    1.90
   3   6   0    0.20    0.38
  -3   6   0    0.37    0.40
   3  -6   0   -0.11    0.61
  -3  -6   0   -0.01    0.48
   4   6   0    0.97    0.35
  -4   6   0    0.76    0.40
   4  -6   0    0.68    0.62
  -4  -6   0    1.26    0.76
   5   6   0    0.63    0.35
  -5   6   0    0.45    0.36
   5  -6   0    0.52    0.50
  -5  -6   0    0.32    0.33
  -6  -6   0    5.53    1.63
   6  -6   0    4.49    1.50
   0   6  -2    1.02    0.52
   0   6   2    1.18    0.64
   0  -6   2    1.41    0.77
   0  -6  -2    1.05    1.20
   1   6  -2    9.26    1.28
  -1   6  -2    9.26    1.03
   1   6   2    8.60    1.95
  -1   6   2   11.21    1.77
   1  -6   2   11.53    3.10
   1  -6  -2   10.38    1.38
  -1  -6   2   10.43    1.31
  -1  -6  -2   11.38    2.48
   2   6  -2   24.44    2.09
   2   6   2   22.49    2.94
  -2   6  -2   24.39    1.56
  -2   6   2   27.77    2.42
   2  -6   2   23.95    1.65
   2  -6  -2   23.37    2.43
  -2  -6   2   20.54    1.31
  -2  -6  -2   22.20    2.05
   3   6  -2    5.57    1.09
   3   6   2    5.84    1.25
  -3   6  -2    5.93    1.58
  -3   6   2    6.17    1.24
   3  -6   2    5.62    1.10
   3  -6  -2    5.98    0.97
  -3  -6   2    5.78    0.83
  -3  -6  -2    5.17    0.91
   4   6  -2    0.53    0.33
   4   6   2    0.98    0.24
  -4   6  -2    0.96    0.48
  -4   6   2    0.50    0.34
   4  -6   2    0.61    0.69
   4  -6  -2    0.25    0.59
  -4  -6   2    2.46    0.71
  -4  -6  -2    1.07    0.72
   5   6   2    2.77    0.52
  -5   6  -2    3.42    1.13
  -5   6   2    3.02    0.76
   5  -6   2    3.93    0.87
   5  -6  -2    2.65    0.65
  -5  -6  -2    2.69    0.72
  -6   6   2    5.74    1.42
  -6  -6   2    5.81    1.43
   6  -6   2    5.63    1.67
   6  -6  -2    8.51    1.04
  -6  -6  -2    4.21    0.77
   0   6  -4    2.44    0.70
   0   6   4    3.15    0.64
   0  -6   4    1.72    0.85
   0  -6  -4    1.68    0.75
   1   6  -4    9.69    2.35
  -1   6  -4    9.30    1.93
   1   6   4    9.82    2.03
  -1   6   4   11.01    1.83
   1  -6   4    8.43    0.97
  -1  -6   4    9.93    2.61
   1  -6  -4   11.92    1.35
  -1  -6  -4   10.32    1.17
   2   6  -4   18.86    4.10
  -2   6  -4   18.05    1.59
   2   6   4   16.11    1.39
  -2   6   4   17.69    3.01
   2  -6   4   19.18    3.88
   2  -6  -4   18.50    1.64
  -2  -6   4   15.93    1.44
  -2  -6  -4   19.17    1.99
   3   6  -4    6.13    1.35
   3   6   4    5.80    0.89
  -3   6  -4    6.91    1.35
  -3   6   4    6.37    1.37
   3  -6   4    6.14    0.87
   3  -6  -4    5.07    1.50
  -3  -6   4    5.42    0.73
  -3  -6  -4    6.32    1.05
   4   6  -4    1.11    0.68
   4   6   4    0.57    0.35
  -4   6  -4    1.19    0.33
  -4   6   4    1.12    0.44
   4  -6   4    0.47    0.60
   4  -6  -4    1.78    0.70
  -4  -6   4    1.00    0.51
  -4  -6  -4    0.79    0.68
   5   6   4    1.82    0.39
  -5   6  -4    2.61    0.58
  -5   6   4    2.94    0.87
  -5  -6   4    3.21    0.62
   5  -6   4    2.44    1.25
   5  -6  -4    2.18    0.58
  -5  -6  -4    2.57    0.75
  -6   6   4    8.77    1.52
  -6  -6   4    6.54    0.92
   6  -6   4    6.62    1.22
   6  -6  -4    7.24    1.00
  -6  -6  -4    4.84    1.50
   0   6  -6   14.01    2.70
   0   6   6   10.95    2.33
   0  -6   6    9.62    1.25
   0  -6  -6   11.63    3.07
   1   6  -6    1.77    0.52
  -1   6  -6    1.77    0.61
   1   6   6    1.37    0.30
  -1   6   6    0.67    0.28
   1  -6   6    0.62    0.65
  -1  -6   6    1.57    0.58
   1  -6  -6    1.58    0.66
  -1  -6  -6    1.82    0.47
   2   6  -6    3.79    0.87
  -2   6  -6    3.38    0.89
   2   6   6    3.52    0.71
  -2   6   6    3.60    0.60
   2  -6   6    4.34    0.96
  -2  -6   6    3.88    0.64
   2  -6  -6    2.69    1.21
  -2  -6  -6    3.92    0.93
   3   6  -6    1.71    0.45
  -3   6  -6    1.44    0.42
   3   6   6    1.55    0.31
  -3   6   6    1.40    0.40
   3  -6   6    2.10    0.91
  -3  -6   6    1.10    0.35
   3  -6  -6    1.84    0.69
  -3  -6  -6    1.47    0.72
   4   6   6    7.64    1.68
  -4   6  -6    8.25    1.62
  -4   6   6    7.53    1.46
  -4  -6   6    8.78    1.13
   4  -6   6    6.13    1.76
   4  -6  -6    7.28    1.10
  -4  -6  -6    7.08    1.78
  -5   6   6    0.77    0.41
  -5  -6   6    1.14    0.60
   5  -6   6    0.15    0.51
   5  -6  -6    1.22    0.74
  -5  -6  -6    0.68    0.54
  -6   6   6    1.31    0.36
  -6  -6   6    0.97    0.42
   6  -6   6    1.55    0.71
   6  -6  -6    1.64    0.68
  -6  -6  -6    1.17    0.73
   0   6  -8   37.51    3.02
   0   6   8   28.84    2.32
   0  -6   8   36.97    2.19
   0  -6  -8   31.66    2.18
   1   6  -8    0.34    0.30
  -1   6  -8   -0.24    0.37
   1   6   8    0.73    0.41
  -1   6   8    0.55    0.26
   1  -6   8    0.48    0.59
  -1  -6   8    0.15    0.47
   1  -6  -8    0.11    0.70
  -1  -6  -8   -0.07    0.52
   2   6  -8    0.79    0.56
  -2   6  -8   -0.32    0.34
   2   6   8    1.55    0.50
  -2   6   8    0.28    0.34
   2  -6   8    0.30    0.40
  -2  -6   8    0.00    0.34
   2  -6  -8    1.23    0.62
  -2  -6  -8    0.54    0.66
  -3   6  -8    0.46    0.28
   3   6   8    0.02    0.13
  -3   6   8    0.83    0.37
  -3  -6   8    0.61    0.38
   3  -6   8    0.35    0.52
   3  -6  -8    0.45    0.38
  -3  -6  -8    0.47    0.52
  -4   6  -8   13.63    1.80
   4   6   8   15.85    1.25
  -4   6   8   14.32    2.34
  -4  -6   8   11.73    3.00
   4  -6   8   15.43    3.80
   4  -6  -8   12.84    3.31
  -4  -6  -8   13.04    1.47
  -5   6   8    0.17    0.43
  -5  -6   8    0.45    0.46
   5  -6   8    0.67    0.64
   5  -6  -8    0.28    0.47
  -5  -6  -8    1.14    0.67
  -6   6   8    0.73    0.53
  -6  -6   8    0.16    0.42
   6  -6   8    0.24    0.52
   6  -6  -8    0.86    0.61
  -6  -6  -8   -0.18    0.53
   0   6 -10   21.13    2.61
   0   6  10   23.29    4.38
   0  -6  10   18.12    2.25
   0  -6 -10   20.07    4.55
   1   6 -10    0.38    0.34
  -1   6 -10    0.54    0.38
   1   6  10    0.35    0.23
  -1   6  10    0.81    0.59
   1  -6  10    0.32    0.26
  -1  -6  10    0.69    0.57
   1  -6 -10   -0.48    0.58
  -1  -6 -10    1.46    0.64
  -2   6 -10    0.53    0.26
   2   6  10    0.37    0.28
  -2   6  10    0.45    0.41
  -2  -6  10    0.86    0.73
   2  -6  10    0.44    0.50
   2  -6 -10    0.33    0.42
  -3   6 -10    0.38    0.19
   3   6  10   -0.02    0.25
  -3   6  10    0.58    0.40
  -3  -6  10   -0.09    0.42
   3  -6  10    0.68    0.49
   3  -6 -10    0.44    0.73
  -3  -6 -10    0.83    0.56
  -4   6  10    9.11    1.66
  -4  -6  10   10.19    1.33
   4  -6  10   11.57    2.55
   4  -6 -10    9.38    1.68
  -4  -6 -10   11.37    2.61
  -5   6  10    0.68    0.40
  -5  -6  10    0.33    0.44
   5  -6  10    0.18    0.34
   5  -6 -10    0.56    0.45
  -5  -6 -10   -0.09    0.59
   0   6  12    6.12    1.41
   0  -6  12    5.97    0.80
   0  -6  12    4.24    0.74
   0  -6 -12    4.20    0.92
   1   6  12    1.06    0.47
  -1   6  12    0.12    0.26
  -1  -6  12    0.92    0.59
   1  -6  12    0.52    0.29
  -1  -6  12    1.01    0.40
   1  -6 -12    0.59    0.62
  -1  -6 -12    1.58    0.66
  -2   6 -12    0.89    0.30
   2   6  12    1.66    0.53
  -2   6  12    1.66    0.53
  -2  -6  12    1.22    0.48
   2  -6  12    1.10    0.73
   2  -6 -12    1.25    0.51
  -2  -6 -12    2.09    0.91
  -3   6 -12    0.24    0.26
   3   6  12    0.97    0.38
  -3   6  12    0.19    0.56
  -3  -6  12    0.50    0.54
   3  -6  12    0.21    0.41
   3  -6 -12    0.21    0.52
  -3  -6 -12    0.75    0.35
  -4   6  12    2.88    0.75
  -4  -6  12    2.55    0.67
   4  -6  12    3.80    1.04
   4  -6 -12    2.87    1.01
  -4  -6 -12    1.67    0.48
  -5   6  12    0.40    0.41
  -5  -6  12    0.18    0.49
   5  -6  12    1.07    0.69
   5  -6 -12   -0.09    0.35
  -5  -6 -12    0.56    0.33
   0   6  14    0.25    0.25
   0  -6  14    1.35    0.64
   0  -6  14    0.42    0.33
   1   6  14    3.89    1.00
  -1   6  14    4.13    0.95
  -1  -6  14    4.14    0.74
   1  -6  14    4.38    1.10
   1  -6  14    3.70    0.95
   1  -6 -14    3.84    0.89
  -1  -6 -14    4.22    0.87
   2   6  14    4.43    0.93
  -2   6  14    6.05    1.23
  -2  -6  14    3.88    0.82
   2  -6  14    3.72    0.91
   2  -6  14    4.92    0.91
   2  -6 -14    5.09    0.87
  -2  -6 -14    5.25    1.07
  -3   6  14    4.19    0.85
  -3  -6  14    1.68    0.44
   3  -6  14    2.37    0.63
   3  -6 -14    5.13    1.06
  -3  -6 -14    1.61    0.73
  -4   6  14    0.59    0.37
  -4  -6  14    0.95    0.47
   4  -6  14    0.86    0.31
   4  -6 -14    0.99    0.47
  -4  -6 -14   -0.06    0.68
   0   6  16    0.69    0.43
   0  -6  16    0.70    0.44
   0  -6 -16    0.78    1.00
   1   6  16    1.69    0.48
  -1   6  16    2.38    0.66
  -1  -6  16    1.73    0.70
   1  -6  16    1.65    0.54
   1  -6  16    1.39    0.62
   1  -6 -16    1.08    0.65
  -1  -6 -16    1.37    0.76
   2   6  16    1.53    0.44
  -2   6  16    2.64    0.60
  -2  -6  16    2.68    0.65
   2  -6  16    2.35    0.59
   2  -6  16    2.36    0.47
   2  -6 -16    2.58    0.65
  -2  -6 -16    1.99    0.82
   0   7  -1    1.84    0.91
   0   7   1    1.06    0.58
   0  -7   1    0.86    0.51
   0  -7  -1    0.76    0.80
   1   7  -1    0.90    0.27
   1   7   1    0.35    0.30
  -1   7  -1    0.70    0.34
  -1   7   1    0.58    0.49
   1  -7   1    0.88    0.68
   1  -7  -1    0.28    0.47
  -1  -7   1    0.76    0.88
  -1  -7  -1    0.64    0.65
   2   7  -1    0.98    0.39
   2   7   1    0.40    0.31
  -2   7  -1    2.24    0.94
  -2   7   1    1.96    0.86
   2  -7   1    0.42    0.95
   2  -7  -1    0.65    0.53
  -2  -7   1    0.39    0.78
  -2  -7  -1    0.05    0.76
   3   7  -1    0.32    0.26
   3   7   1    0.45    0.31
  -3   7  -1    0.40    0.29
  -3   7   1    0.19    0.29
   3  -7   1   -0.22    0.59
   3  -7  -1    1.18    0.74
  -3  -7   1    0.02    0.48
  -3  -7  -1    0.61    0.48
   4   7  -1    0.90    0.42
   4   7   1    0.15    0.23
  -4   7  -1    0.71    0.51
  -4   7   1    1.76    0.49
   4  -7   1    0.64    0.67
   4  -7  -1    0.89    0.68
  -4  -7  -1    0.52    0.47
   5   7  -1    0.42    0.25
   5   7   1    0.31    0.25
  -5   7  -1    0.54    0.29
  -5   7   1    0.35    0.27
   5  -7   1    0.09    0.56
   5  -7  -1   -0.07    0.53
  -5  -7  -1    0.30    0.27
   0   7  -3    0.98    0.64
   0   7   3    0.73    0.48
   0  -7   3    0.54    0.47
   0  -7  -3    0.78    0.81
   1   7  -3    1.00    0.53
  -1   7  -3    0.69    0.45
   1   7   3    0.87    0.44
  -1   7   3    1.22    0.46
   1  -7   3    2.25    1.00
  -1  -7   3    0.79    0.74
   1  -7  -3    1.66    0.71
  -1  -7  -3    0.97    0.97
   2   7  -3    2.11    0.95
   2   7   3    1.25    0.59
  -2   7  -3    1.33    0.43
  -2   7   3    1.85    0.64
   2  -7   3    2.01    0.90
   2  -7  -3    2.54    1.37
  -2  -7   3    1.69    0.73
  -2  -7  -3    1.17    0.58
   3   7  -3    0.74    0.40
   3   7   3    0.82    0.35
  -3   7  -3    0.44    0.21
  -3   7   3    1.11    0.33
   3  -7   3    0.43    0.61
   3  -7  -3    2.08    0.89
  -3  -7   3    0.02    0.43
  -3  -7  -3    0.77    0.53
   4   7  -3    0.02    0.27
   4   7   3    0.44    0.34
  -4   7  -3    0.36    0.20
   4  -7   3    1.07    0.67
   4  -7  -3    1.83    0.84
  -4  -7  -3    0.25    0.36
   5   7   3    0.32    0.34
  -5   7  -3    0.55    0.31
  -5   7   3    0.21    0.36
   5  -7   3   -0.03    0.56
   5  -7  -3    0.22    0.53
  -5  -7  -3    1.01    0.62
   0   7  -5    0.75    0.25
   0   7   5    1.25    0.53
   0  -7   5    0.44    0.73
   1   7  -5    0.45    0.47
  -1   7  -5    0.36    0.28
   1   7   5   -0.30    0.37
  -1   7   5    0.64    0.26
   1  -7   5    0.28    0.64
  -1  -7   5    0.69    0.42
   1  -7  -5    0.79    0.70
  -1  -7  -5    1.03    0.72
   2   7  -5    1.95    1.02
  -2   7  -5    1.11    0.38
   2   7   5    1.08    0.45
  -2   7   5    0.67    0.31
   2  -7   5    1.40    1.08
  -2  -7   5    1.76    0.79
   2  -7  -5    0.67    0.82
  -2  -7  -5    0.28    0.75
   3   7  -5    0.64    0.53
  -3   7  -5    0.58    0.40
   3   7   5    0.24    0.21
  -3   7   5   -0.06    0.44
   3  -7   5    0.64    0.67
   3  -7  -5    0.37    0.58
  -3  -7   5    0.67    0.39
  -3  -7  -5    1.30    0.70
   4   7  -5    0.71    0.38
   4   7   5    0.51    0.53
  -4   7  -5    0.80    0.34
  -4   7   5    0.00    0.64
   4  -7   5    1.45    1.02
   4  -7  -5    1.67    0.92
  -4  -7  -5   -0.14    0.57
  -5   7   5    0.31    0.42
  -5  -7   5   -0.12    0.44
   5  -7   5    0.35    0.43
   5  -7  -5   -0.03    0.49
  -5  -7  -5   -0.07    0.49
   0   7  -7    0.70    0.37
   0   7   7    1.22    0.58
   0  -7   7    1.78    1.04
   0  -7  -7    1.27    0.54
   1   7  -7    0.44    0.20
  -1   7  -7    0.42    0.39
   1   7   7    0.31    0.21
  -1   7   7   -0.13    0.43
   1  -7   7    0.10    0.59
  -1  -7   7   -0.15    0.43
   1  -7  -7    0.56    0.69
  -1  -7  -7    0.41    0.53
   2   7  -7   -0.13    0.49
  -2   7  -7    0.56    0.35
   2   7   7   -0.03    0.43
  -2   7   7    0.06    0.18
   2  -7   7    1.31    0.84
  -2  -7   7    1.00    0.60
   2  -7  -7    0.60    0.66
  -2  -7  -7    0.94    0.64
   3   7  -7    0.51    0.38
  -3   7  -7    0.08    0.41
  -3   7   7    0.86    0.41
   3  -7   7    0.11    0.41
   3  -7  -7    0.77    0.47
  -3  -7  -7    0.20    0.56
  -4   7  -7    0.73    0.28
   4   7   7    0.98    0.49
  -4   7   7    0.74    0.47
  -4  -7   7    0.46    0.52
   4  -7   7   -0.05    0.74
   4  -7  -7    0.63    0.71
  -4  -7  -7    0.94    0.78
  -5   7   7    0.17    0.31
  -5  -7   7   -0.02    0.37
   5  -7   7    0.19    0.26
   5  -7  -7    0.14    0.53
  -5  -7  -7    0.71    0.51
   0   7  -9    1.59    0.81
   0   7   9    1.88    0.64
   0  -7   9    2.36    0.93
   0  -7  -9    2.07    0.95
   1   7  -9    0.24    0.22
  -1   7  -9    0.46    0.34
   1   7   9    0.62    0.34
  -1   7   9    0.52    0.33
   1  -7   9    0.68    0.73
  -1  -7   9   -0.15    0.39
   1  -7  -9    0.74    0.60
  -1  -7  -9    1.06    0.71
   2   7  -9    0.35    0.31
  -2   7  -9    0.75    0.30
   2   7   9    0.05    0.33
  -2   7   9   -0.27    0.67
   2  -7   9    0.43    0.56
   2  -7  -9    0.18    0.65
  -2  -7  -9    0.42    0.72
  -3   7  -9    0.52    0.31
   3   7   9    0.46    0.33
  -3   7   9    0.39    0.59
  -3  -7   9    0.21    0.44
   3  -7   9   -0.21    0.47
   3  -7  -9    0.54    0.48
  -3  -7  -9    1.35    0.74
   4   7   9    1.14    0.59
  -4   7   9   -0.28    0.57
  -4  -7   9    1.10    0.89
   4  -7   9    0.90    0.57
   4  -7  -9    0.86    0.48
  -4  -7  -9    0.40    0.33
   0   7 -11    0.89    0.59
   0   7  11    0.34    0.33
   0  -7  11    1.06    0.72
   0  -7 -11    0.54    0.55
  -1   7 -11    0.30    0.29
   1   7  11    0.84    0.50
  -1   7  11    0.40    0.39
   1  -7  11    0.23    0.35
  -1  -7  11    0.46    0.50
   1  -7 -11    0.32    0.63
  -1  -7 -11    0.40    0.64
  -2   7 -11    0.41    0.36
   2   7  11    0.61    0.49
  -2   7  11    0.75    0.42
  -2  -7  11    0.05    0.52
   2  -7  11    0.50    0.42
   2  -7 -11    0.06    0.67
  -2  -7 -11    0.20    0.64
  -3   7 -11    0.53    0.25
  -3   7  11    1.26    0.50
  -3  -7  11    0.57    0.41
   3  -7  11    0.22    0.52
   3  -7 -11   -0.38    0.58
  -3  -7 -11    0.10    0.54
  -4   7  11   -0.05    0.30
  -4  -7  11    1.06    0.77
   4  -7  11    0.78    0.53
   4  -7 -11   -0.27    0.50
  -4  -7 -11    0.10    0.32
   0   7  13   -0.09    0.30
   0  -7  13    0.25    0.33
   0  -7  13   -0.03    0.36
   0  -7 -13    0.88    0.54
   1   7  13    0.99    0.47
  -1   7  13    0.73    0.24
  -1  -7  13    0.20    0.41
   1  -7  13    0.48    0.30
   1  -7 -13    0.45    0.35
  -1  -7 -13   -0.02    0.57
   2   7  13    0.83    0.57
  -2   7  13   -0.19    0.56
  -2  -7  13    0.51    0.34
   2  -7  13    0.53    0.49
   2  -7 -13    0.82    0.71
  -2  -7 -13    0.81    0.67
  -3   7  13    0.60    0.30
  -3  -7  13    0.63    0.46
   3  -7  13   -0.14    0.46
   3  -7 -13    0.40    0.55
  -3  -7 -13    0.04    0.74
   0   7  15    0.00    0.55
   0  -7  15    0.91    0.45
   0  -7 -15    0.61    0.58
   1   7  15    0.58    0.35
  -1   7  15    0.25    0.28
  -1  -7  15    0.27    0.44
   1  -7  15    0.67    0.43
   1  -7  15    0.40    0.26
   1  -7 -15    0.67    0.66
  -1  -7 -15    0.98    0.57
   0   8   0    3.23    0.72
   1   8   0    0.14    0.30
  -1   8   0    0.25    0.41
   1  -8   0   -0.01    0.73
  -1  -8   0    0.96    0.72
   2   8   0    0.86    0.52
  -2   8   0    1.06    0.54
   2  -8   0    1.28    0.76
  -2  -8   0    1.70    0.59
   3   8   0    0.23    0.23
  -3   8   0    0.31    0.42
   3  -8   0    0.55    0.69
  -3  -8   0    0.37    0.69
   4   8   0    0.77    0.51
  -4   8   0    0.50    0.46
   4  -8   0    1.40    0.90
  -4  -8   0    0.54    0.71
   0   8  -2    0.14    0.43
   0   8   2    1.19    0.49
   0  -8   2    3.34    1.14
   0  -8  -2    2.15    1.03
   1   8  -2    0.57    0.34
  -1   8  -2    0.37    0.34
   1   8   2    0.49    0.40
  -1   8   2    0.47    0.31
   1  -8   2    0.63    0.99
  -1  -8   2    0.29    0.63
   1  -8  -2    0.77    0.80
  -1  -8  -2    0.85    0.62
   2   8  -2    1.65    0.55
   2   8   2    1.40    0.47
  -2   8  -2    1.28    0.66
  -2   8   2    1.60    0.41
   2  -8   2    1.82    1.01
   2  -8  -2    0.35    0.54
  -2  -8   2    0.76    0.52
  -2  -8  -2    1.32    0.87
   3   8  -2    0.07    0.35
   3   8   2    0.73    0.29
  -3   8  -2    0.55    0.28
  -3   8   2   -0.06    0.38
   3  -8   2    0.61    0.74
   3  -8  -2    0.78    0.67
  -3  -8   2    0.15    0.26
  -3  -8  -2    0.40    0.49
   4   8  -2    1.20    0.43
   4   8   2    0.47    0.41
  -4   8  -2    0.30    0.23
  -4   8   2    0.81    0.43
   4  -8   2    0.40    0.88
   4  -8  -2    2.31    1.10
  -4  -8  -2    0.32    0.38
   0   8  -4    0.59    0.36
   0  -8   4    0.58    0.65
   0  -8  -4    1.10    1.14
   1   8  -4    0.34    0.51
  -1   8  -4    0.31    0.33
   1   8   4    0.39    0.28
  -1   8   4    0.16    0.39
   1  -8   4    0.07    0.69
  -1  -8   4    0.26    0.58
   1  -8  -4    0.30    0.47
  -1  -8  -4    0.26    0.59
   2   8  -4    1.24    0.49
  -2   8  -4    0.70    0.52
   2   8   4    0.79    0.36
  -2   8   4    1.81    0.84
   2  -8   4    0.91    0.70
  -2  -8   4    0.29    0.32
   2  -8  -4    1.04    0.69
  -2  -8  -4    1.71    1.12
   3   8  -4   -0.47    0.42
   3   8   4    0.40    0.34
  -3   8  -4   -0.13    0.41
  -3   8   4    0.86    0.43
   3  -8   4    0.54    0.65
   3  -8  -4   -0.29    0.63
  -3  -8   4    0.28    0.19
  -3  -8  -4    0.47    0.53
   4   8  -4    0.50    0.47
   4   8   4    0.35    0.25
  -4   8  -4    0.16    0.20
   4  -8   4    0.80    0.68
   4  -8  -4    1.60    0.84
  -4  -8  -4    0.93    0.61
   0   8  -6    0.31    0.49
   0   8   6    0.86    0.30
   0  -8   6    1.43    0.59
   0  -8  -6    3.19    1.12
   1   8  -6    0.46    0.46
  -1   8  -6    0.04    0.27
   1   8   6    0.71    0.44
  -1   8   6    0.88    0.42
   1  -8   6    0.22    0.66
  -1  -8   6    0.89    0.63
   1  -8  -6    0.18    0.67
  -1  -8  -6   -0.57    0.72
   2   8  -6    1.16    0.49
  -2   8  -6    0.83    0.53
   2   8   6    1.69    0.60
  -2   8   6    0.99    0.58
   2  -8   6    1.77    1.14
  -2  -8   6    0.63    0.45
   2  -8  -6    0.32    0.54
  -2  -8  -6    0.81    0.77
   3   8  -6    0.20    0.28
  -3   8  -6    0.47    0.28
  -3   8   6    0.59    0.22
   3  -8   6    1.08    0.67
   3  -8  -6    0.10    0.48
  -3  -8  -6    0.31    0.40
   4   8   6    1.19    0.38
  -4   8  -6    0.33    0.34
  -4   8   6    0.40    0.37
   4  -8   6    0.57    0.86
   4  -8  -6    0.30    0.61
  -4  -8  -6    0.61    0.39
   0   8  -8    1.32    0.49
   0   8   8    1.16    0.39
   0  -8   8    1.07    0.59
   0  -8  -8    1.11    0.96
   1   8  -8    0.53    0.34
  -1   8  -8    0.13    0.46
   1   8   8    0.65    0.22
  -1   8   8   -0.23    0.52
   1  -8   8    1.10    0.59
  -1  -8   8    0.35    0.45
   1  -8  -8   -0.79    0.67
  -1  -8  -8    0.87    0.87
   2   8  -8    1.11    0.55
  -2   8  -8    0.77    0.71
   2   8   8    0.16    0.23
  -2   8   8   -0.08    0.36
   2  -8   8    0.03    0.72
   2  -8  -8    0.54    0.76
  -2  -8  -8    0.13    0.32
   3   8  -8    1.12    0.51
  -3   8  -8   -0.18    0.39
   3   8   8    0.52    0.25
  -3   8   8    0.50    0.27
   3  -8   8    0.10    0.55
   3  -8  -8    0.02    0.32
  -3  -8  -8    0.22    0.45
   0   8 -10    0.76    0.28
   0   8  10    0.99    0.52
   0  -8  10    0.25    0.46
   0  -8 -10    0.31    0.65
   1   8 -10   -0.20    0.43
  -1   8 -10    0.20    0.21
   1   8  10    0.46    0.40
  -1   8  10    0.31    0.30
   1  -8  10    0.74    0.46
   1  -8 -10    1.67    0.89
  -1  -8 -10    0.30    0.39
  -2   8 -10    0.56    0.61
   2   8  10    0.75    0.39
  -2   8  10    0.08    0.25
   2  -8  10    1.03    0.44
   2  -8 -10    1.36    1.25
  -2  -8 -10    0.75    0.68
   0   8 -12    0.67    0.29
   0   8  12    0.54    0.23
   0  -8  12    0.76    0.38
   0  -8 -12    0.42    0.56
  -1   8 -12    0.47    0.51
   1   8  12    0.52    0.46
  -1   8  12    0.40    0.24
  -1  -8  12   -0.21    0.42
   1  -8  12    0.87    0.48
   1  -8 -12    0.36    0.63
  -1  -8 -12    0.29    0.37
   0   9  -1    2.27    0.74
   0   9   1    2.79    0.70
   0  -9   1    2.54    0.93
   0  -9  -1    1.86    0.81
   1   9  -1    0.15    0.25
   1   9   1    0.23    0.31
  -1   9  -1    0.79    0.35
  -1   9   1    0.49    0.22
   1  -9   1    0.41    0.66
   1  -9  -1    0.28    0.47
  -1  -9   1    1.99    0.92
  -1  -9  -1    0.53    0.61
   2   9  -1    1.68    0.47
   2   9   1    0.88    0.30
  -2   9  -1    1.34    0.40
  -2   9   1    1.06    0.48
   2  -9   1    1.30    0.65
   2  -9  -1    1.49    0.68
  -2  -9   1    2.28    0.79
  -2  -9  -1    0.86    0.67
   0   9  -3    1.31    0.40
   0   9   3    2.41    0.52
   0  -9   3    2.23    0.92
   0  -9  -3    1.97    0.99
   1   9  -3    0.55    0.51
  -1   9  -3    0.27    0.40
   1   9   3    0.38    0.36
  -1   9   3    0.78    0.40
   1  -9   3    1.13    0.94
  -1  -9   3    0.72    0.54
   1  -9  -3   -0.18    0.65
  -1  -9  -3    0.14    0.57
   2   9  -3    2.66    0.68
  -2   9  -3    1.17    0.60
  -2   9   3    1.49    0.51
   2  -9   3    2.10    1.06
   2  -9  -3    1.85    0.78
  -2  -9   3    1.20    0.63
  -2  -9  -3    2.38    1.12
   0   9  -5    0.59    0.28
   0   9   5    1.23    0.56
   0  -9   5    2.00    0.90
   0  -9  -5    1.11    0.86
   1   9  -5    1.03    0.34
  -1   9  -5    0.69    0.34
  -1   9   5    0.18    0.43
   1  -9   5    0.28    0.58
  -1  -9   5    0.99    0.69
   1  -9  -5    1.26    0.77
  -1  -9  -5    0.60    0.62
   2   9  -5    1.92    0.95
  -2   9  -5    1.14    0.56
   2   9   5    1.82    0.61
  -2   9   5    1.72    0.50
   2  -9   5    1.79    0.65
  -2  -9   5    0.90    0.47
   2  -9  -5    1.50    0.75
  -2  -9  -5    1.06    0.68
   0   9  -7    1.56    0.60
   0   9   7    1.68    0.61
   0  -9   7    1.38    0.53
   0  -9  -7    0.53    0.69
   0   0   0    0.00    0.00
;
_shelx_hkl_checksum              17773
loop_
_space_group_symop_operation_xyz
'x, y, z'
'x+1/2, -y, -z'
'-x+1/2, -y, z'
'-x, y, -z'
'x, y+1/2, z+1/2'
'x+1/2, -y+1/2, -z+1/2'
'-x+1/2, -y+1/2, z+1/2'
'-x, y+1/2, -z+1/2'
'-x, -y, -z'
'-x-1/2, y, z'
'x-1/2, y, -z'
'x, -y, z'
'-x, -y+1/2, -z+1/2'
'-x-1/2, y+1/2, z+1/2'
'x-1/2, y+1/2, -z+1/2'
'x, -y+1/2, z+1/2'
loop_
_atom_site_label
_atom_site_type_symbol
_atom_site_fract_x
_atom_site_fract_y
_atom_site_fract_z
_atom_site_U_iso_or_equiv
_atom_site_adp_type
_atom_site_occupancy
_atom_site_site_symmetry_order
_atom_site_calc_flag
_atom_site_refinement_flags_posn
_atom_site_refinement_flags_adp
_atom_site_refinement_flags_occupancy
Cd1 Cd 0.0000 0.5000 0.0000 0.0639(4) Uani 1 4 d S T P
Cl2 Cl 0.2500 0.5000 -0.11448(13) 0.0620(8) Uani 1 4 d S T P
Cl1 Cl 0.2500 0.2584(4) 0.05510(10) 0.0639(6) Uani 1 2 d S T P
C1 C 0.8473(16) 0.5000 0.7516(6) 0.116(4) Uani 0.5 2 d S T P
N1 N 0.8473(16) 0.5000 0.7516(6) 0.116(4) Uani 0.5 2 d S T P
H1A H 0.9165 0.5000 0.7949 0.139 Uiso 1 2 d R U P
C3 C 0.8365(18) 0.5000 0.6232(5) 0.110(5) Uani 1 2 d S T P
H3A H 0.9069 0.5000 0.5762 0.132 Uiso 1 2 d R U P
C2 C 0.9376(17) 0.5000 0.6849(10) 0.148(7) Uani 1 2 d S T P
H2A H 1.0789 0.5000 0.6834 0.177 Uiso 1 2 d R U P
loop_
_atom_site_aniso_label
_atom_site_aniso_U_11
_atom_site_aniso_U_22
_atom_site_aniso_U_33
_atom_site_aniso_U_23
_atom_site_aniso_U_13
_atom_site_aniso_U_12
Cd1 0.0186(4) 0.1382(9) 0.0349(4) 0.000 -0.0002(2) 0.000
Cl2 0.0292(11) 0.129(3) 0.0275(10) 0.000 0.000 0.000
Cl1 0.0362(9) 0.1095(17) 0.0459(9) 0.0081(10) 0.000 0.000
C1 0.098(8) 0.185(11) 0.063(5) 0.000 -0.044(6) 0.000
N1 0.098(8) 0.185(11) 0.063(5) 0.000 -0.044(6) 0.000
C3 0.122(11) 0.166(12) 0.042(4) 0.000 0.033(5) 0.000
C2 0.035(5) 0.27(2) 0.136(13) 0.000 0.026(7) 0.000
loop_
_atom_type_symbol
_atom_type_description
_atom_type_scat_dispersion_real
_atom_type_scat_dispersion_imag
_atom_type_scat_source
C C 0.0033 0.0016 'International Tables Vol C Tables 4.2.6.8 and 6.1.1.4'
H H 0.0000 0.0000 'International Tables Vol C Tables 4.2.6.8 and 6.1.1.4'
N N 0.0061 0.0033 'International Tables Vol C Tables 4.2.6.8 and 6.1.1.4'
Cl Cl 0.1484 0.1585 'International Tables Vol C Tables 4.2.6.8 and 6.1.1.4'
Cd Cd -0.8075 1.2024 'International Tables Vol C Tables 4.2.6.8 and 6.1.1.4'
loop_
_geom_angle_atom_site_label_1
_geom_angle_atom_site_label_2
_geom_angle_atom_site_label_3
_geom_angle
_geom_angle_site_symmetry_1
_geom_angle_site_symmetry_3
Cl1 Cd1 Cl1 95.55(9) . 11
Cl1 Cd1 Cl1 84.45(9) . 3_565
Cl1 Cd1 Cl1 180.00(11) 11 3_565
Cl1 Cd1 Cl1 180.0 . 9_565
Cl1 Cd1 Cl1 84.45(9) 11 9_565
Cl1 Cd1 Cl1 95.55(9) 3_565 9_565
Cl1 Cd1 Cl2 82.61(4) . .
Cl1 Cd1 Cl2 97.39(4) 11 .
Cl1 Cd1 Cl2 82.61(4) 3_565 .
Cl1 Cd1 Cl2 97.39(4) 9_565 .
Cl1 Cd1 Cl2 97.39(4) . 9_565
Cl1 Cd1 Cl2 82.61(4) 11 9_565
Cl1 Cd1 Cl2 97.39(4) 3_565 9_565
Cl1 Cd1 Cl2 82.61(4) 9_565 9_565
Cl2 Cd1 Cl2 180.0 . 9_565
Cl1 Cd1 Cd1 50.07(3) . 2_565
Cl1 Cd1 Cd1 129.93(3) 11 2_565
Cl1 Cd1 Cd1 50.07(3) 3_565 2_565
Cl1 Cd1 Cd1 129.93(3) 9_565 2_565
Cl2 Cd1 Cd1 50.08(3) . 2_565
Cl2 Cd1 Cd1 129.92(3) 9_565 2_565
Cl1 Cd1 Cd1 129.93(3) . 2_465
Cl1 Cd1 Cd1 50.07(3) 11 2_465
Cl1 Cd1 Cd1 129.93(3) 3_565 2_465
Cl1 Cd1 Cd1 50.07(3) 9_565 2_465
Cl2 Cd1 Cd1 129.92(3) . 2_465
Cl2 Cd1 Cd1 50.08(3) 9_565 2_465
Cd1 Cd1 Cd1 180.0 2_565 2_465
Cd1 Cl2 Cd1 79.83(6) 2_565 .
Cd1 Cl1 Cd1 79.86(7) 2_565 .
C2 C1 N1 117.4(8) . 10_755
C2 C1 C1 117.4(8) . 10_755
N1 C1 C1 0.0 10_755 10_755
C2 C1 H1A 121.2 . .
N1 C1 H1A 121.4 10_755 .
C1 C1 H1A 121.4 10_755 .
C3 C3 C2 122.1(7) 10_755 .
C3 C3 H3A 119.9 10_755 .
C2 C3 H3A 118.0 . .
C3 C2 C1 120.5(11) . .
C3 C2 H2A 120.5 . .
C1 C2 H2A 119.0 . .
loop_
_geom_bond_atom_site_label_1
_geom_bond_atom_site_label_2
_geom_bond_distance
_geom_bond_site_symmetry_2
Cd1 Cl1 2.6437(19) .
Cd1 Cl1 2.6437(19) 11
Cd1 Cl1 2.6437(19) 3_565
Cd1 Cl1 2.6437(19) 9_565
Cd1 Cl2 2.6446(17) .
Cd1 Cl2 2.6446(17) 9_565
Cd1 Cd1 3.3938(7) 2_565
Cd1 Cd1 3.3938(7) 2_465
Cl2 Cd1 2.6446(17) 2_565
Cl1 Cd1 2.6437(19) 2_565
C1 C2 1.332(18) .
C1 N1 1.32(2) 10_755
C1 C1 1.32(2) 10_755
C1 H1A 0.8999 .
C3 C3 1.17(2) 10_755
C3 C2 1.290(18) .
C3 H3A 0.9600 .
C2 H2A 0.9600 .
loop_
_geom_hbond_atom_site_label_D
_geom_hbond_atom_site_label_H
_geom_hbond_atom_site_label_A
_geom_hbond_distance_DH
_geom_hbond_distance_HA
_geom_hbond_distance_DA
_geom_hbond_angle_DHA
_geom_hbond_site_symmetry_A
N1 H1A Cl2 0.90 2.77 3.619(9) 156.8 1_656
C1 H1A Cl2 0.90 2.77 3.619(9) 156.8 1_656
C1 H1A Cl2 0.90 2.77 3.619(9) 156.8 1_656
N1 H1A Cl2 0.90 2.77 3.619(9) 156.8 1_656
loop_
_geom_torsion_atom_site_label_1
_geom_torsion_atom_site_label_2
_geom_torsion_atom_site_label_3
_geom_torsion_atom_site_label_4
_geom_torsion
_geom_torsion_site_symmetry_1
C3 C3 C2 C1 0.000(7) 10_755
N1 C1 C2 C3 0.000(7) 10_755
C1 C1 C2 C3 0.000(7) 10_755
