#------------------------------------------------------------------------------
#$Date: 2019-11-23 08:45:56 +0200 (Sat, 23 Nov 2019) $
#$Revision: 232591 $
#$URL: file:///home/coder/svn-repositories/cod/cif/4/34/79/4347943.cif $
#------------------------------------------------------------------------------
#
# This file is available in the Crystallography Open Database (COD),
# http://www.crystallography.net/
#
# All data on this site have been placed in the public domain by the
# contributors.
#
data_4347943
loop_
_publ_author_name
'Aguirrechu-Comer\'on, Amagoia'
'Hern\'andez-Molina, Rita'
'Rodr\'iguez-Hern\'andez, Pl\'acida'
'Mu\~noz, Alfonso'
'Rodr\'iguez-Mendoza, Ulises R'
'Lav\'in, V\?\'ictor'
'Angel, Ross J.'
'Gonzalez-Platas, Javier'
_publ_section_title
;
 Experimental and ab Initio Study of
 Catena(bis(\m2-iodo)-6-methylquinoline-copper(I)) under Pressure:
 Synthesis, Crystal Structure, Electronic, and Luminescence Properties.
;
_journal_issue                   15
_journal_name_full               'Inorganic chemistry'
_journal_page_first              7476
_journal_page_last               7484
_journal_paper_doi               10.1021/acs.inorgchem.6b00796
_journal_volume                  55
_journal_year                    2016
_chemical_formula_moiety         'C10 H9 Cu I N'
_chemical_formula_sum            'C10 H9 Cu I N'
_chemical_formula_weight         333.62
_space_group_crystal_system      triclinic
_space_group_IT_number           2
_space_group_name_Hall           '-P 1'
_space_group_name_H-M_alt        'P -1'
_atom_sites_solution_hydrogens   geom
_atom_sites_solution_primary     direct
_audit_creation_date             2016-03-11
_audit_creation_method
;
Olex2 1.2
(compiled 2016.02.19 svn.r3266 for OlexSys, GUI svn.r5155)
;
_cell_angle_alpha                88.839(15)
_cell_angle_beta                 86.360(15)
_cell_angle_gamma                80.045(15)
_cell_formula_units_Z            2
_cell_length_a                   4.2128(5)
_cell_length_b                   9.5476(18)
_cell_length_c                   10.2634(19)
_cell_measurement_reflns_used    1303
_cell_measurement_temperature    298(1)
_cell_measurement_theta_max      27.4350
_cell_measurement_theta_min      2.9180
_cell_volume                     405.76(12)
_computing_cell_refinement       'CrysAlisPro 1.171.38.41l (Rigaku OD, 2015)'
_computing_data_collection       'CrysAlisPro 1.171.38.41l (Rigaku OD, 2015)'
_computing_data_reduction        'CrysAlisPro 1.171.38.41l (Rigaku OD, 2015)'
_computing_molecular_graphics    'Olex2 (Dolomanov et al., 2009)'
_computing_publication_material  'Olex2 (Dolomanov et al., 2009)'
_computing_structure_refinement  'ShelXL (Sheldrick, 2015)'
_computing_structure_solution    'ShelXT (Sheldrick, 2015)'
_diffrn_ambient_pressure         3880000(50000)
_diffrn_ambient_temperature      298(1)
_diffrn_detector                 'CCD plate'
_diffrn_detector_area_resol_mean 8.1268
_diffrn_detector_type            EosS2
_diffrn_measured_fraction_theta_full 0.356
_diffrn_measured_fraction_theta_max 0.313
_diffrn_measurement_details
;
List of Runs (angles in degrees, time in seconds):

  # Type    Start    End  Width  t~exp~   \w     \q     \k     \f   Frames
--------------------------------------------------------------------------
  1  \w    -11.00  26.00   0.50   10.00    --   26.32 -26.00   7.00   74
  2  \w    -24.00  15.00   0.50   10.00    --  -27.10 -39.00  12.00   78
  3  \w    -32.00  31.00   0.50   10.00    --   26.32  26.00  -7.00  126
  4  \w    -21.00   4.00   0.50   10.00    --   26.32  97.00 -35.00   50
  5  \w    -50.00  14.00   0.50   10.00    --  -27.10  39.00 -12.00  128
  6  \w    -46.00 -17.00   0.50   10.00    --   26.32 134.00 -57.00   58
  7  \w    -94.00 -30.00   0.50   10.00    --  -27.10 134.00 -57.00  128
  8  \w    -46.00 -17.00   0.50   10.00    --   26.32 134.00 123.00   58
  9  \w    -56.00   6.00   0.50   10.00    --  -27.10  53.00 162.00  124
 10  \w    -20.00  26.00   0.50   10.00    --   26.32  39.00 167.00   92
 11  \w   -109.00 -72.00   0.50   10.00    --  -27.10-178.00  90.00   74
 12  \w    -13.00  25.00   0.50   10.00    --   26.32 -26.00-172.00   76
;
_diffrn_measurement_device       'four-circle diffractometer'
_diffrn_measurement_device_type  'SuperNova, Dualflex, EosS2'
_diffrn_measurement_method       '\w scans'
_diffrn_orient_matrix_type
'CrysAlisPro convention (1999,Acta A55,543-557)'
_diffrn_orient_matrix_UB_11      -0.0161068000
_diffrn_orient_matrix_UB_12      0.0571229000
_diffrn_orient_matrix_UB_13      -0.0457189000
_diffrn_orient_matrix_UB_21      0.0440208000
_diffrn_orient_matrix_UB_22      -0.0489868000
_diffrn_orient_matrix_UB_23      -0.0517774000
_diffrn_orient_matrix_UB_31      -0.1647180000
_diffrn_orient_matrix_UB_32      -0.0051903000
_diffrn_orient_matrix_UB_33      -0.0049814000
_diffrn_radiation_monochromator  graphite
_diffrn_radiation_probe          x-ray
_diffrn_radiation_type           MoK\a
_diffrn_radiation_wavelength     0.71073
_diffrn_reflns_av_R_equivalents  0.0679
_diffrn_reflns_av_unetI/netI     0.0564
_diffrn_reflns_Laue_measured_fraction_full 0.356
_diffrn_reflns_Laue_measured_fraction_max 0.313
_diffrn_reflns_limit_h_max       5
_diffrn_reflns_limit_h_min       -5
_diffrn_reflns_limit_k_max       9
_diffrn_reflns_limit_k_min       -10
_diffrn_reflns_limit_l_max       11
_diffrn_reflns_limit_l_min       -11
_diffrn_reflns_number            2259
_diffrn_reflns_point_group_measured_fraction_full 0.356
_diffrn_reflns_point_group_measured_fraction_max 0.313
_diffrn_reflns_theta_full        25.242
_diffrn_reflns_theta_max         28.038
_diffrn_reflns_theta_min         2.927
_diffrn_source                   'fine-focus sealed X-ray tube'
_diffrn_source_type              'Enhance (Mo) X-ray Source'
_exptl_absorpt_coefficient_mu    6.432
_exptl_absorpt_correction_T_max  1.00000
_exptl_absorpt_correction_T_min  0.65306
_exptl_absorpt_correction_type   multi-scan
_exptl_absorpt_process_details
;
CrysAlisPro 1.171.38.41l (Rigaku Oxford Diffraction, 2015)
Empirical absorption correction using spherical harmonics,
 implemented in SCALE3 ABSPACK scaling algorithm.
;
_exptl_crystal_colour            yellow
_exptl_crystal_colour_primary    yellow
_exptl_crystal_density_diffrn    2.731
_exptl_crystal_description       plate
_exptl_crystal_F_000             316
_exptl_crystal_size_max          0.166
_exptl_crystal_size_mid          0.073
_exptl_crystal_size_min          0.05
_refine_diff_density_max         0.965
_refine_diff_density_min         -0.781
_refine_diff_density_rms         0.189
_refine_ls_extinction_coef       0.017(4)
_refine_ls_extinction_expression Fc^*^=kFc[1+0.001xFc^2^\l^3^/sin(2\q)]^-1/4^
_refine_ls_extinction_method     'SHELXL-2014/7 (Sheldrick 2014'
_refine_ls_goodness_of_fit_ref   1.159
_refine_ls_hydrogen_treatment    constr
_refine_ls_matrix_type           full
_refine_ls_number_parameters     65
_refine_ls_number_reflns         619
_refine_ls_number_restraints     0
_refine_ls_restrained_S_all      1.159
_refine_ls_R_factor_all          0.0538
_refine_ls_R_factor_gt           0.0453
_refine_ls_shift/su_max          0.000
_refine_ls_shift/su_mean         0.000
_refine_ls_structure_factor_coef Fsqd
_refine_ls_weighting_details
'w=1/[\s^2^(Fo^2^)+(0.0587P)^2^+3.5386P] where P=(Fo^2^+2Fc^2^)/3'
_refine_ls_weighting_scheme      calc
_refine_ls_wR_factor_gt          0.1069
_refine_ls_wR_factor_ref         0.1288
_reflns_Friedel_coverage         0.000
_reflns_number_gt                544
_reflns_number_total             619
_reflns_threshold_expression     'I > 2\s(I)'
_cod_data_source_file            ic6b00796_si_001.cif
_cod_data_source_block           CuI_11_388GPa
_cod_database_code               4347943
_shelx_space_group_comment
;
The symmetry employed for this shelxl refinement is uniquely defined
by the following loop, which should always be used as a source of
symmetry information in preference to the above space-group names.
They are only intended as comments.
;
_reflns_odcompleteness_completeness 35.30
_reflns_odcompleteness_iscentric 1
_reflns_odcompleteness_theta     26.32
_olex2_refinement_description
;
1. Fixed Uiso
 At 1.2 times of:
  All C(H) groups
 At 1.5 times of:
  All C(H,H,H) groups
2.a Aromatic/amide H refined with riding coordinates:
 C1(H1), C8(H8), C5(H5), C2(H2), C7(H7), C3(H3)
2.b Idealised Me refined as rotating group:
 C10(H10A,H10B,H10C)
;
_shelx_shelxl_version_number     2014/7
_olex2_submission_special_instructions 'No special instructions were received'
_oxdiff_exptl_absorpt_empirical_details
;
Empirical correction (ABSPACK) includes:
- Absorption correction using spherical harmonics
- Frame scaling
;
_oxdiff_exptl_absorpt_empirical_full_max 2.237
_oxdiff_exptl_absorpt_empirical_full_min 0.464
loop_
_space_group_symop_operation_xyz
'x, y, z'
'-x, -y, -z'
loop_
_atom_site_label
_atom_site_type_symbol
_atom_site_fract_x
_atom_site_fract_y
_atom_site_fract_z
_atom_site_U_iso_or_equiv
_atom_site_adp_type
_atom_site_occupancy
_atom_site_site_symmetry_order
_atom_site_calc_flag
_atom_site_refinement_flags_posn
I1 I 1.3459(2) 0.3437(2) 0.12008(18) 0.0133(19) Uani 1 1 d .
Cu1 Cu 1.1713(5) 0.6017(5) 0.0314(4) 0.027(4) Uani 1 1 d .
N1 N 1.007(3) 0.763(3) 0.155(2) 0.018(3) Uiso 1 1 d .
C9 C 0.766(3) 0.755(3) 0.250(3) 0.012(3) Uiso 1 1 d .
C4 C 0.595(3) 0.883(3) 0.318(3) 0.013(3) Uiso 1 1 d .
C1 C 1.080(3) 0.892(3) 0.124(3) 0.014(3) Uiso 1 1 d .
H1 H 1.2398 0.8994 0.0592 0.017 Uiso 1 1 calc R
C8 C 0.673(3) 0.620(4) 0.286(3) 0.021(3) Uiso 1 1 d .
H8 H 0.7748 0.5379 0.2432 0.025 Uiso 1 1 calc R
C5 C 0.365(3) 0.870(3) 0.411(3) 0.015(3) Uiso 1 1 d .
H5 H 0.2472 0.9520 0.4493 0.018 Uiso 1 1 calc R
C2 C 0.924(3) 1.013(4) 0.187(3) 0.023(3) Uiso 1 1 d .
H2 H 0.9923 1.0983 0.1653 0.028 Uiso 1 1 calc R
C6 C 0.296(3) 0.733(3) 0.453(3) 0.014(3) Uiso 1 1 d .
C7 C 0.445(3) 0.613(3) 0.378(3) 0.015(3) Uiso 1 1 d .
H7 H 0.3784 0.5265 0.3951 0.017 Uiso 1 1 calc R
C3 C 0.687(3) 1.013(3) 0.274(3) 0.011(3) Uiso 1 1 d .
H3 H 0.5769 1.0991 0.3081 0.014 Uiso 1 1 calc R
C10 C 0.064(4) 0.717(4) 0.562(3) 0.023(3) Uiso 1 1 d .
H10A H 0.1784 0.6886 0.6386 0.034 Uiso 1 1 calc GR
H10B H -0.0607 0.6467 0.5412 0.034 Uiso 1 1 calc GR
H10C H -0.0764 0.8066 0.5773 0.034 Uiso 1 1 calc GR
loop_
_atom_site_aniso_label
_atom_site_aniso_U_11
_atom_site_aniso_U_22
_atom_site_aniso_U_33
_atom_site_aniso_U_23
_atom_site_aniso_U_13
_atom_site_aniso_U_12
I1 0.0173(6) 0.007(3) 0.014(3) 0.007(3) -0.0027(7) 0.0020(8)
Cu1 0.0331(11) 0.020(7) 0.026(5) -0.006(6) 0.0010(16) 0.0017(18)
loop_
_atom_type_symbol
_atom_type_description
_atom_type_scat_dispersion_real
_atom_type_scat_dispersion_imag
_atom_type_scat_source
C C 0.0033 0.0016 'International Tables Vol C Tables 4.2.6.8 and 6.1.1.4'
H H 0.0000 0.0000 'International Tables Vol C Tables 4.2.6.8 and 6.1.1.4'
Cu Cu 0.3201 1.2651 'International Tables Vol C Tables 4.2.6.8 and 6.1.1.4'
I I -0.4742 1.8119 'International Tables Vol C Tables 4.2.6.8 and 6.1.1.4'
N N 0.0061 0.0033 'International Tables Vol C Tables 4.2.6.8 and 6.1.1.4'
loop_
_exptl_crystal_face_index_h
_exptl_crystal_face_index_k
_exptl_crystal_face_index_l
_exptl_crystal_face_perp_dist
-6 -4 0 0.0619
-2 -9 -10 0.0382
6 2 -2 0.0688
2 9 10 0.0324
0 -10 9 0.0250
0 10 -9 0.0250
loop_
_geom_angle_atom_site_label_1
_geom_angle_atom_site_label_2
_geom_angle_atom_site_label_3
_geom_angle
_geom_angle_site_symmetry_1
_geom_angle_site_symmetry_3
Cu1 I1 Cu1 73.99(11) 2_865 .
Cu1 I1 Cu1 104.48(17) 2_865 2_765
Cu1 I1 Cu1 61.29(11) . 2_765
I1 Cu1 I1 106.01(11) 2_865 .
I1 Cu1 I1 104.48(17) 2_865 2_765
I1 Cu1 I1 118.71(11) . 2_765
I1 Cu1 Cu1 120.99(12) 2_865 2_765
I1 Cu1 Cu1 61.5(2) . 2_765
Cu1 Cu1 I1 57.21(14) 2_765 2_765
N1 Cu1 I1 111.3(7) . 2_865
N1 Cu1 I1 120.7(10) . .
N1 Cu1 I1 94.6(6) . 2_765
N1 Cu1 Cu1 124.7(5) . 2_765
C9 N1 Cu1 121.9(16) . .
C1 N1 Cu1 118.3(14) . .
C1 N1 C9 118.1(16) . .
N1 C9 C4 121(3) . .
N1 C9 C8 120.7(16) . .
C8 C9 C4 118.5(19) . .
C5 C4 C9 119(3) . .
C5 C4 C3 125.1(18) . .
C3 C4 C9 115.8(19) . .
N1 C1 H1 119.1 . .
N1 C1 C2 122(2) . .
C2 C1 H1 119.1 . .
C9 C8 H8 119.9 . .
C7 C8 C9 120.1(18) . .
C7 C8 H8 119.9 . .
C4 C5 H5 119.2 . .
C4 C5 C6 121.5(19) . .
C6 C5 H5 119.2 . .
C1 C2 H2 118.3 . .
C3 C2 C1 123(3) . .
C3 C2 H2 118.3 . .
C5 C6 C10 121.9(17) . .
C7 C6 C5 117(2) . .
C7 C6 C10 121(3) . .
C8 C7 C6 123(3) . .
C8 C7 H7 118.7 . .
C6 C7 H7 118.7 . .
C4 C3 H3 120.1 . .
C2 C3 C4 120(2) . .
C2 C3 H3 120.1 . .
C6 C10 H10A 109.5 . .
C6 C10 H10B 109.5 . .
C6 C10 H10C 109.5 . .
H10A C10 H10B 109.5 . .
H10A C10 H10C 109.5 . .
H10B C10 H10C 109.5 . .
loop_
_geom_bond_atom_site_label_1
_geom_bond_atom_site_label_2
_geom_bond_distance
_geom_bond_site_symmetry_2
I1 Cu1 2.600(3) 2_865
I1 Cu1 2.728(4) 2_765
I1 Cu1 2.609(6) .
Cu1 I1 2.600(3) 2_865
Cu1 I1 2.728(4) 2_765
Cu1 Cu1 2.722(5) 2_765
Cu1 N1 2.013(12) .
N1 C9 1.38(3) .
N1 C1 1.34(4) .
C9 C4 1.47(2) .
C9 C8 1.44(5) .
C4 C5 1.33(3) .
C4 C3 1.42(5) .
C1 H1 0.9300 .
C1 C2 1.37(2) .
C8 H8 0.9300 .
C8 C7 1.32(3) .
C5 H5 0.9300 .
C5 C6 1.44(5) .
C2 H2 0.9300 .
C2 C3 1.30(3) .
C6 C7 1.42(2) .
C6 C10 1.46(4) .
C7 H7 0.9300 .
C3 H3 0.9300 .
C10 H10A 0.9600 .
C10 H10B 0.9600 .
C10 H10C 0.9600 .
loop_
_geom_torsion_atom_site_label_1
_geom_torsion_atom_site_label_2
_geom_torsion_atom_site_label_3
_geom_torsion_atom_site_label_4
_geom_torsion
Cu1 N1 C9 C4 -164.9(17)
Cu1 N1 C9 C8 14(3)
Cu1 N1 C1 C2 166.0(18)
N1 C9 C4 C5 -179(2)
N1 C9 C4 C3 2(3)
N1 C9 C8 C7 179(2)
N1 C1 C2 C3 -4(4)
C9 N1 C1 C2 1(3)
C9 C4 C5 C6 4(3)
C9 C4 C3 C2 -5(3)
C9 C8 C7 C6 -4(4)
C4 C9 C8 C7 -1(4)
C4 C5 C6 C7 -10(3)
C4 C5 C6 C10 175(2)
C1 N1 C9 C4 0(3)
C1 N1 C9 C8 179(2)
C1 C2 C3 C4 6(4)
C8 C9 C4 C5 1(3)
C8 C9 C4 C3 -177(2)
C5 C4 C3 C2 177(2)
C5 C6 C7 C8 10(4)
C3 C4 C5 C6 -178(2)
C10 C6 C7 C8 -174(3)
loop_
_exptl_oxdiff_crystal_face_indexfrac_h
_exptl_oxdiff_crystal_face_indexfrac_k
_exptl_oxdiff_crystal_face_indexfrac_l
_exptl_oxdiff_crystal_face_x
_exptl_oxdiff_crystal_face_y
_exptl_oxdiff_crystal_face_z
-5.8750 -4.1911 -0.4157 -0.1258 -0.0318 0.9915
-1.9870 -9.4598 -10.1829 -0.0428 0.9032 0.4271
5.8358 2.4077 -1.7790 0.1249 0.2311 -0.9649
1.7586 9.4338 10.3377 0.0379 -0.9200 -0.3901
0.0281 -9.9470 9.4348 -1.0000 0.0000 0.0000
-0.0281 9.9470 -9.4348 1.0000 0.0000 0.0000
