#------------------------------------------------------------------------------
#$Date: 2019-11-23 04:21:07 +0200 (Sat, 23 Nov 2019) $
#$Revision: 232104 $
#$URL: file:///home/coder/svn-repositories/cod/cif/4/34/70/4347001.cif $
#------------------------------------------------------------------------------
#
# This file is available in the Crystallography Open Database (COD),
# http://www.crystallography.net/
#
# All data on this site have been placed in the public domain by the
# contributors.
#
data_4347001
loop_
_publ_author_name
'Becker, Sabine'
'D\"urr, Maximilian'
'Miska, Andreas'
'Becker, Jonathan'
'Gawlig, Christopher'
'Behrens, Ulrich'
'Ivanovi\'c-Burmazovi\'c, Ivana'
'Schindler, Siegfried'
_publ_section_title
;
 Copper Chloride Catalysis: Do \m4-Oxido Copper Clusters Play a
 Significant Role?
;
_journal_issue                   8
_journal_name_full               'Inorganic chemistry'
_journal_page_first              3759
_journal_page_last               3766
_journal_paper_doi               10.1021/acs.inorgchem.5b02576
_journal_volume                  55
_journal_year                    2016
_chemical_formula_sum            'C1.5 H5 Cl2 Cu O1.5'
_chemical_formula_weight         181.49
_space_group_crystal_system      monoclinic
_space_group_IT_number           12
_space_group_name_Hall           '-C 2y'
_space_group_name_H-M_alt        'C 1 2/m 1'
_atom_sites_solution_hydrogens   mixed
_audit_creation_method           SHELXL-2014/7
_audit_update_record
;
2016-03-02 # Formatted by publCIF

;
_cell_angle_alpha                90
_cell_angle_beta                 93.88(3)
_cell_angle_gamma                90
_cell_formula_units_Z            4
_cell_length_a                   17.836(4)
_cell_length_b                   3.2840(7)
_cell_length_c                   9.5930(19)
_cell_measurement_reflns_used    220
_cell_measurement_temperature    190(2)
_cell_measurement_theta_max      25.03
_cell_measurement_theta_min      1.00
_cell_volume                     560.6(2)
_computing_cell_refinement
;
 Denzo/Scalepack (HKL Research, Inc., 1997)

;
_computing_data_collection       'Bruker AXS Collect (2009)'
_computing_data_reduction
;
 Denzo/Scalepack (HKL Research, Inc., 1997)

;
_computing_molecular_graphics    'ShelXle (Huebschle, 2014)'
_computing_publication_material  'Ortep 3v2'
_computing_structure_refinement  'SHELXL-2014/7 (Sheldrick, 2014)'
_computing_structure_solution    'SHELXS-97 (Sheldrick, 2008)'
_diffrn_ambient_temperature      190(2)
_diffrn_measured_fraction_theta_full 0.990
_diffrn_measured_fraction_theta_max 0.990
_diffrn_measurement_device_type  'Bruker Nonius KappaCCD'
_diffrn_measurement_method       'omega and phi scans'
_diffrn_radiation_type           MoK\a
_diffrn_radiation_wavelength     0.71073
_diffrn_reflns_av_R_equivalents  0.0540
_diffrn_reflns_av_unetI/netI     0.0648
_diffrn_reflns_Laue_measured_fraction_full 0.990
_diffrn_reflns_Laue_measured_fraction_max 0.990
_diffrn_reflns_limit_h_max       19
_diffrn_reflns_limit_h_min       -20
_diffrn_reflns_limit_k_max       3
_diffrn_reflns_limit_k_min       -3
_diffrn_reflns_limit_l_max       11
_diffrn_reflns_limit_l_min       -11
_diffrn_reflns_number            1775
_diffrn_reflns_point_group_measured_fraction_full 0.990
_diffrn_reflns_point_group_measured_fraction_max 0.990
_diffrn_reflns_theta_full        24.976
_diffrn_reflns_theta_max         24.976
_diffrn_reflns_theta_min         3.019
_diffrn_source                   'Bruker Nonius FR591 rotating anode'
_exptl_absorpt_coefficient_mu    4.713
_exptl_absorpt_correction_T_max  0.7456
_exptl_absorpt_correction_T_min  0.5104
_exptl_absorpt_correction_type   multi-scan
_exptl_absorpt_process_details   SADABS-2014/5
_exptl_crystal_colour            orange
_exptl_crystal_density_diffrn    2.150
_exptl_crystal_description       needle
_exptl_crystal_F_000             356
_exptl_crystal_size_max          0.500
_exptl_crystal_size_mid          0.030
_exptl_crystal_size_min          0.010
_refine_diff_density_max         0.723
_refine_diff_density_min         -0.647
_refine_diff_density_rms         0.157
_refine_ls_extinction_method     none
_refine_ls_goodness_of_fit_ref   1.184
_refine_ls_hydrogen_treatment    mixed
_refine_ls_matrix_type           full
_refine_ls_number_parameters     52
_refine_ls_number_reflns         577
_refine_ls_number_restraints     4
_refine_ls_restrained_S_all      1.180
_refine_ls_R_factor_all          0.0656
_refine_ls_R_factor_gt           0.0469
_refine_ls_shift/su_max          0.000
_refine_ls_shift/su_mean         0.000
_refine_ls_structure_factor_coef Fsqd
_refine_ls_weighting_details
'w=1/[\s^2^(Fo^2^)+(0.0178P)^2^+6.4514P] where P=(Fo^2^+2Fc^2^)/3'
_refine_ls_weighting_scheme      calc
_refine_ls_wR_factor_gt          0.0987
_refine_ls_wR_factor_ref         0.1101
_reflns_Friedel_coverage         0.000
_reflns_number_gt                490
_reflns_number_total             577
_reflns_threshold_expression     'I > 2\s(I)'
_cod_data_source_file            ic5b02576_si_002.cif
_cod_data_source_block           schindler13114
_cod_original_sg_symbol_H-M      'C 2/m'
_cod_original_formula_sum        'C1.50 H5 Cl2 Cu O1.50'
_cod_database_code               4347001
_shelx_shelxl_version_number     2014/7
_shelx_space_group_comment
;
The symmetry employed for this shelxl refinement is uniquely defined
by the following loop, which should always be used as a source of
symmetry information in preference to the above space-group names.
They are only intended as comments.
;
_shelx_estimated_absorpt_t_min   0.202
_shelx_estimated_absorpt_t_max   0.954
_shelx_res_file
;

    schindler13114.res created by SHELXL-2014/7


TITL s-114r1 in C2/m
CELL  0.71073 17.836 3.284 9.593 90.00 93.88 90.00
ZERR   4.0    0.0036   0.0007   0.0019   0.000   0.030   0.000
LATT  7
SYMM  -X, Y, -Z
SFAC  C H O CL CU
UNIT  6 20 6 8 4
LIST 4 ! automatically inserted. Change 6 to 4 for CHECKCIF!!
OMIT -4 50
L.S. 6
FMAP 2
PLAN 5
ACTA
TEMP -83.15
SIZE 0.5x0.03x0.01
BOND $H
EQIV $1 X, 2-Y, Z
FREE C2 C2_$1
DFIX 0.84 0.01 O1 H1 O1 H2
DFIX 1.328 0.02 H1 H2
SADI 0.03 CU1 H1 CU1 H2
HTAB
WGHT    0.017800    6.451400
FVAR       0.16120   0.10176
CU1   5    0.834787    0.000000    0.392715    10.50000    0.02568    0.01262 =
         0.02602    0.00000    0.00140    0.00000
CL1   4    0.841166    0.500000    0.558363    10.50000    0.03242    0.01316 =
         0.02745    0.00000    0.00138    0.00000
CL2   4    0.810747    0.500000    0.231551    10.50000    0.03655    0.01411 =
         0.02646    0.00000   -0.00011    0.00000
O1    3    0.961685    0.000000    0.371772    10.50000    0.02222    0.08981 =
         0.03113    0.00000    0.00314    0.00000
H1    2    0.983557    0.000000    0.297283    10.50000   21.00000
H2    2    0.995664    0.000000    0.436207    10.50000   21.00000
REM Aceton (halb, nur in jeder zweiten Zelle)
O2    3    1.013884    0.500000    0.190742    10.25000    0.01437    0.03329 =
         0.05233    0.00000    0.01571    0.00000
C1    1    1.069981    0.500000    0.124560    10.25000    0.03268    0.02432 =
         0.02944    0.00000   -0.00573    0.00000
C2    1    1.107588    0.886490    0.090261    10.50000    0.05239    0.02731 =
         0.04464    0.00547    0.01103   -0.00956
AFIX 137
H2A   2    1.123184    0.873805   -0.005657    10.50000   -1.50000
H2B   2    1.151841    0.927272    0.155012    10.50000   -1.50000
H2C   2    1.072594    1.113810    0.098760    10.50000   -1.50000
PART 0
AFIX   0
HKLF 4

REM  s-114r1 in C2/m
REM R1 =  0.0469 for     490 Fo > 4sig(Fo)  and  0.0656 for all     577 data
REM     52 parameters refined using      4 restraints

END

WGHT      0.0178      6.4514

REM Instructions for potential hydrogen bonds
EQIV $2 x, y-1, z
HTAB O1 O2_$2
EQIV $3 -x+2, -y, -z+1
HTAB O1 O1_$3
EQIV $4 -x+2, -y+1, -z
HTAB C2 Cl2_$4
EQIV $5 x+1/2, y+1/2, z
HTAB C2 Cl2_$5
EQIV $6 x, y+1, z
HTAB C2 O2_$6

REM Highest difference peak  0.723,  deepest hole -0.647,  1-sigma level  0.157
Q1    1   0.9208  0.0000  0.3694  10.50000  0.05    0.72
Q2    1   1.1476  1.0000  0.1953  10.50000  0.05    0.69
Q3    1   1.1778  0.5000  0.0533  10.50000  0.05    0.58
Q4    1   0.8443  0.5000  0.6600  10.50000  0.05    0.58
Q5    1   0.7311  0.5000  0.3537  10.50000  0.05    0.57
;
_shelx_res_checksum              43108
_shelx_hkl_file
;
   4   0   0  166.20    5.64
  -4   0   0  188.11   12.73
  -6   0   0  823.98   46.74
   6   0   0  792.03   45.24
   8   0   0  155.13   12.35
  -8   0   0  144.41    9.04
  10   0   0   57.60    4.61
 -10   0   0   55.46    2.81
 -12   0   0  149.49   12.61
  12   0   0  153.69   17.53
  14   0   0   31.83    4.15
 -14   0   0   43.12    3.93
 -16   0   0   33.06    4.08
  16   0   0   27.22    3.72
 -18   0   0   22.82    3.25
  18   0   0   23.00    2.66
 -20   0   0    2.23    1.70
 -22   0   0    9.65    3.18
  -1  -1   0   11.90    0.73
  -1   1   0   11.12    0.78
   1   1   0   11.91    0.85
  -3  -1   0    0.63    0.35
  -3  -1   0    0.45    1.28
  -3   1   0    1.55    0.46
   3   1   0    0.21    0.92
   5  -1   0   13.89    1.01
  -5  -1   0   13.37    0.65
  -5  -1   0   12.77    0.92
  -5   1   0   15.31    1.07
   5   1   0   12.45    1.40
   7  -1   0   21.74    1.78
  -7  -1   0   25.45    3.80
  -7   1   0   20.87    1.63
   7   1   0   25.45    2.25
   9  -1   0   34.29    2.86
  -9  -1   0   30.57    3.33
  -9   1   0   32.25    1.77
   9   1   0   34.02    4.29
 -11  -1   0    1.75    1.63
  11  -1   0    4.46    1.45
  11   1   0    2.59    1.14
 -11   1   0    2.63    1.24
  13  -1   0    8.66    1.67
 -13  -1   0   13.22    2.78
 -13   1   0    9.09    3.68
  13   1   0    6.55    1.48
  15  -1   0   60.30    6.86
 -15  -1   0   62.28    6.15
 -15   1   0   60.66    4.18
  15   1   0   66.49   11.19
  17  -1   0    6.28    5.05
 -17  -1   0    2.86    1.36
 -17   1   0    2.72    1.32
  19  -1   0    1.55    2.08
 -19  -1   0    6.47    1.79
 -19   1   0    9.64    1.72
 -21  -1   0   12.78    2.03
 -21   1   0   13.67    3.41
   0   2   0  761.63   40.01
  -2  -2   0   82.59    5.55
  -2  -2   0   85.74    5.61
   2   2   0   86.31    2.90
   4  -2   0   71.02    3.72
  -4  -2   0   59.23    6.38
   4   2   0   60.41    8.32
   4   2   0   66.65    3.06
  -4   2   0   59.93    3.36
  -6  -2   0  344.67   27.05
  -6  -2   0  334.91   14.51
   6  -2   0  353.24   25.57
   6   2   0  347.28   50.34
  -6   2   0  346.67   25.26
  -8  -2   0   82.27    6.04
  -8  -2   0   83.62    4.35
   8  -2   0   84.40    5.15
   8   2   0   81.65    6.75
  -8   2   0   84.77    6.43
  10  -2   0   31.32    2.62
 -10  -2   0   26.11    1.56
 -10  -2   0   27.29    4.37
 -10   2   0   31.67    2.90
  10   2   0   32.75    2.92
 -12  -2   0   95.34    5.48
  12  -2   0   96.99    8.38
 -12  -2   0   89.17    3.40
 -12   2   0  100.27    5.30
  12   2   0   97.60   17.04
 -14  -2   0   16.65    2.27
  14  -2   0   10.68    2.25
  14   2   0    9.75    2.09
 -14   2   0   14.41    1.87
  16  -2   0   14.31    2.90
 -16  -2   0   15.02    1.99
 -16   2   0   10.87    1.93
 -18  -2   0   14.79    2.06
 -18   2   0   16.17    3.06
 -20  -2   0    6.19   14.31
   1   3   0   -0.46    0.80
  -1   3   0    1.52    0.70
  -3   3   0    1.23    0.63
   3   3   0    0.67    0.91
  -5  -3   0    1.10    0.41
  -5  -3   0    2.12    0.93
  -7  -3   0    2.11    1.55
  -9  -3   0    8.28    2.37
   9  -3   0   29.19   16.05
   9   3   0    7.28    1.90
  -9   3   0    9.26    0.95
 -11  -3   0    0.83    1.34
  11  -3   0   -0.72    1.22
  11   3   0   -0.96    1.12
 -13  -3   0    8.21    1.44
 -15  -3   0   15.09    4.45
   0   4   0  126.58    5.01
  -2   4   0   30.95    3.42
   2   4   0   30.59    1.79
  -4   4   0   12.46    1.51
  -6   4   0   89.47    5.31
  -8   4   0   26.40    2.49
 -22   0   1   13.60    2.80
 -20   0   1    3.13    2.39
  18   0  -1   22.40    3.42
 -18   0   1   33.66    3.59
  16   0  -1  110.94   14.67
 -16   0   1  117.72   11.05
 -14   0   1    6.71    1.45
  12   0  -1  189.83   11.60
 -12   0   1  163.17    7.51
 -10   0   1  400.61   29.54
  10   0  -1  391.81   37.61
  -8   0   1    1.32    0.92
   8   0  -1    1.39    0.97
  -6   0   1  798.33   32.14
   6   0  -1  818.29   38.51
   4   0  -1  505.33   34.50
  -4   0   1  484.59   22.89
   2   0  -1    9.93    0.76
  -2   0   1    9.03    0.70
  -2   0  -1  388.62   32.81
   2   0   1  377.23   22.41
  -4   0  -1   44.36    3.09
   4   0   1   46.62    3.21
  -6   0  -1  121.68    8.85
   6   0   1  121.33    5.56
  -8   0  -1  159.52    9.90
   8   0   1  178.19   45.67
  10   0   1   21.20    1.82
 -10   0  -1   27.83    2.18
  12   0   1   27.21    2.72
 -12   0  -1   25.38    1.88
  14   0   1    8.21    1.74
 -14   0  -1    6.52    1.72
 -16   0  -1   14.23    3.03
  16   0   1   15.93    3.10
 -18   0  -1   22.15    3.05
 -20   0  -1    1.52    2.02
 -22   0  -1    2.69    2.00
 -21  -1   1    1.68    1.88
 -21   1   1    5.54    3.40
  19  -1  -1    9.55    2.30
 -19  -1   1   10.19    2.06
 -19   1   1    9.72    2.26
  17  -1  -1   25.12    5.56
 -17  -1   1   13.13    1.75
 -17   1   1   16.97    2.27
  15  -1  -1    4.18    1.79
 -15  -1   1    5.50    4.37
  15   1  -1   10.15    3.37
 -15   1   1    5.10    1.42
 -13  -1   1   18.07    3.07
  13  -1  -1   19.02    2.31
 -13   1   1   21.69    2.01
  13   1  -1   12.62    2.57
  11  -1  -1   33.64    2.85
 -11  -1   1   35.36    3.40
  11   1  -1   31.79    5.60
 -11   1   1   35.37    2.87
  -9  -1   1    3.95    0.98
  -9   1   1    3.10    1.02
   9   1  -1    7.86    2.56
   7  -1  -1   40.94    3.26
  -7  -1   1   44.23    2.14
   7   1  -1   40.21    3.73
  -7   1   1   42.19    2.56
  -5  -1   1    3.37    0.91
   5  -1  -1    6.54    0.86
  -5  -1   1    5.30    0.41
   5   1  -1    6.32    0.95
  -5   1   1    5.94    0.94
  -3  -1   1   18.50    2.01
  -3  -1   1   19.21    1.20
   3   1  -1   19.26    0.77
  -3   1   1   19.10    1.06
   3   1  -1   17.87    2.07
  -1  -1   1   61.14    3.62
  -1   1   1   64.97    4.78
  -1   1   1   69.10    4.08
   1   1  -1   66.43    2.97
  -1  -1  -1    3.95    0.56
  -1  -1  -1    3.67    0.89
   1   1   1    3.80    0.52
   1   1   1    4.94    0.80
  -1   1  -1    4.20    0.86
  -3  -1  -1   55.44    3.00
   3  -1   1   57.91    3.82
  -3  -1  -1   57.40    6.00
  -3   1  -1   55.51    2.64
   3   1   1   55.90    4.81
  -5  -1  -1  121.28    7.13
   5  -1   1  115.13    6.79
  -5   1  -1  114.93    5.41
   5   1   1  119.10   11.78
   7  -1   1   29.60    2.39
  -7  -1  -1   28.02    2.21
  -7   1  -1   28.29    1.58
   7   1   1   25.21    2.43
   9  -1   1  185.27   15.53
  -9  -1  -1  182.82   18.59
  -9   1  -1  188.38   10.16
   9   1   1  184.18   10.20
  11  -1   1  117.79    9.60
 -11  -1  -1  121.31   11.03
 -11   1  -1  123.06    5.86
  11   1   1  125.45   14.52
  13  -1   1   17.09    1.71
 -13  -1  -1   20.45    2.78
 -13   1  -1   19.32    6.65
  13   1   1   15.51    1.80
  15  -1   1   48.73    4.18
 -15  -1  -1   48.29    5.14
 -15   1  -1   41.88    3.62
  15   1   1   49.29    3.21
 -17  -1  -1   73.81    9.51
  17  -1   1   54.66   10.66
 -17   1  -1   69.69    5.27
 -19  -1  -1   10.49    2.85
  19  -1   1   16.08    2.82
 -19   1  -1   12.79    2.34
 -21  -1  -1    2.60    1.82
 -21   1  -1    3.85    2.66
 -20  -2   1   14.45   13.68
 -18  -2   1   24.89    2.71
 -18   2   1   24.27    3.46
  16  -2  -1   65.92    9.24
 -16  -2   1   57.54    9.63
 -16   2   1   59.52    3.34
 -14  -2   1    4.61    1.88
  14  -2  -1    5.54    1.58
 -14  -2   1    4.78    0.99
  14   2  -1    1.18    2.02
 -14   2   1    5.89    1.39
 -12  -2   1  120.61   16.10
  12  -2  -1  113.70   11.04
 -12  -2   1  123.38    6.01
 -12   2   1  121.52    9.45
  12   2  -1  117.11   16.63
 -10  -2   1  191.23    8.84
 -10  -2   1  183.76   15.88
  10  -2  -1  172.63   10.48
  10   2  -1  183.64   23.85
 -10   2   1  185.19   17.41
  -8  -2   1   -0.21    0.46
  -8  -2   1    1.18    1.18
   8  -2  -1   -0.30    0.79
  -8   2   1    0.05    0.72
   8   2  -1   -0.56    1.06
  -6  -2   1  272.54   28.91
  -6  -2   1  267.14   12.76
   6  -2  -1  276.55   14.19
   6   2  -1  258.77   47.21
  -6   2   1  288.21   22.72
  -4  -2   1  283.09   15.06
  -4  -2   1  295.87   28.86
  -4   2   1  215.83   17.83
   4   2  -1  296.49   13.32
  -4   2   1  285.97   20.58
  -2  -2   1   10.54    1.77
   2   2  -1    9.97    2.10
   0  -2   1  197.84   13.29
   0  -2   1  193.89   11.29
   0   2   1  188.17    6.00
   0   2  -1  200.46    7.24
  -2  -2  -1  188.47   12.67
   2  -2   1  196.73    7.83
  -2   2  -1  199.99   14.76
   2   2   1  183.35    6.57
  -4  -2  -1    6.58    0.95
  -4  -2  -1    5.58    0.68
   4   2   1    6.35    0.75
  -4   2  -1    6.66    0.57
   6  -2   1   66.57    4.53
  -6  -2  -1   67.04    2.35
  -6  -2  -1   63.25    8.43
  -6   2  -1   63.11    5.12
   6   2   1   70.85    5.24
  -8  -2  -1   47.93    1.70
  -8  -2  -1   45.44    5.67
   8  -2   1   50.13    3.71
   8   2   1   42.29    5.45
  -8   2  -1  151.12   60.88
 -10  -2  -1    4.58    0.85
 -10  -2  -1    8.55    1.39
  10  -2   1    5.54    6.60
  10   2   1    4.60    3.06
 -10   2  -1    4.34    0.92
  12  -2   1   17.50    2.48
 -12  -2  -1   13.03    0.90
 -12  -2  -1   17.01    2.68
 -12   2  -1   18.97    2.49
  12   2   1   15.24    3.40
 -14  -2  -1    6.30    1.52
  14  -2   1    0.89    1.72
 -14   2  -1    3.61    1.55
  14   2   1    4.63    2.01
  16  -2   1   12.52    4.34
 -16  -2  -1    8.63    1.68
 -16   2  -1   10.99    1.83
 -18  -2  -1   19.10    2.87
 -18   2  -1   10.66    2.22
 -20  -2  -1    4.00    2.26
 -15  -3   1    0.86    1.55
 -13  -3   1    4.90    1.81
 -11  -3   1    8.89    2.48
  -9  -3   1    3.46    1.53
  -9  -3   1    4.19    1.60
  -9   3   1    1.33    0.77
  -7  -3   1    5.89    0.96
  -7  -3   1    0.39    0.87
  -5  -3   1    4.07    0.95
  -5  -3   1    3.00    0.60
  -3   3   1    7.56    2.50
  -1   3   1   17.65    1.50
   1   3  -1   15.79    1.08
   1   3   1    1.06    0.99
  -1   3  -1    1.04    0.62
  -3   3  -1   26.65    1.36
   3   3   1   26.33    1.49
  -7  -3  -1    3.92    1.42
   7  -3   1    2.29    0.99
  -7   3  -1    0.90    0.58
  -9  -3  -1   30.56    7.22
   9  -3   1   24.49    4.90
   9   3   1   31.17    4.07
  -9   3  -1   37.93    3.47
 -11  -3  -1   44.96    7.70
  11   3   1   48.10    4.99
 -13  -3  -1    5.70    1.83
 -15  -3  -1   25.51    4.67
  -8   4   1    1.03    3.17
  -6   4   1   59.05    3.29
  -4   4   1   86.14    5.50
  -2   4   1    2.57    1.29
   2   4  -1    1.45    0.92
   0   4  -1   45.29    3.06
   0   4   1   45.37    2.22
  -2   4  -1   42.85    2.38
   2   4   1   50.37    6.18
  -4   4  -1    1.94    1.59
  -6   4  -1   13.54    1.84
 -22   0   2   25.86    3.73
 -20   0   2   13.01    2.29
  18   0  -2   17.20    4.04
 -18   0   2   16.66    1.94
 -16   0   2  116.48   10.54
  16   0  -2  105.45   18.52
  14   0  -2   45.91    5.20
 -14   0   2   64.45    8.56
 -12   0   2   41.95    3.25
  12   0  -2   37.15    4.20
  10   0  -2  153.31    7.79
 -10   0   2  145.40    7.03
  -8   0   2  180.32   12.58
   8   0  -2  180.10   16.78
   6   0  -2   22.51    2.35
  -6   0   2   24.58    2.05
  -4   0   2   80.11    4.32
   4   0  -2  104.31    7.61
  -2   0   2  209.49   17.23
   0   0   2    0.89    0.59
   0   0  -2    1.23    0.59
  -2   0  -2  175.96    8.44
   2   0   2  187.46   11.43
   4   0   2   74.91    6.91
  -4   0  -2   70.18    4.97
   6   0   2    2.56    0.74
  -6   0  -2    1.15    1.16
   8   0   2   31.25    1.97
  -8   0  -2   31.08    2.30
 -10   0  -2   14.26    1.39
  10   0   2   11.12    1.24
  12   0   2   13.12    1.83
 -12   0  -2   18.09    8.37
 -14   0  -2   18.56    1.62
  14   0   2   24.16    3.08
 -16   0  -2    3.01    3.59
  16   0   2    1.74    4.10
 -18   0  -2   15.96    1.79
 -20   0  -2    9.20    2.76
 -22   0  -2    1.97    1.99
 -21  -1   2    8.64    2.10
 -21   1   2    6.39    2.31
 -19  -1   2    1.21    1.62
  19  -1  -2    2.20    2.08
 -19   1   2    0.02    1.73
 -17  -1   2   36.21    3.76
  17  -1  -2   41.71    6.08
 -17   1   2   37.23    3.42
 -15  -1   2   11.16    5.93
  15  -1  -2    5.24    1.50
  15   1  -2    6.52    1.84
 -15   1   2    6.60    1.40
  13  -1  -2   10.84    2.24
 -13  -1   2   14.64    2.42
  13   1  -2    8.33    1.78
 -13   1   2    9.98    2.14
 -11  -1   2   17.31    2.32
  11  -1  -2   24.38    2.09
  11   1  -2   19.53    1.96
 -11   1   2   20.45    2.21
   9  -1  -2   10.38    1.28
  -9  -1   2    9.99    1.48
  -9   1   2   11.53    3.67
   9   1  -2   10.47    1.57
  -7  -1   2  127.32    4.57
  -7  -1   2  113.94    9.54
   7  -1  -2  113.38    8.25
  -7   1   2  115.48    5.27
   7   1  -2  113.47   16.22
  -5  -1   2   76.86    7.57
   5  -1  -2   86.79    4.34
  -5  -1   2   80.64    3.37
  -5   1   2   84.50    4.51
   5   1  -2   79.06    8.18
  -3  -1   2    0.39    0.26
  -3  -1   2    0.17    0.52
  -3  -1   2   -0.53    0.79
   3   1  -2    0.88    0.51
  -3   1   2    0.73    0.63
  -3   1   2    0.18    0.36
   1  -1  -2  516.49   34.75
  -1  -1   2  483.25   26.61
  -1   1   2  494.81   22.41
   1   1  -2  514.35   25.41
  -1   1   2  519.24   44.02
   1   1  -2  547.15   33.68
  -1  -1  -2  299.56   17.40
   1  -1   2  298.30   20.18
  -1  -1  -2  289.89   15.55
  -1   1  -2  300.57   23.72
   1   1   2  285.33   11.38
   1   1   2  292.06   20.09
  -3  -1  -2   37.00    2.71
   3  -1   2   37.05    2.77
  -3  -1  -2   37.70    1.39
   3   1   2   38.35    4.30
  -3   1  -2   39.59    2.31
   5  -1   2  439.51   27.32
  -5  -1  -2  447.44   38.60
   5   1   2  461.70   46.15
  -5   1  -2  461.02   22.80
   7  -1   2  308.55   18.11
  -7  -1  -2  311.12   31.77
  -7   1  -2  318.09   15.37
   7   1   2  327.63   30.58
   9  -1   2    5.60    1.16
  -9  -1  -2    5.24    1.55
  -9   1  -2    6.58    1.06
   9   1   2    4.83    2.73
  11  -1   2  204.78   16.03
 -11  -1  -2  195.67   14.73
 -11   1  -2  198.95   14.44
  11   1   2  201.14   21.99
 -13  -1  -2  130.33    6.58
  13  -1   2  141.95   16.42
 -13   1  -2  138.45    8.17
  13   1   2  129.57   11.44
 -15  -1  -2    2.09    1.31
  15  -1   2   -1.44    1.30
  15   1   2    0.33    2.01
 -15   1  -2    2.81    1.30
  17  -1   2   68.12   11.81
 -17  -1  -2   72.76   10.22
 -17   1  -2   71.41    4.83
 -19  -1  -2   14.56    3.44
 -19   1  -2   15.61    2.86
 -21  -1  -2    0.26    2.28
 -21   1  -2   -3.17    1.68
 -20  -2   2    5.95    1.94
 -18  -2   2   14.11    4.54
 -18   2   2   14.98    2.94
 -16  -2   2   66.32   10.35
  16  -2  -2   56.02    6.02
 -16   2   2   63.59    5.94
  14  -2  -2   28.82    2.60
 -14  -2   2   30.10    4.68
 -14  -2   2   29.38    3.12
 -14   2   2   24.04    3.57
 -12  -2   2   17.92    1.00
 -12  -2   2   12.12    2.33
  12  -2  -2   12.27    2.23
 -12   2   2   19.31    2.25
 -10  -2   2  114.53   15.55
  10  -2  -2  118.14    7.39
 -10  -2   2  114.24    5.55
  10   2  -2  565.53  187.19
 -10   2   2  111.40    7.36
   8  -2  -2   68.91    4.17
  -8  -2   2   71.71    5.63
  -8  -2   2   68.70    3.61
   8   2  -2   63.87    9.75
  -8   2   2   70.83    3.89
  -6  -2   2    8.06    0.70
  -6  -2   2    6.49    1.48
  -6  -2   2    9.23    1.08
  -6   2   2   11.98    1.25
  -4  -2   2   63.13    3.89
  -4  -2   2   59.93    6.35
   4   2  -2   65.14    2.66
  -4   2   2   57.99    3.56
  -4   2   2   63.23    5.54
  -2  -2   2   49.28    5.52
  -2  -2   2   51.00    3.33
   2   2  -2   45.65    2.30
  -2   2   2   47.94    3.17
  -2   2   2   49.14    2.31
  -2   2   2   48.12    2.97
   0  -2   2    1.79    0.49
   0   2  -2    1.25    0.82
   0   2   2    0.50    0.36
  -2  -2  -2   39.14    2.82
   2  -2   2   44.07    2.39
  -2   2  -2   41.06    2.87
   2   2   2   42.71    2.04
   2   2   2   39.98    3.28
  -4  -2  -2    1.53    0.77
   4  -2   2    2.17    0.72
  -4  -2  -2    1.57    0.47
  -4   2  -2    1.34    0.57
   4   2   2    2.22    0.79
  -6  -2  -2    1.56    0.82
  -6  -2  -2    1.84    0.70
   6  -2   2    0.21    0.77
  -6   2  -2    1.06    0.85
   6   2   2    5.24    1.97
   8  -2   2   16.28    1.45
  -8  -2  -2   12.06    0.94
  -8  -2  -2    9.53    2.34
   8   2   2    9.68    2.29
  -8   2  -2   12.89    1.19
 -10  -2  -2    7.05    1.42
  10  -2   2    3.90    1.23
 -10  -2  -2    4.98    1.18
 -10   2  -2    3.46    0.94
  10   2   2    5.41    3.27
 -12  -2  -2   13.19    1.08
 -12  -2  -2   13.35    1.64
  12  -2   2   12.58    1.44
 -12   2  -2   14.96    2.74
  12   2   2   13.39    1.77
 -14  -2  -2    9.14    1.56
  14  -2   2   10.28    4.10
 -14   2  -2   10.51    1.62
 -16  -2  -2    2.11    1.33
  16  -2   2    1.57    1.94
 -16   2  -2    2.74    1.31
 -18  -2  -2   13.38    3.58
 -18   2  -2    9.07    2.06
 -15  -3   2    6.81    3.66
 -13  -3   2    5.59    4.84
 -11  -3   2   13.48    2.13
  -9  -3   2    1.45    1.26
  -9  -3   2    0.98    1.12
  -9   3   2    1.07    0.86
  -9   3   2    0.52    0.59
  -7  -3   2   31.43    4.07
  -7  -3   2   25.03    4.20
  -5  -3   2   27.30    3.63
   5   3  -2   29.00    1.33
  -5   3   2   30.09    1.61
  -3  -3   2    4.79    0.90
  -3  -3   2    6.48    1.18
   3   3  -2    2.99    0.98
  -3   3   2    3.97    1.07
  -1  -3   2   94.98    4.65
  -1  -3   2   99.49    5.35
   1   3  -2  104.17    4.61
  -1   3   2  107.63    6.50
   1   3   2   76.16    3.35
  -1   3  -2   78.06    5.12
   3  -3   2    1.77    0.55
   3  -3   2    2.97    0.99
   3   3   2    3.60    0.64
  -5  -3  -2  149.89    8.67
   5  -3   2  156.29   13.65
  -5   3  -2  169.11   11.02
  -7  -3  -2  100.11    5.58
  -7   3  -2  100.85    7.22
   7   3   2   95.97   12.54
   9  -3   2    3.22    2.00
  -9  -3  -2    3.55    1.75
  -9   3  -2    0.54    0.94
   9   3   2    1.05    1.59
 -11  -3  -2   80.91    5.92
  11   3   2   65.64    7.24
 -13  -3  -2   40.36    6.87
 -15  -3  -2    0.68    1.65
  -6   4   2    1.24    1.02
  -4   4   2   17.25    1.32
   4   4  -2   22.49   12.07
  -2   4   2    4.94    1.29
   2   4  -2    6.81    1.44
   0   4   2    0.38    2.25
   0   4  -2    0.96    0.93
  -2   4  -2    9.49    2.12
  -4   4  -2   -0.43    1.00
  -6   4  -2    2.59    2.53
 -22   0   3   15.20    2.31
 -20   0   3   13.94    7.02
 -18   0   3    9.39    2.95
  16   0  -3    4.75    2.07
 -16   0   3    4.38    1.82
 -14   0   3   63.76    7.67
  14   0  -3   60.13    4.59
  12   0  -3    8.13    1.92
 -12   0   3    7.11    1.28
 -10   0   3    8.23    1.83
  10   0  -3    7.96    2.38
   8   0  -3  101.89    5.77
  -8   0   3   95.97    6.70
   6   0  -3    0.79    1.06
  -6   0   3    2.31    1.01
  -4   0   3    3.93    0.91
  -4   0   3    3.78    0.83
   2   0  -3    8.48    0.88
  -2   0   3    8.71    1.04
   0   0  -3   -1.80    0.68
   2   0   3   -0.40    0.66
  -2   0  -3   -0.49    0.83
   4   0   3    3.19    0.86
   6   0   3   24.90   44.33
  -8   0  -3   43.83    2.97
   8   0   3   44.65    3.55
 -10   0  -3   18.40    1.59
  10   0   3   18.28    1.67
 -12   0  -3    1.47    1.88
  12   0   3    2.07    1.35
  14   0   3   10.89    3.79
 -14   0  -3   12.86    1.99
 -16   0  -3   36.29    2.66
  16   0   3   39.57    2.94
 -18   0  -3    5.67    1.73
 -20   0  -3    3.45    1.78
 -22   0  -3   12.99    2.88
 -21  -1   3    6.58    3.73
 -21   1   3    6.18    2.03
 -19  -1   3   -0.60    1.77
  19  -1  -3   -0.12    2.08
 -19   1   3    0.12    1.59
  17  -1  -3   25.78    3.60
 -17  -1   3   24.79    6.14
 -17   1   3   22.34    3.20
  15  -1  -3   14.59    3.76
 -15  -1   3   12.15    1.57
 -15   1   3   12.19    2.56
  15   1  -3   13.40    2.55
 -13  -1   3   26.00    3.57
  13  -1  -3   24.24    2.95
 -13   1   3   29.74    3.89
  13   1  -3   24.13    3.94
  11  -1  -3  158.35    8.86
 -11  -1   3  138.11   14.19
 -11   1   3  145.83   14.05
  11   1  -3  139.04   19.93
  -9  -1   3   36.63    4.52
   9  -1  -3   45.37    3.96
  -9   1   3   43.50    4.43
   9   1  -3   39.20    4.43
   7  -1  -3  208.62    8.93
  -7  -1   3  204.88    7.67
  -7  -1   3  200.10   14.51
  -7   1   3  210.21   13.33
   7   1  -3  210.60   17.87
  -5  -1   3  475.21   54.08
  -5  -1   3  461.59   22.52
  -5  -1   3  489.92   36.36
  -5   1   3  438.50   33.22
  -5   1   3  449.51   28.03
  -3  -1   3   44.07    3.61
  -3  -1   3   43.41    4.08
  -3   1   3   47.95    2.97
   3   1  -3   41.39    2.17
  -3   1   3   46.18   12.35
  -1  -1   3  200.36   16.53
   1  -1  -3  174.33   16.81
  -1   1   3  188.56   15.34
  -1   1   3  175.25   20.90
   1   1  -3  185.08   18.03
   1   1  -3  174.50   10.99
  -1  -1  -3  918.20   41.30
  -1  -1  -3  947.42   49.27
   1  -1   3  893.64   41.43
   1   1   3  919.08   85.43
  -1   1  -3 1000.00   37.57
   3  -1   3   85.08    5.68
  -3  -1  -3   89.06    4.15
  -3  -1  -3   77.63    5.92
  -3   1  -3   80.57    3.99
   3   1   3   76.21    8.90
  -5  -1  -3   73.69    5.00
   5  -1   3   75.75    5.83
  -5   1  -3   85.01    6.47
   5   1   3   68.01    4.89
   7  -1   3  468.45   38.05
  -7  -1  -3  440.38   23.03
  -7   1  -3  465.73   18.67
   7   1   3  467.80   48.64
   9  -1   3   68.90    4.82
  -9  -1  -3   65.87    4.52
  -9   1  -3   58.08    3.01
   9   1   3   65.43    4.22
  11  -1   3   47.56    3.81
 -11  -1  -3   49.62    4.15
 -11   1  -3   51.64    3.93
  11   1   3   50.71    7.25
  13  -1   3   71.80    8.72
 -13  -1  -3   61.90    3.22
  13   1   3   61.34    4.29
 -13   1  -3   68.68    5.49
 -15  -1  -3   11.74    2.22
  15  -1   3   10.71    1.89
 -15   1  -3   14.07    1.66
  15   1   3   13.47    2.35
  17  -1   3   12.27    1.85
 -17  -1  -3   13.99    2.19
 -17   1  -3   15.42    1.75
 -19  -1  -3    4.69    1.72
 -19   1  -3    6.42    1.71
 -21  -1  -3   -0.67    2.28
 -21   1  -3    1.10    1.71
 -20  -2   3   16.75    4.21
 -18  -2   3    3.66    1.86
 -18   2   3    4.29    2.57
  16  -2  -3    1.87    1.76
 -16  -2   3    3.41    2.13
 -16   2   3    4.10    2.13
 -14  -2   3   29.53    1.57
 -14  -2   3   23.08    4.23
  14  -2  -3   28.37    2.61
 -14   2   3   35.83    3.93
  12  -2  -3    7.39    1.47
 -12  -2   3    6.17    0.80
 -12  -2   3    7.21    1.65
 -12   2   3   14.87    2.58
  12   2  -3    5.51    1.67
  10  -2  -3    3.22    2.45
 -10  -2   3    0.77    0.61
 -10  -2   3    1.40    1.08
 -10   2   3    2.16    1.15
  -8  -2   3   28.20    2.46
  -8  -2   3   26.55    1.08
  -8  -2   3   26.04    1.79
  -8   2   3   24.70    1.91
  -6  -2   3    7.60    1.50
  -6  -2   3    8.16    0.87
  -6   2   3    5.97    0.76
  -6   2   3    7.41    0.92
  -4  -2   3    2.35    1.12
  -4  -2   3    1.70    0.68
  -4   2   3    0.92    0.46
  -4   2   3    1.41    0.67
   4   2  -3    2.94    0.68
  -2  -2   3    4.19    3.15
  -2  -2   3    2.31    1.51
   2   2  -3    1.45    0.57
  -2   2   3    1.69    1.36
  -2   2   3    1.95    0.48
  -2   2   3    2.07    0.40
   0  -2  -3    0.09    0.39
   0  -2   3    0.76    1.31
   0   2   3   -0.07    0.49
   0   2  -3   -0.03    0.40
   0   2  -3    0.33    0.63
   0   2   3    2.05    1.12
   2  -2   3    5.17    3.98
  -2  -2  -3    0.16    0.48
  -2   2  -3    1.03    0.70
   2   2   3    1.75    0.66
   2   2   3    1.73    0.91
  -4  -2  -3    1.32    0.77
  -4  -2  -3    1.28    0.66
   4  -2   3    2.03    0.74
  -4   2  -3    5.05    3.71
   4   2   3    0.20    0.85
  -6  -2  -3   -0.79    0.90
  -6  -2  -3    0.81    0.51
   6  -2   3    1.54    0.85
   6   2   3    1.88    1.46
  -6   2  -3   -0.23    0.69
  -8  -2  -3   17.94    1.75
   8  -2   3   17.30    1.77
  -8  -2  -3   15.24    0.90
   8   2   3   13.69    2.19
  -8   2  -3   17.01    1.55
  10  -2   3    8.40    1.72
 -10  -2  -3    9.28    1.43
 -10   2  -3    7.82    1.36
  10   2   3    6.22    1.36
  12  -2   3    2.21    1.57
 -12  -2  -3    1.46    0.95
 -12  -2  -3    0.75    1.22
 -12   2  -3    1.73    1.63
  12   2   3    0.86    1.33
  14  -2   3    7.63    1.67
 -14  -2  -3    9.57    1.74
 -14   2  -3    7.16    1.82
  16  -2   3   17.33    2.54
 -16  -2  -3   23.68    3.03
 -16   2  -3   12.60    2.61
 -18   2  -3   14.99    5.39
 -15  -3   3    8.25    2.93
 -13  -3   3    8.47    2.19
 -11  -3   3   55.92    9.57
 -11   3   3   42.58    1.38
  -9  -3   3    6.49    1.20
  -9  -3   3    8.96    2.87
  -9   3   3    7.24    1.21
  -7  -3   3   46.45    4.46
  -7  -3   3   51.05    8.05
  -7   3   3   42.80    3.68
  -7   3   3   44.55    3.11
  -5  -3   3  150.05   23.78
  -5  -3   3  157.02   17.79
  -5   3   3  168.97    9.64
   5   3  -3  153.93    6.76
  -3  -3   3   23.19    2.49
  -3   3   3   25.93    1.68
   3   3  -3   24.56    1.60
  -1  -3   3   78.16    8.41
  -1  -3   3   57.94    5.22
   1   3  -3   78.75    5.70
  -1   3   3   79.27    5.31
   1  -3   3  257.12   22.27
   1  -3   3  244.25   21.39
   1   3   3  251.82   11.04
  -1   3  -3  259.02   11.05
   3  -3   3    3.67    1.95
  -5  -3  -3   36.19    2.21
   5  -3   3   34.63    3.35
   5   3   3   30.74    3.83
  -5   3  -3   40.74    3.41
   7  -3   3  117.96   10.03
  -7  -3  -3  106.21   14.57
  -7   3  -3  124.03    6.48
   7   3   3  105.04   13.17
  -9  -3  -3   25.33    2.73
   9   3   3   18.65    3.59
 -11  -3  -3   17.77    1.94
  11   3   3   12.66    2.30
 -13  -3  -3   30.86    3.43
 -15  -3  -3    6.57    1.80
  -6   4   3    4.20    1.09
  -4   4   3   -0.19    1.40
   4   4  -3    3.64    1.25
   2   4  -3   -0.71    1.28
  -2   4   3    1.39    1.28
   0   4   3   -0.30    0.81
   0   4  -3    0.45    2.64
  -2   4  -3    0.51    1.94
  -4   4  -3   -0.42    1.02
 -22   0   4    1.21    1.98
 -20   0   4   -0.25    1.93
 -18   0   4   18.84    2.02
  16   0  -4    8.78    2.11
  14   0  -4    1.88    2.12
 -14   0   4   -1.44    1.26
 -12   0   4   11.82    3.29
  12   0  -4    9.30    1.87
 -10   0   4   28.78    5.02
  10   0  -4   36.46    3.41
  -8   0   4    5.32    1.17
  -6   0   4   21.17    1.63
  -6   0   4   19.06    1.61
  -4   0   4    9.80    1.33
  -4   0   4    8.50    1.12
   2   0  -4    1.83    0.88
  -2   0   4    1.42    0.65
   0   0  -4  125.50    8.33
   0   0   4  115.98    6.88
   2   0   4   20.37    2.01
  -2   0  -4   21.64    2.12
  -4   0  -4   69.85    5.77
   4   0   4   68.44    7.23
  -6   0  -4   47.37    3.86
   6   0   4   52.82    3.48
  -8   0  -4    9.24    1.32
   8   0   4    9.82    1.12
  10   0   4  120.60   13.09
 -10   0  -4  124.49   11.92
  12   0   4   91.26    7.35
 -12   0  -4   80.20    4.87
 -14   0  -4   23.78   30.29
  14   0   4   11.40    2.63
 -16   0  -4   54.57    2.74
 -18   0  -4   43.51    3.22
 -20   0  -4    6.55    2.27
 -21  -1   4    6.52    2.40
 -21   1   4    9.67    2.89
 -19  -1   4   24.26   17.07
  17  -1  -4   31.32    4.26
 -17  -1   4   48.71    7.57
 -17   1   4   44.06    3.50
 -15  -1   4   77.19   15.11
  15  -1  -4   88.13   14.26
  15   1  -4   61.62    8.40
 -15   1   4   79.02    8.17
 -13  -1   4   21.27    3.55
  13  -1  -4   21.36    2.26
 -13   1   4   22.38    2.42
  13   1  -4   23.68    3.49
  11  -1  -4  138.76   13.54
 -11  -1   4  136.77   18.56
 -11   1   4  142.39   10.79
  11   1  -4  125.40   19.21
  -9  -1   4  219.43   10.32
  -9  -1   4  207.40   17.78
  -9   1   4  202.55   11.12
  -7  -1   4    3.57    1.04
  -7  -1   4    6.01    1.44
  -7  -1   4    0.23    0.71
  -7   1   4    2.29    1.11
  -5  -1   4  335.21   20.39
  -5  -1   4  340.28   24.28
  -5  -1   4  318.63   18.96
  -5   1   4  331.53   23.08
  -5   1   4  315.46   27.36
  -3  -1   4  324.14   24.85
   3   1  -4  291.40   11.31
  -3   1   4  308.61   16.56
  -3   1   4  283.36   14.85
   1  -1  -4   17.64    3.77
  -1  -1   4   16.99    3.78
   1   1  -4   16.54    3.22
  -1   1   4   15.82    3.17
   1   1  -4   19.22    4.90
  -1   1   4   25.13    3.34
  -1  -1  -4  293.94   19.87
  -1  -1  -4  294.28   16.08
   1  -1   4  296.26   25.28
  -1   1  -4  286.50   16.99
   1   1   4  293.07   19.68
   3  -1   4  140.52   11.39
  -3  -1  -4  146.92    8.38
  -3  -1  -4  167.34    6.24
   3   1   4  134.02   14.42
  -3   1  -4  152.44    8.48
  -5  -1  -4    3.50    0.86
   5  -1   4    3.00    0.93
  -5   1  -4    3.87    0.92
   5   1   4    5.52    1.48
   7  -1   4   66.15    5.52
  -7  -1  -4   72.89    5.08
   7   1   4   62.89    2.93
  -7   1  -4   70.16    3.45
   9  -1   4   37.25    3.25
  -9  -1  -4   27.36    3.48
  -9   1  -4   30.97    1.74
   9   1   4   32.84    3.13
 -11  -1  -4    4.75    1.23
  11  -1   4    4.96    1.41
 -11   1  -4    6.35    1.24
  11   1   4   10.61    5.18
  13  -1   4   14.88    2.11
 -13  -1  -4   15.18    4.14
  13   1   4    8.60    2.55
 -13   1  -4   11.76    1.94
 -15  -1  -4    6.30    1.49
  15  -1   4    3.31    1.50
 -15   1  -4    4.28    1.42
  17  -1   4   10.53    2.44
 -17  -1  -4    9.33    1.82
 -17   1  -4   10.81    3.49
 -19  -1  -4   11.19    2.07
 -19   1  -4    9.99    3.48
 -18  -2   4   13.39    2.53
 -16  -2   4   12.33    2.30
  16  -2  -4    9.26    1.79
 -16   2   4    8.74    3.28
 -14  -2   4    1.60    0.76
  14  -2  -4    2.33    1.66
 -14  -2   4    0.13    1.50
 -14   2   4   -0.78    2.11
 -12  -2   4    8.53    1.00
 -12  -2   4   14.42    2.92
 -12   2   4   10.13    1.65
 -10  -2   4   94.71   69.08
 -10  -2   4   15.07    2.22
 -10  -2   4   16.95    0.90
 -10   2   4   16.51    1.79
 -10   2   4   18.64    2.37
  -8  -2   4    1.69    1.18
  -8  -2   4    1.33    1.18
  -8   2   4    1.00    0.75
  -8   2   4    0.85    1.20
  -6  -2   4    8.88    1.62
  -6  -2   4    8.90    0.96
  -6   2   4    7.89    1.22
  -6   2   4    5.79    0.81
  -4  -2   4    2.92    0.79
  -4  -2   4    2.94    1.32
  -4   2   4    3.80    0.43
   4   2  -4    3.61    0.88
  -4   2   4    3.82    0.90
  -4   2   4    2.40    0.67
  -2  -2   4    0.77    1.24
  -2  -2   4    0.84    0.74
  -2   2   4    1.28    0.66
  -2   2   4    0.86    0.33
  -2   2   4    3.18    1.95
   2   2  -4   -0.17    0.58
   0  -2  -4   30.79    2.95
   0  -2   4   33.54    1.81
   0   2  -4   29.74    1.56
   0   2  -4   33.35    2.03
   0   2   4   36.67    2.65
   0   2   4   32.06    1.15
  -2  -2  -4    0.15    0.52
   2  -2   4    1.05    0.80
   2   2   4    0.49    0.69
  -2   2  -4    1.64    0.71
   4  -2   4   37.97    2.47
  -4  -2  -4   36.62    3.76
  -4  -2  -4   32.44    3.54
   4   2   4   35.55    4.63
  -4   2  -4   38.46    2.41
   6  -2   4   45.42    3.58
  -6  -2  -4   38.97    1.74
  -6  -2  -4   43.08    3.61
   6   2   4   40.52    5.39
  -6   2  -4   44.53    2.49
  -8  -2  -4    2.72    0.80
   8  -2   4    4.93    1.31
  -8  -2  -4    4.53    1.32
  -8   2  -4    3.11    1.00
   8   2   4    4.37    3.38
  10  -2   4   62.10    5.37
 -10  -2  -4   58.22    8.14
 -10  -2  -4   66.11    2.18
  10   2   4   56.71    7.41
 -10   2  -4   63.24    7.07
 -12  -2  -4   54.99    2.13
 -12  -2  -4   51.89    5.43
  12  -2   4   57.85    4.47
  12   2   4   35.88    6.53
 -12   2  -4   53.73    8.49
 -14  -2  -4    8.01    2.51
  14  -2   4    3.01    1.45
 -14   2  -4    6.92    2.08
 -16  -2  -4   32.30    4.61
 -16   2  -4   24.14    2.48
 -18  -2  -4   27.11    2.64
 -18   2  -4   27.52    5.36
 -15  -3   4   25.56    3.73
 -13  -3   4    4.42    2.46
 -11  -3   4   77.01    6.15
 -11   3   4   58.65    5.70
  -9  -3   4   61.88   14.15
  -9   3   4   70.04    6.96
  -7  -3   4    0.89    0.82
  -7  -3   4    2.41    1.81
  -7   3   4    0.33    0.85
  -7   3   4    1.48    0.79
  -7   3   4    1.62    0.92
  -5  -3   4  115.82    8.85
  -5  -3   4  111.17   10.70
  -5   3   4  117.42    6.56
   5   3  -4  111.14    4.40
  -3  -3   4  114.70    9.45
  -3  -3   4  104.54    8.10
  -3   3   4  102.77    3.80
   3   3  -4   95.59    4.94
  -1  -3   4    2.74    1.30
  -1  -3   4    3.51    1.35
   1   3  -4    3.08    0.88
  -1   3   4    2.44    1.21
   1  -3   4   66.14    6.17
   1  -3   4   66.82    6.33
   1   3   4   63.17    3.39
  -1   3  -4   64.98    4.29
   3  -3   4   58.67    4.95
  -3   3  -4   55.20    7.28
   3   3   4   57.43    4.28
  -5  -3  -4    1.66    0.68
   5  -3   4    4.92    2.53
  -5   3  -4    1.52    0.92
   5   3   4    2.06    1.12
  -7  -3  -4   26.57    2.72
   7  -3   4   24.25    4.55
  -7   3  -4   24.99    1.68
   7   3   4   23.69    2.25
  -9  -3  -4   11.59    1.48
   9   3   4    4.79    2.47
 -11  -3  -4    5.37    1.96
 -13  -3  -4    8.40    2.31
   2   4  -4    2.33    1.44
  -2   4   4    1.17    0.84
   0   4   4    3.78    1.71
   0   4  -4    2.10    0.97
  -2   4  -4    1.51    1.35
 -20   0   5   14.39    3.79
 -18   0   5    5.17    3.32
  16   0  -5   25.99    5.69
 -16   0   5   26.65    5.57
 -14   0   5    5.41    1.46
  14   0  -5    4.27    1.84
  12   0  -5   19.80    6.66
 -12   0   5    8.51    1.98
 -10   0   5   28.52    2.82
  -8   0   5    0.10    1.21
  -8   0   5    5.62    2.43
  -6   0   5  136.23   10.03
  -6   0   5  142.12   14.91
  -4   0   5   17.38    1.92
  -2   0   5    3.44    1.64
   2   0  -5    5.63    1.80
   0   0   5  283.82   21.81
   0   0  -5  303.33   17.48
   2   0   5  129.15   10.77
  -2   0  -5  120.59    7.43
  -4   0  -5    9.99    1.26
   4   0   5   13.23    8.79
   6   0   5  318.22   25.28
  -6   0  -5  319.30   15.17
   8   0   5  183.06   18.95
  -8   0  -5  172.68   11.69
  10   0   5   14.72    1.72
 -10   0  -5   14.20    1.48
  12   0   5  108.37   17.65
 -12   0  -5  118.97   10.52
  14   0   5   70.06    9.86
 -14   0  -5   78.55    9.21
 -16   0  -5    2.70    1.60
 -18   0  -5   33.93    3.37
 -20   0  -5   12.47    2.73
 -21  -1   5   18.26    4.25
 -21   1   5   13.39    3.50
 -19  -1   5    4.08    2.06
 -19   1   5    0.59    1.82
 -17  -1   5   15.14    2.48
  17  -1  -5   13.01    2.50
 -17   1   5   19.78    2.82
 -15  -1   5   85.86    4.45
  15  -1  -5   63.63   10.51
 -15   1   5   74.20    5.01
 -13  -1   5   23.82    3.40
 -13  -1   5   27.26    1.56
 -13   1   5   22.22    2.58
 -11  -1   5   14.64    1.93
 -11  -1   5   17.18    1.35
 -11   1   5   16.63    1.93
  -9  -1   5  144.38    5.30
  -9  -1   5  158.56   13.34
  -9  -1   5  161.65   10.73
  -9   1   5  146.51    8.83
  -9   1   5  142.18    9.77
  -7  -1   5   59.69    4.19
  -7  -1   5   58.13    4.34
  -7  -1   5   55.47    2.14
  -7   1   5   62.35    4.62
  -7   1   5   55.62    6.76
  -5  -1   5   22.60    2.36
  -5  -1   5   18.78    1.81
  -5   1   5   19.83    1.12
  -5   1   5   18.49    1.66
  -3  -1   5   42.88    4.55
   3   1  -5   49.51    2.92
  -3   1   5   50.69    3.21
  -3   1   5   54.01    4.63
  -1  -1   5   40.06    2.40
   1  -1  -5   35.19    3.73
   1   1  -5   39.06    2.46
  -1   1   5   37.26    2.27
   1   1  -5   34.26    2.09
   1  -1   5    1.23    0.98
  -1  -1  -5    2.68    0.69
  -1  -1  -5    2.36    0.55
   1   1   5    1.08    0.66
  -1   1  -5    1.53    0.87
  -3  -1  -5   28.70    1.97
   3  -1   5   32.07    2.52
  -3  -1  -5   30.90    2.46
   3   1   5   28.64    3.20
  -3   1  -5   29.76    1.87
   5  -1   5    1.05    0.92
  -5  -1  -5    0.79    0.98
   5   1   5    1.48    0.88
  -5   1  -5    0.68    1.00
   7  -1   5    0.56    1.47
  -7  -1  -5   -1.35    0.96
   7   1   5    0.43    1.54
  -7   1  -5    1.98    1.11
  -9  -1  -5   11.60    1.86
   9  -1   5   11.74    1.52
   9   1   5   14.54    1.86
  -9   1  -5   14.28    1.40
 -11  -1  -5    7.71    1.41
  11  -1   5    7.30    1.24
 -11   1  -5    8.12    1.58
  11   1   5   11.35    1.69
 -13  -1  -5   15.20    1.71
  13  -1   5   10.19    1.78
  13   1   5    8.58    3.50
 -13   1  -5   14.27    2.53
 -15  -1  -5    3.37    1.65
  15  -1   5    2.13    1.56
 -15   1  -5    2.18    1.54
 -17  -1  -5   -0.15    1.77
 -17   1  -5    3.33    1.77
 -19  -1  -5   10.27    3.41
 -19   1  -5    4.96    2.10
 -18  -2   5    5.30    4.91
 -16  -2   5   17.45    3.51
 -16   2   5   16.47    2.82
 -14  -2   5    2.61    0.98
 -14  -2   5    1.36    1.30
 -14  -2   5    7.22    2.40
 -14   2   5    3.41    4.02
 -12  -2   5    3.98    1.40
 -12  -2   5    1.70    1.60
 -12  -2   5    4.94    1.33
 -12   2   5    2.70    1.06
 -12   2   5    5.76    1.49
 -10  -2   5   14.40    0.88
 -10  -2   5   14.86    2.62
 -10  -2   5   14.02    1.97
 -10   2   5   15.41    1.70
 -10   2   5   15.25    1.65
  -8  -2   5   -1.97    1.33
  -8  -2   5    0.71    0.84
  -8   2   5    1.49    0.73
  -8   2   5    0.65    1.62
  -6  -2   5   55.73    3.71
  -6  -2   5   58.61    6.97
  -6   2   5   54.95    2.99
  -6   2   5   54.32    4.21
  -4  -2   5   24.79    1.98
  -4  -2   5   24.94    2.71
  -4   2   5   28.92    3.19
  -4   2   5   26.46    2.68
   4   2  -5   25.65    1.04
  -4   2   5   28.57    1.51
  -2  -2   5    7.53    1.34
  -2   2   5    5.15    0.86
  -2   2   5    7.18    1.06
   2   2  -5    7.25    2.35
  -2   2   5    5.71    0.98
   0  -2  -5  155.38   15.52
   0  -2   5  169.12    9.38
   0   2  -5  168.52   10.48
   0   2  -5  180.27   14.90
   0   2   5  166.38   19.69
   2  -2   5   75.10    4.07
  -2  -2  -5   70.37    6.93
   2   2   5   69.02    5.59
  -2   2  -5   69.06    4.23
  -4  -2  -5    8.99    0.66
   4  -2   5   12.88    1.97
  -4  -2  -5    6.88    0.96
  -4   2  -5   10.99    7.26
   4   2   5    9.55    1.23
   6  -2   5  188.58   15.23
  -6  -2  -5  184.01    7.80
  -6  -2  -5  182.85   19.38
  -6   2  -5  185.70    9.05
   6   2   5  176.80   14.83
  -8  -2  -5   97.48    4.32
  -8  -2  -5   91.42   11.86
   8  -2   5  100.35    8.18
   8   2   5   77.67   11.91
  -8   2  -5  102.98    5.46
 -10  -2  -5    4.95    1.49
  10  -2   5    2.55    1.10
 -10  -2  -5    3.28    1.06
  10   2   5    2.20    1.43
 -10   2  -5    3.37    1.50
 -12  -2  -5   76.52    9.20
  12  -2   5   68.13    7.90
 -12   2  -5   83.87    4.71
  14  -2   5   35.38    5.53
 -14  -2  -5   50.33    4.29
 -14   2  -5   36.13    7.53
 -16  -2  -5    2.50    2.01
 -16   2  -5    2.57    2.43
 -13  -3   5    7.69    4.61
 -11  -3   5    8.64    2.93
  -9  -3   5   51.10    5.88
  -9   3   5   59.99    2.16
  -9   3   5   35.47    6.94
  -7  -3   5   17.25    2.64
  -7   3   5   16.21    2.33
  -7   3   5   18.51    1.51
  -5  -3   5    7.93    2.50
  -5  -3   5    1.27    1.09
  -5   3   5    4.78    1.36
  -3  -3   5   27.10    1.88
  -3  -3   5   23.09    4.36
  -3   3   5   26.99    1.57
  -3   3   5   20.29    2.62
  -3   3   5   23.12    2.08
   3   3  -5   24.81    1.90
  -1  -3   5    6.59    1.78
  -1  -3   5   10.62    1.84
  -1   3   5    9.02    0.74
  -1   3   5    7.80    1.65
   1   3  -5    9.90    1.24
  -1   3   5    9.79    1.10
   1  -3   5   -2.27    1.51
   1  -3   5    2.43    1.31
   1   3   5    0.26    0.89
   1   3   5    1.29    0.76
  -3  -3  -5    4.15    0.76
   3  -3   5    4.60    2.76
   3   3   5    4.57    1.79
  -3   3  -5    7.63    1.87
   5  -3   5   -0.98    1.03
  -5  -3  -5    2.96    1.39
  -5   3  -5    3.03    2.09
   5   3   5    0.93    0.97
  -7  -3  -5    4.53    3.06
   7   3   5    1.28    2.98
  -9  -3  -5    1.22    1.67
 -11  -3  -5    2.98    1.38
 -20   0   6    2.23    3.43
 -18   0   6   49.18   44.53
 -16   0   6   21.27    5.35
 -14   0   6    2.46    1.53
 -12   0   6   27.42    4.14
 -12   0   6   23.06    3.21
 -10   0   6   90.86    5.35
 -10   0   6   94.24    9.21
  -8   0   6   19.41    2.38
  -8   0   6   16.73    2.70
  -6   0   6  121.38    7.00
  -6   0   6  122.43    6.99
  -4   0   6  239.37   16.62
   2   0  -6   52.11    8.10
  -2   0   6   49.29    7.34
   0   0   6  158.80   12.21
   0   0  -6  171.21   10.65
  -2   0  -6  453.08   25.39
   2   0   6  482.76   45.45
   4   0   6   18.05    1.83
  -4   0  -6   17.13    5.78
  -6   0  -6   57.76    2.95
   6   0   6   51.50    4.74
  -8   0  -6  217.14   24.58
   8   0   6  206.19   11.58
 -10   0  -6   25.25    3.20
  10   0   6   30.89    3.80
  12   0   6   21.91    1.74
 -12   0  -6   25.15    4.54
 -14   0  -6   47.03    3.94
 -16   0  -6    3.46    1.65
 -18   0  -6    9.55    2.16
 -19  -1   6    7.65    2.51
 -19   1   6   11.27    3.05
 -17  -1   6    3.06    0.76
 -17  -1   6    8.53   13.86
 -17   1   6    3.20    2.35
 -15  -1   6    9.40    9.59
 -15  -1   6    5.86    0.69
 -15  -1   6    2.79    6.28
 -15   1   6   10.89    2.02
 -13  -1   6   29.34    4.90
 -13  -1   6   32.71    3.41
 -13  -1   6   30.69    5.55
 -13   1   6   31.91    2.53
 -13   1   6   26.75    5.05
 -11  -1   6    2.35    0.42
 -11  -1   6    4.76    1.08
 -11  -1   6    3.01    2.21
 -11   1   6    3.48    1.50
 -11   1   6    5.48    1.01
  -9  -1   6    3.13    0.38
  -9  -1   6    1.43    1.36
  -9  -1   6    2.33    0.98
  -9   1   6    3.66    2.34
  -9   1   6    2.98    1.29
  -7  -1   6   27.79    1.86
  -7  -1   6   29.29    2.18
  -7   1   6   26.32    3.16
  -7   1   6   29.84    1.91
  -5  -1   6    3.86    1.48
  -5  -1   6    4.20    0.69
  -5   1   6    5.96    0.43
  -5   1   6    5.33    0.67
  -5   1   6    8.91    2.18
  -3  -1   6    3.63    1.05
   3  -1  -6    0.81    1.35
   3   1  -6    3.31    1.29
   3   1  -6    4.24    0.66
  -3   1   6    2.05    0.82
  -1  -1   6    3.87    1.72
   1  -1  -6    4.53    1.21
   1   1  -6    3.68    0.45
   1   1  -6    4.20    1.12
  -1   1   6    3.57    0.90
  -1  -1  -6   -0.32    1.61
   1  -1   6   -0.55    0.77
  -1  -1  -6    0.20    0.64
   1   1   6    0.57    0.74
  -1   1  -6   -0.05    1.19
  -3  -1  -6    2.51    1.33
  -3  -1  -6    1.73    0.39
   3  -1   6    4.26    1.37
   3   1   6    2.48    1.71
  -3   1  -6    0.94    1.04
  -5  -1  -6    3.54    1.26
  -5  -1  -6    0.44    0.36
   5  -1   6    1.25    0.99
   5   1   6    0.33    0.84
  -5   1  -6    0.02    1.07
  -7  -1  -6    0.97    3.16
   7  -1   6    2.01   14.29
   7   1   6    0.25    1.03
  -7   1  -6   -1.34    1.09
  -9  -1  -6   11.05    1.73
   9  -1   6   12.22    1.82
  -9   1  -6   11.13    1.94
   9   1   6   12.08    1.76
  11  -1   6    3.85    1.29
 -11  -1  -6    5.33    1.42
 -11   1  -6    5.16    1.80
  11   1   6    1.79    1.44
  13  -1   6   -1.76    1.59
 -13  -1  -6    1.30    1.48
 -13   1  -6    1.25    1.71
 -15  -1  -6    8.10    2.14
 -15   1  -6    7.76    1.64
 -17  -1  -6   18.81    3.50
 -17   1  -6   12.49    3.00
 -16  -2   6   14.90    4.63
 -14  -2   6    7.99    7.87
 -14  -2   6    3.73    0.62
 -14  -2   6    2.59    1.05
 -14   2   6    5.84    2.07
 -12  -2   6   11.25    0.76
 -12  -2   6   19.23    3.11
 -12  -2   6    8.40    1.78
 -12   2   6   11.94    1.91
 -10  -2   6   70.93    5.05
 -10  -2   6   59.84    6.67
 -10   2   6   74.45    5.57
 -10   2   6   59.70    6.63
  -8  -2   6    7.62    1.73
  -8  -2   6    8.46    4.17
  -8   2   6    8.28    1.30
  -8   2   6    3.62    1.33
  -6  -2   6   72.20    6.17
  -6  -2   6   66.78   10.06
  -6   2   6   70.09    8.64
  -6   2   6   71.29    7.32
  -6   2   6   73.25    2.81
  -4  -2   6  155.34   18.88
  -4  -2   6  157.42   14.11
  -4   2   6  164.15    8.25
  -4   2   6  175.69   22.61
   4   2  -6  166.38    9.47
  -4   2   6  181.61   10.05
  -2  -2   6   22.42    3.39
   2   2  -6   28.50    4.67
  -2   2   6   21.60    2.30
  -2   2   6   23.64    1.61
   0  -2   6   85.99    6.44
   0  -2  -6   91.82    7.63
   0   2  -6   97.90    8.44
   0   2   6   88.43    9.92
   0   2  -6   94.34    7.22
  -2  -2  -6  253.04   32.17
   2  -2   6  236.53   20.11
  -2   2  -6  264.68   19.02
   2   2   6  250.20   18.68
  -4  -2  -6   18.22    2.10
   4  -2   6   21.96    1.60
  -4  -2  -6   18.86    1.73
  -4   2  -6   17.83    1.56
   4   2   6   17.32    2.85
   6  -2   6   36.93    3.30
  -6  -2  -6   41.43    3.11
  -6  -2  -6   40.45    2.38
  -6   2  -6   37.16    2.72
   6   2   6   34.49    5.23
  -8  -2  -6  115.08    3.92
   8  -2   6  121.62    8.51
  -8  -2  -6  115.07   10.23
  -8   2  -6  117.11    7.84
   8   2   6  113.04    9.07
 -10  -2  -6   14.50    1.67
  10  -2   6   15.08    2.60
 -10  -2  -6   19.60    1.27
 -10   2  -6   20.96    4.79
  12  -2   6   12.14    2.07
 -12  -2  -6    7.50    1.99
 -14  -2  -6   27.44    4.16
 -14   2  -6   29.34    3.37
 -16  -2  -6    4.02    2.25
 -16   2  -6    5.03    2.24
 -11  -3   6    9.28    7.76
 -11   3   6    4.52    0.82
  -9  -3   6   -0.18    2.81
  -9   3   6   -0.17    0.77
  -7  -3   6    2.67    2.21
  -7   3   6    3.74    1.19
  -7   3   6    4.14    0.64
  -5  -3   6    7.83    2.19
  -5   3   6    3.39    0.74
  -5   3   6    2.16    0.99
   5   3  -6    0.70    0.88
  -3  -3   6   -1.97    1.87
   3   3  -6    2.05    0.67
  -3   3   6    1.93    1.03
  -3   3   6    0.61    0.72
  -1  -3   6   -0.32    0.65
  -1  -3   6    0.77    1.81
  -1   3   6    0.84    1.26
   1   3  -6    1.78    1.43
   1   3   6    0.08    2.23
  -1   3  -6    0.16    0.64
  -3  -3  -6    2.70    1.89
  -3   3  -6    0.14    0.80
  -3   3  -6    0.46    0.70
   3   3   6    2.31    1.67
  -5  -3  -6   -0.50    1.53
   5   3   6    3.00    3.27
  -7  -3  -6    0.65    2.28
  -9  -3  -6    3.91    1.81
 -11  -3  -6    4.44    1.54
 -18   0   7    5.38    2.52
 -16   0   7   32.62    4.92
 -14   0   7   63.15    8.37
 -12   0   7   15.27    2.56
 -12   0   7   10.38    1.37
 -10   0   7  118.09    9.96
 -10   0   7  118.96   10.62
 -10   0   7  110.14    5.43
  -8   0   7  132.40   13.25
  -8   0   7  145.06   10.05
  -6   0   7    9.27    0.88
  -6   0   7    8.12    1.91
  -4   0   7  228.39   20.15
  -2   0   7  118.42    7.03
   2   0  -7  133.43   14.76
   0   0   7    1.72    0.87
   0   0  -7    1.38    2.54
   0   0  -7    1.60    0.14
   2   0   7  131.71   11.45
  -2   0  -7  120.34   10.55
   4   0   7   73.28    4.83
  -4   0  -7   73.47    6.44
  -6   0  -7    3.69    1.97
   6   0   7    1.76    3.44
  -8   0  -7   50.36    3.74
   8   0   7   54.35    4.42
  10   0   7    6.34    1.49
 -10   0  -7    8.48    2.44
 -12   0  -7    8.09    3.27
 -14   0  -7    8.44    2.77
 -16   0  -7    3.53    2.99
 -18   0  -7    3.93    2.18
 -19  -1   7   -1.25    2.50
 -19   1   7   -1.18    1.76
 -17  -1   7    9.52    2.73
 -17   1   7   13.72    2.46
 -15  -1   7   11.61    2.97
 -15  -1   7    8.27    0.66
 -15   1   7   10.28    1.86
 -13  -1   7   -2.60    1.70
 -13  -1   7    0.49    1.19
 -13  -1   7    0.46    0.48
 -13   1   7    0.43    1.67
 -11  -1   7    8.36    0.50
 -11  -1   7   10.96    1.98
 -11  -1   7    9.42    3.77
 -11   1   7    8.59    1.60
 -11   1   7   11.87    2.00
  -9  -1   7   23.88    3.35
  -9  -1   7   19.56    1.63
  -9   1   7   17.59    1.94
  -9   1   7   18.99    2.76
  -7  -1   7    7.82    2.39
  -7   1   7    3.96    1.51
  -5  -1   7    2.52    0.95
  -5  -1   7    2.09    1.62
  -5   1   7    6.19    3.31
  -5   1   7    1.53    0.87
  -3  -1   7    4.38    1.61
   3  -1  -7    4.01    1.04
   3   1  -7    4.77    3.40
  -3   1   7    4.65    0.99
   1  -1  -7    2.76    1.33
  -1  -1   7    0.49    1.42
  -1   1   7    1.94    0.91
   1   1  -7    1.61    0.36
   1   1  -7   -0.01    3.02
   1  -1   7   23.01    2.13
  -1  -1  -7   20.90    2.27
   1   1   7   22.78    1.58
  -1   1  -7   28.24    4.46
  -3  -1  -7    1.49    1.06
   3  -1   7    3.63   12.71
   3   1   7    2.51    1.00
  -3   1  -7    1.35    2.87
  -5  -1  -7   27.31    2.89
   5  -1   7   30.72    2.94
  -5  -1  -7   26.21    1.03
  -5   1  -7   26.13    2.26
   5   1   7   28.67    3.54
   7  -1   7   33.96    3.16
  -7  -1  -7   30.80    4.85
   7   1   7   23.03    4.69
  -7   1  -7   26.14    3.07
   9  -1   7    0.37    1.15
  -9  -1  -7    4.60    2.83
  -9   1  -7    1.39    1.48
   9   1   7    1.53    1.35
  11  -1   7   44.76    4.40
 -11  -1  -7   45.64    4.94
 -11   1  -7   47.10    2.83
 -13  -1  -7   28.85    3.39
 -13   1  -7   31.54    9.28
 -15  -1  -7    2.68    1.78
 -15   1  -7    5.13    2.45
 -17  -1  -7    9.31    2.36
 -17   1  -7   20.52    3.47
 -16  -2   7   26.33    3.76
 -14  -2   7   25.10    3.90
 -14   2   7   28.38    2.73
 -12  -2   7   12.64    8.18
 -12   2   7   16.64   11.82
 -10  -2   7   75.33    6.50
 -10  -2   7   79.28   10.63
 -10   2   7   77.21    7.31
  -8  -2   7   74.51    3.20
  -8  -2   7   71.05    8.11
  -8   2   7   67.95    8.58
  -8   2   7   74.64    2.52
  -8   2   7   79.65    3.88
  -6  -2   7    2.26    1.97
  -6  -2   7    4.72    0.86
  -6   2   7    4.70    0.90
  -6   2   7    3.05    1.86
  -6   2   7    2.43    1.07
  -4  -2   7  127.65    7.51
  -4  -2   7  114.03   19.65
   4   2  -7  123.21    7.35
  -4   2   7  121.58   12.50
  -4   2   7  135.68    9.63
  -4   2   7  135.36    5.92
  -2  -2   7   86.88    4.97
  -2   2   7   79.44   11.45
   2   2  -7   84.10    5.32
   0  -2  -7    2.72    1.74
   0  -2   7    0.82    1.04
   0   2  -7    2.42    0.99
   0   2  -7    4.68    3.10
  -2  -2  -7   81.77    9.99
   2  -2   7   70.27    7.76
   2   2   7   72.77    5.39
  -2   2  -7   72.23    8.82
  -4  -2  -7   37.27    4.68
   4  -2   7   35.41    4.13
   4   2   7   30.23    5.43
  -4   2  -7   38.57    3.41
  -6  -2  -7   -0.39    1.12
  -6  -2  -7   -0.84    0.56
   6  -2   7    1.63    1.26
  -6   2  -7   -0.08    0.85
   6   2   7    0.79    4.22
  -8  -2  -7   22.16    1.17
   8  -2   7   24.72    2.01
  -8  -2  -7   20.00    2.74
  -8   2  -7   25.92    1.90
 -10  -2  -7    3.10    0.75
 -10  -2  -7    2.78    1.46
  10  -2   7    5.99    2.22
 -10   2  -7    4.13    3.71
 -12  -2  -7    3.25    1.57
  12  -2   7    1.24    1.57
 -12   2  -7    1.82    1.71
 -14  -2  -7    7.38    1.81
 -14   2  -7    1.68    2.58
 -11   3   7    2.81    0.82
  -9  -3   7    6.43    4.94
  -9   3   7    5.53    0.93
  -7  -3   7   25.41   24.98
  -5  -3   7   -2.33    2.40
  -5   3   7    2.06    0.70
  -3  -3   7    2.42    2.17
  -3   3   7    0.16    1.04
   3   3  -7    1.00    0.65
  -1  -3   7    2.45    2.34
  -1   3   7    0.81    2.56
   1   3  -7    8.85    4.19
  -1   3  -7    6.96    1.27
   1   3   7    2.66    1.31
  -3  -3  -7    4.87    2.85
  -5  -3  -7    4.73    1.48
  -7  -3  -7    8.27    1.47
  -9  -3  -7    0.54    1.94
 -18   0   8    0.14    2.47
 -16   0   8    9.86    4.28
 -14   0   8   57.80    4.91
 -12   0   8    7.84    2.12
 -12   0   8    4.39    0.58
 -10   0   8    6.69    1.21
 -10   0   8    9.32    1.74
  -8   0   8   77.10   11.34
  -8   0   8   81.95    8.50
  -6   0   8   24.69    3.59
  -6   0   8   26.95    3.01
  -4   0   8    7.48    1.08
  -2   0   8   37.55    2.66
   2   0  -8   37.12    3.88
   0   0  -8   22.39    2.48
   0   0   8   15.32    1.60
  -2   0  -8    5.25    1.88
   2   0   8    7.14    1.16
   4   0   8    5.30    1.23
  -4   0  -8    7.00    1.42
   6   0   8    2.84    1.73
  -6   0  -8    2.80    1.40
  -8   0  -8    0.52    1.07
   8   0   8    0.57    1.23
 -10   0  -8    2.30    1.20
 -12   0  -8    7.67    1.99
 -14   0  -8   10.12    2.26
 -16   0  -8    2.78    2.16
 -17  -1   8    5.12    4.06
 -17   1   8   -0.48    2.84
 -15  -1   8   11.72    4.15
 -15   1   8   13.10    3.23
 -13  -1   8    0.47    1.77
 -13   1   8    5.48    5.34
 -11  -1   8    0.72    1.81
 -11  -1   8    2.19    1.25
 -11   1   8    3.71    1.76
  -9  -1   8   14.98    4.18
  -9  -1   8   11.15    1.40
  -9   1   8   13.51    2.29
  -9   1   8    9.70    0.49
  -7  -1   8    0.34    1.82
  -7  -1   8    0.79    1.53
  -7   1   8    1.72    1.62
  -7   1   8    1.07    1.03
  -5  -1   8   47.49    4.37
  -5  -1   8   52.36    4.38
  -5   1   8   55.84    5.05
  -5   1   8   44.85    2.32
   3  -1  -8   15.70    2.68
  -3  -1   8   16.16    1.89
  -3   1   8   12.77    1.55
   3   1  -8   17.68    2.25
  -1  -1   8    8.68    1.84
   1  -1  -8   10.79    2.73
   1   1  -8   10.80    1.76
  -1   1   8    9.63    1.35
   1   1  -8   12.56    1.10
   1  -1   8  126.90   11.85
  -1  -1  -8  119.53    7.23
   1   1   8  114.37   15.23
  -1   1  -8  129.20   11.87
  -3  -1  -8   27.37    1.65
   3  -1   8   26.56    2.77
  -3  -1  -8   32.37    4.07
  -3   1  -8   29.06    2.46
   3   1   8   25.37    3.03
   5  -1   8    9.38    1.65
  -5  -1  -8   12.03    1.66
  -5  -1  -8    7.51    0.61
   5   1   8    5.74    1.25
  -5   1  -8    8.09    1.90
  -7  -1  -8   96.53    7.10
   7  -1   8   92.67   11.39
  -7  -1  -8  111.41   12.02
  -7   1  -8  118.94   11.96
   9  -1   8   49.15    2.95
  -9  -1  -8   54.70    4.46
  -9   1  -8   50.20    6.04
 -11  -1  -8    2.85    1.73
 -11   1  -8    5.13    2.58
 -13  -1  -8   49.64    3.62
 -13   1  -8   40.89    3.65
 -15  -1  -8   28.89    2.09
 -15   1  -8   28.48    4.17
 -14  -2   8   45.47    6.03
 -12  -2   8    7.02    2.27
 -10  -2   8    5.90    4.52
 -10  -2   8    7.35    2.12
 -10   2   8    7.72    0.92
 -10   2   8   10.58   10.05
  -8  -2   8   55.26    4.47
  -8  -2   8   48.32    2.23
  -8   2   8   49.65    7.57
  -8   2   8   49.66    4.12
  -6  -2   8   12.39    1.41
  -6  -2   8   10.89    2.70
  -6   2   8    8.76    0.98
  -6   2   8   10.18    1.80
  -4  -2   8    3.35    1.92
  -4  -2   8    3.56    1.22
  -4   2   8    3.49    1.32
  -4   2   8    8.31    4.24
  -2  -2   8   19.52    2.02
   2   2  -8   18.13    1.95
  -2   2   8   15.57    2.94
   0  -2   8    9.43    1.57
   0  -2  -8    9.85    1.36
   0   2  -8    7.59    0.88
   0   2   8    7.30    1.46
   0   2  -8    9.44    3.00
  -2  -2  -8    2.92    1.51
   2  -2   8    1.79    1.25
   2   2   8    1.31    1.17
  -2   2  -8    8.27    3.24
  -4  -2  -8    2.09    1.31
   4  -2   8    3.87    1.62
  -4   2  -8    0.95    1.58
  -6  -2  -8    1.10    3.25
  -6  -2  -8    0.55    0.72
   6  -2   8    0.75    1.51
  -6   2  -8    3.16    1.78
   8  -2   8    2.38    3.70
  -8  -2  -8    2.14    2.89
  -8  -2  -8    1.32    2.00
  -8   2  -8    4.13    2.89
 -10  -2  -8    3.68    1.68
  10  -2   8    1.67    1.23
 -10   2  -8   -2.35    1.76
 -12  -2  -8    2.50    1.71
 -12   2  -8    5.37    2.43
  -7  -3   8    2.21    2.50
  -5  -3   8   13.09    5.27
  -3  -3   8   12.66    6.08
   3   3  -8    5.78    0.74
  -1  -3   8    0.81    2.04
  -1   3  -8   32.52    2.86
  -3  -3  -8    9.62    2.34
  -3   3  -8   15.37    1.06
  -5  -3  -8    2.45    1.20
 -16   0   9   -0.31    3.23
 -14   0   9    5.84    2.11
 -12   0   9   17.32    2.19
 -10   0   9    3.27    2.87
  -8   0   9    2.72    2.80
  -6   0   9    6.71    1.28
  -6   0   9    6.38    2.00
  -4   0   9    1.45    1.35
   2   0  -9    3.10    5.98
  -2   0   9    4.49    1.66
   0   0   9    4.21    1.73
   0   0  -9    3.68    8.39
   2   0   9    1.22    1.63
  -2   0  -9   -0.29    0.95
  -2   0  -9    0.22    0.16
  -4   0  -9    0.51    1.22
   4   0   9    2.41    2.01
  -6   0  -9   11.50    8.05
  -8   0  -9    1.63    4.78
 -10   0  -9    4.43    1.82
 -12   0  -9   -1.99    2.02
 -14   0  -9   -1.50    2.09
 -15  -1   9   12.11    3.65
 -15   1   9   11.38    3.24
 -13  -1   9    2.05    2.13
 -13   1   9    1.97    2.50
 -11  -1   9   12.91    2.57
 -11   1   9   13.06    2.04
  -9  -1   9   53.71    9.53
  -9   1   9   48.94    8.01
  -7  -1   9   -0.37    1.16
  -7  -1   9    1.67    1.67
  -7   1   9    5.78    3.77
  -5  -1   9   64.47    7.91
  -5  -1   9   59.77    7.20
  -5   1   9   60.04    6.24
   3   1  -9   46.22    5.22
  -1  -1   9   13.12    1.81
   1  -1  -9   12.68    1.81
   1   1  -9   12.51    1.80
   1   1  -9   13.17    1.07
  -1  -1  -9   64.63    8.61
   1  -1   9   59.29    6.11
  -1   1  -9   65.28    4.74
  -1   1  -9   63.79    5.72
  -3  -1  -9  137.48   10.56
   3  -1   9  132.32   17.32
  -3  -1  -9  120.82    7.15
  -3   1  -9  117.99   10.04
   5  -1   9    6.30    1.54
  -5  -1  -9    8.99    0.65
  -5  -1  -9   12.19    1.93
  -5   1  -9    7.60    1.27
  -7  -1  -9   33.61    1.57
  -7  -1  -9   27.89    3.57
  -7   1  -9   36.34    4.83
  -9  -1  -9   66.60    7.92
  -9   1  -9   68.27    6.23
 -11  -1  -9    4.92    1.45
 -11   1  -9    6.21    1.47
 -13  -1  -9   11.75    4.15
 -13   1  -9    7.00    2.10
 -12  -2   9   11.04    2.63
 -10  -2   9    4.24    2.57
 -10   2   9   -2.19    1.21
  -8  -2   9   -1.91    2.65
  -8   2   9    5.35    7.48
  -6  -2   9    5.51    2.55
  -6  -2   9    5.95    4.68
  -6   2   9   11.71   13.38
  -4  -2   9   17.28    9.77
  -4  -2   9    4.37    1.37
  -4   2   9    4.75    8.87
  -2  -2   9    1.67    1.24
   2   2  -9    2.31    0.54
   0  -2   9    1.35    1.94
   0  -2  -9    0.29    1.39
   0   2  -9   -0.10    1.55
   0   2  -9   -0.10    0.61
  -2  -2  -9    1.72    1.42
   2  -2   9    1.59    1.40
  -2   2  -9    1.08    0.75
  -2   2  -9    0.75    1.62
   4  -2   9   -0.39    1.41
  -4  -2  -9   -0.04    2.35
  -4   2  -9    3.04    1.95
   6  -2   9    0.28    1.44
  -6  -2  -9    0.11    1.04
  -6   2  -9   -1.85    1.58
  -8  -2  -9    2.23    1.60
  -8   2  -9   -0.52    2.39
 -10  -2  -9    3.53    1.80
 -10   2  -9    2.03    1.38
 -14   0  10    9.79    2.72
 -12   0  10    2.07    2.36
 -10   0  10   57.16   44.05
  -8   0  10   15.68    2.64
  -6   0  10    4.79    3.32
   2   0 -10    1.56    1.65
   0   0 -10    2.56    1.71
  -2   0 -10    5.65    2.34
  -4   0 -10    0.85    1.09
  -6   0 -10    3.65    1.70
  -8   0 -10   14.66    4.84
 -10   0 -10   -0.61    2.19
 -12   0 -10   18.98    2.52
 -13  -1  10   20.82    3.97
 -13   1  10   17.21    3.30
 -11  -1  10   11.56    2.28
 -11   1  10    4.09    2.85
  -9  -1  10   59.00    5.12
  -9   1  10   51.58    5.21
  -7  -1  10   55.84    5.19
  -7   1  10   41.42    5.34
  -5  -1  10    7.49    4.68
  -5   1  10    2.53    4.26
   1  -1 -10   47.75    4.68
   1   1 -10   40.09    3.56
  -1  -1 -10    4.27    2.55
  -1   1 -10    3.54    1.91
  -3  -1 -10   41.59    3.11
  -3   1 -10   47.49    4.70
  -5  -1 -10   12.97    1.82
  -5   1 -10   15.11    2.10
  -7  -1 -10    0.46    1.27
  -7   1 -10    1.26    1.89
  -9  -1 -10    9.62    1.64
  -9   1 -10   11.34    2.87
 -11  -1 -10    0.38    1.93
 -11   1 -10    3.35    3.13
  -8  -2  10    7.14    3.62
  -6  -2  10    0.06    3.43
  -4  -2  10    0.74    3.14
   2   2 -10    0.05    0.36
  -2   2  10    1.36    2.07
   0  -2 -10    2.41    1.93
   0   2 -10    2.90    2.21
  -2  -2 -10    1.86    1.64
  -2   2 -10    0.33    1.77
  -2   2 -10    2.38    0.65
  -4  -2 -10    1.96    1.88
  -4   2 -10    1.93    1.81
  -6  -2 -10    8.32    2.14
  -6   2 -10    5.18    2.04
 -12   0  11    3.43    2.73
 -10   0  11    3.97    6.02
  -8   0  11    5.60    2.36
  -6   0  11    0.46    2.07
   2   0 -11    1.34    2.12
   0   0 -11    0.13    1.83
  -2   0 -11   48.43    6.31
  -4   0 -11    9.56    2.17
  -6   0 -11    6.12    2.27
  -8   0 -11   45.16    7.46
  -9  -1  11    7.68    3.86
  -9   1  11    1.66    2.65
  -7  -1  11   31.31    3.88
  -7   1  11   37.16    4.40
  -5  -1  11    3.94    2.34
  -5   1  11    2.08    2.68
   1  -1 -11    9.62    1.90
   1   1 -11    9.35    2.13
  -1  -1 -11    2.51    2.49
  -1   1 -11    3.47    1.94
  -3  -1 -11    3.68    2.56
  -3   1 -11    5.08    3.07
  -5  -1 -11    1.23    1.36
  -5   1 -11   -0.82    1.96
  -7  -1 -11   -1.05    1.28
  -7   1 -11   -0.18    1.94
   0  -2 -11    0.12    1.98
   0   2 -11    4.04    2.21
  -6   0  12    2.41    2.33
   2   0 -12   30.21    5.55
   0   0 -12    5.07    2.70
  -2   0 -12   26.07    5.29
  -4   0 -12   43.35    6.55
   1  -1 -12    2.15    2.13
   1   1 -12    0.75    2.55
  -1  -1 -12    8.58    5.28
   0   0   0    0.00    0.00
;
_shelx_hkl_checksum              6699
loop_
_space_group_symop_operation_xyz
'x, y, z'
'-x, y, -z'
'x+1/2, y+1/2, z'
'-x+1/2, y+1/2, -z'
'-x, -y, -z'
'x, -y, z'
'-x+1/2, -y+1/2, -z'
'x+1/2, -y+1/2, z'
loop_
_atom_site_label
_atom_site_type_symbol
_atom_site_fract_x
_atom_site_fract_y
_atom_site_fract_z
_atom_site_U_iso_or_equiv
_atom_site_adp_type
_atom_site_occupancy
_atom_site_site_symmetry_order
_atom_site_calc_flag
_atom_site_refinement_flags_posn
_atom_site_refinement_flags_adp
_atom_site_refinement_flags_occupancy
Cu1 Cu 0.83479(6) 0.0000 0.39272(11) 0.0215(4) Uani 1 2 d DS T P
Cl1 Cl 0.84117(12) 0.5000 0.5584(2) 0.0244(5) Uani 1 2 d S T P
Cl2 Cl 0.81075(13) 0.5000 0.2316(2) 0.0258(6) Uani 1 2 d S T P
O1 O 0.9617(4) 0.0000 0.3718(7) 0.048(2) Uani 1 2 d DS T P
H1 H 0.9836(17) 0.0000 0.297(2) 0.10(4) Uiso 1 2 d DS U P
H2 H 0.9957(14) 0.0000 0.436(3) 0.10(4) Uiso 1 2 d DS U P
O2 O 1.0139(7) 0.5000 0.1907(15) 0.033(3) Uani 0.5 2 d S T P
C1 C 1.0700(11) 0.5000 0.125(2) 0.029(4) Uani 0.5 2 d S T P
C2 C 1.1076(9) 0.886(4) 0.0903(15) 0.041(4) Uani 0.5 1 d . . P
H2A H 1.1232 0.8738 -0.0057 0.062 Uiso 0.5 1 calc R U P
H2B H 1.1518 0.9273 0.1550 0.062 Uiso 0.5 1 calc R U P
H2C H 1.0726 1.1138 0.0988 0.062 Uiso 0.5 1 calc R U P
loop_
_atom_site_aniso_label
_atom_site_aniso_U_11
_atom_site_aniso_U_22
_atom_site_aniso_U_33
_atom_site_aniso_U_23
_atom_site_aniso_U_13
_atom_site_aniso_U_12
Cu1 0.0257(6) 0.0126(6) 0.0260(7) 0.000 0.0014(4) 0.000
Cl1 0.0324(12) 0.0132(11) 0.0275(13) 0.000 0.0014(9) 0.000
Cl2 0.0366(13) 0.0141(11) 0.0265(13) 0.000 -0.0001(10) 0.000
O1 0.022(4) 0.090(7) 0.031(4) 0.000 0.003(3) 0.000
O2 0.014(7) 0.033(8) 0.052(9) 0.000 0.016(6) 0.000
C1 0.033(11) 0.024(11) 0.029(11) 0.000 -0.006(9) 0.000
C2 0.052(9) 0.027(12) 0.045(8) 0.005(6) 0.011(7) -0.010(6)
loop_
_atom_type_symbol
_atom_type_description
_atom_type_scat_dispersion_real
_atom_type_scat_dispersion_imag
_atom_type_scat_source
C C 0.0033 0.0016 'International Tables Vol C Tables 4.2.6.8 and 6.1.1.4'
H H 0.0000 0.0000 'International Tables Vol C Tables 4.2.6.8 and 6.1.1.4'
O O 0.0106 0.0060 'International Tables Vol C Tables 4.2.6.8 and 6.1.1.4'
Cl Cl 0.1484 0.1585 'International Tables Vol C Tables 4.2.6.8 and 6.1.1.4'
Cu Cu 0.3201 1.2651 'International Tables Vol C Tables 4.2.6.8 and 6.1.1.4'
loop_
_geom_angle_atom_site_label_1
_geom_angle_atom_site_label_2
_geom_angle_atom_site_label_3
_geom_angle
_geom_angle_site_symmetry_1
_geom_angle_site_symmetry_3
Cl2 Cu1 Cl2 92.34(9) 1_545 .
Cl2 Cu1 Cl1 171.93(9) 1_545 .
Cl2 Cu1 Cl1 87.26(6) . .
Cl2 Cu1 Cl1 87.26(6) 1_545 1_545
Cl2 Cu1 Cl1 171.93(9) . 1_545
Cl1 Cu1 Cl1 92.01(9) . 1_545
Cl2 Cu1 O1 94.73(13) 1_545 .
Cl2 Cu1 O1 94.73(14) . .
Cl1 Cu1 O1 93.34(14) . .
Cl1 Cu1 O1 93.34(14) 1_545 .
Cu1 Cl1 Cu1 92.01(9) 1_565 .
Cu1 Cl2 Cu1 92.34(9) 1_565 .
Cu1 O1 H1 127(2) . .
Cu1 O1 H2 127(2) . .
H1 O1 H2 106(3) . .
O2 C1 C2 121.0(9) . .
O2 C1 C2 121.0(9) . 6_565
C2 C1 C2 117.7(17) . 6_565
C1 C2 H2A 109.5 . .
C1 C2 H2B 109.5 . .
H2A C2 H2B 109.5 . .
C1 C2 H2C 109.5 . .
H2A C2 H2C 109.5 . .
H2B C2 H2C 109.5 . .
loop_
_geom_bond_atom_site_label_1
_geom_bond_atom_site_label_2
_geom_bond_distance
_geom_bond_site_symmetry_2
Cu1 Cl2 2.2761(18) 1_545
Cu1 Cl2 2.2761(18) .
Cu1 Cl1 2.2825(18) .
Cu1 Cl1 2.2825(18) 1_545
Cu1 O1 2.286(7) .
Cl1 Cu1 2.2825(18) 1_565
Cl2 Cu1 2.2761(18) 1_565
O1 H1 0.837(10) .
O1 H2 0.836(10) .
O2 C1 1.22(2) .
C1 C2 1.483(16) .
C1 C2 1.483(16) 6_565
C2 H2A 0.9800 .
C2 H2B 0.9800 .
C2 H2C 0.9800 .
