#------------------------------------------------------------------------------
#$Date: 2019-11-23 10:33:35 +0200 (Sat, 23 Nov 2019) $
#$Revision: 232888 $
#$URL: file:///home/coder/svn-repositories/cod/cif/4/34/83/4348365.cif $
#------------------------------------------------------------------------------
#
# This file is available in the Crystallography Open Database (COD),
# http://www.crystallography.net/
#
# All data on this site have been placed in the public domain by the
# contributors.
#
data_4348365
loop_
_publ_author_name
'Cong, Rihong'
'Wang, Ying'
'Kang, Lei'
'Zhou, Zhengyang'
'Lin, Zheshuai'
'Yang, Tao'
_publ_section_title
;
 An outstanding second-harmonic generation material BiB2O4F: exploiting
 the electron-withdrawing ability of fluorine
;
_journal_issue                   2
_journal_name_full               'Inorganic Chemistry Frontiers'
_journal_page_first              170
_journal_paper_doi               10.1039/C4QI00192C
_journal_volume                  2
_journal_year                    2015
_chemical_formula_moiety         'B6 Bi3 H3 O15'
_chemical_formula_sum            'C0 H3 B6 Bi3 O15'
_chemical_formula_weight         934.82
_space_group_crystal_system      trigonal
_space_group_IT_number           144
_space_group_name_Hall           'P 31'
_space_group_name_H-M_alt        'P 31'
_atom_sites_solution_hydrogens   difmap
_audit_creation_date             2014-10-15
_audit_creation_method
;
Olex2 1.2
(compiled 2014.09.19 svn.r3010 for OlexSys, GUI svn.r4874)
;
_audit_update_record
;
2014-10-17 deposited with the CCDC.
2014-12-26 downloaded from the CCDC.
;
_cell_angle_alpha                90
_cell_angle_beta                 90
_cell_angle_gamma                120
_cell_formula_units_Z            1
_cell_length_a                   6.62214(10)
_cell_length_b                   6.62214(10)
_cell_length_c                   6.65264(10)
_cell_measurement_temperature    293(2)
_cell_volume                     252.651(7)
_computing_molecular_graphics    'Olex2 (Dolomanov et al., 2009)'
_computing_publication_material  'Olex2 (Dolomanov et al., 2009)'
_computing_structure_refinement  'ShelXL (Sheldrick, 2008)'
_diffrn_ambient_temperature      293(2)
_diffrn_measured_fraction_theta_full 0.997
_diffrn_measured_fraction_theta_max 0.860
_diffrn_radiation_type           MoK\a
_diffrn_radiation_wavelength     0.71073
_diffrn_reflns_av_R_equivalents  0.0276
_diffrn_reflns_av_unetI/netI     0.0770
_diffrn_reflns_Laue_measured_fraction_full 0.997
_diffrn_reflns_Laue_measured_fraction_max 0.860
_diffrn_reflns_limit_h_max       8
_diffrn_reflns_limit_h_min       -2
_diffrn_reflns_limit_k_max       4
_diffrn_reflns_limit_k_min       -8
_diffrn_reflns_limit_l_max       9
_diffrn_reflns_limit_l_min       -4
_diffrn_reflns_number            546
_diffrn_reflns_point_group_measured_fraction_full 0.604
_diffrn_reflns_point_group_measured_fraction_max 0.505
_diffrn_reflns_theta_full        25.242
_diffrn_reflns_theta_max         28.995
_diffrn_reflns_theta_min         3.553
_exptl_absorpt_coefficient_mu    52.218
_exptl_crystal_density_diffrn    6.144
_exptl_crystal_description       Plate
_exptl_crystal_F_000             402
_refine_diff_density_max         3.151
_refine_diff_density_min         -3.026
_refine_diff_density_rms         0.719
_refine_ls_abs_structure_details
;
 Flack x determined using 64 quotients [(I+)-(I-)]/[(I+)+(I-)]
 (Parsons and Flack (2004), Acta Cryst. A60, s61).
;
_refine_ls_abs_structure_Flack   0.03(7)
_refine_ls_extinction_method     none
_refine_ls_goodness_of_fit_ref   1.018
_refine_ls_hydrogen_treatment    constr
_refine_ls_matrix_type           full
_refine_ls_number_parameters     35
_refine_ls_number_reflns         448
_refine_ls_number_restraints     1
_refine_ls_restrained_S_all      1.017
_refine_ls_R_factor_all          0.0443
_refine_ls_R_factor_gt           0.0418
_refine_ls_shift/su_max          0.005
_refine_ls_shift/su_mean         0.000
_refine_ls_structure_factor_coef Fsqd
_refine_ls_weighting_details
;
 w=1/[\s^2^(Fo^2^)+(0.0461P)^2^]
 where P=(Fo^2^+2Fc^2^)/3
;
_refine_ls_weighting_scheme      calc
_refine_ls_wR_factor_gt          0.0915
_refine_ls_wR_factor_ref         0.0934
_reflns_Friedel_coverage         0.173
_reflns_Friedel_fraction_full    0.211
_reflns_Friedel_fraction_max     0.149
_reflns_number_gt                428
_reflns_number_total             448
_reflns_threshold_expression     'I > 2\s(I)'
_cod_data_source_file            c4qi00192c2.cif
_cod_data_source_block           14
_cod_original_cell_volume        252.652(8)
_cod_database_code               4348365
_shelxl_version_number           2013-2
_shelx_space_group_comment
;
The symmetry employed for this shelxl refinement is uniquely defined
by the following loop, which should always be used as a source of
symmetry information in preference to the above space-group names.
They are only intended as comments.
;
_olex2_refinement_description
;
1. Fixed Uiso
 At 1.2 times of:
  All O(H) groups
2. Uiso/Uaniso restraints and constraints
Uiso(O1) = Uiso(O2) = Uiso(O3) = Uiso(O4)
3. Others
 Fixed X: H(0.204519)
 Fixed Y: H(0.615221)
 Fixed Z: H(0.518291)
;
_shelx_res_file
;
TITL Bi3B6-9b-02 in P31 #144
CELL 0.71073 6.622145 6.622145 6.652645 90 90 120
ZERR 1 0.000096 0.000096 0.0001 0 0 0
LATT -1
SYMM -Y,+X-Y,0.333+Z
SYMM +Y-X,-X,0.667+Z

SFAC B Bi O H C
UNIT 6 3 15 3 0
EADP O1 O2 O3 O4

L.S. 100
PLAN  10
REM reset to P31 #144
BOND
fmap 2
acta
REM <HKL>F:\PKU\Tao%20Yang\Solve\BiB2O4(OH)\11.hkl</HKL>

WGHT    0.046100
FVAR       3.69496
BI1   2    0.465417    1.039534   -0.502035    11.00000    0.00053    0.00088 =
         0.00366    0.00033   -0.00042    0.00020
O1    3    0.652425    0.811455   -0.472146    11.00000    0.00441
O2    3    0.341865    0.147631   -0.894960    11.00000    0.00441
O3    3    0.589349    1.432915   -0.528979    11.00000    0.00441
O4    3    1.076261    1.037692   -0.388641    11.00000    0.00441
B2    1    0.608558    0.603195   -0.363398    11.00000    0.00078
O5    3    0.384158    0.490238   -0.259761    11.00000    0.00023
H     4   10.204519   10.615221   10.518291    11.00000   -1.20000
B1    1    0.881996    0.989151   -0.531020    11.00000    0.02227
HKLF 4

REM  Bi3B6-9b-02 in P31 #144
REM R1 =  0.0418 for     428 Fo > 4sig(Fo)  and  0.0443 for all     448 data
REM     35 parameters refined using      1 restraints

END

WGHT      0.0458      0.0000

REM Highest difference peak  3.151,  deepest hole -3.026,  1-sigma level  0.719
Q1    1   0.6034  1.1164 -0.6227  11.00000  0.05    3.15
Q2    1   0.5416  0.9646 -0.3722  11.00000  0.05    2.89
Q3    1   0.5105  1.1631 -0.3941  11.00000  0.05    2.87
Q4    1   0.3117  0.9446 -0.3858  11.00000  0.05    2.73
Q5    1   0.3729  1.0883 -0.6200  11.00000  0.05    2.65
Q6    1   0.6521  0.8912 -0.2615  11.00000  0.05    2.60
Q7    1   0.3965  0.8880 -0.6090  11.00000  0.05    2.55
Q8    1   0.5160  1.2918 -0.3608  11.00000  0.05    2.36
Q9    1   0.8970  0.8551 -0.3887  11.00000  0.05    2.11
Q10   1   0.7634  0.5533 -0.3960  11.00000  0.05    2.08
;
_shelx_res_checksum              25743
_shelx_hkl_file
;
   0   0  -2-13.5488 474.829   1
   0   0   2 436.523 555.713   1
   0   0   3 502496. 10934.4   1
   0   0  -3 506851. 11419.2   1
   0   0   4 124.810 842.886   1
   0   0   5-533.232 1053.69   1
   0   0   6 232121. 10738.1   1
   0   0   7 581.774 1279.32   1
   0   0   8 513.966 1775.74   1
   1  -1   8 122854. 10430.6   1
   1  -1   7 53224.9 6382.09   1
   1  -1   6 25258.5 4147.38   1
   0   1   6 21108.0 2940.93   1
  -1   0   6 27838.8 3978.39   1
  -1   0   5 222668. 10054.4   1
   0   1   5 221115. 8214.57   1
   1  -1   5 210778. 10734.9   1
   0   1   4 103291. 4849.61   1
   0  -1  -4 105945. 6019.09   1
   1  -1   4 106351. 7145.44   1
  -1   0   4 106485. 6283.11   1
  -1   0   3 81780.3 4928.87   1
   0  -1  -3 92272.5 4565.56   1
   1  -1   3 75901.7 5532.44   1
   0   1   3 77440.5 3507.62   1
   0  -1  -2 371720. 7095.80   1
   1   0  -2 375603. 8799.95   1
   1  -1   2 390003. 11908.5   1
   0   1   2 388399. 5596.67   1
  -1   1  -2 402420. 12827.3   1
  -1   1  -1 138183. 7323.47   1
   1  -1   1 123532. 6725.59   1
   0   1   0 58948.2 2102.54   1
   0  -1   0 61498.7 2029.07   1
   1  -1   0 55851.8 3202.12   1
   0  -1   1 283451. 6520.39   1
   0   1  -1 260966. 6513.22   1
   0  -1   2 184600. 6638.35   1
  -1   0  -2 171739. 8880.40   1
   1   0   2 193580. 8382.53   1
   1  -1  -2 192271. 5142.22   1
   0   1  -2 188644. 6787.85   1
   1   0   3 61969.2 4480.19   1
   0  -1   3 57532.6 4320.58   1
   1  -1  -3 70070.6 3708.14   1
   1   0   4 214325. 9013.59   1
   0  -1   4 208102. 9347.57   1
   1   0   5 79065.5 5853.10   1
   0  -1   5 83868.0 6591.32   1
   1   0   6 52042.3 5188.36   1
   0  -1   6 46274.3 5504.55   1
   1   0   7 157711. 9572.91   1
   0  -1   7 144696. 10395.8   1
   0  -1   8 25806.7 5032.50   1
   0  -1   9 16894.3 4694.83   1
   1  -2   8 21322.1 5209.05   1
   1  -2   7 141635. 11411.5   1
   1   1   6 59560.4 4789.89   1
   1  -2   6 68782.7 7464.01   1
   1   1   5 50111.6 3989.40   1
   1  -2   5 59452.6 6442.95   1
   1   1   4 285700. 8757.22   1
   1  -2   4 271996. 12565.0   1
   1   1   3 160501. 6252.18   1
  -1  -1  -3 169403. 7660.91   1
   1  -2   3 165650. 8963.57   1
   1   1   2 109616. 5954.05   1
   1  -2   2 119202. 6899.97   1
  -1   2  -1 258155. 9885.65   1
   1  -2   1 284149. 9682.09   1
  -1   2   0 160956. 7911.87   1
   1  -2   0 160713. 6908.43   1
   1   1  -1 68700.3 3817.14   1
   2  -1   1 59935.9 4993.46   1
   1  -2  -1 73040.3 3963.80   1
   2  -1   2 157707. 10090.9   1
  -1  -1   2 157762. 6711.02   1
   1  -2  -3 106215. 3665.45   1
  -1  -1   3 103297. 6157.41   1
   2  -1   3 111652. 8869.94   1
  -1  -1   4 66935.4 5559.03   1
   2  -1   4 57603.6 6230.19   1
   1  -2  -4 62632.1 3629.39   1
   2  -1   5 125246. 9277.48   1
  -1  -1   5 139318. 8751.99   1
  -1  -1   6 94254.2 7943.10   1
   2  -1   6 88891.6 8327.48   1
  -1  -1   7 38429.1 5569.54   1
   2  -1   7 45749.9 6354.78   1
   2  -1   8 82727.5 8849.82   1
   2  -2   8 20862.0 5088.32   1
   2  -2   7 28733.5 5566.31   1
   2  -2   6 157748. 11839.2   1
   2  -2   5 57334.3 6880.22   1
   2  -2   4 66620.7 6991.41   1
   0  -2  -4 84456.8 5392.71   1
   0   2   4 73101.4 3100.75   1
   0  -2  -3 290045. 6037.03   1
   2  -2   3 261006. 13396.8   1
   2  -2   2 92855.7 8106.97   1
   0   2   1 76539.1 2305.71   1
  -2   2  -1 65400.6 6742.31   1
   2  -2   1 78973.9 6952.73   1
   2  -2   0 386669. 12097.6   1
   0   2   0 411669. 7909.81   1
   0  -2   0 417867. 7225.10   1
   0  -2   1 94428.2 4576.53   1
   0   2  -1 103640. 5005.57   1
   2   0   2 92033.3 6993.29   1
   0  -2   2 88730.1 5215.86   1
   2  -2  -3 204573. 7060.76   1
   0  -2   3 208018. 9248.18   1
   2   0   3 204688. 11534.2   1
   0  -2   4 70641.0 6126.49   1
   2   0   4 67937.9 6296.73   1
   0  -2   5 57129.9 6066.20   1
   2   0   5 57301.6 5745.10   1
   2   0   6 117103. 8500.59   1
   0  -2   6 132579. 10151.0   1
   2   0   7 47798.6 5684.19   1
   0  -2   7 40948.6 6287.99   1
   0  -2   8 36692.7 6376.35   1
   1  -3   7 2643.48 2752.09   1
   1  -3   6 2772.63 2557.16   1
   2   1   5 245816. 10161.1   1
   1  -3   5 242618. 13939.2   1
   1  -3   4 11305.4 3173.81   1
   2   1   4 7809.25 2237.76   1
   1  -3   3 2416.58 1704.89   1
   2   1   3 322.864 1283.69   1
   1  -3   2 470603. 14588.3   1
   2   1   2 455186. 12413.4   1
   1  -3   1 25205.8 3041.28   1
   1  -3   0 19476.6 2254.06   1
  -1   3   0 15517.4 2678.19   1
   1  -3  -1 544061. 9138.66   1
   3  -2   1 539242. 18103.3   1
  -1   3   1 529041. 11868.6   1
   3  -2   2 24615.7 4731.20   1
   3  -2   3 2721.93 2550.86   1
   1  -3  -4 347325. 7273.97   1
   3  -2   4 341258. 18086.5   1
   3  -2   5 3035.70 2507.92   1
   3  -2   6 1937.86 2209.27   1
   3  -2   7 164311. 13668.7   1
   3  -2   8 2417.75 2936.77   1
   2  -3   8 24447.4 5945.74   1
   2  -3   7 45228.7 7571.85   1
   2  -3   6 165828. 13194.8   1
   2  -3   5 55535.8 7327.50   1
   1   2   4 110223. 3910.55   1
   2  -3   4 100669. 9070.94   1
   2  -3   3 185878. 11395.2   1
   1   2   3 193619. 5090.84   1
   2  -3   2 65616.2 6681.48   1
   1   2   2 69496.3 3802.20   1
   1   2   1 249924. 5748.94   1
   2  -3   1 241648. 12435.0   1
   1   2   0 276412. 7518.53   1
   2  -3   0 254015. 11840.9   1
  -2   3   0 282077. 12531.8   1
   2  -3  -1 48297.3 4598.75   1
  -1  -2   2 229880. 8882.41   1
   3  -1   2 230885. 12516.2   1
   3  -1   3 353077. 17360.1   1
  -1  -2   3 324832. 11907.9   1
   2  -3  -3 331806. 7950.97   1
   2  -3  -4 38586.8 2856.96   1
   3  -1   4 41917.1 6471.41   1
  -1  -2   4 47839.4 5204.08   1
   3  -1   5 85008.6 8697.10   1
  -1  -2   5 80299.0 7355.33   1
   3  -1   6 155267. 11854.1   1
  -1  -2   6 150399. 10952.0   1
  -1  -2   7 18062.1 4469.91   1
   3  -1   7 18566.7 4589.93   1
   3  -3   8 103934. 12243.7   1
   3  -3   7 17619.3 5224.27   1
   3  -3   6 38816.6 6970.13   1
   3  -3   5 139080. 12050.7   1
   3  -3   4 15287.2 4231.35   1
   3  -3   3 116801. 10901.9   1
   3  -3   2 330688. 17254.3   1
   3  -3   1 47533.4 6160.10   1
   0   3   1 42768.0 2633.67   1
   0   3   0 79808.1 4306.49   1
   3  -3   0 74567.4 6754.20   1
   0  -3   0 71561.0 3668.54   1
   0  -3   1 322477. 9393.10   1
   3   0   2 54762.6 5236.74   1
   0  -3   2 56743.2 4712.69   1
   3   0   3 49367.6 6267.56   1
   0  -3   3 40144.1 4569.50   1
   0  -3   4 230805. 11922.5   1
   3   0   4 208609. 13566.2   1
   0  -3   5 42064.3 5857.87   1
   3   0   5 40701.7 5914.96   1
   3   0   6 35112.3 5317.17   1
   0  -3   6 43874.6 6573.26   1
   0  -3   7 150436. 12746.9   1
   1  -4   7 17369.1 5234.23   1
   1  -4   6 163378. 13397.0   1
   3   1   5 16505.0 3546.73   1
   1  -4   5 20339.6 4629.23   1
   3   1   4 58012.1 6942.28   1
   1  -4   4 61319.9 6965.34   1
   3   1   3 218547. 12372.7   1
   1  -4   3 220869. 11826.8   1
   1  -4   2 38010.7 4501.31   1
   1  -4   1 71582.1 5277.27   1
   4  -3   0 275498. 12991.3   1
   1  -4   0 278160. 8678.72   1
   1  -4  -1 32972.8 2317.82   1
  -1   4   1 35027.7 4125.06   1
   4  -3   1 29462.6 5135.42   1
   4  -3   2 29242.9 5615.06   1
   4  -3   3 296287. 17819.4   1
   4  -3   4 20332.7 5490.05   1
   4  -3   5 47169.7 7683.99   1
   4  -3   6 164698. 14277.3   1
   4  -3   7 14486.2 5036.33   1
   2  -4   7 135619. 13477.7   1
   2  -4   6 31089.0 6525.98   1
   2  -4   5 13611.9 4081.28   1
   2  -4   4 259947. 15366.0   1
   2   2   4 263604. 9519.78   1
   2  -4   3 86493.0 8209.08   1
   2   2   3 71373.1 6070.51   1
   2  -4   2 20187.1 3793.01   1
   2  -4   1 263704. 12026.8   1
   2  -4   0 125267. 7819.52   1
   2  -4  -1 29496.4 3633.63   1
   4  -2   1 38426.6 5025.94   1
   4  -2   2 282974. 15392.2   1
   2  -4  -2 271093. 9586.38   1
   4  -2   3 104596. 10127.9   1
   2  -4  -3 101274. 5338.86   1
   2  -4  -3 106442. 3686.39   1
   4  -2   4 25191.7 5593.02   1
   4  -2   5 199741. 15146.8   1
   4  -2   6 41230.3 7107.08   1
   4  -2   7 19416.6 5324.73   1
   4  -2   8 83788.1 10759.6   1
   3  -4   7 85583.6 11172.8   1
   3  -4   6 44266.1 7896.91   1
   3  -4   5 67951.2 8989.44   1
   3  -4   4 144965. 12157.4   1
   3  -4   3 63671.9 7900.08   1
   1   3   2 107686. 3366.15   1
   3  -4   2 115739. 10318.0   1
   1   3   1 203876. 6141.02   1
   3  -4   1 209923. 13310.4   1
   3  -4   0 93296.3 8308.11   1
   3  -4  -1 130310. 9090.42   1
  -1  -3   2 147519. 7777.19   1
   3  -4  -2 159061. 8615.97   1
   4  -1   2 154963. 10374.0   1
   4  -1   3 64535.4 7968.08   1
  -1  -3   3 74709.0 6340.06   1
  -1  -3   4 92042.7 7792.94   1
   4  -1   4 87090.7 9676.30   1
   4  -1   5 141587. 12692.7   1
  -1  -3   5 144850. 10708.9   1
  -1  -3   6 55380.6 7343.64   1
   4  -1   6 49041.8 7362.55   1
  -1  -3   7 39025.5 6724.11   1
   4  -4   7 53813.7 9321.85   1
   4  -4   6 20365.8 5770.01   1
   4  -4   5 97879.5 11028.3   1
   4  -4   4 145176. 13199.3   1
   4  -4   3 33966.0 6466.23   1
   4  -4   2 198870. 14383.2   1
   4  -4   1 165821. 12309.7   1
   0   4   1 160502. 6656.46   1
   0  -4   0 22949.3 2436.92   1
   4  -4   0 31876.3 5254.94   1
   0  -4   1 132448. 6821.56   1
   4  -4  -1 136943. 9348.07   1
   0  -4   2 165015. 8736.14   1
   4   0   2 156800. 9529.50   1
   0  -4   3 51709.2 5639.23   1
   4   0   3 53744.6 6870.70   1
   4   0   4 151005. 12230.1   1
   0  -4   4 144166. 10359.4   1
   0  -4   5 105827. 9925.34   1
   4   0   5 105487. 10673.5   1
   0  -4   6 46462.3 7276.34   1
   1  -5   6 20828.1 5693.65   1
   1  -5   5 108999. 10814.7   1
   4   1   4 95166.9 9598.94   1
   1  -5   4 83532.2 8705.21   1
   1  -5   3 42904.9 5720.42   1
   4   1   3 36254.9 5469.55   1
   1  -5   2 143643. 8982.17   1
   1  -5   1 73321.8 5709.27   1
   5  -4  -1 95439.0 8454.11   1
   1  -5   0 64080.8 4503.53   1
   5  -4   0 74426.7 8147.02   1
   1  -5  -1 183790. 5940.39   1
   5  -4   1 176235. 13449.0   1
   5  -4   2 98699.6 10369.3   1
   5  -4   3 59657.1 8564.78   1
   5  -4   4 192560. 16040.2   1
   5  -4   5 80056.3 10592.9   1
   5  -4   6 38008.6 7587.47   1
   2  -5   6 96517.2 11521.6   1
   2  -5   5 94326.4 10545.3   1
   2  -5   4 42068.4 6667.09   1
   2  -5   3 115291. 9801.25   1
   3   2   3 124110. 8953.31   1
   2  -5   2 164420. 10682.5   1
   2  -5   1 76553.4 6658.20   1
   5  -3   0 155031. 10583.9   1
   2  -5   0 141425. 7856.19   1
   2  -5  -1 100139. 5670.09   1
   5  -3   1 87023.6 8755.34   1
   5  -3   2 71595.0 8807.30   1
   2  -5  -2 59959.8 3329.19   1
   5  -3   3 154438. 13188.0   1
   5  -3   4 81411.6 10182.2   1
   5  -3   5 52361.2 8535.48   1
   5  -3   6 81231.4 10352.4   1
   5  -3   7 61723.1 9535.17   1
   3  -5   6 36826.4 7667.33   1
   3  -5   5 154016. 13976.3   1
   3  -5   4 25089.7 5654.66   1
   3  -5   3 35040.9 6040.38   1
   3  -5   2 198880. 13061.1   1
   3  -5   1 52484.8 6528.78   1
   3  -5   0 81664.5 7827.76   1
   3  -5  -1 222378. 11939.4   1
   5  -2   1 213445. 12535.4   1
   5  -2   2 33316.2 5779.42   1
   3  -5  -2 32856.2 4423.29   1
   5  -2   3 43221.3 7088.68   1
   5  -2   4 136743. 12702.4   1
   5  -2   5 25990.6 6198.95   1
   5  -2   6 33140.1 6971.30   1
   5  -2   7 80053.4 10467.0   1
   4  -5   6 160090. 15526.2   1
   4  -5   5 6010.39 3813.98   1
   4  -5   4 7312.40 3711.87   1
   4  -5   3 276989. 17732.7   1
   4  -5   2 17814.0 4925.46   1
   4  -5   1 18937.4 4740.27   1
   4  -5   0 335421. 17096.3   1
   4  -5  -1 1231.38 1905.30   1
   5  -1   2 203.146 1750.23   1
   4  -5  -2 6390.43 2671.72   1
   5  -1   3 271988. 16393.9   1
   4  -5  -3 278768. 12838.0   1
  -1  -4   3 287113. 13092.8   1
  -1  -4   4 6186.93 2860.33   1
   5  -1   4 4342.50 3091.17   1
  -1  -4   5 1760.78 2031.22   1
   5  -1   5 2389.39 2823.61   1
   5  -1   6 191249. 15458.4   1
  -1  -4   6 204782. 14732.2   1
   5  -5   6 13298.6 4911.34   1
   5  -5   5 52408.5 8671.08   1
   5  -5   4 144212. 13886.0   1
   5  -5   3 40387.9 7542.60   1
   5  -5   2 145198. 13106.4   1
   5  -5   1 198568. 14468.7   1
   5  -5   0 48623.7 7194.28   1
   5  -5  -1 127467. 10690.2   1
   0  -5   1 122012. 7136.28   1
   5   0   2 199799. 12049.7   1
   5  -5  -2 177215. 11701.1   1
   0  -5   2 197074. 10295.6   1
   5   0   3 22890.7 4917.02   1
   0  -5   3 25825.3 4430.39   1
   5  -5  -3 26145.5 4401.37   1
   5   0   4 55876.2 7937.48   1
   0  -5   4 61668.5 7318.68   1
   5   0   5 151767. 13475.7   1
   0  -5   5 143511. 12190.9   1
   1  -6   5 14761.9 4791.33   1
   1  -6   4 22640.3 5141.38   1
   1  -6   3 176088. 11893.9   1
   5   1   3 173586. 12492.5   1
   1  -6   2 21822.7 3990.32   1
   6  -5  -2 23751.9 5029.10   1
   1  -6   1 46054.5 4902.47   1
   6  -5  -1 50676.7 7368.93   1
   6  -5   0 183858. 14536.2   1
   1  -6   0 194279. 8425.99   1
   6  -5   1 16595.5 5071.61   1
   6  -5   2 48382.3 8084.09   1
   6  -5   3 187187. 15859.0   1
   6  -5   4 18765.2 6078.25   1
   6  -5   5 24799.4 6382.35   1
   2  -6   5 8481.81 4244.24   1
   2  -6   4 206647. 14867.4   1
   2  -6   3 6948.49 3243.07   1
   2  -6   2 6797.03 2778.68   1
   2  -6   1 232173. 11655.6   1
   6  -4   0 25773.0 5347.23   1
   2  -6   0 15274.4 2743.11   1
   6  -4   1 3122.20 2561.45   1
   6  -4   2 301313. 19144.6   1
   6  -4   3 5874.73 3684.72   1
   6  -4   4 10197.5 4419.09   1
   6  -4   5 239945. 18730.2   1
   3  -6   5 111550. 12443.3   1
   3  -6   4 26506.9 6064.03   1
   3  -6   3 100705. 10288.5   1
   3  -6   2 117835. 10344.6   1
   3  -6   1 36300.1 5443.25   1
   3  -6   0 116937. 8527.10   1
   3  -6  -1 125488. 7943.38   1
   6  -3   1 133142. 11758.1   1
   6  -3   2 39800.1 7044.20   1
   6  -3   3 88558.1 10502.2   1
   6  -3   4 101371. 11733.0   1
   6  -3   5 26733.4 6560.88   1
   6  -3   6 69655.0 10252.2   1
   4  -6   5 22079.0 6286.80   1
   4  -6   4 186367. 15334.6   1
   4  -6   3 13574.0 4456.80   1
   4  -6   2 21153.2 4973.84   1
   4  -6   1 235444. 14894.0   1
   4  -6   0 16145.5 4279.06   1
   4  -6  -1 18873.0 4184.80   1
   6  -2   1 9435.96 3343.52   1
   6  -2   2 254160. 16395.5   1
   4  -6  -2 292655. 14581.9   1
   6  -2   3 13515.8 4453.07   1
   6  -2   4 12005.1 4325.78   1
   6  -2   5 187667. 15893.9   1
   6  -2   6 11001.8 4874.66   1
   5  -6   5 153870. 14923.3   1
   5  -6   4 47978.3 8282.58   1
   5  -6   3 1301.60 2327.11   1
   5  -6   2 229745. 16756.2   1
   5  -6   1 64388.2 8632.83   1
   5  -6   0 18946.5 4725.98   1
   5  -6  -1 190951. 13326.8   1
   5  -6  -2 35070.7 5853.77   1
   6  -1   2 40377.7 6511.01   1
   6  -1   3 16368.3 4707.06   1
   6  -1   4 165711. 14055.4   1
   6  -1   5 28509.7 6468.27   1
   6  -6   4 82742.8 10979.5   1
   6  -6   3 68961.2 10174.4   1
   6  -6   2 97877.5 11484.8   1
   6  -6   1 75057.8 9908.48   1
   6  -6   0 83293.8 9831.42   1
   6  -6  -1 63485.2 8746.51   1
   6  -6  -2 56015.8 7917.01   1
   0  -6   2 56819.0 6106.62   1
   6   0   2 59039.6 7563.64   1
   6   0   3 62976.8 8432.69   1
   6  -6  -3 54029.0 7326.15   1
   0  -6   3 56972.0 6858.14   1
   6   0   4 64834.2 9159.61   1
   0  -6   4 71189.5 8510.66   1
   1  -7   4 97760.4 10438.1   1
   7  -6  -3 83043.7 9942.61   1
   1  -7   3 79041.9 8616.97   1
   1  -7   2 23935.8 4437.42   1
   7  -6  -2 28643.3 6311.99   1
   7  -6  -1 87322.3 11055.4   1
   7  -6   0 80676.5 10779.8   1
   7  -6   1 17540.1 5346.03   1
   7  -6   2 97247.4 12020.6   1
   7  -6   3 76105.4 10872.9   1
   2  -7   4 11052.2 4187.81   1
   2  -7   3 17993.3 4576.93   1
   2  -7   2 191670. 12334.2   1
   7  -5  -2 205093. 15770.5   1
   2  -7   1 18324.8 3982.57   1
   7  -5  -1 23139.9 5761.96   1
   7  -5   0 18555.1 5802.23   1
   7  -5   1 178696. 16159.8   1
   7  -5   2 2462.10 3199.99   1
   7  -5   3 16877.3 5397.15   1
   7  -5   4 160235. 15618.5   1
   3  -7   4 16304.8 5145.70   1
   3  -7   3 118913. 11412.1   1
   3  -7   2 52781.4 7114.88   1
   3  -7   1 18480.4 3940.36   1
   7  -4   0 202337. 16178.1   1
   7  -4   1 63255.9 9568.19   1
   7  -4   2 35201.2 7480.18   1
   7  -4   3 161385. 14860.2   1
   7  -4   4 44600.8 8356.94   1
   4  -7   4 42549.1 7975.30   1
   4  -7   3 89349.4 10393.0   1
   4  -7   2 77252.1 9182.22   1
   4  -7   1 59445.5 7461.45   1
   4  -7   0 84964.8 8272.12   1
   7  -3   1 72228.8 9950.14   1
   7  -3   2 47127.2 8480.43   1
   7  -3   3 81874.0 10870.2   1
   7  -3   4 69387.6 9991.66   1
   7  -3   5 45970.3 8686.63   1
   5  -7   4 66342.3 9778.47   1
   5  -7   3 84975.6 10553.5   1
   5  -7   2 32791.2 6487.50   1
   5  -7   1 119957. 11432.2   1
   5  -7   0 112269. 10901.3   1
   5  -7  -1 41418.1 6503.42   1
   7  -2   1 44189.0 7695.80   1
   7  -2   2 98659.8 11442.9   1
   7  -2   3 84429.9 11036.4   1
   7  -2   4 25354.7 6291.53   1
   7  -2   5 63163.3 9853.54   1
   6  -7   3 159613. 14645.2   1
   6  -7   2 36927.7 7306.88   1
   6  -7   1 84476.2 10450.3   1
   6  -7   0 108688. 11344.2   1
   6  -7  -1 32363.9 6199.59   1
   7  -1   2 50501.1 8072.65   1
   7  -1   3 89152.0 11231.9   1
   7  -1   4 7198.67 3954.00   1
   7  -7   2 13136.1 5134.83   1
   7  -7   1 200129. 16550.9   1
   7  -7   0 19257.8 5623.37   1
   7  -7  -1 8884.98 4052.34   1
   7  -7  -2 147630. 13546.6   1
   7   0   2 169288. 14601.7   1
   7   0   3 12015.9 4649.02   1
   8  -7  -2 29741.0 7382.71   1
   8  -7  -1 115576. 13608.5   1
   2  -8   3 58585.5 8161.76   1
   8  -6  -3 75348.0 10656.9   1
   8  -6  -2 29532.2 7396.97   1
   8  -6  -1 69608.5 11266.7   1
   8  -6   0 91563.4 12786.6   1
   3  -8   3 33487.3 6550.05   1
   8  -5  -2 72309.9 11214.9   1
   8  -5  -1 100555. 13324.1   1
   8  -5   0 52371.8 10049.1   1
   8  -5   1 75845.3 11989.6   1
   4  -8   3 9387.80 4428.86   1
   4  -8   2 39835.5 6919.89   1
   8  -4  -1 190811. 18352.1   1
   8  -4   0 16061.5 6059.54   1
   8  -4   1 36901.4 8594.38   1
   8  -4   2 136279. 15408.4   1
   5  -8   3 16713.1 5189.02   1
   5  -8   2 130732. 12389.9   1
   5  -8   1 12314.6 4062.00   1
   8  -3   0 12423.1 5345.71   1
   8  -3   1 198170. 18351.6   1
   8  -3   2 7218.46 4878.24   1
   6  -8   2 15370.6 5057.26   1
   6  -8   1 89828.8 10381.2   1
   8  -2   1 30797.9 7746.22   1
   7  -8   1 9730.34 4558.22   1
   7  -8   0-916.752 2647.30   1
   0   0   0    0.00    0.00   0
;
_shelx_hkl_checksum              24917
_olex2_submission_special_instructions 'No special instructions were received'
loop_
_space_group_symop_operation_xyz
'x, y, z'
'-y, x-y, z+1/3'
'-x+y, -x, z+2/3'
loop_
_atom_site_label
_atom_site_type_symbol
_atom_site_fract_x
_atom_site_fract_y
_atom_site_fract_z
_atom_site_U_iso_or_equiv
_atom_site_adp_type
_atom_site_occupancy
_atom_site_site_symmetry_order
_atom_site_calc_flag
_atom_site_refinement_flags_posn
Bi1 Bi 0.4654(2) 1.0395(2) -0.5020(8) 0.0018(3) Uani 1 1 d .
O1 O 0.652(4) 0.811(4) -0.472(4) 0.004(3) Uiso 1 1 d .
O2 O 0.342(4) 0.148(4) -0.895(3) 0.004(3) Uiso 1 1 d .
O3 O 0.589(4) 1.433(4) -0.529(3) 0.004(3) Uiso 1 1 d .
O4 O 1.076(4) 1.038(4) -0.389(3) 0.004(3) Uiso 1 1 d .
B2 B 0.609(7) 0.603(6) -0.363(5) 0.001(7) Uiso 1 1 d .
O5 O 0.384(4) 0.490(4) -0.260(3) 0.000(5) Uiso 1 1 d .
H H 0.2045 0.6152 0.5183 0.000 Uiso 1 1 d R
B1 B 0.882(9) 0.989(9) -0.531(7) 0.022(11) Uiso 1 1 d .
loop_
_atom_site_aniso_label
_atom_site_aniso_U_11
_atom_site_aniso_U_22
_atom_site_aniso_U_33
_atom_site_aniso_U_23
_atom_site_aniso_U_13
_atom_site_aniso_U_12
Bi1 0.0005(6) 0.0009(6) 0.0037(5) 0.0003(5) -0.0004(5) 0.0002(5)
loop_
_atom_type_symbol
_atom_type_description
_atom_type_scat_dispersion_real
_atom_type_scat_dispersion_imag
_atom_type_scat_source
B B 0.0013 0.0007 'International Tables Vol C Tables 4.2.6.8 and 6.1.1.4'
Bi Bi -4.1077 10.2566 'International Tables Vol C Tables 4.2.6.8 and 6.1.1.4'
O O 0.0106 0.0060 'International Tables Vol C Tables 4.2.6.8 and 6.1.1.4'
H H 0.0000 0.0000 'International Tables Vol C Tables 4.2.6.8 and 6.1.1.4'
C C 0.0033 0.0016 'International Tables Vol C Tables 4.2.6.8 and 6.1.1.4'
loop_
_geom_angle_atom_site_label_1
_geom_angle_atom_site_label_2
_geom_angle_atom_site_label_3
_geom_angle
_geom_angle_site_symmetry_1
_geom_angle_site_symmetry_3
O1 Bi1 O4 140.7(8) . 1_455
O1 Bi1 O5 80.1(7) . 3_564
O2 Bi1 O1 58.4(9) 2_665 .
O2 Bi1 O3 78.1(8) 2_665 .
O2 Bi1 O4 156.6(8) 2_665 1_455
O2 Bi1 O5 130.0(8) 2_665 3_564
O3 Bi1 O1 88.9(9) 2_775 .
O3 Bi1 O1 135.5(8) . .
O3 Bi1 O2 85.6(8) 2_775 2_665
O3 Bi1 O3 78.4(8) 2_775 .
O3 Bi1 O4 82.1(8) 2_775 1_455
O3 Bi1 O4 80.0(8) . 1_455
O3 Bi1 O5 142.0(7) . 3_564
O3 Bi1 O5 122.7(8) 2_775 3_564
O4 Bi1 O5 73.2(7) 1_455 3_564
B2 O1 Bi1 136(2) . .
B1 O1 Bi1 97(2) . .
B1 O1 B2 123(3) . .
B2 O2 Bi1 126(2) 2_654 3_564
B2 O2 B1 125(3) 2_654 3_564
B1 O2 Bi1 102(2) 3_564 3_564
Bi1 O3 Bi1 112.2(10) 3_574 .
B2 O3 Bi1 116.5(18) 1_565 3_574
B2 O3 Bi1 128.6(18) 1_565 .
B1 O4 Bi1 102(2) 2_765 1_655
B1 O4 Bi1 123(2) . 1_655
B1 O4 B1 116.8(18) . 2_765
O1 B2 O2 110(3) . 3_665
O1 B2 O3 104(2) . 1_545
O1 B2 O5 113(3) . .
O2 B2 O3 111(3) 3_665 1_545
O5 B2 O2 113(2) . 3_665
O5 B2 O3 106(3) . 1_545
B2 O5 Bi1 154.4(19) . 2_665
O1 B1 O2 103(3) . 2_665
O1 B1 O4 112(4) . 3_674
O1 B1 O4 117(4) . .
O2 B1 O4 113(3) 2_665 .
O2 B1 O4 112(3) 2_665 3_674
O4 B1 O4 102(3) . 3_674
loop_
_geom_bond_atom_site_label_1
_geom_bond_atom_site_label_2
_geom_bond_distance
_geom_bond_site_symmetry_2
Bi1 O1 2.39(2) .
Bi1 O2 2.27(2) 2_665
Bi1 O3 2.31(2) .
Bi1 O3 2.16(2) 2_775
Bi1 O4 2.68(2) 1_455
Bi1 O5 2.69(2) 3_564
O1 B2 1.45(4) .
O1 B1 1.44(6) .
O2 Bi1 2.27(2) 3_564
O2 B2 1.47(4) 2_654
O2 B1 1.48(6) 3_564
O3 Bi1 2.16(2) 3_574
O3 B2 1.54(4) 1_565
O4 Bi1 2.68(2) 1_655
O4 B1 1.52(5) 2_765
O4 B1 1.50(6) .
B2 O2 1.47(4) 3_665
B2 O3 1.54(4) 1_545
B2 O5 1.46(4) .
O5 Bi1 2.69(2) 2_665
B1 O2 1.48(6) 2_665
B1 O4 1.52(5) 3_674
