#------------------------------------------------------------------------------
#$Date: 2019-11-23 10:30:01 +0200 (Sat, 23 Nov 2019) $
#$Revision: 232880 $
#$URL: file:///home/coder/svn-repositories/cod/cif/4/34/83/4348338.cif $
#------------------------------------------------------------------------------
#
# This file is available in the Crystallography Open Database (COD),
# http://www.crystallography.net/
#
# All data on this site have been placed in the public domain by the
# contributors.
#
data_4348338
loop_
_publ_author_name
'Mart\'inez-Casado, Francisco J'
'Ramos-Riesco, Miguel'
'Rodr\'iguez-Cheda, Jos\'e A'
'Cucinotta, Fabio'
'Matesanz, Emilio'
'Miletto, Ivana'
'Gianotti, Enrica'
'Marchese, Leonardo'
'Mat\<ej, Zden\<ek'
_publ_section_title
;
 Unraveling the Decomposition Process of Lead(II) Acetate: Anhydrous
 Polymorphs, Hydrates, and Byproducts and Room Temperature
 Phosphorescence.
;
_journal_issue                   17
_journal_name_full               'Inorganic chemistry'
_journal_page_first              8576
_journal_page_last               8586
_journal_paper_doi               10.1021/acs.inorgchem.6b01116
_journal_volume                  55
_journal_year                    2016
_chemical_formula_moiety         Pb1,(O2C2H3)2
_chemical_formula_sum            'C4 H6 O4 Pb'
_chemical_formula_weight         325.28
_chemical_name_common            'Lead(II) acetate. polymorph beta'
_chemical_name_systematic
; 
 'Lead(II) acetate. beta polymorph '
;
_space_group_IT_number           11
_space_group_name_Hall           '-P 2yb'
_space_group_name_H-M_alt        'P 1 21/m 1'
_symmetry_cell_setting           monoclinic
_symmetry_space_group_name_H-M   'P 1 21/m 1'
_atom_sites_solution_hydrogens   geom
_atom_sites_solution_primary     direct
_atom_sites_solution_secondary   difmap
_audit_creation_method           SHELXL-97
_cell_angle_alpha                90.00
_cell_angle_beta                 99.48(3)
_cell_angle_gamma                90.00
_cell_formula_units_Z            2
_cell_length_a                   4.7920(10)
_cell_length_b                   7.1480(14)
_cell_length_c                   10.058(2)
_cell_measurement_reflns_used    422
_cell_measurement_temperature    348(2)
_cell_measurement_theta_max      23.950
_cell_measurement_theta_min      1.0
_cell_volume                     339.81(12)
_computing_cell_refinement       'DENZO-SMN (Otwinowski & Minor, 1997)'
_computing_data_collection       'CCD Server Software Huber'
_computing_data_reduction        DENZO-SMN
_computing_molecular_graphics    'Mercury 1.4.2. and ORTEP-3 (Farrugia, 1997)'
_computing_publication_material  'SHELXL-97 (Sheldrick, 1997)'
_computing_structure_refinement  'SHELXL-97 (Sheldrick, 1997)'
_computing_structure_solution    'SHELXS-97 (Sheldrick, 1990)'
_diffrn_ambient_temperature      348(2)
_diffrn_detector_area_resol_mean 9.77
_diffrn_measured_fraction_theta_full 0.854
_diffrn_measured_fraction_theta_max 0.854
_diffrn_measurement_device_type  ADSCq210rCCD-HUBER
_diffrn_measurement_method       'f\ scans'
_diffrn_radiation_monochromator  Synchrotron
_diffrn_radiation_source         Synchrotron
_diffrn_radiation_type           Synchrotron
_diffrn_radiation_wavelength     0.75130
_diffrn_reflns_av_R_equivalents  0.0000
_diffrn_reflns_av_sigmaI/netI    0.1210
_diffrn_reflns_limit_h_max       5
_diffrn_reflns_limit_h_min       0
_diffrn_reflns_limit_k_max       7
_diffrn_reflns_limit_k_min       0
_diffrn_reflns_limit_l_max       10
_diffrn_reflns_limit_l_min       -10
_diffrn_reflns_number            422
_diffrn_reflns_theta_full        23.95
_diffrn_reflns_theta_max         23.95
_diffrn_reflns_theta_min         4.34
_exptl_absorpt_coefficient_mu    27.640
_exptl_absorpt_correction_T_max  0.0221
_exptl_absorpt_correction_T_min  0.0056
_exptl_absorpt_correction_type   cylinder
_exptl_absorpt_process_details
;
Interpolation using  Int.Tab. Vol. C (1992) p. 523,Tab. 6.3.3.3
for values of muR in the range 0-2.5, and Int.Tab. Vol.II (1959)
p.302; Table 5.3.6 B for muR in the range 2.6-10.0.
The interpolation procedure of C.W.Dwiggins Jr (Acta Cryst.(1975)
A31,146-148) is used with some modification.
;
_exptl_crystal_colour            Colourless
_exptl_crystal_density_diffrn    3.179
_exptl_crystal_density_method    'not measured'
_exptl_crystal_description       flake
_exptl_crystal_F_000             288
_exptl_crystal_size_max          0.200
_exptl_crystal_size_mid          0.100
_exptl_crystal_size_min          0.020
_exptl_crystal_size_rad          0.1500
_refine_diff_density_max         2.300
_refine_diff_density_min         -1.589
_refine_diff_density_rms         0.199
_refine_ls_extinction_method     none
_refine_ls_goodness_of_fit_ref   1.188
_refine_ls_hydrogen_treatment    mixed
_refine_ls_matrix_type           full
_refine_ls_number_parameters     47
_refine_ls_number_reflns         422
_refine_ls_number_restraints     0
_refine_ls_restrained_S_all      1.188
_refine_ls_R_factor_all          0.0863
_refine_ls_R_factor_gt           0.0841
_refine_ls_shift/su_max          0.000
_refine_ls_shift/su_mean         0.000
_refine_ls_structure_factor_coef Fsqd
_refine_ls_weighting_details
'calc w=1/[\s^2^(Fo^2^)+(0.1103P)^2^+1.9236P] where P=(Fo^2^+2Fc^2^)/3'
_refine_ls_weighting_scheme      calc
_refine_ls_wR_factor_gt          0.2297
_refine_ls_wR_factor_ref         0.2325
_reflns_number_gt                391
_reflns_number_total             422
_reflns_threshold_expression     >2sigma(I)
_cod_data_source_file            ic6b01116_si_002.cif
_cod_data_source_block           PbAc2_poly_beta
_cod_depositor_comments
;
The following automatic conversions were performed:

data item '_symmetry_cell_setting' value 'Monoclinic' was changed to
'monoclinic' in accordance with the
/home/saulius/struct/COD-crude-data/automatic-downloads/DataCite-retrospective/ACS/depositions/lib/dictionaries/cif_core.dic
dictionary named 'cif_core.dic' version 2.4.2 last updated on
2011-04-26.

Automatic conversion script
Id: cif_fix_values 6909 2019-04-08 15:41:33Z antanas 
;
_cod_original_sg_symbol_H-M      P21/m
_cod_database_code               4348338
_exptl_absorpt_correction_t_ave  0.0157
_shelx_f_squared_multiplier      1.000
loop_
_symmetry_equiv_pos_as_xyz
'x, y, z'
'-x, y+1/2, -z'
'-x, -y, -z'
'x, -y-1/2, z'
loop_
_atom_site_label
_atom_site_type_symbol
_atom_site_fract_x
_atom_site_fract_y
_atom_site_fract_z
_atom_site_U_iso_or_equiv
_atom_site_adp_type
_atom_site_occupancy
_atom_site_symmetry_multiplicity
_atom_site_calc_flag
_atom_site_refinement_flags
C1 C 0.804(8) 0.2500 0.650(5) 0.111(11) Uani 1 2 d S
C2 C 1.030(15) 0.2500 0.767(4) 0.138(19) Uani 1 2 d S
H2A H 1.0829 0.3766 0.7912 0.206 Uiso 0.50 1 calc PR
H2B H 1.1907 0.1836 0.7457 0.206 Uiso 0.50 1 calc PR
H2C H 0.9638 0.1899 0.8415 0.206 Uiso 0.50 1 calc PR
C3 C 0.551(10) 0.2500 0.186(5) 0.133(15) Uani 1 2 d S
C4 C 0.688(11) 0.2500 0.059(7) 0.15(3) Uani 1 2 d S
H4A H 0.5435 0.2500 -0.0192 0.227 Uiso 1 2 calc SR
H4B H 0.8035 0.1403 0.0585 0.227 Uiso 0.50 1 calc PR
H4C H 0.8035 0.3597 0.0585 0.227 Uiso 0.50 1 calc PR
O1 O 0.695(4) 0.101(4) 0.5971(17) 0.133(8) Uani 1 1 d .
O3 O 0.707(7) 0.2500 0.295(4) 0.145(8) Uani 1 2 d S
O4 O 0.308(6) 0.2500 0.176(4) 0.145(8) Uani 1 2 d S
Pb1 Pb 0.2868(3) 0.2500 0.41325(15) 0.1050(13) Uani 1 2 d S
loop_
_atom_site_aniso_label
_atom_site_aniso_U_11
_atom_site_aniso_U_22
_atom_site_aniso_U_33
_atom_site_aniso_U_23
_atom_site_aniso_U_13
_atom_site_aniso_U_12
C1 0.069(18) 0.09(3) 0.17(3) 0.000 0.00(2) 0.000
C2 0.15(5) 0.15(4) 0.10(2) 0.000 -0.03(3) 0.000
C3 0.10(3) 0.15(4) 0.14(3) 0.000 -0.02(3) 0.000
C4 0.09(3) 0.21(8) 0.15(4) 0.000 0.00(3) 0.000
O1 0.14(2) 0.086(17) 0.152 -0.003(9) -0.029(16) 0.001(10)
O3 0.091(12) 0.19(2) 0.148(16) 0.000 0.008(11) 0.000
O4 0.091(12) 0.19(2) 0.148(16) 0.000 0.008(11) 0.000
Pb1 0.0803(15) 0.0791(16) 0.1472(19) 0.000 -0.0059(9) 0.000
loop_
_atom_type_symbol
_atom_type_description
_atom_type_scat_dispersion_real
_atom_type_scat_dispersion_imag
_atom_type_scat_source
C C 0.0037 0.0018 'International Tables Vol C Tables 4.2.6.8 and 6.1.1.4'
H H 0.0000 0.0000 'International Tables Vol C Tables 4.2.6.8 and 6.1.1.4'
O O 0.0124 0.0069 'International Tables Vol C Tables 4.2.6.8 and 6.1.1.4'
Pb Pb -4.7105 11.0557 'International Tables Vol C Tables 4.2.6.8 and 6.1.1.4'
loop_
_geom_angle_atom_site_label_1
_geom_angle_atom_site_label_2
_geom_angle_atom_site_label_3
_geom_angle
_geom_angle_site_symmetry_1
_geom_angle_site_symmetry_3
O1 C1 O1 115(4) 4_565 .
O1 C1 C2 122.4(19) 4_565 .
O1 C1 C2 122.4(19) . .
O4 C3 O3 123(6) . .
O4 C3 C4 120(5) . .
O3 C3 C4 118(4) . .
O4 C3 Pb1 59(3) . .
O3 C3 Pb1 64(3) . .
C4 C3 Pb1 179(3) . .
C1 O1 Pb1 147.7(19) . 3_656
C1 O1 Pb1 99(2) . .
Pb1 O1 Pb1 113.2(8) 3_656 .
C3 O3 Pb1 90(3) . .
C3 O4 Pb1 97(3) . .
O4 Pb1 O3 50.3(11) . .
O4 Pb1 O1 87.2(4) . 2_656
O3 Pb1 O1 86.8(5) . 2_656
O4 Pb1 O1 87.2(4) . 3_656
O3 Pb1 O1 86.8(5) . 3_656
O1 Pb1 O1 173.4(10) 2_656 3_656
O4 Pb1 O1 122.7(8) . .
O3 Pb1 O1 76.9(9) . .
O1 Pb1 O1 113.5(7) 2_656 .
O1 Pb1 O1 66.8(8) 3_656 .
O4 Pb1 O1 122.7(8) . 4_565
O3 Pb1 O1 76.9(9) . 4_565
O1 Pb1 O1 66.8(8) 2_656 4_565
O1 Pb1 O1 113.5(7) 3_656 4_565
O1 Pb1 O1 46.8(13) . 4_565
O4 Pb1 C3 24.2(10) . .
O3 Pb1 C3 26.0(12) . .
O1 Pb1 C3 86.7(5) 2_656 .
O1 Pb1 C3 86.7(5) 3_656 .
O1 Pb1 C3 100.8(10) . .
O1 Pb1 C3 100.8(10) 4_565 .
loop_
_geom_bond_atom_site_label_1
_geom_bond_atom_site_label_2
_geom_bond_distance
_geom_bond_site_symmetry_2
C1 O1 1.26(4) 4_565
C1 O1 1.26(4) .
C1 C2 1.47(7) .
C3 O4 1.15(5) .
C3 O3 1.22(6) .
C3 C4 1.53(8) .
C3 Pb1 2.79(6) .
O1 Pb1 2.51(3) 3_656
O1 Pb1 2.682(19) .
O3 Pb1 2.50(3) .
O4 Pb1 2.41(4) .
Pb1 O1 2.51(3) 2_656
Pb1 O1 2.51(3) 3_656
Pb1 O1 2.682(19) 4_565
loop_
_refln_index_h
_refln_index_k
_refln_index_l
_refln_F_squared_calc
_refln_F_squared_meas
_refln_F_squared_sigma
_refln_observed_status
1 0 0 2097.93 2055.97 370.42 o
3 0 0 2319.55 2261.34 255.97 o
4 0 0 458.44 375.85 42.61 o
5 0 0 220.20 163.08 25.43 o
2 1 0 1161.35 977.61 124.55 o
3 1 0 1676.86 1661.58 133.02 o
4 1 0 644.87 599.66 48.04 o
5 1 0 31.25 26.33 3.05 o
1 2 0 820.90 886.36 92.22 o
3 2 0 1243.82 1263.79 116.83 o
4 2 0 320.72 304.27 24.40 o
2 3 0 1097.81 1082.85 97.53 o
3 3 0 1078.42 1132.18 90.65 o
4 3 0 415.14 377.36 30.28 o
1 4 0 204.58 232.02 26.36 o
2 4 0 1981.16 2292.31 259.48 o
3 4 0 397.72 393.89 31.58 o
4 4 0 125.23 123.63 12.44 o
1 5 0 1873.48 2058.99 329.91 o
2 5 0 254.24 277.61 31.57 o
3 5 0 302.84 358.71 40.73 o
1 6 0 60.43 96.89 11.08 o
2 6 0 521.16 826.82 93.70 o
3 6 0 107.85 153.16 23.91 o
2 7 0 37.39 50.83 8.06 o
-5 0 1 167.04 113.88 17.82 o
-4 0 1 12.87 10.57 1.65 o
-2 0 1 3255.68 3131.70 398.80 o
3 0 1 27.16 26.25 3.07 o
4 0 1 869.51 918.39 103.99 o
5 0 1 74.56 56.49 8.89 o
-5 1 1 11.02 6.58 1.09 o
-4 1 1 871.64 794.36 89.99 o
-3 1 1 122.02 128.83 11.98 o
-1 1 1 2892.95 3218.58 289.81 o
2 1 1 195.22 184.65 16.67 o
3 1 1 3104.20 2803.64 259.12 o
4 1 1 109.32 105.97 9.84 o
-4 2 1 13.42 19.03 2.13 o
-2 2 1 2033.67 2157.83 194.32 o
-1 2 1 4236.62 4373.07 454.61 o
1 2 1 1310.31 1158.68 120.52 o
2 2 1 5494.86 5714.58 1028.88 o
3 2 1 8.29 9.66 0.89 o
4 2 1 585.79 579.20 46.42 o
-4 3 1 532.85 499.75 80.08 o
-3 3 1 85.79 86.97 8.11 o
-1 3 1 3054.09 3575.63 455.23 o
2 3 1 40.44 43.33 3.51 o
3 3 1 1976.08 2075.95 191.88 o
4 3 1 83.23 89.66 9.02 o
-4 4 1 5.96 7.54 1.13 o
-3 4 1 761.17 783.69 88.80 o
-2 4 1 724.57 923.71 104.60 o
-1 4 1 1486.39 1597.69 180.88 o
0 4 1 2800.33 3342.59 601.78 o
1 4 1 420.20 392.97 44.56 o
2 4 1 1947.20 2177.46 246.54 o
3 4 1 4.21 6.58 0.71 o
4 4 1 237.07 241.49 26.63 o
-3 5 1 36.70 42.28 4.24 o
-2 5 1 895.99 1191.87 134.96 o
-1 5 1 818.27 1105.06 125.17 o
0 5 1 690.40 817.04 65.42 o
1 5 1 1978.96 2541.94 287.78 o
2 5 1 6.58 9.35 1.25 o
3 5 1 513.98 714.61 101.18 o
-3 6 1 216.88 286.94 44.70 o
-2 6 1 176.06 277.14 31.51 o
-1 6 1 504.05 684.23 77.58 o
0 6 1 885.98 1639.14 262.38 o
1 6 1 111.61 153.95 24.84 o
2 6 1 586.96 926.17 131.14 o
3 6 1 3.40 5.90 1.24 o
-2 7 1 125.83 166.42 26.04 o
-1 7 1 130.59 191.60 27.27 o
1 7 1 266.11 456.97 64.97 o
2 7 1 0.90 1.28 0.65 o
-5 0 2 96.46 56.31 8.97 o
-4 0 2 123.24 98.62 16.09 o
-2 0 2 3.11 3.79 1.15 o
0 0 2 1584.53 1274.41 162.40 o
2 0 2 5364.74 5302.64 955.03 o
3 0 2 458.47 461.02 52.23 o
4 0 2 679.36 773.45 87.58 o
-5 1 2 54.45 34.75 4.06 o
-4 1 2 488.65 424.23 39.27 o
-3 1 2 88.98 77.88 6.35 o
-1 1 2 1047.28 1138.08 102.57 o
1 1 2 3174.98 3507.03 446.61 o
2 1 2 1556.03 1361.32 122.62 o
3 1 2 2069.52 2223.66 177.99 o
4 1 2 36.58 40.47 3.31 o
-5 2 2 72.60 40.97 4.74 o
-4 2 2 75.05 62.07 7.27 o
-2 2 2 17.15 16.77 1.70 o
0 2 2 840.49 989.38 102.88 o
1 2 2 4631.49 4629.74 833.67 o
2 2 2 2728.08 2843.03 255.98 o
3 2 2 299.97 303.62 24.32 o
4 2 2 450.37 499.84 40.05 o
-4 3 2 295.49 238.02 19.15 o
-3 3 2 89.94 87.89 7.16 o
-1 3 2 495.93 481.33 43.41 o
1 3 2 3047.95 3332.08 346.37 o
2 3 2 1244.88 1278.00 102.32 o
3 3 2 1448.86 1723.54 137.96 o
4 3 2 16.24 18.09 2.17 o
-4 4 2 30.63 25.71 2.93 o
-3 4 2 655.02 602.29 55.73 o
-2 4 2 7.49 9.80 1.12 o
0 4 2 443.88 475.58 42.83 o
1 4 2 1573.80 1638.19 185.44 o
2 4 2 995.46 1206.96 111.55 o
3 4 2 117.29 125.56 10.19 o
4 4 2 192.77 222.73 28.36 o
-3 5 2 21.25 20.67 2.02 o
-1 5 2 119.07 154.85 14.37 o
0 5 2 1376.62 1746.40 197.65 o
1 5 2 709.87 981.53 157.16 o
2 5 2 313.56 401.12 45.46 o
3 5 2 388.45 538.19 62.21 o
-3 6 2 183.42 205.31 32.03 o
-2 6 2 0.14 3.09 1.06 o
-1 6 2 802.00 1140.94 182.81 o
0 6 2 167.98 192.38 30.86 o
1 6 2 501.17 721.58 81.89 o
2 6 2 315.82 509.09 72.09 o
-2 7 2 139.86 175.63 27.51 o
-1 7 2 17.78 25.81 4.26 o
0 7 2 196.34 238.49 33.89 o
1 7 2 103.68 159.40 25.22 o
-5 0 3 18.82 10.50 2.30 o
-4 0 3 396.39 378.17 60.70 o
-3 0 3 1129.56 1049.53 168.03 o
-2 0 3 2152.07 2235.23 402.61 o
0 0 3 102.54 103.73 13.35 o
2 0 3 541.86 527.08 67.18 o
3 0 3 1405.05 1464.47 165.80 o
4 0 3 370.18 485.10 54.94 o
-5 1 3 98.22 57.34 6.50 o
-4 1 3 189.68 160.23 12.91 o
-3 1 3 553.46 529.45 42.43 o
-1 1 3 38.43 36.87 3.52 o
1 1 3 588.67 592.93 75.61 o
2 1 3 2844.03 2587.94 269.09 o
3 1 3 860.75 946.30 75.75 o
4 1 3 179.26 196.51 19.68 o
-4 2 3 262.97 237.37 27.00 o
-3 2 3 774.18 780.52 88.42 o
-2 2 3 990.56 983.18 88.58 o
0 2 3 13.50 17.31 1.95 o
2 2 3 284.92 315.71 25.33 o
3 2 3 852.39 960.83 108.80 o
4 2 3 235.23 303.76 30.41 o
-4 3 3 93.56 73.51 6.11 o
-3 3 3 437.68 377.79 30.32 o
-1 3 3 160.94 148.24 15.50 o
1 3 3 255.34 201.28 20.95 o
2 3 3 2305.22 2426.64 274.61 o
3 3 3 554.50 687.03 63.52 o
4 3 3 125.00 144.09 18.35 o
-4 4 3 105.79 88.86 9.12 o
-3 4 3 300.08 269.42 24.97 o
-2 4 3 316.86 300.76 24.15 o
0 4 3 4.86 11.48 1.31 o
2 4 3 118.02 121.51 9.79 o
3 4 3 330.13 405.24 32.51 o
-3 5 3 123.59 98.88 10.08 o
-2 5 3 475.43 400.93 32.16 o
-1 5 3 50.82 51.93 5.01 o
1 5 3 49.66 49.08 6.16 o
2 5 3 597.56 801.51 128.33 o
3 5 3 134.93 165.94 18.36 o
-3 6 3 73.79 63.24 10.14 o
-2 6 3 98.56 120.55 17.27 o
-1 6 3 551.21 515.73 58.55 o
0 6 3 5.68 10.84 1.33 o
1 6 3 584.71 669.83 107.78 o
2 6 3 43.50 52.48 10.61 o
-1 7 3 8.56 8.14 1.87 o
0 7 3 198.39 191.79 30.08 o
1 7 3 6.69 10.19 2.60 o
-5 0 4 2.70 -3.44 3.44 o
-4 0 4 468.79 478.30 76.81 o
-3 0 4 185.20 195.77 22.29 o
2 0 4 55.66 54.49 8.82 o
4 0 4 93.92 119.01 16.87 o
-5 1 4 55.88 37.86 5.11 o
-4 1 4 0.24 1.14 1.46 o
-2 1 4 381.22 448.45 40.47 o
1 1 4 362.01 266.83 34.08 o
3 1 4 0.70 1.62 0.46 o
4 1 4 336.88 421.01 48.65 o
-4 2 4 316.07 296.86 27.58 o
-3 2 4 135.04 136.50 11.04 o
0 2 4 1233.77 977.76 88.09 o
2 2 4 30.65 31.63 3.20 o
3 2 4 933.01 1289.50 206.72 o
4 2 4 54.93 66.85 8.53 o
-4 3 4 0.29 0.42 1.79 o
-3 3 4 540.31 511.83 47.39 o
-2 3 4 248.55 197.66 18.42 o
1 3 4 399.83 343.38 27.55 o
3 3 4 0.73 2.02 0.52 o
4 3 4 218.46 264.41 29.28 o
-4 4 4 118.18 100.89 11.36 o
-3 4 4 43.52 41.08 3.71 o
-2 4 4 671.40 555.76 51.46 o
-1 4 4 645.40 480.07 38.49 o
0 4 4 431.99 325.16 26.11 o
2 4 4 15.65 16.40 1.82 o
3 4 4 341.57 387.86 38.87 o
-3 5 4 152.27 113.77 13.46 o
-2 5 4 85.79 63.67 5.51 o
-1 5 4 407.52 347.35 32.18 o
0 5 4 628.86 460.51 42.66 o
1 5 4 84.44 81.78 7.61 o
2 5 4 476.62 595.84 67.72 o
3 5 4 0.50 2.27 0.88 o
-2 6 4 179.25 157.25 15.85 o
-1 6 4 150.61 134.56 12.65 o
0 6 4 157.13 127.91 10.51 o
1 6 4 334.28 249.40 50.87 o
2 6 4 6.04 9.16 2.23 o
-1 7 4 55.84 45.54 6.09 o
0 7 4 93.19 73.37 12.08 o
-4 0 5 118.80 126.35 14.59 o
-3 0 5 81.37 74.68 12.17 o
1 0 5 824.69 683.52 123.17 o
2 0 5 699.85 751.16 85.09 o
3 0 5 595.02 904.26 145.23 o
4 0 5 18.69 24.32 5.48 o
-4 1 5 58.11 65.40 6.29 o
-3 1 5 558.45 845.61 78.25 o
-2 1 5 0.18 -0.23 1.75 o
0 1 5 443.65 389.70 35.16 o
1 1 5 1759.61 1607.09 289.40 o
2 1 5 1059.91 1268.51 143.66 o
3 1 5 181.09 216.92 20.23 o
4 1 5 219.13 254.01 32.57 o
-4 2 5 90.26 101.51 10.39 o
-3 2 5 40.67 42.65 3.81 o
-1 2 5 9.39 12.55 2.31 o
1 2 5 499.79 429.03 39.75 o
2 2 5 366.35 382.03 30.65 o
3 2 5 357.13 415.41 38.52 o
-4 3 5 32.73 32.56 3.75 o
-3 3 5 318.29 338.33 27.19 o
-2 3 5 3.06 2.34 1.58 o
0 3 5 263.08 191.17 17.85 o
2 3 5 710.03 721.12 81.83 o
3 3 5 114.39 122.79 14.45 o
-4 4 5 40.90 32.98 4.26 o
-3 4 5 13.68 14.47 1.92 o
-2 4 5 381.63 304.76 28.33 o
-1 4 5 12.65 7.25 1.84 o
0 4 5 694.28 446.52 41.38 o
1 4 5 209.29 174.24 14.08 o
2 4 5 139.71 139.34 11.43 o
3 4 5 142.74 142.25 16.04 o
-3 5 5 88.98 73.79 7.82 o
-2 5 5 0.05 0.77 2.92 o
-1 5 5 410.24 299.18 24.09 o
0 5 5 80.69 59.89 5.26 o
1 5 5 282.01 222.24 20.78 o
2 5 5 175.27 179.19 18.16 o
-2 6 5 110.66 94.08 15.10 o
-1 6 5 2.70 2.71 0.79 o
0 6 5 216.58 154.85 15.74 o
1 6 5 66.50 54.79 7.50 o
-4 0 6 16.83 19.59 3.72 o
-3 0 6 221.16 381.47 43.35 o
-2 0 6 449.47 665.90 75.44 o
1 0 6 5.22 2.64 1.04 o
2 0 6 814.97 943.26 151.24 o
3 0 6 108.57 119.47 17.37 o
-4 1 6 41.01 66.93 7.05 o
-3 1 6 111.64 172.66 19.79 o
-2 1 6 119.06 179.93 16.76 o
-1 1 6 781.29 955.69 108.24 o
0 1 6 4.30 3.66 1.97 o
2 1 6 59.77 77.93 6.56 o
3 1 6 177.62 237.23 23.98 o
-4 2 6 13.76 16.43 2.31 o
-3 2 6 138.99 214.82 17.37 o
-2 2 6 312.37 422.07 33.89 o
-1 2 6 97.12 100.92 8.34 o
0 2 6 954.96 739.76 83.88 o
1 2 6 0.49 0.74 0.65 o
2 2 6 442.89 464.04 52.82 o
3 2 6 67.98 77.64 8.37 o
-4 3 6 27.46 32.84 4.15 o
-3 3 6 63.77 73.64 6.31 o
-2 3 6 108.18 101.96 8.49 o
-1 3 6 567.41 491.30 39.43 o
0 3 6 17.95 14.50 2.89 o
1 3 6 899.33 620.10 70.40 o
2 3 6 42.46 47.40 4.37 o
3 3 6 137.93 148.42 16.74 o
-3 4 6 52.46 65.49 6.99 o
-2 4 6 129.49 121.10 10.08 o
-1 4 6 33.05 26.03 3.16 o
0 4 6 355.36 242.60 22.68 o
1 4 6 0.79 -0.42 0.42 o
2 4 6 166.93 150.82 15.38 o
-3 5 6 20.89 21.60 3.95 o
-2 5 6 29.16 20.22 2.98 o
-1 5 6 162.14 121.44 11.73 o
0 5 6 2.48 4.09 0.92 o
1 5 6 224.21 136.27 19.95 o
2 5 6 13.27 13.64 2.08 o
-2 6 6 34.40 26.37 4.97 o
-1 6 6 13.77 8.41 1.58 o
0 6 6 110.92 70.72 9.90 o
1 6 6 0.23 0.92 0.50 o
-4 0 7 0.00 -0.91 4.67 o
-3 0 7 130.34 267.14 30.53 o
-2 0 7 53.96 72.34 8.67 o
-1 0 7 437.51 474.67 53.82 o
0 0 7 392.32 373.35 42.44 o
1 0 7 114.68 94.07 11.02 o
2 0 7 464.81 455.02 73.50 o
3 0 7 0.23 2.17 3.10 o
-4 1 7 27.25 48.33 5.33 o
-3 1 7 10.92 10.95 2.71 o
-2 1 7 192.76 366.78 29.47 o
-1 1 7 212.01 258.98 20.89 o
0 1 7 91.94 109.21 9.10 o
1 1 7 367.35 348.51 39.73 o
2 1 7 12.57 10.73 1.31 o
3 1 7 114.38 126.43 16.83 o
-4 2 7 0.00 2.66 1.37 o
-3 2 7 88.25 159.27 13.03 o
-2 2 7 42.68 45.18 5.07 o
-1 2 7 234.44 273.79 25.49 o
0 2 7 247.16 216.54 17.57 o
1 2 7 50.05 49.82 5.31 o
2 2 7 268.55 284.98 46.37 o
3 2 7 0.30 -0.51 0.51 o
-3 3 7 3.98 4.50 1.75 o
-2 3 7 136.63 151.61 12.46 o
-1 3 7 116.28 102.79 8.72 o
0 3 7 115.94 85.75 10.69 o
1 3 7 270.57 158.03 25.97 o
2 3 7 13.54 10.29 1.57 o
-3 4 7 35.48 51.50 6.26 o
-2 4 7 16.55 11.05 2.35 o
-1 4 7 84.89 80.97 7.22 o
0 4 7 95.05 75.94 7.78 o
1 4 7 18.66 18.76 2.42 o
2 4 7 97.65 74.96 8.74 o
-2 5 7 38.96 25.62 3.54 o
-1 5 7 34.63 15.07 4.07 o
0 5 7 31.91 24.96 3.91 o
1 5 7 74.96 52.91 6.30 o
-4 0 8 4.33 12.77 2.98 o
-3 0 8 44.58 100.68 12.01 o
-2 0 8 0.44 -3.94 4.22 o
-1 0 8 254.57 300.29 34.28 o
0 0 8 44.52 37.12 7.97 o
1 0 8 129.77 112.43 13.16 o
2 0 8 91.45 84.19 12.66 o
-4 1 8 9.12 14.20 2.36 o
-3 1 8 5.15 13.50 2.48 o
-2 1 8 103.69 211.00 17.14 o
-1 1 8 3.21 3.18 2.51 o
0 1 8 236.58 268.57 30.76 o
1 1 8 41.17 42.25 6.82 o
2 1 8 54.35 56.97 6.30 o
-3 2 8 31.54 57.41 6.36 o
-2 2 8 0.08 1.60 2.25 o
-1 2 8 154.14 171.12 14.05 o
0 2 8 33.25 41.25 4.48 o
1 2 8 68.22 72.30 7.42 o
2 2 8 56.62 52.87 10.62 o
-3 3 8 3.34 3.57 1.99 o
-2 3 8 62.43 75.68 6.78 o
-1 3 8 0.72 0.40 2.70 o
0 3 8 160.32 125.11 12.20 o
1 3 8 27.56 25.75 4.03 o
2 3 8 43.08 35.78 4.59 o
-2 4 8 0.09 -3.33 3.39 o
-1 4 8 56.34 48.34 5.87 o
0 4 8 11.34 6.80 1.46 o
1 4 8 27.93 21.54 3.04 o
-1 5 8 0.57 -1.24 3.65 o
0 5 8 39.44 25.50 3.78 o
-3 0 9 3.72 12.89 3.48 o
-2 0 9 19.82 31.34 6.53 o
-1 0 9 38.03 62.31 11.46 o
0 0 9 7.23 2.93 4.62 o
1 0 9 96.26 89.10 13.19 o
2 0 9 0.65 1.46 0.75 o
-3 1 9 9.13 24.78 4.04 o
-2 1 9 23.38 52.73 5.21 o
-1 1 9 7.76 19.78 3.38 o
0 1 9 89.99 119.73 14.49 o
1 1 9 0.48 0.59 0.50 o
2 1 9 31.63 31.18 4.40 o
-3 2 9 3.12 5.25 2.12 o
-2 2 9 11.58 26.68 3.88 o
-1 2 9 26.83 45.25 4.92 o
0 2 9 2.29 3.56 3.42 o
1 2 9 56.50 51.23 5.67 o
-2 3 9 12.89 19.76 4.14 o
-1 3 9 7.16 3.33 3.44 o
0 3 9 55.72 43.77 8.49 o
1 3 9 0.00 0.20 0.51 o
-1 4 9 11.99 6.17 2.73 o
0 4 9 0.53 1.51 0.72 o
-1 0 10 3.80 9.84 4.62 o
0 0 10 12.24 10.59 4.45 o
1 0 10 20.13 18.29 3.68 o
-2 1 10 1.48 -3.45 4.79 o
-1 1 10 10.24 21.86 4.49 o
0 1 10 6.00 9.72 4.43 o
1 1 10 2.83 6.20 1.06 o
-2 2 10 6.87 11.01 2.82 o
-1 2 10 3.19 4.36 2.95 o
0 2 10 6.53 4.16 3.59 o
-1 3 10 7.53 7.26 2.46 o
