#------------------------------------------------------------------------------
#$Date: 2019-11-24 00:23:42 +0200 (Sun, 24 Nov 2019) $
#$Revision: 235747 $
#$URL: file:///home/coder/svn-repositories/cod/cif/4/34/96/4349695.cif $
#------------------------------------------------------------------------------
#
# This file is available in the Crystallography Open Database (COD),
# http://www.crystallography.net/
#
# All data on this site have been placed in the public domain by the
# contributors.
#
data_4349695
loop_
_publ_author_name
'Wright, Christopher M. R.'
'Williams, Thomas J.'
'Turner, Zo\"e R.'
'Buffet, Jean-Charles'
'O'Hare, Dermot'
_publ_section_title
;
 Selective ethylene oligomerisation using supported tungsten mono-imido
 catalysts
;
_journal_issue                   6
_journal_name_full               'Inorganic Chemistry Frontiers'
_journal_page_first              1048
_journal_paper_doi               10.1039/C7QI00128B
_journal_volume                  4
_journal_year                    2017
_chemical_formula_moiety         'C12 H17 Cl4 N O W'
_chemical_formula_sum            'C12 H17 Cl4 N O W'
_chemical_formula_weight         516.92
_chemical_properties_physical    ', Air-sensitive,Moisture-sensitive'
_space_group_crystal_system      triclinic
_space_group_IT_number           2
_space_group_name_Hall           '-P 1'
_space_group_name_H-M_alt        'P -1'
_atom_sites_solution_hydrogens   geom
_audit_block_doi                 10.5517/ccdc.csd.cc1mzdrr
_audit_creation_method           SHELXL-2014
_audit_update_record
;
2016-11-23 deposited with the CCDC.
2017-05-10 downloaded from the CCDC.
;
_cell_angle_alpha                101.4700(10)
_cell_angle_beta                 95.2400(10)
_cell_angle_gamma                107.5340(10)
_cell_formula_units_Z            2
_cell_length_a                   8.63540(10)
_cell_length_b                   9.6261(2)
_cell_length_c                   10.9204(2)
_cell_measurement_reflns_used    3766
_cell_measurement_temperature    150(2)
_cell_measurement_theta_max      27.49
_cell_measurement_theta_min      5.10
_cell_volume                     837.12(3)
_computing_cell_refinement       'HKL Scalepack (Otwinowski & Minor 1997)'
_computing_data_collection       'Collect (Nonius BV, 1997-2000)'
_computing_data_reduction
'HKL Denzo and Scalepack (Otwinowski & Minor 1997)'
_computing_molecular_graphics    'Ortep-3 for Windows (Farrugia, 1997)'
_computing_publication_material  'WinGX publication routines (Farrugia, 1999)'
_computing_structure_refinement  'SHELXL-2014 (Sheldrick, 2014)'
_computing_structure_solution
;
SUPERFLIP
Palatinus, L.; Chapuis, G. J. Appl. Cryst. 2007, 40, 786-790.
;
_diffrn_ambient_temperature      150(2)
_diffrn_detector_area_resol_mean 9
_diffrn_measured_fraction_theta_full 0.990
_diffrn_measured_fraction_theta_max 0.991
_diffrn_measurement_device_type  KappaCCD
_diffrn_measurement_method       'CCD plate'
_diffrn_radiation_type           MoK\a
_diffrn_radiation_wavelength     0.71073
_diffrn_reflns_av_R_equivalents  0.0252
_diffrn_reflns_av_unetI/netI     0.0384
_diffrn_reflns_Laue_measured_fraction_full 0.990
_diffrn_reflns_Laue_measured_fraction_max 0.991
_diffrn_reflns_limit_h_max       11
_diffrn_reflns_limit_h_min       -11
_diffrn_reflns_limit_k_max       12
_diffrn_reflns_limit_k_min       -12
_diffrn_reflns_limit_l_max       14
_diffrn_reflns_limit_l_min       -13
_diffrn_reflns_number            7196
_diffrn_reflns_point_group_measured_fraction_full 0.990
_diffrn_reflns_point_group_measured_fraction_max 0.991
_diffrn_reflns_theta_full        25.242
_diffrn_reflns_theta_max         27.521
_diffrn_reflns_theta_min         5.106
_diffrn_source                   'Enraf Nonius FR590'
_exptl_absorpt_coefficient_mu    7.529
_exptl_absorpt_correction_T_max  1
_exptl_absorpt_correction_T_min  0.69
_exptl_absorpt_correction_type   multi-scan
_exptl_absorpt_process_details   sadabs
_exptl_crystal_colour            orange
_exptl_crystal_density_diffrn    2.051
_exptl_crystal_description       block
_exptl_crystal_F_000             492
_exptl_crystal_recrystallization_method
'Re-crystallisation from solvent: hexane'
_exptl_crystal_size_max          0.200
_exptl_crystal_size_mid          0.150
_exptl_crystal_size_min          0.100
_refine_diff_density_max         1.615
_refine_diff_density_min         -1.414
_refine_diff_density_rms         0.156
_refine_ls_extinction_method     none
_refine_ls_goodness_of_fit_ref   1.126
_refine_ls_hydrogen_treatment    constr
_refine_ls_matrix_type           full
_refine_ls_number_parameters     175
_refine_ls_number_reflns         3819
_refine_ls_number_restraints     5
_refine_ls_restrained_S_all      1.125
_refine_ls_R_factor_all          0.0333
_refine_ls_R_factor_gt           0.0283
_refine_ls_shift/su_max          0.001
_refine_ls_shift/su_mean         0.000
_refine_ls_structure_factor_coef Fsqd
_refine_ls_weighting_details
'w=1/[\s^2^(Fo^2^)+(0.0282P)^2^+0.7360P] where P=(Fo^2^+2Fc^2^)/3'
_refine_ls_weighting_scheme      calc
_refine_ls_wR_factor_gt          0.0626
_refine_ls_wR_factor_ref         0.0647
_reflns_Friedel_coverage         0.000
_reflns_number_gt                3471
_reflns_number_total             3819
_reflns_threshold_expression     'I > 2\s(I)'
_cod_data_source_file            c7qi00128b2.cif
_cod_data_source_block           015CW16-ZRT
_cod_original_cell_volume        837.11(3)
_cod_database_code               4349695
_shelx_space_group_comment
;
The symmetry employed for this shelxl refinement is uniquely defined
by the following loop, which should always be used as a source of
symmetry information in preference to the above space-group names.
They are only intended as comments.
;
_shelx_estimated_absorpt_t_min   0.314
_shelx_estimated_absorpt_t_max   0.520
_exptl_absorpt_special_details
'HKL Denzo and Scalepack (Otwinowski & Minor 1997)'
_shelxl_version_number           2014-3
_shelx_res_file
;
TITL shelx in P -1
CELL  0.71073   8.6354   9.6261  10.9204  101.470   95.240  107.534
ZERR     2.00   0.0001   0.0002   0.0002    0.001    0.001    0.001
LATT   1
SFAC  C    H    CL   N    O    W
UNIT  24   34   8    2    2    2
MERG   2
DELU     0.010   0.010 O1 C12
DELU     0.010   0.010 C12 C11
DELU     0.010   0.010 C10 C11
DELU     0.010   0.010 C10 C9
DELU     0.010   0.010 O1 C9
FMAP   2
PLAN   60
SIZE     0.100   0.150   0.200
ACTA
CONF
L.S.  64
TEMP  -123.00
WGHT    0.028200    0.736000
FVAR       0.24214   0.48994
C1    1    0.438271    0.838384    0.141779    11.00000    0.01947    0.02929 =
         0.02440    0.01282    0.00462    0.01065
C2    1    0.552330    0.981337    0.188892    11.00000    0.02536    0.02945 =
         0.02370    0.00836    0.00287    0.01244
AFIX  43
H2    2    0.536730    1.047482    0.260125    11.00000   -1.20000
AFIX   0
C3    1    0.689854    1.026344    0.130260    11.00000    0.02081    0.03158 =
         0.02476    0.01672   -0.00070    0.00614
C4    1    0.706784    0.926167    0.026320    11.00000    0.02116    0.04244 =
         0.02783    0.01759    0.00629    0.01289
AFIX  43
H4    2    0.800369    0.956191   -0.013769    11.00000   -1.20000
AFIX   0
C5    1    0.591876    0.782466   -0.022268    11.00000    0.02980    0.04048 =
         0.02162    0.01137    0.00576    0.01833
C6    1    0.456189    0.738147    0.037108    11.00000    0.02216    0.02752 =
         0.02486    0.00754    0.00005    0.00953
AFIX  43
H6    2    0.376719    0.641072    0.006973    11.00000   -1.20000
AFIX   0
C7    1    0.814141    1.179763    0.178971    11.00000    0.02904    0.03402 =
         0.03746    0.01669   -0.00160    0.00012
AFIX 137
H7A   2    0.875935    1.207820    0.111735    11.00000   -1.50000
H7B   2    0.890134    1.179583    0.251258    11.00000   -1.50000
H7C   2    0.757661    1.252250    0.205787    11.00000   -1.50000
AFIX   0
C8    1    0.612645    0.680724   -0.138631    11.00000    0.04515    0.05155 =
         0.02832    0.00586    0.01012    0.02166
AFIX 137
H8A   2    0.570359    0.576334   -0.132093    11.00000   -1.50000
H8B   2    0.729623    0.706533   -0.146045    11.00000   -1.50000
H8C   2    0.551496    0.692961   -0.213632    11.00000   -1.50000
AFIX   0
CL1   3   -0.060896    0.659623    0.081147    11.00000    0.03216    0.05077 =
         0.02229    0.00616   -0.00022    0.01462
CL2   3    0.113720    0.519391    0.282746    11.00000    0.03690    0.02658 =
         0.03716    0.01192    0.01259    0.01512
CL3   3    0.261565    0.849698    0.477279    11.00000    0.02803    0.04460 =
         0.02517   -0.00055   -0.00281    0.00641
CL4   3    0.095028    0.994153    0.275681    11.00000    0.04614    0.02678 =
         0.05375    0.01674    0.01744    0.01681
N1    4    0.299471    0.798064    0.198288    11.00000    0.02634    0.02878 =
         0.02440    0.01048    0.00440    0.00966
W1    6    0.125458    0.759830    0.268165    11.00000    0.01917    0.02405 =
         0.02239    0.00752    0.00538    0.00739
O1    5   -0.102639    0.715352    0.357129    11.00000    0.01866    0.03524 =
         0.02645    0.01512    0.00607    0.01154
C10   1   -0.366897    0.706214    0.405919    11.00000    0.02512    0.04928 =
         0.04770    0.01439    0.01372    0.01623
AFIX  23
H10A  2   -0.477505    0.648248    0.356466    11.00000   -1.20000
H10B  2   -0.374817    0.794201    0.466506    11.00000   -1.20000
AFIX   0
C12   1   -0.123186    0.656883    0.470101    11.00000    0.03172    0.07656 =
         0.03660    0.03530    0.01803    0.02830
AFIX  23
H12A  2   -0.061269    0.735206    0.546806    11.00000   -1.20000
H12B  2   -0.083091    0.570065    0.464608    11.00000   -1.20000
AFIX   0
C11   1   -0.302439    0.610539    0.474590    11.00000    0.03239    0.07710 =
         0.05584    0.04128    0.01969    0.02095
AFIX  23
H11A  2   -0.322559    0.627356    0.563296    11.00000   -1.20000
H11B  2   -0.356129    0.503010    0.432548    11.00000   -1.20000
AFIX   0
C9    1   -0.247597    0.755244    0.320081    11.00000    0.04039    0.12267 =
         0.09040    0.08066    0.04039    0.05739
AFIX  23
H9A   2   -0.296522    0.703910    0.230829    11.00000   -1.20000
H9B   2   -0.217211    0.864896    0.328974    11.00000   -1.20000
AFIX   0
HKLF    4

REM  shelx in P -1
REM R1 =  0.0283 for    3471 Fo > 4sig(Fo)  and  0.0333 for all    3819 data
REM    175 parameters refined using      5 restraints

END

WGHT      0.0282      0.7360

REM Highest difference peak  1.615,  deepest hole -1.414,  1-sigma level  0.156
Q1    1  -0.3759  0.7227  0.1953  11.00000  0.05    1.62
Q2    1   0.1179  0.7055  0.1358  11.00000  0.05    0.86
Q3    1   0.2052  0.6559  0.2138  11.00000  0.05    0.81
Q4    1   0.0691  0.8813  0.3205  11.00000  0.05    0.80
Q5    1   0.1178  0.8798  0.2231  11.00000  0.05    0.78
Q6    1   0.1297  0.8404  0.3960  11.00000  0.05    0.76
Q7    1  -0.0227  0.6615  0.2601  11.00000  0.05    0.76
Q8    1   0.1048  0.8693  0.3868  11.00000  0.05    0.76
Q9    1   0.2711  0.8666  0.2798  11.00000  0.05    0.75
Q10   1  -0.1267  0.6198  0.2769  11.00000  0.05    0.71
Q11   1   0.1594  0.6327  0.3055  11.00000  0.05    0.70
Q12   1  -0.2940  0.7520  0.3604  11.00000  0.05    0.70
Q13   1   0.0023  0.6444  0.2793  11.00000  0.05    0.66
Q14   1   0.6237  0.9677  0.1684  11.00000  0.05    0.62
Q15   1   0.2258  0.8393  0.3822  11.00000  0.05    0.60
Q16   1  -0.0477  0.7034  0.2221  11.00000  0.05    0.58
Q17   1   0.2988  0.8088  0.3144  11.00000  0.05    0.56
Q18   1   0.0539  0.7580  0.1416  11.00000  0.05    0.56
Q19   1   0.0062  0.8141  0.2270  11.00000  0.05    0.56
Q20   1   0.1561  0.8200  0.1587  11.00000  0.05    0.54
Q21   1   0.0614  0.6534  0.4236  11.00000  0.05    0.53
Q22   1   0.1124  0.6731  0.3646  11.00000  0.05    0.52
Q23   1  -0.2449  0.8153  0.2720  11.00000  0.05    0.52
Q24   1   0.1521  0.7149  0.3855  11.00000  0.05    0.51
Q25   1   0.0764  0.6537  0.3443  11.00000  0.05    0.51
Q26   1  -0.1285  0.6051  0.1861  11.00000  0.05    0.50
Q27   1   0.3581  0.9202  0.6020  11.00000  0.05    0.50
Q28   1   0.0062  0.6642  0.4921  11.00000  0.05    0.49
Q29   1   0.4754  0.6344 -0.0201  11.00000  0.05    0.48
Q30   1   0.2722  0.6245  0.3200  11.00000  0.05    0.48
Q31   1  -0.0711  0.8681  0.2961  11.00000  0.05    0.48
Q32   1   0.0211  0.8895  0.1583  11.00000  0.05    0.46
Q33   1   0.2067  0.5937  0.1410  11.00000  0.05    0.46
Q34   1   0.0172  0.7001  0.1563  11.00000  0.05    0.45
Q35   1   0.5016  0.7011  0.1394  11.00000  0.05    0.45
Q36   1  -0.3265  0.4945  0.1877  11.00000  0.05    0.45
Q37   1  -0.1462  0.5755  0.3988  11.00000  0.05    0.45
Q38   1  -0.0755  0.5645  0.2576  11.00000  0.05    0.44
Q39   1   0.0964  0.7622  0.0657  11.00000  0.05    0.44
Q40   1   0.0075  0.7763  0.3526  11.00000  0.05    0.44
Q41   1  -0.2312  0.7695  0.2227  11.00000  0.05    0.42
Q42   1   0.2823  0.7385  0.3036  11.00000  0.05    0.42
Q43   1  -0.0325  0.9022  0.2392  11.00000  0.05    0.42
Q44   1  -0.0466  0.8632  0.3744  11.00000  0.05    0.41
Q45   1   0.8482  1.2847  0.1559  11.00000  0.05    0.41
Q46   1  -0.0428  0.6213  0.3358  11.00000  0.05    0.41
Q47   1   0.1617  0.9151  0.1576  11.00000  0.05    0.41
Q48   1   0.2024  0.9377  0.3204  11.00000  0.05    0.40
Q49   1   0.3271  0.6635  0.2559  11.00000  0.05    0.40
Q50   1  -0.1679  0.7551  0.1233  11.00000  0.05    0.39
Q51   1   0.8884  1.3007  0.0028  11.00000  0.05    0.39
Q52   1  -0.3609  0.7671  0.5747  11.00000  0.05    0.39
Q53   1  -0.4255  0.7589  0.3623  11.00000  0.05    0.39
Q54   1   0.8246  1.2118  0.2923  11.00000  0.05    0.39
Q55   1   0.1499  0.6261  0.0932  11.00000  0.05    0.39
Q56   1   0.6416  0.7877  0.1147  11.00000  0.05    0.39
Q57   1  -0.3026  0.8390  0.2239  11.00000  0.05    0.38
Q58   1   0.5194  0.7869 -0.0035  11.00000  0.05    0.38
Q59   1   0.1271  0.6949  0.4609  11.00000  0.05    0.38
Q60   1  -0.3267  0.8247  0.4009  11.00000  0.05    0.37
;
_shelx_res_checksum              18887
loop_
_space_group_symop_operation_xyz
'x, y, z'
'-x, -y, -z'
loop_
_atom_site_label
_atom_site_type_symbol
_atom_site_fract_x
_atom_site_fract_y
_atom_site_fract_z
_atom_site_U_iso_or_equiv
_atom_site_adp_type
_atom_site_occupancy
_atom_site_site_symmetry_order
_atom_site_calc_flag
_atom_site_refinement_flags_posn
_atom_site_refinement_flags_adp
C1 C 0.4383(5) 0.8384(5) 0.1418(4) 0.0227(8) Uani 1 1 d . .
C2 C 0.5523(5) 0.9813(5) 0.1889(4) 0.0251(8) Uani 1 1 d . .
H2 H 0.5367 1.0475 0.2601 0.030 Uiso 1 1 calc R U
C3 C 0.6899(5) 1.0263(5) 0.1303(4) 0.0251(9) Uani 1 1 d . .
C4 C 0.7068(5) 0.9262(5) 0.0263(4) 0.0284(9) Uani 1 1 d . .
H4 H 0.8004 0.9562 -0.0138 0.034 Uiso 1 1 calc R U
C5 C 0.5919(5) 0.7825(5) -0.0223(4) 0.0284(9) Uani 1 1 d . .
C6 C 0.4562(5) 0.7381(5) 0.0371(4) 0.0246(8) Uani 1 1 d . .
H6 H 0.3767 0.6411 0.0070 0.029 Uiso 1 1 calc R U
C7 C 0.8141(6) 1.1798(5) 0.1790(4) 0.0351(10) Uani 1 1 d . .
H7A H 0.8759 1.2078 0.1117 0.053 Uiso 1 1 calc R U
H7B H 0.8901 1.1796 0.2513 0.053 Uiso 1 1 calc R U
H7C H 0.7577 1.2523 0.2058 0.053 Uiso 1 1 calc R U
C8 C 0.6126(7) 0.6807(6) -0.1386(4) 0.0406(11) Uani 1 1 d . .
H8A H 0.5704 0.5763 -0.1321 0.061 Uiso 1 1 calc R U
H8B H 0.7296 0.7065 -0.1460 0.061 Uiso 1 1 calc R U
H8C H 0.5515 0.6930 -0.2136 0.061 Uiso 1 1 calc R U
Cl1 Cl -0.06090(14) 0.65962(14) 0.08115(10) 0.0355(3) Uani 1 1 d . .
Cl2 Cl 0.11372(14) 0.51939(12) 0.28275(11) 0.0314(2) Uani 1 1 d . .
Cl3 Cl 0.26156(13) 0.84970(13) 0.47728(10) 0.0357(3) Uani 1 1 d . .
Cl4 Cl 0.09503(15) 0.99415(12) 0.27568(12) 0.0394(3) Uani 1 1 d . .
N1 N 0.2995(4) 0.7981(4) 0.1983(3) 0.0257(7) Uani 1 1 d . .
W1 W 0.12546(2) 0.75983(2) 0.26816(2) 0.02137(7) Uani 1 1 d . .
O1 O -0.1026(3) 0.7154(3) 0.3571(3) 0.0248(6) Uani 1 1 d . U
C10 C -0.3669(6) 0.7062(6) 0.4059(5) 0.0388(11) Uani 1 1 d . U
H10A H -0.4775 0.6482 0.3565 0.047 Uiso 1 1 calc R U
H10B H -0.3748 0.7942 0.4665 0.047 Uiso 1 1 calc R U
C12 C -0.1232(6) 0.6569(7) 0.4701(5) 0.0418(12) Uani 1 1 d . U
H12A H -0.0613 0.7352 0.5468 0.050 Uiso 1 1 calc R U
H12B H -0.0831 0.5701 0.4646 0.050 Uiso 1 1 calc R U
C11 C -0.3024(6) 0.6105(7) 0.4746(6) 0.0498(14) Uani 1 1 d . U
H11A H -0.3226 0.6274 0.5633 0.060 Uiso 1 1 calc R U
H11B H -0.3561 0.5030 0.4325 0.060 Uiso 1 1 calc R U
C9 C -0.2476(7) 0.7552(9) 0.3201(7) 0.067(2) Uani 1 1 d . U
H9A H -0.2965 0.7039 0.2308 0.081 Uiso 1 1 calc R U
H9B H -0.2172 0.8649 0.3290 0.081 Uiso 1 1 calc R U
loop_
_atom_site_aniso_label
_atom_site_aniso_U_11
_atom_site_aniso_U_22
_atom_site_aniso_U_33
_atom_site_aniso_U_23
_atom_site_aniso_U_13
_atom_site_aniso_U_12
C1 0.0195(19) 0.029(2) 0.024(2) 0.0128(17) 0.0046(15) 0.0106(16)
C2 0.025(2) 0.029(2) 0.024(2) 0.0084(17) 0.0029(16) 0.0124(17)
C3 0.0208(19) 0.032(2) 0.025(2) 0.0167(18) -0.0007(16) 0.0061(17)
C4 0.021(2) 0.042(3) 0.028(2) 0.018(2) 0.0063(17) 0.0129(19)
C5 0.030(2) 0.040(2) 0.0216(19) 0.0114(18) 0.0058(17) 0.0183(19)
C6 0.0222(19) 0.028(2) 0.025(2) 0.0075(17) 0.0001(16) 0.0095(17)
C7 0.029(2) 0.034(2) 0.037(2) 0.017(2) -0.0016(19) 0.0001(19)
C8 0.045(3) 0.052(3) 0.028(2) 0.006(2) 0.010(2) 0.022(2)
Cl1 0.0322(6) 0.0508(7) 0.0223(5) 0.0062(5) -0.0002(4) 0.0146(5)
Cl2 0.0369(6) 0.0266(5) 0.0372(6) 0.0119(4) 0.0126(5) 0.0151(4)
Cl3 0.0280(5) 0.0446(6) 0.0252(5) -0.0006(5) -0.0028(4) 0.0064(5)
Cl4 0.0461(7) 0.0268(5) 0.0537(7) 0.0167(5) 0.0174(6) 0.0168(5)
N1 0.0263(18) 0.0288(18) 0.0244(17) 0.0105(15) 0.0044(14) 0.0097(15)
W1 0.01917(10) 0.02405(10) 0.02239(10) 0.00752(7) 0.00538(6) 0.00739(7)
O1 0.0187(13) 0.0352(16) 0.0265(14) 0.0151(13) 0.0061(11) 0.0115(12)
C10 0.025(2) 0.049(3) 0.048(3) 0.014(2) 0.014(2) 0.016(2)
C12 0.032(2) 0.077(4) 0.037(3) 0.035(3) 0.018(2) 0.028(2)
C11 0.032(3) 0.077(4) 0.056(3) 0.041(3) 0.020(2) 0.021(3)
C9 0.040(3) 0.123(6) 0.090(5) 0.081(5) 0.040(3) 0.057(4)
loop_
_atom_type_symbol
_atom_type_description
_atom_type_scat_dispersion_real
_atom_type_scat_dispersion_imag
_atom_type_scat_source
C C 0.0033 0.0016 'International Tables Vol C Tables 4.2.6.8 and 6.1.1.4'
H H 0.0000 0.0000 'International Tables Vol C Tables 4.2.6.8 and 6.1.1.4'
Cl Cl 0.1484 0.1585 'International Tables Vol C Tables 4.2.6.8 and 6.1.1.4'
N N 0.0061 0.0033 'International Tables Vol C Tables 4.2.6.8 and 6.1.1.4'
O O 0.0106 0.0060 'International Tables Vol C Tables 4.2.6.8 and 6.1.1.4'
W W -0.8490 6.8722 'International Tables Vol C Tables 4.2.6.8 and 6.1.1.4'
loop_
_citation_id
_citation_doi
_citation_year
1 10.1039/C7QI00128B 2017
loop_
_geom_angle_atom_site_label_1
_geom_angle_atom_site_label_2
_geom_angle_atom_site_label_3
_geom_angle
N1 C1 C2 118.3(4)
N1 C1 C6 119.5(4)
C2 C1 C6 122.2(4)
C1 C2 C3 119.2(4)
C4 C3 C2 118.3(4)
C4 C3 C7 121.5(4)
C2 C3 C7 120.2(4)
C3 C4 C5 122.9(4)
C6 C5 C4 118.5(4)
C6 C5 C8 120.8(4)
C4 C5 C8 120.6(4)
C5 C6 C1 118.9(4)
C1 N1 W1 176.0(3)
N1 W1 O1 178.37(12)
N1 W1 Cl1 96.16(12)
O1 W1 Cl1 83.29(8)
N1 W1 Cl2 96.58(12)
O1 W1 Cl2 84.96(8)
Cl1 W1 Cl2 89.85(4)
N1 W1 Cl4 94.46(12)
O1 W1 Cl4 84.01(8)
Cl1 W1 Cl4 90.09(5)
Cl2 W1 Cl4 168.90(4)
N1 W1 Cl3 96.39(12)
O1 W1 Cl3 84.16(8)
Cl1 W1 Cl3 167.45(4)
Cl2 W1 Cl3 88.78(4)
Cl4 W1 Cl3 88.87(5)
C12 O1 C9 108.9(3)
C12 O1 W1 125.2(2)
C9 O1 W1 125.6(3)
C9 C10 C11 106.2(4)
O1 C12 C11 105.8(4)
C12 C11 C10 105.4(4)
O1 C9 C10 106.8(4)
loop_
_geom_bond_atom_site_label_1
_geom_bond_atom_site_label_2
_geom_bond_distance
C1 N1 1.385(5)
C1 C2 1.392(6)
C1 C6 1.395(6)
C2 C3 1.395(6)
C3 C4 1.385(6)
C3 C7 1.498(6)
C4 C5 1.402(6)
C5 C6 1.387(6)
C5 C8 1.503(6)
Cl1 W1 2.3178(11)
Cl2 W1 2.3239(10)
Cl3 W1 2.3358(10)
Cl4 W1 2.3347(11)
N1 W1 1.722(3)
W1 O1 2.239(3)
O1 C12 1.458(5)
O1 C9 1.462(5)
C10 C9 1.491(7)
C10 C11 1.493(7)
C12 C11 1.485(6)
loop_
_geom_torsion_atom_site_label_1
_geom_torsion_atom_site_label_2
_geom_torsion_atom_site_label_3
_geom_torsion_atom_site_label_4
_geom_torsion
N1 C1 C2 C3 -177.5(3)
C6 C1 C2 C3 -0.3(6)
C1 C2 C3 C4 0.3(6)
C1 C2 C3 C7 179.8(4)
C2 C3 C4 C5 0.2(6)
C7 C3 C4 C5 -179.4(4)
C3 C4 C5 C6 -0.7(6)
C3 C4 C5 C8 177.4(4)
C4 C5 C6 C1 0.7(6)
C8 C5 C6 C1 -177.4(4)
N1 C1 C6 C5 177.0(3)
C2 C1 C6 C5 -0.2(6)
C9 O1 C12 C11 19.9(6)
W1 O1 C12 C11 -166.2(3)
O1 C12 C11 C10 -26.5(6)
C9 C10 C11 C12 23.2(7)
C12 O1 C9 C10 -5.4(7)
W1 O1 C9 C10 -179.2(3)
C11 C10 C9 O1 -11.2(7)
