#------------------------------------------------------------------------------
#$Date: 2019-11-24 00:23:42 +0200 (Sun, 24 Nov 2019) $
#$Revision: 235747 $
#$URL: file:///home/coder/svn-repositories/cod/cif/4/34/96/4349691.cif $
#------------------------------------------------------------------------------
#
# This file is available in the Crystallography Open Database (COD),
# http://www.crystallography.net/
#
# All data on this site have been placed in the public domain by the
# contributors.
#
data_4349691
loop_
_publ_author_name
'Wright, Christopher M. R.'
'Williams, Thomas J.'
'Turner, Zo\"e R.'
'Buffet, Jean-Charles'
'O'Hare, Dermot'
_publ_section_title
;
 Selective ethylene oligomerisation using supported tungsten mono-imido
 catalysts
;
_journal_issue                   6
_journal_name_full               'Inorganic Chemistry Frontiers'
_journal_page_first              1048
_journal_paper_doi               10.1039/C7QI00128B
_journal_volume                  4
_journal_year                    2017
_chemical_formula_moiety         'C10 H16 Cl N O W'
_chemical_formula_sum            'C10 H16 Cl N O W'
_chemical_formula_weight         385.54
_chemical_properties_physical    ', Air-sensitive,Moisture-sensitive'
_space_group_crystal_system      monoclinic
_space_group_IT_number           4
_space_group_name_Hall           'P 2yb'
_space_group_name_H-M_alt        'P 1 21 1'
_atom_sites_solution_hydrogens   geom
_audit_block_doi                 10.5517/ccdc.csd.cc1mzdww
_audit_creation_method           SHELXL-2014
_audit_update_record
;
2016-11-23 deposited with the CCDC.
2017-05-10 downloaded from the CCDC.
;
_cell_angle_alpha                90
_cell_angle_beta                 97.885(4)
_cell_angle_gamma                90
_cell_formula_units_Z            2
_cell_length_a                   6.0476(3)
_cell_length_b                   7.3129(3)
_cell_length_c                   14.2223(6)
_cell_measurement_reflns_used    3439
_cell_measurement_temperature    150(2)
_cell_measurement_theta_max      75.1430
_cell_measurement_theta_min      6.2740
_cell_volume                     623.04(5)
_computing_cell_refinement
;
CrysAlisPro, Agilent Technologies,
Version 1.171.35.21 (release 20-01-2012 CrysAlis171 .NET)
(compiled Jan 23 2012,18:06:46)
;
_computing_data_collection
;
CrysAlisPro, Agilent Technologies,
Version 1.171.35.21 (release 20-01-2012 CrysAlis171 .NET)
(compiled Jan 23 2012,18:06:46)
;
_computing_data_reduction
;
CrysAlisPro, Agilent Technologies,
Version 1.171.35.21 (release 20-01-2012 CrysAlis171 .NET)
(compiled Jan 23 2012,18:06:46)
;
_computing_molecular_graphics
;
Burnett, M. N.; Johnson, C. K. 
ORTEP-III Report ORNL-6895. 
Oak Ridge National Laboratory, Tennessee, USA 1996.
;
_computing_structure_refinement  'SHELXL-2014 (Sheldrick, 2014)'
_computing_structure_solution
;
'Altomare, A.; Cascarano, G.; Giacovazzo, C.; Guagliardi, A. J. Appl. 
Cryst. 1994, 27, 435.'
;
_diffrn_ambient_temperature      150(2)
_diffrn_measured_fraction_theta_full 0.999
_diffrn_measured_fraction_theta_max 0.999
_diffrn_measurement_device_type  'SuperNova, Dual, Cu at zero, Atlas'
_diffrn_measurement_method       '\w scans'
_diffrn_radiation_monochromator  mirror
_diffrn_radiation_source         'SuperNova (Cu) X-ray Source'
_diffrn_radiation_type           CuK\a
_diffrn_radiation_wavelength     1.54184
_diffrn_reflns_av_unetI/netI     0.0165
_diffrn_reflns_Laue_measured_fraction_full 0.999
_diffrn_reflns_Laue_measured_fraction_max 0.999
_diffrn_reflns_limit_h_max       7
_diffrn_reflns_limit_h_min       -7
_diffrn_reflns_limit_k_max       9
_diffrn_reflns_limit_k_min       -9
_diffrn_reflns_limit_l_max       17
_diffrn_reflns_limit_l_min       -17
_diffrn_reflns_number            3247
_diffrn_reflns_point_group_measured_fraction_full 1.000
_diffrn_reflns_point_group_measured_fraction_max 0.993
_diffrn_reflns_theta_full        67.684
_diffrn_reflns_theta_max         75.776
_diffrn_reflns_theta_min         6.283
_exptl_absorpt_coefficient_mu    18.916
_exptl_absorpt_correction_T_max  1.00000
_exptl_absorpt_correction_T_min  0.73601
_exptl_absorpt_correction_type   multi-scan
_exptl_absorpt_process_details
;
CrysAlisPro, Agilent Technologies,
Version 1.171.37.35 (release 13-08-2014 CrysAlis171 .NET)
(compiled Aug 13 2014,18:06:01)
Empirical absorption correction using spherical harmonics,
 implemented in SCALE3 ABSPACK scaling algorithm.
;
_exptl_crystal_colour            'pale orange'
_exptl_crystal_density_diffrn    2.055
_exptl_crystal_description       block
_exptl_crystal_F_000             364
_exptl_crystal_recrystallization_method
'Re-crystallisation from solvent: hexane'
_exptl_crystal_size_max          0.060
_exptl_crystal_size_mid          0.050
_exptl_crystal_size_min          0.040
_refine_diff_density_max         1.386
_refine_diff_density_min         -1.653
_refine_diff_density_rms         0.181
_refine_ls_abs_structure_details
;
 Classical Flack method preferred over Parsons because s.u. lower.
;
_refine_ls_abs_structure_Flack   0.56(3)
_refine_ls_extinction_method     none
_refine_ls_goodness_of_fit_ref   1.097
_refine_ls_hydrogen_treatment    constr
_refine_ls_matrix_type           full
_refine_ls_number_parameters     119
_refine_ls_number_reflns         3247
_refine_ls_number_restraints     5
_refine_ls_restrained_S_all      1.096
_refine_ls_R_factor_all          0.0398
_refine_ls_R_factor_gt           0.0390
_refine_ls_shift/su_max          0.001
_refine_ls_shift/su_mean         0.000
_refine_ls_structure_factor_coef Fsqd
_refine_ls_weighting_details
'w=1/[\s^2^(Fo^2^)+(0.0748P)^2^+2.5682P] where P=(Fo^2^+2Fc^2^)/3'
_refine_ls_weighting_scheme      calc
_refine_ls_wR_factor_gt          0.1078
_refine_ls_wR_factor_ref         0.1084
_reflns_Friedel_coverage         0.840
_reflns_Friedel_fraction_full    1.000
_reflns_Friedel_fraction_max     0.987
_reflns_number_gt                3164
_reflns_number_total             3247
_reflns_threshold_expression     'I > 2\s(I)'
_cod_data_source_file            c7qi00128b2.cif
_cod_data_source_block           086ZRT15
_cod_original_sg_symbol_H-M      'P 21'
_cod_database_code               4349691
_shelx_space_group_comment
;
The symmetry employed for this shelxl refinement is uniquely defined
by the following loop, which should always be used as a source of
symmetry information in preference to the above space-group names.
They are only intended as comments.
;
_shelx_estimated_absorpt_t_min   0.397
_shelx_estimated_absorpt_t_max   0.518
_shelxl_version_number           2014-3
_shelx_res_file
;
TITL 086ZRT15_twin1_hklf4 in P2(1)
CELL  1.54184   6.0476   7.3129  14.2223   90.000   97.885   90.000
ZERR     2.00   0.0003   0.0003   0.0006    0.000    0.004    0.000
LATT  -1
SYMM  - X, 1/2 + Y, - Z
SFAC  C    H    N    O    W    CL
UNIT  20   32   2    2    2    2
MERG   2
DELU     0.010   0.010 C2 W1
DELU     0.010   0.010 C1 W1
DELU  0.010 0.010 C3 W1
EADP C1 C2 C3
DELU     0.010   0.010 C10 O1
FMAP   2
PLAN   40
SIZE     0.040   0.050   0.060
ACTA
BOND   $H
CONF
L.S.  64
TEMP  -123.00
WGHT    0.074800    2.568200
BASF   0.32225
FVAR       5.22759
C1    1    0.359024    0.254174    0.645072    11.00000    0.02514    0.01720 =
         0.03479   -0.00246    0.00820    0.00383
AFIX 137
H1A   2    0.438303    0.227179    0.708351    11.00000   -1.50000
H1B   2    0.466199    0.259999    0.599350    11.00000   -1.50000
H1C   2    0.249513    0.157619    0.626211    11.00000   -1.50000
AFIX   0
C2    1   -0.155099    0.521426    0.623896    11.00000    0.02514    0.01720 =
         0.03479   -0.00246    0.00820    0.00383
AFIX 137
H2A   2   -0.215961    0.405019    0.597800    11.00000   -1.50000
H2B   2   -0.200876    0.620036    0.578736    11.00000   -1.50000
H2C   2   -0.211776    0.546323    0.683947    11.00000   -1.50000
AFIX   0
C3    1    0.340342    0.769422    0.647629    11.00000    0.02514    0.01720 =
         0.03479   -0.00246    0.00820    0.00383
AFIX 137
H3A   2    0.223820    0.860430    0.628604    11.00000   -1.50000
H3B   2    0.449589    0.771442    0.602723    11.00000   -1.50000
H3C   2    0.415203    0.798179    0.711453    11.00000   -1.50000
AFIX   0
C4    1    0.219836    0.488405    0.869147    11.00000    0.02967    0.00440 =
         0.02031   -0.00322    0.00201   -0.00176
C5    1    0.050767    0.576337    0.912726    11.00000    0.03900    0.02988 =
         0.02151    0.00515    0.00781    0.00279
AFIX  43
H5    2   -0.070404    0.634776    0.874769    11.00000   -1.20000
AFIX   0
C6    1    0.063099    0.576712    1.012075    11.00000    0.03559    0.03792 =
         0.02111    0.00063    0.00574    0.01398
AFIX  43
H6    2   -0.058473    0.621811    1.041066    11.00000   -1.20000
AFIX   0
C7    1    0.248446    0.512732    1.066610    11.00000    0.03857    0.03030 =
         0.02041   -0.00488    0.00360    0.01613
C8    1    0.414692    0.417576    1.022127    11.00000    0.03013    0.03226 =
         0.02243    0.00052   -0.00377   -0.00016
AFIX  43
H8    2    0.530566    0.351920    1.059546    11.00000   -1.20000
AFIX   0
C9    1    0.404347    0.422515    0.924508    11.00000    0.03405    0.03318 =
         0.03131    0.01126    0.01133    0.01490
AFIX  43
H9    2    0.527196    0.379511    0.895684    11.00000   -1.20000
AFIX   0
C10   1    0.102847    0.529917    1.211034    11.00000    0.06689    0.18271 =
         0.01842   -0.01354    0.01509    0.02564
AFIX  33
H10A  2    0.154997    0.523288    1.279298    11.00000   -1.50000
H10B  2    0.032962    0.649127    1.195808    11.00000   -1.50000
H10C  2   -0.006444    0.432684    1.193283    11.00000   -1.50000
AFIX   0
N1    3    0.207197    0.492167    0.770428    11.00000    0.02885    0.01306 =
         0.02144    0.00450    0.00407   -0.00822
O1    4    0.275642    0.509036    1.163033    11.00000    0.04810    0.07783 =
         0.01659   -0.00894    0.00155    0.00129
W1    5    0.194283    0.506236    0.647863    11.00000    0.02172    0.01611 =
         0.01720   -0.00132    0.00451    0.00050
CL1   6    0.191152    0.507151    0.477791    11.00000    0.03690    0.03075 =
         0.01889   -0.00239    0.00711   -0.00686
HKLF    5

REM  086ZRT15_twin1_hklf4 in P2(1)
REM R1 =  0.0390 for    3164 Fo > 4sig(Fo)  and  0.0398 for all    3247 data
REM    119 parameters refined using      5 restraints

END

WGHT      0.0750      2.5520

REM Highest difference peak  1.386,  deepest hole -1.653,  1-sigma level  0.181
Q1    1  -0.0038  0.5014  0.6369  11.00000  0.05    1.39
Q2    1  -0.4623  0.5047  0.6494  11.00000  0.05    1.24
Q3    1   0.3916  0.5174  0.6613  11.00000  0.05    0.97
Q4    1   0.5018  0.5034  0.4726  11.00000  0.05    0.61
Q5    1  -0.3677  0.5091  0.5977  11.00000  0.05    0.53
Q6    1   0.1885  0.6782  0.7617  11.00000  0.05    0.51
Q7    1   0.1942  0.7106  0.5472  11.00000  0.05    0.50
Q8    1   0.6413  0.5129  1.0734  11.00000  0.05    0.49
Q9    1   0.1948  0.8255  0.6531  11.00000  0.05    0.49
Q10   1   0.1868  0.3288  0.7614  11.00000  0.05    0.48
Q11   1   0.1961  0.3052  0.5482  11.00000  0.05    0.48
Q12   1  -0.0583  0.5057  1.1901  11.00000  0.05    0.46
Q13   1   0.2768  0.6895  0.6596  11.00000  0.05    0.45
Q14   1   0.1922  0.1876  0.6522  11.00000  0.05    0.44
Q15   1   0.3822  1.0115  0.7420  11.00000  0.05    0.43
Q16   1  -0.2797  0.5086  0.4991  11.00000  0.05    0.42
Q17   1  -0.3033  0.4346  0.6188  11.00000  0.05    0.42
Q18   1   0.2705  0.3299  0.6611  11.00000  0.05    0.41
Q19   1   0.1974  0.8027  0.5991  11.00000  0.05    0.41
Q20   1   0.2563  0.8300  0.7857  11.00000  0.05    0.40
Q21   1   0.3395  0.5089  0.5058  11.00000  0.05    0.39
Q22   1  -0.1946  0.3297  0.6215  11.00000  0.05    0.37
Q23   1   0.2592  0.1795  0.7865  11.00000  0.05    0.37
Q24   1   0.0449  0.2215  0.6485  11.00000  0.05    0.37
Q25   1  -0.3043  0.5841  0.6205  11.00000  0.05    0.37
Q26   1   0.4397  0.5074  1.1960  11.00000  0.05    0.37
Q27   1   0.1937  0.2136  0.6029  11.00000  0.05    0.36
Q28   1  -0.2035  0.7045  0.6223  11.00000  0.05    0.36
Q29   1   0.3906  0.5187  1.1805  11.00000  0.05    0.36
Q30   1   0.0538  0.3994  0.9229  11.00000  0.05    0.35
Q31   1   0.3787  0.9112  0.5253  11.00000  0.05    0.35
Q32   1   0.4709  0.1687  0.7177  11.00000  0.05    0.35
Q33   1   0.1115  0.8013  0.5245  11.00000  0.05    0.34
Q34   1   0.1093  0.2076  0.5224  11.00000  0.05    0.34
Q35   1   0.4784  0.8490  0.7177  11.00000  0.05    0.34
Q36   1   0.2633  0.5041  1.2638  11.00000  0.05    0.34
Q37   1   0.3814  0.1002  0.5290  11.00000  0.05    0.34
Q38   1  -0.4286  0.5989  0.6988  11.00000  0.05    0.33
Q39   1   0.6157  0.5043  0.9639  11.00000  0.05    0.33
Q40   1  -0.4272  0.4346  0.7150  11.00000  0.05    0.33
;
_shelx_res_checksum              96489
loop_
_space_group_symop_operation_xyz
'x, y, z'
'-x, y+1/2, -z'
loop_
_atom_site_label
_atom_site_type_symbol
_atom_site_fract_x
_atom_site_fract_y
_atom_site_fract_z
_atom_site_U_iso_or_equiv
_atom_site_adp_type
_atom_site_occupancy
_atom_site_site_symmetry_order
_atom_site_calc_flag
_atom_site_refinement_flags_posn
_atom_site_refinement_flags_adp
C1 C 0.359(5) 0.254(3) 0.645(2) 0.0253(16) Uani 1 1 d . U
H1A H 0.4383 0.2272 0.7084 0.038 Uiso 1 1 calc R U
H1B H 0.4662 0.2600 0.5994 0.038 Uiso 1 1 calc R U
H1C H 0.2495 0.1576 0.6262 0.038 Uiso 1 1 calc R U
C2 C -0.155(2) 0.521(3) 0.6239(9) 0.0253(16) Uani 1 1 d . U
H2A H -0.2160 0.4050 0.5978 0.038 Uiso 1 1 calc R U
H2B H -0.2009 0.6200 0.5787 0.038 Uiso 1 1 calc R U
H2C H -0.2118 0.5463 0.6839 0.038 Uiso 1 1 calc R U
C3 C 0.340(5) 0.769(3) 0.648(2) 0.0253(16) Uani 1 1 d . U
H3A H 0.2238 0.8604 0.6286 0.038 Uiso 1 1 calc R U
H3B H 0.4496 0.7714 0.6027 0.038 Uiso 1 1 calc R U
H3C H 0.4152 0.7982 0.7115 0.038 Uiso 1 1 calc R U
C4 C 0.220(2) 0.488(4) 0.8691(8) 0.018(3) Uani 1 1 d . .
C5 C 0.051(3) 0.576(2) 0.9127(11) 0.030(3) Uani 1 1 d . .
H5 H -0.0704 0.6348 0.8748 0.036 Uiso 1 1 calc R U
C6 C 0.063(3) 0.577(3) 1.0121(11) 0.031(4) Uani 1 1 d . .
H6 H -0.0585 0.6218 1.0411 0.038 Uiso 1 1 calc R U
C7 C 0.248(2) 0.513(6) 1.0666(8) 0.030(4) Uani 1 1 d . .
C8 C 0.415(3) 0.418(2) 1.0221(11) 0.029(3) Uani 1 1 d . .
H8 H 0.5306 0.3519 1.0595 0.035 Uiso 1 1 calc R U
C9 C 0.404(3) 0.423(3) 0.9245(12) 0.032(4) Uani 1 1 d . .
H9 H 0.5272 0.3795 0.8957 0.039 Uiso 1 1 calc R U
C10 C 0.103(4) 0.530(13) 1.2110(11) 0.088(16) Uani 1 1 d . U
H10A H 0.1550 0.5233 1.2793 0.133 Uiso 1 1 calc R U
H10B H 0.0330 0.6491 1.1958 0.133 Uiso 1 1 calc R U
H10C H -0.0064 0.4327 1.1933 0.133 Uiso 1 1 calc R U
N1 N 0.2072(19) 0.492(4) 0.7704(7) 0.021(3) Uani 1 1 d . .
O1 O 0.2756(18) 0.509(6) 1.1630(6) 0.048(3) Uani 1 1 d . U
W1 W 0.19428(8) 0.5062(4) 0.64786(3) 0.01817(19) Uani 1 1 d . U
Cl1 Cl 0.1912(5) 0.5072(16) 0.47779(17) 0.0285(6) Uani 1 1 d . .
loop_
_atom_site_aniso_label
_atom_site_aniso_U_11
_atom_site_aniso_U_22
_atom_site_aniso_U_33
_atom_site_aniso_U_23
_atom_site_aniso_U_13
_atom_site_aniso_U_12
C1 0.025(4) 0.017(4) 0.035(3) -0.002(6) 0.008(3) 0.004(6)
C2 0.025(4) 0.017(4) 0.035(3) -0.002(6) 0.008(3) 0.004(6)
C3 0.025(4) 0.017(4) 0.035(3) -0.002(6) 0.008(3) 0.004(6)
C4 0.030(6) 0.004(9) 0.020(5) -0.003(7) 0.002(4) -0.002(8)
C5 0.039(9) 0.030(7) 0.022(7) 0.005(6) 0.008(6) 0.003(7)
C6 0.036(9) 0.038(8) 0.021(7) 0.001(6) 0.006(6) 0.014(7)
C7 0.039(7) 0.030(9) 0.020(5) -0.005(14) 0.004(5) 0.016(16)
C8 0.030(8) 0.032(8) 0.022(7) 0.001(6) -0.004(6) 0.000(7)
C9 0.034(9) 0.033(8) 0.031(8) 0.011(7) 0.011(6) 0.015(7)
C10 0.067(13) 0.18(5) 0.018(6) -0.01(2) 0.015(7) 0.03(3)
N1 0.029(5) 0.013(7) 0.021(4) 0.005(8) 0.004(3) -0.008(9)
O1 0.048(6) 0.078(9) 0.017(4) -0.009(15) 0.002(4) 0.00(2)
W1 0.0217(3) 0.0161(3) 0.0172(3) -0.0013(5) 0.00451(18) 0.0005(6)
Cl1 0.0369(16) 0.0307(15) 0.0189(11) -0.002(5) 0.0071(10) -0.007(5)
loop_
_atom_type_symbol
_atom_type_description
_atom_type_scat_dispersion_real
_atom_type_scat_dispersion_imag
_atom_type_scat_source
C C 0.0181 0.0091 'International Tables Vol C Tables 4.2.6.8 and 6.1.1.4'
H H 0.0000 0.0000 'International Tables Vol C Tables 4.2.6.8 and 6.1.1.4'
N N 0.0311 0.0180 'International Tables Vol C Tables 4.2.6.8 and 6.1.1.4'
O O 0.0492 0.0322 'International Tables Vol C Tables 4.2.6.8 and 6.1.1.4'
W W -5.4734 5.5774 'International Tables Vol C Tables 4.2.6.8 and 6.1.1.4'
Cl Cl 0.3639 0.7018 'International Tables Vol C Tables 4.2.6.8 and 6.1.1.4'
loop_
_citation_id
_citation_doi
_citation_year
1 10.1039/C7QI00128B 2017
loop_
_geom_angle_atom_site_label_1
_geom_angle_atom_site_label_2
_geom_angle_atom_site_label_3
_geom_angle
W1 C1 H1A 109.5
W1 C1 H1B 109.5
H1A C1 H1B 109.5
W1 C1 H1C 109.5
H1A C1 H1C 109.5
H1B C1 H1C 109.5
W1 C2 H2A 109.5
W1 C2 H2B 109.5
H2A C2 H2B 109.5
W1 C2 H2C 109.5
H2A C2 H2C 109.5
H2B C2 H2C 109.5
W1 C3 H3A 109.5
W1 C3 H3B 109.5
H3A C3 H3B 109.5
W1 C3 H3C 109.5
H3A C3 H3C 109.5
H3B C3 H3C 109.5
C9 C4 N1 121.0(15)
C9 C4 C5 119.3(13)
N1 C4 C5 119.1(16)
C6 C5 C4 119.9(15)
C6 C5 H5 120.1
C4 C5 H5 120.1
C7 C6 C5 120.0(15)
C7 C6 H6 120.0
C5 C6 H6 120.0
C6 C7 O1 124.1(17)
C6 C7 C8 119.2(13)
O1 C7 C8 116(2)
C9 C8 C7 119.4(15)
C9 C8 H8 120.3
C7 C8 H8 120.3
C4 C9 C8 120.7(16)
C4 C9 H9 119.6
C8 C9 H9 119.6
O1 C10 H10A 109.5
O1 C10 H10B 109.5
H10A C10 H10B 109.5
O1 C10 H10C 109.5
H10A C10 H10C 109.5
H10B C10 H10C 109.5
C4 N1 W1 178(3)
C10 O1 C7 121.3(14)
N1 W1 C2 94.1(5)
N1 W1 C1 90.6(12)
C2 W1 C1 120.9(10)
N1 W1 C3 95.4(12)
C2 W1 C3 111.3(10)
C1 W1 C3 126.8(5)
N1 W1 Cl1 176.1(9)
C2 W1 Cl1 88.2(3)
C1 W1 Cl1 85.5(9)
C3 W1 Cl1 86.7(8)
loop_
_geom_bond_atom_site_label_1
_geom_bond_atom_site_label_2
_geom_bond_distance
C1 W1 2.10(3)
C1 H1A 0.9800
C1 H1B 0.9800
C1 H1C 0.9800
C2 W1 2.097(13)
C2 H2A 0.9800
C2 H2B 0.9800
C2 H2C 0.9800
C3 W1 2.12(3)
C3 H3A 0.9800
C3 H3B 0.9800
C3 H3C 0.9800
C4 C9 1.36(2)
C4 N1 1.396(15)
C4 C5 1.42(2)
C5 C6 1.40(2)
C5 H5 0.9500
C6 C7 1.36(2)
C6 H6 0.9500
C7 O1 1.359(14)
C7 C8 1.44(3)
C8 C9 1.38(2)
C8 H8 0.9500
C9 H9 0.9500
C10 O1 1.33(2)
C10 H10A 0.9800
C10 H10B 0.9800
C10 H10C 0.9800
N1 W1 1.737(10)
W1 Cl1 2.416(2)
loop_
_geom_torsion_atom_site_label_1
_geom_torsion_atom_site_label_2
_geom_torsion_atom_site_label_3
_geom_torsion_atom_site_label_4
_geom_torsion
C9 C4 C5 C6 -7(3)
N1 C4 C5 C6 -179(2)
C4 C5 C6 C7 8(3)
C5 C6 C7 O1 180(4)
C5 C6 C7 C8 -10(5)
C6 C7 C8 C9 12(4)
O1 C7 C8 C9 -177(3)
N1 C4 C9 C8 -179(2)
C5 C4 C9 C8 9(3)
C7 C8 C9 C4 -11(3)
C6 C7 O1 C10 15(9)
C8 C7 O1 C10 -155(5)
loop_
_diffrn_oxdiff_twin_id
_diffrn_oxdiff_twin_ratio
_diffrn_oxdiff_twin_reflns_isolated
_diffrn_oxdiff_twin_reflns_overlapped
1 0.6662 3004 2170
2 0.3338 3003 2170
