#------------------------------------------------------------------------------
#$Date: 2019-11-24 00:23:42 +0200 (Sun, 24 Nov 2019) $
#$Revision: 235747 $
#$URL: file:///home/coder/svn-repositories/cod/cif/4/34/96/4349692.cif $
#------------------------------------------------------------------------------
#
# This file is available in the Crystallography Open Database (COD),
# http://www.crystallography.net/
#
# All data on this site have been placed in the public domain by the
# contributors.
#
data_4349692
loop_
_publ_author_name
'Wright, Christopher M. R.'
'Williams, Thomas J.'
'Turner, Zo\"e R.'
'Buffet, Jean-Charles'
'O'Hare, Dermot'
_publ_section_title
;
 Selective ethylene oligomerisation using supported tungsten mono-imido
 catalysts
;
_journal_issue                   6
_journal_name_full               'Inorganic Chemistry Frontiers'
_journal_page_first              1048
_journal_paper_doi               10.1039/C7QI00128B
_journal_volume                  4
_journal_year                    2017
_chemical_formula_moiety         'C9 H12 Cl F2 N W'
_chemical_formula_sum            'C9 H12 Cl F2 N W'
_chemical_formula_weight         391.50
_chemical_properties_physical    ', Air-sensitive,Moisture-sensitive'
_space_group_crystal_system      triclinic
_space_group_IT_number           2
_space_group_name_Hall           '-P 1'
_space_group_name_H-M_alt        'P -1'
_atom_sites_solution_hydrogens   geom
_audit_block_doi                 10.5517/ccdc.csd.cc1mzdvv
_audit_creation_method           SHELXL-2014
_audit_update_record
;
2016-11-23 deposited with the CCDC.
2017-05-10 downloaded from the CCDC.
;
_cell_angle_alpha                90.1240(10)
_cell_angle_beta                 95.7700(10)
_cell_angle_gamma                118.5420(10)
_cell_formula_units_Z            2
_cell_length_a                   7.30920(10)
_cell_length_b                   7.50960(10)
_cell_length_c                   11.8873(2)
_cell_measurement_reflns_used    11836
_cell_measurement_temperature    150(2)
_cell_measurement_theta_max      27.485
_cell_measurement_theta_min      5.097
_cell_volume                     569.340(16)
_computing_cell_refinement       'HKL Scalepack (Otwinowski & Minor 1997)'
_computing_data_collection       'Collect (Nonius BV, 1997-2000)'
_computing_data_reduction
'HKL Denzo and Scalepack (Otwinowski & Minor 1997)'
_computing_molecular_graphics    'Ortep-3 for Windows (Farrugia, 1997)'
_computing_publication_material  'WinGX publication routines (Farrugia, 1999)'
_computing_structure_refinement  'SHELXL-2014 (Sheldrick, 2014)'
_computing_structure_solution
;
Palatinus, L.; Chapuis, G. J. Appl. Cryst. 2007, 40, 786-790.
;
_diffrn_ambient_temperature      150(2)
_diffrn_detector                 'CCD plate'
_diffrn_detector_area_resol_mean 9
_diffrn_measured_fraction_theta_full 0.992
_diffrn_measured_fraction_theta_max 0.992
_diffrn_measurement_device       '95mm CCD camera on \k-goniostat'
_diffrn_measurement_device_type  KappaCCD
_diffrn_measurement_method       'CCD rotation images, thick slices'
_diffrn_radiation_monochromator  'horizonally mounted graphite crystal'
_diffrn_radiation_probe          x-ray
_diffrn_radiation_type           Mok\a
_diffrn_radiation_wavelength     0.71073
_diffrn_reflns_av_R_equivalents  0.0355
_diffrn_reflns_av_unetI/netI     0.0442
_diffrn_reflns_Laue_measured_fraction_full 0.992
_diffrn_reflns_Laue_measured_fraction_max 0.992
_diffrn_reflns_limit_h_max       9
_diffrn_reflns_limit_h_min       -9
_diffrn_reflns_limit_k_max       9
_diffrn_reflns_limit_k_min       -9
_diffrn_reflns_limit_l_max       15
_diffrn_reflns_limit_l_min       -15
_diffrn_reflns_number            4939
_diffrn_reflns_point_group_measured_fraction_full 0.992
_diffrn_reflns_point_group_measured_fraction_max 0.992
_diffrn_reflns_theta_full        25.242
_diffrn_reflns_theta_max         27.544
_diffrn_reflns_theta_min         5.180
_diffrn_source                   'Enraf Nonius FR590'
_exptl_absorpt_coefficient_mu    10.367
_exptl_absorpt_correction_T_max  1.0000
_exptl_absorpt_correction_T_min  0.7277
_exptl_absorpt_correction_type   multi-scan
_exptl_absorpt_process_details
;
Multi-scan from symmetry-related measurements using
Sortav (Blessing 1995)
;
_exptl_crystal_colour            yellow
_exptl_crystal_density_diffrn    2.284
_exptl_crystal_description       block
_exptl_crystal_F_000             364
_exptl_crystal_recrystallization_method
'Re-crystallisation from solvent: hexane'
_exptl_crystal_size_max          0.150
_exptl_crystal_size_mid          0.120
_exptl_crystal_size_min          0.100
_refine_diff_density_max         2.131
_refine_diff_density_min         -3.000
_refine_diff_density_rms         0.212
_refine_ls_extinction_method     none
_refine_ls_goodness_of_fit_ref   1.044
_refine_ls_hydrogen_treatment    constr
_refine_ls_matrix_type           full
_refine_ls_number_parameters     130
_refine_ls_number_reflns         2615
_refine_ls_number_restraints     0
_refine_ls_restrained_S_all      1.044
_refine_ls_R_factor_all          0.0339
_refine_ls_R_factor_gt           0.0309
_refine_ls_shift/su_max          0.000
_refine_ls_shift/su_mean         0.000
_refine_ls_structure_factor_coef Fsqd
_refine_ls_weighting_details
'w=1/[\s^2^(Fo^2^)+(0.0528P)^2^] where P=(Fo^2^+2Fc^2^)/3'
_refine_ls_weighting_scheme      calc
_refine_ls_wR_factor_gt          0.0780
_refine_ls_wR_factor_ref         0.0800
_reflns_Friedel_coverage         0.000
_reflns_number_gt                2426
_reflns_number_total             2615
_reflns_threshold_expression     'I > 2\s(I)'
_cod_data_source_file            c7qi00128b2.cif
_cod_data_source_block           014CW16-ZRT
_cod_original_cell_volume        569.340(15)
_cod_database_code               4349692
_shelx_space_group_comment
;
The symmetry employed for this shelxl refinement is uniquely defined
by the following loop, which should always be used as a source of
symmetry information in preference to the above space-group names.
They are only intended as comments.
;
_shelx_estimated_absorpt_t_min   0.305
_shelx_estimated_absorpt_t_max   0.424
_shelxl_version_number           2014-3
_shelx_res_file
;
TITL shelx in P1                      New: P-1
CELL  0.71073   7.3092   7.5096  11.8873   90.124   95.770  118.542
ZERR     2.00   0.0001   0.0001   0.0002    0.001    0.001    0.001
LATT   1
SFAC  C    H    CL   F    N    W
UNIT  18   24   2    4    2    2
MERG   2
FMAP   2
PLAN   50
SIZE     0.100   0.120   0.150
ACTA
BOND   $H
CONF
LIST   4
L.S.  64
TEMP  -123.00
WGHT    0.052800
FVAR       0.23510
W1    6    0.354943    0.198238    0.164717    11.00000    0.02074    0.02524 =
         0.01897    0.00081    0.00413    0.01159
CL1   3    0.340281    0.154538   -0.038666    11.00000    0.03349    0.03812 =
         0.02028    0.00146    0.00610    0.01936
F1    4    0.626591    0.210634    0.479217    11.00000    0.03360    0.04707 =
         0.03607    0.00426    0.00535    0.02528
F2    4    0.030314    0.280670    0.376068    11.00000    0.03884    0.08516 =
         0.03020    0.00760    0.00659    0.04392
N1    5    0.349539    0.226445    0.310550    11.00000    0.02251    0.02861 =
         0.02591    0.00208    0.00593    0.01365
C1    1    0.325804    0.238692    0.422230    11.00000    0.02460    0.02024 =
         0.02103    0.00043    0.00365    0.00853
C2    1    0.462141    0.228276    0.510694    11.00000    0.02839    0.02662 =
         0.02908    0.00357    0.00395    0.01515
C3    1    0.435020    0.230555    0.621954    11.00000    0.04399    0.03367 =
         0.02770    0.00203   -0.00106    0.02059
AFIX  43
H3    2    0.529563    0.219057    0.678627    11.00000   -1.20000
AFIX   0
C4    1    0.265953    0.250075    0.650875    11.00000    0.05228    0.03764 =
         0.02001   -0.00053    0.00823    0.02509
AFIX  43
H4    2    0.243486    0.250083    0.728212    11.00000   -1.20000
AFIX   0
C5    1    0.129617    0.269533    0.568592    11.00000    0.04049    0.04262 =
         0.02745    0.00605    0.01305    0.02552
AFIX  43
H5    2    0.016267    0.286893    0.588576    11.00000   -1.20000
AFIX   0
C6    1    0.162666    0.263051    0.456781    11.00000    0.03036    0.03820 =
         0.02627    0.00599    0.00564    0.02003
C7    1    0.181619   -0.120923    0.160382    11.00000    0.02821    0.02695 =
         0.02604    0.00432    0.00403    0.01223
AFIX 137
H7A   2    0.165972   -0.165533    0.237902    11.00000   -1.50000
H7B   2    0.255474   -0.179449    0.122642    11.00000   -1.50000
H7C   2    0.042771   -0.166276    0.118583    11.00000   -1.50000
AFIX   0
C8    1    0.682806    0.332801    0.172507    11.00000    0.02012    0.03896 =
         0.03351   -0.00015    0.00627    0.01086
AFIX 137
H8A   2    0.735797    0.457073    0.130921    11.00000   -1.50000
H8B   2    0.720833    0.237838    0.138460    11.00000   -1.50000
H8C   2    0.744733    0.366264    0.251773    11.00000   -1.50000
AFIX   0
C9    1    0.201054    0.369610    0.125918    11.00000    0.03217    0.03143 =
         0.03115    0.00493    0.00855    0.02101
AFIX 137
H9A   2    0.058860    0.280194    0.089430    11.00000   -1.50000
H9B   2    0.278876    0.474295    0.074465    11.00000   -1.50000
H9C   2    0.193656    0.434262    0.195765    11.00000   -1.50000
AFIX   0
HKLF    4  1.0  1.00  0.00  0.00  0.00 -1.00  0.00  0.00  0.00 -1.00

REM  shelx in P1                      New: P-1
REM R1 =  0.0309 for    2426 Fo > 4sig(Fo)  and  0.0339 for all    2615 data
REM    130 parameters refined using      0 restraints

END

WGHT      0.0528      0.0000

REM Highest difference peak  2.131,  deepest hole -3.000,  1-sigma level  0.212
Q1    1  -0.0681  0.4083  0.5043  11.00000  0.05    2.13
Q2    1   0.4653  0.1714  0.2329  11.00000  0.05    1.18
Q3    1   0.2341  0.2236  0.0941  11.00000  0.05    1.18
Q4    1   0.2397  0.1168  0.2563  11.00000  0.05    1.10
Q5    1   0.3805  0.1071  0.0824  11.00000  0.05    1.07
Q6    1   0.4136  0.3454  0.2514  11.00000  0.05    1.04
Q7    1   0.2944  0.2629  0.2466  11.00000  0.05    1.03
Q8    1   0.5177  0.2792  0.2472  11.00000  0.05    1.02
Q9    1   0.4577  0.2944  0.0730  11.00000  0.05    1.02
Q10   1   0.2796  0.0529  0.0778  11.00000  0.05    0.92
Q11   1   0.1614  0.1084  0.0923  11.00000  0.05    0.81
Q12   1   0.5059  0.1514  0.1630  11.00000  0.05    0.80
Q13   1   0.0583 -0.4382  0.2903  11.00000  0.05    0.75
Q14   1   0.2074  0.2332  0.1701  11.00000  0.05    0.75
Q15   1   0.5401  0.4240  0.0516  11.00000  0.05    0.69
Q16   1   0.0844  0.1775  0.0634  11.00000  0.05    0.69
Q17   1   0.5624  0.3168  0.1711  11.00000  0.05    0.66
Q18   1   0.2862 -0.0079  0.1587  11.00000  0.05    0.61
Q19   1   0.3546  0.4088  0.0482  11.00000  0.05    0.59
Q20   1   0.5000  0.5000  0.0000  10.50000  0.05    0.57
Q21   1   0.2874 -0.0690  0.0567  11.00000  0.05    0.56
Q22   1   0.0000  0.4334  0.3477  11.00000  0.05    0.54
Q23   1   0.3998  0.4661  0.6524  11.00000  0.05    0.53
Q24   1   0.1981  0.3569  0.2903  11.00000  0.05    0.53
Q25   1   0.4229  0.4607  0.2670  11.00000  0.05    0.53
Q26   1   0.4185  0.4991  0.1083  11.00000  0.05    0.51
Q27   1   0.1071  0.1558  0.2821  11.00000  0.05    0.51
Q28   1   0.0737  0.0223 -0.0382  11.00000  0.05    0.51
Q29   1   0.3431  0.4594 -0.0201  11.00000  0.05    0.50
Q30   1   0.1117  0.1418  0.3644  11.00000  0.05    0.50
Q31   1   0.1545  0.0823  0.1635  11.00000  0.05    0.50
Q32   1   0.1217  0.3835  0.0436  11.00000  0.05    0.49
Q33   1   0.5482  0.0904  0.2762  11.00000  0.05    0.49
Q34   1   0.0743  0.0391  0.2686  11.00000  0.05    0.49
Q35   1   0.1999  0.3354  0.0601  11.00000  0.05    0.49
Q36   1   0.0697  0.0367  0.7048  11.00000  0.05    0.48
Q37   1   0.0579  0.0187  0.0635  11.00000  0.05    0.48
Q38   1   0.1541 -0.0302  0.2800  11.00000  0.05    0.48
Q39   1   0.3706 -0.0817  0.0477  11.00000  0.05    0.48
Q40   1   0.5848  0.5397  0.0950  11.00000  0.05    0.46
Q41   1   0.1579  0.1635  0.0055  11.00000  0.05    0.46
Q42   1   0.0963  0.4472  0.0014  11.00000  0.05    0.46
Q43   1   0.2735 -0.2315  0.0513  11.00000  0.05    0.44
Q44   1   0.0486 -0.1870  0.0538  11.00000  0.05    0.44
Q45   1   0.4778  0.0040  0.0349  11.00000  0.05    0.44
Q46   1   0.3784 -0.0145  0.2818  11.00000  0.05    0.43
Q47   1   0.6942  0.5163  0.3269  11.00000  0.05    0.43
Q48   1   0.2001  0.3837 -0.0129  11.00000  0.05    0.43
Q49   1   0.0096 -0.1079  0.0023  11.00000  0.05    0.43
Q50   1  -0.0738  0.3019 -0.0168  11.00000  0.05    0.43
;
_shelx_res_checksum              86696
loop_
_space_group_symop_operation_xyz
'x, y, z'
'-x, -y, -z'
loop_
_atom_site_label
_atom_site_type_symbol
_atom_site_fract_x
_atom_site_fract_y
_atom_site_fract_z
_atom_site_U_iso_or_equiv
_atom_site_adp_type
_atom_site_occupancy
_atom_site_site_symmetry_order
_atom_site_calc_flag
_atom_site_refinement_flags_posn
_atom_site_refinement_flags_adp
W1 W 0.35494(2) 0.19824(2) 0.16472(2) 0.02128(10) Uani 1 1 d . .
Cl1 Cl 0.3403(2) 0.1545(2) -0.03867(11) 0.0295(3) Uani 1 1 d . .
F1 F 0.6266(5) 0.2106(5) 0.4792(3) 0.0364(7) Uani 1 1 d . .
F2 F 0.0303(5) 0.2807(6) 0.3761(3) 0.0453(8) Uani 1 1 d . .
N1 N 0.3495(6) 0.2264(6) 0.3106(4) 0.0249(9) Uani 1 1 d . .
C1 C 0.3258(7) 0.2387(7) 0.4222(4) 0.0228(9) Uani 1 1 d . .
C2 C 0.4621(8) 0.2283(7) 0.5107(4) 0.0272(10) Uani 1 1 d . .
C3 C 0.4350(9) 0.2306(8) 0.6220(5) 0.0347(12) Uani 1 1 d . .
H3 H 0.5296 0.2191 0.6786 0.042 Uiso 1 1 calc R U
C4 C 0.2660(9) 0.2501(8) 0.6509(5) 0.0349(12) Uani 1 1 d . .
H4 H 0.2435 0.2501 0.7282 0.042 Uiso 1 1 calc R U
C5 C 0.1296(9) 0.2695(9) 0.5686(5) 0.0338(13) Uani 1 1 d . .
H5 H 0.0163 0.2869 0.5886 0.041 Uiso 1 1 calc R U
C6 C 0.1627(8) 0.2631(8) 0.4568(5) 0.0299(11) Uani 1 1 d . .
C7 C 0.1816(8) -0.1209(7) 0.1604(4) 0.0274(10) Uani 1 1 d . .
H7A H 0.1660 -0.1655 0.2379 0.041 Uiso 1 1 calc R U
H7B H 0.2555 -0.1794 0.1226 0.041 Uiso 1 1 calc R U
H7C H 0.0428 -0.1663 0.1186 0.041 Uiso 1 1 calc R U
C8 C 0.6828(8) 0.3328(9) 0.1725(5) 0.0320(12) Uani 1 1 d . .
H8A H 0.7358 0.4571 0.1309 0.048 Uiso 1 1 calc R U
H8B H 0.7208 0.2378 0.1385 0.048 Uiso 1 1 calc R U
H8C H 0.7447 0.3663 0.2518 0.048 Uiso 1 1 calc R U
C9 C 0.2011(9) 0.3696(8) 0.1259(5) 0.0288(11) Uani 1 1 d . .
H9A H 0.0589 0.2802 0.0894 0.043 Uiso 1 1 calc R U
H9B H 0.2789 0.4743 0.0745 0.043 Uiso 1 1 calc R U
H9C H 0.1937 0.4343 0.1958 0.043 Uiso 1 1 calc R U
loop_
_atom_site_aniso_label
_atom_site_aniso_U_11
_atom_site_aniso_U_22
_atom_site_aniso_U_33
_atom_site_aniso_U_23
_atom_site_aniso_U_13
_atom_site_aniso_U_12
W1 0.02074(14) 0.02524(14) 0.01897(14) 0.00081(9) 0.00413(8) 0.01159(10)
Cl1 0.0335(6) 0.0381(7) 0.0203(6) 0.0015(5) 0.0061(5) 0.0194(5)
F1 0.0336(16) 0.0471(19) 0.0361(18) 0.0043(14) 0.0053(14) 0.0253(15)
F2 0.0388(17) 0.085(2) 0.0302(18) 0.0076(16) 0.0066(14) 0.0439(18)
N1 0.0225(19) 0.029(2) 0.026(2) 0.0021(17) 0.0059(17) 0.0136(17)
C1 0.025(2) 0.020(2) 0.021(2) 0.0004(18) 0.0037(18) 0.0085(18)
C2 0.028(2) 0.027(2) 0.029(3) 0.0036(19) 0.004(2) 0.015(2)
C3 0.044(3) 0.034(3) 0.028(3) 0.002(2) -0.001(2) 0.021(2)
C4 0.052(3) 0.038(3) 0.020(3) -0.001(2) 0.008(2) 0.025(3)
C5 0.040(3) 0.043(3) 0.027(3) 0.006(2) 0.013(2) 0.026(3)
C6 0.030(3) 0.038(3) 0.026(3) 0.006(2) 0.006(2) 0.020(2)
C7 0.028(2) 0.027(2) 0.026(3) 0.0043(19) 0.004(2) 0.012(2)
C8 0.020(2) 0.039(3) 0.034(3) 0.000(2) 0.006(2) 0.011(2)
C9 0.032(3) 0.031(3) 0.031(3) 0.005(2) 0.009(2) 0.021(2)
loop_
_atom_type_symbol
_atom_type_description
_atom_type_scat_dispersion_real
_atom_type_scat_dispersion_imag
_atom_type_scat_source
C C 0.0033 0.0016 'International Tables Vol C Tables 4.2.6.8 and 6.1.1.4'
H H 0.0000 0.0000 'International Tables Vol C Tables 4.2.6.8 and 6.1.1.4'
Cl Cl 0.1484 0.1585 'International Tables Vol C Tables 4.2.6.8 and 6.1.1.4'
F F 0.0171 0.0103 'International Tables Vol C Tables 4.2.6.8 and 6.1.1.4'
N N 0.0061 0.0033 'International Tables Vol C Tables 4.2.6.8 and 6.1.1.4'
W W -0.8490 6.8722 'International Tables Vol C Tables 4.2.6.8 and 6.1.1.4'
loop_
_citation_id
_citation_doi
_citation_year
1 10.1039/C7QI00128B 2017
loop_
_geom_angle_atom_site_label_1
_geom_angle_atom_site_label_2
_geom_angle_atom_site_label_3
_geom_angle
N1 W1 C8 95.7(2)
N1 W1 C9 92.4(2)
C8 W1 C9 120.6(2)
N1 W1 C7 93.64(19)
C8 W1 C7 118.1(2)
C9 W1 C7 120.0(2)
N1 W1 Cl1 176.52(13)
C8 W1 Cl1 87.70(17)
C9 W1 Cl1 85.15(16)
C7 W1 Cl1 85.46(15)
C1 N1 W1 174.8(4)
N1 C1 C6 121.9(4)
N1 C1 C2 123.3(4)
C6 C1 C2 114.8(5)
C3 C2 F1 120.1(5)
C3 C2 C1 124.0(5)
F1 C2 C1 115.9(5)
C2 C3 C4 118.4(5)
C2 C3 H3 120.8
C4 C3 H3 120.8
C5 C4 C3 120.9(5)
C5 C4 H4 119.6
C3 C4 H4 119.6
C6 C5 C4 118.2(5)
C6 C5 H5 120.9
C4 C5 H5 120.9
F2 C6 C5 118.7(5)
F2 C6 C1 117.7(5)
C5 C6 C1 123.6(5)
W1 C7 H7A 109.5
W1 C7 H7B 109.5
H7A C7 H7B 109.5
W1 C7 H7C 109.5
H7A C7 H7C 109.5
H7B C7 H7C 109.5
W1 C8 H8A 109.5
W1 C8 H8B 109.5
H8A C8 H8B 109.5
W1 C8 H8C 109.5
H8A C8 H8C 109.5
H8B C8 H8C 109.5
W1 C9 H9A 109.5
W1 C9 H9B 109.5
H9A C9 H9B 109.5
W1 C9 H9C 109.5
H9A C9 H9C 109.5
H9B C9 H9C 109.5
loop_
_geom_bond_atom_site_label_1
_geom_bond_atom_site_label_2
_geom_bond_distance
W1 N1 1.753(4)
W1 C8 2.101(5)
W1 C9 2.101(5)
W1 C7 2.106(5)
W1 Cl1 2.4239(13)
F1 C2 1.358(6)
F2 C6 1.345(6)
N1 C1 1.365(6)
C1 C6 1.389(7)
C1 C2 1.403(7)
C2 C3 1.358(8)
C3 C4 1.387(8)
C3 H3 0.9500
C4 C5 1.384(8)
C4 H4 0.9500
C5 C6 1.379(8)
C5 H5 0.9500
C7 H7A 0.9800
C7 H7B 0.9800
C7 H7C 0.9800
C8 H8A 0.9800
C8 H8B 0.9800
C8 H8C 0.9800
C9 H9A 0.9800
C9 H9B 0.9800
C9 H9C 0.9800
loop_
_geom_torsion_atom_site_label_1
_geom_torsion_atom_site_label_2
_geom_torsion_atom_site_label_3
_geom_torsion_atom_site_label_4
_geom_torsion
N1 C1 C2 C3 -176.7(5)
C6 C1 C2 C3 3.4(7)
N1 C1 C2 F1 1.8(7)
C6 C1 C2 F1 -178.1(4)
F1 C2 C3 C4 179.6(5)
C1 C2 C3 C4 -1.9(8)
C2 C3 C4 C5 -0.9(8)
C3 C4 C5 C6 1.9(8)
C4 C5 C6 F2 179.6(5)
C4 C5 C6 C1 -0.2(9)
N1 C1 C6 F2 -2.0(7)
C2 C1 C6 F2 177.9(4)
N1 C1 C6 C5 177.8(5)
C2 C1 C6 C5 -2.3(7)
