#------------------------------------------------------------------------------
#$Date: 2019-11-24 00:28:07 +0200 (Sun, 24 Nov 2019) $
#$Revision: 235762 $
#$URL: file:///home/coder/svn-repositories/cod/cif/4/34/97/4349714.cif $
#------------------------------------------------------------------------------
#
# This file is available in the Crystallography Open Database (COD),
# http://www.crystallography.net/
#
# All data on this site have been placed in the public domain by the
# contributors.
#
data_4349714
loop_
_publ_author_name
'D\'eniz, Mariadel'
'Pas\'an, Jorge'
'Rasines, Beatriz'
'Lorenzo-Luis, Pablo'
'Lahoz, Fernando'
'Vera-Gonzales, Corina'
'Julve, Miguel'
'Ruiz-P\'erez, Catalina'
_publ_section_title
;
 Cadmium(ii) coordination polymers based on substituted malonic acid:
 synthesis, characterization and photoluminescence properties
;
_journal_issue                   8
_journal_name_full               'Inorganic Chemistry Frontiers'
_journal_page_first              1384
_journal_paper_doi               10.1039/C7QI00212B
_journal_volume                  4
_journal_year                    2017
_chemical_formula_sum            'C5 H8 Cd O5'
_chemical_formula_weight         260.51
_space_group_crystal_system      monoclinic
_space_group_IT_number           14
_space_group_name_Hall           '-P 2ybc'
_space_group_name_H-M_alt        'P 1 21/c 1'
_atom_sites_solution_hydrogens   mixed
_audit_creation_method           SHELXL-2013
_audit_update_record
;
2017-04-20 deposited with the CCDC.
2017-06-19 downloaded from the CCDC.
;
_cell_angle_alpha                90
_cell_angle_beta                 104.74(3)
_cell_angle_gamma                90
_cell_formula_units_Z            4
_cell_length_a                   10.520(2)
_cell_length_b                   9.2650(19)
_cell_length_c                   7.8960(16)
_cell_measurement_reflns_used    3686
_cell_measurement_temperature    100(2)
_cell_measurement_theta_max      28.243
_cell_measurement_theta_min      3.779
_cell_volume                     744.3(3)
_computing_cell_refinement       'HKL2000 (Otwinowski & Minor, 1997)'
_computing_data_collection       'MxCube (ESRF, 2006)'
_computing_data_reduction        'HKL2000 (Otwinowski & Minor, 1997)'
_computing_structure_refinement  'SHELXL-2013 (Sheldrick, 2013)'
_computing_structure_solution    'SHELXS-2013 (Sheldrick, 2013)'
_diffrn_ambient_temperature      100(2)
_diffrn_detector                 'CCD plate'
_diffrn_detector_area_resol_mean 9.6
_diffrn_measured_fraction_theta_full 0.936
_diffrn_measured_fraction_theta_max 0.945
_diffrn_measurement_device_type  'Single-axis HUBER diffractometer'
_diffrn_measurement_method       'phi scans'
_diffrn_radiation_detector       'ADSC Q210r CCD (binned mode)'
_diffrn_radiation_monochromator  'Si 111'
_diffrn_radiation_wavelength     0.738
_diffrn_reflns_av_unetI/netI     0.0458
_diffrn_reflns_Laue_measured_fraction_full 0.936
_diffrn_reflns_Laue_measured_fraction_max 0.945
_diffrn_reflns_limit_h_max       9
_diffrn_reflns_limit_h_min       -9
_diffrn_reflns_limit_k_max       9
_diffrn_reflns_limit_k_min       -9
_diffrn_reflns_limit_l_max       12
_diffrn_reflns_limit_l_min       -13
_diffrn_reflns_number            3686
_diffrn_reflns_point_group_measured_fraction_full 0.936
_diffrn_reflns_point_group_measured_fraction_max 0.945
_diffrn_reflns_theta_full        26.283
_diffrn_reflns_theta_max         28.243
_diffrn_reflns_theta_min         3.779
_diffrn_source                   synchrotron
_diffrn_source_type              'ESRF-CRG BM16'
_exptl_absorpt_coefficient_mu    3.162
_exptl_absorpt_correction_type   none
_exptl_crystal_colour            colourless
_exptl_crystal_density_diffrn    2.325
_exptl_crystal_description       prism
_exptl_crystal_F_000             504
_exptl_crystal_size_max          0.150
_exptl_crystal_size_mid          0.120
_exptl_crystal_size_min          0.080
_refine_diff_density_max         1.366
_refine_diff_density_min         -2.761
_refine_diff_density_rms         0.195
_refine_ls_extinction_method     none
_refine_ls_goodness_of_fit_ref   1.103
_refine_ls_hydrogen_treatment    mixed
_refine_ls_matrix_type           full
_refine_ls_number_parameters     108
_refine_ls_number_reflns         1553
_refine_ls_number_restraints     2
_refine_ls_restrained_S_all      1.103
_refine_ls_R_factor_all          0.0447
_refine_ls_R_factor_gt           0.0444
_refine_ls_shift/su_max          0.000
_refine_ls_shift/su_mean         0.000
_refine_ls_structure_factor_coef Fsqd
_refine_ls_weighting_details
'w=1/[\s^2^(Fo^2^)+(0.0716P)^2^+3.8732P] where P=(Fo^2^+2Fc^2^)/3'
_refine_ls_weighting_scheme      calc
_refine_ls_wR_factor_gt          0.1239
_refine_ls_wR_factor_ref         0.1243
_reflns_Friedel_coverage         0.000
_reflns_number_gt                1526
_reflns_number_total             1553
_reflns_threshold_expression     'I > 2\s(I)'
_cod_data_source_file            c7qi00212b2.cif
_cod_data_source_block           Etmal_Cd
_cod_original_sg_symbol_H-M      'P 21/c'
_cod_database_code               4349714
_shelx_space_group_comment
;
The symmetry employed for this shelxl refinement is uniquely defined
by the following loop, which should always be used as a source of
symmetry information in preference to the above space-group names.
They are only intended as comments.
;
_shelx_estimated_absorpt_t_min   0.253
_shelx_estimated_absorpt_t_max   0.703
_shelxl_version_number           2013-4
_shelx_res_file
;
TITL n sull272 in P2(1)/c
CELL  0.73800  10.5200   9.2650   7.8960   90.000  104.739   90.000
ZERR     4.00   0.0021   0.0019   0.0016    0.000    0.030    0.000
LATT   1
SYMM  - X, 1/2 + Y, 1/2 - Z
SFAC  C    H    O    CD
DISP    Cd   -0.70933    1.29191      5658.03
UNIT  20   32   20   4
MERG   2
DFIX     0.900   0.020 H1WB O1W
DFIX     0.900   0.020 O1W H1WA
EQIV $1  x, -y+3/2, z-1/2
EQIV $2  x, y, z-1
HTAB O1W O3_$1
HTAB O1W O1_$2
FMAP   2
PLAN   20
SIZE     0.120   0.400   0.600
ACTA
BOND
L.S.  40
TEMP  -173.00
WGHT    0.071600    3.873200
FVAR       0.72289
CD1   4    0.886982    0.341534    0.484982    11.00000    0.02399    0.00695 =
         0.01547    0.00048    0.00976   -0.00218
O1    3    0.834435    0.390744    0.974215    11.00000    0.04596    0.01576 =
         0.02318    0.00413    0.01765    0.00628
O3    3    0.938552    0.774050    0.769603    11.00000    0.03105    0.01120 =
         0.02329   -0.00550    0.00009    0.00330
O1W   3    0.771209    0.490854    0.271487    11.00000    0.02289    0.01245 =
         0.01877   -0.00081    0.00669    0.00038
O2    3    0.771853    0.342272    0.691297    11.00000    0.03977    0.01914 =
         0.02681   -0.00495    0.02594   -0.00860
O4    3    0.942035    0.574786    0.615587    11.00000    0.02307    0.00659 =
         0.01523   -0.00032    0.01115   -0.00085
C1    1    0.795549    0.429298    0.815364    11.00000    0.02848    0.01068 =
         0.02070    0.00290    0.01739    0.00256
C2    1    0.783365    0.593103    0.786308    11.00000    0.03568    0.01385 =
         0.03605    0.00674    0.02310    0.00579
AFIX  13
H2    2    0.786969    0.640021    0.901490    11.00000   -1.20000
AFIX   0
C3    1    0.896740    0.650585    0.719719    11.00000    0.02166    0.00954 =
         0.01262    0.00282    0.00592    0.00568
C4    1    0.656510    0.635566    0.660140    11.00000    0.03064    0.02538 =
         0.05194    0.00113    0.00886    0.00168
AFIX  23
H4A   2    0.650099    0.587734    0.546155    11.00000   -1.20000
H4B   2    0.656010    0.741198    0.641070    11.00000   -1.20000
AFIX   0
C5    1    0.535346    0.593111    0.728415    11.00000    0.02703    0.04404 =
         0.12407   -0.01454    0.02319   -0.00671
AFIX  33
H5A   2    0.454622    0.622649    0.642877    11.00000   -1.50000
H5B   2    0.540584    0.641604    0.840286    11.00000   -1.50000
H5C   2    0.534500    0.488334    0.745096    11.00000   -1.50000
AFIX   0
H1WA  2    0.822643    0.570033    0.281011    11.00000    0.04527
H1WB  2    0.785286    0.454213    0.172874    11.00000    0.06755
HKLF    4

REM  n sull272 in P2(1)/c
REM R1 =  0.0444 for    1526 Fo > 4sig(Fo)  and  0.0447 for all    1553 data
REM    108 parameters refined using      2 restraints

END

WGHT      0.0715      3.8668

REM Highest difference peak  1.366,  deepest hole -2.761,  1-sigma level  0.195
Q1    1   0.6763  0.6574  0.8297  11.00000  0.05    1.37
Q2    1   0.7768  0.3696  0.3624  11.00000  0.05    1.11
Q3    1   0.5393  0.5921  0.8422  11.00000  0.05    1.00
Q4    1   0.7390  0.5581  0.6953  11.00000  0.05    0.92
Q5    1   1.0458  0.6508  0.6341  11.00000  0.05    0.91
Q6    1   1.0478  0.8360  0.8401  11.00000  0.05    0.85
Q7    1   0.8194  0.3364  0.6133  11.00000  0.05    0.80
Q8    1   0.9794  0.3931  0.6143  11.00000  0.05    0.77
Q9    1   0.8788  0.2700  0.4398  11.00000  0.05    0.75
Q10   1   0.7993  0.4152  0.5195  11.00000  0.05    0.70
Q11   1   0.8559  0.3179  0.6394  11.00000  0.05    0.67
Q12   1   0.9248  0.2747  0.5279  11.00000  0.05    0.66
Q13   1   0.8792  0.4076  0.4443  11.00000  0.05    0.66
Q14   1   0.9987  0.8068  0.9135  11.00000  0.05    0.66
Q15   1   0.9338  0.8753  0.8007  11.00000  0.05    0.61
Q16   1   0.7594  0.2574  0.6395  11.00000  0.05    0.58
Q17   1   0.7933  0.2610  0.6991  11.00000  0.05    0.58
Q18   1   0.7611  0.4424  0.6344  11.00000  0.05    0.55
Q19   1   0.8135  0.3406  0.4814  11.00000  0.05    0.55
Q20   1   0.6433  0.6555  0.4651  11.00000  0.05    0.54
;
_shelx_res_checksum              44423
_shelx_hkl_file
;
   2   0   0  144.85    8.88
   6   0   0 2516.12  115.33
   7   0   0  460.48   20.78
   8   0   0 1507.77   70.96
   9   0   0 4100.77  210.39
  10   0   0  576.51   25.45
  11   0   0   19.78    1.96
  12   0   0  684.57   36.42
  13   0   0  628.73   32.03
   0  -1   0    0.21    0.12
   3  -1   0  790.72   29.16
   4  -1   0  231.42    7.77
   5  -1   0 1533.68   53.50
   7  -1   0 3852.05  279.88
   8  -1   0  508.13   17.49
   9  -1   0   23.83    1.21
  10  -1   0 1077.25   36.11
  11  -1   0 1306.55   43.43
  12  -1   0  481.78   16.82
   0  -2   0  519.42   27.21
   2  -2   0  794.12   37.12
   3  -2   0    2.31    0.28
   4  -2   0 2752.16  281.34
   5  -2   0 2238.73  163.34
   6  -2   0  209.93    7.96
   7  -2   0   88.11    4.30
   8  -2   0  347.88   12.91
   9  -2   0  280.63   10.42
  10  -2   0  196.61    7.19
  11  -2   0   16.92    0.97
  12  -2   0   23.73    1.26
   0  -3   0    0.15    0.38
   1  -3   0  344.00   13.64
   2  -3   0  987.91   38.92
   3  -3   0    0.92    0.22
   4  -3   0   59.76    2.67
   5  -3   0  250.57    9.00
   6  -3   0   36.20    1.62
   7  -3   0  108.19    4.31
   8  -3   0   10.23    0.74
   9  -3   0    7.24    0.75
  10  -3   0   29.34    1.46
  11  -3   0   24.58    1.37
  12  -3   0   14.62    1.04
   2  -4   0    1.24    0.22
   3  -4   0 2142.66  221.83
   5  -4   0 2133.58   78.87
   6  -4   0   57.14    2.30
   7  -4   0  164.10    5.94
   8  -4   0  998.73   35.28
   9  -4   0 1446.68   53.50
  10  -4   0  380.01   15.04
  11  -4   0   18.56    1.14
  12  -4   0  180.20    7.07
   0  -5   0    1.23    0.39
   4  -5   0  754.57   28.77
   5  -5   0  100.02    4.25
   6  -5   0 2339.75   76.55
   7  -5   0 2543.01   83.01
   8  -5   0  471.39   16.11
   9  -5   0   66.48    3.12
  10  -5   0  626.21   23.72
  11  -5   0  781.65   27.86
   1  -6   0 2403.59  175.80
   2  -6   0   37.20    1.81
   3  -6   0 1297.89   48.39
   4  -6   0 3558.29  360.47
   5  -6   0 3506.02  161.13
   6  -6   0  920.32   32.43
   7  -6   0  228.38    8.29
   8  -6   0 2928.09   95.04
   9  -6   0 2860.34   93.67
  10  -6   0  846.59   29.96
  11  -6   0    1.51    0.81
   0  -7   0    0.67    0.39
   1  -7   0 1397.19   56.03
   2  -7   0 1672.85   65.96
   3  -7   0 1140.71   42.69
   4  -7   0  192.00    8.04
   5  -7   0    1.50    0.44
   6  -7   0  543.02   20.90
   7  -7   0 1036.15   34.72
   8  -7   0  808.28   27.29
   9  -7   0    9.33    0.72
  10  -7   0  329.47   12.02
   0  -8   0    2.29    0.51
   1  -8   0   79.79    3.72
   2  -8   0   71.19    3.39
   3  -8   0    0.74    0.34
   4  -8   0   10.14    0.67
   5  -8   0   33.37    1.69
   6  -8   0   49.32    2.35
   7  -8   0    3.70    0.50
   8  -8   0   11.90    0.87
   9  -8   0    0.43    0.54
   0  -9   0    1.12    0.57
   1  -9   0  382.36   15.34
   2  -9   0  774.55   29.85
   3  -9   0  276.96   11.11
   4  -9   0    9.84    0.71
   5  -9   0    9.20    0.77
   6  -9   0  245.72    9.66
   7  -9   0  319.88   11.39
   8  -9   0   60.27    2.61
   0 -10   0 2120.16  111.41
   1 -10   0 1399.41   52.66
   2 -10   0   72.51    3.30
   3 -10   0  342.20   13.96
   4 -10   0 2189.56   81.16
   5 -10   0 1875.14   69.62
   6 -10   0  321.42   12.78
   7 -10   0   83.54    3.43
   0 -11   0    1.59    0.79
   1 -11   0  970.85   36.74
   2 -11   0 1867.94   74.08
   3 -11   0 1020.51   38.57
   4 -11   0   46.83    2.39
 -13   0   1    0.70    0.99
 -12   0   1    0.34    0.61
 -11   0   1    1.97    0.71
 -10   0   1    0.29    0.51
  -9   0   1    0.36    0.42
  -8   0   1    0.34    0.53
  -7   0   1    0.31    0.32
  -6   0   1    0.42    0.32
  -5   0   1    0.24    0.25
  -4   0   1    0.50    0.36
  -3   0   1    0.22    0.24
  -2   0   1    0.49    0.25
  -1   0   1    0.42    0.12
   0   0   1    0.37    0.11
   1   0   1    0.59    0.10
   2   0   1    0.74    0.12
   3   0   1    1.02    0.18
   4   0   1    0.58    0.19
   5   0   1    0.24    0.27
   6   0   1    1.31    0.33
   7   0   1    0.21    0.37
   8   0   1    1.00    0.49
   9   0   1    0.39    0.60
  10   0   1    0.62    0.69
  11   0   1    0.08    0.82
  12   0   1    0.97    1.07
 -13  -1   1  219.60    8.23
 -12  -1   1  193.04    7.43
 -11  -1   1   10.23    0.82
 -10  -1   1  329.21   11.64
  -9  -1   1 1111.31   33.88
  -8  -1   1 1330.81   42.06
  -7  -1   1  162.21    6.28
  -6  -1   1 1372.39   47.97
  -4  -1   1 1738.15  125.77
  -3  -1   1  308.08   10.45
  -2  -1   1  516.10   16.99
  -1  -1   1  479.62   25.20
   2  -1   1  637.13   26.79
   3  -1   1    7.97    0.51
   4  -1   1 2168.41  225.32
   5  -1   1 1873.89   86.37
   6  -1   1  517.49   18.47
   7  -1   1  186.31    6.64
   8  -1   1  399.78   13.73
   9  -1   1  664.38   22.30
  10  -1   1   71.73    2.90
  11  -1   1    3.18    0.70
  12  -1   1  105.34    4.61
 -13  -2   1   71.37    3.07
 -12  -2   1  822.61   27.61
 -11  -2   1 1568.92   52.08
 -10  -2   1 1445.42   50.33
  -9  -2   1   10.19    0.95
  -8  -2   1 1675.21   61.93
  -5  -2   1    7.64    0.49
  -4  -2   1 1400.77   84.19
   0  -2   1 1173.47   85.42
   3  -2   1 3373.28  343.30
   4  -2   1   27.94    1.52
   5  -2   1 1774.47   64.49
   6  -2   1 3846.52  228.16
   7  -2   1 4421.59  201.54
   8  -2   1  842.05   29.52
   9  -2   1  214.37    7.54
  10  -2   1 1121.17   37.13
  11  -2   1 1612.30   53.09
  12  -2   1  329.08   11.80
 -12  -3   1  336.54   12.02
 -11  -3   1   21.72    1.22
 -10  -3   1  650.56   24.90
  -9  -3   1 2919.12  106.52
  -8  -3   1 4133.24  243.18
  -7  -3   1  313.23   12.25
  -6  -3   1 2393.27   87.26
  -3  -3   1  176.37    7.56
  -2  -3   1  328.16   13.23
  -1  -3   1 1275.99   94.73
   2  -3   1  117.87    4.75
   6  -3   1  513.43   17.38
   7  -3   1   47.24    2.29
   8  -3   1 1189.43   39.29
   9  -3   1 3023.08  103.01
  10  -3   1 1214.14   42.27
  11  -3   1    3.23    0.64
  12  -3   1  416.49   14.24
 -12  -4   1  262.01    9.97
 -11  -4   1  447.26   17.30
 -10  -4   1  112.24    4.72
  -9  -4   1   22.02    1.24
  -8  -4   1  936.69   33.04
  -7  -4   1 2719.85   88.32
  -6  -4   1 2547.89   88.21
  -5  -4   1   85.48    3.27
  -4  -4   1 1838.56   85.17
   0  -4   1  316.19   12.25
   4  -4   1    3.34    0.46
   5  -4   1  531.03   20.16
   6  -4   1  852.42   32.08
   7  -4   1  856.86   28.49
   8  -4   1  217.28    8.12
   9  -4   1   56.40    2.71
  10  -4   1  846.97   30.21
  11  -4   1  782.04   27.71
 -12  -5   1   78.14    3.44
 -11  -5   1    9.92    0.97
 -10  -5   1  170.12    6.97
  -9  -5   1  217.26    8.73
  -8  -5   1    0.52    0.36
  -7  -5   1   68.79    2.75
  -6  -5   1   57.54    2.34
  -5  -5   1   45.84    2.07
  -4  -5   1  492.39   18.84
  -3  -5   1  569.85   21.93
  -2  -5   1   30.51    1.51
  -1  -5   1 2139.91  157.86
   0  -5   1  926.18   35.01
   1  -5   1   50.11    2.43
   2  -5   1  448.63   17.56
   3  -5   1  630.97   23.95
   4  -5   1  314.87   12.39
   5  -5   1  650.01   26.26
   6  -5   1  199.72    7.16
   7  -5   1    4.62    0.45
   8  -5   1  393.72   15.24
   9  -5   1  103.05    4.21
  10  -5   1   57.35    2.48
  11  -5   1    3.38    0.70
 -11  -6   1  112.49    5.06
 -10  -6   1  104.10    4.51
  -9  -6   1    0.56    0.46
  -8  -6   1   30.46    1.42
  -7  -6   1  195.01    7.14
  -6  -6   1  290.57   10.23
  -5  -6   1   30.86    1.55
  -4  -6   1  294.56   11.57
  -3  -6   1  314.63   12.75
  -2  -6   1  198.71    8.37
  -1  -6   1   49.80    2.56
   0  -6   1  197.44    8.65
   1  -6   1  270.76   10.95
   2  -6   1  821.06   31.30
   3  -6   1  321.84   12.68
   4  -6   1    1.50    0.35
   5  -6   1   49.15    2.29
   6  -6   1  169.71    6.70
   7  -6   1  461.64   16.08
   8  -6   1  120.59    4.53
   9  -6   1   17.59    1.08
  10  -6   1  135.29    5.45
 -10  -7   1  637.66   23.14
  -9  -7   1 1638.44   54.75
  -8  -7   1 1175.99   38.97
  -7  -7   1  126.84    4.71
  -6  -7   1  207.99    7.48
  -5  -7   1 1237.09   46.09
  -4  -7   1 3589.39  165.90
  -3  -7   1 1534.87   57.36
  -2  -7   1   14.88    0.93
  -1  -7   1 1703.88   67.97
   0  -7   1 3114.92  319.76
   1  -7   1  943.02   35.81
   2  -7   1   38.43    1.89
   3  -7   1  610.73   23.18
   4  -7   1 1283.05   47.68
   5  -7   1 1860.21   68.61
   6  -7   1  309.85   12.03
   7  -7   1  132.15    4.85
   8  -7   1 1190.95   39.49
   9  -7   1 1243.81   41.16
  10  -7   1  209.55    8.34
  -9  -8   1    9.19    0.80
  -8  -8   1  616.07   21.15
  -7  -8   1 2043.39   67.31
  -6  -8   1 1802.36   66.63
  -5  -8   1   92.90    4.07
  -4  -8   1  936.87   37.53
  -3  -8   1 2661.54  112.52
  -2  -8   1 4242.10  217.88
  -1  -8   1 1379.78   52.46
   0  -8   1   84.24    3.80
   1  -8   1 3426.18  207.57
   3  -8   1 2828.55  104.00
   4  -8   1    3.83    0.53
   5  -8   1  940.93   35.70
   6  -8   1 2003.06   73.14
   7  -8   1 1624.25   53.72
   8  -8   1  324.33   11.49
   9  -8   1   44.26    2.24
  -8  -9   1  963.66   32.08
  -7  -9   1   98.26    3.77
  -6  -9   1  941.86   35.73
  -5  -9   1 3019.04  110.18
  -4  -9   1 2673.21   97.89
  -3  -9   1  727.81   27.50
  -2  -9   1    7.07    0.70
  -1  -9   1 1423.02   52.88
   0  -9   1 3558.37  151.67
   1  -9   1 2841.51  105.04
   2  -9   1  124.94    5.24
   3  -9   1 1156.71   43.62
   4  -9   1 1856.50   68.88
   5  -9   1  824.44   31.63
   6  -9   1   36.28    1.89
   7  -9   1   90.60    3.82
   8  -9   1  535.85   18.22
  -7 -10   1  427.07   14.76
  -6 -10   1  277.84   11.18
  -5 -10   1   23.28    1.35
  -4 -10   1   88.36    4.03
  -3 -10   1  304.38   12.35
  -2 -10   1  160.13    6.94
  -1 -10   1   99.99    4.38
   0 -10   1   20.31    1.26
   1 -10   1  764.85   29.94
   2 -10   1 1371.56   51.00
   3 -10   1  610.23   23.61
   4 -10   1    4.40    0.72
   5 -10   1  424.62   17.71
   6 -10   1  658.09   25.10
  -5 -11   1   27.81    1.77
  -4 -11   1   14.85    1.09
  -3 -11   1    1.53    0.60
  -2 -11   1    1.32    0.54
  -1 -11   1    0.98    0.50
   0 -11   1   22.25    1.60
   1 -11   1    3.70    0.59
   2 -11   1   45.62    2.30
   3 -11   1   52.45    2.67
   4 -11   1   21.99    1.41
 -13   0   2 1114.94   52.60
 -12   0   2   89.21    4.64
 -11   0   2  535.46   25.70
 -10   0   2 1744.88   73.95
  -9   0   2 1027.06   44.24
  -8   0   2 2303.43   97.78
  -7   0   2 1409.84   66.71
  -6   0   2  704.70   38.09
   2   0   2   13.44    1.53
   3   0   2 1846.43  191.75
   6   0   2   26.96    2.45
   7   0   2 2371.51  121.74
   8   0   2 2172.54  111.16
   9   0   2 1172.10   61.27
  10   0   2  376.71   20.62
  11   0   2   33.46    2.75
  12   0   2  258.08   13.77
 -13  -1   2  206.63    7.70
 -12  -1   2  849.98   28.80
 -11  -1   2  957.97   29.63
 -10  -1   2  413.61   13.22
  -9  -1   2   13.34    0.82
  -8  -1   2 1412.49   49.42
  -7  -1   2 2917.43  100.25
  -6  -1   2 4336.15  444.40
  -5  -1   2  108.95    4.11
   0  -1   2  595.42   27.77
   4  -1   2   92.01    4.34
   5  -1   2 1588.05   49.63
   6  -1   2 2717.18   98.60
   7  -1   2 1746.49   57.22
   8  -1   2  456.89   16.19
   9  -1   2   67.60    3.56
  10  -1   2  474.72   17.85
  11  -1   2  742.95   27.77
  12  -1   2  199.67    7.85
 -13  -2   2  104.94    4.39
 -12  -2   2  125.83    4.85
 -11  -2   2    1.80    0.52
 -10  -2   2  206.08    8.38
  -9  -2   2 1135.31   45.75
  -8  -2   2  947.17   33.38
  -7  -2   2   11.74    0.68
  -6  -2   2  505.14   18.38
  -5  -2   2  227.88    8.08
  -4  -2   2   16.22    0.86
  -3  -2   2   92.24    3.37
  -2  -2   2   42.27    1.65
  -1  -2   2   69.21    2.73
   1  -2   2  333.62   13.50
   2  -2   2  691.02   25.65
   3  -2   2 2535.31  256.61
   4  -2   2 1140.39   35.79
   5  -2   2  347.80   11.33
   6  -2   2   48.67    1.94
   7  -2   2   34.59    1.41
   8  -2   2  365.26   12.62
   9  -2   2  650.75   22.85
  10  -2   2  198.00    7.21
  11  -2   2    1.13    0.71
 -13  -3   2   34.76    1.88
 -12  -3   2   61.26    2.95
 -11  -3   2   92.59    4.03
 -10  -3   2   83.87    3.73
  -9  -3   2  154.24    6.37
  -8  -3   2   16.26    0.93
  -7  -3   2   10.28    0.67
  -6  -3   2  481.32   18.35
  -5  -3   2  224.88    8.01
  -4  -3   2  181.25    6.46
  -3  -3   2   20.68    1.00
  -2  -3   2    6.25    0.42
  -1  -3   2    6.75    0.46
   0  -3   2  950.13   37.82
   1  -3   2 1161.66   54.41
   2  -3   2  485.29   18.34
   3  -3   2   67.92    2.93
   4  -3   2  366.66   14.06
   5  -3   2  387.51   13.96
   6  -3   2  434.19   14.06
   7  -3   2  149.39    5.38
   8  -3   2  101.50    3.85
   9  -3   2    5.01    0.58
  10  -3   2    2.77    0.59
  11  -3   2   35.42    1.73
 -12  -4   2   62.85    2.94
 -11  -4   2   26.26    1.49
 -10  -4   2  322.24   12.86
  -9  -4   2  494.09   19.20
  -8  -4   2  892.27   33.65
  -7  -4   2   43.91    2.03
  -6  -4   2 1037.20   34.73
  -5  -4   2 2684.83  113.54
  -3  -4   2  807.88   30.36
  -2  -4   2  272.37   10.86
   1  -4   2 3073.87  320.44
   2  -4   2   12.70    1.05
   3  -4   2 1207.13   44.35
   4  -4   2 1416.28   52.02
   5  -4   2  714.64   26.63
   6  -4   2   49.66    2.10
   7  -4   2  180.16    6.46
   8  -4   2  443.62   15.10
   9  -4   2  448.67   15.35
  10  -4   2   71.12    3.10
  11  -4   2   80.59    3.48
 -12  -5   2  932.17   35.09
 -11  -5   2 1349.39   50.25
 -10  -5   2  690.77   26.18
  -9  -5   2   61.02    2.76
  -8  -5   2 2058.31   67.48
  -7  -5   2 4458.54  152.44
  -6  -5   2 4001.41  167.14
  -5  -5   2  425.24   14.60
  -4  -5   2 1875.60   68.59
  -1  -5   2 2359.84  123.21
   0  -5   2   24.84    1.30
   3  -5   2 3052.83  221.03
   4  -5   2   11.25    0.95
   5  -5   2 2458.65   89.26
   6  -5   2 2805.15   96.03
   7  -5   2 1740.44   56.63
   8  -5   2  300.36   10.94
   9  -5   2  143.20    5.29
  10  -5   2  855.00   28.65
 -11  -6   2   59.36    3.09
 -10  -6   2  910.09   34.06
  -9  -6   2 1852.65   68.40
  -8  -6   2 1089.13   36.40
  -7  -6   2   34.62    1.59
  -6  -6   2 1264.73   42.30
  -5  -6   2 3394.36  132.34
  -4  -6   2 2173.03   79.94
  -3  -6   2  136.23    5.99
  -2  -6   2 1242.73   49.19
  -1  -6   2 2722.44  283.02
   0  -6   2 3889.63  404.87
   1  -6   2 2243.23  134.95
   2  -6   2  111.57    4.78
   3  -6   2 2408.57  102.03
   4  -6   2 4614.61  470.43
   5  -6   2 2791.98  101.48
   6  -6   2  117.56    5.04
   7  -6   2  267.62    9.49
   8  -6   2  696.06   24.53
   9  -6   2  835.24   26.78
  10  -6   2  324.09   11.29
 -10  -7   2  115.69    5.16
  -9  -7   2   43.66    1.93
  -8  -7   2  416.31   14.56
  -7  -7   2 1510.20   49.79
  -6  -7   2 1040.52   34.87
  -5  -7   2  113.09    4.82
  -4  -7   2  924.43   35.12
  -3  -7   2 1997.66   73.72
  -2  -7   2 1014.58   38.47
  -1  -7   2   29.91    1.58
   0  -7   2   15.62    0.93
   1  -7   2  374.37   14.61
   2  -7   2 1280.24   47.59
   3  -7   2 1145.78   42.86
   4  -7   2  200.93    8.96
   5  -7   2  505.52   19.63
   6  -7   2 1467.46   53.81
   7  -7   2  918.63   34.46
   8  -7   2   69.51    2.79
   9  -7   2   22.09    1.28
  -9  -8   2   56.84    2.41
  -8  -8   2    0.95    0.53
  -7  -8   2   49.17    2.09
  -6  -8   2  211.87    7.59
  -5  -8   2  325.79   13.90
  -4  -8   2   45.84    2.30
  -3  -8   2    1.37    0.41
  -2  -8   2    2.15    0.41
  -1  -8   2   50.76    2.36
   0  -8   2  116.48    5.20
   1  -8   2   26.96    1.49
   2  -8   2   63.65    2.94
   3  -8   2   24.66    1.29
   4  -8   2    1.46    0.42
   5  -8   2    8.19    0.70
   6  -8   2   41.02    2.13
   7  -8   2    9.34    0.80
   8  -8   2   71.62    2.99
  -8  -9   2  219.03    7.87
  -7  -9   2  533.64   18.52
  -6  -9   2  650.10   23.23
  -5  -9   2  143.31    6.01
  -4  -9   2  466.00   17.87
  -3  -9   2  954.90   36.05
  -2  -9   2  897.54   34.14
  -1  -9   2  309.03   12.46
   0  -9   2    1.10    0.43
   1  -9   2  161.87    6.76
   2  -9   2  604.69   23.25
   3  -9   2  635.69   24.39
   4  -9   2   14.68    0.97
   5  -9   2  370.14   14.67
   6  -9   2  301.06   12.30
   7  -9   2  161.74    7.24
  -7 -10   2   12.30    0.98
  -6 -10   2  651.20   22.58
  -5 -10   2 1413.42   52.61
  -4 -10   2  892.41   33.67
  -3 -10   2  203.21    8.24
  -2 -10   2  145.82    6.79
  -1 -10   2  817.01   31.77
   0 -10   2 1821.74   68.17
   1 -10   2  929.19   35.45
   2 -10   2    2.44    0.55
   3 -10   2  993.70   37.43
   4 -10   2 1130.96   42.23
   5 -10   2  651.78   25.14
  -4 -11   2  771.65   29.72
  -3 -11   2 2037.14   75.05
  -2 -11   2 1575.12   58.94
  -1 -11   2  261.75   12.68
   0 -11   2  148.72    6.64
   1 -11   2 1579.95   59.08
   2 -11   2 2374.08   87.82
   3 -11   2 1400.07   52.08
 -13   0   3    0.42    0.79
 -12   0   3    0.31    0.67
 -11   0   3    0.21    0.53
 -10   0   3    0.28    0.53
  -9   0   3    1.21    0.54
  -8   0   3    0.18    0.36
  -7   0   3    0.32    0.44
  -6   0   3    0.26    0.51
  -5   0   3    0.09    0.38
  -4   0   3    0.26    0.25
  -3   0   3    0.71    0.33
  -2   0   3    0.77    0.26
  -1   0   3    0.26    0.21
   0   0   3    0.46    0.16
   1   0   3    0.21    0.15
   2   0   3    0.75    0.27
   3   0   3    0.68    0.39
   4   0   3    0.74    0.19
   5   0   3    0.76    0.30
   6   0   3    1.14    0.41
   7   0   3    0.31    0.46
   8   0   3    0.09    0.62
   9   0   3    0.18    0.66
  10   0   3    0.34    0.75
  11   0   3    0.07    1.14
 -13  -1   3  299.80   10.60
 -12  -1   3   60.15    2.42
 -11  -1   3  328.27   10.39
 -10  -1   3 1198.24   38.35
  -9  -1   3 1224.53   40.72
  -8  -1   3  215.97    7.70
  -7  -1   3    2.65    0.36
  -6  -1   3 1667.79   58.11
  -5  -1   3 2229.72   72.98
  -4  -1   3 2511.37  128.34
  -3  -1   3  212.39    7.88
  -2  -1   3  141.16    5.40
  -1  -1   3  871.56   34.65
   0  -1   3  619.70   26.95
   1  -1   3  803.27   33.99
   2  -1   3    1.68    0.29
   3  -1   3 1165.47   49.28
   4  -1   3 1039.84   41.48
   5  -1   3  433.43   16.34
   6  -1   3   27.18    1.31
   7  -1   3  352.56   13.47
   8  -1   3  682.58   25.64
   9  -1   3  469.87   17.90
  10  -1   3  177.13    7.19
  11  -1   3   58.43    2.83
 -13  -2   3  168.90    6.41
 -12  -2   3 1433.87   47.15
 -11  -2   3 2164.26   74.22
 -10  -2   3  627.23   21.22
  -9  -2   3   28.41    1.40
  -8  -2   3 1927.62   63.34
  -7  -2   3 3066.53   99.67
  -6  -2   3 2296.71   75.11
  -5  -2   3  115.23    4.29
  -4  -2   3 3879.97  398.18
  -1  -2   3  388.10   13.93
   0  -2   3  502.80   20.46
   4  -2   3  510.39   17.04
   5  -2   3 1343.90   40.05
   6  -2   3 3311.78  106.91
   7  -2   3 2125.30   69.13
   8  -2   3  434.72   16.44
   9  -2   3   61.73    3.30
  10  -2   3  444.66   17.35
  11  -2   3  339.39   13.23
 -13  -3   3  690.22   27.77
 -12  -3   3  294.19   10.90
 -11  -3   3  261.75   10.51
 -10  -3   3 2620.00  102.17
  -9  -3   3 2794.55  101.61
  -8  -3   3  712.55   27.01
  -7  -3   3   73.74    3.17
  -6  -3   3 2333.76   84.90
  -5  -3   3 5073.46  514.79
  -3  -3   3  882.73   31.05
  -2  -3   3 2556.58  263.66
   1  -3   3  856.01   37.23
   2  -3   3   75.87    3.16
   3  -3   3 1914.07   74.77
   4  -3   3 3788.42  273.19
   5  -3   3 3305.29  107.07
   6  -3   3  130.12    5.06
   7  -3   3 1390.63   45.91
   8  -3   3 2363.40   73.37
   9  -3   3  981.50   34.56
  10  -3   3   92.08    4.17
 -12  -4   3  793.66   29.99
 -11  -4   3  849.76   31.78
 -10  -4   3  324.25   13.76
  -9  -4   3  114.65    4.96
  -8  -4   3 1186.05   44.24
  -7  -4   3 2533.07   98.45
  -6  -4   3 2344.57   85.68
  -5  -4   3  550.20   18.62
  -4  -4   3  753.30   25.21
  -1  -4   3  708.43   27.04
   0  -4   3  512.86   19.45
   1  -4   3 1551.95   72.19
   2  -4   3 2248.93   94.63
   3  -4   3 1315.44   48.23
   4  -4   3   96.56    4.15
   5  -4   3 1054.32   36.56
   6  -4   3 2153.46   67.02
   7  -4   3 1158.05   36.72
   8  -4   3   49.52    2.22
   9  -4   3  162.18    5.74
  10  -4   3  280.47    9.63
 -12  -5   3   36.56    2.12
 -11  -5   3   29.04    1.57
 -10  -5   3    1.56    0.57
  -9  -5   3    6.28    0.67
  -8  -5   3  239.34    9.59
  -7  -5   3   73.71    3.15
  -6  -5   3   84.36    3.34
  -5  -5   3 1409.36   49.23
  -4  -5   3  429.04   16.63
  -3  -5   3   23.49    1.08
  -2  -5   3  362.05   14.27
  -1  -5   3  167.74    7.00
   0  -5   3  466.18   18.43
   1  -5   3  426.45   16.75
   2  -5   3   26.65    1.33
   3  -5   3  361.12   13.81
   4  -5   3  841.16   31.27
   5  -5   3   66.29    2.97
   6  -5   3   33.57    1.59
   7  -5   3   65.27    2.60
   8  -5   3    3.49    0.53
   9  -5   3   20.46    1.20
  10  -5   3    7.35    0.76
 -11  -6   3  168.04    7.22
 -10  -6   3  103.75    4.59
  -9  -6   3    5.17    0.74
  -8  -6   3  442.27   15.91
  -7  -6   3  581.58   19.85
  -6  -6   3  469.33   16.17
  -5  -6   3  135.10    5.17
  -4  -6   3  159.65    5.82
  -3  -6   3  479.05   18.64
  -2  -6   3  317.70   13.39
  -1  -6   3  170.52    7.06
   0  -6   3   42.59    2.00
   1  -6   3    4.85    0.43
   2  -6   3   24.85    1.30
   3  -6   3  289.87   11.22
   4  -6   3   68.10    2.98
   5  -6   3  150.80    6.18
   6  -6   3  356.66   13.87
   7  -6   3  117.80    4.38
   8  -6   3    1.38    0.54
   9  -6   3   94.47    3.64
 -10  -7   3  268.27   10.69
  -9  -7   3  399.40   15.34
  -8  -7   3  647.19   21.89
  -7  -7   3   79.81    3.05
  -6  -7   3  786.42   26.33
  -5  -7   3 2552.51   83.52
  -4  -7   3  821.58   31.40
  -3  -7   3  121.77    5.17
  -2  -7   3 2168.18   80.09
  -1  -7   3 2348.88   85.83
   0  -7   3 1504.15   56.43
   1  -7   3 1017.06   40.93
   2  -7   3    2.81    0.39
   3  -7   3 2036.38   74.44
   4  -7   3 3536.29  128.45
   5  -7   3 1490.07   54.98
   6  -7   3   27.48    1.60
   7  -7   3  444.31   15.85
   8  -7   3  425.55   14.32
  -9  -8   3  117.19    4.76
  -8  -8   3 1258.79   41.68
  -7  -8   3 2853.03   92.70
  -6  -8   3 2735.21   89.44
  -5  -8   3  626.47   21.34
  -4  -8   3  684.15   26.16
  -3  -8   3 4686.32  195.49
  -2  -8   3 4151.91  150.36
  -1  -8   3 1234.74   46.26
   0  -8   3  126.04    5.80
   1  -8   3 1585.40   59.20
   2  -8   3 2505.10   92.53
   3  -8   3 1151.33   46.35
   4  -8   3    5.27    0.62
   5  -8   3 1092.68   41.05
   6  -8   3 1564.17   57.81
   7  -8   3  791.88   28.37
  -8  -9   3  261.35    9.30
  -7  -9   3   12.19    1.04
  -6  -9   3  418.79   14.71
  -5  -9   3 1720.69   56.76
  -4  -9   3 1808.76   71.01
  -3  -9   3  314.24   12.44
  -2  -9   3  764.87   28.85
  -1  -9   3 3208.50  118.05
   0  -9   3 2844.73  104.37
   1  -9   3  359.47   14.21
   2  -9   3  200.64    8.25
   3  -9   3 1324.53   53.22
   4  -9   3 2001.92   73.53
   5  -9   3  985.28   37.05
   6  -9   3   22.60    1.57
  -6 -10   3  162.27    6.08
  -5 -10   3    6.41    0.69
  -4 -10   3  104.22    4.75
  -3 -10   3  758.29   30.77
  -2 -10   3 1096.34   42.37
  -1 -10   3  132.36    5.91
   0 -10   3  119.21    5.35
   1 -10   3  662.83   25.97
   2 -10   3  708.63   27.45
   3 -10   3  161.26    6.81
   4 -10   3    0.35    0.52
  -4 -11   3    4.71    0.81
  -3 -11   3   27.37    1.61
  -2 -11   3    4.92    0.69
  -1 -11   3    5.44    0.66
   0 -11   3    4.18    0.66
   1 -11   3    0.92    0.52
   2 -11   3    0.01    0.66
 -13   0   4  210.61    9.92
 -12   0   4   71.38    3.66
 -11   0   4  236.49   11.10
 -10   0   4 2385.23  100.56
  -9   0   4 5169.68  524.09
  -8   0   4 1665.04   86.23
  -7   0   4  261.67   16.88
  -3   0   4 1847.69  134.44
  -2   0   4  805.53   42.70
   1   0   4 1839.71  189.58
   2   0   4  923.22   55.38
   4   0   4 4046.32  240.59
   5   0   4 1044.41   78.95
   6   0   4    3.91    0.97
   7   0   4  903.61   67.72
   8   0   4 1876.54  138.89
   9   0   4  663.45   49.68
  10   0   4  116.90   10.08
 -13  -1   4  124.47    4.40
 -12  -1   4  992.85   30.07
 -11  -1   4 1335.42   40.18
 -10  -1   4  486.55   16.63
  -9  -1   4   87.58    3.50
  -8  -1   4 1452.04   48.33
  -7  -1   4 2353.80   86.48
  -6  -1   4 1293.34   42.82
  -5  -1   4  393.67   14.17
  -4  -1   4  978.47   34.22
  -1  -1   4  382.96   13.94
   0  -1   4 1517.91   70.91
   2  -1   4 2734.00  280.46
   3  -1   4  715.30   30.76
   4  -1   4   17.71    1.47
   5  -1   4 1540.62   60.43
   6  -1   4 2286.36  106.12
   7  -1   4  858.07   37.00
   8  -1   4   31.06    2.20
   9  -1   4  147.77    7.02
  10  -1   4  322.64   14.17
 -13  -2   4  232.01    8.23
 -12  -2   4   29.17    1.41
 -11  -2   4  166.33    6.24
 -10  -2   4  593.18   20.29
  -9  -2   4   93.61    3.60
  -8  -2   4   40.65    1.73
  -7  -2   4  163.21    5.82
  -6  -2   4  384.42   13.19
  -5  -2   4 1558.67   51.35
  -4  -2   4 2082.79   71.92
  -3  -2   4   85.97    3.28
  -2  -2   4 1949.52  101.98
   0  -2   4 1291.61   55.19
   1  -2   4  306.67   13.65
   2  -2   4   75.66    3.60
   3  -2   4   20.87    1.27
   4  -2   4  639.26   23.95
   5  -2   4  752.05   30.63
   6  -2   4  105.87    4.87
   7  -2   4  129.64    5.75
   8  -2   4  192.65    9.09
   9  -2   4   36.48    2.16
  10  -2   4    1.01    0.72
 -12  -3   4    2.01    0.79
 -11  -3   4    0.49    0.69
 -10  -3   4    3.46    0.63
  -9  -3   4    0.15    0.47
  -8  -3   4    0.88    0.52
  -7  -3   4   48.10    2.16
  -6  -3   4    0.90    0.32
  -5  -3   4    0.68    0.30
  -4  -3   4  526.84   20.24
  -3  -3   4 1000.43   37.49
  -2  -3   4 1048.03   39.09
  -1  -3   4  170.10    7.39
   0  -3   4    6.21    0.46
   1  -3   4  374.41   15.49
   2  -3   4  403.16   15.36
   3  -3   4  243.07    9.43
   4  -3   4  110.88    4.14
   5  -3   4    0.95    0.31
   6  -3   4    1.62    0.38
   7  -3   4    6.75    0.71
   8  -3   4   12.08    1.08
   9  -3   4    1.04    0.80
  10  -3   4    0.53    0.92
 -12  -4   4   78.33    3.49
 -11  -4   4  155.05    6.57
 -10  -4   4 1167.24   43.23
  -9  -4   4 1428.81   52.68
  -8  -4   4  407.92   15.61
  -7  -4   4   27.81    1.61
  -6  -4   4  487.58   19.89
  -5  -4   4 2166.72   79.13
  -4  -4   4 2553.09   88.27
  -3  -4   4  556.85   19.99
  -2  -4   4 1044.68   37.06
  -1  -4   4 3909.16  286.04
   0  -4   4 1761.27   69.30
   1  -4   4   30.17    1.44
   2  -4   4  381.96   14.65
   3  -4   4 2172.68   74.75
   4  -4   4 2181.12   74.79
   5  -4   4  762.11   26.89
   6  -4   4    7.30    0.71
   7  -4   4  716.77   24.42
   8  -4   4  816.28   30.44
   9  -4   4  211.13    9.37
 -11  -5   4 1295.77   51.56
 -10  -5   4  286.57   11.24
  -9  -5   4  224.02    8.88
  -8  -5   4 1975.87   83.67
  -7  -5   4 2613.78   95.21
  -6  -5   4 1676.69   58.26
  -5  -5   4  379.39   13.86
  -4  -5   4  734.69   24.83
  -3  -5   4 5450.77  390.60
  -2  -5   4 5635.10  581.43
  -1  -5   4  875.39   29.59
   0  -5   4  765.94   30.62
   1  -5   4 3378.58  173.71
   2  -5   4 2078.34   75.81
   3  -5   4  661.01   24.93
   4  -5   4    3.41    0.42
   5  -5   4  926.14   32.77
   6  -5   4 1839.61   58.01
   7  -5   4  786.17   25.39
   8  -5   4   26.57    1.34
   9  -5   4  204.70    7.66
 -11  -6   4  217.29    9.51
 -10  -6   4 1604.32   58.90
  -9  -6   4 1471.24   53.90
  -8  -6   4  356.30   13.98
  -7  -6   4  220.55    8.47
  -6  -6   4 1743.92   60.84
  -5  -6   4 3112.49  101.30
  -4  -6   4 2181.07   71.10
  -3  -6   4  123.68    4.64
  -2  -6   4 1716.62   56.79
   0  -6   4 4164.71  248.35
   1  -6   4  640.16   24.60
   2  -6   4  391.88   15.09
   3  -6   4 1875.57   68.70
   4  -6   4 2413.88   88.88
   5  -6   4 1440.26   50.48
   6  -6   4  241.06    9.38
   7  -6   4  389.19   13.49
   8  -6   4 1182.53   37.30
 -10  -7   4  133.61    5.69
  -9  -7   4  124.31    5.27
  -8  -7   4 1097.34   38.53
  -7  -7   4 1214.96   42.65
  -6  -7   4  376.43   14.09
  -5  -7   4  102.53    3.93
  -4  -7   4  581.73   20.09
  -3  -7   4 1153.66   38.82
  -2  -7   4  999.25   37.58
  -1  -7   4  357.19   14.32
   0  -7   4   99.53    4.32
   1  -7   4  801.84   30.52
   2  -7   4 1262.17   47.45
   3  -7   4  480.01   18.40
   4  -7   4    1.29    0.47
   5  -7   4  247.46   10.15
   6  -7   4  516.40   18.62
   7  -7   4  322.09   11.05
  -9  -8   4   55.62    2.80
  -8  -8   4   19.18    1.18
  -7  -8   4   12.94    0.85
  -6  -8   4   11.50    0.79
  -5  -8   4   10.22    0.76
  -4  -8   4   14.14    0.84
  -3  -8   4    6.04    0.55
  -2  -8   4    6.86    0.59
  -1  -8   4   51.31    2.39
   0  -8   4   30.95    1.64
   1  -8   4    2.79    0.48
   2  -8   4    1.83    0.46
   3  -8   4    1.32    0.48
   4  -8   4   80.97    3.67
   5  -8   4   75.21    3.40
   6  -8   4    7.64    0.90
  -8  -9   4  230.03    8.77
  -7  -9   4  409.85   14.20
  -6  -9   4  225.10    7.91
  -5  -9   4   62.34    2.64
  -4  -9   4    6.33    0.72
  -3  -9   4  272.05   11.12
  -2  -9   4  279.36   11.23
  -1  -9   4  144.51    6.53
   0  -9   4   37.59    1.92
   1  -9   4  467.64   18.67
   2  -9   4  220.65    8.74
   3  -9   4    8.15    0.76
   4  -9   4   21.13    1.43
   5  -9   4  170.15    7.16
  -6 -10   4  585.48   20.04
  -5 -10   4 1605.31   56.34
  -4 -10   4 1378.40   46.36
  -3 -10   4   98.94    4.49
  -2 -10   4  799.49   30.27
  -1 -10   4 2414.84   95.49
   0 -10   4 1160.85   43.68
   1 -10   4  204.54    8.74
   2 -10   4   26.09    1.75
   3 -10   4  592.15   22.20
 -13   0   5    0.26    0.93
 -12   0   5    0.26    0.87
 -11   0   5   -0.01    0.74
 -10   0   5   -0.44    0.72
  -9   0   5    0.80    0.57
  -8   0   5    0.39    0.57
  -7   0   5    0.26    0.55
  -6   0   5    0.22    0.45
  -5   0   5    1.05    0.44
  -4   0   5    0.45    0.39
  -3   0   5    0.85    0.45
  -2   0   5    0.62    0.30
  -1   0   5    0.39    0.32
   0   0   5    0.35    0.25
   1   0   5    1.52    0.29
   2   0   5    0.11    0.38
   3   0   5    0.46    0.45
   4   0   5    0.89    0.73
   5   0   5    0.41    0.81
   6   0   5    0.78    1.11
   7   0   5    1.56    1.09
   8   0   5    0.23    1.09
   9   0   5   -0.12    1.51
 -12  -1   5   22.88    1.22
 -11  -1   5   96.28    3.66
 -10  -1   5  891.86   31.59
  -9  -1   5 1389.84   52.02
  -8  -1   5  528.39   17.89
  -7  -1   5   49.69    2.18
  -6  -1   5  659.15   23.70
  -5  -1   5 1319.65   46.05
  -4  -1   5  445.98   16.24
  -3  -1   5   82.13    3.38
  -2  -1   5  382.36   14.16
  -1  -1   5 1595.67   63.09
   0  -1   5 1233.98   45.63
   1  -1   5    1.37    0.29
   2  -1   5  195.21    9.89
   3  -1   5  725.53   35.18
   4  -1   5 1102.19   52.11
   5  -1   5  714.73   35.17
   6  -1   5   91.11    5.66
   7  -1   5  278.30   16.04
   8  -1   5  640.46   34.45
   9  -1   5  162.17    9.37
 -12  -2   5  827.40   28.77
 -11  -2   5  928.24   31.21
 -10  -2   5  179.20    6.55
  -9  -2   5  645.18   21.76
  -8  -2   5 3411.12  110.78
  -7  -2   5 3803.62  123.30
  -6  -2   5  333.95   11.61
  -5  -2   5  364.16   12.61
  -4  -2   5 2334.00   76.38
  -3  -2   5 4858.26  490.87
  -2  -2   5 3787.85  224.03
  -1  -2   5  492.97   21.98
   0  -2   5  623.97   27.85
   1  -2   5 3408.99  201.99
   2  -2   5 2899.48  172.99
   3  -2   5  354.73   16.00
   4  -2   5    2.76    0.42
   5  -2   5  796.04   32.06
   6  -2   5 1544.05   72.25
   7  -2   5  585.35   27.60
   8  -2   5    1.50    0.86
   9  -2   5  251.20   13.96
 -12  -3   5   50.08    2.53
 -11  -3   5  300.46   11.99
 -10  -3   5 2018.97   74.46
  -9  -3   5 2894.01  113.58
  -8  -3   5  812.01   30.23
  -7  -3   5  247.76    9.84
  -6  -3   5 3680.92  132.77
  -5  -3   5 5870.91  348.06
  -4  -3   5 1990.68   73.16
  -3  -3   5    2.73    0.39
  -2  -3   5 1315.00   56.17
   1  -3   5 1406.95   59.77
   2  -3   5  117.09    6.89
   3  -3   5 3147.97  145.23
   4  -3   5 3839.14  175.43
   5  -3   5 1121.22   42.24
   6  -3   5    2.30    0.68
   7  -3   5  360.79   14.96
   8  -3   5  763.48   30.23
   9  -3   5  315.69   14.23
 -12  -4   5  517.87   19.81
 -11  -4   5  695.20   26.07
 -10  -4   5  148.99    6.12
  -9  -4   5  111.36    4.74
  -8  -4   5 1637.40   63.76
  -7  -4   5 2240.87   81.86
  -6  -4   5  823.25   31.17
  -5  -4   5    3.66    0.48
  -4  -4   5  664.95   25.49
  -3  -4   5 1686.99   62.35
  -2  -4   5 1428.19   56.85
  -1  -4   5  166.28    7.29
   0  -4   5  460.42   18.83
   1  -4   5 2654.83  104.13
   2  -4   5 1963.33   76.78
   3  -4   5   98.71    6.01
   4  -4   5  417.36   18.49
   5  -4   5 1145.07   49.69
   6  -4   5 1095.81   41.14
   7  -4   5  271.34   11.87
   8  -4   5    1.73    0.69
 -11  -5   5    1.16    0.69
 -10  -5   5  120.10    5.39
  -9  -5   5  158.35    6.51
  -8  -5   5    5.86    0.78
  -7  -5   5  249.52    9.96
  -6  -5   5  257.72   10.32
  -5  -5   5   26.05    1.31
  -4  -5   5  163.66    6.27
  -3  -5   5  124.50    4.98
  -2  -5   5   99.87    3.94
  -1  -5   5 1522.71   61.36
   0  -5   5 1215.41   48.82
   1  -5   5   81.37    3.88
   2  -5   5  271.05   11.30
   3  -5   5  194.09    7.81
   4  -5   5   28.48    1.38
   5  -5   5   25.12    1.35
   6  -5   5   29.83    1.78
   7  -5   5    0.68    0.65
   8  -5   5   18.91    1.69
 -10  -6   5   55.53    2.75
  -9  -6   5    5.35    0.81
  -8  -6   5  158.30    6.54
  -7  -6   5  247.61    9.70
  -6  -6   5    1.72    0.50
  -5  -6   5   69.34    2.89
  -4  -6   5  103.71    4.21
  -3  -6   5  118.51    4.76
  -2  -6   5   44.50    1.94
  -1  -6   5    2.43    0.31
   0  -6   5   53.55    2.64
   1  -6   5  416.26   17.39
   2  -6   5  492.16   21.84
   3  -6   5   39.32    1.79
   4  -6   5    6.46    0.60
   5  -6   5  127.27    5.42
   6  -6   5  179.25    7.68
   7  -6   5   55.70    2.87
 -10  -7   5  859.11   37.63
  -9  -7   5 1679.86   61.80
  -8  -7   5  181.71    7.39
  -7  -7   5  418.77   16.13
  -6  -7   5 1570.82   54.95
  -5  -7   5 1721.55   59.71
  -4  -7   5 1218.58   42.90
  -3  -7   5  476.25   16.44
  -2  -7   5   90.71    3.59
  -1  -7   5 2845.24   98.10
   0  -7   5 3231.09  126.38
   1  -7   5  440.84   18.57
   2  -7   5  124.50    5.22
   3  -7   5  739.10   28.10
   4  -7   5  695.16   24.49
   5  -7   5  193.15    7.40
   6  -7   5    3.39    0.68
  -8  -8   5 1047.01   39.77
  -7  -8   5 1612.09   55.91
  -6  -8   5  539.51   19.45
  -5  -8   5   35.99    1.79
  -4  -8   5 1053.95   35.34
  -3  -8   5 2698.83   88.50
  -2  -8   5 1837.61   61.18
  -1  -8   5   62.57    2.78
   0  -8   5 1033.20   39.36
   1  -8   5 3558.26  139.22
   2  -8   5 2264.98   83.52
   3  -8   5  292.38   11.60
   4  -8   5  139.58    5.58
   5  -8   5  779.81   27.17
  -7  -9   5    2.02    0.98
  -6  -9   5  964.51   34.75
  -5  -9   5 2112.92   70.39
  -4  -9   5 1590.00   52.95
  -3  -9   5  116.86    4.51
  -2  -9   5  491.88   17.62
  -1  -9   5 2116.63   70.09
   0  -9   5 1594.13   59.51
   1  -9   5  263.25   10.64
   2  -9   5  287.28   11.87
   3  -9   5 1109.60   41.27
  -4 -10   5  575.05   20.34
  -3 -10   5  954.30   32.58
  -2 -10   5  546.35   18.92
  -1 -10   5   31.79    1.80
   0 -10   5  237.51   10.30
   1 -10   5  565.04   21.45
 -12   0   6   53.30    3.13
 -11   0   6  372.74   16.88
 -10   0   6 2033.57   86.21
  -9   0   6 2080.64   96.58
  -8   0   6  708.40   33.54
  -7   0   6   18.59    1.62
  -6   0   6  665.90   35.67
  -5   0   6 3294.57  168.57
  -4   0   6 2511.28  131.68
  -3   0   6    7.63    1.32
  -2   0   6 2463.05  147.48
  -1   0   6 6320.95  649.89
   0   0   6 3425.86  205.07
   1   0   6   20.55    2.15
   2   0   6 2063.04  122.54
   3   0   6 2920.20  175.85
   4   0   6 2723.73  201.95
   5   0   6  552.82   44.31
   6   0   6    6.10    1.42
   7   0   6  398.16   31.28
   8   0   6  490.98   37.05
 -12  -1   6  510.30   15.82
 -11  -1   6  393.68   13.11
 -10  -1   6   10.61    0.81
  -9  -1   6  492.71   16.89
  -8  -1   6 2464.89   80.58
  -7  -1   6 3741.84  121.78
  -6  -1   6  971.96   34.32
  -5  -1   6  454.33   16.58
  -4  -1   6 2956.20  102.44
  -3  -1   6 5278.14  311.45
  -2  -1   6 3898.55  179.46
  -1  -1   6  475.45   17.35
   0  -1   6  673.58   25.70
   1  -1   6 3062.56  139.74
   2  -1   6 3298.74  137.97
   3  -1   6  245.12   11.96
   4  -1   6  268.77   14.00
   5  -1   6  789.56   38.43
   6  -1   6  608.77   33.22
   7  -1   6  135.92    8.49
   8  -1   6    5.44    1.23
 -12  -2   6    8.91    0.98
 -11  -2   6   28.97    1.69
 -10  -2   6  110.18    4.31
  -9  -2   6  570.68   19.45
  -8  -2   6  358.82   12.35
  -7  -2   6   49.95    2.20
  -6  -2   6 1184.25   39.43
  -5  -2   6  975.19   32.80
  -4  -2   6   37.61    1.64
  -3  -2   6   76.27    3.36
  -2  -2   6   42.82    2.43
  -1  -2   6  151.30    7.40
   0  -2   6  566.68   25.28
   1  -2   6  179.74    9.02
   2  -2   6  104.62    6.35
   3  -2   6  715.48   38.56
   4  -2   6  377.28   20.98
   5  -2   6   21.42    1.79
   6  -2   6   27.28    2.01
   7  -2   6   45.91    3.27
   8  -2   6   69.56    4.53
 -12  -3   6   10.20    1.16
 -11  -3   6    8.22    0.89
 -10  -3   6    1.77    0.68
  -9  -3   6   12.69    1.00
  -8  -3   6   67.13    3.02
  -7  -3   6  146.09    6.13
  -6  -3   6  101.74    4.32
  -5  -3   6    0.99    0.40
  -4  -3   6    6.43    0.61
  -3  -3   6  211.26    9.95
  -2  -3   6  280.34   13.00
  -1  -3   6   74.36    3.78
   0  -3   6   78.36    4.22
   1  -3   6  164.55    7.65
   2  -3   6  123.80    7.36
   3  -3   6   29.02    2.22
   4  -3   6  108.81    5.49
   5  -3   6   47.66    2.48
   6  -3   6   12.65    1.51
   7  -3   6    0.30    0.71
 -11  -4   6   52.57    2.67
 -10  -4   6  319.45   12.37
  -9  -4   6  778.03   29.43
  -8  -4   6  475.33   18.54
  -7  -4   6   53.58    2.57
  -6  -4   6 1035.07   39.14
  -5  -4   6 2200.69   82.24
  -4  -4   6  878.08   33.09
  -3  -4   6    9.04    0.78
  -2  -4   6  398.70   17.80
  -1  -4   6 1706.24   72.86
   0  -4   6 2343.97   99.58
   1  -4   6  280.72   12.90
   2  -4   6  367.51   18.68
   3  -4   6  942.61   50.80
   4  -4   6  590.50   25.94
   5  -4   6   28.70    1.83
   6  -4   6    5.51    0.93
   7  -4   6   38.22    2.10
 -10  -5   6  132.67    5.39
  -9  -5   6  102.65    4.41
  -8  -5   6 1468.30   54.26
  -7  -5   6 3205.93  115.92
  -6  -5   6  992.83   37.81
  -5  -5   6  308.42   12.26
  -4  -5   6 2370.07   87.13
  -3  -5   6 2990.31  126.84
  -2  -5   6 1344.16   58.15
  -1  -5   6    4.32    0.67
   0  -5   6 1282.55   55.18
   1  -5   6 3636.99  153.44
   2  -5   6 3141.24  133.63
   3  -5   6  354.05   17.30
   4  -5   6  457.64   25.79
   5  -5   6 1319.57   62.50
   6  -5   6 1173.41   45.71
 -10  -6   6  673.14   25.80
  -9  -6   6 1290.53   48.33
  -8  -6   6  309.68   12.04
  -7  -6   6  330.43   13.44
  -6  -6   6 2960.43  108.44
  -5  -6   6 3768.37  137.13
  -4  -6   6 1417.53   52.29
  -3  -6   6    4.25    0.74
  -2  -6   6  877.54   35.61
  -1  -6   6 1932.85   76.56
   0  -6   6 2050.93   80.43
   1  -6   6  610.50   25.32
   2  -6   6    9.40    0.98
   3  -6   6  830.10   33.51
   4  -6   6 1355.46   63.27
   5  -6   6  318.27   18.22
   6  -6   6   50.58    2.90
  -9  -7   6  185.16    7.86
  -8  -7   6  706.48   26.78
  -7  -7   6  625.58   23.58
  -6  -7   6   97.34    4.35
  -5  -7   6   79.11    3.80
  -4  -7   6  702.29   25.37
  -3  -7   6  898.23   31.81
  -2  -7   6  485.38   20.46
  -1  -7   6    1.48    0.52
   0  -7   6  352.54   15.20
   1  -7   6  993.49   40.57
   2  -7   6  680.98   27.72
   3  -7   6  199.87    8.95
   4  -7   6   22.50    1.60
   5  -7   6  306.24   16.88
  -7  -8   6   26.18    1.76
  -6  -8   6   65.07    3.23
  -5  -8   6    2.47    0.60
  -4  -8   6   40.79    1.97
  -3  -8   6    8.11    0.72
  -2  -8   6    3.23    0.71
  -1  -8   6   18.45    1.43
   0  -8   6   36.28    2.10
   1  -8   6   30.64    1.87
   2  -8   6   30.42    1.91
   3  -8   6  106.27    4.88
  -5  -9   6    6.07    0.82
  -4  -9   6  239.58    9.88
  -3  -9   6  466.86   17.56
  -2  -9   6  226.60    9.19
  -1  -9   6   21.21    1.82
   0  -9   6  226.11   10.41
   1  -9   6  409.28   17.34
 -11   0   7    0.15    0.71
 -10   0   7   -0.45    0.68
  -9   0   7    0.38    0.58
  -8   0   7    0.93    0.83
  -7   0   7    0.91    0.80
  -6   0   7    1.09    0.70
  -5   0   7    0.31    0.51
  -4   0   7    1.06    0.54
  -3   0   7    1.32    0.49
  -2   0   7    0.80    0.44
  -1   0   7    0.44    0.41
   0   0   7    0.84    0.40
   1   0   7    0.39    0.34
   2   0   7    0.39    0.55
   3   0   7    0.74    0.94
   4   0   7    0.67    0.99
   5   0   7    0.67    1.30
   6   0   7   -0.91    1.24
   7   0   7    0.41    1.42
 -11  -1   7   93.40    3.40
 -10  -1   7  355.88   11.76
  -9  -1   7  368.80   12.60
  -8  -1   7   86.10    3.45
  -7  -1   7  197.32    7.19
  -6  -1   7  939.01   31.79
  -5  -1   7  789.57   28.47
  -4  -1   7   66.64    2.95
  -3  -1   7  478.67   17.55
  -2  -1   7  719.23   26.10
  -1  -1   7  472.49   19.64
   0  -1   7  376.93   17.17
   1  -1   7  234.24   10.74
   2  -1   7  143.29    8.64
   3  -1   7  814.67   39.44
   4  -1   7  847.24   40.75
   5  -1   7   56.35    4.01
   6  -1   7   50.61    3.55
 -11  -2   7  598.56   20.34
 -10  -2   7    3.83    0.73
  -9  -2   7  648.42   22.33
  -8  -2   7 2269.91   74.17
  -7  -2   7 3101.76  101.42
  -6  -2   7 1359.07   45.00
  -5  -2   7  405.60   14.35
  -4  -2   7 2909.45  105.67
  -3  -2   7 3277.80  152.24
  -2  -2   7 1247.10   53.88
  -1  -2   7   55.04    3.06
   0  -2   7  371.24   17.19
   1  -2   7 1448.39   75.90
   2  -2   7 2143.58  129.53
   3  -2   7  640.47   39.87
   4  -2   7  204.51   12.00
   5  -2   7  814.14   38.47
   6  -2   7  653.46   36.08
 -11  -3   7  457.91   17.63
 -10  -3   7 1276.61   47.02
  -9  -3   7 1287.98   47.36
  -8  -3   7  214.96    8.69
  -7  -3   7  649.82   24.79
  -6  -3   7 2518.22   91.88
  -5  -3   7 2693.16   98.61
  -4  -3   7  984.65   36.87
  -3  -3   7   38.99    2.60
  -2  -3   7 1370.48   59.97
  -1  -3   7 2469.98  105.26
   0  -3   7 1785.72   77.15
   1  -3   7   82.33    4.43
   2  -3   7  842.76   45.33
   3  -3   7 1608.56   83.88
   4  -3   7  992.72   60.22
   5  -3   7  122.45    9.03
   6  -3   7   61.76    4.15
 -10  -4   7   24.67    1.53
  -9  -4   7  189.43    7.73
  -8  -4   7  617.85   23.48
  -7  -4   7  881.53   33.30
  -6  -4   7  239.63    9.90
  -5  -4   7  156.49    6.62
  -4  -4   7 1765.39   75.75
  -3  -4   7 2475.88  105.53
  -2  -4   7 1162.69   50.48
  -1  -4   7    3.17    0.87
   0  -4   7 1141.70   49.54
   1  -4   7 2117.76   89.99
   2  -4   7 1622.37   86.25
   3  -4   7  249.67   14.71
   4  -4   7   57.65    4.45
   5  -4   7  362.64   19.91
 -10  -5   7   38.26    2.28
  -9  -5   7    5.51    0.75
  -8  -5   7   23.12    1.44
  -7  -5   7   35.62    1.94
  -6  -5   7  127.85    5.87
  -5  -5   7  861.44   32.39
  -4  -5   7  521.74   23.67
  -3  -5   7    3.18    0.70
  -2  -5   7  255.58   11.96
  -1  -5   7  111.53    5.76
   0  -5   7    7.03    0.85
   1  -5   7    4.03    0.65
   2  -5   7    1.07    0.61
   3  -5   7   68.19    5.02
   4  -5   7   55.11    4.41
   5  -5   7    1.98    0.97
  -9  -6   7   42.92    2.18
  -8  -6   7  141.59    6.16
  -7  -6   7  185.47    7.60
  -6  -6   7  131.48    5.66
  -5  -6   7    8.08    0.71
  -4  -6   7  110.28    5.54
  -3  -6   7  219.63   10.20
  -2  -6   7  164.91    8.03
  -1  -6   7   10.48    0.99
   0  -6   7   50.42    2.94
   1  -6   7   85.26    4.66
   2  -6   7  133.91    6.45
   3  -6   7   40.49    2.99
   4  -6   7   12.47    1.58
  -7  -7   7   35.34    2.07
  -6  -7   7  685.52   26.45
  -5  -7   7 1795.44   66.34
  -4  -7   7  864.97   38.14
  -3  -7   7   68.65    4.40
  -2  -7   7 1129.49   49.66
  -1  -7   7  974.83   43.67
   0  -7   7  523.56   23.99
   1  -7   7   48.78    2.86
   2  -7   7  146.01    7.16
   3  -7   7  522.79   24.57
  -5  -8   7   33.55    2.05
  -4  -8   7 1635.36   70.57
  -3  -8   7 2458.25  105.95
  -2  -8   7 1271.44   55.74
  -1  -8   7   11.57    1.20
   0  -8   7  626.42   26.12
   1  -8   7 1565.20   61.36
 -10   0   8  537.86   23.20
  -9   0   8  498.17   21.83
  -8   0   8  116.26    6.37
  -7   0   8  390.19   19.67
  -6   0   8 3934.23  179.62
  -5   0   8 4377.90  200.58
  -4   0   8 1243.37   58.92
  -3   0   8  605.09   30.28
  -2   0   8 3584.05  167.43
  -1   0   8 3388.14  157.91
   0   0   8 1450.93   69.12
   1   0   8  113.14    7.66
   2   0   8  501.39   39.60
   3   0   8 1460.39  109.13
   4   0   8  728.07   56.56
   5   0   8   66.60    6.84
 -10  -1   8    8.84    1.00
  -9  -1   8  292.88    9.82
  -8  -1   8  955.10   30.49
  -7  -1   8 1103.26   37.23
  -6  -1   8  712.68   24.37
  -5  -1   8    7.72    0.72
  -4  -1   8 1390.25   46.83
  -3  -1   8 2145.29   70.60
  -2  -1   8  787.47   34.82
  -1  -1   8   42.36    2.84
   0  -1   8 1044.03   42.10
   1  -1   8 1361.14   84.92
   2  -1   8  594.49   38.68
   3  -1   8   31.92    2.50
   4  -1   8  158.09   11.24
   5  -1   8  333.41   18.43
 -10  -2   8  467.94   15.22
  -9  -2   8  156.34    5.93
  -8  -2   8   16.49    1.23
  -7  -2   8  239.09    8.88
  -6  -2   8  295.25   10.28
  -5  -2   8  406.94   15.90
  -4  -2   8  347.08   13.80
  -3  -2   8   17.07    1.37
  -2  -2   8  320.61   15.24
  -1  -2   8  575.87   26.06
   0  -2   8  169.96    8.53
   1  -2   8    0.83    0.66
   2  -2   8   76.64    7.55
   3  -2   8   97.92    7.78
   4  -2   8   74.05    5.67
 -10  -3   8    1.17    0.84
  -9  -3   8    5.97    0.99
  -8  -3   8   30.27    1.84
  -7  -3   8  103.15    4.56
  -6  -3   8  276.42   11.23
  -5  -3   8   87.49    4.02
  -4  -3   8   49.04    3.06
  -3  -3   8  189.39    9.15
  -2  -3   8  151.00    7.80
  -1  -3   8    1.59    0.63
   0  -3   8   11.67    1.09
   1  -3   8   10.39    1.36
   2  -3   8    9.52    1.39
   3  -3   8    4.24    0.89
   4  -3   8   16.18    2.37
  -9  -4   8  235.74    9.70
  -8  -4   8   27.94    1.61
  -7  -4   8   68.65    3.31
  -6  -4   8  687.06   26.33
  -5  -4   8 1038.55   45.22
  -4  -4   8  590.80   26.98
  -3  -4   8  109.58    5.86
  -2  -4   8 1648.01   71.15
  -1  -4   8 1651.64   71.92
   0  -4   8  335.64   15.76
   1  -4   8   10.21    1.53
   2  -4   8  393.37   22.26
   3  -4   8  597.26   31.83
  -8  -5   8 1085.36   40.13
  -7  -5   8  937.10   35.16
  -6  -5   8  295.91   11.80
  -5  -5   8  135.94    6.93
  -4  -5   8 1828.87   78.20
  -3  -5   8 2739.83  117.64
  -2  -5   8 1300.41   56.85
  -1  -5   8    7.22    1.02
   0  -5   8  785.05   35.03
   1  -5   8 1480.51   78.20
   2  -5   8  938.99   51.23
   3  -5   8  151.38    9.01
  -7  -6   8  423.46   16.72
  -6  -6   8 1467.54   63.78
  -5  -6   8 1502.53   64.22
  -4  -6   8  371.74   16.98
  -3  -6   8   61.99    3.70
  -2  -6   8 1092.68   47.47
  -1  -6   8 1460.66   64.31
   0  -6   8  719.60   31.69
   1  -6   8    2.87    0.82
  -4  -7   8  720.03   32.34
  -3  -7   8  727.12   32.54
  -2  -7   8  154.96    7.71
  -1  -7   8    0.46    0.88
  -9   0   9    1.00    1.45
  -8   0   9   -0.01    0.80
  -7   0   9   -0.10    0.97
  -6   0   9   -0.32    0.79
  -5   0   9   -0.36    0.91
  -4   0   9    0.56    0.78
  -3   0   9    1.47    0.83
  -2   0   9    1.11    0.69
  -1   0   9    0.22    1.20
  -8  -1   9   39.03    1.82
  -7  -1   9  436.98   14.11
  -6  -1   9  617.92   20.06
  -5  -1   9  345.51   11.26
  -4  -1   9  124.18    4.39
  -3  -1   9    1.56    0.61
  -2  -1   9  474.77   20.36
  -1  -1   9  957.47   39.62
   0  -1   9  594.22   38.31
   1  -1   9    0.48    0.66
   2  -1   9  139.91   10.35
  -8  -2   9 1292.46   47.57
  -7  -2   9  642.57   24.62
  -6  -2   9    8.81    0.91
  -5  -2   9  146.52    7.58
  -4  -2   9  794.73   35.37
  -3  -2   9  873.38   38.87
  -2  -2   9  385.58   18.06
  -1  -2   9   13.05    1.52
   0  -2   9  755.93   38.16
   1  -2   9 1213.60   74.63
   2  -2   9  301.13   19.54
  -8  -3   9    1.03    0.80
  -7  -3   9  453.33   17.78
  -6  -3   9 1603.06   69.13
  -5  -3   9 1792.91   76.66
  -4  -3   9  555.81   25.50
  -3  -3   9  126.80    8.90
  -2  -3   9 1958.97   86.64
  -1  -3   9 2018.96   87.03
   0  -3   9  631.62   35.64
   1  -3   9    3.47    1.01
  -7  -4   9  462.40   21.14
  -6  -4   9   78.07    4.18
  -5  -4   9  213.79   10.41
  -4  -4   9 1109.39   48.74
  -3  -4   9 1358.46   58.77
  -2  -4   9  330.93   16.07
  -1  -4   9   16.06    2.11
   0  -4   9  509.01   28.78
  -5  -5   9   57.69    3.54
  -4  -5   9    1.20    0.88
  -3  -5   9   16.37    1.61
  -2  -5   9   43.74    3.01
  -1  -5   9  150.47    7.46
  -5   0  10  830.91   36.88
  -4   0  10  175.81    9.36
  -3   0  10   19.15    1.60
  -2   0  10  691.57   55.89
  -5  -1  10  267.06   13.35
  -4  -1  10  833.96   36.31
  -3  -1  10  780.01   34.30
  -2  -1  10  175.62    8.17
   0   0   0    0.00    0.00
;
_shelx_hkl_checksum              8829
loop_
_space_group_symop_operation_xyz
'x, y, z'
'-x, y+1/2, -z+1/2'
'-x, -y, -z'
'x, -y-1/2, z-1/2'
loop_
_atom_site_label
_atom_site_type_symbol
_atom_site_fract_x
_atom_site_fract_y
_atom_site_fract_z
_atom_site_U_iso_or_equiv
_atom_site_adp_type
_atom_site_occupancy
_atom_site_site_symmetry_order
_atom_site_calc_flag
_atom_site_refinement_flags_posn
_atom_site_refinement_flags_adp
Cd1 Cd 0.88698(3) 0.34153(3) 0.48498(4) 0.0146(2) Uani 1 1 d . .
O1 O 0.8344(4) 0.3907(4) 0.9742(5) 0.0267(8) Uani 1 1 d . .
O3 O 0.9386(4) 0.7740(4) 0.7696(5) 0.0231(8) Uani 1 1 d . .
O1W O 0.7712(3) 0.4909(4) 0.2715(4) 0.0178(7) Uani 1 1 d D .
O2 O 0.7719(5) 0.3423(4) 0.6913(6) 0.0254(9) Uani 1 1 d . .
O4 O 0.9420(3) 0.5748(3) 0.6156(4) 0.0138(6) Uani 1 1 d . .
C1 C 0.7955(5) 0.4293(5) 0.8154(6) 0.0179(9) Uani 1 1 d . .
C2 C 0.7834(6) 0.5931(5) 0.7863(8) 0.0260(11) Uani 1 1 d . .
H2 H 0.7870 0.6400 0.9015 0.031 Uiso 1 1 calc R U
C3 C 0.8967(5) 0.6506(4) 0.7197(6) 0.0143(9) Uani 1 1 d . .
C4 C 0.6565(6) 0.6356(7) 0.6601(10) 0.0363(14) Uani 1 1 d . .
H4A H 0.6501 0.5877 0.5462 0.044 Uiso 1 1 calc R U
H4B H 0.6560 0.7412 0.6411 0.044 Uiso 1 1 calc R U
C5 C 0.5353(7) 0.5931(9) 0.7284(16) 0.064(3) Uani 1 1 d . .
H5A H 0.4546 0.6226 0.6429 0.096 Uiso 1 1 calc R U
H5B H 0.5406 0.6416 0.8403 0.096 Uiso 1 1 calc R U
H5C H 0.5345 0.4883 0.7451 0.096 Uiso 1 1 calc R U
H1WA H 0.823(7) 0.570(6) 0.281(11) 0.05(2) Uiso 1 1 d D .
H1WB H 0.785(10) 0.454(11) 0.173(8) 0.07(3) Uiso 1 1 d D .
loop_
_atom_site_aniso_label
_atom_site_aniso_U_11
_atom_site_aniso_U_22
_atom_site_aniso_U_33
_atom_site_aniso_U_23
_atom_site_aniso_U_13
_atom_site_aniso_U_12
Cd1 0.0240(3) 0.0070(3) 0.0155(3) 0.00048(9) 0.00976(17) -0.00218(9)
O1 0.046(2) 0.0158(18) 0.0232(19) 0.0041(14) 0.0177(16) 0.0063(16)
O3 0.0311(19) 0.0112(16) 0.0233(18) -0.0055(13) 0.0001(14) 0.0033(13)
O1W 0.0229(16) 0.0125(15) 0.0188(16) -0.0008(13) 0.0067(13) 0.0004(13)
O2 0.040(2) 0.019(2) 0.027(2) -0.0049(13) 0.0259(18) -0.0086(14)
O4 0.0231(15) 0.0066(13) 0.0152(15) -0.0003(11) 0.0111(12) -0.0008(11)
C1 0.028(2) 0.011(2) 0.021(2) 0.0029(17) 0.0174(19) 0.0026(17)
C2 0.036(3) 0.014(2) 0.036(3) 0.007(2) 0.023(2) 0.006(2)
C3 0.022(2) 0.010(2) 0.013(2) 0.0028(14) 0.0059(17) 0.0057(15)
C4 0.031(3) 0.025(3) 0.052(4) 0.001(3) 0.009(3) 0.002(2)
C5 0.027(3) 0.044(5) 0.124(9) -0.015(5) 0.023(4) -0.007(3)
loop_
_atom_type_symbol
_atom_type_description
_atom_type_scat_dispersion_real
_atom_type_scat_dispersion_imag
_atom_type_scat_source
C C 0.0033 0.0016 'International Tables Vol C Tables 4.2.6.8 and 6.1.1.4'
H H 0.0000 0.0000 'International Tables Vol C Tables 4.2.6.8 and 6.1.1.4'
O O 0.0106 0.0060 'International Tables Vol C Tables 4.2.6.8 and 6.1.1.4'
Cd Cd -0.7093 1.2919 'International Tables Vol C Tables 4.2.6.8 and 6.1.1.4'
loop_
_geom_angle_atom_site_label_1
_geom_angle_atom_site_label_2
_geom_angle_atom_site_label_3
_geom_angle
_geom_angle_site_symmetry_1
_geom_angle_site_symmetry_3
O1 Cd1 O2 81.76(13) 4_565 .
O1 Cd1 O1W 118.65(14) 4_565 .
O2 Cd1 O1W 104.32(15) . .
O1 Cd1 O4 121.86(13) 4_565 3_766
O2 Cd1 O4 149.76(13) . 3_766
O1W Cd1 O4 81.74(12) . 3_766
O1 Cd1 O3 84.82(14) 4_565 2_746
O2 Cd1 O3 81.86(16) . 2_746
O1W Cd1 O3 156.17(12) . 2_746
O4 Cd1 O3 81.95(12) 3_766 2_746
O1 Cd1 O4 156.96(12) 4_565 .
O2 Cd1 O4 78.64(11) . .
O1W Cd1 O4 78.26(12) . .
O4 Cd1 O4 73.62(12) 3_766 .
O3 Cd1 O4 80.54(12) 2_746 .
C1 O1 Cd1 109.0(3) . 4_566
C3 O3 Cd1 129.1(3) . 2_756
C1 O2 Cd1 122.1(3) . .
C3 O4 Cd1 120.0(3) . 3_766
C3 O4 Cd1 133.6(3) . .
Cd1 O4 Cd1 106.38(12) 3_766 .
O2 C1 O1 123.1(5) . .
O2 C1 C2 122.0(5) . .
O1 C1 C2 114.8(4) . .
C4 C2 C3 108.8(5) . .
C4 C2 C1 112.6(5) . .
C3 C2 C1 110.8(4) . .
O3 C3 O4 123.5(5) . .
O3 C3 C2 117.1(4) . .
O4 C3 C2 119.4(4) . .
C2 C4 C5 111.9(7) . .
loop_
_geom_bond_atom_site_label_1
_geom_bond_atom_site_label_2
_geom_bond_distance
_geom_bond_site_symmetry_2
Cd1 O1 2.218(4) 4_565
Cd1 O2 2.264(4) .
Cd1 O1W 2.279(3) .
Cd1 O4 2.279(3) 3_766
Cd1 O3 2.389(4) 2_746
Cd1 O4 2.401(3) .
O1 C1 1.268(6) .
O1 Cd1 2.218(4) 4_566
O3 C3 1.253(6) .
O3 Cd1 2.389(4) 2_756
O2 C1 1.244(6) .
O4 C3 1.263(6) .
O4 Cd1 2.279(3) 3_766
C1 C2 1.535(6) .
C2 C4 1.501(9) .
C2 C3 1.517(7) .
C4 C5 1.556(11) .
loop_
_geom_hbond_atom_site_label_D
_geom_hbond_atom_site_label_H
_geom_hbond_atom_site_label_A
_geom_hbond_distance_DH
_geom_hbond_distance_HA
_geom_hbond_distance_DA
_geom_hbond_angle_DHA
_geom_hbond_site_symmetry_A
O1W H1WA O3 0.90(2) 1.91(2) 2.803(5) 171(8) 4_575
O1W H1WB O1 0.90(2) 1.87(2) 2.758(5) 173(10) 1_554
