#------------------------------------------------------------------------------
#$Date: 2019-11-25 01:20:18 +0200 (Mon, 25 Nov 2019) $
#$Revision: 239853 $
#$URL: file:///home/coder/svn-repositories/cod/cif/4/35/03/4350350.cif $
#------------------------------------------------------------------------------
#
# This file is available in the Crystallography Open Database (COD),
# http://www.crystallography.net/
#
# All data on this site have been placed in the public domain by the
# contributors.
#
data_4350350
loop_
_publ_author_name
'Arroyo, Marta'
'Miguel, Daniel'
'Villafa\~ne, Fernando'
'Nieto, Sonia'
'P\'erez, Julio'
'Riera, Luc\'ia'
_publ_section_title
;
 Rhenium-mediated coupling of acetonitrile and pyrazoles. New molecular
 clefts for anion binding.
;
_journal_issue                   17
_journal_name_full               'Inorganic chemistry'
_journal_page_first              7018
_journal_page_last               7026
_journal_paper_doi               10.1021/ic0607078
_journal_volume                  45
_journal_year                    2006
_chemical_formula_sum            'C10 H11 Br N3 O3 Re'
_chemical_formula_weight         487.33
_space_group_IT_number           2
_space_group_name_Hall           '-P 1'
_space_group_name_H-M_alt        'P -1'
_symmetry_cell_setting           triclinic
_symmetry_space_group_name_H-M   'P -1'
_atom_sites_solution_hydrogens   geom
_atom_sites_solution_primary     direct
_atom_sites_solution_secondary   difmap
_audit_creation_method           SHELXL-97
_cell_angle_alpha                103.747(10)
_cell_angle_beta                 109.936(9)
_cell_angle_gamma                101.172(9)
_cell_formula_units_Z            2
_cell_length_a                   7.691(4)
_cell_length_b                   9.301(5)
_cell_length_c                   10.775(6)
_cell_measurement_temperature    296(2)
_cell_volume                     671.2(6)
_computing_cell_refinement       'Bruker SMART'
_computing_data_collection       'Bruker SMART'
_computing_data_reduction        'Bruker SHELXTL'
_computing_molecular_graphics    'Bruker SHELXTL'
_computing_publication_material  'Bruker SHELXTL'
_computing_structure_refinement  'SHELXL-97 (Sheldrick, 1997)'
_computing_structure_solution    'SHELXS-97 (Sheldrick, 1990)'
_diffrn_ambient_temperature      296(2)
_diffrn_measured_fraction_theta_full 0.987
_diffrn_measured_fraction_theta_max 0.987
_diffrn_measurement_device_type  'CCD area detector'
_diffrn_measurement_method       'phi and omega scans'
_diffrn_radiation_monochromator  graphite
_diffrn_radiation_source         'fine-focus sealed tube'
_diffrn_radiation_type           MoK\a
_diffrn_radiation_wavelength     0.71073
_diffrn_reflns_av_R_equivalents  0.0206
_diffrn_reflns_av_sigmaI/netI    0.0219
_diffrn_reflns_limit_h_max       8
_diffrn_reflns_limit_h_min       -7
_diffrn_reflns_limit_k_max       10
_diffrn_reflns_limit_k_min       -10
_diffrn_reflns_limit_l_max       7
_diffrn_reflns_limit_l_min       -11
_diffrn_reflns_number            3035
_diffrn_reflns_theta_full        23.36
_diffrn_reflns_theta_max         23.36
_diffrn_reflns_theta_min         2.13
_exptl_absorpt_coefficient_mu    12.033
_exptl_absorpt_correction_T_max  1.000000
_exptl_absorpt_correction_T_min  0.366303
_exptl_absorpt_correction_type   multi-scan
_exptl_absorpt_process_details   SADABS
_exptl_crystal_colour            PALE_YELLOW
_exptl_crystal_density_diffrn    2.412
_exptl_crystal_density_method    'not measured'
_exptl_crystal_description       PRISM
_exptl_crystal_F_000             452
_exptl_crystal_size_max          0.33
_exptl_crystal_size_mid          0.13
_exptl_crystal_size_min          0.10
_refine_diff_density_max         1.752
_refine_diff_density_min         -1.511
_refine_diff_density_rms         0.230
_refine_ls_extinction_coef       0.0013(6)
_refine_ls_extinction_expression Fc^*^=kFc[1+0.001xFc^2^\l^3^/sin(2\q)]^-1/4^
_refine_ls_extinction_method     SHELXL
_refine_ls_goodness_of_fit_ref   1.003
_refine_ls_hydrogen_treatment    mixed
_refine_ls_matrix_type           full
_refine_ls_number_parameters     167
_refine_ls_number_reflns         1934
_refine_ls_number_restraints     0
_refine_ls_restrained_S_all      1.003
_refine_ls_R_factor_all          0.0340
_refine_ls_R_factor_gt           0.0321
_refine_ls_shift/su_max          0.000
_refine_ls_shift/su_mean         0.000
_refine_ls_structure_factor_coef Fsqd
_refine_ls_weighting_details
'calc w=1/[\s^2^(Fo^2^)+(0.0739P)^2^+0.4744P] where P=(Fo^2^+2Fc^2^)/3'
_refine_ls_weighting_scheme      calc
_refine_ls_wR_factor_gt          0.0870
_refine_ls_wR_factor_ref         0.0882
_reflns_number_gt                1804
_reflns_number_total             1934
_reflns_threshold_expression     >2sigma(I)
_cod_data_source_file            ic0607078si20060426_072212.cif
_cod_data_source_block           Compound_5_ma189bm
_cod_depositor_comments
;
The following automatic conversions were performed:

data item '_symmetry_cell_setting' value 'Triclinic' was changed to
'triclinic' in accordance with the
/home/saulius/struct/COD-crude-data/automatic-downloads/DataCite-retrospective/ACS/depositions/lib/dictionaries/cif_core.dic
dictionary named 'cif_core.dic' version 2.4.2 last updated on
2011-04-26.

Automatic conversion script
Id: cif_fix_values 6909 2019-04-08 15:41:33Z antanas 
;
_cod_original_cell_volume        671.1(6)
_cod_original_sg_symbol_H-M      P-1
_cod_database_code               4350350
loop_
_symmetry_equiv_pos_as_xyz
'x, y, z'
'-x, -y, -z'
loop_
_atom_site_label
_atom_site_type_symbol
_atom_site_fract_x
_atom_site_fract_y
_atom_site_fract_z
_atom_site_U_iso_or_equiv
_atom_site_adp_type
_atom_site_occupancy
_atom_site_symmetry_multiplicity
_atom_site_calc_flag
_atom_site_refinement_flags
Re1 Re 0.46527(4) 0.20976(3) 0.33944(3) 0.0311(2) Uani 1 1 d .
Br1 Br 0.18624(12) 0.34187(10) 0.27507(8) 0.0417(3) Uani 1 1 d .
C1 C 0.6710(14) 0.1136(9) 0.3812(8) 0.044(2) Uani 1 1 d .
O1 O 0.7878(10) 0.0597(8) 0.4041(7) 0.0564(17) Uani 1 1 d .
C2 C 0.2775(12) 0.0071(10) 0.2757(9) 0.0404(19) Uani 1 1 d .
O2 O 0.1682(10) -0.1101(8) 0.2403(8) 0.071(2) Uani 1 1 d .
C3 C 0.4736(12) 0.2337(9) 0.5217(9) 0.0397(19) Uani 1 1 d .
O3 O 0.4846(11) 0.2496(8) 0.6329(7) 0.0592(17) Uani 1 1 d .
N1 N 0.4814(9) 0.2317(8) 0.1466(7) 0.0331(14) Uani 1 1 d .
N2 N 0.6279(9) 0.3605(7) 0.1654(6) 0.0336(14) Uani 1 1 d .
N3 N 0.6670(9) 0.4294(7) 0.3901(7) 0.0339(14) Uani 1 1 d .
H3 H 0.7135 0.4937 0.4738 0.041 Uiso 1 1 calc R
C4 C 0.7208(11) 0.4683(9) 0.3002(8) 0.0389(19) Uani 1 1 d .
C5 C 0.8692(13) 0.6144(10) 0.3304(10) 0.053(2) Uani 1 1 d .
H5A H 0.9179 0.6743 0.4276 0.080 Uiso 1 1 calc R
H5B H 0.8120 0.6729 0.2744 0.080 Uiso 1 1 calc R
H5C H 0.9738 0.5907 0.3089 0.080 Uiso 1 1 calc R
C11 C 0.3981(11) 0.1566(9) 0.0116(8) 0.0340(18) Uani 1 1 d .
C12 C 0.4845(12) 0.2298(9) -0.0595(8) 0.0403(19) Uani 1 1 d .
H12 H 0.4510 0.1969 -0.1553 0.048 Uiso 1 1 calc R
C13 C 0.6285(11) 0.3594(10) 0.0375(9) 0.042(2) Uani 1 1 d .
C14 C 0.2265(12) 0.0147(10) -0.0499(9) 0.048(2) Uani 1 1 d .
H14A H 0.2549 -0.0574 -0.0009 0.072 Uiso 1 1 calc R
H14B H 0.1979 -0.0327 -0.1469 0.072 Uiso 1 1 calc R
H14C H 0.1166 0.0432 -0.0413 0.072 Uiso 1 1 calc R
C15 C 0.7747(13) 0.4721(12) 0.0174(10) 0.060(3) Uani 1 1 d .
H15A H 0.7522 0.4429 -0.0797 0.090 Uiso 1 1 calc R
H15B H 0.9026 0.4716 0.0717 0.090 Uiso 1 1 calc R
H15C H 0.7632 0.5743 0.0472 0.090 Uiso 1 1 calc R
loop_
_atom_site_aniso_label
_atom_site_aniso_U_11
_atom_site_aniso_U_22
_atom_site_aniso_U_33
_atom_site_aniso_U_23
_atom_site_aniso_U_13
_atom_site_aniso_U_12
Re1 0.0373(3) 0.0345(3) 0.0228(3) 0.01037(15) 0.01272(16) 0.01121(16)
Br1 0.0457(5) 0.0469(5) 0.0322(5) 0.0105(4) 0.0136(4) 0.0210(4)
C1 0.062(6) 0.027(4) 0.028(4) 0.005(3) 0.011(4) -0.003(4)
O1 0.047(4) 0.052(4) 0.066(5) 0.021(3) 0.011(3) 0.026(3)
C2 0.042(4) 0.040(5) 0.043(5) 0.017(4) 0.017(4) 0.016(4)
O2 0.056(4) 0.046(4) 0.092(6) 0.026(4) 0.017(4) -0.003(3)
C3 0.051(5) 0.045(5) 0.033(5) 0.020(4) 0.019(4) 0.021(4)
O3 0.090(5) 0.065(4) 0.034(4) 0.025(3) 0.031(3) 0.026(4)
N1 0.033(3) 0.035(3) 0.031(4) 0.010(3) 0.014(3) 0.008(3)
N2 0.036(3) 0.043(4) 0.028(3) 0.017(3) 0.016(3) 0.014(3)
N3 0.037(3) 0.033(3) 0.027(3) 0.007(3) 0.011(3) 0.008(3)
C4 0.036(4) 0.037(4) 0.038(5) 0.012(4) 0.010(4) 0.010(3)
C5 0.045(5) 0.047(5) 0.065(6) 0.020(5) 0.024(5) 0.006(4)
C11 0.033(4) 0.049(5) 0.024(4) 0.008(4) 0.012(3) 0.025(4)
C12 0.052(5) 0.056(5) 0.024(4) 0.018(4) 0.018(4) 0.027(4)
C13 0.036(4) 0.054(5) 0.054(6) 0.027(4) 0.030(4) 0.024(4)
C14 0.037(4) 0.059(5) 0.036(5) 0.004(4) 0.010(4) 0.013(4)
C15 0.052(5) 0.086(7) 0.068(7) 0.049(6) 0.037(5) 0.024(5)
loop_
_atom_type_symbol
_atom_type_description
_atom_type_scat_dispersion_real
_atom_type_scat_dispersion_imag
_atom_type_scat_source
C C 0.0033 0.0016 'International Tables Vol C Tables 4.2.6.8 and 6.1.1.4'
H H 0.0000 0.0000 'International Tables Vol C Tables 4.2.6.8 and 6.1.1.4'
N N 0.0061 0.0033 'International Tables Vol C Tables 4.2.6.8 and 6.1.1.4'
O O 0.0106 0.0060 'International Tables Vol C Tables 4.2.6.8 and 6.1.1.4'
Br Br -0.2901 2.4595 'International Tables Vol C Tables 4.2.6.8 and 6.1.1.4'
Re Re -1.0185 7.2310 'International Tables Vol C Tables 4.2.6.8 and 6.1.1.4'
loop_
_geom_angle_atom_site_label_1
_geom_angle_atom_site_label_2
_geom_angle_atom_site_label_3
_geom_angle
C3 Re1 C1 89.2(3)
C3 Re1 C2 88.1(4)
C1 Re1 C2 89.0(3)
C3 Re1 N3 97.1(3)
C1 Re1 N3 91.6(3)
C2 Re1 N3 174.8(3)
C3 Re1 N1 168.7(3)
C1 Re1 N1 94.4(3)
C2 Re1 N1 102.7(3)
N3 Re1 N1 72.1(2)
C3 Re1 Br1 92.6(2)
C1 Re1 Br1 178.1(2)
C2 Re1 Br1 91.5(2)
N3 Re1 Br1 87.71(18)
N1 Re1 Br1 83.72(17)
O1 C1 Re1 179.4(8)
O2 C2 Re1 179.1(8)
O3 C3 Re1 177.9(8)
C11 N1 N2 105.9(6)
C11 N1 Re1 139.6(6)
N2 N1 Re1 114.5(5)
C13 N2 C4 134.3(7)
C13 N2 N1 109.3(7)
C4 N2 N1 115.8(6)
C4 N3 Re1 122.0(5)
N3 C4 N2 114.7(7)
N3 C4 C5 124.8(8)
N2 C4 C5 120.6(7)
N1 C11 C12 111.2(7)
N1 C11 C14 121.4(7)
C12 C11 C14 127.3(7)
C13 C12 C11 107.2(7)
C12 C13 N2 106.4(7)
C12 C13 C15 128.8(8)
N2 C13 C15 124.6(8)
loop_
_geom_bond_atom_site_label_1
_geom_bond_atom_site_label_2
_geom_bond_distance
Re1 C3 1.900(8)
Re1 C1 1.939(10)
Re1 C2 1.940(9)
Re1 N3 2.131(6)
Re1 N1 2.178(6)
Re1 Br1 2.6472(13)
C1 O1 1.096(11)
C2 O2 1.126(10)
C3 O3 1.143(10)
N1 C11 1.312(10)
N1 N2 1.397(10)
N2 C13 1.378(10)
N2 C4 1.396(10)
N3 C4 1.274(10)
C4 C5 1.479(12)
C11 C12 1.382(11)
C11 C14 1.495(12)
C12 C13 1.366(12)
C13 C15 1.492(11)
