#------------------------------------------------------------------------------
#$Date: 2016-03-24 01:31:19 +0200 (Thu, 24 Mar 2016) $
#$Revision: 179533 $
#$URL: svn://www.crystallography.net/cod/cif/4/50/02/4500231.cif $
#------------------------------------------------------------------------------
#
# This file is available in the Crystallography Open Database (COD),
# http://www.crystallography.net/
#
# All data on this site have been placed in the public domain by the
# contributors.
#
data_4500231
loop_
_publ_author_name
'Singh, Amit'
'Ramanan, Arunachalam'
'Bandyopadhyay, Debkumar'
_publ_section_title
;
 Link between Isostructurality, Polymorphism, and Weak Interactions in
 Palladacycle Crystals: Chemical Insight
;
_journal_issue                   7
_journal_name_full               'Crystal Growth &amp; Design'
_journal_page_first              2743
_journal_paper_doi               10.1021/cg101289s
_journal_volume                  11
_journal_year                    2011
_chemical_formula_moiety         'C13 H10 Br Cl N2 Pd S'
_chemical_formula_sum            'C13 H10 Br Cl N2 Pd S'
_chemical_formula_weight         448.05
_chemical_name_systematic
; 
 ? 
;
_space_group_IT_number           2
_symmetry_cell_setting           triclinic
_symmetry_space_group_name_Hall  '-P 1'
_symmetry_space_group_name_H-M   'P -1'
_atom_sites_solution_hydrogens   geom
_atom_sites_solution_primary     direct
_atom_sites_solution_secondary   difmap
_audit_creation_method           SHELXL-97
_cell_angle_alpha                106.434(2)
_cell_angle_beta                 93.494(3)
_cell_angle_gamma                96.418(2)
_cell_formula_units_Z            2
_cell_length_a                   7.4604(9)
_cell_length_b                   8.9195(10)
_cell_length_c                   11.2089(13)
_cell_measurement_reflns_used    7504
_cell_measurement_temperature    298(2)
_cell_measurement_theta_max      28.29
_cell_measurement_theta_min      2.40
_cell_volume                     707.56(14)
_computing_cell_refinement       'Bruker SMART'
_computing_data_collection       'Bruker SMART'
_computing_data_reduction        'Bruker SAINT'
_computing_molecular_graphics    'Bruker SHELXTL'
_computing_publication_material  'Bruker SHELXTL'
_computing_structure_refinement  'SHELXL-97 (Sheldrick, 1997)'
_computing_structure_solution    'SHELXS-97 (Sheldrick, 1990)'
_diffrn_ambient_temperature      298(2)
_diffrn_measured_fraction_theta_full 0.995
_diffrn_measured_fraction_theta_max 0.995
_diffrn_measurement_device_type  'CCD area detector'
_diffrn_measurement_method       'phi and omega scans'
_diffrn_radiation_monochromator  graphite
_diffrn_radiation_source         'fine-focus sealed tube'
_diffrn_radiation_type           MoK\a
_diffrn_radiation_wavelength     0.71073
_diffrn_reflns_av_R_equivalents  0.0300
_diffrn_reflns_av_sigmaI/netI    0.0342
_diffrn_reflns_limit_h_max       8
_diffrn_reflns_limit_h_min       -8
_diffrn_reflns_limit_k_max       10
_diffrn_reflns_limit_k_min       -10
_diffrn_reflns_limit_l_max       13
_diffrn_reflns_limit_l_min       -13
_diffrn_reflns_number            5850
_diffrn_reflns_theta_full        25.00
_diffrn_reflns_theta_max         25.00
_diffrn_reflns_theta_min         1.90
_exptl_absorpt_coefficient_mu    4.456
_exptl_absorpt_correction_T_max  0.583
_exptl_absorpt_correction_T_min  0.316
_exptl_absorpt_correction_type   multi-scan
_exptl_absorpt_process_details   SADABS
_exptl_crystal_colour            Red
_exptl_crystal_density_diffrn    2.106
_exptl_crystal_density_meas      2.103
_exptl_crystal_density_method    'not measured'
_exptl_crystal_description       Block
_exptl_crystal_F_000             432.0
_exptl_crystal_size_max          0.25
_exptl_crystal_size_mid          0.18
_exptl_crystal_size_min          0.13
_refine_diff_density_max         0.521
_refine_diff_density_min         -0.788
_refine_diff_density_rms         0.117
_refine_ls_extinction_coef       0.0187(13)
_refine_ls_extinction_expression Fc^*^=kFc[1+0.001xFc^2^\l^3^/sin(2\q)]^-1/4^
_refine_ls_extinction_method     SHELXL
_refine_ls_goodness_of_fit_ref   1.212
_refine_ls_hydrogen_treatment    constr
_refine_ls_matrix_type           full
_refine_ls_number_parameters     174
_refine_ls_number_reflns         2380
_refine_ls_number_restraints     0
_refine_ls_restrained_S_all      1.212
_refine_ls_R_factor_all          0.0348
_refine_ls_R_factor_gt           0.0344
_refine_ls_shift/su_max          0.000
_refine_ls_shift/su_mean         0.000
_refine_ls_structure_factor_coef Fsqd
_refine_ls_weighting_details
'calc w=1/[\s^2^(Fo^2^)+(0.0299P)^2^+1.3862P] where P=(Fo^2^+2Fc^2^)/3'
_refine_ls_weighting_scheme      calc
_refine_ls_wR_factor_gt          0.0896
_refine_ls_wR_factor_ref         0.0899
_reflns_number_gt                2344
_reflns_number_total             2380
_reflns_threshold_expression     >2sigma(I)
_cod_data_source_file            cg101289s_si_002.cif
_cod_data_source_block           2b
_cod_depositor_comments
;
The following automatic conversions were performed:

'_symmetry_cell_setting' value 'Triclinic' changed to 'triclinic'
according to /home/saulius/struct/CIF-dictionaries/cif_core.dic
dictionary named 'cif_core.dic' version 2.4.1 from 2010-06-29.

Automatic conversion script
Id: cif_fix_values 1715 2011-07-08 13:25:40Z adriana 
;
_cod_original_sg_symbol_H-M      P-1
_cod_database_code               4500231
loop_
_symmetry_equiv_pos_as_xyz
'x, y, z'
'-x, -y, -z'
loop_
_atom_site_label
_atom_site_type_symbol
_atom_site_fract_x
_atom_site_fract_y
_atom_site_fract_z
_atom_site_U_iso_or_equiv
_atom_site_adp_type
_atom_site_occupancy
_atom_site_symmetry_multiplicity
_atom_site_calc_flag
_atom_site_refinement_flags
C4 C 0.1902(6) 1.1232(6) 0.6364(5) 0.0380(11) Uani 1 1 d .
Pd1 Pd 0.28449(5) 0.81974(4) 0.59676(3) 0.03387(17) Uani 1 1 d .
Br1 Br 0.30784(9) 0.68641(7) 0.75491(5) 0.0569(2) Uani 1 1 d .
S1 S 0.39188(17) 0.63054(15) 0.43206(11) 0.0400(3) Uani 1 1 d .
N2 N 0.2683(5) 0.9445(4) 0.4761(4) 0.0338(8) Uani 1 1 d .
C12 C 0.3581(6) 0.7311(6) 0.3173(5) 0.0389(11) Uani 1 1 d .
N1 N 0.2246(5) 1.0830(5) 0.5112(4) 0.0394(9) Uani 1 1 d .
C1 C 0.1319(7) 1.2091(6) 0.8822(5) 0.0435(12) Uani 1 1 d .
C5 C 0.2059(6) 1.0146(5) 0.7039(4) 0.0358(10) Uani 1 1 d .
C6 C 0.1753(7) 1.0583(6) 0.8289(5) 0.0411(11) Uani 1 1 d .
H6 H 0.1837 0.9884 0.8763 0.049 Uiso 1 1 calc R
C7 C 0.3068(6) 0.8828(6) 0.3520(5) 0.0370(10) Uani 1 1 d .
C13 C 0.2285(9) 0.4551(7) 0.3742(6) 0.0576(15) Uani 1 1 d .
H13A H 0.1113 0.4842 0.3585 0.086 Uiso 1 1 calc R
H13B H 0.2235 0.3983 0.4352 0.086 Uiso 1 1 calc R
H13C H 0.2639 0.3893 0.2980 0.086 Uiso 1 1 calc R
C10 C 0.3796(8) 0.7451(8) 0.1095(5) 0.0562(15) Uani 1 1 d .
H10 H 0.4009 0.6986 0.0272 0.067 Uiso 1 1 calc R
Cl1 Cl 0.0937(2) 1.26230(19) 1.03931(14) 0.0670(4) Uani 1 1 d .
C8 C 0.2943(7) 0.9659(7) 0.2646(5) 0.0439(12) Uani 1 1 d .
H8 H 0.2613 1.0670 0.2870 0.053 Uiso 1 1 calc R
C3 C 0.1458(7) 1.2734(6) 0.6914(5) 0.0460(12) Uani 1 1 d .
H3 H 0.1364 1.3439 0.6447 0.055 Uiso 1 1 calc R
C11 C 0.3958(7) 0.6634(7) 0.1954(5) 0.0490(13) Uani 1 1 d .
H11 H 0.4317 0.5634 0.1724 0.059 Uiso 1 1 calc R
C2 C 0.1158(7) 1.3161(6) 0.8168(5) 0.0471(13) Uani 1 1 d .
H2 H 0.0854 1.4154 0.8557 0.056 Uiso 1 1 calc R
C9 C 0.3321(8) 0.8953(8) 0.1435(5) 0.0550(14) Uani 1 1 d .
H9 H 0.3252 0.9500 0.0843 0.066 Uiso 1 1 calc R
loop_
_atom_site_aniso_label
_atom_site_aniso_U_11
_atom_site_aniso_U_22
_atom_site_aniso_U_33
_atom_site_aniso_U_23
_atom_site_aniso_U_13
_atom_site_aniso_U_12
C4 0.037(2) 0.035(2) 0.041(3) 0.009(2) 0.007(2) 0.0062(19)
Pd1 0.0425(2) 0.0302(2) 0.0279(2) 0.00562(15) 0.00515(15) 0.00752(15)
Br1 0.0925(5) 0.0438(3) 0.0417(4) 0.0179(3) 0.0169(3) 0.0198(3)
S1 0.0461(7) 0.0399(7) 0.0322(7) 0.0053(5) 0.0033(5) 0.0131(5)
N2 0.034(2) 0.034(2) 0.031(2) 0.0061(16) 0.0012(16) 0.0039(16)
C12 0.034(2) 0.049(3) 0.031(3) 0.007(2) 0.0029(19) 0.007(2)
N1 0.041(2) 0.037(2) 0.043(2) 0.0159(18) 0.0032(18) 0.0069(17)
C1 0.040(3) 0.043(3) 0.038(3) -0.002(2) 0.006(2) 0.003(2)
C5 0.035(2) 0.033(2) 0.035(3) 0.005(2) 0.0055(19) 0.0035(19)
C6 0.045(3) 0.040(3) 0.035(3) 0.006(2) 0.006(2) 0.005(2)
C7 0.028(2) 0.042(3) 0.036(3) 0.007(2) 0.0025(19) -0.0007(19)
C13 0.074(4) 0.046(3) 0.046(3) 0.008(3) -0.007(3) 0.005(3)
C10 0.061(4) 0.077(4) 0.027(3) 0.009(3) 0.005(2) 0.009(3)
Cl1 0.0881(11) 0.0623(9) 0.0412(8) -0.0046(7) 0.0172(7) 0.0163(8)
C8 0.043(3) 0.049(3) 0.041(3) 0.018(2) 0.002(2) 0.003(2)
C3 0.049(3) 0.036(3) 0.055(3) 0.013(2) 0.011(2) 0.010(2)
C11 0.050(3) 0.058(3) 0.034(3) 0.004(2) 0.007(2) 0.012(3)
C2 0.042(3) 0.036(3) 0.057(4) 0.003(2) 0.010(2) 0.009(2)
C9 0.054(3) 0.076(4) 0.040(3) 0.026(3) 0.001(2) 0.006(3)
loop_
_atom_type_symbol
_atom_type_description
_atom_type_scat_dispersion_real
_atom_type_scat_dispersion_imag
_atom_type_scat_source
C C 0.0033 0.0016 'International Tables Vol C Tables 4.2.6.8 and 6.1.1.4'
H H 0.0000 0.0000 'International Tables Vol C Tables 4.2.6.8 and 6.1.1.4'
N N 0.0061 0.0033 'International Tables Vol C Tables 4.2.6.8 and 6.1.1.4'
S S 0.1246 0.1234 'International Tables Vol C Tables 4.2.6.8 and 6.1.1.4'
Cl Cl 0.1484 0.1585 'International Tables Vol C Tables 4.2.6.8 and 6.1.1.4'
Br Br -0.2901 2.4595 'International Tables Vol C Tables 4.2.6.8 and 6.1.1.4'
Pd Pd -0.9988 1.0072 'International Tables Vol C Tables 4.2.6.8 and 6.1.1.4'
loop_
_geom_angle_atom_site_label_1
_geom_angle_atom_site_label_2
_geom_angle_atom_site_label_3
_geom_angle
C3 C4 N1 118.4(5)
C3 C4 C5 122.0(5)
N1 C4 C5 119.6(4)
C5 Pd1 N2 79.39(18)
C5 Pd1 S1 164.33(15)
N2 Pd1 S1 85.28(11)
C5 Pd1 Br1 96.85(14)
N2 Pd1 Br1 175.84(11)
S1 Pd1 Br1 98.35(4)
C12 S1 C13 102.4(3)
C12 S1 Pd1 95.70(16)
C13 S1 Pd1 111.1(2)
N1 N2 C7 119.0(4)
N1 N2 Pd1 120.1(3)
C7 N2 Pd1 120.9(3)
C11 C12 C7 120.0(5)
C11 C12 S1 119.7(4)
C7 C12 S1 120.1(4)
N2 N1 C4 110.8(4)
C2 C1 C6 123.3(5)
C2 C1 Cl1 118.7(4)
C6 C1 Cl1 118.0(4)
C6 C5 C4 118.6(4)
C6 C5 Pd1 131.1(4)
C4 C5 Pd1 110.1(3)
C5 C6 C1 118.5(5)
C5 C6 H6 120.8
C1 C6 H6 120.8
C8 C7 C12 120.1(5)
C8 C7 N2 122.4(4)
C12 C7 N2 117.5(4)
S1 C13 H13A 109.5
S1 C13 H13B 109.5
H13A C13 H13B 109.5
S1 C13 H13C 109.5
H13A C13 H13C 109.5
H13B C13 H13C 109.5
C11 C10 C9 120.9(5)
C11 C10 H10 119.6
C9 C10 H10 119.6
C9 C8 C7 118.7(5)
C9 C8 H8 120.6
C7 C8 H8 120.6
C2 C3 C4 119.0(5)
C2 C3 H3 120.5
C4 C3 H3 120.5
C10 C11 C12 119.4(5)
C10 C11 H11 120.3
C12 C11 H11 120.3
C1 C2 C3 118.6(5)
C1 C2 H2 120.7
C3 C2 H2 120.7
C10 C9 C8 120.9(5)
C10 C9 H9 119.6
C8 C9 H9 119.6
loop_
_geom_bond_atom_site_label_1
_geom_bond_atom_site_label_2
_geom_bond_distance
C4 C3 1.393(7)
C4 N1 1.394(7)
C4 C5 1.398(7)
Pd1 C5 1.985(5)
Pd1 N2 1.986(4)
Pd1 S1 2.3702(12)
Pd1 Br1 2.4060(7)
S1 C12 1.785(5)
S1 C13 1.805(6)
N2 N1 1.272(5)
N2 C7 1.404(6)
C12 C11 1.388(7)
C12 C7 1.402(7)
C1 C2 1.368(8)
C1 C6 1.392(7)
C1 Cl1 1.740(5)
C5 C6 1.385(7)
C6 H6 0.9300
C7 C8 1.390(7)
C13 H13A 0.9600
C13 H13B 0.9600
C13 H13C 0.9600
C10 C11 1.369(8)
C10 C9 1.378(9)
C10 H10 0.9300
C8 C9 1.387(8)
C8 H8 0.9300
C3 C2 1.389(8)
C3 H3 0.9300
C11 H11 0.9300
C2 H2 0.9300
C9 H9 0.9300
loop_
_geom_torsion_atom_site_label_1
_geom_torsion_atom_site_label_2
_geom_torsion_atom_site_label_3
_geom_torsion_atom_site_label_4
_geom_torsion
C5 Pd1 S1 C12 -17.3(5)
N2 Pd1 S1 C12 -5.26(19)
Br1 Pd1 S1 C12 176.79(16)
C5 Pd1 S1 C13 -123.0(5)
N2 Pd1 S1 C13 -111.0(2)
Br1 Pd1 S1 C13 71.1(2)
C5 Pd1 N2 N1 1.7(3)
S1 Pd1 N2 N1 -175.0(3)
C5 Pd1 N2 C7 -179.2(4)
S1 Pd1 N2 C7 4.1(3)
C13 S1 C12 C11 -64.4(5)
Pd1 S1 C12 C11 -177.6(4)
C13 S1 C12 C7 120.3(4)
Pd1 S1 C12 C7 7.2(4)
C7 N2 N1 C4 179.6(4)
Pd1 N2 N1 C4 -1.3(5)
C3 C4 N1 N2 178.0(4)
C5 C4 N1 N2 -0.2(6)
C3 C4 C5 C6 0.3(7)
N1 C4 C5 C6 178.5(4)
C3 C4 C5 Pd1 -176.7(4)
N1 C4 C5 Pd1 1.4(6)
N2 Pd1 C5 C6 -178.1(5)
S1 Pd1 C5 C6 -165.8(3)
Br1 Pd1 C5 C6 0.1(5)
N2 Pd1 C5 C4 -1.5(3)
S1 Pd1 C5 C4 10.7(8)
Br1 Pd1 C5 C4 176.7(3)
C4 C5 C6 C1 -0.6(7)
Pd1 C5 C6 C1 175.7(4)
C2 C1 C6 C5 0.7(8)
Cl1 C1 C6 C5 180.0(4)
C11 C12 C7 C8 -0.3(7)
S1 C12 C7 C8 175.0(4)
C11 C12 C7 N2 179.3(4)
S1 C12 C7 N2 -5.5(6)
N1 N2 C7 C8 -1.8(7)
Pd1 N2 C7 C8 179.1(4)
N1 N2 C7 C12 178.7(4)
Pd1 N2 C7 C12 -0.4(6)
C12 C7 C8 C9 0.5(7)
N2 C7 C8 C9 -179.0(5)
N1 C4 C3 C2 -178.4(4)
C5 C4 C3 C2 -0.2(8)
C9 C10 C11 C12 2.1(9)
C7 C12 C11 C10 -1.0(8)
S1 C12 C11 C10 -176.3(4)
C6 C1 C2 C3 -0.6(8)
Cl1 C1 C2 C3 -179.8(4)
C4 C3 C2 C1 0.3(8)
C11 C10 C9 C8 -1.9(9)
C7 C8 C9 C10 0.6(8)
