#------------------------------------------------------------------------------
#$Date: 2016-03-24 01:34:15 +0200 (Thu, 24 Mar 2016) $
#$Revision: 179536 $
#$URL: svn://www.crystallography.net/cod/cif/4/50/05/4500536.cif $
#------------------------------------------------------------------------------
#
# This file is available in the Crystallography Open Database (COD),
# http://www.crystallography.net/
#
# All data on this site have been placed in the public domain by the
# contributors.
#
data_4500536
loop_
_publ_author_name
'Mart\'inez-Lillo, Jos\'e'
'Armentano, Donatella'
'Mastropietro, Teresa F.'
'Julve, Miguel'
'Faus, Juan'
'De Munno, Giovanni'
_publ_section_title
;
 Self-Assembled One- and Two-Dimensional Networks Based on
 NH2Me2[ReX5(DMF)] (X = Cl and Br) Species: Polymorphism and
 Supramolecular Isomerism in Re(IV) Compounds
;
_journal_issue                   5
_journal_name_full               'Crystal Growth &amp; Design'
_journal_page_first              1733
_journal_paper_doi               10.1021/cg101658a
_journal_volume                  11
_journal_year                    2011
_chemical_formula_sum            'C5 H15 Cl5 N2 O Re'
_chemical_formula_weight         482.64
_chemical_name_systematic
; 
 ? 
;
_space_group_IT_number           11
_symmetry_cell_setting           monoclinic
_symmetry_space_group_name_Hall  '-P 2yb'
_symmetry_space_group_name_H-M   'P 1 21/m 1'
_atom_sites_solution_hydrogens   geom
_atom_sites_solution_primary     direct
_atom_sites_solution_secondary   difmap
_audit_creation_method           SHELXL-97
_cell_angle_alpha                90.00
_cell_angle_beta                 100.63(3)
_cell_angle_gamma                90.00
_cell_formula_units_Z            2
_cell_length_a                   6.7652(14)
_cell_length_b                   7.4345(15)
_cell_length_c                   14.424(3)
_cell_measurement_reflns_used    6282
_cell_measurement_temperature    293(2)
_cell_measurement_theta_max      31.013
_cell_measurement_theta_min      2.874
_cell_volume                     713.0(3)
_computing_cell_refinement       'Bruker-Nonius X8 APEX'
_computing_data_collection       'Bruker-Nonius X8 APEX'
_computing_data_reduction        'Bruker SAINT'
_computing_molecular_graphics    'Bruker SHELXTL'
_computing_publication_material  'Bruker SHELXTL'
_computing_structure_refinement  'SHELXL-97 (Sheldrick, 1997)'
_computing_structure_solution    'SHELXS-97 (Sheldrick, 1990)'
_diffrn_ambient_temperature      293(2)
_diffrn_measured_fraction_theta_full 0.920
_diffrn_measured_fraction_theta_max 0.920
_diffrn_measurement_device_type  'CCD area detector'
_diffrn_measurement_method       'phi and omega scans'
_diffrn_radiation_monochromator  graphite
_diffrn_radiation_source         'fine-focus sealed tube'
_diffrn_radiation_type           MoK\a
_diffrn_radiation_wavelength     0.71073
_diffrn_reflns_av_R_equivalents  0.0364
_diffrn_reflns_av_sigmaI/netI    0.0205
_diffrn_reflns_limit_h_max       9
_diffrn_reflns_limit_h_min       -9
_diffrn_reflns_limit_k_max       10
_diffrn_reflns_limit_k_min       -10
_diffrn_reflns_limit_l_max       21
_diffrn_reflns_limit_l_min       -20
_diffrn_reflns_number            15648
_diffrn_reflns_theta_full        31.68
_diffrn_reflns_theta_max         31.68
_diffrn_reflns_theta_min         1.44
_exptl_absorpt_coefficient_mu    9.433
_exptl_absorpt_correction_T_max  0.482
_exptl_absorpt_correction_T_min  0.341
_exptl_absorpt_correction_type   multi-scan
_exptl_absorpt_process_details   sadabs
_exptl_crystal_colour            green
_exptl_crystal_density_diffrn    2.248
_exptl_crystal_density_method    'not measured'
_exptl_crystal_description       parallelepiped
_exptl_crystal_F_000             454
_exptl_crystal_size_max          0.14
_exptl_crystal_size_mid          0.10
_exptl_crystal_size_min          0.08
_refine_diff_density_max         6.311
_refine_diff_density_min         -2.335
_refine_diff_density_rms         0.273
_refine_ls_extinction_coef       0.0038(7)
_refine_ls_extinction_expression Fc^*^=kFc[1+0.001xFc^2^\l^3^/sin(2\q)]^-1/4^
_refine_ls_extinction_method     SHELXL
_refine_ls_goodness_of_fit_ref   1.081
_refine_ls_hydrogen_treatment    riding
_refine_ls_matrix_type           full
_refine_ls_number_parameters     80
_refine_ls_number_reflns         2361
_refine_ls_number_restraints     0
_refine_ls_restrained_S_all      1.081
_refine_ls_R_factor_all          0.0433
_refine_ls_R_factor_gt           0.0421
_refine_ls_shift/su_max          0.000
_refine_ls_shift/su_mean         0.000
_refine_ls_structure_factor_coef Fsqd
_refine_ls_weighting_details
'calc w=1/[\s^2^(Fo^2^)+(0.0528P)^2^+8.8417P] where P=(Fo^2^+2Fc^2^)/3'
_refine_ls_weighting_scheme      calc
_refine_ls_wR_factor_gt          0.1217
_refine_ls_wR_factor_ref         0.1226
_reflns_number_gt                2276
_reflns_number_total             2361
_reflns_threshold_expression     >2sigma(I)
_cod_data_source_file            cg101658a_si_002.cif
_cod_data_source_block           2
_cod_original_sg_symbol_H-M      P2(1)/m
_cod_database_code               4500536
loop_
_symmetry_equiv_pos_as_xyz
'x, y, z'
'-x, y+1/2, -z'
'-x, -y, -z'
'x, -y-1/2, z'
loop_
_atom_site_label
_atom_site_type_symbol
_atom_site_fract_x
_atom_site_fract_y
_atom_site_fract_z
_atom_site_U_iso_or_equiv
_atom_site_adp_type
_atom_site_occupancy
_atom_site_symmetry_multiplicity
_atom_site_calc_flag
_atom_site_refinement_flags
Re1 Re 0.22512(5) 0.7500 0.25379(2) 0.02923(15) Uani 1 2 d S
Cl1 Cl 0.4631(3) 0.9732(3) 0.30956(15) 0.0463(4) Uani 1 1 d .
Cl2 Cl -0.0151(3) 0.9745(3) 0.20754(16) 0.0510(5) Uani 1 1 d .
Cl3 Cl 0.3203(5) 0.7500 0.1069(2) 0.0515(7) Uani 1 2 d S
O1 O 0.1528(12) 0.7500 0.3856(5) 0.0427(17) Uani 1 2 d S
C1 C -0.0175(16) 0.7500 0.4088(7) 0.038(2) Uani 1 2 d S
H1A H -0.1312 0.7500 0.3614 0.046 Uiso 1 2 calc SR
C2 C 0.134(2) 0.7500 0.5724(8) 0.055(3) Uani 1 2 d S
H2A H 0.2543 0.7500 0.5463 0.083 Uiso 1 2 calc SR
H2B H 0.1307 0.6446 0.6105 0.083 Uiso 0.50 1 calc PR
H2C H 0.1307 0.8554 0.6105 0.083 Uiso 0.50 1 calc PR
N1 N -0.0415(13) 0.7500 0.4959(6) 0.0358(17) Uani 1 2 d S
C4 C -0.192(3) 0.7500 -0.0317(12) 0.082(6) Uani 1 2 d S
H4A H -0.0542 0.7500 -0.0397 0.123 Uiso 1 2 calc SR
H4B H -0.2176 0.6446 0.0027 0.123 Uiso 0.50 1 calc PR
H4C H -0.2176 0.8554 0.0027 0.123 Uiso 0.50 1 calc PR
C5 C -0.541(2) 0.7500 -0.1208(11) 0.063(4) Uani 1 2 d S
H5A H -0.6171 0.7500 -0.1839 0.095 Uiso 1 2 calc SR
H5B H -0.5728 0.8554 -0.0882 0.095 Uiso 0.50 1 calc PR
H5C H -0.5728 0.6446 -0.0882 0.095 Uiso 0.50 1 calc PR
N2 N -0.3241(16) 0.7500 -0.1243(7) 0.047(2) Uani 1 2 d S
H2D H -0.2963 0.6523 -0.1565 0.057 Uiso 0.50 1 calc PR
H2E H -0.2963 0.8477 -0.1565 0.057 Uiso 0.50 1 calc PR
C3 C -0.239(2) 0.7500 0.5227(10) 0.061(4) Uani 1 2 d S
H3A H -0.3414 0.7500 0.4669 0.092 Uiso 1 2 calc SR
H3B H -0.2528 0.8554 0.5594 0.092 Uiso 0.50 1 calc PR
H3C H -0.2528 0.6446 0.5594 0.092 Uiso 0.50 1 calc PR
loop_
_atom_site_aniso_label
_atom_site_aniso_U_11
_atom_site_aniso_U_22
_atom_site_aniso_U_33
_atom_site_aniso_U_23
_atom_site_aniso_U_13
_atom_site_aniso_U_12
Re1 0.0283(2) 0.0344(2) 0.0254(2) 0.000 0.00601(12) 0.000
Cl1 0.0450(9) 0.0445(10) 0.0484(10) -0.0042(8) 0.0065(8) -0.0106(8)
Cl2 0.0451(9) 0.0547(11) 0.0524(11) 0.0073(9) 0.0068(8) 0.0162(9)
Cl3 0.0581(17) 0.0685(19) 0.0318(12) 0.000 0.0188(12) 0.000
O1 0.044(4) 0.056(5) 0.029(3) 0.000 0.011(3) 0.000
C1 0.038(5) 0.042(5) 0.033(5) 0.000 0.005(4) 0.000
C2 0.059(7) 0.075(9) 0.031(5) 0.000 0.004(5) 0.000
N1 0.040(4) 0.041(4) 0.027(4) 0.000 0.008(3) 0.000
C4 0.086(12) 0.093(13) 0.053(9) 0.000 -0.021(8) 0.000
C5 0.056(8) 0.084(11) 0.054(8) 0.000 0.017(6) 0.000
N2 0.053(6) 0.050(6) 0.038(5) 0.000 0.006(4) 0.000
C3 0.056(8) 0.088(11) 0.048(7) 0.000 0.031(6) 0.000
loop_
_atom_type_symbol
_atom_type_description
_atom_type_scat_dispersion_real
_atom_type_scat_dispersion_imag
_atom_type_scat_source
C C 0.0033 0.0016 'International Tables Vol C Tables 4.2.6.8 and 6.1.1.4'
H H 0.0000 0.0000 'International Tables Vol C Tables 4.2.6.8 and 6.1.1.4'
N N 0.0061 0.0033 'International Tables Vol C Tables 4.2.6.8 and 6.1.1.4'
O O 0.0106 0.0060 'International Tables Vol C Tables 4.2.6.8 and 6.1.1.4'
Cl Cl 0.1484 0.1585 'International Tables Vol C Tables 4.2.6.8 and 6.1.1.4'
Re Re -1.0185 7.2310 'International Tables Vol C Tables 4.2.6.8 and 6.1.1.4'
loop_
_geom_angle_atom_site_label_1
_geom_angle_atom_site_label_2
_geom_angle_atom_site_label_3
_geom_angle
_geom_angle_site_symmetry_1
_geom_angle_site_symmetry_3
O1 Re1 Cl3 177.8(2) . .
O1 Re1 Cl2 89.56(17) . 4_575
Cl3 Re1 Cl2 92.00(8) . 4_575
O1 Re1 Cl2 89.56(17) . .
Cl3 Re1 Cl2 92.00(8) . .
Cl2 Re1 Cl2 91.05(12) 4_575 .
O1 Re1 Cl1 87.03(17) . .
Cl3 Re1 Cl1 91.40(8) . .
Cl2 Re1 Cl1 176.55(7) 4_575 .
Cl2 Re1 Cl1 89.42(9) . .
O1 Re1 Cl1 87.03(17) . 4_575
Cl3 Re1 Cl1 91.40(8) . 4_575
Cl2 Re1 Cl1 89.42(9) 4_575 4_575
Cl2 Re1 Cl1 176.55(7) . 4_575
Cl1 Re1 Cl1 89.92(11) . 4_575
C1 O1 Re1 129.4(7) . .
O1 C1 N1 122.9(10) . .
C1 N1 C3 122.8(10) . .
C1 N1 C2 120.2(10) . .
C3 N1 C2 117.0(10) . .
C4 N2 C5 114.3(13) . .
loop_
_geom_bond_atom_site_label_1
_geom_bond_atom_site_label_2
_geom_bond_distance
_geom_bond_site_symmetry_2
Re1 O1 2.048(7) .
Re1 Cl3 2.326(3) .
Re1 Cl2 2.339(2) 4_575
Re1 Cl2 2.339(2) .
Re1 Cl1 2.348(2) .
Re1 Cl1 2.3485(19) 4_575
O1 C1 1.258(13) .
C1 N1 1.295(13) .
C2 N1 1.462(15) .
N1 C3 1.458(15) .
C4 N2 1.464(17) .
C5 N2 1.475(17) .
loop_
_geom_hbond_atom_site_label_D
_geom_hbond_atom_site_label_H
_geom_hbond_atom_site_label_A
_geom_hbond_distance_DH
_geom_hbond_distance_HA
_geom_hbond_distance_DA
_geom_hbond_angle_DHA
_geom_hbond_site_symmetry_A
N2 H2D Cl1 0.90 2.65 3.366(8) 137.6 2_545
N2 H2D Cl2 0.90 2.70 3.452(9) 141.5 2_545
