#------------------------------------------------------------------------------
#$Date: 2016-03-24 01:39:03 +0200 (Thu, 24 Mar 2016) $
#$Revision: 179540 $
#$URL: svn://www.crystallography.net/cod/cif/4/50/09/4500948.cif $
#------------------------------------------------------------------------------
#
# This file is available in the Crystallography Open Database (COD),
# http://www.crystallography.net/
#
# All data on this site have been placed in the public domain by the
# contributors.
#
data_4500948
loop_
_publ_author_name
'Ebenezer, Samuel'
'Muthiah, P. Thomas'
'Butcher, Ray J.'
_publ_section_title
;
 Design of a Series of Isostructural Co-Crystals with Aminopyrimidines:
 Isostructurality through Chloro/Methyl Exchange and Studies on
 Supramolecular Architectures
;
_journal_issue                   8
_journal_name_full               'Crystal Growth &amp; Design'
_journal_page_first              3579
_journal_paper_doi               10.1021/cg200539a
_journal_volume                  11
_journal_year                    2011
_chemical_formula_moiety         'C6 H9 N3, C7 H5 N O4'
_chemical_formula_sum            'C13 H14 N4 O4'
_chemical_formula_weight         290.28
_chemical_name_systematic
;
 2-amino-4,6-dimethylpyrimidine-4-nitrobenzoic acid
;
_space_group_IT_number           2
_symmetry_cell_setting           triclinic
_symmetry_space_group_name_Hall  '-P 1'
_symmetry_space_group_name_H-M   'P -1'
_atom_sites_solution_hydrogens   geom
_atom_sites_solution_primary     direct
_atom_sites_solution_secondary   difmap
_audit_creation_method           SHELXL-97
_cell_angle_alpha                81.763(9)
_cell_angle_beta                 80.563(9)
_cell_angle_gamma                84.009(9)
_cell_formula_units_Z            2
_cell_length_a                   6.8705(12)
_cell_length_b                   7.4812(14)
_cell_length_c                   13.716(2)
_cell_measurement_reflns_used    3002
_cell_measurement_temperature    293(2)
_cell_measurement_theta_max      27.0
_cell_measurement_theta_min      2.8
_cell_volume                     685.9(2)
_computing_cell_refinement       'SAINT (Bruker, 2008)'
_computing_data_collection       'SMART APEX II (Bruker, 2008)'
_computing_data_reduction        'SAINT (Bruker, 2008)'
_computing_molecular_graphics    'Mercury 2.2 (Macrae et al., 2006)'
_computing_publication_material  'PLATON (Spek, 2003)'
_computing_structure_refinement  'SHELXL-97 (Sheldrick, 2008)'
_computing_structure_solution    'SHELXS-97 (Sheldrick, 2008)'
_diffrn_ambient_temperature      293(2)
_diffrn_measured_fraction_theta_full 0.998
_diffrn_measured_fraction_theta_max 0.998
_diffrn_measurement_device_type  'Bruker SMART APEX II CCD area-detector'
_diffrn_measurement_method       '\f and \w scans'
_diffrn_radiation_monochromator  graphite
_diffrn_radiation_source         'fine-focus sealed tube'
_diffrn_radiation_type           MoK\a
_diffrn_radiation_wavelength     0.71073
_diffrn_reflns_av_R_equivalents  0.0306
_diffrn_reflns_av_sigmaI/netI    0.0249
_diffrn_reflns_limit_h_max       8
_diffrn_reflns_limit_h_min       -8
_diffrn_reflns_limit_k_max       9
_diffrn_reflns_limit_k_min       -9
_diffrn_reflns_limit_l_max       17
_diffrn_reflns_limit_l_min       -17
_diffrn_reflns_number            12693
_diffrn_reflns_theta_full        27.03
_diffrn_reflns_theta_max         27.03
_diffrn_reflns_theta_min         2.76
_exptl_absorpt_coefficient_mu    0.107
_exptl_absorpt_correction_T_max  0.9831
_exptl_absorpt_correction_T_min  0.9789
_exptl_absorpt_correction_type   multi-scan
_exptl_absorpt_process_details   'SADABS; (Bruker, 2008)'
_exptl_crystal_colour            Colourless
_exptl_crystal_density_diffrn    1.405
_exptl_crystal_density_method    'not measured'
_exptl_crystal_description       Prism
_exptl_crystal_F_000             304
_exptl_crystal_size_max          0.20
_exptl_crystal_size_mid          0.20
_exptl_crystal_size_min          0.16
_refine_diff_density_max         0.243
_refine_diff_density_min         -0.182
_refine_diff_density_rms         0.038
_refine_ls_extinction_method     none
_refine_ls_goodness_of_fit_ref   1.056
_refine_ls_hydrogen_treatment    constr
_refine_ls_matrix_type           full
_refine_ls_number_parameters     193
_refine_ls_number_reflns         3002
_refine_ls_number_restraints     0
_refine_ls_restrained_S_all      1.056
_refine_ls_R_factor_all          0.0676
_refine_ls_R_factor_gt           0.0470
_refine_ls_shift/su_max          0.000
_refine_ls_shift/su_mean         0.000
_refine_ls_structure_factor_coef Fsqd
_refine_ls_weighting_details
'calc w=1/[\s^2^(Fo^2^)+(0.0649P)^2^+0.1453P] where P=(Fo^2^+2Fc^2^)/3'
_refine_ls_weighting_scheme      calc
_refine_ls_wR_factor_gt          0.1256
_refine_ls_wR_factor_ref         0.1385
_reflns_number_gt                2166
_reflns_number_total             3002
_reflns_threshold_expression     >2sigma(I)
_cod_data_source_file            cg200539a_si_002.cif
_cod_data_source_block           MP4NBA
_cod_depositor_comments
;
The following automatic conversions were performed:

'_symmetry_cell_setting' value 'Triclinic' changed to 'triclinic'
according to /home/saulius/struct/CIF-dictionaries/cif_core.dic
dictionary named 'cif_core.dic' version 2.4.1 from 2010-06-29.

Automatic conversion script
Id: cif_fix_values 1715 2011-07-08 13:25:40Z adriana 
;
_cod_database_code               4500948
loop_
_symmetry_equiv_pos_as_xyz
'x, y, z'
'-x, -y, -z'
loop_
_atom_site_label
_atom_site_type_symbol
_atom_site_fract_x
_atom_site_fract_y
_atom_site_fract_z
_atom_site_U_iso_or_equiv
_atom_site_adp_type
_atom_site_occupancy
_atom_site_symmetry_multiplicity
_atom_site_calc_flag
_atom_site_refinement_flags
N3 N 0.7750(2) 0.07302(18) 0.57729(10) 0.0433(3) Uani 1 1 d .
N1 N 0.52959(19) 0.24392(18) 0.49050(10) 0.0414(3) Uani 1 1 d .
C10 C 0.4108(2) 0.5525(2) 0.17268(12) 0.0442(4) Uani 1 1 d .
C6 C 0.3994(2) 0.2391(2) 0.57537(13) 0.0436(4) Uani 1 1 d .
O1 O 0.39589(19) 0.3973(2) 0.33357(10) 0.0651(4) Uani 1 1 d .
H1 H 0.4601 0.3531 0.3779 0.098 Uiso 1 1 calc R
O2 O 0.69439(19) 0.4267(2) 0.24418(10) 0.0685(4) Uani 1 1 d .
C2 C 0.7132(2) 0.1606(2) 0.49348(12) 0.0405(4) Uani 1 1 d .
N2 N 0.8400(2) 0.1665(2) 0.40969(10) 0.0537(4) Uani 1 1 d .
H2A H 0.9581 0.1155 0.4097 0.064 Uiso 1 1 calc R
H2B H 0.8044 0.2215 0.3551 0.064 Uiso 1 1 calc R
C4 C 0.6458(3) 0.0719(2) 0.66095(12) 0.0450(4) Uani 1 1 d .
C5 C 0.4551(3) 0.1525(2) 0.66262(13) 0.0496(4) Uani 1 1 d .
H5 H 0.3664 0.1480 0.7218 0.060 Uiso 1 1 calc R
C9 C 0.5144(3) 0.4515(2) 0.25484(13) 0.0484(4) Uani 1 1 d .
N4 N 0.1244(3) 0.8350(2) -0.05897(12) 0.0651(5) Uani 1 1 d .
C15 C 0.5168(3) 0.6525(3) 0.09299(14) 0.0540(5) Uani 1 1 d .
H15 H 0.6525 0.6562 0.0904 0.065 Uiso 1 1 calc R
C13 C 0.2255(3) 0.7356(2) 0.02168(13) 0.0496(4) Uani 1 1 d .
C14 C 0.4243(3) 0.7470(3) 0.01722(13) 0.0553(5) Uani 1 1 d .
H14 H 0.4952 0.8168 -0.0357 0.066 Uiso 1 1 calc R
C11 C 0.2097(3) 0.5457(3) 0.17539(14) 0.0538(5) Uani 1 1 d .
H11 H 0.1371 0.4796 0.2292 0.065 Uiso 1 1 calc R
O4 O 0.2174(3) 0.9365(3) -0.12240(13) 0.0998(6) Uani 1 1 d .
C12 C 0.1163(3) 0.6360(3) 0.09905(15) 0.0585(5) Uani 1 1 d .
H12 H -0.0184 0.6295 0.1000 0.070 Uiso 1 1 calc R
O3 O -0.0475(3) 0.8124(3) -0.05833(13) 0.0944(6) Uani 1 1 d .
C7 C 0.1975(3) 0.3311(3) 0.56880(15) 0.0571(5) Uani 1 1 d .
H7A H 0.2072 0.4376 0.5207 0.086 Uiso 1 1 calc R
H7B H 0.1388 0.3648 0.6327 0.086 Uiso 1 1 calc R
H7C H 0.1165 0.2499 0.5488 0.086 Uiso 1 1 calc R
C8 C 0.7196(3) -0.0200(3) 0.75411(14) 0.0621(5) Uani 1 1 d .
H8A H 0.7627 -0.1442 0.7466 0.093 Uiso 1 1 calc R
H8B H 0.6148 -0.0151 0.8096 0.093 Uiso 1 1 calc R
H8C H 0.8285 0.0406 0.7658 0.093 Uiso 1 1 calc R
loop_
_atom_site_aniso_label
_atom_site_aniso_U_11
_atom_site_aniso_U_22
_atom_site_aniso_U_33
_atom_site_aniso_U_23
_atom_site_aniso_U_13
_atom_site_aniso_U_12
N3 0.0448(8) 0.0439(8) 0.0419(8) 0.0002(6) -0.0157(6) 0.0005(6)
N1 0.0387(7) 0.0402(7) 0.0462(8) -0.0007(6) -0.0147(6) -0.0015(5)
C10 0.0410(9) 0.0479(10) 0.0440(9) -0.0040(7) -0.0118(7) 0.0009(7)
C6 0.0409(9) 0.0408(9) 0.0512(10) -0.0062(7) -0.0116(7) -0.0052(7)
O1 0.0520(8) 0.0860(10) 0.0529(8) 0.0168(7) -0.0205(6) -0.0008(7)
O2 0.0460(8) 0.0911(11) 0.0641(9) 0.0057(7) -0.0191(6) 0.0099(7)
C2 0.0407(8) 0.0379(9) 0.0447(9) -0.0014(7) -0.0150(7) -0.0028(6)
N2 0.0447(8) 0.0675(10) 0.0440(8) 0.0055(7) -0.0112(7) 0.0085(7)
C4 0.0518(10) 0.0406(9) 0.0439(9) -0.0014(7) -0.0146(7) -0.0043(7)
C5 0.0502(10) 0.0534(11) 0.0439(9) -0.0023(8) -0.0078(7) -0.0021(8)
C9 0.0459(10) 0.0514(10) 0.0492(10) -0.0038(8) -0.0167(8) 0.0013(8)
N4 0.0710(12) 0.0717(12) 0.0498(10) 0.0048(8) -0.0197(8) 0.0068(9)
C15 0.0398(9) 0.0678(12) 0.0532(10) -0.0010(9) -0.0093(8) -0.0049(8)
C13 0.0522(10) 0.0531(11) 0.0426(9) 0.0004(8) -0.0153(8) 0.0045(8)
C14 0.0547(11) 0.0640(12) 0.0441(10) 0.0040(8) -0.0053(8) -0.0084(9)
C11 0.0417(9) 0.0624(12) 0.0528(10) 0.0117(8) -0.0104(8) -0.0051(8)
O4 0.1053(14) 0.1122(15) 0.0693(11) 0.0406(10) -0.0231(9) -0.0066(11)
C12 0.0398(9) 0.0716(13) 0.0619(11) 0.0086(9) -0.0172(8) -0.0035(8)
O3 0.0724(11) 0.1269(16) 0.0823(11) 0.0213(10) -0.0427(9) 0.0003(10)
C7 0.0444(10) 0.0609(12) 0.0661(12) -0.0073(9) -0.0130(9) 0.0019(8)
C8 0.0725(13) 0.0665(13) 0.0442(10) 0.0026(9) -0.0173(9) 0.0080(10)
loop_
_atom_type_symbol
_atom_type_description
_atom_type_scat_dispersion_real
_atom_type_scat_dispersion_imag
_atom_type_scat_source
C C 0.0033 0.0016 'International Tables Vol C Tables 4.2.6.8 and 6.1.1.4'
H H 0.0000 0.0000 'International Tables Vol C Tables 4.2.6.8 and 6.1.1.4'
N N 0.0061 0.0033 'International Tables Vol C Tables 4.2.6.8 and 6.1.1.4'
O O 0.0106 0.0060 'International Tables Vol C Tables 4.2.6.8 and 6.1.1.4'
loop_
_geom_angle_atom_site_label_1
_geom_angle_atom_site_label_2
_geom_angle_atom_site_label_3
_geom_angle
C4 N3 C2 116.89(14)
C6 N1 C2 118.73(13)
C15 C10 C11 119.28(15)
C15 C10 C9 119.97(15)
C11 C10 C9 120.75(15)
N1 C6 C5 119.86(15)
N1 C6 C7 117.12(15)
C5 C6 C7 123.02(16)
C9 O1 H1 109.5
N2 C2 N3 118.07(14)
N2 C2 N1 118.21(14)
N3 C2 N1 123.72(15)
C2 N2 H2A 120.0
C2 N2 H2B 120.0
H2A N2 H2B 120.0
N3 C4 C5 122.18(15)
N3 C4 C8 116.15(15)
C5 C4 C8 121.67(17)
C6 C5 C4 118.61(17)
C6 C5 H5 120.7
C4 C5 H5 120.7
O2 C9 O1 125.46(16)
O2 C9 C10 120.96(16)
O1 C9 C10 113.58(15)
O3 N4 O4 123.26(18)
O3 N4 C13 118.40(17)
O4 N4 C13 118.34(18)
C14 C15 C10 120.84(17)
C14 C15 H15 119.6
C10 C15 H15 119.6
C14 C13 C12 122.33(16)
C14 C13 N4 119.07(17)
C12 C13 N4 118.60(16)
C13 C14 C15 118.35(17)
C13 C14 H14 120.8
C15 C14 H14 120.8
C12 C11 C10 120.46(17)
C12 C11 H11 119.8
C10 C11 H11 119.8
C13 C12 C11 118.72(16)
C13 C12 H12 120.6
C11 C12 H12 120.6
C6 C7 H7A 109.5
C6 C7 H7B 109.5
H7A C7 H7B 109.5
C6 C7 H7C 109.5
H7A C7 H7C 109.5
H7B C7 H7C 109.5
C4 C8 H8A 109.5
C4 C8 H8B 109.5
H8A C8 H8B 109.5
C4 C8 H8C 109.5
H8A C8 H8C 109.5
H8B C8 H8C 109.5
loop_
_geom_bond_atom_site_label_1
_geom_bond_atom_site_label_2
_geom_bond_distance
N3 C4 1.330(2)
N3 C2 1.3482(19)
N1 C6 1.345(2)
N1 C2 1.352(2)
C10 C15 1.380(2)
C10 C11 1.382(2)
C10 C9 1.501(2)
C6 C5 1.369(2)
C6 C7 1.494(2)
O1 C9 1.284(2)
O1 H1 0.8200
O2 C9 1.219(2)
C2 N2 1.322(2)
N2 H2A 0.8600
N2 H2B 0.8600
C4 C5 1.382(2)
C4 C8 1.500(2)
C5 H5 0.9300
N4 O3 1.209(2)
N4 O4 1.213(2)
N4 C13 1.473(2)
C15 C14 1.377(2)
C15 H15 0.9300
C13 C14 1.368(3)
C13 C12 1.369(3)
C14 H14 0.9300
C11 C12 1.376(2)
C11 H11 0.9300
C12 H12 0.9300
C7 H7A 0.9600
C7 H7B 0.9600
C7 H7C 0.9600
C8 H8A 0.9600
C8 H8B 0.9600
C8 H8C 0.9600
