#------------------------------------------------------------------------------
#$Date: 2016-03-24 01:33:26 +0200 (Thu, 24 Mar 2016) $
#$Revision: 179535 $
#$URL: svn://www.crystallography.net/cod/cif/4/50/04/4500492.cif $
#------------------------------------------------------------------------------
#
# This file is available in the Crystallography Open Database (COD),
# http://www.crystallography.net/
#
# All data on this site have been placed in the public domain by the
# contributors.
#
data_4500492
loop_
_publ_author_name
'Marivel, S.'
'Arunachalam, M.'
'Ghosh, Pradyut'
_publ_section_title
;
 Binding of Polyatomic Anions with Protonated Ureido-pyridyl Ligands
;
_journal_issue                   5
_journal_name_full               'Crystal Growth &amp; Design'
_journal_page_first              1642
_journal_paper_doi               10.1021/cg101595n
_journal_volume                  11
_journal_year                    2011
_chemical_formula_sum            'C13 H13 N5 O6'
_chemical_formula_weight         335.28
_chemical_name_systematic
; 
 ? 
;
_space_group_IT_number           2
_symmetry_cell_setting           triclinic
_symmetry_space_group_name_Hall  '-P 1'
_symmetry_space_group_name_H-M   'P -1'
_atom_sites_solution_hydrogens   geom
_atom_sites_solution_primary     direct
_atom_sites_solution_secondary   difmap
_audit_creation_method           SHELXL-97
_cell_angle_alpha                103.73(1)
_cell_angle_beta                 102.17(1)
_cell_angle_gamma                102.31(1)
_cell_formula_units_Z            2
_cell_length_a                   8.256(1)
_cell_length_b                   9.084(1)
_cell_length_c                   10.619(1)
_cell_measurement_temperature    100(2)
_cell_volume                     726.62(15)
_computing_cell_refinement       'Bruker SMART'
_computing_data_collection       'Bruker SMART'
_computing_data_reduction        'Bruker SAINT'
_computing_molecular_graphics    PLATON
_computing_publication_material  'MERCURY 2.2'
_computing_structure_refinement  'SHELXL-97 (Sheldrick, 1997)'
_computing_structure_solution    'SHELXS-97 (Sheldrick, 1990)'
_diffrn_ambient_temperature      100(2)
_diffrn_measured_fraction_theta_full 0.995
_diffrn_measured_fraction_theta_max 0.995
_diffrn_radiation_monochromator  graphite
_diffrn_radiation_source         'fine-focus sealed tube'
_diffrn_radiation_type           MoK\a
_diffrn_radiation_wavelength     0.71073
_diffrn_reflns_av_R_equivalents  0.0242
_diffrn_reflns_av_sigmaI/netI    0.0255
_diffrn_reflns_limit_h_max       9
_diffrn_reflns_limit_h_min       -9
_diffrn_reflns_limit_k_max       10
_diffrn_reflns_limit_k_min       -10
_diffrn_reflns_limit_l_max       11
_diffrn_reflns_limit_l_min       -12
_diffrn_reflns_number            8465
_diffrn_reflns_theta_full        25.00
_diffrn_reflns_theta_max         25.00
_diffrn_reflns_theta_min         2.05
_exptl_absorpt_coefficient_mu    0.124
_exptl_absorpt_correction_T_max  0.9780
_exptl_absorpt_correction_T_min  0.9614
_exptl_absorpt_correction_type   multi-scan
_exptl_absorpt_process_details   SADABS
_exptl_crystal_colour            YELLOW
_exptl_crystal_density_diffrn    1.532
_exptl_crystal_density_method    'not measured'
_exptl_crystal_description       BLOCK
_exptl_crystal_F_000             348
_exptl_crystal_size_max          0.32
_exptl_crystal_size_mid          0.26
_exptl_crystal_size_min          0.18
_refine_diff_density_max         0.154
_refine_diff_density_min         -0.206
_refine_diff_density_rms         0.038
_refine_ls_extinction_method     none
_refine_ls_goodness_of_fit_ref   1.058
_refine_ls_hydrogen_treatment    mixed
_refine_ls_matrix_type           full
_refine_ls_number_parameters     269
_refine_ls_number_reflns         2545
_refine_ls_number_restraints     0
_refine_ls_restrained_S_all      1.058
_refine_ls_R_factor_all          0.0352
_refine_ls_R_factor_gt           0.0313
_refine_ls_shift/su_max          0.000
_refine_ls_shift/su_mean         0.000
_refine_ls_structure_factor_coef Fsqd
_refine_ls_weighting_details
'calc w=1/[\s^2^(Fo^2^)+(0.0609P)^2^+0.1020P] where P=(Fo^2^+2Fc^2^)/3'
_refine_ls_weighting_scheme      calc
_refine_ls_wR_factor_gt          0.0910
_refine_ls_wR_factor_ref         0.0955
_reflns_number_gt                2292
_reflns_number_total             2545
_reflns_threshold_expression     >2sigma(I)
_cod_data_source_file            cg101595n_si_002.cif
_cod_data_source_block           Complex1
_cod_depositor_comments
;
The following automatic conversions were performed:

'_symmetry_cell_setting' value 'Triclinic' changed to 'triclinic'
according to /home/saulius/struct/CIF-dictionaries/cif_core.dic
dictionary named 'cif_core.dic' version 2.4.1 from
2010-06-29.

'_exptl_absorpt_correction_type' value 'MULTI-SCAN'
changed to 'multi-scan' according to
/home/saulius/struct/CIF-dictionaries/cif_core.dic dictionary named
'cif_core.dic' version 2.4.1 from 2010-06-29.

Automatic conversion script
Id: cif_fix_values 1715 2011-07-08 13:25:40Z adriana 
;
_cod_original_cell_volume        726.62(14)
_cod_original_sg_symbol_H-M      P-1
_cod_database_code               4500492
loop_
_symmetry_equiv_pos_as_xyz
'x, y, z'
'-x, -y, -z'
loop_
_atom_site_label
_atom_site_type_symbol
_atom_site_fract_x
_atom_site_fract_y
_atom_site_fract_z
_atom_site_U_iso_or_equiv
_atom_site_adp_type
_atom_site_occupancy
_atom_site_symmetry_multiplicity
_atom_site_calc_flag
O1 O 0.51810(12) 0.57087(12) 0.73857(10) 0.0374(3) Uani 1 1 d
O2 O 0.77420(16) 1.20018(14) 1.31429(14) 0.0602(4) Uani 1 1 d
O3 O 0.58499(18) 1.11964(14) 1.41311(12) 0.0583(4) Uani 1 1 d
N1 N 0.09493(14) 0.26625(14) 0.20882(11) 0.0297(3) Uani 1 1 d
H1A H 0.055(2) 0.196(2) 0.1216(19) 0.043(4) Uiso 1 1 d
N2 N 0.28840(15) 0.35782(14) 0.68524(11) 0.0293(3) Uani 1 1 d
H2A H 0.199(2) 0.307(2) 0.7063(17) 0.046(5) Uiso 1 1 d
N3 N 0.35537(14) 0.54719(13) 0.88722(11) 0.0269(3) Uani 1 1 d
H3A H 0.267(2) 0.4836(19) 0.9010(15) 0.030(4) Uiso 1 1 d
N4 N 0.64974(16) 1.10187(14) 1.31837(13) 0.0390(3) Uani 1 1 d
C1 C 0.06945(17) 0.40930(18) 0.22124(14) 0.0328(3) Uani 1 1 d
H1 H 0.016(2) 0.428(2) 0.1399(18) 0.046(5) Uiso 1 1 d
C2 C 0.12326(18) 0.51825(17) 0.34530(15) 0.0334(3) Uani 1 1 d
H2 H 0.107(2) 0.622(2) 0.3547(17) 0.047(5) Uiso 1 1 d
C3 C 0.20286(17) 0.47920(16) 0.45630(14) 0.0296(3) Uani 1 1 d
H3 H 0.2405(18) 0.5542(18) 0.5431(15) 0.028(4) Uiso 1 1 d
C4 C 0.22773(16) 0.33029(15) 0.44126(13) 0.0263(3) Uani 1 1 d
C5 C 0.17117(16) 0.22467(16) 0.31402(13) 0.0277(3) Uani 1 1 d
H5 H 0.1812(19) 0.119(2) 0.2965(15) 0.034(4) Uiso 1 1 d
C6 C 0.31825(19) 0.28366(18) 0.55850(14) 0.0321(3) Uani 1 1 d
H6A H 0.2756(19) 0.169(2) 0.5392(15) 0.031(4) Uiso 1 1 d
H6B H 0.439(2) 0.3102(18) 0.5661(15) 0.030(4) Uiso 1 1 d
C7 C 0.39677(16) 0.49727(16) 0.76781(13) 0.0272(3) Uani 1 1 d
C8 C 0.43404(16) 0.68697(15) 0.99063(13) 0.0249(3) Uani 1 1 d
C9 C 0.57764(17) 0.80232(16) 0.99133(14) 0.0298(3) Uani 1 1 d
H9 H 0.6232(19) 0.7859(18) 0.9162(16) 0.032(4) Uiso 1 1 d
C10 C 0.64622(18) 0.93708(17) 1.09886(15) 0.0326(3) Uani 1 1 d
H10 H 0.740(2) 1.013(2) 1.0984(16) 0.038(4) Uiso 1 1 d
C11 C 0.57426(17) 0.95872(15) 1.20555(14) 0.0296(3) Uani 1 1 d
C12 C 0.43238(17) 0.84674(16) 1.20753(14) 0.0296(3) Uani 1 1 d
H12 H 0.3832(19) 0.8616(18) 1.2814(16) 0.031(4) Uiso 1 1 d
C13 C 0.36403(17) 0.71185(16) 1.10055(13) 0.0280(3) Uani 1 1 d
H13 H 0.270(2) 0.633(2) 1.1027(16) 0.038(4) Uiso 1 1 d
N5 N 0.00545(13) 0.19533(12) 0.86204(11) 0.0258(3) Uani 1 1 d
O4 O -0.01039(14) 0.14938(12) 0.73910(10) 0.0387(3) Uani 1 1 d
O5 O 0.06597(12) 0.33965(10) 0.92534(10) 0.0327(2) Uani 1 1 d
O6 O -0.03860(12) 0.09939(10) 0.92431(9) 0.0293(2) Uani 1 1 d
loop_
_atom_site_aniso_label
_atom_site_aniso_U_11
_atom_site_aniso_U_22
_atom_site_aniso_U_33
_atom_site_aniso_U_23
_atom_site_aniso_U_13
_atom_site_aniso_U_12
O1 0.0318(5) 0.0414(6) 0.0356(6) 0.0068(5) 0.0160(4) 0.0018(4)
O2 0.0466(7) 0.0345(6) 0.0811(9) -0.0136(6) 0.0316(6) -0.0060(5)
O3 0.0749(9) 0.0403(7) 0.0496(7) -0.0039(5) 0.0311(6) 0.0008(6)
N1 0.0259(6) 0.0339(7) 0.0251(6) 0.0051(5) 0.0082(4) 0.0027(5)
N2 0.0320(6) 0.0295(6) 0.0254(6) 0.0075(5) 0.0086(5) 0.0065(5)
N3 0.0254(6) 0.0276(6) 0.0269(6) 0.0085(5) 0.0085(5) 0.0040(5)
N4 0.0374(7) 0.0274(7) 0.0477(8) 0.0011(6) 0.0145(6) 0.0083(5)
C1 0.0299(7) 0.0426(8) 0.0315(8) 0.0172(6) 0.0114(6) 0.0114(6)
C2 0.0383(8) 0.0296(8) 0.0396(8) 0.0150(6) 0.0165(6) 0.0132(6)
C3 0.0352(7) 0.0247(7) 0.0277(7) 0.0051(6) 0.0110(6) 0.0065(6)
C4 0.0274(6) 0.0244(7) 0.0288(7) 0.0082(5) 0.0127(5) 0.0050(5)
C5 0.0283(6) 0.0233(7) 0.0298(7) 0.0051(5) 0.0113(5) 0.0031(5)
C6 0.0396(8) 0.0295(8) 0.0293(7) 0.0078(6) 0.0106(6) 0.0136(6)
C7 0.0255(6) 0.0298(7) 0.0277(7) 0.0109(6) 0.0066(5) 0.0088(5)
C8 0.0230(6) 0.0254(7) 0.0282(7) 0.0103(5) 0.0055(5) 0.0094(5)
C9 0.0281(7) 0.0292(7) 0.0359(8) 0.0108(6) 0.0147(6) 0.0088(5)
C10 0.0276(7) 0.0244(7) 0.0469(9) 0.0101(6) 0.0147(6) 0.0058(6)
C11 0.0282(7) 0.0227(7) 0.0370(8) 0.0062(6) 0.0073(6) 0.0101(5)
C12 0.0301(7) 0.0306(7) 0.0312(7) 0.0102(6) 0.0112(6) 0.0105(6)
C13 0.0252(6) 0.0283(7) 0.0317(7) 0.0117(6) 0.0087(5) 0.0055(6)
N5 0.0271(5) 0.0215(6) 0.0285(6) 0.0089(5) 0.0063(4) 0.0059(4)
O4 0.0550(6) 0.0323(6) 0.0251(5) 0.0091(4) 0.0117(4) 0.0029(5)
O5 0.0377(5) 0.0199(5) 0.0387(6) 0.0072(4) 0.0134(4) 0.0033(4)
O6 0.0386(5) 0.0225(5) 0.0273(5) 0.0114(4) 0.0091(4) 0.0049(4)
loop_
_atom_type_symbol
_atom_type_description
_atom_type_scat_dispersion_real
_atom_type_scat_dispersion_imag
_atom_type_scat_source
C C 0.0033 0.0016 'International Tables Vol C Tables 4.2.6.8 and 6.1.1.4'
H H 0.0000 0.0000 'International Tables Vol C Tables 4.2.6.8 and 6.1.1.4'
N N 0.0061 0.0033 'International Tables Vol C Tables 4.2.6.8 and 6.1.1.4'
O O 0.0106 0.0060 'International Tables Vol C Tables 4.2.6.8 and 6.1.1.4'
loop_
_geom_angle_atom_site_label_1
_geom_angle_atom_site_label_2
_geom_angle_atom_site_label_3
_geom_angle
C5 N1 C1 122.64(12)
C7 N2 C6 120.52(12)
C7 N3 C8 128.06(11)
O2 N4 O3 122.84(13)
O2 N4 C11 118.56(12)
O3 N4 C11 118.59(12)
N1 C1 C2 119.37(13)
C1 C2 C3 119.49(13)
C2 C3 C4 120.22(13)
C5 C4 C3 118.04(12)
C5 C4 C6 119.76(12)
C3 C4 C6 122.18(12)
N1 C5 C4 120.24(12)
N2 C6 C4 113.26(11)
O1 C7 N2 123.01(12)
O1 C7 N3 123.85(12)
N2 C7 N3 113.14(11)
N3 C8 C13 116.98(12)
N3 C8 C9 124.13(12)
C13 C8 C9 118.90(12)
C10 C9 C8 119.65(13)
C9 C10 C11 120.21(13)
C10 C11 C12 121.37(13)
C10 C11 N4 119.14(13)
C12 C11 N4 119.49(12)
C13 C12 C11 118.55(12)
C12 C13 C8 121.32(12)
O4 N5 O6 120.74(11)
O4 N5 O5 119.98(11)
O6 N5 O5 119.28(10)
loop_
_geom_bond_atom_site_label_1
_geom_bond_atom_site_label_2
_geom_bond_distance
O1 C7 1.2210(16)
O2 N4 1.2252(17)
O3 N4 1.2290(17)
N1 C5 1.3387(18)
N1 C1 1.3406(19)
N2 C7 1.3538(18)
N2 C6 1.4512(18)
N3 C7 1.3807(17)
N3 C8 1.3878(18)
N4 C11 1.4542(18)
C1 C2 1.364(2)
C2 C3 1.385(2)
C3 C4 1.3883(19)
C4 C5 1.3754(19)
C4 C6 1.5102(19)
C8 C13 1.4008(18)
C8 C9 1.4023(19)
C9 C10 1.375(2)
C10 C11 1.380(2)
C11 C12 1.386(2)
C12 C13 1.373(2)
N5 O4 1.2417(15)
N5 O6 1.2525(14)
N5 O5 1.2573(14)
