#------------------------------------------------------------------------------
#$Date: 2017-10-13 14:42:48 +0300 (Fri, 13 Oct 2017) $
#$Revision: 201982 $
#$URL: file:///home/coder/svn-repositories/cod/cif/4/50/09/4500959.cif $
#------------------------------------------------------------------------------
#
# This file is available in the Crystallography Open Database (COD),
# http://www.crystallography.net/
#
# All data on this site have been placed in the public domain by the
# contributors.
#
data_4500959
loop_
_publ_author_name
'Yakovenko, Andrey A.'
'Gallegos, Jose H.'
'Antipin, Mikhail Yu.'
'Masunov, Artem'
'Timofeeva, Tatiana V.'
_publ_section_title
;
 Crystal Morphology as an Evidence of Supramolecular Organization in
 Adducts of 1,2-Bis(chloromercurio)tetrafluorobenzene with Organic Esters
;
_journal_issue                   9
_journal_name_full               'Crystal Growth &amp; Design'
_journal_page_first              3964
_journal_paper_doi               10.1021/cg200547k
_journal_volume                  11
_journal_year                    2011
_chemical_formula_moiety         'C8 H8 O2'
_chemical_formula_sum            'C8 H8 O2'
_chemical_formula_weight         136.14
_chemical_name_systematic
; 
 ? 
;
_space_group_IT_number           19
_symmetry_cell_setting           orthorhombic
_symmetry_space_group_name_Hall  'P 2ac 2ab'
_symmetry_space_group_name_H-M   'P 21 21 21'
_atom_sites_solution_hydrogens   geom
_atom_sites_solution_primary     direct
_atom_sites_solution_secondary   difmap
_audit_creation_method           SHELXL-97
_cell_angle_alpha                90.00
_cell_angle_beta                 90.00
_cell_angle_gamma                90.00
_cell_formula_units_Z            4
_cell_length_a                   5.8124(4)
_cell_length_b                   7.5320(5)
_cell_length_c                   16.6550(11)
_cell_measurement_reflns_used    3392
_cell_measurement_temperature    100(2)
_cell_measurement_theta_max      30.18
_cell_measurement_theta_min      2.45
_cell_volume                     729.14(8)
_computing_cell_refinement       'SAINT+ ver. 6.2 (Bruker, 2001)'
_computing_data_collection       'APEX2  (Bruker, 2005)'
_computing_data_reduction        'SAINT+ ver. 6.2 (Bruker, 2001)'
_computing_molecular_graphics    'SHELXTL ver. 6.12 (Sheldrick, 2001)'
_computing_publication_material  'SHELXTL ver. 6.12 (Sheldrick, 2001)'
_computing_structure_refinement  'SHELXTL ver. 6.12 (Sheldrick, 2001)'
_computing_structure_solution    'SHELXTL ver. 6.12 (Sheldrick, 2001)'
_diffrn_ambient_temperature      100(2)
_diffrn_measured_fraction_theta_full 0.767
_diffrn_measured_fraction_theta_max 0.767
_diffrn_measurement_device_type  'Bruker SMART APEX II CCD area detector'
_diffrn_measurement_method       'omega scan'
_diffrn_radiation_monochromator  graphite
_diffrn_radiation_source         'fine-focus sealed tube'
_diffrn_radiation_type           MoK\a
_diffrn_radiation_wavelength     0.71073
_diffrn_reflns_av_R_equivalents  0.0151
_diffrn_reflns_av_sigmaI/netI    0.0096
_diffrn_reflns_limit_h_max       4
_diffrn_reflns_limit_h_min       -4
_diffrn_reflns_limit_k_max       4
_diffrn_reflns_limit_k_min       -9
_diffrn_reflns_limit_l_max       22
_diffrn_reflns_limit_l_min       -20
_diffrn_reflns_number            4845
_diffrn_reflns_theta_full        28.00
_diffrn_reflns_theta_max         28.00
_diffrn_reflns_theta_min         2.45
_exptl_absorpt_coefficient_mu    0.089
_exptl_absorpt_correction_T_max  0.9738
_exptl_absorpt_correction_T_min  0.9164
_exptl_absorpt_correction_type   multi-scan
_exptl_absorpt_process_details   'SADABS (Sheldrick, 2003)'
_exptl_crystal_colour            colorless
_exptl_crystal_density_diffrn    1.240
_exptl_crystal_density_meas      ?
_exptl_crystal_density_method    'not measured'
_exptl_crystal_description       cylinder
_exptl_crystal_F_000             288
_exptl_crystal_size_mid          0.30
_exptl_crystal_size_min          0.30
_refine_diff_density_max         0.161
_refine_diff_density_min         -0.144
_refine_diff_density_rms         0.029
_refine_ls_extinction_method     none
_refine_ls_goodness_of_fit_ref   1.038
_refine_ls_hydrogen_treatment    constr
_refine_ls_matrix_type           full
_refine_ls_number_parameters     93
_refine_ls_number_reflns         808
_refine_ls_number_restraints     0
_refine_ls_restrained_S_all      1.038
_refine_ls_R_factor_all          0.0272
_refine_ls_R_factor_gt           0.0264
_refine_ls_shift/su_max          0.000
_refine_ls_shift/su_mean         0.000
_refine_ls_structure_factor_coef Fsqd
_refine_ls_weighting_details
'calc w=1/[\s^2^(Fo^2^)+(0.0300P)^2^+0.2000P] where P=(Fo^2^+2Fc^2^)/3'
_refine_ls_weighting_scheme      calc
_refine_ls_wR_factor_gt          0.0640
_refine_ls_wR_factor_ref         0.0647
_reflns_number_gt                783
_reflns_number_total             808
_reflns_threshold_expression     I>2\s(I)
_cod_data_source_file            cg200547k_si_002.cif
_cod_data_source_block           4
_cod_depositor_comments
;
The following automatic conversions were performed:

'_symmetry_cell_setting' value 'Orthorhombic' changed to
'orthorhombic' according to
/home/saulius/struct/CIF-dictionaries/cif_core.dic dictionary named
'cif_core.dic' version 2.4.1 from 2010-06-29.

Automatic conversion script
Id: cif_fix_values 1715 2011-07-08 13:25:40Z adriana 

The following automatic conversions were performed:

'_exptl_crystal_density_meas' value 'not measured' was changed to '?'
- the value is perceived as not measured.

Automatic conversion script
Id: cif_fix_values 3008 2015-01-20 13:52:24Z robertas 
;
_cod_database_code               4500959
loop_
_symmetry_equiv_pos_as_xyz
'x, y, z'
'-x+1/2, -y, z+1/2'
'-x, y+1/2, -z+1/2'
'x+1/2, -y+1/2, -z'
loop_
_atom_site_label
_atom_site_type_symbol
_atom_site_fract_x
_atom_site_fract_y
_atom_site_fract_z
_atom_site_U_iso_or_equiv
_atom_site_adp_type
_atom_site_occupancy
_atom_site_symmetry_multiplicity
_atom_site_calc_flag
_atom_site_refinement_flags
O1 O -0.1819(3) -0.37436(15) -0.44529(6) 0.0312(4) Uani 1 1 d .
O2 O 0.0735(3) -0.57887(15) -0.48763(6) 0.0271(4) Uani 1 1 d .
C1 C -0.0843(3) -0.44739(19) -0.49916(8) 0.0219(4) Uani 1 1 d .
C2 C -0.1155(4) -0.4106(2) -0.58701(8) 0.0277(5) Uani 1 1 d .
H2A H -0.2394 -0.3239 -0.5943 0.041 Uiso 1 1 calc R
H2B H -0.1552 -0.5210 -0.6149 0.041 Uiso 1 1 calc R
H2C H 0.0279 -0.3628 -0.6092 0.041 Uiso 1 1 calc R
C3 C 0.1150(4) -0.63322(19) -0.40773(8) 0.0211(4) Uani 1 1 d .
C4 C -0.0480(4) -0.7345(2) -0.36835(9) 0.0243(4) Uani 1 1 d .
H4A H -0.1904 -0.7628 -0.3933 0.029 Uiso 1 1 calc R
C5 C 0.0024(4) -0.7940(2) -0.29080(9) 0.0259(5) Uani 1 1 d .
H5A H -0.1076 -0.8627 -0.2623 0.031 Uiso 1 1 calc R
C6 C 0.2101(4) -0.75394(19) -0.25546(8) 0.0253(5) Uani 1 1 d .
H6A H 0.2427 -0.7950 -0.2027 0.030 Uiso 1 1 calc R
C7 C 0.3721(4) -0.6538(2) -0.29666(9) 0.0245(5) Uani 1 1 d .
H7A H 0.5159 -0.6272 -0.2723 0.029 Uiso 1 1 calc R
C8 C 0.3235(4) -0.59204(19) -0.37399(9) 0.0230(5) Uani 1 1 d .
H8B H 0.4328 -0.5229 -0.4026 0.028 Uiso 1 1 calc R
loop_
_atom_site_aniso_label
_atom_site_aniso_U_11
_atom_site_aniso_U_22
_atom_site_aniso_U_33
_atom_site_aniso_U_23
_atom_site_aniso_U_13
_atom_site_aniso_U_12
O1 0.0332(11) 0.0353(6) 0.0252(5) -0.0007(5) 0.0044(5) 0.0120(6)
O2 0.0321(10) 0.0304(5) 0.0189(4) 0.0015(4) 0.0046(5) 0.0093(6)
C1 0.0231(14) 0.0202(6) 0.0223(6) 0.0001(5) -0.0003(7) -0.0032(7)
C2 0.0376(15) 0.0238(7) 0.0216(6) 0.0017(5) -0.0019(7) -0.0018(8)
C3 0.0229(14) 0.0215(6) 0.0189(6) -0.0007(5) 0.0038(7) 0.0041(7)
C4 0.0178(14) 0.0284(7) 0.0267(6) -0.0008(6) 0.0000(7) -0.0021(8)
C5 0.0261(16) 0.0252(7) 0.0264(7) 0.0024(6) 0.0072(7) -0.0028(8)
C6 0.0310(15) 0.0244(7) 0.0204(6) 0.0000(5) 0.0000(7) 0.0044(8)
C7 0.0179(15) 0.0267(7) 0.0288(7) -0.0066(6) -0.0017(7) 0.0012(8)
C8 0.0211(15) 0.0205(6) 0.0275(7) -0.0018(5) 0.0077(7) -0.0008(7)
loop_
_atom_type_symbol
_atom_type_description
_atom_type_scat_dispersion_real
_atom_type_scat_dispersion_imag
_atom_type_scat_source
C C 0.0033 0.0000 'International Tables Vol C Tables 4.2.6.8 and 6.1.1.4'
H H 0.0000 0.0000 'International Tables Vol C Tables 4.2.6.8 and 6.1.1.4'
O O 0.0106 0.0000 'International Tables Vol C Tables 4.2.6.8 and 6.1.1.4'
loop_
_geom_angle_atom_site_label_1
_geom_angle_atom_site_label_2
_geom_angle_atom_site_label_3
_geom_angle
C1 O2 C3 117.26(12)
O1 C1 O2 123.21(13)
O1 C1 C2 126.14(16)
O2 C1 C2 110.66(13)
C1 C2 H2A 109.5
C1 C2 H2B 109.5
H2A C2 H2B 109.5
C1 C2 H2C 109.5
H2A C2 H2C 109.5
H2B C2 H2C 109.5
C8 C3 C4 122.42(14)
C8 C3 O2 118.12(15)
C4 C3 O2 119.33(17)
C3 C4 C5 118.16(18)
C3 C4 H4A 120.9
C5 C4 H4A 120.9
C6 C5 C4 120.54(16)
C6 C5 H5A 119.7
C4 C5 H5A 119.7
C5 C6 C7 120.19(14)
C5 C6 H6A 119.9
C7 C6 H6A 119.9
C6 C7 C8 119.92(18)
C6 C7 H7A 120.0
C8 C7 H7A 120.0
C3 C8 C7 118.76(16)
C3 C8 H8B 120.6
C7 C8 H8B 120.6
loop_
_geom_bond_atom_site_label_1
_geom_bond_atom_site_label_2
_geom_bond_distance
O1 C1 1.1956(19)
O2 C1 1.363(2)
O2 C3 1.4130(16)
C1 C2 1.5001(18)
C2 H2A 0.9800
C2 H2B 0.9800
C2 H2C 0.9800
C3 C8 1.371(3)
C3 C4 1.382(2)
C4 C5 1.398(2)
C4 H4A 0.9500
C5 C6 1.377(3)
C5 H5A 0.9500
C6 C7 1.388(3)
C6 H6A 0.9500
C7 C8 1.398(2)
C7 H7A 0.9500
C8 H8B 0.9500
loop_
_geom_torsion_atom_site_label_1
_geom_torsion_atom_site_label_2
_geom_torsion_atom_site_label_3
_geom_torsion_atom_site_label_4
_geom_torsion
C3 O2 C1 O1 2.2(3)
C3 O2 C1 C2 -177.64(15)
C1 O2 C3 C8 -110.30(17)
C1 O2 C3 C4 73.67(19)
C8 C3 C4 C5 1.0(2)
O2 C3 C4 C5 176.82(14)
C3 C4 C5 C6 -0.7(2)
C4 C5 C6 C7 0.0(2)
C5 C6 C7 C8 0.6(2)
C4 C3 C8 C7 -0.5(2)
O2 C3 C8 C7 -176.36(13)
C6 C7 C8 C3 -0.3(2)
loop_
_cod_related_entry_id
_cod_related_entry_database
_cod_related_entry_code
1 ChemSpider 28969
