#------------------------------------------------------------------------------
#$Date: 2016-03-24 01:31:19 +0200 (Thu, 24 Mar 2016) $
#$Revision: 179533 $
#$URL: svn://www.crystallography.net/cod/cif/4/50/02/4500233.cif $
#------------------------------------------------------------------------------
#
# This file is available in the Crystallography Open Database (COD),
# http://www.crystallography.net/
#
# All data on this site have been placed in the public domain by the
# contributors.
#
data_4500233
loop_
_publ_author_name
'Singh, Amit'
'Ramanan, Arunachalam'
'Bandyopadhyay, Debkumar'
_publ_section_title
;
 Link between Isostructurality, Polymorphism, and Weak Interactions in
 Palladacycle Crystals: Chemical Insight
;
_journal_issue                   7
_journal_name_full               'Crystal Growth &amp; Design'
_journal_page_first              2743
_journal_paper_doi               10.1021/cg101289s
_journal_volume                  11
_journal_year                    2011
_chemical_formula_moiety         'C14 H13 Cl N2 Pd S'
_chemical_formula_sum            'C14 H13 Cl N2 Pd S'
_chemical_formula_weight         383.18
_chemical_name_systematic
; 
 ? 
;
_space_group_IT_number           2
_symmetry_cell_setting           triclinic
_symmetry_space_group_name_Hall  '-P 1'
_symmetry_space_group_name_H-M   'P -1'
_atom_sites_solution_hydrogens   geom
_atom_sites_solution_primary     direct
_atom_sites_solution_secondary   difmap
_audit_creation_method           SHELXL-97
_cell_angle_alpha                105.26(2)
_cell_angle_beta                 93.73(2)
_cell_angle_gamma                97.35(2)
_cell_formula_units_Z            2
_cell_length_a                   7.398(10)
_cell_length_b                   8.812(12)
_cell_length_c                   11.091(15)
_cell_measurement_reflns_used    4959
_cell_measurement_temperature    298(2)
_cell_measurement_theta_max      28.37
_cell_measurement_theta_min      2.42
_cell_volume                     688.1(16)
_computing_cell_refinement       'Bruker SMART'
_computing_data_collection       'Bruker SMART'
_computing_data_reduction        'Bruker SAINT'
_computing_molecular_graphics    'Bruker SHELXTL'
_computing_publication_material  'Bruker SHELXTL'
_computing_structure_refinement  'SHELXL-97 (Sheldrick, 1997)'
_computing_structure_solution    'SHELXS-97 (Sheldrick, 1990)'
_diffrn_ambient_temperature      298(2)
_diffrn_measured_fraction_theta_full 0.997
_diffrn_measured_fraction_theta_max 0.997
_diffrn_measurement_device_type  'CCD area detector'
_diffrn_measurement_method       'phi and omega scans'
_diffrn_radiation_monochromator  graphite
_diffrn_radiation_source         'fine-focus sealed tube'
_diffrn_radiation_type           MoK\a
_diffrn_radiation_wavelength     0.71073
_diffrn_reflns_av_R_equivalents  0.0188
_diffrn_reflns_av_sigmaI/netI    0.0366
_diffrn_reflns_limit_h_max       8
_diffrn_reflns_limit_h_min       -8
_diffrn_reflns_limit_k_max       10
_diffrn_reflns_limit_k_min       -10
_diffrn_reflns_limit_l_max       13
_diffrn_reflns_limit_l_min       -8
_diffrn_reflns_number            3220
_diffrn_reflns_theta_full        25.00
_diffrn_reflns_theta_max         25.00
_diffrn_reflns_theta_min         1.91
_exptl_absorpt_coefficient_mu    1.679
_exptl_absorpt_correction_T_max  0.739
_exptl_absorpt_correction_T_min  0.675
_exptl_absorpt_correction_type   multi-scan
_exptl_absorpt_process_details   SADABS
_exptl_crystal_colour            Red
_exptl_crystal_density_diffrn    1.852
_exptl_crystal_density_meas      1.849
_exptl_crystal_density_method    'not measured'
_exptl_crystal_description       Block
_exptl_crystal_F_000             380
_exptl_crystal_size_max          0.38
_exptl_crystal_size_mid          0.20
_exptl_crystal_size_min          0.18
_refine_diff_density_max         0.486
_refine_diff_density_min         -1.224
_refine_diff_density_rms         0.166
_refine_ls_extinction_method     none
_refine_ls_goodness_of_fit_ref   1.149
_refine_ls_hydrogen_treatment    constr
_refine_ls_matrix_type           full
_refine_ls_number_parameters     174
_refine_ls_number_reflns         2400
_refine_ls_number_restraints     0
_refine_ls_restrained_S_all      1.149
_refine_ls_R_factor_all          0.0354
_refine_ls_R_factor_gt           0.0350
_refine_ls_shift/su_max          0.001
_refine_ls_shift/su_mean         0.000
_refine_ls_structure_factor_coef Fsqd
_refine_ls_weighting_details
'calc w=1/[\s^2^(Fo^2^)+(0.0610P)^2^+1.1130P] where P=(Fo^2^+2Fc^2^)/3'
_refine_ls_weighting_scheme      calc
_refine_ls_wR_factor_gt          0.1083
_refine_ls_wR_factor_ref         0.1102
_reflns_number_gt                2177
_reflns_number_total             2400
_reflns_threshold_expression     >2sigma(I)
_cod_data_source_file            cg101289s_si_002.cif
_cod_data_source_block           3a
_cod_depositor_comments
;
The following automatic conversions were performed:

'_symmetry_cell_setting' value 'Triclinic' changed to 'triclinic'
according to /home/saulius/struct/CIF-dictionaries/cif_core.dic
dictionary named 'cif_core.dic' version 2.4.1 from 2010-06-29.

Automatic conversion script
Id: cif_fix_values 1715 2011-07-08 13:25:40Z adriana 
;
_cod_original_sg_symbol_H-M      P-1
_cod_database_code               4500233
loop_
_symmetry_equiv_pos_as_xyz
'x, y, z'
'-x, -y, -z'
loop_
_atom_site_label
_atom_site_type_symbol
_atom_site_fract_x
_atom_site_fract_y
_atom_site_fract_z
_atom_site_U_iso_or_equiv
_atom_site_adp_type
_atom_site_occupancy
_atom_site_symmetry_multiplicity
_atom_site_calc_flag
_atom_site_refinement_flags
Pd1 Pd 0.71527(5) 0.68364(4) 0.89645(3) 0.03065(18) Uani 1 1 d .
Cl1 Cl 0.6891(3) 0.81017(17) 0.74157(13) 0.0558(4) Uani 1 1 d .
S1 S 0.61120(18) 0.87557(14) 1.06288(11) 0.0353(3) Uani 1 1 d .
N2 N 0.7351(5) 0.5593(5) 1.0196(4) 0.0287(8) Uani 1 1 d .
N1 N 0.7770(5) 0.4202(5) 0.9860(4) 0.0341(9) Uani 1 1 d .
C1 C 0.8077(6) 0.3778(5) 0.8613(5) 0.0334(10) Uani 1 1 d .
C2 C 0.7893(7) 0.4871(5) 0.7905(5) 0.0336(11) Uani 1 1 d .
C3 C 0.8145(7) 0.4402(6) 0.6649(5) 0.0362(11) Uani 1 1 d .
H3 H 0.8030 0.5109 0.6167 0.043 Uiso 1 1 calc R
C4 C 0.8570(7) 0.2886(6) 0.6075(5) 0.0419(12) Uani 1 1 d .
C5 C 0.8755(7) 0.1840(6) 0.6780(5) 0.0412(12) Uani 1 1 d .
H5 H 0.9053 0.0841 0.6406 0.049 Uiso 1 1 calc R
C6 C 0.8502(7) 0.2260(6) 0.8046(5) 0.0415(12) Uani 1 1 d .
H6 H 0.8614 0.1540 0.8518 0.050 Uiso 1 1 calc R
C7 C 0.6972(6) 0.6215(6) 1.1455(4) 0.0312(10) Uani 1 1 d .
C8 C 0.6429(6) 0.7724(6) 1.1786(4) 0.0323(10) Uani 1 1 d .
C9 C 0.6036(7) 0.8387(7) 1.3022(5) 0.0405(12) Uani 1 1 d .
H9 H 0.5648 0.9377 1.3244 0.049 Uiso 1 1 calc R
C10 C 0.6230(7) 0.7567(7) 1.3884(5) 0.0467(13) Uani 1 1 d .
H10 H 0.6039 0.8026 1.4713 0.056 Uiso 1 1 calc R
C11 C 0.6709(8) 0.6048(7) 1.3550(5) 0.0467(13) Uani 1 1 d .
H11 H 0.6771 0.5480 1.4145 0.056 Uiso 1 1 calc R
C12 C 0.7092(7) 0.5380(6) 1.2348(5) 0.0392(11) Uani 1 1 d .
H12 H 0.7431 0.4370 1.2133 0.047 Uiso 1 1 calc R
C13 C 0.7801(10) 1.0503(6) 1.1199(6) 0.0547(15) Uani 1 1 d .
H13A H 0.7617 1.1041 1.2045 0.082 Uiso 1 1 calc R
H13B H 0.7687 1.1200 1.0673 0.082 Uiso 1 1 calc R
H13C H 0.9003 1.0201 1.1186 0.082 Uiso 1 1 calc R
C14 C 0.8790(9) 0.2407(7) 0.4690(6) 0.0568(16) Uani 1 1 d .
H14A H 0.9995 0.2837 0.4555 0.085 Uiso 1 1 calc R
H14B H 0.7891 0.2812 0.4247 0.085 Uiso 1 1 calc R
H14C H 0.8623 0.1268 0.4387 0.085 Uiso 1 1 calc R
loop_
_atom_site_aniso_label
_atom_site_aniso_U_11
_atom_site_aniso_U_22
_atom_site_aniso_U_33
_atom_site_aniso_U_23
_atom_site_aniso_U_13
_atom_site_aniso_U_12
Pd1 0.0405(3) 0.0222(2) 0.0276(2) 0.00376(16) 0.00314(17) 0.00555(16)
Cl1 0.0977(12) 0.0367(7) 0.0395(7) 0.0156(6) 0.0132(7) 0.0197(7)
S1 0.0449(7) 0.0295(6) 0.0310(6) 0.0047(5) 0.0037(5) 0.0117(5)
N2 0.0280(19) 0.0269(19) 0.031(2) 0.0082(16) 0.0054(16) 0.0021(15)
N1 0.032(2) 0.030(2) 0.043(2) 0.0128(18) 0.0068(18) 0.0056(17)
C1 0.032(2) 0.026(2) 0.040(3) 0.006(2) 0.003(2) 0.0043(19)
C2 0.035(2) 0.025(2) 0.036(2) 0.002(2) -0.002(2) -0.0002(19)
C3 0.042(3) 0.029(2) 0.037(3) 0.009(2) 0.008(2) 0.001(2)
C4 0.035(3) 0.038(3) 0.043(3) -0.006(2) 0.009(2) 0.004(2)
C5 0.039(3) 0.027(2) 0.054(3) 0.005(2) 0.014(2) 0.005(2)
C6 0.040(3) 0.032(3) 0.052(3) 0.008(2) 0.007(2) 0.011(2)
C7 0.027(2) 0.037(2) 0.030(2) 0.009(2) 0.0041(19) 0.0035(19)
C8 0.030(2) 0.035(2) 0.031(2) 0.007(2) 0.0029(19) 0.0030(19)
C9 0.041(3) 0.042(3) 0.034(3) 0.003(2) 0.006(2) 0.004(2)
C10 0.039(3) 0.068(4) 0.031(3) 0.010(3) 0.011(2) 0.005(3)
C11 0.050(3) 0.058(3) 0.036(3) 0.023(3) 0.004(2) 0.004(3)
C12 0.039(3) 0.038(3) 0.041(3) 0.016(2) 0.000(2) 0.003(2)
C13 0.075(4) 0.032(3) 0.049(3) 0.006(2) -0.009(3) -0.003(3)
C14 0.065(4) 0.048(3) 0.048(3) -0.007(3) 0.021(3) 0.007(3)
loop_
_atom_type_symbol
_atom_type_description
_atom_type_scat_dispersion_real
_atom_type_scat_dispersion_imag
_atom_type_scat_source
C C 0.0033 0.0016 'International Tables Vol C Tables 4.2.6.8 and 6.1.1.4'
H H 0.0000 0.0000 'International Tables Vol C Tables 4.2.6.8 and 6.1.1.4'
N N 0.0061 0.0033 'International Tables Vol C Tables 4.2.6.8 and 6.1.1.4'
S S 0.1246 0.1234 'International Tables Vol C Tables 4.2.6.8 and 6.1.1.4'
Cl Cl 0.1484 0.1585 'International Tables Vol C Tables 4.2.6.8 and 6.1.1.4'
Pd Pd -0.9988 1.0072 'International Tables Vol C Tables 4.2.6.8 and 6.1.1.4'
loop_
_geom_angle_atom_site_label_1
_geom_angle_atom_site_label_2
_geom_angle_atom_site_label_3
_geom_angle
N2 Pd1 C2 79.3(2)
N2 Pd1 Cl1 175.65(11)
C2 Pd1 Cl1 96.71(18)
N2 Pd1 S1 85.25(16)
C2 Pd1 S1 164.10(16)
Cl1 Pd1 S1 98.64(11)
C8 S1 C13 102.3(3)
C8 S1 Pd1 95.63(19)
C13 S1 Pd1 111.0(2)
N1 N2 C7 119.0(4)
N1 N2 Pd1 120.1(3)
C7 N2 Pd1 120.8(3)
N2 N1 C1 111.6(4)
N1 C1 C6 120.5(5)
N1 C1 C2 118.8(4)
C6 C1 C2 120.6(5)
C3 C2 C1 117.8(4)
C3 C2 Pd1 131.9(4)
C1 C2 Pd1 110.1(4)
C2 C3 C4 121.9(5)
C2 C3 H3 119.0
C4 C3 H3 119.0
C5 C4 C3 119.5(5)
C5 C4 C14 120.4(5)
C3 C4 C14 120.2(5)
C4 C5 C6 120.5(5)
C4 C5 H5 119.7
C6 C5 H5 119.7
C5 C6 C1 119.7(5)
C5 C6 H6 120.2
C1 C6 H6 120.2
C12 C7 C8 119.5(5)
C12 C7 N2 122.6(4)
C8 C7 N2 117.9(4)
C7 C8 C9 119.9(5)
C7 C8 S1 120.2(4)
C9 C8 S1 119.8(4)
C10 C9 C8 119.2(5)
C10 C9 H9 120.4
C8 C9 H9 120.4
C9 C10 C11 121.1(5)
C9 C10 H10 119.5
C11 C10 H10 119.5
C12 C11 C10 120.5(5)
C12 C11 H11 119.8
C10 C11 H11 119.8
C11 C12 C7 119.8(5)
C11 C12 H12 120.1
C7 C12 H12 120.1
S1 C13 H13A 109.5
S1 C13 H13B 109.5
H13A C13 H13B 109.5
S1 C13 H13C 109.5
H13A C13 H13C 109.5
H13B C13 H13C 109.5
C4 C14 H14A 109.5
C4 C14 H14B 109.5
H14A C14 H14B 109.5
C4 C14 H14C 109.5
H14A C14 H14C 109.5
H14B C14 H14C 109.5
loop_
_geom_bond_atom_site_label_1
_geom_bond_atom_site_label_2
_geom_bond_distance
Pd1 N2 1.972(4)
Pd1 C2 1.983(5)
Pd1 Cl1 2.292(3)
Pd1 S1 2.395(2)
S1 C8 1.777(5)
S1 C13 1.795(6)
N2 N1 1.269(6)
N2 C7 1.420(6)
N1 C1 1.377(7)
C1 C6 1.406(7)
C1 C2 1.407(7)
C2 C3 1.378(8)
C3 C4 1.406(7)
C3 H3 0.9300
C4 C5 1.370(8)
C4 C14 1.507(8)
C5 C6 1.387(8)
C5 H5 0.9300
C6 H6 0.9300
C7 C12 1.385(7)
C7 C8 1.401(7)
C8 C9 1.407(7)
C9 C10 1.352(8)
C9 H9 0.9300
C10 C11 1.390(9)
C10 H10 0.9300
C11 C12 1.372(8)
C11 H11 0.9300
C12 H12 0.9300
C13 H13A 0.9600
C13 H13B 0.9600
C13 H13C 0.9600
C14 H14A 0.9600
C14 H14B 0.9600
C14 H14C 0.9600
loop_
_geom_torsion_atom_site_label_1
_geom_torsion_atom_site_label_2
_geom_torsion_atom_site_label_3
_geom_torsion_atom_site_label_4
_geom_torsion
N2 Pd1 S1 C8 3.78(18)
C2 Pd1 S1 C8 17.0(5)
Cl1 Pd1 S1 C8 -178.18(17)
N2 Pd1 S1 C13 109.2(3)
C2 Pd1 S1 C13 122.5(5)
Cl1 Pd1 S1 C13 -72.7(2)
C2 Pd1 N2 N1 -1.7(4)
S1 Pd1 N2 N1 174.7(4)
C2 Pd1 N2 C7 -179.5(4)
S1 Pd1 N2 C7 -3.2(3)
C7 N2 N1 C1 179.4(4)
Pd1 N2 N1 C1 1.5(5)
N2 N1 C1 C6 -178.0(4)
N2 N1 C1 C2 -0.3(6)
N1 C1 C2 C3 -177.8(5)
C6 C1 C2 C3 -0.1(7)
N1 C1 C2 Pd1 -1.0(6)
C6 C1 C2 Pd1 176.7(4)
N2 Pd1 C2 C3 177.5(5)
Cl1 Pd1 C2 C3 -0.8(5)
S1 Pd1 C2 C3 164.0(3)
N2 Pd1 C2 C1 1.3(3)
Cl1 Pd1 C2 C1 -177.0(3)
S1 Pd1 C2 C1 -12.2(8)
C1 C2 C3 C4 0.1(8)
Pd1 C2 C3 C4 -175.9(4)
C2 C3 C4 C5 -0.5(8)
C2 C3 C4 C14 178.5(5)
C3 C4 C5 C6 0.9(8)
C14 C4 C5 C6 -178.1(5)
C4 C5 C6 C1 -0.9(8)
N1 C1 C6 C5 178.1(5)
C2 C1 C6 C5 0.5(8)
N1 N2 C7 C12 2.0(7)
Pd1 N2 C7 C12 179.9(4)
N1 N2 C7 C8 -177.1(4)
Pd1 N2 C7 C8 0.8(6)
C12 C7 C8 C9 0.8(7)
N2 C7 C8 C9 179.9(4)
C12 C7 C8 S1 -175.6(4)
N2 C7 C8 S1 3.5(6)
C13 S1 C8 C7 -117.8(5)
Pd1 S1 C8 C7 -4.9(4)
C13 S1 C8 C9 65.7(5)
Pd1 S1 C8 C9 178.7(4)
C7 C8 C9 C10 1.5(8)
S1 C8 C9 C10 178.0(4)
C8 C9 C10 C11 -3.6(8)
C9 C10 C11 C12 3.5(9)
C10 C11 C12 C7 -1.0(9)
C8 C7 C12 C11 -1.1(8)
N2 C7 C12 C11 179.9(5)
