#------------------------------------------------------------------------------
#$Date: 2016-03-24 01:56:44 +0200 (Thu, 24 Mar 2016) $
#$Revision: 179547 $
#$URL: svn://www.crystallography.net/cod/cif/4/50/16/4501699.cif $
#------------------------------------------------------------------------------
#
# This file is available in the Crystallography Open Database (COD),
# http://www.crystallography.net/
#
# All data on this site have been placed in the public domain by the
# contributors.
#
data_4501699
loop_
_publ_author_name
'Szafra\'nski, Marek'
'Katrusiak, Andrzej'
'McIntyre, Garry J.'
_publ_section_title
;
 Proton Disorder in NH&#x00B7;&#x00B7;&#x00B7;N Bonded
 [dabcoH]+I&#x2212;Relaxor: New Insights into H-Disordering in a
 One-Dimensional H2O Ice Analogue
;
_journal_issue                   10
_journal_name_full               'Crystal Growth &amp; Design'
_journal_page_first              4334
_journal_paper_doi               10.1021/cg100247g
_journal_volume                  10
_journal_year                    2010
_chemical_formula_sum            'C6 H13 I N2'
_chemical_formula_weight         240.09
_chemical_name_common            'dabco hydroiodide'
_chemical_name_systematic
; 
 1,4-diazabicyclo[2.2.2]octane hydroiodide  
;
_space_group_IT_number           187
_symmetry_cell_setting           hexagonal
_symmetry_space_group_name_Hall  'P -6 2'
_symmetry_space_group_name_H-M   'P -6 m 2'
_atom_sites_solution_hydrogens   difmap
_atom_sites_solution_primary     direct
_atom_sites_solution_secondary   difmap
_audit_creation_method           SHELXL-97
_cell_angle_alpha                90.00
_cell_angle_beta                 90.00
_cell_angle_gamma                120.00
_cell_formula_units_Z            1
_cell_length_a                   7.022(5)
_cell_length_b                   7.022(5)
_cell_length_c                   5.320(3)
_cell_measurement_reflns_used    661
_cell_measurement_temperature    16.0(2)
_cell_measurement_theta_max      51.69
_cell_measurement_theta_min      3.90
_cell_volume                     227.2(3)
_computing_cell_refinement       'RAFD9 (local program)'
_computing_data_collection       'MAD (Barthelemy, 1984)'
_computing_data_reduction        'RACER (Wilkinson et al, 1988), DATAP'
_computing_molecular_graphics    'SHELXTL-PLUS (Sheldrick, 1995)'
_computing_publication_material  'SHELXL-97 (Sheldrick, 1997)'
_computing_structure_refinement  'SHELXL-97 (Sheldrick, 1997)'
_computing_structure_solution    'SHELXS-97 (Sheldrick, 1997)'
_diffrn_ambient_temperature      16.0(2)
_diffrn_detector_area_resol_mean 0.3
_diffrn_measured_fraction_theta_full 0.997
_diffrn_measured_fraction_theta_max 0.997
_diffrn_measurement_device       'diffractometer D9 in four-circle mode'
_diffrn_measurement_method       '\w-x-\q scans'
_diffrn_radiation_monochromator  'Cu(220) crystal in transmission'
_diffrn_radiation_probe          neutron
_diffrn_radiation_source
'HFR at the Institut Laue Langevin reactor, Grenoble'
_diffrn_radiation_type           'hot neutrons'
_diffrn_radiation_wavelength     0.8372
_diffrn_reflns_av_R_equivalents  0.0249
_diffrn_reflns_av_sigmaI/netI    0.0265
_diffrn_reflns_limit_h_max       11
_diffrn_reflns_limit_h_min       -1
_diffrn_reflns_limit_k_max       8
_diffrn_reflns_limit_k_min       -12
_diffrn_reflns_limit_l_max       9
_diffrn_reflns_limit_l_min       -5
_diffrn_reflns_number            990
_diffrn_reflns_theta_full        50.21
_diffrn_reflns_theta_max         50.21
_diffrn_reflns_theta_min         3.92
_diffrn_standards_decay_%        0
_diffrn_standards_interval_count 50
_diffrn_standards_number         1
_exptl_absorpt_coefficient_mu    '0.20823 mm-1'
_exptl_absorpt_correction_T_max  0.7318
_exptl_absorpt_correction_T_min  0.5764
_exptl_absorpt_correction_type
'Gaussian integration using calculated mu = 0.20823 mm-1'
_exptl_crystal_colour            colourless
_exptl_crystal_density_diffrn    1.755
_exptl_crystal_density_method    'not measured'
_exptl_crystal_description       'trapezoidal plate'
_exptl_crystal_F_000             15.3
_exptl_crystal_size_max          3.1
_exptl_crystal_size_mid          1.8
_exptl_crystal_size_min          1.8
_refine_diff_density_max         1.280
_refine_diff_density_min         -0.527
_refine_diff_density_rms         0.125
_refine_ls_abs_structure_details 'Flack H D (1983), Acta Cryst. A39, 876-881'
_refine_ls_abs_structure_Flack   0
_refine_ls_extinction_coef       0.124(14)
_refine_ls_extinction_expression Fc^*^=kFc[1+0.001xFc^2^\l^3^/sin(2\q)]^-1/4^
_refine_ls_extinction_method     SHELXL
_refine_ls_goodness_of_fit_ref   1.153
_refine_ls_hydrogen_treatment    'refined with anisotropic Uij'
_refine_ls_matrix_type           full
_refine_ls_number_parameters     25
_refine_ls_number_reflns         567
_refine_ls_number_restraints     0
_refine_ls_restrained_S_all      1.153
_refine_ls_R_factor_all          0.0250
_refine_ls_R_factor_gt           0.0241
_refine_ls_shift/su_max          0.000
_refine_ls_shift/su_mean         0.000
_refine_ls_structure_factor_coef Fsqd
_refine_ls_weighting_details
'calc w=1/[\s^2^(Fo^2^)+(0.0241P)^2^+0.1940P] where P=(Fo^2^+2Fc^2^)/3'
_refine_ls_weighting_scheme      calc
_refine_ls_wR_factor_gt          0.0537
_refine_ls_wR_factor_ref         0.0540
_reflns_number_gt                558
_reflns_number_total             567
_reflns_threshold_expression     >2sigma(I)
_cod_data_source_file            cg100247g_si_002.cif
_cod_data_source_block           dabcoHI16_dabcoHI_@_16.0_K_dhi03
_cod_depositor_comments
;
The following automatic conversions were performed:
'_atom_site_symetry_multiplicity' tag replaced with
'_atom_site_symmetry_multiplicity'.

Automatic conversion script
Id: cif_correct_tags 1440 2010-10-19 06:21:57Z saulius 
;
_cod_original_sg_symbol_H-M      P-6m2
_cod_database_code               4501699
loop_
_symmetry_equiv_pos_as_xyz
'x, y, z'
'-y, x-y, z'
'-x+y, -x, z'
'x, y, -z'
'-y, x-y, -z'
'-x+y, -x, -z'
'-y, -x, z'
'-x+y, y, z'
'x, x-y, z'
'-y, -x, -z'
'-x+y, y, -z'
'x, x-y, -z'
loop_
_atom_site_label
_atom_site_type_symbol
_atom_site_fract_x
_atom_site_fract_y
_atom_site_fract_z
_atom_site_U_iso_or_equiv
_atom_site_adp_type
_atom_site_occupancy
_atom_site_symmetry_multiplicity
_atom_site_calc_flag
_atom_site_refinement_flags
I1 I 0.0000 0.0000 1.0000 0.00279(17) Uani 1 12 d S
N1 N 0.3333 0.6667 0.73765(10) 0.00537(10) Uani 1 6 d S
H1 H 0.3333 0.6667 0.9543(6) 0.0142(6) Uani 0.50 6 d SP
C1 C 0.10245(8) 0.55122(4) 0.64494(9) 0.00688(9) Uani 1 2 d S
H2 H 0.02293(17) 0.6393(2) 0.72068(18) 0.0244(2) Uani 1 1 d .
loop_
_atom_site_aniso_label
_atom_site_aniso_U_11
_atom_site_aniso_U_22
_atom_site_aniso_U_33
_atom_site_aniso_U_23
_atom_site_aniso_U_13
_atom_site_aniso_U_12
I1 0.0027(2) 0.0027(2) 0.0030(4) 0.000 0.000 0.00135(12)
N1 0.00506(12) 0.00506(12) 0.00600(17) 0.000 0.000 0.00253(6)
H1 0.0167(8) 0.0167(8) 0.0093(13) 0.000 0.000 0.0083(4)
C1 0.00432(16) 0.00650(13) 0.00910(16) -0.00002(7) -0.00005(13) 0.00216(8)
H2 0.0200(4) 0.0326(5) 0.0273(3) -0.0070(4) 0.0002(3) 0.0182(4)
loop_
_atom_type_symbol
_atom_type_description
_atom_type_scat_dispersion_real
_atom_type_scat_dispersion_imag
_atom_type_scat_source
C C 0.0000 0.0000 'International Tables Vol C Tables 4.2.6.8 and 6.1.1.4'
H H 0.0000 0.0000 'International Tables Vol C Tables 4.2.6.8 and 6.1.1.4'
N N 0.0000 0.0000 'International Tables Vol C Tables 4.2.6.8 and 6.1.1.4'
I I 0.0000 0.0000 'International Tables Vol C Tables 4.2.6.8 and 6.1.1.4'
loop_
_geom_angle_atom_site_label_1
_geom_angle_atom_site_label_2
_geom_angle_atom_site_label_3
_geom_angle
_geom_angle_site_symmetry_1
_geom_angle_site_symmetry_3
C1 N1 C1 109.59(3) . 3_565
C1 N1 C1 109.59(3) . 2_665
C1 N1 C1 109.59(3) 3_565 2_665
C1 N1 H1 109.36(3) . .
C1 N1 H1 109.36(3) 3_565 .
C1 N1 H1 109.36(3) 2_665 .
N1 C1 C1 109.36(3) . 4_556
N1 C1 H2 107.11(6) . .
C1 C1 H2 111.56(6) 4_556 .
loop_
_geom_bond_atom_site_label_1
_geom_bond_atom_site_label_2
_geom_bond_distance
_geom_bond_site_symmetry_2
N1 C1 1.4882(10) .
N1 C1 1.4882(10) 3_565
N1 C1 1.4882(10) 2_665
N1 H1 1.153(3) .
C1 C1 1.5422(13) 4_556
C1 H2 1.0966(12) .
