#------------------------------------------------------------------------------
#$Date: 2016-03-24 01:57:54 +0200 (Thu, 24 Mar 2016) $
#$Revision: 179548 $
#$URL: svn://www.crystallography.net/cod/cif/4/50/17/4501790.cif $
#------------------------------------------------------------------------------
#
# This file is available in the Crystallography Open Database (COD),
# http://www.crystallography.net/
#
# All data on this site have been placed in the public domain by the
# contributors.
#
data_4501790
loop_
_publ_author_name
'Kumar, Jitendra'
'Awasthi, Shubhra'
'Verma, Sandeep'
_publ_section_title
;
 Contrasting Crystallographic Signatures of 9-Carboxypropyl Adeninium
 Cation: Adenine Dimerization vs Carboxylic Group Interaction
;
_journal_issue                   8
_journal_name_full               'Crystal Growth &amp; Design'
_journal_page_first              3555
_journal_paper_doi               10.1021/cg100470u
_journal_volume                  10
_journal_year                    2010
_chemical_formula_moiety         'C8 H10 N5 O2, C2 H F3 O2, C2 F3 O2'
_chemical_formula_sum            'C12 H11 F6 N5 O6'
_chemical_formula_weight         435.26
_chemical_name_common            '3-(N9-adeninyl)propanoic acid.2TFA'
_chemical_name_systematic
;
 6-amino-9-(2-carboxyethyl)-9H-purin-1-ium trifluoro acetate.TFA
;
_space_group_IT_number           4
_symmetry_cell_setting           monoclinic
_symmetry_space_group_name_Hall  'P 2yb'
_symmetry_space_group_name_H-M   'P 1 21 1'
_atom_sites_solution_hydrogens   geom
_atom_sites_solution_primary     direct
_atom_sites_solution_secondary   difmap
_audit_creation_method           SHELXL-97
_cell_angle_alpha                90.00
_cell_angle_beta                 97.052(4)
_cell_angle_gamma                90.00
_cell_formula_units_Z            2
_cell_length_a                   5.1080(12)
_cell_length_b                   13.619(3)
_cell_length_c                   12.011(3)
_cell_measurement_reflns_used    2133
_cell_measurement_temperature    100(2)
_cell_measurement_theta_max      28.33
_cell_measurement_theta_min      2.27
_cell_volume                     829.2(3)
_computing_cell_refinement       'SMART 5.628 (Bruker, 2003)'
_computing_data_collection       'SMART 5.628 (Bruker, 2003)'
_computing_data_reduction        'SAINT+ 6.45  (Bruker, 2003)'
_computing_molecular_graphics    'diamond 3.1d'
_computing_structure_refinement  'SHELXL-97 (Sheldrick, 1997)'
_computing_structure_solution    Sir92
_diffrn_ambient_temperature      100(2)
_diffrn_measured_fraction_theta_full 0.996
_diffrn_measured_fraction_theta_max 0.992
_diffrn_measurement_device_type  'CCD area Detector'
_diffrn_measurement_method       'Phi-Omega scans'
_diffrn_radiation_monochromator  graphite
_diffrn_radiation_source         'fine-focus sealed tube'
_diffrn_radiation_type           MoK\a
_diffrn_radiation_wavelength     0.71069
_diffrn_reflns_av_R_equivalents  0.0384
_diffrn_reflns_av_sigmaI/netI    0.0452
_diffrn_reflns_limit_h_max       3
_diffrn_reflns_limit_h_min       -6
_diffrn_reflns_limit_k_max       18
_diffrn_reflns_limit_k_min       -17
_diffrn_reflns_limit_l_max       15
_diffrn_reflns_limit_l_min       -16
_diffrn_reflns_number            5424
_diffrn_reflns_theta_full        25.00
_diffrn_reflns_theta_max         28.33
_diffrn_reflns_theta_min         2.27
_exptl_absorpt_coefficient_mu    0.180
_exptl_absorpt_correction_T_max  0.9649
_exptl_absorpt_correction_T_min  0.9649
_exptl_absorpt_correction_type   psi-scan
_exptl_absorpt_process_details   '(North et al., 1968)'
_exptl_crystal_colour            COLOURLESS
_exptl_crystal_density_diffrn    1.743
_exptl_crystal_density_method    'not measured'
_exptl_crystal_description       'Small Blocks'
_exptl_crystal_F_000             440
_exptl_crystal_size_max          0.20
_exptl_crystal_size_mid          0.20
_exptl_crystal_size_min          0.20
_refine_diff_density_max         0.406
_refine_diff_density_min         -0.405
_refine_diff_density_rms         0.103
_refine_ls_abs_structure_details 'Flack H D (1983), Acta Cryst. A39, 876-881'
_refine_ls_abs_structure_Flack   10(10)
_refine_ls_extinction_method     none
_refine_ls_goodness_of_fit_ref   1.189
_refine_ls_hydrogen_treatment    mixed
_refine_ls_matrix_type           full
_refine_ls_number_parameters     270
_refine_ls_number_reflns         2133
_refine_ls_number_restraints     1
_refine_ls_restrained_S_all      1.189
_refine_ls_R_factor_all          0.0655
_refine_ls_R_factor_gt           0.0450
_refine_ls_shift/su_max          0.000
_refine_ls_shift/su_mean         0.000
_refine_ls_structure_factor_coef Fsqd
_refine_ls_weighting_details
'calc w=1/[\s^2^(Fo^2^)+(0.0463P)^2^+1.1360P] where P=(Fo^2^+2Fc^2^)/3'
_refine_ls_weighting_scheme      calc
_refine_ls_wR_factor_gt          0.1030
_refine_ls_wR_factor_ref         0.1441
_reflns_number_gt                1789
_reflns_number_total             2133
_reflns_threshold_expression     >2sigma(I)
_cod_data_source_file            cg100470u_si_002.cif
_cod_data_source_block           adduct3
_cod_depositor_comments
;
The following automatic conversions were performed:

'_symmetry_cell_setting' value 'MONOCLINIC' changed to 'monoclinic'
according to /home/saulius/struct/CIF-dictionaries/cif_core.dic
dictionary named 'cif_core.dic' version 2.4.2 from 2011-04-26.

Automatic conversion script
Id: cif_fix_values 1715 2011-07-08 13:25:40Z adriana 
;
_cod_database_code               4501790
loop_
_symmetry_equiv_pos_as_xyz
'x, y, z'
'-x, y+1/2, -z'
loop_
_atom_site_label
_atom_site_type_symbol
_atom_site_fract_x
_atom_site_fract_y
_atom_site_fract_z
_atom_site_U_iso_or_equiv
_atom_site_adp_type
_atom_site_occupancy
_atom_site_symmetry_multiplicity
_atom_site_calc_flag
_atom_site_refinement_flags
C2 C 1.0262(10) 0.3101(4) 0.1884(4) 0.0266(10) Uani 1 1 d .
H2 H 1.1144 0.3037 0.1255 0.032 Uiso 1 1 calc R
C4 C 0.9469(9) 0.2653(3) 0.3573(4) 0.0210(9) Uani 1 1 d .
C5 C 0.7510(9) 0.3342(3) 0.3637(4) 0.0197(9) Uani 1 1 d .
C6 C 0.6948(9) 0.3984(3) 0.2723(4) 0.0199(9) Uani 1 1 d .
C8 C 0.7826(9) 0.2513(3) 0.5163(4) 0.0213(9) Uani 1 1 d .
H8 H 0.7573 0.2294 0.5876 0.026 Uiso 1 1 calc R
C10 C 1.1464(10) 0.1308(4) 0.4844(4) 0.0234(9) Uani 1 1 d .
H10A H 1.1680 0.1220 0.5651 0.028 Uiso 1 1 calc R
H10B H 1.3174 0.1473 0.4622 0.028 Uiso 1 1 calc R
C11 C 1.0503(9) 0.0351(4) 0.4281(4) 0.0226(9) Uani 1 1 d .
H11A H 0.9987 0.0472 0.3488 0.027 Uiso 1 1 calc R
H11B H 1.1947 -0.0116 0.4348 0.027 Uiso 1 1 calc R
C12 C 0.8220(9) -0.0091(3) 0.4773(4) 0.0193(9) Uani 1 1 d .
C13 C 0.5407(10) 0.0775(4) 0.1344(4) 0.0248(10) Uani 1 1 d .
C14 C 0.4293(9) 0.0388(4) 0.0174(4) 0.0239(9) Uani 1 1 d .
C15 C 0.2122(12) 0.2736(4) -0.1682(5) 0.0346(12) Uani 1 1 d .
C16 C 0.0192(10) 0.1884(4) -0.1540(4) 0.0267(10) Uani 1 1 d .
N1 N 0.8384(8) 0.3813(3) 0.1862(3) 0.0218(8) Uani 1 1 d .
H1 H 0.8091 0.4174 0.1272 0.026 Uiso 1 1 calc R
N3 N 1.0917(8) 0.2502(3) 0.2716(3) 0.0209(8) Uani 1 1 d .
N6 N 0.5180(8) 0.4704(3) 0.2645(3) 0.0233(9) Uani 1 1 d .
H6A H 0.4946 0.5061 0.2051 0.028 Uiso 1 1 calc R
H6B H 0.4270 0.4813 0.3189 0.028 Uiso 1 1 calc R
N7 N 0.6467(8) 0.3242(3) 0.4640(3) 0.0207(8) Uani 1 1 d .
N9 N 0.9634(8) 0.2117(3) 0.4546(3) 0.0201(8) Uani 1 1 d .
O1 O 0.7568(7) -0.0982(3) 0.4400(3) 0.0247(7) Uani 1 1 d .
O2 O 0.7077(7) 0.0338(3) 0.5452(3) 0.0250(7) Uani 1 1 d .
O3 O 0.2520(8) -0.0226(3) 0.0114(3) 0.0284(8) Uani 1 1 d .
O4 O 0.5392(7) 0.0764(3) -0.0620(3) 0.0299(8) Uani 1 1 d .
O5 O -0.0646(8) 0.1909(3) -0.0561(3) 0.0301(8) Uani 1 1 d .
O6 O -0.0420(8) 0.1329(3) -0.2294(3) 0.0370(9) Uani 1 1 d .
F1 F 0.7966(6) 0.0587(3) 0.1553(3) 0.0376(8) Uani 1 1 d .
F2 F 0.4231(7) 0.0391(3) 0.2172(3) 0.0418(8) Uani 1 1 d .
F3 F 0.5147(7) 0.1756(2) 0.1391(3) 0.0347(7) Uani 1 1 d .
F4 F 0.3839(7) 0.2483(3) -0.2378(3) 0.0450(9) Uani 1 1 d .
F5 F 0.0709(9) 0.3495(3) -0.2137(3) 0.0509(10) Uani 1 1 d .
F6 F 0.3438(8) 0.3032(3) -0.0723(3) 0.0500(10) Uani 1 1 d .
H1A H 0.607(12) -0.123(5) 0.484(5) 0.028(15) Uiso 1 1 d .
H5A H -0.227(16) 0.151(7) -0.057(7) 0.07(3) Uiso 1 1 d .
loop_
_atom_site_aniso_label
_atom_site_aniso_U_11
_atom_site_aniso_U_22
_atom_site_aniso_U_33
_atom_site_aniso_U_23
_atom_site_aniso_U_13
_atom_site_aniso_U_12
C2 0.028(2) 0.026(2) 0.026(2) -0.001(2) 0.006(2) 0.000(2)
C4 0.020(2) 0.019(2) 0.024(2) -0.0014(18) 0.0004(17) -0.0023(17)
C5 0.022(2) 0.012(2) 0.025(2) -0.0019(17) 0.0021(17) -0.0024(17)
C6 0.0158(19) 0.017(2) 0.027(2) -0.0034(18) 0.0033(17) -0.0025(17)
C8 0.024(2) 0.020(2) 0.020(2) -0.0004(18) 0.0030(17) -0.0014(18)
C10 0.021(2) 0.020(2) 0.028(2) 0.002(2) -0.0015(18) 0.0016(19)
C11 0.020(2) 0.024(2) 0.024(2) 0.0018(19) 0.0038(17) 0.0033(19)
C12 0.019(2) 0.020(2) 0.020(2) -0.0028(17) 0.0049(16) 0.0024(18)
C13 0.028(2) 0.026(2) 0.021(2) -0.0023(19) 0.0041(18) -0.001(2)
C14 0.023(2) 0.024(2) 0.025(2) 0.001(2) 0.0050(17) 0.001(2)
C15 0.045(3) 0.030(3) 0.030(3) 0.002(2) 0.009(2) -0.008(2)
C16 0.034(3) 0.031(3) 0.014(2) -0.0014(19) -0.0004(17) 0.002(2)
N1 0.0218(19) 0.023(2) 0.0216(19) 0.0019(16) 0.0051(15) 0.0030(16)
N3 0.0225(19) 0.0158(18) 0.0244(19) 0.0016(16) 0.0035(15) 0.0002(16)
N6 0.031(2) 0.019(2) 0.0215(19) 0.0025(16) 0.0078(16) 0.0078(17)
N7 0.0231(19) 0.0185(19) 0.0212(19) 0.0004(15) 0.0050(15) -0.0027(16)
N9 0.0216(19) 0.0171(18) 0.0217(18) 0.0024(15) 0.0022(14) 0.0017(15)
O1 0.0250(17) 0.0177(16) 0.0321(18) -0.0030(14) 0.0064(14) -0.0032(14)
O2 0.0262(17) 0.0183(16) 0.0315(18) -0.0014(15) 0.0075(14) -0.0035(14)
O3 0.0336(19) 0.0289(19) 0.0231(17) -0.0024(15) 0.0049(14) -0.0059(15)
O4 0.0345(19) 0.0362(19) 0.0196(16) -0.0062(15) 0.0057(14) -0.0127(17)
O5 0.0344(19) 0.033(2) 0.0238(17) -0.0058(15) 0.0063(14) -0.0104(17)
O6 0.042(2) 0.040(2) 0.030(2) -0.0051(18) 0.0072(17) -0.0069(19)
F1 0.0325(16) 0.049(2) 0.0296(16) -0.0034(15) -0.0026(13) 0.0074(15)
F2 0.054(2) 0.051(2) 0.0221(15) 0.0001(15) 0.0110(14) -0.0143(18)
F3 0.0420(18) 0.0314(17) 0.0307(16) -0.0090(14) 0.0038(13) 0.0020(15)
F4 0.0415(19) 0.049(2) 0.049(2) 0.0049(17) 0.0220(16) -0.0056(17)
F5 0.068(3) 0.0340(19) 0.054(2) 0.0163(17) 0.023(2) 0.0060(18)
F6 0.056(2) 0.054(2) 0.0401(19) -0.0097(18) 0.0074(16) -0.032(2)
loop_
_atom_type_symbol
_atom_type_description
_atom_type_scat_dispersion_real
_atom_type_scat_dispersion_imag
_atom_type_scat_source
C C 0.0033 0.0000 'International Tables Vol C Tables 4.2.6.8 and 6.1.1.4'
H H 0.0000 0.0000 'International Tables Vol C Tables 4.2.6.8 and 6.1.1.4'
N N 0.0061 0.0000 'International Tables Vol C Tables 4.2.6.8 and 6.1.1.4'
O O 0.0106 0.0000 'International Tables Vol C Tables 4.2.6.8 and 6.1.1.4'
F F 0.0171 0.0000 'International Tables Vol C Tables 4.2.6.8 and 6.1.1.4'
loop_
_geom_angle_atom_site_label_1
_geom_angle_atom_site_label_2
_geom_angle_atom_site_label_3
_geom_angle
N3 C2 N1 125.1(5)
N3 C2 H2 117.4
N1 C2 H2 117.4
N3 C4 N9 125.8(4)
N3 C4 C5 127.7(4)
N9 C4 C5 106.5(4)
C4 C5 N7 109.9(4)
C4 C5 C6 117.4(4)
N7 C5 C6 132.7(4)
N6 C6 N1 119.9(4)
N6 C6 C5 125.9(4)
N1 C6 C5 114.2(4)
N7 C8 N9 112.9(4)
N7 C8 H8 123.6
N9 C8 H8 123.6
N9 C10 C11 112.1(4)
N9 C10 H10A 109.2
C11 C10 H10A 109.2
N9 C10 H10B 109.2
C11 C10 H10B 109.2
H10A C10 H10B 107.9
C12 C11 C10 113.2(4)
C12 C11 H11A 108.9
C10 C11 H11A 108.9
C12 C11 H11B 108.9
C10 C11 H11B 108.9
H11A C11 H11B 107.8
O2 C12 O1 123.4(4)
O2 C12 C11 122.4(4)
O1 C12 C11 114.3(4)
F1 C13 F2 107.9(4)
F1 C13 F3 106.5(4)
F2 C13 F3 107.6(4)
F1 C13 C14 110.6(4)
F2 C13 C14 113.3(4)
F3 C13 C14 110.6(4)
O3 C14 O4 128.3(5)
O3 C14 C13 118.2(4)
O4 C14 C13 113.4(4)
F6 C15 F4 108.8(5)
F6 C15 F5 108.1(5)
F4 C15 F5 107.9(5)
F6 C15 C16 113.3(4)
F4 C15 C16 110.7(5)
F5 C15 C16 107.8(5)
O6 C16 O5 128.2(5)
O6 C16 C15 120.3(5)
O5 C16 C15 111.5(4)
C6 N1 C2 123.5(4)
C6 N1 H1 118.3
C2 N1 H1 118.3
C2 N3 C4 112.1(4)
C6 N6 H6A 120.0
C6 N6 H6B 120.0
H6A N6 H6B 120.0
C8 N7 C5 104.6(4)
C8 N9 C4 106.1(4)
C8 N9 C10 128.4(4)
C4 N9 C10 125.5(4)
C12 O1 H1A 107(3)
C16 O5 H5A 110(5)
loop_
_geom_bond_atom_site_label_1
_geom_bond_atom_site_label_2
_geom_bond_distance
C2 N3 1.301(7)
C2 N1 1.362(6)
C2 H2 0.9300
C4 N3 1.355(6)
C4 N9 1.371(6)
C4 C5 1.381(7)
C5 N7 1.383(6)
C5 C6 1.405(7)
C6 N6 1.328(6)
C6 N1 1.359(6)
C8 N7 1.324(6)
C8 N9 1.365(6)
C8 H8 0.9300
C10 N9 1.460(6)
C10 C11 1.522(7)
C10 H10A 0.9700
C10 H10B 0.9700
C11 C12 1.497(7)
C11 H11A 0.9700
C11 H11B 0.9700
C12 O2 1.210(5)
C12 O1 1.323(6)
C13 F1 1.326(6)
C13 F2 1.331(6)
C13 F3 1.344(6)
C13 C14 1.542(7)
C14 O3 1.228(6)
C14 O4 1.272(6)
C15 F6 1.323(7)
C15 F4 1.329(7)
C15 F5 1.338(7)
C15 C16 1.545(8)
C16 O6 1.191(6)
C16 O5 1.300(6)
N1 H1 0.8600
N6 H6A 0.8600
N6 H6B 0.8600
O1 H1A 1.04(6)
O5 H5A 0.99(9)
