#------------------------------------------------------------------------------
#$Date: 2016-03-24 01:50:36 +0200 (Thu, 24 Mar 2016) $
#$Revision: 179542 $
#$URL: svn://www.crystallography.net/cod/cif/4/50/11/4501178.cif $
#------------------------------------------------------------------------------
#
# This file is available in the Crystallography Open Database (COD),
# http://www.crystallography.net/
#
# All data on this site have been placed in the public domain by the
# contributors.
#
data_4501178
loop_
_publ_author_name
'Amghouz, Zakariae'
'Garc\'ia-Granda, Santiago'
'Garc\'ia, Jos\'e R.'
'Clearfield, Abraham'
'Valiente, Rafael'
_publ_section_title
;
 Organic--Inorganic Hybrids Assembled from Lanthanide and
 1,4-Phenylenebis(phosphonate)
;
_journal_issue                   12
_journal_name_full               'Crystal Growth &amp; Design'
_journal_page_first              5289
_journal_paper_doi               10.1021/cg2008254
_journal_volume                  11
_journal_year                    2011
_chemical_formula_moiety         'C6 H4 Ce O6 P2'
_chemical_formula_sum            'C6 H4 Ce O6 P2'
_chemical_formula_weight         374.15
_space_group_IT_number           15
_symmetry_cell_setting           monoclinic
_symmetry_space_group_name_Hall  '-C 2yc'
_symmetry_space_group_name_H-M   'C 1 2/c 1'
_cell_angle_alpha                90.00000
_cell_angle_beta                 108.573(7)
_cell_angle_gamma                90.00000
_cell_formula_units_Z            4
_cell_length_a                   5.5897(9)
_cell_length_b                   20.073(3)
_cell_length_c                   8.3249(13)
_cell_measurement_temperature    298(2)
_cell_volume                     885.4(2)
_computing_cell_refinement       'FULLPROF (Rodriguez-Carvajal, 2006)'
_computing_data_reduction        'FULLPROF (Rodriguez-Carvajal, 2006)'
_computing_molecular_graphics    WinPLOTR
_computing_publication_material  'enCIFer (Allen et al., 2004)'
_computing_structure_refinement  FULLPROF
_computing_structure_solution    'Coordinates taken for single crystal data'
_diffrn_ambient_temperature      298(2)
_diffrn_radiation_probe          x-ray
_diffrn_radiation_type           'Cu K\a'
_diffrn_radiation_wavelength     1.5418
_diffrn_source                   'X-ray tube'
_diffrn_source_target            Cu
_exptl_absorpt_coefficient_mu    43.292
_exptl_absorpt_correction_type   none
_exptl_crystal_density_diffrn    2.807
_exptl_crystal_F_000             704.0
_pd_calc_method                  'Rietveld Refinement'
_pd_char_colour                  white
_pd_instr_location               ' ?'
_pd_meas_2theta_range_inc        0.012549
_pd_meas_2theta_range_max        69.99400
_pd_meas_2theta_range_min        4.20100
_pd_meas_number_of_points        5245
_pd_proc_2theta_range_inc        0.012549
_pd_proc_2theta_range_max        69.8311
_pd_proc_2theta_range_min        4.0381
_pd_proc_ls_background_function
;
FullProf Background 6-coeficient polynomial function
;
_pd_proc_ls_peak_cutoff          0.00500
_pd_proc_ls_profile_function     Cauchy(Lorentzian)
_pd_proc_ls_prof_R_factor        4.0871
_pd_proc_ls_prof_wR_expected     0.6586
_pd_proc_ls_prof_wR_factor       5.0836
_pd_proc_wavelength              1.540560
_pd_spec_mounting                ' ?'
_refine_ls_extinction_method     none
_refine_ls_goodness_of_fit_all   59.6
_refine_ls_hydrogen_treatment    noref
_refine_ls_matrix_type           full
_refine_ls_number_constraints    0
_refine_ls_number_parameters     30
_refine_ls_number_reflns         714
_refine_ls_number_restraints     0
_refine_ls_R_I_factor            4.4052
_cod_data_source_file            cg2008254_si_003.cif
_cod_data_source_block           Ce(HBDP)
_cod_depositor_comments
;
The following automatic conversions were performed:

'_symmetry_cell_setting' value 'Monoclinic' changed to 'monoclinic'
according to /home/saulius/struct/CIF-dictionaries/cif_core.dic
dictionary named 'cif_core.dic' version 2.4.1 from 2010-06-29.

Automatic conversion script
Id: cif_fix_values 1715 2011-07-08 13:25:40Z adriana 
;
_cod_original_sg_symbol_H-M      'C 2/c'
_cod_database_code               4501178
#BEGIN Tags that were not found in dictionaries:
_pd_proc_ls_prof_cr_factor       11.3944
_pd_proc_ls_prof_cwr_factor      11.7132
_pd_proc_ls_prof_cwr_expected    1.5176
_pd_proc_ls_prof_chi2            59.5747
_pd_proc_ls_prof_echi2           59.5747
#END Tags that were not found in dictionaries
loop_
_symmetry_equiv_pos_as_xyz
x,y,z
-x,y,-z+1/2
-x,-y,-z
x,-y,z+1/2
x+1/2,y+1/2,z
-x+1/2,y+1/2,-z+1/2
-x+1/2,-y+1/2,-z
x+1/2,-y+1/2,z+1/2
loop_
_atom_site_label
_atom_site_fract_x
_atom_site_fract_y
_atom_site_fract_z
_atom_site_U_iso_or_equiv
_atom_site_occupancy
_atom_site_adp_type
_atom_site_type_symbol
Ce1 0.00000 0.23254(20) 0.25000 0.02344 1.00000 Uani Ce
P1 -0.1519(17) 0.3454(4) 0.4842(11) 0.02083 1.00000 Uani P
O1 0.258(2) 0.3356(8) 0.194(2) 0.02322 1.00000 Uani O
O2 0.392(3) 0.1884(7) 0.468(2) 0.02358 1.00000 Uani O
O3 -0.180(5) 0.1580(8) 0.391(2) 0.02557 1.00000 Uani O
C2 0.163(3) 0.4571(12) 0.619(3) 0.030(5) 0.53300 Uani C
C3 -0.214(4) 0.4745(12) 0.379(3) 0.031(7) 0.53300 Uani C
C2A 0.171(3) 0.4548(13) 0.476(3) 0.018(6) 0.46700 Uani C
C3A -0.216(4) 0.4786(11) 0.529(4) 0.030(5) 0.46700 Uani C
C1 -0.0513(19) 0.4320(6) 0.4979(15) 0.021(3) 1.00000 Uani C
H2 0.2706 0.4292 0.6983 0.036 0.53300 Uiso H
H3 -0.3576 0.4576 0.2988 0.038 0.53300 Uiso H
H2A 0.2895 0.4247 0.4647 0.021 0.46700 Uiso H
H3A -0.3583 0.4643 0.5538 0.036 0.46700 Uiso H
loop_
_atom_site_aniso_label
_atom_site_aniso_U_11
_atom_site_aniso_U_22
_atom_site_aniso_U_33
_atom_site_aniso_U_12
_atom_site_aniso_U_13
_atom_site_aniso_U_23
_atom_site_aniso_type_symbol
Ce1 0.02296 0.02347 0.02388 0.00000 0.00693 0.00000 Ce
P1 0.02047 0.01837 0.02366 -0.00032 0.00612 -0.00032 P
O1 0.02087 0.02756 0.02123 -0.00496 0.00301 -0.00201 O
O2 0.02682 0.02368 0.02022 0.00393 0.00502 0.00401 O
O3 0.03081 0.01960 0.02631 -0.00690 0.00502 -0.00498 O
C2 0.01788 0.02654 0.04350 0.00889 0.00701 0.02295 C
C3 0.02186 0.03838 0.03540 0.00889 0.01303 -0.00498 C
C2A 0.01192 0.02654 0.01416 -0.00986 0.00400 0.00000 C
C3A 0.01788 0.02654 0.04350 0.00889 0.00701 0.02295 C
C1 0.01291 0.03144 0.02328 -0.00296 0.01104 -0.00297 C
loop_
_atom_type_symbol
_atom_type_scat_Cromer_Mann_a1
_atom_type_scat_Cromer_Mann_b1
_atom_type_scat_Cromer_Mann_a2
_atom_type_scat_Cromer_Mann_b2
_atom_type_scat_Cromer_Mann_a3
_atom_type_scat_Cromer_Mann_b3
_atom_type_scat_Cromer_Mann_a4
_atom_type_scat_Cromer_Mann_b4
_atom_type_scat_Cromer_Mann_c
_atom_type_scat_dispersion_real
_atom_type_scat_dispersion_imag
_atom_type_scat_source
ce 21.16710 2.81219 19.76950 0.22684 11.85130 17.60830 3.33049 127.11300
1.86264 -2.17000 9.64800
International_Tables_for_Crystallography_Vol.C(1991)_Tables_6.1.1.4_and_6.1.1.5
p 6.43450 1.90670 4.17910 27.15700 1.78000 0.52600 1.49080 68.16450 1.11490
0.28300 0.43400
International_Tables_for_Crystallography_Vol.C(1991)_Tables_6.1.1.4_and_6.1.1.5
o 3.04850 13.27710 2.28680 5.70110 1.54630 0.32390 0.86700 32.90890 0.25080
0.04700 0.03200
International_Tables_for_Crystallography_Vol.C(1991)_Tables_6.1.1.4_and_6.1.1.5
h 0.49300 10.51090 0.32291 26.12570 0.14019 3.14236 0.04081 57.79970 0.00304
0.00000 0.00000
International_Tables_for_Crystallography_Vol.C(1991)_Tables_6.1.1.4_and_6.1.1.5
c 2.31000 20.84390 1.02000 10.20750 1.58860 0.56870 0.86500 51.65120 0.21560
0.01700 0.00900
International_Tables_for_Crystallography_Vol.C(1991)_Tables_6.1.1.4_and_6.1.1.5
loop_
_geom_angle_atom_site_label_1
_geom_angle_atom_site_label_2
_geom_angle_atom_site_label_3
_geom_angle
_geom_angle_site_symmetry_3
O1 Ce1 O2 90.2(8) .
O1 Ce1 O3 160.3(5) .
O2 Ce1 O3 80.0(12) .
O1 Ce1 O2 123.1(9) 2_555
O1 Ce1 O3 93.8(10) 2_555
O2 Ce1 O3 73.7(9) 2_555
loop_
_geom_bond_atom_site_label_1
_geom_bond_atom_site_label_2
_geom_bond_distance
_geom_bond_site_symmetry_2
Ce1 O1 2.647(16) .
Ce1 O1 2.647(16) 2_555
Ce1 O2 2.519(14) .
Ce1 O2 2.519(14) 2_555
Ce1 O2 2.737(16) 7_556
Ce1 O2 2.737(16) 8_454
Ce1 O3 2.32(2) .
Ce1 O3 2.32(2) 2_555
P1 O1 1.425(17) 2_555
P1 O2 1.537(18) 7_556
P1 O3 1.61(3) 7_456
P1 C1 1.819(8) .
O1 Ce1 2.647(16) .
O1 P1 1.425(17) 2_555
O2 Ce1 2.519(14) .
O2 Ce1 2.737(16) 7_556
O2 P1 1.537(18) 7_556
O3 Ce1 2.32(2) .
O3 P1 1.61(3) 7_456
C1 P1 1.819(8) .
