#------------------------------------------------------------------------------
#$Date: 2017-10-13 14:42:48 +0300 (Fri, 13 Oct 2017) $
#$Revision: 201982 $
#$URL: file:///home/coder/svn-repositories/cod/cif/4/50/20/4502054.cif $
#------------------------------------------------------------------------------
#
# This file is available in the Crystallography Open Database (COD),
# http://www.crystallography.net/
#
# All data on this site have been placed in the public domain by the
# contributors.
#
data_4502054
loop_
_publ_author_name
'Lapidus, Saul H.'
'Stephens, Peter W.'
'Arora, Kapildev K.'
'Shattock, Tanise R.'
'Zaworotko, Michael J.'
_publ_section_title
;
 A Comparison of Cocrystal Structure Solutions from Powder and Single
 Crystal Techniques
;
_journal_issue                   10
_journal_name_full               'Crystal Growth &amp; Design'
_journal_page_first              4630
_journal_paper_doi               10.1021/cg1009237
_journal_volume                  10
_journal_year                    2010
_chemical_formula_moiety         'C10 H8 N2, C7 H6 O3'
_chemical_formula_sum            'C17 H14 N2 O3'
_chemical_formula_weight         294.30
_chemical_name_common            '1:1 Co-crystal of 3HBA + BP'
_chemical_name_systematic
;
 1:1 Co-crystal of 3-hydroxybenzoic acid and 4,4'-Bipyridine 
;
_space_group_IT_number           2
_symmetry_cell_setting           triclinic
_symmetry_space_group_name_Hall  '-P 1'
_symmetry_space_group_name_H-M   'P -1'
_cell_angle_alpha                71.731(2)
_cell_angle_beta                 72.433(2)
_cell_angle_gamma                87.083(3)
_cell_formula_units_Z            2
_cell_length_a                   8.2321(2)
_cell_length_b                   9.0510(3)
_cell_length_c                   10.4684(3)
_cell_measurement_temperature    300
_cell_volume                     705.31(4)
_computing_cell_refinement       TOPAS-Academic
_computing_data_collection       SPEC
_computing_data_reduction        TOPAS-Academic
_computing_structure_refinement  TOPAS-Academic
_computing_structure_solution    TOPAS-Academic
_diffrn_ambient_temperature      300
_diffrn_detector                 'NaI scintillation counter'
_diffrn_measurement_device_type  'Huber diffractometer'
_diffrn_radiation_monochromator  'Si(111) channel cut'
_diffrn_radiation_type           synchrotron
_diffrn_radiation_wavelength     0.698404
_diffrn_source                   synchrotron
_pd_block_diffractogram_id       Saul_4
_pd_instr_location
;
X16C, National Synchrotron Light Source, Brookhaven National Laboratory
;
_pd_meas_2theta_range_inc        0.005
_pd_meas_2theta_range_max        35.0
_pd_meas_2theta_range_min        4.0
_pd_meas_number_of_points        6201
_pd_meas_scan_method             step
_pd_proc_2theta_range_inc        0.005
_pd_proc_2theta_range_max        35.0
_pd_proc_2theta_range_min        4.0
_pd_proc_ls_background_function
;
6 Pearson-Voight peaks and Chebyshev polynomial with 8 coefficients
;
_pd_proc_ls_pref_orient_corr
;
none
;
_pd_proc_ls_profile_function
;
Simple_Axial_model function with Rp=9999,Rs=330 in TOPAS-Academic
;
_pd_proc_ls_prof_R_factor        0.04719
_pd_proc_ls_prof_wR_expected     0.02571
_pd_proc_ls_prof_wR_factor       0.06254
_pd_proc_wavelength              0.698404
_pd_spec_mounting
;
capillary
;
_pd_spec_mount_mode              transmission
_pd_spec_shape                   cylinder
_refine_ls_goodness_of_fit_all   2.433
_refine_ls_number_parameters     85
_refine_ls_weighting_details     1/(sigma*sigma)
_refine_ls_weighting_scheme      sigma
_cod_data_source_file            cg1009237_si_004.cif
_cod_data_source_block           Saul_4
_cod_depositor_comments
;
The following automatic conversions were performed:

'_symmetry_cell_setting' value 'Triclinic' changed to 'triclinic'
according to /home/saulius/struct/CIF-dictionaries/cif_core.dic
dictionary named 'cif_core.dic' version 2.4.2 from 2011-04-26.

Automatic conversion script
Id: cif_fix_values 1715 2011-07-08 13:25:40Z adriana 
;
_cod_original_cell_volume        705.309(37)
_cod_original_sg_symbol_H-M      P-1
_cod_database_code               4502054
loop_
_symmetry_equiv_pos_site_id
_symmetry_equiv_pos_as_xyz
1 'x, y, z'
2 '-x, -y, -z'
loop_
_atom_site_label
_atom_site_type_symbol
_atom_site_symmetry_multiplicity
_atom_site_fract_x
_atom_site_fract_y
_atom_site_fract_z
_atom_site_occupancy
_atom_site_B_iso_or_equiv
C1 C 0 0.553319 0.7786699 -0.03020004 1 2.689(72)
C2 C 0 0.5086925 0.6394776 0.07708786 1 2.689(72)
C3 C 0 0.3408353 0.5851398 0.1333826 1 2.689(72)
C4 C 0 0.2176045 0.6699943 0.08238937 1 2.689(72)
C5 C 0 0.262231 0.8091866 -0.02489852 1 2.689(72)
C6 C 0 0.4300882 0.8635244 -0.08119323 1 2.689(72)
C7 C 0 0.7357604 0.8377289 -0.0913859 1 2.689(72)
O1 O 0 0.7610848 0.9498562 -0.1989063 1 2.689(72)
O2 O 0 0.8437971 0.7810585 -0.04029762 1 2.689(72)
O3 O 0 0.2984869 0.453053 0.2351936 1 2.689(72)
H4 H 0 0.1078463 0.6344639 0.1191993 1 2.689(72)
H5 H 0 0.181653 0.8646711 -0.05824188 1 2.689(72)
H6 H 0 0.4592685 0.9545393 -0.1513465 1 2.689(72)
H2 H 0 0.5892705 0.5839931 0.1104312 1 2.689(72)
H1O H 0 0.8668076 0.9941778 -0.2439842 1 2.689(72)
H3O H 0 0.1887287 0.4175227 0.2720035 1 2.689(72)
C16 C 0 0.4235198 0.2095701 0.5395398 1 2.689(72)
C20 C 0 0.3265963 0.2366049 0.6632354 1 2.689(72)
C19 C 0 0.1598862 0.1755083 0.7274354 1 2.689(72)
C18 C 0 0.1776486 0.06252795 0.5556158 1 2.689(72)
C17 C 0 0.3449932 0.1195886 0.485278 1 2.689(72)
C13 C 0 0.5970303 0.273159 0.472721 1 2.689(72)
C12 C 0 0.6933351 0.2963274 0.5538307 1 2.689(72)
C11 C 0 0.8600452 0.357424 0.4896307 1 2.689(72)
C15 C 0 0.8434646 0.3745095 0.2702442 1 2.689(72)
C14 C 0 0.6761623 0.3140232 0.3266071 1 2.689(72)
N12 N 0 0.08893639 0.09078137 0.6736769 1 2.689(72)
N11 N 0 0.9315758 0.3950221 0.3511258 1 2.689(72)
H18 H 0 0.1266688 0.004755746 0.5212781 1 2.689(72)
H17 H 0 0.4030603 0.09914929 0.4053137 1 2.689(72)
H20 H 0 0.3718256 0.2937238 0.7017952 1 2.689(72)
H19 H 0 0.09706905 0.1930298 0.8076038 1 2.689(72)
H14 H 0 0.6185078 0.3009807 0.2699814 1 2.689(72)
H15 H 0 0.894831 0.4009114 0.176606 1 2.689(72)
H11 H 0 0.9224614 0.3724396 0.5421988 1 2.689(72)
H12 H 0 0.6477048 0.2717457 0.6480074 1 2.689(72)
loop_
_atom_type_symbol
_atom_type_description
_atom_type_scat_dispersion_real
_atom_type_scat_dispersion_imag
_atom_type_scat_source
C C 0.0033 0.0016 'International Tables Vol C Tables 4.2.6.8 and 6.1.1.4'
H H 0.0000 0.0000 'International Tables Vol C Tables 4.2.6.8 and 6.1.1.4'
N N 0.0061 0.0033 'International Tables Vol C Tables 4.2.6.8 and 6.1.1.4'
O O 0.0106 0.0060 'International Tables Vol C Tables 4.2.6.8 and 6.1.1.4'
loop_
_geom_angle_atom_site_label_1
_geom_angle_atom_site_label_2
_geom_angle_atom_site_label_3
_geom_angle
_geom_angle_publ_flag
C7 O1 H1O 120.00 no
C3 O3 H3O 120.00 no
C11 N11 C15 120.00 yes
C18 N12 C19 120.00 yes
N11 C11 C12 121.69(13) yes
C11 C12 C13 120.00 no
C14 C13 C16 123.02(14) no
C12 C13 C14 116.98(14) no
C12 C13 C16 120.00 no
C13 C14 C15 119.63(24) no
N11 C15 C14 121.69(13) yes
C13 C16 C20 120.00 no
C13 C16 C17 123.02(14) no
C17 C16 C20 116.98(14) no
C16 C17 C18 119.63(24) no
N12 C18 C17 121.69(13) yes
N12 C19 C20 121.69(13) yes
C16 C20 C19 120.00 no
N11 C11 H11 118.00 no
C12 C11 H11 120.00 no
C13 C12 H12 120.00 no
C11 C12 H12 120.00 no
C13 C14 H14 120.00 no
C15 C14 H14 120.00 no
N11 C15 H15 118.00 no
C14 C15 H15 120.00 no
C18 C17 H17 120.00 no
C16 C17 H17 120.00 no
N12 C18 H18 118.00 no
C17 C18 H18 120.00 no
C20 C19 H19 120.00 no
N12 C19 H19 118.00 no
C19 C20 H20 120.00 no
C16 C20 H20 120.00 no
C2 C1 C7 120.00 no
C6 C1 C7 120.00 no
C2 C1 C6 120.00 no
C1 C2 C3 120.00 no
O3 C3 C4 120.00 yes
O3 C3 C2 120.00 yes
C2 C3 C4 120.00 no
C3 C4 C5 120.00 no
C4 C5 C6 120.00 no
C1 C6 C5 120.00 no
O2 C7 C1 123.00 yes
O1 C7 O2 124.00 yes
O1 C7 C1 113.00 yes
C1 C2 H2 120.00 no
C3 C2 H2 120.00 no
C3 C4 H4 120.00 no
C5 C4 H4 120.00 no
C4 C5 H5 120.00 no
C6 C5 H5 120.00 no
C1 C6 H6 120.00 no
C5 C6 H6 120.00 no
loop_
_geom_bond_atom_site_label_1
_geom_bond_atom_site_label_2
_geom_bond_distance
_geom_bond_publ_flag
O1 C7 1.2264(68) yes
O2 C7 1.1869(68) yes
O3 C3 1.3061(70) yes
O1 H1O 0.9000 no
O3 H3O 0.9000 no
N11 C15 1.3268(26) yes
N11 C11 1.3268(26) yes
N12 C18 1.3268(26) yes
N12 C19 1.3268(26) yes
C11 C12 1.3886(26) no
C12 C13 1.3886(26) no
C13 C14 1.4033(91) no
C13 C16 1.4453(59) no
C14 C15 1.3886(26) no
C16 C20 1.3886(26) no
C16 C17 1.4033(91) no
C17 C18 1.3886(26) no
C19 C20 1.3886(26) no
C11 H11 0.9000 no
C12 H12 0.9000 no
C14 H14 0.9000 no
C15 H15 0.9000 no
C17 H17 0.9000 no
C18 H18 0.9000 no
C19 H19 0.9000 no
C20 H20 0.9000 no
C1 C7 1.4960(47) no
C1 C2 1.3764(24) no
C1 C6 1.3764(24) no
C2 C3 1.3764(24) no
C3 C4 1.3764(24) no
C4 C5 1.3764(24) no
C5 C6 1.3764(24) no
C2 H2 0.9000 no
C4 H4 0.9000 no
C5 H5 0.9000 no
C6 H6 0.9000 no
loop_
_geom_torsion_atom_site_label_1
_geom_torsion_atom_site_label_2
_geom_torsion_atom_site_label_3
_geom_torsion_atom_site_label_4
_geom_torsion
_geom_torsion_publ_flag
C15 N11 C11 C12 0.00 no
C11 N11 C15 C14 -0.02 no
C19 N12 C18 C17 0.00 no
C18 N12 C19 C20 0.00 no
N11 C11 C12 C13 0.00 no
C11 C12 C13 C16 180.00 no
C11 C12 C13 C14 0.02 no
C12 C13 C16 C17 -150.38 no
C16 C13 C14 C15 -180.00 no
C14 C13 C16 C20 -150.38 no
C12 C13 C16 C20 29.62 no
C14 C13 C16 C17 29.62 no
C12 C13 C14 C15 -0.02 no
C13 C14 C15 N11 0.02 no
C20 C16 C17 C18 0.02 no
C13 C16 C17 C18 -179.98 no
C13 C16 C20 C19 179.98 no
C17 C16 C20 C19 -0.02 no
C16 C17 C18 N12 0.00 no
N12 C19 C20 C16 0.02 no
C6 C1 C2 C3 0.00 no
C7 C1 C2 C3 179.98 no
C2 C1 C6 C5 0.00 no
C7 C1 C6 C5 -180.00 no
C2 C1 C7 O1 169.84 no
C2 C1 C7 O2 -10.16 no
C6 C1 C7 O1 -10.16 no
C6 C1 C7 O2 169.84 no
C1 C2 C3 O3 179.98 no
C1 C2 C3 C4 0.00 no
O3 C3 C4 C5 -180.00 no
C2 C3 C4 C5 0.00 no
C3 C4 C5 C6 0.00 no
C4 C5 C6 C1 0.00 no
loop_
_cod_related_entry_id
_cod_related_entry_database
_cod_related_entry_code
1 ChemSpider 30661361
