#------------------------------------------------------------------------------
#$Date: 2016-03-24 02:02:04 +0200 (Thu, 24 Mar 2016) $
#$Revision: 179552 $
#$URL: svn://www.crystallography.net/cod/cif/4/50/21/4502156.cif $
#------------------------------------------------------------------------------
#
# This file is available in the Crystallography Open Database (COD),
# http://www.crystallography.net/
#
# All data on this site have been placed in the public domain by the
# contributors.
#
data_4502156
loop_
_publ_author_name
'Landenberger, Kira B.'
'Matzger, Adam J.'
_publ_section_title
;
 Cocrystal Engineering of a Prototype Energetic Material: Supramolecular
 Chemistry of 2,4,6-Trinitrotoluene
;
_journal_issue                   12
_journal_name_full               'Crystal Growth &amp; Design'
_journal_page_first              5341
_journal_paper_doi               10.1021/cg101300n
_journal_volume                  10
_journal_year                    2010
_chemical_formula_moiety         'C7 H5 N3 O6, C10 H7 Br'
_chemical_formula_sum            'C17 H12 Br N3 O6'
_chemical_formula_weight         434.21
_chemical_melting_point          343.4
_chemical_name_common            'TNT : 1-bromonaphthalene'
_chemical_name_systematic
; 
 2,4,6-trinitrotoluene : 1-bromonaphthalene
;
_space_group_IT_number           2
_symmetry_cell_setting           triclinic
_symmetry_Int_Tables_number      2
_symmetry_space_group_name_Hall  '-P 1'
_symmetry_space_group_name_H-M   'P -1'
_atom_sites_solution_hydrogens   geom
_atom_sites_solution_primary     direct
_atom_sites_solution_secondary   difmap
_audit_creation_method           SHELXL-97
_cell_angle_alpha                91.504(3)
_cell_angle_beta                 92.976(2)
_cell_angle_gamma                98.164(3)
_cell_formula_units_Z            2
_cell_length_a                   7.2538(3)
_cell_length_b                   7.7969(3)
_cell_length_c                   14.8572(5)
_cell_measurement_reflns_used    6610
_cell_measurement_temperature    95(2)
_cell_measurement_theta_max      66.5
_cell_measurement_theta_min      6.6
_cell_volume                     830.16(5)
_computing_cell_refinement       PROCESS-AUTO
_computing_data_collection       PROCESS-AUTO
_computing_data_reduction        'CrystalStructure 3.8'
_computing_publication_material  'CrystalStructure 3.8'
_computing_structure_refinement  'SHELXL-97 (Sheldrick, 1997)'
_computing_structure_solution    SIR2004
_diffrn_ambient_temperature      95(2)
_diffrn_detector_area_resol_mean 10.00
_diffrn_measured_fraction_theta_full 0.877
_diffrn_measured_fraction_theta_max 0.877
_diffrn_measurement_device_type  'Rigaku RAXIS-RAPID'
_diffrn_measurement_method       \w
_diffrn_radiation_monochromator  graphite
_diffrn_radiation_source         'fine-focus sealed tube'
_diffrn_radiation_type           CuK\a
_diffrn_radiation_wavelength     1.54187
_diffrn_reflns_av_R_equivalents  0.0465
_diffrn_reflns_av_sigmaI/netI    0.0639
_diffrn_reflns_limit_h_max       8
_diffrn_reflns_limit_h_min       -8
_diffrn_reflns_limit_k_max       8
_diffrn_reflns_limit_k_min       -6
_diffrn_reflns_limit_l_max       17
_diffrn_reflns_limit_l_min       -17
_diffrn_reflns_number            7244
_diffrn_reflns_theta_full        66.47
_diffrn_reflns_theta_max         66.47
_diffrn_reflns_theta_min         6.56
_exptl_absorpt_coefficient_mu    3.777
_exptl_absorpt_correction_T_max  0.7520
_exptl_absorpt_correction_T_min  0.4642
_exptl_absorpt_correction_type   multi-scan
_exptl_absorpt_process_details
;
    Higashi, T. (1995). Program for Absorption Correction.
    Rigaku Corporation, Tokyo, Japan.
;
_exptl_crystal_colour            'light yellow'
_exptl_crystal_density_diffrn    1.737
_exptl_crystal_density_method    'not measured'
_exptl_crystal_description       blade
_exptl_crystal_F_000             436
_exptl_crystal_size_max          0.24
_exptl_crystal_size_mid          0.08
_exptl_crystal_size_min          0.08
_refine_diff_density_max         1.152
_refine_diff_density_min         -0.953
_refine_diff_density_rms         0.136
_refine_ls_extinction_method     none
_refine_ls_goodness_of_fit_ref   1.235
_refine_ls_hydrogen_treatment    riding
_refine_ls_matrix_type           full
_refine_ls_number_parameters     245
_refine_ls_number_reflns         2581
_refine_ls_number_restraints     0
_refine_ls_restrained_S_all      1.235
_refine_ls_R_factor_all          0.0644
_refine_ls_R_factor_gt           0.0580
_refine_ls_shift/su_max          0.000
_refine_ls_shift/su_mean         0.000
_refine_ls_structure_factor_coef Fsqd
_refine_ls_weighting_details
'calc w=1/[\s^2^(Fo^2^)+(0.1114P)^2^+0.0000P] where P=(Fo^2^+2Fc^2^)/3'
_refine_ls_weighting_scheme      calc
_refine_ls_wR_factor_gt          0.1723
_refine_ls_wR_factor_ref         0.1917
_reflns_number_gt                2194
_reflns_number_total             2581
_reflns_threshold_expression     >2sigma(I)
_cod_data_source_file            cg101300n_si_002.cif
_cod_data_source_block           TNT:1BrNapth
_cod_original_cell_volume        830.17(6)
_cod_database_code               4502156
loop_
_symmetry_equiv_pos_as_xyz
'x, y, z'
'-x, -y, -z'
loop_
_atom_site_label
_atom_site_type_symbol
_atom_site_fract_x
_atom_site_fract_y
_atom_site_fract_z
_atom_site_U_iso_or_equiv
_atom_site_adp_type
_atom_site_occupancy
_atom_site_symmetry_multiplicity
_atom_site_calc_flag
_atom_site_refinement_flags
Br1 Br 0.43807(9) 0.40686(8) 0.12256(3) 0.0338(3) Uani 1 1 d .
O1 O 0.8845(5) 1.0411(5) 0.4028(2) 0.0280(9) Uani 1 1 d .
O2 O 1.1593(5) 1.1477(5) 0.3609(2) 0.0300(10) Uani 1 1 d .
O3 O 1.1982(5) 1.0090(5) 0.0385(2) 0.0296(10) Uani 1 1 d .
O4 O 1.1317(6) 0.7429(5) -0.0069(2) 0.0323(10) Uani 1 1 d .
O5 O 0.9514(5) 0.3125(5) 0.2104(2) 0.0291(9) Uani 1 1 d .
O6 O 0.7589(5) 0.3823(5) 0.3077(3) 0.0349(10) Uani 1 1 d .
N1 N 1.0202(6) 1.0386(6) 0.3558(3) 0.0186(10) Uani 1 1 d .
N2 N 1.1373(6) 0.8568(7) 0.0499(3) 0.0290(12) Uani 1 1 d .
N3 N 0.8812(6) 0.4196(7) 0.2541(3) 0.0284(11) Uani 1 1 d .
C1 C 0.8955(7) 0.6814(7) 0.4057(3) 0.0208(12) Uani 1 1 d .
H1 H 0.9205 0.5641 0.4187 0.025 Uiso 1 1 calc R
H2 H 0.7626 0.6879 0.4112 0.025 Uiso 1 1 calc R
H3 H 0.9696 0.7647 0.4486 0.025 Uiso 1 1 calc R
C2 C 0.9474(6) 0.7237(7) 0.3118(3) 0.0190(12) Uani 1 1 d .
C3 C 1.0131(7) 0.8938(7) 0.2885(3) 0.0198(12) Uani 1 1 d .
C4 C 1.0768(7) 0.9432(7) 0.2044(3) 0.0192(12) Uani 1 1 d .
H4 H 1.1217 1.0604 0.1925 0.023 Uiso 1 1 calc R
C5 C 1.0705(7) 0.8115(7) 0.1395(3) 0.0183(11) Uani 1 1 d .
C6 C 1.0067(7) 0.6419(7) 0.1552(3) 0.0223(12) Uani 1 1 d .
H5 H 1.0033 0.5537 0.1096 0.027 Uiso 1 1 calc R
C7 C 0.9479(7) 0.6047(7) 0.2400(3) 0.0216(12) Uani 1 1 d .
C8 C 0.4796(7) 0.6348(8) 0.1764(3) 0.0243(13) Uani 1 1 d .
C9 C 0.4404(6) 0.6602(7) 0.2686(3) 0.0184(12) Uani 1 1 d .
C10 C 0.3740(7) 0.5217(7) 0.3242(3) 0.0204(12) Uani 1 1 d .
H6 H 0.3527 0.4061 0.3000 0.025 Uiso 1 1 calc R
C11 C 0.3408(7) 0.5539(8) 0.4122(3) 0.0272(13) Uani 1 1 d .
H7 H 0.2973 0.4602 0.4488 0.033 Uiso 1 1 calc R
C12 C 0.3699(7) 0.7232(8) 0.4492(3) 0.0242(13) Uani 1 1 d .
H8 H 0.3459 0.7443 0.5105 0.029 Uiso 1 1 calc R
C13 C 0.4325(7) 0.8564(8) 0.3972(3) 0.0264(13) Uani 1 1 d .
H9 H 0.4512 0.9707 0.4230 0.032 Uiso 1 1 calc R
C14 C 0.4709(7) 0.8319(7) 0.3059(3) 0.0221(12) Uani 1 1 d .
C15 C 0.5404(7) 0.9685(8) 0.2513(3) 0.0261(13) Uani 1 1 d .
H10 H 0.5609 1.0840 0.2756 0.031 Uiso 1 1 calc R
C16 C 0.5790(7) 0.9368(8) 0.1631(3) 0.0246(13) Uani 1 1 d .
H11 H 0.6269 1.0303 0.1274 0.030 Uiso 1 1 calc R
C17 C 0.5484(7) 0.7687(8) 0.1260(3) 0.0282(14) Uani 1 1 d .
H12 H 0.5759 0.7480 0.0652 0.034 Uiso 1 1 calc R
loop_
_atom_site_aniso_label
_atom_site_aniso_U_11
_atom_site_aniso_U_22
_atom_site_aniso_U_33
_atom_site_aniso_U_23
_atom_site_aniso_U_13
_atom_site_aniso_U_12
Br1 0.0487(5) 0.0263(5) 0.0258(4) -0.0042(3) 0.0021(3) 0.0042(3)
O1 0.027(2) 0.030(3) 0.0263(19) -0.0078(16) 0.0006(15) 0.0058(18)
O2 0.031(2) 0.027(3) 0.0283(19) -0.0034(17) -0.0005(16) -0.0069(19)
O3 0.029(2) 0.032(3) 0.0258(19) 0.0076(17) 0.0039(16) -0.0026(19)
O4 0.040(2) 0.033(3) 0.0245(19) -0.0025(17) 0.0027(16) 0.008(2)
O5 0.042(2) 0.014(2) 0.033(2) -0.0007(16) -0.0001(17) 0.0099(18)
O6 0.028(2) 0.035(3) 0.038(2) -0.0007(19) 0.0047(17) -0.0082(19)
N1 0.028(3) 0.007(3) 0.022(2) 0.0034(17) -0.0045(17) 0.0074(19)
N2 0.021(2) 0.047(4) 0.019(2) 0.001(2) 0.0001(18) 0.005(2)
N3 0.023(3) 0.032(3) 0.027(2) 0.001(2) -0.0063(18) -0.001(2)
C1 0.023(3) 0.014(3) 0.025(3) 0.006(2) 0.000(2) -0.001(2)
C2 0.013(3) 0.021(4) 0.023(3) 0.003(2) -0.0049(19) 0.003(2)
C3 0.017(3) 0.018(3) 0.024(2) -0.005(2) -0.0027(19) 0.004(2)
C4 0.016(3) 0.016(3) 0.026(3) 0.004(2) 0.0018(19) 0.004(2)
C5 0.017(3) 0.016(3) 0.022(2) 0.006(2) -0.0007(19) 0.001(2)
C6 0.018(3) 0.025(4) 0.023(2) -0.002(2) -0.0037(19) 0.002(2)
C7 0.013(3) 0.022(4) 0.028(3) 0.002(2) -0.0050(19) -0.002(2)
C8 0.017(3) 0.036(4) 0.017(2) -0.009(2) -0.0003(19) -0.002(2)
C9 0.012(2) 0.023(3) 0.020(2) 0.005(2) -0.0004(18) 0.000(2)
C10 0.018(3) 0.015(3) 0.028(3) -0.005(2) -0.0045(19) 0.003(2)
C11 0.018(3) 0.038(4) 0.026(3) 0.006(2) -0.002(2) 0.003(3)
C12 0.018(3) 0.036(4) 0.018(2) 0.003(2) -0.001(2) 0.002(2)
C13 0.019(3) 0.032(4) 0.027(3) -0.008(2) -0.004(2) 0.004(2)
C14 0.014(3) 0.027(4) 0.024(3) -0.003(2) -0.0040(19) 0.002(2)
C15 0.016(3) 0.030(4) 0.030(3) -0.003(2) -0.004(2) -0.002(2)
C16 0.020(3) 0.024(4) 0.029(3) 0.003(2) 0.002(2) 0.001(2)
C17 0.017(3) 0.049(4) 0.018(2) -0.003(2) 0.0007(19) 0.003(3)
loop_
_atom_type_symbol
_atom_type_description
_atom_type_scat_dispersion_real
_atom_type_scat_dispersion_imag
_atom_type_scat_source
C C 0.0181 0.0091 'International Tables Vol C Tables 4.2.6.8 and 6.1.1.4'
H H 0.0000 0.0000 'International Tables Vol C Tables 4.2.6.8 and 6.1.1.4'
N N 0.0311 0.0180 'International Tables Vol C Tables 4.2.6.8 and 6.1.1.4'
O O 0.0492 0.0322 'International Tables Vol C Tables 4.2.6.8 and 6.1.1.4'
Br Br -0.6763 1.2805 'International Tables Vol C Tables 4.2.6.8 and 6.1.1.4'
loop_
_geom_angle_atom_site_label_1
_geom_angle_atom_site_label_2
_geom_angle_atom_site_label_3
_geom_angle
O2 N1 O1 124.5(4)
O2 N1 C3 117.7(4)
O1 N1 C3 117.8(4)
O4 N2 O3 124.1(4)
O4 N2 C5 118.5(5)
O3 N2 C5 117.4(4)
O5 N3 O6 124.2(5)
O5 N3 C7 117.1(4)
O6 N3 C7 118.7(5)
C2 C1 H1 109.5
C2 C1 H2 109.5
H1 C1 H2 109.5
C2 C1 H3 109.5
H1 C1 H3 109.5
H2 C1 H3 109.5
C7 C2 C3 112.3(4)
C7 C2 C1 126.1(5)
C3 C2 C1 121.6(4)
C4 C3 C2 125.4(5)
C4 C3 N1 114.6(5)
C2 C3 N1 120.0(4)
C5 C4 C3 116.2(5)
C5 C4 H4 121.9
C3 C4 H4 121.9
C6 C5 C4 122.9(5)
C6 C5 N2 118.9(5)
C4 C5 N2 118.2(5)
C5 C6 C7 117.1(5)
C5 C6 H5 121.4
C7 C6 H5 121.4
C6 C7 C2 126.2(5)
C6 C7 N3 115.3(5)
C2 C7 N3 118.6(4)
C17 C8 C9 121.6(5)
C17 C8 Br1 118.7(4)
C9 C8 Br1 119.6(4)
C14 C9 C10 119.0(4)
C14 C9 C8 118.0(5)
C10 C9 C8 123.0(5)
C11 C10 C9 120.3(5)
C11 C10 H6 119.8
C9 C10 H6 119.8
C10 C11 C12 120.9(5)
C10 C11 H7 119.5
C12 C11 H7 119.5
C13 C12 C11 119.5(5)
C13 C12 H8 120.2
C11 C12 H8 120.2
C12 C13 C14 122.4(5)
C12 C13 H9 118.8
C14 C13 H9 118.8
C15 C14 C13 123.2(5)
C15 C14 C9 119.0(5)
C13 C14 C9 117.8(5)
C16 C15 C14 120.8(5)
C16 C15 H10 119.6
C14 C15 H10 119.6
C15 C16 C17 120.5(5)
C15 C16 H11 119.7
C17 C16 H11 119.7
C8 C17 C16 120.1(5)
C8 C17 H12 119.9
C16 C17 H12 119.9
loop_
_geom_bond_atom_site_label_1
_geom_bond_atom_site_label_2
_geom_bond_distance
Br1 C8 1.907(5)
O1 N1 1.238(5)
O2 N1 1.221(5)
O3 N2 1.225(6)
O4 N2 1.203(6)
O5 N3 1.227(6)
O6 N3 1.232(6)
N1 C3 1.482(6)
N2 C5 1.475(6)
N3 C7 1.480(7)
C1 C2 1.497(6)
C1 H1 0.9800
C1 H2 0.9800
C1 H3 0.9800
C2 C7 1.396(7)
C2 C3 1.403(7)
C3 C4 1.399(7)
C4 C5 1.384(7)
C4 H4 0.9500
C5 C6 1.368(7)
C6 C7 1.375(7)
C6 H5 0.9500
C8 C17 1.353(8)
C8 C9 1.428(6)
C9 C14 1.418(7)
C9 C10 1.422(7)
C10 C11 1.364(7)
C10 H6 0.9500
C11 C12 1.400(7)
C11 H7 0.9500
C12 C13 1.351(8)
C12 H8 0.9500
C13 C14 1.413(7)
C13 H9 0.9500
C14 C15 1.408(7)
C15 C16 1.377(7)
C15 H10 0.9500
C16 C17 1.392(8)
C16 H11 0.9500
C17 H12 0.9500
loop_
_geom_torsion_atom_site_label_1
_geom_torsion_atom_site_label_2
_geom_torsion_atom_site_label_3
_geom_torsion_atom_site_label_4
_geom_torsion
C7 C2 C3 C4 -1.3(7)
C1 C2 C3 C4 175.3(5)
C7 C2 C3 N1 179.1(4)
C1 C2 C3 N1 -4.3(7)
O2 N1 C3 C4 -42.8(6)
O1 N1 C3 C4 136.9(4)
O2 N1 C3 C2 136.8(5)
O1 N1 C3 C2 -43.5(6)
C2 C3 C4 C5 1.0(7)
N1 C3 C4 C5 -179.4(4)
C3 C4 C5 C6 -0.1(7)
C3 C4 C5 N2 -179.6(4)
O4 N2 C5 C6 0.7(7)
O3 N2 C5 C6 -178.1(4)
O4 N2 C5 C4 -179.8(4)
O3 N2 C5 C4 1.4(7)
C4 C5 C6 C7 -0.2(7)
N2 C5 C6 C7 179.2(4)
C5 C6 C7 C2 -0.2(8)
C5 C6 C7 N3 -179.6(4)
C3 C2 C7 C6 0.9(7)
C1 C2 C7 C6 -175.6(5)
C3 C2 C7 N3 -179.7(4)
C1 C2 C7 N3 3.9(7)
O5 N3 C7 C6 30.1(6)
O6 N3 C7 C6 -149.3(5)
O5 N3 C7 C2 -149.4(4)
O6 N3 C7 C2 31.2(6)
C17 C8 C9 C14 1.7(7)
Br1 C8 C9 C14 -179.2(3)
C17 C8 C9 C10 -177.8(5)
Br1 C8 C9 C10 1.2(7)
C14 C9 C10 C11 -0.2(7)
C8 C9 C10 C11 179.4(5)
C9 C10 C11 C12 0.4(7)
C10 C11 C12 C13 -0.2(8)
C11 C12 C13 C14 -0.2(8)
C12 C13 C14 C15 -178.4(5)
C12 C13 C14 C9 0.5(7)
C10 C9 C14 C15 178.7(4)
C8 C9 C14 C15 -0.9(7)
C10 C9 C14 C13 -0.3(7)
C8 C9 C14 C13 -179.8(4)
C13 C14 C15 C16 178.7(5)
C9 C14 C15 C16 -0.2(7)
C14 C15 C16 C17 0.6(8)
C9 C8 C17 C16 -1.4(8)
Br1 C8 C17 C16 179.5(4)
C15 C16 C17 C8 0.2(8)
