#------------------------------------------------------------------------------
#$Date: 2016-03-24 02:02:04 +0200 (Thu, 24 Mar 2016) $
#$Revision: 179552 $
#$URL: svn://www.crystallography.net/cod/cif/4/50/21/4502170.cif $
#------------------------------------------------------------------------------
#
# This file is available in the Crystallography Open Database (COD),
# http://www.crystallography.net/
#
# All data on this site have been placed in the public domain by the
# contributors.
#
data_4502170
loop_
_publ_author_name
'Landenberger, Kira B.'
'Matzger, Adam J.'
_publ_section_title
;
 Cocrystal Engineering of a Prototype Energetic Material: Supramolecular
 Chemistry of 2,4,6-Trinitrotoluene
;
_journal_issue                   12
_journal_name_full               'Crystal Growth &amp; Design'
_journal_page_first              5341
_journal_paper_doi               10.1021/cg101300n
_journal_volume                  10
_journal_year                    2010
_chemical_formula_moiety         'C7 H5 N3 O6, C7 H7 N O2'
_chemical_formula_sum            'C14 H12 N4 O8'
_chemical_formula_weight         364.28
_chemical_melting_point          424.9
_chemical_name_common            'TNT : anthranilic acid'
_chemical_name_systematic
; 
 2,4,6-trinitrotoluene:anthranilic acid : anthranilic acid
;
_space_group_IT_number           2
_symmetry_cell_setting           triclinic
_symmetry_Int_Tables_number      2
_symmetry_space_group_name_Hall  '-P 1'
_symmetry_space_group_name_H-M   'P -1'
_atom_sites_solution_hydrogens   geom
_atom_sites_solution_primary     direct
_atom_sites_solution_secondary   difmap
_audit_creation_method           SHELXL-97
_cell_angle_alpha                86.507(6)
_cell_angle_beta                 80.859(6)
_cell_angle_gamma                68.812(5)
_cell_formula_units_Z            2
_cell_length_a                   6.68253(12)
_cell_length_b                   8.67582(16)
_cell_length_c                   14.2195(10)
_cell_measurement_reflns_used    9138
_cell_measurement_temperature    95(2)
_cell_measurement_theta_max      66.66
_cell_measurement_theta_min      7.18
_cell_volume                     758.90(6)
_computing_cell_refinement       PROCESS-AUTO
_computing_data_collection       PROCESS-AUTO
_computing_data_reduction        PROCESS
_computing_molecular_graphics    'CrystalStructure 4.0 (Rigaku, 2009)'
_computing_publication_material  'CrystalStructure 4.0 (Rigaku, 2009)'
_computing_structure_refinement  'SHELXL-97 (Sheldrick, 1997)'
_computing_structure_solution    'SHELXD (Schneider, et al., 2002)'
_diffrn_ambient_temperature      95(2)
_diffrn_measured_fraction_theta_full 0.953
_diffrn_measured_fraction_theta_max 0.953
_diffrn_measurement_device_type  'Rigaku R-AXIS RAPID imaging plate'
_diffrn_measurement_method       \w
_diffrn_radiation_monochromator  graphite
_diffrn_radiation_source         'fine-focus sealed tube'
_diffrn_radiation_type           CuK\a
_diffrn_radiation_wavelength     1.54187
_diffrn_reflns_av_R_equivalents  0.0409
_diffrn_reflns_av_sigmaI/netI    0.0621
_diffrn_reflns_limit_h_max       7
_diffrn_reflns_limit_h_min       -7
_diffrn_reflns_limit_k_max       8
_diffrn_reflns_limit_k_min       -10
_diffrn_reflns_limit_l_max       16
_diffrn_reflns_limit_l_min       -16
_diffrn_reflns_number            10451
_diffrn_reflns_theta_full        66.58
_diffrn_reflns_theta_max         66.58
_diffrn_reflns_theta_min         7.19
_diffrn_standards_number         0
_exptl_absorpt_coefficient_mu    1.157
_exptl_absorpt_correction_T_max  0.9444
_exptl_absorpt_correction_T_min  0.7453
_exptl_absorpt_correction_type   multi-scan
_exptl_absorpt_process_details
;
    Higashi, T. (1995). Program for Absorption Correction.
    Rigaku Corporation, Tokyo, Japan.
;
_exptl_crystal_colour            yellow
_exptl_crystal_density_diffrn    1.594
_exptl_crystal_density_method    'not measured'
_exptl_crystal_description       blade
_exptl_crystal_F_000             376
_exptl_crystal_size_max          0.27
_exptl_crystal_size_mid          0.19
_exptl_crystal_size_min          0.05
_refine_diff_density_max         0.312
_refine_diff_density_min         -0.294
_refine_diff_density_rms         0.070
_refine_ls_extinction_method     none
_refine_ls_goodness_of_fit_ref   1.002
_refine_ls_hydrogen_treatment    riding
_refine_ls_matrix_type           full
_refine_ls_number_parameters     235
_refine_ls_number_reflns         2557
_refine_ls_number_restraints     0
_refine_ls_restrained_S_all      1.002
_refine_ls_R_factor_all          0.0664
_refine_ls_R_factor_gt           0.0507
_refine_ls_shift/su_max          0.000
_refine_ls_shift/su_mean         0.000
_refine_ls_structure_factor_coef Fsqd
_refine_ls_weighting_details
'calc w=1/[\s^2^(Fo^2^)+(0.0836P)^2^+0.0000P] where P=(Fo^2^+2Fc^2^)/3'
_refine_ls_weighting_scheme      calc
_refine_ls_wR_factor_gt          0.1323
_refine_ls_wR_factor_ref         0.1452
_reflns_number_gt                1714
_reflns_number_total             2557
_reflns_threshold_expression     >2sigma(I)
_cod_data_source_file            cg101300n_si_002.cif
_cod_data_source_block           TNT:AntA_1:1
_cod_database_code               4502170
loop_
_symmetry_equiv_pos_as_xyz
'x, y, z'
'-x, -y, -z'
loop_
_atom_site_label
_atom_site_type_symbol
_atom_site_fract_x
_atom_site_fract_y
_atom_site_fract_z
_atom_site_U_iso_or_equiv
_atom_site_adp_type
_atom_site_occupancy
_atom_site_symmetry_multiplicity
_atom_site_calc_flag
_atom_site_refinement_flags
O1 O 0.1562(3) 0.3831(3) 0.35594(14) 0.0425(6) Uani 1 1 d .
O2 O 0.2052(3) 0.5460(3) 0.45328(13) 0.0411(6) Uani 1 1 d .
O3 O -0.1469(3) 1.1271(2) 0.39885(13) 0.0374(5) Uani 1 1 d .
O4 O -0.1906(3) 1.2158(2) 0.25473(13) 0.0419(6) Uani 1 1 d .
O5 O 0.1997(3) 0.8400(2) -0.00558(12) 0.0359(5) Uani 1 1 d .
O6 O 0.1329(3) 0.6116(3) 0.01040(13) 0.0414(6) Uani 1 1 d .
O7 O 0.3920(3) 1.0744(2) 0.11766(11) 0.0278(5) Uani 1 1 d .
H7 H 0.3888 1.0956 0.0594 0.033 Uiso 1 1 calc R
O8 O 0.6286(3) 0.8310(2) 0.05963(11) 0.0279(5) Uani 1 1 d .
N1 N 0.1686(3) 0.5146(3) 0.37589(16) 0.0310(6) Uani 1 1 d .
N2 N -0.1275(3) 1.1054(3) 0.31288(15) 0.0278(6) Uani 1 1 d .
N3 N 0.1539(3) 0.7313(3) 0.04302(15) 0.0291(6) Uani 1 1 d .
N4 N 0.7238(3) 0.5750(3) 0.18547(14) 0.0274(6) Uani 1 1 d .
H4A H 0.7798 0.4714 0.2037 0.033 Uiso 1 1 calc R
H4B H 0.7302 0.6000 0.1244 0.033 Uiso 1 1 calc R
C1 C 0.3089(4) 0.4396(3) 0.16853(19) 0.0338(7) Uani 1 1 d .
H1 H 0.2085 0.3848 0.1592 0.041 Uiso 1 1 calc R
H2 H 0.4037 0.3759 0.2141 0.041 Uiso 1 1 calc R
H3 H 0.3973 0.4464 0.1075 0.041 Uiso 1 1 calc R
C2 C 0.1818(4) 0.6112(3) 0.20654(18) 0.0251(7) Uani 1 1 d .
C3 C 0.1265(4) 0.6485(3) 0.30422(17) 0.0225(6) Uani 1 1 d .
C4 C 0.0312(4) 0.8063(3) 0.34029(17) 0.0242(7) Uani 1 1 d .
H4 H 0.0049 0.8255 0.4070 0.029 Uiso 1 1 calc R
C5 C -0.0245(4) 0.9349(3) 0.27684(17) 0.0233(6) Uani 1 1 d .
C6 C 0.0163(4) 0.9114(3) 0.17942(17) 0.0226(6) Uani 1 1 d .
H5 H -0.0231 1.0018 0.1364 0.027 Uiso 1 1 calc R
C7 C 0.1172(4) 0.7501(4) 0.14735(17) 0.0251(7) Uani 1 1 d .
C8 C 0.5223(4) 0.9207(3) 0.12848(18) 0.0244(6) Uani 1 1 d .
C9 C 0.5287(4) 0.8660(3) 0.22775(16) 0.0210(6) Uani 1 1 d .
C10 C 0.6269(4) 0.6968(3) 0.25188(17) 0.0231(6) Uani 1 1 d .
C11 C 0.6187(4) 0.6535(4) 0.34937(17) 0.0271(7) Uani 1 1 d .
H9 H 0.6806 0.5408 0.3672 0.033 Uiso 1 1 calc R
C12 C 0.5227(4) 0.7717(4) 0.41886(18) 0.0273(7) Uani 1 1 d .
H10 H 0.5207 0.7395 0.4840 0.033 Uiso 1 1 calc R
C13 C 0.4280(4) 0.9384(4) 0.39550(17) 0.0266(7) Uani 1 1 d .
H11 H 0.3627 1.0194 0.4441 0.032 Uiso 1 1 calc R
C14 C 0.4308(4) 0.9835(3) 0.30084(17) 0.0240(6) Uani 1 1 d .
H12 H 0.3650 1.0966 0.2846 0.029 Uiso 1 1 calc R
loop_
_atom_site_aniso_label
_atom_site_aniso_U_11
_atom_site_aniso_U_22
_atom_site_aniso_U_33
_atom_site_aniso_U_23
_atom_site_aniso_U_13
_atom_site_aniso_U_12
O1 0.0479(13) 0.0199(14) 0.0521(13) 0.0015(10) 0.0020(10) -0.0074(11)
O2 0.0419(12) 0.0475(15) 0.0360(12) 0.0149(10) -0.0156(9) -0.0166(11)
O3 0.0392(11) 0.0365(14) 0.0317(11) -0.0122(10) 0.0011(9) -0.0082(10)
O4 0.0490(13) 0.0238(14) 0.0453(13) 0.0042(10) -0.0141(10) -0.0017(10)
O5 0.0346(11) 0.0396(15) 0.0302(11) 0.0061(10) -0.0042(8) -0.0105(10)
O6 0.0441(12) 0.0452(16) 0.0370(12) -0.0169(11) -0.0027(9) -0.0170(11)
O7 0.0328(10) 0.0213(12) 0.0218(10) 0.0010(8) -0.0059(8) 0.0001(9)
O8 0.0280(10) 0.0254(13) 0.0225(10) -0.0035(9) -0.0020(8) -0.0003(9)
N1 0.0226(12) 0.0264(17) 0.0348(14) 0.0068(12) -0.0012(10) 0.0000(11)
N2 0.0224(11) 0.0236(16) 0.0346(13) -0.0028(12) -0.0057(10) -0.0040(10)
N3 0.0227(12) 0.0328(18) 0.0280(13) -0.0062(12) -0.0037(10) -0.0043(11)
N4 0.0289(12) 0.0205(15) 0.0265(12) 0.0011(10) -0.0042(9) -0.0015(11)
C1 0.0300(15) 0.0260(19) 0.0409(17) -0.0066(14) -0.0028(12) -0.0046(14)
C2 0.0174(13) 0.0251(18) 0.0311(15) -0.0015(13) -0.0050(11) -0.0046(12)
C3 0.0201(13) 0.0154(17) 0.0298(14) 0.0027(12) -0.0073(11) -0.0027(12)
C4 0.0178(12) 0.0257(18) 0.0261(14) 0.0002(13) -0.0057(11) -0.0033(12)
C5 0.0168(13) 0.0214(18) 0.0289(14) -0.0025(13) -0.0062(11) -0.0016(11)
C6 0.0189(13) 0.0209(17) 0.0277(14) 0.0026(12) -0.0090(11) -0.0047(12)
C7 0.0193(13) 0.0299(19) 0.0244(14) -0.0044(13) -0.0047(11) -0.0056(13)
C8 0.0193(13) 0.0248(18) 0.0273(14) 0.0011(13) -0.0043(11) -0.0055(12)
C9 0.0174(12) 0.0209(17) 0.0218(13) 0.0008(12) -0.0033(10) -0.0034(11)
C10 0.0166(12) 0.0267(18) 0.0243(13) -0.0007(12) -0.0018(10) -0.0062(12)
C11 0.0225(14) 0.0285(19) 0.0265(14) 0.0069(13) -0.0052(11) -0.0048(13)
C12 0.0199(13) 0.036(2) 0.0236(14) 0.0034(13) -0.0043(11) -0.0079(13)
C13 0.0205(13) 0.0292(19) 0.0271(14) -0.0023(13) -0.0037(11) -0.0049(12)
C14 0.0183(12) 0.0248(18) 0.0269(14) 0.0007(12) -0.0051(11) -0.0046(12)
loop_
_atom_type_symbol
_atom_type_description
_atom_type_scat_dispersion_real
_atom_type_scat_dispersion_imag
_atom_type_scat_source
C C 0.0181 0.0091 'International Tables Vol C Tables 4.2.6.8 and 6.1.1.4'
H H 0.0000 0.0000 'International Tables Vol C Tables 4.2.6.8 and 6.1.1.4'
N N 0.0311 0.0180 'International Tables Vol C Tables 4.2.6.8 and 6.1.1.4'
O O 0.0492 0.0322 'International Tables Vol C Tables 4.2.6.8 and 6.1.1.4'
loop_
_geom_angle_atom_site_label_1
_geom_angle_atom_site_label_2
_geom_angle_atom_site_label_3
_geom_angle
C8 O7 H7 109.5
O1 N1 O2 124.7(2)
O1 N1 C3 118.2(2)
O2 N1 C3 117.1(2)
O4 N2 O3 124.5(2)
O4 N2 C5 117.4(2)
O3 N2 C5 118.0(2)
O6 N3 O5 124.4(2)
O6 N3 C7 118.2(2)
O5 N3 C7 117.3(2)
C10 N4 H4A 120.0
C10 N4 H4B 120.0
H4A N4 H4B 120.0
C2 C1 H1 109.5
C2 C1 H2 109.5
H1 C1 H2 109.5
C2 C1 H3 109.5
H1 C1 H3 109.5
H2 C1 H3 109.5
C7 C2 C3 113.7(2)
C7 C2 C1 122.8(2)
C3 C2 C1 123.4(2)
C4 C3 C2 124.2(2)
C4 C3 N1 115.4(2)
C2 C3 N1 120.4(2)
C5 C4 C3 117.8(2)
C5 C4 H4 121.1
C3 C4 H4 121.1
C4 C5 C6 122.5(2)
C4 C5 N2 119.3(2)
C6 C5 N2 118.2(2)
C5 C6 C7 117.0(2)
C5 C6 H5 121.5
C7 C6 H5 121.5
C6 C7 C2 124.6(2)
C6 C7 N3 114.9(2)
C2 C7 N3 120.5(2)
O8 C8 O7 122.2(2)
O8 C8 C9 123.5(2)
O7 C8 C9 114.3(2)
C14 C9 C10 119.3(2)
C14 C9 C8 119.1(2)
C10 C9 C8 121.5(2)
N4 C10 C11 118.9(2)
N4 C10 C9 123.1(2)
C11 C10 C9 118.0(2)
C12 C11 C10 121.1(3)
C12 C11 H9 119.5
C10 C11 H9 119.5
C11 C12 C13 121.1(2)
C11 C12 H10 119.4
C13 C12 H10 119.4
C14 C13 C12 118.9(3)
C14 C13 H11 120.6
C12 C13 H11 120.6
C13 C14 C9 121.6(3)
C13 C14 H12 119.2
C9 C14 H12 119.2
loop_
_geom_bond_atom_site_label_1
_geom_bond_atom_site_label_2
_geom_bond_distance
O1 N1 1.227(3)
O2 N1 1.231(3)
O3 N2 1.227(2)
O4 N2 1.225(3)
O5 N3 1.233(3)
O6 N3 1.224(3)
O7 C8 1.319(3)
O7 H7 0.8400
O8 C8 1.241(3)
N1 C3 1.476(3)
N2 C5 1.472(3)
N3 C7 1.474(3)
N4 C10 1.364(3)
N4 H4A 0.8800
N4 H4B 0.8800
C1 C2 1.506(4)
C1 H1 0.9800
C1 H2 0.9800
C1 H3 0.9800
C2 C7 1.401(4)
C2 C3 1.406(3)
C3 C4 1.376(3)
C4 C5 1.372(3)
C4 H4 0.9500
C5 C6 1.382(3)
C6 C7 1.385(3)
C6 H5 0.9500
C8 C9 1.464(3)
C9 C14 1.406(3)
C9 C10 1.420(4)
C10 C11 1.412(3)
C11 C12 1.373(4)
C11 H9 0.9500
C12 C13 1.396(4)
C12 H10 0.9500
C13 C14 1.378(3)
C13 H11 0.9500
C14 H12 0.9500
loop_
_geom_torsion_atom_site_label_1
_geom_torsion_atom_site_label_2
_geom_torsion_atom_site_label_3
_geom_torsion_atom_site_label_4
_geom_torsion
C7 C2 C3 C4 -4.2(4)
C1 C2 C3 C4 172.7(2)
C7 C2 C3 N1 175.5(2)
C1 C2 C3 N1 -7.6(4)
O1 N1 C3 C4 147.1(2)
O2 N1 C3 C4 -30.0(3)
O1 N1 C3 C2 -32.6(3)
O2 N1 C3 C2 150.3(2)
C2 C3 C4 C5 3.9(4)
N1 C3 C4 C5 -175.9(2)
C3 C4 C5 C6 -1.6(4)
C3 C4 C5 N2 179.7(2)
O4 N2 C5 C4 -174.3(2)
O3 N2 C5 C4 4.8(3)
O4 N2 C5 C6 6.9(3)
O3 N2 C5 C6 -173.9(2)
C4 C5 C6 C7 0.1(4)
N2 C5 C6 C7 178.8(2)
C5 C6 C7 C2 -0.7(4)
C5 C6 C7 N3 179.0(2)
C3 C2 C7 C6 2.6(4)
C1 C2 C7 C6 -174.4(2)
C3 C2 C7 N3 -177.1(2)
C1 C2 C7 N3 5.9(4)
O6 N3 C7 C6 -142.8(2)
O5 N3 C7 C6 35.8(3)
O6 N3 C7 C2 37.0(3)
O5 N3 C7 C2 -144.5(2)
O8 C8 C9 C14 169.9(2)
O7 C8 C9 C14 -10.6(3)
O8 C8 C9 C10 -11.7(4)
O7 C8 C9 C10 167.9(2)
C14 C9 C10 N4 179.5(2)
C8 C9 C10 N4 1.0(4)
C14 C9 C10 C11 0.9(3)
C8 C9 C10 C11 -177.5(2)
N4 C10 C11 C12 -179.9(2)
C9 C10 C11 C12 -1.3(4)
C10 C11 C12 C13 0.7(4)
C11 C12 C13 C14 0.4(4)
C12 C13 C14 C9 -0.8(4)
C10 C9 C14 C13 0.1(4)
C8 C9 C14 C13 178.6(2)
