#------------------------------------------------------------------------------
#$Date: 2017-10-13 14:42:48 +0300 (Fri, 13 Oct 2017) $
#$Revision: 201982 $
#$URL: file:///home/coder/svn-repositories/cod/cif/4/50/39/4503927.cif $
#------------------------------------------------------------------------------
#
# This file is available in the Crystallography Open Database (COD),
# http://www.crystallography.net/
#
# All data on this site have been placed in the public domain by the
# contributors.
#
data_4503927
loop_
_publ_author_name
'Chopra, Deepak'
'Thiruvenkatam, Vijay'
'Manjunath, S. G.'
'Guru Row, Tayur N.'
_publ_section_title
;
 Variability in Halogen Interactions:&#x00A0; In situ Cryocrystallization
 of Low Melting Substituted Trifluoroacetophenones
;
_journal_issue                   5
_journal_name_full               'Crystal Growth &amp; Design'
_journal_page_first              868
_journal_paper_doi               10.1021/cg0604881
_journal_volume                  7
_journal_year                    2007
_chemical_formula_moiety         'C8 H4 Br F3 O'
_chemical_formula_sum            'C8 H4 Br F3 O'
_chemical_formula_weight         253.01
_chemical_name_systematic        ?
_space_group_IT_number           14
_symmetry_cell_setting           monoclinic
_symmetry_Int_Tables_number      14
_symmetry_space_group_name_Hall  '-P 2ybc'
_symmetry_space_group_name_H-M   'P 1 21/c 1'
_atom_sites_solution_hydrogens   geom
_atom_sites_solution_primary     direct
_atom_sites_solution_secondary   difmap
_cell_angle_alpha                90
_cell_angle_beta                 101.110(15)
_cell_angle_gamma                90
_cell_formula_units_Z            4
_cell_length_a                   11.862(10)
_cell_length_b                   10.237(9)
_cell_length_c                   7.298(6)
_cell_measurement_reflns_used    935
_cell_measurement_temperature    135(2)
_cell_measurement_theta_max      25.4
_cell_measurement_theta_min      1.8
_cell_volume                     869.6(13)
_computing_cell_refinement       SMART
_computing_data_collection       'SMART (Bruker, 1998)'
_computing_data_reduction        'SAINT (Bruker, 1998)'
_computing_molecular_graphics
'Ortep-3 for Windows (Farrugia, 1997) and CAMERON (Watkin et al., 1993)'
_computing_publication_material  'PLATON (Spek, 2003)'
_computing_structure_refinement  'SHELXL-97 (Sheldrick, 1997)'
_computing_structure_solution    'SIR92 (Altomare et al., 1993)'
_diffrn_ambient_temperature      135(2)
_diffrn_measured_fraction_theta_full 0.999
_diffrn_measured_fraction_theta_max 0.921
_diffrn_measurement_device_type  'Bruker SMART CCD area detector'
_diffrn_measurement_method       '\f and \w scans'
_diffrn_radiation_monochromator  graphite
_diffrn_radiation_source         'fine-focus sealed tube'
_diffrn_radiation_type           MoK\a
_diffrn_radiation_wavelength     0.71073
_diffrn_reflns_av_R_equivalents  0.0717
_diffrn_reflns_av_sigmaI/netI    0.0690
_diffrn_reflns_limit_h_max       14
_diffrn_reflns_limit_h_min       -14
_diffrn_reflns_limit_k_max       12
_diffrn_reflns_limit_k_min       -12
_diffrn_reflns_limit_l_max       9
_diffrn_reflns_limit_l_min       -9
_diffrn_reflns_number            6407
_diffrn_reflns_reduction_process
;
;
_diffrn_reflns_theta_full        25.00
_diffrn_reflns_theta_max         27.23
_diffrn_reflns_theta_min         1.75
_exptl_absorpt_coefficient_mu    4.729
_exptl_absorpt_correction_T_max  0.388
_exptl_absorpt_correction_T_min  0.255
_exptl_absorpt_correction_type   multi-scan
_exptl_absorpt_process_details   '(SADABS; Sheldrick, 1997)'
_exptl_crystal_colour            colorless
_exptl_crystal_density_diffrn    1.933
_exptl_crystal_density_method    'Not Measured'
_exptl_crystal_description       blocks
_exptl_crystal_F_000             488
_exptl_crystal_size_max          0.30
_exptl_crystal_size_mid          0.25
_exptl_crystal_size_min          0.20
_refine_diff_density_max         0.725
_refine_diff_density_min         -0.358
_refine_diff_density_rms         0.093
_refine_ls_extinction_method     none
_refine_ls_goodness_of_fit_ref   0.996
_refine_ls_hydrogen_treatment    mixed
_refine_ls_matrix_type           full
_refine_ls_number_parameters     134
_refine_ls_number_reflns         1785
_refine_ls_number_restraints     0
_refine_ls_restrained_S_all      0.996
_refine_ls_R_factor_all          0.0783
_refine_ls_R_factor_gt           0.0405
_refine_ls_shift/su_max          0.000
_refine_ls_shift/su_mean         0.000
_refine_ls_structure_factor_coef Fsqd
_refine_ls_weighting_details
'calc w=1/[\s^2^(Fo^2^)+(0.0376P)^2^+0.0000P] where P=(Fo^2^+2Fc^2^)/3'
_refine_ls_weighting_scheme      calc
_refine_ls_wR_factor_gt          0.0842
_refine_ls_wR_factor_ref         0.0962
_reflns_number_gt                1145
_reflns_number_total             1785
_reflns_threshold_expression     >2sigma(I)
_cod_data_source_file            cg0604881si20070308_121156.cif
_cod_data_source_block           pbrtrif
_cod_depositor_comments
;
The following automatic conversions were performed:
'__diffrn_ambient_temperature' tag replaced with
'_diffrn_ambient_temperature'.

Automatic conversion script
Id: cif_correct_tags 1440 2010-10-19 06:21:57Z saulius 

The following automatic conversions were performed:

'_symmetry_cell_setting' value 'Monoclinic' changed to 'monoclinic'
according to /home/saulius/struct/CIF-dictionaries/cif_core.dic
dictionary named 'cif_core.dic' version 2.4.1 from 2010-06-29.

Automatic conversion script
Id: cif_fix_values 1715 2011-07-08 13:25:40Z adriana 
;
_cod_original_sg_symbol_H-M      'P 21/c'
_cod_database_code               4503927
loop_
_symmetry_equiv_pos_site_id
_symmetry_equiv_pos_as_xyz
1 x,y,z
2 -x,1/2+y,1/2-z
3 -x,-y,-z
4 x,1/2-y,1/2+z
loop_
_atom_site_label
_atom_site_type_symbol
_atom_site_fract_x
_atom_site_fract_y
_atom_site_fract_z
_atom_site_U_iso_or_equiv
_atom_site_adp_type
_atom_site_occupancy
_atom_site_symmetry_multiplicity
_atom_site_calc_flag
Br1 Br 0.65929(4) -0.02475(4) 0.15559(6) 0.0613(2) Uani 1 1 d
O1 O 0.6636(2) 0.6451(3) 0.1580(4) 0.0688(9) Uani 1 1 d
C4 C 0.7250(3) 0.4243(4) 0.1658(5) 0.0456(9) Uani 1 1 d
C7 C 0.7407(4) 0.5668(4) 0.1701(5) 0.0513(10) Uani 1 1 d
C5 C 0.6146(3) 0.3757(5) 0.1599(6) 0.0510(10) Uani 1 1 d
C6 C 0.5937(3) 0.2439(5) 0.1570(6) 0.0503(10) Uani 1 1 d
F3 F 0.9281(2) 0.5789(3) 0.3542(5) 0.1006(10) Uani 1 1 d
C1 C 0.6838(3) 0.1577(4) 0.1594(5) 0.0448(9) Uani 1 1 d
F2 F 0.9160(2) 0.5854(3) 0.0592(4) 0.0945(10) Uani 1 1 d
F1 F 0.8655(3) 0.7492(3) 0.1998(5) 0.1069(10) Uani 1 1 d
C2 C 0.7935(4) 0.2032(4) 0.1623(6) 0.0597(12) Uani 1 1 d
C3 C 0.8135(4) 0.3347(4) 0.1659(7) 0.0594(12) Uani 1 1 d
C8 C 0.8642(4) 0.6216(5) 0.1968(8) 0.0681(13) Uani 1 1 d
H5 H 0.554(4) 0.442(5) 0.168(6) 0.087(15) Uiso 1 1 d
H3 H 0.889(3) 0.368(4) 0.165(5) 0.069(13) Uiso 1 1 d
H2 H 0.856(4) 0.135(5) 0.157(5) 0.083(14) Uiso 1 1 d
H6 H 0.521(4) 0.216(5) 0.163(7) 0.092(16) Uiso 1 1 d
loop_
_atom_site_aniso_label
_atom_site_aniso_U_11
_atom_site_aniso_U_22
_atom_site_aniso_U_33
_atom_site_aniso_U_23
_atom_site_aniso_U_13
_atom_site_aniso_U_12
Br1 0.0639(3) 0.0503(3) 0.0675(3) 0.0008(2) 0.0071(2) -0.0045(2)
O1 0.0555(19) 0.0505(19) 0.099(2) 0.0019(16) 0.0117(17) 0.0155(15)
C4 0.043(2) 0.048(2) 0.046(2) 0.0051(18) 0.0091(18) 0.0068(19)
C7 0.048(2) 0.054(3) 0.051(2) 0.0019(19) 0.006(2) 0.005(2)
C5 0.035(2) 0.062(3) 0.057(3) -0.002(2) 0.0080(19) 0.006(2)
C6 0.036(2) 0.058(3) 0.055(3) 0.0010(19) 0.0058(19) 0.002(2)
F3 0.0666(19) 0.102(2) 0.116(3) 0.0053(19) -0.0261(18) -0.0055(17)
C1 0.041(2) 0.051(2) 0.042(2) 0.0018(17) 0.0054(18) 0.0063(17)
F2 0.079(2) 0.082(2) 0.136(3) 0.0056(19) 0.053(2) -0.0056(16)
F1 0.0763(19) 0.0543(19) 0.189(3) -0.008(2) 0.022(2) -0.0076(16)
C2 0.043(2) 0.049(3) 0.085(3) 0.006(2) 0.009(2) 0.014(2)
C3 0.037(2) 0.052(3) 0.090(3) 0.007(2) 0.016(2) 0.004(2)
C8 0.057(3) 0.048(3) 0.100(4) 0.001(3) 0.018(3) 0.004(2)
loop_
_atom_type_symbol
_atom_type_description
_atom_type_scat_dispersion_real
_atom_type_scat_dispersion_imag
_atom_type_scat_source
O O 0.0106 0.0060 'International Tables Vol C Tables 4.2.6.8 and 6.1.1.4'
F F 0.0171 0.0103 'International Tables Vol C Tables 4.2.6.8 and 6.1.1.4'
Br Br -0.2901 2.4595 'International Tables Vol C Tables 4.2.6.8 and 6.1.1.4'
H H 0.0000 0.0000 'International Tables Vol C Tables 4.2.6.8 and 6.1.1.4'
C C 0.0033 0.0016 'International Tables Vol C Tables 4.2.6.8 and 6.1.1.4'
loop_
_geom_angle_atom_site_label_1
_geom_angle_atom_site_label_2
_geom_angle_atom_site_label_3
_geom_angle
C5 C4 C3 117.9(4)
C5 C4 C7 118.0(3)
C3 C4 C7 124.1(4)
O1 C7 C4 124.5(4)
O1 C7 C8 117.0(4)
C4 C7 C8 118.4(4)
C6 C5 C4 121.2(4)
C6 C5 H5 123(3)
C4 C5 H5 116(3)
C5 C6 C1 119.4(4)
C5 C6 H6 118(3)
C1 C6 H6 122(3)
C2 C1 C6 120.6(4)
C2 C1 Br1 118.5(3)
C6 C1 Br1 120.9(3)
C3 C2 C1 119.6(4)
C3 C2 H2 123(2)
C1 C2 H2 117(3)
C2 C3 C4 121.3(4)
C2 C3 H3 120(2)
C4 C3 H3 118(2)
F1 C8 F3 108.3(4)
F1 C8 F2 106.6(4)
F3 C8 F2 107.1(4)
F1 C8 C7 111.9(4)
F3 C8 C7 111.1(4)
F2 C8 C7 111.6(4)
loop_
_geom_bond_atom_site_label_1
_geom_bond_atom_site_label_2
_geom_bond_distance
Br1 C1 1.889(4)
O1 C7 1.206(5)
C4 C5 1.393(5)
C4 C3 1.394(6)
C4 C7 1.470(6)
C7 C8 1.546(6)
C5 C6 1.371(6)
C5 H5 1.00(5)
C6 C1 1.384(5)
C6 H6 0.92(5)
F3 C8 1.322(5)
C1 C2 1.378(6)
F2 C8 1.328(5)
F1 C8 1.306(5)
C2 C3 1.366(6)
C2 H2 1.03(5)
C3 H3 0.96(4)
loop_
_geom_torsion_atom_site_label_1
_geom_torsion_atom_site_label_2
_geom_torsion_atom_site_label_3
_geom_torsion_atom_site_label_4
_geom_torsion
C5 C4 C7 O1 -4.5(6)
C3 C4 C7 O1 175.0(4)
C5 C4 C7 C8 173.9(4)
C3 C4 C7 C8 -6.6(6)
C3 C4 C5 C6 0.9(6)
C7 C4 C5 C6 -179.5(4)
C4 C5 C6 C1 -0.2(6)
C5 C6 C1 C2 -0.8(6)
C5 C6 C1 Br1 -180.0(3)
C6 C1 C2 C3 1.0(7)
Br1 C1 C2 C3 -179.7(3)
C1 C2 C3 C4 -0.3(7)
C5 C4 C3 C2 -0.7(7)
C7 C4 C3 C2 179.8(4)
O1 C7 C8 F1 -0.9(6)
C4 C7 C8 F1 -179.4(4)
O1 C7 C8 F3 120.3(4)
C4 C7 C8 F3 -58.3(5)
O1 C7 C8 F2 -120.3(4)
C4 C7 C8 F2 61.2(5)
loop_
_cod_related_entry_id
_cod_related_entry_database
_cod_related_entry_code
1 ChemSpider 524942
