#------------------------------------------------------------------------------
#$Date: 2016-03-24 02:28:07 +0200 (Thu, 24 Mar 2016) $
#$Revision: 179580 $
#$URL: svn://www.crystallography.net/cod/cif/4/50/45/4504587.cif $
#------------------------------------------------------------------------------
#
# This file is available in the Crystallography Open Database (COD),
# http://www.crystallography.net/
#
# All data on this site have been placed in the public domain by the
# contributors.
#
data_4504587
loop_
_publ_author_name
'Laus, G.'
'Kahlenberg, V.'
'T\"obbens, D. M.'
'Jetti, R. K. R.'
'Griesser, U. J.'
'Sch\"utz, J.'
'Kristeva, E.'
'Wurst, K.'
'Schottenberger, H.'
_publ_section_title
;
 Lattice Architecture and Hydrogen-Bonding Networks ofN-Aminoazolium
 andN,N&#x2018;-Diaminoazolium Chlorides
;
_journal_issue                   2
_journal_name_full               'Crystal Growth &amp; Design'
_journal_page_first              404
_journal_paper_doi               10.1021/cg0503595
_journal_volume                  6
_journal_year                    2006
_chemical_formula_sum            'C2 H5 Cl N4'
_chemical_formula_weight         120.55
_chemical_name_common            '4-amino-1,2,4-triazole hydrochloride'
_chemical_name_systematic
; 
 ? 
;
_space_group_IT_number           14
_symmetry_cell_setting           monoclinic
_symmetry_space_group_name_Hall  '-P 2ybc'
_symmetry_space_group_name_H-M   'P 1 21/c 1'
_atom_sites_solution_hydrogens   geom
_atom_sites_solution_primary     direct
_atom_sites_solution_secondary   difmap
_audit_creation_method           SHELXL-97
_cell_angle_alpha                90.00
_cell_angle_beta                 102.97(3)
_cell_angle_gamma                90.00
_cell_formula_units_Z            4
_cell_length_a                   7.1584(14)
_cell_length_b                   8.1640(16)
_cell_length_c                   9.3954(19)
_cell_measurement_reflns_used    4174
_cell_measurement_temperature    293(2)
_cell_measurement_theta_max      29.41
_cell_measurement_theta_min      2.92
_cell_volume                     535.07(19)
_computing_cell_refinement
;
STOE X-Area version 1.25
;
_computing_data_collection
;
STOE X-Area data collection software, WinXpose version 1.6.8
;
_computing_data_reduction
;
STOE X-Area data evaluation software, X-RED 32
;
_computing_molecular_graphics
;
BRUKER AXS SHELXTL Vers.6.12, DOS/WIN95/NT/2000/ME
;
_computing_publication_material
;
BRUKER AXS SHELXTL Vers.6.12, DOS/WIN95/NT/2000/ME
;
_computing_structure_refinement
;
BRUKER AXS SHELXTL Vers.6.12, DOS/WIN95/NT/2000/ME
;
_computing_structure_solution
;
BRUKER AXS SHELXTL Vers.6.12, DOS/WIN95/NT/2000/ME
;
_diffrn_ambient_temperature      293(2)
_diffrn_measured_fraction_theta_full 0.977
_diffrn_measured_fraction_theta_max 0.977
_diffrn_measurement_device_type  'STOE IPDS-II'
_diffrn_measurement_method       '\w scans'
_diffrn_radiation_monochromator  graphite
_diffrn_radiation_source         'fine-focus sealed tube'
_diffrn_radiation_type           MoK\a
_diffrn_radiation_wavelength     0.71073
_diffrn_reflns_av_R_equivalents  0.0499
_diffrn_reflns_av_sigmaI/netI    0.0396
_diffrn_reflns_limit_h_max       9
_diffrn_reflns_limit_h_min       -9
_diffrn_reflns_limit_k_max       9
_diffrn_reflns_limit_k_min       -11
_diffrn_reflns_limit_l_max       12
_diffrn_reflns_limit_l_min       -12
_diffrn_reflns_number            4764
_diffrn_reflns_theta_full        29.35
_diffrn_reflns_theta_max         29.35
_diffrn_reflns_theta_min         3.34
_exptl_absorpt_coefficient_mu    0.585
_exptl_absorpt_correction_T_max  0.95
_exptl_absorpt_correction_T_min  0.85
_exptl_absorpt_correction_type   analytical
_exptl_crystal_colour            colourless
_exptl_crystal_density_diffrn    1.496
_exptl_crystal_density_method    'not measured'
_exptl_crystal_description       plate
_exptl_crystal_F_000             248
_exptl_crystal_size_max          0.40
_exptl_crystal_size_mid          0.38
_exptl_crystal_size_min          0.10
_refine_diff_density_max         0.202
_refine_diff_density_min         -0.376
_refine_diff_density_rms         0.063
_refine_ls_extinction_method     none
_refine_ls_goodness_of_fit_ref   1.061
_refine_ls_hydrogen_treatment    mixed
_refine_ls_matrix_type           full
_refine_ls_number_parameters     84
_refine_ls_number_reflns         1432
_refine_ls_number_restraints     0
_refine_ls_restrained_S_all      1.061
_refine_ls_R_factor_all          0.0599
_refine_ls_R_factor_gt           0.0404
_refine_ls_shift/su_max          0.000
_refine_ls_shift/su_mean         0.000
_refine_ls_structure_factor_coef Fsqd
_refine_ls_weighting_details
'calc w=1/[\s^2^(Fo^2^)+(0.0465P)^2^+0.0000P] where P=(Fo^2^+2Fc^2^)/3'
_refine_ls_weighting_scheme      calc
_refine_ls_wR_factor_gt          0.0831
_refine_ls_wR_factor_ref         0.0888
_reflns_number_gt                1120
_reflns_number_total             1432
_reflns_threshold_expression     >2sigma(I)
_cod_data_source_file            cg0503595si20051106_031028.cif
_cod_data_source_block           CCDC277125
_cod_depositor_comments
;
The following automatic conversions were performed:

'_symmetry_cell_setting' value 'Monoclinic' changed to 'monoclinic'
according to /home/saulius/struct/CIF-dictionaries/cif_core.dic
dictionary named 'cif_core.dic' version 2.4.1 from 2010-06-29.

Automatic conversion script
Id: cif_fix_values 1715 2011-07-08 13:25:40Z adriana 
;
_cod_original_cell_volume        535.07(18)
_cod_original_sg_symbol_H-M      'P 21 /c'
_cod_database_code               4504587
loop_
_symmetry_equiv_pos_as_xyz
'x, y, z'
'-x, y+1/2, -z+1/2'
'-x, -y, -z'
'x, -y-1/2, z-1/2'
loop_
_atom_site_label
_atom_site_type_symbol
_atom_site_fract_x
_atom_site_fract_y
_atom_site_fract_z
_atom_site_U_iso_or_equiv
_atom_site_adp_type
_atom_site_occupancy
_atom_site_symmetry_multiplicity
_atom_site_calc_flag
Cl1 Cl 0.52383(6) 0.10529(6) 0.76086(5) 0.03377(15) Uani 1 1 d
N1 N 0.7568(2) 0.1179(2) 0.4977(2) 0.0334(4) Uani 1 1 d
H1B H 0.681(4) 0.101(3) 0.562(3) 0.047(7) Uiso 1 1 d
H1A H 0.688(4) 0.160(3) 0.426(3) 0.053(8) Uiso 1 1 d
N2 N 0.8794(2) 0.24223(18) 0.56703(15) 0.0256(3) Uani 1 1 d
C3 C 0.8358(3) 0.3876(2) 0.6214(2) 0.0350(4) Uani 1 1 d
H3 H 0.710(4) 0.422(3) 0.614(3) 0.049(6) Uiso 1 1 d
N4 N 0.9898(3) 0.4691(2) 0.6787(2) 0.0433(4) Uani 1 1 d
N5 N 1.1341(2) 0.3681(2) 0.66063(18) 0.0371(4) Uani 1 1 d
H5 H 1.247(4) 0.396(3) 0.688(2) 0.042(6) Uiso 1 1 d
C6 C 1.0693(3) 0.2325(2) 0.5946(2) 0.0299(4) Uani 1 1 d
H6 H 1.138(3) 0.145(3) 0.574(2) 0.037(6) Uiso 1 1 d
loop_
_atom_site_aniso_label
_atom_site_aniso_U_11
_atom_site_aniso_U_22
_atom_site_aniso_U_33
_atom_site_aniso_U_23
_atom_site_aniso_U_13
_atom_site_aniso_U_12
Cl1 0.0244(2) 0.0316(2) 0.0431(3) 0.0009(2) 0.00274(16) -0.00018(19)
N1 0.0265(7) 0.0322(9) 0.0383(8) -0.0053(7) 0.0006(7) -0.0041(7)
N2 0.0230(7) 0.0254(7) 0.0273(7) -0.0020(5) 0.0032(5) -0.0004(6)
C3 0.0302(9) 0.0340(10) 0.0416(10) -0.0077(8) 0.0093(7) 0.0038(8)
N4 0.0389(9) 0.0392(10) 0.0517(10) -0.0168(8) 0.0096(8) -0.0022(8)
N5 0.0257(8) 0.0400(10) 0.0437(9) -0.0067(7) 0.0039(7) -0.0037(7)
C6 0.0246(8) 0.0289(9) 0.0350(9) -0.0003(7) 0.0043(7) 0.0019(7)
loop_
_atom_type_symbol
_atom_type_description
_atom_type_scat_dispersion_real
_atom_type_scat_dispersion_imag
_atom_type_scat_source
C C 0.0033 0.0016 'International Tables Vol C Tables 4.2.6.8 and 6.1.1.4'
H H 0.0000 0.0000 'International Tables Vol C Tables 4.2.6.8 and 6.1.1.4'
N N 0.0061 0.0033 'International Tables Vol C Tables 4.2.6.8 and 6.1.1.4'
Cl Cl 0.1484 0.1585 'International Tables Vol C Tables 4.2.6.8 and 6.1.1.4'
loop_
_geom_angle_atom_site_label_1
_geom_angle_atom_site_label_2
_geom_angle_atom_site_label_3
_geom_angle
N2 N1 H1B 101.8(16)
N2 N1 H1A 105.8(19)
H1B N1 H1A 106(2)
C6 N2 C3 106.91(16)
C6 N2 N1 123.62(15)
C3 N2 N1 129.45(15)
N4 C3 N2 111.08(17)
N4 C3 H3 126.3(16)
N2 C3 H3 122.6(16)
C3 N4 N5 103.64(16)
C6 N5 N4 111.99(16)
C6 N5 H5 126.9(17)
N4 N5 H5 121.1(17)
N5 C6 N2 106.37(17)
N5 C6 H6 127.9(14)
N2 C6 H6 125.7(14)
loop_
_geom_bond_atom_site_label_1
_geom_bond_atom_site_label_2
_geom_bond_distance
N1 N2 1.403(2)
N1 H1B 0.91(3)
N1 H1A 0.82(3)
N2 C6 1.328(2)
N2 C3 1.356(2)
C3 N4 1.296(3)
C3 H3 0.94(3)
N4 N5 1.362(2)
N5 C6 1.303(2)
N5 H5 0.82(2)
C6 H6 0.91(2)
loop_
_geom_hbond_atom_site_label_D
_geom_hbond_atom_site_label_H
_geom_hbond_atom_site_label_A
_geom_hbond_distance_DH
_geom_hbond_distance_HA
_geom_hbond_distance_DA
_geom_hbond_angle_DHA
_geom_hbond_site_symmetry_A
N1 H1B Cl1 0.91(3) 2.38(3) 3.280(2) 167(2) .
N1 H1A Cl1 0.82(3) 2.57(3) 3.343(2) 157(2) 4_565
N5 H5 Cl1 0.82(2) 2.35(2) 3.0786(18) 149(2) 2_756
C3 H3 Cl1 0.94(3) 2.70(3) 3.506(2) 145.0(19) 2_656
C6 H6 N1 0.91(2) 2.42(2) 3.312(3) 165.8(19) 3_756
