#------------------------------------------------------------------------------
#$Date: 2018-09-23 21:26:14 +0300 (Sun, 23 Sep 2018) $
#$Revision: 211134 $
#$URL: file:///home/coder/svn-repositories/cod/cif/4/50/42/4504259.cif $
#------------------------------------------------------------------------------
#
# This file is available in the Crystallography Open Database (COD),
# http://www.crystallography.net/
#
# All data on this site have been placed in the public domain by the
# contributors.
#
data_4504259
loop_
_publ_author_name
'Reddy, L. Sreenivas'
'Chandran, Sreekanth K.'
'George, Sumod'
'Babu, N. Jagadeesh'
'Nangia, Ashwini'
_publ_section_title
;
 Crystal Structures ofN-Aryl-N'-4-Nitrophenyl Ureas: Molecular Conformation
 and Weak Interactions Direct the Strong Hydrogen Bond Synthon
;
_journal_coden_ASTM              CGDEFU
_journal_issue                   12
_journal_name_full               'Crystal Growth & Design'
_journal_page_first              2675
_journal_page_last               2690
_journal_paper_doi               10.1021/cg070155j
_journal_volume                  7
_journal_year                    2007
_chemical_formula_moiety         'C13H11N3O4, H2O'
_chemical_formula_sum            'C13 H13 N3 O5'
_chemical_formula_weight         291.26
_chemical_name_common
;
 hydrate of N-(4-nitropheny)-N'-(3-hydroxyphenyl)-urea
;
_chemical_name_systematic
;
 hydrate of N-(4-nitropheny)-N'-(3-hydroxyphenyl)-urea
;
_space_group_IT_number           2
_symmetry_cell_setting           triclinic
_symmetry_space_group_name_Hall  '-P 1'
_symmetry_space_group_name_H-M   'P -1'
_atom_sites_solution_hydrogens   geom
_atom_sites_solution_primary     direct
_atom_sites_solution_secondary   difmap
_audit_creation_method           SHELXL-97
_cell_angle_alpha                77.995(3)
_cell_angle_beta                 84.110(3)
_cell_angle_gamma                75.686(3)
_cell_formula_units_Z            2
_cell_length_a                   6.7307(10)
_cell_length_b                   10.2019(15)
_cell_length_c                   10.2840(15)
_cell_measurement_reflns_used    1242
_cell_measurement_temperature    298(2)
_cell_measurement_theta_max      21.43
_cell_measurement_theta_min      2.63
_cell_volume                     668.30(17)
_computing_cell_refinement       'Bruker SMART'
_computing_data_collection       'Bruker SMART'
_computing_data_reduction        'Bruker SAINT'
_computing_structure_refinement  'SHELXL-97 (Sheldrick, 1997)'
_computing_structure_solution    'SHELXS-97 (Sheldrick, 1990)'
_diffrn_ambient_temperature      298(2)
_diffrn_measured_fraction_theta_full 0.997
_diffrn_measured_fraction_theta_max 0.997
_diffrn_measurement_device_type  'CCD area detector'
_diffrn_measurement_method       'phi and omega scans'
_diffrn_radiation_monochromator  graphite
_diffrn_radiation_source         'fine-focus sealed tube'
_diffrn_radiation_type           MoK\a
_diffrn_radiation_wavelength     0.71073
_diffrn_reflns_av_R_equivalents  0.0282
_diffrn_reflns_av_sigmaI/netI    0.0416
_diffrn_reflns_limit_h_max       8
_diffrn_reflns_limit_h_min       -8
_diffrn_reflns_limit_k_max       12
_diffrn_reflns_limit_k_min       -10
_diffrn_reflns_limit_l_max       12
_diffrn_reflns_limit_l_min       -12
_diffrn_reflns_number            6219
_diffrn_reflns_theta_full        26.07
_diffrn_reflns_theta_max         26.07
_diffrn_reflns_theta_min         2.03
_exptl_absorpt_coefficient_mu    0.113
_exptl_absorpt_correction_T_max  0.9921
_exptl_absorpt_correction_T_min  0.9592
_exptl_absorpt_correction_type   multi-scan
_exptl_absorpt_process_details   'Bruker AXS SADABS program'
_exptl_crystal_colour            yellow
_exptl_crystal_density_diffrn    1.447
_exptl_crystal_density_method    'not measured'
_exptl_crystal_description       plate
_exptl_crystal_F_000             304
_exptl_crystal_size_max          0.37
_exptl_crystal_size_mid          0.18
_exptl_crystal_size_min          0.07
_refine_diff_density_max         0.134
_refine_diff_density_min         -0.257
_refine_diff_density_rms         0.055
_refine_ls_extinction_method     none
_refine_ls_goodness_of_fit_ref   1.003
_refine_ls_hydrogen_treatment    mixed
_refine_ls_matrix_type           full
_refine_ls_number_parameters     210
_refine_ls_number_reflns         2644
_refine_ls_number_restraints     0
_refine_ls_restrained_S_all      1.003
_refine_ls_R_factor_all          0.0842
_refine_ls_R_factor_gt           0.0502
_refine_ls_shift/su_max          0.000
_refine_ls_shift/su_mean         0.000
_refine_ls_structure_factor_coef Fsqd
_refine_ls_weighting_details
'calc w=1/[\s^2^(Fo^2^)+(0.0675P)^2^+0.0000P] where P=(Fo^2^+2Fc^2^)/3'
_refine_ls_weighting_scheme      calc
_refine_ls_wR_factor_gt          0.1125
_refine_ls_wR_factor_ref         0.1280
_reflns_number_gt                1708
_reflns_number_total             2644
_reflns_threshold_expression     >2sigma(I)
_cod_data_source_file            cg070155j-file018.cif
_cod_data_source_block           5.16
_cod_depositor_comments
;
The following automatic conversions were performed:

'_symmetry_cell_setting' value 'Triclinic' changed to 'triclinic'
according to /home/saulius/struct/CIF-dictionaries/cif_core.dic
dictionary named 'cif_core.dic' version 2.4.1 from 2010-06-29.

Automatic conversion script
Id: cif_fix_values 1715 2011-07-08 13:25:40Z adriana 
;
_cod_original_sg_symbol_H-M      'P-1   '
_cod_database_code               4504259
loop_
_symmetry_equiv_pos_as_xyz
'x, y, z'
'-x, -y, -z'
loop_
_atom_site_label
_atom_site_type_symbol
_atom_site_fract_x
_atom_site_fract_y
_atom_site_fract_z
_atom_site_U_iso_or_equiv
_atom_site_adp_type
_atom_site_occupancy
_atom_site_symmetry_multiplicity
_atom_site_calc_flag
_atom_site_refinement_flags
O1 O 0.2438(2) 0.47547(14) 0.82395(14) 0.0569(4) Uani 1 1 d .
O2 O 0.9532(3) 0.18061(17) 0.41989(17) 0.0757(5) Uani 1 1 d .
H2A H 0.938(5) 0.126(3) 0.372(3) 0.121(11) Uiso 1 1 d .
O3 O 0.1474(4) 1.0294(2) 1.22813(19) 0.1152(9) Uani 1 1 d .
O4 O -0.1202(4) 0.9489(2) 1.2435(2) 0.1214(9) Uani 1 1 d .
O5 O 0.1337(3) 0.3959(2) 0.27425(19) 0.0724(5) Uani 1 1 d .
H5A H 0.010(5) 0.446(3) 0.241(3) 0.114(11) Uiso 1 1 d .
H5B H 0.102(5) 0.323(3) 0.315(3) 0.116(13) Uiso 1 1 d .
N1 N 0.5525(3) 0.46212(16) 0.70496(15) 0.0461(4) Uani 1 1 d .
H1 H 0.663(3) 0.497(2) 0.6936(19) 0.056(6) Uiso 1 1 d .
N2 N 0.4596(3) 0.61054(16) 0.84675(16) 0.0476(4) Uani 1 1 d .
H2 H 0.584(3) 0.6254(19) 0.8202(19) 0.050(6) Uiso 1 1 d .
N3 N 0.0538(5) 0.9511(2) 1.1992(2) 0.0892(8) Uani 1 1 d .
C1 C 0.4047(3) 0.51273(18) 0.79323(18) 0.0427(5) Uani 1 1 d .
C2 C 0.3486(3) 0.69032(18) 0.93589(18) 0.0453(5) Uani 1 1 d .
C3 C 0.1518(3) 0.6864(2) 0.9885(2) 0.0557(5) Uani 1 1 d .
H3 H 0.0851 0.6255 0.9654 0.067 Uiso 1 1 calc R
C4 C 0.0545(4) 0.7715(2) 1.0744(2) 0.0635(6) Uani 1 1 d .
H4 H -0.0784 0.7695 1.1084 0.076 Uiso 1 1 calc R
C5 C 0.1548(4) 0.8596(2) 1.10968(19) 0.0622(7) Uani 1 1 d .
C6 C 0.3526(4) 0.8638(2) 1.0620(2) 0.0679(7) Uani 1 1 d .
H6 H 0.4198 0.9224 1.0887 0.081 Uiso 1 1 calc R
C7 C 0.4491(4) 0.7797(2) 0.9743(2) 0.0585(6) Uani 1 1 d .
H7 H 0.5818 0.7824 0.9404 0.070 Uiso 1 1 calc R
C8 C 0.5574(3) 0.36106(19) 0.62917(17) 0.0434(5) Uani 1 1 d .
C9 C 0.3940(3) 0.3063(2) 0.6182(2) 0.0551(6) Uani 1 1 d .
H9 H 0.2688 0.3345 0.6635 0.066 Uiso 1 1 calc R
C10 C 0.4183(4) 0.2084(2) 0.5389(2) 0.0633(6) Uani 1 1 d .
H10 H 0.3078 0.1713 0.5316 0.076 Uiso 1 1 calc R
C11 C 0.6013(4) 0.1648(2) 0.4706(2) 0.0593(6) Uani 1 1 d .
H11 H 0.6148 0.0994 0.4173 0.071 Uiso 1 1 calc R
C12 C 0.7631(3) 0.21964(19) 0.48282(19) 0.0514(5) Uani 1 1 d .
C13 C 0.7428(3) 0.31737(19) 0.56089(18) 0.0480(5) Uani 1 1 d .
H13 H 0.8538 0.3541 0.5678 0.058 Uiso 1 1 calc R
loop_
_atom_site_aniso_label
_atom_site_aniso_U_11
_atom_site_aniso_U_22
_atom_site_aniso_U_33
_atom_site_aniso_U_23
_atom_site_aniso_U_13
_atom_site_aniso_U_12
O1 0.0451(8) 0.0615(9) 0.0695(10) -0.0265(7) 0.0092(7) -0.0157(7)
O2 0.0802(12) 0.0745(11) 0.0845(11) -0.0532(10) 0.0269(9) -0.0212(9)
O3 0.186(2) 0.0724(13) 0.0798(13) -0.0475(11) 0.0063(14) 0.0058(14)
O4 0.141(2) 0.1048(16) 0.0852(14) -0.0334(11) 0.0524(14) 0.0221(14)
O5 0.0518(11) 0.0836(13) 0.0834(13) -0.0133(10) -0.0001(9) -0.0222(10)
N1 0.0434(10) 0.0513(10) 0.0497(10) -0.0251(8) 0.0074(8) -0.0133(8)
N2 0.0419(10) 0.0533(10) 0.0527(10) -0.0276(8) 0.0108(8) -0.0111(8)
N3 0.138(2) 0.0566(13) 0.0455(12) -0.0150(10) 0.0143(14) 0.0244(14)
C1 0.0403(11) 0.0433(11) 0.0440(11) -0.0135(9) 0.0005(9) -0.0056(9)
C2 0.0509(12) 0.0403(10) 0.0410(10) -0.0130(9) 0.0043(9) -0.0018(9)
C3 0.0494(13) 0.0622(13) 0.0541(12) -0.0220(10) 0.0060(10) -0.0045(11)
C4 0.0605(14) 0.0686(14) 0.0501(13) -0.0169(11) 0.0111(11) 0.0049(12)
C5 0.0836(18) 0.0474(12) 0.0388(11) -0.0114(10) 0.0135(12) 0.0121(12)
C6 0.103(2) 0.0475(13) 0.0544(13) -0.0212(10) 0.0091(13) -0.0150(13)
C7 0.0675(15) 0.0527(12) 0.0585(13) -0.0252(10) 0.0142(11) -0.0148(11)
C8 0.0509(12) 0.0401(10) 0.0402(10) -0.0132(8) -0.0006(9) -0.0085(9)
C9 0.0545(13) 0.0580(13) 0.0590(13) -0.0233(11) 0.0027(10) -0.0168(11)
C10 0.0717(16) 0.0599(14) 0.0693(14) -0.0233(12) -0.0041(12) -0.0262(12)
C11 0.0824(17) 0.0457(12) 0.0561(13) -0.0245(10) 0.0005(12) -0.0161(12)
C12 0.0636(14) 0.0436(11) 0.0482(11) -0.0179(9) 0.0063(10) -0.0107(11)
C13 0.0529(12) 0.0445(11) 0.0491(11) -0.0188(9) 0.0045(10) -0.0106(9)
loop_
_atom_type_symbol
_atom_type_description
_atom_type_scat_dispersion_real
_atom_type_scat_dispersion_imag
_atom_type_scat_source
C C 0.0033 0.0016 'International Tables Vol C Tables 4.2.6.8 and 6.1.1.4'
H H 0.0000 0.0000 'International Tables Vol C Tables 4.2.6.8 and 6.1.1.4'
N N 0.0061 0.0033 'International Tables Vol C Tables 4.2.6.8 and 6.1.1.4'
O O 0.0106 0.0060 'International Tables Vol C Tables 4.2.6.8 and 6.1.1.4'
loop_
_geom_angle_atom_site_label_1
_geom_angle_atom_site_label_2
_geom_angle_atom_site_label_3
_geom_angle
C12 O2 H2A 105(2)
H5A O5 H5B 101(3)
C1 N1 C8 129.37(18)
C1 N1 H1 115.5(13)
C8 N1 H1 115.2(13)
C1 N2 C2 129.23(18)
C1 N2 H2 115.6(12)
C2 N2 H2 115.2(12)
O4 N3 O3 121.8(2)
O4 N3 C5 119.6(3)
O3 N3 C5 118.6(3)
O1 C1 N1 125.00(17)
O1 C1 N2 123.73(17)
N1 C1 N2 111.26(18)
C3 C2 N2 125.26(18)
C3 C2 C7 119.09(17)
N2 C2 C7 115.65(18)
C4 C3 C2 120.6(2)
C4 C3 H3 119.7
C2 C3 H3 119.7
C5 C4 C3 119.5(2)
C5 C4 H4 120.3
C3 C4 H4 120.3
C4 C5 C6 121.53(19)
C4 C5 N3 120.2(3)
C6 C5 N3 118.2(3)
C7 C6 C5 118.9(2)
C7 C6 H6 120.5
C5 C6 H6 120.5
C6 C7 C2 120.4(2)
C6 C7 H7 119.8
C2 C7 H7 119.8
C9 C8 C13 119.48(17)
C9 C8 N1 124.82(18)
C13 C8 N1 115.69(17)
C8 C9 C10 119.1(2)
C8 C9 H9 120.4
C10 C9 H9 120.4
C11 C10 C9 121.8(2)
C11 C10 H10 119.1
C9 C10 H10 119.1
C12 C11 C10 118.50(19)
C12 C11 H11 120.7
C10 C11 H11 120.7
C11 C12 O2 122.63(18)
C11 C12 C13 120.84(19)
O2 C12 C13 116.53(19)
C12 C13 C8 120.25(19)
C12 C13 H13 119.9
C8 C13 H13 119.9
loop_
_geom_bond_atom_site_label_1
_geom_bond_atom_site_label_2
_geom_bond_distance
O1 C1 1.225(2)
O2 C12 1.378(3)
O2 H2A 0.85(3)
O3 N3 1.229(3)
O4 N3 1.216(3)
O5 H5A 0.92(3)
O5 H5B 0.84(3)
N1 C1 1.355(2)
N1 C8 1.408(2)
N1 H1 0.89(2)
N2 C1 1.374(2)
N2 C2 1.389(2)
N2 H2 0.90(2)
N3 C5 1.448(3)
C2 C3 1.385(3)
C2 C7 1.398(3)
C3 C4 1.372(3)
C3 H3 0.9300
C4 C5 1.372(3)
C4 H4 0.9300
C5 C6 1.378(3)
C6 C7 1.378(3)
C6 H6 0.9300
C7 H7 0.9300
C8 C9 1.375(3)
C8 C13 1.387(3)
C9 C10 1.386(3)
C9 H9 0.9300
C10 C11 1.374(3)
C10 H10 0.9300
C11 C12 1.369(3)
C11 H11 0.9300
C12 C13 1.379(3)
C13 H13 0.9300
