#------------------------------------------------------------------------------
#$Date: 2017-10-13 14:42:48 +0300 (Fri, 13 Oct 2017) $
#$Revision: 201982 $
#$URL: file:///home/coder/svn-repositories/cod/cif/4/50/48/4504820.cif $
#------------------------------------------------------------------------------
#
# This file is available in the Crystallography Open Database (COD),
# http://www.crystallography.net/
#
# All data on this site have been placed in the public domain by the
# contributors.
#
data_4504820
loop_
_publ_author_name
'Chopra, Deepak'
'Thiruvenkatam, Vijay'
'Row, Tayur. N. Guru'
_publ_section_title
;
 In Situ Cryo-Crystallization of Fluorinated Amines:&#x2009; A Comparative
 Study of Cooperative Intermolecular Interactions Involving Ordered and
 Disordered Fluorine
;
_journal_issue                   4
_journal_name_full               'Crystal Growth &amp; Design'
_journal_page_first              843
_journal_paper_doi               10.1021/cg060053d
_journal_volume                  6
_journal_year                    2006
_chemical_formula_moiety         'C6 H6 F N'
_chemical_formula_sum            'C6 H6 F N'
_chemical_formula_weight         111.12
_chemical_name_systematic
;
 ?
;
_space_group_IT_number           29
_symmetry_cell_setting           orthorhombic
_symmetry_space_group_name_Hall  'P 2c -2ac'
_symmetry_space_group_name_H-M   'P c a 21'
_atom_sites_solution_hydrogens   geom
_atom_sites_solution_primary     direct
_atom_sites_solution_secondary   difmap
_cell_angle_alpha                90
_cell_angle_beta                 90
_cell_angle_gamma                90
_cell_formula_units_Z            4
_cell_length_a                   10.755(7)
_cell_length_b                   5.419(4)
_cell_length_c                   9.046(6)
_cell_measurement_reflns_used    500
_cell_measurement_temperature    220(2)
_cell_measurement_theta_max      26.4
_cell_measurement_theta_min      1.4
_cell_volume                     527.2(6)
_computing_cell_refinement       SMART
_computing_data_collection       'SMART (Bruker, 1998)'
_computing_data_reduction        'SAINT (Bruker, 1998)'
_computing_molecular_graphics
'Ortep-3 for Windows (Farrugia, 1997) and CAMERON (Watkin et al., 1993)'
_computing_publication_material  'PLATON (Spek, 2003)'
_computing_structure_refinement  'SHELXL-97 (Sheldrick, 1997)'
_computing_structure_solution    'SIR92 (Altomare et al., 1993)'
_diffrn_ambient_temperature      220(2)
_diffrn_measured_fraction_theta_full 1.000
_diffrn_measured_fraction_theta_max 0.996
_diffrn_measurement_device_type  'Bruker SMART CCD area detector'
_diffrn_measurement_method       '\f and \w scans'
_diffrn_radiation_monochromator  graphite
_diffrn_radiation_source         'fine-focus sealed tube'
_diffrn_radiation_type           MoK\a
_diffrn_radiation_wavelength     0.71073
_diffrn_reflns_av_R_equivalents  0.0195
_diffrn_reflns_av_sigmaI/netI    0.0217
_diffrn_reflns_limit_h_max       13
_diffrn_reflns_limit_h_min       -14
_diffrn_reflns_limit_k_max       7
_diffrn_reflns_limit_k_min       -6
_diffrn_reflns_limit_l_max       11
_diffrn_reflns_limit_l_min       -11
_diffrn_reflns_number            4156
_diffrn_reflns_reduction_process
;
 ?
;
_diffrn_reflns_theta_full        25.00
_diffrn_reflns_theta_max         27.89
_diffrn_reflns_theta_min         3.76
_exptl_absorpt_coefficient_mu    0.109
_exptl_absorpt_correction_T_max  0.9785
_exptl_absorpt_correction_T_min  0.9295
_exptl_absorpt_correction_type   multi-scan
_exptl_absorpt_process_details   '(SADABS; Sheldrick, 1997)'
_exptl_crystal_colour            'colorless '
_exptl_crystal_density_diffrn    1.400
_exptl_crystal_density_method    'Not Measured'
_exptl_crystal_description       ' blocks'
_exptl_crystal_F_000             232
_exptl_crystal_size_max          0.30
_exptl_crystal_size_mid          0.25
_exptl_crystal_size_min          0.20
_refine_diff_density_max         0.201
_refine_diff_density_min         -0.153
_refine_diff_density_rms         0.037
_refine_ls_extinction_method     none
_refine_ls_goodness_of_fit_ref   1.109
_refine_ls_hydrogen_treatment    refall
_refine_ls_matrix_type           full
_refine_ls_number_parameters     97
_refine_ls_number_reflns         1235
_refine_ls_number_restraints     1
_refine_ls_restrained_S_all      1.109
_refine_ls_R_factor_all          0.0398
_refine_ls_R_factor_gt           0.0373
_refine_ls_shift/su_max          0.000
_refine_ls_shift/su_mean         0.000
_refine_ls_structure_factor_coef Fsqd
_refine_ls_weighting_details
'calc w=1/[\s^2^(Fo^2^)+(0.0515P)^2^+0.0498P] where P=(Fo^2^+2Fc^2^)/3'
_refine_ls_weighting_scheme      calc
_refine_ls_wR_factor_gt          0.0927
_refine_ls_wR_factor_ref         0.0942
_reflns_number_gt                1169
_reflns_number_total             1235
_reflns_threshold_expression     >2sigma(I)
_cod_data_source_file            cg060053dsi20060307_122323.cif
_cod_data_source_block           4fadc1
_cod_depositor_comments
;
The following automatic conversions were performed:

'_symmetry_cell_setting' value 'Orthorhombic' changed to
'orthorhombic' according to
/home/saulius/struct/CIF-dictionaries/cif_core.dic dictionary named
'cif_core.dic' version 2.4.1 from 2010-06-29.

Automatic conversion script
Id: cif_fix_values 1715 2011-07-08 13:25:40Z adriana 
;
_cod_database_code               4504820
loop_
_symmetry_equiv_pos_as_xyz
x,y,z
-x,-y,1/2+z
1/2-x,y,1/2+z
1/2+x,-y,z
loop_
_atom_site_label
_atom_site_type_symbol
_atom_site_fract_x
_atom_site_fract_y
_atom_site_fract_z
_atom_site_U_iso_or_equiv
_atom_site_adp_type
_atom_site_occupancy
_atom_site_symmetry_multiplicity
_atom_site_calc_flag
F1 F 0.24652(13) -0.0700(2) -0.19868(13) 0.0535(3) Uani 1 1 d
C2 C 0.18674(14) 0.4357(3) 0.0529(2) 0.0340(3) Uani 1 1 d
C6 C 0.01243(13) 0.1595(3) 0.05399(19) 0.0330(3) Uani 1 1 d
C4 C 0.18786(15) 0.0775(3) -0.09772(17) 0.0348(4) Uani 1 1 d
C5 C 0.07210(16) 0.0109(3) -0.04844(17) 0.0349(4) Uani 1 1 d
C1 C 0.06915(14) 0.3729(3) 0.10669(16) 0.0304(3) Uani 1 1 d
N1 N 0.01290(17) 0.5149(3) 0.21656(16) 0.0444(4) Uani 1 1 d
C3 C 0.24621(14) 0.2889(3) -0.05010(19) 0.0359(3) Uani 1 1 d
H5 H 0.035(2) -0.126(4) -0.078(2) 0.040(5) Uiso 1 1 d
H6 H -0.0661(19) 0.116(3) 0.092(2) 0.040(5) Uiso 1 1 d
H2 H 0.225(2) 0.589(4) 0.088(3) 0.050(6) Uiso 1 1 d
H3 H 0.3238(18) 0.332(3) -0.088(2) 0.042(5) Uiso 1 1 d
H1B H -0.063(2) 0.510(4) 0.218(2) 0.047(6) Uiso 1 1 d
H1A H 0.040(2) 0.662(4) 0.224(3) 0.059(7) Uiso 1 1 d
loop_
_atom_site_aniso_label
_atom_site_aniso_U_11
_atom_site_aniso_U_22
_atom_site_aniso_U_33
_atom_site_aniso_U_23
_atom_site_aniso_U_13
_atom_site_aniso_U_12
F1 0.0584(7) 0.0563(6) 0.0459(6) -0.0139(6) 0.0101(5) 0.0144(6)
C2 0.0343(7) 0.0297(7) 0.0380(8) -0.0002(6) -0.0064(7) -0.0001(6)
C6 0.0302(6) 0.0362(8) 0.0327(7) 0.0054(6) 0.0010(6) -0.0009(6)
C4 0.0394(8) 0.0359(8) 0.0291(8) -0.0011(6) 0.0001(6) 0.0098(7)
C5 0.0425(9) 0.0294(7) 0.0327(8) -0.0007(6) -0.0050(7) -0.0018(6)
C1 0.0324(7) 0.0322(7) 0.0267(7) 0.0032(6) -0.0022(5) 0.0075(6)
N1 0.0447(9) 0.0448(9) 0.0438(9) -0.0086(6) 0.0058(7) 0.0084(8)
C3 0.0282(6) 0.0416(8) 0.0378(7) 0.0048(7) 0.0009(6) 0.0011(6)
loop_
_atom_type_symbol
_atom_type_description
_atom_type_scat_dispersion_real
_atom_type_scat_dispersion_imag
_atom_type_scat_source
N N 0.0061 0.0033 'International Tables Vol C Tables 4.2.6.8 and 6.1.1.4'
F F 0.0171 0.0103 'International Tables Vol C Tables 4.2.6.8 and 6.1.1.4'
H H 0.0000 0.0000 'International Tables Vol C Tables 4.2.6.8 and 6.1.1.4'
C C 0.0033 0.0016 'International Tables Vol C Tables 4.2.6.8 and 6.1.1.4'
loop_
_geom_angle_atom_site_label_1
_geom_angle_atom_site_label_2
_geom_angle_atom_site_label_3
_geom_angle
C3 C2 C1 120.93(15)
C3 C2 H2 120.8(14)
C1 C2 H2 118.3(14)
C5 C6 C1 120.61(14)
C5 C6 H6 120.9(11)
C1 C6 H6 118.5(11)
F1 C4 C5 118.83(14)
F1 C4 C3 119.04(15)
C5 C4 C3 122.13(15)
C4 C5 C6 119.02(15)
C4 C5 H5 122.0(14)
C6 C5 H5 118.9(14)
C6 C1 N1 120.82(15)
C6 C1 C2 118.65(14)
N1 C1 C2 120.44(15)
C1 N1 H1B 115.3(17)
C1 N1 H1A 115.4(17)
H1B N1 H1A 111(2)
C4 C3 C2 118.64(15)
C4 C3 H3 120.2(12)
C2 C3 H3 121.1(12)
loop_
_geom_bond_atom_site_label_1
_geom_bond_atom_site_label_2
_geom_bond_distance
F1 C4 1.3679(19)
C2 C3 1.382(3)
C2 C1 1.397(2)
C2 H2 0.98(2)
C6 C5 1.385(2)
C6 C1 1.392(2)
C6 H6 0.94(2)
C4 C5 1.371(2)
C4 C3 1.375(2)
C5 H5 0.88(2)
C1 N1 1.395(2)
N1 H1B 0.82(2)
N1 H1A 0.85(2)
C3 H3 0.93(2)
loop_
_geom_torsion_atom_site_label_1
_geom_torsion_atom_site_label_2
_geom_torsion_atom_site_label_3
_geom_torsion_atom_site_label_4
_geom_torsion
F1 C4 C5 C6 179.90(15)
C3 C4 C5 C6 -0.8(2)
C1 C6 C5 C4 -0.2(2)
C5 C6 C1 N1 -175.96(15)
C5 C6 C1 C2 0.8(2)
C3 C2 C1 C6 -0.3(2)
C3 C2 C1 N1 176.45(16)
F1 C4 C3 C2 -179.44(15)
C5 C4 C3 C2 1.3(2)
C1 C2 C3 C4 -0.7(2)
loop_
_cod_related_entry_id
_cod_related_entry_database
_cod_related_entry_code
1 ChemSpider 9349
