#------------------------------------------------------------------------------
#$Date: 2016-03-24 02:28:07 +0200 (Thu, 24 Mar 2016) $
#$Revision: 179580 $
#$URL: svn://www.crystallography.net/cod/cif/4/50/45/4504552.cif $
#------------------------------------------------------------------------------
#
# This file is available in the Crystallography Open Database (COD),
# http://www.crystallography.net/
#
# All data on this site have been placed in the public domain by the
# contributors.
#
data_4504552
loop_
_publ_author_name
'Kumar, D. Krishna'
'Das, Amitava'
'Dastidar, Parthasarathi'
_publ_section_title
;
 N&#x2212;H&#x00B7;&#x00B7;&#x00B7;Cl2&#x2212;M Synthon as a
 Structure-Directing Tool:&#x2009; Crystal Structures of Some
 Perchlorometallates
;
_journal_issue                   1
_journal_name_full               'Crystal Growth &amp; Design'
_journal_page_first              216
_journal_paper_doi               10.1021/cg050296q
_journal_volume                  6
_journal_year                    2006
_chemical_formula_sum            'C11 H11 Cl4 N3 O Pd'
_chemical_formula_weight         449.43
_chemical_name_systematic
; 
 ? 
;
_space_group_IT_number           2
_symmetry_cell_setting           triclinic
_symmetry_space_group_name_Hall  '-P 1'
_symmetry_space_group_name_H-M   'P -1'
_atom_sites_solution_hydrogens   geom
_atom_sites_solution_primary     direct
_atom_sites_solution_secondary   difmap
_audit_creation_method           SHELXL-97
_cell_angle_alpha                102.422(8)
_cell_angle_beta                 95.689(9)
_cell_angle_gamma                106.505(9)
_cell_formula_units_Z            2
_cell_length_a                   7.091(3)
_cell_length_b                   8.158(4)
_cell_length_c                   13.722(7)
_cell_measurement_temperature    298(2)
_cell_volume                     732.3(6)
_computing_cell_refinement       'BRUKER AXS SMART 3'
_computing_data_collection       'BRUKER AXS SMART 3'
_computing_data_reduction        'BRUKER AXS SMART 3'
_computing_molecular_graphics    'PLATON, 'MERCURY 1.3'
_computing_structure_refinement  'SHELXL-97 (Sheldrick, 1997)'
_computing_structure_solution    'SHELXS-97 (Sheldrick, 1990)'
_diffrn_ambient_temperature      298(2)
_diffrn_detector_area_resol_mean 0.3
_diffrn_measured_fraction_theta_full 0.978
_diffrn_measured_fraction_theta_max 0.978
_diffrn_measurement_device_type  'BRUKER SMART CCD AREA DETECTOR'
_diffrn_measurement_method       PHI-OMEGA
_diffrn_radiation_monochromator  graphite
_diffrn_radiation_source         'fine-focus sealed tube'
_diffrn_radiation_type           MoK\a
_diffrn_radiation_wavelength     0.71073
_diffrn_reflns_av_R_equivalents  0.0331
_diffrn_reflns_av_sigmaI/netI    0.0803
_diffrn_reflns_limit_h_max       6
_diffrn_reflns_limit_h_min       -7
_diffrn_reflns_limit_k_max       8
_diffrn_reflns_limit_k_min       -8
_diffrn_reflns_limit_l_max       14
_diffrn_reflns_limit_l_min       -14
_diffrn_reflns_number            2869
_diffrn_reflns_theta_full        22.50
_diffrn_reflns_theta_max         22.50
_diffrn_reflns_theta_min         1.54
_exptl_absorpt_coefficient_mu    1.993
_exptl_absorpt_correction_type   SADABS
_exptl_crystal_colour            YELLOW
_exptl_crystal_density_diffrn    2.038
_exptl_crystal_density_method    'not measured'
_exptl_crystal_description       PLATE
_exptl_crystal_F_000             440
_exptl_crystal_size_max          0.43
_exptl_crystal_size_mid          0.28
_exptl_crystal_size_min          0.16
_refine_diff_density_max         1.151
_refine_diff_density_min         -1.362
_refine_diff_density_rms         0.364
_refine_ls_extinction_method     none
_refine_ls_goodness_of_fit_ref   1.130
_refine_ls_hydrogen_treatment    mixed
_refine_ls_matrix_type           full
_refine_ls_number_parameters     181
_refine_ls_number_reflns         1877
_refine_ls_number_restraints     0
_refine_ls_restrained_S_all      1.130
_refine_ls_R_factor_all          0.1008
_refine_ls_R_factor_gt           0.0627
_refine_ls_shift/su_max          0.000
_refine_ls_shift/su_mean         0.000
_refine_ls_structure_factor_coef Fsqd
_refine_ls_weighting_details
'calc w=1/[\s^2^(Fo^2^)+(0.1447P)^2^+0.0000P] where P=(Fo^2^+2Fc^2^)/3'
_refine_ls_weighting_scheme      calc
_refine_ls_wR_factor_gt          0.1717
_refine_ls_wR_factor_ref         0.2403
_reflns_number_gt                1305
_reflns_number_total             1877
_reflns_threshold_expression     >2sigma(I)
_cod_data_source_file            cg050296qsi20050628_053034.cif
_cod_data_source_block           kb410grm
_cod_depositor_comments
;
The following automatic conversions were performed:

'_symmetry_cell_setting' value 'TRICLINIC' changed to 'triclinic'
according to /home/saulius/struct/CIF-dictionaries/cif_core.dic
dictionary named 'cif_core.dic' version 2.4.1 from 2010-06-29.

Automatic conversion script
Id: cif_fix_values 1715 2011-07-08 13:25:40Z adriana 
;
_cod_original_sg_symbol_H-M      P-1
_cod_database_code               4504552
loop_
_symmetry_equiv_pos_as_xyz
'x, y, z'
'-x, -y, -z'
loop_
_atom_site_label
_atom_site_type_symbol
_atom_site_fract_x
_atom_site_fract_y
_atom_site_fract_z
_atom_site_U_iso_or_equiv
_atom_site_adp_type
_atom_site_occupancy
_atom_site_symmetry_multiplicity
_atom_site_calc_flag
_atom_site_refinement_flags
Pd1 Pd 0.53129(17) 0.81128(15) 0.76451(9) 0.0276(5) Uani 1 1 d .
Cl1 Cl 0.7826(7) 0.9274(6) 0.9042(3) 0.0523(13) Uani 1 1 d .
Cl2 Cl 0.4636(7) 1.0775(6) 0.7898(3) 0.0508(13) Uani 1 1 d .
Cl3 Cl 0.3036(6) 0.7020(5) 0.6168(3) 0.0409(11) Uani 1 1 d .
Cl4 Cl 0.5791(7) 0.5395(6) 0.7439(3) 0.0471(12) Uani 1 1 d .
N1 N 1.279(2) 0.6790(18) 0.9996(11) 0.040(4) Uani 1 1 d .
H1 H 1.3500 0.7880 1.0564 0.060 Uiso 1 1 calc R
C2 C 1.195(3) 0.695(2) 0.9122(14) 0.046(5) Uani 1 1 d .
H2 H 1.2019 0.8264 0.9054 0.069 Uiso 1 1 calc R
C3 C 1.105(3) 0.561(3) 0.8344(12) 0.043(5) Uani 1 1 d .
H3 H 1.0366 0.5796 0.7653 0.065 Uiso 1 1 calc R
C4 C 1.100(3) 0.391(2) 0.8443(14) 0.044(5) Uani 1 1 d .
C5 C 1.184(3) 0.375(2) 0.9367(15) 0.049(5) Uani 1 1 d .
H5 H 1.1804 0.2472 0.9482 0.073 Uiso 1 1 calc R
C6 C 1.270(2) 0.525(3) 1.0118(14) 0.044(5) Uani 1 1 d .
H6 H 1.3339 0.5148 1.0842 0.066 Uiso 1 1 calc R
N7 N 1.007(3) 0.227(4) 0.7719(17) 0.099(9) Uani 1 1 d .
H7 H 0.9935 0.1131 0.7927 0.149 Uiso 1 1 calc R
C8 C 0.940(3) 0.221(4) 0.6813(17) 0.077(8) Uani 1 1 d .
O9 O 0.917(2) 0.3267(17) 0.6425(10) 0.058(4) Uani 1 1 d .
C10 C 0.858(2) 0.011(2) 0.6125(13) 0.035(4) Uani 1 1 d .
C11 C 0.741(2) -0.012(2) 0.5213(14) 0.038(4) Uani 1 1 d .
H11 H 0.7065 0.0986 0.5017 0.056 Uiso 1 1 calc R
C12 C 0.670(3) -0.177(3) 0.4553(14) 0.052(5) Uani 1 1 d .
H12 H 0.5752 -0.1959 0.3846 0.078 Uiso 1 1 calc R
N13 N 0.7167(19) -0.3136(18) 0.4772(10) 0.037(4) Uani 1 1 d .
H13 H 0.6626 -0.4309 0.4248 0.055 Uiso 1 1 calc R
C14 C 0.828(3) -0.308(3) 0.5623(14) 0.051(5) Uani 1 1 d .
H14 H 0.8608 -0.4228 0.5774 0.076 Uiso 1 1 calc R
C15 C 0.905(2) -0.132(3) 0.6343(14) 0.049(5) Uani 1 1 d .
H15 H 0.9985 -0.1142 0.7051 0.073 Uiso 1 1 calc R
loop_
_atom_site_aniso_label
_atom_site_aniso_U_11
_atom_site_aniso_U_22
_atom_site_aniso_U_33
_atom_site_aniso_U_23
_atom_site_aniso_U_13
_atom_site_aniso_U_12
Pd1 0.0323(8) 0.0237(8) 0.0237(8) 0.0038(5) -0.0028(5) 0.0083(6)
Cl1 0.068(3) 0.035(3) 0.042(3) 0.003(2) -0.020(2) 0.013(2)
Cl2 0.075(3) 0.036(3) 0.037(3) -0.003(2) -0.014(2) 0.026(2)
Cl3 0.046(3) 0.038(2) 0.034(3) 0.004(2) -0.0110(19) 0.015(2)
Cl4 0.060(3) 0.034(2) 0.044(3) 0.003(2) -0.010(2) 0.021(2)
N1 0.040(9) 0.026(8) 0.036(10) -0.012(7) 0.006(7) -0.003(7)
C2 0.071(14) 0.027(10) 0.038(12) 0.008(9) 0.013(10) 0.012(10)
C3 0.038(10) 0.083(16) 0.017(10) 0.015(10) 0.008(8) 0.030(10)
C4 0.038(11) 0.020(10) 0.042(12) -0.016(9) 0.002(9) -0.023(8)
C5 0.052(12) 0.038(11) 0.050(13) 0.004(10) 0.007(10) 0.013(9)
C6 0.024(10) 0.073(15) 0.045(12) 0.027(11) 0.010(8) 0.021(10)
N7 0.041(12) 0.20(3) 0.104(18) 0.10(2) 0.032(12) 0.055(15)
C8 0.048(13) 0.16(3) 0.043(14) 0.041(16) 0.026(11) 0.054(16)
O9 0.095(11) 0.043(8) 0.037(8) 0.022(7) -0.009(7) 0.024(8)
C10 0.032(10) 0.016(8) 0.044(11) -0.014(8) 0.015(8) 0.001(7)
C11 0.034(10) 0.018(9) 0.053(12) -0.001(8) -0.004(9) 0.007(8)
C12 0.061(13) 0.080(16) 0.033(11) 0.028(11) 0.008(9) 0.040(12)
N13 0.030(8) 0.037(8) 0.031(9) -0.009(7) 0.008(7) 0.003(7)
C14 0.031(11) 0.065(14) 0.048(13) 0.008(11) -0.005(9) 0.013(10)
C15 0.021(10) 0.083(15) 0.040(11) 0.018(11) -0.013(8) 0.017(9)
loop_
_atom_type_symbol
_atom_type_description
_atom_type_scat_dispersion_real
_atom_type_scat_dispersion_imag
_atom_type_scat_source
C C 0.0033 0.0016 'International Tables Vol C Tables 4.2.6.8 and 6.1.1.4'
H H 0.0000 0.0000 'International Tables Vol C Tables 4.2.6.8 and 6.1.1.4'
N N 0.0061 0.0033 'International Tables Vol C Tables 4.2.6.8 and 6.1.1.4'
O O 0.0106 0.0060 'International Tables Vol C Tables 4.2.6.8 and 6.1.1.4'
Cl Cl 0.1484 0.1585 'International Tables Vol C Tables 4.2.6.8 and 6.1.1.4'
Pd Pd -0.9988 1.0072 'International Tables Vol C Tables 4.2.6.8 and 6.1.1.4'
loop_
_geom_angle_atom_site_label_1
_geom_angle_atom_site_label_2
_geom_angle_atom_site_label_3
_geom_angle
Cl3 Pd1 Cl4 89.19(16)
Cl3 Pd1 Cl1 174.75(18)
Cl4 Pd1 Cl1 90.55(16)
Cl3 Pd1 Cl2 90.20(16)
Cl4 Pd1 Cl2 176.07(19)
Cl1 Pd1 Cl2 90.42(17)
C6 N1 C2 120.3(16)
C6 N1 H1 119.9
C2 N1 H1 119.9
C3 C2 N1 123.5(17)
C3 C2 H2 118.3
N1 C2 H2 118.3
C2 C3 C4 117.3(17)
C2 C3 H3 121.3
C4 C3 H3 121.3
C5 C4 C3 118.6(16)
C5 C4 N7 113.9(18)
C3 C4 N7 127.3(18)
C6 C5 C4 117.9(18)
C6 C5 H5 121.0
C4 C5 H5 121.0
N1 C6 C5 122.3(18)
N1 C6 H6 118.9
C5 C6 H6 118.9
C8 N7 C4 121(2)
C8 N7 H7 119.4
C4 N7 H7 119.4
O9 C8 N7 133(3)
O9 C8 C10 117.6(19)
N7 C8 C10 110(2)
C11 C10 C15 119.1(15)
C11 C10 C8 113.1(15)
C15 C10 C8 127.7(17)
C12 C11 C10 119.3(16)
C12 C11 H11 120.4
C10 C11 H11 120.4
N13 C12 C11 121.0(16)
N13 C12 H12 119.5
C11 C12 H12 119.5
C14 N13 C12 125.3(17)
C14 N13 H13 117.3
C12 N13 H13 117.3
N13 C14 C15 114.2(17)
N13 C14 H14 122.9
C15 C14 H14 122.9
C10 C15 C14 121.1(16)
C10 C15 H15 119.5
C14 C15 H15 119.5
loop_
_geom_bond_atom_site_label_1
_geom_bond_atom_site_label_2
_geom_bond_distance
Pd1 Cl3 2.295(4)
Pd1 Cl4 2.299(5)
Pd1 Cl1 2.309(5)
Pd1 Cl2 2.317(4)
N1 C6 1.29(2)
N1 C2 1.34(2)
N1 H1 1.0100
C2 C3 1.31(2)
C2 H2 1.0800
C3 C4 1.42(3)
C3 H3 1.0800
C4 C5 1.39(3)
C4 N7 1.42(3)
C5 C6 1.36(3)
C5 H5 1.0800
C6 H6 1.0800
N7 C8 1.27(3)
N7 H7 1.0100
C8 O9 1.15(3)
C8 C10 1.67(3)
C10 C11 1.38(2)
C10 C15 1.38(2)
C11 C12 1.37(3)
C11 H11 1.0800
C12 N13 1.33(2)
C12 H12 1.0800
N13 C14 1.33(2)
N13 H13 1.0100
C14 C15 1.48(3)
C14 H14 1.0800
C15 H15 1.0800
loop_
_geom_hbond_atom_site_label_D
_geom_hbond_atom_site_label_H
_geom_hbond_atom_site_label_A
_geom_hbond_distance_DH
_geom_hbond_distance_HA
_geom_hbond_distance_DA
_geom_hbond_angle_DHA
_geom_hbond_site_symmetry_A
N1 H1 Cl2 1.01 2.24 3.170(15) 151.9 2_777
N1 H1 Cl1 1.01 2.71 3.366(15) 122.5 2_777
N7 H7 Cl1 1.01 2.65 3.473(19) 138.4 1_545
N13 H13 Cl3 1.01 2.25 3.109(14) 142.2 2_656
N13 H13 Cl4 1.01 2.56 3.337(14) 133.6 2_656
