#------------------------------------------------------------------------------
#$Date: 2016-02-16 22:30:59 +0200 (Tue, 16 Feb 2016) $
#$Revision: 176467 $
#$URL: svn://www.crystallography.net/cod/cif/4/50/41/4504103.cif $
#------------------------------------------------------------------------------
#
# This file is available in the Crystallography Open Database (COD),
# http://www.crystallography.net/
#
# All data on this site have been placed in the public domain by the
# contributors.
#
data_4504103
loop_
_publ_author_name
'Wang, Xiao-Feng'
'Lv, Yang'
'Okamura, Taka-aki'
'Kawaguchi, Hiroyuki'
'Wu, Gang'
'Sun, Wei-Yin'
'Ueyama, Norikazu'
_publ_section_title
;
 Structure Variation of Mercury(II) Halide Complexes with Different
 Imidazole-Containing Ligands
;
_journal_issue                   6
_journal_name_full               'Crystal Growth &amp; Design'
_journal_page_first              1125
_journal_paper_doi               10.1021/cg060814c
_journal_volume                  7
_journal_year                    2007
_chemical_formula_moiety         'C14 H13 Br I2 Hg N4 '
_chemical_formula_sum            'C14 H13 Br Hg I2 N4'
_chemical_formula_weight         771.59
_space_group_IT_number           2
_symmetry_cell_setting           triclinic
_symmetry_Int_Tables_number      2
_symmetry_space_group_name_Hall  '-P 1'
_symmetry_space_group_name_H-M   'P -1'
_cell_angle_alpha                102.489(3)
_cell_angle_beta                 95.987(5)
_cell_angle_gamma                91.462(3)
_cell_formula_units_Z            2
_cell_length_a                   8.419(3)
_cell_length_b                   9.236(3)
_cell_length_c                   12.274(4)
_cell_measurement_reflns_used    3342
_cell_measurement_temperature    173.1
_cell_measurement_theta_max      27.5
_cell_measurement_theta_min      3.1
_cell_volume                     925.6(5)
_computing_cell_refinement       CrystalClear
_computing_data_collection       CrystalClear
_computing_data_reduction        CrystalStructure
_computing_publication_material  'CrystalStructure Ver. 3.5.1'
_computing_structure_refinement  CRYSTALS
_computing_structure_solution    SHELXS97
_diffrn_detector_area_resol_mean 7.31
_diffrn_measured_fraction_theta_full 0.9067
_diffrn_measured_fraction_theta_max 0.9088
_diffrn_measurement_device_type  'Rigaku Saturn'
_diffrn_measurement_method       \w
_diffrn_radiation_type           'Mo K\a'
_diffrn_radiation_wavelength     0.7107
_diffrn_reflns_av_R_equivalents  0.043
_diffrn_reflns_limit_h_max       10
_diffrn_reflns_limit_h_min       -9
_diffrn_reflns_limit_k_max       8
_diffrn_reflns_limit_k_min       -11
_diffrn_reflns_limit_l_max       15
_diffrn_reflns_limit_l_min       -15
_diffrn_reflns_number            13664
_diffrn_reflns_theta_full        27.50
_diffrn_reflns_theta_max         27.48
_exptl_absorpt_coefficient_mu    13.839
_exptl_absorpt_correction_T_max  0.063
_exptl_absorpt_correction_T_min  0.032
_exptl_absorpt_correction_type   multi-scan
_exptl_absorpt_process_details   'Jacobson, R. (1998) Private communication'
_exptl_crystal_colour            colorless
_exptl_crystal_density_diffrn    2.768
_exptl_crystal_density_method    'not measured'
_exptl_crystal_description       prism
_exptl_crystal_F_000             692.00
_exptl_crystal_size_max          0.30
_exptl_crystal_size_mid          0.20
_exptl_crystal_size_min          0.20
_refine_diff_density_max         2.86
_refine_diff_density_min         -3.33
_refine_ls_extinction_method     none
_refine_ls_goodness_of_fit_ref   0.997
_refine_ls_hydrogen_treatment    refall
_refine_ls_number_parameters     212
_refine_ls_number_reflns         3839
_refine_ls_R_factor_gt           0.0370
_refine_ls_shift/su_max          0.0000
_refine_ls_structure_factor_coef Fsqd
_refine_ls_weighting_details
'w = 1/[0.0035Fo^2^ + 1.0000\s(Fo^2^)]/(4Fo^2^)'
_refine_ls_weighting_scheme      calc
_refine_ls_wR_factor_ref         0.1250
_reflns_number_gt                3777
_reflns_number_total             3840
_reflns_threshold_expression     F^2^>2.0\s(F^2^)
_cod_data_source_file            cg060814csi20070307_054928.cif
_cod_data_source_block           3
_cod_original_sg_symbol_H-M      'P -1       '
_cod_original_formula_sum        'C14 H13 Br I2 Hg N4 '
_cod_database_code               4504103
loop_
_symmetry_equiv_pos_as_xyz
x,y,z
-x,-y,-z
loop_
_atom_site_label
_atom_site_type_symbol
_atom_site_fract_x
_atom_site_fract_y
_atom_site_fract_z
_atom_site_U_iso_or_equiv
_atom_site_adp_type
_atom_site_occupancy
_atom_site_symmetry_multiplicity
_atom_site_calc_flag
Hg(1) Hg 0.06552(2) 0.68951(2) 0.67480(2) 0.02243(9) Uani 1.00 1 d
I(1) I 0.38244(4) 0.74576(4) 0.67767(3) 0.02449(11) Uani 1.00 1 d
I(2) I -0.07196(5) 0.42944(5) 0.69156(3) 0.02863(12) Uani 1.00 1 d
Br(1) Br -0.22711(7) 0.54913(6) -0.01954(5) 0.0264(2) Uani 1.00 1 d
N(1) N -0.3452(6) 0.7660(5) 0.4413(4) 0.0189(11) Uani 1.00 1 d
N(2) N -0.1302(6) 0.7730(5) 0.5618(4) 0.0208(11) Uani 1.00 1 d
N(3) N -0.8374(6) 0.9584(5) 0.0942(4) 0.0212(11) Uani 1.00 1 d
N(4) N -0.9989(6) 1.1063(5) 0.1883(4) 0.0187(10) Uani 1.00 1 d
C(1) C -0.2460(7) 0.6875(6) 0.4987(4) 0.0194(12) Uani 1.00 1 d
C(2) C -0.1548(8) 0.9159(7) 0.5471(5) 0.028(2) Uani 1.00 1 d
C(3) C -0.2889(8) 0.9099(7) 0.4707(5) 0.027(2) Uani 1.00 1 d
C(4) C -0.4903(7) 0.7075(6) 0.3665(4) 0.0206(12) Uani 1.00 1 d
C(5) C -0.4800(6) 0.7235(6) 0.2473(4) 0.0165(11) Uani 1.00 1 d
C(6) C -0.3708(7) 0.6452(6) 0.1842(5) 0.0196(12) Uani 1.00 1 d
C(7) C -0.3722(6) 0.6560(5) 0.0717(4) 0.0156(11) Uani 1.00 1 d
C(8) C -0.4815(7) 0.7406(6) 0.0238(4) 0.0200(12) Uani 1.00 1 d
C(9) C -0.5872(6) 0.8210(6) 0.0896(4) 0.0178(12) Uani 1.00 1 d
C(10) C -0.5856(7) 0.8142(6) 0.2018(5) 0.0208(13) Uani 1.00 1 d
C(11) C -0.7027(8) 0.9120(8) 0.0319(5) 0.032(2) Uani 1.00 1 d
C(12) C -0.8653(7) 1.0994(6) 0.1402(5) 0.0230(13) Uani 1.00 1 d
C(13) C -0.9587(8) 0.8703(7) 0.1148(5) 0.025(1) Uani 1.00 1 d
C(14) C -1.0583(7) 0.9614(6) 0.1723(5) 0.0230(13) Uani 1.00 1 d
H(1) H -0.2578(7) 0.5814(6) 0.4931(4) 0.023(2) Uiso 1.00 1 c
H(2) H -0.0897(8) 1.0042(7) 0.5849(5) 0.034(2) Uiso 1.00 1 c
H(3) H -0.3338(8) 0.9932(7) 0.4440(5) 0.033(2) Uiso 1.00 1 c
H(4) H -0.5085(7) 0.6036(6) 0.3670(4) 0.024(2) Uiso 1.00 1 c
H(5) H -0.5790(7) 0.7631(6) 0.3952(4) 0.024(2) Uiso 1.00 1 c
H(6) H -0.2945(7) 0.5850(6) 0.2168(5) 0.023(2) Uiso 1.00 1 c
H(7) H -0.4820(7) 0.7442(6) -0.0547(4) 0.024(2) Uiso 1.00 1 c
H(8) H -0.6573(7) 0.8736(6) 0.2480(5) 0.026(2) Uiso 1.00 1 c
H(9) H -0.7461(8) 0.8511(8) -0.0403(5) 0.041(2) Uiso 1.00 1 c
H(10) H -0.6452(8) 0.9988(8) 0.0205(5) 0.041(2) Uiso 1.00 1 c
H(11) H -0.7975(7) 1.1853(6) 0.1389(5) 0.029(2) Uiso 1.00 1 c
H(12) H -0.9717(8) 0.7630(7) 0.0920(5) 0.029(2) Uiso 1.00 1 c
H(13) H -1.1550(7) 0.9307(6) 0.1994(5) 0.027(2) Uiso 1.00 1 c
loop_
_atom_site_aniso_label
_atom_site_aniso_U_11
_atom_site_aniso_U_22
_atom_site_aniso_U_33
_atom_site_aniso_U_12
_atom_site_aniso_U_13
_atom_site_aniso_U_23
Hg(1) 0.0174(2) 0.0280(2) 0.0200(2) 0.00736(12) -0.00007(11) 0.00150(11)
I(1) 0.0188(2) 0.0318(2) 0.0250(2) 0.0026(2) 0.0037(2) 0.0101(2)
I(2) 0.0211(3) 0.0366(3) 0.0303(2) 0.0003(2) 0.0064(2) 0.0104(2)
Br(1) 0.0194(3) 0.0236(3) 0.0351(3) 0.0039(2) 0.0136(3) -0.0013(2)
N(1) 0.014(2) 0.032(2) 0.011(2) 0.005(2) -0.001(2) 0.009(2)
N(2) 0.019(2) 0.026(2) 0.017(2) 0.004(2) -0.001(2) 0.005(2)
N(3) 0.024(3) 0.029(2) 0.012(2) 0.011(2) 0.002(2) 0.006(2)
N(4) 0.015(2) 0.022(2) 0.018(2) 0.004(2) 0.003(2) 0.001(2)
C(1) 0.016(3) 0.026(2) 0.015(2) 0.006(2) -0.001(2) 0.004(2)
C(2) 0.033(4) 0.031(3) 0.021(3) 0.004(3) 0.002(3) 0.005(2)
C(3) 0.026(3) 0.031(3) 0.026(3) 0.002(2) -0.000(2) 0.013(2)
C(4) 0.014(3) 0.034(3) 0.014(2) 0.001(2) -0.005(2) 0.007(2)
C(5) 0.013(2) 0.025(2) 0.010(2) -0.005(2) -0.004(2) 0.002(2)
C(6) 0.016(3) 0.018(2) 0.022(3) 0.001(2) -0.001(2) 0.001(2)
C(7) 0.012(2) 0.016(2) 0.017(2) -0.002(2) 0.004(2) -0.001(2)
C(8) 0.018(3) 0.026(3) 0.015(2) 0.004(2) 0.006(2) 0.002(2)
C(9) 0.018(3) 0.024(2) 0.013(2) 0.010(2) 0.004(2) 0.007(2)
C(10) 0.020(3) 0.023(2) 0.021(3) 0.008(2) 0.008(2) 0.005(2)
C(11) 0.028(3) 0.055(4) 0.019(3) 0.030(3) 0.008(2) 0.018(3)
C(12) 0.023(3) 0.025(3) 0.025(3) 0.005(2) 0.007(2) 0.010(2)
C(13) 0.027(3) 0.025(3) 0.019(3) 0.001(2) -0.006(2) 0.000(2)
C(14) 0.019(3) 0.022(3) 0.027(3) 0.001(2) -0.000(2) 0.005(2)
loop_
_atom_type_symbol
_atom_type_description
_atom_type_scat_dispersion_real
_atom_type_scat_dispersion_imag
_atom_type_scat_source
C C 0.003 0.002
;
International Tables for Crystallography
(1992, Vol. C, Tables 4.2.6.8 and 6.1.1.4)
;
H H 0.000 0.000
;
International Tables for Crystallography
(1992, Vol. C, Table 6.1.1.4)
;
N N 0.006 0.003
;
International Tables for Crystallography
(1992, Vol. C, Tables 4.2.6.8 and 6.1.1.4)
;
Hg Hg -2.389 9.227
;
International Tables for Crystallography
(1992, Vol. C, Tables 4.2.6.8 and 6.1.1.4)
;
I I -0.474 1.812
;
International Tables for Crystallography
(1992, Vol. C, Tables 4.2.6.8 and 6.1.1.4)
;
Br Br -0.290 2.459
;
International Tables for Crystallography
(1992, Vol. C, Tables 4.2.6.8 and 6.1.1.4)
;
loop_
_geom_angle_atom_site_label_1
_geom_angle_atom_site_label_2
_geom_angle_atom_site_label_3
_geom_angle
_geom_angle_publ_flag
I(1) Hg(1) I(2) 125.30(1) yes
I(1) Hg(1) N(2) 124.7(1) yes
I(2) Hg(1) N(2) 101.1(1) yes
C(1) N(1) C(3) 107.1(5) yes
C(1) N(1) C(4) 126.3(5) yes
C(3) N(1) C(4) 126.5(5) yes
C(1) N(2) C(2) 106.5(5) yes
C(1) N(2) Hg(1) 123.9(4) yes
C(2) N(2) Hg(1) 129.6(4) yes
C(11) N(3) C(12) 124.8(5) yes
C(11) N(3) C(13) 127.6(5) yes
C(12) N(3) C(13) 107.6(5) yes
C(12) N(4) C(14) 106.0(5) yes
H(1) C(1) N(1) 124.7(6) no
H(1) C(1) N(2) 123.8(6) no
N(1) C(1) N(2) 111.5(5) yes
C(3) C(2) H(2) 126.4(8) no
C(3) C(2) N(2) 107.9(5) yes
H(2) C(2) N(2) 125.6(8) no
H(3) C(3) N(1) 127.0(7) no
H(3) C(3) C(2) 126.1(7) no
N(1) C(3) C(2) 106.9(6) yes
C(5) C(4) H(4) 109.5(5) no
C(5) C(4) H(5) 108.6(6) no
C(5) C(4) N(1) 112.4(5) yes
H(4) C(4) H(5) 109.5(7) no
H(4) C(4) N(1) 109.1(6) no
H(5) C(4) N(1) 107.8(5) no
C(6) C(5) C(10) 121.0(5) yes
C(6) C(5) C(4) 120.1(5) yes
C(10) C(5) C(4) 118.9(5) yes
C(7) C(6) H(6) 120.8(6) no
C(7) C(6) C(5) 118.1(5) yes
H(6) C(6) C(5) 121.0(7) no
C(8) C(7) Br(1) 118.4(4) yes
C(8) C(7) C(6) 121.5(5) yes
Br(1) C(7) C(6) 120.1(4) yes
C(9) C(8) H(7) 120.8(6) no
C(9) C(8) C(7) 119.3(5) yes
H(7) C(8) C(7) 119.9(6) no
C(10) C(9) C(11) 123.4(5) yes
C(10) C(9) C(8) 120.1(5) yes
C(11) C(9) C(8) 116.5(5) yes
H(8) C(10) C(5) 120.5(7) no
H(8) C(10) C(9) 119.6(7) no
C(5) C(10) C(9) 119.9(5) yes
H(9) C(11) H(10) 109.5(9) no
H(9) C(11) N(3) 107.2(7) no
H(9) C(11) C(9) 108.3(7) no
H(10) C(11) N(3) 109.4(7) no
H(10) C(11) C(9) 109.1(7) no
N(3) C(11) C(9) 113.3(5) yes
H(11) C(12) N(3) 125.3(7) no
H(11) C(12) N(4) 124.0(7) no
N(3) C(12) N(4) 110.7(5) yes
C(14) C(13) H(12) 126.2(8) no
C(14) C(13) N(3) 106.8(5) yes
H(12) C(13) N(3) 127.0(7) no
H(13) C(14) N(4) 125.3(6) no
H(13) C(14) C(13) 125.8(7) no
N(4) C(14) C(13) 108.9(6) yes
loop_
_geom_bond_atom_site_label_1
_geom_bond_atom_site_label_2
_geom_bond_distance
_geom_bond_publ_flag
Hg(1) I(1) 2.7004(10) yes
Hg(1) I(2) 2.6969(11) yes
Hg(1) N(2) 2.298(5) yes
Br(1) C(7) 1.895(5) yes
N(1) C(1) 1.359(8) yes
N(1) C(3) 1.359(8) yes
N(1) C(4) 1.465(7) yes
N(2) C(1) 1.309(7) yes
N(2) C(2) 1.388(9) yes
N(3) C(11) 1.456(8) yes
N(3) C(12) 1.340(7) yes
N(3) C(13) 1.366(8) yes
N(4) C(12) 1.321(8) yes
N(4) C(14) 1.382(7) yes
C(1) H(1) 0.970(8) no
C(2) C(3) 1.382(9) yes
C(2) H(2) 0.970(9) no
C(3) H(3) 0.97(1) no
C(4) C(5) 1.513(8) yes
C(4) H(4) 0.970(9) no
C(4) H(5) 0.970(8) no
C(5) C(6) 1.381(8) yes
C(5) C(10) 1.393(8) yes
C(6) C(7) 1.405(8) yes
C(6) H(6) 0.970(8) no
C(7) C(8) 1.387(8) yes
C(8) C(9) 1.386(8) yes
C(8) H(7) 0.970(8) no
C(9) C(10) 1.391(8) yes
C(9) C(11) 1.519(9) yes
C(10) H(8) 0.970(8) no
C(11) H(9) 0.970(8) no
C(11) H(10) 0.97(1) no
C(12) H(11) 0.970(9) no
C(13) C(14) 1.346(9) yes
C(13) H(12) 0.970(8) no
C(14) H(13) 0.970(9) no
loop_
_geom_contact_atom_site_label_1
_geom_contact_atom_site_label_2
_geom_contact_distance
_geom_contact_publ_flag
_geom_contact_site_symmetry_2
Hg(1) N(2) 2.298(5) yes 55501
Hg(1) C(1) 3.217(5) yes 55501
Hg(1) C(2) 3.359(7) yes 55501
Hg(1) H(1) 3.318(5) no 55501
Hg(1) H(2) 3.557(7) no 55501
I(2) H(1) 3.338(6) no 55501
Br(1) C(6) 2.869(6) yes 55501
Br(1) C(8) 2.832(6) yes 55501
Br(1) C(8) 3.572(6) yes 46502
Br(1) H(6) 2.963(6) no 55501
Br(1) H(7) 2.894(6) no 55501
Br(1) H(11) 3.130(7) no 47502
Br(1) H(12) 3.370(6) no 46502
N(1) N(2) 2.205(6) yes 55501
N(1) C(2) 2.202(7) yes 55501
N(1) C(5) 2.474(6) yes 55501
N(1) C(6) 3.094(7) yes 55501
N(1) C(10) 3.508(7) yes 55501
N(1) H(1) 2.071(8) no 55501
N(1) H(2) 3.141(7) no 55501
N(1) H(3) 2.091(8) no 55501
N(1) H(4) 2.004(7) no 55501
N(1) H(5) 1.988(7) no 55501
N(1) H(6) 2.977(7) no 55501
N(2) Hg(1) 2.298(5) yes 55501
N(2) N(1) 2.205(6) yes 55501
N(2) C(3) 2.241(8) yes 55501
N(2) H(1) 2.017(7) no 55501
N(2) H(2) 2.107(8) no 55501
N(2) H(3) 3.178(8) no 55501
N(3) N(4) 2.188(7) yes 55501
N(3) C(9) 2.486(7) yes 55501
N(3) C(10) 2.886(8) yes 55501
N(3) C(14) 2.176(8) yes 55501
N(3) H(8) 2.564(8) no 55501
N(3) H(9) 1.974(8) no 55501
N(3) H(10) 2.000(9) no 55501
N(3) H(11) 2.059(7) no 55501
N(3) H(12) 2.098(8) no 55501
N(3) H(13) 3.116(8) no 55501
N(4) N(3) 2.188(7) yes 55501
N(4) C(11) 3.587(8) yes 55501
N(4) C(13) 2.220(7) yes 55501
N(4) H(11) 2.030(8) no 55501
N(4) H(12) 3.158(7) no 55501
N(4) H(13) 2.098(8) no 55501
C(1) Hg(1) 3.217(5) yes 55501
C(1) C(2) 2.162(8) yes 55501
C(1) C(3) 2.187(9) yes 55501
C(1) C(4) 2.520(7) yes 55501
C(1) C(5) 3.566(7) yes 55501
C(1) H(2) 3.095(8) no 55501
C(1) H(3) 3.129(9) no 55501
C(1) H(4) 2.593(7) no 55501
C(1) H(5) 3.114(8) no 55501
C(1) H(6) 3.362(7) no 55501
C(2) Hg(1) 3.359(7) yes 55501
C(2) N(1) 2.202(7) yes 55501
C(2) C(1) 2.162(8) yes 55501
C(2) H(1) 3.098(9) no 55501
C(2) H(3) 2.105(9) no 55501
C(3) N(2) 2.241(8) yes 55501
C(3) C(1) 2.187(9) yes 55501
C(3) C(4) 2.521(8) yes 55501
C(3) C(5) 3.157(7) yes 55501
C(3) H(1) 3.120(9) no 55501
C(3) H(2) 2.108(8) no 55501
C(3) H(4) 3.276(8) no 55501
C(3) H(5) 2.734(8) no 55501
C(4) C(1) 2.520(7) yes 55501
C(4) C(3) 2.521(8) yes 55501
C(4) C(6) 2.508(8) yes 55501
C(4) C(10) 2.503(8) yes 55501
C(4) H(1) 2.805(8) no 55501
C(4) H(3) 2.842(8) no 55501
C(4) H(6) 2.683(8) no 55501
C(4) H(8) 2.664(8) no 55501
C(5) N(1) 2.474(6) yes 55501
C(5) C(1) 3.566(7) yes 55501
C(5) C(3) 3.157(7) yes 55501
C(5) C(7) 2.390(7) yes 55501
C(5) C(8) 2.780(8) yes 55501
C(5) C(9) 2.409(8) yes 55501
C(5) H(3) 3.189(7) no 55501
C(5) H(4) 2.051(8) no 55501
C(5) H(5) 2.041(8) no 55501
C(5) H(6) 2.057(8) no 55501
C(5) H(8) 2.063(8) no 55501
C(6) Br(1) 2.869(6) yes 55501
C(6) N(1) 3.094(7) yes 55501
C(6) C(4) 2.508(8) yes 55501
C(6) C(8) 2.435(8) yes 55501
C(6) C(9) 2.799(8) yes 55501
C(6) C(10) 2.415(8) yes 55501
C(6) H(4) 2.723(8) no 55501
C(6) H(5) 3.284(8) no 55501
C(6) H(7) 3.307(8) no 55501
C(6) H(8) 3.290(8) no 55501
C(7) C(5) 2.390(7) yes 55501
C(7) C(7) 3.569(7) yes 46502
C(7) C(9) 2.393(8) yes 55501
C(7) C(10) 2.763(8) yes 55501
C(7) H(6) 2.076(8) no 55501
C(7) H(7) 2.051(8) no 55501
C(8) Br(1) 2.832(6) yes 55501
C(8) Br(1) 3.572(6) yes 46502
C(8) C(5) 2.780(8) yes 55501
C(8) C(6) 2.435(8) yes 55501
C(8) C(10) 2.407(8) yes 55501
C(8) C(11) 2.471(9) yes 55501
C(8) H(6) 3.310(8) no 55501
C(8) H(8) 3.279(8) no 55501
C(8) H(9) 2.593(9) no 55501
C(8) H(10) 2.791(9) no 55501
C(8) H(10) 2.79(1) no 47502
C(8) H(11) 3.385(9) no 47502
C(9) N(3) 2.486(7) yes 55501
C(9) C(5) 2.409(8) yes 55501
C(9) C(6) 2.799(8) yes 55501
C(9) C(7) 2.393(8) yes 55501
C(9) C(12) 3.520(8) yes 55501
C(9) C(13) 3.209(9) yes 55501
C(9) H(7) 2.059(7) no 55501
C(9) H(8) 2.052(8) no 55501
C(9) H(9) 2.043(8) no 55501
C(9) H(10) 2.05(1) no 55501
C(9) H(10) 3.127(9) no 47502
C(9) H(12) 3.272(9) no 55501
C(10) N(1) 3.508(7) yes 55501
C(10) N(3) 2.886(8) yes 55501
C(10) C(4) 2.503(8) yes 55501
C(10) C(6) 2.415(8) yes 55501
C(10) C(7) 2.763(8) yes 55501
C(10) C(8) 2.407(8) yes 55501
C(10) C(11) 2.563(9) yes 55501
C(10) C(13) 3.301(9) yes 55501
C(10) H(3) 3.527(8) no 55501
C(10) H(4) 3.132(9) no 55501
C(10) H(5) 2.514(8) no 55501
C(10) H(6) 3.295(8) no 55501
C(10) H(7) 3.288(8) no 55501
C(10) H(9) 3.224(9) no 55501
C(10) H(10) 3.09(1) no 55501
C(10) H(12) 3.367(8) no 55501
C(11) N(4) 3.587(8) yes 55501
C(11) C(8) 2.471(9) yes 55501
C(11) C(10) 2.563(9) yes 55501
C(11) C(12) 2.479(9) yes 55501
C(11) C(13) 2.53(1) yes 55501
C(11) C(14) 3.598(9) yes 55501
C(11) H(7) 2.613(9) no 55501
C(11) H(7) 3.443(9) no 47502
C(11) H(8) 2.740(9) no 55501
C(11) H(10) 3.19(1) no 47502
C(11) H(11) 2.762(9) no 55501
C(11) H(12) 2.86(1) no 55501
C(12) C(9) 3.520(8) yes 55501
C(12) C(11) 2.479(9) yes 55501
C(12) C(13) 2.184(8) yes 55501
C(12) C(14) 2.160(9) yes 55501
C(12) H(7) 3.580(9) no 47502
C(12) H(8) 3.171(9) no 55501
C(12) H(9) 3.092(9) no 55501
C(12) H(10) 2.554(9) no 55501
C(12) H(12) 3.123(8) no 55501
C(12) H(13) 3.094(9) no 55501
C(13) N(4) 2.220(7) yes 55501
C(13) C(9) 3.209(9) yes 55501
C(13) C(10) 3.301(9) yes 55501
C(13) C(11) 2.53(1) yes 55501
C(13) C(12) 2.184(8) yes 55501
C(13) H(8) 2.867(8) no 55501
C(13) H(9) 2.728(9) no 55501
C(13) H(10) 3.28(1) no 55501
C(13) H(11) 3.120(9) no 55501
C(13) H(13) 2.068(9) no 55501
C(14) N(3) 2.176(8) yes 55501
C(14) C(11) 3.598(9) yes 55501
C(14) C(12) 2.160(9) yes 55501
C(14) H(8) 3.567(8) no 55501
C(14) H(11) 3.097(9) no 55501
C(14) H(12) 2.072(8) no 55501
H(1) Hg(1) 3.318(5) no 55501
H(1) I(2) 3.338(6) no 55501
H(1) N(1) 2.071(8) no 55501
H(1) N(2) 2.017(7) no 55501
H(1) C(2) 3.098(9) no 55501
H(1) C(3) 3.120(9) no 55501
H(1) C(4) 2.805(8) no 55501
H(2) Hg(1) 3.557(7) no 55501
H(2) N(1) 3.141(7) no 55501
H(2) N(2) 2.107(8) no 55501
H(2) C(1) 3.095(8) no 55501
H(2) C(3) 2.108(8) no 55501
H(3) N(1) 2.091(8) no 55501
H(3) N(2) 3.178(8) no 55501
H(3) C(1) 3.129(9) no 55501
H(3) C(2) 2.105(9) no 55501
H(3) C(4) 2.842(8) no 55501
H(3) C(5) 3.189(7) no 55501
H(3) C(10) 3.527(8) no 55501
H(4) N(1) 2.004(7) no 55501
H(4) C(1) 2.593(7) no 55501
H(4) C(3) 3.276(8) no 55501
H(4) C(5) 2.051(8) no 55501
H(4) C(6) 2.723(8) no 55501
H(4) C(10) 3.132(9) no 55501
H(5) I(1) 3.553(6) no 45501
H(5) N(1) 1.988(7) no 55501
H(5) C(1) 3.114(8) no 55501
H(5) C(3) 2.734(8) no 55501
H(5) C(5) 2.041(8) no 55501
H(5) C(6) 3.284(8) no 55501
H(5) C(10) 2.514(8) no 55501
H(6) Br(1) 2.963(6) no 55501
H(6) N(1) 2.977(7) no 55501
H(6) C(1) 3.362(7) no 55501
H(6) C(4) 2.683(8) no 55501
H(6) C(5) 2.057(8) no 55501
H(6) C(7) 2.076(8) no 55501
H(6) C(8) 3.310(8) no 55501
H(6) C(10) 3.295(8) no 55501
H(7) I(1) 3.367(5) no 45401
H(7) Br(1) 2.894(6) no 55501
H(7) C(6) 3.307(8) no 55501
H(7) C(7) 2.051(8) no 55501
H(7) C(9) 2.059(7) no 55501
H(7) C(10) 3.288(8) no 55501
H(7) C(11) 2.613(9) no 55501
H(7) C(11) 3.443(9) no 47502
H(7) C(12) 3.580(9) no 47502
H(8) N(3) 2.564(8) no 55501
H(8) C(4) 2.664(8) no 55501
H(8) C(5) 2.063(8) no 55501
H(8) C(6) 3.290(8) no 55501
H(8) C(8) 3.279(8) no 55501
H(8) C(9) 2.052(8) no 55501
H(8) C(11) 2.740(9) no 55501
H(8) C(12) 3.171(9) no 55501
H(8) C(13) 2.867(8) no 55501
H(8) C(14) 3.567(8) no 55501
H(9) N(3) 1.974(8) no 55501
H(9) C(8) 2.593(9) no 55501
H(9) C(9) 2.043(8) no 55501
H(9) C(10) 3.224(9) no 55501
H(9) C(12) 3.092(9) no 55501
H(9) C(13) 2.728(9) no 55501
H(10) N(3) 2.000(9) no 55501
H(10) C(8) 2.791(9) no 55501
H(10) C(8) 2.79(1) no 47502
H(10) C(9) 2.05(1) no 55501
H(10) C(9) 3.127(9) no 47502
H(10) C(10) 3.09(1) no 55501
H(10) C(11) 3.19(1) no 47502
H(10) C(12) 2.554(9) no 55501
H(10) C(13) 3.28(1) no 55501
H(11) Br(1) 3.130(7) no 47502
H(11) N(3) 2.059(7) no 55501
H(11) N(4) 2.030(8) no 55501
H(11) C(8) 3.385(9) no 47502
H(11) C(11) 2.762(9) no 55501
H(11) C(13) 3.120(9) no 55501
H(11) C(14) 3.097(9) no 55501
H(12) Br(1) 2.898(6) no 45501
H(12) Br(1) 3.370(6) no 46502
H(12) N(3) 2.098(8) no 55501
H(12) N(4) 3.158(7) no 55501
H(12) C(7) 3.458(8) no 45501
H(12) C(9) 3.272(9) no 55501
H(12) C(10) 3.367(8) no 55501
H(12) C(11) 2.86(1) no 55501
H(12) C(12) 3.123(8) no 55501
H(12) C(14) 2.072(8) no 55501
H(13) N(3) 3.116(8) no 55501
H(13) N(4) 2.098(8) no 55501
H(13) C(5) 3.471(8) no 45501
H(13) C(6) 3.124(8) no 45501
H(13) C(7) 3.111(7) no 45501
H(13) C(8) 3.488(7) no 45501
H(13) C(12) 3.094(9) no 55501
H(13) C(13) 2.068(9) no 55501
loop_
_geom_torsion_atom_site_label_1
_geom_torsion_atom_site_label_2
_geom_torsion_atom_site_label_3
_geom_torsion_atom_site_label_4
_geom_torsion
_geom_torsion_publ_flag
I(1) Hg(1) N(2) C(1) 129.6(4) yes
I(1) Hg(1) N(2) C(2) -52.0(6) yes
I(2) Hg(1) N(2) C(1) -18.8(5) yes
I(2) Hg(1) N(2) C(2) 159.5(5) yes
C(3) N(1) C(1) N(2) -0.4(6) yes
C(3) N(1) C(1) H(1) -179.6(7) no
C(4) N(1) C(1) N(2) -177.5(5) yes
C(4) N(1) C(1) H(1) 3(1) no
C(1) N(1) C(3) C(2) -0.3(7) yes
C(1) N(1) C(3) H(3) -179.9(8) no
C(4) N(1) C(3) C(2) 176.8(5) yes
C(4) N(1) C(3) H(3) -2(1) no
C(1) N(1) C(4) C(5) -118.6(6) yes
C(1) N(1) C(4) H(4) 3.0(8) no
C(1) N(1) C(4) H(5) 121.8(7) no
C(3) N(1) C(4) C(5) 64.9(7) yes
C(3) N(1) C(4) H(4) -173.5(6) no
C(3) N(1) C(4) H(5) -54.7(9) no
Hg(1) N(2) C(1) N(1) 179.6(4) yes
Hg(1) N(2) C(1) H(1) -1.3(9) no
C(2) N(2) C(1) N(1) 0.9(6) yes
C(2) N(2) C(1) H(1) -180.0(7) no
Hg(1) N(2) C(2) C(3) -179.6(5) yes
Hg(1) N(2) C(2) H(2) 0(1) no
C(1) N(2) C(2) C(3) -1.1(7) yes
C(1) N(2) C(2) H(2) 178.1(8) no
C(12) N(3) C(11) C(9) 114.5(6) yes
C(12) N(3) C(11) H(9) -126.1(8) no
C(12) N(3) C(11) H(10) -7.5(9) no
C(13) N(3) C(11) C(9) -67.0(7) yes
C(13) N(3) C(11) H(9) 52(1) no
C(13) N(3) C(11) H(10) 171.0(6) no
C(11) N(3) C(12) N(4) 178.2(5) yes
C(11) N(3) C(12) H(11) -1(1) no
C(13) N(3) C(12) N(4) -0.6(6) yes
C(13) N(3) C(12) H(11) 179.4(7) no
C(11) N(3) C(13) C(14) -178.1(5) yes
C(11) N(3) C(13) H(12) 1(1) no
C(12) N(3) C(13) C(14) 0.6(6) yes
C(12) N(3) C(13) H(12) -180.0(8) no
C(14) N(4) C(12) N(3) 0.3(6) yes
C(14) N(4) C(12) H(11) -179.6(7) no
C(12) N(4) C(14) C(13) 0.1(6) yes
C(12) N(4) C(14) H(13) 179.0(7) no
N(2) C(2) C(3) N(1) 0.8(8) yes
N(2) C(2) C(3) H(3) -179.4(8) no
H(2) C(2) C(3) N(1) -178.3(8) no
H(2) C(2) C(3) H(3) 1(1) no
N(1) C(4) C(5) C(6) 65.9(7) yes
N(1) C(4) C(5) C(10) -116.2(6) yes
H(4) C(4) C(5) C(6) -55.5(8) no
H(4) C(4) C(5) C(10) 122.4(6) no
H(5) C(4) C(5) C(6) -175.0(6) no
H(5) C(4) C(5) C(10) 2.9(8) no
C(4) C(5) C(6) C(7) 176.0(4) yes
C(4) C(5) C(6) H(6) -4.6(9) no
C(10) C(5) C(6) C(7) -1.8(8) yes
C(10) C(5) C(6) H(6) 177.6(6) no
C(4) C(5) C(10) C(9) -174.7(5) yes
C(4) C(5) C(10) H(8) 6.0(9) no
C(6) C(5) C(10) C(9) 3.2(8) yes
C(6) C(5) C(10) H(8) -176.1(6) no
C(5) C(6) C(7) Br(1) -179.2(4) yes
C(5) C(6) C(7) C(8) -1.2(8) yes
H(6) C(6) C(7) Br(1) 1.4(8) no
H(6) C(6) C(7) C(8) 179.4(6) no
Br(1) C(7) C(8) C(9) -179.2(4) yes
Br(1) C(7) C(8) H(7) -0.2(8) no
C(6) C(7) C(8) C(9) 2.7(8) yes
C(6) C(7) C(8) H(7) -178.3(6) no
C(7) C(8) C(9) C(10) -1.4(8) yes
C(7) C(8) C(9) C(11) 179.6(5) yes
H(7) C(8) C(9) C(10) 179.7(6) no
H(7) C(8) C(9) C(11) 0.6(9) no
C(8) C(9) C(10) C(5) -1.5(8) yes
C(8) C(9) C(10) H(8) 177.8(6) no
C(11) C(9) C(10) C(5) 177.5(5) yes
C(11) C(9) C(10) H(8) -3.2(9) no
C(8) C(9) C(11) N(3) 163.4(5) yes
C(8) C(9) C(11) H(9) 44.7(9) no
C(8) C(9) C(11) H(10) -74.4(7) no
C(10) C(9) C(11) N(3) -15.6(8) yes
C(10) C(9) C(11) H(9) -134.4(7) no
C(10) C(9) C(11) H(10) 106.6(8) no
N(3) C(13) C(14) N(4) -0.4(7) yes
N(3) C(13) C(14) H(13) -179.3(8) no
H(12) C(13) C(14) N(4) -179.8(8) no
H(12) C(13) C(14) H(13) 1(1) no
