#------------------------------------------------------------------------------
#$Date: 2016-03-24 02:28:07 +0200 (Thu, 24 Mar 2016) $
#$Revision: 179580 $
#$URL: svn://www.crystallography.net/cod/cif/4/50/45/4504588.cif $
#------------------------------------------------------------------------------
#
# This file is available in the Crystallography Open Database (COD),
# http://www.crystallography.net/
#
# All data on this site have been placed in the public domain by the
# contributors.
#
data_4504588
loop_
_publ_author_name
'Laus, G.'
'Kahlenberg, V.'
'T\"obbens, D. M.'
'Jetti, R. K. R.'
'Griesser, U. J.'
'Sch\"utz, J.'
'Kristeva, E.'
'Wurst, K.'
'Schottenberger, H.'
_publ_section_title
;
 Lattice Architecture and Hydrogen-Bonding Networks ofN-Aminoazolium
 andN,N&#x2018;-Diaminoazolium Chlorides
;
_journal_issue                   2
_journal_name_full               'Crystal Growth &amp; Design'
_journal_page_first              404
_journal_paper_doi               10.1021/cg0503595
_journal_volume                  6
_journal_year                    2006
_chemical_formula_sum            'C3 H6 Cl N3'
_chemical_formula_weight         119.56
_chemical_name_common            '1-aminoimidazole hydrochloride'
_chemical_name_systematic
; 
 ? 
;
_space_group_IT_number           14
_symmetry_cell_setting           monoclinic
_symmetry_space_group_name_Hall  '-P 2yn'
_symmetry_space_group_name_H-M   'P 1 21/n 1'
_atom_sites_solution_hydrogens   geom
_atom_sites_solution_primary     direct
_atom_sites_solution_secondary   difmap
_audit_creation_method           SHELXL-97
_cell_angle_alpha                90.00
_cell_angle_beta                 97.76(3)
_cell_angle_gamma                90.00
_cell_formula_units_Z            4
_cell_length_a                   9.3559(19)
_cell_length_b                   4.9432(10)
_cell_length_c                   12.182(2)
_cell_measurement_reflns_used    3531
_cell_measurement_temperature    293(2)
_cell_measurement_theta_max      29.53
_cell_measurement_theta_min      2.58
_cell_volume                     558.23(19)
_computing_cell_refinement
;
STOE X-Area version 1.25
;
_computing_data_collection
;
STOE X-Area data collection software, WinXpose version 1.6.8
;
_computing_data_reduction
;
STOE X-Area data evaluation software, X-RED 32
;
_computing_molecular_graphics
;
BRUKER AXS SHELXTL Vers.6.12, DOS/WIN95/NT/2000/ME
;
_computing_publication_material
;
BRUKER AXS SHELXTL Vers.6.12, DOS/WIN95/NT/2000/ME
;
_computing_structure_refinement
;
BRUKER AXS SHELXTL Vers.6.12, DOS/WIN95/NT/2000/ME
;
_computing_structure_solution
;
BRUKER AXS SHELXTL Vers.6.12, DOS/WIN95/NT/2000/ME
;
_diffrn_ambient_temperature      293(2)
_diffrn_measured_fraction_theta_full 0.954
_diffrn_measured_fraction_theta_max 0.954
_diffrn_measurement_device_type  'STOE IPDS-II'
_diffrn_measurement_method       '\w scans'
_diffrn_radiation_monochromator  graphite
_diffrn_radiation_source         'fine-focus sealed tube'
_diffrn_radiation_type           MoK\a
_diffrn_radiation_wavelength     0.71073
_diffrn_reflns_av_R_equivalents  0.0386
_diffrn_reflns_av_sigmaI/netI    0.0301
_diffrn_reflns_limit_h_max       12
_diffrn_reflns_limit_h_min       -12
_diffrn_reflns_limit_k_max       6
_diffrn_reflns_limit_k_min       -6
_diffrn_reflns_limit_l_max       16
_diffrn_reflns_limit_l_min       -16
_diffrn_reflns_number            5004
_diffrn_reflns_theta_full        29.28
_diffrn_reflns_theta_max         29.28
_diffrn_reflns_theta_min         2.58
_exptl_absorpt_coefficient_mu    0.555
_exptl_absorpt_correction_T_max  0.96
_exptl_absorpt_correction_T_min  0.88
_exptl_absorpt_correction_type   analytical
_exptl_crystal_colour            colorless
_exptl_crystal_density_diffrn    1.423
_exptl_crystal_density_method    'not measured'
_exptl_crystal_description       prism
_exptl_crystal_F_000             248
_exptl_crystal_size_max          0.4
_exptl_crystal_size_mid          0.12
_exptl_crystal_size_min          0.08
_refine_diff_density_max         0.269
_refine_diff_density_min         -0.409
_refine_diff_density_rms         0.061
_refine_ls_extinction_method     none
_refine_ls_goodness_of_fit_ref   1.097
_refine_ls_hydrogen_treatment    mixed
_refine_ls_matrix_type           full
_refine_ls_number_parameters     88
_refine_ls_number_reflns         1457
_refine_ls_number_restraints     0
_refine_ls_restrained_S_all      1.097
_refine_ls_R_factor_all          0.0686
_refine_ls_R_factor_gt           0.0465
_refine_ls_shift/su_max          0.000
_refine_ls_shift/su_mean         0.000
_refine_ls_structure_factor_coef Fsqd
_refine_ls_weighting_details
'calc w=1/[\s^2^(Fo^2^)+(0.0405P)^2^+0.2189P] where P=(Fo^2^+2Fc^2^)/3'
_refine_ls_weighting_scheme      calc
_refine_ls_wR_factor_gt          0.0963
_refine_ls_wR_factor_ref         0.1042
_reflns_number_gt                1076
_reflns_number_total             1457
_reflns_threshold_expression     >2sigma(I)
_cod_data_source_file            cg0503595si20051106_031028.cif
_cod_data_source_block           CCDC277126
_cod_depositor_comments
;
The following automatic conversions were performed:

'_symmetry_cell_setting' value 'Monoclinic' changed to 'monoclinic'
according to /home/saulius/struct/CIF-dictionaries/cif_core.dic
dictionary named 'cif_core.dic' version 2.4.1 from 2010-06-29.

Automatic conversion script
Id: cif_fix_values 1715 2011-07-08 13:25:40Z adriana 
;
_cod_original_sg_symbol_H-M      P2(1)/n
_cod_database_code               4504588
loop_
_symmetry_equiv_pos_as_xyz
'x, y, z'
'-x+1/2, y+1/2, -z+1/2'
'-x, -y, -z'
'x-1/2, -y-1/2, z-1/2'
loop_
_atom_site_label
_atom_site_type_symbol
_atom_site_fract_x
_atom_site_fract_y
_atom_site_fract_z
_atom_site_U_iso_or_equiv
_atom_site_adp_type
_atom_site_occupancy
_atom_site_symmetry_multiplicity
_atom_site_calc_flag
Cl1 Cl 0.97230(6) 0.03626(14) 0.33084(5) 0.0523(2) Uani 1 1 d
N1 N 1.3559(2) -0.8917(5) 0.61062(16) 0.0457(5) Uani 1 1 d
H1B H 1.402(3) -0.801(6) 0.668(2) 0.050(7) Uiso 1 1 d
H1A H 1.284(3) -0.952(6) 0.631(2) 0.052(8) Uiso 1 1 d
N2 N 1.30773(17) -0.6995(4) 0.52829(14) 0.0360(4) Uani 1 1 d
C3 C 1.2038(2) -0.5181(5) 0.5306(2) 0.0449(5) Uani 1 1 d
H3 H 1.151(3) -0.499(6) 0.591(2) 0.057(8) Uiso 1 1 d
N4 N 1.1930(2) -0.3783(5) 0.43767(19) 0.0480(5) Uani 1 1 d
H4 H 1.129(4) -0.256(8) 0.416(3) 0.087(11) Uiso 1 1 d
C5 C 1.2918(2) -0.4739(5) 0.3739(2) 0.0474(6) Uani 1 1 d
H5 H 1.301(3) -0.396(6) 0.300(3) 0.064(8) Uiso 1 1 d
C6 C 1.3640(2) -0.6746(5) 0.43029(18) 0.0411(5) Uani 1 1 d
H6 H 1.439(3) -0.791(5) 0.415(2) 0.044(6) Uiso 1 1 d
loop_
_atom_site_aniso_label
_atom_site_aniso_U_11
_atom_site_aniso_U_22
_atom_site_aniso_U_33
_atom_site_aniso_U_23
_atom_site_aniso_U_13
_atom_site_aniso_U_12
Cl1 0.0493(3) 0.0573(4) 0.0532(3) 0.0160(3) 0.0182(2) 0.0158(3)
N1 0.0482(11) 0.0504(14) 0.0386(10) -0.0001(9) 0.0063(9) 0.0029(9)
N2 0.0327(8) 0.0391(11) 0.0365(9) -0.0049(7) 0.0062(6) 0.0022(7)
C3 0.0390(11) 0.0425(14) 0.0555(13) -0.0092(11) 0.0143(9) 0.0024(9)
N4 0.0396(10) 0.0394(13) 0.0642(13) -0.0016(9) 0.0035(9) 0.0047(8)
C5 0.0451(12) 0.0524(16) 0.0444(12) 0.0009(11) 0.0046(9) -0.0013(10)
C6 0.0357(10) 0.0500(15) 0.0388(11) -0.0056(10) 0.0092(8) 0.0028(9)
loop_
_atom_type_symbol
_atom_type_description
_atom_type_scat_dispersion_real
_atom_type_scat_dispersion_imag
_atom_type_scat_source
C C 0.0033 0.0016 'International Tables Vol C Tables 4.2.6.8 and 6.1.1.4'
H H 0.0000 0.0000 'International Tables Vol C Tables 4.2.6.8 and 6.1.1.4'
N N 0.0061 0.0033 'International Tables Vol C Tables 4.2.6.8 and 6.1.1.4'
Cl Cl 0.1484 0.1585 'International Tables Vol C Tables 4.2.6.8 and 6.1.1.4'
loop_
_geom_angle_atom_site_label_1
_geom_angle_atom_site_label_2
_geom_angle_atom_site_label_3
_geom_angle
N2 N1 H1B 107.1(18)
N2 N1 H1A 105(2)
H1B N1 H1A 106(3)
C3 N2 C6 109.0(2)
C3 N2 N1 127.27(19)
C6 N2 N1 123.73(18)
N4 C3 N2 107.9(2)
N4 C3 H3 128.8(17)
N2 C3 H3 123.3(17)
C3 N4 C5 109.1(2)
C3 N4 H4 127(2)
C5 N4 H4 124(2)
C6 C5 N4 107.3(2)
C6 C5 H5 131.0(17)
N4 C5 H5 121.8(17)
C5 C6 N2 106.7(2)
C5 C6 H6 133.2(15)
N2 C6 H6 120.1(15)
loop_
_geom_bond_atom_site_label_1
_geom_bond_atom_site_label_2
_geom_bond_distance
N1 N2 1.410(3)
N1 H1B 0.90(3)
N1 H1A 0.81(3)
N2 C3 1.326(3)
N2 C6 1.374(3)
C3 N4 1.318(3)
C3 H3 0.94(3)
N4 C5 1.369(3)
N4 H4 0.87(4)
C5 C6 1.337(3)
C5 H5 0.99(3)
C6 H6 0.95(3)
loop_
_geom_hbond_atom_site_label_D
_geom_hbond_atom_site_label_H
_geom_hbond_atom_site_label_A
_geom_hbond_distance_DH
_geom_hbond_distance_HA
_geom_hbond_distance_DA
_geom_hbond_angle_DHA
_geom_hbond_site_symmetry_A
N1 H1B Cl1 0.90(3) 2.39(3) 3.268(2) 167(2) 4_656
N1 H1A Cl1 0.81(3) 2.54(3) 3.322(3) 165(3) 3_746
N4 H4 Cl1 0.87(4) 2.21(4) 3.071(2) 170(3) .
C3 H3 Cl1 0.94(3) 2.79(3) 3.462(2) 129(2) 3_756
C5 H5 Cl1 0.99(3) 2.84(3) 3.547(3) 129(2) 2_745
