#------------------------------------------------------------------------------
#$Date: 2017-10-13 14:42:48 +0300 (Fri, 13 Oct 2017) $
#$Revision: 201982 $
#$URL: file:///home/coder/svn-repositories/cod/cif/4/50/40/4504087.cif $
#------------------------------------------------------------------------------
#
# This file is available in the Crystallography Open Database (COD),
# http://www.crystallography.net/
#
# All data on this site have been placed in the public domain by the
# contributors.
#
data_4504087
loop_
_publ_author_name
'Fabbiani, Francesca P. A.'
'Allan, David R.'
'David, William I. F.'
'Davidson, Alistair J.'
'Lennie, Alistair R.'
'Parsons, Simon'
'Pulham, Colin R.'
'Warren, John E.'
_publ_section_title
;
 High-Pressure Studies of Pharmaceuticals:&#x00A0; An Exploration of the
 Behavior of Piracetam
;
_journal_issue                   6
_journal_name_full               'Crystal Growth &amp; Design'
_journal_page_first              1115
_journal_paper_doi               10.1021/cg0607710
_journal_volume                  7
_journal_year                    2007
_chemical_compound_source        F.P.A.Fabbiani
_chemical_formula_moiety         'C6 H10 N2 O2'
_chemical_formula_sum            'C6 H10 N2 O2'
_chemical_formula_weight         142.16
_space_group_IT_number           2
_symmetry_cell_setting           triclinic
_symmetry_space_group_name_Hall  '-P 1'
_symmetry_space_group_name_H-M   'P -1'
_atom_sites_solution_hydrogens   geom
_atom_sites_solution_primary     'Known fractional coordinates'
_audit_creation_date             05-06-03
_audit_creation_method           CRYSTALS_ver_12.80
_cell_angle_alpha                80.41(3)
_cell_angle_beta                 115.33(3)
_cell_angle_gamma                91.15(2)
_cell_formula_units_Z            2
_cell_length_a                   6.169(2)
_cell_length_b                   6.1602(11)
_cell_length_c                   8.287(3)
_cell_measurement_reflns_used    492
_cell_measurement_temperature    293
_cell_measurement_theta_max      25
_cell_measurement_theta_min      3
_cell_volume                     280.21(16)
_computing_cell_refinement       'SAINT (Siemens ,1995)'
_computing_data_collection       'SMART (Siemens, 1993)'
_computing_data_reduction        'SAINT (Siemens ,1995)'
_computing_molecular_graphics    'CAMERON (Watkin et al., 1996)'
_computing_publication_material
'CRYSTALS (Betteridge et al., 2003), PLATON, XCIF, ENCIFER'
_computing_structure_refinement  'CRYSTALS (Betteridge et al., 2003)'
_computing_structure_solution    'Known fractional coordinates'
_diffrn_ambient_temperature      293
_diffrn_measured_fraction_theta_full 0.366
_diffrn_measured_fraction_theta_max 0.281
_diffrn_measurement_device_type  'Bruker SMART'
_diffrn_measurement_method       \w
_diffrn_radiation_monochromator  graphite
_diffrn_radiation_type           Synchrotron
_diffrn_radiation_wavelength     0.67650
_diffrn_reflns_av_R_equivalents  0.0696
_diffrn_reflns_limit_h_max       6
_diffrn_reflns_limit_h_min       -7
_diffrn_reflns_limit_k_max       7
_diffrn_reflns_limit_k_min       -7
_diffrn_reflns_limit_l_max       4
_diffrn_reflns_limit_l_min       0
_diffrn_reflns_number            859
_diffrn_reflns_theta_full        18.929
_diffrn_reflns_theta_max         24.906
_diffrn_reflns_theta_min         3.198
_diffrn_standards_number         0
_exptl_absorpt_coefficient_mu    0.128
_exptl_absorpt_correction_T_max  1.00
_exptl_absorpt_correction_T_min  0.07
_exptl_absorpt_correction_type   multi-scan
_exptl_absorpt_process_details   'based on symmetry-related measuraments'
_exptl_crystal_colour            colourless
_exptl_crystal_density_diffrn    1.685
_exptl_crystal_description       block
_exptl_crystal_F_000             152
_exptl_crystal_recrystallization_method
'Compression of Form II ex 2-propanol at 4.0 GPa'
_exptl_crystal_size_max          0.20
_exptl_crystal_size_mid          0.15
_exptl_crystal_size_min          0.15
_refine_diff_density_max         0.23
_refine_diff_density_min         -0.25
_refine_ls_extinction_method     None
_refine_ls_goodness_of_fit_ref   1.0636
_refine_ls_hydrogen_treatment    constr
_refine_ls_matrix_type           full
_refine_ls_number_parameters     41
_refine_ls_number_reflns         292
_refine_ls_number_restraints     23
_refine_ls_R_factor_all          0.1108
_refine_ls_R_factor_gt           0.0915
_refine_ls_shift/su_max          0.000035
_refine_ls_structure_factor_coef Fsqd
_refine_ls_weighting_details
;
 Method= Modified Sheldrick 
 w=1/[\s^2^(F^2^) + ( 0.14P)^2^ + 0.70P] 
 ,where P=(max(Fo^2^,0) + 2Fc^2^)/3 
;
_refine_ls_weighting_scheme      calc
_refine_ls_wR_factor_all         0.2401
_refine_ls_wR_factor_gt          0.2204
_refine_ls_wR_factor_ref         0.2401
_reflns_limit_h_max              6
_reflns_limit_h_min              -7
_reflns_limit_k_max              7
_reflns_limit_k_min              -7
_reflns_limit_l_max              4
_reflns_limit_l_min              0
_reflns_number_gt                221
_reflns_number_total             317
_reflns_threshold_expression     I>2.0\s(I)
_oxford_diffrn_Wilson_B_factor   1.59
_oxford_diffrn_Wilson_scale      0.01
_oxford_refine_ls_scale          13(5)
_oxford_structure_analysis_title 'piracetam form V at 4.0 GPa'
_cod_data_source_file            cg0607710si20061031_114637.cif
_cod_data_source_block           piracetam_form_V_4.0_GPa
_cod_depositor_comments
;
The following automatic conversions were performed:

'_symmetry_cell_setting' value 'Triclinic' changed to 'triclinic'
according to /home/saulius/struct/CIF-dictionaries/cif_core.dic
dictionary named 'cif_core.dic' version 2.4.1 from 2010-06-29.

Automatic conversion script
Id: cif_fix_values 1715 2011-07-08 13:25:40Z adriana 
;
_cod_original_cell_volume        280.23(17)
_cod_original_sg_symbol_H-M      'P -1 '
_cod_database_code               4504087
loop_
_symmetry_equiv_pos_as_xyz
x,y,z
-x,-y,-z
loop_
_atom_site_label
_atom_site_type_symbol
_atom_site_fract_x
_atom_site_fract_y
_atom_site_fract_z
_atom_site_U_iso_or_equiv
_atom_site_occupancy
_atom_site_adp_type
_atom_site_refinement_flags_posn
C1 C 1.1618(11) 0.3766(9) 0.3497(17) 0.0241(19) 1.0000 Uiso D
N1 N 0.9441(9) 0.4270(8) 0.3318(14) 0.0216(16) 1.0000 Uiso D
O1 O 1.2766(8) 0.1975(8) 0.4300(16) 0.0284(16) 1.0000 Uiso D
C2 C 1.2389(12) 0.5643(12) 0.248(2) 0.031(2) 1.0000 Uiso D
N2 N 0.4646(10) 0.0590(10) 0.2014(19) 0.0310(19) 1.0000 Uiso D
O2 O 0.7343(10) 0.1682(10) 0.088(2) 0.038(2) 1.0000 Uiso D
C3 C 1.0376(12) 0.7429(11) 0.170(2) 0.030(2) 1.0000 Uiso D
C4 C 0.8361(11) 0.6382(11) 0.209(2) 0.0246(18) 1.0000 Uiso D
C5 C 0.7951(11) 0.2668(11) 0.3687(17) 0.0237(18) 1.0000 Uiso D
C6 C 0.6601(11) 0.1609(11) 0.2058(17) 0.0180(18) 1.0000 Uiso D
H21 H 1.3891 0.6216 0.3343 0.0369 1.0000 Uiso R
H22 H 1.2691 0.5143 0.1500 0.0369 1.0000 Uiso R
H31 H 1.0898 0.8768 0.2274 0.0362 1.0000 Uiso R
H32 H 0.9850 0.7840 0.0361 0.0362 1.0000 Uiso R
H41 H 0.7776 0.7359 0.2690 0.0294 1.0000 Uiso R
H42 H 0.6992 0.6106 0.0951 0.0294 1.0000 Uiso R
H51 H 0.8966 0.1512 0.4735 0.0284 1.0000 Uiso R
H52 H 0.6781 0.3402 0.3996 0.0284 1.0000 Uiso R
H23 H 0.4206 0.0599 0.2893 0.0373 1.0000 Uiso R
H24 H 0.3801 -0.0090 0.1106 0.0373 1.0000 Uiso R
loop_
_atom_type_symbol
_atom_type_scat_dispersion_real
_atom_type_scat_dispersion_imag
_atom_type_scat_Cromer_Mann_a1
_atom_type_scat_Cromer_Mann_b1
_atom_type_scat_Cromer_Mann_a2
_atom_type_scat_Cromer_Mann_b2
_atom_type_scat_Cromer_Mann_a3
_atom_type_scat_Cromer_Mann_b3
_atom_type_scat_Cromer_Mann_a4
_atom_type_scat_Cromer_Mann_b4
_atom_type_scat_Cromer_Mann_c
_atom_type_scat_source
C 0.0033 0.0016 2.3100 20.8439 1.0200 10.2075 1.5886 0.5687 0.8650 51.6512
0.2156 'International Tables Vol C 4.2.6.8 and 6.1.1.4'
H 0.0000 0.0000 0.4930 10.5109 0.3229 26.1257 0.1402 3.1424 0.0408 57.7998
0.0030 'International Tables Vol C 4.2.6.8 and 6.1.1.4'
N 0.0061 0.0033 12.2126 0.0057 3.1322 9.8933 2.0125 28.9975 1.1663 0.5826
-11.5290 'International Tables Vol C 4.2.6.8 and 6.1.1.4'
O 0.0106 0.0060 3.0485 13.2771 2.2868 5.7011 1.5463 0.3239 0.8670 32.9089
0.2508 'International Tables Vol C 4.2.6.8 and 6.1.1.4'
loop_
_geom_angle_atom_site_label_1
_geom_angle_atom_site_label_2
_geom_angle_atom_site_label_3
_geom_angle
_geom_angle_publ_flag
N1 C1 O1 124.7(6) yes
N1 C1 C2 109.1(5) yes
O1 C1 C2 126.1(6) yes
C1 N1 C4 113.4(6) yes
C1 N1 C5 122.8(4) yes
C4 N1 C5 120.0(5) yes
C1 C2 C3 106.5(6) yes
C1 C2 H21 109.2 no
C3 C2 H21 109.5 no
C1 C2 H22 110.8 no
C3 C2 H22 111.4 no
H21 C2 H22 109.5 no
C6 N2 H23 120.0 no
C6 N2 H24 120.0 no
H23 N2 H24 120.0 no
C2 C3 C4 104.9(6) yes
C2 C3 H31 111.4 no
C4 C3 H31 111.2 no
C2 C3 H32 109.3 no
C4 C3 H32 110.4 no
H31 C3 H32 109.5 no
C3 C4 N1 105.1(5) yes
C3 C4 H41 110.2 no
N1 C4 H41 110.9 no
C3 C4 H42 110.9 no
N1 C4 H42 110.2 no
H41 C4 H42 109.5 no
N1 C5 C6 110.2(7) yes
N1 C5 H51 109.4 no
C6 C5 H51 109.3 no
N1 C5 H52 109.1 no
C6 C5 H52 109.3 no
H51 C5 H52 109.5 no
C5 C6 N2 115.8(7) yes
C5 C6 O2 120.0(5) yes
N2 C6 O2 124.3(6) yes
loop_
_geom_bond_atom_site_label_1
_geom_bond_atom_site_label_2
_geom_bond_distance
_geom_bond_publ_flag
C1 N1 1.324(9) yes
C1 O1 1.243(8) yes
C1 C2 1.508(14) yes
N1 C4 1.478(11) yes
N1 C5 1.420(11) yes
C2 C3 1.517(8) yes
C2 H21 1.000 no
C2 H22 1.000 no
N2 C6 1.338(10) yes
N2 H23 0.880 no
N2 H24 0.880 no
O2 C6 1.24(2) yes
C3 C4 1.520(17) yes
C3 H31 1.000 no
C3 H32 1.000 no
C4 H41 1.000 no
C4 H42 1.000 no
C5 C6 1.500(11) yes
C5 H51 1.000 no
C5 H52 1.000 no
loop_
_cod_related_entry_id
_cod_related_entry_database
_cod_related_entry_code
1 ChemSpider 4677
