#------------------------------------------------------------------------------
#$Date: 2016-03-24 02:33:27 +0200 (Thu, 24 Mar 2016) $
#$Revision: 179585 $
#$URL: svn://www.crystallography.net/cod/cif/4/50/50/4505016.cif $
#------------------------------------------------------------------------------
#
# This file is available in the Crystallography Open Database (COD),
# http://www.crystallography.net/
#
# All data on this site have been placed in the public domain by the
# contributors.
#
data_4505016
loop_
_publ_author_name
'F\'abi\'an, L\'aszl\'o'
'K\'alm\'an, Alajos'
'Argay, Gyula'
'Bern\'ath, G\'abor'
'Gyarmati, Zsuzsanna Cs.'
_publ_section_title
;
 Crystal Engineering with Alicyclic \b-Amino Acids:&#x2009; Construction
 of Hydrogen-Bonded Bilayers
;
_journal_issue                   2
_journal_name_full               'Crystal Growth &amp; Design'
_journal_page_first              773
_journal_paper_doi               10.1021/cg0497997
_journal_volume                  5
_journal_year                    2005
_chemical_formula_moiety         'C6 H11 N O2'
_chemical_formula_sum            'C6 H11 N O2'
_chemical_formula_weight         129.16
_chemical_name_systematic
; 
 cis-2-aminocyclopentanecarboxylic acid
;
_space_group_IT_number           2
_symmetry_cell_setting           triclinic
_symmetry_space_group_name_Hall  '-P 1'
_symmetry_space_group_name_H-M   'P -1'
_atom_sites_solution_hydrogens   geom
_atom_sites_solution_primary     direct
_atom_sites_solution_secondary   difmap
_audit_creation_method           SHELXL-97
_cell_angle_alpha                97.90(1)
_cell_angle_beta                 99.08(2)
_cell_angle_gamma                110.49(2)
_cell_formula_units_Z            2
_cell_length_a                   5.123(2)
_cell_length_b                   6.374(1)
_cell_length_c                   10.931(2)
_cell_measurement_reflns_used    25
_cell_measurement_temperature    293(2)
_cell_measurement_theta_max      29.91
_cell_measurement_theta_min      25.02
_cell_volume                     322.93(16)
_computing_cell_refinement       'CAD4 Express'
_computing_data_collection       'CAD4 Express'
_computing_data_reduction        'XCAD4 (Harms 1996)'
_computing_structure_refinement  'SHELXL-97 (Sheldrick, 1997)'
_computing_structure_solution    'SHELXS-97 (Sheldrick, 1997)'
_diffrn_ambient_temperature      293(2)
_diffrn_measured_fraction_theta_full 0.992
_diffrn_measured_fraction_theta_max 0.992
_diffrn_measurement_device_type  'Enraf-Nonius CAD4'
_diffrn_measurement_method       \w--2\q
_diffrn_radiation_monochromator  graphite
_diffrn_radiation_source         'fine-focus sealed tube'
_diffrn_radiation_type           'CU k\a'
_diffrn_radiation_wavelength     1.54184
_diffrn_reflns_av_R_equivalents  0.0481
_diffrn_reflns_av_sigmaI/netI    0.0579
_diffrn_reflns_limit_h_max       6
_diffrn_reflns_limit_h_min       -5
_diffrn_reflns_limit_k_max       7
_diffrn_reflns_limit_k_min       -7
_diffrn_reflns_limit_l_max       13
_diffrn_reflns_limit_l_min       -13
_diffrn_reflns_number            3329
_diffrn_reflns_theta_full        74.65
_diffrn_reflns_theta_max         74.65
_diffrn_reflns_theta_min         4.19
_diffrn_standards_decay_%        7
_diffrn_standards_interval_time  60
_diffrn_standards_number         3
_exptl_absorpt_coefficient_mu    0.822
_exptl_absorpt_correction_T_max  0.9103
_exptl_absorpt_correction_T_min  0.6939
_exptl_absorpt_correction_type   psi-scan
_exptl_absorpt_process_details   'DATCOR (Reibenspies, 1989)'
_exptl_crystal_colour            colourless
_exptl_crystal_density_diffrn    1.328
_exptl_crystal_density_method    'not measured'
_exptl_crystal_description       prism
_exptl_crystal_F_000             140
_exptl_crystal_size_max          0.45
_exptl_crystal_size_mid          0.35
_exptl_crystal_size_min          0.12
_refine_diff_density_max         0.580
_refine_diff_density_min         -0.288
_refine_diff_density_rms         0.091
_refine_ls_extinction_method     none
_refine_ls_goodness_of_fit_ref   1.423
_refine_ls_hydrogen_treatment    riding
_refine_ls_matrix_type           full
_refine_ls_number_parameters     83
_refine_ls_number_reflns         1306
_refine_ls_number_restraints     129
_refine_ls_restrained_S_all      1.355
_refine_ls_R_factor_all          0.0692
_refine_ls_R_factor_gt           0.0660
_refine_ls_shift/su_max          0.000
_refine_ls_shift/su_mean         0.000
_refine_ls_structure_factor_coef Fsqd
_refine_ls_weighting_details
'calc w=1/[\s^2^(Fo^2^)+(0.1000P)^2^+0.0000P] where P=(Fo^2^+2Fc^2^)/3'
_refine_ls_weighting_scheme      calc
_refine_ls_wR_factor_gt          0.1726
_refine_ls_wR_factor_ref         0.1759
_reflns_number_gt                1173
_reflns_number_total             1306
_reflns_threshold_expression     >2sigma(I)
_cod_data_source_file            cg0497997si20040621_111010.cif
_cod_data_source_block           cmpd4
_cod_original_cell_volume        322.93(15)
_cod_original_sg_symbol_H-M      P-1
_cod_database_code               4505016
loop_
_symmetry_equiv_pos_as_xyz
'x, y, z'
'-x, -y, -z'
loop_
_atom_site_label
_atom_site_type_symbol
_atom_site_fract_x
_atom_site_fract_y
_atom_site_fract_z
_atom_site_U_iso_or_equiv
_atom_site_adp_type
_atom_site_occupancy
_atom_site_symmetry_multiplicity
_atom_site_calc_flag
_atom_site_refinement_flags
N1 N 0.2392(2) 0.27746(16) 0.10023(10) 0.0295(4) Uani 1 1 d U
H1A H 0.1858 0.1327 0.1091 0.044 Uiso 1 1 calc R
H1B H 0.3709 0.3058 0.0539 0.044 Uiso 1 1 calc R
H1C H 0.0882 0.3008 0.0617 0.044 Uiso 1 1 calc R
O2 O 0.1698(2) 0.87111(16) 0.17034(10) 0.0392(4) Uani 1 1 d U
O3 O 0.3039(2) 0.70047(16) 0.01522(9) 0.0355(3) Uani 1 1 d U
C1 C 0.4976(3) 0.6896(2) 0.22632(11) 0.0280(4) Uani 1 1 d U
H1 H 0.6880 0.7261 0.2081 0.036 Uiso 1 1 calc R
C2 C 0.3601(3) 0.4327(2) 0.22685(11) 0.0264(4) Uani 1 1 d U
H2 H 0.5065 0.3883 0.2724 0.034 Uiso 1 1 calc R
C3 C 0.1369(3) 0.4166(3) 0.30551(14) 0.0400(4) Uani 1 1 d U
H3A H 0.1027 0.2851 0.3451 0.052 Uiso 1 1 calc R
H3B H -0.0421 0.4035 0.2533 0.052 Uiso 1 1 calc R
C4 C 0.2643(4) 0.6387(3) 0.40520(14) 0.0486(5) Uani 1 1 d U
H4A H 0.3227 0.6091 0.4878 0.063 Uiso 1 1 calc R
H4B H 0.1249 0.7088 0.4099 0.063 Uiso 1 1 calc R
C5 C 0.5224(4) 0.7958(3) 0.36440(14) 0.0428(4) Uani 1 1 d U
H5A H 0.6986 0.8052 0.4174 0.056 Uiso 1 1 calc R
H5B H 0.5210 0.9487 0.3712 0.056 Uiso 1 1 calc R
C6 C 0.3106(3) 0.76097(18) 0.13006(12) 0.0267(4) Uani 1 1 d U
loop_
_atom_site_aniso_label
_atom_site_aniso_U_11
_atom_site_aniso_U_22
_atom_site_aniso_U_33
_atom_site_aniso_U_23
_atom_site_aniso_U_13
_atom_site_aniso_U_12
N1 0.0349(7) 0.0254(6) 0.0352(6) 0.0129(4) 0.0114(5) 0.0159(5)
O2 0.0448(7) 0.0351(6) 0.0572(7) 0.0225(4) 0.0243(5) 0.0281(5)
O3 0.0370(6) 0.0389(6) 0.0383(6) 0.0158(4) 0.0115(4) 0.0192(5)
C1 0.0225(6) 0.0281(6) 0.0372(7) 0.0111(5) 0.0093(5) 0.0115(5)
C2 0.0262(7) 0.0290(7) 0.0319(6) 0.0142(5) 0.0093(5) 0.0160(6)
C3 0.0384(9) 0.0457(8) 0.0422(8) 0.0179(6) 0.0213(6) 0.0148(7)
C4 0.0615(10) 0.0561(10) 0.0406(8) 0.0130(6) 0.0246(7) 0.0303(8)
C5 0.0447(9) 0.0439(8) 0.0373(7) 0.0031(6) 0.0040(6) 0.0177(7)
C6 0.0239(6) 0.0196(6) 0.0419(7) 0.0148(5) 0.0129(5) 0.0089(5)
loop_
_atom_type_symbol
_atom_type_description
_atom_type_scat_dispersion_real
_atom_type_scat_dispersion_imag
_atom_type_scat_source
C C 0.0181 0.0091 'International Tables Vol C Tables 4.2.6.8 and 6.1.1.4'
H H 0.0000 0.0000 'International Tables Vol C Tables 4.2.6.8 and 6.1.1.4'
N N 0.0311 0.0180 'International Tables Vol C Tables 4.2.6.8 and 6.1.1.4'
O O 0.0492 0.0322 'International Tables Vol C Tables 4.2.6.8 and 6.1.1.4'
loop_
_geom_angle_atom_site_label_1
_geom_angle_atom_site_label_2
_geom_angle_atom_site_label_3
_geom_angle
C2 N1 H1A 109.5
C2 N1 H1B 109.5
H1A N1 H1B 109.5
C2 N1 H1C 109.5
H1A N1 H1C 109.5
H1B N1 H1C 109.5
C6 C1 C5 113.65(11)
C6 C1 C2 111.51(9)
C5 C1 C2 100.79(11)
C6 C1 H1 110.2
C5 C1 H1 110.2
C2 C1 H1 110.2
N1 C2 C3 112.61(11)
N1 C2 C1 115.54(10)
C3 C2 C1 104.56(10)
N1 C2 H2 107.9
C3 C2 H2 107.9
C1 C2 H2 107.9
C2 C3 C4 104.80(12)
C2 C3 H3A 110.8
C4 C3 H3A 110.8
C2 C3 H3B 110.8
C4 C3 H3B 110.8
H3A C3 H3B 108.9
C3 C4 C5 106.62(12)
C3 C4 H4A 110.4
C5 C4 H4A 110.4
C3 C4 H4B 110.4
C5 C4 H4B 110.4
H4A C4 H4B 108.6
C4 C5 C1 106.31(11)
C4 C5 H5A 110.5
C1 C5 H5A 110.5
C4 C5 H5B 110.5
C1 C5 H5B 110.5
H5A C5 H5B 108.7
O3 C6 O2 124.15(11)
O3 C6 C1 117.35(11)
O2 C6 C1 118.48(11)
loop_
_geom_bond_atom_site_label_1
_geom_bond_atom_site_label_2
_geom_bond_distance
N1 C2 1.4841(15)
N1 H1A 0.8900
N1 H1B 0.8900
N1 H1C 0.8900
O2 C6 1.2558(17)
O3 C6 1.2528(16)
C1 C6 1.5330(17)
C1 C5 1.5331(19)
C1 C2 1.5407(16)
C1 H1 0.9800
C2 C3 1.5196(19)
C2 H2 0.9800
C3 C4 1.524(2)
C3 H3A 0.9700
C3 H3B 0.9700
C4 C5 1.527(2)
C4 H4A 0.9700
C4 H4B 0.9700
C5 H5A 0.9700
C5 H5B 0.9700
loop_
_geom_hbond_atom_site_label_D
_geom_hbond_atom_site_label_H
_geom_hbond_atom_site_label_A
_geom_hbond_distance_DH
_geom_hbond_distance_HA
_geom_hbond_distance_DA
_geom_hbond_angle_DHA
_geom_hbond_site_symmetry_A
N1 H1A O2 0.89 1.86 2.7220(14) 162.3 1_545
N1 H1B O3 0.89 1.95 2.8008(18) 160.6 2_665
N1 H1C O3 0.89 2.05 2.9267(18) 168.9 2_565
N1 H1C O2 0.89 2.56 3.1494(18) 124.5 2_565
loop_
_geom_torsion_atom_site_label_1
_geom_torsion_atom_site_label_2
_geom_torsion_atom_site_label_3
_geom_torsion_atom_site_label_4
_geom_torsion
C6 C1 C2 N1 44.71(14)
C5 C1 C2 N1 165.64(11)
C6 C1 C2 C3 -79.64(12)
C5 C1 C2 C3 41.29(13)
N1 C2 C3 C4 -159.59(11)
C1 C2 C3 C4 -33.39(14)
C2 C3 C4 C5 11.84(16)
C3 C4 C5 C1 14.14(17)
C6 C1 C5 C4 85.66(15)
C2 C1 C5 C4 -33.74(14)
C5 C1 C6 O3 172.80(12)
C2 C1 C6 O3 -74.10(14)
C5 C1 C6 O2 -8.73(17)
C2 C1 C6 O2 104.36(13)
