#------------------------------------------------------------------------------
#$Date: 2016-03-24 02:36:29 +0200 (Thu, 24 Mar 2016) $
#$Revision: 179588 $
#$URL: svn://www.crystallography.net/cod/cif/4/50/53/4505310.cif $
#------------------------------------------------------------------------------
#
# This file is available in the Crystallography Open Database (COD),
# http://www.crystallography.net/
#
# All data on this site have been placed in the public domain by the
# contributors.
#
data_4505310
loop_
_publ_author_name
'Brewer, Jason T.'
'Parkin, Sean'
'Grossman, Robert B.'
_publ_section_title
;
 A Systematic Study of the Relationship between Molecular and Crystal
 Structure among 3,5-Diazabicyclo[2.2.2]octane-2,6-diones
;
_journal_issue                   3
_journal_name_full               'Crystal Growth &amp; Design'
_journal_page_first              591
_journal_paper_doi               10.1021/cg0341609
_journal_volume                  4
_journal_year                    2004
_chemical_formula_sum            'C11 H18 N2 O2'
_chemical_formula_weight         210.27
_chemical_name_systematic
; 
 ? 
;
_space_group_IT_number           2
_symmetry_cell_setting           triclinic
_symmetry_space_group_name_Hall  '-P 1'
_symmetry_space_group_name_H-M   'P -1'
_atom_sites_solution_hydrogens   geom
_atom_sites_solution_primary     direct
_atom_sites_solution_secondary   difmap
_audit_creation_method           SHELXL-97
_cell_angle_alpha                108.985(4)
_cell_angle_beta                 90.136(4)
_cell_angle_gamma                96.233(4)
_cell_formula_units_Z            2
_cell_length_a                   6.0180(4)
_cell_length_b                   9.7880(7)
_cell_length_c                   9.9340(8)
_cell_measurement_reflns_used    4720
_cell_measurement_temperature    90.0(2)
_cell_measurement_theta_max      27.48
_cell_measurement_theta_min      1.00
_cell_volume                     549.61(7)
_computing_cell_refinement       'SCALEPACK (Otwinowski & Minor, 1997)'
_computing_data_collection       'COLLECT (Nonius, 1998)'
_computing_data_reduction        'DENZO-SMN (Otwinowski & Minor, 1997)'
_computing_molecular_graphics    'XP in Siemens SHELXTL (Sheldrick, 1994)'
_computing_publication_material
;
SHELX97-2 (Sheldrick, 1997) and local procedures
;
_computing_structure_refinement  'SHELXL-97 (Sheldrick, 1997)'
_computing_structure_solution    'SHELXS-97 (Sheldrick, 1990)'
_diffrn_ambient_temperature      90.0(2)
_diffrn_detector_area_resol_mean 18
_diffrn_measured_fraction_theta_full 0.998
_diffrn_measured_fraction_theta_max 0.998
_diffrn_measurement_device_type  'Nonius KappaCCD diffractometer'
_diffrn_measurement_method       '\w scans at fixed \c = 55\%'
_diffrn_radiation_monochromator  graphite
_diffrn_radiation_source         'fine-focus sealed tube'
_diffrn_radiation_type           MoK\a
_diffrn_radiation_wavelength     0.71073
_diffrn_reflns_av_R_equivalents  0.0320
_diffrn_reflns_av_sigmaI/netI    0.0734
_diffrn_reflns_limit_h_max       7
_diffrn_reflns_limit_h_min       -7
_diffrn_reflns_limit_k_max       12
_diffrn_reflns_limit_k_min       -12
_diffrn_reflns_limit_l_max       12
_diffrn_reflns_limit_l_min       -9
_diffrn_reflns_number            3865
_diffrn_reflns_theta_full        27.51
_diffrn_reflns_theta_max         27.51
_diffrn_reflns_theta_min         2.17
_diffrn_standards_decay_%        <1
_exptl_absorpt_coefficient_mu    0.088
_exptl_absorpt_correction_T_max  0.9869
_exptl_absorpt_correction_T_min  0.9724
_exptl_absorpt_correction_type   multi-scan
_exptl_absorpt_process_details   'Scalepack (Otwinowski & Minor 1997)'
_exptl_crystal_colour            colourless
_exptl_crystal_density_diffrn    1.271
_exptl_crystal_density_method    'not measured'
_exptl_crystal_description       block
_exptl_crystal_F_000             228
_exptl_crystal_size_max          0.32
_exptl_crystal_size_mid          0.30
_exptl_crystal_size_min          0.15
_refine_diff_density_max         0.367
_refine_diff_density_min         -0.302
_refine_diff_density_rms         0.053
_refine_ls_extinction_coef       0.013(4)
_refine_ls_extinction_expression Fc^*^=kFc[1+0.001xFc^2^\l^3^/sin(2\q)]^-1/4^
_refine_ls_extinction_method     SHELXL
_refine_ls_goodness_of_fit_ref   0.972
_refine_ls_hydrogen_treatment    mixed
_refine_ls_matrix_type           full
_refine_ls_number_parameters     140
_refine_ls_number_reflns         2515
_refine_ls_number_restraints     0
_refine_ls_restrained_S_all      0.972
_refine_ls_R_factor_all          0.0789
_refine_ls_R_factor_gt           0.0492
_refine_ls_shift/su_max          0.004
_refine_ls_shift/su_mean         0.001
_refine_ls_structure_factor_coef Fsqd
_refine_ls_weighting_details
'calc w=1/[\s^2^(Fo^2^)+(0.0351P)^2^+0.2533P] where P=(Fo^2^+2Fc^2^)/3'
_refine_ls_weighting_scheme      calc
_refine_ls_wR_factor_gt          0.0987
_refine_ls_wR_factor_ref         0.1104
_reflns_number_gt                1789
_reflns_number_total             2515
_reflns_threshold_expression     >2sigma(I)
_cod_data_source_file            cg0341609si20030822_115801.cif
_cod_data_source_block           2b
_cod_database_code               4505310
loop_
_symmetry_equiv_pos_as_xyz
'x, y, z'
'-x, -y, -z'
loop_
_atom_site_label
_atom_site_type_symbol
_atom_site_fract_x
_atom_site_fract_y
_atom_site_fract_z
_atom_site_U_iso_or_equiv
_atom_site_adp_type
_atom_site_occupancy
_atom_site_symmetry_multiplicity
_atom_site_calc_flag
_atom_site_refinement_flags
C1 C 0.3884(3) 0.12880(17) 0.28920(17) 0.0137(4) Uani 1 1 d .
O2 O 0.18443(19) 0.17148(12) 0.50955(12) 0.0194(3) Uani 1 1 d .
C2 C 0.2348(3) 0.08531(18) 0.39536(17) 0.0149(4) Uani 1 1 d .
N3 N 0.1627(2) -0.05787(14) 0.34750(14) 0.0164(3) Uani 1 1 d .
H3 H 0.0782 -0.0996 0.3986 0.020 Uiso 1 1 calc R
C4 C 0.2324(3) -0.14084(17) 0.20566(17) 0.0156(4) Uani 1 1 d .
N5 N 0.1781(2) -0.06398(14) 0.10750(14) 0.0154(3) Uani 1 1 d .
H5 H 0.1046 -0.1092 0.0256 0.018 Uiso 1 1 calc R
O6 O 0.19803(18) 0.16198(12) 0.08616(12) 0.0171(3) Uani 1 1 d .
C6 C 0.2471(3) 0.07952(17) 0.14986(17) 0.0136(4) Uani 1 1 d .
C7 C 0.5826(3) 0.03049(17) 0.26712(18) 0.0170(4) Uani 1 1 d .
H7A H 0.6844 0.0504 0.1959 0.020 Uiso 1 1 calc R
H7B H 0.6698 0.0539 0.3580 0.020 Uiso 1 1 calc R
C8 C 0.4887(3) -0.13199(18) 0.21562(18) 0.0171(4) Uani 1 1 d .
H8A H 0.5463 -0.1822 0.1212 0.020 Uiso 1 1 calc R
H8B H 0.5349 -0.1793 0.2837 0.020 Uiso 1 1 calc R
C9 C 0.1110(3) -0.29322(18) 0.15808(19) 0.0205(4) Uani 1 1 d .
H9A H 0.1421 -0.3411 0.2276 0.031 Uiso 1 1 calc R
H9B H 0.1626 -0.3487 0.0648 0.031 Uiso 1 1 calc R
H9C H -0.0503 -0.2886 0.1510 0.031 Uiso 1 1 calc R
C10 C 0.4655(3) 0.29169(17) 0.34016(17) 0.0154(4) Uani 1 1 d .
H10A H 0.5402 0.3185 0.4356 0.018 Uiso 1 1 calc R
H10B H 0.3319 0.3445 0.3509 0.018 Uiso 1 1 calc R
C11 C 0.6272(3) 0.34410(18) 0.24137(18) 0.0166(4) Uani 1 1 d .
H11 H 0.6336 0.2614 0.1508 0.020 Uiso 1 1 calc R
C12 C 0.8628(3) 0.38917(19) 0.3092(2) 0.0241(4) Uani 1 1 d .
H12A H 0.9661 0.4077 0.2394 0.036 Uiso 1 1 calc R
H12B H 0.9100 0.3110 0.3401 0.036 Uiso 1 1 calc R
H12C H 0.8637 0.4778 0.3917 0.036 Uiso 1 1 calc R
C13 C 0.5419(3) 0.47002(19) 0.2049(2) 0.0228(4) Uani 1 1 d .
H13A H 0.5351 0.5525 0.2924 0.034 Uiso 1 1 calc R
H13B H 0.3922 0.4388 0.1591 0.034 Uiso 1 1 calc R
H13C H 0.6439 0.4994 0.1399 0.034 Uiso 1 1 calc R
loop_
_atom_site_aniso_label
_atom_site_aniso_U_11
_atom_site_aniso_U_22
_atom_site_aniso_U_33
_atom_site_aniso_U_23
_atom_site_aniso_U_13
_atom_site_aniso_U_12
C1 0.0123(8) 0.0158(8) 0.0131(8) 0.0051(7) 0.0008(7) 0.0013(6)
O2 0.0220(7) 0.0203(7) 0.0149(6) 0.0049(5) 0.0038(5) 0.0008(5)
C2 0.0129(8) 0.0186(9) 0.0141(8) 0.0064(7) -0.0023(7) 0.0028(7)
N3 0.0182(8) 0.0165(7) 0.0160(7) 0.0077(6) 0.0050(6) 0.0012(6)
C4 0.0179(9) 0.0154(9) 0.0153(8) 0.0071(7) 0.0016(7) 0.0034(7)
N5 0.0173(8) 0.0155(7) 0.0133(7) 0.0051(6) -0.0024(6) 0.0009(6)
O6 0.0169(6) 0.0180(6) 0.0179(6) 0.0084(5) -0.0024(5) 0.0009(5)
C6 0.0099(8) 0.0175(9) 0.0136(8) 0.0049(7) 0.0029(7) 0.0026(6)
C7 0.0134(8) 0.0209(9) 0.0180(9) 0.0081(7) -0.0018(7) 0.0027(7)
C8 0.0164(9) 0.0196(9) 0.0177(8) 0.0087(7) 0.0024(7) 0.0053(7)
C9 0.0228(10) 0.0172(9) 0.0215(9) 0.0065(8) 0.0020(8) 0.0019(7)
C10 0.0131(8) 0.0182(9) 0.0143(8) 0.0044(7) -0.0004(7) 0.0021(7)
C11 0.0162(9) 0.0165(9) 0.0160(8) 0.0042(7) 0.0005(7) 0.0006(7)
C12 0.0175(9) 0.0257(10) 0.0297(10) 0.0106(8) 0.0006(8) -0.0006(7)
C13 0.0229(10) 0.0225(10) 0.0253(10) 0.0107(8) 0.0045(8) 0.0039(7)
loop_
_atom_type_symbol
_atom_type_description
_atom_type_scat_dispersion_real
_atom_type_scat_dispersion_imag
_atom_type_scat_source
C C 0.0033 0.0016 'International Tables Vol C Tables 4.2.6.8 and 6.1.1.4'
H H 0.0000 0.0000 'International Tables Vol C Tables 4.2.6.8 and 6.1.1.4'
N N 0.0061 0.0033 'International Tables Vol C Tables 4.2.6.8 and 6.1.1.4'
O O 0.0106 0.0060 'International Tables Vol C Tables 4.2.6.8 and 6.1.1.4'
loop_
_geom_angle_atom_site_label_1
_geom_angle_atom_site_label_2
_geom_angle_atom_site_label_3
_geom_angle
C10 C1 C6 112.48(13)
C10 C1 C2 111.78(13)
C6 C1 C2 104.36(12)
C10 C1 C7 114.40(13)
C6 C1 C7 107.45(13)
C2 C1 C7 105.66(13)
O2 C2 N3 124.79(15)
O2 C2 C1 123.94(14)
N3 C2 C1 111.28(14)
C2 N3 C4 116.56(13)
C2 N3 H3 121.7
C4 N3 H3 121.7
N5 C4 N3 107.57(13)
N5 C4 C9 110.45(13)
N3 C4 C9 110.14(13)
N5 C4 C8 106.80(13)
N3 C4 C8 106.49(13)
C9 C4 C8 115.04(14)
C6 N5 C4 116.16(13)
C6 N5 H5 121.9
C4 N5 H5 121.9
O6 C6 N5 124.21(15)
O6 C6 C1 124.09(14)
N5 C6 C1 111.68(14)
C8 C7 C1 110.65(13)
C8 C7 H7A 109.5
C1 C7 H7A 109.5
C8 C7 H7B 109.5
C1 C7 H7B 109.5
H7A C7 H7B 108.1
C4 C8 C7 107.69(13)
C4 C8 H8A 110.2
C7 C8 H8A 110.2
C4 C8 H8B 110.2
C7 C8 H8B 110.2
H8A C8 H8B 108.5
C4 C9 H9A 109.5
C4 C9 H9B 109.5
H9A C9 H9B 109.5
C4 C9 H9C 109.5
H9A C9 H9C 109.5
H9B C9 H9C 109.5
C1 C10 C11 115.13(14)
C1 C10 H10A 108.5
C11 C10 H10A 108.5
C1 C10 H10B 108.5
C11 C10 H10B 108.5
H10A C10 H10B 107.5
C12 C11 C13 110.29(14)
C12 C11 C10 111.10(14)
C13 C11 C10 110.78(14)
C12 C11 H11 108.2
C13 C11 H11 108.2
C10 C11 H11 108.2
C11 C12 H12A 109.5
C11 C12 H12B 109.5
H12A C12 H12B 109.5
C11 C12 H12C 109.5
H12A C12 H12C 109.5
H12B C12 H12C 109.5
C11 C13 H13A 109.5
C11 C13 H13B 109.5
H13A C13 H13B 109.5
C11 C13 H13C 109.5
H13A C13 H13C 109.5
H13B C13 H13C 109.5
loop_
_geom_bond_atom_site_label_1
_geom_bond_atom_site_label_2
_geom_bond_distance
C1 C10 1.525(2)
C1 C6 1.531(2)
C1 C2 1.536(2)
C1 C7 1.565(2)
O2 C2 1.2347(19)
C2 N3 1.346(2)
N3 C4 1.467(2)
N3 H3 0.8800
C4 N5 1.467(2)
C4 C9 1.512(2)
C4 C8 1.536(2)
N5 C6 1.345(2)
N5 H5 0.8800
O6 C6 1.2337(19)
C7 C8 1.544(2)
C7 H7A 0.9900
C7 H7B 0.9900
C8 H8A 0.9900
C8 H8B 0.9900
C9 H9A 0.9800
C9 H9B 0.9800
C9 H9C 0.9800
C10 C11 1.548(2)
C10 H10A 0.9900
C10 H10B 0.9900
C11 C12 1.525(2)
C11 C13 1.530(2)
C11 H11 1.0000
C12 H12A 0.9800
C12 H12B 0.9800
C12 H12C 0.9800
C13 H13A 0.9800
C13 H13B 0.9800
C13 H13C 0.9800
loop_
_geom_torsion_atom_site_label_1
_geom_torsion_atom_site_label_2
_geom_torsion_atom_site_label_3
_geom_torsion_atom_site_label_4
_geom_torsion
C10 C1 C2 O2 -1.6(2)
C6 C1 C2 O2 -123.42(16)
C7 C1 C2 O2 123.42(16)
C10 C1 C2 N3 178.27(13)
C6 C1 C2 N3 56.45(17)
C7 C1 C2 N3 -56.70(17)
O2 C2 N3 C4 177.05(15)
C1 C2 N3 C4 -2.83(19)
C2 N3 C4 N5 -51.02(18)
C2 N3 C4 C9 -171.45(14)
C2 N3 C4 C8 63.18(17)
N3 C4 N5 C6 49.65(18)
C9 C4 N5 C6 169.89(13)
C8 C4 N5 C6 -64.35(17)
C4 N5 C6 O6 -173.29(14)
C4 N5 C6 C1 5.08(19)
C10 C1 C6 O6 -0.8(2)
C2 C1 C6 O6 120.54(16)
C7 C1 C6 O6 -127.60(16)
C10 C1 C6 N5 -179.19(13)
C2 C1 C6 N5 -57.83(16)
C7 C1 C6 N5 54.04(16)
C10 C1 C7 C8 -179.98(13)
C6 C1 C7 C8 -54.34(17)
C2 C1 C7 C8 56.64(17)
N5 C4 C8 C7 57.74(16)
N3 C4 C8 C7 -56.98(16)
C9 C4 C8 C7 -179.31(14)
C1 C7 C8 C4 -0.74(18)
C6 C1 C10 C11 -64.78(18)
C2 C1 C10 C11 178.20(13)
C7 C1 C10 C11 58.18(19)
C1 C10 C11 C12 -109.46(16)
C1 C10 C11 C13 127.59(16)
