#------------------------------------------------------------------------------
#$Date: 2016-03-24 02:33:27 +0200 (Thu, 24 Mar 2016) $
#$Revision: 179585 $
#$URL: svn://www.crystallography.net/cod/cif/4/50/50/4505017.cif $
#------------------------------------------------------------------------------
#
# This file is available in the Crystallography Open Database (COD),
# http://www.crystallography.net/
#
# All data on this site have been placed in the public domain by the
# contributors.
#
data_4505017
loop_
_publ_author_name
'F\'abi\'an, L\'aszl\'o'
'K\'alm\'an, Alajos'
'Argay, Gyula'
'Bern\'ath, G\'abor'
'Gyarmati, Zsuzsanna Cs.'
_publ_section_title
;
 Crystal Engineering with Alicyclic \b-Amino Acids:&#x2009; Construction
 of Hydrogen-Bonded Bilayers
;
_journal_issue                   2
_journal_name_full               'Crystal Growth &amp; Design'
_journal_page_first              773
_journal_paper_doi               10.1021/cg0497997
_journal_volume                  5
_journal_year                    2005
_chemical_formula_moiety         'C7 H13 N O2'
_chemical_formula_sum            'C7 H13 N O2'
_chemical_formula_weight         143.18
_chemical_name_systematic
; 
 cis-2-aminocyclohexanecarboxylic acid 
;
_space_group_IT_number           2
_symmetry_cell_setting           triclinic
_symmetry_space_group_name_Hall  '-P 1'
_symmetry_space_group_name_H-M   'P -1'
_atom_sites_solution_hydrogens   geom
_atom_sites_solution_primary     direct
_atom_sites_solution_secondary   difmap
_audit_creation_method           SHELXL-97
_cell_angle_alpha                95.11(1)
_cell_angle_beta                 100.51(1)
_cell_angle_gamma                108.97(1)
_cell_formula_units_Z            2
_cell_length_a                   5.160(1)
_cell_length_b                   6.383(1)
_cell_length_c                   12.281(1)
_cell_measurement_reflns_used    25
_cell_measurement_temperature    293(2)
_cell_measurement_theta_max      14.90
_cell_measurement_theta_min      12.03
_cell_volume                     371.29(10)
_computing_cell_refinement       'CAD4 Express'
_computing_data_collection       'CAD4 Express'
_computing_data_reduction        'XCAD4 (Harms 1996)'
_computing_structure_refinement  'SHELXL-97 (Sheldrick, 1997)'
_computing_structure_solution    'SHELXS-97 (Sheldrick, 1997)'
_diffrn_ambient_temperature      293(2)
_diffrn_measured_fraction_theta_full 1.000
_diffrn_measured_fraction_theta_max 1.000
_diffrn_measurement_device_type  'Enraf-Nonius CAD4'
_diffrn_measurement_method       \w--2\q
_diffrn_radiation_monochromator  graphite
_diffrn_radiation_source         'fine-focus sealed tube'
_diffrn_radiation_type           'MO k\a'
_diffrn_radiation_wavelength     0.710730
_diffrn_reflns_av_R_equivalents  0.0214
_diffrn_reflns_av_sigmaI/netI    0.0593
_diffrn_reflns_limit_h_max       8
_diffrn_reflns_limit_h_min       -8
_diffrn_reflns_limit_k_max       10
_diffrn_reflns_limit_k_min       -10
_diffrn_reflns_limit_l_max       19
_diffrn_reflns_limit_l_min       -19
_diffrn_reflns_number            7291
_diffrn_reflns_theta_full        34.96
_diffrn_reflns_theta_max         34.96
_diffrn_reflns_theta_min         3.42
_diffrn_standards_decay_%        2
_diffrn_standards_interval_time  60
_diffrn_standards_number         3
_exptl_absorpt_coefficient_mu    0.093
_exptl_absorpt_correction_T_max  0.9924
_exptl_absorpt_correction_T_min  0.8745
_exptl_absorpt_correction_type   psi-scan
_exptl_absorpt_process_details   'DATCOR (Reibenspies, 1989)'
_exptl_crystal_colour            colourless
_exptl_crystal_density_diffrn    1.281
_exptl_crystal_density_method    'not measured'
_exptl_crystal_description       prism
_exptl_crystal_F_000             156
_exptl_crystal_size_max          0.40
_exptl_crystal_size_mid          0.10
_exptl_crystal_size_min          0.07
_refine_diff_density_max         0.435
_refine_diff_density_min         -0.253
_refine_diff_density_rms         0.051
_refine_ls_extinction_method     none
_refine_ls_goodness_of_fit_ref   0.856
_refine_ls_hydrogen_treatment    riding
_refine_ls_matrix_type           full
_refine_ls_number_parameters     92
_refine_ls_number_reflns         3263
_refine_ls_number_restraints     120
_refine_ls_restrained_S_all      0.840
_refine_ls_R_factor_all          0.1070
_refine_ls_R_factor_gt           0.0486
_refine_ls_shift/su_max          0.000
_refine_ls_shift/su_mean         0.000
_refine_ls_structure_factor_coef Fsqd
_refine_ls_weighting_details
'calc w=1/[\s^2^(Fo^2^)+(0.1000P)^2^+0.0000P] where P=(Fo^2^+2Fc^2^)/3'
_refine_ls_weighting_scheme      calc
_refine_ls_wR_factor_gt          0.1325
_refine_ls_wR_factor_ref         0.1519
_reflns_number_gt                1738
_reflns_number_total             3263
_reflns_threshold_expression     >2sigma(I)
_cod_data_source_file            cg0497997si20040621_111010.cif
_cod_data_source_block           cmpd5
_cod_original_sg_symbol_H-M      P-1
_cod_database_code               4505017
loop_
_symmetry_equiv_pos_as_xyz
'x, y, z'
'-x, -y, -z'
loop_
_atom_site_label
_atom_site_type_symbol
_atom_site_fract_x
_atom_site_fract_y
_atom_site_fract_z
_atom_site_U_iso_or_equiv
_atom_site_adp_type
_atom_site_occupancy
_atom_site_symmetry_multiplicity
_atom_site_calc_flag
_atom_site_refinement_flags
N1 N 0.2491(2) 0.26633(14) 0.08473(7) 0.0278(2) Uani 1 1 d U
H1A H 0.2006 0.1203 0.0882 0.042 Uiso 1 1 calc R
H1B H 0.3943 0.3083 0.0521 0.042 Uiso 1 1 calc R
H1C H 0.1044 0.2933 0.0449 0.042 Uiso 1 1 calc R
O2 O 0.1730(2) 0.86098(15) 0.15527(8) 0.0428(3) Uani 1 1 d U
O3 O 0.29629(19) 0.69291(15) 0.01875(7) 0.0350(2) Uani 1 1 d U
C1 C 0.4753(2) 0.64833(17) 0.20512(8) 0.0251(2) Uani 1 1 d U
H1 H 0.6545 0.6698 0.1833 0.033 Uiso 1 1 calc R
C2 C 0.3298(2) 0.39546(16) 0.20041(8) 0.0236(2) Uani 1 1 d U
H2 H 0.4639 0.3411 0.2458 0.031 Uiso 1 1 calc R
C3 C 0.0716(2) 0.34206(19) 0.24990(9) 0.0311(2) Uani 1 1 d U
H3A H -0.0132 0.1809 0.2451 0.040 Uiso 1 1 calc R
H3B H -0.0653 0.3951 0.2072 0.040 Uiso 1 1 calc R
C4 C 0.1502(3) 0.4534(2) 0.37210(10) 0.0405(3) Uani 1 1 d U
H4A H -0.0180 0.4220 0.4017 0.053 Uiso 1 1 calc R
H4B H 0.2757 0.3915 0.4159 0.053 Uiso 1 1 calc R
C5 C 0.2933(3) 0.7056(2) 0.38283(10) 0.0404(3) Uani 1 1 d U
H5A H 0.3570 0.7708 0.4616 0.053 Uiso 1 1 calc R
H5B H 0.1587 0.7699 0.3482 0.053 Uiso 1 1 calc R
C6 C 0.5441(3) 0.7642(2) 0.32713(10) 0.0362(3) Uani 1 1 d U
H6A H 0.6916 0.7228 0.3705 0.047 Uiso 1 1 calc R
H6B H 0.6164 0.9253 0.3291 0.047 Uiso 1 1 calc R
C7 C 0.3026(2) 0.74287(16) 0.12069(9) 0.0258(2) Uani 1 1 d U
loop_
_atom_site_aniso_label
_atom_site_aniso_U_11
_atom_site_aniso_U_22
_atom_site_aniso_U_33
_atom_site_aniso_U_23
_atom_site_aniso_U_13
_atom_site_aniso_U_12
N1 0.0377(5) 0.0259(4) 0.0267(4) 0.0083(3) 0.0123(4) 0.0164(4)
O2 0.0634(6) 0.0419(5) 0.0473(5) 0.0200(4) 0.0279(5) 0.0384(5)
O3 0.0411(5) 0.0437(5) 0.0286(4) 0.0110(3) 0.0116(3) 0.0222(4)
C1 0.0218(5) 0.0298(5) 0.0276(5) 0.0076(4) 0.0101(4) 0.0110(4)
C2 0.0275(5) 0.0283(4) 0.0221(4) 0.0089(3) 0.0087(4) 0.0160(4)
C3 0.0313(6) 0.0342(5) 0.0311(5) 0.0094(4) 0.0155(4) 0.0103(4)
C4 0.0466(7) 0.0522(7) 0.0294(5) 0.0120(5) 0.0210(5) 0.0178(6)
C5 0.0462(7) 0.0496(7) 0.0287(5) 0.0018(5) 0.0148(5) 0.0187(6)
C6 0.0320(6) 0.0422(6) 0.0310(5) 0.0014(5) 0.0063(5) 0.0099(5)
C7 0.0272(5) 0.0222(4) 0.0325(5) 0.0105(4) 0.0126(4) 0.0096(4)
loop_
_atom_type_symbol
_atom_type_description
_atom_type_scat_dispersion_real
_atom_type_scat_dispersion_imag
_atom_type_scat_source
C C 0.0033 0.0016 'International Tables Vol C Tables 4.2.6.8 and 6.1.1.4'
H H 0.0000 0.0000 'International Tables Vol C Tables 4.2.6.8 and 6.1.1.4'
N N 0.0061 0.0033 'International Tables Vol C Tables 4.2.6.8 and 6.1.1.4'
O O 0.0106 0.0060 'International Tables Vol C Tables 4.2.6.8 and 6.1.1.4'
loop_
_geom_angle_atom_site_label_1
_geom_angle_atom_site_label_2
_geom_angle_atom_site_label_3
_geom_angle
C2 N1 H1A 109.5
C2 N1 H1B 109.5
H1A N1 H1B 109.5
C2 N1 H1C 109.5
H1A N1 H1C 109.5
H1B N1 H1C 109.5
C2 C1 C6 108.63(8)
C2 C1 C7 111.50(8)
C6 C1 C7 114.60(9)
C2 C1 H1 107.3
C6 C1 H1 107.3
C7 C1 H1 107.3
N1 C2 C3 108.82(9)
N1 C2 C1 113.12(8)
C3 C2 C1 112.45(8)
N1 C2 H2 107.4
C3 C2 H2 107.4
C1 C2 H2 107.4
C2 C3 C4 110.50(10)
C2 C3 H3A 109.6
C4 C3 H3A 109.6
C2 C3 H3B 109.6
C4 C3 H3B 109.6
H3A C3 H3B 108.1
C5 C4 C3 110.82(9)
C5 C4 H4A 109.5
C3 C4 H4A 109.5
C5 C4 H4B 109.5
C3 C4 H4B 109.5
H4A C4 H4B 108.1
C4 C5 C6 111.62(10)
C4 C5 H5A 109.3
C6 C5 H5A 109.3
C4 C5 H5B 109.3
C6 C5 H5B 109.3
H5A C5 H5B 108.0
C5 C6 C1 114.09(10)
C5 C6 H6A 108.7
C1 C6 H6A 108.7
C5 C6 H6B 108.7
C1 C6 H6B 108.7
H6A C6 H6B 107.6
O2 C7 O3 123.37(10)
O2 C7 C1 119.57(9)
O3 C7 C1 117.05(9)
loop_
_geom_bond_atom_site_label_1
_geom_bond_atom_site_label_2
_geom_bond_distance
N1 C2 1.4912(13)
N1 H1A 0.8900
N1 H1B 0.8900
N1 H1C 0.8900
O2 C7 1.2532(13)
O3 C7 1.2559(13)
C1 C2 1.5335(14)
C1 C6 1.5349(15)
C1 C7 1.5353(14)
C1 H1 0.9800
C2 C3 1.5158(14)
C2 H2 0.9800
C3 C4 1.5239(16)
C3 H3A 0.9700
C3 H3B 0.9700
C4 C5 1.5191(18)
C4 H4A 0.9700
C4 H4B 0.9700
C5 C6 1.5283(18)
C5 H5A 0.9700
C5 H5B 0.9700
C6 H6A 0.9700
C6 H6B 0.9700
loop_
_geom_hbond_atom_site_label_D
_geom_hbond_atom_site_label_H
_geom_hbond_atom_site_label_A
_geom_hbond_distance_DH
_geom_hbond_distance_HA
_geom_hbond_distance_DA
_geom_hbond_angle_DHA
_geom_hbond_site_symmetry_A
N1 H1A O2 0.89 1.89 2.7316(12) 157.0 1_545
N1 H1B O3 0.89 1.95 2.8167(13) 162.8 2_665
N1 H1C O2 0.89 2.54 3.1893(14) 130.8 2_565
N1 H1C O3 0.89 2.11 2.9721(14) 164.2 2_565
loop_
_geom_torsion_atom_site_label_1
_geom_torsion_atom_site_label_2
_geom_torsion_atom_site_label_3
_geom_torsion_atom_site_label_4
_geom_torsion
C6 C1 C2 N1 179.09(9)
C7 C1 C2 N1 51.87(11)
C6 C1 C2 C3 55.32(11)
C7 C1 C2 C3 -71.90(10)
N1 C2 C3 C4 174.65(9)
C1 C2 C3 C4 -59.22(12)
C2 C3 C4 C5 57.17(14)
C3 C4 C5 C6 -53.66(15)
C4 C5 C6 C1 52.55(14)
C2 C1 C6 C5 -52.04(13)
C7 C1 C6 C5 73.39(13)
C2 C1 C7 O2 106.54(11)
C6 C1 C7 O2 -17.37(14)
C2 C1 C7 O3 -72.33(12)
C6 C1 C7 O3 163.76(9)
