#------------------------------------------------------------------------------
#$Date: 2017-10-13 14:42:48 +0300 (Fri, 13 Oct 2017) $
#$Revision: 201982 $
#$URL: file:///home/coder/svn-repositories/cod/cif/4/50/53/4505328.cif $
#------------------------------------------------------------------------------
#
# This file is available in the Crystallography Open Database (COD),
# http://www.crystallography.net/
#
# All data on this site have been placed in the public domain by the
# contributors.
#
data_4505328
loop_
_publ_author_name
'Lewis, Thomas C.'
'Tocher, Derek A.'
'Price, Sarah L.'
_publ_section_title
;
 An Experimental and Theoretical Search for Polymorphs of Barbituric
 Acid:&#x2009; The Challenges of Even Limited Conformational Flexibility
;
_journal_issue                   5
_journal_name_full               'Crystal Growth &amp; Design'
_journal_page_first              979
_journal_paper_doi               10.1021/cg034209a
_journal_volume                  4
_journal_year                    2004
_chemical_formula_sum            'C7 H8 N2 O3'
_chemical_formula_weight         168.15
_chemical_name_systematic
;
 ?
;
_space_group_IT_number           14
_symmetry_cell_setting           monoclinic
_symmetry_space_group_name_Hall  '-P 2ybc'
_symmetry_space_group_name_H-M   'P 1 21/c 1'
_atom_sites_solution_hydrogens   geom
_atom_sites_solution_primary     direct
_atom_sites_solution_secondary   difmap
_audit_creation_method           SHELXL-97
_cell_angle_alpha                90.00
_cell_angle_beta                 107.038(3)
_cell_angle_gamma                90.00
_cell_formula_units_Z            4
_cell_length_a                   8.0309(14)
_cell_length_b                   11.980(2)
_cell_length_c                   7.8139(13)
_cell_measurement_temperature    150(2)
_cell_volume                     718.8(2)
_computing_cell_refinement       'Bruker SAINT'
_computing_data_collection       'Bruker SMART'
_computing_data_reduction        'Bruker SAINT'
_computing_structure_refinement  'SHELXL-97 (Sheldrick, 1997)'
_computing_structure_solution    'SHELXS-97 (Sheldrick, 1990)'
_diffrn_ambient_temperature      150(2)
_diffrn_measured_fraction_theta_full 0.992
_diffrn_measured_fraction_theta_max 0.956
_diffrn_measurement_device_type  'Bruker SMART APEX diffractometer'
_diffrn_measurement_method       '\w rotation with narrow frames'
_diffrn_radiation_monochromator  graphite
_diffrn_radiation_source         'fine-focus sealed tube'
_diffrn_radiation_type           MoK\a
_diffrn_radiation_wavelength     0.71073
_diffrn_reflns_av_R_equivalents  0.0307
_diffrn_reflns_av_sigmaI/netI    0.0319
_diffrn_reflns_limit_h_max       10
_diffrn_reflns_limit_h_min       -10
_diffrn_reflns_limit_k_max       15
_diffrn_reflns_limit_k_min       -15
_diffrn_reflns_limit_l_max       10
_diffrn_reflns_limit_l_min       -10
_diffrn_reflns_number            6043
_diffrn_reflns_theta_full        26.00
_diffrn_reflns_theta_max         28.23
_diffrn_reflns_theta_min         2.65
_diffrn_standards_number         0
_exptl_absorpt_coefficient_mu    0.124
_exptl_absorpt_correction_T_max  0.9951
_exptl_absorpt_correction_T_min  0.9534
_exptl_absorpt_correction_type   multi-scan
_exptl_crystal_colour            colourless
_exptl_crystal_density_diffrn    1.554
_exptl_crystal_density_method    'not measured'
_exptl_crystal_description       plate
_exptl_crystal_F_000             352
_exptl_crystal_size_max          0.39
_exptl_crystal_size_mid          0.16
_exptl_crystal_size_min          0.04
_refine_diff_density_max         0.357
_refine_diff_density_min         -0.266
_refine_diff_density_rms         0.064
_refine_ls_extinction_method     none
_refine_ls_goodness_of_fit_ref   1.080
_refine_ls_hydrogen_treatment    mixed
_refine_ls_matrix_type           full
_refine_ls_number_parameters     141
_refine_ls_number_reflns         1700
_refine_ls_number_restraints     0
_refine_ls_restrained_S_all      1.080
_refine_ls_R_factor_all          0.0826
_refine_ls_R_factor_gt           0.0651
_refine_ls_shift/su_max          0.000
_refine_ls_shift/su_mean         0.000
_refine_ls_structure_factor_coef Fsqd
_refine_ls_weighting_details
'calc w=1/[\s^2^(Fo^2^)+(0.0469P)^2^+0.9822P] where P=(Fo^2^+2Fc^2^)/3'
_refine_ls_weighting_scheme      calc
_refine_ls_wR_factor_gt          0.1379
_refine_ls_wR_factor_ref         0.1470
_reflns_number_gt                1363
_reflns_number_total             1700
_reflns_threshold_expression     I>2\s(I)
_cod_data_source_file            cg034209asi20031107_055124.cif
_cod_data_source_block           5-isopropylidene-barbituricacid
_cod_original_sg_symbol_H-M      P2(1)/c
_cod_database_code               4505328
loop_
_symmetry_equiv_pos_as_xyz
'x, y, z'
'-x, y+1/2, -z+1/2'
'-x, -y, -z'
'x, -y-1/2, z-1/2'
loop_
_atom_site_label
_atom_site_type_symbol
_atom_site_fract_x
_atom_site_fract_y
_atom_site_fract_z
_atom_site_U_iso_or_equiv
_atom_site_adp_type
_atom_site_occupancy
_atom_site_symmetry_multiplicity
_atom_site_calc_flag
O2 O -0.2107(2) 0.62837(14) 0.0066(2) 0.0295(5) Uani 1 1 d
O4 O 0.1735(2) 0.82786(12) 0.4288(2) 0.0218(4) Uani 1 1 d
O6 O 0.1624(2) 0.42965(12) 0.4385(2) 0.0222(4) Uani 1 1 d
N1 N -0.0120(2) 0.53230(16) 0.2203(3) 0.0166(4) Uani 1 1 d
N3 N -0.0198(3) 0.72507(16) 0.2283(3) 0.0179(4) Uani 1 1 d
C2 C -0.0893(3) 0.62836(18) 0.1416(3) 0.0178(5) Uani 1 1 d
C4 C 0.1233(3) 0.73401(17) 0.3737(3) 0.0149(4) Uani 1 1 d
C5 C 0.2059(3) 0.62870(17) 0.4570(3) 0.0149(4) Uani 1 1 d
C6 C 0.1207(3) 0.52330(17) 0.3770(3) 0.0150(5) Uani 1 1 d
C7 C 0.3550(3) 0.62947(18) 0.5991(3) 0.0174(5) Uani 1 1 d
C8 C 0.4361(3) 0.5271(2) 0.6996(4) 0.0239(6) Uani 1 1 d
C9 C 0.4552(3) 0.7337(2) 0.6690(4) 0.0218(5) Uani 1 1 d
H1 H -0.056(4) 0.467(3) 0.177(4) 0.031(8) Uiso 1 1 d
H3 H -0.067(3) 0.783(2) 0.179(4) 0.023(7) Uiso 1 1 d
H4 H 0.387(4) 0.788(3) 0.707(4) 0.050(10) Uiso 1 1 d
H5 H 0.495(4) 0.769(3) 0.579(5) 0.050(10) Uiso 1 1 d
H6 H 0.547(5) 0.715(3) 0.768(5) 0.063(11) Uiso 1 1 d
H7 H 0.396(5) 0.522(3) 0.803(6) 0.075(13) Uiso 1 1 d
H8 H 0.556(4) 0.535(3) 0.744(4) 0.035(8) Uiso 1 1 d
H9 H 0.413(5) 0.459(3) 0.634(5) 0.062(11) Uiso 1 1 d
loop_
_atom_site_aniso_label
_atom_site_aniso_U_11
_atom_site_aniso_U_22
_atom_site_aniso_U_33
_atom_site_aniso_U_23
_atom_site_aniso_U_13
_atom_site_aniso_U_12
O2 0.0329(10) 0.0176(8) 0.0263(10) 0.0010(7) -0.0096(8) 0.0008(8)
O4 0.0249(9) 0.0087(7) 0.0250(9) -0.0002(6) -0.0031(7) -0.0004(6)
O6 0.0275(9) 0.0085(7) 0.0241(9) 0.0018(6) -0.0028(7) -0.0009(6)
N1 0.0194(9) 0.0092(9) 0.0174(9) -0.0006(7) -0.0007(8) 0.0003(7)
N3 0.0215(10) 0.0080(9) 0.0186(10) 0.0013(7) -0.0029(8) 0.0032(7)
C2 0.0197(11) 0.0122(10) 0.0182(11) 0.0000(9) 0.0006(9) 0.0008(9)
C4 0.0203(10) 0.0088(9) 0.0145(10) 0.0002(8) 0.0035(8) 0.0000(8)
C5 0.0178(10) 0.0096(9) 0.0159(10) 0.0025(9) 0.0028(8) 0.0006(9)
C6 0.0162(10) 0.0106(10) 0.0177(10) -0.0015(8) 0.0041(9) 0.0000(8)
C7 0.0211(11) 0.0122(10) 0.0193(11) -0.0001(9) 0.0065(9) 0.0007(9)
C8 0.0228(13) 0.0159(11) 0.0256(13) 0.0029(10) -0.0042(10) 0.0024(10)
C9 0.0232(12) 0.0156(11) 0.0220(12) -0.0018(10) -0.0006(10) -0.0025(10)
loop_
_atom_type_symbol
_atom_type_description
_atom_type_scat_dispersion_real
_atom_type_scat_dispersion_imag
_atom_type_scat_source
C C 0.0033 0.0016 'International Tables Vol C Tables 4.2.6.8 and 6.1.1.4'
H H 0.0000 0.0000 'International Tables Vol C Tables 4.2.6.8 and 6.1.1.4'
N N 0.0061 0.0033 'International Tables Vol C Tables 4.2.6.8 and 6.1.1.4'
O O 0.0106 0.0060 'International Tables Vol C Tables 4.2.6.8 and 6.1.1.4'
loop_
_geom_angle_atom_site_label_1
_geom_angle_atom_site_label_2
_geom_angle_atom_site_label_3
_geom_angle
C2 N1 C6 126.85(19)
C4 N3 C2 126.72(19)
O2 C2 N1 122.5(2)
O2 C2 N3 122.5(2)
N1 C2 N3 115.06(19)
O4 C4 N3 118.28(19)
O4 C4 C5 124.44(19)
N3 C4 C5 117.26(18)
C7 C5 C4 121.37(19)
C7 C5 C6 122.07(19)
C4 C5 C6 116.55(18)
O6 C6 N1 118.19(19)
O6 C6 C5 125.0(2)
N1 C6 C5 116.78(19)
C5 C7 C8 124.1(2)
C5 C7 C9 123.2(2)
C8 C7 C9 112.7(2)
loop_
_geom_bond_atom_site_label_1
_geom_bond_atom_site_label_2
_geom_bond_distance
O2 C2 1.209(3)
O4 C4 1.229(3)
O6 C6 1.228(3)
N1 C2 1.365(3)
N1 C6 1.372(3)
N3 C4 1.363(3)
N3 C2 1.375(3)
C4 C5 1.484(3)
C5 C7 1.374(3)
C5 C6 1.484(3)
C7 C8 1.498(3)
C7 C9 1.499(3)
loop_
_geom_hbond_atom_site_label_D
_geom_hbond_atom_site_label_H
_geom_hbond_atom_site_label_A
_geom_hbond_distance_DH
_geom_hbond_distance_HA
_geom_hbond_distance_DA
_geom_hbond_angle_DHA
_geom_hbond_site_symmetry_A
N1 H1 O4 0.88(3) 1.98(3) 2.855(2) 175(3) 2_545
N3 H3 O6 0.83(3) 2.03(3) 2.853(2) 175(3) 2
loop_
_geom_torsion_atom_site_label_1
_geom_torsion_atom_site_label_2
_geom_torsion_atom_site_label_3
_geom_torsion_atom_site_label_4
_geom_torsion
C6 N1 C2 O2 -176.9(2)
C6 N1 C2 N3 2.5(3)
C4 N3 C2 O2 -175.4(2)
C4 N3 C2 N1 5.2(3)
C2 N3 C4 O4 176.1(2)
C2 N3 C4 C5 -5.1(3)
O4 C4 C5 C7 -4.1(3)
N3 C4 C5 C7 177.1(2)
O4 C4 C5 C6 176.8(2)
N3 C4 C5 C6 -2.0(3)
C2 N1 C6 O6 172.3(2)
C2 N1 C6 C5 -9.1(3)
C7 C5 C6 O6 7.7(3)
C4 C5 C6 O6 -173.2(2)
C7 C5 C6 N1 -170.8(2)
C4 C5 C6 N1 8.3(3)
C4 C5 C7 C8 174.3(2)
C6 C5 C7 C8 -6.6(4)
C4 C5 C7 C9 -6.3(3)
C6 C5 C7 C9 172.7(2)
loop_
_cod_related_entry_id
_cod_related_entry_database
_cod_related_entry_code
1 ChemSpider 30661502
