#------------------------------------------------------------------------------
#$Date: 2016-03-24 02:36:29 +0200 (Thu, 24 Mar 2016) $
#$Revision: 179588 $
#$URL: svn://www.crystallography.net/cod/cif/4/50/53/4505309.cif $
#------------------------------------------------------------------------------
#
# This file is available in the Crystallography Open Database (COD),
# http://www.crystallography.net/
#
# All data on this site have been placed in the public domain by the
# contributors.
#
data_4505309
loop_
_publ_author_name
'Brewer, Jason T.'
'Parkin, Sean'
'Grossman, Robert B.'
_publ_section_title
;
 A Systematic Study of the Relationship between Molecular and Crystal
 Structure among 3,5-Diazabicyclo[2.2.2]octane-2,6-diones
;
_journal_issue                   3
_journal_name_full               'Crystal Growth &amp; Design'
_journal_page_first              591
_journal_paper_doi               10.1021/cg0341609
_journal_volume                  4
_journal_year                    2004
_chemical_formula_sum            'C9 H14 N2 O2'
_chemical_formula_weight         182.22
_chemical_name_systematic
; 
 ? 
;
_space_group_IT_number           2
_symmetry_cell_setting           triclinic
_symmetry_space_group_name_Hall  '-P 1'
_symmetry_space_group_name_H-M   'P -1'
_atom_sites_solution_hydrogens   geom
_atom_sites_solution_primary     direct
_atom_sites_solution_secondary   difmap
_audit_creation_method           SHELXL-97
_cell_angle_alpha                79.224(3)
_cell_angle_beta                 89.598(3)
_cell_angle_gamma                81.603(3)
_cell_formula_units_Z            2
_cell_length_a                   5.7692(3)
_cell_length_b                   7.9733(4)
_cell_length_c                   10.1316(5)
_cell_measurement_reflns_used    5494
_cell_measurement_temperature    90.0(2)
_cell_measurement_theta_max      27.48
_cell_measurement_theta_min      1.00
_cell_volume                     452.82(4)
_computing_cell_refinement       'SCALEPACK (Otwinowski & Minor, 1997)'
_computing_data_collection       'COLLECT (Nonius, 1998)'
_computing_data_reduction        'DENZO-SMN (Otwinowski & Minor, 1997)'
_computing_molecular_graphics    'XP in Siemens SHELXTL (Sheldrick, 1994)'
_computing_publication_material
;
SHELX97-2 (Sheldrick, 1997) and local procedures
;
_computing_structure_refinement  'SHELXL-97 (Sheldrick, 1997)'
_computing_structure_solution    'SHELXS-97 (Sheldrick, 1990)'
_diffrn_ambient_temperature      90.0(2)
_diffrn_detector_area_resol_mean 18
_diffrn_measured_fraction_theta_full .996
_diffrn_measured_fraction_theta_max .996
_diffrn_measurement_device_type  'Nonius KappaCCD diffractometer'
_diffrn_measurement_method       '\w scans at fixed \c = 55\%'
_diffrn_radiation_monochromator  graphite
_diffrn_radiation_source         'fine-focus sealed tube'
_diffrn_radiation_type           MoK\a
_diffrn_radiation_wavelength     0.71073
_diffrn_reflns_av_R_equivalents  0.0464
_diffrn_reflns_av_sigmaI/netI    0.0771
_diffrn_reflns_limit_h_max       7
_diffrn_reflns_limit_h_min       -7
_diffrn_reflns_limit_k_max       10
_diffrn_reflns_limit_k_min       -10
_diffrn_reflns_limit_l_max       13
_diffrn_reflns_limit_l_min       -13
_diffrn_reflns_number            4095
_diffrn_reflns_theta_full        27.47
_diffrn_reflns_theta_max         27.47
_diffrn_reflns_theta_min         2.05
_diffrn_standards_decay_%        <1
_exptl_absorpt_coefficient_mu    0.096
_exptl_absorpt_correction_type   none
_exptl_crystal_colour            colourless
_exptl_crystal_density_diffrn    1.336
_exptl_crystal_density_method    'not measured'
_exptl_crystal_description       block
_exptl_crystal_F_000             196
_exptl_crystal_size_max          0.40
_exptl_crystal_size_mid          0.20
_exptl_crystal_size_min          0.10
_refine_diff_density_max         .282
_refine_diff_density_min         -.282
_refine_diff_density_rms         .053
_refine_ls_extinction_coef       0.024(6)
_refine_ls_extinction_expression Fc^*^=kFc[1+0.001xFc^2^\l^3^/sin(2\q)]^-1/4^
_refine_ls_extinction_method     SHELXL
_refine_ls_goodness_of_fit_ref   1.032
_refine_ls_hydrogen_treatment    mixed
_refine_ls_matrix_type           full
_refine_ls_number_parameters     121
_refine_ls_number_reflns         2066
_refine_ls_number_restraints     0
_refine_ls_restrained_S_all      1.032
_refine_ls_R_factor_all          0.0835
_refine_ls_R_factor_gt           0.0511
_refine_ls_shift/su_max          0.000
_refine_ls_shift/su_mean         0.000
_refine_ls_structure_factor_coef Fsqd
_refine_ls_weighting_details
'calc w=1/[\s^2^(Fo^2^)+(0.0394P)^2^+0.1048P] where P=(Fo^2^+2Fc^2^)/3'
_refine_ls_weighting_scheme      calc
_refine_ls_wR_factor_gt          0.1004
_refine_ls_wR_factor_ref         0.1103
_reflns_number_gt                1486
_reflns_number_total             2066
_reflns_threshold_expression     >2sigma(I)
_cod_data_source_file            cg0341609si20030822_115801.cif
_cod_data_source_block           2a
_cod_database_code               4505309
loop_
_symmetry_equiv_pos_as_xyz
'x, y, z'
'-x, -y, -z'
loop_
_atom_site_label
_atom_site_type_symbol
_atom_site_fract_x
_atom_site_fract_y
_atom_site_fract_z
_atom_site_U_iso_or_equiv
_atom_site_adp_type
_atom_site_occupancy
_atom_site_symmetry_multiplicity
_atom_site_calc_flag
_atom_site_refinement_flags
C1 C 0.4177(3) 0.8694(2) 0.26793(15) 0.0128(4) Uani 1 1 d .
O2 O 0.2203(2) 0.82168(14) 0.48401(11) 0.0169(3) Uani 1 1 d .
C2 C 0.2602(3) 0.9222(2) 0.38094(16) 0.0138(4) Uani 1 1 d .
N3 N 0.1688(2) 1.09002(16) 0.35130(13) 0.0139(3) Uani 1 1 d .
H3 H 0.0821 1.1405 0.4086 0.017 Uiso 1 1 calc R
C4 C 0.2210(3) 1.1851(2) 0.21844(16) 0.0144(4) Uani 1 1 d .
N5 N 0.1650(2) 1.08397(16) 0.11862(13) 0.0150(4) Uani 1 1 d .
H5 H 0.0774 1.1310 0.0467 0.018 Uiso 1 1 calc R
O6 O 0.2114(2) 0.80999(14) 0.07545(11) 0.0187(3) Uani 1 1 d .
C6 C 0.2551(3) 0.9159(2) 0.14333(16) 0.0141(4) Uani 1 1 d .
C7 C 0.6054(3) 0.9941(2) 0.24493(17) 0.0169(4) Uani 1 1 d .
H7A H 0.7082 0.9740 0.3259 0.020 Uiso 1 1 calc R
H7B H 0.7042 0.9700 0.1684 0.020 Uiso 1 1 calc R
C8 C 0.4873(3) 1.1836(2) 0.21554(16) 0.0159(4) Uani 1 1 d .
H8A H 0.5364 1.2456 0.2842 0.019 Uiso 1 1 calc R
H8B H 0.5334 1.2419 0.1263 0.019 Uiso 1 1 calc R
C9 C 0.5221(3) 0.6789(2) 0.29589(16) 0.0159(4) Uani 1 1 d .
H9A H 0.5894 0.6484 0.2119 0.019 Uiso 1 1 calc R
H9B H 0.3943 0.6095 0.3214 0.019 Uiso 1 1 calc R
C10 C 0.7120(3) 0.6287(2) 0.40619(17) 0.0203(4) Uani 1 1 d .
H10A H 0.8538(14) 0.6801(5) 0.3745(3) 0.030 Uiso 1 1 calc R
H10B H 0.7519(5) 0.5012(13) 0.4281(3) 0.030 Uiso 1 1 calc R
H10C H 0.6536(6) 0.6723(5) 0.4877(8) 0.030 Uiso 1 1 calc R
C11 C 0.0803(3) 1.3635(2) 0.19061(17) 0.0186(4) Uani 1 1 d .
H11A H 0.1241(5) 1.4265(7) 0.1032(9) 0.028 Uiso 1 1 calc R
H11B H 0.1129(4) 1.4261(7) 0.2618(7) 0.028 Uiso 1 1 calc R
H11C H -0.0878(17) 1.3542(2) 0.18867(17) 0.028 Uiso 1 1 calc R
loop_
_atom_site_aniso_label
_atom_site_aniso_U_11
_atom_site_aniso_U_22
_atom_site_aniso_U_33
_atom_site_aniso_U_23
_atom_site_aniso_U_13
_atom_site_aniso_U_12
C1 0.0128(9) 0.0146(9) 0.0123(9) -0.0045(7) -0.0004(7) -0.0031(7)
O2 0.0177(7) 0.0179(6) 0.0144(6) -0.0009(5) 0.0020(5) -0.0029(5)
C2 0.0114(9) 0.0182(9) 0.0135(9) -0.0046(7) -0.0020(7) -0.0057(7)
N3 0.0169(8) 0.0144(8) 0.0120(7) -0.0058(6) 0.0034(6) -0.0033(6)
C4 0.0157(9) 0.0167(9) 0.0117(9) -0.0033(7) -0.0009(7) -0.0040(7)
N5 0.0186(8) 0.0160(8) 0.0111(7) -0.0033(6) -0.0032(6) -0.0038(6)
O6 0.0209(7) 0.0196(7) 0.0174(7) -0.0079(5) -0.0028(5) -0.0035(5)
C6 0.0117(9) 0.0186(9) 0.0130(9) -0.0039(7) 0.0031(7) -0.0047(7)
C7 0.0142(9) 0.0219(10) 0.0161(9) -0.0055(7) 0.0011(7) -0.0049(7)
C8 0.0169(10) 0.0181(9) 0.0137(9) -0.0033(7) 0.0015(7) -0.0059(7)
C9 0.0166(10) 0.0180(9) 0.0144(9) -0.0061(7) 0.0009(7) -0.0024(7)
C10 0.0197(10) 0.0192(10) 0.0212(10) -0.0039(8) -0.0020(8) -0.0008(8)
C11 0.0197(10) 0.0175(10) 0.0196(9) -0.0042(8) -0.0003(8) -0.0049(8)
loop_
_atom_type_symbol
_atom_type_description
_atom_type_scat_dispersion_real
_atom_type_scat_dispersion_imag
_atom_type_scat_source
C C .0033 .0016 'International Tables Vol C Tables 4.2.6.8 and 6.1.1.4'
H H .0000 .0000 'International Tables Vol C Tables 4.2.6.8 and 6.1.1.4'
N N .0061 .0033 'International Tables Vol C Tables 4.2.6.8 and 6.1.1.4'
O O .0106 .0060 'International Tables Vol C Tables 4.2.6.8 and 6.1.1.4'
loop_
_geom_angle_atom_site_label_1
_geom_angle_atom_site_label_2
_geom_angle_atom_site_label_3
_geom_angle
C9 C1 C6 111.95(13)
C9 C1 C2 113.18(13)
C6 C1 C2 103.81(13)
C9 C1 C7 113.69(13)
C6 C1 C7 106.74(13)
C2 C1 C7 106.76(13)
O2 C2 N3 124.76(15)
O2 C2 C1 123.99(14)
N3 C2 C1 111.23(14)
C2 N3 C4 116.68(13)
C2 N3 H3 121.7
C4 N3 H3 121.7
N3 C4 N5 107.29(12)
N3 C4 C11 111.04(13)
N5 C4 C11 110.89(13)
N3 C4 C8 106.67(13)
N5 C4 C8 106.51(13)
C11 C4 C8 114.07(14)
C6 N5 C4 116.25(13)
C6 N5 H5 121.9
C4 N5 H5 121.9
O6 C6 N5 124.62(15)
O6 C6 C1 123.68(14)
N5 C6 C1 111.70(13)
C8 C7 C1 110.73(13)
C8 C7 H7A 109.5
C1 C7 H7A 109.5
C8 C7 H7B 109.5
C1 C7 H7B 109.5
H7A C7 H7B 108.1
C4 C8 C7 107.91(13)
C4 C8 H8A 110.1
C7 C8 H8A 110.1
C4 C8 H8B 110.1
C7 C8 H8B 110.1
H8A C8 H8B 108.4
C1 C9 C10 114.75(13)
C1 C9 H9A 108.6
C10 C9 H9A 108.6
C1 C9 H9B 108.6
C10 C9 H9B 108.6
H9A C9 H9B 107.6
C9 C10 H10A 109.5
C9 C10 H10B 109.5
H10A C10 H10B 109.5
C9 C10 H10C 109.5
H10A C10 H10C 109.5
H10B C10 H10C 109.5
C4 C11 H11A 109.5
C4 C11 H11B 109.5
H11A C11 H11B 109.5
C4 C11 H11C 109.5
H11A C11 H11C 109.5
H11B C11 H11C 109.5
loop_
_geom_bond_atom_site_label_1
_geom_bond_atom_site_label_2
_geom_bond_distance
C1 C9 1.524(2)
C1 C6 1.533(2)
C1 C2 1.539(2)
C1 C7 1.562(2)
O2 C2 1.2340(19)
C2 N3 1.343(2)
N3 C4 1.469(2)
N3 H3 0.8800
C4 N5 1.471(2)
C4 C11 1.509(2)
C4 C8 1.535(2)
N5 C6 1.342(2)
N5 H5 0.8800
O6 C6 1.2373(18)
C7 C8 1.540(2)
C7 H7A 0.9900
C7 H7B 0.9900
C8 H8A 0.9900
C8 H8B 0.9900
C9 C10 1.526(2)
C9 H9A 0.9900
C9 H9B 0.9900
C10 H10A 0.9924
C10 H10B 0.9924
C10 H10C 0.9924
C11 H11A 0.9839
C11 H11B 0.9839
C11 H11C 0.9839
loop_
_geom_torsion_atom_site_label_1
_geom_torsion_atom_site_label_2
_geom_torsion_atom_site_label_3
_geom_torsion_atom_site_label_4
_geom_torsion
C9 C1 C2 O2 -0.2(2)
C6 C1 C2 O2 121.37(16)
C7 C1 C2 O2 -126.06(16)
C9 C1 C2 N3 -178.97(13)
C6 C1 C2 N3 -57.36(16)
C7 C1 C2 N3 55.20(17)
O2 C2 N3 C4 -174.86(15)
C1 C2 N3 C4 3.86(19)
C2 N3 C4 N5 50.44(18)
C2 N3 C4 C11 171.77(13)
C2 N3 C4 C8 -63.38(17)
N3 C4 N5 C6 -49.82(18)
C11 C4 N5 C6 -171.24(14)
C8 C4 N5 C6 64.11(17)
C4 N5 C6 O6 174.37(15)
C4 N5 C6 C1 -4.88(19)
C9 C1 C6 O6 1.2(2)
C2 C1 C6 O6 -121.23(17)
C7 C1 C6 O6 126.19(16)
C9 C1 C6 N5 -179.54(13)
C2 C1 C6 N5 58.04(16)
C7 C1 C6 N5 -54.55(17)
C9 C1 C7 C8 179.26(13)
C6 C1 C7 C8 55.32(17)
C2 C1 C7 C8 -55.21(16)
N3 C4 C8 C7 57.24(15)
N5 C4 C8 C7 -57.12(15)
C11 C4 C8 C7 -179.79(13)
C1 C7 C8 C4 -0.21(17)
C6 C1 C9 C10 171.75(14)
C2 C1 C9 C10 -71.35(18)
C7 C1 C9 C10 50.69(19)
