#------------------------------------------------------------------------------
#$Date: 2016-03-24 02:47:15 +0200 (Thu, 24 Mar 2016) $
#$Revision: 179596 $
#$URL: svn://www.crystallography.net/cod/cif/4/50/60/4506052.cif $
#------------------------------------------------------------------------------
#
# This file is available in the Crystallography Open Database (COD),
# http://www.crystallography.net/
#
# All data on this site have been placed in the public domain by the
# contributors.
#
data_4506052
loop_
_publ_author_name
'Jarzembska, Katarzyna N.'
'Kubsik, Marcin'
'Kami\'nski, Rados\/law'
'Wo\'zniak, Krzysztof'
'Dominiak, Paulina M.'
_publ_section_title
;
 From a Single Molecule to Molecular Crystal Architectures: Structural and
 Energetic Studies of Selected Uracil Derivatives
;
_journal_issue                   5
_journal_name_full               'Crystal Growth &amp; Design'
_journal_page_first              2508
_journal_paper_doi               10.1021/cg300129z
_journal_volume                  12
_journal_year                    2012
_chemical_formula_moiety         'C4 H4 N2 S2'
_chemical_formula_sum            'C4 H4 N2 S2'
_chemical_formula_weight         144.21
_space_group_IT_number           14
_symmetry_cell_setting           monoclinic
_symmetry_Int_Tables_number      14
_symmetry_space_group_name_Hall  '-P 2ybc'
_symmetry_space_group_name_H-M   'P 1 21/c 1'
_cell_angle_alpha                90.00
_cell_angle_beta                 99.772(5)
_cell_angle_gamma                90.00
_cell_formula_units_Z            4
_cell_length_a                   4.1926(4)
_cell_length_b                   14.5355(11)
_cell_length_c                   9.7860(9)
_cell_measurement_temperature    100(1)
_cell_volume                     587.72(9)
_diffrn_ambient_temperature      100(1)
_diffrn_measured_fraction_theta_full 1.000
_diffrn_measured_fraction_theta_max 0.970
_diffrn_measurement_device
'Bruker AXS Kappa APEX II Ultra diffractometer'
_diffrn_measurement_device_type  'APEX II CCD detector'
_diffrn_measurement_method       \w-scans
_diffrn_radiation_monochromator  'Helios multi-layer optics'
_diffrn_radiation_source         'TXS rotating anode'
_diffrn_radiation_type           'Mo K\a'
_diffrn_radiation_wavelength     0.71073
_diffrn_reflns_av_R_equivalents  0.0514
_diffrn_reflns_av_sigmaI/netI    0.0380
_diffrn_reflns_limit_h_max       5
_diffrn_reflns_limit_h_min       -5
_diffrn_reflns_limit_k_max       20
_diffrn_reflns_limit_k_min       0
_diffrn_reflns_limit_l_max       13
_diffrn_reflns_limit_l_min       0
_diffrn_reflns_number            16082
_diffrn_reflns_theta_full        25.00
_diffrn_reflns_theta_max         29.64
_diffrn_reflns_theta_min         2.53
_exptl_absorpt_coefficient_mu    0.784
_exptl_absorpt_correction_T_max  0.9472
_exptl_absorpt_correction_T_min  0.8718
_exptl_absorpt_correction_type   multi-scan
_exptl_absorpt_process_details
;
 Absorption correction done by SORTAV
 Blessing, R. H.: (1995) Acta Cryst. A51, 33-38
;
_exptl_crystal_colour            orange
_exptl_crystal_density_diffrn    1.630
_exptl_crystal_description       unspecified
_exptl_crystal_F_000             296
_exptl_crystal_size_max          0.18
_exptl_crystal_size_mid          0.18
_exptl_crystal_size_min          0.07
_refine_diff_density_max         +0.35
_refine_diff_density_min         -0.35
_refine_ls_extinction_method     none
_refine_ls_goodness_of_fit_ref   1.214
_refine_ls_hydrogen_treatment    mixed
_refine_ls_number_constraints    0
_refine_ls_number_parameters     89
_refine_ls_number_reflns         1264
_refine_ls_number_restraints     8
_refine_ls_R_factor_all          0.0228
_refine_ls_R_factor_gt           0.0228
_refine_ls_shift/su_max          0.001
_refine_ls_shift/su_mean         0.000
_refine_ls_structure_factor_coef F
_refine_ls_weighting_details
;
w=1/[\s^2^(Fo)]
;
_refine_ls_weighting_scheme      sigma
_refine_ls_wR_factor_gt          0.0247
_refine_ls_wR_factor_ref         0.0247
_reflns_number_gt                1264
_reflns_number_total             1610
_reflns_threshold_expression     I>3\s(I)
_iucr_refine_instructions_details
;
TAAM refinement with MOPRO program
;
_cod_data_source_file            cg300129z_si_014.cif
_cod_data_source_block           24dtU
_cod_original_sg_symbol_H-M      'P 21/c'
_cod_database_code               4506052
loop_
_symmetry_equiv_pos_as_xyz
'x, y, z'
'-x, y+1/2, -z+1/2'
'-x, -y, -z'
'x, -y-1/2, z-1/2'
loop_
_atom_site_type_symbol
_atom_site_label
_atom_site_fract_x
_atom_site_fract_y
_atom_site_fract_z
_atom_site_U_iso_or_equiv
_atom_site_adp_type
_atom_site_occupancy
_atom_site_calc_flag
_atom_site_refinement_flags_posn
_atom_site_refinement_flags_adp
S S4 0.31794(8) 0.63602(2) 0.97486(3) 0.0215(1) Uani 1 d . .
S S2 0.88802(9) 0.41038(2) 0.67087(4) 0.0255(1) Uani 1 d . .
N N1 0.8164(3) 0.58934(8) 0.6177(1) 0.0239(4) Uani 1 d . .
H H1 0.933(2) 0.578(1) 0.5348(6) 0.0366(4) Uiso 1 d D U
N N3 0.6088(3) 0.53686(7) 0.8060(1) 0.0194(4) Uani 1 d . .
H H3 0.587(3) 0.4845(5) 0.8746(8) 0.0295(4) Uiso 1 d D U
C C2 0.7660(3) 0.51737(9) 0.6989(1) 0.0204(4) Uani 1 d . .
C C4 0.5039(3) 0.62251(9) 0.8382(1) 0.0193(4) Uani 1 d . .
C C6 0.7167(3) 0.67606(10) 0.6409(1) 0.0259(5) Uani 1 d . .
H H6 0.770(3) 0.7294(5) 0.5708(8) 0.0323(4) Uiso 1 d D U
C C5 0.5621(3) 0.69517(9) 0.7488(1) 0.0234(5) Uani 1 d . .
H H5 0.485(3) 0.7641(3) 0.769(1) 0.0287(3) Uiso 1 d D U
loop_
_atom_site_aniso_label
_atom_site_aniso_U_11
_atom_site_aniso_U_22
_atom_site_aniso_U_33
_atom_site_aniso_U_12
_atom_site_aniso_U_13
_atom_site_aniso_U_23
S4 0.0266(2) 0.0198(2) 0.0193(2) 0.00006(13) 0.0075(1) -0.0013(1)
S2 0.0309(2) 0.0210(2) 0.0278(2) 0.0007(1) 0.0145(1) -0.0008(1)
N1 0.0270(6) 0.0262(6) 0.0200(6) 0.0027(5) 0.0078(5) 0.0033(5)
N3 0.0219(5) 0.0188(5) 0.0184(6) -0.00035(43) 0.0057(4) -0.0007(4)
C2 0.0216(6) 0.0208(6) 0.0197(7) -0.00010(50) 0.0064(5) -0.00041(52)
C4 0.0223(6) 0.0182(6) 0.0179(6) 0.0008(5) 0.0052(5) -0.0006(5)
C6 0.0305(7) 0.0249(7) 0.0248(7) 0.0046(6) 0.0115(6) 0.0079(6)
C5 0.0292(7) 0.0183(6) 0.0241(7) 0.0039(5) 0.0089(6) 0.0044(5)
loop_
_atom_type_symbol
_atom_type_description
_atom_type_scat_dispersion_real
_atom_type_scat_dispersion_imag
_atom_type_scat_source
C C 0.0033 0.0016 'Su & Coppens, Acta. Cryst. (1997) A53, 749'
H H 0.0000 0.0000 'Su & Coppens, Acta. Cryst. (1997) A53, 749'
N N 0.0061 0.0033 'Su & Coppens, Acta. Cryst. (1997) A53, 749'
O O 0.0106 0.0060 'Su & Coppens, Acta. Cryst. (1997) A53, 749'
loop_
_geom_angle_atom_site_label_1
_geom_angle_atom_site_label_2
_geom_angle_atom_site_label_3
_geom_angle
S4 C4 N3 120.1(1)
S4 C4 C5 124.0(1)
S2 C2 N1 122.70(9)
S2 C2 N3 121.4(1)
N1 C2 N3 115.9(1)
N1 C6 C5 121.4(1)
N1 C6 H6 117.1(6)
H1 N1 C2 119.0(9)
H1 N1 C6 118.6(9)
N3 C4 C5 115.9(1)
H3 N3 C2 117.2(7)
H3 N3 C4 116.9(6)
C2 N1 C6 122.5(1)
C2 N3 C4 125.6(1)
C4 C5 C6 118.8(1)
C4 C5 H5 119.0(7)
C6 C5 H5 122.2(7)
H6 C6 C5 121.5(6)
loop_
_geom_bond_atom_site_label_1
_geom_bond_atom_site_label_2
_geom_bond_distance
S4 C4 1.670(1)
S2 C2 1.674(1)
N1 C2 1.351(2)
N1 C6 1.359(2)
N1 H1 1.030(1)
N3 C2 1.359(2)
N3 C4 1.375(2)
N3 H3 1.030(1)
C4 C5 1.419(2)
C6 C5 1.358(2)
C6 H6 1.083(1)
C5 H5 1.082(1)
loop_
_geom_hbond_atom_site_label_D
_geom_hbond_atom_site_label_H
_geom_hbond_atom_site_label_A
_geom_hbond_distance_DH
_geom_hbond_distance_HA
_geom_hbond_distance_DA
_geom_hbond_angle_DHA
_geom_hbond_site_symmetry_A
N3 H3 S4 1.030(1) 2.280(4) 3.284(1) 164.7(4) 3_667
N1 H1 S2 1.030(1) 2.269(4) 3.271(2) 163.8(4) 3_766
loop_
_refln_index_h
_refln_index_k
_refln_index_l
_refln_F_squared_calc
_refln_F_squared_meas
_refln_F_squared_sigma
_refln_observed_status
-5 0 6 377.77 423.83 22.98 o
-5 1 2 83.04 82.73 4.95 o
-5 1 3 233.92 239.86 12.76 o
-5 1 4 17.31 11.75 3.45 o
-5 1 5 115.01 116.40 8.59 o
-5 1 6 121.04 129.79 11.70 o
-5 1 8 170.28 184.13 13.91 o
-5 2 3 292.95 290.35 11.08 o
-5 2 5 149.00 161.81 8.13 o
-5 2 6 34.40 37.57 4.42 o
-5 2 7 22.88 18.19 4.35 o
-5 3 1 42.77 40.64 4.57 o
-5 3 2 277.82 280.49 12.78 o
-5 3 3 31.60 29.87 4.00 o
-5 3 4 26.89 24.84 3.78 o
-5 3 6 93.14 92.60 5.85 o
-5 3 8 95.42 113.34 13.62 o
-5 4 1 207.10 215.12 10.96 o
-5 4 2 38.91 34.89 4.69 o
-5 4 4 52.45 57.43 5.07 o
-5 4 6 101.17 111.53 6.55 o
-5 4 7 105.13 109.74 8.22 o
-5 4 8 136.18 130.68 13.76 o
-5 5 1 154.44 161.30 8.76 o
-5 5 2 44.24 41.58 4.61 o
-5 5 3 22.02 20.38 4.27 o
-5 5 4 82.71 77.05 5.60 o
-5 5 5 86.10 95.82 6.63 o
-5 5 6 155.81 158.50 7.90 o
-5 6 1 159.03 152.16 8.19 o
-5 6 2 285.40 273.19 14.34 o
-5 6 4 31.48 35.60 4.27 o
-5 6 5 145.85 139.87 7.55 o
-5 6 6 91.60 96.04 6.36 o
-5 6 7 117.59 114.41 8.38 o
-5 7 1 53.34 57.85 7.08 o
-5 7 2 272.01 259.22 13.26 o
-5 7 3 15.59 14.71 4.49 o
-5 7 4 89.66 83.27 6.20 o
-5 7 5 214.92 211.79 10.41 o
-5 7 6 42.53 38.32 5.73 o
-5 8 1 87.18 84.30 6.11 o
-5 8 2 26.19 29.11 4.90 o
-5 8 3 64.68 61.58 5.96 o
-5 9 4 237.19 262.32 17.58 o
-5 10 1 61.24 52.37 12.10 o
-4 0 2 30.86 26.04 3.00 o
-4 0 6 935.18 967.38 31.01 o
-4 0 8 150.00 152.98 10.84 o
-4 0 10 52.62 55.89 7.69 o
-4 1 1 4.41 6.80 2.07 o
-4 1 3 245.80 246.22 7.64 o
-4 1 4 433.81 430.94 11.52 o
-4 1 5 124.09 114.16 5.47 o
-4 1 6 7.60 9.83 2.18 o
-4 1 7 42.06 39.63 4.67 o
-4 1 9 523.09 518.72 18.46 o
-4 2 1 969.22 973.77 26.23 o
-4 2 2 44.42 41.39 2.75 o
-4 2 3 415.22 413.87 11.97 o
-4 2 4 81.77 87.28 3.97 o
-4 2 5 43.25 43.40 2.86 o
-4 2 6 93.09 100.58 4.99 o
-4 2 7 385.96 404.85 12.99 o
-4 2 8 17.00 19.17 4.21 o
-4 2 10 71.82 77.28 8.10 o
-4 3 2 36.60 31.45 2.51 o
-4 3 3 243.15 238.16 7.68 o
-4 3 4 227.33 228.77 8.67 o
-4 3 5 65.48 60.39 3.65 o
-4 3 6 23.49 22.13 2.71 o
-4 3 7 142.29 142.84 7.09 o
-4 3 8 58.36 59.43 7.21 o
-4 3 9 320.38 333.35 14.59 o
-4 3 10 174.74 178.20 12.32 o
-4 4 1 13.15 10.49 2.33 o
-4 4 2 20.27 17.15 2.22 o
-4 4 3 7.58 11.14 2.20 o
-4 4 4 44.92 41.31 3.24 o
-4 4 5 65.77 60.44 4.61 o
-4 4 6 511.54 533.54 16.49 o
-4 4 7 9.26 10.00 3.02 o
-4 4 8 132.51 143.24 7.37 o
-4 4 10 96.81 104.96 8.03 o
-4 5 1 255.40 255.85 8.74 o
-4 5 2 669.11 667.82 18.89 o
-4 5 3 1532.75 1491.34 41.64 o
-4 5 5 166.67 171.96 8.12 o
-4 5 6 92.61 93.38 5.03 o
-4 5 7 22.11 19.70 3.15 o
-4 5 8 35.50 28.64 4.76 o
-4 5 9 487.53 505.89 18.52 o
-4 5 10 103.41 113.52 9.68 o
-4 6 1 407.43 400.55 13.35 o
-4 6 2 231.83 228.11 8.13 o
-4 6 3 188.83 196.06 7.75 o
-4 6 4 318.35 308.37 11.77 o
-4 6 6 323.61 321.28 11.37 o
-4 6 7 124.88 124.26 6.37 o
-4 6 8 138.22 151.23 9.32 o
-4 6 10 204.23 231.24 35.79 o
-4 7 1 69.62 77.40 6.71 o
-4 7 2 66.63 59.80 4.07 o
-4 7 4 47.17 39.65 4.45 o
-4 7 5 245.82 239.00 9.56 o
-4 7 6 82.67 78.31 4.77 o
-4 7 7 491.76 501.19 17.43 o
-4 8 2 72.82 65.75 4.93 o
-4 8 4 163.26 161.01 7.16 o
-4 8 5 229.00 216.87 11.39 o
-4 8 6 14.30 9.08 3.01 o
-4 8 7 64.93 64.88 4.83 o
-4 8 8 231.58 240.84 11.40 o
-4 9 2 651.60 666.62 32.87 o
-4 9 3 162.37 162.50 9.84 o
-4 9 4 12.25 14.60 2.95 o
-4 9 5 10.15 11.19 2.85 o
-4 9 6 15.15 11.13 3.45 o
-4 9 7 34.13 29.43 4.19 o
-4 9 8 108.97 111.60 7.17 o
-4 9 9 117.74 107.89 16.36 o
-4 10 1 43.60 47.32 5.92 o
-4 10 2 49.86 40.33 4.17 o
-4 10 3 41.12 36.95 4.23 o
-4 10 4 162.48 159.70 7.56 o
-4 10 5 146.44 142.61 8.74 o
-4 10 8 37.00 35.69 6.43 o
-4 11 1 91.03 89.57 8.05 o
-4 11 4 19.33 14.57 4.08 o
-4 11 5 168.61 158.44 7.85 o
-4 11 6 38.88 35.28 4.47 o
-4 11 7 377.37 392.98 22.66 o
-4 12 2 36.03 30.80 4.18 o
-4 12 3 45.73 31.47 6.30 o
-4 12 4 195.04 179.93 11.67 o
-4 12 5 129.84 110.90 7.56 o
-4 13 1 35.89 30.91 4.91 o
-4 13 2 527.94 511.46 21.54 o
-4 13 3 119.11 126.44 8.65 o
-3 0 2 1406.75 1387.40 36.85 o
-3 0 4 1503.28 1440.52 39.82 o
-3 0 6 70.88 76.26 5.45 o
-3 0 10 486.05 455.74 23.11 o
-3 0 12 69.24 51.63 10.50 o
-3 1 1 1722.24 1703.66 41.25 o
-3 1 2 74.88 77.53 3.04 o
-3 1 3 8.20 8.81 1.39 o
-3 1 4 4.27 5.11 1.35 o
-3 1 5 82.60 88.82 4.56 o
-3 1 6 622.79 623.51 16.88 o
-3 1 7 631.62 616.44 17.61 o
-3 1 10 315.88 306.93 17.28 o
-3 1 12 187.95 203.21 15.08 o
-3 2 1 286.17 289.78 7.76 o
-3 2 2 26.66 25.62 1.71 o
-3 2 3 859.35 822.55 20.17 o
-3 2 4 9.27 7.70 1.57 o
-3 2 5 32.17 36.20 2.77 o
-3 2 7 387.31 379.77 11.34 o
-3 2 8 135.86 131.92 6.18 o
-3 2 9 591.06 544.76 17.09 o
-3 2 10 16.45 15.58 3.98 o
-3 2 12 20.79 24.47 6.59 o
-3 3 1 378.96 368.52 9.47 o
-3 3 2 307.16 303.15 7.89 o
-3 3 3 447.46 441.68 11.28 o
-3 3 4 95.87 105.06 4.13 o
-3 3 5 412.26 406.92 11.66 o
-3 3 6 268.96 262.56 9.12 o
-3 3 7 89.62 90.37 4.47 o
-3 3 8 92.38 94.01 4.75 o
-3 3 9 51.85 56.99 4.09 o
-3 3 10 267.44 256.36 10.84 o
-3 3 12 337.61 326.04 32.25 o
-3 4 2 220.02 214.26 5.98 o
-3 4 3 91.70 85.50 3.36 o
-3 4 4 2710.59 2692.28 66.40 o
-3 4 5 380.18 376.33 12.35 o
-3 4 6 38.57 45.34 3.19 o
-3 4 7 74.41 78.60 5.69 o
-3 4 8 102.89 104.74 5.28 o
-3 4 10 280.18 272.73 10.62 o
-3 4 11 429.56 421.62 15.95 o
-3 4 12 121.68 130.76 17.02 o
-3 5 1 1070.36 1045.40 26.35 o
-3 5 2 26.68 26.96 1.97 o
-3 5 4 125.77 134.04 5.27 o
-3 5 5 212.66 205.65 8.80 o
-3 5 6 125.67 122.57 5.26 o
-3 5 7 1196.42 1190.09 34.11 o
-3 5 8 248.26 248.80 10.41 o
-3 5 9 27.20 27.57 3.85 o
-3 5 10 171.08 178.21 10.27 o
-3 6 1 30.15 31.07 2.23 o
-3 6 2 653.25 663.67 17.94 o
-3 6 3 11.24 15.06 1.90 o
-3 6 4 865.79 846.89 24.84 o
-3 6 5 434.97 434.94 12.18 o
-3 6 6 531.98 545.71 15.94 o
-3 6 7 21.77 29.46 3.04 o
-3 6 8 231.80 241.45 8.96 o
-3 6 9 262.49 258.93 10.49 o
-3 6 10 156.51 154.63 7.89 o
-3 6 11 156.25 162.81 10.87 o
-3 7 1 24.16 20.05 2.30 o
-3 7 2 301.83 298.88 8.76 o
-3 7 3 1673.43 1665.07 43.48 o
-3 7 4 279.54 287.41 9.79 o
-3 7 5 498.71 493.88 17.24 o
-3 7 7 25.59 27.67 4.02 o
-3 7 8 87.72 80.61 6.97 o
-3 7 9 196.30 216.72 9.55 o
-3 7 10 201.29 212.99 10.53 o
-3 8 2 425.93 415.46 12.96 o
-3 8 4 272.94 273.71 9.96 o
-3 8 5 95.20 102.69 7.03 o
-3 8 6 125.20 123.65 5.78 o
-3 8 7 18.37 18.38 3.25 o
-3 8 8 99.94 110.44 6.06 o
-3 8 11 324.86 337.21 48.06 o
-3 9 1 65.54 58.75 5.30 o
-3 9 2 86.17 81.56 5.57 o
-3 9 3 11.66 11.41 2.15 o
-3 9 4 94.34 89.48 4.87 o
-3 9 5 26.29 28.55 3.07 o
-3 9 7 27.87 19.50 3.45 o
-3 9 8 765.27 760.86 25.16 o
-3 9 9 56.32 60.01 5.57 o
-3 9 10 28.93 29.22 4.58 o
-3 10 1 19.74 18.37 2.25 o
-3 10 2 207.24 197.07 8.84 o
-3 10 3 21.82 21.47 2.57 o
-3 10 4 44.24 43.32 4.08 o
-3 10 5 162.92 166.72 9.01 o
-3 10 6 340.33 321.79 15.11 o
-3 10 7 100.99 96.76 5.72 o
-3 10 8 101.25 96.87 7.80 o
-3 10 10 49.47 37.29 8.20 o
-3 11 3 913.95 874.97 35.29 o
-3 11 5 309.57 329.25 12.95 o
-3 11 8 35.23 35.05 4.87 o
-3 11 9 94.99 77.12 6.07 o
-3 11 10 30.32 29.49 6.55 o
-3 12 1 10.18 14.53 2.89 o
-3 12 2 294.80 290.84 10.53 o
-3 12 3 100.03 90.19 6.22 o
-3 12 4 28.97 25.25 3.98 o
-3 12 5 297.08 287.57 10.64 o
-3 12 6 302.20 313.27 12.02 o
-3 12 7 9.05 17.33 3.74 o
-3 12 8 58.00 54.80 8.20 o
-3 12 9 28.78 24.26 6.90 o
-3 13 1 20.19 20.74 3.28 o
-3 13 2 140.95 137.93 7.01 o
-3 13 4 37.56 34.01 4.03 o
-3 13 5 43.69 42.65 4.15 o
-3 13 7 132.84 130.62 8.23 o
-3 13 8 380.33 377.49 28.15 o
-3 14 2 67.06 57.66 4.47 o
-3 14 3 107.06 99.99 6.41 o
-3 14 4 231.13 225.96 10.42 o
-3 14 5 314.89 299.89 14.33 o
-3 14 6 42.63 33.34 5.51 o
-3 15 1 23.19 13.24 3.94 o
-3 15 2 44.12 36.96 4.37 o
-3 15 3 367.38 364.99 14.20 o
-3 15 5 156.40 145.35 8.58 o
-3 15 6 29.62 35.72 10.65 o
-3 16 1 17.67 17.50 4.32 o
-3 16 2 128.83 123.15 8.89 o
-3 16 3 30.72 24.11 4.85 o
-2 0 2 5492.24 5289.50 120.49 o
-2 0 4 2584.62 2602.95 63.52 o
-2 0 8 15.14 18.35 3.87 o
-2 0 10 500.59 481.91 21.98 o
-2 0 12 246.44 236.90 15.01 o
-2 1 1 366.36 369.03 9.17 o
-2 1 2 462.45 474.53 12.01 o
-2 1 3 294.39 288.30 7.60 o
-2 1 4 1195.50 1166.99 27.85 o
-2 1 5 254.15 248.24 7.27 o
-2 1 6 190.32 195.69 5.98 o
-2 1 7 369.74 369.21 12.35 o
-2 1 8 263.46 239.21 8.81 o
-2 1 9 144.69 152.99 7.03 o
-2 1 10 241.73 240.94 8.69 o
-2 1 12 10.52 12.05 3.90 o
-2 1 13 170.12 126.81 41.77 o
-2 2 1 1620.70 1564.92 36.92 o
-2 2 2 277.23 266.69 6.97 o
-2 2 3 519.75 484.34 12.00 o
-2 2 4 214.21 206.37 5.84 o
-2 2 5 1399.01 1390.38 33.86 o
-2 2 7 846.01 842.01 22.12 o
-2 2 8 61.06 66.19 4.28 o
-2 2 9 14.85 11.22 2.68 o
-2 2 11 509.91 478.09 17.24 o
-2 2 12 24.94 18.75 4.39 o
-2 3 1 36.05 35.31 1.85 o
-2 3 2 389.52 385.43 9.43 o
-2 3 3 81.87 88.76 3.32 o
-2 3 4 1282.05 1244.15 29.90 o
-2 3 5 214.45 215.94 6.28 o
-2 3 6 222.58 220.63 7.32 o
-2 3 7 847.42 826.83 22.33 o
-2 3 8 995.77 972.08 27.75 o
-2 3 10 114.48 122.75 7.08 o
-2 3 11 113.40 112.70 6.98 o
-2 3 12 140.37 141.41 11.75 o
-2 3 13 241.66 214.95 27.27 o
-2 4 2 1300.51 1296.36 30.20 o
-2 4 3 593.23 605.94 15.23 o
-2 4 4 36.44 40.35 3.30 o
-2 4 5 49.37 57.32 3.50 o
-2 4 6 475.68 456.59 14.21 o
-2 4 7 11.85 12.28 2.96 o
-2 4 8 109.23 115.17 6.99 o
-2 4 9 481.00 478.06 15.07 o
-2 4 10 434.39 417.14 16.07 o
-2 4 11 38.40 34.30 7.59 o
-2 4 12 219.66 240.88 13.31 o
-2 4 13 81.80 73.86 20.79 o
-2 5 1 1198.81 1174.34 28.40 o
-2 5 2 165.83 167.59 4.97 o
-2 5 4 679.08 676.07 16.86 o
-2 5 5 938.66 937.12 24.07 o
-2 5 6 1658.45 1697.46 44.06 o
-2 5 7 455.76 459.18 14.64 o
-2 5 9 60.67 68.57 4.66 o
-2 5 10 163.93 163.70 12.47 o
-2 5 12 146.34 153.73 13.42 o
-2 6 1 474.53 484.83 12.30 o
-2 6 2 1253.99 1215.19 29.63 o
-2 6 3 67.40 67.66 3.21 o
-2 6 4 411.82 417.54 11.82 o
-2 6 5 2237.60 2278.27 58.52 o
-2 6 6 174.07 170.64 5.99 o
-2 6 7 45.72 50.16 4.59 o
-2 6 8 718.63 728.33 23.21 o
-2 6 9 113.42 127.17 7.79 o
-2 6 10 18.93 24.00 4.38 o
-2 6 11 207.64 197.62 10.43 o
-2 6 12 55.49 32.37 8.47 o
-2 7 1 725.43 704.69 17.76 o
-2 7 2 32.35 35.04 2.14 o
-2 7 3 556.46 569.74 16.43 o
-2 7 4 136.01 141.21 4.93 o
-2 7 5 957.74 947.23 26.66 o
-2 7 6 24.55 20.00 2.21 o
-2 7 7 24.89 25.30 3.47 o
-2 7 8 171.06 183.87 8.35 o
-2 7 9 68.56 65.85 4.73 o
-2 7 10 102.74 116.81 7.62 o
-2 7 11 309.94 320.82 14.62 o
-2 7 12 62.16 62.46 19.18 o
-2 8 1 9.00 10.90 1.52 o
-2 8 3 1203.15 1215.30 31.27 o
-2 8 4 364.77 364.60 9.90 o
-2 8 5 104.35 110.39 4.67 o
-2 8 6 199.09 200.79 6.61 o
-2 8 7 119.22 115.02 6.55 o
-2 8 8 135.49 156.42 7.39 o
-2 8 9 671.71 686.00 28.13 o
-2 8 11 100.87 100.02 7.89 o
-2 8 12 174.14 172.81 19.03 o
-2 9 1 194.59 196.53 7.22 o
-2 9 2 147.56 152.87 5.57 o
-2 9 3 20.23 21.31 1.93 o
-2 9 4 617.25 620.50 16.30 o
-2 9 5 42.13 38.22 2.73 o
-2 9 6 697.21 716.56 20.33 o
-2 9 7 35.70 30.86 4.96 o
-2 9 8 115.09 121.36 8.78 o
-2 10 2 181.57 180.88 6.12 o
-2 10 3 778.45 770.17 21.56 o
-2 10 4 247.27 250.71 7.66 o
-2 10 5 223.90 221.01 7.06 o
-2 10 7 90.53 83.46 5.49 o
-2 10 8 205.26 209.75 16.44 o
-2 10 9 185.29 192.94 11.18 o
-2 10 10 29.45 25.24 4.56 o
-2 11 1 1278.09 1224.73 33.22 o
-2 11 3 26.84 27.74 2.35 o
-2 11 4 5.74 9.34 1.84 o
-2 11 5 628.90 642.01 20.76 o
-2 11 7 162.59 153.30 7.46 o
-2 11 9 135.91 140.60 8.67 o
-2 11 11 229.16 237.22 22.02 o
-2 12 1 28.69 25.00 2.73 o
-2 12 2 19.24 19.53 2.35 o
-2 12 3 348.52 366.81 11.29 o
-2 12 4 242.60 226.96 7.49 o
-2 12 5 234.38 223.81 9.82 o
-2 12 7 12.51 11.94 3.52 o
-2 12 8 319.37 332.32 14.19 o
-2 12 9 283.40 281.36 19.48 o
-2 13 1 200.56 190.20 9.15 o
-2 13 2 274.67 269.10 9.62 o
-2 13 4 47.47 47.39 5.01 o
-2 13 5 77.72 75.26 4.87 o
-2 13 6 930.11 965.91 28.99 o
-2 13 9 22.77 16.92 4.99 o
-2 14 1 154.93 155.16 7.63 o
-2 14 3 683.93 698.93 20.23 o
-2 14 4 66.33 65.24 4.34 o
-2 14 6 77.10 75.89 5.21 o
-2 14 8 41.14 33.30 6.03 o
-2 14 9 290.13 322.72 30.59 o
-2 15 1 229.93 214.61 10.44 o
-2 15 2 50.91 49.72 4.81 o
-2 15 3 10.62 9.34 2.95 o
-2 15 4 67.89 66.68 5.10 o
-2 15 5 39.61 40.91 3.77 o
-2 15 6 126.91 133.51 7.73 o
-2 15 8 217.88 221.28 22.73 o
-2 16 1 215.86 223.56 10.29 o
-2 16 2 115.89 124.90 6.90 o
-2 16 3 39.29 38.80 4.08 o
-2 16 4 232.47 219.07 12.27 o
-2 16 5 238.21 227.38 10.38 o
-2 16 7 181.67 194.63 14.39 o
-2 17 1 24.78 13.88 4.00 o
-2 17 2 49.32 36.78 4.20 o
-2 17 3 52.96 54.47 5.37 o
-2 17 4 170.54 161.11 8.93 o
-2 17 5 157.05 138.18 7.93 o
-2 17 6 157.78 154.87 25.88 o
-2 18 2 280.16 273.01 12.79 o
-2 18 3 27.34 20.03 4.84 o
-2 18 4 101.08 105.37 18.07 o
-1 0 2 6392.63 6508.87 143.88 o
-1 0 4 1095.33 1080.56 31.39 o
-1 0 6 22.84 22.29 2.91 o
-1 0 8 1987.69 2010.38 58.21 o
-1 0 10 154.02 171.04 9.71 o
-1 0 12 92.15 73.81 9.18 o
-1 1 1 442.25 424.69 10.10 o
-1 1 2 889.58 903.51 20.87 o
-1 1 3 986.39 946.69 22.32 o
-1 1 4 270.44 259.81 6.87 o
-1 1 5 5024.75 5018.55 118.22 o
-1 1 6 262.76 258.17 8.13 o
-1 1 7 67.26 69.20 4.03 o
-1 1 8 89.62 95.20 5.01 o
-1 1 9 38.34 33.17 3.28 o
-1 1 10 106.47 106.94 5.68 o
-1 1 11 275.89 274.01 11.96 o
-1 2 1 73.46 82.53 2.70 o
-1 2 2 262.91 287.72 7.50 o
-1 2 3 2963.64 3034.79 69.24 o
-1 2 4 238.30 243.37 6.68 o
-1 2 5 81.96 77.02 3.36 o
-1 2 7 325.44 316.23 9.34 o
-1 2 8 65.85 65.14 3.64 o
-1 2 9 139.23 141.71 5.96 o
-1 2 11 43.39 32.28 3.77 o
-1 2 13 488.69 524.77 23.87 o
-1 3 1 577.87 578.48 13.62 o
-1 3 2 136.26 135.82 4.19 o
-1 3 3 220.77 228.15 6.90 o
-1 3 4 2.15 5.17 1.22 o
-1 3 5 791.87 795.01 19.94 o
-1 3 6 539.71 532.56 13.63 o
-1 3 7 1405.56 1377.68 36.25 o
-1 3 10 591.36 582.14 17.16 o
-1 3 11 379.04 369.45 13.58 o
-1 3 12 69.65 59.55 6.61 o
-1 3 13 76.03 77.83 11.85 o
-1 4 1 1274.84 1265.63 29.44 o
-1 4 2 4373.84 4508.16 105.64 o
-1 4 3 472.10 459.15 11.81 o
-1 4 4 418.60 415.27 11.22 o
-1 4 5 4.30 5.23 1.29 o
-1 4 6 172.85 185.56 5.89 o
-1 4 7 1000.56 1010.70 25.92 o
-1 4 8 1298.48 1267.04 33.11 o
-1 4 9 762.89 758.99 20.46 o
-1 4 10 112.10 116.91 6.04 o
-1 4 12 96.94 85.00 10.83 o
-1 4 13 24.70 29.32 9.26 o
-1 5 1 870.14 862.41 20.10 o
-1 5 2 340.14 344.73 8.76 o
-1 5 3 1381.90 1367.14 34.71 o
-1 5 4 598.49 616.95 16.24 o
-1 5 5 1386.99 1404.52 34.28 o
-1 5 6 23.74 25.54 2.06 o
-1 5 7 286.01 287.21 8.55 o
-1 5 8 260.80 265.47 8.03 o
-1 5 9 37.71 36.99 2.86 o
-1 5 10 50.02 55.62 5.31 o
-1 5 11 229.37 234.68 12.52 o
-1 5 12 120.32 117.86 11.40 o
-1 6 1 870.42 866.80 20.82 o
-1 6 2 742.59 735.87 17.65 o
-1 6 3 135.88 139.22 4.68 o
-1 6 4 26.84 35.12 2.27 o
-1 6 5 477.03 489.65 12.70 o
-1 6 6 976.63 993.57 25.36 o
-1 6 7 96.63 91.00 4.27 o
-1 6 8 12.18 11.10 2.17 o
-1 6 10 104.81 98.68 5.31 o
-1 6 12 36.02 28.60 5.10 o
-1 7 1 606.93 606.26 14.72 o
-1 7 2 109.98 112.21 3.83 o
-1 7 3 1817.64 1810.49 43.56 o
-1 7 4 174.87 187.31 6.34 o
-1 7 5 118.04 138.69 4.95 o
-1 7 6 1000.78 1018.21 25.87 o
-1 7 7 491.35 509.79 14.07 o
-1 7 8 88.04 89.17 4.44 o
-1 7 9 636.58 664.91 19.44 o
-1 7 10 148.52 152.17 7.03 o
-1 7 12 53.95 35.70 8.22 o
-1 8 1 849.91 890.81 20.89 o
-1 8 2 169.48 179.41 5.06 o
-1 8 3 123.29 126.17 4.38 o
-1 8 4 56.55 63.64 3.23 o
-1 8 5 65.15 73.94 3.46 o
-1 8 6 1705.50 1769.58 45.34 o
-1 8 7 284.47 288.96 8.81 o
-1 8 8 30.51 28.16 2.74 o
-1 8 9 225.59 220.73 8.95 o
-1 8 10 113.56 116.27 8.30 o
-1 8 11 127.20 127.61 9.44 o
-1 8 12 185.88 164.18 34.17 o
-1 9 1 33.20 36.55 2.01 o
-1 9 2 159.31 170.55 5.87 o
-1 9 3 63.47 65.96 2.96 o
-1 9 4 1391.07 1415.36 34.65 o
-1 9 5 31.11 30.33 2.53 o
-1 9 6 495.27 499.88 15.60 o
-1 9 7 50.33 49.23 3.58 o
-1 9 8 34.33 33.64 4.24 o
-1 10 1 352.32 344.46 8.88 o
-1 10 2 279.28 273.52 7.21 o
-1 10 3 40.32 39.49 2.27 o
-1 10 4 387.70 400.46 12.65 o
-1 10 5 223.50 219.04 7.92 o
-1 10 6 742.45 750.07 20.37 o
-1 10 9 74.13 83.44 6.74 o
-1 10 10 301.04 282.36 13.34 o
-1 11 1 804.78 797.88 19.76 o
-1 11 2 2.22 8.99 1.38 o
-1 11 3 1203.45 1196.00 30.38 o
-1 11 4 9.44 9.33 1.94 o
-1 11 6 3.57 8.88 2.29 o
-1 11 7 332.61 315.47 12.94 o
-1 11 9 643.12 655.35 21.28 o
-1 12 1 677.91 701.41 17.69 o
-1 12 2 784.65 773.62 19.53 o
-1 12 3 18.65 19.03 2.09 o
-1 12 4 450.49 441.52 12.39 o
-1 12 5 21.05 26.57 2.77 o
-1 12 6 795.03 819.27 29.28 o
-1 12 7 25.54 17.74 3.49 o
-1 12 9 60.67 52.84 4.76 o
-1 12 10 74.25 66.80 6.28 o
-1 13 2 22.18 21.74 2.29 o
-1 13 3 19.04 16.96 2.97 o
-1 13 4 442.07 450.79 13.17 o
-1 13 5 40.75 40.08 4.04 o
-1 13 6 17.78 18.56 3.25 o
-1 13 8 20.45 21.83 4.27 o
-1 13 10 43.08 27.92 8.25 o
-1 14 1 153.08 162.84 6.13 o
-1 14 2 169.79 164.35 5.93 o
-1 14 3 8.36 8.34 2.17 o
-1 14 4 145.00 139.14 6.03 o
-1 14 6 250.80 259.25 10.32 o
-1 14 7 254.35 255.72 11.31 o
-1 14 8 95.27 102.03 9.55 o
-1 14 9 295.42 287.07 18.21 o
-1 15 1 254.14 248.87 8.11 o
-1 15 2 90.59 92.28 4.53 o
-1 15 3 518.29 520.33 17.36 o
-1 15 4 202.51 212.75 8.05 o
-1 15 6 125.64 129.30 6.90 o
-1 15 7 402.54 415.15 17.14 o
-1 15 8 22.27 30.51 8.13 o
-1 16 1 62.63 66.16 4.34 o
-1 16 2 136.34 143.46 6.03 o
-1 16 3 163.37 146.22 8.53 o
-1 16 4 22.41 14.05 3.14 o
-1 16 5 33.84 28.42 3.57 o
-1 16 6 258.20 264.58 12.24 o
-1 16 7 37.14 37.68 5.87 o
-1 17 2 139.81 130.72 6.50 o
-1 17 3 20.11 20.99 4.20 o
-1 17 4 25.34 27.26 3.93 o
-1 17 5 231.06 218.75 14.12 o
-1 18 1 160.00 169.10 14.14 o
-1 18 2 206.17 212.24 10.91 o
-1 18 3 114.32 110.44 7.65 o
-1 18 4 177.05 193.85 17.54 o
-1 18 5 80.63 86.76 7.14 o
-1 19 2 48.96 43.93 7.52 o
-1 19 4 57.47 71.94 14.06 o
0 0 2 1676.66 1777.36 40.20 o
0 0 6 3136.56 3209.86 80.22 o
0 0 8 21.43 31.02 4.17 o
0 1 1 2.72 3.36 0.42 o
0 1 2 390.85 403.18 9.46 o
0 1 3 4402.14 4488.01 102.33 o
0 1 4 119.67 108.55 3.96 o
0 1 5 225.56 224.86 6.51 o
0 1 6 1111.43 1121.05 27.32 o
0 1 8 745.89 736.28 19.82 o
0 1 9 61.59 62.02 4.10 o
0 1 11 26.21 22.23 4.05 o
0 1 12 165.48 168.09 10.28 o
0 2 0 1781.48 1803.94 40.12 o
0 2 1 1359.84 1430.79 33.61 o
0 2 2 891.49 887.54 20.59 o
0 2 3 1015.39 1023.23 23.60 o
0 2 4 323.27 339.37 8.84 o
0 2 5 945.03 954.85 23.04 o
0 2 6 493.24 505.03 14.09 o
0 2 8 446.09 463.33 13.07 o
0 2 9 932.94 903.64 25.97 o
0 2 10 156.87 142.81 8.91 o
0 2 11 508.27 527.36 19.13 o
0 3 1 1007.62 1044.15 24.97 o
0 3 2 2405.43 2444.03 56.56 o
0 3 3 2068.16 2109.85 48.76 o
0 3 4 1469.53 1497.05 35.79 o
0 3 5 568.04 559.89 14.03 o
0 3 6 768.14 779.60 19.42 o
0 3 7 20.23 18.46 2.17 o
0 3 8 1144.59 1146.91 32.46 o
0 3 9 3.73 10.61 2.93 o
0 3 10 153.00 146.32 7.48 o
0 3 12 70.88 50.28 5.55 o
0 4 0 6273.25 6326.46 155.16 o
0 4 1 1014.18 1068.32 26.02 o
0 4 2 2031.27 2076.83 49.54 o
0 4 3 18.43 22.76 1.70 o
0 4 4 26.28 28.82 2.12 o
0 4 5 27.11 26.50 2.08 o
0 4 6 1375.32 1364.96 35.18 o
0 4 7 227.75 239.36 8.10 o
0 4 8 66.62 72.90 4.65 o
0 4 9 238.45 235.47 7.92 o
0 4 10 112.54 113.36 5.73 o
0 4 11 177.04 187.89 10.83 o
0 4 12 28.11 19.84 4.12 o
0 4 13 108.81 111.72 13.29 o
0 5 3 1525.19 1557.73 38.40 o
0 5 4 1336.60 1324.31 31.50 o
0 5 5 31.59 31.98 2.11 o
0 5 6 242.83 250.74 7.23 o
0 5 8 243.78 238.42 9.64 o
0 5 9 94.38 106.54 5.02 o
0 5 10 351.41 368.89 11.62 o
0 5 11 89.24 79.84 5.81 o
0 5 12 101.99 99.30 7.46 o
0 6 0 150.16 160.95 6.90 o
0 6 1 747.75 779.01 18.52 o
0 6 2 227.08 238.84 6.56 o
0 6 3 1330.51 1408.97 33.34 o
0 6 4 1012.36 1021.32 24.48 o
0 6 5 144.89 140.01 4.68 o
0 6 6 153.73 159.10 5.24 o
0 6 7 208.43 216.81 7.00 o
0 6 8 114.65 117.51 4.99 o
0 6 9 539.90 547.54 16.78 o
0 6 11 115.49 108.26 6.11 o
0 6 12 104.96 105.65 9.44 o
0 7 1 3398.52 3367.93 77.85 o
0 7 2 748.98 775.96 18.59 o
0 7 4 405.69 400.27 10.14 o
0 7 5 390.64 401.96 11.97 o
0 7 6 31.62 31.61 2.26 o
0 7 7 455.36 487.04 13.61 o
0 7 8 532.03 526.99 15.16 o
0 7 9 81.51 83.07 5.24 o
0 7 10 31.77 31.75 4.23 o
0 8 0 231.16 235.37 7.85 o
0 8 1 1683.59 1664.49 38.81 o
0 8 2 1004.44 989.14 23.61 o
0 8 3 79.81 81.96 3.89 o
0 8 4 341.92 343.80 8.92 o
0 8 5 133.15 132.32 4.46 o
0 8 6 250.72 236.06 8.51 o
0 8 7 1720.38 1731.09 46.91 o
0 8 8 1.69 8.33 2.66 o
0 8 10 18.05 14.13 3.42 o
0 9 1 3.36 6.03 1.12 o
0 9 2 38.54 39.06 2.11 o
0 9 3 130.39 134.71 4.80 o
0 9 4 1001.16 1004.24 24.48 o
0 9 5 47.64 56.18 3.15 o
0 9 6 86.61 90.63 4.74 o
0 9 7 103.31 115.47 6.30 o
0 9 8 74.29 61.59 6.23 o
0 9 10 700.31 734.71 24.67 o
0 9 11 35.31 29.77 4.73 o
0 10 0 295.41 296.31 8.31 o
0 10 1 590.72 592.37 14.67 o
0 10 2 1019.71 1020.44 24.64 o
0 10 3 3.07 6.20 1.32 o
0 10 4 462.04 460.92 12.08 o
0 10 7 1299.91 1310.90 36.90 o
0 10 8 10.25 8.81 2.91 o
0 10 10 29.24 24.92 4.39 o
0 10 11 33.11 22.70 4.55 o
0 11 1 2637.11 2638.12 62.62 o
0 11 2 23.68 26.13 1.84 o
0 11 3 444.46 433.03 11.05 o
0 11 4 0.23 5.29 1.57 o
0 11 5 926.89 928.89 29.74 o
0 11 6 17.18 15.09 2.37 o
0 11 7 264.53 273.83 9.24 o
0 11 9 70.12 65.31 5.36 o
0 12 0 4.02 13.80 2.40 o
0 12 1 28.77 29.44 2.30 o
0 12 2 288.81 273.84 7.97 o
0 12 3 166.79 163.02 5.32 o
0 12 4 751.64 748.17 19.93 o
0 12 5 29.56 30.56 2.65 o
0 12 6 13.94 14.55 2.37 o
0 12 7 337.97 339.37 13.88 o
0 12 8 19.41 15.63 3.79 o
0 12 9 54.87 55.51 4.95 o
0 13 1 88.55 82.01 3.73 o
0 13 2 28.55 29.42 2.40 o
0 13 3 457.67 448.59 12.30 o
0 13 4 393.73 399.93 14.59 o
0 13 5 65.30 77.08 4.32 o
0 13 6 64.18 67.50 6.64 o
0 13 8 43.26 38.66 5.05 o
0 13 9 30.64 40.07 5.88 o
0 14 0 23.13 25.58 3.11 o
0 14 1 409.91 424.73 11.73 o
0 14 2 503.71 523.33 14.59 o
0 14 4 202.04 212.06 8.04 o
0 14 5 11.95 18.53 3.17 o
0 14 7 417.10 434.82 18.36 o
0 14 8 21.26 17.14 4.18 o
0 14 9 73.64 62.43 8.63 o
0 15 1 639.98 662.60 18.46 o
0 15 2 40.53 39.77 4.14 o
0 15 3 13.82 13.17 2.92 o
0 15 4 17.51 19.80 3.55 o
0 15 5 103.03 105.48 6.43 o
0 15 7 191.45 191.41 10.44 o
0 15 8 129.34 137.01 14.71 o
0 16 0 51.32 57.50 13.70 o
0 16 2 166.20 177.03 8.55 o
0 16 4 156.21 159.50 8.27 o
0 16 5 370.61 381.61 14.25 o
0 16 6 37.46 35.93 4.80 o
0 17 1 7.76 11.24 3.41 o
0 17 3 348.75 366.92 16.17 o
0 17 4 190.46 199.22 10.64 o
0 18 0 893.09 940.02 38.52 o
0 18 1 122.16 127.44 7.47 o
0 18 4 85.09 76.91 6.89 o
0 18 5 45.38 41.73 6.88 o
0 19 1 59.59 53.01 6.26 o
0 19 2 139.63 128.05 14.07 o
0 19 3 164.34 170.91 13.06 o
0 19 4 91.09 83.81 13.64 o
1 0 0 967.34 978.80 24.74 o
1 0 2 5201.75 5047.02 120.05 o
1 0 4 992.49 990.92 26.68 o
1 0 6 331.98 320.89 10.35 o
1 0 8 277.63 293.07 15.63 o
1 0 10 231.13 227.94 13.70 o
1 0 12 184.25 198.35 21.45 o
1 1 0 148.22 145.05 3.89 o
1 1 1 13701.98 13061.75 306.69 o
1 1 2 1135.41 1133.11 26.56 o
1 1 3 2596.76 2512.52 57.85 o
1 1 4 1359.52 1324.08 33.49 o
1 1 5 73.80 72.04 3.17 o
1 1 6 596.81 567.24 14.67 o
1 1 7 47.43 51.61 3.16 o
1 1 9 735.18 735.70 21.57 o
1 1 10 75.97 62.30 4.74 o
1 1 12 21.73 21.83 6.00 o
1 2 0 666.98 659.87 15.60 o
1 2 1 11937.83 11627.64 270.27 o
1 2 2 5.26 4.55 1.24 o
1 2 3 981.14 932.14 21.93 o
1 2 4 60.62 62.89 3.17 o
1 2 5 132.20 124.05 4.22 o
1 2 7 1574.17 1533.86 41.32 o
1 2 9 459.93 475.43 14.57 o
1 2 10 102.62 109.51 8.74 o
1 2 11 217.09 225.55 11.03 o
1 2 12 35.36 30.38 5.71 o
1 3 0 904.21 896.53 20.52 o
1 3 1 74.00 78.28 2.59 o
1 3 2 87.88 88.92 3.21 o
1 3 3 122.61 122.82 3.96 o
1 3 4 877.95 839.40 20.25 o
1 3 5 302.35 309.07 8.70 o
1 3 6 505.64 504.66 13.58 o
1 3 7 207.19 218.58 6.84 o
1 3 8 47.32 47.96 3.49 o
1 3 9 34.70 29.68 3.61 o
1 3 10 11.84 11.18 3.71 o
1 3 11 283.18 259.40 12.75 o
1 3 12 85.07 95.51 12.46 o
1 4 0 45.13 44.95 2.15 o
1 4 1 63.72 73.46 2.58 o
1 4 2 28.57 31.55 1.80 o
1 4 3 146.48 149.36 4.93 o
1 4 5 1493.68 1488.92 36.25 o
1 4 6 62.40 58.45 3.31 o
1 4 7 115.04 117.21 4.81 o
1 4 8 291.88 288.20 9.93 o
1 4 10 203.35 189.34 10.76 o
1 4 12 134.02 95.24 29.14 o
1 5 0 1530.81 1506.27 35.00 o
1 5 1 920.06 891.68 20.92 o
1 5 2 1061.79 1027.76 24.11 o
1 5 3 291.30 288.10 7.81 o
1 5 4 930.79 956.46 22.76 o
1 5 5 101.47 99.39 4.36 o
1 5 6 114.48 112.54 4.50 o
1 5 7 80.94 76.88 4.07 o
1 5 8 237.37 247.43 8.26 o
1 5 9 291.80 287.48 9.94 o
1 5 10 68.54 64.52 7.31 o
1 5 11 17.04 18.85 4.93 o
1 6 0 2390.05 2324.73 53.61 o
1 6 1 561.36 544.01 13.01 o
1 6 2 6.70 5.75 1.23 o
1 6 3 1901.28 1884.95 45.51 o
1 6 4 343.84 337.28 9.14 o
1 6 5 55.72 52.98 2.76 o
1 6 6 18.57 17.83 2.00 o
1 6 7 466.39 459.56 13.28 o
1 6 8 22.23 19.95 2.81 o
1 6 9 133.17 137.61 6.37 o
1 6 10 192.71 195.74 11.14 o
1 7 0 1916.07 1915.45 44.60 o
1 7 1 203.34 186.43 5.11 o
1 7 2 492.13 483.63 11.88 o
1 7 3 9.32 15.73 1.73 o
1 7 4 499.56 499.86 13.16 o
1 7 5 24.16 29.49 2.13 o
1 7 6 129.06 121.28 5.08 o
1 7 7 242.32 249.33 7.92 o
1 7 8 49.97 47.56 3.85 o
1 7 9 141.68 131.34 6.93 o
1 7 10 63.61 65.38 5.71 o
1 7 11 100.90 104.36 7.65 o
1 8 0 245.99 231.65 6.24 o
1 8 1 49.28 47.04 2.16 o
1 8 2 188.61 194.44 5.42 o
1 8 3 9.83 11.35 1.57 o
1 8 4 225.24 216.60 6.37 o
1 8 5 1113.87 1084.06 28.46 o
1 8 6 36.67 28.62 2.75 o
1 8 8 101.78 104.20 5.96 o
1 8 9 44.61 49.42 4.60 o
1 8 10 115.11 105.07 6.86 o
1 8 11 152.11 159.95 13.00 o
1 9 0 159.48 164.47 5.04 o
1 9 1 190.73 185.70 5.40 o
1 9 2 3866.56 3766.55 89.82 o
1 9 3 170.19 175.33 5.36 o
1 9 4 16.29 14.21 2.87 o
1 9 6 84.16 83.46 5.93 o
1 9 7 52.00 49.74 3.67 o
1 9 8 1276.03 1290.17 46.31 o
1 9 9 99.24 89.51 6.73 o
1 9 10 73.57 61.95 6.14 o
1 10 0 602.12 594.72 14.88 o
1 10 1 205.48 215.05 6.09 o
1 10 2 241.88 239.58 7.66 o
1 10 3 322.28 324.95 9.58 o
1 10 4 786.21 753.17 20.30 o
1 10 5 649.83 658.51 18.34 o
1 10 6 99.84 88.95 5.21 o
1 10 7 31.40 30.48 3.31 o
1 10 8 198.64 186.58 11.55 o
1 10 10 47.14 46.45 5.54 o
1 11 0 60.26 59.64 2.90 o
1 11 1 475.87 452.63 12.31 o
1 11 2 286.56 282.04 8.16 o
1 11 3 19.11 16.37 2.30 o
1 11 4 148.61 152.33 6.18 o
1 11 5 23.21 19.14 2.62 o
1 11 7 320.69 298.01 14.69 o
1 11 8 74.16 91.69 6.58 o
1 11 9 87.88 81.21 6.48 o
1 12 0 1277.07 1270.54 32.37 o
1 12 1 2.95 6.36 1.64 o
1 12 2 61.35 59.36 4.36 o
1 12 3 481.00 483.44 13.85 o
1 12 4 499.16 483.54 14.06 o
1 12 5 252.57 248.59 10.57 o
1 12 6 47.21 51.36 4.41 o
1 12 7 29.88 37.40 4.63 o
1 12 8 86.63 88.13 7.98 o
1 13 0 407.68 409.82 13.28 o
1 13 1 13.71 10.30 1.96 o
1 13 2 1110.31 1121.13 30.76 o
1 13 3 14.95 13.03 2.51 o
1 13 4 13.95 14.82 3.11 o
1 13 5 53.68 44.74 5.87 o
1 13 6 97.08 86.34 7.39 o
1 13 8 428.03 422.25 16.70 o
1 14 1 67.36 58.16 3.72 o
1 14 2 52.81 59.44 3.84 o
1 14 3 15.66 14.73 3.10 o
1 14 5 458.35 467.07 15.87 o
1 14 6 153.00 164.95 12.56 o
1 15 0 107.82 102.59 5.22 o
1 15 1 80.55 75.34 5.26 o
1 15 2 103.32 105.12 7.12 o
1 15 3 21.18 14.59 3.78 o
1 15 4 141.35 141.71 10.35 o
1 15 6 67.68 61.52 9.63 o
1 15 7 104.84 87.83 12.10 o
1 16 0 369.17 406.82 18.34 o
1 16 1 240.44 253.37 10.09 o
1 16 3 141.14 139.46 8.57 o
1 16 4 101.79 105.60 6.68 o
1 16 5 188.99 175.07 9.87 o
1 17 0 72.40 65.34 5.46 o
1 17 1 307.03 306.44 17.86 o
1 17 2 301.33 309.57 14.92 o
1 17 3 137.25 143.11 11.33 o
1 17 4 82.58 83.67 8.57 o
1 17 6 48.33 42.80 8.59 o
1 18 4 75.03 105.60 13.85 o
1 19 0 129.67 116.21 9.69 o
1 19 1 112.14 115.54 12.27 o
2 0 0 631.06 623.85 18.17 o
2 0 2 21.19 26.22 2.29 o
2 0 4 2118.09 2072.77 53.34 o
2 0 6 159.82 174.56 10.05 o
2 0 8 137.30 134.98 8.26 o
2 0 10 611.31 648.73 38.91 o
2 1 0 37.92 38.57 2.07 o
2 1 1 319.45 305.54 8.27 o
2 1 2 2801.66 2680.91 62.07 o
2 1 3 2002.14 1927.82 46.34 o
2 1 4 25.82 29.30 1.99 o
2 1 5 3.58 4.77 1.58 o
2 1 6 233.99 237.58 7.35 o
2 1 7 352.98 359.83 10.58 o
2 1 8 13.57 13.88 3.78 o
2 1 9 52.12 58.65 6.59 o
2 2 0 26.45 29.22 1.76 o
2 2 1 659.35 633.35 15.60 o
2 2 2 1530.63 1454.02 35.37 o
2 2 3 280.56 264.17 7.47 o
2 2 4 550.58 533.54 13.77 o
2 2 5 319.02 312.22 8.52 o
2 2 6 149.75 155.30 5.63 o
2 2 7 14.53 20.41 2.30 o
2 2 8 19.12 19.21 2.84 o
2 2 9 362.87 359.65 12.96 o
2 2 10 26.95 20.63 3.90 o
2 2 11 90.71 84.20 6.43 o
2 3 0 146.69 145.87 4.29 o
2 3 1 311.99 309.60 8.85 o
2 3 2 1978.20 1955.80 46.50 o
2 3 3 723.06 712.76 17.74 o
2 3 5 505.07 518.59 13.44 o
2 3 6 607.47 607.33 15.99 o
2 3 7 133.25 128.36 5.06 o
2 3 8 206.56 193.99 7.43 o
2 3 9 64.76 68.56 5.00 o
2 3 10 32.40 18.69 3.94 o
2 3 11 120.06 108.75 8.17 o
2 4 0 80.91 81.97 3.00 o
2 4 1 193.03 195.29 5.93 o
2 4 2 378.41 389.42 10.02 o
2 4 3 13.28 13.92 1.52 o
2 4 4 890.40 842.79 20.84 o
2 4 5 4.13 5.62 1.63 o
2 4 6 212.87 223.29 7.36 o
2 4 7 74.73 70.75 3.60 o
2 4 8 245.46 241.92 9.43 o
2 4 9 44.27 36.22 4.85 o
2 4 10 151.98 147.34 8.45 o
2 4 11 26.01 22.17 6.31 o
2 5 0 1101.77 1080.24 26.09 o
2 5 1 2534.41 2439.90 57.43 o
2 5 2 20.89 22.37 1.78 o
2 5 3 19.18 14.93 1.62 o
2 5 4 38.69 38.35 2.50 o
2 5 5 5.45 8.72 1.82 o
2 5 7 137.90 138.99 5.88 o
2 5 8 64.60 61.49 4.23 o
2 5 9 24.91 25.99 4.13 o
2 5 10 28.44 29.42 4.96 o
2 6 0 281.08 275.11 8.52 o
2 6 1 750.39 726.99 18.55 o
2 6 2 920.79 903.66 22.15 o
2 6 4 64.80 67.30 3.86 o
2 6 5 7.79 6.64 1.73 o
2 6 6 163.78 166.07 6.05 o
2 6 8 81.21 78.76 5.27 o
2 6 9 107.57 101.77 7.74 o
2 7 0 54.74 57.31 2.80 o
2 7 1 4.82 4.92 1.20 o
2 7 2 36.44 38.39 2.39 o
2 7 3 548.78 555.00 14.67 o
2 7 4 58.04 59.00 3.30 o
2 7 5 622.38 643.43 16.90 o
2 7 6 194.43 188.76 6.51 o
2 7 7 58.48 50.28 3.70 o
2 7 8 56.57 51.02 3.98 o
2 7 9 234.34 216.01 14.71 o
2 8 0 117.17 118.37 5.08 o
2 8 2 298.51 288.16 8.14 o
2 8 3 989.33 991.84 26.44 o
2 8 4 679.04 683.21 18.82 o
2 8 5 454.85 468.77 14.01 o
2 8 6 89.35 92.55 4.58 o
2 8 8 105.21 108.25 5.72 o
2 8 9 46.52 45.21 5.09 o
2 8 10 74.18 55.41 7.65 o
2 9 0 1211.53 1192.94 31.07 o
2 9 1 212.26 208.89 6.23 o
2 9 3 29.63 25.60 3.14 o
2 9 5 45.38 43.12 3.13 o
2 9 6 229.22 235.42 8.44 o
2 9 7 78.11 72.47 4.51 o
2 9 8 102.36 102.74 7.27 o
2 10 0 88.65 84.27 4.72 o
2 10 1 110.04 118.95 4.85 o
2 10 2 581.88 573.71 16.72 o
2 10 3 840.86 813.06 22.79 o
2 10 4 42.16 43.44 5.51 o
2 10 5 434.06 424.61 13.37 o
2 10 6 36.36 35.75 5.82 o
2 10 8 200.08 196.28 15.40 o
2 10 9 34.15 39.14 6.32 o
2 11 0 9.51 9.80 2.05 o
2 11 1 13.77 12.64 2.28 o
2 11 2 66.09 71.62 3.95 o
2 11 3 295.94 292.13 9.20 o
2 11 4 103.79 108.14 5.35 o
2 11 5 618.12 595.38 18.87 o
2 11 6 49.67 43.67 5.30 o
2 11 9 330.45 296.17 24.67 o
2 12 1 109.70 114.21 5.46 o
2 12 2 666.59 673.36 22.77 o
2 12 3 134.42 130.69 6.03 o
2 12 4 76.53 75.06 4.56 o
2 12 5 49.80 45.57 5.72 o
2 12 6 25.55 32.24 3.61 o
2 12 8 91.79 99.57 9.07 o
2 13 0 702.86 679.69 21.29 o
2 13 1 402.72 395.67 15.89 o
2 13 2 31.18 31.07 3.37 o
2 13 3 54.05 56.93 5.13 o
2 13 4 10.57 13.87 2.97 o
2 13 6 92.82 86.72 8.85 o
2 13 7 63.70 53.89 5.38 o
2 13 8 78.05 61.74 12.38 o
2 14 0 69.89 69.73 4.66 o
2 14 1 219.24 232.45 11.50 o
2 14 2 143.20 134.53 8.31 o
2 14 3 178.74 184.99 8.03 o
2 14 4 102.48 104.72 6.27 o
2 14 5 121.65 126.82 8.16 o
2 14 6 146.34 144.95 10.57 o
2 15 1 34.46 38.49 4.60 o
2 15 2 33.16 35.36 3.93 o
2 15 3 166.46 174.36 8.98 o
2 15 5 138.22 135.12 10.89 o
2 15 6 23.46 23.48 5.35 o
2 16 1 48.56 44.21 5.90 o
2 16 2 410.94 400.55 16.14 o
2 16 4 34.75 38.13 5.62 o
2 16 5 34.51 36.70 10.52 o
2 17 0 134.87 135.01 8.39 o
2 17 1 218.54 218.00 11.24 o
2 17 2 47.91 43.75 6.79 o
2 18 0 30.89 21.91 5.00 o
3 0 2 759.33 726.95 19.95 o
3 0 4 303.28 316.41 17.48 o
3 0 6 6.54 13.49 3.27 o
3 0 8 59.52 49.60 13.39 o
3 1 0 25.94 19.89 1.88 o
3 1 1 53.70 51.23 3.38 o
3 1 3 20.06 20.96 2.26 o
3 1 4 957.84 925.30 25.50 o
3 1 5 226.86 235.82 7.91 o
3 1 7 69.93 77.50 6.55 o
3 1 8 42.45 34.24 3.81 o
3 2 0 98.14 102.49 4.10 o
3 2 1 618.59 615.99 15.82 o
3 2 3 119.03 115.80 5.32 o
3 2 4 69.95 67.71 3.82 o
3 2 5 472.35 473.88 14.69 o
3 2 6 122.12 123.85 5.58 o
3 2 7 539.87 546.55 19.26 o
3 2 8 36.65 28.70 3.66 o
3 3 0 273.56 285.23 7.84 o
3 3 1 92.98 87.84 3.62 o
3 3 2 163.02 158.43 6.62 o
3 3 3 770.10 795.24 20.36 o
3 3 4 480.15 475.56 13.39 o
3 4 0 29.40 27.96 2.16 o
3 4 1 97.03 97.53 3.73 o
3 4 2 1220.52 1212.22 32.21 o
3 4 3 728.35 737.19 19.18 o
3 4 4 21.93 21.43 2.64 o
3 4 5 57.66 51.03 3.10 o
3 4 6 22.73 23.23 2.71 o
3 4 9 73.32 63.78 5.67 o
3 5 0 72.91 65.25 3.51 o
3 5 3 7.86 5.16 1.69 o
3 5 4 261.27 270.73 9.84 o
3 5 5 192.58 198.40 7.74 o
3 5 6 212.30 227.92 8.39 o
3 5 7 57.39 55.17 5.26 o
3 5 8 87.06 82.59 5.90 o
3 6 0 734.59 715.27 18.53 o
3 6 2 226.02 215.53 9.24 o
3 6 3 188.23 218.37 7.23 o
3 6 4 106.81 101.07 5.84 o
3 6 5 188.42 203.96 7.29 o
3 6 6 19.33 17.35 2.56 o
3 6 7 153.36 148.81 7.18 o
3 6 8 25.48 27.48 5.22 o
3 6 9 54.92 46.26 8.55 o
3 7 0 166.62 170.94 6.32 o
3 7 1 643.13 651.73 20.10 o
3 7 2 51.16 57.18 3.88 o
3 7 3 265.47 273.70 8.20 o
3 7 4 176.00 171.97 7.96 o
3 7 5 10.91 11.23 2.43 o
3 7 6 36.82 36.96 3.31 o
3 7 7 11.23 13.11 3.83 o
3 8 0 135.64 142.42 6.75 o
3 8 2 192.57 200.43 7.03 o
3 8 3 267.98 292.36 9.17 o
3 8 4 216.54 235.46 11.69 o
3 8 5 79.94 80.31 4.38 o
3 8 6 21.66 23.66 3.56 o
3 8 7 28.54 33.74 3.69 o
3 8 9 125.01 130.34 17.20 o
3 9 0 374.12 387.50 11.00 o
3 9 1 5.67 7.04 2.04 o
3 9 2 77.05 78.58 3.75 o
3 9 4 32.22 35.74 4.66 o
3 9 5 15.49 15.89 2.68 o
3 9 6 823.70 838.69 27.26 o
3 9 8 38.30 27.40 5.34 o
3 10 0 662.06 659.24 22.26 o
3 10 1 23.42 22.65 2.67 o
3 10 2 29.19 29.03 2.90 o
3 10 3 156.96 170.07 7.43 o
3 10 4 98.49 116.24 6.32 o
3 10 5 371.00 377.68 13.85 o
3 10 7 20.98 18.82 3.79 o
3 11 0 19.01 22.47 2.98 o
3 11 1 216.80 231.42 8.43 o
3 11 3 278.22 267.75 11.76 o
3 12 0 267.76 250.25 13.29 o
3 12 3 266.72 264.87 11.33 o
3 12 4 183.90 182.31 10.17 o
3 12 5 18.94 18.20 3.91 o
3 13 0 447.73 437.42 16.03 o
3 13 1 48.10 49.64 5.46 o
3 13 3 65.27 64.22 5.50 o
3 13 5 27.90 23.80 4.30 o
3 13 6 260.66 266.87 16.83 o
3 14 0 76.78 68.20 7.69 o
3 14 1 104.24 91.71 10.54 o
3 14 2 155.88 163.84 13.36 o
3 14 3 324.08 347.09 16.44 o
3 15 0 137.13 147.15 7.87 o
3 15 1 108.36 104.97 7.02 o
3 15 2 125.17 126.90 11.34 o
3 15 3 164.04 162.27 13.00 o
3 16 0 52.81 48.86 5.38 o
4 0 0 121.50 115.40 7.39 o
4 0 2 105.59 96.98 6.71 o
4 0 6 28.34 31.59 6.22 o
4 0 8 228.90 296.22 24.92 o
4 1 0 432.56 444.19 12.91 o
4 1 1 57.25 59.18 3.62 o
4 1 2 173.61 174.58 7.24 o
4 1 3 8.41 8.33 2.41 o
4 1 4 39.59 34.12 3.63 o
4 1 5 34.23 41.37 4.67 o
4 1 6 23.87 22.22 3.39 o
4 1 7 80.11 79.18 9.92 o
4 2 0 74.05 69.25 4.56 o
4 2 3 275.22 279.01 9.29 o
4 2 5 430.88 467.92 16.78 o
4 3 0 376.35 381.33 11.46 o
4 3 2 249.21 252.58 8.81 o
4 3 3 35.62 35.69 3.15 o
4 3 4 106.42 107.39 5.67 o
4 3 5 311.27 329.78 14.19 o
4 3 6 158.80 169.06 8.93 o
4 4 0 64.80 61.88 4.82 o
4 4 1 243.93 248.06 8.90 o
4 4 2 45.91 46.92 3.18 o
4 4 3 12.33 11.36 2.83 o
4 4 4 6.94 11.90 3.11 o
4 4 5 7.91 10.52 3.22 o
4 4 6 61.33 58.24 6.10 o
4 4 7 68.20 67.83 5.70 o
4 5 0 65.33 67.29 4.03 o
4 5 1 35.02 32.04 3.26 o
4 5 2 56.89 57.85 3.57 o
4 5 3 82.45 78.24 5.96 o
4 5 4 469.50 509.36 20.30 o
4 5 5 72.49 82.57 5.36 o
4 5 7 7.02 20.47 5.73 o
4 6 0 283.04 282.43 10.91 o
4 6 1 31.18 29.04 2.78 o
4 6 2 25.94 27.34 2.80 o
4 6 3 216.60 239.20 8.78 o
4 6 5 142.00 150.12 8.47 o
4 6 6 29.88 29.62 5.34 o
4 7 0 59.43 62.64 4.13 o
4 7 1 14.70 14.10 2.57 o
4 7 2 21.28 23.12 3.06 o
4 7 3 99.15 103.17 6.56 o
4 7 6 12.15 15.45 4.27 o
4 8 0 35.62 34.55 3.67 o
4 8 1 520.77 539.39 19.99 o
4 8 2 23.35 22.01 3.04 o
4 8 4 36.80 32.59 4.58 o
4 8 6 82.85 82.48 9.78 o
4 9 0 46.88 39.67 3.80 o
4 9 1 37.89 33.87 3.39 o
4 9 2 54.20 50.88 4.24 o
4 9 3 25.51 20.17 3.55 o
4 9 4 202.71 212.35 13.77 o
4 9 6 129.60 127.23 22.86 o
4 10 1 226.25 239.20 12.68 o
4 10 3 38.76 39.13 5.40 o
4 11 0 22.98 12.43 4.01 o
4 11 3 91.90 87.24 6.71 o
4 12 0 36.20 25.79 4.45 o
4 12 1 247.74 239.97 15.74 o
4 13 0 50.54 34.93 5.09 o
5 0 0 271.81 310.20 14.03 o
5 0 2 83.95 82.31 6.57 o
5 1 0 99.93 99.43 5.38 o
5 1 1 20.82 20.69 3.11 o
5 1 2 37.49 33.16 4.68 o
5 1 3 80.96 90.57 6.15 o
5 2 0 12.30 9.68 2.83 o
5 2 1 93.64 96.67 7.07 o
5 3 0 22.05 23.08 4.47 o
5 3 1 83.19 82.31 5.25 o
5 3 2 91.49 87.60 5.70 o
5 3 3 46.48 47.86 4.84 o
5 4 0 437.52 460.23 16.27 o
5 4 1 78.98 87.64 6.11 o
5 4 2 48.68 42.16 4.89 o
5 5 0 28.60 21.36 4.05 o
5 5 2 12.94 20.39 3.73 o
5 5 3 54.80 65.64 6.24 o
5 7 1 185.40 186.98 14.53 o
5 7 2 68.78 76.15 9.74 o
5 8 0 60.35 55.89 6.83 o
