#------------------------------------------------------------------------------
#$Date: 2016-03-24 02:55:48 +0200 (Thu, 24 Mar 2016) $
#$Revision: 179604 $
#$URL: svn://www.crystallography.net/cod/cif/4/50/68/4506830.cif $
#------------------------------------------------------------------------------
#
# This file is available in the Crystallography Open Database (COD),
# http://www.crystallography.net/
#
# All data on this site have been placed in the public domain by the
# contributors.
#
data_4506830
loop_
_publ_author_name
'Lekin, Kristina'
'Leitch, Alicea A.'
'Tse, John S.'
'Bao, Xuezhao'
'Secco, Richard A.'
'Desgreniers, Serge'
'Ohishi, Yasuo'
'Oakley, Richard T.'
_publ_section_title
;
 A Pressure Induced Structural Dichotomy in Isostructural
 Bis-1,2,3-thiaselenazolyl Radical Dimers
;
_journal_issue                   9
_journal_name_full               'Crystal Growth &amp; Design'
_journal_page_first              4676
_journal_paper_doi               10.1021/cg3009255
_journal_volume                  12
_journal_year                    2012
_chemical_formula_moiety         'C6 H3 F N3 S2 Se2'
_chemical_formula_sum            'C6 H3 F N3 S2 Se2'
_chemical_formula_weight         358.15
_chemical_name_common            FBPTSMe
_chemical_name_systematic        ' ?'
_space_group_IT_number           14
_symmetry_cell_setting           monoclinic
_symmetry_space_group_name_Hall  '-P 2ybc'
_symmetry_space_group_name_H-M   'P 1 21/c 1'
_cell_angle_alpha                90.0
_cell_angle_beta                 79.300(4)
_cell_angle_gamma                90.0
_cell_formula_units_Z            4
_cell_length_a                   4.28423(11)
_cell_length_b                   13.4658(4)
_cell_length_c                   15.8983(17)
_cell_measurement_temperature    293(2)
_cell_volume                     901.23(10)
_computing_structure_refinement  GSAS
_diffrn_ambient_temperature      293(2)
_diffrn_radiation_polarisn_ratio 0.95
_diffrn_radiation_probe          x-ray
_diffrn_radiation_type           synchrotron
_diffrn_radiation_wavelength     0.51446
_diffrn_source                   synchrotron
_diffrn_source_type              'SPring-8 BL10XU'
_exptl_absorpt_correction_T_max  1.00000
_exptl_absorpt_correction_T_min  1.00000
_exptl_absorpt_process_details
;   GSAS Absorption/surface roughness correction: function number 0
 No correction is applied.
;
_exptl_crystal_colour            black
_exptl_crystal_density_diffrn    2.640
_pd_calc_method                  'Rietveld Refinement'
_pd_instr_location               ' ?'
_pd_meas_2theta_range_inc        0.01
_pd_meas_2theta_range_max        25.61
_pd_meas_2theta_range_min        1.0
_pd_meas_number_of_points        2462
_pd_phase_name
'from C:/gsas/MyWork/FBPTSME_001/rto13rt_half_f_rigid_001.cif'
_pd_proc_2theta_range_inc        0.01
_pd_proc_2theta_range_max        25.61012
_pd_proc_2theta_range_min        1.00011
_pd_proc_info_datetime           2011-12-07T11:05:46
_pd_proc_info_excluded_regions   ' ?'
_pd_proc_ls_background_function
;   GSAS Background function number 1 with  6 terms.
 Shifted Chebyshev function of 1st kind
      1:    18691.0     2:    10794.1     3:   -155.058     4:   -21.3445    
      5:   -49.5837     6:   -51.9915    
;
_pd_proc_ls_peak_cutoff          0.00100
_pd_proc_ls_profile_function
;
 CW Profile function number 2 with  18 terms
 Profile coefficients for Simpson's rule integration of pseudovoigt function
 C.J. Howard (1982). J. Appl. Cryst.,15,615-620.
 P. Thompson, D.E. Cox & J.B. Hastings (1987). J. Appl. Cryst.,20,79-83.
 Peak tails are ignored  where the intensity is below 0.0010 times the peak
   Aniso. broadening axis   0.0   0.0   1.0
;
_pd_proc_ls_prof_R_factor        0.0086
_pd_proc_ls_prof_wR_expected     0.0070
_pd_proc_ls_prof_wR_factor       0.0130
_pd_proc_number_of_points        2462
_pd_spec_mounting                ' ?'
_refine_ls_goodness_of_fit_all   1.85
_refine_ls_matrix_type           full
_refine_ls_number_parameters     1
_refine_ls_number_restraints     0
_refine_ls_R_Fsqd_factor         0.19006
_refine_ls_shift/su_max          0.00
_refine_ls_shift/su_mean         0.00
_reflns_d_resolution_high        1.839
_reflns_d_resolution_low         7.811
_reflns_limit_h_max              2
_reflns_limit_h_min              0
_reflns_limit_k_max              7
_reflns_limit_k_min              0
_reflns_limit_l_max              8
_reflns_limit_l_min              -7
_reflns_number_total             154
_cod_data_source_file            cg3009255_si_002.cif
_cod_data_source_block           FBPTSMe_0.00GPa
_cod_depositor_comments
;
The following automatic conversions were performed:

'_geom_bond_publ_flag' value 'N' changed to 'n' according to
/home/saulius/struct/CIF-dictionaries/cif_core.dic dictionary named
'cif_core.dic' version 2.4.2 from 2011-04-26 (19
times).

'_geom_angle_publ_flag' value 'N' changed to 'n' according
to /home/saulius/struct/CIF-dictionaries/cif_core.dic dictionary
named 'cif_core.dic' version 2.4.2 from 2011-04-26 (29 times).

Automatic conversion script
Id: cif_fix_values 1891 2012-01-12 08:04:46Z andrius 
;
_cod_original_cell_volume        901.24(9)
_cod_original_sg_symbol_H-M      'P 21/c'
_cod_database_code               4506830
#BEGIN Tags that were not found in dictionaries:
_gsas_exptl_extinct_corr_t_min   1.00000
_gsas_exptl_extinct_corr_t_max   1.00000
#END Tags that were not found in dictionaries
loop_
_symmetry_equiv_pos_site_id
_symmetry_equiv_pos_as_xyz
1 +x,+y,+z
2 -x,+y+1/2,-z+1/2
-1 -x,-y,-z
-2 +x,-y+1/2,+z+1/2
loop_
_atom_site_type_symbol
_atom_site_label
_atom_site_fract_x
_atom_site_fract_y
_atom_site_fract_z
_atom_site_occupancy
_atom_site_thermal_displace_type
_atom_site_U_iso_or_equiv
_atom_site_symmetry_multiplicity
Se Se1 -0.42755 -0.01674 0.38308 1.0 Uiso 0.025 4
Se Se2 0.56463 0.4686 0.4249 1.0 Uiso 0.025 4
S S1 -0.14403 0.04665 0.26309 1.0 Uiso 0.025 4
S S2 0.62654 0.36527 0.27098 1.0 Uiso 0.025 4
N N1 -0.29903 0.08074 0.44853 1.0 Uiso 0.025 4
N N2 0.00086 0.22502 0.45033 1.0 Uiso 0.025 4
N N3 0.29285 0.36686 0.45964 1.0 Uiso 0.025 4
C C1 0.0033 0.14322 0.31544 1.0 Uiso 0.025 4
C C2 -0.10701 0.14722 0.4071 1.0 Uiso 0.025 4
C C3 0.2199 0.29726 0.41023 1.0 Uiso 0.025 4
C C4 0.33734 0.28657 0.31782 1.0 Uiso 0.025 4
C C5 0.21272 0.2116 0.27392 1.0 Uiso 0.025 4
C C6 -0.11644 0.23527 0.5429 1.0 Uiso 0.025 4
H H6A -0.0174 0.29162 0.56402 1.0 Uiso 0.025 4
H H6B -0.06626 0.17635 0.57167 1.0 Uiso 0.025 4
H H6C -0.34261 0.24459 0.5535 1.0 Uiso 0.025 4
F F1 0.30109 0.20608 0.18803 1.0 Uiso 0.025 4
loop_
_atom_type_symbol
_atom_type_number_in_cell
_atom_type_scat_dispersion_real
_atom_type_scat_dispersion_imag
_atom_type_scat_Cromer_Mann_a1
_atom_type_scat_Cromer_Mann_a2
_atom_type_scat_Cromer_Mann_a3
_atom_type_scat_Cromer_Mann_a4
_atom_type_scat_Cromer_Mann_b1
_atom_type_scat_Cromer_Mann_b2
_atom_type_scat_Cromer_Mann_b3
_atom_type_scat_Cromer_Mann_b4
_atom_type_scat_Cromer_Mann_c
_atom_type_scat_source
Se 8.0 0.000 0.000 17.0006 2.40980 5.81960 0.27260 3.97310 15.2372 4.35430
43.8163 2.84090 International_Tables_Vol_C
S 8.0 0.000 0.000 6.90530 1.46790 5.20340 22.2151 1.43790 0.25360 1.58630
56.1720 0.86690 International_Tables_Vol_C
N 12.0 0.000 0.000 12.2126 0.00570 3.13220 9.89330 2.01250 28.9975 1.16630
0.58260 -11.529 International_Tables_Vol_C
C 24.0 0.000 0.000 2.31000 20.8439 1.02000 10.2075 1.58860 0.56870 0.86500
51.6512 0.21560 International_Tables_Vol_C
H 12.0 0.000 0.000 0.49300 10.5109 0.32291 26.1257 0.14019 3.14236 0.04081
57.7997 0.00304 International_Tables_Vol_C
F 4.0 0.000 0.000 3.53920 10.2825 2.64120 4.29440 1.51700 0.26150 1.02430
26.1476 0.27760 International_Tables_Vol_C
loop_
_geom_angle_atom_site_label_1
_geom_angle_atom_site_label_2
_geom_angle_atom_site_label_3
_geom_angle
_geom_angle_site_symmetry_1
_geom_angle_site_symmetry_3
_geom_angle_publ_flag
S1 Se1 N1 92.198 1_555 1_555 n
Se2 Se2 N3 87.066 -1_666 1_555 n
Se1 S1 C1 93.769 1_555 1_555 n
Se1 N1 C2 115.713 1_555 1_555 n
C2 N2 C3 123.512 1_555 1_555 n
C2 N2 C6 119.0911 1_555 1_555 n
C3 N2 C6 117.3954 1_555 1_555 n
Se2 N3 C3 124.994 1_555 1_555 n
S1 C1 C2 115.6878 1_555 1_555 n
S1 C1 C5 122.739 1_555 1_555 n
C2 C1 C5 121.5711 1_555 1_555 n
N1 C2 N2 120.442 1_555 1_555 n
N1 C2 C1 122.6096 1_555 1_555 n
N2 C2 C1 116.9481 1_555 1_555 n
N2 C3 N3 115.905 1_555 1_555 n
N2 C3 C4 117.2305 1_555 1_555 n
N3 C3 C4 126.8610 1_555 1_555 n
S2 C4 C3 117.7141 1_555 1_555 n
S2 C4 C5 123.483 1_555 1_555 n
C3 C4 C5 118.7826 1_555 1_555 n
C1 C5 C4 121.731 1_555 1_555 n
C1 C5 F1 119.1529 1_555 1_555 n
C4 C5 F1 119.1158 1_555 1_555 n
N2 C6 H6C 109.513 1_555 1_555 n
N2 C6 H6A 109.4577 1_555 1_555 n
N2 C6 H6B 109.518 1_555 1_555 n
H6C C6 H6A 109.4148 1_555 1_555 n
H6C C6 H6B 109.4090 1_555 1_555 n
H6A C6 H6B 109.514 1_555 1_555 n
loop_
_geom_bond_atom_site_label_1
_geom_bond_atom_site_label_2
_geom_bond_distance
_geom_bond_site_symmetry_2
_geom_bond_publ_flag
Se1 S1 2.23220 1_555 n
Se1 N1 1.82255 1_555 n
Se2 S2 2.78452 1_555 n
Se2 N3 1.81630 1_555 n
S1 C1 1.72545 1_555 n
S2 C4 1.69415 1_555 n
N1 C2 1.30798 1_555 n
N2 C2 1.37892 1_555 n
N2 C3 1.41817 1_555 n
N2 C6 1.47068 1_555 n
N3 C3 1.29780 1_555 n
C1 C2 1.44709 1_555 n
C1 C5 1.36699 1_555 n
C3 C4 1.46896 1_555 n
C4 C5 1.38913 1_555 n
C5 F1 1.34963 1_555 n
C6 H6C 0.960420 1_555 n
C6 H6A 0.959930 1_555 n
C6 H6B 0.959910 1_555 n
loop_
_pd_meas_counts_total
_pd_proc_ls_weight
_pd_proc_intensity_bkg_calc
_pd_calc_intensity_total
1297.0 0.0 4468.09424 .
1305.0 0.0 4475.10352 .
1308.0 0.0 4482.18506 .
1306.0 0.0 4489.33740 .
1310.0 0.0 4496.55859 .
1314.0 0.0 4503.85059 .
1310.0 0.0 4511.21289 .
1313.0 0.0 4518.64404 .
1315.0 0.0 4526.14355 .
1319.0 0.0 4533.71338 .
1321.0 0.0 4541.35107 .
1323.0 0.0 4549.05615 .
1321.0 0.0 4556.83008 .
1336.0 0.0 4564.67188 .
1335.0 0.0 4572.57910 .
1336.0 0.0 4580.55518 .
1337.0 0.0 4588.59717 .
1344.0 0.0 4596.70508 .
1347.0 0.0 4604.87939 .
1348.0 0.0 4613.11963 .
1341.0 0.0 4621.42578 .
1349.0 0.0 4629.79590 .
1360.0 0.0 4638.23145 .
1367.0 0.0 4646.73242 .
1370.0 0.0 4655.29639 .
1376.0 0.0 4663.92529 .
1378.0 0.0 4672.61719 .
1384.0 0.0 4681.37207 .
1393.0 0.0 4690.19141 .
1390.0 0.0 4699.07324 .
1399.0 0.0 4708.01660 .
1401.0 0.0 4717.02295 .
1405.0 0.0 4726.09131 .
1410.0 0.0 4735.22168 .
1416.0 0.0 4744.41211 .
1410.0 0.0 4753.66406 .
1419.0 0.0 4762.97803 .
1426.0 0.0 4772.35059 .
1440.0 0.0 4781.78467 .
1442.0 0.0 4791.27881 .
1447.0 0.0 4800.83154 .
1450.0 0.0 4810.44434 .
1461.0 0.0 4820.11670 .
1468.0 0.0 4829.84619 .
1473.0 0.0 4839.63623 .
1472.0 0.0 4849.48389 .
1470.0 0.0 4859.38867 .
1472.0 0.0 4869.35205 .
1479.0 0.0 4879.37354 .
1489.0 0.0 4889.45117 .
1491.0 0.0 4899.58496 .
1503.0 0.0 4909.77637 .
1513.0 0.0 4920.02441 .
1517.0 0.0 4930.32666 .
1516.0 0.0 4940.68701 .
1523.0 0.0 4951.10254 .
1530.0 0.0 4961.57178 .
1538.0 0.0 4972.09717 .
1547.0 0.0 4982.67725 .
1551.0 0.0 4993.31104 .
1564.0 0.0 5003.99951 .
1570.0 0.0 5014.74268 .
1569.0 0.0 5025.53760 .
1577.0 0.0 5036.38721 .
1588.0 0.0 5047.29053 .
1591.0 0.0 5058.24609 .
1586.0 0.0 5069.25391 .
1596.0 0.0 5080.31396 .
1611.0 0.0 5091.42676 .
1616.0 0.0 5102.59033 .
1630.0 0.0 5113.80566 .
1638.0 0.0 5125.07422 .
1642.0 0.0 5136.39111 .
1646.0 0.0 5147.76025 .
1646.0 0.0 5159.17969 .
1652.0 0.0 5170.64844 .
1666.0 0.0 5182.16846 .
1671.0 0.0 5193.73877 .
1678.0 0.0 5205.35645 .
1688.0 0.0 5217.02539 .
1697.0 0.0 5228.74170 .
1711.0 0.0 5240.50879 .
1718.0 0.0 5252.32178 .
1728.0 0.0 5264.18506 .
1732.0 0.0 5276.09619 .
1730.0 0.0 5288.05420 .
1736.0 0.0 5300.06006 .
1751.0 0.0 5312.11426 .
1762.0 0.0 5324.21240 .
1769.0 0.0 5336.35986 .
1780.0 0.0 5348.55371 .
1789.0 0.0 5360.79297 .
1799.0 0.0 5373.07910 .
1810.0 0.0 5385.41113 .
1822.0 0.0 5397.78809 .
1825.0 0.0 5410.20996 .
1843.0 0.0 5422.67725 .
1855.0 0.0 5435.18994 .
1866.0 0.0 5447.74658 .
1873.0 0.0 5460.34863 .
1879.0 0.0 5472.99365 .
1887.0 0.0 5485.68262 .
1900.0 0.0 5498.41553 .
1913.0 0.0 5511.19141 .
1917.0 0.0 5524.01025 .
1929.0 0.0 5536.87402 .
1946.0 0.0 5549.77930 .
1946.0 0.0 5562.72607 .
1950.0 0.0 5575.71582 .
1966.0 0.0 5588.74756 .
1988.0 0.0 5601.82227 .
1995.0 0.0 5614.93652 .
1998.0 0.0 5628.09326 .
2010.0 0.0 5641.29102 .
2020.0 0.0 5654.53027 .
2030.0 0.0 5667.80859 .
2051.0 0.0 5681.12939 .
2064.0 0.0 5694.48877 .
2076.0 0.0 5707.88770 .
2084.0 0.0 5721.32715 .
2093.0 0.0 5734.80713 .
2114.0 0.0 5748.32471 .
2129.0 0.0 5761.88232 .
2149.0 0.0 5775.47852 .
2156.0 0.0 5789.11279 .
2156.0 0.0 5802.78613 .
2171.0 0.0 5816.49854 .
2185.0 0.0 5830.24707 .
2196.0 0.0 5844.03516 .
2213.0 0.0 5857.86035 .
2226.0 0.0 5871.72168 .
2240.0 0.0 5885.62061 .
2258.0 0.0 5899.55811 .
2277.0 0.0 5913.52930 .
2293.0 0.0 5927.53955 .
2321.0 0.0 5941.58496 .
2352.0 0.0 5955.66650 .
2380.0 0.0 5969.78418 .
2412.0 0.0 5983.93799 .
2441.0 0.0 5998.12695 .
2481.0 0.0 6012.35010 .
2512.0 0.0 6026.60889 .
2544.0 0.0 6040.90332 .
2583.0 0.0 6055.23193 .
2624.0 0.0 6069.59326 .
2669.0 0.0 6083.99072 .
2718.0 0.0 6098.42139 .
2762.0 0.0 6112.88574 .
2820.0 0.0 6127.38428 .
2876.0 0.0 6141.91602 .
2932.0 0.0 6156.47949 .
2987.0 0.0 6171.07764 .
3051.0 0.0 6185.70898 .
3108.0 0.0 6200.37061 .
3164.0 0.0 6215.06592 .
3218.0 0.0 6229.79395 .
3278.0 0.0 6244.55273 .
3345.0 0.0 6259.34375 .
3409.0 0.0 6274.16748 .
3467.0 0.0 6289.02051 .
3525.0 0.0 6303.90625 .
3592.0 0.0 6318.82275 .
3652.0 0.0 6333.76953 .
3710.0 0.0 6348.74707 .
3772.0 0.0 6363.75537 .
3836.0 0.0 6378.79443 .
3914.0 0.0 6393.86133 .
3978.0 0.0 6408.96045 .
4031.0 0.0 6424.08789 .
4109.0 0.0 6439.24463 .
4191.0 0.0 6454.43213 .
4270.0 0.0 6469.64795 .
4334.0 0.0 6484.89160 .
4418.0 0.0 6500.16504 .
4509.0 0.0 6515.46680 .
4599.0 0.0 6530.79785 .
4680.0 0.0 6546.15479 .
4740.0 0.0 6561.54199 .
4809.0 0.0 6576.95557 .
4896.0 0.0 6592.39600 .
4967.0 0.0 6607.86523 .
5045.0 0.0 6623.36133 .
5137.0 0.0 6638.88379 .
5212.0 0.0 6654.43457 .
5290.0 0.0 6670.01172 .
5343.0 0.0 6685.61426 .
5382.0 0.0 6701.24365 .
5438.0 0.0 6716.90039 .
5509.0 0.0 6732.58154 .
5575.0 0.0 6748.28857 .
5624.0 0.0 6764.02197 .
5673.0 0.0 6779.78076 .
5729.0 0.0 6795.56396 .
5785.0 0.0 6811.37354 .
5831.0 0.0 6827.20752 .
5867.0 0.0 6843.06543 .
5920.0 0.0 6858.94873 .
5967.0 0.0 6874.85693 .
6031.0 0.0 6890.78711 .
6083.0 0.0 6906.74414 .
6126.0 0.0 6922.72412 .
6167.0 0.0 6938.72656 .
6222.0 0.0 6954.75439 .
6268.0 0.0 6970.80469 .
6313.0 0.0 6986.87891 .
6351.0 0.0 7002.97510 .
6388.0 0.0 7019.09473 .
6421.0 0.0 7035.23730 .
6460.0 0.0 7051.40088 .
6508.0 0.0 7067.58838 .
6556.0 0.0 7083.79883 .
6582.0 0.0 7100.02979 .
6611.0 0.0 7116.28369 .
6643.0 0.0 7132.55908 .
6655.0 0.0 7148.85645 .
6690.0 0.0 7165.17334 .
6710.0 0.0 7181.51318 .
6749.0 0.0 7197.87451 .
6786.0 0.0 7214.25488 .
6816.0 0.0 7230.65771 .
6847.0 0.0 7247.08154 .
6872.0 0.0 7263.52344 .
6899.0 0.0 7279.98779 .
6930.0 0.0 7296.47266 .
6956.0 0.0 7312.97559 .
6972.0 0.0 7329.49902 .
7004.0 0.0 7346.04346 .
7035.0 0.0 7362.60547 .
7053.0 0.0 7379.18896 .
7086.0 0.0 7395.79004 .
7103.0 0.0 7412.41064 .
7125.0 0.0 7429.05029 .
7153.0 0.0 7445.70947 .
7175.0 0.0 7462.38525 .
7206.0 0.0 7479.08154 .
7235.0 0.0 7495.79590 .
7266.0 0.0 7512.52881 .
7291.0 0.0 7529.27783 .
7313.0 0.0 7546.04639 .
7339.0 0.0 7562.83203 .
7360.0 0.0 7579.63623 .
7389.0 0.0 7596.45605 .
7412.0 0.0 7613.29541 .
7428.0 0.0 7630.15088 .
7454.0 0.0 7647.02197 .
7483.0 0.0 7663.91211 .
7505.0 0.0 7680.81885 .
7536.0 0.0 7697.74072 .
7559.0 0.0 7714.67969 .
7585.0 0.0 7731.63623 .
7621.0 0.0 7748.60645 .
7633.0 0.0001310 7765.59521 7769.84326
7650.0 0.0001307 7782.59766 7786.95605
7670.0 0.0001304 7799.61768 7804.09180
7706.0 0.0001298 7816.65234 7821.24756
7730.0 0.0001294 7833.70313 7838.42578
7753.0 0.0001290 7850.76953 7855.62549
7768.0 0.0001287 7867.85010 7872.84717
7784.0 0.0001285 7884.94580 7890.09277
7809.0 0.0001281 7902.05762 7907.36328
7840.0 0.0001276 7919.18311 7924.65869
7859.0 0.0001272 7936.32422 7941.98193
7894.0 0.0001267 7953.47900 7959.33252
7919.0 0.0001263 7970.64941 7976.71631
7927.0 0.0001262 7987.83252 7994.13232
7952.0 0.0001258 8005.03076 8011.58984
7976.0 0.0001254 8022.24268 8029.09229
7990.0 0.0001252 8039.46973 8046.65283
8020.0 0.0001247 8056.70947 8064.28760
8050.0 0.0001242 8073.96191 8082.03516
8073.0 0.0001239 8091.22900 8099.97168
8092.0 0.0001236 8108.50977 8118.23096
8132.0 0.0001230 8125.80225 8137.02002
8158.0 0.0001226 8143.10938 8156.59326
8171.0 0.0001224 8160.42871 8177.13965
8202.0 0.0001219 8177.76172 8198.60352
8228.0 0.0001215 8195.10742 8220.35742
8266.0 0.0001210 8212.46484 8240.82715
8296.0 0.0001205 8229.83496 8258.20898
8291.0 0.0001206 8247.21875 8272.71191
8293.0 0.0001206 8264.61328 8286.24512
8310.0 0.0001203 8282.01855 8300.22852
8331.0 0.0001200 8299.43945 8315.17578
8361.0 0.0001196 8316.87012 8331.08398
8374.0 0.0001194 8334.31250 8347.74414
8400.0 0.0001190 8351.76855 8364.91211
8436.0 0.0001185 8369.23242 8382.38770
8441.0 0.0001185 8386.71191 8400.05566
8459.0 0.0001182 8404.20020 8417.84570
8478.0 0.0001180 8421.70020 8435.73047
8511.0 0.0001175 8439.21094 8453.69434
8526.0 0.0001173 8456.73242 8471.73047
8531.0 0.0001172 8474.26563 8489.83789
8555.0 0.0001169 8491.80859 8508.01367
8581.0 0.0001165 8509.36426 8526.26270
8604.0 0.0001162 8526.92871 8544.58301
8617.0 0.0001160 8544.50195 8562.97852
8639.0 0.0001158 8562.08691 8581.45801
8662.0 0.0001154 8579.68262 8600.02441
8687.0 0.0001151 8597.28809 8618.68457
8719.0 0.0001147 8614.90234 8666.33984
8740.0 0.0001144 8632.52930 8686.79590
8754.0 0.0001142 8650.16211 8707.50586
8765.0 0.0001141 8667.80664 8728.50098
8790.0 0.0001138 8685.46094 8749.81348
8810.0 0.0001135 8703.12402 8771.47949
8838.0 0.0001131 8720.79688 8794.09570
8885.0 0.0001125 8738.47754 8816.62500
8911.0 0.0001122 8756.16797 8839.66602
8939.0 0.0001119 8773.86816 8863.28809
8954.0 0.0001117 8791.57520 8887.57520
8969.0 0.0001115 8809.29199 8912.62500
8991.0 0.0001112 8827.01660 8938.56055
9019.0 0.0001109 8844.75293 8965.52832
9046.0 0.0001105 8862.49414 8993.69434
9057.0 0.0001104 8880.24414 9023.28125
9082.0 0.0001101 8898.00391 9054.54883
9113.0 0.0001097 8915.77051 9087.82813
9146.0 0.0001093 8933.54492 9123.53223
9167.0 0.0001091 8951.32813 9162.18359
9196.0 0.0001087 8969.11914 9204.46094
9223.0 0.0001084 8986.91797 9251.23633
9268.0 0.0001079 9004.72168 9303.66699
9307.0 0.0001074 9022.53711 9363.32227
9350.0 0.0001070 9040.35645 9432.36621
9414.0 0.0001062 9058.18457 9513.97168
9498.0 0.0001053 9076.01855 9613.06055
9593.0 0.0001042 9093.86133 9737.79395
9725.0 0.0001028 9111.71191 9902.13770
9926.0 0.0001007 9129.56738 10129.80859
10221.0 0.0000978 9147.43066 10460.74023
10694.0 0.0000935 9165.29785 10969.16699
11562.0 0.0000865 9183.17578 11829.43457
13174.0 0.0000759 9201.05664 13488.11133
16426.0 0.0000609 9218.94629 16863.19141
22496.0 0.0000445 9236.84180 23056.24609
31623.0 0.00003162 9254.74414 31992.20508
41744.0 0.00002396 9272.65039 40750.17188
46237.0 0.00002163 9290.56445 43715.88281
38098.0 0.00002625 9308.48242 38010.94922
26423.0 0.0000378 9326.41016 28226.03320
18784.0 0.0000532 9344.33887 19726.35938
14759.0 0.0000678 9362.27734 14517.47754
12683.0 0.0000788 9380.21875 12033.40332
11570.0 0.0000864 9398.16797 11002.67773
10936.0 0.0000914 9416.12012 10556.59473
10541.0 0.0000949 9434.07813 10320.55078
10293.0 0.0000972 9452.04199 10170.26953
10142.0 0.0000986 9470.01172 10065.71094
10044.0 0.0000996 9487.98340 9990.49609
9973.0 0.0001003 9505.96289 9935.74609
9917.0 0.0001008 9523.94824 9895.87207
9894.0 0.0001011 9541.93555 9867.11230
9891.0 0.0001011 9559.92969 9846.84082
9889.0 0.0001011 9577.92480 9833.16797
9886.0 0.0001012 9595.92676 9824.71191
9876.0 0.0001013 9613.93359 9820.44238
9888.0 0.0001011 9631.94434 9819.57520
9900.0 0.0001010 9649.96094 9821.52148
9925.0 0.0001008 9667.98047 9825.82129
9952.0 0.0001005 9686.00293 9832.12793
9975.0 0.0001003 9704.03125 9840.17773
9991.0 0.0001001 9722.06152 9849.77734
10000.0 0.0001000 9740.09766 9860.79688
10015.0 0.0000999 9758.13672 9873.16211
10024.0 0.0000998 9776.17871 9886.86914
10046.0 0.0000995 9794.22461 9901.99512
10074.0 0.0000993 9812.27441 9918.75391
10103.0 0.0000990 9830.32813 9937.64941
10118.0 0.0000988 9848.38379 9959.93164
10145.0 0.0000986 9866.44434 9988.37500
10157.0 0.0000985 9884.50879 10028.52539
10180.0 0.0000982 9902.57324 10089.27637
10213.0 0.0000979 9920.64355 10180.90430
10301.0 0.0000971 9938.71484 10308.94043
10437.0 0.0000958 9956.79004 10464.02930
10673.0 0.0000937 9974.86914 10607.49316
10812.0 0.0000925 9992.94922 10668.74219
10732.0 0.0000932 10011.03418 10612.36914
10542.0 0.0000949 10029.11914 10491.87305
10408.0 0.0000961 10047.20801 10372.73242
10339.0 0.0000967 10065.29785 10284.92285
10294.0 0.0000971 10083.39258 10232.94336
10276.0 0.0000973 10101.48828 10209.25000
10273.0 0.0000973 10119.58594 10203.46484
10282.0 0.0000973 10137.68750 10207.41992
10300.0 0.0000971 10155.79004 10216.29199
10293.0 0.0000972 10173.89258 10227.71777
10307.0 0.0000970 10191.99902 10241.97266
10319.0 0.0000969 10210.10645 10255.90918
10321.0 0.0000969 10228.21777 10270.56055
10343.0 0.0000967 10246.32813 10285.75195
10373.0 0.0000964 10264.44336 10301.36719
10390.0 0.0000962 10282.55762 10317.31250
10399.0 0.0000962 10300.67578 10335.10938
10424.0 0.0000959 10318.79297 10351.57227
10449.0 0.0000957 10336.91113 10368.21875
10468.0 0.0000955 10355.03223 10385.02246
10471.0 0.0000955 10373.15527 10401.95898
10490.0 0.0000953 10391.27832 10419.00781
10504.0 0.0000952 10409.40332 10436.15527
10520.0 0.0000951 10427.53027 10453.39063
10543.0 0.0000948 10445.65527 10470.69922
10557.0 0.0000947 10463.78418 10488.08008
10564.0 0.0000947 10481.91016 10505.51660
10592.0 0.0000944 10500.04004 10523.01270
10609.0 0.0000943 10518.17090 10540.55762
10636.0 0.0000940 10536.30176 10558.14746
10642.0 0.0000940 10554.43457 10575.78320
10657.0 0.0000938 10572.56641 10593.45410
10674.0 0.0000937 10590.69922 10611.16211
10682.0 0.0000936 10608.83105 10628.90234
10703.0 0.0000934 10626.96289 10646.67285
10714.0 0.0000933 10645.09863 10664.47754
10724.0 0.0000932 10663.23242 10682.30469
10748.0 0.0000930 10681.36719 10700.16309
10770.0 0.0000929 10699.50195 10718.04590
10787.0 0.0000927 10717.63574 10735.95020
10805.0 0.0000925 10735.77051 10753.87891
10831.0 0.0000923 10753.90527 10771.83301
10840.0 0.0000923 10772.04004 10789.80664
10854.0 0.0000921 10790.17383 10807.80078
10864.0 0.0000920 10808.30859 10825.81738
10891.0 0.0000918 10826.44434 10843.85645
10905.0 0.0000917 10844.57617 10861.91113
10924.0 0.0000915 10862.71094 10879.99121
10934.0 0.0000915 10880.84375 10898.08887
10960.0 0.0000912 10898.97656 10907.34473
10967.0 0.0000912 10917.10840 10925.67969
10961.0 0.0000912 10935.23926 10944.02832
10986.0 0.0000910 10953.37207 10962.39551
10999.0 0.0000909 10971.50195 10980.77734
11018.0 0.0000908 10989.63184 10999.17676
11042.0 0.0000906 11007.76074 11017.59668
11062.0 0.0000904 11025.88965 11036.03613
11082.0 0.0000902 11044.01660 11054.49512
11107.0 0.0000900 11062.14355 11072.97949
11117.0 0.0000900 11080.26758 11091.48730
11139.0 0.0000898 11098.39258 11110.02344
11152.0 0.0000897 11116.51563 11128.58887
11172.0 0.0000895 11134.63867 11147.18848
11189.0 0.0000894 11152.75879 11165.82129
11191.0 0.0000894 11170.87891 11184.49316
11192.0 0.0000893 11188.99805 11203.20996
11207.0 0.0000892 11207.11621 11221.97461
11247.0 0.0000889 11225.23047 11240.79004
11261.0 0.0000888 11243.34570 11259.66602
11280.0 0.0000887 11261.45898 11278.60742
11291.0 0.0000886 11279.57227 11297.08008
11300.0 0.0000885 11297.67969 11316.19238
11324.0 0.0000883 11315.78906 11335.40234
11351.0 0.0000881 11333.89746 11354.72070
11371.0 0.0000879 11352.00098 11374.15918
11379.0 0.0000879 11370.10645 11393.74219
11381.0 0.0000879 11388.20605 11413.48535
11385.0 0.0000878 11406.30762 11433.42285
11414.0 0.0000876 11424.40527 11453.58203
11425.0 0.0000875 11442.50195 11474.00488
11460.0 0.0000873 11460.59668 11494.74023
11484.0 0.0000871 11478.68945 11515.84961
11502.0 0.0000869 11496.78027 11537.41113
11523.0 0.0000868 11514.86816 11559.52246
11543.0 0.0000866 11532.95313 11582.31055
11562.0 0.0000865 11551.03906 11605.94824
11576.0 0.0000864 11569.12012 11630.64844
11598.0 0.0000862 11587.20020 11656.71973
11606.0 0.0000862 11605.27734 11684.58691
11623.0 0.0000860 11623.35352 11714.90332
11661.0 0.0000858 11641.42676 11748.76953
11699.0 0.0000855 11659.49805 11788.23047
11726.0 0.0000853 11677.56543 11837.20508
11761.0 0.0000850 11695.63184 11902.88770
11814.0 0.0000846 11713.69434 11997.00781
11898.0 0.0000840 11731.75684 12135.56055
12045.0 0.0000830 11749.81348 12335.10449
12286.0 0.0000814 11767.87012 12604.56836
12703.0 0.0000787 11785.92480 12931.28711
13336.0 0.0000750 11803.97363 13257.06836
13857.0 0.0000722 11822.02148 13458.91113
13756.0 0.0000727 11840.06641 13423.09473
13180.0 0.0000759 11858.10840 13187.83887
12661.0 0.0000790 11876.14941 12889.72070
12358.0 0.0000809 11894.18555 12624.02246
12245.0 0.0000817 11912.21875 12425.24219
12200.0 0.0000820 11930.25000 12294.35840
12184.0 0.0000821 11948.27930 12217.82227
12173.0 0.0000821 11966.30371 12178.66602
12100.0 0.0000826 11984.32520 12162.66016
12070.0 0.0000829 12002.34473 12160.29102
12040.0 0.0000831 12020.36133 12166.14063
12035.0 0.0000831 12038.37402 12177.44336
12061.0 0.0000829 12056.38379 12192.89258
12089.0 0.0000827 12074.39160 12211.92969
12107.0 0.0000826 12092.39355 12234.42383
12115.0 0.0000825 12110.39453 12260.57324
12123.0 0.0000825 12128.39160 12290.93164
12151.0 0.0000823 12146.38672 12326.59961
12192.0 0.0000820 12164.37598 12369.64648
12225.0 0.0000818 12182.36426 12423.92773
12282.0 0.0000814 12200.34668 12496.32227
12346.0 0.0000810 12218.32910 12598.12695
12438.0 0.0000804 12236.30762 12745.61523
12576.0 0.0000795 12254.28027 12958.36035
12820.0 0.0000780 12272.25000 13254.55273
13238.0 0.0000755 12290.21582 13638.72168
14005.0 0.0000714 12308.18066 14087.53223
15128.0 0.0000661 12326.13965 14516.31934
15891.0 0.0000629 12344.09668 14763.99219
15450.0 0.0000647 12362.04980 14696.58105
14352.0 0.0000697 12379.99902 14367.14648
13517.0 0.0000740 12397.94336 13954.99316
13034.0 0.0000767 12415.88672 13567.75488
12787.0 0.0000782 12433.82324 13262.64844
12657.0 0.0000790 12451.75879 13045.44336
12599.0 0.0000794 12469.68848 12902.56445
12580.0 0.0000795 12487.61621 12814.50684
12569.0 0.0000796 12505.54004 12762.92676
12566.0 0.0000796 12523.45996 12734.01465
12565.0 0.0000796 12541.37402 12718.80957
12571.0 0.0000795 12559.28711 12712.06934
12569.0 0.0000796 12577.19531 12710.85059
12580.0 0.0000795 12595.09863 12713.48828
12585.0 0.0000795 12612.99805 12718.96875
12605.0 0.0000793 12630.89746 12726.63281
12629.0 0.0000792 12648.78711 12736.00098
12631.0 0.0000792 12666.67578 12746.73633
12641.0 0.0000791 12684.56055 12758.57129
12651.0 0.0000790 12702.44141 12771.30859
12678.0 0.0000789 12720.31738 12784.78809
12697.0 0.0000788 12738.19043 12798.88770
12715.0 0.0000786 12756.05762 12813.50781
12725.0 0.0000786 12773.92285 12828.57129
12730.0 0.0000786 12791.78320 12844.01465
12763.0 0.0000784 12809.63965 12859.78418
12784.0 0.0000782 12827.49121 12875.83887
12788.0 0.0000782 12845.33984 12892.14258
12815.0 0.0000780 12863.18457 12908.66699
12828.0 0.0000780 12881.02246 12925.38672
12843.0 0.0000779 12898.85742 12942.28320
12872.0 0.0000777 12916.68848 12959.33984
12886.0 0.0000776 12934.51660 12976.54492
12906.0 0.0000775 12952.33789 12999.19922
12918.0 0.0000774 12970.15723 13016.85840
12930.0 0.0000773 12987.97168 13034.56445
12948.0 0.0000772 13005.78223 13052.38672
12963.0 0.0000771 13023.58789 13070.31738
12981.0 0.0000770 13041.38965 13088.35840
12988.0 0.0000770 13059.18555 13106.50293
13004.0 0.0000769 13076.97852 13124.75293
13027.0 0.0000768 13094.76563 13143.10547
13053.0 0.0000766 13112.54980 13161.56445
13083.0 0.0000764 13130.33105 13180.12988
13092.0 0.0000764 13148.10547 13198.80566
13102.0 0.0000763 13165.87793 13217.59277
13133.0 0.0000761 13183.64258 13236.49805
13152.0 0.0000760 13201.40430 13255.52344
13170.0 0.0000759 13219.16211 13274.68164
13180.0 0.0000759 13236.91602 13293.97461
13209.0 0.0000757 13254.66602 13313.41504
13218.0 0.0000757 13272.41016 13333.00977
13236.0 0.0000756 13290.14941 13352.77637
13259.0 0.0000754 13307.88477 13372.72461
13280.0 0.0000753 13325.61426 13392.87012
13310.0 0.0000751 13343.34180 13413.24121
13314.0 0.0000751 13361.06348 13433.96582
13347.0 0.0000749 13378.78223 13454.84473
13364.0 0.0000748 13396.49414 13476.01758
13387.0 0.0000747 13414.20313 13498.22363
13406.0 0.0000746 13431.90625 13520.11328
13439.0 0.0000744 13449.60547 13541.09668
13456.0 0.0000743 13467.30078 13563.90332
13474.0 0.0000742 13484.99121 13587.25000
13507.0 0.0000740 13502.67480 13611.21680
13524.0 0.0000739 13520.35742 13636.28613
13539.0 0.0000739 13538.03320 13661.83789
13569.0 0.0000737 13555.70605 13688.43457
13597.0 0.0000735 13573.37305 13716.38281
13648.0 0.0000733 13591.03613 13746.27734
13680.0 0.0000731 13608.69434 13779.18359
13718.0 0.0000729 13626.34766 13816.77148
13756.0 0.0000727 13643.99609 13860.97070
13815.0 0.0000724 13661.64063 13912.87207
13883.0 0.0000720 13679.28027 13971.03906
13977.0 0.0000715 13696.91504 14029.47168
14044.0 0.0000712 13714.54492 14078.31738
14096.0 0.0000709 13732.17285 14115.16895
14148.0 0.0000707 13749.79199 14150.35156
14205.0 0.0000704 13767.40820 14194.66211
14296.0 0.0000699 13785.02051 14254.30859
14422.0 0.0000693 13802.62891 14333.00488
14582.0 0.0000686 13820.23145 14434.90820
14792.0 0.0000676 13837.82813 14568.39941
15061.0 0.0000664 13855.42188 14751.99316
15410.0 0.0000649 13873.01074 15023.84180
15911.0 0.0000628 13890.59375 15453.95801
16589.0 0.0000603 13908.17383 16151.41602
17559.0 0.0000570 13925.74805 17250.82617
18944.0 0.0000528 13943.31836 18863.10547
20864.0 0.0000479 13960.88477 20985.54492
23349.0 0.0000428 13978.44336 23359.52344
25587.0 0.0000391 13996.00000 25262.11914
25982.0 0.0000385 14013.55273 25666.23633
24091.0 0.0000415 14031.09863 24304.64453
21540.0 0.0000464 14048.63965 22053.85742
19389.0 0.0000516 14066.17871 19827.98438
17860.0 0.0000560 14083.70996 18050.80859
16837.0 0.0000594 14101.23926 16808.30078
16160.0 0.0000619 14118.76074 16023.89648
15681.0 0.0000638 14136.28125 15567.28027
15362.0 0.0000651 14153.79492 15320.32129
15158.0 0.0000660 14171.30371 15203.79590
15042.0 0.0000665 14188.80957 15175.44336
15035.0 0.0000665 14206.30957 15215.90430
15137.0 0.0000661 14223.80566 15313.62402
15393.0 0.0000650 14241.29395 15450.93652
15740.0 0.0000635 14258.78223 15588.90625
15941.0 0.0000627 14276.26367 15662.84180
15780.0 0.0000634 14293.74023 15626.32227
15439.0 0.0000648 14311.21289 15506.20605
15201.0 0.0000658 14328.67969 15367.65723
15077.0 0.0000663 14346.14453 15254.69238
15042.0 0.0000665 14363.60254 15190.35938
15081.0 0.0000663 14381.05566 15180.62988
15188.0 0.0000658 14398.50684 15231.73633
15352.0 0.0000651 14415.94922 15356.53125
15608.0 0.0000641 14433.39063 15580.03516
15972.0 0.0000626 14450.82715 15940.32227
16471.0 0.0000607 14468.25781 16480.92773
17179.0 0.0000582 14485.68457 17231.93164
18171.0 0.0000550 14503.10449 18177.92578
19407.0 0.0000515 14520.52344 19201.52539
20497.0 0.0000488 14537.93555 20009.56641
20684.0 0.0000483 14555.34277 20209.40234
19748.0 0.0000506 14572.74609 19691.92578
18468.0 0.0000541 14590.14551 18765.56445
17378.0 0.0000575 14607.54004 17784.33398
16584.0 0.0000603 14624.93164 16940.87109
16025.0 0.0000624 14642.31543 16300.20117
15649.0 0.0000639 14659.69727 15855.20020
15397.0 0.0000649 14677.07324 15565.97070
15224.0 0.0000657 14694.44531 15385.63770
15117.0 0.0000662 14711.81152 15274.61426
15048.0 0.0000665 14729.17578 15205.47070
14990.0 0.0000667 14746.53418 15161.67871
14963.0 0.0000668 14763.88672 15134.16016
14946.0 0.0000669 14781.23730 15118.14648
14938.0 0.0000669 14798.58203 15111.18164
14943.0 0.0000669 14815.92383 15112.17773
14936.0 0.0000670 14833.25879 15132.15820
14959.0 0.0000668 14850.59180 15150.50488
15013.0 0.0000666 14867.91797 15180.82910
15053.0 0.0000664 14885.24219 15228.47363
15129.0 0.0000661 14902.56055 15301.73633
15253.0 0.0000656 14919.87598 15410.81836
15443.0 0.0000648 14937.18555 15563.41016
15736.0 0.0000635 14954.49121 15757.28223
16148.0 0.0000619 14971.79199 15991.57715
16649.0 0.0000601 14989.08789 16186.48828
16957.0 0.0000590 15006.38184 16283.19043
16817.0 0.0000595 15023.66992 16234.51074
16403.0 0.0000610 15040.95313 16097.37012
16063.0 0.0000623 15058.23340 15957.27441
15910.0 0.0000629 15075.50781 15883.57324
15858.0 0.0000631 15092.77930 15825.44531
15815.0 0.0000632 15110.04688 15775.21875
15709.0 0.0000637 15127.30859 15705.72754
15588.0 0.0000642 15144.56836 15632.39453
15496.0 0.0000645 15161.82227 15568.34668
15427.0 0.0000648 15179.07129 15521.84375
15400.0 0.0000649 15196.31738 15493.84766
15393.0 0.0000650 15213.55957 15481.79785
15390.0 0.0000650 15230.79688 15481.86230
15408.0 0.0000649 15248.02930 15490.43652
15417.0 0.0000649 15265.25879 15504.86328
15434.0 0.0000648 15282.48438 15523.59180
15456.0 0.0000647 15299.70605 15545.93066
15473.0 0.0000646 15316.92383 15571.80762
15504.0 0.0000645 15334.13574 15604.63770
15556.0 0.0000643 15351.34473 15639.39355
15602.0 0.0000641 15368.54785 15680.59668
15667.0 0.0000638 15385.74902 15730.92773
15761.0 0.0000634 15402.94531 15795.07715
15872.0 0.0000630 15420.13867 15881.70703
16042.0 0.0000623 15437.32617 16006.49707
16268.0 0.0000615 15454.51074 16194.81348
16571.0 0.0000603 15471.69238 16479.43164
16967.0 0.0000589 15488.86816 16888.43750
17470.0 0.0000572 15506.04004 17425.33203
18087.0 0.0000553 15523.20996 18041.90430
18727.0 0.0000534 15540.37500 18586.88086
19035.0 0.0000525 15557.53711 18794.01953
18681.0 0.0000535 15574.69336 18521.69141
17987.0 0.0000556 15591.84668 17960.61133
17364.0 0.0000576 15608.99512 17375.80273
16927.0 0.0000591 15626.14258 16905.33984
16642.0 0.0000601 15643.28223 16583.76367
16449.0 0.0000608 15660.42188 16392.52148
16318.0 0.0000613 15677.55566 16293.84375
16244.0 0.0000616 15694.68652 16252.25488
16208.0 0.0000617 15711.81250 16243.39160
16197.0 0.0000617 15728.93555 16253.73535
16203.0 0.0000617 15746.05566 16276.93652
16230.0 0.0000616 15763.17188 16310.42773
16272.0 0.0000615 15780.28125 16353.52246
16333.0 0.0000612 15797.39063 16406.59180
16401.0 0.0000610 15814.49609 16470.81836
16496.0 0.0000606 15831.59766 16547.94727
16622.0 0.0000602 15848.69434 16641.74219
16767.0 0.0000596 15865.78809 16756.94141
16986.0 0.0000589 15882.87891 16902.27344
17291.0 0.0000578 15899.96680 17096.07031
17693.0 0.0000565 15917.04883 17382.10547
18277.0 0.0000547 15934.12891 17862.86523
19137.0 0.0000523 15951.20508 18743.25391
20481.0 0.0000488 15968.27734 20337.40234
22631.0 0.0000442 15985.34570 22954.42969
25990.0 0.0000385 16002.41309 26624.73242
30591.0 0.00003269 16019.47559 30732.86719
34420.0 0.00002905 16036.53516 33691.87109
34203.0 0.00002924 16053.58984 33696.02344
30853.0 0.00003241 16070.64258 31168.37109
28021.0 0.0000357 16087.69141 28391.34375
27135.0 0.0000369 16104.73730 27245.13672
28441.0 0.0000352 16121.77930 28726.55469
32152.0 0.00003110 16138.81738 32894.19922
38274.0 0.00002613 16155.85352 38679.91016
44442.0 0.00002250 16172.88770 43507.36719
45293.0 0.00002208 16189.91699 43944.36719
39172.0 0.00002553 16206.94238 39421.62109
31874.0 0.00003137 16223.96582 32931.76953
26520.0 0.0000377 16240.98438 27118.35352
23151.0 0.0000432 16258.00293 23000.93555
21103.0 0.0000474 16275.01465 20543.18359
19834.0 0.0000504 16292.02637 19246.95313
19045.0 0.0000525 16309.03516 18602.05078
18548.0 0.0000539 16326.04004 18275.86133
18243.0 0.0000548 16343.04004 18102.61328
18058.0 0.0000554 16360.03906 18013.96680
17962.0 0.0000557 16377.03320 17983.65234
17960.0 0.0000557 16394.02734 18001.95313
18020.0 0.0000555 16411.01367 18066.52148
18155.0 0.0000551 16428.00195 18180.06250
18367.0 0.0000544 16444.98828 18350.99414
18700.0 0.0000535 16461.96875 18597.58984
19190.0 0.0000521 16478.94336 18959.22656
19835.0 0.0000504 16495.91797 19521.82422
20744.0 0.0000482 16512.89063 20460.25195
22117.0 0.0000452 16529.86328 22082.23438
24254.0 0.0000412 16546.82617 24825.23438
27654.0 0.0000362 16563.78906 29136.53320
33013.0 0.00003029 16580.75391 35198.68359
40916.0 0.00002444 16597.71289 42507.48438
50482.0 0.00001981 16614.66602 49258.96094
55438.0 0.00001804 16631.61914 52100.74609
50315.0 0.00001987 16648.57227 48721.20313
40359.0 0.00002478 16665.51758 41172.12891
32117.0 0.00003114 16682.46484 33248.91016
26735.0 0.0000374 16699.40625 27104.50781
23432.0 0.0000427 16716.34766 23129.00391
21418.0 0.0000467 16733.28320 20896.32031
20209.0 0.0000495 16750.21875 19809.80273
19484.0 0.0000513 16767.15039 19375.49805
19107.0 0.0000523 16784.08203 19289.66797
19014.0 0.0000526 16801.00977 19416.42188
19170.0 0.0000522 16817.93555 19717.01953
19635.0 0.0000509 16834.85547 20174.86523
20474.0 0.0000488 16851.77734 20741.59961
21492.0 0.0000465 16868.69531 21279.64453
22116.0 0.0000452 16885.61133 21574.27930
21956.0 0.0000455 16902.52344 21530.51367
21579.0 0.0000463 16919.43555 21330.76367
21659.0 0.0000462 16936.34570 21270.64258
22401.0 0.0000446 16953.25391 21612.61133
23528.0 0.0000425 16970.15430 22557.91602
24590.0 0.0000407 16987.06055 24150.94531
25709.0 0.0000389 17003.95898 26096.29492
26831.0 0.0000373 17020.85742 27531.19141
26719.0 0.0000374 17037.75391 27254.75195
24812.0 0.0000403 17054.64844 25204.82422
22570.0 0.0000443 17071.53906 22617.16797
20864.0 0.0000479 17088.43164 20485.95117
19754.0 0.0000506 17105.31641 19131.99609
19035.0 0.0000525 17122.20117 18422.30859
18569.0 0.0000539 17139.08594 18091.35156
18256.0 0.0000548 17155.96875 17928.31836
18043.0 0.0000554 17172.84766 17835.02344
17895.0 0.0000559 17189.72656 17773.18945
17796.0 0.0000562 17206.60156 17729.96484
17714.0 0.0000565 17223.47656 17700.57617
17665.0 0.0000566 17240.34766 17683.57227
17634.0 0.0000567 17257.21875 17682.03906
17628.0 0.0000567 17274.08594 17695.60156
17636.0 0.0000567 17290.95313 17735.50586
17671.0 0.0000566 17307.82031 17811.50586
17731.0 0.0000564 17324.68359 17926.78711
17824.0 0.0000561 17341.54492 18066.62305
17921.0 0.0000558 17358.40625 18185.79297
17967.0 0.0000557 17375.26563 18215.55078
17922.0 0.0000558 17392.12305 18135.98242
17813.0 0.0000561 17408.97656 18005.88477
17730.0 0.0000564 17425.83203 17882.85156
17689.0 0.0000565 17442.68359 17795.52148
17664.0 0.0000566 17459.53516 17744.81836
17646.0 0.0000567 17476.38281 17721.74805
17652.0 0.0000567 17493.23047 17715.44141
17654.0 0.0000566 17510.07617 17718.01367
17661.0 0.0000566 17526.92383 17725.17383
17686.0 0.0000565 17543.76563 17734.94531
17708.0 0.0000565 17560.60938 17746.53125
17730.0 0.0000564 17577.45117 17759.57617
17754.0 0.0000563 17594.29102 17773.92383
17771.0 0.0000563 17611.12891 17789.51367
17806.0 0.0000562 17627.96484 17806.36523
17846.0 0.0000560 17644.80273 17827.37500
17848.0 0.0000560 17661.63672 17848.26563
17848.0 0.0000560 17678.46680 17869.84961
17860.0 0.0000560 17695.29883 17893.96680
17892.0 0.0000559 17712.13281 17921.00000
17932.0 0.0000558 17728.96289 17952.71289
17990.0 0.0000556 17745.78906 17991.59375
18046.0 0.0000554 17762.61914 18041.42383
18092.0 0.0000553 17779.44922 18107.11719
18164.0 0.0000551 17796.27344 18194.10938
18283.0 0.0000547 17813.09570 18306.83984
18437.0 0.0000542 17829.91797 18445.70898
18620.0 0.0000537 17846.74414 18601.85352
18790.0 0.0000532 17863.56641 18757.06445
18925.0 0.0000528 17880.38477 18901.81250
19087.0 0.0000524 17897.20508 19043.85742
19297.0 0.0000518 17914.02734 19177.16797
19427.0 0.0000515 17930.84375 19259.03906
19349.0 0.0000517 17947.66406 19238.19531
19120.0 0.0000523 17964.47852 19115.50977
18867.0 0.0000530 17981.29492 18945.07227
18646.0 0.0000536 17998.11328 18779.05859
18501.0 0.0000541 18014.92578 18643.55273
18425.0 0.0000543 18031.73828 18545.26758
18373.0 0.0000544 18048.55469 18481.86719
18356.0 0.0000545 18065.36523 18447.34375
18336.0 0.0000545 18082.17773 18435.02539
18335.0 0.0000545 18098.99023 18439.22070
18356.0 0.0000545 18115.80273 18456.01172
18380.0 0.0000544 18132.61328 18483.37109
18423.0 0.0000543 18149.42188 18520.92383
18483.0 0.0000541 18166.23047 18569.98047
18549.0 0.0000539 18183.04297 18634.29492
18652.0 0.0000536 18199.84766 18723.07617
18806.0 0.0000532 18216.65625 18859.51563
19037.0 0.0000525 18233.46484 19097.98438
19397.0 0.0000516 18250.27148 19544.73438
19998.0 0.0000500 18267.07813 20355.00781
21042.0 0.0000475 18283.88477 21662.97070
22786.0 0.0000439 18300.69531 23434.95703
25293.0 0.0000395 18317.49805 25297.24609
27344.0 0.0000366 18334.30664 26438.23633
26839.0 0.0000373 18351.11133 26167.98242
24686.0 0.0000405 18367.91992 24912.08203
22990.0 0.0000435 18384.72266 23680.22852
22415.0 0.0000446 18401.52734 23141.22461
22958.0 0.0000436 18418.33203 23433.65234
24406.0 0.0000410 18435.14063 24215.20508
25610.0 0.0000390 18451.94531 24749.99023
24950.0 0.0000401 18468.74805 24354.83984
22993.0 0.0000435 18485.55469 23164.16016
21301.0 0.0000469 18502.35938 21801.15625
20260.0 0.0000494 18519.16406 20685.93555
19694.0 0.0000508 18535.97070 19944.21484
19386.0 0.0000516 18552.77734 19522.59570
19242.0 0.0000520 18569.58008 19308.23242
19158.0 0.0000522 18586.38477 19203.33984
19075.0 0.0000524 18603.18945 19147.00000
19008.0 0.0000526 18619.99609 19110.46484
18966.0 0.0000527 18636.80469 19085.44922
18935.0 0.0000528 18653.60742 19071.87891
18922.0 0.0000528 18670.41406 19071.30273
18937.0 0.0000528 18687.22461 19086.14453
18973.0 0.0000527 18704.03125 19122.31445
19026.0 0.0000526 18720.83789 19192.13477
19135.0 0.0000523 18737.64453 19321.35742
19315.0 0.0000518 18754.45117 19549.62109
19623.0 0.0000510 18771.26172 19921.34375
20168.0 0.0000496 18788.07031 20459.79102
21104.0 0.0000474 18804.87695 21126.78125
22408.0 0.0000446 18821.68750 21769.10547
23236.0 0.0000430 18838.49609 22094.35742
22546.0 0.0000444 18855.30859 21888.17188
21213.0 0.0000471 18872.11914 21308.02148
20228.0 0.0000494 18888.93164 20646.29688
19675.0 0.0000508 18905.74414 20107.82422
19390.0 0.0000516 18922.55664 19734.76953
19251.0 0.0000519 18939.36914 19511.27930
19181.0 0.0000521 18956.18359 19394.27344
19158.0 0.0000522 18972.99805 19342.02734
19151.0 0.0000522 18989.81641 19326.77148
19160.0 0.0000522 19006.62891 19334.80859
19189.0 0.0000521 19023.44531 19362.20898
19248.0 0.0000520 19040.26563 19411.05078
19304.0 0.0000518 19057.08203 19487.10742
19403.0 0.0000515 19073.89844 19598.02148
19541.0 0.0000512 19090.71875 19750.13086
19751.0 0.0000506 19107.54102 19942.66016
20047.0 0.0000499 19124.36328 20159.89844
20356.0 0.0000491 19141.18750 20368.42969
20672.0 0.0000484 19158.00586 20524.54102
20868.0 0.0000479 19174.83008 20578.95703
20735.0 0.0000482 19191.65820 20500.66797
20383.0 0.0000491 19208.48242 20322.42969
20022.0 0.0000499 19225.31055 20114.80273
19779.0 0.0000506 19242.13672 19928.52734
19629.0 0.0000509 19258.96875 19783.62695
19536.0 0.0000512 19275.79883 19680.85742
19490.0 0.0000513 19292.62695 19616.92383
19461.0 0.0000514 19309.46094 19581.34570
19453.0 0.0000514 19326.29688 19565.20703
19448.0 0.0000514 19343.12891 19561.54883
19469.0 0.0000514 19359.96289 19565.82031
19475.0 0.0000513 19376.79883 19575.41602
19494.0 0.0000513 19393.63867 19589.19922
19516.0 0.0000512 19410.47852 19606.22852
19543.0 0.0000512 19427.31641 19626.69531
19579.0 0.0000511 19444.16211 19651.16016
19624.0 0.0000510 19461.00391 19682.00195
19665.0 0.0000509 19477.84766 19718.50000
19715.0 0.0000507 19494.69141 19764.23438
19809.0 0.0000505 19511.54102 19821.55859
19930.0 0.0000502 19528.38672 19891.96094
20081.0 0.0000498 19545.24023 19974.50391
20268.0 0.0000493 19562.08789 20063.10156
20461.0 0.0000489 19578.93945 20143.01563
20539.0 0.0000487 19595.79297 20194.56250
20444.0 0.0000489 19612.64844 20211.20703
20285.0 0.0000493 19629.50586 20208.61133
20164.0 0.0000496 19646.36328 20208.38477
20127.0 0.0000497 19663.22070 20224.49609
20127.0 0.0000497 19680.08594 20264.77930
20170.0 0.0000496 19696.94531 20335.45703
20252.0 0.0000494 19713.80859 20445.19727
20388.0 0.0000490 19730.67578 20608.65234
20590.0 0.0000486 19747.54297 20849.75195
20888.0 0.0000479 19764.41211 21203.23633
21345.0 0.0000468 19781.28125 21714.15430
22036.0 0.0000454 19798.15430 22433.25000
22993.0 0.0000435 19815.02734 23402.52734
24244.0 0.0000412 19831.90234 24619.53320
25649.0 0.0000390 19848.77734 25990.97656
27012.0 0.0000370 19865.65820 27392.66211
28732.0 0.00003480 19882.53711 28725.40430
30909.0 0.00003235 19899.42188 29727.98047
31704.0 0.00003154 19916.30469 29837.85156
29510.0 0.00003389 19933.18945 28769.86328
26250.0 0.0000381 19950.08008 26994.25195
23812.0 0.0000420 19966.96680 25165.86719
22355.0 0.0000447 19983.86133 23645.61914
21525.0 0.0000465 20000.75195 22524.74219
21038.0 0.0000475 20017.64453 21772.21094
20764.0 0.0000482 20034.54492 21298.55859
20602.0 0.0000485 20051.44531 21009.24805
20482.0 0.0000488 20068.34375 20830.56250
20412.0 0.0000490 20085.24609 20715.12891
20378.0 0.0000491 20102.15234 20636.28320
20336.0 0.0000492 20119.05664 20580.06250
20309.0 0.0000492 20135.96289 20539.11914
20297.0 0.0000493 20152.87305 20509.25391
20309.0 0.0000492 20169.78711 20487.82422
20309.0 0.0000492 20186.70313 20473.01563
20313.0 0.0000492 20203.61523 20463.46094
20325.0 0.0000492 20220.53711 20458.20508
20346.0 0.0000491 20237.45703 20456.51563
20352.0 0.0000491 20254.37891 20457.85547
20361.0 0.0000491 20271.30273 20461.83984
20366.0 0.0000491 20288.23047 20468.27734
20400.0 0.0000490 20305.15820 20477.16406
20423.0 0.0000490 20322.08984 20491.75781
20444.0 0.0000489 20339.01953 20507.25781
20477.0 0.0000488 20355.95508 20528.16602
20513.0 0.0000487 20372.89453 20556.69922
20582.0 0.0000486 20389.83398 20594.82813
20676.0 0.0000484 20406.77734 20642.63867
20813.0 0.0000480 20423.71875 20696.92969
20951.0 0.0000477 20440.66602 20745.02148
21004.0 0.0000476 20457.61328 20772.45117
20952.0 0.0000477 20474.56250 20775.29297
20873.0 0.0000479 20491.51758 20768.92969
20812.0 0.0000480 20508.47070 20767.96289
20797.0 0.0000481 20525.42773 20785.51953
20815.0 0.0000480 20542.38672 20822.71484
20859.0 0.0000479 20559.35156 20878.21094
20940.0 0.0000478 20576.31250 20946.07617
21037.0 0.0000475 20593.27930 21013.87695
21127.0 0.0000473 20610.25000 21061.85742
21115.0 0.0000474 20627.22070 21075.93750
21030.0 0.0000476 20644.19531 21050.86328
20950.0 0.0000477 20661.17188 21007.72070
20910.0 0.0000478 20678.14844 20966.06055
20863.0 0.0000479 20695.13086 20930.35547
20843.0 0.0000480 20712.10938 20905.68750
20839.0 0.0000480 20729.09766 20891.72656
20847.0 0.0000480 20746.08398 20886.76172
20848.0 0.0000480 20763.07422 20888.66016
20862.0 0.0000479 20780.06836 20895.45508
20871.0 0.0000479 20797.06250 20905.85742
20888.0 0.0000479 20814.06055 20918.25781
20914.0 0.0000478 20831.06055 20932.23438
20919.0 0.0000478 20848.06055 20947.36719
20923.0 0.0000478 20865.06641 20963.45898
20948.0 0.0000477 20882.07422 20980.39063
20984.0 0.0000477 20899.08398 20998.12500
21004.0 0.0000476 20916.09766 21016.72461
21039.0 0.0000475 20933.10938 21037.56836
21058.0 0.0000475 20950.12891 21058.28711
21081.0 0.0000474 20967.15039 21080.20508
21107.0 0.0000474 20984.16797 21103.20703
21155.0 0.0000473 21001.19531 21126.85742
21201.0 0.0000472 21018.22266 21150.30859
21252.0 0.0000471 21035.25195 21173.19922
21309.0 0.0000469 21052.28516 21195.58008
21406.0 0.0000467 21069.32031 21235.22852
21512.0 0.0000465 21086.35742 21330.85938
21717.0 0.0000460 21103.40039 21574.46875
22053.0 0.0000453 21120.43945 22106.20313
22703.0 0.0000440 21137.48438 23044.44141
23881.0 0.0000419 21154.53516 24358.31641
25721.0 0.0000389 21171.58398 25730.81055
27206.0 0.0000368 21188.63867 26491.19922
26538.0 0.0000377 21205.69336 26105.83984
24706.0 0.0000405 21222.75195 24937.75586
23346.0 0.0000428 21239.81445 23693.37305
22640.0 0.0000442 21256.87695 22780.74219
22317.0 0.0000448 21273.93945 22297.40625
22223.0 0.0000450 21291.01172 22160.17969
22300.0 0.0000448 21308.08203 22237.37695
22528.0 0.0000444 21325.15820 22425.60742
22916.0 0.0000436 21342.23242 22656.66602
23365.0 0.0000428 21359.30859 22870.57227
23545.0 0.0000425 21376.39258 23003.87305
23290.0 0.0000429 21393.47656 23026.07422
22885.0 0.0000437 21410.56445 22981.72852
22580.0 0.0000443 21427.65430 22967.37695
22475.0 0.0000445 21444.74414 23080.04883
22612.0 0.0000442 21461.84180 23386.86523
23040.0 0.0000434 21478.93945 23899.08398
23961.0 0.0000417 21496.03711 24535.31836
25425.0 0.0000393 21513.14258 25072.77539
26222.0 0.0000381 21530.24805 25184.70508
25241.0 0.0000396 21547.35547 24766.66797
23844.0 0.0000419 21564.46484 24089.64063
22995.0 0.0000435 21581.57813 23447.06836
22591.0 0.0000443 21598.69531 22978.42773
22458.0 0.0000445 21615.81445 22712.06250
22476.0 0.0000445 21632.93359 22620.39648
22583.0 0.0000443 21650.05859 22661.33398
22782.0 0.0000439 21667.18359 22803.67969
23102.0 0.0000433 21684.31641 23034.83594
23546.0 0.0000425 21701.44727 23358.30078
24009.0 0.0000417 21718.58008 23789.84961
24442.0 0.0000409 21735.71875 24352.27148
24965.0 0.0000401 21752.85742 25092.77930
25712.0 0.0000389 21770.00000 25993.75977
26618.0 0.0000376 21787.14453 26933.89063
27600.0 0.0000362 21804.29297 27689.06055
28400.0 0.0000352 21821.44336 27964.22852
27947.0 0.0000358 21838.59375 27494.66797
26319.0 0.0000380 21855.75195 26422.74805
24752.0 0.0000404 21872.90820 25204.80273
23748.0 0.0000421 21890.07031 24165.32813
23154.0 0.0000432 21907.23047 23418.71680
22800.0 0.0000439 21924.39844 22947.48242
22596.0 0.0000443 21941.56641 22676.23633
22470.0 0.0000445 21958.73438 22526.35742
22379.0 0.0000447 21975.91016 22442.01563
22324.0 0.0000448 21993.08789 22391.75586
22297.0 0.0000448 22010.26563 22360.31250
22291.0 0.0000449 22027.44727 22340.59375
22287.0 0.0000449 22044.62695 22329.07617
22287.0 0.0000449 22061.81445 22324.16016
22281.0 0.0000449 22079.00391 22323.86719
22304.0 0.0000448 22096.19336 22327.72656
22314.0 0.0000448 22113.39063 22335.19531
22329.0 0.0000448 22130.58398 22345.69141
22343.0 0.0000448 22147.78320 22358.83789
22373.0 0.0000447 22164.98633 22374.06250
22385.0 0.0000447 22182.18945 22390.72656
22398.0 0.0000446 22199.39258 22409.30469
22404.0 0.0000446 22216.60547 22428.94141
22416.0 0.0000446 22233.81445 22450.85156
22436.0 0.0000446 22251.02734 22475.71289
22432.0 0.0000446 22268.24219 22504.11523
22452.0 0.0000445 22285.45898 22536.81445
22476.0 0.0000445 22302.68359 22575.11328
22515.0 0.0000444 22319.90625 22623.97461
22553.0 0.0000443 22337.12891 22683.16406
22615.0 0.0000442 22354.35938 22763.87109
22694.0 0.0000441 22371.58984 22879.98633
22807.0 0.0000438 22388.82227 23050.06250
22971.0 0.0000435 22406.05664 23292.64453
23248.0 0.0000430 22423.28906 23617.17578
23729.0 0.0000421 22440.53320 24010.42578
24498.0 0.0000408 22457.77539 24416.29492
25257.0 0.0000396 22475.01758 24724.90625
25336.0 0.0000395 22492.26367 24850.62305
24861.0 0.0000402 22509.51367 24860.16602
24541.0 0.0000407 22526.76563 24909.62305
24627.0 0.0000406 22544.02148 25104.68945
25151.0 0.0000398 22561.27344 25463.09570
26045.0 0.0000384 22578.53320 25909.64258
26878.0 0.0000372 22595.79492 26259.56250
26901.0 0.0000372 22613.05273 26297.99219
26113.0 0.0000383 22630.31641 25979.39063
25223.0 0.0000396 22647.58398 25472.03125
24557.0 0.0000407 22664.84961 24968.15820
24168.0 0.0000414 22682.12305 24575.57227
23991.0 0.0000417 22699.39453 24332.83594
23972.0 0.0000417 22716.66992 24239.99414
24106.0 0.0000415 22733.94727 24274.68359
24406.0 0.0000410 22751.22656 24397.12500
24800.0 0.0000403 22768.50586 24547.28711
25050.0 0.0000399 22785.79102 24648.03516
24938.0 0.0000401 22803.07227 24636.60547
24576.0 0.0000407 22820.36328 24505.26367
24187.0 0.0000413 22837.64844 24296.16211
23864.0 0.0000419 22854.94141 24064.11719
23624.0 0.0000423 22872.23438 23848.79102
23465.0 0.0000426 22889.52734 23670.33203
23386.0 0.0000428 22906.82227 23533.53516
23336.0 0.0000429 22924.12305 23435.25586
23310.0 0.0000429 22941.42188 23369.05078
23304.0 0.0000429 22958.72656 23327.93945
23301.0 0.0000429 22976.02539 23306.28516
23296.0 0.0000429 22993.32813 23300.19727
23318.0 0.0000429 23010.63867 23307.96875
23364.0 0.0000428 23027.94531 23329.47461
23391.0 0.0000428 23045.25781 23365.55078
23438.0 0.0000427 23062.56836 23417.00000
23519.0 0.0000425 23079.88281 23482.50000
23614.0 0.0000423 23097.20117 23557.49609
23698.0 0.0000422 23114.51563 23632.79688
23752.0 0.0000421 23131.83398 23698.66602
23770.0 0.0000421 23149.15625 23739.63672
23754.0 0.0000421 23166.47461 23743.98242
23704.0 0.0000422 23183.79883 23710.71484
23631.0 0.0000423 23201.12500 23655.27539
23565.0 0.0000424 23218.44922 23596.52539
23513.0 0.0000425 23235.77734 23545.95313
23486.0 0.0000426 23253.10742 23507.76367
23477.0 0.0000426 23270.43555 23482.14063
23470.0 0.0000426 23287.76758 23467.52734
23477.0 0.0000426 23305.09961 23461.75195
23483.0 0.0000426 23322.43555 23462.69336
23489.0 0.0000426 23339.76953 23468.53516
23486.0 0.0000426 23357.10352 23478.02930
23507.0 0.0000425 23374.44531 23490.04688
23525.0 0.0000425 23391.78320 23504.00391
23538.0 0.0000425 23409.12500 23519.36914
23564.0 0.0000424 23426.46289 23535.51953
23577.0 0.0000424 23443.80859 23551.73047
23588.0 0.0000424 23461.15234 23567.46875
23592.0 0.0000424 23478.49414 23582.91016
23591.0 0.0000424 23495.83789 23598.66016
23608.0 0.0000424 23513.18555 23615.93945
23633.0 0.0000423 23530.53320 23633.36523
23643.0 0.0000423 23547.88086 23651.87109
23655.0 0.0000423 23565.22852 23671.49609
23669.0 0.0000422 23582.58203 23692.31445
23691.0 0.0000422 23599.92773 23715.73438
23717.0 0.0000422 23617.28320 23739.26563
23744.0 0.0000421 23634.63281 23764.37891
23761.0 0.0000421 23651.98438 23791.46289
23779.0 0.0000421 23669.33984 23821.03906
23819.0 0.0000420 23686.69336 23853.98633
23859.0 0.0000419 23704.04688 23892.22656
23896.0 0.0000418 23721.40625 23937.60547
23937.0 0.0000418 23738.75977 23995.44922
23988.0 0.0000417 23756.11523 24074.17578
24063.0 0.0000416 23773.47266 24185.41406
24175.0 0.0000414 23790.82617 24344.67188
24347.0 0.0000411 23808.18555 24566.72852
24617.0 0.0000406 23825.54297 24859.17969
25024.0 0.0000400 23842.90234 25211.93945
25647.0 0.0000390 23860.25977 25578.67383
26352.0 0.0000379 23877.61523 25858.77344
26610.0 0.0000376 23894.97852 25928.76758
26132.0 0.0000383 23912.33398 25762.17188
25439.0 0.0000393 23929.69141 25463.48438
24927.0 0.0000401 23947.05273 25151.90820
24645.0 0.0000406 23964.41211 24892.98828
24492.0 0.0000408 23981.77148 24709.11914
24411.0 0.0000410 23999.13086 24600.00000
24389.0 0.0000410 24016.48633 24555.28711
24407.0 0.0000410 24033.84766 24562.20117
24464.0 0.0000409 24051.20508 24609.30078
24563.0 0.0000407 24068.56055 24687.82617
24670.0 0.0000405 24085.91992 24792.41797
24827.0 0.0000403 24103.27734 24919.54297
25062.0 0.0000399 24120.63477 25057.01367
25300.0 0.0000395 24137.99023 25192.28320
25446.0 0.0000393 24155.34570 25287.93555
25418.0 0.0000393 24172.70117 25335.09961
25284.0 0.0000396 24190.05664 25358.29102
25190.0 0.0000397 24207.40820 25398.94727
25242.0 0.0000396 24224.76367 25487.53711
25448.0 0.0000393 24242.11914 25622.75391
25778.0 0.0000388 24259.46875 25758.90820
25968.0 0.0000385 24276.82617 25812.83594
25817.0 0.0000387 24294.17188 25727.49023
25472.0 0.0000393 24311.52344 25542.25195
25209.0 0.0000397 24328.87305 25343.11914
25062.0 0.0000399 24346.21875 25187.41602
25014.0 0.0000400 24363.56836 25096.97852
25061.0 0.0000399 24380.91406 25071.89844
25171.0 0.0000397 24398.25781 25101.73047
25345.0 0.0000395 24415.60352 25172.49023
25543.0 0.0000391 24432.94141 25272.57617
25658.0 0.0000390 24450.28320 25400.39453
25665.0 0.0000390 24467.62500 25574.18164
25690.0 0.0000389 24484.96094 25805.85547
25754.0 0.0000388 24502.29883 26068.95313
25829.0 0.0000387 24519.63477 26253.54297
25809.0 0.0000387 24536.96680 26217.70313
25635.0 0.0000390 24554.30273 25965.36523
25428.0 0.0000393 24571.63281 25637.31250
25248.0 0.0000396 24588.96094 25343.99805
25124.0 0.0000398 24606.28711 25132.82813
25054.0 0.0000399 24623.61133 25006.97852
25000.0 0.0000400 24640.93555 24945.35547
24970.0 0.0000400 24658.25781 24924.67773
24955.0 0.0000401 24675.57813 24930.12695
24969.0 0.0000400 24692.89648 24955.11719
25005.0 0.0000400 24710.21094 24998.24805
25049.0 0.0000399 24727.52344 25060.18555
25115.0 0.0000398 24744.83594 25141.04102
25198.0 0.0000397 24762.14453 25237.88477
25296.0 0.0000395 24779.45117 25341.00391
25408.0 0.0000394 24796.75586 25430.33594
25489.0 0.0000392 24814.05469 25482.03711
25468.0 0.0000393 24831.35547 25490.78125
25414.0 0.0000393 24848.65234 25476.46680
25362.0 0.0000394 24865.94531 25465.62891
25351.0 0.0000394 24883.23828 25477.54492
25375.0 0.0000394 24900.52539 25520.93555
25479.0 0.0000392 24917.81250 25593.96484
25621.0 0.0000390 24935.09570 25683.52539
25782.0 0.0000388 24952.37305 25763.93164
25840.0 0.0000387 24969.65234 25802.29297
25734.0 0.0000389 24986.92578 25783.95898
25561.0 0.0000391 25004.19531 25711.00977
25428.0 0.0000393 25021.46289 25614.40625
25343.0 0.0000395 25038.72461 25516.92969
25302.0 0.0000395 25055.99023 25430.29102
25280.0 0.0000396 25073.24609 25358.48438
25263.0 0.0000396 25090.49805 25302.30078
25310.0 0.0000395 25107.74805 25262.01953
25339.0 0.0000395 25125.00000 25239.59961
25332.0 0.0000395 25142.24023 25236.26758
25326.0 0.0000395 25159.47852 25248.99023
25318.0 0.0000395 25176.71484 25271.21094
25313.0 0.0000395 25193.94727 25296.41797
25312.0 0.0000395 25211.17773 25321.34570
25323.0 0.0000395 25228.40039 25347.92969
25351.0 0.0000394 25245.62109 25374.24805
25377.0 0.0000394 25262.83594 25401.18359
25404.0 0.0000394 25280.04688 25430.42773
25439.0 0.0000393 25297.25391 25464.62109
25485.0 0.0000392 25314.45703 25508.52734
25526.0 0.0000392 25331.65625 25563.66797
25578.0 0.0000391 25348.84961 25634.07617
25657.0 0.0000390 25366.04102 25719.11328
25775.0 0.0000388 25383.22266 25811.29102
25918.0 0.0000386 25400.40625 25891.99023
26021.0 0.0000384 25417.58008 25935.29492
26039.0 0.0000384 25434.74805 25933.09961
25998.0 0.0000385 25451.91406 25906.20508
25979.0 0.0000385 25469.07422 25880.31055
25999.0 0.0000385 25486.23242 25870.33398
26061.0 0.0000384 25503.37891 25882.66406
26143.0 0.0000383 25520.52539 25920.01563
26253.0 0.0000381 25537.66406 25985.53711
26400.0 0.0000379 25554.80078 26085.98633
26597.0 0.0000376 25571.92773 26238.36914
26855.0 0.0000372 25589.05078 26467.43555
27187.0 0.0000368 25606.16797 26808.73047
27626.0 0.0000362 25623.28125 27296.48438
28185.0 0.0000355 25640.38672 27942.50781
28835.0 0.00003468 25657.48633 28700.47461
29418.0 0.00003399 25674.58008 29445.04492
29748.0 0.00003362 25691.66602 29953.03320
29726.0 0.00003364 25708.75000 29981.58398
29312.0 0.00003412 25725.82422 29526.08008
28725.0 0.00003481 25742.89453 28857.22070
28210.0 0.0000354 25759.95898 28239.43359
27877.0 0.0000359 25777.01563 27806.66016
27722.0 0.0000361 25794.06445 27588.56250
27729.0 0.0000361 25811.10742 27547.31641
27828.0 0.0000359 25828.14063 27601.19922
27854.0 0.0000359 25845.17383 27663.24414
27781.0 0.0000360 25862.19531 27696.59766
27700.0 0.0000361 25879.21289 27699.87695
27652.0 0.0000362 25896.21875 27659.05469
27554.0 0.0000363 25913.22461 27559.54883
27435.0 0.0000364 25930.21289 27418.18945
27296.0 0.0000366 25947.20117 27274.79688
27181.0 0.0000368 25964.18359 27163.38672
27082.0 0.0000369 25981.15625 27099.31055
27034.0 0.0000370 25998.12109 27077.16016
26977.0 0.0000371 26015.07617 27071.80273
26932.0 0.0000371 26032.02344 27043.89844
26889.0 0.0000372 26048.96680 26966.34961
26815.0 0.0000373 26065.89844 26854.57813
26747.0 0.0000374 26082.82617 26742.13477
26698.0 0.0000375 26099.74023 26651.72852
26654.0 0.0000375 26116.64648 26590.04492
26624.0 0.0000376 26133.55078 26556.19922
26613.0 0.0000376 26150.43945 26545.29688
26600.0 0.0000376 26167.32422 26551.89648
26586.0 0.0000376 26184.20117 26571.75000
26608.0 0.0000376 26201.06641 26602.71484
26616.0 0.0000376 26217.92383 26644.84375
26645.0 0.0000375 26234.77148 26700.69336
26684.0 0.0000375 26251.60938 26775.89063
26756.0 0.0000374 26268.44141 26880.42969
26868.0 0.0000372 26285.25977 27029.66992
27003.0 0.0000370 26302.07031 27242.31445
27216.0 0.0000367 26318.87305 27539.41211
27529.0 0.0000363 26335.66602 27937.46289
28035.0 0.0000357 26352.44727 28433.83789
28817.0 0.00003470 26369.22461 28995.65039
29793.0 0.00003356 26385.98438 29527.12891
30507.0 0.00003278 26402.73828 29875.78711
30463.0 0.00003283 26419.48438 29952.48047
29989.0 0.00003335 26436.21680 29866.21484
29632.0 0.00003375 26452.93945 29830.04297
29645.0 0.00003373 26469.65430 30001.72656
30028.0 0.00003330 26486.35547 30436.31055
30728.0 0.00003254 26503.04492 31078.98242
31611.0 0.00003163 26519.72656 31735.32227
32303.0 0.00003096 26536.39844 32080.36719
32299.0 0.00003096 26553.05664 31880.93555
31581.0 0.00003166 26569.70703 31250.25586
30651.0 0.00003263 26586.34375 30487.32031
29840.0 0.00003351 26602.97266 29805.08203
29267.0 0.00003417 26619.58594 29285.32422
28853.0 0.00003466 26636.18750 28920.02734
28550.0 0.00003503 26652.77930 28656.55469
28284.0 0.0000354 26669.36133 28439.17773
28082.0 0.0000356 26685.92969 28242.02930
27967.0 0.0000358 26702.48242 28072.93555
27921.0 0.0000358 26719.03125 27948.87305
27954.0 0.0000358 26735.56445 27886.11719
28046.0 0.0000357 26752.08398 27898.44727
28176.0 0.0000355 26768.59375 28000.51953
28366.0 0.0000353 26785.08594 28204.01172
28603.0 0.00003496 26801.57227 28502.42188
28839.0 0.00003468 26818.04492 28857.78125
29041.0 0.00003443 26834.50000 29157.92773
29099.0 0.00003437 26850.94531 29237.96484
28939.0 0.00003456 26867.37695 29024.88867
28656.0 0.00003490 26883.79492 28638.44141
28397.0 0.0000352 26900.20313 28237.86523
28193.0 0.0000355 26916.59766 27910.81836
28038.0 0.0000357 26932.97461 27682.57617
27907.0 0.0000358 26949.33984 27544.40039
27814.0 0.0000360 26965.69141 27474.14063
27755.0 0.0000360 26982.02734 27451.77539
27731.0 0.0000361 26998.35352 27465.96289
27719.0 0.0000361 27014.66406 27513.90625
27733.0 0.0000361 27030.96094 27599.14453
27789.0 0.0000360 27047.24023 27729.60352
27871.0 0.0000359 27063.50781 27912.69141
27991.0 0.0000357 27079.76172 28148.01172
28171.0 0.0000355 27095.99609 28420.99023
28400.0 0.0000352 27112.21875 28708.05078
28686.0 0.00003486 27128.42969 28973.70313
28999.0 0.00003448 27144.62109 29135.00586
29176.0 0.00003427 27160.79883 29094.62891
29101.0 0.00003436 27176.96094 28864.46094
28851.0 0.00003466 27193.10547 28564.84180
28555.0 0.00003502 27209.23828 28299.84570
28319.0 0.0000353 27225.35742 28116.77930
28176.0 0.0000355 27241.45508 28022.45703
28108.0 0.0000356 27257.53906 27998.86914
28068.0 0.0000356 27273.60742 28013.98633
27984.0 0.0000357 27289.65820 28031.83008
27889.0 0.0000359 27305.69727 28029.14844
27783.0 0.0000360 27321.71094 28002.47852
27722.0 0.0000361 27337.71680 27962.95898
27685.0 0.0000361 27353.69922 27924.40625
27681.0 0.0000361 27369.66992 27903.35156
27697.0 0.0000361 27385.62305 27917.32813
27742.0 0.0000360 27401.55469 27983.54688
27840.0 0.0000359 27417.47266 28116.07227
28016.0 0.0000357 27433.37500 28340.27148
28296.0 0.0000353 27449.25391 28660.48438
28765.0 0.00003476 27465.11914 29041.95508
29409.0 0.00003400 27480.96289 29370.74219
29827.0 0.00003353 27496.79492 29471.59766
29610.0 0.00003377 27512.60352 29277.72266
29066.0 0.00003440 27528.39844 28926.83398
28589.0 0.00003498 27544.17188 28584.03906
28309.0 0.0000353 27559.92773 28336.98633
28154.0 0.0000355 27575.66211 28206.68555
28101.0 0.0000356 27591.38086 28175.54688
28156.0 0.0000355 27607.08203 28213.23438
28257.0 0.0000354 27622.75977 28291.41406
28388.0 0.0000352 27638.42383 28387.36133
28490.0 0.0000351 27654.06250 28487.10938
28558.0 0.00003502 27669.68359 28592.31055
28664.0 0.00003489 27685.28711 28711.41602
28865.0 0.00003464 27700.86914 28837.61914
29092.0 0.00003437 27716.42969 28930.85352
29139.0 0.00003432 27731.97266 28934.17188
28936.0 0.00003456 27747.49414 28837.92969
28668.0 0.00003488 27762.99805 28700.76758
28472.0 0.0000351 27778.47656 28586.60547
28398.0 0.0000352 27793.93750 28530.87891
28409.0 0.0000352 27809.37891 28552.87305
28475.0 0.0000351 27824.79492 28652.98242
28614.0 0.00003495 27840.19141 28824.50781
28807.0 0.00003471 27855.57031 29050.60742
29045.0 0.00003443 27870.92383 29305.07031
29338.0 0.00003409 27886.25781 29564.97266
29674.0 0.00003370 27901.56641 29804.96484
29980.0 0.00003336 27916.85938 29970.60742
30127.0 0.00003319 27932.12500 29985.06641
29973.0 0.00003336 27947.37109 29808.41992
29605.0 0.00003378 27962.58984 29506.02930
29222.0 0.00003422 27977.79297 29192.27344
28928.0 0.00003457 27992.97070 28942.09766
28731.0 0.00003481 28008.12500 28784.33008
28625.0 0.00003493 28023.25977 28718.67188
28601.0 0.00003496 28038.36523 28730.02344
28636.0 0.00003492 28053.44922 28796.13477
28722.0 0.00003482 28068.50977 28892.21289
28839.0 0.00003468 28083.55078 28986.79688
28923.0 0.00003457 28098.56250 29041.82617
28900.0 0.00003460 28113.55078 29030.23633
28764.0 0.00003477 28128.52148 28953.81055
28593.0 0.00003497 28143.46094 28844.31641
28477.0 0.0000351 28158.37695 28730.84180
28386.0 0.0000352 28173.27148 28635.09375
28324.0 0.0000353 28188.14063 28566.03906
28304.0 0.0000353 28202.98242 28524.59375
28305.0 0.0000353 28217.79883 28507.67383
28333.0 0.0000353 28232.59180 28511.19531
28360.0 0.0000353 28247.36133 28532.24414
28406.0 0.0000352 28262.10156 28570.30273
28471.0 0.0000351 28276.81445 28627.32031
28538.0 0.00003504 28291.50586 28706.48828
28666.0 0.00003488 28306.17188 28810.28320
28817.0 0.00003470 28320.80664 28938.63086
29022.0 0.00003446 28335.41797 29086.33203
29279.0 0.00003415 28350.00000 29237.50000
29546.0 0.00003385 28364.55859 29359.71680
29688.0 0.00003368 28379.08789 29422.28711
29611.0 0.00003377 28393.59180 29428.44336
29474.0 0.00003393 28408.06836 29417.45898
29405.0 0.00003401 28422.51563 29426.67383
29406.0 0.00003401 28436.93750 29467.37695
29420.0 0.00003399 28451.33008 29517.81250
29410.0 0.00003400 28465.69531 29535.94922
29332.0 0.00003409 28480.02930 29495.80664
29229.0 0.00003421 28494.33984 29410.48828
29130.0 0.00003433 28508.61719 29307.81250
29035.0 0.00003444 28522.86719 29205.92773
28955.0 0.00003454 28537.09180 29116.08203
28904.0 0.00003460 28551.28320 29046.80469
28857.0 0.00003465 28565.44922 29004.76758
28835.0 0.00003468 28579.58203 28993.23633
28843.0 0.00003467 28593.68359 29015.87891
28894.0 0.00003461 28607.75781 29074.91992
29007.0 0.00003447 28621.80273 29168.50391
29176.0 0.00003427 28635.81445 29291.19727
29418.0 0.00003399 28649.80078 29430.71289
29663.0 0.00003371 28663.75391 29546.00586
29777.0 0.00003358 28677.67969 29602.24414
29718.0 0.00003365 28691.56836 29589.64258
29578.0 0.00003381 28705.42969 29540.60352
29463.0 0.00003394 28719.25977 29494.68359
29415.0 0.00003400 28733.05664 29469.67773
29384.0 0.00003403 28746.82031 29473.62109
29368.0 0.00003405 28760.55469 29507.65430
29359.0 0.00003406 28774.25586 29571.37109
29368.0 0.00003405 28787.92773 29660.62305
29379.0 0.00003404 28801.56445 29768.26563
29407.0 0.00003401 28815.16602 29876.20703
29431.0 0.00003398 28828.73828 29946.81055
29438.0 0.00003397 28842.27734 29933.05859
29388.0 0.00003403 28855.78125 29826.37891
29325.0 0.00003410 28869.25586 29669.16406
29265.0 0.00003417 28882.69141 29514.09961
29238.0 0.00003420 28896.09570 29389.61914
29227.0 0.00003421 28909.46680 29307.71875
29244.0 0.00003420 28922.80273 29270.34570
29286.0 0.00003415 28936.10352 29273.46289
29344.0 0.00003408 28949.37109 29308.16016
29424.0 0.00003399 28962.60547 29359.61328
29489.0 0.00003391 28975.80078 29404.08203
29528.0 0.00003387 28988.96289 29414.25781
29516.0 0.00003388 29002.08789 29382.25781
29467.0 0.00003394 29015.17969 29327.99805
29397.0 0.00003402 29028.23047 29275.19727
29360.0 0.00003406 29041.25195 29237.42188
29341.0 0.00003408 29054.23633 29219.27344
29317.0 0.00003411 29067.17969 29219.57813
29316.0 0.00003411 29080.08984 29233.24609
29325.0 0.00003410 29092.96289 29253.33594
29320.0 0.00003411 29105.79883 29274.55859
29338.0 0.00003409 29118.59570 29295.31055
29348.0 0.00003407 29131.35547 29313.89844
29352.0 0.00003407 29144.07813 29324.25781
29356.0 0.00003406 29156.76367 29317.55664
29351.0 0.00003407 29169.41211 29289.23633
29371.0 0.00003405 29182.01953 29243.64844
29383.0 0.00003403 29194.58984 29189.23438
29405.0 0.0 29207.12109 .
29461.0 . . .
29527.0 . . .
29558.0 . . .
29581.0 . . .
29601.0 . . .
29632.0 . . .
29693.0 . . .
29794.0 . . .
29945.0 . . .
30158.0 . . .
30423.0 . . .
30820.0 . . .
31334.0 . . .
31633.0 . . .
31440.0 . . .
31045.0 . . .
30735.0 . . .
30559.0 . . .
30509.0 . . .
30549.0 . . .
30667.0 . . .
30865.0 . . .
31122.0 . . .
31468.0 . . .
31903.0 . . .
32458.0 . . .
33163.0 . . .
33939.0 . . .
34538.0 . . .
34688.0 . . .
34494.0 . . .
34078.0 . . .
33423.0 . . .
32680.0 . . .
32003.0 . . .
31490.0 . . .
31137.0 . . .
30904.0 . . .
30737.0 . . .
30626.0 . . .
30563.0 . . .
30544.0 . . .
30569.0 . . .
30624.0 . . .
30695.0 . . .
30747.0 . . .
30738.0 . . .
30716.0 . . .
30721.0 . . .
30762.0 . . .
30873.0 . . .
31051.0 . . .
31223.0 . . .
31239.0 . . .
31112.0 . . .
30913.0 . . .
30769.0 . . .
30656.0 . . .
30581.0 . . .
30524.0 . . .
30515.0 . . .
30527.0 . . .
30572.0 . . .
30601.0 . . .
30619.0 . . .
30615.0 . . .
30559.0 . . .
30500.0 . . .
30484.0 . . .
30463.0 . . .
30462.0 . . .
30477.0 . . .
30543.0 . . .
30615.0 . . .
30689.0 . . .
30778.0 . . .
30907.0 . . .
31053.0 . . .
31228.0 . . .
31433.0 . . .
31632.0 . . .
31814.0 . . .
31983.0 . . .
32158.0 . . .
32359.0 . . .
32426.0 . . .
32242.0 . . .
31898.0 . . .
31554.0 . . .
31274.0 . . .
31087.0 . . .
30952.0 . . .
30871.0 . . .
30813.0 . . .
30801.0 . . .
30827.0 . . .
30867.0 . . .
30913.0 . . .
30985.0 . . .
31062.0 . . .
31180.0 . . .
31311.0 . . .
31443.0 . . .
31548.0 . . .
31588.0 . . .
31579.0 . . .
31524.0 . . .
31412.0 . . .
31290.0 . . .
31193.0 . . .
31113.0 . . .
31044.0 . . .
30988.0 . . .
30956.0 . . .
30940.0 . . .
30968.0 . . .
31018.0 . . .
31083.0 . . .
31204.0 . . .
31317.0 . . .
31400.0 . . .
31416.0 . . .
31360.0 . . .
31291.0 . . .
31243.0 . . .
31242.0 . . .
31318.0 . . .
31462.0 . . .
31602.0 . . .
31635.0 . . .
31527.0 . . .
31351.0 . . .
31208.0 . . .
31118.0 . . .
31078.0 . . .
31062.0 . . .
31053.0 . . .
31054.0 . . .
31065.0 . . .
31097.0 . . .
31124.0 . . .
31172.0 . . .
31250.0 . . .
31324.0 . . .
31412.0 . . .
31484.0 . . .
31533.0 . . .
31555.0 . . .
31588.0 . . .
31644.0 . . .
31725.0 . . .
31857.0 . . .
32054.0 . . .
32305.0 . . .
32551.0 . . .
32771.0 . . .
32938.0 . . .
32974.0 . . .
32890.0 . . .
32759.0 . . .
32594.0 . . .
32422.0 . . .
32277.0 . . .
32134.0 . . .
31983.0 . . .
31860.0 . . .
31739.0 . . .
31653.0 . . .
31614.0 . . .
31590.0 . . .
31587.0 . . .
31615.0 . . .
31633.0 . . .
31607.0 . . .
31553.0 . . .
31529.0 . . .
31534.0 . . .
31543.0 . . .
31591.0 . . .
31670.0 . . .
31715.0 . . .
31774.0 . . .
31850.0 . . .
31928.0 . . .
32004.0 . . .
32032.0 . . .
32011.0 . . .
31954.0 . . .
31886.0 . . .
31816.0 . . .
31753.0 . . .
31728.0 . . .
31738.0 . . .
31774.0 . . .
31797.0 . . .
31789.0 . . .
31761.0 . . .
31724.0 . . .
31702.0 . . .
31687.0 . . .
31671.0 . . .
31686.0 . . .
31690.0 . . .
31703.0 . . .
31708.0 . . .
31721.0 . . .
31759.0 . . .
31811.0 . . .
31885.0 . . .
31956.0 . . .
32049.0 . . .
32174.0 . . .
32325.0 . . .
32487.0 . . .
32612.0 . . .
32673.0 . . .
32683.0 . . .
32664.0 . . .
32639.0 . . .
32708.0 . . .
32824.0 . . .
32959.0 . . .
33006.0 . . .
32934.0 . . .
32822.0 . . .
32730.0 . . .
32656.0 . . .
32600.0 . . .
32565.0 . . .
32482.0 . . .
32351.0 . . .
32215.0 . . .
32401.0 . . .
32591.0 . . .
32751.0 . . .
32884.0 . . .
32965.0 . . .
32936.0 . . .
32827.0 . . .
32700.0 . . .
32619.0 . . .
32569.0 . . .
32573.0 . . .
32616.0 . . .
32675.0 . . .
32684.0 . . .
32616.0 . . .
32500.0 . . .
32374.0 . . .
32293.0 . . .
32220.0 . . .
32168.0 . . .
32147.0 . . .
32158.0 . . .
32157.0 . . .
32162.0 . . .
32191.0 . . .
32205.0 . . .
32276.0 . . .
32353.0 . . .
32452.0 . . .
32566.0 . . .
32641.0 . . .
32697.0 . . .
32726.0 . . .
32751.0 . . .
32728.0 . . .
32664.0 . . .
32584.0 . . .
32489.0 . . .
32410.0 . . .
32346.0 . . .
32321.0 . . .
32312.0 . . .
32311.0 . . .
32335.0 . . .
32378.0 . . .
32407.0 . . .
32469.0 . . .
32556.0 . . .
32651.0 . . .
32765.0 . . .
32850.0 . . .
32857.0 . . .
32797.0 . . .
32727.0 . . .
32661.0 . . .
32642.0 . . .
32630.0 . . .
32651.0 . . .
32707.0 . . .
32786.0 . . .
32900.0 . . .
33038.0 . . .
33168.0 . . .
33256.0 . . .
33304.0 . . .
33341.0 . . .
33401.0 . . .
33509.0 . . .
33679.0 . . .
33925.0 . . .
34249.0 . . .
34511.0 . . .
34702.0 . . .
34729.0 . . .
34525.0 . . .
34193.0 . . .
33865.0 . . .
33617.0 . . .
33429.0 . . .
33324.0 . . .
33291.0 . . .
33316.0 . . .
33386.0 . . .
33522.0 . . .
33631.0 . . .
33653.0 . . .
33569.0 . . .
33433.0 . . .
33314.0 . . .
33230.0 . . .
33209.0 . . .
33220.0 . . .
33255.0 . . .
33318.0 . . .
33425.0 . . .
33561.0 . . .
33665.0 . . .
33610.0 . . .
33464.0 . . .
33333.0 . . .
33238.0 . . .
33167.0 . . .
33123.0 . . .
33134.0 . . .
33184.0 . . .
33254.0 . . .
33364.0 . . .
33449.0 . . .
33485.0 . . .
33449.0 . . .
33395.0 . . .
33361.0 . . .
33358.0 . . .
33379.0 . . .
33430.0 . . .
33508.0 . . .
33612.0 . . .
33762.0 . . .
33985.0 . . .
34182.0 . . .
34227.0 . . .
34099.0 . . .
33879.0 . . .
33668.0 . . .
33489.0 . . .
33382.0 . . .
33313.0 . . .
33276.0 . . .
33241.0 . . .
33223.0 . . .
33227.0 . . .
33217.0 . . .
33191.0 . . .
33148.0 . . .
33108.0 . . .
33095.0 . . .
33105.0 . . .
33119.0 . . .
33138.0 . . .
33141.0 . . .
33133.0 . . .
33132.0 . . .
33167.0 . . .
33190.0 . . .
33216.0 . . .
33234.0 . . .
33251.0 . . .
33236.0 . . .
33243.0 . . .
33259.0 . . .
33262.0 . . .
33261.0 . . .
33275.0 . . .
33299.0 . . .
33318.0 . . .
33335.0 . . .
33336.0 . . .
33338.0 . . .
33348.0 . . .
33363.0 . . .
33381.0 . . .
33422.0 . . .
33473.0 . . .
33502.0 . . .
33530.0 . . .
33578.0 . . .
33628.0 . . .
33682.0 . . .
33737.0 . . .
33786.0 . . .
33840.0 . . .
33905.0 . . .
33920.0 . . .
33881.0 . . .
33801.0 . . .
33734.0 . . .
33702.0 . . .
33680.0 . . .
33677.0 . . .
33685.0 . . .
33733.0 . . .
33807.0 . . .
33874.0 . . .
33991.0 . . .
34144.0 . . .
34338.0 . . .
34571.0 . . .
34717.0 . . .
34675.0 . . .
34481.0 . . .
34277.0 . . .
34113.0 . . .
34008.0 . . .
33944.0 . . .
33935.0 . . .
33924.0 . . .
33933.0 . . .
33949.0 . . .
33964.0 . . .
33943.0 . . .
33926.0 . . .
33890.0 . . .
33862.0 . . .
33832.0 . . .
33796.0 . . .
33774.0 . . .
33768.0 . . .
33757.0 . . .
33757.0 . . .
33775.0 . . .
33791.0 . . .
33789.0 . . .
33824.0 . . .
33882.0 . . .
33947.0 . . .
33984.0 . . .
34026.0 . . .
34048.0 . . .
34049.0 . . .
34066.0 . . .
34041.0 . . .
34015.0 . . .
34020.0 . . .
34043.0 . . .
34111.0 . . .
34163.0 . . .
34226.0 . . .
34302.0 . . .
34369.0 . . .
34413.0 . . .
34422.0 . . .
34362.0 . . .
34286.0 . . .
34196.0 . . .
34144.0 . . .
34127.0 . . .
34093.0 . . .
34113.0 . . .
34123.0 . . .
34156.0 . . .
34170.0 . . .
34177.0 . . .
34184.0 . . .
34173.0 . . .
34154.0 . . .
34150.0 . . .
34140.0 . . .
34159.0 . . .
34183.0 . . .
34199.0 . . .
34198.0 . . .
34199.0 . . .
34221.0 . . .
34227.0 . . .
34257.0 . . .
34312.0 . . .
34382.0 . . .
34430.0 . . .
34488.0 . . .
34555.0 . . .
34594.0 . . .
34630.0 . . .
34611.0 . . .
34578.0 . . .
34550.0 . . .
34504.0 . . .
34481.0 . . .
34494.0 . . .
34491.0 . . .
34489.0 . . .
34495.0 . . .
34502.0 . . .
34515.0 . . .
34576.0 . . .
34642.0 . . .
34703.0 . . .
34750.0 . . .
34798.0 . . .
34810.0 . . .
34813.0 . . .
34795.0 . . .
34751.0 . . .
34704.0 . . .
34721.0 . . .
34739.0 . . .
34753.0 . . .
34755.0 . . .
34712.0 . . .
34651.0 . . .
34598.0 . . .
34578.0 . . .
34550.0 . . .
34533.0 . . .
34524.0 . . .
34516.0 . . .
34562.0 . . .
34601.0 . . .
34645.0 . . .
34696.0 . . .
34736.0 . . .
34738.0 . . .
34754.0 . . .
34730.0 . . .
34713.0 . . .
34700.0 . . .
34736.0 . . .
34774.0 . . .
34820.0 . . .
34842.0 . . .
34881.0 . . .
34912.0 . . .
34919.0 . . .
34926.0 . . .
34935.0 . . .
34951.0 . . .
34965.0 . . .
34948.0 . . .
34925.0 . . .
34892.0 . . .
34892.0 . . .
34926.0 . . .
34971.0 . . .
35046.0 . . .
35113.0 . . .
35122.0 . . .
35131.0 . . .
35049.0 . . .
34949.0 . . .
34839.0 . . .
34749.0 . . .
34701.0 . . .
34670.0 . . .
34633.0 . . .
34631.0 . . .
34641.0 . . .
34653.0 . . .
34645.0 . . .
34674.0 . . .
34727.0 . . .
34745.0 . . .
34730.0 . . .
34705.0 . . .
34720.0 . . .
34734.0 . . .
34721.0 . . .
34764.0 . . .
34805.0 . . .
34835.0 . . .
34874.0 . . .
34886.0 . . .
34903.0 . . .
34890.0 . . .
34904.0 . . .
34930.0 . . .
34916.0 . . .
34912.0 . . .
34954.0 . . .
34978.0 . . .
34976.0 . . .
34994.0 . . .
35021.0 . . .
35103.0 . . .
35197.0 . . .
35287.0 . . .
35389.0 . . .
35459.0 . . .
35510.0 . . .
35501.0 . . .
35505.0 . . .
35448.0 . . .
35389.0 . . .
35302.0 . . .
35210.0 . . .
35119.0 . . .
35067.0 . . .
35030.0 . . .
34967.0 . . .
34957.0 . . .
34957.0 . . .
34921.0 . . .
34905.0 . . .
34883.0 . . .
34842.0 . . .
34818.0 . . .
34832.0 . . .
34872.0 . . .
34897.0 . . .
34902.0 . . .
34900.0 . . .
34917.0 . . .
34891.0 . . .
34896.0 . . .
34906.0 . . .
34939.0 . . .
34982.0 . . .
35034.0 . . .
35086.0 . . .
35167.0 . . .
35246.0 . . .
35294.0 . . .
35263.0 . . .
35220.0 . . .
35237.0 . . .
35288.0 . . .
35349.0 . . .
35435.0 . . .
35542.0 . . .
35625.0 . . .
35721.0 . . .
35822.0 . . .
35921.0 . . .
36009.0 . . .
36062.0 . . .
36047.0 . . .
35961.0 . . .
35956.0 . . .
36034.0 . . .
36200.0 . . .
36335.0 . . .
36288.0 . . .
35993.0 . . .
35757.0 . . .
35574.0 . . .
35448.0 . . .
35351.0 . . .
35328.0 . . .
35298.0 . . .
35271.0 . . .
35260.0 . . .
35274.0 . . .
35326.0 . . .
35328.0 . . .
35325.0 . . .
35375.0 . . .
35381.0 . . .
35400.0 . . .
35460.0 . . .
35525.0 . . .
35576.0 . . .
35669.0 . . .
35856.0 . . .
36084.0 . . .
36246.0 . . .
36291.0 . . .
36081.0 . . .
35852.0 . . .
35655.0 . . .
35497.0 . . .
35362.0 . . .
35294.0 . . .
35251.0 . . .
35242.0 . . .
35218.0 . . .
35207.0 . . .
35131.0 . . .
35093.0 . . .
35089.0 . . .
35061.0 . . .
35034.0 . . .
35053.0 . . .
35068.0 . . .
35055.0 . . .
35023.0 . . .
35018.0 . . .
34998.0 . . .
35004.0 . . .
34996.0 . . .
35033.0 . . .
35046.0 . . .
35048.0 . . .
35092.0 . . .
35048.0 . . .
35025.0 . . .
35036.0 . . .
35050.0 . . .
35029.0 . . .
35054.0 . . .
35061.0 . . .
35070.0 . . .
35082.0 . . .
35159.0 . . .
35213.0 . . .
35257.0 . . .
35366.0 . . .
35425.0 . . .
35516.0 . . .
35603.0 . . .
35680.0 . . .
35662.0 . . .
35632.0 . . .
35523.0 . . .
35392.0 . . .
35254.0 . . .
35155.0 . . .
35069.0 . . .
35019.0 . . .
35009.0 . . .
34986.0 . . .
34974.0 . . .
35010.0 . . .
35117.0 . . .
35209.0 . . .
35267.0 . . .
35270.0 . . .
35209.0 . . .
35196.0 . . .
35225.0 . . .
35245.0 . . .
35247.0 . . .
35196.0 . . .
35092.0 . . .
35003.0 . . .
34943.0 . . .
34838.0 . . .
34780.0 . . .
34795.0 . . .
34834.0 . . .
34793.0 . . .
34775.0 . . .
34758.0 . . .
34731.0 . . .
34721.0 . . .
34693.0 . . .
34692.0 . . .
34719.0 . . .
34761.0 . . .
34725.0 . . .
34745.0 . . .
34791.0 . . .
34754.0 . . .
34794.0 . . .
34842.0 . . .
34880.0 . . .
34946.0 . . .
34998.0 . . .
35070.0 . . .
35042.0 . . .
35051.0 . . .
35059.0 . . .
35061.0 . . .
35084.0 . . .
35121.0 . . .
35129.0 . . .
35100.0 . . .
35127.0 . . .
35106.0 . . .
35090.0 . . .
35150.0 . . .
35200.0 . . .
35238.0 . . .
35233.0 . . .
35246.0 . . .
35260.0 . . .
35262.0 . . .
35316.0 . . .
35329.0 . . .
35315.0 . . .
35372.0 . . .
35359.0 . . .
35420.0 . . .
35411.0 . . .
35430.0 . . .
35505.0 . . .
35599.0 . . .
35744.0 . . .
35812.0 . . .
35906.0 . . .
35991.0 . . .
35982.0 . . .
36013.0 . . .
36039.0 . . .
36037.0 . . .
36015.0 . . .
36071.0 . . .
36114.0 . . .
36183.0 . . .
36276.0 . . .
36414.0 . . .
36481.0 . . .
36482.0 . . .
36412.0 . . .
36334.0 . . .
36333.0 . . .
36311.0 . . .
36274.0 . . .
36249.0 . . .
36191.0 . . .
36230.0 . . .
36209.0 . . .
36262.0 . . .
36324.0 . . .
36319.0 . . .
36424.0 . . .
36419.0 . . .
36452.0 . . .
36538.0 . . .
36552.0 . . .
36644.0 . . .
36700.0 . . .
36714.0 . . .
36739.0 . . .
36760.0 . . .
36790.0 . . .
36884.0 . . .
36871.0 . . .
36940.0 . . .
36985.0 . . .
36991.0 . . .
36997.0 . . .
36952.0 . . .
36858.0 . . .
36813.0 . . .
36856.0 . . .
36957.0 . . .
36960.0 . . .
37017.0 . . .
37006.0 . . .
36976.0 . . .
36984.0 . . .
36936.0 . . .
36853.0 . . .
36888.0 . . .
36889.0 . . .
36859.0 . . .
36849.0 . . .
36812.0 . . .
36822.0 . . .
36934.0 . . .
36911.0 . . .
36883.0 . . .
36874.0 . . .
36736.0 . . .
36795.0 . . .
36800.0 . . .
36837.0 . . .
36804.0 . . .
36743.0 . . .
36686.0 . . .
36643.0 . . .
36532.0 . . .
36515.0 . . .
36563.0 . . .
36532.0 . . .
36462.0 . . .
36378.0 . . .
36334.0 . . .
36276.0 . . .
36233.0 . . .
36215.0 . . .
36225.0 . . .
36170.0 . . .
36187.0 . . .
36129.0 . . .
35971.0 . . .
35999.0 . . .
35998.0 . . .
35881.0 . . .
35989.0 . . .
35931.0 . . .
35855.0 . . .
35952.0 . . .
35896.0 . . .
35845.0 . . .
35903.0 . . .
35765.0 . . .
35629.0 . . .
35788.0 . . .
35722.0 . . .
35706.0 . . .
35792.0 . . .
35587.0 . . .
35513.0 . . .
35549.0 . . .
35309.0 . . .
35285.0 . . .
35475.0 . . .
35194.0 . . .
35121.0 . . .
35234.0 . . .
35174.0 . . .
35394.0 . . .
35818.0 . . .
36036.0 . . .
35741.0 . . .
35880.0 . . .
35785.0 . . .
35696.0 . . .
35714.0 . . .
35382.0 . . .
35017.0 . . .
35148.0 . . .
34657.0 . . .
34365.0 . . .
34533.0 . . .
33916.0 . . .
33866.0 . . .
34181.0 . . .
34133.0 . . .
35409.0 . . .
36595.0 . . .
36806.0 . . .
37028.0 . . .
36784.0 . . .
36609.0 . . .
36744.0 . . .
36756.0 . . .
36929.0 . . .
36733.0 . . .
36394.0 . . .
36367.0 . . .
36270.0 . . .
36491.0 . . .
36602.0 . . .
36722.0 . . .
36721.0 . . .
37707.0 . . .
38171.0 . . .
loop_
_refln_index_h
_refln_index_k
_refln_index_l
_refln_observed_status
_refln_F_squared_meas
_refln_F_squared_calc
_refln_phase_calc
_refln_d_spacing
_gsas_i100_meas
0 0 2 o 49.076 51.324 0.00 7.81095 0.05
0 1 2 o 6615.220 6542.559 0.00 6.75655 11.87
0 2 0 o 21786.391 21392.375 0.00 6.73292 54.42
0 2 1 o 683.164 510.325 0.00 6.18310 2.06
0 2 2 o 1954.479 2390.222 0.00 5.09979 3.82
0 1 3 o 5981.009 7841.688 0.00 4.85680 5.81
0 2 3 o 2708.904 2827.978 0.00 4.11910 2.77
1 0 0 o 28586.012 29283.494 180.00 4.20975 31.45
0 3 1 o 85.239 108.007 180.00 4.31407 0.16
1 0 2 o 19075.936 20026.590 180.00 4.03157 16.18
0 0 4 o 1292.658 1355.315 180.00 3.90547 0.35
1 1 1 o 7.162 7.445 180.00 4.06917 0.01
1 1 0 o 219.429 239.115 180.00 4.01798 0.30
0 3 2 o 3178.070 2819.153 0.00 3.89179 3.08
1 1 2 o 781.550 795.243 0.00 3.86219 0.94
0 1 4 o 772.804 771.729 0.00 3.75090 0.51
1 1 -1 o 5245.186 5146.094 180.00 3.73493 7.91
1 1 3 o 613.585 600.312 180.00 3.49467 0.03
1 2 1 o 20860.379 20803.842 180.00 3.60521 37.38
1 2 0 o 41394.86 41254.69 180.00 3.56946 61.23
0 2 4 o 14393.033 13713.396 180.00 3.37827 6.47
1 2 2 o 58223.90 58238.52 180.00 3.45890 100.00
1 0 -2 o 0.000 2399.863 0.00 3.44806 0.00
0 3 3 o 11548.404 11295.970 0.00 3.39986 10.03
1 1 -2 o 22.298 18.489 0.00 3.34030 0.06
1 2 -1 o 0.000 4759.859 0.00 3.36659 0.00
1 0 4 o 14830.764 15364.510 0.00 3.17175 3.62
0 4 0 o 28835.754 28522.549 0.00 3.36646 18.03
0 4 1 o 858.833 1174.292 0.00 3.29092 1.03
1 2 3 o 1104.058 1118.478 180.00 3.18746 0.95
1 1 4 o 170.107 181.409 0.00 3.08726 0.05
0 1 5 o 605.126 734.751 0.00 3.04353 0.26
0 4 2 o 4377.593 4615.860 0.00 3.09155 3.30
1 2 -2 o 523.700 552.348 180.00 3.06902 2.53
1 3 1 o 10190.440 10603.431 0.00 3.09326 13.29
0 3 4 o 1708.879 1987.994 0.00 2.94633 1.04
1 3 0 o 10365.922 10688.975 0.00 3.07060 9.90
1 3 2 o 6162.858 6425.915 180.00 2.99936 7.54
1 1 -3 o 3684.280 4028.544 180.00 2.93915 3.33
1 2 4 o 4382.145 3926.695 0.00 2.86931 1.20
0 2 5 o 884.008 1015.158 0.00 2.83410 0.26
1 3 -1 o 0.000 1544.373 180.00 2.93858 0.00
0 4 3 o 13336.747 14624.028 0.00 2.82711 6.84
1 3 3 o 26593.326 28860.750 180.00 2.81718 23.21
1 1 5 o 2869.751 2976.183 180.00 2.71013 1.30
1 2 -3 o 0.327 0.404 180.00 2.74924 0.00
1 3 -2 o 2152.050 1705.952 180.00 2.73441 0.60
1 0 -4 o 0.000 14362.107 0.00 2.62999 0.00
0 1 6 o 3860.534 3953.756 0.00 2.55630 1.15
0 0 6 o 42968.15 41791.25 180.00 2.60365 5.12
1 3 4 o 273.161 305.010 180.00 2.59031 0.14
1 1 -4 o 0.000 1384.133 0.00 2.58122 0.00
0 3 5 o 479.875 499.737 180.00 2.56432 0.16
1 2 5 o 3559.611 3631.928 180.00 2.55910 0.67
0 5 1 o 22.047 17.343 180.00 2.65402 0.02
0 4 4 o 14121.610 14559.114 180.00 2.54990 6.91
1 4 0 o 11688.247 11499.194 180.00 2.62917 15.21
1 4 1 o 55.050 39.516 180.00 2.64336 0.07
0 5 2 o 21.650 22.362 180.00 2.54608 0.01
1 4 2 o 8706.617 9158.144 180.00 2.58404 7.97
0 2 6 o 19503.932 20029.254 180.00 2.42840 4.75
1 0 6 o 8525.535 8887.780 0.00 2.42490 1.26
1 4 -1 o 12023.147 12418.631 0.00 2.54486 9.75
1 3 -3 o 19.170 21.444 180.00 2.50095 0.02
1 2 -4 o 35115.55 36175.64 0.00 2.44973 10.56
1 1 6 o 4196.917 4132.692 180.00 2.38652 1.65
1 4 3 o 7998.669 8441.111 180.00 2.46479 4.51
1 4 -2 o 26.372 28.122 180.00 2.40878 0.00
1 3 5 o 187.331 174.912 180.00 2.35526 0.04
0 5 3 o 686.207 655.780 0.00 2.39217 0.27
0 3 6 o 10239.547 10093.092 0.00 2.25218 2.05
0 4 5 o 512.379 591.266 180.00 2.29007 0.20
1 2 6 o 10348.992 10910.822 0.00 2.28145 2.63
1 1 -5 o 663.235 696.052 180.00 2.27854 0.32
1 3 -4 o 7790.229 8095.139 0.00 2.26917 2.90
1 4 4 o 12540.665 12903.448 0.00 2.30853 5.95
0 1 7 o 12858.330 13895.291 180.00 2.20167 2.76
0 5 4 o 4321.710 4574.136 0.00 2.21712 1.40
1 4 -3 o 0.000 1727.203 0.00 2.24460 0.00
1 5 1 o 12.326 12.877 0.00 2.27774 0.01
1 5 0 o 592.501 611.417 0.00 2.26864 0.57
1 2 -5 o 0.000 1425.964 0.00 2.18656 0.00
1 5 2 o 390.561 425.483 0.00 2.23945 0.25
0 2 7 o 1232.913 1193.913 180.00 2.11836 0.25
1 1 7 o 13142.395 12817.185 0.00 2.11666 4.56
0 6 1 o 27.003 28.070 180.00 2.22150 0.02
0 6 0 o 9742.881 11174.147 0.00 2.24431 2.71
1 5 -1 o 108.490 118.479 180.00 2.21381 0.09
1 4 5 o 5499.509 4991.123 180.00 2.13749 2.17
1 3 6 o 10501.315 9972.299 180.00 2.13348 1.03
1 5 3 o 2839.240 2588.706 180.00 2.16049 1.06
0 6 2 o 0.319 0.265 180.00 2.15703 0.00
2 0 2 o 39377.95 37973.75 0.00 2.13437 9.75
0 4 6 o 4990.450 4975.404 180.00 2.05955 1.28
1 5 -2 o 3545.555 3359.954 0.00 2.12247 1.73
1 0 -6 o 6267.763 6292.897 0.00 2.05058 3.02
1 2 7 o 1405.150 1350.092 0.00 2.04232 0.46
2 1 2 o 307.684 314.020 0.00 2.10805 0.12
1 4 -4 o 27538.787 27977.049 0.00 2.07251 8.92
2 0 0 o 5343.896 5453.583 0.00 2.10487 1.47
1 1 -6 o 618.183 498.047 180.00 2.02721 0.18
1 3 -5 o 285.782 285.231 0.00 2.05528 0.24
2 1 1 o 1989.287 1981.134 0.00 2.11275 0.09
2 1 0 o 105.248 120.757 0.00 2.07962 0.04
0 5 5 o 834.184 793.354 0.00 2.03992 0.26
2 1 3 o 0.470 0.479 180.00 2.06626 0.00
0 3 7 o 5462.145 5756.851 180.00 1.99833 0.80
0 6 3 o 41676.21 41635.34 0.00 2.06103 14.00
1 5 4 o 1173.246 1181.641 180.00 2.05293 0.39
2 0 4 o 432.106 407.086 180.00 2.01578 0.13
2 2 2 o 15050.425 14230.505 0.00 2.03458 5.62
1 2 -6 o 7724.895 7922.859 0.00 1.96162 0.95
2 1 4 o 728.820 914.112 180.00 1.99357 0.34
0 0 8 o 431.165 483.352 180.00 1.95274 0.03
2 1 -1 o 1076.753 1071.907 180.00 2.01368 1.08
2 2 1 o 265.235 252.358 180.00 2.03881 0.06
2 2 0 o 13293.344 13080.075 0.00 2.00899 4.49
1 5 -3 o 2862.372 2745.801 180.00 2.00758 0.03
1 4 6 o 5748.640 5960.720 0.00 1.96760 1.35
2 2 3 o 1105.920 1226.118 0.00 1.99693 0.51
1 3 7 o 539.489 642.231 0.00 1.93412 0.05
0 1 8 o 1693.288 2076.102 180.00 1.93252 0.27
0 6 4 o 7614.208 8232.096 180.00 1.94589 1.85
2 0 -2 o 4709.189 4985.583 180.00 1.94373 0.80
1 0 8 o 2896.178 3719.233 0.00 1.91213 0.35
1 6 1 o 361.797 499.809 180.00 1.98649 0.17
2 2 4 o 4.662 5.857 0.00 1.93109 0.00
1 5 5 o 3991.281 5174.582 180.00 1.92984 1.59
1 6 0 o 10267.291 10635.954 180.00 1.98045 4.03
2 1 -2 o 10.547 17.574 0.00 1.92379 0.00
1 1 8 o 739.723 931.091 0.00 1.89314 0.27
2 2 -1 o 2283.559 2592.582 180.00 1.94936 1.09
1 6 2 o 4076.147 4070.038 180.00 1.96094 1.63
1 4 -5 o 104.183 109.462 180.00 1.90576 0.16
0 2 8 o 4397.205 5134.892 0.00 1.87545 0.72
0 5 6 o 2028.001 2600.626 0.00 1.87191 0.54
2 1 5 o 10929.285 12501.976 0.00 1.89934 2.39
1 6 -1 o 7378.544 7630.708 0.00 1.94365 2.41
0 4 7 o 59.508 62.655 180.00 1.86010 0.01
1 5 -4 o 7777.863 8334.717 0.00 1.88162 1.97
1 6 3 o 5343.921 5511.479 180.00 1.90727 1.44
2 3 1 o 47.275 58.998 0.00 1.93114 0.02
2 3 0 o 636.893 641.210 180.00 1.90574 0.29
2 3 2 o 442.719 623.290 180.00 1.92755 0.22
2 3 3 o 431.767 539.738 0.00 1.89544 0.21
1 2 8 o 4360.514 3246.454 0.00 1.83939 1.69
2 2 -2 o 5337.245 7558.619 180.00 1.86747 1.99
1 3 -6 o 9.337 12.208 0.00 1.86516 0.01
0 7 1 o 311.446 337.437 180.00 1.90927 0.13
1 6 -2 o 366.544 381.721 0.00 1.88096 0.10
2 2 5 o 1758.871 1278.048 0.00 1.84508 0.37
0 7 2 o 55.716 81.647 0.00 1.86788 0.02
2 3 -1 o 5379.702 4407.336 0.00 1.85461 1.31
2 3 4 o 15.898 11.583 0.00 1.83886 0.01
