#------------------------------------------------------------------------------
#$Date: 2017-10-13 14:42:48 +0300 (Fri, 13 Oct 2017) $
#$Revision: 201982 $
#$URL: file:///home/coder/svn-repositories/cod/cif/4/50/60/4506087.cif $
#------------------------------------------------------------------------------
#
# This file is available in the Crystallography Open Database (COD),
# http://www.crystallography.net/
#
# All data on this site have been placed in the public domain by the
# contributors.
#
data_4506087
loop_
_publ_author_name
'Dikundwar, Amol G.'
'Row, Tayur N. Guru'
_publ_section_title
;
 Evidence for the &#x201C;Amphoteric&#x201D; Nature of Fluorine in Halogen
 Bonds: An Instance of Cl&#x00B7;&#x00B7;&#x00B7;F Contact
;
_journal_issue                   4
_journal_name_full               'Crystal Growth &amp; Design'
_journal_page_first              1713
_journal_paper_doi               10.1021/cg3002477
_journal_volume                  12
_journal_year                    2012
_chemical_compound_source        'see text'
_chemical_formula_moiety         'C7 H4 Cl F O'
_chemical_formula_sum            'C7 H4 Cl F O'
_chemical_formula_weight         158.55
_chemical_name_systematic
;
4-fluoro benzoyl chloride
;
_space_group_IT_number           14
_symmetry_cell_setting           monoclinic
_symmetry_Int_Tables_number      14
_symmetry_space_group_name_Hall  '-P 2ybc'
_symmetry_space_group_name_H-M   'P 1 21/c 1'
_atom_sites_solution_hydrogens   geom
_atom_sites_solution_primary     direct
_atom_sites_solution_secondary   difmap
_cell_angle_alpha                90
_cell_angle_beta                 96.727(2)
_cell_angle_gamma                90
_cell_formula_units_Z            4
_cell_length_a                   9.7208(14)
_cell_length_b                   9.1128(13)
_cell_length_c                   7.5178(11)
_cell_measurement_reflns_used    5925
_cell_measurement_temperature    90(1)
_cell_measurement_theta_max      25
_cell_measurement_theta_min      3.1
_cell_volume                     661.37(17)
_computing_cell_refinement       Apex2
_computing_data_collection       'Bruker kappa Apex2'
_computing_data_reduction        SAINT32
_computing_molecular_graphics
'Ortep-3 (Farrugia, 1997) and CAMERON (Watkin et al., 1993)'
_computing_publication_material  'WinGX (Farrugia, 1999)'
_computing_structure_refinement  'SHELXL97 (Sheldrick, 2008)'
_computing_structure_solution    'SHELXS97  (Sheldrick, 2008)'
_diffrn_ambient_temperature      90(1)
_diffrn_measured_fraction_theta_full 0.998
_diffrn_measured_fraction_theta_max 0.998
_diffrn_measurement_device_type  'Brucker kappa apex2 CCD area detector'
_diffrn_measurement_method       '\f and \w scans'
_diffrn_radiation_monochromator  graphite
_diffrn_radiation_probe          x-ray
_diffrn_radiation_source         'fine-focus sealed tube'
_diffrn_radiation_type           MoK\a
_diffrn_radiation_wavelength     0.71073
_diffrn_reflns_av_R_equivalents  0.0427
_diffrn_reflns_av_sigmaI/netI    0.0312
_diffrn_reflns_limit_h_max       11
_diffrn_reflns_limit_h_min       -11
_diffrn_reflns_limit_k_max       10
_diffrn_reflns_limit_k_min       -10
_diffrn_reflns_limit_l_max       8
_diffrn_reflns_limit_l_min       -8
_diffrn_reflns_number            5925
_diffrn_reflns_reduction_process
;
;
_diffrn_reflns_theta_full        25.00
_diffrn_reflns_theta_max         25.00
_diffrn_reflns_theta_min         3.07
_exptl_absorpt_coefficient_mu    0.511
_exptl_absorpt_correction_T_max  0.8618
_exptl_absorpt_correction_T_min  0.8217
_exptl_absorpt_correction_type   multi-scan
_exptl_absorpt_process_details   'Apex2 (Bruker)'
_exptl_crystal_colour            colourless
_exptl_crystal_density_diffrn    1.592
_exptl_crystal_density_method    'Not Measured'
_exptl_crystal_description       cylindrical
_exptl_crystal_F_000             320
_exptl_crystal_size_max          0.40
_exptl_crystal_size_mid          0.30
_exptl_crystal_size_min          0.30
_refine_diff_density_max         0.448
_refine_diff_density_min         -0.363
_refine_diff_density_rms         0.106
_refine_ls_extinction_method     none
_refine_ls_goodness_of_fit_ref   1.073
_refine_ls_hydrogen_treatment    mixed
_refine_ls_matrix_type           full
_refine_ls_number_parameters     107
_refine_ls_number_reflns         1161
_refine_ls_number_restraints     0
_refine_ls_restrained_S_all      1.073
_refine_ls_R_factor_all          0.0361
_refine_ls_R_factor_gt           0.0347
_refine_ls_shift/su_max          0.000
_refine_ls_shift/su_mean         0.000
_refine_ls_structure_factor_coef Fsqd
_refine_ls_weighting_details
'calc w=1/[\s^2^(Fo^2^)+(0.0610P)^2^+0.1522P] where P=(Fo^2^+2Fc^2^)/3'
_refine_ls_weighting_scheme      calc
_refine_ls_wR_factor_gt          0.0898
_refine_ls_wR_factor_ref         0.0910
_reflns_number_gt                1099
_reflns_number_total             1161
_reflns_threshold_expression     >2sigma(I)
_cod_data_source_file            cg3002477_si_002.cif
_cod_data_source_block           a4fbzn
_cod_depositor_comments
;
The following automatic conversions were performed:

'_symmetry_cell_setting' value 'Monoclinic' changed to 'monoclinic'
according to /home/saulius/struct/CIF-dictionaries/cif_core.dic
dictionary named 'cif_core.dic' version 2.4.1 from 2010-06-29.

Automatic conversion script
Id: cif_fix_values 1715 2011-07-08 13:25:40Z adriana 
;
_cod_original_sg_symbol_H-M      'P 21/c'
_cod_database_code               4506087
loop_
_symmetry_equiv_pos_site_id
_symmetry_equiv_pos_as_xyz
1 x,y,z
2 -x,1/2+y,1/2-z
3 -x,-y,-z
4 x,1/2-y,1/2+z
loop_
_atom_site_label
_atom_site_type_symbol
_atom_site_fract_x
_atom_site_fract_y
_atom_site_fract_z
_atom_site_U_iso_or_equiv
_atom_site_adp_type
_atom_site_occupancy
_atom_site_symmetry_multiplicity
_atom_site_calc_flag
Cl1 Cl 0.23804(4) 0.68280(4) 0.01924(6) 0.0319(2) Uani 1 1 d
F1 F 0.39123(10) -0.01927(10) 0.12509(13) 0.0295(3) Uani 1 1 d
O1 O 0.05755(12) 0.53541(12) -0.18747(15) 0.0291(3) Uani 1 1 d
C1 C 0.15798(15) 0.52060(17) -0.08229(19) 0.0218(4) Uani 1 1 d
C2 C 0.22488(15) 0.38100(17) -0.02333(18) 0.0198(3) Uani 1 1 d
C3 C 0.15268(15) 0.25267(17) -0.07564(19) 0.0202(4) Uani 1 1 d
C4 C 0.20776(16) 0.11670(17) -0.02675(19) 0.0221(3) Uani 1 1 d
C5 C 0.33709(15) 0.11390(16) 0.07357(19) 0.0212(4) Uani 1 1 d
C6 C 0.41257(15) 0.23739(18) 0.1254(2) 0.0222(3) Uani 1 1 d
C7 C 0.35521(15) 0.37271(17) 0.07751(19) 0.0206(4) Uani 1 1 d
H3 H 0.062(2) 0.261(3) -0.147(3) 0.043(6) Uiso 1 1 d
H7 H 0.4022(19) 0.451(2) 0.112(2) 0.023(4) Uiso 1 1 d
H4 H 0.157(2) 0.025(2) -0.063(3) 0.030(5) Uiso 1 1 d
H6 H 0.502(2) 0.227(2) 0.199(3) 0.034(5) Uiso 1 1 d
loop_
_atom_site_aniso_label
_atom_site_aniso_U_11
_atom_site_aniso_U_22
_atom_site_aniso_U_33
_atom_site_aniso_U_23
_atom_site_aniso_U_13
_atom_site_aniso_U_12
Cl1 0.0337(3) 0.0183(3) 0.0418(3) -0.00352(15) -0.0040(2) -0.00015(14)
F1 0.0326(5) 0.0199(5) 0.0339(5) 0.0045(4) -0.0048(4) 0.0049(4)
O1 0.0297(6) 0.0265(6) 0.0289(6) 0.0031(5) -0.0060(5) 0.0058(5)
C1 0.0223(8) 0.0207(8) 0.0225(7) -0.0007(6) 0.0021(6) 0.0002(6)
C2 0.0201(7) 0.0228(8) 0.0163(7) -0.0003(6) 0.0014(5) 0.0000(6)
C3 0.0190(8) 0.0234(8) 0.0173(7) -0.0008(5) -0.0016(6) -0.0003(5)
C4 0.0244(8) 0.0210(8) 0.0203(7) -0.0014(6) 0.0002(6) -0.0028(6)
C5 0.0247(8) 0.0180(8) 0.0207(7) 0.0034(6) 0.0014(6) 0.0049(6)
C6 0.0191(7) 0.0278(9) 0.0188(7) 0.0010(6) -0.0018(6) 0.0003(6)
C7 0.0214(8) 0.0210(8) 0.0188(7) -0.0018(6) -0.0002(6) -0.0030(6)
loop_
_atom_type_symbol
_atom_type_description
_atom_type_scat_dispersion_real
_atom_type_scat_dispersion_imag
_atom_type_scat_source
O O 0.0106 0.0060 'International Tables Vol C Tables 4.2.6.8 and 6.1.1.4'
F F 0.0171 0.0103 'International Tables Vol C Tables 4.2.6.8 and 6.1.1.4'
Cl Cl 0.1484 0.1585 'International Tables Vol C Tables 4.2.6.8 and 6.1.1.4'
H H 0.0000 0.0000 'International Tables Vol C Tables 4.2.6.8 and 6.1.1.4'
C C 0.0033 0.0016 'International Tables Vol C Tables 4.2.6.8 and 6.1.1.4'
loop_
_geom_angle_atom_site_label_1
_geom_angle_atom_site_label_2
_geom_angle_atom_site_label_3
_geom_angle
O1 C1 C2 126.65(14)
O1 C1 Cl1 117.99(12)
C2 C1 Cl1 115.36(11)
C3 C2 C7 120.02(14)
C3 C2 C1 116.67(14)
C7 C2 C1 123.30(14)
C4 C3 C2 120.63(15)
C4 C3 H3 121.0(15)
C2 C3 H3 118.4(15)
C3 C4 C5 117.31(14)
C3 C4 H4 121.1(11)
C5 C4 H4 121.6(11)
F1 C5 C6 118.26(13)
F1 C5 C4 117.80(13)
C6 C5 C4 123.93(14)
C5 C6 C7 118.06(14)
C5 C6 H6 119.5(12)
C7 C6 H6 122.4(12)
C6 C7 C2 120.04(14)
C6 C7 H7 118.2(12)
C2 C7 H7 121.8(12)
loop_
_geom_bond_atom_site_label_1
_geom_bond_atom_site_label_2
_geom_bond_distance
Cl1 C1 1.7983(15)
F1 C5 1.3608(17)
O1 C1 1.1898(19)
C1 C2 1.473(2)
C2 C3 1.396(2)
C2 C7 1.400(2)
C3 C4 1.382(2)
C3 H3 0.98(2)
C4 C5 1.388(2)
C4 H4 0.99(2)
C5 C6 1.375(2)
C6 C7 1.384(2)
C6 H6 0.98(2)
C7 H7 0.87(2)
loop_
_geom_torsion_atom_site_label_1
_geom_torsion_atom_site_label_2
_geom_torsion_atom_site_label_3
_geom_torsion_atom_site_label_4
_geom_torsion
O1 C1 C2 C3 -10.0(2)
Cl1 C1 C2 C3 169.45(11)
O1 C1 C2 C7 168.95(14)
Cl1 C1 C2 C7 -11.64(19)
C7 C2 C3 C4 0.9(2)
C1 C2 C3 C4 179.84(13)
C2 C3 C4 C5 -0.7(2)
C3 C4 C5 F1 178.88(12)
C3 C4 C5 C6 -0.3(2)
F1 C5 C6 C7 -178.02(13)
C4 C5 C6 C7 1.2(2)
C5 C6 C7 C2 -1.0(2)
C3 C2 C7 C6 0.0(2)
C1 C2 C7 C6 -178.88(13)
loop_
_cod_related_entry_id
_cod_related_entry_database
_cod_related_entry_code
1 ChemSpider 61196
