#------------------------------------------------------------------------------
#$Date: 2017-10-13 14:42:48 +0300 (Fri, 13 Oct 2017) $
#$Revision: 201982 $
#$URL: file:///home/coder/svn-repositories/cod/cif/4/50/61/4506179.cif $
#------------------------------------------------------------------------------
#
# This file is available in the Crystallography Open Database (COD),
# http://www.crystallography.net/
#
# All data on this site have been placed in the public domain by the
# contributors.
#
data_4506179
loop_
_publ_author_name
'Terada, Sho'
'Katagiri, Kosuke'
'Masu, Hyuma'
'Danjo, Hiroshi'
'Sei, Yoshihisa'
'Kawahata, Masatoshi'
'Tominaga, Masahide'
'Yamaguchi, Kentaro'
'Azumaya, Isao'
_publ_section_title
;
 Polymorphism of Aromatic Sulfonamides with Fluorine Groups
;
_journal_issue                   6
_journal_name_full               'Crystal Growth &amp; Design'
_journal_page_first              2908
_journal_paper_doi               10.1021/cg300098q
_journal_volume                  12
_journal_year                    2012
_chemical_formula_sum            'C18 H14 F N O3 S'
_chemical_formula_weight         343.36
_chemical_name_systematic
; 
 ? 
;
_space_group_IT_number           2
_symmetry_cell_setting           triclinic
_symmetry_space_group_name_Hall  '-P 1'
_symmetry_space_group_name_H-M   'P -1'
_atom_sites_solution_hydrogens   geom
_atom_sites_solution_primary     direct
_atom_sites_solution_secondary   difmap
_audit_creation_method           SHELXL-97
_cell_angle_alpha                101.227(3)
_cell_angle_beta                 108.692(3)
_cell_angle_gamma                103.611(4)
_cell_formula_units_Z            2
_cell_length_a                   8.196(3)
_cell_length_b                   9.587(3)
_cell_length_c                   11.427(4)
_cell_measurement_reflns_used    1923
_cell_measurement_temperature    120
_cell_measurement_theta_max      27.19
_cell_measurement_theta_min      2.29
_cell_volume                     790.3(5)
_computing_cell_refinement       'APEX2 (Bruker AXS, 2006)'
_computing_data_collection       'APEX2 (Bruker AXS, 2006)'
_computing_data_reduction        'SAINT (Bruker AXS, 2004)'
_computing_molecular_graphics    'XSHEL (Bruker AXS,2002)'
_computing_publication_material  'XCIF (Bruker AXS, 2001)'
_computing_structure_refinement  'SHELXL-97 (Sheldrick, 1997)'
_computing_structure_solution    'SHELXS-97 (Sheldrick, 1997)'
_diffrn_ambient_temperature      120
_diffrn_detector_area_resol_mean 8.333
_diffrn_measured_fraction_theta_full 0.963
_diffrn_measured_fraction_theta_max 0.847
_diffrn_measurement_device_type  'Bruker APEXII CCD area detector'
_diffrn_measurement_method       'phi and omega scans'
_diffrn_radiation_monochromator  graphite
_diffrn_radiation_source         'sealed tube'
_diffrn_radiation_type           MoK\a
_diffrn_radiation_wavelength     0.71073
_diffrn_reflns_av_R_equivalents  0.0116
_diffrn_reflns_av_sigmaI/netI    0.0255
_diffrn_reflns_limit_h_max       10
_diffrn_reflns_limit_h_min       -7
_diffrn_reflns_limit_k_max       11
_diffrn_reflns_limit_k_min       -10
_diffrn_reflns_limit_l_max       13
_diffrn_reflns_limit_l_min       -13
_diffrn_reflns_number            3922
_diffrn_reflns_theta_full        25.00
_diffrn_reflns_theta_max         27.24
_diffrn_reflns_theta_min         1.97
_exptl_absorpt_coefficient_mu    0.232
_exptl_absorpt_correction_T_max  0.9551
_exptl_absorpt_correction_T_min  0.9337
_exptl_absorpt_correction_type   empirical
_exptl_absorpt_process_details
;
SADABS Sheldrick 1996
;
_exptl_crystal_colour            colorless
_exptl_crystal_density_diffrn    1.443
_exptl_crystal_density_method    'not measured'
_exptl_crystal_description       prismatic
_exptl_crystal_F_000             356
_exptl_crystal_size_max          0.30
_exptl_crystal_size_mid          0.20
_exptl_crystal_size_min          0.20
_refine_diff_density_max         0.530
_refine_diff_density_min         -0.593
_refine_diff_density_rms         0.048
_refine_ls_extinction_method     none
_refine_ls_goodness_of_fit_ref   1.075
_refine_ls_hydrogen_treatment    constr
_refine_ls_matrix_type           full
_refine_ls_number_parameters     217
_refine_ls_number_reflns         3003
_refine_ls_number_restraints     0
_refine_ls_restrained_S_all      1.075
_refine_ls_R_factor_all          0.0402
_refine_ls_R_factor_gt           0.0352
_refine_ls_shift/su_max          0.001
_refine_ls_shift/su_mean         0.000
_refine_ls_structure_factor_coef Fsqd
_refine_ls_weighting_details
'calc w=1/[\s^2^(Fo^2^)+(0.0409P)^2^+0.4262P] where P=(Fo^2^+2Fc^2^)/3'
_refine_ls_weighting_scheme      calc
_refine_ls_wR_factor_gt          0.0883
_refine_ls_wR_factor_ref         0.0916
_reflns_number_gt                2636
_reflns_number_total             3003
_reflns_threshold_expression     >2sigma(I)
_cod_data_source_file            cg300098q_si_001.cif
_cod_data_source_block           compound2b
_cod_depositor_comments
;
The following automatic conversions were performed:

'_symmetry_cell_setting' value 'Triclinic' changed to 'triclinic'
according to /home/saulius/struct/CIF-dictionaries/cif_core.dic
dictionary named 'cif_core.dic' version 2.4.1 from 2010-06-29.

Automatic conversion script
Id: cif_fix_values 1891 2012-01-12 08:04:46Z andrius 
;
_cod_original_cell_volume        790.3(4)
_cod_original_sg_symbol_H-M      'P-1   '
_cod_database_code               4506179
loop_
_symmetry_equiv_pos_as_xyz
'x, y, z'
'-x, -y, -z'
loop_
_atom_site_label
_atom_site_type_symbol
_atom_site_fract_x
_atom_site_fract_y
_atom_site_fract_z
_atom_site_U_iso_or_equiv
_atom_site_adp_type
_atom_site_occupancy
_atom_site_symmetry_multiplicity
_atom_site_calc_flag
_atom_site_refinement_flags
S1 S 0.26257(6) 0.80208(5) 0.49937(4) 0.01859(13) Uani 1 1 d .
O3 O 0.23239(16) 0.81723(14) 0.16605(11) 0.0235(3) Uani 1 1 d .
O1 O 0.10270(17) 0.75343(14) 0.52534(12) 0.0235(3) Uani 1 1 d .
O2 O 0.43298(16) 0.88800(14) 0.60403(11) 0.0233(3) Uani 1 1 d .
N1 N 0.22722(19) 0.90455(16) 0.40198(13) 0.0188(3) Uani 1 1 d .
H1 H 0.3117 0.9897 0.4178 0.023 Uiso 1 1 calc R
F1 F 0.54870(15) 0.78514(12) 0.39755(11) 0.0321(3) Uani 1 1 d .
C12 C -0.1009(2) 0.86096(19) 0.30389(17) 0.0216(4) Uani 1 1 d .
H12 H -0.1035 0.8913 0.3873 0.026 Uiso 1 1 calc R
C7 C 0.0615(2) 0.85898(18) 0.29116(16) 0.0184(3) Uani 1 1 d .
C9 C -0.0928(2) 0.77678(19) 0.05883(16) 0.0211(4) Uani 1 1 d .
H9 H -0.0899 0.7502 -0.0248 0.025 Uiso 1 1 calc R
C8 C 0.0646(2) 0.81602(18) 0.16792(16) 0.0184(3) Uani 1 1 d .
C4 C 0.3508(3) 0.3826(2) 0.30182(18) 0.0301(4) Uani 1 1 d .
H4 H 0.3716 0.2950 0.2629 0.036 Uiso 1 1 calc R
C1 C 0.2908(2) 0.63812(19) 0.41769(15) 0.0196(4) Uani 1 1 d .
C10 C -0.2548(2) 0.7767(2) 0.07279(17) 0.0234(4) Uani 1 1 d .
H10 H -0.3635 0.7476 -0.0018 0.028 Uiso 1 1 calc R
C14 C 0.2200(2) 0.6210(2) -0.00527(17) 0.0234(4) Uani 1 1 d .
H14 H 0.1969 0.5508 0.0405 0.028 Uiso 1 1 calc R
C18 C 0.2772(3) 0.8744(2) -0.01896(17) 0.0245(4) Uani 1 1 d .
H18 H 0.2927 0.9769 0.0177 0.029 Uiso 1 1 calc R
C13 C 0.2411(2) 0.76962(19) 0.04477(16) 0.0193(4) Uani 1 1 d .
C15 C 0.2332(3) 0.5752(2) -0.12403(17) 0.0246(4) Uani 1 1 d .
H15 H 0.2180 0.4728 -0.1603 0.030 Uiso 1 1 calc R
C11 C -0.2597(2) 0.8185(2) 0.19446(17) 0.0234(4) Uani 1 1 d .
H11 H -0.3713 0.8182 0.2030 0.028 Uiso 1 1 calc R
C17 C 0.2903(3) 0.8273(2) -0.13759(18) 0.0258(4) Uani 1 1 d .
H17 H 0.3144 0.8978 -0.1828 0.031 Uiso 1 1 calc R
C2 C 0.4349(2) 0.6482(2) 0.37768(17) 0.0232(4) Uani 1 1 d .
C16 C 0.2683(2) 0.6785(2) -0.18991(16) 0.0223(4) Uani 1 1 d .
H16 H 0.2772 0.6467 -0.2711 0.027 Uiso 1 1 calc R
C6 C 0.1750(2) 0.4967(2) 0.39801(17) 0.0246(4) Uani 1 1 d .
H6 H 0.0746 0.4873 0.4238 0.030 Uiso 1 1 calc R
C3 C 0.4656(3) 0.5231(2) 0.31919(18) 0.0290(4) Uani 1 1 d .
H3 H 0.5639 0.5328 0.2911 0.035 Uiso 1 1 calc R
C5 C 0.2056(3) 0.3692(2) 0.34088(18) 0.0296(4) Uani 1 1 d .
H5 H 0.1270 0.2726 0.3285 0.036 Uiso 1 1 calc R
loop_
_atom_site_aniso_label
_atom_site_aniso_U_11
_atom_site_aniso_U_22
_atom_site_aniso_U_33
_atom_site_aniso_U_23
_atom_site_aniso_U_13
_atom_site_aniso_U_12
S1 0.0177(2) 0.0235(2) 0.0148(2) 0.00647(17) 0.00655(17) 0.00586(17)
O3 0.0176(6) 0.0354(7) 0.0151(6) 0.0046(5) 0.0058(5) 0.0075(5)
O1 0.0215(7) 0.0306(7) 0.0231(6) 0.0112(5) 0.0124(5) 0.0085(5)
O2 0.0210(7) 0.0276(7) 0.0159(6) 0.0046(5) 0.0036(5) 0.0046(5)
N1 0.0174(7) 0.0189(7) 0.0159(7) 0.0050(6) 0.0039(6) 0.0020(6)
F1 0.0300(6) 0.0285(6) 0.0438(7) 0.0101(5) 0.0243(6) 0.0061(5)
C12 0.0240(9) 0.0213(8) 0.0228(9) 0.0073(7) 0.0114(7) 0.0092(7)
C7 0.0196(9) 0.0164(8) 0.0181(8) 0.0064(7) 0.0051(7) 0.0058(7)
C9 0.0236(9) 0.0205(8) 0.0171(8) 0.0067(7) 0.0055(7) 0.0058(7)
C8 0.0177(8) 0.0173(8) 0.0214(8) 0.0077(7) 0.0077(7) 0.0059(7)
C4 0.0309(11) 0.0289(10) 0.0270(10) 0.0045(8) 0.0058(8) 0.0143(9)
C1 0.0184(8) 0.0254(9) 0.0149(8) 0.0070(7) 0.0043(7) 0.0091(7)
C10 0.0184(9) 0.0234(9) 0.0255(9) 0.0107(7) 0.0027(7) 0.0065(7)
C14 0.0240(9) 0.0238(9) 0.0235(9) 0.0116(7) 0.0086(8) 0.0062(7)
C18 0.0273(10) 0.0210(9) 0.0258(9) 0.0069(7) 0.0106(8) 0.0085(8)
C13 0.0146(8) 0.0258(9) 0.0153(8) 0.0050(7) 0.0044(7) 0.0052(7)
C15 0.0270(10) 0.0222(9) 0.0238(9) 0.0062(7) 0.0087(8) 0.0083(8)
C11 0.0180(9) 0.0258(9) 0.0293(10) 0.0114(8) 0.0086(8) 0.0100(7)
C17 0.0299(10) 0.0268(9) 0.0247(9) 0.0138(8) 0.0118(8) 0.0091(8)
C2 0.0215(9) 0.0255(9) 0.0229(9) 0.0089(7) 0.0084(7) 0.0067(7)
C16 0.0197(9) 0.0307(10) 0.0173(8) 0.0068(7) 0.0072(7) 0.0097(8)
C6 0.0182(9) 0.0267(9) 0.0250(9) 0.0071(8) 0.0058(8) 0.0043(7)
C3 0.0267(10) 0.0364(11) 0.0303(10) 0.0105(9) 0.0140(9) 0.0164(9)
C5 0.0267(10) 0.0235(9) 0.0291(10) 0.0052(8) 0.0035(8) 0.0033(8)
loop_
_atom_type_symbol
_atom_type_description
_atom_type_scat_dispersion_real
_atom_type_scat_dispersion_imag
_atom_type_scat_source
C C 0.0033 0.0016 'International Tables Vol C Tables 4.2.6.8 and 6.1.1.4'
H H 0.0000 0.0000 'International Tables Vol C Tables 4.2.6.8 and 6.1.1.4'
N N 0.0061 0.0033 'International Tables Vol C Tables 4.2.6.8 and 6.1.1.4'
O O 0.0106 0.0060 'International Tables Vol C Tables 4.2.6.8 and 6.1.1.4'
F F 0.0171 0.0103 'International Tables Vol C Tables 4.2.6.8 and 6.1.1.4'
S S 0.1246 0.1234 'International Tables Vol C Tables 4.2.6.8 and 6.1.1.4'
loop_
_geom_angle_atom_site_label_1
_geom_angle_atom_site_label_2
_geom_angle_atom_site_label_3
_geom_angle
O1 S1 O2 119.88(8)
O1 S1 N1 108.48(7)
O2 S1 N1 105.76(8)
O1 S1 C1 106.42(8)
O2 S1 C1 107.66(8)
N1 S1 C1 108.22(8)
C8 O3 C13 117.15(13)
C7 N1 S1 121.21(11)
C7 N1 H1 119.4
S1 N1 H1 119.4
C7 C12 C11 119.96(16)
C7 C12 H12 120.0
C11 C12 H12 120.0
C12 C7 C8 119.64(16)
C12 C7 N1 121.09(15)
C8 C7 N1 119.25(15)
C8 C9 C10 119.42(16)
C8 C9 H9 120.3
C10 C9 H9 120.3
O3 C8 C9 124.59(15)
O3 C8 C7 115.00(14)
C9 C8 C7 120.41(16)
C3 C4 C5 120.34(18)
C3 C4 H4 119.8
C5 C4 H4 119.8
C2 C1 C6 118.56(16)
C2 C1 S1 120.47(14)
C6 C1 S1 120.89(14)
C11 C10 C9 120.70(16)
C11 C10 H10 119.6
C9 C10 H10 119.6
C13 C14 C15 118.77(16)
C13 C14 H14 120.6
C15 C14 H14 120.6
C13 C18 C17 118.81(16)
C13 C18 H18 120.6
C17 C18 H18 120.6
C14 C13 C18 121.86(16)
C14 C13 O3 119.06(15)
C18 C13 O3 119.04(15)
C16 C15 C14 120.29(17)
C16 C15 H15 119.9
C14 C15 H15 119.9
C10 C11 C12 119.85(16)
C10 C11 H11 120.1
C12 C11 H11 120.1
C16 C17 C18 120.25(16)
C16 C17 H17 119.9
C18 C17 H17 119.9
F1 C2 C3 119.09(16)
F1 C2 C1 118.85(16)
C3 C2 C1 122.06(17)
C17 C16 C15 120.02(16)
C17 C16 H16 120.0
C15 C16 H16 120.0
C5 C6 C1 120.16(17)
C5 C6 H6 119.9
C1 C6 H6 119.9
C2 C3 C4 118.82(18)
C2 C3 H3 120.6
C4 C3 H3 120.6
C6 C5 C4 120.04(18)
C6 C5 H5 120.0
C4 C5 H5 120.0
loop_
_geom_bond_atom_site_label_1
_geom_bond_atom_site_label_2
_geom_bond_distance
S1 O1 1.4276(13)
S1 O2 1.4366(13)
S1 N1 1.6250(14)
S1 C1 1.7702(18)
O3 C8 1.380(2)
O3 C13 1.402(2)
N1 C7 1.429(2)
N1 H1 0.8800
F1 C2 1.348(2)
C12 C7 1.389(2)
C12 C11 1.390(2)
C12 H12 0.9500
C7 C8 1.398(2)
C9 C8 1.385(2)
C9 C10 1.386(2)
C9 H9 0.9500
C4 C3 1.385(3)
C4 C5 1.387(3)
C4 H4 0.9500
C1 C2 1.387(2)
C1 C6 1.389(3)
C10 C11 1.386(3)
C10 H10 0.9500
C14 C13 1.375(2)
C14 C15 1.389(3)
C14 H14 0.9500
C18 C13 1.382(2)
C18 C17 1.390(3)
C18 H18 0.9500
C15 C16 1.387(3)
C15 H15 0.9500
C11 H11 0.9500
C17 C16 1.380(3)
C17 H17 0.9500
C2 C3 1.373(3)
C16 H16 0.9500
C6 C5 1.386(3)
C6 H6 0.9500
C3 H3 0.9500
C5 H5 0.9500
loop_
_cod_related_entry_id
_cod_related_entry_database
_cod_related_entry_code
1 ChemSpider 1992089
