#------------------------------------------------------------------------------
#$Date: 2016-03-24 02:47:15 +0200 (Thu, 24 Mar 2016) $
#$Revision: 179596 $
#$URL: svn://www.crystallography.net/cod/cif/4/50/60/4506050.cif $
#------------------------------------------------------------------------------
#
# This file is available in the Crystallography Open Database (COD),
# http://www.crystallography.net/
#
# All data on this site have been placed in the public domain by the
# contributors.
#
data_4506050
loop_
_publ_author_name
'Jarzembska, Katarzyna N.'
'Kubsik, Marcin'
'Kami\'nski, Rados\/law'
'Wo\'zniak, Krzysztof'
'Dominiak, Paulina M.'
_publ_section_title
;
 From a Single Molecule to Molecular Crystal Architectures: Structural and
 Energetic Studies of Selected Uracil Derivatives
;
_journal_issue                   5
_journal_name_full               'Crystal Growth &amp; Design'
_journal_page_first              2508
_journal_paper_doi               10.1021/cg300129z
_journal_volume                  12
_journal_year                    2012
_chemical_formula_moiety         'C5 H6 N2 O S'
_chemical_formula_sum            'C5 H6 N2 O S'
_chemical_formula_weight         142.18
_space_group_IT_number           14
_symmetry_cell_setting           monoclinic
_symmetry_Int_Tables_number      14
_symmetry_space_group_name_Hall  '-P 2ybc'
_symmetry_space_group_name_H-M   'P 1 21/c 1'
_cell_angle_alpha                90.00
_cell_angle_beta                 90.758(3)
_cell_angle_gamma                90.00
_cell_formula_units_Z            4
_cell_length_a                   4.34050(10)
_cell_length_b                   14.4580(5)
_cell_length_c                   9.5743(3)
_cell_measurement_temperature    100(1)
_cell_volume                     600.78(3)
_diffrn_ambient_temperature      100(1)
_diffrn_measured_fraction_theta_full 1.000
_diffrn_measured_fraction_theta_max 0.958
_diffrn_measurement_device
'Bruker AXS Kappa APEX II Ultra diffractometer'
_diffrn_measurement_device_type  'APEX II CCD detector'
_diffrn_measurement_method       \w-scans
_diffrn_radiation_monochromator  'Helios multi-layer optics'
_diffrn_radiation_source         'TXS rotating anode'
_diffrn_radiation_type           'Mo K\a'
_diffrn_radiation_wavelength     0.71073
_diffrn_reflns_av_R_equivalents  0.0334
_diffrn_reflns_av_sigmaI/netI    0.0559
_diffrn_reflns_limit_h_max       6
_diffrn_reflns_limit_h_min       -6
_diffrn_reflns_limit_k_max       21
_diffrn_reflns_limit_k_min       0
_diffrn_reflns_limit_l_max       13
_diffrn_reflns_limit_l_min       0
_diffrn_reflns_number            5672
_diffrn_reflns_theta_full        25.00
_diffrn_reflns_theta_max         31.73
_diffrn_reflns_theta_min         2.55
_exptl_absorpt_coefficient_mu    0.443
_exptl_absorpt_correction_T_max  1.003
_exptl_absorpt_correction_T_min  0.974
_exptl_absorpt_correction_type   multi-scan
_exptl_absorpt_process_details
;
 Absorption correction done by SORTAV
 Blessing, R. H.: (1995) Acta Cryst. A51, 33-38
;
_exptl_crystal_colour            yellow
_exptl_crystal_density_diffrn    1.572
_exptl_crystal_description       unspecified
_exptl_crystal_F_000             296
_exptl_crystal_size_max          0.18
_exptl_crystal_size_mid          0.05
_exptl_crystal_size_min          0.05
_refine_diff_density_max         +0.53
_refine_diff_density_min         -0.46
_refine_ls_extinction_method     none
_refine_ls_goodness_of_fit_ref   0.97
_refine_ls_hydrogen_treatment    mixed
_refine_ls_number_constraints    0
_refine_ls_number_parameters     106
_refine_ls_number_reflns         1337
_refine_ls_number_restraints     12
_refine_ls_R_factor_all          0.0241
_refine_ls_R_factor_gt           0.0264
_refine_ls_shift/su_max          0.000
_refine_ls_shift/su_mean         0.000
_refine_ls_structure_factor_coef F
_refine_ls_weighting_details
;
w=1/[\s^2^(Fo)]
;
_refine_ls_weighting_scheme      sigma
_refine_ls_wR_factor_gt          0.1164
_refine_ls_wR_factor_ref         0.1164
_reflns_number_gt                1337
_reflns_number_total             1961
_reflns_threshold_expression     I>3\s(I)
_iucr_refine_instructions_details
;
TAAM refinement with MOPRO program
;
_cod_data_source_file            cg300129z_si_010.cif
_cod_data_source_block           6m2tU
_cod_original_sg_symbol_H-M      'P 21/c'
_cod_database_code               4506050
loop_
_symmetry_equiv_pos_as_xyz
'x, y, z'
'-x, y+1/2, -z+1/2'
'-x, -y, -z'
'x, -y-1/2, z-1/2'
loop_
_atom_site_type_symbol
_atom_site_label
_atom_site_fract_x
_atom_site_fract_y
_atom_site_fract_z
_atom_site_U_iso_or_equiv
_atom_site_adp_type
_atom_site_occupancy
_atom_site_calc_flag
_atom_site_refinement_flags_posn
_atom_site_refinement_flags_adp
S S2 0.30733(7) 0.55908(2) 0.33448(3) 0.01181(8) Uani 1 d . .
O O4 -0.3644(2) 0.69230(6) 0.69099(9) 0.0149(3) Uani 1 d . .
N N1 0.2429(2) 0.73816(7) 0.3898(1) 0.0104(3) Uani 1 d . .
H H1 0.394(1) 0.7475(9) 0.3091(6) 0.0156(2) Uiso 1 d D U
C C4 -0.1767(3) 0.71166(8) 0.6000(1) 0.0109(4) Uani 1 d . .
N N3 -0.0488(2) 0.64025(6) 0.5229(1) 0.0108(3) Uani 1 d . .
H H3 -0.119(2) 0.5742(3) 0.547(1) 0.0163(2) Uiso 1 d D U
C C5 -0.0745(3) 0.80319(8) 0.5645(1) 0.0114(3) Uani 1 d . .
H H5 -0.167(2) 0.8614(4) 0.6213(8) 0.0138(1) Uiso 1 d D U
C C2 0.1599(3) 0.64986(8) 0.4194(1) 0.0099(3) Uani 1 d . .
C C7 0.2459(3) 0.90672(8) 0.4136(1) 0.0140(4) Uani 1 d . .
H H7C 0.111(2) 0.9305(7) 0.3255(6) 0.0169(2) Uiso 1 d D U
H H7A 0.4841(7) 0.9053(9) 0.384(1) 0.0169(2) Uiso 1 d D U
H H7B 0.216(3) 0.9569(4) 0.4955(6) 0.0169(2) Uiso 1 d D U
C C6 0.1317(3) 0.81424(8) 0.4597(1) 0.0104(3) Uani 1 d . .
loop_
_atom_site_aniso_label
_atom_site_aniso_U_11
_atom_site_aniso_U_22
_atom_site_aniso_U_33
_atom_site_aniso_U_12
_atom_site_aniso_U_13
_atom_site_aniso_U_23
S2 0.0145(1) 0.0087(1) 0.0124(1) 0.0008(1) 0.00567(10) -0.0010(1)
O4 0.0174(4) 0.0123(4) 0.0154(5) -0.00025(33) 0.0110(3) -0.0008(4)
N1 0.0116(5) 0.0089(5) 0.0107(5) -0.0004(4) 0.0039(4) -0.0004(4)
C4 0.0121(6) 0.0101(6) 0.0105(6) -0.0005(4) 0.0046(4) -0.0008(5)
N3 0.0124(5) 0.0095(5) 0.0108(5) -0.0008(4) 0.0050(4) -0.0007(4)
C5 0.0138(5) 0.0081(5) 0.0124(6) 0.00003(43) 0.0056(4) -0.0008(5)
C2 0.0108(5) 0.0092(5) 0.0099(6) 0.00027(41) 0.0037(4) -0.00039(45)
C7 0.0165(6) 0.0092(6) 0.0165(7) -0.0008(5) 0.0049(5) 0.00043(49)
C6 0.0116(5) 0.0090(6) 0.0107(6) -0.00005(40) 0.0030(4) -0.0007(4)
loop_
_atom_type_symbol
_atom_type_description
_atom_type_scat_dispersion_real
_atom_type_scat_dispersion_imag
_atom_type_scat_source
C C 0.0033 0.0016 'Su & Coppens, Acta. Cryst. (1997) A53, 749'
H H 0.0000 0.0000 'Su & Coppens, Acta. Cryst. (1997) A53, 749'
N N 0.0061 0.0033 'Su & Coppens, Acta. Cryst. (1997) A53, 749'
O O 0.0106 0.0060 'Su & Coppens, Acta. Cryst. (1997) A53, 749'
loop_
_geom_angle_atom_site_label_1
_geom_angle_atom_site_label_2
_geom_angle_atom_site_label_3
_geom_angle
S2 C2 N1 122.07(7)
S2 C2 N3 122.4(1)
O4 C4 N3 118.6(1)
O4 C4 C5 125.8(1)
N1 C2 N3 115.5(1)
N1 C6 C5 120.1(1)
N1 C6 C7 116.79(9)
H1 N1 C2 117.0(8)
H1 N1 C6 119.4(8)
C4 N3 C2 125.9(1)
C4 N3 H3 116.5(6)
C4 C5 C6 119.3(1)
C4 C5 H5 118.6(5)
N3 C4 C5 115.60(9)
H3 N3 C2 117.6(6)
C5 C6 C7 123.1(1)
H5 C5 C6 122.1(5)
C2 N1 C6 123.6(1)
H7C C7 C6 109.8(6)
H7C C7 H7A 108.1(8)
H7C C7 H7B 106.6(7)
H7A C7 C6 112.6(7)
H7A C7 H7B 109.4(9)
H7B C7 C6 110.1(5)
loop_
_geom_bond_atom_site_label_1
_geom_bond_atom_site_label_2
_geom_bond_distance
S2 C2 1.676(1)
O4 C4 1.233(1)
N1 C2 1.358(1)
N1 C6 1.379(2)
N1 H1 1.0298(10)
C4 N3 1.389(1)
C4 C5 1.438(2)
N3 C2 1.359(2)
N3 H3 1.0299(10)
C5 C6 1.362(2)
C5 H5 1.0829(10)
C7 C6 1.495(2)
C7 H7A 1.0768(10)
C7 H7B 1.0769(10)
C7 H7C 1.0769(10)
loop_
_geom_hbond_atom_site_label_D
_geom_hbond_atom_site_label_H
_geom_hbond_atom_site_label_A
_geom_hbond_distance_DH
_geom_hbond_distance_HA
_geom_hbond_distance_DA
_geom_hbond_angle_DHA
_geom_hbond_site_symmetry_A
N3 H3 S2 1.0299(10) 2.385(4) 3.3865(10) 164.0(4) 3_566
loop_
_refln_index_h
_refln_index_k
_refln_index_l
_refln_F_squared_calc
_refln_F_squared_meas
_refln_F_squared_sigma
_refln_observed_status
-6 0 4 103.00 88.33 17.17 o
-6 1 1 247.59 234.62 13.27 o
-6 1 3 72.39 73.69 9.01 o
-6 1 5 165.67 160.02 23.19 o
-6 2 2 79.74 59.68 9.68 o
-6 2 3 138.67 120.49 14.12 o
-6 2 4 187.84 154.87 28.49 o
-6 2 5 93.87 92.16 19.94 o
-6 3 2 179.68 147.93 17.64 o
-6 4 3 158.45 145.58 16.07 o
-6 5 1 38.59 30.55 8.66 o
-6 5 2 54.50 39.86 11.63 o
-6 7 1 116.07 90.43 20.14 o
-6 7 2 131.34 87.48 18.66 o
-5 0 2 74.79 59.26 9.45 o
-5 0 4 50.21 58.57 13.35 o
-5 0 6 183.02 182.50 14.60 o
-5 0 8 122.22 105.76 13.31 o
-5 1 2 303.05 292.26 12.27 o
-5 1 3 437.51 452.79 15.68 o
-5 1 5 131.67 135.52 9.92 o
-5 1 6 13.37 22.70 6.27 o
-5 1 7 164.80 164.08 11.61 o
-5 2 1 342.83 336.20 13.23 o
-5 2 2 109.72 103.25 12.21 o
-5 2 4 117.74 122.01 10.68 o
-5 2 5 199.78 189.16 10.60 o
-5 2 6 323.64 306.28 13.76 o
-5 2 7 115.02 113.22 10.85 o
-5 2 8 34.14 26.88 8.16 o
-5 3 1 307.85 305.50 12.58 o
-5 3 2 76.83 73.11 10.37 o
-5 3 3 35.09 26.91 5.59 o
-5 3 4 341.33 332.89 16.57 o
-5 3 6 23.98 22.91 6.16 o
-5 3 7 64.92 69.24 11.08 o
-5 3 8 300.86 302.94 16.84 o
-5 4 1 527.63 538.70 38.18 o
-5 4 3 75.39 75.90 13.18 o
-5 4 5 181.43 176.13 11.98 o
-5 4 7 76.01 72.49 16.77 o
-5 4 8 67.74 60.79 18.13 o
-5 5 1 177.51 168.47 11.14 o
-5 5 3 84.31 77.91 8.42 o
-5 5 4 145.91 138.80 10.99 o
-5 6 6 103.22 80.55 21.96 o
-5 6 7 271.18 254.81 40.45 o
-5 7 2 330.97 312.66 20.29 o
-5 7 3 187.38 198.07 12.72 o
-5 7 4 219.68 227.13 17.19 o
-5 7 5 72.16 64.16 17.11 o
-5 7 6 57.94 37.26 12.11 o
-5 8 1 64.96 63.40 10.16 o
-5 8 2 155.91 137.49 11.04 o
-5 8 5 45.45 50.22 11.19 o
-5 8 6 69.04 74.55 14.93 o
-5 9 2 30.83 37.87 10.07 o
-5 9 3 236.97 253.98 32.71 o
-5 9 5 88.82 61.22 15.40 o
-5 10 2 142.63 133.97 21.12 o
-5 10 3 84.63 91.60 13.71 o
-5 10 4 145.03 131.36 37.40 o
-5 10 5 302.17 293.37 29.23 o
-5 11 4 117.99 113.35 20.87 o
-5 12 1 335.88 333.03 21.27 o
-4 0 2 177.89 186.32 12.65 o
-4 0 4 173.13 177.06 11.25 o
-4 0 6 185.93 187.66 12.76 o
-4 0 8 255.88 283.38 16.21 o
-4 0 10 175.96 159.28 21.17 o
-4 1 1 381.27 369.17 12.18 o
-4 1 3 17.16 21.47 4.05 o
-4 1 4 303.27 310.79 11.29 o
-4 1 5 558.80 543.01 16.20 o
-4 1 7 194.94 182.69 11.44 o
-4 1 8 46.78 50.05 6.27 o
-4 1 9 107.08 102.72 11.82 o
-4 2 1 56.44 54.62 9.51 o
-4 2 2 343.17 344.68 11.67 o
-4 2 3 756.83 767.21 24.17 o
-4 2 4 284.32 278.68 12.44 o
-4 2 5 18.42 18.08 4.81 o
-4 2 6 125.29 127.68 7.69 o
-4 2 7 200.30 198.71 9.89 o
-4 2 8 410.38 404.61 16.57 o
-4 2 9 111.57 116.83 10.15 o
-4 3 1 193.14 195.92 8.52 o
-4 3 2 302.85 298.66 13.50 o
-4 3 3 510.67 511.98 15.20 o
-4 3 4 70.18 66.59 5.77 o
-4 3 5 65.57 76.31 7.43 o
-4 3 6 512.10 533.22 16.42 o
-4 3 8 46.74 42.86 7.23 o
-4 3 9 97.99 113.47 10.23 o
-4 3 10 274.70 305.68 16.78 o
-4 4 3 691.11 695.03 18.74 o
-4 4 5 168.10 170.59 8.54 o
-4 4 7 138.10 134.61 10.16 o
-4 4 8 33.01 32.09 6.97 o
-4 4 9 135.93 130.96 10.80 o
-4 4 10 103.40 126.46 13.24 o
-4 5 1 310.49 288.62 10.62 o
-4 5 2 109.88 113.70 6.81 o
-4 5 3 439.38 430.24 13.72 o
-4 5 5 133.45 121.29 7.61 o
-4 5 6 253.08 244.05 12.61 o
-4 5 8 115.59 126.09 10.29 o
-4 5 10 31.66 26.44 8.56 o
-4 6 1 1323.21 1307.91 40.12 o
-4 6 2 31.08 26.05 5.24 o
-4 6 7 73.18 63.68 10.06 o
-4 6 8 169.09 164.81 16.49 o
-4 6 9 292.66 306.37 19.73 o
-4 6 10 260.12 262.71 27.64 o
-4 7 1 131.76 139.84 7.52 o
-4 7 2 159.74 166.84 8.31 o
-4 7 3 39.22 30.26 5.71 o
-4 7 4 501.27 519.64 22.91 o
-4 7 5 203.89 215.18 14.80 o
-4 7 6 274.92 269.74 16.43 o
-4 7 7 139.51 133.95 13.50 o
-4 8 1 172.52 160.99 8.28 o
-4 8 2 606.71 616.56 18.32 o
-4 8 3 61.93 58.96 6.92 o
-4 8 4 235.70 244.19 23.68 o
-4 8 5 71.35 79.08 10.78 o
-4 8 8 60.07 56.04 11.99 o
-4 9 1 292.87 306.17 14.25 o
-4 9 2 67.05 62.39 8.23 o
-4 9 5 382.68 413.26 19.84 o
-4 9 6 106.27 87.02 12.37 o
-4 9 7 140.01 159.25 23.03 o
-4 10 1 65.18 58.74 6.07 o
-4 10 2 180.18 181.22 12.17 o
-4 10 3 97.17 109.42 11.55 o
-4 10 4 284.81 304.15 17.63 o
-4 10 5 118.55 127.92 31.42 o
-4 10 6 141.92 147.60 14.49 o
-4 10 7 334.49 351.54 24.72 o
-4 10 8 306.94 313.13 27.89 o
-4 11 2 117.52 119.36 10.97 o
-4 11 3 71.25 63.46 10.05 o
-4 11 5 28.85 38.15 9.93 o
-4 11 6 141.77 155.11 18.33 o
-4 11 7 189.08 222.92 24.74 o
-4 12 2 23.81 34.25 7.14 o
-4 12 3 423.61 460.65 21.40 o
-4 13 2 212.03 217.75 13.18 o
-4 13 3 88.68 88.14 16.85 o
-4 13 4 394.37 376.84 21.00 o
-4 13 6 204.12 206.59 26.04 o
-4 14 1 323.64 326.88 16.07 o
-4 14 3 148.46 162.54 15.60 o
-4 14 4 221.45 244.21 18.25 o
-4 15 1 48.98 48.54 10.72 o
-4 15 3 79.13 74.85 15.48 o
-4 15 4 61.92 52.67 11.61 o
-4 15 5 118.54 119.23 20.62 o
-4 16 1 33.43 30.18 8.35 o
-4 16 2 397.30 399.01 22.81 o
-3 0 2 228.19 218.50 19.89 o
-3 0 4 90.48 101.29 7.63 o
-3 0 6 309.04 297.97 21.24 o
-3 0 8 313.45 307.54 14.71 o
-3 0 10 286.31 278.28 22.81 o
-3 0 12 154.16 156.33 22.13 o
-3 1 1 552.86 527.95 17.01 o
-3 1 2 43.54 40.17 3.71 o
-3 1 3 644.99 632.79 20.48 o
-3 1 5 51.66 56.70 4.10 o
-3 1 6 239.12 254.61 8.66 o
-3 1 7 503.37 507.17 14.20 o
-3 1 8 31.75 38.67 5.13 o
-3 1 9 236.98 250.36 25.37 o
-3 1 10 78.27 74.97 10.47 o
-3 1 11 35.77 30.60 9.15 o
-3 2 2 157.45 163.77 6.66 o
-3 2 3 59.05 56.13 4.25 o
-3 2 4 493.72 494.95 17.46 o
-3 2 5 1164.64 1152.88 26.43 o
-3 2 6 461.13 478.07 13.31 o
-3 2 8 99.31 98.42 7.64 o
-3 2 9 125.60 132.25 15.22 o
-3 2 10 377.81 382.94 25.68 o
-3 2 11 86.68 73.22 16.61 o
-3 2 12 37.30 36.96 10.59 o
-3 3 1 111.88 110.42 5.40 o
-3 3 2 227.38 233.06 10.40 o
-3 3 3 427.98 429.86 17.94 o
-3 3 4 776.38 772.15 20.17 o
-3 3 5 607.88 619.28 15.94 o
-3 3 6 63.96 72.60 7.25 o
-3 3 7 93.02 109.12 7.47 o
-3 3 8 599.73 617.08 27.99 o
-3 3 10 47.35 48.96 9.63 o
-3 3 11 112.18 95.63 12.35 o
-3 3 12 179.25 185.42 24.04 o
-3 4 1 869.53 847.91 19.68 o
-3 4 3 13.52 12.50 3.75 o
-3 4 5 609.25 608.16 15.99 o
-3 4 6 24.16 24.87 4.28 o
-3 4 7 289.14 292.48 11.86 o
-3 4 9 52.88 51.83 8.53 o
-3 4 10 41.47 58.66 17.12 o
-3 4 11 196.12 193.23 16.25 o
-3 4 12 130.50 95.96 19.06 o
-3 5 1 12.70 9.47 2.09 o
-3 5 2 1406.52 1447.30 38.45 o
-3 5 3 665.07 665.20 17.13 o
-3 5 4 51.35 51.33 4.56 o
-3 5 5 706.58 709.82 17.98 o
-3 5 7 134.62 130.94 12.03 o
-3 5 8 313.14 295.12 15.22 o
-3 5 10 151.74 153.26 13.75 o
-3 6 1 237.69 232.93 7.18 o
-3 6 2 558.13 575.98 14.86 o
-3 6 3 1472.33 1488.29 37.06 o
-3 6 5 93.59 92.90 6.29 o
-3 6 6 82.37 89.08 6.72 o
-3 6 7 28.21 27.26 5.46 o
-3 6 8 38.74 24.12 7.24 o
-3 6 9 75.83 91.62 10.69 o
-3 6 10 186.95 204.54 15.45 o
-3 6 11 223.35 208.98 16.90 o
-3 7 1 357.33 355.37 10.36 o
-3 7 2 220.22 219.39 7.14 o
-3 7 3 201.28 193.75 7.38 o
-3 7 4 131.77 146.86 8.14 o
-3 7 5 90.92 103.81 6.76 o
-3 7 6 522.88 541.60 16.56 o
-3 7 7 133.91 137.20 23.74 o
-3 7 8 259.73 253.95 20.15 o
-3 7 9 208.21 206.58 14.65 o
-3 8 1 131.34 134.67 5.46 o
-3 8 2 590.71 593.15 16.54 o
-3 8 3 302.54 303.26 10.85 o
-3 8 4 788.32 801.87 30.18 o
-3 8 5 63.37 64.51 7.46 o
-3 8 6 275.97 293.36 21.10 o
-3 8 7 122.26 115.00 15.44 o
-3 8 9 83.72 98.08 16.37 o
-3 8 10 41.05 50.29 16.11 o
-3 9 1 485.08 491.48 13.06 o
-3 9 2 129.34 131.67 6.02 o
-3 9 3 549.41 530.09 17.68 o
-3 9 4 106.24 96.88 18.53 o
-3 9 7 499.25 503.52 28.82 o
-3 9 8 172.85 166.68 18.82 o
-3 9 9 151.87 131.93 18.83 o
-3 10 1 80.54 81.13 4.53 o
-3 10 2 132.03 137.00 8.08 o
-3 10 3 76.17 77.00 7.81 o
-3 10 4 243.44 259.94 19.54 o
-3 10 5 158.21 169.44 16.90 o
-3 10 6 372.02 385.62 25.30 o
-3 10 7 142.04 146.56 17.68 o
-3 10 8 77.14 69.46 15.03 o
-3 10 9 269.45 257.03 24.46 o
-3 10 10 264.80 247.46 26.96 o
-3 11 1 120.12 119.28 6.59 o
-3 11 2 136.22 130.73 10.07 o
-3 11 4 247.48 263.60 19.80 o
-3 11 7 37.56 50.29 14.07 o
-3 11 8 133.73 110.92 18.33 o
-3 11 9 287.33 264.89 26.13 o
-3 11 10 64.28 75.72 19.69 o
-3 12 2 55.86 53.33 8.77 o
-3 12 4 45.54 53.79 11.49 o
-3 12 5 430.15 443.86 26.43 o
-3 12 7 66.32 59.94 14.55 o
-3 13 2 441.18 454.20 24.15 o
-3 13 4 339.70 318.51 22.70 o
-3 13 5 113.42 123.18 16.23 o
-3 13 6 429.90 454.15 27.87 o
-3 13 8 183.08 216.14 24.97 o
-3 14 1 66.45 59.43 10.99 o
-3 14 3 257.41 235.60 19.95 o
-3 14 5 315.86 357.31 25.43 o
-3 14 6 279.56 286.05 24.25 o
-3 15 1 153.35 147.93 9.54 o
-3 15 2 200.33 207.82 11.85 o
-3 15 3 65.66 62.42 13.49 o
-3 16 2 86.41 76.19 10.39 o
-3 17 1 545.37 528.26 23.36 o
-3 17 3 61.02 53.83 15.89 o
-2 0 2 216.85 242.48 10.91 o
-2 0 4 644.32 657.76 17.29 o
-2 0 6 34.83 32.92 4.77 o
-2 0 8 406.24 420.21 20.30 o
-2 0 10 325.92 307.50 49.81 o
-2 0 12 242.63 267.22 24.96 o
-2 1 1 515.07 479.43 12.15 o
-2 1 2 1745.11 1773.61 38.78 o
-2 1 3 776.96 768.34 18.21 o
-2 1 4 24.36 19.83 3.55 o
-2 1 5 713.11 716.34 20.51 o
-2 1 7 119.54 111.50 6.16 o
-2 1 8 145.18 130.08 6.89 o
-2 1 9 314.70 300.45 12.66 o
-2 1 10 55.83 61.08 7.54 o
-2 1 11 232.09 201.73 12.02 o
-2 1 12 83.61 90.68 10.13 o
-2 2 1 600.48 573.01 13.52 o
-2 2 2 970.44 1019.99 24.83 o
-2 2 4 125.36 119.22 5.03 o
-2 2 5 8.94 9.72 3.06 o
-2 2 6 600.20 607.93 15.77 o
-2 2 7 1260.25 1253.46 36.35 o
-2 2 8 528.35 521.64 28.67 o
-2 2 10 60.02 50.92 8.23 o
-2 2 11 46.76 42.39 7.93 o
-2 2 12 242.36 249.67 20.89 o
-2 3 1 25.96 25.56 2.27 o
-2 3 2 47.39 48.65 3.26 o
-2 3 3 120.59 121.45 4.88 o
-2 3 4 202.65 210.38 7.00 o
-2 3 5 653.10 658.90 16.44 o
-2 3 6 1186.12 1199.16 30.88 o
-2 3 7 502.81 498.02 16.37 o
-2 3 8 55.19 36.96 8.03 o
-2 3 9 83.24 92.30 8.36 o
-2 3 10 540.20 523.63 31.18 o
-2 3 12 30.44 36.61 8.33 o
-2 3 13 95.05 80.75 14.14 o
-2 4 1 1433.97 1393.97 33.44 o
-2 4 3 1949.19 1922.90 43.93 o
-2 4 5 18.45 16.56 2.97 o
-2 4 7 333.47 337.34 12.11 o
-2 4 8 29.84 24.34 4.90 o
-2 4 9 366.06 362.94 16.70 o
-2 4 10 20.28 20.52 5.77 o
-2 4 12 34.28 27.10 7.45 o
-2 4 13 218.14 180.35 23.44 o
-2 5 1 143.12 141.76 5.57 o
-2 5 2 230.33 227.10 7.58 o
-2 5 3 27.87 26.74 2.29 o
-2 5 4 1590.02 1637.79 36.24 o
-2 5 5 872.82 869.46 20.60 o
-2 5 7 689.36 706.02 31.92 o
-2 5 8 34.48 32.97 5.21 o
-2 5 9 88.02 80.82 7.64 o
-2 5 10 292.92 291.36 15.89 o
-2 5 12 147.73 151.04 12.63 o
-2 6 1 483.99 491.64 12.22 o
-2 6 2 144.34 146.77 4.70 o
-2 6 3 353.57 344.64 9.79 o
-2 6 4 492.81 496.35 12.37 o
-2 6 5 1082.17 1102.63 25.10 o
-2 6 7 219.91 224.83 9.88 o
-2 6 8 168.97 166.95 9.14 o
-2 6 9 52.45 53.45 8.66 o
-2 6 10 44.06 52.25 7.55 o
-2 6 11 55.44 59.61 13.24 o
-2 6 12 135.92 124.62 20.97 o
-2 7 2 16.02 17.27 2.78 o
-2 7 3 424.88 426.99 12.21 o
-2 7 4 539.19 537.36 13.28 o
-2 7 5 198.48 210.54 16.76 o
-2 7 6 67.09 65.48 5.49 o
-2 7 7 140.64 145.82 8.22 o
-2 7 8 339.64 343.79 13.32 o
-2 7 9 41.89 44.19 6.61 o
-2 7 10 197.14 195.74 20.46 o
-2 7 11 234.18 217.71 13.54 o
-2 8 1 68.79 69.48 6.43 o
-2 8 2 776.85 782.68 21.20 o
-2 8 3 185.52 180.20 7.72 o
-2 8 4 1010.43 1063.00 27.44 o
-2 8 5 377.19 392.87 16.46 o
-2 8 6 767.14 780.73 20.38 o
-2 8 7 71.34 70.32 9.08 o
-2 8 8 263.45 276.59 12.14 o
-2 8 9 120.56 121.65 9.10 o
-2 8 11 78.54 80.79 9.68 o
-2 9 1 183.27 169.09 7.66 o
-2 9 3 413.82 423.15 21.26 o
-2 9 4 243.90 241.66 28.15 o
-2 9 5 777.52 806.39 25.35 o
-2 9 6 123.57 140.53 8.71 o
-2 9 7 44.15 42.98 5.56 o
-2 9 9 494.98 501.66 17.93 o
-2 9 10 180.80 167.47 31.04 o
-2 9 11 110.27 111.87 13.68 o
-2 10 1 66.09 59.39 4.39 o
-2 10 2 419.91 417.66 19.09 o
-2 10 3 124.18 121.31 8.40 o
-2 10 4 132.16 130.28 8.88 o
-2 10 5 54.32 47.44 6.39 o
-2 10 6 230.05 226.34 17.24 o
-2 10 7 169.73 157.91 17.18 o
-2 10 8 360.28 365.04 18.83 o
-2 10 11 157.32 158.41 24.73 o
-2 11 1 153.78 156.77 15.25 o
-2 11 2 39.38 36.85 4.78 o
-2 11 3 112.14 115.62 8.70 o
-2 11 4 107.19 109.36 13.07 o
-2 11 5 39.66 43.04 6.90 o
-2 11 6 372.58 402.36 16.86 o
-2 11 9 42.05 41.23 12.28 o
-2 11 10 106.60 107.49 13.43 o
-2 11 11 295.78 291.97 20.69 o
-2 12 1 1017.81 992.75 24.63 o
-2 12 2 77.93 84.19 12.18 o
-2 12 3 66.34 62.70 15.64 o
-2 12 4 62.15 61.89 7.91 o
-2 12 5 54.86 55.53 8.15 o
-2 12 6 45.72 43.80 10.04 o
-2 12 7 342.04 349.50 17.95 o
-2 12 8 21.14 28.94 9.44 o
-2 12 9 129.66 122.29 22.35 o
-2 13 1 91.42 87.92 5.98 o
-2 13 2 37.20 25.76 5.17 o
-2 13 4 582.49 605.83 20.31 o
-2 13 6 402.55 423.78 18.50 o
-2 13 7 88.09 80.76 10.91 o
-2 13 8 335.90 354.28 20.86 o
-2 13 10 123.04 100.92 21.41 o
-2 14 1 271.48 289.81 11.09 o
-2 14 2 36.90 38.59 5.38 o
-2 14 3 97.60 95.12 14.51 o
-2 14 5 121.03 127.03 16.52 o
-2 14 7 487.20 495.83 30.30 o
-2 14 8 277.40 299.13 26.08 o
-2 15 1 66.10 52.11 6.95 o
-2 15 3 154.72 161.86 17.58 o
-2 15 4 323.27 317.53 22.88 o
-2 15 5 82.70 94.26 16.23 o
-2 15 7 210.43 203.52 22.14 o
-2 16 1 156.14 157.35 10.78 o
-2 16 2 725.52 722.97 22.50 o
-2 16 4 145.58 158.47 19.55 o
-2 16 5 37.12 49.84 15.33 o
-2 16 6 536.38 525.70 31.75 o
-2 16 7 79.32 62.49 17.42 o
-2 17 2 41.73 37.80 7.59 o
-2 17 3 413.64 456.98 30.00 o
-2 17 5 113.32 95.04 18.34 o
-2 18 1 247.25 264.83 14.70 o
-2 18 2 137.54 117.54 13.38 o
-2 18 6 96.19 95.18 20.05 o
-2 19 1 20.85 25.94 8.23 o
-2 19 2 74.88 66.88 11.99 o
-2 19 4 484.14 452.33 33.03 o
-1 0 2 4352.29 4493.40 167.39 o
-1 0 4 220.74 223.91 15.32 o
-1 0 6 773.62 810.77 21.44 o
-1 0 10 422.02 413.23 17.70 o
-1 0 12 253.94 235.89 16.48 o
-1 1 1 1789.10 1849.44 40.50 o
-1 1 2 31.84 37.52 2.23 o
-1 1 3 1112.99 1142.49 25.67 o
-1 1 4 1408.52 1439.31 32.06 o
-1 1 5 538.05 572.34 17.83 o
-1 1 7 573.63 575.06 15.56 o
-1 1 9 139.41 121.12 6.98 o
-1 1 10 57.88 58.74 10.22 o
-1 1 11 137.58 130.54 8.83 o
-1 1 12 52.36 38.85 7.98 o
-1 1 13 180.87 165.47 13.18 o
-1 2 1 25.51 22.94 1.82 o
-1 2 2 50.45 59.71 3.21 o
-1 2 3 897.47 910.83 26.34 o
-1 2 4 1462.02 1461.14 32.46 o
-1 2 6 33.22 20.89 3.23 o
-1 2 8 472.10 444.66 13.49 o
-1 2 9 1011.61 992.87 24.65 o
-1 2 10 452.67 442.34 23.02 o
-1 3 2 886.74 938.77 29.46 o
-1 3 3 37.46 43.60 3.95 o
-1 3 5 89.19 93.50 7.17 o
-1 3 6 147.26 125.70 6.47 o
-1 3 7 648.57 648.97 17.82 o
-1 3 8 1220.78 1223.72 30.89 o
-1 3 9 292.50 295.39 15.39 o
-1 3 11 49.33 52.72 12.39 o
-1 3 12 356.14 338.31 19.76 o
-1 4 1 146.48 151.99 4.34 o
-1 4 2 534.56 555.07 12.88 o
-1 4 3 1732.37 1786.05 44.26 o
-1 4 5 2270.29 2269.91 54.41 o
-1 4 7 29.42 41.19 4.84 o
-1 4 9 98.51 106.07 7.93 o
-1 4 11 344.22 322.73 21.75 o
-1 5 1 1911.38 1900.13 41.33 o
-1 5 2 1538.99 1560.88 34.18 o
-1 5 3 289.78 283.18 7.48 o
-1 5 4 99.97 96.30 4.14 o
-1 5 5 45.93 49.98 3.37 o
-1 5 6 1295.19 1310.05 29.80 o
-1 5 7 729.63 734.89 19.57 o
-1 5 9 449.21 454.29 22.46 o
-1 5 10 48.83 39.65 8.66 o
-1 5 11 43.42 32.60 6.65 o
-1 5 12 199.59 183.71 18.99 o
-1 6 1 17.72 21.81 1.79 o
-1 6 2 2067.81 2068.57 46.29 o
-1 6 3 409.07 426.79 10.50 o
-1 6 4 102.45 106.97 7.73 o
-1 6 5 341.33 349.61 10.99 o
-1 6 6 230.33 219.18 8.79 o
-1 6 7 461.75 466.68 14.60 o
-1 6 9 282.07 278.75 15.78 o
-1 6 10 194.29 202.98 11.58 o
-1 6 11 56.80 57.77 10.53 o
-1 6 12 39.11 41.27 13.79 o
-1 6 13 30.31 28.28 8.94 o
-1 7 1 3927.55 3836.60 100.60 o
-1 7 2 7.47 7.76 1.95 o
-1 7 3 40.45 41.19 2.47 o
-1 7 4 45.92 41.32 3.20 o
-1 7 5 348.02 368.09 12.67 o
-1 7 6 764.50 752.81 19.54 o
-1 7 7 139.12 135.14 7.65 o
-1 7 8 19.86 20.91 5.09 o
-1 7 9 130.55 142.22 9.17 o
-1 7 10 136.28 119.36 9.21 o
-1 7 12 121.77 149.01 15.36 o
-1 7 13 197.71 230.72 27.04 o
-1 8 1 172.43 173.76 7.39 o
-1 8 2 214.32 218.19 7.25 o
-1 8 3 100.05 96.01 5.49 o
-1 8 4 1003.59 1008.93 23.20 o
-1 8 5 161.80 153.95 6.34 o
-1 8 6 1077.46 1093.65 25.69 o
-1 8 7 339.71 345.40 12.44 o
-1 8 8 513.95 510.72 29.44 o
-1 8 9 69.61 72.71 7.51 o
-1 8 10 211.16 225.60 12.48 o
-1 8 11 78.86 79.26 21.04 o
-1 9 1 836.00 849.75 19.85 o
-1 9 2 21.06 22.94 2.96 o
-1 9 3 287.13 283.80 9.59 o
-1 9 5 203.60 216.14 8.83 o
-1 9 6 361.11 355.43 19.39 o
-1 9 7 797.09 806.64 21.39 o
-1 9 8 106.05 98.95 7.87 o
-1 9 9 83.01 72.05 10.02 o
-1 9 11 370.30 378.17 20.71 o
-1 9 12 129.11 113.07 23.24 o
-1 10 2 183.96 182.26 6.94 o
-1 10 3 95.81 104.98 6.05 o
-1 10 4 618.80 618.79 21.51 o
-1 10 5 120.72 109.64 6.58 o
-1 10 6 85.87 90.08 8.07 o
-1 10 7 23.49 20.63 5.07 o
-1 10 8 147.11 149.55 9.33 o
-1 10 9 131.18 135.86 9.75 o
-1 10 10 273.87 266.00 17.20 o
-1 10 11 102.65 95.00 12.69 o
-1 11 1 23.30 16.45 2.99 o
-1 11 2 168.08 165.64 7.69 o
-1 11 3 151.99 155.23 11.43 o
-1 11 5 56.02 56.08 5.51 o
-1 11 6 51.74 46.75 7.28 o
-1 11 7 61.36 58.65 6.46 o
-1 11 8 420.06 408.64 19.52 o
-1 12 1 163.75 162.10 7.07 o
-1 12 2 17.41 21.07 3.73 o
-1 12 3 876.73 892.90 22.16 o
-1 12 4 99.81 107.11 7.37 o
-1 12 5 136.24 144.20 9.42 o
-1 12 6 42.35 42.95 5.67 o
-1 12 7 83.20 79.73 9.54 o
-1 12 8 25.45 23.57 7.56 o
-1 12 9 211.45 224.17 22.87 o
-1 12 11 140.84 140.93 23.43 o
-1 13 1 141.86 142.19 7.95 o
-1 13 2 995.64 982.73 24.73 o
-1 13 3 101.95 103.80 8.62 o
-1 13 6 562.35 554.16 20.26 o
-1 13 8 371.86 397.25 27.50 o
-1 13 10 193.28 196.27 24.39 o
-1 14 3 245.71 234.53 12.73 o
-1 14 4 49.99 45.54 9.64 o
-1 14 5 121.04 117.56 13.64 o
-1 14 9 535.03 530.46 33.29 o
-1 14 10 217.59 194.06 26.30 o
-1 15 1 414.64 409.54 16.89 o
-1 15 3 148.89 147.88 19.03 o
-1 15 5 110.70 103.40 15.77 o
-1 15 6 366.04 402.58 27.77 o
-1 15 7 87.87 114.33 19.21 o
-1 15 9 181.08 180.68 24.72 o
-1 16 3 163.51 187.50 13.16 o
-1 16 4 864.69 825.16 27.37 o
-1 16 6 160.03 124.23 17.99 o
-1 16 8 365.31 325.68 29.57 o
-1 17 1 737.96 759.73 21.50 o
-1 17 4 48.04 45.59 14.90 o
-1 17 5 208.75 213.57 23.14 o
-1 17 7 148.54 153.14 22.47 o
-1 18 2 212.51 202.59 21.93 o
-1 18 3 214.81 242.06 23.61 o
-1 18 4 201.84 202.41 23.44 o
-1 18 5 66.33 54.00 16.85 o
-1 19 1 50.49 50.23 8.72 o
-1 19 2 164.30 171.53 15.63 o
-1 19 4 78.79 63.27 17.43 o
-1 20 2 48.87 44.92 11.42 o
-1 20 3 67.94 73.05 13.43 o
0 0 2 1538.06 1593.60 34.09 o
0 0 4 1803.18 1808.03 39.28 o
0 0 6 155.32 143.42 22.05 o
0 0 8 650.45 619.92 19.63 o
0 0 12 328.77 326.65 29.90 o
0 1 2 393.83 412.03 10.46 o
0 1 3 2091.77 2164.50 47.37 o
0 1 4 67.88 82.13 4.54 o
0 1 5 780.61 761.57 18.56 o
0 1 6 368.90 367.37 10.85 o
0 1 7 295.60 296.63 11.87 o
0 1 8 17.49 16.44 4.78 o
0 1 9 346.15 326.46 13.27 o
0 1 11 116.79 118.47 16.85 o
0 1 13 40.25 34.61 8.34 o
0 2 0 3017.38 81.40 4.78 o
0 2 1 49.69 52.47 7.33 o
0 2 2 1195.39 1215.67 26.66 o
0 2 3 22.78 16.14 2.76 o
0 2 5 809.06 819.81 19.75 o
0 2 6 1130.11 1119.79 26.11 o
0 2 10 278.68 261.84 10.98 o
0 2 11 624.48 596.96 20.16 o
0 2 12 275.99 276.69 14.85 o
0 3 1 117.83 120.57 5.20 o
0 3 2 3860.11 3889.43 83.27 o
0 3 4 770.22 793.47 20.61 o
0 3 7 51.84 46.04 4.90 o
0 3 8 55.98 51.54 7.59 o
0 3 9 461.17 447.73 15.58 o
0 3 10 979.38 988.82 25.98 o
0 3 11 121.99 110.30 9.34 o
0 4 0 61.21 61.44 5.65 o
0 4 1 2985.15 3058.60 66.04 o
0 4 2 718.56 712.72 16.73 o
0 4 3 607.16 607.16 15.03 o
0 4 4 452.15 481.86 12.96 o
0 4 5 1226.60 1230.62 28.13 o
0 4 7 1642.82 1641.84 47.47 o
0 4 9 53.94 54.69 6.42 o
0 4 13 256.47 252.54 19.27 o
0 5 2 2563.34 2619.30 55.41 o
0 5 3 1177.83 1135.23 25.67 o
0 5 4 1409.48 1396.03 42.85 o
0 5 5 208.22 195.30 7.71 o
0 5 7 77.43 67.67 5.89 o
0 5 8 704.36 703.63 20.13 o
0 5 9 406.32 395.60 14.48 o
0 5 10 33.51 30.37 7.37 o
0 5 11 203.00 219.03 15.22 o
0 5 12 48.92 46.26 11.16 o
0 6 0 229.43 226.93 11.04 o
0 6 1 138.69 144.18 4.55 o
0 6 2 479.32 478.44 12.41 o
0 6 3 83.53 85.58 6.71 o
0 6 4 1257.90 1237.88 28.05 o
0 6 5 196.23 188.85 8.93 o
0 6 6 59.36 62.38 6.01 o
0 6 7 286.75 289.67 15.83 o
0 6 8 31.86 32.22 6.58 o
0 6 9 114.34 115.74 13.38 o
0 6 11 232.94 222.39 15.61 o
0 6 12 137.72 146.31 14.99 o
0 7 1 49.09 43.99 2.60 o
0 7 2 187.01 185.34 6.76 o
0 7 3 3728.33 3760.01 80.41 o
0 7 4 49.89 48.76 4.14 o
0 7 5 85.02 85.71 6.48 o
0 7 7 249.73 262.80 14.27 o
0 7 8 660.12 627.55 20.22 o
0 7 9 77.84 70.69 16.12 o
0 7 11 87.90 82.48 11.25 o
0 8 0 2604.41 2584.82 52.84 o
0 8 1 333.88 329.31 8.68 o
0 8 2 522.43 506.28 13.40 o
0 8 3 162.57 151.38 7.84 o
0 8 4 66.79 71.54 4.94 o
0 8 5 30.31 23.99 4.80 o
0 8 6 838.28 830.34 25.10 o
0 8 7 66.50 64.23 7.33 o
0 8 8 781.23 786.05 23.25 o
0 8 9 236.44 233.05 13.88 o
0 8 10 228.82 236.40 15.21 o
0 8 11 56.55 50.82 10.73 o
0 8 12 131.59 124.86 14.46 o
0 9 1 128.37 124.00 4.25 o
0 9 2 205.07 216.49 8.48 o
0 9 3 776.75 811.70 19.82 o
0 9 4 10.55 13.25 4.39 o
0 9 5 260.47 260.12 9.78 o
0 9 6 22.01 29.00 4.67 o
0 9 7 52.68 49.20 5.58 o
0 9 8 396.29 391.30 16.50 o
0 9 9 640.56 657.17 49.33 o
0 9 10 74.92 69.91 10.29 o
0 9 11 84.82 76.06 22.72 o
0 10 0 234.81 234.09 7.53 o
0 10 1 18.41 19.79 2.10 o
0 10 2 34.15 37.53 3.88 o
0 10 4 105.14 105.49 5.98 o
0 10 5 121.02 136.28 7.97 o
0 10 6 637.38 634.31 25.85 o
0 10 7 80.69 69.22 9.72 o
0 10 8 33.68 34.10 5.71 o
0 10 10 62.42 55.50 10.48 o
0 10 11 78.01 84.59 18.93 o
0 10 12 162.18 158.87 16.85 o
0 11 1 1717.11 1695.40 36.90 o
0 11 2 1859.12 1888.60 49.05 o
0 11 4 195.54 184.73 10.52 o
0 11 5 86.52 60.45 19.59 o
0 11 9 64.30 55.85 9.63 o
0 11 10 348.88 324.74 43.17 o
0 12 0 103.73 105.47 6.07 o
0 12 1 1502.08 1502.65 37.22 o
0 12 3 65.34 66.45 7.07 o
0 12 5 489.84 492.93 18.08 o
0 12 6 87.58 68.79 8.34 o
0 12 7 184.68 199.64 16.34 o
0 12 9 82.47 81.02 16.00 o
0 13 1 430.73 414.55 12.59 o
0 13 3 131.54 126.44 7.57 o
0 13 4 1184.46 1202.04 60.23 o
0 13 5 104.24 97.70 17.03 o
0 13 8 378.67 388.77 19.31 o
0 13 10 275.01 249.54 36.15 o
0 14 0 261.72 236.82 22.61 o
0 14 1 112.69 106.85 7.59 o
0 14 5 156.86 146.54 12.00 o
0 14 6 44.45 39.37 8.70 o
0 14 7 130.08 130.17 12.43 o
0 15 1 117.36 115.84 8.39 o
0 15 2 158.72 154.68 28.19 o
0 15 3 310.71 315.77 15.83 o
0 15 4 52.22 57.19 10.47 o
0 15 5 220.50 217.03 11.47 o
0 15 7 56.38 51.74 8.12 o
0 15 8 297.56 293.46 15.61 o
0 15 9 83.74 66.99 14.93 o
0 16 0 556.30 565.79 26.85 o
0 16 1 142.83 131.78 8.20 o
0 16 2 156.92 157.12 11.96 o
0 16 5 113.71 117.56 9.40 o
0 16 6 763.33 763.16 23.41 o
0 16 8 117.90 116.40 23.05 o
0 17 1 43.60 35.31 5.77 o
0 17 3 649.32 650.33 28.72 o
0 17 6 42.34 37.78 10.80 o
0 17 7 60.71 44.73 9.27 o
0 18 1 93.62 98.19 16.24 o
0 18 2 266.68 285.44 15.03 o
0 18 4 155.50 157.94 14.49 o
0 18 5 133.31 127.48 16.73 o
0 18 6 202.11 179.10 39.99 o
0 19 1 77.66 68.66 9.22 o
0 19 2 78.46 82.08 17.38 o
0 19 4 210.04 188.37 16.52 o
0 20 0 461.81 469.47 28.47 o
0 20 1 175.69 164.78 13.38 o
0 21 2 104.18 86.36 19.33 o
1 0 0 1398.28 1421.93 51.70 o
1 0 2 41615.49 40808.86 785.82 o
1 0 4 299.88 273.17 11.80 o
1 0 6 312.00 301.01 16.05 o
1 0 8 86.42 72.62 11.38 o
1 0 10 413.00 421.36 17.55 o
1 1 0 862.84 895.18 19.91 o
1 1 1 1746.47 1746.25 38.14 o
1 1 2 451.81 431.14 11.41 o
1 1 3 343.38 351.80 8.83 o
1 1 4 6.97 9.69 1.86 o
1 1 5 1307.17 1263.75 28.33 o
1 1 6 29.35 26.22 3.21 o
1 1 7 377.02 370.77 12.38 o
1 1 8 28.46 30.65 10.23 o
1 1 9 127.29 112.16 11.33 o
1 1 11 150.50 138.28 8.51 o
1 1 13 88.06 76.36 17.12 o
1 2 0 1127.53 1139.20 25.23 o
1 2 1 71.76 66.64 2.96 o
1 2 2 1885.87 1868.45 40.78 o
1 2 3 526.50 489.35 12.75 o
1 2 4 545.99 535.88 12.90 o
1 2 7 489.00 464.55 13.13 o
1 2 8 626.04 629.96 17.00 o
1 2 10 41.21 30.58 6.67 o
1 2 11 53.59 71.85 14.56 o
1 2 12 159.74 155.06 13.91 o
1 2 13 310.36 303.15 42.63 o
1 3 0 3599.32 3612.93 77.12 o
1 3 1 114.45 121.62 4.06 o
1 3 2 57.47 62.51 2.93 o
1 3 3 65.13 73.64 3.23 o
1 3 4 1153.76 1152.03 25.82 o
1 3 6 484.60 508.59 13.94 o
1 3 8 36.48 35.86 4.85 o
1 3 9 30.86 37.90 10.60 o
1 3 11 243.30 264.07 16.02 o
1 3 12 589.37 584.41 57.63 o
1 4 0 462.42 458.04 11.33 o
1 4 1 2322.51 2322.57 50.56 o
1 4 2 13.61 12.09 3.12 o
1 4 3 2103.41 2030.32 43.99 o
1 4 4 441.88 430.70 10.76 o
1 4 5 439.21 433.12 11.59 o
1 4 6 300.34 307.30 11.13 o
1 4 7 668.25 639.04 19.61 o
1 4 9 943.03 937.61 41.60 o
1 4 11 46.18 51.81 9.64 o
1 5 0 2785.79 2789.09 62.41 o
1 5 1 37.87 36.19 2.81 o
1 5 2 17.02 15.20 2.17 o
1 5 4 946.18 953.56 21.98 o
1 5 5 187.36 189.21 6.43 o
1 5 6 838.93 831.16 19.37 o
1 5 7 89.95 92.98 7.60 o
1 5 9 64.70 63.09 9.65 o
1 5 10 303.49 320.12 15.96 o
1 5 11 155.26 162.01 48.69 o
1 5 13 55.62 48.13 11.53 o
1 6 0 670.22 683.00 17.24 o
1 6 1 51.81 51.57 3.41 o
1 6 2 86.34 82.45 3.72 o
1 6 3 188.67 187.61 5.85 o
1 6 4 185.67 188.14 6.16 o
1 6 5 42.73 37.26 2.69 o
1 6 6 363.99 367.74 12.04 o
1 6 7 85.74 93.90 16.14 o
1 6 8 34.76 29.45 6.67 o
1 6 9 222.14 226.95 17.74 o
1 6 13 134.59 130.07 20.90 o
1 7 0 55.76 58.66 4.72 o
1 7 3 44.28 47.04 2.89 o
1 7 4 85.33 90.56 6.09 o
1 7 5 2216.93 2189.52 49.41 o
1 7 6 135.66 123.81 7.17 o
1 7 7 98.63 96.84 6.69 o
1 7 9 129.75 136.77 11.19 o
1 7 10 392.46 377.83 15.59 o
1 7 11 32.64 24.65 6.23 o
1 8 0 217.56 222.03 7.78 o
1 8 1 280.11 283.45 10.16 o
1 8 2 1826.27 1785.76 42.30 o
1 8 3 148.48 149.28 5.64 o
1 8 4 633.78 643.09 17.48 o
1 8 5 62.54 53.60 4.21 o
1 8 6 16.22 14.38 3.44 o
1 8 8 498.55 496.82 16.32 o
1 8 10 421.53 422.06 31.60 o
1 8 11 121.87 118.87 17.87 o
1 8 12 67.82 45.76 10.96 o
1 9 0 113.28 118.74 5.63 o
1 9 1 187.16 181.60 7.51 o
1 9 2 50.24 50.92 3.70 o
1 9 3 61.11 67.06 6.20 o
1 9 4 271.61 278.00 9.08 o
1 9 5 496.58 500.46 14.58 o
1 9 7 241.99 231.91 9.57 o
1 9 8 70.31 67.29 17.70 o
1 9 10 351.72 353.78 22.67 o
1 9 11 409.26 422.32 40.90 o
1 9 12 50.30 60.60 12.64 o
1 10 2 236.97 237.68 9.17 o
1 10 3 111.51 112.03 6.28 o
1 10 4 76.52 66.01 7.34 o
1 10 6 61.27 57.92 6.53 o
1 10 7 111.24 101.91 7.98 o
1 10 8 385.88 370.21 15.08 o
1 10 9 43.81 49.99 7.16 o
1 11 0 1782.56 1792.95 41.28 o
1 11 1 1378.86 1395.59 31.32 o
1 11 2 59.66 54.52 5.18 o
1 11 3 1317.45 1298.73 29.92 o
1 11 4 1337.32 1333.41 30.71 o
1 11 6 140.46 132.01 8.56 o
1 11 11 40.29 41.94 9.21 o
1 12 1 1595.19 1569.68 34.48 o
1 12 2 99.48 93.89 6.40 o
1 12 3 938.86 931.80 23.56 o
1 12 4 46.94 45.07 5.33 o
1 12 7 183.64 201.44 11.40 o
1 12 8 50.10 42.69 7.28 o
1 12 9 184.59 194.13 12.78 o
1 12 11 61.68 65.30 13.32 o
1 13 1 358.58 348.04 13.16 o
1 13 2 40.11 38.63 5.91 o
1 13 3 371.40 380.06 17.81 o
1 13 5 62.77 63.38 6.91 o
1 13 6 950.14 976.25 25.79 o
1 13 7 82.73 87.50 8.60 o
1 13 10 170.53 166.76 13.34 o
1 14 0 39.46 38.15 4.82 o
1 14 1 52.42 53.79 5.74 o
1 14 2 238.59 229.89 10.55 o
1 14 3 136.83 147.29 8.97 o
1 14 6 29.02 27.62 8.23 o
1 14 7 79.88 72.14 10.40 o
1 14 8 22.73 27.04 7.66 o
1 14 9 114.12 101.20 10.98 o
1 15 0 215.42 212.24 9.73 o
1 15 1 136.05 137.88 13.21 o
1 15 3 67.37 69.30 7.04 o
1 15 4 94.44 80.52 10.25 o
1 15 5 159.15 157.13 10.30 o
1 15 6 77.01 73.32 11.05 o
1 15 7 250.33 250.56 19.99 o
1 16 0 61.19 60.50 8.19 o
1 16 1 145.09 145.25 12.68 o
1 16 2 483.74 490.34 20.36 o
1 16 3 101.97 103.88 32.34 o
1 16 4 218.62 219.66 12.07 o
1 16 7 52.66 58.37 12.06 o
1 16 8 489.98 519.40 21.45 o
1 17 1 48.84 52.01 7.48 o
1 17 5 426.94 408.24 33.96 o
1 18 0 184.93 179.53 12.11 o
1 18 1 97.22 105.47 10.32 o
1 18 3 63.47 72.00 11.99 o
1 18 4 270.07 283.00 19.50 o
1 18 6 89.13 64.91 12.43 o
1 18 7 60.69 54.04 16.73 o
1 19 0 64.92 53.80 11.44 o
1 19 1 108.02 113.97 11.36 o
1 19 2 33.32 29.88 8.45 o
1 19 3 38.32 24.89 7.51 o
1 19 4 76.03 76.38 12.30 o
1 20 1 201.19 184.71 13.94 o
1 20 2 390.87 374.80 25.83 o
1 20 3 103.99 112.52 12.63 o
2 0 0 2954.11 2966.91 58.46 o
2 0 2 395.95 388.44 10.61 o
2 0 4 10334.03 10376.19 197.92 o
2 0 8 51.96 56.97 11.26 o
2 0 10 47.29 49.33 12.41 o
2 1 1 807.05 763.73 22.51 o
2 1 2 458.70 462.31 11.89 o
2 1 3 1422.16 1368.02 30.43 o
2 1 4 395.40 371.34 11.15 o
2 1 5 129.72 114.78 4.52 o
2 1 7 628.07 643.63 18.07 o
2 1 9 182.26 176.76 8.43 o
2 2 0 83.83 75.04 3.00 o
2 2 2 395.98 373.54 10.07 o
2 2 3 39.56 39.09 2.81 o
2 2 4 469.69 433.73 11.82 o
2 2 5 532.47 495.10 13.26 o
2 2 6 279.09 291.55 8.90 o
2 2 8 16.01 19.38 6.37 o
2 2 9 201.42 201.18 9.96 o
2 2 10 304.42 325.01 16.41 o
2 2 12 58.25 48.57 15.66 o
2 2 13 72.43 52.85 17.35 o
2 3 0 527.13 551.61 13.45 o
2 3 2 1153.10 1153.17 25.99 o
2 3 3 47.74 55.79 3.56 o
2 3 4 154.05 158.33 5.64 o
2 3 5 38.60 38.54 3.09 o
2 3 6 370.76 402.42 11.39 o
2 3 8 294.60 294.24 10.26 o
2 4 0 343.81 334.26 9.14 o
2 4 1 74.79 77.31 3.53 o
2 4 2 155.23 141.74 5.10 o
2 4 3 1196.07 1186.94 26.92 o
2 4 5 995.26 963.90 22.98 o
2 4 6 175.25 174.06 6.51 o
2 4 7 306.55 311.39 13.52 o
2 4 8 164.78 167.90 10.99 o
2 4 9 287.31 297.83 15.23 o
2 4 11 446.54 463.59 21.45 o
2 5 0 1037.95 1046.71 23.47 o
2 5 1 842.89 848.19 19.75 o
2 5 2 1243.19 1221.34 27.51 o
2 5 3 44.19 45.72 3.22 o
2 5 4 46.46 44.44 4.00 o
2 5 6 318.58 323.95 10.36 o
2 5 7 15.81 15.49 3.97 o
2 5 8 399.26 404.45 16.70 o
2 5 9 41.59 36.53 7.78 o
2 5 12 111.82 111.15 13.76 o
2 6 0 1328.49 1332.71 29.47 o
2 6 2 385.90 386.56 10.47 o
2 6 3 18.40 15.09 2.93 o
2 6 4 21.37 27.86 3.03 o
2 6 5 172.56 166.90 9.36 o
2 6 6 95.51 95.31 6.21 o
2 6 8 91.51 103.08 21.45 o
2 6 11 128.49 136.18 17.72 o
2 7 0 46.99 41.33 2.84 o
2 7 1 2333.77 2277.51 48.98 o
2 7 3 105.43 98.12 5.43 o
2 7 5 30.08 34.80 4.27 o
2 7 7 1045.10 1088.79 27.90 o
2 7 8 110.61 117.74 10.50 o
2 7 9 71.20 85.92 10.33 o
2 7 11 37.65 36.75 10.24 o
2 7 12 179.25 198.78 17.95 o
2 8 0 339.03 329.50 9.94 o
2 8 1 118.71 112.25 4.81 o
2 8 2 49.29 55.02 5.30 o
2 8 3 127.47 132.51 8.01 o
2 8 4 856.87 868.54 20.83 o
2 8 5 49.21 45.28 4.35 o
2 8 6 512.76 519.88 18.65 o
2 8 10 254.03 260.21 17.00 o
2 8 12 170.39 169.61 25.24 o
2 9 1 593.00 595.82 15.08 o
2 9 2 35.48 27.18 3.11 o
2 9 3 221.95 212.06 8.50 o
2 9 4 103.78 103.63 6.84 o
2 9 6 242.92 248.74 11.35 o
2 9 7 255.15 240.48 11.66 o
2 9 9 188.28 189.33 12.15 o
2 9 10 78.75 83.29 10.25 o
2 10 0 237.24 219.62 8.74 o
2 10 4 224.51 217.58 9.91 o
2 10 5 187.53 192.37 9.80 o
2 10 6 55.59 50.36 10.13 o
2 10 10 141.63 156.10 12.76 o
2 11 0 93.96 91.11 5.41 o
2 11 1 38.69 40.07 4.25 o
2 11 2 1172.46 1192.49 27.44 o
2 11 3 795.59 804.05 21.42 o
2 11 4 130.14 145.01 8.58 o
2 11 5 691.19 704.50 20.38 o
2 11 6 768.55 763.42 27.38 o
2 11 8 72.39 66.91 8.27 o
2 12 0 19.98 19.18 3.82 o
2 12 1 254.86 258.77 9.49 o
2 12 2 50.05 48.73 4.73 o
2 12 3 1141.04 1131.34 27.40 o
2 12 4 76.40 69.99 6.70 o
2 12 5 430.61 443.91 16.00 o
2 12 6 75.61 72.63 7.69 o
2 12 9 47.52 37.09 12.25 o
2 13 0 620.05 613.86 24.27 o
2 13 1 83.77 91.56 5.38 o
2 13 2 45.54 42.36 5.79 o
2 13 3 230.69 230.83 11.11 o
2 13 4 89.48 90.35 7.65 o
2 13 5 229.48 218.67 11.66 o
2 13 8 520.38 522.99 20.47 o
2 13 9 49.63 48.97 8.81 o
2 14 2 88.19 85.58 7.24 o
2 14 3 7.75 18.56 5.70 o
2 14 4 185.69 180.00 10.76 o
2 14 5 115.44 111.28 9.23 o
2 14 9 38.51 31.55 9.06 o
2 15 1 356.77 337.61 14.29 o
2 15 2 219.24 241.25 12.16 o
2 15 3 129.84 134.26 11.92 o
2 15 5 20.90 31.63 7.23 o
2 15 6 42.53 42.06 8.08 o
2 15 7 58.11 71.47 9.62 o
2 15 8 65.81 66.92 11.61 o
2 16 0 43.48 35.49 7.01 o
2 16 3 116.61 119.25 17.79 o
2 16 4 313.47 314.40 16.79 o
2 16 5 53.67 49.04 10.27 o
2 16 6 187.63 180.93 15.87 o
2 17 1 613.80 610.49 23.49 o
2 17 7 219.55 200.05 18.37 o
2 18 0 223.69 218.74 18.34 o
2 18 2 85.61 91.48 16.51 o
2 18 3 62.54 58.78 9.33 o
2 19 0 91.39 94.54 13.63 o
2 19 2 44.35 37.53 12.23 o
2 19 3 104.22 98.59 14.84 o
2 19 4 79.51 47.51 15.88 o
2 20 0 39.81 33.55 11.22 o
3 0 0 248.56 270.38 9.49 o
3 0 2 1408.58 1380.79 36.65 o
3 0 4 120.65 123.62 8.22 o
3 0 6 3044.66 3212.06 60.89 o
3 1 0 1030.38 1029.44 31.31 o
3 1 1 57.60 52.00 3.68 o
3 1 3 314.08 311.90 9.59 o
3 1 4 273.34 284.26 8.80 o
3 1 5 819.06 831.21 20.10 o
3 1 6 221.07 227.87 9.18 o
3 1 7 28.08 21.53 4.01 o
3 1 9 248.85 263.47 10.80 o
3 1 11 70.68 84.15 16.69 o
3 2 0 520.36 521.77 52.62 o
3 2 1 251.59 236.03 8.71 o
3 2 2 73.71 65.16 4.88 o
3 2 3 20.67 19.17 3.04 o
3 2 4 97.57 94.31 5.34 o
3 2 5 17.34 17.31 3.16 o
3 2 6 70.27 65.57 4.92 o
3 2 7 337.77 348.11 12.31 o
3 2 8 140.21 152.81 7.38 o
3 2 11 58.55 51.30 15.54 o
3 3 0 91.76 92.63 4.77 o
3 3 2 240.54 244.98 11.98 o
3 3 4 438.74 447.28 12.77 o
3 3 5 25.06 31.79 4.85 o
3 3 6 172.44 177.13 8.92 o
3 3 7 40.69 38.76 4.06 o
3 3 8 132.47 146.74 10.24 o
3 3 10 163.79 184.58 14.42 o
3 3 11 34.93 49.76 15.75 o
3 4 1 721.99 707.64 19.41 o
3 4 2 119.61 115.96 5.02 o
3 4 3 292.47 280.90 8.76 o
3 4 4 33.03 25.70 3.72 o
3 4 5 469.11 475.53 13.80 o
3 4 7 396.58 405.98 13.21 o
3 4 8 72.43 68.47 6.18 o
3 4 9 204.09 216.02 14.14 o
3 4 10 81.73 60.47 10.04 o
3 4 11 95.18 103.21 19.74 o
3 5 0 250.76 251.32 10.06 o
3 5 1 40.46 43.87 4.36 o
3 5 2 559.51 557.36 14.34 o
3 5 3 250.67 248.79 8.25 o
3 5 4 518.29 524.66 14.09 o
3 5 5 23.38 17.39 3.30 o
3 5 6 52.78 44.64 4.80 o
3 5 8 101.36 100.13 8.40 o
3 5 10 154.51 160.98 14.08 o
3 6 0 183.50 185.66 6.32 o
3 6 1 393.95 387.70 12.20 o
3 6 2 622.69 634.50 16.01 o
3 6 4 166.24 157.91 6.62 o
3 6 7 109.50 117.78 8.62 o
3 6 8 51.06 65.92 9.35 o
3 6 10 20.31 39.82 9.90 o
3 7 2 47.60 48.76 4.54 o
3 7 3 997.88 1021.39 23.99 o
3 7 4 33.79 30.19 3.77 o
3 7 5 126.52 116.27 6.05 o
3 7 7 30.36 23.94 5.09 o
3 7 9 420.88 426.07 20.25 o
3 7 10 59.50 68.77 11.57 o
3 8 0 467.42 477.89 16.09 o
3 8 1 33.77 34.09 3.86 o
3 8 2 320.22 317.74 9.94 o
3 8 3 74.54 68.34 5.70 o
3 8 5 55.08 57.29 4.86 o
3 8 6 320.78 319.43 12.22 o
3 8 8 347.99 355.34 15.70 o
3 9 1 50.80 50.82 3.90 o
3 9 3 322.87 322.89 10.46 o
3 9 5 167.26 177.28 8.93 o
3 9 6 102.22 99.52 8.13 o
3 9 8 169.86 175.92 15.66 o
3 9 9 101.64 99.63 10.16 o
3 10 0 224.63 230.64 9.80 o
3 10 1 27.09 22.61 5.23 o
3 10 2 199.43 182.82 7.84 o
3 10 3 12.08 13.24 3.50 o
3 10 6 190.41 196.47 11.23 o
3 10 7 161.57 166.15 11.23 o
3 11 0 52.00 46.75 4.22 o
3 11 1 125.57 123.90 6.84 o
3 11 2 34.30 34.94 4.99 o
3 11 3 49.19 46.35 4.53 o
3 11 4 614.74 631.99 27.37 o
3 11 5 363.85 358.00 14.72 o
3 11 6 139.52 154.21 10.35 o
3 11 7 277.41 268.27 18.40 o
3 11 8 364.39 372.45 17.31 o
3 12 0 41.94 38.58 4.28 o
3 12 1 835.66 820.67 23.76 o
3 12 2 19.18 27.73 6.21 o
3 12 3 259.84 258.99 12.09 o
3 12 4 77.17 79.88 7.60 o
3 12 5 619.78 614.26 20.13 o
3 12 6 43.49 65.53 8.20 o
3 12 7 146.54 146.66 11.39 o
3 12 8 63.09 53.34 17.48 o
3 13 0 60.24 55.06 9.77 o
3 13 1 71.08 66.07 8.31 o
3 13 2 280.05 272.28 25.84 o
3 13 3 35.60 38.96 6.78 o
3 13 4 46.41 46.49 7.02 o
3 13 5 114.10 109.15 10.95 o
3 13 6 93.50 96.58 9.86 o
3 13 7 112.67 100.59 10.86 o
3 14 1 225.17 247.73 12.54 o
3 14 4 107.82 104.27 9.50 o
3 14 6 125.69 123.03 11.32 o
3 14 7 70.22 81.35 12.72 o
3 15 0 23.84 20.43 5.81 o
3 15 3 199.17 186.07 11.85 o
3 15 4 164.95 140.63 11.23 o
3 15 5 100.71 98.71 12.84 o
3 16 0 458.14 491.65 29.47 o
3 16 1 106.76 115.63 12.26 o
3 16 2 67.27 81.52 11.70 o
3 16 5 75.28 73.62 19.07 o
3 16 6 148.74 108.88 20.25 o
3 17 0 29.32 31.69 9.41 o
3 17 3 384.95 347.88 29.62 o
3 18 1 200.74 214.00 25.43 o
4 0 2 212.18 217.08 17.50 o
4 0 4 698.17 696.02 31.22 o
4 0 6 55.02 38.78 11.69 o
4 0 8 930.36 937.42 27.86 o
4 1 0 20.93 20.09 5.36 o
4 1 1 246.79 256.69 13.90 o
4 1 2 513.29 524.61 37.24 o
4 1 5 97.50 105.40 16.61 o
4 1 6 162.60 158.52 11.35 o
4 1 7 447.02 473.22 17.21 o
4 1 8 122.26 143.98 9.98 o
4 2 0 128.38 105.92 14.74 o
4 2 2 278.47 269.87 20.54 o
4 2 3 97.02 103.11 7.07 o
4 2 4 49.98 47.28 5.98 o
4 2 5 27.06 27.76 7.28 o
4 2 9 171.76 177.53 12.38 o
4 2 10 58.44 57.55 11.26 o
4 3 0 253.21 250.18 10.62 o
4 3 1 95.29 109.04 9.91 o
4 3 2 92.82 94.74 7.10 o
4 3 4 86.43 80.20 13.88 o
4 3 5 26.18 22.19 4.62 o
4 3 6 157.15 165.77 10.22 o
4 3 8 134.86 130.96 10.22 o
4 4 1 216.86 214.52 8.59 o
4 4 3 294.68 297.11 11.95 o
4 4 4 45.40 46.16 6.26 o
4 4 5 292.01 297.92 12.12 o
4 4 7 156.33 165.47 15.08 o
4 4 9 138.81 136.49 14.14 o
4 5 0 1053.14 1087.91 26.51 o
4 5 2 197.42 199.60 9.93 o
4 5 4 233.64 211.45 10.61 o
4 5 5 69.24 60.08 6.06 o
4 5 6 219.71 225.97 12.68 o
4 5 8 34.44 39.27 8.42 o
4 6 0 440.08 443.83 13.88 o
4 6 1 126.38 125.08 8.06 o
4 6 2 177.21 180.15 10.19 o
4 6 3 268.97 268.13 16.25 o
4 6 4 269.45 269.87 11.13 o
4 6 6 61.41 63.58 6.54 o
4 7 0 43.38 43.23 5.07 o
4 7 1 202.70 205.46 17.50 o
4 7 3 37.55 34.42 7.24 o
4 7 4 51.69 55.86 5.76 o
4 7 5 369.39 399.24 14.32 o
4 7 7 84.39 77.16 9.15 o
4 8 0 215.89 211.62 9.43 o
4 8 1 66.39 78.07 7.07 o
4 8 2 219.02 218.52 12.58 o
4 8 3 16.49 17.90 5.91 o
4 8 4 226.63 226.44 10.65 o
4 8 5 35.20 30.15 5.51 o
4 8 8 75.46 79.29 12.26 o
4 9 0 66.31 64.14 5.87 o
4 9 1 389.72 412.57 21.09 o
4 9 5 125.86 120.33 10.39 o
4 9 7 87.19 66.85 10.80 o
4 9 8 62.01 69.33 12.72 o
4 10 0 97.48 93.27 8.26 o
4 10 1 40.03 48.70 11.23 o
4 10 2 75.13 67.76 7.50 o
4 10 4 138.52 130.09 10.09 o
4 10 8 138.34 141.69 18.01 o
4 11 0 115.76 114.86 7.95 o
4 11 1 99.20 85.47 8.20 o
4 11 3 74.35 73.98 18.64 o
4 11 5 36.72 37.62 8.81 o
4 11 6 268.98 286.27 19.09 o
4 11 7 128.68 133.13 15.00 o
4 12 0 34.54 41.98 6.25 o
4 12 3 521.26 539.44 22.82 o
4 12 5 173.39 167.72 25.90 o
4 12 6 67.78 64.87 11.39 o
4 12 7 265.31 268.26 27.78 o
4 13 0 238.48 221.24 20.83 o
4 13 2 64.34 54.20 9.78 o
4 13 3 44.11 54.55 11.47 o
4 13 4 80.09 68.60 11.36 o
4 14 3 140.68 120.88 18.98 o
4 15 0 85.01 84.98 12.80 o
4 15 1 103.79 111.00 13.87 o
4 15 2 24.41 31.73 10.31 o
4 16 2 217.26 204.88 20.12 o
5 0 0 192.71 201.22 23.22 o
5 0 4 103.34 115.10 17.20 o
5 0 6 293.79 305.20 25.92 o
5 1 1 149.41 133.54 11.54 o
5 1 3 104.00 111.30 29.69 o
5 1 4 242.55 246.44 16.45 o
5 1 8 73.03 63.57 12.39 o
5 2 0 224.61 217.63 10.69 o
5 2 1 33.94 36.46 5.88 o
5 2 2 70.20 76.72 10.77 o
5 2 4 109.91 124.74 19.96 o
5 2 5 42.68 50.47 10.45 o
5 3 0 86.71 84.11 7.24 o
5 3 1 58.73 63.73 11.47 o
5 3 2 179.50 168.78 21.05 o
5 3 3 69.75 59.15 10.25 o
5 3 4 46.13 38.42 9.52 o
5 3 8 34.02 40.39 11.65 o
5 4 5 106.37 96.23 12.06 o
5 4 7 184.93 211.86 17.43 o
5 5 0 150.40 132.04 10.31 o
5 5 1 81.72 71.10 9.01 o
5 5 2 633.35 649.19 24.28 o
5 5 4 117.27 113.06 13.78 o
5 6 0 56.11 48.28 7.69 o
5 6 1 917.17 925.99 36.85 o
5 6 2 253.27 279.26 17.28 o
5 6 3 60.18 68.04 11.17 o
5 6 4 109.39 105.25 12.70 o
5 6 5 138.15 122.00 40.24 o
5 6 6 88.14 82.36 12.65 o
5 7 0 124.56 132.61 10.65 o
5 7 1 61.23 70.61 8.77 o
5 7 3 93.39 98.93 20.89 o
5 7 5 40.09 46.59 12.97 o
5 8 0 342.24 363.56 16.86 o
5 8 1 88.32 91.13 11.40 o
5 8 4 71.06 74.88 14.54 o
5 8 6 121.99 107.35 21.78 o
5 9 1 128.60 101.71 19.00 o
5 9 3 224.65 231.40 17.22 o
5 10 0 102.43 93.38 10.13 o
5 10 1 41.58 29.05 7.49 o
5 10 2 62.43 45.80 12.69 o
5 11 0 36.28 39.08 12.06 o
5 11 2 63.41 71.68 10.39 o
5 13 0 92.11 86.29 19.84 o
6 0 2 111.40 108.04 14.06 o
6 1 0 225.57 216.21 12.77 o
6 1 3 42.15 28.38 8.99 o
6 2 1 113.00 105.68 11.77 o
6 2 2 122.52 116.59 11.92 o
6 3 0 63.03 60.56 15.54 o
6 3 1 137.37 130.48 12.45 o
6 4 1 286.41 250.78 16.10 o
6 5 1 50.43 46.01 10.08 o
6 5 2 137.42 94.51 14.83 o
