#------------------------------------------------------------------------------
#$Date: 2016-03-24 02:47:15 +0200 (Thu, 24 Mar 2016) $
#$Revision: 179596 $
#$URL: svn://www.crystallography.net/cod/cif/4/50/60/4506048.cif $
#------------------------------------------------------------------------------
#
# This file is available in the Crystallography Open Database (COD),
# http://www.crystallography.net/
#
# All data on this site have been placed in the public domain by the
# contributors.
#
data_4506048
loop_
_publ_author_name
'Jarzembska, Katarzyna N.'
'Kubsik, Marcin'
'Kami\'nski, Rados\/law'
'Wo\'zniak, Krzysztof'
'Dominiak, Paulina M.'
_publ_section_title
;
 From a Single Molecule to Molecular Crystal Architectures: Structural and
 Energetic Studies of Selected Uracil Derivatives
;
_journal_issue                   5
_journal_name_full               'Crystal Growth &amp; Design'
_journal_page_first              2508
_journal_paper_doi               10.1021/cg300129z
_journal_volume                  12
_journal_year                    2012
_chemical_formula_moiety         'C4 H4 N2 O S'
_chemical_formula_sum            'C4 H4 N2 O S'
_chemical_formula_weight         128.15
_space_group_IT_number           14
_symmetry_cell_setting           monoclinic
_symmetry_Int_Tables_number      14
_symmetry_space_group_name_Hall  '-P 2ybc'
_symmetry_space_group_name_H-M   'P 1 21/c 1'
_cell_angle_alpha                90.00
_cell_angle_beta                 91.289(9)
_cell_angle_gamma                90.00
_cell_formula_units_Z            4
_cell_length_a                   4.2588(12)
_cell_length_b                   12.419(4)
_cell_length_c                   9.844(3)
_cell_measurement_temperature    100(1)
_cell_volume                     520.5(3)
_diffrn_ambient_temperature      100(1)
_diffrn_measured_fraction_theta_full 1.000
_diffrn_measured_fraction_theta_max 0.977
_diffrn_measurement_device
'Agilent Technologies KM4CCD \k-axis diffractometer'
_diffrn_measurement_device_type  'Opal CCD detector'
_diffrn_measurement_method       \w-scans
_diffrn_radiation_monochromator  graphite
_diffrn_radiation_source         'sealed tube'
_diffrn_radiation_type           Mo-K\a
_diffrn_radiation_wavelength     0.71073
_diffrn_reflns_av_R_equivalents  0.0629
_diffrn_reflns_av_sigmaI/netI    0.0585
_diffrn_reflns_limit_h_max       5
_diffrn_reflns_limit_h_min       -5
_diffrn_reflns_limit_k_max       17
_diffrn_reflns_limit_k_min       0
_diffrn_reflns_limit_l_max       13
_diffrn_reflns_limit_l_min       0
_diffrn_reflns_number            10911
_diffrn_reflns_theta_full        25.00
_diffrn_reflns_theta_max         30.02
_diffrn_reflns_theta_min         2.64
_exptl_absorpt_coefficient_mu    0.501
_exptl_absorpt_correction_T_max  0.9610
_exptl_absorpt_correction_T_min  0.9377
_exptl_absorpt_correction_type   multi-scan
_exptl_absorpt_process_details
;
 Absorption correction done by SORTAV
 Blessing, R. H.: (1995) Acta Cryst. A51, 33-38
;
_exptl_crystal_colour            yellow
_exptl_crystal_density_diffrn    1.635
_exptl_crystal_description       unspecified
_exptl_crystal_F_000             264
_exptl_crystal_size_max          0.13
_exptl_crystal_size_mid          0.10
_exptl_crystal_size_min          0.08
_refine_diff_density_max         +0.31
_refine_diff_density_min         -0.21
_refine_ls_extinction_method     none
_refine_ls_goodness_of_fit_ref   1.156
_refine_ls_hydrogen_treatment    mixed
_refine_ls_number_constraints    0
_refine_ls_number_parameters     89
_refine_ls_number_reflns         952
_refine_ls_number_restraints     8
_refine_ls_R_factor_all          0.0280
_refine_ls_R_factor_gt           0.0280
_refine_ls_shift/su_max          0.000
_refine_ls_shift/su_mean         0.000
_refine_ls_structure_factor_coef F
_refine_ls_weighting_details
;
w=1/[\s^2^(Fo)]
;
_refine_ls_weighting_scheme      sigma
_refine_ls_wR_factor_gt          0.0277
_refine_ls_wR_factor_ref         0.0277
_reflns_number_gt                952
_reflns_number_total             1479
_reflns_threshold_expression     I>3\s(I)
_iucr_refine_instructions_details
;
TAAM refinement with MOPRO program
;
_cod_data_source_file            cg300129z_si_006.cif
_cod_data_source_block           4tU
_cod_original_sg_symbol_H-M      'P 21/c'
_cod_database_code               4506048
loop_
_symmetry_equiv_pos_as_xyz
'x, y, z'
'-x, y+1/2, -z+1/2'
'-x, -y, -z'
'x, -y-1/2, z-1/2'
loop_
_atom_site_type_symbol
_atom_site_label
_atom_site_fract_x
_atom_site_fract_y
_atom_site_fract_z
_atom_site_U_iso_or_equiv
_atom_site_adp_type
_atom_site_occupancy
_atom_site_calc_flag
_atom_site_refinement_flags_posn
_atom_site_refinement_flags_adp
S S4 0.0072(1) 0.42121(3) 0.15837(5) 0.0221(1) Uani 1 d . .
O O2 0.7151(3) 0.39126(9) 0.5550(1) 0.0224(5) Uani 1 d . .
C C4 0.2103(4) 0.3442(1) 0.2690(2) 0.0182(6) Uani 1 d . .
C C2 0.5673(4) 0.3421(1) 0.4663(2) 0.0187(6) Uani 1 d . .
N N1 0.5928(3) 0.2334(1) 0.4507(2) 0.0201(5) Uani 1 d . .
H H1 0.739(2) 0.1942(9) 0.5191(9) 0.0301(3) Uiso 1 d D U
N N3 0.3670(3) 0.3927(1) 0.3758(1) 0.0188(5) Uani 1 d . .
H H3 0.348(4) 0.4744(3) 0.392(2) 0.0281(3) Uiso 1 d D U
C C6 0.4303(4) 0.1792(1) 0.3518(2) 0.0207(7) Uani 1 d . .
H H6 0.474(4) 0.0933(3) 0.354(2) 0.0248(3) Uiso 1 d D U
C C5 0.2397(4) 0.2303(1) 0.2608(2) 0.0201(6) Uani 1 d . .
H H5 0.097(2) 0.1885(8) 0.1852(8) 0.0240(3) Uiso 1 d D U
loop_
_atom_site_aniso_label
_atom_site_aniso_U_11
_atom_site_aniso_U_22
_atom_site_aniso_U_33
_atom_site_aniso_U_12
_atom_site_aniso_U_13
_atom_site_aniso_U_23
S4 0.0260(2) 0.0180(2) 0.0217(2) 0.0013(2) -0.0102(2) -0.0004(2)
O2 0.0279(7) 0.0167(6) 0.0220(7) -0.0010(5) -0.0112(5) 0.0007(5)
C4 0.0198(9) 0.0187(8) 0.0157(9) -0.00011(66) -0.0057(7) -0.0008(7)
C2 0.0212(9) 0.0181(7) 0.0167(9) -0.0010(7) -0.0045(7) 0.0018(7)
N1 0.0225(8) 0.0173(7) 0.0203(8) 0.0007(6) -0.0047(6) 0.0011(6)
N3 0.0204(8) 0.0179(7) 0.0179(8) -0.0006(5) -0.0043(6) -0.00002(59)
C6 0.025(1) 0.0158(8) 0.0211(10) 0.0015(7) -0.0046(8) -0.00038(75)
C5 0.0229(9) 0.0174(8) 0.0197(10) 0.0010(7) -0.0058(7) -0.0024(7)
loop_
_atom_type_symbol
_atom_type_description
_atom_type_scat_dispersion_real
_atom_type_scat_dispersion_imag
_atom_type_scat_source
C C 0.0033 0.0016 'Su & Coppens, Acta. Cryst. (1997) A53, 749'
H H 0.0000 0.0000 'Su & Coppens, Acta. Cryst. (1997) A53, 749'
N N 0.0061 0.0033 'Su & Coppens, Acta. Cryst. (1997) A53, 749'
O O 0.0106 0.0060 'Su & Coppens, Acta. Cryst. (1997) A53, 749'
loop_
_geom_angle_atom_site_label_1
_geom_angle_atom_site_label_2
_geom_angle_atom_site_label_3
_geom_angle
S4 C4 N3 118.8(1)
S4 C4 C5 125.2(2)
O2 C2 N1 122.1(2)
O2 C2 N3 122.4(2)
C4 N3 C2 125.5(1)
C4 N3 H3 120.9(10)
C4 C5 C6 118.8(2)
C4 C5 H5 117.8(7)
C2 N1 C6 122.0(2)
C2 N1 H1 116.3(7)
C2 N3 H3 113.5(10)
N1 C2 N3 115.5(1)
N1 C6 C5 122.0(2)
N1 C6 H6 113.1(8)
H1 N1 C6 121.7(7)
N3 C4 C5 116.0(2)
C6 C5 H5 123.4(7)
H6 C6 C5 125.0(9)
loop_
_geom_bond_atom_site_label_1
_geom_bond_atom_site_label_2
_geom_bond_distance
S4 C4 1.675(2)
O2 C2 1.227(2)
C4 N3 1.371(2)
C4 C5 1.423(2)
C2 N1 1.363(2)
C2 N3 1.372(2)
N1 C6 1.360(2)
N3 H3 1.030(1)
C6 C5 1.353(2)
C6 H6 1.083(1)
loop_
_geom_hbond_atom_site_label_D
_geom_hbond_atom_site_label_H
_geom_hbond_atom_site_label_A
_geom_hbond_distance_DH
_geom_hbond_distance_HA
_geom_hbond_distance_DA
_geom_hbond_angle_DHA
_geom_hbond_site_symmetry_A
N3 H3 O2 1.030(1) 1.771(4) 2.792(2) 170.5(5) 3_666
loop_
_refln_index_h
_refln_index_k
_refln_index_l
_refln_F_squared_calc
_refln_F_squared_meas
_refln_F_squared_sigma
_refln_observed_status
-5 0 6 19.51 42.76 13.05 o
-5 1 1 36.35 39.33 8.52 o
-5 1 2 38.94 39.39 7.72 o
-5 1 3 88.50 95.16 9.99 o
-5 1 4 51.97 60.28 8.68 o
-5 2 3 26.54 38.36 8.00 o
-5 2 4 103.83 109.31 11.88 o
-5 3 2 61.92 75.81 8.91 o
-5 3 4 30.83 31.28 8.12 o
-5 4 1 86.13 102.52 9.48 o
-5 4 3 50.51 44.13 9.26 o
-5 4 5 58.75 86.54 11.31 o
-5 5 1 48.32 62.16 8.17 o
-5 5 2 41.53 55.31 8.68 o
-5 5 4 68.21 78.20 10.62 o
-5 6 4 121.20 151.44 13.42 o
-5 7 1 59.65 56.74 8.97 o
-5 7 4 134.09 104.23 29.87 o
-4 0 2 185.51 186.03 13.76 o
-4 0 4 228.86 257.22 18.04 o
-4 1 1 169.97 162.12 10.22 o
-4 1 2 16.44 20.26 6.36 o
-4 1 3 90.50 95.27 9.54 o
-4 1 7 225.57 246.54 15.36 o
-4 1 8 150.53 168.74 13.30 o
-4 2 1 101.46 92.53 5.99 o
-4 2 2 24.66 21.46 5.38 o
-4 2 5 95.15 105.60 10.22 o
-4 2 6 150.98 159.83 12.33 o
-4 2 7 141.88 151.38 15.93 o
-4 3 2 667.98 672.32 23.75 o
-4 3 3 59.52 59.54 7.20 o
-4 3 4 50.16 38.30 6.86 o
-4 3 6 109.67 121.30 10.62 o
-4 3 7 46.66 42.70 10.24 o
-4 4 4 20.27 31.28 6.86 o
-4 4 5 120.24 132.38 10.79 o
-4 4 8 73.68 83.40 11.48 o
-4 4 9 39.89 47.49 10.12 o
-4 5 1 104.90 110.06 10.39 o
-4 5 2 166.64 157.04 8.39 o
-4 5 3 131.81 115.76 8.11 o
-4 5 7 115.71 139.63 12.05 o
-4 5 8 24.73 36.65 9.55 o
-4 6 2 109.02 99.50 10.74 o
-4 6 3 54.73 60.68 7.08 o
-4 6 4 32.77 33.22 6.06 o
-4 6 6 82.93 96.01 10.39 o
-4 7 1 117.33 105.55 7.94 o
-4 7 2 233.75 225.31 16.10 o
-4 7 3 412.60 456.26 22.04 o
-4 8 1 57.87 66.62 7.08 o
-4 8 2 35.00 28.31 9.11 o
-4 8 4 64.18 57.88 7.14 o
-4 8 5 64.52 66.33 11.20 o
-4 8 6 45.50 37.56 8.12 o
-4 8 7 49.25 33.96 9.84 o
-4 9 2 273.85 276.80 18.67 o
-4 9 3 67.92 57.88 9.48 o
-4 9 4 93.70 77.69 7.71 o
-4 10 1 384.98 393.13 22.95 o
-4 10 5 71.05 66.62 11.03 o
-4 11 1 104.65 100.07 9.99 o
-4 12 3 132.21 112.68 13.31 o
-3 0 2 59.23 51.83 5.54 o
-3 0 4 80.88 79.35 9.08 o
-3 0 6 1542.21 1638.34 60.11 o
-3 1 2 107.19 92.30 5.37 o
-3 1 3 338.34 349.06 12.96 o
-3 1 4 196.00 183.46 8.96 o
-3 1 6 36.47 24.72 7.50 o
-3 1 8 35.76 35.96 9.27 o
-3 1 9 85.22 103.32 9.59 o
-3 2 1 333.47 317.38 10.50 o
-3 2 2 104.51 92.19 6.05 o
-3 2 3 101.89 101.84 5.88 o
-3 2 4 203.14 210.75 9.65 o
-3 2 5 1215.28 1252.97 38.82 o
-3 2 9 22.33 30.14 6.29 o
-3 2 10 96.30 99.55 10.74 o
-3 3 1 148.03 133.40 7.88 o
-3 3 2 232.45 231.64 8.85 o
-3 3 3 1.82 22.21 4.46 o
-3 3 4 130.82 133.00 8.28 o
-3 3 6 70.78 123.47 7.36 o
-3 3 7 87.90 88.88 8.96 o
-3 3 8 211.70 251.74 15.70 o
-3 4 1 824.33 803.33 22.89 o
-3 4 4 75.65 68.96 5.77 o
-3 4 5 199.69 191.23 9.76 o
-3 4 6 106.21 112.97 11.53 o
-3 4 7 68.44 78.38 9.42 o
-3 4 9 42.31 48.98 8.57 o
-3 4 11 71.20 72.44 10.00 o
-3 5 2 92.14 89.45 5.25 o
-3 5 3 230.57 214.80 9.76 o
-3 5 4 153.53 146.25 8.62 o
-3 5 5 71.96 71.41 5.54 o
-3 5 6 107.54 101.32 7.02 o
-3 5 7 48.38 47.38 6.28 o
-3 5 8 38.59 35.51 11.34 o
-3 5 10 57.64 56.46 9.14 o
-3 6 4 120.06 123.98 10.05 o
-3 6 5 63.02 54.86 5.42 o
-3 6 6 124.86 131.63 11.99 o
-3 6 10 189.79 230.84 17.64 o
-3 7 1 422.21 442.68 14.27 o
-3 7 2 15.41 17.18 4.29 o
-3 7 3 270.98 259.33 12.96 o
-3 7 5 123.64 110.51 6.91 o
-3 7 7 152.11 140.31 9.65 o
-3 8 1 965.80 960.14 40.25 o
-3 8 2 126.67 120.33 6.62 o
-3 8 4 63.50 53.03 5.37 o
-3 8 5 61.74 60.11 5.60 o
-3 9 2 242.47 250.71 10.16 o
-3 9 4 122.25 121.64 7.59 o
-3 9 6 23.48 23.06 6.87 o
-3 9 8 84.27 78.20 12.23 o
-3 9 9 54.44 36.59 10.99 o
-3 10 2 35.12 26.09 5.20 o
-3 10 3 45.87 38.47 5.54 o
-3 10 5 164.29 147.33 17.13 o
-3 10 7 73.18 45.78 10.29 o
-3 10 9 29.60 34.42 11.40 o
-3 11 2 282.77 284.84 17.13 o
-3 11 3 85.28 95.44 7.31 o
-3 11 6 74.96 48.18 8.00 o
-3 12 4 44.66 40.13 6.80 o
-3 12 6 151.43 115.02 22.63 o
-3 13 1 247.97 249.11 12.33 o
-3 13 3 97.30 92.59 8.45 o
-2 0 2 481.26 416.76 22.89 o
-2 0 4 2361.17 2269.05 56.40 o
-2 0 6 286.10 277.08 13.64 o
-2 0 8 18.10 28.77 9.62 o
-2 0 10 108.48 88.02 20.18 o
-2 1 1 742.21 711.60 25.17 o
-2 1 2 195.65 181.58 7.02 o
-2 1 3 1678.09 1582.23 40.42 o
-2 1 4 2486.34 2375.23 57.48 o
-2 1 5 19.56 17.01 3.31 o
-2 1 7 203.72 205.90 12.10 o
-2 1 9 140.56 147.73 6.91 o
-2 2 1 490.42 472.93 19.47 o
-2 2 2 307.85 288.21 8.96 o
-2 2 3 812.94 783.64 22.03 o
-2 2 4 178.68 171.02 7.88 o
-2 2 6 164.17 171.31 7.94 o
-2 2 7 185.96 186.15 10.39 o
-2 2 8 66.18 64.50 5.82 o
-2 2 11 105.82 110.28 15.25 o
-2 3 1 77.72 79.52 3.43 o
-2 3 2 806.66 793.68 19.75 o
-2 3 3 128.71 122.56 4.74 o
-2 3 4 872.16 850.88 21.86 o
-2 3 6 251.86 251.85 9.36 o
-2 3 8 422.26 455.12 15.07 o
-2 3 9 30.02 42.98 7.60 o
-2 3 10 42.83 34.08 7.20 o
-2 4 1 487.40 471.68 13.13 o
-2 4 2 7.67 8.56 2.63 o
-2 4 3 381.05 361.34 12.16 o
-2 4 5 502.21 502.16 14.90 o
-2 4 6 73.85 75.06 4.85 o
-2 4 7 14.92 17.12 4.81 o
-2 4 8 85.84 94.87 6.39 o
-2 4 9 18.73 34.08 9.67 o
-2 4 11 81.27 86.99 9.31 o
-2 5 1 174.68 161.37 5.42 o
-2 5 2 341.57 337.87 10.28 o
-2 5 3 512.46 497.59 16.84 o
-2 5 5 103.17 103.32 6.45 o
-2 5 6 36.10 30.37 5.83 o
-2 5 7 75.99 81.00 7.37 o
-2 5 8 254.48 275.88 14.04 o
-2 5 9 230.25 262.58 17.87 o
-2 6 2 158.76 154.64 6.34 o
-2 6 3 725.55 721.13 23.86 o
-2 6 4 195.41 190.77 10.22 o
-2 6 5 103.34 102.69 8.22 o
-2 6 6 263.33 266.41 18.50 o
-2 7 1 174.12 178.33 6.85 o
-2 7 3 318.21 318.75 10.05 o
-2 7 4 243.37 245.23 9.19 o
-2 7 5 66.62 69.81 5.14 o
-2 7 6 84.10 82.60 5.65 o
-2 7 7 167.64 180.44 10.22 o
-2 7 8 180.80 184.78 15.42 o
-2 7 9 349.81 361.16 27.23 o
-2 8 1 183.19 181.81 6.85 o
-2 8 2 35.99 33.28 3.60 o
-2 8 3 16.41 15.70 3.37 o
-2 8 4 129.28 115.54 6.68 o
-2 8 5 62.21 63.99 5.31 o
-2 8 6 133.50 123.87 7.48 o
-2 8 10 139.73 107.26 35.34 o
-2 9 1 46.14 44.75 4.91 o
-2 9 2 351.73 350.38 11.25 o
-2 9 3 19.41 20.04 3.54 o
-2 9 4 56.92 50.58 5.08 o
-2 9 5 64.60 64.16 5.48 o
-2 9 6 19.38 28.26 5.37 o
-2 9 7 45.13 34.54 7.49 o
-2 9 8 228.53 221.20 17.24 o
-2 9 9 161.73 148.93 20.33 o
-2 9 10 72.83 63.48 14.69 o
-2 10 1 273.45 268.12 10.79 o
-2 10 2 17.44 18.89 3.66 o
-2 10 3 45.33 49.32 4.23 o
-2 10 5 310.38 286.50 14.27 o
-2 10 7 163.63 127.07 18.51 o
-2 10 8 66.27 40.70 7.71 o
-2 11 1 146.48 150.13 6.62 o
-2 11 2 182.44 182.89 8.68 o
-2 11 3 145.98 146.65 8.96 o
-2 11 4 61.12 61.19 7.71 o
-2 11 7 123.77 113.37 10.11 o
-2 12 3 26.50 21.06 4.97 o
-2 12 4 234.07 241.75 18.61 o
-2 12 5 101.74 101.95 11.14 o
-2 12 6 84.02 88.19 10.34 o
-2 13 1 51.24 53.03 4.91 o
-2 13 2 19.35 18.78 4.63 o
-2 13 3 211.67 194.48 10.45 o
-2 13 4 72.41 72.72 7.88 o
-2 13 7 27.80 25.23 7.61 o
-2 14 1 44.11 36.82 5.71 o
-2 14 2 26.80 18.89 5.78 o
-2 14 4 38.83 35.79 9.73 o
-2 15 2 217.63 225.36 17.70 o
-2 15 4 39.01 29.85 9.10 o
-2 16 1 77.54 90.82 14.34 o
-1 0 2 7708.30 7502.54 176.79 o
-1 0 4 89.30 93.50 10.39 o
-1 0 6 393.40 376.92 11.70 o
-1 0 8 42.43 48.29 4.51 o
-1 0 10 130.35 139.00 12.73 o
-1 1 1 3737.49 3638.53 87.17 o
-1 1 2 13625.04 13371.42 299.52 o
-1 1 3 170.59 165.08 6.39 o
-1 1 5 142.29 138.43 6.79 o
-1 1 6 19.96 19.01 2.91 o
-1 1 7 206.33 215.09 9.48 o
-1 1 9 126.02 131.58 5.82 o
-1 2 1 456.60 449.41 12.04 o
-1 2 3 445.34 404.15 13.53 o
-1 2 4 820.74 781.41 22.49 o
-1 2 5 804.77 782.72 19.92 o
-1 2 6 208.92 204.87 7.76 o
-1 2 7 276.45 277.08 11.47 o
-1 2 8 135.73 137.74 5.82 o
-1 2 9 333.05 334.68 11.59 o
-1 2 10 123.46 132.38 6.96 o
-1 2 11 346.93 376.69 21.47 o
-1 3 1 120.92 121.47 3.88 o
-1 3 2 1177.48 1145.09 28.54 o
-1 3 3 459.30 426.18 11.42 o
-1 3 4 310.08 305.74 8.85 o
-1 3 5 94.23 99.55 4.57 o
-1 3 6 925.40 918.35 26.49 o
-1 3 7 54.85 59.42 4.40 o
-1 3 8 155.49 163.77 7.48 o
-1 3 10 71.91 55.03 6.22 o
-1 4 1 254.21 250.88 7.48 o
-1 4 2 1074.12 1044.91 25.57 o
-1 4 3 37.91 35.73 2.91 o
-1 4 4 228.21 223.59 7.25 o
-1 4 5 371.45 353.91 11.36 o
-1 4 7 656.55 642.36 17.70 o
-1 4 8 77.11 77.40 6.39 o
-1 4 9 48.79 44.18 9.09 o
-1 4 10 49.16 39.10 6.40 o
-1 4 11 61.38 57.94 8.45 o
-1 4 12 93.78 93.73 10.34 o
-1 5 1 3288.57 3317.89 80.55 o
-1 5 2 123.26 128.72 6.17 o
-1 5 3 415.82 420.47 11.07 o
-1 5 4 154.99 154.24 6.56 o
-1 5 5 21.69 18.89 3.43 o
-1 5 7 270.62 273.83 14.33 o
-1 5 8 44.59 37.16 10.76 o
-1 5 9 57.83 62.91 10.23 o
-1 5 10 50.17 38.93 11.85 o
-1 5 11 46.57 63.65 8.91 o
-1 5 12 57.66 57.14 9.48 o
-1 6 1 519.50 505.81 14.21 o
-1 6 2 289.43 311.90 11.36 o
-1 6 3 815.85 794.60 20.61 o
-1 6 4 709.91 707.03 20.84 o
-1 6 5 36.69 37.79 3.88 o
-1 6 6 836.59 832.67 27.29 o
-1 6 9 14.34 30.65 7.15 o
-1 6 10 188.66 182.38 30.97 o
-1 6 12 46.67 27.23 8.88 o
-1 7 1 84.96 87.85 4.51 o
-1 7 2 400.48 394.33 11.76 o
-1 7 3 336.51 333.94 12.22 o
-1 7 6 37.86 39.39 5.20 o
-1 7 7 572.17 595.49 22.32 o
-1 7 8 105.05 110.11 7.42 o
-1 7 9 110.95 112.91 9.65 o
-1 7 10 31.57 25.23 8.02 o
-1 8 1 245.90 247.06 8.11 o
-1 8 2 29.31 30.20 3.20 o
-1 8 3 141.87 152.18 6.74 o
-1 8 4 35.89 37.16 3.71 o
-1 8 5 66.11 67.59 4.97 o
-1 8 6 106.57 103.03 6.22 o
-1 8 7 819.89 802.19 35.22 o
-1 8 8 25.25 29.63 7.49 o
-1 9 1 37.11 38.42 3.54 o
-1 9 2 288.66 281.19 10.10 o
-1 9 3 315.04 305.05 9.70 o
-1 9 4 299.65 295.52 9.76 o
-1 9 5 46.30 48.86 4.80 o
-1 9 6 334.44 331.82 12.96 o
-1 9 7 132.97 119.53 9.59 o
-1 9 8 243.66 238.26 18.44 o
-1 9 9 62.96 50.92 16.09 o
-1 10 1 379.25 367.90 11.82 o
-1 10 2 25.13 24.83 3.60 o
-1 10 4 49.49 50.40 4.40 o
-1 10 5 671.61 681.40 23.35 o
-1 10 8 135.27 97.78 16.57 o
-1 10 9 99.24 105.26 15.94 o
-1 11 1 177.26 179.01 8.62 o
-1 11 2 299.84 291.98 10.16 o
-1 11 3 116.21 120.84 7.82 o
-1 11 4 125.23 139.17 8.91 o
-1 11 5 24.86 23.46 5.03 o
-1 11 6 81.99 76.55 7.99 o
-1 11 8 305.86 273.26 39.98 o
-1 12 1 120.50 123.19 6.05 o
-1 12 2 69.04 68.84 4.80 o
-1 12 3 48.19 46.87 5.08 o
-1 12 4 45.06 46.92 6.23 o
-1 12 6 137.24 135.57 12.85 o
-1 12 7 28.76 24.32 7.04 o
-1 13 1 33.80 37.50 4.34 o
-1 13 2 130.51 126.78 7.71 o
-1 13 3 385.91 370.30 18.55 o
-1 13 7 180.23 164.74 20.39 o
-1 14 1 106.30 90.82 6.97 o
-1 14 4 82.17 87.91 8.17 o
-1 14 5 46.24 40.24 8.92 o
-1 14 6 69.82 49.09 7.48 o
-1 15 2 104.83 95.84 8.16 o
-1 15 3 134.78 125.18 12.16 o
-1 15 4 99.45 83.91 11.82 o
-1 16 1 104.78 102.01 8.79 o
-1 16 2 24.71 30.08 5.89 o
0 0 2 61.26 69.24 3.43 o
0 0 4 205.29 198.88 7.42 o
0 0 6 238.94 235.13 9.82 o
0 0 10 1439.88 1510.59 58.57 o
0 1 1 165.78 174.22 4.68 o
0 1 2 535.18 536.07 12.44 o
0 1 3 2508.39 2564.28 58.23 o
0 1 4 128.89 136.77 5.02 o
0 1 5 183.55 181.24 6.51 o
0 1 6 86.00 91.28 4.80 o
0 1 7 652.35 644.98 18.50 o
0 1 8 37.06 34.82 3.25 o
0 1 9 314.76 314.19 13.93 o
0 1 10 377.93 382.00 18.38 o
0 1 11 40.97 36.19 7.20 o
0 1 13 165.57 167.82 15.36 o
0 2 0 1022.62 1105.41 24.95 o
0 2 1 2228.48 2400.23 53.89 o
0 2 2 20.26 24.37 2.06 o
0 2 3 69.41 73.81 3.94 o
0 2 4 1561.52 1529.20 35.68 o
0 2 5 1012.12 1011.85 24.66 o
0 2 6 459.17 457.75 12.22 o
0 2 9 194.73 201.22 10.05 o
0 2 12 35.18 27.51 9.05 o
0 2 13 45.71 36.36 10.13 o
0 3 1 387.12 383.66 9.30 o
0 3 2 2546.91 2728.63 61.88 o
0 3 3 123.75 128.32 4.40 o
0 3 5 37.18 36.70 2.57 o
0 3 6 422.25 402.55 11.82 o
0 3 7 74.83 70.16 6.57 o
0 3 8 761.17 738.60 21.64 o
0 3 10 188.33 205.90 17.93 o
0 3 12 232.47 225.93 16.96 o
0 4 0 2906.50 3028.54 69.19 o
0 4 1 2515.52 2680.51 60.74 o
0 4 2 28.70 30.08 2.11 o
0 4 3 91.31 88.76 3.71 o
0 4 4 581.91 579.51 17.70 o
0 4 5 2424.93 2426.37 56.97 o
0 4 6 171.73 170.91 12.62 o
0 4 7 81.74 82.14 6.28 o
0 4 9 105.37 116.05 9.14 o
0 4 10 47.19 57.54 7.54 o
0 4 11 266.78 293.86 16.67 o
0 5 1 630.32 640.59 15.87 o
0 5 2 678.76 688.36 16.84 o
0 5 3 603.25 619.35 15.98 o
0 5 4 793.98 807.55 21.01 o
0 5 5 235.81 238.72 9.08 o
0 5 6 115.63 125.87 6.17 o
0 5 7 199.33 205.10 9.42 o
0 5 8 234.80 247.85 15.36 o
0 5 9 72.56 73.18 6.68 o
0 5 11 79.77 82.03 8.85 o
0 5 13 62.49 83.23 27.61 o
0 6 0 2097.82 2197.81 52.57 o
0 6 1 325.88 322.98 9.93 o
0 6 3 50.01 62.11 3.25 o
0 6 4 540.05 535.78 15.47 o
0 6 6 166.65 167.48 10.28 o
0 6 7 90.01 95.79 5.31 o
0 6 8 39.16 43.84 5.03 o
0 6 9 60.18 50.35 6.34 o
0 6 10 232.66 231.99 15.53 o
0 6 12 50.44 43.27 13.11 o
0 7 1 1339.01 1356.75 32.82 o
0 7 2 142.84 151.56 6.45 o
0 7 3 470.54 466.83 13.07 o
0 7 5 197.46 191.97 12.27 o
0 7 6 55.52 61.59 4.80 o
0 7 7 80.54 80.20 5.14 o
0 7 8 144.77 140.77 12.50 o
0 7 9 183.35 185.29 10.85 o
0 7 10 28.64 23.40 7.33 o
0 7 11 90.79 89.39 12.51 o
0 8 1 8.16 11.07 2.63 o
0 8 2 300.76 300.54 8.79 o
0 8 3 17.54 18.38 3.43 o
0 8 4 306.79 312.42 13.13 o
0 8 5 2455.24 2426.03 79.63 o
0 8 6 644.84 635.51 19.87 o
0 9 1 74.26 81.23 3.88 o
0 9 2 613.33 614.44 16.50 o
0 9 3 256.03 253.16 12.16 o
0 9 4 100.08 108.91 8.56 o
0 9 5 129.46 127.81 14.68 o
0 9 6 42.21 49.38 4.85 o
0 9 7 165.81 162.40 13.82 o
0 9 8 228.77 216.12 18.04 o
0 9 9 47.17 40.59 7.66 o
0 10 0 54.75 57.20 4.68 o
0 10 1 581.93 575.45 15.47 o
0 10 4 377.60 366.19 17.75 o
0 10 6 50.44 47.49 7.31 o
0 10 7 202.15 202.47 17.76 o
0 10 9 66.84 63.82 9.71 o
0 10 11 153.32 163.31 32.29 o
0 11 1 6.44 8.85 2.92 o
0 11 2 125.05 128.89 5.99 o
0 11 3 430.08 414.37 14.79 o
0 11 4 414.49 406.72 14.79 o
0 11 5 17.17 23.58 5.26 o
0 11 6 475.82 458.66 18.04 o
0 11 7 259.29 249.62 13.64 o
0 11 8 47.17 44.52 6.57 o
0 11 9 51.87 40.30 12.02 o
0 12 0 690.37 706.35 28.20 o
0 12 1 31.83 27.17 3.48 o
0 12 2 78.31 85.40 4.91 o
0 12 3 6.12 13.41 4.06 o
0 12 4 53.14 50.40 5.94 o
0 12 5 22.51 25.74 5.55 o
0 12 6 231.43 223.71 12.62 o
0 12 7 101.13 101.95 9.99 o
0 12 10 156.24 96.81 24.37 o
0 13 1 282.63 268.92 10.22 o
0 13 3 245.20 246.77 10.33 o
0 13 7 42.59 36.48 5.77 o
0 13 9 159.84 132.49 26.41 o
0 14 1 62.20 52.46 7.94 o
0 14 2 93.85 93.90 6.51 o
0 14 5 90.96 91.28 6.91 o
0 14 6 69.17 60.79 9.54 o
0 14 7 38.94 25.29 7.50 o
0 15 1 37.83 28.03 5.54 o
0 15 2 195.26 193.28 11.08 o
0 15 3 30.15 29.68 5.37 o
0 15 4 196.06 188.37 9.93 o
0 15 6 194.22 190.54 14.04 o
0 16 0 60.32 58.74 10.74 o
0 16 1 263.17 245.97 18.73 o
0 16 4 42.60 47.84 8.74 o
0 17 2 130.18 157.66 25.88 o
1 0 0 329.45 315.73 8.96 o
1 0 2 380.25 388.56 9.99 o
1 0 4 208.59 206.18 8.68 o
1 0 6 570.75 565.18 25.00 o
1 0 8 107.46 120.39 7.76 o
1 0 12 90.98 98.98 14.17 o
1 1 0 280.35 292.49 7.71 o
1 1 1 275.70 284.84 8.11 o
1 1 2 12.02 14.61 1.77 o
1 1 3 2264.93 2334.75 55.43 o
1 1 4 12.81 14.33 1.94 o
1 1 5 34.15 37.10 2.80 o
1 1 6 38.31 42.70 3.25 o
1 1 7 415.38 415.45 12.56 o
1 1 8 1958.05 1951.90 51.55 o
1 1 9 304.74 310.93 14.79 o
1 1 13 96.00 92.30 10.68 o
1 2 0 2611.61 2688.33 60.85 o
1 2 1 3079.28 3181.58 71.87 o
1 2 2 228.01 223.59 6.17 o
1 2 3 318.50 326.06 8.39 o
1 2 4 91.42 98.98 3.48 o
1 2 5 723.87 743.68 19.01 o
1 2 6 463.55 471.33 12.96 o
1 2 7 114.56 121.13 5.08 o
1 2 9 92.39 88.25 6.91 o
1 2 10 356.66 341.41 18.50 o
1 2 11 475.80 458.61 20.89 o
1 2 12 48.51 50.58 8.51 o
1 3 0 58.98 66.96 2.57 o
1 3 1 44.88 45.89 2.28 o
1 3 2 1922.44 1933.80 46.35 o
1 3 3 372.53 348.72 10.56 o
1 3 4 3286.10 3296.32 75.81 o
1 3 5 152.33 150.01 5.59 o
1 3 6 201.34 192.77 7.36 o
1 3 8 582.31 566.89 18.61 o
1 3 9 16.21 19.52 5.44 o
1 3 12 73.00 75.01 8.22 o
1 4 0 23.88 31.57 2.11 o
1 4 1 532.21 540.69 13.07 o
1 4 2 442.22 442.96 11.07 o
1 4 3 99.78 105.77 4.11 o
1 4 4 331.23 328.23 8.96 o
1 4 5 148.96 150.30 5.88 o
1 4 6 132.14 136.54 6.91 o
1 4 7 110.10 111.60 6.45 o
1 4 8 19.50 15.81 4.58 o
1 4 10 30.30 23.58 5.89 o
1 4 11 138.81 137.40 9.88 o
1 5 0 9.40 8.79 1.89 o
1 5 1 168.00 171.48 5.65 o
1 5 2 394.06 386.34 10.73 o
1 5 3 2559.61 2607.33 62.62 o
1 5 4 39.07 46.52 3.54 o
1 5 5 10.13 13.30 2.86 o
1 5 7 304.80 294.55 11.70 o
1 5 8 66.34 73.52 5.82 o
1 5 9 439.38 425.78 16.84 o
1 5 10 79.09 82.54 8.51 o
1 5 12 26.98 28.08 7.78 o
1 5 13 126.89 109.43 27.45 o
1 6 0 927.11 941.58 22.55 o
1 6 2 104.79 119.87 4.40 o
1 6 3 54.91 58.40 3.08 o
1 6 4 119.92 125.58 6.34 o
1 6 5 50.83 58.28 3.65 o
1 6 6 1017.02 1011.57 28.43 o
1 6 7 107.52 113.02 6.85 o
1 6 9 284.06 269.72 14.67 o
1 6 10 208.48 192.26 12.62 o
1 6 12 205.67 179.98 15.87 o
1 7 0 117.36 122.84 4.85 o
1 7 1 225.06 223.02 7.14 o
1 7 3 2485.52 2545.62 63.13 o
1 7 4 60.56 67.64 3.82 o
1 7 5 103.58 110.80 4.80 o
1 7 7 57.29 62.16 5.71 o
1 7 8 174.68 178.90 9.65 o
1 7 9 80.71 80.37 15.09 o
1 8 0 606.93 603.08 16.33 o
1 8 1 171.55 167.14 6.39 o
1 8 2 57.85 63.76 4.34 o
1 8 3 104.90 120.10 7.82 o
1 8 4 170.15 182.78 7.59 o
1 8 6 75.86 85.85 8.57 o
1 8 7 84.35 88.08 6.62 o
1 8 9 68.55 61.88 6.51 o
1 8 10 93.52 96.87 11.25 o
1 8 11 139.88 117.65 11.42 o
1 9 1 25.91 31.74 3.48 o
1 9 2 950.66 914.30 26.14 o
1 9 3 1054.20 1057.81 28.14 o
1 9 4 1044.02 1037.71 27.97 o
1 9 5 35.92 42.64 4.45 o
1 9 6 47.43 54.57 8.74 o
1 9 7 88.46 83.34 8.91 o
1 9 8 157.96 140.48 12.96 o
1 9 9 49.83 48.12 10.63 o
1 9 10 52.36 44.01 8.23 o
1 10 0 18.49 25.34 3.54 o
1 10 1 724.69 712.85 20.38 o
1 10 2 220.01 218.57 8.45 o
1 10 3 4.52 10.62 3.21 o
1 10 4 231.94 241.23 11.30 o
1 10 5 1159.41 1156.16 35.79 o
1 10 6 38.98 38.87 6.74 o
1 10 7 154.90 162.23 16.10 o
1 11 0 34.25 38.13 3.94 o
1 11 1 55.27 55.88 4.68 o
1 11 2 128.24 142.99 8.22 o
1 11 3 21.66 20.04 4.00 o
1 11 7 65.42 67.53 9.48 o
1 11 8 205.59 212.98 12.73 o
1 11 9 107.50 95.16 9.02 o
1 12 0 198.73 200.76 8.16 o
1 12 2 189.46 199.68 9.08 o
1 12 4 304.17 308.76 11.82 o
1 12 5 21.44 31.28 4.86 o
1 12 6 109.32 110.57 10.28 o
1 12 7 39.23 31.80 5.83 o
1 12 9 60.02 57.83 11.83 o
1 13 1 94.64 95.27 6.45 o
1 13 3 158.61 162.46 7.94 o
1 13 4 44.23 53.49 5.42 o
1 13 5 107.21 106.23 7.02 o
1 13 7 156.39 146.08 9.48 o
1 13 8 103.60 84.83 16.00 o
1 14 0 417.40 415.74 16.38 o
1 14 1 64.16 60.57 5.71 o
1 14 2 213.53 216.80 12.22 o
1 14 4 315.82 327.37 14.33 o
1 14 5 49.52 52.63 5.88 o
1 14 6 165.99 189.17 14.96 o
1 14 7 40.26 41.84 9.49 o
1 15 2 39.22 42.64 5.77 o
1 16 1 82.41 80.72 7.31 o
1 16 2 20.16 21.58 6.01 o
1 16 4 24.97 26.03 7.67 o
1 17 2 179.53 158.23 19.02 o
2 0 0 316.41 299.80 10.85 o
2 0 2 412.40 394.10 11.76 o
2 0 4 612.55 612.67 16.90 o
2 0 6 4572.37 4448.82 165.89 o
2 0 8 40.63 36.08 10.42 o
2 0 10 112.02 130.72 16.85 o
2 0 12 103.66 105.38 15.08 o
2 1 0 301.85 301.97 9.93 o
2 1 1 1042.69 1032.86 26.72 o
2 1 2 284.12 277.59 8.51 o
2 1 3 421.40 417.45 10.79 o
2 1 4 39.70 42.47 2.40 o
2 1 5 22.61 23.40 2.51 o
2 1 6 231.87 218.29 8.22 o
2 1 7 52.74 62.05 5.20 o
2 1 8 206.94 210.98 9.25 o
2 1 9 428.65 420.47 20.04 o
2 1 10 35.16 39.04 11.68 o
2 1 12 60.04 43.38 8.69 o
2 2 0 356.29 335.13 10.16 o
2 2 1 179.79 182.61 7.65 o
2 2 2 1548.91 1563.16 37.33 o
2 2 3 112.16 117.99 4.05 o
2 2 4 213.27 205.84 6.39 o
2 2 5 342.28 350.89 9.88 o
2 2 7 854.60 834.33 25.46 o
2 2 9 139.80 146.48 10.16 o
2 2 10 105.12 100.41 9.02 o
2 2 11 100.70 88.19 9.54 o
2 2 12 149.20 146.02 12.62 o
2 3 0 192.74 187.46 6.22 o
2 3 2 419.44 420.13 11.47 o
2 3 4 487.99 480.75 13.87 o
2 3 5 7.84 8.85 2.63 o
2 3 6 134.14 143.79 5.37 o
2 3 7 49.54 54.46 7.65 o
2 3 8 355.42 325.09 14.39 o
2 3 9 20.45 23.06 6.24 o
2 3 10 84.60 74.49 10.05 o
2 4 0 18.81 18.15 2.40 o
2 4 1 1654.50 1625.44 40.76 o
2 4 2 1331.24 1313.71 33.57 o
2 4 3 45.52 47.04 3.65 o
2 4 4 257.62 254.70 8.62 o
2 4 5 539.21 537.15 14.84 o
2 4 6 250.74 233.64 8.62 o
2 4 7 513.24 501.36 17.64 o
2 4 9 97.48 90.25 7.77 o
2 4 11 452.50 408.89 22.72 o
2 4 12 131.64 125.58 21.71 o
2 5 0 32.22 30.08 2.91 o
2 5 1 1086.26 1054.15 26.54 o
2 5 2 535.92 529.27 14.84 o
2 5 3 27.18 27.57 3.37 o
2 5 4 366.37 344.67 10.73 o
2 5 7 14.79 16.44 4.81 o
2 5 8 271.75 259.04 13.36 o
2 5 9 114.23 121.93 9.59 o
2 5 10 72.54 75.01 7.94 o
2 6 0 271.79 265.15 8.56 o
2 6 1 123.02 137.80 5.54 o
2 6 2 412.50 418.93 12.50 o
2 6 3 12.38 10.85 3.26 o
2 6 4 285.88 274.46 9.42 o
2 6 5 11.04 14.10 3.72 o
2 6 6 456.63 432.86 17.30 o
2 6 7 225.22 225.93 10.62 o
2 6 10 174.34 163.77 19.13 o
2 7 1 448.37 448.44 13.59 o
2 7 2 106.21 111.31 5.99 o
2 7 3 263.20 245.23 8.79 o
2 7 4 157.59 162.40 6.62 o
2 7 5 192.91 194.82 8.22 o
2 7 6 103.42 106.46 6.05 o
2 7 7 452.45 422.76 16.67 o
2 7 9 278.19 265.09 14.61 o
2 7 10 37.42 29.91 7.55 o
2 8 0 759.19 736.54 20.26 o
2 8 1 1522.20 1534.28 39.50 o
2 8 2 116.18 132.43 10.33 o
2 8 3 60.82 64.62 4.45 o
2 8 4 61.28 62.39 5.60 o
2 8 5 63.39 71.07 6.11 o
2 8 6 75.60 82.31 6.11 o
2 8 7 28.66 30.71 5.49 o
2 8 8 28.65 23.46 6.01 o
2 8 9 67.63 50.18 14.13 o
2 8 10 137.56 142.54 12.10 o
2 8 11 512.34 431.09 55.40 o
2 9 0 70.47 77.92 4.51 o
2 9 1 440.26 419.90 16.67 o
2 9 2 239.84 242.43 9.70 o
2 9 3 799.17 796.19 21.98 o
2 9 4 169.08 169.31 7.76 o
2 9 6 16.46 14.84 4.93 o
2 9 8 292.85 303.74 15.87 o
2 10 2 753.45 762.06 21.75 o
2 10 3 68.58 80.20 5.54 o
2 10 4 50.72 55.54 4.97 o
2 10 5 385.99 374.81 15.58 o
2 10 7 188.62 196.59 11.76 o
2 11 0 124.77 125.13 8.16 o
2 11 1 42.44 38.07 4.97 o
2 11 2 237.45 248.37 12.10 o
2 11 3 339.59 327.77 12.84 o
2 11 4 109.39 122.90 6.79 o
2 11 7 22.92 25.23 6.64 o
2 11 8 108.76 106.23 9.42 o
2 12 0 396.26 385.82 13.53 o
2 12 1 96.48 93.16 6.85 o
2 12 4 57.57 67.02 6.22 o
2 12 5 82.04 90.82 7.31 o
2 12 6 468.77 460.32 24.83 o
2 13 3 323.33 336.22 14.10 o
2 13 5 28.38 25.17 5.89 o
2 13 7 123.96 131.46 13.65 o
2 14 0 141.52 150.81 11.30 o
2 14 1 83.80 78.26 7.02 o
2 14 2 70.77 71.70 7.08 o
2 14 4 30.29 37.33 5.83 o
2 14 5 72.83 78.43 8.39 o
2 15 0 59.97 72.84 7.77 o
2 15 2 155.16 162.80 12.73 o
2 15 3 100.75 95.27 7.76 o
2 15 4 141.23 154.41 15.02 o
2 16 2 60.66 73.41 12.74 o
3 0 0 956.29 963.73 29.40 o
3 0 2 40.92 38.13 5.25 o
3 0 4 1732.62 1734.70 48.69 o
3 0 6 36.03 47.78 5.48 o
3 0 8 62.77 50.12 13.33 o
3 0 10 302.88 295.06 24.49 o
3 1 0 67.29 63.70 4.34 o
3 1 1 37.82 40.19 3.88 o
3 1 2 160.99 154.12 6.45 o
3 1 3 309.57 307.56 9.76 o
3 1 4 879.06 878.79 23.92 o
3 1 5 505.53 498.79 20.72 o
3 1 6 219.16 224.11 9.93 o
3 1 7 305.69 296.60 12.27 o
3 1 8 69.41 74.55 6.39 o
3 1 9 123.99 120.33 10.85 o
3 2 0 441.35 434.97 13.07 o
3 2 1 287.38 275.37 9.53 o
3 2 2 40.90 45.15 3.71 o
3 2 5 614.37 603.60 17.41 o
3 2 6 457.07 444.85 14.10 o
3 2 7 155.20 167.02 8.28 o
3 2 9 70.04 67.02 7.37 o
3 3 0 644.33 635.45 19.24 o
3 3 1 34.37 28.14 3.37 o
3 3 2 664.99 645.38 17.81 o
3 3 3 51.20 56.74 4.45 o
3 3 4 118.35 125.87 5.82 o
3 3 5 50.62 50.52 3.94 o
3 3 6 15.90 14.56 3.95 o
3 3 8 344.04 340.56 16.44 o
3 3 9 99.70 98.01 9.71 o
3 3 10 478.55 481.32 23.29 o
3 4 0 210.98 213.32 7.93 o
3 4 1 195.55 193.68 10.73 o
3 4 4 221.15 224.28 9.42 o
3 4 5 382.11 391.42 12.44 o
3 4 7 46.19 43.73 5.60 o
3 4 9 65.70 67.81 11.88 o
3 5 0 27.08 31.51 4.17 o
3 5 2 89.62 90.53 5.59 o
3 5 3 287.19 289.64 9.88 o
3 5 4 92.89 89.62 5.59 o
3 5 5 588.68 562.15 18.04 o
3 5 6 22.52 20.44 4.57 o
3 5 7 229.88 238.61 11.25 o
3 5 8 139.30 141.68 13.19 o
3 5 9 215.64 231.47 17.24 o
3 6 0 1167.12 1158.22 33.62 o
3 6 1 60.88 64.56 6.22 o
3 6 2 220.80 219.54 8.56 o
3 6 3 21.56 32.71 4.05 o
3 6 4 227.00 235.64 9.65 o
3 6 6 257.55 252.93 10.85 o
3 6 7 81.05 86.59 7.42 o
3 6 8 39.17 37.67 8.69 o
3 6 10 93.28 77.23 13.94 o
3 7 2 65.15 60.28 4.51 o
3 7 3 349.25 330.51 11.82 o
3 7 5 39.51 40.13 4.74 o
3 7 7 140.89 142.08 9.31 o
3 7 9 507.23 502.39 25.52 o
3 8 0 43.77 43.38 5.71 o
3 8 2 16.91 15.70 3.77 o
3 8 3 26.96 24.03 4.40 o
3 8 5 269.28 268.46 11.13 o
3 8 6 311.55 308.76 13.02 o
3 8 7 64.79 65.02 7.94 o
3 8 9 77.55 86.54 9.54 o
3 9 0 240.03 232.10 12.79 o
3 9 1 399.16 409.46 20.89 o
3 9 2 246.44 237.35 11.13 o
3 9 3 55.22 48.01 4.80 o
3 9 4 100.10 96.53 7.65 o
3 9 6 19.74 27.86 5.60 o
3 9 8 284.01 290.10 17.30 o
3 10 0 176.52 180.61 14.39 o
3 10 1 638.00 632.48 21.12 o
3 10 5 174.00 178.90 10.16 o
3 10 7 138.58 152.58 10.39 o
3 11 0 159.62 163.26 7.94 o
3 11 1 68.54 77.92 7.02 o
3 11 2 64.23 71.01 6.34 o
3 11 3 67.99 75.64 6.51 o
3 11 4 332.87 339.13 14.90 o
3 11 5 88.69 107.43 8.34 o
3 11 7 60.40 69.18 15.49 o
3 12 0 84.55 88.02 6.22 o
3 12 2 42.11 42.30 5.94 o
3 12 4 116.00 136.26 12.73 o
3 12 6 77.78 81.06 15.09 o
3 13 1 76.72 87.28 10.74 o
3 13 3 237.53 254.82 14.56 o
3 13 4 26.55 29.28 7.09 o
3 14 1 21.63 22.03 6.81 o
3 14 2 100.57 103.15 10.91 o
3 15 0 81.43 74.27 14.92 o
4 0 0 364.80 344.10 28.26 o
4 0 2 235.45 249.17 12.79 o
4 0 4 317.92 289.24 14.61 o
4 0 6 425.03 443.93 27.75 o
4 1 1 21.56 18.55 5.61 o
4 1 2 613.60 625.29 19.52 o
4 1 3 847.02 833.87 25.06 o
4 1 7 100.02 101.84 9.08 o
4 1 8 102.87 99.78 15.65 o
4 1 9 122.39 110.68 9.82 o
4 2 0 68.34 70.21 9.42 o
4 2 1 91.83 92.53 6.11 o
4 2 2 14.06 12.90 4.30 o
4 2 3 39.94 40.30 7.37 o
4 2 4 207.89 206.41 11.25 o
4 2 5 185.09 201.85 11.99 o
4 2 6 79.31 74.78 6.68 o
4 2 8 151.40 150.13 13.53 o
4 3 2 223.52 220.51 9.19 o
4 3 3 64.57 62.28 5.14 o
4 3 4 358.07 351.80 12.96 o
4 3 8 363.09 359.17 18.38 o
4 4 0 44.32 38.65 6.00 o
4 4 1 310.06 316.75 11.93 o
4 4 4 15.01 15.13 4.64 o
4 4 5 197.18 201.27 9.31 o
4 4 6 56.09 61.08 6.91 o
4 4 7 225.38 245.06 12.56 o
4 4 8 74.33 81.34 9.14 o
4 5 0 52.51 48.86 4.97 o
4 5 1 48.87 47.04 4.68 o
4 5 2 21.64 23.18 4.23 o
4 5 3 495.26 486.52 17.07 o
4 5 4 84.68 92.19 6.22 o
4 5 5 17.83 20.66 5.43 o
4 5 7 145.87 167.54 10.22 o
4 5 8 69.63 69.93 10.63 o
4 6 0 198.98 187.92 10.28 o
4 6 2 22.70 19.98 4.23 o
4 6 3 129.70 122.90 7.02 o
4 6 4 48.35 41.67 7.37 o
4 6 6 226.01 231.47 12.05 o
4 6 7 49.43 48.24 6.85 o
4 6 8 31.36 28.77 7.49 o
4 7 2 36.27 34.82 5.20 o
4 7 3 123.27 118.62 7.08 o
4 7 5 94.95 109.26 7.02 o
4 7 7 183.39 197.96 11.82 o
4 7 8 89.44 79.23 11.65 o
4 8 0 90.08 89.79 7.02 o
4 8 1 109.84 116.05 7.31 o
4 8 2 96.33 102.24 7.36 o
4 8 3 72.49 74.44 6.28 o
4 8 4 116.87 130.21 8.22 o
4 8 5 136.34 137.57 9.65 o
4 8 6 110.71 115.36 8.91 o
4 8 7 195.97 217.66 17.64 o
4 9 2 51.51 44.70 7.54 o
4 9 4 149.90 162.40 9.08 o
4 9 5 27.85 34.31 5.94 o
4 9 6 34.19 26.37 8.48 o
4 10 1 107.53 98.18 10.22 o
4 10 2 22.87 22.32 6.47 o
4 10 5 100.43 103.55 9.08 o
4 11 2 136.53 150.30 13.08 o
4 11 3 131.64 133.06 9.13 o
4 11 4 44.77 42.76 9.03 o
4 12 0 94.90 94.64 12.57 o
4 12 1 27.79 28.37 7.38 o
4 12 2 97.92 113.94 19.65 o
5 0 0 517.67 559.01 28.72 o
5 0 2 144.37 145.96 20.45 o
5 0 4 69.14 64.62 10.40 o
5 0 6 192.18 185.01 14.79 o
5 1 1 55.23 51.49 11.38 o
5 1 2 135.34 122.96 10.11 o
5 1 3 63.87 60.79 7.14 o
5 1 4 63.07 60.62 7.20 o
5 1 6 78.93 78.43 7.14 o
5 2 1 506.41 538.18 23.06 o
5 2 2 60.82 54.74 6.40 o
5 2 5 27.86 30.08 8.53 o
5 2 6 134.49 136.20 16.45 o
5 2 7 122.21 108.17 12.51 o
5 3 2 120.73 110.06 10.16 o
5 3 3 12.41 21.92 6.47 o
5 3 4 131.36 139.34 11.53 o
5 3 5 22.90 24.55 7.73 o
5 4 1 100.80 95.33 7.88 o
5 4 2 100.72 105.60 9.88 o
5 4 5 206.69 205.67 20.67 o
5 5 0 23.72 22.60 7.16 o
5 5 2 79.96 80.83 7.14 o
5 5 3 23.44 24.60 6.23 o
5 6 0 56.60 56.11 6.85 o
5 6 1 39.86 36.70 5.71 o
5 6 2 58.97 54.57 6.80 o
5 6 3 29.99 42.58 7.71 o
5 7 1 85.59 86.14 7.82 o
5 7 3 192.88 171.13 23.07 o
5 8 0 38.87 39.56 7.20 o
5 9 2 108.43 96.30 15.88 o
