#------------------------------------------------------------------------------
#$Date: 2016-03-24 02:55:48 +0200 (Thu, 24 Mar 2016) $
#$Revision: 179604 $
#$URL: svn://www.crystallography.net/cod/cif/4/50/68/4506831.cif $
#------------------------------------------------------------------------------
#
# This file is available in the Crystallography Open Database (COD),
# http://www.crystallography.net/
#
# All data on this site have been placed in the public domain by the
# contributors.
#
data_4506831
loop_
_publ_author_name
'Lekin, Kristina'
'Leitch, Alicea A.'
'Tse, John S.'
'Bao, Xuezhao'
'Secco, Richard A.'
'Desgreniers, Serge'
'Ohishi, Yasuo'
'Oakley, Richard T.'
_publ_section_title
;
 A Pressure Induced Structural Dichotomy in Isostructural
 Bis-1,2,3-thiaselenazolyl Radical Dimers
;
_journal_issue                   9
_journal_name_full               'Crystal Growth &amp; Design'
_journal_page_first              4676
_journal_paper_doi               10.1021/cg3009255
_journal_volume                  12
_journal_year                    2012
_chemical_formula_moiety         'C6 H3 F N3 S2 Se2'
_chemical_formula_sum            'C6 H3 F N3 S2 Se2'
_chemical_formula_weight         358.15
_chemical_name_common            FBPTSMe
_chemical_name_systematic        ' ?'
_space_group_IT_number           14
_symmetry_cell_setting           monoclinic
_symmetry_space_group_name_Hall  '-P 2ybc'
_symmetry_space_group_name_H-M   'P 1 21/c 1'
_cell_angle_alpha                90.0
_cell_angle_beta                 82.973(6)
_cell_angle_gamma                90.0
_cell_formula_units_Z            4
_cell_length_a                   3.82021(12)
_cell_length_b                   13.82056(34)
_cell_length_c                   15.0366(14)
_cell_measurement_temperature    293(2)
_cell_volume                     787.93(8)
_computing_structure_refinement  GSAS
_diffrn_ambient_temperature      293(2)
_diffrn_radiation_polarisn_ratio 0.95
_diffrn_radiation_probe          x-ray
_diffrn_radiation_type           synchrotron
_diffrn_radiation_wavelength     0.51446
_diffrn_source                   synchrotron
_diffrn_source_type              'SPring-8 BL10XU'
_exptl_absorpt_correction_T_max  1.00000
_exptl_absorpt_correction_T_min  1.00000
_exptl_absorpt_process_details
;   GSAS Absorption/surface roughness correction: function number 0
 No correction is applied.
;
_exptl_crystal_colour            black
_exptl_crystal_density_diffrn    3.019
_pd_calc_method                  'Rietveld Refinement'
_pd_instr_location               ' ?'
_pd_meas_2theta_range_inc        0.01
_pd_meas_2theta_range_max        25.61
_pd_meas_2theta_range_min        1.0
_pd_meas_number_of_points        2462
_pd_phase_name
'from C:/gsas/MyWork/FBPTSME_004/rto_fbptsme_004_isociffed.cif'
_pd_proc_2theta_range_inc        0.01
_pd_proc_2theta_range_max        25.61003
_pd_proc_2theta_range_min        1.00003
_pd_proc_info_datetime           2011-12-07T11:22:20
_pd_proc_info_excluded_regions   ' ?'
_pd_proc_ls_background_function
;   GSAS Background function number 1 with  8 terms.
 Shifted Chebyshev function of 1st kind
      1:    15734.3     2:    9368.92     3:   -85.9577     4:   -99.0625    
      5:   -119.662     6:   -97.4899     7:   -13.4385     8:  -0.899287    
;
_pd_proc_ls_peak_cutoff          0.00100
_pd_proc_ls_profile_function
;
 CW Profile function number 2 with  18 terms
 Profile coefficients for Simpson's rule integration of pseudovoigt function
 C.J. Howard (1982). J. Appl. Cryst.,15,615-620.
 P. Thompson, D.E. Cox & J.B. Hastings (1987). J. Appl. Cryst.,20,79-83.
 Peak tails are ignored  where the intensity is below 0.0010 times the peak
   Aniso. broadening axis   0.0   0.0   1.0
;
_pd_proc_ls_prof_R_factor        0.0100
_pd_proc_ls_prof_wR_expected     0.0076
_pd_proc_ls_prof_wR_factor       0.0142
_pd_proc_number_of_points        2462
_pd_spec_mounting                ' ?'
_refine_ls_goodness_of_fit_all   1.88
_refine_ls_matrix_type           full
_refine_ls_number_parameters     1
_refine_ls_number_restraints     0
_refine_ls_R_Fsqd_factor         0.10865
_refine_ls_shift/su_max          0.00
_refine_ls_shift/su_mean         0.00
_reflns_d_resolution_high        1.771
_reflns_d_resolution_low         7.462
_reflns_limit_h_max              2
_reflns_limit_h_min              0
_reflns_limit_k_max              8
_reflns_limit_k_min              0
_reflns_limit_l_max              8
_reflns_limit_l_min              -7
_reflns_number_total             144
_cod_data_source_file            cg3009255_si_003.cif
_cod_data_source_block           FBPTSMe_4.38GPa
_cod_depositor_comments
;
The following automatic conversions were performed:

'_geom_bond_publ_flag' value 'N' changed to 'n' according to
/home/saulius/struct/CIF-dictionaries/cif_core.dic dictionary named
'cif_core.dic' version 2.4.2 from 2011-04-26 (20
times).

'_geom_angle_publ_flag' value 'N' changed to 'n' according
to /home/saulius/struct/CIF-dictionaries/cif_core.dic dictionary
named 'cif_core.dic' version 2.4.2 from 2011-04-26 (29 times).

Automatic conversion script
Id: cif_fix_values 1891 2012-01-12 08:04:46Z andrius 
;
_cod_original_cell_volume        787.93(7)
_cod_original_sg_symbol_H-M      'P 21/c'
_cod_database_code               4506831
#BEGIN Tags that were not found in dictionaries:
_gsas_exptl_extinct_corr_t_min   1.00000
_gsas_exptl_extinct_corr_t_max   1.00000
#END Tags that were not found in dictionaries
loop_
_symmetry_equiv_pos_site_id
_symmetry_equiv_pos_as_xyz
1 +x,+y,+z
2 -x,+y+1/2,-z+1/2
-1 -x,-y,-z
-2 +x,-y+1/2,+z+1/2
loop_
_atom_site_type_symbol
_atom_site_label
_atom_site_fract_x
_atom_site_fract_y
_atom_site_fract_z
_atom_site_occupancy
_atom_site_thermal_displace_type
_atom_site_U_iso_or_equiv
_atom_site_symmetry_multiplicity
Se Se1 -0.42157 -0.02439 0.38818 1.0 Uiso 0.025 4
Se Se2 0.56809 0.46221 0.42487 1.0 Uiso 0.025 4
S S1 -0.11544 0.03682 0.26527 1.0 Uiso 0.025 4
S S2 0.6766 0.35743 0.26387 1.0 Uiso 0.025 4
N N1 -0.30497 0.07656 0.4567 1.0 Uiso 0.025 4
N N2 -0.0057 0.2232 0.46003 1.0 Uiso 0.025 4
N N3 0.28493 0.36771 0.47121 1.0 Uiso 0.025 4
C C1 0.02292 0.13658 0.3204 1.0 Uiso 0.025 4
C C2 -0.10514 0.14301 0.41474 1.0 Uiso 0.025 4
C C3 0.22261 0.29591 0.41986 1.0 Uiso 0.025 4
C C4 0.36007 0.28311 0.32512 1.0 Uiso 0.025 4
C C5 0.24153 0.20526 0.27865 1.0 Uiso 0.025 4
C C6 -0.14291 0.23559 0.55495 1.0 Uiso 0.025 4
H H6A -0.04719 0.29358 0.57744 1.0 Uiso 0.025 4
H H6B -0.07616 0.18107 0.58861 1.0 Uiso 0.025 4
H H6C -0.39538 0.24027 0.56084 1.0 Uiso 0.025 4
F F1 0.34536 0.19719 0.18998 1.0 Uiso 0.025 4
loop_
_atom_type_symbol
_atom_type_number_in_cell
_atom_type_scat_dispersion_real
_atom_type_scat_dispersion_imag
_atom_type_scat_Cromer_Mann_a1
_atom_type_scat_Cromer_Mann_a2
_atom_type_scat_Cromer_Mann_a3
_atom_type_scat_Cromer_Mann_a4
_atom_type_scat_Cromer_Mann_b1
_atom_type_scat_Cromer_Mann_b2
_atom_type_scat_Cromer_Mann_b3
_atom_type_scat_Cromer_Mann_b4
_atom_type_scat_Cromer_Mann_c
_atom_type_scat_source
Se 8.0 0.000 0.000 17.0006 2.40980 5.81960 0.27260 3.97310 15.2372 4.35430
43.8163 2.84090 International_Tables_Vol_C
S 8.0 0.000 0.000 6.90530 1.46790 5.20340 22.2151 1.43790 0.25360 1.58630
56.1720 0.86690 International_Tables_Vol_C
N 12.0 0.000 0.000 12.2126 0.00570 3.13220 9.89330 2.01250 28.9975 1.16630
0.58260 -11.529 International_Tables_Vol_C
C 24.0 0.000 0.000 2.31000 20.8439 1.02000 10.2075 1.58860 0.56870 0.86500
51.6512 0.21560 International_Tables_Vol_C
H 12.0 0.000 0.000 0.49300 10.5109 0.32291 26.1257 0.14019 3.14236 0.04081
57.7997 0.00304 International_Tables_Vol_C
F 4.0 0.000 0.000 3.53920 10.2825 2.64120 4.29440 1.51700 0.26150 1.02430
26.1476 0.27760 International_Tables_Vol_C
loop_
_geom_angle_atom_site_label_1
_geom_angle_atom_site_label_2
_geom_angle_atom_site_label_3
_geom_angle
_geom_angle_site_symmetry_1
_geom_angle_site_symmetry_3
_geom_angle_publ_flag
S1 Se1 N1 92.205 1_555 1_555 n
Se2 Se2 N3 84.437 -1_666 1_555 n
Se1 S1 C1 93.751 1_555 1_555 n
Se1 N1 C2 115.730 1_555 1_555 n
C2 N2 C3 123.525 1_555 1_555 n
C2 N2 C6 119.1188 1_555 1_555 n
C3 N2 C6 117.3549 1_555 1_555 n
Se2 N3 C3 118.337 1_555 1_555 n
S1 C1 C2 115.7196 1_555 1_555 n
S1 C1 C5 122.746 1_555 1_555 n
C2 C1 C5 121.5325 1_555 1_555 n
N1 C2 N2 120.449 1_555 1_555 n
N1 C2 C1 122.5723 1_555 1_555 n
N2 C2 C1 116.9780 1_555 1_555 n
N2 C3 N3 115.923 1_555 1_555 n
N2 C3 C4 117.193 1_555 1_555 n
N3 C3 C4 126.8806 1_555 1_555 n
S2 C4 C3 125.411 1_555 1_555 n
S2 C4 C5 115.763 1_555 1_555 n
C3 C4 C5 118.8087 1_555 1_555 n
C1 C5 C4 121.739 1_555 1_555 n
C1 C5 F1 119.114 1_555 1_555 n
C4 C5 F1 119.1477 1_555 1_555 n
N2 C6 H6C 109.424 1_555 1_555 n
N2 C6 H6A 109.4942 1_555 1_555 n
N2 C6 H6B 109.555 1_555 1_555 n
H6C C6 H6A 109.4600 1_555 1_555 n
H6C C6 H6B 109.4598 1_555 1_555 n
H6A C6 H6B 109.434 1_555 1_555 n
loop_
_geom_bond_atom_site_label_1
_geom_bond_atom_site_label_2
_geom_bond_distance
_geom_bond_site_symmetry_2
_geom_bond_publ_flag
Se1 S1 2.22939 1_555 n
Se1 N1 1.82175 1_555 n
Se2 S2 2.80786 1_555 n
Se2 N3 1.78241 1_555 n
S1 C1 1.72473 1_555 n
S2 C4 1.75868 1_555 n
N1 C2 1.30630 1_555 n
N2 C2 1.37827 1_555 n
N2 C3 1.41650 1_555 n
N2 C6 1.46906 1_555 n
N3 C3 1.29712 1_555 n
C1 C2 1.44559 1_555 n
C1 C5 1.36538 1_555 n
C3 Se2 2.65600 1_555 n
C3 C4 1.46745 1_555 n
C4 C5 1.38866 1_555 n
C5 F1 1.34835 1_555 n
C6 H6C 0.959880 1_555 n
C6 H6A 0.959510 1_555 n
C6 H6B 0.959440 1_555 n
loop_
_pd_meas_counts_total
_pd_proc_ls_weight
_pd_proc_intensity_bkg_calc
_pd_calc_intensity_total
1119.0 0.0 3871.09399 .
1122.0 0.0 3876.00024 .
1132.0 0.0 3880.95923 .
1136.0 0.0 3885.97266 .
1141.0 0.0 3891.03955 .
1134.0 0.0 3896.15942 .
1140.0 0.0 3901.33228 .
1145.0 0.0 3906.55811 .
1142.0 0.0 3911.83643 .
1152.0 0.0 3917.16772 .
1156.0 0.0 3922.55054 .
1151.0 0.0 3927.98633 .
1154.0 0.0 3933.47290 .
1151.0 0.0 3939.01245 .
1152.0 0.0 3944.60278 .
1158.0 0.0 3950.24414 .
1164.0 0.0 3955.93701 .
1167.0 0.0 3961.68115 .
1179.0 0.0 3967.47559 .
1185.0 0.0 3973.32104 .
1188.0 0.0 3979.21631 .
1187.0 0.0 3985.16260 .
1193.0 0.0 3991.15894 .
1197.0 0.0 3997.20435 .
1199.0 0.0 4003.29956 .
1202.0 0.0 4009.44458 .
1204.0 0.0 4015.63818 .
1207.0 0.0 4021.88159 .
1213.0 0.0 4028.17358 .
1211.0 0.0 4034.51440 .
1213.0 0.0 4040.90332 .
1220.0 0.0 4047.34204 .
1227.0 0.0 4053.82715 .
1233.0 0.0 4060.36084 .
1226.0 0.0 4066.94312 .
1234.0 0.0 4073.57251 .
1239.0 0.0 4080.24854 .
1244.0 0.0 4086.97290 .
1253.0 0.0 4093.74438 .
1256.0 0.0 4100.56250 .
1257.0 0.0 4107.42676 .
1264.0 0.0 4114.33887 .
1265.0 0.0 4121.29639 .
1263.0 0.0 4128.29980 .
1275.0 0.0 4135.34912 .
1277.0 0.0 4142.44531 .
1284.0 0.0 4149.58691 .
1288.0 0.0 4156.77344 .
1284.0 0.0 4164.00586 .
1296.0 0.0 4171.28271 .
1300.0 0.0 4178.60547 .
1298.0 0.0 4185.97266 .
1301.0 0.0 4193.38379 .
1313.0 0.0 4200.83984 .
1323.0 0.0 4208.33984 .
1327.0 0.0 4215.88428 .
1335.0 0.0 4223.47266 .
1351.0 0.0 4231.10596 .
1353.0 0.0 4238.78125 .
1350.0 0.0 4246.50000 .
1347.0 0.0 4254.26221 .
1355.0 0.0 4262.06689 .
1365.0 0.0 4269.91504 .
1373.0 0.0 4277.80518 .
1381.0 0.0 4285.73877 .
1392.0 0.0 4293.71436 .
1397.0 0.0 4301.73145 .
1398.0 0.0 4309.79150 .
1397.0 0.0 4317.89307 .
1404.0 0.0 4326.03613 .
1416.0 0.0 4334.22070 .
1422.0 0.0 4342.44629 .
1432.0 0.0 4350.71338 .
1437.0 0.0 4359.02148 .
1434.0 0.0 4367.37012 .
1430.0 0.0 4375.75928 .
1444.0 0.0 4384.18994 .
1454.0 0.0 4392.66016 .
1458.0 0.0 4401.17041 .
1465.0 0.0 4409.72070 .
1479.0 0.0 4418.31152 .
1488.0 0.0 4426.94043 .
1497.0 0.0 4435.60986 .
1500.0 0.0 4444.31787 .
1496.0 0.0 4453.06543 .
1503.0 0.0 4461.85254 .
1513.0 0.0 4470.67822 .
1528.0 0.0 4479.54199 .
1536.0 0.0 4488.44482 .
1542.0 0.0 4497.38574 .
1557.0 0.0 4506.36523 .
1558.0 0.0 4515.38232 .
1557.0 0.0 4524.43701 .
1563.0 0.0 4533.52979 .
1572.0 0.0 4542.65967 .
1574.0 0.0 4551.82764 .
1584.0 0.0 4561.03174 .
1590.0 0.0 4570.27393 .
1600.0 0.0 4579.55225 .
1612.0 0.0 4588.86768 .
1623.0 0.0 4598.21924 .
1629.0 0.0 4607.60840 .
1635.0 0.0 4617.03223 .
1641.0 0.0 4626.49219 .
1654.0 0.0 4635.98926 .
1663.0 0.0 4645.52148 .
1666.0 0.0 4655.08936 .
1669.0 0.0 4664.69238 .
1683.0 0.0 4674.33008 .
1698.0 0.0 4684.00391 .
1707.0 0.0 4693.71289 .
1716.0 0.0 4703.45605 .
1728.0 0.0 4713.23438 .
1729.0 0.0 4723.04639 .
1745.0 0.0 4732.89404 .
1756.0 0.0 4742.77441 .
1771.0 0.0 4752.68945 .
1778.0 0.0 4762.63916 .
1783.0 0.0 4772.62158 .
1801.0 0.0 4782.63770 .
1809.0 0.0 4792.68750 .
1814.0 0.0 4802.77100 .
1828.0 0.0 4812.88770 .
1834.0 0.0 4823.03613 .
1840.0 0.0 4833.21826 .
1852.0 0.0 4843.43311 .
1871.0 0.0 4853.68018 .
1881.0 0.0 4863.95898 .
1894.0 0.0 4874.27100 .
1896.0 0.0 4884.61475 .
1910.0 0.0 4894.99023 .
1933.0 0.0 4905.39746 .
1941.0 0.0 4915.83594 .
1947.0 0.0 4926.30713 .
1963.0 0.0 4936.80859 .
1985.0 0.0 4947.34180 .
1997.0 0.0 4957.90576 .
2009.0 0.0 4968.50098 .
2031.0 0.0 4979.12695 .
2051.0 0.0 4989.78320 .
2081.0 0.0 5000.46973 .
2096.0 0.0 5011.18701 .
2128.0 0.0 5021.93359 .
2157.0 0.0 5032.71094 .
2196.0 0.0 5043.51807 .
2229.0 0.0 5054.35352 .
2260.0 0.0 5065.21973 .
2300.0 0.0 5076.11572 .
2346.0 0.0 5087.04004 .
2389.0 0.0 5097.99463 .
2432.0 0.0 5108.97803 .
2487.0 0.0 5119.98926 .
2540.0 0.0 5131.02979 .
2591.0 0.0 5142.09912 .
2642.0 0.0 5153.19629 .
2688.0 0.0 5164.32227 .
2720.0 0.0 5175.47559 .
2767.0 0.0 5186.65723 .
2823.0 0.0 5197.86670 .
2880.0 0.0 5209.10449 .
2936.0 0.0 5220.37012 .
2975.0 0.0 5231.66260 .
3019.0 0.0 5242.98193 .
3055.0 0.0 5254.32861 .
3101.0 0.0 5265.70215 .
3151.0 0.0 5277.10303 .
3209.0 0.0 5288.53076 .
3257.0 0.0 5299.98438 .
3317.0 0.0 5311.46533 .
3373.0 0.0 5322.97314 .
3430.0 0.0 5334.50586 .
3481.0 0.0 5346.06445 .
3551.0 0.0 5357.65039 .
3616.0 0.0 5369.26074 .
3680.0 0.0 5380.89795 .
3740.0 0.0 5392.55957 .
3798.0 0.0 5404.24707 .
3875.0 0.0 5415.95996 .
3954.0 0.0 5427.69775 .
4020.0 0.0 5439.45947 .
4091.0 0.0 5451.24805 .
4147.0 0.0 5463.06055 .
4203.0 0.0 5474.89697 .
4264.0 0.0 5486.75879 .
4324.0 0.0 5498.64404 .
4385.0 0.0 5510.55420 .
4441.0 0.0 5522.48779 .
4487.0 0.0 5534.44531 .
4529.0 0.0 5546.42773 .
4587.0 0.0 5558.43311 .
4637.0 0.0 5570.46143 .
4677.0 0.0 5582.51416 .
4716.0 0.0 5594.58887 .
4754.0 0.0 5606.68848 .
4813.0 0.0 5618.80908 .
4859.0 0.0 5630.95410 .
4889.0 0.0 5643.12158 .
4930.0 0.0 5655.31152 .
4978.0 0.0 5667.52441 .
5006.0 0.0 5679.75928 .
5037.0 0.0 5692.01563 .
5068.0 0.0 5704.29492 .
5107.0 0.0 5716.59668 .
5154.0 0.0 5728.91943 .
5197.0 0.0 5741.26465 .
5229.0 0.0 5753.63086 .
5270.0 0.0 5766.01953 .
5303.0 0.0 5778.42822 .
5332.0 0.0 5790.85938 .
5363.0 0.0 5803.31055 .
5403.0 0.0 5815.78320 .
5444.0 0.0 5828.27734 .
5463.0 0.0 5840.79150 .
5477.0 0.0 5853.32813 .
5491.0 0.0 5865.88281 .
5521.0 0.0 5878.45898 .
5541.0 0.0 5891.05518 .
5566.0 0.0 5903.67188 .
5585.0 0.0 5916.30859 .
5590.0 0.0 5928.96436 .
5622.0 0.0 5941.64063 .
5654.0 0.0 5954.33740 .
5681.0 0.0 5967.05176 .
5701.0 0.0 5979.78613 .
5721.0 0.0 5992.54102 .
5752.0 0.0 6005.31299 .
5777.0 0.0 6018.10596 .
5795.0 0.0 6030.91748 .
5824.0 0.0 6043.74756 .
5836.0 0.0 6056.59619 .
5863.0 0.0 6069.46387 .
5882.0 0.0 6082.34912 .
5900.0 0.0 6095.25342 .
5923.0 0.0 6108.17627 .
5952.0 0.0 6121.11670 .
5968.0 0.0 6134.07568 .
5986.0 0.0 6147.05273 .
6013.0 0.0 6160.04639 .
6039.0 0.0 6173.05859 .
6054.0 0.0 6186.08838 .
6058.0 0.0 6199.13525 .
6083.0 0.0 6212.20020 .
6101.0 0.0 6225.28174 .
6134.0 0.0 6238.38086 .
6154.0 0.0 6251.49707 .
6176.0 0.0 6264.62891 .
6185.0 0.0 6277.77881 .
6198.0 0.0 6290.94434 .
6218.0 0.0 6304.12744 .
6239.0 0.0 6317.32617 .
6266.0 0.0 6330.54150 .
6287.0 0.0001591 6343.77344 6344.13428
6311.0 0.0001585 6357.02148 6357.37500
6318.0 0.0001583 6370.28467 6370.63135
6330.0 0.0001580 6383.56494 6383.90527
6342.0 0.0001577 6396.85986 6397.19482
6359.0 0.0001573 6410.17188 6435.18262
6375.0 0.0001569 6423.49756 6449.21631
6404.0 0.0001562 6436.83984 6466.42676
6428.0 0.0001556 6450.19775 6480.62891
6451.0 0.0001550 6463.57080 6494.88379
6476.0 0.0001544 6476.95850 6509.19336
6496.0 0.0001539 6490.36182 6523.56152
6513.0 0.0001535 6503.77979 6537.99023
6537.0 0.0001530 6517.21240 6552.48242
6553.0 0.0001526 6530.65967 6567.04004
6580.0 0.0001520 6544.12256 6581.66895
6598.0 0.0001516 6557.59814 6596.36865
6628.0 0.0001509 6571.08984 6611.14746
6629.0 0.0001509 6584.59473 6626.00684
6640.0 0.0001506 6598.11426 6640.95166
6660.0 0.0001502 6611.64795 6655.98828
6680.0 0.0001497 6625.19531 6671.12012
6710.0 0.0001490 6638.75684 6686.35645
6729.0 0.0001486 6652.33203 6701.70166
6751.0 0.0001481 6665.92139 6717.16455
6763.0 0.0001479 6679.52344 6732.75146
6784.0 0.0001474 6693.13965 6748.47510
6812.0 0.0001468 6706.76855 6764.34180
6838.0 0.0001462 6720.41211 6780.36768
6844.0 0.0001461 6734.06738 6798.00439
6855.0 0.0001459 6747.73682 6814.27979
6869.0 0.0001456 6761.41748 6830.89697
6888.0 0.0001452 6775.11230 6847.74023
6909.0 0.0001447 6788.82031 6864.83105
6920.0 0.0001445 6802.54004 6882.19775
6939.0 0.0001441 6816.27246 6899.87891
6966.0 0.0001436 6830.01807 6917.92578
6988.0 0.0001431 6843.77539 6936.42236
7004.0 0.0001428 6857.54492 6955.52148
7031.0 0.0001422 6871.32715 6975.49854
7057.0 0.0001417 6885.12158 6996.76758
7081.0 0.0001412 6898.92725 7019.78662
7131.0 0.0001402 6912.74561 7044.74414
7167.0 0.0001395 6926.57471 7070.89404
7187.0 0.0001391 6940.41650 7095.58984
7205.0 0.0001388 6954.26953 7116.12305
7203.0 0.0001388 6968.13379 7134.26367
7195.0 0.0001390 6982.00928 7153.34717
7210.0 0.0001387 6995.89746 7174.84082
7226.0 0.0001384 7009.79590 7198.96973
7243.0 0.0001381 7023.70557 7225.56006
7255.0 0.0001378 7037.62598 7254.44336
7265.0 0.0001376 7051.55762 7285.62158
7287.0 0.0001372 7065.50000 7319.28711
7312.0 0.0001368 7079.45313 7355.79639
7321.0 0.0001366 7093.41748 7395.64258
7341.0 0.0001362 7107.39258 7439.47070
7372.0 0.0001356 7121.37695 7488.10303
7395.0 0.0001352 7135.37207 7542.60596
7412.0 0.0001349 7149.37744 7604.36279
7440.0 0.0001344 7163.39355 7675.19434
7478.0 0.0001337 7177.41895 7757.53271
7525.0 0.0001329 7191.45605 7854.68262
7592.0 0.0001317 7205.50049 7971.21436
7660.0 0.0001305 7219.55713 8113.59619
7775.0 0.0001286 7233.62158 8291.19043
7917.0 0.0001263 7247.69727 8518.01855
8158.0 0.0001226 7261.78174 8816.37207
8531.0 0.0001172 7275.87695 9226.90723
9178.0 0.0001090 7289.97949 9841.90430
10347.0 0.0000966 7304.09326 10900.92676
12531.0 0.0000798 7318.21484 12975.84961
16591.0 0.0000603 7332.34619 17104.76563
24042.0 0.0000416 7346.48633 24442.07813
36045.0 0.00002774 7360.63574 35028.46094
47971.0 0.00002085 7374.79492 45524.04297
48839.0 0.00002048 7388.96143 47905.77734
38586.0 0.00002592 7403.13770 39609.99219
27602.0 0.0000362 7417.32080 28408.80273
19960.0 0.0000501 7431.51563 19704.86133
15300.0 0.0000654 7445.71533 14459.50977
12592.0 0.0000794 7459.92578 11759.17773
10981.0 0.0000911 7474.14307 10434.04395
10011.0 0.0000999 7488.37012 9729.43164
9402.0 0.0001064 7502.60400 9300.47070
8995.0 0.0001112 7516.84668 9013.97949
8733.0 0.0001145 7531.09668 8816.32422
8557.0 0.0001169 7545.35547 8681.46582
8451.0 0.0001183 7559.61963 8595.17871
8378.0 0.0001194 7573.89404 8550.67188
8358.0 0.0001196 7588.17529 8548.23047
8370.0 0.0001195 7602.46436 8597.77832
8448.0 0.0001184 7616.76025 8723.64746
8620.0 0.0001160 7631.06445 8968.21484
8967.0 0.0001115 7645.37451 9387.12598
9618.0 0.0001040 7659.69336 10027.70020
10734.0 0.0000932 7674.01758 10878.95801
12242.0 0.0000817 7688.35107 11760.85742
13078.0 0.0000765 7702.68896 12212.53711
12417.0 0.0000805 7717.03711 11862.22656
11024.0 0.0000907 7731.39014 10999.27051
9881.0 0.0001012 7745.74902 10113.07129
9177.0 0.0001090 7760.11621 9422.20410
8784.0 0.0001138 7774.48828 8952.88672
8563.0 0.0001168 7788.86816 8660.97461
8424.0 0.0001187 7803.25439 8488.32813
8340.0 0.0001199 7817.64697 8387.53418
8299.0 0.0001205 7832.04541 8328.45605
8263.0 0.0001210 7846.45020 8294.96094
8251.0 0.0001212 7860.86133 8279.43066
8244.0 0.0001213 7875.27783 8278.94922
8263.0 0.0001210 7889.70117 8293.91309
8297.0 0.0001205 7904.12988 8328.90723
8356.0 0.0001197 7918.56494 8395.82617
8443.0 0.0001184 7933.00586 8517.96680
8577.0 0.0001166 7947.45264 8730.51270
8816.0 0.0001134 7961.90381 9070.08691
9211.0 0.0001086 7976.36133 9546.32715
9709.0 0.0001030 7990.82422 10081.68066
10046.0 0.0000995 8005.29199 10422.81543
9874.0 0.0001013 8019.76563 10292.40234
9434.0 0.0001060 8034.24463 9815.13379
9058.0 0.0001104 8048.72803 9305.10156
8797.0 0.0001137 8063.21777 8911.84961
8648.0 0.0001156 8077.71191 8654.59863
8551.0 0.0001169 8092.21143 8503.67480
8488.0 0.0001178 8106.71484 8420.39355
8468.0 0.0001181 8121.22412 8374.80566
8454.0 0.0001183 8135.73682 8349.19336
8435.0 0.0001186 8150.25635 8334.64941
8422.0 0.0001187 8164.77930 8326.90723
8431.0 0.0001186 8179.30615 8323.77246
8445.0 0.0001184 8193.83887 8323.96582
8457.0 0.0001182 8208.37598 8326.64551
8461.0 0.0001182 8222.91504 8331.22852
8469.0 0.0001181 8237.46094 8337.30273
8488.0 0.0001178 8252.01172 8344.55957
8506.0 0.0001176 8266.56348 8352.76660
8509.0 0.0001175 8281.11914 8361.75293
8522.0 0.0001173 8295.68164 8371.38379
8529.0 0.0001172 8310.24707 8383.13867
8538.0 0.0001171 8324.81543 8393.79785
8552.0 0.0001169 8339.38867 8404.84766
8566.0 0.0001167 8353.96582 8416.23340
8579.0 0.0001166 8368.54688 8427.91016
8589.0 0.0001164 8383.13086 8439.83789
8601.0 0.0001163 8397.71875 8427.03223
8609.0 0.0001162 8412.31055 8440.07715
8625.0 0.0001159 8426.90430 8453.26660
8638.0 0.0001158 8441.50195 8466.58691
8644.0 0.0001157 8456.10547 8480.02539
8648.0 0.0001156 8470.70898 8493.56445
8667.0 0.0001154 8485.31836 8507.19922
8684.0 0.0001152 8499.92676 8520.91016
8689.0 0.0001151 8514.54199 8534.70215
8703.0 0.0001149 8529.15820 8548.56055
8713.0 0.0001148 8543.77930 8562.48242
8735.0 0.0001145 8558.40039 8576.45898
8754.0 0.0001142 8573.02734 8590.49023
8766.0 0.0001141 8587.65332 8604.56641
8766.0 0.0001141 8602.28418 8618.68848
8783.0 0.0001139 8616.91797 8632.85352
8798.0 0.0001137 8631.55566 8647.05957
8801.0 0.0001136 8646.19336 8661.29785
8823.0 0.0001133 8660.83496 8675.57031
8841.0 0.0001131 8675.47754 8689.87598
8861.0 0.0001129 8690.12500 8704.21191
8874.0 0.0001127 8704.77246 8718.57422
8889.0 0.0001125 8719.42285 8732.96582
8896.0 0.0001124 8734.07617 8747.38379
8911.0 0.0001122 8748.73047 8761.82520
8929.0 0.0001120 8763.38574 8776.29004
8926.0 0.0001120 8778.04492 8790.77930
8937.0 0.0001119 8792.70605 8805.29297
8953.0 0.0001117 8807.36914 8819.82813
8982.0 0.0001113 8822.03320 8834.38379
8999.0 0.0001111 8836.69922 8848.96094
9008.0 0.0001110 8851.36621 8863.55859
9016.0 0.0001109 8866.03516 8878.17969
9027.0 0.0001108 8880.70801 8892.82324
9041.0 0.0001106 8895.37988 8907.48438
9055.0 0.0001104 8910.05371 8922.16992
9070.0 0.0001103 8924.72949 8936.87793
9082.0 0.0001101 8939.40625 8951.60840
9093.0 0.0001100 8954.08398 8966.36133
9110.0 0.0001098 8968.76465 8981.13965
9117.0 0.0001097 8983.44531 8995.94434
9132.0 0.0001095 8998.12598 9010.77246
9155.0 0.0001092 9012.81055 9027.50098
9156.0 0.0001092 9027.49512 9039.29102
9171.0 0.0001090 9042.17871 9054.32129
9178.0 0.0001090 9056.86719 9069.38867
9181.0 0.0001089 9071.55176 9084.48633
9207.0 0.0001086 9086.24023 9099.62793
9225.0 0.0001084 9100.93066 9114.81348
9237.0 0.0001083 9115.61816 9130.04199
9247.0 0.0001081 9130.30957 9145.32617
9266.0 0.0001079 9145.00098 9160.66699
9268.0 0.0001079 9159.69238 9176.07227
9280.0 0.0001078 9174.38477 9191.54883
9295.0 0.0001076 9189.07910 9207.10742
9309.0 0.0001074 9203.77051 9222.75391
9314.0 0.0001074 9218.46680 9238.50684
9322.0 0.0001073 9233.15820 9254.37305
9346.0 0.0001070 9247.85352 9270.37500
9359.0 0.0001068 9262.54883 9286.53125
9368.0 0.0001067 9277.24512 9302.86621
9389.0 0.0001065 9291.93848 9319.40625
9411.0 0.0001063 9306.63477 9336.19141
9424.0 0.0001061 9321.32910 9353.26270
9430.0 0.0001060 9336.02637 9369.25293
9444.0 0.0001059 9350.72168 9387.10645
9453.0 0.0001058 9365.41797 9405.45410
9470.0 0.0001056 9380.11230 9424.40625
9485.0 0.0001054 9394.80859 9444.10352
9499.0 0.0001053 9409.50391 9464.72949
9524.0 0.0001050 9424.19922 9486.53125
9537.0 0.0001049 9438.89355 9509.83789
9546.0 0.0001048 9453.58887 9535.10645
9567.0 0.0001045 9468.28418 9562.97949
9591.0 0.0001043 9482.97656 9594.41602
9609.0 0.0001041 9497.66992 9630.98730
9645.0 0.0001037 9512.36328 9675.54004
9695.0 0.0001031 9527.05566 9733.64160
9747.0 0.0001026 9541.74805 9815.98730
9840.0 0.0001016 9556.44043 9940.98535
9971.0 0.0001003 9571.13086 10134.80664
10196.0 0.0000981 9585.82227 10424.97070
10524.0 0.0000950 9600.51172 10823.96875
10955.0 0.0000913 9615.20020 11293.48828
11377.0 0.0000879 9629.88867 11682.14160
11411.0 0.0000876 9644.57520 11746.99902
11086.0 0.0000902 9659.26270 11446.33594
10710.0 0.0000934 9673.94824 11006.81250
10407.0 0.0000961 9688.63281 10614.01855
10211.0 0.0000979 9703.31641 10327.22363
10085.0 0.0000992 9717.99902 10142.11523
10038.0 0.0000996 9732.68066 10032.89258
9996.0 0.0001000 9747.36230 9972.13379
9964.0 0.0001004 9762.04102 9939.35645
9931.0 0.0001007 9776.72070 9922.19141
9910.0 0.0001009 9791.39746 9914.07031
9904.0 0.0001010 9806.07324 9911.65723
9923.0 0.0001008 9820.74805 9913.16016
9939.0 0.0001006 9835.42188 9917.51367
9948.0 0.0001005 9850.09375 9924.01758
9958.0 0.0001004 9864.76270 9932.18262
9959.0 0.0001004 9879.43457 9941.66992
9961.0 0.0001004 9894.10059 9952.21484
9975.0 0.0001003 9908.76855 9963.63965
9997.0 0.0001000 9923.43555 9975.80469
10001.0 0.0001000 9938.09668 9988.60547
10011.0 0.0000999 9952.76074 10001.97559
10027.0 0.0000997 9967.42090 10015.86328
10039.0 0.0000996 9982.07910 10030.23730
10053.0 0.0000995 9996.73633 10045.08203
10069.0 0.0000993 10011.39160 10060.40234
10082.0 0.0000992 10026.04492 10076.21484
10102.0 0.0000990 10040.69727 10092.55176
10122.0 0.0000988 10055.34863 10109.46484
10137.0 0.0000986 10069.99609 10127.02734
10141.0 0.0000986 10084.64258 10152.34961
10157.0 0.0000985 10099.28711 10171.63867
10189.0 0.0000981 10113.92969 10192.00488
10207.0 0.0000980 10128.57129 10213.69434
10227.0 0.0000978 10143.20898 10237.04004
10248.0 0.0000976 10157.84668 10262.50977
10270.0 0.0000974 10172.48242 10290.74902
10307.0 0.0000970 10187.11426 10322.70410
10334.0 0.0000968 10201.74512 10359.87988
10366.0 0.0000965 10216.37402 10404.90039
10424.0 0.0000959 10231.00098 10462.82813
10505.0 0.0000952 10245.62500 10543.57324
10606.0 0.0000943 10260.24707 10665.09473
10760.0 0.0000929 10274.86621 10855.07813
11006.0 0.0000909 10289.48535 11146.80957
11385.0 0.0000878 10304.10059 11564.90234
11946.0 0.0000837 10318.71387 12095.50488
12606.0 0.0000793 10333.32422 12625.69238
12992.0 0.0000770 10347.93262 12893.59570
12759.0 0.0000784 10362.54004 12702.32910
12198.0 0.0000820 10377.14258 12215.46973
11664.0 0.0000857 10391.74316 11705.68750
11276.0 0.0000887 10406.34375 11302.15234
11028.0 0.0000907 10420.93848 11026.11133
10871.0 0.0000920 10435.53418 10855.40430
10774.0 0.0000928 10450.12402 10756.78613
10714.0 0.0000933 10464.71484 10701.57910
10683.0 0.0000936 10479.29883 10670.73828
10663.0 0.0000938 10493.88379 10654.97949
10637.0 0.0000940 10508.46484 10646.13770
10630.0 0.0000941 10523.04492 10642.73145
10634.0 0.0000940 10537.61816 10643.13281
10636.0 0.0000940 10552.19238 10646.37109
10645.0 0.0000939 10566.76270 10651.76465
10645.0 0.0000939 10581.33008 10658.83203
10649.0 0.0000939 10595.89453 10667.22266
10655.0 0.0000939 10610.45801 10676.67676
10670.0 0.0000937 10625.01660 10686.99512
10680.0 0.0000936 10639.57324 10698.03711
10699.0 0.0000935 10654.12988 10709.69629
10709.0 0.0000934 10668.67871 10721.88184
10716.0 0.0000933 10683.22754 10734.53809
10731.0 0.0000932 10697.77246 10747.62891
10741.0 0.0000931 10712.31348 10761.13086
10759.0 0.0000929 10726.85449 10775.04883
10773.0 0.0000928 10741.38965 10789.39551
10785.0 0.0000927 10755.92383 10804.22168
10798.0 0.0000926 10770.45410 10819.60645
10809.0 0.0000925 10784.98242 10835.69727
10816.0 0.0000925 10799.50684 10852.76563
10840.0 0.0000923 10814.02734 10872.19922
10851.0 0.0000922 10828.54688 10893.53906
10877.0 0.0000919 10843.06348 10919.93066
10909.0 0.0000917 10857.57422 10955.26855
10924.0 0.0000915 10872.08301 11004.52051
10943.0 0.0000914 10886.59082 11071.50781
10989.0 0.0000910 10901.09473 11154.32324
11029.0 0.0000907 10915.59375 11236.69922
11057.0 0.0000904 10930.09082 11281.41699
11056.0 0.0000904 10944.58496 11263.41602
11050.0 0.0000905 10959.07422 11207.68359
11054.0 0.0000905 10973.56250 11154.11719
11051.0 0.0000905 10988.04492 11116.61230
11045.0 0.0000905 11002.52637 11096.73730
11053.0 0.0000905 11017.00488 11090.56348
11063.0 0.0000904 11031.47754 11093.12598
11067.0 0.0000904 11045.95117 11100.57910
11068.0 0.0000904 11060.41797 11110.62891
11082.0 0.0000902 11074.88184 11122.11230
11101.0 0.0000901 11089.34277 11134.47461
11119.0 0.0000899 11103.80273 11147.43848
11141.0 0.0000898 11118.25586 11160.83789
11152.0 0.0000897 11132.70898 11174.57422
11171.0 0.0000895 11147.15527 11188.56738
11180.0 0.0000894 11161.60059 11202.77930
11185.0 0.0000894 11176.04102 11217.75293
11196.0 0.0000893 11190.48047 11232.30078
11212.0 0.0000892 11204.91309 11246.97754
11233.0 0.0000890 11219.34473 11265.64844
11251.0 0.0000889 11233.77148 11280.60938
11264.0 0.0000888 11248.19727 11295.67285
11284.0 0.0000886 11262.61719 11310.83301
11291.0 0.0000886 11277.03516 11326.09082
11308.0 0.0000884 11291.44727 11341.44238
11323.0 0.0000883 11305.85938 11356.89453
11341.0 0.0000882 11320.26660 11372.44141
11349.0 0.0000881 11334.66992 11388.09570
11360.0 0.0000880 11349.06934 11403.85449
11389.0 0.0000878 11363.46680 11419.73535
11395.0 0.0000878 11377.85938 11435.73633
11400.0 0.0000877 11392.24902 11451.87695
11425.0 0.0000875 11406.63574 11468.16406
11452.0 0.0000873 11421.01660 11484.61328
11464.0 0.0000872 11435.39648 11501.25000
11463.0 0.0000872 11449.77148 11518.09473
11483.0 0.0000871 11464.14355 11535.17188
11502.0 0.0000869 11478.51172 11552.51660
11512.0 0.0000869 11492.87793 11570.17188
11535.0 0.0000867 11507.23926 11588.18555
11545.0 0.0000866 11521.59668 11606.62109
11559.0 0.0000865 11535.95020 11625.55566
11585.0 0.0000863 11550.30176 11645.08984
11605.0 0.0000862 11564.64844 11665.34961
11615.0 0.0000861 11578.99316 11686.50195
11636.0 0.0000859 11593.33301 11708.76172
11654.0 0.0000858 11607.66895 11732.50488
11680.0 0.0000856 11622.00098 11757.97461
11716.0 0.0000854 11636.33008 11785.82324
11737.0 0.0000852 11650.65625 11816.94727
11762.0 0.0000850 11664.97852 11850.98828
11806.0 0.0000847 11679.29590 11894.55273
11847.0 0.0000844 11693.61133 11951.14941
11917.0 0.0000839 11707.92285 12030.54004
12000.0 0.0000833 11722.23047 12148.07324
12139.0 0.0000824 11736.53516 12323.33105
12327.0 0.0000811 11750.83398 12573.85352
12617.0 0.0000793 11765.13281 12902.06445
12985.0 0.0000770 11779.42480 13268.68359
13326.0 0.0000750 11793.71582 13553.08105
13405.0 0.0000746 11808.00098 13588.98145
13192.0 0.0000758 11822.28418 13363.53418
12902.0 0.0000775 11836.56250 13036.98633
12647.0 0.0000791 11850.83789 12740.35938
12462.0 0.0000802 11865.10938 12520.02637
12339.0 0.0000810 11879.37793 12376.80273
12261.0 0.0000816 11893.64160 12294.19043
12226.0 0.0000818 11907.90234 12252.61230
12195.0 0.0000820 11922.16016 12236.33496
12188.0 0.0000820 11936.41406 12235.31445
12191.0 0.0000820 11950.66211 12244.16016
12201.0 0.0000820 11964.91016 12260.46582
12215.0 0.0000819 11979.15332 12283.65527
12228.0 0.0000818 11993.39160 12314.72949
12271.0 0.0000815 12007.62793 12356.82227
12325.0 0.0000811 12021.86035 12416.29785
12379.0 0.0000808 12036.08789 12503.59375
12450.0 0.0000803 12050.31348 12632.11328
12562.0 0.0000796 12064.53418 12826.83398
12715.0 0.0000786 12078.75391 13065.16504
12889.0 0.0000776 12092.96582 13322.65723
13034.0 0.0000767 12107.17676 13516.63574
13064.0 0.0000765 12121.38477 13539.93164
12978.0 0.0000771 12135.58691 13401.42188
12911.0 0.0000775 12149.78613 13212.78711
12867.0 0.0000777 12163.98438 13054.34668
12865.0 0.0000777 12178.17676 12952.16113
12896.0 0.0000775 12192.36621 12904.92969
12924.0 0.0000774 12206.55078 12901.37598
12988.0 0.0000770 12220.73438 12929.38379
13073.0 0.0000765 12234.91406 12980.14844
13195.0 0.0000758 12249.08789 13049.87891
13323.0 0.0000751 12263.26074 13143.39941
13472.0 0.0000742 12277.42871 13251.74121
13638.0 0.0000733 12291.59277 13384.60254
13839.0 0.0000723 12305.75391 13548.28223
14092.0 0.0000710 12319.91211 13751.30664
14376.0 0.0000696 12334.06641 14004.59277
14700.0 0.0000680 12348.21875 14321.42578
15075.0 0.0000663 12362.36523 14717.05469
15529.0 0.0000644 12376.50977 15207.62598
16063.0 0.0000623 12390.64941 15807.66211
16658.0 0.0000600 12404.78613 16524.65430
17340.0 0.0000577 12418.92188 17348.08203
18101.0 0.0000552 12433.05176 18230.42969
18925.0 0.0000528 12447.17871 19064.96094
19712.0 0.0000507 12461.30176 19683.91016
20201.0 0.0000495 12475.42383 19914.64258
20034.0 0.0000499 12489.54102 19684.46875
19248.0 0.0000520 12503.65430 19075.63672
18253.0 0.0000548 12517.76367 18263.52930
17323.0 0.0000577 12531.87109 17414.95898
16551.0 0.0000604 12545.97363 16627.93555
15893.0 0.0000629 12560.07422 15948.90137
15354.0 0.0000651 12574.17090 15386.69043
14904.0 0.0000671 12588.26465 14934.22949
14551.0 0.0000687 12602.35449 14574.51855
14269.0 0.0000701 12616.44238 14292.46289
14045.0 0.0000712 12630.52637 14072.69434
13867.0 0.0000721 12644.60547 13901.57520
13716.0 0.0000729 12658.68457 13767.62500
13585.0 0.0000736 12672.75684 13663.45996
13452.0 0.0000743 12686.82910 13580.11230
13364.0 0.0000748 12700.89551 13514.38477
13299.0 0.0000752 12714.95996 13462.76270
13260.0 0.0000754 12729.02246 13422.57910
13221.0 0.0000756 12743.07910 13391.83203
13188.0 0.0000758 12757.13281 13369.05957
13176.0 0.0000759 12771.18652 13353.20117
13181.0 0.0000759 12785.23633 13343.50000
13177.0 0.0000759 12799.28027 13339.40918
13183.0 0.0000759 12813.32520 13340.62695
13195.0 0.0000758 12827.36328 13346.80273
13226.0 0.0000756 12841.40039 13357.54199
13258.0 0.0000754 12855.43262 13372.13379
13283.0 0.0000753 12869.46387 13389.32617
13299.0 0.0000752 12883.49023 13407.46484
13316.0 0.0000751 12897.51465 13427.57813
13354.0 0.0000749 12911.53711 13445.66309
13381.0 0.0000747 12925.55566 13465.79590
13411.0 0.0000746 12939.56934 13490.43066
13442.0 0.0000744 12953.58203 13521.90527
13503.0 0.0000741 12967.59277 13562.56641
13573.0 0.0000737 12981.59863 13615.12305
13664.0 0.0000732 12995.60156 13682.71875
13758.0 0.0000727 13009.60156 13768.53809
13898.0 0.0000720 13023.60254 13874.83301
14064.0 0.0000711 13037.59668 14000.83008
14240.0 0.0000702 13051.58887 14168.83301
14426.0 0.0000693 13065.57715 14329.53516
14631.0 0.0000683 13079.56445 14529.08887
14861.0 0.0000673 13093.54980 14792.74902
15169.0 0.0000659 13107.52832 15139.40332
15544.0 0.0000643 13121.50781 15578.53711
15991.0 0.0000625 13135.48438 16103.45703
16497.0 0.0000606 13149.45605 16674.84375
17036.0 0.0000587 13163.42773 17198.67969
17518.0 0.0000571 13177.39551 17529.18164
17712.0 0.0000565 13191.36035 17543.13086
17437.0 0.0000573 13205.32422 17243.56250
16799.0 0.0000595 13219.28320 16756.55859
16151.0 0.0000619 13233.23926 16225.85840
15611.0 0.0000641 13247.19434 15741.74316
15190.0 0.0000658 13261.14746 15340.59375
14877.0 0.0000672 13275.09668 15027.87305
14656.0 0.0000682 13289.04199 14795.55957
14508.0 0.0000689 13302.98730 14631.13965
14411.0 0.0000694 13316.92969 14521.79102
14354.0 0.0000697 13330.87012 14456.42285
14334.0 0.0000698 13344.80664 14426.60254
14362.0 0.0000696 13358.74219 14426.89941
14413.0 0.0000694 13372.67383 14454.89355
14521.0 0.0000689 13386.60449 14511.27246
14676.0 0.0000681 13400.53027 14600.41992
14894.0 0.0000671 13414.45703 14732.70898
15203.0 0.0000658 13428.38086 14930.23926
15633.0 0.0000640 13442.30176 15237.72461
16215.0 0.0000617 13456.21777 15735.72461
17007.0 0.0000588 13470.13672 16542.81836
18060.0 0.0000554 13484.04980 17785.35742
19442.0 0.0000514 13497.96191 19512.32031
21089.0 0.0000474 13511.87305 21566.82031
22490.0 0.0000445 13525.77930 23373.48242
22752.0 0.0000440 13539.68555 23933.35547
21805.0 0.0000459 13553.58984 22825.04883
20457.0 0.0000489 13567.49121 20855.58984
19149.0 0.0000522 13581.38965 18928.44922
18075.0 0.0000553 13595.28613 17437.32813
17255.0 0.0000580 13609.18262 16438.32227
16634.0 0.0000601 13623.07520 15837.13770
16192.0 0.0000618 13636.96680 15502.79102
15875.0 0.0000630 13650.85352 15329.09766
15679.0 0.0000638 13664.74219 15251.37012
15577.0 0.0000642 13678.62793 15238.67480
15557.0 0.0000643 13692.51074 15282.07422
15611.0 0.0000641 13706.39355 15387.63379
15782.0 0.0000634 13720.27441 15573.52539
16053.0 0.0000623 13734.15234 15866.76074
16473.0 0.0000607 13748.02734 16295.70605
17077.0 0.0000586 13761.90137 16875.65234
17876.0 0.0000559 13775.77539 17580.63281
18723.0 0.0000534 13789.64453 18293.51953
19280.0 0.0000519 13803.51465 18811.14453
19444.0 0.0000514 13817.38184 19046.83398
19478.0 0.0000513 13831.25098 19136.98242
19569.0 0.0000511 13845.11523 19185.64648
19685.0 0.0000508 13858.97656 19174.31250
19865.0 0.0000503 13872.83789 19174.28320
20243.0 0.0000494 13886.69922 19377.09180
20901.0 0.0000478 13900.55762 19942.78516
21867.0 0.0000457 13914.41406 20974.85938
23198.0 0.0000431 13928.26758 22548.89258
24921.0 0.0000401 13942.12305 24714.99805
27075.0 0.0000369 13955.97559 27464.85742
29689.0 0.00003368 13969.82813 30644.77148
32594.0 0.00003068 13983.67676 33804.19141
35317.0 0.00002831 13997.52637 36106.37109
36778.0 0.00002719 14011.37402 36648.05859
35863.0 0.00002788 14025.22070 35186.55859
32987.0 0.00003031 14039.06348 32381.00977
29577.0 0.00003381 14052.90820 29181.49609
26564.0 0.0000376 14066.75195 26246.56836
24175.0 0.0000414 14080.59375 23867.84570
22379.0 0.0000447 14094.43164 22116.08789
21109.0 0.0000474 14108.27148 20960.00391
20283.0 0.0000493 14122.10840 20307.20117
19810.0 0.0000505 14135.94824 20000.95508
19545.0 0.0000512 14149.78125 19811.28516
19163.0 0.0000522 14163.61719 19458.50195
18519.0 0.0000540 14177.45117 18846.17969
17792.0 0.0000562 14191.28516 18126.22852
17169.0 0.0000582 14205.11816 17467.56836
16695.0 0.0000599 14218.94824 16941.68750
16370.0 0.0000611 14232.77832 16555.53711
16124.0 0.0000620 14246.60840 16287.84082
15947.0 0.0000627 14260.43750 16108.85645
15848.0 0.0000631 14274.26465 15991.42480
15797.0 0.0000633 14288.09180 15915.70508
15772.0 0.0000634 14301.91895 15869.29492
15779.0 0.0000634 14315.74609 15845.35352
15850.0 0.0000631 14329.56836 15840.69336
15960.0 0.0000627 14343.39355 15854.79590
16056.0 0.0000623 14357.21777 15889.61523
16161.0 0.0000619 14371.04199 15949.57129
16300.0 0.0000613 14384.86426 16040.53516
16460.0 0.0000608 14398.68750 16167.60840
16655.0 0.0000600 14412.51074 16334.08008
16900.0 0.0000592 14426.33105 16543.73047
17220.0 0.0000581 14440.15234 16805.23633
17641.0 0.0000567 14453.97168 17132.83789
18166.0 0.0000550 14467.79395 17553.68945
18852.0 0.0000530 14481.61523 18110.10156
19728.0 0.0000507 14495.43262 18866.67578
20849.0 0.0000480 14509.25098 19915.81445
22273.0 0.0000449 14523.07227 21378.51953
24090.0 0.0000415 14536.89063 23394.26563
26408.0 0.0000379 14550.71094 26093.33984
29325.0 0.00003410 14564.52832 29541.04883
32836.0 0.00003045 14578.34766 33646.04297
36814.0 0.00002716 14592.16699 38008.29688
40793.0 0.00002451 14605.98438 41728.56641
43662.0 0.00002290 14619.80176 43472.88672
43377.0 0.00002305 14633.62109 42348.00391
39623.0 0.00002524 14647.44043 38890.94531
34439.0 0.00002904 14661.25879 34517.22266
29831.0 0.00003352 14675.07715 30358.11914
26339.0 0.0000380 14688.89551 26931.32813
23893.0 0.0000419 14702.71484 24353.34570
22279.0 0.0000449 14716.53418 22540.17578
21186.0 0.0000472 14730.35254 21296.16211
20285.0 0.0000493 14744.17188 20359.36719
19361.0 0.0000517 14757.99219 19518.22070
18484.0 0.0000541 14771.81348 18733.27734
17731.0 0.0000564 14785.63281 18046.92969
17142.0 0.0000583 14799.45410 17499.51953
16692.0 0.0000599 14813.27441 17077.17383
16360.0 0.0000611 14827.09668 16758.99609
16111.0 0.0000621 14840.91992 16520.28516
15912.0 0.0000628 14854.74023 16343.72461
15771.0 0.0000634 14868.56445 16201.87207
15659.0 0.0000639 14882.38965 16088.04590
15580.0 0.0000642 14896.21484 15994.77637
15522.0 0.0000644 14910.03711 15917.29980
15488.0 0.0000646 14923.86328 15852.43457
15438.0 0.0000648 14937.69043 15797.89453
15413.0 0.0000649 14951.51758 15751.95117
15383.0 0.0000650 14965.34277 15713.24512
15364.0 0.0000651 14979.17285 15680.69141
15357.0 0.0000651 14993.00293 15653.41406
15364.0 0.0000651 15006.83301 15630.69141
15356.0 0.0000651 15020.66309 15611.93262
15353.0 0.0000651 15034.49609 15596.64648
15363.0 0.0000651 15048.33008 15584.42383
15360.0 0.0000651 15062.16211 15574.91895
15361.0 0.0000651 15075.99707 15567.85742
15368.0 0.0000651 15089.83301 15562.98340
15374.0 0.0000650 15103.66895 15560.09473
15385.0 0.0000650 15117.50684 15559.02734
15399.0 0.0000649 15131.34766 15559.64063
15415.0 0.0000649 15145.18750 15561.80957
15421.0 0.0000648 15159.03027 15565.44629
15432.0 0.0000648 15172.87207 15570.44727
15439.0 0.0000648 15186.71582 15576.61914
15451.0 0.0000647 15200.56152 15584.24316
15465.0 0.0000647 15214.40918 15593.12305
15476.0 0.0000646 15228.25684 15603.24707
15493.0 0.0000645 15242.10645 15614.61914
15513.0 0.0000645 15255.95703 15627.26563
15535.0 0.0000644 15269.80762 15641.21973
15555.0 0.0000643 15283.66211 15656.55371
15578.0 0.0000642 15297.51758 15673.33594
15611.0 0.0000641 15311.37402 15691.68164
15631.0 0.0000640 15325.23145 15711.73340
15656.0 0.0000639 15339.09180 15733.66113
15690.0 0.0000637 15352.95313 15757.68652
15721.0 0.0000636 15366.81836 15784.08789
15739.0 0.0000635 15380.68262 15813.41992
15762.0 0.0000634 15394.54883 15845.67773
15813.0 0.0000632 15408.41797 15881.61621
15873.0 0.0000630 15422.28809 15921.91406
15920.0 0.0000628 15436.15820 15967.43652
15970.0 0.0000626 15450.03418 16019.31152
16030.0 0.0000624 15463.91113 16079.00879
16107.0 0.0000621 15477.78711 16148.52246
16212.0 0.0000617 15491.66602 16230.74512
16344.0 0.0000612 15505.54785 16329.87402
16496.0 0.0000606 15519.43359 16452.71484
16712.0 0.0000598 15533.31641 16610.30469
16953.0 0.0000590 15547.20410 16820.56055
17274.0 0.0000579 15561.09570 17111.15820
17696.0 0.0000565 15574.98926 17521.56250
18245.0 0.0000548 15588.88184 18102.08789
18961.0 0.0000527 15602.77930 18907.39648
19893.0 0.0000503 15616.67773 19982.26758
21063.0 0.0000475 15630.57910 21335.76367
22513.0 0.0000444 15644.48242 22890.17578
24142.0 0.0000414 15658.38770 24399.84766
25540.0 0.0000392 15672.29590 25422.19141
25919.0 0.0000386 15686.20605 25513.12500
24947.0 0.0000401 15700.11816 24682.63477
23342.0 0.0000428 15714.03418 23372.65430
21863.0 0.0000457 15727.95215 22028.54492
20756.0 0.0000482 15741.87305 20862.97656
19896.0 0.0000503 15755.79492 19918.35352
19150.0 0.0000522 15769.71973 19185.43164
18510.0 0.0000540 15783.64941 18646.14258
18029.0 0.0000555 15797.58105 18254.88672
17650.0 0.0000567 15811.51270 17938.89844
17328.0 0.0000577 15825.44922 17643.98438
17072.0 0.0000586 15839.38867 17376.65820
16886.0 0.0000592 15853.33008 17153.35352
16747.0 0.0000597 15867.27441 16981.74414
16650.0 0.0000601 15881.22168 16858.79688
16570.0 0.0000604 15895.17285 16777.03125
16544.0 0.0000604 15909.12500 16728.10547
16548.0 0.0000604 15923.08203 16704.83203
16567.0 0.0000604 15937.04297 16702.22852
16601.0 0.0000602 15951.00293 16717.86914
16675.0 0.0000600 15964.96777 16752.06445
16776.0 0.0000596 15978.93555 16808.53516
16913.0 0.0000591 15992.90820 16896.21289
17093.0 0.0000585 16006.88086 17032.52539
17347.0 0.0000576 16020.85938 17247.02734
17703.0 0.0000565 16034.83887 17582.60547
18187.0 0.0000550 16048.82520 18089.99414
18823.0 0.0000531 16062.80957 18812.08398
19691.0 0.0000508 16076.79980 19756.58984
20772.0 0.0000481 16090.79395 20850.16602
21836.0 0.0000458 16104.79199 21862.39648
22446.0 0.0000446 16118.79102 22409.62500
22303.0 0.0000448 16132.79492 22269.55664
21728.0 0.0000460 16146.80176 21676.68945
21112.0 0.0000474 16160.81348 21025.70508
20656.0 0.0000484 16174.82715 20524.86328
20345.0 0.0000492 16188.84473 20191.98633
20101.0 0.0000497 16202.86621 19937.40234
19860.0 0.0000504 16216.88965 19662.10547
19531.0 0.0000512 16230.91602 19312.73047
19068.0 0.0000524 16244.94824 18903.68555
18577.0 0.0000538 16258.98535 18501.38477
18186.0 0.0000550 16273.02637 18168.02734
17902.0 0.0000559 16287.06641 17928.55664
17713.0 0.0000565 16301.11426 17784.50391
17602.0 0.0000568 16315.16211 17719.22266
17562.0 0.0000569 16329.21973 17701.97070
17542.0 0.0000570 16343.27637 17690.04883
17513.0 0.0000571 16357.33594 17642.90430
17426.0 0.0000574 16371.40234 17545.89063
17326.0 0.0000577 16385.47266 17416.48828
17232.0 0.0000580 16399.54883 17281.98828
17164.0 0.0000583 16413.62305 17161.01563
17111.0 0.0000584 16427.70313 17061.32813
17046.0 0.0000587 16441.78906 16983.90430
16983.0 0.0000589 16455.88281 16926.56250
16942.0 0.0000590 16469.97070 16885.99023
16899.0 0.0000592 16484.07031 16858.72266
16866.0 0.0000593 16498.17383 16841.82617
16844.0 0.0000594 16512.27930 16833.12109
16826.0 0.0000594 16526.38867 16831.40039
16829.0 0.0000594 16540.50195 16836.44141
16834.0 0.0000594 16554.61914 16848.96680
16833.0 0.0000594 16568.74414 16870.31641
16853.0 0.0000593 16582.87109 16901.69727
16869.0 0.0000593 16597.00000 16943.11914
16892.0 0.0000592 16611.13867 16991.62305
16920.0 0.0000591 16625.27930 17044.02930
16946.0 0.0000590 16639.42188 17076.06250
16973.0 0.0000589 16653.56836 17077.23633
16961.0 0.0000590 16667.72461 17055.50000
16956.0 0.0000590 16681.88281 17027.12695
16952.0 0.0000590 16696.04492 16976.18164
16935.0 0.0000590 16710.20898 16963.48828
16939.0 0.0000590 16724.38281 16961.58008
16961.0 0.0000590 16738.55664 16968.47266
16974.0 0.0000589 16752.73633 16980.33789
16977.0 0.0000589 16766.92188 16992.22070
16996.0 0.0000588 16781.11328 17000.91797
17001.0 0.0000588 16795.30664 17007.85547
17016.0 0.0000588 16809.50781 17014.70508
17035.0 0.0000587 16823.70703 17023.69141
17048.0 0.0000587 16837.91797 17035.39063
17060.0 0.0000586 16852.13086 17049.76367
17083.0 0.0000585 16866.35156 17066.53906
17104.0 0.0000585 16880.57227 17085.33203
17121.0 0.0000584 16894.80078 17105.91016
17151.0 0.0000583 16909.03125 17128.29297
17173.0 0.0000582 16923.26953 17152.21875
17185.0 0.0000582 16937.50977 17177.94141
17206.0 0.0000581 16951.75977 17205.68750
17236.0 0.0000580 16966.01172 17235.72656
17265.0 0.0000579 16980.26953 17268.45313
17289.0 0.0000578 16994.52930 17304.36328
17324.0 0.0000577 17008.79688 17344.09570
17372.0 0.0000576 17023.06836 17388.42578
17416.0 0.0000574 17037.34570 17438.45117
17480.0 0.0000572 17051.62695 17495.55078
17538.0 0.0000570 17065.91211 17561.66797
17616.0 0.0000568 17080.20508 17639.73047
17724.0 0.0000564 17094.50391 17734.52734
17864.0 0.0000560 17108.80469 17854.06055
18033.0 0.0000555 17123.11523 18012.56445
18284.0 0.0000547 17137.42383 18233.55273
18600.0 0.0000538 17151.74414 18555.19141
19007.0 0.0000526 17166.07031 19021.72656
19582.0 0.0000511 17180.39844 19691.77734
20360.0 0.0000491 17194.72852 20616.18750
21398.0 0.0000467 17209.06836 21817.41797
22739.0 0.0000440 17223.41211 23244.21289
24388.0 0.0000410 17237.76172 24694.51953
26063.0 0.0000384 17252.11914 25754.37500
26829.0 0.0000373 17266.47656 25959.51563
25950.0 0.0000385 17280.84375 25226.99609
24061.0 0.0000416 17295.21680 23944.55078
22274.0 0.0000449 17309.59180 22557.56250
20932.0 0.0000478 17323.97461 21318.15234
19976.0 0.0000501 17338.35938 20319.88281
19279.0 0.0000519 17352.75391 19573.19336
18792.0 0.0000532 17367.15430 19045.65430
18453.0 0.0000542 17381.55469 18687.30664
18236.0 0.0000548 17395.96680 18448.51172
18092.0 0.0000553 17410.37891 18289.24805
17989.0 0.0000556 17424.80078 18181.47461
17930.0 0.0000558 17439.22852 18107.26172
17898.0 0.0000559 17453.65820 18055.79102
17884.0 0.0000559 17468.09375 18020.63672
17884.0 0.0000559 17482.54102 17997.86914
17883.0 0.0000559 17496.98828 17984.74219
17885.0 0.0000559 17511.43945 17979.05664
17901.0 0.0000559 17525.90234 17978.87109
17911.0 0.0000558 17540.36523 17983.11328
17927.0 0.0000558 17554.83594 17992.11523
17949.0 0.0000557 17569.31445 18009.66406
17960.0 0.0000557 17583.79688 18031.40625
17978.0 0.0000556 17598.28125 18062.01367
18021.0 0.0000555 17612.77539 18102.62500
18079.0 0.0000553 17627.27734 18157.75977
18160.0 0.0000551 17641.78320 18234.11719
18263.0 0.0000548 17656.29297 18336.21484
18400.0 0.0000543 17670.80859 18491.35352
18600.0 0.0000538 17685.33398 18708.63281
18896.0 0.0000529 17699.86133 19005.40625
19304.0 0.0000518 17714.39648 19390.87109
19855.0 0.0000504 17728.93359 19856.66211
20582.0 0.0000486 17743.47852 20358.64844
21358.0 0.0000468 17758.03125 20793.51953
21834.0 0.0000458 17772.58984 21014.75195
21679.0 0.0000461 17787.15039 20946.17578
21097.0 0.0000474 17801.72070 20674.86328
20524.0 0.0000487 17816.29688 20365.47070
20143.0 0.0000496 17830.87695 20140.11328
19979.0 0.0000501 17845.46289 20052.23828
19978.0 0.0000501 17860.05664 20100.35742
20105.0 0.0000497 17874.65820 20231.38086
20241.0 0.0000494 17889.25977 20337.30469
20222.0 0.0000495 17903.86914 20298.49805
20015.0 0.0000500 17918.48633 20090.14844
19756.0 0.0000506 17933.10938 19798.10938
19521.0 0.0000512 17947.74023 19517.88281
19344.0 0.0000517 17962.37109 19302.51953
19235.0 0.0000520 17977.00781 19168.32813
19182.0 0.0000521 17991.65625 19115.18945
19191.0 0.0000521 18006.31055 19132.62500
19245.0 0.0000520 18020.96484 19205.09180
19329.0 0.0000517 18035.62891 19312.71289
19453.0 0.0000514 18050.30273 19429.55664
19582.0 0.0000511 18064.97461 19527.23047
19665.0 0.0000509 18079.65820 19590.73047
19702.0 0.0000508 18094.34375 19632.69336
19753.0 0.0000506 18109.03906 19687.08398
19863.0 0.0000503 18123.73828 19795.93164
20063.0 0.0000498 18138.44531 20004.97070
20405.0 0.0000490 18153.15625 20363.83594
20921.0 0.0000478 18167.87305 20924.41406
21668.0 0.0000462 18182.59766 21733.34375
22684.0 0.0000441 18197.32617 22814.86914
23993.0 0.0000417 18212.06055 24140.65625
25486.0 0.0000392 18226.80273 25579.00977
26886.0 0.0000372 18241.55078 26843.39844
27757.0 0.0000360 18256.30273 27544.23633
27725.0 0.0000361 18271.06250 27433.91211
26812.0 0.0000373 18285.82617 26592.36328
25188.0 0.0000397 18300.59766 25324.42969
23450.0 0.0000426 18315.37695 23968.81250
22089.0 0.0000453 18330.16016 22760.13672
21137.0 0.0000473 18344.94727 21794.10742
20515.0 0.0000487 18359.74609 21088.05859
20101.0 0.0000497 18374.54688 20607.11523
19818.0 0.0000505 18389.35156 20305.67578
19642.0 0.0000509 18404.16211 20130.87305
19554.0 0.0000511 18418.98242 20023.06250
19515.0 0.0000512 18433.80859 19923.65820
19462.0 0.0000514 18448.63867 19800.53125
19410.0 0.0000515 18463.47461 19661.44336
19368.0 0.0000516 18478.32031 19529.17188
19354.0 0.0000517 18493.16406 19415.45703
19349.0 0.0000517 18508.02148 19317.71875
19313.0 0.0000518 18522.88281 19229.24609
19246.0 0.0000520 18537.74414 19149.67773
19165.0 0.0000522 18552.61914 19083.05273
19088.0 0.0000524 18567.49609 19031.27344
19041.0 0.0000525 18582.38281 18993.45117
19004.0 0.0000526 18597.27148 18967.67188
18978.0 0.0000527 18612.16602 18951.59180
18976.0 0.0000527 18627.06641 18943.33594
18960.0 0.0000527 18641.97461 18941.64648
18965.0 0.0000527 18656.88477 18946.03125
18962.0 0.0000527 18671.80469 18956.87891
18959.0 0.0000527 18686.73242 18973.89453
18968.0 0.0000527 18701.66211 18996.58008
19005.0 0.0000526 18716.59961 19022.42773
19034.0 0.0000525 18731.53906 19046.86523
19066.0 0.0000524 18746.48633 19064.54492
19074.0 0.0000524 18761.44141 19073.25195
19090.0 0.0000524 18776.39844 19075.98438
19098.0 0.0000524 18791.36328 19077.97656
19110.0 0.0000523 18806.33594 19081.87695
19135.0 0.0000523 18821.31250 19090.38281
19162.0 0.0000522 18836.29297 19102.18945
19188.0 0.0000521 18851.28125 19118.21875
19215.0 0.0000520 18866.27148 19137.66211
19251.0 0.0000519 18881.27344 19160.41602
19287.0 0.0000518 18896.27539 19186.29102
19335.0 0.0000517 18911.28516 19215.31055
19392.0 0.0000516 18926.30078 19248.97070
19452.0 0.0000514 18941.32227 19285.20508
19530.0 0.0000512 18956.34766 19326.51758
19601.0 0.0000510 18971.37891 19372.76172
19676.0 0.0000508 18986.41602 19425.97852
19773.0 0.0000506 19001.45898 19488.36523
19867.0 0.0000503 19016.50586 19563.58594
19975.0 0.0000501 19031.55664 19656.55859
20112.0 0.0000497 19046.61719 19775.99219
20266.0 0.0000493 19061.68164 19932.91211
20467.0 0.0000489 19076.75195 20143.53516
20726.0 0.0000482 19091.82813 20427.57031
21052.0 0.0000475 19106.90625 20807.20898
21477.0 0.0000466 19121.99219 21304.17969
22024.0 0.0000454 19137.08008 21933.48828
22717.0 0.0000440 19152.17383 22690.11523
23500.0 0.0000426 19167.27930 23525.90430
24288.0 0.0000412 19182.38281 24334.70898
24862.0 0.0000402 19197.49805 24995.82813
25168.0 0.0000397 19212.60938 25463.83594
25441.0 0.0000393 19227.73242 25758.59180
25900.0 0.0000386 19242.85938 25844.43750
26071.0 0.0000384 19257.98828 25623.21289
25410.0 0.0000394 19273.12695 25094.26563
24308.0 0.0000411 19288.26758 24409.01758
23376.0 0.0000428 19303.41211 23759.50781
22776.0 0.0000439 19318.56250 23233.92188
22439.0 0.0000446 19333.71875 22813.50000
22184.0 0.0000451 19348.88086 22411.21875
21851.0 0.0000458 19364.04492 21968.14453
21474.0 0.0000466 19379.21289 21509.90430
21095.0 0.0000474 19394.39063 21092.75977
20775.0 0.0000481 19409.57031 20749.09180
20548.0 0.0000487 19424.75391 20485.35352
20370.0 0.0000491 19439.94336 20294.24414
20248.0 0.0000494 19455.13281 20162.70117
20163.0 0.0000496 19470.33203 20076.50781
20102.0 0.0000497 19485.53711 20023.36328
20058.0 0.0000499 19500.74219 19994.71289
20048.0 0.0000499 19515.95313 19986.34961
20053.0 0.0000499 19531.16797 19998.48633
20084.0 0.0000498 19546.38867 20035.24023
20147.0 0.0000496 19561.61133 20103.65234
20232.0 0.0000494 19576.83984 20211.51172
20338.0 0.0000492 19592.07227 20363.58984
20474.0 0.0000488 19607.31055 20556.51563
20627.0 0.0000485 19622.55273 20771.00195
20794.0 0.0000481 19637.79688 20961.43164
20845.0 0.0000480 19653.04102 21057.74023
20790.0 0.0000481 19668.30078 21012.36914
20680.0 0.0000484 19683.55469 20852.73633
20563.0 0.0000486 19698.81445 20649.02148
20431.0 0.0000489 19714.08008 20455.44141
20324.0 0.0000492 19729.35156 20297.68750
20241.0 0.0000494 19744.62109 20182.48828
20178.0 0.0000496 19759.89648 20106.49609
20138.0 0.0000497 19775.17578 20061.58398
20119.0 0.0000497 19790.45898 20039.34961
20087.0 0.0000498 19805.75000 20034.26367
20071.0 0.0000498 19821.03906 20038.68164
20063.0 0.0000498 19836.33203 20050.72461
20070.0 0.0000498 19851.62891 20068.07227
20078.0 0.0000498 19866.92773 20086.53711
20087.0 0.0000498 19882.23438 20101.99805
20102.0 0.0000497 19897.54102 20110.40039
20105.0 0.0000497 19912.84961 20112.21289
20106.0 0.0000497 19928.16602 20117.77539
20112.0 0.0000497 19943.47852 20118.46289
20113.0 0.0000497 19958.80273 20122.64453
20121.0 0.0000497 19974.12500 20131.11523
20137.0 0.0000497 19989.45313 20143.78125
20152.0 0.0000496 20004.78125 20159.85742
20186.0 0.0000495 20020.11133 20177.82813
20215.0 0.0000495 20035.44531 20195.42578
20237.0 0.0000494 20050.78320 20210.41992
20234.0 0.0000494 20066.12305 20222.19336
20239.0 0.0000494 20081.46289 20232.26563
20245.0 0.0000494 20096.80859 20242.58398
20259.0 0.0000494 20112.16016 20254.38086
20269.0 0.0000493 20127.50781 20268.30664
20272.0 0.0000493 20142.86133 20282.27930
20287.0 0.0000493 20158.21289 20301.29102
20316.0 0.0000492 20173.56641 20323.12695
20341.0 0.0000492 20188.92969 20348.04883
20367.0 0.0000491 20204.28906 20376.32617
20414.0 0.0000490 20219.65039 20408.19141
20490.0 0.0000488 20235.01758 20443.63086
20570.0 0.0000486 20250.38281 20482.17969
20659.0 0.0000484 20265.75195 20522.85547
20723.0 0.0000483 20281.12109 20565.30664
20746.0 0.0000482 20296.49414 20611.89844
20754.0 0.0000482 20311.86523 20667.29297
20800.0 0.0000481 20327.24219 20735.44922
20888.0 0.0000479 20342.62109 20816.96289
20963.0 0.0000477 20357.99609 20907.17383
21057.0 0.0000475 20373.37500 20994.60938
21144.0 0.0000473 20388.75586 21064.40820
21203.0 0.0000472 20404.13867 21112.78711
21258.0 0.0000470 20419.52148 21156.43359
21309.0 0.0000469 20434.90625 21220.93359
21418.0 0.0000467 20450.29102 21321.48242
21551.0 0.0000464 20465.67578 21479.50195
21732.0 0.0000460 20481.06055 21690.53320
21985.0 0.0000455 20496.44727 21941.44922
22297.0 0.0000448 20511.83789 22202.16602
22589.0 0.0000443 20527.22461 22433.64648
22822.0 0.0000438 20542.61133 22605.81055
22924.0 0.0000436 20557.99805 22714.56250
22917.0 0.0000436 20573.39063 22788.25781
22900.0 0.0000437 20588.77930 22864.00195
22950.0 0.0000436 20604.16602 22979.65234
23117.0 0.0000433 20619.55664 23139.37305
23448.0 0.0000426 20634.94922 23299.23047
23750.0 0.0000421 20650.33789 23384.93945
23755.0 0.0000421 20665.72656 23356.01172
23467.0 0.0000426 20681.11328 23229.64453
23096.0 0.0000433 20696.50391 23039.72070
22752.0 0.0000440 20711.89258 22818.97852
22475.0 0.0000445 20727.28125 22601.01563
22239.0 0.0000450 20742.66602 22405.70703
22027.0 0.0000454 20758.05078 22231.33789
21846.0 0.0000458 20773.43750 22065.32422
21704.0 0.0000461 20788.82031 21896.52734
21562.0 0.0000464 20804.20313 21727.92969
21431.0 0.0000467 20819.58984 21573.58984
21322.0 0.0000469 20834.96875 21444.65039
21236.0 0.0000471 20850.34961 21344.50977
21162.0 0.0000473 20865.72461 21271.27344
21111.0 0.0000474 20881.10352 21220.90234
21081.0 0.0000474 20896.47656 21188.42773
21051.0 0.0000475 20911.85352 21169.22461
21037.0 0.0000475 20927.22266 21159.40234
21016.0 0.0000476 20942.59180 21156.05859
21004.0 0.0000476 20957.95898 21157.20898
21010.0 0.0000476 20973.32617 21161.54688
21013.0 0.0000476 20988.68945 21168.26953
21029.0 0.0000476 21004.05078 21176.87305
21027.0 0.0000476 21019.40820 21187.02539
21038.0 0.0000475 21034.76953 21199.41211
21052.0 0.0000475 21050.11719 21212.05469
21070.0 0.0000475 21065.47266 21225.75391
21078.0 0.0000474 21080.81641 21240.41797
21101.0 0.0000474 21096.16211 21256.01367
21123.0 0.0000473 21111.50391 21272.47852
21130.0 0.0000473 21126.84375 21289.80859
21151.0 0.0000473 21142.17969 21308.14063
21172.0 0.0000472 21157.51172 21327.27734
21206.0 0.0000472 21172.83789 21347.35742
21232.0 0.0000471 21188.16406 21368.46289
21272.0 0.0000470 21203.48438 21390.69336
21300.0 0.0000469 21218.80273 21414.14648
21340.0 0.0000469 21234.11328 21438.97266
21376.0 0.0000468 21249.42383 21465.36133
21425.0 0.0000467 21264.72656 21493.53711
21476.0 0.0000466 21280.02930 21524.37500
21544.0 0.0000464 21295.32422 21557.18750
21606.0 0.0000463 21310.61719 21587.34570
21665.0 0.0000462 21325.90234 21626.62109
21741.0 0.0000460 21341.18359 21670.49219
21838.0 0.0000458 21356.46094 21720.58984
21950.0 0.0000456 21371.73242 21779.80859
22080.0 0.0000453 21387.00195 21851.30859
22244.0 0.0000450 21402.26172 21944.24805
22435.0 0.0000446 21417.51758 22065.20508
22663.0 0.0000441 21432.76758 22226.97852
22935.0 0.0000436 21448.01172 22443.08594
23256.0 0.0000430 21463.25000 22725.20703
23632.0 0.0000423 21478.48438 23078.41016
24034.0 0.0000416 21493.71289 23496.88086
24463.0 0.0000409 21508.92969 23961.67578
24911.0 0.0000401 21524.14453 24437.25195
25395.0 0.0000394 21539.35156 24875.83203
25903.0 0.0000386 21554.55469 25259.62305
26408.0 0.0000379 21569.74805 25645.97266
26902.0 0.0000372 21584.93555 26137.63477
27447.0 0.0000364 21600.11523 26818.99219
28131.0 0.0000355 21615.28906 27721.05664
28941.0 0.00003455 21630.45508 28784.97070
29748.0 0.00003362 21645.61133 29814.07813
30235.0 0.00003307 21660.76172 30459.88477
30021.0 0.00003331 21675.91016 30383.87891
29194.0 0.00003425 21691.03906 29554.52148
28146.0 0.0000355 21706.16602 28282.66211
27126.0 0.0000369 21721.28516 26924.01953
26249.0 0.0000381 21736.39648 25699.28320
25504.0 0.0000392 21751.49805 24702.23828
24867.0 0.0000402 21766.58984 23948.83789
24335.0 0.0000411 21781.67383 23412.13086
23925.0 0.0000418 21796.75391 23046.73242
23585.0 0.0000424 21811.81641 22804.26172
23308.0 0.0000429 21826.87500 22644.07617
23082.0 0.0000433 21841.91992 22536.46094
22885.0 0.0000437 21856.96094 22462.03711
22726.0 0.0000440 21871.98828 22409.04102
22599.0 0.0000442 21887.00391 22370.60938
22495.0 0.0000445 21902.01172 22342.76953
22416.0 0.0000446 21917.01367 22323.05469
22362.0 0.0000447 21932.00391 22309.87695
22311.0 0.0000448 21946.97852 22302.13281
22274.0 0.0000449 21961.94141 22299.04102
22244.0 0.0000450 21976.90234 22300.06641
22222.0 0.0000450 21991.84570 22304.80078
22198.0 0.0000450 22006.77734 22312.98047
22186.0 0.0000451 22021.70117 22324.62695
22199.0 0.0000450 22036.61523 22339.76172
22221.0 0.0000450 22051.51172 22358.66797
22232.0 0.0000450 22066.39844 22381.94531
22237.0 0.0000450 22081.27344 22410.49023
22244.0 0.0000450 22096.13672 22446.02930
22256.0 0.0000449 22110.99023 22491.19727
22295.0 0.0000449 22125.82617 22550.05469
22339.0 0.0000448 22140.65625 22628.58008
22411.0 0.0000446 22155.46680 22734.46289
22512.0 0.0000444 22170.26563 22877.62109
22650.0 0.0000442 22185.05078 23068.48633
22854.0 0.0000438 22199.82422 23315.42578
23132.0 0.0000432 22214.58398 23621.39453
23501.0 0.0000426 22229.32813 23982.43945
24003.0 0.0000417 22244.06055 24387.42969
24614.0 0.0000406 22258.77930 24803.26953
25285.0 0.0000395 22273.48047 25163.25586
25727.0 0.0000389 22288.16992 25372.49219
25701.0 0.0000389 22302.84375 25374.02539
25285.0 0.0000395 22317.50391 25201.54102
24820.0 0.0000403 22332.14453 24941.09766
24477.0 0.0000409 22346.77734 24661.09961
24245.0 0.0000412 22361.39063 24393.77539
24008.0 0.0000417 22375.98828 24155.06250
23790.0 0.0000420 22390.56641 23955.29688
23613.0 0.0000423 22405.13477 23790.06250
23444.0 0.0000427 22419.68359 23639.62305
23276.0 0.0000430 22434.21680 23487.93555
23133.0 0.0000432 22448.73242 23337.89844
23012.0 0.0000435 22463.23438 23203.50977
22910.0 0.0000436 22477.71680 23091.31445
22812.0 0.0000438 22492.18164 23005.23438
22751.0 0.0000440 22506.62891 22943.95703
22722.0 0.0000440 22521.06250 22904.45117
22688.0 0.0000441 22535.47266 22882.93945
22677.0 0.0000441 22549.86523 22876.37305
22671.0 0.0000441 22564.24414 22882.87891
22676.0 0.0000441 22578.60352 22902.31641
22689.0 0.0000441 22592.93945 22936.72656
22704.0 0.0000440 22607.25977 22989.57422
22730.0 0.0000440 22621.56250 23066.82617
22782.0 0.0000439 22635.84570 23171.94141
22854.0 0.0000438 22650.10742 23308.73438
22942.0 0.0000436 22664.34961 23475.66406
23056.0 0.0000434 22678.57031 23662.83203
23207.0 0.0000431 22692.77539 23845.96484
23378.0 0.0000428 22706.95508 23984.20508
23525.0 0.0000425 22721.11914 24035.04102
23576.0 0.0000424 22735.25781 23989.14258
23554.0 0.0000425 22749.37891 23878.78516
23514.0 0.0000425 22763.47656 23745.12305
23425.0 0.0000427 22777.55273 23622.36719
23305.0 0.0000429 22791.61133 23521.38672
23198.0 0.0000431 22805.64258 23445.70898
23105.0 0.0000433 22819.65430 23393.76563
23044.0 0.0000434 22833.64063 23361.79102
23028.0 0.0000434 22847.60547 23349.39844
23055.0 0.0000434 22861.55078 23360.50781
23149.0 0.0000432 22875.47070 23399.83203
23299.0 0.0000429 22889.36914 23470.11133
23510.0 0.0000425 22903.24023 23570.61719
23865.0 0.0000419 22917.08789 23692.13086
24305.0 0.0000411 22930.91406 23814.28906
24696.0 0.0000405 22944.71680 23904.31445
24770.0 0.0000404 22958.49414 23934.35156
24484.0 0.0000408 22972.24414 23904.64453
24098.0 0.0000415 22985.96875 23841.42773
23800.0 0.0000420 22999.67188 23773.21289
23602.0 0.0000424 23013.34766 23715.95117
23487.0 0.0000426 23026.99414 23672.03906
23397.0 0.0000427 23040.62109 23634.98633
23321.0 0.0000429 23054.22070 23596.39258
23268.0 0.0000430 23067.78906 23552.54297
23231.0 0.0000430 23081.33398 23504.72852
23217.0 0.0000431 23094.85156 23457.70508
23220.0 0.0000431 23108.34180 23417.39258
23236.0 0.0000430 23121.80664 23388.60352
23270.0 0.0000430 23135.23828 23374.16797
23297.0 0.0000429 23148.64844 23376.02734
23349.0 0.0000428 23162.02539 23397.61914
23428.0 0.0000427 23175.37695 23446.44727
23522.0 0.0000425 23188.69336 23541.31250
23651.0 0.0000423 23201.98633 23703.04883
23817.0 0.0000420 23215.25000 23950.86328
24018.0 0.0000416 23228.48242 24292.10156
24286.0 0.0000412 23241.68750 24716.25586
24705.0 0.0000405 23254.85742 25196.22461
25308.0 0.0000395 23268.00195 25679.64453
26035.0 0.0000384 23281.11328 26078.14258
26579.0 0.0000376 23294.19336 26278.51758
26601.0 0.0000376 23307.24219 26231.75391
26138.0 0.0000383 23320.26367 25964.88086
25490.0 0.0000392 23333.24609 25574.99414
24906.0 0.0000402 23346.19727 25158.55859
24451.0 0.0000409 23359.11914 24778.28320
24129.0 0.0000414 23372.00977 24463.76563
23913.0 0.0000418 23384.86914 24222.32422
23763.0 0.0000421 23397.68750 24048.27148
23678.0 0.0000422 23410.47461 23929.67773
23628.0 0.0000423 23423.23242 23854.52344
23596.0 0.0000424 23435.95313 23807.33594
23580.0 0.0000424 23448.63867 23780.15039
23574.0 0.0000424 23461.29297 23766.46875
23582.0 0.0000424 23473.91211 23761.80273
23600.0 0.0000424 23486.49023 23763.80469
23631.0 0.0000423 23499.03711 23771.13867
23666.0 0.0000423 23511.54492 23783.15625
23705.0 0.0000422 23524.02539 23800.03125
23773.0 0.0000421 23536.45898 23821.23438
23832.0 0.0000420 23548.85742 23847.53516
23892.0 0.0000419 23561.22266 23882.85156
23951.0 0.0000418 23573.54883 23921.99609
24019.0 0.0000416 23585.83984 23970.00195
24084.0 0.0000415 23598.08984 24029.58789
24170.0 0.0000414 23610.30078 24103.93555
24277.0 0.0000412 23622.47656 24196.54492
24389.0 0.0000410 23634.61133 24310.72656
24531.0 0.0000408 23646.70313 24449.48438
24721.0 0.0000405 23658.76367 24613.33984
24934.0 0.0000401 23670.77734 24800.93164
25154.0 0.0000398 23682.75586 25005.21484
25326.0 0.0000395 23694.68945 25209.24414
25403.0 0.0000394 23706.58203 25382.63281
25405.0 0.0000394 23718.43945 25487.80078
25366.0 0.0000394 23730.24805 25500.10938
25290.0 0.0000395 23742.01758 25424.23438
25186.0 0.0000397 23753.74414 25288.45313
25065.0 0.0000399 23765.43164 25126.29492
24920.0 0.0000401 23777.07031 24962.86719
24799.0 0.0000403 23788.67188 24816.98828
24689.0 0.0000405 23800.22656 24696.39648
24604.0 0.0000406 23811.74023 24611.97266
24536.0 0.0000408 23823.20898 24564.70898
24491.0 0.0000408 23834.63086 24557.17773
24482.0 0.0000408 23846.00586 24591.33789
24492.0 0.0000408 23857.34180 24668.51953
24552.0 0.0000407 23868.63086 24790.01953
24670.0 0.0000405 23879.87109 24953.26758
24853.0 0.0000402 23891.06836 25150.86719
25122.0 0.0000398 23902.21680 25364.87305
25469.0 0.0000393 23913.31836 25563.94727
25819.0 0.0000387 23924.37305 25700.52148
26020.0 0.0000384 23935.38281 25732.43359
25937.0 0.0000386 23946.34180 25657.16211
25680.0 0.0000389 23957.25195 25517.29688
25417.0 0.0000393 23968.11328 25366.35352
25219.0 0.0000397 23978.92578 25242.90039
25102.0 0.0000398 23989.68945 25168.03711
25049.0 0.0000399 24000.40430 25149.52148
25096.0 0.0000398 24011.06836 25185.75977
25235.0 0.0000396 24021.68164 25264.31445
25469.0 0.0000393 24032.24219 25360.68359
25749.0 0.0000388 24042.75195 25439.69922
25927.0 0.0000386 24053.21289 25469.30273
25856.0 0.0000387 24063.61914 25438.07422
25661.0 0.0000390 24073.97461 25363.00781
25473.0 0.0000393 24084.27930 25273.45117
25344.0 0.0000395 24094.52734 25191.59180
25247.0 0.0000396 24104.72461 25127.60742
25170.0 0.0000397 24114.86914 25083.25586
25109.0 0.0000398 24124.95313 25052.33984
25050.0 0.0000399 24134.98633 25023.25781
24984.0 0.0000400 24144.96484 24986.66211
24933.0 0.0000401 24154.89063 24945.55859
24915.0 0.0000401 24164.75586 24911.39453
24891.0 0.0000402 24174.56445 24895.58203
24899.0 0.0000402 24184.31836 24905.39844
24938.0 0.0000401 24194.01367 24944.54492
24989.0 0.0000400 24203.65430 25014.14258
25085.0 0.0000399 24213.23828 25113.40430
25182.0 0.0000397 24222.76172 25239.20117
25291.0 0.0000395 24232.22852 25384.06641
25412.0 0.0000394 24241.63477 25534.19141
25504.0 0.0000392 24250.97656 25673.01367
25566.0 0.0000391 24260.26563 25788.94531
25622.0 0.0000390 24269.49219 25888.46484
25688.0 0.0000389 24278.65820 25985.27539
25764.0 0.0000388 24287.76563 26084.31836
25855.0 0.0000387 24296.81055 26173.09180
25944.0 0.0000385 24305.78906 26225.61719
26046.0 0.0000384 24314.70898 26217.00586
26113.0 0.0000383 24323.56641 26138.17383
26153.0 0.0000382 24332.35938 26000.82227
26107.0 0.0000383 24341.08594 25827.41406
25995.0 0.0000385 24349.75391 25640.34375
25836.0 0.0000387 24358.35742 25457.83594
25670.0 0.0000390 24366.89648 25293.04102
25512.0 0.0000392 24375.36719 25153.48828
25384.0 0.0000394 24383.77344 25041.58594
25259.0 0.0000396 24392.11328 24956.07813
25152.0 0.0000398 24400.38672 24893.48047
25080.0 0.0000399 24408.59375 24849.09766
25010.0 0.0000400 24416.73047 24818.14258
24949.0 0.0000401 24424.80273 24796.65430
24896.0 0.0000402 24432.80664 24782.77148
24855.0 0.0000402 24440.74023 24775.63281
24820.0 0.0000403 24448.60156 24775.43750
24787.0 0.0000403 24456.39844 24782.13867
24773.0 0.0000404 24464.12500 24796.30078
24772.0 0.0000404 24471.78125 24818.24609
24784.0 0.0000403 24479.36133 24849.62500
24801.0 0.0000403 24486.87500 24891.53125
24847.0 0.0000402 24494.31445 24945.72852
24896.0 0.0000402 24501.68359 25014.70508
24960.0 0.0000401 24508.97852 25103.06836
25035.0 0.0000399 24516.20117 25215.47461
25128.0 0.0000398 24523.34375 25363.11523
25260.0 0.0000396 24530.42188 25553.08789
25461.0 0.0000393 24537.41992 25789.83789
25787.0 0.0000388 24544.34180 26066.91992
26254.0 0.0000381 24551.19336 26362.60938
26816.0 0.0000373 24557.96484 26634.27148
27281.0 0.0000367 24564.66016 26823.26953
27387.0 0.0000365 24571.27734 26884.32813
27119.0 0.0000369 24577.81836 26817.73242
26699.0 0.0000375 24584.28320 26663.41797
26310.0 0.0000380 24590.66797 26464.15234
25999.0 0.0000385 24596.97070 26249.38867
25750.0 0.0000388 24603.19922 26035.77734
25559.0 0.0000391 24609.34375 25832.92969
25390.0 0.0000394 24615.41016 25648.33789
25254.0 0.0000396 24621.39453 25488.14844
25151.0 0.0000398 24627.29492 25355.36328
25063.0 0.0000399 24633.11914 25249.25586
25005.0 0.0000400 24638.85742 25166.81641
24953.0 0.0000401 24644.51172 25104.19727
24905.0 0.0000402 24650.08398 25057.75195
24894.0 0.0000402 24655.57227 25024.25000
24866.0 0.0000402 24660.97266 25000.90625
24854.0 0.0000402 24666.29297 24985.17383
24842.0 0.0000403 24671.52734 24974.61133
24833.0 0.0000403 24676.67773 24966.57422
24823.0 0.0000403 24681.73438 24958.20117
24815.0 0.0000403 24686.70898 24946.44531
24821.0 . . .
24839.0 . . .
24857.0 . . .
24874.0 . . .
24903.0 . . .
24933.0 . . .
24975.0 . . .
25023.0 . . .
25095.0 . . .
25187.0 . . .
25316.0 . . .
25502.0 . . .
25773.0 . . .
26129.0 . . .
26478.0 . . .
26623.0 . . .
26465.0 . . .
26158.0 . . .
25890.0 . . .
25704.0 . . .
25605.0 . . .
25564.0 . . .
25541.0 . . .
25532.0 . . .
25509.0 . . .
25468.0 . . .
25422.0 . . .
25388.0 . . .
25383.0 . . .
25389.0 . . .
25381.0 . . .
25389.0 . . .
25408.0 . . .
25439.0 . . .
25463.0 . . .
25503.0 . . .
25568.0 . . .
25647.0 . . .
25714.0 . . .
25791.0 . . .
25879.0 . . .
25954.0 . . .
26011.0 . . .
26062.0 . . .
26086.0 . . .
26087.0 . . .
26098.0 . . .
26132.0 . . .
26167.0 . . .
26212.0 . . .
26271.0 . . .
26321.0 . . .
26346.0 . . .
26334.0 . . .
26300.0 . . .
26279.0 . . .
26238.0 . . .
26172.0 . . .
26130.0 . . .
26107.0 . . .
26097.0 . . .
26096.0 . . .
26098.0 . . .
26085.0 . . .
26072.0 . . .
26057.0 . . .
26053.0 . . .
26082.0 . . .
26133.0 . . .
26212.0 . . .
26303.0 . . .
26442.0 . . .
26608.0 . . .
26796.0 . . .
26992.0 . . .
27158.0 . . .
27243.0 . . .
27224.0 . . .
27154.0 . . .
27080.0 . . .
26999.0 . . .
26918.0 . . .
26846.0 . . .
26792.0 . . .
26747.0 . . .
26721.0 . . .
26694.0 . . .
26655.0 . . .
26591.0 . . .
26527.0 . . .
26456.0 . . .
26403.0 . . .
26364.0 . . .
26331.0 . . .
26324.0 . . .
26327.0 . . .
26344.0 . . .
26368.0 . . .
26401.0 . . .
26449.0 . . .
26500.0 . . .
26562.0 . . .
26618.0 . . .
26700.0 . . .
26795.0 . . .
26899.0 . . .
27019.0 . . .
27128.0 . . .
27245.0 . . .
27374.0 . . .
27474.0 . . .
27523.0 . . .
27493.0 . . .
27412.0 . . .
27308.0 . . .
27228.0 . . .
27187.0 . . .
27215.0 . . .
27284.0 . . .
27429.0 . . .
27599.0 . . .
27700.0 . . .
27658.0 . . .
27540.0 . . .
27451.0 . . .
27400.0 . . .
27343.0 . . .
27299.0 . . .
27258.0 . . .
27241.0 . . .
27224.0 . . .
27245.0 . . .
27303.0 . . .
27393.0 . . .
27506.0 . . .
27646.0 . . .
27826.0 . . .
28044.0 . . .
28300.0 . . .
28585.0 . . .
28867.0 . . .
29069.0 . . .
29136.0 . . .
29076.0 . . .
28957.0 . . .
28806.0 . . .
28619.0 . . .
28396.0 . . .
28188.0 . . .
28012.0 . . .
27869.0 . . .
27722.0 . . .
27589.0 . . .
27486.0 . . .
27367.0 . . .
27254.0 . . .
27152.0 . . .
27066.0 . . .
27010.0 . . .
26952.0 . . .
26921.0 . . .
26903.0 . . .
26871.0 . . .
26841.0 . . .
26816.0 . . .
26789.0 . . .
26776.0 . . .
26740.0 . . .
26683.0 . . .
26621.0 . . .
26536.0 . . .
26453.0 . . .
26370.0 . . .
26485.0 . . .
26572.0 . . .
26615.0 . . .
26653.0 . . .
26700.0 . . .
26767.0 . . .
26848.0 . . .
26934.0 . . .
26997.0 . . .
27023.0 . . .
27034.0 . . .
27049.0 . . .
27064.0 . . .
27082.0 . . .
27095.0 . . .
27103.0 . . .
27087.0 . . .
27075.0 . . .
27057.0 . . .
27061.0 . . .
27074.0 . . .
27104.0 . . .
27141.0 . . .
27179.0 . . .
27235.0 . . .
27292.0 . . .
27383.0 . . .
27430.0 . . .
27437.0 . . .
27430.0 . . .
27423.0 . . .
27426.0 . . .
27449.0 . . .
27512.0 . . .
27602.0 . . .
27720.0 . . .
27825.0 . . .
27900.0 . . .
27930.0 . . .
27960.0 . . .
27985.0 . . .
28016.0 . . .
28060.0 . . .
28114.0 . . .
28184.0 . . .
28253.0 . . .
28341.0 . . .
28451.0 . . .
28580.0 . . .
28719.0 . . .
28845.0 . . .
28965.0 . . .
29054.0 . . .
29158.0 . . .
29314.0 . . .
29545.0 . . .
29886.0 . . .
30284.0 . . .
30615.0 . . .
30733.0 . . .
30611.0 . . .
30360.0 . . .
30078.0 . . .
29756.0 . . .
29405.0 . . .
29044.0 . . .
28722.0 . . .
28455.0 . . .
28234.0 . . .
28032.0 . . .
27873.0 . . .
27754.0 . . .
27626.0 . . .
27515.0 . . .
27406.0 . . .
27333.0 . . .
27266.0 . . .
27230.0 . . .
27195.0 . . .
27152.0 . . .
27132.0 . . .
27126.0 . . .
27121.0 . . .
27124.0 . . .
27119.0 . . .
27129.0 . . .
27141.0 . . .
27150.0 . . .
27173.0 . . .
27196.0 . . .
27254.0 . . .
27324.0 . . .
27397.0 . . .
27473.0 . . .
27563.0 . . .
27652.0 . . .
27754.0 . . .
27899.0 . . .
28067.0 . . .
28267.0 . . .
28448.0 . . .
28593.0 . . .
28603.0 . . .
28506.0 . . .
28337.0 . . .
28178.0 . . .
28018.0 . . .
27888.0 . . .
27788.0 . . .
27727.0 . . .
27689.0 . . .
27663.0 . . .
27665.0 . . .
27663.0 . . .
27673.0 . . .
27691.0 . . .
27731.0 . . .
27758.0 . . .
27809.0 . . .
27844.0 . . .
27878.0 . . .
27966.0 . . .
28012.0 . . .
28047.0 . . .
28083.0 . . .
28114.0 . . .
28146.0 . . .
28171.0 . . .
28182.0 . . .
28205.0 . . .
28208.0 . . .
28225.0 . . .
28240.0 . . .
28250.0 . . .
28285.0 . . .
28312.0 . . .
28311.0 . . .
28302.0 . . .
28265.0 . . .
28230.0 . . .
28209.0 . . .
28210.0 . . .
28245.0 . . .
28296.0 . . .
28278.0 . . .
28183.0 . . .
28069.0 . . .
27954.0 . . .
27885.0 . . .
27838.0 . . .
27794.0 . . .
27760.0 . . .
27751.0 . . .
27731.0 . . .
27739.0 . . .
27771.0 . . .
27818.0 . . .
27881.0 . . .
27961.0 . . .
28024.0 . . .
28075.0 . . .
28083.0 . . .
28080.0 . . .
28065.0 . . .
28072.0 . . .
28082.0 . . .
28100.0 . . .
28141.0 . . .
28187.0 . . .
28201.0 . . .
28198.0 . . .
28196.0 . . .
28195.0 . . .
28198.0 . . .
28214.0 . . .
28229.0 . . .
28268.0 . . .
28318.0 . . .
28358.0 . . .
28427.0 . . .
28478.0 . . .
28527.0 . . .
28567.0 . . .
28563.0 . . .
28559.0 . . .
28551.0 . . .
28555.0 . . .
28542.0 . . .
28534.0 . . .
28551.0 . . .
28570.0 . . .
28575.0 . . .
28588.0 . . .
28577.0 . . .
28558.0 . . .
28538.0 . . .
28555.0 . . .
28563.0 . . .
28593.0 . . .
28639.0 . . .
28699.0 . . .
28770.0 . . .
28811.0 . . .
28857.0 . . .
28927.0 . . .
29010.0 . . .
29077.0 . . .
29112.0 . . .
29121.0 . . .
29083.0 . . .
28997.0 . . .
28878.0 . . .
28750.0 . . .
28621.0 . . .
28500.0 . . .
28402.0 . . .
28309.0 . . .
28238.0 . . .
28189.0 . . .
28152.0 . . .
28122.0 . . .
28092.0 . . .
28053.0 . . .
28045.0 . . .
28050.0 . . .
28032.0 . . .
28023.0 . . .
28021.0 . . .
28023.0 . . .
28049.0 . . .
28079.0 . . .
28119.0 . . .
28173.0 . . .
28228.0 . . .
28304.0 . . .
28387.0 . . .
28475.0 . . .
28557.0 . . .
28642.0 . . .
28731.0 . . .
28780.0 . . .
28777.0 . . .
28737.0 . . .
28667.0 . . .
28595.0 . . .
28523.0 . . .
28461.0 . . .
28399.0 . . .
28350.0 . . .
28306.0 . . .
28255.0 . . .
28224.0 . . .
28237.0 . . .
28250.0 . . .
28240.0 . . .
28237.0 . . .
28249.0 . . .
28219.0 . . .
28237.0 . . .
28253.0 . . .
28227.0 . . .
28211.0 . . .
28193.0 . . .
28172.0 . . .
28174.0 . . .
28169.0 . . .
28202.0 . . .
28218.0 . . .
28218.0 . . .
28198.0 . . .
28203.0 . . .
28205.0 . . .
28189.0 . . .
28180.0 . . .
28175.0 . . .
28189.0 . . .
28211.0 . . .
28235.0 . . .
28251.0 . . .
28276.0 . . .
28303.0 . . .
28353.0 . . .
28368.0 . . .
28391.0 . . .
28398.0 . . .
28406.0 . . .
28431.0 . . .
28486.0 . . .
28528.0 . . .
28565.0 . . .
28622.0 . . .
28654.0 . . .
28694.0 . . .
28707.0 . . .
28713.0 . . .
28742.0 . . .
28754.0 . . .
28771.0 . . .
28786.0 . . .
28804.0 . . .
28821.0 . . .
28856.0 . . .
28875.0 . . .
28892.0 . . .
28914.0 . . .
28917.0 . . .
28958.0 . . .
29020.0 . . .
29042.0 . . .
29059.0 . . .
29042.0 . . .
29016.0 . . .
28984.0 . . .
28982.0 . . .
29013.0 . . .
29013.0 . . .
29007.0 . . .
29052.0 . . .
29097.0 . . .
29163.0 . . .
29263.0 . . .
29363.0 . . .
29419.0 . . .
29509.0 . . .
29605.0 . . .
29645.0 . . .
29628.0 . . .
29555.0 . . .
29413.0 . . .
29252.0 . . .
29098.0 . . .
29000.0 . . .
28928.0 . . .
28855.0 . . .
28793.0 . . .
28754.0 . . .
28713.0 . . .
28706.0 . . .
28676.0 . . .
28650.0 . . .
28620.0 . . .
28597.0 . . .
28616.0 . . .
28625.0 . . .
28614.0 . . .
28633.0 . . .
28660.0 . . .
28651.0 . . .
28638.0 . . .
28641.0 . . .
28644.0 . . .
28642.0 . . .
28660.0 . . .
28672.0 . . .
28693.0 . . .
28730.0 . . .
28751.0 . . .
28763.0 . . .
28780.0 . . .
28796.0 . . .
28804.0 . . .
28784.0 . . .
28762.0 . . .
28784.0 . . .
28814.0 . . .
28813.0 . . .
28809.0 . . .
28795.0 . . .
28782.0 . . .
28772.0 . . .
28791.0 . . .
28798.0 . . .
28821.0 . . .
28835.0 . . .
28892.0 . . .
28926.0 . . .
28954.0 . . .
29021.0 . . .
29075.0 . . .
29124.0 . . .
29196.0 . . .
29260.0 . . .
29270.0 . . .
29248.0 . . .
29226.0 . . .
29230.0 . . .
29192.0 . . .
29166.0 . . .
29152.0 . . .
29150.0 . . .
29117.0 . . .
29122.0 . . .
29139.0 . . .
29145.0 . . .
29143.0 . . .
29143.0 . . .
29130.0 . . .
29098.0 . . .
29039.0 . . .
28992.0 . . .
28961.0 . . .
28936.0 . . .
28917.0 . . .
28917.0 . . .
28941.0 . . .
28954.0 . . .
28980.0 . . .
28983.0 . . .
29010.0 . . .
29029.0 . . .
29072.0 . . .
29111.0 . . .
29150.0 . . .
29220.0 . . .
29238.0 . . .
29291.0 . . .
29353.0 . . .
29374.0 . . .
29416.0 . . .
29468.0 . . .
29454.0 . . .
29442.0 . . .
29420.0 . . .
29443.0 . . .
29442.0 . . .
29396.0 . . .
29342.0 . . .
29302.0 . . .
29252.0 . . .
29208.0 . . .
29197.0 . . .
29165.0 . . .
29121.0 . . .
29097.0 . . .
29068.0 . . .
29065.0 . . .
29081.0 . . .
29087.0 . . .
29090.0 . . .
29145.0 . . .
29180.0 . . .
29180.0 . . .
29176.0 . . .
29181.0 . . .
29151.0 . . .
29147.0 . . .
29128.0 . . .
29147.0 . . .
29156.0 . . .
29201.0 . . .
29246.0 . . .
29339.0 . . .
29439.0 . . .
29572.0 . . .
29682.0 . . .
29795.0 . . .
29904.0 . . .
30009.0 . . .
29986.0 . . .
29895.0 . . .
29815.0 . . .
29728.0 . . .
29654.0 . . .
29607.0 . . .
29525.0 . . .
29445.0 . . .
29463.0 . . .
29470.0 . . .
29439.0 . . .
29436.0 . . .
29445.0 . . .
29420.0 . . .
29406.0 . . .
29338.0 . . .
29282.0 . . .
29248.0 . . .
29250.0 . . .
29226.0 . . .
29203.0 . . .
29151.0 . . .
29148.0 . . .
29146.0 . . .
29130.0 . . .
29153.0 . . .
29166.0 . . .
29216.0 . . .
29259.0 . . .
29324.0 . . .
29373.0 . . .
29469.0 . . .
29574.0 . . .
29660.0 . . .
29705.0 . . .
29767.0 . . .
29799.0 . . .
29837.0 . . .
29862.0 . . .
29870.0 . . .
29952.0 . . .
30028.0 . . .
30131.0 . . .
30219.0 . . .
30419.0 . . .
30588.0 . . .
30732.0 . . .
30890.0 . . .
30989.0 . . .
30996.0 . . .
30890.0 . . .
30717.0 . . .
30467.0 . . .
30232.0 . . .
30017.0 . . .
29833.0 . . .
29678.0 . . .
29554.0 . . .
29445.0 . . .
29324.0 . . .
29261.0 . . .
29230.0 . . .
29180.0 . . .
29150.0 . . .
29122.0 . . .
29094.0 . . .
29105.0 . . .
29104.0 . . .
29106.0 . . .
29137.0 . . .
29151.0 . . .
29126.0 . . .
29146.0 . . .
29172.0 . . .
29200.0 . . .
29195.0 . . .
29221.0 . . .
29237.0 . . .
29210.0 . . .
29256.0 . . .
29320.0 . . .
29365.0 . . .
29379.0 . . .
29419.0 . . .
29438.0 . . .
29421.0 . . .
29432.0 . . .
29420.0 . . .
29392.0 . . .
29423.0 . . .
29424.0 . . .
29449.0 . . .
29463.0 . . .
29457.0 . . .
29443.0 . . .
29451.0 . . .
29516.0 . . .
29498.0 . . .
29558.0 . . .
29624.0 . . .
29586.0 . . .
29592.0 . . .
29583.0 . . .
29566.0 . . .
29564.0 . . .
29514.0 . . .
29546.0 . . .
29533.0 . . .
29551.0 . . .
29564.0 . . .
29527.0 . . .
29559.0 . . .
29596.0 . . .
29614.0 . . .
29635.0 . . .
29684.0 . . .
29700.0 . . .
29742.0 . . .
29768.0 . . .
29839.0 . . .
29852.0 . . .
29904.0 . . .
29963.0 . . .
29985.0 . . .
30052.0 . . .
30022.0 . . .
30020.0 . . .
30025.0 . . .
30019.0 . . .
30103.0 . . .
30120.0 . . .
30162.0 . . .
30215.0 . . .
30201.0 . . .
30260.0 . . .
30323.0 . . .
30372.0 . . .
30414.0 . . .
30399.0 . . .
30536.0 . . .
30570.0 . . .
30571.0 . . .
30608.0 . . .
30613.0 . . .
30658.0 . . .
30759.0 . . .
30818.0 . . .
30945.0 . . .
31044.0 . . .
31093.0 . . .
31138.0 . . .
31143.0 . . .
31127.0 . . .
31108.0 . . .
31073.0 . . .
31104.0 . . .
31133.0 . . .
31102.0 . . .
31049.0 . . .
30984.0 . . .
30939.0 . . .
30939.0 . . .
30826.0 . . .
30905.0 . . .
30864.0 . . .
30865.0 . . .
31009.0 . . .
31081.0 . . .
31076.0 . . .
31149.0 . . .
31080.0 . . .
31089.0 . . .
31005.0 . . .
30896.0 . . .
30896.0 . . .
30896.0 . . .
30922.0 . . .
30798.0 . . .
30758.0 . . .
30662.0 . . .
30676.0 . . .
30642.0 . . .
30538.0 . . .
30596.0 . . .
30568.0 . . .
30625.0 . . .
30603.0 . . .
30578.0 . . .
30538.0 . . .
30470.0 . . .
30457.0 . . .
30481.0 . . .
30349.0 . . .
30406.0 . . .
30451.0 . . .
30295.0 . . .
30241.0 . . .
30264.0 . . .
30156.0 . . .
30207.0 . . .
30202.0 . . .
30064.0 . . .
30125.0 . . .
30094.0 . . .
29959.0 . . .
29951.0 . . .
29860.0 . . .
29715.0 . . .
29766.0 . . .
29626.0 . . .
29498.0 . . .
29621.0 . . .
29463.0 . . .
29356.0 . . .
29409.0 . . .
29226.0 . . .
29252.0 . . .
29407.0 . . .
29270.0 . . .
29166.0 . . .
29247.0 . . .
29223.0 . . .
29187.0 . . .
29503.0 . . .
29783.0 . . .
29617.0 . . .
29712.0 . . .
29645.0 . . .
29563.0 . . .
29648.0 . . .
29366.0 . . .
28998.0 . . .
29201.0 . . .
29005.0 . . .
28718.0 . . .
28730.0 . . .
28369.0 . . .
28406.0 . . .
28901.0 . . .
28798.0 . . .
29941.0 . . .
30807.0 . . .
30880.0 . . .
31043.0 . . .
31104.0 . . .
31048.0 . . .
30771.0 . . .
30777.0 . . .
30809.0 . . .
30351.0 . . .
30444.0 . . .
30572.0 . . .
30557.0 . . .
30503.0 . . .
30430.0 . . .
30848.0 . . .
31412.0 . . .
31984.0 . . .
32675.0 . . .
loop_
_refln_index_h
_refln_index_k
_refln_index_l
_refln_observed_status
_refln_F_squared_meas
_refln_F_squared_calc
_refln_phase_calc
_refln_d_spacing
_gsas_i100_meas
0 0 2 o 602.394 520.144 0.00 7.46184 0.06
0 2 0 o 20527.943 20638.543 0.00 6.91028 81.24
0 1 2 o 4638.951 4363.384 0.00 6.56597 11.97
0 2 1 o 1247.206 1166.597 0.00 6.27066 6.07
0 2 2 o 2843.441 2762.468 0.00 5.07010 5.85
0 1 3 o 6855.852 7101.074 0.00 4.68059 6.56
0 3 1 o 115.360 288.017 180.00 4.40189 0.32
1 0 0 o 25776.229 25985.553 180.00 3.79152 38.10
0 2 3 o 3480.574 4334.966 0.00 4.03726 3.81
1 1 0 o 27.187 32.527 180.00 3.65642 0.06
1 1 1 o 206.230 244.646 180.00 3.65237 0.14
0 3 2 o 1376.671 1857.202 0.00 3.91995 2.22
1 1 -1 o 2897.989 2789.012 180.00 3.45833 3.83
1 0 2 o 22048.018 22440.488 180.00 3.56067 17.62
0 0 4 o 490.236 531.569 180.00 3.73092 0.01
1 1 2 o 517.947 489.740 0.00 3.44808 0.43
0 1 4 o 888.352 880.501 0.00 3.60198 0.36
1 0 -2 o 0.000 900.181 0.00 3.22463 0.00
1 2 0 o 28465.936 28126.492 180.00 3.32404 70.12
1 2 1 o 14179.459 14020.059 180.00 3.32100 20.57
0 4 0 o 23217.375 23185.973 0.00 3.45514 23.00
0 3 3 o 8777.252 8101.891 0.00 3.38006 8.03
0 4 1 o 2660.687 2446.841 0.00 3.36610 4.60
1 2 -1 o 4267.406 4259.288 0.00 3.17312 7.15
1 1 -2 o 0.000 78.331 180.00 3.14028 0.00
0 2 4 o 11164.534 11558.220 180.00 3.28298 7.21
1 2 2 o 65253.55 66090.45 180.00 3.16519 100.00
1 1 3 o 0.000 8.045 180.00 3.12751 0.00
0 4 2 o 3106.263 3346.260 0.00 3.13533 3.78
1 2 -2 o 0.000 1011.841 180.00 2.92213 0.00
1 3 0 o 6222.599 6366.297 0.00 2.92752 12.28
1 3 1 o 14142.091 14473.009 0.00 2.92544 22.19
1 2 3 o 5012.660 5260.160 180.00 2.91183 2.50
1 1 -3 o 3801.631 3968.116 180.00 2.79312 3.15
0 1 5 o 594.880 611.317 0.00 2.91748 0.12
1 0 4 o 0.000 11637.505 0.00 2.83859 0.00
0 3 4 o 2612.900 2925.110 0.00 2.89936 1.54
1 3 -1 o 2805.585 2774.440 180.00 2.82285 4.96
1 3 2 o 2318.547 2290.885 180.00 2.81726 4.37
1 1 4 o 0.000 56.717 0.00 2.78055 0.00
0 4 3 o 21988.879 22007.756 0.00 2.83779 17.19
1 2 -3 o 0.000 337.358 0.00 2.63628 0.00
0 2 5 o 1520.627 1833.518 0.00 2.74007 0.59
0 5 1 o 105.032 109.602 180.00 2.71789 0.12
1 3 -2 o 0.000 1419.982 180.00 2.64176 0.00
1 3 3 o 22444.945 23091.010 180.00 2.63414 29.06
1 2 4 o 2622.692 2802.647 0.00 2.62569 0.54
1 0 -4 o 19060.404 18700.367 0.00 2.51023 2.85
1 4 0 o 9419.060 8945.583 180.00 2.55381 10.11
1 4 1 o 399.056 377.837 180.00 2.55243 0.40
0 5 2 o 40.291 48.152 180.00 2.59199 0.04
0 4 4 o 10945.168 11051.904 180.00 2.53505 5.64
1 1 -4 o 1929.494 2179.665 0.00 2.46982 0.63
0 3 5 o 378.107 370.292 180.00 2.50495 0.15
1 4 -1 o 19945.865 20415.982 0.00 2.48343 22.99
1 4 2 o 6639.584 6919.524 180.00 2.47962 8.91
1 1 5 o 3307.477 3868.376 180.00 2.45864 1.83
0 0 6 o 42777.50 43319.56 180.00 2.48728 0.48
1 3 -3 o 0.000 227.130 0.00 2.42491 0.00
1 3 4 o 498.650 475.935 180.00 2.41666 0.29
0 5 3 o 57.890 55.256 0.00 2.41617 0.04
1 2 -4 o 37774.29 36052.73 0.00 2.35938 13.49
0 1 6 o 4231.102 4266.634 0.00 2.44795 0.46
1 4 -2 o 70.987 68.691 180.00 2.35744 0.01
1 4 3 o 11051.448 10886.768 180.00 2.35202 12.66
1 2 5 o 4821.039 4783.702 180.00 2.34963 2.61
0 2 6 o 21088.916 21352.057 180.00 2.34030 5.06
0 6 0 o 8606.064 9041.974 0.00 2.30343 3.80
0 6 1 o 314.100 312.026 0.00 2.27647 0.26
0 4 5 o 374.699 360.695 180.00 2.25867 0.14
1 5 0 o 271.142 223.728 0.00 2.23357 0.19
1 5 1 o 91.736 75.407 0.00 2.23265 0.07
1 1 -5 o 0.000 564.480 180.00 2.18913 0.00
0 5 4 o 3006.272 2687.642 0.00 2.22099 1.38
1 0 6 o 9242.241 8776.207 0.00 2.20724 1.58
1 3 -4 o 9341.405 8956.308 0.00 2.20424 3.60
0 6 2 o 1682.636 1625.778 180.00 2.20095 1.17
1 4 -3 o 0.000 3668.015 0.00 2.19947 0.00
1 3 5 o 71.152 69.741 180.00 2.19628 0.03
1 4 4 o 10068.151 9958.013 0.00 2.19332 5.83
0 3 6 o 9448.243 9694.908 0.00 2.18866 2.72
1 5 -1 o 107.001 114.407 180.00 2.18603 0.08
1 5 2 o 963.871 1075.231 0.00 2.18343 0.89
1 1 6 o 2858.665 3406.424 180.00 2.17962 1.35
1 2 -5 o 0.000 396.768 0.00 2.11112 0.00
0 1 7 o 9004.600 7299.800 180.00 2.10703 0.58
1 2 6 o 12128.678 10388.063 0.00 2.10258 7.37
1 5 -2 o 4910.882 4368.694 0.00 2.09862 1.99
1 5 3 o 551.074 506.403 180.00 2.09480 0.45
0 6 3 o 58134.90 53987.28 0.00 2.09022 31.54
0 2 7 o 2877.557 3909.740 180.00 2.03720 0.44
1 4 -4 o 19000.678 21666.338 0.00 2.03084 8.50
0 5 5 o 948.106 1056.359 0.00 2.02804 0.31
1 4 5 o 7143.174 8166.724 180.00 2.02461 1.56
0 4 6 o 5240.910 6632.461 180.00 2.01863 1.44
1 0 -6 o 0.000 6412.561 0.00 1.97201 0.00
1 3 -5 o 29.054 64.554 180.00 1.99780 0.01
1 3 6 o 5089.139 8857.810 180.00 1.99056 2.34
1 5 -3 o 758.509 1176.851 180.00 1.98486 0.18
1 1 -6 o 0.000 2050.604 180.00 1.95224 0.00
1 5 4 o 689.643 1058.663 180.00 1.98033 0.30
1 6 0 o 4309.066 3921.365 180.00 1.96861 2.76
1 6 1 o 914.265 829.326 180.00 1.96798 0.63
2 0 0 o 3854.952 3892.520 0.00 1.89576 1.43
0 6 4 o 1243.893 1628.120 180.00 1.95998 0.50
2 0 2 o 33443.730 34217.355 0.00 1.89350 6.93
2 1 1 o 1391.779 1436.156 0.00 1.89210 0.35
0 7 1 o 384.716 583.246 180.00 1.95731 0.24
1 1 7 o 0.000 8630.290 0.00 1.94426 0.00
2 1 0 o 406.578 443.439 0.00 1.87817 0.26
2 1 2 o 1.659 1.788 0.00 1.87598 0.00
1 6 -1 o 12120.761 13956.216 0.00 1.93583 7.67
0 3 7 o 2474.812 2836.554 180.00 1.93481 0.51
1 6 2 o 2252.590 2606.398 180.00 1.93402 1.66
1 2 -6 o 0.000 8782.967 0.00 1.89631 0.00
0 7 2 o 53.029 57.010 180.00 1.90868 0.03
2 2 1 o 1849.938 1889.179 180.00 1.84105 0.31
2 1 -1 o 856.440 897.071 180.00 1.83611 0.81
2 1 3 o 43.202 45.089 180.00 1.83201 0.02
2 2 0 o 11304.896 11109.336 0.00 1.82821 5.78
1 2 7 o 808.155 845.038 0.00 1.88899 0.22
2 2 2 o 11692.574 10943.055 0.00 1.82618 1.95
1 6 -2 o 507.461 540.861 0.00 1.87434 0.24
1 6 3 o 8386.486 8529.926 180.00 1.87161 5.31
1 4 -5 o 574.646 564.480 180.00 1.86599 0.30
0 0 8 o 369.332 362.190 180.00 1.86546 0.00
1 4 6 o 5245.731 4848.656 0.00 1.86008 0.80
1 5 -4 o 7031.473 6384.638 0.00 1.85829 3.57
1 5 5 o 5677.543 5179.735 180.00 1.85351 0.46
0 5 6 o 5830.071 5594.068 0.00 1.84892 1.46
0 1 8 o 228.253 219.529 180.00 1.84870 0.01
2 2 -1 o 1006.687 1100.030 180.00 1.78934 0.76
2 0 -2 o 4679.905 5469.803 180.00 1.78598 1.22
1 3 -6 o 265.193 216.268 0.00 1.81290 0.03
0 7 3 o 3931.601 4210.816 0.00 1.83511 1.76
2 1 -2 o 0.069 0.107 180.00 1.77126 0.00
0 6 5 o 1705.670 1465.266 180.00 1.82354 0.51
0 4 7 o 676.100 529.244 180.00 1.81436 0.14
2 2 3 o 2212.576 2612.349 0.00 1.78555 0.62
2 0 4 o 45.616 61.152 180.00 1.78034 0.01
1 3 7 o 16.746 17.161 0.00 1.80650 0.01
0 2 8 o 2777.580 3251.661 0.00 1.80099 0.28
1 6 -3 o 16913.279 17788.504 0.00 1.79196 6.42
1 6 4 o 1399.237 1519.933 0.00 1.78862 0.50
