#------------------------------------------------------------------------------
#$Date: 2017-10-13 14:42:48 +0300 (Fri, 13 Oct 2017) $
#$Revision: 201982 $
#$URL: file:///home/coder/svn-repositories/cod/cif/4/50/62/4506228.cif $
#------------------------------------------------------------------------------
#
# This file is available in the Crystallography Open Database (COD),
# http://www.crystallography.net/
#
# All data on this site have been placed in the public domain by the
# contributors.
#
data_4506228
loop_
_publ_author_name
'Jali, Bigyan R.'
'Baruah, Jubaraj B.'
_publ_section_title
;
 Polymorphs and Solvates of
 2-(1,4-Dihydro-1,4-dioxonaphthalen-3-ylthio)benzoic Acid
;
_journal_issue                   6
_journal_name_full               'Crystal Growth &amp; Design'
_journal_page_first              3114
_journal_paper_doi               10.1021/cg300318u
_journal_volume                  12
_journal_year                    2012
_chemical_formula_sum            'C18 H12 O4 S'
_chemical_formula_weight         324.35
_chemical_name_systematic
; 
 ? 
;
_space_group_IT_number           2
_symmetry_cell_setting           triclinic
_symmetry_space_group_name_Hall  '-P 1'
_symmetry_space_group_name_H-M   'P -1'
_atom_sites_solution_hydrogens   geom
_atom_sites_solution_primary     direct
_atom_sites_solution_secondary   difmap
_audit_creation_method           SHELXL-97
_cell_angle_alpha                89.025(4)
_cell_angle_beta                 83.942(4)
_cell_angle_gamma                73.130(4)
_cell_formula_units_Z            2
_cell_length_a                   4.7815(4)
_cell_length_b                   7.9307(5)
_cell_length_c                   20.8530(15)
_cell_measurement_reflns_used    3033
_cell_measurement_temperature    296(2)
_cell_measurement_theta_max      22.44
_cell_measurement_theta_min      2.68
_cell_volume                     752.43(10)
_computing_structure_refinement  'SHELXL-97 (Sheldrick, 1997)'
_computing_structure_solution    'SHELXS-97 (Sheldrick, 1990)'
_diffrn_ambient_temperature      296(2)
_diffrn_measured_fraction_theta_full 1.000
_diffrn_measured_fraction_theta_max 1.000
_diffrn_radiation_monochromator  graphite
_diffrn_radiation_source         'fine-focus sealed tube'
_diffrn_radiation_type           MoK\a
_diffrn_radiation_wavelength     0.71073
_diffrn_reflns_av_R_equivalents  0.0230
_diffrn_reflns_av_sigmaI/netI    0.0228
_diffrn_reflns_limit_h_max       5
_diffrn_reflns_limit_h_min       -5
_diffrn_reflns_limit_k_max       9
_diffrn_reflns_limit_k_min       -9
_diffrn_reflns_limit_l_max       24
_diffrn_reflns_limit_l_min       -24
_diffrn_reflns_number            7534
_diffrn_reflns_theta_full        25.00
_diffrn_reflns_theta_max         25.00
_diffrn_reflns_theta_min         0.98
_exptl_absorpt_coefficient_mu    0.233
_exptl_absorpt_correction_T_max  0.959
_exptl_absorpt_correction_T_min  0.935
_exptl_absorpt_correction_type   multi-scan
_exptl_absorpt_process_details   multi-scan
_exptl_crystal_colour            red
_exptl_crystal_density_diffrn    1.432
_exptl_crystal_density_method    'not measured'
_exptl_crystal_description       Block
_exptl_crystal_F_000             336
_exptl_crystal_size_max          0.36
_exptl_crystal_size_mid          0.24
_exptl_crystal_size_min          0.18
_refine_diff_density_max         0.195
_refine_diff_density_min         -0.217
_refine_diff_density_rms         0.059
_refine_ls_extinction_method     none
_refine_ls_goodness_of_fit_ref   1.161
_refine_ls_hydrogen_treatment    constr
_refine_ls_matrix_type           full
_refine_ls_number_parameters     210
_refine_ls_number_reflns         2666
_refine_ls_number_restraints     0
_refine_ls_restrained_S_all      1.161
_refine_ls_R_factor_all          0.0431
_refine_ls_R_factor_gt           0.0330
_refine_ls_shift/su_max          0.005
_refine_ls_shift/su_mean         0.001
_refine_ls_structure_factor_coef Fsqd
_refine_ls_weighting_details
'calc w=1/[\s^2^(Fo^2^)+(0.0654P)^2^+0.1371P] where P=(Fo^2^+2Fc^2^)/3'
_refine_ls_weighting_scheme      calc
_refine_ls_wR_factor_gt          0.0961
_refine_ls_wR_factor_ref         0.1166
_reflns_number_gt                1635
_reflns_number_total             2666
_reflns_threshold_expression     >2sigma(I)
_cod_data_source_file            cg300318u_si_002.cif
_cod_data_source_block           bhai
_cod_depositor_comments
;
The following automatic conversions were performed:

'_symmetry_cell_setting' value 'Triclinic' changed to 'triclinic'
according to /home/saulius/struct/CIF-dictionaries/cif_core.dic
dictionary named 'cif_core.dic' version 2.4.1 from 2010-06-29.

Automatic conversion script
Id: cif_fix_values 1891 2012-01-12 08:04:46Z andrius 
;
_cod_original_sg_symbol_H-M      'P-1   '
_cod_database_code               4506228
loop_
_symmetry_equiv_pos_as_xyz
'x, y, z'
'-x, -y, -z'
loop_
_atom_site_label
_atom_site_type_symbol
_atom_site_fract_x
_atom_site_fract_y
_atom_site_fract_z
_atom_site_U_iso_or_equiv
_atom_site_adp_type
_atom_site_occupancy
_atom_site_symmetry_multiplicity
_atom_site_calc_flag
_atom_site_refinement_flags
S1 S 0.84842(16) 1.05303(8) 0.17235(3) 0.0502(3) Uani 1 1 d .
C10 C 0.7239(6) 0.8392(3) 0.35286(11) 0.0446(7) Uani 1 1 d .
C9 C 0.4684(6) 0.9593(3) 0.38076(12) 0.0478(7) Uani 1 1 d .
C4 C 0.8431(7) 0.6834(4) 0.38383(14) 0.0647(8) Uani 1 1 d .
H4 H 1.0148 0.6030 0.3655 0.078 Uiso 1 1 calc R
C1 C 0.3378(7) 0.9228(4) 0.43973(13) 0.0671(9) Uani 1 1 d .
H1 H 0.1684 1.0037 0.4588 0.081 Uiso 1 1 calc R
C3 C 0.7067(8) 0.6470(5) 0.44217(16) 0.0754(10) Uani 1 1 d .
H3 H 0.7840 0.5409 0.4625 0.090 Uiso 1 1 calc R
C2 C 0.4574(9) 0.7678(5) 0.47005(15) 0.0765(10) Uani 1 1 d .
H2 H 0.3692 0.7444 0.5098 0.092 Uiso 1 1 calc R
C6 C 0.4506(6) 1.1481(3) 0.27950(12) 0.0450(7) Uani 1 1 d .
C8 C 0.8681(6) 0.8801(3) 0.29018(12) 0.0456(7) Uani 1 1 d .
C5 C 0.3360(6) 1.1234(4) 0.34712(13) 0.0562(8) Uani 1 1 d .
C7 C 0.6957(6) 1.0279(3) 0.25181(11) 0.0410(6) Uani 1 1 d .
O2 O 1.1187(4) 0.7954(3) 0.27129(9) 0.0659(6) Uani 1 1 d .
O1 O 0.1228(6) 1.2358(3) 0.37270(11) 0.1079(10) Uani 1 1 d .
C11 C 0.2781(7) 1.3053(4) 0.24610(14) 0.0630(8) Uani 1 1 d .
H11A H 0.3355 1.4066 0.2572 0.094 Uiso 1 1 calc R
H11B H 0.0724 1.3254 0.2593 0.094 Uiso 1 1 calc R
H11C H 0.3150 1.2855 0.2003 0.094 Uiso 1 1 calc R
C16 C 1.1168(5) 0.5988(3) 0.06567(11) 0.0395(6) Uani 1 1 d .
H16 H 1.2537 0.5504 0.0309 0.047 Uiso 1 1 calc R
C17 C 1.0847(5) 0.7707(3) 0.08575(10) 0.0325(6) Uani 1 1 d .
C13 C 0.7064(5) 0.7417(3) 0.16693(11) 0.0416(6) Uani 1 1 d .
H13 H 0.5615 0.7902 0.2003 0.050 Uiso 1 1 calc R
C12 C 0.8825(5) 0.8418(3) 0.13929(11) 0.0352(6) Uani 1 1 d .
C14 C 0.7425(6) 0.5734(3) 0.14590(12) 0.0449(7) Uani 1 1 d .
H14 H 0.6243 0.5087 0.1656 0.054 Uiso 1 1 calc R
C15 C 0.9514(6) 0.4989(3) 0.09592(12) 0.0443(7) Uani 1 1 d .
H15 H 0.9803 0.3831 0.0828 0.053 Uiso 1 1 calc R
C18 C 1.2593(5) 0.8740(3) 0.04922(10) 0.0346(6) Uani 1 1 d .
O4 O 1.4534(4) 0.7840(2) 0.00346(8) 0.0481(5) Uani 1 1 d .
H4A H 1.5427 0.8483 -0.0148 0.072 Uiso 1 1 calc R
O3 O 1.2239(4) 1.0306(2) 0.05932(7) 0.0455(5) Uani 1 1 d .
loop_
_atom_site_aniso_label
_atom_site_aniso_U_11
_atom_site_aniso_U_22
_atom_site_aniso_U_33
_atom_site_aniso_U_23
_atom_site_aniso_U_13
_atom_site_aniso_U_12
S1 0.0680(5) 0.0409(4) 0.0412(4) -0.0059(3) 0.0204(3) -0.0239(4)
C10 0.0463(16) 0.0464(16) 0.0423(15) -0.0007(13) 0.0002(12) -0.0172(13)
C9 0.0563(18) 0.0459(16) 0.0394(15) -0.0018(13) 0.0093(13) -0.0167(14)
C4 0.064(2) 0.059(2) 0.065(2) 0.0082(16) -0.0021(16) -0.0106(16)
C1 0.082(2) 0.061(2) 0.0495(18) 0.0020(16) 0.0228(16) -0.0176(17)
C3 0.095(3) 0.064(2) 0.067(2) 0.0256(18) -0.011(2) -0.024(2)
C2 0.103(3) 0.076(2) 0.0509(19) 0.0133(18) 0.0106(18) -0.033(2)
C6 0.0530(17) 0.0373(15) 0.0435(15) -0.0031(12) 0.0090(13) -0.0161(13)
C8 0.0427(17) 0.0494(16) 0.0448(16) -0.0071(13) 0.0075(13) -0.0172(14)
C5 0.0640(19) 0.0464(17) 0.0476(17) -0.0050(14) 0.0205(14) -0.0082(15)
C7 0.0475(15) 0.0381(14) 0.0394(14) -0.0054(12) 0.0112(12) -0.0207(12)
O2 0.0414(12) 0.0808(15) 0.0640(13) 0.0008(11) 0.0095(9) -0.0051(11)
O1 0.121(2) 0.0735(17) 0.0784(17) 0.0111(13) 0.0574(15) 0.0276(16)
C11 0.067(2) 0.0493(18) 0.0619(19) 0.0060(14) 0.0133(15) -0.0076(15)
C16 0.0386(14) 0.0379(14) 0.0400(14) -0.0028(11) 0.0025(11) -0.0102(12)
C17 0.0297(13) 0.0356(13) 0.0316(13) 0.0035(10) 0.0007(10) -0.0099(11)
C13 0.0399(15) 0.0470(16) 0.0376(14) -0.0001(12) 0.0073(11) -0.0161(13)
C12 0.0368(14) 0.0363(14) 0.0333(13) 0.0034(11) 0.0025(10) -0.0142(11)
C14 0.0480(16) 0.0467(16) 0.0467(16) 0.0082(13) -0.0012(13) -0.0261(13)
C15 0.0504(16) 0.0355(14) 0.0497(16) 0.0013(12) -0.0026(13) -0.0179(13)
C18 0.0328(13) 0.0368(15) 0.0308(13) 0.0009(11) 0.0040(10) -0.0072(11)
O4 0.0506(11) 0.0397(10) 0.0494(11) -0.0036(8) 0.0229(9) -0.0154(9)
O3 0.0531(11) 0.0348(10) 0.0460(11) -0.0032(8) 0.0182(8) -0.0163(8)
loop_
_atom_type_symbol
_atom_type_description
_atom_type_scat_dispersion_real
_atom_type_scat_dispersion_imag
_atom_type_scat_source
C C 0.0033 0.0016 'International Tables Vol C Tables 4.2.6.8 and 6.1.1.4'
H H 0.0000 0.0000 'International Tables Vol C Tables 4.2.6.8 and 6.1.1.4'
O O 0.0106 0.0060 'International Tables Vol C Tables 4.2.6.8 and 6.1.1.4'
S S 0.1246 0.1234 'International Tables Vol C Tables 4.2.6.8 and 6.1.1.4'
loop_
_geom_angle_atom_site_label_1
_geom_angle_atom_site_label_2
_geom_angle_atom_site_label_3
_geom_angle
C7 S1 C12 99.96(11)
C4 C10 C9 119.7(3)
C4 C10 C8 120.6(2)
C9 C10 C8 119.7(2)
C1 C9 C10 119.7(3)
C1 C9 C5 120.4(2)
C10 C9 C5 119.9(2)
C10 C4 C3 120.0(3)
C2 C1 C9 120.2(3)
C2 C3 C4 120.0(3)
C1 C2 C3 120.4(3)
C7 C6 C11 124.3(2)
C7 C6 C5 119.6(2)
C11 C6 C5 116.1(2)
O2 C8 C10 120.5(2)
O2 C8 C7 121.7(2)
C10 C8 C7 117.8(2)
O1 C5 C9 120.9(2)
O1 C5 C6 119.3(3)
C9 C5 C6 119.7(2)
C6 C7 C8 120.8(2)
C6 C7 S1 121.7(2)
C8 C7 S1 117.03(18)
C15 C16 C17 121.7(2)
C16 C17 C12 118.9(2)
C16 C17 C18 119.0(2)
C12 C17 C18 122.1(2)
C14 C13 C12 121.3(2)
C13 C12 C17 118.3(2)
C13 C12 S1 119.78(18)
C17 C12 S1 121.94(18)
C13 C14 C15 120.8(2)
C14 C15 C16 118.8(2)
O3 C18 O4 122.3(2)
O3 C18 C17 123.4(2)
O4 C18 C17 114.3(2)
loop_
_geom_bond_atom_site_label_1
_geom_bond_atom_site_label_2
_geom_bond_distance
S1 C7 1.771(2)
S1 C12 1.780(2)
C10 C4 1.382(4)
C10 C9 1.390(3)
C10 C8 1.488(4)
C9 C1 1.385(4)
C9 C5 1.473(4)
C4 C3 1.385(4)
C1 C2 1.371(4)
C3 C2 1.374(5)
C6 C7 1.357(3)
C6 C11 1.489(4)
C6 C5 1.489(3)
C8 O2 1.218(3)
C8 C7 1.497(4)
C5 O1 1.221(3)
C16 C15 1.376(3)
C16 C17 1.393(3)
C17 C12 1.406(3)
C17 C18 1.480(3)
C13 C14 1.369(3)
C13 C12 1.393(3)
C14 C15 1.375(3)
C18 O3 1.222(3)
C18 O4 1.317(3)
loop_
_cod_related_entry_id
_cod_related_entry_database
_cod_related_entry_code
1 ChemSpider 30652446
