#------------------------------------------------------------------------------
#$Date: 2016-03-24 02:47:15 +0200 (Thu, 24 Mar 2016) $
#$Revision: 179596 $
#$URL: svn://www.crystallography.net/cod/cif/4/50/60/4506047.cif $
#------------------------------------------------------------------------------
#
# This file is available in the Crystallography Open Database (COD),
# http://www.crystallography.net/
#
# All data on this site have been placed in the public domain by the
# contributors.
#
data_4506047
loop_
_publ_author_name
'Jarzembska, Katarzyna N.'
'Kubsik, Marcin'
'Kami\'nski, Rados\/law'
'Wo\'zniak, Krzysztof'
'Dominiak, Paulina M.'
_publ_section_title
;
 From a Single Molecule to Molecular Crystal Architectures: Structural and
 Energetic Studies of Selected Uracil Derivatives
;
_journal_issue                   5
_journal_name_full               'Crystal Growth &amp; Design'
_journal_page_first              2508
_journal_paper_doi               10.1021/cg300129z
_journal_volume                  12
_journal_year                    2012
_chemical_formula_moiety         'C4 H4 N2 O S'
_chemical_formula_sum            'C4 H4 N2 O S'
_chemical_formula_weight         128.15
_space_group_IT_number           2
_symmetry_cell_setting           triclinic
_symmetry_Int_Tables_number      2
_symmetry_space_group_name_Hall  '-P 1'
_symmetry_space_group_name_H-M   'P -1'
_cell_angle_alpha                105.734(5)
_cell_angle_beta                 94.894(5)
_cell_angle_gamma                91.898(5)
_cell_formula_units_Z            2
_cell_length_a                   4.2484(3)
_cell_length_b                   5.9704(3)
_cell_length_c                   10.5660(6)
_cell_measurement_temperature    100(1)
_cell_volume                     256.58(3)
_diffrn_ambient_temperature      100(1)
_diffrn_measured_fraction_theta_full 0.997
_diffrn_measured_fraction_theta_max 0.998
_diffrn_measurement_device
'Agilent Technologies KM4CCD \k-axis diffractometer'
_diffrn_measurement_device_type  'Opal CCD detector'
_diffrn_measurement_method       \w-scans
_diffrn_radiation_monochromator  graphite
_diffrn_radiation_source         'sealed tube'
_diffrn_radiation_type           Mo-K\a
_diffrn_radiation_wavelength     0.71073
_diffrn_reflns_av_R_equivalents  0.0220
_diffrn_reflns_av_sigmaI/netI    0.0143
_diffrn_reflns_limit_h_max       7
_diffrn_reflns_limit_h_min       -7
_diffrn_reflns_limit_k_max       9
_diffrn_reflns_limit_k_min       -9
_diffrn_reflns_limit_l_max       17
_diffrn_reflns_limit_l_min       -17
_diffrn_reflns_number            14783
_diffrn_reflns_theta_full        25.00
_diffrn_reflns_theta_max         36.484
_diffrn_reflns_theta_min         3.551
_exptl_absorpt_coefficient_mu    0.508
_exptl_absorpt_correction_T_max  1.054
_exptl_absorpt_correction_T_min  0.956
_exptl_absorpt_correction_type   multi-scan
_exptl_absorpt_process_details
;
 Absorption correction done by SORTAV
 Blessing, R. H.: (1995) Acta Cryst. A51, 33-38
;
_exptl_crystal_colour            'pale yellow'
_exptl_crystal_density_diffrn    1.659
_exptl_crystal_description       unspecified
_exptl_crystal_F_000             132
_exptl_crystal_size_max          0.40
_exptl_crystal_size_mid          0.11
_exptl_crystal_size_min          0.06
_refine_diff_density_max         +0.08
_refine_diff_density_min         -0.11
_refine_ls_extinction_method     none
_refine_ls_goodness_of_fit_ref   1.312
_refine_ls_hydrogen_treatment    mixed
_refine_ls_number_constraints    0
_refine_ls_number_parameters     89
_refine_ls_number_reflns         2355
_refine_ls_number_restraints     8
_refine_ls_R_factor_all          0.0120
_refine_ls_R_factor_gt           0.0120
_refine_ls_shift/su_max          0.001
_refine_ls_shift/su_mean         0.000
_refine_ls_structure_factor_coef F
_refine_ls_weighting_details
;
w=1/[\s^2^(Fo)]
;
_refine_ls_weighting_scheme      sigma
_refine_ls_wR_factor_gt          0.0185
_refine_ls_wR_factor_ref         0.0185
_reflns_number_gt                2355
_reflns_number_total             2505
_reflns_threshold_expression     I>3\s(I)
_iucr_refine_instructions_details
;
TAAM refinement with MOPRO program
;
_cod_data_source_file            cg300129z_si_004.cif
_cod_data_source_block           2tU
_cod_database_code               4506047
loop_
_symmetry_equiv_pos_as_xyz
'x, y, z'
'-x, -y, -z'
loop_
_atom_site_type_symbol
_atom_site_label
_atom_site_fract_x
_atom_site_fract_y
_atom_site_fract_z
_atom_site_U_iso_or_equiv
_atom_site_adp_type
_atom_site_occupancy
_atom_site_calc_flag
_atom_site_refinement_flags_posn
_atom_site_refinement_flags_adp
S S2 0.04379(2) 0.35107(1) 0.128816(1) 0.01200(3) Uani 1 d . .
O O4 0.74284(6) 0.27901(5) 0.51020(2) 0.01624(8) Uani 1 d . .
N N1 0.35789(6) -0.02102(5) 0.14232(3) 0.01068(7) Uani 1 d . .
H H1 0.239(1) -0.1000(9) 0.0512(3) 0.0156(2) Uiso 1 d D U
N N3 0.41668(6) 0.28733(5) 0.33002(3) 0.01072(8) Uani 1 d . .
H H3 0.357(1) 0.4495(5) 0.3824(5) 0.0158(2) Uiso 1 d D U
C C2 0.28354(7) 0.19737(5) 0.20428(3) 0.00952(8) Uani 1 d . .
C C4 0.63345(7) 0.17789(5) 0.39646(3) 0.01128(8) Uani 1 d . .
C C6 0.56595(7) -0.14365(5) 0.19982(3) 0.01151(8) Uani 1 d . .
H H6 0.599(1) -0.3168(4) 0.1385(4) 0.0138(2) Uiso 1 d D U
C C5 0.71046(8) -0.05189(6) 0.32314(3) 0.01219(9) Uani 1 d . .
H H5 0.8761(9) -0.1427(7) 0.3721(5) 0.0148(2) Uiso 1 d D U
loop_
_atom_site_aniso_label
_atom_site_aniso_U_11
_atom_site_aniso_U_22
_atom_site_aniso_U_33
_atom_site_aniso_U_12
_atom_site_aniso_U_13
_atom_site_aniso_U_23
S2 0.01333(4) 0.01008(4) 0.01134(4) 0.00233(2) -0.00335(3) 0.00204(3)
O4 0.0199(1) 0.0163(1) 0.01000(10) 0.00716(8) -0.00412(8) 0.00030(8)
N1 0.0112(1) 0.00954(9) 0.01003(10) 0.00155(7) -0.00094(8) 0.00098(8)
N3 0.0117(1) 0.01092(10) 0.00856(10) 0.00268(8) -0.00112(8) 0.00140(8)
C2 0.0097(1) 0.0093(1) 0.0091(1) 0.00146(8) -0.00063(8) 0.00209(9)
C4 0.0122(1) 0.0122(1) 0.0087(1) 0.00301(9) -0.00113(9) 0.00209(9)
C6 0.0124(1) 0.0096(1) 0.0116(1) 0.00237(9) -0.00051(9) 0.00163(9)
C5 0.0136(1) 0.0112(1) 0.0113(1) 0.00364(9) -0.00089(9) 0.00254(9)
loop_
_atom_type_symbol
_atom_type_description
_atom_type_scat_dispersion_real
_atom_type_scat_dispersion_imag
_atom_type_scat_source
C C 0.0033 0.0016 'Su & Coppens, Acta. Cryst. (1997) A53, 749'
H H 0.0000 0.0000 'Su & Coppens, Acta. Cryst. (1997) A53, 749'
N N 0.0061 0.0033 'Su & Coppens, Acta. Cryst. (1997) A53, 749'
O O 0.0106 0.0060 'Su & Coppens, Acta. Cryst. (1997) A53, 749'
loop_
_geom_angle_atom_site_label_1
_geom_angle_atom_site_label_2
_geom_angle_atom_site_label_3
_geom_angle
S2 C2 N1 121.93(3)
S2 C2 N3 121.78(2)
O4 C4 N3 119.44(4)
O4 C4 C5 125.05(4)
N1 C2 N3 116.29(3)
N1 C6 C5 121.57(3)
N1 C6 H6 114.1(3)
H1 N1 C2 117.5(3)
H1 N1 C6 119.7(3)
N3 C4 C5 115.51(3)
H3 N3 C2 118.7(3)
H3 N3 C4 116.0(3)
C2 N1 C6 122.64(3)
C2 N3 C4 125.32(3)
C4 C5 C6 118.58(4)
C4 C5 H5 117.5(3)
C6 C5 H5 123.9(3)
H6 C6 C5 124.3(3)
loop_
_geom_bond_atom_site_label_1
_geom_bond_atom_site_label_2
_geom_bond_distance
S2 C2 1.6839(4)
O4 C4 1.2318(4)
N1 C2 1.3521(4)
N1 C6 1.3707(4)
N1 H1 1.029(1)
N3 C2 1.3558(4)
N3 C4 1.3951(4)
N3 H3 1.029(1)
C4 C5 1.4443(5)
C6 C5 1.3523(5)
C6 H6 1.082(1)
C5 H5 1.083(1)
loop_
_geom_hbond_atom_site_label_D
_geom_hbond_atom_site_label_H
_geom_hbond_atom_site_label_A
_geom_hbond_distance_DH
_geom_hbond_distance_HA
_geom_hbond_distance_DA
_geom_hbond_angle_DHA
_geom_hbond_site_symmetry_A
N1 H1 S2 1.029(1) 2.292(3) 3.299(3) 165.7(2) 2_555
N3 H3 O4 1.029(1) 1.795(2) 2.820(3) 173.6(2) 2_666
loop_
_refln_index_h
_refln_index_k
_refln_index_l
_refln_F_squared_calc
_refln_F_squared_meas
_refln_F_squared_sigma
_refln_observed_status
-7 -1 1 11.13 11.14 0.55 o
-7 -1 2 32.99 33.44 0.91 o
-7 -1 4 20.75 20.89 0.78 o
-7 0 2 0.76 0.74 0.16 o
-7 0 3 27.16 27.11 0.80 o
-7 0 4 10.91 10.77 0.41 o
-7 1 0 30.74 30.61 1.55 o
-7 1 2 7.48 7.16 0.32 o
-7 1 3 6.89 6.72 0.31 o
-7 2 1 14.93 14.58 0.85 o
-6 -5 4 12.09 11.74 0.41 o
-6 -5 5 37.81 37.88 1.08 o
-6 -4 1 12.09 12.15 0.45 o
-6 -4 2 16.58 17.36 0.50 o
-6 -4 4 1.96 2.31 0.19 o
-6 -4 5 5.36 5.21 0.26 o
-6 -4 6 7.37 7.98 0.32 o
-6 -4 7 4.60 4.32 0.24 o
-6 -4 8 1.38 1.48 0.22 o
-6 -3 1 74.68 75.76 1.76 o
-6 -3 2 3.96 4.04 0.21 o
-6 -3 3 7.57 7.94 0.31 o
-6 -3 4 1.08 1.22 0.17 o
-6 -3 5 21.70 21.79 0.64 o
-6 -3 6 2.65 2.63 0.28 o
-6 -3 7 3.56 3.33 0.22 o
-6 -3 8 3.06 2.96 0.20 o
-6 -3 9 0.83 0.67 0.16 o
-6 -3 10 26.19 27.15 0.90 o
-6 -2 1 49.57 51.05 1.29 o
-6 -2 2 21.13 21.15 0.65 o
-6 -2 3 44.05 45.39 1.09 o
-6 -2 4 49.05 48.96 1.31 o
-6 -2 5 15.27 15.68 0.50 o
-6 -2 6 48.41 49.16 1.22 o
-6 -2 7 12.25 12.33 0.45 o
-6 -2 8 5.37 5.10 0.25 o
-6 -2 10 5.65 5.35 0.32 o
-6 -1 1 26.54 27.10 0.71 o
-6 -1 2 11.30 11.79 0.38 o
-6 -1 4 0.74 0.78 0.15 o
-6 -1 5 48.71 49.74 1.25 o
-6 -1 6 3.18 3.20 0.24 o
-6 -1 8 10.41 10.81 0.37 o
-6 -1 9 10.27 9.90 0.48 o
-6 -1 10 0.64 0.54 0.16 o
-6 0 1 53.32 55.22 1.31 o
-6 0 2 77.14 78.90 1.93 o
-6 0 3 14.55 14.66 0.49 o
-6 0 5 34.43 35.87 1.04 o
-6 0 6 132.28 132.96 3.25 o
-6 0 7 11.75 11.54 0.41 o
-6 0 8 6.97 6.20 0.39 o
-6 0 9 7.81 7.41 0.32 o
-6 0 10 11.25 11.22 0.94 o
-6 1 0 4.89 4.74 0.22 o
-6 1 1 18.54 18.29 0.54 o
-6 1 3 38.91 38.98 1.09 o
-6 1 4 1.93 2.06 0.17 o
-6 1 5 96.47 94.59 2.18 o
-6 1 6 2.80 3.08 0.20 o
-6 1 7 113.60 112.19 2.57 o
-6 1 8 26.64 25.02 0.91 o
-6 2 0 42.96 42.53 1.75 o
-6 2 1 13.64 14.23 0.69 o
-6 2 3 9.03 8.85 0.46 o
-6 2 4 29.98 30.79 0.89 o
-6 2 6 6.94 6.69 0.33 o
-6 2 7 6.36 5.71 0.39 o
-6 2 8 4.29 3.36 0.33 o
-6 2 9 2.34 2.66 0.54 o
-6 3 1 112.09 110.58 3.54 o
-6 3 2 20.05 18.89 0.61 o
-6 3 3 2.12 1.77 0.16 o
-6 3 4 11.86 11.16 0.48 o
-6 3 5 1.27 1.18 0.34 o
-6 3 6 58.81 56.94 2.53 o
-6 3 7 11.55 10.70 0.72 o
-6 4 0 25.11 23.90 1.30 o
-6 4 1 12.60 12.28 0.52 o
-6 4 2 50.03 50.31 1.67 o
-6 4 3 50.68 50.07 1.24 o
-6 4 4 1.54 1.50 0.22 o
-6 4 5 15.21 15.87 0.85 o
-6 5 0 3.22 3.43 0.22 o
-6 5 1 29.90 27.76 0.91 o
-6 5 2 8.68 8.11 0.38 o
-6 5 3 6.60 6.36 0.55 o
-5 -6 2 0.36 0.71 0.21 o
-5 -6 3 53.93 54.20 1.34 o
-5 -6 4 6.35 6.88 0.29 o
-5 -6 6 15.09 15.51 0.48 o
-5 -6 7 34.98 35.24 1.01 o
-5 -6 8 1.09 1.10 0.20 o
-5 -6 9 1.89 1.49 0.20 o
-5 -5 1 12.90 12.73 0.41 o
-5 -5 3 65.71 67.27 1.56 o
-5 -5 4 21.91 22.45 0.60 o
-5 -5 6 4.87 4.70 0.24 o
-5 -5 7 29.95 31.38 0.81 o
-5 -5 8 17.57 17.20 0.51 o
-5 -5 9 33.23 32.44 0.84 o
-5 -5 10 2.21 2.33 0.23 o
-5 -5 11 0.66 1.10 0.17 o
-5 -4 1 15.72 15.32 0.42 o
-5 -4 2 20.80 20.51 0.53 o
-5 -4 3 21.08 21.04 0.54 o
-5 -4 4 34.14 34.11 0.86 o
-5 -4 5 61.36 62.24 1.46 o
-5 -4 6 25.42 26.19 0.72 o
-5 -4 7 14.33 14.42 0.44 o
-5 -4 8 98.08 100.25 2.48 o
-5 -4 9 108.46 108.06 2.74 o
-5 -4 10 2.42 2.09 0.18 o
-5 -4 11 7.31 7.57 0.34 o
-5 -4 12 23.10 23.00 0.65 o
-5 -3 1 25.70 26.76 0.68 o
-5 -3 2 25.27 25.92 0.65 o
-5 -3 3 13.33 13.14 0.38 o
-5 -3 5 1.33 1.58 0.20 o
-5 -3 6 34.19 34.97 0.87 o
-5 -3 7 2.98 2.93 0.19 o
-5 -3 8 22.64 22.49 0.64 o
-5 -3 9 17.31 17.70 0.51 o
-5 -3 10 10.31 11.30 0.37 o
-5 -3 11 17.90 17.71 0.52 o
-5 -3 12 1.73 1.72 0.18 o
-5 -3 13 10.42 10.27 0.37 o
-5 -2 1 0.43 0.56 0.18 o
-5 -2 2 17.33 17.74 0.51 o
-5 -2 3 96.01 99.78 2.26 o
-5 -2 4 1.18 1.20 0.12 o
-5 -2 6 2.54 2.69 0.17 o
-5 -2 7 24.28 24.61 0.65 o
-5 -2 8 62.11 63.42 1.55 o
-5 -2 9 0.49 0.46 0.14 o
-5 -2 10 49.05 48.70 1.26 o
-5 -2 11 11.49 12.05 0.42 o
-5 -2 12 6.57 7.07 0.29 o
-5 -2 13 0.52 0.50 0.15 o
-5 -1 1 111.53 112.15 2.53 o
-5 -1 2 24.77 24.25 0.62 o
-5 -1 3 3.83 3.59 0.17 o
-5 -1 4 226.55 226.59 5.05 o
-5 -1 5 17.31 17.07 0.47 o
-5 -1 7 14.36 14.62 0.45 o
-5 -1 9 75.01 72.23 1.78 o
-5 -1 10 9.65 8.78 0.31 o
-5 -1 11 6.03 5.64 0.29 o
-5 -1 12 11.10 11.36 0.41 o
-5 -1 13 54.05 56.68 1.44 o
-5 0 1 38.99 37.80 0.90 o
-5 0 2 12.83 12.60 0.38 o
-5 0 3 46.59 44.64 1.12 o
-5 0 4 18.46 18.43 0.63 o
-5 0 5 15.28 15.32 0.43 o
-5 0 6 30.34 31.24 0.97 o
-5 0 7 5.32 5.15 0.24 o
-5 0 8 5.84 6.19 0.32 o
-5 0 9 12.08 11.75 0.37 o
-5 0 10 4.69 4.79 0.25 o
-5 0 11 7.77 7.87 0.43 o
-5 0 12 3.72 3.58 0.24 o
-5 1 0 71.36 72.15 1.65 o
-5 1 1 2.54 2.71 0.13 o
-5 1 2 58.40 59.24 1.37 o
-5 1 3 130.85 133.26 3.40 o
-5 1 4 140.29 141.77 3.17 o
-5 1 5 156.88 157.80 3.80 o
-5 1 6 55.88 56.05 1.31 o
-5 1 7 21.70 21.90 0.70 o
-5 1 8 3.57 3.27 0.19 o
-5 1 9 16.44 16.04 0.62 o
-5 1 10 28.33 27.95 1.02 o
-5 1 11 0.72 0.86 0.19 o
-5 1 12 1.50 1.45 0.20 o
-5 2 0 29.29 29.41 0.71 o
-5 2 1 66.26 64.98 1.70 o
-5 2 2 4.92 4.91 0.18 o
-5 2 3 44.07 44.11 1.04 o
-5 2 4 76.63 75.74 1.85 o
-5 2 5 171.14 172.49 4.23 o
-5 2 6 1.88 1.72 0.18 o
-5 2 7 36.94 37.27 1.00 o
-5 2 8 41.51 40.39 1.05 o
-5 2 9 64.51 61.27 1.79 o
-5 2 10 11.03 9.64 0.40 o
-5 2 11 19.44 18.92 1.04 o
-5 3 0 43.76 43.44 1.19 o
-5 3 1 45.31 44.61 1.05 o
-5 3 2 39.25 39.76 0.94 o
-5 3 3 18.75 17.89 0.54 o
-5 3 4 2.36 2.11 0.20 o
-5 3 5 52.55 53.03 1.42 o
-5 3 6 3.50 3.63 0.39 o
-5 3 7 1.05 1.15 0.38 o
-5 3 8 1.79 1.70 0.34 o
-5 3 9 26.08 24.38 0.69 o
-5 3 10 2.35 1.69 0.19 o
-5 4 1 21.64 21.17 0.73 o
-5 4 2 65.72 65.29 1.51 o
-5 4 3 2.83 2.76 0.15 o
-5 4 4 55.35 54.54 1.41 o
-5 4 5 2.67 2.39 0.19 o
-5 4 6 80.50 82.40 1.97 o
-5 4 7 36.88 36.12 0.93 o
-5 4 8 2.30 1.79 0.19 o
-5 5 0 117.31 115.03 2.86 o
-5 5 1 25.48 25.23 0.78 o
-5 5 2 14.67 15.22 0.62 o
-5 5 3 63.88 64.11 1.62 o
-5 5 5 4.80 4.59 0.23 o
-5 5 7 19.57 19.03 0.63 o
-5 6 0 84.47 84.73 2.11 o
-5 6 1 20.32 20.58 0.65 o
-5 6 2 12.48 12.56 0.42 o
-5 6 3 7.63 7.77 0.29 o
-5 6 4 27.23 27.28 0.77 o
-5 6 5 28.65 27.62 1.38 o
-5 7 0 77.76 78.87 1.84 o
-5 7 1 38.48 39.17 1.10 o
-4 -8 4 20.43 21.06 0.81 o
-4 -8 5 6.59 5.29 0.48 o
-4 -7 1 29.60 29.89 0.95 o
-4 -7 2 20.40 18.98 0.78 o
-4 -7 3 4.44 3.90 0.25 o
-4 -7 4 5.55 4.97 0.28 o
-4 -7 5 15.38 15.85 0.48 o
-4 -7 7 2.10 1.61 0.19 o
-4 -7 9 37.30 37.51 0.99 o
-4 -7 10 8.84 8.87 0.34 o
-4 -7 11 5.34 5.01 0.32 o
-4 -6 1 96.56 100.12 2.28 o
-4 -6 2 147.75 151.06 3.39 o
-4 -6 3 9.79 10.29 0.45 o
-4 -6 5 39.51 41.28 1.11 o
-4 -6 6 79.67 81.08 1.97 o
-4 -6 7 1.37 1.21 0.15 o
-4 -6 9 5.34 5.21 0.25 o
-4 -6 10 12.57 11.62 0.44 o
-4 -6 11 44.96 45.00 1.54 o
-4 -6 12 1.50 1.29 0.18 o
-4 -6 13 17.97 17.41 1.19 o
-4 -5 1 47.63 49.43 1.16 o
-4 -5 2 9.80 9.69 0.32 o
-4 -5 3 21.95 22.67 0.68 o
-4 -5 4 44.35 46.33 1.11 o
-4 -5 5 19.74 20.69 0.54 o
-4 -5 6 14.60 15.15 0.42 o
-4 -5 7 25.10 24.42 0.65 o
-4 -5 8 23.99 24.71 0.65 o
-4 -5 9 13.23 12.16 0.55 o
-4 -5 10 13.37 13.56 0.40 o
-4 -5 11 10.48 10.71 0.47 o
-4 -5 12 19.66 19.58 0.56 o
-4 -5 13 5.46 5.45 0.26 o
-4 -5 14 5.82 6.04 0.33 o
-4 -4 1 189.91 192.56 4.79 o
-4 -4 2 1.83 1.77 0.14 o
-4 -4 3 39.35 39.59 0.95 o
-4 -4 4 72.12 73.88 1.69 o
-4 -4 5 63.58 64.06 1.48 o
-4 -4 6 1.27 1.10 0.13 o
-4 -4 7 196.29 199.55 4.45 o
-4 -4 8 1.16 0.83 0.14 o
-4 -4 9 3.86 4.23 0.21 o
-4 -4 10 1.44 1.62 0.17 o
-4 -4 11 8.08 8.13 0.32 o
-4 -4 12 4.94 5.06 0.26 o
-4 -4 13 0.44 0.62 0.14 o
-4 -4 14 15.29 15.61 0.66 o
-4 -3 1 1.36 1.43 0.11 o
-4 -3 2 160.07 162.28 3.64 o
-4 -3 3 67.04 68.58 1.58 o
-4 -3 5 8.00 8.12 0.26 o
-4 -3 6 313.22 321.44 7.82 o
-4 -3 7 96.05 96.03 2.25 o
-4 -3 8 86.52 86.43 1.97 o
-4 -3 9 68.51 70.20 1.69 o
-4 -3 10 57.47 56.26 1.37 o
-4 -3 11 5.81 5.33 0.23 o
-4 -3 12 46.62 46.71 1.13 o
-4 -3 13 14.28 13.94 0.55 o
-4 -3 14 6.08 6.18 0.33 o
-4 -2 2 49.69 47.80 1.11 o
-4 -2 3 20.35 20.98 0.53 o
-4 -2 4 64.72 63.81 1.47 o
-4 -2 5 11.59 11.91 0.63 o
-4 -2 7 100.15 101.78 2.57 o
-4 -2 8 2.70 2.74 0.17 o
-4 -2 9 3.05 2.96 0.18 o
-4 -2 10 13.16 13.00 0.39 o
-4 -2 11 38.74 39.63 0.97 o
-4 -2 12 6.10 6.29 0.24 o
-4 -2 13 1.04 1.10 0.16 o
-4 -2 15 33.76 36.19 1.18 o
-4 -1 1 113.77 116.35 2.93 o
-4 -1 2 46.61 47.01 1.31 o
-4 -1 3 52.75 56.17 1.30 o
-4 -1 4 31.88 33.53 0.80 o
-4 -1 5 35.66 36.44 0.87 o
-4 -1 6 31.17 31.32 0.77 o
-4 -1 7 87.01 86.87 1.98 o
-4 -1 8 163.75 164.28 3.67 o
-4 -1 9 7.08 7.53 0.25 o
-4 -1 10 2.31 2.46 0.15 o
-4 -1 11 38.02 38.33 0.93 o
-4 -1 12 140.32 143.56 3.63 o
-4 -1 13 29.54 29.40 0.77 o
-4 -1 14 11.63 11.57 0.39 o
-4 -1 15 0.64 0.66 0.15 o
-4 0 1 103.20 100.01 2.26 o
-4 0 2 431.26 434.99 9.86 o
-4 0 3 6.85 7.00 0.25 o
-4 0 4 34.94 36.72 0.86 o
-4 0 5 111.20 107.82 2.43 o
-4 0 6 1.40 1.47 0.15 o
-4 0 7 69.11 69.83 1.60 o
-4 0 8 9.78 10.69 0.32 o
-4 0 9 61.15 59.83 1.50 o
-4 0 10 29.05 29.05 0.74 o
-4 0 11 36.07 36.22 0.90 o
-4 0 12 2.23 2.68 0.19 o
-4 0 13 163.14 165.59 3.72 o
-4 0 14 8.52 8.74 0.45 o
-4 1 0 0.69 0.89 0.07 o
-4 1 2 177.40 180.16 4.09 o
-4 1 3 16.65 16.08 0.51 o
-4 1 4 4.51 4.55 0.17 o
-4 1 5 13.25 12.68 0.35 o
-4 1 6 51.89 50.99 1.18 o
-4 1 7 30.20 29.36 0.76 o
-4 1 10 41.99 40.29 1.37 o
-4 1 11 1.88 1.71 0.17 o
-4 1 12 15.91 15.87 0.50 o
-4 1 13 19.44 18.55 0.92 o
-4 1 14 1.85 1.83 0.27 o
-4 2 0 186.54 187.74 4.21 o
-4 2 1 108.59 109.92 2.57 o
-4 2 2 17.42 18.50 0.47 o
-4 2 3 669.27 681.42 15.62 o
-4 2 4 85.71 85.90 1.95 o
-4 2 5 0.75 0.71 0.12 o
-4 2 6 24.65 25.21 0.64 o
-4 2 7 98.94 97.52 2.21 o
-4 2 8 49.11 47.62 1.27 o
-4 2 9 5.42 5.20 0.33 o
-4 2 10 3.81 3.25 0.20 o
-4 2 11 4.03 3.71 0.23 o
-4 2 12 34.10 34.21 1.22 o
-4 2 13 25.25 24.38 0.71 o
-4 3 0 96.91 98.03 2.22 o
-4 3 1 12.19 12.24 0.33 o
-4 3 2 141.28 139.60 3.13 o
-4 3 3 70.67 68.80 1.56 o
-4 3 4 43.70 43.27 1.01 o
-4 3 5 129.13 131.46 2.98 o
-4 3 6 32.59 32.24 0.84 o
-4 3 7 15.67 15.27 0.46 o
-4 3 8 103.40 100.81 2.73 o
-4 3 9 42.27 42.03 1.53 o
-4 3 10 14.70 13.55 0.45 o
-4 3 11 25.19 24.01 0.68 o
-4 3 12 0.47 0.60 0.17 o
-4 4 0 0.70 0.79 0.13 o
-4 4 1 127.38 126.44 2.84 o
-4 4 2 32.17 31.45 0.90 o
-4 4 3 62.34 63.25 1.48 o
-4 4 4 16.45 16.17 0.43 o
-4 4 5 46.37 47.44 1.28 o
-4 4 6 21.12 21.57 0.57 o
-4 4 7 24.28 24.36 0.66 o
-4 4 8 10.36 9.96 0.39 o
-4 4 9 28.43 28.16 0.97 o
-4 4 10 1.78 1.80 0.22 o
-4 4 11 5.27 4.14 0.28 o
-4 5 0 67.40 67.10 1.56 o
-4 5 1 9.09 9.48 0.37 o
-4 5 2 9.36 9.26 0.30 o
-4 5 3 59.60 60.83 2.07 o
-4 5 4 116.37 120.49 3.52 o
-4 5 5 7.47 7.44 0.26 o
-4 5 6 14.73 14.82 0.46 o
-4 5 7 17.67 17.20 0.56 o
-4 5 8 227.39 230.64 10.11 o
-4 5 9 8.97 8.80 0.36 o
-4 6 0 85.97 88.64 2.02 o
-4 6 1 73.37 74.94 1.84 o
-4 6 2 12.06 12.06 0.37 o
-4 6 3 2.94 2.60 0.18 o
-4 6 4 8.14 8.37 0.29 o
-4 6 5 30.29 30.16 0.85 o
-4 6 6 7.67 8.08 0.36 o
-4 6 7 2.77 2.99 0.29 o
-4 7 0 6.69 6.90 0.27 o
-4 7 1 58.92 60.20 1.44 o
-4 7 2 37.22 37.81 0.92 o
-4 7 3 7.79 7.36 0.32 o
-4 7 4 25.03 24.23 0.63 o
-4 7 5 14.98 14.68 0.54 o
-4 8 0 71.57 73.57 1.79 o
-4 8 1 1.28 1.29 0.18 o
-3 -8 1 9.30 8.85 0.42 o
-3 -8 2 0.67 0.67 0.14 o
-3 -8 3 19.37 18.85 0.55 o
-3 -8 4 79.04 79.12 1.85 o
-3 -8 5 1.91 2.32 0.48 o
-3 -8 6 9.18 9.46 0.37 o
-3 -8 7 48.57 47.53 1.14 o
-3 -8 8 65.39 65.79 1.72 o
-3 -8 9 2.59 2.24 0.18 o
-3 -8 10 74.10 73.01 2.17 o
-3 -8 11 2.60 2.65 0.20 o
-3 -7 1 41.47 41.45 1.02 o
-3 -7 2 22.13 21.85 0.58 o
-3 -7 3 1.37 1.35 0.44 o
-3 -7 4 15.24 15.13 0.57 o
-3 -7 5 35.63 34.80 0.91 o
-3 -7 6 34.05 33.78 0.89 o
-3 -7 7 6.07 6.10 0.23 o
-3 -7 8 11.22 10.51 0.39 o
-3 -7 9 61.59 61.88 1.48 o
-3 -7 10 2.16 2.14 0.19 o
-3 -7 12 22.39 22.40 0.66 o
-3 -7 13 25.70 25.17 0.73 o
-3 -6 2 32.57 31.35 0.82 o
-3 -6 3 9.10 9.56 0.29 o
-3 -6 4 15.27 15.29 0.41 o
-3 -6 5 5.27 5.74 0.25 o
-3 -6 6 11.37 11.36 0.42 o
-3 -6 7 59.32 59.77 1.45 o
-3 -6 8 1.79 1.64 0.14 o
-3 -6 9 67.96 69.38 1.79 o
-3 -6 10 41.68 40.85 1.13 o
-3 -6 11 4.69 3.99 0.21 o
-3 -6 12 1.20 1.33 0.17 o
-3 -6 13 26.32 26.14 0.70 o
-3 -6 14 8.13 8.43 0.35 o
-3 -5 1 10.31 10.33 0.29 o
-3 -5 2 71.77 72.63 1.65 o
-3 -5 3 141.60 142.65 3.32 o
-3 -5 4 94.48 93.67 2.62 o
-3 -5 5 72.22 72.65 1.92 o
-3 -5 6 20.81 20.77 0.52 o
-3 -5 7 51.75 51.43 1.19 o
-3 -5 8 12.95 12.27 0.34 o
-3 -5 9 20.32 20.69 0.56 o
-3 -5 10 68.10 69.79 1.81 o
-3 -5 11 64.31 65.87 1.54 o
-3 -5 12 19.58 18.56 0.63 o
-3 -5 14 53.28 53.11 1.52 o
-3 -5 15 76.93 80.11 1.88 o
-3 -4 1 27.22 25.95 0.62 o
-3 -4 2 13.62 13.82 0.36 o
-3 -4 3 7.07 6.06 0.19 o
-3 -4 4 104.71 104.90 2.71 o
-3 -4 5 30.70 28.33 0.69 o
-3 -4 6 5.57 5.67 0.20 o
-3 -4 7 0.59 0.51 0.10 o
-3 -4 8 101.53 102.21 2.36 o
-3 -4 9 20.29 19.90 0.54 o
-3 -4 10 5.03 4.99 0.20 o
-3 -4 11 4.51 4.10 0.19 o
-3 -4 12 55.01 57.51 1.34 o
-3 -4 13 16.96 16.84 0.47 o
-3 -4 14 2.58 2.91 0.18 o
-3 -4 15 20.93 20.37 0.70 o
-3 -4 16 7.58 7.72 0.31 o
-3 -3 1 239.62 239.55 5.73 o
-3 -3 2 132.75 134.46 3.25 o
-3 -3 3 6.10 6.17 0.20 o
-3 -3 4 83.23 83.47 2.13 o
-3 -3 5 660.99 673.70 15.75 o
-3 -3 6 47.14 44.27 1.06 o
-3 -3 7 2.95 3.24 0.16 o
-3 -3 8 22.60 22.44 0.57 o
-3 -3 9 50.20 49.38 1.16 o
-3 -3 10 7.00 7.46 0.41 o
-3 -3 11 5.89 5.86 0.31 o
-3 -3 12 3.28 3.43 0.17 o
-3 -3 13 35.44 35.70 0.87 o
-3 -3 14 34.41 36.19 0.89 o
-3 -3 15 1.18 1.20 0.14 o
-3 -3 16 59.80 64.05 1.55 o
-3 -2 1 0.17 0.25 0.07 o
-3 -2 2 98.10 97.68 2.21 o
-3 -2 3 67.79 69.60 1.64 o
-3 -2 4 436.75 439.12 10.02 o
-3 -2 5 0.72 0.44 0.06 o
-3 -2 6 476.06 472.85 11.56 o
-3 -2 7 138.24 134.73 3.09 o
-3 -2 8 23.99 23.13 0.58 o
-3 -2 9 21.26 21.87 0.56 o
-3 -2 10 205.85 208.74 4.67 o
-3 -2 11 20.56 20.53 0.53 o
-3 -2 12 0.35 0.36 0.11 o
-3 -2 13 19.32 19.81 0.62 o
-3 -2 14 4.51 4.25 0.22 o
-3 -2 15 45.84 46.99 1.20 o
-3 -2 16 4.14 4.09 0.24 o
-3 -1 2 17.37 16.65 0.50 o
-3 -1 3 199.53 195.39 4.41 o
-3 -1 4 11.06 9.75 0.29 o
-3 -1 5 116.00 119.90 2.72 o
-3 -1 6 72.51 69.23 1.75 o
-3 -1 7 10.13 9.79 0.29 o
-3 -1 8 62.86 59.25 1.37 o
-3 -1 9 17.87 18.40 0.48 o
-3 -1 10 8.85 8.50 0.30 o
-3 -1 11 29.28 28.95 0.72 o
-3 -1 12 1.03 1.03 0.14 o
-3 -1 13 48.89 49.44 1.30 o
-3 -1 14 6.30 6.13 0.34 o
-3 -1 15 4.86 5.08 0.25 o
-3 -1 16 14.57 14.30 0.61 o
-3 0 1 159.87 167.78 4.07 o
-3 0 2 4.95 5.25 0.15 o
-3 0 3 1.57 1.52 0.07 o
-3 0 4 2.88 2.88 0.10 o
-3 0 5 386.58 390.39 8.86 o
-3 0 6 160.85 160.35 3.70 o
-3 0 7 33.80 33.72 0.80 o
-3 0 8 104.43 104.39 3.29 o
-3 0 9 120.50 117.89 2.77 o
-3 0 10 130.75 126.41 2.96 o
-3 0 11 222.93 218.47 4.88 o
-3 0 12 51.00 51.99 1.25 o
-3 0 13 2.10 2.27 0.19 o
-3 0 15 5.29 5.18 0.28 o
-3 0 16 17.54 15.84 0.93 o
-3 1 0 342.99 343.31 7.98 o
-3 1 1 315.76 322.62 7.31 o
-3 1 2 139.59 145.47 3.29 o
-3 1 3 164.28 161.31 3.65 o
-3 1 4 31.65 32.97 0.78 o
-3 1 5 12.07 12.80 0.34 o
-3 1 6 123.81 128.37 2.93 o
-3 1 7 83.86 82.43 1.92 o
-3 1 8 3.13 3.27 0.16 o
-3 1 10 56.61 54.89 1.43 o
-3 1 11 223.20 220.84 4.90 o
-3 1 12 4.96 4.79 0.32 o
-3 1 13 24.19 24.34 0.65 o
-3 1 14 61.26 61.56 1.46 o
-3 1 15 19.71 19.57 0.73 o
-3 2 0 271.18 275.69 6.23 o
-3 2 1 36.29 38.21 0.89 o
-3 2 2 57.34 57.51 1.33 o
-3 2 3 96.92 96.64 2.20 o
-3 2 4 43.41 43.68 1.08 o
-3 2 5 1.43 1.26 0.09 o
-3 2 6 74.45 73.15 1.71 o
-3 2 7 19.73 19.08 0.52 o
-3 2 8 66.38 66.69 2.08 o
-3 2 9 4.44 4.58 0.23 o
-3 2 11 98.40 96.62 2.22 o
-3 2 14 2.52 2.18 0.23 o
-3 3 0 56.17 55.01 1.26 o
-3 3 1 1190.65 1180.27 27.50 o
-3 3 2 1.34 1.15 0.09 o
-3 3 3 100.46 99.24 2.34 o
-3 3 4 177.36 182.15 4.08 o
-3 3 5 132.25 133.31 3.23 o
-3 3 6 5.27 5.46 0.19 o
-3 3 7 102.69 103.32 2.47 o
-3 3 8 36.46 36.07 0.90 o
-3 3 9 8.45 8.84 0.33 o
-3 3 10 20.62 20.35 0.68 o
-3 3 12 126.95 122.11 2.93 o
-3 3 13 16.10 15.66 0.67 o
-3 4 0 61.20 59.04 1.38 o
-3 4 1 0.37 0.58 0.12 o
-3 4 2 142.09 139.19 3.14 o
-3 4 3 92.94 94.76 2.15 o
-3 4 4 2.17 2.21 0.14 o
-3 4 5 8.15 8.67 0.26 o
-3 4 6 207.21 204.02 4.54 o
-3 4 7 10.59 10.49 0.34 o
-3 4 8 0.94 0.77 0.14 o
-3 4 9 98.99 98.93 2.52 o
-3 4 11 16.33 15.82 0.50 o
-3 5 0 13.91 13.71 0.40 o
-3 5 1 2.48 2.66 0.16 o
-3 5 2 170.63 173.53 3.98 o
-3 5 3 103.49 105.06 2.37 o
-3 5 4 5.62 6.07 0.28 o
-3 5 5 0.73 0.55 0.10 o
-3 5 6 104.56 104.16 2.38 o
-3 5 7 50.15 51.20 1.26 o
-3 5 8 3.18 3.18 0.27 o
-3 5 9 1.76 1.91 0.24 o
-3 5 10 18.82 18.32 0.79 o
-3 5 11 11.46 10.71 0.45 o
-3 6 1 78.79 79.38 1.81 o
-3 6 2 39.79 40.42 1.02 o
-3 6 3 17.91 18.19 0.49 o
-3 6 4 70.21 71.67 1.87 o
-3 6 5 24.70 25.02 0.74 o
-3 6 6 137.34 139.17 3.15 o
-3 6 7 115.51 114.88 2.64 o
-3 6 8 109.97 112.35 2.88 o
-3 6 9 17.95 17.79 0.69 o
-3 7 0 87.53 89.27 2.09 o
-3 7 1 23.45 22.87 0.63 o
-3 7 2 7.98 7.94 0.27 o
-3 7 3 4.26 4.20 0.20 o
-3 7 4 47.71 48.77 1.29 o
-3 7 7 19.28 19.46 0.89 o
-3 8 0 3.46 3.26 0.20 o
-3 8 1 8.61 8.80 0.34 o
-3 8 2 79.52 78.55 1.88 o
-3 8 3 13.12 13.57 0.42 o
-3 8 4 6.88 6.20 0.32 o
-2 -9 1 0.57 0.45 0.15 o
-2 -9 2 52.00 50.99 1.24 o
-2 -9 3 9.17 9.66 0.36 o
-2 -9 4 4.29 3.86 0.21 o
-2 -9 5 15.51 15.49 0.46 o
-2 -9 6 36.46 36.94 0.99 o
-2 -9 7 11.59 10.99 0.39 o
-2 -9 9 6.56 6.53 0.25 o
-2 -8 1 0.96 1.00 0.15 o
-2 -8 2 63.65 62.53 1.46 o
-2 -8 3 44.83 44.12 1.24 o
-2 -8 4 4.61 4.64 0.21 o
-2 -8 5 1.29 1.26 0.16 o
-2 -8 6 48.72 47.22 1.26 o
-2 -8 7 27.77 28.55 0.71 o
-2 -8 8 32.91 32.29 0.83 o
-2 -8 9 10.10 9.67 0.35 o
-2 -8 11 18.94 18.50 0.69 o
-2 -8 12 2.41 2.64 0.30 o
-2 -8 13 1.72 1.47 0.41 o
-2 -7 1 42.23 41.52 1.01 o
-2 -7 2 50.75 50.79 1.21 o
-2 -7 3 36.32 37.38 0.91 o
-2 -7 4 77.37 79.25 2.04 o
-2 -7 5 87.53 86.93 1.98 o
-2 -7 6 21.30 21.40 0.56 o
-2 -7 7 84.12 86.38 2.15 o
-2 -7 8 205.22 207.74 4.63 o
-2 -7 11 46.62 47.01 1.15 o
-2 -7 12 34.43 34.13 1.05 o
-2 -7 14 0.64 0.46 0.14 o
-2 -6 1 59.26 58.33 1.38 o
-2 -6 2 55.54 55.37 1.40 o
-2 -6 3 19.03 18.07 0.46 o
-2 -6 4 1.19 1.48 0.11 o
-2 -6 5 117.11 115.44 2.76 o
-2 -6 6 33.93 33.82 0.82 o
-2 -6 7 39.86 39.94 0.94 o
-2 -6 8 28.71 29.14 0.70 o
-2 -6 9 15.98 16.06 0.48 o
-2 -6 10 57.11 58.69 1.41 o
-2 -6 11 9.74 9.38 0.32 o
-2 -6 12 10.43 10.13 0.34 o
-2 -6 13 19.22 19.32 0.54 o
-2 -6 14 12.31 12.29 0.40 o
-2 -6 15 34.40 34.64 0.87 o
-2 -5 1 21.66 21.06 0.61 o
-2 -5 2 127.39 127.12 2.86 o
-2 -5 3 16.45 16.88 0.47 o
-2 -5 4 0.53 0.44 0.08 o
-2 -5 5 13.64 14.19 0.37 o
-2 -5 6 99.05 98.10 2.21 o
-2 -5 7 168.81 171.76 3.84 o
-2 -5 8 11.34 11.46 0.32 o
-2 -5 9 108.49 106.92 2.42 o
-2 -5 10 32.75 32.41 0.81 o
-2 -5 11 54.06 53.28 1.30 o
-2 -5 13 113.32 113.34 2.57 o
-2 -5 14 1.13 1.53 0.15 o
-2 -5 15 0.84 0.54 0.12 o
-2 -5 16 10.16 9.72 0.65 o
-2 -4 1 115.15 118.88 2.82 o
-2 -4 2 8.40 7.90 0.23 o
-2 -4 3 511.15 512.14 11.98 o
-2 -4 4 56.34 56.43 1.37 o
-2 -4 5 57.15 56.92 1.50 o
-2 -4 6 14.48 15.25 0.39 o
-2 -4 7 3.64 3.95 0.14 o
-2 -4 8 265.20 264.36 6.72 o
-2 -4 9 41.78 41.26 0.98 o
-2 -4 10 0.91 1.50 0.12 o
-2 -4 11 58.66 57.69 1.34 o
-2 -4 12 129.37 129.69 2.91 o
-2 -4 13 59.98 61.48 1.42 o
-2 -4 14 99.99 100.37 2.32 o
-2 -4 15 23.10 24.19 0.63 o
-2 -4 16 36.77 37.45 0.93 o
-2 -3 1 94.98 87.96 2.18 o
-2 -3 2 112.90 110.17 2.94 o
-2 -3 3 7.12 7.93 0.27 o
-2 -3 4 18.85 18.70 0.46 o
-2 -3 5 17.07 15.56 0.39 o
-2 -3 6 172.09 168.16 4.06 o
-2 -3 7 0.68 0.68 0.08 o
-2 -3 8 23.29 22.73 0.57 o
-2 -3 9 50.94 48.88 1.14 o
-2 -3 10 85.83 84.76 1.93 o
-2 -3 11 0.31 0.31 0.10 o
-2 -3 12 23.21 22.77 0.57 o
-2 -3 13 80.64 80.57 1.83 o
-2 -3 14 1.22 1.60 0.22 o
-2 -3 15 0.18 0.56 0.12 o
-2 -3 16 4.15 4.43 0.22 o
-2 -3 17 28.59 28.60 0.80 o
-2 -2 1 186.36 188.39 4.40 o
-2 -2 2 534.72 533.27 13.53 o
-2 -2 3 1215.33 1199.03 28.42 o
-2 -2 4 956.23 918.14 23.17 o
-2 -2 5 118.87 118.44 2.69 o
-2 -2 6 128.85 125.83 2.87 o
-2 -2 7 31.93 31.12 0.74 o
-2 -2 8 16.55 16.08 0.40 o
-2 -2 9 115.24 115.77 2.63 o
-2 -2 11 68.49 67.72 1.60 o
-2 -2 12 4.93 5.32 0.19 o
-2 -2 13 23.91 24.39 0.61 o
-2 -2 14 164.45 169.76 3.82 o
-2 -2 15 1.56 1.41 0.14 o
-2 -2 17 25.25 26.82 1.09 o
-2 -1 1 26.53 28.24 0.77 o
-2 -1 2 362.13 373.62 8.68 o
-2 -1 3 213.75 221.83 5.58 o
-2 -1 4 1141.24 1103.87 34.56 o
-2 -1 5 38.22 36.67 0.99 o
-2 -1 6 27.40 27.30 0.66 o
-2 -1 7 192.98 197.24 5.15 o
-2 -1 8 352.32 350.09 7.95 o
-2 -1 9 3.80 4.00 0.16 o
-2 -1 10 36.78 37.52 0.88 o
-2 -1 11 117.11 118.58 2.66 o
-2 -1 12 8.62 8.45 0.27 o
-2 -1 13 25.06 25.13 0.68 o
-2 -1 14 13.56 13.79 0.39 o
-2 -1 15 54.34 56.98 1.34 o
-2 -1 16 23.87 24.35 0.73 o
-2 -1 17 2.60 2.50 0.24 o
-2 0 1 557.75 548.67 12.68 o
-2 0 2 13.10 15.14 0.38 o
-2 0 3 9.21 11.22 0.36 o
-2 0 4 660.73 654.37 15.99 o
-2 0 5 1.75 1.57 0.07 o
-2 0 6 23.12 21.50 0.51 o
-2 0 7 29.65 26.07 0.66 o
-2 0 8 106.11 101.44 2.44 o
-2 0 9 41.50 41.27 0.96 o
-2 0 10 11.90 12.90 0.36 o
-2 0 11 18.54 18.71 0.51 o
-2 0 12 63.86 63.76 1.47 o
-2 0 13 13.65 13.77 0.42 o
-2 0 14 7.28 6.76 0.57 o
-2 0 15 0.90 0.69 0.15 o
-2 0 16 9.44 10.03 0.42 o
-2 1 0 204.59 208.63 4.83 o
-2 1 1 192.81 197.09 4.52 o
-2 1 2 40.85 40.42 0.95 o
-2 1 3 596.26 607.81 14.15 o
-2 1 4 2.83 2.90 0.11 o
-2 1 5 421.30 432.02 9.90 o
-2 1 6 273.14 279.74 6.33 o
-2 1 7 61.60 63.19 1.51 o
-2 1 8 9.77 8.94 0.27 o
-2 1 9 763.83 744.72 19.67 o
-2 1 10 50.12 50.53 1.19 o
-2 1 11 8.33 7.93 0.27 o
-2 1 12 32.79 32.52 0.82 o
-2 1 13 38.34 38.27 0.97 o
-2 1 14 27.85 27.19 0.90 o
-2 1 15 14.17 14.05 0.51 o
-2 2 0 63.53 67.30 1.54 o
-2 2 1 33.10 32.35 0.80 o
-2 2 2 298.16 307.87 7.05 o
-2 2 3 0.62 0.59 0.05 o
-2 2 4 179.66 183.47 4.35 o
-2 2 5 4.99 4.56 0.17 o
-2 2 6 37.40 36.82 0.92 o
-2 2 7 37.36 39.56 1.20 o
-2 2 8 70.30 70.26 1.70 o
-2 2 9 97.92 95.67 2.17 o
-2 2 10 119.71 118.27 2.77 o
-2 2 11 70.06 68.07 1.59 o
-2 2 12 55.40 54.01 1.36 o
-2 2 14 46.30 47.76 1.53 o
-2 2 15 33.41 33.56 1.01 o
-2 3 0 205.51 207.16 4.69 o
-2 3 1 43.60 44.34 1.02 o
-2 3 2 11.81 10.79 0.28 o
-2 3 3 57.52 59.55 1.36 o
-2 3 4 229.79 231.12 5.21 o
-2 3 5 5.19 5.21 0.19 o
-2 3 6 7.50 7.88 0.27 o
-2 3 7 89.84 90.57 2.06 o
-2 3 8 23.82 24.12 0.62 o
-2 3 9 120.92 119.35 2.70 o
-2 3 10 38.83 38.25 0.95 o
-2 3 11 23.73 24.08 1.01 o
-2 3 12 17.79 16.11 0.53 o
-2 3 13 6.98 6.75 0.33 o
-2 3 14 2.49 2.09 0.37 o
-2 4 0 224.72 225.60 5.11 o
-2 4 1 401.09 400.74 9.13 o
-2 4 2 196.66 202.45 4.56 o
-2 4 3 15.02 15.23 0.40 o
-2 4 4 62.38 60.94 1.40 o
-2 4 5 283.38 289.69 7.33 o
-2 4 6 25.10 25.18 0.66 o
-2 4 7 3.59 2.56 0.18 o
-2 4 8 0.62 0.67 0.14 o
-2 4 9 23.81 23.80 0.64 o
-2 4 10 168.44 166.79 3.74 o
-2 4 12 17.26 16.01 0.57 o
-2 4 13 23.24 22.15 0.96 o
-2 5 0 69.86 67.02 1.58 o
-2 5 1 0.51 0.50 0.10 o
-2 5 2 84.79 87.57 2.00 o
-2 5 3 28.14 28.05 0.69 o
-2 5 4 115.88 114.44 3.07 o
-2 5 5 25.11 24.47 0.61 o
-2 5 6 36.93 36.55 0.94 o
-2 5 7 121.06 120.11 2.70 o
-2 5 8 9.41 9.84 0.62 o
-2 5 10 17.04 16.30 0.72 o
-2 5 11 15.85 15.96 0.56 o
-2 5 12 2.36 1.80 0.37 o
-2 6 0 284.57 287.68 6.44 o
-2 6 1 32.35 32.57 0.80 o
-2 6 2 30.89 30.53 0.75 o
-2 6 3 61.86 63.25 1.50 o
-2 6 4 171.01 174.38 4.27 o
-2 6 5 5.92 5.92 0.26 o
-2 6 6 76.94 77.16 1.82 o
-2 6 7 26.83 27.00 0.76 o
-2 6 8 21.47 21.46 0.66 o
-2 6 9 0.76 0.79 0.21 o
-2 6 10 14.55 14.24 0.72 o
-2 7 0 0.54 0.57 0.10 o
-2 7 1 72.81 73.92 1.71 o
-2 7 2 49.39 51.09 1.20 o
-2 7 3 0.42 0.54 0.15 o
-2 7 4 25.60 26.01 0.79 o
-2 7 5 249.11 248.55 6.05 o
-2 7 6 72.06 72.40 1.75 o
-2 7 7 1.53 1.35 0.19 o
-2 7 8 52.56 51.06 1.33 o
-2 8 0 3.12 2.90 0.19 o
-2 8 1 9.75 9.47 0.32 o
-2 8 2 76.35 78.70 1.92 o
-2 8 3 0.54 0.55 0.12 o
-2 8 4 3.78 3.74 0.20 o
-2 9 0 62.36 62.89 1.49 o
-2 9 1 0.60 0.64 0.13 o
-2 9 2 5.90 6.24 0.26 o
-1 -9 1 114.24 114.26 2.61 o
-1 -9 2 14.22 14.42 0.43 o
-1 -9 3 6.68 6.78 0.33 o
-1 -9 4 25.75 25.45 0.88 o
-1 -9 5 67.77 67.59 1.71 o
-1 -9 6 1.57 1.57 0.17 o
-1 -9 7 3.90 3.82 0.20 o
-1 -9 8 4.10 4.06 0.21 o
-1 -9 9 21.88 20.73 0.56 o
-1 -9 10 47.48 48.12 1.28 o
-1 -8 1 4.56 4.13 0.21 o
-1 -8 2 4.95 4.88 0.24 o
-1 -8 3 62.76 62.72 1.49 o
-1 -8 4 24.95 25.01 0.67 o
-1 -8 5 0.31 0.35 0.11 o
-1 -8 6 12.92 13.30 0.38 o
-1 -8 7 36.77 36.62 0.88 o
-1 -8 8 87.44 86.63 2.14 o
-1 -8 9 16.07 16.06 0.47 o
-1 -8 10 14.39 14.64 0.43 o
-1 -8 11 53.32 52.08 1.42 o
-1 -8 12 18.23 17.26 0.59 o
-1 -8 13 6.90 6.71 0.32 o
-1 -7 1 24.63 24.37 0.62 o
-1 -7 2 15.13 15.12 0.41 o
-1 -7 3 68.85 68.60 1.57 o
-1 -7 4 122.56 121.05 2.84 o
-1 -7 5 7.22 7.66 0.26 o
-1 -7 6 178.11 177.99 4.15 o
-1 -7 7 1.60 1.70 0.11 o
-1 -7 8 9.08 9.03 0.29 o
-1 -7 9 17.29 17.93 0.46 o
-1 -7 10 3.89 3.31 0.17 o
-1 -7 11 6.34 6.54 0.29 o
-1 -7 12 4.25 4.31 0.25 o
-1 -7 13 57.46 58.42 1.56 o
-1 -7 14 1.74 1.27 0.17 o
-1 -7 15 33.49 31.97 0.90 o
-1 -6 1 213.95 215.68 5.07 o
-1 -6 2 89.80 90.66 2.06 o
-1 -6 3 21.70 21.22 0.52 o
-1 -6 4 27.60 27.03 0.65 o
-1 -6 5 297.68 303.53 6.80 o
-1 -6 6 225.93 226.76 5.08 o
-1 -6 7 63.99 65.05 1.48 o
-1 -6 8 49.07 49.67 1.15 o
-1 -6 9 154.93 158.96 3.62 o
-1 -6 10 23.64 23.64 0.71 o
-1 -6 11 21.65 22.40 0.58 o
-1 -6 12 32.99 31.94 0.93 o
-1 -6 13 27.61 27.56 0.93 o
-1 -6 14 9.88 9.18 0.38 o
-1 -6 16 22.75 23.00 0.65 o
-1 -5 1 14.39 15.06 0.39 o
-1 -5 2 24.35 22.93 0.57 o
-1 -5 3 263.52 261.69 5.97 o
-1 -5 5 1.49 1.56 0.09 o
-1 -5 6 202.39 200.63 4.87 o
-1 -5 7 7.74 7.68 0.24 o
-1 -5 8 25.74 26.98 0.65 o
-1 -5 9 15.35 15.24 0.41 o
-1 -5 10 67.24 65.25 1.92 o
-1 -5 11 25.86 25.64 0.68 o
-1 -5 12 0.96 1.01 0.11 o
-1 -5 13 10.02 9.68 0.32 o
-1 -5 14 130.56 128.88 2.91 o
-1 -5 15 14.20 13.99 0.49 o
-1 -5 16 4.88 5.22 0.38 o
-1 -5 17 9.29 8.82 0.36 o
-1 -4 1 15.80 15.70 0.38 o
-1 -4 2 106.50 108.22 2.44 o
-1 -4 3 3.22 2.70 0.13 o
-1 -4 4 257.69 259.41 6.00 o
-1 -4 5 87.80 91.00 2.06 o
-1 -4 6 75.55 76.26 1.74 o
-1 -4 7 476.63 473.89 10.78 o
-1 -4 8 31.77 30.92 0.74 o
-1 -4 9 7.30 7.82 0.23 o
-1 -4 10 93.85 93.15 2.30 o
-1 -4 11 300.53 294.01 7.28 o
-1 -4 12 17.36 17.62 0.47 o
-1 -4 13 16.68 15.48 0.42 o
-1 -4 15 22.50 22.72 0.60 o
-1 -4 16 2.00 2.37 0.20 o
-1 -3 1 1410.80 1361.32 32.89 o
-1 -3 2 0.81 1.02 0.07 o
-1 -3 4 302.52 310.42 7.07 o
-1 -3 5 28.93 30.62 0.71 o
-1 -3 6 367.95 373.28 8.50 o
-1 -3 7 24.18 25.13 0.63 o
-1 -3 8 89.06 90.36 2.14 o
-1 -3 9 188.20 181.87 4.25 o
-1 -3 10 72.65 72.77 1.77 o
-1 -3 12 365.51 364.85 8.17 o
-1 -3 13 27.95 28.12 0.69 o
-1 -3 14 18.30 18.56 0.49 o
-1 -3 15 44.76 45.47 1.13 o
-1 -3 16 51.62 56.10 1.40 o
-1 -3 17 16.60 17.12 0.59 o
-1 -2 1 370.41 379.62 8.93 o
-1 -2 2 26.53 26.45 0.65 o
-1 -2 3 8.83 12.13 0.32 o
-1 -2 4 120.46 120.61 2.77 o
-1 -2 5 130.17 125.78 3.10 o
-1 -2 6 105.35 102.16 2.35 o
-1 -2 7 25.29 24.29 0.58 o
-1 -2 8 18.24 18.16 0.45 o
-1 -2 9 93.69 90.71 2.05 o
-1 -2 10 103.84 99.23 2.26 o
-1 -2 11 62.37 60.86 1.62 o
-1 -2 12 42.72 42.64 1.06 o
-1 -2 13 15.71 16.03 0.42 o
-1 -2 14 20.34 21.06 0.59 o
-1 -2 15 18.38 18.91 0.55 o
-1 -2 16 6.09 6.63 0.37 o
-1 -2 17 10.60 10.35 0.39 o
-1 -1 1 983.27 976.65 25.39 o
-1 -1 3 300.36 302.73 7.28 o
-1 -1 4 65.54 63.51 1.61 o
-1 -1 5 66.98 67.22 1.58 o
-1 -1 6 326.67 310.14 7.10 o
-1 -1 7 333.29 329.18 7.52 o
-1 -1 8 41.30 41.02 0.95 o
-1 -1 9 17.50 17.89 0.46 o
-1 -1 10 42.33 42.00 0.99 o
-1 -1 11 103.21 103.32 2.33 o
-1 -1 12 158.43 163.61 3.65 o
-1 -1 13 80.52 80.57 1.91 o
-1 -1 14 30.16 29.65 0.75 o
-1 -1 15 66.60 68.82 1.63 o
-1 -1 16 18.22 19.38 0.58 o
-1 -1 17 68.35 72.27 1.78 o
-1 0 1 975.31 934.85 24.44 o
-1 0 3 137.44 138.78 3.49 o
-1 0 4 314.07 320.64 8.08 o
-1 0 5 303.63 309.37 7.23 o
-1 0 6 210.13 206.40 4.87 o
-1 0 7 249.69 246.89 5.67 o
-1 0 8 145.92 140.62 3.28 o
-1 0 9 151.19 149.91 3.42 o
-1 0 10 8.75 8.61 0.25 o
-1 0 11 2.24 2.63 0.13 o
-1 0 12 103.75 104.12 2.43 o
-1 0 13 59.34 59.57 1.40 o
-1 0 14 1.91 2.11 0.36 o
-1 0 15 15.79 17.24 0.60 o
-1 0 16 27.83 28.92 0.82 o
-1 0 17 81.79 86.58 2.14 o
-1 1 0 488.08 477.71 11.45 o
-1 1 1 123.44 123.13 3.01 o
-1 1 2 1484.38 1432.54 44.13 o
-1 1 3 273.14 283.91 7.05 o
-1 1 4 43.72 45.92 1.16 o
-1 1 5 263.19 258.93 5.91 o
-1 1 6 115.30 115.65 2.77 o
-1 1 7 3.12 2.98 0.13 o
-1 1 8 171.89 170.03 3.84 o
-1 1 9 3.67 3.70 0.21 o
-1 1 10 93.85 91.10 2.25 o
-1 1 12 4.95 5.23 0.21 o
-1 1 13 22.39 22.07 0.60 o
-1 1 14 16.10 16.16 0.53 o
-1 1 15 8.90 9.01 0.39 o
-1 1 16 5.08 4.76 0.29 o
-1 2 0 0.04 0.27 0.05 o
-1 2 1 279.14 287.92 6.64 o
-1 2 2 249.59 255.44 5.89 o
-1 2 3 937.14 945.94 21.94 o
-1 2 4 129.99 137.30 3.11 o
-1 2 5 22.64 23.89 0.56 o
-1 2 6 67.08 70.19 1.60 o
-1 2 7 1172.62 1145.35 33.45 o
-1 2 8 5.72 5.09 0.21 o
-1 2 9 156.15 151.15 3.40 o
-1 2 10 139.91 131.76 2.97 o
-1 2 11 40.50 38.57 0.98 o
-1 2 12 1.69 1.91 0.19 o
-1 2 13 94.43 94.29 2.53 o
-1 2 14 6.01 5.85 0.27 o
-1 2 15 7.59 7.59 0.68 o
-1 3 0 472.91 487.39 11.27 o
-1 3 1 30.86 30.75 0.73 o
-1 3 2 39.37 38.13 0.90 o
-1 3 3 65.84 69.24 1.58 o
-1 3 4 102.67 103.99 2.40 o
-1 3 5 18.50 20.44 0.52 o
-1 3 6 3.18 2.63 0.12 o
-1 3 7 0.83 0.72 0.09 o
-1 3 8 258.20 258.25 5.92 o
-1 3 9 27.38 26.33 0.81 o
-1 3 10 2.75 2.46 0.19 o
-1 3 11 39.44 38.31 1.17 o
-1 3 12 83.89 82.14 1.94 o
-1 3 13 12.16 11.05 0.43 o
-1 3 14 1.50 1.41 0.25 o
-1 4 0 210.74 209.11 4.73 o
-1 4 1 132.12 138.64 3.14 o
-1 4 2 131.00 134.65 3.04 o
-1 4 3 55.39 57.17 1.31 o
-1 4 4 30.75 31.07 0.93 o
-1 4 5 172.87 180.14 4.13 o
-1 4 6 9.01 9.56 0.29 o
-1 4 7 24.63 24.35 0.64 o
-1 4 8 224.97 221.08 5.28 o
-1 4 9 48.17 47.79 1.19 o
-1 4 10 3.88 3.96 0.24 o
-1 4 11 5.53 5.22 0.35 o
-1 4 12 41.07 37.47 1.81 o
-1 4 13 46.42 44.73 1.62 o
-1 5 0 15.93 16.65 0.42 o
-1 5 1 59.17 59.38 1.41 o
-1 5 2 227.28 222.56 5.00 o
-1 5 3 215.24 220.91 4.96 o
-1 5 4 11.11 10.80 0.32 o
-1 5 5 87.67 86.95 2.03 o
-1 5 6 20.85 20.57 0.61 o
-1 5 7 28.44 28.48 0.73 o
-1 5 8 69.94 69.78 1.70 o
-1 5 9 50.04 48.94 1.50 o
-1 5 10 59.72 58.14 1.58 o
-1 5 11 23.05 21.41 1.27 o
-1 5 12 44.95 42.51 1.55 o
-1 6 0 85.21 85.26 1.93 o
-1 6 2 3.67 3.39 0.28 o
-1 6 3 124.16 124.48 2.98 o
-1 6 4 29.15 29.54 0.72 o
-1 6 5 31.93 32.76 0.81 o
-1 6 6 74.01 74.72 1.76 o
-1 6 7 7.87 7.62 0.34 o
-1 6 8 20.44 20.04 0.57 o
-1 6 9 1.02 0.94 0.16 o
-1 6 10 4.08 3.84 0.30 o
-1 7 0 144.49 144.74 3.24 o
-1 7 1 80.82 82.50 1.88 o
-1 7 2 68.66 69.98 1.61 o
-1 7 3 40.42 40.80 0.98 o
-1 7 4 196.01 200.74 4.70 o
-1 7 5 17.87 18.56 0.59 o
-1 7 7 16.59 16.29 0.53 o
-1 7 8 44.52 43.86 1.20 o
-1 8 0 0.91 0.96 0.12 o
-1 8 1 16.48 16.04 0.44 o
-1 8 2 1.08 1.40 0.14 o
-1 8 3 201.59 207.48 4.94 o
-1 8 4 4.28 4.11 0.21 o
-1 8 5 46.59 46.91 1.62 o
-1 8 6 72.82 71.13 1.79 o
-1 9 0 30.29 30.77 0.81 o
-1 9 1 22.73 23.57 0.63 o
-1 9 2 21.60 20.68 0.57 o
0 -9 1 17.95 17.98 0.53 o
0 -9 2 12.83 12.22 0.40 o
0 -9 3 1.13 1.18 0.14 o
0 -9 5 4.13 4.18 0.20 o
0 -9 6 104.37 102.62 2.36 o
0 -9 8 38.73 38.24 0.94 o
0 -9 9 50.94 52.13 1.25 o
0 -8 1 11.96 11.66 0.35 o
0 -8 2 122.83 124.62 2.81 o
0 -8 3 89.03 89.54 2.14 o
0 -8 4 9.58 9.68 0.30 o
0 -8 5 10.10 10.15 0.31 o
0 -8 6 62.72 63.35 1.46 o
0 -8 7 35.14 34.70 0.85 o
0 -8 8 16.64 16.84 0.46 o
0 -8 9 36.09 36.64 0.89 o
0 -8 10 74.29 75.56 1.87 o
0 -8 11 30.97 31.68 1.07 o
0 -8 13 33.25 32.65 1.15 o
0 -8 14 81.50 79.35 3.62 o
0 -7 1 42.53 42.75 0.99 o
0 -7 2 3.34 3.56 0.14 o
0 -7 3 40.40 39.88 0.94 o
0 -7 4 32.12 33.09 0.78 o
0 -7 5 23.93 22.94 0.57 o
0 -7 6 32.44 31.35 0.76 o
0 -7 7 155.86 157.70 3.53 o
0 -7 8 38.11 39.11 0.93 o
0 -7 9 37.43 37.73 0.90 o
0 -7 10 1.68 1.78 0.17 o
0 -7 11 79.07 79.88 1.86 o
0 -7 12 62.75 63.00 1.63 o
0 -7 14 12.25 11.55 0.57 o
0 -7 15 13.06 10.81 0.72 o
0 -6 1 160.43 159.84 3.58 o
0 -6 2 57.47 56.58 1.29 o
0 -6 3 53.29 52.21 1.27 o
0 -6 4 537.10 537.86 12.60 o
0 -6 5 8.93 9.92 0.32 o
0 -6 6 0.59 0.77 0.08 o
0 -6 7 3.80 3.54 0.16 o
0 -6 8 63.59 62.50 1.43 o
0 -6 9 25.34 25.90 0.68 o
0 -6 11 19.18 19.10 0.54 o
0 -6 12 63.96 62.84 1.93 o
0 -6 13 70.37 66.39 1.88 o
0 -6 14 11.42 10.71 0.42 o
0 -6 15 70.86 68.33 1.61 o
0 -6 16 2.74 2.29 0.19 o
0 -5 1 28.32 30.02 0.71 o
0 -5 2 218.37 219.64 4.95 o
0 -5 3 311.30 316.18 7.18 o
0 -5 4 38.16 39.19 0.95 o
0 -5 5 454.48 462.71 10.51 o
0 -5 6 134.83 136.36 3.26 o
0 -5 7 149.56 152.63 3.43 o
0 -5 8 13.96 14.47 0.37 o
0 -5 9 170.66 171.84 3.84 o
0 -5 10 91.92 92.62 2.25 o
0 -5 11 17.27 17.93 0.57 o
0 -5 12 6.55 6.37 0.28 o
0 -5 13 38.54 36.95 0.91 o
0 -5 14 64.41 62.47 1.45 o
0 -5 15 24.61 24.49 0.66 o
0 -5 16 15.32 14.48 0.52 o
0 -5 17 25.58 25.34 0.78 o
0 -4 1 183.13 186.03 4.21 o
0 -4 2 148.05 150.48 3.41 o
0 -4 3 64.20 66.65 1.52 o
0 -4 4 276.13 274.45 6.22 o
0 -4 5 87.58 88.27 2.00 o
0 -4 6 0.92 1.33 0.13 o
0 -4 7 107.94 109.17 2.47 o
0 -4 8 52.77 52.20 1.20 o
0 -4 9 0.54 0.36 0.10 o
0 -4 10 29.88 28.63 0.81 o
0 -4 11 0.42 0.41 0.11 o
0 -4 12 227.04 214.03 4.77 o
0 -4 13 1.12 1.19 0.21 o
0 -4 14 7.91 7.53 0.26 o
0 -4 15 52.84 53.06 1.41 o
0 -4 16 28.06 28.05 0.93 o
0 -4 17 3.16 3.30 0.28 o
0 -3 1 3.74 4.19 0.13 o
0 -3 2 162.61 167.38 3.81 o
0 -3 3 15.48 15.69 0.39 o
0 -3 4 637.19 642.15 15.08 o
0 -3 5 745.85 746.05 17.20 o
0 -3 6 46.31 46.96 1.08 o
0 -3 7 82.85 79.46 1.81 o
0 -3 8 380.45 377.78 8.58 o
0 -3 9 299.83 285.24 6.47 o
0 -3 10 233.06 216.74 5.03 o
0 -3 11 111.12 104.46 2.37 o
0 -3 12 5.69 6.48 0.26 o
0 -3 13 19.96 19.43 0.56 o
0 -3 14 7.33 7.21 0.27 o
0 -3 15 24.70 24.29 1.00 o
0 -3 17 17.20 17.57 0.77 o
0 -2 1 149.33 152.27 3.52 o
0 -2 2 883.78 892.06 21.64 o
0 -2 3 5.08 4.00 0.13 o
0 -2 4 201.31 202.82 4.65 o
0 -2 5 507.56 523.50 12.10 o
0 -2 6 149.37 155.13 3.52 o
0 -2 7 133.44 130.79 3.06 o
0 -2 8 8.56 7.76 0.21 o
0 -2 9 90.90 88.66 2.00 o
0 -2 10 539.53 532.00 12.11 o
0 -2 11 3.57 3.64 0.14 o
0 -2 12 5.40 5.47 0.22 o
0 -2 13 191.32 194.72 4.35 o
0 -2 14 55.95 58.58 1.39 o
0 -2 15 0.52 0.53 0.16 o
0 -2 16 28.83 29.68 0.92 o
0 -2 17 28.60 28.52 0.94 o
0 -1 1 556.93 539.21 13.38 o
0 -1 2 62.44 59.92 1.54 o
0 -1 3 409.80 381.73 9.54 o
0 -1 4 27.74 29.79 0.81 o
0 -1 5 50.84 50.24 1.16 o
0 -1 6 5.95 6.57 0.17 o
0 -1 7 226.77 224.51 5.10 o
0 -1 8 55.56 53.73 1.28 o
0 -1 9 0.64 0.92 0.09 o
0 -1 10 261.86 260.94 5.99 o
0 -1 11 18.75 19.00 0.48 o
0 -1 12 2.32 2.59 0.16 o
0 -1 13 2.25 2.72 0.24 o
0 -1 14 51.86 54.02 1.30 o
0 -1 15 12.67 12.95 0.91 o
0 -1 16 11.47 12.58 1.25 o
0 -1 17 30.10 31.78 0.99 o
0 0 2 248.54 240.83 6.75 o
0 0 3 993.40 936.05 29.29 o
0 0 4 862.40 806.78 19.83 o
0 0 5 180.43 184.56 4.23 o
0 0 6 580.16 567.73 13.18 o
0 0 7 6.03 6.35 0.17 o
0 0 8 153.91 150.44 3.40 o
0 0 9 54.43 53.92 1.27 o
0 0 10 17.13 17.28 0.48 o
0 0 11 359.68 361.05 8.11 o
0 0 12 53.72 53.68 1.40 o
0 0 13 33.59 36.08 0.93 o
0 0 14 6.32 6.17 0.24 o
0 0 15 200.06 207.59 4.86 o
0 0 16 32.64 33.25 1.60 o
0 1 0 201.43 195.32 5.19 o
0 1 1 917.30 872.37 25.40 o
0 1 2 337.48 374.16 30.16 o
0 1 3 59.31 61.86 1.50 o
0 1 4 1.64 1.54 0.13 o
0 1 5 720.27 718.61 16.67 o
0 1 6 74.26 74.43 1.70 o
0 1 7 25.51 26.11 0.65 o
0 1 8 161.65 164.26 4.80 o
0 1 9 42.67 43.71 1.07 o
0 1 10 113.51 109.91 2.49 o
0 1 11 1.57 1.41 0.14 o
0 1 12 28.15 29.10 0.75 o
0 1 13 72.50 75.87 1.74 o
0 1 14 20.65 20.91 0.63 o
0 1 15 22.84 24.88 0.73 o
0 1 16 78.87 82.35 2.06 o
0 2 0 581.84 575.45 13.92 o
0 2 1 1526.63 1477.01 36.96 o
0 2 2 232.36 235.19 5.59 o
0 2 3 225.91 222.76 5.38 o
0 2 4 0.24 0.38 0.04 o
0 2 5 246.98 245.42 5.60 o
0 2 6 341.37 346.80 7.88 o
0 2 7 43.74 43.24 1.00 o
0 2 8 17.20 17.71 0.49 o
0 2 9 54.17 52.28 1.31 o
0 2 10 34.87 34.82 1.01 o
0 2 11 15.35 13.43 0.69 o
0 2 13 1.82 1.74 0.16 o
0 2 14 36.88 37.48 1.00 o
0 2 15 39.25 40.44 1.18 o
0 3 0 455.43 460.37 10.62 o
0 3 1 464.29 465.58 10.73 o
0 3 2 16.10 15.71 0.38 o
0 3 3 266.17 276.55 6.26 o
0 3 4 145.41 149.83 3.54 o
0 3 5 719.01 711.62 16.42 o
0 3 6 312.41 313.04 7.57 o
0 3 7 389.32 387.65 8.79 o
0 3 8 118.15 117.05 2.90 o
0 3 9 0.19 0.32 0.10 o
0 3 10 42.45 41.36 1.25 o
0 3 11 199.92 193.22 5.74 o
0 3 12 0.93 0.71 0.17 o
0 3 14 9.56 9.38 0.73 o
0 4 0 12.05 12.38 0.31 o
0 4 1 121.45 124.11 2.82 o
0 4 2 23.80 23.62 0.55 o
0 4 3 18.17 17.33 0.48 o
0 4 4 34.72 37.97 0.91 o
0 4 5 12.71 13.18 0.40 o
0 4 6 139.54 142.91 3.38 o
0 4 7 12.30 12.48 0.36 o
0 4 8 19.89 20.40 0.52 o
0 4 9 67.52 68.63 1.84 o
0 4 10 31.49 31.89 0.83 o
0 4 11 5.53 5.56 0.26 o
0 4 12 21.83 21.07 0.65 o
0 4 13 35.20 35.62 1.21 o
0 5 0 0.40 0.49 0.07 o
0 5 1 253.31 256.33 5.77 o
0 5 2 53.26 54.09 1.24 o
0 5 3 60.09 63.12 1.76 o
0 5 4 17.48 17.71 0.47 o
0 5 5 8.41 9.48 0.29 o
0 5 6 327.00 320.01 7.14 o
0 5 7 5.20 5.28 0.37 o
0 5 8 23.74 23.93 0.68 o
0 5 9 57.78 57.58 1.56 o
0 5 10 61.16 59.46 1.97 o
0 5 11 8.05 7.63 0.42 o
0 5 12 110.73 106.79 6.24 o
0 6 0 156.82 156.37 3.51 o
0 6 1 18.58 19.13 0.53 o
0 6 2 151.29 149.48 3.35 o
0 6 3 137.74 137.61 3.08 o
0 6 4 3.57 3.69 0.26 o
0 6 6 1.83 1.79 0.15 o
0 6 7 116.50 115.77 2.62 o
0 6 8 36.11 35.62 1.29 o
0 6 10 1.29 1.11 0.22 o
0 7 0 13.66 14.34 0.37 o
0 7 1 85.51 85.27 1.93 o
0 7 2 1.35 1.31 0.12 o
0 7 3 2.10 1.88 0.18 o
0 7 4 109.80 109.12 3.07 o
0 7 5 1.82 1.46 0.18 o
0 7 7 10.63 10.16 0.44 o
0 7 8 16.04 15.61 0.50 o
0 8 1 143.23 144.34 3.24 o
0 8 2 151.93 154.42 3.60 o
0 8 3 3.68 3.55 0.28 o
0 8 4 33.15 32.84 1.23 o
0 8 5 44.62 42.85 1.71 o
0 8 6 26.99 25.16 0.86 o
0 9 0 2.96 2.78 0.24 o
0 9 1 72.57 73.85 1.98 o
0 9 2 11.51 11.78 0.53 o
1 -9 1 22.37 22.68 0.79 o
1 -9 2 38.44 37.84 0.95 o
1 -9 3 8.17 8.07 0.31 o
1 -9 4 60.17 60.50 1.44 o
1 -9 5 45.80 45.63 1.12 o
1 -9 6 12.82 12.95 0.45 o
1 -9 7 3.37 3.11 0.20 o
1 -9 8 5.81 5.63 0.24 o
1 -9 9 35.28 36.25 1.05 o
1 -9 10 18.66 19.14 0.59 o
1 -8 1 39.70 41.14 0.97 o
1 -8 2 11.99 11.93 0.35 o
1 -8 3 2.80 2.81 0.14 o
1 -8 4 54.44 53.89 1.26 o
1 -8 5 62.06 63.05 1.54 o
1 -8 6 105.62 105.67 2.48 o
1 -8 7 33.83 33.83 0.86 o
1 -8 8 45.46 46.76 1.11 o
1 -8 9 12.72 12.29 0.40 o
1 -8 10 73.64 73.94 1.75 o
1 -8 12 49.38 49.41 1.87 o
1 -7 1 13.38 13.58 0.36 o
1 -7 2 134.43 136.39 3.06 o
1 -7 3 66.67 66.52 1.52 o
1 -7 4 92.66 91.88 2.08 o
1 -7 6 13.37 12.72 0.35 o
1 -7 7 158.58 158.98 3.55 o
1 -7 8 73.19 74.18 1.89 o
1 -7 10 44.60 45.17 1.12 o
1 -7 11 95.13 96.39 2.21 o
1 -7 12 72.91 72.78 1.85 o
1 -7 13 40.35 38.89 1.61 o
1 -7 14 13.25 11.95 0.54 o
1 -7 15 59.25 54.60 2.45 o
1 -6 1 48.04 47.97 1.11 o
1 -6 2 0.40 0.78 0.10 o
1 -6 3 1.67 1.82 0.15 o
1 -6 4 0.71 0.42 0.08 o
1 -6 5 301.94 303.05 6.99 o
1 -6 6 2.13 2.37 0.13 o
1 -6 7 0.46 0.54 0.09 o
1 -6 8 68.95 71.09 1.63 o
1 -6 9 129.99 130.90 2.93 o
1 -6 10 15.94 16.67 0.49 o
1 -6 11 54.69 55.56 1.44 o
1 -6 12 62.86 62.36 1.67 o
1 -6 13 10.34 10.22 0.71 o
1 -6 14 0.61 0.80 0.17 o
1 -6 16 47.55 45.60 1.27 o
1 -5 1 344.28 338.57 7.81 o
1 -5 2 666.66 662.05 15.19 o
1 -5 3 198.32 198.81 4.48 o
1 -5 4 53.16 50.47 1.16 o
1 -5 5 92.40 89.81 2.15 o
1 -5 6 86.19 84.54 1.94 o
1 -5 7 0.37 0.51 0.07 o
1 -5 8 68.43 68.40 1.56 o
1 -5 9 0.44 0.72 0.10 o
1 -5 10 139.15 138.46 3.15 o
1 -5 11 21.51 21.43 0.65 o
1 -5 12 12.57 12.08 0.39 o
1 -5 13 215.11 205.76 4.59 o
1 -5 15 3.41 3.40 0.23 o
1 -5 16 33.88 32.23 0.93 o
1 -4 1 48.23 47.78 1.10 o
1 -4 2 60.92 59.88 1.37 o
1 -4 3 891.03 896.46 20.58 o
1 -4 4 43.56 41.77 0.96 o
1 -4 5 13.87 14.62 0.35 o
1 -4 6 267.63 264.99 5.98 o
1 -4 7 304.40 310.34 7.00 o
1 -4 8 33.28 35.02 0.82 o
1 -4 9 13.55 12.72 0.37 o
1 -4 10 125.54 125.64 2.83 o
1 -4 11 99.82 96.70 2.56 o
1 -4 12 27.45 27.14 0.78 o
1 -4 13 3.36 3.19 0.23 o
1 -4 14 104.90 101.33 2.32 o
1 -4 15 48.25 49.02 1.39 o
1 -4 16 8.74 8.53 0.35 o
1 -4 17 5.97 5.26 0.38 o
1 -3 1 31.25 32.85 0.77 o
1 -3 2 46.13 42.19 0.98 o
1 -3 3 742.42 733.60 16.90 o
1 -3 4 2.04 2.77 0.09 o
1 -3 5 64.76 63.90 1.52 o
1 -3 6 5.38 6.22 0.19 o
1 -3 7 96.80 95.60 2.25 o
1 -3 8 74.73 72.23 1.66 o
1 -3 9 19.11 18.14 0.48 o
1 -3 10 159.51 152.06 3.42 o
1 -3 11 89.61 88.68 2.16 o
1 -3 12 40.59 38.99 1.22 o
1 -3 13 47.43 46.99 1.12 o
1 -3 14 0.56 0.67 0.16 o
1 -3 15 11.38 10.63 0.38 o
1 -3 16 103.45 108.01 3.01 o
1 -3 17 4.73 4.99 0.38 o
1 -2 1 307.57 326.07 7.56 o
1 -2 2 990.83 996.14 23.02 o
1 -2 3 271.21 270.51 6.32 o
1 -2 4 811.94 802.51 20.54 o
1 -2 5 347.42 341.55 8.22 o
1 -2 6 394.37 393.91 9.28 o
1 -2 7 31.94 31.40 0.74 o
1 -2 8 942.55 905.18 20.89 o
1 -2 9 170.28 160.79 3.62 o
1 -2 10 1.82 1.48 0.10 o
1 -2 11 5.18 5.11 0.20 o
1 -2 12 93.32 92.82 2.26 o
1 -2 13 58.43 58.25 1.35 o
1 -2 14 2.56 3.39 0.19 o
1 -2 15 1.12 1.07 0.21 o
1 -2 16 8.76 8.72 0.57 o
1 -2 17 25.54 25.04 1.33 o
1 -1 1 417.47 403.35 9.42 o
1 -1 2 4.21 3.71 0.12 o
1 -1 3 961.24 988.48 24.16 o
1 -1 4 7.41 7.94 0.24 o
1 -1 5 0.25 0.24 0.04 o
1 -1 6 229.55 224.14 5.08 o
1 -1 7 139.26 135.06 3.08 o
1 -1 8 263.87 259.98 5.90 o
1 -1 9 212.50 209.16 4.71 o
1 -1 10 61.53 60.87 1.39 o
1 -1 11 228.76 228.17 5.43 o
1 -1 12 1.03 1.15 0.11 o
1 -1 13 37.21 39.15 0.96 o
1 -1 14 88.07 91.66 2.11 o
1 -1 15 30.65 31.03 0.93 o
1 -1 16 2.91 3.18 0.32 o
1 0 0 152.54 157.21 3.78 o
1 0 1 102.13 102.76 2.81 o
1 0 2 129.76 129.38 3.06 o
1 0 3 336.65 347.09 8.12 o
1 0 4 1.49 2.13 0.09 o
1 0 5 100.25 98.69 2.24 o
1 0 6 7.67 8.15 0.21 o
1 0 7 105.98 110.02 2.51 o
1 0 8 336.78 333.34 7.54 o
1 0 9 14.18 14.00 0.36 o
1 0 10 38.45 38.24 0.90 o
1 0 11 49.78 52.58 1.22 o
1 0 12 52.16 53.83 1.27 o
1 0 13 2.19 2.20 0.15 o
1 0 14 66.63 71.46 1.99 o
1 0 15 19.09 20.86 0.72 o
1 0 16 33.80 34.21 1.02 o
1 1 0 1083.61 1053.41 41.82 o
1 1 1 1143.98 1109.62 30.60 o
1 1 2 299.99 284.23 6.77 o
1 1 3 39.10 37.16 0.88 o
1 1 4 1342.74 1303.93 35.06 o
1 1 5 5.93 6.95 0.19 o
1 1 6 58.57 56.27 1.29 o
1 1 7 9.73 9.95 0.28 o
1 1 8 36.91 37.24 0.87 o
1 1 9 495.57 492.87 11.15 o
1 1 10 1.64 1.71 0.16 o
1 1 11 4.79 4.82 0.22 o
1 1 12 97.11 97.65 2.39 o
1 1 13 235.04 245.44 5.96 o
1 1 15 126.15 132.73 6.44 o
1 2 0 0.22 0.56 0.05 o
1 2 1 54.85 52.10 1.22 o
1 2 2 66.31 66.10 1.66 o
1 2 3 423.78 424.32 9.91 o
1 2 4 16.93 17.42 0.43 o
1 2 5 19.46 19.53 0.47 o
1 2 6 279.60 283.65 6.41 o
1 2 7 13.94 14.71 0.41 o
1 2 8 11.47 10.17 0.28 o
1 2 9 51.07 50.22 1.16 o
1 2 10 75.63 76.85 1.83 o
1 2 11 47.04 48.26 1.45 o
1 2 12 1.59 1.64 0.16 o
1 2 13 2.00 1.88 0.28 o
1 2 14 126.36 135.54 4.21 o
1 3 0 74.83 78.11 1.78 o
1 3 1 0.56 0.30 0.04 o
1 3 2 184.14 182.20 4.15 o
1 3 3 471.25 462.22 10.64 o
1 3 4 117.38 119.08 2.71 o
1 3 5 287.42 288.94 6.52 o
1 3 6 10.26 10.10 0.27 o
1 3 7 100.57 99.12 2.26 o
1 3 8 8.03 8.82 0.27 o
1 3 9 5.89 6.37 0.22 o
1 3 10 25.18 24.75 0.85 o
1 3 11 13.51 13.11 0.84 o
1 3 12 29.37 29.73 0.83 o
1 3 13 3.93 3.62 0.30 o
1 3 14 55.16 57.52 2.76 o
1 4 0 188.13 186.47 4.21 o
1 4 1 219.31 214.38 4.92 o
1 4 2 24.63 25.26 0.60 o
1 4 3 118.64 114.21 2.65 o
1 4 4 692.32 683.85 15.62 o
1 4 5 275.53 275.36 6.17 o
1 4 6 2.18 2.15 0.13 o
1 4 7 89.63 88.79 2.22 o
1 4 8 126.01 124.93 2.97 o
1 4 9 133.74 133.15 3.33 o
1 4 10 25.82 26.36 0.70 o
1 4 11 27.19 26.85 1.00 o
1 4 12 30.53 29.06 1.40 o
1 4 13 1.22 1.44 0.35 o
1 5 0 16.51 16.40 0.43 o
1 5 1 103.82 101.34 2.30 o
1 5 2 40.73 41.63 0.98 o
1 5 4 4.37 4.31 0.20 o
1 5 5 95.56 94.99 2.24 o
1 5 6 19.05 19.53 0.54 o
1 5 7 12.77 13.01 0.40 o
1 5 8 1.41 1.09 0.14 o
1 5 9 42.17 42.32 1.34 o
1 5 10 14.86 14.39 0.49 o
1 5 11 7.42 7.05 0.56 o
1 6 0 0.27 0.37 0.08 o
1 6 1 3.13 2.74 0.20 o
1 6 2 80.21 78.81 1.86 o
1 6 3 24.77 25.29 0.92 o
1 6 4 156.59 153.60 4.77 o
1 6 5 34.26 33.49 0.86 o
1 6 6 102.12 100.42 2.98 o
1 6 7 57.83 57.67 1.46 o
1 6 8 13.71 13.49 0.44 o
1 6 9 15.17 14.33 0.47 o
1 6 10 173.84 179.75 4.07 o
1 7 0 188.49 187.64 4.19 o
1 7 1 40.67 40.57 0.98 o
1 7 2 20.67 20.13 0.53 o
1 7 3 20.63 19.71 0.64 o
1 7 4 2.70 2.68 0.25 o
1 7 5 67.49 68.03 1.94 o
1 7 7 14.71 14.24 0.66 o
1 7 8 2.84 2.47 0.23 o
1 8 0 48.93 48.35 1.22 o
1 8 1 14.07 13.62 0.50 o
1 8 2 39.53 40.65 1.01 o
1 8 3 10.15 9.91 0.37 o
1 8 4 11.59 10.79 0.36 o
1 8 5 18.53 17.36 0.80 o
1 9 0 30.89 30.90 0.82 o
1 9 1 61.84 61.05 1.50 o
1 9 2 59.27 58.52 1.68 o
2 -9 1 45.68 46.91 1.14 o
2 -9 2 19.59 19.35 0.54 o
2 -9 3 7.03 6.87 0.27 o
2 -9 4 71.27 73.39 1.72 o
2 -9 5 116.29 117.73 2.74 o
2 -9 6 7.49 7.56 0.37 o
2 -9 7 3.54 3.83 0.26 o
2 -9 8 91.45 94.13 2.20 o
2 -9 9 19.58 18.98 0.59 o
2 -8 1 7.94 7.58 0.27 o
2 -8 2 137.92 139.39 3.13 o
2 -8 3 17.38 17.23 0.48 o
2 -8 4 8.49 8.35 0.29 o
2 -8 5 52.77 52.76 1.26 o
2 -8 6 11.37 10.84 0.34 o
2 -8 7 18.53 19.09 0.51 o
2 -8 9 31.17 32.27 0.81 o
2 -8 10 9.86 9.79 0.41 o
2 -8 11 15.30 14.97 0.73 o
2 -8 12 27.51 26.83 0.82 o
2 -7 1 14.28 14.53 0.43 o
2 -7 2 2.63 2.83 0.18 o
2 -7 3 168.90 169.29 3.79 o
2 -7 4 58.61 58.54 1.36 o
2 -7 5 2.78 2.77 0.16 o
2 -7 6 206.00 211.40 4.72 o
2 -7 7 24.55 24.21 0.61 o
2 -7 8 38.28 37.88 0.91 o
2 -7 9 46.02 47.29 1.11 o
2 -7 10 137.65 140.89 3.17 o
2 -7 12 6.48 6.31 0.36 o
2 -7 13 8.16 7.58 0.34 o
2 -7 14 31.01 29.39 0.79 o
2 -6 1 41.54 40.22 0.95 o
2 -6 2 15.80 15.59 0.43 o
2 -6 3 90.71 90.55 2.06 o
2 -6 4 93.29 91.91 2.09 o
2 -6 5 148.02 148.04 3.32 o
2 -6 6 0.75 0.99 0.14 o
2 -6 7 71.14 71.79 1.63 o
2 -6 8 144.55 148.23 3.33 o
2 -6 9 57.24 59.33 1.37 o
2 -6 10 3.99 4.07 0.21 o
2 -6 11 183.20 182.49 4.55 o
2 -6 12 30.55 30.96 0.79 o
2 -6 13 49.65 48.31 1.17 o
2 -6 14 17.21 16.95 0.54 o
2 -6 15 36.39 33.92 0.96 o
2 -5 1 26.83 27.61 0.71 o
2 -5 2 2.45 2.14 0.12 o
2 -5 3 194.60 199.44 4.49 o
2 -5 4 69.78 70.85 1.63 o
2 -5 5 44.36 45.52 1.06 o
2 -5 6 84.78 87.25 1.98 o
2 -5 7 35.30 34.05 0.80 o
2 -5 8 23.14 23.29 0.56 o
2 -5 9 200.33 201.91 4.74 o
2 -5 10 43.67 44.23 1.16 o
2 -5 11 8.93 9.01 0.31 o
2 -5 12 19.83 18.68 0.50 o
2 -5 13 10.42 10.09 0.42 o
2 -5 14 47.23 46.02 1.53 o
2 -5 15 6.32 6.32 0.31 o
2 -4 1 860.68 865.32 20.31 o
2 -4 2 164.29 162.41 3.69 o
2 -4 3 89.44 87.38 1.98 o
2 -4 4 0.96 1.11 0.15 o
2 -4 5 91.22 89.57 2.03 o
2 -4 6 232.69 232.95 5.39 o
2 -4 8 56.91 57.24 1.35 o
2 -4 9 22.66 22.42 0.58 o
2 -4 10 103.06 101.98 2.31 o
2 -4 11 228.36 224.39 5.01 o
2 -4 12 41.14 40.88 1.00 o
2 -4 13 14.23 13.45 0.41 o
2 -4 14 101.53 97.90 2.72 o
2 -4 15 29.91 29.03 0.88 o
2 -4 16 33.57 33.90 0.91 o
2 -3 1 520.31 535.75 12.27 o
2 -3 2 51.92 54.94 1.27 o
2 -3 3 43.28 41.71 0.97 o
2 -3 4 476.69 463.77 10.67 o
2 -3 5 116.54 115.83 2.65 o
2 -3 6 29.88 26.93 0.63 o
2 -3 7 145.29 143.99 3.28 o
2 -3 8 214.82 211.96 4.99 o
2 -3 9 31.05 31.07 0.78 o
2 -3 10 15.30 14.49 0.39 o
2 -3 11 90.38 87.24 2.13 o
2 -3 12 145.58 142.51 3.73 o
2 -3 13 7.93 8.12 0.29 o
2 -3 14 15.64 15.86 0.53 o
2 -3 15 52.38 51.54 1.25 o
2 -3 16 78.86 81.31 1.96 o
2 -2 1 1006.23 1008.37 23.06 o
2 -2 2 68.06 63.53 1.46 o
2 -2 3 13.43 14.44 0.41 o
2 -2 4 178.26 185.98 4.31 o
2 -2 5 153.57 149.96 3.53 o
2 -2 6 2.16 2.42 0.09 o
2 -2 7 182.10 177.77 4.00 o
2 -2 8 66.46 62.27 1.42 o
2 -2 9 188.89 187.56 4.30 o
2 -2 10 9.48 8.80 0.26 o
2 -2 11 0.63 0.69 0.10 o
2 -2 12 27.76 27.60 0.74 o
2 -2 13 35.42 35.74 0.93 o
2 -2 14 76.78 78.54 1.81 o
2 -2 15 15.51 15.10 0.44 o
2 -2 16 52.06 54.76 1.36 o
2 -1 1 27.46 29.81 0.74 o
2 -1 2 1310.01 1311.25 30.07 o
2 -1 3 170.15 167.98 3.81 o
2 -1 4 40.83 41.97 0.97 o
2 -1 5 114.67 115.32 2.62 o
2 -1 6 1354.41 1319.33 30.43 o
2 -1 7 20.10 19.41 0.47 o
2 -1 8 138.61 129.41 3.03 o
2 -1 9 109.46 108.90 2.53 o
2 -1 10 149.42 146.61 3.29 o
2 -1 11 11.80 11.26 0.31 o
2 -1 12 68.50 70.77 1.65 o
2 -1 13 12.68 12.27 0.37 o
2 -1 14 29.87 29.87 0.78 o
2 -1 15 10.76 10.70 0.52 o
2 -1 16 4.10 4.55 0.43 o
2 0 0 1.20 1.29 0.06 o
2 0 1 271.07 287.30 6.57 o
2 0 2 133.25 129.91 2.97 o
2 0 3 84.43 86.89 1.98 o
2 0 4 242.89 242.59 5.52 o
2 0 5 6.41 6.41 0.20 o
2 0 6 4.95 4.91 0.15 o
2 0 7 470.26 457.99 10.40 o
2 0 8 25.55 24.31 0.59 o
2 0 9 62.65 62.37 1.43 o
2 0 10 68.70 68.45 1.56 o
2 0 11 101.51 103.97 2.35 o
2 0 12 57.46 57.83 1.36 o
2 0 13 0.90 1.12 0.14 o
2 0 14 13.10 12.58 0.53 o
2 0 15 83.52 89.20 2.12 o
2 1 0 282.91 282.96 6.78 o
2 1 1 147.34 149.28 3.66 o
2 1 2 61.24 61.06 1.41 o
2 1 3 0.50 0.68 0.05 o
2 1 4 105.08 105.85 2.46 o
2 1 5 123.60 127.15 2.92 o
2 1 6 88.24 88.15 2.08 o
2 1 7 230.26 228.93 5.16 o
2 1 8 119.50 118.60 2.68 o
2 1 9 29.19 30.48 0.74 o
2 1 11 80.72 83.41 1.90 o
2 1 12 102.45 106.22 2.51 o
2 1 13 44.05 47.79 1.21 o
2 1 14 12.42 11.66 0.63 o
2 1 15 3.75 3.65 0.27 o
2 2 0 10.92 12.19 0.30 o
2 2 1 335.71 336.03 7.69 o
2 2 2 797.11 794.74 18.43 o
2 2 3 31.54 31.20 0.74 o
2 2 4 12.88 14.06 0.35 o
2 2 5 117.64 116.78 2.65 o
2 2 6 68.81 67.92 1.61 o
2 2 7 220.97 216.70 4.86 o
2 2 8 80.96 82.44 1.88 o
2 2 9 77.83 78.44 1.85 o
2 2 10 116.71 117.35 2.65 o
2 2 11 83.92 85.36 2.02 o
2 2 12 66.52 69.44 1.94 o
2 2 13 204.58 206.65 8.58 o
2 2 14 3.54 3.41 0.26 o
2 3 0 18.93 17.95 0.45 o
2 3 1 19.40 20.49 0.49 o
2 3 2 168.91 170.01 3.86 o
2 3 3 34.94 34.44 0.81 o
2 3 4 110.08 110.70 2.50 o
2 3 5 17.78 17.19 0.43 o
2 3 6 18.47 20.13 0.50 o
2 3 7 85.65 83.79 2.03 o
2 3 8 24.90 25.53 0.79 o
2 3 10 48.36 50.18 1.22 o
2 3 11 15.02 15.35 0.51 o
2 3 12 59.37 62.81 1.72 o
2 3 13 22.06 22.34 1.18 o
2 4 0 247.87 247.82 5.72 o
2 4 1 212.42 210.59 4.86 o
2 4 2 13.32 12.38 0.33 o
2 4 3 536.00 530.59 12.03 o
2 4 4 15.16 14.96 0.38 o
2 4 5 18.79 19.10 0.47 o
2 4 6 22.67 22.18 0.55 o
2 4 7 65.01 66.40 1.53 o
2 4 8 31.24 29.97 0.79 o
2 4 9 0.60 0.69 0.12 o
2 4 11 8.25 8.15 0.44 o
2 4 12 83.62 84.53 3.03 o
2 5 0 13.88 12.97 0.36 o
2 5 2 493.91 484.24 11.05 o
2 5 3 31.93 31.12 0.86 o
2 5 4 67.85 67.50 1.54 o
2 5 5 155.10 155.65 3.87 o
2 5 6 68.24 68.89 1.59 o
2 5 7 10.86 10.60 0.47 o
2 5 8 113.54 115.24 2.61 o
2 5 9 44.31 44.45 1.09 o
2 5 10 11.44 11.32 0.41 o
2 6 1 32.46 31.87 0.81 o
2 6 2 14.20 13.63 0.38 o
2 6 3 66.13 66.21 1.66 o
2 6 4 2.05 2.00 0.15 o
2 6 5 6.52 6.48 0.30 o
2 6 6 22.21 21.11 0.64 o
2 6 7 24.57 25.66 0.75 o
2 6 9 1.63 1.68 0.21 o
2 7 0 44.28 43.77 1.06 o
2 7 1 0.92 1.15 0.21 o
2 7 2 17.55 17.15 0.47 o
2 7 3 104.71 101.78 2.36 o
2 7 4 81.23 80.94 2.46 o
2 7 5 5.61 6.02 0.25 o
2 7 6 4.46 4.66 0.28 o
2 7 7 62.71 61.92 1.85 o
2 8 0 62.20 60.55 1.43 o
2 8 1 17.02 16.70 0.51 o
2 8 3 8.59 8.32 0.47 o
2 8 4 12.13 11.71 0.43 o
3 -9 1 38.95 39.88 1.05 o
3 -9 2 11.36 11.21 0.38 o
3 -9 3 104.83 107.85 2.47 o
3 -9 4 0.56 0.63 0.14 o
3 -9 6 3.33 3.35 0.25 o
3 -8 1 64.10 65.12 1.52 o
3 -8 2 68.73 70.09 1.63 o
3 -8 3 34.41 35.38 0.88 o
3 -8 4 84.61 84.94 1.99 o
3 -8 5 28.65 29.21 0.75 o
3 -8 6 103.13 105.23 2.40 o
3 -8 7 0.15 0.41 0.14 o
3 -8 8 28.78 30.04 0.77 o
3 -8 9 58.91 58.76 1.49 o
3 -8 10 27.91 29.07 0.95 o
3 -7 1 9.57 9.76 0.31 o
3 -7 2 84.46 85.51 1.95 o
3 -7 3 60.87 61.69 1.45 o
3 -7 4 2.00 2.42 0.16 o
3 -7 5 1.27 1.24 0.13 o
3 -7 6 29.65 29.46 0.73 o
3 -7 7 37.26 38.59 0.96 o
3 -7 10 2.31 2.53 0.24 o
3 -7 11 168.11 168.67 4.11 o
3 -7 12 4.29 3.83 0.26 o
3 -6 1 107.86 111.12 2.51 o
3 -6 2 1.19 1.33 0.16 o
3 -6 3 92.86 93.25 2.12 o
3 -6 4 260.05 265.47 5.92 o
3 -6 5 0.44 0.69 0.11 o
3 -6 6 2.10 2.58 0.14 o
3 -6 7 185.88 189.47 4.28 o
3 -6 8 131.64 132.80 3.00 o
3 -6 9 33.93 35.89 0.86 o
3 -6 10 53.05 54.54 1.32 o
3 -6 12 46.56 45.24 1.18 o
3 -6 13 3.34 3.29 0.24 o
3 -5 1 220.17 217.73 4.88 o
3 -5 2 53.50 51.09 1.21 o
3 -5 3 13.02 13.51 0.38 o
3 -5 4 79.20 78.96 1.80 o
3 -5 5 163.79 165.04 3.70 o
3 -5 6 83.70 85.14 1.93 o
3 -5 7 2.11 2.01 0.12 o
3 -5 8 38.70 39.44 0.96 o
3 -5 9 260.18 261.46 5.83 o
3 -5 10 2.50 2.55 0.20 o
3 -5 11 2.57 2.63 0.16 o
3 -5 12 111.27 112.28 2.56 o
3 -5 13 54.22 52.89 1.78 o
3 -5 14 12.77 11.89 0.52 o
3 -4 1 41.33 42.04 1.00 o
3 -4 2 191.61 191.87 4.32 o
3 -4 3 21.02 21.60 0.55 o
3 -4 4 4.39 5.16 0.20 o
3 -4 5 7.52 8.62 0.27 o
3 -4 6 111.10 110.56 2.49 o
3 -4 7 162.77 164.09 3.67 o
3 -4 8 3.73 3.97 0.18 o
3 -4 9 121.82 122.98 2.76 o
3 -4 10 41.66 40.54 0.97 o
3 -4 11 1.06 1.13 0.13 o
3 -4 12 3.96 3.86 0.21 o
3 -4 13 58.40 58.74 1.41 o
3 -4 14 3.89 3.62 0.28 o
3 -3 1 0.44 0.62 0.09 o
3 -3 2 109.84 110.63 2.56 o
3 -3 3 243.41 241.36 5.47 o
3 -3 4 140.96 142.91 3.22 o
3 -3 5 65.60 63.76 1.45 o
3 -3 6 1.40 1.61 0.10 o
3 -3 7 129.93 132.60 2.99 o
3 -3 8 82.04 81.65 1.92 o
3 -3 9 51.29 51.80 1.19 o
3 -3 10 242.16 243.36 5.42 o
3 -3 11 47.60 46.46 1.42 o
3 -3 12 71.87 70.62 2.16 o
3 -3 13 1.23 1.38 0.26 o
3 -3 14 126.89 128.52 3.07 o
3 -3 15 55.11 53.50 2.55 o
3 -2 1 57.76 57.11 1.30 o
3 -2 2 170.38 170.96 3.86 o
3 -2 3 5.87 5.89 0.18 o
3 -2 4 186.88 180.95 4.30 o
3 -2 5 134.93 132.71 3.16 o
3 -2 6 75.37 75.44 1.76 o
3 -2 7 18.10 17.76 0.49 o
3 -2 8 137.44 134.35 3.01 o
3 -2 9 106.75 104.55 2.37 o
3 -2 10 37.71 36.72 0.96 o
3 -2 11 27.94 26.71 0.80 o
3 -2 12 92.84 92.14 2.10 o
3 -2 13 49.59 49.87 1.19 o
3 -2 14 13.78 13.68 0.45 o
3 -2 15 47.08 48.67 1.20 o
3 -1 1 152.66 151.99 3.68 o
3 -1 2 187.11 193.11 4.36 o
3 -1 3 12.29 12.30 0.33 o
3 -1 4 129.73 129.57 3.45 o
3 -1 5 320.56 317.69 7.18 o
3 -1 6 72.59 68.60 1.56 o
3 -1 7 85.33 86.03 1.96 o
3 -1 8 23.04 23.01 0.59 o
3 -1 9 23.47 23.05 0.57 o
3 -1 10 37.49 37.26 0.89 o
3 -1 11 6.89 6.77 0.29 o
3 -1 12 8.02 8.58 0.39 o
3 -1 13 91.28 92.84 2.22 o
3 -1 14 56.57 57.76 1.37 o
3 0 0 506.93 517.49 12.19 o
3 0 1 3.51 4.03 0.12 o
3 0 2 56.96 56.40 1.33 o
3 0 3 264.63 265.96 6.10 o
3 0 4 668.26 664.39 15.36 o
3 0 5 104.32 102.48 2.33 o
3 0 6 378.40 365.61 8.32 o
3 0 7 123.66 121.45 3.36 o
3 0 8 36.52 35.56 0.88 o
3 0 9 33.25 34.09 0.83 o
3 0 10 184.87 184.51 4.12 o
3 0 11 16.11 16.06 0.45 o
3 0 12 5.95 6.00 0.24 o
3 0 13 5.07 5.42 0.25 o
3 0 14 8.30 7.85 0.34 o
3 1 0 195.58 191.72 4.45 o
3 1 1 57.27 58.14 1.33 o
3 1 2 21.49 21.16 0.51 o
3 1 3 70.83 70.29 1.60 o
3 1 4 35.72 34.26 0.81 o
3 1 5 252.18 252.53 5.68 o
3 1 6 18.85 18.74 0.52 o
3 1 7 0.89 0.91 0.11 o
3 1 8 139.27 138.24 3.10 o
3 1 9 41.89 42.42 1.01 o
3 1 11 16.98 16.86 0.54 o
3 1 12 37.29 36.81 0.93 o
3 1 13 59.92 62.25 1.58 o
3 1 14 2.38 2.33 0.42 o
3 2 0 195.98 198.48 4.81 o
3 2 1 26.48 27.31 0.76 o
3 2 2 58.74 59.22 1.37 o
3 2 3 11.46 11.64 0.32 o
3 2 4 4.93 5.07 0.19 o
3 2 5 381.27 383.68 8.68 o
3 2 6 48.15 47.83 1.15 o
3 2 7 8.59 7.82 0.29 o
3 2 8 51.71 52.00 1.23 o
3 2 9 139.33 142.27 3.19 o
3 2 10 28.81 29.20 0.76 o
3 2 11 138.56 145.90 3.31 o
3 2 13 10.63 10.54 0.61 o
3 3 0 121.50 123.94 2.81 o
3 3 1 176.39 175.23 3.94 o
3 3 2 89.11 90.98 2.06 o
3 3 3 75.64 75.87 1.76 o
3 3 4 4.22 4.04 0.17 o
3 3 5 14.22 13.33 0.37 o
3 3 6 207.08 206.11 4.60 o
3 3 7 61.96 63.05 1.48 o
3 3 8 21.04 21.03 0.59 o
3 3 10 164.32 172.67 3.88 o
3 3 11 124.81 131.49 3.02 o
3 3 12 10.33 10.77 0.46 o
3 4 0 121.86 121.28 2.78 o
3 4 1 0.41 0.55 0.07 o
3 4 2 1.15 1.08 0.09 o
3 4 3 70.82 69.99 1.67 o
3 4 4 24.86 25.83 0.64 o
3 4 5 15.87 15.64 0.49 o
3 4 6 2.32 2.21 0.15 o
3 4 7 21.56 20.83 0.56 o
3 4 8 50.04 52.22 1.30 o
3 4 10 1.62 1.87 0.22 o
3 4 11 62.47 66.76 1.97 o
3 5 0 161.29 160.13 3.58 o
3 5 1 379.59 378.40 8.47 o
3 5 2 6.70 6.23 0.26 o
3 5 3 16.04 15.55 0.41 o
3 5 4 82.90 82.21 1.88 o
3 5 5 52.13 54.09 1.30 o
3 5 7 17.81 17.63 0.75 o
3 5 8 6.94 6.74 0.30 o
3 5 9 14.23 13.46 0.63 o
3 6 0 144.15 140.21 3.15 o
3 6 1 11.52 12.01 0.38 o
3 6 2 110.57 108.39 2.46 o
3 6 3 59.88 56.75 1.37 o
3 6 4 1.84 1.63 0.15 o
3 6 5 12.42 12.86 0.43 o
3 6 6 113.09 113.73 2.63 o
3 6 7 10.35 10.36 0.43 o
3 7 0 7.26 6.84 0.26 o
3 7 1 4.06 4.12 0.20 o
3 7 2 40.03 38.51 1.09 o
3 7 3 17.66 16.75 0.55 o
3 7 4 7.09 6.61 0.29 o
3 8 1 70.99 68.75 1.61 o
3 8 2 14.56 14.24 0.70 o
4 -8 1 115.82 121.18 2.77 o
4 -8 2 14.84 15.35 0.46 o
4 -8 3 8.05 8.11 0.31 o
4 -8 4 4.86 5.02 0.24 o
4 -8 5 42.50 43.23 1.07 o
4 -8 7 2.82 2.81 0.21 o
4 -7 1 1.55 1.71 0.15 o
4 -7 2 153.87 153.91 3.46 o
4 -7 3 14.23 14.46 0.43 o
4 -7 4 28.65 29.30 0.75 o
4 -7 5 49.31 50.92 1.22 o
4 -7 6 67.86 69.49 1.85 o
4 -7 7 45.26 45.12 1.09 o
4 -7 8 0.99 1.03 0.13 o
4 -7 9 29.58 30.69 0.88 o
4 -7 10 93.91 94.50 2.66 o
4 -6 1 3.41 3.73 0.21 o
4 -6 2 70.59 71.39 1.66 o
4 -6 3 20.58 20.36 0.56 o
4 -6 4 24.03 23.91 0.64 o
4 -6 5 0.95 0.85 0.14 o
4 -6 6 37.18 37.63 0.92 o
4 -6 7 5.55 5.20 0.22 o
4 -6 8 1.42 1.79 0.19 o
4 -6 9 117.22 119.06 3.00 o
4 -6 10 15.14 14.73 0.57 o
4 -6 11 25.96 26.22 0.79 o
4 -5 1 112.25 111.51 2.52 o
4 -5 2 85.60 87.32 2.15 o
4 -5 3 92.46 93.74 2.18 o
4 -5 4 55.05 57.30 1.33 o
4 -5 5 179.36 180.34 4.03 o
4 -5 6 16.17 16.10 0.56 o
4 -5 7 181.67 186.78 4.17 o
4 -5 8 98.12 98.58 2.52 o
4 -5 10 8.49 7.85 0.38 o
4 -5 11 52.65 52.12 1.51 o
4 -5 12 18.11 17.90 0.85 o
4 -4 1 26.10 26.13 0.78 o
4 -4 2 138.81 140.29 3.15 o
4 -4 3 70.08 68.26 1.58 o
4 -4 5 98.66 97.89 2.34 o
4 -4 6 69.67 68.86 1.71 o
4 -4 7 106.40 105.47 2.77 o
4 -4 8 39.34 40.01 0.96 o
4 -4 9 13.53 13.35 0.40 o
4 -4 10 147.89 148.44 3.34 o
4 -4 11 10.29 9.88 0.41 o
4 -4 12 3.36 2.89 0.35 o
4 -4 13 41.45 40.40 2.20 o
4 -3 1 11.07 10.72 0.38 o
4 -3 2 27.17 27.06 0.68 o
4 -3 3 30.55 32.68 0.80 o
4 -3 4 62.68 61.44 1.43 o
4 -3 5 18.06 17.85 0.60 o
4 -3 6 113.51 113.54 2.56 o
4 -3 7 169.47 167.40 4.00 o
4 -3 8 1.90 1.55 0.16 o
4 -3 9 28.79 27.86 0.73 o
4 -3 10 10.51 10.18 0.49 o
4 -3 11 75.23 72.07 2.44 o
4 -3 12 2.84 2.80 0.25 o
4 -3 13 19.65 19.78 0.90 o
4 -2 1 120.80 120.31 2.78 o
4 -2 3 242.49 240.13 5.37 o
4 -2 4 24.88 25.64 0.64 o
4 -2 5 76.74 78.37 1.79 o
4 -2 6 0.48 0.47 0.10 o
4 -2 7 7.53 7.33 0.24 o
4 -2 8 344.48 346.82 8.33 o
4 -2 9 9.23 8.68 0.28 o
4 -2 10 1.43 1.33 0.14 o
4 -2 11 65.89 65.83 1.68 o
4 -2 12 156.40 154.75 4.15 o
4 -2 13 10.33 9.43 0.48 o
4 -1 1 85.21 86.34 2.15 o
4 -1 2 116.65 114.23 2.59 o
4 -1 3 7.74 7.25 0.24 o
4 -1 5 98.91 97.29 2.21 o
4 -1 6 120.84 118.19 2.66 o
4 -1 7 11.68 11.12 0.53 o
4 -1 8 5.76 5.64 0.26 o
4 -1 9 101.60 99.46 2.76 o
4 -1 10 74.54 74.67 1.72 o
4 -1 11 1.31 1.28 0.14 o
4 -1 12 10.37 10.28 0.36 o
4 -1 13 84.70 85.59 2.35 o
4 0 0 16.18 16.67 0.46 o
4 0 1 52.77 52.15 1.21 o
4 0 2 300.61 298.21 6.72 o
4 0 3 132.72 132.94 3.30 o
4 0 4 194.15 189.07 4.24 o
4 0 5 2.12 2.27 0.14 o
4 0 6 77.98 77.56 1.79 o
4 0 7 14.68 14.23 0.43 o
4 0 8 0.50 0.50 0.12 o
4 0 9 8.84 8.56 0.31 o
4 0 10 2.86 2.62 0.26 o
4 0 11 91.00 91.10 2.11 o
4 0 12 7.54 7.41 0.30 o
4 0 13 30.32 30.04 1.07 o
4 1 0 97.88 99.19 2.25 o
4 1 1 88.37 88.62 2.02 o
4 1 2 84.14 85.98 1.96 o
4 1 3 343.12 346.01 7.78 o
4 1 4 280.30 282.20 6.32 o
4 1 5 10.48 10.42 0.35 o
4 1 6 11.50 11.50 0.38 o
4 1 7 134.29 134.42 3.08 o
4 1 8 134.87 134.40 3.08 o
4 1 9 1.06 1.60 0.15 o
4 1 10 11.00 10.95 0.37 o
4 1 11 39.76 39.97 1.00 o
4 1 12 13.20 13.11 0.43 o
4 2 0 19.00 18.92 0.48 o
4 2 1 108.11 107.93 2.43 o
4 2 2 12.30 11.39 0.40 o
4 2 3 16.42 16.39 0.52 o
4 2 4 117.63 119.15 2.68 o
4 2 5 9.29 10.35 0.44 o
4 2 6 48.46 47.53 1.32 o
4 2 7 0.99 0.82 0.14 o
4 2 8 24.03 24.08 0.67 o
4 2 9 18.19 18.48 0.53 o
4 2 10 12.99 12.40 0.54 o
4 2 11 9.15 9.11 0.37 o
4 3 1 12.70 12.26 0.34 o
4 3 2 42.73 43.20 1.00 o
4 3 3 194.82 199.16 4.44 o
4 3 4 3.41 3.43 0.18 o
4 3 5 94.23 92.83 2.11 o
4 3 6 72.02 73.86 1.80 o
4 3 7 53.48 53.77 1.30 o
4 3 8 7.96 8.02 0.33 o
4 3 9 211.48 217.60 5.00 o
4 4 0 38.88 40.11 0.94 o
4 4 1 1.31 1.30 0.11 o
4 4 2 17.71 17.87 0.51 o
4 4 3 3.67 4.03 0.20 o
4 4 4 129.43 129.89 2.97 o
4 4 5 2.53 2.21 0.17 o
4 4 6 4.82 4.68 0.31 o
4 4 7 16.30 16.33 0.51 o
4 4 8 111.66 114.69 3.07 o
4 4 9 15.26 14.76 0.55 o
4 5 0 7.75 7.74 0.27 o
4 5 1 28.68 28.22 0.77 o
4 5 3 3.42 3.42 0.19 o
4 5 4 17.34 16.43 0.48 o
4 5 5 14.20 13.02 0.42 o
4 5 6 7.21 6.89 0.31 o
4 5 7 8.32 7.50 0.45 o
4 6 0 80.10 81.53 1.96 o
4 6 1 54.44 54.90 1.52 o
4 6 2 45.63 46.22 1.13 o
4 6 3 2.85 2.58 0.18 o
4 6 4 22.16 22.07 0.62 o
4 6 5 35.52 34.63 0.96 o
4 7 0 40.81 39.98 1.21 o
4 7 1 1.53 1.09 0.19 o
4 7 2 8.13 7.84 0.35 o
5 -7 1 30.01 30.55 0.80 o
5 -7 2 9.18 8.95 0.35 o
5 -7 3 12.99 12.78 0.50 o
5 -7 4 22.73 23.54 0.65 o
5 -7 5 23.79 23.80 0.66 o
5 -6 1 2.78 2.59 0.21 o
5 -6 3 93.16 94.64 2.18 o
5 -6 4 31.11 31.40 0.97 o
5 -6 5 2.40 2.07 0.18 o
5 -6 6 16.42 16.15 0.52 o
5 -6 7 73.28 74.73 1.97 o
5 -6 8 58.90 58.68 1.42 o
5 -5 1 3.86 3.68 0.21 o
5 -5 2 0.34 0.45 0.14 o
5 -5 3 24.24 24.01 0.72 o
5 -5 4 64.05 64.44 1.52 o
5 -5 6 19.90 19.45 0.54 o
5 -5 7 41.25 40.97 1.22 o
5 -5 8 54.94 55.19 1.31 o
5 -5 9 17.07 16.65 0.53 o
5 -5 10 4.05 3.73 0.24 o
5 -4 1 190.97 189.72 4.23 o
5 -4 2 37.54 38.16 0.96 o
5 -4 3 35.77 35.34 1.19 o
5 -4 4 24.83 25.33 0.78 o
5 -4 5 266.81 268.33 6.62 o
5 -4 6 37.29 37.03 0.99 o
5 -4 7 29.24 29.69 0.86 o
5 -4 8 7.30 7.93 0.37 o
5 -4 9 96.73 96.47 2.54 o
5 -4 10 5.47 5.32 0.30 o
5 -3 2 46.08 45.39 1.20 o
5 -3 3 113.51 111.66 2.95 o
5 -3 4 8.41 8.24 0.39 o
5 -3 5 0.85 0.92 0.16 o
5 -3 6 115.79 114.91 2.60 o
5 -3 7 11.19 11.20 0.38 o
5 -3 8 55.28 55.01 1.43 o
5 -3 9 10.65 10.65 0.39 o
5 -3 10 30.67 29.73 1.79 o
5 -3 11 37.66 36.32 1.57 o
5 -2 1 0.94 0.89 0.11 o
5 -2 2 1.47 1.44 0.13 o
5 -2 3 8.10 8.00 0.30 o
5 -2 4 141.86 140.81 3.18 o
5 -2 5 49.15 50.25 1.19 o
5 -2 6 43.80 45.09 1.15 o
5 -2 7 87.61 86.84 2.08 o
5 -2 8 10.52 10.65 0.37 o
5 -2 9 15.58 15.29 0.61 o
5 -2 10 52.33 52.56 1.45 o
5 -2 11 38.14 38.32 1.15 o
5 -1 1 211.80 217.12 4.84 o
5 -1 2 1.26 1.44 0.12 o
5 -1 3 0.77 1.08 0.12 o
5 -1 4 41.85 41.92 1.02 o
5 -1 5 39.18 39.48 0.97 o
5 -1 6 162.43 164.51 4.34 o
5 -1 7 21.18 20.72 0.89 o
5 -1 8 27.28 27.56 0.78 o
5 -1 9 88.96 89.39 2.10 o
5 -1 10 56.63 56.65 1.39 o
5 -1 11 13.14 12.95 0.46 o
5 0 0 4.47 4.21 0.22 o
5 0 1 22.09 22.50 0.58 o
5 0 2 7.95 8.06 0.27 o
5 0 3 55.46 54.88 1.30 o
5 0 4 18.49 17.63 0.55 o
5 0 5 13.81 13.68 0.54 o
5 0 6 34.59 34.50 0.92 o
5 0 7 60.81 60.80 1.86 o
5 0 8 6.52 6.50 0.32 o
5 0 9 24.32 24.30 0.73 o
5 0 10 36.94 37.04 0.98 o
5 1 0 165.30 167.96 3.76 o
5 1 2 305.34 301.94 6.73 o
5 1 3 1.53 1.70 0.16 o
5 1 4 28.87 29.51 0.78 o
5 1 5 3.50 3.62 0.24 o
5 1 6 23.10 22.51 0.78 o
5 1 7 21.39 20.68 0.60 o
5 1 8 0.96 0.71 0.16 o
5 1 9 21.76 21.90 0.62 o
5 1 10 7.21 6.63 0.33 o
5 2 1 259.21 260.36 5.80 o
5 2 2 51.14 52.00 1.23 o
5 2 3 25.33 25.71 0.73 o
5 2 4 57.51 57.91 1.77 o
5 2 5 92.30 93.13 2.15 o
5 2 6 17.88 17.94 0.55 o
5 2 7 40.63 40.79 1.13 o
5 2 8 35.24 34.71 1.05 o
5 2 9 28.09 27.27 0.97 o
5 3 0 4.72 5.44 0.26 o
5 3 1 10.25 10.70 0.39 o
5 3 2 87.68 90.37 2.20 o
5 3 3 1.30 1.25 0.22 o
5 3 5 24.54 24.93 0.74 o
5 3 6 19.10 18.89 0.76 o
5 4 0 12.74 13.03 0.39 o
5 4 1 28.60 28.44 0.75 o
5 4 2 52.75 53.06 1.30 o
5 4 3 89.59 90.32 2.10 o
5 4 4 13.78 14.11 0.51 o
5 4 6 59.19 59.70 1.52 o
5 5 0 23.60 23.56 0.79 o
5 5 1 1.35 1.17 0.19 o
5 5 2 24.63 23.85 0.69 o
5 5 3 9.99 9.83 0.51 o
5 5 4 16.93 17.38 0.78 o
5 6 0 8.76 7.86 0.39 o
5 6 1 9.34 9.30 0.43 o
6 -5 1 44.88 44.22 1.11 o
6 -5 3 7.45 6.97 0.30 o
6 -5 4 26.22 25.45 0.74 o
6 -5 5 43.55 41.95 1.66 o
6 -4 1 35.02 33.63 0.94 o
6 -4 2 17.56 16.89 0.94 o
6 -4 3 32.51 31.99 0.99 o
6 -4 4 43.49 43.18 1.23 o
6 -4 5 21.82 21.33 0.77 o
6 -4 6 34.36 34.98 1.23 o
6 -3 1 2.32 2.23 0.48 o
6 -3 2 70.28 67.87 1.72 o
6 -3 3 138.23 136.35 3.14 o
6 -3 4 1.98 2.16 0.31 o
6 -3 5 89.16 89.38 2.61 o
6 -3 6 20.10 19.60 0.63 o
6 -3 7 47.22 46.01 1.29 o
6 -2 1 26.77 25.66 1.67 o
6 -2 2 13.01 11.92 0.59 o
6 -2 3 17.64 16.74 0.59 o
6 -2 4 66.88 63.71 1.56 o
6 -2 5 2.06 1.83 0.21 o
6 -2 6 2.20 2.18 0.27 o
6 -2 7 38.30 37.28 1.34 o
6 -2 8 18.05 15.95 1.25 o
6 -1 1 11.56 11.61 0.36 o
6 -1 2 43.89 44.65 1.08 o
6 -1 4 105.01 106.22 3.11 o
6 -1 5 48.74 47.78 1.46 o
6 -1 6 1.95 1.73 0.18 o
6 -1 7 3.48 3.08 0.29 o
6 -1 8 85.77 86.66 2.08 o
6 0 0 18.66 18.30 0.52 o
6 0 1 15.48 15.39 0.45 o
6 0 2 47.66 48.19 1.17 o
6 0 3 9.47 9.47 0.39 o
6 0 4 16.90 17.25 0.57 o
6 0 5 79.94 81.38 2.46 o
6 0 6 32.82 32.78 0.92 o
6 0 7 24.20 24.17 0.75 o
6 1 1 4.03 4.06 0.21 o
6 1 2 0.36 0.47 0.14 o
6 1 3 26.42 26.33 0.73 o
6 1 4 11.31 11.39 0.45 o
6 1 5 5.61 5.34 0.31 o
6 1 6 5.09 4.89 0.31 o
6 2 0 209.29 210.92 4.72 o
6 2 1 3.54 3.16 0.20 o
6 2 3 30.91 30.44 0.82 o
6 2 4 27.60 27.46 0.82 o
6 2 5 2.12 2.28 0.26 o
6 3 0 0.56 0.64 0.15 o
6 3 1 51.91 53.43 1.30 o
6 3 2 26.68 26.91 0.79 o
6 3 3 14.23 13.87 0.53 o
6 3 4 3.33 2.74 0.41 o
6 4 0 13.87 14.01 0.53 o
6 4 1 25.33 23.11 0.74 o
7 0 0 1.66 1.69 0.20 o
7 0 1 14.98 15.08 0.55 o
