#------------------------------------------------------------------------------
#$Date: 2016-03-24 02:55:48 +0200 (Thu, 24 Mar 2016) $
#$Revision: 179604 $
#$URL: svn://www.crystallography.net/cod/cif/4/50/68/4506832.cif $
#------------------------------------------------------------------------------
#
# This file is available in the Crystallography Open Database (COD),
# http://www.crystallography.net/
#
# All data on this site have been placed in the public domain by the
# contributors.
#
data_4506832
loop_
_publ_author_name
'Lekin, Kristina'
'Leitch, Alicea A.'
'Tse, John S.'
'Bao, Xuezhao'
'Secco, Richard A.'
'Desgreniers, Serge'
'Ohishi, Yasuo'
'Oakley, Richard T.'
_publ_section_title
;
 A Pressure Induced Structural Dichotomy in Isostructural
 Bis-1,2,3-thiaselenazolyl Radical Dimers
;
_journal_issue                   9
_journal_name_full               'Crystal Growth &amp; Design'
_journal_page_first              4676
_journal_paper_doi               10.1021/cg3009255
_journal_volume                  12
_journal_year                    2012
_chemical_formula_moiety         'C6 H3 F N3 S2 Se2'
_chemical_formula_sum            'C6 H3 F N3 S2 Se2'
_chemical_formula_weight         358.15
_chemical_name_common            FBPTSMe
_chemical_name_systematic        ' ?'
_space_group_IT_number           14
_symmetry_cell_setting           monoclinic
_symmetry_space_group_name_Hall  '-P 2ybc'
_symmetry_space_group_name_H-M   'P 1 21/c 1'
_cell_angle_alpha                90.0
_cell_angle_beta                 84.851(6)
_cell_angle_gamma                90.0
_cell_formula_units_Z            4
_cell_length_a                   3.59910(17)
_cell_length_b                   13.88062(35)
_cell_length_c                   14.5372(15)
_cell_measurement_temperature    293(2)
_cell_volume                     723.32(8)
_computing_structure_refinement  GSAS
_diffrn_ambient_temperature      293(2)
_diffrn_measurement_device_type  'SPring-8 BL10XU'
_diffrn_radiation_polarisn_ratio 0.95
_diffrn_radiation_probe          x-ray
_diffrn_radiation_type           synchrotron
_diffrn_radiation_wavelength     0.51446
_diffrn_source                   synchrotron
_exptl_absorpt_correction_T_max  1.00000
_exptl_absorpt_correction_T_min  1.00000
_exptl_absorpt_process_details
;   GSAS Absorption/surface roughness correction: function number 0
 No correction is applied.
;
_exptl_crystal_colour            black
_exptl_crystal_density_diffrn    3.289
_pd_calc_method                  'Rietveld Refinement'
_pd_instr_location               ' ?'
_pd_meas_2theta_range_inc        0.01
_pd_meas_2theta_range_max        25.61
_pd_meas_2theta_range_min        1.0
_pd_meas_number_of_points        2462
_pd_phase_name
'from C:/gsas/MyWork/FBPTSMe_008/rto_fbptsme_008_isociffed.cif'
_pd_proc_2theta_range_inc        0.01
_pd_proc_2theta_range_max        25.6102
_pd_proc_2theta_range_min        1.0002
_pd_proc_info_datetime           2011-12-07T11:55:21
_pd_proc_info_excluded_regions   ' ?'
_pd_proc_ls_background_function
;   GSAS Background function number 1 with  8 terms.
 Shifted Chebyshev function of 1st kind
      1:    15476.2     2:    9230.32     3:   -221.604     4:   -194.843    
      5:   -157.745     6:   -21.6212     7:    44.3159     8:   -68.7502    
;
_pd_proc_ls_peak_cutoff          0.00100
_pd_proc_ls_profile_function
;
 CW Profile function number 2 with  18 terms
 Profile coefficients for Simpson's rule integration of pseudovoigt function
 C.J. Howard (1982). J. Appl. Cryst.,15,615-620.
 P. Thompson, D.E. Cox & J.B. Hastings (1987). J. Appl. Cryst.,20,79-83.
 Peak tails are ignored  where the intensity is below 0.0010 times the peak
   Aniso. broadening axis   0.0   0.0   1.0
;
_pd_proc_ls_prof_R_factor        0.0117
_pd_proc_ls_prof_wR_expected     0.0076
_pd_proc_ls_prof_wR_factor       0.0169
_pd_proc_number_of_points        2462
_pd_spec_mounting                ' ?'
_refine_ls_goodness_of_fit_all   2.24
_refine_ls_matrix_type           full
_refine_ls_number_parameters     1
_refine_ls_number_restraints     0
_refine_ls_R_Fsqd_factor         0.08383
_refine_ls_shift/su_max          0.00
_refine_ls_shift/su_mean         0.00
_reflns_d_resolution_high        1.692
_reflns_d_resolution_low         7.239
_reflns_limit_h_max              2
_reflns_limit_h_min              0
_reflns_limit_k_max              8
_reflns_limit_k_min              0
_reflns_limit_l_max              9
_reflns_limit_l_min              -7
_reflns_number_total             151
_cod_data_source_file            cg3009255_si_004.cif
_cod_data_source_block           FBPTSMe_8.40GPa
_cod_depositor_comments
;
The following automatic conversions were performed:

'_geom_bond_publ_flag' value 'N' changed to 'n' according to
/home/saulius/struct/CIF-dictionaries/cif_core.dic dictionary named
'cif_core.dic' version 2.4.2 from 2011-04-26 (19
times).

'_geom_angle_publ_flag' value 'N' changed to 'n' according
to /home/saulius/struct/CIF-dictionaries/cif_core.dic dictionary
named 'cif_core.dic' version 2.4.2 from 2011-04-26 (29 times).

Automatic conversion script
Id: cif_fix_values 1891 2012-01-12 08:04:46Z andrius 
;
_cod_original_cell_volume        723.31(7)
_cod_original_sg_symbol_H-M      'P 21/c'
_cod_database_code               4506832
#BEGIN Tags that were not found in dictionaries:
_gsas_exptl_extinct_corr_t_min   1.00000
_gsas_exptl_extinct_corr_t_max   1.00000
#END Tags that were not found in dictionaries
loop_
_symmetry_equiv_pos_site_id
_symmetry_equiv_pos_as_xyz
1 +x,+y,+z
2 -x,+y+1/2,-z+1/2
-1 -x,-y,-z
-2 +x,-y+1/2,+z+1/2
loop_
_atom_site_type_symbol
_atom_site_label
_atom_site_fract_x
_atom_site_fract_y
_atom_site_fract_z
_atom_site_occupancy
_atom_site_thermal_displace_type
_atom_site_U_iso_or_equiv
_atom_site_symmetry_multiplicity
Se Se1 -0.42335 -0.02858 0.38931 1.0 Uiso 0.025 4
Se Se2 0.59364 0.4664 0.41934 1.0 Uiso 0.025 4
S S1 -0.11893 0.02994 0.26069 1.0 Uiso 0.025 4
S S2 0.70219 0.36076 0.25876 1.0 Uiso 0.025 4
N N1 -0.29786 0.07496 0.45716 1.0 Uiso 0.025 4
N N2 0.00966 0.22283 0.45641 1.0 Uiso 0.025 4
N N3 0.30921 0.3688 0.46381 1.0 Uiso 0.025 4
C C1 0.02797 0.13197 0.31475 1.0 Uiso 0.025 4
C C2 -0.09605 0.14085 0.41194 1.0 Uiso 0.025 4
C C3 0.2415 0.29519 0.41286 1.0 Uiso 0.025 4
C C4 0.37592 0.28 0.31542 1.0 Uiso 0.025 4
C C5 0.24961 0.2002 0.26969 1.0 Uiso 0.025 4
C C6 -0.12445 0.23762 0.55404 1.0 Uiso 0.025 4
H H6A -0.02407 0.29669 0.57559 1.0 Uiso 0.025 4
H H6B -0.04508 0.18492 0.59028 1.0 Uiso 0.025 4
H H6C -0.39219 0.24096 0.56004 1.0 Uiso 0.025 4
F F1 0.34876 0.18973 0.17839 1.0 Uiso 0.025 4
loop_
_atom_type_symbol
_atom_type_number_in_cell
_atom_type_scat_dispersion_real
_atom_type_scat_dispersion_imag
_atom_type_scat_Cromer_Mann_a1
_atom_type_scat_Cromer_Mann_a2
_atom_type_scat_Cromer_Mann_a3
_atom_type_scat_Cromer_Mann_a4
_atom_type_scat_Cromer_Mann_b1
_atom_type_scat_Cromer_Mann_b2
_atom_type_scat_Cromer_Mann_b3
_atom_type_scat_Cromer_Mann_b4
_atom_type_scat_Cromer_Mann_c
_atom_type_scat_source
Se 8.0 0.000 0.000 17.0006 2.40980 5.81960 0.27260 3.97310 15.2372 4.35430
43.8163 2.84090 International_Tables_Vol_C
S 8.0 0.000 0.000 6.90530 1.46790 5.20340 22.2151 1.43790 0.25360 1.58630
56.1720 0.86690 International_Tables_Vol_C
N 12.0 0.000 0.000 12.2126 0.00570 3.13220 9.89330 2.01250 28.9975 1.16630
0.58260 -11.529 International_Tables_Vol_C
C 24.0 0.000 0.000 2.31000 20.8439 1.02000 10.2075 1.58860 0.56870 0.86500
51.6512 0.21560 International_Tables_Vol_C
H 12.0 0.000 0.000 0.49300 10.5109 0.32291 26.1257 0.14019 3.14236 0.04081
57.7997 0.00304 International_Tables_Vol_C
F 4.0 0.000 0.000 3.53920 10.2825 2.64120 4.29440 1.51700 0.26150 1.02430
26.1476 0.27760 International_Tables_Vol_C
loop_
_geom_angle_atom_site_label_1
_geom_angle_atom_site_label_2
_geom_angle_atom_site_label_3
_geom_angle
_geom_angle_site_symmetry_1
_geom_angle_site_symmetry_3
_geom_angle_publ_flag
S1 Se1 N1 92.263 1_555 1_555 n
Se2 Se2 N3 81.329 -1_666 1_555 n
Se1 S1 C1 93.702 1_555 1_555 n
Se1 N1 C2 115.646 1_555 1_555 n
C2 N2 C3 123.449 1_555 1_555 n
C2 N2 C6 119.1254 1_555 1_555 n
C3 N2 C6 117.424 1_555 1_555 n
Se2 N3 C3 121.473 1_555 1_555 n
S1 C1 C2 115.7194 1_555 1_555 n
S1 C1 C5 122.675 1_555 1_555 n
C2 C1 C5 121.6031 1_555 1_555 n
N1 C2 N2 120.369 1_555 1_555 n
N1 C2 C1 122.6478 1_555 1_555 n
N2 C2 C1 116.9827 1_555 1_555 n
N2 C3 N3 115.844 1_555 1_555 n
N2 C3 C4 117.262 1_555 1_555 n
N3 C3 C4 126.8905 1_555 1_555 n
S2 C4 C3 120.270 1_555 1_555 n
S2 C4 C5 120.905 1_555 1_555 n
C3 C4 C5 118.8062 1_555 1_555 n
C1 C5 C4 121.674 1_555 1_555 n
C1 C5 F1 119.183 1_555 1_555 n
C4 C5 F1 119.1438 1_555 1_555 n
N2 C6 H6C 109.492 1_555 1_555 n
N2 C6 H6A 109.4755 1_555 1_555 n
N2 C6 H6B 109.570 1_555 1_555 n
H6C C6 H6A 109.4479 1_555 1_555 n
H6C C6 H6B 109.4146 1_555 1_555 n
H6A C6 H6B 109.427 1_555 1_555 n
loop_
_geom_bond_atom_site_label_1
_geom_bond_atom_site_label_2
_geom_bond_distance
_geom_bond_site_symmetry_2
_geom_bond_publ_flag
Se1 S1 2.23351 1_555 n
Se1 N1 1.82274 1_555 n
Se2 S2 2.75471 1_555 n
Se2 N3 1.78393 1_555 n
S1 C1 1.72553 1_555 n
S2 C4 1.77211 1_555 n
N1 C2 1.30785 1_555 n
N2 C2 1.37903 1_555 n
N2 C3 1.41812 1_555 n
N2 C6 1.47189 1_555 n
N3 C3 1.29783 1_555 n
C1 C2 1.44825 1_555 n
C1 C5 1.36696 1_555 n
C3 C4 1.47037 1_555 n
C4 C5 1.38917 1_555 n
C5 F1 1.35093 1_555 n
C6 H6C 0.96085 1_555 n
C6 H6A 0.959820 1_555 n
C6 H6B 0.95983 1_555 n
loop_
_pd_meas_counts_total
_pd_proc_ls_weight
_pd_proc_intensity_bkg_calc
_pd_calc_intensity_total
1117.0 0.0 16013.71289 .
1116.0 0.0 15884.91211 .
1124.0 0.0 15757.30664 .
1132.0 0.0 15630.89063 .
1147.0 0.0 15505.65332 .
1142.0 0.0 15381.58887 .
1134.0 0.0 15258.68457 .
1129.0 0.0 15136.93848 .
1135.0 0.0 15016.34180 .
1138.0 0.0 14896.89063 .
1148.0 0.0 14778.57031 .
1154.0 0.0 14661.37793 .
1153.0 0.0 14545.30371 .
1148.0 0.0 14430.34473 .
1151.0 0.0 14316.49023 .
1157.0 0.0 14203.73242 .
1161.0 0.0 14092.06543 .
1159.0 0.0 13981.48242 .
1162.0 0.0 13871.97363 .
1174.0 0.0 13763.53613 .
1176.0 0.0 13656.16016 .
1185.0 0.0 13549.83887 .
1188.0 0.0 13444.56641 .
1186.0 0.0 13340.33691 .
1188.0 0.0 13237.13867 .
1192.0 0.0 13134.96777 .
1203.0 0.0 13033.81836 .
1207.0 0.0 12933.68359 .
1208.0 0.0 12834.55469 .
1214.0 0.0 12736.42676 .
1223.0 0.0 12639.29199 .
1214.0 0.0 12543.14355 .
1222.0 0.0 12447.97266 .
1218.0 0.0 12353.77637 .
1223.0 0.0 12260.54883 .
1231.0 0.0 12168.28027 .
1242.0 0.0 12076.96484 .
1248.0 0.0 11986.59766 .
1255.0 0.0 11897.17090 .
1260.0 0.0 11808.67773 .
1266.0 0.0 11721.11230 .
1267.0 0.0 11634.46875 .
1268.0 0.0 11548.74219 .
1279.0 0.0 11463.92383 .
1277.0 0.0 11380.00586 .
1275.0 0.0 11296.98438 .
1282.0 0.0 11214.85547 .
1285.0 0.0 11133.60840 .
1285.0 0.0 11053.24023 .
1285.0 0.0 10973.74316 .
1294.0 0.0 10895.11328 .
1304.0 0.0 10817.34277 .
1311.0 0.0 10740.42383 .
1314.0 0.0 10664.35449 .
1322.0 0.0 10589.12500 .
1329.0 0.0 10514.73145 .
1338.0 0.0 10441.16797 .
1335.0 0.0 10368.42773 .
1333.0 0.0 10296.50684 .
1334.0 0.0 10225.39746 .
1346.0 0.0 10155.09473 .
1352.0 0.0 10085.59375 .
1366.0 0.0 10016.88574 .
1370.0 0.0 9948.96973 .
1367.0 0.0 9881.83496 .
1376.0 0.0 9815.48047 .
1387.0 0.0 9749.89746 .
1388.0 0.0 9685.08008 .
1398.0 0.0 9621.02637 .
1404.0 0.0 9557.72559 .
1408.0 0.0 9495.17773 .
1409.0 0.0 9433.37402 .
1410.0 0.0 9372.30859 .
1430.0 0.0 9311.97754 .
1437.0 0.0 9252.37695 .
1439.0 0.0 9193.49707 .
1449.0 0.0 9135.33691 .
1456.0 0.0 9077.88965 .
1458.0 0.0 9021.15039 .
1464.0 0.0 8965.11230 .
1468.0 0.0 8909.77148 .
1466.0 0.0 8855.12305 .
1477.0 0.0 8801.16016 .
1477.0 0.0 8747.87988 .
1475.0 0.0 8695.27637 .
1491.0 0.0 8643.34375 .
1505.0 0.0 8592.07813 .
1512.0 0.0 8541.47461 .
1511.0 0.0 8491.52637 .
1523.0 0.0 8442.23047 .
1524.0 0.0 8393.58105 .
1528.0 0.0 8345.57324 .
1536.0 0.0 8298.20117 .
1555.0 0.0 8251.46191 .
1559.0 0.0 8205.35059 .
1565.0 0.0 8159.86084 .
1577.0 0.0 8114.98828 .
1593.0 0.0 8070.73047 .
1600.0 0.0 8027.07959 .
1608.0 0.0 7984.03223 .
1616.0 0.0 7941.58398 .
1626.0 0.0 7899.73047 .
1634.0 0.0 7858.46484 .
1642.0 0.0 7817.78613 .
1645.0 0.0 7777.68604 .
1661.0 0.0 7738.16309 .
1656.0 0.0 7699.21191 .
1665.0 0.0 7660.82764 .
1683.0 0.0 7623.00488 .
1694.0 0.0 7585.74072 .
1704.0 0.0 7549.02930 .
1709.0 0.0 7512.86865 .
1711.0 0.0 7477.25244 .
1719.0 0.0 7442.17529 .
1729.0 0.0 7407.63525 .
1739.0 0.0 7373.62793 .
1743.0 0.0 7340.14893 .
1759.0 0.0 7307.19189 .
1759.0 0.0 7274.75537 .
1767.0 0.0 7242.83203 .
1780.0 0.0 7211.42139 .
1794.0 0.0 7180.51758 .
1805.0 0.0 7150.11572 .
1821.0 0.0 7120.21289 .
1829.0 0.0 7090.80420 .
1841.0 0.0 7061.88672 .
1846.0 0.0 7033.45410 .
1851.0 0.0 7005.50635 .
1872.0 0.0 6978.03467 .
1890.0 0.0 6951.03857 .
1903.0 0.0 6924.51318 .
1910.0 0.0 6898.45410 .
1924.0 0.0 6872.85889 .
1934.0 0.0 6847.72168 .
1944.0 0.0 6823.04004 .
1953.0 0.0 6798.80908 .
1968.0 0.0 6775.02637 .
1987.0 0.0 6751.68652 .
1995.0 0.0 6728.78662 .
2018.0 0.0 6706.32471 .
2052.0 0.0 6684.29443 .
2078.0 0.0 6662.69238 .
2099.0 0.0 6641.51660 .
2118.0 0.0 6620.76221 .
2153.0 0.0 6600.42480 .
2181.0 0.0 6580.50342 .
2213.0 0.0 6560.99219 .
2260.0 0.0 6541.88867 .
2304.0 0.0 6523.18848 .
2354.0 0.0 6504.88818 .
2399.0 0.0 6486.98486 .
2446.0 0.0 6469.47510 .
2482.0 0.0 6452.35547 .
2518.0 0.0 6435.62109 .
2581.0 0.0 6419.27100 .
2632.0 0.0 6403.30029 .
2675.0 0.0 6387.70508 .
2716.0 0.0 6372.48340 .
2765.0 0.0 6357.63184 .
2820.0 0.0 6343.14697 .
2866.0 0.0 6329.02490 .
2905.0 0.0 6315.26172 .
2955.0 0.0 6301.85547 .
3003.0 0.0 6288.80273 .
3040.0 0.0 6276.10010 .
3081.0 0.0 6263.74365 .
3141.0 0.0 6251.73340 .
3198.0 0.0 6240.06250 .
3244.0 0.0 6228.72900 .
3295.0 0.0 6217.73047 .
3346.0 0.0 6207.06250 .
3405.0 0.0 6196.72412 .
3472.0 0.0 6186.71045 .
3541.0 0.0 6177.01855 .
3595.0 0.0 6167.64600 .
3650.0 0.0 6158.59082 .
3713.0 0.0 6149.84766 .
3769.0 0.0 6141.41650 .
3833.0 0.0 6133.29199 .
3896.0 0.0 6125.47217 .
3970.0 0.0 6117.95361 .
4032.0 0.0 6110.73486 .
4089.0 0.0 6103.81152 .
4155.0 0.0 6097.18115 .
4211.0 0.0 6090.84131 .
4259.0 0.0 6084.78857 .
4304.0 0.0 6079.02100 .
4351.0 0.0 6073.53613 .
4401.0 0.0 6068.32959 .
4442.0 0.0 6063.39990 .
4498.0 0.0 6058.74463 .
4549.0 0.0 6054.36084 .
4590.0 0.0 6050.24316 .
4646.0 0.0 6046.39307 .
4690.0 0.0 6042.80615 .
4738.0 0.0 6039.47998 .
4772.0 0.0 6036.41211 .
4798.0 0.0 6033.59961 .
4835.0 0.0 6031.03955 .
4865.0 0.0 6028.72949 .
4903.0 0.0 6026.66797 .
4927.0 0.0 6024.85107 .
4964.0 0.0 6023.27686 .
5007.0 0.0 6021.94336 .
5045.0 0.0 6020.84766 .
5079.0 0.0 6019.98828 .
5109.0 0.0 6019.35986 .
5147.0 0.0 6018.96436 .
5187.0 0.0 6018.79688 .
5215.0 0.0 6018.85400 .
5244.0 0.0 6019.13428 .
5272.0 0.0 6019.63672 .
5295.0 0.0 6020.35645 .
5318.0 0.0 6021.29395 .
5332.0 0.0 6022.44531 .
5361.0 0.0 6023.80957 .
5381.0 0.0 6025.38232 .
5411.0 0.0 6027.16309 .
5443.0 0.0 6029.14844 .
5458.0 0.0 6031.33691 .
5479.0 0.0 6033.72656 .
5498.0 0.0 6036.31348 .
5524.0 0.0 6039.09766 .
5551.0 0.0 6042.07568 .
5574.0 0.0 6045.24609 .
5598.0 0.0 6048.60645 .
5636.0 0.0 6052.15576 .
5663.0 0.0 6055.89014 .
5664.0 0.0 6059.80762 .
5670.0 0.0 6063.90771 .
5682.0 0.0 6068.18604 .
5694.0 0.0 6072.64258 .
5727.0 0.0 6077.27490 .
5750.0 0.0 6082.08057 .
5780.0 0.0 6087.05664 .
5794.0 0.0 6092.20410 .
5811.0 0.0 6097.51855 .
5830.0 0.0 6102.99756 .
5853.0 0.0 6108.64307 .
5872.0 0.0 6114.44873 .
5889.0 0.0 6120.41406 .
5905.0 0.0 6126.53809 .
5916.0 0.0 6132.81787 .
5941.0 0.0 6139.25146 .
5968.0 0.0 6145.83887 .
5977.0 0.0 6152.57520 .
6000.0 0.0 6159.46240 .
6028.0 0.0 6166.49512 .
6044.0 0.0 6173.67383 .
6061.0 0.0 6180.99414 .
6083.0 0.0 6188.45752 .
6099.0 0.0001640 6196.06055 6196.50195
6114.0 0.0001636 6203.80225 6204.22803
6140.0 0.0001629 6211.68018 6212.09180
6156.0 0.0001624 6219.69385 6220.13574
6176.0 0.0001619 6227.83984 6228.27051
6198.0 0.0001613 6236.11670 6236.53711
6204.0 0.0001612 6244.52344 6244.93359
6217.0 0.0001608 6253.05811 6253.45947
6243.0 0.0001602 6261.72021 6262.11279
6264.0 0.0001596 6270.50635 6270.89111
6287.0 0.0001591 6279.41602 6279.79346
6301.0 0.0001587 6288.44678 6288.81738
6315.0 0.0001584 6297.59766 6297.96191
6329.0 0.0001580 6306.86670 6307.22559
6348.0 0.0001575 6316.25293 6316.60645
6366.0 0.0001571 6325.75488 6326.10400
6363.0 0.0001572 6335.36865 6335.71387
6403.0 0.0001562 6345.09766 6345.43945
6432.0 0.0001555 6354.93506 6357.89014
6446.0 0.0001551 6364.88281 6367.89404
6469.0 0.0001546 6374.93750 6378.00830
6477.0 0.0001544 6385.09863 6435.12549
6500.0 0.0001538 6395.36377 6447.26563
6523.0 0.0001533 6405.73486 6459.62109
6535.0 0.0001530 6416.20459 6472.19434
6540.0 0.0001529 6426.77686 6484.99756
6551.0 0.0001526 6437.44678 6498.03760
6573.0 0.0001521 6448.21484 6511.32617
6610.0 0.0001513 6459.07910 6524.87451
6618.0 0.0001511 6470.03906 6538.69629
6646.0 0.0001505 6481.09082 6555.62207
6667.0 0.0001500 6492.23535 6570.09863
6668.0 0.0001500 6503.47070 6584.90039
6690.0 0.0001495 6514.79492 6600.04834
6697.0 0.0001493 6526.20850 6615.56885
6719.0 0.0001488 6537.70801 6631.48633
6731.0 0.0001486 6549.29248 6647.83447
6762.0 0.0001479 6560.96143 6664.64893
6781.0 0.0001475 6572.71387 6681.97070
6798.0 0.0001471 6584.54736 6699.84717
6817.0 0.0001467 6596.46094 6718.33301
6832.0 0.0001464 6608.45361 6737.49072
6862.0 0.0001457 6620.52490 6757.39551
6884.0 0.0001453 6632.67139 6778.13330
6904.0 0.0001448 6644.89551 6799.80664
6935.0 0.0001442 6657.19141 6822.53418
6960.0 0.0001437 6669.56152 6846.46094
6964.0 0.0001436 6682.00439 6871.76465
6982.0 0.0001432 6694.51563 6898.65186
6999.0 0.0001429 6707.09766 6927.39551
7007.0 0.0001427 6719.74854 6958.35205
7035.0 0.0001421 6732.46484 6992.07910
7058.0 0.0001417 6745.24902 7029.68018
7084.0 0.0001412 6758.09668 7073.34619
7136.0 0.0001401 6771.00928 7126.28809
7179.0 0.0001393 6783.98389 7190.38281
7240.0 0.0001381 6797.02051 7261.16992
7270.0 0.0001376 6810.11621 7324.63574
7287.0 0.0001372 6823.27393 7378.29492
7278.0 0.0001374 6836.48877 7439.87451
7298.0 0.0001370 6849.76025 7521.25195
7339.0 0.0001363 6863.08887 7626.97949
7396.0 0.0001352 6876.47266 7760.44678
7480.0 0.0001337 6889.91064 7928.03857
7606.0 0.0001315 6903.40137 8141.23389
7800.0 0.0001282 6916.94580 8418.65137
8098.0 0.0001235 6930.53955 8790.88574
8605.0 0.0001162 6944.18408 9315.78223
9497.0 0.0001053 6957.87891 10133.50391
11229.0 0.0000891 6971.62061 11635.37012
14669.0 0.0000682 6985.41113 14788.98926
21351.0 0.0000468 6999.24756 21292.18164
33309.0 0.00003002 7013.12939 32674.11523
50185.0 0.00001993 7027.05469 47719.97656
60511.0 0.00001653 7041.02588 58398.66797
52607.0 0.00001901 7055.03809 53744.79297
37932.0 0.00002636 7069.09180 39129.74219
26152.0 0.0000382 7083.18799 25727.61328
18724.0 0.0000534 7097.32373 17225.13086
14401.0 0.0000694 7111.49707 12874.41016
11922.0 0.0000839 7125.70996 10846.21777
10463.0 0.0000956 7139.96045 9833.87012
9552.0 0.0001047 7154.24707 9238.43750
8966.0 0.0001115 7168.56982 8840.88379
8587.0 0.0001165 7182.92725 8558.54492
8346.0 0.0001198 7197.31885 8351.99902
8171.0 0.0001224 7211.74365 8198.16797
8046.0 0.0001243 7226.20117 8082.26416
7966.0 0.0001255 7240.68945 7994.41992
7907.0 0.0001265 7255.21045 7927.88623
7873.0 0.0001270 7269.76025 7877.95117
7844.0 0.0001275 7284.33887 7841.29785
7832.0 0.0001277 7298.94775 7815.58740
7818.0 0.0001279 7313.58301 7799.19629
7798.0 0.0001282 7328.24512 7791.06543
7784.0 0.0001285 7342.93457 7790.60889
7784.0 0.0001285 7357.64990 7797.68604
7799.0 0.0001282 7372.38916 7812.63818
7823.0 0.0001278 7387.15234 7836.44678
7850.0 0.0001274 7401.94043 7871.11230
7881.0 0.0001269 7416.75049 7920.48975
7927.0 0.0001262 7431.58154 7991.90723
8012.0 0.0001248 7446.43604 8098.55859
8129.0 0.0001230 7461.30908 8261.74609
8318.0 0.0001202 7476.20410 8510.66992
8627.0 0.0001159 7491.11719 8876.49219
9157.0 0.0001092 7506.04932 9376.40820
9953.0 0.0001005 7520.99902 9974.91699
10803.0 0.0000926 7535.96680 10506.57129
11107.0 0.0000900 7550.95020 10675.98926
10590.0 0.0000944 7565.95166 10375.79395
9813.0 0.0001019 7580.96826 9854.81934
9194.0 0.0001088 7595.99902 9373.90820
8815.0 0.0001134 7611.04395 9038.98047
8603.0 0.0001162 7626.10352 8870.97070
8535.0 0.0001172 7641.17529 8868.65527
8607.0 0.0001162 7656.26074 9033.16895
8850.0 0.0001130 7671.35645 9370.31250
9318.0 0.0001073 7686.46533 9872.65527
10064.0 0.0000994 7701.58301 10468.11133
10745.0 0.0000931 7716.71387 10932.75586
10712.0 0.0000934 7731.85254 10951.42480
10088.0 0.0000991 7747.00195 10498.51172
9417.0 0.0001062 7762.15723 9874.18359
8933.0 0.0001119 7777.32324 9315.23535
8640.0 0.0001157 7792.49609 8896.44043
8466.0 0.0001181 7807.67529 8610.26563
8351.0 0.0001197 7822.86182 8426.43457
8290.0 0.0001206 7838.05518 8311.66113
8248.0 0.0001212 7853.25293 8239.75879
8221.0 0.0001216 7868.45605 8193.58105
8219.0 0.0001217 7883.66455 8163.15869
8210.0 0.0001218 7898.87646 8142.97461
8212.0 0.0001218 7914.09277 8129.90820
8216.0 0.0001217 7929.31152 8122.05664
8212.0 0.0001218 7944.53320 8118.15869
8207.0 0.0001218 7959.75781 8117.32910
8217.0 0.0001217 7974.98438 8118.92090
8233.0 0.0001215 7990.21143 8122.45068
8244.0 0.0001213 8005.44043 8127.55322
8246.0 0.0001213 8020.66992 8133.94531
8251.0 0.0001212 8035.89990 8141.40576
8258.0 0.0001211 8051.12744 8149.75732
8276.0 0.0001208 8066.35693 8158.86523
8291.0 0.0001206 8081.58350 8168.61182
8307.0 0.0001204 8096.80957 8178.90820
8313.0 0.0001203 8112.03418 8189.67773
8322.0 0.0001202 8127.25684 8200.85645
8336.0 0.0001200 8142.47559 8212.39160
8348.0 0.0001198 8157.69238 8224.24316
8360.0 0.0001196 8172.90625 8236.36719
8378.0 0.0001194 8188.11377 8248.73438
8380.0 0.0001193 8203.32129 8261.31836
8391.0 0.0001192 8218.51953 8274.09277
8411.0 0.0001189 8233.71680 8287.04297
8428.0 0.0001187 8248.90820 8300.14453
8439.0 0.0001185 8264.09375 8313.38574
8456.0 0.0001183 8279.27246 8326.75098
8464.0 0.0001181 8294.44824 8340.23047
8480.0 0.0001179 8309.61328 8353.80762
8499.0 0.0001177 8324.77539 8367.48242
8513.0 0.0001175 8339.92871 8381.23926
8519.0 0.0001174 8355.07520 8395.07324
8533.0 0.0001172 8370.21289 8408.97461
8528.0 0.0001173 8385.34570 8422.94434
8544.0 0.0001170 8400.46680 8436.96777
8566.0 0.0001167 8415.58105 8451.04590
8583.0 0.0001165 8430.68555 8465.17285
8587.0 0.0001165 8445.78125 8479.34277
8601.0 0.0001163 8460.87012 8493.55664
8600.0 0.0001163 8475.94629 8507.80566
8607.0 0.0001162 8491.01465 8522.09180
8622.0 0.0001160 8506.07129 8536.40820
8631.0 0.0001159 8521.11719 8550.75098
8660.0 0.0001155 8536.15332 8565.12402
8673.0 0.0001153 8551.18164 8579.52344
8683.0 0.0001152 8566.19434 8593.94238
8696.0 0.0001150 8581.19727 8608.38281
8704.0 0.0001149 8596.18945 8622.84277
8721.0 0.0001147 8611.16895 8637.32227
8732.0 0.0001145 8626.13574 8651.81445
8745.0 0.0001144 8641.09277 8666.32617
8748.0 0.0001143 8656.03418 8680.84961
8764.0 0.0001141 8670.96582 8695.38867
8793.0 0.0001137 8685.88281 8709.94043
8794.0 0.0001137 8700.79102 8724.50586
8807.0 0.0001135 8715.67969 8739.07715
8818.0 0.0001134 8730.55957 8753.66602
8835.0 0.0001132 8745.42480 8768.26270
8855.0 0.0001129 8760.27441 8782.86816
8863.0 0.0001128 8775.11133 8797.48535
8860.0 0.0001129 8789.93555 8812.11426
8870.0 0.0001127 8804.74316 8826.75293
8886.0 0.0001125 8819.53711 8841.40332
8896.0 0.0001124 8834.31738 8856.06445
8922.0 0.0001121 8849.08105 8870.73730
8931.0 0.0001120 8863.83203 8885.42578
8947.0 0.0001118 8878.56738 8900.12598
8963.0 0.0001116 8893.28711 8914.84277
8967.0 0.0001115 8907.99414 8918.38965
8982.0 0.0001113 8922.68164 8933.33398
8998.0 0.0001111 8937.35449 8948.29492
9004.0 0.0001111 8952.01270 8963.27637
9014.0 0.0001109 8966.65527 8978.28027
9023.0 0.0001108 8981.28125 8993.31055
9046.0 0.0001105 8995.89160 9008.37207
9062.0 0.0001104 9010.48535 9024.52637
9058.0 0.0001104 9025.06250 9039.68750
9076.0 0.0001102 9039.62402 9054.90137
9098.0 0.0001099 9054.16797 9070.17188
9121.0 0.0001096 9068.69629 9085.51074
9128.0 0.0001096 9083.20801 9098.10645
9126.0 0.0001096 9097.70313 9113.68262
9142.0 0.0001094 9112.17871 9129.36621
9165.0 0.0001091 9126.64063 9145.18164
9183.0 0.0001089 9141.08301 9161.15039
9197.0 0.0001087 9155.50977 9177.30664
9200.0 0.0001087 9169.91992 9193.68359
9210.0 0.0001086 9184.31055 9210.32910
9225.0 0.0001084 9198.68652 9227.30566
9239.0 0.0001082 9213.04395 9244.68066
9248.0 0.0001081 9227.38184 9262.55078
9271.0 0.0001079 9241.70410 9281.04004
9290.0 0.0001076 9256.00879 9300.30859
9303.0 0.0001075 9270.29590 9320.56934
9308.0 0.0001074 9284.56543 9342.11719
9338.0 0.0001071 9298.81543 9365.35840
9348.0 0.0001070 9313.04980 9390.91699
9372.0 0.0001067 9327.26563 9419.92676
9393.0 0.0001065 9341.46289 9453.82129
9428.0 0.0001061 9355.64258 9495.79980
9482.0 0.0001055 9369.80371 9551.09863
9565.0 0.0001045 9383.94824 9627.86133
9672.0 0.0001034 9398.07520 9736.95996
9825.0 0.0001018 9412.18066 9889.93652
10072.0 0.0000993 9426.27344 10093.90234
10431.0 0.0000959 9440.34277 10340.08984
10841.0 0.0000922 9454.39746 10580.11816
11041.0 0.0000906 9468.43262 10710.79297
10887.0 0.0000919 9482.44922 10652.31250
10569.0 0.0000946 9496.44727 10456.63574
10253.0 0.0000975 9510.42773 10233.46387
10020.0 0.0000998 9524.39063 10045.36035
9881.0 0.0001012 9538.33496 9908.22559
9789.0 0.0001022 9552.26270 9817.45313
9745.0 0.0001026 9566.17090 9761.97070
9714.0 0.0001029 9580.05957 9730.44922
9692.0 0.0001032 9593.93359 9714.00000
9669.0 0.0001034 9607.78711 9706.70313
9656.0 0.0001036 9621.62109 9705.04688
9665.0 0.0001035 9635.44043 9707.05176
9667.0 0.0001034 9649.23828 9711.57617
9684.0 0.0001033 9663.01953 9717.94141
9683.0 0.0001033 9676.78223 9725.69141
9696.0 0.0001031 9690.52930 9734.51270
9716.0 0.0001029 9704.25488 9744.17188
9728.0 0.0001028 9717.96680 9754.50488
9744.0 0.0001026 9731.65527 9765.37402
9754.0 0.0001025 9745.32910 9776.68750
9761.0 0.0001024 9758.98438 9788.36719
9772.0 0.0001023 9772.62207 9800.35352
9777.0 0.0001023 9786.24121 9812.60059
9791.0 0.0001021 9799.84277 9825.07227
9806.0 0.0001020 9813.42773 9837.74121
9832.0 0.0001017 9826.99316 9850.58301
9840.0 0.0001016 9840.54297 9863.58789
9853.0 0.0001015 9854.07422 9876.73730
9864.0 0.0001014 9867.58594 9890.02246
9880.0 0.0001012 9881.08398 9903.44727
9904.0 0.0001010 9894.56055 9917.00195
9919.0 0.0001008 9908.02344 9930.69824
9927.0 0.0001007 9921.46680 9944.53418
9937.0 0.0001006 9934.89453 9958.52539
9955.0 0.0001005 9948.30273 9972.68066
9963.0 0.0001004 9961.69629 9987.02637
9979.0 0.0001002 9975.07031 10001.58301
9999.0 0.0001000 9988.42871 10016.38770
10002.0 0.0001000 10001.76953 10036.95117
10010.0 0.0000999 10015.09375 10052.44922
10032.0 0.0000997 10028.40137 10068.36816
10042.0 0.0000996 10041.69141 10084.80371
10063.0 0.0000994 10054.96777 10101.88281
10087.0 0.0000991 10068.22266 10119.76855
10101.0 0.0000990 10081.46582 10138.70020
10121.0 0.0000988 10094.68945 10158.98242
10143.0 0.0000986 10107.89746 10181.07324
10178.0 0.0000983 10121.08887 10205.64941
10228.0 0.0000978 10134.26367 10233.83301
10277.0 0.0000973 10147.42383 10267.73633
10326.0 0.0000968 10160.56836 10311.61523
10404.0 0.0000961 10173.69531 10373.88184
10514.0 0.0000951 10186.80762 10469.21973
10674.0 0.0000937 10199.90234 10618.37988
10918.0 0.0000916 10212.98145 10842.22656
11253.0 0.0000889 10226.04688 11147.31641
11675.0 0.0000857 10239.09668 11497.57324
12033.0 0.0000831 10252.12891 11768.33887
12091.0 0.0000827 10265.14844 11783.07910
11857.0 0.0000843 10278.15137 11540.50000
11502.0 0.0000869 10291.13965 11216.66113
11189.0 0.0000894 10304.11328 10937.26758
10956.0 0.0000913 10317.07031 10739.06445
10791.0 0.0000927 10330.01465 10615.77148
10687.0 0.0000936 10342.94238 10548.11230
10619.0 0.0000942 10355.85742 10512.31738
10568.0 0.0000946 10368.75586 10495.14160
10541.0 0.0000949 10381.64160 10488.16699
10515.0 0.0000951 10394.51270 10487.15527
10510.0 0.0000951 10407.36719 10490.06543
10496.0 0.0000953 10420.21094 10495.91309
10487.0 0.0000954 10433.04004 10504.27051
10494.0 0.0000953 10445.85449 10515.18359
10496.0 0.0000953 10458.65625 10529.27832
10505.0 0.0000952 10471.44336 10547.89551
10511.0 0.0000951 10484.21777 10573.04395
10526.0 0.0000950 10496.97656 10607.26563
10554.0 0.0000948 10509.72559 10650.48242
10574.0 0.0000946 10522.45996 10700.06641
10594.0 0.0000944 10535.18066 10744.31055
10610.0 0.0000943 10547.88867 10763.55762
10612.0 0.0000942 10560.58301 10751.48926
10613.0 0.0000942 10573.26660 10724.82031
10620.0 0.0000942 10585.93555 10700.16211
10626.0 0.0000941 10598.59375 10683.96875
10625.0 0.0000941 10611.23828 10676.70313
10634.0 0.0000940 10623.87207 10676.52930
10625.0 0.0000941 10636.49316 10681.12891
10632.0 0.0000941 10649.10254 10688.60645
10659.0 0.0000938 10661.69824 10697.72363
10673.0 0.0000937 10674.28516 10707.79688
10691.0 0.0000935 10686.85840 10718.46484
10715.0 0.0000933 10699.41992 10729.54102
10726.0 0.0000932 10711.97168 10740.91406
10730.0 0.0000932 10724.51172 10752.51270
10750.0 0.0000930 10737.04102 10764.31055
10761.0 0.0000929 10749.55859 10776.22656
10775.0 0.0000928 10762.06445 10788.25586
10781.0 0.0000928 10774.56250 10800.38379
10794.0 0.0000926 10787.04883 10812.59180
10812.0 0.0000925 10799.52246 10824.86328
10830.0 0.0000923 10811.98828 10837.19336
10836.0 0.0000923 10824.44336 10849.74707
10844.0 0.0000922 10836.88867 10862.18066
10859.0 0.0000921 10849.32324 10874.65332
10871.0 0.0000920 10861.74707 10887.16211
10888.0 0.0000918 10874.16406 10899.70996
10906.0 0.0000917 10886.56836 10912.28906
10927.0 0.0000915 10898.96582 10924.90332
10941.0 0.0000914 10911.35352 10937.54785
10953.0 0.0000913 10923.73242 10950.22461
10959.0 0.0000912 10936.10156 10962.93457
10971.0 0.0000911 10948.46094 10974.86914
10989.0 0.0000910 10960.81543 10987.66309
10995.0 0.0000910 10973.15820 11000.48633
11006.0 0.0000909 10985.49121 11013.34668
11013.0 0.0000908 10997.82031 11026.24902
11026.0 0.0000907 11010.13672 11039.18848
11033.0 0.0000906 11022.44727 11052.17773
11041.0 0.0000906 11034.75098 11065.21484
11070.0 0.0000903 11047.04590 11078.30371
11091.0 0.0000902 11059.33203 11091.45410
11116.0 0.0000900 11071.61328 11104.67285
11132.0 0.0000898 11083.88574 11117.96289
11148.0 0.0000897 11096.14941 11131.32910
11163.0 0.0000896 11108.40723 11144.79102
11161.0 0.0000896 11120.65918 11158.35449
11160.0 0.0000896 11132.90430 11172.03711
11186.0 0.0000894 11145.14063 11185.84961
11212.0 0.0000892 11157.37305 11199.81250
11226.0 0.0000891 11169.59863 11218.17188
11235.0 0.0000890 11181.81738 11232.56250
11254.0 0.0000889 11194.02930 11247.18848
11263.0 0.0000888 11206.23730 11262.09375
11273.0 0.0000887 11218.43750 11277.31934
11281.0 0.0000886 11230.63379 11292.93652
11289.0 0.0000886 11242.82227 11309.59668
11304.0 0.0000885 11255.00781 11326.23926
11327.0 0.0000883 11267.18652 11343.56348
11360.0 0.0000880 11279.35938 11361.72656
11370.0 0.0000880 11291.52930 11380.94238
11380.0 0.0000879 11303.69238 11401.48340
11408.0 0.0000877 11315.85254 11423.73633
11432.0 0.0000875 11328.00684 11448.23438
11464.0 0.0000872 11340.15820 11475.80371
11490.0 0.0000870 11352.30273 11507.80566
11534.0 0.0000867 11364.44629 11546.70898
11581.0 0.0000863 11376.58398 11597.05664
11644.0 0.0000859 11388.71777 11665.76074
11737.0 0.0000852 11400.84863 11767.44531
11858.0 0.0000843 11412.97559 11917.35840
12030.0 0.0000831 11425.09961 12131.76270
12288.0 0.0000814 11437.21973 12418.19434
12622.0 0.0000792 11449.33496 12758.61328
12957.0 0.0000772 11461.45020 13077.98730
13157.0 0.0000760 11473.55957 13232.44922
13089.0 0.0000764 11485.66992 13127.08691
12845.0 0.0000779 11497.77441 12847.64453
12558.0 0.0000796 11509.87891 12541.18848
12337.0 0.0000811 11521.97656 12288.84668
12172.0 0.0000822 11534.07617 12113.40820
12084.0 0.0000828 11546.17090 12011.71289
12032.0 0.0000831 11558.26563 11972.28906
11994.0 0.0000834 11570.35938 11982.96387
11996.0 0.0000834 11582.44922 12033.62207
12025.0 0.0000832 11594.53809 12112.43848
12062.0 0.0000829 11606.62598 12197.00781
12085.0 0.0000827 11618.71289 12247.09277
12055.0 0.0000830 11630.79688 12228.60645
12015.0 0.0000832 11642.88184 12155.07422
11984.0 0.0000834 11654.96484 12073.04785
11947.0 0.0000837 11667.04688 11997.55469
11925.0 0.0000839 11679.12988 11942.68652
11912.0 0.0000839 11691.20996 11907.77539
11900.0 0.0000840 11703.29102 11888.71289
11904.0 0.0000840 11715.37305 11880.76367
11907.0 0.0000840 11727.45313 11879.98340
11934.0 0.0000838 11739.53223 11883.65430
11937.0 0.0000838 11751.61523 11890.13867
11945.0 0.0000837 11763.69531 11898.50586
11960.0 0.0000836 11775.77539 11908.24316
11971.0 0.0000835 11787.85645 11920.08594
11986.0 0.0000834 11799.93848 11931.77246
12000.0 0.0000833 11812.02246 11944.19141
12032.0 0.0000831 11824.10547 11957.25195
12055.0 0.0000830 11836.19141 11970.88965
12061.0 0.0000829 11848.27734 11985.05371
12065.0 0.0000829 11860.36523 11999.71777
12084.0 0.0000828 11872.45313 12014.86230
12091.0 0.0000827 11884.54395 12030.48047
12109.0 0.0000826 11896.63477 12046.56836
12135.0 0.0000824 11908.72852 12063.13770
12160.0 0.0000822 11920.82520 12080.20117
12181.0 0.0000821 11932.92285 12097.78027
12200.0 0.0000820 11945.02051 12118.29785
12215.0 0.0000819 11957.12402 12137.05176
12244.0 0.0000817 11969.22754 12156.43066
12270.0 0.0000815 11981.33398 12176.47949
12301.0 0.0000813 11993.44238 12197.26367
12325.0 0.0000811 12005.55469 12229.52930
12347.0 0.0000810 12017.67188 12252.15332
12377.0 0.0000808 12029.78809 12275.75391
12411.0 0.0000806 12041.90820 12300.43848
12458.0 0.0000803 12054.03320 12326.33594
12498.0 0.0000800 12066.16016 12353.59180
12551.0 0.0000797 12078.29004 12387.66992
12593.0 0.0000794 12090.42383 12418.26660
12629.0 0.0000792 12102.56152 12450.83105
12680.0 0.0000789 12114.70508 12485.64648
12738.0 0.0000785 12126.84766 12523.04199
12802.0 0.0000781 12138.99805 12563.42578
12861.0 0.0000778 12151.15234 12607.27441
12930.0 0.0000773 12163.30957 12655.17188
13007.0 0.0000769 12175.46973 12707.84375
13102.0 0.0000763 12187.63574 12766.19727
13206.0 0.0000757 12199.80664 12831.38379
13315.0 0.0000751 12211.98340 12904.89453
13441.0 0.0000744 12224.16113 12988.71777
13577.0 0.0000737 12236.34570 13085.58496
13733.0 0.0000728 12248.53711 13199.37500
13921.0 0.0000718 12260.73145 13335.73047
14135.0 0.0000707 12272.92969 13502.62793
14365.0 0.0000696 12285.13672 13710.28906
14629.0 0.0000684 12297.34668 13970.14355
14946.0 0.0000669 12309.56348 14289.69922
15297.0 0.0000654 12321.78320 14671.51074
15682.0 0.0000638 12334.01074 15111.22754
16108.0 0.0000621 12346.24414 15617.63574
16594.0 0.0000603 12358.48145 16216.58301
17126.0 0.0000584 12370.72461 16921.01758
17724.0 0.0000564 12382.97656 17712.05859
18331.0 0.0000546 12395.23340 18525.61719
18917.0 0.0000529 12407.49609 19242.70508
19424.0 0.0000515 12419.76465 19707.23438
19674.0 0.0000508 12432.03906 19791.01563
19471.0 0.0000514 12444.32227 19472.67383
18815.0 0.0000531 12456.61328 18852.06445
17959.0 0.0000557 12468.90625 18084.71680
17133.0 0.0000584 12481.20801 17300.10742
16417.0 0.0000609 12493.51758 16581.94141
15802.0 0.0000633 12505.83203 15959.85840
15301.0 0.0000654 12518.15625 15444.50195
14896.0 0.0000671 12530.48438 15027.18848
14579.0 0.0000686 12542.82227 14697.14258
14336.0 0.0000698 12555.16797 14441.31641
14146.0 0.0000707 12567.51953 14247.62305
13982.0 0.0000715 12579.87793 14106.06543
13879.0 0.0000721 12592.24609 14009.58398
13803.0 0.0000724 12604.61914 13953.68164
13767.0 0.0000726 12617.00293 13936.91211
13764.0 0.0000727 12629.39160 13959.22070
13812.0 0.0000724 12641.78906 14020.83398
13924.0 0.0000718 12654.19531 14121.28906
14115.0 0.0000708 12666.60840 14264.03809
14387.0 0.0000695 12679.03027 14482.03223
14797.0 0.0000676 12691.46191 14886.41602
15437.0 0.0000648 12703.89844 15565.61035
16392.0 0.0000610 12716.34570 16665.55078
17738.0 0.0000564 12728.79883 18236.13086
19383.0 0.0000516 12741.26465 20134.82422
20635.0 0.0000485 12753.73340 21837.38281
20654.0 0.0000484 12766.21777 22424.85938
19646.0 0.0000509 12778.70801 21465.99609
18339.0 0.0000545 12791.20215 19655.30469
17169.0 0.0000582 12803.71094 17840.06445
16235.0 0.0000616 12816.22754 16412.02148
15541.0 0.0000643 12828.75098 15438.90430
15035.0 0.0000665 12841.28418 14838.06738
14680.0 0.0000681 12853.82813 14484.21875
14421.0 0.0000693 12866.38086 14272.49707
14223.0 0.0000703 12878.94141 14138.62598
14084.0 0.0000710 12891.51074 14050.81641
13996.0 0.0000714 12904.09277 13995.05664
13937.0 0.0000718 12916.68164 13965.17188
13923.0 0.0000718 12929.28027 13958.45801
13926.0 0.0000718 12941.88672 13974.51172
13961.0 0.0000716 12954.50586 14015.81641
14021.0 0.0000713 12967.13379 14089.32227
14119.0 0.0000708 12979.77148 14209.01270
14276.0 0.0000700 12992.41699 14397.55469
14492.0 0.0000690 13005.07617 14684.62500
14796.0 0.0000676 13017.74121 15098.77539
15219.0 0.0000657 13030.41895 15651.33496
15731.0 0.0000636 13043.10449 16308.19238
16222.0 0.0000616 13055.80176 16942.26367
16485.0 0.0000607 13068.50977 17324.69141
16509.0 0.0000606 13081.22461 17324.57227
16476.0 0.0000607 13093.95215 17106.36523
16561.0 0.0000604 13106.68945 16932.88086
16805.0 0.0000595 13119.43555 16965.00195
17224.0 0.0000581 13132.19434 17265.66602
17858.0 0.0000560 13144.96289 17836.38672
18664.0 0.0000536 13157.74121 18623.53125
19562.0 0.0000511 13170.53027 19495.80469
20256.0 0.0000494 13183.33105 20227.67188
20556.0 0.0000486 13196.13867 20588.68164
20537.0 0.0000487 13208.95996 20496.12891
20200.0 0.0000495 13221.79199 20028.20117
19517.0 0.0000512 13234.63379 19347.78906
18709.0 0.0000535 13247.48535 18622.21484
18001.0 0.0000556 13260.34863 17957.90820
17450.0 0.0000573 13273.22461 17384.74023
17033.0 0.0000587 13286.10938 16884.05859
16658.0 0.0000600 13299.00488 16431.73438
16291.0 0.0000614 13311.91113 16024.02539
15942.0 0.0000627 13324.82910 15671.21777
15649.0 0.0000639 13337.75684 15380.90039
15418.0 0.0000649 13350.69727 15152.07910
15229.0 0.0000657 13363.64648 14978.06055
15101.0 0.0000662 13376.60938 14850.35645
15009.0 0.0000666 13389.58105 14760.88672
14958.0 0.0000669 13402.56641 14702.89160
14910.0 0.0000671 13415.55957 14671.15039
14911.0 0.0000671 13428.56641 14661.94141
14923.0 0.0000670 13441.58398 14674.78809
14960.0 0.0000668 13454.61230 14704.60938
15030.0 0.0000665 13467.65039 14752.83594
15132.0 0.0000661 13480.70215 14819.47559
15254.0 0.0000656 13493.76465 14904.48047
15402.0 0.0000649 13506.83789 15007.10059
15586.0 0.0000642 13519.92285 15131.04492
15805.0 0.0000633 13533.01855 15266.63965
16041.0 0.0000623 13546.12598 15427.15430
16310.0 0.0000613 13559.24414 15633.89453
16646.0 0.0000601 13572.37500 15921.29883
17052.0 0.0000586 13585.51465 16332.41992
17569.0 0.0000569 13598.66895 16910.88672
18222.0 0.0000549 13611.83496 17687.52148
19022.0 0.0000526 13625.00879 18656.41992
19937.0 0.0000502 13638.19531 19731.85938
20838.0 0.0000480 13651.39453 20728.56641
21624.0 0.0000462 13664.60449 21524.42969
22387.0 0.0000447 13677.82520 22271.45117
23270.0 0.0000430 13691.05859 23233.44727
24335.0 0.0000411 13704.30273 24534.42773
25525.0 0.0000392 13717.55957 26089.33789
26745.0 0.0000374 13730.82715 27585.55859
27726.0 0.0000361 13744.10645 28561.52930
28072.0 0.0000356 13757.39648 28702.04102
27704.0 0.0000361 13770.70020 28117.50391
26944.0 0.0000371 13784.01367 27211.48438
26217.0 0.0000381 13797.33789 26318.48438
25683.0 0.0000389 13810.67480 25522.58594
25230.0 0.0000396 13824.02246 24696.10742
24554.0 0.0000407 13837.38281 23685.67188
23424.0 0.0000427 13850.75586 22490.54688
22016.0 0.0000454 13864.13672 21250.35156
20677.0 0.0000484 13877.53223 20130.37109
19637.0 0.0000509 13890.93750 19225.72070
18898.0 0.0000529 13904.35742 18568.69141
18447.0 0.0000542 13917.78418 18154.07422
18242.0 0.0000548 13931.22559 17950.98633
18210.0 0.0000549 13944.67773 17895.82422
18152.0 0.0000551 13958.14063 17873.88086
17911.0 0.0000558 13971.61523 17742.72266
17498.0 0.0000571 13985.10352 17449.88672
17074.0 0.0000586 13998.60059 17080.04883
16699.0 0.0000599 14012.11133 16738.98242
16416.0 0.0000609 14025.62988 16479.11328
16199.0 0.0000617 14039.16211 16308.08691
16062.0 0.0000623 14052.70703 16207.05273
15989.0 0.0000625 14066.26270 16142.89941
15931.0 0.0000628 14079.83008 16083.75195
15901.0 0.0000629 14093.40723 16016.13086
15891.0 0.0000629 14106.99805 15948.03223
15912.0 0.0000628 14120.59668 15895.56836
15953.0 0.0000627 14134.21094 15873.24512
16035.0 0.0000624 14147.83301 15891.28613
16154.0 0.0000619 14161.46680 15957.84180
16285.0 0.0000614 14175.11230 16080.30273
16457.0 0.0000608 14188.77148 16265.03027
16662.0 0.0000600 14202.43750 16515.17383
16899.0 0.0000592 14216.11914 16825.74219
17157.0 0.0000583 14229.80957 17174.11328
17408.0 0.0000574 14243.51172 17504.82813
17620.0 0.0000568 14257.22266 17737.83008
17760.0 0.0000563 14270.95020 17818.60938
17805.0 0.0000562 14284.68457 17775.61914
17828.0 0.0000561 14298.43066 17695.85742
17889.0 0.0000559 14312.18750 17660.70508
18060.0 0.0000554 14325.95703 17719.08203
18361.0 0.0000545 14339.73633 17903.85742
18822.0 0.0000531 14353.52832 18243.70313
19432.0 0.0000515 14367.32813 18773.51172
20256.0 0.0000494 14381.13867 19539.51367
21315.0 0.0000469 14394.96387 20602.08398
22665.0 0.0000441 14408.79785 22037.29492
24367.0 0.0000410 14422.64160 23930.60156
26456.0 0.0000378 14436.49707 26352.99609
28991.0 0.00003449 14450.36523 29309.77539
31962.0 0.00003129 14464.24219 32661.67969
35269.0 0.00002835 14478.12988 35988.83984
38441.0 0.00002601 14492.02637 38504.16797
40425.0 0.00002474 14505.93555 39304.07422
39738.0 0.00002516 14519.85547 38034.85547
36290.0 0.00002756 14533.78516 35231.29688
31737.0 0.00003151 14547.72461 31818.10938
27592.0 0.0000362 14561.67578 28501.87695
24383.0 0.0000410 14575.63770 25626.14648
22017.0 0.0000454 14589.60938 23289.59180
20295.0 0.0000493 14603.58984 21469.46875
19038.0 0.0000525 14617.58398 20092.19727
18111.0 0.0000552 14631.58496 19068.69922
17444.0 0.0000573 14645.59863 18313.20117
16965.0 0.0000589 14659.61816 17752.82227
16597.0 0.0000603 14673.65234 17331.06445
16323.0 0.0000613 14687.69629 17007.04102
16132.0 0.0000620 14701.74902 16752.63477
15982.0 0.0000626 14715.81055 16549.06055
15870.0 0.0000630 14729.88477 16383.79199
15784.0 0.0000634 14743.96680 16248.27148
15719.0 0.0000636 14758.05957 16136.41211
15679.0 0.0000638 14772.16211 16043.50586
15643.0 0.0000639 14786.27246 15965.60645
15613.0 0.0000640 14800.39453 15899.32422
15603.0 0.0000641 14814.52637 15842.14844
15587.0 0.0000642 14828.66602 15792.77344
15578.0 0.0000642 14842.81641 15750.70020
15544.0 0.0000643 14856.97559 15715.54199
15525.0 0.0000644 14871.14453 15686.82422
15518.0 0.0000644 14885.32422 15663.97266
15533.0 0.0000644 14899.51172 15646.40723
15538.0 0.0000644 14913.70801 15633.62891
15547.0 0.0000643 14927.91406 15625.19434
15561.0 0.0000643 14942.12988 15620.74902
15573.0 0.0000642 14956.35352 15620.23438
15588.0 0.0000642 14970.58789 15623.04395
15611.0 0.0000641 14984.83008 15629.26270
15640.0 0.0000639 14999.08203 15638.87109
15672.0 0.0000638 15013.33984 15646.16016
15700.0 0.0000637 15027.61035 15662.78906
15726.0 0.0000636 15041.88867 15683.16016
15746.0 0.0000635 15056.17480 15707.58691
15778.0 0.0000634 15070.46680 15736.32813
15832.0 0.0000632 15084.77246 15770.34766
15888.0 0.0000629 15099.08496 15810.32422
15943.0 0.0000627 15113.40625 15857.54785
16010.0 0.0000625 15127.73340 15914.00684
16087.0 0.0000622 15142.06934 15982.64844
16188.0 0.0000618 15156.41504 16068.00977
16336.0 0.0000612 15170.77051 16176.32910
16488.0 0.0000607 15185.13184 16315.45508
16683.0 0.0000599 15199.50098 16494.15820
16932.0 0.0000591 15213.87891 16726.44336
17227.0 0.0000580 15228.26367 17005.53906
17570.0 0.0000569 15242.65723 17333.05273
17948.0 0.0000557 15257.05859 17695.98828
18368.0 0.0000544 15271.46777 18096.10547
18835.0 0.0000531 15285.88477 18575.18945
19408.0 0.0000515 15300.30859 19189.76953
20100.0 0.0000498 15314.73926 19972.60156
20918.0 0.0000478 15329.17969 20907.64258
21837.0 0.0000458 15343.62500 21929.61719
22794.0 0.0000439 15358.07910 22984.95703
23816.0 0.0000420 15372.54102 24115.64063
25017.0 0.0000400 15387.00977 25408.81445
26478.0 0.0000378 15401.48438 26820.50391
27946.0 0.0000358 15415.96777 28036.37695
28659.0 0.00003489 15430.45508 28515.78711
27906.0 0.0000358 15444.95215 27868.04102
26088.0 0.0000383 15459.45703 26274.97852
24031.0 0.0000416 15473.96484 24301.61719
22256.0 0.0000449 15488.48242 22408.38281
20847.0 0.0000480 15503.00488 20821.31055
19771.0 0.0000506 15517.53418 19589.21875
18974.0 0.0000527 15532.07227 18684.69531
18381.0 0.0000544 15546.61328 18047.09570
17941.0 0.0000557 15561.16113 17609.44531
17611.0 0.0000568 15575.71777 17312.87500
17391.0 0.0000575 15590.27930 17115.30664
17227.0 0.0000580 15604.84668 16988.00000
17132.0 0.0000584 15619.41797 16915.14453
17101.0 0.0000585 15633.99805 16889.70508
17128.0 0.0000584 15648.58398 16910.21875
17182.0 0.0000582 15663.17480 16978.05078
17289.0 0.0000578 15677.77051 17094.69922
17467.0 0.0000573 15692.37402 17259.54492
17704.0 0.0000565 15706.98145 17459.76367
17994.0 0.0000556 15721.59570 17668.18359
18294.0 0.0000547 15736.21289 17833.25195
18518.0 0.0000540 15750.83691 17898.84180
18570.0 0.0000539 15765.46777 17849.96875
18432.0 0.0000543 15780.10059 17731.74219
18232.0 0.0000548 15794.74023 17600.23047
18046.0 0.0000554 15809.38477 17493.98438
17928.0 0.0000558 15824.03516 17414.79883
17860.0 0.0000560 15838.68848 17337.14648
17753.0 0.0000563 15853.34961 17216.36328
17583.0 0.0000569 15868.01172 17083.22656
17402.0 0.0000575 15882.68066 16946.13477
17243.0 0.0000580 15897.35352 16829.10742
17134.0 0.0000584 15912.03125 16744.22656
17059.0 0.0000586 15926.71191 16694.95117
17022.0 0.0000587 15941.39844 16680.88672
16984.0 0.0000589 15956.08789 16701.06250
16959.0 0.0000590 15970.78320 16756.64453
16971.0 0.0000589 15985.48145 16850.37500
17003.0 0.0000588 16000.18262 16982.77734
17055.0 0.0000586 16014.88965 17147.27539
17139.0 0.0000583 16029.60059 17323.19336
17225.0 0.0000581 16044.31445 17468.77344
17315.0 0.0000578 16059.03125 17535.66016
17372.0 0.0000576 16073.75293 17496.86719
17364.0 0.0000576 16088.47754 17377.97461
17294.0 0.0000578 16103.20605 17225.90625
17178.0 0.0000582 16117.93652 17080.18359
17073.0 0.0000586 16132.67090 16963.64648
17003.0 0.0000588 16147.40820 16886.43750
16957.0 0.0000590 16162.14844 16854.06250
16944.0 0.0000590 16176.89355 16864.78320
16959.0 0.0000590 16191.64063 16922.21094
17015.0 0.0000588 16206.38965 17028.35352
17079.0 0.0000586 16221.14160 17188.09375
17180.0 0.0000582 16235.89551 17384.19531
17302.0 0.0000578 16250.65234 17607.68359
17450.0 0.0000573 16265.41406 17814.06641
17603.0 0.0000568 16280.17773 17940.30469
17696.0 0.0000565 16294.94141 17937.20508
17703.0 0.0000565 16309.70703 17810.10938
17594.0 0.0000568 16324.47656 17612.51758
17446.0 0.0000573 16339.24902 17402.67578
17290.0 0.0000578 16354.01953 17216.02148
17155.0 0.0000583 16368.79492 17066.04492
17052.0 0.0000586 16383.57324 16953.54688
16984.0 0.0000589 16398.35156 16874.07813
16933.0 0.0000591 16413.13086 16820.91016
16895.0 0.0000592 16427.91211 16787.50195
16874.0 0.0000593 16442.69727 16768.59570
16876.0 0.0000593 16457.48047 16759.63477
16883.0 0.0000592 16472.26758 16758.05273
16899.0 0.0000592 16487.05273 16762.11914
16898.0 0.0000592 16501.84180 16749.87695
16916.0 0.0000591 16516.63281 16763.00391
16936.0 0.0000590 16531.41992 16779.77148
16961.0 0.0000590 16546.21094 16799.57031
16982.0 0.0000589 16561.00391 16821.20117
17021.0 0.0000588 16575.79883 16842.51367
17047.0 0.0000587 16590.59375 16860.81445
17065.0 0.0000586 16605.38477 16874.75781
17087.0 0.0000585 16620.17773 16885.67578
17083.0 0.0000585 16634.97656 16896.34375
17086.0 0.0000585 16649.76953 16909.05469
17098.0 0.0000585 16664.56445 16925.25586
17120.0 0.0000584 16679.35938 16946.42188
17165.0 0.0000583 16694.15430 16973.14648
17197.0 0.0000581 16708.95508 17005.05469
17237.0 0.0000580 16723.74609 17044.42188
17299.0 0.0000578 16738.54492 17093.30469
17377.0 0.0000575 16753.33789 17154.57813
17441.0 0.0000573 16768.13477 17231.94531
17485.0 0.0000572 16782.92773 17330.12109
17540.0 0.0000570 16797.72266 17455.89258
17602.0 0.0000568 16812.51367 17617.18164
17664.0 0.0000566 16827.30469 17817.48047
17726.0 0.0000564 16842.09961 18047.75391
17796.0 0.0000562 16856.89063 18276.51172
17873.0 0.0000560 16871.67969 18446.30664
17893.0 0.0000559 16886.47070 18505.88867
17852.0 0.0000560 16901.25586 18463.40234
17809.0 0.0000562 16916.04492 18375.08008
17749.0 0.0000563 16930.83008 18285.61133
17715.0 0.0000564 16945.61328 18203.21680
17682.0 0.0000566 16960.39844 18115.93555
17660.0 0.0000566 16975.17969 18020.96680
17657.0 0.0000566 16989.96094 17933.44531
17659.0 0.0000566 17004.73633 17869.11133
17684.0 0.0000565 17019.51172 17835.25391
17729.0 0.0000564 17034.28906 17833.32227
17780.0 0.0000562 17049.06055 17863.90234
17853.0 0.0000560 17063.83008 17926.12109
17961.0 0.0000557 17078.59766 18024.46680
18096.0 0.0000553 17093.36914 18167.50781
18267.0 0.0000547 17108.13086 18372.49219
18494.0 0.0000541 17122.89453 18656.93555
18790.0 0.0000532 17137.65430 19052.28711
19221.0 0.0000520 17152.41016 19586.79102
19790.0 0.0000505 17167.16406 20287.20508
20562.0 0.0000486 17181.91992 21163.24609
21608.0 0.0000463 17196.66602 22189.12891
22914.0 0.0000436 17211.41406 23269.45703
24349.0 0.0000411 17226.15625 24200.11523
25526.0 0.0000392 17240.90234 24700.68555
25813.0 0.0000387 17255.63672 24587.30469
24956.0 0.0000401 17270.37305 23968.72852
23555.0 0.0000425 17285.10547 23137.76563
22278.0 0.0000449 17299.83203 22354.01953
21414.0 0.0000467 17314.55859 21759.09766
20945.0 0.0000477 17329.28125 21397.93945
20771.0 0.0000481 17344.00000 21246.54102
20754.0 0.0000482 17358.71289 21225.32031
20783.0 0.0000481 17373.42773 21237.10352
20837.0 0.0000480 17388.13477 21242.66797
20951.0 0.0000477 17402.83594 21281.28906
21146.0 0.0000473 17417.53711 21377.59766
21394.0 0.0000467 17432.23438 21484.57031
21501.0 0.0000465 17446.93164 21487.31445
21330.0 0.0000469 17461.61523 21279.64453
20893.0 0.0000479 17476.30078 20881.80078
20367.0 0.0000491 17490.98438 20390.02734
19883.0 0.0000503 17505.66016 19905.32813
19491.0 0.0000513 17520.32813 19482.97070
19177.0 0.0000521 17535.00000 19141.34961
18935.0 0.0000528 17549.66016 18880.44141
18755.0 0.0000533 17564.32031 18691.78711
18635.0 0.0000537 17578.97266 18562.89258
18545.0 0.0000539 17593.62109 18480.68164
18516.0 0.0000540 17608.26758 18433.98242
18502.0 0.0000540 17622.90820 18414.68555
18524.0 0.0000540 17637.54102 18417.85742
18568.0 0.0000539 17652.16992 18441.30664
18637.0 0.0000537 17666.79688 18485.08594
18737.0 0.0000534 17681.41992 18551.16211
18863.0 0.0000530 17696.03320 18643.30078
19022.0 0.0000526 17710.64258 18767.07227
19203.0 0.0000521 17725.24609 18930.91602
19428.0 0.0000515 17739.84766 19149.79492
19730.0 0.0000507 17754.43945 19448.77344
20096.0 0.0000498 17769.02734 19852.07617
20525.0 0.0000487 17783.61133 20382.48242
21050.0 0.0000475 17798.18945 21054.49414
21697.0 0.0000461 17812.76172 21840.78906
22427.0 0.0000446 17827.32617 22678.52344
23194.0 0.0000431 17841.88867 23494.51563
24001.0 0.0000417 17856.43945 24236.17969
24706.0 0.0000405 17870.99023 24803.90625
25062.0 0.0000399 17885.53320 24995.03711
24744.0 0.0000404 17900.07031 24648.40820
23877.0 0.0000419 17914.60352 23859.76367
22912.0 0.0000436 17929.12695 22911.59766
22105.0 0.0000452 17943.64453 22051.61914
21523.0 0.0000465 17958.15625 21414.98438
21168.0 0.0000472 17972.66211 21051.02930
20988.0 0.0000476 17987.16016 20951.11719
20965.0 0.0000477 18001.65234 21057.39063
21024.0 0.0000476 18016.13867 21261.09961
21134.0 0.0000473 18030.62109 21429.83594
21258.0 0.0000470 18045.09375 21504.40820
21442.0 0.0000466 18059.56055 21525.35742
21695.0 0.0000461 18074.01953 21520.22266
21878.0 0.0000457 18088.47070 21442.77930
21782.0 0.0000459 18102.91992 21228.46094
21299.0 0.0000470 18117.36133 20878.01367
20683.0 0.0000483 18131.78906 20463.94336
20163.0 0.0000496 18146.21875 20061.95703
19791.0 0.0000505 18160.63477 19715.74023
19535.0 0.0000512 18175.04883 19440.85156
19364.0 0.0000516 18189.45117 19238.56055
19273.0 0.0000519 18203.84766 19103.73828
19234.0 0.0000520 18218.24023 19029.49219
19225.0 0.0000520 18232.62109 19009.57813
19261.0 0.0000519 18246.99805 19038.95703
19308.0 0.0000518 18261.36328 19112.13867
19361.0 0.0000517 18275.72852 19219.37500
19406.0 0.0000515 18290.07813 19343.41797
19434.0 0.0000515 18304.42188 19463.32617
19423.0 0.0000515 18318.76172 19556.95117
19379.0 0.0000516 18333.09375 19597.38281
19326.0 0.0000517 18347.41797 19554.99609
19270.0 0.0000519 18361.73047 19438.61133
19204.0 0.0000521 18376.03906 19289.52734
19143.0 0.0000522 18390.33789 19146.31445
19088.0 0.0000524 18404.63086 19028.42773
19059.0 0.0000525 18418.91211 18941.52539
19028.0 0.0000526 18433.18945 18883.85156
18992.0 0.0000527 18447.45313 18850.29688
18978.0 0.0000527 18461.71680 18835.42773
18957.0 0.0000528 18475.96875 18833.01563
18957.0 0.0000528 18490.21289 18840.26367
18965.0 0.0000527 18504.44727 18854.00000
18976.0 0.0000527 18518.67773 18875.04883
18988.0 0.0000527 18532.89648 18900.99023
19017.0 0.0000526 18547.10352 18934.07813
19031.0 0.0000525 18561.30664 18976.50977
19057.0 0.0000525 18575.50195 19031.53516
19108.0 0.0000523 18589.68945 19103.37109
19165.0 0.0000522 18603.86719 19196.75977
19243.0 0.0000520 18618.03516 19316.69336
19324.0 0.0000517 18632.19727 19466.43164
19425.0 0.0000515 18646.34961 19646.11719
19546.0 0.0000512 18660.49023 19849.73047
19707.0 0.0000507 18674.62500 20058.72266
19891.0 0.0000503 18688.75195 20246.61133
20109.0 0.0000497 18702.86914 20398.00391
20344.0 0.0000492 18716.98047 20532.12500
20623.0 0.0000485 18731.08008 20690.27344
20985.0 0.0000477 18745.17188 20902.75391
21357.0 0.0000468 18759.25586 21168.79492
21665.0 0.0000462 18773.33008 21452.92969
21885.0 0.0000457 18787.39453 21711.37305
22073.0 0.0000453 18801.44727 21950.71875
22301.0 0.0000448 18815.49805 22236.84570
22601.0 0.0000442 18829.53711 22624.99023
22961.0 0.0000436 18843.56836 23097.04102
23312.0 0.0000429 18857.58789 23532.46680
23541.0 0.0000425 18871.59766 23727.37305
23492.0 0.0000426 18885.59961 23534.51563
23103.0 0.0000433 18899.59375 23017.75586
22576.0 0.0000443 18913.58008 22378.25977
22063.0 0.0000453 18927.55469 21787.62695
21653.0 0.0000462 18941.52148 21340.44727
21405.0 0.0000467 18955.47852 21078.96094
21281.0 0.0000470 18969.42773 21017.42188
21264.0 0.0000470 18983.36523 21154.02930
21344.0 0.0000469 18997.29688 21474.16211
21526.0 0.0000465 19011.21484 21948.95313
21801.0 0.0000459 19025.12891 22530.41016
22181.0 0.0000451 19039.02734 23137.46484
22651.0 0.0000441 19052.92188 23653.89453
23183.0 0.0000431 19066.80469 23982.62891
23779.0 0.0000421 19080.68164 24081.07031
24225.0 0.0000413 19094.54297 23915.61914
24133.0 0.0000414 19108.40234 23481.75586
23413.0 0.0000427 19122.24609 22861.89844
22460.0 0.0000445 19136.08203 22193.83203
21636.0 0.0000462 19149.90625 21588.78320
21018.0 0.0000476 19163.72656 21077.76172
20589.0 0.0000486 19177.53516 20677.35547
20293.0 0.0000493 19191.33398 20377.83594
20098.0 0.0000498 19205.12109 20162.23633
19959.0 0.0000501 19218.90625 20006.49219
19861.0 0.0000503 19232.67578 19904.81641
19794.0 0.0000505 19246.43555 19838.30664
19765.0 0.0000506 19260.18555 19796.56055
19738.0 0.0000507 19273.92773 19773.86719
19726.0 0.0000507 19287.66016 19767.35352
19716.0 0.0000507 19301.38281 19776.80664
19720.0 0.0000507 19315.09570 19804.65430
19733.0 0.0000507 19328.79883 19853.51172
19755.0 0.0000506 19342.49609 19925.94922
19784.0 0.0000505 19356.17773 20025.18164
19828.0 0.0000504 19369.85352 20150.75000
19896.0 0.0000503 19383.51758 20296.17773
19991.0 0.0000500 19397.17383 20444.31641
20081.0 0.0000498 19410.82031 20563.45898
20159.0 0.0000496 19424.45703 20613.50977
20208.0 0.0000495 19438.08789 20584.34961
20231.0 0.0000494 19451.70313 20495.09375
20227.0 0.0000494 19465.31055 20383.29492
20199.0 0.0000495 19478.90820 20275.91016
20171.0 0.0000496 19492.49609 20183.23438
20167.0 0.0000496 19506.07617 20105.35352
20154.0 0.0000496 19519.64648 20041.29492
20148.0 0.0000496 19533.20508 19993.29297
20145.0 0.0000496 19546.75391 19964.47070
20149.0 0.0000496 19560.29688 19956.81641
20174.0 0.0000496 19573.82617 19971.50391
20225.0 0.0000494 19587.34375 20009.38477
20256.0 0.0000494 19600.85742 20070.50781
20314.0 0.0000492 19614.36133 20152.87305
20401.0 0.0000490 19627.85352 20250.35742
20493.0 0.0000488 19641.33203 20349.36523
20549.0 0.0000487 19654.80664 20426.95508
20582.0 0.0000486 19668.27148 20459.10547
20577.0 0.0000486 19681.72461 20439.93164
20539.0 0.0000487 19695.16797 20387.00000
20515.0 0.0000487 19708.60352 20323.46289
20479.0 0.0000488 19722.02930 20262.92773
20434.0 0.0000489 19735.44336 20209.02539
20373.0 0.0000491 19748.85156 20161.72266
20327.0 0.0000492 19762.24414 20122.05078
20289.0 0.0000493 19775.63477 20091.84570
20253.0 0.0000494 19789.01367 20071.68750
20231.0 0.0000494 19802.37891 20060.76563
20202.0 0.0000495 19815.73438 20057.80859
20191.0 0.0000495 19829.08594 20061.51953
20195.0 0.0000495 19842.42578 20071.08398
20212.0 0.0000495 19855.75781 20085.51758
20232.0 0.0000494 19869.07227 20104.96484
20256.0 0.0000494 19882.38281 20130.15430
20300.0 0.0000493 19895.68750 20163.01367
20358.0 0.0000491 19908.97852 20207.05664
20437.0 0.0000489 19922.26172 20267.84961
20523.0 0.0000487 19935.53516 20352.89063
20621.0 0.0000485 19948.79688 20470.62891
20750.0 0.0000482 19962.05078 20629.01367
20905.0 0.0000478 19975.29492 20828.92383
21101.0 0.0000474 19988.52930 21063.18945
21317.0 0.0000469 20001.75586 21306.36133
21506.0 0.0000465 20014.97070 21505.65234
21668.0 0.0000462 20028.17969 21621.35547
21753.0 0.0000460 20041.37695 21615.16992
21720.0 0.0000460 20054.56445 21504.00586
21609.0 0.0000463 20067.74414 21336.00977
21468.0 0.0000466 20080.91406 21161.93164
21333.0 0.0000469 20094.07227 21014.52539
21208.0 0.0000472 20107.22461 20910.93164
21104.0 0.0000474 20120.36719 20859.77148
21044.0 0.0000475 20133.50000 20863.28125
21035.0 0.0000475 20146.62695 20918.67188
21064.0 0.0000475 20159.73828 21016.06836
21123.0 0.0000473 20172.84570 21140.64258
21202.0 0.0000472 20185.93945 21265.64844
21265.0 0.0000470 20199.02344 21359.93164
21310.0 0.0000469 20212.10156 21405.50781
21338.0 0.0000469 20225.17578 21411.59961
21376.0 0.0000468 20238.23633 21394.73047
21410.0 0.0000467 20251.28516 21363.36914
21366.0 0.0000468 20264.32617 21322.02539
21301.0 0.0000469 20277.35742 21284.15820
21245.0 0.0000471 20290.38477 21270.04492
21209.0 0.0000471 20303.39648 21297.96680
21217.0 0.0000471 20316.40039 21380.19727
21266.0 0.0000470 20329.39844 21523.40039
21363.0 0.0000468 20342.38867 21728.17188
21518.0 0.0000465 20355.36719 21986.14258
21725.0 0.0000460 20368.33789 22273.76953
21996.0 0.0000455 20381.30078 22543.86133
22282.0 0.0000449 20394.25195 22726.46484
22488.0 0.0000445 20407.19141 22761.48242
22550.0 0.0000443 20420.13086 22648.04297
22473.0 0.0000445 20433.05664 22445.09375
22372.0 0.0000447 20445.97266 22222.66406
22312.0 0.0000448 20458.88477 22028.69336
22337.0 0.0000448 20471.78711 21888.30664
22444.0 0.0000446 20484.67578 21813.58398
22618.0 0.0000442 20497.55859 21811.26563
22872.0 0.0000437 20510.43359 21889.33789
23193.0 0.0000431 20523.29492 22061.30273
23593.0 0.0000424 20536.15625 22349.51172
24061.0 0.0000416 20549.00195 22785.72852
24638.0 0.0000406 20561.84375 23407.73828
25311.0 0.0000395 20574.67773 24250.52344
26094.0 0.0000383 20587.50000 25329.91602
27031.0 0.0000370 20600.31445 26618.81250
28144.0 0.0000355 20613.12109 28024.83398
29367.0 0.00003405 20625.91602 29389.10352
30467.0 0.00003282 20638.70508 30494.61523
30979.0 0.00003228 20651.49023 31065.66797
30665.0 0.00003261 20664.26172 30865.57422
29774.0 0.00003359 20677.02539 29921.16211
28664.0 0.00003489 20689.78516 28546.29492
27565.0 0.0000363 20702.53320 27095.41211
26581.0 0.0000376 20715.26953 25800.00586
25755.0 0.0000388 20728.00000 24767.71875
25061.0 0.0000399 20740.72461 24027.50781
24500.0 0.0000408 20753.44141 23562.48828
24068.0 0.0000415 20766.14648 23329.08008
23719.0 0.0000422 20778.84766 23265.75391
23447.0 0.0000426 20791.53711 23295.54102
23219.0 0.0000431 20804.21875 23328.04883
22995.0 0.0000435 20816.89453 23280.51367
22760.0 0.0000439 20829.56055 23116.08203
22562.0 0.0000443 20842.21875 22860.96094
22390.0 0.0000447 20854.87109 22564.97852
22227.0 0.0000450 20867.51563 22280.71875
22087.0 0.0000453 20880.14648 22036.81250
21978.0 0.0000455 20892.77539 21843.94531
21883.0 0.0000457 20905.39453 21702.00781
21825.0 0.0000458 20918.00586 21599.63281
21801.0 0.0000459 20930.60938 21542.59180
21772.0 0.0000459 20943.20508 21518.59570
21753.0 0.0000460 20955.79102 21523.39844
21767.0 0.0000459 20968.37305 21553.41211
21808.0 0.0000459 20980.94531 21604.74414
21859.0 0.0000457 20993.50977 21671.02930
21924.0 0.0000456 21006.06836 21741.58008
21977.0 0.0000455 21018.61523 21803.37500
22017.0 0.0000454 21031.15820 21847.85938
22045.0 0.0000454 21043.68945 21871.07617
22070.0 0.0000453 21056.21680 21867.10742
22049.0 0.0000454 21068.73438 21831.05664
21970.0 0.0000455 21081.24609 21768.71484
21868.0 0.0000457 21093.75000 21695.00586
21756.0 0.0000460 21106.24609 21623.91016
21674.0 0.0000461 21118.73242 21563.56445
21605.0 0.0000463 21131.21484 21516.49805
21548.0 0.0000464 21143.68750 21482.94727
21514.0 0.0000465 21156.15234 21461.38672
21503.0 0.0000465 21168.61133 21449.92578
21493.0 0.0000465 21181.05859 21446.56055
21491.0 0.0000465 21193.50586 21449.50391
21494.0 0.0000465 21205.93945 21457.40234
21495.0 0.0000465 21218.36719 21469.34961
21511.0 0.0000465 21230.79102 21484.91602
21526.0 0.0000465 21243.20313 21504.03125
21560.0 0.0000464 21255.60742 21527.12891
21598.0 0.0000463 21268.00586 21555.07813
21640.0 0.0000462 21280.39844 21589.46289
21693.0 0.0000461 21292.78320 21632.73047
21756.0 0.0000460 21305.16016 21688.48828
21846.0 0.0000458 21317.52930 21761.74219
21963.0 0.0000455 21329.88867 21859.05859
22100.0 0.0000452 21342.24609 21988.68945
22263.0 0.0000449 21354.58789 22160.41992
22455.0 0.0000445 21366.93164 22384.67188
22679.0 0.0000441 21379.26367 22671.58203
22958.0 0.0000436 21391.58984 23016.83398
23289.0 0.0000429 21403.90820 23408.55078
23667.0 0.0000423 21416.21680 23822.80078
24070.0 0.0000415 21428.51953 24236.05859
24493.0 0.0000408 21440.81445 24615.51758
24859.0 0.0000402 21453.10352 24887.30859
25021.0 0.0000400 21465.38477 24943.38672
24827.0 0.0000403 21477.65820 24731.93750
24366.0 0.0000410 21489.92578 24325.81641
23859.0 0.0000419 21502.18750 23859.50391
23448.0 0.0000426 21514.43750 23438.73828
23142.0 0.0000432 21526.68359 23120.56836
22926.0 0.0000436 21538.91992 22923.33008
22774.0 0.0000439 21551.14844 22841.47266
22693.0 0.0000441 21563.36914 22849.68945
22664.0 0.0000441 21575.59180 22908.07617
22641.0 0.0000442 21587.79883 22962.27344
22586.0 0.0000443 21599.99609 22959.52930
22515.0 0.0000444 21612.19141 22877.34180
22447.0 0.0000445 21624.37695 22735.20898
22371.0 0.0000447 21636.55469 22571.32031
22301.0 0.0000448 21648.72656 22416.16016
22235.0 0.0000450 21660.89063 22285.92383
22189.0 0.0000451 21673.04492 22186.32617
22139.0 0.0000452 21685.19727 22118.24805
22112.0 0.0000452 21697.33984 22073.78125
22098.0 0.0000453 21709.47070 22049.56445
22095.0 0.0000453 21721.59766 22040.52539
22104.0 0.0000452 21733.71484 22043.26563
22105.0 0.0000452 21745.82617 22055.89648
22107.0 0.0000452 21757.93164 22078.30078
22125.0 0.0000452 21770.02734 22111.94922
22153.0 0.0000451 21782.11523 22159.76172
22179.0 0.0000451 21794.19922 22226.09766
22234.0 0.0000450 21806.27148 22315.03320
22290.0 0.0000449 21818.33594 22431.13867
22337.0 0.0000448 21830.39453 22577.30078
22395.0 0.0000447 21842.44336 22752.00781
22489.0 0.0000445 21854.48438 22947.67188
22604.0 0.0000442 21866.51758 23145.36523
22736.0 0.0000440 21878.54492 23313.82227
22862.0 0.0000437 21890.56250 23421.91602
22994.0 0.0000435 21902.57422 23461.00391
23142.0 0.0000432 21914.57617 23449.93359
23327.0 0.0000429 21926.57227 23412.84766
23516.0 0.0000425 21938.55664 23358.10156
23568.0 0.0000424 21950.53711 23279.02930
23418.0 0.0000427 21962.50195 23171.35742
23187.0 0.0000431 21974.47070 23044.21094
22956.0 0.0000436 21986.42383 22916.00977
22776.0 0.0000439 21998.36914 22798.16797
22638.0 0.0000442 22010.30664 22696.82813
22542.0 0.0000444 22022.23047 22615.03320
22474.0 0.0000445 22034.15039 22553.93164
22436.0 0.0000446 22046.06445 22513.21289
22409.0 0.0000446 22057.96484 22489.84961
22403.0 0.0000446 22069.85938 22482.13477
22416.0 0.0000446 22081.74805 22488.79883
22459.0 0.0000445 22093.62305 22510.45117
22512.0 0.0000444 22105.49219 22550.73438
22592.0 0.0000443 22117.34961 22606.16992
22720.0 0.0000440 22129.19922 22709.09766
22871.0 0.0000437 22141.04102 22864.85352
23053.0 0.0000434 22152.86914 23089.40625
23272.0 0.0000430 22164.69336 23393.37109
23574.0 0.0000424 22176.50781 23775.13086
24007.0 0.0000417 22188.31250 24221.33203
24595.0 0.0000407 22200.10742 24696.27539
25271.0 0.0000396 22211.88672 25130.82617
25790.0 0.0000388 22223.66797 25422.88477
25829.0 0.0000387 22235.42969 25481.48828
25390.0 0.0000394 22247.18555 25299.18945
24849.0 0.0000402 22258.93164 24960.93945
24432.0 0.0000409 22270.66602 24576.87695
24148.0 0.0000414 22282.39258 24229.03516
23985.0 0.0000417 22294.10938 23963.68945
23909.0 0.0000418 22305.81445 23801.02148
23906.0 0.0000418 22317.50781 23742.00195
23923.0 0.0000418 22329.19141 23768.89453
23952.0 0.0000418 22340.86523 23840.59961
23977.0 0.0000417 22352.52734 23904.33594
23937.0 0.0000418 22364.18359 23905.81055
23773.0 0.0000421 22375.82422 23827.60352
23558.0 0.0000424 22387.45313 23689.76953
23366.0 0.0000428 22399.07227 23529.23047
23206.0 0.0000431 22410.67773 23376.58789
23088.0 0.0000433 22422.27734 23249.42969
23002.0 0.0000435 22433.85938 23154.68750
22955.0 0.0000436 22445.43555 23091.93164
22938.0 0.0000436 22456.99609 23053.99609
22924.0 0.0000436 22468.54492 23029.40039
22910.0 0.0000436 22480.08594 23004.59570
22888.0 0.0000437 22491.60742 22971.17188
22861.0 0.0000437 22503.12109 22930.24805
22843.0 0.0000438 22514.61914 22888.28906
22818.0 0.0000438 22526.10938 22851.54102
22808.0 0.0000438 22537.58203 22821.32031
22791.0 0.0000439 22549.04688 22799.38672
22781.0 0.0000439 22560.49609 22785.38672
22783.0 0.0000439 22571.93164 22778.22852
22776.0 0.0000439 22583.35156 22776.53711
22772.0 0.0000439 22594.76563 22779.10547
22774.0 0.0000439 22606.15430 22784.67969
22781.0 0.0000439 22617.53906 22792.62305
22783.0 0.0000439 22628.90625 22802.93945
22793.0 0.0000439 22640.26172 22814.42383
22813.0 0.0000438 22651.59961 22827.47461
22834.0 0.0000438 22662.92578 22842.17578
22870.0 0.0000437 22674.23633 22858.78320
22883.0 0.0000437 22685.52930 22877.77148
22904.0 0.0000437 22696.80664 22900.00586
22918.0 0.0000436 22708.07031 22925.65820
22949.0 0.0000436 22719.32031 22959.03516
22983.0 0.0000435 22730.55469 23001.71484
23030.0 0.0000434 22741.76953 23056.78906
23102.0 0.0000433 22752.97266 23126.90625
23181.0 0.0000431 22764.15820 23216.17188
23282.0 0.0000430 22775.32617 23324.66016
23400.0 0.0000427 22786.47656 23449.61328
23543.0 0.0000425 22797.61133 23580.58594
23661.0 0.0000423 22808.72852 23707.35156
23758.0 0.0000421 22819.83008 23813.97461
23762.0 0.0000421 22830.91406 23894.79883
23697.0 0.0000422 22841.97852 23951.02539
23631.0 0.0000423 22853.02344 23978.90430
23589.0 0.0000424 22864.05273 23972.99805
23572.0 0.0000424 22875.06250 23940.06250
23585.0 0.0000424 22886.05273 23903.30664
23612.0 0.0000424 22897.02734 23890.70703
23658.0 0.0000423 22907.97852 23925.32617
23754.0 0.0000421 22918.91016 24023.93359
23881.0 0.0000419 22929.82617 24197.71094
24067.0 0.0000416 22940.71680 24451.90039
24347.0 0.0000411 22951.59180 24783.07227
24728.0 0.0000404 22962.44336 25174.31641
25240.0 0.0000396 22973.27539 25587.34570
25854.0 0.0000387 22984.08594 25954.13477
26403.0 0.0000379 22994.87695 26183.31445
26687.0 0.0000375 23005.64453 26201.05664
26580.0 0.0000376 23016.38867 26004.34961
26141.0 0.0000383 23027.11133 25663.66992
25604.0 0.0000391 23037.81445 25267.41992
25112.0 0.0000398 23048.49414 24885.74609
24714.0 0.0000405 23059.14648 24557.66016
24429.0 0.0000409 23069.77930 24299.09766
24229.0 0.0000413 23080.38477 24111.33984
24097.0 0.0000415 23090.96875 23985.93750
24019.0 0.0000416 23101.53125 23909.63281
23964.0 0.0000417 23112.06445 23860.03711
23924.0 0.0000418 23122.57422 23819.66406
23895.0 0.0000418 23133.05859 23776.26367
23864.0 0.0000419 23143.51758 23728.37695
23825.0 0.0000420 23153.94727 23681.53125
23803.0 0.0000420 23164.35547 23641.85156
23806.0 0.0000420 23174.73047 23613.27344
23792.0 0.0000420 23185.08203 23597.71289
23785.0 0.0000420 23195.40625 23595.50195
23798.0 0.0000420 23205.70313 23605.70703
23832.0 0.0000420 23215.97461 23626.17188
23863.0 0.0000419 23226.21094 23653.68359
23917.0 0.0000418 23236.42578 23682.39648
23961.0 0.0000417 23246.60547 23706.48633
23989.0 0.0000417 23256.75781 23721.58789
24001.0 0.0000417 23266.87891 23728.96680
24017.0 0.0000416 23276.97461 23735.48047
24040.0 0.0000416 23287.03320 23749.72656
24076.0 0.0000415 23297.06250 23779.02930
24123.0 0.0000415 23307.05859 23827.69531
24173.0 0.0000414 23317.02539 23894.76367
24228.0 0.0000413 23326.95898 23972.39063
24293.0 0.0000412 23336.85547 24047.45117
24360.0 0.0000411 23346.72070 24107.19336
24433.0 0.0000409 23356.55859 24146.49023
24503.0 0.0000408 23366.35742 24169.90820
24578.0 0.0000407 23376.11914 24185.96484
24643.0 0.0000406 23385.84961 24201.53906
24705.0 0.0000405 23395.54102 24220.71680
24779.0 0.0000404 23405.20117 24246.89063
24832.0 0.0000403 23414.82227 24284.85742
24874.0 0.0000402 23424.40625 24343.08008
24918.0 0.0000401 23433.95117 24426.12695
24965.0 0.0000401 23443.45898 24542.46875
24995.0 0.0000400 23452.92969 24698.17383
25060.0 0.0000399 23462.36133 24898.85352
25148.0 0.0000398 23471.75000 25149.18555
25269.0 0.0000396 23481.10156 25454.07227
25413.0 0.0000393 23490.41602 25810.26563
25602.0 0.0000391 23499.68359 26205.58594
25824.0 0.0000387 23508.91406 26612.60742
26138.0 0.0000383 23518.10156 26992.81250
26523.0 0.0000377 23527.24609 27304.93164
27005.0 0.0000370 23536.34766 27515.00977
27483.0 0.0000364 23545.40625 27590.14258
27707.0 0.0000361 23554.41797 27493.32031
27503.0 0.0000364 23563.39063 27210.86914
26979.0 0.0000371 23572.31250 26786.20508
26432.0 0.0000378 23581.19141 26300.66797
25967.0 0.0000385 23590.02344 25826.52539
25600.0 0.0000391 23598.80859 25407.47266
25323.0 0.0000395 23607.54492 25062.41992
25104.0 0.0000398 23616.23242 24796.13281
24926.0 0.0000401 23624.87695 24598.13477
24802.0 0.0000403 23633.46875 24458.62500
24713.0 0.0000405 23642.00977 24364.87305
24634.0 0.0000406 23650.49805 24305.59375
24590.0 0.0000407 23658.93945 24272.40039
24551.0 0.0000407 23667.32813 24260.00977
24527.0 0.0000408 23675.66406 24265.99219
24507.0 0.0000408 23683.94727 24290.07227
24513.0 0.0000408 23692.17578 24333.23242
24532.0 0.0000408 23700.35156 24397.14648
24543.0 0.0000407 23708.46875 24482.96289
24575.0 0.0000407 23716.53125 24590.39844
24620.0 0.0000406 23724.53906 24716.63477
24656.0 0.0000406 23732.49219 24855.64844
24709.0 0.0000405 23740.38477 24998.00586
24763.0 0.0000404 23748.21875 25133.61523
24817.0 0.0000403 23755.99609 25251.31836
24858.0 0.0000402 23763.71289 25341.41992
24889.0 0.0000402 23771.36719 25398.22266
24917.0 0.0000401 23778.96484 25429.42188
24972.0 0.0000400 23786.49219 25441.67383
25022.0 0.0000400 23793.96289 25446.55273
25100.0 0.0000398 23801.36914 25454.05664
25179.0 0.0000397 23808.70898 25469.02734
25269.0 0.0000396 23815.99219 25489.03125
25337.0 0.0000395 23823.20117 25506.54883
25386.0 0.0000394 23830.34570 25513.89844
25405.0 0.0000394 23837.42188 25505.16406
25427.0 0.0000393 23844.43555 25479.44922
25446.0 0.0000393 23851.37695 25433.24023
25465.0 0.0000393 23858.24609 25369.23438
25510.0 0.0000392 23865.04883 25294.91406
25555.0 0.0000391 23871.77734 25226.85938
25582.0 0.0000391 23878.43750 25180.78125
25591.0 0.0000391 23885.02344 25169.18750
25625.0 0.0000390 23891.53711 25198.55664
25670.0 0.0000390 23897.97266 25272.30469
25733.0 0.0000389 23904.33594 25389.13672
25821.0 0.0000387 23910.61914 25542.65430
25908.0 0.0000386 23916.83203 25719.25391
26013.0 0.0000384 23922.95898 25895.45117
26107.0 0.0000383 23929.01172 26038.89063
26141.0 0.0000383 23934.98633 26120.72852
26151.0 0.0000382 23940.87695 26125.10156
26143.0 0.0000383 23946.68359 26070.46875
26108.0 0.0000383 23952.41406 25992.89063
26069.0 0.0000384 23958.06055 25927.49414
26027.0 0.0000384 23963.61914 25901.40625
26025.0 0.0000384 23969.09375 25925.99023
26090.0 0.0000383 23974.48242 25996.33594
26241.0 0.0000381 23979.78516 26090.32422
26447.0 0.0000378 23984.99609 26170.15234
26608.0 0.0000376 23990.12305 26195.56055
26556.0 0.0000377 23995.15430 26150.67383
26263.0 0.0000381 24000.09766 26057.02344
25920.0 0.0000386 24004.95117 25953.24023
25619.0 0.0000390 24009.71094 25868.98828
25405.0 0.0000394 24014.37500 25815.41797
25261.0 0.0000396 24018.94531 25786.06250
25161.0 0.0000397 24023.41797 25760.91406
25088.0 0.0000399 24027.79297 25714.68750
25023.0 0.0000400 24032.07031 25629.75195
24977.0 0.0000400 24036.25195 25505.57617
24941.0 0.0000401 24040.32422 25356.28516
24902.0 0.0000402 24044.30273 25200.07617
24858.0 0.0000402 24048.17969 25051.15820
24827.0 0.0000403 24051.94922 24917.91406
24795.0 0.0000403 24055.61719 24804.05664
24770.0 0.0000404 24059.17578 24710.37305
24760.0 0.0000404 24062.63086 24635.89453
24741.0 0.0000404 24065.97656 24578.72852
24731.0 0.0000404 24069.21289 24536.63867
24732.0 0.0000404 24072.33789 24507.33398
24738.0 0.0000404 24075.35156 24488.89844
24739.0 0.0000404 24078.25391 24479.82422
24740.0 0.0000404 24081.04297 24479.19141
24762.0 0.0000404 24083.71484 24486.55664
24762.0 0.0000404 24086.27344 24501.95898
24768.0 . . .
24777.0 . . .
24802.0 . . .
24839.0 . . .
24857.0 . . .
24893.0 . . .
24942.0 . . .
24983.0 . . .
25043.0 . . .
25106.0 . . .
25166.0 . . .
25234.0 . . .
25314.0 . . .
25410.0 . . .
25480.0 . . .
25504.0 . . .
25503.0 . . .
25505.0 . . .
25509.0 . . .
25497.0 . . .
25491.0 . . .
25480.0 . . .
25466.0 . . .
25456.0 . . .
25445.0 . . .
25447.0 . . .
25459.0 . . .
25470.0 . . .
25498.0 . . .
25551.0 . . .
25599.0 . . .
25671.0 . . .
25746.0 . . .
25840.0 . . .
25935.0 . . .
26037.0 . . .
26159.0 . . .
26283.0 . . .
26360.0 . . .
26385.0 . . .
26357.0 . . .
26309.0 . . .
26243.0 . . .
26185.0 . . .
26132.0 . . .
26085.0 . . .
26088.0 . . .
26098.0 . . .
26117.0 . . .
26139.0 . . .
26196.0 . . .
26260.0 . . .
26348.0 . . .
26453.0 . . .
26614.0 . . .
26824.0 . . .
27054.0 . . .
27244.0 . . .
27367.0 . . .
27374.0 . . .
27278.0 . . .
27153.0 . . .
26995.0 . . .
26843.0 . . .
26711.0 . . .
26589.0 . . .
26472.0 . . .
26395.0 . . .
26343.0 . . .
26298.0 . . .
26284.0 . . .
26280.0 . . .
26297.0 . . .
26343.0 . . .
26401.0 . . .
26493.0 . . .
26616.0 . . .
26716.0 . . .
26690.0 . . .
26536.0 . . .
26337.0 . . .
26176.0 . . .
26050.0 . . .
25957.0 . . .
25873.0 . . .
25793.0 . . .
25703.0 . . .
25600.0 . . .
25473.0 . . .
25351.0 . . .
25468.0 . . .
25572.0 . . .
25638.0 . . .
25686.0 . . .
25733.0 . . .
25787.0 . . .
25856.0 . . .
25921.0 . . .
25983.0 . . .
26035.0 . . .
26071.0 . . .
26118.0 . . .
26150.0 . . .
26182.0 . . .
26217.0 . . .
26254.0 . . .
26300.0 . . .
26356.0 . . .
26394.0 . . .
26444.0 . . .
26498.0 . . .
26548.0 . . .
26614.0 . . .
26683.0 . . .
26769.0 . . .
26850.0 . . .
27003.0 . . .
27147.0 . . .
27277.0 . . .
27400.0 . . .
27475.0 . . .
27482.0 . . .
27458.0 . . .
27387.0 . . .
27300.0 . . .
27204.0 . . .
27122.0 . . .
27038.0 . . .
26974.0 . . .
26928.0 . . .
26894.0 . . .
26857.0 . . .
26828.0 . . .
26814.0 . . .
26802.0 . . .
26773.0 . . .
26737.0 . . .
26715.0 . . .
26687.0 . . .
26655.0 . . .
26626.0 . . .
26654.0 . . .
26688.0 . . .
26744.0 . . .
26801.0 . . .
26838.0 . . .
26848.0 . . .
26864.0 . . .
26891.0 . . .
26949.0 . . .
27025.0 . . .
27145.0 . . .
27289.0 . . .
27463.0 . . .
27688.0 . . .
27964.0 . . .
28329.0 . . .
28790.0 . . .
29348.0 . . .
29989.0 . . .
30584.0 . . .
30911.0 . . .
30809.0 . . .
30410.0 . . .
29867.0 . . .
29335.0 . . .
28896.0 . . .
28611.0 . . .
28438.0 . . .
28351.0 . . .
28289.0 . . .
28158.0 . . .
27932.0 . . .
27684.0 . . .
27472.0 . . .
27297.0 . . .
27175.0 . . .
27097.0 . . .
27035.0 . . .
26981.0 . . .
26932.0 . . .
26889.0 . . .
26830.0 . . .
26791.0 . . .
26758.0 . . .
26728.0 . . .
26718.0 . . .
26709.0 . . .
26718.0 . . .
26731.0 . . .
26752.0 . . .
26790.0 . . .
26836.0 . . .
26894.0 . . .
26937.0 . . .
26972.0 . . .
27020.0 . . .
27055.0 . . .
27090.0 . . .
27111.0 . . .
27144.0 . . .
27204.0 . . .
27245.0 . . .
27283.0 . . .
27344.0 . . .
27397.0 . . .
27445.0 . . .
27496.0 . . .
27560.0 . . .
27621.0 . . .
27699.0 . . .
27821.0 . . .
27969.0 . . .
28146.0 . . .
28344.0 . . .
28552.0 . . .
28741.0 . . .
28821.0 . . .
28776.0 . . .
28643.0 . . .
28450.0 . . .
28274.0 . . .
28071.0 . . .
27877.0 . . .
27703.0 . . .
27587.0 . . .
27519.0 . . .
27449.0 . . .
27336.0 . . .
27212.0 . . .
27099.0 . . .
27004.0 . . .
26943.0 . . .
26890.0 . . .
26836.0 . . .
26796.0 . . .
26764.0 . . .
26726.0 . . .
26723.0 . . .
26721.0 . . .
26677.0 . . .
26651.0 . . .
26653.0 . . .
26662.0 . . .
26678.0 . . .
26705.0 . . .
26726.0 . . .
26753.0 . . .
26785.0 . . .
26799.0 . . .
26826.0 . . .
26862.0 . . .
26890.0 . . .
26922.0 . . .
26963.0 . . .
26995.0 . . .
27052.0 . . .
27123.0 . . .
27224.0 . . .
27329.0 . . .
27458.0 . . .
27595.0 . . .
27728.0 . . .
27814.0 . . .
27846.0 . . .
27833.0 . . .
27832.0 . . .
27849.0 . . .
27849.0 . . .
27781.0 . . .
27663.0 . . .
27545.0 . . .
27468.0 . . .
27416.0 . . .
27383.0 . . .
27359.0 . . .
27359.0 . . .
27358.0 . . .
27354.0 . . .
27373.0 . . .
27387.0 . . .
27401.0 . . .
27423.0 . . .
27455.0 . . .
27482.0 . . .
27506.0 . . .
27541.0 . . .
27536.0 . . .
27551.0 . . .
27544.0 . . .
27539.0 . . .
27542.0 . . .
27530.0 . . .
27524.0 . . .
27548.0 . . .
27591.0 . . .
27642.0 . . .
27694.0 . . .
27717.0 . . .
27724.0 . . .
27741.0 . . .
27731.0 . . .
27738.0 . . .
27729.0 . . .
27721.0 . . .
27715.0 . . .
27695.0 . . .
27676.0 . . .
27646.0 . . .
27609.0 . . .
27571.0 . . .
27532.0 . . .
27500.0 . . .
27476.0 . . .
27454.0 . . .
27423.0 . . .
27392.0 . . .
27365.0 . . .
27339.0 . . .
27348.0 . . .
27349.0 . . .
27329.0 . . .
27311.0 . . .
27305.0 . . .
27312.0 . . .
27303.0 . . .
27303.0 . . .
27314.0 . . .
27319.0 . . .
27347.0 . . .
27387.0 . . .
27417.0 . . .
27445.0 . . .
27484.0 . . .
27547.0 . . .
27623.0 . . .
27685.0 . . .
27759.0 . . .
27827.0 . . .
27861.0 . . .
27870.0 . . .
27919.0 . . .
27915.0 . . .
27911.0 . . .
27915.0 . . .
27905.0 . . .
27902.0 . . .
27923.0 . . .
27937.0 . . .
27949.0 . . .
27966.0 . . .
27981.0 . . .
27996.0 . . .
28010.0 . . .
28047.0 . . .
28084.0 . . .
28141.0 . . .
28209.0 . . .
28263.0 . . .
28343.0 . . .
28442.0 . . .
28531.0 . . .
28633.0 . . .
28739.0 . . .
28804.0 . . .
28841.0 . . .
28832.0 . . .
28802.0 . . .
28740.0 . . .
28649.0 . . .
28534.0 . . .
28431.0 . . .
28346.0 . . .
28265.0 . . .
28225.0 . . .
28192.0 . . .
28173.0 . . .
28162.0 . . .
28153.0 . . .
28161.0 . . .
28171.0 . . .
28163.0 . . .
28174.0 . . .
28188.0 . . .
28226.0 . . .
28264.0 . . .
28300.0 . . .
28380.0 . . .
28460.0 . . .
28592.0 . . .
28680.0 . . .
28721.0 . . .
28729.0 . . .
28716.0 . . .
28648.0 . . .
28576.0 . . .
28505.0 . . .
28421.0 . . .
28333.0 . . .
28231.0 . . .
28133.0 . . .
28047.0 . . .
27982.0 . . .
27930.0 . . .
27871.0 . . .
27823.0 . . .
27768.0 . . .
27763.0 . . .
27766.0 . . .
27773.0 . . .
27753.0 . . .
27748.0 . . .
27694.0 . . .
27660.0 . . .
27629.0 . . .
27606.0 . . .
27590.0 . . .
27592.0 . . .
27589.0 . . .
27574.0 . . .
27546.0 . . .
27539.0 . . .
27549.0 . . .
27547.0 . . .
27544.0 . . .
27568.0 . . .
27581.0 . . .
27580.0 . . .
27588.0 . . .
27588.0 . . .
27572.0 . . .
27548.0 . . .
27539.0 . . .
27552.0 . . .
27531.0 . . .
27518.0 . . .
27513.0 . . .
27518.0 . . .
27519.0 . . .
27507.0 . . .
27526.0 . . .
27524.0 . . .
27519.0 . . .
27511.0 . . .
27504.0 . . .
27487.0 . . .
27479.0 . . .
27504.0 . . .
27511.0 . . .
27509.0 . . .
27525.0 . . .
27530.0 . . .
27528.0 . . .
27517.0 . . .
27537.0 . . .
27551.0 . . .
27590.0 . . .
27637.0 . . .
27667.0 . . .
27689.0 . . .
27759.0 . . .
27815.0 . . .
27893.0 . . .
27974.0 . . .
28062.0 . . .
28187.0 . . .
28309.0 . . .
28410.0 . . .
28519.0 . . .
28581.0 . . .
28584.0 . . .
28583.0 . . .
28553.0 . . .
28490.0 . . .
28469.0 . . .
28440.0 . . .
28397.0 . . .
28342.0 . . .
28315.0 . . .
28291.0 . . .
28256.0 . . .
28204.0 . . .
28181.0 . . .
28157.0 . . .
28156.0 . . .
28153.0 . . .
28159.0 . . .
28196.0 . . .
28198.0 . . .
28223.0 . . .
28202.0 . . .
28183.0 . . .
28162.0 . . .
28126.0 . . .
28083.0 . . .
28033.0 . . .
28035.0 . . .
28004.0 . . .
27970.0 . . .
27947.0 . . .
27959.0 . . .
27974.0 . . .
27999.0 . . .
28034.0 . . .
28042.0 . . .
28087.0 . . .
28125.0 . . .
28169.0 . . .
28239.0 . . .
28315.0 . . .
28373.0 . . .
28423.0 . . .
28471.0 . . .
28514.0 . . .
28473.0 . . .
28439.0 . . .
28381.0 . . .
28327.0 . . .
28329.0 . . .
28333.0 . . .
28346.0 . . .
28383.0 . . .
28384.0 . . .
28378.0 . . .
28309.0 . . .
28260.0 . . .
28229.0 . . .
28217.0 . . .
28196.0 . . .
28186.0 . . .
28147.0 . . .
28136.0 . . .
28168.0 . . .
28179.0 . . .
28176.0 . . .
28186.0 . . .
28193.0 . . .
28211.0 . . .
28230.0 . . .
28269.0 . . .
28304.0 . . .
28346.0 . . .
28342.0 . . .
28350.0 . . .
28304.0 . . .
28287.0 . . .
28285.0 . . .
28328.0 . . .
28358.0 . . .
28448.0 . . .
28553.0 . . .
28666.0 . . .
28778.0 . . .
28918.0 . . .
29010.0 . . .
29046.0 . . .
29024.0 . . .
28934.0 . . .
28817.0 . . .
28713.0 . . .
28646.0 . . .
28564.0 . . .
28499.0 . . .
28394.0 . . .
28279.0 . . .
28170.0 . . .
28112.0 . . .
28053.0 . . .
27988.0 . . .
27930.0 . . .
27911.0 . . .
27848.0 . . .
27823.0 . . .
27811.0 . . .
27817.0 . . .
27813.0 . . .
27824.0 . . .
27826.0 . . .
27784.0 . . .
27785.0 . . .
27784.0 . . .
27741.0 . . .
27735.0 . . .
27762.0 . . .
27749.0 . . .
27729.0 . . .
27723.0 . . .
27721.0 . . .
27717.0 . . .
27731.0 . . .
27738.0 . . .
27722.0 . . .
27768.0 . . .
27797.0 . . .
27794.0 . . .
27822.0 . . .
27814.0 . . .
27867.0 . . .
27930.0 . . .
28004.0 . . .
28038.0 . . .
28057.0 . . .
28065.0 . . .
28026.0 . . .
28007.0 . . .
27980.0 . . .
27959.0 . . .
27914.0 . . .
27932.0 . . .
27898.0 . . .
27795.0 . . .
27821.0 . . .
27844.0 . . .
27875.0 . . .
27892.0 . . .
27961.0 . . .
28024.0 . . .
28040.0 . . .
28058.0 . . .
28034.0 . . .
28085.0 . . .
28128.0 . . .
28182.0 . . .
28215.0 . . .
28224.0 . . .
28249.0 . . .
28223.0 . . .
28263.0 . . .
28313.0 . . .
28320.0 . . .
28328.0 . . .
28349.0 . . .
28378.0 . . .
28445.0 . . .
28562.0 . . .
28653.0 . . .
28735.0 . . .
28864.0 . . .
28931.0 . . .
28985.0 . . .
29059.0 . . .
29079.0 . . .
29110.0 . . .
29118.0 . . .
29139.0 . . .
29129.0 . . .
29145.0 . . .
29220.0 . . .
29156.0 . . .
29159.0 . . .
29169.0 . . .
29145.0 . . .
29108.0 . . .
29029.0 . . .
29016.0 . . .
28908.0 . . .
28908.0 . . .
28896.0 . . .
28875.0 . . .
28884.0 . . .
28861.0 . . .
28869.0 . . .
28899.0 . . .
28944.0 . . .
29026.0 . . .
29095.0 . . .
29207.0 . . .
29326.0 . . .
29450.0 . . .
29612.0 . . .
29669.0 . . .
29670.0 . . .
29724.0 . . .
29676.0 . . .
29605.0 . . .
29553.0 . . .
29480.0 . . .
29432.0 . . .
29359.0 . . .
29307.0 . . .
29330.0 . . .
29301.0 . . .
29314.0 . . .
29235.0 . . .
29202.0 . . .
29263.0 . . .
29267.0 . . .
29298.0 . . .
29243.0 . . .
29199.0 . . .
29229.0 . . .
29142.0 . . .
29141.0 . . .
29226.0 . . .
29212.0 . . .
29258.0 . . .
29257.0 . . .
29241.0 . . .
29201.0 . . .
29180.0 . . .
29173.0 . . .
29254.0 . . .
29394.0 . . .
29490.0 . . .
29514.0 . . .
29563.0 . . .
29606.0 . . .
29573.0 . . .
29525.0 . . .
29480.0 . . .
29398.0 . . .
29437.0 . . .
29443.0 . . .
29492.0 . . .
29584.0 . . .
29540.0 . . .
29545.0 . . .
29578.0 . . .
29504.0 . . .
29506.0 . . .
29589.0 . . .
29581.0 . . .
29600.0 . . .
29581.0 . . .
29606.0 . . .
29549.0 . . .
29550.0 . . .
29513.0 . . .
29461.0 . . .
29470.0 . . .
29485.0 . . .
29513.0 . . .
29500.0 . . .
29481.0 . . .
29448.0 . . .
29435.0 . . .
29347.0 . . .
29211.0 . . .
29234.0 . . .
29312.0 . . .
29201.0 . . .
29194.0 . . .
29185.0 . . .
29015.0 . . .
29008.0 . . .
29037.0 . . .
28967.0 . . .
29070.0 . . .
29025.0 . . .
28969.0 . . .
29058.0 . . .
28934.0 . . .
28748.0 . . .
28866.0 . . .
28829.0 . . .
28780.0 . . .
28912.0 . . .
28814.0 . . .
28762.0 . . .
28921.0 . . .
28845.0 . . .
28875.0 . . .
28884.0 . . .
28809.0 . . .
28857.0 . . .
29049.0 . . .
28948.0 . . .
28805.0 . . .
28927.0 . . .
28710.0 . . .
28774.0 . . .
28954.0 . . .
29034.0 . . .
28892.0 . . .
28970.0 . . .
28849.0 . . .
28653.0 . . .
28739.0 . . .
28519.0 . . .
28251.0 . . .
28535.0 . . .
28315.0 . . .
28234.0 . . .
28272.0 . . .
27701.0 . . .
27744.0 . . .
28154.0 . . .
28127.0 . . .
29295.0 . . .
30096.0 . . .
29982.0 . . .
30119.0 . . .
30021.0 . . .
30215.0 . . .
30253.0 . . .
30196.0 . . .
30184.0 . . .
29987.0 . . .
29960.0 . . .
29931.0 . . .
30125.0 . . .
30095.0 . . .
30336.0 . . .
30457.0 . . .
30864.0 . . .
32013.0 . . .
33152.0 . . .
loop_
_refln_index_h
_refln_index_k
_refln_index_l
_refln_observed_status
_refln_F_squared_meas
_refln_F_squared_calc
_refln_phase_calc
_refln_d_spacing
_gsas_i100_meas
0 0 2 o 145.056 146.259 0.00 7.23926 0.10
0 1 2 o 2845.926 2789.730 0.00 6.41875 8.32
0 2 0 o 24278.127 23674.012 0.00 6.94031 96.88
0 2 1 o 1454.953 1529.128 0.00 6.25843 8.33
0 2 2 o 2035.349 1955.769 0.00 5.00989 3.86
0 1 3 o 4787.442 4166.520 0.00 4.55849 4.53
0 3 1 o 51.096 145.048 180.00 4.40730 0.18
1 0 0 o 23475.943 22200.723 180.00 3.58457 41.19
0 2 3 o 3650.163 3799.226 0.00 3.96233 4.71
0 3 2 o 819.432 914.222 0.00 3.89861 1.31
1 1 0 o 42.771 45.750 180.00 3.47071 0.11
1 1 1 o 438.673 444.818 180.00 3.44361 0.96
1 0 2 o 26011.656 25601.959 180.00 3.33351 25.20
1 1 -1 o 1100.653 1035.400 180.00 3.31051 4.02
0 0 4 o 2041.723 1655.253 180.00 3.61963 0.36
1 1 2 o 589.956 493.779 0.00 3.24135 1.00
0 1 4 o 971.981 1056.660 0.00 3.50250 0.41
0 4 0 o 21004.309 23418.518 0.00 3.47016 20.98
0 3 3 o 5935.629 5913.027 0.00 3.33993 5.01
0 4 1 o 3502.703 3952.955 0.00 3.37458 7.24
1 2 0 o 25030.498 24667.416 180.00 3.18486 51.72
1 2 1 o 10591.091 10163.639 180.00 3.16388 25.75
1 0 -2 o 1843.576 1848.599 0.00 3.10348 2.49
1 2 -1 o 4057.783 3955.524 0.00 3.05972 7.49
0 2 4 o 12414.708 11706.534 180.00 3.20937 9.08
0 4 2 o 3807.808 3683.851 0.00 3.12922 5.46
1 1 -2 o 287.420 274.277 180.00 3.02870 0.78
1 2 2 o 62398.48 63552.77 180.00 3.00487 100.00
1 1 3 o 97.311 120.537 180.00 2.94151 0.07
1 3 0 o 6712.753 6541.819 0.00 2.83367 10.83
1 3 1 o 14323.705 13996.446 0.00 2.81886 27.70
0 3 4 o 2643.275 2442.665 0.00 2.85090 1.76
1 2 -2 o 232.623 227.448 180.00 2.83313 0.57
1 2 3 o 6443.691 5230.710 180.00 2.76138 7.42
0 4 3 o 22565.555 22178.557 0.00 2.81745 16.21
0 1 5 o 140.346 137.965 0.00 2.83468 0.03
1 3 2 o 748.864 718.597 180.00 2.70466 0.99
1 3 -1 o 2559.302 1948.878 180.00 2.74445 3.00
1 0 4 o 10948.173 10938.803 0.00 2.66959 4.75
0 5 1 o 94.628 74.772 0.00 2.72646 0.13
1 1 -3 o 1782.758 1722.175 180.00 2.70839 3.55
1 1 4 o 373.674 242.472 0.00 2.62154 0.37
0 2 5 o 1697.163 1790.645 0.00 2.67242 0.68
0 5 2 o 165.452 135.387 180.00 2.59207 0.19
1 3 3 o 23912.014 24085.736 180.00 2.52301 26.79
1 3 -2 o 1742.460 2120.931 180.00 2.57738 3.30
1 2 -3 o 646.711 843.847 0.00 2.56582 1.17
1 2 4 o 2042.263 2051.924 0.00 2.49162 2.29
0 4 4 o 10407.084 10984.683 180.00 2.50495 4.95
1 4 0 o 7914.944 8008.483 180.00 2.49324 8.52
1 4 1 o 188.164 183.395 180.00 2.48314 0.24
0 3 5 o 535.999 470.998 180.00 2.45462 0.26
1 4 2 o 7947.793 7469.139 180.00 2.40400 8.51
1 0 -4 o 28057.881 27364.088 0.00 2.43985 7.11
1 4 -1 o 23106.492 22824.725 0.00 2.43182 20.15
0 5 3 o 29.886 28.486 180.00 2.40641 0.02
1 1 -4 o 2522.023 2355.142 0.00 2.40301 1.05
1 3 -3 o 1802.735 1795.216 0.00 2.37125 2.75
0 0 6 o 50611.63 50642.43 180.00 2.41309 3.95
1 3 4 o 87.367 86.931 180.00 2.31231 0.09
0 1 6 o 3875.506 3659.789 0.00 2.37743 0.63
1 1 5 o 2415.748 2618.856 180.00 2.32506 2.99
1 4 3 o 12694.880 12965.566 180.00 2.27375 12.84
0 6 0 o 11245.574 11174.766 0.00 2.31344 5.00
1 4 -2 o 38.983 38.712 0.00 2.31330 0.05
1 2 -4 o 42296.45 41884.93 0.00 2.30176 13.92
0 6 1 o 758.987 792.498 0.00 2.28446 0.70
0 2 6 o 22162.389 23774.877 180.00 2.27925 5.25
1 2 5 o 3492.151 4285.285 180.00 2.23298 2.93
1 5 1 o 0.015 0.010 0.00 2.18796 0.00
0 4 5 o 1137.870 1060.574 180.00 2.22331 0.45
0 6 2 o 2480.292 1956.590 180.00 2.20365 2.16
0 5 4 o 1298.724 1021.309 0.00 2.20283 0.53
1 5 0 o 676.629 488.421 0.00 2.19486 0.58
1 5 2 o 1684.780 1682.003 0.00 2.13324 1.78
1 4 -3 o 2381.391 2074.438 0.00 2.16079 2.80
1 3 -4 o 7196.696 6221.428 0.00 2.15817 2.66
1 4 4 o 7488.585 7564.111 0.00 2.11591 7.42
1 5 -1 o 538.448 452.136 180.00 2.15261 0.39
0 3 6 o 6514.463 6311.604 0.00 2.13958 2.12
1 1 -5 o 0.000 221.295 180.00 2.13410 0.00
1 3 5 o 8.197 6.057 180.00 2.10118 0.01
1 0 6 o 11194.466 9852.271 0.00 2.09057 7.24
0 6 3 o 57114.70 52109.23 0.00 2.08614 36.48
1 5 3 o 2132.610 1735.687 180.00 2.04066 2.22
1 5 -2 o 3478.304 3256.088 0.00 2.06911 3.21
1 1 6 o 3710.428 3507.784 180.00 2.06726 3.45
1 2 -5 o 0.000 59.390 0.00 2.06223 0.00
0 1 7 o 7019.713 5619.987 180.00 2.04577 0.82
0 5 5 o 188.750 182.917 0.00 2.00396 0.06
1 2 6 o 10654.871 10518.297 0.00 2.00173 3.02
1 4 -4 o 24199.770 24325.537 0.00 1.99589 9.75
1 4 5 o 4678.640 5734.526 180.00 1.95056 3.11
0 2 7 o 5430.594 6224.618 180.00 1.98221 0.83
0 4 6 o 7389.013 8443.066 180.00 1.98117 2.39
1 6 0 o 3179.380 3340.797 180.00 1.94377 2.56
1 6 1 o 360.153 376.621 180.00 1.93897 0.36
0 7 1 o 0.557 0.561 0.00 1.96461 0.00
1 5 -3 o 2.079 2.483 0.00 1.95781 0.00
1 3 -5 o 0.000 36.856 180.00 1.95706 0.00
1 5 4 o 234.049 248.429 180.00 1.92424 0.23
0 6 4 o 906.789 1086.062 180.00 1.94931 0.36
0 7 2 o 414.497 415.970 180.00 1.91250 0.28
1 6 2 o 4605.082 4756.701 180.00 1.90059 5.04
1 0 -6 o 0.000 2632.267 0.00 1.92339 0.00
1 6 -1 o 17665.863 17796.133 0.00 1.91424 11.53
1 1 -6 o 0.000 1564.358 180.00 1.90519 0.00
1 3 6 o 0.000 7592.916 180.00 1.90513 0.00
0 3 7 o 3280.416 3769.823 180.00 1.88827 0.71
2 0 0 o 1990.504 1453.825 0.00 1.79228 0.88
1 6 3 o 9010.056 8819.435 180.00 1.83423 9.90
0 7 3 o 3701.304 3615.903 0.00 1.83416 2.04
1 6 -2 o 182.875 203.211 0.00 1.85481 0.12
1 2 -6 o 7764.607 8786.329 0.00 1.85353 1.18
1 1 7 o 5521.690 6729.299 0.00 1.84883 1.88
2 1 1 o 602.284 518.252 0.00 1.78359 0.32
0 6 5 o 4177.877 2854.483 180.00 1.80744 1.11
2 1 0 o 746.459 713.600 0.00 1.77753 0.59
2 0 2 o 35694.59 34117.422 0.00 1.77737 10.70
1 4 -5 o 2748.571 2642.167 180.00 1.83364 0.25
1 5 -4 o 1849.548 1741.026 0.00 1.83265 0.66
1 5 5 o 2769.288 1957.957 180.00 1.79737 2.14
0 5 6 o 4869.467 4039.652 0.00 1.82123 1.28
2 1 2 o 54.383 44.341 180.00 1.76298 0.03
1 4 6 o 6570.778 4698.544 0.00 1.79072 0.47
1 2 7 o 0.000 1125.390 0.00 1.80151 0.00
2 1 -1 o 2529.883 2825.829 180.00 1.74559 2.97
2 2 1 o 2145.934 2296.776 180.00 1.74099 1.10
0 1 8 o 896.068 628.494 180.00 1.79462 0.08
2 2 0 o 6280.798 6044.464 0.00 1.73535 3.99
0 0 8 o 47.720 32.639 0.00 1.80981 0.00
0 4 7 o 1843.272 1867.167 180.00 1.77670 0.46
1 3 -6 o 14.258 14.494 180.00 1.77605 0.01
2 2 2 o 11279.688 10495.375 0.00 1.72180 6.17
1 6 4 o 1537.017 1750.976 0.00 1.74831 1.60
1 6 -3 o 14854.612 14298.236 0.00 1.77337 8.55
2 1 3 o 33.023 31.197 0.00 1.71833 0.02
0 7 4 o 3061.273 3229.049 0.00 1.73908 1.19
1 7 0 o 12.449 11.888 0.00 1.73515 0.01
0 8 0 o 492.013 468.982 0.00 1.73508 0.12
2 2 -1 o 391.748 434.114 180.00 1.70560 0.34
1 7 1 o 5.732 5.113 180.00 1.73173 0.01
2 0 -2 o 6682.511 7432.394 180.00 1.70444 4.42
1 3 7 o 0.000 27.879 0.00 1.73013 0.00
0 2 8 o 3881.069 4173.502 0.00 1.75125 0.42
0 8 1 o 5657.615 5230.872 0.00 1.72275 2.92
2 1 -2 o 6.239 4.716 0.00 1.69173 0.01
1 7 -1 o 610.695 583.688 0.00 1.71404 0.36
1 7 2 o 682.668 790.408 0.00 1.70422 0.73
1 1 -7 o 10105.175 9764.949 0.00 1.71253 4.86
1 5 -5 o 226.832 273.191 180.00 1.70466 0.02
