#------------------------------------------------------------------------------
#$Date: 2017-10-13 14:42:48 +0300 (Fri, 13 Oct 2017) $
#$Revision: 201982 $
#$URL: file:///home/coder/svn-repositories/cod/cif/4/50/60/4506074.cif $
#------------------------------------------------------------------------------
#
# This file is available in the Crystallography Open Database (COD),
# http://www.crystallography.net/
#
# All data on this site have been placed in the public domain by the
# contributors.
#
data_4506074
loop_
_publ_author_name
'Aaker\"oy, Christer B.'
'Panikkattu, Sheelu V.'
'DeHaven, Baillie'
'Desper, John'
_publ_section_title
;
 Establishing Supramolecular Control over Solid-State Architectures: A
 Simple Mix and Match Strategy
;
_journal_issue                   5
_journal_name_full               'Crystal Growth &amp; Design'
_journal_page_first              2579
_journal_paper_doi               10.1021/cg300180b
_journal_volume                  12
_journal_year                    2012
_chemical_formula_moiety
;
(C11 H9 N3 O) (C4 H6 O4)
;
_chemical_formula_sum            'C15 H15 N3 O5'
_chemical_formula_weight         317.30
_chemical_name_systematic
;
SVP-3N-SA (4-pyridyl)-CONH-(2-pyridyl), HOOC-(CH2)2-COOH
;
_space_group_IT_number           2
_symmetry_cell_setting           triclinic
_symmetry_space_group_name_Hall  '-P 1'
_symmetry_space_group_name_H-M   'P -1'
_atom_sites_solution_hydrogens   geom
_atom_sites_solution_primary     direct
_atom_sites_solution_secondary   difmap
_audit_creation_method           SHELXL-97
_cell_angle_alpha                67.856(4)
_cell_angle_beta                 89.550(4)
_cell_angle_gamma                87.878(4)
_cell_formula_units_Z            2
_cell_length_a                   4.8289(5)
_cell_length_b                   11.1223(11)
_cell_length_c                   14.3787(14)
_cell_measurement_reflns_used    2832
_cell_measurement_temperature    120(2)
_cell_measurement_theta_max      31.47
_cell_measurement_theta_min      2.92
_cell_volume                     714.79(13)
_computing_cell_refinement       'Bruker SAINT'
_computing_data_collection       'Bruker APEX2'
_computing_data_reduction        'Bruker SAINT'
_computing_molecular_graphics    'Bruker SHELXTL'
_computing_publication_material  'Bruker SHELXTL'
_computing_structure_refinement  'SHELXL-97 (Sheldrick, 2008)'
_computing_structure_solution    'SHELXS-97 (Sheldrick, 2008)'
_diffrn_ambient_temperature      120(2)
_diffrn_measured_fraction_theta_full 0.964
_diffrn_measured_fraction_theta_max 0.964
_diffrn_measurement_device_type  'Bruker APEX-II CCD'
_diffrn_measurement_method       '\f and \w scans'
_diffrn_radiation_monochromator  graphite
_diffrn_radiation_source         'fine-focus sealed tube'
_diffrn_radiation_type           MoK\a
_diffrn_radiation_wavelength     0.71073
_diffrn_reflns_av_R_equivalents  0.0348
_diffrn_reflns_av_sigmaI/netI    0.0489
_diffrn_reflns_limit_h_max       6
_diffrn_reflns_limit_h_min       -7
_diffrn_reflns_limit_k_max       15
_diffrn_reflns_limit_k_min       -16
_diffrn_reflns_limit_l_max       21
_diffrn_reflns_limit_l_min       -20
_diffrn_reflns_number            10209
_diffrn_reflns_theta_full        31.50
_diffrn_reflns_theta_max         31.50
_diffrn_reflns_theta_min         1.98
_exptl_absorpt_coefficient_mu    0.113
_exptl_absorpt_correction_type   none
_exptl_crystal_colour            gold
_exptl_crystal_density_diffrn    1.474
_exptl_crystal_density_method    'not measured'
_exptl_crystal_description       plate
_exptl_crystal_F_000             332
_exptl_crystal_size_max          0.36
_exptl_crystal_size_mid          0.14
_exptl_crystal_size_min          0.08
_refine_diff_density_max         0.360
_refine_diff_density_min         -0.381
_refine_diff_density_rms         0.080
_refine_ls_extinction_method     none
_refine_ls_goodness_of_fit_ref   1.125
_refine_ls_hydrogen_treatment    mixed
_refine_ls_matrix_type           full
_refine_ls_number_parameters     217
_refine_ls_number_reflns         4585
_refine_ls_number_restraints     0
_refine_ls_restrained_S_all      1.125
_refine_ls_R_factor_all          0.0892
_refine_ls_R_factor_gt           0.0576
_refine_ls_shift/su_max          0.000
_refine_ls_shift/su_mean         0.000
_refine_ls_structure_factor_coef Fsqd
_refine_ls_weighting_details
'calc w=1/[\s^2^(Fo^2^)+(0.1000P)^2^+0.0000P] where P=(Fo^2^+2Fc^2^)/3'
_refine_ls_weighting_scheme      calc
_refine_ls_wR_factor_gt          0.1718
_refine_ls_wR_factor_ref         0.1907
_reflns_number_gt                3013
_reflns_number_total             4585
_reflns_threshold_expression     >2sigma(I)
_cod_data_source_file            cg300180b_si_001.cif
_cod_data_source_block           sp0924m
_cod_depositor_comments
;
The following automatic conversions were performed:

'_symmetry_cell_setting' value 'Triclinic' changed to 'triclinic'
according to /home/saulius/struct/CIF-dictionaries/cif_core.dic
dictionary named 'cif_core.dic' version 2.4.1 from 2010-06-29.

Automatic conversion script
Id: cif_fix_values 1715 2011-07-08 13:25:40Z adriana 
;
_cod_original_cell_volume        714.79(12)
_cod_original_sg_symbol_H-M      P-1
_cod_database_code               4506074
loop_
_symmetry_equiv_pos_as_xyz
'x, y, z'
'-x, -y, -z'
loop_
_atom_site_label
_atom_site_type_symbol
_atom_site_fract_x
_atom_site_fract_y
_atom_site_fract_z
_atom_site_U_iso_or_equiv
_atom_site_adp_type
_atom_site_occupancy
_atom_site_symmetry_multiplicity
_atom_site_calc_flag
_atom_site_refinement_flags
N11 N 0.6144(3) 0.70875(14) 0.58575(11) 0.0230(3) Uani 1 1 d .
C12 C 0.7323(3) 0.61943(16) 0.66667(13) 0.0222(3) Uani 1 1 d .
H12 H 0.6768 0.5322 0.6868 0.027 Uiso 1 1 calc R
C13 C 0.9335(3) 0.64759(16) 0.72340(12) 0.0197(3) Uani 1 1 d .
C14 C 1.0103(4) 0.77506(17) 0.69307(13) 0.0247(4) Uani 1 1 d .
H14 H 1.1503 0.7979 0.7288 0.030 Uiso 1 1 calc R
C15 C 0.8833(4) 0.86908(18) 0.61072(14) 0.0287(4) Uani 1 1 d .
H15 H 0.9295 0.9576 0.5904 0.034 Uiso 1 1 calc R
C16 C 0.6874(4) 0.83171(17) 0.55833(14) 0.0257(4) Uani 1 1 d .
H16 H 0.6018 0.8959 0.5008 0.031 Uiso 1 1 calc R
C17 C 1.0716(3) 0.55052(16) 0.81476(13) 0.0210(3) Uani 1 1 d .
N17 N 0.9431(3) 0.43585(14) 0.86071(11) 0.0203(3) Uani 1 1 d .
H17 H 0.803(4) 0.417(2) 0.8339(16) 0.024 Uiso 1 1 d .
O17 O 1.2855(3) 0.57698(13) 0.84646(10) 0.0284(3) Uani 1 1 d .
N21 N 0.8881(3) 0.22555(14) 0.96902(11) 0.0203(3) Uani 1 1 d .
C22 C 1.0302(3) 0.33364(16) 0.94831(12) 0.0194(3) Uani 1 1 d .
C23 C 1.2402(3) 0.34130(17) 1.01164(13) 0.0223(4) Uani 1 1 d .
H23 H 1.3379 0.4190 0.9965 0.027 Uiso 1 1 calc R
C24 C 1.3025(4) 0.23384(17) 1.09650(13) 0.0236(4) Uani 1 1 d .
H24 H 1.4457 0.2366 1.1405 0.028 Uiso 1 1 calc R
C25 C 1.1574(4) 0.12158(17) 1.11810(13) 0.0245(4) Uani 1 1 d .
H25 H 1.1984 0.0464 1.1764 0.029 Uiso 1 1 calc R
C26 C 0.9511(3) 0.12294(17) 1.05187(13) 0.0225(4) Uani 1 1 d .
H26 H 0.8488 0.0468 1.0662 0.027 Uiso 1 1 calc R
C31 C 0.1339(3) 0.73409(16) 0.40809(13) 0.0205(3) Uani 1 1 d .
O31 O 0.2148(3) 0.64008(13) 0.49167(10) 0.0285(3) Uani 1 1 d .
H31 H 0.348(5) 0.671(2) 0.5254(17) 0.034 Uiso 1 1 d .
O32 O 0.2339(3) 0.84024(12) 0.37591(10) 0.0275(3) Uani 1 1 d .
C32 C -0.0971(3) 0.69532(16) 0.35687(13) 0.0217(3) Uani 1 1 d .
H32A H -0.0356 0.6175 0.3434 0.026 Uiso 1 1 calc R
H32B H -0.2581 0.6717 0.4024 0.026 Uiso 1 1 calc R
C33 C -0.1858(3) 0.80149(16) 0.25975(13) 0.0216(3) Uani 1 1 d .
H33A H -0.0228 0.8281 0.2155 0.026 Uiso 1 1 calc R
H33B H -0.2561 0.8778 0.2736 0.026 Uiso 1 1 calc R
C34 C -0.4071(3) 0.76053(16) 0.20607(13) 0.0199(3) Uani 1 1 d .
O34 O -0.4892(3) 0.85143(12) 0.12130(9) 0.0246(3) Uani 1 1 d .
H34 H -0.619(5) 0.816(2) 0.0968(16) 0.030 Uiso 1 1 d .
O35 O -0.5014(3) 0.65295(12) 0.23810(10) 0.0287(3) Uani 1 1 d .
loop_
_atom_site_aniso_label
_atom_site_aniso_U_11
_atom_site_aniso_U_22
_atom_site_aniso_U_33
_atom_site_aniso_U_23
_atom_site_aniso_U_13
_atom_site_aniso_U_12
N11 0.0226(7) 0.0217(7) 0.0213(7) -0.0043(6) -0.0033(5) -0.0010(6)
C12 0.0221(8) 0.0199(8) 0.0217(8) -0.0045(6) -0.0031(6) -0.0028(6)
C13 0.0199(7) 0.0194(8) 0.0178(8) -0.0047(6) -0.0002(6) -0.0034(6)
C14 0.0282(9) 0.0237(8) 0.0218(8) -0.0076(7) -0.0011(7) -0.0073(7)
C15 0.0390(10) 0.0185(8) 0.0268(9) -0.0061(7) 0.0001(8) -0.0064(7)
C16 0.0290(9) 0.0194(8) 0.0239(9) -0.0028(7) -0.0022(7) -0.0014(7)
C17 0.0209(7) 0.0207(8) 0.0206(8) -0.0066(7) -0.0012(6) -0.0031(6)
N17 0.0186(6) 0.0202(7) 0.0193(7) -0.0037(6) -0.0049(5) -0.0040(5)
O17 0.0256(6) 0.0283(7) 0.0276(7) -0.0055(6) -0.0063(5) -0.0093(5)
N21 0.0202(7) 0.0205(7) 0.0186(7) -0.0052(6) -0.0025(5) -0.0033(5)
C22 0.0174(7) 0.0214(8) 0.0186(8) -0.0067(6) 0.0001(6) -0.0009(6)
C23 0.0207(8) 0.0241(8) 0.0212(8) -0.0074(7) -0.0021(6) -0.0029(6)
C24 0.0227(8) 0.0252(8) 0.0221(8) -0.0077(7) -0.0056(6) -0.0011(7)
C25 0.0258(8) 0.0237(8) 0.0204(8) -0.0044(7) -0.0038(6) 0.0005(7)
C26 0.0230(8) 0.0216(8) 0.0217(8) -0.0065(7) -0.0014(6) -0.0042(6)
C31 0.0189(7) 0.0216(8) 0.0198(8) -0.0065(7) -0.0024(6) -0.0015(6)
O31 0.0275(6) 0.0265(7) 0.0246(7) -0.0010(5) -0.0091(5) -0.0060(5)
O32 0.0300(7) 0.0214(6) 0.0277(7) -0.0048(5) -0.0080(5) -0.0062(5)
C32 0.0213(8) 0.0222(8) 0.0195(8) -0.0052(7) -0.0039(6) -0.0044(6)
C33 0.0197(7) 0.0215(8) 0.0224(8) -0.0062(7) -0.0039(6) -0.0046(6)
C34 0.0188(7) 0.0206(8) 0.0200(8) -0.0073(6) -0.0002(6) -0.0023(6)
O34 0.0261(6) 0.0218(6) 0.0226(6) -0.0039(5) -0.0083(5) -0.0063(5)
O35 0.0307(7) 0.0232(6) 0.0273(7) -0.0032(5) -0.0081(5) -0.0097(5)
loop_
_atom_type_symbol
_atom_type_description
_atom_type_scat_dispersion_real
_atom_type_scat_dispersion_imag
_atom_type_scat_source
C C 0.0033 0.0016 'International Tables Vol C Tables 4.2.6.8 and 6.1.1.4'
H H 0.0000 0.0000 'International Tables Vol C Tables 4.2.6.8 and 6.1.1.4'
N N 0.0061 0.0033 'International Tables Vol C Tables 4.2.6.8 and 6.1.1.4'
O O 0.0106 0.0060 'International Tables Vol C Tables 4.2.6.8 and 6.1.1.4'
loop_
_geom_angle_atom_site_label_1
_geom_angle_atom_site_label_2
_geom_angle_atom_site_label_3
_geom_angle
C12 N11 C16 118.79(15)
N11 C12 C13 123.02(15)
N11 C12 H12 118.5
C13 C12 H12 118.5
C14 C13 C12 117.51(16)
C14 C13 C17 117.60(14)
C12 C13 C17 124.89(14)
C15 C14 C13 119.82(16)
C15 C14 H14 120.1
C13 C14 H14 120.1
C14 C15 C16 118.55(16)
C14 C15 H15 120.7
C16 C15 H15 120.7
N11 C16 C15 122.26(17)
N11 C16 H16 118.9
C15 C16 H16 118.9
O17 C17 N17 123.18(16)
O17 C17 C13 119.91(15)
N17 C17 C13 116.88(14)
C17 N17 C22 126.53(14)
C17 N17 H17 121.3(14)
C22 N17 H17 111.9(14)
C26 N21 C22 118.88(14)
N21 C22 C23 121.66(15)
N21 C22 N17 113.96(14)
C23 C22 N17 124.35(15)
C24 C23 C22 118.39(15)
C24 C23 H23 120.8
C22 C23 H23 120.8
C23 C24 C25 120.25(15)
C23 C24 H24 119.9
C25 C24 H24 119.9
C26 C25 C24 117.51(16)
C26 C25 H25 121.2
C24 C25 H25 121.2
N21 C26 C25 123.30(15)
N21 C26 H26 118.3
C25 C26 H26 118.3
O32 C31 O31 123.75(15)
O32 C31 C32 123.86(15)
O31 C31 C32 112.40(14)
C31 O31 H31 109.7(14)
C33 C32 C31 112.62(14)
C33 C32 H32A 109.1
C31 C32 H32A 109.1
C33 C32 H32B 109.1
C31 C32 H32B 109.1
H32A C32 H32B 107.8
C32 C33 C34 112.62(14)
C32 C33 H33A 109.1
C34 C33 H33A 109.1
C32 C33 H33B 109.1
C34 C33 H33B 109.1
H33A C33 H33B 107.8
O35 C34 O34 122.85(15)
O35 C34 C33 123.22(15)
O34 C34 C33 113.94(13)
C34 O34 H34 105.5(14)
loop_
_geom_bond_atom_site_label_1
_geom_bond_atom_site_label_2
_geom_bond_distance
N11 C12 1.327(2)
N11 C16 1.333(2)
C12 C13 1.391(2)
C12 H12 0.9500
C13 C14 1.381(2)
C13 C17 1.492(2)
C14 C15 1.379(3)
C14 H14 0.9500
C15 C16 1.383(3)
C15 H15 0.9500
C16 H16 0.9500
C17 O17 1.222(2)
C17 N17 1.366(2)
N17 C22 1.396(2)
N17 H17 0.85(2)
N21 C26 1.330(2)
N21 C22 1.339(2)
C22 C23 1.394(2)
C23 C24 1.374(2)
C23 H23 0.9500
C24 C25 1.384(2)
C24 H24 0.9500
C25 C26 1.380(2)
C25 H25 0.9500
C26 H26 0.9500
C31 O32 1.212(2)
C31 O31 1.312(2)
C31 C32 1.503(2)
O31 H31 0.96(2)
C32 C33 1.502(2)
C32 H32A 0.9900
C32 H32B 0.9900
C33 C34 1.503(2)
C33 H33A 0.9900
C33 H33B 0.9900
C34 O35 1.214(2)
C34 O34 1.309(2)
O34 H34 0.90(2)
loop_
_geom_hbond_atom_site_label_D
_geom_hbond_atom_site_label_H
_geom_hbond_atom_site_label_A
_geom_hbond_distance_DH
_geom_hbond_distance_HA
_geom_hbond_distance_DA
_geom_hbond_angle_DHA
_geom_hbond_site_symmetry_A
O31 H31 N11 0.96(2) 1.70(2) 2.6581(19) 172(2) .
N17 H17 O35 0.85(2) 2.12(2) 2.9674(19) 170(2) 2_566
O34 H34 N21 0.90(2) 1.79(2) 2.6702(18) 169(2) 2_566
loop_
_geom_torsion_atom_site_label_1
_geom_torsion_atom_site_label_2
_geom_torsion_atom_site_label_3
_geom_torsion_atom_site_label_4
_geom_torsion
C16 N11 C12 C13 -1.3(3)
N11 C12 C13 C14 0.3(3)
N11 C12 C13 C17 -179.99(16)
C12 C13 C14 C15 1.6(3)
C17 C13 C14 C15 -178.22(16)
C13 C14 C15 C16 -2.2(3)
C12 N11 C16 C15 0.6(3)
C14 C15 C16 N11 1.1(3)
C14 C13 C17 O17 -16.5(3)
C12 C13 C17 O17 163.72(17)
C14 C13 C17 N17 161.58(16)
C12 C13 C17 N17 -18.2(3)
O17 C17 N17 C22 0.2(3)
C13 C17 N17 C22 -177.84(15)
C26 N21 C22 C23 -0.5(2)
C26 N21 C22 N17 -178.81(14)
C17 N17 C22 N21 -171.01(15)
C17 N17 C22 C23 10.7(3)
N21 C22 C23 C24 0.8(3)
N17 C22 C23 C24 178.97(15)
C22 C23 C24 C25 -0.4(3)
C23 C24 C25 C26 -0.2(3)
C22 N21 C26 C25 -0.2(3)
C24 C25 C26 N21 0.6(3)
O32 C31 C32 C33 1.5(2)
O31 C31 C32 C33 -178.54(15)
C31 C32 C33 C34 177.21(14)
C32 C33 C34 O35 -0.4(2)
C32 C33 C34 O34 179.74(14)
loop_
_cod_related_entry_id
_cod_related_entry_database
_cod_related_entry_code
1 ChemSpider 30652441
