#------------------------------------------------------------------------------
#$Date: 2017-10-13 14:42:48 +0300 (Fri, 13 Oct 2017) $
#$Revision: 201982 $
#$URL: file:///home/coder/svn-repositories/cod/cif/4/50/61/4506182.cif $
#------------------------------------------------------------------------------
#
# This file is available in the Crystallography Open Database (COD),
# http://www.crystallography.net/
#
# All data on this site have been placed in the public domain by the
# contributors.
#
data_4506182
loop_
_publ_author_name
'Terada, Sho'
'Katagiri, Kosuke'
'Masu, Hyuma'
'Danjo, Hiroshi'
'Sei, Yoshihisa'
'Kawahata, Masatoshi'
'Tominaga, Masahide'
'Yamaguchi, Kentaro'
'Azumaya, Isao'
_publ_section_title
;
 Polymorphism of Aromatic Sulfonamides with Fluorine Groups
;
_journal_issue                   6
_journal_name_full               'Crystal Growth &amp; Design'
_journal_page_first              2908
_journal_paper_doi               10.1021/cg300098q
_journal_volume                  12
_journal_year                    2012
_chemical_formula_sum            'C18 H14 F N O3 S'
_chemical_formula_weight         343.36
_chemical_name_systematic
; 
 ? 
;
_space_group_IT_number           2
_symmetry_cell_setting           triclinic
_symmetry_space_group_name_Hall  '-P 1'
_symmetry_space_group_name_H-M   'P -1'
_atom_sites_solution_hydrogens   geom
_atom_sites_solution_primary     direct
_atom_sites_solution_secondary   difmap
_audit_creation_method           SHELXL-97
_cell_angle_alpha                102.597(4)
_cell_angle_beta                 107.235(4)
_cell_angle_gamma                104.579(3)
_cell_formula_units_Z            2
_cell_length_a                   8.250(3)
_cell_length_b                   9.528(3)
_cell_length_c                   11.468(4)
_cell_measurement_reflns_used    758
_cell_measurement_temperature    120
_cell_measurement_theta_max      24.68
_cell_measurement_theta_min      2.33
_cell_volume                     790.4(5)
_computing_cell_refinement       'APEX2 (Bruker AXS, 2006)'
_computing_data_collection       'APEX2 (Bruker AXS, 2006)'
_computing_data_reduction        'SAINT (Bruker AXS, 2004)'
_computing_molecular_graphics    'XSHEL (Bruker AXS,2002)'
_computing_publication_material  'XCIF (Bruker AXS, 2001)'
_computing_structure_refinement  'SHELXL-97 (Sheldrick, 1997)'
_computing_structure_solution    'SHELXS-97 (Sheldrick, 1997)'
_diffrn_ambient_temperature      120
_diffrn_detector_area_resol_mean 8.333
_diffrn_measured_fraction_theta_full 0.959
_diffrn_measured_fraction_theta_max 0.840
_diffrn_measurement_device_type  'Bruker APEXII CCD area detector'
_diffrn_measurement_method       'phi and omega scans'
_diffrn_radiation_monochromator  graphite
_diffrn_radiation_source         'sealed tube'
_diffrn_radiation_type           MoK\a
_diffrn_radiation_wavelength     0.71073
_diffrn_reflns_av_R_equivalents  0.0209
_diffrn_reflns_av_sigmaI/netI    0.0624
_diffrn_reflns_limit_h_max       10
_diffrn_reflns_limit_h_min       -9
_diffrn_reflns_limit_k_max       11
_diffrn_reflns_limit_k_min       -11
_diffrn_reflns_limit_l_max       14
_diffrn_reflns_limit_l_min       -9
_diffrn_reflns_number            3852
_diffrn_reflns_theta_full        25.00
_diffrn_reflns_theta_max         27.19
_diffrn_reflns_theta_min         1.96
_exptl_absorpt_coefficient_mu    0.232
_exptl_absorpt_correction_T_max  0.9551
_exptl_absorpt_correction_T_min  0.9130
_exptl_absorpt_correction_type   empirical
_exptl_absorpt_process_details
;
SADABS Sheldrick 1996
;
_exptl_crystal_colour            colorless
_exptl_crystal_density_diffrn    1.443
_exptl_crystal_density_method    'not measured'
_exptl_crystal_description       prismatic
_exptl_crystal_F_000             356
_exptl_crystal_size_max          0.40
_exptl_crystal_size_mid          0.20
_exptl_crystal_size_min          0.20
_refine_diff_density_max         0.402
_refine_diff_density_min         -0.475
_refine_diff_density_rms         0.068
_refine_ls_extinction_method     none
_refine_ls_goodness_of_fit_ref   1.041
_refine_ls_hydrogen_treatment    constr
_refine_ls_matrix_type           full
_refine_ls_number_parameters     217
_refine_ls_number_reflns         2959
_refine_ls_number_restraints     0
_refine_ls_restrained_S_all      1.041
_refine_ls_R_factor_all          0.0837
_refine_ls_R_factor_gt           0.0542
_refine_ls_shift/su_max          0.000
_refine_ls_shift/su_mean         0.000
_refine_ls_structure_factor_coef Fsqd
_refine_ls_weighting_details
'calc w=1/[\s^2^(Fo^2^)+(0.0725P)^2^+0.0000P] where P=(Fo^2^+2Fc^2^)/3'
_refine_ls_weighting_scheme      calc
_refine_ls_wR_factor_gt          0.1275
_refine_ls_wR_factor_ref         0.1433
_reflns_number_gt                2017
_reflns_number_total             2959
_reflns_threshold_expression     >2sigma(I)
_cod_data_source_file            cg300098q_si_001.cif
_cod_data_source_block           compound4a
_cod_depositor_comments
;
The following automatic conversions were performed:

'_symmetry_cell_setting' value 'Triclinic' changed to 'triclinic'
according to /home/saulius/struct/CIF-dictionaries/cif_core.dic
dictionary named 'cif_core.dic' version 2.4.1 from 2010-06-29.

Automatic conversion script
Id: cif_fix_values 1891 2012-01-12 08:04:46Z andrius 
;
_cod_original_cell_volume        790.3(4)
_cod_original_sg_symbol_H-M      'P-1   '
_cod_database_code               4506182
loop_
_symmetry_equiv_pos_as_xyz
'x, y, z'
'-x, -y, -z'
loop_
_atom_site_label
_atom_site_type_symbol
_atom_site_fract_x
_atom_site_fract_y
_atom_site_fract_z
_atom_site_U_iso_or_equiv
_atom_site_adp_type
_atom_site_occupancy
_atom_site_symmetry_multiplicity
_atom_site_calc_flag
_atom_site_refinement_flags
S1 S 0.74320(10) 0.67077(9) -0.00390(7) 0.0269(2) Uani 1 1 d .
O3 O 0.7836(3) 0.6689(2) 0.33328(18) 0.0292(5) Uani 1 1 d .
F1 F 0.6315(2) 1.2237(2) 0.24729(18) 0.0444(5) Uani 1 1 d .
O2 O 0.8967(3) 0.7190(2) -0.03761(19) 0.0309(5) Uani 1 1 d .
C1 C 0.7110(4) 0.8372(3) 0.0744(3) 0.0243(7) Uani 1 1 d .
O1 O 0.5728(3) 0.5703(2) -0.10242(18) 0.0304(5) Uani 1 1 d .
C12 C 0.9533(4) 0.6811(3) 0.3310(3) 0.0240(7) Uani 1 1 d .
C13 C 0.7707(4) 0.7167(3) 0.4547(3) 0.0247(7) Uani 1 1 d .
N1 N 0.7898(3) 0.5779(3) 0.0992(2) 0.0261(6) Uani 1 1 d .
H1 H 0.7109 0.4895 0.0876 0.031 Uiso 1 1 calc R
C11 C 1.1093(4) 0.7293(3) 0.4386(3) 0.0272(7) Uani 1 1 d .
H11 H 1.1053 0.7557 0.5223 0.033 Uiso 1 1 calc R
C7 C 0.9568(4) 0.6381(3) 0.2078(3) 0.0225(6) Uani 1 1 d .
C4 C 0.6580(4) 1.0946(4) 0.1898(3) 0.0310(7) Uani 1 1 d .
C8 C 1.1199(4) 0.6458(3) 0.1934(3) 0.0276(7) Uani 1 1 d .
H8 H 1.1236 0.6159 0.1099 0.033 Uiso 1 1 calc R
C15 C 0.7122(4) 0.6567(4) 0.6325(3) 0.0337(8) Uani 1 1 d .
H15 H 0.6857 0.5847 0.6758 0.040 Uiso 1 1 calc R
C17 C 0.7716(4) 0.9136(4) 0.6237(3) 0.0302(7) Uani 1 1 d .
H17 H 0.7869 1.0175 0.6616 0.036 Uiso 1 1 calc R
C9 C 1.2772(4) 0.6974(3) 0.3016(3) 0.0295(7) Uani 1 1 d .
H9 H 1.3892 0.7042 0.2920 0.035 Uiso 1 1 calc R
C2 C 0.8337(4) 0.9793(4) 0.0997(3) 0.0350(8) Uani 1 1 d .
H2 H 0.9364 0.9869 0.0768 0.042 Uiso 1 1 calc R
C3 C 0.8080(4) 1.1110(4) 0.1583(3) 0.0377(8) Uani 1 1 d .
H3 H 0.8915 1.2093 0.1761 0.045 Uiso 1 1 calc R
C14 C 0.7314(4) 0.6105(3) 0.5149(3) 0.0311(7) Uani 1 1 d .
H14 H 0.7174 0.5069 0.4771 0.037 Uiso 1 1 calc R
C16 C 0.7317(4) 0.8073(4) 0.6859(3) 0.0299(7) Uani 1 1 d .
H16 H 0.7179 0.8386 0.7659 0.036 Uiso 1 1 calc R
C10 C 1.2722(4) 0.7387(3) 0.4232(3) 0.0288(7) Uani 1 1 d .
H10 H 1.3806 0.7739 0.4968 0.035 Uiso 1 1 calc R
C5 C 0.5338(4) 0.9558(4) 0.1660(3) 0.0381(8) Uani 1 1 d .
H5 H 0.4316 0.9497 0.1894 0.046 Uiso 1 1 calc R
C18 C 0.7888(4) 0.8673(3) 0.5060(3) 0.0276(7) Uani 1 1 d .
H18 H 0.8128 0.9383 0.4614 0.033 Uiso 1 1 calc R
C6 C 0.5596(4) 0.8242(4) 0.1074(3) 0.0371(8) Uani 1 1 d .
H6 H 0.4752 0.7264 0.0899 0.044 Uiso 1 1 calc R
loop_
_atom_site_aniso_label
_atom_site_aniso_U_11
_atom_site_aniso_U_22
_atom_site_aniso_U_33
_atom_site_aniso_U_23
_atom_site_aniso_U_13
_atom_site_aniso_U_12
S1 0.0230(4) 0.0361(4) 0.0229(4) 0.0104(3) 0.0092(3) 0.0105(4)
O3 0.0197(12) 0.0438(13) 0.0227(11) 0.0075(10) 0.0084(9) 0.0104(10)
F1 0.0441(13) 0.0446(12) 0.0503(12) 0.0119(10) 0.0203(11) 0.0239(10)
O2 0.0263(12) 0.0437(13) 0.0268(11) 0.0120(10) 0.0149(10) 0.0120(10)
C1 0.0210(16) 0.0362(17) 0.0203(15) 0.0141(13) 0.0072(13) 0.0133(14)
O1 0.0228(12) 0.0390(12) 0.0206(11) 0.0052(10) 0.0028(10) 0.0058(10)
C12 0.0177(16) 0.0270(15) 0.0266(16) 0.0104(13) 0.0062(13) 0.0073(13)
C13 0.0166(16) 0.0321(16) 0.0227(16) 0.0089(13) 0.0050(13) 0.0063(13)
N1 0.0227(14) 0.0243(13) 0.0224(13) 0.0039(11) 0.0040(11) 0.0017(11)
C11 0.0267(18) 0.0295(16) 0.0224(16) 0.0080(13) 0.0067(14) 0.0079(14)
C7 0.0188(16) 0.0248(15) 0.0234(16) 0.0077(13) 0.0071(13) 0.0074(13)
C4 0.0297(19) 0.0371(18) 0.0268(17) 0.0087(14) 0.0072(15) 0.0176(16)
C8 0.0271(18) 0.0309(16) 0.0294(17) 0.0103(14) 0.0125(15) 0.0143(14)
C15 0.0321(19) 0.0382(18) 0.0317(18) 0.0186(15) 0.0104(16) 0.0089(16)
C17 0.0245(18) 0.0324(17) 0.0317(18) 0.0100(14) 0.0082(15) 0.0090(14)
C9 0.0233(18) 0.0325(17) 0.0371(19) 0.0147(15) 0.0112(15) 0.0135(14)
C2 0.0233(18) 0.0377(19) 0.0378(19) 0.0062(15) 0.0102(16) 0.0067(15)
C3 0.0261(19) 0.0350(18) 0.045(2) 0.0062(16) 0.0117(17) 0.0070(15)
C14 0.0353(19) 0.0272(16) 0.0317(18) 0.0083(14) 0.0149(16) 0.0103(15)
C16 0.0257(18) 0.0397(18) 0.0262(17) 0.0108(15) 0.0106(15) 0.0126(15)
C10 0.0199(17) 0.0298(16) 0.0319(18) 0.0110(14) 0.0025(14) 0.0083(14)
C5 0.035(2) 0.0408(19) 0.051(2) 0.0165(17) 0.0259(18) 0.0184(17)
C18 0.0246(17) 0.0293(16) 0.0298(17) 0.0153(14) 0.0085(14) 0.0073(14)
C6 0.035(2) 0.0389(19) 0.049(2) 0.0192(17) 0.0252(18) 0.0145(16)
loop_
_atom_type_symbol
_atom_type_description
_atom_type_scat_dispersion_real
_atom_type_scat_dispersion_imag
_atom_type_scat_source
C C 0.0033 0.0016 'International Tables Vol C Tables 4.2.6.8 and 6.1.1.4'
H H 0.0000 0.0000 'International Tables Vol C Tables 4.2.6.8 and 6.1.1.4'
N N 0.0061 0.0033 'International Tables Vol C Tables 4.2.6.8 and 6.1.1.4'
O O 0.0106 0.0060 'International Tables Vol C Tables 4.2.6.8 and 6.1.1.4'
F F 0.0171 0.0103 'International Tables Vol C Tables 4.2.6.8 and 6.1.1.4'
S S 0.1246 0.1234 'International Tables Vol C Tables 4.2.6.8 and 6.1.1.4'
loop_
_geom_angle_atom_site_label_1
_geom_angle_atom_site_label_2
_geom_angle_atom_site_label_3
_geom_angle
O2 S1 O1 119.71(12)
O2 S1 N1 108.22(13)
O1 S1 N1 104.68(13)
O2 S1 C1 107.35(13)
O1 S1 C1 108.27(13)
N1 S1 C1 108.15(13)
C12 O3 C13 117.4(2)
C2 C1 C6 120.5(3)
C2 C1 S1 119.8(2)
C6 C1 S1 119.7(2)
C11 C12 O3 124.9(3)
C11 C12 C7 120.8(3)
O3 C12 C7 114.3(3)
C14 C13 C18 121.9(3)
C14 C13 O3 119.1(3)
C18 C13 O3 118.9(2)
C7 N1 S1 121.12(19)
C7 N1 H1 119.4
S1 N1 H1 119.4
C12 C11 C10 119.3(3)
C12 C11 H11 120.4
C10 C11 H11 120.4
C8 C7 C12 119.5(3)
C8 C7 N1 121.6(3)
C12 C7 N1 118.9(2)
F1 C4 C5 118.6(3)
F1 C4 C3 118.1(3)
C5 C4 C3 123.3(3)
C9 C8 C7 119.6(3)
C9 C8 H8 120.2
C7 C8 H8 120.2
C16 C15 C14 119.8(3)
C16 C15 H15 120.1
C14 C15 H15 120.1
C18 C17 C16 119.7(3)
C18 C17 H17 120.1
C16 C17 H17 120.1
C10 C9 C8 120.4(3)
C10 C9 H9 119.8
C8 C9 H9 119.8
C1 C2 C3 120.5(3)
C1 C2 H2 119.8
C3 C2 H2 119.8
C4 C3 C2 117.7(3)
C4 C3 H3 121.1
C2 C3 H3 121.1
C13 C14 C15 119.1(3)
C13 C14 H14 120.5
C15 C14 H14 120.5
C15 C16 C17 120.5(3)
C15 C16 H16 119.8
C17 C16 H16 119.8
C9 C10 C11 120.3(3)
C9 C10 H10 119.8
C11 C10 H10 119.8
C4 C5 C6 118.9(3)
C4 C5 H5 120.6
C6 C5 H5 120.6
C13 C18 C17 119.0(3)
C13 C18 H18 120.5
C17 C18 H18 120.5
C5 C6 C1 119.1(3)
C5 C6 H6 120.4
C1 C6 H6 120.4
loop_
_geom_bond_atom_site_label_1
_geom_bond_atom_site_label_2
_geom_bond_distance
S1 O2 1.428(2)
S1 O1 1.442(2)
S1 N1 1.639(2)
S1 C1 1.768(3)
O3 C12 1.385(3)
O3 C13 1.411(3)
F1 C4 1.365(3)
C1 C2 1.380(4)
C1 C6 1.393(4)
C12 C11 1.379(4)
C12 C7 1.394(4)
C13 C14 1.371(4)
C13 C18 1.378(4)
N1 C7 1.433(3)
N1 H1 0.8800
C11 C10 1.390(4)
C11 H11 0.9500
C7 C8 1.389(4)
C4 C5 1.366(4)
C4 C3 1.370(4)
C8 C9 1.387(4)
C8 H8 0.9500
C15 C16 1.379(4)
C15 C14 1.392(4)
C15 H15 0.9500
C17 C18 1.387(4)
C17 C16 1.389(4)
C17 H17 0.9500
C9 C10 1.380(4)
C9 H9 0.9500
C2 C3 1.386(4)
C2 H2 0.9500
C3 H3 0.9500
C14 H14 0.9500
C16 H16 0.9500
C10 H10 0.9500
C5 C6 1.387(4)
C5 H5 0.9500
C18 H18 0.9500
C6 H6 0.9500
loop_
_cod_related_entry_id
_cod_related_entry_database
_cod_related_entry_code
1 ChemSpider 785293
