#------------------------------------------------------------------------------
#$Date: 2016-03-24 03:08:50 +0200 (Thu, 24 Mar 2016) $
#$Revision: 179615 $
#$URL: svn://www.crystallography.net/cod/cif/4/50/79/4507992.cif $
#------------------------------------------------------------------------------
#
# This file is available in the Crystallography Open Database (COD),
# http://www.crystallography.net/
#
# All data on this site have been placed in the public domain by the
# contributors.
#
data_4507992
loop_
_publ_author_name
'Bhattacharya, Suman'
'Saraswatula, Viswanadha G.'
'Saha, Binoy K.'
_publ_section_title
;
 Thermal Expansion in Alkane Diacids---Another Property Showing
 Alternation in an Odd--Even Series
;
_journal_issue                   8
_journal_name_full               'Crystal Growth &amp; Design'
_journal_page_first              3651
_journal_paper_doi               10.1021/cg400668w
_journal_volume                  13
_journal_year                    2013
_chemical_formula_moiety         'C3 H4 O4'
_chemical_formula_sum            'C3 H4 O4'
_chemical_formula_weight         104.06
_chemical_name_common            C3-120-beta-polymorph
_chemical_name_systematic        '1,3-Propanoic acid'
_space_group_crystal_system      triclinic
_space_group_IT_number           2
_space_group_name_Hall           '-P 1'
_space_group_name_H-M_alt        'P -1'
_symmetry_space_group_name_Hall  '-P 1'
_symmetry_space_group_name_H-M   'P -1'
_atom_sites_solution_hydrogens   geom
_atom_sites_solution_primary     direct
_atom_sites_solution_secondary   difmap
_audit_creation_date             2012-11-19
_audit_creation_method
;
  Olex2 1.2
  (compiled 2012.05.09 svn.r2324, GUI svn.r4230)
;
_cell_angle_alpha                108.040(7)
_cell_angle_beta                 101.306(7)
_cell_angle_gamma                95.290(6)
_cell_formula_units_Z            2
_cell_length_a                   5.1539(4)
_cell_length_b                   5.3240(4)
_cell_length_c                   8.1688(7)
_cell_measurement_reflns_used    997
_cell_measurement_temperature    120(2)
_cell_measurement_theta_max      28.9421
_cell_measurement_theta_min      4.0628
_cell_volume                     206.16(3)
_computing_cell_refinement
;
CrysAlisPro, Agilent Technologies,
Version 1.171.36.21 (release 14-08-2012 CrysAlis171 .NET)
(compiled Sep 14 2012,17:21:16)
;
_computing_data_collection
;
CrysAlisPro, Agilent Technologies,
Version 1.171.36.21 (release 14-08-2012 CrysAlis171 .NET)
(compiled Sep 14 2012,17:21:16)
;
_computing_data_reduction
;
CrysAlisPro, Agilent Technologies,
Version 1.171.36.21 (release 14-08-2012 CrysAlis171 .NET)
(compiled Sep 14 2012,17:21:16)
;
_computing_molecular_graphics
;
O. V. Dolomanov, L. J. Bourhis, R. J. Gildea, J. A. K. Howard and H. Puschmann,
OLEX2: a complete structure solution, refinement and analysis program.
J. Appl. Cryst. (2009). 42, 339-341.
;
_computing_publication_material
;
O. V. Dolomanov, L. J. Bourhis, R. J. Gildea, J. A. K. Howard and H. Puschmann,
OLEX2: a complete structure solution, refinement and analysis program.
J. Appl. Cryst. (2009). 42, 339-341.
;
_computing_structure_refinement
;
SHELXL, G.M. Sheldrick, Acta Cryst.
(2008). A64, 112-122
;
_computing_structure_solution
;
SHELXS, G.M. Sheldrick, Acta Cryst.
(2008). A64, 112-122
;
_diffrn_ambient_temperature      120(2)
_diffrn_detector_area_resol_mean 15.9821
_diffrn_measured_fraction_theta_full 0.9940
_diffrn_measured_fraction_theta_max 0.9398
_diffrn_measurement_details
;
  1 omega   14.00   50.00   1.0000    1.5000
omega____ theta____ kappa____ phi______ frames
    -      -17.4178   57.0000   30.0000 36

  2 omega  -86.00    4.00   1.0000    1.5000
omega____ theta____ kappa____ phi______ frames
    -      -17.4178  -57.0000 -120.0000 90

  3 omega  -18.00   24.00   1.0000    1.5000
omega____ theta____ kappa____ phi______ frames
    -      -17.4178  -99.0000  150.0000 42

  4 omega  -72.00   11.00   1.0000    1.5000
omega____ theta____ kappa____ phi______ frames
    -      -17.4178  -19.0000  -90.0000 83

  5 omega  -38.00   -3.00   1.0000    1.5000
omega____ theta____ kappa____ phi______ frames
    -      -17.4178   57.0000   30.0000 35

  6 omega   41.00   71.00   1.0000    1.5000
omega____ theta____ kappa____ phi______ frames
    -       19.1366  178.0000 -120.0000 30

  7 omega   40.00   95.00   1.0000    1.5000
omega____ theta____ kappa____ phi______ frames
    -       19.1366 -178.0000 -180.0000 55

  8 omega  -86.00  -51.00   1.0000    1.5000
omega____ theta____ kappa____ phi______ frames
    -      -17.4178  -57.0000  120.0000 35

  9 omega  -38.00   51.00   1.0000    1.5000
omega____ theta____ kappa____ phi______ frames
    -      -17.4178   57.0000  -90.0000 89
;
_diffrn_measurement_device_type  'Xcalibur, Eos'
_diffrn_measurement_method       '\w scans'
_diffrn_orient_matrix_UB_11      -0.0220601000
_diffrn_orient_matrix_UB_12      -0.1332848000
_diffrn_orient_matrix_UB_13      -0.0599143000
_diffrn_orient_matrix_UB_21      -0.0999897000
_diffrn_orient_matrix_UB_22      -0.0367620000
_diffrn_orient_matrix_UB_23      0.0407225000
_diffrn_orient_matrix_UB_31      -0.0988980000
_diffrn_orient_matrix_UB_32      0.0332327000
_diffrn_orient_matrix_UB_33      -0.0599986000
_diffrn_radiation_monochromator  graphite
_diffrn_radiation_type           'Mo K\a'
_diffrn_radiation_wavelength     0.7107
_diffrn_reflns_av_R_equivalents  0.0142
_diffrn_reflns_av_unetI/netI     0.0196
_diffrn_reflns_limit_h_max       6
_diffrn_reflns_limit_h_min       -6
_diffrn_reflns_limit_k_max       7
_diffrn_reflns_limit_k_min       -7
_diffrn_reflns_limit_l_max       10
_diffrn_reflns_limit_l_min       -11
_diffrn_reflns_number            2013
_diffrn_reflns_theta_full        25.00
_diffrn_reflns_theta_max         28.97
_diffrn_reflns_theta_min         4.07
_diffrn_source                   'Enhance (Mo) X-ray Source'
_exptl_absorpt_coefficient_mu    0.162
_exptl_absorpt_correction_T_max  1.00000
_exptl_absorpt_correction_T_min  0.94539
_exptl_absorpt_correction_type   multi-scan
_exptl_absorpt_process_details
;
CrysAlisPro, Agilent Technologies,
Version 1.171.36.21 (release 14-08-2012 CrysAlis171 .NET)
(compiled Sep 14 2012,17:21:16)
Empirical absorption correction using spherical harmonics,
 implemented in SCALE3 ABSPACK scaling algorithm.
;
_exptl_crystal_colour            colourless
_exptl_crystal_density_diffrn    1.676
_exptl_crystal_density_method    'not measured'
_exptl_crystal_description       block
_exptl_crystal_F_000             108
_exptl_crystal_size_max          0.30
_exptl_crystal_size_mid          0.25
_exptl_crystal_size_min          0.12
_refine_diff_density_max         0.345
_refine_diff_density_min         -0.221
_refine_diff_density_rms         0.048
_refine_ls_extinction_method     none
_refine_ls_goodness_of_fit_ref   1.099
_refine_ls_hydrogen_treatment    mixed
_refine_ls_matrix_type           full
_refine_ls_number_parameters     72
_refine_ls_number_reflns         949
_refine_ls_number_restraints     0
_refine_ls_restrained_S_all      1.099
_refine_ls_R_factor_all          0.0338
_refine_ls_R_factor_gt           0.0314
_refine_ls_shift/su_max          0.000
_refine_ls_shift/su_mean         0.000
_refine_ls_structure_factor_coef Fsqd
_refine_ls_weighting_details
'calc w=1/[\s^2^(Fo^2^)+(0.0381P)^2^+0.0681P] where P=(Fo^2^+2Fc^2^)/3'
_refine_ls_weighting_scheme      calc
_refine_ls_wR_factor_gt          0.0802
_refine_ls_wR_factor_ref         0.0822
_reflns_number_gt                883
_reflns_number_total             949
_reflns_threshold_expression     >2sigma(I)
_cod_data_source_file            cg400668w_si_002.cif
_cod_data_source_block           C3-120
_cod_original_cell_volume        206.17(3)
_cod_database_code               4507992
loop_
_space_group_symop_id
_space_group_symop_operation_xyz
1 'x, y, z'
2 '-x, -y, -z'
loop_
_atom_site_label
_atom_site_type_symbol
_atom_site_fract_x
_atom_site_fract_y
_atom_site_fract_z
_atom_site_U_iso_or_equiv
_atom_site_adp_type
_atom_site_occupancy
_atom_site_symmetry_multiplicity
_atom_site_calc_flag
_atom_site_refinement_flags
O3 O 1.04351(16) 1.19254(16) 0.87537(11) 0.0159(2) Uani 1 1 d .
O4 O 0.66686(17) 1.32231(17) 0.94756(12) 0.0190(2) Uani 1 1 d .
O1 O 0.9147(2) 0.56262(19) 0.68546(12) 0.0262(3) Uani 1 1 d .
O2 O 0.7674(2) 0.7436(2) 0.48014(12) 0.0259(3) Uani 1 1 d .
C1 C 0.7836(2) 0.7138(2) 0.63496(15) 0.0144(2) Uani 1 1 d .
C3 C 0.8024(2) 1.1514(2) 0.86353(14) 0.0135(2) Uani 1 1 d .
C2 C 0.6262(2) 0.8894(2) 0.74696(15) 0.0158(3) Uani 1 1 d .
H2A H 0.5589 0.7986 0.8201 0.019 Uiso 1 1 calc R
H2B H 0.4739 0.9237 0.6710 0.019 Uiso 1 1 calc R
H4 H 0.769(4) 1.468(4) 1.010(3) 0.040(5) Uiso 1 1 d .
H2 H 0.873(4) 0.645(4) 0.425(3) 0.049(6) Uiso 1 1 d .
loop_
_atom_site_aniso_label
_atom_site_aniso_U_11
_atom_site_aniso_U_22
_atom_site_aniso_U_33
_atom_site_aniso_U_23
_atom_site_aniso_U_13
_atom_site_aniso_U_12
O3 0.0143(4) 0.0140(4) 0.0192(4) 0.0040(3) 0.0053(3) 0.0035(3)
O4 0.0161(4) 0.0133(4) 0.0241(5) -0.0007(4) 0.0079(3) 0.0031(3)
O1 0.0401(6) 0.0260(5) 0.0240(5) 0.0140(4) 0.0174(4) 0.0208(4)
O2 0.0349(6) 0.0327(5) 0.0171(4) 0.0107(4) 0.0109(4) 0.0216(4)
C1 0.0143(5) 0.0116(5) 0.0147(5) 0.0016(4) 0.0025(4) 0.0004(4)
C3 0.0162(5) 0.0132(5) 0.0130(5) 0.0057(4) 0.0049(4) 0.0044(4)
C2 0.0143(5) 0.0137(5) 0.0176(5) 0.0022(4) 0.0049(4) 0.0026(4)
loop_
_atom_type_symbol
_atom_type_description
_atom_type_scat_dispersion_real
_atom_type_scat_dispersion_imag
_atom_type_scat_source
C C 0.0033 0.0016 'International Tables Vol C Tables 4.2.6.8 and 6.1.1.4'
H H 0.0000 0.0000 'International Tables Vol C Tables 4.2.6.8 and 6.1.1.4'
O O 0.0106 0.0060 'International Tables Vol C Tables 4.2.6.8 and 6.1.1.4'
loop_
_geom_angle_atom_site_label_1
_geom_angle_atom_site_label_2
_geom_angle_atom_site_label_3
_geom_angle
C3 O4 H4 110.6(13)
C1 O2 H2 109.0(13)
O1 C1 O2 123.75(11)
O1 C1 C2 122.74(10)
O2 C1 C2 113.50(10)
O3 C3 O4 125.25(11)
O3 C3 C2 122.55(10)
O4 C3 C2 112.20(10)
C1 C2 C3 110.11(9)
C1 C2 H2A 109.6
C1 C2 H2B 109.6
C3 C2 H2A 109.6
C3 C2 H2B 109.6
H2A C2 H2B 108.2
loop_
_geom_bond_atom_site_label_1
_geom_bond_atom_site_label_2
_geom_bond_distance
O3 C3 1.2210(14)
O4 C3 1.3060(14)
O4 H4 0.85(2)
O1 C1 1.2131(15)
O2 C1 1.3102(14)
O2 H2 0.88(2)
C1 C2 1.5066(15)
C3 C2 1.5104(16)
C2 H2A 0.9700
C2 H2B 0.9700
loop_
_geom_torsion_atom_site_label_1
_geom_torsion_atom_site_label_2
_geom_torsion_atom_site_label_3
_geom_torsion_atom_site_label_4
_geom_torsion
O3 C3 C2 C1 -7.69(16)
O4 C3 C2 C1 172.45(9)
O1 C1 C2 C3 87.45(14)
O2 C1 C2 C3 -91.68(12)
