#------------------------------------------------------------------------------
#$Date: 2016-03-24 03:00:20 +0200 (Thu, 24 Mar 2016) $
#$Revision: 179608 $
#$URL: svn://www.crystallography.net/cod/cif/4/50/72/4507234.cif $
#------------------------------------------------------------------------------
#
# This file is available in the Crystallography Open Database (COD),
# http://www.crystallography.net/
#
# All data on this site have been placed in the public domain by the
# contributors.
#
data_4507234
loop_
_publ_author_name
'Zieli\'nski, Witold'
'Katrusiak, Andrzej'
_publ_section_title
;
 Hydrogen Bonds NH&#x00B7;&#x00B7;&#x00B7;N in Compressed Benzimidazole
 Polymorphs
;
_journal_issue                   2
_journal_name_full               'Crystal Growth &amp; Design'
_journal_page_first              696
_journal_paper_doi               10.1021/cg301374z
_journal_volume                  13
_journal_year                    2013
_chemical_formula_moiety         'C7 H6 N2'
_chemical_formula_sum            'C7 H6 N2'
_chemical_formula_weight         118.14
_chemical_melting_point          443
_chemical_name_common            'benzimidazole phase \alpha'
_chemical_name_systematic
; 
1,3-benzodiazole
;
_space_group_IT_number           33
_symmetry_cell_setting           orthorhombic
_symmetry_space_group_name_Hall  'P 2c -2n'
_symmetry_space_group_name_H-M   'P n a 21'
_atom_sites_solution_hydrogens   geom
_atom_sites_solution_primary     direct
_atom_sites_solution_secondary   difmap
_audit_creation_method           SHELXL-97
_cell_angle_alpha                90.00
_cell_angle_beta                 90.00
_cell_angle_gamma                90.00
_cell_formula_units_Z            4
_cell_length_a                   13.098(15)
_cell_length_b                   6.765(8)
_cell_length_c                   6.963(9)
_cell_measurement_reflns_used    2152
_cell_measurement_temperature    293(2)
_cell_measurement_theta_max      27.13
_cell_measurement_theta_min      3.39
_cell_volume                     617.0(13)
_computing_cell_refinement       'CrysAlisRED (Oxford Diffraction, 2004)'
_computing_data_collection       'CrysAlisCCD (Oxford Diffraction, 2004)'
_computing_data_reduction
'CrysAlisRED (Oxford Diffraction, 2004); REDSHABS (Katrusiak, A.  2003)'
_computing_molecular_graphics    'SHELXTL (Sheldrick, 1990)'
_computing_publication_material  'SHELXL--97 (Sheldrick, 1997)'
_computing_structure_refinement  'SHELXL--97 (Sheldrick, 1997)'
_computing_structure_solution    'SHELXS--97 (Sheldrick, 1997)'
_diffrn_ambient_environment      'diamond-anvil cell'
_diffrn_ambient_pressure         230000
_diffrn_ambient_temperature      296(2)
_diffrn_measured_fraction_theta_full 0.388
_diffrn_measured_fraction_theta_max 0.388
_diffrn_measurement_device_type  'KUMA KM-4 CCD'
_diffrn_measurement_method       '\f- and \w-scans'
_diffrn_radiation_monochromator  graphite
_diffrn_radiation_source         'fine-focus sealed tube'
_diffrn_radiation_type           MoK\a
_diffrn_radiation_wavelength     0.71073
_diffrn_reflns_av_R_equivalents  0.1215
_diffrn_reflns_av_sigmaI/netI    0.1331
_diffrn_reflns_limit_h_max       14
_diffrn_reflns_limit_h_min       -14
_diffrn_reflns_limit_k_max       7
_diffrn_reflns_limit_k_min       -7
_diffrn_reflns_limit_l_max       5
_diffrn_reflns_limit_l_min       -5
_diffrn_reflns_number            2152
_diffrn_reflns_theta_full        27.13
_diffrn_reflns_theta_max         27.13
_diffrn_reflns_theta_min         3.39
_diffrn_standards_decay_%        0
_diffrn_standards_interval_count 0
_diffrn_standards_number         0
_exptl_absorpt_coefficient_mu    0.080
_exptl_absorpt_correction_T_max  0.78
_exptl_absorpt_correction_T_min  0.66
_exptl_absorpt_correction_type   integration
_exptl_absorpt_process_details
;
 Correction for absorption of the diamond-anvil cell and the sample 
 were made using program REDSHABS (Katrusiak, A. (2003) REDSHABS. Adam
 Mickiewicz University Pozna\'n; Katrusiak, A. (2004) Z. Kristallogr.
 219, 461-467).
;
_exptl_crystal_colour            colourless
_exptl_crystal_density_diffrn    1.272
_exptl_crystal_density_method    'not measured'
_exptl_crystal_description       plate
_exptl_crystal_F_000             248
_exptl_crystal_size_max          0.40
_exptl_crystal_size_mid          0.35
_exptl_crystal_size_min          0.25
_refine_diff_density_max         0.215
_refine_diff_density_min         -0.191
_refine_diff_density_rms         0.053
_refine_ls_abs_structure_details 'Flack H D (1983), Acta Cryst. A39, 876-881'
_refine_ls_abs_structure_Flack   3(10)
_refine_ls_extinction_method     none
_refine_ls_goodness_of_fit_ref   1.114
_refine_ls_hydrogen_treatment    mixed
_refine_ls_matrix_type           full
_refine_ls_number_parameters     22
_refine_ls_number_reflns         530
_refine_ls_number_restraints     3
_refine_ls_restrained_S_all      1.111
_refine_ls_R_factor_all          0.1714
_refine_ls_R_factor_gt           0.1108
_refine_ls_shift/su_max          0.000
_refine_ls_shift/su_mean         0.000
_refine_ls_structure_factor_coef Fsqd
_refine_ls_weighting_details
'calc w=1/[\s^2^(Fo^2^)+(0.1391P)^2^+0.0000P] where P=(Fo^2^+2Fc^2^)/3'
_refine_ls_weighting_scheme      calc
_refine_ls_wR_factor_gt          0.2451
_refine_ls_wR_factor_ref         0.2758
_reflns_number_gt                358
_reflns_number_total             530
_reflns_threshold_expression     >2sigma(I)
_cod_data_source_file            cg301374z_si_002.cif
_cod_data_source_block           bzim_0.23GPa
_cod_original_cell_volume        617.0(12)
_cod_database_code               4507234
loop_
_symmetry_equiv_pos_as_xyz
'x, y, z'
'-x, -y, z+1/2'
'x+1/2, -y+1/2, z'
'-x+1/2, y+1/2, z+1/2'
loop_
_atom_site_label
_atom_site_type_symbol
_atom_site_fract_x
_atom_site_fract_y
_atom_site_fract_z
_atom_site_U_iso_or_equiv
_atom_site_adp_type
_atom_site_occupancy
_atom_site_symmetry_multiplicity
_atom_site_calc_flag
_atom_site_refinement_flags
N1 N 0.2500(6) 0.0736(9) 0.6744(17) 0.041(3) Uiso 1 1 d D
H1A H 0.2138 0.1310 0.5876 0.049 Uiso 1 1 calc R
C2 C 0.2389(7) -0.1127(12) 0.7386(14) 0.035(3) Uiso 1 1 d D
H2 H 0.1898 -0.1994 0.6916 0.042 Uiso 1 1 calc R
N3 N 0.3043(6) -0.1605(11) 0.8742(13) 0.043(3) Uiso 1 1 d D
C4 C 0.4501(4) 0.0399(6) 1.0099(8) 0.046(3) Uiso 1 1 d .
H4 H 0.4741 -0.0594 1.0904 0.055 Uiso 1 1 calc R
C5 C 0.4985(4) 0.2226(6) 1.0059(8) 0.052(4) Uiso 1 1 d R
H5 H 0.5550 0.2456 1.0837 0.062 Uiso 1 1 calc R
C6 C 0.4626(4) 0.3711(6) 0.8856(8) 0.052(4) Uiso 1 1 d R
H6 H 0.4950 0.4934 0.8829 0.062 Uiso 1 1 calc R
C7 C 0.3781(4) 0.3369(6) 0.7694(8) 0.040(3) Uiso 1 1 d R
H7 H 0.3541 0.4362 0.6889 0.048 Uiso 1 1 calc R
C8 C 0.3297(4) 0.1541(6) 0.7734(8) 0.022(3) Uiso 1 1 d R
C9 C 0.3656(4) 0.0056(6) 0.8937(8) 0.031(3) Uiso 1 1 d R
loop_
_atom_type_symbol
_atom_type_description
_atom_type_scat_dispersion_real
_atom_type_scat_dispersion_imag
_atom_type_scat_source
C C 0.0033 0.0016 'International Tables Vol C Tables 4.2.6.8 and 6.1.1.4'
H H 0.0000 0.0000 'International Tables Vol C Tables 4.2.6.8 and 6.1.1.4'
N N 0.0061 0.0033 'International Tables Vol C Tables 4.2.6.8 and 6.1.1.4'
loop_
_geom_angle_atom_site_label_1
_geom_angle_atom_site_label_2
_geom_angle_atom_site_label_3
_geom_angle
C2 N1 C8 106.8(8)
C2 N1 H1A 126.6
C8 N1 H1A 126.6
N3 C2 N1 113.5(9)
N3 C2 H2 123.3
N1 C2 H2 123.3
C2 N3 C9 104.4(8)
C5 C4 C9 120.0
C5 C4 H4 120.0
C9 C4 H4 120.0
C6 C5 C4 120.0
C6 C5 H5 120.0
C4 C5 H5 120.0
C5 C6 C7 120.0
C5 C6 H6 120.0
C7 C6 H6 120.0
C8 C7 C6 120.0
C8 C7 H7 120.0
C6 C7 H7 120.0
N1 C8 C7 134.0(4)
N1 C8 C9 106.0(4)
C7 C8 C9 120.0
N3 C9 C8 109.3(4)
N3 C9 C4 130.7(4)
C8 C9 C4 120.0
loop_
_geom_bond_atom_site_label_1
_geom_bond_atom_site_label_2
_geom_bond_distance
N1 C2 1.346(8)
N1 C8 1.364(10)
N1 H1A 0.8600
C2 N3 1.315(8)
C2 H2 0.9300
N3 C9 1.388(9)
C4 C5 1.3900
C4 C9 1.3901
C4 H4 0.9300
C5 C6 1.3900
C5 H5 0.9300
C6 C7 1.3901
C6 H6 0.9300
C7 C8 1.3899
C7 H7 0.9300
C8 C9 1.3900
loop_
_refln_index_h
_refln_index_k
_refln_index_l
_refln_F_squared_calc
_refln_F_squared_meas
_refln_F_squared_sigma
_refln_observed_status
12 1 -5 6.05 41.57 41.85 o
13 1 -5 7.42 35.51 30.66 o
9 2 -5 42.33 12.43 30.71 o
10 2 -5 7.43 21.79 38.58 o
11 2 -5 6.76 43.32 36.57 o
12 2 -5 1.43 35.80 28.50 o
8 3 -5 41.14 35.31 20.02 o
9 3 -5 25.64 23.70 18.37 o
10 3 -5 20.01 54.65 20.07 o
11 3 -5 32.60 41.81 20.71 o
6 4 -5 85.67 70.06 24.77 o
7 4 -5 4.45 21.86 22.98 o
8 4 -5 8.49 59.40 27.51 o
9 4 -5 15.25 38.73 18.71 o
10 4 -5 4.23 29.92 21.84 o
5 5 -5 23.34 24.22 16.54 o
6 5 -5 7.84 21.47 20.53 o
7 5 -5 1.56 24.40 22.92 o
5 6 -5 4.83 32.58 21.90 o
6 6 -5 2.91 72.05 32.58 o
8 0 -4 91.27 40.90 20.09 o
10 0 -4 31.82 29.08 19.81 o
12 0 -4 57.82 39.17 20.95 o
7 1 -4 15.42 13.49 25.26 o
8 1 -4 8.54 9.03 10.88 o
9 1 -4 109.69 80.61 21.86 o
10 1 -4 3.21 24.95 13.87 o
11 1 -4 9.89 24.73 19.37 o
5 2 -4 14.51 20.46 10.67 o
6 2 -4 51.86 31.45 15.59 o
7 2 -4 495.46 418.92 22.26 o
8 2 -4 180.42 151.96 16.82 o
9 2 -4 56.98 32.81 16.37 o
10 2 -4 7.37 26.77 18.08 o
11 2 -4 3.23 27.38 20.95 o
4 3 -4 5.32 8.61 18.54 o
5 3 -4 11.14 11.99 9.74 o
6 3 -4 6.08 17.42 13.64 o
7 3 -4 92.74 74.73 17.27 o
8 3 -4 4.03 29.95 17.03 o
9 3 -4 22.59 35.45 17.30 o
10 3 -4 2.44 22.48 26.38 o
3 4 -4 121.44 102.57 24.05 o
4 4 -4 139.37 122.74 15.88 o
5 4 -4 8.31 22.99 39.01 o
6 4 -4 21.63 22.13 13.82 o
7 4 -4 5.82 33.08 15.22 o
8 4 -4 44.37 71.82 29.57 o
1 5 -4 4.85 29.16 22.50 o
2 5 -4 52.76 47.19 19.35 o
3 5 -4 27.76 44.94 19.27 o
4 5 -4 131.96 125.38 21.31 o
5 5 -4 16.94 33.26 18.19 o
6 5 -4 16.28 42.25 19.12 o
7 5 -4 6.94 35.27 23.24 o
0 6 -4 24.93 35.82 24.49 o
1 6 -4 7.05 42.78 28.55 o
2 6 -4 17.28 32.79 20.35 o
3 6 -4 4.78 21.16 24.43 o
1 7 -4 4.79 46.67 35.65 o
2 7 -4 17.12 63.73 37.29 o
6 0 -3 128.46 122.66 17.26 o
8 0 -3 7.97 26.03 8.22 o
10 0 -3 58.71 46.49 16.93 o
4 1 -3 479.51 474.77 31.99 o
5 1 -3 932.30 1007.02 17.98 o
6 1 -3 108.42 93.59 20.27 o
7 1 -3 47.27 40.70 9.31 o
8 1 -3 24.62 35.83 9.72 o
9 1 -3 70.35 58.78 9.34 o
10 1 -3 42.58 35.84 9.96 o
11 1 -3 56.85 34.88 12.15 o
12 1 -3 4.49 31.02 21.98 o
13 1 -3 55.39 29.14 37.72 o
2 2 -3 145.95 104.14 16.02 o
3 2 -3 48.96 41.58 12.08 o
4 2 -3 14.50 16.59 8.34 o
5 2 -3 391.46 343.51 22.54 o
6 2 -3 192.66 168.47 11.37 o
7 2 -3 72.41 39.94 10.32 o
8 2 -3 7.92 22.09 10.45 o
9 2 -3 41.49 46.44 12.85 o
10 2 -3 20.12 5.08 26.24 o
11 2 -3 6.98 28.56 13.44 o
12 2 -3 4.93 36.90 16.57 o
13 2 -3 11.79 17.60 30.34 o
1 3 -3 55.20 19.01 18.01 o
2 3 -3 136.27 177.24 20.95 o
3 3 -3 27.68 29.23 14.53 o
4 3 -3 58.33 36.87 13.23 o
5 3 -3 13.21 28.60 13.21 o
6 3 -3 116.88 72.29 18.33 o
7 3 -3 62.14 57.77 17.18 o
8 3 -3 13.95 22.34 18.43 o
11 3 -3 45.03 36.51 28.71 o
12 3 -3 0.09 47.65 30.97 o
13 3 -3 10.83 45.27 39.93 o
14 3 -3 6.27 21.21 43.03 o
1 4 -3 3.04 20.99 9.36 o
2 4 -3 85.37 87.41 12.87 o
3 4 -3 23.94 28.35 8.09 o
4 4 -3 16.67 24.11 13.94 o
5 4 -3 66.87 52.65 15.62 o
6 4 -3 194.31 206.06 45.12 o
0 5 -3 179.13 229.60 19.33 o
1 5 -3 121.79 131.89 11.85 o
2 5 -3 40.91 49.40 12.64 o
3 5 -3 16.02 21.37 12.50 o
4 5 -3 95.91 88.59 23.42 o
5 5 -3 4.68 60.22 33.79 o
1 6 -3 19.01 33.28 12.41 o
2 6 -3 32.67 39.98 13.00 o
3 6 -3 11.67 17.92 19.78 o
0 7 -3 57.93 69.06 39.01 o
1 7 -3 28.38 33.05 22.84 o
2 7 -3 10.50 32.91 21.56 o
3 7 -3 10.76 28.16 26.09 o
4 0 -2 603.02 590.77 21.15 o
6 0 -2 626.18 629.16 23.49 o
8 0 -2 161.39 127.21 26.54 o
10 0 -2 63.60 32.17 23.32 o
2 1 -2 501.62 578.04 21.47 o
3 1 -2 1076.68 1095.05 21.28 o
4 1 -2 519.72 520.43 55.97 o
5 1 -2 20.90 19.01 4.47 o
6 1 -2 39.42 61.53 5.21 o
7 1 -2 13.04 27.22 5.62 o
8 1 -2 55.93 46.08 8.29 o
9 1 -2 25.18 31.08 13.56 o
10 1 -2 8.65 33.01 14.81 o
0 2 -2 38.07 42.73 15.80 o
1 2 -2 523.07 522.96 60.30 o
2 2 -2 143.59 123.62 9.33 o
3 2 -2 80.29 64.26 5.93 o
4 2 -2 523.18 450.53 47.26 o
5 2 -2 247.22 214.62 23.33 o
6 2 -2 30.31 29.73 8.70 o
7 2 -2 122.98 98.47 14.47 o
8 2 -2 105.29 103.40 12.14 o
9 2 -2 27.04 33.17 14.86 o
10 2 -2 21.52 25.87 12.57 o
11 2 -2 31.81 45.29 18.21 o
12 2 -2 48.48 28.83 19.84 o
1 3 -2 43.91 47.98 4.87 o
2 3 -2 4.80 12.98 4.77 o
3 3 -2 59.40 72.50 10.71 o
4 3 -2 79.57 61.00 9.28 o
5 3 -2 213.36 165.51 15.36 o
7 3 -2 110.03 122.24 19.24 o
8 3 -2 18.03 37.13 14.09 o
9 3 -2 184.03 147.18 20.46 o
10 3 -2 4.54 22.74 11.48 o
11 3 -2 66.37 33.39 19.92 o
12 3 -2 0.76 20.18 15.98 o
0 4 -2 669.05 773.34 37.07 o
1 4 -2 0.17 6.22 5.95 o
2 4 -2 33.77 31.79 9.25 o
3 4 -2 27.10 28.62 10.11 o
4 4 -2 48.23 32.74 11.65 o
9 4 -2 23.25 36.06 15.86 o
10 4 -2 20.39 34.71 18.02 o
11 4 -2 39.62 40.94 21.46 o
12 4 -2 12.54 21.95 19.37 o
13 4 -2 10.06 34.85 25.04 o
1 5 -2 68.53 70.58 11.89 o
2 5 -2 124.10 120.09 11.07 o
3 5 -2 25.62 34.47 11.62 o
4 5 -2 33.35 92.61 32.09 o
5 5 -2 0.35 12.69 16.51 o
0 6 -2 216.95 162.13 26.74 o
1 6 -2 1.96 20.65 23.56 o
2 6 -2 50.58 95.46 26.07 o
3 6 -2 49.40 38.09 15.29 o
4 6 -2 36.02 45.28 14.05 o
5 6 -2 4.14 21.66 12.24 o
6 6 -2 50.22 24.03 28.71 o
3 7 -2 32.12 35.68 27.08 o
4 7 -2 6.07 27.90 26.17 o
5 7 -2 22.73 37.46 25.64 o
6 7 -2 25.24 54.05 37.43 o
2 0 -1 6181.35 6385.27 222.55 o
4 0 -1 206.61 211.15 10.65 o
6 0 -1 420.60 293.40 22.13 o
0 1 -1 988.39 967.48 89.01 o
1 1 -1 2650.67 2470.27 125.43 o
2 1 -1 2073.73 2096.81 225.33 o
3 1 -1 2057.69 2232.54 111.61 o
4 1 -1 407.54 358.46 13.85 o
5 1 -1 153.74 117.80 5.83 o
6 1 -1 104.64 86.73 10.66 o
7 1 -1 160.19 127.47 9.20 o
8 1 -1 75.16 29.16 22.86 o
9 1 -1 24.46 13.49 17.25 o
1 2 -1 232.96 260.07 7.50 o
2 2 -1 201.82 193.82 9.25 o
3 2 -1 51.84 67.36 5.29 o
4 2 -1 197.55 215.59 10.65 o
5 2 -1 68.82 62.46 8.93 o
6 2 -1 41.45 52.34 9.37 o
7 2 -1 19.06 36.44 9.03 o
8 2 -1 36.99 24.28 8.06 o
9 2 -1 25.45 21.47 11.01 o
10 2 -1 17.51 16.81 19.40 o
0 3 -1 237.29 259.84 9.79 o
1 3 -1 119.70 116.61 7.03 o
2 3 -1 38.71 48.51 4.87 o
3 3 -1 768.43 812.42 25.59 o
4 3 -1 85.96 91.66 6.85 o
5 3 -1 18.44 17.50 5.46 o
6 3 -1 8.22 15.91 6.09 o
7 3 -1 156.45 109.15 10.96 o
8 3 -1 73.61 62.32 12.06 o
9 3 -1 216.00 120.81 18.52 o
10 3 -1 31.88 39.51 15.18 o
11 3 -1 30.64 12.95 29.88 o
1 4 -1 27.46 25.04 7.05 o
2 4 -1 61.67 76.04 7.45 o
3 4 -1 34.40 27.00 6.12 o
4 4 -1 12.52 14.31 6.29 o
5 4 -1 5.00 16.47 7.64 o
6 4 -1 76.00 77.51 9.49 o
7 4 -1 38.31 28.43 7.62 o
8 4 -1 27.02 29.79 11.92 o
9 4 -1 61.32 46.13 14.58 o
10 4 -1 26.01 31.62 12.74 o
11 4 -1 21.06 25.02 17.38 o
1 5 -1 84.58 62.98 18.56 o
2 5 -1 83.07 103.08 13.47 o
3 5 -1 82.33 116.58 16.73 o
4 5 -1 114.38 122.80 16.47 o
5 5 -1 70.29 88.03 14.90 o
6 5 -1 66.27 55.87 14.30 o
7 5 -1 73.48 74.35 18.35 o
8 5 -1 16.43 23.94 13.43 o
9 5 -1 28.33 44.67 17.77 o
10 5 -1 7.11 43.39 14.89 o
11 5 -1 10.44 23.02 22.26 o
12 5 -1 3.14 26.40 26.26 o
3 6 -1 34.41 43.94 24.40 o
4 6 -1 56.72 66.25 19.47 o
5 6 -1 9.81 20.67 11.17 o
6 6 -1 3.06 18.46 13.80 o
7 6 -1 0.64 31.95 20.15 o
8 6 -1 4.11 41.99 15.08 o
12 6 -1 0.33 18.44 26.50 o
7 7 -1 24.76 44.72 44.92 o
8 7 -1 13.79 39.75 19.52 o
1 1 0 442.37 491.91 7.03 o
2 1 0 866.36 869.02 14.14 o
3 1 0 303.28 265.20 21.32 o
4 1 0 103.81 125.72 17.41 o
5 1 0 26.25 15.82 5.36 o
1 2 0 201.94 254.84 9.87 o
2 2 0 47.47 50.55 3.56 o
3 2 0 54.43 51.66 3.39 o
4 2 0 2.72 9.68 2.68 o
5 2 0 13.32 16.35 3.92 o
6 2 0 315.36 260.56 25.71 o
1 3 0 232.47 266.80 11.15 o
2 3 0 147.31 203.79 6.61 o
4 3 0 59.44 45.80 5.08 o
5 3 0 565.22 542.33 17.87 o
6 3 0 53.48 41.26 5.73 o
7 3 0 15.66 14.76 6.32 o
8 3 0 17.56 26.06 10.29 o
2 4 0 436.23 421.48 27.41 o
4 4 0 58.11 61.71 7.95 o
5 4 0 88.80 92.41 7.45 o
6 4 0 24.29 31.44 7.28 o
7 4 0 23.36 25.90 7.86 o
8 4 0 18.85 21.54 8.02 o
9 4 0 10.55 21.56 11.91 o
4 5 0 0.39 21.78 13.69 o
5 5 0 33.55 39.80 8.47 o
6 5 0 34.81 52.38 10.66 o
8 5 0 13.87 36.01 10.34 o
9 5 0 2.08 15.56 17.13 o
6 6 0 93.61 102.42 36.80 o
7 6 0 1.81 20.65 15.78 o
8 6 0 18.37 36.18 15.30 o
9 6 0 32.47 29.62 13.23 o
10 6 0 4.60 30.10 16.23 o
2 0 1 6181.21 6248.43 164.59 o
4 0 1 206.44 244.05 9.60 o
6 0 1 420.94 463.40 13.56 o
0 1 1 988.72 868.05 38.68 o
1 1 1 2650.96 2662.38 70.46 o
2 1 1 2073.66 2309.07 65.41 o
3 1 1 2057.40 2272.98 44.88 o
4 1 1 407.51 412.48 12.39 o
5 1 1 153.67 152.54 4.66 o
6 1 1 104.55 97.06 7.12 o
7 1 1 160.21 179.65 8.44 o
8 1 1 75.18 90.94 9.38 o
9 1 1 24.51 23.05 13.61 o
1 2 1 232.93 256.66 7.90 o
2 2 1 201.72 186.87 21.03 o
3 2 1 51.94 63.75 5.97 o
4 2 1 197.70 247.27 15.83 o
5 2 1 68.94 75.89 8.98 o
6 2 1 41.41 56.27 7.14 o
7 2 1 19.09 36.87 8.98 o
8 2 1 37.00 25.84 7.55 o
9 2 1 25.44 27.88 15.47 o
10 2 1 17.51 22.59 14.31 o
0 3 1 237.28 258.66 7.22 o
1 3 1 119.52 103.27 5.35 o
2 3 1 38.62 45.53 4.47 o
3 3 1 768.30 576.87 14.54 o
4 3 1 85.85 68.25 8.37 o
5 3 1 18.46 21.03 4.54 o
6 3 1 8.26 15.26 4.99 o
7 3 1 156.37 131.64 10.71 o
8 3 1 73.51 83.12 10.99 o
9 3 1 216.02 166.53 15.21 o
10 3 1 31.94 40.42 19.37 o
11 3 1 30.68 27.17 18.76 o
1 4 1 27.45 40.25 5.33 o
2 4 1 61.64 67.37 6.31 o
3 4 1 34.46 33.37 5.66 o
4 4 1 12.52 32.40 10.80 o
5 4 1 5.01 41.77 22.51 o
6 4 1 76.03 66.67 10.34 o
7 4 1 38.33 30.67 9.10 o
8 4 1 27.02 32.94 13.71 o
9 4 1 61.31 72.51 15.79 o
10 4 1 26.00 34.62 15.05 o
11 4 1 21.06 44.99 19.83 o
1 5 1 84.56 87.51 11.78 o
2 5 1 83.00 116.17 12.66 o
3 5 1 82.39 97.68 14.53 o
4 5 1 114.43 101.36 16.61 o
5 5 1 70.31 46.98 12.30 o
6 5 1 66.32 41.30 15.05 o
7 5 1 73.50 62.30 13.18 o
8 5 1 16.45 38.56 13.77 o
9 5 1 28.30 30.39 18.98 o
10 5 1 7.11 35.20 14.13 o
11 5 1 10.44 47.89 18.42 o
12 5 1 3.14 28.16 24.32 o
3 6 1 34.41 55.00 31.29 o
4 6 1 56.70 43.20 23.22 o
5 6 1 9.81 27.01 13.38 o
6 6 1 3.06 34.32 12.87 o
7 6 1 0.64 23.60 17.28 o
8 6 1 4.11 62.55 33.54 o
12 6 1 0.32 32.02 27.84 o
6 7 1 2.90 19.49 37.23 o
7 7 1 24.74 108.02 42.83 o
8 7 1 13.77 62.33 36.89 o
4 0 2 602.58 573.34 14.26 o
6 0 2 626.15 721.21 21.97 o
8 0 2 161.58 182.07 19.25 o
10 0 2 63.69 59.87 12.24 o
2 1 2 501.85 507.52 25.78 o
3 1 2 1076.73 1047.83 42.52 o
4 1 2 519.89 501.61 23.98 o
5 1 2 20.85 18.13 3.67 o
6 1 2 39.36 60.99 4.04 o
7 1 2 13.05 30.28 4.17 o
8 1 2 55.93 62.37 6.38 o
9 1 2 25.18 28.60 11.32 o
10 1 2 8.65 28.60 11.48 o
11 1 2 74.31 47.56 24.37 o
0 2 2 37.95 40.02 9.14 o
1 2 2 522.65 538.85 14.84 o
2 2 2 143.53 158.39 8.16 o
3 2 2 80.31 100.43 5.66 o
4 2 2 523.30 672.89 20.37 o
5 2 2 247.10 313.76 11.34 o
6 2 2 30.29 34.31 6.08 o
7 2 2 123.02 113.02 8.78 o
8 2 2 105.31 103.31 10.63 o
9 2 2 27.04 42.65 11.15 o
10 2 2 21.53 19.37 11.28 o
11 2 2 31.83 44.36 15.60 o
12 2 2 48.48 38.13 22.14 o
1 3 2 43.91 46.29 4.08 o
2 3 2 4.80 20.25 6.66 o
3 3 2 59.36 97.79 6.37 o
4 3 2 79.60 92.02 8.29 o
5 3 2 213.33 199.52 13.26 o
7 3 2 110.01 127.70 15.80 o
8 3 2 18.04 32.45 11.25 o
9 3 2 184.03 142.50 14.72 o
10 3 2 4.53 30.54 14.72 o
11 3 2 66.37 55.88 19.72 o
12 3 2 0.76 24.42 18.91 o
0 4 2 668.88 663.00 51.60 o
1 4 2 0.18 10.39 5.41 o
2 4 2 33.74 33.51 6.28 o
3 4 2 27.08 24.73 6.35 o
4 4 2 48.24 30.91 7.42 o
9 4 2 23.26 29.94 20.31 o
10 4 2 20.42 36.68 17.88 o
11 4 2 39.54 67.49 18.84 o
12 4 2 12.56 44.18 19.53 o
13 4 2 10.04 42.24 17.07 o
1 5 2 68.54 59.19 9.12 o
2 5 2 124.19 129.56 16.08 o
3 5 2 25.62 24.84 11.96 o
4 5 2 33.38 39.66 13.45 o
0 6 2 216.79 244.31 46.59 o
1 6 2 1.96 36.57 21.28 o
2 6 2 50.60 44.35 22.61 o
3 6 2 49.41 40.29 13.67 o
4 6 2 36.08 27.09 14.12 o
5 6 2 4.14 24.43 17.31 o
6 6 2 50.25 27.53 34.73 o
3 7 2 32.12 68.94 22.35 o
4 7 2 6.08 45.01 23.85 o
5 7 2 22.70 56.35 27.38 o
6 7 2 25.22 31.78 39.76 o
6 0 3 128.53 115.65 7.59 o
8 0 3 7.98 12.56 7.68 o
10 0 3 58.70 41.20 12.89 o
12 0 3 22.22 35.94 23.91 o
4 1 3 479.29 379.82 28.93 o
5 1 3 932.50 1007.58 38.70 o
6 1 3 108.40 104.93 9.41 o
7 1 3 47.16 45.63 6.74 o
8 1 3 24.65 30.69 8.82 o
9 1 3 70.34 69.45 10.34 o
10 1 3 42.56 56.29 10.98 o
11 1 3 56.91 64.84 12.82 o
12 1 3 4.49 48.61 24.41 o
13 1 3 55.45 51.84 38.95 o
2 2 3 145.95 120.43 16.42 o
3 2 3 49.03 56.61 7.16 o
4 2 3 14.51 21.34 5.79 o
5 2 3 391.56 429.17 22.90 o
6 2 3 192.70 223.32 12.69 o
7 2 3 72.44 54.55 11.81 o
8 2 3 7.93 24.64 8.83 o
9 2 3 41.49 36.92 8.71 o
10 2 3 20.12 33.66 12.91 o
11 2 3 6.99 34.46 14.68 o
12 2 3 4.94 16.46 14.93 o
13 2 3 11.77 33.79 22.01 o
1 3 3 55.08 48.40 6.46 o
2 3 3 136.28 143.88 12.12 o
3 3 3 27.65 49.90 10.86 o
4 3 3 58.21 62.85 8.51 o
5 3 3 13.22 34.64 12.46 o
6 3 3 116.81 142.09 16.17 o
7 3 3 62.09 52.76 16.91 o
8 3 3 13.91 63.38 23.16 o
11 3 3 45.06 63.27 39.64 o
12 3 3 0.09 31.69 20.71 o
13 3 3 10.83 67.60 45.99 o
14 3 3 6.26 43.49 29.51 o
1 4 3 3.04 24.41 7.62 o
2 4 3 85.32 79.73 13.59 o
3 4 3 23.94 26.42 8.86 o
4 4 3 16.65 40.75 13.86 o
5 4 3 66.89 73.45 13.36 o
6 4 3 194.32 269.94 24.12 o
0 5 3 179.22 185.24 22.85 o
1 5 3 121.87 99.39 11.44 o
2 5 3 40.87 43.24 8.60 o
3 5 3 16.01 25.37 16.75 o
4 5 3 95.98 129.01 21.46 o
5 5 3 4.68 12.17 28.02 o
1 6 3 19.01 34.43 12.34 o
2 6 3 32.64 60.61 18.97 o
3 6 3 11.67 14.67 20.07 o
0 7 3 57.94 80.58 39.79 o
1 7 3 28.37 12.41 23.26 o
2 7 3 10.51 34.47 21.49 o
3 7 3 10.74 41.61 23.70 o
8 0 4 91.26 141.72 38.32 o
10 0 4 31.81 17.84 17.13 o
12 0 4 57.88 33.69 19.97 o
7 1 4 15.40 22.66 18.16 o
8 1 4 8.53 25.57 11.55 o
9 1 4 109.70 101.97 16.08 o
10 1 4 3.21 16.82 22.10 o
11 1 4 9.89 33.66 14.26 o
5 2 4 14.52 11.93 9.48 o
6 2 4 51.91 34.78 12.71 o
7 2 4 495.37 476.70 26.21 o
8 2 4 180.38 219.80 18.13 o
9 2 4 56.97 65.00 13.89 o
10 2 4 7.39 29.00 15.47 o
11 2 4 3.22 22.34 23.11 o
4 3 4 5.32 27.19 13.49 o
5 3 4 11.10 20.51 9.96 o
6 3 4 6.08 26.75 29.02 o
7 3 4 92.75 93.43 14.01 o
8 3 4 4.03 36.69 16.29 o
9 3 4 22.60 27.23 21.40 o
10 3 4 2.44 40.08 26.62 o
2 4 4 114.35 58.73 22.65 o
3 4 4 121.39 107.41 15.06 o
4 4 4 139.35 111.29 20.65 o
5 4 4 8.33 23.93 15.69 o
6 4 4 21.62 30.79 14.00 o
7 4 4 5.85 31.71 12.49 o
8 4 4 44.38 50.34 18.27 o
1 5 4 4.86 13.60 17.65 o
2 5 4 52.79 77.49 20.49 o
3 5 4 27.76 39.32 17.82 o
4 5 4 131.98 97.46 47.01 o
5 5 4 16.93 39.42 15.59 o
6 5 4 16.26 41.01 17.61 o
7 5 4 6.94 17.13 21.00 o
0 6 4 24.92 60.37 40.47 o
1 6 4 7.06 28.24 19.29 o
2 6 4 17.26 36.93 18.33 o
3 6 4 4.78 25.63 17.21 o
1 7 4 4.79 24.92 39.70 o
12 1 5 6.03 52.65 41.16 o
13 1 5 7.42 44.78 38.72 o
10 2 5 7.43 42.91 28.85 o
11 2 5 6.77 24.11 30.40 o
12 2 5 1.43 42.45 37.58 o
8 3 5 41.15 22.29 20.75 o
9 3 5 25.65 26.14 18.00 o
10 3 5 19.97 47.38 18.93 o
11 3 5 32.59 53.19 19.87 o
6 4 5 85.68 110.34 35.33 o
7 4 5 4.44 28.96 25.30 o
8 4 5 8.48 89.85 55.00 o
9 4 5 15.25 28.36 17.58 o
10 4 5 4.23 29.24 20.86 o
5 5 5 23.37 50.58 41.91 o
6 5 5 7.84 28.65 24.80 o
7 5 5 1.57 33.82 23.65 o
5 6 5 4.83 24.79 25.34 o
6 6 5 2.90 52.16 29.25 o
