#------------------------------------------------------------------------------
#$Date: 2016-03-24 03:08:50 +0200 (Thu, 24 Mar 2016) $
#$Revision: 179615 $
#$URL: svn://www.crystallography.net/cod/cif/4/50/79/4507989.cif $
#------------------------------------------------------------------------------
#
# This file is available in the Crystallography Open Database (COD),
# http://www.crystallography.net/
#
# All data on this site have been placed in the public domain by the
# contributors.
#
data_4507989
loop_
_publ_author_name
'Bhattacharya, Suman'
'Saraswatula, Viswanadha G.'
'Saha, Binoy K.'
_publ_section_title
;
 Thermal Expansion in Alkane Diacids---Another Property Showing
 Alternation in an Odd--Even Series
;
_journal_issue                   8
_journal_name_full               'Crystal Growth &amp; Design'
_journal_page_first              3651
_journal_paper_doi               10.1021/cg400668w
_journal_volume                  13
_journal_year                    2013
_chemical_formula_moiety         'C2 H2 O4'
_chemical_formula_sum            'C2 H2 O4'
_chemical_formula_weight         90.04
_chemical_name_common            C2-beta-polymorph
_chemical_name_systematic        'Ethane-1,2-dioic acid'
_space_group_crystal_system      monoclinic
_space_group_IT_number           14
_space_group_name_Hall           '-P 2ybc'
_space_group_name_H-M_alt        'P 1 21/c 1'
_symmetry_space_group_name_Hall  '-P 2ybc'
_symmetry_space_group_name_H-M   'P 1 21/c 1'
_atom_sites_solution_hydrogens   geom
_atom_sites_solution_primary     direct
_atom_sites_solution_secondary   difmap
_audit_creation_date             2012-11-21
_audit_creation_method
;
  Olex2 1.2-ac2
  (compiled 2012.03.27 svn.r2268, GUI svn.r4156)
;
_cell_angle_alpha                90.00
_cell_angle_beta                 115.99(3)
_cell_angle_gamma                90.00
_cell_formula_units_Z            2
_cell_length_a                   5.3333(12)
_cell_length_b                   5.9723(8)
_cell_length_c                   5.4187(11)
_cell_measurement_reflns_used    469
_cell_measurement_temperature    228(2)
_cell_measurement_theta_max      28.7477
_cell_measurement_theta_min      5.4446
_cell_volume                     155.14(6)
_computing_cell_refinement
;
CrysAlisPro, Agilent Technologies,
Version 1.171.36.21 (release 14-08-2012 CrysAlis171 .NET)
(compiled Sep 14 2012,17:21:16)
;
_computing_data_collection
;
CrysAlisPro, Agilent Technologies,
Version 1.171.36.21 (release 14-08-2012 CrysAlis171 .NET)
(compiled Sep 14 2012,17:21:16)
;
_computing_data_reduction
;
CrysAlisPro, Agilent Technologies,
Version 1.171.36.21 (release 14-08-2012 CrysAlis171 .NET)
(compiled Sep 14 2012,17:21:16)
;
_computing_molecular_graphics
;
O. V. Dolomanov, L. J. Bourhis, R. J. Gildea, J. A. K. Howard and H. Puschmann,
OLEX2: a complete structure solution, refinement and analysis program.
J. Appl. Cryst. (2009). 42, 339-341.
;
_computing_publication_material
;
O. V. Dolomanov, L. J. Bourhis, R. J. Gildea, J. A. K. Howard and H. Puschmann,
OLEX2: a complete structure solution, refinement and analysis program.
J. Appl. Cryst. (2009). 42, 339-341.
;
_computing_structure_refinement
;
SHELXL, G.M. Sheldrick, Acta Cryst.
(2008). A64, 112-122
;
_computing_structure_solution
;
SHELXS, G.M. Sheldrick, Acta Cryst.
(2008). A64, 112-122
;
_diffrn_ambient_temperature      228(2)
_diffrn_detector_area_resol_mean 15.9821
_diffrn_measured_fraction_theta_full 0.977
_diffrn_measured_fraction_theta_max 0.7714
_diffrn_measurement_details
;
  1 omega  -68.00  -37.00   1.0000    5.0000
omega____ theta____ kappa____ phi______ frames
    -      -17.6522 -178.0000  -30.0000 31

  2 omega   35.00   65.00   1.0000    5.0000
omega____ theta____ kappa____ phi______ frames
    -       19.2928  178.0000   60.0000 30

  3 omega    4.00   70.00   1.0000    5.0000
omega____ theta____ kappa____ phi______ frames
    -       19.2928   57.0000  -60.0000 66

  4 omega    7.00   69.00   1.0000    5.0000
omega____ theta____ kappa____ phi______ frames
    -       19.2928   37.0000 -114.0000 62

  5 omega  -48.00   40.00   1.0000    5.0000
omega____ theta____ kappa____ phi______ frames
    -      -17.6522   77.0000 -180.0000 88
;
_diffrn_measurement_device_type  'Xcalibur, Eos'
_diffrn_measurement_method       '\w scans'
_diffrn_orient_matrix_UB_11      0.0196319000
_diffrn_orient_matrix_UB_12      0.0549973000
_diffrn_orient_matrix_UB_13      0.1231841000
_diffrn_orient_matrix_UB_21      -0.1466827000
_diffrn_orient_matrix_UB_22      0.0114853000
_diffrn_orient_matrix_UB_23      -0.0505057000
_diffrn_orient_matrix_UB_31      -0.0057685000
_diffrn_orient_matrix_UB_32      -0.1045899000
_diffrn_orient_matrix_UB_33      0.0590947000
_diffrn_radiation_monochromator  graphite
_diffrn_radiation_type           'Mo K\a'
_diffrn_radiation_wavelength     0.7107
_diffrn_reflns_av_R_equivalents  0.0095
_diffrn_reflns_av_unetI/netI     0.0114
_diffrn_reflns_limit_h_max       6
_diffrn_reflns_limit_h_min       -6
_diffrn_reflns_limit_k_max       7
_diffrn_reflns_limit_k_min       -8
_diffrn_reflns_limit_l_max       7
_diffrn_reflns_limit_l_min       -7
_diffrn_reflns_number            749
_diffrn_reflns_theta_full        25.00
_diffrn_reflns_theta_max         28.80
_diffrn_reflns_theta_min         5.45
_diffrn_source                   'Enhance (Mo) X-ray Source'
_exptl_absorpt_coefficient_mu    0.199
_exptl_absorpt_correction_T_max  1.00000
_exptl_absorpt_correction_T_min  0.87217
_exptl_absorpt_correction_type   multi-scan
_exptl_absorpt_process_details
;
CrysAlisPro, Agilent Technologies,
Version 1.171.36.21 (release 14-08-2012 CrysAlis171 .NET)
(compiled Sep 14 2012,17:21:16)
Empirical absorption correction using spherical harmonics,
 implemented in SCALE3 ABSPACK scaling algorithm.
;
_exptl_crystal_colour            colorless
_exptl_crystal_density_diffrn    1.927
_exptl_crystal_density_method    'not measured'
_exptl_crystal_description       block
_exptl_crystal_F_000             92
_exptl_crystal_size_max          0.42
_exptl_crystal_size_mid          0.42
_exptl_crystal_size_min          0.36
_refine_diff_density_max         0.416
_refine_diff_density_min         -0.181
_refine_diff_density_rms         0.051
_refine_ls_extinction_method     none
_refine_ls_goodness_of_fit_ref   1.070
_refine_ls_hydrogen_treatment    mixed
_refine_ls_matrix_type           full
_refine_ls_number_parameters     32
_refine_ls_number_reflns         348
_refine_ls_number_restraints     0
_refine_ls_restrained_S_all      1.070
_refine_ls_R_factor_all          0.0328
_refine_ls_R_factor_gt           0.0320
_refine_ls_shift/su_max          0.000
_refine_ls_shift/su_mean         0.000
_refine_ls_structure_factor_coef Fsqd
_refine_ls_weighting_details
'calc w=1/[\s^2^(Fo^2^)+(0.0503P)^2^+0.0612P] where P=(Fo^2^+2Fc^2^)/3'
_refine_ls_weighting_scheme      calc
_refine_ls_wR_factor_gt          0.0859
_refine_ls_wR_factor_ref         0.0876
_reflns_number_gt                333
_reflns_number_total             348
_reflns_threshold_expression     >2sigma(I)
_cod_data_source_file            cg400668w_si_002.cif
_cod_data_source_block           C2-228
_cod_original_cell_volume        155.14(5)
_cod_database_code               4507989
loop_
_space_group_symop_id
_space_group_symop_operation_xyz
1 'x, y, z'
2 '-x, y+1/2, -z+1/2'
3 '-x, -y, -z'
4 'x, -y-1/2, z-1/2'
loop_
_atom_site_label
_atom_site_type_symbol
_atom_site_fract_x
_atom_site_fract_y
_atom_site_fract_z
_atom_site_U_iso_or_equiv
_atom_site_adp_type
_atom_site_occupancy
_atom_site_symmetry_multiplicity
_atom_site_calc_flag
O1 O 0.32103(17) 0.60527(14) 0.17736(17) 0.0210(3) Uani 1 1 d
O2 O 0.16834(17) 0.39344(15) -0.20373(18) 0.0222(3) Uani 1 1 d
C1 C 0.3554(2) 0.50322(17) 0.0002(2) 0.0149(3) Uani 1 1 d
H2 H 0.003(5) 0.400(4) -0.192(4) 0.050(6) Uiso 1 1 d
loop_
_atom_site_aniso_label
_atom_site_aniso_U_11
_atom_site_aniso_U_22
_atom_site_aniso_U_33
_atom_site_aniso_U_23
_atom_site_aniso_U_13
_atom_site_aniso_U_12
O1 0.0172(5) 0.0248(5) 0.0248(5) -0.0069(3) 0.0126(4) -0.0027(3)
O2 0.0139(5) 0.0302(5) 0.0233(5) -0.0079(3) 0.0090(4) -0.0039(3)
C1 0.0139(6) 0.0151(6) 0.0170(6) 0.0015(3) 0.0079(4) 0.0008(3)
loop_
_atom_type_symbol
_atom_type_description
_atom_type_scat_dispersion_real
_atom_type_scat_dispersion_imag
_atom_type_scat_source
C C 0.0033 0.0016 'International Tables Vol C Tables 4.2.6.8 and 6.1.1.4'
H H 0.0000 0.0000 'International Tables Vol C Tables 4.2.6.8 and 6.1.1.4'
O O 0.0106 0.0060 'International Tables Vol C Tables 4.2.6.8 and 6.1.1.4'
loop_
_geom_angle_atom_site_label_1
_geom_angle_atom_site_label_2
_geom_angle_atom_site_label_3
_geom_angle
_geom_angle_site_symmetry_3
C1 O2 H2 109.0(14) .
O1 C1 O2 126.86(9) .
O1 C1 C1 120.64(12) 3_665
O2 C1 C1 112.49(11) 3_665
loop_
_geom_bond_atom_site_label_1
_geom_bond_atom_site_label_2
_geom_bond_distance
_geom_bond_site_symmetry_2
O1 C1 1.2170(13) .
O2 C1 1.2962(14) .
O2 H2 0.91(2) .
C1 C1 1.5434(19) 3_665
