#------------------------------------------------------------------------------
#$Date: 2016-03-24 03:08:50 +0200 (Thu, 24 Mar 2016) $
#$Revision: 179615 $
#$URL: svn://www.crystallography.net/cod/cif/4/50/79/4507997.cif $
#------------------------------------------------------------------------------
#
# This file is available in the Crystallography Open Database (COD),
# http://www.crystallography.net/
#
# All data on this site have been placed in the public domain by the
# contributors.
#
data_4507997
loop_
_publ_author_name
'Bhattacharya, Suman'
'Saraswatula, Viswanadha G.'
'Saha, Binoy K.'
_publ_section_title
;
 Thermal Expansion in Alkane Diacids---Another Property Showing
 Alternation in an Odd--Even Series
;
_journal_issue                   8
_journal_name_full               'Crystal Growth &amp; Design'
_journal_page_first              3651
_journal_paper_doi               10.1021/cg400668w
_journal_volume                  13
_journal_year                    2013
_chemical_formula_moiety         'C3 H4 O4'
_chemical_formula_sum            'C3 H4 O4'
_chemical_formula_weight         104.06
_chemical_name_common            C3-298-beta-polymorph
_chemical_name_systematic        '1,3-Propanoic acid'
_space_group_crystal_system      triclinic
_space_group_IT_number           2
_space_group_name_Hall           '-P 1'
_space_group_name_H-M_alt        'P -1'
_symmetry_space_group_name_Hall  '-P 1'
_symmetry_space_group_name_H-M   'P -1'
_atom_sites_solution_hydrogens   geom
_atom_sites_solution_primary     direct
_atom_sites_solution_secondary   difmap
_audit_creation_date             2012-11-19
_audit_creation_method
;
  Olex2 1.2
  (compiled 2012.05.09 svn.r2324, GUI svn.r4230)
;
_cell_angle_alpha                108.486(10)
_cell_angle_beta                 100.712(10)
_cell_angle_gamma                94.950(9)
_cell_formula_units_Z            2
_cell_length_a                   5.1582(6)
_cell_length_b                   5.3400(6)
_cell_length_c                   8.4024(9)
_cell_measurement_reflns_used    868
_cell_measurement_temperature    298(2)
_cell_measurement_theta_max      29.1255
_cell_measurement_theta_min      4.0214
_cell_volume                     213.04(4)
_computing_cell_refinement
;
CrysAlisPro, Agilent Technologies,
Version 1.171.36.21 (release 14-08-2012 CrysAlis171 .NET)
(compiled Sep 14 2012,17:21:16)
;
_computing_data_collection
;
CrysAlisPro, Agilent Technologies,
Version 1.171.36.21 (release 14-08-2012 CrysAlis171 .NET)
(compiled Sep 14 2012,17:21:16)
;
_computing_data_reduction
;
CrysAlisPro, Agilent Technologies,
Version 1.171.36.21 (release 14-08-2012 CrysAlis171 .NET)
(compiled Sep 14 2012,17:21:16)
;
_computing_molecular_graphics
;
O. V. Dolomanov, L. J. Bourhis, R. J. Gildea, J. A. K. Howard and H. Puschmann,
OLEX2: a complete structure solution, refinement and analysis program.
J. Appl. Cryst. (2009). 42, 339-341.
;
_computing_publication_material
;
O. V. Dolomanov, L. J. Bourhis, R. J. Gildea, J. A. K. Howard and H. Puschmann,
OLEX2: a complete structure solution, refinement and analysis program.
J. Appl. Cryst. (2009). 42, 339-341.
;
_computing_structure_refinement
;
SHELXL, G.M. Sheldrick, Acta Cryst.
(2008). A64, 112-122
;
_computing_structure_solution
;
SHELXS, G.M. Sheldrick, Acta Cryst.
(2008). A64, 112-122
;
_diffrn_ambient_temperature      298(2)
_diffrn_detector_area_resol_mean 15.9821
_diffrn_measured_fraction_theta_full 0.9989
_diffrn_measured_fraction_theta_max 0.9885
_diffrn_measurement_details
;
  1 omega  -34.00    1.00   1.0000    1.5000
omega____ theta____ kappa____ phi______ frames
    -      -17.4178  -57.0000 -120.0000 35

  2 omega  -25.00   22.00   1.0000    1.5000
omega____ theta____ kappa____ phi______ frames
    -      -17.4178  -99.0000  150.0000 47

  3 omega   35.00   95.00   1.0000    1.5000
omega____ theta____ kappa____ phi______ frames
    -       19.1366  178.0000  -30.0000 60

  4 omega    5.00   88.00   1.0000    1.5000
omega____ theta____ kappa____ phi______ frames
    -       19.1366   57.0000   90.0000 83

  5 omega   51.00   76.00   1.0000    1.5000
omega____ theta____ kappa____ phi______ frames
    -       19.1366  178.0000 -120.0000 25

  6 omega   69.00   95.00   1.0000    1.5000
omega____ theta____ kappa____ phi______ frames
    -       19.1366  178.0000   90.0000 26

  7 omega  -43.00   55.00   1.0000    1.5000
omega____ theta____ kappa____ phi______ frames
    -       19.1366  -19.0000  -90.0000 98

  8 omega  -38.00   51.00   1.0000    1.5000
omega____ theta____ kappa____ phi______ frames
    -      -17.4178   57.0000   90.0000 89

  9 omega   -2.00   25.00   1.0000    1.5000
omega____ theta____ kappa____ phi______ frames
    -       19.1366   57.0000    0.0000 27
;
_diffrn_measurement_device_type  'Xcalibur, Eos'
_diffrn_measurement_method       '\w scans'
_diffrn_orient_matrix_UB_11      -0.0221713000
_diffrn_orient_matrix_UB_12      -0.1331133000
_diffrn_orient_matrix_UB_13      -0.0587390000
_diffrn_orient_matrix_UB_21      -0.0984942000
_diffrn_orient_matrix_UB_22      -0.0360188000
_diffrn_orient_matrix_UB_23      0.0410268000
_diffrn_orient_matrix_UB_31      -0.0996179000
_diffrn_orient_matrix_UB_32      0.0337001000
_diffrn_orient_matrix_UB_33      -0.0568775000
_diffrn_radiation_monochromator  graphite
_diffrn_radiation_type           'Mo K\a'
_diffrn_radiation_wavelength     0.7107
_diffrn_reflns_av_R_equivalents  0.0181
_diffrn_reflns_av_unetI/netI     0.0242
_diffrn_reflns_limit_h_max       6
_diffrn_reflns_limit_h_min       -6
_diffrn_reflns_limit_k_max       7
_diffrn_reflns_limit_k_min       -7
_diffrn_reflns_limit_l_max       10
_diffrn_reflns_limit_l_min       -11
_diffrn_reflns_number            2096
_diffrn_reflns_theta_full        25.00
_diffrn_reflns_theta_max         29.16
_diffrn_reflns_theta_min         4.03
_diffrn_source                   'Enhance (Mo) X-ray Source'
_exptl_absorpt_coefficient_mu    0.156
_exptl_absorpt_correction_T_max  1.00000
_exptl_absorpt_correction_T_min  0.96201
_exptl_absorpt_correction_type   multi-scan
_exptl_absorpt_process_details
;
CrysAlisPro, Agilent Technologies,
Version 1.171.36.21 (release 14-08-2012 CrysAlis171 .NET)
(compiled Sep 14 2012,17:21:16)
Empirical absorption correction using spherical harmonics,
 implemented in SCALE3 ABSPACK scaling algorithm.
;
_exptl_crystal_colour            colourless
_exptl_crystal_density_diffrn    1.622
_exptl_crystal_density_method    'not measured'
_exptl_crystal_description       plate
_exptl_crystal_F_000             104
_exptl_crystal_size_max          0.30
_exptl_crystal_size_mid          0.25
_exptl_crystal_size_min          0.12
_refine_diff_density_max         0.250
_refine_diff_density_min         -0.205
_refine_diff_density_rms         0.044
_refine_ls_extinction_method     none
_refine_ls_goodness_of_fit_ref   1.055
_refine_ls_hydrogen_treatment    mixed
_refine_ls_matrix_type           full
_refine_ls_number_parameters     72
_refine_ls_number_reflns         976
_refine_ls_number_restraints     0
_refine_ls_restrained_S_all      1.055
_refine_ls_R_factor_all          0.0474
_refine_ls_R_factor_gt           0.0411
_refine_ls_shift/su_max          0.000
_refine_ls_shift/su_mean         0.000
_refine_ls_structure_factor_coef Fsqd
_refine_ls_weighting_details
'calc w=1/[\s^2^(Fo^2^)+(0.0457P)^2^+0.0733P] where P=(Fo^2^+2Fc^2^)/3'
_refine_ls_weighting_scheme      calc
_refine_ls_wR_factor_gt          0.1007
_refine_ls_wR_factor_ref         0.1075
_reflns_number_gt                837
_reflns_number_total             976
_reflns_threshold_expression     >2sigma(I)
_cod_data_source_file            cg400668w_si_002.cif
_cod_data_source_block           C3-298
_cod_database_code               4507997
loop_
_space_group_symop_id
_space_group_symop_operation_xyz
1 'x, y, z'
2 '-x, -y, -z'
loop_
_atom_site_label
_atom_site_type_symbol
_atom_site_fract_x
_atom_site_fract_y
_atom_site_fract_z
_atom_site_U_iso_or_equiv
_atom_site_adp_type
_atom_site_occupancy
_atom_site_symmetry_multiplicity
_atom_site_calc_flag
_atom_site_refinement_flags
O3 O 1.0439(2) 1.1920(2) 0.87265(15) 0.0406(3) Uani 1 1 d .
O4 O 0.6711(2) 1.3223(2) 0.94763(17) 0.0481(4) Uani 1 1 d .
O1 O 0.9139(3) 0.5647(3) 0.68394(18) 0.0613(4) Uani 1 1 d .
O2 O 0.7734(3) 0.7452(3) 0.48712(17) 0.0588(4) Uani 1 1 d .
C1 C 0.7855(3) 0.7179(3) 0.63531(19) 0.0347(4) Uani 1 1 d .
C3 C 0.8024(3) 1.1531(3) 0.86277(19) 0.0317(3) Uani 1 1 d .
C2 C 0.6296(3) 0.8942(3) 0.7468(2) 0.0382(4) Uani 1 1 d .
H2A H 0.5604 0.8019 0.8163 0.046 Uiso 1 1 calc R
H2B H 0.4790 0.9315 0.6744 0.046 Uiso 1 1 calc R
H4 H 0.784(7) 1.485(7) 1.017(4) 0.105(10) Uiso 1 1 d .
H2 H 0.881(6) 0.648(6) 0.432(4) 0.094(9) Uiso 1 1 d .
loop_
_atom_site_aniso_label
_atom_site_aniso_U_11
_atom_site_aniso_U_22
_atom_site_aniso_U_33
_atom_site_aniso_U_23
_atom_site_aniso_U_13
_atom_site_aniso_U_12
O3 0.0315(6) 0.0337(6) 0.0528(7) 0.0062(5) 0.0144(5) 0.0072(4)
O4 0.0380(6) 0.0350(6) 0.0610(8) -0.0038(6) 0.0206(5) 0.0087(5)
O1 0.0878(11) 0.0596(9) 0.0592(8) 0.0296(7) 0.0394(8) 0.0450(8)
O2 0.0717(9) 0.0719(10) 0.0444(7) 0.0219(7) 0.0242(6) 0.0395(8)
C1 0.0344(7) 0.0284(7) 0.0359(8) 0.0033(6) 0.0093(6) 0.0038(6)
C3 0.0325(7) 0.0288(7) 0.0347(7) 0.0083(6) 0.0125(6) 0.0086(6)
C2 0.0327(8) 0.0329(8) 0.0431(8) 0.0024(7) 0.0126(6) 0.0059(6)
loop_
_atom_type_symbol
_atom_type_description
_atom_type_scat_dispersion_real
_atom_type_scat_dispersion_imag
_atom_type_scat_source
C C 0.0033 0.0016 'International Tables Vol C Tables 4.2.6.8 and 6.1.1.4'
H H 0.0000 0.0000 'International Tables Vol C Tables 4.2.6.8 and 6.1.1.4'
O O 0.0106 0.0060 'International Tables Vol C Tables 4.2.6.8 and 6.1.1.4'
loop_
_geom_angle_atom_site_label_1
_geom_angle_atom_site_label_2
_geom_angle_atom_site_label_3
_geom_angle
C3 O4 H4 111(2)
C1 O2 H2 110.4(18)
O1 C1 O2 123.52(15)
O1 C1 C2 121.79(15)
O2 C1 C2 114.69(14)
O3 C3 O4 124.98(14)
O3 C3 C2 121.80(13)
O4 C3 C2 113.21(13)
C1 C2 C3 110.96(13)
C1 C2 H2A 109.4
C1 C2 H2B 109.4
C3 C2 H2A 109.4
C3 C2 H2B 109.4
H2A C2 H2B 108.0
loop_
_geom_bond_atom_site_label_1
_geom_bond_atom_site_label_2
_geom_bond_distance
O3 C3 1.2281(18)
O4 C3 1.2884(18)
O4 H4 0.95(4)
O1 C1 1.216(2)
O2 C1 1.290(2)
O2 H2 0.89(3)
C1 C2 1.504(2)
C3 C2 1.505(2)
C2 H2A 0.9700
C2 H2B 0.9700
loop_
_geom_torsion_atom_site_label_1
_geom_torsion_atom_site_label_2
_geom_torsion_atom_site_label_3
_geom_torsion_atom_site_label_4
_geom_torsion
O3 C3 C2 C1 -7.1(2)
O4 C3 C2 C1 173.09(13)
O1 C1 C2 C3 87.1(2)
O2 C1 C2 C3 -92.19(18)
