#------------------------------------------------------------------------------
#$Date: 2016-03-24 03:07:40 +0200 (Thu, 24 Mar 2016) $
#$Revision: 179614 $
#$URL: svn://www.crystallography.net/cod/cif/4/50/78/4507887.cif $
#------------------------------------------------------------------------------
#
# This file is available in the Crystallography Open Database (COD),
# http://www.crystallography.net/
#
# All data on this site have been placed in the public domain by the
# contributors.
#
data_4507887
loop_
_publ_author_name
'Gilli, Gastone'
'Bertolasi, Valerio'
'Gilli, Paola'
_publ_section_title
;
 Solid-State N--H&#x00B7;&#x00B7;&#x00B7;O/O--H&#x00B7;&#x00B7;&#x00B7;N
 Tautomerism in Resonance-Assisted 1-(Arylazo)-2-Naphthols and Its
 Through-Space\p* \\leftarrow \pPerturbation in TCNQ Cocrystals. A
 Variable-Temperature X-ray Crystal Study
;
_journal_issue                   8
_journal_name_full               'Crystal Growth &amp; Design'
_journal_page_first              3308
_journal_paper_doi               10.1021/cg301546v
_journal_volume                  13
_journal_year                    2013
_chemical_formula_moiety         'C17 H14 N2 O'
_chemical_formula_sum            'C17 H14 N2 O'
_chemical_formula_weight         262.30
_chemical_name_systematic
;
 ?
;
_space_group_IT_number           4
_symmetry_cell_setting           monoclinic
_symmetry_space_group_name_Hall  'P 2yb'
_symmetry_space_group_name_H-M   'P 1 21 1'
_atom_sites_solution_hydrogens   difmap
_atom_sites_solution_primary     direct
_atom_sites_solution_secondary   difmap
_audit_creation_method           SHELXL-97
_cell_angle_alpha                90.00
_cell_angle_beta                 98.6768(10)
_cell_angle_gamma                90.00
_cell_formula_units_Z            2
_cell_length_a                   4.73010(10)
_cell_length_b                   9.5656(2)
_cell_length_c                   14.3224(4)
_cell_measurement_reflns_used    11580
_cell_measurement_temperature    100
_cell_measurement_theta_max      30.00
_cell_measurement_theta_min      1.44
_cell_volume                     640.62(3)
_computing_cell_refinement       'Denzo-SMN (Otwinowski & Minor, 1997)'
_computing_data_collection       'COLLECT(Nonius, 1998)'
_computing_data_reduction        'Denzo-SMN (Otwinowski & Minor, 1997)'
_computing_molecular_graphics    'ORTEPIII (Burnett & Johnson, 1996)'
_computing_publication_material
'SHELXL-97 (Sheldrick, 1997), PARST (Nardelli, 1995), PLATON (Spek, 2003'
_computing_structure_refinement  'SHELXL-97 (Sheldrick, 1997)'
_computing_structure_solution    'SIR97 (Altomare et al., 1999)'
_diffrn_ambient_temperature      100
_diffrn_measured_fraction_theta_full 0.995
_diffrn_measured_fraction_theta_max 0.995
_diffrn_measurement_device_type  'Nonius Kappa CCD'
_diffrn_measurement_method       '\f scans and \w scans'
_diffrn_radiation_monochromator  graphite
_diffrn_radiation_source         'fine-focus sealed tube'
_diffrn_radiation_type           MoK\a
_diffrn_radiation_wavelength     0.71073
_diffrn_reflns_av_R_equivalents  0.0300
_diffrn_reflns_av_sigmaI/netI    0.0362
_diffrn_reflns_limit_h_max       6
_diffrn_reflns_limit_h_min       -6
_diffrn_reflns_limit_k_max       13
_diffrn_reflns_limit_k_min       -13
_diffrn_reflns_limit_l_max       20
_diffrn_reflns_limit_l_min       -20
_diffrn_reflns_number            11580
_diffrn_reflns_theta_full        30.00
_diffrn_reflns_theta_max         30.00
_diffrn_reflns_theta_min         1.44
_exptl_absorpt_coefficient_mu    0.086
_exptl_absorpt_correction_type   none
_exptl_crystal_colour            red
_exptl_crystal_density_diffrn    1.360
_exptl_crystal_density_method    'not measured'
_exptl_crystal_description       prismatic
_exptl_crystal_F_000             276
_exptl_crystal_size_max          0.41
_exptl_crystal_size_mid          0.35
_exptl_crystal_size_min          0.18
_refine_diff_density_max         0.269
_refine_diff_density_min         -0.246
_refine_diff_density_rms         0.043
_refine_ls_abs_structure_details 'Flack H D (1983), Acta Cryst. A39, 876-881'
_refine_ls_abs_structure_Flack   0.1(11)
_refine_ls_extinction_method     none
_refine_ls_goodness_of_fit_ref   1.065
_refine_ls_hydrogen_treatment    refall
_refine_ls_matrix_type           full
_refine_ls_number_parameters     240
_refine_ls_number_reflns         3684
_refine_ls_number_restraints     2
_refine_ls_restrained_S_all      1.065
_refine_ls_R_factor_all          0.0458
_refine_ls_R_factor_gt           0.0384
_refine_ls_shift/su_max          0.000
_refine_ls_shift/su_mean         0.000
_refine_ls_structure_factor_coef Fsqd
_refine_ls_weighting_details
'calc w=1/[\s^2^(Fo^2^)+(0.0539P)^2^+0.0688P] where P=(Fo^2^+2Fc^2^)/3'
_refine_ls_weighting_scheme      calc
_refine_ls_wR_factor_gt          0.0953
_refine_ls_wR_factor_ref         0.0995
_reflns_number_gt                3238
_reflns_number_total             3684
_reflns_threshold_expression     I>2sigma(I)
_cod_data_source_file            cg301546v_si_002.cif
_cod_data_source_block           2'-T100
_cod_original_sg_symbol_H-M      'P 21'
_cod_database_code               4507887
loop_
_symmetry_equiv_pos_as_xyz
'x, y, z'
'-x, y+1/2, -z'
loop_
_atom_site_label
_atom_site_type_symbol
_atom_site_fract_x
_atom_site_fract_y
_atom_site_fract_z
_atom_site_U_iso_or_equiv
_atom_site_adp_type
_atom_site_occupancy
_atom_site_symmetry_multiplicity
_atom_site_calc_flag
_atom_site_refinement_flags
O1 O 0.4272(2) 0.19501(11) 0.62091(7) 0.0222(2) Uani 1 1 d D
H1B H 0.545(13) 0.135(7) 0.608(5) 0.027 Uiso 0.25(3) 1 d PD
N1 N 0.6717(2) 0.00356(11) 0.76555(7) 0.0166(2) Uani 1 1 d .
N2 N 0.7595(2) -0.00517(12) 0.68409(8) 0.0163(2) Uani 1 1 d D
H1A H 0.693(5) 0.049(2) 0.6368(16) 0.020 Uiso 0.75(3) 1 d P
C1 C 0.4749(2) 0.10188(13) 0.77698(9) 0.0155(2) Uani 1 1 d .
C2 C 0.3530(3) 0.19679(13) 0.70293(9) 0.0178(3) Uani 1 1 d D
C3 C 0.1397(3) 0.29531(13) 0.72479(9) 0.0193(3) Uani 1 1 d .
C4 C 0.0567(3) 0.29871(14) 0.81100(10) 0.0189(2) Uani 1 1 d .
C5 C 0.1741(2) 0.20513(13) 0.88624(8) 0.0160(2) Uani 1 1 d .
C6 C 0.3819(2) 0.10591(13) 0.86896(9) 0.0154(2) Uani 1 1 d .
C7 C 0.4928(3) 0.01389(14) 0.94231(9) 0.0186(3) Uani 1 1 d .
C8 C 0.4027(3) 0.02178(14) 1.02956(9) 0.0190(3) Uani 1 1 d .
C9 C 0.1979(3) 0.12033(15) 1.04668(9) 0.0206(3) Uani 1 1 d .
C10 C 0.0836(3) 0.21072(14) 0.97551(9) 0.0190(3) Uani 1 1 d .
C11 C 0.9592(3) -0.10962(13) 0.66997(9) 0.0157(2) Uani 1 1 d .
C12 C 1.0814(3) -0.19813(14) 0.74304(9) 0.0179(3) Uani 1 1 d .
C13 C 1.2738(3) -0.29969(14) 0.72365(9) 0.0186(3) Uani 1 1 d .
C14 C 1.3500(3) -0.31600(13) 0.63374(9) 0.0180(3) Uani 1 1 d .
C15 C 1.2296(3) -0.22476(15) 0.56250(10) 0.0215(3) Uani 1 1 d .
C16 C 1.0358(3) -0.12232(14) 0.58022(9) 0.0205(3) Uani 1 1 d .
C17 C 1.5588(3) -0.42789(15) 0.61432(11) 0.0230(3) Uani 1 1 d .
H3 H 0.054(3) 0.3588(18) 0.6734(12) 0.027(4) Uiso 1 1 d .
H4 H -0.091(3) 0.3673(17) 0.8238(11) 0.019(4) Uiso 1 1 d .
H7 H 0.638(3) -0.0525(18) 0.9293(11) 0.021(4) Uiso 1 1 d .
H8 H 0.485(4) -0.0438(17) 1.0810(12) 0.024(4) Uiso 1 1 d .
H9 H 0.138(3) 0.1258(18) 1.1101(11) 0.023(4) Uiso 1 1 d .
H10 H -0.066(3) 0.279(2) 0.9880(12) 0.027(4) Uiso 1 1 d .
H12 H 1.035(3) -0.1817(19) 0.8075(13) 0.023(4) Uiso 1 1 d .
H13 H 1.360(3) -0.3605(19) 0.7745(11) 0.026(4) Uiso 1 1 d .
H15 H 1.279(3) -0.2302(18) 0.5005(12) 0.023(4) Uiso 1 1 d .
H16 H 0.956(4) -0.059(2) 0.5302(12) 0.028(4) Uiso 1 1 d .
H171 H 1.691(6) -0.449(3) 0.6737(18) 0.072(8) Uiso 1 1 d .
H172 H 1.656(6) -0.403(4) 0.561(2) 0.096(9) Uiso 1 1 d .
H173 H 1.471(5) -0.515(3) 0.5996(16) 0.057(6) Uiso 1 1 d .
loop_
_atom_site_aniso_label
_atom_site_aniso_U_11
_atom_site_aniso_U_22
_atom_site_aniso_U_33
_atom_site_aniso_U_23
_atom_site_aniso_U_13
_atom_site_aniso_U_12
O1 0.0257(5) 0.0217(5) 0.0197(5) 0.0023(4) 0.0054(4) 0.0038(4)
N1 0.0148(4) 0.0159(5) 0.0195(5) -0.0021(4) 0.0043(4) -0.0023(4)
N2 0.0171(5) 0.0145(5) 0.0177(5) 0.0002(4) 0.0043(4) 0.0010(4)
C1 0.0142(5) 0.0136(6) 0.0188(6) -0.0009(5) 0.0027(4) -0.0010(5)
C2 0.0185(6) 0.0142(6) 0.0209(6) -0.0004(5) 0.0031(4) -0.0024(5)
C3 0.0191(6) 0.0149(6) 0.0235(7) 0.0017(5) 0.0023(5) 0.0016(5)
C4 0.0180(5) 0.0139(6) 0.0248(6) -0.0020(5) 0.0035(4) 0.0010(5)
C5 0.0153(5) 0.0134(5) 0.0191(6) -0.0035(5) 0.0021(4) -0.0023(5)
C6 0.0134(5) 0.0145(6) 0.0188(6) -0.0022(5) 0.0034(4) -0.0032(5)
C7 0.0177(5) 0.0177(6) 0.0206(6) -0.0013(5) 0.0035(4) 0.0003(5)
C8 0.0194(6) 0.0191(6) 0.0187(6) 0.0009(5) 0.0037(4) -0.0016(5)
C9 0.0217(6) 0.0216(6) 0.0194(6) -0.0046(5) 0.0059(5) -0.0030(5)
C10 0.0175(6) 0.0186(6) 0.0218(6) -0.0042(5) 0.0055(4) -0.0011(5)
C11 0.0141(5) 0.0143(6) 0.0189(6) -0.0009(5) 0.0034(4) -0.0018(4)
C12 0.0197(5) 0.0167(6) 0.0178(6) -0.0003(5) 0.0045(4) -0.0005(5)
C13 0.0176(6) 0.0173(6) 0.0206(6) 0.0019(5) 0.0019(4) 0.0004(5)
C14 0.0139(5) 0.0157(6) 0.0247(7) -0.0034(5) 0.0034(4) -0.0016(5)
C15 0.0211(6) 0.0247(7) 0.0199(7) -0.0020(5) 0.0073(5) 0.0017(5)
C16 0.0220(6) 0.0208(6) 0.0189(7) 0.0019(5) 0.0040(5) 0.0050(5)
C17 0.0193(6) 0.0186(6) 0.0315(8) -0.0024(6) 0.0052(5) 0.0027(5)
loop_
_atom_type_symbol
_atom_type_description
_atom_type_scat_dispersion_real
_atom_type_scat_dispersion_imag
_atom_type_scat_source
C C 0.0033 0.0016 'International Tables Vol C Tables 4.2.6.8 and 6.1.1.4'
H H 0.0000 0.0000 'International Tables Vol C Tables 4.2.6.8 and 6.1.1.4'
N N 0.0061 0.0033 'International Tables Vol C Tables 4.2.6.8 and 6.1.1.4'
O O 0.0106 0.0060 'International Tables Vol C Tables 4.2.6.8 and 6.1.1.4'
loop_
_geom_angle_atom_site_label_1
_geom_angle_atom_site_label_2
_geom_angle_atom_site_label_3
_geom_angle
C2 O1 H1B 120(5)
N2 N1 C1 118.25(10)
N1 N2 C11 119.09(10)
N1 N2 H1A 122.2(14)
C11 N2 H1A 118.7(14)
N1 C1 C2 123.59(11)
N1 C1 C6 115.94(10)
C2 C1 C6 120.45(10)
O1 C2 C1 122.11(11)
O1 C2 C3 120.32(11)
C1 C2 C3 117.56(11)
C4 C3 C2 121.39(12)
C4 C3 H3 121.3(10)
C2 C3 H3 117.3(10)
C3 C4 C5 122.30(12)
C3 C4 H4 119.5(9)
C5 C4 H4 118.2(9)
C10 C5 C6 119.88(11)
C10 C5 C4 121.19(11)
C6 C5 C4 118.93(11)
C7 C6 C5 118.60(10)
C7 C6 C1 122.04(10)
C5 C6 C1 119.36(10)
C8 C7 C6 120.60(11)
C8 C7 H7 122.1(9)
C6 C7 H7 117.3(9)
C7 C8 C9 120.75(12)
C7 C8 H8 119.5(10)
C9 C8 H8 119.8(10)
C10 C9 C8 119.72(12)
C10 C9 H9 120.5(10)
C8 C9 H9 119.7(10)
C9 C10 C5 120.45(12)
C9 C10 H10 119.1(10)
C5 C10 H10 120.5(10)
C16 C11 C12 120.09(11)
C16 C11 N2 117.86(10)
C12 C11 N2 122.05(11)
C13 C12 C11 118.85(11)
C13 C12 H12 122.8(10)
C11 C12 H12 118.3(10)
C12 C13 C14 122.06(11)
C12 C13 H13 118.8(10)
C14 C13 H13 119.2(10)
C15 C14 C13 118.02(11)
C15 C14 C17 120.94(12)
C13 C14 C17 121.04(12)
C16 C15 C14 120.94(12)
C16 C15 H15 118.0(10)
C14 C15 H15 121.0(10)
C15 C16 C11 120.02(12)
C15 C16 H16 119.9(10)
C11 C16 H16 120.1(10)
C14 C17 H171 109.4(15)
C14 C17 H172 111.8(19)
H171 C17 H172 114(2)
C14 C17 H173 113.0(14)
H171 C17 H173 102(2)
H172 C17 H173 106(2)
loop_
_geom_bond_atom_site_label_1
_geom_bond_atom_site_label_2
_geom_bond_distance
O1 C2 1.2758(15)
O1 H1B 0.84(8)
N1 N2 1.2986(14)
N1 C1 1.3508(16)
N2 C11 1.4105(15)
N2 H1A 0.87(2)
C1 C2 1.4481(17)
C1 C6 1.4508(16)
C2 C3 1.4490(18)
C3 C4 1.3513(18)
C3 H3 0.993(17)
C4 C5 1.4457(18)
C4 H4 0.995(16)
C5 C10 1.4091(17)
C5 C6 1.4150(16)
C6 C7 1.4097(17)
C7 C8 1.3819(17)
C7 H7 0.973(17)
C8 C9 1.3998(18)
C8 H8 1.001(17)
C9 C10 1.3828(19)
C9 H9 0.993(16)
C10 H10 0.998(18)
C11 C16 1.3925(17)
C11 C12 1.4013(17)
C12 C13 1.3876(18)
C12 H12 0.994(18)
C13 C14 1.3974(17)
C13 H13 0.972(17)
C14 C15 1.3970(19)
C14 C17 1.5102(18)
C15 C16 1.3912(19)
C15 H15 0.953(17)
C16 H16 0.969(18)
C17 H171 1.00(3)
C17 H172 0.98(3)
C17 H173 0.94(3)
