#------------------------------------------------------------------------------
#$Date: 2016-03-24 03:08:50 +0200 (Thu, 24 Mar 2016) $
#$Revision: 179615 $
#$URL: svn://www.crystallography.net/cod/cif/4/50/79/4507993.cif $
#------------------------------------------------------------------------------
#
# This file is available in the Crystallography Open Database (COD),
# http://www.crystallography.net/
#
# All data on this site have been placed in the public domain by the
# contributors.
#
data_4507993
loop_
_publ_author_name
'Bhattacharya, Suman'
'Saraswatula, Viswanadha G.'
'Saha, Binoy K.'
_publ_section_title
;
 Thermal Expansion in Alkane Diacids---Another Property Showing
 Alternation in an Odd--Even Series
;
_journal_issue                   8
_journal_name_full               'Crystal Growth &amp; Design'
_journal_page_first              3651
_journal_paper_doi               10.1021/cg400668w
_journal_volume                  13
_journal_year                    2013
_chemical_formula_moiety         'C3 H4 O4'
_chemical_formula_sum            'C3 H4 O4'
_chemical_formula_weight         104.06
_chemical_name_common            C3-140-beta-polymorph
_chemical_name_systematic        '1,3-Propanoic acid'
_space_group_crystal_system      triclinic
_space_group_IT_number           2
_space_group_name_Hall           '-P 1'
_space_group_name_H-M_alt        'P -1'
_symmetry_space_group_name_Hall  '-P 1'
_symmetry_space_group_name_H-M   'P -1'
_atom_sites_solution_hydrogens   geom
_atom_sites_solution_primary     direct
_atom_sites_solution_secondary   difmap
_audit_creation_date             2012-11-19
_audit_creation_method
;
  Olex2 1.2
  (compiled 2012.05.09 svn.r2324, GUI svn.r4230)
;
_cell_angle_alpha                108.09(2)
_cell_angle_beta                 101.24(2)
_cell_angle_gamma                95.26(2)
_cell_formula_units_Z            2
_cell_length_a                   5.1579(15)
_cell_length_b                   5.3225(13)
_cell_length_c                   8.195(2)
_cell_measurement_reflns_used    980
_cell_measurement_temperature    140(2)
_cell_measurement_theta_max      28.9645
_cell_measurement_theta_min      4.0571
_cell_volume                     206.94(10)
_computing_cell_refinement
;
CrysAlisPro, Agilent Technologies,
Version 1.171.36.21 (release 14-08-2012 CrysAlis171 .NET)
(compiled Sep 14 2012,17:21:16)
;
_computing_data_collection
;
CrysAlisPro, Agilent Technologies,
Version 1.171.36.21 (release 14-08-2012 CrysAlis171 .NET)
(compiled Sep 14 2012,17:21:16)
;
_computing_data_reduction
;
CrysAlisPro, Agilent Technologies,
Version 1.171.36.21 (release 14-08-2012 CrysAlis171 .NET)
(compiled Sep 14 2012,17:21:16)
;
_computing_molecular_graphics
;
O. V. Dolomanov, L. J. Bourhis, R. J. Gildea, J. A. K. Howard and H. Puschmann,
OLEX2: a complete structure solution, refinement and analysis program.
J. Appl. Cryst. (2009). 42, 339-341.
;
_computing_publication_material
;
O. V. Dolomanov, L. J. Bourhis, R. J. Gildea, J. A. K. Howard and H. Puschmann,
OLEX2: a complete structure solution, refinement and analysis program.
J. Appl. Cryst. (2009). 42, 339-341.
;
_computing_structure_refinement
;
SHELXL, G.M. Sheldrick, Acta Cryst.
(2008). A64, 112-122
;
_computing_structure_solution
;
SHELXS, G.M. Sheldrick, Acta Cryst.
(2008). A64, 112-122
;
_diffrn_ambient_temperature      140(2)
_diffrn_detector_area_resol_mean 15.9821
_diffrn_measured_fraction_theta_full 0.9988
_diffrn_measured_fraction_theta_max 0.9881
_diffrn_measurement_details
;
  1 omega  -24.00   19.00   1.0000    1.5000
omega____ theta____ kappa____ phi______ frames
    -      -17.4178  -99.0000   90.0000 43

  2 omega   -7.00   19.00   1.0000    1.5000
omega____ theta____ kappa____ phi______ frames
    -      -17.4178  -99.0000  150.0000 26

  3 omega   -8.00   18.00   1.0000    1.5000
omega____ theta____ kappa____ phi______ frames
    -      -17.4178  -99.0000 -150.0000 26

  4 omega  -94.00  -60.00   1.0000    1.5000
omega____ theta____ kappa____ phi______ frames
    -      -17.4178  178.0000  -60.0000 34

  5 omega   44.00   90.00   1.0000    1.5000
omega____ theta____ kappa____ phi______ frames
    -       19.1366  178.0000 -120.0000 46

  6 omega   -3.00   91.00   1.0000    1.5000
omega____ theta____ kappa____ phi______ frames
    -       19.1366   37.0000   30.0000 94

  7 omega  -35.00   63.00   1.0000    1.5000
omega____ theta____ kappa____ phi______ frames
    -       19.1366  -19.0000 -180.0000 98

  8 omega  -25.00   92.00   1.0000    1.5000
omega____ theta____ kappa____ phi______ frames
    -       19.1366   19.0000  -90.0000 117
;
_diffrn_measurement_device_type  'Xcalibur, Eos'
_diffrn_measurement_method       '\w scans'
_diffrn_orient_matrix_UB_11      -0.0222509000
_diffrn_orient_matrix_UB_12      -0.1331560000
_diffrn_orient_matrix_UB_13      -0.0597691000
_diffrn_orient_matrix_UB_21      -0.0995451000
_diffrn_orient_matrix_UB_22      -0.0365169000
_diffrn_orient_matrix_UB_23      0.0409825000
_diffrn_orient_matrix_UB_31      -0.0990235000
_diffrn_orient_matrix_UB_32      0.0333227000
_diffrn_orient_matrix_UB_33      -0.0595794000
_diffrn_radiation_monochromator  graphite
_diffrn_radiation_type           'Mo K\a'
_diffrn_radiation_wavelength     0.7107
_diffrn_reflns_av_R_equivalents  0.0151
_diffrn_reflns_av_unetI/netI     0.0210
_diffrn_reflns_limit_h_max       6
_diffrn_reflns_limit_h_min       -7
_diffrn_reflns_limit_k_max       7
_diffrn_reflns_limit_k_min       -7
_diffrn_reflns_limit_l_max       10
_diffrn_reflns_limit_l_min       -11
_diffrn_reflns_number            1991
_diffrn_reflns_theta_full        25.00
_diffrn_reflns_theta_max         29.02
_diffrn_reflns_theta_min         4.06
_diffrn_source                   'Enhance (Mo) X-ray Source'
_exptl_absorpt_coefficient_mu    0.161
_exptl_absorpt_correction_T_max  1.00000
_exptl_absorpt_correction_T_min  0.94842
_exptl_absorpt_correction_type   multi-scan
_exptl_absorpt_process_details
;
CrysAlisPro, Agilent Technologies,
Version 1.171.36.21 (release 14-08-2012 CrysAlis171 .NET)
(compiled Sep 14 2012,17:21:16)
Empirical absorption correction using spherical harmonics,
 implemented in SCALE3 ABSPACK scaling algorithm.
;
_exptl_crystal_colour            colourless
_exptl_crystal_density_diffrn    1.670
_exptl_crystal_density_method    'not measured'
_exptl_crystal_description       plate
_exptl_crystal_F_000             108
_exptl_crystal_size_max          0.30
_exptl_crystal_size_mid          0.25
_exptl_crystal_size_min          0.12
_refine_diff_density_max         0.342
_refine_diff_density_min         -0.208
_refine_diff_density_rms         0.047
_refine_ls_extinction_method     none
_refine_ls_goodness_of_fit_ref   1.107
_refine_ls_hydrogen_treatment    mixed
_refine_ls_matrix_type           full
_refine_ls_number_parameters     72
_refine_ls_number_reflns         951
_refine_ls_number_restraints     0
_refine_ls_restrained_S_all      1.107
_refine_ls_R_factor_all          0.0349
_refine_ls_R_factor_gt           0.0322
_refine_ls_shift/su_max          0.000
_refine_ls_shift/su_mean         0.000
_refine_ls_structure_factor_coef Fsqd
_refine_ls_weighting_details
'calc w=1/[\s^2^(Fo^2^)+(0.0376P)^2^+0.0740P] where P=(Fo^2^+2Fc^2^)/3'
_refine_ls_weighting_scheme      calc
_refine_ls_wR_factor_gt          0.0813
_refine_ls_wR_factor_ref         0.0839
_reflns_number_gt                884
_reflns_number_total             951
_reflns_threshold_expression     >2sigma(I)
_cod_data_source_file            cg400668w_si_002.cif
_cod_data_source_block           C3-140
_cod_original_cell_volume        206.93(10)
_cod_database_code               4507993
loop_
_space_group_symop_id
_space_group_symop_operation_xyz
1 'x, y, z'
2 '-x, -y, -z'
loop_
_atom_site_label
_atom_site_type_symbol
_atom_site_fract_x
_atom_site_fract_y
_atom_site_fract_z
_atom_site_U_iso_or_equiv
_atom_site_adp_type
_atom_site_occupancy
_atom_site_symmetry_multiplicity
_atom_site_calc_flag
_atom_site_refinement_flags
O3 O 1.04355(16) 1.19237(16) 0.87506(11) 0.0185(2) Uani 1 1 d .
O4 O 0.66727(17) 1.32249(17) 0.94754(12) 0.0221(2) Uani 1 1 d .
O1 O 0.9144(2) 0.56265(19) 0.68518(13) 0.0304(3) Uani 1 1 d .
O2 O 0.7679(2) 0.7443(2) 0.48099(13) 0.0295(3) Uani 1 1 d .
C1 C 0.7840(2) 0.7144(2) 0.63497(15) 0.0169(3) Uani 1 1 d .
C3 C 0.8025(2) 1.1515(2) 0.86349(15) 0.0155(3) Uani 1 1 d .
C2 C 0.6264(2) 0.8897(2) 0.74679(16) 0.0181(3) Uani 1 1 d .
H2A H 0.5589 0.7985 0.8194 0.022 Uiso 1 1 calc R
H2B H 0.4745 0.9245 0.6712 0.022 Uiso 1 1 calc R
H4 H 0.771(4) 1.473(5) 1.010(3) 0.055(6) Uiso 1 1 d .
H2 H 0.869(4) 0.649(4) 0.425(3) 0.051(6) Uiso 1 1 d .
loop_
_atom_site_aniso_label
_atom_site_aniso_U_11
_atom_site_aniso_U_22
_atom_site_aniso_U_33
_atom_site_aniso_U_23
_atom_site_aniso_U_13
_atom_site_aniso_U_12
O3 0.0152(4) 0.0162(4) 0.0234(4) 0.0043(3) 0.0058(3) 0.0042(3)
O4 0.0173(4) 0.0159(4) 0.0290(5) -0.0008(4) 0.0090(4) 0.0039(3)
O1 0.0449(6) 0.0300(5) 0.0290(5) 0.0158(4) 0.0198(5) 0.0238(4)
O2 0.0386(6) 0.0367(6) 0.0205(5) 0.0116(4) 0.0121(4) 0.0241(5)
C1 0.0160(5) 0.0137(5) 0.0178(5) 0.0018(4) 0.0032(4) 0.0010(4)
C3 0.0175(5) 0.0143(5) 0.0164(5) 0.0058(4) 0.0056(4) 0.0054(4)
C2 0.0154(5) 0.0159(5) 0.0207(6) 0.0023(4) 0.0050(4) 0.0031(4)
loop_
_atom_type_symbol
_atom_type_description
_atom_type_scat_dispersion_real
_atom_type_scat_dispersion_imag
_atom_type_scat_source
C C 0.0033 0.0016 'International Tables Vol C Tables 4.2.6.8 and 6.1.1.4'
H H 0.0000 0.0000 'International Tables Vol C Tables 4.2.6.8 and 6.1.1.4'
O O 0.0106 0.0060 'International Tables Vol C Tables 4.2.6.8 and 6.1.1.4'
loop_
_geom_angle_atom_site_label_1
_geom_angle_atom_site_label_2
_geom_angle_atom_site_label_3
_geom_angle
C3 O4 H4 110.7(14)
C1 O2 H2 110.4(14)
O1 C1 O2 123.85(11)
O1 C1 C2 122.62(11)
O2 C1 C2 113.53(10)
O3 C3 O4 125.29(11)
O3 C3 C2 122.48(10)
O4 C3 C2 112.23(10)
C1 C2 C3 110.05(10)
C1 C2 H2A 109.7
C1 C2 H2B 109.7
C3 C2 H2A 109.7
C3 C2 H2B 109.7
H2A C2 H2B 108.2
loop_
_geom_bond_atom_site_label_1
_geom_bond_atom_site_label_2
_geom_bond_distance
O3 C3 1.2219(14)
O4 C3 1.3053(14)
O4 H4 0.87(2)
O1 C1 1.2133(15)
O2 C1 1.3079(15)
O2 H2 0.86(2)
C1 C2 1.5064(16)
C3 C2 1.5110(17)
C2 H2A 0.9700
C2 H2B 0.9700
loop_
_geom_torsion_atom_site_label_1
_geom_torsion_atom_site_label_2
_geom_torsion_atom_site_label_3
_geom_torsion_atom_site_label_4
_geom_torsion
O3 C3 C2 C1 -7.58(16)
O4 C3 C2 C1 172.45(10)
O1 C1 C2 C3 87.53(14)
O2 C1 C2 C3 -91.85(12)
