#------------------------------------------------------------------------------
#$Date: 2016-03-24 03:00:20 +0200 (Thu, 24 Mar 2016) $
#$Revision: 179608 $
#$URL: svn://www.crystallography.net/cod/cif/4/50/72/4507233.cif $
#------------------------------------------------------------------------------
#
# This file is available in the Crystallography Open Database (COD),
# http://www.crystallography.net/
#
# All data on this site have been placed in the public domain by the
# contributors.
#
data_4507233
loop_
_publ_author_name
'Zieli\'nski, Witold'
'Katrusiak, Andrzej'
_publ_section_title
;
 Hydrogen Bonds NH&#x00B7;&#x00B7;&#x00B7;N in Compressed Benzimidazole
 Polymorphs
;
_journal_issue                   2
_journal_name_full               'Crystal Growth &amp; Design'
_journal_page_first              696
_journal_paper_doi               10.1021/cg301374z
_journal_volume                  13
_journal_year                    2013
_chemical_formula_moiety         'C7 H6 N2'
_chemical_formula_sum            'C7 H6 N2'
_chemical_formula_weight         118.14
_chemical_melting_point          443
_chemical_name_common            'benzimidazole phase \alpha'
_chemical_name_systematic
; 
1,3-benzodiazole 
;
_space_group_IT_number           33
_symmetry_cell_setting           orthorhombic
_symmetry_space_group_name_Hall  'P 2c -2n'
_symmetry_space_group_name_H-M   'P n a 21'
_atom_sites_solution_hydrogens   geom
_atom_sites_solution_primary     direct
_atom_sites_solution_secondary   difmap
_audit_creation_method           SHELXL-97
_cell_angle_alpha                90.00
_cell_angle_beta                 90.00
_cell_angle_gamma                90.00
_cell_formula_units_Z            4
_cell_length_a                   13.189(8)
_cell_length_b                   6.7596(11)
_cell_length_c                   6.9528(14)
_cell_measurement_reflns_used    1796
_cell_measurement_temperature    296(2)
_cell_measurement_theta_max      27.42
_cell_measurement_theta_min      4.20
_cell_volume                     619.9(4)
_computing_cell_refinement       'CrysAlisRED (Oxford Diffraction, 2004)'
_computing_data_collection       'CrysAlisCCD (Oxford Diffraction, 2004)'
_computing_data_reduction
'CrysAlisRED (Oxford Diffraction, 2004); REDSHABS (Katrusiak, A.  2003)'
_computing_molecular_graphics    'SHELXTL (Sheldrick, 1990)'
_computing_publication_material  'SHELXL--97 (Sheldrick, 1997)'
_computing_structure_refinement  'SHELXL--97 (Sheldrick, 1997)'
_computing_structure_solution    'SHELXS--97 (Sheldrick, 1997)'
_diffrn_ambient_environment      'diamond-anvil cell'
_diffrn_ambient_pressure         160000
_diffrn_ambient_temperature      296(2)
_diffrn_measured_fraction_theta_full 0.166
_diffrn_measured_fraction_theta_max 0.166
_diffrn_measurement_device_type  'KUMA KM-4 CCD'
_diffrn_measurement_method       '\f- and \w-scans'
_diffrn_radiation_monochromator  graphite
_diffrn_radiation_source         'fine-focus sealed tube'
_diffrn_radiation_type           MoK\a
_diffrn_radiation_wavelength     0.71073
_diffrn_reflns_av_R_equivalents  0.0894
_diffrn_reflns_av_sigmaI/netI    0.0553
_diffrn_reflns_limit_h_max       2
_diffrn_reflns_limit_h_min       -2
_diffrn_reflns_limit_k_max       8
_diffrn_reflns_limit_k_min       -8
_diffrn_reflns_limit_l_max       8
_diffrn_reflns_limit_l_min       -8
_diffrn_reflns_number            1796
_diffrn_reflns_theta_full        27.42
_diffrn_reflns_theta_max         27.42
_diffrn_reflns_theta_min         4.20
_diffrn_standards_decay_%        0
_diffrn_standards_interval_count 0
_diffrn_standards_number         0
_exptl_absorpt_coefficient_mu    0.080
_exptl_absorpt_correction_T_max  0.96
_exptl_absorpt_correction_T_min  0.69
_exptl_absorpt_correction_type   integration
_exptl_absorpt_process_details
;
 Correction for absorption of the diamond-anvil cell and the sample 
 were made using program REDSHABS (Katrusiak, A. (2003) REDSHABS. Adam
 Mickiewicz University Pozna\'n; Katrusiak, A. (2004) Z. Kristallogr.
 219, 461-467).
;
_exptl_crystal_colour            colourless
_exptl_crystal_density_diffrn    1.266
_exptl_crystal_density_method    'not measured'
_exptl_crystal_description       plate
_exptl_crystal_F_000             248
_exptl_crystal_size_max          0.40
_exptl_crystal_size_mid          0.35
_exptl_crystal_size_min          0.25
_refine_diff_density_max         0.138
_refine_diff_density_min         -0.135
_refine_diff_density_rms         0.038
_refine_ls_abs_structure_details 'Flack H D (1983), Acta Cryst. A39, 876-881'
_refine_ls_abs_structure_Flack   4(10)
_refine_ls_extinction_method     none
_refine_ls_goodness_of_fit_ref   1.237
_refine_ls_hydrogen_treatment    constr
_refine_ls_matrix_type           full
_refine_ls_number_parameters     19
_refine_ls_number_reflns         236
_refine_ls_number_restraints     3
_refine_ls_restrained_S_all      1.229
_refine_ls_R_factor_all          0.1134
_refine_ls_R_factor_gt           0.0989
_refine_ls_shift/su_max          0.000
_refine_ls_shift/su_mean         0.000
_refine_ls_structure_factor_coef Fsqd
_refine_ls_weighting_details
'calc w=1/[\s^2^(Fo^2^)+(0.1733P)^2^+0.0000P] where P=(Fo^2^+2Fc^2^)/3'
_refine_ls_weighting_scheme      calc
_refine_ls_wR_factor_gt          0.2548
_refine_ls_wR_factor_ref         0.2635
_reflns_number_gt                203
_reflns_number_total             236
_reflns_threshold_expression     >2sigma(I)
_cod_data_source_file            cg301374z_si_002.cif
_cod_data_source_block           bzima_0.16GPa
_cod_database_code               4507233
loop_
_symmetry_equiv_pos_as_xyz
'x, y, z'
'-x, -y, z+1/2'
'x+1/2, -y+1/2, z'
'-x+1/2, y+1/2, z+1/2'
loop_
_atom_site_label
_atom_site_type_symbol
_atom_site_fract_x
_atom_site_fract_y
_atom_site_fract_z
_atom_site_U_iso_or_equiv
_atom_site_adp_type
_atom_site_occupancy
_atom_site_symmetry_multiplicity
_atom_site_calc_flag
_atom_site_refinement_flags
N1 N 0.2458(19) 0.9293(10) 0.5694(11) 0.042(3) Uiso 1 1 d D
H1 H 0.2072 0.8714 0.4871 0.050 Uiso 1 1 calc R
C2 C 0.2377(16) 1.1155(12) 0.6339(13) 0.042(3) Uiso 1 1 d D
H2 H 0.1892 1.2042 0.5892 0.050 Uiso 1 1 calc R
N3 N 0.3046(11) 1.1604(5) 0.7658(3) 0.041(2) Uiso 1 1 d D
C4 C 0.4430(11) 0.9600(5) 0.9110(3) 0.047(3) Uiso 1 1 d R
H4 H 0.4645 1.0579 0.9956 0.057 Uiso 1 1 calc R
C5 C 0.4923(11) 0.7784(5) 0.9065(3) 0.047(3) Uiso 1 1 d R
H5 H 0.5468 0.7547 0.9881 0.056 Uiso 1 1 calc R
C6 C 0.4601(11) 0.6320(5) 0.7801(3) 0.054(4) Uiso 1 1 d R
H6 H 0.4931 0.5105 0.7770 0.064 Uiso 1 1 calc R
C7 C 0.3785(11) 0.6673(5) 0.6581(3) 0.043(3) Uiso 1 1 d R
H7 H 0.3570 0.5694 0.5735 0.051 Uiso 1 1 calc R
C8 C 0.3292(11) 0.8490(5) 0.6626(3) 0.037(3) Uiso 1 1 d R
C9 C 0.3614(11) 0.9953(5) 0.7891(3) 0.030(2) Uiso 1 1 d R
loop_
_atom_type_symbol
_atom_type_description
_atom_type_scat_dispersion_real
_atom_type_scat_dispersion_imag
_atom_type_scat_source
C C 0.0033 0.0016 'International Tables Vol C Tables 4.2.6.8 and 6.1.1.4'
H H 0.0000 0.0000 'International Tables Vol C Tables 4.2.6.8 and 6.1.1.4'
N N 0.0061 0.0033 'International Tables Vol C Tables 4.2.6.8 and 6.1.1.4'
loop_
_geom_angle_atom_site_label_1
_geom_angle_atom_site_label_2
_geom_angle_atom_site_label_3
_geom_angle
C2 N1 C8 105.9(13)
C2 N1 H1 127.0
C8 N1 H1 127.0
N3 C2 N1 113.4(12)
N3 C2 H2 123.3
N1 C2 H2 123.3
C2 N3 C9 105.4(5)
C5 C4 C9 120.0
C5 C4 H4 120.0
C9 C4 H4 120.0
C4 C5 C6 120.0
C4 C5 H5 120.0
C6 C5 H5 120.0
C7 C6 C5 120.0
C7 C6 H6 120.0
C5 C6 H6 120.0
C6 C7 C8 120.0
C6 C7 H7 120.0
C8 C7 H7 120.0
C7 C8 C9 120.0
C7 C8 N1 134.9(4)
C9 C8 N1 105.0(3)
N3 C9 C8 110.0
N3 C9 C4 130.0
C8 C9 C4 120.0
loop_
_geom_bond_atom_site_label_1
_geom_bond_atom_site_label_2
_geom_bond_distance
N1 C2 1.341(8)
N1 C8 1.39(2)
N1 H1 0.8600
C2 N3 1.309(10)
C2 H2 0.9300
N3 C9 1.3538
C4 C5 1.3900
C4 C9 1.3901
C4 H4 0.9300
C5 C6 1.3900
C5 H5 0.9300
C6 C7 1.3900
C6 H6 0.9300
C7 C8 1.3900
C7 H7 0.9300
C8 C9 1.3900
loop_
_refln_index_h
_refln_index_k
_refln_index_l
_refln_F_squared_calc
_refln_F_squared_meas
_refln_F_squared_sigma
_refln_observed_status
2 0 -8 2.78 8.14 8.18 o
1 1 -8 8.26 9.25 4.23 o
2 1 -8 13.88 8.64 6.84 o
1 2 -8 29.68 19.61 4.05 o
1 3 -8 6.89 9.49 4.57 o
0 1 -7 18.29 14.76 4.92 o
1 1 -7 14.04 10.64 2.65 o
2 1 -7 79.31 65.58 11.52 o
1 2 -7 1.61 9.14 3.18 o
2 2 -7 4.44 6.76 3.59 o
0 3 -7 11.08 20.05 5.71 o
1 3 -7 3.64 6.84 2.90 o
2 3 -7 24.38 12.12 5.27 o
1 4 -7 3.61 11.08 3.45 o
2 4 -7 1.60 10.69 9.56 o
1 5 -7 2.89 5.90 3.64 o
0 0 -6 205.37 188.33 6.10 o
2 0 -6 22.14 12.01 4.57 o
1 1 -6 12.09 11.98 2.24 o
2 1 -6 40.03 27.05 3.16 o
0 2 -6 18.76 16.65 2.86 o
1 2 -6 58.81 62.13 3.81 o
2 2 -6 7.83 5.49 1.87 o
1 3 -6 17.97 16.39 3.95 o
2 3 -6 1.37 5.67 3.13 o
0 4 -6 33.24 33.01 4.91 o
1 4 -6 29.21 26.94 5.01 o
2 4 -6 1.78 6.87 3.47 o
1 5 -6 14.70 7.90 3.44 o
1 6 -6 7.52 11.75 7.01 o
2 0 -5 5.77 5.68 2.38 o
0 1 -5 106.35 139.72 3.09 o
1 1 -5 87.68 90.99 2.50 o
2 1 -5 15.30 8.06 1.95 o
1 2 -5 65.55 69.30 3.49 o
2 2 -5 38.23 26.88 2.50 o
0 3 -5 58.88 81.31 3.68 o
1 3 -5 3.81 5.03 1.69 o
2 3 -5 25.82 11.36 2.59 o
1 4 -5 0.26 5.88 3.82 o
2 4 -5 12.89 8.91 2.60 o
0 5 -5 81.83 105.82 5.78 o
1 5 -5 13.44 10.70 2.66 o
1 6 -5 10.10 8.78 3.58 o
1 7 -5 2.87 10.86 12.07 o
0 0 -4 59.45 70.40 2.35 o
2 0 -4 206.69 162.93 6.73 o
1 1 -4 32.49 23.82 1.08 o
2 1 -4 261.46 210.25 5.20 o
0 2 -4 208.90 205.73 3.01 o
1 2 -4 8.44 9.72 1.30 o
2 2 -4 36.24 32.41 2.81 o
1 3 -4 9.30 10.50 1.47 o
2 3 -4 5.19 2.32 2.55 o
0 4 -4 3.71 6.91 2.27 o
1 4 -4 51.18 74.77 4.46 o
2 4 -4 105.94 67.92 4.18 o
1 5 -4 4.22 6.03 2.10 o
2 5 -4 30.68 19.27 4.31 o
0 6 -4 15.77 19.64 4.38 o
1 6 -4 5.84 6.56 2.94 o
1 7 -4 6.42 8.90 4.09 o
2 0 -3 166.26 91.90 11.31 o
0 1 -3 465.60 465.81 4.63 o
1 1 -3 64.22 62.85 1.63 o
2 1 -3 19.28 18.91 2.00 o
1 2 -3 272.50 309.76 3.87 o
2 2 -3 124.94 143.01 7.52 o
0 3 -3 83.22 75.38 2.21 o
1 3 -3 59.08 69.35 5.45 o
2 3 -3 141.73 116.02 7.80 o
1 4 -3 4.66 5.86 1.40 o
2 4 -3 69.29 49.97 7.17 o
0 5 -3 123.26 175.44 9.82 o
1 5 -3 115.14 126.17 4.86 o
2 5 -3 42.28 32.15 4.74 o
1 6 -3 17.11 12.62 3.24 o
2 6 -3 22.30 12.26 5.96 o
0 7 -3 46.63 58.56 5.48 o
1 7 -3 26.92 17.22 4.56 o
1 1 -2 409.07 448.40 5.00 o
0 2 -2 42.85 57.90 1.04 o
1 2 -2 548.00 544.54 5.44 o
2 2 -2 129.51 66.94 2.51 o
1 3 -2 39.17 40.79 1.49 o
2 3 -2 4.39 3.09 1.63 o
0 4 -2 613.06 746.19 8.44 o
1 4 -2 4.87 4.41 1.17 o
2 4 -2 35.43 26.25 2.32 o
1 5 -2 67.79 68.36 3.04 o
2 5 -2 111.26 79.11 7.74 o
0 6 -2 200.29 240.88 5.95 o
1 6 -2 0.86 3.87 2.71 o
1 7 -2 9.54 9.23 3.39 o
0 8 -2 20.48 18.86 5.33 o
1 8 -2 1.06 13.41 11.02 o
0 1 -1 881.44 864.83 3.33 o
1 2 -1 255.07 252.56 5.05 o
0 3 -1 244.07 253.78 3.49 o
1 3 -1 98.65 120.46 2.57 o
2 3 -1 29.43 22.17 2.31 o
1 4 -1 33.01 36.05 1.60 o
2 4 -1 56.46 67.81 5.10 o
0 5 -1 42.37 50.98 3.70 o
1 5 -1 82.10 93.99 2.53 o
2 5 -1 105.31 69.96 3.91 o
1 6 -1 73.35 96.36 3.27 o
0 7 -1 16.16 13.55 3.61 o
1 7 -1 25.37 19.90 2.76 o
1 8 -1 1.24 8.91 8.59 o
0 2 0 61.70 73.16 5.68 o
1 2 0 203.11 214.81 3.93 o
1 3 0 233.37 256.62 3.11 o
2 3 0 103.31 62.89 3.82 o
0 4 0 184.72 254.39 16.88 o
1 4 0 319.84 285.94 3.74 o
2 4 0 383.55 357.57 22.54 o
1 5 0 108.50 138.46 3.62 o
2 5 0 9.76 12.53 3.51 o
0 6 0 94.58 121.89 4.00 o
1 6 0 43.35 56.52 2.68 o
2 6 0 2.12 9.82 4.64 o
1 7 0 1.63 8.74 2.71 o
0 8 0 5.65 6.92 3.41 o
0 1 1 881.73 876.99 8.50 o
1 2 1 255.03 249.23 3.83 o
0 3 1 244.06 255.61 6.25 o
1 3 1 98.50 124.40 2.48 o
2 3 1 29.36 28.97 3.98 o
1 4 1 33.01 34.24 1.75 o
2 4 1 56.43 68.19 5.84 o
0 5 1 42.49 52.84 2.87 o
1 5 1 82.08 98.02 2.71 o
2 5 1 105.24 71.76 7.24 o
1 6 1 73.35 102.49 3.24 o
0 7 1 16.18 21.77 4.44 o
1 7 1 25.33 21.70 3.17 o
1 8 1 1.24 1.39 7.35 o
1 1 2 409.23 457.80 7.82 o
0 2 2 42.72 60.40 1.67 o
1 2 2 547.59 562.88 3.21 o
2 2 2 129.44 85.37 7.08 o
1 3 2 39.17 45.03 0.93 o
2 3 2 4.38 5.10 1.41 o
0 4 2 612.88 769.44 14.40 o
1 4 2 4.87 4.40 0.93 o
2 4 2 35.39 25.02 3.37 o
1 5 2 67.81 75.40 2.38 o
2 5 2 111.34 120.58 7.79 o
0 6 2 200.16 236.57 4.99 o
1 6 2 0.86 4.52 3.23 o
1 7 2 9.53 7.35 3.00 o
0 8 2 20.46 28.53 7.21 o
1 8 2 1.06 8.03 7.31 o
2 0 3 166.17 130.44 9.20 o
0 1 3 465.70 475.34 4.19 o
1 1 3 64.24 67.59 1.08 o
2 1 3 19.33 29.22 2.43 o
1 2 3 272.49 302.32 4.56 o
2 2 3 124.94 154.47 4.34 o
0 3 3 83.10 81.33 2.25 o
1 3 3 58.96 66.07 2.68 o
2 3 3 141.75 146.52 4.07 o
1 4 3 4.66 12.78 2.55 o
2 4 3 69.23 79.91 5.99 o
0 5 3 123.33 175.20 12.87 o
1 5 3 115.22 130.31 3.11 o
2 5 3 42.24 54.10 3.67 o
1 6 3 17.12 18.60 3.59 o
2 6 3 22.28 9.64 8.03 o
0 7 3 46.65 64.31 6.31 o
1 7 3 26.91 15.28 4.35 o
0 0 4 59.58 76.10 2.22 o
2 0 4 206.90 177.11 10.54 o
1 1 4 32.48 28.55 1.20 o
2 1 4 261.41 202.26 16.61 o
0 2 4 208.76 209.68 3.98 o
1 2 4 8.45 6.35 1.14 o
2 2 4 36.25 58.76 6.93 o
1 3 4 9.29 10.83 1.43 o
2 3 4 5.19 5.44 5.05 o
0 4 4 3.71 5.56 2.30 o
1 4 4 51.18 82.09 2.69 o
2 4 4 105.96 105.33 4.46 o
1 5 4 4.22 7.47 1.92 o
2 5 4 30.70 41.46 6.67 o
0 6 4 15.78 19.33 5.02 o
1 6 4 5.85 10.80 6.76 o
1 7 4 6.42 11.17 6.43 o
2 0 5 5.78 8.58 3.29 o
0 1 5 106.39 144.27 3.61 o
1 1 5 87.76 94.37 2.80 o
2 1 5 15.31 8.87 2.01 o
1 2 5 65.57 70.24 2.09 o
2 2 5 38.23 33.28 2.64 o
0 3 5 58.85 83.84 3.74 o
1 3 5 3.81 6.01 1.74 o
2 3 5 25.78 23.86 3.17 o
1 4 5 0.26 4.02 2.58 o
2 4 5 12.89 9.49 2.83 o
0 5 5 81.77 108.45 5.64 o
1 5 5 13.44 13.12 2.99 o
2 5 5 86.12 75.08 6.14 o
1 6 5 10.09 10.07 5.15 o
1 7 5 2.86 3.41 6.47 o
0 0 6 205.62 200.81 7.85 o
2 0 6 22.20 24.96 4.30 o
1 1 6 12.09 11.56 2.17 o
2 1 6 40.00 46.97 4.22 o
0 2 6 18.79 19.96 3.19 o
1 2 6 58.80 71.45 4.08 o
2 2 6 7.83 6.49 3.13 o
1 3 6 17.96 17.64 3.70 o
2 3 6 1.37 6.62 3.25 o
0 4 6 33.28 30.42 4.24 o
1 4 6 29.21 40.36 4.42 o
2 4 6 1.78 6.55 3.26 o
1 5 6 14.70 15.92 4.49 o
1 6 6 7.53 8.14 5.72 o
2 0 7 117.83 111.64 9.66 o
0 1 7 18.24 22.11 6.81 o
1 1 7 14.06 11.77 2.85 o
2 1 7 79.29 74.82 6.70 o
1 2 7 1.62 7.15 3.03 o
2 2 7 4.43 5.93 3.85 o
0 3 7 11.07 8.33 4.45 o
1 3 7 3.63 9.74 4.02 o
2 3 7 24.38 11.80 4.44 o
1 4 7 3.61 8.25 4.11 o
1 5 7 2.90 4.46 4.48 o
2 0 8 2.78 10.80 8.76 o
1 1 8 8.26 13.45 5.83 o
2 1 8 13.87 4.93 10.15 o
1 2 8 29.66 33.85 5.64 o
1 3 8 6.88 5.43 4.12 o
1 4 8 1.25 9.28 8.34 o
