#------------------------------------------------------------------------------
#$Date: 2017-10-13 14:42:48 +0300 (Fri, 13 Oct 2017) $
#$Revision: 201982 $
#$URL: file:///home/coder/svn-repositories/cod/cif/4/50/71/4507188.cif $
#------------------------------------------------------------------------------
#
# This file is available in the Crystallography Open Database (COD),
# http://www.crystallography.net/
#
# All data on this site have been placed in the public domain by the
# contributors.
#
data_4507188
loop_
_publ_author_name
'Tomkowiak, Hanna'
'Olejniczak, Anna'
'Katrusiak, Andrzej'
_publ_section_title
;
 Pressure-Dependent Formation and Decomposition of Thiourea Hydrates
;
_journal_issue                   1
_journal_name_full               'Crystal Growth &amp; Design'
_journal_page_first              121
_journal_paper_doi               10.1021/cg301254a
_journal_volume                  13
_journal_year                    2013
_chemical_formula_moiety         'C H4 N2 S, H2 O'
_chemical_formula_sum            'C H6 N2 O S'
_chemical_formula_weight         94.14
_chemical_name_systematic
;
 thiourea monohydrate
;
_space_group_IT_number           14
_symmetry_cell_setting           monoclinic
_symmetry_space_group_name_Hall  '-P 2ybc'
_symmetry_space_group_name_H-M   'P 1 21/c 1'
_atom_sites_solution_hydrogens   geom
_atom_sites_solution_primary     direct
_atom_sites_solution_secondary   difmap
_audit_creation_method           SHELXL-97
_cell_angle_alpha                90.00
_cell_angle_beta                 98.930(13)
_cell_angle_gamma                90.00
_cell_formula_units_Z            4
_cell_length_a                   5.9685(8)
_cell_length_b                   8.820(4)
_cell_length_c                   7.9218(13)
_cell_measurement_pressure       1200000
_cell_measurement_reflns_used    2291
_cell_measurement_temperature    296(2)
_cell_measurement_theta_max      28.98
_cell_measurement_theta_min      3.46
_cell_volume                     412.0(2)
_computing_cell_refinement       'CrysAlis (Oxford Diffraction, 2002)'
_computing_data_collection       'CrysAlis (Oxford Diffraction, 2002)'
_computing_data_reduction        'CrysAlis (Oxford Diffraction, 2002)'
_computing_molecular_graphics
;X-Seed (Barbour, 2001) 
and POV-Ray (Persistence of Vision, 2004)
;
_computing_publication_material  'SHELXL-97 (Sheldrick, 1997)'
_computing_structure_refinement  'SHELXL-97 (Sheldrick, 1997)'
_computing_structure_solution    'SHELXS-97 (Sheldrick, 1997)'
_diffrn_ambient_temperature      296(2)
_diffrn_measured_fraction_theta_full 0.294
_diffrn_measured_fraction_theta_max 0.294
_diffrn_measurement_device_type  'Kuma KM4CCD \k geometry'
_diffrn_measurement_method
;HP omega scans - for more details see:
A. Budzianowski, A. Katrusiak in High-Pressure Crystallography
(Eds.: A. Katrusiak, P. F. McMillan),
Dordrecht: Kluwer Acad. Publ., 2004 pp.157-168
;
_diffrn_radiation_monochromator  graphite
_diffrn_radiation_source         'fine-focus sealed tube'
_diffrn_radiation_type           MoK\a
_diffrn_radiation_wavelength     0.71073
_diffrn_reflns_av_R_equivalents  0.0844
_diffrn_reflns_av_sigmaI/netI    0.0625
_diffrn_reflns_limit_h_max       8
_diffrn_reflns_limit_h_min       -8
_diffrn_reflns_limit_k_max       3
_diffrn_reflns_limit_k_min       -3
_diffrn_reflns_limit_l_max       10
_diffrn_reflns_limit_l_min       -10
_diffrn_reflns_number            2291
_diffrn_reflns_theta_full        28.98
_diffrn_reflns_theta_max         28.98
_diffrn_reflns_theta_min         3.46
_exptl_absorpt_coefficient_mu    0.601
_exptl_absorpt_correction_T_max  0.75
_exptl_absorpt_correction_T_min  0.30
_exptl_absorpt_correction_type   integration
_exptl_absorpt_process_details
;
Katrusiak, A. (2003). REDSHABS - Program for correcting
reflections intensities for DAC absorption, gasket shadowing
and sample crystal absorption. Adam Mickiewicz University, Pozna\'n.
Katrusiak, A. (2004). Z. Kristallogr. 219, 461-467
;
_exptl_crystal_colour            colourless
_exptl_crystal_density_diffrn    1.518
_exptl_crystal_density_method    'not measured'
_exptl_crystal_description       plate
_exptl_crystal_F_000             200
_exptl_crystal_size_max          0.46
_exptl_crystal_size_mid          0.29
_exptl_crystal_size_min          0.16
_refine_diff_density_max         0.168
_refine_diff_density_min         -0.147
_refine_diff_density_rms         0.043
_refine_ls_extinction_method     none
_refine_ls_goodness_of_fit_ref   1.210
_refine_ls_hydrogen_treatment    mixed
_refine_ls_matrix_type           full
_refine_ls_number_parameters     52
_refine_ls_number_reflns         321
_refine_ls_number_restraints     14
_refine_ls_restrained_S_all      1.195
_refine_ls_R_factor_all          0.0667
_refine_ls_R_factor_gt           0.0501
_refine_ls_shift/su_max          0.000
_refine_ls_shift/su_mean         0.000
_refine_ls_structure_factor_coef Fsqd
_refine_ls_weighting_details
'calc w=1/[\s^2^(Fo^2^)+(0.0436P)^2^+0.3835P] where P=(Fo^2^+2Fc^2^)/3'
_refine_ls_weighting_scheme      calc
_refine_ls_wR_factor_gt          0.0957
_refine_ls_wR_factor_ref         0.0976
_reflns_number_gt                306
_reflns_number_total             321
_reflns_threshold_expression     >2sigma(I)
_cod_data_source_file            cg301254a_si_002.cif
_cod_data_source_block           thio_H2O_12
_cod_depositor_comments
;
The following automatic conversions were performed:

'_symmetry_cell_setting' value 'Monoclinic' changed to 'monoclinic'
according to /home/saulius/struct/CIF-dictionaries/cif_core.dic
dictionary named 'cif_core.dic' version 2.4.2 from 2011-04-26.

Automatic conversion script
Id: cif_fix_values 1891 2012-01-12 08:04:46Z andrius 
;
_cod_original_cell_volume        411.96(19)
_cod_original_sg_symbol_H-M      P21/c
_cod_database_code               4507188
loop_
_symmetry_equiv_pos_as_xyz
'x, y, z'
'-x, y+1/2, -z+1/2'
'-x, -y, -z'
'x, -y-1/2, z-1/2'
loop_
_atom_site_label
_atom_site_type_symbol
_atom_site_fract_x
_atom_site_fract_y
_atom_site_fract_z
_atom_site_U_iso_or_equiv
_atom_site_adp_type
_atom_site_occupancy
_atom_site_symmetry_multiplicity
_atom_site_calc_flag
_atom_site_refinement_flags
S1 S 0.77572(14) 0.0072(3) 0.84150(10) 0.0226(17) Uani 1 1 d .
O1 O 0.0223(5) 0.1766(11) 0.4608(3) 0.029(3) Uani 1 1 d DU
H1W H -0.017(8) 0.263(7) 0.408(7) 0.035 Uiso 1 1 d D
H2W H 0.054(8) 0.100(8) 0.392(6) 0.035 Uiso 1 1 d D
N2 N 0.3442(4) 0.0848(11) 0.7607(4) 0.027(5) Uani 1 1 d .
H2A H 0.2327 0.1301 0.6991 0.032 Uiso 1 1 calc R
H2B H 0.3220 0.0346 0.8497 0.032 Uiso 1 1 calc R
N1 N 0.5768(5) 0.1713(10) 0.5799(3) 0.030(5) Uani 1 1 d .
H1A H 0.4620 0.2154 0.5209 0.035 Uiso 1 1 calc R
H1B H 0.7085 0.1784 0.5493 0.035 Uiso 1 1 calc R
C1 C 0.5508(5) 0.0925(11) 0.7184(4) 0.017(2) Uani 1 1 d U
loop_
_atom_site_aniso_label
_atom_site_aniso_U_11
_atom_site_aniso_U_22
_atom_site_aniso_U_33
_atom_site_aniso_U_23
_atom_site_aniso_U_13
_atom_site_aniso_U_12
S1 0.0211(5) 0.022(5) 0.0237(5) 0.0040(7) 0.0020(3) 0.0032(9)
O1 0.0341(14) 0.021(10) 0.0314(14) 0.000(3) 0.0055(11) 0.005(3)
N2 0.0193(14) 0.034(15) 0.0276(14) 0.008(2) 0.0038(10) 0.001(3)
N1 0.0261(13) 0.031(16) 0.0320(16) 0.013(3) 0.0058(11) -0.001(3)
C1 0.0198(14) 0.012(6) 0.0193(13) -0.005(3) 0.0012(10) 0.004(3)
loop_
_atom_type_symbol
_atom_type_description
_atom_type_scat_dispersion_real
_atom_type_scat_dispersion_imag
_atom_type_scat_source
C C 0.0033 0.0016 'International Tables Vol C Tables 4.2.6.8 and 6.1.1.4'
H H 0.0000 0.0000 'International Tables Vol C Tables 4.2.6.8 and 6.1.1.4'
N N 0.0061 0.0033 'International Tables Vol C Tables 4.2.6.8 and 6.1.1.4'
S S 0.1246 0.1234 'International Tables Vol C Tables 4.2.6.8 and 6.1.1.4'
O O 0.0106 0.0060 'International Tables Vol C Tables 4.2.6.8 and 6.1.1.4'
loop_
_geom_angle_atom_site_label_1
_geom_angle_atom_site_label_2
_geom_angle_atom_site_label_3
_geom_angle
H1W O1 H2W 115(4)
C1 N2 H2A 120.0
C1 N2 H2B 120.0
H2A N2 H2B 120.0
C1 N1 H1A 120.0
C1 N1 H1B 120.0
H1A N1 H1B 120.0
N1 C1 N2 117.8(5)
N1 C1 S1 121.4(3)
N2 C1 S1 120.8(4)
loop_
_geom_bond_atom_site_label_1
_geom_bond_atom_site_label_2
_geom_bond_distance
S1 C1 1.707(5)
O1 H1W 0.88(5)
O1 H2W 0.91(5)
N2 C1 1.329(4)
N2 H2A 0.8600
N2 H2B 0.8600
N1 C1 1.328(8)
N1 H1A 0.8600
N1 H1B 0.8600
loop_
_refln_index_h
_refln_index_k
_refln_index_l
_refln_F_squared_calc
_refln_F_squared_meas
_refln_F_squared_sigma
_refln_observed_status
1 0 0 283.49 224.43 2.04 o
2 0 0 31.48 43.01 1.17 o
3 0 0 43.70 49.36 2.55 o
4 0 0 681.60 640.03 13.98 o
5 0 0 634.90 604.28 7.92 o
6 0 0 69.71 62.53 1.91 o
7 0 0 83.49 82.21 2.54 o
8 0 0 0.13 4.28 3.92 o
2 1 0 207.93 244.02 4.69 o
3 1 0 40.94 45.10 0.84 o
4 1 0 372.86 378.67 6.34 o
5 1 0 37.28 35.49 1.20 o
6 1 0 43.06 41.92 1.23 o
7 1 0 6.64 6.34 1.20 o
4 2 0 224.17 207.69 4.52 o
5 2 0 93.21 84.49 3.17 o
-8 1 1 18.60 21.89 3.82 o
-7 1 1 205.31 210.08 2.56 o
-6 1 1 10.03 11.34 0.99 o
-5 1 1 893.02 882.79 15.09 o
-4 1 1 346.97 347.85 6.18 o
-3 1 1 836.69 783.48 14.07 o
-2 1 1 446.67 502.15 11.66 o
2 1 1 2982.83 3313.57 74.24 o
3 1 1 18.42 23.33 0.64 o
4 1 1 1139.63 1134.73 26.24 o
5 1 1 378.86 367.18 6.73 o
6 1 1 137.04 141.79 2.57 o
7 1 1 24.10 21.77 2.40 o
-6 2 1 27.05 31.77 2.25 o
-5 2 1 0.45 2.74 0.80 o
-4 2 1 190.78 186.99 2.43 o
-3 2 1 43.06 52.53 1.20 o
3 2 1 23.37 31.91 3.42 o
4 2 1 16.56 16.94 1.21 o
5 2 1 4.44 5.55 1.53 o
-8 0 2 103.88 94.55 5.20 o
-7 0 2 6.43 6.30 1.51 o
-6 0 2 252.61 253.92 7.88 o
-5 0 2 80.01 75.23 1.98 o
-4 0 2 76.01 63.55 2.08 o
-3 0 2 1151.93 1195.56 20.68 o
-2 0 2 4497.92 3981.23 100.39 o
-1 0 2 3820.98 3616.73 111.72 o
0 0 2 452.88 457.56 9.78 o
1 0 2 24.32 21.45 0.76 o
2 0 2 95.32 77.62 2.33 o
3 0 2 2489.09 2453.08 57.66 o
4 0 2 125.76 132.38 2.81 o
5 0 2 50.31 43.80 1.30 o
6 0 2 144.70 149.01 4.37 o
7 0 2 245.49 263.55 22.63 o
-8 1 2 13.20 10.79 4.72 o
-7 1 2 0.08 4.18 1.39 o
-6 1 2 30.78 28.91 1.07 o
-5 1 2 60.27 57.30 1.05 o
-4 1 2 37.51 32.87 0.86 o
-3 1 2 179.81 171.37 3.02 o
-2 1 2 225.51 227.55 6.88 o
-1 1 2 449.05 495.69 14.15 o
0 1 2 13.96 16.08 0.44 o
1 1 2 1401.70 1468.40 30.88 o
2 1 2 153.60 187.35 4.77 o
3 1 2 24.92 26.98 0.60 o
4 1 2 24.78 22.45 0.65 o
5 1 2 50.26 50.68 1.39 o
6 1 2 19.14 16.02 1.13 o
7 1 2 26.89 25.31 2.16 o
-7 2 2 2.28 8.76 2.93 o
-6 2 2 253.06 236.14 3.39 o
-5 2 2 50.31 49.45 1.73 o
-4 2 2 747.18 697.92 14.72 o
-3 2 2 608.23 631.54 7.95 o
-2 2 2 105.35 109.96 9.45 o
2 2 2 41.22 50.57 1.94 o
3 2 2 284.87 282.02 4.31 o
4 2 2 29.55 32.85 1.21 o
5 2 2 538.90 535.49 15.18 o
-7 1 3 149.43 158.35 9.10 o
-6 1 3 209.31 211.99 9.11 o
-5 1 3 390.63 377.02 9.47 o
-4 1 3 238.71 241.92 4.78 o
-3 1 3 21.35 18.07 0.49 o
-2 1 3 688.81 654.25 17.34 o
-1 1 3 37.04 33.46 0.72 o
0 1 3 2138.18 1951.48 30.92 o
1 1 3 1033.28 1002.78 47.30 o
2 1 3 1382.10 1528.39 42.47 o
3 1 3 47.83 44.44 0.89 o
4 1 3 527.90 500.54 7.88 o
5 1 3 138.14 154.65 6.35 o
6 1 3 0.10 3.11 1.07 o
7 1 3 145.84 151.50 6.97 o
-7 2 3 0.68 3.00 1.57 o
-6 2 3 38.52 38.88 1.93 o
-5 2 3 0.18 1.75 0.82 o
-4 2 3 24.55 20.65 1.03 o
-3 2 3 444.65 462.95 6.62 o
-2 2 3 1.79 3.47 0.57 o
-1 2 3 48.39 50.35 1.64 o
0 2 3 373.82 469.96 5.78 o
1 2 3 30.91 29.93 1.04 o
2 2 3 79.88 91.10 1.20 o
3 2 3 5.16 4.17 0.72 o
4 2 3 0.01 1.10 0.81 o
5 2 3 12.80 14.92 2.03 o
-7 0 4 124.85 130.07 4.35 o
-6 0 4 2.66 4.11 1.28 o
-5 0 4 635.07 651.47 5.57 o
-4 0 4 1.95 2.95 0.68 o
-3 0 4 1009.29 986.72 14.25 o
-2 0 4 238.45 259.15 10.85 o
-1 0 4 1334.13 1242.28 28.92 o
0 0 4 1.85 0.82 0.16 o
1 0 4 438.84 430.25 9.09 o
2 0 4 1003.24 999.38 28.18 o
3 0 4 9.45 10.84 1.03 o
4 0 4 372.58 381.81 8.18 o
5 0 4 10.62 9.66 1.66 o
6 0 4 472.86 484.21 14.40 o
7 0 4 0.22 2.00 3.31 o
-7 1 4 1.54 3.51 1.38 o
-6 1 4 64.39 58.69 2.68 o
-5 1 4 0.09 2.56 0.68 o
-4 1 4 130.51 129.01 2.04 o
-3 1 4 94.66 97.37 2.43 o
-2 1 4 29.41 33.06 2.65 o
-1 1 4 778.37 805.63 21.23 o
0 1 4 12.01 12.11 0.65 o
1 1 4 97.10 95.56 2.77 o
2 1 4 135.58 132.68 5.04 o
3 1 4 3.48 2.79 0.62 o
4 1 4 13.16 16.68 0.94 o
5 1 4 1.30 3.90 1.09 o
6 1 4 0.26 3.71 1.76 o
-7 2 4 164.86 176.67 10.76 o
-6 2 4 15.41 14.62 1.60 o
-5 2 4 248.76 244.20 6.46 o
-4 2 4 59.23 60.32 1.87 o
-3 2 4 1064.16 1052.60 27.93 o
-2 2 4 23.54 25.69 0.82 o
-1 2 4 1057.80 1142.73 21.53 o
0 2 4 283.26 265.93 2.17 o
1 2 4 11.05 12.04 0.62 o
2 2 4 706.34 680.28 7.32 o
3 2 4 211.28 206.31 6.03 o
4 2 4 490.81 508.93 6.93 o
5 2 4 8.86 10.33 2.17 o
-7 1 5 1.18 3.67 1.42 o
-6 1 5 262.20 251.64 3.25 o
-5 1 5 0.03 2.57 1.08 o
-4 1 5 49.79 47.56 2.10 o
-3 1 5 669.07 678.44 12.59 o
-2 1 5 264.79 269.34 4.07 o
-1 1 5 833.14 876.76 31.08 o
0 1 5 38.06 35.01 0.79 o
1 1 5 858.90 817.02 10.50 o
2 1 5 21.47 39.52 5.65 o
3 1 5 482.00 503.07 10.87 o
4 1 5 28.25 36.85 1.53 o
5 1 5 48.17 55.87 4.43 o
6 1 5 105.23 106.48 3.84 o
-7 2 5 5.60 6.95 2.58 o
-6 2 5 10.62 10.21 1.64 o
-5 2 5 17.27 20.27 1.61 o
-4 2 5 73.58 70.71 2.02 o
-3 2 5 1.04 3.18 0.73 o
-2 2 5 17.55 16.29 1.03 o
-1 2 5 399.80 412.98 6.30 o
0 2 5 27.36 34.31 1.24 o
1 2 5 360.29 365.19 10.54 o
2 2 5 0.08 1.63 0.69 o
3 2 5 0.44 2.16 0.88 o
4 2 5 44.81 40.84 1.52 o
5 2 5 6.14 4.95 1.95 o
-4 3 5 392.12 340.71 19.52 o
-3 3 5 136.36 128.27 6.92 o
-2 3 5 146.73 145.26 4.07 o
-1 3 5 381.08 378.65 3.28 o
-6 0 6 96.62 98.39 3.63 o
-5 0 6 0.49 2.59 0.96 o
-4 0 6 550.88 560.04 16.01 o
-3 0 6 241.70 235.07 2.91 o
-2 0 6 498.42 518.17 29.78 o
-1 0 6 7.51 13.10 1.15 o
0 0 6 71.59 60.40 1.32 o
1 0 6 691.90 678.38 23.12 o
2 0 6 573.11 568.36 19.24 o
3 0 6 94.26 96.30 2.94 o
4 0 6 148.07 149.99 6.28 o
5 0 6 213.32 227.81 36.17 o
-7 1 6 0.94 3.30 1.32 o
-6 1 6 1.88 3.93 1.37 o
-5 1 6 54.68 53.11 2.23 o
-4 1 6 14.47 16.97 1.21 o
-3 1 6 227.11 248.08 13.28 o
-2 1 6 1.75 3.09 0.81 o
-1 1 6 111.93 105.56 1.68 o
0 1 6 9.31 10.71 0.83 o
1 1 6 89.60 86.98 2.41 o
2 1 6 30.11 28.43 1.16 o
3 1 6 3.88 4.12 1.26 o
4 1 6 29.56 25.40 1.80 o
5 1 6 6.14 10.95 6.00 o
-7 2 6 27.35 33.32 6.20 o
-6 2 6 118.88 119.57 2.80 o
-5 2 6 106.84 111.08 3.96 o
-4 2 6 444.19 477.24 15.14 o
-3 2 6 35.24 34.45 1.31 o
-2 2 6 308.89 323.63 10.20 o
-1 2 6 17.10 16.86 1.16 o
0 2 6 479.69 494.61 10.15 o
1 2 6 103.20 101.54 2.69 o
2 2 6 334.01 350.43 6.81 o
3 2 6 207.85 203.44 2.74 o
5 2 6 157.79 155.35 8.14 o
-5 3 6 2.63 1.27 2.39 o
-4 3 6 45.18 43.82 2.08 o
-3 3 6 35.38 34.75 1.72 o
-2 3 6 2.92 4.80 1.22 o
-1 3 6 21.67 19.40 1.63 o
1 3 6 75.01 74.30 3.60 o
2 3 6 42.09 43.01 2.16 o
-6 1 7 0.08 3.36 1.24 o
-5 1 7 164.46 175.89 4.88 o
-4 1 7 103.93 109.94 2.95 o
-3 1 7 418.84 406.88 4.05 o
-2 1 7 55.68 53.94 1.44 o
-1 1 7 194.54 193.73 4.45 o
0 1 7 459.86 447.53 9.12 o
1 1 7 297.20 294.89 8.77 o
2 1 7 103.67 101.78 2.09 o
3 1 7 0.04 2.85 1.26 o
4 1 7 139.68 147.56 5.20 o
5 1 7 21.91 15.58 4.38 o
-6 2 7 1.12 9.06 2.96 o
-5 2 7 33.69 36.44 2.00 o
-4 2 7 43.98 48.30 2.30 o
-3 2 7 173.95 161.70 5.49 o
-2 2 7 6.35 5.58 0.96 o
-1 2 7 51.63 47.85 1.80 o
0 2 7 89.20 88.95 2.13 o
1 2 7 34.91 36.54 1.47 o
2 2 7 106.69 100.00 2.29 o
3 2 7 0.46 3.95 1.34 o
4 2 7 25.57 30.81 2.95 o
-4 3 7 0.19 3.95 1.77 o
-3 3 7 240.01 251.05 6.33 o
-2 3 7 259.86 263.43 4.53 o
-1 3 7 317.82 315.76 6.94 o
0 3 7 81.55 87.70 4.13 o
1 3 7 36.28 33.22 2.78 o
2 3 7 274.86 280.23 7.54 o
-3 0 8 30.02 33.65 3.44 o
-2 0 8 29.37 26.06 2.40 o
-1 0 8 359.38 321.77 5.49 o
0 0 8 7.67 11.07 1.62 o
1 0 8 461.50 452.48 13.83 o
2 0 8 0.09 2.91 1.50 o
-6 1 8 6.46 5.16 4.53 o
-5 1 8 9.99 11.82 2.37 o
-4 1 8 4.39 3.64 1.57 o
-3 1 8 4.32 3.83 1.64 o
-2 1 8 5.86 5.60 0.97 o
-1 1 8 4.61 5.34 1.38 o
0 1 8 68.03 59.13 2.00 o
1 1 8 4.68 4.73 0.95 o
2 1 8 77.02 73.69 2.30 o
3 1 8 4.07 4.35 1.53 o
4 1 8 10.04 19.45 2.23 o
-5 2 8 76.88 77.89 3.28 o
-4 2 8 68.55 1247.78 484.39 o
-3 2 8 87.13 87.09 2.67 o
-2 2 8 73.59 73.89 1.74 o
-1 2 8 249.41 252.79 3.47 o
0 2 8 5.25 5.51 1.30 o
1 2 8 303.08 303.09 8.79 o
2 2 8 7.31 5.52 1.31 o
3 2 8 174.85 180.09 3.92 o
4 2 8 16.30 15.09 2.90 o
-4 3 8 32.50 31.15 4.26 o
-3 3 8 15.73 18.14 2.63 o
-2 3 8 5.50 5.71 1.50 o
-1 3 8 0.11 3.88 1.50 o
0 3 8 11.48 12.95 1.58 o
1 3 8 22.30 22.35 2.08 o
2 3 8 15.13 15.05 2.14 o
-5 1 9 2.62 9.89 4.16 o
-4 1 9 147.09 153.43 5.13 o
-3 1 9 5.12 5.72 1.69 o
-2 1 9 254.66 272.69 7.66 o
-1 1 9 15.90 12.94 2.07 o
0 1 9 163.49 152.66 4.56 o
1 1 9 7.80 8.41 1.56 o
2 1 9 10.81 11.72 1.97 o
3 1 9 178.88 160.82 6.23 o
-5 2 9 0.55 3.61 2.30 o
-4 2 9 8.33 4.59 2.17 o
-3 2 9 7.20 8.56 2.00 o
-2 2 9 64.97 58.69 2.24 o
-1 2 9 6.86 74.69 22.04 o
0 2 9 4.21 4.40 1.31 o
1 2 9 10.93 8.70 1.62 o
2 2 9 8.12 7.20 1.92 o
3 2 9 1.99 7.11 2.89 o
-3 3 9 0.06 4.01 2.60 o
-2 3 9 62.60 62.88 4.25 o
-1 3 9 8.29 12.84 2.15 o
0 3 9 197.14 202.38 6.08 o
1 3 9 88.61 87.46 3.58 o
-3 1 10 0.02 2.89 3.84 o
-2 1 10 7.20 6.66 2.65 o
-1 1 10 0.08 14.40 6.81 o
0 1 10 7.09 7.61 1.66 o
1 1 10 2.93 3.82 4.25 o
-2 2 10 122.43 130.08 10.14 o
-1 2 10 39.43 44.09 2.41 o
0 2 10 92.20 88.24 3.01 o
1 2 10 47.06 3078.37 2082.31 o
-2 3 10 0.00 1.32 3.06 o
-1 3 10 1.86 3.58 3.68 o
loop_
_cod_related_entry_id
_cod_related_entry_database
_cod_related_entry_code
1 ChemSpider 30652503
