#------------------------------------------------------------------------------
#$Date: 2016-03-24 03:07:40 +0200 (Thu, 24 Mar 2016) $
#$Revision: 179614 $
#$URL: svn://www.crystallography.net/cod/cif/4/50/78/4507890.cif $
#------------------------------------------------------------------------------
#
# This file is available in the Crystallography Open Database (COD),
# http://www.crystallography.net/
#
# All data on this site have been placed in the public domain by the
# contributors.
#
data_4507890
loop_
_publ_author_name
'Gilli, Gastone'
'Bertolasi, Valerio'
'Gilli, Paola'
_publ_section_title
;
 Solid-State N--H&#x00B7;&#x00B7;&#x00B7;O/O--H&#x00B7;&#x00B7;&#x00B7;N
 Tautomerism in Resonance-Assisted 1-(Arylazo)-2-Naphthols and Its
 Through-Space\p* \\leftarrow \pPerturbation in TCNQ Cocrystals. A
 Variable-Temperature X-ray Crystal Study
;
_journal_issue                   8
_journal_name_full               'Crystal Growth &amp; Design'
_journal_page_first              3308
_journal_paper_doi               10.1021/cg301546v
_journal_volume                  13
_journal_year                    2013
_chemical_formula_moiety         'C17 H14 N2 O'
_chemical_formula_sum            'C17 H14 N2 O'
_chemical_formula_weight         262.30
_chemical_name_systematic
;
 ?
;
_space_group_IT_number           4
_symmetry_cell_setting           monoclinic
_symmetry_space_group_name_Hall  'P 2yb'
_symmetry_space_group_name_H-M   'P 1 21 1'
_atom_sites_solution_hydrogens   difmap
_atom_sites_solution_primary     direct
_atom_sites_solution_secondary   difmap
_audit_creation_method           SHELXL-97
_cell_angle_alpha                90.00
_cell_angle_beta                 97.6626(14)
_cell_angle_gamma                90.00
_cell_formula_units_Z            2
_cell_length_a                   4.7701(2)
_cell_length_b                   9.6744(4)
_cell_length_c                   14.4676(7)
_cell_measurement_reflns_used    6159
_cell_measurement_temperature    295
_cell_measurement_theta_max      28.00
_cell_measurement_theta_min      4.31
_cell_volume                     661.69(5)
_computing_cell_refinement       'Denzo-SMN (Otwinowski & Minor, 1997)'
_computing_data_collection       'COLLECT (Nonius, 1998)'
_computing_data_reduction        'Denzo-SMN (Otwinowski & Minor, 1997)'
_computing_molecular_graphics    'ORTEPIII (Burnett & Johnson, 1996)'
_computing_publication_material
'SHELXL-97 (Sheldrick, 1997), PARST (Nardelli, 1995), PLATON (Spek, 2003)'
_computing_structure_refinement  'SHELXL-97 (Sheldrick, 1997)'
_computing_structure_solution    'SIR97 (Altomare et al., 1999)'
_diffrn_ambient_temperature      295
_diffrn_measured_fraction_theta_full 0.994
_diffrn_measured_fraction_theta_max 0.994
_diffrn_measurement_device_type  'Nonius Kappa CCD'
_diffrn_measurement_method       '\f scand and \w scans'
_diffrn_radiation_monochromator  graphite
_diffrn_radiation_source         'fine-focus sealed tube'
_diffrn_radiation_type           MoK\a
_diffrn_radiation_wavelength     0.71073
_diffrn_reflns_av_R_equivalents  0.0290
_diffrn_reflns_av_sigmaI/netI    0.0433
_diffrn_reflns_limit_h_max       6
_diffrn_reflns_limit_h_min       -6
_diffrn_reflns_limit_k_max       11
_diffrn_reflns_limit_k_min       -12
_diffrn_reflns_limit_l_max       19
_diffrn_reflns_limit_l_min       -19
_diffrn_reflns_number            6159
_diffrn_reflns_theta_full        28.00
_diffrn_reflns_theta_max         28.00
_diffrn_reflns_theta_min         4.31
_exptl_absorpt_coefficient_mu    0.083
_exptl_absorpt_correction_type   none
_exptl_crystal_colour            red
_exptl_crystal_density_diffrn    1.317
_exptl_crystal_density_method    'not measured'
_exptl_crystal_description       prismatic
_exptl_crystal_F_000             276
_exptl_crystal_size_max          0.41
_exptl_crystal_size_mid          0.35
_exptl_crystal_size_min          0.18
_refine_diff_density_max         0.131
_refine_diff_density_min         -0.158
_refine_diff_density_rms         0.029
_refine_ls_abs_structure_details 'Flack H D (1983), Acta Cryst. A39, 876-881'
_refine_ls_abs_structure_Flack   1.4(14)
_refine_ls_extinction_method     none
_refine_ls_goodness_of_fit_ref   1.046
_refine_ls_hydrogen_treatment    refall
_refine_ls_matrix_type           full
_refine_ls_number_parameters     240
_refine_ls_number_reflns         2913
_refine_ls_number_restraints     2
_refine_ls_restrained_S_all      1.046
_refine_ls_R_factor_all          0.0586
_refine_ls_R_factor_gt           0.0414
_refine_ls_shift/su_max          0.001
_refine_ls_shift/su_mean         0.000
_refine_ls_structure_factor_coef Fsqd
_refine_ls_weighting_details
'calc w=1/[\s^2^(Fo^2^)+(0.0635P)^2^+0.0000P] where P=(Fo^2^+2Fc^2^)/3'
_refine_ls_weighting_scheme      calc
_refine_ls_wR_factor_gt          0.0988
_refine_ls_wR_factor_ref         0.1082
_reflns_number_gt                2258
_reflns_number_total             2913
_reflns_threshold_expression     I>2sigma(I)
_cod_data_source_file            cg301546v_si_002.cif
_cod_data_source_block           2'-T295
_cod_original_sg_symbol_H-M      'P 21'
_cod_database_code               4507890
loop_
_symmetry_equiv_pos_as_xyz
'x, y, z'
'-x, y+1/2, -z'
loop_
_atom_site_label
_atom_site_type_symbol
_atom_site_fract_x
_atom_site_fract_y
_atom_site_fract_z
_atom_site_U_iso_or_equiv
_atom_site_adp_type
_atom_site_occupancy
_atom_site_symmetry_multiplicity
_atom_site_calc_flag
_atom_site_refinement_flags
O1 O 0.4362(3) 0.19334(15) 0.62366(9) 0.0621(4) Uani 1 1 d D
H1B H 0.561(12) 0.124(7) 0.622(4) 0.075 Uiso 0.41(3) 1 d PD
N1 N 0.6745(3) 0.00294(13) 0.76577(9) 0.0441(3) Uani 1 1 d .
N2 N 0.7616(3) -0.00522(14) 0.68516(10) 0.0450(3) Uani 1 1 d D
H1A H 0.695(7) 0.043(4) 0.635(2) 0.054 Uiso 0.59(3) 1 d P
C1 C 0.4783(3) 0.10121(16) 0.77777(11) 0.0421(4) Uani 1 1 d .
C2 C 0.3613(3) 0.19448(16) 0.70584(12) 0.0483(4) Uani 1 1 d D
C3 C 0.1516(3) 0.29205(19) 0.72785(14) 0.0534(4) Uani 1 1 d .
C4 C 0.0690(4) 0.29661(19) 0.81264(14) 0.0525(4) Uani 1 1 d .
C5 C 0.1812(3) 0.20443(16) 0.88689(11) 0.0445(4) Uani 1 1 d .
C6 C 0.3855(3) 0.10578(15) 0.86891(11) 0.0406(3) Uani 1 1 d .
C7 C 0.4921(4) 0.01529(18) 0.94126(12) 0.0493(4) Uani 1 1 d .
C8 C 0.4008(4) 0.02336(19) 1.02738(13) 0.0530(4) Uani 1 1 d .
C9 C 0.2013(4) 0.1214(2) 1.04498(14) 0.0569(5) Uani 1 1 d .
C10 C 0.0918(3) 0.21043(19) 0.97564(13) 0.0543(4) Uani 1 1 d .
C11 C 0.9597(3) -0.10937(16) 0.67183(11) 0.0432(4) Uani 1 1 d .
C12 C 1.0789(3) -0.1959(2) 0.74301(12) 0.0483(4) Uani 1 1 d .
C13 C 1.2678(4) -0.29683(18) 0.72375(13) 0.0504(4) Uani 1 1 d .
C14 C 1.3447(3) -0.31399(17) 0.63513(12) 0.0487(4) Uani 1 1 d .
C15 C 1.2293(4) -0.2237(2) 0.56569(14) 0.0574(5) Uani 1 1 d .
C16 C 1.0386(4) -0.1228(2) 0.58357(13) 0.0554(4) Uani 1 1 d .
C17 C 1.5505(4) -0.4250(2) 0.61531(19) 0.0644(5) Uani 1 1 d .
H3 H 0.068(4) 0.353(2) 0.6741(15) 0.071(6) Uiso 1 1 d .
H4 H -0.082(4) 0.365(2) 0.8264(13) 0.063(6) Uiso 1 1 d .
H7 H 0.625(4) -0.055(2) 0.9288(12) 0.052(5) Uiso 1 1 d .
H8 H 0.488(4) -0.039(2) 1.0775(14) 0.060(5) Uiso 1 1 d .
H9 H 0.147(4) 0.124(3) 1.1071(17) 0.079(6) Uiso 1 1 d .
H10 H -0.053(4) 0.281(2) 0.9890(14) 0.065(5) Uiso 1 1 d .
H12 H 1.028(4) -0.181(2) 0.8059(17) 0.067(6) Uiso 1 1 d .
H13 H 1.352(4) -0.351(2) 0.7738(14) 0.065(6) Uiso 1 1 d .
H15 H 1.279(4) -0.231(2) 0.5038(16) 0.062(5) Uiso 1 1 d .
H16 H 0.961(4) -0.055(2) 0.5349(13) 0.059(5) Uiso 1 1 d .
H171 H 1.671(7) -0.465(4) 0.680(2) 0.135(11) Uiso 1 1 d .
H172 H 1.715(9) -0.397(5) 0.594(3) 0.168(14) Uiso 1 1 d .
H173 H 1.468(8) -0.504(4) 0.585(2) 0.139(11) Uiso 1 1 d .
loop_
_atom_site_aniso_label
_atom_site_aniso_U_11
_atom_site_aniso_U_22
_atom_site_aniso_U_33
_atom_site_aniso_U_23
_atom_site_aniso_U_13
_atom_site_aniso_U_12
O1 0.0736(8) 0.0611(8) 0.0543(8) 0.0103(6) 0.0176(6) 0.0113(7)
N1 0.0414(6) 0.0402(7) 0.0523(8) -0.0037(6) 0.0124(5) -0.0042(6)
N2 0.0485(7) 0.0411(7) 0.0472(8) -0.0007(7) 0.0126(6) 0.0019(6)
C1 0.0413(7) 0.0365(8) 0.0493(9) -0.0032(7) 0.0087(6) -0.0025(7)
C2 0.0488(8) 0.0397(9) 0.0570(10) 0.0019(8) 0.0095(7) -0.0043(8)
C3 0.0525(9) 0.0431(10) 0.0646(12) 0.0055(9) 0.0081(8) 0.0036(9)
C4 0.0485(8) 0.0408(9) 0.0695(11) -0.0035(9) 0.0127(8) 0.0034(8)
C5 0.0403(7) 0.0376(8) 0.0558(10) -0.0084(8) 0.0075(7) -0.0046(7)
C6 0.0381(7) 0.0349(8) 0.0498(9) -0.0047(7) 0.0091(6) -0.0067(6)
C7 0.0492(8) 0.0475(10) 0.0521(9) -0.0020(8) 0.0100(7) 0.0015(8)
C8 0.0566(9) 0.0546(11) 0.0491(10) 0.0013(8) 0.0111(7) -0.0017(8)
C9 0.0610(10) 0.0615(11) 0.0513(10) -0.0099(9) 0.0186(8) -0.0078(9)
C10 0.0499(9) 0.0514(10) 0.0640(12) -0.0124(9) 0.0169(8) 0.0008(9)
C11 0.0410(7) 0.0395(9) 0.0506(10) -0.0025(7) 0.0122(6) -0.0037(7)
C12 0.0516(8) 0.0487(10) 0.0460(10) -0.0013(8) 0.0119(7) -0.0016(8)
C13 0.0484(8) 0.0479(10) 0.0545(11) 0.0009(9) 0.0052(8) 0.0002(8)
C14 0.0381(7) 0.0444(9) 0.0645(11) -0.0078(8) 0.0102(7) -0.0047(7)
C15 0.0591(9) 0.0641(12) 0.0525(11) -0.0036(9) 0.0204(8) 0.0059(9)
C16 0.0583(10) 0.0603(11) 0.0490(11) 0.0045(9) 0.0128(8) 0.0098(9)
C17 0.0519(9) 0.0508(11) 0.0922(16) -0.0118(10) 0.0151(10) 0.0027(9)
loop_
_atom_type_symbol
_atom_type_description
_atom_type_scat_dispersion_real
_atom_type_scat_dispersion_imag
_atom_type_scat_source
C C 0.0033 0.0016 'International Tables Vol C Tables 4.2.6.8 and 6.1.1.4'
H H 0.0000 0.0000 'International Tables Vol C Tables 4.2.6.8 and 6.1.1.4'
N N 0.0061 0.0033 'International Tables Vol C Tables 4.2.6.8 and 6.1.1.4'
O O 0.0106 0.0060 'International Tables Vol C Tables 4.2.6.8 and 6.1.1.4'
loop_
_geom_angle_atom_site_label_1
_geom_angle_atom_site_label_2
_geom_angle_atom_site_label_3
_geom_angle
C2 O1 H1B 107(4)
N2 N1 C1 117.85(13)
N1 N2 C11 117.93(14)
N1 N2 H1A 126(2)
C11 N2 H1A 116(2)
N1 C1 C2 123.71(14)
N1 C1 C6 115.90(13)
C2 C1 C6 120.38(13)
O1 C2 C1 122.44(15)
O1 C2 C3 119.75(15)
C1 C2 C3 117.81(15)
C4 C3 C2 121.47(16)
C4 C3 H3 123.4(12)
C2 C3 H3 115.0(13)
C3 C4 C5 122.45(16)
C3 C4 H4 120.2(11)
C5 C4 H4 117.3(11)
C10 C5 C6 119.76(15)
C10 C5 C4 121.76(14)
C6 C5 C4 118.48(14)
C7 C6 C5 118.23(13)
C7 C6 C1 122.36(13)
C5 C6 C1 119.41(14)
C8 C7 C6 120.80(15)
C8 C7 H7 120.3(10)
C6 C7 H7 118.9(10)
C7 C8 C9 120.76(18)
C7 C8 H8 118.5(11)
C9 C8 H8 120.7(11)
C10 C9 C8 119.84(18)
C10 C9 H9 122.6(14)
C8 C9 H9 117.5(14)
C9 C10 C5 120.60(16)
C9 C10 H10 119.2(12)
C5 C10 H10 120.2(12)
C16 C11 C12 119.50(14)
C16 C11 N2 117.51(14)
C12 C11 N2 122.98(14)
C13 C12 C11 119.34(16)
C13 C12 H12 122.6(13)
C11 C12 H12 118.0(13)
C12 C13 C14 122.00(16)
C12 C13 H13 117.5(13)
C14 C13 H13 120.4(13)
C15 C14 C13 117.67(15)
C15 C14 C17 121.04(17)
C13 C14 C17 121.27(17)
C16 C15 C14 121.09(17)
C16 C15 H15 118.5(13)
C14 C15 H15 120.4(13)
C15 C16 C11 120.34(16)
C15 C16 H16 121.5(11)
C11 C16 H16 118.1(11)
C14 C17 H171 111.9(17)
C14 C17 H172 118(3)
H171 C17 H172 91(3)
C14 C17 H173 115(2)
H171 C17 H173 104(3)
H172 C17 H173 114(3)
loop_
_geom_bond_atom_site_label_1
_geom_bond_atom_site_label_2
_geom_bond_distance
O1 C2 1.286(2)
O1 H1B 0.90(8)
N1 N2 1.2915(17)
N1 C1 1.3614(19)
N2 C11 1.4120(19)
N2 H1A 0.89(4)
C1 C2 1.433(2)
C1 C6 1.446(2)
C2 C3 1.441(2)
C3 C4 1.338(2)
C3 H3 1.01(2)
C4 C5 1.443(3)
C4 H4 1.02(2)
C5 C10 1.407(2)
C5 C6 1.413(2)
C6 C7 1.407(2)
C7 C8 1.376(2)
C7 H7 0.97(2)
C8 C9 1.391(3)
C8 H8 0.99(2)
C9 C10 1.372(3)
C9 H9 0.97(2)
C10 H10 1.01(2)
C11 C16 1.385(2)
C11 C12 1.389(2)
C12 C13 1.382(3)
C12 H12 0.98(2)
C13 C14 1.390(2)
C13 H13 0.94(2)
C14 C15 1.388(3)
C14 C17 1.508(2)
C15 C16 1.383(3)
C15 H15 0.96(2)
C16 H16 0.99(2)
C17 H171 1.10(4)
C17 H172 0.92(4)
C17 H173 0.94(4)
