#------------------------------------------------------------------------------
#$Date: 2016-03-24 03:03:52 +0200 (Thu, 24 Mar 2016) $
#$Revision: 179611 $
#$URL: svn://www.crystallography.net/cod/cif/4/50/75/4507559.cif $
#------------------------------------------------------------------------------
#
# This file is available in the Crystallography Open Database (COD),
# http://www.crystallography.net/
#
# All data on this site have been placed in the public domain by the
# contributors.
#
data_4507559
loop_
_publ_author_name
'Ridout, Joe'
'Probert, Michael R.'
_publ_section_title
;
 High-Pressure and Low-Temperature Polymorphism in
 C--H&#x00B7;&#x00B7;&#x00B7;F--C Hydrogen Bonded Monofluorotoluenes
;
_journal_issue                   5
_journal_name_full               'Crystal Growth &amp; Design'
_journal_page_first              1943
_journal_paper_doi               10.1021/cg301773h
_journal_volume                  13
_journal_year                    2013
_chemical_absolute_configuration unk
_chemical_formula_moiety         'C7 H7 F'
_chemical_formula_sum            'C7 H7 F'
_chemical_formula_weight         110.13
_chemical_name_systematic        4-fluorotoluene
_space_group_crystal_system      orthorhombic
_space_group_IT_number           33
_space_group_name_Hall           'P 2c -2n'
_space_group_name_H-M_alt        'P n a 21'
_symmetry_space_group_name_Hall  'P 2c -2n'
_symmetry_space_group_name_H-M   'P n a 21'
_atom_sites_solution_hydrogens   geom
_atom_sites_solution_primary     dual
_atom_sites_solution_secondary   difmap
_audit_creation_date             2012-11-19
_audit_creation_method
;
  Olex2 1.2-alpha
  (compiled 2012.02.07 svn.r2199, GUI svn.r4069)
;
_cell_angle_alpha                90.00
_cell_angle_beta                 90.00
_cell_angle_gamma                90.00
_cell_formula_units_Z            4
_cell_length_a                   13.215(4)
_cell_length_b                   4.7872(8)
_cell_length_c                   8.9622(19)
_cell_measurement_reflns_used    872
_cell_measurement_temperature    293.15
_cell_measurement_theta_max      19.61
_cell_measurement_theta_min      3.02
_cell_volume                     567.0(2)
_computing_cell_refinement       'SAINT v7.68A (Bruker, 2009)'
_computing_data_collection       'APEX2 (Bruker, 2010)'
_computing_data_reduction        'SAINT v8.27A (Bruker, 2012)'
_computing_molecular_graphics
;
O. V. Dolomanov, L. J. Bourhis, R. J. Gildea, J. A. K. Howard and H. Puschmann,
OLEX2: a complete structure solution, refinement and analysis program.
J. Appl. Cryst. (2009). 42, 339-341.
;
_computing_publication_material
;
O. V. Dolomanov, L. J. Bourhis, R. J. Gildea, J. A. K. Howard and H. Puschmann,
OLEX2: a complete structure solution, refinement and analysis program.
J. Appl. Cryst. (2009). 42, 339-341.
;
_computing_structure_refinement
;
XL, G.M. Sheldrick, Acta Cryst.
(2008). A64, 112-122
;
_computing_structure_solution
;
XM, G.M. Sheldrick, Acta Cryst.
(2008). A64, 112-122
;
_diffrn_ambient_temperature      293.15
_diffrn_detector                 'CCD area detector'
_diffrn_detector_area_resol_mean 7.9
_diffrn_detector_type            'Bruker APEXII CCD area detector'
_diffrn_measured_fraction_theta_full 0.701
_diffrn_measured_fraction_theta_max 0.701
_diffrn_measurement_device       'four-circle diffractometer'
_diffrn_measurement_device_type  'Bruker APEXII CCD area detector'
_diffrn_measurement_method       '\f scans'
_diffrn_radiation_collimation    'Multilayer mirrors'
_diffrn_radiation_monochromator  'Bruker Helios multilayer mirrors'
_diffrn_radiation_probe          x-ray
_diffrn_radiation_type           'Ag K\a'
_diffrn_radiation_wavelength     0.56087
_diffrn_radiation_xray_symbol    K-L~3~
_diffrn_reflns_av_R_equivalents  0.0503
_diffrn_reflns_av_unetI/netI     0.1061
_diffrn_reflns_limit_h_max       11
_diffrn_reflns_limit_h_min       -11
_diffrn_reflns_limit_k_max       5
_diffrn_reflns_limit_k_min       -5
_diffrn_reflns_limit_l_max       7
_diffrn_reflns_limit_l_min       -9
_diffrn_reflns_number            3013
_diffrn_reflns_theta_full        18.33
_diffrn_reflns_theta_max         18.33
_diffrn_reflns_theta_min         3.02
_diffrn_source                   'Microfocus sealed tube'
_diffrn_source_target            Ag
_diffrn_source_type              'Incoatec IuS'
_diffrn_standards_number         0
_exptl_absorpt_coefficient_mu    0.059
_exptl_absorpt_correction_T_max  0.7445
_exptl_absorpt_correction_T_min  0.5374
_exptl_absorpt_correction_type   multi-scan
_exptl_absorpt_process_details
;
SADABS-2008/1 (Bruker,2008) was used for absorption correction.
R(int) was 0.1072 before and 0.0551 after correction.
The Ratio of minimum to maximum transmission is 0.7218.
The \l/2 correction factor is 0.0015.
;
_exptl_crystal_colour            'clear light colourless'
_exptl_crystal_colour_lustre     clear
_exptl_crystal_colour_modifier   light
_exptl_crystal_colour_primary    colourless
_exptl_crystal_density_diffrn    1.290
_exptl_crystal_density_meas      ?
_exptl_crystal_density_method    'not measured'
_exptl_crystal_description       Cylinder
_exptl_crystal_F_000             232
_exptl_crystal_recrystallization_method
'Crystallised at high-pressure using a diamond anvil cell.'
_exptl_crystal_size_max          0.25
_exptl_crystal_size_mid          0.25
_exptl_crystal_size_min          0.12
_exptl_crystal_size_rad          0.25
_refine_diff_density_max         0.218
_refine_diff_density_min         -0.250
_refine_diff_density_rms         0.050
_refine_ls_abs_structure_details 'Flack H D (1983), Acta Cryst. A39, 876-881'
_refine_ls_abs_structure_Flack   -4(7)
_refine_ls_extinction_method     none
_refine_ls_goodness_of_fit_ref   1.050
_refine_ls_hydrogen_treatment    constr
_refine_ls_matrix_type           full
_refine_ls_number_parameters     74
_refine_ls_number_reflns         540
_refine_ls_number_restraints     1
_refine_ls_restrained_S_all      1.049
_refine_ls_R_factor_all          0.0923
_refine_ls_R_factor_gt           0.0499
_refine_ls_shift/su_max          0.016
_refine_ls_shift/su_mean         0.005
_refine_ls_structure_factor_coef Fsqd
_refine_ls_weighting_details
'calc w=1/[\s^2^(Fo^2^)+(0.0500P)^2^+0.2338P] where P=(Fo^2^+2Fc^2^)/3'
_refine_ls_weighting_scheme      calc
_refine_ls_wR_factor_gt          0.1296
_refine_ls_wR_factor_ref         0.1692
_reflns_number_gt                369
_reflns_number_total             540
_reflns_threshold_expression     >2sigma(I)
_cod_data_source_file            cg301773h_si_006.cif
_cod_data_source_block           final
_cod_depositor_comments
;
The following automatic conversions were performed:

'_exptl_crystal_density_meas' value 'not_measured' was changed to '?'
- the value is perceived as not measured.

Automatic conversion script
Id: cif_fix_values 3008 2015-01-20 13:52:24Z robertas 
;
_cod_database_code               4507559
#BEGIN Tags that were not found in dictionaries:
_olex2_refinement_description
;
1. Others
 Fixed Uiso: H4(0.056) H3(0.06) H1(0.079) H2(0.075) H5(0.104) H7(0.104)
 H6(0.104)
 Fixed X: H4(0.4246) H3(0.297) H1(0.4175) H2(0.289) H5(0.5781) H7(0.5451)
 H6(0.5005)
 Fixed Y: H4(0.6655) H3(0.3341) H1(0.6579) H2(0.3378) H5(0.8305) H7(0.9233)
 H6(1.0752)
 Fixed Z: H4(-0.0778) H3(-0.08) H1(0.3636) H2(0.3637) H5(0.0917) H7(0.2523)
 H6(0.112)
;
_shelx_res_file
;
TITL Final in Pna21 #33
CELL 0.56086 13.2153 4.7872 8.9622 90 90 90
ZERR 4 0.0035 0.0008 0.0019 0 0 0
LATT -1
SYMM -X,-Y,0.5+Z
SYMM 0.5-X,0.5+Y,0.5+Z
SYMM 0.5+X,0.5-Y,+Z
 
SFAC C H F
UNIT 28 28 4
 
L.S. 4 0 0 511
PLAN  20
SIZE 0.12 0.25 0.25
TEMP 23
REM TRY 11 FINAL CC 74.45 TIME 0 SECS
REM Fragments: 8
REM reset to Pna21 #33
fmap 2
acta
OMIT 3 2 -7
OMIT 9 2 4
OMIT 2 1 -7
REM <HKL>K:/FluorotoluenePaper/4FTHPwork/Final.hkl</HKL>
 
WGHT    0.050000    0.233800
FVAR       0.09397
F1    3    0.206571    0.115310    0.145425    11.00000    0.07455    0.06509 =
         0.08063   -0.00586   -0.01092   -0.01673
C6    1    0.398660    0.597327    0.011513    11.00000    0.04184    0.04309 =
         0.05568    0.01116    0.02289    0.00946
AFIX  43
H4    2    0.424560    0.665522   -0.077832    11.00000   -1.20000
AFIX   0
C5    1    0.322562    0.402668    0.009547    11.00000    0.04998    0.05157 =
         0.04900   -0.00986    0.00583    0.00801
AFIX  43
H3    2    0.297033    0.334126   -0.079955    11.00000   -1.20000
AFIX   0
C2    1    0.393726    0.592604    0.272418    11.00000    0.07947    0.05395 =
         0.06326   -0.01088    0.02057   -0.00846
AFIX  43
H1    2    0.417497    0.657947    0.363639    11.00000   -1.20000
AFIX   0
C3    1    0.316460    0.399658    0.274024    11.00000    0.06860    0.06081 =
         0.05697   -0.01278    0.01063   -0.00292
AFIX  43
H2    2    0.288980    0.337779    0.363655    11.00000   -1.20000
AFIX   0
C1    1    0.437406    0.693540    0.146757    11.00000    0.05661    0.03423 =
         0.06301   -0.00473    0.02270    0.00529
C4    1    0.283666    0.308339    0.150194    11.00000    0.05677    0.04003 =
         0.05971    0.00351    0.02562    0.00085
C7    1    0.522986    0.899103    0.151083    11.00000    0.07409    0.05445 =
         0.07852    0.00154    0.02464   -0.00276
AFIX 137
H5    2    0.578112    0.830452    0.091740    11.00000   -1.50000
H7    2    0.545128    0.923258    0.252283    11.00000   -1.50000
H6    2    0.500501    1.075190    0.111995    11.00000   -1.50000
HKLF 4
 
REM  Final in Pna21 #33
REM R1 =  0.0499 for    369 Fo > 4sig(Fo)  and  0.0923 for all    540 data
REM     74 parameters refined using      1 restraints
 
END  
     
WGHT      0.0502      0.2313 
REM Highest difference peak  0.218,  deepest hole -0.250,  1-sigma level  0.050
Q1    1   0.5148  1.1262  0.1457  11.00000  0.05    0.22
Q2    1   0.2208 -0.1469  0.1466  11.00000  0.05    0.21
Q3    1   0.6145  1.0474  0.1451  11.00000  0.05    0.17
Q4    1   0.5483  1.3448  0.1421  11.00000  0.05    0.17
Q5    1   0.2977  0.0008  0.2060  11.00000  0.05    0.16
Q6    1   0.6145  0.5665  0.1430  11.00000  0.05    0.16
Q7    1   0.4992  0.4079  0.2716  11.00000  0.05    0.16
Q8    1   0.2886  0.0085  0.0788  11.00000  0.05    0.15
Q9    1   0.3233  0.5848 -0.0638  11.00000  0.05    0.15
Q10   1   0.3772  0.5018  0.5160  11.00000  0.05    0.14
Q11   1   0.1187  0.0097  0.2671  11.00000  0.05    0.14
Q12   1   0.2807  0.1699  0.5367  11.00000  0.05    0.14
Q13   1   0.2854  0.4624  0.0685  11.00000  0.05    0.13
Q14   1   0.2715  0.4606  0.2119  11.00000  0.05    0.13
Q15   1   0.1742  0.0955  0.1360  11.00000  0.05    0.13
Q16   1   0.2766  0.4101  0.3329  11.00000  0.05    0.12
Q17   1   0.3896  0.3466 -0.0512  11.00000  0.05    0.12
Q18   1   0.5574  1.1257  0.2706  11.00000  0.05    0.12
Q19   1   0.5630  0.6271  0.2795  11.00000  0.05    0.11
Q20   1   0.5646  1.1200  0.0100  11.00000  0.05    0.11

REM The information below was added by Olex2.
REM
REM R1 = 0.0499 for 369 Fo > 4sig(Fo) and n/a for all 3393 data
REM n/a parameters refined using n/a restraints
REM Highest difference peak 0.22, deepest hole -0.25
REM Mean Shift 0.005, Max Shift 0.

REM +++ Tabular Listing of Refinement Information +++
REM R1_all = n/a
REM R1_gt = 0.0499
REM wR_ref = 0.1692
REM GOOF = 1.050
REM Shift_max = 0
REM Shift_mean = 0.005
REM Reflections_all = 3393
REM Reflections_gt = 369
REM Parameters = n/a
REM Hole = 0.22
REM Peak = -0.25
REM Flack = -4(7)
;
#END Tags that were not found in dictionaries
loop_
_space_group_symop_id
_space_group_symop_operation_xyz
1 'x, y, z'
2 '-x, -y, z+1/2'
3 '-x+1/2, y+1/2, z+1/2'
4 'x+1/2, -y+1/2, z'
loop_
_atom_site_label
_atom_site_type_symbol
_atom_site_fract_x
_atom_site_fract_y
_atom_site_fract_z
_atom_site_U_iso_or_equiv
_atom_site_adp_type
_atom_site_occupancy
_atom_site_symmetry_multiplicity
_atom_site_calc_flag
_atom_site_refinement_flags
F1 F 0.2066(3) 0.1153(5) 0.1454(8) 0.0734(14) Uani 1 1 d .
C6 C 0.3987(9) 0.5973(19) 0.0115(7) 0.047(3) Uani 1 1 d .
H4 H 0.4246 0.6655 -0.0778 0.056 Uiso 1 1 calc R
C5 C 0.3226(10) 0.403(2) 0.0095(8) 0.050(3) Uani 1 1 d .
H3 H 0.2970 0.3341 -0.0800 0.060 Uiso 1 1 calc R
C2 C 0.3937(11) 0.5926(19) 0.2724(9) 0.066(4) Uani 1 1 d .
H1 H 0.4175 0.6579 0.3636 0.079 Uiso 1 1 calc R
C3 C 0.3165(11) 0.400(2) 0.2740(9) 0.062(3) Uani 1 1 d .
H2 H 0.2890 0.3378 0.3637 0.075 Uiso 1 1 calc R
C1 C 0.4374(5) 0.6935(8) 0.1468(16) 0.0513(19) Uani 1 1 d .
C4 C 0.2837(5) 0.3083(9) 0.1502(13) 0.0522(19) Uani 1 1 d .
C7 C 0.5230(6) 0.8991(8) 0.1511(14) 0.069(2) Uani 1 1 d .
H5 H 0.5781 0.8305 0.0917 0.104 Uiso 1 1 calc R
H7 H 0.5451 0.9233 0.2523 0.104 Uiso 1 1 calc R
H6 H 0.5005 1.0752 0.1120 0.104 Uiso 1 1 calc R
loop_
_atom_site_aniso_label
_atom_site_aniso_U_11
_atom_site_aniso_U_22
_atom_site_aniso_U_33
_atom_site_aniso_U_23
_atom_site_aniso_U_13
_atom_site_aniso_U_12
F1 0.075(4) 0.0651(16) 0.081(3) -0.006(5) -0.011(4) -0.0167(16)
C6 0.042(9) 0.043(5) 0.056(7) 0.011(5) 0.023(4) 0.009(5)
C5 0.050(9) 0.052(5) 0.049(7) -0.010(4) 0.006(4) 0.008(5)
C2 0.079(13) 0.054(6) 0.063(9) -0.011(5) 0.021(5) -0.008(7)
C3 0.069(11) 0.061(7) 0.057(9) -0.013(5) 0.011(4) -0.003(6)
C1 0.057(6) 0.0342(19) 0.063(4) -0.005(6) 0.023(6) 0.005(2)
C4 0.057(6) 0.040(2) 0.060(4) 0.004(6) 0.026(5) 0.001(3)
C7 0.074(7) 0.054(2) 0.079(5) 0.002(8) 0.025(7) -0.003(3)
loop_
_atom_type_symbol
_atom_type_description
_atom_type_scat_dispersion_real
_atom_type_scat_dispersion_imag
_atom_type_scat_source
C C 0.0015 0.0009 'International Tables Vol C Tables 4.2.6.8 and 6.1.1.4'
H H 0.0000 0.0000 'International Tables Vol C Tables 4.2.6.8 and 6.1.1.4'
F F 0.0096 0.0061 'International Tables Vol C Tables 4.2.6.8 and 6.1.1.4'
loop_
_geom_angle_atom_site_label_1
_geom_angle_atom_site_label_2
_geom_angle_atom_site_label_3
_geom_angle
C5 C6 C1 120.3(6)
C6 C5 C4 117.7(8)
C1 C2 C3 124.3(9)
C4 C3 C2 118.4(9)
C6 C1 C7 121.1(10)
C2 C1 C6 116.6(6)
C2 C1 C7 122.3(11)
F1 C4 C5 116.7(10)
C3 C4 F1 120.8(10)
C3 C4 C5 122.5(6)
loop_
_geom_bond_atom_site_label_1
_geom_bond_atom_site_label_2
_geom_bond_distance
F1 C4 1.376(7)
C6 C5 1.371(15)
C6 C1 1.394(17)
C5 C4 1.434(14)
C2 C3 1.377(15)
C2 C1 1.355(16)
C3 C4 1.269(16)
C1 C7 1.500(9)
loop_
_refln_index_h
_refln_index_k
_refln_index_l
_refln_F_squared_meas
_refln_F_squared_sigma
0 -1 0 0 0
0 1 0 0 0
0 1 0 0 0.01
0 -1 0 0 0.01
0 -1 0 -0.01 0
0 1 0 0 0
0 -1 0 0 0
0 1 0 -0.01 0.01
0 1 0 0 0
0 -1 0 0 0
0 -1 0 0 0.01
0 1 0 0 0
0 -1 0 0 0
0 1 0 0 0
0 1 0 0 0
0 -1 0 0 0
0 2 0 0.02 0.01
0 -2 0 0.02 0.03
0 2 0 0.02 0.01
0 -2 0 0.02 0.01
0 -2 0 0.03 0.01
0 -2 0 0.03 0.02
0 -2 0 0.02 0.01
0 2 0 0 0.01
0 -2 0 0.02 0.01
0 -2 0 0.04 0.01
0 2 0 0.02 0.02
0 -2 0 0.01 0.01
0 2 0 0.01 0.02
0 2 0 0.01 0.01
0 3 0 0 0.01
0 3 0 0.02 0.03
0 3 0 -0.03 0.03
0 -3 0 -0.01 0.02
0 -3 0 0 0.04
0 -3 0 -0.02 0.01
0 -3 0 -0.01 0.03
0 3 0 0 0.01
0 -3 0 0.01 0.01
0 -3 0 0.01 0.01
0 5 0 -0.04 0.05
0 5 0 0.02 0.07
0 1 -1 0.44 0.07
0 -1 -1 0.4 0.11
0 -1 -1 0.42 0.07
0 -1 1 0.38 0.08
0 -1 1 0.4 0.07
0 1 1 0.43 0.11
0 1 1 0.41 0.09
0 -1 -1 0.39 0.1
0 -1 -1 0.46 0.07
0 1 1 0.44 0.11
0 -1 -1 0.42 0.09
0 1 1 0.4 0.07
0 1 1 0.4 0.07
0 -1 1 0.41 0.07
0 -1 -1 0.41 0.07
0 -1 -1 0.45 0.1
0 -1 -1 0.4 0.11
0 1 1 0.41 0.07
0 1 1 0.43 0.1
0 1 -1 0.41 0.07
0 1 -1 0.39 0.07
0 1 1 0.41 0.1
0 2 1 0 0.02
0 -2 1 0 0
0 -2 -1 -0.01 0.01
0 2 -1 0 0.01
0 -2 1 0 0
0 2 1 0.01 0.01
0 -2 1 0 0.01
0 2 -1 -0.01 0
0 -2 -1 0 0.01
0 2 -1 -0.01 0.02
0 2 -1 0 0.02
0 -2 -1 0 0.01
0 2 1 -0.02 0.02
0 -2 -1 0 0.01
0 -2 1 0 0
0 -2 1 0 0.01
0 2 1 0 0.01
0 2 1 0 0
0 -2 1 -0.01 0.01
0 2 1 0.02 0.02
0 -2 1 0 0
0 -2 -1 0 0.02
0 -2 -1 -0.01 0.01
0 2 -1 0 0.01
0 -2 -1 -0.02 0.03
0 2 1 -0.01 0.01
0 3 -1 0.11 0.02
0 -3 -1 0.11 0.06
0 -3 1 0.17 0.04
0 -3 1 0.11 0.02
0 -3 -1 0.11 0.02
0 -3 1 0.12 0.02
0 -3 -1 0.08 0.02
0 -3 1 0.13 0.02
0 -3 -1 0.11 0.03
0 3 1 0.12 0.02
0 -3 -1 0.19 0.04
0 3 -1 0.09 0.05
0 3 -1 0.14 0.03
0 -3 1 0.06 0.02
0 -3 -1 0.12 0.02
0 -3 1 0.17 0.03
0 3 1 0.12 0.02
0 3 1 0.19 0.04
0 3 1 0.13 0.05
0 -4 -1 -0.02 0.01
0 4 -1 -0.03 0.04
0 -4 1 -0.01 0.01
0 4 1 -0.01 0.05
0 -4 1 -0.02 0.04
0 -4 -1 0.02 0.06
0 4 1 0.02 0.04
0 -4 1 0.01 0.03
0 -4 -1 0.01 0.03
0 4 -1 0.02 0.05
0 -4 -1 0.04 0.04
0 -4 1 -0.02 0.01
0 5 1 0.02 0.06
0 -5 -1 0.08 0.04
0 5 -1 0.02 0.07
0 -5 -1 0.04 0.04
0 5 -1 -0.02 0.06
0 -5 -1 -0.02 0.01
0 5 1 0.04 0.05
0 -5 -1 0.01 0.07
0 0 2 52.35 8.88
0 0 2 52.32 8.35
0 1 2 0.01 0.01
0 -1 -2 -0.02 0.01
0 1 2 0 0
0 1 2 -0.01 0.01
0 -1 -2 0 0.01
0 1 2 -0.02 0.01
0 1 2 -0.01 0
0 -1 -2 0 0
0 1 2 0 0.01
0 -1 -2 0 0.01
0 -1 -2 -0.01 0.01
0 1 2 0 0
0 -1 -2 -0.01 0.01
0 -1 -2 -0.01 0.01
0 2 -2 0.86 0.14
0 2 2 0.92 0.22
0 2 2 0.91 0.14
0 -2 -2 0.88 0.21
0 -2 -2 0.82 0.23
0 -2 -2 0.84 0.19
0 2 -2 0.87 0.14
0 2 2 0.86 0.15
0 -2 2 0.86 0.17
0 -2 -2 0.86 0.14
0 2 2 0.85 0.23
0 -2 2 0.88 0.14
0 -2 -2 0.82 0.15
0 -2 2 0.85 0.15
0 2 -2 0.79 0.23
0 -3 -2 -0.03 0.03
0 -3 2 0 0.01
0 3 -2 0 0.01
0 3 -2 0.02 0.03
0 3 2 0.01 0.01
0 -3 -2 0 0.02
0 3 2 -0.01 0.03
0 3 2 0.01 0.01
0 -3 -2 0 0.01
0 -3 -2 -0.02 0.06
0 -3 2 -0.01 0.01
0 -3 2 0 0.02
0 3 -2 0 0.01
0 3 2 -0.04 0.04
0 4 2 0.44 0.09
0 4 -2 0.25 0.1
0 -4 -2 0.31 0.05
0 -4 -2 0.38 0.08
0 -4 -2 0.12 0.11
0 -4 2 0.29 0.08
0 4 2 0.06 0.1
0 -4 -2 0.46 0.09
0 -4 2 0.28 0.05
0 -4 2 0.42 0.07
0 -5 -2 -0.03 0.05
0 5 -2 -0.01 0.05
0 5 2 0.02 0.05
0 -5 -2 0.07 0.05
0 -5 -2 -0.08 0.08
0 5 2 0 0.07
0 -5 -2 -0.01 0.01
0 5 -2 0.02 0.07
0 0 3 -0.01 0
0 0 3 -0.01 0
0 -1 -3 0.32 0.09
0 -1 -3 0.33 0.08
0 1 3 0.36 0.09
0 -1 -3 0.33 0.09
0 1 3 0.42 0.06
0 -1 -3 0.35 0.1
0 -1 -3 0.36 0.1
0 1 3 0.38 0.06
0 2 3 -0.02 0.01
0 -2 -3 -0.01 0.02
0 2 3 0 0.01
0 2 3 0 0.03
0 2 3 0.01 0.02
0 -2 -3 0.01 0.01
0 -2 -3 0.02 0.04
0 -2 -3 -0.01 0.03
0 -3 -3 0.26 0.08
0 3 -3 0.14 0.02
0 3 3 0.12 0.03
0 -3 -3 0.17 0.04
0 3 -3 0.29 0.06
0 3 3 0.07 0.06
0 -3 3 0.11 0.02
0 -3 -3 0.19 0.05
0 3 -3 0.11 0.03
0 3 3 0.21 0.05
0 3 3 0.14 0.03
0 -4 -3 0.02 0.08
0 4 3 -0.06 0.04
0 4 3 -0.01 0.06
0 -4 -3 -0.03 0.04
0 -4 -3 0 0.05
0 4 -3 0.06 0.05
0 -5 -3 0.01 0.05
0 -5 -3 0.08 0.09
0 5 3 0 0.08
0 -5 -3 -0.02 0.02
0 5 3 -0.04 0.06
0 5 -3 0 0.05
0 5 -3 -0.07 0.06
0 -5 -3 0.02 0.06
0 -1 -4 -0.02 0.01
0 -1 -4 -0.03 0.02
0 -1 -4 -0.04 0.02
0 -1 -4 0 0.03
0 2 4 3.57 0.83
0 -2 -4 3.39 0.9
0 -2 -4 3.19 0.71
0 -2 -4 3.14 0.8
0 -3 -4 -0.02 0.04
0 3 -4 -0.02 0.01
0 -3 -4 -0.01 0.03
0 3 4 -0.03 0.05
0 3 4 0.04 0.05
0 -3 -4 -0.05 0.07
0 -2 -5 0 0.05
0 -2 -5 -0.03 0.01
0 -3 -5 0.17 0.08
0 3 5 0.04 0.05
0 -3 -5 0.05 0.03
0 -3 -5 -0.02 0.02
0 -4 -5 0 0.03
0 -4 -5 0 0.02
0 4 5 0.17 0.07
0 -4 -5 -0.05 0.1
0 -2 -6 0 0.05
0 -3 -6 0.02 0.07
0 -4 -6 0.11 0.11
0 4 6 0.24 0.09
-1 -1 0 9.47 2.56
-1 -1 0 9.45 2.55
1 -1 0 9.29 1.6
-1 1 0 8.89 1.5
-1 1 0 10.1 1.58
-1 1 0 9.45 1.9
1 1 0 9.61 2.37
1 1 0 9.5 2.27
-1 1 0 9.4 2.55
-1 1 0 9.07 1.6
1 -1 0 9.64 1.5
-1 1 0 9.64 2.56
1 -1 0 9.48 1.58
1 -1 0 9.41 1.9
-1 -1 0 9.1 2.37
1 -1 0 9.47 1.54
1 1 0 9.59 2.55
1 1 0 9.73 2.03
-1 -2 0 0.86 0.17
1 -2 0 0.78 0.16
1 2 0 0.79 0.16
1 2 0 0.84 0.13
-1 2 0 0.8 0.21
1 2 0 0.79 0.13
1 -2 0 0.77 0.17
-1 -2 0 0.85 0.19
-1 2 0 0.81 0.13
1 -2 0 0.68 0.22
-1 -2 0 0.74 0.21
-1 -2 0 0.78 0.13
1 -2 0 0.74 0.13
-1 2 0 0.83 0.16
1 2 0 0.81 0.2
1 -2 0 0.78 0.13
1 2 0 0.82 0.13
-1 2 0 0.72 0.13
1 2 0 0.79 0.17
1 2 0 0.83 0.21
1 -2 0 0.76 0.13
1 -3 0 1.22 0.21
-1 -3 0 1.2 0.21
1 -3 0 1.27 0.27
1 3 0 1.25 0.2
1 3 0 1.33 0.32
-1 -3 0 1.35 0.3
-1 3 0 1.24 0.2
1 -3 0 1.32 0.34
1 -3 0 1.14 0.3
-1 3 0 1.2 0.21
-1 3 0 1.29 0.34
1 -3 0 1.27 0.21
1 -3 0 1.29 0.26
1 -3 0 1.25 0.21
-1 -3 0 1.42 0.27
1 3 0 1.25 0.21
1 -3 0 1.2 0.2
1 3 0 1.29 0.34
-1 3 0 1.22 0.32
-1 -3 0 1.21 0.34
1 -4 0 0.17 0.04
-1 -4 0 0.09 0.05
1 4 0 0.03 0.06
1 -4 0 0.08 0.02
-1 -4 0 0.01 0.06
-1 -4 0 0.12 0.02
-1 4 0 -0.01 0.06
-1 -4 0 0.14 0.04
1 4 0 0.12 0.05
1 -4 0 0.17 0.05
1 -4 0 0.09 0.02
-1 4 0 0.09 0.05
1 5 0 -0.16 0.05
1 -5 0 -0.03 0.04
1 -5 0 -0.01 0.05
1 -5 0 0 0.02
-1 5 0 -0.06 0.07
1 5 0 0.03 0.05
1 -5 0 0.04 0.02
-1 5 0 0 0.06
1 0 -1 0 0
1 0 -1 0 0
-1 0 1 0 0
-1 0 1 0 0
1 0 -1 0 0.01
1 0 -1 0 0
-1 0 1 0 0
-1 0 1 0 0
1 0 -1 0 0
1 0 -1 0 0
-1 0 1 0 0
-1 0 1 0 0
-1 0 1 0 0
1 0 -1 0 0
-1 0 1 0 0.01
1 0 -1 0 0
1 0 -1 0 0
-1 1 1 3.64 0.93
-1 1 1 3.66 0.6
-1 1 1 3.78 1
-1 1 1 3.64 0.74
1 -1 1 3.78 0.63
-1 1 1 3.92 1
-1 1 1 3.66 0.79
-1 1 1 3.56 0.63
-1 1 1 3.66 0.59
-1 -1 -1 3.73 0.93
-1 -1 -1 4.03 1
-1 1 1 3.62 0.59
1 -1 -1 3.73 0.79
1 -1 -1 3.5 1
1 -1 -1 3.66 0.59
1 1 1 3.87 0.93
1 1 1 3.55 0.79
1 -1 -1 3.64 0.74
1 -1 -1 3.77 0.6
1 -1 -1 3.64 0.63
1 1 1 3.47 0.89
1 -1 -1 3.72 1
1 -1 -1 3.81 0.59
1 -2 1 0.22 0.04
-1 2 1 0.23 0.05
-1 2 1 0.22 0.06
-1 2 1 0.24 0.04
-1 2 1 0.23 0.06
-1 2 1 0.24 0.04
1 2 -1 0.24 0.05
-1 2 1 0.23 0.04
1 -2 1 0.22 0.04
1 2 -1 0.23 0.04
-1 -2 -1 0.25 0.07
-1 -2 -1 0.24 0.06
1 -2 1 0.21 0.05
1 2 -1 0.27 0.06
1 2 -1 0.23 0.04
1 -2 1 0.24 0.04
1 -2 1 0.22 0.04
-1 2 1 0.23 0.04
1 2 -1 0.2 0.04
1 2 -1 0.2 0.06
-1 -2 -1 0.21 0.05
1 2 -1 0.22 0.06
1 -2 -1 0.16 0.07
1 2 1 0.21 0.04
1 -2 -1 0.23 0.04
1 2 1 0.26 0.06
1 -2 -1 0.24 0.05
-1 -2 1 0.23 0.06
1 2 1 0.22 0.05
1 2 1 0.26 0.06
-1 -2 1 0.21 0.06
1 -2 -1 0.21 0.04
-1 -2 1 0.24 0.04
1 2 1 0.25 0.06
1 -2 -1 0.14 0.06
1 2 1 0.2 0.04
1 -2 -1 0.21 0.04
-1 2 -1 0.23 0.04
-1 2 -1 0.22 0.04
-1 -2 1 0.22 0.05
-1 2 -1 0.24 0.06
-1 2 -1 0.24 0.06
1 -2 -1 0.22 0.04
1 -2 -1 0.25 0.04
1 -2 -1 0.24 0.05
1 2 1 0.21 0.04
-1 -2 1 0.24 0.04
-1 2 -1 0.22 0.04
-1 -2 1 0.22 0.04
1 -3 1 0.42 0.06
-1 -3 -1 0.39 0.1
-1 -3 -1 0.36 0.08
1 -3 1 0.36 0.08
1 -3 1 0.37 0.07
1 3 -1 0.34 0.11
-1 3 1 0.36 0.11
1 3 -1 0.37 0.06
1 3 -1 0.38 0.1
1 3 -1 0.39 0.07
1 -3 1 0.38 0.08
1 -3 1 0.35 0.06
-1 3 1 0.37 0.1
-1 3 1 0.41 0.07
-1 3 1 0.35 0.06
1 -3 1 0.39 0.06
1 3 -1 0.4 0.08
-1 -3 -1 0.39 0.11
-1 -3 1 0.4 0.08
-1 3 -1 0.32 0.11
1 -3 -1 0.37 0.1
-1 3 -1 0.37 0.07
1 3 1 0.43 0.06
-1 -3 1 0.4 0.11
1 -3 -1 0.41 0.09
-1 3 -1 0.39 0.06
-1 -3 1 0.4 0.09
1 3 1 0.41 0.07
1 -3 -1 0.12 0.12
1 -3 -1 0.36 0.07
1 -3 -1 0.37 0.06
-1 -3 1 0.36 0.06
1 -3 -1 0.41 0.06
1 3 1 0.41 0.1
-1 -3 1 0.41 0.06
1 3 1 0.39 0.11
1 -3 -1 0.4 0.07
1 4 -1 0.13 0.05
1 -4 1 0.15 0.03
1 4 -1 0.12 0.06
1 -4 1 0.09 0.04
-1 -4 -1 0.05 0.07
-1 4 1 0.12 0.06
-1 4 1 0.29 0.08
1 -4 1 0.16 0.05
-1 -4 -1 0.18 0.05
1 -4 1 0.11 0.03
-1 -4 -1 0.13 0.04
-1 -4 -1 0.12 0.03
1 4 1 0.19 0.05
-1 -4 1 0.19 0.04
-1 -4 1 0.24 0.05
-1 4 -1 0.06 0.05
1 -4 -1 0.2 0.05
1 4 1 -0.01 0.05
1 -4 -1 0.19 0.05
-1 4 -1 0.06 0.06
1 -4 -1 0.12 0.03
1 -4 -1 0.08 0.07
-1 -4 1 0.12 0.03
1 -4 -1 0.13 0.03
1 5 -1 0.02 0.06
-1 -5 -1 0.02 0.02
-1 5 1 0.11 0.07
-1 -5 -1 0.04 0.03
1 5 -1 0.01 0.05
-1 5 1 0 0.05
-1 -5 -1 0.05 0.07
1 -5 -1 0.06 0.04
1 5 1 -0.12 0.06
1 5 1 0.04 0.05
1 -5 -1 0.03 0.02
-1 5 -1 -0.05 0.07
1 -5 -1 0.02 0.02
1 -5 -1 0.02 0.05
-1 5 -1 0.04 0.06
1 0 -2 0 0.01
1 0 -2 0 0
1 0 -2 0 0
1 0 -2 0 0.01
-1 0 2 0 0.01
-1 0 2 0.01 0
-1 0 2 -0.01 0
1 0 -2 0.01 0.01
-1 0 2 -0.01 0.01
1 0 -2 0.01 0.01
-1 0 2 0 0
-1 0 2 0.01 0
1 0 -2 0 0
1 0 -2 0 0
-1 0 2 0 0.01
-1 1 2 0.74 0.15
-1 1 2 0.74 0.12
-1 1 2 0.79 0.12
-1 1 2 0.74 0.19
-1 1 2 0.72 0.16
1 1 -2 0.76 0.12
-1 1 2 0.74 0.13
1 1 -2 0.76 0.13
-1 1 2 0.75 0.2
1 -1 -2 0.75 0.2
1 -1 -2 0.76 0.16
1 -1 -2 0.76 0.18
1 -1 -2 0.73 0.12
1 -1 -2 0.68 0.19
1 -1 -2 0.72 0.12
1 -1 -2 0.73 0.2
1 -1 -2 0.76 0.12
1 -1 -2 0.74 0.13
-1 2 2 2.32 0.37
1 -2 2 2.42 0.39
-1 2 2 2.23 0.63
-1 2 2 2.29 0.39
-1 2 2 2.18 0.58
1 2 -2 2.18 0.39
-1 -2 -2 2.29 0.63
1 -2 -2 2.41 0.37
1 2 2 2.53 0.37
-1 -2 2 2.33 0.38
1 -2 -2 2.4 0.39
1 2 2 2.43 0.39
1 2 2 2.32 0.58
1 -2 -2 2.37 0.38
1 -2 -2 2.27 0.56
1 2 2 2.17 0.63
1 -2 -2 2.3 0.5
1 -2 -2 2.28 0.63
-1 -3 -2 0.28 0.09
1 3 -2 0.25 0.06
-1 3 2 0.22 0.04
-1 3 2 0.23 0.04
-1 -3 -2 0.18 0.05
1 -3 2 0.21 0.04
1 3 -2 0.19 0.04
1 -3 2 0.15 0.05
1 -3 2 0.21 0.04
1 -3 2 0.23 0.04
-1 -3 -2 0.19 0.06
1 3 -2 0.2 0.07
-1 3 2 0.23 0.08
-1 3 2 0.24 0.07
-1 3 -2 0.18 0.04
1 3 2 0.27 0.04
-1 -3 2 0.18 0.04
1 -3 -2 0.17 0.04
1 -3 -2 0.2 0.04
1 -3 -2 0.21 0.04
1 3 2 0.32 0.07
-1 -3 2 0.28 0.06
1 3 2 0.21 0.04
1 -3 -2 0.17 0.08
1 -3 -2 0.31 0.06
1 3 2 0.09 0.07
1 -3 -2 0.28 0.05
1 -3 -2 0.21 0.04
-1 -4 -2 0.09 0.07
-1 -4 -2 0.05 0.04
-1 -4 -2 0.09 0.05
1 4 -2 0.11 0.05
1 -4 2 0.16 0.03
1 -4 2 0.1 0.02
-1 4 2 0.13 0.06
1 4 -2 0.11 0.05
1 -4 2 0.15 0.04
-1 4 2 0.1 0.07
1 -4 -2 0.13 0.06
1 -4 -2 0.11 0.04
1 -4 -2 0.11 0.02
-1 -4 2 0.2 0.04
1 -4 -2 -0.07 0.08
1 4 2 0.17 0.05
1 -4 -2 0.11 0.02
-1 -4 2 0.08 0.02
1 4 2 0.03 0.06
-1 4 -2 0.15 0.02
-1 4 -2 0.01 0.05
1 5 -2 0.07 0.08
-1 5 2 0.4 0.08
-1 5 2 0.03 0.08
-1 -5 -2 0.2 0.04
1 5 -2 0.23 0.07
-1 -5 -2 0.1 0.09
-1 5 -2 0.22 0.07
1 -5 -2 -0.06 0.09
1 -5 -2 0.37 0.08
1 5 2 0.35 0.08
-1 5 -2 0 0.09
1 -5 -2 0.23 0.04
1 5 2 0.03 0.09
1 -5 -2 0.32 0.06
1 0 -3 0.01 0.01
1 0 -3 -0.01 0.01
-1 0 3 -0.01 0.01
-1 0 3 0 0
-1 0 3 -0.01 0.01
-1 0 3 0 0
1 0 -3 0 0
1 0 -3 0 0.01
-1 0 3 -0.01 0.01
1 0 -3 -0.01 0.02
1 0 -3 0 0.01
1 0 -3 -0.01 0.01
-1 1 3 10.33 1.75
-1 1 3 10.26 1.65
-1 1 3 10.13 2.78
-1 1 3 10.22 2.58
1 -1 -3 10.27 2.58
-1 -1 3 11.8 2.21
1 -1 -3 10.22 2.78
-1 -1 3 10.28 1.65
1 -1 -3 10.17 2.47
1 -1 -3 10.15 1.68
1 -1 -3 9.86 1.65
1 -1 -3 10.29 2.21
1 -1 -3 10.25 2.79
-1 -1 3 10.11 1.75
1 2 -3 1.09 0.18
-1 2 3 1.07 0.18
-1 2 3 1.08 0.29
-1 2 3 1.13 0.17
-1 2 3 1.01 0.27
1 -2 -3 1.1 0.23
1 -2 -3 1.02 0.17
1 -2 -3 1.08 0.18
1 -2 -3 1.03 0.18
1 -2 -3 1.06 0.29
1 2 3 1.13 0.27
1 -2 -3 1.12 0.26
-1 3 3 0.02 0.04
-1 3 3 0.03 0.01
-1 -3 -3 -0.02 0.02
-1 -3 -3 -0.03 0.02
-1 3 3 0 0.02
-1 -3 -3 0.02 0.07
1 3 -3 -0.02 0.02
1 -3 3 0.02 0.02
-1 3 3 -0.01 0.05
1 -3 3 0.02 0.01
1 -3 3 0.02 0.01
-1 3 -3 0.03 0.01
1 -3 -3 -0.01 0.03
1 3 3 0.05 0.02
1 3 3 -0.03 0.04
1 -3 -3 -0.07 0.06
1 -3 -3 0.01 0.04
1 -3 -3 0.05 0.02
-1 -3 3 -0.01 0.02
1 -3 -3 0 0.01
-1 -3 3 0.01 0.01
1 3 3 0.01 0.01
1 -3 -3 0.02 0.01
-1 -4 -3 0.48 0.12
-1 4 3 0.48 0.09
1 4 -3 0.3 0.09
-1 4 3 0.06 0.09
1 -4 -3 0.27 0.05
1 -4 -3 0.15 0.11
1 4 3 0.12 0.09
1 -4 -3 0.37 0.07
1 -4 -3 0.46 0.09
-1 -5 -3 0.67 0.12
1 5 -3 0.69 0.19
-1 5 3 0.82 0.18
-1 5 -3 0.67 0.19
1 -5 -3 0.78 0.17
1 -5 -3 0.65 0.12
1 -5 -3 0.25 0.21
1 -5 -3 0.81 0.16
-1 0 4 0.04 0.02
-1 0 4 0 0.01
1 0 -4 -0.01 0.01
1 0 -4 0.03 0.02
1 0 -4 0 0.01
1 0 -4 -0.01 0.02
1 0 -4 0.02 0.01
-1 0 4 0 0.01
-1 1 4 2.8 0.62
-1 -1 4 2.16 0.59
1 -1 -4 2.39 0.66
1 -1 -4 2.65 0.53
1 -1 -4 2.43 0.62
1 -1 -4 2.62 0.67
1 -1 -4 2.46 0.39
-1 -1 4 2.15 0.53
1 -1 -4 2.59 0.59
1 -1 -4 2.45 0.42
-1 2 4 1.41 0.35
-1 2 4 1.29 0.37
1 -2 -4 1.43 0.3
1 -2 -4 1.41 0.38
1 -2 -4 1.38 0.33
1 -2 -4 1.35 0.24
1 -2 -4 1.38 0.22
-1 3 4 0.12 0.06
-1 3 4 0.12 0.05
-1 -3 -4 -0.01 0.01
-1 -3 -4 0.01 0.07
1 -3 -4 0.05 0.02
1 -3 -4 0.03 0.07
1 3 4 0.14 0.05
1 -3 -4 0.15 0.05
1 -3 -4 0.02 0.01
1 -3 -4 0.08 0.03
-1 4 4 0.02 0.07
-1 4 4 0.11 0.06
-1 -4 -4 0.13 0.1
1 -4 -4 0.1 0.09
1 -4 -4 0.16 0.05
1 -4 -4 0.12 0.06
1 4 4 0.06 0.07
1 0 -5 -0.05 0.03
1 -1 -5 1.36 0.27
1 -1 -5 1.24 0.2
1 -1 -5 0.97 0.31
1 -1 -5 1.09 0.34
1 -1 -5 1.38 0.34
1 -1 -5 1.42 0.3
-1 2 5 0.27 0.08
1 -2 -5 0.51 0.1
1 -2 -5 0.2 0.08
1 -2 -5 0.23 0.07
-1 3 5 -0.03 0.05
-1 3 5 0.06 0.06
-1 -3 -5 0.02 0.07
1 -3 -5 -0.1 0.08
1 -3 -5 0.01 0.01
1 -3 -5 0.03 0.05
1 -3 -5 0.02 0.04
-1 4 5 0.06 0.09
-1 4 5 0.17 0.06
-1 -4 -5 0.09 0.1
1 -4 -5 0.06 0.1
1 -4 -5 0.04 0.05
1 -4 -5 0.07 0.06
1 0 -6 0.04 0.04
1 -1 -6 0 0.03
1 -1 -6 -0.04 0.04
1 -1 -6 -0.02 0.05
-1 2 6 0.02 0.04
1 -2 -6 0.07 0.03
1 -2 -6 0.24 0.08
1 -2 -6 0.04 0.04
1 -3 -6 0.02 0.04
1 -3 -6 0.05 0.05
1 -3 -6 0.06 0.09
-1 4 6 0.04 0.07
1 -4 -6 -0.01 0.04
1 -4 -6 0.1 0.05
1 -4 -6 0.02 0.11
1 -1 -7 0.06 0.06
1 -2 -7 0 0.07
1 -3 -7 0.09 0.09
1 -3 -8 -0.04 0.08
2 -1 0 1.83 0.29
2 -1 0 1.85 0.37
2 -1 0 1.79 0.31
2 -1 0 1.81 0.31
-2 1 0 1.79 0.31
-2 1 0 1.75 0.29
-2 1 0 1.9 0.37
-2 1 0 1.94 0.31
2 -2 0 0.03 0.01
2 2 0 0.02 0.01
2 -2 0 0.02 0.01
-2 2 0 0.05 0.01
2 2 0 0.03 0.01
2 -2 0 0.03 0.01
2 2 0 0.01 0.02
-2 -2 0 0.06 0.02
-2 2 0 0.04 0.01
2 -2 0 0.03 0.01
-2 2 0 0.04 0.03
2 2 0 0.05 0.02
-2 2 0 0.03 0.01
2 -2 0 0.02 0.01
2 -2 0 0.01 0.01
2 3 0 0.21 0.04
-2 -3 0 0.23 0.03
2 3 0 0.18 0.03
2 3 0 0.21 0.04
2 -3 0 0.17 0.03
2 3 0 0.33 0.06
2 -3 0 0.19 0.03
2 -3 0 0.19 0.04
2 -3 0 0.25 0.05
-2 3 0 0.16 0.03
2 3 0 0.19 0.03
2 3 0 0.06 0.06
2 -3 0 0.16 0.03
2 3 0 0.23 0.05
-2 -3 0 0.18 0.07
-2 3 0 0.23 0.03
2 -3 0 0.09 0.05
2 -4 0 0.16 0.03
2 4 0 0.04 0.05
2 -4 0 0.15 0.05
2 -4 0 0.14 0.06
2 -4 0 0.1 0.03
-2 4 0 0.11 0.06
-2 -4 0 0.12 0.02
2 4 0 0.18 0.05
-2 -4 0 0.06 0.06
2 -4 0 0.2 0.04
-2 4 0 0.18 0.03
-2 4 0 0.05 0.07
2 5 0 0.04 0.06
2 -5 0 0 0.02
2 5 0 0.01 0.04
2 -5 0 -0.02 0.02
-2 5 0 0.04 0.06
-2 5 0 0 0.07
2 -5 0 0.02 0.05
2 -5 0 -0.02 0.04
-2 0 1 16.22 2.63
2 0 -1 16.33 2.63
-2 0 1 16.58 4.46
-2 0 1 16.87 2.76
-2 0 1 17.44 3.33
2 0 -1 16.2 2.76
2 0 -1 15.41 4.46
2 0 -1 17.14 2.81
2 0 -1 16.62 3.33
-2 1 1 36.85 5.73
-2 1 1 33.67 5.45
-2 1 1 33.63 6.91
-2 1 1 34.28 5.82
-2 1 1 34.47 9.27
2 -1 -1 34.88 5.45
2 -1 -1 35.98 5.73
2 -1 -1 34.71 9.27
2 -1 -1 35.49 9.3
2 -1 -1 32.26 6.91
2 -1 -1 32.73 5.58
2 -1 -1 33.86 5.82
2 -1 -1 33.73 5.48
-2 2 1 0.05 0.03
-2 -2 -1 0.12 0.03
-2 2 1 0.05 0.01
2 2 -1 0.04 0.02
2 2 -1 0.04 0.01
-2 2 1 0.05 0.02
2 -2 1 0.06 0.01
-2 2 1 0.06 0.01
2 -2 1 0.05 0.02
2 2 -1 0.07 0.01
2 -2 -1 0.02 0.04
-2 -2 1 0.05 0.01
2 2 1 0.08 0.03
2 -2 -1 0.05 0.01
-2 -2 1 0.12 0.03
-2 2 -1 0.06 0.01
2 -2 -1 0.07 0.01
2 2 1 0.04 0.02
2 2 1 0.05 0.03
2 -2 -1 0.08 0.02
2 2 1 0.07 0.01
2 -2 -1 0.01 0.02
2 -2 -1 0.05 0.01
2 -2 -1 0.03 0.01
-2 3 1 1.84 0.46
2 -3 1 1.78 0.37
2 -3 1 1.82 0.3
2 3 -1 1.94 0.37
2 -3 1 1.85 0.29
2 3 -1 1.84 0.49
2 3 -1 1.8 0.46
2 3 -1 1.76 0.29
2 3 -1 1.84 0.31
-2 3 1 1.78 0.31
-2 -3 -1 1.67 0.49
2 -3 1 1.85 0.31
2 -3 1 1.76 0.3
2 3 -1 1.94 0.3
-2 3 1 1.75 0.49
-2 3 1 1.85 0.29
2 3 1 1.57 0.49
-2 -3 1 1.81 0.29
2 -3 -1 1.82 0.37
-2 -3 1 1.83 0.49
2 -3 -1 1.69 0.3
2 -3 -1 1.77 0.31
2 3 1 1.85 0.29
2 3 1 1.98 0.46
2 -3 -1 1.79 0.29
2 3 1 1.87 0.31
-2 3 -1 1.85 0.29
2 -3 -1 1.82 0.3
2 -3 -1 1.7 0.39
-2 -3 1 1.8 0.3
-2 3 -1 1.96 0.49
-2 3 -1 1.9 0.31
2 -4 1 0.08 0.04
-2 4 1 0.02 0.06
-2 4 1 0.03 0.05
-2 -4 -1 0.07 0.06
2 -4 1 0.01 0.01
2 4 -1 0.08 0.03
2 4 -1 0.01 0.04
2 -4 1 0.03 0.01
2 -4 1 0.06 0.03
2 4 1 0.07 0.06
-2 4 -1 0.07 0.06
-2 -4 1 0.03 0.01
2 -4 -1 0.04 0.01
2 -4 -1 0.11 0.09
2 4 1 0.06 0.04
-2 4 -1 0.05 0.02
2 -4 -1 0.12 0.05
2 -4 -1 0.09 0.04
2 -4 -1 0.03 0.02
-2 -4 1 -0.03 0.05
-2 -5 -1 0.02 0.02
2 5 -1 0.06 0.06
-2 5 1 0.01 0.06
2 5 -1 0.06 0.04
-2 5 1 0.07 0.08
-2 5 -1 0.09 0.07
2 5 1 0.1 0.06
2 -5 -1 -0.01 0.06
2 -5 -1 0 0.02
2 -5 -1 0 0.02
2 -5 -1 0.08 0.04
-2 5 -1 0.05 0.06
2 0 -2 0.21 0.04
-2 0 2 0.24 0.06
2 0 -2 0.2 0.06
-2 0 2 0.2 0.04
-2 0 2 0.23 0.06
2 0 -2 0.22 0.04
2 0 -2 0.2 0.05
2 0 -2 0.2 0.04
-2 0 2 0.21 0.06
-2 0 2 0.24 0.04
2 0 -2 0.22 0.04
2 0 -2 0.19 0.05
-2 0 2 0.21 0.04
-2 0 2 0.21 0.05
2 0 -2 0.2 0.06
2 0 -2 0.21 0.06
2 0 -2 0.21 0.04
-2 1 2 0.62 0.16
-2 1 2 0.59 0.1
-2 1 2 0.58 0.1
-2 1 2 0.63 0.1
-2 1 2 0.59 0.1
2 1 -2 0.57 0.1
-2 1 2 0.56 0.15
-2 1 2 0.6 0.12
-2 1 2 0.64 0.13
2 -1 -2 0.59 0.16
2 -1 -2 0.62 0.1
2 -1 -2 0.56 0.1
2 -1 -2 0.61 0.12
2 -1 -2 0.63 0.1
2 -1 -2 0.64 0.16
2 -1 -2 0.63 0.1
2 -1 -2 0.56 0.1
2 -1 -2 0.56 0.15
2 -1 -2 0.6 0.13
-2 2 2 0.11 0.03
-2 2 2 0 0.03
-2 2 2 0.03 0.01
2 2 -2 0.01 0.01
-2 2 2 0.02 0.01
-2 2 2 0.01 0.01
2 -2 -2 0.01 0.01
2 -2 -2 0.06 0.04
2 -2 -2 0.02 0.01
2 -2 -2 0.05 0.02
2 -2 -2 0.04 0.02
2 -2 -2 0.05 0.03
2 -2 -2 0.02 0.01
2 -2 -2 0.01 0.01
2 3 -2 0.02 0.03
2 -3 2 0.01 0.01
2 -3 2 0.03 0.01
2 -3 2 0.01 0.01
-2 3 2 0.02 0.01
-2 3 2 0.02 0.01
2 3 -2 0 0.01
-2 3 2 0.02 0.04
-2 -3 -2 0.03 0.06
2 -3 2 0 0.02
2 3 -2 0.02 0.01
-2 3 2 0.03 0.04
2 3 2 -0.02 0.01
2 -3 -2 0.02 0.01
-2 3 -2 0.03 0.01
-2 -3 2 0 0.01
2 3 2 0.05 0.04
2 -3 -2 0.01 0.06
2 -3 -2 0.01 0.01
2 -3 -2 0.02 0.01
2 -3 -2 0.01 0.04
2 -3 -2 0.02 0.02
2 3 2 -0.03 0.01
2 -3 -2 0.05 0.03
-2 -4 -2 0.06 0.08
-2 4 2 -0.18 0.06
2 -4 2 0.02 0.01
-2 4 2 -0.1 0.05
2 -4 2 0.02 0.03
2 4 -2 -0.03 0.04
2 -4 2 -0.04 0.04
-2 4 -2 -0.02 0.05
2 -4 -2 -0.06 0.04
-2 4 -2 0 0.02
2 -4 -2 -0.06 0.07
2 4 2 0.1 0.06
2 -4 -2 -0.03 0.01
2 -4 -2 -0.06 0.05
2 -4 -2 0.01 0.02
-2 -5 -2 -0.08 0.07
-2 5 2 -0.01 0.06
2 5 -2 0.08 0.04
-2 5 2 -0.01 0.07
-2 -5 -2 0.02 0.02
2 5 -2 -0.02 0.05
2 -5 -2 -0.01 0.04
2 -5 -2 0 0.02
2 -5 -2 0.01 0.02
2 -5 -2 -0.06 0.06
-2 5 -2 0.07 0.07
2 -5 -2 0.21 0.11
2 5 2 0.17 0.07
2 0 -3 13.14 3.43
-2 0 3 14.25 2.29
2 0 -3 14.55 2.29
-2 0 3 14.61 2.88
2 0 -3 15.07 2.27
-2 0 3 14.89 3.59
2 0 -3 14.49 2.43
-2 0 3 14.88 2.33
2 0 -3 13.26 2.33
-2 0 3 14.7 3.07
2 0 -3 14.31 3.87
2 0 -3 14.16 3.88
-2 0 3 14.98 3.87
2 0 -3 14.33 3.59
-2 0 3 14.04 2.43
2 0 -3 13.58 3.07
2 1 -3 4.45 0.7
2 1 -3 4.45 0.7
-2 1 3 4.33 0.75
-2 1 3 4.52 0.7
-2 1 3 4.58 1.19
2 1 -3 4.35 0.75
2 1 -3 4.37 1.19
2 1 -3 4.58 1.19
-2 1 3 4.54 1.1
2 -1 -3 4.41 0.95
-2 -1 3 4.36 0.72
2 -1 -3 4.19 1.1
2 -1 -3 4.12 1.19
2 -1 -3 4.43 1.06
2 -1 -3 4.36 0.75
2 -1 -3 4.54 0.72
-2 -1 3 4.32 0.94
2 -1 -3 4.44 1.19
2 -1 -3 4.36 0.7
-2 2 3 1.98 0.54
-2 2 3 1.95 0.32
-2 2 3 1.95 0.34
-2 2 3 1.97 0.5
2 -2 -3 2.08 0.54
2 -2 -3 2.04 0.32
2 -2 -3 1.97 0.34
2 -2 -3 2.03 0.48
2 -2 -3 1.93 0.32
2 -2 -3 1.91 0.43
-2 3 3 -0.04 0.04
-2 3 3 0.01 0.02
-2 3 3 0.04 0.04
2 -3 3 0.02 0.01
2 3 -3 0.02 0.01
-2 3 3 0.04 0.01
-2 -3 -3 -0.01 0.05
2 -3 3 0.04 0.01
2 -3 -3 0.03 0.01
2 -3 -3 -0.05 0.04
2 -3 -3 -0.01 0.01
2 -3 -3 -0.03 0.07
2 -3 -3 0.08 0.02
2 -3 -3 0.05 0.03
2 -3 -3 0 0.01
-2 4 3 0.83 0.2
2 -4 3 0.72 0.16
-2 4 3 0.81 0.22
2 -4 3 0.81 0.13
-2 -4 -3 0.85 0.22
2 4 -3 0.79 0.21
2 4 3 0.77 0.2
-2 4 -3 0.64 0.13
2 -4 -3 0.74 0.13
2 -4 -3 0.82 0.19
2 -4 -3 0.79 0.17
2 -4 -3 0.86 0.13
2 5 -3 0.02 0.05
-2 -5 -3 0.07 0.09
-2 5 3 0.03 0.06
-2 5 3 -0.03 0.08
2 -5 -3 0 0.02
2 5 3 0.18 0.08
2 -5 -3 0.02 0.05
2 -5 -3 0.07 0.09
2 -5 -3 0.01 0.02
2 -5 -3 0.04 0.06
-2 5 -3 -0.03 0.05
-2 0 4 0.03 0.02
-2 0 4 0.07 0.03
2 0 -4 0.05 0.02
2 0 -4 0.05 0.02
2 0 -4 0.07 0.03
-2 0 4 0.04 0.01
-2 0 4 0.07 0.02
2 0 -4 0.07 0.03
2 0 -4 0.08 0.04
2 0 -4 0.03 0.01
2 0 -4 0.06 0.01
2 0 -4 0.03 0.01
-2 1 4 0.28 0.08
2 1 -4 0.26 0.05
2 1 -4 0.28 0.05
2 1 -4 0.29 0.08
2 -1 -4 0.31 0.08
2 -1 -4 0.26 0.05
-2 -1 4 0.37 0.07
2 -1 -4 0.28 0.05
2 -1 -4 0.3 0.08
2 -1 -4 0.24 0.05
2 -1 -4 0.37 0.07
2 -1 -4 0.49 0.1
-2 -1 4 0.26 0.06
2 -1 -4 0.46 0.08
-2 -1 4 0.27 0.05
-2 2 4 0.04 0.05
-2 2 4 0.16 0.04
2 -2 -4 0.06 0.04
2 -2 -4 0.08 0.06
2 -2 -4 0.05 0.01
2 -2 -4 0.04 0.03
2 -2 -4 0.04 0.02
2 -2 -4 0.06 0.02
-2 3 4 0.01 0.04
-2 3 4 -0.02 0.05
2 -3 -4 0.01 0.03
2 -3 -4 0.06 0.02
2 -3 -4 -0.01 0.01
2 -3 -4 0.01 0.04
2 -3 -4 -0.02 0.07
2 -3 -4 0.02 0.01
-2 4 4 0.1 0.06
-2 4 4 -0.09 0.06
-2 -4 -4 0.08 0.09
2 -4 -4 0.03 0.04
2 -4 -4 0 0.02
2 -4 -4 -0.04 0.06
2 -4 -4 0.08 0.09
2 -4 -4 0.03 0.02
2 0 -5 1.35 0.21
2 0 -5 1.23 0.3
2 0 -5 1.26 0.34
2 0 -5 1.28 0.32
2 0 -5 1.18 0.34
2 0 -5 1.32 0.2
2 0 -5 1.17 0.27
2 1 -5 2.26 0.65
-2 1 5 2.55 0.6
-2 -1 5 2.43 0.52
-2 -1 5 2.44 0.39
2 -1 -5 2.21 0.38
2 -1 -5 2.52 0.58
2 -1 -5 2.25 0.41
2 -1 -5 2.46 0.65
2 -1 -5 2.52 0.52
-2 -1 5 2.5 0.58
2 -1 -5 2.37 0.65
2 -1 -5 2.34 0.6
-2 2 5 0.46 0.16
-2 2 5 0.62 0.15
2 2 -5 0.62 0.15
2 -2 -5 0.58 0.13
2 -2 -5 0.54 0.09
2 -2 -5 0.61 0.14
-2 -2 5 0.54 0.09
2 -2 -5 0.58 0.1
2 -2 -5 0.6 0.16
-2 3 5 -0.1 0.06
-2 3 5 -0.01 0.05
2 -3 -5 -0.03 0.02
2 -3 -5 -0.01 0.05
2 -3 -5 0.07 0.08
2 -3 -5 -0.04 0.03
2 -3 -5 0.02 0.02
-2 4 5 0.49 0.1
-2 4 5 0.13 0.11
2 -4 -5 0.32 0.08
2 -4 -5 0.26 0.13
2 -4 -5 0.49 0.1
2 -4 -5 0.23 0.05
2 0 -6 0.06 0.05
2 1 -6 0.08 0.05
2 -1 -6 0.19 0.06
2 -1 -6 0.13 0.04
2 -1 -6 0.06 0.04
2 -1 -6 0.07 0.04
2 -1 -6 0.15 0.07
2 -1 -6 0.11 0.02
2 -1 -6 0.04 0.02
-2 2 6 0.1 0.06
2 2 -6 0.02 0.04
2 -2 -6 0.09 0.05
2 -2 -6 -0.01 0.03
2 -2 -6 -0.01 0.02
2 -2 -6 -0.01 0.02
2 -2 -6 0.05 0.08
-2 3 6 0.1 0.06
-2 3 6 0.08 0.07
2 -3 -6 -0.01 0.01
2 -3 -6 0.04 0.04
2 -3 -6 -0.01 0.05
2 -3 -6 -0.16 0.09
-2 4 6 0.03 0.07
-2 4 6 0.02 0.09
2 -4 -6 0.04 0.05
2 -4 -6 0.09 0.11
2 -4 -6 0.1 0.06
2 -4 -6 0 0.02
2 0 -7 0.43 0.14
2 1 -7 0.11 0.06
-2 2 7 0.01 0.04
2 -2 -7 -0.02 0.04
2 -2 -7 0.03 0.05
2 -2 -7 -0.06 0.08
2 -2 -7 0.01 0.01
-2 3 7 0.07 0.07
2 -3 -7 0.26 0.11
2 -3 -7 0.13 0.07
2 -3 -7 0.24 0.06
2 0 -8 0.01 0.07
2 1 -8 -0.11 0.06
2 -1 -8 -0.01 0.08
2 -2 -8 -0.02 0.07
2 -2 -8 0 0.01
2 -3 -8 0.08 0.1
2 -3 -8 -0.03 0.02
2 0 -9 -0.06 0.07
2 -1 -9 0.02 0.08
2 -2 -9 -0.14 0.08
3 -2 0 8.96 1.53
-3 2 0 8.82 1.53
-3 2 0 9.33 2.44
3 -2 0 9.04 1.47
3 -2 0 9.37 1.51
3 -2 0 8.91 1.82
-3 2 0 8.73 1.43
3 -3 0 1.31 0.22
-3 -3 0 1.3 0.35
3 -3 0 1.35 0.26
3 -3 0 1.3 0.21
3 -3 0 1.27 0.22
-3 3 0 1.34 0.22
3 3 0 1.32 0.28
3 -3 0 1.26 0.28
3 3 0 1.3 0.21
-3 3 0 1.24 0.21
3 -3 0 1.29 0.21
-3 3 0 1.25 0.35
3 -4 0 0.08 0.04
3 -4 0 0.09 0.02
3 4 0 0.11 0.05
3 -4 0 0.14 0.05
-3 4 0 0.01 0.07
3 -4 0 0.11 0.02
-3 4 0 0.08 0.02
-3 -4 0 0.04 0.06
3 -5 0 0.73 0.15
3 -5 0 0.64 0.17
3 -5 0 0.61 0.11
-3 5 0 0.56 0.18
3 -5 0 0.64 0.11
3 5 0 0.76 0.17
-3 0 1 -0.01 0.01
-3 1 1 9.02 1.48
-3 1 1 9.63 2.52
-3 1 1 9.53 1.58
-3 1 1 9.52 1.88
3 -1 -1 9.31 1.56
3 -1 -1 8.84 1.58
3 -1 -1 9.44 1.52
3 -1 -1 9.18 1.88
3 -1 -1 9.29 2.52
3 -1 -1 9.52 1.48
-3 2 1 3.25 0.83
-3 2 1 3.09 0.49
-3 2 1 3.17 0.52
3 -2 1 3 0.52
3 2 -1 3.12 0.74
3 -2 -1 3.09 0.52
3 -2 -1 3.12 0.5
3 -2 -1 3.07 0.52
-3 -2 1 2.89 0.84
3 -2 -1 3.18 0.49
3 -2 -1 3.01 0.62
-3 3 1 0.41 0.1
-3 -3 -1 0.42 0.11
-3 3 1 0.4 0.11
3 -3 1 0.39 0.06
3 -3 1 0.41 0.08
-3 3 1 0.37 0.07
-3 3 1 0.4 0.06
3 3 -1 0.39 0.07
3 3 -1 0.4 0.06
3 3 -1 0.34 0.08
3 3 -1 0.39 0.06
3 3 -1 0.4 0.1
3 3 -1 0.36 0.08
3 -3 -1 0.35 0.06
3 -3 -1 0.37 0.06
3 -3 -1 0.44 0.07
3 -3 -1 0.39 0.08
-3 -3 1 0.39 0.11
3 -3 -1 0.39 0.07
-3 3 -1 0.4 0.06
3 -3 -1 0.33 0.09
-3 -3 1 0.34 0.06
-3 -4 -1 0.13 0.08
-3 4 1 0.01 0.07
3 -4 1 0.16 0.04
-3 4 1 0.17 0.03
3 4 -1 0.15 0.05
-3 4 1 0.08 0.06
3 -4 1 0.09 0.02
3 -4 1 0.11 0.05
-3 4 -1 0.05 0.05
-3 -4 1 0.05 0.06
-3 -4 1 0.09 0.02
3 -4 -1 0.25 0.05
3 -4 -1 0.11 0.02
-3 4 -1 0.12 0.03
3 -4 -1 0.23 0.04
3 -4 -1 0.16 0.03
3 -4 -1 0.09 0.06
-3 5 1 0.13 0.07
3 -5 1 0.21 0.05
-3 5 1 0.12 0.09
3 5 -1 0.12 0.06
3 -5 1 0.07 0.03
3 -5 -1 0.15 0.03
3 -5 -1 0.12 0.03
-3 5 -1 0.1 0.05
-3 5 -1 0.11 0.08
3 -5 -1 0.12 0.06
3 -5 -1 0.11 0.07
3 0 -2 0 0
-3 0 2 -0.01 0
3 0 -2 0.01 0
3 0 -2 -0.01 0.01
3 0 -2 -0.02 0.01
-3 0 2 -0.01 0.01
-3 0 2 0 0
3 0 -2 0 0
3 0 -2 0 0
-3 0 2 0 0.01
-3 0 2 0.01 0.02
-3 0 2 0 0.01
-3 1 2 3.36 0.56
-3 1 2 3.25 0.52
-3 1 2 3.34 0.89
3 1 -2 3.25 0.89
-3 1 2 3.05 0.82
-3 1 2 3.37 0.66
3 -1 -2 3.31 0.89
3 -1 -2 3.34 0.66
3 -1 -2 3.28 0.71
3 -1 -2 3.24 0.53
-3 -1 2 3.41 0.55
-3 -1 2 3.29 0.89
3 -1 -2 3.27 0.55
3 -1 -2 3.28 0.53
3 -1 -2 3.16 0.89
3 -1 -2 3.24 0.56
-3 -1 2 3.38 0.52
-3 2 2 0.01 0.01
-3 2 2 0.01 0.02
-3 2 2 0.02 0.01
-3 2 2 0.01 0.03
3 -2 -2 0.02 0.01
3 -2 -2 -0.01 0.01
3 -2 -2 0.04 0.05
3 -2 -2 0.01 0.02
3 -2 -2 -0.01 0.01
3 -2 -2 0 0.02
3 -2 -2 -0.01 0.01
3 -3 2 0.33 0.06
3 3 -2 0.35 0.06
-3 3 2 0.32 0.1
-3 3 2 0.37 0.06
3 3 -2 0.32 0.05
-3 3 2 0.4 0.06
-3 3 2 0.3 0.11
-3 -3 2 0.35 0.06
3 -3 -2 0.37 0.06
3 -3 -2 0.32 0.06
3 -3 -2 0.46 0.08
3 -3 -2 0.1 0.11
3 -3 -2 0.24 0.08
3 -3 -2 0.32 0.06
3 -3 -2 0.33 0.06
3 -4 2 0.49 0.08
-3 4 2 0.3 0.15
-3 4 2 0.52 0.14
-3 -4 -2 0.48 0.16
3 -4 -2 0.46 0.08
3 -4 -2 0.48 0.09
3 -4 -2 0.61 0.12
-3 4 -2 0.49 0.08
3 -4 -2 0.66 0.17
3 -4 -2 0.51 0.13
-3 5 2 0.1 0.09
3 5 -2 0.11 0.05
-3 5 2 0.07 0.07
-3 -5 -2 0.06 0.08
3 -5 -2 -0.02 0.06
3 -5 -2 0.07 0.02
3 -5 -2 0.06 0.05
-3 5 -2 0.03 0.05
3 -5 -2 0.04 0.02
3 0 -3 -0.01 0.02
3 0 -3 -0.01 0
-3 0 3 0.01 0.01
3 0 -3 0 0
3 0 -3 0 0.01
-3 0 3 0 0.01
3 0 -3 0 0
3 0 -3 -0.01 0.01
3 0 -3 0 0.01
3 0 -3 -0.03 0.03
-3 0 3 0.01 0.02
3 0 -3 0 0.01
-3 0 3 0 0
-3 0 3 -0.01 0.01
3 0 -3 0.01 0.01
3 1 -3 0.1 0.03
-3 1 3 0.14 0.02
-3 1 3 0.2 0.05
3 1 -3 0.11 0.02
3 1 -3 0.12 0.02
-3 1 3 0.11 0.04
3 1 -3 0.21 0.04
3 1 -3 0.11 0.02
3 1 -3 0.16 0.03
3 1 -3 0.13 0.02
3 -1 -3 0.11 0.02
3 -1 -3 0.08 0.02
3 -1 -3 0.17 0.03
3 -1 -3 0.18 0.05
3 -1 -3 0.26 0.05
-3 -1 3 0.11 0.03
3 -1 -3 0.12 0.02
3 -1 -3 0.14 0.02
3 -1 -3 0.17 0.03
-3 2 3 0.03 0.01
-3 2 3 0 0.03
-3 2 3 0.05 0.04
3 -2 -3 0.02 0.01
3 -2 -3 0.04 0.05
3 -2 -3 0.09 0.02
3 -2 -3 0.01 0.01
3 -2 -3 0.03 0.01
3 -2 -3 0.03 0.01
3 -2 -3 -0.06 0.03
3 -2 -3 0.01 0.03
-3 3 3 0.24 0.06
3 3 -3 0.1 0.02
-3 3 3 0.11 0.05
3 -3 -3 0.12 0.02
3 -3 -3 0.06 0.02
3 -3 -3 0.15 0.04
3 -3 -3 0.07 0.08
3 -3 -3 0.09 0.05
3 -3 -3 0.09 0.02
3 -3 -3 0.12 0.03
-3 4 3 0.39 0.08
3 -4 3 0.2 0.04
-3 -4 -3 0.13 0.1
-3 4 3 0.13 0.08
3 -4 -3 0.07 0.1
3 -4 -3 0.2 0.04
3 -4 -3 0.22 0.08
3 -4 -3 0.18 0.07
3 -4 -3 0.26 0.04
-3 -5 -3 0.04 0.1
-3 5 3 0.06 0.06
-3 5 3 0.08 0.07
3 -5 -3 -0.04 0.05
3 -5 -3 -0.02 0.02
3 -5 -3 -0.03 0.11
3 -5 -3 0.09 0.07
3 -5 -3 0.02 0.02
3 0 -4 0.01 0.02
-3 0 4 0 0.01
-3 0 4 0.01 0.01
-3 0 4 0.01 0.02
3 0 -4 0.01 0.03
3 0 -4 0.01 0.01
3 0 -4 -0.01 0.02
3 0 -4 0 0.01
3 0 -4 0.02 0.03
-3 0 4 0 0.02
3 0 -4 -0.02 0.01
-3 0 4 0 0.01
3 0 -4 -0.03 0.04
3 1 -4 0.23 0.06
3 1 -4 0.23 0.04
-3 1 4 0.38 0.07
3 1 -4 0.22 0.05
3 1 -4 0.22 0.04
-3 1 4 0.21 0.07
3 1 -4 0.2 0.05
3 1 -4 0.21 0.04
3 1 -4 0.29 0.06
3 1 -4 0.17 0.04
3 -1 -4 0.16 0.06
3 -1 -4 0.24 0.04
3 -1 -4 0.3 0.08
3 -1 -4 0.25 0.05
3 -1 -4 0.37 0.07
3 -1 -4 0.18 0.04
-3 -1 4 0.2 0.04
3 -1 -4 0.22 0.04
3 -1 -4 0.33 0.07
-3 -1 4 0.19 0.05
-3 2 4 0.78 0.23
-3 2 4 0.93 0.21
3 2 -4 0.82 0.13
3 -2 -4 0.88 0.14
3 -2 -4 0.8 0.23
3 -2 -4 0.85 0.14
3 -2 -4 0.77 0.14
3 -2 -4 0.86 0.21
3 -2 -4 0.89 0.18
3 -2 -4 0.84 0.14
-3 3 4 0.11 0.05
-3 3 4 0.07 0.06
3 -3 -4 0.06 0.02
3 -3 -4 0.09 0.03
3 -3 -4 0.05 0.02
3 -3 -4 0.09 0.04
3 -3 -4 0.06 0.08
3 -3 -4 -0.04 0.05
3 -3 -4 0.03 0.02
-3 4 4 0.77 0.23
-3 4 4 0.82 0.21
3 -4 -4 0.86 0.18
3 -4 -4 0.77 0.21
3 -4 -4 0.89 0.14
3 -4 -4 0.83 0.14
-3 0 5 0.06 0.02
3 0 -5 0 0.02
3 0 -5 0 0.01
3 0 -5 0.01 0.03
3 0 -5 -0.01 0.02
3 0 -5 -0.04 0.04
3 0 -5 -0.01 0.01
3 0 -5 0 0.03
-3 1 5 0.18 0.05
3 1 -5 0.13 0.02
3 1 -5 0.12 0.03
3 1 -5 0.21 0.04
3 1 -5 0.26 0.06
-3 1 5 0.08 0.05
3 1 -5 0.13 0.05
3 1 -5 0.12 0.02
3 -1 -5 0.14 0.04
-3 -1 5 0.13 0.03
-3 -1 5 0.12 0.03
3 -1 -5 0.16 0.05
3 -1 -5 0.16 0.06
3 -1 -5 0.2 0.07
3 -1 -5 0.13 0.05
3 -1 -5 0.08 0.02
3 -1 -5 0.11 0.02
-3 -1 5 0.13 0.02
3 -1 -5 0.11 0.03
-3 2 5 0.08 0.06
3 2 -5 0.11 0.04
-3 2 5 0.17 0.05
3 2 -5 0.09 0.02
3 -2 -5 0.1 0.03
3 -2 -5 0.09 0.02
3 -2 -5 0.12 0.08
3 -2 -5 0.1 0.02
3 -2 -5 0.18 0.05
3 -2 -5 0.15 0.04
-3 3 5 -0.01 0.07
-3 3 5 -0.02 0.05
3 -3 -5 0.07 0.02
3 -3 -5 0.02 0.02
3 -3 -5 0.07 0.06
3 -3 -5 0.03 0.02
3 -3 -5 -0.07 0.09
3 -3 -5 0.03 0.02
3 -3 -5 0.03 0.04
-3 4 5 0.05 0.08
-3 4 5 0.29 0.08
3 -4 -5 0.16 0.07
3 -4 -5 0.15 0.03
3 -4 -5 0.11 0.03
3 -4 -5 0.03 0.1
3 -4 -5 0.2 0.06
3 0 -6 -0.02 0.01
3 0 -6 0 0.06
3 0 -6 -0.02 0.03
3 0 -6 0.03 0.02
3 0 -6 -0.01 0.03
3 0 -6 0.03 0.04
3 0 -6 0 0.04
3 1 -6 0.84 0.22
3 1 -6 0.8 0.24
-3 1 6 0.96 0.23
3 1 -6 0.91 0.15
3 1 -6 0.91 0.14
3 1 -6 0.91 0.24
3 -1 -6 0.81 0.14
3 -1 -6 0.83 0.24
3 -1 -6 0.91 0.19
3 -1 -6 0.86 0.15
3 -1 -6 0.91 0.23
3 -1 -6 0.91 0.24
3 -1 -6 0.92 0.22
3 2 -6 0.07 0.02
3 2 -6 0.04 0.04
-3 2 6 0.14 0.05
-3 2 6 0.08 0.07
3 -2 -6 0.08 0.06
3 -2 -6 0.16 0.04
3 -2 -6 0.07 0.02
3 -2 -6 0.05 0.03
3 -2 -6 0.04 0.08
-3 3 6 0.14 0.06
-3 3 6 0.11 0.08
3 -3 -6 0.09 0.1
3 -3 -6 0.17 0.05
3 -3 -6 0.12 0.06
3 -3 -6 0.09 0.02
3 -3 -6 0.1 0.03
3 -3 -6 0.02 0.03
-3 4 6 0.06 0.09
-3 4 6 0.11 0.07
3 -4 -6 0.19 0.05
3 -4 -6 0.12 0.07
3 -4 -6 0.03 0.02
3 -4 -6 -0.03 0.1
3 0 -7 -0.04 0.02
3 0 -7 -0.01 0.01
3 0 -7 -0.07 0.07
3 0 -7 -0.02 0.01
3 1 -7 0.53 0.12
3 -1 -7 0.43 0.11
3 -1 -7 0.33 0.14
3 -1 -7 0.45 0.1
3 -1 -7 0.27 0.07
3 -1 -7 0.44 0.07
3 -2 -7 988 158.62
3 -2 -7 1000 213.04
-3 3 7 0.04 0.07
3 -3 -7 0.03 0.11
3 -3 -7 -0.01 0.04
3 -3 -7 -0.05 0.06
3 -3 -7 -0.02 0.03
3 -3 -7 -0.04 0.02
3 0 -8 0.07 0.08
3 1 -8 0.68 0.18
3 -1 -8 0.49 0.19
3 -2 -8 0.16 0.11
3 -2 -8 0.2 0.09
3 -2 -8 0.36 0.08
3 -3 -8 0.03 0.01
3 -3 -8 0.1 0.06
3 -3 -8 -0.02 0.07
3 -3 -8 0.11 0.12
3 0 -9 -0.06 0.08
3 -1 -9 -0.01 0.09
3 -2 -9 0.04 0.02
3 -2 -9 -0.23 0.09
-4 2 0 0.26 0.04
4 -2 0 0.27 0.05
4 -2 0 0.26 0.06
-4 3 0 0 0.02
4 -3 0 0.01 0.03
4 -3 0 0 0.01
4 -3 0 0 0.01
-4 3 0 0.02 0.01
-4 -3 0 0.03 0.04
4 -3 0 0.02 0.01
4 -3 0 0.01 0.01
-4 3 0 -0.04 0.04
-4 4 0 0.05 0.02
4 -4 0 0.05 0.03
4 -4 0 0.01 0.01
-4 4 0 -0.02 0.03
-4 -4 0 0.07 0.06
4 -4 0 0.03 0.05
4 -4 0 0 0.02
4 -5 0 0.06 0.06
-4 5 0 -0.11 0.07
4 -5 0 -0.02 0.02
4 -5 0 0.02 0.04
-4 5 0 0.04 0.06
-4 5 0 0.03 0.03
4 -5 0 -0.01 0.02
-4 1 1 2.41 0.38
-4 1 1 2.41 0.65
4 -1 -1 2.46 0.4
4 -1 -1 2.38 0.49
4 -1 -1 2.43 0.41
-4 2 1 0.23 0.06
-4 2 1 0.1 0.03
-4 2 1 0.15 0.03
4 -2 -1 0.17 0.03
4 -2 -1 0.14 0.03
4 -2 -1 0.1 0.03
4 -2 -1 0.11 0.02
4 3 -1 0.16 0.04
4 -3 1 0.19 0.03
-4 3 1 0.16 0.03
4 -3 1 0.16 0.04
4 3 -1 0.23 0.04
-4 3 1 0.02 0.05
4 3 -1 0.13 0.02
-4 3 1 0.06 0.03
4 -3 -1 0.19 0.04
4 -3 -1 0.07 0.04
4 -3 -1 0.14 0.03
4 -3 -1 0.13 0.03
-4 3 -1 0.14 0.03
4 -3 -1 0.13 0.03
4 -3 -1 0.14 0.03
-4 -3 1 0.29 0.06
-4 4 1 0.01 0.05
4 -4 1 0.04 0.03
-4 -4 -1 -0.02 0.07
-4 4 1 -0.03 0.06
-4 4 1 0 0.02
4 -4 1 0.01 0.02
4 -4 -1 0.03 0.02
-4 4 -1 -0.02 0.02
4 -4 -1 0.05 0.05
4 -4 -1 0.06 0.03
4 -4 -1 0.01 0.02
-4 5 1 -0.02 0.08
4 -5 1 0.05 0.05
-4 5 1 0.09 0.07
4 -5 1 0.05 0.04
4 -5 1 0.04 0.02
4 -5 -1 -0.03 0.02
4 -5 -1 -0.03 0.06
-4 5 -1 -0.04 0.08
-4 5 -1 -0.01 0.02
4 -5 -1 -0.05 0.05
4 -5 -1 0.02 0.02
-4 0 2 10.02 2.72
-4 0 2 10.43 2.03
-4 0 2 9.72 1.6
4 0 -2 10.18 2.72
4 0 -2 10.28 1.71
4 0 -2 9.78 2.03
4 0 -2 10.57 1.6
4 0 -2 9.73 1.68
-4 0 2 9.9 1.68
-4 1 2 0.19 0.03
-4 1 2 0.16 0.03
-4 1 2 0.21 0.06
4 -1 -2 0.17 0.03
-4 -1 2 0.17 0.03
4 -1 -2 0.17 0.03
4 -1 -2 0.2 0.04
4 -1 -2 0.29 0.06
-4 -1 2 0.16 0.05
4 -1 -2 0.14 0.03
-4 2 2 0 0.04
-4 2 2 0.03 0.01
-4 2 2 0 0.02
-4 2 2 0.02 0.01
4 -2 -2 0.01 0.01
4 -2 -2 0.03 0.02
4 -2 -2 0.01 0.01
4 -2 -2 0.02 0.03
4 -2 -2 0.02 0.01
4 -2 -2 0.02 0.01
4 3 -2 1.69 0.27
-4 3 2 1.72 0.28
-4 3 2 1.68 0.26
-4 3 2 1.56 0.41
-4 3 2 1.46 0.45
4 -3 -2 1.67 0.27
4 -3 -2 1.61 0.33
4 -3 -2 1.59 0.28
4 -3 -2 1.66 0.26
4 -3 -2 1.66 0.28
4 -3 -2 1.71 0.36
-4 4 2 0.04 0.06
-4 4 2 0.13 0.03
-4 4 2 -0.04 0.07
4 -4 2 0.12 0.02
4 -4 -2 0.05 0.06
4 -4 -2 0.11 0.02
4 -4 -2 0.14 0.02
-4 4 -2 0.05 0.03
4 -4 -2 0.05 0.05
4 -4 -2 0.06 0.04
-4 5 2 -0.08 0.06
-4 5 2 -0.09 0.08
4 -5 -2 0 0.02
4 -5 -2 -0.03 0.07
4 -5 -2 0.02 0.06
4 -5 -2 0 0.02
4 0 -3 4.39 1.16
4 0 -3 4.11 0.92
4 0 -3 4.53 0.68
4 0 -3 4.23 1.16
4 0 -3 4.53 0.73
4 0 -3 4.12 0.7
4 0 -3 4.21 0.72
-4 0 3 4.2 1.07
-4 0 3 4.18 0.68
-4 0 3 4.36 1.16
4 0 -3 4.15 0.86
-4 0 3 4.43 0.86
-4 1 3 0.01 0.03
4 1 -3 0.02 0.01
4 1 -3 0.02 0.01
4 1 -3 0.03 0.01
-4 1 3 0.01 0.03
-4 1 3 0.01 0.01
4 1 -3 0.01 0.01
4 1 -3 0.04 0.02
4 1 -3 0.02 0.01
-4 -1 3 0 0.01
-4 -1 3 0.02 0.02
4 -1 -3 0.02 0.01
4 -1 -3 0 0.01
-4 -1 3 0.06 0.03
4 -1 -3 0.03 0.02
4 -1 -3 0.01 0.01
4 -1 -3 0.04 0.04
4 -1 -3 0.02 0.01
4 -1 -3 0.04 0.04
4 -1 -3 0.02 0.02
-4 2 3 0.01 0.03
-4 2 3 0.02 0.01
-4 2 3 0.03 0.04
4 -2 -3 0 0.01
4 -2 -3 -0.01 0.02
4 -2 -3 0.01 0.01
4 -2 -3 -0.01 0.03
4 -2 -3 0.03 0.05
4 -2 -3 -0.01 0.01
4 -2 -3 -0.01 0.01
-4 3 3 0.33 0.05
-4 3 3 0.3 0.1
-4 3 3 0.2 0.09
4 -3 -3 0.3 0.07
4 -3 -3 0.09 0.1
4 -3 -3 0.22 0.07
4 -3 -3 0.26 0.05
4 -3 -3 0.32 0.05
4 -3 -3 0.36 0.05
4 -3 -3 0.27 0.05
4 -3 -3 0.22 0.08
-4 4 3 0.3 0.08
-4 4 3 0.18 0.07
4 -4 -3 0.24 0.11
4 -4 -3 0.11 0.06
4 -4 -3 0.11 0.03
4 -4 -3 0.1 0.03
4 -4 -3 0.13 0.07
4 0 -4 11.54 1.83
-4 0 4 11.32 2.91
4 0 -4 10.9 2.17
4 0 -4 10.4 2.91
-4 0 4 11.04 2.7
4 0 -4 10.74 1.75
4 0 -4 10.89 2.31
-4 0 4 10.93 1.71
4 0 -4 10.02 2.7
4 0 -4 10.28 1.8
4 0 -4 10.59 2.58
4 0 -4 10.41 2.92
4 0 -4 10.99 1.72
4 1 -4 0.54 0.09
-4 1 4 0.51 0.15
4 1 -4 0.48 0.13
4 1 -4 0.54 0.09
4 1 -4 0.51 0.13
4 1 -4 0.53 0.14
4 1 -4 0.53 0.11
-4 1 4 0.51 0.14
4 1 -4 0.51 0.09
4 1 -4 0.56 0.08
4 1 -4 0.54 0.09
-4 1 4 0.47 0.09
-4 -1 4 0.57 0.11
4 -1 -4 0.48 0.15
4 -1 -4 0.56 0.15
4 -1 -4 0.54 0.11
4 -1 -4 0.48 0.13
4 -1 -4 0.53 0.09
4 -1 -4 0.5 0.12
4 -1 -4 0.55 0.09
4 -1 -4 0.54 0.09
4 -1 -4 0.52 0.09
4 2 -4 0.14 0.03
-4 2 4 0.17 0.06
-4 2 4 0.23 0.06
4 -2 -4 0.16 0.03
4 -2 -4 0.2 0.05
4 -2 -4 0.14 0.03
4 -2 -4 0.18 0.08
4 -2 -4 0.15 0.03
4 -2 -4 0.11 0.03
4 -2 -4 0.07 0.05
-4 3 4 3.34 0.9
-4 3 4 3.49 0.83
4 -3 -4 3.31 0.56
4 -3 -4 3.24 0.55
4 -3 -4 3.29 0.71
4 -3 -4 3.3 0.54
4 -3 -4 3.25 0.53
4 -3 -4 3.28 0.8
4 -3 -4 3.28 0.9
-4 4 4 0.23 0.12
-4 4 4 0.47 0.11
4 -4 -4 0.36 0.1
4 -4 -4 0.19 0.13
4 -4 -4 0.34 0.06
4 -4 -4 0.39 0.09
4 -4 -4 0.31 0.06
-4 0 5 1.06 0.32
4 0 -5 1.22 0.19
4 0 -5 1.22 0.19
4 0 -5 1.23 0.2
-4 0 5 1.25 0.3
4 0 -5 1.19 0.32
4 0 -5 1.22 0.32
4 0 -5 1.15 0.2
4 0 -5 1.2 0.29
4 0 -5 1.2 0.3
4 0 -5 1.14 0.26
4 1 -5 0.06 0.01
4 1 -5 0.04 0.02
-4 1 5 0.07 0.05
4 1 -5 0.02 0.04
4 1 -5 0.06 0.03
4 1 -5 0.07 0.03
4 1 -5 0.07 0.02
4 1 -5 0.08 0.02
-4 1 5 0.1 0.04
4 1 -5 0.07 0.01
4 1 -5 0.15 0.05
4 -1 -5 0.02 0.03
4 -1 -5 0.03 0.01
4 -1 -5 0.04 0.02
-4 -1 5 0.04 0.01
4 -1 -5 0.01 0.04
4 -1 -5 0.05 0.02
4 -1 -5 0.11 0.07
4 -1 -5 0.06 0.02
-4 -1 5 0.05 0.02
4 -1 -5 0.04 0.04
4 -1 -5 0.1 0.04
4 2 -5 -0.01 0.01
-4 2 5 -0.03 0.04
4 2 -5 -0.01 0.01
-4 2 5 0.07 0.06
4 2 -5 0.01 0.03
4 -2 -5 -0.01 0.01
4 -2 -5 0.01 0.07
4 -2 -5 -0.07 0.02
4 -2 -5 -0.02 0.01
4 -2 -5 0 0.01
4 -2 -5 -0.03 0.04
4 -2 -5 -0.01 0.03
-4 3 5 0.02 0.07
-4 3 5 0.11 0.06
4 -3 -5 0.14 0.1
4 -3 -5 0.07 0.06
4 -3 -5 0.11 0.03
4 -3 -5 0.17 0.05
4 -3 -5 0.08 0.02
4 -3 -5 0.13 0.03
4 -3 -5 0.07 0.03
-4 4 5 0.04 0.08
-4 4 5 0.05 0.07
4 -4 -5 0.03 0.02
4 -4 -5 0.04 0.07
4 -4 -5 0.01 0.02
4 -4 -5 -0.03 0.05
4 -4 -5 0.06 0.1
4 0 -6 0.28 0.07
4 0 -6 0.33 0.06
4 0 -6 0.5 0.09
4 0 -6 0.69 0.13
-4 0 6 0.36 0.1
4 0 -6 0.34 0.07
4 0 -6 0.5 0.11
4 0 -6 0.4 0.12
4 0 -6 0.37 0.1
-4 1 6 0.05 0.05
4 1 -6 0.15 0.04
4 1 -6 0.1 0.02
4 1 -6 0.05 0.03
4 1 -6 0.24 0.05
-4 1 6 0.12 0.05
4 1 -6 0.21 0.07
4 1 -6 0.06 0.02
4 1 -6 0.06 0.02
4 -1 -6 0.08 0.06
4 -1 -6 0.17 0.08
4 -1 -6 0.1 0.02
4 -1 -6 0.09 0.02
4 -1 -6 0.16 0.04
4 -1 -6 0.04 0.05
4 -1 -6 0.16 0.05
4 -1 -6 0.08 0.03
4 -1 -6 0.1 0.02
4 2 -6 0.01 0.01
-4 2 6 0.11 0.05
-4 2 6 0.01 0.06
4 2 -6 0.16 0.04
4 -2 -6 0.04 0.02
4 -2 -6 0.06 0.02
4 -2 -6 -0.02 0.09
4 -2 -6 0.05 0.02
4 -2 -6 0.09 0.04
4 -2 -6 0.08 0.05
4 -2 -6 0.05 0.03
-4 3 6 0.2 0.07
-4 3 6 -0.02 0.08
4 -3 -6 0.13 0.1
4 -3 -6 0.04 0.07
4 -3 -6 0.09 0.02
4 -3 -6 0.05 0.03
4 -3 -6 0.1 0.03
4 -3 -6 0.07 0.02
4 -3 -6 0.14 0.05
-4 4 6 0.02 0.09
-4 4 6 0.09 0.07
4 -4 -6 -0.02 0.05
4 -4 -6 0.01 0.02
4 -4 -6 -0.05 0.07
4 -4 -6 -0.18 0.11
4 -4 -6 0.02 0.02
4 0 -7 0.02 0.07
4 0 -7 0 0.01
4 0 -7 0.01 0.03
4 0 -7 0 0.04
4 0 -7 0.02 0.02
4 1 -7 0.17 0.03
4 1 -7 0.14 0.03
4 1 -7 0.33 0.09
4 1 -7 0.19 0.04
4 -1 -7 0.21 0.07
4 -1 -7 0.11 0.04
4 -1 -7 0.22 0.03
4 -1 -7 0.22 0.11
4 -1 -7 0.27 0.06
4 -2 -7 0 0.03
4 -2 -7 0.02 0.04
4 -2 -7 0.01 0.1
4 -2 -7 0.02 0.06
4 -2 -7 0.01 0.02
4 -2 -7 0.02 0.02
-4 3 7 -0.04 0.08
4 -3 -7 0.02 0.02
4 -3 -7 -0.04 0.05
4 -3 -7 0.08 0.11
4 -3 -7 -0.02 0.03
4 -3 -7 0.1 0.07
4 -3 -7 0.04 0.02
4 0 -8 -0.01 0.02
4 0 -8 0 0.08
4 0 -8 0.03 0.01
4 0 -8 0 0.02
4 -1 -8 0.35 0.06
4 -1 -8 0.28 0.08
4 -1 -8 0.32 0.06
4 -1 -8 0.2 0.1
4 -1 -8 0.67 0.15
4 -2 -8 0.09 0.05
4 -2 -8 0.03 0.11
4 -2 -8 0.03 0.06
4 -2 -8 0.05 0.02
4 -2 -8 0.07 0.03
4 0 -9 0.15 0.11
4 -1 -9 0 0.11
4 -1 -9 0.05 0.02
4 -1 -9 0.1 0.03
5 -3 0 0.42 0.07
5 -3 0 0.43 0.07
-5 3 0 0.36 0.07
5 -3 0 0.45 0.09
-5 -4 0 -0.02 0.06
-5 4 0 0 0.04
5 -4 0 -0.02 0.04
5 -4 0 0.04 0.03
5 -4 0 0.01 0.01
-5 4 0 0.02 0.02
5 -4 0 0.08 0.02
-5 5 0 -0.01 0.08
5 -5 0 0.09 0.06
5 -5 0 0.02 0.02
-5 5 0 -0.01 0.04
5 -5 0 0.06 0.04
-5 5 0 -0.03 0.02
-5 2 1 15.53 2.49
-5 2 1 15.71 4.23
5 -2 -1 15.69 3.15
5 -2 -1 15.52 2.55
5 -2 -1 15.74 2.61
5 -2 -1 15.84 2.66
-5 3 1 0.21 0.12
-5 3 1 0.27 0.07
-5 3 1 0.51 0.07
5 -3 -1 0.24 0.09
5 -3 -1 0.46 0.07
5 -3 -1 0.45 0.07
5 -3 -1 0.46 0.07
5 -3 -1 0.43 0.07
-5 4 1 0.01 0.06
5 -4 1 0.01 0.02
5 -4 1 0 0.04
-5 4 1 0 0.02
5 -4 -1 0.05 0.02
-5 4 -1 0.03 0.02
5 -4 -1 0.05 0.04
5 -4 -1 0.08 0.05
5 -4 -1 0.09 0.02
-5 5 1 0.16 0.08
5 -5 1 0.09 0.03
5 -5 1 0.17 0.07
-5 5 1 0.02 0.09
-5 5 1 0.2 0.04
5 -5 1 0.12 0.05
5 -5 -1 0.26 0.06
5 -5 -1 0.11 0.03
-5 5 -1 0.15 0.03
5 -5 -1 0.16 0.07
5 -5 -1 0.16 0.03
-5 0 2 0 0.02
5 0 -2 0.02 0.01
-5 0 2 0 0.01
-5 1 2 0.62 0.16
-5 1 2 0.64 0.1
-5 -1 2 0.55 0.16
5 -1 -2 0.58 0.1
5 -1 -2 0.62 0.1
5 -1 -2 0.57 0.12
5 -1 -2 0.58 0.16
5 -1 -2 0.6 0.1
-5 2 2 0.53 0.09
-5 2 2 0.56 0.15
5 -2 -2 0.53 0.09
5 -2 -2 0.56 0.09
5 -2 -2 0.48 0.09
5 -2 -2 0.57 0.11
-5 3 2 0.22 0.04
5 3 -2 0.22 0.04
-5 3 2 0.27 0.08
-5 3 2 0.2 0.07
5 -3 -2 0.2 0.04
-5 -3 2 0.26 0.06
5 -3 -2 0.23 0.04
5 -3 -2 0.2 0.04
5 -3 -2 0.11 0.06
5 -3 -2 0.21 0.04
5 -3 -2 0.23 0.06
-5 4 2 0.07 0.07
-5 4 2 -0.03 0.05
-5 4 2 0.02 0.02
5 -4 -2 -0.07 0.04
5 -4 -2 0.01 0.02
5 -4 -2 -0.06 0.05
5 -4 -2 0.01 0.02
5 0 -3 0 0.01
-5 0 3 0.01 0.03
5 0 -3 -0.02 0.02
-5 0 3 -0.01 0.02
-5 0 3 -0.02 0.01
5 0 -3 -0.01 0.03
5 0 -3 0 0.01
5 0 -3 0.01 0.01
-5 1 3 1.22 0.34
5 1 -3 1.38 0.22
-5 1 3 1.33 0.21
5 1 -3 1.39 0.27
-5 1 3 1.35 0.36
-5 -1 3 1.4 0.22
5 -1 -3 1.37 0.29
5 -1 -3 1.33 0.22
5 -1 -3 1.27 0.23
-5 -1 3 1.36 0.34
-5 -1 3 1.3 0.36
5 -1 -3 1.32 0.23
-5 -1 3 1.41 0.21
5 -1 -3 1.29 0.27
5 -1 -3 1.35 0.36
-5 2 3 0 0.05
-5 2 3 0.02 0.04
5 2 -3 0.06 0.01
-5 2 3 0.07 0.02
5 -2 -3 0.02 0.03
5 -2 -3 0.04 0.01
5 -2 -3 0.09 0.07
5 -2 -3 0.04 0.01
-5 -2 3 0.06 0.01
5 -2 -3 0.05 0.01
5 -2 -3 0.05 0.02
5 -2 -3 0.04 0.03
-5 -2 3 0.01 0.03
-5 3 3 0.32 0.12
-5 3 3 0.51 0.13
-5 3 3 0.47 0.07
5 -3 -3 0.38 0.07
5 -3 -3 0.42 0.07
5 -3 -3 0.48 0.08
5 -3 -3 0.51 0.09
5 -3 -3 0.39 0.07
5 -3 -3 0.31 0.1
-5 4 3 0.34 0.12
-5 4 3 0.42 0.07
-5 4 3 0.43 0.14
5 -4 -3 0.38 0.12
5 -4 -3 0.35 0.11
5 -4 -3 0.39 0.07
5 -4 -3 0.43 0.1
5 -4 -3 0.45 0.07
5 0 -4 0.01 0.01
5 0 -4 0 0.01
5 0 -4 -0.03 0.02
-5 0 4 0 0.03
5 0 -4 0 0.01
-5 0 4 0 0.03
5 0 -4 -0.01 0.02
5 0 -4 -0.02 0.03
5 0 -4 0.01 0.01
-5 0 4 0 0.01
5 1 -4 0.55 0.09
5 1 -4 0.5 0.15
5 1 -4 0.55 0.09
-5 1 4 0.53 0.09
-5 1 4 0.62 0.14
5 1 -4 0.57 0.12
5 1 -4 0.58 0.09
-5 1 4 0.55 0.15
5 1 -4 0.55 0.09
5 1 -4 0.55 0.11
5 -1 -4 0.48 0.11
5 -1 -4 0.55 0.15
-5 -1 4 0.54 0.15
5 -1 -4 0.54 0.12
-5 -1 4 0.54 0.09
-5 -1 4 0.53 0.14
5 -1 -4 0.54 0.1
5 -1 -4 0.54 0.09
5 -1 -4 0.54 0.09
5 -1 -4 0.56 0.09
-5 2 4 0.01 0.02
-5 2 4 -0.01 0.04
-5 2 4 0.02 0.05
5 2 -4 0.02 0.01
5 -2 -4 0.02 0.02
5 -2 -4 0 0.03
5 -2 -4 0 0.01
5 -2 -4 0.03 0.01
5 -2 -4 0.02 0.03
5 -2 -4 0.01 0.01
5 -2 -4 -0.02 0.07
-5 3 4 0.16 0.03
-5 3 4 0.22 0.08
-5 3 4 0.06 0.07
5 -3 -4 0.07 0.03
5 -3 -4 0.07 0.03
5 -3 -4 0.13 0.03
5 -3 -4 0.04 0.09
5 -3 -4 0.15 0.03
5 -3 -4 0.01 0.06
5 -3 -4 0.1 0.05
5 -3 -4 0.17 0.05
-5 4 4 0.03 0.08
-5 4 4 -0.05 0.07
5 -4 -4 -0.06 0.06
5 -4 -4 -0.01 0.02
5 -4 -4 0.02 0.02
5 -4 -4 -0.07 0.05
5 -4 -4 0.02 0.09
5 0 -5 -0.04 0.03
-5 0 5 0.01 0.02
5 0 -5 -0.01 0.04
5 0 -5 0 0.01
-5 0 5 0.03 0.03
5 0 -5 -0.02 0.04
5 0 -5 0 0.01
5 0 -5 0.01 0.01
5 0 -5 -0.07 0.06
5 0 -5 0.01 0.01
5 1 -5 0.25 0.08
-5 1 5 0.36 0.09
5 1 -5 0.33 0.09
5 1 -5 0.27 0.05
5 1 -5 0.22 0.05
5 1 -5 0.36 0.07
-5 1 5 0.5 0.1
5 1 -5 0.28 0.05
5 1 -5 0.24 0.05
5 1 -5 0.3 0.05
5 -1 -5 0.21 0.05
5 -1 -5 0.34 0.05
5 -1 -5 0.27 0.07
5 -1 -5 0.36 0.11
5 -1 -5 0.3 0.05
5 -1 -5 0.2 0.08
5 -1 -5 0.41 0.09
-5 -1 5 0.27 0.06
5 -1 -5 0.27 0.05
-5 2 5 0.35 0.09
5 2 -5 0.19 0.04
-5 2 5 0.28 0.08
5 2 -5 0.08 0.07
5 2 -5 0.23 0.04
5 -2 -5 0.18 0.1
5 -2 -5 0.22 0.04
5 -2 -5 0.22 0.06
5 -2 -5 0.21 0.04
5 -2 -5 0.21 0.04
5 -2 -5 0.18 0.07
5 -2 -5 0.24 0.04
-5 3 5 0.46 0.11
-5 3 5 0.42 0.1
5 -3 -5 0.21 0.08
5 -3 -5 0.25 0.05
5 -3 -5 0.26 0.06
5 -3 -5 0.14 0.09
5 -3 -5 0.24 0.12
5 -3 -5 0.26 0.05
5 -3 -5 0.29 0.05
-5 4 5 0.22 0.1
-5 4 5 0.24 0.08
5 -4 -5 0.22 0.07
5 -4 -5 0.11 0.08
5 -4 -5 0.11 0.11
5 -4 -5 0.14 0.03
5 -4 -5 0.11 0.03
5 0 -6 0 0.01
5 0 -6 -0.07 0.04
5 0 -6 -0.08 0.07
-5 0 6 0 0.02
5 0 -6 0.02 0.02
5 0 -6 -0.01 0.01
5 0 -6 -0.07 0.03
5 0 -6 0 0.01
-5 1 6 0.1 0.05
5 1 -6 0.06 0.02
5 1 -6 0.09 0.08
5 1 -6 0.07 0.03
5 1 -6 0.09 0.04
5 1 -6 0.07 0.02
-5 1 6 0.13 0.06
5 1 -6 0.11 0.02
5 -1 -6 0.14 0.06
5 -1 -6 0.08 0.02
5 -1 -6 0.03 0.02
5 -1 -6 0.06 0.02
5 -1 -6 0.03 0.02
5 -1 -6 0.08 0.04
5 -1 -6 0 0.08
5 2 -6 0.15 0.03
5 2 -6 0.18 0.03
-5 2 6 0.25 0.07
-5 2 6 0.14 0.08
5 -2 -6 0.14 0.03
5 -2 -6 0.17 0.06
5 -2 -6 0.15 0.04
5 -2 -6 0.12 0.07
5 -2 -6 0.14 0.03
5 -2 -6 0.11 0.03
5 -2 -6 0.27 0.11
-5 3 6 0.06 0.09
-5 3 6 0.15 0.07
5 -3 -6 0.09 0.07
5 -3 -6 0.09 0.03
5 -3 -6 0.03 0.02
5 -3 -6 0.03 0.02
5 -3 -6 0.14 0.11
5 -3 -6 0.12 0.03
5 -3 -6 0.1 0.05
5 0 -7 0.01 0.01
5 0 -7 0 0.01
5 0 -7 -0.04 0.02
5 0 -7 0 0.05
5 0 -7 0.02 0.03
5 0 -7 -0.08 0.08
5 1 -7 0.04 0.02
5 1 -7 0.16 0.08
5 1 -7 0.07 0.02
5 1 -7 0.04 0.02
5 1 -7 0.05 0.02
5 1 -7 0.08 0.03
5 -1 -7 0.03 0.02
5 -1 -7 0.11 0.06
5 -1 -7 0.15 0.04
5 -1 -7 0.08 0.02
5 -1 -7 0.05 0.03
5 -1 -7 0.23 0.1
5 -1 -7 0.05 0.02
5 2 -7 1.75 0.31
5 -2 -7 1.6 0.3
5 -2 -7 1.83 0.5
5 -2 -7 1.79 0.29
5 -2 -7 1.96 0.39
5 -2 -7 1.74 0.3
5 -2 -7 2.13 0.44
5 -3 -7 0.04 0.03
5 -3 -7 0.02 0.02
5 -3 -7 -0.01 0.11
5 -3 -7 0.04 0.02
5 -3 -7 0.02 0.07
5 -3 -7 0.04 0.02
5 -3 -7 0.14 0.05
5 0 -8 0.07 0.04
5 0 -8 -0.01 0.05
5 0 -8 0.02 0.09
5 0 -8 -0.03 0.02
5 0 -8 0.01 0.02
5 0 -8 -0.01 0.02
5 1 -8 0.03 0.01
5 1 -8 -0.05 0.02
5 -1 -8 -0.01 0.1
5 -1 -8 0.01 0.02
5 -1 -8 0.01 0.03
5 -1 -8 0.07 0.07
5 -1 -8 -0.01 0.02
5 -1 -8 -0.03 0.04
5 -2 -8 0.18 0.08
5 -2 -8 0.24 0.13
5 -2 -8 0.08 0.03
5 -2 -8 0.1 0.03
5 -2 -8 0.07 0.03
5 -2 -8 0.14 0.06
5 0 -9 0.03 0.03
5 0 -9 0.07 0.1
5 0 -9 -0.02 0.02
5 0 -9 0.04 0.02
5 -1 -9 0.01 0.02
5 -1 -9 0.08 0.03
5 -1 -9 0.01 0.02
5 -1 -9 0.01 0.06
5 -1 -9 0.1 0.05
5 -1 -9 -0.04 0.12
-6 4 0 -0.01 0.03
6 -4 0 0.04 0.02
6 -4 0 -0.02 0.04
6 -2 -1 0.75 0.13
-6 3 1 0.24 0.04
6 -3 -1 0.25 0.04
6 -3 -1 0.12 0.06
6 -3 -1 0.21 0.04
6 -3 -1 0.28 0.04
6 -4 -1 0.73 0.15
-6 1 2 0.42 0.06
-6 1 2 0.4 0.11
6 -1 -2 0.35 0.08
6 -1 -2 0.4 0.07
-6 2 2 0.27 0.08
-6 2 2 0.25 0.04
6 -2 -2 0.24 0.04
6 -2 -2 0.22 0.04
6 -2 -2 0.18 0.04
6 -2 -2 0.14 0.05
-6 3 2 0.13 0.07
-6 3 2 0.08 0.03
6 -3 -2 0.13 0.03
6 -3 -2 0.08 0.04
6 -3 -2 0.15 0.03
6 -3 -2 0.12 0.03
6 -3 -2 0.13 0.03
6 -3 -2 0.1 0.05
-6 4 2 0.02 0.06
-6 4 2 -0.02 0.07
-6 4 2 0.02 0.02
6 -4 -2 0.07 0.04
6 -4 -2 0.02 0.02
6 -4 -2 0.03 0.02
6 -4 -2 0.13 0.06
6 0 -3 0.28 0.05
6 0 -3 0.13 0.03
-6 0 3 0.19 0.03
6 0 -3 0.13 0.03
-6 0 3 0.1 0.05
6 0 -3 0.14 0.03
6 0 -3 0.12 0.04
6 1 -3 0.65 0.13
-6 1 3 0.64 0.11
-6 1 3 0.76 0.18
6 -1 -3 0.7 0.18
-6 -1 3 0.63 0.17
6 -1 -3 0.64 0.11
-6 -1 3 0.68 0.18
6 -1 -3 0.62 0.11
6 -1 -3 0.68 0.11
-6 -1 3 0.64 0.11
6 -1 -3 0.61 0.14
-6 2 3 0.47 0.14
-6 2 3 0.38 0.13
-6 2 3 0.46 0.08
6 -2 -3 0.47 0.08
6 -2 -3 0.48 0.09
6 -2 -3 0.52 0.08
-6 -2 3 0.53 0.08
6 -2 -3 0.46 0.1
6 -2 -3 0.54 0.09
-6 3 3 1.14 0.32
-6 3 3 1.14 0.19
-6 3 3 1.03 0.3
6 -3 -3 1.29 0.24
6 -3 -3 1.22 0.2
6 -3 -3 1.24 0.26
6 -3 -3 1.16 0.19
6 -3 -3 1.22 0.2
6 -3 -3 1.09 0.19
-6 4 3 0.25 0.1
-6 4 3 0.07 0.09
-6 4 3 0.32 0.05
6 -4 -3 0.29 0.05
6 -4 -3 0.17 0.07
6 -4 -3 0.25 0.07
6 -4 -3 0.18 0.04
6 0 -4 0.21 0.04
6 0 -4 0.15 0.06
-6 0 4 0.19 0.07
6 0 -4 0.26 0.04
-6 0 4 0.18 0.04
-6 0 4 0.36 0.08
6 0 -4 0.37 0.06
6 0 -4 0.3 0.04
6 1 -4 0.89 0.19
6 1 -4 0.94 0.24
-6 1 4 0.93 0.24
6 1 -4 0.92 0.15
-6 1 4 0.79 0.14
-6 1 4 0.87 0.23
6 1 -4 0.87 0.15
6 1 -4 0.87 0.18
6 -1 -4 0.85 0.15
6 -1 -4 0.87 0.15
-6 -1 4 0.91 0.22
6 -1 -4 0.99 0.24
6 -1 -4 0.92 0.15
6 -1 -4 0.79 0.18
-6 -1 4 0.91 0.14
6 -1 -4 0.87 0.14
-6 -1 4 0.9 0.24
6 -1 -4 0.91 0.2
-6 2 4 0.11 0.05
6 2 -4 0.1 0.02
-6 2 4 0.11 0.06
-6 2 4 0.12 0.03
6 -2 -4 0.09 0.02
6 -2 -4 0.11 0.02
6 -2 -4 0.08 0.04
6 -2 -4 0.17 0.04
6 -2 -4 0.13 0.02
6 -2 -4 0.07 0.03
-6 3 4 0.76 0.2
-6 3 4 0.82 0.13
-6 3 4 0.77 0.22
6 -3 -4 0.81 0.16
6 -3 -4 0.72 0.13
6 -3 -4 0.84 0.14
6 -3 -4 0.83 0.17
6 -3 -4 0.75 0.13
6 -3 -4 0.73 0.13
-6 4 4 -0.04 0.07
-6 4 4 -0.06 0.06
6 -4 -4 0.04 0.05
6 -4 -4 0.05 0.02
6 -4 -4 0.01 0.02
6 -4 -4 -0.02 0.07
-6 0 5 0.02 0.02
6 0 -5 -0.02 0.01
-6 0 5 0 0.02
6 0 -5 0.03 0.03
6 0 -5 0.01 0.03
6 0 -5 0 0.01
6 0 -5 -0.01 0.05
6 0 -5 0 0.01
6 0 -5 0.01 0.02
-6 0 5 0.01 0.03
6 1 -5 0.13 0.04
6 1 -5 0.15 0.02
-6 1 5 0.11 0.03
6 1 -5 0.08 0.02
6 1 -5 0.18 0.06
-6 1 5 0.17 0.06
6 1 -5 0.17 0.04
-6 1 5 0.19 0.06
6 1 -5 0.09 0.02
6 1 -5 0.09 0.02
6 -1 -5 0.12 0.02
6 -1 -5 0.11 0.02
6 -1 -5 0.1 0.02
6 -1 -5 0.07 0.04
6 -1 -5 0.16 0.04
6 -1 -5 0.12 0.03
6 -1 -5 0.09 0.07
-6 -1 5 0.21 0.04
6 -1 -5 0.18 0.09
-6 2 5 0.37 0.06
-6 2 5 0.61 0.12
6 2 -5 0.36 0.1
-6 2 5 0.18 0.1
6 2 -5 0.32 0.06
6 -2 -5 0.32 0.09
6 -2 -5 0.38 0.08
6 -2 -5 0.35 0.06
6 -2 -5 0.17 0.1
6 -2 -5 0.41 0.06
6 -2 -5 0.08 0.12
6 -2 -5 0.41 0.06
6 -2 -5 0.32 0.06
-6 3 5 0.5 0.12
-6 3 5 0.38 0.11
6 -3 -5 0.27 0.06
6 -3 -5 0.32 0.06
6 -3 -5 0.22 0.1
6 -3 -5 0.35 0.06
6 -3 -5 0.31 0.06
6 -3 -5 0.41 0.13
6 -3 -5 0.37 0.09
-6 4 5 0.05 0.08
-6 4 5 0.15 0.07
6 -4 -5 0.05 0.08
6 -4 -5 0.12 0.11
6 -4 -5 0.05 0.03
6 -4 -5 0.06 0.03
6 -4 -5 0.04 0.07
6 0 -6 0.02 0.01
6 0 -6 -0.04 0.01
6 0 -6 0.09 0.07
6 0 -6 0.02 0.03
6 0 -6 -0.03 0.01
6 0 -6 -0.03 0.02
6 0 -6 -0.02 0.05
6 1 -6 0 0.01
-6 1 6 0.03 0.05
6 1 -6 -0.02 0.04
6 1 -6 -0.02 0.01
6 1 -6 0.03 0.02
6 1 -6 0 0.01
6 1 -6 0.01 0.02
6 -1 -6 0.02 0.02
6 -1 -6 0.03 0.04
6 -1 -6 0.02 0.01
6 -1 -6 -0.01 0.02
6 -1 -6 0 0.01
6 -1 -6 -0.14 0.08
6 -1 -6 -0.04 0.05
-6 2 6 0.09 0.07
6 2 -6 0.04 0.01
-6 2 6 0.14 0.06
6 2 -6 0.07 0.02
6 -2 -6 -0.04 0.05
6 -2 -6 0.09 0.02
6 -2 -6 0.02 0.02
6 -2 -6 0.07 0.03
6 -2 -6 0.01 0.06
6 -2 -6 0.07 0.1
6 -2 -6 0.03 0.02
6 3 -6 0 0.01
-6 3 6 -0.09 0.06
-6 3 6 -0.02 0.08
6 -3 -6 -0.05 0.1
6 -3 -6 0.03 0.02
6 -3 -6 -0.04 0.03
6 -3 -6 -0.02 0.02
6 -3 -6 0.08 0.07
6 -3 -6 0 0.05
6 -3 -6 0 0.02
6 0 -7 0.05 0.02
6 0 -7 0.04 0.02
6 0 -7 0.09 0.05
6 0 -7 0.09 0.04
6 0 -7 0.11 0.09
6 0 -7 0.03 0.02
6 0 -7 0.02 0.02
6 1 -7 0.36 0.08
6 1 -7 0.27 0.05
6 1 -7 0.24 0.05
6 1 -7 0.24 0.05
6 1 -7 0.32 0.06
6 -1 -7 0.28 0.13
6 -1 -7 0.28 0.05
6 -1 -7 0.3 0.07
6 -1 -7 0.17 0.05
6 -1 -7 0.31 0.05
6 -1 -7 0.31 0.09
6 -1 -7 0.24 0.05
6 2 -7 0.19 0.04
6 2 -7 0.27 0.04
6 -2 -7 0.1 0.08
6 -2 -7 0.1 0.05
6 -2 -7 0.33 0.07
6 -2 -7 0.33 0.13
6 -2 -7 0.21 0.04
6 -2 -7 0.18 0.04
6 -2 -7 0.26 0.04
6 -3 -7 0.16 0.13
6 -3 -7 0.25 0.04
6 -3 -7 0.2 0.04
6 -3 -7 0.25 0.07
6 -3 -7 0.24 0.09
6 -3 -7 0.16 0.04
6 -3 -7 0.16 0.05
6 0 -8 0.02 0.04
6 0 -8 0.03 0.02
6 0 -8 0.01 0.02
6 0 -8 0.04 0.1
6 0 -8 -0.01 0.02
6 0 -8 0.01 0.05
6 1 -8 0.06 0.03
6 1 -8 0.05 0.02
6 -1 -8 0.07 0.02
6 -1 -8 0 0.06
6 -1 -8 0.16 0.05
6 -1 -8 0.07 0.11
6 -1 -8 0.06 0.03
6 -1 -8 0.03 0.02
6 2 -8 0.07 0.02
6 2 -8 0.06 0.02
6 -2 -8 0.04 0.02
6 -2 -8 0.05 0.02
6 -2 -8 0.1 0.07
6 -2 -8 -0.03 0.03
6 -2 -8 0.03 0.12
6 -2 -8 0.06 0.05
6 -2 -8 -0.01 0.02
6 0 -9 0 0.03
6 0 -9 0.01 0.04
6 0 -9 0.06 0.02
6 0 -9 0.1 0.11
6 0 -9 0.02 0.05
6 0 -9 0.05 0.02
6 1 -9 0.03 0.03
6 1 -9 -0.02 0.02
6 -1 -9 0.02 0.02
6 -1 -9 -0.08 0.12
6 -1 -9 0.07 0.05
6 -1 -9 0.03 0.03
6 -1 -9 0.05 0.02
6 -1 -9 0.09 0.07
-7 4 1 0.05 0.03
7 -4 -1 0 0.05
7 -4 -1 0.05 0.02
7 -4 -1 0.01 0.01
7 -4 -1 -0.03 0.03
-7 2 2 0.96 0.16
7 -2 -2 0.99 0.16
7 -2 -2 0.96 0.16
7 -2 -2 0.95 0.2
-7 3 2 0.66 0.21
-7 3 2 0.73 0.12
7 -3 -2 0.76 0.13
7 -3 -2 0.7 0.13
7 -3 -2 0.78 0.12
7 -3 -2 0.77 0.12
-7 4 2 -0.13 0.08
-7 4 2 -0.01 0.05
-7 4 2 -0.02 0.02
7 -4 -2 0 0.04
7 -4 -2 0.06 0.06
7 -4 -2 0 0.02
7 -4 -2 0.03 0.02
7 0 -3 0 0.02
-7 0 3 -0.02 0.04
-7 0 3 0 0.01
-7 1 3 0.05 0.04
-7 1 3 0.05 0.02
7 -1 -3 0.01 0.01
-7 -1 3 0.04 0.04
7 -1 -3 0.04 0.01
7 -1 -3 0.03 0.01
7 -1 -3 0 0.03
-7 2 3 0.37 0.11
-7 2 3 0.27 0.06
7 -2 -3 0.36 0.06
7 -2 -3 0.36 0.06
7 -2 -3 0.36 0.06
-7 3 3 -0.08 0.07
7 -3 -3 0.01 0.03
7 -3 -3 0.03 0.02
7 -3 -3 0.04 0.02
7 -3 -3 0.01 0.02
7 -3 -3 -0.05 0.04
7 -3 -3 0.05 0.04
-7 4 3 0.05 0.08
-7 4 3 -0.03 0.06
-7 4 3 0.05 0.03
7 -4 -3 0.01 0.06
7 -4 -3 0.01 0.02
7 -4 -3 -0.01 0.04
7 -4 -3 0.01 0.02
-7 0 4 0.01 0.02
7 0 -4 -0.04 0.02
-7 0 4 -0.04 0.03
-7 0 4 -0.03 0.04
7 0 -4 -0.01 0.04
7 0 -4 0.03 0.01
7 0 -4 -0.01 0.01
7 0 -4 -0.02 0.01
7 1 -4 1.05 0.2
7 1 -4 0.9 0.17
-7 1 4 1.06 0.27
-7 1 4 1.02 0.16
7 1 -4 0.95 0.16
-7 1 4 0.93 0.26
7 -1 -4 1.09 0.27
7 -1 -4 1.02 0.2
7 -1 -4 0.97 0.22
7 -1 -4 1.02 0.16
-7 -1 4 0.97 0.27
7 -1 -4 1.02 0.17
7 -1 -4 1.08 0.17
-7 -1 4 1.02 0.16
-7 -1 4 0.99 0.25
-7 2 4 3.39 0.85
-7 2 4 3.27 0.54
7 2 -4 3.29 0.55
-7 2 4 3.35 0.92
7 2 -4 3.4 0.68
7 -2 -4 3.48 0.73
7 -2 -4 3.39 0.54
7 -2 -4 3.2 0.57
-7 -2 4 3.44 0.54
7 -2 -4 3.44 0.68
7 -2 -4 3.52 0.58
7 -2 -4 3.5 0.55
-7 3 4 0.62 0.15
-7 3 4 0.29 0.13
-7 3 4 0.53 0.08
7 -3 -4 0.45 0.1
7 -3 -4 0.28 0.11
7 -3 -4 0.47 0.08
7 -3 -4 0.44 0.08
7 -3 -4 0.41 0.08
7 -3 -4 0.51 0.08
-7 4 4 0.15 0.04
-7 4 4 0.16 0.09
-7 4 4 0.08 0.09
7 -4 -4 0.25 0.06
7 -4 -4 0.13 0.08
7 -4 -4 0.12 0.03
7 -4 -4 0.18 0.07
7 -4 -4 0.13 0.03
7 0 -5 -0.05 0.01
-7 0 5 0 0.02
7 0 -5 -0.02 0.03
7 0 -5 -0.02 0.03
7 0 -5 -0.01 0.01
-7 0 5 0.05 0.04
-7 0 5 -0.06 0.04
7 0 -5 -0.05 0.02
-7 1 5 0.01 0.02
7 1 -5 0.01 0.01
7 1 -5 0.01 0.01
-7 1 5 0 0.05
-7 1 5 0 0.05
7 1 -5 0.01 0.03
7 1 -5 -0.03 0.02
7 -1 -5 0 0.01
7 -1 -5 0.02 0.04
-7 -1 5 0.02 0.01
7 -1 -5 0.01 0.01
7 -1 -5 0.02 0.03
7 -1 -5 0.02 0.01
7 -1 -5 0.02 0.02
7 2 -5 0.1 0.02
-7 2 5 0.1 0.03
-7 2 5 0.18 0.07
-7 2 5 0.17 0.06
7 -2 -5 0.1 0.03
7 -2 -5 0.08 0.03
7 -2 -5 0.19 0.05
7 -2 -5 0.1 0.02
7 -2 -5 0.13 0.03
7 -2 -5 0.04 0.04
-7 3 5 0.04 0.03
-7 3 5 0 0.05
-7 3 5 0.01 0.07
7 3 -5 0 0.01
7 -3 -5 -0.01 0.06
7 -3 -5 0 0.02
7 -3 -5 -0.01 0.03
7 -3 -5 -0.01 0.02
7 -3 -5 -0.02 0.05
7 -3 -5 0 0.02
7 -3 -5 -0.01 0.04
7 0 -6 0.02 0.04
7 0 -6 -0.08 0.04
7 0 -6 0 0.01
7 0 -6 -0.01 0.02
7 0 -6 -0.04 0.01
7 0 -6 -0.01 0.01
7 1 -6 0.32 0.06
7 1 -6 0.33 0.06
7 1 -6 0.43 0.08
7 1 -6 0.29 0.06
7 1 -6 0.3 0.09
7 1 -6 0.34 0.06
7 -1 -6 0.32 0.06
7 -1 -6 0.26 0.1
7 -1 -6 0.39 0.13
7 -1 -6 0.29 0.06
7 -1 -6 0.35 0.08
7 -1 -6 0.32 0.06
7 -1 -6 0.37 0.06
7 2 -6 0 0.01
7 2 -6 0.01 0.01
7 -2 -6 0.01 0.02
7 -2 -6 0 0.02
7 -2 -6 0.07 0.05
7 -2 -6 -0.14 0.1
7 -2 -6 0.04 0.02
7 -2 -6 -0.08 0.06
7 -2 -6 0.01 0.03
7 3 -6 0.2 0.04
7 3 -6 0.22 0.04
7 -3 -6 0.23 0.04
7 -3 -6 0.17 0.04
7 -3 -6 0.28 0.04
7 -3 -6 0.21 0.09
7 -3 -6 0.22 0.08
7 -3 -6 0.23 0.13
7 -3 -6 0.15 0.05
7 0 -7 -0.02 0.01
7 0 -7 -0.01 0.02
7 0 -7 -0.02 0.02
7 0 -7 0.05 0.05
7 0 -7 -0.01 0.02
7 0 -7 0.02 0.04
7 1 -7 -0.01 0.01
7 1 -7 0.03 0.02
7 1 -7 0.01 0.01
7 -1 -7 0.02 0.03
7 -1 -7 -0.05 0.04
7 -1 -7 0.01 0.06
7 -1 -7 0.02 0.02
7 -1 -7 0.02 0.02
7 -1 -7 0.01 0.02
7 -1 -7 0.18 0.11
7 2 -7 0.01 0.01
7 2 -7 -0.01 0.02
7 -2 -7 -0.02 0.03
7 -2 -7 0.05 0.11
7 -2 -7 0.03 0.02
7 -2 -7 0.02 0.02
7 -2 -7 -0.03 0.05
7 -2 -7 0.04 0.07
7 -2 -7 0.03 0.02
7 0 -8 -0.05 0.11
7 0 -8 0.05 0.06
7 0 -8 0.01 0.03
7 0 -8 0 0.04
7 0 -8 -0.02 0.02
7 0 -8 0 0.02
7 0 -8 0.02 0.02
7 1 -8 0.19 0.03
7 1 -8 0.18 0.04
7 -1 -8 0.13 0.04
7 -1 -8 0.15 0.08
7 -1 -8 0.13 0.04
7 -1 -8 0.18 0.04
7 -1 -8 0.18 0.04
7 -1 -8 0.1 0.12
7 -1 -8 0.23 0.06
7 2 -8 0.13 0.04
7 2 -8 0.2 0.04
7 -2 -8 0.18 0.04
7 -2 -8 0.24 0.04
7 -2 -8 0.23 0.09
7 -2 -8 0.36 0.07
7 -2 -8 0.13 0.04
7 -2 -8 0.19 0.14
7 -2 -8 0.18 0.05
8 -3 -2 0.34 0.06
8 -3 -2 0.39 0.07
-8 4 2 -0.02 0.02
8 -4 -2 0.01 0.04
8 -4 -2 0 0.02
8 -4 -2 0.01 0.05
8 -4 -2 -0.02 0.02
-8 1 3 0.3 0.05
-8 1 3 0.34 0.1
8 -1 -3 0.29 0.05
8 -1 -3 0.22 0.07
-8 2 3 0.11 0.07
-8 2 3 0.1 0.03
8 -2 -3 0.08 0.04
8 -2 -3 0.17 0.03
8 -2 -3 0.13 0.03
8 -2 -3 0.15 0.03
-8 3 3 -0.02 0.02
-8 3 3 0.02 0.06
-8 3 3 0.02 0.05
8 -3 -3 -0.02 0.03
8 -3 -3 0.08 0.02
8 -3 -3 -0.03 0.04
8 -3 -3 0.04 0.02
8 -3 -3 0.05 0.02
8 -3 -3 0.04 0.05
-8 4 3 -0.04 0.06
-8 4 3 -0.01 0.03
-8 4 3 -0.05 0.08
8 -4 -3 0.06 0.02
8 -4 -3 0.04 0.02
8 -4 -3 0 0.05
8 -4 -3 0.05 0.06
-8 0 4 0.22 0.06
-8 0 4 0.16 0.03
8 0 -4 0.04 0.04
8 0 -4 0.14 0.02
-8 0 4 0.03 0.05
8 0 -4 0.1 0.02
8 1 -4 0.18 0.03
-8 1 4 0.06 0.06
8 1 -4 0.22 0.05
-8 1 4 0.13 0.04
-8 1 4 0.41 0.08
8 -1 -4 0.19 0.04
8 -1 -4 0.36 0.08
8 -1 -4 0.19 0.04
8 -1 -4 0.08 0.05
-8 -1 4 0.25 0.04
8 -1 -4 0.18 0.04
8 2 -4 0.15 0.03
-8 2 4 0.03 0.06
-8 2 4 0.34 0.09
-8 2 4 0.12 0.03
8 -2 -4 0.23 0.05
8 -2 -4 0.17 0.03
-8 -2 4 0.21 0.03
8 -2 -4 0.03 0.05
8 -2 -4 0.12 0.04
8 -2 -4 0.16 0.03
8 -2 -4 0.22 0.03
-8 3 4 0.01 0.02
-8 3 4 -0.04 0.06
-8 3 4 0.01 0.07
8 -3 -4 0 0.02
8 -3 -4 0.01 0.04
8 -3 -4 0.02 0.02
8 -3 -4 -0.02 0.04
8 -3 -4 0.01 0.02
8 -3 -4 -0.02 0.02
8 0 -5 -0.02 0.01
8 0 -5 0.05 0.03
-8 0 5 -0.01 0.02
8 0 -5 -0.04 0.04
8 0 -5 0.02 0.01
8 0 -5 0.01 0.02
8 1 -5 0.12 0.03
8 1 -5 0.07 0.02
8 1 -5 0.09 0.04
-8 1 5 0.1 0.03
8 1 -5 0.13 0.04
8 -1 -5 0.1 0.04
8 -1 -5 0.13 0.03
8 -1 -5 0.11 0.05
8 -1 -5 0.11 0.03
8 -1 -5 0.08 0.02
-8 -1 5 0.13 0.02
8 -1 -5 0.16 0.03
-8 2 5 0.04 0.06
8 2 -5 0.09 0.02
-8 2 5 0.12 0.07
-8 2 5 0.05 0.03
8 -2 -5 0.1 0.02
8 -2 -5 0.03 0.05
8 -2 -5 0.11 0.02
8 -2 -5 0.1 0.05
8 -2 -5 0.07 0.03
8 -2 -5 0.07 0.02
-8 3 5 -0.06 0.06
-8 3 5 -0.03 0.07
-8 3 5 -0.05 0.03
8 -3 -5 -0.02 0.02
8 -3 -5 0.05 0.03
8 -3 -5 -0.01 0.06
8 -3 -5 -0.01 0.02
8 -3 -5 0.04 0.02
8 -3 -5 0.05 0.05
8 0 -6 0.19 0.04
8 0 -6 0.19 0.06
-8 0 6 0.27 0.04
8 0 -6 0.22 0.04
8 0 -6 0.2 0.04
8 0 -6 0.25 0.06
8 0 -6 0.17 0.04
8 1 -6 0.02 0.01
8 1 -6 0.03 0.03
8 1 -6 0.02 0.04
-8 1 6 0.04 0.02
8 1 -6 0.03 0.02
8 1 -6 -0.01 0.01
8 -1 -6 -0.01 0.02
8 -1 -6 -0.05 0.02
8 -1 -6 -0.01 0.02
8 -1 -6 0.02 0.05
8 -1 -6 0.01 0.02
8 -1 -6 0.06 0.04
-8 2 6 0.07 0.03
8 2 -6 0.09 0.02
8 2 -6 0.05 0.02
8 -2 -6 0.08 0.02
8 -2 -6 0.08 0.06
8 -2 -6 0.08 0.03
8 -2 -6 0.12 0.05
8 -2 -6 0.07 0.02
8 -2 -6 0.1 0.02
8 -2 -6 0.01 0.07
8 3 -6 0.28 0.05
8 3 -6 0.26 0.05
8 -3 -6 0.3 0.05
8 -3 -6 0.34 0.06
8 -3 -6 0.24 0.05
8 -3 -6 0.23 0.09
8 -3 -6 0.3 0.05
8 -3 -6 0.15 0.1
8 0 -7 0.04 0.05
8 0 -7 0.08 0.03
8 0 -7 0.09 0.06
8 0 -7 0.11 0.02
8 0 -7 0.09 0.02
8 0 -7 0.07 0.02
8 1 -7 0.09 0.02
8 1 -7 0.08 0.03
8 -1 -7 0.08 0.05
8 -1 -7 0.07 0.06
8 -1 -7 0.08 0.02
8 -1 -7 0.05 0.02
8 -1 -7 0.07 0.02
8 -1 -7 0.05 0.03
8 2 -7 -0.01 0.01
8 2 -7 -0.01 0.02
8 -2 -7 -0.07 0.05
8 -2 -7 0.06 0.02
8 -2 -7 0.08 0.03
8 -2 -7 -0.03 0.02
8 -2 -7 -0.01 0.02
8 -2 -7 -0.06 0.06
8 0 -8 0.16 0.04
8 0 -8 0.18 0.08
8 0 -8 0.18 0.04
8 0 -8 0.17 0.04
8 0 -8 0.25 0.06
8 0 -8 0.18 0.04
8 1 -8 0.06 0.02
8 1 -8 -0.03 0.03
8 -1 -8 0.08 0.07
8 -1 -8 0.05 0.02
8 -1 -8 0.04 0.02
8 -1 -8 -0.03 0.05
8 -1 -8 0.07 0.04
8 -1 -8 0.05 0.02
9 -2 -3 1.11 0.19
-9 3 3 0.04 0.03
9 -3 -3 0.03 0.02
9 -3 -3 -0.02 0.03
9 -3 -3 0.03 0.02
9 0 -4 -0.04 0.01
9 0 -4 -0.09 0.03
-9 0 4 -0.02 0.02
-9 1 4 -0.03 0.04
-9 1 4 0 0.02
-9 1 4 -0.04 0.05
9 -1 -4 -0.05 0.03
9 -1 -4 0.03 0.01
9 -1 -4 -0.01 0.02
-9 2 4 249.28 62.4
-9 3 4 -0.03 0.05
-9 3 4 0.02 0.02
-9 3 4 0.03 0.07
9 -3 -4 0.01 0.02
9 -3 -4 -0.01 0.02
9 -3 -4 0.01 0.02
9 -3 -4 -0.04 0.05
9 -3 -4 -0.02 0.03
9 -3 -4 0.01 0.04
9 0 -5 0.02 0.03
9 0 -5 0 0.02
-9 0 5 0 0.02
9 0 -5 -0.02 0.04
9 0 -5 -0.01 0.02
9 1 -5 0.29 0.05
9 1 -5 0.37 0.07
9 1 -5 0.3 0.05
9 1 -5 0.24 0.07
-9 1 5 0.27 0.05
-9 -1 5 0.34 0.05
9 -1 -5 0.29 0.05
9 -1 -5 0.11 0.08
9 -1 -5 0.36 0.08
9 -1 -5 0.31 0.05
9 -1 -5 0.34 0.06
-9 2 5 0.81 0.14
9 -2 -5 0.81 0.14
9 -2 -5 0.8 0.14
9 -2 -5 0.87 0.17
9 -2 -5 0.83 0.14
9 -2 -5 0.85 0.14
-9 3 5 -0.01 0.03
9 -3 -5 0.04 0.02
9 -3 -5 -0.01 0.02
9 -3 -5 -0.02 0.05
9 -3 -5 0.09 0.05
9 -3 -5 -0.02 0.03
9 -3 -5 0.01 0.02
9 0 -6 -0.03 0.02
9 0 -6 -0.01 0.02
9 0 -6 0.01 0.01
-9 0 6 -0.04 0.02
9 0 -6 0.08 0.04
9 0 -6 0.06 0.05
9 0 -6 0.01 0.02
-9 1 6 0.05 0.03
9 1 -6 0.02 0.02
9 1 -6 0.01 0.01
-9 -1 6 0.02 0.02
9 -1 -6 0.01 0.04
9 -1 -6 0.05 0.02
9 -1 -6 0.01 0.03
9 -1 -6 -0.01 0.02
9 -1 -6 0.05 0.02
9 -1 -6 -0.01 0.05
-9 2 6 -0.01 0.03
9 2 -6 0 0.02
9 -2 -6 -0.02 0.02
9 -2 -6 0.02 0.06
9 -2 -6 0.01 0.03
9 -2 -6 -0.01 0.02
9 -2 -6 0.01 0.05
9 -2 -6 -0.01 0.02
9 0 -7 -0.04 0.06
9 0 -7 -0.02 0.05
9 0 -7 -0.02 0.02
9 0 -7 -0.01 0.02
9 0 -7 -0.01 0.02
9 0 -7 -0.02 0.03
9 1 -7 0.05 0.02
9 1 -7 0.01 0.02
9 -1 -7 0.01 0.07
9 -1 -7 0.01 0.02
9 -1 -7 0 0.02
9 -1 -7 0.02 0.02
9 -1 -7 0.03 0.03
9 -1 -7 0.06 0.05
9 2 -7 0.07 0.02
9 2 -7 0.02 0.02
9 -2 -7 0.14 0.06
9 -2 -7 -0.02 0.08
9 -2 -7 0.01 0.03
9 -2 -7 0.02 0.02
9 -2 -7 0.01 0.02
9 -2 -7 0.02 0.02
9 0 -8 -0.05 0.06
9 0 -8 -0.03 0.02
9 0 -8 -0.02 0.03
9 0 -8 -0.1 0.05
9 0 -8 0.01 0.02
9 0 -8 0 0.02
10 -2 -4 0.01 0.02
10 -2 -4 0.02 0.01
-10 3 4 0.04 0.02
10 -3 -4 0.02 0.02
10 -3 -4 0.07 0.02
10 -3 -4 -0.05 0.04
10 -3 -4 0 0.05
10 0 -5 -0.01 0.02
10 0 -5 -0.03 0.04
-10 0 5 0 0.02
10 1 -5 0.18 0.07
-10 1 5 0.25 0.05
10 1 -5 0.35 0.05
-10 -1 5 0.27 0.05
10 -1 -5 0.33 0.07
10 -1 -5 0.29 0.05
10 -1 -5 0.33 0.05
10 -1 -5 0.28 0.05
10 -1 -5 0.05 0.08
-10 2 5 0.04 0.02
10 -2 -5 0.02 0.02
10 -2 -5 -0.02 0.02
10 -2 -5 0.05 0.02
10 -2 -5 -0.02 0.04
10 -2 -5 0.05 0.03
10 -2 -5 -0.01 0.05
10 0 -6 0.14 0.06
10 0 -6 0.16 0.05
-10 0 6 0.18 0.03
10 0 -6 0.1 0.03
10 0 -6 0.09 0.03
10 1 -6 0.08 0.02
-10 1 6 0.05 0.03
10 -1 -6 0.1 0.05
10 -1 -6 0.08 0.02
10 -1 -6 0.08 0.02
10 -1 -6 0.09 0.03
10 -1 -6 0.06 0.02
10 -1 -6 0.08 0.06
-10 2 6 -0.01 0.03
10 2 -6 0.05 0.02
10 -2 -6 0.02 0.02
10 -2 -6 0.02 0.02
10 -2 -6 -0.04 0.03
10 -2 -6 0.04 0.02
10 -2 -6 0.08 0.06
10 -2 -6 -0.04 0.05
10 0 -7 0.12 0.04
10 0 -7 0.2 0.04
10 0 -7 0.18 0.06
10 0 -7 0.13 0.06
10 0 -7 0.21 0.04
10 0 -7 0.14 0.04
10 0 -7 0.22 0.08
-10 0 7 0.23 0.04
-10 1 7 0.05 0.03
10 1 -7 0.03 0.02
10 1 -7 0.04 0.03
10 -1 -7 0.05 0.02
10 -1 -7 0.05 0.06
10 -1 -7 0.05 0.05
10 -1 -7 0.06 0.02
10 -1 -7 0.02 0.07
10 -1 -7 0.01 0.02
10 -1 -7 0.08 0.03
11 -1 -5 0 0.02
-11 2 5 0 0.02
11 -2 -5 0 0.02
11 -2 -5 -0.03 0.02
11 -2 -5 -0.04 0.05
11 0 -6 0.02 0.02
11 0 -6 -0.03 0.04
11 0 -6 0.06 0.05
-11 0 6 -0.05 0.02
11 0 -6 0.02 0.02
-11 1 6 0.01 0.03
11 -1 -6 -0.04 0.02
11 -1 -6 0.02 0.02
11 -1 -6 -0.11 0.06
11 -1 -6 0 0.05
11 -1 -6 0.04 0.03
11 -1 -6 0.02 0.02
