#------------------------------------------------------------------------------
#$Date: 2016-03-24 03:03:52 +0200 (Thu, 24 Mar 2016) $
#$Revision: 179611 $
#$URL: svn://www.crystallography.net/cod/cif/4/50/75/4507555.cif $
#------------------------------------------------------------------------------
#
# This file is available in the Crystallography Open Database (COD),
# http://www.crystallography.net/
#
# All data on this site have been placed in the public domain by the
# contributors.
#
data_4507555
loop_
_publ_author_name
'Ridout, Joe'
'Probert, Michael R.'
_publ_section_title
;
 High-Pressure and Low-Temperature Polymorphism in
 C--H&#x00B7;&#x00B7;&#x00B7;F--C Hydrogen Bonded Monofluorotoluenes
;
_journal_issue                   5
_journal_name_full               'Crystal Growth &amp; Design'
_journal_page_first              1943
_journal_paper_doi               10.1021/cg301773h
_journal_volume                  13
_journal_year                    2013
_chemical_formula_moiety         'C7 H7 F'
_chemical_formula_sum            'C7 H7 F'
_chemical_formula_weight         110.13
_chemical_name_systematic        2-fluorotoluene
_space_group_crystal_system      monoclinic
_space_group_IT_number           14
_space_group_name_Hall           '-P 2yn'
_space_group_name_H-M_alt        'P 1 21/n 1'
_symmetry_space_group_name_Hall  '-P 2yn'
_symmetry_space_group_name_H-M   'P 1 21/n 1'
_atom_sites_solution_hydrogens   geom
_atom_sites_solution_primary     direct
_atom_sites_solution_secondary   difmap
_audit_creation_date             2012-11-16
_audit_creation_method
;
  Olex2 1.2-alpha
  (compiled 2012.02.07 svn.r2199, GUI svn.r4069)
;
_cell_angle_alpha                90.00
_cell_angle_beta                 92.01(17)
_cell_angle_gamma                90.00
_cell_formula_units_Z            4
_cell_length_a                   8.74(3)
_cell_length_b                   5.781(14)
_cell_length_c                   10.63(3)
_cell_measurement_reflns_used    75
_cell_measurement_temperature    296.15
_cell_measurement_theta_max      18.64
_cell_measurement_theta_min      3.33
_cell_volume                     537(3)
_computing_cell_refinement       'SAINT v7.68A (Bruker, 2009)'
_computing_data_collection       'APEX2 (Bruker, 2010)'
_computing_data_reduction        'SAINT v8.27A (Bruker, 2012)'
_computing_molecular_graphics
;
O. V. Dolomanov, L. J. Bourhis, R. J. Gildea, J. A. K. Howard and H. Puschmann,
OLEX2: a complete structure solution, refinement and analysis program.
J. Appl. Cryst. (2009). 42, 339-341.
;
_computing_publication_material
;
O. V. Dolomanov, L. J. Bourhis, R. J. Gildea, J. A. K. Howard and H. Puschmann,
OLEX2: a complete structure solution, refinement and analysis program.
J. Appl. Cryst. (2009). 42, 339-341.
;
_computing_structure_refinement
;
XL, G.M. Sheldrick, Acta Cryst.
(2008). A64, 112-122
;
_computing_structure_solution
;
XS, G.M. Sheldrick, Acta Cryst.
(2008). A64, 112-122
;
_diffrn_ambient_temperature      296.15
_diffrn_detector                 'CCD area detector'
_diffrn_detector_area_resol_mean 7.9
_diffrn_detector_type            'Bruker APEXII CCD area detector'
_diffrn_measured_fraction_theta_full 0.516
_diffrn_measured_fraction_theta_max 0.516
_diffrn_measurement_device       'four-circle diffractometer'
_diffrn_measurement_device_type  'Bruker APEXII CCD area detector'
_diffrn_measurement_method       '\f scans'
_diffrn_radiation_collimation    'Multilayer mirrors'
_diffrn_radiation_monochromator  'Bruker Helios multilayer mirrors'
_diffrn_radiation_probe          x-ray
_diffrn_radiation_type           'Ag K\a'
_diffrn_radiation_wavelength     0.56087
_diffrn_radiation_xray_symbol    K-L~3~
_diffrn_reflns_av_R_equivalents  0.0761
_diffrn_reflns_av_unetI/netI     0.0450
_diffrn_reflns_limit_h_max       8
_diffrn_reflns_limit_h_min       -7
_diffrn_reflns_limit_k_max       5
_diffrn_reflns_limit_k_min       -5
_diffrn_reflns_limit_l_max       9
_diffrn_reflns_limit_l_min       -9
_diffrn_reflns_number            3975
_diffrn_reflns_theta_full        15.77
_diffrn_reflns_theta_max         15.77
_diffrn_reflns_theta_min         2.34
_diffrn_source                   'Microfocus sealed tube'
_diffrn_source_current           0.6
_diffrn_source_power             0.03
_diffrn_source_target            Ag
_diffrn_source_type              'Incoatec IuS'
_diffrn_source_voltage           50.0
_diffrn_standards_number         0
_exptl_absorpt_coefficient_mu    0.063
_exptl_absorpt_correction_T_max  0.7440
_exptl_absorpt_correction_T_min  0.5831
_exptl_absorpt_correction_type   multi-scan
_exptl_absorpt_process_details
;
SADABS-2008/1 (Bruker,2008) was used for absorption correction.
R(int) was 0.1447 before and 0.0666 after correction.
The Ratio of minimum to maximum transmission is 0.7837.
The \l/2 correction factor is 0.0015.
;
_exptl_crystal_colour            'clear light colourless'
_exptl_crystal_colour_lustre     clear
_exptl_crystal_colour_modifier   light
_exptl_crystal_colour_primary    colourless
_exptl_crystal_density_diffrn    1.362
_exptl_crystal_density_meas      ?
_exptl_crystal_density_method    'not measured'
_exptl_crystal_description       Cylinder
_exptl_crystal_F_000             232
_exptl_crystal_recrystallization_method
'Crystallisation using high-pressure inside a diamond anvil cell.'
_exptl_crystal_size_max          0.25
_exptl_crystal_size_mid          0.25
_exptl_crystal_size_min          0.1
_exptl_crystal_size_rad          0.25
_refine_diff_density_max         0.256
_refine_diff_density_min         -0.211
_refine_diff_density_rms         0.055
_refine_ls_extinction_method     none
_refine_ls_goodness_of_fit_ref   1.056
_refine_ls_hydrogen_treatment    constr
_refine_ls_matrix_type           full
_refine_ls_number_parameters     62
_refine_ls_number_reflns         267
_refine_ls_number_restraints     18
_refine_ls_restrained_S_all      1.024
_refine_ls_R_factor_all          0.1214
_refine_ls_R_factor_gt           0.0747
_refine_ls_shift/su_max          0.001
_refine_ls_shift/su_mean         0.000
_refine_ls_structure_factor_coef Fsqd
_refine_ls_weighting_details
'calc w=1/[\s^2^(Fo^2^)+(0.0820P)^2^+3.5099P] where P=(Fo^2^+2Fc^2^)/3'
_refine_ls_weighting_scheme      calc
_refine_ls_wR_factor_gt          0.1826
_refine_ls_wR_factor_ref         0.2191
_reflns_number_gt                171
_reflns_number_total             267
_reflns_threshold_expression     >2sigma(I)
_cod_data_source_file            cg301773h_si_002.cif
_cod_data_source_block           final
_cod_depositor_comments
;
The following automatic conversions were performed:

'_exptl_crystal_density_meas' value 'not_measured' was changed to '?'
- the value is perceived as not measured.

Automatic conversion script
Id: cif_fix_values 3008 2015-01-20 13:52:24Z robertas 
;
_cod_database_code               4507555
#BEGIN Tags that were not found in dictionaries:
_olex2_refinement_description
;
1. Others
 Fixed Uiso: H5(0.093) H7(0.093) H6(0.093) H4(0.052) H3(0.058) H2(0.067)
 H1(0.068)
 Fixed X: H5(0.6613) H7(0.5415) H6(0.5766) H4(0.331) H3(0.1431) H2(0.1461)
 H1(0.337)
 Fixed Y: H5(0.0144) H7(0.0113) H6(0.2427) H4(0.3289) H3(0.2414) H2(-0.1128)
 H1(-0.3797)
 Fixed Z: H5(0.7584) H7(0.8646) H6(0.7943) H4(0.7041) H3(0.552) H2(0.4495)
 H1(0.4991)
;
_shelx_res_file
;
TITL Final in P21/n #14
CELL 0.56086 8.7446 5.7808 10.6268 90 92.009 90
ZERR 4 0.0326 0.0139 0.033 0 0.166 0
LATT 1
SYMM 0.5-X,0.5+Y,0.5-Z
 
SFAC C H F
UNIT 28 28 4
DELU
 
L.S. 4 0 0 511
PLAN  20
SIZE 0.1 0.25 0.25
TEMP 23
REM reset to P21/n #14
BOND
fmap 2
acta
OMIT 5 4 0
OMIT -3 2 1
OMIT 0 4 0
OMIT -4 0 8
OMIT 0 1 3
REM <HKL>K:/FluorotoluenePaper/2FTHP2work/Final.hkl</HKL>
 
WGHT    0.082000    3.509900
FVAR       0.35899
C7    1    0.566527    0.078122    0.785248    11.00000    0.05733    0.05983 =
         0.06841    0.01177    0.00857    0.01129
AFIX 137
H5    2    0.661349    0.014373    0.758360    11.00000   -1.50000
H7    2    0.541460    0.011329    0.864623    11.00000   -1.50000
H6    2    0.576577    0.242703    0.794315    11.00000   -1.50000
AFIX  66
C6    1    0.332237    0.186848    0.663026    11.00000    0.05079    0.02837 =
         0.05251    0.00862    0.02011    0.00225
AFIX  43
H4    2    0.331048    0.328855    0.704106    11.00000   -1.20000
AFIX  65
C5    1    0.219640    0.134472    0.571898    11.00000    0.04808    0.03418 =
         0.06350   -0.00487    0.02050   -0.00476
AFIX  43
H3    2    0.143116    0.241436    0.552007    11.00000   -1.20000
AFIX  65
C4    1    0.221417   -0.077774    0.510499    11.00000    0.06502    0.03958 =
         0.06488    0.00101    0.02892   -0.00363
AFIX  43
H2    2    0.146082   -0.112816    0.449528    11.00000   -1.20000
AFIX  65
C3    1    0.335792   -0.237646    0.540227    11.00000    0.07065    0.02845 =
         0.07328   -0.00870    0.03380   -0.00896
AFIX  43
H1    2    0.336980   -0.379652    0.499147    11.00000   -1.20000
AFIX  65
C2    1    0.448389   -0.185272    0.631355    11.00000    0.05014    0.03051 =
         0.08004    0.00086    0.03824    0.00018
C1    1    0.446614    0.026973    0.692755    11.00000    0.04638    0.03967 =
         0.05622    0.00710    0.02038   -0.00891
AFIX   0
F1    3    0.554384   -0.334772    0.662118    11.00000    0.07784    0.05663 =
         0.13660    0.00432    0.03008    0.02434
HKLF 4
 
REM  Final in P21/n #14
REM R1 =  0.0747 for    171 Fo > 4sig(Fo)  and  0.1214 for all    267 data
REM     62 parameters refined using     18 restraints
 
END  
     
WGHT      0.0818      3.4991 
REM Highest difference peak  0.256,  deepest hole -0.211,  1-sigma level  0.055
Q1    1   0.3254  0.1129  0.6513  11.00000  0.05    0.26
Q2    1   0.3906 -0.1320  0.6290  11.00000  0.05    0.18
Q3    1   0.4683  0.4897  0.7591  11.00000  0.05    0.16
Q4    1   0.2756 -0.0013  0.4781  11.00000  0.05    0.14
Q5    1   0.5571  0.2602  0.6416  11.00000  0.05    0.14
Q6    1   0.5069 -0.2328  0.7931  11.00000  0.05    0.14
Q7    1   0.4989  0.0474  0.6796  11.00000  0.05    0.14
Q8    1   0.6890  0.1468  0.7380  11.00000  0.05    0.13
Q9    1   0.0918  0.2190  0.6045  11.00000  0.05    0.13
Q10   1   0.3587 -0.4993  0.4002  11.00000  0.05    0.12
Q11   1   0.2094  0.2557  0.4434  11.00000  0.05    0.12
Q12   1   0.0444  0.0660  0.5945  11.00000  0.05    0.12
Q13   1   0.2160  0.0050  0.5862  11.00000  0.05    0.11
Q14   1   0.8112 -0.0079  0.7176  11.00000  0.05    0.11
Q15   1   0.6639  0.0979  0.8626  11.00000  0.05    0.10
Q16   1   0.5472  0.1680  0.8587  11.00000  0.05    0.10
Q17   1   0.2757  0.5453  0.7168  11.00000  0.05    0.09
Q18   1   0.4137 -0.5863  0.5609  11.00000  0.05    0.09
Q19   1   0.4441 -0.5639  0.5772  11.00000  0.05    0.09
Q20   1   0.5199  0.3146  0.8818  11.00000  0.05    0.09

REM The information below was added by Olex2.
REM
REM R1 = 0.0747 for 171 Fo > 4sig(Fo) and n/a for all 4312 data
REM n/a parameters refined using n/a restraints
REM Highest difference peak 0.26, deepest hole -0.21
REM Mean Shift 0, Max Shift 0.

REM +++ Tabular Listing of Refinement Information +++
REM R1_all = n/a
REM R1_gt = 0.0747
REM wR_ref = 0.2191
REM GOOF = 1.056
REM Shift_max = 0
REM Shift_mean = 0
REM Reflections_all = 4312
REM Reflections_gt = 171
REM Parameters = n/a
REM Hole = 0.26
REM Peak = -0.21
REM Flack = n/a

;
#END Tags that were not found in dictionaries
loop_
_space_group_symop_id
_space_group_symop_operation_xyz
1 'x, y, z'
2 '-x+1/2, y+1/2, -z+1/2'
3 '-x, -y, -z'
4 'x-1/2, -y-1/2, z-1/2'
loop_
_atom_site_label
_atom_site_type_symbol
_atom_site_fract_x
_atom_site_fract_y
_atom_site_fract_z
_atom_site_U_iso_or_equiv
_atom_site_adp_type
_atom_site_occupancy
_atom_site_symmetry_multiplicity
_atom_site_calc_flag
_atom_site_refinement_flags
C7 C 0.567(2) 0.078(2) 0.785(2) 0.062(7) Uani 1 1 d U
H5 H 0.6613 0.0144 0.7584 0.093 Uiso 1 1 calc R
H7 H 0.5415 0.0113 0.8646 0.093 Uiso 1 1 calc R
H6 H 0.5766 0.2427 0.7943 0.093 Uiso 1 1 calc R
C6 C 0.3322(13) 0.1868(9) 0.6630(11) 0.043(7) Uani 1 1 d GU
H4 H 0.3310 0.3289 0.7041 0.052 Uiso 1 1 calc R
C5 C 0.2196(11) 0.1345(11) 0.5719(11) 0.048(7) Uani 1 1 d GU
H3 H 0.1431 0.2414 0.5520 0.058 Uiso 1 1 calc R
C4 C 0.2214(12) -0.0778(15) 0.5105(9) 0.056(6) Uani 1 1 d GU
H2 H 0.1461 -0.1128 0.4495 0.067 Uiso 1 1 calc R
C3 C 0.3358(13) -0.2376(8) 0.5402(10) 0.057(7) Uani 1 1 d GU
H1 H 0.3370 -0.3797 0.4991 0.068 Uiso 1 1 calc R
C2 C 0.4484(11) -0.1853(13) 0.6314(11) 0.053(7) Uani 1 1 d GU
C1 C 0.4466(11) 0.0270(17) 0.6928(11) 0.047(7) Uani 1 1 d GU
F1 F 0.5544(12) -0.3348(11) 0.6621(12) 0.090(6) Uani 1 1 d U
loop_
_atom_site_aniso_label
_atom_site_aniso_U_11
_atom_site_aniso_U_22
_atom_site_aniso_U_33
_atom_site_aniso_U_23
_atom_site_aniso_U_13
_atom_site_aniso_U_12
C7 0.057(15) 0.060(9) 0.068(18) 0.012(9) 0.009(11) 0.011(9)
C6 0.051(13) 0.028(6) 0.053(15) 0.009(8) 0.020(11) 0.002(7)
C5 0.048(13) 0.034(6) 0.064(15) -0.005(8) 0.020(11) -0.005(7)
C4 0.065(12) 0.040(6) 0.065(14) 0.001(7) 0.029(11) -0.004(6)
C3 0.071(14) 0.028(6) 0.073(16) -0.009(8) 0.034(11) -0.009(7)
C2 0.050(13) 0.031(6) 0.080(15) 0.001(8) 0.038(11) 0.000(7)
C1 0.046(14) 0.040(6) 0.056(18) 0.007(7) 0.020(11) -0.009(7)
F1 0.078(10) 0.057(5) 0.137(14) 0.004(6) 0.030(11) 0.024(5)
loop_
_atom_type_symbol
_atom_type_description
_atom_type_scat_dispersion_real
_atom_type_scat_dispersion_imag
_atom_type_scat_source
C C 0.0015 0.0009 'International Tables Vol C Tables 4.2.6.8 and 6.1.1.4'
H H 0.0000 0.0000 'International Tables Vol C Tables 4.2.6.8 and 6.1.1.4'
F F 0.0096 0.0061 'International Tables Vol C Tables 4.2.6.8 and 6.1.1.4'
loop_
_geom_angle_atom_site_label_1
_geom_angle_atom_site_label_2
_geom_angle_atom_site_label_3
_geom_angle
C5 C6 C1 120.0
C6 C5 C4 120.0
C3 C4 C5 120.0
C2 C3 C4 120.0
C3 C2 C1 120.0
F1 C2 C3 120.8(10)
F1 C2 C1 119.2(10)
C6 C1 C7 121.2(11)
C2 C1 C7 118.7(10)
C2 C1 C6 120.0
loop_
_geom_bond_atom_site_label_1
_geom_bond_atom_site_label_2
_geom_bond_distance
C7 C1 1.44(3)
C6 C5 1.3900
C6 C1 1.3900
C5 C4 1.3900
C4 C3 1.3900
C3 C2 1.3900
C2 C1 1.3900
C2 F1 1.301(13)
loop_
_refln_index_h
_refln_index_k
_refln_index_l
_refln_F_squared_meas
_refln_F_squared_sigma
0 -1 0 0.51 0.49
0 -1 0 -0.04 0.37
0 -1 0 0.22 0.37
0 -1 0 0.24 0.36
0 -1 0 0.56 0.47
0 -1 0 -0.02 0.49
0 -1 0 0.17 0.39
0 -1 0 0 0.42
0 1 0 0.11 0.33
0 1 0 -0.3 0.36
0 1 0 0.15 0.49
0 1 0 0.09 0.35
0 1 0 0.16 0.38
0 1 0 -0.09 0.46
0 1 0 0.21 0.38
0 1 0 -0.4 0.4
1 -1 0 90.79 3.28
1 -1 0 97.97 2.87
1 -1 0 101.81 4.4
1 -1 0 96.83 2.92
-1 -1 0 94.46 2.63
1 -1 0 90.15 3.87
1 -1 0 93.85 3.13
1 -1 0 96.2 3.07
1 1 0 96.2 2.62
-1 1 0 99.05 3.1
-1 1 0 92.66 2.85
-1 1 0 94.24 3.1
1 1 0 90.6 2.74
-1 1 0 93.63 3.3
1 1 0 98.31 3.86
-1 1 0 92.74 3.89
-1 1 0 98.66 4.39
-1 1 0 94.04 3.35
1 1 0 96.25 2.78
2 -1 0 4.24 0.86
2 1 0 5.19 1.34
2 1 0 4.18 0.52
2 1 0 2.08 0.47
3 1 0 21.61 1.18
0 -2 0 46.3 2.44
0 -2 0 46.84 2.05
0 -2 0 47.16 2.45
0 -2 0 45.65 2.41
0 -2 0 45.05 2.34
0 -2 0 44.59 2.16
0 -2 0 43.3 2.02
0 2 0 46.99 2.11
0 2 0 47.76 2.62
0 2 0 49.22 2.07
0 2 0 47.68 2.24
0 2 0 44.87 2.24
0 2 0 43.18 2.01
0 2 0 45.29 2.27
1 -2 0 6.27 1.63
1 -2 0 12.28 1.46
-1 -2 0 6.92 1.18
1 -2 0 7.66 1.19
1 -2 0 8.45 1.54
1 -2 0 7.73 1.33
1 -2 0 9.1 1.33
1 -2 0 10.61 1.78
-1 -2 0 7.28 1.21
-1 -2 0 7.32 1.33
1 -2 0 5.54 1.27
1 -2 0 7.52 1.31
-1 2 0 7.89 1.37
1 2 0 9.52 1.42
-1 2 0 6.1 1.27
-1 2 0 6.6 1.31
1 2 0 6.68 1.08
-1 2 0 6.15 0.74
1 2 0 6.97 0.55
-1 2 0 7.77 1.32
-1 2 0 7.03 1.66
-1 2 0 8.47 1.51
-1 2 0 7.28 1.34
-1 2 0 8.35 1.43
1 2 0 7.25 1.11
2 -2 0 3.15 1.43
2 -2 0 5.6 1.89
2 -2 0 2.09 1.21
2 -2 0 1.58 1.95
2 -2 0 2.75 1.29
2 -2 0 0.74 1.35
2 -2 0 2.84 1.69
-2 2 0 2.36 1.46
-2 2 0 3.01 1.95
2 2 0 4.59 1.94
2 2 0 2.63 0.63
-2 2 0 1.86 1.54
2 2 0 2.9 0.67
-2 2 0 2.61 1.32
-2 2 0 2.73 1.63
-2 2 0 1.06 1.26
2 2 0 1.49 1.17
-2 2 0 4.94 1.96
-3 2 0 86.84 5.76
3 2 0 90.64 4.5
-3 2 0 98.96 4.15
-3 2 0 93.14 4.59
3 2 0 90.2 3.24
3 2 0 91.67 3.06
0 -3 0 3.28 1.82
0 -3 0 -1.16 2.04
0 -3 0 -1.38 1.7
0 -3 0 1.42 2.13
0 -3 0 0.95 1.77
0 -3 0 2.06 2.22
0 -3 0 -0.74 1.68
0 3 0 -1.94 1.98
0 3 0 -1.53 1.78
0 3 0 -0.24 1.76
0 3 0 -0.24 1.47
0 3 0 2.24 1.76
0 3 0 -0.03 1.74
0 3 0 -0.64 1.67
1 -3 0 16.34 1.47
-1 -3 0 17.34 2.06
1 -3 0 18.81 2.76
1 -3 0 19.25 2.34
1 -3 0 14.02 2.19
1 -3 0 18.6 2.27
1 -3 0 20.38 2.86
1 -3 0 17.29 2.09
-1 -3 0 16.71 1.27
-1 -3 0 16.54 2.12
-1 -3 0 17.85 0.77
1 -3 0 25.72 3.11
1 -3 0 20.41 2.37
-1 -3 0 18.24 2.39
-1 -3 0 13.45 1.96
-1 -3 0 18.16 2.6
-1 3 0 18.48 2.42
-1 3 0 20.14 2.33
-1 3 0 13.12 2.19
1 3 0 17.04 1.65
1 3 0 17.56 1.79
-1 3 0 14.72 2.52
1 3 0 17.14 1.97
-1 3 0 23.99 2.95
1 3 0 18.52 2.09
1 3 0 17.46 2.49
-1 3 0 24.1 2.43
-1 3 0 15.02 2.37
-1 3 0 17.74 2.36
-1 3 0 16.39 0.94
2 -3 0 4.8 2.19
-2 -3 0 3.13 1.87
2 -3 0 3.96 2.3
2 -3 0 5.72 2.33
2 -3 0 10.81 4.32
2 -3 0 5.48 2.77
2 -3 0 9.04 2.85
2 -3 0 4.62 2.05
2 -3 0 3.58 1.88
2 -3 0 6.03 2.73
-2 3 0 2.07 2.4
-2 3 0 3.34 2.92
-2 3 0 6.79 2.55
-2 3 0 8.56 2.63
-2 3 0 7.53 1.76
-2 3 0 3.85 2.34
2 3 0 5.9 0.91
-2 3 0 3.42 2.21
2 3 0 3.92 1.95
-2 3 0 6.61 2.31
2 3 0 6.02 1.87
2 3 0 7.23 2.75
2 3 0 5.75 0.85
3 -3 0 15.37 3.64
3 -3 0 15.98 2.6
3 -3 0 18.69 2.89
3 -3 0 19.27 2.83
-3 3 0 18.72 3.09
3 3 0 30.67 4.43
-3 3 0 17.88 3.14
4 -3 0 -3.9 2.19
4 3 0 1.47 4.31
0 -4 0 9.59 2.68
0 -4 0 8.99 3.26
0 -4 0 13.56 3.26
0 -4 0 10.01 3.41
0 4 0 10.35 2.7
0 4 0 12.7 2.75
0 4 0 10.6 3.22
0 4 0 10.72 2.66
-1 -4 0 2.13 2.53
1 -4 0 5.31 2.84
1 -4 0 1.74 0.7
-1 -4 0 3.85 3.23
-1 -4 0 2.83 3.47
-1 -4 0 4.15 2.87
1 -4 0 1.39 3.57
-1 -4 0 3.82 2.63
1 -4 0 3.41 2.46
1 -4 0 5.34 2.77
1 -4 0 -3.77 3.67
-1 -4 0 5.4 2.51
1 4 0 1.85 2.4
1 4 0 -1.43 2.18
-1 4 0 1.77 2.74
1 4 0 -0.28 2.46
1 4 0 3.02 2.53
-1 4 0 0.25 3.04
1 4 0 2.94 3.1
1 4 0 3.76 2.46
-1 4 0 4.13 2.86
2 -4 0 0.16 5.1
2 -4 0 2.48 2.43
2 -4 0 1.51 3.32
2 -4 0 6.48 3.04
-2 -4 0 -0.2 2.19
-2 -4 0 -0.82 2.85
-2 -4 0 0.68 0.85
-2 -4 0 1.54 2.72
-2 -4 0 0.56 2.43
2 -4 0 -0.32 0.95
2 -4 0 0.04 3.35
2 -4 0 1.19 2.48
-2 -4 0 0.96 0.78
2 -4 0 -0.95 2.97
-2 4 0 0.89 1
2 4 0 -1.13 2.49
2 4 0 3.2 2.67
2 4 0 -0.25 2.56
-2 4 0 2.66 3.07
-2 4 0 3.35 3.26
3 -4 0 24.49 1.85
3 -4 0 20.45 4.47
3 -4 0 26.76 3.83
-3 -4 0 15.14 3.02
3 -4 0 29.5 4.16
3 -4 0 28.43 3.18
3 -4 0 34.93 3.99
3 -4 0 23.58 3.32
-3 -4 0 32.37 2.27
3 4 0 27.4 3.16
3 4 0 31.14 3.26
-3 4 0 32.52 4.17
3 4 0 14.49 7.87
-3 4 0 28.08 4.17
3 4 0 27.27 3.55
3 4 0 25.15 3.27
4 -4 0 0.04 3.52
4 -4 0 10.1 3.65
4 -4 0 -6.05 3.35
4 -4 0 10.83 5.28
-4 4 0 15.38 4.45
4 4 0 11.07 5.51
5 -4 0 -1.47 0.71
0 -5 0 -0.31 3.7
0 -5 0 2.6 4.4
0 -5 0 -1.5 4.34
0 5 0 1.65 4.05
-1 -5 0 1.45 3.43
1 -5 0 -3.09 5.14
-1 -5 0 6.1 4.48
1 -5 0 4.9 3.11
1 -5 0 6.05 4.45
-1 -5 0 -0.23 4.21
-1 -5 0 0.21 3.96
-1 5 0 7.75 4.22
1 5 0 5.38 3.46
1 5 0 4.63 4.2
-2 -5 0 4.34 3.95
2 -5 0 3.29 1.18
-2 -5 0 7.21 2.54
2 -5 0 3.79 4.25
-2 -5 0 -6.98 4.99
2 -5 0 3.49 6.82
-2 -5 0 5.07 4.34
-2 -5 0 0.59 3.31
2 -5 0 4.96 1.22
2 -5 0 5.89 3.18
2 5 0 0.81 3.49
-2 5 0 6.97 4.25
2 5 0 2.26 4.27
-3 -5 0 3.64 3.41
-3 -5 0 7.86 4.63
3 -5 0 0.58 5.11
-3 -5 0 -1.96 3.69
3 -5 0 1.99 3.49
3 -5 0 6.64 3.54
-3 5 0 5.65 4.56
3 5 0 4.85 3.56
3 5 0 -1.77 4.53
-5 0 1 1.39 1.95
5 0 -1 -0.34 1.02
5 0 -1 2.88 2.64
5 0 -1 0 1.12
4 0 -1 -0.58 1.98
-4 0 1 -0.45 2.34
-4 0 1 -0.55 1.79
4 0 -1 -0.13 0.84
4 0 -1 -0.7 3
4 0 -1 0.33 0.86
3 0 -1 79.19 2.74
3 0 -1 80.54 3.99
3 0 -1 78.86 4.14
-3 0 1 78.74 4.09
3 0 -1 79.4 2.91
-3 0 1 86.05 2.74
-3 0 1 82.48 4.01
2 0 -1 0.08 0.36
-2 0 1 0.05 0.37
-2 0 1 -0.2 0.78
-2 0 1 0.28 0.38
2 0 -1 -0.64 0.49
-2 0 1 -0.26 1.2
2 0 -1 0.68 0.87
2 0 -1 -0.65 1.33
2 0 -1 0.04 0.38
-1 0 1 17.17 0.68
1 0 -1 18.24 1.18
-1 0 1 16.4 0.71
1 0 -1 14.34 1.02
-1 0 1 15.26 1.04
-1 0 1 17.73 1.34
-1 0 1 15.64 0.74
1 0 -1 15.36 0.7
-1 0 1 16.29 1.1
1 0 -1 15.34 0.7
1 0 -1 15.4 0.73
-1 0 1 17.86 0.74
1 0 -1 16.21 0.81
1 0 -1 17.87 1.12
-1 0 1 17.09 0.65
1 0 -1 16.46 0.67
-1 0 1 16.11 0.73
1 0 -1 16.91 0.77
-1 0 1 16.9 0.76
-1 0 1 16.49 1.15
-1 0 1 17.31 0.78
1 0 -1 17.14 0.79
-1 0 1 15.79 0.8
1 0 -1 15.73 0.73
1 0 -1 17.2 1.29
-1 0 1 16.28 1
5 -1 -1 6.45 1.48
5 -1 -1 9.55 2.99
5 -1 -1 7.94 1.42
-4 -1 1 0.58 2.25
4 -1 -1 3.14 2.7
4 -1 -1 -2.19 3.31
4 -1 -1 1.68 0.95
-4 -1 1 0.62 0.9
-4 -1 1 -1.58 2.07
4 -1 -1 0.07 0.97
4 1 -1 -1.39 1
-4 1 1 1.03 2.28
4 1 -1 2.58 2.13
4 1 -1 0.01 1.08
4 1 -1 -0.29 3.41
3 -1 -1 25.75 1.89
3 -1 -1 26.67 1.92
3 -1 -1 27.28 1.58
3 -1 -1 29.49 2.26
-3 -1 1 27.44 2.15
3 -1 -1 26.9 2.4
-3 -1 1 30.04 1.61
-3 -1 1 25.99 2.22
3 -1 -1 26.9 1.47
-3 -1 1 29.56 1.45
3 1 -1 31.83 2.22
3 1 -1 26.47 1.45
-3 1 1 28.49 2.28
-3 1 1 27.83 1.97
3 1 -1 28.5 2.33
-3 1 1 26.26 2.22
3 1 -1 26.26 1.58
2 -1 -1 141.68 5.03
2 -1 -1 152.99 6.2
-2 -1 1 146.9 4.37
2 -1 -1 147.27 4.14
2 -1 -1 146.25 4.37
2 -1 -1 148.08 4.77
2 -1 -1 143.2 4.41
-2 -1 1 145.53 3.79
-2 -1 1 148.37 4.13
2 -1 -1 143.3 6.68
-2 -1 1 142.27 6.19
2 -1 -1 146.19 4.63
-2 -1 1 146.67 6.08
2 -1 -1 145.54 4.33
2 -1 -1 141.74 6.12
2 1 -1 145.98 4.38
-2 1 1 143.88 5.12
-2 1 1 145.82 6.05
-2 1 1 141.79 6.63
-2 1 1 141.74 4.32
2 1 -1 148.94 6.13
-2 1 1 151.43 4.68
-2 1 1 145.92 4.41
-2 1 1 142.12 4.69
2 1 -1 144.69 4.14
2 1 -1 146.64 6.09
-2 1 1 146.63 4.1
-2 1 1 138.58 6.16
-2 1 1 139.77 5.03
1 -1 -1 36.37 1.92
-1 -1 1 35.75 1.32
1 -1 -1 35.91 2.11
1 -1 -1 36.3 1.14
1 -1 -1 35.66 1.59
1 -1 -1 35.68 1.55
1 -1 -1 36.27 1.23
1 -1 -1 37.24 2.1
1 -1 -1 33.59 1.58
-1 -1 1 37.1 1.08
1 -1 -1 34.33 1.28
-1 -1 1 35.72 1.85
1 -1 -1 33.85 1.67
1 -1 -1 37.29 1.88
-1 -1 1 33.53 2.15
-1 -1 1 37.89 1.34
1 -1 -1 34.26 1.8
1 -1 -1 34.54 1.81
-1 -1 1 37.39 1.27
1 -1 -1 34.98 1.54
-1 -1 1 36.87 1.92
-1 -1 1 35.38 1.12
-1 1 1 35.94 1.56
1 1 -1 35.8 1.78
-1 1 1 35.94 1.71
-1 1 1 33.89 1.66
-1 1 1 35.24 1.75
-1 1 1 36.43 1.85
-1 1 1 36.47 1.62
-1 1 1 36.89 1.27
1 1 -1 37.37 1.32
-1 1 1 35.66 1.07
1 1 -1 35.68 1.13
-1 1 1 37.08 1.21
-1 1 1 35.67 1.76
-1 1 1 35.26 1.73
1 1 -1 34.72 2.14
-1 1 1 35.8 2.08
-1 1 1 38.02 1.13
0 -1 -1 148.84 5.09
0 -1 -1 147.99 4.31
0 -1 1 156.34 4.16
0 -1 1 158.24 4.83
0 -1 -1 157.73 4.92
0 -1 1 170.59 6.56
0 -1 1 158.3 4.82
0 -1 -1 149.98 4.34
0 -1 1 152.73 4.53
0 1 -1 158.09 4.82
0 1 1 156.2 4.91
0 1 -1 151.92 4.13
0 1 1 155.94 4.39
0 1 1 155.25 4.33
0 1 -1 154.31 4.75
0 1 1 154.07 4.38
0 1 -1 159.69 4.54
0 1 1 155.54 5.07
0 1 -1 156.15 6.51
5 -2 -1 27.63 3.16
5 -2 -1 26.41 2.13
5 -2 -1 26.01 2.4
4 -2 -1 10.65 1.46
4 -2 -1 19.82 4.9
4 -2 -1 11.36 1.47
-4 -2 1 11.95 1.37
4 -2 -1 12.86 3.02
-4 -2 1 4.66 2.61
4 2 -1 13.47 4.24
-4 2 1 8.5 2.03
-4 2 1 9.57 3.55
3 -2 -1 13.15 2.29
-3 -2 1 10.03 2.5
3 -2 -1 6.69 1.13
3 -2 -1 9.92 1.16
3 -2 -1 10.78 2.84
3 -2 -1 12.76 2.34
-3 -2 1 9.54 1.12
3 -2 -1 16.36 3.33
3 -2 -1 10.02 2.41
3 -2 -1 15.36 2.4
-3 -2 1 10.53 1.18
-3 -2 1 18.74 3.34
3 -2 -1 10.8 2.49
-3 2 1 11.96 2.49
3 2 -1 10.45 1.2
-3 2 1 11.88 2.59
3 2 -1 16.21 3.47
3 2 -1 14.6 0.61
-3 2 1 10.61 2.67
-3 2 1 14.03 3.02
3 2 -1 9.73 1.26
-3 2 1 10.27 2.38
-3 2 1 10.25 2.24
-3 2 1 9.66 1.98
-2 -2 1 7.91 1.74
2 -2 -1 5.38 0.79
2 -2 -1 4.32 1.51
-2 -2 1 7.01 0.78
2 -2 -1 7.54 1.65
2 -2 -1 10.26 2.4
-2 -2 1 5.12 1.06
2 -2 -1 8.69 2.04
2 -2 -1 5.96 0.76
-2 -2 1 11.15 2.3
2 -2 -1 7.43 1.63
2 -2 -1 9.02 2.34
-2 -2 1 6.19 0.72
2 -2 -1 8.05 1.65
2 -2 -1 6.96 1.94
2 -2 -1 6.34 1.42
2 -2 -1 7.48 1.62
-2 -2 1 6.03 0.78
-2 2 1 9.76 1.66
-2 2 1 5.49 1.44
-2 2 1 14.67 2.51
2 2 -1 6.61 0.82
-2 2 1 6.4 1.57
-2 2 1 6.46 1.72
-2 2 1 7.7 1.68
-2 2 1 8.61 1.84
2 2 -1 3.28 2
-2 2 1 6.39 0.86
2 2 -1 8.13 1.06
2 2 -1 8.24 1.2
-2 2 1 8.34 2.06
-2 2 1 7.93 1.68
2 2 -1 4.65 3.14
2 2 -1 5.9 1.12
-2 2 1 6.64 1.94
2 2 -1 7.42 0.88
-1 -2 1 9.01 1.19
-1 -2 1 8.87 1.01
1 -2 -1 8.42 1.48
1 -2 -1 8.18 1.37
1 -2 -1 9.25 1.71
-1 -2 1 8.76 0.63
1 -2 -1 7.7 1.49
1 -2 -1 8.82 1.44
-1 -2 1 8.31 0.74
-1 -2 1 9.32 1.02
-1 -2 1 8.18 1
-1 -2 1 13.45 1.82
1 -2 -1 8.02 0.69
1 -2 -1 8.57 1.64
1 -2 -1 7.36 0.67
1 -2 -1 10.05 1.81
1 -2 -1 7.19 1.01
-1 -2 1 6.96 1.04
1 -2 -1 7.54 1.43
-1 -2 1 8.27 0.65
-1 -2 1 8.34 0.78
-1 -2 1 7.48 1.29
1 -2 -1 8.74 1.54
1 2 -1 7.69 0.83
-1 2 1 9.18 0.65
1 2 -1 7.84 1.21
1 2 -1 9.6 1.06
-1 2 1 6.93 1.38
1 2 -1 12.89 2.23
1 2 -1 9.65 1.06
-1 2 1 10.85 1.49
-1 2 1 7.76 1.39
-1 2 1 7.86 0.59
-1 2 1 10.96 1.44
-1 2 1 9.12 1.5
1 2 -1 8.59 1.03
-1 2 1 10.43 1.84
-1 2 1 8.71 1.5
1 2 -1 10.32 1.08
-1 2 1 11.12 1.57
-1 2 1 9.09 1.63
-1 2 1 8.56 1.12
0 -2 1 194.84 5.93
0 -2 1 202.76 5.62
0 -2 1 200.3 5.67
0 -2 1 194.85 5.63
0 -2 -1 200.84 5.84
0 -2 1 197.31 8.43
0 -2 -1 199.3 5.77
0 -2 -1 200.46 4.53
0 -2 1 200.34 6.46
0 -2 -1 205.93 6.62
0 -2 1 205.54 6.45
0 -2 -1 201.38 4.76
0 -2 1 198.61 6.1
0 -2 -1 193.9 6.76
0 -2 -1 193.19 6.67
0 2 -1 202.16 6.56
0 2 1 197.55 6.34
0 2 -1 201.32 6.06
0 2 -1 200.25 6.44
0 2 -1 197.43 5.61
0 2 -1 199.77 6.29
0 2 1 205.35 5.81
0 2 1 201.04 6.49
0 2 -1 177.1 5.83
0 2 -1 212.73 8.01
0 2 -1 189.27 8.39
0 2 1 200.56 6.73
0 2 1 192.04 5.81
0 2 1 203.57 6.13
1 -2 1 99.4 3.95
1 -2 1 99.78 4.78
1 -2 1 101.28 3.36
1 -2 1 97.52 3.43
-1 -2 -1 96.85 3.96
-1 -2 -1 100.14 3.47
1 -2 1 97.82 3.7
1 -2 1 100.51 3.61
-1 2 -1 96.15 3.64
-1 2 -1 98.58 3.95
-1 2 -1 102.02 3.43
1 2 1 96.1 3.47
-1 2 -1 101.6 4.01
1 2 1 102.22 3.48
-1 2 -1 95.11 4.82
-2 2 -1 10.91 2.35
-2 2 -1 9.42 3.14
-2 2 -1 9.36 1.48
5 -3 -1 3.49 1.69
5 -3 -1 2.95 1.64
-5 -3 1 -2.68 2.93
5 -3 -1 5.14 2.73
4 -3 -1 8.47 3.07
4 -3 -1 7.69 3.1
-4 -3 1 4.23 1.77
4 -3 -1 -0.14 1.74
4 -3 -1 3.1 3.98
4 -3 -1 5.81 1.47
4 -3 -1 3.42 3
4 -3 -1 5.56 1.42
-4 -3 1 4.96 2.91
4 -3 -1 9.72 4.96
4 -3 -1 3.61 3.08
4 3 -1 5.93 5.15
-4 3 1 6.7 3.25
-4 3 1 5.92 3.32
-3 -3 1 10.53 1.24
3 -3 -1 6.59 3.34
3 -3 -1 13.34 3
-3 -3 1 10.96 1.29
3 -3 -1 10.07 1.32
3 -3 -1 10.66 1.37
3 -3 -1 8.75 2.9
3 -3 -1 10.15 2.28
3 -3 -1 8.46 2.44
3 -3 -1 13.17 4.42
-3 -3 1 12.13 2.89
3 -3 -1 18.16 2.94
-3 3 1 14.97 3.01
-3 3 1 11.56 3.2
-3 3 1 12.05 3.12
-3 3 1 7.9 1.37
3 3 -1 8.08 5.77
3 3 -1 7.3 3.76
-3 3 1 10.51 2.65
3 3 -1 10.3 1.93
-2 -3 1 77.87 2.3
2 -3 -1 82.74 4.05
2 -3 -1 77.13 4.28
2 -3 -1 78.49 2.79
2 -3 -1 74.76 5.28
2 -3 -1 72.03 4.63
2 -3 -1 80.58 3.93
-2 -3 1 76.41 2.6
2 -3 -1 77.53 3.86
-2 -3 1 74.85 3.58
-2 -3 1 75.89 3.93
-2 -3 1 84.3 3.39
2 -3 -1 79.38 2.66
2 -3 -1 75.7 4.14
-2 -3 1 82.36 3.8
2 -3 -1 84 5.14
2 -3 -1 67.82 4.83
-2 -3 1 79.94 2.4
-2 -3 1 79.24 2.77
-2 3 1 76.09 4.69
-2 3 1 70.85 4.98
2 3 -1 84.38 2.73
-2 3 1 81.32 2.39
-2 3 1 70.1 4.05
2 3 -1 71.32 3.18
-2 3 1 79.26 2.31
2 3 -1 77.51 3.16
-2 3 1 70.21 4.06
-2 3 1 73.33 4.27
-2 3 1 78.46 5.18
2 3 -1 77.34 3.33
-1 -3 1 24.45 2.29
-1 -3 1 19.44 1.94
1 -3 -1 20.35 1.17
-1 -3 1 21.98 1.18
-1 -3 1 22.13 1.63
-1 -3 1 21.56 2.06
1 -3 -1 22.68 3.09
1 -3 -1 23.23 2.61
1 -3 -1 20.25 2.99
1 -3 -1 27.25 2.54
-1 -3 1 23.45 2.5
-1 -3 1 20.31 2.53
-1 -3 1 17.42 2.1
1 -3 -1 19.63 1.12
1 -3 -1 19.62 1.58
1 -3 -1 27.08 2.6
-1 -3 1 20.82 1.12
1 -3 -1 20.01 2.4
1 3 -1 20.93 2.22
1 3 -1 16.47 2.01
1 3 -1 18.91 1.96
1 3 -1 20.54 2.27
1 3 -1 20.46 2.01
-1 3 1 18.3 2.42
-1 3 1 24.5 2.7
1 3 -1 21.91 2
-1 3 1 21.46 0.92
1 3 -1 20.62 2.06
-1 3 1 21.49 2.57
-1 3 1 30.09 2.98
-1 3 1 19.7 0.96
0 -3 1 15.76 2.38
0 -3 -1 10.91 2.06
0 -3 -1 11.42 2.12
0 -3 -1 12.03 2.64
0 -3 -1 11.13 2.35
0 -3 -1 12.57 2.71
0 -3 1 11.48 2.44
0 -3 1 9.47 1.94
0 -3 1 10.87 1.88
0 -3 -1 8.28 2.05
0 -3 1 12.12 2.4
0 -3 1 14.23 2.08
0 -3 1 13.81 1.94
0 3 1 11.12 2.15
0 3 1 14.06 2.14
0 3 -1 11.78 1.79
0 3 -1 11.57 2.02
0 3 -1 10.5 2.12
0 3 1 9.18 2.11
0 3 1 8.39 2.02
0 3 1 11.18 2.15
0 3 1 9.59 2.4
0 3 -1 14.84 2.47
0 3 1 15.11 2.26
0 3 -1 12.72 1.93
-1 -3 -1 10.87 2.04
-1 -3 -1 18.28 2.4
1 -3 1 4.44 2.15
1 -3 1 12.89 2.03
1 -3 1 10.78 2.13
1 -3 1 11.3 2.2
1 -3 1 15.84 2.17
-1 -3 -1 12.17 2.25
1 -3 1 14.22 3.51
1 -3 1 12.03 1.87
-1 -3 -1 11.62 2.36
1 -3 1 10.85 2.53
1 3 1 10.58 2.07
-1 3 -1 12.83 2.15
-1 3 -1 15.82 2.24
1 3 1 12.88 2.21
-1 3 -1 12.67 2.36
-1 3 -1 14.48 2.35
1 3 1 13.16 2.13
-1 3 -1 15.51 2.84
-1 3 -1 16.08 2.42
1 3 1 16.7 2.13
2 -3 1 -1.23 1.91
2 -3 1 0.07 1.98
2 -3 1 -0.04 1.59
2 -3 1 -2.14 2.43
2 -3 1 -0.2 2.72
2 -3 1 0.07 1.85
-2 -3 -1 -2.75 1.64
-2 3 -1 -0.8 2.83
2 3 1 -0.08 0.74
2 3 1 1.54 2.09
2 3 1 -1.7 1.88
-2 3 -1 -1.41 1.01
2 3 1 1.26 0.75
-2 3 -1 2.41 1.86
-2 3 -1 -2.03 2.31
3 -3 1 -4.93 1.73
-5 4 1 -2.84 4.55
4 -4 -1 6.94 3.33
4 -4 -1 2.14 3.11
4 -4 -1 16.91 6.63
4 -4 -1 10.04 5.03
-4 -4 1 5.89 1.59
-4 4 1 9.31 4.4
-4 4 1 9.12 1.83
4 4 -1 6.52 5.46
4 4 -1 5.04 8.1
-4 4 1 8.89 4.05
3 -4 -1 34.09 2.25
3 -4 -1 17.74 4.5
3 -4 -1 37.97 2.75
3 -4 -1 43.26 4.47
3 -4 -1 35.15 3.85
3 -4 -1 34.53 4.02
3 -4 -1 30.65 2.28
3 -4 -1 41.59 4.21
-3 -4 1 34.63 3.29
3 -4 -1 32.19 3.49
3 -4 -1 49.56 7.76
-3 -4 1 35.33 1.99
3 -4 -1 24.95 7.19
-3 -4 1 36.42 2.07
-3 -4 1 34.86 3.21
-3 4 1 34.99 1.99
3 4 -1 33.84 3.13
-3 4 1 33.03 2.03
3 4 -1 38.03 3.4
-3 4 1 28.94 4.11
3 4 -1 37.5 3.05
-3 4 1 41.59 4.47
-2 -4 1 22.74 1.46
-2 -4 1 25.68 3.58
2 -4 -1 31.8 4.49
-2 -4 1 24.97 2.35
2 -4 -1 32.95 3.72
2 -4 -1 26.45 3.35
2 -4 -1 22.91 2.29
-2 -4 1 28.01 1.58
2 -4 -1 29.43 3.82
2 -4 -1 23.45 3.03
-2 -4 1 28.09 1.6
2 -4 -1 33.6 4.97
-2 -4 1 28.82 3.31
2 -4 -1 24.84 1.72
-2 -4 1 27.97 2.93
2 -4 -1 25.3 1.84
-2 -4 1 26.39 2.85
-2 4 1 24.1 1.4
2 4 -1 26.64 3.39
2 4 -1 27.48 2.86
-2 4 1 28.7 3.97
-2 4 1 24.24 1.54
2 4 -1 25.7 2.83
-2 4 1 28.08 3.75
2 4 -1 23.51 2.85
-2 4 1 29.58 3.66
1 -4 -1 0.63 3.61
-1 -4 1 2.69 3.06
1 -4 -1 1.7 1.66
-1 -4 1 -0.9 0.74
1 -4 -1 0.55 2.82
1 -4 -1 4.7 2.94
-1 -4 1 4.1 2.46
1 -4 -1 -2.74 3.43
-1 -4 1 3.6 3.04
-1 -4 1 0.81 2.3
1 -4 -1 0.67 2.91
-1 -4 1 2.17 2.77
-1 4 1 0.23 2.76
-1 4 1 3.4 2.96
1 4 -1 -0.48 2.86
1 4 -1 0.6 2.27
1 4 -1 3.02 2.41
1 4 -1 -0.79 2
-1 4 1 -0.51 3.33
1 4 -1 2.23 2.27
0 -4 1 1 2.39
0 -4 -1 0.83 2.61
0 -4 1 4.64 2.46
0 -4 -1 0.84 2.67
0 -4 1 -0.96 2.39
0 -4 1 -4.87 2.37
0 -4 1 -1.28 3.31
0 -4 1 3.23 3.19
0 -4 -1 -1.01 3.54
0 -4 -1 -1.23 3.02
0 -4 -1 2.2 3.33
0 4 1 0.61 2.64
0 4 -1 0.28 2.8
0 4 -1 1.33 2.29
0 4 1 -1.56 3.09
0 4 -1 0.66 2.34
0 4 1 0.57 2.68
0 4 -1 -0.57 2.02
0 4 1 -1.68 2.67
0 4 -1 0.26 2.43
-1 -4 -1 -0.08 3.35
1 -4 1 1.61 4.35
-1 -4 -1 1.2 2.55
1 -4 1 -0.16 2.76
-1 -4 -1 3.66 2.65
1 -4 1 1.25 2.61
1 -4 1 0.19 2.7
-1 -4 -1 4.16 3.02
1 -4 1 -0.97 2.25
-1 -4 -1 -1.69 4.04
1 4 1 4.87 2.74
1 4 1 2.16 2.74
-1 4 -1 3.1 2.76
-1 4 -1 1.43 2.56
-1 4 -1 4.02 2.99
1 4 1 0.16 3.45
1 4 1 -1.39 2.76
2 -4 1 0.38 2.48
-2 -4 -1 0.83 2.76
2 -4 1 1.43 2.54
-2 -4 -1 -2.06 2.71
2 -4 1 2.3 3.54
2 -4 1 -0.87 2.89
2 -4 1 1.7 2.86
-2 4 -1 1.91 3.22
2 4 1 -0.46 3.19
2 4 1 -6.41 2.6
-2 4 -1 -3.22 2.99
2 4 1 -2.49 2.75
2 4 1 0.78 2.7
3 -4 1 -0.77 3.05
3 -4 1 0.28 3.16
3 -4 1 -0.09 3.13
3 -4 1 -0.56 2.42
-3 4 -1 7.24 3.78
3 4 1 -0.38 3.82
4 -4 1 -1.35 0.61
3 -5 -1 32.4 4.49
3 -5 -1 10.5 4.89
3 -5 -1 16.83 3.75
-3 -5 1 14.68 4.07
-3 -5 1 20.53 4.47
3 -5 -1 21.33 8.44
-3 -5 1 20.78 3.59
-3 5 1 17.27 4.8
3 5 -1 16.3 4.31
3 5 -1 15.78 3.57
2 -5 -1 7.82 3.35
-2 -5 1 2.53 4.11
2 -5 -1 9.46 4.9
2 -5 -1 4.59 1.35
-2 -5 1 4.54 3.3
2 -5 -1 4.75 1.34
2 -5 -1 4.29 5.78
-2 -5 1 1.25 4.56
-2 -5 1 2.11 3.78
2 5 -1 3.95 3.97
2 5 -1 3.89 3.27
-2 5 1 6.02 4.32
-1 -5 1 1.26 4.15
1 -5 -1 0.56 4.57
-1 -5 1 -5.92 3.82
-1 -5 1 -0.1 3.88
1 -5 -1 -0.51 3.19
1 -5 -1 -0.79 4.68
-1 5 1 -0.07 4.06
1 5 -1 3.18 3.87
0 -5 1 1.81 3.03
0 -5 -1 2.33 3.65
0 -5 -1 3.62 4.61
0 -5 1 3.56 4.81
0 -5 1 1.14 4.19
0 -5 -1 -3.69 4.19
0 -5 -1 -5.05 4.16
0 5 -1 1.04 3.87
0 5 1 1.56 4.25
0 5 1 1.1 3.53
1 -5 1 57.11 6.81
-1 -5 -1 39.13 5.47
-1 -5 -1 41.59 5.63
-1 -5 -1 40.16 4.55
1 -5 1 40.62 3.83
-1 -5 -1 45 5.13
-1 5 -1 44.39 4.72
1 5 1 43.85 5.28
1 5 1 43.95 4.43
-2 -5 -1 20.17 4.36
2 -5 1 11.81 4.66
2 -5 1 27.3 3.95
-2 -5 -1 30.19 5.58
2 -5 1 20.75 3.57
-2 5 -1 26.2 4.68
2 5 1 20.31 4.34
2 5 1 21.47 5.47
3 -5 1 1.44 3.84
-3 -5 -1 -0.88 3.51
3 -5 1 -1.17 3.12
-3 5 -1 0.13 4.46
3 5 1 -0.71 3.71
7 0 -2 2.04 3.84
6 0 -2 3.62 1.81
-6 0 2 -0.24 3.48
6 0 -2 5.27 1.69
-6 0 2 3.34 4.29
6 0 -2 4.06 3.65
5 0 -2 -0.99 1.25
5 0 -2 0.99 1.35
-5 0 2 0.64 3.85
-5 0 2 0.19 1.19
5 0 -2 0.15 2.57
-5 0 2 0.23 2.96
-4 0 2 2.34 1.05
-4 0 2 5.01 2.42
-4 0 2 1.37 3.14
4 0 -2 1.5 1.12
4 0 -2 4.15 1.18
-4 0 2 2.92 1.06
4 0 -2 1.23 1.92
4 0 -2 1.04 3.61
-4 0 2 3.75 1.27
3 0 -2 0.41 1.48
-3 0 2 0.28 0.59
3 0 -2 -0.19 0.73
-3 0 2 -0.64 2.36
3 0 -2 -0.6 0.27
3 0 -2 -0.86 0.99
3 0 -2 -0.07 4.76
-3 0 2 0.56 0.7
-3 0 2 0.82 1.2
3 0 -2 -0.68 1.13
3 0 -2 -1.21 0.68
-3 0 2 -1.35 1.53
3 0 -2 0.04 1
-3 0 2 -0.21 0.73
3 0 -2 1.43 2.28
-2 0 2 952.75 25.16
-2 0 2 847.13 35.81
2 0 -2 952.98 21.59
2 0 -2 866.94 25.22
-2 0 2 936.66 27.39
-2 0 2 926.61 21.59
-2 0 2 955.33 37.73
2 0 -2 981.83 25.17
2 0 -2 950.49 37.57
2 0 -2 938.31 23.71
-2 0 2 943.26 27.04
-2 0 2 943.26 20.62
2 0 -2 868.35 23.87
-2 0 2 955.9 23.76
-2 0 2 929.55 23.61
2 0 -2 985.37 35.92
-2 0 2 1000 37.47
-2 0 2 954.88 23.9
-2 0 2 910.8 35.33
2 0 -2 914.5 35.4
2 0 -2 994.31 27.44
2 0 -2 948.35 37.43
-2 0 2 955.46 25.25
1 0 -2 0.19 0.32
1 0 -2 0.05 0.47
-1 0 2 -0.1 0.37
-1 0 2 0.02 0.4
1 0 -2 -0.31 0.43
-1 0 2 0.61 0.44
1 0 -2 -0.26 0.33
1 0 -2 -0.25 1.53
-1 0 2 -0.08 0.3
-1 0 2 0.05 1.78
-1 0 2 0.46 0.49
-1 0 2 0.01 0.42
-1 0 2 -0.28 0.35
-1 0 2 0.28 0.43
1 0 -2 -0.04 0.34
1 0 -2 -0.62 0.47
1 0 -2 -0.27 0.42
1 0 -2 0.26 0.51
7 -1 -2 0.27 1.85
-7 -1 2 0.28 3.89
7 -1 -2 1.41 3.54
7 -1 -2 1.24 2.01
7 1 -2 1.73 3.49
6 -1 -2 4.03 1.76
-6 -1 2 1.5 3.64
-6 -1 2 4.06 1.37
6 -1 -2 4.28 1.84
-6 -1 2 1.32 3.44
6 -1 -2 4.36 3.47
6 1 -2 4.17 3.28
-5 -1 2 61.14 2.82
5 -1 -2 66.8 3.29
-5 -1 2 61.66 4.51
5 -1 -2 63.13 3.04
5 -1 -2 58.82 4.26
-5 -1 2 58.08 4.41
-5 1 2 62.93 4.57
5 1 -2 58.55 4.09
-5 1 2 49.94 2.72
-4 -1 2 5.06 2.76
4 -1 -2 5.19 1.29
4 -1 -2 8.34 4.29
4 -1 -2 3.37 1.16
-4 -1 2 4.23 1.17
-4 -1 2 4.38 1.5
-4 -1 2 2.75 1.03
4 -1 -2 1.87 2.18
-4 -1 2 7.43 3.64
4 -1 -2 4.41 2.4
4 -1 -2 1.53 1.86
4 -1 -2 6.08 1.95
-4 1 2 2.77 1.54
-4 1 2 3.01 3.45
-4 1 2 3.46 1.05
-4 1 2 14.06 2.46
4 1 -2 5.16 1.21
4 1 -2 3.99 2.3
4 1 -2 6.15 4.38
-4 1 2 5.61 1.35
-4 1 2 5.01 2.36
-4 1 2 4.19 3.59
4 1 -2 1.2 7.98
-4 1 2 6.86 2.55
4 1 -2 4.39 1.31
3 -1 -2 13.54 1.69
3 -1 -2 9.79 1.59
-3 -1 2 11.49 1.19
-3 -1 2 16.51 3.2
3 -1 -2 14.55 5.81
3 -1 -2 12.83 1.99
-3 -1 2 9.94 1.04
3 -1 -2 11.22 1.59
-3 -1 2 12.15 1.04
3 -1 -2 9 1.69
-3 -1 2 14.89 2.5
3 -1 -2 10.96 1.1
3 -1 -2 12.34 1.23
3 -1 -2 11.67 3.21
3 -1 -2 13.56 2.14
-3 1 2 11.15 1.48
-3 1 2 6.78 2.5
-3 1 2 9.22 1.82
3 1 -2 5.89 1.78
-3 1 2 12.06 1.12
-3 1 2 13.78 1.76
-3 1 2 10.65 1.12
3 1 -2 12.41 1.25
-3 1 2 11.29 2.06
-3 1 2 10.68 1.96
3 1 -2 11.35 1.25
3 1 -2 9.33 2.91
-3 1 2 12.66 1.69
-3 1 2 17.16 2.52
3 1 -2 2.74 3.78
-3 1 2 11.88 2.22
-3 1 2 11.63 1.11
2 -1 -2 413.44 10.88
2 -1 -2 411.15 12.5
2 -1 -2 407.44 9.78
2 -1 -2 415.08 17.14
2 -1 -2 403.94 11.63
-2 -1 2 418.87 16.11
2 -1 -2 398.85 11.46
2 -1 -2 437.35 16.34
2 -1 -2 427.02 11.12
2 -1 -2 405.23 10.85
-2 -1 2 423.52 10.86
2 -1 -2 411.22 16.16
-2 -1 2 394.58 17.17
2 -1 -2 428.76 11.96
2 -1 -2 408.81 10.98
-2 -1 2 404.04 9.81
-2 -1 2 419.11 11.48
-2 -1 2 375.94 16.23
-2 -1 2 398.87 9.34
2 -1 -2 420.1 12.67
2 -1 -2 439.86 17.18
-2 1 2 398.02 10.9
2 1 -2 391.16 17.12
-2 1 2 433.17 9.84
-2 1 2 413.86 10.81
-2 1 2 406.49 11
-2 1 2 396.63 12.43
-2 1 2 410.3 11.64
-2 1 2 411.39 11.91
2 1 -2 413.45 9.8
2 1 -2 416.79 11.47
-2 1 2 435.56 17.15
2 1 -2 403.78 16.21
-2 1 2 411.58 17.42
-2 1 2 404.96 12.67
-2 1 2 414.27 9.36
-2 1 2 412.65 11.41
-2 1 2 415.04 12.95
-2 1 2 409.46 16.03
1 -1 -2 399.46 12.25
1 -1 -2 383.21 10.36
-1 -1 2 410.63 10.88
-1 -1 2 393.49 16.27
1 -1 -2 399.87 11.82
1 -1 -2 403.75 8.83
1 -1 -2 383.57 10.33
1 -1 -2 396.96 9.27
-1 -1 2 396.91 9.26
1 -1 -2 392.92 11.98
1 -1 -2 390.97 10.84
1 -1 -2 378.61 16.16
1 -1 -2 392.45 10.48
-1 -1 2 386.24 8.84
-1 1 2 397.83 11.34
-1 1 2 390.03 10.51
-1 1 2 405.24 9.27
-1 1 2 390.21 11.01
-1 1 2 416.96 16.26
-1 1 2 393.21 8.83
-1 1 2 379.43 12.21
1 1 -2 372.64 15.38
1 1 -2 405.3 10.85
1 1 -2 385.87 16.17
-1 1 2 391.83 10.4
-1 1 2 389.59 16.24
1 1 -2 401.63 9.29
1 1 -2 400.32 8.82
-1 1 2 381.54 11.76
-1 1 2 408.31 10.27
-1 1 2 398.14 10.84
0 -1 -2 43.12 1.89
0 -1 -2 39.99 2.1
0 -1 -2 48.75 1.93
0 -1 -2 49.83 2.23
0 1 2 50.06 2.1
0 1 2 53.93 2
0 1 2 54.83 2.01
0 1 2 48.49 2.13
7 -2 -2 3.69 3.71
6 -2 -2 4.86 3.48
6 -2 -2 2.69 1.95
-6 -2 2 1.64 3.58
6 -2 -2 2.15 1.83
-6 -2 2 2.11 1.37
6 2 -2 4.89 2.96
5 -2 -2 6.18 1.74
-5 -2 2 7.5 4.72
-5 -2 2 7.32 1.52
5 -2 -2 7.23 3.42
5 -2 -2 9.69 1.69
-5 -2 2 9.61 3.99
-5 2 2 4.32 2.36
-5 2 2 4.55 3.93
5 2 -2 10.98 3.27
-5 2 2 4.88 4.01
4 -2 -2 9.31 2.41
4 -2 -2 15.78 2.68
4 -2 -2 7.84 2.7
-4 -2 2 12.96 1.61
4 -2 -2 11.08 1.6
4 -2 -2 4.8 2.47
-4 -2 2 19.32 3.48
4 -2 -2 20.06 5.62
4 -2 -2 9.84 9.69
-4 -2 2 11.04 3.96
4 -2 -2 10.92 1.47
-4 -2 2 10.08 1.49
4 -2 -2 8.52 3.33
-4 -2 2 11.37 1.49
-4 2 2 7.1 3.4
-4 2 2 6.11 1.07
-4 2 2 15.75 1.71
-4 2 2 9.91 2.88
-4 2 2 9.92 2.31
4 2 -2 9.87 4.09
-4 2 2 12.71 3.3
4 2 -2 11.73 2.8
-4 2 2 10.95 2.74
4 2 -2 2.57 6.07
3 -2 -2 22.81 2.54
3 -2 -2 23.5 3.07
3 -2 -2 24.42 3.04
3 -2 -2 22.27 1.66
3 -2 -2 22.26 1.74
3 -2 -2 21.38 2.59
3 -2 -2 20.85 2.5
-3 -2 2 21.39 1.67
-3 -2 2 18.39 1.53
3 -2 -2 21.05 2.19
-3 -2 2 19.02 2.62
3 -2 -2 18.5 5.4
3 -2 -2 19.83 2.82
-3 -2 2 21.61 1.58
-3 -2 2 19.36 1.51
3 -2 -2 24.33 2.62
3 -2 -2 22.43 3.01
-3 -2 2 19.15 2.33
3 2 -2 20.97 2.1
3 2 -2 21.67 1.78
-3 2 2 24.27 2.73
-3 2 2 23.27 1.7
-3 2 2 22.14 2.57
-3 2 2 23.08 2.51
-3 2 2 20.23 1.59
-3 2 2 25.06 3.15
-3 2 2 23.79 2.68
3 2 -2 23.24 1.68
-3 2 2 21.68 2.3
-3 2 2 23.66 2.33
3 2 -2 29.34 5.06
-3 2 2 17.27 2.66
-3 2 2 23.49 1.49
-3 2 2 22.11 2.65
-3 2 2 28.7 3.05
-2 -2 2 3.56 0.79
2 -2 -2 5.11 3.58
-2 -2 2 5.46 1.74
2 -2 -2 5.43 2.04
-2 -2 2 2.78 4.18
-2 -2 2 3.62 0.74
2 -2 -2 5.16 1.73
2 -2 -2 2.6 1.74
-2 -2 2 3.09 0.81
2 -2 -2 3.5 1.65
2 -2 -2 5.62 1.68
-2 -2 2 3.84 0.84
2 -2 -2 4.81 2.12
2 -2 -2 6.47 1.82
-2 -2 2 8.16 2.75
2 -2 -2 3.65 0.87
2 -2 -2 3.08 1.52
-2 -2 2 4.65 0.84
2 -2 -2 2.95 0.81
2 -2 -2 1.67 2.14
-2 2 2 4.03 1.64
-2 2 2 3.36 1.64
2 2 -2 5.85 3.33
-2 2 2 3.98 0.82
-2 2 2 3.64 0.78
-2 2 2 3.07 1.74
-2 2 2 5.33 0.79
-2 2 2 6.14 1.78
-2 2 2 3.74 0.77
2 2 -2 1.66 1.41
-2 2 2 3.6 2.18
-2 2 2 3.15 1.65
2 2 -2 4.73 0.92
-2 2 2 3.31 1.86
-2 2 2 2.57 1.94
-2 2 2 2.44 2.09
2 2 -2 3.65 0.98
1 -2 -2 -0.7 1.27
-1 -2 2 1.95 0.56
-1 -2 2 2.71 0.69
-1 -2 2 1.45 0.87
1 -2 -2 3 2.36
1 -2 -2 2.7 1.6
-1 -2 2 1.68 0.62
1 -2 -2 -0.7 1.26
1 -2 -2 2.01 1.75
-1 -2 2 1.83 0.98
-1 -2 2 3.05 1.03
-1 -2 2 1.22 0.84
1 -2 -2 2.37 0.57
1 -2 -2 2.64 1.36
1 -2 -2 0.89 0.53
1 -2 -2 2.16 0.64
-1 -2 2 1.21 1
-1 -2 2 2.95 0.81
1 -2 -2 1.13 1.55
-1 -2 2 3.85 2.8
-1 2 2 4.1 1.93
-1 2 2 1.04 0.51
-1 2 2 1.94 1.35
-1 2 2 2.45 1.64
1 2 -2 1.33 0.52
-1 2 2 2.19 1.45
-1 2 2 0.9 1.38
1 2 -2 1.39 0.57
1 2 -2 0.75 0.59
1 2 -2 1.93 0.81
1 2 -2 3.12 0.95
1 2 -2 2.51 1.28
-1 2 2 0.37 2.13
-1 2 2 1.28 1.49
-1 2 2 0.9 0.53
-1 2 2 -0.25 1.19
-1 2 2 1.07 0.56
-1 2 2 2.27 1.41
-1 2 2 1.13 0.6
0 -2 2 15.63 1.41
0 -2 -2 15.85 1.83
0 -2 -2 16.27 1.57
0 -2 -2 15.01 1.58
0 -2 2 15.06 1.38
0 -2 -2 17.96 1.9
0 -2 2 14.23 1.34
0 -2 2 16.22 1.54
0 2 2 16.65 1.74
0 2 2 18.85 1.73
0 2 -2 18.36 1.7
0 2 -2 17.96 1.49
0 2 -2 19.46 1.3
0 2 2 18.1 1.79
0 2 2 14.51 0.95
0 2 2 16.9 1.64
-1 2 -2 5.87 2.22
-1 2 -2 3.62 1.08
7 -3 -2 8.18 4.19
6 -3 -2 -3.17 4.19
6 -3 -2 -1.24 0.65
5 -3 -2 11.26 3.42
5 -3 -2 6.4 4.54
5 -3 -2 8.97 4.17
-5 -3 2 10.64 1.92
-5 3 2 12.37 4.1
-5 3 2 10.81 4.01
4 -3 -2 2.33 1.48
4 -3 -2 3.48 2.87
-4 -3 2 2.94 1.37
4 -3 -2 4.95 1.52
4 -3 -2 1.85 2.38
4 -3 -2 0.65 4.02
4 -3 -2 3.89 2.57
-4 -3 2 7.01 4.65
4 -3 -2 2.61 7.54
-4 -3 2 3.71 3.34
4 -3 -2 9 6.29
-4 -3 2 2.1 1.32
-4 -3 2 3.29 1.49
-4 -3 2 4.14 1.46
-4 3 2 3.35 3.99
4 3 -2 -2.55 6.9
-4 3 2 5.48 1.43
-4 3 2 -0.05 2.89
-4 3 2 8.84 3.73
4 3 -2 3.11 4.82
4 3 -2 6.13 1.96
-4 3 2 3.29 3.31
-4 3 2 2.45 3.46
3 -3 -2 0.76 1.22
3 -3 -2 -0.85 1.22
3 -3 -2 0.6 2.06
3 -3 -2 0.35 2.22
3 -3 -2 -3.81 2.59
-3 -3 2 1.31 2.58
-3 -3 2 0.97 1.56
-3 -3 2 -1.53 3.5
-3 -3 2 0.37 1.11
3 -3 -2 1.2 3.22
-3 -3 2 0.41 1.14
3 -3 -2 5.74 4.3
-3 -3 2 2.15 1.17
3 -3 -2 1.75 2.24
3 -3 -2 -0.44 2.6
-3 -3 2 0.37 1.05
3 -3 -2 -2.2 4.93
3 -3 -2 -0.17 3.95
-3 3 2 3.48 2.87
-3 3 2 1.83 2.74
3 3 -2 1.72 1.85
3 3 -2 5.08 5.38
-3 3 2 -0.32 2.53
-3 3 2 0.73 2.79
-3 3 2 -0.02 0.99
-3 3 2 0.6 1.14
3 3 -2 0.63 1.45
-3 3 2 -0.58 2.91
3 3 -2 1.04 1.6
-3 3 2 1.36 3.74
-2 -3 2 9.74 1.2
-2 -3 2 10.98 1.05
-2 -3 2 11.15 2.14
2 -3 -2 13.44 2.77
-2 -3 2 12.63 1.91
-2 -3 2 14.03 3.5
2 -3 -2 10.96 2.29
2 -3 -2 9.06 1.25
-2 -3 2 9.44 1.18
2 -3 -2 9.84 3.13
2 -3 -2 13.6 2.5
2 -3 -2 8.07 1.29
2 -3 -2 19.77 4.79
-2 -3 2 9.78 1.72
2 -3 -2 8.29 2.54
2 -3 -2 9.09 3.2
-2 -3 2 11.24 2.21
2 -3 -2 12.9 2.59
-2 -3 2 11.56 1.28
-2 3 2 10.1 2.95
2 3 -2 10.15 1.91
2 3 -2 10.31 1.88
2 3 -2 9.66 1.59
2 3 -2 18.78 4.7
-2 3 2 10.55 1.2
-2 3 2 16.77 3.3
2 3 -2 10.71 1.64
-2 3 2 10.75 2.83
-2 3 2 12.69 2.7
2 3 -2 13.75 1.6
-2 3 2 11.22 2.71
-2 3 2 8.88 0.97
-2 3 2 9.55 3.06
1 -3 -2 8.19 2.67
-1 -3 2 9.09 3.22
-1 -3 2 9.52 1.78
-1 -3 2 2.57 2.51
1 -3 -2 8.09 3
1 -3 -2 6.69 2.36
1 -3 -2 10.17 2.3
1 -3 -2 9.29 1.06
-1 -3 2 7.76 1.06
-1 -3 2 11.4 1.66
-1 -3 2 5.31 2.17
-1 -3 2 5.91 1.97
-1 -3 2 9.34 1.71
-1 -3 2 9.42 2.06
1 -3 -2 9.3 2.69
1 3 -2 10.37 1.53
-1 3 2 9.39 2.33
-1 3 2 8.78 0.81
-1 3 2 7.16 2.39
1 3 -2 11.06 1.67
1 3 -2 10.43 1.68
-1 3 2 7.83 2.25
1 3 -2 9.11 1.75
-1 3 2 9.32 2.58
1 3 -2 6.49 1.48
1 3 -2 9.7 1.96
-1 3 2 4.78 2.36
-1 3 2 11.49 2.73
1 3 -2 8.42 0.81
-1 3 2 10.21 2.31
0 -3 -2 6.84 2.07
0 -3 -2 8.51 2.46
0 -3 2 7.4 1.6
0 -3 -2 9.31 3.37
0 -3 -2 6.83 2.19
0 -3 -2 6.49 2.77
0 -3 2 6.39 1.78
0 -3 -2 5.74 0.67
0 -3 2 7.77 1.79
0 -3 2 4.69 2.85
0 -3 -2 5.66 0.77
0 -3 2 5.67 2.16
0 -3 2 2.99 1.74
0 -3 -2 7.91 2.22
0 -3 2 1.71 1.78
0 3 2 6.55 2.27
0 3 2 6.66 2.73
0 3 2 8.13 2.21
0 3 -2 5.95 0.78
0 3 -2 7.63 2.36
0 3 -2 6.4 1.8
0 3 2 5.57 2.09
0 3 -2 6.68 1.67
0 3 2 4.64 2.17
0 3 2 6.51 0.63
0 3 -2 9.08 1.53
0 3 -2 8.16 2.09
0 3 -2 4.82 0.66
0 3 2 6.41 2.24
-1 -3 -2 90.87 4.65
1 -3 2 86.94 3.76
1 -3 2 90.86 3.72
-1 -3 -2 87.92 4.17
1 -3 2 87.63 4.16
1 -3 2 78.95 3.8
1 -3 2 76.09 4.6
1 3 2 85.13 4.46
1 3 2 86.47 4.1
-1 3 -2 85.19 3.96
-1 3 -2 85.66 4.52
1 3 2 73.52 4
-2 3 -2 29.17 3.52
-5 -4 2 4.1 1.52
-5 -4 2 4.02 2.09
5 -4 -2 7.31 4.48
5 -4 -2 0.46 3.23
5 -4 -2 8.32 5.77
-5 4 2 9.26 1.98
-4 -4 2 4.81 2.5
4 -4 -2 5.48 7.51
4 -4 -2 5.46 4.03
4 -4 -2 4.18 3.34
4 -4 -2 3.7 3.32
-4 -4 2 5.24 1.67
-4 -4 2 5.31 1.73
4 -4 -2 10.99 5.13
4 -4 -2 5.86 6.26
-4 -4 2 5.25 1.69
4 4 -2 2.37 2.54
-4 4 2 4.38 4.16
4 4 -2 12 7.66
-4 4 2 5.56 4.36
-4 4 2 4.32 1.63
-4 4 2 5.49 1.47
3 -4 -2 3.4 3.52
3 -4 -2 5.28 2.78
-3 -4 2 1.36 2.96
-3 -4 2 4.75 3.67
3 -4 -2 2.13 2.7
-3 -4 2 3.72 2.31
3 -4 -2 3.21 1.53
-3 -4 2 4.09 1.44
3 -4 -2 1.53 5.39
3 -4 -2 10.19 6.68
-3 -4 2 2.22 1.36
3 -4 -2 1.15 3.7
-3 -4 2 6.34 2.93
-3 -4 2 5.28 1.55
3 -4 -2 3.2 4.3
-3 -4 2 6.15 1.3
3 -4 -2 4.26 1.61
3 -4 -2 4.17 3.02
-3 -4 2 4.86 2.67
-3 4 2 2.79 3.91
3 4 -2 6.37 2.14
-3 4 2 4.51 1.2
-3 4 2 5.84 1.48
3 4 -2 13.94 6.49
3 4 -2 1.03 2.95
3 4 -2 0.97 2.17
-3 4 2 8.66 3.63
3 4 -2 3.31 2.38
-3 4 2 5.88 3.77
2 -4 -2 0.03 1.32
-2 -4 2 3.2 2.92
2 -4 -2 4.16 3.32
-2 -4 2 -1.54 2.25
-2 -4 2 0.13 1.12
2 -4 -2 -1.85 2.86
-2 -4 2 -1.87 3.21
-2 -4 2 -1.73 2.53
-2 -4 2 1.63 0.99
-2 -4 2 0.72 1.21
2 -4 -2 -3.66 4.13
2 -4 -2 0.45 2.3
-2 -4 2 0.22 0.41
2 -4 -2 -5.08 4.15
2 -4 -2 1.85 3.22
-2 -4 2 1.62 3.5
-2 -4 2 1.61 1.07
-2 4 2 -3.83 3.12
-2 4 2 1.29 3.62
2 4 -2 -0.3 1.8
2 4 -2 4.52 2.23
-2 4 2 -0.71 3.27
-2 4 2 3.03 1.21
2 4 -2 2.54 2.75
2 4 -2 5.28 2.32
-2 4 2 0.53 0.91
2 4 -2 4.63 2.15
-1 -4 2 1.44 1.08
1 -4 -2 2.33 3.51
-1 -4 2 2.37 2.64
1 -4 -2 5.18 3.08
-1 -4 2 4.34 2.33
-1 -4 2 4.91 3.04
1 -4 -2 4.53 2.02
-1 -4 2 5.11 3.05
-1 -4 2 5.55 2.42
-1 -4 2 1.51 1.05
1 -4 -2 3.66 3.37
1 -4 -2 3.34 3.74
-1 -4 2 -0.85 3.04
1 -4 -2 2.57 3.05
1 4 -2 2.95 2.34
1 4 -2 2.21 2.22
-1 4 2 3.15 2.72
1 4 -2 7.5 2.75
-1 4 2 1.84 3.04
-1 4 2 6 2.99
1 4 -2 3.33 1.87
-1 4 2 2.59 3.09
-1 4 2 4.72 3.55
0 -4 2 -0.01 2.08
0 -4 2 1.61 2.31
0 -4 -2 -1.32 3.19
0 -4 2 -1.14 4.04
0 -4 2 14.69 3.2
0 -4 -2 -6.8 3.49
0 -4 -2 0.38 3.79
0 -4 -2 2.07 2.95
0 -4 2 1.69 2.41
0 -4 2 0.26 2.44
0 -4 -2 -2.03 2.62
0 -4 2 2.92 2.48
0 4 2 -2.41 2.87
0 4 2 -2.46 3.39
0 4 -2 4.96 2.88
0 4 -2 0.78 0.67
0 4 2 -0.79 2.84
0 4 -2 1.92 2.54
0 4 -2 -1.67 2.29
0 4 2 -1.37 2.98
0 4 -2 3.57 2.29
0 4 -2 6.03 3.15
1 -4 2 1.39 2.21
1 -4 2 3.64 3.14
1 -4 2 -7.73 2.52
1 -4 2 -0.93 2.27
-1 -4 -2 0.01 2.8
1 -4 2 2.97 2.57
-1 -4 -2 2.18 3.28
-1 -4 -2 0.23 3.01
-1 4 -2 2.42 2.23
1 4 2 -0.85 2.89
-1 4 -2 1.25 2.98
1 4 2 -3.82 2.77
1 4 2 1.68 3.02
2 -4 2 0.79 2.72
2 -4 2 4.77 2.81
2 -4 2 9.13 2.99
2 -4 2 5.98 2.53
-2 -4 -2 -3.9 2.68
2 4 2 3.63 3.06
2 4 2 6.1 3.11
3 -5 -2 20.6 6.9
-3 -5 2 14.28 3.75
3 -5 -2 15.67 3.92
-3 -5 2 12.48 1.78
-3 -5 2 13.11 4.37
3 -5 -2 18.93 3.93
3 -5 -2 16.32 5.53
3 5 -2 18.2 3.32
-3 5 2 8.87 4.56
-3 5 2 19.11 4.6
-3 5 2 13.69 4.83
-2 -5 2 21.03 4.06
2 -5 -2 17.58 3.77
-2 -5 2 20.8 1.91
2 -5 -2 20.12 5.5
-2 -5 2 21.98 1.81
2 -5 -2 31.25 5.73
-2 -5 2 22.19 4.26
2 -5 -2 15.75 3.2
-2 -5 2 19.06 4.29
-2 5 2 20.77 4.85
-2 5 2 18.5 4.25
2 5 -2 18.54 3.79
1 -5 -2 0.21 2.19
1 -5 -2 0.57 4.69
-1 -5 2 1.57 3.03
-1 -5 2 2.05 1.1
-1 -5 2 3.26 3.86
1 -5 -2 -0.04 3.78
-1 -5 2 -5.01 4.26
1 -5 -2 2.88 4.97
-1 5 2 4.35 4.52
1 5 -2 4.41 3.61
0 -5 -2 2.93 3.78
0 -5 -2 -0.17 4.68
0 -5 2 7.96 5.42
0 -5 -2 -3.33 4.23
0 -5 2 -2.09 2.75
0 -5 2 -0.55 3.35
0 -5 -2 -1.28 4.84
0 5 2 1.64 4.44
0 5 2 -1.4 3.73
0 5 -2 3.3 3.75
-1 -5 -2 2.31 4.91
-1 -5 -2 1.14 3.73
1 -5 2 3.41 4.03
-1 -5 -2 -0.26 4.21
1 -5 2 5.65 3.06
-1 -5 -2 -6.68 5.29
-1 5 -2 8.9 4.06
1 5 2 3.93 4.76
1 5 2 1.3 3.85
2 -5 2 20.31 4.05
2 -5 2 16.48 3.59
-2 -5 -2 15.25 4.16
2 5 2 13.49 4.31
-2 5 -2 33.49 4.92
3 -5 2 -0.72 3.05
8 0 -3 -1.37 4.23
-7 0 3 14.54 2.05
-7 0 3 13.03 6.89
7 0 -3 6.55 4.44
6 0 -3 -0.2 3
-6 0 3 0.26 4.8
-6 0 3 1.05 1.57
5 0 -3 20.45 2.22
-5 0 3 26.81 4.57
-5 0 3 20.71 2.01
5 0 -3 18.18 2.22
-5 0 3 20.51 1.88
-5 0 3 16.46 4.89
-4 0 3 -1.22 1.22
-4 0 3 -0.03 1.06
-4 0 3 0.79 1.13
4 0 -3 -0.88 1.13
4 0 -3 1.39 1.64
-4 0 3 0.23 3.38
4 0 -3 2.91 4.71
4 0 -3 -1.63 1.93
-4 0 3 0.03 2.1
-4 0 3 1.12 1.02
-4 0 3 -0.59 2.32
-4 0 3 4.2 1.8
4 0 -3 1.8 1.3
4 0 -3 -1.47 1.85
-4 0 3 -0.34 0.93
4 0 -3 0.65 1.57
-3 0 3 0.99 0.9
3 0 -3 2.1 1.16
3 0 -3 -0.44 1.23
-3 0 3 -0.43 0.98
-3 0 3 0.56 1.6
-3 0 3 1.12 1.32
-3 0 3 1.96 1.26
3 0 -3 2.22 1.94
-3 0 3 3.63 3.37
3 0 -3 2.1 1.62
-3 0 3 1.92 1.72
3 0 -3 1.32 1.14
-3 0 3 0.61 1.22
3 0 -3 1.74 0.93
-3 0 3 1.71 0.86
-3 0 3 1.41 0.77
3 0 -3 0.57 0.96
-3 0 3 1.8 1.57
3 0 -3 3.59 1.55
3 0 -3 0.62 1.16
-3 0 3 1.55 5.86
3 0 -3 1.31 1.17
-3 0 3 1.01 0.91
-3 0 3 1.6 1.21
3 0 -3 1.75 3.6
-2 0 3 0.06 0.87
2 0 -3 2.16 3.12
-2 0 3 0.88 1.03
2 0 -3 -0.28 1.29
2 0 -3 -0.27 0.7
-2 0 3 0.13 0.65
2 0 -3 -0.58 1.2
2 0 -3 0.43 0.62
2 0 -3 -0.36 0.74
-2 0 3 0.46 0.82
-2 0 3 -0.16 0.95
-2 0 3 -0.2 1.98
2 0 -3 0.02 0.83
-2 0 3 1.65 2.5
2 0 -3 0.36 0.81
2 0 -3 0.25 0.68
-2 0 3 0.81 0.55
-2 0 3 0.1 0.68
-2 0 3 1.3 0.84
-2 0 3 -0.96 0.89
2 0 -3 0.26 1.12
2 0 -3 -0.35 0.58
-2 0 3 -1.28 0.6
-2 0 3 0.68 0.88
-1 0 3 727.33 21.36
-1 0 3 733.48 17.14
-1 0 3 779.27 30.05
1 0 -3 733.48 17.16
1 0 -3 743.91 22.15
-1 0 3 747.19 20.09
-1 0 3 720.95 18.98
-1 0 3 733.63 22.1
1 0 -3 758.26 16.36
1 0 -3 722.57 21.35
1 0 -3 734.98 20.05
-1 0 3 765.26 16.4
1 0 -3 725.03 29.88
8 -1 -3 -1.88 4.33
8 1 -3 2.59 4.42
-7 -1 3 0.05 2.04
-7 -1 3 0.48 4.63
7 -1 -3 0.18 3.48
7 -1 -3 2.23 2.21
7 -1 -3 2.72 2.32
-7 -1 3 1.07 6.18
7 1 -3 0.59 4.69
-7 1 3 2.95 5.79
-6 -1 3 -1.7 4.26
-6 -1 3 0.74 1.46
6 -1 -3 -0.45 1.99
6 -1 -3 1.24 1.78
-6 -1 3 -4.52 5.28
6 -1 -3 -0.25 3.31
-6 -1 3 1.32 1.7
6 1 -3 0.63 3.77
-6 1 3 -0.3 4.95
-6 1 3 1.31 1.73
5 -1 -3 -1.9 1.62
-5 -1 3 0.25 4.3
-5 -1 3 -0.92 1.29
5 -1 -3 0.13 2.35
-5 -1 3 -1.39 1.29
5 -1 -3 -1.52 1.63
-5 -1 3 0.69 3.56
-5 1 3 0.72 3.98
-5 1 3 0.92 3.18
-5 1 3 1.19 2.62
-5 1 3 1.16 1.38
-5 1 3 0.25 1.86
5 1 -3 0.32 2.82
-5 1 3 0.57 1.28
-4 -1 3 0.19 1.06
4 -1 -3 0.81 1.17
4 -1 -3 -2.94 2.42
-4 -1 3 1.91 3.31
4 -1 -3 -0.7 1.56
-4 -1 3 -0.26 1.18
-4 -1 3 1.66 2.61
-4 -1 3 -0.77 1.12
-4 -1 3 -1.62 1.12
4 -1 -3 -0.37 1.24
4 -1 -3 0.75 2.02
4 -1 -3 0.81 2.63
-4 1 3 -0.95 1.19
-4 1 3 1.12 2.01
4 1 -3 -0.6 4.63
-4 1 3 1.14 1.1
-4 1 3 0.22 2.59
4 1 -3 0.43 2.17
-4 1 3 -0.81 1.17
-4 1 3 -2.43 1.65
4 1 -3 -0.66 1.29
-4 1 3 0.07 2.22
-4 1 3 1.88 2.21
-4 1 3 -2.05 1.11
-4 1 3 -2.27 2.33
-4 1 3 1.56 3.56
4 1 -3 2.04 1.41
4 1 -3 2.12 1.27
4 1 -3 -0.69 1.38
-4 1 3 3.81 2.64
-3 -1 3 0.16 0.87
3 -1 -3 0.04 1.95
3 -1 -3 0.61 1.57
3 -1 -3 1.87 1.99
-3 -1 3 0.1 0.97
-3 -1 3 0.35 0.91
-3 -1 3 1.47 2.03
3 -1 -3 0.51 1.52
3 -1 -3 -0.32 0.97
3 -1 -3 0.31 1.46
3 -1 -3 -1.04 1.13
3 -1 -3 4.84 3.33
-3 -1 3 -0.4 0.91
-3 -1 3 1.58 3.02
3 -1 -3 0.26 1.61
3 -1 -3 0.75 1.33
3 -1 -3 -1.27 1
3 -1 -3 0.81 4.11
-3 -1 3 -0.5 5.67
3 -1 -3 0.68 2.18
-3 1 3 -0.09 0.89
-3 1 3 -0.28 1.63
-3 1 3 0.59 0.79
3 1 -3 -1.49 4.21
-3 1 3 -0.17 1.78
3 1 -3 -0.62 0.75
3 1 -3 -0.66 1.2
-3 1 3 0.7 2.18
-3 1 3 2.18 3.07
3 1 -3 -0.79 1.83
-3 1 3 -0.76 1.81
-3 1 3 1.72 0.86
-3 1 3 -0.21 1.59
3 1 -3 0.01 1.06
-3 1 3 1.35 0.99
-3 1 3 0.17 1.42
-3 1 3 -0.3 1.65
-3 1 3 1.06 1.64
2 -1 -3 28.31 2.36
-2 -1 3 27.21 1.6
-2 -1 3 24.12 3.26
-2 -1 3 25.96 2.45
2 -1 -3 25.74 2.19
2 -1 -3 25.86 2.3
-2 -1 3 25.76 1.47
2 -1 -3 28.12 1.91
2 -1 -3 28.05 1.47
2 -1 -3 24.19 1.66
-2 -1 3 27.6 1.7
-2 -1 3 26.85 1.39
2 -1 -3 28.9 1.91
2 -1 -3 25.72 2.12
2 -1 -3 26.15 2.35
2 -1 -3 27.09 3.31
2 -1 -3 33.08 2.45
2 -1 -3 27.28 1.43
-2 1 3 27.79 2.25
2 1 -3 31.15 1.61
2 1 -3 25.97 1.66
-2 1 3 27.02 1.6
-2 1 3 28.49 2.07
-2 1 3 25.48 2
-2 1 3 27.9 2.13
-2 1 3 27.71 1.99
-2 1 3 31.29 2.09
-2 1 3 26.68 1.5
-2 1 3 25.79 3.03
-2 1 3 25.26 1.42
-2 1 3 25.95 1.53
2 1 -3 25.68 3.36
-2 1 3 25.94 2.58
2 1 -3 25.72 2.27
-2 1 3 27.54 1.97
2 1 -3 25.72 1.41
2 1 -3 25.07 1.4
1 -1 -3 452.02 18.33
1 -1 -3 437.67 10.49
-1 -1 3 437 10.45
1 -1 -3 449.85 11.77
1 -1 -3 457.94 13.8
1 -1 -3 437.69 12.23
1 -1 -3 432.81 13.23
1 -1 -3 457.29 9.98
-1 -1 3 375.4 12.2
1 -1 -3 433.43 11.62
-1 -1 3 446.29 18.43
-1 1 3 459.74 11.73
-1 1 3 460.54 18.43
-1 1 3 429.19 9.98
-1 1 3 441.64 13.69
-1 1 3 452.58 10.45
1 1 -3 442.19 9.96
-1 1 3 439.91 12.24
-1 1 3 439.12 11.81
-1 1 3 427.87 13.17
1 1 -3 442.25 10.47
0 -1 -3 -1.79 0.55
-7 -2 3 -1.69 4.84
-7 -2 3 -0.99 2.06
7 -2 -3 -0.95 3.48
-6 -2 3 15.46 5.28
-6 -2 3 11.6 1.99
-6 -2 3 11.67 2.13
6 -2 -3 3.49 3.44
-6 -2 3 22.72 6.94
6 -2 -3 13.72 2.59
6 -2 -3 15.09 2.6
-6 2 3 11.18 5.65
6 2 -3 8.06 4.57
5 -2 -3 2.63 3.95
5 -2 -3 0.04 2.39
5 -2 -3 5.4 1.97
-5 -2 3 7.22 3.74
-5 -2 3 1.76 1.66
-5 -2 3 4.31 1.55
5 -2 -3 2.45 1.9
5 -2 -3 2.31 2.2
-5 -2 3 4.55 1.64
-5 -2 3 10.27 5.64
-5 2 3 0.96 2.6
-5 2 3 3.58 1.69
-5 2 3 4.99 1.49
-5 2 3 3.42 3.63
5 2 -3 2.2 3.03
-5 2 3 -0.27 3.21
-5 2 3 3.37 4.12
-5 2 3 2.26 3.24
4 -2 -3 22.61 2.63
-4 -2 3 26.4 3.3
-4 -2 3 20.61 1.9
-4 -2 3 27.61 4.88
4 -2 -3 25.58 2.12
-4 -2 3 22.76 2.12
-4 -2 3 25.6 2.04
4 -2 -3 19.97 3.09
4 -2 -3 24.4 2.31
4 -2 -3 20.3 3.74
-4 2 3 24.16 3.52
-4 2 3 24.58 2.84
-4 2 3 21.54 1.93
-4 2 3 9.52 3.74
-4 2 3 24.47 3.28
-4 2 3 25.06 1.89
-4 2 3 23.01 3.1
-4 2 3 22.98 3.13
4 2 -3 24.65 2.98
-4 2 3 23.63 2.05
3 -2 -3 7.25 2.31
3 -2 -3 10.19 2.33
3 -2 -3 8.85 1.33
-3 -2 3 7.63 1.22
3 -2 -3 10.86 2.91
-3 -2 3 8.18 1.37
3 -2 -3 9.82 1.5
-3 -2 3 7.19 1.27
3 -2 -3 13.57 5.56
3 -2 -3 6.61 1.99
-3 -2 3 8.3 2.52
3 -2 -3 5.94 2.24
3 -2 -3 7.98 3.33
3 -2 -3 11.44 3.03
3 -2 -3 11.98 2.95
-3 -2 3 11.85 4.4
3 -2 -3 10.11 2.37
-3 -2 3 7.18 1.11
-3 2 3 3.17 2.82
-3 2 3 8 2.42
-3 2 3 7.36 1.16
-3 2 3 10.26 2.42
-3 2 3 7.25 1.23
3 2 -3 5.23 1.45
-3 2 3 7.93 1.24
3 2 -3 4.4 2.15
-3 2 3 9.08 2.63
-3 2 3 8.22 1.24
3 2 -3 4.82 5.44
-3 2 3 10.23 2.42
-3 2 3 9.09 2.48
-3 2 3 5.95 2.25
2 -2 -3 13.01 2.87
-2 -2 3 18.84 4.23
2 -2 -3 16.79 1.28
2 -2 -3 18.92 1.7
-2 -2 3 18.18 1.55
2 -2 -3 22.5 2.36
2 -2 -3 17.97 2.89
2 -2 -3 34.39 5.15
2 -2 -3 19.4 2.31
-2 -2 3 9.72 3.15
2 -2 -3 18.73 2.38
2 -2 -3 21.7 2.48
-2 -2 3 17.81 1.7
-2 -2 3 13.54 1.23
2 -2 -3 21.82 2.89
2 -2 -3 19.3 1.45
-2 -2 3 18.7 1.4
-2 2 3 6.71 3.07
-2 2 3 27.06 4.37
2 2 -3 31.15 5.11
-2 2 3 16.09 2.63
-2 2 3 17.7 3.18
-2 2 3 17.14 2.54
2 2 -3 16.73 1.3
-2 2 3 20.15 2.7
2 2 -3 19.18 1.72
2 2 -3 16.02 1.35
-2 2 3 16.63 1.36
-2 2 3 19.16 2.27
-2 2 3 18.96 2.37
-2 2 3 20.25 2.5
-2 2 3 18.28 1.39
-2 2 3 20.14 2.6
-1 -2 3 23.34 1.63
1 -2 -3 29.45 1.48
1 -2 -3 28.5 2.82
1 -2 -3 26.07 1.48
1 -2 -3 31.17 2.66
-1 -2 3 26.23 3.61
1 -2 -3 30.88 2.63
1 -2 -3 30.69 2.52
1 -2 -3 33.43 2.45
1 -2 -3 27.32 2.81
1 -2 -3 30.62 1.7
-1 2 3 30.43 2.73
-1 2 3 28.8 2.41
1 2 -3 28.47 1.46
-1 2 3 30.6 1.49
-1 2 3 29.4 1.6
-1 2 3 27.55 2.57
-1 2 3 32.38 2.45
-1 2 3 29.83 2.62
-1 2 3 27.97 2.5
-1 2 3 28.82 3.69
1 2 -3 26.46 1.39
-1 2 3 28.93 2.77
0 -2 -3 0.09 1.6
0 -2 -3 -0.12 1.53
0 -2 -3 -1.2 1.52
0 -2 -3 0.42 1.68
0 2 3 0.68 1.59
0 2 3 -0.83 1.57
0 2 -3 -2.58 1.47
0 2 -3 -0.69 0.92
0 2 3 -1.11 1.38
0 2 3 0.28 1.57
-6 -3 3 7.54 2.28
6 -3 -3 7.19 4.21
-6 -3 3 7.15 2.19
-6 -3 3 8.23 6.56
-6 3 3 5.18 3.91
-6 3 3 8.78 4.65
-6 3 3 3.4 4.46
-6 3 3 2.52 2.15
-5 -3 3 21.31 6.19
-5 -3 3 18.05 2.22
5 -3 -3 10.11 3.51
-5 -3 3 16.63 2.12
-5 -3 3 12.6 2.07
5 -3 -3 15.88 5.03
5 -3 -3 5.34 3.3
-5 3 3 10.13 4.3
-5 3 3 12.66 2.01
-5 3 3 18.1 4.59
-5 3 3 22.11 4.47
-5 3 3 13.6 4
-5 3 3 8.92 3.62
-4 -3 3 7.21 4.98
4 -3 -3 3.06 4.05
-4 -3 3 -1.79 1.37
4 -3 -3 0.9 2.9
4 -3 -3 3.72 6.47
-4 -3 3 2.81 3.45
-4 -3 3 -0.94 1.52
4 -3 -3 -2.37 2.35
4 -3 -3 1.86 1.66
4 -3 -3 2.53 2.69
4 -3 -3 -0.7 1.63
-4 -3 3 1.91 1.49
-4 3 3 -1.34 1.49
-4 3 3 -1.03 1.22
-4 3 3 6.88 3.39
-4 3 3 3.27 3.55
4 3 -3 0.24 2.1
-4 3 3 2.14 3.52
-4 3 3 0.46 3.21
-4 3 3 0.22 3.56
-4 3 3 -1.91 3.3
3 -3 -3 6.1 1.58
3 -3 -3 4.95 2.45
3 -3 -3 3.32 2.38
3 -3 -3 9.36 3
3 -3 -3 0.8 3.8
-3 -3 3 5.34 1.47
3 -3 -3 8.01 3.76
3 -3 -3 8.85 2.97
-3 -3 3 6.26 1.39
3 -3 -3 6.58 1.51
3 -3 -3 14.94 6.27
3 -3 -3 7.94 3.08
-3 -3 3 3.59 1.24
-3 -3 3 6.83 1.54
-3 -3 3 8.46 4.78
-3 3 3 6.38 1.3
-3 3 3 5.67 1.17
-3 3 3 0.56 3.73
-3 3 3 8.88 3.4
-3 3 3 5.33 3.48
-3 3 3 4.64 1.44
3 3 -3 10.49 6.35
-3 3 3 4.49 2.94
-3 3 3 1.49 2.94
-3 3 3 4.5 3.11
-3 3 3 4.75 1.3
3 3 -3 3.57 2.32
-2 -3 3 1.39 1.69
2 -3 -3 5.01 1.49
-2 -3 3 3.57 1.27
2 -3 -3 3.54 1.26
-2 -3 3 3.8 4.6
-2 -3 3 2.39 3.37
-2 -3 3 4.2 1.88
2 -3 -3 1.15 3.08
-2 -3 3 2.86 1.3
-2 -3 3 4.94 1.06
2 -3 -3 5.34 3.27
2 -3 -3 3.98 2.61
2 -3 -3 3.87 2.58
2 -3 -3 3.45 2.43
2 -3 -3 4.09 2.61
-2 -3 3 3.39 1.19
2 -3 -3 9.49 4.52
-2 3 3 4.65 2.66
-2 3 3 3.29 2.86
2 3 -3 2.88 1.12
-2 3 3 3.56 1.15
2 3 -3 12.91 4.98
-2 3 3 2.61 2.63
-2 3 3 5.2 1.15
2 3 -3 2.37 1.93
2 3 -3 3.79 1.03
-2 3 3 6.09 2.98
-2 3 3 3.58 1.07
-2 3 3 4.8 0.96
-2 3 3 1.65 2.87
-2 3 3 3.79 2.47
1 -3 -3 8.39 2.5
-1 -3 3 6.25 1.68
-1 -3 3 3.66 4.35
-1 -3 3 6.99 1.6
-1 -3 3 8.16 1.72
1 -3 -3 7.5 3.15
-1 -3 3 8.16 2.65
1 -3 -3 6.14 1.1
1 -3 -3 5.1 2.45
-1 -3 3 6.31 1.22
1 -3 -3 5.59 2.81
1 -3 -3 6.92 1.04
1 -3 -3 7.56 3.08
-1 -3 3 5.18 1.39
-1 3 3 5.76 1.04
1 3 -3 8.03 1.59
1 3 -3 5.17 0.88
-1 3 3 7.36 2.42
-1 3 3 7.51 2.61
-1 3 3 10.27 3.8
-1 3 3 5.63 2.97
1 3 -3 7.64 1.05
-1 3 3 11.83 3.09
-1 3 3 9.42 2.67
1 3 -3 9.77 2.22
-1 3 3 7.52 1.02
-1 3 3 9.73 2.63
0 -3 3 3.73 1.49
0 -3 3 5.03 1.74
0 -3 3 7.6 1.81
0 -3 -3 11.59 2.45
0 -3 -3 5.02 2.43
0 -3 -3 6.55 2.78
0 -3 3 5.3 1.73
0 -3 3 1.43 2.14
0 3 3 5.91 2.41
0 3 3 10.26 2.45
0 3 3 6.2 2.59
0 3 -3 7.11 2.39
0 3 3 6.89 1.03
0 3 3 7.56 2.65
-1 -3 -3 -2.22 1.98
1 -3 3 -6.16 2.01
1 -3 3 -1.06 1.31
1 3 3 -3.31 2.34
-1 3 -3 -1.94 2.54
1 3 3 -1.12 2.35
-5 -4 3 24.59 6.53
5 -4 -3 10.66 5.76
5 -4 -3 17.8 4.01
-5 -4 3 13.84 2.34
-5 -4 3 13.72 2.27
-5 -4 3 15.4 2.26
5 -4 -3 9.76 4.28
5 -4 -3 6.99 3.92
-5 4 3 13.32 4.95
-5 4 3 17.53 2.24
-5 4 3 19.18 5.16
4 -4 -3 29.13 5.35
-4 -4 3 49.6 3.66
-4 -4 3 53.21 3.03
4 -4 -3 53.62 4.94
-4 -4 3 49.54 4.5
4 -4 -3 52.98 4.57
-4 -4 3 52.36 3.11
4 -4 -3 72.59 8.3
4 -4 -3 48.85 5.21
-4 -4 3 49.3 3.06
-4 4 3 45.3 4.75
-4 4 3 50.23 2.91
-4 4 3 54.06 5.18
-4 4 3 51.14 5.14
-4 4 3 51.49 5.24
-4 4 3 50.52 2.74
-3 -4 3 6.87 5.05
3 -4 -3 -1.21 2.86
3 -4 -3 5.29 3.15
-3 -4 3 5.09 1.6
3 -4 -3 17.41 6.61
-3 -4 3 -6.51 2.41
3 -4 -3 6.01 5.07
3 -4 -3 4.92 1.84
-3 -4 3 3.82 1.39
-3 -4 3 4.04 1.59
3 -4 -3 7.62 4.8
-3 -4 3 4.16 1.5
-3 4 3 4.99 3.81
-3 4 3 4.79 1.33
-3 4 3 6.13 4.59
-3 4 3 8.2 4.16
-3 4 3 5.94 1.59
3 4 -3 9.15 6.72
-3 4 3 6.16 3.57
3 4 -3 3.11 2.32
-2 -4 3 1.91 4.2
2 -4 -3 3.23 3.45
2 -4 -3 -4.56 1.52
2 -4 -3 2.44 4.51
-2 -4 3 1.57 1.4
2 -4 -3 2.66 2.98
-2 -4 3 1.36 1.35
2 -4 -3 -0.37 4.21
2 -4 -3 -0.85 3.35
-2 4 3 3.03 3.57
-2 4 3 -0.04 3.97
-2 4 3 2.53 3.89
2 4 -3 2.53 1.64
-2 4 3 -1.29 3.46
2 4 -3 0.78 2.08
1 -4 -3 -0.37 3.69
1 -4 -3 10.94 4
-1 -4 3 4.1 1.35
-1 -4 3 0.81 2.09
1 -4 -3 4.05 3.34
-1 -4 3 0.68 3.3
1 -4 -3 6.74 1.39
-1 -4 3 5.55 4.47
-1 -4 3 3.76 2.03
1 -4 -3 0.13 4.23
-1 -4 3 1.27 2.4
-1 -4 3 7.03 2.38
1 -4 -3 7.22 3.39
-1 -4 3 3.21 3.9
-1 -4 3 3.82 2.28
-1 4 3 1.6 3.35
-1 4 3 3.04 3.18
1 4 -3 3.36 1.06
-1 4 3 3.04 3.38
1 4 -3 3.39 1.93
1 4 -3 3.09 2.2
-1 4 3 3.06 3.73
-1 4 3 7.06 3.23
1 4 -3 4.27 2.74
1 4 -3 4.76 1.97
0 -4 -3 -0.24 3.06
0 -4 3 0.72 2.45
0 -4 3 0.42 2.55
0 -4 -3 2.02 4.65
0 -4 3 1.74 2.37
0 -4 -3 0.71 1.1
0 -4 -3 0.27 0.93
0 -4 -3 -3.04 3.35
0 -4 -3 3.79 3.14
0 -4 3 5.6 3.11
0 -4 3 -0.14 2.12
0 -4 -3 -3.3 3.9
0 4 -3 -1.26 1.13
0 4 3 4.48 3.29
0 4 -3 2.02 2.46
0 4 3 1.72 0.75
0 4 -3 2.55 3.15
0 4 3 -0.51 3.91
0 4 -3 0.31 0.85
0 4 3 5.75 3.44
0 4 3 1.61 3.09
0 4 -3 2.98 1.92
1 -4 3 -0.66 2.17
1 -4 3 1.87 2.53
1 -4 3 -2.43 2.54
-1 -4 -3 -0.35 3.07
1 -4 3 -1.17 2.47
-1 -4 -3 -2.45 3.03
1 4 3 -1.32 3.11
1 4 3 0.91 3.29
1 4 3 -4.1 3.17
2 -4 3 1.45 1.98
-3 -5 3 0.35 1.61
3 -5 -3 5.73 5.72
3 -5 -3 1.72 3.68
3 -5 -3 7.82 6.47
3 -5 -3 -0.23 3.14
-3 -5 3 1.44 1.67
-3 -5 3 2.57 3.94
-3 -5 3 -1.2 3.42
-3 5 3 4.6 4.44
-3 5 3 -3.48 4.49
-3 5 3 2.96 4.87
-2 -5 3 0.3 1.44
2 -5 -3 1.72 3.56
-2 -5 3 0.21 1.5
2 -5 -3 -5.6 5.03
2 -5 -3 3.47 5.34
-2 -5 3 -1.2 2.95
2 -5 -3 1.51 2.94
-2 -5 3 0.03 4.12
-2 5 3 0.54 4.38
-2 5 3 2.22 4.23
-2 5 3 -4.28 4.75
1 -5 -3 1.25 2.73
1 -5 -3 2.3 5.08
1 -5 -3 0.35 4.52
1 -5 -3 -3.11 4.72
-1 -5 3 2.59 2.61
-1 -5 3 3.2 2.98
1 -5 -3 3.04 4.16
-1 -5 3 2.78 1.52
-1 -5 3 13.52 5.31
-1 -5 3 1.44 1.4
-1 5 3 1.91 4.77
-1 5 3 5.41 3.92
1 5 -3 8.21 3.55
0 -5 3 8.67 2.97
0 -5 -3 16.15 5.41
0 -5 -3 17.55 5.5
0 -5 -3 5.55 4.69
0 -5 -3 12.52 4.2
0 5 3 3.82 4.86
0 5 3 5.46 4.13
0 5 -3 9.7 3.9
-1 -5 -3 -4.92 5.06
-1 -5 -3 -10.51 6.09
1 -5 3 3.93 3.66
-1 -5 -3 -0.08 3.89
-1 -5 -3 -4.34 4.12
1 5 3 -9.12 5.03
1 5 3 -0.77 3.9
2 -5 3 -0.28 2.85
7 0 -4 -0.43 3.5
-7 0 4 -2.41 2.25
-7 0 4 0.12 2.04
-7 0 4 8.29 6.04
-6 0 4 9.97 2.07
-6 0 4 14.53 2.22
6 0 -4 3.43 2.82
6 0 -4 3.77 3.2
-6 0 4 12.05 2.17
-6 0 4 6.91 3.6
-6 0 4 5.75 5.07
-5 0 4 -3.09 3.45
-5 0 4 -0.43 1.67
5 0 -4 0.39 1.9
-5 0 4 -0.54 5.08
-5 0 4 -1.71 2.94
-5 0 4 0.98 1.57
-5 0 4 -1.14 1.43
5 0 -4 -0.77 1.43
5 0 -4 1.01 1.95
5 0 -4 0.62 2.93
5 0 -4 -4.08 2.67
-5 0 4 -1.77 2.85
-5 0 4 0.33 1.31
-4 0 4 0.63 2.5
4 0 -4 0.44 1.44
4 0 -4 1.87 1.44
-4 0 4 -0.41 1.54
-4 0 4 -0.1 1.22
-4 0 4 1.5 1.85
4 0 -4 1.46 1.65
-4 0 4 0.8 1.53
-4 0 4 0.48 4.19
4 0 -4 -0.27 2.13
-4 0 4 0.49 1.26
-4 0 4 4.53 2.02
-4 0 4 3.4 2.5
-4 0 4 0.71 1.31
4 0 -4 0.06 2.81
4 0 -4 2.11 2.41
4 0 -4 3.39 1.83
-4 0 4 -2.64 1.87
4 0 -4 -1.41 1.79
-4 0 4 1 1.83
-4 0 4 5.9 2.32
3 0 -4 -1 1.15
-3 0 4 0.68 1.65
3 0 -4 -0.37 1.03
-3 0 4 1.96 1.63
3 0 -4 3.15 1.9
-3 0 4 -0.15 3.05
-3 0 4 -0.01 1.19
3 0 -4 1.23 1.47
-3 0 4 -1.96 1.71
-3 0 4 -2.45 3.96
-3 0 4 2.81 1.7
3 0 -4 -0.22 2.46
3 0 -4 0.98 1.54
-3 0 4 1.09 1.39
3 0 -4 6.2 5.21
-3 0 4 -2.5 1.6
-3 0 4 -1 1.1
-3 0 4 -0.45 0.9
-3 0 4 -0.58 1.08
3 0 -4 -0.31 1.4
-3 0 4 -2.64 1.58
2 0 -4 11.97 1.31
2 0 -4 10.02 1.38
-2 0 4 5.65 4.27
2 0 -4 10.6 1.36
2 0 -4 11.56 1.55
-2 0 4 11.61 1.64
2 0 -4 10.74 1.15
2 0 -4 18.28 4.33
2 0 -4 10.52 1.68
-2 0 4 10.78 1.36
-2 0 4 9.96 1.59
-2 0 4 11.13 1.4
-2 0 4 9.35 1.32
-2 0 4 9.33 1.15
2 0 -4 10.96 1.16
-2 0 4 9.78 1.34
-2 0 4 11.47 1.1
-2 0 4 12.27 1.44
2 0 -4 12.74 1.24
1 0 -4 -1.37 0.89
1 0 -4 -0.6 1
-1 0 4 -0.89 1.04
-7 -1 4 8.16 2.27
-7 -1 4 3.97 2.39
-7 -1 4 4.78 2.27
-7 -1 4 10.18 7.13
7 -1 -4 2.37 3.7
-7 1 4 4.71 2.33
-7 1 4 8.5 6.34
-7 1 4 7.9 2.4
7 1 -4 4.84 4.41
6 -1 -4 9.16 2.42
-6 -1 4 13.09 4.86
6 -1 -4 2.65 3.15
-6 -1 4 10.08 6.14
-6 -1 4 8.32 2.02
-6 -1 4 10.74 2.18
6 -1 -4 13.88 2.65
-6 -1 4 7.44 2.09
-6 1 4 12.58 2.18
6 1 -4 3.4 3.55
-6 1 4 4.66 4.96
-6 1 4 8.16 2.15
-6 1 4 9.48 2.05
-5 -1 4 0.62 3.54
5 -1 -4 1.81 2.71
-5 -1 4 2.28 1.68
5 -1 -4 -0.92 3.4
5 -1 -4 1.85 1.96
-5 -1 4 1.24 4.72
5 -1 -4 4.15 1.87
-5 -1 4 0.73 1.53
-5 -1 4 0.65 1.5
5 -1 -4 -1.81 2.06
-5 -1 4 -2.1 2.52
-5 1 4 -0.11 1.64
-5 1 4 1.55 1.55
-5 1 4 1.8 1.64
-5 1 4 1.86 2.88
5 1 -4 -3.39 2.21
-5 1 4 2.15 2.81
-5 1 4 3.66 4.56
-5 1 4 -1.04 2.26
5 1 -4 2.89 2.83
-5 1 4 0.89 3.17
4 -1 -4 21.4 3.33
-4 -1 4 20.76 2.06
4 -1 -4 31.48 3.34
4 -1 -4 22.52 2.33
4 -1 -4 22.59 2.11
4 -1 -4 21.76 3.08
4 -1 -4 27.27 2.83
-4 -1 4 21.6 1.93
-4 -1 4 22.71 2.1
-4 -1 4 24.08 1.91
-4 -1 4 25.86 2.36
-4 -1 4 22.32 3.06
4 -1 -4 25.2 2.32
-4 -1 4 27.04 5.34
4 -1 -4 23.21 3.19
-4 1 4 25.49 2.89
-4 1 4 23.65 1.96
-4 1 4 23.11 2.1
-4 1 4 25.59 1.96
-4 1 4 22.24 2.77
-4 1 4 29.63 3.56
4 1 -4 25.94 2.15
-4 1 4 25.77 3.03
-4 1 4 12.22 3.87
-4 1 4 26.08 2.75
4 1 -4 22.65 3.16
-4 1 4 23.87 2.57
-4 1 4 25.25 2.93
4 1 -4 19.49 2.15
-3 -1 4 142.61 4.7
-3 -1 4 146.33 8.16
3 -1 -4 141.33 8.31
3 -1 -4 138.81 5.06
3 -1 -4 133.42 7.09
3 -1 -4 152.2 4.91
-3 -1 4 148.53 4.29
3 -1 -4 146.46 4.97
3 -1 -4 144.07 4.34
3 -1 -4 140.87 5.75
3 -1 -4 145.5 5.97
-3 -1 4 138.38 7.24
3 -1 -4 139.15 7.02
-3 -1 4 143.57 4.75
-3 -1 4 146 5.05
3 -1 -4 138.88 4.87
-3 -1 4 140.2 4.17
-3 1 4 145.88 5.8
-3 1 4 140.81 5.23
-3 1 4 141.01 4.92
3 1 -4 142.84 7.03
-3 1 4 138.8 8.05
-3 1 4 141.49 7.16
-3 1 4 138.97 4.62
-3 1 4 139.44 5.03
-3 1 4 136.51 5.42
-3 1 4 142.02 5.44
3 1 -4 140.43 4.28
-3 1 4 142.74 7.25
3 1 -4 144.83 8.41
-3 1 4 145.15 5.7
3 1 -4 141.46 5.03
-3 1 4 144.49 4.28
3 1 -4 130.21 6.28
-3 1 4 144.93 4.19
-3 1 4 132.91 5.48
2 -1 -4 2.45 0.9
-2 -1 4 4.23 0.95
2 -1 -4 2.94 1.12
2 -1 -4 3.35 1.64
-2 -1 4 0.47 4.53
2 -1 -4 2.03 1.54
2 -1 -4 0.86 1.93
2 -1 -4 3.16 1.57
2 -1 -4 2.64 0.94
2 -1 -4 0.81 1.72
-2 -1 4 4.03 1.17
2 -1 -4 5.09 4.05
-2 -1 4 2.12 0.97
-2 -1 4 1.58 1.01
2 -1 -4 1.58 1.51
-2 1 4 2.09 1.61
2 1 -4 3.02 0.95
-2 1 4 2.95 1.6
2 1 -4 1.82 1.92
-2 1 4 3.99 1.73
-2 1 4 3.76 1.06
-2 1 4 0.59 4.15
2 1 -4 2.54 1.1
-2 1 4 1 1.92
-2 1 4 4.06 1.6
2 1 -4 7.34 4.23
-2 1 4 4.51 1.17
-2 1 4 4.3 1.06
-2 1 4 3.89 1.66
2 1 -4 2.13 0.91
-2 1 4 3.04 1.62
-2 1 4 2.52 0.81
1 -1 -4 7.26 1.65
1 -1 -4 5.31 1.6
1 -1 -4 4.92 1.53
-1 1 4 2.3 0.88
-1 1 4 7.85 1.66
-1 1 4 6.7 1.46
-1 1 4 6.08 1.52
-1 1 4 6.15 1.49
-7 -2 4 5.37 2.31
-7 -2 4 1.58 6.36
-7 -2 4 7.69 2.27
7 -2 -4 3.63 3.95
-7 -2 4 0.87 2.29
-7 2 4 4.09 2.34
-7 2 4 8.16 6.55
-6 -2 4 0.01 1.91
6 -2 -4 1.65 3.15
-6 -2 4 1.01 2.02
6 -2 -4 0.27 2.29
-6 -2 4 1.05 1.88
-6 -2 4 -0.76 5.95
-6 2 4 1.01 3.87
-6 2 4 -0.8 1.95
6 2 -4 0.41 3.42
-6 2 4 2.61 4.33
-6 2 4 -1 1.66
-6 2 4 5.38 4.04
-5 -2 4 -3.52 3.46
5 -2 -4 0.22 2.4
5 -2 -4 -0.8 2.55
5 -2 -4 2.77 2.16
5 -2 -4 -5.76 4.07
-5 -2 4 1.86 1.75
-5 -2 4 0.16 1.68
5 -2 -4 1.37 2.78
-5 -2 4 -0.55 1.58
-5 -2 4 -3.17 5.72
5 -2 -4 1.5 1.88
-5 2 4 -0.1 3.51
5 2 -4 -0.65 3.18
-5 2 4 0.92 1.8
-5 2 4 3.02 1.54
-5 2 4 -1.42 3.29
-5 2 4 1.76 4.05
-5 2 4 7.15 3.35
-5 2 4 3.11 3.52
-5 2 4 -1.35 1.49
-5 2 4 -2.69 2.86
4 -2 -4 24.97 2.41
4 -2 -4 23.22 2.69
4 -2 -4 22.87 3.44
4 -2 -4 24.82 3.82
-4 -2 4 22.08 3.14
-4 -2 4 25.94 2.32
4 -2 -4 33.61 4.65
4 -2 -4 40.38 5.79
-4 -2 4 23.44 2.25
4 -2 -4 22.2 2.19
-4 -2 4 31.32 5.77
-4 2 4 26.48 3.36
-4 2 4 24.8 2.02
-4 2 4 24.36 2.2
-4 2 4 25.87 3.57
-4 2 4 23.72 3.66
-4 2 4 9.34 4.04
-4 2 4 24.73 2.17
-4 2 4 26.82 3.41
-4 2 4 27.58 3.34
3 -2 -4 49.24 2.64
-3 -2 4 45.37 5.58
3 -2 -4 51.26 3
3 -2 -4 49.3 4.29
-3 -2 4 47.52 2.45
-3 -2 4 55.55 2.92
3 -2 -4 55.36 5.78
-3 -2 4 48.22 4.17
3 -2 -4 54.44 4.09
-3 -2 4 53.55 2.6
3 -2 -4 53.67 3.7
3 -2 -4 49.83 4.29
-3 -2 4 54.92 2.68
3 -2 -4 48.19 3.89
-3 2 4 52.43 2.68
-3 2 4 53.96 2.47
3 2 -4 48.06 3.84
-3 2 4 48.2 3.7
3 2 -4 50.65 2.4
3 2 -4 50.76 6.01
-3 2 4 49.08 4.08
-3 2 4 48.4 3.61
-3 2 4 50.75 2.56
-3 2 4 50.71 2.41
3 2 -4 52.11 2.54
-3 2 4 54.06 4.13
-3 2 4 60.05 5.13
-3 2 4 54.53 7.45
-3 2 4 54.26 4.28
2 -2 -4 34.87 2.26
2 -2 -4 36.66 3.02
2 -2 -4 36.65 4.63
-2 -2 4 33.23 1.92
2 -2 -4 35.52 3.12
-2 -2 4 35.36 5.17
-2 -2 4 33.16 1.92
2 -2 -4 32.51 3.01
2 -2 -4 36.03 2.07
2 -2 -4 35.69 3.22
-2 -2 4 35.06 2.31
2 -2 -4 33.93 1.91
2 -2 -4 34.01 3.57
2 -2 -4 36.05 3.28
-2 2 4 36.4 2.02
-2 2 4 34.15 1.95
-2 2 4 31.5 2.93
-2 2 4 31.85 3.36
2 2 -4 31.33 1.88
-2 2 4 32.67 2.89
-2 2 4 31.44 2.09
2 2 -4 37.46 4.79
-2 2 4 30.29 3.01
-2 2 4 34.97 3.42
-2 2 4 32.26 1.85
2 2 -4 34 3.11
2 2 -4 33.1 1.88
-2 2 4 33.68 3.41
-2 2 4 33.38 2.86
1 -2 -4 54.53 4.85
1 -2 -4 67.78 3.5
1 -2 -4 64.31 2.47
1 -2 -4 66.68 3.94
1 -2 -4 65.61 2.39
1 -2 -4 65.23 3.41
1 -2 -4 65.57 3.97
-1 2 4 56.04 5.21
-1 2 4 62.13 3.57
-1 2 4 68.76 3.94
-1 2 4 67.38 3.51
-1 2 4 62.37 3.72
-1 2 4 64.86 2.7
1 2 -4 64.37 2.33
0 2 4 43.73 3.18
0 2 4 42.83 3.35
-6 -3 4 5.77 2.26
-6 -3 4 0.46 2.26
6 -3 -4 3.92 5.61
6 -3 -4 0.5 2.88
-6 -3 4 2.47 2.1
-6 -3 4 3.8 6.24
6 -3 -4 -1.57 3.59
-6 3 4 -0.36 4.57
-6 3 4 2.85 4.51
-6 3 4 2.25 5.76
-6 3 4 -0.62 2.18
5 -3 -4 1.68 3.07
5 -3 -4 -2.39 3.23
5 -3 -4 -1.55 4.84
-5 -3 4 0.53 1.92
-5 -3 4 4.37 6.13
5 -3 -4 6.35 3.35
-5 -3 4 1.26 1.68
-5 -3 4 0.7 1.92
-5 3 4 10.7 4.12
-5 3 4 -2.92 4.6
-5 3 4 3.39 1.93
-5 3 4 7.01 4.37
-5 3 4 -0.21 4.01
4 -3 -4 15.97 3.04
-4 -3 4 14.99 5.62
-4 -3 4 17.98 2.09
-4 -3 4 16.91 2.12
4 -3 -4 19.51 4.62
4 -3 -4 12.05 4.12
4 -3 -4 24.82 5.86
4 -3 -4 14.89 2.27
-4 -3 4 15.94 2.07
4 -3 -4 13.51 3.61
-4 3 4 10.9 1.88
-4 3 4 22.36 3.91
-4 3 4 23.58 4.45
-4 3 4 16.55 3.99
4 3 -4 7.29 2.9
-4 3 4 5.09 3.87
-4 3 4 19.27 4.25
-4 3 4 9.23 1.36
-4 3 4 16.65 3.71
3 -3 -4 8.19 2.02
3 -3 -4 9.46 2.82
-3 -3 4 5.32 6.41
3 -3 -4 7.97 3.84
-3 -3 4 10.9 1.74
3 -3 -4 10.01 3.39
-3 -3 4 4.31 1.41
-3 -3 4 8.28 1.76
3 -3 -4 10.24 1.89
-3 -3 4 5.95 4.01
3 -3 -4 20.78 6.6
-3 -3 4 4.55 1.61
3 -3 -4 11.37 4.15
-3 3 4 12.57 3.83
-3 3 4 9.16 3.35
3 3 -4 17.66 7.01
3 3 -4 4.22 2.78
-3 3 4 10.08 3.48
-3 3 4 3.39 3.73
3 3 -4 7.86 1.7
-3 3 4 6.88 3.32
-3 3 4 9 1.73
-3 3 4 7.96 1.44
-3 3 4 8 1.43
-3 3 4 8.48 1.5
2 -3 -4 0.19 3.6
2 -3 -4 1.13 1.21
2 -3 -4 1.71 1.25
-2 -3 4 -0.9 1.31
2 -3 -4 0.44 3.25
2 -3 -4 1.1 1.49
2 -3 -4 -0.43 2.78
2 -3 -4 2.39 3.04
-2 -3 4 -3.36 3.84
-2 -3 4 0.93 5.34
-2 3 4 4.13 3.06
-2 3 4 1.5 1.09
-2 3 4 -0.65 5.02
2 3 -4 -0.48 1.12
-2 3 4 -0.18 3.41
-2 3 4 0.08 1.15
-2 3 4 2.97 2.72
-2 3 4 2.98 2.89
2 3 -4 0.11 1.19
-2 3 4 -1.72 2.79
-2 3 4 0.9 1.17
-2 3 4 2.36 3.23
2 3 -4 -0.08 2.54
-1 -3 4 -1.76 1.54
-1 -3 4 -5.19 4.84
1 -3 -4 2.74 3.43
-1 -3 4 2.31 1.63
1 -3 -4 0.87 2.53
1 -3 -4 2.01 2.86
1 -3 -4 -0.21 2.48
1 -3 -4 0.6 1.23
1 -3 -4 2.07 1.14
-1 -3 4 1.08 1.54
1 -3 -4 2.25 3.33
-1 3 4 2.02 3.35
-1 3 4 0.23 2.72
-1 3 4 -1.7 5.03
-1 3 4 4.21 2.77
1 3 -4 1.77 2.31
1 3 -4 0.66 0.94
-1 3 4 1.77 2.75
-1 3 4 0.05 1.15
-1 3 4 -0.3 1.13
-1 3 4 1.68 2.62
1 3 -4 1.04 1.21
1 3 -4 -1.92 1.45
0 -3 4 14.62 1.79
0 -3 4 10.18 2.29
0 -3 -4 6.42 2.94
0 -3 -4 16.13 3.1
0 -3 -4 17.63 3.1
0 3 4 12.57 2.88
0 3 -4 21.02 2.83
0 3 4 15.21 3.03
5 -4 -4 4.46 3.56
5 -4 -4 9.85 3.85
-5 -4 4 7.01 2.26
-5 -4 4 14.04 7.31
5 -4 -4 14.8 5.87
-5 -4 4 11.66 2.63
-5 -4 4 11.97 2.21
5 -4 -4 9.19 4.28
-5 4 4 8.72 4.89
-5 4 4 7.01 2.29
-5 4 4 14.53 5.11
-5 4 4 2.03 4.31
-5 4 4 13.84 5.02
4 -4 -4 3.81 3.24
-4 -4 4 8.44 2.12
-4 -4 4 18.01 6.76
-4 -4 4 10.89 2.13
4 -4 -4 14.16 3.72
-4 -4 4 10.68 2.22
4 -4 -4 15.9 6.32
4 -4 -4 10.91 5.28
-4 4 4 5.67 4.84
-4 4 4 12.93 2.26
-4 4 4 10.28 4.85
-4 4 4 5.73 4.56
-4 4 4 9.65 4.36
3 -4 -4 16.32 5.2
-3 -4 4 10.65 1.9
-3 -4 4 12.89 1.86
3 -4 -4 27.82 7.39
-3 -4 4 20.3 5.81
3 -4 -4 12.48 3.44
-3 -4 4 16.07 2.58
-3 -4 4 15.11 2.03
3 -4 -4 15.81 5.18
3 -4 -4 18.48 4.29
-3 -4 4 10.44 1.98
-3 4 4 17.54 4.42
-3 4 4 4.6 4.2
-3 4 4 14.21 4.66
-3 4 4 12.59 4.39
-3 4 4 14.3 1.73
-3 4 4 12.87 1.91
2 -4 -4 -0.33 4.5
-2 -4 4 1.49 4.64
-2 -4 4 0.26 1.65
-2 -4 4 0.67 1.78
2 -4 -4 2.43 1.96
2 -4 -4 1.62 3.08
-2 -4 4 2.87 3.57
-2 -4 4 3.28 2.24
-2 -4 4 0.48 1.54
2 -4 -4 1.21 3.56
2 -4 -4 -1.68 1.62
2 -4 -4 2.93 3.82
2 -4 -4 -3.05 4.26
-2 -4 4 2.38 5.96
-2 4 4 3.04 3.76
-2 4 4 -0.2 3.4
-2 4 4 0.87 1.29
-2 4 4 -0.27 4.15
2 4 -4 0.03 2.72
-2 4 4 0.25 1.31
2 4 -4 1.76 1.35
-2 4 4 3.04 3.82
-2 4 4 -2.14 4.14
1 -4 -4 6.4 3.53
-1 -4 4 0.41 1.99
-1 -4 4 4.36 2.27
-1 -4 4 3.58 2.38
1 -4 -4 1.38 1.32
-1 -4 4 -2.82 5.57
1 -4 -4 0.87 1.24
1 -4 -4 1.42 4.07
1 -4 -4 3.29 4.43
1 -4 -4 1.28 3.36
1 -4 -4 3.52 4.6
-1 -4 4 1.2 2.37
-1 4 4 0 3.45
-1 4 4 1.49 1.18
-1 4 4 -4.98 3
-1 4 4 -3.41 3.63
-1 4 4 2.81 3.95
1 4 -4 1.58 2.77
1 4 -4 0.39 1.34
-1 4 4 1.66 1.17
1 4 -4 3.33 2.13
1 4 -4 -0.26 1.14
-1 4 4 -1.33 4.12
0 -4 -4 -19.31 5.45
0 -4 4 0.73 3.1
0 -4 4 1.5 2.46
0 -4 -4 5.66 3.53
0 -4 4 4.82 2.52
0 -4 -4 5.69 3.93
0 -4 -4 -5.1 3.56
0 -4 4 -0.24 2.6
0 -4 -4 -8.05 4.6
0 4 4 0.47 3.32
0 4 4 4.28 1.32
0 4 -4 2.46 2.68
0 4 4 6.17 3.69
0 4 4 1.43 3.69
0 4 4 4.25 1.28
0 4 -4 0.38 3.39
1 -4 4 11.95 2.62
-1 -4 -4 -2.59 3.13
-1 4 -4 10.75 3.99
-2 -5 4 1.26 2.45
2 -5 -4 2.37 4.21
-2 -5 4 -3.16 5.03
-2 -5 4 1.37 1.76
2 -5 -4 -0.13 5.28
2 -5 -4 1.56 5.8
2 -5 -4 -0.39 3.67
-2 -5 4 3.53 1.85
-2 5 4 5.82 5.12
-2 5 4 -2.97 4.49
-2 5 4 -4.47 4.47
-1 -5 4 2.22 2.71
1 -5 -4 2.88 4.49
1 -5 -4 4.54 5.17
1 -5 -4 0.25 5.71
-1 -5 4 -1.54 1.67
1 -5 -4 -1.04 5.07
-1 5 4 -2.84 4.15
-1 5 4 2.04 4.97
-1 5 4 -1.24 4.54
-1 5 4 1.29 4.51
0 -5 -4 22.23 5.77
0 -5 4 13.14 3.42
0 -5 -4 10.69 4.53
0 -5 -4 10.22 4.97
0 -5 -4 16.25 5.85
0 5 4 9.58 5.39
0 5 4 11.89 4.52
1 -5 4 7.28 3.07
-1 -5 -4 -2.1 3.93
1 5 4 2.55 4.17
-7 0 5 1.9 2.15
7 0 -5 3.55 4.09
-7 0 5 -2.95 6.55
-7 0 5 7.69 2.44
-7 0 5 3.05 2.43
6 0 -5 1.51 3.54
6 0 -5 1.37 2.11
-6 0 5 -0.23 1.88
-6 0 5 3.53 4.06
-6 0 5 -0.12 1.78
-6 0 5 3.55 5.54
6 0 -5 -2.57 2.97
6 0 -5 1.27 3.06
-6 0 5 1.52 2.07
-6 0 5 -2.17 3.14
-5 0 5 -0.73 2.47
-5 0 5 -2.08 4.48
-5 0 5 -0.58 2.64
5 0 -5 -1.66 3.7
-5 0 5 -0.69 1.61
5 0 -5 0.53 2.43
-5 0 5 -3.2 2.21
-5 0 5 -0.98 1.62
5 0 -5 -0.3 2.33
-5 0 5 0.76 2.48
-5 0 5 0.89 1.7
-5 0 5 -0.05 3.19
5 0 -5 7.27 2.94
4 0 -5 -1.02 1.67
-4 0 5 0.93 2.18
4 0 -5 0.11 3.15
-4 0 5 -0.22 2
4 0 -5 0.32 2.63
-4 0 5 1.16 1.2
-4 0 5 -0.83 2.07
4 0 -5 1.28 1.79
4 0 -5 -4.41 1.82
-4 0 5 0.86 1.44
-4 0 5 1.14 5.97
-4 0 5 0.17 2.28
-4 0 5 -1.58 2.06
-4 0 5 0.58 2.06
-4 0 5 0.88 1.48
-4 0 5 0.11 1.96
4 0 -5 -2.1 1.34
-4 0 5 -1.11 3.99
-3 0 5 1.25 1.75
-3 0 5 4.45 1.72
3 0 -5 1.35 2.65
-3 0 5 1.67 2.06
3 0 -5 3.65 1.72
-3 0 5 1.72 1.46
3 0 -5 1.54 1.32
-3 0 5 1.87 1.41
-3 0 5 0.46 1.39
3 0 -5 0.74 2.65
-3 0 5 1.52 3.98
3 0 -5 0.58 1.24
-3 0 5 0.23 4.9
-3 0 5 0.99 1.78
3 0 -5 1.77 1.47
3 0 -5 1.91 2.2
-3 0 5 1.52 1.75
-3 0 5 5.17 1.87
-2 0 5 0.96 1.2
-2 0 5 0.31 1.56
2 0 -5 -1.05 1.6
-2 0 5 1.25 1.23
2 0 -5 0.81 4.64
-2 0 5 0.81 1.6
2 0 -5 -0.33 0.92
-2 0 5 -0.32 1
2 0 -5 -0.37 1.51
2 0 -5 0.08 1.43
2 0 -5 0.62 1.27
-2 0 5 -6.08 4.81
-2 0 5 1.71 1.45
-2 0 5 -0.78 1.33
1 0 -5 -0.67 1.27
-7 -1 5 -1.63 2.35
-7 -1 5 2.33 2.1
-7 -1 5 2.79 5.99
-7 -1 5 3.26 2.37
7 -1 -5 3.46 4.06
-7 1 5 4.31 2.46
-7 1 5 -2.41 2.03
7 1 -5 2.01 3.63
-7 1 5 1.27 2.19
-7 1 5 2.35 6.18
-6 -1 5 17.21 5.25
-6 -1 5 14.35 2.45
-6 -1 5 12.12 2.37
-6 -1 5 12.15 6.71
-6 -1 5 9.61 2.23
6 -1 -5 20.73 2.96
6 -1 -5 13.65 2.7
6 -1 -5 3.28 3.39
-6 1 5 17.84 2.52
-6 1 5 14.49 3.72
-6 1 5 10.56 2.2
6 1 -5 3.71 3.4
-6 1 5 23.73 3.92
-6 1 5 5.12 5.39
-6 1 5 13.16 2.33
-5 -1 5 5.67 2.85
-5 -1 5 2.61 2.73
5 -1 -5 2.48 3.7
-5 -1 5 2.9 5.53
-5 1 5 4.51 3.26
-5 1 5 0.98 2.88
-5 1 5 3.19 2.85
5 1 -5 4.45 2.37
-5 1 5 2.77 3.03
-5 1 5 -1.25 2.9
4 -1 -5 11.33 3.26
-4 -1 5 6.85 1.75
-4 -1 5 5.18 1.54
-4 -1 5 11.79 6.72
4 -1 -5 10.11 2.13
4 -1 -5 8.66 2.54
-4 -1 5 7.43 1.76
4 -1 -5 9 2.04
-4 -1 5 11.52 1.83
-4 -1 5 12.98 1.8
-4 -1 5 6.85 1.99
4 -1 -5 8.43 2.59
-4 -1 5 9.29 1.97
4 -1 -5 13.44 3.83
4 -1 -5 11.1 2.13
-4 -1 5 7.76 5.04
-4 1 5 11.33 1.85
-4 1 5 10.6 2.66
-4 1 5 27.23 10.87
4 1 -5 13.99 4.2
4 1 -5 10.79 1.59
-4 1 5 5.13 1.65
-4 1 5 8.21 2.72
-4 1 5 7.4 2.77
-4 1 5 10.7 1.74
4 1 -5 9.41 1.91
-4 1 5 1.08 3.52
-4 1 5 14.22 2.87
4 1 -5 7.94 1.51
-4 1 5 10.94 3.2
-4 1 5 9.83 2.98
3 -1 -5 213.08 6.69
3 -1 -5 208.35 6.12
3 -1 -5 212.8 7.18
-3 -1 5 208.19 6.74
3 -1 -5 197.52 9.94
-3 -1 5 219.09 10.25
-3 -1 5 209.76 5.83
-3 -1 5 207.86 11.18
3 -1 -5 214.85 7.78
-3 -1 5 214.31 7.19
-3 -1 5 213.94 6.4
3 -1 -5 210.06 7.93
3 -1 -5 213.82 7.88
-3 -1 5 218.59 9.39
3 -1 -5 227.66 6.92
-3 -1 5 206.89 6.73
-3 1 5 215.6 7.77
3 1 -5 235.8 7.33
-3 1 5 232.82 10.28
-3 1 5 219.63 6.72
-3 1 5 220.24 8
3 1 -5 212.42 6.13
-3 1 5 217.16 10.15
-3 1 5 211.39 7.5
3 1 -5 218.12 10.05
-3 1 5 208.76 7.22
-3 1 5 215.96 6.93
-3 1 5 222.71 5.87
-3 1 5 212.18 7.08
-3 1 5 212.49 6.89
-3 1 5 216 10.93
-2 -1 5 9.93 1.59
-2 -1 5 5.98 5.3
2 -1 -5 11.88 1.38
2 -1 -5 14.37 2.69
-2 -1 5 12.65 1.72
-2 -1 5 13.06 1.25
2 -1 -5 14.13 2.26
2 -1 -5 11.34 1.67
-2 -1 5 10.87 1.5
2 -1 -5 13.42 2.1
2 -1 -5 10.21 2.13
2 -1 -5 11.47 2.36
2 -1 -5 11.62 5.3
-2 1 5 10.71 1.65
-2 1 5 10.4 2.61
-2 1 5 3.57 5.15
-2 1 5 11.7 1.36
2 1 -5 23.93 5.59
2 1 -5 10.09 1.25
-2 1 5 11.68 2.13
-2 1 5 9.98 2.07
2 1 -5 13.13 1.36
-2 1 5 12.35 2.22
-2 1 5 12.81 1.55
-2 1 5 12.08 2.17
-2 1 5 11.62 2.34
1 -1 -5 2.44 1.77
1 -1 -5 -0.94 1.86
-1 1 5 2.35 2.06
-1 1 5 4.26 1.99
6 -2 -5 0.12 3.15
6 -2 -5 1.16 3.52
-6 -2 5 0.02 6.78
-6 -2 5 0.85 2
-6 -2 5 1.98 2.21
-6 -2 5 2.44 2.2
6 -2 -5 -2.39 5.1
-6 2 5 0.02 3.99
-6 2 5 -0.64 4.92
-6 2 5 2.17 2.17
-6 2 5 2.72 4.18
5 -2 -5 -0.88 2.7
5 -2 -5 1.27 2.72
5 -2 -5 1.1 4.41
-5 -2 5 4.4 2.23
-5 -2 5 4.9 2.03
5 -2 -5 3.32 2.31
5 -2 -5 -8.66 4.31
-5 -2 5 5.37 2.15
-5 -2 5 7.23 6.66
-5 2 5 1.74 1.83
-5 2 5 0.53 1.7
-5 2 5 -3.44 3.74
-5 2 5 0.42 2.12
-5 2 5 0.13 4.41
-5 2 5 -1.43 3.57
5 2 -5 2.28 3.4
-5 2 5 0.12 3.46
5 2 -5 0.99 1.67
4 -2 -5 2.2 2.67
4 -2 -5 -4.1 3.82
-4 -2 5 0.25 1.66
-4 -2 5 0.62 1.51
-4 -2 5 10.01 9.49
4 -2 -5 -2.48 3.71
4 -2 -5 0.52 1.92
4 -2 -5 0.57 1.75
4 -2 -5 -1.34 2.66
-4 -2 5 -0.8 5.67
-4 -2 5 0.22 1.61
4 -2 -5 2.89 4.62
-4 2 5 10.06 3.67
4 2 -5 0.83 1.32
-4 2 5 5.05 3.58
-4 2 5 -0.01 1.52
4 2 -5 -0.93 3.54
-4 2 5 4.33 3.25
-4 2 5 7.56 3.79
-4 2 5 0.47 1.37
-4 2 5 -1.69 3.85
-4 2 5 3.32 2.07
-4 2 5 19.65 11.61
-4 2 5 10.01 4
4 2 -5 2.23 2
3 -2 -5 22.71 2.05
-3 -2 5 22.92 2.11
3 -2 -5 26.41 2.84
3 -2 -5 25.33 3.88
-3 -2 5 26.15 2.45
-3 -2 5 28.39 2.12
3 -2 -5 32.5 4.5
3 -2 -5 27.75 3.65
-3 -2 5 29.58 6.43
3 -2 -5 26.34 2.4
3 -2 -5 33.88 3.67
-3 2 5 24.31 2.07
-3 2 5 21.14 5.91
-3 2 5 26.22 2.09
-3 2 5 30.07 3.25
3 2 -5 23.67 3.04
-3 2 5 27.69 3.51
-3 2 5 23 2.1
-3 2 5 22.87 3.18
-3 2 5 25.1 3.74
-3 2 5 28.11 3.33
3 2 -5 21.73 1.84
-2 -2 5 7.82 1.6
2 -2 -5 8.73 1.58
2 -2 -5 8.51 3.26
2 -2 -5 7.59 2.92
2 -2 -5 5.9 1.63
2 -2 -5 5.78 2.57
2 -2 -5 8.93 2.94
-2 -2 5 3.4 5.67
-2 2 5 6.51 2.58
-2 2 5 7.44 3.1
-2 2 5 4.16 5.25
2 2 -5 9.45 2.89
-2 2 5 12.68 2.81
-2 2 5 7.86 1.39
-2 2 5 4.57 2.62
2 2 -5 7.28 1.28
-2 2 5 8.81 2.59
-2 2 5 7.48 1.59
1 -2 -5 3.42 2.39
1 -2 -5 1.22 2.45
-1 2 5 4.7 2.44
-1 2 5 2.49 2.42
-1 2 5 4.2 2.36
-6 -3 5 11.9 2.76
-6 -3 5 17.38 2.72
6 -3 -5 15.15 4.49
-6 -3 5 16.74 7.41
6 -3 -5 3.72 4.03
6 -3 -5 15.66 5.96
-6 -3 5 16.12 2.73
-6 3 5 5.26 4.58
-6 3 5 23.75 5.37
-6 3 5 27.3 5.23
-6 3 5 7.87 2.42
-5 -3 5 0.75 6.95
-5 -3 5 -0.67 2.45
5 -3 -5 -1.57 5.01
5 -3 -5 -0.15 3.3
-5 -3 5 -0.14 2.01
-5 -3 5 -2.31 1.76
5 -3 -5 1.68 3.23
-5 3 5 0.97 4.34
-5 3 5 0.18 4.05
-5 3 5 6.92 4.18
-5 3 5 -0.37 1.86
-5 3 5 0.28 4.83
-4 -3 5 0.39 1.78
-4 -3 5 1.01 2
4 -3 -5 -1.09 5.06
-4 -3 5 9.39 8.13
-4 -3 5 3.75 5.79
4 -3 -5 6.22 4.71
-4 -3 5 -1.09 1.9
4 -3 -5 1.06 4.03
4 -3 -5 0.71 2.9
-4 3 5 -0.82 3.82
-4 3 5 7.45 4.39
-4 3 5 3.59 3.98
-4 3 5 1.44 3.66
-4 3 5 -1.53 1.9
4 3 -5 -0.41 2.3
-4 3 5 -1.25 4.2
3 -3 -5 -0.03 4.2
3 -3 -5 4.62 3.61
-3 -3 5 4.43 1.83
3 -3 -5 2.06 1.73
-3 -3 5 3.74 1.85
-3 -3 5 5.44 1.93
3 -3 -5 6.02 3.85
-3 -3 5 4.35 5.73
-3 -3 5 8.5 6.86
3 -3 -5 5.57 1.98
3 -3 -5 8.54 3.29
3 3 -5 3.37 1.46
-3 3 5 7.38 4.03
-3 3 5 8.14 3.67
-3 3 5 12.06 7.6
-3 3 5 5.4 1.79
-3 3 5 1.76 3.46
-3 3 5 -0.31 3.78
-3 3 5 4.18 3.31
-3 3 5 1.6 3.43
3 3 -5 5.69 2.88
2 -3 -5 1.1 3.9
2 -3 -5 4.21 1.55
-2 -3 5 2.11 1.61
2 -3 -5 5.74 3.65
-2 -3 5 -1.25 5.32
2 -3 -5 3.38 3.05
2 -3 -5 1.63 3.46
-2 3 5 0.89 3.29
2 3 -5 3.53 3.13
-2 3 5 3.76 5.92
-2 3 5 1.92 1.5
-2 3 5 5.97 3.36
-2 3 5 5.71 3.51
-2 3 5 2.41 3.11
-2 3 5 6.1 4.47
-2 3 5 1.52 3.77
-2 3 5 0.38 1.41
2 3 -5 2.04 1.39
1 -3 -5 -1.07 3.2
1 -3 -5 -1.95 4.2
1 -3 -5 -0.2 1.37
1 -3 -5 1.23 3.01
1 -3 -5 -1.63 3.89
-1 3 5 -0.09 1.36
-1 3 5 3.71 3.04
-1 3 5 0.97 3.2
-1 3 5 0.87 2.93
-1 3 5 -0.75 3.15
0 3 5 25.23 3.39
4 -4 -5 -0.17 4.42
-4 -4 5 1.41 2.19
4 -4 -5 0.43 3.52
-4 -4 5 0.81 5.71
4 -4 -5 -5.52 5.86
-4 -4 5 0.38 1.95
4 -4 -5 3.21 5.49
-4 -4 5 0.32 2.01
-4 4 5 -0.73 4.48
-4 4 5 4.79 2.14
-4 4 5 -1.43 4.39
-4 4 5 -0.96 4.78
-4 4 5 3.32 4.94
-3 -4 5 -0.95 2.01
-3 -4 5 -0.8 6.16
3 -4 -5 -2.8 2.2
-3 -4 5 1.54 1.98
3 -4 -5 -0.38 3.39
3 -4 -5 -3.09 5.07
3 -4 -5 -2 3.72
3 -4 -5 1.81 4.86
-3 -4 5 -10.94 7.74
3 4 -5 -2.4 1.95
-3 4 5 -6.06 4.23
-3 4 5 1.29 4.8
-3 4 5 3.95 4.32
-3 4 5 2.12 4.91
2 -4 -5 -2.9 5.02
-2 -4 5 2.25 5.2
2 -4 -5 3.26 4.46
-2 -4 5 4.11 1.92
2 -4 -5 1.27 1.77
2 -4 -5 6.1 4.76
2 -4 -5 0.38 3.79
-2 -4 5 1.17 2.26
-2 -4 5 5.49 6.71
-2 4 5 -1.83 4.12
-2 4 5 -2.37 3.71
-2 4 5 2.21 7
-2 4 5 1.33 3.71
2 4 -5 2.21 1.49
-2 4 5 3.29 4.24
-2 4 5 7.87 4.62
-1 -4 5 -0.2 2.33
-1 -4 5 9.86 2.45
1 -4 -5 0.23 1.7
1 -4 -5 -0.58 4.89
1 -4 -5 1.07 4.25
1 -4 -5 -1.07 3.63
1 -4 -5 0.74 5.05
-1 4 5 -1.37 4.04
-1 4 5 -3.47 3.76
-1 4 5 1.51 4.03
-1 4 5 -4.01 6.18
-1 4 5 -5.78 4.55
1 4 -5 -0.76 1.29
0 -4 5 4.17 3.27
0 -4 -5 0.22 3.61
0 -4 -5 -2.58 3.62
0 -4 5 7.51 1.96
0 4 -5 -8.93 3.07
0 4 5 1.6 4.1
0 4 5 5.89 3.79
0 4 5 2.89 4.04
-7 0 6 2.12 6.84
-7 0 6 -1.65 2.12
-7 0 6 -4.01 2.29
7 0 -6 -1.72 4.22
-7 0 6 -2.14 2.33
7 0 -6 0.42 2.76
6 0 -6 1.39 2.72
-6 0 6 9.31 3.34
6 0 -6 -1.04 3.03
6 0 -6 -1.19 3.88
-6 0 6 -0.58 2.37
-6 0 6 2.41 2.09
-6 0 6 0.22 2.18
-6 0 6 -0.62 4.91
5 0 -6 2.81 2.51
-5 0 6 2.94 1.87
5 0 -6 1.6 2.62
-5 0 6 0.29 5.6
-5 0 6 9.88 12.95
5 0 -6 1.77 2.53
-5 0 6 5.04 2.91
-5 0 6 1.36 1.96
-5 0 6 4.8 2.73
5 0 -6 -1.48 3.47
-5 0 6 -0.12 2.61
-5 0 6 -0.17 2.28
-5 0 6 3.19 2.81
5 0 -6 -3.04 4.13
4 0 -6 4.31 2.89
4 0 -6 -0.53 1.64
4 0 -6 2.38 4.06
-4 0 6 0.63 2.38
-4 0 6 2.81 1.54
4 0 -6 3.77 2.25
-4 0 6 0.5 1.8
-4 0 6 2.57 2.32
-4 0 6 0.53 2.59
-4 0 6 5.25 6.63
-4 0 6 0.82 1.69
-4 0 6 4.28 2.67
4 0 -6 -0.74 1.37
-4 0 6 -0.99 3.39
-4 0 6 2.09 2.39
-4 0 6 1.34 2.36
4 0 -6 1.04 1.98
-3 0 6 0.93 1.75
-3 0 6 0.33 2.12
-3 0 6 -0.98 1.98
-3 0 6 0.96 2.02
3 0 -6 1.44 1.54
3 0 -6 -0.77 1.72
-3 0 6 1.88 2.04
3 0 -6 -0.06 3.09
-3 0 6 0.77 2.4
3 0 -6 -0.65 2.6
-3 0 6 1 1.58
-3 0 6 2.82 6.11
3 0 -6 1.81 2.09
-3 0 6 1.82 2.07
3 0 -6 0.59 1.62
3 0 -6 0.09 2.3
3 0 -6 2.3 2.11
-3 0 6 0.26 1.43
-3 0 6 2.73 1.94
-2 0 6 0.82 1.92
2 0 -6 0.76 1.87
2 0 -6 1.19 1.95
2 0 -6 1.21 1.86
-2 0 6 3.94 1.92
-2 0 6 -0.65 1.98
6 -1 -6 0.95 4.09
6 -1 -6 -1.88 3.01
6 -1 -6 7.32 4.78
-6 -1 6 1.78 2.3
-6 -1 6 1.4 2.29
-6 -1 6 3.18 6.19
-6 -1 6 2.43 1.87
-6 1 6 -3.36 2.38
-6 1 6 4.3 3.8
6 1 -6 -2.3 2.42
6 1 -6 -0.04 3.39
-6 1 6 -1.92 1.97
-6 1 6 3.57 3.8
-6 1 6 -0.15 1.93
-6 1 6 -2.02 5.58
-5 -1 6 11.22 11.96
-5 -1 6 4.32 2.52
-5 -1 6 1.83 6.28
-5 -1 6 1.5 1.98
5 -1 -6 2.93 2.61
-5 -1 6 0.88 1.63
5 -1 -6 4.49 5.06
-5 -1 6 7.3 2.28
5 -1 -6 5.78 2.95
5 -1 -6 3.22 2.79
5 -1 -6 5.86 4.11
-5 -1 6 1.48 2.82
-5 -1 6 4.6 2.32
-5 -1 6 4.96 2.17
-5 1 6 2.89 5.73
-5 1 6 0.91 1.98
5 1 -6 3.05 2.27
5 1 -6 6.07 2.06
-5 1 6 4.67 3.44
-5 1 6 -0.09 1.87
5 1 -6 5.52 2.44
-5 1 6 1.48 2.51
5 1 -6 2.53 4.33
-5 1 6 6.46 3.15
-5 1 6 5.18 3.31
4 -1 -6 -3.76 3.59
-4 -1 6 2.65 1.91
-4 -1 6 -2.19 1.83
-4 -1 6 -1.52 4.54
-4 -1 6 1.1 1.94
4 -1 -6 2.77 2.07
4 -1 -6 -0.16 1.62
-4 -1 6 0.48 1.92
4 -1 -6 1.85 3.47
-4 -1 6 5.76 1.77
-4 -1 6 -3.23 7.12
4 -1 -6 -0.36 4.06
4 -1 -6 2.76 2.09
-4 -1 6 0.3 1.86
-4 1 6 1.48 4.08
-4 1 6 -1.31 2.78
4 1 -6 0.58 1.9
-4 1 6 1.66 3.23
-4 1 6 -0.51 2.81
-4 1 6 4.47 2.91
-4 1 6 0.58 1.65
-4 1 6 0.59 1.73
4 1 -6 -2.36 3.38
-4 1 6 0.13 1.89
-4 1 6 -0.3 6.59
4 1 -6 1.11 1.64
3 -1 -6 3.44 1.97
3 -1 -6 2.55 2.52
-3 -1 6 3.85 1.72
3 -1 -6 3.09 2.13
3 -1 -6 5.44 1.72
3 -1 -6 1.15 2.36
-3 -1 6 0.85 1.63
3 -1 -6 1.36 2.69
3 -1 -6 3.42 3.24
-3 -1 6 2.48 1.83
-3 -1 6 1.14 6.12
-3 -1 6 3.13 1.71
-3 -1 6 4.17 1.91
-3 1 6 3.19 2.97
-3 1 6 5.24 2.52
3 1 -6 4.15 1.65
-3 1 6 3.51 2.59
-3 1 6 3.03 2.53
-3 1 6 2.35 1.72
-3 1 6 3.01 1.77
-3 1 6 1.72 6.15
-3 1 6 2.47 1.78
-3 1 6 1.81 2.51
-3 1 6 3.1 2.52
3 1 -6 1.33 3.06
2 -1 -6 59.8 4.04
2 -1 -6 48.67 4.34
-2 -1 6 56.95 3.45
-2 -1 6 58.05 2.67
2 -1 -6 50 3.83
2 -1 -6 57.3 2.94
2 -1 -6 49.71 3.34
-2 1 6 58.46 3.87
2 1 -6 55.09 2.88
-2 1 6 54.9 3.78
-2 1 6 58.84 3.85
-2 1 6 59.73 3.57
-2 1 6 59.61 4.44
1 -1 -6 -3.69 1.65
1 -1 -6 1.94 1.72
-1 1 6 1.43 2.24
6 -2 -6 12.5 5.52
-6 -2 6 7.02 2.67
-6 -2 6 8.26 2.59
-6 -2 6 10.66 2.62
-6 -2 6 7.77 7.43
6 -2 -6 -0.13 3.85
6 -2 -6 17.78 4.21
-6 2 6 10.52 4.6
-6 2 6 12.26 4.34
-6 2 6 12.87 4.33
-6 2 6 3.89 6.13
-6 2 6 4.6 2.64
-5 -2 6 18.31 6.82
5 -2 -6 27.73 5.94
5 -2 -6 25.72 4.91
-5 -2 6 13.99 10.56
-5 -2 6 12.94 2.37
5 -2 -6 17.41 3.99
-5 -2 6 16.26 2.5
-5 -2 6 18.56 2.75
-5 2 6 11.18 2.46
-5 2 6 8.47 5.05
5 2 -6 6.24 4.06
-5 2 6 24.58 4.63
-5 2 6 16.56 2.24
5 2 -6 14.8 2.69
-5 2 6 21.5 4.08
-5 2 6 18.03 2.49
-5 2 6 16.77 4.25
4 -2 -6 12.17 4.47
4 -2 -6 6.82 2.89
4 -2 -6 8.83 2.49
-4 -2 6 3.58 5.29
-4 -2 6 6.77 2.14
4 -2 -6 9.68 4.34
4 -2 -6 13.23 4.37
-4 -2 6 8.05 2.31
-4 -2 6 4.03 8.56
4 -2 -6 9.64 2.25
-4 -2 6 7.95 2.14
-4 2 6 7.95 2.16
-4 2 6 14.35 4.36
-4 2 6 3.26 3.56
-4 2 6 1.87 4.45
-4 2 6 9.74 3.55
-4 2 6 7.45 7.37
4 2 -6 15.22 4.36
4 2 -6 9.07 1.96
-4 2 6 6.97 2.05
-4 2 6 11.63 2.18
3 -2 -6 15.96 3.67
-3 -2 6 -1.95 6.28
3 -2 -6 11.88 2.31
3 -2 -6 7.74 3.22
3 -2 -6 9.63 2.99
3 -2 -6 7.25 3.5
-3 -2 6 8.34 2.12
3 -2 -6 5.19 2.03
-3 -2 6 6.88 1.92
3 -2 -6 9.43 4.01
-3 2 6 7.86 3.24
3 2 -6 4.71 1.54
3 2 -6 11.12 3.68
-3 2 6 8.78 3.24
-3 2 6 7 3.66
-3 2 6 9.11 2
-3 2 6 8.83 2.02
-3 2 6 7.23 3.31
-3 2 6 5.71 6.21
-3 2 6 5.01 1.86
-3 2 6 13.41 5.51
-3 2 6 6.84 3.09
2 -2 -6 1.01 1.47
-2 -2 6 2.8 0.95
2 -2 -6 -2.84 3.08
2 -2 -6 4.79 2.84
2 -2 -6 2.42 3.37
2 -2 -6 -0.72 3.57
-2 2 6 -3.46 3.48
2 2 -6 2.09 1.28
-2 2 6 2.39 3.04
-2 2 6 0.37 2.73
-2 2 6 3.16 2.99
-2 2 6 -3.31 6.04
-2 2 6 4.16 2.93
-2 2 6 3.32 1.67
1 -2 -6 1.36 2.66
1 -2 -6 4.54 2.76
-1 2 6 6.89 2.85
-1 2 6 8.05 2.89
-5 -3 6 13.23 7.81
-5 -3 6 11.45 2.65
5 -3 -6 20.18 5.51
-5 -3 6 11.17 2.63
5 -3 -6 19.12 5.69
-5 -3 6 16.78 2.74
-5 3 6 10.47 4.58
-5 3 6 17.21 4.38
-5 3 6 7.75 2.38
-5 3 6 23.99 5.12
-5 3 6 2.91 4.32
4 -3 -6 1.55 4.26
4 -3 -6 5.76 4.91
-4 -3 6 -1.61 1.91
-4 -3 6 3.36 2.19
-4 -3 6 5.65 8.25
-4 -3 6 1.15 2.1
-4 -3 6 -1.5 6.54
4 -3 -6 1.54 2.38
-4 3 6 -8.5 14.57
-4 3 6 -3.58 4.39
-4 3 6 3.61 2.21
4 3 -6 2.22 2.06
-4 3 6 2.67 3.85
-4 3 6 -0.98 3.98
-4 3 6 1.24 4.62
-3 -3 6 -0.32 2.09
3 -3 -6 -0.14 3.66
-3 -3 6 -5.93 5.5
3 -3 -6 1.29 3.58
-3 -3 6 1.34 7.34
-3 -3 6 0.31 1.72
3 -3 -6 5.17 4.68
3 -3 -6 -1.02 1.94
3 -3 -6 0.55 3.47
3 -3 -6 -1.26 4.18
-3 3 6 3.2 4.31
-3 3 6 -4.53 6.9
3 3 -6 -0.29 1.55
-3 3 6 -0.29 3.55
-3 3 6 1.5 4.75
-3 3 6 -4.76 3.69
-3 3 6 3.04 3.91
2 -3 -6 -0.38 4.03
2 -3 -6 -1.28 4.03
2 -3 -6 0.43 1.84
2 -3 -6 1.88 4.42
2 -3 -6 -0.17 3.32
-2 3 6 0.57 4.33
-2 3 6 -0.49 3.62
-2 3 6 3.93 3.84
-2 3 6 1.97 3.69
2 3 -6 -2.14 3.09
-2 3 6 0.43 1.6
-2 3 6 -5.22 3.39
-2 3 6 0.89 1.56
2 3 -6 -1.79 1.41
-2 3 6 -3.55 6.19
1 -3 -6 -2.85 3.45
1 -3 -6 -8.16 5.15
1 -3 -6 0.82 3.24
-1 3 6 3.32 3.42
-1 3 6 -2.48 3.49
-1 3 6 7.76 3.62
-3 -4 6 1.08 8.36
3 -4 -6 0.72 5.13
-3 -4 6 -0.71 2.21
-3 -4 6 0.06 5.3
3 -4 -6 0 2.41
3 -4 -6 1.37 4.38
-3 -4 6 -0.63 2.13
3 -4 -6 6.51 4.25
3 -4 -6 2.81 4.36
3 -4 -6 8.54 5.59
-3 4 6 5.21 4.32
-3 4 6 1.15 5.22
3 4 -6 -2.39 1.67
-3 4 6 16.01 13.03
-3 4 6 -0.07 4.36
-3 4 6 -1.85 4.61
-3 4 6 -1.38 4.71
2 -4 -6 4.86 2.08
2 -4 -6 6.18 5.54
2 -4 -6 3.96 5.01
2 -4 -6 2.27 4.19
2 -4 -6 5.32 5.02
-2 4 6 3.88 4.65
-2 4 6 10.23 5.22
-2 4 6 3.96 4.66
-2 4 6 -4.79 6.96
-2 4 6 9.12 4.67
2 4 -6 4.59 1.93
-2 4 6 4.57 4.33
1 -4 -6 9.49 5.49
1 -4 -6 -1.06 5.17
1 -4 -6 -1.08 4.43
1 -4 -6 5.71 4.13
-1 4 6 4.21 4.2
-1 4 6 -0.18 5.35
-1 4 6 5.19 4.66
-1 4 6 3.1 4.58
0 -4 -6 -2.47 3.53
6 0 -7 0.97 5.84
-6 0 7 2.83 2.34
-6 0 7 2.83 3.56
6 0 -7 1.56 3.07
-6 0 7 -0.42 2.67
-6 0 7 -3.59 5.39
6 0 -7 -2.31 3.03
-6 0 7 0.5 2.35
5 0 -7 10.9 3.04
-5 0 7 11.81 3.14
5 0 -7 9.28 5.42
-5 0 7 4.64 3.19
-5 0 7 8.99 9.53
5 0 -7 7.76 2.45
-5 0 7 5.38 3.11
-5 0 7 8.19 2.46
-5 0 7 2.37 2.28
-5 0 7 -2.06 5.18
5 0 -7 11.18 4.01
-5 0 7 10.19 3.35
-5 0 7 7.76 2.58
-4 0 7 -0.6 2.06
-4 0 7 0.58 2.72
4 0 -7 6.66 2.73
4 0 -7 -0.14 3.23
-4 0 7 2.95 2.73
4 0 -7 -0.3 4.08
-4 0 7 -11.49 6.99
-4 0 7 -0.99 5.38
-4 0 7 2.33 2.56
4 0 -7 0.1 1.85
-4 0 7 -0.13 2.27
-4 0 7 -0.37 1.97
-4 0 7 -0.14 3.01
-3 0 7 1.51 2.97
-3 0 7 2.83 2.6
3 0 -7 2.41 2.37
3 0 -7 1.81 1.78
3 0 -7 2.31 2.53
3 0 -7 2.92 2.96
-3 0 7 -5.81 6.65
-3 0 7 1.17 2.49
-3 0 7 7.01 2.43
-3 0 7 3.6 2.51
-3 0 7 4.68 2
-3 0 7 2.36 2.03
3 0 -7 5.67 1.9
-2 0 7 -4.77 2.19
2 0 -7 -1.62 2.11
2 0 -7 -0.67 2.29
-2 0 7 -1.48 2.29
2 0 -7 -2.15 2.18
-6 -1 7 1.23 7.36
6 -1 -7 -1.58 5.64
-6 -1 7 -1.59 2.23
6 -1 -7 7.79 5.05
6 -1 -7 1.01 3.23
-6 -1 7 2.01 2.47
-6 -1 7 3.49 2.37
-6 1 7 -3.75 3.81
-6 1 7 1.6 2.23
-6 1 7 1.62 2.35
-6 1 7 4.9 4.23
6 1 -7 3.5 4.57
6 1 -7 1.66 2.75
-6 1 7 2.31 3.77
-6 1 7 -4.81 6.18
-6 1 7 3.93 2.84
6 1 -7 0.17 3.45
5 -1 -7 9.25 4.26
-5 -1 7 6.56 2.36
-5 -1 7 5.76 2.7
-5 -1 7 -0.98 6.6
-5 -1 7 10.1 2.66
5 -1 -7 10.76 5.17
5 -1 -7 2.93 2.72
-5 -1 7 5.26 2.38
-5 -1 7 3.39 10.07
-5 -1 7 6.98 2.37
5 1 -7 6.18 2.3
-5 1 7 4.44 3.95
-5 1 7 3.74 6.04
-5 1 7 16.08 14.15
-5 1 7 5.58 3.73
-5 1 7 8.84 2.49
-5 1 7 6.97 2.61
-5 1 7 7.53 2.31
5 1 -7 10.48 5.09
-5 1 7 6.91 3.68
-4 -1 7 3.81 2.35
4 -1 -7 7.03 4.52
-4 -1 7 3.62 2.11
-4 -1 7 -0.13 6.19
4 -1 -7 5.27 3.94
-4 -1 7 4.74 2.36
-4 -1 7 5 2.52
4 -1 -7 3.98 2.59
4 -1 -7 3.68 2.17
-4 -1 7 8.35 7.83
-4 -1 7 4.23 2.42
-4 -1 7 5.83 2.43
-4 -1 7 9.99 2.48
-4 1 7 0.93 3.18
-4 1 7 3.08 2.24
-4 1 7 3.49 3.78
-4 1 7 2.9 3.17
4 1 -7 6.35 4.55
-4 1 7 4.33 2.2
-4 1 7 4.4 2.32
4 1 -7 2.86 1.77
-4 1 7 -0.46 5.22
-4 1 7 2.66 7.46
3 -1 -7 -0.02 2.21
3 -1 -7 -0.17 2.99
-3 -1 7 0.27 2.07
3 -1 -7 2.31 2.02
-3 -1 7 -0.08 1.94
3 -1 -7 3.76 2.77
3 -1 -7 2.32 3.57
-3 -1 7 -0.5 1.96
-3 -1 7 -1.21 6.84
-3 -1 7 2.35 2
-3 -1 7 -1.12 2.31
3 -1 -7 1.15 2.53
3 1 -7 2.37 1.54
-3 1 7 3.27 3.01
-3 1 7 1.32 2.97
-3 1 7 -1.24 6.84
3 1 -7 0.79 1.98
-3 1 7 0.44 2.01
-3 1 7 2.21 2.87
-3 1 7 4.88 2.91
-3 1 7 4.45 3.5
3 1 -7 3.05 2.48
-3 1 7 0.9 1.75
-2 -1 7 4.06 2.17
2 -1 -7 7.22 2.79
2 -1 -7 8.7 3.05
-2 -1 7 4.47 2.05
2 -1 -7 10.02 2.91
-2 1 7 5.1 2.88
2 1 -7 7.41 1.86
-2 1 7 8.71 2.88
2 1 -7 3.31 1.95
2 1 -7 8.15 1.91
-5 -2 7 20.09 2.7
-5 -2 7 17.57 2.81
5 -2 -7 16.06 3.18
-5 -2 7 10.99 11.38
5 -2 -7 28.5 5.56
-5 -2 7 18.8 3.01
-5 -2 7 13.32 6.93
5 -2 -7 31.74 6.02
-5 2 7 20.07 14.73
5 2 -7 23.63 3.08
-5 2 7 20.88 4.52
-5 2 7 15.78 2.83
-5 2 7 21.11 4.88
-5 2 7 6.81 6.12
-5 2 7 23.59 4.5
4 -2 -7 37.86 5.43
-4 -2 7 21.03 8.88
4 -2 -7 36.15 3.04
-4 -2 7 31.67 3.32
-4 -2 7 33.68 2.89
-4 -2 7 28.26 3.08
4 -2 -7 33.66 4.68
-4 2 7 42.61 4.54
-4 2 7 9.08 8.34
-4 2 7 37.14 3.05
4 2 -7 32.75 2.72
-4 2 7 36.19 4.55
4 2 -7 50.11 6.43
-4 2 7 33.58 3.33
-4 2 7 47 5.27
-3 -2 7 -2.2 6.8
3 -2 -7 7.93 3.48
3 -2 -7 7.95 4.45
3 -2 -7 5.87 2.36
3 -2 -7 5.45 3.34
-3 -2 7 5.41 2.25
3 -2 -7 5.76 3.75
-3 2 7 7.09 2.22
-3 2 7 6.86 3.62
-3 2 7 -6.02 7.11
-3 2 7 6.54 2.09
-3 2 7 5.5 3.5
-3 2 7 6.3 3.65
3 2 -7 1.16 1.76
3 2 -7 5.38 4.09
-3 2 7 2.53 4.17
2 -2 -7 0.49 3.28
2 -2 -7 0.78 3.21
-2 -2 7 5.41 1.51
2 -2 -7 1.16 3.8
2 -2 -7 -1.91 4.24
-2 2 7 0.7 3.2
-2 2 7 3.85 3.4
-2 2 7 -0.33 3.36
1 -2 -7 -6.5 2.32
-4 -3 7 4.44 6.88
-4 -3 7 1.59 2.47
-4 -3 7 1.11 2.47
4 -3 -7 4.55 5.32
4 -3 -7 2.21 5.11
-4 -3 7 -0.68 2.36
-4 -3 7 6.34 9.04
4 -3 -7 2.13 2.42
-4 3 7 -0.42 4.25
-4 3 7 -0.37 4.16
-4 3 7 -5.97 9.61
4 3 -7 5.67 2.09
-4 3 7 -1.72 2.41
-4 3 7 10.1 5.22
-4 3 7 -1.94 5.42
2 -3 -7 -8.52 5.05
2 -3 -7 -0.38 4
2 -3 -7 10.2 4.91
2 -3 -7 -6.87 4.35
-2 3 7 -8.62 3.97
-2 3 7 -1.36 4.04
-2 3 7 -1.5 4.87
-2 3 7 -0.61 3.84
1 -3 -7 2.32 3.45
-1 3 7 4.16 3.73
1 -4 -7 -1.91 5.64
1 -4 -7 0.55 4.28
1 -4 -7 0.95 4.24
1 -4 -7 -12.75 5.07
-1 4 7 12.94 4.67
-1 4 7 6.79 5.97
-1 4 7 8.49 5.04
-1 4 7 13.51 5.36
5 0 -8 -6.38 5.08
-5 0 8 -1.19 2.47
5 0 -8 1.89 3.72
-5 0 8 -2.23 2.38
-5 0 8 -12.31 9.64
-5 0 8 5.13 3.55
-5 0 8 1.77 6.17
5 0 -8 -4.11 2.06
-5 0 8 -0.88 3.33
-5 0 8 1.56 2.52
-5 0 8 2.62 3.39
-4 0 8 146.94 9.41
3 0 -8 0.14 3.5
-3 0 8 -7.57 2.78
-3 0 8 -1.37 2.91
-3 0 8 -0.86 3.47
3 0 -8 -1.61 2.66
2 0 -8 -4.56 2.38
2 0 -8 -7.21 2.94
-2 0 8 -3.04 2.7
-5 -1 8 2.26 2.54
-5 -1 8 -2.19 2.8
5 -1 -8 1.63 5
5 -1 -8 1.37 4.69
5 -1 -8 -1.84 2.19
-5 -1 8 3.28 2.76
-5 -1 8 1.66 6.97
-5 -1 8 16.99 10.48
-5 -1 8 -0.05 2.64
-5 -1 8 1.74 2.51
-5 1 8 -1.86 2.27
5 1 -8 -2.76 5.46
-5 1 8 -1.24 3.69
-5 1 8 0.74 9.97
-5 1 8 -7.01 3.61
-5 1 8 3.55 2.66
5 1 -8 -0.84 2.28
-5 1 8 0.28 2.58
-5 1 8 4.86 5.88
-5 1 8 -3.61 4.14
4 -1 -8 14.07 2.64
4 -1 -8 9.25 4.57
-4 -1 8 15.2 2.68
-4 -1 8 10.78 2.81
-4 -1 8 30.4 7.89
4 -1 -8 18.29 5.66
-4 -1 8 13.57 3.1
-4 -1 8 11.04 8.92
-4 -1 8 12.52 2.88
-4 -1 8 13.59 2.98
-4 1 8 25.87 3.75
-4 1 8 12.55 2.91
4 1 -8 15.23 2.65
-4 1 8 14.07 4
-4 1 8 14.49 2.88
4 1 -8 20.97 5.79
-4 1 8 17.11 4.47
-4 1 8 11.77 2.66
-4 1 8 3.78 8.62
-4 1 8 19.67 7.61
-4 1 8 8.89 3.72
-3 -1 8 1.6 2.34
3 -1 -8 0.69 3.29
-3 -1 8 2.32 2.39
-3 -1 8 -1.53 2.84
3 -1 -8 2.71 4.2
-3 -1 8 -0.99 2.49
3 1 -8 0.67 2.21
-3 1 8 -1.15 3.33
-3 1 8 -0.64 3.44
3 1 -8 -0.03 2.82
-3 1 8 1.28 4.05
-3 1 8 -0.54 3.4
-2 -1 8 -1.57 2.37
2 -1 -8 -4.68 2.95
2 1 -8 -0.37 2.05
2 1 -8 -4.44 1.92
-2 1 8 -3.06 3.11
-4 -2 8 4.6 7.06
4 -2 -8 0.25 5.14
4 -2 -8 7.73 4.11
-4 -2 8 1.32 2.64
-4 -2 8 7.29 9.44
4 -2 -8 6.79 5.07
-4 -2 8 4.08 2.38
4 -2 -8 -1.02 2.55
-4 2 8 12.15 4.09
-4 2 8 0.02 5.51
-4 2 8 1.54 8.21
-4 2 8 6.77 4.18
-4 2 8 -1.02 4.08
-4 2 8 3.57 4.78
4 2 -8 6.02 1.94
3 -2 -8 4.03 4.73
3 -2 -8 -1.63 3.63
3 -2 -8 0.12 2.47
-3 2 8 -2.92 3.75
-3 2 8 -2.47 3.89
-3 2 8 -3.44 4.58
-3 2 8 -4.65 3.82
2 -2 -8 -4.81 3.31
-2 2 8 -0.91 3.53
-2 2 8 -3.5 3.6
3 -3 -8 -2.95 4.17
3 -3 -8 -1.67 2.52
3 -3 -8 2.27 5.58
-3 3 8 2.77 5.26
-3 3 8 3.65 4.44
-3 3 8 -1.22 4.56
-3 3 8 3.12 6.79
-3 3 8 3.26 4.57
2 -3 -8 -6.3 3.93
2 -3 -8 -7.19 5.31
-2 3 8 1.13 4.58
-2 3 8 -0.95 5.32
-2 3 8 -0.54 4.18
-2 3 8 -0.8 4.45
-4 0 9 1.19 3.97
4 0 -9 -5.69 2.63
4 0 -9 4.45 4.1
-4 0 9 1.82 3.58
-4 0 9 3.17 3.67
3 0 -9 -1.9 4.05
3 0 -9 3.12 3.27
-3 0 9 -9.2 3.38
-3 0 9 -1.83 3.4
-3 0 9 2.56 4.15
-4 -1 9 -4.19 2.99
-4 -1 9 -0.37 3.02
4 -1 -9 5.63 4.88
4 -1 -9 1.75 2.66
4 -1 -9 9.33 3.92
-4 1 9 6.29 4.08
-4 1 9 -2.07 2.58
-4 1 9 8.7 3.88
-4 1 9 -4.75 6.76
-4 1 9 6.18 4.64
4 1 -9 2.33 2.24
-4 1 9 1.83 4.03
-3 -1 9 -4.56 2.83
3 -1 -9 -2.51 4.67
3 -1 -9 3.06 3.64
-3 1 9 -5.67 3.75
-3 1 9 -0.52 3.73
-3 1 9 -10.68 4.48
3 -2 -9 -4.14 4.01
3 -2 -9 -3.45 5.26
-3 2 9 2.39 4.29
-3 2 9 -1.88 4.25
-3 2 9 -3.66 5.09
-3 2 9 1.08 4.37
2 -2 -9 -1.01 3.45
-2 2 9 2.11 3.89
