#------------------------------------------------------------------------------
#$Date: 2016-03-24 03:11:53 +0200 (Thu, 24 Mar 2016) $
#$Revision: 179618 $
#$URL: svn://www.crystallography.net/cod/cif/4/50/82/4508251.cif $
#------------------------------------------------------------------------------
#
# This file is available in the Crystallography Open Database (COD),
# http://www.crystallography.net/
#
# All data on this site have been placed in the public domain by the
# contributors.
#
data_4508251
loop_
_publ_author_name
'Khoj, Manal A.'
'Hughes, Colan E.'
'Harris, Kenneth D. M.'
'Kariuki, Benson M.'
_publ_section_title
;
 Polymorphism in atrans-Cinnamic Acid Derivative Exhibiting Two Distinct
 \b-type Phases: Structural Properties, [2 + 2] Photodimerization
 Reactions, and Polymorphic Phase Transition Behavior
;
_journal_issue                   9
_journal_name_full               'Crystal Growth &amp; Design'
_journal_page_first              4110
_journal_paper_doi               10.1021/cg4009202
_journal_volume                  13
_journal_year                    2013
_chemical_formula_moiety         'C9 H7 F O2'
_chemical_formula_sum            'C9 H7 F O2'
_chemical_formula_weight         166.15
_chemical_name_systematic
;
 ?
;
_space_group_IT_number           2
_symmetry_cell_setting           triclinic
_symmetry_space_group_name_Hall  '-P 1'
_symmetry_space_group_name_H-M   'P -1'
_atom_sites_solution_hydrogens   geom
_atom_sites_solution_primary     direct
_atom_sites_solution_secondary   difmap
_audit_creation_method           SHELXL-97
_cell_angle_alpha                93.547(5)
_cell_angle_beta                 96.858(6)
_cell_angle_gamma                94.011(5)
_cell_formula_units_Z            2
_cell_length_a                   3.8430(3)
_cell_length_b                   6.2681(4)
_cell_length_c                   15.9607(12)
_cell_measurement_reflns_used    1211
_cell_measurement_temperature    150(2)
_cell_measurement_theta_max      73.88
_cell_measurement_theta_min      5.60
_cell_volume                     379.82(5)
_computing_cell_refinement
;
CrysAlisPro, Agilent Technologies,
Version 1.171.36.28 (release 01-02-2013 CrysAlis171 .NET)
(compiled Feb  1 2013,16:14:44)
;
_computing_data_collection
;
CrysAlisPro, Agilent Technologies,
Version 1.171.36.28 (release 01-02-2013 CrysAlis171 .NET)
(compiled Feb  1 2013,16:14:44)
;
_computing_data_reduction
;
CrysAlisPro, Agilent Technologies,
Version 1.171.36.28 (release 01-02-2013 CrysAlis171 .NET)
(compiled Feb  1 2013,16:14:44)
;
_diffrn_ambient_temperature      150(2)
_diffrn_measured_fraction_theta_full 0.969
_diffrn_measured_fraction_theta_max 0.946
_diffrn_measurement_device_type  'SuperNova, Dual, Cu at zero, Atlas'
_diffrn_radiation_monochromator  mirror
_diffrn_radiation_source         'SuperNova (Cu) X-ray Source'
_diffrn_radiation_type           CuK\a
_diffrn_radiation_wavelength     1.54178
_diffrn_reflns_av_R_equivalents  0.0139
_diffrn_reflns_av_sigmaI/netI    0.0213
_diffrn_reflns_limit_h_max       3
_diffrn_reflns_limit_h_min       -4
_diffrn_reflns_limit_k_max       7
_diffrn_reflns_limit_k_min       -6
_diffrn_reflns_limit_l_max       19
_diffrn_reflns_limit_l_min       -16
_diffrn_reflns_number            2238
_diffrn_reflns_theta_full        70.00
_diffrn_reflns_theta_max         73.88
_diffrn_reflns_theta_min         5.60
_exptl_absorpt_coefficient_mu    1.011
_exptl_absorpt_correction_T_max  0.9418
_exptl_absorpt_correction_T_min  0.6426
_exptl_absorpt_correction_type   multi-scan
_exptl_absorpt_process_details
;
CrysAlisPro, Agilent Technologies,
Version 1.171.36.28 (release 01-02-2013 CrysAlis171 .NET)
(compiled Feb  1 2013,16:14:44)
Empirical absorption correction using spherical harmonics,
 implemented in SCALE3 ABSPACK scaling algorithm.
;
_exptl_crystal_colour            colourless
_exptl_crystal_density_diffrn    1.453
_exptl_crystal_density_method    'not measured'
_exptl_crystal_description       plate
_exptl_crystal_F_000             172
_exptl_crystal_size_max          0.48
_exptl_crystal_size_mid          0.19
_exptl_crystal_size_min          0.06
_refine_diff_density_max         0.469
_refine_diff_density_min         -0.407
_refine_diff_density_rms         0.052
_refine_ls_extinction_method     none
_refine_ls_goodness_of_fit_ref   1.058
_refine_ls_hydrogen_treatment    constr
_refine_ls_matrix_type           full
_refine_ls_number_parameters     137
_refine_ls_number_reflns         1448
_refine_ls_number_restraints     146
_refine_ls_restrained_S_all      1.066
_refine_ls_R_factor_all          0.0645
_refine_ls_R_factor_gt           0.0556
_refine_ls_shift/su_max          0.022
_refine_ls_shift/su_mean         0.001
_refine_ls_structure_factor_coef Fsqd
_refine_ls_weighting_details
'calc w=1/[\s^2^(Fo^2^)+(0.0841P)^2^+0.2567P] where P=(Fo^2^+2Fc^2^)/3'
_refine_ls_weighting_scheme      calc
_refine_ls_wR_factor_gt          0.1549
_refine_ls_wR_factor_ref         0.1646
_reflns_number_gt                1211
_reflns_number_total             1448
_reflns_threshold_expression     >2\s(I)
_cod_data_source_file            cg4009202_si_001.cif
_cod_data_source_block           bmk1352
_cod_depositor_comments
;
The following automatic conversions were performed:

'_symmetry_cell_setting' value 'Triclinic' changed to 'triclinic'
according to /home/saulius/struct/CIF-dictionaries/cif_core.dic
dictionary named 'cif_core.dic' version 2.4.2 from 2011-04-26.

Automatic conversion script
Id: cif_fix_values 1891 2012-01-12 08:04:46Z andrius 
;
_cod_original_sg_symbol_H-M      P-1
_cod_database_code               4508251
loop_
_symmetry_equiv_pos_as_xyz
'x, y, z'
'-x, -y, -z'
loop_
_atom_site_label
_atom_site_type_symbol
_atom_site_fract_x
_atom_site_fract_y
_atom_site_fract_z
_atom_site_U_iso_or_equiv
_atom_site_adp_type
_atom_site_occupancy
_atom_site_symmetry_multiplicity
_atom_site_calc_flag
_atom_site_refinement_flags
_atom_site_disorder_assembly
_atom_site_disorder_group
C1 C 0.1296(5) 0.7664(3) 0.93027(13) 0.0304(5) Uani 1 1 d . B .
C2 C 0.2305(5) 0.5846(3) 0.87797(13) 0.0313(5) Uani 1 1 d . . .
H2 H 0.3525 0.4756 0.9047 0.038 Uiso 1 1 calc R A 1
C3 C 0.1559(3) 0.56929(16) 0.79494(8) 0.0295(5) Uani 0.927(4) 1 d P B 1
H3 H 0.0310 0.6803 0.7705 0.035 Uiso 0.927(4) 1 calc PR B 1
C4 C 0.2470(3) 0.39689(16) 0.73606(8) 0.0276(5) Uani 0.927(4) 1 d PRU B 1
C5 C 0.1772(3) 0.41908(16) 0.64970(8) 0.0345(6) Uani 0.927(4) 1 d PRU B 1
H5 H 0.0771 0.5439 0.6300 0.041 Uiso 0.927(4) 1 calc PR B 1
C6 C 0.2537(3) 0.25868(16) 0.59218(8) 0.0400(6) Uani 0.927(4) 1 d PRU B 1
C7 C 0.4002(3) 0.07608(16) 0.62102(8) 0.0390(6) Uani 0.927(4) 1 d PRU B 1
H7 H 0.4525 -0.0335 0.5817 0.047 Uiso 0.927(4) 1 calc PR B 1
C8 C 0.4700(3) 0.05388(16) 0.70738(8) 0.0375(6) Uani 0.927(4) 1 d PRU B 1
H8 H 0.5701 -0.0709 0.7271 0.045 Uiso 0.927(4) 1 calc PR B 1
C9 C 0.3934(3) 0.21428(16) 0.76490(8) 0.0323(5) Uani 0.927(4) 1 d PRU B 1
H9 H 0.4412 0.1991 0.8239 0.039 Uiso 0.927(4) 1 calc PR B 1
F1 F 0.1866(5) 0.2769(3) 0.50977(9) 0.0599(6) Uani 0.927(4) 1 d PU B 1
O1 O -0.0377(4) 0.9114(2) 0.89756(9) 0.0377(4) Uani 1 1 d . . .
O2 O 0.2284(4) 0.7662(3) 1.01029(9) 0.0415(5) Uani 1 1 d . . .
H2A H 0.1607 0.8747 1.0353 0.062 Uiso 1 1 calc R B .
C3A C 0.1559(3) 0.56929(16) 0.79494(8) 0.0295(5) Uani 0.073(4) 1 d P B 2
H3A H 0.0232 0.6820 0.7747 0.035 Uiso 0.073(4) 1 calc PR B 2
C4A C 0.2327(14) 0.4136(12) 0.7242(12) 0.0250(7) Uani 0.073(4) 1 d PRU B 2
C5A C 0.3809(14) 0.2316(12) 0.7531(12) 0.035(2) Uani 0.073(4) 1 d PRU B 2
H5A H 0.4283 0.2164 0.8121 0.042 Uiso 0.073(4) 1 calc PR B 2
C6A C 0.4599(14) 0.0718(12) 0.6956(12) 0.0349(18) Uani 0.073(4) 1 d PRDU B 2
C7A C 0.3906(14) 0.0940(12) 0.6092(12) 0.0393(18) Uani 0.073(4) 1 d PRDU B 2
H7A H 0.4446 -0.0152 0.5700 0.047 Uiso 0.073(4) 1 calc PR B 2
C8A C 0.2424(14) 0.2760(12) 0.5803(12) 0.0416(18) Uani 0.073(4) 1 d PRU B 2
H8A H 0.1950 0.2912 0.5213 0.050 Uiso 0.073(4) 1 calc PR B 2
C9A C 0.1634(14) 0.4358(12) 0.6378(12) 0.037(2) Uani 0.073(4) 1 d PRU B 2
H9A H 0.0621 0.5602 0.6181 0.044 Uiso 0.073(4) 1 calc PR B 2
F1A F 0.596(5) -0.115(2) 0.7126(11) 0.046(6) Uani 0.073(4) 1 d PDU B 2
loop_
_atom_site_aniso_label
_atom_site_aniso_U_11
_atom_site_aniso_U_22
_atom_site_aniso_U_33
_atom_site_aniso_U_23
_atom_site_aniso_U_13
_atom_site_aniso_U_12
C1 0.0302(10) 0.0314(10) 0.0294(10) 0.0016(8) 0.0035(8) 0.0023(8)
C2 0.0327(10) 0.0302(10) 0.0321(10) 0.0034(8) 0.0049(8) 0.0061(8)
C3 0.0275(10) 0.0279(10) 0.0333(11) 0.0028(8) 0.0035(8) 0.0045(8)
C4 0.0266(10) 0.0321(9) 0.0234(11) 0.0009(8) 0.0024(7) 0.0009(8)
C5 0.0362(11) 0.0350(12) 0.0317(13) 0.0007(9) 0.0012(9) 0.0056(9)
C6 0.0422(12) 0.0467(13) 0.0300(12) -0.0035(10) 0.0030(9) 0.0040(10)
C7 0.0385(12) 0.0367(12) 0.0418(13) -0.0077(10) 0.0087(10) 0.0052(9)
C8 0.0349(11) 0.0320(11) 0.0462(14) 0.0022(9) 0.0069(9) 0.0045(9)
C9 0.0315(11) 0.0315(11) 0.0345(12) 0.0040(9) 0.0050(9) 0.0031(9)
F1 0.0897(14) 0.0609(11) 0.0296(8) -0.0024(7) 0.0002(8) 0.0267(9)
O1 0.0442(9) 0.0363(8) 0.0327(8) 0.0013(6) 0.0001(6) 0.0128(7)
O2 0.0566(10) 0.0396(9) 0.0290(8) -0.0012(6) 0.0015(7) 0.0179(7)
C3A 0.0275(10) 0.0279(10) 0.0333(11) 0.0028(8) 0.0035(8) 0.0045(8)
C4A 0.0262(14) 0.0327(12) 0.0158(12) 0.0011(13) 0.0022(12) 0.0011(13)
C5A 0.033(4) 0.033(4) 0.038(4) 0.002(4) 0.008(4) 0.003(4)
C6A 0.034(3) 0.032(3) 0.039(3) 0.001(3) 0.008(3) 0.005(3)
C7A 0.039(3) 0.040(3) 0.039(3) -0.005(3) 0.006(3) 0.004(3)
C8A 0.041(3) 0.043(3) 0.040(3) -0.006(3) 0.004(3) 0.004(3)
C9A 0.039(4) 0.040(4) 0.031(4) 0.000(4) 0.002(4) 0.005(4)
F1A 0.048(9) 0.034(8) 0.059(9) -0.001(6) 0.012(7) 0.014(6)
loop_
_atom_type_symbol
_atom_type_description
_atom_type_scat_dispersion_real
_atom_type_scat_dispersion_imag
_atom_type_scat_source
C C 0.0181 0.0091 'International Tables Vol C Tables 4.2.6.8 and 6.1.1.4'
H H 0.0000 0.0000 'International Tables Vol C Tables 4.2.6.8 and 6.1.1.4'
F F 0.0727 0.0534 'International Tables Vol C Tables 4.2.6.8 and 6.1.1.4'
O O 0.0492 0.0322 'International Tables Vol C Tables 4.2.6.8 and 6.1.1.4'
loop_
_geom_angle_atom_site_label_1
_geom_angle_atom_site_label_2
_geom_angle_atom_site_label_3
_geom_angle
O1 C1 O2 123.29(19)
O1 C1 C2 121.15(18)
O2 C1 C2 115.56(18)
C3 C2 C1 121.67(17)
C3 C2 H2 119.2
C1 C2 H2 119.2
C2 C3 C4 126.55(10)
C2 C3 H3 116.7
C4 C3 H3 116.7
C5 C4 C9 120.0
C5 C4 C3 118.2
C9 C4 C3 121.8
C6 C5 C4 120.0
C6 C5 H5 120.0
C4 C5 H5 120.0
F1 C6 C5 120.70(8)
F1 C6 C7 119.30(8)
C5 C6 C7 120.0
C8 C7 C6 120.0
C8 C7 H7 120.0
C6 C7 H7 120.0
C9 C8 C7 120.0
C9 C8 H8 120.0
C7 C8 H8 120.0
C8 C9 C4 120.0
C8 C9 H9 120.0
C4 C9 H9 120.0
C1 O2 H2A 109.5
C9A C4A C5A 120.0
C6A C5A C4A 120.0
C6A C5A H5A 120.0
C4A C5A H5A 120.0
F1A C6A C5A 127.6(8)
F1A C6A C7A 112.4(8)
C5A C6A C7A 120.0
C8A C7A C6A 120.0
C8A C7A H7A 120.0
C6A C7A H7A 120.0
C7A C8A C9A 120.0
C7A C8A H8A 120.0
C9A C8A H8A 120.0
C4A C9A C8A 120.0
C4A C9A H9A 120.0
C8A C9A H9A 120.0
loop_
_geom_bond_atom_site_label_1
_geom_bond_atom_site_label_2
_geom_bond_distance
C1 O1 1.254(2)
C1 O2 1.288(2)
C1 C2 1.472(3)
C2 C3 1.318(2)
C2 H2 0.9500
C3 C4 1.4762
C3 H3 0.9500
C4 C5 1.3900
C4 C9 1.3900
C5 C6 1.3900
C5 H5 0.9500
C6 F1 1.323(2)
C6 C7 1.3900
C7 C8 1.3900
C7 H7 0.9500
C8 C9 1.3900
C8 H8 0.9500
C9 H9 0.9500
O2 H2A 0.8400
C4A C9A 1.3899
C4A C5A 1.3900
C5A C6A 1.3899
C5A H5A 0.9500
C6A F1A 1.344(8)
C6A C7A 1.3901
C7A C8A 1.3900
C7A H7A 0.9500
C8A C9A 1.3901
C8A H8A 0.9500
C9A H9A 0.9500
loop_
_geom_hbond_atom_site_label_D
_geom_hbond_atom_site_label_H
_geom_hbond_atom_site_label_A
_geom_hbond_distance_DH
_geom_hbond_distance_HA
_geom_hbond_distance_DA
_geom_hbond_angle_DHA
_geom_hbond_site_symmetry_A
O2 H2A O1 0.84 1.79 2.623(2) 171.8 2_577
