#------------------------------------------------------------------------------
#$Date: 2016-03-24 03:17:34 +0200 (Thu, 24 Mar 2016) $
#$Revision: 179622 $
#$URL: svn://www.crystallography.net/cod/cif/4/50/86/4508671.cif $
#------------------------------------------------------------------------------
#
# This file is available in the Crystallography Open Database (COD),
# http://www.crystallography.net/. The original data for this entry
# were provided the Crystal Eye server at
# http://wwmm.ch.cam.ac.uk/crystaleye/, created by Nick Day at the
# Peter Murray-Rust laboratory.
#
# The file may be used within the scientific community so long as
# proper attribution is given to the journal article from which the
# data were obtained.
#
data_4508671
loop_
_publ_author_name
'Merz, Klaus'
_publ_section_title
;
 Substitution Effect on Crystal Packings of Iodobenzonitriles and
 Iodophenols
;
_journal_issue                   7
_journal_name_full               'Crystal Growth &amp; Design'
_journal_page_first              1615
_journal_paper_doi               10.1021/cg060067j
_journal_volume                  6
_journal_year                    2006
_chemical_formula_sum            'C7 H4 I N'
_chemical_formula_weight         229.01
_chemical_name_systematic
; 
 ? 
;
_space_group_IT_number           14
_symmetry_cell_setting           monoclinic
_symmetry_space_group_name_Hall  '-P 2yn'
_symmetry_space_group_name_H-M   'P 1 21/n 1'
_atom_sites_solution_hydrogens   geom
_atom_sites_solution_primary     direct
_atom_sites_solution_secondary   difmap
_audit_creation_method           SHELXL-97
_cell_angle_alpha                90.00
_cell_angle_beta                 92.528(12)
_cell_angle_gamma                90.00
_cell_formula_units_Z            4
_cell_length_a                   7.683(4)
_cell_length_b                   4.160(2)
_cell_length_c                   21.603(12)
_cell_measurement_temperature    213(2)
_cell_volume                     689.8(6)
_computing_cell_refinement       'SAINT (Siemens, 1996)'
_computing_data_collection       'SMART (Siemens, 1996)'
_computing_data_reduction        'SAINT (Siemens, 1996)'
_computing_molecular_graphics    'SHELXTL (Siemens, 1996)'
_computing_publication_material  'SHELXTL (Siemens, 1996)'
_computing_structure_refinement  'SHELXTL (Siemens, 1996)'
_computing_structure_solution    'SHELXTL (Siemens, 1996)'
_diffrn_ambient_temperature      213(2)
_diffrn_measured_fraction_theta_full 0.981
_diffrn_measured_fraction_theta_max 0.981
_diffrn_measurement_device_type  'Bruker axs CCD 1000'
_diffrn_measurement_method       omega-scan
_diffrn_radiation_monochromator  graphite
_diffrn_radiation_source         'fine-focus sealed tube'
_diffrn_radiation_type           MoK\a
_diffrn_radiation_wavelength     0.71073
_diffrn_reflns_av_R_equivalents  0.0449
_diffrn_reflns_av_sigmaI/netI    0.0617
_diffrn_reflns_limit_h_max       9
_diffrn_reflns_limit_h_min       -8
_diffrn_reflns_limit_k_max       4
_diffrn_reflns_limit_k_min       -4
_diffrn_reflns_limit_l_max       14
_diffrn_reflns_limit_l_min       -25
_diffrn_reflns_number            2867
_diffrn_reflns_theta_full        25.15
_diffrn_reflns_theta_max         25.15
_diffrn_reflns_theta_min         1.89
_diffrn_standards_decay_%        -
_diffrn_standards_interval_count -
_diffrn_standards_interval_time  -
_diffrn_standards_number         -
_exptl_absorpt_coefficient_mu    4.542
_exptl_absorpt_correction_T_max  0.4636
_exptl_absorpt_correction_T_min  0.3428
_exptl_absorpt_correction_type   'empirical Blessing, 1995'
_exptl_crystal_density_diffrn    2.205
_exptl_crystal_density_method    'not measured'
_exptl_crystal_F_000             424
_exptl_crystal_size_max          0.30
_exptl_crystal_size_mid          0.20
_exptl_crystal_size_min          0.20
_refine_diff_density_max         0.859
_refine_diff_density_min         -1.025
_refine_diff_density_rms         0.144
_refine_ls_extinction_method     none
_refine_ls_goodness_of_fit_ref   1.060
_refine_ls_hydrogen_treatment    constr
_refine_ls_matrix_type           full
_refine_ls_number_parameters     82
_refine_ls_number_reflns         1206
_refine_ls_number_restraints     0
_refine_ls_restrained_S_all      1.060
_refine_ls_R_factor_all          0.0575
_refine_ls_R_factor_gt           0.0377
_refine_ls_shift/su_max          0.001
_refine_ls_shift/su_mean         0.000
_refine_ls_structure_factor_coef Fsqd
_refine_ls_weighting_details
'calc w=1/[\s^2^(Fo^2^)+(0.0168P)^2^+0.7432P] where P=(Fo^2^+2Fc^2^)/3'
_refine_ls_weighting_scheme      calc
_refine_ls_wR_factor_gt          0.0710
_refine_ls_wR_factor_ref         0.0753
_reflns_number_gt                921
_reflns_number_total             1206
_reflns_threshold_expression     >2sigma(I)
_cod_data_source_file            cg060067jsup1.cif
_cod_data_source_block           051219at
_cod_original_cell_volume        689.9(6)
_cod_original_sg_symbol_H-M      P2(1)/n
_cod_database_code               4508671
loop_
_symmetry_equiv_pos_as_xyz
'x, y, z'
'-x+1/2, y+1/2, -z+1/2'
'-x, -y, -z'
'x-1/2, -y-1/2, z-1/2'
loop_
_atom_site_label
_atom_site_type_symbol
_atom_site_fract_x
_atom_site_fract_y
_atom_site_fract_z
_atom_site_U_iso_or_equiv
_atom_site_adp_type
_atom_site_occupancy
_atom_site_symmetry_multiplicity
_atom_site_calc_flag
_atom_site_refinement_flags
I1 I 0.08004(6) 0.22296(10) 0.20494(2) 0.03337(18) Uani 1 1 d .
C2 C -0.1047(9) 0.5575(16) 0.0995(3) 0.0276(16) Uani 1 1 d .
H2A H 0.0085 0.6128 0.0886 0.033 Uiso 1 1 calc R
C3 C -0.2480(9) 0.6532(17) 0.0638(3) 0.0296(17) Uani 1 1 d .
C6 C -0.2952(10) 0.2992(18) 0.1678(4) 0.0404(18) Uani 1 1 d .
H6A H -0.3106 0.1760 0.2036 0.048 Uiso 1 1 calc R
C7 C -0.2272(9) 0.8410(19) 0.0091(4) 0.0344(18) Uani 1 1 d .
C1 C -0.1317(8) 0.3811(15) 0.1509(3) 0.0242(15) Uani 1 1 d .
C4 C -0.4143(9) 0.5750(19) 0.0806(4) 0.0358(19) Uani 1 1 d .
H4A H -0.5120 0.6440 0.0565 0.043 Uiso 1 1 calc R
N1 N -0.2153(9) 0.9841(19) -0.0333(3) 0.0501(19) Uani 1 1 d .
C5 C -0.4342(10) 0.3975(19) 0.1324(4) 0.040(2) Uani 1 1 d .
H5A H -0.5469 0.3417 0.1439 0.048 Uiso 1 1 calc R
loop_
_atom_site_aniso_label
_atom_site_aniso_U_11
_atom_site_aniso_U_22
_atom_site_aniso_U_33
_atom_site_aniso_U_23
_atom_site_aniso_U_13
_atom_site_aniso_U_12
I1 0.0341(3) 0.0271(3) 0.0384(3) 0.0045(3) -0.00501(18) -0.0004(3)
C2 0.020(4) 0.031(4) 0.032(4) -0.008(3) 0.003(3) 0.005(3)
C3 0.028(4) 0.035(4) 0.026(4) -0.006(3) 0.002(3) 0.004(3)
C6 0.041(4) 0.044(5) 0.036(4) -0.002(4) 0.007(4) -0.008(4)
C7 0.028(4) 0.037(4) 0.038(5) -0.006(4) -0.007(4) 0.004(3)
C1 0.023(4) 0.020(3) 0.030(4) -0.009(3) 0.002(3) 0.001(3)
C4 0.023(4) 0.048(5) 0.035(5) -0.012(4) -0.010(4) 0.008(3)
N1 0.047(5) 0.061(5) 0.041(5) 0.015(4) -0.011(4) 0.004(4)
C5 0.022(4) 0.056(5) 0.043(5) 0.000(4) 0.010(4) 0.000(3)
loop_
_atom_type_symbol
_atom_type_description
_atom_type_scat_dispersion_real
_atom_type_scat_dispersion_imag
_atom_type_scat_source
C C 0.0033 0.0016 'International Tables Vol C Tables 4.2.6.8 and 6.1.1.4'
H H 0.0000 0.0000 'International Tables Vol C Tables 4.2.6.8 and 6.1.1.4'
N N 0.0061 0.0033 'International Tables Vol C Tables 4.2.6.8 and 6.1.1.4'
I I -0.4742 1.8119 'International Tables Vol C Tables 4.2.6.8 and 6.1.1.4'
loop_
_geom_angle_atom_site_label_1
_geom_angle_atom_site_label_2
_geom_angle_atom_site_label_3
_geom_angle
C1 C2 C3 118.0(7)
C2 C3 C4 120.7(7)
C2 C3 C7 120.3(6)
C4 C3 C7 119.0(6)
C5 C6 C1 119.2(7)
N1 C7 C3 178.3(8)
C2 C1 C6 121.9(7)
C2 C1 I1 119.4(5)
C6 C1 I1 118.7(5)
C5 C4 C3 119.1(7)
C6 C5 C4 121.1(7)
loop_
_geom_bond_atom_site_label_1
_geom_bond_atom_site_label_2
_geom_bond_distance
I1 C1 2.067(7)
C2 C1 1.355(10)
C2 C3 1.375(9)
C3 C4 1.383(10)
C3 C7 1.430(11)
C6 C5 1.349(11)
C6 C1 1.367(9)
C7 N1 1.101(9)
C4 C5 1.355(10)
