#------------------------------------------------------------------------------
#$Date: 2016-03-24 03:10:02 +0200 (Thu, 24 Mar 2016) $
#$Revision: 179616 $
#$URL: svn://www.crystallography.net/cod/cif/4/50/80/4508025.cif $
#------------------------------------------------------------------------------
#
# This file is available in the Crystallography Open Database (COD),
# http://www.crystallography.net/
#
# All data on this site have been placed in the public domain by the
# contributors.
#
data_4508025
loop_
_publ_author_name
'Bhattacharya, Suman'
'Saraswatula, Viswanadha G.'
'Saha, Binoy K.'
_publ_section_title
;
 Thermal Expansion in Alkane Diacids---Another Property Showing
 Alternation in an Odd--Even Series
;
_journal_issue                   8
_journal_name_full               'Crystal Growth &amp; Design'
_journal_page_first              3651
_journal_paper_doi               10.1021/cg400668w
_journal_volume                  13
_journal_year                    2013
_chemical_formula_moiety         'C8 H14 O4'
_chemical_formula_sum            'C8 H14 O4'
_chemical_formula_weight         174.18
_chemical_name_common            C8-260
_chemical_name_systematic        'Octane-1,8-dioic acid'
_space_group_crystal_system      monoclinic
_space_group_IT_number           14
_space_group_name_Hall           '-P 2ybc'
_space_group_name_H-M_alt        'P 1 21/c 1'
_symmetry_space_group_name_Hall  '-P 2ybc'
_symmetry_space_group_name_H-M   'P 1 21/c 1'
_atom_sites_solution_hydrogens   geom
_atom_sites_solution_primary     direct
_atom_sites_solution_secondary   difmap
_audit_creation_date             2012-12-09
_audit_creation_method
;
  Olex2 1.2-ac2
  (compiled 2012.03.27 svn.r2268, GUI svn.r4156)
;
_cell_angle_alpha                90.00
_cell_angle_beta                 97.610(6)
_cell_angle_gamma                90.00
_cell_formula_units_Z            2
_cell_length_a                   8.9252(6)
_cell_length_b                   5.0606(4)
_cell_length_c                   10.0450(8)
_cell_measurement_reflns_used    630
_cell_measurement_temperature    260(2)
_cell_measurement_theta_max      28.6830
_cell_measurement_theta_min      4.0853
_cell_volume                     449.71(6)
_computing_cell_refinement
;
CrysAlisPro, Agilent Technologies,
Version 1.171.36.21 (release 14-08-2012 CrysAlis171 .NET)
(compiled Sep 14 2012,17:21:16)
;
_computing_data_collection
;
CrysAlisPro, Agilent Technologies,
Version 1.171.36.21 (release 14-08-2012 CrysAlis171 .NET)
(compiled Sep 14 2012,17:21:16)
;
_computing_data_reduction
;
CrysAlisPro, Agilent Technologies,
Version 1.171.36.21 (release 14-08-2012 CrysAlis171 .NET)
(compiled Sep 14 2012,17:21:16)
;
_computing_molecular_graphics
;
O. V. Dolomanov, L. J. Bourhis, R. J. Gildea, J. A. K. Howard and H. Puschmann,
OLEX2: a complete structure solution, refinement and analysis program.
J. Appl. Cryst. (2009). 42, 339-341.
;
_computing_publication_material
;
O. V. Dolomanov, L. J. Bourhis, R. J. Gildea, J. A. K. Howard and H. Puschmann,
OLEX2: a complete structure solution, refinement and analysis program.
J. Appl. Cryst. (2009). 42, 339-341.
;
_computing_structure_refinement
;
SHELXL, G.M. Sheldrick, Acta Cryst.
(2008). A64, 112-122
;
_computing_structure_solution
;
SHELXS, G.M. Sheldrick, Acta Cryst.
(2008). A64, 112-122
;
_diffrn_ambient_temperature      260(2)
_diffrn_detector_area_resol_mean 15.9821
_diffrn_measured_fraction_theta_full 0.9844
_diffrn_measured_fraction_theta_max 0.8824
_diffrn_measurement_details
;
  1 omega   -3.00   24.00   1.0000    6.0000
omega____ theta____ kappa____ phi______ frames
    -      -17.4960  -99.0000    0.0000 27

  2 omega  -44.00   33.00   1.0000    6.0000
omega____ theta____ kappa____ phi______ frames
    -      -17.4960   77.0000  -30.0000 77

  3 omega  -43.00   51.00   1.0000    6.0000
omega____ theta____ kappa____ phi______ frames
    -      -17.4960   37.0000 -120.0000 94

  4 omega  -90.00   -8.00   1.0000    6.0000
omega____ theta____ kappa____ phi______ frames
    -      -17.4960  -37.0000 -150.0000 82
;
_diffrn_measurement_device_type  'Xcalibur, Eos'
_diffrn_measurement_method       '\w scans'
_diffrn_orient_matrix_UB_11      -0.0548181000
_diffrn_orient_matrix_UB_12      -0.1020257000
_diffrn_orient_matrix_UB_13      -0.0031491000
_diffrn_orient_matrix_UB_21      -0.0583515000
_diffrn_orient_matrix_UB_22      0.0960532000
_diffrn_orient_matrix_UB_23      -0.0051793000
_diffrn_orient_matrix_UB_31      -0.0039442000
_diffrn_orient_matrix_UB_32      -0.0024999000
_diffrn_orient_matrix_UB_33      -0.0709772000
_diffrn_radiation_monochromator  graphite
_diffrn_radiation_type           'Mo K\a'
_diffrn_radiation_wavelength     0.7107
_diffrn_reflns_av_R_equivalents  0.0182
_diffrn_reflns_av_unetI/netI     0.0289
_diffrn_reflns_limit_h_max       11
_diffrn_reflns_limit_h_min       -11
_diffrn_reflns_limit_k_max       6
_diffrn_reflns_limit_k_min       -6
_diffrn_reflns_limit_l_max       13
_diffrn_reflns_limit_l_min       -12
_diffrn_reflns_number            2268
_diffrn_reflns_theta_full        25.00
_diffrn_reflns_theta_max         28.75
_diffrn_reflns_theta_min         4.09
_diffrn_source                   'Enhance (Mo) X-ray Source'
_exptl_absorpt_coefficient_mu    0.102
_exptl_absorpt_correction_T_max  1.00000
_exptl_absorpt_correction_T_min  0.87550
_exptl_absorpt_correction_type   multi-scan
_exptl_absorpt_process_details
;
CrysAlisPro, Agilent Technologies,
Version 1.171.36.21 (release 14-08-2012 CrysAlis171 .NET)
(compiled Sep 14 2012,17:21:16)
Empirical absorption correction using spherical harmonics,
 implemented in SCALE3 ABSPACK scaling algorithm.
;
_exptl_crystal_colour            colourless
_exptl_crystal_colour_primary    colourless
_exptl_crystal_density_diffrn    1.286
_exptl_crystal_density_method    'not measured'
_exptl_crystal_description       plate
_exptl_crystal_F_000             184
_exptl_crystal_size_max          0.46
_exptl_crystal_size_mid          0.44
_exptl_crystal_size_min          0.12
_refine_diff_density_max         0.167
_refine_diff_density_min         -0.237
_refine_diff_density_rms         0.055
_refine_ls_extinction_method     none
_refine_ls_goodness_of_fit_ref   1.056
_refine_ls_hydrogen_treatment    mixed
_refine_ls_matrix_type           full
_refine_ls_number_parameters     59
_refine_ls_number_reflns         1027
_refine_ls_number_restraints     0
_refine_ls_restrained_S_all      1.056
_refine_ls_R_factor_all          0.0683
_refine_ls_R_factor_gt           0.0470
_refine_ls_shift/su_max          0.000
_refine_ls_shift/su_mean         0.000
_refine_ls_structure_factor_coef Fsqd
_refine_ls_weighting_details
'calc w=1/[\s^2^(Fo^2^)+(0.0656P)^2^+0.0478P] where P=(Fo^2^+2Fc^2^)/3'
_refine_ls_weighting_scheme      calc
_refine_ls_wR_factor_gt          0.1156
_refine_ls_wR_factor_ref         0.1313
_reflns_number_gt                741
_reflns_number_total             1027
_reflns_threshold_expression     >2sigma(I)
_cod_data_source_file            cg400668w_si_002.cif
_cod_data_source_block           C8-260
_cod_original_cell_volume        449.70(6)
_cod_database_code               4508025
loop_
_space_group_symop_id
_space_group_symop_operation_xyz
1 'x, y, z'
2 '-x, y+1/2, -z+1/2'
3 '-x, -y, -z'
4 'x, -y-1/2, z-1/2'
loop_
_atom_site_label
_atom_site_type_symbol
_atom_site_fract_x
_atom_site_fract_y
_atom_site_fract_z
_atom_site_U_iso_or_equiv
_atom_site_adp_type
_atom_site_occupancy
_atom_site_symmetry_multiplicity
_atom_site_calc_flag
_atom_site_refinement_flags
O1 O 0.65876(12) 0.0958(3) 0.59744(11) 0.0475(4) Uani 1 1 d .
C1 C 0.62971(15) -0.1018(3) 0.66059(15) 0.0336(4) Uani 1 1 d .
O2 O 0.51527(13) -0.2555(3) 0.62177(13) 0.0501(4) Uani 1 1 d .
C3 C 0.85259(17) -0.0043(4) 0.83831(15) 0.0386(4) Uani 1 1 d .
H3A H 0.9231 0.0018 0.7727 0.046 Uiso 1 1 calc R
H3B H 0.8134 0.1727 0.8470 0.046 Uiso 1 1 calc R
C2 C 0.72293(17) -0.1872(3) 0.78749(15) 0.0377(4) Uani 1 1 d .
H2A H 0.7639 -0.3610 0.7735 0.045 Uiso 1 1 calc R
H2B H 0.6574 -0.2037 0.8567 0.045 Uiso 1 1 calc R
C4 C 0.93623(18) -0.0900(4) 0.97238(16) 0.0417(5) Uani 1 1 d .
H4A H 0.8647 -0.1005 1.0369 0.050 Uiso 1 1 calc R
H4B H 0.9766 -0.2659 0.9627 0.050 Uiso 1 1 calc R
H2 H 0.456(3) -0.187(6) 0.544(3) 0.105(9) Uiso 1 1 d .
loop_
_atom_site_aniso_label
_atom_site_aniso_U_11
_atom_site_aniso_U_22
_atom_site_aniso_U_33
_atom_site_aniso_U_23
_atom_site_aniso_U_13
_atom_site_aniso_U_12
O1 0.0437(7) 0.0522(9) 0.0425(7) 0.0170(6) -0.0098(5) -0.0084(6)
C1 0.0299(7) 0.0375(9) 0.0324(8) 0.0020(7) 0.0002(6) 0.0015(6)
O2 0.0473(7) 0.0518(9) 0.0457(7) 0.0115(6) -0.0143(5) -0.0131(6)
C3 0.0361(8) 0.0406(10) 0.0361(9) 0.0075(8) -0.0059(6) -0.0005(7)
C2 0.0368(8) 0.0392(10) 0.0346(9) 0.0061(7) -0.0047(6) 0.0002(7)
C4 0.0413(9) 0.0427(10) 0.0372(9) 0.0092(8) -0.0090(6) -0.0044(7)
loop_
_atom_type_symbol
_atom_type_description
_atom_type_scat_dispersion_real
_atom_type_scat_dispersion_imag
_atom_type_scat_source
C C 0.0033 0.0016 'International Tables Vol C Tables 4.2.6.8 and 6.1.1.4'
H H 0.0000 0.0000 'International Tables Vol C Tables 4.2.6.8 and 6.1.1.4'
O O 0.0106 0.0060 'International Tables Vol C Tables 4.2.6.8 and 6.1.1.4'
loop_
_geom_angle_atom_site_label_1
_geom_angle_atom_site_label_2
_geom_angle_atom_site_label_3
_geom_angle
_geom_angle_site_symmetry_1
O1 C1 O2 122.81(14) .
O1 C1 C2 123.01(14) .
O2 C1 C2 114.18(14) .
C1 O2 H2 110.8(17) .
H3A C3 H3B 107.8 .
C2 C3 H3A 109.0 .
C2 C3 H3B 109.0 .
C4 C3 H3A 109.0 .
C4 C3 H3B 109.0 .
C4 C3 C2 112.90(14) .
C1 C2 C3 115.18(14) .
C1 C2 H2A 108.5 .
C1 C2 H2B 108.5 .
C3 C2 H2A 108.5 .
C3 C2 H2B 108.5 .
H2A C2 H2B 107.5 .
C3 C4 H4A 108.6 .
C3 C4 H4B 108.6 .
C4 C4 C3 114.48(18) 3_757
C4 C4 H4A 108.6 3_757
C4 C4 H4B 108.6 3_757
H4A C4 H4B 107.6 .
loop_
_geom_bond_atom_site_label_1
_geom_bond_atom_site_label_2
_geom_bond_distance
_geom_bond_site_symmetry_2
O1 C1 1.2298(19) .
C1 O2 1.3019(19) .
C1 C2 1.491(2) .
O2 H2 0.95(3) .
C3 H3A 0.9700 .
C3 H3B 0.9700 .
C3 C2 1.516(2) .
C3 C4 1.514(2) .
C2 H2A 0.9700 .
C2 H2B 0.9700 .
C4 C4 1.505(3) 3_757
C4 H4A 0.9700 .
C4 H4B 0.9700 .
loop_
_geom_torsion_atom_site_label_1
_geom_torsion_atom_site_label_2
_geom_torsion_atom_site_label_3
_geom_torsion_atom_site_label_4
_geom_torsion
_geom_torsion_site_symmetry_4
O1 C1 C2 C3 3.2(2) .
O2 C1 C2 C3 -177.24(14) .
C2 C3 C4 C4 -178.76(18) 3_757
C4 C3 C2 C1 175.82(14) .
