#------------------------------------------------------------------------------
#$Date: 2016-03-24 03:13:03 +0200 (Thu, 24 Mar 2016) $
#$Revision: 179619 $
#$URL: svn://www.crystallography.net/cod/cif/4/50/83/4508326.cif $
#------------------------------------------------------------------------------
#
# This file is available in the Crystallography Open Database (COD),
# http://www.crystallography.net/
#
# All data on this site have been placed in the public domain by the
# contributors.
#
data_4508326
loop_
_publ_author_name
'Durka, Krzysztof'
'Jarzembska, Katarzyna N.'
'Kami\'nski, Rados\/law'
'Luli\'nski, Sergiusz'
'Serwatowski, Janusz'
'Wo\'zniak, Krzysztof'
_publ_section_title
;
 Nanotubular Hydrogen-Bonded Organic Framework Architecture of
 1,2-Phenylenediboronic Acid Hosting Ice Clusters
;
_journal_issue                   10
_journal_name_full               'Crystal Growth &amp; Design'
_journal_page_first              4181
_journal_paper_doi               10.1021/cg401087j
_journal_volume                  13
_journal_year                    2013
_chemical_formula_sum            'C6 H8 B2 O4'
_chemical_formula_weight         165.7
_chemical_melting_point          121
_chemical_name_systematic
; 
 1,2-phenylenediboronic acid   
;
_space_group_IT_number           14
_symmetry_cell_setting           monoclinic
_symmetry_Int_Tables_number      14
_symmetry_space_group_name_Hall  '-P 2yn'
_symmetry_space_group_name_H-M   'P 1 21/n 1'
_cell_angle_alpha                90
_cell_angle_beta                 95.392(5)
_cell_angle_gamma                90
_cell_formula_units_Z            4
_cell_length_a                   5.8016(4)
_cell_length_b                   11.9737(7)
_cell_length_c                   11.5439(6)
_cell_measurement_reflns_used    1308
_cell_measurement_temperature    100
_cell_measurement_theta_max      31.44
_cell_measurement_theta_min      2.11
_cell_volume                     798.37(8)
_computing_cell_refinement       'Bruker APEX2 software'
_computing_data_collection       'Bruker APEX2 software (APEX2, 2010)'
_computing_data_reduction
;
SAINT intergration software (SAINT, 2010),
SORTAV (Blessing, 1995)
;
_computing_molecular_graphics    'Diamond 3.0d (Diamond, 2005)'
_computing_structure_refinement
;
JANA2006
;
_computing_structure_solution
;
JANA2006
;
_diffrn_ambient_temperature      100(2)
_diffrn_detector                 'APEXII CCD camera'
_diffrn_measured_fraction_theta_full 0.98
_diffrn_measured_fraction_theta_max 0.93
_diffrn_measurement_device       '\k-geometry diffractometer'
_diffrn_measurement_device_type  'Bruker APEXII'
_diffrn_measurement_method       'omega scans'
_diffrn_orient_matrix_type       'X-axis to radiation source'
_diffrn_radiation_monochromator  'multi-layer optics'
_diffrn_radiation_probe          x-ray
_diffrn_radiation_source         'TXS rotating anode'
_diffrn_radiation_type           MoK\a
_diffrn_radiation_wavelength     0.71073
_diffrn_reflns_av_R_equivalents  0.0311
_diffrn_reflns_av_sigmaI/netI    0.0264
_diffrn_reflns_limit_h_max       7
_diffrn_reflns_limit_h_min       -7
_diffrn_reflns_limit_k_max       16
_diffrn_reflns_limit_k_min       -16
_diffrn_reflns_limit_l_max       15
_diffrn_reflns_limit_l_min       -15
_diffrn_reflns_number            11303
_diffrn_reflns_theta_full        28.56
_diffrn_reflns_theta_max         29.38
_diffrn_reflns_theta_min         2.46
_diffrn_source                   'rotating-anode X-ray source'
_exptl_absorpt_coefficient_mu    0.109
_exptl_absorpt_correction_T_max  0.99213
_exptl_absorpt_correction_T_min  0.98642
_exptl_absorpt_correction_type   multi-scan
_exptl_absorpt_process_details
;
 R. H. Blessing, Acta Cryst., 1995, A51, 33
;
_exptl_crystal_colour            colourless
_exptl_crystal_density_diffrn    1.3785
_exptl_crystal_density_method    'Not Measured'
_exptl_crystal_description       unspecified
_exptl_crystal_F_000             344
_exptl_crystal_size_max          0.10
_exptl_crystal_size_mid          0.10
_exptl_crystal_size_min          0.08
_refine_diff_density_max         0.16
_refine_diff_density_min         -0.14
_refine_ls_extinction_method     none
_refine_ls_goodness_of_fit_gt    1.39
_refine_ls_goodness_of_fit_ref   1.26
_refine_ls_hydrogen_treatment    mixed
_refine_ls_number_constraints    20
_refine_ls_number_parameters     121
_refine_ls_number_reflns         2037
_refine_ls_number_restraints     4
_refine_ls_R_factor_all          0.0539
_refine_ls_R_factor_gt           0.0249
_refine_ls_shift/su_max          0.0210
_refine_ls_shift/su_mean         0.0018
_refine_ls_structure_factor_coef F
_refine_ls_weighting_details     w=1/(\s^2^(F)+0.0001F^2^)
_refine_ls_weighting_scheme      sigma
_refine_ls_wR_factor_gt          0.0284
_refine_ls_wR_factor_ref         0.0323
_reflns_number_gt                1342
_reflns_number_total             2037
_reflns_threshold_expression     I>3\s(I)
_iucr_refine_instructions_details
;
 TAAM refinement with JANA program
;
_cod_data_source_file            cg401087j_si_002.cif
_cod_data_source_block           1c
_cod_depositor_comments
;
The following automatic conversions were performed:

'_diffrn_radiation_probe' value 'X-ray' changed to 'x-ray' according
to /home/saulius/struct/CIF-dictionaries/cif_core.dic dictionary
named 'cif_core.dic' version 2.4.2 from 2011-04-26.

Automatic conversion script
Id: cif_fix_values 1891 2012-01-12 08:04:46Z andrius 
;
_cod_database_code               4508326
loop_
_symmetry_equiv_pos_site_id
_symmetry_equiv_pos_as_xyz
1 x,y,z
2 -x+1/2,y+1/2,-z+1/2
3 -x,-y,-z
4 x+1/2,-y+1/2,z+1/2
loop_
_atom_site_label
_atom_site_type_symbol
_atom_site_fract_x
_atom_site_fract_y
_atom_site_fract_z
_atom_site_adp_type
_atom_site_U_iso_or_equiv
_atom_site_symmetry_multiplicity
_atom_site_occupancy
_atom_site_calc_flag
O1 O 0.22390(11) 0.49305(6) 0.13142(5) Uani 0.0156(2) 4 1 d
O3 O 0.11675(11) 0.14383(6) -0.02526(6) Uani 0.0165(2) 4 1 d
O2 O 0.08911(12) 0.36639(6) -0.01402(6) Uani 0.0154(2) 4 1 d
O4 O 0.18157(11) 0.01387(6) 0.12623(5) Uani 0.0148(2) 4 1 d
C2 C 0.43231(16) 0.19139(8) 0.13566(8) Uani 0.0110(3) 4 1 d
C6 C 0.63544(15) 0.36457(8) 0.18588(8) Uani 0.0135(3) 4 1 d
C4 C 0.81829(17) 0.19000(9) 0.24182(8) Uani 0.0146(3) 4 1 d
C3 C 0.62466(16) 0.13427(8) 0.19025(8) Uani 0.0140(3) 4 1 d
C5 C 0.82460(17) 0.30584(9) 0.23932(8) Uani 0.0142(3) 4 1 d
C1 C 0.43754(16) 0.31031(8) 0.13411(8) Uani 0.0111(3) 4 1 d
B1 B 0.23930(18) 0.39046(9) 0.08027(9) Uani 0.0114(3) 4 1 d
B2 B 0.23245(19) 0.11458(10) 0.07817(9) Uani 0.0121(3) 4 1 d
H6 H 0.641784 0.454951 0.184364 Uiso 0.0162 4 1 d
H4 H 0.962952 0.143343 0.283593 Uiso 0.0175 4 1 d
H3 H 0.621976 0.043852 0.192203 Uiso 0.0167 4 1 d
H5 H 0.974798 0.350319 0.278435 Uiso 0.0171 4 1 d
H7 H 0.1079(15) 0.5429(8) 0.0911(9) Uiso 0.0234 4 1 d
H8 H 0.098(2) 0.2886(3) -0.0404(10) Uiso 0.0232 4 1 d
H10 H 0.2351(18) 0.0079(10) 0.2093(3) Uiso 0.0222 4 1 d
H9 H 0.0044(16) 0.0879(8) -0.0576(10) Uiso 0.0248 4 1 d
loop_
_atom_site_aniso_label
_atom_site_aniso_type_symbol
_atom_site_aniso_U_11
_atom_site_aniso_U_22
_atom_site_aniso_U_33
_atom_site_aniso_U_12
_atom_site_aniso_U_13
_atom_site_aniso_U_23
O1 O 0.0196(4) 0.0095(4) 0.0162(4) 0.0031(3) -0.0060(3) -0.0028(3)
O3 O 0.0230(4) 0.0114(4) 0.0137(4) -0.0028(3) -0.0057(3) 0.0016(3)
O2 O 0.0195(4) 0.0117(4) 0.0135(4) 0.0022(3) -0.0070(3) 0.0000(3)
O4 O 0.0195(4) 0.0096(4) 0.0142(3) -0.0028(3) -0.0038(3) 0.0004(3)
C2 C 0.0119(5) 0.0090(5) 0.0115(5) -0.0007(4) -0.0027(4) 0.0008(4)
C6 C 0.0132(5) 0.0092(5) 0.0171(5) -0.0011(4) -0.0031(4) -0.0004(4)
C4 C 0.0112(5) 0.0132(6) 0.0186(5) 0.0020(4) -0.0019(4) 0.0003(4)
C3 C 0.0138(5) 0.0088(5) 0.0185(5) 0.0011(4) -0.0024(4) 0.0019(4)
C5 C 0.0105(5) 0.0135(6) 0.0181(5) -0.0005(4) -0.0019(4) -0.0013(4)
C1 C 0.0120(5) 0.0083(5) 0.0124(5) 0.0003(4) -0.0022(4) 0.0001(4)
B1 B 0.0145(5) 0.0092(6) 0.0098(5) 0.0018(5) -0.0029(4) -0.0003(4)
B2 B 0.0145(5) 0.0084(6) 0.0129(6) -0.0009(5) -0.0021(4) 0.0003(5)
loop_
_atom_type_symbol
_atom_type_scat_dispersion_real
_atom_type_scat_dispersion_imag
_atom_type_scat_source
_atom_type_scat_versus_stol_list
C 0.0033 0.0016 'International Tables Vol C tables 4.2.6.8 and 6.1.1.1'
;
 stol     0.00    0.05    0.10    0.15    0.20    0.25    0.30    0.35    0.40
  f      6.000   5.755   5.129   4.349   3.605   2.993   2.530   2.198   1.966
 stol     0.45    0.50    0.55    0.60    0.65    0.70    0.75    0.80    0.85
  f      1.805   1.690   1.604   1.535   1.476   1.422   1.369   1.317   1.265
 stol     0.90    0.95    1.00    1.05    1.10    1.15    1.20    1.25    1.30
  f      1.213   1.161   1.109   1.058   1.007   0.958   0.910   0.863   0.818
 stol     1.35    1.40    1.45    1.50    1.55    1.60    1.65    1.70    1.75
  f      0.775   0.734   0.694   0.656   0.621   0.587   0.554   0.524   0.495
;
H 0.0000 0.0000 'International Tables Vol C tables 4.2.6.8 and 6.1.1.1'
;
 stol     0.00    0.05    0.10    0.15    0.20    0.25    0.30    0.35    0.40
  f      1.000   0.943   0.801   0.628   0.469   0.341   0.246   0.178   0.130
 stol     0.45    0.50    0.55    0.60    0.65    0.70    0.75    0.80    0.85
  f      0.096   0.071   0.054   0.041   0.032   0.025   0.020   0.016   0.013
 stol     0.90    0.95    1.00    1.05    1.10    1.15    1.20    1.25    1.30
  f      0.011   0.009   0.007   0.006   0.005   0.004   0.004   0.003   0.003
 stol     1.35    1.40    1.45    1.50    1.55    1.60    1.65    1.70    1.75
  f      0.002   0.002   0.002   0.002   0.001   0.001   0.001   0.001   0.001
;
B 0.0013 0.0007 'International Tables Vol C tables 4.2.6.8 and 6.1.1.1'
;
 stol     0.00    0.05    0.10    0.15    0.20    0.25    0.30    0.35    0.40
  f      5.000   4.726   4.069   3.334   2.720   2.280   1.990   1.804   1.681
 stol     0.45    0.50    0.55    0.60    0.65    0.70    0.75    0.80    0.85
  f      1.594   1.523   1.459   1.397   1.334   1.270   1.206   1.142   1.078
 stol     0.90    0.95    1.00    1.05    1.10    1.15    1.20    1.25    1.30
  f      1.016   0.955   0.896   0.840   0.787   0.736   0.688   0.643   0.600
 stol     1.35    1.40    1.45    1.50    1.55    1.60    1.65    1.70    1.75
  f      0.561   0.524   0.489   0.456   0.426   0.398   0.372   0.348   0.325
;
O 0.0106 0.0060 'International Tables Vol C tables 4.2.6.8 and 6.1.1.1'
;
 stol     0.00    0.05    0.10    0.15    0.20    0.25    0.30    0.35    0.40
  f      8.000   7.799   7.253   6.493   5.658   4.855   4.142   3.544   3.059
 stol     0.45    0.50    0.55    0.60    0.65    0.70    0.75    0.80    0.85
  f      2.675   2.377   2.147   1.971   1.835   1.728   1.644   1.574   1.516
 stol     0.90    0.95    1.00    1.05    1.10    1.15    1.20    1.25    1.30
  f      1.465   1.418   1.375   1.334   1.295   1.256   1.217   1.179   1.141
 stol     1.35    1.40    1.45    1.50    1.55    1.60    1.65    1.70    1.75
  f      1.104   1.066   1.029   0.993   0.957   0.922   0.888   0.854   0.821
;
loop_
_geom_angle_atom_site_label_1
_geom_angle_atom_site_label_2
_geom_angle_atom_site_label_3
_geom_angle
_geom_angle_publ_flag
B1 O1 H7 114.0(10) no
B1 O2 H8 114.0(10) no
B2 O3 H9 114.0(10) no
B2 O4 H10 113.0(10) no
C2 C1 C6 118.37(10) no
C2 C1 B1 126.63(10) yes
C6 C1 B1 115.00(10) yes
C3 C2 B2 115.22(10) yes
C1 C2 C3 118.35(10) no
C1 C2 B2 126.41(10) yes
C2 C3 C4 122.22(10) no
C3 C4 C5 119.49(10) no
C4 C5 C6 119.41(10) no
C1 C6 C5 122.17(10) no
C4 C3 H3 119.00 no
C2 C3 H3 119.00 no
C3 C4 H4 120.00 no
C5 C4 H4 120.00 no
C4 C5 H5 120.00 no
C6 C5 H5 120.00 no
C5 C6 H6 119.00 no
C1 C6 H6 119.00 no
O1 B1 O2 118.19(10) yes
O2 B1 C1 125.05(10) yes
O1 B1 C1 116.73(10) yes
O3 B2 C2 120.15(10) yes
O4 B2 C2 121.36(10) yes
O3 B2 O4 118.34(10) yes
loop_
_geom_bond_atom_site_label_1
_geom_bond_atom_site_label_2
_geom_bond_distance
_geom_bond_publ_flag
O1 B1 1.3695(10) yes
O2 B1 1.3597(10) yes
O3 B2 1.3595(10) yes
O4 B2 1.3711(10) yes
O1 H7 0.980(10) no
O2 H8 0.980(10) no
O3 H9 0.980(10) no
O4 H10 0.980(4) no
C1 C2 1.4244(10) no
C1 C6 1.4030(10) no
C1 B1 1.5798(10) yes
C2 C3 1.4064(10) no
C2 B2 1.5767(10) yes
C3 C4 1.3914(10) no
C4 C5 1.3879(10) no
C5 C6 1.3972(10) no
C3 H3 1.0800 no
C4 H4 1.0800 no
C5 H5 1.0800 no
C6 H6 1.0800 no
loop_
_refln_index_h
_refln_index_k
_refln_index_l
_refln_F_squared_calc
_refln_F_squared_meas
_refln_F_squared_sigma
_refln_observed_status
2 0 0 2029.54 2017.73 11.24 o
4 0 0 367.42 357.82 6.47 o
6 0 0 103.92 101.94 5.08 o
1 1 0 17.67 17.42 0.76 o
2 1 0 323.83 334.50 3.18 o
3 1 0 198.94 197.41 3.02 o
4 1 0 7.43 8.28 1.30 o
5 1 0 29.08 28.54 1.98 o
6 1 0 374.83 373.03 6.32 o
7 1 0 39.26 41.33 4.17 o
0 2 0 40.00 16.03 1.01 o
1 2 0 40.06 36.11 1.09 o
2 2 0 2074.47 2073.92 9.71 o
3 2 0 16.75 16.74 1.42 o
4 2 0 282.34 278.14 4.76 o
5 2 0 108.81 107.30 3.35 o
6 2 0 0.01 0.43 1.99 <
7 2 0 3.27 4.20 2.81 <
1 3 0 46.44 55.80 1.65 o
2 3 0 4107.48 4157.33 13.68 o
3 3 0 0.23 1.24 1.36 <
4 3 0 16.19 18.95 1.71 o
5 3 0 4.71 5.38 1.69 o
6 3 0 2.06 1.58 2.64 <
7 3 0 0.02 0.22 3.15 <
0 4 0 2332.17 2320.54 14.64 o
1 4 0 0.58 0.22 1.23 <
2 4 0 666.79 664.50 5.64 o
3 4 0 0.58 -0.24 1.46 <
4 4 0 519.16 508.38 7.17 o
5 4 0 0.51 0.38 1.97 <
6 4 0 170.67 165.05 6.55 o
7 4 0 13.61 12.73 3.30 o
1 5 0 49.90 53.42 2.40 o
2 5 0 934.14 915.21 8.60 o
3 5 0 9.35 7.65 1.44 o
4 5 0 103.61 96.88 3.73 o
5 5 0 4.59 5.96 2.18 <
6 5 0 277.73 268.90 8.30 o
7 5 0 0.39 -5.32 4.22 <
0 6 0 7296.14 7557.39 32.73 o
1 6 0 16.66 17.74 1.81 o
2 6 0 133.14 135.36 3.58 o
3 6 0 60.14 58.43 3.23 o
4 6 0 118.94 121.15 4.28 o
5 6 0 2.33 5.88 2.12 <
6 6 0 4.14 1.91 3.00 <
7 6 0 0.00 -13.45 9.27 <
1 7 0 14.07 10.27 1.73 o
2 7 0 605.99 562.92 7.90 o
3 7 0 148.98 149.78 5.01 o
4 7 0 30.91 32.98 3.16 o
5 7 0 1.91 -0.50 2.67 <
6 7 0 34.36 31.39 4.08 o
0 8 0 1288.12 1305.34 13.65 o
1 8 0 71.04 71.66 2.97 o
2 8 0 543.08 544.50 8.29 o
3 8 0 5.11 5.06 2.09 <
4 8 0 3.22 -0.50 2.51 <
5 8 0 34.51 40.77 4.22 o
6 8 0 74.33 72.32 6.29 o
1 9 0 21.03 20.38 2.08 o
2 9 0 3103.72 3058.57 24.27 o
3 9 0 0.01 0.47 2.17 <
4 9 0 4.59 4.50 2.86 <
5 9 0 12.53 4.17 4.80 <
6 9 0 0.01 2.45 4.22 <
0 10 0 423.77 437.27 9.15 o
1 10 0 12.04 12.90 2.10 o
2 10 0 466.24 457.35 8.97 o
3 10 0 32.71 31.35 3.43 o
4 10 0 448.61 462.49 11.20 o
5 10 0 33.41 37.30 6.84 o
1 11 0 16.02 12.51 2.30 o
2 11 0 7.54 8.59 2.53 o
3 11 0 6.56 1.20 2.64 <
4 11 0 85.27 89.38 8.53 o
5 11 0 2.70 5.41 5.02 <
0 12 0 218.95 222.37 7.47 o
1 12 0 4.91 7.40 2.46 o
2 12 0 21.68 21.35 3.18 o
3 12 0 3.85 -2.07 2.87 <
4 12 0 136.41 129.31 10.54 o
1 13 0 23.36 22.78 3.12 o
2 13 0 231.46 237.40 7.83 o
3 13 0 8.97 7.30 3.88 <
4 13 0 114.03 133.68 9.15 o
0 14 0 78.93 76.01 7.46 o
1 14 0 4.64 4.26 3.01 <
2 14 0 3.20 7.23 3.80 <
3 14 0 51.74 50.08 4.85 o
1 15 0 14.39 9.38 5.75 <
2 15 0 316.92 326.19 12.74 o
3 15 0 0.16 8.19 8.18 <
1 16 0 21.21 13.65 8.13 <
-7 0 1 80.31 77.36 5.88 o
-5 0 1 1270.90 1279.90 14.29 o
-3 0 1 2913.20 2980.13 15.18 o
-1 0 1 672.60 637.57 4.90 o
1 0 1 1166.52 1229.21 4.50 o
3 0 1 72.71 74.86 2.46 o
5 0 1 642.30 611.07 9.72 o
7 0 1 3.45 1.88 3.45 <
-7 1 1 29.25 28.19 3.52 o
-6 1 1 56.83 58.93 3.02 o
-5 1 1 47.15 46.91 2.49 o
-4 1 1 106.83 106.41 2.74 o
-3 1 1 1281.18 1270.73 7.63 o
-2 1 1 38.47 37.66 1.50 o
-1 1 1 6003.96 6072.98 12.07 o
0 1 1 4.65 0.75 0.29 <
1 1 1 311.26 322.54 2.03 o
2 1 1 31.94 32.06 1.46 o
3 1 1 121.36 117.95 2.47 o
4 1 1 54.62 53.74 2.08 o
5 1 1 1251.43 1247.53 9.31 o
6 1 1 93.41 96.67 4.02 o
7 1 1 43.04 38.57 3.65 o
-7 2 1 1.52 -1.90 2.92 <
-6 2 1 0.59 1.37 2.26 <
-5 2 1 1.72 1.32 1.77 <
-4 2 1 48.57 49.23 2.46 o
-3 2 1 1539.66 1509.65 9.87 o
-2 2 1 10.90 11.26 1.40 o
-1 2 1 7060.49 7272.28 12.12 o
0 2 1 1.25 1.11 0.46 <
1 2 1 1638.65 1701.30 5.64 o
2 2 1 13.87 14.54 1.46 o
3 2 1 341.55 332.70 4.19 o
4 2 1 64.90 69.92 2.27 o
5 2 1 349.60 360.61 5.35 o
6 2 1 19.87 18.68 2.77 o
7 2 1 171.93 176.21 6.37 o
-7 3 1 6.89 3.75 2.74 <
-6 3 1 3.93 1.19 2.31 <
-5 3 1 10.95 9.05 1.88 o
-4 3 1 59.47 58.73 2.55 o
-3 3 1 701.52 656.68 5.78 o
-2 3 1 296.09 295.81 3.70 o
-1 3 1 1548.59 1529.86 10.16 o
0 3 1 3.39 3.18 0.75 o
1 3 1 393.22 397.31 3.65 o
2 3 1 6.95 10.42 1.36 o
3 3 1 63.58 62.42 2.46 o
4 3 1 3.00 1.41 1.58 <
5 3 1 53.95 54.18 2.80 o
6 3 1 23.02 20.45 2.98 o
7 3 1 218.68 220.24 7.63 o
-7 4 1 11.01 6.75 3.68 <
-6 4 1 2.05 1.06 2.54 <
-5 4 1 33.70 26.64 2.51 o
-4 4 1 5.95 7.16 1.86 o
-3 4 1 2.55 5.12 1.35 o
-2 4 1 0.75 2.53 1.36 <
-1 4 1 526.33 539.89 5.08 o
0 4 1 17.95 17.95 1.33 o
1 4 1 3974.70 4039.43 14.29 o
2 4 1 0.70 2.58 1.32 <
3 4 1 301.99 299.82 5.25 o
4 4 1 13.19 11.00 1.92 o
5 4 1 488.43 494.78 7.44 o
6 4 1 19.54 16.98 2.96 o
7 4 1 37.68 40.36 4.29 o
-7 5 1 8.42 6.63 4.02 <
-6 5 1 0.00 -1.15 2.97 <
-5 5 1 0.04 4.07 2.38 <
-4 5 1 99.93 99.74 3.83 o
-3 5 1 64.57 61.39 2.82 o
-2 5 1 81.37 80.75 2.45 o
-1 5 1 1281.34 1344.34 8.81 o
0 5 1 14.11 16.34 1.47 o
1 5 1 0.16 1.14 1.15 <
2 5 1 0.30 1.85 1.18 <
3 5 1 1029.92 1012.67 9.83 o
4 5 1 19.41 21.28 2.28 o
5 5 1 171.21 170.61 5.10 o
6 5 1 11.36 12.61 3.24 o
7 5 1 115.17 118.70 8.23 o
-7 6 1 0.95 1.39 5.12 <
-6 6 1 0.37 4.76 3.64 <
-5 6 1 118.67 112.39 4.46 o
-4 6 1 32.06 29.30 2.61 o
-3 6 1 332.67 325.82 6.76 o
-2 6 1 30.87 30.63 1.83 o
-1 6 1 160.15 172.12 3.70 o
0 6 1 12.47 14.70 1.55 o
1 6 1 3.08 2.55 1.54 <
2 6 1 4.36 6.47 1.61 o
3 6 1 120.70 116.80 3.54 o
4 6 1 2.65 4.26 1.89 <
5 6 1 53.33 60.99 3.97 o
6 6 1 16.51 17.15 3.61 o
7 6 1 0.07 0.79 7.56 <
-7 7 1 0.00 -6.02 7.92 <
-6 7 1 31.68 32.98 4.79 o
-5 7 1 161.88 162.86 6.89 o
-4 7 1 42.61 39.08 3.52 o
-3 7 1 1005.69 999.73 13.36 o
-2 7 1 1.18 3.29 1.63 <
-1 7 1 14.89 14.53 1.86 o
0 7 1 2.65 1.15 1.29 <
1 7 1 2.48 3.34 1.39 <
2 7 1 13.51 13.98 1.60 o
3 7 1 60.49 55.30 3.09 o
4 7 1 62.65 53.70 3.31 o
5 7 1 24.81 24.48 3.15 o
6 7 1 46.67 45.15 4.70 o
-6 8 1 30.22 29.35 4.78 o
-5 8 1 5.62 4.27 2.86 <
-4 8 1 1.60 0.46 2.83 <
-3 8 1 1490.59 1453.99 16.84 o
-2 8 1 109.80 99.93 3.88 o
-1 8 1 2138.65 2137.42 13.19 o
0 8 1 12.96 12.22 1.65 o
1 8 1 32.16 30.17 2.16 o
2 8 1 42.90 39.95 2.78 o
3 8 1 544.17 555.86 8.66 o
4 8 1 8.18 9.59 2.59 o
5 8 1 0.72 -1.37 3.57 <
6 8 1 2.08 1.57 4.02 <
-6 9 1 21.86 23.62 5.64 o
-5 9 1 16.53 12.98 3.46 o
-4 9 1 9.85 11.32 3.01 o
-3 9 1 310.30 328.03 8.60 o
-2 9 1 27.59 30.36 3.33 o
-1 9 1 293.45 310.56 5.56 o
0 9 1 56.31 52.03 2.63 o
1 9 1 113.66 118.75 3.87 o
2 9 1 7.41 7.70 2.22 o
3 9 1 333.84 337.06 7.76 o
4 9 1 2.35 5.33 3.25 <
5 9 1 22.97 23.09 4.62 o
6 9 1 41.27 48.40 7.99 o
-5 10 1 564.53 578.46 15.87 o
-4 10 1 22.90 25.34 3.83 o
-3 10 1 8.17 11.09 2.97 o
-2 10 1 4.48 1.26 2.53 <
-1 10 1 39.11 32.47 2.53 o
0 10 1 10.07 12.46 1.90 o
1 10 1 699.57 686.76 9.21 o
2 10 1 0.23 -1.70 2.24 <
3 10 1 139.45 141.49 5.52 o
4 10 1 75.29 68.27 7.65 o
5 10 1 19.32 23.24 5.37 o
-5 11 1 5.36 7.09 5.29 <
-4 11 1 13.46 10.95 3.46 o
-3 11 1 30.87 39.41 3.92 o
-2 11 1 51.47 52.53 3.66 o
-1 11 1 202.32 207.24 5.80 o
0 11 1 2.99 5.81 2.04 <
1 11 1 298.01 295.12 6.59 o
2 11 1 30.05 28.66 3.18 o
3 11 1 508.35 517.73 12.06 o
4 11 1 9.18 8.42 5.27 <
5 11 1 425.26 457.10 15.48 o
-5 12 1 21.47 8.72 7.95 <
-4 12 1 5.36 4.09 4.07 <
-3 12 1 2.37 8.41 3.17 <
-2 12 1 0.92 0.90 2.49 <
-1 12 1 121.17 120.82 4.85 o
0 12 1 7.92 9.83 2.09 o
1 12 1 194.55 193.15 5.92 o
2 12 1 2.99 2.56 3.04 <
3 12 1 7.47 3.98 3.15 <
4 12 1 14.33 10.76 5.72 <
-4 13 1 30.58 30.60 5.91 o
-3 13 1 10.77 10.78 3.40 o
-2 13 1 6.68 4.08 2.68 <
-1 13 1 15.26 17.64 2.88 o
0 13 1 9.67 7.08 2.56 <
1 13 1 185.35 173.60 7.51 o
2 13 1 21.05 20.06 4.65 o
3 13 1 507.25 509.64 15.52 o
4 13 1 36.72 31.59 6.99 o
-4 14 1 14.66 17.12 8.17 <
-3 14 1 95.82 106.45 6.85 o
-2 14 1 39.30 43.21 3.91 o
-1 14 1 38.36 33.58 3.77 o
0 14 1 0.00 -4.50 3.86 <
1 14 1 139.53 150.74 7.41 o
2 14 1 33.22 34.27 4.93 o
3 14 1 71.02 63.10 6.87 o
-3 15 1 4.85 1.21 8.01 <
-2 15 1 0.63 3.54 5.70 <
-1 15 1 10.80 7.66 4.47 <
0 15 1 9.00 10.68 5.19 <
1 15 1 12.04 8.75 4.45 <
2 15 1 3.43 -5.44 4.86 <
0 16 1 0.00 2.95 7.28 <
1 16 1 4.12 13.47 5.97 <
-6 0 2 427.65 418.70 10.89 o
-4 0 2 1293.94 1315.08 10.98 o
-2 0 2 1319.45 1331.99 9.02 o
0 0 2 133.59 144.85 1.67 o
2 0 2 4.63 12.00 1.64 o
4 0 2 1563.54 1570.04 13.86 o
6 0 2 425.30 433.10 11.06 o
-7 1 2 90.03 96.22 4.70 o
-6 1 2 214.37 219.16 5.29 o
-5 1 2 85.67 87.38 3.03 o
-4 1 2 13.30 18.55 1.51 o
-3 1 2 18.53 20.24 1.55 o
-2 1 2 2032.02 2028.38 7.94 o
-1 1 2 21.97 23.41 0.93 o
0 1 2 5243.79 5443.16 7.68 o
1 1 2 2.43 3.47 0.71 o
2 1 2 1608.18 1648.09 8.01 o
3 1 2 126.20 130.01 3.00 o
4 1 2 2.01 3.47 1.39 <
5 1 2 124.21 118.14 3.42 o
6 1 2 0.48 -1.72 2.35 <
7 1 2 25.32 25.38 3.11 o
-7 2 2 0.48 6.38 2.99 <
-6 2 2 397.36 401.70 7.09 o
-5 2 2 64.33 70.22 3.10 o
-4 2 2 53.80 57.13 2.46 o
-3 2 2 2.86 4.90 1.22 o
-2 2 2 1168.40 1106.02 5.77 o
-1 2 2 13.90 13.78 0.98 o
0 2 2 466.15 489.00 2.59 o
1 2 2 10.50 13.15 1.38 o
2 2 2 2934.14 2961.71 9.93 o
3 2 2 22.38 22.03 1.59 o
4 2 2 88.76 91.40 2.67 o
5 2 2 4.70 7.45 1.97 o
6 2 2 36.69 39.45 3.38 o
7 2 2 2.51 3.25 2.79 <
-7 3 2 0.87 -1.82 2.93 <
-6 3 2 1.86 -2.22 2.28 <
-5 3 2 62.57 59.46 2.93 o
-4 3 2 37.76 33.54 1.83 o
-3 3 2 232.66 229.66 3.28 o
-2 3 2 660.21 654.58 5.49 o
-1 3 2 4.34 5.53 1.04 o
0 3 2 396.85 403.16 2.84 o
1 3 2 3.95 4.57 0.95 o
2 3 2 1027.95 1015.11 6.50 o
3 3 2 17.76 15.10 1.57 o
4 3 2 225.85 223.48 5.10 o
5 3 2 112.18 110.94 3.92 o
6 3 2 1.36 1.51 2.53 <
7 3 2 92.96 88.52 6.03 o
-7 4 2 0.46 2.92 3.69 <
-6 4 2 291.10 285.18 7.62 o
-5 4 2 2.58 5.40 2.08 <
-4 4 2 152.83 143.36 3.94 o
-3 4 2 43.13 36.63 1.81 o
-2 4 2 156.74 156.59 3.85 o
-1 4 2 51.77 50.57 2.11 o
0 4 2 1415.55 1512.29 6.92 o
1 4 2 0.00 -0.97 0.98 <
2 4 2 13.37 14.47 1.37 o
3 4 2 29.65 30.12 1.75 o
4 4 2 115.39 110.82 3.64 o
5 4 2 0.04 -0.86 2.15 <
6 4 2 6.32 3.50 2.68 <
7 4 2 4.56 1.17 3.88 <
-7 5 2 9.39 14.68 4.10 o
-6 5 2 33.26 32.13 3.85 o
-5 5 2 110.11 108.13 4.55 o
-4 5 2 68.41 60.99 2.88 o
-3 5 2 56.27 51.23 2.73 o
-2 5 2 370.83 372.05 6.02 o
-1 5 2 11.11 11.80 1.36 o
0 5 2 47.18 40.94 1.70 o
1 5 2 25.21 26.54 1.55 o
2 5 2 671.10 666.02 6.18 o
3 5 2 49.21 48.77 2.31 o
4 5 2 30.82 30.42 2.42 o
5 5 2 30.53 32.91 3.16 o
6 5 2 0.20 2.88 2.95 <
7 5 2 17.70 12.65 5.04 <
-7 6 2 3.06 -3.92 5.21 <
-6 6 2 22.65 21.82 3.57 o
-5 6 2 24.64 26.88 3.96 o
-4 6 2 623.85 608.07 9.06 o
-3 6 2 34.55 32.77 2.64 o
-2 6 2 278.64 273.53 5.15 o
-1 6 2 30.59 28.42 2.07 o
0 6 2 150.85 143.32 3.00 o
1 6 2 6.68 7.84 1.30 o
2 6 2 61.54 61.59 2.67 o
3 6 2 0.41 -1.10 1.60 <
4 6 2 107.94 106.34 4.29 o
5 6 2 20.08 17.01 2.74 o
6 6 2 30.37 31.71 3.66 o
7 6 2 5.94 -15.45 10.18 <
-7 7 2 63.60 86.08 9.96 o
-6 7 2 3.86 3.22 3.66 <
-5 7 2 34.25 30.35 3.71 o
-4 7 2 3.43 -0.69 2.52 <
-3 7 2 0.89 3.01 2.02 <
-2 7 2 11.42 10.14 1.65 o
-1 7 2 16.85 18.18 1.93 o
0 7 2 296.65 302.17 4.56 o
1 7 2 4.11 8.01 1.69 o
2 7 2 337.65 336.67 5.15 o
3 7 2 55.36 53.98 2.84 o
4 7 2 142.09 144.52 5.05 o
5 7 2 27.23 25.65 3.68 o
6 7 2 4.26 -1.23 3.49 <
-7 8 2 8.20 7.95 7.90 <
-6 8 2 77.15 78.66 7.19 o
-5 8 2 20.70 17.25 3.50 o
-4 8 2 19.02 15.07 3.12 o
-3 8 2 23.73 26.90 3.18 o
-2 8 2 410.92 392.45 6.87 o
-1 8 2 16.08 16.70 2.15 o
0 8 2 935.94 969.73 9.09 o
1 8 2 70.70 68.24 2.87 o
2 8 2 1061.91 1051.22 11.63 o
3 8 2 0.87 5.04 2.07 <
4 8 2 14.70 20.56 3.88 o
5 8 2 0.70 4.81 3.26 <
6 8 2 129.34 120.00 6.67 o
-6 9 2 139.73 148.87 8.33 o
-5 9 2 1.12 6.93 3.31 <
-4 9 2 313.18 319.50 8.50 o
-3 9 2 39.08 41.49 3.89 o
-2 9 2 198.51 200.34 5.91 o
-1 9 2 33.34 34.69 2.41 o
0 9 2 6.26 6.89 1.66 o
1 9 2 7.25 4.31 1.79 <
2 9 2 401.57 427.71 7.96 o
3 9 2 49.01 44.15 3.13 o
4 9 2 180.13 175.17 8.69 o
5 9 2 103.50 111.64 7.14 o
6 9 2 46.46 35.14 9.17 o
-5 10 2 11.35 11.17 3.85 <
-4 10 2 54.99 59.56 4.49 o
-3 10 2 0.40 2.84 2.63 <
-2 10 2 14.72 17.04 2.82 o
-1 10 2 21.02 15.54 2.15 o
0 10 2 177.19 178.10 4.66 o
1 10 2 0.05 -1.79 1.86 <
2 10 2 6.17 6.58 2.29 <
3 10 2 72.83 77.69 6.02 o
4 10 2 532.34 571.84 18.71 o
5 10 2 0.11 6.36 4.07 <
-5 11 2 54.77 59.01 5.06 o
-4 11 2 146.64 147.70 6.53 o
-3 11 2 82.63 83.73 4.98 o
-2 11 2 238.87 236.90 6.47 o
-1 11 2 4.21 6.77 2.34 <
0 11 2 749.04 734.45 9.57 o
1 11 2 29.83 28.97 2.68 o
2 11 2 55.11 51.08 5.18 o
3 11 2 7.29 6.24 3.85 <
4 11 2 1.31 0.29 5.02 <
5 11 2 24.58 29.31 6.64 o
-5 12 2 3.40 3.16 7.48 <
-4 12 2 34.60 35.80 4.11 o
-3 12 2 2.21 0.60 2.98 <
-2 12 2 0.38 -5.02 2.55 <
-1 12 2 26.47 27.45 2.97 o
0 12 2 5.48 5.10 2.47 <
1 12 2 1.09 -3.07 3.36 <
2 12 2 1.70 3.59 3.69 <
3 12 2 26.73 18.76 4.39 o
4 12 2 14.07 13.02 5.33 <
-4 13 2 133.44 111.83 9.70 o
-3 13 2 1.06 1.30 2.89 <
-2 13 2 16.94 18.02 3.01 o
-1 13 2 0.55 -0.45 3.03 <
0 13 2 79.80 72.60 5.26 o
1 13 2 58.72 64.03 6.28 o
2 13 2 79.89 71.34 6.60 o
3 13 2 18.38 13.60 4.62 <
4 13 2 5.30 4.25 7.84 <
-4 14 2 20.20 14.18 5.94 <
-3 14 2 52.80 50.71 6.48 o
-2 14 2 163.98 168.89 7.15 o
-1 14 2 1.14 -2.48 3.67 <
0 14 2 9.50 2.76 4.55 <
1 14 2 10.97 12.64 3.97 o
2 14 2 7.72 12.34 4.84 <
3 14 2 4.14 3.28 4.47 <
-2 15 2 7.16 10.97 5.14 <
-1 15 2 6.36 -8.03 4.31 <
0 15 2 32.62 42.54 7.48 o
1 15 2 0.63 -2.24 4.72 <
2 15 2 55.53 60.16 5.73 o
-1 16 2 0.03 -0.30 5.35 <
0 16 2 60.59 74.89 9.14 o
-7 0 3 56.62 56.48 5.48 o
-5 0 3 789.26 799.94 10.08 o
-3 0 3 449.80 438.60 5.75 o
-1 0 3 31912.20 32278.10 29.94 o
1 0 3 218.74 217.93 3.85 o
3 0 3 569.93 568.05 6.77 o
5 0 3 1600.63 1581.05 18.59 o
7 0 3 30.21 24.53 4.24 o
-7 1 3 127.55 127.12 5.68 o
-6 1 3 0.40 2.91 2.52 <
-5 1 3 228.89 234.86 4.28 o
-4 1 3 7.21 8.99 1.25 o
-3 1 3 13.97 16.40 1.21 o
-2 1 3 58.33 58.13 1.76 o
-1 1 3 5108.05 5176.91 10.17 o
0 1 3 0.13 -0.15 0.57 <
1 1 3 16.45 20.29 0.95 o
2 1 3 169.84 183.31 2.58 o
3 1 3 456.95 473.47 4.66 o
4 1 3 112.26 108.71 3.16 o
5 1 3 260.83 258.65 5.18 o
6 1 3 13.21 13.02 2.72 o
7 1 3 27.70 26.28 3.18 o
-7 2 3 0.47 0.94 2.97 <
-6 2 3 16.12 19.00 2.52 o
-5 2 3 0.58 2.86 1.77 <
-4 2 3 72.52 73.70 2.38 o
-3 2 3 13.17 14.07 1.21 o
-2 2 3 3.67 3.28 1.18 <
-1 2 3 661.78 661.99 5.26 o
0 2 3 33.12 36.20 1.13 o
1 2 3 1857.79 1939.71 7.37 o
2 2 3 2.57 3.33 1.07 o
3 2 3 650.31 660.62 5.97 o
4 2 3 46.03 45.98 2.27 o
5 2 3 19.93 19.50 2.27 o
6 2 3 4.55 2.00 2.53 <
7 2 3 229.71 231.58 8.54 o
-7 3 3 3.26 1.80 2.96 <
-6 3 3 217.05 230.76 5.67 o
-5 3 3 63.60 68.40 3.27 o
-4 3 3 43.50 47.27 2.39 o
-3 3 3 1749.30 1703.32 10.19 o
-2 3 3 103.70 104.85 2.62 o
-1 3 3 87.83 99.51 2.38 o
0 3 3 0.11 1.01 0.95 <
1 3 3 1175.08 1180.75 6.44 o
2 3 3 51.35 49.87 1.72 o
3 3 3 106.16 110.41 2.73 o
4 3 3 152.64 150.96 4.24 o
5 3 3 77.35 84.31 3.65 o
6 3 3 33.99 36.77 3.21 o
7 3 3 109.28 103.06 6.08 o
-7 4 3 33.03 27.98 3.58 o
-6 4 3 1.31 -0.07 2.74 <
-5 4 3 0.00 3.03 2.44 <
-4 4 3 21.59 22.20 1.93 o
-3 4 3 1569.61 1568.76 10.94 o
-2 4 3 23.74 26.30 1.50 o
-1 4 3 1933.95 1869.23 8.99 o
0 4 3 20.37 24.94 1.31 o
1 4 3 3824.55 3905.12 13.07 o
2 4 3 45.15 42.44 1.78 o
3 4 3 653.65 636.86 6.10 o
4 4 3 0.83 1.38 2.13 <
5 4 3 179.44 175.64 5.14 o
6 4 3 17.35 20.96 3.59 o
7 4 3 69.13 63.59 5.99 o
-7 5 3 89.37 84.06 7.43 o
-6 5 3 57.28 53.73 4.11 o
-5 5 3 90.73 89.05 4.80 o
-4 5 3 9.13 15.34 2.39 o
-3 5 3 174.10 178.75 3.80 o
-2 5 3 5.34 5.10 1.55 o
-1 5 3 2675.86 2716.01 11.63 o
0 5 3 34.81 34.81 1.53 o
1 5 3 510.82 517.78 4.64 o
2 5 3 15.92 14.96 1.42 o
3 5 3 500.27 494.94 6.21 o
4 5 3 49.97 49.96 3.18 o
5 5 3 97.01 95.51 5.04 o
6 5 3 44.28 45.88 4.07 o
7 5 3 25.72 22.54 6.52 o
-7 6 3 110.36 117.72 10.50 o
-6 6 3 0.28 7.23 3.04 <
-5 6 3 400.55 416.96 9.56 o
-4 6 3 184.16 190.28 6.11 o
-3 6 3 52.61 49.06 2.85 o
-2 6 3 0.01 0.82 1.70 <
-1 6 3 1699.79 1703.32 11.17 o
0 6 3 54.22 49.22 2.02 o
1 6 3 14.56 13.58 1.27 o
2 6 3 2.81 3.13 1.56 <
3 6 3 76.06 74.73 2.89 o
4 6 3 10.86 10.79 2.36 o
5 6 3 180.23 180.43 6.72 o
6 6 3 17.57 12.17 3.25 o
-7 7 3 24.38 27.58 7.20 o
-6 7 3 0.37 7.51 3.50 <
-5 7 3 0.99 5.95 3.59 <
-4 7 3 0.09 1.07 2.74 <
-3 7 3 347.41 335.20 6.57 o
-2 7 3 43.55 43.94 2.49 o
-1 7 3 16.17 19.57 1.74 o
0 7 3 7.93 8.69 1.52 o
1 7 3 876.98 877.19 7.37 o
2 7 3 76.64 75.44 2.77 o
3 7 3 11.95 11.63 1.91 o
4 7 3 20.68 18.87 3.02 o
5 7 3 86.14 87.46 5.23 o
6 7 3 5.92 1.45 3.25 <
-6 8 3 12.50 20.78 4.17 o
-5 8 3 33.53 33.32 4.45 o
-4 8 3 7.81 8.57 2.86 <
-3 8 3 754.95 739.03 10.04 o
-2 8 3 7.12 8.67 2.09 o
-1 8 3 157.05 156.35 4.03 o
0 8 3 0.22 0.98 1.38 <
1 8 3 0.01 0.57 1.49 <
2 8 3 0.28 -1.42 1.84 <
3 8 3 102.50 102.23 5.31 o
4 8 3 2.40 4.09 2.67 <
5 8 3 305.69 302.76 8.89 o
6 8 3 2.43 4.53 4.24 <
-6 9 3 6.32 6.76 4.76 <
-5 9 3 55.66 57.76 4.70 o
-4 9 3 53.46 48.75 4.09 o
-3 9 3 1979.41 1951.52 16.79 o
-2 9 3 3.84 7.03 2.45 <
-1 9 3 3.03 3.61 2.00 <
0 9 3 22.72 20.94 2.06 o
1 9 3 688.40 698.43 8.82 o
2 9 3 74.88 68.43 3.71 o
3 9 3 279.77 284.30 8.65 o
4 9 3 62.83 66.66 4.85 o
5 9 3 104.78 121.94 7.13 o
6 9 3 0.00 9.34 8.16 <
-6 10 3 1.50 1.12 6.91 <
-5 10 3 29.08 29.71 4.34 o
-4 10 3 7.45 2.75 2.92 <
-3 10 3 98.61 109.95 5.31 o
-2 10 3 17.49 16.85 3.06 o
-1 10 3 274.45 270.75 6.26 o
0 10 3 35.11 33.42 2.55 o
1 10 3 1437.56 1424.51 14.94 o
2 10 3 65.14 62.63 4.47 o
3 10 3 621.41 625.30 15.40 o
4 10 3 10.08 6.43 3.27 <
5 10 3 36.79 26.99 4.70 o
-5 11 3 30.55 30.73 4.40 o
-4 11 3 9.96 11.06 3.19 o
-3 11 3 0.01 -1.35 2.85 <
-2 11 3 19.32 21.60 3.21 o
-1 11 3 51.06 43.45 3.19 o
0 11 3 14.75 13.81 2.51 o
1 11 3 99.38 102.72 5.56 o
2 11 3 3.95 5.30 3.56 <
3 11 3 29.41 39.06 5.29 o
4 11 3 34.23 36.46 5.00 o
5 11 3 0.13 -0.01 7.71 <
-5 12 3 19.89 6.75 5.35 <
-4 12 3 81.09 86.88 5.74 o
-3 12 3 82.52 80.41 5.05 o
-2 12 3 29.52 27.69 4.28 o
-1 12 3 263.95 267.49 7.73 o
0 12 3 7.63 11.38 3.21 o
1 12 3 102.13 96.29 5.56 o
2 12 3 18.50 17.47 4.42 o
3 12 3 96.18 91.54 7.24 o
4 12 3 2.81 -2.53 4.71 <
-4 13 3 1.61 7.68 5.81 <
-3 13 3 61.17 57.94 4.85 o
-2 13 3 9.96 8.20 3.59 <
-1 13 3 435.52 426.90 11.57 o
0 13 3 51.40 52.77 4.80 o
1 13 3 335.72 339.48 12.17 o
2 13 3 0.01 -5.22 4.28 <
3 13 3 218.16 220.12 10.82 o
4 13 3 2.40 1.48 7.62 <
-3 14 3 24.27 17.82 4.20 o
-2 14 3 2.09 2.83 4.28 <
-1 14 3 0.20 1.65 3.62 <
0 14 3 3.03 6.46 4.01 <
1 14 3 198.48 213.49 10.36 o
2 14 3 10.09 12.08 4.75 <
3 14 3 57.66 41.43 9.85 o
-2 15 3 40.17 10.91 5.53 <
-1 15 3 56.51 58.35 6.41 o
0 15 3 0.27 2.24 5.19 <
1 15 3 14.19 16.80 5.25 o
2 15 3 16.35 23.84 9.45 <
-6 0 4 790.42 811.34 15.10 o
-4 0 4 939.26 957.19 9.78 o
-2 0 4 361.60 322.09 5.80 o
0 0 4 150.54 158.22 2.63 o
2 0 4 2762.29 2922.69 14.23 o
4 0 4 436.26 447.44 9.37 o
6 0 4 56.15 55.18 4.97 o
-7 1 4 2.09 2.33 2.88 <
-6 1 4 0.01 1.90 2.27 <
-5 1 4 12.42 12.55 1.86 o
-4 1 4 85.28 92.63 2.36 o
-3 1 4 7.88 5.40 1.03 o
-2 1 4 1105.12 1072.31 6.99 o
-1 1 4 174.77 167.98 2.19 o
0 1 4 1870.45 1921.85 5.52 o
1 1 4 50.57 52.82 1.47 o
2 1 4 76.99 88.56 2.21 o
3 1 4 25.77 28.71 1.79 o
4 1 4 3157.06 3133.02 16.14 o
5 1 4 6.82 9.42 2.19 o
6 1 4 60.79 57.39 3.27 o
7 1 4 0.59 -2.13 3.12 <
-7 2 4 11.42 7.59 3.04 <
-6 2 4 227.55 235.54 6.63 o
-5 2 4 7.34 7.66 1.79 o
-4 2 4 0.32 3.21 1.38 <
-3 2 4 70.73 66.37 2.14 o
-2 2 4 2171.24 2147.40 10.09 o
-1 2 4 3.25 5.86 1.13 o
0 2 4 3131.48 3228.15 8.92 o
1 2 4 21.72 37.70 1.63 o
2 2 4 2442.73 2441.17 11.65 o
3 2 4 4.59 4.85 1.82 <
4 2 4 18.27 17.26 1.98 o
5 2 4 11.18 8.20 1.87 o
6 2 4 63.72 61.90 3.65 o
7 2 4 20.25 20.50 4.01 o
-7 3 4 20.92 20.11 3.40 o
-6 3 4 0.12 -2.55 2.33 <
-5 3 4 23.04 25.38 2.51 o
-4 3 4 533.46 505.37 7.26 o
-3 3 4 123.75 122.64 3.27 o
-2 3 4 515.82 509.87 7.22 o
-1 3 4 26.89 25.92 1.53 o
0 3 4 76.60 72.09 1.61 o
1 3 4 36.64 36.88 1.40 o
2 3 4 9.51 11.68 1.31 o
3 3 4 104.42 102.32 2.57 o
4 3 4 256.89 246.61 5.06 o
5 3 4 2.26 4.14 2.09 <
6 3 4 127.10 118.37 5.04 o
7 3 4 29.06 31.00 5.02 o
-7 4 4 4.62 5.72 2.99 <
-6 4 4 130.70 138.89 5.32 o
-5 4 4 23.75 22.24 2.96 o
-4 4 4 242.67 248.81 5.84 o
-3 4 4 1.56 2.09 1.70 <
-2 4 4 1259.68 1273.23 9.30 o
-1 4 4 24.97 26.81 1.80 o
0 4 4 3917.10 4023.55 12.46 o
1 4 4 6.22 5.69 1.13 o
2 4 4 489.13 481.82 4.97 o
3 4 4 28.92 26.95 1.94 o
4 4 4 3.10 5.09 2.13 <
5 4 4 14.17 17.59 2.82 o
6 4 4 379.35 382.28 8.47 o
7 4 4 1.39 0.16 4.56 <
-7 5 4 27.61 26.50 6.83 o
-6 5 4 1.08 -3.94 2.82 <
-5 5 4 5.85 4.40 2.77 <
-4 5 4 143.64 139.84 4.66 o
-3 5 4 1.63 -1.88 1.74 <
-2 5 4 1081.41 1064.47 7.80 o
-1 5 4 2.13 3.04 1.35 <
0 5 4 565.93 563.25 5.07 o
1 5 4 0.43 -0.52 1.07 <
2 5 4 430.53 417.51 4.65 o
3 5 4 52.98 50.56 2.54 o
4 5 4 645.65 635.83 10.77 o
5 5 4 10.14 12.84 3.20 o
6 5 4 15.73 15.49 2.94 o
-7 6 4 16.56 6.05 4.92 <
-6 6 4 46.18 45.17 4.38 o
-5 6 4 28.62 27.33 3.94 o
-4 6 4 48.24 54.74 4.31 o
-3 6 4 39.40 39.55 2.68 o
-2 6 4 14.83 13.54 1.73 o
-1 6 4 12.30 13.48 1.71 o
0 6 4 140.04 150.48 3.20 o
1 6 4 0.01 0.19 0.97 <
2 6 4 326.96 331.14 4.76 o
3 6 4 0.04 2.49 2.09 <
4 6 4 121.43 129.16 5.41 o
5 6 4 31.82 30.47 3.63 o
6 6 4 0.00 -3.53 2.90 <
-7 7 4 0.30 -8.95 5.95 <
-6 7 4 23.04 24.66 3.96 o
-5 7 4 28.52 29.88 4.20 o
-4 7 4 996.58 967.36 15.48 o
-3 7 4 10.05 8.87 2.21 o
-2 7 4 416.28 412.15 6.90 o
-1 7 4 23.88 19.60 2.01 o
0 7 4 208.24 222.36 4.07 o
1 7 4 14.82 15.11 1.42 o
2 7 4 15.42 21.81 1.94 o
3 7 4 4.94 4.94 2.31 <
4 7 4 61.40 60.86 3.82 o
5 7 4 9.30 12.09 3.22 o
6 7 4 39.43 40.87 4.57 o
-6 8 4 43.46 41.76 5.20 o
-5 8 4 0.03 -0.60 3.46 <
-4 8 4 224.06 206.54 6.84 o
-3 8 4 4.20 3.49 2.07 <
-2 8 4 309.08 293.49 6.23 o
-1 8 4 0.22 -0.21 1.97 <
0 8 4 48.51 43.88 2.28 o
1 8 4 21.65 21.07 2.03 o
2 8 4 3281.40 3234.23 17.97 o
3 8 4 19.53 22.45 3.16 o
4 8 4 98.43 92.11 4.59 o
5 8 4 5.86 1.33 3.32 <
6 8 4 574.77 585.33 19.58 o
-6 9 4 70.39 52.11 6.41 o
-5 9 4 1.98 3.53 3.74 <
-4 9 4 441.39 441.50 10.09 o
-3 9 4 47.01 51.71 3.45 o
-2 9 4 50.21 58.66 3.35 o
-1 9 4 7.85 9.23 2.35 o
0 9 4 240.59 231.49 5.20 o
1 9 4 77.38 75.41 4.13 o
2 9 4 72.86 74.99 4.02 o
3 9 4 10.91 8.28 2.96 <
4 9 4 44.33 41.07 4.16 o
5 9 4 3.50 2.81 3.73 <
-6 10 4 139.09 134.13 11.09 o
-5 10 4 0.95 -1.86 3.74 <
-4 10 4 7.89 5.05 3.01 <
-3 10 4 46.32 44.97 3.51 o
-2 10 4 241.71 231.68 5.88 o
-1 10 4 37.47 34.77 3.49 o
0 10 4 809.21 789.47 10.62 o
1 10 4 4.38 2.87 2.83 <
2 10 4 310.20 319.65 8.91 o
3 10 4 37.64 42.88 4.14 o
4 10 4 2.99 9.68 3.52 <
5 10 4 0.01 -6.23 4.06 <
-5 11 4 10.95 7.60 5.80 <
-4 11 4 108.80 105.63 5.91 o
-3 11 4 2.82 4.32 3.65 <
-2 11 4 0.03 1.32 2.90 <
-1 11 4 5.16 4.16 3.00 <
0 11 4 32.25 35.56 4.02 o
1 11 4 0.56 -2.15 2.84 <
2 11 4 269.48 286.80 10.79 o
3 11 4 1.46 7.03 4.12 <
4 11 4 606.21 635.00 15.15 o
5 11 4 7.59 -6.99 8.36 <
-5 12 4 38.33 29.05 9.65 o
-4 12 4 15.46 16.30 4.28 o
-3 12 4 3.80 2.51 3.41 <
-2 12 4 185.43 174.54 7.72 o
-1 12 4 29.51 26.87 4.09 o
0 12 4 205.75 216.10 8.22 o
1 12 4 1.59 5.67 3.27 <
2 12 4 0.11 1.14 3.75 <
3 12 4 21.07 23.12 4.84 o
4 12 4 0.51 3.79 4.99 <
-4 13 4 176.42 175.46 12.07 o
-3 13 4 10.02 9.17 3.51 <
-2 13 4 127.29 126.43 6.35 o
-1 13 4 1.55 -3.31 3.52 <
0 13 4 224.87 219.57 8.65 o
1 13 4 20.58 20.20 4.51 o
2 13 4 189.18 196.88 9.93 o
3 13 4 0.66 7.42 4.74 <
4 13 4 38.48 35.92 9.37 o
-3 14 4 3.03 1.97 4.65 <
-2 14 4 12.06 1.44 3.64 <
-1 14 4 15.33 11.26 3.96 <
0 14 4 39.90 34.87 5.40 o
1 14 4 1.40 -1.13 4.86 <
2 14 4 546.58 598.52 17.39 o
3 14 4 9.59 5.94 7.37 <
-2 15 4 81.53 86.79 13.23 o
-1 15 4 2.48 1.58 4.31 <
0 15 4 64.07 70.20 8.68 o
2 15 4 24.04 38.39 11.60 o
-7 0 5 318.87 327.65 13.22 o
-5 0 5 163.60 174.51 6.82 o
-3 0 5 0.03 2.79 2.17 <
-1 0 5 2282.96 2196.40 9.78 o
1 0 5 4242.99 4437.50 14.18 o
3 0 5 1062.75 1019.66 10.55 o
5 0 5 186.68 187.04 7.22 o
7 0 5 41.15 44.30 10.87 o
-7 1 5 22.18 23.54 3.70 o
-6 1 5 2.36 2.42 2.60 <
-5 1 5 72.52 73.75 3.18 o
-4 1 5 53.46 55.72 2.25 o
-3 1 5 319.27 324.78 4.95 o
-2 1 5 124.64 116.28 2.21 o
-1 1 5 1717.76 1640.41 6.29 o
0 1 5 9.78 12.76 0.89 o
1 1 5 0.20 0.76 0.78 <
2 1 5 1.12 0.96 1.12 <
3 1 5 3.86 5.78 1.28 o
4 1 5 7.64 5.01 1.73 <
5 1 5 68.33 66.51 3.45 o
6 1 5 54.78 54.90 3.64 o
7 1 5 61.30 59.35 11.12 o
-7 2 5 96.71 93.33 5.65 o
-6 2 5 6.76 8.38 2.75 o
-5 2 5 16.26 13.69 2.31 o
-4 2 5 41.74 43.19 2.43 o
-3 2 5 1264.89 1211.94 10.00 o
-2 2 5 8.92 7.61 1.15 o
-1 2 5 513.24 506.70 4.52 o
0 2 5 16.74 16.38 0.96 o
1 2 5 369.52 350.73 3.16 o
2 2 5 11.67 10.76 1.39 o
3 2 5 30.16 29.83 1.89 o
4 2 5 1.45 3.43 1.72 <
5 2 5 42.30 42.70 2.83 o
6 2 5 22.98 18.59 2.75 o
7 2 5 2.68 -11.78 8.24 <
-7 3 5 3.67 9.15 3.48 <
-6 3 5 23.29 22.06 2.91 o
-5 3 5 0.32 5.04 2.31 <
-4 3 5 43.31 43.31 3.06 o
-3 3 5 105.33 104.32 3.25 o
-2 3 5 1.80 2.99 1.36 <
-1 3 5 25.34 30.82 1.49 o
0 3 5 4.76 4.66 0.97 o
1 3 5 841.87 834.14 5.88 o
2 3 5 2.33 1.49 1.18 <
3 3 5 402.33 413.32 5.44 o
4 3 5 29.08 28.97 2.21 o
5 3 5 1.00 4.64 2.33 <
6 3 5 43.29 34.95 3.48 o
7 3 5 51.84 49.96 11.47 o
-7 4 5 20.74 17.65 4.62 o
-6 4 5 10.01 4.96 2.68 <
-5 4 5 10.58 8.40 2.58 o
-4 4 5 26.33 20.91 2.92 o
-3 4 5 686.18 666.18 9.83 o
-2 4 5 30.62 32.18 2.28 o
-1 4 5 1509.76 1570.11 10.04 o
0 4 5 0.13 0.67 0.95 <
1 4 5 339.82 336.61 4.17 o
2 4 5 18.49 15.17 1.73 o
3 4 5 384.74 376.93 5.61 o
4 4 5 0.00 -0.57 2.45 <
5 4 5 24.59 23.62 3.37 o
6 4 5 0.13 -2.89 3.17 <
-7 5 5 6.92 4.00 8.27 <
-6 5 5 28.64 23.61 3.48 o
-5 5 5 31.07 26.69 3.64 o
-4 5 5 26.02 22.90 2.65 o
-3 5 5 157.22 159.00 4.68 o
-2 5 5 1.48 -2.23 1.68 <
-1 5 5 3.43 1.96 1.49 <
0 5 5 9.78 9.31 1.22 o
1 5 5 13.66 12.65 1.55 o
2 5 5 20.33 22.01 2.00 o
3 5 5 20.79 21.24 2.25 o
4 5 5 4.78 3.77 2.53 <
5 5 5 124.63 133.55 5.47 o
6 5 5 25.58 31.46 3.89 o
-6 6 5 10.00 19.99 4.39 o
-5 6 5 119.54 117.80 5.78 o
-4 6 5 5.48 4.11 2.32 <
-3 6 5 57.37 81.58 4.22 o
-2 6 5 0.08 0.38 1.74 <
-1 6 5 982.34 1004.32 10.57 o
0 6 5 2.29 4.06 1.23 o
1 6 5 1705.62 1693.81 11.00 o
2 6 5 0.03 0.54 1.54 <
3 6 5 5.53 7.26 2.00 o
4 6 5 25.39 21.22 2.91 o
5 6 5 0.60 1.79 3.05 <
6 6 5 0.81 1.94 3.52 <
-6 7 5 5.31 8.60 3.98 <
-5 7 5 22.90 20.08 3.77 o
-4 7 5 6.11 -0.22 3.13 <
-3 7 5 152.09 144.30 5.41 o
-2 7 5 96.96 94.42 3.82 o
-1 7 5 190.70 190.02 4.75 o
0 7 5 3.15 1.37 1.77 <
1 7 5 138.68 134.73 3.48 o
2 7 5 8.34 19.14 2.30 o
3 7 5 45.22 42.18 2.90 o
4 7 5 0.02 0.06 2.58 <
5 7 5 0.44 -0.31 3.18 <
6 7 5 33.50 24.42 6.21 o
-6 8 5 0.09 -1.39 4.09 <
-5 8 5 23.64 23.91 4.04 o
-4 8 5 9.68 11.69 3.47 o
-3 8 5 332.14 324.15 7.09 o
-2 8 5 0.00 -4.03 2.18 <
-1 8 5 2.89 0.90 2.24 <
0 8 5 9.24 9.79 2.40 o
1 8 5 165.46 167.40 4.34 o
2 8 5 2.10 3.81 1.91 <
3 8 5 39.68 42.74 3.77 o
4 8 5 40.34 36.88 3.59 o
5 8 5 116.74 112.35 6.88 o
6 8 5 17.22 14.32 7.63 <
-6 9 5 0.11 1.38 5.11 <
-5 9 5 134.53 131.95 7.36 o
-4 9 5 30.33 33.56 4.26 o
-3 9 5 2.90 1.36 2.28 <
-2 9 5 0.18 -1.07 2.71 <
-1 9 5 410.58 401.10 8.62 o
0 9 5 19.78 16.28 2.65 o
1 9 5 442.79 438.35 7.78 o
2 9 5 39.08 45.91 3.09 o
3 9 5 484.31 495.01 10.42 o
4 9 5 28.72 23.05 3.69 o
5 9 5 41.12 43.06 5.16 o
-5 10 5 5.11 3.22 4.21 <
-4 10 5 3.02 11.65 4.26 <
-3 10 5 2.41 1.58 3.13 <
-2 10 5 41.50 38.14 3.42 o
-1 10 5 172.36 177.85 6.30 o
0 10 5 0.43 1.84 2.62 <
1 10 5 218.12 216.54 6.77 o
2 10 5 22.27 20.96 3.49 o
3 10 5 9.09 7.19 3.06 <
4 10 5 4.54 3.71 3.19 <
5 10 5 11.62 -1.65 8.99 <
-5 11 5 6.76 8.23 5.25 <
-4 11 5 20.87 5.78 3.97 <
-3 11 5 41.14 35.10 3.91 o
-2 11 5 1.30 0.57 2.95 <
-1 11 5 507.80 487.28 10.45 o
0 11 5 17.74 23.29 3.45 o
1 11 5 92.90 87.34 4.88 o
2 11 5 0.15 0.06 3.64 <
3 11 5 9.30 11.56 3.94 <
4 11 5 19.53 18.73 4.34 o
-4 12 5 2.37 1.44 4.39 <
-3 12 5 53.68 42.38 5.07 o
-2 12 5 11.16 10.74 3.30 o
-1 12 5 80.57 98.30 5.51 o
0 12 5 1.42 3.77 3.38 <
1 12 5 29.75 31.86 4.12 o
2 12 5 12.29 13.20 4.52 <
3 12 5 114.71 118.96 7.32 o
-4 13 5 1.80 14.13 9.67 <
-3 13 5 12.46 20.70 4.49 o
-2 13 5 23.22 24.51 4.11 o
-1 13 5 37.09 32.07 4.50 o
0 13 5 20.74 23.54 4.34 o
1 13 5 20.26 21.12 5.04 o
2 13 5 3.93 4.25 4.25 <
3 13 5 49.41 53.80 12.92 o
-3 14 5 103.33 117.06 15.32 o
-2 14 5 0.92 1.90 3.47 <
-1 14 5 67.87 77.98 6.33 o
0 14 5 14.07 12.26 5.44 <
1 14 5 28.13 18.88 5.84 o
2 14 5 1.11 1.28 7.20 <
-1 15 5 257.39 249.43 20.13 o
-6 0 6 105.44 106.82 7.59 o
-4 0 6 1.19 0.70 2.38 <
-2 0 6 452.56 439.80 6.62 o
0 0 6 250.38 245.29 4.19 o
2 0 6 1619.28 1623.60 9.18 o
4 0 6 2140.71 2155.34 18.90 o
6 0 6 22.43 15.86 4.63 o
-7 1 6 1.02 -3.71 3.37 <
-6 1 6 331.64 345.53 8.86 o
-5 1 6 96.82 100.70 4.25 o
-4 1 6 90.11 90.29 3.28 o
-3 1 6 105.43 100.25 3.05 o
-2 1 6 2872.47 2796.40 10.81 o
-1 1 6 18.80 17.34 1.04 o
0 1 6 513.80 500.22 3.55 o
1 1 6 11.05 11.62 0.98 o
2 1 6 109.61 130.89 3.12 o
3 1 6 51.74 52.21 2.38 o
4 1 6 28.82 33.47 2.46 o
5 1 6 114.94 112.38 4.69 o
6 1 6 13.02 12.50 3.26 o
-7 2 6 11.43 12.08 3.88 o
-6 2 6 0.15 6.62 2.87 <
-5 2 6 32.24 31.38 3.04 o
-4 2 6 2.96 4.71 2.05 <
-3 2 6 106.39 103.42 3.33 o
-2 2 6 960.01 950.85 6.33 o
-1 2 6 43.60 39.06 1.65 o
0 2 6 43.18 38.27 1.36 o
1 2 6 27.11 25.70 1.30 o
2 2 6 12.60 16.37 1.58 o
3 2 6 0.19 0.15 1.49 <
4 2 6 3.92 2.44 2.08 <
5 2 6 6.70 12.02 2.61 o
6 2 6 368.38 371.22 9.40 o
-7 3 6 131.18 114.17 10.57 o
-6 3 6 19.23 17.40 3.25 o
-5 3 6 7.31 8.05 2.45 o
-4 3 6 172.33 161.81 5.14 o
-3 3 6 0.59 1.24 1.63 <
-2 3 6 46.01 54.45 2.54 o
-1 3 6 67.96 65.77 1.88 o
0 3 6 0.70 0.94 0.92 <
1 3 6 4.06 5.96 1.18 o
2 3 6 277.41 277.56 4.12 o
3 3 6 54.41 54.03 2.87 o
4 3 6 164.93 154.20 4.41 o
5 3 6 46.88 46.01 3.77 o
6 3 6 162.43 165.83 7.48 o
-7 4 6 0.03 1.17 7.79 <
-6 4 6 70.03 64.67 4.26 o
-5 4 6 5.49 4.67 2.64 <
-4 4 6 1886.99 1908.76 16.89 o
-3 4 6 1.05 5.93 2.02 <
-2 4 6 794.80 793.79 8.20 o
-1 4 6 6.72 7.70 1.31 o
0 4 6 208.52 208.07 3.05 o
1 4 6 2.41 3.62 1.40 <
2 4 6 60.43 58.87 2.61 o
3 4 6 0.41 1.31 1.87 <
4 4 6 54.23 55.72 3.25 o
5 4 6 0.00 -0.88 3.42 <
6 4 6 0.74 -5.15 3.26 <
-6 5 6 217.76 225.17 7.52 o
-5 5 6 8.87 2.55 2.63 <
-4 5 6 1.10 -0.53 2.14 <
-3 5 6 23.20 21.78 2.46 o
-2 5 6 1303.63 1313.25 11.02 o
-1 5 6 37.99 37.40 2.03 o
0 5 6 8.44 7.06 1.26 o
1 5 6 2.97 3.14 1.36 <
2 5 6 63.15 70.03 3.13 o
3 5 6 49.67 45.13 2.82 o
4 5 6 43.00 50.39 3.65 o
5 5 6 73.02 73.23 5.10 o
6 5 6 2.06 -0.62 3.44 <
-6 6 6 142.27 148.84 6.52 o
-5 6 6 50.80 47.50 3.89 o
-4 6 6 289.12 277.07 6.99 o
-3 6 6 12.25 7.89 2.22 o
-2 6 6 63.38 59.84 3.08 o
-1 6 6 0.61 1.72 1.60 <
0 6 6 238.18 259.74 4.52 o
1 6 6 0.03 0.38 1.47 <
2 6 6 85.85 83.13 3.10 o
3 6 6 25.51 23.65 2.42 o
4 6 6 232.38 226.19 7.39 o
5 6 6 1.42 2.66 3.12 <
6 6 6 49.41 52.68 6.26 o
-6 7 6 1.67 3.29 3.92 <
-5 7 6 74.87 73.81 5.61 o
-4 7 6 228.70 235.42 8.38 o
-3 7 6 66.41 67.47 4.06 o
-2 7 6 21.43 13.56 2.63 o
-1 7 6 16.77 13.58 1.95 o
0 7 6 355.80 375.25 6.25 o
1 7 6 1.17 1.91 1.54 <
2 7 6 0.61 3.12 1.60 <
3 7 6 36.38 30.47 2.80 o
4 7 6 235.93 227.34 7.60 o
5 7 6 88.95 87.70 6.41 o
6 7 6 160.97 155.79 11.66 o
-6 8 6 0.11 1.46 4.76 <
-5 8 6 37.55 31.51 4.54 o
-4 8 6 611.68 606.19 13.42 o
-3 8 6 16.49 18.51 3.18 o
-2 8 6 165.41 165.32 5.80 o
-1 8 6 38.38 34.46 3.17 o
0 8 6 315.49 314.52 6.06 o
1 8 6 23.40 22.63 2.11 o
2 8 6 135.72 127.82 3.92 o
3 8 6 51.33 48.19 3.76 o
4 8 6 96.53 96.45 5.56 o
5 8 6 6.61 3.57 3.89 <
-5 9 6 34.94 34.75 5.01 o
-4 9 6 230.14 227.23 8.83 o
-3 9 6 2.73 -1.10 2.92 <
-2 9 6 1.64 -1.42 2.72 <
-1 9 6 0.60 1.89 2.50 <
0 9 6 14.46 11.42 2.66 o
1 9 6 67.22 66.41 3.47 o
2 9 6 661.18 650.98 9.45 o
3 9 6 13.00 12.15 3.43 o
4 9 6 194.43 196.43 8.63 o
5 9 6 7.82 8.18 5.64 <
-5 10 6 3.29 -2.60 4.18 <
-4 10 6 431.66 455.45 12.57 o
-3 10 6 36.59 35.22 3.94 o
-2 10 6 109.55 104.62 4.87 o
-1 10 6 16.35 10.21 2.88 o
0 10 6 483.28 469.14 9.97 o
1 10 6 26.91 31.15 3.29 o
2 10 6 106.38 101.69 4.77 o
3 10 6 5.62 6.34 3.39 <
4 10 6 183.18 189.75 8.91 o
-4 11 6 10.35 13.13 4.20 o
-3 11 6 1.81 1.52 3.18 <
-2 11 6 1.92 2.48 2.63 <
-1 11 6 28.51 28.99 3.70 o
0 11 6 64.18 59.08 4.42 o
1 11 6 5.08 6.11 3.13 <
2 11 6 3.21 7.90 4.14 <
3 11 6 28.32 36.13 5.77 o
4 11 6 41.34 48.45 8.05 o
-4 12 6 177.63 185.69 12.58 o
-3 12 6 0.77 3.82 3.52 <
-2 12 6 226.50 247.79 7.74 o
-1 12 6 0.44 1.70 3.27 <
0 12 6 2.84 6.09 3.09 <
1 12 6 0.01 0.66 3.98 <
2 12 6 8.13 15.15 5.14 <
3 12 6 0.01 7.37 5.39 <
-3 13 6 40.23 26.81 4.99 o
-2 13 6 295.70 299.96 8.80 o
-1 13 6 4.83 0.29 3.67 <
0 13 6 89.18 79.87 7.08 o
1 13 6 7.72 11.46 5.86 <
2 13 6 39.74 51.02 6.69 o
-2 14 6 191.20 170.01 17.44 o
-1 14 6 32.38 26.59 4.85 o
0 14 6 372.17 379.24 13.97 o
2 14 6 11.84 28.48 10.70 <
-7 0 7 419.88 421.72 26.48 o
-5 0 7 33.99 44.26 5.07 o
-3 0 7 1179.40 1155.13 13.83 o
-1 0 7 845.09 837.44 7.11 o
1 0 7 1802.39 1814.75 12.28 o
3 0 7 20.31 17.29 2.72 o
5 0 7 4.53 3.56 4.46 <
-7 1 7 83.14 92.36 9.87 o
-6 1 7 69.73 70.73 4.79 o
-5 1 7 4.70 2.40 2.50 <
-4 1 7 0.05 -0.74 1.74 <
-3 1 7 4.84 8.34 1.68 o
-2 1 7 34.25 33.92 1.65 o
-1 1 7 1686.03 1641.62 7.35 o
0 1 7 57.47 51.69 1.51 o
1 1 7 58.28 57.15 1.76 o
2 1 7 64.87 64.91 2.22 o
3 1 7 2595.11 2597.91 15.46 o
4 1 7 128.20 129.87 5.03 o
5 1 7 0.33 0.70 2.89 <
6 1 7 29.17 32.19 4.07 o
-6 2 7 10.51 7.79 3.04 <
-5 2 7 142.73 145.51 5.17 o
-4 2 7 67.09 68.72 3.44 o
-3 2 7 13.98 19.01 1.91 o
-2 2 7 94.02 90.09 2.36 o
-1 2 7 27.62 24.00 1.31 o
0 2 7 33.79 32.58 1.32 o
1 2 7 1385.64 1359.83 7.61 o
2 2 7 4.29 2.23 1.35 <
3 2 7 586.55 581.73 7.64 o
4 2 7 0.02 -0.73 2.42 <
5 2 7 4.24 6.53 2.69 <
6 2 7 26.92 29.64 3.94 o
-6 3 7 0.55 2.30 3.03 <
-5 3 7 340.36 339.51 7.53 o
-4 3 7 18.75 18.11 2.42 o
-3 3 7 39.67 41.00 2.56 o
-2 3 7 74.68 75.85 2.77 o
-1 3 7 105.86 94.90 2.50 o
0 3 7 4.01 3.85 0.92 o
1 3 7 360.60 362.39 5.31 o
2 3 7 43.40 46.36 2.50 o
3 3 7 211.26 198.27 4.74 o
4 3 7 46.23 42.13 3.53 o
5 3 7 5.83 3.73 2.81 <
6 3 7 35.15 35.28 4.99 o
-6 4 7 0.58 -2.00 2.76 <
-5 4 7 127.90 129.35 5.46 o
-4 4 7 0.00 0.61 2.29 <
-3 4 7 141.51 146.95 4.72 o
-2 4 7 9.21 8.93 1.75 o
-1 4 7 0.84 3.06 1.18 <
0 4 7 0.88 1.90 1.09 <
1 4 7 617.62 611.83 7.47 o
2 4 7 0.10 -1.70 1.88 <
3 4 7 580.86 549.22 8.30 o
4 4 7 1.57 1.73 2.67 <
5 4 7 658.09 654.90 12.99 o
6 4 7 2.92 5.74 4.56 <
-6 5 7 10.75 8.45 3.10 <
-5 5 7 128.46 132.99 5.63 o
-4 5 7 70.39 73.31 4.16 o
-3 5 7 47.35 50.25 3.27 o
-2 5 7 4.04 2.81 1.70 <
-1 5 7 456.15 466.15 5.37 o
0 5 7 10.17 11.03 1.44 o
1 5 7 209.00 211.75 4.59 o
2 5 7 104.22 104.22 4.11 o
3 5 7 844.72 856.67 11.37 o
4 5 7 75.21 70.48 3.90 o
5 5 7 62.13 66.23 5.00 o
6 5 7 9.56 14.21 6.08 <
-6 6 7 1.20 -1.53 3.50 <
-5 6 7 22.36 20.63 3.23 o
-4 6 7 14.92 14.00 2.49 o
-3 6 7 341.43 357.08 6.89 o
-2 6 7 33.20 32.72 2.47 o
-1 6 7 62.34 64.51 2.76 o
0 6 7 0.10 0.23 1.51 <
1 6 7 198.29 197.59 4.70 o
2 6 7 22.71 22.10 2.59 o
3 6 7 10.32 9.62 2.46 o
4 6 7 0.43 4.68 2.78 <
5 6 7 24.70 18.87 3.56 o
-6 7 7 87.01 92.63 6.24 o
-5 7 7 384.37 369.03 11.12 o
-4 7 7 0.00 0.03 2.71 <
-3 7 7 206.98 215.17 6.84 o
-2 7 7 14.07 12.75 2.56 o
-1 7 7 379.73 386.76 7.51 o
0 7 7 71.43 73.61 3.30 o
1 7 7 559.60 557.73 7.92 o
2 7 7 71.31 67.57 3.13 o
3 7 7 1.70 5.76 2.53 <
4 7 7 68.28 74.68 4.55 o
5 7 7 1.28 0.78 3.44 <
-6 8 7 2.58 -11.54 6.57 <
-5 8 7 35.57 41.13 5.13 o
-4 8 7 47.68 45.23 4.85 o
-3 8 7 55.26 64.35 4.55 o
-2 8 7 0.21 3.31 2.45 <
-1 8 7 23.39 21.28 2.76 o
0 8 7 86.65 81.22 3.55 o
1 8 7 2808.37 2741.03 19.89 o
2 8 7 31.21 27.62 2.65 o
3 8 7 79.89 80.23 4.51 o
4 8 7 4.01 2.47 3.11 <
5 8 7 240.58 253.01 11.73 o
-5 9 7 414.95 427.93 12.88 o
-4 9 7 4.17 5.48 3.88 <
-3 9 7 22.39 20.16 3.40 o
-2 9 7 9.56 9.27 2.63 o
-1 9 7 468.30 456.54 8.92 o
0 9 7 24.39 25.83 2.87 o
1 9 7 90.65 84.95 4.19 o
2 9 7 1.81 5.80 2.64 <
3 9 7 14.59 16.42 3.33 o
4 9 7 34.56 37.38 4.99 o
5 9 7 36.79 19.77 9.45 <
-4 10 7 22.73 25.52 4.50 o
-3 10 7 87.32 86.68 5.25 o
-2 10 7 19.99 17.81 3.15 o
-1 10 7 62.60 61.90 4.11 o
0 10 7 0.17 -2.11 2.88 <
1 10 7 434.27 450.71 10.03 o
2 10 7 0.66 5.11 3.00 <
3 10 7 94.01 100.25 6.43 o
4 10 7 7.84 11.15 4.23 <
-4 11 7 43.81 42.11 5.31 o
-3 11 7 0.07 -0.98 3.00 <
-2 11 7 15.64 12.46 3.07 o
-1 11 7 9.61 9.56 3.04 o
0 11 7 5.50 4.81 2.94 <
1 11 7 0.00 -0.26 3.03 <
2 11 7 4.05 8.75 3.35 <
3 11 7 323.94 332.96 13.20 o
-3 12 7 30.13 20.31 3.57 o
-2 12 7 1.32 -2.50 3.04 <
-1 12 7 1.09 1.76 3.06 <
0 12 7 3.50 7.59 3.76 <
1 12 7 7.62 10.12 3.55 <
2 12 7 4.48 5.35 4.52 <
3 12 7 134.69 110.21 15.01 o
-2 13 7 2.47 3.98 3.32 <
-1 13 7 108.08 103.89 6.33 o
0 13 7 0.14 3.57 4.31 <
1 13 7 65.61 68.81 7.19 o
2 13 7 47.69 47.73 11.60 o
-1 14 7 1.20 3.38 5.50 <
0 14 7 23.24 1.26 7.54 <
-6 0 8 10.75 16.06 4.70 o
-4 0 8 206.30 201.46 6.88 o
-2 0 8 426.31 415.14 6.32 o
0 0 8 1543.77 1553.79 11.89 o
2 0 8 254.08 244.06 6.30 o
4 0 8 247.51 252.12 8.35 o
6 0 8 5.10 2.51 7.95 <
-6 1 8 15.68 18.61 3.50 o
-5 1 8 5.49 9.65 2.75 o
-4 1 8 0.47 1.65 2.06 <
-3 1 8 2.38 1.77 1.70 <
-2 1 8 1147.74 1106.43 7.63 o
-1 1 8 17.05 14.58 1.11 o
0 1 8 425.59 435.22 4.41 o
1 1 8 9.95 9.28 1.18 o
2 1 8 77.51 77.87 3.07 o
3 1 8 50.83 47.41 2.52 o
4 1 8 85.68 79.36 4.29 o
5 1 8 0.25 -2.55 3.13 <
6 1 8 15.81 9.73 5.96 <
-6 2 8 6.52 11.62 3.28 o
-5 2 8 5.05 2.68 2.43 <
-4 2 8 139.86 137.68 4.64 o
-3 2 8 27.77 26.66 2.13 o
-2 2 8 131.34 131.27 3.01 o
-1 2 8 4.82 3.57 1.06 o
0 2 8 0.21 0.61 1.00 <
1 2 8 12.59 11.72 1.33 o
2 2 8 396.19 395.23 5.63 o
3 2 8 0.14 1.36 1.86 <
4 2 8 3.16 4.12 2.52 <
5 2 8 7.92 4.60 2.77 <
6 2 8 2.03 5.30 6.17 <
-6 3 8 7.77 7.87 3.15 <
-5 3 8 24.06 22.25 2.88 o
-4 3 8 22.55 24.80 2.82 o
-3 3 8 2.27 3.98 1.88 <
-2 3 8 19.19 21.55 1.77 o
-1 3 8 32.41 31.77 1.78 o
0 3 8 261.03 264.48 4.14 o
1 3 8 46.68 42.36 2.34 o
2 3 8 58.43 61.36 2.85 o
3 3 8 57.14 53.05 2.96 o
4 3 8 1.80 -2.85 2.74 <
5 3 8 14.94 18.14 3.41 o
6 3 8 230.37 213.84 19.26 o
-6 4 8 4.58 2.98 3.28 <
-5 4 8 3.14 3.12 2.51 <
-4 4 8 12.94 9.88 2.63 o
-3 4 8 0.05 0.53 2.06 <
-2 4 8 74.16 75.21 3.02 o
-1 4 8 0.96 0.83 1.24 <
0 4 8 1045.41 1073.54 8.83 o
1 4 8 13.31 12.66 1.92 o
2 4 8 1694.77 1649.17 14.58 o
3 4 8 1.17 1.09 2.11 <
4 4 8 22.31 18.70 3.37 o
5 4 8 4.58 8.06 3.51 <
6 4 8 12.28 11.38 8.21 <
-6 5 8 9.43 7.01 3.03 <
-5 5 8 0.21 -1.68 2.80 <
-4 5 8 6.35 3.49 2.44 <
-3 5 8 2.33 2.99 2.15 <
-2 5 8 215.25 212.07 4.95 o
-1 5 8 0.90 -1.04 1.63 <
0 5 8 351.68 358.14 5.17 o
1 5 8 105.19 101.14 3.39 o
2 5 8 40.65 43.68 3.10 o
3 5 8 28.96 26.60 2.99 o
4 5 8 237.38 237.78 6.46 o
5 5 8 9.00 4.80 3.49 <
-6 6 8 0.75 1.56 4.21 <
-5 6 8 7.95 10.05 3.18 o
-4 6 8 12.29 9.85 2.51 o
-3 6 8 37.91 36.99 2.97 o
-2 6 8 283.87 292.59 6.08 o
-1 6 8 35.33 35.37 2.49 o
0 6 8 1107.86 1094.09 10.21 o
1 6 8 20.32 21.16 2.30 o
2 6 8 39.99 40.03 3.15 o
3 6 8 3.04 4.48 2.43 <
4 6 8 258.45 260.31 6.93 o
5 6 8 0.18 -1.20 3.66 <
-6 7 8 25.98 23.69 6.86 o
-5 7 8 0.71 -0.47 3.32 <
-4 7 8 188.08 181.14 6.26 o
-3 7 8 3.10 3.85 2.50 <
-2 7 8 18.75 21.88 3.19 o
-1 7 8 33.34 27.89 2.42 o
0 7 8 150.74 143.15 4.42 o
1 7 8 16.26 11.94 2.35 o
2 7 8 42.99 39.39 2.93 o
3 7 8 19.74 23.52 3.11 o
4 7 8 9.11 7.59 3.07 <
5 7 8 0.23 -2.43 4.17 <
-5 8 8 12.69 8.73 3.63 <
-4 8 8 119.90 124.47 6.20 o
-3 8 8 5.09 -0.11 2.82 <
-2 8 8 97.89 95.72 4.66 o
-1 8 8 7.31 7.94 2.71 <
0 8 8 186.21 192.47 5.75 o
1 8 8 5.60 4.98 2.47 <
2 8 8 21.80 21.10 2.83 o
3 8 8 13.79 9.14 2.88 o
4 8 8 0.09 -3.44 3.01 <
5 8 8 6.54 7.31 9.57 <
-5 9 8 0.20 -6.69 4.95 <
-4 9 8 25.97 15.99 4.23 o
-3 9 8 11.61 9.39 3.24 <
-2 9 8 460.18 457.35 9.61 o
-1 9 8 1.49 2.18 2.45 <
0 9 8 97.12 96.89 4.61 o
1 9 8 3.19 0.29 2.53 <
2 9 8 25.91 17.42 3.52 o
3 9 8 19.02 18.71 3.84 o
4 9 8 56.59 54.59 5.47 o
-4 10 8 69.45 70.55 6.17 o
-3 10 8 3.71 -2.00 3.09 <
-2 10 8 4.42 4.88 2.68 <
-1 10 8 1.74 2.49 2.73 <
0 10 8 451.69 430.33 10.12 o
1 10 8 4.66 5.24 2.92 <
2 10 8 148.04 136.27 6.29 o
3 10 8 0.15 -4.88 4.65 <
-4 11 8 5.69 -5.20 7.59 <
-3 11 8 4.67 4.82 3.13 <
-2 11 8 144.39 147.93 6.25 o
-1 11 8 14.30 13.85 3.21 o
0 11 8 7.51 7.66 3.93 <
1 11 8 14.70 18.17 4.01 o
2 11 8 9.64 8.03 3.64 <
3 11 8 1.58 6.13 5.70 <
-3 12 8 8.32 13.22 6.01 <
-2 12 8 32.43 23.93 3.81 o
-1 12 8 0.68 -6.66 3.40 <
0 12 8 92.25 83.68 6.18 o
1 12 8 12.56 21.07 4.47 o
2 12 8 219.38 221.25 13.81 o
-2 13 8 22.63 38.08 7.50 o
-1 13 8 5.12 1.38 4.79 <
0 13 8 51.10 58.13 8.85 o
1 13 8 19.79 28.94 9.62 o
0 14 8 3.35 -0.56 7.86 <
-5 0 9 9.21 9.35 3.80 <
-3 0 9 37.65 36.40 3.43 o
-1 0 9 95.34 88.96 3.38 o
1 0 9 201.86 220.38 5.92 o
3 0 9 641.73 643.86 18.50 o
5 0 9 0.23 0.64 4.30 <
-6 1 9 23.23 23.04 3.74 o
-5 1 9 51.21 53.33 4.00 o
-4 1 9 3.44 4.43 2.21 <
-3 1 9 623.60 610.13 7.74 o
-2 1 9 6.37 4.37 1.34 o
-1 1 9 152.40 154.03 3.09 o
0 1 9 0.91 1.29 1.09 <
1 1 9 118.75 119.05 3.20 o
2 1 9 11.28 9.80 2.25 o
3 1 9 1.42 4.99 2.37 <
4 1 9 8.68 12.23 3.19 o
5 1 9 171.00 171.93 6.83 o
-6 2 9 0.19 -0.55 3.06 <
-5 2 9 66.20 63.87 4.32 o
-4 2 9 46.82 47.62 3.23 o
-3 2 9 206.78 208.86 4.73 o
-2 2 9 1.32 3.09 1.40 <
-1 2 9 435.98 414.98 4.82 o
0 2 9 3.21 3.54 1.36 <
1 2 9 232.91 227.84 4.88 o
2 2 9 2.76 3.37 1.92 <
3 2 9 137.71 138.44 4.73 o
4 2 9 0.89 1.89 2.77 <
5 2 9 121.26 123.33 6.05 o
-6 3 9 6.20 8.05 3.29 <
-5 3 9 0.53 1.45 2.58 <
-4 3 9 28.89 32.56 3.03 o
-3 3 9 1.30 2.12 1.80 <
-2 3 9 58.36 63.27 2.65 o
-1 3 9 15.79 14.07 1.54 o
0 3 9 54.54 50.79 2.29 o
1 3 9 81.31 80.45 3.00 o
2 3 9 23.90 18.86 2.15 o
3 3 9 67.71 64.44 3.37 o
4 3 9 0.13 2.14 2.73 <
5 3 9 89.88 97.15 5.39 o
-6 4 9 0.34 -0.92 4.52 <
-5 4 9 485.48 486.62 9.49 o
-4 4 9 2.22 4.28 2.40 <
-3 4 9 178.24 186.60 5.15 o
-2 4 9 0.20 2.21 1.58 <
-1 4 9 373.11 362.94 5.88 o
0 4 9 10.63 9.47 1.79 o
1 4 9 795.22 789.71 8.62 o
2 4 9 0.28 -0.16 2.12 <
3 4 9 43.37 43.65 2.98 o
4 4 9 6.55 9.87 3.00 o
5 4 9 8.20 10.80 3.63 <
-6 5 9 0.70 3.15 4.39 <
-5 5 9 1.96 3.23 2.56 <
-4 5 9 16.08 14.40 2.91 o
-3 5 9 112.51 109.10 4.61 o
-2 5 9 4.12 2.46 2.15 <
-1 5 9 107.13 100.26 3.30 o
0 5 9 19.92 19.30 2.33 o
1 5 9 56.67 58.83 2.70 o
2 5 9 0.11 1.02 2.40 <
3 5 9 100.88 96.86 4.26 o
4 5 9 0.09 0.13 2.95 <
5 5 9 7.86 2.46 3.78 <
-6 6 9 0.07 3.18 4.18 <
-5 6 9 177.75 175.43 6.83 o
-4 6 9 18.49 19.21 2.79 o
-3 6 9 208.76 199.64 6.20 o
-2 6 9 46.48 44.97 3.06 o
-1 6 9 287.77 287.34 5.77 o
0 6 9 5.30 7.48 1.80 o
1 6 9 55.87 54.85 3.50 o
2 6 9 19.51 45.06 3.66 o
3 6 9 4.52 3.02 2.53 <
4 6 9 4.79 7.27 3.01 <
5 6 9 30.83 33.05 7.14 o
-6 7 9 40.14 29.03 8.96 o
-5 7 9 65.31 66.16 5.08 o
-4 7 9 0.50 -0.88 3.14 <
-3 7 9 119.81 118.73 5.69 o
-2 7 9 16.07 14.15 3.22 o
-1 7 9 12.39 14.22 2.22 o
0 7 9 0.39 2.72 2.10 <
1 7 9 8.35 9.56 2.43 o
2 7 9 0.01 -2.73 2.53 <
3 7 9 240.38 241.38 7.10 o
4 7 9 12.01 11.38 2.98 o
-5 8 9 482.31 496.44 19.24 o
-4 8 9 8.36 3.74 3.41 <
-3 8 9 120.38 120.57 5.91 o
-2 8 9 1.86 5.10 2.76 <
-1 8 9 171.21 175.90 5.96 o
0 8 9 14.07 12.22 2.45 o
1 8 9 5.12 2.66 2.47 <
2 8 9 2.77 -1.85 2.91 <
3 8 9 96.81 87.02 5.40 o
4 8 9 5.68 8.98 3.26 <
-5 9 9 2.13 -8.53 8.54 <
-4 9 9 0.95 1.48 3.90 <
-3 9 9 0.83 -0.66 3.25 <
-2 9 9 12.88 19.81 3.26 o
-1 9 9 32.24 24.74 3.18 o
0 9 9 2.83 -2.29 2.61 <
1 9 9 278.68 269.78 7.34 o
2 9 9 11.74 10.59 3.19 o
3 9 9 34.04 29.57 4.38 o
4 9 9 2.32 1.31 5.57 <
-4 10 9 4.66 -2.23 7.98 <
-3 10 9 40.44 31.85 4.01 o
-2 10 9 10.54 9.83 3.13 o
-1 10 9 7.81 8.77 2.91 o
0 10 9 0.43 -2.47 3.04 <
1 10 9 4.09 1.27 3.44 <
2 10 9 6.46 6.60 3.30 <
3 10 9 272.26 281.18 10.62 o
-3 11 9 110.67 109.94 8.24 o
-2 11 9 7.74 6.95 3.15 <
-1 11 9 0.18 -1.45 3.22 <
0 11 9 5.01 13.42 4.19 o
1 11 9 0.20 4.59 3.92 <
2 11 9 0.10 2.37 3.70 <
3 11 9 51.42 23.74 9.24 <
-3 12 9 75.99 71.02 8.51 o
-2 12 9 15.86 17.01 6.29 <
-1 12 9 34.05 35.89 4.19 o
0 12 9 28.20 30.86 4.84 o
1 12 9 150.64 140.77 14.76 o
-1 13 9 3.88 2.24 7.48 <
0 13 9 4.79 -0.15 8.13 <
1 13 9 0.00 1.05 7.90 <
-6 0 10 0.10 2.24 5.43 <
-4 0 10 289.49 293.61 10.29 o
-2 0 10 577.29 586.90 9.47 o
0 0 10 9.16 12.05 1.88 o
2 0 10 833.77 807.64 19.87 o
4 0 10 50.86 60.56 6.25 o
-6 1 10 7.91 8.44 4.10 <
-5 1 10 0.55 0.77 2.71 <
-4 1 10 16.87 17.66 3.01 o
-3 1 10 8.10 9.65 2.24 o
-2 1 10 213.50 212.04 4.85 o
-1 1 10 22.06 22.58 1.71 o
0 1 10 83.83 78.42 2.69 o
1 1 10 7.85 7.66 2.32 o
2 1 10 630.56 609.85 12.34 o
3 1 10 17.28 21.97 3.15 o
4 1 10 22.60 20.45 3.70 o
5 1 10 41.45 42.04 5.53 o
-6 2 10 62.78 52.50 6.11 o
-5 2 10 1.30 3.89 2.94 <
-4 2 10 50.48 46.36 3.63 o
-3 2 10 107.83 111.42 4.62 o
-2 2 10 405.37 423.18 7.20 o
-1 2 10 7.87 8.71 1.82 o
0 2 10 81.39 80.64 3.02 o
1 2 10 18.22 16.53 2.37 o
2 2 10 314.56 330.40 6.74 o
3 2 10 0.54 2.70 2.43 <
4 2 10 11.80 9.75 3.40 <
5 2 10 2.55 4.29 4.91 <
-6 3 10 118.80 108.94 8.10 o
-5 3 10 56.16 58.28 4.32 o
-4 3 10 0.18 2.11 2.53 <
-3 3 10 3.92 4.65 2.11 <
-2 3 10 4.45 4.46 2.09 <
-1 3 10 53.45 51.26 2.68 o
0 3 10 625.81 619.19 7.76 o
1 3 10 1.01 0.98 1.79 <
2 3 10 24.88 33.17 2.80 o
3 3 10 32.87 37.29 3.13 o
4 3 10 15.15 19.16 3.69 o
5 3 10 69.44 80.38 13.77 o
-6 4 10 3.66 -2.95 5.49 <
-5 4 10 0.47 1.43 2.99 <
-4 4 10 8.50 10.62 2.84 o
-3 4 10 36.80 37.36 2.94 o
-2 4 10 802.04 819.78 11.25 o
-1 4 10 4.15 3.33 1.79 <
0 4 10 396.93 383.56 6.79 o
1 4 10 10.89 8.51 1.73 o
2 4 10 482.80 475.81 8.10 o
3 4 10 6.51 8.60 2.38 o
4 4 10 154.07 158.26 6.84 o
5 4 10 0.53 -3.70 8.69 <
-6 5 10 15.97 26.63 9.76 <
-5 5 10 73.33 74.80 5.02 o
-4 5 10 46.95 45.52 3.80 o
-3 5 10 0.65 3.13 2.44 <
-2 5 10 64.97 67.63 3.94 o
-1 5 10 13.93 12.75 2.37 o
0 5 10 551.11 546.35 9.31 o
1 5 10 13.30 15.08 2.20 o
2 5 10 276.49 286.95 6.61 o
3 5 10 12.19 9.06 2.64 o
4 5 10 104.60 108.76 6.09 o
5 5 10 45.24 46.16 9.95 o
-5 6 10 0.15 -5.52 3.38 <
-4 6 10 193.26 197.58 6.90 o
-3 6 10 48.85 56.92 4.09 o
-2 6 10 5.65 6.02 2.49 <
-1 6 10 8.22 8.29 2.41 o
0 6 10 70.06 68.66 4.00 o
1 6 10 25.74 28.78 2.74 o
2 6 10 129.80 138.34 5.34 o
3 6 10 3.58 5.83 2.64 <
4 6 10 61.77 64.23 4.66 o
-5 7 10 13.17 19.78 5.23 o
-4 7 10 10.56 9.53 3.17 o
-3 7 10 7.97 5.49 2.95 <
-2 7 10 168.85 174.04 6.11 o
-1 7 10 81.27 87.54 4.13 o
0 7 10 891.78 876.01 12.51 o
1 7 10 0.48 -1.15 2.22 <
2 7 10 34.80 41.88 3.64 o
3 7 10 8.28 9.17 3.51 <
4 7 10 8.87 15.19 4.22 o
-5 8 10 5.50 5.47 7.42 <
-4 8 10 85.72 90.97 5.83 o
-3 8 10 7.29 4.59 3.12 <
-2 8 10 4.62 3.02 2.85 <
-1 8 10 4.47 3.15 3.01 <
0 8 10 450.31 449.51 9.43 o
1 8 10 0.14 -0.57 2.61 <
2 8 10 0.55 -0.38 2.82 <
3 8 10 8.43 8.79 3.34 <
4 8 10 17.19 26.19 9.21 <
-4 9 10 57.13 47.19 10.91 o
-3 9 10 13.84 13.66 3.61 o
-2 9 10 42.28 34.64 3.81 o
-1 9 10 1.89 0.17 3.15 <
0 9 10 505.20 510.00 10.36 o
1 9 10 3.66 7.01 3.08 <
2 9 10 80.38 84.06 6.05 o
3 9 10 43.70 43.91 5.13 o
-4 10 10 2.80 -4.68 6.88 <
-3 10 10 5.85 0.24 3.43 <
-2 10 10 20.07 20.25 3.50 o
-1 10 10 17.77 17.23 3.89 o
0 10 10 266.86 275.66 9.03 o
1 10 10 0.01 -2.95 3.71 <
2 10 10 30.67 36.63 5.67 o
3 10 10 22.36 6.41 7.76 <
-3 11 10 0.02 1.71 6.08 <
-2 11 10 1.34 6.29 4.38 <
-1 11 10 23.54 19.77 4.03 o
0 11 10 40.62 37.42 4.44 o
1 11 10 3.30 2.46 4.32 <
-2 12 10 170.61 166.30 16.88 o
1 12 10 30.85 33.95 9.62 o
-5 0 11 154.95 165.13 11.77 o
-3 0 11 137.10 133.15 6.36 o
-1 0 11 6.40 4.09 2.35 <
1 0 11 22.97 21.07 4.68 o
3 0 11 1046.99 1044.39 25.46 o
-5 1 11 6.78 1.07 3.75 <
-4 1 11 22.04 26.74 3.67 o
-3 1 11 781.87 793.92 10.61 o
-2 1 11 0.55 0.01 2.04 <
-1 1 11 217.11 224.39 4.63 o
0 1 11 16.45 11.90 2.53 o
1 1 11 217.60 221.18 7.48 o
2 1 11 39.62 43.65 4.43 o
3 1 11 10.09 10.18 2.81 o
4 1 11 45.74 38.55 4.45 o
-5 2 11 0.36 2.22 3.96 <
-4 2 11 1.05 4.12 2.99 <
-3 2 11 0.17 4.28 2.48 <
-2 2 11 56.77 58.04 3.70 o
-1 2 11 44.13 42.41 2.70 o
0 2 11 0.19 1.49 1.70 <
1 2 11 116.14 112.72 4.96 o
2 2 11 13.30 14.83 2.85 o
3 2 11 0.68 0.97 2.85 <
4 2 11 0.37 -2.15 3.64 <
-5 3 11 46.65 49.10 5.50 o
-4 3 11 5.62 9.79 3.10 o
-3 3 11 4.99 2.83 2.74 <
-2 3 11 2.39 5.24 2.46 <
-1 3 11 18.09 15.53 2.17 o
0 3 11 33.54 31.17 2.64 o
1 3 11 22.73 26.38 2.86 o
2 3 11 25.64 30.27 2.98 o
3 3 11 0.06 1.48 2.68 <
4 3 11 47.07 51.11 4.97 o
-5 4 11 66.94 71.95 5.55 o
-4 4 11 1.40 0.91 3.71 <
-3 4 11 15.07 18.46 3.43 o
-2 4 11 4.43 5.47 2.52 <
-1 4 11 530.00 565.22 8.78 o
0 4 11 21.98 23.05 2.86 o
1 4 11 557.58 542.75 8.80 o
2 4 11 0.22 -1.95 2.42 <
3 4 11 0.03 -0.06 2.68 <
4 4 11 0.47 -0.45 3.87 <
-5 5 11 0.22 -5.37 5.95 <
-4 5 11 0.19 6.34 3.76 <
-3 5 11 291.33 294.32 9.72 o
-2 5 11 1.55 5.09 2.47 <
-1 5 11 201.12 196.18 5.58 o
0 5 11 26.81 29.05 2.95 o
1 5 11 136.87 146.27 4.92 o
2 5 11 17.70 15.67 2.87 o
3 5 11 2.47 -2.49 2.88 <
4 5 11 67.47 80.43 9.16 o
-5 6 11 35.88 13.65 8.81 <
-4 6 11 11.55 8.25 3.43 <
-3 6 11 9.49 10.31 3.31 o
-2 6 11 35.12 29.72 3.38 o
-1 6 11 68.10 62.66 3.74 o
0 6 11 0.32 1.32 2.48 <
1 6 11 48.70 52.79 3.48 o
2 6 11 0.23 -3.67 2.53 <
3 6 11 593.85 604.20 11.58 o
4 6 11 6.89 3.43 8.02 <
-4 7 11 30.32 20.85 4.55 o
-3 7 11 1.58 0.35 3.64 <
-2 7 11 3.44 0.70 3.06 <
-1 7 11 73.29 71.75 4.43 o
0 7 11 10.69 13.05 2.92 o
1 7 11 63.93 67.87 4.31 o
2 7 11 21.11 22.27 3.41 o
3 7 11 0.37 -0.29 2.76 <
-4 8 11 1.06 -1.75 7.14 <
-3 8 11 11.68 15.05 4.10 o
-2 8 11 11.65 16.92 3.53 o
-1 8 11 519.38 530.94 10.75 o
0 8 11 1.06 0.92 2.86 <
1 8 11 4.77 -0.51 2.76 <
2 8 11 13.05 21.54 4.07 o
3 8 11 50.53 56.25 5.59 o
-3 9 11 85.17 86.14 6.13 o
-2 9 11 0.86 2.33 3.61 <
-1 9 11 18.90 8.30 3.38 <
0 9 11 0.41 -4.70 3.07 <
1 9 11 211.66 204.68 7.02 o
2 9 11 35.76 40.84 5.80 o
3 9 11 43.77 38.12 10.04 o
-3 10 11 128.57 85.31 12.89 o
-2 10 11 15.89 6.36 4.55 <
-1 10 11 218.16 225.98 8.72 o
0 10 11 26.85 28.51 4.38 o
1 10 11 24.62 32.78 4.68 o
0 11 11 25.76 29.02 9.77 <
1 11 11 0.02 -2.43 7.87 <
-4 0 12 5.39 7.77 5.27 <
-2 0 12 1.92 3.55 4.16 <
0 0 12 19.28 14.39 3.66 o
2 0 12 160.25 149.18 10.18 o
4 0 12 33.48 40.74 10.43 o
-5 1 12 8.44 5.30 4.01 <
-4 1 12 119.29 125.13 7.11 o
-3 1 12 0.65 3.11 2.58 <
-2 1 12 3.37 4.45 2.59 <
-1 1 12 6.23 4.70 2.51 <
0 1 12 258.74 268.29 7.57 o
1 1 12 35.57 34.03 4.01 o
2 1 12 1.30 2.98 3.22 <
3 1 12 21.93 19.87 3.87 o
4 1 12 137.93 143.66 15.68 o
-5 2 12 0.41 -1.79 4.71 <
-4 2 12 0.66 0.91 3.34 <
-3 2 12 8.16 10.84 3.18 o
-2 2 12 47.51 49.69 3.68 o
-1 2 12 16.70 15.94 2.71 o
0 2 12 95.61 109.33 5.82 o
1 2 12 6.66 9.35 3.19 <
2 2 12 440.84 435.86 9.33 o
3 2 12 0.64 -5.38 3.34 <
4 2 12 11.85 6.04 7.84 <
-5 3 12 12.83 6.16 9.02 <
-4 3 12 1.11 0.33 3.95 <
-3 3 12 5.92 2.77 2.98 <
-2 3 12 1.30 0.73 2.25 <
-1 3 12 26.54 27.84 2.76 o
0 3 12 7.81 8.95 2.68 o
1 3 12 11.61 14.13 3.11 o
2 3 12 2.94 4.44 3.10 <
3 3 12 31.59 32.32 3.70 o
4 3 12 65.05 69.51 11.87 o
-4 4 12 13.46 12.19 4.14 <
-3 4 12 0.55 4.74 2.99 <
-2 4 12 224.14 212.37 6.66 o
-1 4 12 1.16 0.24 2.30 <
0 4 12 379.03 381.15 9.17 o
1 4 12 0.02 -1.19 2.77 <
2 4 12 146.15 140.46 7.16 o
3 4 12 0.26 -3.89 3.64 <
4 4 12 241.81 241.42 19.37 o
-5 5 12 0.11 7.69 8.01 <
-4 5 12 2.60 5.92 4.09 <
-3 5 12 2.36 3.28 3.58 <
-2 5 12 33.16 28.87 3.34 o
-1 5 12 0.22 -0.30 2.45 <
0 5 12 33.54 32.67 3.06 o
1 5 12 2.90 -1.55 2.42 <
2 5 12 0.12 -0.92 2.77 <
3 5 12 46.45 48.38 5.51 o
-4 6 12 23.09 9.33 4.18 <
-3 6 12 20.93 17.64 3.70 o
-2 6 12 65.89 64.81 4.99 o
-1 6 12 0.00 -3.46 2.35 <
0 6 12 230.40 233.87 6.51 o
1 6 12 0.03 2.48 2.93 <
2 6 12 23.78 28.31 3.51 o
3 6 12 0.07 0.42 4.22 <
-4 7 12 78.49 76.87 11.98 o
-3 7 12 0.58 -4.80 3.56 <
-2 7 12 7.27 3.76 3.26 <
-1 7 12 3.40 7.22 3.08 <
0 7 12 88.23 88.18 4.51 o
1 7 12 29.20 21.30 3.42 o
2 7 12 36.13 34.32 4.04 o
3 7 12 9.92 12.44 3.83 o
-4 8 12 0.47 11.51 7.87 <
-3 8 12 10.16 1.94 5.72 <
-2 8 12 0.09 -5.03 3.52 <
-1 8 12 0.01 -0.70 3.05 <
0 8 12 0.14 -1.13 2.97 <
1 8 12 14.85 13.99 3.61 o
2 8 12 328.59 329.72 10.94 o
-2 9 12 8.23 5.33 4.36 <
-1 9 12 1.55 0.40 3.44 <
0 9 12 50.45 42.77 4.50 o
1 9 12 11.44 18.90 4.35 o
0 10 12 3.22 -4.63 7.14 <
-5 0 13 0.12 -3.90 7.37 <
-3 0 13 377.44 395.74 16.21 o
-1 0 13 325.99 352.43 21.39 o
1 0 13 967.87 937.61 23.05 o
3 0 13 33.41 39.18 9.48 o
-5 1 13 0.50 0.49 7.39 <
-4 1 13 32.75 23.78 5.00 o
-3 1 13 2.79 4.10 2.96 <
-2 1 13 4.35 4.37 3.86 <
-1 1 13 1.76 3.45 5.17 <
0 1 13 42.83 36.43 4.23 o
1 1 13 39.54 35.39 4.23 o
2 1 13 10.12 10.66 3.96 <
3 1 13 4.23 -1.39 4.62 <
-4 2 13 25.37 19.57 5.42 o
-3 2 13 293.40 307.57 9.03 o
-2 2 13 47.15 53.20 4.37 o
-1 2 13 15.62 10.89 4.68 <
0 2 13 2.28 3.35 2.94 <
1 2 13 5.35 -0.13 3.54 <
2 2 13 5.89 6.73 3.17 <
3 2 13 19.35 21.69 5.25 o
-4 3 13 11.11 8.20 4.10 <
-3 3 13 61.40 61.24 4.82 o
-2 3 13 5.32 5.35 3.13 <
-1 3 13 466.17 463.42 14.09 o
0 3 13 2.65 2.15 3.82 <
1 3 13 0.51 7.37 4.05 <
2 3 13 3.96 3.44 3.51 <
3 3 13 2.12 -13.04 9.07 <
-4 4 13 13.81 8.75 4.36 <
-3 4 13 410.64 423.90 10.73 o
-2 4 13 0.09 -4.95 2.95 <
-1 4 13 103.84 102.36 5.55 o
0 4 13 0.15 -0.06 4.77 <
1 4 13 9.99 9.75 3.64 <
2 4 13 1.09 1.24 3.75 <
3 4 13 41.03 38.67 10.18 o
-4 5 13 0.08 -1.77 5.24 <
-3 5 13 0.13 -2.73 4.68 <
-2 5 13 0.02 3.09 3.06 <
-1 5 13 121.11 118.83 5.10 o
0 5 13 0.05 0.80 2.86 <
1 5 13 4.08 4.03 3.95 <
2 5 13 14.70 18.18 4.27 o
3 5 13 8.06 8.42 5.93 <
-4 6 13 3.05 0.34 7.53 <
-3 6 13 7.70 3.12 3.69 <
-2 6 13 21.17 23.76 4.05 o
-1 6 13 232.84 236.19 6.97 o
0 6 13 0.07 2.52 2.86 <
1 6 13 286.87 291.94 10.09 o
2 6 13 0.08 2.80 5.09 <
-3 7 13 24.74 8.16 8.00 <
-2 7 13 22.82 26.74 4.55 o
-1 7 13 509.12 499.80 11.01 o
0 7 13 25.75 26.23 3.60 o
1 7 13 31.37 33.80 4.64 o
2 7 13 1.10 -0.56 6.68 <
-2 8 13 13.57 16.89 5.95 <
-1 8 13 1.58 8.16 3.74 <
0 8 13 3.86 1.00 4.11 <
1 8 13 29.26 25.27 5.23 o
-1 9 13 554.89 582.13 29.36 o
-4 0 14 457.65 479.55 27.39 o
-2 0 14 252.69 270.75 20.37 o
0 0 14 18.78 1.87 4.82 <
2 0 14 319.24 325.80 15.76 o
-4 1 14 289.01 302.58 15.80 o
-3 1 14 8.73 6.05 3.39 <
-2 1 14 30.11 29.37 6.57 o
-1 1 14 16.15 10.95 5.52 <
0 1 14 73.84 67.00 5.46 o
1 1 14 4.60 4.16 4.13 <
2 1 14 262.31 264.18 10.07 o
-4 2 14 0.16 -0.75 5.75 <
-3 2 14 23.49 27.64 5.35 o
-2 2 14 122.22 126.63 10.38 o
-1 2 14 18.55 12.82 5.35 <
0 2 14 13.09 8.87 4.16 <
1 2 14 3.84 0.76 3.97 <
2 2 14 39.41 40.91 4.99 o
-4 3 14 23.92 20.69 6.80 o
-3 3 14 26.84 37.18 5.11 o
-2 3 14 0.55 2.51 3.97 <
-1 3 14 6.52 -2.44 5.43 <
0 3 14 24.90 18.58 4.40 o
1 3 14 23.44 27.61 4.50 o
2 3 14 7.61 -2.39 5.44 <
-3 4 14 2.13 5.83 3.91 <
-2 4 14 70.13 71.85 5.43 o
-1 4 14 0.77 -13.89 6.10 <
0 4 14 7.85 6.41 3.98 <
1 4 14 0.16 -1.33 3.63 <
2 4 14 18.12 9.82 7.57 <
-3 5 14 9.26 3.27 5.31 <
-2 5 14 1.48 -0.35 3.70 <
-1 5 14 0.05 -3.33 4.65 <
0 5 14 63.06 53.45 5.46 o
1 5 14 0.34 -4.31 6.72 <
-3 6 14 5.67 4.03 7.04 <
-2 6 14 15.92 21.96 5.01 o
-1 6 14 32.90 40.76 10.68 o
0 6 14 1.64 2.16 4.99 <
-2 7 14 2.81 -5.23 7.14 <
-1 7 14 13.16 8.31 5.80 <
1 0 15 314.23 314.71 22.66 o
0 1 15 3.42 -3.37 6.43 <
1 1 15 5.64 12.14 5.68 <
-1 2 15 21.64 29.95 8.69 o
1 2 15 216.07 195.44 17.97 o
-2 3 15 0.07 2.70 7.60 <
-1 3 15 5.86 -12.62 8.60 <
1 3 15 0.54 18.13 9.05 <
-2 4 15 4.04 -5.38 8.44 <
-1 4 15 22.99 15.91 9.04 <
