#------------------------------------------------------------------------------
#$Date: 2016-03-24 03:10:02 +0200 (Thu, 24 Mar 2016) $
#$Revision: 179616 $
#$URL: svn://www.crystallography.net/cod/cif/4/50/80/4508008.cif $
#------------------------------------------------------------------------------
#
# This file is available in the Crystallography Open Database (COD),
# http://www.crystallography.net/
#
# All data on this site have been placed in the public domain by the
# contributors.
#
data_4508008
loop_
_publ_author_name
'Bhattacharya, Suman'
'Saraswatula, Viswanadha G.'
'Saha, Binoy K.'
_publ_section_title
;
 Thermal Expansion in Alkane Diacids---Another Property Showing
 Alternation in an Odd--Even Series
;
_journal_issue                   8
_journal_name_full               'Crystal Growth &amp; Design'
_journal_page_first              3651
_journal_paper_doi               10.1021/cg400668w
_journal_volume                  13
_journal_year                    2013
_chemical_formula_moiety         'C5 H8 O4'
_chemical_formula_sum            'C5 H8 O4'
_chemical_formula_weight         132.11
_chemical_name_common            C5-260-beta-polymorph
_chemical_name_systematic        '1,5-Pentanedioic acid'
_space_group_crystal_system      monoclinic
_space_group_IT_number           15
_space_group_name_Hall           '-C 2yc'
_space_group_name_H-M_alt        'C 1 2/c 1'
_symmetry_space_group_name_Hall  '-C 2yc'
_symmetry_space_group_name_H-M   'C 1 2/c 1'
_atom_sites_solution_hydrogens   geom
_atom_sites_solution_primary     direct
_atom_sites_solution_secondary   difmap
_audit_creation_date             2012-11-19
_audit_creation_method
;
  Olex2 1.2
  (compiled 2012.05.09 svn.r2324, GUI svn.r4230)
;
_cell_angle_alpha                90.00
_cell_angle_beta                 97.242(12)
_cell_angle_gamma                90.00
_cell_formula_units_Z            4
_cell_length_a                   12.9084(17)
_cell_length_b                   4.8009(11)
_cell_length_c                   9.8512(14)
_cell_measurement_reflns_used    399
_cell_measurement_temperature    260(2)
_cell_measurement_theta_max      29.0412
_cell_measurement_theta_min      3.9979
_cell_volume                     605.63(18)
_computing_cell_refinement
;
CrysAlisPro, Agilent Technologies,
Version 1.171.36.20 (release 27-06-2012 CrysAlis171 .NET)
(compiled Jul 11 2012,15:38:31)
;
_computing_data_collection
;
CrysAlisPro, Agilent Technologies,
Version 1.171.36.20 (release 27-06-2012 CrysAlis171 .NET)
(compiled Jul 11 2012,15:38:31)
;
_computing_data_reduction
;
CrysAlisPro, Agilent Technologies,
Version 1.171.36.20 (release 27-06-2012 CrysAlis171 .NET)
(compiled Jul 11 2012,15:38:31)
;
_computing_molecular_graphics
;
O. V. Dolomanov, L. J. Bourhis, R. J. Gildea, J. A. K. Howard and H. Puschmann,
OLEX2: a complete structure solution, refinement and analysis program.
J. Appl. Cryst. (2009). 42, 339-341.
;
_computing_publication_material
;
O. V. Dolomanov, L. J. Bourhis, R. J. Gildea, J. A. K. Howard and H. Puschmann,
OLEX2: a complete structure solution, refinement and analysis program.
J. Appl. Cryst. (2009). 42, 339-341.
;
_computing_structure_refinement
;
SHELXL, G.M. Sheldrick, Acta Cryst.
(2008). A64, 112-122
;
_computing_structure_solution
;
SHELXS, G.M. Sheldrick, Acta Cryst.
(2008). A64, 112-122
;
_diffrn_ambient_temperature      260(2)
_diffrn_detector_area_resol_mean 15.9821
_diffrn_measured_fraction_theta_full 0.994
_diffrn_measured_fraction_theta_max 0.994
_diffrn_measurement_details
;
  1 omega  -94.00  -48.00   1.0000    5.0000
omega____ theta____ kappa____ phi______ frames
    -      -17.4178  178.0000 -120.0000 46

  2 omega  -75.00  -37.00   1.0000    5.0000
omega____ theta____ kappa____ phi______ frames
    -      -17.4178  133.0000  160.0000 38

  3 omega  -87.00   26.00   1.0000    5.0000
omega____ theta____ kappa____ phi______ frames
    -      -17.4178  -19.0000   90.0000 113

  4 omega  -11.00   61.00   1.0000    5.0000
omega____ theta____ kappa____ phi______ frames
    -       19.1366   77.0000  -30.0000 72
;
_diffrn_measurement_device_type  'Xcalibur, Eos'
_diffrn_measurement_method       '\w scans'
_diffrn_orient_matrix_UB_11      0.0329802000
_diffrn_orient_matrix_UB_12      0.1162604000
_diffrn_orient_matrix_UB_13      -0.0065423000
_diffrn_orient_matrix_UB_21      -0.0444833000
_diffrn_orient_matrix_UB_22      0.0858850000
_diffrn_orient_matrix_UB_23      -0.0168210000
_diffrn_orient_matrix_UB_31      -0.0003678000
_diffrn_orient_matrix_UB_32      0.0312354000
_diffrn_orient_matrix_UB_33      0.0702514000
_diffrn_radiation_monochromator  graphite
_diffrn_radiation_type           'Mo K\a'
_diffrn_radiation_wavelength     0.7107
_diffrn_reflns_av_R_equivalents  0.0000
_diffrn_reflns_av_unetI/netI     0.0116
_diffrn_reflns_limit_h_max       15
_diffrn_reflns_limit_h_min       -13
_diffrn_reflns_limit_k_max       5
_diffrn_reflns_limit_k_min       -5
_diffrn_reflns_limit_l_max       11
_diffrn_reflns_limit_l_min       -11
_diffrn_reflns_number            915
_diffrn_reflns_theta_full        24.96
_diffrn_reflns_theta_max         24.96
_diffrn_reflns_theta_min         4.53
_diffrn_source                   'Enhance (Mo) X-ray Source'
_exptl_absorpt_coefficient_mu    0.127
_exptl_absorpt_correction_T_max  1.00000
_exptl_absorpt_correction_T_min  0.94939
_exptl_absorpt_correction_type   multi-scan
_exptl_absorpt_process_details
;
CrysAlisPro, Agilent Technologies,
Version 1.171.36.20 (release 27-06-2012 CrysAlis171 .NET)
(compiled Jul 11 2012,15:38:31)
Empirical absorption correction using spherical harmonics,
 implemented in SCALE3 ABSPACK scaling algorithm.
;
_exptl_crystal_colour            colourless
_exptl_crystal_density_diffrn    1.449
_exptl_crystal_density_method    'not measured'
_exptl_crystal_description       plate
_exptl_crystal_F_000             280
_exptl_crystal_size_max          0.42
_exptl_crystal_size_mid          0.4
_exptl_crystal_size_min          0.16
_refine_diff_density_max         0.182
_refine_diff_density_min         -0.233
_refine_diff_density_rms         0.057
_refine_ls_extinction_method     none
_refine_ls_goodness_of_fit_ref   1.128
_refine_ls_hydrogen_treatment    mixed
_refine_ls_matrix_type           full
_refine_ls_number_parameters     46
_refine_ls_number_reflns         915
_refine_ls_number_restraints     0
_refine_ls_restrained_S_all      1.128
_refine_ls_R_factor_all          0.0751
_refine_ls_R_factor_gt           0.0693
_refine_ls_shift/su_max          0.001
_refine_ls_shift/su_mean         0.000
_refine_ls_structure_factor_coef Fsqd
_refine_ls_weighting_details
'calc w=1/[\s^2^(Fo^2^)+(0.1401P)^2^+0.2040P] where P=(Fo^2^+2Fc^2^)/3'
_refine_ls_weighting_scheme      calc
_refine_ls_wR_factor_gt          0.1901
_refine_ls_wR_factor_ref         0.1965
_reflns_number_gt                794
_reflns_number_total             915
_reflns_threshold_expression     >2sigma(I)
_cod_data_source_file            cg400668w_si_002.cif
_cod_data_source_block           C5-260
_cod_original_cell_volume        605.62(18)
_cod_database_code               4508008
loop_
_space_group_symop_id
_space_group_symop_operation_xyz
1 'x, y, z'
2 '-x, y, -z+1/2'
3 'x+1/2, y+1/2, z'
4 '-x+1/2, y+1/2, -z+1/2'
5 '-x, -y, -z'
6 'x, -y, z-1/2'
7 '-x+1/2, -y+1/2, -z'
8 'x+1/2, -y+1/2, z-1/2'
loop_
_atom_site_label
_atom_site_type_symbol
_atom_site_fract_x
_atom_site_fract_y
_atom_site_fract_z
_atom_site_U_iso_or_equiv
_atom_site_adp_type
_atom_site_occupancy
_atom_site_symmetry_multiplicity
_atom_site_calc_flag
_atom_site_refinement_flags
O2 O 0.25719(11) 0.5437(3) 0.38849(16) 0.0407(6) Uani 1 1 d .
O1 O 0.36692(12) 0.1944(3) 0.44844(16) 0.0427(6) Uani 1 1 d .
C2 C 0.41931(16) 0.5575(5) 0.3057(2) 0.0375(7) Uani 1 1 d .
H2A H 0.4556 0.6992 0.3637 0.045 Uiso 1 1 calc R
H2B H 0.3791 0.6521 0.2295 0.045 Uiso 1 1 calc R
C1 C 0.34539(15) 0.4117(4) 0.38551(19) 0.0293(6) Uani 1 1 d .
C3 C 0.5000 0.3763(6) 0.2500 0.0358(8) Uani 1 2 d S
H3A H 0.4663 0.2578 0.1778 0.043 Uiso 0.50 1 calc PR
H3B H 0.5337 0.2578 0.3222 0.043 Uiso 0.50 1 calc PR
H2 H 0.219(3) 0.455(8) 0.441(4) 0.088(11) Uiso 1 1 d .
loop_
_atom_site_aniso_label
_atom_site_aniso_U_11
_atom_site_aniso_U_22
_atom_site_aniso_U_33
_atom_site_aniso_U_23
_atom_site_aniso_U_13
_atom_site_aniso_U_12
O2 0.0314(9) 0.0457(10) 0.0494(10) 0.0054(7) 0.0221(7) 0.0071(7)
O1 0.0369(10) 0.0447(11) 0.0510(10) 0.0113(7) 0.0234(8) 0.0064(7)
C2 0.0356(13) 0.0359(12) 0.0448(12) 0.0058(10) 0.0199(10) 0.0037(9)
C1 0.0269(10) 0.0339(11) 0.0286(10) -0.0051(9) 0.0093(8) 0.0003(8)
C3 0.0327(16) 0.0370(15) 0.0420(15) 0.000 0.0211(13) 0.000
loop_
_atom_type_symbol
_atom_type_description
_atom_type_scat_dispersion_real
_atom_type_scat_dispersion_imag
_atom_type_scat_source
C C 0.0033 0.0016 'International Tables Vol C Tables 4.2.6.8 and 6.1.1.4'
H H 0.0000 0.0000 'International Tables Vol C Tables 4.2.6.8 and 6.1.1.4'
O O 0.0106 0.0060 'International Tables Vol C Tables 4.2.6.8 and 6.1.1.4'
loop_
_geom_angle_atom_site_label_1
_geom_angle_atom_site_label_2
_geom_angle_atom_site_label_3
_geom_angle
_geom_angle_site_symmetry_1
_geom_angle_site_symmetry_3
C1 O2 H2 110(2) . .
H2A C2 H2B 107.4 . .
C1 C2 H2A 108.3 . .
C1 C2 H2B 108.3 . .
C1 C2 C3 116.02(18) . .
C3 C2 H2A 108.3 . .
C3 C2 H2B 108.3 . .
O2 C1 C2 113.77(18) . .
O1 C1 O2 122.91(19) . .
O1 C1 C2 123.23(18) . .
C2 C3 C2 109.8(3) . 2_655
C2 C3 H3A 109.7 . .
C2 C3 H3A 109.7 2_655 .
C2 C3 H3B 109.7 . .
C2 C3 H3B 109.7 2_655 .
H3A C3 H3B 108.2 . .
loop_
_geom_bond_atom_site_label_1
_geom_bond_atom_site_label_2
_geom_bond_distance
_geom_bond_site_symmetry_2
O2 C1 1.306(2) .
O2 H2 0.87(4) .
O1 C1 1.227(3) .
C2 H2A 0.9700 .
C2 H2B 0.9700 .
C2 C1 1.486(3) .
C2 C3 1.512(3) .
C3 C2 1.512(3) 2_655
C3 H3A 0.9700 .
C3 H3B 0.9700 .
loop_
_geom_torsion_atom_site_label_1
_geom_torsion_atom_site_label_2
_geom_torsion_atom_site_label_3
_geom_torsion_atom_site_label_4
_geom_torsion
_geom_torsion_site_symmetry_4
C1 C2 C3 C2 -169.8(2) 2_655
C3 C2 C1 O2 -156.17(16) .
C3 C2 C1 O1 27.2(3) .
