#------------------------------------------------------------------------------
#$Date: 2016-03-24 03:21:15 +0200 (Thu, 24 Mar 2016) $
#$Revision: 179626 $
#$URL: svn://www.crystallography.net/cod/cif/4/50/90/4509088.cif $
#------------------------------------------------------------------------------
#
# This file is available in the Crystallography Open Database (COD),
# http://www.crystallography.net/. The original data for this entry
# were provided the Crystal Eye server at
# http://wwmm.ch.cam.ac.uk/crystaleye/, created by Nick Day at the
# Peter Murray-Rust laboratory.
#
# The file may be used within the scientific community so long as
# proper attribution is given to the journal article from which the
# data were obtained.
#
data_4509088
loop_
_publ_author_name
'Wang, Chih-Chieh'
'Ke, Meu-Ju'
'Tsai, Cheng-Hsiao'
'Chen, I-Hsuan'
'Lin, Shin-I'
'Lin, Tzuen-Yeuan'
'Wu, Li-Mei'
'Lee, Gene-Hsiang'
'Sheu, Hwo-Shuenn'
'Fedorov, Vladimir E.'
_publ_section_title
;
 [M(C5O5)2(H2O)n]2&#x2212;as a Building Block for Hetero- and
 Homo-bimetallic Coordination Polymers: From 1D Chains to 3D
 Supramolecular Architectures
;
_journal_issue                   2
_journal_name_full               'Crystal Growth &amp; Design'
_journal_page_first              1013
_journal_paper_doi               10.1021/cg800827a
_journal_volume                  9
_journal_year                    2009
_chemical_formula_sum            'C14 H20 Co Cu N4 O12'
_chemical_formula_weight         558.81
_chemical_name_systematic
; 
 ? 
;
_space_group_IT_number           2
_symmetry_cell_setting           triclinic
_symmetry_space_group_name_Hall  '-P 1'
_symmetry_space_group_name_H-M   'P -1'
_atom_sites_solution_hydrogens   geom
_atom_sites_solution_primary     direct
_atom_sites_solution_secondary   difmap
_audit_creation_method           SHELXL-97
_cell_angle_alpha                101.792(1)
_cell_angle_beta                 106.691(1)
_cell_angle_gamma                109.665(1)
_cell_formula_units_Z            1
_cell_length_a                   7.1591(2)
_cell_length_b                   8.4702(2)
_cell_length_c                   9.3530(2)
_cell_measurement_reflns_used    all
_cell_measurement_temperature    150(2)
_cell_measurement_theta_max      27.50
_cell_measurement_theta_min      2.41
_cell_volume                     482.25(2)
_computing_cell_refinement       DENZO-SMN
_computing_data_collection       'NONIUS COLLECT'
_computing_data_reduction        DENZO-SMN
_computing_molecular_graphics    SHELXTL
_computing_publication_material  SHELXTL
_computing_structure_refinement  'SHELXL-97 (Sheldrick, 1997)'
_computing_structure_solution    'SHELXS-97 (Sheldrick, 1990)'
_diffrn_ambient_temperature      150(2)
_diffrn_measured_fraction_theta_full 1.000
_diffrn_measured_fraction_theta_max 1.000
_diffrn_measurement_device_type  'NONIUS KappaCCD'
_diffrn_measurement_method       'phi and omega scans'
_diffrn_radiation_monochromator  graphite
_diffrn_radiation_source         'fine-focus sealed tube'
_diffrn_radiation_type           MoK\a
_diffrn_radiation_wavelength     0.71073
_diffrn_reflns_av_R_equivalents  0.0508
_diffrn_reflns_av_sigmaI/netI    0.0423
_diffrn_reflns_limit_h_max       9
_diffrn_reflns_limit_h_min       -9
_diffrn_reflns_limit_k_max       10
_diffrn_reflns_limit_k_min       -10
_diffrn_reflns_limit_l_max       12
_diffrn_reflns_limit_l_min       -12
_diffrn_reflns_number            8733
_diffrn_reflns_theta_full        27.50
_diffrn_reflns_theta_max         27.50
_diffrn_reflns_theta_min         2.41
_diffrn_standards_decay_%        0
_exptl_absorpt_coefficient_mu    2.039
_exptl_absorpt_correction_T_max  0.825
_exptl_absorpt_correction_T_min  0.743
_exptl_absorpt_correction_type   multi-scan
_exptl_crystal_colour            dark
_exptl_crystal_density_diffrn    1.924
_exptl_crystal_density_meas      ?
_exptl_crystal_density_method    'not measured'
_exptl_crystal_description       irregular
_exptl_crystal_F_000             284
_exptl_crystal_size_max          0.20
_exptl_crystal_size_mid          0.15
_exptl_crystal_size_min          0.10
_refine_diff_density_max         1.677
_refine_diff_density_min         -0.569
_refine_diff_density_rms         0.134
_refine_ls_extinction_coef       0.033(6)
_refine_ls_extinction_expression Fc^*^=kFc[1+0.001xFc^2^\l^3^/sin(2\q)]^-1/4^
_refine_ls_extinction_method     SHELXL
_refine_ls_goodness_of_fit_ref   1.079
_refine_ls_hydrogen_treatment    mixed
_refine_ls_matrix_type           full
_refine_ls_number_parameters     155
_refine_ls_number_reflns         2204
_refine_ls_number_restraints     2
_refine_ls_restrained_S_all      1.079
_refine_ls_R_factor_all          0.0548
_refine_ls_R_factor_gt           0.0449
_refine_ls_shift/su_max          0.000
_refine_ls_shift/su_mean         0.000
_refine_ls_structure_factor_coef Fsqd
_refine_ls_weighting_details
'calc w=1/[\s^2^(Fo^2^)+(0.0555P)^2^+2.4944P] where P=(Fo^2^+2Fc^2^)/3'
_refine_ls_weighting_scheme      calc
_refine_ls_wR_factor_gt          0.1324
_refine_ls_wR_factor_ref         0.1384
_reflns_number_gt                1851
_reflns_number_total             2204
_reflns_threshold_expression     >2sigma(I)
_cod_data_source_file            cg800827asup3.cif
_cod_data_source_block           ic8287
_cod_depositor_comments
;
The following automatic conversions were performed:

'_symmetry_cell_setting' value 'Triclinic' changed to 'triclinic'
according to /home/saulius/struct/CIF-dictionaries/cif_core.dic
dictionary named 'cif_core.dic' version 2.4.2 from 2011-04-26.

Automatic conversion script
Id: cif_fix_values 1891 2012-01-12 08:04:46Z andrius 

The following automatic conversions were performed:

'_exptl_crystal_density_meas' value 'not_measured' was changed to '?'
- the value is perceived as not measured.

Automatic conversion script
Id: cif_fix_values 3008 2015-01-20 13:52:24Z robertas 
;
_cod_original_sg_symbol_H-M      P-1
_cod_database_code               4509088
loop_
_symmetry_equiv_pos_as_xyz
'x, y, z'
'-x, -y, -z'
loop_
_atom_site_label
_atom_site_type_symbol
_atom_site_fract_x
_atom_site_fract_y
_atom_site_fract_z
_atom_site_U_iso_or_equiv
_atom_site_adp_type
_atom_site_occupancy
_atom_site_symmetry_multiplicity
_atom_site_calc_flag
_atom_site_refinement_flags
Cu1 Cu 0.0000 0.0000 0.0000 0.0178(2) Uani 1 2 d S
Co1 Co 0.0000 -0.5000 0.5000 0.0143(2) Uani 1 2 d S
O1 O 0.2487(5) -0.2530(4) 0.6672(3) 0.0188(6) Uani 1 1 d .
O2 O -0.0319(5) -0.3329(4) 0.3596(3) 0.0183(6) Uani 1 1 d .
O3 O 0.0613(5) 0.0077(4) 0.2783(3) 0.0223(7) Uani 1 1 d .
O4 O 0.4290(5) 0.2836(4) 0.5475(4) 0.0233(7) Uani 1 1 d .
O5 O 0.5494(5) 0.1323(4) 0.7998(4) 0.0237(7) Uani 1 1 d .
O6 O 0.2050(5) -0.5533(4) 0.4038(4) 0.0202(6) Uani 1 1 d D
H6A H 0.256(9) -0.630(6) 0.446(6) 0.030 Uiso 1 1 d D
H6B H 0.311(7) -0.443(4) 0.415(7) 0.030 Uiso 1 1 d D
N1 N 0.0021(6) -0.2426(5) -0.0474(4) 0.0232(8) Uani 1 1 d .
H1A H 0.0061 -0.2777 -0.1458 0.028 Uiso 1 1 calc R
H1B H 0.1219 -0.2389 0.0265 0.028 Uiso 1 1 calc R
N2 N 0.3138(6) 0.1337(5) 0.0431(4) 0.0220(8) Uani 1 1 d .
H2A H 0.3956 0.0948 0.1100 0.026 Uiso 1 1 calc R
H2B H 0.3352 0.1134 -0.0501 0.026 Uiso 1 1 calc R
C1 C 0.2582(7) -0.1362(5) 0.6010(5) 0.0167(8) Uani 1 1 d .
C2 C 0.1101(6) -0.1783(5) 0.4399(5) 0.0154(8) Uani 1 1 d .
C3 C 0.1578(6) -0.0141(6) 0.4012(5) 0.0160(8) Uani 1 1 d .
C4 C 0.3435(6) 0.1260(5) 0.5394(5) 0.0161(8) Uani 1 1 d .
C5 C 0.4061(6) 0.0522(6) 0.6660(5) 0.0165(8) Uani 1 1 d .
C6 C -0.1957(8) -0.3707(6) -0.0426(5) 0.0272(10) Uani 1 1 d .
H6C H -0.1759 -0.3624 0.0683 0.033 Uiso 1 1 calc R
H6D H -0.2266 -0.4937 -0.1020 0.033 Uiso 1 1 calc R
C7 C 0.3795(7) 0.3256(6) 0.1163(6) 0.0250(10) Uani 1 1 d .
H7A H 0.5078 0.3954 0.0989 0.030 Uiso 1 1 calc R
H7B H 0.4167 0.3554 0.2319 0.030 Uiso 1 1 calc R
loop_
_atom_site_aniso_label
_atom_site_aniso_U_11
_atom_site_aniso_U_22
_atom_site_aniso_U_33
_atom_site_aniso_U_23
_atom_site_aniso_U_13
_atom_site_aniso_U_12
Cu1 0.0171(4) 0.0171(4) 0.0167(4) 0.0047(3) 0.0033(3) 0.0077(3)
Co1 0.0146(4) 0.0121(4) 0.0140(4) 0.0050(3) 0.0039(3) 0.0041(3)
O1 0.0203(15) 0.0172(14) 0.0148(13) 0.0053(11) 0.0014(11) 0.0079(12)
O2 0.0181(14) 0.0154(14) 0.0148(13) 0.0045(11) 0.0019(11) 0.0036(11)
O3 0.0270(16) 0.0251(16) 0.0154(14) 0.0101(12) 0.0065(12) 0.0112(13)
O4 0.0200(15) 0.0136(15) 0.0324(17) 0.0096(13) 0.0071(13) 0.0040(12)
O5 0.0194(15) 0.0208(16) 0.0206(15) 0.0046(12) -0.0012(12) 0.0056(12)
O6 0.0202(15) 0.0161(15) 0.0236(15) 0.0081(12) 0.0083(12) 0.0060(12)
N1 0.0247(19) 0.0214(19) 0.0178(17) 0.0032(14) 0.0006(14) 0.0117(16)
N2 0.0223(18) 0.028(2) 0.0152(17) 0.0069(15) 0.0058(14) 0.0108(16)
C1 0.0169(19) 0.0152(19) 0.0186(19) 0.0059(15) 0.0085(16) 0.0058(15)
C2 0.0142(18) 0.0159(19) 0.0173(19) 0.0061(15) 0.0079(15) 0.0059(15)
C3 0.0172(19) 0.020(2) 0.0154(18) 0.0089(16) 0.0085(15) 0.0093(16)
C4 0.0139(18) 0.0157(19) 0.0203(19) 0.0072(15) 0.0075(15) 0.0066(15)
C5 0.0133(18) 0.019(2) 0.0176(19) 0.0060(16) 0.0058(15) 0.0068(15)
C6 0.031(2) 0.021(2) 0.021(2) 0.0067(18) 0.0040(19) 0.0072(19)
C7 0.021(2) 0.021(2) 0.024(2) 0.0049(18) 0.0060(18) 0.0023(17)
loop_
_atom_type_symbol
_atom_type_description
_atom_type_scat_dispersion_real
_atom_type_scat_dispersion_imag
_atom_type_scat_source
C C 0.0033 0.0016 'International Tables Vol C Tables 4.2.6.8 and 6.1.1.4'
H H 0.0000 0.0000 'International Tables Vol C Tables 4.2.6.8 and 6.1.1.4'
N N 0.0061 0.0033 'International Tables Vol C Tables 4.2.6.8 and 6.1.1.4'
O O 0.0106 0.0060 'International Tables Vol C Tables 4.2.6.8 and 6.1.1.4'
Co Co 0.3494 0.9721 'International Tables Vol C Tables 4.2.6.8 and 6.1.1.4'
Cu Cu 0.3201 1.2651 'International Tables Vol C Tables 4.2.6.8 and 6.1.1.4'
loop_
_geom_angle_atom_site_label_1
_geom_angle_atom_site_label_2
_geom_angle_atom_site_label_3
_geom_angle
_geom_angle_site_symmetry_1
_geom_angle_site_symmetry_3
N1 Cu1 N1 180.0(2) . 2
N1 Cu1 N2 95.20(16) . .
N1 Cu1 N2 84.80(16) 2 .
N1 Cu1 N2 84.80(16) . 2
N1 Cu1 N2 95.20(16) 2 2
N2 Cu1 N2 180.000(1) . 2
O6 Co1 O6 180.000(1) . 2_546
O6 Co1 O1 87.75(12) . 2_546
O6 Co1 O1 92.25(12) 2_546 2_546
O6 Co1 O1 92.25(12) . .
O6 Co1 O1 87.75(12) 2_546 .
O1 Co1 O1 180.00(16) 2_546 .
O6 Co1 O2 91.42(12) . 2_546
O6 Co1 O2 88.58(12) 2_546 2_546
O1 Co1 O2 81.21(11) 2_546 2_546
O1 Co1 O2 98.79(11) . 2_546
O6 Co1 O2 88.58(12) . .
O6 Co1 O2 91.42(12) 2_546 .
O1 Co1 O2 98.79(11) 2_546 .
O1 Co1 O2 81.21(11) . .
O2 Co1 O2 180.00(18) 2_546 .
C1 O1 Co1 107.7(3) . .
C2 O2 Co1 107.7(3) . .
C6 N1 Cu1 108.6(3) . .
C7 N2 Cu1 109.1(3) . .
O1 C1 C2 121.7(4) . .
O1 C1 C5 128.2(4) . .
C2 C1 C5 110.1(4) . .
O2 C2 C1 121.6(4) . .
O2 C2 C3 130.2(4) . .
C1 C2 C3 108.1(3) . .
O3 C3 C2 128.0(4) . .
O3 C3 C4 125.6(4) . .
C2 C3 C4 106.4(3) . .
O4 C4 C3 124.1(4) . .
O4 C4 C5 125.8(4) . .
C3 C4 C5 110.0(3) . .
O5 C5 C1 127.0(4) . .
O5 C5 C4 127.7(4) . .
C1 C5 C4 105.3(3) . .
N1 C6 C7 108.1(4) . 2
N2 C7 C6 108.8(4) . 2
loop_
_geom_bond_atom_site_label_1
_geom_bond_atom_site_label_2
_geom_bond_distance
_geom_bond_site_symmetry_2
Cu1 N1 2.018(4) .
Cu1 N1 2.018(4) 2
Cu1 N2 2.018(4) .
Cu1 N2 2.018(4) 2
Co1 O6 2.051(3) .
Co1 O6 2.051(3) 2_546
Co1 O1 2.133(3) 2_546
Co1 O1 2.133(3) .
Co1 O2 2.142(3) 2_546
Co1 O2 2.142(3) .
O1 C1 1.263(5) .
O2 C2 1.255(5) .
O3 C3 1.244(5) .
O4 C4 1.243(5) .
O5 C5 1.235(5) .
N1 C6 1.485(6) .
N2 C7 1.475(6) .
C1 C2 1.460(6) .
C1 C5 1.461(6) .
C2 C3 1.463(6) .
C3 C4 1.474(6) .
C4 C5 1.476(6) .
C6 C7 1.510(7) 2
C7 C6 1.510(7) 2
