#------------------------------------------------------------------------------
#$Date: 2016-03-24 03:21:15 +0200 (Thu, 24 Mar 2016) $
#$Revision: 179626 $
#$URL: svn://www.crystallography.net/cod/cif/4/50/90/4509017.cif $
#------------------------------------------------------------------------------
#
# This file is available in the Crystallography Open Database (COD),
# http://www.crystallography.net/. The original data for this entry
# were provided the Crystal Eye server at
# http://wwmm.ch.cam.ac.uk/crystaleye/, created by Nick Day at the
# Peter Murray-Rust laboratory.
#
# The file may be used within the scientific community so long as
# proper attribution is given to the journal article from which the
# data were obtained.
#
data_4509017
loop_
_publ_author_name
'Yakovenko, Andrey A.'
'Gallegos, Jose H.'
'Antipin, Mikhail Yu.'
'Timofeeva, Tatiana V.'
_publ_section_title
;
 Preparation and Crystallography of
 1,2-Bis(chloromercurio)tetrafluorobenzene Adducts with Nitrobenzene and
 Nitrotoluenes
;
_journal_issue                   1
_journal_name_full               'Crystal Growth &amp; Design'
_journal_page_first              66
_journal_paper_doi               10.1021/cg8006603
_journal_volume                  9
_journal_year                    2009
_chemical_formula_moiety         'C6 Cl2 F4 Hg2, C6 H5 N O2'
_chemical_formula_sum            'C12 H5 Cl2 F4 Hg2 N O2'
_chemical_formula_weight         743.25
_chemical_name_systematic
; 
 ? 
;
_space_group_IT_number           4
_symmetry_cell_setting           monoclinic
_symmetry_space_group_name_Hall  'P 2yb'
_symmetry_space_group_name_H-M   'P 1 21 1'
_atom_sites_solution_hydrogens   geom
_atom_sites_solution_primary     direct
_atom_sites_solution_secondary   difmap
_audit_creation_method           SHELXL-97
_cell_angle_alpha                90.00
_cell_angle_beta                 99.976(8)
_cell_angle_gamma                90.00
_cell_formula_units_Z            2
_cell_length_a                   7.127(3)
_cell_length_b                   7.181(3)
_cell_length_c                   15.042(7)
_cell_measurement_reflns_used    3928
_cell_measurement_temperature    100(2)
_cell_measurement_theta_max      30.63
_cell_measurement_theta_min      2.74
_cell_volume                     758.2(6)
_computing_cell_refinement       'SAINT+ ver. 6.2 (Bruker, 2001)'
_computing_data_collection       'APEX2  (Bruker, 2005)'
_computing_data_reduction        'SAINT+ ver. 6.2 (Bruker, 2001)'
_computing_molecular_graphics    'SHELXTL ver. 6.12 (Sheldrick, 2001)'
_computing_publication_material  'SHELXTL ver. 6.12 (Sheldrick, 2001)'
_computing_structure_refinement  'SHELXTL ver. 6.12 (Sheldrick, 2001)'
_computing_structure_solution    'SHELXTL ver. 6.12 (Sheldrick, 2001)'
_diffrn_ambient_temperature      100(2)
_diffrn_measured_fraction_theta_full 0.995
_diffrn_measured_fraction_theta_max 0.995
_diffrn_measurement_device_type  'Bruker SMART APEX II CCD area detector'
_diffrn_measurement_method       'phi and omega scans'
_diffrn_radiation_monochromator  graphite
_diffrn_radiation_source         'fine-focus sealed tube'
_diffrn_radiation_type           MoK\a
_diffrn_radiation_wavelength     0.71073
_diffrn_reflns_av_R_equivalents  0.0397
_diffrn_reflns_av_sigmaI/netI    0.0593
_diffrn_reflns_limit_h_max       9
_diffrn_reflns_limit_h_min       -9
_diffrn_reflns_limit_k_max       9
_diffrn_reflns_limit_k_min       -9
_diffrn_reflns_limit_l_max       19
_diffrn_reflns_limit_l_min       -19
_diffrn_reflns_number            7397
_diffrn_reflns_theta_full        28.00
_diffrn_reflns_theta_max         28.00
_diffrn_reflns_theta_min         2.75
_exptl_absorpt_coefficient_mu    20.626
_exptl_absorpt_correction_T_max  0.448
_exptl_absorpt_correction_T_min  0.040
_exptl_absorpt_correction_type   multi-scan
_exptl_absorpt_process_details   'SADABS (Sheldrick, 2003)'
_exptl_crystal_colour            colorless
_exptl_crystal_density_diffrn    3.256
_exptl_crystal_density_meas      ?
_exptl_crystal_density_method    'not measured'
_exptl_crystal_description       plate
_exptl_crystal_F_000             660
_exptl_crystal_size_max          0.49
_exptl_crystal_size_mid          0.13
_exptl_crystal_size_min          0.04
_refine_diff_density_max         2.405
_refine_diff_density_min         -0.893
_refine_diff_density_rms         0.275
_refine_ls_abs_structure_details 'Flack H D (1983), Acta Cryst. A39, 876-881'
_refine_ls_abs_structure_Flack   -0.008(15)
_refine_ls_extinction_method     none
_refine_ls_goodness_of_fit_ref   0.999
_refine_ls_hydrogen_treatment    constr
_refine_ls_matrix_type           full
_refine_ls_number_parameters     208
_refine_ls_number_reflns         3576
_refine_ls_number_restraints     1
_refine_ls_restrained_S_all      0.999
_refine_ls_R_factor_all          0.0430
_refine_ls_R_factor_gt           0.0392
_refine_ls_shift/su_max          0.000
_refine_ls_shift/su_mean         0.000
_refine_ls_structure_factor_coef Fsqd
_refine_ls_weighting_details
'calc w=1/[\s^2^(Fo^2^)+(0.0300P)^2^+4.3000P] where P=(Fo^2^+2Fc^2^)/3'
_refine_ls_weighting_scheme      calc
_refine_ls_wR_factor_gt          0.0877
_refine_ls_wR_factor_ref         0.0898
_reflns_number_gt                3278
_reflns_number_total             3576
_reflns_threshold_expression     I>2\s(I)
_cod_data_source_file            cg8006603sup1.cif
_cod_data_source_block           hg2no
_cod_depositor_comments
;
The following automatic conversions were performed:

'_symmetry_cell_setting' value 'Monoclinic' changed to 'monoclinic'
according to /home/saulius/struct/CIF-dictionaries/cif_core.dic
dictionary named 'cif_core.dic' version 2.4.2 from 2011-04-26.

Automatic conversion script
Id: cif_fix_values 1891 2012-01-12 08:04:46Z andrius 

The following automatic conversions were performed:

'_exptl_crystal_density_meas' value 'not measured' was changed to '?'
- the value is perceived as not measured.

Automatic conversion script
Id: cif_fix_values 3008 2015-01-20 13:52:24Z robertas 
;
_cod_original_sg_symbol_H-M      'P 21'
_cod_database_code               4509017
loop_
_symmetry_equiv_pos_as_xyz
'x, y, z'
'-x, y+1/2, -z'
loop_
_atom_site_label
_atom_site_type_symbol
_atom_site_fract_x
_atom_site_fract_y
_atom_site_fract_z
_atom_site_U_iso_or_equiv
_atom_site_adp_type
_atom_site_occupancy
_atom_site_symmetry_multiplicity
_atom_site_calc_flag
_atom_site_refinement_flags
Hg1 Hg 0.33863(6) 0.70265(6) 0.37267(3) 0.03969(12) Uani 1 1 d .
Hg2 Hg 0.14352(7) 0.26169(7) 0.43769(3) 0.03982(12) Uani 1 1 d .
Cl1 Cl 0.4335(5) 0.9255(4) 0.4823(2) 0.0463(7) Uani 1 1 d .
Cl2 Cl 0.0681(4) 0.1974(5) 0.5778(2) 0.0456(6) Uani 1 1 d .
F3 F 0.0826(11) 0.0128(10) 0.2678(6) 0.0470(17) Uani 1 1 d .
F4 F 0.1046(12) 0.0735(11) 0.0936(6) 0.0527(19) Uani 1 1 d .
F5 F 0.2078(12) 0.4140(11) 0.0404(6) 0.0529(19) Uani 1 1 d .
F6 F 0.3033(11) 0.6879(12) 0.1609(5) 0.0491(17) Uani 1 1 d .
N1 N 0.6584(15) 1.0837(17) 0.2894(9) 0.047(3) Uani 1 1 d .
O1 O 0.5703(15) 0.9416(15) 0.2651(8) 0.059(3) Uani 1 1 d .
O2 O 0.7314(15) 1.1215(16) 0.3684(7) 0.056(2) Uani 1 1 d .
C1 C 0.2524(19) 0.495(2) 0.2809(9) 0.044(3) Uani 1 1 d .
C2 C 0.1926(18) 0.3183(18) 0.3093(9) 0.042(3) Uani 1 1 d .
C3 C 0.1443(19) 0.184(2) 0.2450(9) 0.045(3) Uani 1 1 d .
C4 C 0.1496(17) 0.2099(19) 0.1552(8) 0.040(2) Uani 1 1 d .
C5 C 0.2053(16) 0.3813(18) 0.1274(9) 0.039(3) Uani 1 1 d .
C6 C 0.2547(17) 0.5205(17) 0.1908(10) 0.043(3) Uani 1 1 d .
C7 C 0.6726(17) 1.224(2) 0.2186(10) 0.048(3) Uani 1 1 d .
C8 C 0.7212(19) 1.4060(19) 0.2461(10) 0.046(3) Uani 1 1 d .
H8A H 0.7427 1.4399 0.3081 0.056 Uiso 1 1 calc R
C9 C 0.7367(19) 1.534(2) 0.1800(12) 0.055(4) Uani 1 1 d .
H9A H 0.7652 1.6601 0.1963 0.066 Uiso 1 1 calc R
C10 C 0.712(2) 1.484(2) 0.0920(11) 0.053(3) Uani 1 1 d .
H10A H 0.7253 1.5754 0.0479 0.063 Uiso 1 1 calc R
C11 C 0.668(2) 1.304(2) 0.0650(11) 0.057(4) Uani 1 1 d .
H11A H 0.6534 1.2718 0.0029 0.068 Uiso 1 1 calc R
C12 C 0.6449(19) 1.170(2) 0.1283(11) 0.056(4) Uani 1 1 d .
H12A H 0.6113 1.0459 0.1107 0.067 Uiso 1 1 calc R
loop_
_atom_site_aniso_label
_atom_site_aniso_U_11
_atom_site_aniso_U_22
_atom_site_aniso_U_33
_atom_site_aniso_U_23
_atom_site_aniso_U_13
_atom_site_aniso_U_12
Hg1 0.0429(2) 0.0354(2) 0.0403(2) -0.00020(18) 0.00584(18) -0.00013(17)
Hg2 0.0431(2) 0.0385(2) 0.0384(2) 0.00133(18) 0.00846(18) -0.00056(18)
Cl1 0.0501(17) 0.0395(16) 0.0469(18) -0.0040(13) 0.0013(14) 0.0014(12)
Cl2 0.0485(15) 0.0499(14) 0.0388(14) 0.0030(14) 0.0092(12) -0.0022(14)
F3 0.050(4) 0.037(4) 0.055(5) -0.002(3) 0.013(4) -0.008(3)
F4 0.057(5) 0.046(4) 0.056(5) -0.005(4) 0.013(4) 0.000(4)
F5 0.068(5) 0.049(4) 0.042(5) -0.002(3) 0.009(4) -0.001(4)
F6 0.059(4) 0.045(4) 0.044(4) 0.008(3) 0.009(3) 0.000(4)
N1 0.036(5) 0.051(6) 0.055(7) -0.004(5) 0.010(5) -0.003(5)
O1 0.059(6) 0.052(6) 0.064(7) -0.008(5) 0.009(5) -0.016(5)
O2 0.055(6) 0.067(6) 0.048(6) 0.003(5) 0.012(5) -0.003(5)
C1 0.046(7) 0.050(7) 0.035(6) -0.004(5) 0.003(5) 0.002(5)
C2 0.036(6) 0.045(6) 0.044(7) -0.004(5) 0.005(5) 0.005(5)
C3 0.051(7) 0.039(6) 0.046(7) 0.012(6) 0.009(5) 0.008(6)
C4 0.044(6) 0.041(6) 0.035(6) -0.002(5) 0.009(5) 0.004(5)
C5 0.028(5) 0.047(7) 0.040(7) -0.001(5) 0.006(5) 0.006(5)
C6 0.037(6) 0.036(6) 0.054(8) 0.003(5) 0.005(6) -0.007(5)
C7 0.035(5) 0.054(9) 0.056(8) 0.006(6) 0.012(5) 0.009(6)
C8 0.043(7) 0.043(7) 0.053(8) -0.010(6) 0.007(6) 0.003(5)
C9 0.038(7) 0.043(7) 0.085(12) 0.003(7) 0.015(7) 0.004(5)
C10 0.050(8) 0.057(8) 0.056(9) -0.003(6) 0.022(7) 0.005(7)
C11 0.051(8) 0.076(12) 0.045(8) 0.002(7) 0.013(6) 0.008(7)
C12 0.041(7) 0.064(10) 0.058(9) -0.012(7) 0.000(6) 0.006(6)
loop_
_atom_type_symbol
_atom_type_description
_atom_type_scat_dispersion_real
_atom_type_scat_dispersion_imag
_atom_type_scat_source
C C 0.0033 0.0016 'International Tables Vol C Tables 4.2.6.8 and 6.1.1.4'
H H 0.0000 0.0000 'International Tables Vol C Tables 4.2.6.8 and 6.1.1.4'
N N 0.0061 0.0033 'International Tables Vol C Tables 4.2.6.8 and 6.1.1.4'
O O 0.0106 0.0060 'International Tables Vol C Tables 4.2.6.8 and 6.1.1.4'
F F 0.0171 0.0103 'International Tables Vol C Tables 4.2.6.8 and 6.1.1.4'
Cl Cl 0.1484 0.1585 'International Tables Vol C Tables 4.2.6.8 and 6.1.1.4'
Hg Hg -2.3894 9.2266 'International Tables Vol C Tables 4.2.6.8 and 6.1.1.4'
loop_
_geom_angle_atom_site_label_1
_geom_angle_atom_site_label_2
_geom_angle_atom_site_label_3
_geom_angle
C1 Hg1 Cl1 176.9(4)
C2 Hg2 Cl2 176.4(4)
O1 N1 O2 125.3(13)
O1 N1 C7 116.6(12)
O2 N1 C7 118.1(12)
C6 C1 C2 118.1(12)
C6 C1 Hg1 120.9(10)
C2 C1 Hg1 121.0(10)
C3 C2 C1 117.8(12)
C3 C2 Hg2 117.5(10)
C1 C2 Hg2 124.3(9)
C2 C3 C4 123.9(13)
C2 C3 F3 120.6(12)
C4 C3 F3 115.5(13)
F4 C4 C3 122.5(12)
F4 C4 C5 119.1(11)
C3 C4 C5 118.4(12)
F5 C5 C4 120.5(11)
F5 C5 C6 120.3(12)
C4 C5 C6 119.2(12)
F6 C6 C1 119.8(12)
F6 C6 C5 117.6(12)
C1 C6 C5 122.6(12)
C12 C7 C8 122.2(14)
C12 C7 N1 119.9(14)
C8 C7 N1 117.9(13)
C9 C8 C7 117.4(14)
C9 C8 H8A 121.3
C7 C8 H8A 121.3
C10 C9 C8 121.1(14)
C10 C9 H9A 119.4
C8 C9 H9A 119.4
C9 C10 C11 121.6(15)
C9 C10 H10A 119.2
C11 C10 H10A 119.2
C10 C11 C12 119.9(15)
C10 C11 H11A 120.1
C12 C11 H11A 120.1
C11 C12 C7 117.8(15)
C11 C12 H12A 121.1
C7 C12 H12A 121.1
loop_
_geom_bond_atom_site_label_1
_geom_bond_atom_site_label_2
_geom_bond_distance
Hg1 C1 2.054(14)
Hg1 Cl1 2.313(3)
Hg2 C2 2.063(14)
Hg2 Cl2 2.310(3)
F3 C3 1.372(16)
F4 C4 1.348(15)
F5 C5 1.333(15)
F6 C6 1.349(15)
N1 O1 1.221(15)
N1 O2 1.241(16)
N1 C7 1.481(19)
C1 C6 1.37(2)
C1 C2 1.43(2)
C2 C3 1.364(19)
C3 C4 1.371(17)
C4 C5 1.380(19)
C5 C6 1.384(18)
C7 C12 1.39(2)
C7 C8 1.40(2)
C8 C9 1.37(2)
C8 H8A 0.9500
C9 C10 1.35(2)
C9 H9A 0.9500
C10 C11 1.37(2)
C10 H10A 0.9500
C11 C12 1.38(2)
C11 H11A 0.9500
C12 H12A 0.9500
loop_
_geom_torsion_atom_site_label_1
_geom_torsion_atom_site_label_2
_geom_torsion_atom_site_label_3
_geom_torsion_atom_site_label_4
_geom_torsion
C6 C1 C2 C3 1.1(19)
Hg1 C1 C2 C3 -177.5(10)
C6 C1 C2 Hg2 -171.2(10)
Hg1 C1 C2 Hg2 10.1(15)
Hg2 C2 C3 C4 172.7(10)
C1 C2 C3 F3 -178.9(11)
Hg2 C2 C3 F3 -6.0(17)
C2 C3 C4 F4 178.6(12)
F3 C3 C4 F4 -2.5(18)
F3 C3 C4 C5 178.2(10)
F4 C4 C5 F5 2.4(17)
C3 C4 C5 F5 -178.3(11)
F4 C4 C5 C6 -178.9(11)
C3 C4 C5 C6 0.4(18)
C2 C1 C6 F6 177.4(11)
Hg1 C1 C6 F6 -3.9(17)
Hg1 C1 C6 C5 177.3(9)
F5 C5 C6 F6 0.4(17)
C4 C5 C6 F6 -178.2(10)
F5 C5 C6 C1 179.3(12)
C4 C5 C6 C1 0.6(19)
O1 N1 C7 C12 -20.7(17)
O2 N1 C7 C12 161.2(12)
O1 N1 C7 C8 161.7(12)
O2 N1 C7 C8 -16.3(17)
C12 C7 C8 C9 1.6(19)
N1 C7 C8 C9 179.1(11)
C8 C7 C12 C11 0.3(19)
N1 C7 C12 C11 -177.2(13)
