#------------------------------------------------------------------------------
#$Date: 2016-03-24 14:08:23 +0200 (Thu, 24 Mar 2016) $
#$Revision: 179653 $
#$URL: svn://www.crystallography.net/cod/cif/4/51/06/4510699.cif $
#------------------------------------------------------------------------------
#
# This file is available in the Crystallography Open Database (COD),
# http://www.crystallography.net/
#
# All data on this site have been placed in the public domain by the
# contributors.
#
data_4510699
loop_
_publ_author_name
'Olejniczak, Anna'
'Anio\/la, Michalina'
'Szafra\'nski, Marek'
'Budzianowski, Armand'
'Katrusiak, Andrzej'
_publ_section_title
;
 New Polar Phases of 1,4-Diazabicyclo[2.2.2]octane Perchlorate, An
 NH+&#x00B7;&#x00B7;&#x00B7;N Hydrogen-Bonded Ferroelectric
;
_journal_issue                   7
_journal_name_full               'Crystal Growth &amp; Design'
_journal_page_first              2872
_journal_paper_doi               10.1021/cg400276c
_journal_volume                  13
_journal_year                    2013
_chemical_formula_moiety         'C6 H13 N2, Cl O4'
_chemical_formula_sum            'C6 H13 Cl N2 O4'
_chemical_formula_weight         212.63
_chemical_name_common
;
dabcoHClO4
;
_chemical_name_systematic
; 
1,4-diazabicyclo[2.2.2]octane perchlorate
;
_space_group_IT_number           31
_symmetry_cell_setting           orthorhombic
_symmetry_space_group_name_Hall  'P -2ab -2'
_symmetry_space_group_name_H-M   'P m 21 n'
_atom_sites_solution_hydrogens   geom
_atom_sites_solution_primary     direct
_atom_sites_solution_secondary   difmap
_audit_creation_method           SHELXL-97
_cell_angle_alpha                90.00
_cell_angle_beta                 90.00
_cell_angle_gamma                90.00
_cell_formula_units_Z            2
_cell_length_a                   8.7830(9)
_cell_length_b                   9.7595(12)
_cell_length_c                   5.3416(6)
_cell_measurement_reflns_used    2091
_cell_measurement_temperature    225(2)
_cell_measurement_theta_max      29.11
_cell_measurement_theta_min      3.81
_cell_volume                     457.87(9)
_computing_cell_refinement       'CrysAlis (Oxford Diffraction, 2002)'
_computing_data_collection       'CrysAlis (Oxford Diffraction, 2002)'
_computing_data_reduction        'CrysAlis (Oxford Diffraction, 2002)'
_computing_molecular_graphics
;X-Seed (Barbour, 2001) 
and POV-Ray (Persistence of Vision, 2004)
;
_computing_publication_material  'SHELXL-97 (Sheldrick, 1997)'
_computing_structure_refinement  'SHELXL-97 (Sheldrick, 1997)'
_computing_structure_solution    'SHELXS-97 (Sheldrick, 1997)'
_diffrn_ambient_temperature      225(2)
_diffrn_measured_fraction_theta_full 0.945
_diffrn_measured_fraction_theta_max 0.945
_diffrn_radiation_monochromator  graphite
_diffrn_radiation_source         'fine-focus sealed tube'
_diffrn_radiation_type           MoK\a
_diffrn_radiation_wavelength     0.71073
_diffrn_reflns_av_R_equivalents  0.0282
_diffrn_reflns_av_sigmaI/netI    0.0196
_diffrn_reflns_limit_h_max       11
_diffrn_reflns_limit_h_min       -11
_diffrn_reflns_limit_k_max       13
_diffrn_reflns_limit_k_min       -9
_diffrn_reflns_limit_l_max       7
_diffrn_reflns_limit_l_min       -5
_diffrn_reflns_number            2091
_diffrn_reflns_theta_full        29.11
_diffrn_reflns_theta_max         29.11
_diffrn_reflns_theta_min         3.81
_exptl_absorpt_coefficient_mu    0.404
_exptl_absorpt_correction_T_max  0.95
_exptl_absorpt_correction_T_min  0.90
_exptl_absorpt_correction_type   numerical
_exptl_absorpt_process_details
; 
Correction for absorption was made using XEMP (SHELXTL, 
Sheldrick (1990)).
;
_exptl_crystal_colour            colourless
_exptl_crystal_density_diffrn    1.542
_exptl_crystal_density_method    'not measured'
_exptl_crystal_description       plate
_exptl_crystal_F_000             224
_exptl_crystal_size_max          0.40
_exptl_crystal_size_mid          0.20
_exptl_crystal_size_min          0.15
_refine_diff_density_max         0.413
_refine_diff_density_min         -0.246
_refine_diff_density_rms         0.056
_refine_ls_abs_structure_details 'Flack H D (1983), Acta Cryst. A39, 876-881'
_refine_ls_abs_structure_Flack   0.11(11)
_refine_ls_extinction_coef       0.037(6)
_refine_ls_extinction_expression Fc^*^=kFc[1+0.001xFc^2^\l^3^/sin(2\q)]^-1/4^
_refine_ls_extinction_method     SHELXL
_refine_ls_goodness_of_fit_ref   1.079
_refine_ls_hydrogen_treatment    constr
_refine_ls_matrix_type           full
_refine_ls_number_parameters     71
_refine_ls_number_reflns         1004
_refine_ls_number_restraints     1
_refine_ls_restrained_S_all      1.078
_refine_ls_R_factor_all          0.0339
_refine_ls_R_factor_gt           0.0326
_refine_ls_shift/su_max          0.000
_refine_ls_shift/su_mean         0.000
_refine_ls_structure_factor_coef Fsqd
_refine_ls_weighting_details
'calc w=1/[\s^2^(Fo^2^)+(0.0488P)^2^+0.1302P] where P=(Fo^2^+2Fc^2^)/3'
_refine_ls_weighting_scheme      calc
_refine_ls_wR_factor_gt          0.0866
_refine_ls_wR_factor_ref         0.0881
_reflns_number_gt                964
_reflns_number_total             1004
_reflns_threshold_expression     >2sigma(I)
_cod_data_source_file            cg400276c_si_002.cif
_cod_data_source_block           dabcoHClO4_II_225K
_cod_original_sg_symbol_H-M      Pm21n
_cod_database_code               4510699
loop_
_symmetry_equiv_pos_as_xyz
'x, y, z'
'-x+1/2, y+1/2, -z'
'x+1/2, y+1/2, -z'
'-x, y, z'
loop_
_atom_site_label
_atom_site_type_symbol
_atom_site_fract_x
_atom_site_fract_y
_atom_site_fract_z
_atom_site_U_iso_or_equiv
_atom_site_adp_type
_atom_site_occupancy
_atom_site_symmetry_multiplicity
_atom_site_calc_flag
_atom_site_refinement_flags
Cl Cl 0.0000 -0.01749(10) -0.06971(11) 0.0318(2) Uani 1 2 d S
O1 O 0.0000 -0.0190(8) -0.3371(4) 0.0695(8) Uani 1 2 d S
O2 O 0.1332(2) -0.0874(3) 0.0175(4) 0.0528(6) Uani 1 1 d .
O3 O 0.0000 0.1196(3) 0.0204(7) 0.0640(9) Uani 1 2 d S
N2 N 0.0000 0.5490(4) 0.2796(5) 0.0341(6) Uani 1 2 d S
N1 N 0.0000 0.5479(4) 0.7517(5) 0.0373(7) Uani 1 2 d S
H1 H 0.0000 0.5485 0.9220 0.045 Uiso 1 2 calc SR
C2 C 0.0000 0.4098(5) 0.3708(8) 0.0769(19) Uani 1 2 d S
H2A H 0.0893 0.3625 0.3077 0.092 Uiso 0.50 1 calc PR
H2B H -0.0893 0.3625 0.3077 0.092 Uiso 0.50 1 calc PR
C1 C 0.0000 0.4041(5) 0.6621(7) 0.0485(11) Uani 1 2 d S
H1A H -0.0897 0.3564 0.7223 0.058 Uiso 0.50 1 calc PR
H1B H 0.0897 0.3564 0.7223 0.058 Uiso 0.50 1 calc PR
C4 C 0.1341(3) 0.6205(4) 0.3771(5) 0.0570(9) Uani 1 1 d .
H4A H 0.1334 0.7144 0.3174 0.068 Uiso 1 1 calc R
H4B H 0.2252 0.5766 0.3130 0.068 Uiso 1 1 calc R
C3 C 0.1393(3) 0.6206(3) 0.6588(5) 0.0426(6) Uani 1 1 d .
H3A H 0.2302 0.5740 0.7169 0.051 Uiso 1 1 calc R
H3B H 0.1411 0.7139 0.7212 0.051 Uiso 1 1 calc R
loop_
_atom_site_aniso_label
_atom_site_aniso_U_11
_atom_site_aniso_U_22
_atom_site_aniso_U_33
_atom_site_aniso_U_23
_atom_site_aniso_U_13
_atom_site_aniso_U_12
Cl 0.0331(3) 0.0336(3) 0.0287(3) 0.0008(4) 0.000 0.000
O1 0.0608(13) 0.121(3) 0.0265(10) 0.008(3) 0.000 0.000
O2 0.0477(10) 0.0581(14) 0.0528(10) -0.0046(10) -0.0144(8) 0.0193(9)
O3 0.072(2) 0.0316(15) 0.088(2) -0.0087(15) 0.000 0.000
N2 0.0460(14) 0.0418(17) 0.0145(11) -0.0008(13) 0.000 0.000
N1 0.0642(17) 0.0357(16) 0.0121(10) -0.0008(12) 0.000 0.000
C2 0.172(6) 0.031(2) 0.0276(18) -0.007(2) 0.000 0.000
C1 0.087(3) 0.0291(19) 0.0289(17) 0.0049(18) 0.000 0.000
C4 0.0353(12) 0.097(3) 0.0384(13) 0.0003(15) 0.0112(10) -0.0170(13)
C3 0.0402(11) 0.0485(15) 0.0390(12) -0.0048(11) -0.0142(9) 0.0016(10)
loop_
_atom_type_symbol
_atom_type_description
_atom_type_scat_dispersion_real
_atom_type_scat_dispersion_imag
_atom_type_scat_source
C C 0.0033 0.0016 'International Tables Vol C Tables 4.2.6.8 and 6.1.1.4'
H H 0.0000 0.0000 'International Tables Vol C Tables 4.2.6.8 and 6.1.1.4'
N N 0.0061 0.0033 'International Tables Vol C Tables 4.2.6.8 and 6.1.1.4'
I I -0.4742 1.8119 'International Tables Vol C Tables 4.2.6.8 and 6.1.1.4'
loop_
_geom_angle_atom_site_label_1
_geom_angle_atom_site_label_2
_geom_angle_atom_site_label_3
_geom_angle
_geom_angle_site_symmetry_1
_geom_angle_site_symmetry_3
O3 Cl O1 110.4(4) . .
O3 Cl O2 109.75(13) . 4
O1 Cl O2 108.68(18) . 4
O3 Cl O2 109.75(13) . .
O1 Cl O2 108.68(18) . .
O2 Cl O2 109.5(2) 4 .
C2 N2 C4 109.2(2) . .
C2 N2 C4 109.2(2) . 4
C4 N2 C4 107.1(3) . 4
C1 N1 C3 109.95(19) . .
C1 N1 C3 109.95(19) . 4
C3 N1 C3 109.4(3) . 4
C1 N1 H1 109.2 . .
C3 N1 H1 109.2 . .
C3 N1 H1 109.2 4 .
N2 C2 C1 111.7(4) . .
N2 C2 H2A 109.3 . .
C1 C2 H2A 109.3 . .
N2 C2 H2B 109.3 . .
C1 C2 H2B 109.3 . .
H2A C2 H2B 107.9 . .
N1 C1 C2 106.8(4) . .
N1 C1 H1A 110.4 . .
C2 C1 H1A 110.4 . .
N1 C1 H1B 110.4 . .
C2 C1 H1B 110.4 . .
H1A C1 H1B 108.6 . .
N2 C4 C3 112.3(2) . .
N2 C4 H4A 109.1 . .
C3 C4 H4A 109.1 . .
N2 C4 H4B 109.1 . .
C3 C4 H4B 109.1 . .
H4A C4 H4B 107.9 . .
N1 C3 C4 107.8(2) . .
N1 C3 H3A 110.1 . .
C4 C3 H3A 110.1 . .
N1 C3 H3B 110.1 . .
C4 C3 H3B 110.1 . .
H3A C3 H3B 108.5 . .
loop_
_geom_bond_atom_site_label_1
_geom_bond_atom_site_label_2
_geom_bond_distance
_geom_bond_site_symmetry_2
Cl O3 1.422(3) .
Cl O1 1.428(2) .
Cl O2 1.4318(19) 4
Cl O2 1.4318(19) .
N2 C2 1.444(5) .
N2 C4 1.465(3) .
N2 C4 1.465(3) 4
N1 C1 1.483(5) .
N1 C3 1.499(3) .
N1 C3 1.499(3) 4
N1 H1 0.9100 .
C2 C1 1.557(5) .
C2 H2A 0.9700 .
C2 H2B 0.9700 .
C1 H1A 0.9700 .
C1 H1B 0.9700 .
C4 C3 1.506(3) .
C4 H4A 0.9700 .
C4 H4B 0.9700 .
C3 H3A 0.9700 .
C3 H3B 0.9700 .
loop_
_geom_torsion_atom_site_label_1
_geom_torsion_atom_site_label_2
_geom_torsion_atom_site_label_3
_geom_torsion_atom_site_label_4
_geom_torsion
_geom_torsion_site_symmetry_1
C4 N2 C2 C1 58.37(16) .
C4 N2 C2 C1 -58.37(16) 4
C3 N1 C1 C2 -60.27(15) .
C3 N1 C1 C2 60.27(15) 4
N2 C2 C1 N1 0.000(1) .
C2 N2 C4 C3 -58.1(3) .
C4 N2 C4 C3 59.9(4) 4
C1 N1 C3 C4 61.5(3) .
C3 N1 C3 C4 -59.4(4) 4
N2 C4 C3 N1 -1.1(4) .
loop_
_refln_index_h
_refln_index_k
_refln_index_l
_refln_F_squared_calc
_refln_F_squared_meas
_refln_F_squared_sigma
_refln_observed_status
4 -6 0 138.16 150.86 2.22 o
6 -6 0 63.45 68.38 1.94 o
3 -5 0 766.55 822.30 4.02 o
9 -5 0 40.11 37.29 1.81 o
2 -4 0 245.44 219.40 1.78 o
4 -4 0 943.33 1011.19 4.71 o
6 -4 0 60.98 55.64 1.71 o
8 -4 0 16.10 15.59 1.20 o
10 -4 0 53.33 56.85 2.34 o
1 -3 0 1838.64 1786.01 3.94 o
3 -3 0 423.96 493.79 2.87 o
5 -3 0 42.16 48.81 1.35 o
7 -3 0 384.49 412.62 4.27 o
9 -3 0 50.39 53.70 2.11 o
11 -3 0 6.48 5.78 1.33 o
2 -2 0 2982.45 3018.79 5.71 o
4 -2 0 1171.96 1144.85 4.97 o
8 -2 0 232.48 249.87 3.93 o
10 -2 0 50.92 47.97 2.12 o
3 -1 0 1415.36 1445.26 4.70 o
5 -1 0 194.78 188.00 2.42 o
7 -1 0 175.94 164.94 3.06 o
9 -1 0 47.25 53.34 2.15 o
11 -1 0 36.45 39.29 2.26 o
2 0 0 7073.05 7802.49 19.09 o
4 0 0 306.29 318.03 2.70 o
6 0 0 1446.42 1511.21 7.12 o
8 0 0 809.10 829.56 6.69 o
10 0 0 27.85 25.71 2.03 o
3 1 0 1453.55 1473.11 24.32 o
5 1 0 203.61 201.06 2.69 o
7 1 0 168.25 159.86 6.94 o
9 1 0 46.37 51.20 2.31 o
11 1 0 37.88 41.29 2.45 o
0 2 0 7131.06 6439.01 16.21 o
2 2 0 2985.39 3071.88 8.32 o
4 2 0 1177.31 1136.27 25.83 o
6 2 0 625.46 693.13 7.85 o
8 2 0 236.76 250.88 3.88 o
10 2 0 50.39 46.24 2.30 o
1 3 0 1820.80 1634.65 4.60 o
3 3 0 445.13 513.66 11.73 o
5 3 0 45.35 50.76 1.04 o
7 3 0 377.50 399.58 4.48 o
9 3 0 49.17 55.62 2.48 o
11 3 0 7.48 8.56 1.52 o
0 4 0 677.77 693.12 3.51 o
2 4 0 247.72 225.34 1.34 o
4 4 0 960.65 1043.04 22.54 o
6 4 0 60.17 57.25 2.29 o
8 4 0 13.98 12.00 1.23 o
10 4 0 54.39 61.70 2.65 o
1 5 0 1083.07 1064.53 4.91 o
3 5 0 756.78 740.36 4.28 o
5 5 0 462.69 443.36 6.32 o
7 5 0 140.81 138.52 1.97 o
9 5 0 39.37 38.83 2.12 o
0 6 0 229.61 239.38 2.74 o
2 6 0 59.94 37.45 1.28 o
4 6 0 144.95 145.61 2.44 o
6 6 0 60.39 66.29 2.20 o
8 6 0 28.87 34.13 1.96 o
10 6 0 22.01 26.57 2.01 o
1 7 0 482.60 472.75 9.12 o
3 7 0 1338.25 1415.72 7.13 o
5 7 0 551.79 590.92 24.53 o
7 7 0 34.12 30.89 1.74 o
9 7 0 41.73 42.51 2.18 o
0 8 0 114.81 127.18 2.64 o
2 8 0 48.74 45.05 1.33 o
4 8 0 27.25 36.71 1.78 o
6 8 0 27.75 27.65 1.78 o
8 8 0 24.91 24.68 2.08 o
1 9 0 168.60 178.41 2.28 o
3 9 0 262.46 253.48 4.03 o
5 9 0 106.98 105.68 2.58 o
0 10 0 53.32 36.94 2.00 o
2 10 0 26.38 26.69 1.19 o
4 10 0 51.91 55.25 1.52 o
1 11 0 30.88 29.68 1.32 o
3 11 0 3.67 5.97 0.83 o
5 11 0 3.25 5.32 1.34 o
0 12 0 45.53 68.35 2.56 o
2 12 0 45.37 50.85 3.11 o
4 12 0 29.34 20.43 2.02 o
1 13 0 3.40 1.76 0.67 o
4 -7 1 40.14 40.94 1.49 o
6 -7 1 10.90 9.31 1.05 o
7 -7 1 35.95 36.72 1.65 o
8 -7 1 7.69 7.31 1.10 o
3 -6 1 27.39 29.88 1.20 o
4 -6 1 449.61 479.53 4.17 o
5 -6 1 20.19 19.16 1.33 o
6 -6 1 70.13 73.56 2.19 o
7 -6 1 18.34 17.57 1.40 o
8 -6 1 8.57 7.98 1.34 o
9 -6 1 4.78 4.80 1.14 o
10 -6 1 23.09 21.95 1.79 o
3 -5 1 192.96 192.63 1.33 o
4 -5 1 61.69 65.80 1.11 o
5 -5 1 88.70 91.54 1.30 o
8 -5 1 21.29 20.38 1.49 o
9 -5 1 13.53 15.58 1.48 o
10 -5 1 7.19 6.56 1.24 o
2 -4 1 48.87 47.30 0.61 o
3 -4 1 162.76 168.28 1.58 o
4 -4 1 67.34 68.25 0.99 o
5 -4 1 68.52 67.52 1.10 o
6 -4 1 96.40 98.29 1.48 o
7 -4 1 22.46 22.37 1.14 o
8 -4 1 50.92 52.95 1.48 o
9 -4 1 13.66 11.82 1.27 o
10 -4 1 3.54 3.39 0.68 o
11 -4 1 4.93 4.92 0.88 o
2 -3 1 248.06 261.74 3.25 o
3 -3 1 206.87 194.85 2.47 o
4 -3 1 117.06 112.43 1.25 o
5 -3 1 116.62 119.84 1.39 o
6 -3 1 73.49 73.44 1.33 o
7 -3 1 17.99 17.54 1.13 o
8 -3 1 21.93 25.82 1.13 o
9 -3 1 18.59 19.97 2.12 o
10 -3 1 5.86 5.42 0.66 o
11 -3 1 21.28 19.54 1.03 o
1 -2 1 411.16 381.51 2.26 o
2 -2 1 529.40 528.94 4.62 o
3 -2 1 354.40 351.34 2.68 o
4 -2 1 832.00 908.01 4.59 o
5 -2 1 123.29 127.30 2.27 o
6 -2 1 107.89 108.59 1.60 o
7 -2 1 34.36 32.24 1.12 o
8 -2 1 108.97 116.21 1.99 o
9 -2 1 17.42 16.64 0.86 o
10 -2 1 21.00 19.78 0.98 o
11 -2 1 6.08 4.69 1.27 o
1 -1 1 4152.42 4153.71 78.13 o
2 -1 1 341.18 349.86 10.26 o
3 -1 1 11.20 7.67 0.39 o
4 -1 1 203.93 218.91 1.66 o
5 -1 1 103.19 102.15 1.37 o
6 -1 1 59.37 63.19 2.35 o
7 -1 1 385.11 411.00 3.24 o
8 -1 1 19.56 19.27 1.54 o
9 -1 1 59.55 58.83 1.29 o
10 -1 1 11.90 10.73 0.81 o
11 -1 1 2.63 2.08 0.49 o
0 0 1 314.74 328.36 1.61 o
1 0 1 583.00 553.08 1.86 o
2 0 1 449.54 401.23 4.22 o
3 0 1 304.06 294.15 1.64 o
4 0 1 154.44 137.38 2.96 o
5 0 1 175.51 153.57 1.63 o
6 0 1 106.85 107.36 2.54 o
7 0 1 51.51 57.84 1.74 o
8 0 1 63.79 63.80 1.95 o
9 0 1 8.51 9.01 1.00 o
10 0 1 36.97 39.27 1.25 o
11 0 1 5.05 4.82 0.85 o
0 1 1 266.81 270.84 9.12 o
1 1 1 4162.20 4190.38 87.21 o
2 1 1 341.82 344.88 7.37 o
3 1 1 10.22 6.75 0.36 o
4 1 1 203.92 217.47 4.27 o
5 1 1 105.54 104.08 1.36 o
6 1 1 58.97 62.65 1.04 o
7 1 1 387.75 411.02 3.90 o
8 1 1 19.74 19.71 0.85 o
9 1 1 59.66 58.14 2.05 o
10 1 1 12.09 9.35 1.05 o
11 1 1 2.32 1.62 0.67 o
0 2 1 1255.30 1109.68 55.11 o
1 2 1 411.43 360.74 14.03 o
2 2 1 551.09 540.07 10.85 o
3 2 1 352.10 346.65 6.40 o
4 2 1 857.69 940.45 19.54 o
5 2 1 122.47 124.49 1.76 o
6 2 1 107.35 102.68 1.07 o
7 2 1 34.32 33.97 0.94 o
8 2 1 106.12 110.00 1.54 o
9 2 1 17.19 14.70 1.06 o
10 2 1 22.42 22.12 1.73 o
11 2 1 5.97 5.09 0.94 o
0 3 1 459.79 429.29 19.78 o
1 3 1 118.80 106.23 3.38 o
2 3 1 248.22 251.34 6.43 o
3 3 1 211.93 195.79 4.68 o
4 3 1 116.94 113.84 2.61 o
5 3 1 120.18 123.97 2.07 o
6 3 1 73.75 73.22 1.11 o
7 3 1 16.93 17.39 0.61 o
8 3 1 22.20 23.41 1.46 o
9 3 1 18.16 16.99 1.51 o
10 3 1 5.99 5.39 0.80 o
11 3 1 21.41 22.72 2.56 o
0 4 1 389.05 349.23 2.78 o
1 4 1 173.57 164.41 4.48 o
2 4 1 53.02 48.67 0.96 o
3 4 1 162.61 163.09 3.36 o
4 4 1 73.69 74.86 1.28 o
5 4 1 67.69 66.39 1.34 o
6 4 1 95.61 98.06 2.45 o
7 4 1 22.12 21.27 0.84 o
8 4 1 49.99 51.29 1.41 o
9 4 1 13.73 12.24 1.03 o
10 4 1 3.80 3.02 0.87 o
0 5 1 226.98 214.10 2.50 o
1 5 1 409.45 430.65 11.41 o
2 5 1 138.35 123.72 2.66 o
3 5 1 197.61 192.44 4.18 o
4 5 1 61.26 64.49 1.67 o
5 5 1 88.75 88.32 3.56 o
6 5 1 34.34 38.66 0.99 o
7 5 1 70.77 67.65 1.29 o
8 5 1 21.54 19.20 0.88 o
9 5 1 13.13 14.76 0.88 o
10 5 1 7.14 7.21 1.01 o
0 6 1 67.73 60.50 1.52 o
1 6 1 76.39 68.53 1.13 o
2 6 1 301.26 304.74 6.83 o
3 6 1 28.11 31.06 0.68 o
4 6 1 447.12 446.83 4.79 o
5 6 1 20.35 19.70 0.93 o
6 6 1 69.36 70.00 1.24 o
7 6 1 18.20 18.38 0.89 o
8 6 1 8.59 6.49 0.62 o
9 6 1 4.78 3.12 0.56 o
10 6 1 22.81 20.43 1.38 o
0 7 1 32.49 37.86 1.06 o
1 7 1 75.55 73.52 1.11 o
2 7 1 47.53 45.91 0.93 o
3 7 1 118.30 111.60 1.34 o
4 7 1 39.92 40.00 1.04 o
5 7 1 79.96 75.83 1.46 o
6 7 1 10.81 10.12 0.85 o
7 7 1 35.36 37.58 1.09 o
8 7 1 7.74 6.70 0.77 o
9 7 1 14.89 15.18 1.19 o
10 7 1 4.98 4.37 1.20 o
0 8 1 41.48 39.05 1.29 o
1 8 1 34.82 35.55 0.82 o
2 8 1 203.78 203.44 1.85 o
3 8 1 6.36 6.45 0.59 o
4 8 1 253.74 262.97 2.76 o
5 8 1 6.54 5.50 1.16 o
6 8 1 30.01 31.54 1.51 o
7 8 1 11.30 11.91 1.06 o
8 8 1 8.61 7.92 0.88 o
9 8 1 4.10 3.69 1.26 o
0 9 1 22.54 20.37 1.18 o
1 9 1 96.67 103.79 1.27 o
2 9 1 13.83 13.25 0.62 o
3 9 1 63.16 68.52 1.67 o
4 9 1 11.55 12.79 1.05 o
5 9 1 32.36 37.17 1.38 o
6 9 1 10.05 11.49 1.03 o
7 9 1 21.90 21.30 2.18 o
8 9 1 4.23 4.46 1.26 o
0 10 1 28.96 32.61 1.56 o
1 10 1 9.22 8.99 0.59 o
2 10 1 23.97 20.89 0.78 o
3 10 1 16.61 16.76 0.89 o
4 10 1 13.02 12.05 1.00 o
5 10 1 7.52 7.41 0.93 o
6 10 1 9.44 10.12 1.96 o
7 10 1 2.66 1.17 0.99 o
0 11 1 12.82 14.82 1.07 o
1 11 1 19.09 19.39 0.78 o
2 11 1 4.70 3.93 0.86 o
3 11 1 26.90 24.76 1.07 o
4 11 1 1.40 1.66 0.65 o
5 11 1 9.42 7.76 1.05 o
6 11 1 4.27 3.45 1.05 o
0 12 1 10.97 8.35 1.02 o
1 12 1 5.57 4.31 0.71 o
2 12 1 8.05 8.15 0.82 o
3 12 1 8.44 7.38 0.84 o
4 12 1 7.65 9.64 1.07 o
5 12 1 5.44 4.86 1.17 o
1 13 1 31.23 43.02 2.42 o
6 -8 2 37.93 42.77 1.97 o
7 -8 2 11.63 10.80 1.50 o
8 -8 2 9.86 9.61 1.12 o
1 -7 2 0.05 0.23 0.29 o
6 -7 2 29.53 29.46 1.58 o
7 -7 2 0.59 0.58 0.52 o
8 -7 2 15.70 14.09 1.16 o
9 -7 2 2.82 3.55 0.81 o
0 -6 2 210.85 220.12 2.07 o
1 -6 2 50.39 56.40 1.30 o
2 -6 2 243.90 268.10 2.83 o
4 -6 2 295.58 291.24 3.63 o
5 -6 2 16.21 19.34 1.42 o
7 -6 2 19.99 20.69 1.17 o
8 -6 2 14.05 14.36 1.17 o
9 -6 2 20.08 21.34 1.35 o
10 -6 2 14.15 11.47 1.56 o
0 -5 2 120.42 111.69 1.43 o
1 -5 2 36.89 32.82 0.58 o
2 -5 2 76.24 83.75 1.74 o
3 -5 2 82.39 95.27 1.43 o
4 -5 2 44.07 41.99 2.55 o
5 -5 2 34.57 36.91 1.17 o
6 -5 2 35.72 35.74 1.18 o
7 -5 2 6.49 4.53 0.79 o
8 -5 2 20.88 19.94 1.15 o
9 -5 2 0.53 0.51 0.46 o
10 -5 2 8.33 8.27 1.09 o
0 -4 2 551.24 584.70 2.95 o
1 -4 2 126.39 125.94 0.98 o
2 -4 2 66.61 89.61 1.63 o
3 -4 2 63.36 61.87 1.14 o
4 -4 2 19.73 18.68 1.02 o
5 -4 2 55.20 59.11 1.43 o
6 -4 2 51.32 52.57 1.38 o
7 -4 2 37.29 40.12 1.30 o
8 -4 2 36.93 35.30 1.48 o
9 -4 2 13.84 14.78 1.58 o
10 -4 2 5.02 4.90 0.89 o
0 -3 2 58.73 54.80 0.99 o
1 -3 2 39.84 41.49 0.81 o
2 -3 2 78.74 77.73 0.81 o
3 -3 2 368.57 382.00 2.12 o
4 -3 2 75.82 75.56 1.27 o
5 -3 2 158.96 156.33 1.92 o
6 -3 2 29.52 30.34 0.95 o
7 -3 2 28.26 30.83 0.94 o
8 -3 2 26.72 27.53 1.82 o
9 -3 2 9.15 9.09 0.73 o
10 -3 2 14.88 17.49 1.23 o
0 -2 2 461.12 490.42 2.67 o
1 -2 2 94.56 84.36 0.83 o
2 -2 2 21.83 24.80 0.77 o
3 -2 2 106.98 94.95 2.09 o
4 -2 2 142.01 139.26 1.21 o
5 -2 2 84.48 85.30 1.28 o
6 -2 2 19.31 15.02 0.96 o
7 -2 2 29.92 33.21 1.38 o
8 -2 2 42.73 36.07 1.05 o
9 -2 2 14.24 14.67 1.08 o
10 -2 2 0.89 1.05 0.37 o
11 -2 2 9.31 6.51 1.00 o
1 -1 2 2383.27 2415.22 27.57 o
2 -1 2 15.43 14.25 0.51 o
3 -1 2 211.39 210.05 2.10 o
4 -1 2 61.03 60.83 0.88 o
5 -1 2 160.54 176.02 1.51 o
6 -1 2 32.52 32.19 1.16 o
7 -1 2 226.27 229.41 3.27 o
8 -1 2 9.12 12.29 0.76 o
9 -1 2 60.02 57.24 1.29 o
10 -1 2 8.86 8.97 0.81 o
11 -1 2 4.35 3.47 0.65 o
0 0 2 7.03 5.36 0.31 o
1 0 2 91.68 79.11 2.33 o
2 0 2 1.11 2.37 0.28 o
3 0 2 93.31 90.90 1.60 o
4 0 2 37.83 52.50 1.01 o
5 0 2 48.12 56.24 0.96 o
6 0 2 26.35 20.71 0.74 o
7 0 2 24.10 22.88 0.90 o
8 0 2 14.86 15.27 0.78 o
9 0 2 19.46 18.07 0.85 o
10 0 2 0.62 0.55 0.46 o
11 0 2 7.12 4.33 0.80 o
0 1 2 18.32 23.53 0.55 o
1 1 2 2389.51 2321.63 27.50 o
2 1 2 13.05 11.34 0.28 o
3 1 2 216.90 212.83 4.42 o
4 1 2 59.40 60.25 0.89 o
5 1 2 163.85 178.59 3.51 o
6 1 2 32.06 32.72 0.87 o
7 1 2 227.26 230.69 3.10 o
8 1 2 8.56 10.53 0.72 o
9 1 2 60.55 59.38 2.51 o
10 1 2 8.64 8.96 0.77 o
11 1 2 4.51 4.34 0.92 o
0 2 2 447.83 446.41 16.84 o
1 2 2 97.48 83.68 0.68 o
2 2 2 23.75 25.50 0.97 o
3 2 2 106.73 95.26 0.95 o
4 2 2 147.12 141.95 3.89 o
5 2 2 83.63 84.69 1.97 o
6 2 2 18.17 13.35 0.56 o
7 2 2 30.69 33.58 1.51 o
8 2 2 40.80 34.33 1.08 o
9 2 2 15.06 14.91 0.87 o
10 2 2 0.92 1.16 0.56 o
0 3 2 58.72 53.48 1.28 o
1 3 2 41.68 41.30 0.83 o
2 3 2 76.64 70.87 2.04 o
3 3 2 379.19 381.94 11.63 o
4 3 2 72.22 71.19 1.18 o
5 3 2 164.14 153.55 3.83 o
6 3 2 28.06 28.54 1.54 o
7 3 2 28.33 31.79 0.81 o
8 3 2 26.49 27.97 0.98 o
9 3 2 9.71 10.36 1.02 o
10 3 2 14.78 16.14 1.61 o
0 4 2 537.83 521.42 23.89 o
1 4 2 129.51 124.84 2.00 o
2 4 2 62.32 77.70 2.12 o
3 4 2 63.79 61.05 1.77 o
4 4 2 19.29 16.43 0.56 o
5 4 2 56.23 57.71 1.36 o
6 4 2 48.72 48.63 1.15 o
7 4 2 38.38 39.44 1.33 o
8 4 2 35.33 32.16 1.11 o
9 4 2 14.02 14.11 1.10 o
10 4 2 4.92 5.15 0.90 o
0 5 2 120.78 104.96 6.75 o
1 5 2 34.81 26.69 0.63 o
2 5 2 76.68 78.63 1.54 o
3 5 2 86.55 96.33 2.54 o
4 5 2 43.29 40.10 0.83 o
5 5 2 36.31 36.47 0.81 o
6 5 2 34.83 34.30 0.89 o
7 5 2 5.60 5.32 0.62 o
8 5 2 21.09 20.65 0.98 o
9 5 2 0.59 0.93 0.44 o
10 5 2 8.41 6.86 1.64 o
0 6 2 205.63 189.11 2.81 o
1 6 2 52.05 52.83 1.82 o
2 6 2 240.65 248.66 10.39 o
3 6 2 36.46 33.35 0.86 o
4 6 2 293.84 281.20 13.19 o
5 6 2 16.65 16.05 0.70 o
6 6 2 79.36 75.54 1.49 o
7 6 2 20.56 21.25 0.91 o
8 6 2 13.61 14.83 0.92 o
9 6 2 20.18 19.64 1.34 o
10 6 2 14.10 12.89 1.38 o
0 7 2 109.34 97.13 1.47 o
1 7 2 0.17 0.66 0.29 o
2 7 2 47.23 44.16 1.23 o
3 7 2 34.73 38.17 2.16 o
4 7 2 19.54 18.69 1.04 o
5 7 2 9.90 8.27 0.77 o
6 7 2 29.95 30.36 1.25 o
7 7 2 0.43 0.70 0.53 o
8 7 2 15.69 13.62 1.57 o
9 7 2 3.00 2.89 0.73 o
0 8 2 70.70 65.46 1.43 o
1 8 2 17.67 16.32 1.01 o
2 8 2 167.19 160.04 2.24 o
3 8 2 19.11 22.32 1.78 o
4 8 2 194.51 191.43 2.53 o
5 8 2 13.88 13.59 1.12 o
6 8 2 37.98 39.63 2.49 o
7 8 2 11.29 11.64 1.48 o
8 8 2 10.10 10.07 1.16 o
0 9 2 46.48 54.12 1.40 o
1 9 2 9.84 8.38 0.65 o
2 9 2 39.47 36.83 1.69 o
3 9 2 9.65 10.44 1.01 o
4 9 2 23.14 20.37 1.52 o
5 9 2 4.26 1.63 0.53 o
6 9 2 15.56 14.61 1.12 o
7 9 2 2.35 0.96 0.53 o
8 9 2 11.01 9.38 1.39 o
0 10 2 38.64 39.64 2.09 o
1 10 2 22.37 21.57 0.94 o
2 10 2 31.44 30.34 1.33 o
3 10 2 7.95 9.59 0.97 o
4 10 2 15.70 14.64 1.16 o
5 10 2 11.20 11.20 0.99 o
6 10 2 8.83 8.60 1.61 o
7 10 2 11.41 11.78 1.49 o
0 11 2 13.93 11.43 1.42 o
1 11 2 2.75 1.94 0.60 o
2 11 2 23.23 23.61 1.08 o
3 11 2 13.09 11.12 1.03 o
4 11 2 24.18 26.78 3.20 o
5 11 2 5.30 2.28 0.98 o
0 12 2 8.53 8.61 1.66 o
1 12 2 12.84 14.94 1.37 o
2 12 2 2.08 1.27 0.56 o
3 12 2 8.03 4.93 0.79 o
5 -9 3 7.29 4.90 1.07 o
6 -9 3 19.15 21.86 1.85 o
7 -9 3 1.08 0.87 0.65 o
4 -8 3 1.19 1.66 0.63 o
5 -8 3 33.45 37.63 1.91 o
6 -8 3 2.09 1.41 1.02 o
7 -8 3 18.42 18.54 1.68 o
8 -8 3 5.51 5.35 1.43 o
2 -7 3 48.29 55.44 1.64 o
3 -7 3 214.37 225.56 3.39 o
4 -7 3 17.86 19.18 1.45 o
5 -7 3 78.86 77.04 2.40 o
6 -7 3 25.74 24.41 1.65 o
7 -7 3 0.13 0.51 0.47 o
8 -7 3 30.88 30.63 1.53 o
1 -6 3 161.01 179.29 2.39 o
2 -6 3 1.52 2.62 0.74 o
3 -6 3 87.50 91.58 2.17 o
4 -6 3 19.96 18.18 1.36 o
5 -6 3 58.48 65.09 1.69 o
6 -6 3 11.81 10.15 0.93 o
7 -6 3 36.39 38.73 1.56 o
8 -6 3 8.16 6.64 1.37 o
9 -6 3 15.33 12.90 1.77 o
0 -5 3 136.46 142.31 1.86 o
1 -5 3 73.20 79.47 1.61 o
2 -5 3 130.89 134.64 2.24 o
3 -5 3 59.53 60.71 1.86 o
4 -5 3 81.17 86.96 1.68 o
5 -5 3 44.04 36.25 1.26 o
6 -5 3 48.80 51.96 1.56 o
7 -5 3 12.74 13.19 1.45 o
8 -5 3 34.77 36.85 1.54 o
9 -5 3 1.91 0.99 0.50 o
0 -4 3 297.26 309.22 2.69 o
1 -4 3 310.10 315.77 2.33 o
3 -4 3 119.01 123.05 3.14 o
4 -4 3 114.63 116.51 1.83 o
5 -4 3 72.77 74.96 2.87 o
6 -4 3 7.98 8.53 1.47 o
7 -4 3 72.34 75.90 1.86 o
8 -4 3 14.58 10.87 1.09 o
9 -4 3 34.54 36.16 1.63 o
0 -3 3 160.72 173.82 2.08 o
1 -3 3 149.57 157.94 1.39 o
2 -3 3 241.30 240.03 6.61 o
3 -3 3 203.29 202.88 4.18 o
4 -3 3 259.20 264.81 8.62 o
5 -3 3 26.08 29.41 1.16 o
6 -3 3 85.16 89.81 4.14 o
7 -3 3 68.52 65.43 1.76 o
8 -3 3 23.86 28.05 1.35 o
9 -3 3 4.40 2.86 0.84 o
10 -3 3 21.17 19.22 1.40 o
0 -2 3 423.40 455.08 3.22 o
1 -2 3 171.66 168.60 1.63 o
2 -2 3 163.10 163.19 2.07 o
3 -2 3 171.72 172.12 4.39 o
4 -2 3 63.25 64.23 2.36 o
5 -2 3 117.24 118.68 1.37 o
6 -2 3 58.49 59.98 1.16 o
7 -2 3 61.46 62.39 1.46 o
8 -2 3 25.98 25.56 1.37 o
9 -2 3 29.59 33.08 2.19 o
10 -2 3 2.80 1.25 0.76 o
0 -1 3 348.24 360.41 3.02 o
1 -1 3 45.50 46.93 2.10 o
2 -1 3 247.85 251.71 3.98 o
3 -1 3 224.54 217.16 4.08 o
4 -1 3 197.38 201.06 5.34 o
5 -1 3 48.79 51.96 1.32 o
6 -1 3 98.76 98.39 1.41 o
7 -1 3 27.74 22.28 0.91 o
8 -1 3 45.96 49.09 2.30 o
9 -1 3 2.84 1.41 0.46 o
10 -1 3 13.70 13.04 0.92 o
0 0 3 3293.43 3438.34 67.18 o
1 0 3 22.94 18.15 0.46 o
2 0 3 396.13 420.41 3.48 o
3 0 3 281.45 270.57 3.66 o
4 0 3 0.70 0.28 0.29 o
5 0 3 191.66 190.36 2.18 o
6 0 3 185.24 182.08 2.29 o
7 0 3 26.00 29.42 0.98 o
8 0 3 149.29 139.76 1.82 o
9 0 3 15.86 17.05 0.95 o
10 0 3 0.06 0.45 0.39 o
0 1 3 351.55 362.99 3.23 o
1 1 3 44.04 42.94 1.08 o
2 1 3 245.64 241.85 2.72 o
3 1 3 227.88 212.12 2.93 o
4 1 3 193.08 190.66 3.48 o
5 1 3 50.04 52.93 1.12 o
6 1 3 98.40 101.25 1.81 o
7 1 3 26.83 21.02 0.85 o
8 1 3 46.91 49.69 1.45 o
9 1 3 2.73 2.09 0.54 o
10 1 3 13.53 12.14 0.88 o
0 2 3 425.05 460.55 3.70 o
1 2 3 170.82 158.75 2.31 o
2 2 3 162.44 156.25 1.84 o
3 2 3 172.65 171.27 3.42 o
4 2 3 62.65 56.61 1.71 o
5 2 3 116.92 115.22 2.10 o
6 2 3 58.89 58.73 1.36 o
7 2 3 60.49 62.55 1.26 o
8 2 3 26.44 25.03 1.15 o
9 2 3 29.53 32.01 1.33 o
10 2 3 2.71 1.08 0.46 o
0 3 3 162.37 168.21 2.44 o
1 3 3 149.06 150.38 3.02 o
2 3 3 238.85 224.80 3.62 o
3 3 3 206.42 193.29 4.18 o
4 3 3 255.60 244.17 8.81 o
5 3 3 27.11 30.82 0.99 o
6 3 3 84.61 88.40 3.09 o
7 3 3 67.87 62.30 2.08 o
8 3 3 24.51 26.96 1.03 o
9 3 3 4.33 3.80 0.63 o
10 3 3 20.98 19.43 2.06 o
0 4 3 293.60 284.72 9.39 o
1 4 3 313.19 300.82 5.18 o
2 4 3 18.19 13.73 0.59 o
3 4 3 118.31 115.88 2.27 o
4 4 3 115.56 106.39 2.09 o
5 4 3 71.53 69.24 2.32 o
6 4 3 7.52 8.83 0.66 o
7 4 3 72.97 76.48 1.77 o
8 4 3 14.15 10.73 1.08 o
9 4 3 35.11 37.63 2.55 o
10 4 3 6.25 6.27 1.20 o
0 5 3 136.46 135.18 2.48 o
1 5 3 73.35 73.49 0.98 o
2 5 3 130.77 123.01 4.77 o
3 5 3 59.09 53.85 2.07 o
4 5 3 81.41 83.20 1.60 o
5 5 3 43.66 35.42 2.35 o
6 5 3 48.79 48.63 1.41 o
7 5 3 12.86 12.72 0.79 o
8 5 3 34.50 33.75 1.16 o
9 5 3 1.93 0.75 0.47 o
10 5 3 19.16 16.45 1.63 o
0 6 3 105.48 111.29 2.97 o
1 6 3 162.55 166.59 5.26 o
2 6 3 1.40 1.90 0.39 o
3 6 3 87.07 87.31 2.77 o
4 6 3 20.76 16.60 0.79 o
5 6 3 58.27 60.67 2.78 o
6 6 3 11.33 10.53 0.92 o
7 6 3 37.10 40.39 2.24 o
8 6 3 7.86 8.39 1.84 o
9 6 3 15.54 14.00 1.78 o
0 7 3 78.58 78.74 2.40 o
1 7 3 23.81 21.50 0.96 o
2 7 3 48.75 53.54 1.35 o
3 7 3 213.92 221.45 4.26 o
4 7 3 18.25 19.98 0.95 o
5 7 3 78.64 72.91 2.81 o
6 7 3 25.72 23.69 1.22 o
7 7 3 0.12 0.91 0.49 o
8 7 3 30.89 30.10 1.54 o
0 8 3 34.59 33.39 1.85 o
1 8 3 72.97 80.01 2.95 o
2 8 3 8.05 6.22 0.67 o
3 8 3 54.96 53.29 1.57 o
4 8 3 1.03 2.23 0.87 o
5 8 3 33.73 34.08 1.43 o
6 8 3 2.22 2.05 0.75 o
7 8 3 18.32 19.72 1.28 o
0 9 3 37.14 36.76 1.93 o
1 9 3 10.48 11.48 2.41 o
2 9 3 25.43 28.99 2.59 o
3 9 3 27.39 22.55 1.27 o
4 9 3 18.28 21.95 2.13 o
5 9 3 7.28 5.79 0.95 o
6 9 3 19.14 21.44 1.26 o
7 9 3 0.99 0.87 0.84 o
0 10 3 36.25 28.14 1.95 o
1 10 3 39.97 45.26 1.61 o
2 10 3 5.21 2.55 1.10 o
3 10 3 29.57 31.17 1.44 o
4 10 3 6.25 6.07 0.94 o
5 10 3 17.95 16.98 1.27 o
6 10 3 2.81 3.25 1.03 o
0 11 3 22.07 22.93 2.06 o
1 11 3 0.80 0.73 0.46 o
2 11 3 21.11 21.62 1.69 o
3 11 3 5.68 7.29 1.04 o
5 -8 4 19.71 24.24 1.94 o
6 -8 4 13.08 11.48 1.50 o
3 -7 4 0.81 1.08 0.58 o
4 -7 4 46.17 45.19 1.91 o
5 -7 4 0.71 1.40 0.75 o
6 -7 4 16.60 16.41 1.62 o
7 -7 4 2.06 1.02 0.79 o
2 -6 4 8.49 7.74 0.99 o
3 -6 4 48.33 50.34 1.97 o
4 -6 4 2.12 1.67 0.67 o
5 -6 4 33.58 36.80 2.05 o
6 -6 4 12.88 11.54 1.10 o
7 -6 4 42.95 47.50 1.69 o
1 -5 4 203.67 217.91 2.94 o
2 -5 4 134.98 137.63 2.63 o
3 -5 4 0.09 0.33 0.47 o
4 -5 4 58.94 61.92 2.33 o
5 -5 4 5.40 4.67 1.31 o
6 -5 4 57.69 59.36 1.82 o
7 -5 4 52.83 51.50 1.75 o
8 -5 4 40.76 40.18 1.72 o
0 -4 4 49.93 50.07 1.47 o
1 -4 4 133.02 139.58 2.39 o
2 -4 4 103.84 115.95 2.48 o
3 -4 4 194.87 208.12 3.37 o
4 -4 4 108.82 115.39 2.64 o
5 -4 4 99.96 100.75 1.94 o
6 -4 4 8.53 6.87 1.28 o
7 -4 4 26.99 29.08 2.53 o
8 -4 4 3.03 2.88 0.77 o
0 -3 4 349.72 347.76 3.43 o
1 -3 4 194.84 195.17 1.88 o
2 -3 4 213.16 221.81 3.14 o
3 -3 4 46.00 47.17 1.92 o
4 -3 4 105.53 110.75 1.88 o
5 -3 4 22.99 22.68 1.19 o
6 -3 4 100.97 104.06 1.99 o
7 -3 4 36.80 37.49 2.94 o
8 -3 4 53.86 59.10 1.79 o
9 -3 4 8.50 7.64 1.05 o
0 -2 4 7.50 6.65 0.85 o
1 -2 4 160.68 179.20 6.15 o
2 -2 4 141.04 142.69 3.47 o
3 -2 4 257.17 257.89 7.67 o
4 -2 4 287.71 296.71 6.96 o
5 -2 4 142.97 143.87 5.74 o
6 -2 4 0.92 1.40 0.54 o
7 -2 4 39.77 41.00 1.47 o
8 -2 4 3.33 3.30 0.76 o
9 -2 4 18.95 18.66 1.33 o
0 -1 4 113.51 126.04 2.33 o
1 -1 4 1.15 1.53 0.45 o
2 -1 4 236.13 247.34 4.34 o
3 -1 4 221.82 205.69 3.82 o
4 -1 4 278.72 291.36 4.97 o
5 -1 4 57.80 56.86 2.35 o
6 -1 4 82.11 84.86 1.43 o
7 -1 4 4.48 3.81 0.76 o
8 -1 4 24.16 28.57 1.37 o
9 -1 4 5.62 6.28 0.95 o
0 0 4 1.99 2.41 0.37 o
1 0 4 205.85 221.43 2.80 o
2 0 4 0.28 0.57 0.31 o
3 0 4 113.23 120.77 1.63 o
4 0 4 5.19 6.06 0.71 o
5 0 4 110.25 104.89 3.32 o
6 0 4 0.96 0.97 0.59 o
7 0 4 73.87 72.75 1.74 o
8 0 4 0.68 0.89 0.42 o
9 0 4 14.07 14.84 0.93 o
0 1 4 113.12 123.28 2.37 o
1 1 4 1.29 1.49 0.26 o
2 1 4 237.78 246.64 4.36 o
3 1 4 222.98 206.34 4.31 o
4 1 4 280.57 280.40 5.47 o
5 1 4 58.23 57.43 1.50 o
6 1 4 81.69 86.33 1.75 o
7 1 4 4.36 4.06 1.03 o
8 1 4 24.04 25.51 1.04 o
9 1 4 5.67 6.12 0.87 o
0 2 4 7.68 7.18 0.95 o
1 2 4 160.27 169.23 1.72 o
2 2 4 139.37 134.54 3.38 o
3 2 4 251.05 243.59 4.79 o
4 2 4 285.45 282.91 7.03 o
5 2 4 139.81 136.85 3.28 o
6 2 4 0.82 0.79 0.36 o
7 2 4 40.36 39.35 1.37 o
8 2 4 3.46 3.47 0.65 o
9 2 4 18.79 17.07 1.00 o
0 3 4 352.87 343.97 13.10 o
1 3 4 196.27 189.62 2.05 o
2 3 4 216.24 215.68 3.01 o
3 3 4 47.08 46.34 1.17 o
4 3 4 107.17 107.84 1.44 o
5 3 4 23.53 23.58 0.94 o
6 3 4 101.44 102.67 1.88 o
7 3 4 36.98 36.22 1.19 o
8 3 4 54.48 54.59 1.52 o
9 3 4 8.66 5.76 0.81 o
0 4 4 48.79 48.07 2.02 o
1 4 4 130.98 132.52 2.25 o
2 4 4 102.62 105.46 2.39 o
3 4 4 192.53 205.18 3.58 o
4 4 4 108.06 118.64 2.81 o
5 4 4 98.07 98.60 1.94 o
6 4 4 8.20 6.37 0.88 o
7 4 4 26.23 25.01 1.90 o
8 4 4 2.87 1.12 0.61 o
0 5 4 268.35 270.04 4.91 o
1 5 4 205.43 209.11 3.02 o
2 5 4 136.83 129.31 3.50 o
3 5 4 0.07 0.30 0.34 o
4 5 4 58.49 57.21 1.63 o
5 5 4 5.63 5.29 0.83 o
6 5 4 59.01 61.32 1.72 o
7 5 4 53.42 52.38 3.18 o
8 5 4 41.88 38.16 2.48 o
0 6 4 77.69 71.80 1.63 o
1 6 4 122.83 117.71 2.79 o
2 6 4 8.21 7.06 0.65 o
3 6 4 48.94 48.73 1.46 o
4 6 4 2.08 1.54 0.52 o
5 6 4 33.56 35.58 1.80 o
6 6 4 12.69 11.97 1.92 o
0 7 4 45.91 48.47 1.59 o
1 7 4 0.62 0.44 0.41 o
2 7 4 56.52 58.56 1.31 o
3 7 4 0.75 0.64 0.36 o
4 7 4 46.08 45.47 1.41 o
5 7 4 0.76 0.38 0.43 o
6 7 4 16.85 13.98 1.95 o
7 7 4 2.12 1.14 0.87 o
0 8 4 40.65 38.04 2.08 o
1 8 4 72.55 78.44 1.80 o
2 8 4 2.23 1.85 0.58 o
3 8 4 22.30 21.88 1.01 o
4 8 4 0.51 0.86 0.41 o
5 8 4 19.99 22.36 1.92 o
6 8 4 13.20 9.58 1.44 o
0 9 4 40.11 42.49 2.15 o
1 9 4 40.42 45.02 1.60 o
2 9 4 24.62 27.75 1.55 o
3 9 4 2.94 2.88 0.77 o
4 9 4 15.68 15.76 1.15 o
5 9 4 2.32 4.08 1.68 o
0 10 4 13.42 7.73 1.45 o
1 10 4 29.61 29.95 1.45 o
2 10 4 14.18 13.42 1.09 o
3 10 4 32.08 36.43 2.13 o
4 10 4 13.43 18.62 1.82 o
5 -7 5 10.73 10.25 1.45 o
4 -6 5 2.36 2.71 0.89 o
5 -6 5 6.85 6.76 1.35 o
6 -6 5 7.41 5.78 1.19 o
2 -5 5 23.47 24.37 1.51 o
3 -5 5 21.75 21.15 1.61 o
4 -5 5 12.95 11.03 1.44 o
5 -5 5 12.62 12.73 1.60 o
6 -5 5 9.90 7.44 1.39 o
1 -4 5 50.97 51.18 1.74 o
2 -4 5 32.22 35.09 1.62 o
4 -4 5 14.58 17.40 1.61 o
5 -4 5 19.74 22.37 1.81 o
6 -4 5 25.90 26.28 1.39 o
7 -4 5 20.54 19.39 1.89 o
0 -3 5 11.29 13.69 1.21 o
1 -3 5 23.87 26.29 1.46 o
2 -3 5 27.81 34.22 1.59 o
3 -3 5 74.86 77.00 2.45 o
5 -3 5 19.98 18.30 1.69 o
6 -3 5 6.39 5.45 0.95 o
7 -3 5 3.78 3.57 0.74 o
0 -2 5 41.79 40.66 1.65 o
1 -2 5 25.78 29.94 1.06 o
2 -2 5 61.81 67.21 1.90 o
3 -2 5 33.13 39.12 1.82 o
4 -2 5 60.57 57.33 2.31 o
5 -2 5 27.67 30.21 1.57 o
6 -2 5 18.74 18.24 1.26 o
7 -2 5 9.72 10.64 2.01 o
8 -2 5 10.79 9.29 1.53 o
0 -1 5 2.78 2.47 0.65 o
1 -1 5 6.99 5.65 0.73 o
2 -1 5 10.21 12.02 1.02 o
4 -1 5 26.43 29.27 1.79 o
5 -1 5 17.03 12.98 0.99 o
6 -1 5 19.87 18.53 1.23 o
7 -1 5 3.26 2.75 0.71 o
8 -1 5 3.58 2.58 0.99 o
0 0 5 11.77 10.51 1.08 o
1 0 5 12.02 16.59 0.86 o
2 0 5 73.06 75.07 1.58 o
3 0 5 46.54 51.16 1.44 o
4 0 5 101.91 100.35 3.40 o
5 0 5 20.08 19.70 1.09 o
6 0 5 7.99 7.25 0.93 o
7 0 5 2.48 2.40 0.68 o
8 0 5 6.73 7.09 1.22 o
0 1 5 3.00 3.05 0.70 o
1 1 5 6.88 5.13 0.75 o
2 1 5 9.45 10.23 0.66 o
3 1 5 37.50 34.12 1.01 o
4 1 5 25.41 24.75 1.05 o
5 1 5 16.62 12.83 0.98 o
6 1 5 19.97 17.73 1.66 o
7 1 5 3.50 3.33 0.85 o
8 1 5 3.55 2.77 0.73 o
0 2 5 42.77 43.02 2.01 o
1 2 5 26.56 29.04 0.89 o
2 2 5 62.39 63.44 1.63 o
3 2 5 33.75 36.67 1.86 o
4 2 5 60.79 60.23 1.65 o
5 2 5 27.36 28.24 0.99 o
6 2 5 18.72 18.19 1.50 o
7 2 5 9.72 12.43 1.42 o
8 2 5 11.05 11.05 0.97 o
0 3 5 11.65 11.85 1.22 o
1 3 5 23.67 23.96 1.14 o
2 3 5 26.96 30.30 1.00 o
3 3 5 73.11 73.64 3.26 o
4 3 5 34.53 31.24 1.37 o
5 3 5 19.37 17.60 1.78 o
6 3 5 6.09 5.70 0.92 o
7 3 5 4.01 4.40 1.16 o
0 4 5 91.17 93.51 4.28 o
1 4 5 52.38 50.20 1.46 o
2 4 5 32.91 35.74 1.20 o
3 4 5 15.74 12.83 1.06 o
4 4 5 14.51 15.17 1.56 o
5 4 5 19.97 19.99 1.29 o
6 4 5 26.49 26.60 1.42 o
7 4 5 21.09 19.67 1.74 o
0 5 5 31.38 27.20 1.23 o
1 5 5 40.57 38.28 1.16 o
2 5 5 23.57 21.20 1.18 o
3 5 5 21.40 17.53 1.12 o
4 5 5 12.77 11.88 1.07 o
5 5 5 12.35 9.98 1.04 o
6 5 5 9.41 7.24 0.97 o
7 5 5 12.84 10.48 1.55 o
0 6 5 24.95 26.40 1.26 o
1 6 5 22.64 23.69 0.88 o
2 6 5 9.38 8.33 1.41 o
3 6 5 15.61 14.85 1.16 o
4 6 5 2.39 2.48 1.11 o
5 6 5 7.03 6.82 0.95 o
6 6 5 7.88 5.95 1.49 o
0 7 5 44.07 42.56 2.18 o
1 7 5 28.68 24.78 1.27 o
2 7 5 15.51 12.56 1.09 o
3 7 5 5.22 3.79 0.85 o
4 7 5 4.53 4.26 0.78 o
5 7 5 10.72 11.44 1.57 o
0 8 5 12.27 14.74 1.60 o
1 8 5 7.25 8.68 1.13 o
2 8 5 3.50 4.15 0.89 o
3 8 5 7.33 8.52 1.44 o
4 8 5 0.24 0.31 0.42 o
0 9 5 20.72 21.72 1.84 o
1 9 5 14.03 13.12 1.02 o
2 9 5 15.84 13.90 1.13 o
3 9 5 7.87 7.22 1.42 o
4 -5 6 9.94 10.07 1.48 o
2 -4 6 31.82 33.25 1.96 o
3 -4 6 7.86 8.17 1.20 o
5 -4 6 1.74 0.91 0.50 o
1 -3 6 15.29 11.72 1.37 o
2 -3 6 18.08 15.10 1.53 o
3 -3 6 58.78 62.45 2.54 o
4 -3 6 31.91 32.92 2.02 o
5 -3 6 28.46 32.64 2.23 o
0 -2 6 28.03 26.06 1.74 o
2 -2 6 38.55 39.68 2.23 o
3 -2 6 23.60 22.91 1.81 o
4 -2 6 37.99 39.31 2.19 o
5 -2 6 15.82 16.52 1.73 o
0 -1 6 5.84 5.71 1.05 o
1 -1 6 4.28 4.25 0.74 o
2 -1 6 6.89 7.09 0.93 o
3 -1 6 19.25 20.23 1.71 o
4 -1 6 11.46 10.13 1.64 o
5 -1 6 8.69 7.88 1.35 o
6 -1 6 2.77 2.41 1.08 o
0 0 6 2.61 1.44 0.80 o
1 0 6 4.32 4.15 0.75 o
2 0 6 32.82 33.30 1.37 o
3 0 6 37.72 38.90 1.46 o
4 0 6 64.30 70.02 2.65 o
5 0 6 36.80 39.52 2.33 o
0 1 6 5.86 5.04 1.22 o
1 1 6 3.86 4.38 1.46 o
2 1 6 6.51 7.33 0.88 o
3 1 6 17.57 18.74 1.76 o
4 1 6 10.73 9.60 1.46 o
5 1 6 7.68 6.84 1.42 o
6 1 6 2.53 1.00 0.90 o
0 2 6 29.38 26.06 1.88 o
1 2 6 18.29 16.79 1.15 o
2 2 6 40.08 39.40 1.86 o
3 2 6 24.17 22.49 1.85 o
4 2 6 39.53 39.61 1.58 o
5 2 6 16.23 16.67 1.96 o
0 3 6 5.71 4.44 1.32 o
1 3 6 13.79 9.82 1.76 o
2 3 6 17.26 13.66 1.68 o
3 3 6 56.23 59.27 2.49 o
4 3 6 30.97 32.99 2.49 o
5 3 6 27.02 28.71 1.49 o
0 4 6 82.18 85.67 2.92 o
1 4 6 35.78 37.66 1.57 o
2 4 6 33.59 32.28 2.11 o
3 4 6 8.29 6.57 0.95 o
4 4 6 7.91 6.11 0.93 o
5 4 6 1.85 1.33 0.82 o
0 5 6 16.77 20.30 2.06 o
1 5 6 30.36 30.79 1.51 o
2 5 6 16.29 15.92 1.85 o
3 5 6 21.83 17.90 3.29 o
4 5 6 9.64 7.73 1.29 o
0 6 6 25.65 26.15 2.22 o
1 6 6 11.59 8.77 1.58 o
2 6 6 8.96 8.74 1.60 o
3 6 6 2.07 0.83 0.55 o
2 7 6 7.31 7.12 1.40 o
1 -2 7 0.53 0.52 0.58 o
2 -2 7 36.37 34.63 2.27 o
0 -1 7 0.39 0.78 0.65 o
1 -1 7 18.37 17.95 1.81 o
2 -1 7 4.36 3.02 1.05 o
0 0 7 46.92 54.60 2.49 o
1 0 7 4.15 3.50 0.76 o
2 0 7 26.07 23.50 2.07 o
0 1 7 0.40 0.25 0.72 o
1 1 7 18.54 18.63 1.86 o
2 1 7 4.42 1.57 0.69 o
0 2 7 19.69 14.52 1.54 o
1 2 7 0.51 0.50 0.49 o
2 2 7 35.14 36.22 2.37 o
