#------------------------------------------------------------------------------
#$Date: 2016-03-24 14:05:35 +0200 (Thu, 24 Mar 2016) $
#$Revision: 179651 $
#$URL: svn://www.crystallography.net/cod/cif/4/51/04/4510494.cif $
#------------------------------------------------------------------------------
#
# This file is available in the Crystallography Open Database (COD),
# http://www.crystallography.net/
#
# All data on this site have been placed in the public domain by the
# contributors.
#
data_4510494
loop_
_publ_author_name
'Chanthapally, Anjana'
'Quah, Hong Sheng'
'Vittal, Jagadese J.'
_publ_section_title
;
 Solid-State Reactivity of Supramolecular Isomers: A Study of thes-Block
 Coordination Polymers
;
_journal_issue                   5
_journal_name_full               'Crystal Growth &amp; Design'
_journal_page_first              2605
_journal_paper_doi               10.1021/cg500307q
_journal_volume                  14
_journal_year                    2014
_chemical_formula_sum            'C8 H14 Na2 O12'
_chemical_formula_weight         348.17
_chemical_name_systematic
; 
 ? 
;
_space_group_IT_number           2
_symmetry_cell_setting           triclinic
_symmetry_space_group_name_Hall  '-P 1'
_symmetry_space_group_name_H-M   'P -1'
_atom_sites_solution_hydrogens   geom
_atom_sites_solution_primary     direct
_atom_sites_solution_secondary   difmap
_audit_creation_method           SHELXL-97
_cell_angle_alpha                95.537(2)
_cell_angle_beta                 96.302(2)
_cell_angle_gamma                116.231(2)
_cell_formula_units_Z            1
_cell_length_a                   6.1351(6)
_cell_length_b                   6.3115(6)
_cell_length_c                   9.1906(9)
_cell_measurement_reflns_used    1931
_cell_measurement_temperature    100(2)
_cell_measurement_theta_max      27.47
_cell_measurement_theta_min      3.86
_cell_volume                     313.07(5)
_computing_cell_refinement       'Bruker SMART'
_computing_data_collection       'Bruker SMART'
_computing_data_reduction        'Bruker SAINT'
_computing_molecular_graphics    'Bruker SHELXTL'
_computing_publication_material  'Bruker SHELXTL'
_computing_structure_refinement  'SHELXL-97 (Sheldrick, 2008)'
_computing_structure_solution    'SHELXS-97 (Sheldrick, 2008)'
_diffrn_ambient_temperature      100(2)
_diffrn_measured_fraction_theta_full 0.999
_diffrn_measured_fraction_theta_max 0.999
_diffrn_measurement_device_type  'CCD area detector'
_diffrn_measurement_method       'phi and omega scans'
_diffrn_radiation_monochromator  graphite
_diffrn_radiation_source         'fine-focus sealed tube'
_diffrn_radiation_type           MoK\a
_diffrn_radiation_wavelength     0.71073
_diffrn_reflns_av_R_equivalents  0.0240
_diffrn_reflns_av_sigmaI/netI    0.0275
_diffrn_reflns_limit_h_max       7
_diffrn_reflns_limit_h_min       -7
_diffrn_reflns_limit_k_max       8
_diffrn_reflns_limit_k_min       -8
_diffrn_reflns_limit_l_max       11
_diffrn_reflns_limit_l_min       -11
_diffrn_reflns_number            4050
_diffrn_reflns_theta_full        27.49
_diffrn_reflns_theta_max         27.49
_diffrn_reflns_theta_min         2.26
_exptl_absorpt_coefficient_mu    0.231
_exptl_absorpt_correction_T_max  0.9773
_exptl_absorpt_correction_T_min  0.8816
_exptl_absorpt_correction_type   multi-scan
_exptl_absorpt_process_details   'SADABS (sheldrick, 2008)'
_exptl_crystal_colour            Colourless
_exptl_crystal_density_diffrn    1.847
_exptl_crystal_density_meas      ?
_exptl_crystal_density_method    'not measured'
_exptl_crystal_description       Plate
_exptl_crystal_F_000             180
_exptl_crystal_size_max          0.56
_exptl_crystal_size_mid          0.26
_exptl_crystal_size_min          0.10
_refine_diff_density_max         0.522
_refine_diff_density_min         -0.240
_refine_diff_density_rms         0.065
_refine_ls_extinction_method     none
_refine_ls_goodness_of_fit_ref   1.104
_refine_ls_hydrogen_treatment    mixed
_refine_ls_matrix_type           full
_refine_ls_number_parameters     120
_refine_ls_number_reflns         1431
_refine_ls_number_restraints     0
_refine_ls_restrained_S_all      1.104
_refine_ls_R_factor_all          0.0347
_refine_ls_R_factor_gt           0.0314
_refine_ls_shift/su_max          0.000
_refine_ls_shift/su_mean         0.000
_refine_ls_structure_factor_coef Fsqd
_refine_ls_weighting_details
'calc w=1/[\s^2^(Fo^2^)+(0.0422P)^2^+0.1135P] where P=(Fo^2^+2Fc^2^)/3'
_refine_ls_weighting_scheme      calc
_refine_ls_wR_factor_gt          0.0800
_refine_ls_wR_factor_ref         0.0820
_reflns_number_gt                1299
_reflns_number_total             1431
_reflns_threshold_expression     >2sigma(I)
_cod_data_source_file            cg500307q_si_002.cif
_cod_data_source_block           Compound1
_cod_depositor_comments
;
The following automatic conversions were performed:

'_symmetry_cell_setting' value 'Triclinic' changed to 'triclinic'
according to
/usr/data/users/saulius/crontab/automatic-downloads/rss-feeds/ACS/lib/dictionaries/cif_core.dic
dictionary named 'cif_core.dic' version 2.4.2 from
2011-04-26.

'_exptl_absorpt_correction_type' value 'Multi-scan'
changed to 'multi-scan' according to
/usr/data/users/saulius/crontab/automatic-downloads/rss-feeds/ACS/lib/dictionaries/cif_core.dic
dictionary named 'cif_core.dic' version 2.4.2 from 2011-04-26.

Automatic conversion script
Id: cif_fix_values 2281 2013-09-26 08:29:07Z andrius 

 Adding full bibliography for 4510494--4510498.cif.

The following automatic conversions were performed:

'_exptl_crystal_density_meas' value 'Not Measured' was changed to '?'
- the value is perceived as not measured.

Automatic conversion script
Id: cif_fix_values 3008 2015-01-20 13:52:24Z robertas 
;
_cod_original_sg_symbol_H-M      P-1
_cod_database_code               4510494
loop_
_symmetry_equiv_pos_as_xyz
'x, y, z'
'-x, -y, -z'
loop_
_atom_site_label
_atom_site_type_symbol
_atom_site_fract_x
_atom_site_fract_y
_atom_site_fract_z
_atom_site_U_iso_or_equiv
_atom_site_adp_type
_atom_site_occupancy
_atom_site_symmetry_multiplicity
_atom_site_calc_flag
_atom_site_refinement_flags
Na1 Na 0.75845(10) 0.48378(10) 0.10361(6) 0.00940(16) Uani 1 1 d .
O1 O 0.46859(18) 0.13448(17) 0.19213(10) 0.0092(2) Uani 1 1 d .
O2 O 0.17883(18) 0.18909(18) 0.29253(11) 0.0112(2) Uani 1 1 d .
O3 O 1.13068(17) 0.33943(17) 0.54283(11) 0.0096(2) Uani 1 1 d .
H3O H 1.124(5) 0.275(5) 0.445(3) 0.050(7) Uiso 1 1 d .
O4 O 0.89429(18) 0.34696(17) 0.70404(10) 0.0089(2) Uani 1 1 d .
O5 O 0.9496(2) 0.23442(18) 0.02561(12) 0.0107(2) Uani 1 1 d .
H5X H 1.006(4) 0.202(4) 0.104(2) 0.026(5) Uiso 1 1 d .
H5Y H 0.848(4) 0.106(4) -0.024(2) 0.027(5) Uiso 1 1 d .
O6 O 0.5001(2) 0.6812(2) 0.14023(11) 0.0114(2) Uani 1 1 d .
H6X H 0.398(5) 0.637(4) 0.194(3) 0.038(7) Uiso 1 1 d .
H6Y H 0.536(4) 0.827(5) 0.149(2) 0.035(6) Uiso 1 1 d .
C1 C 0.3711(2) 0.1560(2) 0.30052(15) 0.0075(3) Uani 1 1 d .
C2 C 0.4739(2) 0.1421(2) 0.45583(14) 0.0064(3) Uani 1 1 d .
H2 H 0.5151 0.2924 0.5245 0.008 Uiso 1 1 calc R
C3 C 0.6922(2) 0.0810(2) 0.47562(14) 0.0063(3) Uani 1 1 d .
H3 H 0.7338 0.0359 0.3790 0.008 Uiso 1 1 calc R
C4 C 0.9144(2) 0.2667(2) 0.58221(14) 0.0068(3) Uani 1 1 d .
loop_
_atom_site_aniso_label
_atom_site_aniso_U_11
_atom_site_aniso_U_22
_atom_site_aniso_U_33
_atom_site_aniso_U_23
_atom_site_aniso_U_13
_atom_site_aniso_U_12
Na1 0.0082(3) 0.0106(3) 0.0092(3) 0.0015(2) 0.0004(2) 0.0045(2)
O1 0.0098(5) 0.0102(5) 0.0085(5) 0.0024(4) 0.0027(4) 0.0048(4)
O2 0.0110(5) 0.0167(5) 0.0094(5) 0.0032(4) 0.0010(4) 0.0094(4)
O3 0.0058(5) 0.0111(5) 0.0106(5) 0.0007(4) 0.0013(4) 0.0030(4)
O4 0.0093(5) 0.0097(5) 0.0073(5) 0.0004(4) 0.0009(4) 0.0043(4)
O5 0.0124(5) 0.0103(5) 0.0085(5) 0.0014(4) -0.0014(4) 0.0051(4)
O6 0.0116(5) 0.0121(5) 0.0117(5) 0.0016(4) 0.0034(4) 0.0062(4)
C1 0.0066(6) 0.0038(6) 0.0097(6) 0.0012(5) -0.0009(5) 0.0008(5)
C2 0.0058(6) 0.0062(6) 0.0071(6) 0.0012(5) 0.0006(5) 0.0025(5)
C3 0.0062(6) 0.0070(6) 0.0056(6) 0.0012(5) 0.0010(5) 0.0030(5)
C4 0.0071(6) 0.0059(6) 0.0090(6) 0.0039(5) 0.0007(5) 0.0039(5)
loop_
_atom_type_symbol
_atom_type_description
_atom_type_scat_dispersion_real
_atom_type_scat_dispersion_imag
_atom_type_scat_source
C C 0.0033 0.0016 'International Tables Vol C Tables 4.2.6.8 and 6.1.1.4'
H H 0.0000 0.0000 'International Tables Vol C Tables 4.2.6.8 and 6.1.1.4'
O O 0.0106 0.0060 'International Tables Vol C Tables 4.2.6.8 and 6.1.1.4'
Na Na 0.0362 0.0249 'International Tables Vol C Tables 4.2.6.8 and 6.1.1.4'
loop_
_geom_angle_atom_site_label_1
_geom_angle_atom_site_label_2
_geom_angle_atom_site_label_3
_geom_angle
_geom_angle_site_symmetry_1
_geom_angle_site_symmetry_3
O4 Na1 O5 81.50(4) 2_766 2_765
O4 Na1 O1 103.53(4) 2_766 .
O5 Na1 O1 167.08(4) 2_765 .
O4 Na1 O6 162.03(4) 2_766 2_665
O5 Na1 O6 84.75(4) 2_765 2_665
O1 Na1 O6 87.68(4) . 2_665
O4 Na1 O6 109.14(4) 2_766 .
O5 Na1 O6 99.27(4) 2_765 .
O1 Na1 O6 90.38(4) . .
O6 Na1 O6 84.42(4) 2_665 .
O4 Na1 O5 82.44(4) 2_766 .
O5 Na1 O5 83.06(4) 2_765 .
O1 Na1 O5 85.81(4) . .
O6 Na1 O5 84.47(4) 2_665 .
O6 Na1 O5 168.39(4) . .
O4 Na1 Na1 149.64(4) 2_766 2_665
O5 Na1 Na1 92.70(3) 2_765 2_665
O1 Na1 Na1 88.69(3) . 2_665
O6 Na1 Na1 42.27(3) 2_665 2_665
O6 Na1 Na1 42.15(3) . 2_665
O5 Na1 Na1 126.66(4) . 2_665
O4 Na1 Na1 79.25(3) 2_766 2_765
O5 Na1 Na1 41.80(3) 2_765 2_765
O1 Na1 Na1 126.76(3) . 2_765
O6 Na1 Na1 82.79(3) 2_665 2_765
O6 Na1 Na1 139.88(4) . 2_765
O5 Na1 Na1 41.26(3) . 2_765
Na1 Na1 Na1 115.61(3) 2_665 2_765
C1 O1 Na1 120.90(8) . .
C4 O4 Na1 118.85(9) . 2_766
Na1 O5 Na1 96.94(4) 2_765 .
Na1 O6 Na1 95.58(4) 2_665 .
O1 C1 O2 124.04(12) . .
O1 C1 C2 121.41(12) . .
O2 C1 C2 114.55(12) . .
C1 C2 C3 118.67(11) . .
C1 C2 C3 116.03(11) . 2_656
C3 C2 C3 91.68(10) . 2_656
C4 C3 C2 113.70(11) . .
C4 C3 C2 114.22(10) . 2_656
C2 C3 C2 88.32(10) . 2_656
O4 C4 O3 120.38(12) . .
O4 C4 C3 121.09(12) . .
O3 C4 C3 118.53(12) . .
loop_
_geom_bond_atom_site_label_1
_geom_bond_atom_site_label_2
_geom_bond_distance
_geom_bond_site_symmetry_2
Na1 O4 2.3669(11) 2_766
Na1 O5 2.4167(11) 2_765
Na1 O1 2.4254(11) .
Na1 O6 2.4356(12) 2_665
Na1 O6 2.4412(12) .
Na1 O5 2.4424(12) .
Na1 Na1 3.6123(11) 2_665
Na1 Na1 3.6376(11) 2_765
O1 C1 1.2430(17) .
O2 C1 1.2815(17) .
O3 C4 1.3045(17) .
O4 C4 1.2254(16) .
O4 Na1 2.3669(11) 2_766
O5 Na1 2.4167(11) 2_765
O6 Na1 2.4356(12) 2_665
C1 C2 1.5226(18) .
C2 C3 1.5463(18) .
C2 C3 1.5689(18) 2_656
C3 C4 1.5049(18) .
C3 C2 1.5688(18) 2_656
loop_
_geom_hbond_atom_site_label_D
_geom_hbond_atom_site_label_H
_geom_hbond_atom_site_label_A
_geom_hbond_distance_DH
_geom_hbond_distance_HA
_geom_hbond_distance_DA
_geom_hbond_angle_DHA
_geom_hbond_site_symmetry_A
O3 H3O O2 0.94(3) 1.57(3) 2.5011(14) 167(2) 1_655
O5 H5X O2 0.85(2) 1.96(2) 2.7948(14) 169(2) 1_655
O5 H5Y O1 0.82(2) 2.18(2) 2.9498(14) 157(2) 2_655
O6 H6Y O1 0.84(2) 2.17(2) 2.9488(15) 155(2) 1_565
O6 H6X O4 0.81(2) 2.15(3) 2.8921(15) 153(2) 2_666
