#------------------------------------------------------------------------------
#$Date: 2016-03-24 14:08:23 +0200 (Thu, 24 Mar 2016) $
#$Revision: 179653 $
#$URL: svn://www.crystallography.net/cod/cif/4/51/06/4510697.cif $
#------------------------------------------------------------------------------
#
# This file is available in the Crystallography Open Database (COD),
# http://www.crystallography.net/
#
# All data on this site have been placed in the public domain by the
# contributors.
#
data_4510697
loop_
_publ_author_name
'Olejniczak, Anna'
'Anio\/la, Michalina'
'Szafra\'nski, Marek'
'Budzianowski, Armand'
'Katrusiak, Andrzej'
_publ_section_title
;
 New Polar Phases of 1,4-Diazabicyclo[2.2.2]octane Perchlorate, An
 NH+&#x00B7;&#x00B7;&#x00B7;N Hydrogen-Bonded Ferroelectric
;
_journal_issue                   7
_journal_name_full               'Crystal Growth &amp; Design'
_journal_page_first              2872
_journal_paper_doi               10.1021/cg400276c
_journal_volume                  13
_journal_year                    2013
_chemical_formula_moiety         'C6 H13 N2, Cl O4'
_chemical_formula_sum            'C6 H13 Cl N2 O4'
_chemical_formula_weight         212.63
_chemical_name_common
;
dabcoHClO4
;
_chemical_name_systematic
; 
1,4-diazabicyclo[2.2.2]octane perchlorate
;
_space_group_IT_number           31
_symmetry_cell_setting           orthorhombic
_symmetry_space_group_name_Hall  'P -2ab -2'
_symmetry_space_group_name_H-M   'P m 21 n'
_atom_sites_solution_hydrogens   geom
_atom_sites_solution_primary     direct
_atom_sites_solution_secondary   difmap
_audit_creation_method           SHELXL-97
_cell_angle_alpha                90.00
_cell_angle_beta                 90.00
_cell_angle_gamma                90.00
_cell_formula_units_Z            2
_cell_length_a                   8.8708(10)
_cell_length_b                   9.7540(10)
_cell_length_c                   5.3493(10)
_cell_measurement_reflns_used    2090
_cell_measurement_temperature    220(2)
_cell_measurement_theta_max      29.04
_cell_measurement_theta_min      3.81
_cell_volume                     462.85(11)
_computing_cell_refinement       'CrysAlis (Oxford Diffraction, 2002)'
_computing_data_collection       'CrysAlis (Oxford Diffraction, 2002)'
_computing_data_reduction        'CrysAlis (Oxford Diffraction, 2002)'
_computing_molecular_graphics
;X-Seed (Barbour, 2001) 
and POV-Ray (Persistence of Vision, 2004)
;
_computing_publication_material  'SHELXL-97 (Sheldrick, 1997)'
_computing_structure_refinement  'SHELXL-97 (Sheldrick, 1997)'
_computing_structure_solution    'SHELXS-97 (Sheldrick, 1997)'
_diffrn_ambient_temperature      220(2)
_diffrn_measured_fraction_theta_full 0.935
_diffrn_measured_fraction_theta_max 0.935
_diffrn_radiation_monochromator  graphite
_diffrn_radiation_source         'fine-focus sealed tube'
_diffrn_radiation_type           MoK\a
_diffrn_radiation_wavelength     0.71073
_diffrn_reflns_av_R_equivalents  0.0277
_diffrn_reflns_av_sigmaI/netI    0.0193
_diffrn_reflns_limit_h_max       11
_diffrn_reflns_limit_h_min       -11
_diffrn_reflns_limit_k_max       13
_diffrn_reflns_limit_k_min       -9
_diffrn_reflns_limit_l_max       7
_diffrn_reflns_limit_l_min       -5
_diffrn_reflns_number            2090
_diffrn_reflns_theta_full        29.04
_diffrn_reflns_theta_max         29.04
_diffrn_reflns_theta_min         3.81
_exptl_absorpt_coefficient_mu    0.399
_exptl_absorpt_correction_T_max  0.95
_exptl_absorpt_correction_T_min  0.90
_exptl_absorpt_correction_type   numerical
_exptl_absorpt_process_details
; 
Correction for absorption was made using XEMP (SHELXTL, 
Sheldrick (1990)).
;
_exptl_crystal_colour            colourless
_exptl_crystal_density_diffrn    1.526
_exptl_crystal_density_method    'not measured'
_exptl_crystal_description       plate
_exptl_crystal_F_000             224
_exptl_crystal_size_max          0.40
_exptl_crystal_size_mid          0.20
_exptl_crystal_size_min          0.15
_refine_diff_density_max         0.361
_refine_diff_density_min         -0.246
_refine_diff_density_rms         0.055
_refine_ls_abs_structure_details 'Flack H D (1983), Acta Cryst. A39, 876-881'
_refine_ls_abs_structure_Flack   0.04(11)
_refine_ls_extinction_coef       0.035(5)
_refine_ls_extinction_expression Fc^*^=kFc[1+0.001xFc^2^\l^3^/sin(2\q)]^-1/4^
_refine_ls_extinction_method     SHELXL
_refine_ls_goodness_of_fit_ref   1.064
_refine_ls_hydrogen_treatment    constr
_refine_ls_matrix_type           full
_refine_ls_number_parameters     71
_refine_ls_number_reflns         1001
_refine_ls_number_restraints     1
_refine_ls_restrained_S_all      1.063
_refine_ls_R_factor_all          0.0337
_refine_ls_R_factor_gt           0.0327
_refine_ls_shift/su_max          0.000
_refine_ls_shift/su_mean         0.000
_refine_ls_structure_factor_coef Fsqd
_refine_ls_weighting_details
'calc w=1/[\s^2^(Fo^2^)+(0.0435P)^2^+0.1647P] where P=(Fo^2^+2Fc^2^)/3'
_refine_ls_weighting_scheme      calc
_refine_ls_wR_factor_gt          0.0833
_refine_ls_wR_factor_ref         0.0844
_reflns_number_gt                966
_reflns_number_total             1001
_reflns_threshold_expression     >2sigma(I)
_cod_data_source_file            cg400276c_si_002.cif
_cod_data_source_block           dabcoHClO4_II_220K
_cod_original_sg_symbol_H-M      Pm21n
_cod_database_code               4510697
loop_
_symmetry_equiv_pos_as_xyz
'x, y, z'
'-x+1/2, y+1/2, -z'
'x+1/2, y+1/2, -z'
'-x, y, z'
loop_
_atom_site_label
_atom_site_type_symbol
_atom_site_fract_x
_atom_site_fract_y
_atom_site_fract_z
_atom_site_U_iso_or_equiv
_atom_site_adp_type
_atom_site_occupancy
_atom_site_symmetry_multiplicity
_atom_site_calc_flag
_atom_site_refinement_flags
Cl Cl 0.0000 -0.01678(10) -0.06973(11) 0.03132(19) Uani 1 2 d S
O1 O 0.0000 -0.0183(8) -0.3375(4) 0.0685(8) Uani 1 2 d S
O2 O 0.1331(2) -0.0867(2) 0.0177(4) 0.0523(5) Uani 1 1 d .
O3 O 0.0000 0.1204(3) 0.0202(7) 0.0635(9) Uani 1 2 d S
N2 N 0.0000 0.5503(4) 0.2796(5) 0.0336(6) Uani 1 2 d S
N1 N 0.0000 0.5487(3) 0.7516(5) 0.0367(7) Uani 1 2 d S
H1 H 0.0000 0.5492 0.9217 0.044 Uiso 1 2 calc SR
C2 C 0.0000 0.4113(5) 0.3709(8) 0.0771(19) Uani 1 2 d S
H2A H 0.0884 0.3641 0.3077 0.092 Uiso 0.50 1 calc PR
H2B H -0.0884 0.3641 0.3077 0.092 Uiso 0.50 1 calc PR
C1 C 0.0000 0.4045(5) 0.6620(6) 0.0481(11) Uani 1 2 d S
H1A H -0.0888 0.3567 0.7218 0.058 Uiso 0.50 1 calc PR
H1B H 0.0888 0.3567 0.7218 0.058 Uiso 0.50 1 calc PR
C4 C 0.1342(3) 0.6214(4) 0.3769(5) 0.0569(9) Uani 1 1 d .
H4A H 0.1341 0.7154 0.3174 0.068 Uiso 1 1 calc R
H4B H 0.2240 0.5769 0.3128 0.068 Uiso 1 1 calc R
C3 C 0.1395(3) 0.6214(3) 0.6586(5) 0.0425(6) Uani 1 1 d .
H3A H 0.1419 0.7148 0.7210 0.051 Uiso 1 1 calc R
H3B H 0.2293 0.5743 0.7165 0.051 Uiso 1 1 calc R
loop_
_atom_site_aniso_label
_atom_site_aniso_U_11
_atom_site_aniso_U_22
_atom_site_aniso_U_33
_atom_site_aniso_U_23
_atom_site_aniso_U_13
_atom_site_aniso_U_12
Cl 0.0333(3) 0.0325(3) 0.0281(3) 0.0004(4) 0.000 0.000
O1 0.0614(13) 0.119(3) 0.0252(10) 0.009(3) 0.000 0.000
O2 0.0489(10) 0.0557(13) 0.0524(10) -0.0055(9) -0.0148(8) 0.0198(9)
O3 0.0728(19) 0.0307(15) 0.087(2) -0.0086(15) 0.000 0.000
N2 0.0471(14) 0.0400(16) 0.0138(11) 0.0006(13) 0.000 0.000
N1 0.0638(17) 0.0338(15) 0.0123(11) 0.0005(12) 0.000 0.000
C2 0.176(6) 0.030(2) 0.0250(18) -0.009(2) 0.000 0.000
C1 0.092(3) 0.0256(18) 0.0266(17) 0.0034(17) 0.000 0.000
C4 0.0370(12) 0.095(3) 0.0384(13) 0.0000(15) 0.0125(10) -0.0171(13)
C3 0.0399(12) 0.0472(15) 0.0403(13) -0.0047(11) -0.0135(10) 0.0015(10)
loop_
_atom_type_symbol
_atom_type_description
_atom_type_scat_dispersion_real
_atom_type_scat_dispersion_imag
_atom_type_scat_source
C C 0.0033 0.0016 'International Tables Vol C Tables 4.2.6.8 and 6.1.1.4'
H H 0.0000 0.0000 'International Tables Vol C Tables 4.2.6.8 and 6.1.1.4'
N N 0.0061 0.0033 'International Tables Vol C Tables 4.2.6.8 and 6.1.1.4'
I I -0.4742 1.8119 'International Tables Vol C Tables 4.2.6.8 and 6.1.1.4'
loop_
_geom_angle_atom_site_label_1
_geom_angle_atom_site_label_2
_geom_angle_atom_site_label_3
_geom_angle
_geom_angle_site_symmetry_1
_geom_angle_site_symmetry_3
O3 Cl O1 110.4(3) . .
O3 Cl O2 109.61(12) . 4
O1 Cl O2 108.64(17) . 4
O3 Cl O2 109.61(12) . .
O1 Cl O2 108.64(17) . .
O2 Cl O2 110.0(2) 4 .
C2 N2 C4 108.8(2) . .
C2 N2 C4 108.8(2) . 4
C4 N2 C4 107.9(3) . 4
C1 N1 C3 109.76(18) . .
C1 N1 C3 109.76(18) . 4
C3 N1 C3 110.0(3) . 4
C1 N1 H1 109.1 . .
C3 N1 H1 109.1 . .
C3 N1 H1 109.1 4 .
N2 C2 C1 112.2(3) . .
N2 C2 H2A 109.2 . .
C1 C2 H2A 109.2 . .
N2 C2 H2B 109.2 . .
C1 C2 H2B 109.2 . .
H2A C2 H2B 107.9 . .
N1 C1 C2 106.4(3) . .
N1 C1 H1A 110.4 . .
C2 C1 H1A 110.4 . .
N1 C1 H1B 110.4 . .
C2 C1 H1B 110.4 . .
H1A C1 H1B 108.6 . .
N2 C4 C3 112.3(2) . .
N2 C4 H4A 109.2 . .
C3 C4 H4A 109.2 . .
N2 C4 H4B 109.2 . .
C3 C4 H4B 109.2 . .
H4A C4 H4B 107.9 . .
C4 C3 N1 107.7(2) . .
C4 C3 H3A 110.2 . .
N1 C3 H3A 110.2 . .
C4 C3 H3B 110.2 . .
N1 C3 H3B 110.2 . .
H3A C3 H3B 108.5 . .
loop_
_geom_bond_atom_site_label_1
_geom_bond_atom_site_label_2
_geom_bond_distance
_geom_bond_site_symmetry_2
Cl O3 1.422(3) .
Cl O1 1.432(2) .
Cl O2 1.4419(18) 4
Cl O2 1.4419(18) .
N2 C2 1.442(5) .
N2 C4 1.473(3) .
N2 C4 1.473(3) 4
N1 C1 1.486(5) .
N1 C3 1.511(3) .
N1 C3 1.511(3) 4
N1 H1 0.9100 .
C2 C1 1.559(5) .
C2 H2A 0.9700 .
C2 H2B 0.9700 .
C1 H1A 0.9700 .
C1 H1B 0.9700 .
C4 C3 1.507(3) .
C4 H4A 0.9700 .
C4 H4B 0.9700 .
C3 H3A 0.9700 .
C3 H3B 0.9700 .
loop_
_geom_torsion_atom_site_label_1
_geom_torsion_atom_site_label_2
_geom_torsion_atom_site_label_3
_geom_torsion_atom_site_label_4
_geom_torsion
_geom_torsion_site_symmetry_1
C4 N2 C2 C1 58.65(16) .
C4 N2 C2 C1 -58.65(16) 4
C3 N1 C1 C2 -60.53(15) .
C3 N1 C1 C2 60.53(15) 4
N2 C2 C1 N1 0.000(1) .
C2 N2 C4 C3 -58.2(3) .
C4 N2 C4 C3 59.7(4) 4
N2 C4 C3 N1 -1.1(4) .
C1 N1 C3 C4 61.7(3) .
C3 N1 C3 C4 -59.2(4) 4
loop_
_refln_index_h
_refln_index_k
_refln_index_l
_refln_F_squared_calc
_refln_F_squared_meas
_refln_F_squared_sigma
_refln_observed_status
4 -6 0 140.84 151.52 2.14 o
6 -6 0 66.55 75.13 1.90 o
3 -5 0 789.38 842.10 4.05 o
7 -5 0 145.60 153.08 2.75 o
9 -5 0 42.04 38.66 1.84 o
2 -4 0 245.31 223.35 1.79 o
4 -4 0 963.18 1025.89 4.76 o
6 -4 0 61.81 56.41 1.58 o
8 -4 0 16.40 17.10 1.32 o
10 -4 0 55.72 63.66 2.37 o
1 -3 0 1853.59 1814.28 3.99 o
3 -3 0 427.38 492.58 2.88 o
5 -3 0 43.07 51.86 1.52 o
7 -3 0 395.09 425.02 4.27 o
9 -3 0 51.42 49.35 1.94 o
11 -3 0 6.46 6.00 1.40 o
2 -2 0 3006.15 3031.73 5.73 o
4 -2 0 1194.73 1160.35 4.97 o
8 -2 0 238.07 250.81 3.92 o
10 -2 0 53.22 52.26 2.18 o
3 -1 0 1444.26 1458.33 4.74 o
5 -1 0 193.91 188.90 2.46 o
7 -1 0 182.62 166.98 3.07 o
9 -1 0 49.65 56.03 2.34 o
11 -1 0 37.82 41.76 2.38 o
2 0 0 7106.83 7887.67 19.21 o
4 0 0 313.16 325.82 2.73 o
6 0 0 1485.27 1557.14 7.26 o
8 0 0 822.47 854.05 6.73 o
10 0 0 28.90 26.92 1.93 o
3 1 0 1482.88 1485.74 34.66 o
5 1 0 202.68 199.85 2.60 o
7 1 0 174.76 161.16 3.05 o
9 1 0 48.78 54.55 2.25 o
11 1 0 39.27 44.11 2.39 o
0 2 0 7134.16 6444.25 16.19 o
2 2 0 3009.08 3087.13 8.36 o
4 2 0 1200.26 1153.27 23.04 o
6 2 0 640.63 700.40 7.79 o
8 2 0 242.46 268.36 4.10 o
10 2 0 52.68 43.96 2.21 o
1 3 0 1835.56 1650.08 4.63 o
3 3 0 448.70 516.15 12.57 o
5 3 0 46.14 53.40 0.90 o
7 3 0 387.95 401.65 4.52 o
9 3 0 50.15 47.52 2.20 o
11 3 0 7.46 7.37 1.43 o
0 4 0 692.57 717.53 3.58 o
2 4 0 247.61 232.01 1.36 o
4 4 0 980.86 1050.86 31.29 o
6 4 0 61.00 57.59 1.67 o
8 4 0 14.26 13.10 1.27 o
10 4 0 56.85 60.64 2.65 o
1 5 0 1099.18 1080.49 4.97 o
3 5 0 779.46 768.71 4.35 o
5 5 0 480.93 456.86 6.93 o
7 5 0 144.67 148.57 2.95 o
9 5 0 41.24 40.84 2.15 o
0 6 0 237.66 247.80 2.78 o
2 6 0 59.40 39.28 1.34 o
4 6 0 147.76 153.29 2.49 o
6 6 0 63.34 66.84 1.44 o
8 6 0 29.83 36.73 2.03 o
10 6 0 22.91 28.85 2.20 o
1 7 0 495.21 484.03 10.25 o
3 7 0 1387.28 1444.13 7.22 o
5 7 0 573.29 602.96 13.37 o
7 7 0 35.33 31.35 1.76 o
9 7 0 44.54 44.39 2.27 o
0 8 0 116.37 125.94 2.59 o
2 8 0 48.50 46.92 1.32 o
4 8 0 29.01 38.16 1.49 o
6 8 0 28.75 27.75 1.61 o
8 8 0 25.90 26.78 2.18 o
1 9 0 176.56 184.01 2.79 o
3 9 0 274.37 263.63 2.79 o
5 9 0 111.40 109.33 2.60 o
0 10 0 56.01 41.47 2.04 o
2 10 0 28.02 27.38 1.26 o
4 10 0 55.80 62.67 1.62 o
1 11 0 32.46 29.00 1.30 o
3 11 0 3.89 7.14 0.91 o
5 11 0 3.27 5.02 1.20 o
0 12 0 50.82 76.77 2.62 o
2 12 0 50.26 56.94 2.09 o
4 12 0 32.09 25.09 1.99 o
1 13 0 3.41 1.26 0.53 o
4 -7 1 41.81 43.35 1.56 o
5 -7 1 84.00 84.88 2.10 o
6 -7 1 11.35 10.36 1.14 o
7 -7 1 37.44 43.01 1.84 o
8 -7 1 8.10 9.02 1.28 o
3 -6 1 28.17 30.04 1.31 o
5 -6 1 20.72 20.32 1.38 o
6 -6 1 71.93 74.01 2.25 o
7 -6 1 19.24 18.85 1.51 o
9 -6 1 5.04 5.19 1.06 o
3 -5 1 196.65 198.52 4.52 o
4 -5 1 63.23 66.70 1.29 o
5 -5 1 91.02 94.49 1.70 o
6 -5 1 35.01 37.16 1.62 o
7 -5 1 78.38 76.65 2.19 o
8 -5 1 22.10 22.07 1.49 o
9 -5 1 14.03 14.92 1.45 o
10 -5 1 7.40 7.34 1.21 o
2 -4 1 48.72 46.96 0.90 o
3 -4 1 164.30 168.85 2.00 o
4 -4 1 68.18 70.09 0.98 o
5 -4 1 69.32 70.58 1.12 o
6 -4 1 98.60 101.18 1.49 o
7 -4 1 22.79 21.78 1.31 o
8 -4 1 51.54 57.45 1.69 o
9 -4 1 14.61 15.21 0.95 o
10 -4 1 3.61 3.48 1.27 o
11 -4 1 5.42 4.38 0.95 o
2 -3 1 251.05 265.90 1.66 o
3 -3 1 209.60 197.64 1.34 o
4 -3 1 118.68 115.20 1.39 o
5 -3 1 118.17 121.47 1.46 o
6 -3 1 75.95 74.82 1.35 o
7 -3 1 18.06 18.34 0.90 o
8 -3 1 22.62 25.24 1.12 o
9 -3 1 19.35 18.16 1.06 o
10 -3 1 5.80 6.24 0.80 o
11 -3 1 22.02 20.42 1.07 o
1 -2 1 411.15 390.41 2.32 o
2 -2 1 532.98 532.99 1.72 o
3 -2 1 359.30 359.29 1.75 o
4 -2 1 844.97 916.53 3.13 o
5 -2 1 125.81 128.52 1.49 o
6 -2 1 110.41 108.51 1.55 o
7 -2 1 35.47 36.68 1.24 o
8 -2 1 111.00 115.52 2.00 o
9 -2 1 18.16 16.91 0.82 o
10 -2 1 21.69 19.82 0.97 o
11 -2 1 6.51 5.80 0.84 o
1 -1 1 4165.20 4156.68 83.26 o
2 -1 1 345.74 353.31 6.79 o
3 -1 1 11.25 7.61 0.47 o
4 -1 1 207.63 223.03 1.66 o
5 -1 1 105.90 105.90 1.39 o
6 -1 1 60.15 65.85 3.48 o
7 -1 1 390.85 418.87 3.42 o
8 -1 1 19.79 19.90 0.87 o
9 -1 1 60.52 59.09 1.28 o
10 -1 1 12.69 11.99 0.90 o
11 -1 1 2.85 2.62 0.60 o
0 0 1 312.05 331.43 1.61 o
1 0 1 580.90 557.13 1.34 o
2 0 1 453.26 402.20 4.17 o
3 0 1 306.78 298.57 1.65 o
4 0 1 157.52 137.15 1.40 o
5 0 1 181.44 159.30 2.02 o
6 0 1 108.49 107.36 2.29 o
7 0 1 54.20 59.83 1.64 o
8 0 1 66.73 65.67 1.62 o
9 0 1 8.68 9.47 0.78 o
10 0 1 38.90 41.07 1.21 o
11 0 1 5.01 4.59 0.87 o
0 1 1 267.62 272.25 7.86 o
1 1 1 4175.02 4195.03 83.31 o
2 1 1 346.44 349.58 7.10 o
3 1 1 10.23 6.91 0.45 o
4 1 1 207.62 220.56 4.39 o
5 1 1 108.37 106.26 1.19 o
6 1 1 59.71 63.55 1.07 o
7 1 1 393.56 423.75 4.97 o
8 1 1 19.96 19.13 0.81 o
9 1 1 60.62 58.95 1.38 o
10 1 1 12.89 11.39 1.47 o
11 1 1 2.54 1.32 0.48 o
0 2 1 1254.90 1116.83 53.62 o
1 2 1 411.37 365.33 12.96 o
2 2 1 554.83 547.11 9.73 o
3 2 1 356.94 352.61 5.86 o
4 2 1 870.94 953.53 22.52 o
5 2 1 125.00 127.90 1.85 o
6 2 1 109.84 104.41 1.47 o
7 2 1 35.48 33.90 0.92 o
8 2 1 108.12 115.12 2.12 o
9 2 1 17.93 17.61 1.13 o
10 2 1 23.16 23.73 1.79 o
11 2 1 6.40 5.73 0.97 o
0 3 1 466.55 436.19 17.93 o
1 3 1 121.36 107.74 3.86 o
2 3 1 251.24 255.21 5.88 o
3 3 1 214.72 199.12 4.51 o
4 3 1 118.54 116.55 2.39 o
5 3 1 121.84 125.56 2.27 o
6 3 1 76.18 75.60 1.73 o
7 3 1 16.98 18.33 0.63 o
8 3 1 22.87 24.52 1.77 o
9 3 1 18.91 18.25 1.73 o
10 3 1 5.93 6.54 0.99 o
11 3 1 22.16 19.93 1.41 o
0 4 1 388.84 340.02 2.69 o
1 4 1 175.17 168.38 4.76 o
2 4 1 52.91 48.71 1.59 o
3 4 1 164.17 166.15 3.30 o
4 4 1 74.62 74.83 1.16 o
5 4 1 68.49 66.80 1.93 o
6 4 1 97.79 99.14 1.58 o
7 4 1 22.46 21.79 0.86 o
8 4 1 50.58 55.00 1.60 o
9 4 1 14.70 12.12 1.09 o
10 4 1 3.86 3.82 0.86 o
11 4 1 5.36 4.53 1.28 o
0 5 1 232.54 218.12 2.59 o
1 5 1 419.63 436.29 11.90 o
2 5 1 141.97 126.46 2.99 o
3 5 1 201.39 195.08 3.05 o
4 5 1 62.76 65.17 1.65 o
5 5 1 91.04 90.19 1.55 o
6 5 1 35.56 38.18 0.96 o
7 5 1 73.59 69.69 2.15 o
8 5 1 22.34 22.51 2.10 o
9 5 1 13.64 17.10 1.23 o
10 5 1 7.34 6.54 1.02 o
0 6 1 67.12 60.96 1.25 o
1 6 1 77.92 71.00 1.25 o
2 6 1 307.87 301.78 4.14 o
3 6 1 28.96 31.05 1.27 o
4 6 1 461.66 462.33 2.33 o
5 6 1 20.91 18.43 0.85 o
6 6 1 71.14 69.62 1.22 o
7 6 1 19.10 18.43 0.84 o
8 6 1 8.82 8.05 0.70 o
9 6 1 5.05 3.56 0.58 o
10 6 1 24.09 20.94 1.32 o
0 7 1 34.50 38.84 1.04 o
1 7 1 75.27 74.50 1.14 o
2 7 1 49.85 48.62 1.33 o
3 7 1 121.22 113.63 1.34 o
4 7 1 41.54 39.95 2.04 o
5 7 1 83.24 77.25 1.53 o
6 7 1 11.24 9.93 0.96 o
7 7 1 36.83 38.74 1.08 o
8 7 1 8.14 8.31 0.80 o
9 7 1 15.55 17.23 1.12 o
10 7 1 5.45 6.58 1.38 o
0 8 1 42.24 41.00 1.19 o
1 8 1 36.40 36.59 0.84 o
2 8 1 211.38 207.35 2.41 o
3 8 1 6.63 7.04 0.60 o
4 8 1 264.34 270.50 3.35 o
5 8 1 7.13 6.66 1.10 o
6 8 1 30.93 29.32 2.93 o
7 8 1 12.03 11.65 1.58 o
8 8 1 9.08 8.18 1.01 o
9 8 1 4.22 3.07 1.08 o
0 9 1 24.11 22.64 1.12 o
1 9 1 100.11 106.01 1.27 o
2 9 1 14.37 15.30 0.73 o
3 9 1 65.76 71.43 1.66 o
4 9 1 12.03 13.00 1.04 o
5 9 1 33.58 36.17 1.38 o
6 9 1 10.79 11.98 1.83 o
7 9 1 22.97 22.44 1.26 o
8 9 1 4.58 4.34 1.33 o
0 10 1 30.64 33.99 1.45 o
1 10 1 10.22 10.76 0.73 o
2 10 1 25.30 21.51 0.87 o
3 10 1 17.99 18.49 0.94 o
4 10 1 13.76 11.45 1.07 o
5 10 1 8.10 7.84 1.33 o
6 10 1 9.88 9.29 1.05 o
7 10 1 2.79 1.67 0.57 o
0 11 1 12.58 14.46 1.04 o
1 11 1 20.65 21.39 0.82 o
2 11 1 4.56 5.51 0.90 o
3 11 1 28.77 25.62 1.04 o
4 11 1 1.43 1.08 0.45 o
5 11 1 9.90 7.86 1.02 o
6 11 1 4.59 2.80 1.03 o
0 12 1 11.82 8.65 0.93 o
1 12 1 6.49 5.40 0.70 o
2 12 1 8.79 9.92 1.13 o
3 12 1 9.50 9.15 0.85 o
4 12 1 8.47 9.57 1.05 o
5 12 1 6.02 4.40 1.16 o
1 13 1 34.65 42.01 2.38 o
6 -8 2 39.38 42.63 1.88 o
7 -8 2 12.27 10.65 1.18 o
8 -8 2 10.44 10.96 1.11 o
1 -7 2 0.08 0.28 0.26 o
5 -7 2 10.34 11.06 1.10 o
6 -7 2 31.02 30.22 1.62 o
7 -7 2 0.64 0.87 0.95 o
8 -7 2 16.76 15.21 1.14 o
9 -7 2 2.93 1.95 0.64 o
0 -6 2 216.07 220.16 2.06 o
1 -6 2 50.84 55.12 1.32 o
2 -6 2 251.49 271.05 2.87 o
4 -6 2 307.42 299.04 3.69 o
5 -6 2 16.05 17.89 1.39 o
6 -6 2 84.91 84.47 2.38 o
7 -6 2 20.42 21.56 1.15 o
8 -6 2 14.80 15.14 1.20 o
9 -6 2 20.69 20.00 1.17 o
0 -5 2 123.24 114.53 1.45 o
1 -5 2 39.06 34.02 0.59 o
2 -5 2 77.31 82.94 1.71 o
3 -5 2 83.01 95.83 1.43 o
4 -5 2 44.19 42.78 1.15 o
5 -5 2 34.88 37.21 2.43 o
6 -5 2 36.74 36.89 1.25 o
7 -5 2 6.79 4.35 1.99 o
8 -5 2 21.96 21.70 1.16 o
9 -5 2 0.53 1.08 0.68 o
10 -5 2 9.05 8.01 0.96 o
0 -4 2 562.38 596.11 3.00 o
1 -4 2 127.47 128.48 1.75 o
2 -4 2 69.30 91.33 1.65 o
3 -4 2 62.35 62.62 2.39 o
4 -4 2 20.84 17.66 0.79 o
5 -4 2 54.78 57.92 1.29 o
6 -4 2 53.69 53.94 1.37 o
7 -4 2 38.45 40.57 2.40 o
8 -4 2 38.45 35.57 1.46 o
9 -4 2 14.19 14.10 1.16 o
10 -4 2 5.28 5.29 0.89 o
0 -3 2 59.68 53.37 0.95 o
1 -3 2 39.38 40.31 0.58 o
2 -3 2 79.24 79.22 0.89 o
3 -3 2 373.26 387.17 4.55 o
4 -3 2 77.14 76.36 0.99 o
5 -3 2 162.76 158.43 1.42 o
6 -3 2 29.90 31.41 0.95 o
7 -3 2 28.62 32.13 0.95 o
8 -3 2 27.19 28.71 0.97 o
9 -3 2 9.49 9.78 0.98 o
10 -3 2 15.80 16.25 1.26 o
0 -2 2 465.16 498.06 2.65 o
1 -2 2 95.82 85.24 0.86 o
2 -2 2 21.67 25.40 0.53 o
3 -2 2 107.39 98.32 1.86 o
4 -2 2 143.56 141.63 1.65 o
5 -2 2 85.50 87.40 1.15 o
6 -2 2 20.12 15.25 0.65 o
7 -2 2 30.37 32.82 0.96 o
8 -2 2 44.02 36.09 1.05 o
9 -2 2 14.70 15.51 1.15 o
10 -2 2 0.96 0.76 0.38 o
11 -2 2 9.65 7.31 0.97 o
0 -1 2 21.13 24.74 0.76 o
1 -1 2 2400.23 2432.77 26.30 o
2 -1 2 15.56 14.82 0.40 o
3 -1 2 214.70 211.99 3.75 o
4 -1 2 61.51 63.19 0.90 o
5 -1 2 165.84 179.38 2.56 o
6 -1 2 32.86 33.58 0.88 o
7 -1 2 230.79 237.73 4.83 o
8 -1 2 9.22 12.98 0.78 o
9 -1 2 61.90 63.18 1.86 o
10 -1 2 8.89 9.40 1.02 o
11 -1 2 4.61 4.15 0.73 o
0 0 2 7.68 5.87 0.33 o
1 0 2 91.21 80.82 1.46 o
2 0 2 0.99 2.13 0.28 o
3 0 2 94.89 91.49 1.52 o
4 0 2 37.83 52.32 1.03 o
5 0 2 49.66 57.55 0.98 o
6 0 2 26.93 21.01 0.75 o
7 0 2 24.08 24.02 1.13 o
8 0 2 15.40 15.33 0.97 o
9 0 2 20.10 19.44 0.93 o
10 0 2 0.72 1.29 0.56 o
11 0 2 7.92 6.86 1.03 o
0 1 2 18.93 22.89 0.56 o
1 1 2 2406.54 2338.10 28.43 o
2 1 2 13.13 11.92 0.29 o
3 1 2 220.26 215.79 5.21 o
4 1 2 59.83 62.61 0.92 o
5 1 2 169.25 180.59 3.56 o
6 1 2 32.40 34.21 0.88 o
7 1 2 231.84 238.88 3.11 o
8 1 2 8.68 11.04 0.81 o
9 1 2 62.46 60.06 1.32 o
10 1 2 8.65 8.36 0.75 o
11 1 2 4.77 3.96 1.23 o
0 2 2 451.80 453.90 17.02 o
1 2 2 98.92 83.76 1.29 o
2 2 2 23.58 26.36 0.75 o
3 2 2 107.17 96.68 1.20 o
4 2 2 148.71 144.56 3.80 o
5 2 2 84.63 89.06 1.37 o
6 2 2 18.94 13.69 0.67 o
7 2 2 31.12 33.06 0.95 o
8 2 2 42.04 35.79 1.04 o
9 2 2 15.54 16.53 0.91 o
10 2 2 0.99 1.20 0.61 o
0 3 2 59.70 51.48 2.65 o
1 3 2 41.22 40.98 0.82 o
2 3 2 77.10 71.78 1.81 o
3 3 2 384.03 386.74 10.60 o
4 3 2 73.46 70.90 1.60 o
5 3 2 168.07 160.16 3.49 o
6 3 2 28.42 28.54 1.38 o
7 3 2 28.71 32.06 0.89 o
8 3 2 26.98 26.50 0.92 o
9 3 2 10.08 10.27 0.95 o
0 4 2 548.77 535.78 23.41 o
1 4 2 130.61 121.72 3.58 o
2 4 2 64.92 77.81 1.79 o
3 4 2 62.77 59.91 1.82 o
4 4 2 20.35 16.69 1.11 o
5 4 2 55.82 58.05 1.17 o
6 4 2 51.00 47.65 0.95 o
7 4 2 39.55 41.65 0.91 o
8 4 2 36.80 32.29 1.18 o
9 4 2 14.38 15.34 1.14 o
10 4 2 5.17 5.59 1.21 o
0 5 2 123.72 113.08 1.96 o
1 5 2 36.88 28.40 0.53 o
2 5 2 77.83 80.01 1.90 o
3 5 2 87.24 96.09 1.68 o
4 5 2 43.43 40.90 1.00 o
5 5 2 36.65 37.65 0.85 o
6 5 2 35.84 35.76 1.10 o
7 5 2 5.87 4.80 0.61 o
8 5 2 22.17 21.22 1.00 o
9 5 2 0.60 1.45 0.49 o
10 5 2 9.16 7.20 0.95 o
0 6 2 210.75 194.52 2.88 o
1 6 2 52.39 55.28 1.00 o
2 6 2 248.21 255.34 9.69 o
3 6 2 36.24 32.71 1.10 o
4 6 2 305.67 290.46 13.21 o
5 6 2 16.47 17.31 0.85 o
6 6 2 83.16 80.28 3.56 o
7 6 2 21.00 21.43 0.85 o
8 6 2 14.34 14.93 0.83 o
9 6 2 20.77 19.88 1.09 o
10 6 2 14.90 15.05 1.50 o
0 7 2 112.08 102.27 1.54 o
1 7 2 0.18 0.29 0.25 o
2 7 2 48.52 47.20 1.33 o
3 7 2 35.64 37.68 1.27 o
4 7 2 20.36 21.05 1.02 o
5 7 2 10.24 9.26 1.29 o
6 7 2 31.49 31.96 1.56 o
7 7 2 0.46 0.54 0.76 o
8 7 2 16.76 15.12 1.60 o
9 7 2 3.12 3.05 0.81 o
0 8 2 73.10 69.75 2.04 o
1 8 2 19.06 17.42 0.99 o
2 8 2 173.68 168.33 3.35 o
3 8 2 19.58 23.79 1.51 o
4 8 2 203.02 198.14 2.57 o
5 8 2 14.54 11.72 0.99 o
6 8 2 39.44 39.62 1.55 o
7 8 2 11.89 9.52 1.07 o
8 8 2 10.70 10.11 1.11 o
0 9 2 48.59 54.13 1.40 o
1 9 2 9.79 8.13 0.63 o
2 9 2 41.15 42.32 1.44 o
3 9 2 10.62 10.49 0.99 o
4 9 2 24.33 21.36 1.26 o
5 9 2 4.76 2.66 0.72 o
6 9 2 16.54 12.70 1.11 o
7 9 2 2.38 1.16 0.45 o
8 9 2 11.60 11.37 1.85 o
0 10 2 40.88 42.52 2.06 o
1 10 2 23.21 23.02 0.98 o
2 10 2 32.76 31.59 1.08 o
3 10 2 8.38 9.82 1.04 o
4 10 2 16.23 16.96 1.21 o
5 10 2 12.06 13.32 1.17 o
6 10 2 9.19 9.68 1.09 o
7 10 2 12.33 14.54 1.89 o
0 11 2 14.91 10.39 1.41 o
1 11 2 3.24 2.67 0.68 o
2 11 2 25.04 24.96 1.11 o
3 11 2 14.77 15.48 1.17 o
4 11 2 26.13 29.28 1.56 o
5 11 2 5.97 4.46 0.83 o
0 12 2 9.13 9.23 1.60 o
1 12 2 13.16 17.01 1.58 o
2 12 2 2.09 1.20 0.57 o
3 12 2 8.47 4.01 1.19 o
5 -9 3 7.68 4.62 1.10 o
6 -9 3 20.38 22.29 1.84 o
7 -9 3 1.14 0.78 0.79 o
4 -8 3 1.44 2.56 0.98 o
5 -8 3 34.79 36.44 1.91 o
6 -8 3 2.09 1.78 0.86 o
7 -8 3 19.70 19.82 1.55 o
8 -8 3 5.66 4.64 1.28 o
2 -7 3 49.79 55.73 1.65 o
3 -7 3 224.56 237.66 3.41 o
4 -7 3 18.56 20.74 1.52 o
5 -7 3 82.68 84.48 2.63 o
6 -7 3 27.28 30.06 1.36 o
7 -7 3 0.13 0.89 0.55 o
8 -7 3 32.13 30.55 2.58 o
1 -6 3 166.52 180.96 2.39 o
2 -6 3 1.70 3.15 0.72 o
3 -6 3 90.09 94.08 2.31 o
4 -6 3 19.73 19.44 1.52 o
5 -6 3 60.19 65.54 1.66 o
6 -6 3 12.74 11.50 1.03 o
7 -6 3 38.15 42.83 2.79 o
8 -6 3 8.62 7.41 1.22 o
9 -6 3 16.51 12.56 1.89 o
0 -5 3 142.03 149.16 1.94 o
1 -5 3 75.22 77.97 1.59 o
2 -5 3 133.81 140.25 2.29 o
3 -5 3 62.24 61.01 1.80 o
4 -5 3 81.77 90.76 1.73 o
5 -5 3 46.12 40.18 1.68 o
6 -5 3 50.28 56.86 1.66 o
7 -5 3 12.99 12.96 1.07 o
8 -5 3 36.70 36.91 1.97 o
9 -5 3 1.99 1.12 0.58 o
1 -4 3 318.21 323.75 1.92 o
3 -4 3 121.33 126.51 4.63 o
4 -4 3 115.83 118.26 4.34 o
5 -4 3 76.00 75.16 1.57 o
6 -4 3 8.41 8.29 0.81 o
7 -4 3 75.11 77.77 1.85 o
8 -4 3 14.89 10.47 1.11 o
9 -4 3 35.42 34.80 1.58 o
0 -3 3 165.19 176.36 2.07 o
1 -3 3 149.87 159.59 1.46 o
2 -3 3 247.06 247.79 4.12 o
3 -3 3 205.67 204.89 7.61 o
4 -3 3 263.16 265.51 4.08 o
5 -3 3 25.94 29.61 1.47 o
6 -3 3 86.75 94.60 4.42 o
7 -3 3 70.18 65.33 1.70 o
8 -3 3 25.62 28.09 1.36 o
9 -3 3 4.58 3.62 0.83 o
10 -3 3 22.50 21.40 1.42 o
0 -2 3 430.38 467.87 3.28 o
1 -2 3 175.25 168.02 4.84 o
2 -2 3 167.18 165.20 1.61 o
3 -2 3 175.18 178.45 3.39 o
4 -2 3 64.88 64.52 1.33 o
5 -2 3 120.90 123.26 2.09 o
6 -2 3 59.77 59.15 1.14 o
7 -2 3 63.45 67.31 1.64 o
8 -2 3 26.53 24.91 1.28 o
9 -2 3 30.41 33.03 1.43 o
10 -2 3 2.89 1.35 0.61 o
0 -1 3 351.15 364.08 3.03 o
1 -1 3 45.19 47.86 0.91 o
2 -1 3 252.23 258.96 2.87 o
3 -1 3 227.61 218.13 3.20 o
4 -1 3 204.19 207.63 6.10 o
5 -1 3 49.41 52.31 1.32 o
6 -1 3 103.05 101.18 1.39 o
7 -1 3 28.72 22.20 0.85 o
8 -1 3 46.94 48.84 2.04 o
9 -1 3 3.07 2.54 0.58 o
10 -1 3 14.49 15.60 0.96 o
0 0 3 3332.11 3482.47 51.99 o
1 0 3 24.12 19.51 0.70 o
2 0 3 406.60 426.11 5.48 o
3 0 3 288.09 269.41 2.14 o
4 0 3 0.49 0.41 0.30 o
5 0 3 193.15 195.04 2.16 o
6 0 3 189.49 179.55 2.53 o
7 0 3 26.82 30.43 1.01 o
8 0 3 151.47 146.23 2.20 o
9 0 3 16.99 18.33 0.93 o
10 0 3 0.07 0.70 0.45 o
0 1 3 354.45 357.43 6.60 o
1 1 3 43.74 43.62 1.12 o
2 1 3 249.92 247.45 2.01 o
3 1 3 231.00 216.22 3.54 o
4 1 3 199.83 195.83 2.58 o
5 1 3 50.68 53.81 1.42 o
6 1 3 102.74 104.58 1.83 o
7 1 3 27.81 22.10 0.91 o
8 1 3 47.89 49.64 1.26 o
9 1 3 2.96 2.27 0.70 o
10 1 3 14.30 13.65 0.91 o
0 2 3 432.04 473.20 3.78 o
1 2 3 174.56 162.10 2.45 o
2 2 3 166.53 159.57 1.64 o
3 2 3 176.14 173.69 3.36 o
4 2 3 64.29 60.96 1.03 o
5 2 3 120.47 121.56 2.30 o
6 2 3 60.20 59.03 1.18 o
7 2 3 62.47 63.33 1.31 o
8 2 3 27.00 25.48 0.99 o
9 2 3 30.38 33.49 1.14 o
10 2 3 2.80 1.06 0.43 o
0 3 3 166.84 174.02 2.48 o
1 3 3 149.40 151.27 2.42 o
2 3 3 244.53 229.40 3.59 o
3 3 3 208.83 197.07 5.12 o
4 3 3 259.47 250.02 8.72 o
5 3 3 26.98 28.83 1.08 o
6 3 3 86.20 92.75 2.19 o
7 3 3 69.53 65.07 3.30 o
8 3 3 26.29 28.27 1.27 o
9 3 3 4.50 3.69 0.60 o
10 3 3 22.31 19.92 1.36 o
0 4 3 302.32 296.62 3.06 o
1 4 3 321.38 308.94 5.24 o
2 4 3 19.06 13.94 0.60 o
3 4 3 120.58 118.15 3.98 o
4 4 3 116.79 109.68 2.86 o
5 4 3 74.72 70.46 2.85 o
6 4 3 7.94 9.71 0.71 o
7 4 3 75.75 77.40 2.91 o
8 4 3 14.43 11.38 0.72 o
9 4 3 35.99 34.63 1.89 o
10 4 3 6.47 4.68 1.12 o
0 5 3 142.02 141.09 6.54 o
1 5 3 75.40 72.82 1.35 o
2 5 3 133.71 129.61 4.02 o
3 5 3 61.82 56.96 1.38 o
4 5 3 82.02 84.42 3.00 o
5 5 3 45.75 37.08 1.66 o
6 5 3 50.26 51.22 2.19 o
7 5 3 13.11 11.19 0.72 o
8 5 3 36.45 34.40 1.14 o
9 5 3 2.01 2.10 0.58 o
10 5 3 20.06 17.84 1.73 o
0 6 3 111.01 113.42 6.11 o
1 6 3 168.02 171.93 3.62 o
2 6 3 1.55 2.70 0.59 o
3 6 3 89.62 90.27 3.28 o
4 6 3 20.53 16.73 0.76 o
5 6 3 59.98 62.20 2.97 o
6 6 3 12.23 9.67 0.83 o
7 6 3 38.86 39.46 2.21 o
8 6 3 8.31 9.01 2.13 o
0 7 3 82.13 84.96 2.39 o
1 7 3 25.59 23.02 1.10 o
2 7 3 50.29 55.46 1.20 o
3 7 3 224.17 230.39 7.99 o
4 7 3 19.00 19.43 0.88 o
5 7 3 82.48 77.98 1.82 o
6 7 3 27.27 24.80 1.24 o
7 7 3 0.12 1.07 0.76 o
8 7 3 32.15 29.69 1.50 o
0 8 3 35.19 34.90 1.84 o
1 8 3 76.46 82.26 1.73 o
2 8 3 7.94 5.34 0.61 o
3 8 3 57.27 57.04 1.66 o
4 8 3 1.26 3.40 1.16 o
5 8 3 35.07 35.74 1.47 o
6 8 3 2.22 1.07 0.55 o
7 8 3 19.57 18.60 1.47 o
0 9 3 38.77 38.40 2.02 o
1 9 3 11.49 12.81 1.04 o
2 9 3 26.90 31.57 1.39 o
3 9 3 29.11 23.30 1.30 o
4 9 3 19.64 23.62 1.22 o
5 9 3 7.67 5.01 1.20 o
6 9 3 20.37 20.12 1.27 o
7 9 3 1.05 1.40 0.92 o
0 10 3 38.63 32.19 2.02 o
1 10 3 41.80 42.57 1.60 o
2 10 3 5.45 3.85 0.85 o
3 10 3 31.29 35.15 1.52 o
4 10 3 6.76 6.70 1.60 o
5 10 3 19.33 20.11 1.36 o
0 11 3 23.26 24.19 2.16 o
1 11 3 0.90 0.70 0.46 o
2 11 3 22.72 25.72 2.87 o
3 11 3 6.60 8.68 1.07 o
5 -8 4 21.48 26.52 2.02 o
6 -8 4 13.77 11.59 1.51 o
3 -7 4 0.73 0.71 0.56 o
4 -7 4 47.31 48.05 1.96 o
5 -7 4 0.81 1.05 0.76 o
6 -7 4 17.01 16.02 1.64 o
7 -7 4 2.17 0.66 0.79 o
3 -6 4 50.06 53.15 1.96 o
4 -6 4 2.24 3.23 0.94 o
5 -6 4 35.49 38.39 1.96 o
6 -6 4 13.43 12.73 1.09 o
7 -6 4 45.64 49.09 2.29 o
1 -5 4 214.22 227.18 2.97 o
2 -5 4 137.95 138.99 2.58 o
3 -5 4 0.03 0.56 0.51 o
4 -5 4 60.43 64.87 2.15 o
5 -5 4 6.02 6.75 1.01 o
6 -5 4 59.66 63.88 4.26 o
7 -5 4 55.16 53.74 3.03 o
8 -5 4 41.62 41.87 2.41 o
0 -4 4 51.65 50.24 1.51 o
1 -4 4 139.00 146.66 2.45 o
2 -4 4 108.10 120.44 2.50 o
3 -4 4 199.30 216.02 3.43 o
4 -4 4 112.73 117.56 2.67 o
5 -4 4 101.96 102.61 3.30 o
6 -4 4 8.73 8.96 0.98 o
7 -4 4 28.87 30.78 2.74 o
8 -4 4 3.11 3.65 0.85 o
0 -3 4 356.41 351.14 3.46 o
1 -3 4 200.51 199.81 1.89 o
2 -3 4 216.85 222.95 3.12 o
3 -3 4 47.64 46.20 1.93 o
4 -3 4 108.66 112.96 3.14 o
5 -3 4 24.14 24.12 1.19 o
6 -3 4 105.14 111.18 2.14 o
7 -3 4 38.18 39.73 1.57 o
8 -3 4 55.09 57.96 1.76 o
9 -3 4 8.90 8.20 1.02 o
0 -2 4 6.41 4.57 0.76 o
1 -2 4 165.59 182.87 3.21 o
2 -2 4 145.31 147.09 2.36 o
3 -2 4 265.02 269.20 5.51 o
4 -2 4 293.66 302.79 9.28 o
5 -2 4 146.42 144.48 2.64 o
6 -2 4 1.02 1.40 0.69 o
7 -2 4 41.44 40.96 1.52 o
8 -2 4 3.25 4.25 0.77 o
9 -2 4 20.20 18.49 1.27 o
1 -1 4 1.26 1.55 0.38 o
2 -1 4 240.56 253.87 2.60 o
3 -1 4 223.29 209.99 3.66 o
4 -1 4 282.32 294.77 4.37 o
5 -1 4 59.26 60.05 2.12 o
6 -1 4 83.87 87.16 1.88 o
7 -1 4 4.26 3.47 0.68 o
8 -1 4 25.72 28.49 1.86 o
9 -1 4 5.95 7.99 1.61 o
0 0 4 2.46 3.16 0.44 o
1 0 4 207.50 221.78 2.39 o
2 0 4 0.13 0.55 0.23 o
3 0 4 117.34 126.29 1.69 o
4 0 4 4.81 6.67 0.85 o
5 0 4 116.73 107.90 3.85 o
6 0 4 0.93 0.64 0.46 o
7 0 4 75.92 72.93 1.40 o
8 0 4 0.67 1.12 0.52 o
9 0 4 13.92 12.37 1.07 o
0 1 4 114.80 120.61 1.44 o
1 1 4 1.40 1.69 0.30 o
2 1 4 242.34 256.41 2.38 o
3 1 4 224.45 211.32 3.28 o
4 1 4 284.15 290.07 3.41 o
5 1 4 59.70 57.51 2.00 o
6 1 4 83.40 88.03 1.79 o
7 1 4 4.14 3.68 0.70 o
8 1 4 25.63 27.62 1.08 o
9 1 4 6.00 6.66 0.76 o
0 2 4 6.57 5.87 0.54 o
1 2 4 165.03 174.77 2.29 o
2 2 4 143.59 140.81 2.51 o
3 2 4 258.73 250.31 4.45 o
4 2 4 291.35 292.56 6.25 o
5 2 4 143.23 140.76 3.69 o
6 2 4 0.91 0.75 0.35 o
7 2 4 42.04 42.48 1.94 o
8 2 4 3.39 3.71 0.73 o
9 2 4 20.00 19.35 1.05 o
0 3 4 359.80 350.39 14.72 o
1 3 4 201.97 194.01 3.26 o
2 3 4 220.09 220.80 3.60 o
3 3 4 48.75 45.33 1.09 o
4 3 4 110.32 109.79 2.31 o
5 3 4 24.70 23.35 0.88 o
6 3 4 105.61 104.43 1.57 o
7 3 4 38.36 36.56 1.46 o
8 3 4 55.76 59.06 1.71 o
9 3 4 9.06 6.50 0.75 o
0 4 4 50.48 49.22 1.93 o
1 4 4 136.94 140.48 3.44 o
2 4 4 106.82 110.99 1.97 o
3 4 4 196.91 189.20 7.49 o
4 4 4 111.92 112.92 4.64 o
5 4 4 100.00 99.69 4.23 o
6 4 4 8.39 5.53 0.88 o
7 4 4 28.10 28.68 2.25 o
8 4 4 2.94 2.13 0.63 o
0 5 4 274.29 275.20 4.08 o
1 5 4 216.03 215.54 3.65 o
2 5 4 139.77 134.77 4.79 o
3 5 4 0.03 0.49 0.29 o
4 5 4 59.96 58.82 1.63 o
5 5 4 6.26 5.52 0.90 o
6 5 4 61.02 64.53 1.74 o
7 5 4 55.77 54.72 2.59 o
8 5 4 42.75 40.79 2.47 o
0 6 4 79.56 75.70 1.71 o
1 6 4 126.70 123.00 1.95 o
2 6 4 8.60 7.14 0.65 o
3 6 4 50.80 48.70 1.95 o
4 6 4 2.19 2.89 0.59 o
5 6 4 35.51 35.96 1.41 o
6 6 4 13.22 12.99 1.14 o
7 6 4 45.07 42.93 2.56 o
0 7 4 48.71 52.99 1.57 o
1 7 4 0.64 0.44 0.43 o
2 7 4 59.30 55.73 1.70 o
3 7 4 0.68 0.64 0.32 o
4 7 4 47.15 48.35 2.21 o
5 7 4 0.86 1.46 0.71 o
6 7 4 17.23 13.57 1.61 o
7 7 4 2.24 1.32 0.96 o
0 8 4 41.78 43.50 2.17 o
1 8 4 76.23 73.74 1.92 o
2 8 4 2.19 2.24 0.60 o
3 8 4 23.91 25.79 1.32 o
4 8 4 0.60 0.46 0.34 o
5 8 4 21.87 23.37 1.93 o
6 8 4 13.88 11.46 1.37 o
0 9 4 44.42 47.55 2.41 o
1 9 4 42.96 48.53 2.91 o
2 9 4 26.71 29.05 1.46 o
3 9 4 2.99 3.75 0.75 o
4 9 4 16.67 17.02 1.20 o
5 9 4 2.35 3.00 1.60 o
0 10 4 14.86 9.56 1.62 o
1 10 4 32.02 34.39 2.74 o
2 10 4 15.60 13.99 1.55 o
3 10 4 34.79 34.58 2.14 o
4 10 4 14.74 16.00 1.55 o
5 -7 5 11.09 10.50 1.56 o
4 -6 5 2.49 2.16 1.06 o
5 -6 5 6.92 7.71 1.52 o
6 -6 5 7.95 7.38 1.41 o
2 -5 5 23.43 23.21 1.46 o
3 -5 5 22.81 20.95 1.52 o
4 -5 5 12.78 11.98 1.46 o
5 -5 5 13.41 9.95 1.47 o
6 -5 5 10.36 11.80 1.59 o
1 -4 5 52.08 53.79 1.78 o
2 -4 5 33.51 37.00 1.72 o
3 -4 5 16.33 14.52 1.37 o
5 -4 5 20.52 19.67 1.68 o
6 -4 5 27.05 27.66 1.42 o
7 -4 5 21.07 20.65 1.60 o
0 -3 5 11.81 14.00 1.19 o
1 -3 5 24.67 27.77 1.53 o
2 -3 5 28.09 31.40 1.61 o
3 -3 5 77.93 84.54 2.55 o
4 -3 5 36.13 32.59 2.13 o
6 -3 5 6.62 6.17 1.30 o
7 -3 5 4.02 3.68 0.78 o
0 -2 5 42.50 45.09 1.80 o
1 -2 5 25.90 29.88 1.07 o
2 -2 5 63.12 64.85 1.78 o
3 -2 5 33.41 39.63 1.84 o
4 -2 5 62.06 62.11 2.38 o
5 -2 5 28.51 28.08 1.46 o
6 -2 5 19.31 18.85 1.21 o
7 -2 5 10.04 11.17 1.05 o
8 -2 5 11.22 9.38 1.42 o
0 -1 5 2.57 3.20 0.78 o
1 -1 5 7.27 5.26 0.64 o
2 -1 5 10.41 11.56 0.82 o
3 -1 5 39.83 39.69 2.76 o
4 -1 5 27.36 27.79 1.90 o
5 -1 5 17.39 13.78 1.23 o
6 -1 5 20.27 18.55 1.68 o
7 -1 5 3.46 3.16 0.74 o
8 -1 5 3.51 2.57 0.64 o
0 0 5 11.65 12.84 1.05 o
1 0 5 11.84 16.27 0.96 o
2 0 5 74.00 76.68 1.57 o
3 0 5 46.04 55.34 1.46 o
4 0 5 104.22 101.28 6.04 o
5 0 5 20.07 17.47 1.05 o
6 0 5 8.21 7.39 0.86 o
7 0 5 2.69 2.04 0.60 o
8 0 5 6.93 7.87 1.39 o
0 1 5 2.76 3.02 0.76 o
1 1 5 7.15 5.25 0.65 o
2 1 5 9.61 10.56 0.65 o
3 1 5 38.42 36.03 1.11 o
4 1 5 26.33 25.20 1.04 o
5 1 5 16.96 12.86 1.32 o
6 1 5 20.38 18.26 1.11 o
7 1 5 3.71 4.14 0.88 o
8 1 5 3.47 2.95 1.02 o
0 2 5 43.50 42.25 2.02 o
1 2 5 26.75 30.21 0.93 o
2 2 5 63.72 65.91 1.24 o
3 2 5 34.01 36.61 1.86 o
4 2 5 62.31 65.44 2.32 o
5 2 5 28.16 28.18 1.01 o
6 2 5 19.29 18.07 1.53 o
7 2 5 10.06 10.87 1.54 o
8 2 5 11.48 10.12 0.97 o
0 3 5 12.17 12.47 1.28 o
1 3 5 24.44 26.04 1.81 o
2 3 5 27.21 29.64 1.07 o
3 3 5 76.11 81.14 2.93 o
4 3 5 34.54 29.88 1.29 o
5 3 5 20.51 15.38 1.10 o
6 3 5 6.30 5.84 1.61 o
7 3 5 4.26 4.02 1.14 o
0 4 5 95.46 99.43 3.13 o
1 4 5 53.52 54.84 1.22 o
2 4 5 34.24 36.37 1.88 o
3 4 5 16.38 14.35 1.34 o
4 4 5 14.82 15.15 1.11 o
5 4 5 20.75 19.09 1.29 o
6 4 5 27.66 27.35 1.96 o
7 4 5 21.64 20.45 2.12 o
0 5 5 31.90 29.61 1.36 o
1 5 5 41.83 38.43 1.03 o
2 5 5 23.57 22.49 1.18 o
3 5 5 22.43 21.09 1.17 o
4 5 5 12.59 11.20 0.99 o
5 5 5 13.12 10.31 1.08 o
6 5 5 9.86 8.20 1.00 o
7 5 5 13.57 10.13 1.49 o
0 6 5 26.99 26.81 1.32 o
1 6 5 23.63 23.81 0.94 o
2 6 5 9.93 9.22 1.04 o
3 6 5 16.01 14.67 1.39 o
4 6 5 2.52 2.63 0.66 o
5 6 5 7.10 8.33 1.01 o
6 6 5 8.44 8.24 1.13 o
0 7 5 44.94 44.28 2.05 o
1 7 5 29.94 25.65 1.19 o
2 7 5 15.95 11.40 2.17 o
3 7 5 5.25 3.12 0.93 o
4 7 5 4.85 5.37 0.85 o
5 7 5 11.07 8.78 1.43 o
6 7 5 12.61 15.54 1.76 o
0 8 5 12.98 13.28 1.50 o
1 8 5 8.12 10.56 0.85 o
2 8 5 3.74 3.42 0.63 o
3 8 5 7.39 9.37 1.10 o
4 8 5 0.30 0.57 0.42 o
0 9 5 22.27 21.96 1.80 o
1 9 5 14.84 13.55 1.14 o
2 9 5 17.12 15.91 1.21 o
3 9 5 8.13 6.57 1.36 o
2 -4 6 33.78 34.39 1.98 o
4 -4 6 8.00 7.87 1.46 o
5 -4 6 1.80 1.04 0.55 o
2 -3 6 20.37 17.95 1.77 o
3 -3 6 59.96 63.72 2.64 o
4 -3 6 34.32 37.64 2.04 o
0 -2 6 28.50 26.73 1.74 o
1 -2 6 18.45 18.25 1.56 o
2 -2 6 38.92 41.38 2.26 o
3 -2 6 24.20 24.74 1.79 o
4 -2 6 38.61 40.00 2.26 o
5 -2 6 16.23 18.00 1.79 o
0 -1 6 6.51 6.11 1.15 o
1 -1 6 4.68 5.55 0.90 o
2 -1 6 7.78 7.76 0.83 o
3 -1 6 19.82 18.87 1.66 o
4 -1 6 12.47 8.68 1.47 o
5 -1 6 8.97 7.59 1.48 o
0 0 6 2.55 1.51 0.65 o
1 0 6 4.35 2.93 0.69 o
2 0 6 32.16 33.67 2.26 o
3 0 6 39.09 38.64 1.44 o
4 0 6 63.97 67.80 2.61 o
5 0 6 37.53 45.51 2.59 o
0 1 6 6.52 6.48 1.17 o
1 1 6 4.22 4.73 1.09 o
2 1 6 7.37 6.42 0.88 o
3 1 6 18.11 17.99 1.36 o
4 1 6 11.70 10.55 1.48 o
5 1 6 7.92 6.14 1.53 o
0 2 6 29.94 26.70 1.79 o
1 2 6 18.96 17.27 1.39 o
2 2 6 40.49 40.70 1.57 o
3 2 6 24.81 24.20 1.81 o
4 2 6 40.18 38.35 2.17 o
5 2 6 16.65 17.45 1.83 o
0 3 6 6.86 5.82 1.31 o
1 3 6 14.81 11.84 1.06 o
2 3 6 19.49 19.82 1.33 o
3 3 6 57.33 60.14 2.54 o
4 3 6 33.34 34.68 1.57 o
5 3 6 27.92 31.39 1.46 o
0 4 6 85.00 88.91 2.91 o
1 4 6 36.86 38.88 1.70 o
2 4 6 35.65 35.37 1.63 o
3 4 6 8.12 6.69 1.00 o
4 4 6 8.83 7.59 1.02 o
5 4 6 1.92 1.47 0.75 o
0 5 6 18.66 18.80 1.88 o
1 5 6 31.23 29.64 1.46 o
2 5 6 17.59 18.84 1.85 o
3 5 6 22.67 21.12 1.59 o
4 5 6 10.29 8.20 0.96 o
0 6 6 27.84 28.78 2.00 o
1 6 6 11.37 7.06 1.47 o
2 6 6 10.04 10.33 1.20 o
3 6 6 1.93 1.74 0.60 o
2 7 6 7.57 8.44 1.40 o
1 -2 7 0.86 0.95 0.58 o
2 -2 7 39.52 41.24 2.33 o
0 -1 7 0.53 0.81 0.71 o
1 -1 7 19.20 18.53 1.84 o
2 -1 7 4.37 4.23 1.07 o
0 0 7 50.22 55.66 2.47 o
1 0 7 4.66 4.08 0.82 o
2 0 7 29.07 26.33 2.11 o
0 1 7 0.54 0.91 0.72 o
1 1 7 19.40 18.04 1.38 o
2 1 7 4.43 1.22 0.68 o
0 2 7 21.92 19.69 2.00 o
1 2 7 0.83 0.55 0.71 o
2 2 7 38.21 39.22 2.36 o
