#------------------------------------------------------------------------------
#$Date: 2016-03-24 14:07:12 +0200 (Thu, 24 Mar 2016) $
#$Revision: 179652 $
#$URL: svn://www.crystallography.net/cod/cif/4/51/05/4510545.cif $
#------------------------------------------------------------------------------
#
# This file is available in the Crystallography Open Database (COD),
# http://www.crystallography.net/
#
# All data on this site have been placed in the public domain by the
# contributors.
#
data_4510545
loop_
_publ_author_name
'Mazur, Liliana'
'Jarzembska, Katarzyna N.'
'Kami\'nski, Rados\/law'
'Wo\'zniak, Krzysztof'
'Pindelska, Edyta'
'Zieli\'nska-Pisklak, Monika'
_publ_section_title
;
 Substituent and Solvent Effects on Intermolecular Interactions in
 Crystals ofN-Acylhydrazone Derivatives: Single-Crystal X-ray, Solid-State
 NMR, and Computational Studies
;
_journal_issue                   5
_journal_name_full               'Crystal Growth &amp; Design'
_journal_page_first              2263
_journal_paper_doi               10.1021/cg401866x
_journal_volume                  14
_journal_year                    2014
_chemical_formula_moiety         'C7 H7 N3 O'
_chemical_formula_sum            'C7 H7 N3 O'
_chemical_formula_weight         149.16
_space_group_IT_number           14
_symmetry_cell_setting           monoclinic
_symmetry_Int_Tables_number      14
_symmetry_space_group_name_Hall  '-P 2ybc'
_symmetry_space_group_name_H-M   'P 1 21/c 1'
_cell_angle_alpha                90.00
_cell_angle_beta                 95.509(9)
_cell_angle_gamma                90.00
_cell_formula_units_Z            4
_cell_length_a                   9.5229(9)
_cell_length_b                   4.6958(5)
_cell_length_c                   16.170(2)
_cell_measurement_temperature    100
_cell_volume                     719.74(14)
_diffrn_ambient_temperature      100
_diffrn_measured_fraction_theta_full 0.989
_diffrn_measured_fraction_theta_max 0.974
_diffrn_measurement_device_type  'Xcalibur, Sapphire2, large Be window'
_diffrn_measurement_method       \w-scans
_diffrn_radiation_monochromator  graphite
_diffrn_radiation_source         'Enhance (Mo) X-ray Source'
_diffrn_radiation_type           Mo-K\a
_diffrn_radiation_wavelength     0.71073
_diffrn_reflns_av_R_equivalents  0.0275
_diffrn_reflns_limit_h_max       12
_diffrn_reflns_limit_h_min       -11
_diffrn_reflns_limit_k_max       6
_diffrn_reflns_limit_k_min       -6
_diffrn_reflns_limit_l_max       22
_diffrn_reflns_limit_l_min       -22
_diffrn_reflns_number            5730
_diffrn_reflns_theta_full        29.36
_diffrn_reflns_theta_max         29.834
_diffrn_reflns_theta_min         3.475
_exptl_absorpt_coefficient_mu    0.098
_exptl_absorpt_correction_T_max  1.000
_exptl_absorpt_correction_T_min  0.87748
_exptl_absorpt_correction_type   multi-scan
_exptl_absorpt_process_details
;
 Agilent Technologies (2013). CRYSALIS PRO.
  Yarnton, Oxfordshire, England, UK
;
_exptl_crystal_colour            colourless
_exptl_crystal_density_diffrn    1.377
_exptl_crystal_description       needle
_exptl_crystal_F_000             312
_exptl_crystal_size_max          0.54
_exptl_crystal_size_mid          0.15
_exptl_crystal_size_min          0.12
_refine_diff_density_max         0.22
_refine_diff_density_min         -0.19
_refine_ls_extinction_method     none
_refine_ls_goodness_of_fit_ref   1.574
_refine_ls_hydrogen_treatment    mixed
_refine_ls_number_parameters     128
_refine_ls_number_reflns         1446
_refine_ls_number_restraints     14
_refine_ls_R_factor_all          0.0314
_refine_ls_R_factor_gt           0.0314
_refine_ls_shift/su_max          0.000
_refine_ls_shift/su_mean         0.000
_refine_ls_structure_factor_coef F
_refine_ls_weighting_scheme      sigma
_refine_ls_wR_factor_gt          0.0360
_refine_ls_wR_factor_ref         0.0360
_reflns_number_gt                1446
_reflns_number_total             2021
_reflns_threshold_expression     I>3\s(I)
_iucr_refine_instructions_details
;
 Structure refined in MOPRO program. Aspherical strucure factors
 were used from the UBDB.
;
_cod_data_source_file            cg401866x_si_002.cif
_cod_data_source_block           1
_cod_depositor_comments
'Adding full bibliography for 4510538--4510545.cif.'
_cod_original_cell_volume        719.7(1)
_cod_original_sg_symbol_H-M      'P 21/c'
_cod_database_code               4510545
loop_
_symmetry_equiv_pos_as_xyz
'x, y, z'
'-x, y+1/2, -z+1/2'
'-x, -y, -z'
'x, -y-1/2, z-1/2'
loop_
_atom_site_type_symbol
_atom_site_label
_atom_site_fract_x
_atom_site_fract_y
_atom_site_fract_z
_atom_site_U_iso_or_equiv
_atom_site_adp_type
_atom_site_occupancy
_atom_site_calc_flag
_atom_site_refinement_flag_posn
C C1 0.6621(1) 1.0577(3) 0.42448(7) 0.0197(3) Uani 1 d .
C C2 0.4433(1) 0.5158(2) 0.33993(7) 0.0185(3) Uani 1 d .
C C3 0.3125(1) 0.3565(2) 0.34735(6) 0.0168(3) Uani 1 d .
C C4 0.2323(1) 0.3793(3) 0.41511(7) 0.0199(3) Uani 1 d .
C C5 0.1098(1) 0.2175(3) 0.41480(7) 0.0219(3) Uani 1 d .
C C6 0.0718(1) 0.0359(3) 0.34800(7) 0.0217(3) Uani 1 d .
C C7 0.1579(1) 0.0264(3) 0.28315(7) 0.0208(3) Uani 1 d .
N N1 0.61117(9) 0.8396(2) 0.37558(6) 0.0188(3) Uani 1 d .
N N2 0.48856(9) 0.7086(2) 0.39255(6) 0.0178(3) Uani 1 d .
N N3 0.27513(9) 0.1842(2) 0.28218(6) 0.0187(3) Uani 1 d .
O O1 0.76747(8) 1.1937(2) 0.41149(5) 0.0237(3) Uani 1 d .
H H1N 0.662(1) 0.782(3) 0.3248(4) 0.0285(4) Uiso 1 d U
H H1 0.6027(9) 1.105(3) 0.4766(4) 0.0240(4) Uiso 1 d U
H H7 0.134(1) -0.106(2) 0.2288(4) 0.0252(4) Uiso 1 d U
H H2 0.5008(9) 0.468(3) 0.2870(4) 0.0226(4) Uiso 1 d U
H H4 0.264(1) 0.519(2) 0.4668(4) 0.0244(4) Uiso 1 d U
H H5 0.0441(9) 0.230(3) 0.4657(4) 0.0270(4) Uiso 1 d U
H H6 -0.0215(7) -0.097(2) 0.3443(8) 0.0265(4) Uiso 1 d U
loop_
_atom_site_aniso_label
_atom_site_aniso_U_11
_atom_site_aniso_U_22
_atom_site_aniso_U_33
_atom_site_aniso_U_12
_atom_site_aniso_U_13
_atom_site_aniso_U_23
C1 0.0178(5) 0.0240(6) 0.0180(5) -0.0011(4) 0.0055(4) -0.0014(4)
C2 0.0162(5) 0.0214(6) 0.0186(5) -0.0019(4) 0.0053(4) -0.0005(4)
C3 0.0152(5) 0.0191(6) 0.0165(5) -0.00027(40) 0.0040(4) 0.0009(4)
C4 0.0194(5) 0.0228(6) 0.0185(5) -0.0019(4) 0.0063(4) -0.0006(4)
C5 0.0192(5) 0.0264(6) 0.0212(5) -0.0021(4) 0.0078(4) 0.0011(4)
C6 0.0167(5) 0.0240(6) 0.0247(6) -0.0032(4) 0.0044(4) 0.0005(5)
C7 0.0180(5) 0.0234(6) 0.0211(5) -0.0027(4) 0.0030(4) -0.0015(4)
N1 0.0171(4) 0.0218(5) 0.0180(4) -0.0015(4) 0.0045(3) -0.0008(4)
N2 0.0173(4) 0.0202(5) 0.0165(4) -0.0008(3) 0.0050(3) -0.00032(36)
N3 0.0175(4) 0.0214(5) 0.0176(4) -0.0004(4) 0.0040(3) -0.0004(4)
O1 0.0195(4) 0.0273(5) 0.0251(4) -0.0055(3) 0.0063(3) -0.0033(3)
loop_
_atom_type_symbol
_atom_type_description
_atom_type_scat_dispersion_real
_atom_type_scat_dispersion_imag
_atom_type_scat_source
C C 0.0030 0.0020 'Su & Coppens, Acta. Cryst. (1997) A53, 749'
H H 0.0000 0.0000 'Su & Coppens, Acta. Cryst. (1997) A53, 749'
N N 0.0060 0.0030 'Su & Coppens, Acta. Cryst. (1997) A53, 749'
O O 0.0110 0.0060 'Su & Coppens, Acta. Cryst. (1997) A53, 749'
loop_
_geom_angle_atom_site_label_1
_geom_angle_atom_site_label_2
_geom_angle_atom_site_label_3
_geom_angle
C1 N1 N2 119.1(1)
C1 N1 H1N 119.9(7)
C2 N2 N1 114.88(9)
C2 C3 N3 113.8(1)
C2 C3 C4 123.8(1)
C3 N3 C7 118.7(1)
C3 C2 N2 122.5(1)
C3 C2 H2 117.2(6)
C3 C4 C5 118.4(1)
C3 C4 H4 121.3(7)
C4 C3 N3 122.4(1)
C4 C5 C6 119.4(1)
C4 C5 H5 120.9(6)
C5 C4 H4 120.3(7)
C5 C6 C7 118.3(1)
C5 C6 H6 123.0(7)
C6 C7 N3 122.8(1)
C6 C7 H7 122.5(7)
C6 C5 H5 119.7(6)
C7 C6 H6 118.6(7)
N1 C1 O1 123.2(1)
N1 C1 H1 115.2(7)
N2 N1 H1N 120.9(7)
N2 C2 H2 120.3(6)
N3 C7 H7 114.7(7)
O1 C1 H1 121.6(7)
loop_
_geom_bond_atom_site_label_1
_geom_bond_atom_site_label_2
_geom_bond_distance
C1 O1 1.225(1)
C1 N1 1.355(1)
C2 N2 1.288(1)
C2 C3 1.468(1)
C3 N3 1.349(1)
C3 C4 1.398(1)
C4 C5 1.392(2)
C5 C6 1.396(2)
C6 C7 1.392(2)
C7 N3 1.341(1)
N1 N2 1.371(1)
loop_
_geom_torsion_atom_site_label_1
_geom_torsion_atom_site_label_2
_geom_torsion_atom_site_label_3
_geom_torsion_atom_site_label_4
_geom_torsion
C1 N1 N2 C2 175.84(10)
C2 N2 N1 H1N -0.9(7)
C2 C3 N3 C7 179.3(1)
C2 C3 C4 C5 179.80(10)
C2 C3 C4 H4 -0.09(62)
C3 N3 C7 C6 0.99(10)
C3 N3 C7 H7 179.7(3)
C3 C2 N2 N1 -178.99(9)
C3 C4 C5 C6 0.87(10)
C3 C4 C5 H5 -179.5(2)
C4 C3 N3 C7 -0.9(1)
C4 C3 C2 N2 -6.01(10)
C4 C3 C2 H2 175.2(4)
C4 C5 C6 C7 -0.8(1)
C4 C5 C6 H6 179.4(2)
C5 C4 C3 N3 0.020(97)
C5 C6 C7 N3 -0.1(1)
C5 C6 C7 H7 -178.8(3)
C6 C5 C4 H4 -179.2(2)
C7 C6 C5 H5 179.5(2)
N1 N2 C2 H2 -0.25(61)
N2 N1 C1 O1 -176.8(1)
N2 N1 C1 H1 3.1(6)
N2 C2 C3 N3 173.78(9)
N3 C3 C2 H2 -5.0(6)
N3 C3 C4 H4 -179.9(2)
N3 C7 C6 H6 179.6(3)
O1 C1 N1 H1N -0.09(67)
H1N N1 C1 H1 179.8(8)
H7 C7 C6 H6 1.0(8)
H4 C4 C5 H5 0.40(79)
H5 C5 C6 H6 -0.20(81)
loop_
_refln_index_h
_refln_index_k
_refln_index_l
_refln_F_squared_calc
_refln_F_squared_meas
_refln_F_squared_sigma
_refln_observed_status
-12 0 4 7.716 12.708 3.196 o
-12 0 6 45.235 38.689 4.333 o
-12 1 1 11.573 10.553 1.941 o
-12 1 3 78.068 70.830 4.640 o
-12 1 4 8.384 7.083 2.086 o
-12 1 6 120.081 114.445 5.722 o
-12 1 7 24.662 18.782 2.551 o
-12 1 10 80.300 76.526 7.304 o
-12 2 1 38.793 32.238 5.431 o
-12 2 4 19.837 13.323 2.465 o
-12 2 7 55.364 47.643 5.504 o
-12 2 8 127.252 103.915 6.304 o
-11 0 2 59.457 63.463 4.366 o
-11 0 4 11.748 11.671 3.473 o
-11 0 6 56.255 54.107 4.587 o
-11 0 8 96.625 93.322 5.891 o
-11 0 10 23.483 17.330 4.242 o
-11 0 12 160.264 157.567 10.688 o
-11 1 1 32.641 32.401 2.061 o
-11 1 3 40.723 37.641 10.407 o
-11 1 4 69.122 69.530 3.245 o
-11 1 5 36.586 37.230 2.476 o
-11 1 8 19.202 18.027 2.298 o
-11 1 9 103.409 102.770 5.286 o
-11 1 10 76.350 75.067 6.570 o
-11 1 11 29.428 27.873 2.497 o
-11 2 1 138.208 149.045 8.677 o
-11 2 2 144.448 139.204 6.014 o
-11 2 4 173.483 168.905 6.658 o
-11 2 5 143.812 138.804 4.916 o
-11 2 7 7.304 6.594 1.575 o
-11 2 9 57.713 49.657 2.967 o
-11 2 12 12.803 9.895 2.513 o
-11 3 1 14.668 12.999 2.104 o
-11 3 2 12.343 11.911 2.220 o
-11 3 9 23.744 20.847 5.098 o
-10 0 2 53.103 54.224 4.200 o
-10 0 4 81.611 75.288 4.696 o
-10 0 6 63.288 55.590 4.524 o
-10 0 10 41.367 37.265 4.194 o
-10 0 12 69.661 65.800 5.405 o
-10 0 14 19.922 14.499 4.285 o
-10 0 16 23.337 25.330 5.430 o
-10 1 1 125.407 119.995 4.050 o
-10 1 3 7.928 8.024 1.509 o
-10 1 4 69.209 67.053 4.356 o
-10 1 6 31.807 28.506 4.434 o
-10 1 7 88.745 84.064 7.013 o
-10 1 8 36.395 36.243 2.814 o
-10 1 9 44.194 42.179 2.683 o
-10 1 10 31.176 30.788 2.418 o
-10 1 11 62.271 62.703 2.654 o
-10 1 13 7.092 8.254 1.533 o
-10 1 15 138.642 136.036 8.141 o
-10 2 1 319.376 323.018 10.546 o
-10 2 2 12.499 12.627 1.773 o
-10 2 3 64.833 62.805 3.202 o
-10 2 4 28.379 27.677 1.641 o
-10 2 5 144.164 145.356 4.592 o
-10 2 8 35.982 33.852 2.209 o
-10 2 9 84.694 79.767 3.153 o
-10 2 10 4.748 5.136 1.392 o
-10 2 11 8.870 9.246 2.070 o
-10 2 12 67.146 63.053 3.529 o
-10 2 14 15.755 14.885 2.780 o
-10 3 5 23.844 28.462 2.447 o
-10 3 6 18.211 16.231 2.153 o
-10 3 7 50.622 44.609 6.750 o
-10 3 10 17.071 14.784 2.704 o
-10 4 2 138.669 139.117 8.705 o
-10 4 3 27.013 24.855 3.916 o
-9 0 2 500.092 545.356 20.194 o
-9 0 4 187.985 189.493 7.321 o
-9 0 6 190.464 203.942 8.092 o
-9 0 8 37.174 33.274 3.947 o
-9 0 10 71.767 70.336 5.245 o
-9 0 12 560.251 551.917 29.019 o
-9 0 14 83.000 72.416 5.871 o
-9 1 1 5.595 13.929 1.572 o
-9 1 2 332.788 380.711 20.846 o
-9 1 3 497.302 550.038 17.240 o
-9 1 4 722.375 783.019 21.981 o
-9 1 5 93.900 101.901 4.798 o
-9 1 6 209.973 216.827 6.978 o
-9 1 7 91.239 89.604 4.062 o
-9 1 8 167.490 170.113 5.779 o
-9 1 9 11.984 12.554 1.183 o
-9 1 10 63.864 61.476 2.958 o
-9 1 11 50.843 46.321 3.196 o
-9 1 12 21.691 20.062 1.593 o
-9 1 14 32.546 34.607 2.143 o
-9 1 15 18.643 20.391 2.382 o
-9 1 16 51.134 49.838 3.562 o
-9 1 17 23.188 18.118 3.513 o
-9 2 1 10.672 8.860 1.094 o
-9 2 3 24.511 25.044 1.815 o
-9 2 4 13.348 12.546 1.494 o
-9 2 5 7.817 6.687 1.103 o
-9 2 7 3.798 4.458 0.981 o
-9 2 8 38.550 36.826 1.949 o
-9 2 11 40.073 36.446 1.889 o
-9 2 12 10.561 11.883 1.454 o
-9 2 14 12.688 11.609 2.130 o
-9 2 15 36.221 39.730 2.994 o
-9 3 5 25.053 23.300 1.875 o
-9 3 6 10.542 9.998 1.703 o
-9 3 7 38.119 38.809 2.550 o
-9 3 9 111.756 106.444 4.508 o
-9 3 10 31.522 31.062 2.254 o
-9 3 11 172.578 164.659 6.400 o
-9 3 13 38.914 38.241 4.006 o
-9 3 14 29.841 18.977 3.378 o
-8 0 2 238.736 261.284 9.171 o
-8 0 6 2552.604 2712.034 97.482 o
-8 0 8 308.742 313.486 11.627 o
-8 0 10 536.625 538.857 22.479 o
-8 0 14 102.338 103.929 6.487 o
-8 1 1 91.168 94.982 3.415 o
-8 1 2 94.611 95.385 3.486 o
-8 1 3 51.516 53.665 1.924 o
-8 1 4 24.589 24.032 1.340 o
-8 1 5 92.823 91.938 2.736 o
-8 1 6 30.355 29.105 1.435 o
-8 1 7 114.697 114.315 3.281 o
-8 1 8 42.123 42.051 1.793 o
-8 1 9 101.738 99.534 3.898 o
-8 1 10 21.765 19.962 1.288 o
-8 1 12 47.643 50.161 2.481 o
-8 1 14 82.433 79.930 4.240 o
-8 1 15 163.901 162.258 11.030 o
-8 1 16 25.035 30.269 2.678 o
-8 1 17 9.963 10.694 2.309 o
-8 1 18 32.163 33.584 5.324 o
-8 2 1 93.538 88.704 6.065 o
-8 2 2 7.555 6.466 1.116 o
-8 2 3 19.524 18.766 1.336 o
-8 2 4 62.757 61.026 2.033 o
-8 2 5 11.000 11.080 1.031 o
-8 2 6 13.618 13.250 1.135 o
-8 2 7 118.066 115.708 4.035 o
-8 2 8 38.442 37.271 1.565 o
-8 2 9 20.072 17.141 1.222 o
-8 2 10 8.906 7.951 1.087 o
-8 2 12 74.476 71.300 2.923 o
-8 2 13 78.682 72.410 2.957 o
-8 2 15 32.998 30.664 3.713 o
-8 2 16 40.186 40.584 3.893 o
-8 2 17 78.060 73.523 5.353 o
-8 3 1 18.048 17.572 1.381 o
-8 3 2 9.922 8.835 1.430 o
-8 3 3 46.846 42.121 3.316 o
-8 3 5 15.463 15.283 1.597 o
-8 3 7 16.981 19.086 1.507 o
-8 3 8 22.868 20.822 1.626 o
-8 3 9 19.018 17.974 1.614 o
-8 3 11 26.675 24.238 3.318 o
-8 3 12 33.170 34.186 2.583 o
-8 4 1 62.837 52.742 3.935 o
-8 4 6 25.370 29.025 4.047 o
-8 4 11 78.606 69.694 14.374 o
-8 5 2 13.555 9.854 2.314 o
-7 0 2 1509.308 1622.918 61.358 o
-7 0 4 1470.624 1653.037 63.718 o
-7 0 6 1031.149 1124.670 45.067 o
-7 0 8 143.052 124.785 12.221 o
-7 0 10 504.119 502.261 30.952 o
-7 0 12 127.349 126.555 10.504 o
-7 0 14 101.580 105.622 5.871 o
-7 0 16 17.226 14.979 5.001 o
-7 0 18 213.644 237.623 10.626 o
-7 1 1 34.576 34.422 1.379 o
-7 1 3 50.296 55.024 2.068 o
-7 1 4 13.240 13.138 1.224 o
-7 1 6 155.511 147.785 5.008 o
-7 1 7 57.683 58.156 2.928 o
-7 1 8 60.232 59.477 2.497 o
-7 1 9 292.747 298.824 8.669 o
-7 1 10 25.942 21.806 1.545 o
-7 1 11 165.161 168.392 5.599 o
-7 1 12 16.841 15.756 1.284 o
-7 1 13 30.588 28.268 1.516 o
-7 1 14 21.831 18.250 2.484 o
-7 1 15 26.017 24.045 1.599 o
-7 1 16 112.505 126.487 8.267 o
-7 1 20 232.993 208.542 16.583 o
-7 2 1 12.174 11.230 0.991 o
-7 2 2 43.424 40.508 1.584 o
-7 2 3 5.008 5.021 0.846 o
-7 2 4 26.625 23.663 1.869 o
-7 2 5 22.963 21.879 1.278 o
-7 2 6 147.903 150.303 4.747 o
-7 2 7 41.027 40.474 1.661 o
-7 2 8 6.123 6.177 1.071 o
-7 2 10 35.864 33.120 1.859 o
-7 2 11 170.570 173.299 5.169 o
-7 2 12 18.500 17.834 1.648 o
-7 2 13 28.463 28.156 2.109 o
-7 2 14 150.419 144.713 7.641 o
-7 2 15 9.963 7.243 1.792 o
-7 2 16 7.368 7.391 1.970 o
-7 2 17 7.221 8.393 2.785 o
-7 2 18 71.099 63.742 5.942 o
-7 3 1 31.391 25.862 2.585 o
-7 3 2 199.005 205.478 15.020 o
-7 3 3 241.905 242.110 6.615 o
-7 3 5 4.502 5.042 1.493 o
-7 3 6 38.257 34.101 1.961 o
-7 3 7 23.534 23.218 1.575 o
-7 3 8 19.655 21.527 1.650 o
-7 3 10 13.442 12.783 2.406 o
-7 3 12 6.842 7.508 1.580 o
-7 3 14 20.496 17.126 2.890 o
-7 3 16 14.609 14.608 2.519 o
-7 3 17 54.383 55.589 7.651 o
-7 4 5 15.158 13.879 2.516 o
-7 4 6 41.897 42.662 3.012 o
-7 4 10 11.746 12.753 2.585 o
-7 4 13 48.002 51.305 4.543 o
-7 5 2 36.965 38.290 4.098 o
-7 5 4 30.369 26.591 4.032 o
-7 5 7 23.796 25.620 4.678 o
-7 5 9 35.805 34.117 5.712 o
-6 0 2 1163.563 1253.430 89.341 o
-6 0 4 40.179 36.427 3.918 o
-6 0 6 32.109 31.973 2.360 o
-6 0 8 124.703 118.726 17.702 o
-6 0 10 46.199 44.524 3.965 o
-6 0 12 115.060 102.700 16.185 o
-6 0 14 27.570 24.579 3.857 o
-6 0 16 36.530 34.769 3.824 o
-6 0 18 15.324 16.547 5.118 o
-6 0 20 35.682 37.738 3.897 o
-6 1 1 14.469 12.105 0.948 o
-6 1 2 196.194 198.969 6.945 o
-6 1 3 123.287 123.149 5.884 o
-6 1 4 482.560 469.318 13.617 o
-6 1 5 352.323 359.589 9.412 o
-6 1 6 56.709 56.489 2.907 o
-6 1 7 907.457 912.179 24.781 o
-6 1 8 1021.512 1107.169 34.795 o
-6 1 9 137.715 137.962 5.873 o
-6 1 11 207.430 207.499 6.567 o
-6 1 12 306.552 313.204 8.600 o
-6 1 13 6.436 5.293 1.153 o
-6 1 14 324.261 328.904 13.108 o
-6 1 16 144.466 155.503 9.285 o
-6 1 17 31.651 29.888 3.698 o
-6 1 18 69.847 68.891 3.542 o
-6 2 1 65.604 56.525 2.658 o
-6 2 2 174.092 165.733 5.160 o
-6 2 3 10.223 8.124 1.143 o
-6 2 4 8.408 7.729 1.174 o
-6 2 5 64.522 64.100 2.216 o
-6 2 6 207.469 215.088 5.848 o
-6 2 7 138.661 138.610 4.071 o
-6 2 8 28.355 25.119 1.642 o
-6 2 9 133.693 128.599 3.772 o
-6 2 10 86.061 85.084 4.823 o
-6 2 11 13.247 12.031 1.154 o
-6 2 12 11.381 9.616 1.158 o
-6 2 13 39.721 39.760 1.790 o
-6 2 14 64.111 64.615 4.090 o
-6 2 16 13.514 11.549 1.825 o
-6 2 17 129.230 137.645 6.686 o
-6 2 18 18.684 19.997 5.265 o
-6 2 19 27.123 28.228 5.181 o
-6 3 2 124.131 129.087 5.094 o
-6 3 3 302.476 309.239 8.247 o
-6 3 5 16.072 17.040 1.404 o
-6 3 6 13.643 11.341 1.613 o
-6 3 7 5.094 7.043 1.260 o
-6 3 8 173.289 168.407 7.314 o
-6 3 9 168.198 163.293 6.368 o
-6 3 12 40.292 39.613 2.176 o
-6 3 13 5.768 8.386 1.635 o
-6 3 14 35.314 39.493 3.780 o
-6 3 15 67.617 69.739 3.495 o
-6 3 16 11.455 11.077 3.156 o
-6 4 1 41.802 41.765 1.973 o
-6 4 2 10.533 9.260 2.451 o
-6 4 4 47.591 48.344 2.640 o
-6 4 5 94.081 99.001 3.956 o
-6 4 6 41.789 41.871 2.540 o
-6 4 7 99.312 104.367 10.849 o
-6 4 8 27.222 30.017 3.756 o
-6 4 9 39.269 38.474 2.838 o
-6 4 12 13.683 14.783 2.129 o
-6 4 14 23.981 21.016 2.615 o
-6 4 15 48.344 47.610 4.727 o
-6 5 1 37.006 39.167 4.234 o
-6 5 2 27.852 23.391 3.680 o
-6 5 4 11.907 19.296 3.889 o
-6 5 5 204.290 225.550 9.634 o
-6 5 6 201.852 194.035 17.843 o
-6 5 8 84.227 88.642 9.167 o
-6 5 9 57.477 58.469 7.918 o
-6 5 10 49.975 46.742 4.434 o
-5 0 2 206.060 214.571 27.613 o
-5 0 4 27.543 24.793 2.724 o
-5 0 6 20.034 16.985 2.368 o
-5 0 8 53.703 48.530 6.806 o
-5 0 10 8.403 8.470 1.603 o
-5 0 14 54.592 48.969 4.565 o
-5 0 16 132.925 133.476 5.096 o
-5 0 18 37.935 36.940 5.320 o
-5 0 20 145.436 156.328 7.595 o
-5 1 1 136.320 128.238 5.785 o
-5 1 2 313.805 316.962 14.257 o
-5 1 3 64.896 60.241 2.744 o
-5 1 4 1327.566 1382.880 64.415 o
-5 1 7 32.591 32.588 1.880 o
-5 1 8 147.951 149.408 4.291 o
-5 1 10 114.099 116.812 3.808 o
-5 1 12 86.430 83.224 2.658 o
-5 1 13 9.547 8.231 1.154 o
-5 1 14 39.275 43.650 1.898 o
-5 1 15 11.138 10.655 1.828 o
-5 1 16 33.490 34.399 2.042 o
-5 1 17 14.098 7.667 1.637 o
-5 1 20 12.287 13.302 2.367 o
-5 2 1 217.650 223.577 6.097 o
-5 2 2 352.660 375.711 10.153 o
-5 2 3 220.711 219.317 5.754 o
-5 2 4 109.588 111.389 3.383 o
-5 2 5 103.377 100.363 3.124 o
-5 2 6 12.838 13.263 1.354 o
-5 2 7 437.128 439.866 11.278 o
-5 2 8 106.499 100.639 3.829 o
-5 2 9 7.842 4.663 1.180 o
-5 2 10 810.304 870.997 27.433 o
-5 2 11 295.884 318.928 8.934 o
-5 2 12 10.581 11.805 1.197 o
-5 2 13 31.419 32.571 3.003 o
-5 2 14 184.822 196.241 7.862 o
-5 2 15 8.815 8.328 1.571 o
-5 2 16 144.445 151.010 8.664 o
-5 2 18 43.821 44.835 3.660 o
-5 3 1 22.055 19.589 2.001 o
-5 3 2 9.680 12.287 1.360 o
-5 3 3 57.108 60.771 2.299 o
-5 3 4 70.571 75.270 3.590 o
-5 3 5 55.814 52.335 3.820 o
-5 3 6 15.450 17.750 1.506 o
-5 3 7 74.997 76.892 2.714 o
-5 3 8 89.158 90.085 3.038 o
-5 3 9 177.209 187.491 5.377 o
-5 3 11 39.675 37.069 3.490 o
-5 3 12 116.356 111.149 3.988 o
-5 3 13 55.536 55.132 2.591 o
-5 3 14 7.128 5.753 1.608 o
-5 3 16 7.950 8.664 1.966 o
-5 3 17 104.994 109.675 5.134 o
-5 3 18 30.584 30.082 3.211 o
-5 4 1 198.787 213.607 5.788 o
-5 4 2 42.721 41.105 1.803 o
-5 4 4 155.249 161.034 12.101 o
-5 4 5 89.245 90.362 6.955 o
-5 4 6 165.989 171.851 6.310 o
-5 4 7 28.021 28.319 4.951 o
-5 4 8 249.247 253.988 8.643 o
-5 4 9 85.520 88.887 7.883 o
-5 4 10 13.823 14.633 2.050 o
-5 4 11 338.025 342.202 12.527 o
-5 4 13 11.487 9.734 1.958 o
-5 4 15 6.930 7.710 2.351 o
-5 5 1 38.639 38.874 3.350 o
-5 5 2 34.418 36.249 2.510 o
-5 5 3 21.892 18.970 2.916 o
-5 5 4 105.209 112.255 4.950 o
-5 5 5 70.138 67.359 3.849 o
-5 5 8 7.276 7.588 2.383 o
-5 5 10 10.888 10.091 2.894 o
-5 6 3 22.364 21.222 4.780 o
-4 0 2 66.004 73.767 3.318 o
-4 0 4 20.287 17.856 3.130 o
-4 0 6 56.622 52.869 12.638 o
-4 0 8 256.076 255.919 47.155 o
-4 0 10 37.570 35.999 5.616 o
-4 0 12 141.674 127.342 24.368 o
-4 0 14 49.005 43.525 4.294 o
-4 0 16 220.121 235.196 7.587 o
-4 0 18 84.960 76.590 3.621 o
-4 0 20 116.929 113.593 5.768 o
-4 1 1 1251.950 1284.517 31.522 o
-4 1 2 13.280 13.095 1.400 o
-4 1 4 167.200 164.683 5.076 o
-4 1 5 892.152 919.884 23.579 o
-4 1 6 34.909 38.984 2.265 o
-4 1 8 51.128 48.772 2.250 o
-4 1 9 127.938 116.963 5.366 o
-4 1 10 11.598 9.009 1.346 o
-4 1 11 18.569 17.634 1.434 o
-4 1 13 63.203 70.123 2.398 o
-4 1 15 9.752 9.641 1.173 o
-4 1 16 39.521 35.960 3.729 o
-4 1 17 43.655 40.783 2.251 o
-4 1 18 15.668 17.040 1.801 o
-4 1 19 23.449 20.623 2.092 o
-4 2 1 95.421 90.945 2.914 o
-4 2 2 474.801 466.450 11.880 o
-4 2 3 47.209 49.074 2.188 o
-4 2 5 51.635 52.385 3.474 o
-4 2 6 586.700 568.684 14.669 o
-4 2 7 476.842 480.911 12.033 o
-4 2 8 127.961 123.721 4.115 o
-4 2 9 167.410 169.846 4.638 o
-4 2 10 173.281 182.178 5.097 o
-4 2 11 294.723 290.210 7.532 o
-4 2 12 16.431 12.949 1.277 o
-4 2 13 24.912 25.137 1.717 o
-4 2 14 30.434 31.437 2.951 o
-4 2 15 89.898 93.486 3.403 o
-4 2 16 119.679 132.386 4.512 o
-4 2 17 41.360 42.117 3.337 o
-4 2 18 47.846 49.497 3.552 o
-4 3 1 34.231 38.463 1.934 o
-4 3 3 5.514 4.240 1.087 o
-4 3 4 27.426 29.890 1.737 o
-4 3 5 25.839 24.220 1.665 o
-4 3 6 84.887 81.536 2.856 o
-4 3 7 7.126 7.262 1.400 o
-4 3 9 167.312 175.844 5.115 o
-4 3 10 174.843 190.540 6.079 o
-4 3 11 349.340 342.010 10.620 o
-4 3 12 37.162 34.982 2.103 o
-4 3 13 184.890 189.973 9.067 o
-4 3 17 95.224 102.326 4.674 o
-4 4 1 366.114 401.372 11.193 o
-4 4 2 46.387 49.134 1.985 o
-4 4 3 105.936 105.795 3.346 o
-4 4 4 146.930 150.545 9.753 o
-4 4 5 6.065 6.339 1.781 o
-4 4 6 17.053 19.174 2.113 o
-4 4 7 611.802 651.288 22.641 o
-4 4 8 138.355 147.744 5.279 o
-4 4 11 93.678 96.489 4.103 o
-4 4 12 112.641 112.792 5.975 o
-4 4 14 22.568 18.645 2.137 o
-4 4 16 10.683 7.961 2.470 o
-4 4 17 23.977 22.830 4.586 o
-4 5 1 61.888 61.581 3.486 o
-4 5 2 114.899 124.886 4.203 o
-4 5 4 44.830 41.693 2.615 o
-4 5 5 35.893 36.009 2.711 o
-4 5 6 20.657 21.765 2.420 o
-4 5 7 32.589 35.077 2.829 o
-4 5 8 103.670 108.282 5.110 o
-4 5 11 25.204 24.262 4.201 o
-4 6 2 7.740 7.301 2.199 o
-3 0 2 298.010 350.036 12.481 o
-3 0 4 164.588 155.965 32.214 o
-3 0 6 1576.514 1565.392 40.401 o
-3 0 8 68.928 69.837 2.682 o
-3 0 10 4.854 4.742 1.067 o
-3 0 12 16.905 15.325 1.529 o
-3 0 14 44.057 45.245 3.566 o
-3 0 16 47.353 43.586 2.324 o
-3 0 18 27.562 29.452 2.363 o
-3 0 22 84.642 84.739 5.794 o
-3 1 1 255.701 240.962 6.991 o
-3 1 2 1106.319 1222.355 32.935 o
-3 1 3 382.443 384.888 10.468 o
-3 1 4 1429.155 1549.462 41.405 o
-3 1 5 605.322 630.952 16.640 o
-3 1 6 193.124 195.123 5.453 o
-3 1 7 19.701 18.351 1.339 o
-3 1 8 55.222 53.365 2.216 o
-3 1 9 16.071 14.325 1.025 o
-3 1 10 117.472 111.615 3.035 o
-3 1 11 188.911 196.842 5.148 o
-3 1 12 20.468 20.979 1.061 o
-3 1 13 10.823 11.302 1.091 o
-3 1 14 5.713 6.041 0.953 o
-3 1 15 48.965 47.169 2.822 o
-3 1 18 165.796 167.068 13.808 o
-3 1 19 19.286 18.692 1.575 o
-3 1 20 40.559 38.885 4.925 o
-3 1 22 72.091 68.121 5.901 o
-3 2 1 364.430 350.848 9.283 o
-3 2 2 587.567 596.177 14.936 o
-3 2 3 729.995 722.014 19.040 o
-3 2 4 346.581 358.289 9.706 o
-3 2 5 116.816 115.482 3.926 o
-3 2 6 336.354 338.106 8.635 o
-3 2 7 89.222 86.219 3.184 o
-3 2 8 446.739 460.910 11.241 o
-3 2 9 86.971 89.436 2.644 o
-3 2 10 9.215 10.056 1.023 o
-3 2 11 36.927 35.560 1.601 o
-3 2 12 581.938 593.658 20.573 o
-3 2 13 25.040 26.528 5.640 o
-3 2 14 20.497 22.754 2.013 o
-3 2 16 49.979 51.997 6.362 o
-3 2 19 9.777 10.488 2.630 o
-3 2 20 70.158 75.786 8.085 o
-3 3 1 3.327 3.249 1.049 o
-3 3 2 69.380 67.438 2.303 o
-3 3 3 314.545 333.980 9.188 o
-3 3 4 118.589 123.708 3.827 o
-3 3 6 145.135 148.763 4.404 o
-3 3 7 59.646 59.251 2.554 o
-3 3 8 190.959 195.092 5.548 o
-3 3 9 1155.735 1222.057 37.674 o
-3 3 10 292.379 308.986 8.006 o
-3 3 11 45.901 45.310 2.212 o
-3 3 12 305.834 331.243 9.907 o
-3 3 13 690.320 739.659 24.641 o
-3 3 14 13.115 14.756 1.708 o
-3 3 15 45.492 49.256 5.124 o
-3 3 16 112.604 122.617 5.458 o
-3 3 17 28.050 26.361 3.290 o
-3 3 18 70.824 78.259 7.796 o
-3 3 19 89.204 96.183 6.600 o
-3 4 1 7.077 7.958 1.243 o
-3 4 2 217.412 236.892 6.207 o
-3 4 3 253.266 272.626 8.934 o
-3 4 4 30.677 29.464 1.786 o
-3 4 5 207.839 208.699 16.575 o
-3 4 6 12.358 11.912 1.916 o
-3 4 7 34.169 33.057 2.418 o
-3 4 8 7.376 5.554 1.826 o
-3 4 9 45.473 49.332 2.138 o
-3 4 10 24.299 24.458 1.661 o
-3 4 11 152.126 160.165 5.219 o
-3 4 12 24.988 26.394 3.548 o
-3 4 13 88.650 93.296 3.914 o
-3 4 14 117.060 131.386 9.071 o
-3 5 1 23.097 23.687 2.957 o
-3 5 3 87.498 86.859 4.047 o
-3 5 4 87.986 85.812 3.247 o
-3 5 6 21.990 23.457 2.444 o
-3 5 7 61.069 66.151 4.934 o
-3 5 8 25.472 26.171 2.647 o
-3 5 9 17.454 18.687 2.733 o
-3 5 10 19.776 15.086 2.545 o
-3 5 12 49.409 51.727 3.999 o
-3 5 13 45.928 40.047 4.022 o
-3 6 3 14.470 12.845 3.032 o
-3 6 5 15.933 10.269 3.183 o
-3 6 7 46.753 40.894 4.524 o
-2 0 2 2012.615 2420.980 56.286 o
-2 0 4 2798.589 3077.317 101.724 o
-2 0 6 2234.964 2081.083 53.585 o
-2 0 8 1821.823 1741.564 47.110 o
-2 0 10 308.243 289.290 7.506 o
-2 0 12 61.713 54.297 7.302 o
-2 0 14 214.921 221.397 10.350 o
-2 0 20 134.883 128.979 7.034 o
-2 1 1 3191.873 3421.727 77.654 o
-2 1 2 2122.355 2213.549 52.273 o
-2 1 3 85.080 84.276 3.727 o
-2 1 4 34.799 38.071 2.611 o
-2 1 5 66.953 66.119 2.827 o
-2 1 6 57.103 52.758 2.429 o
-2 1 7 258.003 239.378 6.432 o
-2 1 8 386.953 343.949 9.002 o
-2 1 9 335.990 319.941 13.110 o
-2 1 10 34.722 29.778 1.503 o
-2 1 11 60.546 61.140 2.797 o
-2 1 12 86.808 86.143 2.539 o
-2 1 13 27.576 24.881 1.258 o
-2 1 14 142.275 142.556 3.710 o
-2 1 15 85.745 87.352 2.704 o
-2 1 16 30.209 31.023 1.790 o
-2 1 19 37.900 29.637 7.514 o
-2 1 22 14.295 12.594 3.243 o
-2 2 1 7.871 5.890 1.221 o
-2 2 2 345.552 327.768 9.056 o
-2 2 3 300.462 292.096 7.798 o
-2 2 4 19.428 18.821 1.464 o
-2 2 5 76.702 78.023 2.950 o
-2 2 7 5.817 6.123 1.184 o
-2 2 8 3.915 3.472 1.131 o
-2 2 9 27.858 22.653 1.426 o
-2 2 10 154.576 154.603 4.034 o
-2 2 11 23.222 22.216 1.674 o
-2 2 12 255.288 249.133 6.274 o
-2 2 13 345.540 355.966 10.118 o
-2 2 14 42.154 40.609 1.826 o
-2 2 15 3.900 4.592 1.324 o
-2 2 16 159.072 179.373 8.347 o
-2 2 17 67.851 67.601 3.047 o
-2 2 21 45.984 47.930 5.923 o
-2 3 1 3.874 4.271 1.056 o
-2 3 3 184.941 182.742 4.795 o
-2 3 5 166.314 165.797 4.996 o
-2 3 6 7.510 7.514 1.507 o
-2 3 7 302.329 299.243 7.998 o
-2 3 8 88.276 77.815 3.509 o
-2 3 9 422.445 441.108 11.692 o
-2 3 10 27.348 26.594 1.660 o
-2 3 11 36.599 34.677 1.707 o
-2 3 12 39.725 38.866 2.332 o
-2 3 13 20.690 19.557 1.486 o
-2 3 15 142.758 150.704 12.605 o
-2 3 16 52.401 53.461 3.138 o
-2 3 17 51.531 51.732 6.827 o
-2 4 1 181.090 192.392 6.351 o
-2 4 2 6.263 5.697 1.301 o
-2 4 3 96.627 97.717 2.941 o
-2 4 4 76.371 83.104 2.926 o
-2 4 6 14.357 12.143 1.852 o
-2 4 7 8.025 6.189 1.767 o
-2 4 9 20.055 18.080 2.603 o
-2 4 11 53.720 52.670 2.419 o
-2 4 12 177.134 195.498 9.200 o
-2 4 14 13.925 13.828 1.971 o
-2 4 15 115.390 115.949 7.530 o
-2 4 16 114.573 107.538 11.214 o
-2 5 1 281.860 305.062 10.727 o
-2 5 2 7.459 6.367 1.535 o
-2 5 3 21.282 21.384 2.011 o
-2 5 4 112.954 121.242 6.754 o
-2 5 5 60.808 65.355 3.741 o
-2 5 7 61.055 60.052 3.367 o
-2 5 9 40.147 38.356 2.925 o
-2 5 10 8.462 8.155 1.754 o
-2 6 2 12.298 11.902 2.141 o
-2 6 5 70.243 73.286 5.118 o
-2 6 6 17.274 17.197 3.282 o
-2 6 7 18.116 16.423 3.492 o
-1 0 4 8033.983 8723.938 141.332 o
-1 0 6 1125.336 1063.871 31.388 o
-1 0 8 309.547 307.242 8.682 o
-1 0 10 191.788 167.493 6.607 o
-1 0 12 554.079 569.261 14.083 o
-1 0 14 19.437 16.698 1.559 o
-1 0 16 60.848 60.946 11.287 o
-1 0 18 40.523 38.109 3.859 o
-1 1 1 506.319 514.723 19.812 o
-1 1 2 387.498 371.869 15.021 o
-1 1 3 414.391 396.205 16.606 o
-1 1 4 305.447 314.262 10.520 o
-1 1 5 94.982 88.928 3.613 o
-1 1 6 211.704 207.670 6.600 o
-1 1 7 99.382 93.924 3.462 o
-1 1 8 107.971 94.106 4.018 o
-1 1 9 271.713 260.902 6.968 o
-1 1 11 284.700 287.467 8.492 o
-1 1 13 420.997 417.134 10.237 o
-1 1 14 87.960 88.558 2.551 o
-1 1 15 44.850 48.174 1.761 o
-1 1 16 84.606 84.527 2.740 o
-1 1 18 10.097 10.747 1.464 o
-1 1 19 55.534 55.678 4.320 o
-1 2 1 158.608 158.564 5.254 o
-1 2 2 569.944 589.597 18.328 o
-1 2 3 37.173 32.748 2.417 o
-1 2 4 6.764 5.147 1.100 o
-1 2 5 168.852 154.305 5.567 o
-1 2 6 90.840 87.845 4.705 o
-1 2 7 21.134 19.602 1.558 o
-1 2 8 146.332 136.997 5.199 o
-1 2 9 526.386 511.778 12.753 o
-1 2 10 5.091 3.559 1.156 o
-1 2 11 335.609 332.294 8.847 o
-1 2 12 251.945 243.960 11.207 o
-1 2 13 289.710 284.324 9.980 o
-1 2 14 16.188 17.492 1.100 o
-1 2 15 13.366 15.436 1.079 o
-1 2 16 8.222 8.624 0.957 o
-1 2 17 129.115 130.556 4.873 o
-1 2 18 98.791 100.282 4.905 o
-1 2 19 6.948 5.924 1.844 o
-1 2 21 43.913 38.314 5.309 o
-1 3 1 119.905 120.043 6.012 o
-1 3 2 109.827 111.025 4.395 o
-1 3 3 1210.281 1255.784 48.656 o
-1 3 4 582.572 613.754 16.988 o
-1 3 5 601.697 580.754 15.153 o
-1 3 6 14.660 17.555 2.763 o
-1 3 7 293.935 283.741 8.367 o
-1 3 8 174.126 192.689 5.774 o
-1 3 9 13.480 14.551 1.441 o
-1 3 10 31.274 29.495 1.717 o
-1 3 11 71.056 68.583 3.609 o
-1 3 12 30.128 30.223 3.440 o
-1 3 15 4.993 5.306 1.431 o
-1 3 16 21.265 18.091 1.673 o
-1 3 19 47.197 49.540 10.073 o
-1 3 20 25.074 17.681 4.611 o
-1 4 3 59.894 63.279 2.208 o
-1 4 4 21.338 19.886 1.657 o
-1 4 6 10.361 9.349 1.750 o
-1 4 7 26.426 25.035 2.965 o
-1 4 9 7.918 7.719 1.339 o
-1 4 10 61.514 57.456 2.305 o
-1 4 11 77.802 81.367 4.766 o
-1 4 12 10.490 11.273 1.438 o
-1 4 14 93.006 93.334 6.056 o
-1 4 15 33.971 31.581 4.533 o
-1 4 17 96.993 96.973 9.420 o
-1 5 1 9.300 8.540 2.082 o
-1 5 2 9.031 7.853 2.563 o
-1 5 5 79.938 82.596 3.095 o
-1 5 9 11.051 7.711 2.351 o
-1 5 11 11.429 12.720 1.881 o
-1 5 12 20.626 20.055 4.131 o
-1 5 13 51.006 50.138 4.148 o
-1 6 3 78.395 81.524 4.788 o
-1 6 4 93.674 94.859 4.539 o
-1 6 5 29.948 26.242 2.807 o
-1 6 6 55.919 52.528 4.371 o
0 0 4 8611.077 10104.940 364.165 o
0 0 6 2056.685 2162.768 55.043 o
0 0 10 171.299 166.720 5.196 o
0 0 12 299.487 289.615 7.511 o
0 0 14 426.104 426.004 16.483 o
0 0 16 838.789 848.685 33.694 o
0 1 1 392.427 380.797 20.562 o
0 1 2 1560.516 1631.576 41.844 o
0 1 3 57.947 61.015 3.827 o
0 1 4 314.898 270.985 9.511 o
0 1 6 1352.656 1334.992 34.736 o
0 1 7 495.290 492.748 12.568 o
0 1 8 727.817 691.748 17.578 o
0 1 9 271.536 282.202 7.667 o
0 1 10 489.898 506.285 13.964 o
0 1 11 76.796 77.457 2.546 o
0 1 12 220.424 204.090 5.379 o
0 1 13 12.617 13.631 1.933 o
0 1 14 685.136 704.251 18.341 o
0 1 15 79.940 83.209 2.443 o
0 1 16 301.720 320.787 8.600 o
0 1 18 102.366 106.609 5.577 o
0 1 19 18.732 17.946 3.643 o
0 1 20 62.030 70.240 4.634 o
0 2 0 185.897 215.700 12.688 o
0 2 1 89.374 106.538 4.149 o
0 2 2 392.533 391.384 10.468 o
0 2 4 298.915 291.054 9.581 o
0 2 5 682.839 623.799 16.475 o
0 2 6 1211.109 1157.090 30.174 o
0 2 7 11.992 12.574 1.584 o
0 2 8 98.510 93.799 3.167 o
0 2 9 310.950 270.730 7.664 o
0 2 10 593.798 566.495 14.572 o
0 2 11 14.884 12.416 1.232 o
0 2 12 5.389 5.650 1.070 o
0 2 14 106.225 98.683 4.111 o
0 2 15 51.809 51.921 3.421 o
0 2 16 2.373 2.849 0.920 o
0 2 17 38.451 39.519 2.713 o
0 2 18 5.763 5.675 1.231 o
0 3 1 31.213 28.968 1.930 o
0 3 2 157.501 163.846 5.009 o
0 3 7 24.654 22.703 2.406 o
0 3 9 37.558 37.523 1.913 o
0 3 12 10.420 9.553 1.038 o
0 3 13 12.865 11.997 1.294 o
0 3 17 10.298 8.526 1.336 o
0 3 19 22.064 18.694 2.604 o
0 3 20 9.101 12.147 2.928 o
0 4 0 48.275 49.950 2.486 o
0 4 2 14.669 14.796 1.811 o
0 4 3 6.151 6.094 1.127 o
0 4 5 156.699 156.363 5.528 o
0 4 7 138.254 136.636 4.717 o
0 4 8 17.046 14.551 1.874 o
0 4 9 155.939 156.912 6.762 o
0 4 10 4.029 3.959 1.297 o
0 4 11 85.378 86.542 6.293 o
0 4 12 3.971 5.351 1.320 o
0 4 13 56.504 59.458 3.083 o
0 4 16 27.863 25.710 3.144 o
0 4 17 24.715 24.076 3.543 o
0 5 1 43.651 47.293 3.491 o
0 5 3 7.911 4.848 1.424 o
0 5 4 9.743 7.828 2.283 o
0 5 7 139.319 133.281 5.152 o
0 5 8 8.598 7.927 1.924 o
0 5 9 35.242 38.804 2.342 o
0 5 10 5.952 6.875 1.678 o
0 5 13 57.008 53.385 3.664 o
0 5 14 23.288 20.895 3.307 o
0 6 0 117.661 143.373 9.353 o
0 6 1 310.580 366.553 16.249 o
0 6 2 43.999 52.465 3.187 o
0 6 3 132.457 147.742 6.707 o
0 6 4 11.822 11.427 2.184 o
0 6 6 19.483 21.395 3.753 o
0 6 7 34.872 35.278 4.670 o
0 6 9 29.715 35.463 5.764 o
1 0 2 436.993 207.342 8.935 o
1 0 4 286.313 283.502 11.832 o
1 0 6 451.906 427.608 25.424 o
1 0 8 184.158 172.680 5.935 o
1 0 10 56.526 56.390 2.346 o
1 0 12 95.450 93.754 4.896 o
1 0 14 468.538 466.337 21.940 o
1 0 16 15.412 15.141 2.828 o
1 0 18 524.454 537.957 23.541 o
1 0 20 53.967 61.363 4.223 o
1 1 0 1972.619 2014.174 46.861 o
1 1 1 93.524 90.555 3.098 o
1 1 2 6031.456 6506.783 144.480 o
1 1 3 10184.021 11973.269 218.429 o
1 1 4 557.551 548.904 15.576 o
1 1 5 447.067 421.203 11.439 o
1 1 6 1058.779 1061.521 27.138 o
1 1 7 320.505 326.310 8.780 o
1 1 8 567.374 538.257 13.821 o
1 1 9 9.390 6.332 0.957 o
1 1 10 91.497 88.913 2.502 o
1 1 11 119.952 112.664 3.263 o
1 1 12 341.174 335.952 8.301 o
1 1 14 91.538 84.439 4.009 o
1 1 15 112.596 117.301 3.428 o
1 1 17 193.429 193.926 20.729 o
1 1 18 8.319 10.034 2.434 o
1 1 19 208.047 221.400 7.980 o
1 1 20 7.463 6.846 2.186 o
1 2 0 97.033 110.897 4.263 o
1 2 1 772.405 791.199 21.587 o
1 2 3 110.596 97.672 5.362 o
1 2 4 182.353 171.755 6.004 o
1 2 5 1416.602 1420.883 37.620 o
1 2 6 44.421 39.298 2.281 o
1 2 7 16.882 15.155 1.579 o
1 2 8 416.742 383.986 10.062 o
1 2 9 68.626 62.116 3.044 o
1 2 10 41.672 40.956 1.951 o
1 2 11 300.480 292.541 7.370 o
1 2 12 111.714 112.724 4.323 o
1 2 13 45.598 45.215 2.181 o
1 2 17 53.323 49.122 3.520 o
1 2 19 24.098 20.730 4.570 o
1 2 20 10.301 10.885 2.162 o
1 3 0 31.927 35.075 1.961 o
1 3 1 188.756 196.034 7.046 o
1 3 2 61.831 58.401 2.472 o
1 3 3 13.556 13.269 1.449 o
1 3 4 41.945 39.657 1.770 o
1 3 8 24.651 23.607 1.470 o
1 3 9 8.380 7.796 1.116 o
1 3 10 8.275 6.577 1.065 o
1 3 11 128.422 126.237 3.563 o
1 3 12 45.004 41.660 2.241 o
1 3 13 38.563 36.409 1.549 o
1 3 15 22.882 20.620 1.366 o
1 3 16 22.270 23.635 1.597 o
1 4 0 13.957 14.106 1.322 o
1 4 2 3.990 4.516 1.169 o
1 4 3 20.268 18.657 1.298 o
1 4 4 19.987 21.465 1.704 o
1 4 7 50.903 49.518 5.880 o
1 4 9 38.847 37.432 1.833 o
1 4 10 20.629 16.912 1.419 o
1 4 12 8.501 7.162 1.336 o
1 4 15 10.511 10.203 2.271 o
1 5 0 81.525 88.197 3.573 o
1 5 1 205.845 230.170 9.147 o
1 5 2 27.542 27.931 2.084 o
1 5 3 96.328 103.906 4.316 o
1 5 4 134.176 146.009 6.352 o
1 5 8 13.560 11.549 1.637 o
1 5 10 11.768 12.143 2.681 o
1 5 11 18.559 19.656 2.076 o
1 5 14 76.226 91.018 7.837 o
1 6 0 18.717 18.462 2.791 o
1 6 3 10.533 11.292 2.257 o
2 0 0 1405.373 1921.649 46.837 o
2 0 2 1956.692 2402.512 56.641 o
2 0 4 24.396 18.056 2.097 o
2 0 6 1541.631 1538.560 109.610 o
2 0 10 103.652 97.890 3.587 o
2 0 12 88.456 96.654 4.694 o
2 0 14 443.852 444.820 14.682 o
2 0 16 362.037 400.472 14.559 o
2 0 18 241.250 253.303 10.486 o
2 0 20 7.111 9.833 3.178 o
2 1 0 23.629 25.277 1.950 o
2 1 1 2872.094 3143.942 71.593 o
2 1 2 7144.186 8458.759 189.207 o
2 1 3 444.041 467.431 13.313 o
2 1 4 437.315 433.630 11.417 o
2 1 5 531.915 527.370 14.068 o
2 1 6 546.544 541.254 15.358 o
2 1 7 482.252 441.102 12.131 o
2 1 8 2327.529 2287.398 58.585 o
2 1 9 8.084 6.958 1.329 o
2 1 10 44.512 46.900 2.178 o
2 1 11 101.860 92.434 2.811 o
2 1 12 169.082 162.092 4.584 o
2 1 13 30.283 28.137 1.373 o
2 1 14 152.850 151.842 5.086 o
2 1 15 154.709 160.227 7.051 o
2 1 16 8.159 6.085 1.300 o
2 1 17 32.421 35.952 7.969 o
2 1 18 114.465 120.335 6.455 o
2 1 21 47.245 51.225 5.794 o
2 2 0 266.391 271.069 9.058 o
2 2 1 15.449 12.724 1.340 o
2 2 2 202.116 190.710 5.995 o
2 2 3 166.124 156.819 5.892 o
2 2 4 92.088 80.999 3.255 o
2 2 5 505.092 467.261 12.088 o
2 2 6 518.134 480.607 11.704 o
2 2 7 31.055 26.609 1.768 o
2 2 8 142.329 128.244 5.434 o
2 2 9 299.715 278.060 13.107 o
2 2 10 12.683 13.020 1.260 o
2 2 11 57.653 56.557 2.306 o
2 2 13 21.455 19.512 1.782 o
2 2 14 73.128 67.141 2.637 o
2 2 16 30.021 30.657 1.880 o
2 2 17 27.870 27.112 2.396 o
2 2 18 13.221 10.791 2.321 o
2 2 19 45.962 48.714 3.235 o
2 2 20 22.688 16.535 4.743 o
2 3 0 54.448 58.830 2.052 o
2 3 1 96.554 95.039 3.178 o
2 3 2 15.095 17.561 1.551 o
2 3 3 93.990 97.345 3.119 o
2 3 4 10.809 9.690 1.243 o
2 3 5 8.722 8.676 1.507 o
2 3 6 20.989 17.487 1.497 o
2 3 9 39.119 35.011 1.623 o
2 3 10 58.189 56.151 3.146 o
2 3 11 18.426 15.993 1.153 o
2 3 12 26.388 26.229 1.745 o
2 3 13 28.020 25.367 1.335 o
2 3 14 43.787 41.793 1.949 o
2 3 15 37.046 34.062 1.697 o
2 3 16 14.267 12.911 1.375 o
2 3 17 22.961 23.494 2.003 o
2 3 18 12.099 11.580 2.950 o
2 4 0 225.517 237.534 6.410 o
2 4 1 6.575 4.831 1.288 o
2 4 2 7.826 6.759 1.137 o
2 4 4 175.849 181.070 7.397 o
2 4 5 9.357 6.313 1.390 o
2 4 6 40.550 35.955 1.784 o
2 4 7 16.743 12.873 1.449 o
2 4 8 7.474 7.310 1.288 o
2 4 9 47.263 46.412 2.044 o
2 4 10 14.073 14.743 1.947 o
2 4 11 12.005 11.810 1.389 o
2 4 12 8.761 8.602 1.387 o
2 4 14 31.807 30.889 1.881 o
2 4 15 7.180 5.085 1.427 o
2 4 16 6.856 6.764 1.703 o
2 5 0 370.961 403.810 12.029 o
2 5 1 23.782 23.066 4.383 o
2 5 2 56.274 58.969 2.564 o
2 5 3 114.015 108.982 4.528 o
2 5 4 42.137 43.107 2.170 o
2 5 7 35.910 35.463 2.624 o
2 5 9 50.484 51.459 2.737 o
2 5 10 9.566 7.965 1.846 o
2 5 11 15.125 15.582 2.040 o
2 5 12 16.387 18.356 2.266 o
2 5 13 6.132 7.738 2.164 o
2 6 4 12.190 9.953 2.617 o
2 6 5 10.545 11.365 2.778 o
2 6 7 33.333 34.495 10.909 o
3 0 0 66.512 77.136 6.231 o
3 0 2 461.764 505.540 15.381 o
3 0 4 62.273 68.881 3.726 o
3 0 6 140.967 126.769 4.613 o
3 0 8 31.996 28.430 3.168 o
3 0 10 2096.948 2007.921 70.645 o
3 0 14 547.956 610.828 22.393 o
3 0 16 43.818 45.492 3.755 o
3 0 18 163.984 173.067 7.820 o
3 0 20 15.330 16.176 3.545 o
3 1 0 221.297 242.203 11.104 o
3 1 1 477.917 466.174 15.407 o
3 1 2 200.996 197.309 8.014 o
3 1 3 188.277 200.726 5.753 o
3 1 4 396.976 402.687 10.552 o
3 1 5 83.202 89.170 3.030 o
3 1 6 86.657 80.101 4.296 o
3 1 7 17.828 12.101 1.966 o
3 1 9 151.832 144.329 4.887 o
3 1 12 44.055 45.607 2.063 o
3 1 13 33.918 33.637 1.685 o
3 1 14 21.328 18.009 1.325 o
3 1 15 79.885 85.126 2.792 o
3 1 16 68.056 69.071 4.929 o
3 1 17 17.952 21.758 1.809 o
3 1 19 135.278 147.617 6.203 o
3 1 20 57.560 60.011 8.014 o
3 1 21 9.593 10.676 2.680 o
3 2 0 2.997 4.182 1.334 o
3 2 1 1931.199 2104.897 51.471 o
3 2 2 892.601 889.410 21.486 o
3 2 3 33.703 30.478 1.652 o
3 2 4 2921.616 2873.675 70.908 o
3 2 5 2351.352 2310.870 58.970 o
3 2 6 323.913 309.025 7.953 o
3 2 8 275.398 256.854 8.079 o
3 2 9 53.625 52.042 2.031 o
3 2 10 247.196 246.709 6.611 o
3 2 11 124.991 130.463 3.814 o
3 2 12 4.089 4.452 1.003 o
3 2 13 38.319 35.905 1.626 o
3 2 14 43.589 41.036 1.842 o
3 2 17 100.041 103.546 4.609 o
3 2 18 54.780 54.398 6.124 o
3 2 19 24.375 26.136 2.830 o
3 2 20 90.317 100.227 5.733 o
3 3 0 93.123 87.596 3.653 o
3 3 1 16.896 17.169 1.248 o
3 3 2 179.281 179.432 4.954 o
3 3 3 214.902 215.749 6.875 o
3 3 5 36.661 33.928 1.363 o
3 3 6 152.495 142.402 4.097 o
3 3 7 55.650 53.368 2.128 o
3 3 9 30.486 28.378 1.482 o
3 3 10 32.636 29.914 1.490 o
3 3 11 308.868 295.522 7.840 o
3 3 12 17.570 14.509 1.196 o
3 3 13 10.958 9.784 1.286 o
3 3 14 12.451 12.750 1.177 o
3 3 15 41.175 38.380 2.114 o
3 3 16 10.264 7.100 1.502 o
3 3 17 32.617 30.606 4.107 o
3 3 18 15.099 15.410 2.328 o
3 4 0 210.650 227.365 7.780 o
3 4 1 191.530 193.091 5.302 o
3 4 2 653.725 671.410 18.700 o
3 4 3 542.652 552.330 16.901 o
3 4 4 36.314 35.902 1.913 o
3 4 5 335.335 339.393 10.324 o
3 4 6 70.958 68.613 4.460 o
3 4 7 75.616 70.422 2.591 o
3 4 8 11.759 10.645 1.381 o
3 4 10 11.612 12.434 1.770 o
3 4 11 22.081 19.653 1.479 o
3 4 14 30.658 30.510 2.035 o
3 4 16 60.316 67.139 4.463 o
3 5 0 22.883 19.549 2.231 o
3 5 1 7.172 4.859 1.411 o
3 5 2 18.623 19.298 1.659 o
3 5 4 48.088 49.765 3.247 o
3 5 6 8.179 4.806 1.413 o
3 5 7 26.081 23.989 5.387 o
3 5 10 8.498 8.361 1.802 o
3 5 11 11.194 8.449 2.040 o
3 6 1 23.241 28.564 4.363 o
4 0 0 248.998 276.947 18.563 o
4 0 2 234.184 248.502 8.269 o
4 0 4 112.978 125.534 5.154 o
4 0 6 620.936 664.804 21.991 o
4 0 8 35.640 35.390 3.289 o
4 0 10 489.254 485.367 15.262 o
4 0 14 25.269 26.061 3.165 o
4 0 16 56.778 55.133 4.164 o
4 1 0 940.052 970.443 25.651 o
4 1 1 182.826 176.407 6.037 o
4 1 2 316.295 324.480 8.369 o
4 1 3 276.160 291.261 8.536 o
4 1 4 5.558 4.647 1.158 o
4 1 5 63.383 62.038 2.309 o
4 1 7 40.679 36.359 1.683 o
4 1 8 46.630 44.966 3.593 o
4 1 9 10.374 10.982 1.654 o
4 1 10 34.556 34.162 2.088 o
4 1 11 18.128 19.120 1.582 o
4 1 12 68.685 63.753 2.444 o
4 1 13 14.033 10.800 1.301 o
4 1 14 5.478 6.086 1.322 o
4 1 16 176.618 195.304 6.468 o
4 1 17 6.754 7.188 1.494 o
4 1 20 41.670 43.272 3.619 o
4 2 0 480.065 494.593 12.453 o
4 2 1 182.977 191.455 5.500 o
4 2 2 99.305 96.815 2.757 o
4 2 3 47.671 41.832 1.567 o
4 2 5 59.538 53.924 1.825 o
4 2 8 100.368 98.858 5.566 o
4 2 9 5.018 4.350 1.084 o
4 2 10 32.924 30.983 2.090 o
4 2 11 37.301 35.411 3.037 o
4 2 12 39.961 42.491 1.948 o
4 2 13 8.055 6.313 1.225 o
4 2 14 65.663 65.260 2.469 o
4 2 15 16.886 14.025 2.628 o
4 2 16 14.796 15.866 1.547 o
4 2 18 17.470 15.761 2.105 o
4 2 19 29.747 28.231 3.039 o
4 3 0 63.617 63.137 3.329 o
4 3 1 4.610 4.272 0.813 o
4 3 2 69.694 64.010 2.685 o
4 3 3 4.560 3.622 1.006 o
4 3 4 89.368 88.850 3.999 o
4 3 5 1358.866 1309.264 37.016 o
4 3 6 570.372 541.017 14.535 o
4 3 7 681.345 667.665 18.442 o
4 3 8 71.260 64.703 2.337 o
4 3 9 220.345 206.780 5.530 o
4 3 10 69.490 67.321 2.776 o
4 3 11 98.869 94.458 2.861 o
4 3 12 41.532 39.897 2.893 o
4 3 13 21.946 19.746 1.608 o
4 3 18 3.935 11.245 3.034 o
4 4 0 6.523 7.118 1.895 o
4 4 1 157.117 162.578 5.014 o
4 4 2 35.461 35.903 1.594 o
4 4 3 23.912 21.341 2.107 o
4 4 4 27.649 23.075 2.079 o
4 4 6 27.923 24.940 1.837 o
4 4 7 29.707 25.066 2.249 o
4 4 9 42.127 39.711 1.894 o
4 4 10 15.086 13.291 1.727 o
4 4 11 11.288 8.163 1.767 o
4 4 13 42.748 39.630 2.172 o
4 4 14 49.309 48.636 3.140 o
4 5 0 3.983 3.820 1.203 o
4 5 1 36.456 34.776 5.495 o
4 5 2 169.043 165.345 18.970 o
4 5 3 46.255 42.638 4.555 o
4 5 5 6.476 5.106 1.708 o
4 5 7 24.920 22.481 2.527 o
4 5 8 18.764 18.646 3.685 o
4 6 2 9.554 10.247 2.967 o
4 6 3 40.482 33.706 5.120 o
5 0 0 482.079 506.777 32.782 o
5 0 2 1207.854 1243.055 112.419 o
5 0 6 16.739 19.259 2.146 o
5 0 8 129.765 121.918 7.449 o
5 0 12 101.921 110.827 4.778 o
5 0 16 90.615 102.609 5.141 o
5 1 0 92.860 99.411 2.984 o
5 1 1 32.236 32.214 1.455 o
5 1 2 4.623 3.609 0.759 o
5 1 4 7.181 6.719 1.033 o
5 1 5 28.838 29.486 1.435 o
5 1 6 19.682 18.862 1.121 o
5 1 7 58.962 59.575 2.131 o
5 1 8 5.246 6.334 1.198 o
5 1 9 120.241 128.914 8.128 o
5 1 11 55.246 51.290 6.304 o
5 1 12 226.291 227.356 6.584 o
5 1 13 114.794 111.459 6.014 o
5 1 14 22.240 19.664 1.516 o
5 1 16 30.754 33.313 4.498 o
5 1 17 75.977 83.833 3.829 o
5 2 0 86.971 86.198 4.089 o
5 2 1 61.558 56.090 2.483 o
5 2 2 132.503 131.497 3.612 o
5 2 3 21.411 20.288 1.108 o
5 2 4 128.345 129.397 4.330 o
5 2 5 134.106 138.729 5.617 o
5 2 6 219.034 224.119 5.961 o
5 2 7 27.235 27.777 1.329 o
5 2 8 94.449 92.320 2.624 o
5 2 9 78.419 75.870 9.415 o
5 2 10 124.705 119.614 7.237 o
5 2 12 7.881 4.908 1.295 o
5 2 14 62.320 62.763 2.606 o
5 2 17 8.576 9.144 1.890 o
5 2 18 6.268 7.775 2.065 o
5 3 0 141.903 142.267 3.656 o
5 3 1 382.640 398.504 10.320 o
5 3 2 289.209 298.310 8.225 o
5 3 3 882.898 890.328 22.322 o
5 3 4 156.982 141.810 3.801 o
5 3 5 265.866 257.109 6.449 o
5 3 6 337.871 327.222 9.204 o
5 3 7 542.872 525.251 19.502 o
5 3 9 33.700 30.169 1.470 o
5 3 10 21.987 21.831 1.317 o
5 3 11 8.971 6.554 1.304 o
5 3 12 75.540 75.040 4.905 o
5 3 13 86.868 90.334 4.337 o
5 3 17 28.150 33.454 6.815 o
5 4 0 50.800 52.155 2.004 o
5 4 1 10.595 11.359 2.261 o
5 4 2 14.077 14.766 1.311 o
5 4 5 153.277 149.633 5.305 o
5 4 6 8.955 8.865 1.318 o
5 4 7 88.685 86.286 4.878 o
5 4 8 131.196 119.275 4.153 o
5 4 9 55.392 49.532 2.103 o
5 4 10 58.394 54.089 2.923 o
5 4 12 7.003 5.762 1.744 o
5 4 13 42.247 40.122 3.872 o
5 4 14 10.046 9.561 2.116 o
5 5 5 29.200 24.059 3.223 o
5 5 6 23.203 23.217 2.286 o
5 5 9 31.790 30.475 4.863 o
5 5 10 125.597 121.871 8.242 o
5 5 11 19.578 17.141 3.535 o
6 0 0 154.713 155.448 4.864 o
6 0 2 1885.503 1899.171 54.632 o
6 0 4 167.419 168.563 7.687 o
6 0 6 35.226 35.199 2.054 o
6 0 8 92.401 93.492 3.248 o
6 0 10 10.684 10.163 2.471 o
6 0 12 15.227 15.178 2.744 o
6 0 14 44.994 49.671 3.997 o
6 0 16 15.427 12.660 3.294 o
6 0 18 75.540 79.149 6.082 o
6 1 0 66.613 66.725 2.045 o
6 1 1 6.653 6.176 0.832 o
6 1 2 449.345 449.154 11.040 o
6 1 3 15.997 14.963 1.225 o
6 1 4 28.036 29.146 1.820 o
6 1 5 142.073 140.351 4.528 o
6 1 6 24.525 24.230 1.324 o
6 1 7 17.867 20.273 1.204 o
6 1 8 92.127 96.495 3.146 o
6 1 9 64.587 66.344 3.005 o
6 1 10 22.780 23.501 1.655 o
6 1 11 21.179 21.297 1.621 o
6 1 13 44.923 46.098 2.444 o
6 1 16 59.926 62.925 3.198 o
6 1 17 17.144 19.548 2.308 o
6 1 18 6.797 7.381 2.168 o
6 2 0 63.491 59.747 2.519 o
6 2 1 3.012 2.699 0.824 o
6 2 2 143.317 150.545 6.963 o
6 2 3 154.195 152.048 5.799 o
6 2 4 272.370 276.711 8.212 o
6 2 5 18.404 16.705 1.449 o
6 2 6 491.429 486.357 18.621 o
6 2 7 642.475 647.898 17.353 o
6 2 8 332.655 348.886 9.428 o
6 2 10 123.683 126.865 10.891 o
6 2 11 145.414 148.734 8.879 o
6 2 13 17.653 19.647 1.680 o
6 2 14 96.145 95.987 4.471 o
6 2 15 63.595 65.061 3.169 o
6 3 0 59.981 57.684 4.050 o
6 3 1 649.469 610.394 16.345 o
6 3 2 103.523 95.069 3.528 o
6 3 3 8.131 6.920 0.728 o
6 3 4 56.502 54.322 1.652 o
6 3 5 11.944 10.304 0.790 o
6 3 6 27.829 23.400 1.341 o
6 3 7 119.990 110.393 3.426 o
6 3 8 49.362 44.702 2.205 o
6 3 9 24.977 21.154 2.444 o
6 3 12 17.714 15.339 2.114 o
6 3 13 7.081 5.675 1.593 o
6 4 5 153.024 149.245 4.961 o
6 4 6 130.394 126.800 4.502 o
6 4 7 46.681 39.747 3.928 o
6 4 8 35.308 33.131 1.822 o
6 4 9 166.811 155.324 5.433 o
6 4 10 168.650 167.006 8.535 o
6 4 11 37.549 33.986 3.383 o
6 4 12 51.036 54.029 5.557 o
6 5 1 102.319 101.054 4.892 o
6 5 4 8.838 6.243 1.780 o
6 5 5 29.772 29.125 3.184 o
6 5 7 51.328 51.147 3.564 o
6 5 8 43.605 37.185 2.997 o
7 0 0 119.891 119.277 4.112 o
7 0 2 60.313 58.629 6.363 o
7 0 4 108.496 98.508 12.519 o
7 0 8 80.611 83.877 2.892 o
7 0 10 28.931 32.212 1.769 o
7 0 12 84.356 92.838 4.900 o
7 0 16 89.551 101.239 6.256 o
7 1 0 149.407 165.409 4.233 o
7 1 1 99.239 101.711 4.086 o
7 1 2 16.789 16.531 1.115 o
7 1 3 26.460 26.764 1.296 o
7 1 4 278.148 289.075 7.167 o
7 1 5 110.225 106.624 2.972 o
7 1 6 88.930 87.888 3.506 o
7 1 7 342.034 354.337 9.242 o
7 1 9 178.651 178.232 4.764 o
7 1 10 340.927 353.720 10.831 o
7 1 11 58.307 57.750 2.412 o
7 1 13 75.991 83.549 3.329 o
7 1 17 9.521 12.927 2.337 o
7 2 0 32.934 29.659 1.342 o
7 2 1 8.035 7.399 0.817 o
7 2 2 11.854 10.699 0.865 o
7 2 3 292.256 317.466 8.207 o
7 2 4 188.522 175.741 4.708 o
7 2 5 33.372 31.790 1.412 o
7 2 6 21.334 19.833 2.147 o
7 2 7 50.949 53.399 2.730 o
7 2 10 39.872 40.436 2.622 o
7 2 11 8.644 8.212 2.385 o
7 2 12 14.945 14.360 1.587 o
7 2 15 24.811 27.889 2.620 o
7 3 1 17.391 17.086 1.569 o
7 3 2 34.253 28.646 1.741 o
7 3 3 14.653 12.238 0.856 o
7 3 4 13.260 11.637 0.804 o
7 3 5 4.342 2.609 0.764 o
7 3 10 8.566 6.170 1.413 o
7 3 12 11.340 9.696 2.232 o
7 3 13 26.283 25.433 2.460 o
7 3 15 37.049 39.462 10.248 o
7 4 2 4.774 3.689 1.228 o
7 4 3 102.027 95.538 3.633 o
7 4 5 27.216 25.932 1.988 o
7 4 7 44.948 38.392 8.914 o
7 4 8 52.215 54.237 4.622 o
7 4 9 15.233 14.423 2.001 o
7 4 11 66.847 69.506 6.460 o
7 5 1 11.999 7.769 1.793 o
8 0 0 95.046 94.994 4.357 o
8 0 2 36.500 37.720 1.772 o
8 0 4 50.261 56.438 4.550 o
8 0 6 43.372 44.239 3.153 o
8 0 8 62.034 62.835 3.962 o
8 0 10 486.318 522.371 17.230 o
8 0 12 127.558 141.587 6.441 o
8 0 14 15.603 13.327 3.104 o
8 1 0 220.854 224.255 10.994 o
8 1 1 144.526 152.908 4.166 o
8 1 3 21.140 18.752 1.049 o
8 1 4 85.834 89.982 2.514 o
8 1 5 153.604 164.353 5.684 o
8 1 6 210.261 204.656 6.187 o
8 1 7 4.573 5.966 0.872 o
8 1 8 171.369 171.384 5.459 o
8 1 9 159.401 161.838 4.989 o
8 1 10 140.101 146.504 4.846 o
8 1 11 4.439 6.227 1.424 o
8 1 12 42.727 42.904 3.863 o
8 1 14 14.575 13.076 1.897 o
8 1 15 36.805 40.517 3.107 o
8 2 0 442.843 448.087 19.676 o
8 2 1 66.073 69.969 4.355 o
8 2 2 5.065 5.136 0.951 o
8 2 3 5.812 4.457 0.804 o
8 2 4 353.528 343.735 9.731 o
8 2 5 11.542 11.122 1.407 o
8 2 6 10.652 10.099 0.911 o
8 2 7 109.547 104.223 7.526 o
8 2 8 58.882 59.422 2.817 o
8 2 9 33.937 31.555 1.613 o
8 2 12 13.124 12.710 1.877 o
8 2 13 8.342 8.240 1.901 o
8 2 14 9.570 8.576 2.078 o
8 3 1 44.592 44.328 3.385 o
8 3 2 14.095 12.937 1.570 o
8 3 3 12.229 10.492 1.009 o
8 3 11 16.422 11.164 1.907 o
8 3 12 12.754 11.126 2.212 o
8 3 13 42.588 58.810 13.516 o
8 4 1 93.673 82.953 5.202 o
8 4 2 6.180 6.460 1.658 o
8 4 3 80.721 75.027 3.251 o
8 4 7 16.268 11.594 3.011 o
8 4 9 21.719 19.482 2.929 o
8 4 10 15.450 11.657 3.524 o
8 5 1 56.962 53.018 6.403 o
8 5 3 22.886 19.224 2.670 o
8 5 4 18.127 13.596 3.161 o
9 0 2 75.002 78.287 4.150 o
9 0 4 31.858 32.010 1.574 o
9 0 6 4.263 4.220 1.107 o
9 0 8 575.692 622.605 38.017 o
9 0 10 8.463 7.780 1.769 o
9 0 12 802.141 880.686 45.615 o
9 1 0 88.056 90.345 3.162 o
9 1 1 17.706 19.366 1.653 o
9 1 2 361.304 374.156 10.912 o
9 1 3 34.521 37.305 1.562 o
9 1 4 69.580 71.529 2.290 o
9 1 5 63.973 68.178 2.430 o
9 1 6 165.322 169.911 7.617 o
9 1 7 17.297 16.185 1.043 o
9 1 8 29.902 30.360 1.729 o
9 1 10 43.788 43.478 2.050 o
9 1 11 86.950 88.965 8.690 o
9 1 12 64.954 71.033 3.620 o
9 1 13 36.867 41.633 2.987 o
9 2 0 8.659 8.526 1.661 o
9 2 2 9.432 9.272 1.002 o
9 2 3 142.871 148.925 6.021 o
9 2 4 5.876 5.816 1.008 o
9 2 5 20.967 20.249 2.143 o
9 2 6 39.190 34.099 2.750 o
9 2 7 41.918 41.016 2.829 o
9 3 1 11.211 11.633 1.215 o
9 3 2 24.625 22.025 2.878 o
9 3 3 17.867 13.821 1.568 o
9 3 5 50.577 47.595 3.327 o
9 3 6 73.160 73.348 3.156 o
9 3 7 31.035 20.847 6.605 o
9 3 9 9.389 7.221 1.803 o
9 3 10 47.187 44.387 5.807 o
9 4 1 9.219 8.878 1.779 o
9 4 3 55.575 50.891 4.533 o
9 4 7 32.912 31.149 4.184 o
10 0 4 28.629 31.900 3.368 o
10 0 6 30.716 31.728 3.627 o
10 0 8 285.375 309.110 10.689 o
10 0 12 8.923 11.938 3.018 o
10 1 0 15.372 19.079 1.672 o
10 1 1 142.329 144.626 5.352 o
10 1 2 84.818 87.009 8.855 o
10 1 3 12.018 13.967 1.973 o
10 1 6 3.724 5.222 1.415 o
10 1 7 16.533 17.488 1.364 o
10 1 8 34.328 33.190 1.574 o
10 1 10 6.630 7.559 1.171 o
10 1 11 70.400 77.832 5.342 o
10 1 12 52.961 54.617 3.676 o
10 2 0 238.497 240.474 36.932 o
10 2 1 46.247 52.668 13.845 o
10 2 3 77.249 81.702 4.447 o
10 2 4 40.419 38.164 6.443 o
10 2 7 21.787 20.909 2.305 o
10 2 8 22.706 19.004 1.602 o
10 3 0 6.281 6.243 1.258 o
10 3 3 24.576 21.880 2.606 o
10 3 4 22.909 23.304 2.794 o
10 3 5 30.181 28.400 2.244 o
10 3 7 36.269 34.577 2.648 o
10 4 0 30.041 26.879 3.982 o
10 4 1 30.247 30.253 3.913 o
11 0 0 57.020 51.389 4.059 o
11 0 2 70.014 70.687 4.308 o
11 0 4 467.958 482.727 23.351 o
11 0 6 64.202 72.007 4.684 o
11 0 8 71.345 75.439 5.097 o
11 0 10 112.634 117.988 7.467 o
11 1 0 42.914 43.627 3.313 o
11 1 1 9.937 8.719 2.320 o
11 1 2 20.431 18.737 1.725 o
11 1 3 9.461 12.770 2.103 o
11 1 5 19.769 15.412 1.800 o
11 1 6 20.850 23.722 2.090 o
11 1 9 14.761 15.056 2.040 o
11 1 10 51.928 58.165 3.896 o
11 2 0 27.509 31.888 2.574 o
11 2 2 49.547 49.017 3.468 o
11 2 4 9.173 7.543 1.686 o
11 2 5 34.329 31.884 5.650 o
11 2 6 4.978 6.554 1.822 o
11 2 7 31.302 33.028 2.801 o
11 2 8 8.145 8.897 2.162 o
11 3 1 11.323 11.902 2.813 o
11 3 2 39.139 34.806 3.521 o
11 3 3 110.065 95.913 6.122 o
11 3 5 57.124 52.638 4.668 o
12 0 0 37.139 35.802 3.972 o
12 1 0 10.137 9.138 1.931 o
12 1 5 17.442 14.412 2.937 o
12 1 6 55.795 60.052 5.296 o
12 1 7 44.091 40.659 4.667 o
12 2 0 24.816 22.930 3.305 o
12 2 2 34.991 29.324 2.810 o
12 2 3 20.550 18.982 2.541 o
