#------------------------------------------------------------------------------
#$Date: 2016-03-24 14:07:12 +0200 (Thu, 24 Mar 2016) $
#$Revision: 179652 $
#$URL: svn://www.crystallography.net/cod/cif/4/51/05/4510576.cif $
#------------------------------------------------------------------------------
#
# This file is available in the Crystallography Open Database (COD),
# http://www.crystallography.net/
#
# All data on this site have been placed in the public domain by the
# contributors.
#
data_4510576
loop_
_publ_author_name
'Eccles, Kevin S.'
'Morrison, Robin E.'
'Maguire, Anita R.'
'Lawrence, Simon E.'
_publ_section_title
;
 Crystal Landscape of Primary Aromatic Thioamides
;
_journal_issue                   6
_journal_name_full               'Crystal Growth &amp; Design'
_journal_page_first              2753
_journal_paper_doi               10.1021/cg401891f
_journal_volume                  14
_journal_year                    2014
_chemical_formula_moiety         'C8 H9 N O S'
_chemical_formula_sum            'C8 H9 N O S'
_chemical_formula_weight         167.22
_chemical_name_common            2-methoxy-thiobenzamide
_space_group_crystal_system      monoclinic
_space_group_IT_number           14
_space_group_name_Hall           '-P 2ybc'
_space_group_name_H-M_alt        'P 1 21/c 1'
_symmetry_space_group_name_Hall  '-P 2ybc'
_symmetry_space_group_name_H-M   'P 1 21/c 1'
_atom_sites_solution_hydrogens   geom
_atom_sites_solution_primary     direct
_atom_sites_solution_secondary   difmap
_cell_angle_alpha                90
_cell_angle_beta                 96.302(3)
_cell_angle_gamma                90
_cell_formula_units_Z            4
_cell_length_a                   5.8629(5)
_cell_length_b                   10.1168(10)
_cell_length_c                   14.1318(15)
_cell_measurement_reflns_used    1564
_cell_measurement_temperature    300.(2)
_cell_measurement_theta_max      25.8824
_cell_measurement_theta_min      2.4775
_cell_volume                     833.15(14)
_computing_cell_refinement       'SAINT V7.68A (Bruker AXS, 2009)'
_computing_data_collection       'Bruker Instrument Service v2009, 3, 0, 0'
_computing_data_reduction        'SAINT V7.68A (Bruker AXS, 2009)'
_computing_molecular_graphics    'Mercury 3.0 (Macrae et al, 2008)'
_computing_structure_refinement  'SHELXL-97 (Sheldrick, 2008)'
_computing_structure_solution    'SHELXS-97 (Sheldrick, 2008)'
_diffrn_ambient_temperature      300(2)
_diffrn_detector_area_resol_mean 8.3330
_diffrn_measured_fraction_theta_full 0.992
_diffrn_measured_fraction_theta_max 0.992
_diffrn_measurement_device_type  'Bruker SMART X2S'
_diffrn_measurement_method       '\w scans'
_diffrn_radiation_monochromator  'doubly curved silicon crystal'
_diffrn_radiation_source         'micro-focus sealed tube'
_diffrn_radiation_type           MoK\a
_diffrn_radiation_wavelength     0.71073
_diffrn_reflns_av_R_equivalents  0.0295
_diffrn_reflns_av_sigmaI/netI    0.0343
_diffrn_reflns_limit_h_max       7
_diffrn_reflns_limit_h_min       -7
_diffrn_reflns_limit_k_max       13
_diffrn_reflns_limit_k_min       -10
_diffrn_reflns_limit_l_max       18
_diffrn_reflns_limit_l_min       -18
_diffrn_reflns_number            6200
_diffrn_reflns_theta_full        27.49
_diffrn_reflns_theta_max         27.49
_diffrn_reflns_theta_min         3.50
_exptl_absorpt_coefficient_mu    0.327
_exptl_absorpt_correction_T_max  0.91
_exptl_absorpt_correction_T_min  0.81
_exptl_absorpt_correction_type   multi-scan
_exptl_absorpt_process_details   'SADABS V2008/1 (Bruker AXS)'
_exptl_crystal_colour            'clear yellow'
_exptl_crystal_density_diffrn    1.333
_exptl_crystal_density_method    'not measured'
_exptl_crystal_description       Block
_exptl_crystal_F_000             352
_exptl_crystal_size_max          0.420
_exptl_crystal_size_mid          0.400
_exptl_crystal_size_min          0.310
_refine_diff_density_max         0.178
_refine_diff_density_min         -0.255
_refine_ls_extinction_method     none
_refine_ls_goodness_of_fit_ref   1.049
_refine_ls_hydrogen_treatment    mixed
_refine_ls_matrix_type           full
_refine_ls_number_parameters     109
_refine_ls_number_reflns         1901
_refine_ls_number_restraints     1
_refine_ls_restrained_S_all      1.049
_refine_ls_R_factor_all          0.0669
_refine_ls_R_factor_gt           0.0419
_refine_ls_shift/su_max          0.000
_refine_ls_shift/su_mean         0.000
_refine_ls_structure_factor_coef Fsqd
_refine_ls_weighting_details
'calc w=1/[\s^2^(Fo^2^)+(0.0574P)^2^+0.0987P] where P=(Fo^2^+2Fc^2^)/3'
_refine_ls_weighting_scheme      calc
_refine_ls_wR_factor_gt          0.1049
_refine_ls_wR_factor_ref         0.1175
_reflns_number_gt                1338
_reflns_number_total             1901
_reflns_threshold_expression     >2sigma(I)
_iucr_refine_instructions_details
;
TITL scan_0m in P2(1)/c
CELL 0.71073   5.8629  10.1168  14.1318  90.000  96.302  90.000
ZERR    4.00   0.0005   0.0010   0.0015   0.000   0.003   0.000
LATT 1
SYMM -X, 0.5+Y, 0.5-Z
SFAC C  H  N  O  S  
UNIT 32  36  4  4  4  
L.S. 4
ACTA 
BOND $H
FMAP 2
PLAN 20
SIZE 0.310 0.400 0.420
HTAB N9 S8_$2
HTAB N9 O10
HTAB N9 S8_$1
EQIV $2_[ x+1, y, z ]
EQIV $1_[ -x+1, -y+1, -z ]
CONF
DFIX 0.86 0.01 N9 H9A
WGHT   0.057400   0.000000 
FVAR 0.279920 
TEMP 27.000
MOLE 1
C1     1   0.477563   0.858931   0.107224  11.000000   0.034350 = 
           0.042950   0.037640  -0.002850   0.004300  -0.000840
C2     1   0.654418   0.912462   0.171479  11.000000   0.038510 = 
           0.046140   0.037810  -0.001870   0.001430  -0.001130
C3     1   0.642501   1.042527   0.201795  11.000000   0.056150 = 
           0.050440   0.050490  -0.011120  -0.002770  -0.003360
AFIX 43
H3     2   0.757210   1.076345   0.245842  11.000000  -1.200000
AFIX 0
C4     1   0.461659   1.121590   0.166932  11.000000   0.068570 = 
           0.045580   0.065360  -0.012130   0.005410   0.004220
AFIX 43
H4     2   0.457028   1.209306   0.186316  11.000000  -1.200000
AFIX 0
C5     1   0.287940   1.072141   0.103770  11.000000   0.055050 = 
           0.052000   0.069650   0.000510   0.000100   0.013330
AFIX 43
H5     2   0.166019   1.125903   0.080278  11.000000  -1.200000
AFIX 0
C6     1   0.296105   0.942377   0.075627  11.000000   0.041470 = 
           0.054270   0.052370  -0.006480  -0.002660   0.002610
AFIX 43
H6     2   0.176057   0.909051   0.033952  11.000000  -1.200000
AFIX 0
C7     1   0.475931   0.720828   0.070749  11.000000   0.033360 = 
           0.047580   0.036600  -0.002460   0.000340  -0.001370
S8     5   0.229940   0.645278   0.029163  11.000000   0.034050 = 
           0.057460   0.069520  -0.017420  -0.003110  -0.005370
H9A    2   0.674258   0.579470   0.045817  11.000000   0.052000
H9B    2   0.802417   0.697839   0.090291  11.000000   0.070360
N9     3   0.673443   0.659132   0.069856  11.000000   0.033530 = 
           0.047940   0.076920  -0.020850  -0.002550  -0.000530
O10    4   0.833299   0.831532   0.202977  11.000000   0.042950 = 
           0.054220   0.055020  -0.009550  -0.013120   0.000750
C11    1   0.992491   0.874201   0.281407  11.000000   0.054030 = 
           0.069400   0.063750  -0.010970  -0.020150  -0.000870
AFIX 137
H11A   2   1.076371   0.949453   0.262509  11.000000  -1.500000
H11B   2   1.097475   0.803746   0.300208  11.000000  -1.500000
H11C   2   0.910134   0.897953   0.333979  11.000000  -1.500000
AFIX 
HKLF 4
END 
Q1     1   1.043900   1.025800   0.171200  11.000000   0.050000 0.150000
Q2     1   0.945500   0.719000   0.987300  11.000000   0.050000 0.150000
Q3     1   1.044700   0.774000   0.364700  11.000000   0.050000 0.150000
Q4     1   1.041000   0.958400   0.288200  11.000000   0.050000 0.140000
Q5     1   0.296300   0.664700  -0.012100  11.000000   0.050000 0.140000
Q6     1   0.892200   1.026600   0.349300  11.000000   0.050000 0.130000
Q7     1   0.004500   0.882500   0.109500  11.000000   0.050000 0.130000
Q8     1   0.112000   0.858700   0.078000  11.000000   0.050000 0.130000
Q9     1   0.553300   0.674400   0.088500  11.000000   0.050000 0.130000
Q10    1   0.895100   1.043400   0.128700  11.000000   0.050000 0.130000
Q11    1   0.533900   0.715000   0.052000  11.000000   0.050000 0.130000
Q12    1   0.314100   0.642600  -0.088800  11.000000   0.050000 0.120000
Q13    1   0.583400   0.890200   0.119500  11.000000   0.050000 0.120000
Q14    1   0.899400   0.188600   0.077200  11.000000   0.050000 0.120000
Q15    1   0.185300   0.909600  -0.019700  11.000000   0.050000 0.120000
Q16    1   0.351000   1.335400   0.198900  11.000000   0.050000 0.120000
Q17    1   0.202600   1.042100  -0.054000  11.000000   0.050000 0.120000
Q18    1   0.457700   0.917600  -0.000600  11.000000   0.050000 0.120000
Q19    1   0.201100   1.078900   0.119600  11.000000   0.050000 0.120000
Q20    1   0.627300   1.119900   0.077000  11.000000   0.050000 0.120000
HKLF 4
REM  scan_0m in P2(1)/c
REM R1=  0.0419 for   1338 Fo > 4sig(Fo)  and  0.0669 for all   1901 data
REM    109 parameters refined using      1 restraints

;
_cod_data_source_file            cg401891f_si_002.cif
_cod_data_source_block           Compound_07
_cod_depositor_comments
'Adding full bibliography for 4510565--4510578.cif.'
_cod_database_code               4510576
loop_
_space_group_symop_operation_xyz
'x, y, z'
'-x, y+1/2, -z+1/2'
'-x, -y, -z'
'x, -y-1/2, z-1/2'
loop_
_atom_site_type_symbol
_atom_site_label
_atom_site_fract_x
_atom_site_fract_y
_atom_site_fract_z
_atom_site_U_iso_or_equiv
_atom_site_adp_type
_atom_site_calc_flag
_atom_site_refinement_flags
_atom_site_occupancy
C C1 0.4776(3) 0.85893(17) 0.10722(13) 0.0383(4) Uani d . 1
C C2 0.6544(3) 0.91246(19) 0.17148(13) 0.0410(4) Uani d . 1
C C3 0.6425(4) 1.0425(2) 0.20180(15) 0.0530(5) Uani d . 1
H H3 0.7572 1.0763 0.2458 0.064 Uiso calc R 1
C C4 0.4617(4) 1.1216(2) 0.16693(17) 0.0600(6) Uani d . 1
H H4 0.457 1.2093 0.1863 0.072 Uiso calc R 1
C C5 0.2879(4) 1.0721(2) 0.10377(17) 0.0594(6) Uani d . 1
H H5 0.166 1.1259 0.0803 0.071 Uiso calc R 1
C C6 0.2961(3) 0.9424(2) 0.07563(15) 0.0499(5) Uani d . 1
H H6 0.1761 0.9091 0.034 0.06 Uiso calc R 1
C C7 0.4759(3) 0.72083(19) 0.07075(13) 0.0394(4) Uani d . 1
S S8 0.22994(8) 0.64528(5) 0.02916(4) 0.0543(2) Uani d . 1
H H9A 0.674(3) 0.5795(12) 0.0458(13) 0.052(6) Uiso d D 1
H H9B 0.802(4) 0.698(2) 0.0903(18) 0.070(7) Uiso d . 1
N N9 0.6734(3) 0.65913(18) 0.06986(14) 0.0534(5) Uani d D 1
O O10 0.8333(2) 0.83153(14) 0.20298(10) 0.0521(4) Uani d . 1
C C11 0.9925(4) 0.8742(2) 0.28141(17) 0.0644(6) Uani d . 1
H H11A 1.0764 0.9495 0.2625 0.097 Uiso calc R 1
H H11B 1.0975 0.8037 0.3002 0.097 Uiso calc R 1
H H11C 0.9101 0.898 0.334 0.097 Uiso calc R 1
loop_
_atom_site_aniso_label
_atom_site_aniso_U_11
_atom_site_aniso_U_22
_atom_site_aniso_U_33
_atom_site_aniso_U_12
_atom_site_aniso_U_13
_atom_site_aniso_U_23
C1 0.0344(9) 0.0430(10) 0.0376(10) -0.0008(8) 0.0043(7) -0.0028(8)
C2 0.0385(10) 0.0461(11) 0.0378(10) -0.0011(8) 0.0014(8) -0.0019(8)
C3 0.0562(12) 0.0504(12) 0.0505(12) -0.0034(10) -0.0028(10) -0.0111(9)
C4 0.0686(15) 0.0456(12) 0.0654(15) 0.0042(10) 0.0054(12) -0.0121(10)
C5 0.0550(13) 0.0520(13) 0.0697(15) 0.0133(11) 0.0001(11) 0.0005(11)
C6 0.0415(10) 0.0543(12) 0.0524(12) 0.0026(9) -0.0027(9) -0.0065(10)
C7 0.0334(9) 0.0476(11) 0.0366(9) -0.0014(8) 0.0003(7) -0.0025(8)
S8 0.0341(3) 0.0575(4) 0.0695(4) -0.0054(2) -0.0031(2) -0.0174(3)
N9 0.0335(9) 0.0479(11) 0.0769(13) -0.0005(8) -0.0025(9) -0.0209(9)
O10 0.0429(8) 0.0542(9) 0.0550(9) 0.0007(6) -0.0131(6) -0.0096(7)
C11 0.0540(13) 0.0694(15) 0.0638(14) -0.0009(11) -0.0202(11) -0.0110(12)
loop_
_atom_type_symbol
_atom_type_description
_atom_type_scat_dispersion_real
_atom_type_scat_dispersion_imag
_atom_type_scat_source
C C 0.0033 0.0016 'International Tables Vol C Tables 4.2.6.8 and 6.1.1.4'
H H 0.0000 0.0000 'International Tables Vol C Tables 4.2.6.8 and 6.1.1.4'
N N 0.0061 0.0033 'International Tables Vol C Tables 4.2.6.8 and 6.1.1.4'
O O 0.0106 0.0060 'International Tables Vol C Tables 4.2.6.8 and 6.1.1.4'
S S 0.1246 0.1234 'International Tables Vol C Tables 4.2.6.8 and 6.1.1.4'
loop_
_geom_angle_atom_site_label_1
_geom_angle_atom_site_label_2
_geom_angle_atom_site_label_3
_geom_angle
C6 C1 C2 117.11(17)
C6 C1 C7 118.83(16)
C2 C1 C7 124.05(16)
O10 C2 C3 122.04(17)
O10 C2 C1 117.64(16)
C3 C2 C1 120.32(18)
C4 C3 C2 120.24(19)
C4 C3 H3 119.9
C2 C3 H3 119.9
C5 C4 C3 120.6(2)
C5 C4 H4 119.7
C3 C4 H4 119.7
C4 C5 C6 119.3(2)
C4 C5 H5 120.3
C6 C5 H5 120.3
C5 C6 C1 122.41(19)
C5 C6 H6 118.8
C1 C6 H6 118.8
N9 C7 C1 118.42(16)
N9 C7 S8 120.20(15)
C1 C7 S8 121.37(13)
C7 N9 H9A 118.9(13)
C7 N9 H9B 121.0(16)
H9A N9 H9B 120.(2)
C2 O10 C11 118.84(15)
O10 C11 H11A 109.5
O10 C11 H11B 109.5
H11A C11 H11B 109.5
O10 C11 H11C 109.5
H11A C11 H11C 109.5
H11B C11 H11C 109.5
loop_
_geom_bond_atom_site_label_1
_geom_bond_atom_site_label_2
_geom_bond_distance
C1 C6 1.393(3)
C1 C2 1.409(2)
C1 C7 1.489(3)
C2 O10 1.366(2)
C2 C3 1.388(3)
C3 C4 1.375(3)
C3 H3 0.93
C4 C5 1.373(3)
C4 H4 0.93
C5 C6 1.374(3)
C5 H5 0.93
C6 H6 0.93
C7 N9 1.317(2)
C7 S8 1.6803(17)
N9 H9A 0.875(9)
N9 H9B 0.87(2)
O10 C11 1.435(2)
C11 H11A 0.96
C11 H11B 0.96
C11 H11C 0.96
loop_
_geom_hbond_atom_site_label_D
_geom_hbond_atom_site_label_H
_geom_hbond_atom_site_label_A
_geom_hbond_site_symmetry_A
_geom_hbond_distance_DH
_geom_hbond_distance_HA
_geom_hbond_distance_DA
_geom_hbond_angle_DHA
N9 H9A S8 3_665 0.875(9) 2.596(10) 3.4550(19) 167.4(17)
N9 H9B O10 . 0.87(2) 2.08(2) 2.659(2) 123.(2)
N9 H9B S8 1_655 0.87(2) 2.79(2) 3.3775(19) 126.0(19)
loop_
_geom_torsion_atom_site_label_1
_geom_torsion_atom_site_label_2
_geom_torsion_atom_site_label_3
_geom_torsion_atom_site_label_4
_geom_torsion
C6 C1 C2 O10 179.99(16)
C7 C1 C2 O10 -1.0(3)
C6 C1 C2 C3 0.8(3)
C7 C1 C2 C3 179.88(18)
O10 C2 C3 C4 178.72(19)
C1 C2 C3 C4 -2.2(3)
C2 C3 C4 C5 1.7(3)
C3 C4 C5 C6 0.1(4)
C4 C5 C6 C1 -1.4(4)
C2 C1 C6 C5 1.0(3)
C7 C1 C6 C5 -178.1(2)
C6 C1 C7 N9 154.67(19)
C2 C1 C7 N9 -24.4(3)
C6 C1 C7 S8 -24.0(2)
C2 C1 C7 S8 157.00(16)
C3 C2 O10 C11 10.9(3)
C1 C2 O10 C11 -168.23(18)
