#------------------------------------------------------------------------------
#$Date: 2016-03-24 14:09:40 +0200 (Thu, 24 Mar 2016) $
#$Revision: 179654 $
#$URL: svn://www.crystallography.net/cod/cif/4/51/07/4510702.cif $
#------------------------------------------------------------------------------
#
# This file is available in the Crystallography Open Database (COD),
# http://www.crystallography.net/
#
# All data on this site have been placed in the public domain by the
# contributors.
#
data_4510702
loop_
_publ_author_name
'Olejniczak, Anna'
'Anio\/la, Michalina'
'Szafra\'nski, Marek'
'Budzianowski, Armand'
'Katrusiak, Andrzej'
_publ_section_title
;
 New Polar Phases of 1,4-Diazabicyclo[2.2.2]octane Perchlorate, An
 NH+&#x00B7;&#x00B7;&#x00B7;N Hydrogen-Bonded Ferroelectric
;
_journal_issue                   7
_journal_name_full               'Crystal Growth &amp; Design'
_journal_page_first              2872
_journal_paper_doi               10.1021/cg400276c
_journal_volume                  13
_journal_year                    2013
_chemical_formula_moiety         'C6 H13 N2, Cl O4'
_chemical_formula_sum            'C6 H13 Cl N2 O4'
_chemical_formula_weight         212.63
_chemical_name_common
;
dabcoHClO4
;
_chemical_name_systematic
; 
1,4-diazabicyclo[2.2.2]octane perchlorate
;
_space_group_IT_number           31
_symmetry_cell_setting           orthorhombic
_symmetry_space_group_name_Hall  'P -2ab -2'
_symmetry_space_group_name_H-M   'P m 21 n'
_atom_sites_solution_hydrogens   geom
_atom_sites_solution_primary     direct
_atom_sites_solution_secondary   difmap
_audit_creation_method           SHELXL-97
_cell_angle_alpha                90.00
_cell_angle_beta                 90.00
_cell_angle_gamma                90.00
_cell_formula_units_Z            2
_cell_length_a                   8.8206(9)
_cell_length_b                   9.7598(13)
_cell_length_c                   5.3440(6)
_cell_measurement_reflns_used    2116
_cell_measurement_temperature    253(2)
_cell_measurement_theta_max      29.06
_cell_measurement_theta_min      3.81
_cell_volume                     460.05(9)
_computing_cell_refinement       'CrysAlis (Oxford Diffraction, 2002)'
_computing_data_collection       'CrysAlis (Oxford Diffraction, 2002)'
_computing_data_reduction        'CrysAlis (Oxford Diffraction, 2002)'
_computing_molecular_graphics
;X-Seed (Barbour, 2001) 
and POV-Ray (Persistence of Vision, 2004)
;
_computing_publication_material  'SHELXL-97 (Sheldrick, 1997)'
_computing_structure_refinement  'SHELXL-97 (Sheldrick, 1997)'
_computing_structure_solution    'SHELXS-97 (Sheldrick, 1997)'
_diffrn_ambient_temperature      253(2)
_diffrn_measured_fraction_theta_full 0.949
_diffrn_measured_fraction_theta_max 0.949
_diffrn_radiation_monochromator  graphite
_diffrn_radiation_source         'fine-focus sealed tube'
_diffrn_radiation_type           MoK\a
_diffrn_radiation_wavelength     0.71073
_diffrn_reflns_av_R_equivalents  0.0276
_diffrn_reflns_av_sigmaI/netI    0.0175
_diffrn_reflns_limit_h_max       11
_diffrn_reflns_limit_h_min       -11
_diffrn_reflns_limit_k_max       13
_diffrn_reflns_limit_k_min       -9
_diffrn_reflns_limit_l_max       7
_diffrn_reflns_limit_l_min       -5
_diffrn_reflns_number            2116
_diffrn_reflns_theta_full        29.06
_diffrn_reflns_theta_max         29.06
_diffrn_reflns_theta_min         3.81
_exptl_absorpt_coefficient_mu    0.402
_exptl_absorpt_correction_T_max  0.95
_exptl_absorpt_correction_T_min  0.90
_exptl_absorpt_correction_type   numerical
_exptl_absorpt_process_details
; 
Correction for absorption was made using XEMP (SHELXTL, 
Sheldrick (1990)).
;
_exptl_crystal_colour            colourless
_exptl_crystal_density_diffrn    1.535
_exptl_crystal_density_method    'not measured'
_exptl_crystal_description       plate
_exptl_crystal_F_000             224
_exptl_crystal_size_max          0.40
_exptl_crystal_size_mid          0.20
_exptl_crystal_size_min          0.15
_refine_diff_density_max         0.385
_refine_diff_density_min         -0.244
_refine_diff_density_rms         0.054
_refine_ls_abs_structure_details 'Flack H D (1983), Acta Cryst. A39, 876-881'
_refine_ls_abs_structure_Flack   0.18(11)
_refine_ls_extinction_coef       0.035(6)
_refine_ls_extinction_expression Fc^*^=kFc[1+0.001xFc^2^\l^3^/sin(2\q)]^-1/4^
_refine_ls_extinction_method     SHELXL
_refine_ls_goodness_of_fit_ref   1.084
_refine_ls_hydrogen_treatment    constr
_refine_ls_matrix_type           full
_refine_ls_number_parameters     71
_refine_ls_number_reflns         1000
_refine_ls_number_restraints     1
_refine_ls_restrained_S_all      1.083
_refine_ls_R_factor_all          0.0332
_refine_ls_R_factor_gt           0.0324
_refine_ls_shift/su_max          0.000
_refine_ls_shift/su_mean         0.000
_refine_ls_structure_factor_coef Fsqd
_refine_ls_weighting_details
'calc w=1/[\s^2^(Fo^2^)+(0.0519P)^2^+0.1057P] where P=(Fo^2^+2Fc^2^)/3'
_refine_ls_weighting_scheme      calc
_refine_ls_wR_factor_gt          0.0882
_refine_ls_wR_factor_ref         0.0892
_reflns_number_gt                971
_reflns_number_total             1000
_reflns_threshold_expression     >2sigma(I)
_cod_data_source_file            cg400276c_si_002.cif
_cod_data_source_block           dabcoHClO4_II_253K
_cod_original_sg_symbol_H-M      Pm21n
_cod_database_code               4510702
loop_
_symmetry_equiv_pos_as_xyz
'x, y, z'
'-x+1/2, y+1/2, -z'
'x+1/2, y+1/2, -z'
'-x, y, z'
loop_
_atom_site_label
_atom_site_type_symbol
_atom_site_fract_x
_atom_site_fract_y
_atom_site_fract_z
_atom_site_U_iso_or_equiv
_atom_site_adp_type
_atom_site_occupancy
_atom_site_symmetry_multiplicity
_atom_site_calc_flag
_atom_site_refinement_flags
Cl Cl 0.0000 -0.01709(10) -0.06885(11) 0.0353(2) Uani 1 2 d S
O1 O 0.0000 -0.0170(8) -0.3357(4) 0.0796(9) Uani 1 2 d S
O2 O 0.1325(2) -0.0872(3) 0.0168(4) 0.0584(6) Uani 1 1 d .
O3 O 0.0000 0.1194(4) 0.0232(7) 0.0735(10) Uani 1 2 d S
N2 N 0.0000 0.5482(4) 0.2804(5) 0.0371(6) Uani 1 2 d S
N1 N 0.0000 0.5469(3) 0.7518(5) 0.0405(7) Uani 1 2 d S
H1 H 0.0000 0.5475 0.9221 0.049 Uiso 1 2 calc SR
C2 C 0.0000 0.4092(5) 0.3709(8) 0.083(2) Uani 1 2 d S
H2A H 0.0889 0.3621 0.3078 0.099 Uiso 0.50 1 calc PR
H2B H -0.0889 0.3621 0.3078 0.099 Uiso 0.50 1 calc PR
C1 C 0.0000 0.4034(5) 0.6628(6) 0.0537(11) Uani 1 2 d S
H1A H -0.0893 0.3556 0.7229 0.064 Uiso 0.50 1 calc PR
H1B H 0.0893 0.3556 0.7229 0.064 Uiso 0.50 1 calc PR
C4 C 0.1335(3) 0.6196(4) 0.3771(5) 0.0600(8) Uani 1 1 d .
H4A H 0.1328 0.7134 0.3172 0.072 Uiso 1 1 calc R
H4B H 0.2242 0.5756 0.3131 0.072 Uiso 1 1 calc R
C3 C 0.1385(3) 0.6198(3) 0.6589(4) 0.0466(6) Uani 1 1 d .
H3A H 0.2292 0.5735 0.7171 0.056 Uiso 1 1 calc R
H3B H 0.1401 0.7132 0.7211 0.056 Uiso 1 1 calc R
loop_
_atom_site_aniso_label
_atom_site_aniso_U_11
_atom_site_aniso_U_22
_atom_site_aniso_U_33
_atom_site_aniso_U_23
_atom_site_aniso_U_13
_atom_site_aniso_U_12
Cl 0.0365(3) 0.0373(3) 0.0323(3) 0.0008(4) 0.000 0.000
O1 0.0665(14) 0.143(3) 0.0295(11) 0.011(3) 0.000 0.000
O2 0.0510(10) 0.0629(14) 0.0613(10) -0.0041(10) -0.0152(8) 0.0200(9)
O3 0.084(2) 0.0350(16) 0.101(3) -0.0107(16) 0.000 0.000
N2 0.0494(14) 0.0463(17) 0.0155(10) -0.0001(12) 0.000 0.000
N1 0.0679(17) 0.0398(16) 0.0137(10) 0.0000(11) 0.000 0.000
C2 0.184(6) 0.035(2) 0.0290(17) -0.009(2) 0.000 0.000
C1 0.098(3) 0.0321(19) 0.0308(17) 0.0047(17) 0.000 0.000
C4 0.0388(12) 0.101(3) 0.0405(12) 0.0012(15) 0.0106(10) -0.0154(13)
C3 0.0445(11) 0.0542(15) 0.0412(12) -0.0037(11) -0.0151(9) 0.0022(10)
loop_
_atom_type_symbol
_atom_type_description
_atom_type_scat_dispersion_real
_atom_type_scat_dispersion_imag
_atom_type_scat_source
C C 0.0033 0.0016 'International Tables Vol C Tables 4.2.6.8 and 6.1.1.4'
H H 0.0000 0.0000 'International Tables Vol C Tables 4.2.6.8 and 6.1.1.4'
N N 0.0061 0.0033 'International Tables Vol C Tables 4.2.6.8 and 6.1.1.4'
I I -0.4742 1.8119 'International Tables Vol C Tables 4.2.6.8 and 6.1.1.4'
loop_
_geom_angle_atom_site_label_1
_geom_angle_atom_site_label_2
_geom_angle_atom_site_label_3
_geom_angle
_geom_angle_site_symmetry_1
_geom_angle_site_symmetry_3
O3 Cl O1 110.2(4) . .
O3 Cl O2 109.75(13) . 4
O1 Cl O2 108.70(18) . 4
O3 Cl O2 109.75(13) . .
O1 Cl O2 108.70(18) . .
O2 Cl O2 109.7(2) 4 .
C2 N2 C4 109.3(2) . .
C2 N2 C4 109.3(2) . 4
C4 N2 C4 107.2(3) . 4
C1 N1 C3 110.07(18) . .
C1 N1 C3 110.07(18) . 4
C3 N1 C3 109.2(3) . 4
C1 N1 H1 109.1 . .
C3 N1 H1 109.1 . .
C3 N1 H1 109.1 4 .
N2 C2 C1 111.7(3) . .
N2 C2 H2A 109.3 . .
C1 C2 H2A 109.3 . .
N2 C2 H2B 109.3 . .
C1 C2 H2B 109.3 . .
H2A C2 H2B 107.9 . .
N1 C1 C2 106.7(3) . .
N1 C1 H1A 110.4 . .
C2 C1 H1A 110.4 . .
N1 C1 H1B 110.4 . .
C2 C1 H1B 110.4 . .
H1A C1 H1B 108.6 . .
N2 C4 C3 112.2(2) . .
N2 C4 H4A 109.2 . .
C3 C4 H4A 109.2 . .
N2 C4 H4B 109.2 . .
C3 C4 H4B 109.2 . .
H4A C4 H4B 107.9 . .
N1 C3 C4 107.83(19) . .
N1 C3 H3A 110.1 . .
C4 C3 H3A 110.1 . .
N1 C3 H3B 110.1 . .
C4 C3 H3B 110.1 . .
H3A C3 H3B 108.5 . .
loop_
_geom_bond_atom_site_label_1
_geom_bond_atom_site_label_2
_geom_bond_distance
_geom_bond_site_symmetry_2
Cl O3 1.420(4) .
Cl O1 1.426(2) .
Cl O2 1.4291(19) 4
Cl O2 1.4291(19) .
N2 C2 1.440(5) .
N2 C4 1.463(3) .
N2 C4 1.463(3) 4
N1 C1 1.479(5) .
N1 C3 1.499(3) .
N1 C3 1.499(3) 4
N1 H1 0.9100 .
C2 C1 1.561(5) .
C2 H2A 0.9700 .
C2 H2B 0.9700 .
C1 H1A 0.9700 .
C1 H1B 0.9700 .
C4 C3 1.507(3) .
C4 H4A 0.9700 .
C4 H4B 0.9700 .
C3 H3A 0.9700 .
C3 H3B 0.9700 .
loop_
_geom_torsion_atom_site_label_1
_geom_torsion_atom_site_label_2
_geom_torsion_atom_site_label_3
_geom_torsion_atom_site_label_4
_geom_torsion
_geom_torsion_site_symmetry_1
C4 N2 C2 C1 58.53(16) .
C4 N2 C2 C1 -58.53(16) 4
C3 N1 C1 C2 -60.23(15) .
C3 N1 C1 C2 60.23(15) 4
N2 C2 C1 N1 0.000(1) .
C2 N2 C4 C3 -58.3(3) .
C4 N2 C4 C3 60.0(4) 4
C1 N1 C3 C4 61.4(3) .
C3 N1 C3 C4 -59.5(3) 4
N2 C4 C3 N1 -1.0(4) .
loop_
_refln_index_h
_refln_index_k
_refln_index_l
_refln_F_squared_calc
_refln_F_squared_meas
_refln_F_squared_sigma
_refln_observed_status
4 -6 0 142.29 149.41 1.75 o
6 -6 0 51.40 57.58 1.54 o
3 -5 0 679.87 729.25 3.07 o
5 -5 0 412.54 417.12 2.88 o
7 -5 0 125.04 126.44 1.99 o
9 -5 0 33.34 29.22 1.51 o
2 -4 0 229.51 207.69 1.39 o
4 -4 0 920.07 1001.68 3.81 o
6 -4 0 61.81 58.13 1.39 o
8 -4 0 12.48 9.97 0.99 o
10 -4 0 43.56 47.71 1.84 o
1 -3 0 1768.30 1726.65 3.12 o
3 -3 0 428.17 493.33 2.30 o
5 -3 0 41.08 50.82 1.20 o
7 -3 0 349.80 379.63 3.30 o
9 -3 0 47.73 52.73 1.77 o
11 -3 0 5.35 5.48 1.09 o
2 -2 0 2939.80 2957.53 8.96 o
4 -2 0 1113.84 1065.24 3.80 o
8 -2 0 211.64 231.47 3.15 o
10 -2 0 42.88 40.09 1.58 o
3 -1 0 1386.37 1419.28 3.72 o
5 -1 0 189.02 185.45 2.02 o
7 -1 0 161.32 147.66 2.36 o
9 -1 0 41.20 45.67 1.70 o
11 -1 0 29.04 29.78 1.57 o
2 0 0 7112.78 7910.40 15.38 o
4 0 0 276.18 294.16 2.10 o
6 0 0 1301.50 1355.54 5.41 o
8 0 0 725.40 765.60 5.20 o
10 0 0 24.56 22.41 1.53 o
3 1 0 1423.77 1450.04 38.79 o
5 1 0 197.68 196.81 2.06 o
7 1 0 154.22 141.54 2.30 o
9 1 0 40.24 46.71 1.75 o
11 1 0 30.17 30.69 1.79 o
0 2 0 7169.24 6508.58 13.07 o
2 2 0 2942.75 3025.56 6.62 o
4 2 0 1118.78 1079.05 20.17 o
6 2 0 582.20 650.12 2.50 o
8 2 0 215.49 233.50 3.13 o
10 2 0 42.45 36.42 1.62 o
1 3 0 1750.72 1596.65 3.66 o
3 3 0 449.21 523.04 13.02 o
5 3 0 44.49 51.48 1.11 o
7 3 0 343.32 358.75 3.37 o
9 3 0 46.49 47.42 1.75 o
11 3 0 6.16 5.38 1.09 o
0 4 0 613.10 635.45 2.75 o
2 4 0 232.06 214.17 1.05 o
4 4 0 936.67 1001.24 23.01 o
6 4 0 61.48 60.76 1.70 o
8 4 0 10.78 9.79 1.17 o
10 4 0 44.44 49.72 1.95 o
1 5 0 1011.71 991.44 3.80 o
3 5 0 670.70 663.30 3.32 o
5 5 0 407.21 398.00 7.59 o
7 5 0 124.17 123.69 1.53 o
9 5 0 32.75 33.25 1.65 o
0 6 0 195.49 205.74 2.10 o
2 6 0 56.30 34.75 1.05 o
4 6 0 149.12 152.90 1.97 o
6 6 0 49.03 50.76 1.04 o
8 6 0 22.45 26.70 1.50 o
10 6 0 18.14 18.96 1.45 o
1 7 0 432.89 424.69 2.28 o
3 7 0 1172.51 1230.07 5.31 o
5 7 0 479.53 505.58 2.70 o
7 7 0 27.74 26.45 1.26 o
9 7 0 30.19 29.70 1.53 o
0 8 0 109.66 117.91 1.99 o
2 8 0 49.20 44.56 1.02 o
4 8 0 20.72 28.61 1.53 o
6 8 0 22.86 24.96 1.35 o
8 8 0 20.12 20.94 1.53 o
1 9 0 141.83 152.35 1.73 o
3 9 0 226.47 216.66 2.01 o
5 9 0 91.58 86.31 1.80 o
0 10 0 50.94 37.84 1.65 o
2 10 0 22.68 22.87 0.89 o
4 10 0 40.41 43.36 1.11 o
1 11 0 25.03 23.89 0.97 o
3 11 0 2.84 5.26 0.69 o
5 11 0 2.82 5.47 0.92 o
0 12 0 33.73 55.80 1.97 o
2 12 0 34.46 41.38 2.38 o
4 12 0 22.48 15.59 1.43 o
1 13 0 3.32 1.14 0.75 o
5 -7 1 72.52 73.59 1.55 o
6 -7 1 8.52 7.42 0.83 o
8 -7 1 5.87 5.77 0.92 o
3 -6 1 24.90 28.01 1.07 o
6 -6 1 64.82 64.92 1.66 o
7 -6 1 14.75 14.68 1.07 o
8 -6 1 7.55 6.96 0.91 o
9 -6 1 3.99 3.34 0.81 o
3 -5 1 188.51 186.57 1.07 o
4 -5 1 54.84 57.81 0.85 o
5 -5 1 89.68 91.35 1.29 o
6 -5 1 28.86 30.33 1.24 o
8 -5 1 17.19 17.52 1.12 o
9 -5 1 11.26 14.19 1.20 o
10 -5 1 5.54 5.80 1.04 o
2 -4 1 51.57 48.67 0.46 o
3 -4 1 150.08 154.77 0.97 o
4 -4 1 67.80 70.02 1.45 o
5 -4 1 60.69 59.56 0.87 o
6 -4 1 93.21 96.57 1.21 o
7 -4 1 18.94 18.84 0.77 o
8 -4 1 49.12 55.00 1.16 o
9 -4 1 11.12 10.87 0.68 o
11 -4 1 3.78 1.90 0.75 o
2 -3 1 237.71 250.36 1.75 o
3 -3 1 201.76 191.20 1.05 o
4 -3 1 108.95 108.31 2.39 o
5 -3 1 117.42 125.66 1.20 o
6 -3 1 65.60 66.25 1.05 o
7 -3 1 18.88 18.40 0.78 o
8 -3 1 18.94 20.88 1.24 o
9 -3 1 17.03 17.19 0.86 o
10 -3 1 4.85 4.55 0.53 o
11 -3 1 17.65 16.36 0.79 o
1 -2 1 397.02 375.49 1.80 o
2 -2 1 506.62 511.81 2.93 o
3 -2 1 334.31 328.76 3.02 o
4 -2 1 791.10 873.72 10.59 o
5 -2 1 114.99 118.18 1.17 o
6 -2 1 102.59 99.92 1.19 o
7 -2 1 30.33 30.01 0.88 o
8 -2 1 103.25 111.00 1.59 o
9 -2 1 13.89 12.66 0.66 o
10 -2 1 17.02 17.01 0.91 o
11 -2 1 4.64 3.64 0.52 o
1 -1 1 4154.15 4143.25 61.32 o
2 -1 1 325.06 336.88 9.14 o
3 -1 1 11.95 8.82 0.30 o
4 -1 1 192.29 207.18 1.78 o
5 -1 1 89.53 88.41 1.01 o
6 -1 1 56.05 60.15 1.99 o
7 -1 1 348.05 374.05 3.63 o
8 -1 1 17.51 18.26 0.65 o
9 -1 1 54.26 53.64 1.00 o
10 -1 1 9.79 9.15 0.59 o
11 -1 1 2.17 1.69 0.40 o
0 0 1 310.63 325.37 1.28 o
1 0 1 571.81 541.42 2.37 o
2 0 1 446.02 405.37 5.09 o
3 0 1 288.99 276.94 1.29 o
4 0 1 149.99 135.30 1.44 o
5 0 1 162.69 142.96 2.04 o
6 0 1 98.36 99.22 1.02 o
7 0 1 46.04 54.92 1.16 o
8 0 1 56.66 57.10 1.60 o
9 0 1 7.01 8.04 0.60 o
10 0 1 30.91 33.50 0.87 o
11 0 1 3.86 3.27 0.65 o
0 1 1 259.89 265.03 7.43 o
1 1 1 4163.61 4118.14 84.54 o
2 1 1 325.68 334.06 8.08 o
3 1 1 10.83 7.50 0.25 o
4 1 1 192.32 206.46 3.75 o
5 1 1 91.62 88.81 0.73 o
6 1 1 55.69 59.32 0.87 o
7 1 1 350.37 371.21 5.45 o
8 1 1 17.66 16.08 1.32 o
9 1 1 54.33 54.59 1.03 o
10 1 1 9.94 8.88 0.85 o
11 1 1 1.90 1.11 0.61 o
0 2 1 1246.92 1110.18 48.67 o
1 2 1 397.24 351.40 13.75 o
2 2 1 527.47 524.26 11.57 o
3 2 1 332.16 321.60 5.21 o
4 2 1 815.79 906.25 19.33 o
5 2 1 114.22 117.36 2.97 o
6 2 1 102.08 96.20 1.03 o
7 2 1 30.30 29.21 0.75 o
8 2 1 100.49 105.14 1.21 o
9 2 1 13.72 12.35 0.78 o
10 2 1 18.12 19.34 1.04 o
11 2 1 4.56 3.56 0.94 o
0 3 1 442.66 412.66 18.20 o
1 3 1 113.26 106.46 4.08 o
2 3 1 237.95 241.03 5.92 o
3 3 1 206.38 190.95 4.87 o
4 3 1 108.88 106.35 2.06 o
5 3 1 120.75 124.82 2.45 o
6 3 1 65.82 65.16 1.20 o
7 3 1 17.96 18.24 0.64 o
8 3 1 19.18 20.41 0.89 o
9 3 1 16.65 17.02 1.08 o
10 3 1 4.95 5.16 0.73 o
11 3 1 17.74 16.89 1.03 o
0 4 1 401.07 356.45 2.27 o
1 4 1 162.47 155.23 4.98 o
2 4 1 55.45 52.37 1.61 o
3 4 1 150.03 152.23 2.82 o
4 4 1 73.95 75.25 1.93 o
5 4 1 59.98 57.37 1.59 o
6 4 1 92.49 95.81 0.96 o
7 4 1 18.66 17.60 0.69 o
8 4 1 48.22 49.45 0.96 o
9 4 1 11.19 11.20 0.78 o
10 4 1 3.73 4.20 0.68 o
11 4 1 3.74 1.49 0.53 o
0 5 1 208.00 195.94 1.96 o
1 5 1 379.86 391.77 11.12 o
2 5 1 125.95 114.11 2.31 o
3 5 1 192.88 184.36 4.20 o
4 5 1 54.50 56.08 1.08 o
5 5 1 89.96 89.88 1.66 o
6 5 1 29.34 30.68 0.94 o
7 5 1 58.75 57.62 0.98 o
8 5 1 17.41 15.91 0.84 o
9 5 1 10.93 12.39 0.64 o
10 5 1 5.51 5.48 0.85 o
0 6 1 71.95 63.18 1.95 o
1 6 1 65.95 56.23 0.73 o
2 6 1 283.10 280.01 2.44 o
3 6 1 25.64 28.44 0.43 o
4 6 1 404.50 405.65 1.70 o
5 6 1 17.01 14.49 0.65 o
6 6 1 64.11 64.77 1.11 o
7 6 1 14.65 15.53 0.85 o
8 6 1 7.62 6.49 0.53 o
9 6 1 4.00 3.67 0.68 o
10 6 1 17.23 14.56 1.00 o
0 7 1 26.46 30.20 1.80 o
1 7 1 72.30 69.01 0.85 o
2 7 1 39.30 37.52 0.72 o
3 7 1 111.20 102.88 1.95 o
4 7 1 32.71 31.19 0.82 o
5 7 1 71.96 68.12 1.10 o
6 7 1 8.45 7.75 0.49 o
7 7 1 30.16 31.49 0.78 o
8 7 1 5.92 5.64 0.64 o
9 7 1 12.01 15.07 1.68 o
10 7 1 3.69 3.74 0.93 o
0 8 1 38.89 36.81 0.93 o
1 8 1 28.28 28.05 0.58 o
2 8 1 181.99 184.51 2.08 o
3 8 1 4.92 4.41 0.46 o
4 8 1 223.93 232.47 4.21 o
5 8 1 5.27 5.24 0.78 o
6 8 1 26.27 26.27 1.04 o
7 8 1 8.95 8.94 0.87 o
8 8 1 6.44 6.52 0.69 o
9 8 1 3.19 2.21 0.92 o
0 9 1 17.26 16.39 0.78 o
1 9 1 88.96 97.33 1.30 o
2 9 1 10.77 11.39 0.48 o
3 9 1 55.68 61.99 1.27 o
4 9 1 9.02 10.38 0.72 o
5 9 1 28.14 31.08 1.03 o
6 9 1 7.36 7.04 0.86 o
7 9 1 17.61 16.75 1.43 o
8 9 1 3.02 2.65 0.92 o
0 10 1 23.83 27.98 0.94 o
1 10 1 7.68 7.85 0.57 o
2 10 1 20.74 17.87 0.57 o
3 10 1 12.81 11.54 0.64 o
4 10 1 11.64 9.03 0.72 o
5 10 1 5.78 4.25 0.65 o
6 10 1 7.82 7.12 0.80 o
7 10 1 2.13 1.55 0.55 o
0 11 1 9.83 10.61 0.78 o
1 11 1 16.99 15.76 0.60 o
2 11 1 3.66 2.77 0.48 o
3 11 1 22.66 21.42 0.81 o
4 11 1 1.10 0.80 0.30 o
5 11 1 8.09 6.37 0.76 o
6 11 1 3.11 2.14 0.66 o
0 12 1 8.70 5.93 1.18 o
1 12 1 4.33 2.54 0.82 o
2 12 1 5.85 5.79 0.65 o
3 12 1 6.45 6.15 0.75 o
4 12 1 5.09 6.53 0.77 o
5 12 1 4.07 2.83 0.73 o
1 13 1 23.43 29.96 1.79 o
6 -8 2 33.01 33.48 1.33 o
7 -8 2 9.18 8.35 1.04 o
8 -8 2 7.68 8.07 0.72 o
1 -7 2 0.14 0.73 0.34 o
5 -7 2 9.23 9.70 0.94 o
6 -7 2 25.76 28.12 1.36 o
7 -7 2 0.43 0.56 0.47 o
8 -7 2 13.36 11.81 0.84 o
9 -7 2 2.28 2.44 0.57 o
0 -6 2 200.74 205.31 1.60 o
1 -6 2 48.83 55.49 1.10 o
2 -6 2 223.92 246.86 2.26 o
4 -6 2 264.06 258.86 2.79 o
5 -6 2 15.37 16.80 1.13 o
7 -6 2 17.09 16.88 0.86 o
8 -6 2 11.71 13.38 0.86 o
9 -6 2 16.19 15.83 0.93 o
10 -6 2 10.82 9.35 1.18 o
0 -5 2 118.53 109.99 1.13 o
1 -5 2 27.88 23.38 0.41 o
2 -5 2 77.50 81.62 1.31 o
3 -5 2 81.62 91.21 2.25 o
4 -5 2 43.98 41.84 0.92 o
5 -5 2 37.42 39.57 2.31 o
6 -5 2 32.36 32.69 0.94 o
7 -5 2 4.98 4.94 0.69 o
8 -5 2 18.45 18.19 0.92 o
9 -5 2 0.59 0.61 0.36 o
10 -5 2 7.28 5.78 1.10 o
0 -4 2 526.26 556.65 2.34 o
1 -4 2 125.08 124.01 0.79 o
2 -4 2 66.45 87.53 1.29 o
3 -4 2 65.21 64.64 0.97 o
4 -4 2 19.76 17.59 0.65 o
5 -4 2 53.40 55.03 1.58 o
6 -4 2 46.80 49.32 1.11 o
7 -4 2 32.85 36.45 1.08 o
8 -4 2 33.39 30.47 1.05 o
9 -4 2 11.56 11.24 0.83 o
10 -4 2 4.59 3.87 0.62 o
0 -3 2 60.87 54.53 0.78 o
1 -3 2 44.67 47.58 0.52 o
2 -3 2 79.40 76.46 1.08 o
3 -3 2 341.88 357.49 5.12 o
4 -3 2 72.66 72.36 0.75 o
5 -3 2 152.97 149.09 1.58 o
6 -3 2 27.98 27.80 0.65 o
7 -3 2 28.95 32.79 0.76 o
8 -3 2 23.24 24.20 0.74 o
9 -3 2 8.52 8.76 0.73 o
10 -3 2 12.26 12.17 0.85 o
1 -2 2 93.43 82.15 1.93 o
2 -2 2 18.11 20.78 0.50 o
3 -2 2 103.13 92.63 1.82 o
4 -2 2 129.50 125.92 2.53 o
5 -2 2 80.90 82.53 0.89 o
6 -2 2 17.90 13.47 0.71 o
7 -2 2 28.02 30.68 0.75 o
8 -2 2 40.38 33.29 0.84 o
9 -2 2 12.71 12.77 0.64 o
10 -2 2 0.93 1.14 0.43 o
11 -2 2 7.55 6.08 0.75 o
0 -1 2 23.76 27.11 0.70 o
1 -1 2 2323.19 2345.93 24.60 o
2 -1 2 14.51 13.76 0.32 o
3 -1 2 200.12 197.57 2.25 o
4 -1 2 54.93 55.58 0.66 o
5 -1 2 144.42 159.35 1.67 o
6 -1 2 30.62 31.59 0.70 o
7 -1 2 200.89 203.68 3.97 o
8 -1 2 7.92 9.78 0.59 o
9 -1 2 52.80 51.58 1.05 o
10 -1 2 6.95 6.49 0.55 o
11 -1 2 3.58 3.44 0.52 o
0 0 2 3.92 2.89 0.22 o
1 0 2 89.88 78.99 2.08 o
2 0 2 1.80 3.87 0.19 o
3 0 2 85.43 83.01 1.13 o
4 0 2 38.68 53.08 0.85 o
5 0 2 45.90 53.57 0.85 o
6 0 2 21.65 16.39 0.57 o
7 0 2 23.62 23.47 0.72 o
8 0 2 12.96 13.10 0.78 o
9 0 2 17.44 17.23 0.95 o
10 0 2 0.51 0.52 0.31 o
11 0 2 5.93 5.61 0.59 o
0 1 2 21.35 25.98 0.72 o
1 1 2 2329.11 2253.38 25.82 o
2 1 2 12.08 10.69 0.25 o
3 1 2 205.25 189.33 9.14 o
4 1 2 53.36 54.41 0.70 o
5 1 2 147.44 162.04 3.68 o
6 1 2 30.16 30.66 1.18 o
7 1 2 201.72 202.63 4.63 o
8 1 2 7.43 9.73 0.59 o
9 1 2 53.23 52.34 1.03 o
10 1 2 6.78 6.67 0.59 o
11 1 2 3.70 3.43 0.66 o
0 2 2 436.68 434.73 11.51 o
1 2 2 95.95 81.65 1.14 o
2 2 2 19.71 21.38 0.57 o
3 2 2 102.85 90.20 2.94 o
4 2 2 134.28 128.92 3.29 o
5 2 2 80.03 82.85 2.76 o
6 2 2 16.81 12.67 0.43 o
7 2 2 28.64 31.82 1.05 o
8 2 2 38.58 32.18 0.83 o
9 2 2 13.41 13.77 0.66 o
10 2 2 0.90 0.93 0.60 o
11 2 2 7.51 6.92 0.78 o
0 3 2 60.40 51.01 2.62 o
1 3 2 46.36 47.56 0.52 o
2 3 2 77.21 70.40 1.85 o
3 3 2 351.85 353.81 11.08 o
4 3 2 69.27 68.43 1.62 o
5 3 2 157.79 151.24 4.08 o
6 3 2 26.60 27.52 0.75 o
7 3 2 28.99 33.26 0.87 o
8 3 2 23.02 24.24 0.78 o
10 3 2 12.19 12.62 0.84 o
0 4 2 513.26 498.27 20.62 o
1 4 2 127.86 118.96 3.04 o
2 4 2 62.22 75.78 2.06 o
3 4 2 65.64 61.93 1.73 o
4 4 2 19.30 15.99 1.04 o
5 4 2 54.27 54.67 1.65 o
6 4 2 44.45 42.77 1.86 o
7 4 2 33.74 36.59 0.69 o
8 4 2 31.97 29.28 0.87 o
9 4 2 11.73 11.90 0.83 o
10 4 2 4.49 4.50 0.70 o
0 5 2 118.78 104.13 5.56 o
1 5 2 26.10 19.54 0.38 o
2 5 2 77.86 76.97 1.70 o
3 5 2 85.59 94.84 2.65 o
4 5 2 43.22 39.30 0.93 o
5 5 2 39.14 40.31 0.99 o
6 5 2 31.53 31.96 0.79 o
7 5 2 4.29 4.12 0.50 o
8 5 2 18.61 18.14 0.74 o
9 5 2 0.67 0.83 0.33 o
10 5 2 7.36 5.08 0.67 o
0 6 2 195.72 184.33 2.31 o
1 6 2 50.36 50.50 1.30 o
2 6 2 220.78 233.17 7.54 o
3 6 2 35.45 32.78 1.20 o
4 6 2 262.36 255.06 11.21 o
5 6 2 15.76 16.86 0.54 o
6 6 2 70.53 67.59 1.79 o
7 6 2 17.56 17.81 0.70 o
8 6 2 11.33 11.59 0.66 o
9 6 2 16.25 14.70 0.72 o
10 6 2 10.78 10.06 0.84 o
0 7 2 99.08 86.11 2.41 o
1 7 2 0.38 0.63 0.23 o
2 7 2 44.87 45.24 1.75 o
3 7 2 32.89 32.88 0.90 o
4 7 2 19.18 18.76 0.84 o
5 7 2 9.25 9.27 0.99 o
6 7 2 26.09 26.05 0.95 o
7 7 2 0.33 0.30 0.33 o
8 7 2 13.36 12.27 1.00 o
9 7 2 2.43 1.73 0.47 o
0 8 2 65.41 61.83 1.72 o
1 8 2 15.19 13.83 1.00 o
2 8 2 147.85 144.66 1.79 o
3 8 2 16.91 19.82 1.29 o
4 8 2 168.22 166.78 4.36 o
5 8 2 11.62 12.05 0.75 o
6 8 2 32.98 33.31 1.07 o
7 8 2 8.93 7.80 0.99 o
8 8 2 7.85 7.25 0.88 o
0 9 2 41.38 47.15 1.07 o
1 9 2 9.42 9.24 0.54 o
2 9 2 34.41 32.79 1.41 o
3 9 2 7.64 7.65 1.44 o
4 9 2 19.67 18.37 0.89 o
5 9 2 3.47 2.58 0.62 o
6 9 2 13.18 13.77 0.86 o
7 9 2 1.78 1.54 0.42 o
8 9 2 8.89 8.58 0.87 o
0 10 2 33.07 35.78 1.66 o
1 10 2 18.41 18.24 0.76 o
2 10 2 27.94 27.15 0.81 o
3 10 2 6.97 9.03 0.92 o
4 10 2 14.52 12.83 0.83 o
5 10 2 9.01 9.12 0.82 o
6 10 2 7.54 7.78 0.91 o
7 10 2 8.56 10.36 1.31 o
0 11 2 12.26 10.46 1.22 o
1 11 2 2.04 1.40 0.48 o
2 11 2 19.23 18.81 1.37 o
3 11 2 9.67 9.43 0.64 o
4 11 2 18.96 20.24 3.00 o
5 11 2 4.06 3.47 0.70 o
0 12 2 7.29 5.82 1.04 o
1 12 2 10.53 11.97 0.92 o
2 12 2 2.19 1.24 0.59 o
3 12 2 6.18 4.36 0.98 o
6 -9 3 14.71 15.76 1.33 o
7 -9 3 0.80 0.58 0.50 o
4 -8 3 0.50 1.41 0.67 o
5 -8 3 27.93 28.78 1.33 o
7 -8 3 14.59 16.37 1.03 o
8 -8 3 4.05 2.63 0.85 o
2 -7 3 41.82 45.60 1.25 o
3 -7 3 178.15 195.71 2.51 o
4 -7 3 15.54 16.98 1.18 o
6 -7 3 20.56 22.24 1.01 o
7 -7 3 0.09 0.81 0.45 o
8 -7 3 24.53 24.95 1.52 o
1 -6 3 143.72 155.79 1.80 o
2 -6 3 0.74 1.41 0.57 o
3 -6 3 80.38 81.91 1.76 o
4 -6 3 20.94 20.17 1.17 o
5 -6 3 51.12 55.53 1.26 o
6 -6 3 7.97 9.03 0.78 o
7 -6 3 29.66 30.62 1.58 o
8 -6 3 6.19 6.31 0.76 o
9 -6 3 12.48 12.20 1.32 o
0 -5 3 120.13 126.44 1.45 o
1 -5 3 72.64 76.94 1.34 o
2 -5 3 116.91 121.30 1.79 o
3 -5 3 51.79 53.34 1.40 o
4 -5 3 73.66 77.98 1.31 o
5 -5 3 37.64 32.91 0.98 o
6 -5 3 42.02 45.39 1.17 o
7 -5 3 11.80 12.33 0.83 o
8 -5 3 27.64 27.29 1.62 o
9 -5 3 1.78 1.40 0.50 o
0 -4 3 254.26 260.00 2.00 o
1 -4 3 289.35 294.95 1.59 o
2 -4 3 17.17 14.73 0.86 o
3 -4 3 110.64 115.47 2.60 o
4 -4 3 110.45 111.88 2.03 o
5 -4 3 63.66 65.30 2.52 o
6 -4 3 5.85 6.49 0.63 o
7 -4 3 60.74 65.47 1.68 o
8 -4 3 10.64 8.08 0.83 o
9 -4 3 28.96 31.63 1.72 o
0 -3 3 146.70 158.97 1.61 o
1 -3 3 147.28 156.88 3.88 o
2 -3 3 220.61 219.14 2.83 o
3 -3 3 181.97 183.40 3.83 o
4 -3 3 235.71 241.37 5.08 o
5 -3 3 24.32 26.72 1.99 o
6 -3 3 76.37 82.23 2.79 o
7 -3 3 61.80 59.18 1.41 o
8 -3 3 19.62 21.65 0.98 o
9 -3 3 4.70 3.50 0.79 o
10 -3 3 16.20 13.54 1.06 o
0 -2 3 416.62 456.74 2.62 o
1 -2 3 158.92 153.73 1.23 o
2 -2 3 162.79 158.09 2.42 o
3 -2 3 153.79 157.59 2.01 o
4 -2 3 62.26 60.55 3.49 o
5 -2 3 104.75 106.23 1.90 o
6 -2 3 53.02 53.44 0.93 o
7 -2 3 54.10 55.26 0.97 o
8 -2 3 23.58 23.21 0.99 o
9 -2 3 24.25 25.49 1.40 o
10 -2 3 2.41 0.77 0.44 o
0 -1 3 333.35 345.49 2.38 o
1 -1 3 41.51 42.11 0.69 o
2 -1 3 229.34 231.68 2.64 o
3 -1 3 204.76 200.41 2.86 o
4 -1 3 175.58 172.63 2.22 o
5 -1 3 44.71 48.24 1.02 o
6 -1 3 88.22 90.36 1.12 o
7 -1 3 24.73 18.80 0.69 o
8 -1 3 40.56 43.55 1.26 o
9 -1 3 2.69 2.18 0.44 o
10 -1 3 11.09 12.23 0.69 o
0 0 3 3146.31 3280.43 67.76 o
1 0 3 18.40 14.93 0.69 o
2 0 3 387.76 403.92 6.04 o
3 0 3 247.35 232.80 1.58 o
4 0 3 0.75 0.39 0.27 o
5 0 3 175.37 175.70 1.72 o
6 0 3 158.10 146.94 1.84 o
7 0 3 24.01 26.87 0.79 o
8 0 3 128.98 123.05 1.41 o
9 0 3 12.35 13.02 0.69 o
10 0 3 0.10 0.41 0.33 o
0 1 3 336.25 332.74 9.48 o
1 1 3 40.01 38.93 1.06 o
2 1 3 227.23 220.45 2.65 o
3 1 3 208.04 194.92 2.55 o
4 1 3 171.59 169.83 2.10 o
5 1 3 45.92 48.75 0.81 o
6 1 3 87.81 89.74 1.85 o
7 1 3 23.89 18.99 0.72 o
8 1 3 41.39 42.95 0.93 o
9 1 3 2.57 2.15 0.46 o
10 1 3 10.98 10.01 0.84 o
0 2 3 418.29 444.77 2.89 o
1 2 3 157.88 144.17 2.20 o
2 2 3 162.11 153.02 1.80 o
3 2 3 154.72 154.02 2.56 o
4 2 3 61.61 56.33 1.55 o
5 2 3 104.55 104.20 1.52 o
6 2 3 53.38 52.11 0.90 o
7 2 3 53.22 56.83 1.44 o
8 2 3 24.00 22.82 0.76 o
9 2 3 24.17 26.79 1.45 o
10 2 3 2.33 1.19 0.37 o
0 3 3 147.92 156.54 1.93 o
1 3 3 146.75 148.82 3.01 o
2 3 3 218.28 206.37 2.69 o
3 3 3 185.03 175.74 3.21 o
4 3 3 232.41 223.08 7.47 o
5 3 3 25.33 25.64 1.04 o
6 3 3 75.77 79.26 1.86 o
7 3 3 61.18 56.59 1.95 o
8 3 3 20.18 22.97 0.68 o
9 3 3 4.61 4.24 0.54 o
10 3 3 16.08 13.16 0.91 o
0 4 3 250.84 253.45 2.57 o
1 4 3 292.08 280.43 3.70 o
2 4 3 16.52 12.77 0.50 o
3 4 3 110.06 107.99 2.85 o
4 4 3 111.35 105.96 2.56 o
5 4 3 62.54 64.77 1.21 o
6 4 3 5.48 6.29 0.47 o
7 4 3 61.22 65.20 2.78 o
8 4 3 10.28 8.48 0.55 o
9 4 3 29.43 30.66 1.17 o
10 4 3 5.00 5.47 1.08 o
0 5 3 120.07 121.17 4.48 o
1 5 3 72.83 72.01 1.74 o
2 5 3 116.84 112.27 3.80 o
3 5 3 51.39 47.39 2.03 o
4 5 3 73.95 75.94 4.17 o
5 5 3 37.29 29.53 1.70 o
6 5 3 42.02 42.54 1.65 o
7 5 3 11.90 11.01 0.73 o
8 5 3 27.39 26.66 0.91 o
9 5 3 1.80 1.46 0.48 o
10 5 3 14.80 14.37 1.27 o
0 6 3 87.76 89.73 3.66 o
1 6 3 145.08 148.54 4.49 o
2 6 3 0.69 1.18 0.32 o
3 6 3 80.00 78.90 3.06 o
4 6 3 21.75 17.63 0.77 o
5 6 3 50.87 52.49 1.59 o
6 6 3 7.59 5.87 0.61 o
7 6 3 30.22 29.49 1.64 o
8 6 3 5.94 6.48 0.82 o
9 6 3 12.67 10.35 1.26 o
0 7 3 66.00 66.45 1.74 o
1 7 3 20.84 18.06 0.84 o
2 7 3 42.30 44.61 1.34 o
3 7 3 177.71 187.64 5.56 o
4 7 3 15.92 17.19 0.75 o
5 7 3 65.40 62.04 1.34 o
6 7 3 20.59 21.57 0.95 o
7 7 3 0.10 0.73 0.48 o
8 7 3 24.54 23.61 1.10 o
0 8 3 29.92 31.00 1.35 o
1 8 3 61.18 65.00 1.33 o
2 8 3 7.78 5.02 0.44 o
3 8 3 46.34 47.36 2.24 o
4 8 3 0.40 0.84 0.37 o
5 8 3 28.14 28.62 1.05 o
6 8 3 1.64 1.07 0.47 o
7 8 3 14.52 13.81 0.92 o
0 9 3 30.08 30.59 1.46 o
1 9 3 8.62 9.13 0.79 o
2 9 3 21.30 25.17 2.46 o
3 9 3 22.56 19.54 0.99 o
4 9 3 15.04 18.14 0.92 o
5 9 3 6.21 3.87 0.59 o
6 9 3 14.70 15.51 0.90 o
7 9 3 0.73 1.57 0.64 o
0 10 3 29.44 23.83 1.62 o
1 10 3 32.15 33.24 1.19 o
2 10 3 4.60 3.25 0.63 o
3 10 3 23.19 23.30 1.02 o
4 10 3 4.90 4.78 1.13 o
5 10 3 13.78 13.67 0.93 o
6 10 3 1.79 1.51 0.75 o
0 11 3 18.22 21.05 1.52 o
1 11 3 0.68 0.73 0.50 o
2 11 3 17.00 17.42 1.04 o
3 11 3 3.66 4.41 0.84 o
5 -8 4 16.05 18.09 1.49 o
6 -8 4 9.90 9.88 1.23 o
4 -7 4 38.55 41.06 1.43 o
5 -7 4 0.68 0.50 0.57 o
6 -7 4 13.06 12.14 1.27 o
7 -7 4 2.16 2.38 0.84 o
2 -6 4 7.38 7.54 0.77 o
3 -6 4 42.94 43.44 1.38 o
5 -6 4 28.59 29.61 1.48 o
6 -6 4 9.90 10.17 0.83 o
7 -6 4 33.96 34.09 1.21 o
1 -5 4 177.89 190.99 2.27 o
2 -5 4 122.05 122.98 1.98 o
3 -5 4 0.23 0.39 0.45 o
4 -5 4 51.74 53.44 1.73 o
5 -5 4 4.00 4.40 0.62 o
6 -5 4 47.09 51.13 1.62 o
7 -5 4 41.38 43.30 1.36 o
8 -5 4 32.57 31.87 1.21 o
0 -4 4 49.91 47.93 1.17 o
1 -4 4 116.20 121.95 1.79 o
2 -4 4 87.24 97.25 1.82 o
3 -4 4 171.05 182.53 2.52 o
4 -4 4 90.83 97.62 2.03 o
5 -4 4 87.44 92.49 2.28 o
6 -4 4 7.73 7.30 1.27 o
7 -4 4 22.09 24.67 1.99 o
8 -4 4 2.34 1.78 0.51 o
0 -3 4 327.50 324.52 2.66 o
1 -3 4 172.29 171.62 2.04 o
2 -3 4 199.95 209.34 2.53 o
3 -3 4 45.58 49.53 1.57 o
4 -3 4 96.20 97.39 2.06 o
5 -3 4 20.02 21.48 0.95 o
6 -3 4 87.03 90.99 1.62 o
7 -3 4 28.54 30.48 1.23 o
8 -3 4 45.24 47.29 1.31 o
9 -3 4 6.44 5.35 0.66 o
0 -2 4 8.61 7.31 0.68 o
1 -2 4 148.96 165.83 1.44 o
2 -2 4 119.45 119.58 3.03 o
3 -2 4 227.33 231.16 4.49 o
4 -2 4 245.65 255.24 8.44 o
5 -2 4 125.85 124.49 6.23 o
6 -2 4 0.85 0.89 0.77 o
7 -2 4 34.12 33.81 1.09 o
8 -2 4 3.70 3.86 0.91 o
9 -2 4 14.84 13.56 0.96 o
0 -1 4 113.76 122.77 1.77 o
1 -1 4 1.38 1.65 0.38 o
2 -1 4 221.13 231.77 6.05 o
3 -1 4 200.77 189.13 3.81 o
4 -1 4 255.27 259.53 4.98 o
5 -1 4 53.42 53.69 1.17 o
6 -1 4 76.59 75.66 1.60 o
7 -1 4 3.72 4.18 0.68 o
8 -1 4 21.27 22.76 0.97 o
9 -1 4 4.05 5.06 0.71 o
0 0 4 2.67 2.87 0.30 o
1 0 4 198.15 213.47 3.06 o
2 0 4 0.57 1.00 0.24 o
3 0 4 99.86 107.86 1.04 o
4 0 4 6.98 9.00 0.68 o
5 0 4 94.31 88.68 1.63 o
6 0 4 0.64 0.62 0.31 o
7 0 4 64.80 63.49 1.40 o
8 0 4 0.52 0.83 0.41 o
9 0 4 12.05 12.66 0.76 o
0 1 4 113.40 118.05 3.80 o
1 1 4 1.51 1.77 0.23 o
2 1 4 222.75 225.13 3.69 o
3 1 4 201.76 189.83 3.04 o
4 1 4 257.11 256.11 3.95 o
5 1 4 53.78 51.56 2.14 o
6 1 4 76.29 78.72 1.41 o
7 1 4 3.62 4.06 0.80 o
8 1 4 21.13 22.12 0.81 o
9 1 4 4.09 4.21 0.52 o
0 2 4 8.76 7.01 0.48 o
1 2 4 148.45 158.75 1.49 o
2 2 4 118.14 116.81 1.77 o
3 2 4 221.83 215.20 4.78 o
4 2 4 243.88 245.13 5.69 o
5 2 4 122.98 118.93 3.86 o
6 2 4 0.78 0.61 0.32 o
7 2 4 34.59 34.82 1.07 o
8 2 4 3.81 3.79 0.51 o
9 2 4 14.76 14.58 0.77 o
0 3 4 330.42 333.03 3.30 o
1 3 4 173.42 168.80 2.91 o
2 3 4 202.94 201.62 3.41 o
3 3 4 46.51 43.20 1.21 o
4 3 4 97.92 96.18 1.24 o
5 3 4 20.46 20.05 0.65 o
6 3 4 87.48 87.30 2.47 o
7 3 4 28.65 26.82 1.60 o
8 3 4 45.72 47.51 1.28 o
9 3 4 6.55 5.04 0.52 o
0 4 4 48.98 44.84 1.12 o
1 4 4 114.24 118.42 1.39 o
2 4 4 86.26 89.09 1.28 o
3 4 4 169.02 179.51 2.85 o
4 4 4 90.24 87.70 3.51 o
5 4 4 85.81 85.08 2.03 o
6 4 4 7.47 5.94 0.95 o
7 4 4 21.43 21.44 1.33 o
8 4 4 2.23 1.81 0.64 o
0 5 4 238.33 241.03 2.02 o
1 5 4 179.24 184.23 1.69 o
2 5 4 123.81 117.07 2.92 o
3 5 4 0.23 0.15 0.19 o
4 5 4 51.42 51.28 1.64 o
5 5 4 4.17 3.24 0.62 o
6 5 4 48.17 48.73 1.60 o
7 5 4 41.79 41.97 1.68 o
8 5 4 33.48 32.43 1.80 o
0 6 4 63.41 63.57 1.30 o
1 6 4 103.36 104.41 1.51 o
2 6 4 7.15 6.65 0.56 o
3 6 4 43.53 42.03 1.59 o
4 6 4 1.80 1.97 0.38 o
5 6 4 28.62 30.87 1.09 o
6 6 4 9.74 8.82 0.79 o
7 6 4 33.48 33.16 1.98 o
0 7 4 36.73 39.73 1.09 o
1 7 4 0.98 0.65 0.27 o
2 7 4 46.64 47.15 1.03 o
3 7 4 0.61 0.44 0.22 o
4 7 4 38.45 37.41 0.92 o
5 7 4 0.71 0.41 0.29 o
6 7 4 13.26 10.11 1.25 o
7 7 4 2.22 0.98 0.61 o
0 8 4 33.35 34.60 1.66 o
1 8 4 60.98 64.69 1.49 o
2 8 4 1.92 1.91 0.41 o
3 8 4 19.51 18.57 0.93 o
4 8 4 0.44 0.57 0.29 o
5 8 4 16.29 16.72 1.44 o
6 8 4 9.98 7.35 1.05 o
0 9 4 30.12 35.51 1.75 o
1 9 4 30.14 35.70 1.16 o
2 9 4 18.63 22.25 1.00 o
3 9 4 2.32 2.69 0.62 o
4 9 4 11.84 13.79 2.48 o
5 9 4 1.53 2.53 0.52 o
0 10 4 12.01 8.57 1.22 o
1 10 4 24.93 26.40 1.30 o
2 10 4 11.37 10.13 0.86 o
3 10 4 25.57 27.52 1.58 o
4 10 4 9.73 11.18 1.30 o
5 -7 5 8.50 8.69 1.16 o
4 -6 5 1.75 1.93 0.73 o
5 -6 5 6.35 6.43 1.13 o
6 -6 5 5.67 6.79 1.14 o
2 -5 5 21.62 23.74 1.32 o
4 -5 5 12.53 11.85 1.24 o
5 -5 5 9.71 8.34 1.18 o
6 -5 5 8.65 8.61 1.03 o
1 -4 5 46.01 46.60 1.33 o
2 -4 5 26.42 31.10 1.33 o
3 -4 5 15.22 14.34 1.20 o
4 -4 5 10.80 13.80 1.30 o
5 -4 5 17.83 18.70 1.47 o
6 -4 5 20.07 19.75 1.39 o
7 -4 5 16.92 16.08 1.76 o
0 -3 5 10.32 12.72 0.84 o
3 -3 5 58.33 63.81 1.85 o
4 -3 5 30.94 28.31 1.45 o
5 -3 5 14.86 13.12 1.25 o
6 -3 5 5.82 5.54 0.77 o
7 -3 5 2.59 3.08 0.66 o
0 -2 5 39.09 40.54 1.32 o
1 -2 5 25.98 30.15 1.29 o
2 -2 5 54.71 57.56 3.13 o
3 -2 5 30.75 38.42 1.48 o
4 -2 5 51.20 50.55 1.69 o
5 -2 5 24.79 24.27 1.01 o
6 -2 5 15.75 15.83 0.92 o
7 -2 5 9.18 9.84 2.06 o
0 -1 5 3.42 3.67 0.66 o
1 -1 5 6.29 5.05 0.55 o
2 -1 5 9.33 11.78 1.40 o
3 -1 5 29.95 29.64 0.87 o
4 -1 5 21.99 24.88 1.45 o
5 -1 5 13.39 11.78 1.25 o
6 -1 5 17.83 16.14 1.07 o
7 -1 5 2.80 1.84 0.45 o
8 -1 5 3.45 3.61 0.66 o
0 0 5 13.32 12.19 0.84 o
1 0 5 13.65 18.23 0.73 o
2 0 5 67.42 69.96 1.33 o
3 0 5 42.25 47.17 3.00 o
4 0 5 89.43 87.57 4.77 o
5 0 5 18.76 17.35 1.46 o
6 0 5 7.61 5.72 0.74 o
7 0 5 2.85 2.93 0.55 o
8 0 5 5.61 5.77 0.67 o
0 1 5 3.56 4.75 0.77 o
1 1 5 6.23 4.85 0.53 o
2 1 5 8.64 9.74 0.55 o
3 1 5 28.85 28.59 0.98 o
4 1 5 21.12 21.66 0.72 o
5 1 5 13.08 10.99 0.75 o
6 1 5 17.91 16.90 0.85 o
7 1 5 3.00 2.12 0.61 o
8 1 5 3.43 2.84 0.60 o
0 2 5 39.96 41.89 1.69 o
1 2 5 26.64 29.91 0.72 o
2 2 5 55.31 57.12 1.16 o
3 2 5 31.39 34.53 0.85 o
4 2 5 51.48 48.45 2.25 o
5 2 5 24.57 24.38 0.75 o
6 2 5 15.74 15.03 1.25 o
7 2 5 9.14 8.98 1.70 o
8 2 5 8.72 6.87 0.56 o
0 3 5 10.49 11.01 1.25 o
1 3 5 17.81 17.91 0.66 o
2 3 5 24.23 25.84 0.73 o
3 3 5 56.92 59.21 1.32 o
4 3 5 29.63 26.48 1.10 o
5 3 5 14.37 12.41 1.08 o
6 3 5 5.54 4.99 0.74 o
7 3 5 2.77 3.02 0.71 o
0 4 5 76.29 82.06 3.88 o
1 4 5 47.20 47.15 1.10 o
2 4 5 27.04 29.07 0.82 o
3 4 5 15.32 13.31 1.43 o
4 4 5 10.81 12.15 1.40 o
5 4 5 18.02 19.06 0.97 o
6 4 5 20.52 19.09 0.97 o
7 4 5 17.34 15.62 1.96 o
0 5 5 27.41 24.01 0.95 o
1 5 5 30.91 27.86 0.67 o
2 5 5 21.68 19.68 1.11 o
3 5 5 17.24 15.78 0.96 o
4 5 5 12.38 10.84 1.32 o
5 5 5 9.47 7.39 1.08 o
6 5 5 8.22 7.17 0.74 o
7 5 5 8.92 7.49 1.08 o
0 6 5 19.61 19.25 1.02 o
1 6 5 19.63 18.95 0.61 o
2 6 5 7.30 6.75 0.73 o
3 6 5 14.62 13.30 0.90 o
4 6 5 1.78 1.53 0.48 o
5 6 5 6.48 6.90 1.08 o
6 6 5 6.03 5.53 0.73 o
0 7 5 37.82 32.85 1.11 o
1 7 5 22.92 19.99 0.80 o
2 7 5 14.64 12.11 0.83 o
3 7 5 4.50 3.23 0.63 o
4 7 5 4.80 3.79 0.67 o
5 7 5 8.48 6.78 0.80 o
6 7 5 10.03 11.58 1.29 o
0 8 5 7.85 7.67 1.00 o
1 8 5 5.68 5.66 0.61 o
2 8 5 2.37 2.61 0.47 o
3 8 5 6.38 6.72 0.86 o
4 8 5 0.19 0.51 0.38 o
0 9 5 18.26 19.37 1.34 o
1 9 5 10.96 9.95 0.77 o
2 9 5 13.88 12.94 2.51 o
3 9 5 6.10 6.53 1.23 o
4 -5 6 8.77 8.17 1.07 o
5 -5 6 11.04 10.92 1.11 o
2 -4 6 26.90 26.83 1.51 o
3 -4 6 7.66 7.53 1.24 o
4 -4 6 6.12 6.47 0.88 o
5 -4 6 1.59 1.05 0.49 o
1 -3 6 12.72 9.34 1.02 o
2 -3 6 15.88 14.27 1.26 o
3 -3 6 45.97 48.12 1.87 o
4 -3 6 26.42 25.71 1.49 o
0 -2 6 23.55 23.37 1.34 o
1 -2 6 16.64 17.44 1.25 o
2 -2 6 32.22 31.32 1.53 o
3 -2 6 21.16 20.17 1.39 o
5 -2 6 14.26 16.32 1.40 o
0 -1 6 5.99 6.01 0.82 o
1 -1 6 3.56 4.64 0.63 o
2 -1 6 6.03 6.53 0.66 o
4 -1 6 9.11 9.07 1.21 o
5 -1 6 6.69 5.03 0.99 o
6 -1 6 2.37 1.26 0.71 o
0 0 6 2.43 1.31 0.62 o
1 0 6 4.68 4.09 0.57 o
2 0 6 26.90 26.63 1.95 o
3 0 6 32.20 34.41 1.08 o
4 0 6 52.58 59.56 1.98 o
5 0 6 32.14 32.58 1.62 o
6 0 6 9.71 9.69 1.07 o
0 1 6 5.97 5.81 0.93 o
1 1 6 3.21 3.85 0.67 o
2 1 6 5.68 6.24 0.66 o
3 1 6 13.23 14.99 0.92 o
4 1 6 8.47 7.06 1.09 o
5 1 6 5.88 4.36 0.84 o
0 2 6 24.65 21.40 1.31 o
1 2 6 17.07 16.64 0.90 o
2 2 6 33.52 32.16 1.18 o
3 2 6 21.72 25.09 1.51 o
4 2 6 33.09 33.63 1.18 o
5 2 6 14.65 15.90 1.38 o
0 3 6 5.87 4.84 0.93 o
1 3 6 11.44 8.68 0.78 o
2 3 6 15.12 13.25 1.04 o
3 3 6 43.93 48.81 1.91 o
4 3 6 25.61 26.25 1.15 o
5 3 6 21.13 21.59 1.03 o
6 3 6 6.82 6.36 1.06 o
0 4 6 67.13 70.35 2.21 o
1 4 6 31.07 31.29 1.20 o
2 4 6 28.37 26.94 1.12 o
3 4 6 8.07 8.67 1.19 o
4 4 6 6.79 6.21 0.76 o
5 4 6 1.71 0.81 0.40 o
0 5 6 14.73 15.21 1.42 o
1 5 6 25.00 23.92 1.12 o
2 5 6 14.10 13.87 1.31 o
3 5 6 17.60 16.19 0.95 o
4 5 6 8.51 7.96 0.83 o
0 6 6 21.31 20.54 1.49 o
1 6 6 9.55 8.46 0.87 o
2 6 6 7.92 7.26 0.78 o
3 6 6 2.13 1.28 0.46 o
2 7 6 6.34 6.53 0.91 o
2 -2 7 27.19 30.64 1.74 o
0 -1 7 0.04 0.46 0.55 o
1 -1 7 14.77 15.28 1.36 o
2 -1 7 4.53 4.24 0.91 o
0 0 7 38.20 38.48 1.80 o
1 0 7 4.78 3.50 0.59 o
2 0 7 19.01 17.47 1.43 o
0 1 7 0.05 0.29 0.46 o
1 1 7 14.92 13.55 1.01 o
2 1 7 4.59 2.88 0.87 o
1 2 7 0.72 0.73 0.41 o
2 2 7 26.20 25.39 1.69 o
