#------------------------------------------------------------------------------
#$Date: 2016-03-24 14:05:35 +0200 (Thu, 24 Mar 2016) $
#$Revision: 179651 $
#$URL: svn://www.crystallography.net/cod/cif/4/51/04/4510413.cif $
#------------------------------------------------------------------------------
#
# This file is available in the Crystallography Open Database (COD),
# http://www.crystallography.net/
#
# All data on this site have been placed in the public domain by the
# contributors.
#
data_4510413
loop_
_publ_author_name
'Adalder, Tapas Kumar'
'Dastidar, Parthasarathi'
_publ_section_title
;
 Crystal Engineering Approach toward Selective Formation of an Asymmetric
 Supramolecular Synthon in Primary Ammonium Monocarboxylate (PAM) Salts
 and Their Gelation Studies
;
_journal_issue                   5
_journal_name_full               'Crystal Growth &amp; Design'
_journal_page_first              2254
_journal_paper_doi               10.1021/cg401863s
_journal_volume                  14
_journal_year                    2014
_chemical_absolute_configuration S
_chemical_formula_moiety         'C8 H6 Br O2, C8 H12 N'
_chemical_formula_sum            'C16 H18 Br N O2'
_chemical_formula_weight         336.22
_chemical_name_systematic
; 
 ? 
;
_space_group_IT_number           4
_symmetry_cell_setting           monoclinic
_symmetry_space_group_name_Hall  'P 2yb'
_symmetry_space_group_name_H-M   'P 1 21 1'
_atom_sites_solution_hydrogens   geom
_atom_sites_solution_primary     direct
_atom_sites_solution_secondary   difmap
_audit_creation_method           SHELXL-97
_cell_angle_alpha                90.00
_cell_angle_beta                 100.174(2)
_cell_angle_gamma                90.00
_cell_formula_units_Z            2
_cell_length_a                   9.0497(4)
_cell_length_b                   6.0462(3)
_cell_length_c                   13.8277(6)
_cell_measurement_temperature    296(2)
_cell_volume                     744.70(6)
_computing_cell_refinement       'BRUKER APEX II'
_computing_data_collection       'BRUKER APEX II'
_computing_data_reduction        'BRUKER APEX II'
_computing_molecular_graphics    'MERCURY 3.1, PLATON'
_computing_publication_material  'MERCURY 3.1, PLATON'
_computing_structure_refinement  'SHELXL-97 (Sheldrick, 1997)'
_computing_structure_solution    'SHELXS-97 (Sheldrick, 1990)'
_diffrn_ambient_temperature      296(2)
_diffrn_measured_fraction_theta_full 0.999
_diffrn_measured_fraction_theta_max 0.999
_diffrn_measurement_device_type  'BRUKER CCD AREA DETECTOR'
_diffrn_measurement_method       'PHI-OMEGA SCAN'
_diffrn_radiation_monochromator  graphite
_diffrn_radiation_source         'fine-focus sealed tube'
_diffrn_radiation_type           MoK\a
_diffrn_radiation_wavelength     0.71073
_diffrn_reflns_av_R_equivalents  0.0374
_diffrn_reflns_av_sigmaI/netI    0.0527
_diffrn_reflns_limit_h_max       11
_diffrn_reflns_limit_h_min       -11
_diffrn_reflns_limit_k_max       7
_diffrn_reflns_limit_k_min       -7
_diffrn_reflns_limit_l_max       17
_diffrn_reflns_limit_l_min       -17
_diffrn_reflns_number            12482
_diffrn_reflns_theta_full        26.50
_diffrn_reflns_theta_max         26.50
_diffrn_reflns_theta_min         1.50
_exptl_absorpt_coefficient_mu    2.761
_exptl_absorpt_correction_T_max  0.9469
_exptl_absorpt_correction_T_min  0.1689
_exptl_absorpt_correction_type   multi-scan
_exptl_absorpt_process_details   SADABS
_exptl_crystal_colour            COLOURLESS
_exptl_crystal_density_diffrn    1.499
_exptl_crystal_density_method    'not measured'
_exptl_crystal_description       NIDDLE
_exptl_crystal_F_000             344
_exptl_crystal_size_max          0.52
_exptl_crystal_size_mid          0.04
_exptl_crystal_size_min          0.02
_refine_diff_density_max         0.460
_refine_diff_density_min         -0.478
_refine_diff_density_rms         0.108
_refine_ls_abs_structure_details 'Flack H D (1983), Acta Cryst. A39, 876-881'
_refine_ls_abs_structure_Flack   0.012(12)
_refine_ls_extinction_method     none
_refine_ls_goodness_of_fit_ref   1.152
_refine_ls_hydrogen_treatment    constr
_refine_ls_matrix_type           full
_refine_ls_number_parameters     183
_refine_ls_number_reflns         3086
_refine_ls_number_restraints     1
_refine_ls_restrained_S_all      1.152
_refine_ls_R_factor_all          0.0350
_refine_ls_R_factor_gt           0.0280
_refine_ls_shift/su_max          0.001
_refine_ls_shift/su_mean         0.000
_refine_ls_structure_factor_coef Fsqd
_refine_ls_weighting_details
'calc w=1/[\s^2^(Fo^2^)+(0.0401P)^2^+0.1084P] where P=(Fo^2^+2Fc^2^)/3'
_refine_ls_weighting_scheme      calc
_refine_ls_wR_factor_gt          0.0599
_refine_ls_wR_factor_ref         0.0853
_reflns_number_gt                2794
_reflns_number_total             3086
_reflns_threshold_expression     >2sigma(I)
_cod_data_source_file            cg401863s_si_002.cif
_cod_data_source_block           (S)-PEA.2BPA
_cod_depositor_comments
;
The following automatic conversions were performed:

'_symmetry_cell_setting' value 'MONOCLINIC' changed to 'monoclinic'
according to
/usr/data/users/saulius/crontab/automatic-downloads/rss-feeds/ACS/lib/dictionaries/cif_core.dic
dictionary named 'cif_core.dic' version 2.4.2 from
2011-04-26.

'_exptl_absorpt_correction_type' value 'MULTI-SCAN'
changed to 'multi-scan' according to
/usr/data/users/saulius/crontab/automatic-downloads/rss-feeds/ACS/lib/dictionaries/cif_core.dic
dictionary named 'cif_core.dic' version 2.4.2 from 2011-04-26.

Automatic conversion script
Id: cif_fix_values 2281 2013-09-26 08:29:07Z andrius 

 Adding full bibliography for 4510410--4510441.cif.
;
_cod_original_sg_symbol_H-M      'P 21'
_cod_database_code               4510413
loop_
_symmetry_equiv_pos_as_xyz
'x, y, z'
'-x, y+1/2, -z'
loop_
_atom_site_label
_atom_site_type_symbol
_atom_site_fract_x
_atom_site_fract_y
_atom_site_fract_z
_atom_site_U_iso_or_equiv
_atom_site_adp_type
_atom_site_occupancy
_atom_site_symmetry_multiplicity
_atom_site_calc_flag
_atom_site_refinement_flags
O1 O 0.9971(3) 0.5128(4) 0.13528(19) 0.0156(6) Uani 1 1 d .
C2 C 0.9243(4) 0.6773(7) 0.1585(3) 0.0144(8) Uani 1 1 d .
O3 O 0.8333(3) 0.7861(4) 0.0992(2) 0.0218(8) Uani 1 1 d .
C4 C 0.9556(4) 0.7561(6) 0.2660(3) 0.0155(9) Uani 1 1 d .
H4A H 1.0110 0.8940 0.2691 0.019 Uiso 1 1 calc R
H4B H 0.8602 0.7875 0.2860 0.019 Uiso 1 1 calc R
C5 C 1.0411(4) 0.5990(6) 0.3388(3) 0.0127(8) Uani 1 1 d .
C6 C 1.1904(4) 0.6405(7) 0.3837(3) 0.0180(9) Uani 1 1 d .
H6 H 1.2368 0.7687 0.3670 0.022 Uiso 1 1 calc R
C7 C 1.2702(4) 0.4994(8) 0.4511(3) 0.0207(9) Uani 1 1 d .
H7 H 1.3680 0.5340 0.4805 0.025 Uiso 1 1 calc R
C8 C 1.2045(4) 0.3057(10) 0.4751(3) 0.0213(10) Uani 1 1 d .
H8 H 1.2584 0.2087 0.5203 0.026 Uiso 1 1 calc R
C9 C 1.0577(4) 0.2556(6) 0.4318(3) 0.0160(9) Uani 1 1 d .
H9 H 1.0130 0.1249 0.4473 0.019 Uiso 1 1 calc R
C10 C 0.9794(4) 0.4021(6) 0.3654(3) 0.0136(9) Uani 1 1 d .
Br11 Br 0.77597(3) 0.33169(9) 0.31078(2) 0.01863(11) Uani 1 1 d .
C12 C 0.5979(4) 0.2579(6) 1.0426(3) 0.0164(9) Uani 1 1 d .
H12A H 0.6278 0.4032 1.0664 0.025 Uiso 1 1 calc R
H12B H 0.6152 0.1546 1.0961 0.025 Uiso 1 1 calc R
H12C H 0.4931 0.2589 1.0142 0.025 Uiso 1 1 calc R
C13 C 0.6894(4) 0.1897(6) 0.9646(3) 0.0126(8) Uani 1 1 d .
H13 H 0.6575 0.0404 0.9426 0.015 Uiso 1 1 calc R
N14 N 0.8521(3) 0.1772(5) 1.0125(2) 0.0133(7) Uani 1 1 d .
H14A H 0.9081 0.1502 0.9670 0.020 Uiso 1 1 calc R
H14B H 0.8644 0.0688 1.0567 0.020 Uiso 1 1 calc R
H14C H 0.8799 0.3051 1.0420 0.020 Uiso 1 1 calc R
C15 C 0.6635(3) 0.3381(10) 0.8760(2) 0.0118(6) Uani 1 1 d .
C16 C 0.5461(4) 0.2866(6) 0.7994(3) 0.0149(10) Uani 1 1 d .
H16 H 0.4925 0.1561 0.8020 0.018 Uiso 1 1 calc R
C17 C 0.5082(4) 0.4266(7) 0.7195(3) 0.0182(9) Uani 1 1 d .
H17 H 0.4290 0.3905 0.6695 0.022 Uiso 1 1 calc R
C18 C 0.5876(4) 0.6194(7) 0.7140(3) 0.0180(9) Uani 1 1 d .
H18 H 0.5615 0.7135 0.6605 0.022 Uiso 1 1 calc R
C19 C 0.7071(4) 0.6734(7) 0.7885(3) 0.0168(9) Uani 1 1 d .
H19 H 0.7625 0.8013 0.7842 0.020 Uiso 1 1 calc R
C20 C 0.7424(4) 0.5344(6) 0.8691(3) 0.0146(8) Uani 1 1 d .
H20 H 0.8204 0.5727 0.9196 0.018 Uiso 1 1 calc R
loop_
_atom_site_aniso_label
_atom_site_aniso_U_11
_atom_site_aniso_U_22
_atom_site_aniso_U_33
_atom_site_aniso_U_23
_atom_site_aniso_U_13
_atom_site_aniso_U_12
O1 0.0183(14) 0.0165(15) 0.0123(15) -0.0013(12) 0.0035(11) 0.0016(11)
C2 0.0143(18) 0.0130(19) 0.017(2) 0.0011(17) 0.0047(16) -0.0050(16)
O3 0.0302(14) 0.013(2) 0.0187(14) 0.0039(12) -0.0040(11) 0.0023(12)
C4 0.0197(19) 0.014(2) 0.013(2) -0.0005(14) 0.0044(16) -0.0001(14)
C5 0.019(2) 0.0119(19) 0.0082(19) -0.0045(15) 0.0048(15) -0.0005(15)
C6 0.018(2) 0.022(2) 0.016(2) -0.0039(18) 0.0069(16) -0.0058(17)
C7 0.0114(19) 0.031(3) 0.018(2) -0.0066(19) -0.0022(16) -0.0022(17)
C8 0.0220(17) 0.029(3) 0.0120(18) 0.000(2) -0.0001(14) 0.006(2)
C9 0.024(2) 0.0132(19) 0.011(2) -0.0013(14) 0.0043(17) -0.0023(15)
C10 0.0160(18) 0.016(2) 0.0088(19) -0.0032(14) 0.0026(15) -0.0018(14)
Br11 0.01596(16) 0.01967(19) 0.01897(19) 0.0014(2) -0.00047(12) -0.0040(2)
C12 0.0143(18) 0.017(2) 0.018(2) 0.0006(15) 0.0039(16) 0.0003(14)
C13 0.0075(17) 0.0107(19) 0.019(2) 0.0003(16) 0.0007(15) -0.0005(14)
N14 0.0126(15) 0.0137(17) 0.0136(17) 0.0032(14) 0.0021(13) 0.0026(13)
C15 0.0106(13) 0.0136(16) 0.0121(16) 0.000(3) 0.0041(11) 0.004(2)
C16 0.0136(16) 0.015(3) 0.017(2) -0.0006(16) 0.0036(14) -0.0016(15)
C17 0.0138(19) 0.026(2) 0.014(2) -0.0020(17) 0.0011(16) 0.0016(16)
C18 0.018(2) 0.023(2) 0.014(2) 0.0070(18) 0.0039(16) 0.0059(17)
C19 0.016(2) 0.012(2) 0.023(2) 0.0025(17) 0.0067(17) -0.0011(16)
C20 0.0109(18) 0.017(2) 0.015(2) -0.0012(17) -0.0012(15) -0.0010(15)
loop_
_atom_type_symbol
_atom_type_description
_atom_type_scat_dispersion_real
_atom_type_scat_dispersion_imag
_atom_type_scat_source
C C 0.0033 0.0016 'International Tables Vol C Tables 4.2.6.8 and 6.1.1.4'
H H 0.0000 0.0000 'International Tables Vol C Tables 4.2.6.8 and 6.1.1.4'
N N 0.0061 0.0033 'International Tables Vol C Tables 4.2.6.8 and 6.1.1.4'
O O 0.0106 0.0060 'International Tables Vol C Tables 4.2.6.8 and 6.1.1.4'
Br Br -0.2901 2.4595 'International Tables Vol C Tables 4.2.6.8 and 6.1.1.4'
loop_
_geom_angle_atom_site_label_1
_geom_angle_atom_site_label_2
_geom_angle_atom_site_label_3
_geom_angle
O3 C2 O1 124.3(4)
O3 C2 C4 117.4(3)
O1 C2 C4 118.2(3)
C5 C4 C2 116.0(3)
C5 C4 H4A 108.3
C2 C4 H4A 108.3
C5 C4 H4B 108.3
C2 C4 H4B 108.3
H4A C4 H4B 107.4
C10 C5 C6 115.8(3)
C10 C5 C4 122.5(3)
C6 C5 C4 121.7(3)
C7 C6 C5 122.6(4)
C7 C6 H6 118.7
C5 C6 H6 118.7
C8 C7 C6 119.6(4)
C8 C7 H7 120.2
C6 C7 H7 120.2
C7 C8 C9 120.0(4)
C7 C8 H8 120.0
C9 C8 H8 120.0
C10 C9 C8 119.1(4)
C10 C9 H9 120.4
C8 C9 H9 120.4
C9 C10 C5 122.9(3)
C9 C10 Br11 117.8(3)
C5 C10 Br11 119.3(3)
C13 C12 H12A 109.5
C13 C12 H12B 109.5
H12A C12 H12B 109.5
C13 C12 H12C 109.5
H12A C12 H12C 109.5
H12B C12 H12C 109.5
C15 C13 N14 112.8(3)
C15 C13 C12 112.8(3)
N14 C13 C12 108.3(3)
C15 C13 H13 107.6
N14 C13 H13 107.6
C12 C13 H13 107.6
C13 N14 H14A 109.5
C13 N14 H14B 109.5
H14A N14 H14B 109.5
C13 N14 H14C 109.5
H14A N14 H14C 109.5
H14B N14 H14C 109.5
C20 C15 C16 117.8(4)
C20 C15 C13 123.7(3)
C16 C15 C13 118.2(4)
C17 C16 C15 121.1(4)
C17 C16 H16 119.5
C15 C16 H16 119.5
C18 C17 C16 120.2(4)
C18 C17 H17 119.9
C16 C17 H17 119.9
C17 C18 C19 120.1(4)
C17 C18 H18 120.0
C19 C18 H18 120.0
C20 C19 C18 119.4(4)
C20 C19 H19 120.3
C18 C19 H19 120.3
C19 C20 C15 121.4(3)
C19 C20 H20 119.3
C15 C20 H20 119.3
loop_
_geom_bond_atom_site_label_1
_geom_bond_atom_site_label_2
_geom_bond_distance
O1 C2 1.265(5)
C2 O3 1.242(4)
C2 C4 1.540(5)
C4 C5 1.496(5)
C4 H4A 0.9700
C4 H4B 0.9700
C5 C10 1.391(5)
C5 C6 1.406(5)
C6 C7 1.371(6)
C6 H6 0.9300
C7 C8 1.380(7)
C7 H7 0.9300
C8 C9 1.391(5)
C8 H8 0.9300
C9 C10 1.378(5)
C9 H9 0.9300
C10 Br11 1.910(4)
C12 C13 1.528(5)
C12 H12A 0.9600
C12 H12B 0.9600
C12 H12C 0.9600
C13 C15 1.503(6)
C13 N14 1.505(4)
C13 H13 0.9800
N14 H14A 0.8900
N14 H14B 0.8900
N14 H14C 0.8900
C15 C20 1.397(6)
C15 C16 1.397(5)
C16 C17 1.386(5)
C16 H16 0.9300
C17 C18 1.378(6)
C17 H17 0.9300
C18 C19 1.394(5)
C18 H18 0.9300
C19 C20 1.387(5)
C19 H19 0.9300
C20 H20 0.9300
loop_
_geom_hbond_atom_site_label_D
_geom_hbond_atom_site_label_H
_geom_hbond_atom_site_label_A
_geom_hbond_distance_DH
_geom_hbond_distance_HA
_geom_hbond_distance_DA
_geom_hbond_angle_DHA
_geom_hbond_site_symmetry_A
N14 H14A O1 0.89 1.96 2.830(4) 164.3 2_746
N14 H14B O3 0.89 1.85 2.671(4) 153.3 1_546
N14 H14C O1 0.89 1.97 2.817(4) 158.5 1_556
