#------------------------------------------------------------------------------
#$Date: 2016-03-24 14:08:23 +0200 (Thu, 24 Mar 2016) $
#$Revision: 179653 $
#$URL: svn://www.crystallography.net/cod/cif/4/51/06/4510698.cif $
#------------------------------------------------------------------------------
#
# This file is available in the Crystallography Open Database (COD),
# http://www.crystallography.net/
#
# All data on this site have been placed in the public domain by the
# contributors.
#
data_4510698
loop_
_publ_author_name
'Olejniczak, Anna'
'Anio\/la, Michalina'
'Szafra\'nski, Marek'
'Budzianowski, Armand'
'Katrusiak, Andrzej'
_publ_section_title
;
 New Polar Phases of 1,4-Diazabicyclo[2.2.2]octane Perchlorate, An
 NH+&#x00B7;&#x00B7;&#x00B7;N Hydrogen-Bonded Ferroelectric
;
_journal_issue                   7
_journal_name_full               'Crystal Growth &amp; Design'
_journal_page_first              2872
_journal_paper_doi               10.1021/cg400276c
_journal_volume                  13
_journal_year                    2013
_chemical_formula_moiety         'C6 H13 N2, Cl O4'
_chemical_formula_sum            'C6 H13 Cl N2 O4'
_chemical_formula_weight         212.63
_chemical_name_common
;
dabcoHClO4
;
_chemical_name_systematic
; 
1,4-diazabicyclo[2.2.2]octane perchlorate
;
_space_group_IT_number           31
_symmetry_cell_setting           orthorhombic
_symmetry_space_group_name_Hall  'P -2ab -2'
_symmetry_space_group_name_H-M   'P m 21 n'
_atom_sites_solution_hydrogens   geom
_atom_sites_solution_primary     direct
_atom_sites_solution_secondary   difmap
_audit_creation_method           SHELXL-97
_cell_angle_alpha                90.00
_cell_angle_beta                 90.00
_cell_angle_gamma                90.00
_cell_formula_units_Z            2
_cell_length_a                   8.8779(8)
_cell_length_b                   9.7606(11)
_cell_length_c                   5.3422(5)
_cell_measurement_reflns_used    2089
_cell_measurement_temperature    222.5(2)
_cell_measurement_theta_max      29.02
_cell_measurement_theta_min      3.81
_cell_volume                     462.92(8)
_computing_cell_refinement       'CrysAlis (Oxford Diffraction, 2002)'
_computing_data_collection       'CrysAlis (Oxford Diffraction, 2002)'
_computing_data_reduction        'CrysAlis (Oxford Diffraction, 2002)'
_computing_molecular_graphics
;X-Seed (Barbour, 2001) 
and POV-Ray (Persistence of Vision, 2004)
;
_computing_publication_material  'SHELXL-97 (Sheldrick, 1997)'
_computing_structure_refinement  'SHELXL-97 (Sheldrick, 1997)'
_computing_structure_solution    'SHELXS-97 (Sheldrick, 1997)'
_diffrn_ambient_temperature      222.5(2)
_diffrn_measured_fraction_theta_full 0.939
_diffrn_measured_fraction_theta_max 0.939
_diffrn_radiation_monochromator  graphite
_diffrn_radiation_source         'fine-focus sealed tube'
_diffrn_radiation_type           MoK\a
_diffrn_radiation_wavelength     0.71073
_diffrn_reflns_av_R_equivalents  0.0281
_diffrn_reflns_av_sigmaI/netI    0.0198
_diffrn_reflns_limit_h_max       11
_diffrn_reflns_limit_h_min       -11
_diffrn_reflns_limit_k_max       13
_diffrn_reflns_limit_k_min       -9
_diffrn_reflns_limit_l_max       7
_diffrn_reflns_limit_l_min       -5
_diffrn_reflns_number            2089
_diffrn_reflns_theta_full        29.02
_diffrn_reflns_theta_max         29.02
_diffrn_reflns_theta_min         3.81
_exptl_absorpt_coefficient_mu    0.399
_exptl_absorpt_correction_T_max  0.95
_exptl_absorpt_correction_T_min  0.90
_exptl_absorpt_correction_type   numerical
_exptl_absorpt_process_details
; 
Correction for absorption was made using XEMP (SHELXTL, 
Sheldrick (1990)).
;
_exptl_crystal_colour            colourless
_exptl_crystal_density_diffrn    1.525
_exptl_crystal_density_method    'not measured'
_exptl_crystal_description       plate
_exptl_crystal_F_000             224
_exptl_crystal_size_max          0.40
_exptl_crystal_size_mid          0.20
_exptl_crystal_size_min          0.15
_refine_diff_density_max         0.460
_refine_diff_density_min         -0.250
_refine_diff_density_rms         0.057
_refine_ls_abs_structure_details 'Flack H D (1983), Acta Cryst. A39, 876-881'
_refine_ls_abs_structure_Flack   0.13(11)
_refine_ls_extinction_coef       0.036(8)
_refine_ls_extinction_expression Fc^*^=kFc[1+0.001xFc^2^\l^3^/sin(2\q)]^-1/4^
_refine_ls_extinction_method     SHELXL
_refine_ls_goodness_of_fit_ref   1.010
_refine_ls_hydrogen_treatment    constr
_refine_ls_matrix_type           full
_refine_ls_number_parameters     71
_refine_ls_number_reflns         1004
_refine_ls_number_restraints     1
_refine_ls_restrained_S_all      1.010
_refine_ls_R_factor_all          0.0342
_refine_ls_R_factor_gt           0.0332
_refine_ls_shift/su_max          0.000
_refine_ls_shift/su_mean         0.000
_refine_ls_structure_factor_coef Fsqd
_refine_ls_weighting_details
'calc w=1/[\s^2^(Fo^2^)+(0.0672P)^2^+0.0941P] where P=(Fo^2^+2Fc^2^)/3'
_refine_ls_weighting_scheme      calc
_refine_ls_wR_factor_gt          0.0944
_refine_ls_wR_factor_ref         0.0957
_reflns_number_gt                966
_reflns_number_total             1004
_reflns_threshold_expression     >2sigma(I)
_cod_data_source_file            cg400276c_si_002.cif
_cod_data_source_block           dabcoHClO4_II_222.5K
_cod_original_sg_symbol_H-M      Pm21n
_cod_database_code               4510698
loop_
_symmetry_equiv_pos_as_xyz
'x, y, z'
'-x+1/2, y+1/2, -z'
'x+1/2, y+1/2, -z'
'-x, y, z'
loop_
_atom_site_label
_atom_site_type_symbol
_atom_site_fract_x
_atom_site_fract_y
_atom_site_fract_z
_atom_site_U_iso_or_equiv
_atom_site_adp_type
_atom_site_occupancy
_atom_site_symmetry_multiplicity
_atom_site_calc_flag
_atom_site_refinement_flags
Cl Cl 0.0000 -0.01755(10) -0.06976(11) 0.0319(2) Uani 1 2 d S
O1 O 0.0000 -0.0200(8) -0.3375(4) 0.0693(8) Uani 1 2 d S
O2 O 0.1333(2) -0.0873(3) 0.0174(4) 0.0537(6) Uani 1 1 d .
O3 O 0.0000 0.1198(3) 0.0206(7) 0.0647(9) Uani 1 2 d S
N2 N 0.0000 0.5495(4) 0.2795(5) 0.0344(6) Uani 1 2 d S
N1 N 0.0000 0.5480(3) 0.7521(5) 0.0370(6) Uani 1 2 d S
H1 H 0.0000 0.5483 0.9225 0.044 Uiso 1 2 calc SR
C2 C 0.0000 0.4098(5) 0.3700(8) 0.081(2) Uani 1 2 d S
H2A H 0.0884 0.3627 0.3068 0.097 Uiso 0.50 1 calc PR
H2B H -0.0884 0.3627 0.3068 0.097 Uiso 0.50 1 calc PR
C1 C 0.0000 0.4038(5) 0.6623(6) 0.0496(11) Uani 1 2 d S
H1A H -0.0887 0.3560 0.7223 0.059 Uiso 0.50 1 calc PR
H1B H 0.0887 0.3560 0.7223 0.059 Uiso 0.50 1 calc PR
C4 C 0.1344(3) 0.6205(4) 0.3771(5) 0.0577(9) Uani 1 1 d .
H4A H 0.1347 0.7143 0.3173 0.069 Uiso 1 1 calc R
H4B H 0.2241 0.5757 0.3133 0.069 Uiso 1 1 calc R
C3 C 0.1393(3) 0.6207(3) 0.6594(5) 0.0429(6) Uani 1 1 d .
H3A H 0.1414 0.7140 0.7217 0.051 Uiso 1 1 calc R
H3B H 0.2289 0.5737 0.7178 0.051 Uiso 1 1 calc R
loop_
_atom_site_aniso_label
_atom_site_aniso_U_11
_atom_site_aniso_U_22
_atom_site_aniso_U_33
_atom_site_aniso_U_23
_atom_site_aniso_U_13
_atom_site_aniso_U_12
Cl 0.0338(3) 0.0332(3) 0.0287(3) 0.0008(4) 0.000 0.000
O1 0.0630(13) 0.118(3) 0.0272(10) 0.009(3) 0.000 0.000
O2 0.0501(11) 0.0588(14) 0.0523(10) -0.0049(10) -0.0143(8) 0.0201(9)
O3 0.076(2) 0.0320(15) 0.087(2) -0.0098(16) 0.000 0.000
N2 0.0474(14) 0.0411(16) 0.0148(11) 0.0003(12) 0.000 0.000
N1 0.0640(17) 0.0344(15) 0.0126(10) 0.0000(11) 0.000 0.000
C2 0.185(6) 0.031(2) 0.0266(17) -0.010(2) 0.000 0.000
C1 0.093(3) 0.0285(18) 0.0274(17) 0.0038(17) 0.000 0.000
C4 0.0380(12) 0.097(3) 0.0376(13) 0.0012(16) 0.0123(10) -0.0171(13)
C3 0.0418(12) 0.0481(14) 0.0388(12) -0.0051(11) -0.0145(9) 0.0014(10)
loop_
_atom_type_symbol
_atom_type_description
_atom_type_scat_dispersion_real
_atom_type_scat_dispersion_imag
_atom_type_scat_source
C C 0.0033 0.0016 'International Tables Vol C Tables 4.2.6.8 and 6.1.1.4'
H H 0.0000 0.0000 'International Tables Vol C Tables 4.2.6.8 and 6.1.1.4'
N N 0.0061 0.0033 'International Tables Vol C Tables 4.2.6.8 and 6.1.1.4'
I I -0.4742 1.8119 'International Tables Vol C Tables 4.2.6.8 and 6.1.1.4'
loop_
_geom_angle_atom_site_label_1
_geom_angle_atom_site_label_2
_geom_angle_atom_site_label_3
_geom_angle
_geom_angle_site_symmetry_1
_geom_angle_site_symmetry_3
O3 Cl O1 110.8(4) . .
O3 Cl O2 109.54(13) . .
O1 Cl O2 108.36(18) . .
O3 Cl O2 109.54(13) . 4
O1 Cl O2 108.36(18) . 4
O2 Cl O2 110.2(2) . 4
C2 N2 C4 108.9(2) . .
C2 N2 C4 108.9(2) . 4
C4 N2 C4 108.0(3) . 4
C1 N1 C3 109.81(18) . .
C1 N1 C3 109.81(18) . 4
C3 N1 C3 110.0(3) . 4
C1 N1 H1 109.1 . .
C3 N1 H1 109.1 . .
C3 N1 H1 109.1 4 .
N2 C2 C1 111.7(3) . .
N2 C2 H2A 109.3 . .
C1 C2 H2A 109.3 . .
N2 C2 H2B 109.3 . .
C1 C2 H2B 109.3 . .
H2A C2 H2B 107.9 . .
N1 C1 C2 106.7(3) . .
N1 C1 H1A 110.4 . .
C2 C1 H1A 110.4 . .
N1 C1 H1B 110.4 . .
C2 C1 H1B 110.4 . .
H1A C1 H1B 108.6 . .
N2 C4 C3 112.1(2) . .
N2 C4 H4A 109.2 . .
C3 C4 H4A 109.2 . .
N2 C4 H4B 109.2 . .
C3 C4 H4B 109.2 . .
H4A C4 H4B 107.9 . .
C4 C3 N1 107.73(19) . .
C4 C3 H3A 110.2 . .
N1 C3 H3A 110.2 . .
C4 C3 H3B 110.2 . .
N1 C3 H3B 110.2 . .
H3A C3 H3B 108.5 . .
loop_
_geom_bond_atom_site_label_1
_geom_bond_atom_site_label_2
_geom_bond_distance
_geom_bond_site_symmetry_2
Cl O3 1.425(3) .
Cl O1 1.430(2) .
Cl O2 1.4422(19) .
Cl O2 1.4422(19) 4
N2 C2 1.447(5) .
N2 C4 1.475(3) .
N2 C4 1.475(3) 4
N1 C1 1.487(5) .
N1 C3 1.509(3) .
N1 C3 1.509(3) 4
N1 H1 0.9100 .
C2 C1 1.562(5) .
C2 H2A 0.9700 .
C2 H2B 0.9700 .
C1 H1A 0.9700 .
C1 H1B 0.9700 .
C4 C3 1.508(3) .
C4 H4A 0.9700 .
C4 H4B 0.9700 .
C3 H3A 0.9700 .
C3 H3B 0.9700 .
loop_
_geom_torsion_atom_site_label_1
_geom_torsion_atom_site_label_2
_geom_torsion_atom_site_label_3
_geom_torsion_atom_site_label_4
_geom_torsion
_geom_torsion_site_symmetry_1
C4 N2 C2 C1 58.80(16) .
C4 N2 C2 C1 -58.80(16) 4
C3 N1 C1 C2 -60.54(15) .
C3 N1 C1 C2 60.54(15) 4
N2 C2 C1 N1 0.000(1) .
C2 N2 C4 C3 -58.7(3) .
C4 N2 C4 C3 59.5(4) 4
N2 C4 C3 N1 -0.8(4) .
C1 N1 C3 C4 61.5(3) .
C3 N1 C3 C4 -59.4(4) 4
loop_
_refln_index_h
_refln_index_k
_refln_index_l
_refln_F_squared_calc
_refln_F_squared_meas
_refln_F_squared_sigma
_refln_observed_status
4 -6 0 138.49 149.84 2.11 o
3 -5 0 783.41 829.22 4.03 o
7 -5 0 144.25 146.36 2.70 o
9 -5 0 41.40 38.27 1.86 o
2 -4 0 243.53 221.35 1.80 o
4 -4 0 947.11 1018.40 4.73 o
6 -4 0 62.68 58.30 1.70 o
8 -4 0 15.89 14.80 1.24 o
10 -4 0 53.60 59.26 2.34 o
1 -3 0 1866.78 1801.20 3.96 o
3 -3 0 412.35 485.62 2.85 o
5 -3 0 42.21 51.85 1.43 o
7 -3 0 389.23 416.63 4.18 o
9 -3 0 50.77 53.15 2.04 o
11 -3 0 5.94 5.30 1.16 o
2 -2 0 2985.03 3020.23 5.72 o
4 -2 0 1183.16 1144.41 4.94 o
8 -2 0 232.63 245.08 3.86 o
10 -2 0 51.72 50.61 2.17 o
3 -1 0 1429.33 1453.54 4.72 o
5 -1 0 190.44 186.58 2.41 o
7 -1 0 179.97 165.92 3.05 o
9 -1 0 47.73 55.01 2.30 o
11 -1 0 35.42 39.31 2.22 o
2 0 0 7082.73 7821.13 19.12 o
4 0 0 310.70 322.89 2.72 o
6 0 0 1463.77 1545.40 7.21 o
8 0 0 799.02 825.11 6.52 o
10 0 0 28.59 24.09 1.93 o
3 1 0 1467.68 1479.12 31.04 o
5 1 0 199.02 199.27 2.65 o
7 1 0 172.22 162.41 6.46 o
9 1 0 46.84 53.59 2.23 o
11 1 0 36.79 42.02 2.31 o
0 2 0 7118.78 6443.71 16.20 o
2 2 0 2987.85 3072.04 8.32 o
4 2 0 1188.56 1146.09 22.43 o
6 2 0 632.58 696.52 4.00 o
8 2 0 236.91 257.77 4.11 o
10 2 0 51.21 47.66 2.24 o
1 3 0 1848.60 1644.40 4.61 o
3 3 0 433.25 512.20 12.56 o
5 3 0 45.02 52.66 1.62 o
7 3 0 382.16 399.90 4.52 o
9 3 0 49.50 49.43 2.29 o
11 3 0 6.87 6.30 1.47 o
0 4 0 682.79 711.89 3.58 o
2 4 0 245.75 229.17 1.35 o
4 4 0 964.55 1044.73 24.50 o
6 4 0 61.92 59.32 1.95 o
8 4 0 13.85 12.74 1.30 o
10 4 0 54.69 59.03 2.63 o
1 5 0 1110.33 1073.30 4.94 o
3 5 0 773.42 762.15 4.34 o
5 5 0 476.13 450.66 5.67 o
7 5 0 143.26 140.84 1.98 o
9 5 0 40.62 37.06 1.98 o
0 6 0 233.29 244.72 2.76 o
2 6 0 60.31 38.83 1.29 o
4 6 0 145.32 148.21 2.44 o
6 6 0 61.67 63.69 1.42 o
8 6 0 28.85 35.83 2.05 o
10 6 0 21.91 28.85 2.11 o
1 7 0 494.10 476.67 13.81 o
3 7 0 1347.02 1429.24 7.13 o
5 7 0 554.83 594.48 17.35 o
7 7 0 35.50 36.13 2.14 o
9 7 0 42.94 43.69 2.20 o
0 8 0 113.00 123.16 2.58 o
2 8 0 48.23 43.66 1.28 o
4 8 0 28.04 37.44 2.49 o
6 8 0 28.04 29.39 1.62 o
8 8 0 24.54 25.33 2.06 o
1 9 0 171.19 178.50 3.93 o
3 9 0 264.18 267.46 2.87 o
5 9 0 107.41 103.42 2.45 o
0 10 0 51.01 36.55 1.92 o
2 10 0 27.37 28.75 1.20 o
4 10 0 54.28 59.79 1.57 o
1 11 0 31.10 27.49 1.35 o
3 11 0 3.72 5.79 0.87 o
5 11 0 3.48 7.43 1.31 o
0 12 0 48.45 71.28 2.53 o
2 12 0 48.20 55.67 1.79 o
4 12 0 31.13 23.12 1.97 o
1 13 0 3.42 2.95 0.75 o
4 -7 1 42.03 43.65 1.55 o
5 -7 1 81.87 82.92 2.07 o
6 -7 1 11.56 10.51 1.11 o
8 -7 1 7.76 7.19 1.10 o
3 -6 1 28.10 30.31 1.31 o
5 -6 1 20.38 20.44 1.39 o
6 -6 1 70.21 69.76 2.11 o
7 -6 1 18.73 18.28 1.48 o
8 -6 1 8.90 7.74 1.31 o
9 -6 1 4.97 4.47 1.03 o
10 -6 1 23.22 23.93 1.97 o
3 -5 1 193.66 195.86 1.47 o
4 -5 1 63.83 65.47 1.51 o
5 -5 1 89.65 92.74 3.08 o
6 -5 1 34.31 36.10 1.66 o
7 -5 1 74.87 77.63 2.17 o
8 -5 1 21.42 21.05 1.50 o
9 -5 1 13.94 14.25 1.50 o
10 -5 1 7.19 5.26 1.15 o
2 -4 1 49.16 46.25 0.58 o
3 -4 1 165.84 171.10 1.26 o
4 -4 1 66.90 70.18 1.01 o
5 -4 1 69.91 69.16 1.90 o
6 -4 1 98.61 100.94 2.30 o
7 -4 1 22.81 22.06 0.98 o
8 -4 1 50.63 52.64 1.32 o
9 -4 1 13.71 12.30 0.86 o
10 -4 1 3.78 3.26 0.83 o
11 -4 1 5.12 5.51 1.39 o
2 -3 1 250.57 263.53 3.34 o
3 -3 1 205.86 196.00 1.95 o
4 -3 1 116.77 114.87 1.24 o
5 -3 1 117.10 119.97 1.41 o
6 -3 1 73.14 71.73 2.65 o
7 -3 1 18.46 18.13 0.83 o
8 -3 1 22.23 24.12 1.11 o
9 -3 1 19.26 18.02 1.04 o
10 -3 1 5.85 5.37 0.68 o
11 -3 1 21.29 21.60 1.08 o
1 -2 1 409.81 384.57 2.29 o
2 -2 1 533.66 528.26 4.55 o
3 -2 1 359.86 357.89 1.73 o
4 -2 1 831.33 909.81 3.11 o
5 -2 1 126.51 128.46 2.26 o
6 -2 1 111.10 107.55 1.55 o
7 -2 1 35.02 34.25 1.16 o
8 -2 1 108.76 117.10 1.97 o
9 -2 1 17.52 15.70 0.82 o
10 -2 1 20.90 20.73 1.20 o
11 -2 1 6.23 5.52 1.00 o
1 -1 1 4136.37 4138.47 93.25 o
2 -1 1 340.58 350.59 9.39 o
3 -1 1 10.42 7.75 0.54 o
4 -1 1 204.08 217.76 3.37 o
5 -1 1 105.05 106.20 1.39 o
6 -1 1 59.14 64.68 2.13 o
7 -1 1 381.85 418.31 6.66 o
8 -1 1 19.17 20.76 0.89 o
9 -1 1 58.47 59.09 1.29 o
10 -1 1 11.85 12.15 0.88 o
11 -1 1 2.91 2.66 0.59 o
0 0 1 320.39 329.17 1.60 o
1 0 1 585.01 552.84 3.16 o
2 0 1 456.03 400.09 4.00 o
3 0 1 307.13 295.13 2.72 o
4 0 1 157.77 138.45 2.42 o
5 0 1 176.59 153.31 1.59 o
6 0 1 108.52 105.40 1.58 o
7 0 1 52.73 57.01 1.50 o
8 0 1 65.79 62.69 2.21 o
9 0 1 9.13 10.71 0.74 o
10 0 1 37.47 41.11 1.17 o
11 0 1 4.98 5.17 1.43 o
0 1 1 267.38 270.52 8.42 o
1 1 1 4146.20 4196.19 93.64 o
2 1 1 341.19 348.38 8.66 o
3 1 1 9.43 6.48 0.36 o
4 1 1 204.09 222.14 3.96 o
5 1 1 107.49 104.45 1.36 o
6 1 1 58.73 64.36 1.06 o
7 1 1 384.49 413.73 3.15 o
8 1 1 19.32 18.73 0.88 o
9 1 1 58.56 59.15 1.52 o
10 1 1 12.03 10.26 1.04 o
11 1 1 2.61 2.78 0.81 o
0 2 1 1252.21 1113.53 52.92 o
1 2 1 410.01 362.65 13.56 o
2 2 1 555.46 543.48 11.56 o
3 2 1 357.49 349.00 6.36 o
4 2 1 857.02 950.01 20.15 o
5 2 1 125.66 127.51 2.23 o
6 2 1 110.49 103.27 1.10 o
7 2 1 35.00 33.73 0.92 o
8 2 1 105.96 113.34 1.54 o
9 2 1 17.30 17.09 1.60 o
10 2 1 22.30 20.79 1.42 o
11 2 1 6.12 5.61 0.90 o
0 3 1 467.06 433.28 21.33 o
1 3 1 117.60 108.07 3.38 o
2 3 1 250.68 251.92 5.75 o
3 3 1 210.99 197.46 4.83 o
4 3 1 116.62 114.16 2.04 o
5 3 1 120.74 123.27 2.31 o
6 3 1 73.37 73.84 1.65 o
7 3 1 17.41 18.45 0.67 o
8 3 1 22.47 24.58 1.46 o
9 3 1 18.83 18.28 1.33 o
10 3 1 5.96 6.78 0.92 o
11 3 1 21.43 19.55 1.37 o
0 4 1 389.40 345.83 2.78 o
1 4 1 174.98 166.99 5.13 o
2 4 1 53.33 47.51 0.79 o
3 4 1 165.67 164.77 3.22 o
4 4 1 73.22 74.59 2.38 o
5 4 1 69.09 65.57 1.56 o
6 4 1 97.81 95.98 1.67 o
7 4 1 22.47 20.84 0.92 o
8 4 1 49.71 52.67 1.86 o
9 4 1 13.78 11.48 1.06 o
10 4 1 4.02 4.52 1.09 o
0 5 1 229.11 218.09 2.53 o
1 5 1 406.91 431.53 11.67 o
2 5 1 140.95 124.04 2.87 o
3 5 1 198.41 194.61 2.86 o
4 5 1 63.34 65.34 1.29 o
5 5 1 89.71 89.99 1.37 o
6 5 1 34.83 35.41 0.97 o
7 5 1 70.26 68.87 1.33 o
8 5 1 21.66 21.06 1.13 o
9 5 1 13.58 14.77 1.79 o
10 5 1 7.14 5.82 1.31 o
0 6 1 68.82 60.56 3.06 o
1 6 1 78.69 69.69 1.90 o
2 6 1 302.09 298.77 2.82 o
3 6 1 28.85 31.15 0.76 o
4 6 1 446.33 456.23 3.38 o
5 6 1 20.55 19.90 0.89 o
6 6 1 69.46 69.31 1.22 o
7 6 1 18.59 17.23 0.85 o
8 6 1 8.92 6.94 0.64 o
9 6 1 4.98 4.95 0.92 o
10 6 1 22.96 20.06 1.43 o
0 7 1 32.77 36.51 0.97 o
1 7 1 76.26 72.61 1.06 o
2 7 1 48.94 47.03 0.92 o
3 7 1 119.01 112.00 1.31 o
4 7 1 41.78 42.64 1.87 o
5 7 1 81.17 78.89 3.81 o
6 7 1 11.45 10.65 0.99 o
7 7 1 36.14 38.42 1.05 o
8 7 1 7.80 7.87 0.75 o
9 7 1 15.13 18.80 1.79 o
10 7 1 5.09 4.00 1.28 o
0 8 1 41.88 40.40 1.16 o
1 8 1 35.83 35.11 1.25 o
2 8 1 203.29 208.44 3.17 o
3 8 1 6.48 6.50 0.58 o
4 8 1 251.13 266.07 2.74 o
5 8 1 6.63 6.02 1.07 o
6 8 1 29.75 28.70 2.29 o
7 8 1 11.45 11.13 0.98 o
8 8 1 8.97 8.92 1.01 o
9 8 1 4.08 4.04 1.09 o
0 9 1 23.46 21.08 0.94 o
1 9 1 96.66 103.19 1.28 o
2 9 1 14.26 14.33 0.71 o
3 9 1 64.08 68.55 1.65 o
4 9 1 11.86 13.26 0.98 o
5 9 1 32.88 37.44 1.37 o
6 9 1 10.49 10.89 1.14 o
7 9 1 21.57 20.85 1.27 o
8 9 1 4.49 4.76 1.25 o
0 10 1 28.84 33.04 1.88 o
1 10 1 9.44 8.96 0.67 o
2 10 1 23.99 20.66 0.74 o
3 10 1 17.15 18.52 1.16 o
4 10 1 13.11 11.12 0.97 o
5 10 1 7.74 7.48 1.53 o
6 10 1 9.66 9.03 1.27 o
7 10 1 2.61 1.46 0.75 o
0 11 1 13.19 13.54 0.95 o
1 11 1 19.60 21.10 0.80 o
2 11 1 4.83 5.09 0.71 o
3 11 1 28.05 25.88 1.29 o
4 11 1 1.46 1.12 0.45 o
5 11 1 9.83 9.24 1.04 o
6 11 1 4.46 3.05 1.00 o
0 12 1 11.04 7.13 0.84 o
1 12 1 6.03 5.36 0.67 o
2 12 1 8.31 8.69 0.84 o
3 12 1 8.70 9.64 0.88 o
4 12 1 7.79 10.33 1.17 o
5 12 1 5.57 2.74 0.94 o
1 13 1 32.19 38.54 2.31 o
6 -8 2 38.28 42.56 1.96 o
7 -8 2 11.80 10.92 1.32 o
8 -8 2 10.05 10.82 1.09 o
1 -7 2 0.05 0.44 0.36 o
6 -7 2 30.02 28.75 1.62 o
7 -7 2 0.63 0.55 0.63 o
8 -7 2 16.21 15.29 1.19 o
9 -7 2 2.88 3.34 0.76 o
0 -6 2 212.02 215.92 2.05 o
1 -6 2 49.34 55.93 1.28 o
2 -6 2 245.55 266.64 2.86 o
4 -6 2 298.24 294.57 3.67 o
5 -6 2 16.56 18.29 1.26 o
6 -6 2 83.22 89.33 2.59 o
7 -6 2 20.09 20.36 1.17 o
8 -6 2 14.50 13.91 1.14 o
9 -6 2 19.72 21.36 1.33 o
10 -6 2 14.22 15.53 1.80 o
0 -5 2 123.04 114.07 1.45 o
1 -5 2 38.02 33.51 0.57 o
2 -5 2 77.44 84.19 1.73 o
3 -5 2 82.34 94.25 2.95 o
4 -5 2 44.59 43.37 1.19 o
5 -5 2 34.99 36.87 1.76 o
6 -5 2 36.28 37.39 1.28 o
7 -5 2 6.19 4.76 1.05 o
8 -5 2 21.34 21.39 1.21 o
9 -5 2 0.56 0.44 0.44 o
10 -5 2 8.69 8.36 1.06 o
0 -4 2 553.50 584.74 2.98 o
1 -4 2 126.37 126.95 0.98 o
2 -4 2 66.89 92.28 1.67 o
3 -4 2 63.05 62.18 1.17 o
4 -4 2 19.96 18.72 0.81 o
5 -4 2 54.82 57.49 1.32 o
6 -4 2 53.00 52.94 1.41 o
7 -4 2 37.67 41.64 1.33 o
8 -4 2 37.66 33.42 1.95 o
9 -4 2 14.21 13.68 1.14 o
10 -4 2 5.27 5.30 1.28 o
0 -3 2 59.37 52.93 0.93 o
1 -3 2 39.60 41.13 0.59 o
2 -3 2 79.09 77.66 1.14 o
3 -3 2 366.89 382.57 4.03 o
4 -3 2 76.92 75.55 0.94 o
5 -3 2 160.73 154.11 1.44 o
6 -3 2 30.34 30.05 0.90 o
7 -3 2 28.73 32.39 1.11 o
8 -3 2 26.72 27.38 0.95 o
9 -3 2 9.45 9.54 0.74 o
10 -3 2 15.06 15.57 1.13 o
0 -2 2 460.33 498.58 2.67 o
1 -2 2 95.83 84.30 1.95 o
2 -2 2 22.34 24.52 0.47 o
3 -2 2 106.70 95.61 1.45 o
4 -2 2 143.42 139.82 3.04 o
5 -2 2 83.49 85.01 1.15 o
6 -2 2 19.80 16.59 1.12 o
7 -2 2 30.25 33.20 0.96 o
8 -2 2 43.21 35.05 1.08 o
9 -2 2 14.54 14.34 0.90 o
10 -2 2 0.96 0.58 0.48 o
11 -2 2 9.48 8.07 0.99 o
0 -1 2 21.70 26.55 0.87 o
1 -1 2 2403.05 2416.58 30.73 o
2 -1 2 15.57 14.51 0.52 o
3 -1 2 211.85 211.11 1.69 o
4 -1 2 61.33 62.28 0.88 o
5 -1 2 163.48 177.05 2.27 o
6 -1 2 32.45 33.88 1.33 o
7 -1 2 227.31 235.96 2.13 o
8 -1 2 9.46 11.50 0.79 o
9 -1 2 60.62 59.69 1.33 o
10 -1 2 9.08 8.89 0.80 o
11 -1 2 4.57 5.47 0.74 o
0 0 2 6.88 5.22 0.31 o
1 0 2 92.12 80.62 1.90 o
2 0 2 1.23 2.24 0.24 o
3 0 2 92.18 89.31 1.14 o
4 0 2 37.40 52.30 1.03 o
5 0 2 49.33 56.04 0.95 o
6 0 2 26.41 20.17 0.74 o
7 0 2 24.54 23.66 0.93 o
8 0 2 14.35 15.86 0.78 o
9 0 2 19.65 18.76 0.87 o
10 0 2 0.64 0.68 0.35 o
11 0 2 7.64 6.49 0.80 o
0 1 2 19.46 22.34 0.54 o
1 1 2 2409.35 2325.66 27.20 o
2 1 2 13.20 11.71 0.33 o
3 1 2 217.34 210.96 3.30 o
4 1 2 59.67 60.85 0.88 o
5 1 2 166.81 177.94 5.53 o
6 1 2 31.96 33.70 1.05 o
7 1 2 228.33 230.79 4.66 o
8 1 2 8.92 10.69 0.77 o
9 1 2 61.16 60.42 1.32 o
10 1 2 8.87 10.30 0.78 o
11 1 2 4.72 3.94 0.82 o
0 2 2 447.05 449.27 17.06 o
1 2 2 98.90 82.68 1.38 o
2 2 2 24.28 25.89 0.43 o
3 2 2 106.51 96.58 1.42 o
4 2 2 148.57 142.21 3.11 o
5 2 2 82.74 85.52 1.87 o
6 2 2 18.64 13.68 0.60 o
7 2 2 31.04 32.67 0.95 o
8 2 2 41.26 35.64 1.03 o
9 2 2 15.34 15.18 0.86 o
10 2 2 0.98 0.72 0.42 o
0 3 2 59.32 49.78 1.12 o
1 3 2 41.49 41.89 0.83 o
2 3 2 76.99 71.82 2.03 o
3 3 2 377.50 380.48 10.04 o
4 3 2 73.30 71.76 0.93 o
5 3 2 165.94 156.29 3.42 o
6 3 2 28.87 28.45 0.81 o
7 3 2 28.84 32.38 1.62 o
8 3 2 26.50 28.43 1.01 o
9 3 2 10.04 10.01 1.39 o
10 3 2 14.96 16.39 3.20 o
0 4 2 540.08 527.15 23.56 o
1 4 2 129.58 121.86 4.32 o
2 4 2 62.62 77.14 1.82 o
3 4 2 63.55 60.87 2.22 o
4 4 2 19.50 16.26 0.56 o
5 4 2 55.91 58.42 0.97 o
6 4 2 50.36 48.82 1.05 o
7 4 2 38.78 40.18 0.88 o
8 4 2 36.06 32.00 1.10 o
9 4 2 14.40 13.86 1.09 o
10 4 2 5.17 4.95 0.87 o
0 5 2 123.50 109.53 5.04 o
1 5 2 35.90 28.27 0.57 o
2 5 2 77.95 78.94 1.83 o
3 5 2 86.53 94.56 2.36 o
4 5 2 43.85 39.83 0.94 o
5 5 2 36.77 39.10 1.06 o
6 5 2 35.42 34.83 1.17 o
7 5 2 5.32 4.78 0.61 o
8 5 2 21.53 19.74 0.98 o
9 5 2 0.64 1.30 0.47 o
10 5 2 8.78 9.03 1.06 o
0 6 2 206.87 196.51 2.91 o
1 6 2 51.02 53.31 1.19 o
2 6 2 242.37 249.04 9.09 o
3 6 2 36.36 32.90 1.64 o
4 6 2 296.49 287.18 11.84 o
5 6 2 17.02 16.87 0.72 o
6 6 2 81.52 79.62 1.55 o
7 6 2 20.67 20.43 1.29 o
8 6 2 14.07 14.90 0.94 o
9 6 2 19.82 21.71 1.42 o
10 6 2 14.17 12.49 1.43 o
0 7 2 110.87 99.59 1.48 o
1 7 2 0.15 0.37 0.23 o
2 7 2 47.77 46.76 1.30 o
3 7 2 34.16 36.45 1.24 o
4 7 2 19.92 18.65 1.01 o
5 7 2 9.34 8.74 0.75 o
6 7 2 30.47 30.22 1.61 o
7 7 2 0.46 0.66 0.54 o
8 7 2 16.21 14.37 1.17 o
9 7 2 3.06 3.60 1.30 o
0 8 2 72.15 66.65 1.46 o
1 8 2 17.41 16.85 0.97 o
2 8 2 168.98 162.78 2.25 o
3 8 2 19.07 21.95 1.14 o
4 8 2 196.14 192.87 2.56 o
5 8 2 14.18 14.98 1.16 o
6 8 2 38.35 39.27 1.52 o
7 8 2 11.45 10.23 1.04 o
8 8 2 10.30 9.41 1.04 o
0 9 2 46.35 53.07 1.37 o
1 9 2 9.36 7.30 0.69 o
2 9 2 39.37 39.82 1.42 o
3 9 2 9.47 10.53 0.96 o
4 9 2 23.38 20.81 1.19 o
5 9 2 4.43 1.88 0.59 o
6 9 2 15.82 14.76 1.11 o
7 9 2 2.16 2.09 0.54 o
8 9 2 11.04 8.29 1.00 o
0 10 2 38.57 41.38 2.08 o
1 10 2 22.88 22.11 1.17 o
2 10 2 31.91 30.61 1.07 o
3 10 2 8.14 9.10 1.01 o
4 10 2 16.04 16.11 1.13 o
5 10 2 11.49 13.14 1.09 o
6 10 2 8.91 8.50 0.99 o
7 10 2 11.78 13.74 1.57 o
0 11 2 13.91 12.69 1.42 o
1 11 2 2.98 1.47 0.52 o
2 11 2 23.39 22.35 1.00 o
3 11 2 13.90 12.72 0.87 o
4 11 2 24.49 26.28 1.42 o
5 11 2 5.77 3.76 0.76 o
0 12 2 8.59 9.18 1.52 o
1 12 2 13.52 16.40 1.29 o
2 12 2 2.14 1.11 0.49 o
3 12 2 8.47 5.52 1.21 o
5 -9 3 7.07 4.73 1.08 o
6 -9 3 19.55 22.45 1.88 o
7 -9 3 1.07 0.96 0.78 o
4 -8 3 1.27 2.19 0.85 o
5 -8 3 33.85 39.53 2.08 o
6 -8 3 2.06 1.75 0.98 o
7 -8 3 18.78 19.23 1.27 o
8 -8 3 5.40 2.64 0.98 o
2 -7 3 48.70 55.18 1.62 o
3 -7 3 215.65 225.25 3.28 o
4 -7 3 18.24 20.69 1.48 o
5 -7 3 78.85 83.69 2.59 o
6 -7 3 26.56 25.35 1.82 o
7 -7 3 0.12 0.55 0.44 o
8 -7 3 30.91 32.58 1.47 o
1 -6 3 162.36 177.43 2.32 o
2 -6 3 1.78 1.92 0.67 o
3 -6 3 89.39 96.96 2.30 o
4 -6 3 19.80 17.38 1.36 o
5 -6 3 59.75 64.11 1.61 o
6 -6 3 12.26 11.99 0.99 o
7 -6 3 36.75 39.66 3.04 o
8 -6 3 8.19 8.56 1.12 o
9 -6 3 15.72 13.56 2.07 o
0 -5 3 136.88 143.90 1.91 o
1 -5 3 75.54 76.74 1.60 o
2 -5 3 131.99 136.64 2.31 o
3 -5 3 60.02 59.14 1.81 o
4 -5 3 81.99 88.95 1.68 o
5 -5 3 44.96 39.91 2.64 o
6 -5 3 49.42 54.57 3.69 o
7 -5 3 12.93 13.35 1.10 o
8 -5 3 35.32 36.04 2.02 o
9 -5 3 1.91 1.38 0.69 o
1 -4 3 316.02 321.54 1.91 o
3 -4 3 120.08 122.03 1.71 o
4 -4 3 113.44 114.92 1.80 o
5 -4 3 74.82 75.57 2.73 o
6 -4 3 8.13 9.89 0.97 o
7 -4 3 73.37 77.64 3.05 o
8 -4 3 14.18 12.30 1.47 o
9 -4 3 34.27 35.57 1.62 o
0 -3 3 158.70 172.63 2.05 o
1 -3 3 149.79 157.86 1.37 o
2 -3 3 243.36 242.69 4.79 o
3 -3 3 203.59 202.92 2.53 o
4 -3 3 261.20 268.06 7.53 o
5 -3 3 25.20 29.15 1.66 o
6 -3 3 84.81 90.73 6.14 o
7 -3 3 68.92 65.41 1.72 o
8 -3 3 24.57 27.75 1.38 o
9 -3 3 4.44 4.25 1.26 o
10 -3 3 21.81 19.04 1.41 o
0 -2 3 423.14 460.59 3.23 o
1 -2 3 175.07 167.82 1.47 o
2 -2 3 161.80 162.65 1.27 o
3 -2 3 173.49 176.82 2.66 o
4 -2 3 62.21 63.61 1.77 o
5 -2 3 118.12 120.69 1.96 o
6 -2 3 57.80 57.06 1.29 o
7 -2 3 62.51 66.30 1.31 o
8 -2 3 25.38 23.70 1.27 o
9 -2 3 29.87 32.89 1.44 o
10 -2 3 2.73 1.16 0.58 o
0 -1 3 351.10 362.03 3.03 o
1 -1 3 45.00 46.00 0.88 o
2 -1 3 247.29 255.30 3.06 o
3 -1 3 225.88 219.04 4.67 o
4 -1 3 197.93 206.56 8.24 o
5 -1 3 48.68 52.91 1.34 o
6 -1 3 100.17 100.04 1.66 o
7 -1 3 27.99 22.64 0.95 o
8 -1 3 46.64 50.68 1.58 o
9 -1 3 2.90 2.10 0.48 o
10 -1 3 14.20 13.81 1.05 o
0 0 3 3299.17 3457.99 57.32 o
1 0 3 22.88 18.71 0.45 o
2 0 3 395.74 423.10 4.90 o
3 0 3 288.09 272.07 4.00 o
4 0 3 0.86 0.61 0.33 o
5 0 3 191.27 192.18 2.14 o
6 0 3 183.55 180.06 1.78 o
7 0 3 26.07 29.52 0.99 o
8 0 3 145.40 146.23 2.30 o
9 0 3 16.68 17.01 1.13 o
10 0 3 0.05 0.22 0.42 o
0 1 3 354.47 355.17 7.50 o
1 1 3 43.55 42.16 0.78 o
2 1 3 244.99 244.75 2.13 o
3 1 3 229.22 214.80 4.28 o
4 1 3 193.58 196.48 2.92 o
5 1 3 49.92 54.45 1.32 o
6 1 3 99.87 100.54 2.57 o
7 1 3 27.09 20.11 0.87 o
8 1 3 47.58 51.42 1.31 o
9 1 3 2.79 2.21 0.50 o
10 1 3 14.02 14.17 0.92 o
0 2 3 424.76 463.46 3.73 o
1 2 3 174.15 158.10 2.29 o
2 2 3 161.12 156.56 2.57 o
3 2 3 174.47 169.26 3.34 o
4 2 3 61.60 56.97 1.72 o
5 2 3 117.74 116.71 2.19 o
6 2 3 58.20 58.44 2.34 o
7 2 3 61.51 64.00 1.29 o
8 2 3 25.83 23.98 0.99 o
9 2 3 29.82 32.85 1.11 o
10 2 3 2.64 1.44 0.55 o
0 3 3 160.35 168.04 4.59 o
1 3 3 149.28 150.11 2.60 o
2 3 3 240.85 226.53 3.34 o
3 3 3 206.72 193.90 4.37 o
4 3 3 257.61 246.78 8.45 o
5 3 3 26.21 29.34 0.84 o
6 3 3 84.31 91.64 1.73 o
7 3 3 68.28 61.23 1.26 o
8 3 3 25.22 28.29 1.01 o
9 3 3 4.37 3.47 0.60 o
10 3 3 21.62 19.68 1.30 o
0 4 3 302.18 290.53 5.51 o
1 4 3 319.06 306.41 5.18 o
2 4 3 19.14 14.40 0.61 o
3 4 3 119.28 118.95 3.15 o
4 4 3 114.35 110.51 3.00 o
5 4 3 73.53 69.10 2.02 o
6 4 3 7.66 7.96 0.64 o
7 4 3 73.99 79.30 2.58 o
8 4 3 13.75 11.00 0.97 o
9 4 3 34.81 31.64 1.52 o
10 4 3 6.11 6.19 1.44 o
0 5 3 136.88 140.20 2.55 o
1 5 3 75.70 73.01 1.64 o
2 5 3 131.94 127.39 3.87 o
3 5 3 59.58 58.75 1.36 o
4 5 3 82.32 82.15 3.46 o
5 5 3 44.57 35.05 1.39 o
6 5 3 49.43 49.23 2.42 o
7 5 3 13.04 12.47 0.80 o
8 5 3 35.07 33.91 1.13 o
9 5 3 1.93 1.17 0.51 o
10 5 3 19.25 18.18 1.69 o
0 6 3 109.96 111.92 1.77 o
1 6 3 163.84 168.96 5.43 o
2 6 3 1.63 1.92 0.45 o
3 6 3 88.87 87.65 3.85 o
4 6 3 20.59 18.19 1.41 o
5 6 3 59.51 61.95 3.77 o
6 6 3 11.77 9.59 0.83 o
7 6 3 37.44 36.34 2.06 o
8 6 3 7.90 8.62 1.43 o
9 6 3 15.90 14.07 1.73 o
0 7 3 79.81 79.04 2.27 o
1 7 3 24.81 22.80 1.05 o
2 7 3 49.24 52.82 1.15 o
3 7 3 215.22 231.60 6.02 o
4 7 3 18.68 20.83 1.16 o
5 7 3 78.64 73.43 1.70 o
6 7 3 26.56 25.75 1.29 o
7 7 3 0.12 0.70 0.54 o
8 7 3 30.93 28.61 1.50 o
0 8 3 34.17 32.13 1.81 o
1 8 3 72.81 77.05 1.68 o
2 8 3 7.93 5.24 0.63 o
3 8 3 55.45 56.44 1.65 o
4 8 3 1.10 1.18 0.71 o
5 8 3 34.12 34.68 1.42 o
6 8 3 2.17 1.21 0.60 o
7 8 3 18.66 18.06 1.20 o
0 9 3 38.00 39.03 2.15 o
1 9 3 10.84 11.54 1.03 o
2 9 3 26.11 30.34 1.41 o
3 9 3 27.41 21.25 1.21 o
4 9 3 18.87 22.89 1.20 o
5 9 3 7.07 4.65 0.79 o
6 9 3 19.54 21.32 1.30 o
7 9 3 0.99 1.72 0.97 o
0 10 3 36.31 29.75 2.03 o
1 10 3 39.87 42.74 1.83 o
2 10 3 5.21 3.20 0.74 o
3 10 3 29.57 31.16 1.40 o
4 10 3 6.53 5.39 0.90 o
5 10 3 18.23 17.97 2.25 o
6 10 3 2.61 2.42 1.07 o
0 11 3 23.12 22.34 1.95 o
1 11 3 0.88 0.65 0.51 o
2 11 3 22.17 23.70 1.40 o
3 11 3 5.86 9.22 1.20 o
5 -8 4 20.77 24.09 1.88 o
6 -8 4 13.53 11.91 1.59 o
3 -7 4 0.89 1.54 0.64 o
4 -7 4 46.59 50.81 2.03 o
6 -7 4 16.35 15.47 1.61 o
7 -7 4 2.12 1.95 1.01 o
2 -6 4 8.71 7.16 1.03 o
3 -6 4 49.22 57.30 1.98 o
5 -6 4 34.63 36.70 1.92 o
6 -6 4 13.33 13.57 1.11 o
7 -6 4 44.39 46.93 1.71 o
1 -5 4 204.88 227.58 3.05 o
2 -5 4 134.58 137.15 2.62 o
3 -5 4 0.08 0.28 0.44 o
4 -5 4 59.70 62.12 2.14 o
5 -5 4 5.47 3.75 0.74 o
6 -5 4 57.99 61.76 2.50 o
7 -5 4 52.01 52.45 1.74 o
8 -5 4 39.97 42.54 1.73 o
0 -4 4 50.66 48.58 1.49 o
1 -4 4 133.80 143.54 2.56 o
2 -4 4 105.36 116.21 2.57 o
3 -4 4 197.29 208.29 3.35 o
4 -4 4 109.36 122.95 2.76 o
5 -4 4 100.29 104.48 2.62 o
6 -4 4 8.55 8.14 0.95 o
7 -4 4 27.52 30.39 1.35 o
8 -4 4 3.11 2.67 1.09 o
0 -3 4 354.44 353.20 3.45 o
1 -3 4 196.02 193.42 4.24 o
2 -3 4 213.12 230.80 3.31 o
3 -3 4 45.79 46.68 2.03 o
4 -3 4 104.62 112.36 5.13 o
5 -3 4 22.90 23.39 1.17 o
6 -3 4 101.91 108.22 5.64 o
7 -3 4 36.74 34.80 2.05 o
8 -3 4 53.97 59.35 2.61 o
9 -3 4 8.50 5.49 1.49 o
0 -2 4 7.04 6.95 0.90 o
1 -2 4 158.30 181.60 3.93 o
2 -2 4 143.15 141.80 3.05 o
3 -2 4 259.86 265.29 7.99 o
4 -2 4 287.63 289.98 3.88 o
5 -2 4 142.71 146.95 4.20 o
6 -2 4 0.90 0.86 0.53 o
7 -2 4 39.53 39.33 1.43 o
8 -2 4 3.10 2.96 0.73 o
9 -2 4 19.25 20.15 1.33 o
0 -1 4 112.05 124.94 2.32 o
1 -1 4 1.19 1.86 0.44 o
2 -1 4 236.53 250.91 6.90 o
3 -1 4 222.78 208.10 2.73 o
4 -1 4 279.15 285.31 6.65 o
5 -1 4 58.06 59.67 1.61 o
6 -1 4 81.40 87.17 1.43 o
7 -1 4 4.17 3.06 0.66 o
8 -1 4 24.77 27.21 1.38 o
9 -1 4 6.03 8.52 1.01 o
0 0 4 2.08 2.27 0.40 o
1 0 4 203.18 218.36 3.65 o
2 0 4 0.26 0.62 0.29 o
3 0 4 109.90 124.11 1.66 o
4 0 4 5.14 6.34 0.80 o
5 0 4 109.39 106.10 3.43 o
6 0 4 0.90 0.66 0.43 o
7 0 4 73.91 73.11 1.41 o
8 0 4 0.56 0.59 0.36 o
9 0 4 13.90 12.64 0.99 o
0 1 4 111.64 121.32 3.98 o
1 1 4 1.33 1.36 0.23 o
2 1 4 238.23 248.30 2.93 o
3 1 4 223.94 210.73 2.92 o
4 1 4 281.03 289.26 6.11 o
5 1 4 58.49 57.39 1.48 o
6 1 4 80.95 85.61 3.19 o
7 1 4 4.04 2.78 0.87 o
8 1 4 24.65 26.72 1.04 o
9 1 4 6.09 7.03 0.80 o
0 2 4 7.21 4.53 0.49 o
1 2 4 157.78 172.54 4.85 o
2 2 4 141.46 139.04 3.50 o
3 2 4 253.60 247.08 3.62 o
4 2 4 285.36 288.24 4.35 o
5 2 4 139.53 139.82 4.01 o
6 2 4 0.80 0.79 0.36 o
7 2 4 40.12 39.85 3.26 o
8 2 4 3.23 3.20 0.61 o
9 2 4 19.06 16.70 0.98 o
0 3 4 357.60 340.50 11.57 o
1 3 4 197.47 191.06 3.22 o
2 3 4 216.21 218.35 2.97 o
3 3 4 46.88 44.98 1.15 o
4 3 4 106.25 107.87 2.07 o
5 3 4 23.44 23.67 0.93 o
6 3 4 102.36 105.99 1.58 o
7 3 4 36.91 34.02 1.14 o
8 3 4 54.59 56.58 1.38 o
9 3 4 8.66 5.89 0.85 o
0 4 4 49.51 47.26 1.99 o
1 4 4 131.69 134.29 1.80 o
2 4 4 104.12 107.02 3.00 o
3 4 4 194.96 201.50 3.58 o
4 4 4 108.60 111.45 4.24 o
5 4 4 98.41 99.91 3.32 o
6 4 4 8.22 7.26 1.17 o
7 4 4 26.74 28.09 1.39 o
8 4 4 2.95 2.27 0.71 o
0 5 4 268.06 272.79 5.12 o
1 5 4 206.66 210.03 4.83 o
2 5 4 136.32 131.56 3.99 o
3 5 4 0.06 0.32 0.27 o
4 5 4 59.18 60.78 1.76 o
5 5 4 5.70 6.13 0.85 o
6 5 4 59.32 60.19 1.70 o
7 5 4 52.60 52.88 3.65 o
0 6 4 77.58 75.89 1.66 o
1 6 4 125.46 124.37 5.58 o
2 6 4 8.43 7.80 0.66 o
3 6 4 49.94 48.42 1.29 o
4 6 4 1.99 2.16 0.68 o
5 6 4 34.64 37.79 1.47 o
6 6 4 13.13 12.90 1.49 o
7 6 4 43.82 44.54 2.60 o
0 7 4 44.30 50.70 4.30 o
1 7 4 0.51 0.78 0.36 o
2 7 4 56.33 56.21 1.49 o
3 7 4 0.83 1.19 0.40 o
4 7 4 46.45 46.84 2.19 o
5 7 4 0.82 0.33 0.36 o
6 7 4 16.57 12.54 1.51 o
7 7 4 2.18 1.07 0.75 o
0 8 4 40.80 40.04 2.09 o
1 8 4 75.31 80.04 2.92 o
2 8 4 2.26 2.51 0.67 o
3 8 4 23.24 24.14 1.04 o
4 8 4 0.41 0.47 0.33 o
5 8 4 21.09 22.95 1.81 o
6 8 4 13.64 12.98 1.63 o
0 9 4 41.44 51.39 2.36 o
1 9 4 41.63 46.50 2.68 o
2 9 4 24.74 29.71 1.41 o
3 9 4 3.10 3.88 0.78 o
4 9 4 15.51 15.02 1.19 o
5 9 4 2.43 3.35 0.95 o
0 10 4 14.22 9.17 1.51 o
1 10 4 30.83 30.50 3.09 o
2 10 4 14.82 14.58 1.19 o
3 10 4 33.49 39.11 2.19 o
4 10 4 13.89 16.25 1.53 o
5 -7 5 11.01 6.92 1.22 o
6 -7 5 12.28 11.39 1.52 o
4 -6 5 2.42 3.05 1.07 o
5 -6 5 6.95 9.11 1.62 o
6 -6 5 7.26 8.21 1.63 o
2 -5 5 23.48 23.35 1.51 o
3 -5 5 21.53 20.85 1.52 o
4 -5 5 12.68 12.64 1.61 o
6 -5 5 10.15 9.56 1.41 o
1 -4 5 51.43 53.76 1.81 o
2 -4 5 31.81 33.81 1.66 o
3 -4 5 15.99 15.31 1.56 o
5 -4 5 20.28 20.80 1.71 o
6 -4 5 25.80 26.08 1.38 o
7 -4 5 20.76 20.57 1.37 o
0 -3 5 11.22 11.99 1.11 o
1 -3 5 23.90 26.07 1.38 o
2 -3 5 27.94 33.55 1.59 o
4 -3 5 35.87 34.51 2.04 o
5 -3 5 19.53 17.83 1.68 o
6 -3 5 6.35 5.15 0.92 o
7 -3 5 3.85 2.51 0.63 o
0 -2 5 41.20 43.66 1.69 o
1 -2 5 26.20 30.14 1.07 o
2 -2 5 61.38 65.65 1.77 o
3 -2 5 33.07 39.61 1.76 o
4 -2 5 60.15 57.98 2.26 o
5 -2 5 27.75 28.07 1.40 o
6 -2 5 18.70 18.68 3.80 o
7 -2 5 10.02 11.08 1.69 o
8 -2 5 10.83 8.90 1.43 o
0 -1 5 2.62 2.81 0.72 o
1 -1 5 6.65 5.33 0.57 o
2 -1 5 10.30 11.16 0.84 o
3 -1 5 38.80 38.35 1.33 o
5 -1 5 17.13 13.15 1.12 o
6 -1 5 19.94 19.48 1.20 o
7 -1 5 3.31 2.23 0.91 o
8 -1 5 3.55 3.20 0.74 o
0 0 5 11.04 12.04 1.27 o
1 0 5 12.05 17.22 1.21 o
2 0 5 72.67 73.40 3.07 o
3 0 5 46.35 51.73 1.42 o
4 0 5 100.83 101.79 4.92 o
5 0 5 19.77 18.73 2.71 o
6 0 5 7.69 6.23 0.81 o
7 0 5 2.64 3.19 0.85 o
8 0 5 6.96 6.05 0.91 o
0 1 5 2.83 3.77 0.78 o
1 1 5 6.55 5.50 0.68 o
2 1 5 9.52 10.44 0.66 o
3 1 5 37.44 37.40 1.29 o
4 1 5 25.78 26.18 0.95 o
5 1 5 16.74 14.46 1.04 o
6 1 5 20.05 17.61 1.07 o
7 1 5 3.55 2.39 0.67 o
8 1 5 3.51 3.21 0.77 o
0 2 5 42.17 41.79 1.99 o
1 2 5 27.01 29.62 0.89 o
2 2 5 61.94 65.15 1.99 o
3 2 5 33.70 37.48 1.88 o
4 2 5 60.34 55.29 2.13 o
5 2 5 27.44 27.31 0.98 o
6 2 5 18.65 16.42 1.35 o
7 2 5 10.03 11.58 1.11 o
8 2 5 11.09 10.56 0.99 o
0 3 5 11.57 12.32 1.30 o
1 3 5 23.72 24.67 0.89 o
2 3 5 27.09 31.15 1.25 o
3 3 5 73.03 76.83 1.77 o
4 3 5 34.34 31.41 1.38 o
5 3 5 18.94 16.45 1.19 o
6 3 5 6.04 5.60 1.70 o
7 3 5 4.09 2.57 0.95 o
0 4 5 90.48 98.15 3.59 o
1 4 5 52.86 52.31 1.47 o
2 4 5 32.47 36.44 1.14 o
3 4 5 16.04 14.21 1.41 o
4 4 5 14.87 12.49 1.08 o
5 4 5 20.53 21.42 1.34 o
6 4 5 26.38 25.56 1.65 o
7 4 5 21.33 21.45 1.89 o
0 5 5 31.91 30.39 1.23 o
1 5 5 40.83 38.46 1.10 o
2 5 5 23.63 23.61 1.19 o
3 5 5 21.20 21.34 1.20 o
4 5 5 12.52 13.14 1.15 o
5 5 5 12.28 8.33 0.95 o
6 5 5 9.66 8.36 0.99 o
7 5 5 13.13 12.60 1.62 o
0 6 5 24.35 25.79 1.26 o
1 6 5 22.16 22.74 0.96 o
2 6 5 9.37 7.27 0.92 o
3 6 5 15.82 14.02 1.06 o
4 6 5 2.44 3.32 1.12 o
5 6 5 7.15 7.76 1.50 o
6 6 5 7.73 8.10 1.44 o
0 7 5 44.83 43.16 2.31 o
1 7 5 28.60 25.87 1.03 o
2 7 5 15.69 12.52 1.14 o
3 7 5 5.28 2.61 0.69 o
4 7 5 4.68 3.20 1.73 o
5 7 5 10.99 7.39 1.23 o
6 7 5 12.43 13.70 1.69 o
0 8 5 13.01 15.08 1.64 o
1 8 5 7.08 6.32 0.80 o
2 8 5 3.75 3.97 0.67 o
3 8 5 7.02 7.62 1.07 o
4 8 5 0.25 0.39 0.44 o
0 9 5 21.18 22.08 1.77 o
1 9 5 14.30 13.11 1.02 o
2 9 5 16.36 13.79 1.12 o
3 9 5 8.13 9.08 1.52 o
4 -5 6 10.19 10.63 1.54 o
2 -4 6 33.15 33.83 1.99 o
3 -4 6 7.51 6.37 1.22 o
4 -4 6 7.48 7.02 1.24 o
1 -3 6 15.57 12.08 1.43 o
2 -3 6 18.95 15.52 1.38 o
3 -3 6 59.82 64.66 2.68 o
4 -3 6 33.25 32.03 1.97 o
5 -3 6 29.12 31.45 2.03 o
0 -2 6 27.50 27.00 1.68 o
1 -2 6 17.84 19.17 1.53 o
2 -2 6 38.42 38.88 2.13 o
3 -2 6 24.08 26.71 1.82 o
4 -2 6 38.59 41.17 2.28 o
5 -2 6 15.95 16.48 1.75 o
0 -1 6 6.15 6.30 1.20 o
1 -1 6 4.91 4.76 0.76 o
2 -1 6 7.05 7.46 0.89 o
3 -1 6 19.83 21.01 1.70 o
4 -1 6 11.80 11.30 1.76 o
5 -1 6 8.96 9.54 1.47 o
6 -1 6 2.76 1.70 0.85 o
0 0 6 2.17 1.01 0.71 o
1 0 6 4.02 3.16 1.05 o
2 0 6 31.68 30.79 1.82 o
3 0 6 38.97 39.84 1.48 o
4 0 6 64.44 65.72 2.59 o
5 0 6 37.44 34.11 2.26 o
0 1 6 6.18 6.46 1.26 o
1 1 6 4.49 4.24 0.71 o
2 1 6 6.65 7.73 1.30 o
3 1 6 18.15 19.30 1.26 o
4 1 6 11.05 10.93 1.49 o
5 1 6 7.93 7.41 1.39 o
0 2 6 28.88 25.83 1.85 o
1 2 6 18.31 17.51 1.14 o
2 2 6 39.97 40.46 1.51 o
3 2 6 24.68 24.52 1.86 o
4 2 6 40.16 40.58 3.31 o
5 2 6 16.37 16.70 1.86 o
0 3 6 5.76 3.81 1.23 o
1 3 6 14.07 11.16 1.44 o
2 3 6 18.10 14.98 1.70 o
3 3 6 57.25 60.54 2.58 o
4 3 6 32.30 32.87 2.18 o
5 3 6 27.68 30.52 1.46 o
0 4 6 84.46 92.49 2.97 o
1 4 6 36.47 37.68 1.55 o
2 4 6 34.98 33.77 2.13 o
3 4 6 7.93 5.16 1.27 o
4 4 6 8.29 6.61 0.88 o
5 4 6 1.72 0.80 0.50 o
0 5 6 17.05 20.37 1.95 o
1 5 6 30.33 30.20 1.51 o
2 5 6 16.59 15.78 1.27 o
3 5 6 22.15 19.75 1.25 o
4 5 6 9.91 9.67 1.06 o
0 6 6 27.61 28.55 2.09 o
1 6 6 11.24 11.21 1.68 o
2 6 6 9.65 8.96 1.03 o
3 6 6 1.80 0.63 0.36 o
2 7 6 7.31 7.91 1.27 o
1 -2 7 0.51 0.69 0.78 o
2 -2 7 37.41 36.20 2.18 o
0 -1 7 0.63 0.19 0.45 o
1 -1 7 17.08 17.36 1.82 o
2 -1 7 4.22 2.86 1.16 o
0 0 7 48.77 54.20 2.61 o
1 0 7 4.31 3.93 0.81 o
2 0 7 27.37 23.89 2.04 o
0 1 7 0.63 1.10 0.56 o
1 1 7 17.25 17.15 1.94 o
2 1 7 4.27 1.45 0.64 o
0 2 7 20.62 18.45 2.04 o
1 2 7 0.49 0.58 0.87 o
