#------------------------------------------------------------------------------
#$Date: 2016-03-24 14:09:40 +0200 (Thu, 24 Mar 2016) $
#$Revision: 179654 $
#$URL: svn://www.crystallography.net/cod/cif/4/51/07/4510705.cif $
#------------------------------------------------------------------------------
#
# This file is available in the Crystallography Open Database (COD),
# http://www.crystallography.net/
#
# All data on this site have been placed in the public domain by the
# contributors.
#
data_4510705
loop_
_publ_author_name
'Olejniczak, Anna'
'Anio\/la, Michalina'
'Szafra\'nski, Marek'
'Budzianowski, Armand'
'Katrusiak, Andrzej'
_publ_section_title
;
 New Polar Phases of 1,4-Diazabicyclo[2.2.2]octane Perchlorate, An
 NH+&#x00B7;&#x00B7;&#x00B7;N Hydrogen-Bonded Ferroelectric
;
_journal_issue                   7
_journal_name_full               'Crystal Growth &amp; Design'
_journal_page_first              2872
_journal_paper_doi               10.1021/cg400276c
_journal_volume                  13
_journal_year                    2013
_chemical_formula_moiety         'C6 H13 N2, Cl O4'
_chemical_formula_sum            'C6 H13 Cl N2 O4'
_chemical_formula_weight         212.63
_chemical_name_common
;
dabcoHClO4
;
_chemical_name_systematic
; 
1,4-diazabicyclo[2.2.2]octane perchlorate
;
_space_group_IT_number           31
_symmetry_cell_setting           orthorhombic
_symmetry_space_group_name_Hall  'P -2ab -2'
_symmetry_space_group_name_H-M   'P m 21 n'
_atom_sites_solution_hydrogens   geom
_atom_sites_solution_primary     direct
_atom_sites_solution_secondary   difmap
_audit_creation_method           SHELXL-97
_cell_angle_alpha                90.00
_cell_angle_beta                 90.00
_cell_angle_gamma                90.00
_cell_formula_units_Z            2
_cell_length_a                   8.771(3)
_cell_length_b                   9.673(3)
_cell_length_c                   5.3402(12)
_cell_measurement_pressure       200000
_cell_measurement_reflns_used    2628
_cell_measurement_temperature    296(2)
_cell_measurement_theta_max      28.25
_cell_measurement_theta_min      3.14
_cell_volume                     453.1(2)
_computing_cell_refinement       'CrysAlis (Oxford Diffraction, 2002)'
_computing_data_collection       'CrysAlis (Oxford Diffraction, 2002)'
_computing_data_reduction        'CrysAlis (Oxford Diffraction, 2002)'
_computing_molecular_graphics
;X-Seed (Barbour, 2001) 
and POV-Ray (Persistence of Vision, 2004)
;
_computing_publication_material  'SHELXL-97 (Sheldrick, 1997)'
_computing_structure_refinement  'SHELXL-97 (Sheldrick, 1997)'
_computing_structure_solution    'SHELXS-97 (Sheldrick, 1997)'
_diffrn_ambient_temperature      296(2)
_diffrn_measured_fraction_theta_full 0.462
_diffrn_measured_fraction_theta_max 0.462
_diffrn_measurement_device_type  'Kuma KM4CCD \k geometry'
_diffrn_measurement_method
;HP omega scans - for more details see:
A. Budzianowski, A. Katrusiak in High-Pressure Crystallography
(Eds.: A. Katrusiak, P. F. McMillan),
Dordrecht: Kluwer Acad. Publ., 2004 pp.157-168
;
_diffrn_radiation_monochromator  graphite
_diffrn_radiation_source         'fine-focus sealed tube'
_diffrn_radiation_type           MoK\a
_diffrn_radiation_wavelength     0.71073
_diffrn_reflns_av_R_equivalents  0.0895
_diffrn_reflns_av_sigmaI/netI    0.0748
_diffrn_reflns_limit_h_max       8
_diffrn_reflns_limit_h_min       -8
_diffrn_reflns_limit_k_max       9
_diffrn_reflns_limit_k_min       -9
_diffrn_reflns_limit_l_max       7
_diffrn_reflns_limit_l_min       -7
_diffrn_reflns_number            2628
_diffrn_reflns_theta_full        28.25
_diffrn_reflns_theta_max         28.25
_diffrn_reflns_theta_min         3.14
_exptl_absorpt_coefficient_mu    0.408
_exptl_absorpt_correction_T_max  0.84
_exptl_absorpt_correction_T_min  0.43
_exptl_absorpt_correction_type   integration
_exptl_absorpt_process_details
;
Katrusiak, A. (2003). REDSHABS - Program for correcting
reflections intensities for DAC absorption, gasket shadowing
and sample crystal absorption. Adam Mickiewicz University, Pozna\'n.
Katrusiak, A. (2004). Z. Kristallogr. 219, 461-467
;
_exptl_crystal_colour            colourless
_exptl_crystal_density_diffrn    1.551
_exptl_crystal_density_method    'not measured'
_exptl_crystal_description       plate
_exptl_crystal_F_000             222
_exptl_crystal_size_max          0.36
_exptl_crystal_size_mid          0.30
_exptl_crystal_size_min          0.12
_refine_diff_density_max         0.248
_refine_diff_density_min         -0.344
_refine_diff_density_rms         0.062
_refine_ls_abs_structure_details 'Flack H D (1983), Acta Cryst. A39, 876-881'
_refine_ls_abs_structure_Flack   0.4(3)
_refine_ls_extinction_coef       0.16(4)
_refine_ls_extinction_expression Fc^*^=kFc[1+0.001xFc^2^\l^3^/sin(2\q)]^-1/4^
_refine_ls_extinction_method     SHELXL
_refine_ls_goodness_of_fit_ref   1.058
_refine_ls_hydrogen_treatment    constr
_refine_ls_matrix_type           full
_refine_ls_number_parameters     71
_refine_ls_number_reflns         546
_refine_ls_number_restraints     1
_refine_ls_restrained_S_all      1.057
_refine_ls_R_factor_all          0.0966
_refine_ls_R_factor_gt           0.0727
_refine_ls_shift/su_max          0.000
_refine_ls_shift/su_mean         0.000
_refine_ls_structure_factor_coef Fsqd
_refine_ls_weighting_details
'calc w=1/[\s^2^(Fo^2^)+(0.1136P)^2^+0.0000P] where P=(Fo^2^+2Fc^2^)/3'
_refine_ls_weighting_scheme      calc
_refine_ls_wR_factor_gt          0.1694
_refine_ls_wR_factor_ref         0.1834
_reflns_number_gt                364
_reflns_number_total             546
_reflns_threshold_expression     >2sigma(I)
_cod_data_source_file            cg400276c_si_002.cif
_cod_data_source_block           dabcoHClO4_II_0.2GPa
_cod_original_sg_symbol_H-M      Pm21n
_cod_database_code               4510705
loop_
_symmetry_equiv_pos_as_xyz
'x, y, z'
'-x+1/2, y+1/2, -z'
'x+1/2, y+1/2, -z'
'-x, y, z'
loop_
_atom_site_label
_atom_site_type_symbol
_atom_site_fract_x
_atom_site_fract_y
_atom_site_fract_z
_atom_site_U_iso_or_equiv
_atom_site_adp_type
_atom_site_occupancy
_atom_site_symmetry_multiplicity
_atom_site_calc_flag
_atom_site_refinement_flags
N1 N 0.5000 0.7449(16) 0.7526(18) 0.050(4) Uani 1 2 d S
H1N H 0.5000 0.7475 0.9230 0.060 Uiso 1 2 calc SR
C2 C 0.5000 0.607(3) 0.370(3) 0.094(8) Uani 1 2 d S
H2A H 0.5894 0.5592 0.3071 0.112 Uiso 0.25 1 calc PR
H2B H 0.4106 0.5592 0.3071 0.112 Uiso 0.25 1 calc PR
N2 N 0.5000 0.7488(15) 0.2766(16) 0.046(4) Uani 1 2 d S
H2N H 0.5000 0.7507 0.1062 0.056 Uiso 1 2 calc SR
C3 C 0.3631(15) 0.8200(15) 0.6597(14) 0.060(3) Uani 1 1 d .
H3A H 0.3648 0.9150 0.7177 0.073 Uiso 1 1 calc R
H3B H 0.2711 0.7763 0.7221 0.073 Uiso 1 1 calc R
C4 C 0.3655(17) 0.8159(16) 0.3772(15) 0.071(4) Uani 1 1 d .
H4A H 0.2756 0.7673 0.3184 0.085 Uiso 1 1 calc R
H4B H 0.3607 0.9097 0.3136 0.085 Uiso 1 1 calc R
C1 C 0.5000 0.600(2) 0.672(3) 0.079(7) Uani 1 2 d S
H1B H 0.4100 0.5520 0.7327 0.094 Uiso 0.25 1 calc PR
H1C H 0.5900 0.5520 0.7327 0.094 Uiso 0.25 1 calc PR
O3 O 0.5000 0.3203(16) 1.029(2) 0.088(4) Uani 1 2 d S
O2 O 0.3668(12) 0.1137(12) 1.0174(14) 0.070(3) Uani 1 1 d .
O1 O 0.5000 0.189(2) 0.6661(11) 0.088(3) Uani 1 2 d S
Cl1 Cl 0.5000 0.1842(6) 0.9318(4) 0.0465(11) Uani 1 2 d S
loop_
_atom_site_aniso_label
_atom_site_aniso_U_11
_atom_site_aniso_U_22
_atom_site_aniso_U_33
_atom_site_aniso_U_23
_atom_site_aniso_U_13
_atom_site_aniso_U_12
N1 0.107(18) 0.014(13) 0.029(5) 0.004(5) 0.000 0.000
C2 0.20(3) 0.05(2) 0.032(8) -0.009(10) 0.000 0.000
N2 0.093(16) 0.029(12) 0.017(4) -0.002(5) 0.000 0.000
C3 0.051(13) 0.067(13) 0.063(5) 0.003(6) 0.029(5) 0.006(5)
C4 0.064(15) 0.095(15) 0.054(5) -0.007(6) -0.016(6) 0.010(6)
C1 0.18(3) 0.01(2) 0.044(8) 0.003(8) 0.000 0.000
O3 0.100(17) 0.037(14) 0.126(9) -0.010(8) 0.000 0.000
O2 0.086(9) 0.042(8) 0.082(4) -0.001(4) 0.014(4) -0.020(4)
O1 0.095(11) 0.132(11) 0.038(3) 0.011(9) 0.000 0.000
Cl1 0.062(3) 0.034(3) 0.0438(13) 0.0006(19) 0.000 0.000
loop_
_atom_type_symbol
_atom_type_description
_atom_type_scat_dispersion_real
_atom_type_scat_dispersion_imag
_atom_type_scat_source
C C 0.0033 0.0016 'International Tables Vol C Tables 4.2.6.8 and 6.1.1.4'
H H 0.0000 0.0000 'International Tables Vol C Tables 4.2.6.8 and 6.1.1.4'
N N 0.0061 0.0033 'International Tables Vol C Tables 4.2.6.8 and 6.1.1.4'
I I -0.4742 1.8119 'International Tables Vol C Tables 4.2.6.8 and 6.1.1.4'
loop_
_geom_angle_atom_site_label_1
_geom_angle_atom_site_label_2
_geom_angle_atom_site_label_3
_geom_angle
_geom_angle_site_symmetry_1
_geom_angle_site_symmetry_3
C1 N1 C3 111.6(9) . .
C1 N1 C3 111.6(9) . 4_655
C3 N1 C3 107.6(14) . 4_655
C1 N1 H1N 108.7 . .
C3 N1 H1N 108.7 . .
C3 N1 H1N 108.7 4_655 .
N2 C2 C1 112.5(16) . .
N2 C2 H2A 109.1 . .
C1 C2 H2A 109.1 . .
N2 C2 H2B 109.1 . .
C1 C2 H2B 109.1 . .
H2A C2 H2B 107.8 . .
C4 N2 C4 108.9(14) 4_655 .
C4 N2 C2 107.1(9) 4_655 .
C4 N2 C2 107.1(9) . .
C4 N2 H2N 111.2 4_655 .
C4 N2 H2N 111.2 . .
C2 N2 H2N 111.2 . .
N1 C3 C4 108.0(9) . .
N1 C3 H3A 110.1 . .
C4 C3 H3A 110.1 . .
N1 C3 H3B 110.1 . .
C4 C3 H3B 110.1 . .
H3A C3 H3B 108.4 . .
N2 C4 C3 113.2(9) . .
N2 C4 H4A 108.9 . .
C3 C4 H4A 108.9 . .
N2 C4 H4B 108.9 . .
C3 C4 H4B 108.9 . .
H4A C4 H4B 107.8 . .
N1 C1 C2 104.6(17) . .
N1 C1 H1B 110.8 . .
C2 C1 H1B 110.8 . .
N1 C1 H1C 110.8 . .
C2 C1 H1C 110.8 . .
H1B C1 H1C 108.9 . .
O3 Cl1 O1 109.6(12) . .
O3 Cl1 O2 109.1(6) . .
O1 Cl1 O2 109.6(6) . .
O3 Cl1 O2 109.1(6) . 4_655
O1 Cl1 O2 109.6(6) . 4_655
O2 Cl1 O2 109.8(11) . 4_655
loop_
_geom_bond_atom_site_label_1
_geom_bond_atom_site_label_2
_geom_bond_distance
_geom_bond_site_symmetry_2
N1 C1 1.47(2) .
N1 C3 1.489(15) .
N1 C3 1.489(15) 4_655
N1 H1N 0.9100 .
C2 N2 1.46(2) .
C2 C1 1.611(19) .
C2 H2A 0.9700 .
C2 H2B 0.9700 .
N2 C4 1.450(15) 4_655
N2 C4 1.450(15) .
N2 H2N 0.9100 .
C3 C4 1.509(10) .
C3 H3A 0.9700 .
C3 H3B 0.9700 .
C4 H4A 0.9700 .
C4 H4B 0.9700 .
C1 H1B 0.9700 .
C1 H1C 0.9700 .
O3 Cl1 1.415(15) .
O2 Cl1 1.428(9) .
O1 Cl1 1.419(6) .
Cl1 O2 1.428(9) 4_655
loop_
_refln_index_h
_refln_index_k
_refln_index_l
_refln_F_squared_calc
_refln_F_squared_meas
_refln_F_squared_sigma
_refln_observed_status
7 -9 0 11.58 21.97 9.63 o
6 -8 0 14.44 15.00 6.94 o
8 -8 0 10.51 15.13 8.93 o
5 -7 0 372.88 433.77 19.10 o
7 -7 0 13.31 19.84 7.55 o
4 -6 0 181.39 256.62 29.37 o
6 -6 0 30.82 33.66 7.47 o
3 -5 0 621.45 642.77 21.47 o
5 -5 0 311.46 375.55 10.86 o
2 -4 0 250.94 224.91 8.91 o
4 -4 0 815.53 980.33 30.54 o
6 -4 0 35.17 57.83 9.86 o
1 -3 0 1771.73 2196.10 68.04 o
3 -3 0 404.07 534.78 16.40 o
2 -2 0 2798.92 2827.14 154.31 o
1 1 0 508.84 461.22 6.27 o
2 2 0 2805.02 2587.83 37.70 o
4 2 0 878.46 626.64 26.55 o
1 3 0 1750.18 2313.53 15.77 o
3 3 0 423.77 485.09 5.55 o
5 3 0 35.87 32.05 4.07 o
2 4 0 256.68 244.26 13.11 o
4 4 0 830.49 823.80 21.91 o
6 4 0 35.46 20.44 5.68 o
3 5 0 612.85 667.96 8.48 o
5 5 0 306.69 281.41 7.28 o
7 5 0 68.57 48.48 15.67 o
4 6 0 188.89 174.34 15.49 o
6 6 0 29.52 25.45 6.29 o
5 7 0 370.87 381.21 13.61 o
7 7 0 13.17 15.59 7.02 o
6 8 0 14.71 14.96 6.62 o
8 8 0 11.01 6.53 6.84 o
7 9 0 11.62 6.89 5.85 o
6 -9 1 4.28 5.76 7.93 o
7 -9 1 9.85 9.59 4.71 o
8 -9 1 1.86 2.19 7.73 o
5 -8 1 4.51 1.60 4.09 o
6 -8 1 14.35 21.14 5.34 o
7 -8 1 5.09 8.40 4.36 o
8 -8 1 2.57 15.43 5.68 o
4 -7 1 23.39 29.47 11.87 o
5 -7 1 66.54 54.57 5.18 o
6 -7 1 5.51 6.91 3.51 o
7 -7 1 18.81 18.64 5.38 o
8 -7 1 2.07 12.26 9.52 o
3 -6 1 25.78 26.25 5.22 o
4 -6 1 318.82 384.67 8.63 o
5 -6 1 11.54 11.87 3.02 o
6 -6 1 39.37 49.18 4.75 o
7 -6 1 8.68 8.81 4.04 o
2 -5 1 114.55 121.65 12.08 o
3 -5 1 205.15 177.43 6.04 o
4 -5 1 46.31 52.76 4.30 o
5 -5 1 73.08 83.95 4.94 o
6 -5 1 18.22 24.35 4.78 o
7 -5 1 35.03 54.15 14.13 o
1 -4 1 187.09 191.80 11.85 o
2 -4 1 53.44 47.97 2.82 o
3 -4 1 140.12 143.34 2.73 o
4 -4 1 61.98 66.04 3.02 o
5 -4 1 43.01 61.08 5.51 o
6 -4 1 61.88 110.20 10.82 o
1 -3 1 130.82 121.16 5.54 o
2 -3 1 226.32 259.76 7.10 o
3 -3 1 154.64 187.42 3.23 o
4 -3 1 87.93 99.44 3.44 o
5 -3 1 75.23 123.99 19.83 o
1 -2 1 401.63 405.05 11.27 o
2 -2 1 522.86 547.89 13.71 o
3 -2 1 295.00 327.49 11.43 o
4 -2 1 654.84 751.38 75.83 o
0 -1 1 237.80 255.94 14.17 o
1 -1 1 3738.00 3461.20 64.17 o
2 -1 1 276.74 336.96 12.40 o
3 -1 1 5.33 7.22 3.29 o
0 0 1 430.23 329.95 3.17 o
1 0 1 582.94 498.64 10.04 o
0 1 1 236.64 269.16 9.68 o
1 1 1 3746.39 3344.40 56.66 o
2 1 1 276.91 286.46 5.90 o
3 1 1 3.83 3.86 1.66 o
0 2 1 1311.03 1464.04 20.23 o
1 2 1 402.26 417.12 10.45 o
2 2 1 542.84 518.97 5.53 o
3 2 1 293.51 255.40 5.68 o
4 2 1 675.03 549.42 10.30 o
1 3 1 120.22 142.19 3.58 o
2 3 1 226.62 244.38 3.05 o
3 3 1 158.03 169.61 2.73 o
4 3 1 87.66 77.36 2.54 o
5 3 1 77.40 71.24 3.76 o
1 4 1 188.00 201.46 11.45 o
2 4 1 57.34 58.76 2.33 o
3 4 1 140.40 130.73 2.49 o
4 4 1 67.40 57.03 2.55 o
5 4 1 42.89 35.23 3.76 o
6 4 1 61.26 52.25 6.33 o
2 5 1 114.64 120.58 4.36 o
3 5 1 209.39 184.26 4.04 o
4 5 1 45.99 43.52 3.18 o
5 5 1 73.24 75.21 4.73 o
6 5 1 18.43 12.66 2.93 o
7 5 1 32.80 13.34 7.25 o
3 6 1 26.58 25.74 3.53 o
4 6 1 316.55 373.81 6.80 o
5 6 1 11.76 10.34 3.03 o
6 6 1 38.82 39.88 4.20 o
7 6 1 8.67 7.32 4.20 o
4 7 1 23.29 19.38 4.32 o
5 7 1 66.08 55.74 5.43 o
6 7 1 5.52 6.17 3.40 o
7 7 1 18.39 10.67 4.93 o
8 7 1 2.08 8.04 9.14 o
5 8 1 4.63 5.05 3.46 o
6 8 1 14.10 12.26 4.85 o
7 8 1 5.18 7.20 4.25 o
8 8 1 2.65 7.00 5.53 o
6 9 1 4.20 6.16 6.25 o
7 9 1 10.46 6.48 4.95 o
8 9 1 1.80 1.92 9.20 o
6 -9 2 9.68 13.25 10.16 o
7 -9 2 0.64 6.07 5.73 o
4 -8 2 155.74 130.87 18.07 o
5 -8 2 6.48 14.00 7.21 o
6 -8 2 22.65 24.96 6.94 o
7 -8 2 4.86 6.29 4.75 o
8 -8 2 3.06 7.63 8.64 o
3 -7 2 28.03 24.66 12.12 o
4 -7 2 15.18 14.16 6.84 o
5 -7 2 5.50 7.40 3.90 o
6 -7 2 15.66 20.15 5.26 o
7 -7 2 0.17 6.12 6.07 o
8 -7 2 6.71 14.46 10.16 o
2 -6 2 231.15 166.82 13.41 o
3 -6 2 27.28 32.18 12.99 o
4 -6 2 233.84 225.05 11.33 o
5 -6 2 11.41 10.55 3.64 o
6 -6 2 49.41 55.23 6.51 o
7 -6 2 7.92 9.60 6.43 o
2 -5 2 74.42 65.55 7.05 o
3 -5 2 77.09 94.01 7.43 o
4 -5 2 31.99 35.70 3.07 o
5 -5 2 30.55 41.45 6.23 o
6 -5 2 17.62 30.85 5.92 o
7 -5 2 3.17 8.30 7.30 o
1 -4 2 110.81 97.37 8.94 o
2 -4 2 68.14 81.14 5.90 o
3 -4 2 57.70 60.78 3.27 o
4 -4 2 17.33 14.44 2.29 o
5 -4 2 37.75 52.77 4.44 o
6 -4 2 26.29 38.60 13.60 o
0 -3 2 60.78 60.16 37.39 o
1 -3 2 48.58 42.44 4.10 o
2 -3 2 74.71 72.49 2.24 o
3 -3 2 278.05 347.08 7.02 o
4 -3 2 56.02 59.04 3.99 o
5 -3 2 94.47 127.96 8.84 o
0 -2 2 446.04 371.66 10.64 o
1 -2 2 90.02 75.92 2.41 o
2 -2 2 14.27 15.58 1.63 o
3 -2 2 92.29 95.22 6.18 o
4 -2 2 104.43 120.17 6.20 o
0 -1 2 30.38 23.14 1.32 o
1 -1 2 2042.30 2124.53 53.85 o
2 -1 2 10.74 10.33 1.47 o
3 -1 2 164.78 189.93 6.25 o
4 -1 2 36.33 48.03 6.62 o
0 0 2 3.54 2.55 0.69 o
1 0 2 77.90 70.50 1.97 o
2 0 2 4.50 4.44 1.17 o
0 1 2 28.12 28.90 1.29 o
1 1 2 2048.07 2025.31 47.15 o
2 1 2 8.69 9.66 1.23 o
3 1 2 168.77 147.99 7.49 o
4 1 2 34.98 27.13 5.09 o
0 2 2 432.98 466.72 18.42 o
1 2 2 91.56 80.82 1.97 o
2 2 2 15.13 16.12 1.59 o
3 2 2 91.24 72.92 2.10 o
4 2 2 108.38 79.07 3.23 o
5 2 2 54.78 37.01 5.26 o
0 3 2 59.69 45.42 9.98 o
1 3 2 49.94 53.51 2.25 o
2 3 2 72.68 68.23 1.93 o
3 3 2 286.46 309.27 8.17 o
4 3 2 53.72 49.18 2.63 o
5 3 2 97.37 89.61 6.53 o
1 4 2 113.53 133.42 4.67 o
2 4 2 64.09 83.34 2.91 o
3 4 2 57.63 58.97 2.63 o
4 4 2 16.70 12.57 2.08 o
5 4 2 37.86 27.92 3.59 o
6 4 2 24.82 13.53 6.25 o
2 5 2 74.52 92.08 5.44 o
3 5 2 80.97 90.45 3.97 o
4 5 2 31.33 27.83 2.80 o
5 5 2 32.03 25.89 4.67 o
6 5 2 17.22 6.05 3.51 o
7 5 2 2.79 4.57 6.12 o
2 6 2 227.93 245.19 13.53 o
3 6 2 27.48 29.71 5.33 o
4 6 2 232.22 211.20 7.49 o
5 6 2 11.76 10.33 3.64 o
6 6 2 48.22 36.21 5.39 o
7 6 2 8.18 6.23 5.25 o
3 7 2 29.09 20.54 6.14 o
4 7 2 15.15 18.91 5.13 o
5 7 2 5.57 5.61 4.22 o
6 7 2 15.72 17.40 5.06 o
7 7 2 0.15 8.80 4.96 o
8 7 2 6.73 8.61 11.03 o
4 8 2 155.56 132.40 14.56 o
5 8 2 6.48 13.95 7.23 o
6 8 2 22.60 17.90 6.05 o
7 8 2 4.76 6.52 5.75 o
6 9 2 9.82 12.01 9.96 o
6 -9 3 9.21 8.98 8.04 o
4 -8 3 1.28 9.77 8.05 o
5 -8 3 19.33 16.44 6.87 o
6 -8 3 0.83 4.52 4.55 o
7 -8 3 7.64 8.50 5.79 o
4 -7 3 12.63 5.11 5.11 o
5 -7 3 40.69 34.20 6.40 o
6 -7 3 11.22 18.81 6.09 o
7 -7 3 0.25 7.12 5.06 o
8 -7 3 10.51 18.43 11.57 o
2 -6 3 1.88 3.13 6.63 o
3 -6 3 60.30 73.37 14.76 o
4 -6 3 23.19 12.98 4.53 o
5 -6 3 31.22 45.85 6.53 o
6 -6 3 3.66 5.59 4.78 o
7 -6 3 15.01 23.29 10.92 o
1 -5 3 65.48 56.88 11.78 o
2 -5 3 95.72 93.63 10.06 o
3 -5 3 43.29 39.66 4.79 o
4 -5 3 56.14 67.56 4.97 o
5 -5 3 23.46 28.92 6.02 o
6 -5 3 24.47 43.51 10.79 o
7 -5 3 5.47 7.96 8.00 o
0 -4 3 180.03 142.96 9.54 o
1 -4 3 256.53 202.33 9.21 o
2 -4 3 12.71 12.95 3.60 o
3 -4 3 89.27 109.68 5.05 o
4 -4 3 87.60 93.72 5.66 o
5 -4 3 37.48 47.57 5.64 o
6 -4 3 2.74 7.01 7.83 o
0 -3 3 123.73 104.17 6.00 o
1 -3 3 135.80 116.40 4.03 o
2 -3 3 177.74 193.37 6.50 o
3 -3 3 134.35 146.96 6.90 o
4 -3 3 168.55 205.92 7.43 o
5 -3 3 16.45 22.70 5.02 o
6 -3 3 45.23 68.79 10.89 o
0 -2 3 363.88 337.10 7.90 o
1 -2 3 129.77 130.44 4.40 o
2 -2 3 134.40 146.83 5.77 o
3 -2 3 125.29 144.96 5.70 o
4 -2 3 49.47 51.04 6.13 o
5 -2 3 65.86 101.13 11.32 o
0 -1 3 253.73 285.70 9.21 o
1 -1 3 37.02 31.73 1.75 o
2 -1 3 172.43 201.12 10.98 o
3 -1 3 163.24 178.03 7.20 o
4 -1 3 114.52 149.13 8.05 o
0 0 3 2540.61 2553.68 86.46 o
1 0 3 13.79 10.53 1.07 o
2 0 3 312.84 347.68 22.59 o
3 0 3 175.15 148.48 11.45 o
0 1 3 255.39 300.87 9.06 o
1 1 3 35.78 36.41 1.64 o
2 1 3 170.21 163.72 6.26 o
3 1 3 165.88 117.98 5.44 o
4 1 3 111.38 94.91 5.85 o
0 2 3 365.40 435.29 11.71 o
1 2 3 129.36 138.06 2.94 o
2 2 3 133.92 136.41 3.57 o
3 2 3 126.34 115.36 3.68 o
4 2 3 48.86 33.84 4.81 o
5 2 3 66.15 49.33 7.79 o
0 3 3 124.29 161.61 7.04 o
1 3 3 135.48 142.27 3.50 o
2 3 3 175.14 176.39 3.99 o
3 3 3 136.82 124.45 4.98 o
4 3 3 165.62 156.16 5.56 o
5 3 3 17.14 14.97 4.84 o
6 3 3 44.70 39.68 8.30 o
0 4 3 177.09 234.43 14.88 o
1 4 3 259.22 280.66 7.36 o
2 4 3 12.29 9.43 2.45 o
3 4 3 89.22 97.89 4.47 o
4 4 3 88.38 84.32 4.64 o
5 4 3 36.94 30.57 3.96 o
6 4 3 2.58 5.38 5.60 o
1 5 3 65.65 68.45 7.84 o
2 5 3 95.63 112.64 6.69 o
3 5 3 43.07 41.24 4.11 o
4 5 3 56.31 58.76 4.44 o
5 5 3 23.17 18.58 4.98 o
6 5 3 24.59 22.65 6.20 o
7 5 3 5.54 5.22 6.45 o
2 6 3 2.05 6.61 6.15 o
3 6 3 59.72 60.57 6.58 o
4 6 3 23.95 16.32 4.78 o
5 6 3 30.83 28.27 5.72 o
6 6 3 3.48 6.07 4.28 o
7 6 3 15.27 16.83 11.87 o
3 7 3 131.49 161.35 13.40 o
4 7 3 13.12 11.19 5.96 o
5 7 3 40.53 35.01 6.79 o
6 7 3 11.34 13.28 5.41 o
7 7 3 0.25 2.80 4.54 o
8 7 3 10.48 9.81 14.86 o
4 8 3 1.23 4.21 12.21 o
5 8 3 19.36 13.55 8.35 o
6 8 3 0.88 8.67 5.35 o
7 8 3 7.60 9.61 8.15 o
6 9 3 9.22 2.44 12.02 o
4 -8 4 0.33 21.55 17.07 o
5 -8 4 10.32 13.78 7.33 o
6 -8 4 7.83 2.87 9.45 o
3 -7 4 1.16 3.79 7.06 o
4 -7 4 24.57 36.89 8.72 o
5 -7 4 1.75 5.76 6.02 o
6 -7 4 8.17 6.76 5.48 o
7 -7 4 1.93 2.58 10.56 o
2 -6 4 9.38 6.67 6.99 o
3 -6 4 33.54 30.33 6.30 o
4 -6 4 0.06 5.46 5.37 o
5 -6 4 16.36 17.48 6.34 o
6 -6 4 6.66 9.19 7.53 o
7 -6 4 13.57 21.56 11.43 o
1 -5 4 132.16 112.51 17.34 o
2 -5 4 102.07 85.08 11.67 o
3 -5 4 1.40 6.20 3.39 o
4 -5 4 36.38 33.04 5.47 o
5 -5 4 3.54 5.23 4.10 o
6 -5 4 25.14 39.93 12.99 o
7 -5 4 18.46 14.28 10.28 o
0 -4 4 38.30 22.30 7.25 o
1 -4 4 87.96 89.66 11.17 o
2 -4 4 64.03 74.18 19.55 o
3 -4 4 116.76 122.87 7.39 o
4 -4 4 56.25 64.44 6.29 o
5 -4 4 50.78 56.06 8.11 o
6 -4 4 3.50 7.62 6.10 o
0 -3 4 256.94 234.39 15.80 o
1 -3 4 134.57 119.32 5.34 o
2 -3 4 158.95 152.52 7.07 o
3 -3 4 39.00 31.70 5.39 o
4 -3 4 65.43 95.09 8.59 o
5 -3 4 12.02 15.03 6.07 o
6 -3 4 42.25 67.28 12.65 o
0 -2 4 7.73 9.14 3.81 o
1 -2 4 134.42 122.49 4.42 o
2 -2 4 84.45 85.17 4.20 o
3 -2 4 156.77 190.07 7.70 o
4 -2 4 133.28 167.51 10.06 o
5 -2 4 73.97 103.79 9.95 o
0 -1 4 87.43 98.05 4.93 o
1 -1 4 2.01 2.21 1.19 o
2 -1 4 154.62 188.76 9.53 o
3 -1 4 145.82 146.93 12.54 o
4 -1 4 159.09 241.87 14.61 o
0 0 4 0.93 1.83 1.19 o
1 0 4 184.82 164.56 3.98 o
2 0 4 2.70 3.34 1.87 o
3 0 4 83.83 90.38 6.35 o
0 1 4 86.98 106.96 4.97 o
1 1 4 2.17 2.47 1.46 o
2 1 4 155.47 174.39 7.91 o
3 1 4 146.44 144.62 11.97 o
4 1 4 160.18 149.86 8.24 o
0 2 4 7.79 8.47 2.82 o
1 2 4 134.51 137.03 4.10 o
2 2 4 83.57 84.24 5.47 o
3 2 4 153.48 150.32 8.63 o
4 2 4 132.31 121.34 13.42 o
5 2 4 72.52 50.61 7.72 o
0 3 4 258.91 310.46 13.01 o
1 3 4 135.31 153.27 5.39 o
2 3 4 160.84 169.65 7.54 o
3 3 4 39.64 27.51 5.05 o
4 3 4 66.37 64.97 5.68 o
5 3 4 12.24 7.24 6.22 o
6 3 4 42.27 36.84 10.18 o
0 4 4 37.67 35.26 7.83 o
1 4 4 87.18 110.82 11.03 o
2 4 4 63.33 53.12 10.88 o
3 4 4 115.69 111.02 6.62 o
4 4 4 55.88 53.75 5.83 o
5 4 4 50.21 37.37 7.77 o
6 4 4 3.40 1.73 4.59 o
1 5 4 133.03 145.65 11.83 o
2 5 4 103.36 100.82 11.63 o
3 5 4 1.45 3.31 3.10 o
4 5 4 36.09 23.72 3.78 o
5 5 4 3.65 3.01 3.24 o
6 5 4 25.55 27.27 13.74 o
7 5 4 18.62 11.05 12.56 o
2 6 4 9.19 10.35 7.53 o
3 6 4 34.05 31.24 5.60 o
4 6 4 0.05 7.04 4.62 o
5 6 4 16.52 12.70 5.28 o
6 6 4 6.56 8.92 6.32 o
7 6 4 13.39 15.77 10.07 o
3 7 4 1.15 4.58 5.34 o
4 7 4 24.49 24.96 10.44 o
5 7 4 1.79 9.85 8.21 o
6 7 4 8.33 16.63 7.06 o
7 7 4 1.97 4.37 10.37 o
5 8 4 10.42 13.32 8.78 o
3 -7 5 3.90 8.03 13.42 o
4 -7 5 3.53 8.81 15.22 o
2 -6 5 4.80 6.22 6.33 o
3 -6 5 7.43 7.67 6.88 o
4 -6 5 0.72 12.96 10.68 o
5 -6 5 3.25 8.47 10.65 o
1 -5 5 19.27 9.73 7.39 o
2 -5 5 15.39 11.36 8.27 o
3 -5 5 13.62 16.11 9.42 o
4 -5 5 8.05 7.01 6.39 o
5 -5 5 5.44 5.97 5.73 o
6 -5 5 3.30 7.12 11.79 o
0 -4 5 48.64 43.23 16.46 o
1 -4 5 26.31 23.36 8.63 o
2 -4 5 16.35 16.45 7.87 o
3 -4 5 9.17 8.00 4.46 o
4 -4 5 6.79 7.20 5.12 o
5 -4 5 9.40 14.86 7.09 o
6 -4 5 11.78 20.11 9.51 o
0 -3 5 7.89 8.96 4.74 o
1 -3 5 12.76 11.70 3.82 o
2 -3 5 14.74 12.62 5.74 o
3 -3 5 31.74 31.73 6.59 o
4 -3 5 15.00 6.15 5.35 o
5 -3 5 4.04 6.42 5.54 o
6 -3 5 1.84 34.47 17.27 o
0 -2 5 29.54 21.88 5.27 o
1 -2 5 17.75 19.21 3.39 o
2 -2 5 40.02 41.08 4.14 o
3 -2 5 19.51 33.51 7.85 o
4 -2 5 30.42 34.97 7.91 o
5 -2 5 12.96 18.61 7.01 o
0 -1 5 1.97 8.31 3.32 o
1 -1 5 5.63 4.52 2.30 o
2 -1 5 4.34 4.42 2.68 o
3 -1 5 14.03 13.04 3.42 o
4 -1 5 9.05 9.88 6.35 o
0 0 5 16.62 7.09 3.28 o
1 0 5 11.61 7.88 2.66 o
2 0 5 54.91 50.09 5.62 o
3 0 5 28.04 27.85 4.60 o
0 1 5 2.13 3.85 2.52 o
1 1 5 5.59 5.57 2.44 o
2 1 5 4.01 6.57 2.37 o
3 1 5 13.47 14.96 4.55 o
4 1 5 8.66 5.42 4.94 o
0 2 5 30.01 31.11 5.83 o
1 2 5 17.87 16.88 3.05 o
2 2 5 40.46 39.34 4.21 o
3 2 5 19.70 16.94 6.69 o
4 2 5 30.55 21.97 6.73 o
5 2 5 12.71 8.52 5.96 o
0 3 5 8.21 10.80 4.30 o
1 3 5 12.78 10.05 4.10 o
2 3 5 14.42 19.35 5.16 o
3 3 5 30.95 26.47 5.52 o
4 3 5 14.43 11.03 5.94 o
5 3 5 3.90 7.23 5.16 o
0 4 5 49.60 59.68 12.79 o
1 4 5 26.84 41.94 11.20 o
2 4 5 16.72 6.30 5.87 o
3 4 5 9.12 11.26 4.94 o
4 4 5 6.91 6.30 4.26 o
5 4 5 9.39 11.74 6.86 o
6 4 5 11.96 16.65 8.70 o
1 5 5 19.17 17.50 8.99 o
2 5 5 15.42 8.52 7.77 o
3 5 5 13.44 12.36 9.60 o
4 5 5 7.96 4.44 4.12 o
5 5 5 5.25 8.03 6.26 o
6 5 5 3.12 9.82 9.01 o
2 6 5 4.97 5.27 10.00 o
3 6 5 7.35 4.57 6.59 o
4 6 5 0.79 4.10 7.15 o
5 6 5 3.35 13.35 9.98 o
1 -5 6 20.17 23.47 18.17 o
2 -5 6 6.12 13.67 9.12 o
3 -5 6 10.91 4.30 9.60 o
0 -4 6 39.77 20.76 15.88 o
1 -4 6 18.97 17.05 10.64 o
2 -4 6 17.73 16.10 9.82 o
3 -4 6 5.17 10.52 9.48 o
4 -4 6 3.17 13.02 15.58 o
0 -3 6 4.71 5.71 6.21 o
1 -3 6 12.06 9.94 7.38 o
2 -3 6 8.29 5.24 7.93 o
3 -3 6 21.28 20.82 13.34 o
4 -3 6 11.78 17.33 9.70 o
5 -3 6 9.84 13.48 13.39 o
0 -2 6 19.19 20.56 7.41 o
1 -2 6 7.56 9.64 4.59 o
2 -2 6 19.83 12.07 5.80 o
3 -2 6 8.39 11.79 7.67 o
4 -2 6 15.78 30.15 9.65 o
5 -2 6 5.37 18.45 15.46 o
0 -1 6 6.21 8.26 6.52 o
1 -1 6 1.44 6.83 3.53 o
2 -1 6 5.63 7.86 3.98 o
3 -1 6 6.19 5.14 6.40 o
4 -1 6 4.70 11.12 8.75 o
0 0 6 3.67 6.34 3.85 o
1 0 6 0.70 6.41 4.77 o
2 0 6 15.10 11.80 4.51 o
3 0 6 9.34 15.25 5.91 o
0 1 6 6.15 9.90 6.27 o
1 1 6 1.12 3.32 3.01 o
2 1 6 5.43 8.04 4.66 o
3 1 6 5.52 5.49 5.70 o
4 1 6 4.40 7.31 8.96 o
0 2 6 20.01 20.48 7.91 o
1 2 6 7.82 15.89 5.30 o
2 2 6 20.61 17.74 7.00 o
3 2 6 8.67 12.85 7.94 o
4 2 6 16.46 18.82 8.02 o
5 2 6 5.58 22.75 15.56 o
0 3 6 4.34 7.00 6.93 o
1 3 6 11.04 8.90 7.80 o
2 3 6 7.85 23.53 11.39 o
3 3 6 20.22 19.98 7.61 o
4 3 6 11.40 9.16 6.42 o
5 3 6 9.33 11.78 9.17 o
0 4 6 41.24 67.02 19.40 o
1 4 6 19.47 18.12 9.86 o
2 4 6 18.65 19.92 11.04 o
3 4 6 5.37 11.84 8.65 o
4 4 6 3.52 12.63 8.50 o
1 5 6 19.19 30.64 18.67 o
2 5 6 5.80 8.53 9.52 o
3 5 6 10.37 9.33 9.42 o
0 -2 7 6.79 1.61 13.10 o
1 -2 7 0.87 2.57 11.12 o
1 0 7 4.33 9.78 12.63 o
2 0 7 7.46 9.82 12.38 o
0 2 7 6.67 1.98 6.18 o
