#------------------------------------------------------------------------------
#$Date: 2016-03-24 14:12:59 +0200 (Thu, 24 Mar 2016) $
#$Revision: 179656 $
#$URL: svn://www.crystallography.net/cod/cif/4/51/09/4510939.cif $
#------------------------------------------------------------------------------
#
# This file is available in the Crystallography Open Database (COD),
# http://www.crystallography.net/
#
# All data on this site have been placed in the public domain by the
# contributors.
#
data_4510939
loop_
_publ_author_name
'Dikundwar, Amol G.'
'Sathishkumar, Ranganathan'
'Guru Row, Tayur N.'
'Desiraju, Gautam R.'
_publ_section_title
;
 Structural Variability in the Monofluoroethynylbenzenes Mediated through
 Interactions Involving &#x201C;Organic&#x201D; Fluorine
;
_journal_issue                   9
_journal_name_full               'Crystal Growth &amp; Design'
_journal_page_first              3954
_journal_paper_doi               10.1021/cg2005453
_journal_volume                  11
_journal_year                    2011
_chemical_compound_source        'see text'
_chemical_formula_moiety         'C8 H5 F'
_chemical_formula_sum            'C8 H5 F'
_chemical_formula_weight         120.12
_chemical_name_systematic        ?
_space_group_IT_number           4
_symmetry_cell_setting           monoclinic
_symmetry_Int_Tables_number      4
_symmetry_space_group_name_Hall  'P 2yb'
_symmetry_space_group_name_H-M   'P 1 21 1'
_atom_sites_solution_hydrogens   geom
_atom_sites_solution_primary     direct
_atom_sites_solution_secondary   difmap
_cell_angle_alpha                90
_cell_angle_beta                 98.089(12)
_cell_angle_gamma                90
_cell_formula_units_Z            2
_cell_length_a                   3.868(3)
_cell_length_b                   5.941(4)
_cell_length_c                   13.486(9)
_cell_measurement_reflns_used    2800
_cell_measurement_temperature    90(1)
_cell_measurement_theta_max      24.99
_cell_measurement_theta_min      3.05
_cell_volume                     306.8(4)
_computing_cell_refinement       Apex2
_computing_data_collection       'Bruker kappa Apex2'
_computing_data_reduction        SAINT32
_computing_molecular_graphics
'Ortep-3 (Farrugia, 1997) and CAMERON (Watkin et al., 1993)'
_computing_publication_material  'WinGX (Farrugia, 1999)'
_computing_structure_refinement  'SHELXL97 (Sheldrick, 2008)'
_computing_structure_solution    'SHELXS97  (Sheldrick, 2008)'
_diffrn_ambient_temperature      90(1)
_diffrn_measured_fraction_theta_full 0.983
_diffrn_measured_fraction_theta_max 0.983
_diffrn_measurement_device_type  'Brucker kappa apex2 CCD area detector'
_diffrn_measurement_method       '\f and \w scans'
_diffrn_radiation_monochromator  graphite
_diffrn_radiation_probe          x-ray
_diffrn_radiation_source         'fine-focus sealed tube'
_diffrn_radiation_type           MoK\a
_diffrn_radiation_wavelength     0.71073
_diffrn_reflns_av_R_equivalents  0.0527
_diffrn_reflns_av_sigmaI/netI    0.0820
_diffrn_reflns_limit_h_max       4
_diffrn_reflns_limit_h_min       -4
_diffrn_reflns_limit_k_max       7
_diffrn_reflns_limit_k_min       -7
_diffrn_reflns_limit_l_max       15
_diffrn_reflns_limit_l_min       -15
_diffrn_reflns_number            2800
_diffrn_reflns_reduction_process
;
;
_diffrn_reflns_theta_full        24.99
_diffrn_reflns_theta_max         24.99
_diffrn_reflns_theta_min         3.05
_exptl_absorpt_coefficient_mu    0.096
_exptl_absorpt_correction_T_max  0.9719
_exptl_absorpt_correction_T_min  0.9628
_exptl_absorpt_correction_type   multi-scan
_exptl_absorpt_process_details   'Apex2 (Bruker)'
_exptl_crystal_colour            colourless
_exptl_crystal_density_diffrn    1.300
_exptl_crystal_density_method    'Not Measured'
_exptl_crystal_description       cylindrical
_exptl_crystal_F_000             124
_exptl_crystal_size_max          0.40
_exptl_crystal_size_mid          0.30
_exptl_crystal_size_min          0.30
_refine_diff_density_max         0.269
_refine_diff_density_min         -0.239
_refine_diff_density_rms         0.067
_refine_ls_abs_structure_details 'Flack H D (1983), Acta Cryst. A39, 876-881'
_refine_ls_abs_structure_Flack   0(2)
_refine_ls_extinction_method     none
_refine_ls_goodness_of_fit_ref   1.009
_refine_ls_hydrogen_treatment    constr
_refine_ls_matrix_type           full
_refine_ls_number_parameters     82
_refine_ls_number_reflns         1065
_refine_ls_number_restraints     1
_refine_ls_restrained_S_all      1.009
_refine_ls_R_factor_all          0.1019
_refine_ls_R_factor_gt           0.0673
_refine_ls_shift/su_max          0.000
_refine_ls_shift/su_mean         0.000
_refine_ls_structure_factor_coef Fsqd
_refine_ls_weighting_details
'calc w=1/[\s^2^(Fo^2^)+(0.0908P)^2^+0.0000P] where P=(Fo^2^+2Fc^2^)/3'
_refine_ls_weighting_scheme      calc
_refine_ls_wR_factor_gt          0.1448
_refine_ls_wR_factor_ref         0.1582
_reflns_number_gt                751
_reflns_number_total             1065
_reflns_threshold_expression     >2sigma(I)
_cod_data_source_file            3fpa_formII.cif
_cod_data_source_block           apa3fa
_cod_depositor_comments
;
The following automatic conversions were performed:

'_symmetry_cell_setting' value 'Monoclinic' changed to 'monoclinic'
according to
/usr/data/users/saulius/automatic-downloads/retrospective/ACS/lib/dictionaries/cif_core.dic
dictionary named 'cif_core.dic' version 2.4.2 from 2011-04-26.

Automatic conversion script
Id: cif_fix_values 2281 2013-09-26 08:29:07Z andrius 
;
_cod_original_sg_symbol_H-M      'P 21'
_cod_database_code               4510939
loop_
_symmetry_equiv_pos_site_id
_symmetry_equiv_pos_as_xyz
1 x,y,z
2 -x,1/2+y,-z
loop_
_atom_site_label
_atom_site_type_symbol
_atom_site_fract_x
_atom_site_fract_y
_atom_site_fract_z
_atom_site_U_iso_or_equiv
_atom_site_adp_type
_atom_site_occupancy
_atom_site_symmetry_multiplicity
_atom_site_calc_flag
_atom_site_refinement_flags
F1 F 0.1363(8) -0.0068(4) 0.97909(19) 0.0431(9) Uani 1 1 d .
C2 C -0.0345(12) -0.1117(7) 0.8104(3) 0.0255(10) Uani 1 1 d .
H2 H -0.1198 -0.2480 0.8308 0.031 Uiso 1 1 calc R
C6 C 0.0697(11) 0.1435(7) 0.6811(3) 0.0284(11) Uani 1 1 d .
H6 H 0.0532 0.1798 0.6135 0.034 Uiso 1 1 calc R
C1 C -0.0573(10) -0.0634(6) 0.7091(3) 0.0185(9) Uani 1 1 d .
C3 C 0.1103(12) 0.0370(7) 0.8797(3) 0.0282(11) Uani 1 1 d .
C5 C 0.2199(12) 0.2958(7) 0.7521(3) 0.0280(11) Uani 1 1 d .
H5 H 0.3022 0.4332 0.7322 0.034 Uiso 1 1 calc R
C7 C -0.2203(12) -0.2182(8) 0.6354(3) 0.0264(10) Uani 1 1 d .
C8 C -0.3539(11) -0.3470(7) 0.5740(3) 0.0276(11) Uani 1 1 d .
H8 H -0.4583 -0.4476 0.5260 0.033 Uiso 1 1 calc R
C4 C 0.2476(12) 0.2428(7) 0.8535(4) 0.0325(12) Uani 1 1 d .
H4 H 0.3538 0.3411 0.9022 0.039 Uiso 1 1 calc R
loop_
_atom_site_aniso_label
_atom_site_aniso_U_11
_atom_site_aniso_U_22
_atom_site_aniso_U_33
_atom_site_aniso_U_23
_atom_site_aniso_U_13
_atom_site_aniso_U_12
F1 0.058(2) 0.0385(17) 0.0306(15) 0.0076(13) -0.0007(13) -0.0010(15)
C2 0.023(2) 0.023(2) 0.030(2) 0.003(2) 0.001(2) 0.0080(18)
C6 0.026(3) 0.022(2) 0.038(3) 0.004(2) 0.007(2) 0.004(2)
C1 0.0127(19) 0.015(2) 0.027(2) -0.0002(17) 0.0014(17) 0.0025(16)
C3 0.031(3) 0.027(3) 0.026(3) -0.001(2) 0.005(2) 0.009(2)
C5 0.026(2) 0.022(2) 0.037(3) -0.002(2) 0.011(2) 0.002(2)
C7 0.022(2) 0.026(3) 0.031(2) 0.009(2) 0.0008(19) 0.0041(19)
C8 0.032(3) 0.016(2) 0.036(3) 0.000(2) 0.008(2) 0.001(2)
C4 0.024(3) 0.028(3) 0.046(3) -0.004(2) 0.008(2) 0.002(2)
loop_
_atom_type_symbol
_atom_type_description
_atom_type_scat_dispersion_real
_atom_type_scat_dispersion_imag
_atom_type_scat_source
F F 0.0171 0.0103 'International Tables Vol C Tables 4.2.6.8 and 6.1.1.4'
H H 0.0000 0.0000 'International Tables Vol C Tables 4.2.6.8 and 6.1.1.4'
C C 0.0033 0.0016 'International Tables Vol C Tables 4.2.6.8 and 6.1.1.4'
loop_
_geom_angle_atom_site_label_1
_geom_angle_atom_site_label_2
_geom_angle_atom_site_label_3
_geom_angle
C3 C2 C1 120.6(4)
C3 C2 H2 119.7
C1 C2 H2 119.7
C5 C6 C1 121.1(4)
C5 C6 H6 119.4
C1 C6 H6 119.4
C2 C1 C6 118.3(4)
C2 C1 C7 120.7(4)
C6 C1 C7 121.0(4)
C2 C3 F1 121.7(4)
C2 C3 C4 122.2(4)
F1 C3 C4 116.1(4)
C6 C5 C4 119.9(4)
C6 C5 H5 120.0
C4 C5 H5 120.0
C8 C7 C1 179.6(5)
C7 C8 H8 180.0
C5 C4 C3 117.8(4)
C5 C4 H4 121.1
C3 C4 H4 121.1
loop_
_geom_bond_atom_site_label_1
_geom_bond_atom_site_label_2
_geom_bond_distance
F1 C3 1.355(5)
C2 C3 1.349(6)
C2 C1 1.387(6)
C2 H2 0.9300
C6 C5 1.385(6)
C6 C1 1.395(6)
C6 H6 0.9300
C1 C7 1.434(6)
C3 C4 1.398(6)
C5 C4 1.393(6)
C5 H5 0.9300
C7 C8 1.191(6)
C8 H8 0.9300
C4 H4 0.9300
loop_
_geom_torsion_atom_site_label_1
_geom_torsion_atom_site_label_2
_geom_torsion_atom_site_label_3
_geom_torsion_atom_site_label_4
_geom_torsion
C3 C2 C1 C6 -0.7(6)
C3 C2 C1 C7 -178.1(4)
C5 C6 C1 C2 1.0(6)
C5 C6 C1 C7 178.5(4)
C1 C2 C3 F1 -179.8(4)
C1 C2 C3 C4 -1.0(6)
C1 C6 C5 C4 0.3(6)
C6 C5 C4 C3 -1.9(6)
C2 C3 C4 C5 2.3(6)
F1 C3 C4 C5 -178.8(4)
