#------------------------------------------------------------------------------
#$Date: 2016-03-24 13:58:10 +0200 (Thu, 24 Mar 2016) $
#$Revision: 179647 $
#$URL: svn://www.crystallography.net/cod/cif/4/51/00/4510004.cif $
#------------------------------------------------------------------------------
#
# This file is available in the Crystallography Open Database (COD),
# http://www.crystallography.net/
#
# All data on this site have been placed in the public domain by the
# contributors.
#
data_4510004
loop_
_publ_author_name
'Lapidus, Saul H.'
'Naik, Amit'
'Wixtrom, Alex'
'Massa, Nestor E.'
'Ta Phuoc, Vinh'
'del Campo, Leire'
'Leb\`egue, S\'ebastien'
'\'Angy\'an, J\'anos G.'
'Abdel-Fattah, Tarek'
'Pagola, Silvina'
_publ_section_title
;
 The Black Polymorph of TTF-CA: TTF Polymorphism and Solvent Effects in
 Mechanochemical and Vapor Digestion Syntheses, FT-IR, Crystal Packing,
 and Electronic Structure
;
_journal_issue                   1
_journal_name_full               'Crystal Growth &amp; Design'
_journal_page_first              91
_journal_paper_doi               10.1021/cg401203r
_journal_volume                  14
_journal_year                    2014
_chemical_formula_moiety         'C6 Cl4 O2, C6 H4 S4'
_chemical_formula_structural     'C12 H4 Cl4 O2 S4'
_chemical_formula_sum            'C12 H4 Cl4 O2 S4'
_chemical_formula_weight         450.23
_chemical_name_common            ' tetrathiafulvalene chloranil'
_space_group_IT_number           2
_symmetry_cell_setting           triclinic
_symmetry_Int_Tables_number      2
_symmetry_space_group_name_Hall  '-P 1'
_symmetry_space_group_name_H-M   'P -1'
_cell_angle_alpha                100.481(6)
_cell_angle_beta                 93.069(6)
_cell_angle_gamma                89.954(2)
_cell_formula_units_Z            2
_cell_length_a                   10.7378(6)
_cell_length_b                   10.9492(6)
_cell_length_c                   6.4879(3)
_cell_measurement_temperature    20
_cell_volume                     748.95(7)
_computing_molecular_graphics    'Mercury 2.3'
_computing_publication_material  'PLATON (Spek, 2003)'
_computing_structure_refinement  GSAS
_computing_structure_solution    ' PSSP and TOPAS academic'
_diffrn_ambient_temperature      20
_diffrn_radiation_probe          x-ray
_diffrn_radiation_source         synchrotron
_diffrn_radiation_wavelength     0.699931
_exptl_absorpt_coefficient_mu    1.271
_exptl_absorpt_correction_type   none
_exptl_crystal_density_diffrn    1.997
_exptl_crystal_density_method    'Not Measured'
_exptl_crystal_F_000             448
_pd_calc_method                  'Rietveld Refinement'
_pd_char_colour                  black
_pd_prep_pressure                101
_pd_prep_temperature             298
_pd_proc_ls_prof_wR_factor       0.1295
_refine_ls_goodness_of_fit_all   1.160
_refine_ls_hydrogen_treatment    constr
_refine_ls_matrix_type           full
_refine_ls_number_constraints    3
_refine_ls_number_parameters     88
_refine_ls_number_restraints     90
_refine_ls_R_I_factor            0.0649
_refine_ls_shift/su_max          0.070
_refine_ls_shift/su_mean         0.010
_refine_ls_weighting_scheme      sigma
_cod_data_source_file            cg401203r_si_002.cif
_cod_data_source_block           TTF-CA_black_polymorph_20K
_cod_depositor_comments
;
The following automatic conversions were performed:

'_symmetry_cell_setting' value 'Triclinic' changed to 'triclinic'
according to
/usr/data/users/saulius/automatic-downloads/current/ACS/lib/dictionaries/cif_core.dic
dictionary named 'cif_core.dic' version 2.4.2 from 2011-04-26.

Automatic conversion script
Id: cif_fix_values 2281 2013-09-26 08:29:07Z andrius 
;
_cod_database_code               4510004
loop_
_symmetry_equiv_pos_site_id
_symmetry_equiv_pos_as_xyz
1 x,y,z
2 -x,-y,-z
loop_
_atom_site_label
_atom_site_type_symbol
_atom_site_thermal_displace_type
_atom_site_fract_x
_atom_site_fract_y
_atom_site_fract_z
_atom_site_occupancy
_atom_site_U_iso_or_equiv
S13 S Uiso 0.6809(12) 0.0290(12) 0.221(2) 1.000 0.012(2)
S14 S Uiso 0.4787(12) 0.2353(12) 0.408(2) 1.000 0.012(2)
S15 S Uiso 0.7400(12) -0.0184(12) 0.646(2) 1.000 0.012(2)
S16 S Uiso 0.5395(12) 0.1903(12) 0.829(2) 1.000 0.012(2)
C17 C Uiso 0.4267(15) 0.2985(15) 0.803(3) 1.000 0.012(2)
C18 C Uiso 0.7928(17) -0.0840(15) 0.250(3) 1.000 0.012(2)
C19 C Uiso 0.3992(14) 0.3204(15) 0.608(3) 1.000 0.012(2)
C20 C Uiso 0.6523(10) 0.0654(10) 0.487(2) 1.000 0.012(2)
C21 C Uiso 0.8190(14) -0.1056(15) 0.440(3) 1.000 0.012(2)
C22 C Uiso 0.5660(10) 0.1541(10) 0.566(2) 1.000 0.012(2)
Cl1 Cl Uiso 0.1214(14) 0.7210(12) 0.336(2) 1.000 0.0132(18)
Cl2 Cl Uiso 0.3340(12) 0.5182(15) 0.257(2) 1.000 0.0132(18)
Cl3 Cl Uiso -0.2263(12) 0.3626(15) 0.226(2) 1.000 0.0132(18)
Cl4 Cl Uiso -0.0213(15) 0.1564(10) 0.141(2) 1.000 0.0132(18)
O5 O Uiso -0.133(2) 0.604(2) 0.316(3) 1.000 0.0132(18)
O6 O Uiso 0.241(2) 0.271(2) 0.175(3) 1.000 0.0132(18)
C7 C Uiso 0.1794(14) 0.4825(17) 0.256(3) 1.000 0.0132(18)
C8 C Uiso 0.0846(17) 0.5665(12) 0.289(3) 1.000 0.0132(18)
C9 C Uiso -0.0473(15) 0.5278(15) 0.281(3) 1.000 0.0132(18)
C10 C Uiso 0.1558(15) 0.3472(15) 0.206(3) 1.000 0.0132(18)
C11 C Uiso -0.0702(12) 0.3926(17) 0.232(3) 1.000 0.0132(18)
C12 C Uiso 0.0238(17) 0.3087(12) 0.197(3) 1.000 0.0132(18)
H23 H Uiso 0.83940 -0.13550 0.11630 1.000 0.0148
H24 H Uiso 0.32970 0.38910 0.58070 1.000 0.0148
H25 H Uiso 0.88910 -0.17390 0.46670 1.000 0.0148
H26 H Uiso 0.38060 0.34990 0.93730 1.000 0.0148
loop_
_atom_type_symbol
_atom_type_description
_atom_type_scat_dispersion_real
_atom_type_scat_dispersion_imag
_atom_type_scat_source
S S 0.1246 0.1234 'International Tables Vol C Tables 4.2.6.8 and 6.1.1.4'
O O 0.0106 0.0060 'International Tables Vol C Tables 4.2.6.8 and 6.1.1.4'
Cl Cl 0.1484 0.1585 'International Tables Vol C Tables 4.2.6.8 and 6.1.1.4'
H H 0.0000 0.0000 'International Tables Vol C Tables 4.2.6.8 and 6.1.1.4'
C C 0.0033 0.0016 'International Tables Vol C Tables 4.2.6.8 and 6.1.1.4'
loop_
_geom_angle_atom_site_label_1
_geom_angle_atom_site_label_2
_geom_angle_atom_site_label_3
_geom_angle
_geom_angle_publ_flag
C18 S13 C20 95.1(10) yes
C19 S14 C22 95.4(9) yes
C20 S15 C21 95.1(9) yes
C17 S16 C22 95.4(10) yes
S16 C17 C19 117.0(14) yes
S13 C18 C21 117.6(15) yes
S14 C19 C17 116.8(13) yes
S13 C20 S15 114.7(9) yes
S13 C20 C22 122.7(10) yes
S15 C20 C22 122.6(11) yes
S15 C21 C18 117.5(14) yes
S14 C22 S16 115.3(9) yes
S14 C22 C20 122.4(11) yes
S16 C22 C20 122.3(10) yes
S16 C17 H26 122.00 no
C19 C17 H26 121.00 no
S13 C18 H23 122.00 no
C21 C18 H23 120.00 no
S14 C19 H24 122.00 no
C17 C19 H24 121.00 no
S15 C21 H25 122.00 no
C18 C21 H25 120.00 no
Cl2 C7 C8 125.7(15) yes
Cl2 C7 C10 112.2(13) yes
C8 C7 C10 122.1(14) no
Cl1 C8 C7 118.4(15) yes
Cl1 C8 C9 119.3(13) yes
C7 C8 C9 122.3(14) no
O5 C9 C8 122.2(17) yes
O5 C9 C11 122.4(17) yes
C8 C9 C11 115.4(13) no
O6 C10 C7 122.4(17) yes
O6 C10 C12 122.1(17) yes
C7 C10 C12 115.5(14) no
Cl3 C11 C9 109.9(13) yes
Cl3 C11 C12 127.6(15) yes
C9 C11 C12 122.6(13) no
Cl4 C12 C10 122.2(13) yes
Cl4 C12 C11 115.7(14) yes
C10 C12 C11 122.2(14) no
loop_
_geom_bond_atom_site_label_1
_geom_bond_atom_site_label_2
_geom_bond_distance
_geom_bond_publ_flag
Cl1 C8 1.706(19) yes
Cl2 C7 1.71(2) yes
Cl3 C11 1.705(19) yes
Cl4 C12 1.706(19) yes
S13 C18 1.75(2) yes
S13 C20 1.743(18) yes
S14 C22 1.717(17) yes
S14 C19 1.72(2) yes
S15 C21 1.75(2) yes
S15 C20 1.741(17) yes
S16 C17 1.72(2) yes
S16 C22 1.719(18) yes
O5 C9 1.24(3) yes
O6 C10 1.24(3) yes
C17 C19 1.35(3) no
C18 C21 1.31(3) no
C20 C22 1.390(16) no
C17 H26 1.0900 no
C18 H23 1.0900 no
C19 H24 1.0900 no
C21 H25 1.0900 no
C7 C8 1.37(2) no
C7 C10 1.48(3) no
C8 C9 1.47(2) no
C9 C11 1.47(3) no
C10 C12 1.47(2) no
C11 C12 1.36(2) no
loop_
_geom_contact_atom_site_label_1
_geom_contact_atom_site_label_2
_geom_contact_distance
_geom_contact_site_symmetry_2
_geom_contact_publ_flag
Cl1 S15 3.561(19) 2_666 no
Cl1 C11 3.34(2) 2_566 no
Cl1 C12 3.55(2) 2_566 no
Cl1 C20 3.380(18) 2_666 no
Cl1 C22 3.606(18) 2_666 no
Cl1 Cl3 3.284(19) 2_566 no
Cl1 Cl4 3.700(18) 2_565 no
Cl1 Cl4 3.633(19) 2_566 no
Cl1 Cl2 3.18(2) . no
Cl1 O5 3.01(3) . no
Cl2 C17 3.63(2) 1_554 no
Cl2 O6 2.83(3) . no
Cl2 Cl1 3.18(2) . no
Cl2 S14 3.73(2) . no
Cl2 C19 3.46(2) . no
Cl2 C19 3.36(2) 2_666 no
Cl2 C17 3.34(2) 2_666 no
Cl2 Cl3 3.621(18) 2_566 no
Cl2 S14 3.669(19) 2_666 no
Cl2 S16 3.62(2) 2_666 no
Cl3 Cl1 3.284(19) 2_566 no
Cl3 O5 2.78(3) . no
Cl3 Cl2 3.621(18) 2_566 no
Cl3 Cl4 3.15(2) . no
Cl3 C7 3.49(2) 2_566 no
Cl3 C8 3.38(2) 2_566 no
Cl4 O6 3.07(3) . no
Cl4 C18 3.50(2) 1_455 no
Cl4 S13 3.59(2) 1_455 no
Cl4 Cl1 3.700(18) 2_565 no
Cl4 Cl3 3.15(2) . no
Cl4 S15 3.69(2) 2_656 no
Cl4 C18 3.61(2) 2_655 no
Cl4 C21 3.51(2) 2_656 no
Cl4 Cl1 3.633(19) 2_566 no
Cl4 Cl4 3.619(17) 2_555 no
Cl1 H25 2.8500 1_465 no
Cl2 H26 2.5800 1_554 no
Cl2 H24 2.7400 . no
Cl3 H24 3.0200 2_566 no
Cl4 H25 2.8200 2_656 no
Cl4 H23 2.6200 2_655 no
S13 Cl4 3.59(2) 1_655 no
S13 S16 3.334(19) 2_656 no
S13 S14 3.250(18) . no
S13 S15 3.760(18) 1_554 no
S13 S15 2.934(18) . no
S13 S16 3.621(18) 1_554 no
S14 S13 3.250(18) . no
S14 S16 3.791(18) 1_554 no
S14 Cl2 3.73(2) . no
S14 O6 2.96(2) . no
S14 Cl2 3.669(19) 2_666 no
S14 S15 3.301(19) 2_656 no
S14 S16 2.903(18) . no
S15 S16 3.247(18) . no
S15 Cl1 3.561(19) 2_666 no
S15 S13 3.760(18) 1_556 no
S15 C19 3.69(2) 2_656 no
S15 C22 3.698(17) 2_656 no
S15 O6 3.19(3) 2_656 no
S15 Cl4 3.69(2) 2_656 no
S15 S14 3.301(19) 2_656 no
S16 S13 3.621(18) 1_556 no
S16 S14 2.903(18) . no
S16 S14 3.791(18) 1_556 no
S16 S15 3.247(18) . no
S16 S13 3.334(19) 2_656 no
S16 Cl2 3.62(2) 2_666 no
O5 Cl3 2.78(3) . no
O5 Cl1 3.01(3) . no
O5 C7 3.16(3) 2_566 no
O5 C21 3.18(3) 1_465 no
O5 C19 3.02(3) 2_566 no
O5 C12 3.28(3) 2_566 no
O5 C10 3.07(3) 2_566 no
O6 S14 2.96(2) . no
O6 Cl4 3.07(3) . no
O6 Cl2 2.83(3) . no
O6 C19 3.16(3) . no
O6 C18 3.13(3) 2_655 no
O6 C17 3.27(3) 1_554 no
O6 S15 3.19(3) 2_656 no
O5 H25 2.4600 1_465 no
O5 H24 2.2500 2_566 no
O6 H23 2.3100 2_655 no
O6 H26 2.4700 1_554 no
O6 H24 2.8300 . no
C7 O5 3.16(3) 2_566 no
C7 Cl3 3.49(2) 2_566 no
C7 C9 3.41(3) 2_566 no
C8 C9 3.19(3) 2_566 no
C8 C11 3.49(3) 2_565 no
C8 Cl3 3.38(2) 2_566 no
C8 C11 3.07(3) 2_566 no
C9 C12 3.53(3) 2_566 no
C9 C7 3.41(3) 2_566 no
C9 C8 3.19(3) 2_566 no
C9 C11 3.30(3) 2_566 no
C9 C9 3.13(3) 2_566 no
C10 O5 3.07(3) 2_566 no
C11 C8 3.49(3) 2_565 no
C11 C8 3.07(3) 2_566 no
C11 Cl1 3.34(2) 2_566 no
C11 C9 3.30(3) 2_566 no
C12 Cl1 3.55(2) 2_566 no
C12 C9 3.53(3) 2_566 no
C12 O5 3.28(3) 2_566 no
C17 C18 3.29(2) 2_656 no
C17 Cl2 3.34(2) 2_666 no
C17 O6 3.27(3) 1_556 no
C17 C21 3.50(2) 2_656 no
C17 Cl2 3.63(2) 1_556 no
C18 Cl4 3.61(2) 2_655 no
C18 C19 3.59(2) 2_656 no
C18 Cl4 3.50(2) 1_655 no
C18 C17 3.29(2) 2_656 no
C18 O6 3.13(3) 2_655 no
C19 S15 3.69(2) 2_656 no
C19 C18 3.59(2) 2_656 no
C19 O6 3.16(3) . no
C19 Cl2 3.46(2) . no
C19 O5 3.02(3) 2_566 no
C19 C21 3.28(2) 2_656 no
C19 Cl2 3.36(2) 2_666 no
C20 C20 3.596(15) 2_656 no
C20 C22 3.318(16) 2_656 no
C20 Cl1 3.380(18) 2_666 no
C21 Cl4 3.51(2) 2_656 no
C21 C17 3.50(2) 2_656 no
C21 O5 3.18(3) 1_645 no
C21 C19 3.28(2) 2_656 no
C22 C20 3.318(16) 2_656 no
C22 Cl1 3.606(18) 2_666 no
C22 C22 3.600(16) 2_656 no
C22 S15 3.698(17) 2_656 no
C7 H24 2.9200 . no
C10 H23 2.8300 2_655 no
C10 H24 2.9500 . no
C10 H26 3.0600 1_554 no
C12 H23 2.9700 2_655 no
C12 H25 2.9600 2_656 no
H23 Cl4 2.6200 2_655 no
H23 O6 2.3100 2_655 no
H23 C10 2.8300 2_655 no
H23 C12 2.9700 2_655 no
H24 Cl2 2.7400 . no
H24 O6 2.8300 . no
H24 C7 2.9200 . no
H24 C10 2.9500 . no
H24 O5 2.2500 2_566 no
H24 Cl3 3.0200 2_566 no
H25 Cl4 2.8200 2_656 no
H25 C12 2.9600 2_656 no
H25 O5 2.4600 1_645 no
H25 Cl1 2.8500 1_645 no
H26 C10 3.0600 1_556 no
H26 Cl2 2.5800 1_556 no
H26 O6 2.4700 1_556 no
loop_
_geom_hbond_atom_site_label_D
_geom_hbond_atom_site_label_H
_geom_hbond_atom_site_label_A
_geom_hbond_distance_DH
_geom_hbond_distance_HA
_geom_hbond_distance_DA
_geom_hbond_angle_DHA
_geom_hbond_site_symmetry_A
_geom_hbond_publ_flag
C18 H23 Cl4 1.0900 2.6200 3.61(2) 150.00 2_655 yes
C18 H23 O6 1.0900 2.3100 3.13(3) 130.00 2_655 yes
C19 H24 O5 1.0900 2.2500 3.02(3) 126.00 2_566 yes
C21 H25 O5 1.0900 2.4600 3.18(3) 123.00 1_645 yes
C21 H25 Cl4 1.0900 2.8200 3.51(2) 121.00 2_656 yes
C17 H26 Cl2 1.0900 2.5800 3.63(2) 161.00 1_556 yes
C17 H26 O6 1.0900 2.4700 3.27(3) 129.00 1_556 yes
C19 H24 Cl2 1.0900 2.7400 3.46(2) 124.00 . yes
loop_
_geom_torsion_atom_site_label_1
_geom_torsion_atom_site_label_2
_geom_torsion_atom_site_label_3
_geom_torsion_atom_site_label_4
_geom_torsion
_geom_torsion_publ_flag
C18 S13 C20 C22 -179.5(11) no
C20 S13 C18 C21 0.1(16) no
C18 S13 C20 S15 0.3(12) no
C22 S14 C19 C17 -0.4(16) no
C19 S14 C22 C20 179.7(11) no
C19 S14 C22 S16 -0.4(12) no
C21 S15 C20 C22 179.4(11) no
C21 S15 C20 S13 -0.4(11) no
C20 S15 C21 C18 0.5(16) no
C17 S16 C22 C20 -179.3(11) no
C22 S16 C17 C19 -1.1(16) no
C17 S16 C22 S14 0.9(12) no
S16 C17 C19 S14 1(2) no
S13 C18 C21 S15 0(2) no
S15 C20 C22 S14 -179.3(10) no
S15 C20 C22 S16 0.8(16) no
S13 C20 C22 S14 0.5(16) no
S13 C20 C22 S16 -179.4(10) no
Cl2 C7 C8 Cl1 0(3) no
Cl2 C7 C8 C9 178.7(16) no
C10 C7 C8 Cl1 -177.6(15) no
C10 C7 C8 C9 1(3) no
Cl2 C7 C10 O6 2(3) no
Cl2 C7 C10 C12 -178.6(14) no
C8 C7 C10 O6 180(2) no
C8 C7 C10 C12 -1(3) no
Cl1 C8 C9 O5 -3(3) no
Cl1 C8 C9 C11 177.9(15) no
C7 C8 C9 O5 178(2) no
C7 C8 C9 C11 -1(3) no
O5 C9 C11 Cl3 2(3) no
O5 C9 C11 C12 -179(2) no
C8 C9 C11 Cl3 -179.5(14) no
C8 C9 C11 C12 0(3) no
O6 C10 C12 Cl4 -1(3) no
O6 C10 C12 C11 180(2) no
C7 C10 C12 Cl4 179.9(15) no
C7 C10 C12 C11 0(3) no
Cl3 C11 C12 Cl4 0(3) no
Cl3 C11 C12 C10 179.7(16) no
C9 C11 C12 Cl4 -179.6(15) no
C9 C11 C12 C10 0(3) no
