#------------------------------------------------------------------------------
#$Date: 2016-03-24 14:12:59 +0200 (Thu, 24 Mar 2016) $
#$Revision: 179656 $
#$URL: svn://www.crystallography.net/cod/cif/4/51/09/4510935.cif $
#------------------------------------------------------------------------------
#
# This file is available in the Crystallography Open Database (COD),
# http://www.crystallography.net/
#
# All data on this site have been placed in the public domain by the
# contributors.
#
data_4510935
loop_
_publ_author_name
'Dikundwar, Amol G.'
'Sathishkumar, Ranganathan'
'Guru Row, Tayur N.'
'Desiraju, Gautam R.'
_publ_section_title
;
 Structural Variability in the Monofluoroethynylbenzenes Mediated through
 Interactions Involving &#x201C;Organic&#x201D; Fluorine
;
_journal_issue                   9
_journal_name_full               'Crystal Growth &amp; Design'
_journal_page_first              3954
_journal_paper_doi               10.1021/cg2005453
_journal_volume                  11
_journal_year                    2011
_chemical_compound_source        'see text'
_chemical_formula_moiety         'C8 H5 F'
_chemical_formula_sum            'C8 H5 F'
_chemical_formula_weight         120.12
_chemical_name_systematic        ?
_space_group_IT_number           33
_symmetry_cell_setting           orthorhombic
_symmetry_Int_Tables_number      33
_symmetry_space_group_name_Hall  'P 2c -2n'
_symmetry_space_group_name_H-M   'P n a 21'
_atom_sites_solution_hydrogens   geom
_atom_sites_solution_primary     direct
_atom_sites_solution_secondary   difmap
_cell_angle_alpha                90
_cell_angle_beta                 90
_cell_angle_gamma                90
_cell_formula_units_Z            4
_cell_length_a                   7.584(4)
_cell_length_b                   13.088(7)
_cell_length_c                   6.198(3)
_cell_measurement_reflns_used    2800
_cell_measurement_temperature    90(1)
_cell_measurement_theta_max      26
_cell_measurement_theta_min      3.1
_cell_volume                     615.2(5)
_computing_cell_refinement       Apex2
_computing_data_collection       'Bruker kappa Apex2'
_computing_data_reduction        SAINT32
_computing_molecular_graphics
'Ortep-3 (Farrugia, 1997) and CAMERON (Watkin et al., 1993)'
_computing_publication_material  'WinGX (Farrugia, 1999)'
_computing_structure_refinement  'SHELXL97 (Sheldrick, 2008)'
_computing_structure_solution    'SHELXS97  (Sheldrick, 2008)'
_diffrn_ambient_temperature      90(1)
_diffrn_measured_fraction_theta_full 0.997
_diffrn_measured_fraction_theta_max 0.997
_diffrn_measurement_device_type  'Brucker kappa apex2 CCD area detector'
_diffrn_measurement_method       '\f and \w scans'
_diffrn_radiation_monochromator  graphite
_diffrn_radiation_probe          x-ray
_diffrn_radiation_source         'fine-focus sealed tube'
_diffrn_radiation_type           MoK\a
_diffrn_radiation_wavelength     0.71073
_diffrn_reflns_av_R_equivalents  0.0731
_diffrn_reflns_av_sigmaI/netI    0.0876
_diffrn_reflns_limit_h_max       9
_diffrn_reflns_limit_h_min       -8
_diffrn_reflns_limit_k_max       9
_diffrn_reflns_limit_k_min       -16
_diffrn_reflns_limit_l_max       7
_diffrn_reflns_limit_l_min       -7
_diffrn_reflns_number            2800
_diffrn_reflns_reduction_process
;
;
_diffrn_reflns_theta_full        25.99
_diffrn_reflns_theta_max         25.99
_diffrn_reflns_theta_min         3.10
_exptl_absorpt_coefficient_mu    0.095
_exptl_absorpt_correction_T_max  0.9720
_exptl_absorpt_correction_T_min  0.9629
_exptl_absorpt_correction_type   multi-scan
_exptl_absorpt_process_details   'Apex2 (Bruker)'
_exptl_crystal_colour            colourless
_exptl_crystal_density_diffrn    1.297
_exptl_crystal_density_method    'Not Measured'
_exptl_crystal_description       cylindrical
_exptl_crystal_F_000             248
_exptl_crystal_size_max          0.40
_exptl_crystal_size_mid          0.30
_exptl_crystal_size_min          0.30
_refine_diff_density_max         0.272
_refine_diff_density_min         -0.225
_refine_diff_density_rms         0.069
_refine_ls_abs_structure_details 'Flack H D (1983), Acta Cryst. A39, 876-881'
_refine_ls_abs_structure_Flack   1(2)
_refine_ls_extinction_method     none
_refine_ls_goodness_of_fit_ref   1.024
_refine_ls_hydrogen_treatment    constr
_refine_ls_matrix_type           full
_refine_ls_number_parameters     86
_refine_ls_number_reflns         1188
_refine_ls_number_restraints     1
_refine_ls_restrained_S_all      1.024
_refine_ls_R_factor_all          0.0912
_refine_ls_R_factor_gt           0.0636
_refine_ls_shift/su_max          0.000
_refine_ls_shift/su_mean         0.000
_refine_ls_structure_factor_coef Fsqd
_refine_ls_weighting_details
'calc w=1/[\s^2^(Fo^2^)+(0.0671P)^2^+0.0000P] where P=(Fo^2^+2Fc^2^)/3'
_refine_ls_weighting_scheme      calc
_refine_ls_wR_factor_gt          0.1338
_refine_ls_wR_factor_ref         0.1435
_reflns_number_gt                830
_reflns_number_total             1188
_reflns_threshold_expression     >2sigma(I)
_cod_data_source_file            2fpa_formI.cif
_cod_data_source_block           apa2f
_cod_depositor_comments
;
The following automatic conversions were performed:

'_symmetry_cell_setting' value 'Orthorhombic' changed to
'orthorhombic' according to
/usr/data/users/saulius/automatic-downloads/retrospective/ACS/lib/dictionaries/cif_core.dic
dictionary named 'cif_core.dic' version 2.4.2 from 2011-04-26.

Automatic conversion script
Id: cif_fix_values 2281 2013-09-26 08:29:07Z andrius 
;
_cod_database_code               4510935
loop_
_symmetry_equiv_pos_site_id
_symmetry_equiv_pos_as_xyz
1 x,y,z
2 -x,-y,1/2+z
3 1/2-x,1/2+y,1/2+z
4 1/2+x,1/2-y,z
loop_
_atom_site_label
_atom_site_type_symbol
_atom_site_fract_x
_atom_site_fract_y
_atom_site_fract_z
_atom_site_U_iso_or_equiv
_atom_site_adp_type
_atom_site_occupancy
_atom_site_symmetry_multiplicity
_atom_site_calc_flag
_atom_site_refinement_flags
_atom_site_disorder_assembly
_atom_site_disorder_group
C1A C 0.1041(4) 0.2310(2) 1.1350(6) 0.0371(8) Uani 0.720(3) 1 d P A 1
C2A C 0.1762(4) 0.2079(2) 1.3360(5) 0.0351(8) Uani 0.720(3) 1 d P A 1
C3A C 0.2150(4) 0.2816(2) 1.4864(6) 0.0435(9) Uani 0.720(3) 1 d P A 1
H3A H 0.2605 0.2638 1.6206 0.052 Uiso 0.720(3) 1 calc PR A 1
C4A C 0.1851(5) 0.3826(3) 1.4343(7) 0.0493(11) Uani 0.720(3) 1 d P A 1
H4A H 0.2122 0.4333 1.5339 0.059 Uiso 0.720(3) 1 calc PR A 1
C5A C 0.1154(5) 0.4095(3) 1.2362(7) 0.0484(9) Uani 0.720(3) 1 d P A 1
H5A H 0.0945 0.4778 1.2032 0.058 Uiso 0.720(3) 1 calc PR A 1
C6A C 0.0770(4) 0.3334(3) 1.0870(6) 0.0416(9) Uani 0.720(3) 1 d P A 1
H6A H 0.0323 0.3514 0.9525 0.050 Uiso 0.720(3) 1 calc PR A 1
C7A C 0.0658(4) 0.1512(2) 0.9812(6) 0.0357(8) Uani 0.720(3) 1 d P A 1
C8A C 0.0370(4) 0.0865(3) 0.8565(6) 0.0425(8) Uani 0.720(3) 1 d P A 1
H8A H 0.0141 0.0350 0.7571 0.051 Uiso 0.720(3) 1 calc PR A 1
F1A F 0.2013(3) 0.10974(19) 1.3796(4) 0.0471(8) Uani 0.720(3) 1 d P A 1
C1B C 0.1041(4) 0.2310(2) 1.1350(6) 0.0371(8) Uani 0.280(3) 1 d P A 2
C2B C 0.1762(4) 0.2079(2) 1.3360(5) 0.0351(8) Uani 0.280(3) 1 d P A 2
H2B H 0.1990 0.1399 1.3696 0.042 Uiso 0.280(3) 1 calc PR A 2
C3B C 0.2150(4) 0.2816(2) 1.4864(6) 0.0435(9) Uani 0.280(3) 1 d P A 2
H3B H 0.2605 0.2638 1.6206 0.052 Uiso 0.280(3) 1 calc PR A 2
C4B C 0.1851(5) 0.3826(3) 1.4343(7) 0.0493(11) Uani 0.280(3) 1 d P A 2
H4B H 0.2122 0.4333 1.5339 0.059 Uiso 0.280(3) 1 calc PR A 2
C5B C 0.1154(5) 0.4095(3) 1.2362(7) 0.0484(9) Uani 0.280(3) 1 d P A 2
H5B H 0.0945 0.4778 1.2032 0.058 Uiso 0.280(3) 1 calc PR A 2
C6B C 0.0770(4) 0.3334(3) 1.0870(6) 0.0416(9) Uani 0.280(3) 1 d P A 2
C7B C 0.0658(4) 0.1512(2) 0.9812(6) 0.0357(8) Uani 0.280(3) 1 d P A 2
C8B C 0.0370(4) 0.0865(3) 0.8565(6) 0.0425(8) Uani 0.280(3) 1 d P A 2
H8B H 0.0141 0.0350 0.7571 0.051 Uiso 0.280(3) 1 calc PR A 2
F1B F 0.0098(9) 0.3568(5) 0.9172(11) 0.0471(8) Uani 0.280(3) 1 d P A 2
loop_
_atom_site_aniso_label
_atom_site_aniso_U_11
_atom_site_aniso_U_22
_atom_site_aniso_U_33
_atom_site_aniso_U_23
_atom_site_aniso_U_13
_atom_site_aniso_U_12
C1A 0.0235(16) 0.042(2) 0.045(2) 0.0032(17) 0.0080(14) -0.0023(14)
C2A 0.0312(17) 0.0363(19) 0.038(2) 0.0013(16) 0.0061(15) -0.0024(13)
C3A 0.0339(19) 0.052(2) 0.044(2) -0.0012(19) 0.0115(17) -0.0067(16)
C4A 0.044(2) 0.051(2) 0.053(3) -0.0088(18) 0.0112(18) -0.0152(17)
C5A 0.047(2) 0.041(2) 0.057(2) -0.0004(19) 0.0119(19) 0.0018(16)
C6A 0.038(2) 0.042(2) 0.045(2) -0.0012(18) 0.0073(18) 0.0008(16)
C7A 0.0330(18) 0.0361(17) 0.0381(17) 0.0107(18) 0.0114(16) 0.0043(14)
C8A 0.047(2) 0.0377(17) 0.0428(19) 0.0047(18) 0.0024(17) 0.0017(15)
F1A 0.0544(16) 0.0438(15) 0.0429(18) 0.0064(12) -0.0035(13) 0.0010(11)
C1B 0.0235(16) 0.042(2) 0.045(2) 0.0032(17) 0.0080(14) -0.0023(14)
C2B 0.0312(17) 0.0363(19) 0.038(2) 0.0013(16) 0.0061(15) -0.0024(13)
C3B 0.0339(19) 0.052(2) 0.044(2) -0.0012(19) 0.0115(17) -0.0067(16)
C4B 0.044(2) 0.051(2) 0.053(3) -0.0088(18) 0.0112(18) -0.0152(17)
C5B 0.047(2) 0.041(2) 0.057(2) -0.0004(19) 0.0119(19) 0.0018(16)
C6B 0.038(2) 0.042(2) 0.045(2) -0.0012(18) 0.0073(18) 0.0008(16)
C7B 0.0330(18) 0.0361(17) 0.0381(17) 0.0107(18) 0.0114(16) 0.0043(14)
C8B 0.047(2) 0.0377(17) 0.0428(19) 0.0047(18) 0.0024(17) 0.0017(15)
F1B 0.0544(16) 0.0438(15) 0.0429(18) 0.0064(12) -0.0035(13) 0.0010(11)
loop_
_atom_type_symbol
_atom_type_description
_atom_type_scat_dispersion_real
_atom_type_scat_dispersion_imag
_atom_type_scat_source
F F 0.0171 0.0103 'International Tables Vol C Tables 4.2.6.8 and 6.1.1.4'
H H 0.0000 0.0000 'International Tables Vol C Tables 4.2.6.8 and 6.1.1.4'
C C 0.0033 0.0016 'International Tables Vol C Tables 4.2.6.8 and 6.1.1.4'
loop_
_geom_angle_atom_site_label_1
_geom_angle_atom_site_label_2
_geom_angle_atom_site_label_3
_geom_angle
C6A C1A C2A 117.3(3)
C6A C1A C7A 121.8(3)
C2A C1A C7A 120.8(3)
F1A C2A C3A 120.8(3)
F1A C2A C1A 116.6(3)
C3A C2A C1A 122.6(3)
C2A C3A C4A 118.6(4)
C2A C3A H3A 120.7
C4A C3A H3A 120.7
C3A C4A C5A 121.0(4)
C3A C4A H4A 119.5
C5A C4A H4A 119.5
C4A C5A C6A 119.2(3)
C4A C5A H5A 120.4
C6A C5A H5A 120.4
C1A C6A C5A 121.2(4)
C1A C6A H6A 119.4
C5A C6A H6A 119.4
C8A C7A C1A 179.2(4)
C7A C8A H8A 180.0
loop_
_geom_bond_atom_site_label_1
_geom_bond_atom_site_label_2
_geom_bond_distance
C1A C6A 1.388(4)
C1A C2A 1.394(5)
C1A C7A 1.443(5)
C2A F1A 1.326(4)
C2A C3A 1.373(4)
C3A C4A 1.379(5)
C3A H3A 0.9300
C4A C5A 1.382(6)
C4A H4A 0.9300
C5A C6A 1.391(5)
C5A H5A 0.9300
C6A H6A 0.9300
C7A C8A 1.167(5)
C8A H8A 0.9300
loop_
_geom_torsion_atom_site_label_1
_geom_torsion_atom_site_label_2
_geom_torsion_atom_site_label_3
_geom_torsion_atom_site_label_4
_geom_torsion
C6A C1A C2A F1A 180.0(3)
C7A C1A C2A F1A -2.3(4)
C6A C1A C2A C3A 2.1(5)
C7A C1A C2A C3A 179.8(3)
F1A C2A C3A C4A -179.4(3)
C1A C2A C3A C4A -1.5(5)
C2A C3A C4A C5A 0.8(5)
C3A C4A C5A C6A -0.7(5)
C2A C1A C6A C5A -1.9(4)
C7A C1A C6A C5A -179.6(3)
C4A C5A C6A C1A 1.3(5)
