#------------------------------------------------------------------------------
#$Date: 2016-03-24 14:10:54 +0200 (Thu, 24 Mar 2016) $
#$Revision: 179655 $
#$URL: svn://www.crystallography.net/cod/cif/4/51/08/4510851.cif $
#------------------------------------------------------------------------------
#
# This file is available in the Crystallography Open Database (COD),
# http://www.crystallography.net/
#
# All data on this site have been placed in the public domain by the
# contributors.
#
data_4510851
loop_
_publ_author_name
'Attrell, Robert J.'
'Widdifield, Cory M.'
'Korobkov, Ilia'
'Bryce, David L.'
_publ_section_title
;
 Weak Halogen Bonding in Solid Haloanilinium Halides Probed Directly via
 Chlorine-35, Bromine-81, and Iodine-127 NMR Spectroscopy
;
_journal_issue                   3
_journal_name_full               'Crystal Growth &amp; Design'
_journal_page_first              1641
_journal_paper_doi               10.1021/cg201683p
_journal_volume                  12
_journal_year                    2012
_chemical_formula_sum            'C6 H7 Br Cl N'
_chemical_formula_weight         208.49
_chemical_name_systematic
; 
 ? 
;
_space_group_IT_number           29
_symmetry_cell_setting           orthorhombic
_symmetry_space_group_name_Hall  'P 2c -2ac'
_symmetry_space_group_name_H-M   'P c a 21'
_atom_sites_solution_hydrogens   geom
_atom_sites_solution_primary     direct
_atom_sites_solution_secondary   difmap
_audit_creation_method           SHELXL-97
_cell_angle_alpha                90.00
_cell_angle_beta                 90.00
_cell_angle_gamma                90.00
_cell_formula_units_Z            4
_cell_length_a                   15.606(2)
_cell_length_b                   5.4026(7)
_cell_length_c                   8.7865(11)
_cell_measurement_reflns_used    3447
_cell_measurement_temperature    200(2)
_cell_measurement_theta_max      28.22
_cell_measurement_theta_min      2.61
_cell_volume                     740.82(16)
_computing_cell_refinement       'APEX II, Bruker (2009)'
_computing_data_collection       'APEX II, Bruker (2009)'
_computing_data_reduction        'XPREP, Bruker (2009)'
_computing_molecular_graphics    'SHELXTL, Bruker (2004)'
_computing_publication_material  'SHELXTL, Bruker (2004)'
_computing_structure_refinement  'SHELXL-97 (Sheldrick, 2008)'
_computing_structure_solution    'SHELXS-97 (Sheldrick, 2008)'
_diffrn_ambient_temperature      200(2)
_diffrn_measured_fraction_theta_full 0.985
_diffrn_measured_fraction_theta_max 0.985
_diffrn_measurement_device_type  'Bruker APEX-II CCD'
_diffrn_measurement_method       '\f and \w scans'
_diffrn_radiation_monochromator  graphite
_diffrn_radiation_source         'fine-focus sealed tube'
_diffrn_radiation_type           MoK\a
_diffrn_radiation_wavelength     0.71073
_diffrn_reflns_av_R_equivalents  0.0246
_diffrn_reflns_av_sigmaI/netI    0.0251
_diffrn_reflns_limit_h_max       16
_diffrn_reflns_limit_h_min       -20
_diffrn_reflns_limit_k_max       7
_diffrn_reflns_limit_k_min       -7
_diffrn_reflns_limit_l_max       11
_diffrn_reflns_limit_l_min       -11
_diffrn_reflns_number            5679
_diffrn_reflns_theta_full        28.31
_diffrn_reflns_theta_max         28.31
_diffrn_reflns_theta_min         2.61
_exptl_absorpt_coefficient_mu    5.816
_exptl_absorpt_correction_T_max  0.3747
_exptl_absorpt_correction_T_min  0.2576
_exptl_absorpt_correction_type   multi-scan
_exptl_absorpt_process_details   'SADABS, Bruker (2003)'
_exptl_crystal_colour            white
_exptl_crystal_density_diffrn    1.869
_exptl_crystal_density_method    'not measured'
_exptl_crystal_description       block
_exptl_crystal_F_000             408
_exptl_crystal_size_max          0.32
_exptl_crystal_size_mid          0.25
_exptl_crystal_size_min          0.21
_refine_diff_density_max         0.282
_refine_diff_density_min         -0.719
_refine_diff_density_rms         0.103
_refine_ls_abs_structure_details 'Flack H D (1983), Acta Cryst. A39, 876-881'
_refine_ls_abs_structure_Flack   0.019(14)
_refine_ls_extinction_method     none
_refine_ls_goodness_of_fit_ref   1.084
_refine_ls_hydrogen_treatment    constr
_refine_ls_matrix_type           full
_refine_ls_number_parameters     82
_refine_ls_number_reflns         1695
_refine_ls_number_restraints     1
_refine_ls_restrained_S_all      1.083
_refine_ls_R_factor_all          0.0259
_refine_ls_R_factor_gt           0.0239
_refine_ls_shift/su_max          0.001
_refine_ls_shift/su_mean         0.000
_refine_ls_structure_factor_coef Fsqd
_refine_ls_weighting_details     'calc w=1/[\s^2^(Fo^2^)+(0.0397P)^2^]'
_refine_ls_weighting_scheme      calc
_refine_ls_wR_factor_gt          0.0614
_refine_ls_wR_factor_ref         0.0623
_reflns_number_gt                1589
_reflns_number_total             1695
_reflns_threshold_expression     >2sigma(I)
_cod_data_source_file            db006a.cif
_cod_data_source_block           db006a
_cod_depositor_comments
;
The following automatic conversions were performed:

'_symmetry_cell_setting' value 'Orthorhombic' changed to
'orthorhombic' according to
/usr/data/users/saulius/automatic-downloads/retrospective/ACS/lib/dictionaries/cif_core.dic
dictionary named 'cif_core.dic' version 2.4.2 from 2011-04-26.

Automatic conversion script
Id: cif_fix_values 2281 2013-09-26 08:29:07Z andrius 
;
_cod_original_cell_volume        740.80(17)
_cod_original_sg_symbol_H-M      Pca2(1)
_cod_database_code               4510851
loop_
_symmetry_equiv_pos_as_xyz
'x, y, z'
'-x, -y, z+1/2'
'x+1/2, -y, z'
'-x+1/2, y, z+1/2'
loop_
_atom_site_label
_atom_site_type_symbol
_atom_site_fract_x
_atom_site_fract_y
_atom_site_fract_z
_atom_site_U_iso_or_equiv
_atom_site_adp_type
_atom_site_occupancy
_atom_site_symmetry_multiplicity
_atom_site_calc_flag
_atom_site_refinement_flags
Br1 Br 0.393839(16) 0.25103(4) 0.01832(8) 0.02436(9) Uani 1 1 d .
Cl1 Cl 0.53010(4) 0.80842(11) 0.92009(8) 0.02288(13) Uani 1 1 d .
C6 C 0.28365(18) 0.8305(6) 0.2614(3) 0.0248(6) Uani 1 1 d .
H6A H 0.3031 0.9626 0.3238 0.030 Uiso 1 1 calc R
C5 C 0.1972(2) 0.8008(6) 0.2321(4) 0.0315(7) Uani 1 1 d .
H5A H 0.1568 0.9120 0.2754 0.038 Uiso 1 1 calc R
C1 C 0.34229(18) 0.6632(5) 0.1978(3) 0.0191(5) Uani 1 1 d .
C4 C 0.16938(19) 0.6081(6) 0.1394(3) 0.0309(7) Uani 1 1 d .
H4A H 0.1099 0.5896 0.1190 0.037 Uiso 1 1 calc R
C3 C 0.22677(17) 0.4444(5) 0.0769(3) 0.0275(6) Uani 1 1 d .
H3A H 0.2073 0.3120 0.0148 0.033 Uiso 1 1 calc R
C2 C 0.31408(15) 0.4750(4) 0.1060(3) 0.0211(5) Uani 1 1 d .
N1 N 0.43389(15) 0.6927(4) 0.2305(3) 0.0206(4) Uani 1 1 d .
H1C H 0.4641 0.5734 0.1808 0.031 Uiso 1 1 calc R
H1A H 0.4428 0.6785 0.3325 0.031 Uiso 1 1 calc R
H1B H 0.4516 0.8445 0.1986 0.031 Uiso 1 1 calc R
loop_
_atom_site_aniso_label
_atom_site_aniso_U_11
_atom_site_aniso_U_22
_atom_site_aniso_U_33
_atom_site_aniso_U_23
_atom_site_aniso_U_13
_atom_site_aniso_U_12
Br1 0.03175(15) 0.01654(13) 0.02478(15) -0.00520(8) 0.00359(14) 0.00036(9)
Cl1 0.0271(3) 0.0159(2) 0.0257(3) 0.0030(3) 0.0060(3) 0.0011(2)
C6 0.0304(14) 0.0181(12) 0.0259(14) -0.0055(11) 0.0057(11) -0.0011(12)
C5 0.0277(15) 0.0271(13) 0.0396(18) -0.0056(14) 0.0045(13) 0.0056(12)
C1 0.0224(13) 0.0155(12) 0.0193(13) 0.0028(10) 0.0031(9) -0.0001(10)
C4 0.0201(13) 0.0376(17) 0.0349(17) -0.0066(13) 0.0002(11) -0.0027(13)
C3 0.0292(13) 0.0222(12) 0.0310(14) -0.0051(10) -0.0025(10) -0.0056(11)
C2 0.0262(12) 0.0170(11) 0.0199(11) 0.0019(10) 0.0037(10) 0.0007(9)
N1 0.0244(11) 0.0156(9) 0.0218(11) 0.0000(9) -0.0001(9) -0.0022(9)
loop_
_atom_type_symbol
_atom_type_description
_atom_type_scat_dispersion_real
_atom_type_scat_dispersion_imag
_atom_type_scat_source
C C 0.0033 0.0016 'International Tables Vol C Tables 4.2.6.8 and 6.1.1.4'
H H 0.0000 0.0000 'International Tables Vol C Tables 4.2.6.8 and 6.1.1.4'
N N 0.0061 0.0033 'International Tables Vol C Tables 4.2.6.8 and 6.1.1.4'
Cl Cl 0.1484 0.1585 'International Tables Vol C Tables 4.2.6.8 and 6.1.1.4'
Br Br -0.2901 2.4595 'International Tables Vol C Tables 4.2.6.8 and 6.1.1.4'
loop_
_geom_angle_atom_site_label_1
_geom_angle_atom_site_label_2
_geom_angle_atom_site_label_3
_geom_angle
C5 C6 C1 119.2(3)
C6 C5 C4 120.0(3)
C2 C1 C6 120.2(3)
C2 C1 N1 120.6(2)
C6 C1 N1 119.2(2)
C3 C4 C5 120.8(3)
C4 C3 C2 119.1(2)
C1 C2 C3 120.6(2)
C1 C2 Br1 120.06(19)
C3 C2 Br1 119.34(19)
loop_
_geom_bond_atom_site_label_1
_geom_bond_atom_site_label_2
_geom_bond_distance
Br1 C2 1.899(2)
C6 C5 1.382(4)
C6 C1 1.402(4)
C5 C4 1.391(5)
C1 C2 1.371(4)
C1 N1 1.467(4)
C4 C3 1.373(4)
C3 C2 1.396(3)
loop_
_geom_torsion_atom_site_label_1
_geom_torsion_atom_site_label_2
_geom_torsion_atom_site_label_3
_geom_torsion_atom_site_label_4
_geom_torsion
C1 C6 C5 C4 -0.6(5)
C5 C6 C1 C2 1.0(4)
C5 C6 C1 N1 -179.2(3)
C6 C5 C4 C3 0.5(5)
C5 C4 C3 C2 -0.8(5)
C6 C1 C2 C3 -1.2(4)
N1 C1 C2 C3 178.9(2)
C6 C1 C2 Br1 179.3(2)
N1 C1 C2 Br1 -0.6(3)
C4 C3 C2 C1 1.2(4)
C4 C3 C2 Br1 -179.4(2)
