#------------------------------------------------------------------------------
#$Date: 2016-03-24 14:07:12 +0200 (Thu, 24 Mar 2016) $
#$Revision: 179652 $
#$URL: svn://www.crystallography.net/cod/cif/4/51/05/4510577.cif $
#------------------------------------------------------------------------------
#
# This file is available in the Crystallography Open Database (COD),
# http://www.crystallography.net/
#
# All data on this site have been placed in the public domain by the
# contributors.
#
data_4510577
loop_
_publ_author_name
'Eccles, Kevin S.'
'Morrison, Robin E.'
'Maguire, Anita R.'
'Lawrence, Simon E.'
_publ_section_title
;
 Crystal Landscape of Primary Aromatic Thioamides
;
_journal_issue                   6
_journal_name_full               'Crystal Growth &amp; Design'
_journal_page_first              2753
_journal_paper_doi               10.1021/cg401891f
_journal_volume                  14
_journal_year                    2014
_chemical_formula_moiety         'C7 H6 Cl N S'
_chemical_formula_sum            'C7 H6 Cl N S'
_chemical_formula_weight         171.64
_space_group_crystal_system      triclinic
_space_group_IT_number           2
_space_group_name_Hall           '-P 1'
_space_group_name_H-M_alt        'P -1'
_symmetry_space_group_name_Hall  '-P 1'
_symmetry_space_group_name_H-M   'P -1'
_atom_sites_solution_hydrogens   geom
_atom_sites_solution_primary     direct
_atom_sites_solution_secondary   difmap
_cell_angle_alpha                91.143(5)
_cell_angle_beta                 95.903(5)
_cell_angle_gamma                92.810(5)
_cell_formula_units_Z            2
_cell_length_a                   4.0420(8)
_cell_length_b                   5.6966(12)
_cell_length_c                   16.617(3)
_cell_measurement_reflns_used    2762
_cell_measurement_temperature    294.(2)
_cell_measurement_theta_max      25.7426
_cell_measurement_theta_min      2.4653
_cell_volume                     380.01(13)
_computing_cell_refinement       'SAINT V7.68A (Bruker AXS, 2009)'
_computing_data_collection       'Bruker Instrument Service v2009, 3, 0, 0'
_computing_data_reduction        'SAINT V7.68A (Bruker AXS, 2009)'
_computing_molecular_graphics    'Mercury 3.0 (Macrae et al, 2008)'
_computing_structure_refinement  'SHELXL-97 (Sheldrick, 2008)'
_computing_structure_solution    'SHELXS-97 (Sheldrick, 2008)'
_diffrn_ambient_temperature      294.(2)
_diffrn_detector_area_resol_mean 8.3333
_diffrn_measured_fraction_theta_full 0.975
_diffrn_measured_fraction_theta_max 0.975
_diffrn_measurement_device_type  'Bruker APEX II DUO'
_diffrn_measurement_method       '\f & \w  scans'
_diffrn_radiation_monochromator  graphite
_diffrn_radiation_source         'fine-focus sealed tube'
_diffrn_radiation_type           MoK\a
_diffrn_radiation_wavelength     0.71073
_diffrn_reflns_av_R_equivalents  0.0425
_diffrn_reflns_av_sigmaI/netI    0.0257
_diffrn_reflns_limit_h_max       4
_diffrn_reflns_limit_h_min       -5
_diffrn_reflns_limit_k_max       7
_diffrn_reflns_limit_k_min       -7
_diffrn_reflns_limit_l_max       20
_diffrn_reflns_limit_l_min       -20
_diffrn_reflns_number            11241
_diffrn_reflns_theta_full        26.74
_diffrn_reflns_theta_max         26.74
_diffrn_reflns_theta_min         2.47
_exptl_absorpt_coefficient_mu    0.691
_exptl_absorpt_correction_T_max  0.75
_exptl_absorpt_correction_T_min  0.60
_exptl_absorpt_correction_type   multi-scan
_exptl_absorpt_process_details   'SADABS V2008/1 (Bruker AXS)'
_exptl_crystal_colour            yellow
_exptl_crystal_density_diffrn    1.500
_exptl_crystal_density_method    'not measured'
_exptl_crystal_description       Block
_exptl_crystal_F_000             176
_exptl_crystal_size_max          0.310
_exptl_crystal_size_mid          0.240
_exptl_crystal_size_min          0.220
_refine_diff_density_max         0.340
_refine_diff_density_min         -0.241
_refine_ls_extinction_method     none
_refine_ls_goodness_of_fit_ref   1.182
_refine_ls_hydrogen_treatment    mixed
_refine_ls_matrix_type           full
_refine_ls_number_parameters     99
_refine_ls_number_reflns         1569
_refine_ls_number_restraints     1
_refine_ls_restrained_S_all      1.182
_refine_ls_R_factor_all          0.0529
_refine_ls_R_factor_gt           0.0389
_refine_ls_shift/su_max          0.000
_refine_ls_shift/su_mean         0.000
_refine_ls_structure_factor_coef Fsqd
_refine_ls_weighting_details
'calc w=1/[\s^2^(Fo^2^)+(0.0611P)^2^+0.0000P] where P=(Fo^2^+2Fc^2^)/3'
_refine_ls_weighting_scheme      calc
_refine_ls_wR_factor_gt          0.1032
_refine_ls_wR_factor_ref         0.1112
_reflns_number_gt                1238
_reflns_number_total             1569
_reflns_threshold_expression     >2sigma(I)
_iucr_refine_instructions_details
;
TITL mo_SEL_KE_3Cl_TBA_Acetone_0m in P-1
CELL 0.71073 4.0420 5.6966 16.6168 91.143 95.903 92.810
ZERR 2.00 0.0008 0.0012 0.0034 0.005 0.005 0.005
LATT 1
SFAC C  H  N  S  Cl
UNIT 14  12  2  2  2
L.S. 10
ACTA
BOND $H
Omit 0 0 1
FMAP 2
PLAN 5
CONF
DFIX 0.86 0.02 N9 H9B
HTAB
HTAB N9 S8_$1
HTAB N9 S8_$2
EQIV $1_[ x, y-1, z ]
EQIV $2_[ -x+1, -y+2, -z ]
TEMP 21.400
WGHT    0.061100
FVAR       0.33991
C1    1    0.189021    0.956931    0.213581    11.00000    0.04334    0.03550 =
         0.03270   -0.00201    0.00398    0.00564
C2    1    0.302222    1.119323    0.275273    11.00000    0.05298    0.03586 =
         0.03445   -0.00136    0.00538   -0.00058
AFIX  43
H2    2    0.420752    1.256328    0.263585    11.00000   -1.20000
AFIX   0
C3    1    0.238297    1.076593    0.353537    11.00000    0.05305    0.04271 =
         0.03233   -0.00551    0.00526    0.00336
C4    1    0.059751    0.877497    0.373342    11.00000    0.05814    0.05369 =
         0.03773    0.00412    0.01199    0.00094
AFIX  43
H4    2    0.017948    0.851403    0.426518    11.00000   -1.20000
AFIX   0
C5    1   -0.055422    0.717716    0.311949    11.00000    0.06077    0.04851 =
         0.04931    0.00193    0.01151   -0.00974
AFIX  43
H5    2   -0.177218    0.582473    0.323960    11.00000   -1.20000
AFIX   0
C6    1    0.007538    0.755825    0.233201    11.00000    0.05366    0.04115 =
         0.04327   -0.00508    0.00465   -0.00548
AFIX  43
H6    2   -0.071993    0.646112    0.192748    11.00000   -1.20000
AFIX   0
C7    1    0.276099    0.997605    0.129915    11.00000    0.04810    0.03794 =
         0.03445   -0.00456    0.00287    0.00584
S8    4    0.431953    1.255761    0.100942    11.00000    0.07726    0.04097 =
         0.04153   -0.00291    0.01870   -0.00391
H9A   2    0.167384    0.679398    0.090395    11.00000    0.08195
H9B   2    0.296431    0.825507    0.029964    11.00000    0.07994
N9    3    0.230024    0.817017    0.078863    11.00000    0.11255    0.04339 =
         0.03918   -0.01066    0.02024   -0.00964
CL10  5    0.395014    1.276907    0.430598    11.00000    0.09294    0.06077 =
         0.03551   -0.01230    0.00674   -0.01084
HKLF 4 1 1 0 0 0 1 0 0 0 1
 
REM  mo_SEL_KE_3Cl_TBA_Acetone_0m in P-1
REM R1 =  0.0389 for   1238 Fo > 4sig(Fo)  and  0.0529 for all   1569 data
REM     99 parameters refined using      1 restraints
 
END  
     
WGHT      0.0636      0.0657 
REM Highest difference peak  0.340,  deepest hole -0.241,  1-sigma level  0.055
Q1    1   0.2699  1.1269  0.1063  11.00000  0.05    0.34
Q2    1   0.2283  1.2339  0.0762  11.00000  0.05    0.31
Q3    1   0.1251  1.2786  0.4199  11.00000  0.05    0.29
Q4    1   0.7286  1.2751  0.4333  11.00000  0.05    0.24
Q5    1   0.2778  1.3788  0.3845  11.00000  0.05    0.21

;
_cod_data_source_file            cg401891f_si_002.cif
_cod_data_source_block           Compound_09
_cod_depositor_comments
'Adding full bibliography for 4510565--4510578.cif.'
_cod_database_code               4510577
loop_
_space_group_symop_operation_xyz
'x, y, z'
'-x, -y, -z'
loop_
_atom_site_type_symbol
_atom_site_label
_atom_site_fract_x
_atom_site_fract_y
_atom_site_fract_z
_atom_site_U_iso_or_equiv
_atom_site_adp_type
_atom_site_calc_flag
_atom_site_refinement_flags
_atom_site_occupancy
C C1 0.1890(5) 0.9569(3) 0.21358(11) 0.0371(4) Uani d . 1
C C2 0.3022(5) 1.1193(3) 0.27527(11) 0.0412(5) Uani d . 1
H H2 0.4208 1.2563 0.2636 0.049 Uiso calc R 1
C C3 0.2383(6) 1.0766(4) 0.35354(12) 0.0427(5) Uani d . 1
C C4 0.0598(6) 0.8775(4) 0.37334(14) 0.0494(5) Uani d . 1
H H4 0.0179 0.8514 0.4265 0.059 Uiso calc R 1
C C5 -0.0554(6) 0.7177(4) 0.31195(14) 0.0529(6) Uani d . 1
H H5 -0.1772 0.5825 0.324 0.063 Uiso calc R 1
C C6 0.0075(6) 0.7558(4) 0.23320(13) 0.0464(5) Uani d . 1
H H6 -0.072 0.6461 0.1927 0.056 Uiso calc R 1
C C7 0.2761(5) 0.9976(3) 0.12992(12) 0.0402(5) Uani d . 1
S S8 0.43195(16) 1.25576(9) 0.10094(3) 0.0527(2) Uani d . 1
H H9A 0.167(8) 0.679(6) 0.0904(17) 0.082(10) Uiso d . 1
H H9B 0.296(7) 0.826(5) 0.0300(12) 0.080(9) Uiso d D 1
N N9 0.2300(7) 0.8170(4) 0.07886(13) 0.0648(6) Uani d D 1
Cl Cl10 0.39501(18) 1.27691(11) 0.43060(3) 0.0637(2) Uani d . 1
loop_
_atom_site_aniso_label
_atom_site_aniso_U_11
_atom_site_aniso_U_22
_atom_site_aniso_U_33
_atom_site_aniso_U_12
_atom_site_aniso_U_13
_atom_site_aniso_U_23
C1 0.0433(12) 0.0355(9) 0.0327(10) 0.0056(8) 0.0040(8) -0.0020(8)
C2 0.0530(14) 0.0359(10) 0.0345(10) -0.0006(8) 0.0054(9) -0.0014(8)
C3 0.0530(13) 0.0427(11) 0.0323(10) 0.0034(9) 0.0053(9) -0.0055(8)
C4 0.0581(15) 0.0537(13) 0.0377(11) 0.0009(10) 0.0120(10) 0.0041(9)
C5 0.0608(16) 0.0485(12) 0.0493(13) -0.0097(10) 0.0115(11) 0.0019(10)
C6 0.0537(14) 0.0411(11) 0.0433(12) -0.0055(9) 0.0046(10) -0.0051(9)
C7 0.0481(13) 0.0379(10) 0.0344(10) 0.0058(8) 0.0029(8) -0.0046(8)
S8 0.0773(5) 0.0410(3) 0.0415(3) -0.0039(3) 0.0187(3) -0.0029(2)
N9 0.113(2) 0.0434(11) 0.0392(11) -0.0096(11) 0.0202(11) -0.0107(9)
Cl10 0.0929(5) 0.0608(4) 0.0355(3) -0.0108(3) 0.0067(3) -0.0123(2)
loop_
_atom_type_symbol
_atom_type_description
_atom_type_scat_dispersion_real
_atom_type_scat_dispersion_imag
_atom_type_scat_source
C C 0.0033 0.0016 'International Tables Vol C Tables 4.2.6.8 and 6.1.1.4'
H H 0.0000 0.0000 'International Tables Vol C Tables 4.2.6.8 and 6.1.1.4'
N N 0.0061 0.0033 'International Tables Vol C Tables 4.2.6.8 and 6.1.1.4'
S S 0.1246 0.1234 'International Tables Vol C Tables 4.2.6.8 and 6.1.1.4'
Cl Cl 0.1484 0.1585 'International Tables Vol C Tables 4.2.6.8 and 6.1.1.4'
loop_
_geom_angle_atom_site_label_1
_geom_angle_atom_site_label_2
_geom_angle_atom_site_label_3
_geom_angle
C6 C1 C2 118.42(18)
C6 C1 C7 122.01(18)
C2 C1 C7 119.52(18)
C3 C2 C1 119.85(19)
C3 C2 H2 120.1
C1 C2 H2 120.1
C2 C3 C4 121.97(19)
C2 C3 Cl10 119.20(17)
C4 C3 Cl10 118.81(16)
C3 C4 C5 118.1(2)
C3 C4 H4 120.9
C5 C4 H4 120.9
C6 C5 C4 121.0(2)
C6 C5 H5 119.5
C4 C5 H5 119.5
C5 C6 C1 120.7(2)
C5 C6 H6 119.7
C1 C6 H6 119.7
N9 C7 C1 116.57(18)
N9 C7 S8 120.55(17)
C1 C7 S8 122.87(14)
C7 N9 H9A 125.(2)
C7 N9 H9B 121.(2)
H9A N9 H9B 113.(3)
loop_
_geom_bond_atom_site_label_1
_geom_bond_atom_site_label_2
_geom_bond_distance
C1 C6 1.392(3)
C1 C2 1.393(3)
C1 C7 1.489(3)
C2 C3 1.376(3)
C2 H2 0.93
C3 C4 1.378(3)
C3 Cl10 1.746(2)
C4 C5 1.382(3)
C4 H4 0.93
C5 C6 1.378(3)
C5 H5 0.93
C6 H6 0.93
C7 N9 1.314(3)
C7 S8 1.671(2)
N9 H9A 0.84(3)
N9 H9B 0.883(17)
loop_
_geom_hbond_atom_site_label_D
_geom_hbond_atom_site_label_H
_geom_hbond_atom_site_label_A
_geom_hbond_site_symmetry_A
_geom_hbond_distance_DH
_geom_hbond_distance_HA
_geom_hbond_distance_DA
_geom_hbond_angle_DHA
N9 H9A S8 1_545 0.84(3) 2.69(3) 3.356(2) 137.(3)
N9 H9B S8 2_675 0.883(17) 2.579(19) 3.437(2) 164.(3)
loop_
_geom_torsion_atom_site_label_1
_geom_torsion_atom_site_label_2
_geom_torsion_atom_site_label_3
_geom_torsion_atom_site_label_4
_geom_torsion
C6 C1 C2 C3 1.1(3)
C7 C1 C2 C3 -176.44(18)
C1 C2 C3 C4 -0.9(3)
C1 C2 C3 Cl10 177.70(16)
C2 C3 C4 C5 0.2(4)
Cl10 C3 C4 C5 -178.39(18)
C3 C4 C5 C6 0.3(4)
C4 C5 C6 C1 0.0(4)
C2 C1 C6 C5 -0.6(3)
C7 C1 C6 C5 176.8(2)
C6 C1 C7 N9 -12.5(3)
C2 C1 C7 N9 164.9(2)
C6 C1 C7 S8 168.67(17)
C2 C1 C7 S8 -13.9(3)
