#------------------------------------------------------------------------------
#$Date: 2016-03-24 14:09:40 +0200 (Thu, 24 Mar 2016) $
#$Revision: 179654 $
#$URL: svn://www.crystallography.net/cod/cif/4/51/07/4510703.cif $
#------------------------------------------------------------------------------
#
# This file is available in the Crystallography Open Database (COD),
# http://www.crystallography.net/
#
# All data on this site have been placed in the public domain by the
# contributors.
#
data_4510703
loop_
_publ_author_name
'Olejniczak, Anna'
'Anio\/la, Michalina'
'Szafra\'nski, Marek'
'Budzianowski, Armand'
'Katrusiak, Andrzej'
_publ_section_title
;
 New Polar Phases of 1,4-Diazabicyclo[2.2.2]octane Perchlorate, An
 NH+&#x00B7;&#x00B7;&#x00B7;N Hydrogen-Bonded Ferroelectric
;
_journal_issue                   7
_journal_name_full               'Crystal Growth &amp; Design'
_journal_page_first              2872
_journal_paper_doi               10.1021/cg400276c
_journal_volume                  13
_journal_year                    2013
_chemical_formula_moiety         'C6 H13 N2, Cl O4'
_chemical_formula_sum            'C6 H13 Cl N2 O4'
_chemical_formula_weight         212.63
_chemical_name_common
;
dabcoHClO4
;
_chemical_name_systematic
; 
1,4-diazabicyclo[2.2.2]octane perchlorate
;
_space_group_IT_number           31
_symmetry_cell_setting           orthorhombic
_symmetry_space_group_name_Hall  'P -2ab -2'
_symmetry_space_group_name_H-M   'P m 21 n'
_atom_sites_solution_hydrogens   geom
_atom_sites_solution_primary     direct
_atom_sites_solution_secondary   difmap
_audit_creation_method           SHELXL-97
_cell_angle_alpha                90.00
_cell_angle_beta                 90.00
_cell_angle_gamma                90.00
_cell_formula_units_Z            2
_cell_length_a                   8.8740(9)
_cell_length_b                   9.7570(13)
_cell_length_c                   5.3488(6)
_cell_measurement_reflns_used    2854
_cell_measurement_temperature    295(2)
_cell_measurement_theta_max      29.16
_cell_measurement_theta_min      3.81
_cell_volume                     463.12(9)
_computing_cell_refinement       'CrysAlis (Oxford Diffraction, 2002)'
_computing_data_collection       'CrysAlis (Oxford Diffraction, 2002)'
_computing_data_reduction        'CrysAlis (Oxford Diffraction, 2002)'
_computing_molecular_graphics
;X-Seed (Barbour, 2001) 
and POV-Ray (Persistence of Vision, 2004)
;
_computing_publication_material  'SHELXL-97 (Sheldrick, 1997)'
_computing_structure_refinement  'SHELXL-97 (Sheldrick, 1997)'
_computing_structure_solution    'SHELXS-97 (Sheldrick, 1997)'
_diffrn_ambient_temperature      295(2)
_diffrn_measured_fraction_theta_full 0.943
_diffrn_measured_fraction_theta_max 0.943
_diffrn_radiation_monochromator  graphite
_diffrn_radiation_source         'fine-focus sealed tube'
_diffrn_radiation_type           MoK\a
_diffrn_radiation_wavelength     0.71073
_diffrn_reflns_av_R_equivalents  0.0282
_diffrn_reflns_av_sigmaI/netI    0.0153
_diffrn_reflns_limit_h_max       11
_diffrn_reflns_limit_h_min       -11
_diffrn_reflns_limit_k_max       13
_diffrn_reflns_limit_k_min       -13
_diffrn_reflns_limit_l_max       7
_diffrn_reflns_limit_l_min       -4
_diffrn_reflns_number            2854
_diffrn_reflns_theta_full        29.16
_diffrn_reflns_theta_max         29.16
_diffrn_reflns_theta_min         3.81
_exptl_absorpt_coefficient_mu    0.399
_exptl_absorpt_correction_T_max  0.95
_exptl_absorpt_correction_T_min  0.90
_exptl_absorpt_correction_type   numerical
_exptl_absorpt_process_details
; 
Correction for absorption was made using XEMP (SHELXTL, 
Sheldrick (1990)).
;
_exptl_crystal_colour            colourless
_exptl_crystal_density_diffrn    1.525
_exptl_crystal_density_method    'not measured'
_exptl_crystal_description       plate
_exptl_crystal_F_000             224
_exptl_crystal_size_max          0.40
_exptl_crystal_size_mid          0.20
_exptl_crystal_size_min          0.15
_refine_diff_density_max         0.317
_refine_diff_density_min         -0.226
_refine_diff_density_rms         0.055
_refine_ls_abs_structure_details 'Flack H D (1983), Acta Cryst. A39, 876-881'
_refine_ls_abs_structure_Flack   0.01(11)
_refine_ls_extinction_coef       0.032(7)
_refine_ls_extinction_expression Fc^*^=kFc[1+0.001xFc^2^\l^3^/sin(2\q)]^-1/4^
_refine_ls_extinction_method     SHELXL
_refine_ls_goodness_of_fit_ref   1.065
_refine_ls_hydrogen_treatment    constr
_refine_ls_matrix_type           full
_refine_ls_number_parameters     71
_refine_ls_number_reflns         1213
_refine_ls_number_restraints     1
_refine_ls_restrained_S_all      1.064
_refine_ls_R_factor_all          0.0366
_refine_ls_R_factor_gt           0.0361
_refine_ls_shift/su_max          0.000
_refine_ls_shift/su_mean         0.000
_refine_ls_structure_factor_coef Fsqd
_refine_ls_weighting_details
'calc w=1/[\s^2^(Fo^2^)+(0.0658P)^2^+0.0825P] where P=(Fo^2^+2Fc^2^)/3'
_refine_ls_weighting_scheme      calc
_refine_ls_wR_factor_gt          0.1011
_refine_ls_wR_factor_ref         0.1017
_reflns_number_gt                1193
_reflns_number_total             1213
_reflns_threshold_expression     >2sigma(I)
_cod_data_source_file            cg400276c_si_002.cif
_cod_data_source_block           dabcoHClO4_II_295K
_cod_original_sg_symbol_H-M      Pm21n
_cod_database_code               4510703
loop_
_symmetry_equiv_pos_as_xyz
'x, y, z'
'-x+1/2, y+1/2, -z'
'x+1/2, y+1/2, -z'
'-x, y, z'
loop_
_atom_site_label
_atom_site_type_symbol
_atom_site_fract_x
_atom_site_fract_y
_atom_site_fract_z
_atom_site_U_iso_or_equiv
_atom_site_adp_type
_atom_site_occupancy
_atom_site_symmetry_multiplicity
_atom_site_calc_flag
_atom_site_refinement_flags
Cl Cl 0.0000 -0.01653(9) -0.06709(11) 0.0414(2) Uani 1 2 d S
O1 O 0.0000 -0.0153(9) -0.3325(4) 0.0953(10) Uani 1 2 d S
O2 O 0.1315(2) -0.0872(3) 0.0162(4) 0.0685(6) Uani 1 1 d .
O3 O 0.0000 0.1187(3) 0.0268(8) 0.0896(11) Uani 1 2 d S
N2 N 0.0000 0.5466(3) 0.2810(4) 0.0428(6) Uani 1 2 d S
N1 N 0.0000 0.5459(3) 0.7514(4) 0.0462(6) Uani 1 2 d S
H1 H 0.0000 0.5466 0.9215 0.055 Uiso 1 2 calc SR
C2 C 0.0000 0.4077(4) 0.3725(7) 0.0881(19) Uani 1 2 d S
H2A H 0.0884 0.3605 0.3097 0.106 Uiso 0.50 1 calc PR
H2B H -0.0884 0.3605 0.3097 0.106 Uiso 0.50 1 calc PR
C1 C 0.0000 0.4023(4) 0.6631(6) 0.0642(12) Uani 1 2 d S
H1A H -0.0888 0.3546 0.7234 0.077 Uiso 0.50 1 calc PR
H1B H 0.0888 0.3546 0.7234 0.077 Uiso 0.50 1 calc PR
C4 C 0.1324(3) 0.6195(4) 0.3772(5) 0.0649(7) Uani 1 1 d .
H4A H 0.1304 0.7135 0.3182 0.078 Uiso 1 1 calc R
H4B H 0.2230 0.5766 0.3126 0.078 Uiso 1 1 calc R
C3 C 0.1376(3) 0.6189(3) 0.6592(4) 0.0535(5) Uani 1 1 d .
H3A H 0.2277 0.5723 0.7168 0.064 Uiso 1 1 calc R
H3B H 0.1393 0.7121 0.7222 0.064 Uiso 1 1 calc R
loop_
_atom_site_aniso_label
_atom_site_aniso_U_11
_atom_site_aniso_U_22
_atom_site_aniso_U_33
_atom_site_aniso_U_23
_atom_site_aniso_U_13
_atom_site_aniso_U_12
Cl 0.0424(3) 0.0424(3) 0.0394(3) 0.0011(3) 0.000 0.000
O1 0.0762(16) 0.173(3) 0.0363(11) 0.012(3) 0.000 0.000
O2 0.0584(11) 0.0727(13) 0.0745(10) -0.0029(10) -0.0179(9) 0.0213(9)
O3 0.103(3) 0.0393(14) 0.127(3) -0.0120(16) 0.000 0.000
N2 0.0579(14) 0.0534(14) 0.0172(9) -0.0014(10) 0.000 0.000
N1 0.0762(17) 0.0468(13) 0.0156(9) 0.0000(9) 0.000 0.000
C2 0.193(6) 0.0369(16) 0.0343(15) -0.0089(16) 0.000 0.000
C1 0.120(4) 0.0379(15) 0.0344(16) 0.0053(14) 0.000 0.000
C4 0.0445(12) 0.105(2) 0.0447(11) 0.0026(14) 0.0121(10) -0.0138(12)
C3 0.0506(12) 0.0647(13) 0.0452(11) -0.0056(10) -0.0155(9) 0.0017(10)
loop_
_atom_type_symbol
_atom_type_description
_atom_type_scat_dispersion_real
_atom_type_scat_dispersion_imag
_atom_type_scat_source
C C 0.0033 0.0016 'International Tables Vol C Tables 4.2.6.8 and 6.1.1.4'
H H 0.0000 0.0000 'International Tables Vol C Tables 4.2.6.8 and 6.1.1.4'
N N 0.0061 0.0033 'International Tables Vol C Tables 4.2.6.8 and 6.1.1.4'
I I -0.4742 1.8119 'International Tables Vol C Tables 4.2.6.8 and 6.1.1.4'
loop_
_geom_angle_atom_site_label_1
_geom_angle_atom_site_label_2
_geom_angle_atom_site_label_3
_geom_angle
_geom_angle_site_symmetry_1
_geom_angle_site_symmetry_3
O3 Cl O1 110.3(4) . .
O3 Cl O2 109.91(13) . 4
O1 Cl O2 108.4(2) . 4
O3 Cl O2 109.91(13) . .
O1 Cl O2 108.4(2) . .
O2 Cl O2 109.7(2) 4 .
C2 N2 C4 109.68(19) . .
C2 N2 C4 109.68(19) . 4
C4 N2 C4 106.5(3) . 4
C1 N1 C3 110.24(16) . .
C1 N1 C3 110.24(16) . 4
C3 N1 C3 109.3(3) . 4
C1 N1 H1 109.0 . .
C3 N1 H1 109.0 . .
C3 N1 H1 109.0 4 .
N2 C2 C1 111.8(3) . .
N2 C2 H2A 109.3 . .
C1 C2 H2A 109.3 . .
N2 C2 H2B 109.3 . .
C1 C2 H2B 109.3 . .
H2A C2 H2B 107.9 . .
N1 C1 C2 106.7(3) . .
N1 C1 H1A 110.4 . .
C2 C1 H1A 110.4 . .
N1 C1 H1B 110.4 . .
C2 C1 H1B 110.4 . .
H1A C1 H1B 108.6 . .
N2 C4 C3 111.9(2) . .
N2 C4 H4A 109.2 . .
C3 C4 H4A 109.2 . .
N2 C4 H4B 109.2 . .
C3 C4 H4B 109.2 . .
H4A C4 H4B 107.9 . .
N1 C3 C4 107.82(18) . .
N1 C3 H3A 110.1 . .
C4 C3 H3A 110.1 . .
N1 C3 H3B 110.1 . .
C4 C3 H3B 110.1 . .
H3A C3 H3B 108.5 . .
loop_
_geom_bond_atom_site_label_1
_geom_bond_atom_site_label_2
_geom_bond_distance
_geom_bond_site_symmetry_2
Cl O3 1.412(3) .
Cl O1 1.420(2) .
Cl O2 1.4272(19) 4
Cl O2 1.4272(19) .
N2 C2 1.441(4) .
N2 C4 1.467(3) .
N2 C4 1.467(3) 4
N1 C1 1.479(4) .
N1 C3 1.497(3) .
N1 C3 1.497(3) 4
N1 H1 0.9100 .
C2 C1 1.556(4) .
C2 H2A 0.9700 .
C2 H2B 0.9700 .
C1 H1A 0.9700 .
C1 H1B 0.9700 .
C4 C3 1.509(3) .
C4 H4A 0.9700 .
C4 H4B 0.9700 .
C3 H3A 0.9700 .
C3 H3B 0.9700 .
loop_
_geom_torsion_atom_site_label_1
_geom_torsion_atom_site_label_2
_geom_torsion_atom_site_label_3
_geom_torsion_atom_site_label_4
_geom_torsion
_geom_torsion_site_symmetry_1
C4 N2 C2 C1 58.30(15) .
C4 N2 C2 C1 -58.30(15) 4
C3 N1 C1 C2 -60.36(14) .
C3 N1 C1 C2 60.36(14) 4
N2 C2 C1 N1 0.000(1) .
C2 N2 C4 C3 -57.5(3) .
C4 N2 C4 C3 61.1(4) 4
C1 N1 C3 C4 61.8(2) .
C3 N1 C3 C4 -59.5(3) 4
N2 C4 C3 N1 -1.7(3) .
loop_
_refln_index_h
_refln_index_k
_refln_index_l
_refln_F_squared_calc
_refln_F_squared_meas
_refln_F_squared_sigma
_refln_observed_status
1 -13 0 2.31 0.86 0.49 o
0 -12 0 23.70 38.59 1.16 o
1 -11 0 16.80 17.05 0.59 o
3 -11 0 2.34 2.16 0.53 o
5 -11 0 2.42 2.42 0.64 o
0 -10 0 43.22 34.98 0.99 o
2 -10 0 19.20 20.46 0.60 o
6 -10 0 3.90 3.00 0.62 o
1 -9 0 115.13 130.97 1.18 o
5 -9 0 69.61 75.76 1.61 o
7 -9 0 16.10 18.31 1.04 o
9 -9 0 13.29 14.22 0.87 o
0 -8 0 100.14 121.59 1.56 o
2 -8 0 47.19 44.94 0.73 o
4 -8 0 16.18 23.18 1.00 o
6 -8 0 17.80 19.98 0.97 o
8 -8 0 14.46 16.26 1.04 o
1 -7 0 382.49 408.58 1.72 o
3 -7 0 964.89 1067.21 3.11 o
5 -7 0 384.32 443.71 2.99 o
7 -7 0 20.74 21.13 0.93 o
0 -6 0 162.82 186.51 1.44 o
2 -6 0 48.67 33.06 0.51 o
4 -6 0 134.68 150.56 1.02 o
6 -6 0 39.44 43.15 0.74 o
8 -6 0 17.87 20.61 0.84 o
1 -5 0 919.12 940.61 1.92 o
3 -5 0 579.13 596.17 2.57 o
5 -5 0 343.12 337.00 1.47 o
7 -5 0 99.62 109.00 2.44 o
9 -5 0 23.64 22.08 0.95 o
0 -4 0 568.37 596.35 1.92 o
2 -4 0 205.35 184.28 3.72 o
4 -4 0 864.27 950.56 2.73 o
6 -4 0 61.50 57.14 2.10 o
8 -4 0 9.00 9.65 0.67 o
10 -4 0 30.84 35.24 1.17 o
1 -3 0 1675.75 1487.17 4.64 o
3 -3 0 420.56 506.83 6.34 o
5 -3 0 38.71 50.62 0.82 o
7 -3 0 294.64 316.79 2.25 o
9 -3 0 41.63 45.64 1.20 o
11 -3 0 3.75 3.16 0.53 o
2 -2 0 2864.39 2917.21 19.26 o
4 -2 0 1037.79 976.17 2.65 o
6 -2 0 504.58 551.43 2.61 o
8 -2 0 173.72 190.55 2.09 o
10 -2 0 31.51 29.24 1.10 o
3 -1 0 1342.40 1373.61 2.64 o
5 -1 0 184.09 179.57 1.38 o
7 -1 0 138.59 124.62 1.61 o
9 -1 0 33.38 38.21 1.27 o
11 -1 0 21.09 22.97 1.12 o
2 0 0 7156.57 7935.15 11.12 o
4 0 0 234.49 239.53 1.38 o
6 0 0 1087.78 1144.01 3.64 o
8 0 0 594.03 646.01 3.56 o
10 0 0 19.00 16.28 0.84 o
3 1 0 1378.53 1369.65 2.47 o
5 1 0 192.49 187.64 1.47 o
7 1 0 132.43 118.00 1.61 o
9 1 0 32.42 36.54 1.14 o
11 1 0 21.87 22.97 1.05 o
0 2 0 7100.36 6259.79 9.26 o
2 2 0 2867.08 2931.90 4.72 o
4 2 0 1041.93 983.87 2.84 o
6 2 0 511.28 577.17 1.72 o
8 2 0 176.93 200.51 2.14 o
10 2 0 31.20 28.46 1.10 o
1 3 0 1658.79 1496.60 2.58 o
3 3 0 441.06 520.03 10.91 o
5 3 0 42.21 53.23 0.96 o
7 3 0 289.08 309.94 2.43 o
9 3 0 40.51 40.13 1.10 o
11 3 0 4.31 4.26 0.70 o
0 4 0 547.68 541.94 1.84 o
2 4 0 208.05 192.26 8.93 o
4 4 0 879.55 942.19 23.47 o
6 4 0 61.64 61.11 1.17 o
8 4 0 7.75 6.93 0.67 o
10 4 0 31.45 35.65 1.32 o
1 5 0 908.86 893.48 2.64 o
5 5 0 338.31 332.05 2.18 o
7 5 0 98.90 101.83 2.37 o
9 5 0 23.27 20.85 0.93 o
0 6 0 151.95 158.07 1.40 o
2 6 0 51.25 32.92 0.71 o
4 6 0 141.04 147.35 1.43 o
6 6 0 37.81 38.91 0.97 o
8 6 0 16.77 19.89 0.93 o
10 6 0 12.93 16.14 0.97 o
1 7 0 379.60 369.99 2.70 o
3 7 0 960.74 1033.10 3.62 o
5 7 0 382.33 407.91 1.81 o
7 7 0 20.46 21.01 0.87 o
9 7 0 18.20 16.12 1.01 o
0 8 0 105.70 112.75 1.47 o
2 8 0 50.47 42.75 0.72 o
4 8 0 15.76 18.76 0.79 o
6 8 0 18.28 18.93 0.86 o
8 8 0 15.15 13.60 0.92 o
1 9 0 114.83 121.10 1.66 o
3 9 0 177.47 174.05 1.63 o
5 9 0 69.88 70.70 1.33 o
0 10 0 46.32 36.45 1.12 o
2 10 0 20.02 20.79 0.88 o
4 10 0 27.64 30.27 0.74 o
1 11 0 17.19 17.75 0.63 o
3 11 0 2.18 4.58 1.57 o
5 11 0 2.44 2.73 0.61 o
0 12 0 23.13 35.65 1.22 o
2 12 0 23.53 25.69 0.74 o
4 12 0 14.84 10.58 0.90 o
1 13 0 2.57 1.11 0.34 o
0 -13 1 1.96 2.32 0.60 o
0 -12 1 5.43 5.55 0.67 o
1 -12 1 2.93 2.13 0.29 o
2 -12 1 3.77 4.14 0.45 o
3 -12 1 3.97 4.02 0.56 o
0 -11 1 6.69 7.08 0.46 o
1 -11 1 13.94 14.34 0.40 o
2 -11 1 2.75 2.73 0.39 o
3 -11 1 17.21 19.03 0.71 o
4 -11 1 0.94 0.76 0.40 o
5 -11 1 6.36 6.47 0.53 o
0 -10 1 18.73 22.00 1.16 o
1 -10 1 6.14 7.04 0.33 o
2 -10 1 16.71 16.32 0.48 o
3 -10 1 8.69 9.28 0.52 o
4 -10 1 9.50 7.35 0.59 o
5 -10 1 3.89 4.19 0.50 o
6 -10 1 6.10 6.50 0.56 o
7 -10 1 1.50 1.79 0.37 o
0 -9 1 11.14 11.91 0.50 o
1 -9 1 76.36 86.66 0.85 o
2 -9 1 7.48 8.31 0.30 o
3 -9 1 46.44 52.39 0.97 o
4 -9 1 6.22 7.14 0.64 o
5 -9 1 23.01 26.04 0.76 o
6 -9 1 4.37 4.42 0.48 o
7 -9 1 12.10 13.20 0.70 o
8 -9 1 1.79 1.26 0.39 o
0 -8 1 39.58 41.32 1.01 o
1 -8 1 20.59 20.75 0.42 o
2 -8 1 155.35 167.84 2.40 o
3 -8 1 3.88 3.73 0.30 o
4 -8 1 180.06 194.41 2.08 o
5 -8 1 3.80 3.47 0.50 o
6 -8 1 21.94 20.88 0.67 o
7 -8 1 6.07 5.83 0.47 o
8 -8 1 4.58 5.09 0.53 o
9 -8 1 2.14 2.14 0.58 o
0 -7 1 20.78 24.89 0.76 o
1 -7 1 68.83 66.48 1.10 o
2 -7 1 28.85 28.38 0.70 o
3 -7 1 96.38 94.95 4.53 o
4 -7 1 23.00 22.10 1.15 o
5 -7 1 60.13 57.38 3.13 o
6 -7 1 5.58 4.77 0.38 o
7 -7 1 24.64 27.00 0.66 o
8 -7 1 3.90 3.36 0.33 o
0 -6 1 77.87 75.99 1.03 o
1 -6 1 52.10 46.97 3.23 o
2 -6 1 261.38 267.00 13.18 o
3 -6 1 22.30 22.76 0.73 o
4 -6 1 350.74 344.20 2.35 o
5 -6 1 13.06 12.30 0.86 o
6 -6 1 56.04 54.58 1.26 o
7 -6 1 10.30 9.62 0.44 o
8 -6 1 6.03 5.28 0.43 o
9 -6 1 2.96 2.55 0.49 o
10 -6 1 11.21 9.03 0.83 o
0 -5 1 180.53 183.92 1.33 o
1 -5 1 345.77 365.00 13.60 o
2 -5 1 108.24 100.09 3.63 o
3 -5 1 175.94 176.31 3.31 o
4 -5 1 44.27 45.79 0.70 o
5 -5 1 86.45 87.79 2.16 o
6 -5 1 21.98 21.98 0.83 o
7 -5 1 47.05 43.84 1.48 o
8 -5 1 11.94 10.67 0.66 o
9 -5 1 8.74 10.66 0.71 o
10 -5 1 3.53 3.62 0.59 o
0 -4 1 408.02 419.48 1.75 o
1 -4 1 145.82 141.97 2.82 o
2 -4 1 57.68 55.23 0.64 o
3 -4 1 132.15 133.86 2.19 o
4 -4 1 65.78 69.77 1.13 o
5 -4 1 49.48 48.08 0.52 o
6 -4 1 86.11 89.97 0.70 o
7 -4 1 13.71 13.70 0.39 o
8 -4 1 43.14 46.78 0.78 o
9 -4 1 8.06 8.05 0.47 o
10 -4 1 3.06 3.06 0.56 o
11 -4 1 2.46 1.62 0.34 o
0 -3 1 406.05 394.95 1.48 o
1 -3 1 117.78 115.46 0.86 o
2 -3 1 222.04 226.15 1.63 o
3 -3 1 201.37 185.57 2.03 o
4 -3 1 98.17 93.55 0.64 o
5 -3 1 119.51 124.60 0.69 o
6 -3 1 55.25 55.30 0.56 o
7 -3 1 18.40 20.70 0.41 o
8 -3 1 14.27 15.19 0.77 o
9 -3 1 13.99 13.52 0.76 o
10 -3 1 3.31 3.37 0.35 o
11 -3 1 12.97 12.01 0.50 o
0 -2 1 1261.16 1192.61 2.24 o
1 -2 1 379.13 359.33 7.21 o
2 -2 1 483.48 496.81 7.17 o
3 -2 1 299.50 293.20 4.06 o
4 -2 1 730.68 818.83 8.08 o
5 -2 1 99.80 100.84 1.01 o
6 -2 1 93.68 93.22 0.63 o
7 -2 1 24.22 22.70 0.90 o
8 -2 1 91.01 100.64 1.11 o
9 -2 1 9.49 8.03 0.44 o
10 -2 1 12.50 12.99 0.51 o
11 -2 1 2.92 2.71 0.34 o
0 -1 1 241.68 258.80 0.93 o
1 -1 1 4154.16 4346.56 81.24 o
2 -1 1 304.16 312.99 3.73 o
3 -1 1 14.96 11.71 0.19 o
4 -1 1 179.09 187.99 2.97 o
5 -1 1 74.27 73.97 0.97 o
6 -1 1 50.53 51.92 2.15 o
7 -1 1 292.35 321.05 4.08 o
8 -1 1 14.24 13.63 0.61 o
9 -1 1 44.97 45.35 0.87 o
10 -1 1 7.10 6.55 0.37 o
11 -1 1 1.71 1.68 0.32 o
0 0 1 302.44 334.00 0.97 o
1 0 1 550.33 519.97 5.03 o
2 0 1 436.83 415.44 3.94 o
3 0 1 259.07 240.42 1.42 o
4 0 1 146.33 140.79 2.45 o
5 0 1 145.87 121.82 1.92 o
6 0 1 86.47 85.26 1.30 o
7 0 1 38.54 41.38 1.65 o
8 0 1 45.29 42.96 0.84 o
9 0 1 4.58 4.65 0.37 o
10 0 1 23.64 24.18 0.67 o
11 0 1 2.34 2.37 0.41 o
0 1 1 240.77 239.94 5.84 o
1 1 1 4163.09 4122.82 87.69 o
2 1 1 304.73 303.60 6.30 o
3 1 1 13.57 9.81 0.25 o
4 1 1 179.10 182.61 2.87 o
5 1 1 75.95 72.64 0.80 o
6 1 1 50.17 50.98 0.56 o
7 1 1 294.28 327.57 1.65 o
8 1 1 14.35 13.95 0.74 o
9 1 1 45.03 43.84 0.66 o
10 1 1 7.22 6.85 0.53 o
11 1 1 1.49 1.55 0.53 o
0 2 1 1241.14 1153.56 2.16 o
1 2 1 379.32 321.65 13.06 o
2 2 1 503.29 498.23 10.41 o
3 2 1 297.56 279.29 5.20 o
4 2 1 753.83 829.20 19.56 o
5 2 1 99.15 96.60 2.51 o
6 2 1 93.24 88.65 1.35 o
7 2 1 24.23 23.76 0.53 o
8 2 1 88.54 97.41 1.03 o
9 2 1 9.38 8.52 1.17 o
10 2 1 13.22 14.03 0.64 o
11 2 1 2.88 2.77 0.40 o
0 3 1 405.95 389.74 1.42 o
1 3 1 107.76 98.86 4.03 o
2 3 1 222.28 215.66 5.47 o
3 3 1 205.44 182.50 4.30 o
4 3 1 98.11 92.15 1.91 o
5 3 1 122.52 125.44 2.02 o
6 3 1 55.35 55.58 0.85 o
7 3 1 17.71 19.50 0.39 o
8 3 1 14.43 15.64 0.61 o
9 3 1 13.68 13.93 1.02 o
10 3 1 3.38 2.94 0.40 o
11 3 1 13.01 11.23 0.63 o
0 4 1 401.20 363.98 1.65 o
1 4 1 146.47 133.57 3.62 o
2 4 1 61.34 55.47 1.58 o
3 4 1 132.16 130.05 2.28 o
4 4 1 71.43 74.11 1.36 o
5 4 1 48.92 46.73 1.12 o
6 4 1 85.53 89.88 1.61 o
7 4 1 13.52 12.51 0.49 o
8 4 1 42.41 48.28 0.91 o
9 4 1 8.13 6.69 0.52 o
10 4 1 3.20 2.79 0.44 o
11 4 1 2.44 2.68 0.64 o
0 5 1 181.49 166.32 1.31 o
1 5 1 330.50 336.14 7.91 o
2 5 1 108.29 95.44 1.51 o
3 5 1 179.91 174.58 3.72 o
4 5 1 43.99 44.66 1.09 o
5 5 1 86.93 84.06 3.15 o
6 5 1 22.33 23.46 0.51 o
7 5 1 43.98 41.60 0.93 o
8 5 1 12.09 11.47 0.76 o
9 5 1 8.49 9.63 0.44 o
10 5 1 3.51 3.55 0.68 o
0 6 1 75.68 67.21 0.70 o
1 6 1 52.50 44.95 0.95 o
2 6 1 258.74 257.06 4.85 o
3 6 1 22.96 23.42 0.56 o
4 6 1 348.35 340.59 1.57 o
5 6 1 13.22 11.62 0.46 o
6 6 1 55.43 54.05 0.66 o
7 6 1 10.24 9.75 0.47 o
8 6 1 6.13 5.24 0.37 o
9 6 1 2.98 2.82 0.34 o
10 6 1 11.09 8.88 0.60 o
0 7 1 20.83 22.44 0.91 o
1 7 1 68.48 65.54 0.62 o
2 7 1 28.74 27.24 0.46 o
3 7 1 97.56 91.82 1.47 o
4 7 1 22.84 21.61 0.50 o
5 7 1 59.70 56.74 0.88 o
6 7 1 5.56 4.77 0.32 o
7 7 1 24.20 25.26 0.54 o
8 7 1 3.94 3.69 0.36 o
9 7 1 8.88 9.39 0.62 o
10 7 1 2.29 2.11 0.52 o
0 8 1 39.39 34.71 2.41 o
1 8 1 20.79 19.69 0.39 o
2 8 1 155.28 153.87 1.11 o
3 8 1 3.91 3.70 0.29 o
4 8 1 179.97 191.44 1.48 o
5 8 1 3.95 4.01 0.57 o
6 8 1 21.60 20.46 0.90 o
7 8 1 6.18 5.46 0.47 o
8 8 1 4.63 5.13 0.46 o
9 8 1 2.11 1.92 0.60 o
0 9 1 10.69 9.38 0.68 o
1 9 1 79.87 84.48 0.72 o
2 9 1 7.37 7.48 0.31 o
3 9 1 46.61 51.45 1.14 o
4 9 1 6.30 6.66 0.44 o
5 9 1 23.01 24.20 0.68 o
6 9 1 4.25 4.46 0.44 o
7 9 1 12.81 13.20 0.97 o
8 9 1 1.72 1.42 0.53 o
0 10 1 18.89 21.65 0.80 o
1 10 1 6.15 5.89 0.42 o
2 10 1 16.71 14.47 0.45 o
3 10 1 8.59 7.80 0.40 o
4 10 1 9.33 7.18 0.53 o
5 10 1 3.88 3.24 0.42 o
6 10 1 6.06 5.29 0.49 o
0 11 1 6.69 6.56 0.47 o
1 11 1 14.55 14.75 0.42 o
2 11 1 2.75 2.29 0.32 o
3 11 1 17.15 15.26 0.50 o
4 11 1 0.95 0.56 0.21 o
5 11 1 6.35 6.21 0.57 o
6 11 1 1.96 2.08 0.54 o
0 12 1 5.48 5.02 0.50 o
1 12 1 2.84 2.18 0.34 o
2 12 1 3.47 3.26 0.35 o
3 12 1 3.99 3.88 0.40 o
4 12 1 2.73 3.22 0.44 o
5 12 1 2.43 2.26 0.57 o
1 13 1 15.67 20.23 1.13 o
0 -12 2 5.22 5.24 0.47 o
1 -12 2 7.82 8.47 0.46 o
2 -12 2 2.02 1.35 0.40 o
0 -11 2 10.08 8.50 0.50 o
1 -11 2 1.58 1.58 0.24 o
2 -11 2 13.69 13.18 0.58 o
3 -11 2 6.33 6.30 0.73 o
4 -11 2 12.20 12.51 0.64 o
5 -11 2 2.75 2.50 0.63 o
0 -10 2 25.29 30.57 1.13 o
1 -10 2 13.22 11.42 0.76 o
2 -10 2 22.96 23.62 0.72 o
3 -10 2 5.72 7.17 0.77 o
4 -10 2 12.50 13.29 0.86 o
5 -10 2 6.28 7.01 0.76 o
6 -10 2 5.63 6.01 0.73 o
0 -9 2 33.93 36.11 1.03 o
1 -9 2 7.84 8.03 0.44 o
2 -9 2 28.05 27.85 0.70 o
3 -9 2 5.59 7.03 0.45 o
5 -9 2 2.79 1.72 0.50 o
6 -9 2 9.66 9.29 0.82 o
7 -9 2 1.13 0.65 0.38 o
8 -9 2 6.08 4.51 0.64 o
0 -8 2 58.56 60.19 1.22 o
1 -8 2 12.08 12.12 0.56 o
2 -8 2 121.84 130.56 1.84 o
3 -8 2 13.05 14.72 0.53 o
4 -8 2 131.18 135.32 1.85 o
5 -8 2 8.33 8.50 0.79 o
6 -8 2 25.71 27.80 1.16 o
7 -8 2 6.17 4.54 0.43 o
8 -8 2 5.33 4.93 0.38 o
0 -7 2 82.23 76.36 1.24 o
1 -7 2 0.65 1.49 0.18 o
2 -7 2 41.28 39.99 1.04 o
3 -7 2 29.69 33.81 1.84 o
4 -7 2 18.18 17.24 0.81 o
5 -7 2 8.39 9.43 0.50 o
6 -7 2 19.98 20.25 0.62 o
7 -7 2 0.45 0.33 0.20 o
8 -7 2 9.88 8.81 0.45 o
9 -7 2 1.89 2.10 0.39 o
0 -6 2 180.79 185.74 0.93 o
1 -6 2 46.23 48.40 0.48 o
2 -6 2 192.59 215.77 1.07 o
3 -6 2 31.63 31.42 1.57 o
4 -6 2 214.55 214.20 3.08 o
5 -6 2 13.14 15.18 0.73 o
6 -6 2 58.36 58.64 1.41 o
7 -6 2 12.91 12.65 0.43 o
8 -6 2 8.62 9.43 0.68 o
9 -6 2 11.16 10.33 0.60 o
10 -6 2 6.61 7.38 0.77 o
0 -5 2 110.98 98.24 0.65 o
1 -5 2 16.12 11.77 0.20 o
2 -5 2 76.11 78.40 0.60 o
3 -5 2 81.14 92.67 0.89 o
4 -5 2 41.79 40.31 0.45 o
5 -5 2 40.02 43.22 0.67 o
6 -5 2 26.02 26.31 0.51 o
7 -5 2 3.32 3.66 0.31 o
8 -5 2 14.44 14.31 0.60 o
9 -5 2 0.69 0.97 0.34 o
10 -5 2 5.54 5.79 0.53 o
0 -4 2 486.13 508.09 2.12 o
1 -4 2 120.43 117.36 0.89 o
2 -4 2 63.69 85.88 0.67 o
3 -4 2 65.83 64.88 1.04 o
4 -4 2 19.79 17.97 0.31 o
5 -4 2 48.46 50.02 0.84 o
6 -4 2 39.72 40.59 0.57 o
7 -4 2 25.64 27.90 1.24 o
8 -4 2 26.76 26.67 0.73 o
9 -4 2 8.29 7.70 0.71 o
10 -4 2 3.72 3.89 0.44 o
0 -3 2 63.06 53.15 0.45 o
1 -3 2 53.74 57.72 0.33 o
2 -3 2 74.83 71.83 1.04 o
3 -3 2 307.76 323.91 3.37 o
4 -3 2 63.82 63.55 0.91 o
5 -3 2 142.76 141.44 1.46 o
6 -3 2 23.63 24.75 0.38 o
7 -3 2 28.34 33.06 0.57 o
8 -3 2 17.81 18.16 0.50 o
9 -3 2 7.04 8.16 0.40 o
10 -3 2 8.66 8.88 0.58 o
11 -3 2 5.31 3.43 0.61 o
0 -2 2 437.87 455.61 2.75 o
1 -2 2 87.87 80.91 0.75 o
2 -2 2 12.70 15.51 0.28 o
3 -2 2 98.67 89.82 1.15 o
4 -2 2 107.53 105.89 1.32 o
5 -2 2 76.52 77.54 1.50 o
6 -2 2 15.47 12.98 0.28 o
7 -2 2 24.25 27.64 0.53 o
8 -2 2 34.57 30.01 0.57 o
9 -2 2 9.99 10.17 0.43 o
10 -2 2 1.15 1.37 0.27 o
11 -2 2 5.12 3.31 0.35 o
0 -1 2 26.32 29.89 0.58 o
1 -1 2 2208.53 2318.02 28.52 o
2 -1 2 12.15 11.55 0.21 o
3 -1 2 182.81 187.55 3.46 o
4 -1 2 46.28 46.69 0.60 o
5 -1 2 120.28 138.43 1.84 o
6 -1 2 27.65 27.43 0.48 o
7 -1 2 161.43 167.95 3.09 o
8 -1 2 5.92 7.51 0.42 o
9 -1 2 41.40 42.38 1.16 o
10 -1 2 4.40 4.39 0.35 o
11 -1 2 2.55 2.41 0.33 o
0 0 2 0.91 0.52 0.08 o
1 0 2 85.10 78.34 1.21 o
2 0 2 3.40 5.82 0.13 o
3 0 2 75.64 75.34 1.18 o
4 0 2 37.25 51.99 0.91 o
5 0 2 42.98 50.53 0.40 o
6 0 2 17.46 12.85 0.37 o
7 0 2 22.02 21.88 0.53 o
8 0 2 10.44 11.48 0.54 o
9 0 2 14.04 14.25 0.49 o
10 0 2 0.46 0.47 0.20 o
11 0 2 4.13 3.18 0.34 o
0 1 2 23.81 26.47 0.94 o
1 1 2 2214.02 2181.32 28.10 o
2 1 2 9.88 9.26 0.19 o
3 1 2 187.46 181.18 5.70 o
4 1 2 44.94 45.40 0.77 o
5 1 2 122.86 137.93 3.25 o
6 1 2 27.27 26.96 0.48 o
7 1 2 162.05 168.34 2.39 o
8 1 2 5.55 7.04 0.38 o
9 1 2 41.73 40.80 1.20 o
10 1 2 4.29 4.10 0.36 o
11 1 2 2.63 2.46 0.44 o
0 2 2 424.64 413.72 13.53 o
1 2 2 89.93 78.34 1.07 o
2 2 2 13.80 15.53 0.47 o
3 2 2 98.36 83.01 2.66 o
4 2 2 111.82 106.61 2.81 o
5 2 2 75.58 74.56 2.08 o
6 2 2 14.52 11.48 0.65 o
7 2 2 24.64 26.86 0.69 o
8 2 2 33.04 28.19 0.57 o
9 2 2 10.52 10.73 0.44 o
10 2 2 1.08 1.53 0.51 o
11 2 2 5.09 3.70 0.71 o
0 3 2 62.43 49.62 0.75 o
1 3 2 55.50 56.52 1.09 o
2 3 2 72.82 66.37 1.69 o
3 3 2 316.86 315.18 9.03 o
4 3 2 60.90 59.45 1.41 o
5 3 2 147.04 139.07 2.94 o
6 3 2 22.49 22.78 0.93 o
7 3 2 28.39 33.00 1.20 o
8 3 2 17.65 18.15 0.44 o
9 3 2 7.37 8.19 0.56 o
10 3 2 8.64 8.83 0.52 o
0 4 2 473.75 461.40 18.60 o
1 4 2 122.77 111.58 2.87 o
2 4 2 59.66 73.46 1.92 o
3 4 2 66.28 60.61 1.58 o
4 4 2 19.36 16.59 0.33 o
5 4 2 49.05 51.71 0.95 o
6 4 2 37.73 36.40 1.02 o
7 4 2 26.24 27.96 0.85 o
8 4 2 25.63 23.78 0.83 o
9 4 2 8.42 7.98 0.57 o
10 4 2 3.66 3.02 0.46 o
0 5 2 111.24 94.26 3.67 o
1 5 2 14.96 9.83 0.23 o
2 5 2 76.40 72.56 1.88 o
3 5 2 84.81 92.18 3.03 o
4 5 2 41.12 36.79 0.94 o
5 5 2 41.67 42.55 1.22 o
6 5 2 25.35 25.53 0.63 o
7 5 2 2.89 3.28 0.35 o
8 5 2 14.57 14.04 0.64 o
9 5 2 0.76 1.01 0.28 o
10 5 2 5.60 5.56 0.77 o
0 6 2 176.20 166.97 1.63 o
1 6 2 47.62 46.21 1.26 o
2 6 2 189.64 197.32 8.21 o
3 6 2 31.85 28.62 0.88 o
4 6 2 212.91 204.88 7.82 o
5 6 2 13.47 14.42 0.40 o
6 6 2 57.07 53.37 0.77 o
7 6 2 13.26 11.72 0.49 o
8 6 2 8.35 9.04 0.44 o
9 6 2 11.19 9.74 0.51 o
10 6 2 6.59 6.69 0.53 o
0 7 2 82.43 74.20 1.30 o
1 7 2 1.02 1.77 0.22 o
2 7 2 41.42 39.03 1.14 o
3 7 2 30.68 32.16 0.99 o
4 7 2 18.43 18.30 0.61 o
5 7 2 8.51 8.58 0.46 o
6 7 2 20.18 19.05 0.61 o
7 7 2 0.40 0.52 0.40 o
8 7 2 9.88 8.48 0.57 o
9 7 2 2.00 2.02 0.42 o
0 8 2 59.31 58.73 1.25 o
1 8 2 11.69 11.29 0.87 o
2 8 2 121.94 120.19 1.25 o
3 8 2 13.15 14.68 0.95 o
4 8 2 131.01 128.24 1.23 o
5 8 2 8.21 7.88 0.48 o
6 8 2 25.63 25.96 0.80 o
7 8 2 6.05 4.29 0.46 o
8 8 2 5.44 4.83 0.39 o
0 9 2 33.99 35.35 0.71 o
1 9 2 8.76 7.53 0.46 o
2 9 2 27.87 25.93 0.71 o
3 9 2 5.38 5.42 0.43 o
4 9 2 15.37 12.80 0.56 o
5 9 2 2.53 1.54 0.30 o
6 9 2 9.86 8.96 0.55 o
7 9 2 1.31 0.79 0.28 o
8 9 2 6.10 4.94 0.44 o
0 10 2 26.06 29.25 1.04 o
1 10 2 12.86 11.10 0.44 o
2 10 2 23.42 22.41 0.67 o
3 10 2 5.70 6.55 0.51 o
4 10 2 12.70 11.74 0.57 o
5 10 2 6.24 6.05 0.63 o
6 10 2 5.82 5.66 0.74 o
7 10 2 5.17 4.63 0.47 o
0 11 2 9.95 7.87 0.70 o
1 11 2 1.48 1.76 0.41 o
2 11 2 13.66 13.57 0.50 o
3 11 2 5.94 5.90 0.40 o
4 11 2 12.24 12.17 0.61 o
5 11 2 2.54 1.76 0.42 o
0 12 2 5.46 5.09 0.67 o
1 12 2 7.89 8.22 0.55 o
2 12 2 2.10 1.42 0.54 o
3 12 2 4.45 2.66 0.65 o
0 -11 3 13.46 14.21 0.90 o
1 -11 3 0.57 0.49 0.26 o
2 -11 3 12.31 11.97 0.75 o
3 -11 3 1.69 2.98 0.61 o
0 -10 3 20.27 17.48 0.97 o
1 -10 3 23.25 24.92 0.87 o
2 -10 3 3.83 2.32 0.35 o
3 -10 3 16.04 16.94 0.95 o
0 -9 3 22.55 22.19 0.84 o
1 -9 3 7.61 7.40 0.44 o
2 -9 3 15.97 17.81 0.61 o
3 -9 3 16.69 15.77 0.60 o
4 -9 3 10.62 13.68 0.84 o
5 -9 3 4.68 2.99 0.47 o
6 -9 3 9.91 10.11 0.54 o
7 -9 3 0.55 0.38 0.25 o
0 -8 3 24.14 26.49 0.97 o
1 -8 3 47.66 52.47 1.02 o
2 -8 3 7.14 4.95 0.40 o
3 -8 3 37.09 39.17 0.80 o
4 -8 3 0.10 0.43 0.21 o
5 -8 3 20.76 20.73 0.89 o
6 -8 3 1.07 1.14 0.34 o
7 -8 3 9.69 9.40 0.44 o
8 -8 3 2.77 1.72 0.54 o
0 -7 3 49.77 52.48 1.19 o
1 -7 3 17.85 16.25 0.51 o
2 -7 3 32.52 36.57 0.57 o
3 -7 3 133.09 148.42 2.68 o
4 -7 3 12.06 14.17 0.41 o
5 -7 3 48.82 49.87 1.02 o
6 -7 3 14.42 14.68 0.48 o
7 -7 3 0.05 0.32 0.23 o
8 -7 3 16.48 14.50 0.99 o
1 -6 3 120.54 127.61 0.93 o
2 -6 3 0.49 1.09 0.21 o
3 -6 3 68.57 71.48 1.07 o
4 -6 3 20.51 21.15 0.47 o
5 -6 3 39.86 43.96 1.62 o
6 -6 3 4.29 4.30 0.35 o
7 -6 3 21.14 22.75 0.72 o
8 -6 3 3.99 4.26 0.49 o
9 -6 3 8.72 8.47 0.77 o
0 -5 3 93.69 99.45 0.79 o
1 -5 3 70.52 77.11 0.64 o
2 -5 3 94.87 101.05 1.03 o
3 -5 3 42.74 43.14 1.02 o
4 -5 3 60.80 68.12 0.61 o
5 -5 3 30.24 26.13 0.65 o
6 -5 3 30.60 34.27 0.60 o
7 -5 3 9.97 10.65 0.45 o
8 -5 3 18.33 18.13 0.68 o
9 -5 3 1.46 1.57 0.38 o
0 -4 3 196.20 201.72 1.04 o
1 -4 3 250.79 257.58 2.52 o
2 -4 3 15.49 14.99 0.36 o
3 -4 3 92.56 99.17 1.77 o
4 -4 3 103.67 105.80 1.14 o
5 -4 3 49.90 52.15 0.73 o
6 -4 3 4.21 5.22 0.58 o
7 -4 3 45.10 47.72 0.85 o
8 -4 3 6.42 4.55 0.44 o
9 -4 3 20.40 21.34 0.76 o
0 -3 3 121.06 135.41 1.83 o
1 -3 3 146.13 154.27 1.71 o
2 -3 3 185.01 186.40 3.30 o
3 -3 3 147.97 149.73 2.28 o
4 -3 3 197.53 208.01 3.38 o
5 -3 3 20.25 23.25 0.65 o
6 -3 3 60.03 67.74 1.35 o
7 -3 3 50.82 48.37 1.34 o
8 -3 3 13.69 14.73 0.79 o
9 -3 3 4.88 4.55 0.50 o
10 -3 3 10.47 10.05 0.59 o
0 -2 3 395.59 435.75 1.41 o
1 -2 3 132.22 130.04 1.08 o
2 -2 3 159.20 157.65 2.03 o
3 -2 3 124.83 131.85 2.46 o
4 -2 3 62.11 60.45 0.90 o
5 -2 3 85.11 87.37 1.47 o
6 -2 3 45.52 46.06 0.56 o
7 -2 3 42.14 43.84 0.83 o
8 -2 3 19.41 18.62 1.56 o
9 -2 3 16.58 18.67 0.69 o
10 -2 3 1.74 1.04 0.30 o
0 -1 3 301.70 312.71 2.54 o
1 -1 3 38.21 36.94 0.39 o
2 -1 3 195.14 198.51 1.99 o
3 -1 3 174.27 171.36 3.44 o
4 -1 3 144.05 147.22 2.70 o
5 -1 3 40.25 43.94 1.26 o
6 -1 3 73.56 72.34 0.74 o
7 -1 3 20.37 16.04 0.47 o
8 -1 3 31.53 32.64 1.46 o
9 -1 3 2.50 1.99 0.29 o
10 -1 3 7.22 7.51 0.42 o
0 0 3 2894.54 3101.13 70.43 o
1 0 3 10.88 7.84 0.25 o
2 0 3 367.71 390.26 6.19 o
3 0 3 200.46 190.90 3.64 o
4 0 3 0.83 0.37 0.12 o
5 0 3 147.10 148.50 1.57 o
6 0 3 120.55 114.76 2.12 o
7 0 3 18.98 22.33 0.65 o
8 0 3 100.49 95.25 2.10 o
9 0 3 7.94 8.44 0.51 o
10 0 3 0.19 0.22 0.23 o
0 1 3 304.23 310.59 1.78 o
1 1 3 36.59 33.14 0.74 o
2 1 3 193.27 189.30 3.09 o
3 1 3 177.43 168.88 4.11 o
4 1 3 140.56 139.81 3.10 o
5 1 3 41.39 42.35 1.21 o
6 1 3 73.18 74.18 0.91 o
7 1 3 19.62 15.45 0.49 o
8 1 3 32.17 34.25 1.00 o
9 1 3 2.36 1.58 0.29 o
10 1 3 7.17 7.39 0.44 o
11 1 3 4.15 3.72 0.69 o
0 2 3 397.23 439.87 2.14 o
1 2 3 131.15 120.74 1.87 o
2 2 3 158.45 147.91 1.89 o
3 2 3 125.90 125.97 2.13 o
4 2 3 61.36 53.58 1.87 o
5 2 3 85.03 85.85 1.68 o
6 2 3 45.81 45.14 0.63 o
7 2 3 41.39 42.55 0.58 o
8 2 3 19.79 18.78 0.52 o
9 2 3 16.51 16.98 0.51 o
10 2 3 1.69 0.87 0.24 o
0 3 3 121.94 127.67 2.89 o
1 3 3 145.50 143.40 3.29 o
2 3 3 182.99 173.18 3.19 o
3 3 3 150.89 142.28 2.73 o
4 3 3 194.70 184.49 6.30 o
5 3 3 21.19 22.22 0.89 o
6 3 3 59.46 65.16 1.63 o
7 3 3 50.24 47.54 2.04 o
8 3 3 14.13 16.55 0.45 o
9 3 3 4.78 4.56 0.38 o
10 3 3 10.41 9.67 1.09 o
0 4 3 193.13 191.97 1.66 o
1 4 3 253.12 241.58 5.45 o
2 4 3 14.91 12.33 0.32 o
3 4 3 92.20 92.55 1.98 o
4 4 3 104.51 96.94 2.92 o
5 4 3 48.98 48.37 1.22 o
6 4 3 3.96 4.39 0.30 o
7 4 3 45.41 47.06 0.87 o
8 4 3 6.17 4.34 0.31 o
9 4 3 20.73 20.68 0.73 o
10 4 3 3.38 2.96 0.59 o
0 5 3 93.55 96.70 1.30 o
1 5 3 70.71 70.62 1.43 o
2 5 3 94.85 90.88 2.91 o
3 5 3 42.36 38.53 1.54 o
4 5 3 61.09 67.62 2.12 o
5 5 3 29.89 23.54 1.16 o
6 5 3 30.56 31.36 1.86 o
7 5 3 10.05 9.58 0.37 o
8 5 3 18.14 17.03 0.52 o
9 5 3 1.49 1.35 0.35 o
10 5 3 9.70 9.07 0.84 o
0 6 3 61.81 62.82 1.84 o
1 6 3 121.71 121.10 2.96 o
2 6 3 0.55 0.96 0.19 o
3 6 3 68.23 65.45 1.93 o
4 6 3 21.31 19.63 0.69 o
5 6 3 39.60 40.25 1.23 o
6 6 3 4.03 3.41 0.40 o
7 6 3 21.55 22.22 1.12 o
8 6 3 3.80 3.89 0.66 o
9 6 3 8.86 8.68 0.64 o
0 7 3 49.89 51.15 1.20 o
1 7 3 17.72 15.87 0.52 o
2 7 3 32.97 34.11 0.93 o
3 7 3 132.60 137.56 3.54 o
4 7 3 12.41 13.87 0.45 o
5 7 3 48.58 44.68 1.52 o
6 7 3 14.46 13.50 0.88 o
7 7 3 0.06 0.37 0.23 o
8 7 3 16.48 13.28 0.66 o
0 8 3 24.87 24.34 1.01 o
1 8 3 47.01 47.18 0.83 o
2 8 3 7.57 5.06 0.32 o
3 8 3 36.84 34.95 1.42 o
4 8 3 0.05 0.38 0.20 o
5 8 3 20.88 20.09 0.67 o
6 8 3 1.14 0.76 0.31 o
7 8 3 9.66 8.45 0.56 o
0 9 3 22.64 20.99 0.95 o
1 9 3 7.35 7.85 0.51 o
2 9 3 16.06 17.65 1.10 o
3 9 3 16.69 13.27 0.75 o
4 9 3 10.61 12.63 0.59 o
5 9 3 4.66 3.14 0.41 o
6 9 3 9.93 9.36 0.54 o
0 10 3 20.78 14.90 0.91 o
1 10 3 22.73 21.57 1.42 o
2 10 3 4.01 2.65 0.44 o
3 10 3 15.91 16.70 0.70 o
4 10 3 3.30 2.64 0.41 o
5 10 3 9.17 8.34 0.54 o
6 10 3 1.01 0.74 0.42 o
0 11 3 13.48 12.27 0.92 o
1 11 3 0.52 0.75 0.32 o
2 11 3 12.33 11.87 0.63 o
3 11 3 1.61 2.65 0.40 o
0 -10 4 8.76 6.23 0.81 o
1 -10 4 18.60 19.36 0.70 o
2 -10 4 7.68 7.51 0.54 o
0 -9 4 19.62 23.62 1.06 o
1 -9 4 20.86 25.04 0.75 o
2 -9 4 12.72 13.96 0.61 o
3 -9 4 2.19 2.57 0.40 o
4 -9 4 7.92 8.68 0.81 o
5 -9 4 1.17 1.57 0.60 o
0 -8 4 23.11 24.56 1.00 o
1 -8 4 44.91 48.96 0.91 o
2 -8 4 1.45 1.53 0.37 o
3 -8 4 14.88 16.17 0.61 o
4 -8 4 0.30 0.49 0.37 o
5 -8 4 11.62 12.49 0.88 o
6 -8 4 5.89 6.50 0.54 o
0 -7 4 27.73 28.23 0.92 o
1 -7 4 1.24 1.05 0.29 o
2 -7 4 35.92 37.46 1.16 o
3 -7 4 0.39 0.67 0.20 o
4 -7 4 28.90 29.45 0.71 o
5 -7 4 0.60 0.38 0.24 o
6 -7 4 8.79 8.01 0.75 o
7 -7 4 1.95 1.84 0.36 o
0 -6 4 48.34 49.20 1.22 o
1 -6 4 76.83 83.56 1.04 o
2 -6 4 6.13 5.82 0.51 o
3 -6 4 33.93 36.61 0.72 o
4 -6 4 1.95 2.28 0.30 o
5 -6 4 20.97 23.24 0.91 o
6 -6 4 6.38 6.43 0.56 o
7 -6 4 22.47 23.06 0.63 o
0 -5 4 193.59 208.48 2.08 o
1 -5 4 137.53 153.65 2.62 o
2 -5 4 101.41 104.26 1.61 o
3 -5 4 0.62 0.52 0.20 o
4 -5 4 40.81 41.59 0.64 o
5 -5 4 2.46 2.69 0.27 o
6 -5 4 34.22 38.48 1.08 o
7 -5 4 26.97 27.40 0.80 o
8 -5 4 21.86 21.15 1.22 o
0 -4 4 56.46 50.19 1.43 o
1 -4 4 89.50 97.74 1.37 o
2 -4 4 68.77 77.10 1.81 o
3 -4 4 136.11 146.33 1.38 o
4 -4 4 64.83 70.71 1.18 o
5 -4 4 66.06 68.66 1.45 o
6 -4 4 6.85 5.04 0.37 o
7 -4 4 14.42 15.07 0.89 o
8 -4 4 2.22 2.43 0.39 o
0 -3 4 283.27 286.60 10.96 o
1 -3 4 141.39 143.98 2.38 o
2 -3 4 173.01 186.93 2.31 o
3 -3 4 42.23 44.00 0.63 o
4 -3 4 80.31 88.31 1.59 o
5 -3 4 15.15 16.09 0.56 o
6 -3 4 67.74 69.31 1.36 o
7 -3 4 18.51 17.82 1.14 o
8 -3 4 32.37 34.19 0.83 o
9 -3 4 3.91 3.47 0.48 o
0 -2 4 12.48 10.89 0.44 o
1 -2 4 129.39 142.37 2.08 o
2 -2 4 93.54 96.61 1.41 o
3 -2 4 184.12 188.79 3.78 o
4 -2 4 191.73 206.62 4.75 o
5 -2 4 99.11 100.88 1.50 o
6 -2 4 1.23 1.07 0.31 o
7 -2 4 25.69 26.91 0.77 o
8 -2 4 4.07 5.09 0.51 o
9 -2 4 9.59 9.74 0.60 o
0 -1 4 104.81 110.81 2.49 o
1 -1 4 1.98 2.40 0.21 o
2 -1 4 194.34 204.79 3.17 o
3 -1 4 164.97 158.49 3.23 o
4 -1 4 217.46 227.44 3.51 o
5 -1 4 43.73 46.13 1.09 o
6 -1 4 63.78 66.81 1.26 o
7 -1 4 3.18 2.93 0.48 o
8 -1 4 16.16 16.88 0.65 o
9 -1 4 1.99 3.06 0.54 o
0 0 4 2.10 1.99 0.17 o
1 0 4 184.03 188.14 3.15 o
2 0 4 1.78 2.67 0.25 o
3 0 4 81.20 85.24 2.14 o
4 0 4 11.30 14.33 0.42 o
5 0 4 76.26 69.85 1.27 o
6 0 4 0.09 0.55 0.27 o
7 0 4 52.10 48.53 1.28 o
8 0 4 0.33 0.76 0.24 o
9 0 4 8.11 8.83 0.46 o
0 1 4 104.51 105.90 3.10 o
1 1 4 2.09 2.38 0.16 o
2 1 4 195.87 199.31 3.03 o
3 1 4 165.68 157.11 2.86 o
4 1 4 219.15 220.35 4.72 o
5 1 4 43.99 43.00 1.10 o
6 1 4 63.51 65.62 1.32 o
7 1 4 3.13 2.81 0.41 o
8 1 4 16.03 16.99 0.54 o
9 1 4 2.01 2.52 0.34 o
10 1 4 14.40 13.68 1.01 o
0 2 4 12.55 10.47 0.38 o
1 2 4 128.89 134.94 2.38 o
2 2 4 92.76 89.82 1.14 o
3 2 4 179.56 171.70 2.84 o
4 2 4 190.68 191.21 3.91 o
5 2 4 96.82 93.85 3.55 o
6 2 4 1.18 1.03 0.24 o
7 2 4 26.08 26.43 0.69 o
8 2 4 4.13 3.90 0.36 o
9 2 4 9.57 9.68 0.60 o
0 3 4 285.73 278.30 9.30 o
1 3 4 142.10 135.70 2.61 o
2 3 4 175.75 174.85 3.29 o
3 3 4 42.85 38.95 0.52 o
4 3 4 81.93 81.28 1.76 o
5 3 4 15.42 16.52 0.55 o
6 3 4 68.02 67.00 2.77 o
7 3 4 18.56 17.22 1.07 o
8 3 4 32.67 33.82 0.69 o
9 3 4 3.97 3.03 0.37 o
0 4 4 55.82 49.43 1.16 o
1 4 4 87.71 89.23 2.00 o
2 4 4 68.16 70.11 1.67 o
3 4 4 134.44 135.21 4.70 o
4 4 4 64.53 66.20 2.90 o
5 4 4 64.78 65.18 1.47 o
6 4 4 6.70 5.05 0.51 o
7 4 4 13.94 13.87 0.62 o
8 4 4 2.16 2.02 0.42 o
0 5 4 197.41 198.48 1.39 o
1 5 4 138.32 142.45 3.65 o
2 5 4 102.93 96.54 3.33 o
3 5 4 0.62 0.46 0.19 o
4 5 4 40.60 38.18 0.78 o
5 5 4 2.54 1.93 0.37 o
6 5 4 34.99 36.74 1.36 o
7 5 4 27.18 26.66 1.04 o
8 5 4 22.48 22.05 1.08 o
0 6 4 47.94 44.53 1.38 o
1 6 4 76.06 73.29 1.68 o
2 6 4 5.98 5.27 0.34 o
3 6 4 34.37 34.06 1.69 o
4 6 4 1.92 1.89 0.24 o
5 6 4 20.96 21.80 1.20 o
6 6 4 6.30 5.61 0.46 o
0 7 4 28.06 27.09 1.75 o
1 7 4 1.27 0.92 0.23 o
2 7 4 35.92 33.50 1.33 o
3 7 4 0.38 0.56 0.20 o
4 7 4 28.80 27.02 0.68 o
5 7 4 0.61 0.46 0.21 o
6 7 4 8.97 7.17 0.74 o
0 8 4 23.32 20.71 0.98 o
1 8 4 45.40 45.42 2.10 o
2 8 4 1.50 1.79 0.30 o
3 8 4 15.02 15.89 0.49 o
4 8 4 0.29 0.48 0.24 o
5 8 4 11.77 11.94 0.93 o
6 8 4 5.94 5.04 0.67 o
0 9 4 18.55 19.11 0.98 o
1 9 4 20.67 24.33 1.02 o
2 9 4 12.25 12.96 0.47 o
3 9 4 2.15 2.94 0.43 o
4 9 4 7.95 8.31 0.55 o
5 9 4 1.14 1.80 0.54 o
0 10 4 8.89 5.06 0.74 o
1 10 4 18.94 19.46 1.94 o
2 10 4 7.77 6.41 0.53 o
3 10 4 17.44 18.29 0.96 o
4 10 4 6.06 8.05 0.77 o
0 -9 5 13.84 15.58 0.98 o
1 -9 5 6.48 5.42 0.69 o
2 -9 5 10.62 11.74 0.90 o
3 -9 5 4.12 4.99 0.68 o
0 -8 5 4.30 5.42 0.66 o
1 -8 5 4.29 4.89 0.68 o
2 -8 5 1.17 1.65 0.35 o
3 -8 5 4.98 4.49 0.72 o
4 -8 5 0.09 0.25 0.23 o
0 -7 5 28.87 25.73 1.06 o
1 -7 5 15.11 13.83 0.61 o
2 -7 5 12.50 10.47 0.58 o
3 -7 5 3.10 2.75 0.43 o
4 -7 5 4.57 4.04 0.43 o
5 -7 5 5.36 4.84 0.48 o
6 -7 5 7.35 7.03 0.76 o
0 -6 5 11.09 11.92 0.79 o
1 -6 5 15.53 15.02 1.38 o
2 -6 5 4.61 4.08 0.43 o
3 -6 5 12.70 10.68 0.78 o
4 -6 5 1.34 2.21 0.32 o
5 -6 5 5.32 4.85 0.64 o
6 -6 5 3.42 4.09 0.49 o
0 -5 5 21.96 20.30 0.88 o
1 -5 5 20.48 21.30 0.85 o
2 -5 5 18.19 17.14 0.49 o
3 -5 5 10.77 10.48 0.45 o
4 -5 5 10.73 9.84 0.44 o
5 -5 5 5.78 4.66 0.35 o
6 -5 5 6.47 5.68 0.53 o
7 -5 5 5.15 4.25 0.71 o
1 -4 5 38.97 39.90 1.74 o
2 -4 5 18.37 22.61 0.97 o
3 -4 5 13.59 13.94 0.48 o
4 -4 5 6.55 8.32 0.44 o
5 -4 5 14.81 16.05 0.65 o
6 -4 5 13.17 12.66 0.50 o
7 -4 5 12.10 11.74 0.65 o
0 -3 5 8.93 9.96 0.46 o
1 -3 5 10.54 11.91 0.51 o
2 -3 5 20.97 24.53 0.84 o
3 -3 5 38.77 43.94 0.73 o
4 -3 5 23.67 22.51 0.63 o
5 -3 5 8.77 7.16 0.69 o
6 -3 5 4.36 3.98 0.46 o
7 -3 5 1.00 0.77 0.30 o
0 -2 5 34.06 35.13 0.68 o
1 -2 5 25.13 28.61 0.53 o
2 -2 5 42.74 47.33 0.54 o
3 -2 5 27.30 30.22 1.17 o
4 -2 5 36.01 37.27 1.11 o
5 -2 5 20.73 21.16 0.57 o
6 -2 5 11.00 9.91 0.81 o
7 -2 5 7.94 8.07 0.55 o
8 -2 5 5.49 4.71 0.66 o
0 -1 5 4.77 5.08 0.34 o
1 -1 5 4.48 3.41 0.27 o
2 -1 5 8.42 9.63 0.37 o
3 -1 5 19.66 19.68 0.45 o
4 -1 5 17.06 18.26 0.60 o
5 -1 5 8.45 6.57 0.35 o
6 -1 5 14.97 13.81 1.04 o
7 -1 5 1.97 1.80 0.39 o
8 -1 5 2.72 2.44 0.47 o
0 0 5 13.84 12.98 0.61 o
1 0 5 14.91 19.24 0.48 o
2 0 5 56.16 60.29 1.25 o
3 0 5 37.05 40.90 0.96 o
4 0 5 68.23 68.66 1.36 o
5 0 5 16.39 16.09 1.27 o
6 0 5 5.51 4.31 0.41 o
7 0 5 2.98 2.43 0.41 o
8 0 5 3.51 3.65 0.42 o
0 1 5 4.84 5.50 0.52 o
1 1 5 4.45 3.41 0.32 o
2 1 5 7.85 8.99 0.54 o
3 1 5 18.90 19.18 0.63 o
4 1 5 16.41 16.00 0.47 o
5 1 5 8.26 7.06 0.46 o
6 1 5 15.06 13.87 0.68 o
7 1 5 2.10 2.63 0.42 o
8 1 5 2.71 1.87 0.37 o
0 2 5 34.75 35.31 1.12 o
1 2 5 25.74 28.19 0.55 o
2 2 5 43.29 46.14 0.68 o
3 2 5 27.96 29.43 0.55 o
4 2 5 36.31 36.39 1.18 o
5 2 5 20.58 19.35 0.50 o
6 2 5 11.00 9.84 0.42 o
7 2 5 7.87 8.34 0.52 o
8 2 5 5.61 5.58 0.52 o
0 3 5 8.94 9.42 0.69 o
1 3 5 10.33 11.23 0.62 o
2 3 5 20.31 21.59 0.64 o
3 3 5 37.82 38.85 0.79 o
4 3 5 22.71 20.41 0.61 o
5 3 5 8.45 6.89 0.52 o
6 3 5 4.17 4.48 0.53 o
7 3 5 1.09 1.55 0.42 o
8 3 5 4.05 4.50 0.72 o
0 4 5 56.23 61.40 0.90 o
1 4 5 39.92 39.96 1.17 o
2 4 5 18.85 20.54 0.52 o
3 4 5 13.75 12.53 0.58 o
4 4 5 6.59 6.52 0.49 o
5 4 5 14.95 14.23 0.64 o
6 4 5 13.46 13.13 0.64 o
7 4 5 12.36 11.21 0.76 o
0 5 5 21.57 18.62 0.60 o
1 5 5 20.24 18.59 0.53 o
2 5 5 18.18 16.38 0.85 o
3 5 5 10.56 10.39 0.73 o
4 5 5 10.62 9.10 0.56 o
5 5 5 5.59 4.11 0.52 o
6 5 5 6.14 4.76 0.50 o
7 5 5 5.08 4.77 0.66 o
0 6 5 11.59 10.93 0.71 o
1 6 5 15.98 15.44 0.43 o
2 6 5 4.74 4.11 0.42 o
3 6 5 12.57 9.90 0.58 o
4 6 5 1.38 1.69 0.36 o
5 6 5 5.42 4.40 0.47 o
6 6 5 3.64 3.35 0.45 o
7 6 5 4.53 3.61 0.64 o
0 7 5 28.91 25.76 1.57 o
1 7 5 15.15 12.84 0.49 o
2 7 5 12.58 10.30 0.59 o
3 7 5 3.04 2.39 0.54 o
4 7 5 4.65 3.66 0.43 o
5 7 5 5.32 5.22 0.50 o
6 7 5 7.38 7.86 0.80 o
0 8 5 4.11 5.92 0.68 o
1 8 5 4.06 4.60 0.39 o
2 8 5 1.12 1.06 0.27 o
3 8 5 5.02 4.87 0.49 o
4 8 5 0.13 0.31 0.25 o
0 9 5 14.01 14.92 0.90 o
1 9 5 6.53 5.85 0.47 o
2 9 5 10.63 10.90 0.90 o
3 9 5 4.18 4.83 0.67 o
0 -6 6 13.46 14.45 0.98 o
1 -6 6 7.38 6.54 0.52 o
2 -6 6 4.77 5.18 0.70 o
3 -6 6 1.90 2.21 0.37 o
0 -5 6 11.31 11.52 0.83 o
1 -5 6 18.99 18.48 0.71 o
2 -5 6 10.81 10.50 0.60 o
3 -5 6 13.06 13.43 0.67 o
4 -5 6 6.67 7.48 0.49 o
5 -5 6 7.20 6.60 0.56 o
0 -4 6 45.42 50.47 1.44 o
1 -4 6 23.55 25.00 0.81 o
2 -4 6 19.83 20.09 0.66 o
3 -4 6 6.85 6.88 0.44 o
4 -4 6 4.57 4.37 0.44 o
5 -4 6 1.37 1.72 0.36 o
0 -3 6 4.89 4.24 0.70 o
1 -3 6 9.47 6.62 0.42 o
2 -3 6 11.25 10.83 0.49 o
3 -3 6 30.50 31.88 0.78 o
4 -3 6 18.45 19.15 0.83 o
5 -3 6 14.68 17.10 0.71 o
0 -2 6 18.01 17.43 0.93 o
1 -2 6 13.90 13.32 0.49 o
2 -2 6 24.37 24.49 1.04 o
3 -2 6 17.32 18.19 0.70 o
4 -2 6 23.60 25.41 0.75 o
5 -2 6 11.42 12.36 0.92 o
0 -1 6 4.95 5.39 0.64 o
1 -1 6 1.91 2.51 0.32 o
2 -1 6 4.11 4.63 0.38 o
3 -1 6 8.95 9.77 0.57 o
4 -1 6 6.05 5.34 0.53 o
5 -1 6 4.34 4.46 0.73 o
6 -1 6 1.71 1.64 0.50 o
0 0 6 2.34 1.78 0.48 o
1 0 6 4.66 3.33 0.42 o
2 0 6 19.84 20.91 0.65 o
3 0 6 24.70 24.32 0.69 o
4 0 6 37.74 41.41 1.29 o
5 0 6 24.71 26.04 1.11 o
6 0 6 7.53 6.84 0.53 o
0 1 6 4.92 4.54 0.67 o
1 1 6 1.65 2.38 0.38 o
2 1 6 3.83 4.02 0.41 o
3 1 6 8.06 7.87 0.54 o
4 1 6 5.57 5.44 0.72 o
5 1 6 3.81 3.92 0.63 o
6 1 6 1.55 1.18 0.50 o
0 2 6 18.79 16.38 0.86 o
1 2 6 14.24 12.91 0.58 o
2 2 6 25.33 26.22 0.87 o
3 2 6 17.81 18.71 1.08 o
4 2 6 24.55 24.89 0.74 o
5 2 6 11.76 13.06 0.91 o
0 3 6 4.46 3.72 0.68 o
1 3 6 8.53 5.73 1.05 o
2 3 6 10.64 9.76 0.63 o
3 3 6 29.13 30.94 1.15 o
4 3 6 17.82 18.40 0.77 o
5 3 6 13.92 14.57 0.63 o
6 3 6 4.83 4.17 0.68 o
0 4 6 46.95 51.47 1.41 o
1 4 6 24.22 24.61 0.77 o
2 4 6 20.86 20.60 0.76 o
3 4 6 7.22 6.27 0.50 o
4 4 6 5.06 4.77 0.51 o
5 4 6 1.48 1.65 0.35 o
0 5 6 10.77 11.19 0.90 o
1 5 6 18.00 16.25 0.74 o
2 5 6 10.36 10.40 0.91 o
3 5 6 12.50 11.80 0.70 o
4 5 6 6.47 5.55 0.48 o
0 6 6 14.29 15.27 0.95 o
1 6 6 7.71 6.73 0.83 o
2 6 6 5.14 4.71 0.47 o
3 6 6 2.02 1.65 0.40 o
2 7 6 4.79 4.99 0.65 o
1 -2 7 0.88 0.88 0.49 o
2 -2 7 14.94 15.35 1.01 o
0 -1 7 0.07 0.47 0.40 o
1 -1 7 9.65 10.25 0.81 o
2 -1 7 4.62 4.80 0.70 o
0 0 7 22.48 22.73 1.05 o
1 0 7 4.72 3.49 0.44 o
2 0 7 9.27 10.53 0.93 o
0 1 7 0.07 0.39 0.38 o
1 1 7 9.76 9.82 0.62 o
2 1 7 4.70 2.72 0.59 o
0 2 7 7.44 6.95 0.78 o
1 2 7 0.84 0.56 0.31 o
2 2 7 14.29 15.06 0.96 o
