#------------------------------------------------------------------------------
#$Date: 2016-03-24 14:07:12 +0200 (Thu, 24 Mar 2016) $
#$Revision: 179652 $
#$URL: svn://www.crystallography.net/cod/cif/4/51/05/4510568.cif $
#------------------------------------------------------------------------------
#
# This file is available in the Crystallography Open Database (COD),
# http://www.crystallography.net/
#
# All data on this site have been placed in the public domain by the
# contributors.
#
data_4510568
loop_
_publ_author_name
'Eccles, Kevin S.'
'Morrison, Robin E.'
'Maguire, Anita R.'
'Lawrence, Simon E.'
_publ_section_title
;
 Crystal Landscape of Primary Aromatic Thioamides
;
_journal_issue                   6
_journal_name_full               'Crystal Growth &amp; Design'
_journal_page_first              2753
_journal_paper_doi               10.1021/cg401891f
_journal_volume                  14
_journal_year                    2014
_chemical_formula_moiety         'C6 H6 N2 S'
_chemical_formula_sum            'C6 H6 N2 S'
_chemical_formula_weight         138.19
_space_group_crystal_system      monoclinic
_space_group_IT_number           14
_space_group_name_Hall           '-P 2ybc'
_space_group_name_H-M_alt        'P 1 21/c 1'
_symmetry_space_group_name_Hall  '-P 2ybc'
_symmetry_space_group_name_H-M   'P 1 21/c 1'
_atom_sites_solution_hydrogens   geom
_atom_sites_solution_primary     direct
_atom_sites_solution_secondary   difmap
_cell_angle_alpha                90
_cell_angle_beta                 93.636(9)
_cell_angle_gamma                90
_cell_formula_units_Z            4
_cell_length_a                   3.8217(17)
_cell_length_b                   10.562(5)
_cell_length_c                   15.907(7)
_cell_measurement_reflns_used    3611
_cell_measurement_temperature    100.(2)
_cell_measurement_theta_max      26.4026
_cell_measurement_theta_min      2.5659
_cell_volume                     640.8(5)
_computing_cell_refinement       'SAINT V7.68A (Bruker AXS, 2009)'
_computing_data_collection
;
'Bruker Instrument Service v2009, 3, 0, 0'
;
_computing_data_reduction        'SAINT V7.68A (Bruker AXS, 2009)'
_computing_molecular_graphics    'Mercury 3.0 (Macrae et al, 2008)'
_computing_structure_refinement  'SHELXL-97 (Sheldrick, 2008)'
_computing_structure_solution    'SHELXS-97 (Sheldrick, 2008)'
_diffrn_ambient_temperature      100.(2)
_diffrn_detector_area_resol_mean 8.3333
_diffrn_measured_fraction_theta_full 0.983
_diffrn_measured_fraction_theta_max 0.983
_diffrn_measurement_device_type  'Bruker APEX II DUO'
_diffrn_measurement_method       '\f & \w  scans'
_diffrn_radiation_monochromator  graphite
_diffrn_radiation_source         'fine-focus sealed tube'
_diffrn_radiation_type           MoK\a
_diffrn_radiation_wavelength     0.71073
_diffrn_reflns_av_R_equivalents  0.0290
_diffrn_reflns_av_sigmaI/netI    0.0216
_diffrn_reflns_limit_h_max       4
_diffrn_reflns_limit_h_min       -4
_diffrn_reflns_limit_k_max       12
_diffrn_reflns_limit_k_min       -12
_diffrn_reflns_limit_l_max       19
_diffrn_reflns_limit_l_min       -19
_diffrn_reflns_number            6704
_diffrn_reflns_theta_full        26.50
_diffrn_reflns_theta_max         26.50
_diffrn_reflns_theta_min         2.32
_exptl_absorpt_coefficient_mu    0.402
_exptl_absorpt_correction_T_max  0.7454
_exptl_absorpt_correction_T_min  0.6093
_exptl_absorpt_correction_type   multi-scan
_exptl_absorpt_process_details   'SADABS V2008/1 (Bruker AXS)'
_exptl_crystal_colour            'clear yellow'
_exptl_crystal_density_diffrn    1.432
_exptl_crystal_density_method    'not measured'
_exptl_crystal_description       Block
_exptl_crystal_F_000             288
_exptl_crystal_size_max          0.230
_exptl_crystal_size_mid          0.110
_exptl_crystal_size_min          0.080
_refine_diff_density_max         0.363
_refine_diff_density_min         -0.368
_refine_ls_extinction_method     none
_refine_ls_goodness_of_fit_ref   1.052
_refine_ls_hydrogen_treatment    mixed
_refine_ls_matrix_type           full
_refine_ls_number_parameters     90
_refine_ls_number_reflns         1308
_refine_ls_number_restraints     0
_refine_ls_restrained_S_all      1.052
_refine_ls_R_factor_all          0.0368
_refine_ls_R_factor_gt           0.0313
_refine_ls_shift/su_max          0.001
_refine_ls_shift/su_mean         0.000
_refine_ls_structure_factor_coef Fsqd
_refine_ls_weighting_details
'calc w=1/[\s^2^(Fo^2^)+(0.0406P)^2^+0.4869P] where P=(Fo^2^+2Fc^2^)/3'
_refine_ls_weighting_scheme      calc
_refine_ls_wR_factor_gt          0.0797
_refine_ls_wR_factor_ref         0.0840
_reflns_number_gt                1163
_reflns_number_total             1308
_reflns_threshold_expression     >2sigma(I)
_iucr_refine_instructions_details
;
TITL mo_SEL_KE_4N_TBA_acetone_0m in P2(1)/c
CELL 0.71073   3.8217  10.5615  15.9075  90.000  93.636  90.000
ZERR    4.00   0.0017   0.0045   0.0069   0.000   0.009   0.000
LATT 1
SYMM -X, 0.5+Y, 0.5-Z
SFAC C  H  N  S  
UNIT 24  24  8  4  
L.S. 10
ACTA 
BOND $H
FMAP 2
PLAN 20
HTAB N9 N4_$2
HTAB N9 S8_$1
EQIV $2_[ -x+1, y-1/2, -z+3/2 ]
EQIV $1_[ -x+2, -y+1, -z+2 ]
CONF
WGHT   0.040600   0.000000 
FVAR 0.218800 
TEMP -173.140
MOLE 1
C1     1   0.794150   0.801089   0.869044  11.000000   0.014000 = 
           0.017330   0.014170   0.000710  -0.003020  -0.001360
C2     1   0.821915   0.787080   0.782344  11.000000   0.019600 = 
           0.016980   0.015460  -0.001600  -0.000590   0.000190
AFIX 43
H2     2   0.905569   0.710302   0.759832  11.000000  -1.200000
AFIX 0
C3     1   0.724844   0.887544   0.729949  11.000000   0.024080 = 
           0.021680   0.013240   0.000260  -0.001160  -0.001630
AFIX 43
H3     2   0.743717   0.877226   0.671083  11.000000  -1.200000
AFIX 0
N4     3   0.605836   0.998463   0.757492  11.000000   0.024850 = 
           0.018340   0.016200   0.001940  -0.004270  -0.000680
C5     1   0.587303   1.011655   0.841275  11.000000   0.021920 = 
           0.016890   0.018310  -0.001960  -0.002100   0.000720
AFIX 43
H5     2   0.504766   1.089691   0.862165  11.000000  -1.200000
AFIX 0
C6     1   0.682947   0.916760   0.898656  11.000000   0.021370 = 
           0.019090   0.012950  -0.001610  -0.002030  -0.000410
AFIX 43
H6     2   0.672279   0.930955   0.957410  11.000000  -1.200000
AFIX 0
C7     1   0.876482   0.693290   0.927973  11.000000   0.014930 = 
           0.019190   0.012990   0.000170   0.000240  -0.000080
S8     4   1.079350   0.717636   1.022943  11.000000   0.022690 = 
           0.019900   0.012400   0.000700  -0.005280  -0.001160
H9A    2   0.813778   0.509482   0.926648  11.000000   0.026720
H9B    2   0.668634   0.569791   0.849807  11.000000   0.037850
N9     3   0.780369   0.580963   0.898079  11.000000   0.028570 = 
           0.016570   0.013840   0.000670  -0.005950   0.001550
HKLF 4
END 
Q1     1   0.895900   0.688100   1.050300  11.000000   0.050000 0.360000
Q2     1   1.281400   0.703500   0.991000  11.000000   0.050000 0.290000
Q3     1   0.829300   0.752800   0.893100  11.000000   0.050000 0.290000
Q4     1   1.277100   0.756300   0.997300  11.000000   0.050000 0.280000
Q5     1   0.659500   0.847300   0.880500  11.000000   0.050000 0.270000
Q6     1   0.822200   0.873500   0.879800  11.000000   0.050000 0.270000
Q7     1   0.561600   0.931600   0.751500  11.000000   0.050000 0.230000
Q8     1   0.815700   0.795100   0.830800  11.000000   0.050000 0.220000
Q9     1   0.529300   0.957200   0.872500  11.000000   0.050000 0.210000
Q10    1   0.589000   1.001300   0.796200  11.000000   0.050000 0.200000
Q11    1   0.821800   0.839900   0.756700  11.000000   0.050000 0.200000
Q12    1   0.717800   0.638900   0.922100  11.000000   0.050000 0.200000
Q13    1   0.729300   0.970600   0.868900  11.000000   0.050000 0.190000
Q14    1   0.757600   0.955000   0.746500  11.000000   0.050000 0.190000
Q15    1   0.664400   0.831300   0.755500  11.000000   0.050000 0.190000
Q16    1   1.096400   0.624800   1.048000  11.000000   0.050000 0.170000
Q17    1   1.107400   0.815800   1.024400  11.000000   0.050000 0.170000
Q18    1   0.619300   0.915400   0.917000  11.000000   0.050000 0.160000
Q19    1   0.521600   1.045400   0.733000  11.000000   0.050000 0.160000
Q20    1   0.452500   1.059100   0.854200  11.000000   0.050000 0.150000
HKLF 4
REM  mo_SEL_KE_4N_TBA_acetone_0m in P2(1)/c
REM R1=  0.0313 for   1163 Fo > 4sig(Fo)  and  0.0368 for all   1308 data
REM     90 parameters refined using      0 restraints
;
_cod_data_source_file            cg401891f_si_003.cif
_cod_data_source_block           Compound_15
_cod_depositor_comments
'Adding full bibliography for 4510565--4510578.cif.'
_cod_database_code               4510568
loop_
_space_group_symop_operation_xyz
'x, y, z'
'-x, y+1/2, -z+1/2'
'-x, -y, -z'
'x, -y-1/2, z-1/2'
loop_
_atom_site_type_symbol
_atom_site_label
_atom_site_fract_x
_atom_site_fract_y
_atom_site_fract_z
_atom_site_U_iso_or_equiv
_atom_site_adp_type
_atom_site_calc_flag
_atom_site_refinement_flags
_atom_site_occupancy
C C1 0.7942(4) 0.80109(16) 0.86904(10) 0.0153(3) Uani d . 1
C C2 0.8219(4) 0.78708(16) 0.78234(10) 0.0174(3) Uani d . 1
H H2 0.9056 0.7103 0.7598 0.021 Uiso calc R 1
C C3 0.7248(4) 0.88754(17) 0.72995(10) 0.0198(4) Uani d . 1
H H3 0.7437 0.8772 0.6711 0.024 Uiso calc R 1
N N4 0.6058(4) 0.99846(14) 0.75749(8) 0.0200(3) Uani d . 1
C C5 0.5873(4) 1.01165(17) 0.84127(10) 0.0192(4) Uani d . 1
H H5 0.5048 1.0897 0.8622 0.023 Uiso calc R 1
C C6 0.6829(4) 0.91676(16) 0.89866(10) 0.0179(4) Uani d . 1
H H6 0.6723 0.931 0.9574 0.022 Uiso calc R 1
C C7 0.8765(4) 0.69329(16) 0.92797(10) 0.0157(3) Uani d . 1
S S8 1.07935(11) 0.71764(4) 1.02294(2) 0.01860(16) Uani d . 1
H H9A 0.814(6) 0.509(2) 0.9266(13) 0.027(5) Uiso d . 1
H H9B 0.669(6) 0.570(2) 0.8498(15) 0.038(6) Uiso d . 1
N N9 0.7804(4) 0.58096(15) 0.89808(9) 0.0200(3) Uani d . 1
loop_
_atom_site_aniso_label
_atom_site_aniso_U_11
_atom_site_aniso_U_22
_atom_site_aniso_U_33
_atom_site_aniso_U_12
_atom_site_aniso_U_13
_atom_site_aniso_U_23
C1 0.0140(7) 0.0173(8) 0.0142(7) -0.0014(6) -0.0030(6) 0.0007(6)
C2 0.0196(8) 0.0170(8) 0.0155(8) 0.0002(7) -0.0006(6) -0.0016(6)
C3 0.0241(9) 0.0217(9) 0.0132(7) -0.0016(7) -0.0012(6) 0.0003(6)
N4 0.0249(8) 0.0183(7) 0.0162(7) -0.0007(6) -0.0043(5) 0.0019(5)
C5 0.0219(8) 0.0169(8) 0.0183(8) 0.0007(7) -0.0021(6) -0.0020(6)
C6 0.0214(8) 0.0191(9) 0.0130(7) -0.0004(7) -0.0020(6) -0.0016(6)
C7 0.0149(7) 0.0192(8) 0.0130(7) -0.0001(7) 0.0002(6) 0.0002(6)
S8 0.0227(2) 0.0199(3) 0.0124(2) -0.00116(17) -0.00528(15) 0.00070(14)
N9 0.0286(8) 0.0166(8) 0.0138(7) 0.0016(6) -0.0059(6) 0.0007(6)
loop_
_atom_type_symbol
_atom_type_description
_atom_type_scat_dispersion_real
_atom_type_scat_dispersion_imag
_atom_type_scat_source
C C 0.0033 0.0016 'International Tables Vol C Tables 4.2.6.8 and 6.1.1.4'
H H 0.0000 0.0000 'International Tables Vol C Tables 4.2.6.8 and 6.1.1.4'
N N 0.0061 0.0033 'International Tables Vol C Tables 4.2.6.8 and 6.1.1.4'
S S 0.1246 0.1234 'International Tables Vol C Tables 4.2.6.8 and 6.1.1.4'
loop_
_geom_angle_atom_site_label_1
_geom_angle_atom_site_label_2
_geom_angle_atom_site_label_3
_geom_angle
C6 C1 C2 118.22(15)
C6 C1 C7 120.99(14)
C2 C1 C7 120.78(15)
C3 C2 C1 118.58(16)
C3 C2 H2 120.7
C1 C2 H2 120.7
N4 C3 C2 123.80(15)
N4 C3 H3 118.1
C2 C3 H3 118.1
C3 N4 C5 117.02(14)
N4 C5 C6 123.21(16)
N4 C5 H5 118.4
C6 C5 H5 118.4
C1 C6 C5 119.10(15)
C1 C6 H6 120.4
C5 C6 H6 120.4
N9 C7 C1 114.53(14)
N9 C7 S8 124.40(13)
C1 C7 S8 121.06(13)
C7 N9 H9A 123.5(14)
C7 N9 H9B 123.6(17)
H9A N9 H9B 113.(2)
loop_
_geom_bond_atom_site_label_1
_geom_bond_atom_site_label_2
_geom_bond_distance
C1 C6 1.386(2)
C1 C2 1.398(2)
C1 C7 1.496(2)
C2 C3 1.385(2)
C2 H2 0.95
C3 N4 1.340(2)
C3 H3 0.95
N4 C5 1.346(2)
C5 C6 1.389(2)
C5 H5 0.95
C6 H6 0.95
C7 N9 1.321(2)
C7 S8 1.6736(17)
N9 H9A 0.89(2)
N9 H9B 0.86(2)
loop_
_geom_hbond_atom_site_label_D
_geom_hbond_atom_site_label_H
_geom_hbond_atom_site_label_A
_geom_hbond_site_symmetry_A
_geom_hbond_distance_DH
_geom_hbond_distance_HA
_geom_hbond_distance_DA
_geom_hbond_angle_DHA
N9 H9A S8 3_767 0.89(2) 2.55(2) 3.424(2) 167.4(18)
N9 H9B N4 2_646 0.86(2) 2.09(3) 2.932(2) 166.(2)
loop_
_geom_torsion_atom_site_label_1
_geom_torsion_atom_site_label_2
_geom_torsion_atom_site_label_3
_geom_torsion_atom_site_label_4
_geom_torsion
C6 C1 C2 C3 -2.4(2)
C7 C1 C2 C3 176.60(15)
C1 C2 C3 N4 0.2(3)
C2 C3 N4 C5 1.2(3)
C3 N4 C5 C6 -0.3(3)
C2 C1 C6 C5 3.1(2)
C7 C1 C6 C5 -175.82(15)
N4 C5 C6 C1 -1.9(3)
C6 C1 C7 N9 142.14(17)
C2 C1 C7 N9 -36.8(2)
C6 C1 C7 S8 -38.7(2)
C2 C1 C7 S8 142.40(14)
