#------------------------------------------------------------------------------
#$Date: 2016-02-16 22:30:59 +0200 (Tue, 16 Feb 2016) $
#$Revision: 176467 $
#$URL: svn://www.crystallography.net/cod/cif/4/51/05/4510584.cif $
#------------------------------------------------------------------------------
#
# This file is available in the Crystallography Open Database (COD),
# http://www.crystallography.net/
#
# All data on this site have been placed in the public domain by the
# contributors.
#
data_4510584
loop_
_publ_author_name
'Kupka, A.'
'Schauerte, C.'
'Merz, K.'
_publ_section_title
;
 Isostructural Crystallization Behavior of Dihydroanthracene and
 Dihydroacridine
;
_journal_issue                   6
_journal_name_full               'Crystal Growth &amp; Design'
_journal_page_first              2985
_journal_paper_doi               10.1021/cg5002623
_journal_volume                  14
_journal_year                    2014
_chemical_formula_sum            'C27.4 H23 N0.6'
_chemical_formula_weight         360.66
_chemical_name_systematic
; 
 ? 
;
_space_group_IT_number           4
_symmetry_cell_setting           monoclinic
_symmetry_space_group_name_Hall  'P 2yb'
_symmetry_space_group_name_H-M   'P 1 21 1'
_atom_sites_solution_hydrogens   geom
_atom_sites_solution_primary     direct
_atom_sites_solution_secondary   difmap
_audit_creation_method           SHELXL-97
_cell_angle_alpha                90.00
_cell_angle_beta                 107.694(17)
_cell_angle_gamma                90.00
_cell_formula_units_Z            1
_cell_length_a                   7.749(16)
_cell_length_b                   6.056(12)
_cell_length_c                   10.71(2)
_cell_measurement_temperature    173(2)
_cell_volume                     478.8(16)
_computing_structure_refinement  'SHELXL-97 (Sheldrick, 1997)'
_computing_structure_solution    'SHELXS-97 (Sheldrick, 1990)'
_diffrn_ambient_temperature      173(2)
_diffrn_measured_fraction_theta_full 0.993
_diffrn_measured_fraction_theta_max 0.993
_diffrn_radiation_monochromator  graphite
_diffrn_radiation_source         'fine-focus sealed tube'
_diffrn_radiation_type           MoK\a
_diffrn_radiation_wavelength     0.71073
_diffrn_reflns_av_R_equivalents  0.0720
_diffrn_reflns_av_sigmaI/netI    0.0789
_diffrn_reflns_limit_h_max       9
_diffrn_reflns_limit_h_min       -9
_diffrn_reflns_limit_k_max       7
_diffrn_reflns_limit_k_min       -7
_diffrn_reflns_limit_l_max       12
_diffrn_reflns_limit_l_min       -12
_diffrn_reflns_number            4075
_diffrn_reflns_theta_full        25.00
_diffrn_reflns_theta_max         25.00
_diffrn_reflns_theta_min         2.76
_exptl_absorpt_coefficient_mu    0.071
_exptl_absorpt_correction_T_max  0.9929
_exptl_absorpt_correction_T_min  0.9859
_exptl_crystal_density_diffrn    1.251
_exptl_crystal_density_method    'not measured'
_exptl_crystal_F_000             192
_exptl_crystal_size_max          0.20
_exptl_crystal_size_mid          0.10
_exptl_crystal_size_min          0.10
_refine_diff_density_max         0.145
_refine_diff_density_min         -0.159
_refine_diff_density_rms         0.037
_refine_ls_abs_structure_details 'Flack H D (1983), Acta Cryst. A39, 876-881'
_refine_ls_abs_structure_Flack   -4(10)
_refine_ls_extinction_coef       0.09(2)
_refine_ls_extinction_expression Fc^*^=kFc[1+0.001xFc^2^\l^3^/sin(2\q)]^-1/4^
_refine_ls_extinction_method     SHELXL
_refine_ls_goodness_of_fit_ref   1.015
_refine_ls_hydrogen_treatment    mixed
_refine_ls_matrix_type           full
_refine_ls_number_parameters     177
_refine_ls_number_reflns         1689
_refine_ls_number_restraints     7
_refine_ls_restrained_S_all      1.013
_refine_ls_R_factor_all          0.0696
_refine_ls_R_factor_gt           0.0503
_refine_ls_shift/su_max          0.000
_refine_ls_shift/su_mean         0.000
_refine_ls_structure_factor_coef Fsqd
_refine_ls_weighting_details
'calc w=1/[\s^2^(Fo^2^)+(0.0502P)^2^+0.0000P] where P=(Fo^2^+2Fc^2^)/3'
_refine_ls_weighting_scheme      calc
_refine_ls_wR_factor_gt          0.1035
_refine_ls_wR_factor_ref         0.1149
_reflns_number_gt                1335
_reflns_number_total             1689
_reflns_threshold_expression     >2sigma(I)
_cod_data_source_file            cg5002623_si_005.cif
_cod_data_source_block           shelx
_cod_depositor_comments
'Adding full bibliography for 4510584--4510586.cif.'
_cod_original_cell_volume        478.8(17)
_cod_original_sg_symbol_H-M      P2(1)
_cod_original_formula_sum        'C27.40 H23 N0.60'
_cod_database_code               4510584
loop_
_symmetry_equiv_pos_as_xyz
'x, y, z'
'-x, y+1/2, -z'
loop_
_atom_site_label
_atom_site_type_symbol
_atom_site_fract_x
_atom_site_fract_y
_atom_site_fract_z
_atom_site_U_iso_or_equiv
_atom_site_adp_type
_atom_site_occupancy
_atom_site_symmetry_multiplicity
_atom_site_calc_flag
_atom_site_refinement_flags
C4 C 1.0709(4) 1.2111(5) 1.4134(2) 0.0388(7) Uani 1 1 d .
H4 H 1.012(3) 1.357(5) 1.420(2) 0.040(7) Uiso 1 1 d .
C3 C 1.2396(4) 1.1554(5) 1.4974(3) 0.0448(7) Uani 1 1 d .
H3 H 1.306(4) 1.261(5) 1.573(3) 0.045(8) Uiso 1 1 d .
C2 C 1.3175(4) 0.9546(5) 1.4847(3) 0.0440(8) Uani 1 1 d .
H2 H 1.440(3) 0.914(4) 1.547(2) 0.033(7) Uiso 1 1 d .
C1 C 1.2273(3) 0.8070(5) 1.3856(3) 0.0418(7) Uani 1 1 d .
H1 H 1.286(4) 0.655(6) 1.375(3) 0.058(9) Uiso 1 1 d .
C6 C 1.0583(3) 0.8618(4) 1.3002(2) 0.0359(7) Uani 1 1 d .
C13 C 0.8380(3) 0.8107(5) 1.0803(3) 0.0375(7) Uani 1 1 d .
C12 C 0.8019(4) 0.7073(6) 0.9575(3) 0.0432(7) Uani 1 1 d .
H12 H 0.862(4) 0.561(6) 0.948(3) 0.064(10) Uiso 1 1 d .
C11 C 0.6847(4) 0.8051(6) 0.8466(3) 0.0478(8) Uani 1 1 d .
H11 H 0.655(4) 0.717(6) 0.749(3) 0.064(10) Uiso 1 1 d .
C10 C 0.6049(4) 1.0076(6) 0.8575(3) 0.0480(8) Uani 1 1 d .
H10 H 0.515(4) 1.080(5) 0.771(3) 0.052(9) Uiso 1 1 d .
C9 C 0.6424(4) 1.1113(5) 0.9786(3) 0.0411(7) Uani 1 1 d .
H9 H 0.590(4) 1.255(5) 0.992(3) 0.051(9) Uiso 1 1 d .
C8 C 0.7569(3) 1.0140(4) 1.0906(3) 0.0341(6) Uani 1 1 d .
C5 C 0.9785(3) 1.0642(4) 1.3146(2) 0.0369(7) Uani 1 1 d .
C7 C 0.7918(4) 1.1151(5) 1.2247(3) 0.0425(7) Uani 1 1 d .
H7A H 0.770(4) 1.284(6) 1.213(3) 0.065(10) Uiso 1 1 d .
H7B H 0.692(5) 1.038(8) 1.273(3) 0.100(12) Uiso 1 1 d .
N1 N 0.9805(19) 0.729(3) 1.1858(14) 0.035(4) Uani 0.30 1 d PU
H1A H 1.0224 0.5948 1.1816 0.042 Uiso 0.50 1 calc PR
C14 C 0.9498(10) 0.7005(12) 1.2039(7) 0.0351(13) Uani 0.70 1 d P
H14A H 0.8689 0.6188 1.2435 0.042 Uiso 0.50 1 calc PR
H14B H 1.0322 0.5923 1.1823 0.042 Uiso 0.50 1 calc PR
loop_
_atom_site_aniso_label
_atom_site_aniso_U_11
_atom_site_aniso_U_22
_atom_site_aniso_U_33
_atom_site_aniso_U_23
_atom_site_aniso_U_13
_atom_site_aniso_U_12
C4 0.0427(15) 0.0423(17) 0.0321(14) -0.0029(13) 0.0122(12) 0.0007(15)
C3 0.0441(15) 0.055(2) 0.0344(14) -0.0063(15) 0.0110(13) -0.0064(14)
C2 0.0310(14) 0.063(2) 0.0333(15) -0.0005(15) 0.0024(13) 0.0016(13)
C1 0.0372(14) 0.0488(18) 0.0384(15) 0.0029(15) 0.0102(12) 0.0065(15)
C6 0.0342(13) 0.0390(18) 0.0329(15) 0.0012(13) 0.0076(12) 0.0036(12)
C13 0.0333(12) 0.0385(16) 0.0390(16) -0.0013(13) 0.0086(11) -0.0022(14)
C12 0.0390(14) 0.0492(18) 0.0444(16) -0.0077(15) 0.0172(13) -0.0020(15)
C11 0.0420(15) 0.067(2) 0.0370(17) -0.0065(16) 0.0152(13) -0.0053(16)
C10 0.0389(16) 0.071(2) 0.0332(15) 0.0043(17) 0.0100(13) 0.0022(17)
C9 0.0340(14) 0.0473(19) 0.0409(16) 0.0052(13) 0.0095(13) 0.0015(14)
C8 0.0303(13) 0.0376(16) 0.0341(14) -0.0001(13) 0.0093(12) -0.0022(13)
C5 0.0350(14) 0.0431(17) 0.0332(14) -0.0008(13) 0.0114(12) 0.0034(13)
C7 0.0416(15) 0.0410(17) 0.0380(15) -0.0077(13) 0.0020(13) 0.0083(14)
N1 0.035(4) 0.035(4) 0.036(4) -0.0001(10) 0.0108(16) 0.0003(10)
C14 0.041(3) 0.029(3) 0.035(3) 0.002(2) 0.010(3) 0.007(2)
loop_
_atom_type_symbol
_atom_type_description
_atom_type_scat_dispersion_real
_atom_type_scat_dispersion_imag
_atom_type_scat_source
C C 0.0033 0.0016 'International Tables Vol C Tables 4.2.6.8 and 6.1.1.4'
H H 0.0000 0.0000 'International Tables Vol C Tables 4.2.6.8 and 6.1.1.4'
N N 0.0061 0.0033 'International Tables Vol C Tables 4.2.6.8 and 6.1.1.4'
loop_
_geom_angle_atom_site_label_1
_geom_angle_atom_site_label_2
_geom_angle_atom_site_label_3
_geom_angle
C3 C4 C5 120.1(3)
C2 C3 C4 120.3(3)
C3 C2 C1 120.2(3)
C6 C1 C2 120.0(3)
C1 C6 C5 119.7(3)
C1 C6 N1 119.6(7)
C5 C6 N1 119.9(7)
C1 C6 C14 121.5(4)
C5 C6 C14 118.5(4)
N1 C6 C14 15.2(7)
C8 C13 C12 119.9(3)
C8 C13 N1 120.5(7)
C12 C13 N1 118.5(7)
C8 C13 C14 118.3(4)
C12 C13 C14 121.6(4)
N1 C13 C14 14.9(7)
C11 C12 C13 120.1(3)
C12 C11 C10 119.7(3)
C9 C10 C11 120.2(3)
C8 C9 C10 120.8(3)
C9 C8 C13 119.3(3)
C9 C8 C7 122.2(3)
C13 C8 C7 118.5(2)
C4 C5 C6 119.8(2)
C4 C5 C7 121.6(3)
C6 C5 C7 118.6(2)
C5 C7 C8 112.6(2)
C13 N1 C6 120.7(13)
C6 C14 C13 112.0(5)
loop_
_geom_bond_atom_site_label_1
_geom_bond_atom_site_label_2
_geom_bond_distance
C4 C3 1.384(4)
C4 C5 1.401(4)
C3 C2 1.383(5)
C2 C1 1.401(4)
C1 C6 1.390(4)
C6 C5 1.403(4)
C6 N1 1.437(17)
C6 C14 1.483(8)
C13 C8 1.401(4)
C13 C12 1.406(4)
C13 N1 1.409(16)
C13 C14 1.501(8)
C12 C11 1.389(5)
C11 C10 1.394(5)
C10 C9 1.390(5)
C9 C8 1.388(4)
C8 C7 1.509(5)
C5 C7 1.506(4)
