#------------------------------------------------------------------------------
#$Date: 2016-03-24 14:07:12 +0200 (Thu, 24 Mar 2016) $
#$Revision: 179652 $
#$URL: svn://www.crystallography.net/cod/cif/4/51/05/4510539.cif $
#------------------------------------------------------------------------------
#
# This file is available in the Crystallography Open Database (COD),
# http://www.crystallography.net/
#
# All data on this site have been placed in the public domain by the
# contributors.
#
data_4510539
loop_
_publ_author_name
'Mazur, Liliana'
'Jarzembska, Katarzyna N.'
'Kami\'nski, Rados\/law'
'Wo\'zniak, Krzysztof'
'Pindelska, Edyta'
'Zieli\'nska-Pisklak, Monika'
_publ_section_title
;
 Substituent and Solvent Effects on Intermolecular Interactions in
 Crystals ofN-Acylhydrazone Derivatives: Single-Crystal X-ray, Solid-State
 NMR, and Computational Studies
;
_journal_issue                   5
_journal_name_full               'Crystal Growth &amp; Design'
_journal_page_first              2263
_journal_paper_doi               10.1021/cg401866x
_journal_volume                  14
_journal_year                    2014
_chemical_formula_moiety         'C7 H7 N3 O, H2 O'
_chemical_formula_sum            'C7 H9 N3 O2'
_chemical_formula_weight         167.17
_space_group_IT_number           2
_symmetry_cell_setting           triclinic
_symmetry_Int_Tables_number      2
_symmetry_space_group_name_Hall  '-P 1'
_symmetry_space_group_name_H-M   'P -1'
_cell_angle_alpha                72.412(8)
_cell_angle_beta                 86.116(7)
_cell_angle_gamma                69.625(8)
_cell_formula_units_Z            2
_cell_length_a                   6.4717(5)
_cell_length_b                   7.9214(7)
_cell_length_c                   8.6745(7)
_cell_measurement_temperature    100
_cell_volume                     397.04(6)
_diffrn_ambient_temperature      100
_diffrn_measured_fraction_theta_full 0.985
_diffrn_measured_fraction_theta_max 0.985
_diffrn_measurement_device_type  'Xcalibur, Sapphire2, large Be window'
_diffrn_measurement_method       \w-scans
_diffrn_radiation_monochromator  graphite
_diffrn_radiation_source         'Enhance (Mo) X-ray Source'
_diffrn_radiation_type           Mo-K\a
_diffrn_radiation_wavelength     0.71073
_diffrn_reflns_av_R_equivalents  0.0171
_diffrn_reflns_limit_h_max       8
_diffrn_reflns_limit_h_min       -8
_diffrn_reflns_limit_k_max       10
_diffrn_reflns_limit_k_min       -9
_diffrn_reflns_limit_l_max       10
_diffrn_reflns_limit_l_min       -11
_diffrn_reflns_number            2760
_diffrn_reflns_theta_full        27.97
_diffrn_reflns_theta_max         27.965
_diffrn_reflns_theta_min         2.874
_exptl_absorpt_coefficient_mu    0.106
_exptl_absorpt_correction_T_max  1.000
_exptl_absorpt_correction_T_min  0.97888
_exptl_absorpt_correction_type   multi-scan
_exptl_absorpt_process_details
;
 Agilent Technologies (2013). CRYSALIS PRO.
  Yarnton, Oxfordshire, England, UK
;
_exptl_crystal_colour            colourless
_exptl_crystal_density_diffrn    1.399
_exptl_crystal_description       plate
_exptl_crystal_F_000             176
_exptl_crystal_size_max          0.41
_exptl_crystal_size_mid          0.18
_exptl_crystal_size_min          0.06
_refine_diff_density_max         0.15
_refine_diff_density_min         -0.17
_refine_ls_extinction_method     none
_refine_ls_goodness_of_fit_ref   1.221
_refine_ls_hydrogen_treatment    mixed
_refine_ls_number_parameters     145
_refine_ls_number_reflns         1250
_refine_ls_number_restraints     18
_refine_ls_R_factor_all          0.0265
_refine_ls_R_factor_gt           0.0265
_refine_ls_shift/su_max          0.000
_refine_ls_shift/su_mean         0.000
_refine_ls_structure_factor_coef F
_refine_ls_weighting_scheme      sigma
_refine_ls_wR_factor_gt          0.0281
_refine_ls_wR_factor_ref         0.0281
_reflns_number_gt                1250
_reflns_number_total             1883
_reflns_threshold_expression     I>3\s(I)
_iucr_refine_instructions_details
;
 Structure refined in MOPRO program. Aspherical strucure factors
 were used from the UBDB.
;
_cod_data_source_file            cg401866x_si_003.cif
_cod_data_source_block           1xH2O
_cod_depositor_comments
'Adding full bibliography for 4510538--4510545.cif.'
_cod_database_code               4510539
loop_
_symmetry_equiv_pos_as_xyz
'x, y, z'
'-x, -y, -z'
loop_
_atom_site_type_symbol
_atom_site_label
_atom_site_fract_x
_atom_site_fract_y
_atom_site_fract_z
_atom_site_U_iso_or_equiv
_atom_site_adp_type
_atom_site_occupancy
_atom_site_calc_flag
_atom_site_refinement_flag_posn
C C1 -0.1122(2) 0.7929(2) 0.3984(1) 0.0143(3) Uani 1 d .
C C2 0.3814(2) 0.6733(2) 0.6064(1) 0.0131(2) Uani 1 d .
C C3 0.5349(2) 0.5238(2) 0.7341(1) 0.0127(2) Uani 1 d .
C C4 0.4979(2) 0.3577(2) 0.8207(1) 0.0156(3) Uani 1 d .
C C5 0.6522(2) 0.2253(2) 0.9402(1) 0.0186(3) Uani 1 d .
C C6 0.8411(2) 0.2600(2) 0.9679(1) 0.0184(3) Uani 1 d .
C C7 0.8660(2) 0.4271(2) 0.8731(1) 0.0172(3) Uani 1 d .
N N1 0.0787(1) 0.8017(1) 0.4412(1) 0.0136(2) Uani 1 d .
N N2 0.2071(2) 0.6549(1) 0.5636(1) 0.0134(2) Uani 1 d .
N N3 0.7166(2) 0.5579(1) 0.7606(1) 0.0144(2) Uani 1 d .
O O1 -0.2417(1) 0.9173(1) 0.29224(10) 0.0176(2) Uani 1 d .
H H1 -0.141(1) 0.6650(7) 0.468(1) 0.0162(2) Uiso 1 d U
H H1N 0.122(1) 0.9168(8) 0.380(1) 0.0193(2) Uiso 1 d U
H H2 0.428(1) 0.7966(7) 0.555(1) 0.0153(2) Uiso 1 d U
H H4 0.3538(8) 0.330(1) 0.794(1) 0.0182(2) Uiso 1 d U
H H5 0.626(1) 0.0963(7) 1.010(1) 0.0209(3) Uiso 1 d U
H H6 0.960(1) 0.160(1) 1.0632(8) 0.0201(2) Uiso 1 d U
H H7 1.0133(8) 0.457(1) 0.887(1) 0.0206(2) Uiso 1 d U
O O1W 0.2909(1) 1.0674(1) 0.2812(1) 0.0200(2) Uani 1 d .
H H1W 0.4453(6) 1.005(2) 0.272(2) 0.0300(4) Uiso 1 d U
H H2W 0.271(2) 1.1944(6) 0.277(2) 0.0300(4) Uiso 1 d U
loop_
_atom_site_aniso_label
_atom_site_aniso_U_11
_atom_site_aniso_U_22
_atom_site_aniso_U_33
_atom_site_aniso_U_12
_atom_site_aniso_U_13
_atom_site_aniso_U_23
C1 0.0130(6) 0.0126(6) 0.0148(7) -0.0040(5) -0.0017(5) -0.0007(5)
C2 0.0125(6) 0.0112(6) 0.0145(6) -0.0039(5) -0.0023(5) -0.0017(5)
C3 0.0121(6) 0.0123(6) 0.0122(6) -0.0031(5) -0.0019(4) -0.0023(5)
C4 0.0142(6) 0.0148(6) 0.0163(6) -0.0058(5) -0.0017(5) -0.0010(5)
C5 0.0210(7) 0.0154(7) 0.0156(7) -0.0052(5) -0.0027(5) 0.00034(49)
C6 0.0180(6) 0.0175(7) 0.0146(7) -0.0006(5) -0.0050(5) -0.0028(5)
C7 0.0135(6) 0.0208(7) 0.0169(7) -0.0039(5) -0.0046(5) -0.0063(5)
N1 0.0127(5) 0.0125(5) 0.0134(5) -0.0031(4) -0.0024(4) -0.0017(4)
N2 0.0123(5) 0.0131(5) 0.0138(5) -0.0043(4) -0.0015(4) -0.0021(4)
N3 0.0134(5) 0.0149(5) 0.0152(5) -0.0051(4) -0.0016(4) -0.0041(4)
O1 0.0131(4) 0.0183(5) 0.0175(5) -0.0044(4) -0.0044(4) -0.00016(37)
O1W 0.0173(4) 0.0163(5) 0.0264(5) -0.0078(4) 0.0007(4) -0.0039(4)
loop_
_atom_type_symbol
_atom_type_description
_atom_type_scat_dispersion_real
_atom_type_scat_dispersion_imag
_atom_type_scat_source
C C 0.0030 0.0020 'Su & Coppens, Acta. Cryst. (1997) A53, 749'
H H 0.0000 0.0000 'Su & Coppens, Acta. Cryst. (1997) A53, 749'
N N 0.0060 0.0030 'Su & Coppens, Acta. Cryst. (1997) A53, 749'
O O 0.0110 0.0060 'Su & Coppens, Acta. Cryst. (1997) A53, 749'
loop_
_geom_angle_atom_site_label_1
_geom_angle_atom_site_label_2
_geom_angle_atom_site_label_3
_geom_angle
C1 N1 N2 117.96(10)
C1 N1 H1N 118.6(6)
C2 N2 N1 116.0(1)
C2 C3 N3 114.73(10)
C2 C3 C4 123.1(1)
C3 N3 C7 118.3(1)
C3 C2 N2 121.1(1)
C3 C2 H2 114.5(5)
C3 C4 C5 118.8(1)
C3 C4 H4 121.0(5)
C4 C3 N3 122.2(1)
C4 C5 C6 119.2(1)
C4 C5 H5 120.3(6)
C5 C4 H4 120.2(5)
C5 C6 C7 117.9(1)
C5 C6 H6 119.8(6)
C6 C7 N3 123.6(1)
C6 C7 H7 120.4(5)
C6 C5 H5 120.6(6)
C7 C6 H6 122.3(6)
N1 C1 O1 123.6(1)
N1 C1 H1 113.0(6)
N2 N1 H1N 123.4(6)
N2 C2 H2 124.4(5)
N3 C7 H7 116.0(5)
O1 C1 H1 123.4(6)
H1W O1W H2W 107(1)
loop_
_geom_bond_atom_site_label_1
_geom_bond_atom_site_label_2
_geom_bond_distance
C1 O1 1.226(1)
C1 N1 1.344(1)
C2 N2 1.279(1)
C2 C3 1.467(2)
C3 N3 1.343(1)
C3 C4 1.397(2)
C4 C5 1.388(2)
C5 C6 1.394(2)
C6 C7 1.388(2)
C7 N3 1.334(2)
N1 N2 1.368(1)
loop_
_geom_torsion_atom_site_label_1
_geom_torsion_atom_site_label_2
_geom_torsion_atom_site_label_3
_geom_torsion_atom_site_label_4
_geom_torsion
C1 N1 N2 C2 -176.5(1)
C2 N2 N1 H1N 4.3(6)
C2 C3 N3 C7 -178.9(1)
C2 C3 C4 C5 -179.5(1)
C2 C3 C4 H4 1.9(5)
C3 N3 C7 C6 -2.0(1)
C3 N3 C7 H7 177.4(2)
C3 C2 N2 N1 -178.77(10)
C3 C4 C5 C6 -1.3(1)
C3 C4 C5 H5 179.0(2)
C4 C3 N3 C7 0.3(1)
C4 C3 C2 N2 -2.6(1)
C4 C3 C2 H2 176.8(4)
C4 C5 C6 C7 -0.2(1)
C4 C5 C6 H6 178.2(2)
C5 C4 C3 N3 1.3(1)
C5 C6 C7 N3 1.9(1)
C5 C6 C7 H7 -177.5(2)
C6 C5 C4 H4 177.2(2)
C7 C6 C5 H5 179.5(2)
N1 N2 C2 H2 1.9(5)
N2 N1 C1 O1 178.9(1)
N2 N1 C1 H1 -0.7(5)
N2 C2 C3 N3 176.67(10)
N3 C3 C2 H2 -3.9(5)
N3 C3 C4 H4 -177.3(2)
N3 C7 C6 H6 -176.4(2)
O1 C1 N1 H1N -1.9(5)
H1 C1 N1 H1N 178.6(7)
H4 C4 C5 H5 -2.4(7)
H5 C5 C6 H6 -2.2(7)
H6 C6 C7 H7 4.2(7)
loop_
_refln_index_h
_refln_index_k
_refln_index_l
_refln_F_squared_calc
_refln_F_squared_meas
_refln_F_squared_sigma
_refln_observed_status
-8 -4 1 13.218 8.425 2.180 o
-8 -4 2 22.911 26.870 3.420 o
-8 -2 2 42.011 40.812 3.084 o
-8 -1 2 20.448 16.245 2.351 o
-7 -7 2 33.694 31.434 3.731 o
-7 -6 3 42.737 39.835 3.946 o
-7 -5 2 27.711 24.588 2.861 o
-7 -5 3 15.049 15.708 2.571 o
-7 -5 4 14.680 17.349 2.833 o
-7 -4 1 10.707 13.410 2.499 o
-7 -4 3 26.328 25.380 3.175 o
-7 -4 4 73.359 68.865 4.853 o
-7 -4 5 22.609 17.951 3.066 o
-7 -3 3 12.830 13.010 2.302 o
-7 -3 4 19.208 15.588 2.734 o
-7 -3 5 32.494 35.259 3.408 o
-7 -2 2 71.887 76.027 3.450 o
-7 -2 5 16.978 16.527 1.987 o
-7 -1 2 7.872 7.311 1.228 o
-7 -1 4 4.523 5.582 1.346 o
-7 0 1 124.720 135.569 6.950 o
-7 0 2 104.765 113.983 6.278 o
-7 0 4 47.366 49.185 4.008 o
-7 1 1 25.142 22.705 2.895 o
-7 1 3 6.590 9.031 2.666 o
-7 2 0 5.725 7.421 2.422 o
-7 2 2 15.588 11.282 2.572 o
-7 2 3 205.106 212.484 12.771 o
-6 -8 1 38.091 42.522 3.788 o
-6 -8 2 14.136 15.076 2.489 o
-6 -7 1 57.157 59.025 3.973 o
-6 -7 2 14.115 10.492 2.497 o
-6 -7 3 13.253 13.796 2.432 o
-6 -6 2 8.422 7.113 1.886 o
-6 -5 1 188.731 208.263 8.025 o
-6 -5 2 374.759 382.538 15.406 o
-6 -5 4 16.970 20.592 2.518 o
-6 -5 5 37.292 36.521 3.297 o
-6 -4 1 15.657 13.384 2.169 o
-6 -4 2 14.364 15.738 2.190 o
-6 -4 3 45.963 50.401 3.642 o
-6 -4 4 6.425 7.373 1.910 o
-6 -4 5 20.657 19.679 2.687 o
-6 -3 1 13.590 13.684 2.208 o
-6 -3 3 142.865 145.540 6.123 o
-6 -3 4 391.351 381.648 15.912 o
-6 -3 5 21.094 17.550 2.653 o
-6 -3 7 17.784 19.285 2.699 o
-6 -2 1 10.354 11.215 1.912 o
-6 -2 4 108.364 113.738 9.882 o
-6 -2 5 37.945 36.657 2.941 o
-6 -2 7 56.628 50.378 4.031 o
-6 -1 1 5.573 4.991 1.043 o
-6 -1 2 4.848 5.825 1.150 o
-6 -1 3 18.207 20.049 1.511 o
-6 -1 4 73.734 78.060 3.133 o
-6 -1 5 80.020 82.652 3.454 o
-6 -1 6 132.967 137.491 7.438 o
-6 -1 7 73.449 77.907 4.916 o
-6 0 2 22.538 24.758 1.642 o
-6 0 5 15.237 15.481 2.562 o
-6 0 6 90.406 99.517 5.619 o
-6 1 0 228.942 228.442 9.032 o
-6 1 1 143.890 147.906 6.292 o
-6 1 2 75.641 77.372 4.313 o
-6 1 6 115.863 125.550 6.927 o
-6 1 7 46.194 50.659 4.359 o
-6 2 1 545.661 550.699 25.885 o
-6 3 2 103.831 107.373 6.097 o
-6 3 3 118.734 121.612 6.868 o
-6 3 4 104.139 114.050 6.708 o
-6 4 1 11.478 11.045 2.927 o
-6 4 2 19.354 18.899 2.878 o
-6 4 3 177.933 168.719 10.207 o
-5 -8 1 11.468 6.941 2.248 o
-5 -8 3 27.106 27.746 3.296 o
-5 -7 3 30.549 32.311 3.082 o
-5 -6 1 14.921 15.407 2.136 o
-5 -6 2 9.612 14.090 2.182 o
-5 -6 3 30.323 22.444 2.685 o
-5 -6 5 45.717 45.142 3.480 o
-5 -5 1 125.538 117.783 4.651 o
-5 -5 2 11.284 10.036 1.826 o
-5 -5 5 30.646 26.886 2.642 o
-5 -5 6 12.227 13.894 1.544 o
-5 -4 1 278.420 279.503 8.710 o
-5 -4 2 22.688 21.094 2.267 o
-5 -4 3 156.898 160.743 5.827 o
-5 -4 4 29.342 30.022 2.600 o
-5 -4 6 12.915 11.823 2.123 o
-5 -4 7 73.579 70.618 5.072 o
-5 -3 1 222.438 219.533 6.837 o
-5 -3 2 604.366 610.256 19.529 o
-5 -3 3 103.477 108.278 4.510 o
-5 -2 1 44.497 49.806 2.065 o
-5 -2 2 212.361 214.273 5.862 o
-5 -2 3 104.779 101.816 3.248 o
-5 -2 5 212.788 222.995 10.799 o
-5 -2 6 52.123 54.637 2.264 o
-5 -1 1 8.519 7.698 1.005 o
-5 -1 2 46.707 44.227 2.513 o
-5 -1 3 103.736 105.494 3.662 o
-5 -1 4 216.869 225.374 6.416 o
-5 -1 5 3.304 4.898 1.034 o
-5 -1 6 5.611 4.196 1.183 o
-5 0 2 5.535 4.121 0.984 o
-5 0 3 4.273 3.053 1.020 o
-5 0 4 144.659 142.870 7.383 o
-5 0 5 7.134 7.730 1.113 o
-5 0 7 56.162 58.804 3.486 o
-5 1 0 48.971 51.360 1.892 o
-5 1 1 25.941 26.302 2.558 o
-5 1 2 7.958 5.777 1.816 o
-5 1 3 9.141 7.878 2.099 o
-5 1 4 133.411 137.867 5.406 o
-5 1 5 42.255 38.437 3.025 o
-5 2 0 28.240 27.845 1.460 o
-5 2 1 17.658 14.880 1.110 o
-5 2 2 40.001 37.334 3.065 o
-5 2 4 9.396 9.345 2.213 o
-5 2 5 10.927 7.758 2.362 o
-5 2 6 24.605 20.828 2.680 o
-5 2 7 10.218 8.862 2.315 o
-5 3 0 187.918 188.394 10.451 o
-5 3 1 79.775 82.100 2.955 o
-5 3 2 61.062 60.652 3.760 o
-5 3 6 74.983 84.749 5.130 o
-5 3 7 25.200 24.474 3.246 o
-5 3 8 18.915 18.517 3.371 o
-5 4 2 23.640 23.362 1.683 o
-5 4 6 13.682 17.397 2.898 o
-5 5 0 5.277 5.393 1.491 o
-5 5 1 185.527 182.238 7.148 o
-5 5 2 92.781 100.075 9.859 o
-5 5 4 12.081 9.169 2.865 o
-4 -9 1 10.936 10.178 2.236 o
-4 -9 2 65.560 68.333 5.175 o
-4 -8 1 98.555 96.757 7.147 o
-4 -8 2 50.711 51.145 3.651 o
-4 -8 3 17.510 17.913 2.686 o
-4 -7 2 56.750 57.405 5.610 o
-4 -7 3 48.152 49.335 3.511 o
-4 -6 1 13.192 12.770 0.997 o
-4 -6 2 6.292 5.225 1.032 o
-4 -6 3 59.914 58.908 3.959 o
-4 -6 4 33.003 33.756 2.770 o
-4 -6 5 12.440 14.160 1.892 o
-4 -6 6 10.183 7.792 2.484 o
-4 -5 1 61.511 61.556 1.942 o
-4 -5 2 137.998 139.781 5.869 o
-4 -5 4 30.432 32.542 1.489 o
-4 -5 5 94.488 92.688 4.719 o
-4 -5 6 32.405 25.156 2.954 o
-4 -5 7 12.181 9.392 2.416 o
-4 -4 1 195.400 196.677 4.464 o
-4 -4 3 12.856 14.563 0.916 o
-4 -4 5 8.295 7.415 0.833 o
-4 -4 8 10.867 8.555 2.435 o
-4 -3 1 27.909 23.875 2.004 o
-4 -3 2 47.761 46.904 1.360 o
-4 -3 3 54.833 58.314 1.766 o
-4 -3 4 58.711 60.115 3.095 o
-4 -3 7 43.180 42.805 3.474 o
-4 -3 8 21.798 24.014 3.129 o
-4 -2 1 53.598 51.467 2.157 o
-4 -2 2 14.511 13.299 1.380 o
-4 -2 3 14.601 14.139 0.872 o
-4 -2 4 16.677 15.898 1.163 o
-4 -1 1 70.505 66.473 4.021 o
-4 -1 3 45.597 45.481 1.504 o
-4 -1 4 10.594 10.538 1.019 o
-4 -1 6 5.127 4.349 0.800 o
-4 0 1 70.507 68.655 1.964 o
-4 0 2 1011.956 996.808 23.075 o
-4 0 4 80.558 81.961 2.325 o
-4 0 6 13.658 11.615 1.744 o
-4 0 7 25.316 24.420 2.117 o
-4 0 8 26.233 25.724 2.952 o
-4 0 9 8.716 13.345 2.734 o
-4 1 0 32.648 32.715 1.849 o
-4 1 1 3.547 3.662 0.749 o
-4 1 2 18.805 15.240 1.012 o
-4 1 3 23.256 20.607 1.126 o
-4 1 4 6.445 5.099 0.732 o
-4 1 5 138.694 137.174 3.744 o
-4 1 6 12.522 9.227 1.753 o
-4 1 7 40.993 41.278 2.867 o
-4 1 8 40.642 40.394 2.106 o
-4 1 9 11.740 15.084 2.452 o
-4 2 0 88.405 85.217 3.491 o
-4 2 1 3.484 3.086 0.804 o
-4 2 2 15.251 13.835 1.058 o
-4 2 4 206.078 207.436 5.464 o
-4 2 6 53.554 54.733 2.725 o
-4 2 9 28.109 30.498 2.176 o
-4 3 0 67.052 67.861 2.395 o
-4 3 2 27.497 27.497 1.467 o
-4 3 3 7.062 7.302 1.008 o
-4 3 7 35.658 33.998 3.060 o
-4 4 2 3.462 3.479 0.895 o
-4 4 3 16.290 17.000 1.346 o
-4 4 5 32.574 30.150 3.553 o
-4 4 6 4.808 4.014 1.094 o
-4 5 0 30.069 33.352 1.982 o
-4 5 1 3.846 5.535 1.133 o
-4 5 2 17.046 15.577 2.226 o
-4 5 5 50.084 47.334 3.394 o
-4 6 1 6.488 5.149 1.418 o
-4 6 2 26.190 26.803 2.006 o
-4 6 4 28.796 27.632 4.218 o
-3 -9 2 69.628 71.144 3.737 o
-3 -8 1 14.873 12.986 2.193 o
-3 -8 2 17.698 16.238 1.561 o
-3 -7 1 60.743 65.363 3.280 o
-3 -7 3 5.854 5.304 0.787 o
-3 -6 1 11.091 10.882 1.538 o
-3 -6 2 5.854 4.878 0.804 o
-3 -6 3 25.817 23.775 1.133 o
-3 -6 4 30.892 30.518 2.709 o
-3 -5 1 3.151 3.915 0.789 o
-3 -5 2 19.011 17.373 1.072 o
-3 -5 3 32.806 36.064 2.260 o
-3 -5 4 42.142 41.373 2.415 o
-3 -5 6 50.147 56.498 4.065 o
-3 -4 2 73.434 69.963 2.226 o
-3 -4 4 5.713 7.213 0.817 o
-3 -4 6 15.728 12.695 2.403 o
-3 -3 1 20.112 19.424 1.025 o
-3 -3 2 214.281 205.937 4.872 o
-3 -3 3 56.008 52.168 2.535 o
-3 -3 4 8.926 6.249 1.209 o
-3 -3 5 55.338 59.467 2.820 o
-3 -3 6 27.701 29.072 2.459 o
-3 -3 7 12.016 13.730 2.418 o
-3 -3 8 48.917 49.682 3.871 o
-3 -2 1 102.160 105.080 3.356 o
-3 -2 2 252.819 254.516 6.621 o
-3 -2 3 12.674 10.562 0.956 o
-3 -2 4 360.804 375.500 18.756 o
-3 -2 5 15.399 14.336 1.378 o
-3 -2 6 5.882 6.355 1.070 o
-3 -2 7 11.562 11.183 2.250 o
-3 -1 1 264.056 263.416 12.542 o
-3 -1 2 96.569 99.282 2.523 o
-3 -1 3 25.170 28.194 1.110 o
-3 -1 4 19.477 18.392 1.244 o
-3 -1 5 130.222 129.087 3.456 o
-3 -1 6 25.951 24.944 1.633 o
-3 -1 7 59.470 60.947 1.897 o
-3 0 1 2.098 1.903 0.432 o
-3 0 2 13.486 12.866 0.667 o
-3 0 3 174.327 178.930 4.860 o
-3 0 4 24.253 22.206 1.046 o
-3 0 6 282.723 303.043 8.131 o
-3 1 0 2.782 2.708 0.699 o
-3 1 1 15.120 15.995 1.173 o
-3 1 2 11.603 11.350 1.014 o
-3 1 3 47.009 41.793 5.436 o
-3 1 5 22.979 21.841 1.179 o
-3 1 7 30.500 32.351 1.535 o
-3 1 8 57.662 59.544 2.384 o
-3 1 9 18.747 17.007 2.483 o
-3 2 0 59.746 54.948 1.872 o
-3 2 1 72.668 71.767 2.505 o
-3 2 2 99.409 108.494 7.619 o
-3 2 4 20.682 14.824 1.433 o
-3 2 6 67.278 69.067 3.027 o
-3 2 7 92.218 90.413 7.311 o
-3 2 8 112.782 108.798 3.666 o
-3 3 0 191.871 187.205 5.036 o
-3 3 1 194.372 189.968 5.086 o
-3 3 2 21.437 22.388 1.907 o
-3 3 3 22.085 20.479 1.832 o
-3 3 4 43.483 43.558 2.440 o
-3 3 5 10.084 8.749 1.527 o
-3 3 6 20.568 20.543 2.065 o
-3 3 8 8.324 9.084 1.027 o
-3 3 10 9.363 12.429 2.406 o
-3 4 2 121.008 128.348 4.527 o
-3 4 3 248.755 244.479 7.363 o
-3 4 4 48.097 48.734 2.919 o
-3 4 7 37.152 37.151 1.681 o
-3 4 8 118.975 114.785 3.973 o
-3 4 9 192.078 182.168 9.041 o
-3 5 0 49.234 46.942 3.481 o
-3 5 2 58.680 53.479 3.303 o
-3 5 3 49.500 46.167 3.060 o
-3 5 4 10.716 8.923 1.831 o
-3 5 5 5.820 6.074 1.840 o
-3 5 6 7.301 8.353 2.007 o
-3 5 8 9.867 8.479 2.149 o
-3 5 9 21.239 16.824 2.464 o
-3 6 2 20.842 19.092 2.749 o
-3 6 3 11.749 14.021 2.483 o
-3 6 4 75.454 62.476 3.763 o
-3 6 5 162.333 162.987 7.452 o
-3 7 1 14.945 11.277 1.532 o
-3 7 4 14.578 15.281 2.921 o
-2 -9 2 8.302 7.493 2.451 o
-2 -8 1 8.956 13.339 2.506 o
-2 -8 2 35.249 41.529 3.399 o
-2 -8 3 9.543 8.297 2.053 o
-2 -8 4 14.161 11.913 2.585 o
-2 -7 3 18.307 18.544 2.358 o
-2 -7 4 67.751 74.432 4.290 o
-2 -7 5 111.069 120.807 6.890 o
-2 -6 1 27.650 27.311 1.275 o
-2 -6 2 111.345 111.752 3.223 o
-2 -6 4 97.174 95.395 3.605 o
-2 -6 5 22.082 24.045 2.582 o
-2 -6 6 38.918 39.401 4.692 o
-2 -5 2 11.361 10.020 0.918 o
-2 -5 3 31.363 31.413 2.653 o
-2 -5 4 10.250 9.376 0.759 o
-2 -5 6 77.649 75.629 5.207 o
-2 -5 7 177.789 175.602 8.911 o
-2 -4 1 133.103 133.553 4.190 o
-2 -4 2 35.172 33.002 1.962 o
-2 -4 3 43.643 43.639 1.533 o
-2 -4 4 8.067 8.593 0.845 o
-2 -4 6 31.458 27.382 2.886 o
-2 -4 7 40.446 45.065 3.569 o
-2 -4 8 19.179 19.776 3.067 o
-2 -3 1 153.044 150.372 6.053 o
-2 -3 2 482.909 502.925 25.288 o
-2 -3 3 13.134 12.512 2.063 o
-2 -3 5 33.166 30.628 1.647 o
-2 -3 6 16.526 13.202 1.929 o
-2 -3 7 139.988 133.611 5.740 o
-2 -3 8 67.164 63.673 4.274 o
-2 -3 9 45.508 41.329 3.935 o
-2 -2 1 9.126 9.411 0.961 o
-2 -2 2 486.946 486.813 10.640 o
-2 -2 3 156.190 148.468 4.491 o
-2 -2 4 30.609 25.284 1.635 o
-2 -2 5 10.268 8.879 0.857 o
-2 -2 6 7.353 7.586 0.812 o
-2 -2 9 56.935 49.916 4.084 o
-2 -1 1 233.874 237.947 6.097 o
-2 -1 2 456.634 460.427 13.744 o
-2 -1 3 542.703 579.741 20.866 o
-2 -1 4 219.287 217.311 5.077 o
-2 -1 5 135.887 127.190 3.672 o
-2 -1 6 12.027 12.177 0.688 o
-2 -1 9 327.042 328.507 15.556 o
-2 -1 10 76.271 65.431 5.003 o
-2 0 1 16.809 17.204 0.862 o
-2 0 2 283.242 289.797 7.293 o
-2 0 3 2.444 2.473 0.656 o
-2 0 4 430.009 377.360 28.237 o
-2 0 6 31.755 31.742 2.575 o
-2 0 7 3.183 2.770 0.736 o
-2 0 10 23.361 25.468 3.230 o
-2 1 0 379.616 402.294 9.031 o
-2 1 1 13.362 11.397 0.950 o
-2 1 2 135.667 128.027 4.052 o
-2 1 3 37.781 35.902 2.040 o
-2 1 4 1362.076 1394.449 33.531 o
-2 1 5 599.431 599.597 14.225 o
-2 1 6 66.855 64.544 2.994 o
-2 1 7 107.264 112.388 4.254 o
-2 2 0 12.226 12.888 0.991 o
-2 2 2 234.178 256.318 6.639 o
-2 2 3 47.776 47.363 2.542 o
-2 2 4 11.231 8.873 1.342 o
-2 2 5 67.267 69.030 2.903 o
-2 2 7 48.590 51.467 1.978 o
-2 2 10 20.395 19.265 2.582 o
-2 3 0 378.814 382.121 8.614 o
-2 3 1 365.966 349.368 8.919 o
-2 3 2 45.202 45.624 2.562 o
-2 3 3 6.353 6.661 1.376 o
-2 3 4 28.997 27.817 2.005 o
-2 3 5 73.572 70.583 3.038 o
-2 3 6 842.255 843.086 30.281 o
-2 3 7 189.914 186.315 5.514 o
-2 3 9 11.815 12.891 1.361 o
-2 4 0 59.197 57.450 1.934 o
-2 4 1 225.381 233.197 6.951 o
-2 4 2 5.085 5.348 1.419 o
-2 4 5 17.570 17.089 1.010 o
-2 4 6 93.551 91.578 2.713 o
-2 4 7 236.362 221.419 6.094 o
-2 4 8 47.132 48.826 4.954 o
-2 4 9 29.138 26.295 4.705 o
-2 5 1 63.916 65.490 3.486 o
-2 5 2 27.287 25.506 2.395 o
-2 5 3 105.729 101.072 4.212 o
-2 5 6 65.641 56.819 3.418 o
-2 5 8 277.703 269.987 11.435 o
-2 5 9 27.489 23.614 2.857 o
-2 5 10 15.108 16.571 2.533 o
-2 6 0 186.000 187.656 7.374 o
-2 6 1 158.197 162.423 6.446 o
-2 6 2 267.854 267.013 9.582 o
-2 6 3 30.221 30.861 2.956 o
-2 6 6 13.250 10.687 2.303 o
-2 6 8 59.965 59.966 4.118 o
-2 6 9 168.962 162.507 9.218 o
-2 7 1 17.132 22.197 2.919 o
-2 7 2 9.038 9.122 2.546 o
-2 7 3 166.904 172.957 7.698 o
-2 7 8 14.366 12.943 2.716 o
-2 8 2 110.498 114.492 7.088 o
-2 8 3 106.427 105.271 6.381 o
-2 8 4 258.650 274.316 14.481 o
-1 -8 2 176.881 173.886 8.594 o
-1 -8 3 79.850 75.982 5.035 o
-1 -8 4 16.351 21.470 3.034 o
-1 -7 4 21.485 21.032 3.006 o
-1 -7 5 16.820 17.320 2.779 o
-1 -6 1 26.436 23.760 4.317 o
-1 -6 2 113.487 100.364 9.572 o
-1 -6 3 168.497 161.418 9.612 o
-1 -6 4 94.234 90.626 5.501 o
-1 -6 5 36.652 32.141 3.795 o
-1 -6 6 25.281 25.587 2.806 o
-1 -5 1 2.868 3.353 1.054 o
-1 -5 2 56.325 58.996 2.240 o
-1 -5 3 15.459 17.339 1.187 o
-1 -5 4 14.882 14.395 0.894 o
-1 -5 5 9.829 7.862 1.073 o
-1 -4 1 121.695 123.331 3.657 o
-1 -4 2 47.923 47.757 1.865 o
-1 -4 4 126.605 122.273 3.315 o
-1 -4 5 808.163 804.044 29.437 o
-1 -4 6 13.780 12.799 2.224 o
-1 -4 8 19.699 20.000 3.036 o
-1 -3 1 122.411 114.701 4.331 o
-1 -3 2 88.263 84.235 3.003 o
-1 -3 3 83.352 80.672 1.998 o
-1 -3 4 68.908 69.122 2.163 o
-1 -3 5 48.755 45.765 1.772 o
-1 -3 6 56.176 53.724 3.338 o
-1 -3 8 50.695 50.733 3.784 o
-1 -2 1 1354.909 1443.223 21.299 o
-1 -2 2 17.441 15.698 0.927 o
-1 -2 3 403.089 407.721 15.237 o
-1 -2 4 33.080 28.707 1.343 o
-1 -2 6 25.902 22.477 2.301 o
-1 -2 7 918.284 944.539 40.375 o
-1 -2 9 45.139 46.676 3.866 o
-1 -1 1 444.447 467.308 10.282 o
-1 -1 2 1344.595 1460.290 30.125 o
-1 -1 3 15.520 16.193 0.851 o
-1 -1 4 2.843 2.239 0.433 o
-1 -1 5 108.542 103.736 2.852 o
-1 -1 6 3.768 4.068 0.354 o
-1 -1 7 71.542 69.745 3.725 o
-1 -1 8 56.713 58.098 3.651 o
-1 -1 9 33.449 31.704 3.134 o
-1 -1 10 90.927 84.799 5.796 o
-1 0 1 12.642 10.871 1.534 o
-1 0 2 3857.831 4319.219 86.514 o
-1 0 3 273.438 265.106 9.052 o
-1 0 4 12.798 12.571 1.223 o
-1 0 5 105.611 91.771 3.743 o
-1 0 7 19.371 20.703 2.185 o
-1 0 8 6.304 7.132 1.911 o
-1 0 9 285.868 283.821 11.837 o
-1 1 0 8.828 8.493 0.828 o
-1 1 1 299.162 305.415 7.381 o
-1 1 2 6632.653 6456.486 140.923 o
-1 1 3 806.063 837.725 15.637 o
-1 1 5 34.422 32.557 3.818 o
-1 1 6 10.868 9.139 1.548 o
-1 1 8 86.096 92.630 4.160 o
-1 1 9 55.394 54.788 3.632 o
-1 1 10 34.209 35.771 3.267 o
-1 1 11 29.018 32.098 3.739 o
-1 2 0 112.944 123.106 5.484 o
-1 2 1 309.133 322.155 13.030 o
-1 2 2 338.342 318.109 8.044 o
-1 2 3 27.238 26.050 2.233 o
-1 2 4 1566.850 1550.206 35.534 o
-1 2 5 98.107 95.495 2.906 o
-1 2 9 44.824 43.537 3.178 o
-1 2 10 27.490 25.200 2.975 o
-1 2 11 11.789 13.396 2.642 o
-1 3 0 247.885 250.332 5.621 o
-1 3 1 24.933 27.156 1.145 o
-1 3 2 35.423 37.254 1.324 o
-1 3 3 24.940 25.872 2.269 o
-1 3 4 2697.032 2792.847 71.594 o
-1 3 5 683.316 637.461 33.402 o
-1 3 6 89.468 94.239 4.342 o
-1 3 7 5.812 4.805 0.808 o
-1 3 10 67.608 67.759 4.107 o
-1 3 11 14.005 13.367 2.586 o
-1 4 0 50.636 49.011 1.651 o
-1 4 1 29.184 29.936 1.039 o
-1 4 2 31.996 30.864 2.286 o
-1 4 3 8.128 8.496 0.407 o
-1 4 4 139.265 134.353 3.298 o
-1 4 6 282.728 271.647 6.676 o
-1 4 7 131.084 127.864 3.612 o
-1 4 8 9.641 9.021 1.224 o
-1 4 9 11.532 10.881 1.136 o
-1 4 10 8.687 7.752 1.946 o
-1 4 11 11.406 9.337 2.570 o
-1 5 0 399.853 394.225 13.629 o
-1 5 1 46.596 54.962 2.999 o
-1 5 2 35.897 35.624 2.465 o
-1 5 4 4.650 4.158 0.485 o
-1 5 5 31.227 31.163 1.121 o
-1 5 6 401.809 415.321 10.310 o
-1 5 7 190.383 192.690 5.190 o
-1 5 8 22.698 25.269 1.368 o
-1 6 0 32.617 35.347 2.907 o
-1 6 1 126.480 126.826 4.963 o
-1 6 2 41.273 41.978 3.013 o
-1 6 5 54.587 55.400 3.434 o
-1 6 7 6.274 5.837 1.931 o
-1 6 8 17.617 16.104 2.498 o
-1 6 9 30.057 30.191 3.191 o
-1 7 0 15.218 15.077 2.679 o
-1 7 1 464.027 502.181 20.484 o
-1 7 2 105.811 101.292 4.785 o
-1 7 3 8.583 6.842 1.946 o
-1 7 7 97.840 97.528 5.210 o
-1 7 8 27.552 28.773 3.184 o
-1 7 9 11.537 9.476 2.725 o
-1 8 0 13.599 14.791 2.862 o
-1 8 1 31.048 32.281 3.541 o
-1 8 2 101.451 106.826 5.767 o
-1 8 3 42.689 40.380 3.725 o
-1 8 6 19.720 20.777 3.118 o
-1 8 7 16.172 15.260 3.099 o
-1 9 2 40.000 36.415 3.908 o
-1 9 3 146.317 140.100 8.664 o
-1 9 4 13.479 9.301 3.033 o
0 -8 1 47.527 50.912 3.951 o
0 -8 2 27.179 28.499 3.073 o
0 -7 1 245.263 267.839 10.340 o
0 -7 3 14.323 11.700 2.646 o
0 -7 4 10.875 8.200 2.678 o
0 -7 5 12.298 11.958 2.948 o
0 -6 1 293.297 283.284 9.191 o
0 -6 2 49.246 46.603 3.335 o
0 -6 3 62.551 59.917 3.765 o
0 -6 5 15.723 14.579 2.847 o
0 -6 6 26.643 20.044 3.254 o
0 -5 1 19.369 19.802 1.071 o
0 -5 2 156.077 157.183 4.173 o
0 -5 3 644.524 664.430 18.316 o
0 -5 4 64.145 60.454 2.614 o
0 -5 5 14.102 12.597 2.077 o
0 -5 6 8.735 6.667 2.222 o
0 -5 7 18.516 20.043 2.035 o
0 -4 1 99.738 103.160 6.494 o
0 -4 2 9.742 9.495 0.977 o
0 -4 3 758.512 782.882 19.986 o
0 -4 6 35.452 33.942 2.744 o
0 -4 7 28.239 28.354 2.975 o
0 -4 8 26.090 24.779 2.863 o
0 -3 1 30.398 30.176 2.482 o
0 -3 2 31.138 29.909 1.577 o
0 -3 4 12.721 12.906 1.601 o
0 -3 5 446.186 439.394 12.820 o
0 -3 6 140.644 132.667 5.091 o
0 -2 1 14.795 16.525 1.494 o
0 -2 2 199.344 208.874 5.870 o
0 -2 3 92.350 88.321 3.647 o
0 -2 4 281.664 291.816 9.819 o
0 -2 5 833.170 831.784 19.489 o
0 -2 7 62.586 58.128 3.512 o
0 -2 8 46.234 42.453 3.490 o
0 -2 9 8.272 9.801 2.210 o
0 -1 1 456.594 470.267 10.240 o
0 -1 2 258.989 282.752 7.505 o
0 -1 3 51.866 47.414 1.628 o
0 -1 4 3.114 2.613 0.446 o
0 -1 5 159.311 159.290 4.005 o
0 -1 7 27.324 25.102 2.536 o
0 -1 8 97.444 96.593 4.553 o
0 -1 9 9.270 11.061 2.656 o
0 -1 10 19.056 19.830 2.961 o
0 0 2 166.389 174.891 4.159 o
0 0 3 98.848 106.365 4.206 o
0 0 4 164.090 166.840 3.943 o
0 0 5 5.950 6.037 0.516 o
0 0 6 374.968 356.606 9.663 o
0 0 7 275.078 273.086 8.528 o
0 0 8 12.026 11.118 1.982 o
0 0 9 45.949 45.044 3.596 o
0 1 0 196.866 142.054 4.980 o
0 1 1 4.160 11.793 1.612 o
0 1 2 354.919 362.236 8.214 o
0 1 3 1955.969 1914.843 42.889 o
0 1 4 109.475 110.965 3.003 o
0 1 5 106.788 106.352 3.874 o
0 1 6 74.866 74.276 2.126 o
0 1 7 176.105 181.172 5.861 o
0 1 8 9.415 10.402 1.918 o
0 1 9 22.588 26.085 2.795 o
0 1 10 25.998 24.766 2.838 o
0 2 0 60.468 56.687 1.997 o
0 2 1 267.976 260.464 7.634 o
0 2 2 8545.919 8713.357 248.298 o
0 2 3 155.542 151.171 3.832 o
0 2 4 73.220 71.694 2.776 o
0 2 5 32.355 25.418 1.465 o
0 2 8 153.105 140.825 5.115 o
0 3 1 233.447 221.875 6.782 o
0 3 2 80.898 78.013 3.938 o
0 3 3 35.843 34.156 3.216 o
0 3 4 76.852 72.942 5.700 o
0 3 5 310.159 314.638 7.427 o
0 3 6 3.821 3.608 0.793 o
0 3 7 3.416 3.968 0.818 o
0 3 8 55.376 57.726 2.239 o
0 3 9 22.691 23.907 2.378 o
0 3 10 9.888 10.199 2.166 o
0 3 11 30.052 34.299 3.471 o
0 4 1 36.772 35.221 2.648 o
0 4 2 315.244 318.972 8.448 o
0 4 3 425.548 379.110 36.054 o
0 4 4 243.570 260.871 7.486 o
0 4 10 36.732 37.671 3.071 o
0 4 11 10.640 7.579 2.344 o
0 5 1 23.983 23.657 2.172 o
0 5 2 93.195 91.446 3.849 o
0 5 3 223.342 215.327 6.569 o
0 5 4 38.693 38.904 1.009 o
0 5 5 40.880 42.599 1.384 o
0 5 9 15.830 13.842 2.032 o
0 5 10 5.959 6.693 1.246 o
0 6 0 22.634 22.044 2.288 o
0 6 1 14.603 14.314 2.158 o
0 6 2 20.245 18.494 2.201 o
0 6 3 41.187 35.563 2.584 o
0 6 4 156.507 157.752 5.541 o
0 6 5 273.359 286.543 9.350 o
0 6 6 9.851 8.039 2.093 o
0 6 7 14.976 13.653 2.192 o
0 7 0 228.442 231.402 8.701 o
0 7 2 5.166 6.033 1.816 o
0 7 4 43.183 41.815 3.196 o
0 7 5 48.528 45.790 3.302 o
0 7 6 6.898 7.376 1.974 o
0 7 7 19.961 17.939 2.685 o
0 7 8 18.218 20.837 2.837 o
0 7 9 19.888 22.046 3.058 o
0 8 0 76.923 80.290 4.767 o
0 8 1 48.619 44.739 3.701 o
0 8 2 8.957 10.965 2.589 o
0 8 5 17.760 20.383 2.845 o
0 8 6 17.401 16.545 2.721 o
0 8 7 76.196 74.172 4.721 o
0 9 0 54.253 51.594 4.620 o
0 9 1 30.572 29.224 3.329 o
0 9 2 64.788 66.015 4.820 o
0 9 3 23.054 21.621 3.276 o
1 -8 1 9.534 9.101 2.739 o
1 -7 1 16.464 16.949 2.784 o
1 -7 4 70.170 72.610 5.288 o
1 -6 1 37.529 36.400 3.020 o
1 -6 2 66.398 67.122 4.051 o
1 -6 3 21.395 23.604 3.080 o
1 -5 1 949.644 941.444 25.399 o
1 -5 2 158.812 157.200 4.257 o
1 -5 3 5.933 5.956 0.924 o
1 -5 6 32.853 35.967 2.253 o
1 -5 7 41.031 39.559 3.293 o
1 -4 1 19.218 19.134 1.140 o
1 -4 2 4.128 3.582 0.798 o
1 -4 4 100.264 99.200 3.218 o
1 -4 5 127.252 125.539 4.810 o
1 -4 8 61.916 64.254 4.808 o
1 -3 1 169.655 171.662 6.581 o
1 -3 2 707.025 734.098 16.033 o
1 -3 3 790.430 824.473 18.795 o
1 -3 4 74.417 70.688 3.096 o
1 -3 5 38.528 39.669 2.676 o
1 -3 6 7.944 6.453 1.999 o
1 -3 7 13.292 11.119 2.323 o
1 -3 9 29.223 32.021 3.893 o
1 -2 1 340.216 353.181 8.201 o
1 -2 2 67.293 61.975 2.050 o
1 -2 3 96.739 93.589 2.454 o
1 -2 4 32.346 32.018 2.138 o
1 -2 5 36.985 35.955 2.494 o
1 -2 6 36.404 39.063 2.751 o
1 -2 7 78.623 86.472 4.216 o
1 -1 1 189.090 184.324 4.611 o
1 -1 2 123.714 127.469 4.058 o
1 -1 3 434.178 429.368 9.126 o
1 -1 4 393.497 395.887 9.409 o
1 -1 5 56.518 57.639 2.920 o
1 -1 9 25.710 26.471 3.127 o
1 0 0 25.355 25.665 1.076 o
1 0 1 633.979 662.886 14.302 o
1 0 3 99.401 93.632 2.822 o
1 0 4 564.247 550.344 12.505 o
1 0 5 85.555 84.643 3.666 o
1 0 6 13.999 14.329 1.517 o
1 0 7 25.947 25.879 2.398 o
1 0 10 8.233 8.573 2.467 o
1 1 0 966.537 1082.891 15.302 o
1 1 1 366.517 371.373 8.412 o
1 1 2 298.731 306.285 7.659 o
1 1 5 370.326 344.517 10.390 o
1 1 6 83.493 79.170 3.453 o
1 1 7 101.191 100.504 4.026 o
1 1 9 16.922 18.288 2.623 o
1 1 11 36.835 36.800 4.124 o
1 2 0 2046.467 2126.035 36.914 o
1 2 1 323.386 337.227 7.665 o
1 2 2 215.784 208.151 5.056 o
1 2 3 61.574 58.228 2.391 o
1 2 4 52.243 48.651 2.116 o
1 2 5 85.030 80.541 5.370 o
1 2 6 129.154 126.495 4.337 o
1 2 8 6.985 5.520 1.713 o
1 2 10 16.682 15.312 2.659 o
1 2 11 19.055 22.405 2.940 o
1 3 0 2149.684 2233.525 38.128 o
1 3 1 399.449 398.849 8.600 o
1 3 2 332.158 326.076 7.927 o
1 3 3 116.694 113.165 3.642 o
1 3 4 129.914 131.071 3.681 o
1 3 5 59.527 56.865 3.292 o
1 3 6 9.512 11.155 1.087 o
1 3 7 90.577 97.070 5.299 o
1 3 8 17.321 21.801 2.270 o
1 3 9 74.841 76.234 3.952 o
1 3 11 21.322 27.320 3.112 o
1 4 0 15.620 13.911 1.749 o
1 4 1 527.205 521.558 13.879 o
1 4 2 163.186 165.830 3.856 o
1 4 3 261.922 275.411 6.037 o
1 4 5 237.613 238.602 9.487 o
1 4 6 44.813 39.787 2.142 o
1 4 7 133.281 137.889 3.913 o
1 5 0 8.378 7.120 0.716 o
1 5 1 133.713 128.940 2.911 o
1 5 2 384.898 387.066 9.953 o
1 5 3 93.521 83.740 6.849 o
1 5 4 168.953 166.300 3.843 o
1 5 5 5.148 4.909 0.637 o
1 5 6 19.088 15.955 0.983 o
1 5 8 51.267 51.332 2.014 o
1 5 9 7.095 6.046 1.097 o
1 6 0 9.262 8.734 1.745 o
1 6 3 87.174 81.589 3.581 o
1 6 5 26.438 26.608 1.647 o
1 6 6 18.131 19.076 2.859 o
1 6 7 51.401 53.501 2.395 o
1 6 8 41.016 35.257 2.851 o
1 6 9 78.414 71.313 4.186 o
1 7 2 28.024 25.634 2.561 o
1 7 3 18.222 17.431 2.156 o
1 7 6 6.033 6.059 1.952 o
1 7 9 19.208 16.666 2.724 o
1 7 10 30.606 28.575 3.319 o
1 8 0 8.726 9.818 2.408 o
1 8 1 16.262 21.121 2.557 o
1 8 5 12.930 10.254 2.323 o
1 9 0 17.630 17.790 2.952 o
1 9 1 20.469 22.634 3.129 o
1 9 2 50.270 51.726 3.911 o
1 9 4 58.342 59.841 4.033 o
1 9 7 19.071 20.484 3.296 o
2 -7 1 55.312 62.888 4.355 o
2 -6 3 24.721 23.354 3.199 o
2 -6 4 52.316 56.592 4.423 o
2 -5 1 16.455 18.036 2.329 o
2 -5 3 52.502 59.229 3.775 o
2 -5 6 58.097 60.892 4.918 o
2 -4 1 32.297 30.250 2.280 o
2 -4 2 17.351 18.831 0.998 o
2 -4 3 11.335 10.594 1.045 o
2 -4 5 19.910 18.210 1.372 o
2 -4 6 15.274 14.786 1.511 o
2 -3 1 2.451 2.781 0.615 o
2 -3 2 18.896 18.014 2.040 o
2 -3 5 7.480 8.793 1.882 o
2 -3 8 22.891 24.634 3.092 o
2 -2 1 955.371 976.663 21.504 o
2 -2 2 22.993 22.164 1.237 o
2 -2 3 108.726 108.397 9.372 o
2 -2 4 48.740 46.125 2.633 o
2 -2 5 57.366 50.216 2.888 o
2 -2 7 10.405 8.375 2.180 o
2 -2 8 14.260 10.456 2.365 o
2 -1 1 78.651 75.263 9.896 o
2 -1 2 782.700 803.267 17.102 o
2 -1 3 4.429 4.799 0.527 o
2 -1 4 45.882 41.671 2.215 o
2 -1 5 26.772 25.238 2.227 o
2 -1 6 11.851 11.722 1.840 o
2 -1 7 180.644 176.826 6.694 o
2 -1 8 56.993 55.005 3.787 o
2 0 0 538.786 564.613 12.586 o
2 0 1 126.519 126.954 4.750 o
2 0 2 40.723 41.278 1.393 o
2 0 3 910.744 906.402 18.900 o
2 0 4 25.150 27.093 2.249 o
2 0 5 290.499 293.428 8.191 o
2 0 6 35.019 37.452 2.601 o
2 0 7 50.379 54.160 3.370 o
2 0 9 18.904 18.843 2.800 o
2 0 10 27.987 29.946 3.578 o
2 1 0 168.345 150.276 10.762 o
2 1 1 358.901 362.907 8.142 o
2 1 2 502.503 527.652 11.308 o
2 1 3 140.374 130.427 4.330 o
2 1 4 52.887 52.425 1.839 o
2 1 5 19.393 16.168 1.884 o
2 1 6 22.775 22.885 2.188 o
2 1 9 227.309 234.843 10.104 o
2 1 10 80.552 82.501 5.322 o
2 2 0 306.524 320.904 7.081 o
2 2 1 100.303 98.564 3.130 o
2 2 3 21.943 18.757 1.446 o
2 2 4 6.888 6.676 1.598 o
2 2 5 89.860 96.387 3.869 o
2 2 7 22.051 19.458 2.188 o
2 2 11 20.783 17.069 3.046 o
2 3 0 41.655 42.634 1.725 o
2 3 1 186.583 179.629 4.894 o
2 3 2 92.227 85.889 4.309 o
2 3 3 75.960 77.742 7.570 o
2 3 4 405.968 386.332 14.181 o
2 3 5 56.355 57.379 2.169 o
2 3 6 21.515 19.375 2.626 o
2 3 9 6.794 6.227 2.068 o
2 3 10 62.441 66.888 4.307 o
2 3 11 96.001 104.213 6.986 o
2 4 1 47.609 42.587 2.398 o
2 4 3 221.639 225.146 11.087 o
2 4 4 91.249 96.763 8.198 o
2 4 5 118.732 119.913 4.855 o
2 4 6 30.021 29.818 1.461 o
2 4 9 29.070 32.408 2.810 o
2 4 10 35.552 37.352 3.214 o
2 5 0 298.231 304.490 7.822 o
2 5 1 37.567 37.180 2.250 o
2 5 2 83.880 88.184 3.485 o
2 5 3 7.648 6.562 1.445 o
2 5 4 107.385 106.965 7.706 o
2 5 5 17.669 19.745 2.938 o
2 5 6 280.140 276.665 6.909 o
2 5 7 2.865 2.609 0.804 o
2 6 0 117.979 116.321 4.184 o
2 6 2 106.685 105.871 3.878 o
2 6 3 43.782 41.547 2.523 o
2 6 4 45.364 43.596 2.624 o
2 6 5 40.416 40.697 1.443 o
2 6 6 49.302 51.244 4.546 o
2 6 7 156.561 158.535 9.006 o
2 6 8 5.383 4.402 0.910 o
2 7 1 18.260 21.865 2.211 o
2 7 2 41.324 39.886 2.786 o
2 7 5 88.133 89.554 4.065 o
2 7 6 11.132 10.058 2.031 o
2 7 7 95.316 97.826 4.710 o
2 7 8 136.480 134.780 6.248 o
2 8 0 91.375 88.298 4.336 o
2 8 1 13.567 14.469 2.295 o
2 8 2 60.283 64.086 3.824 o
2 8 3 16.147 16.249 2.211 o
2 8 4 23.449 26.066 2.647 o
2 8 5 10.055 11.068 2.205 o
2 8 6 42.357 48.403 3.610 o
2 8 7 22.721 24.356 3.006 o
2 8 8 16.443 16.187 3.016 o
2 8 9 47.919 45.623 4.184 o
2 9 2 7.735 7.172 1.788 o
2 9 3 54.637 52.611 3.709 o
2 9 6 29.947 30.507 3.135 o
2 9 7 41.289 45.900 3.718 o
2 10 3 22.833 23.221 3.456 o
2 10 4 23.038 29.405 3.184 o
3 -6 1 17.970 15.417 2.657 o
3 -6 2 7.964 8.860 2.259 o
3 -5 1 27.335 23.718 1.472 o
3 -5 4 28.715 29.070 3.200 o
3 -5 5 14.290 14.305 2.821 o
3 -4 1 23.290 23.728 1.124 o
3 -4 2 11.572 10.969 0.942 o
3 -4 3 209.616 215.617 6.361 o
3 -3 1 38.630 38.103 1.887 o
3 -3 2 116.634 117.934 3.412 o
3 -3 3 8.831 8.206 0.765 o
3 -3 5 7.857 8.647 1.990 o
3 -3 6 35.624 33.427 3.054 o
3 -3 7 8.681 9.213 2.270 o
3 -2 2 25.055 26.923 2.016 o
3 -2 3 12.220 11.532 0.931 o
3 -2 4 12.955 12.241 0.951 o
3 -2 5 366.663 384.049 12.873 o
3 -2 6 6.645 6.247 1.855 o
3 -2 8 11.633 13.999 2.813 o
3 -1 1 87.279 86.306 2.540 o
3 -1 2 15.634 16.229 2.234 o
3 -1 3 9.408 9.770 0.967 o
3 -1 4 10.832 10.519 1.780 o
3 -1 5 20.135 19.159 2.164 o
3 -1 6 9.778 8.711 2.032 o
3 -1 8 32.267 26.746 3.147 o
3 0 0 82.268 76.893 2.416 o
3 0 2 27.603 26.278 1.249 o
3 0 4 8.282 7.938 1.461 o
3 0 5 69.846 75.083 3.470 o
3 0 6 66.825 62.384 3.437 o
3 0 7 205.137 216.296 8.145 o
3 1 0 1139.167 1163.895 23.757 o
3 1 1 138.855 142.119 4.115 o
3 1 2 7.190 8.192 1.054 o
3 1 3 60.229 60.060 2.547 o
3 1 4 43.614 42.055 1.517 o
3 1 5 42.753 41.931 1.556 o
3 1 6 63.292 64.309 3.418 o
3 1 7 79.019 77.705 3.975 o
3 1 8 43.891 46.892 3.426 o
3 1 10 10.473 8.676 2.198 o
3 2 0 306.768 321.953 8.211 o
3 2 1 142.717 146.859 3.623 o
3 2 2 260.488 249.295 11.381 o
3 2 3 74.393 70.732 7.143 o
3 2 4 46.238 44.235 4.257 o
3 2 6 44.113 43.415 1.746 o
3 2 7 241.752 241.700 8.105 o
3 2 8 241.772 243.816 9.166 o
3 2 9 28.984 32.089 3.249 o
3 2 10 6.228 8.263 2.523 o
3 3 0 140.637 136.350 3.192 o
3 3 1 207.906 212.272 5.856 o
3 3 2 1376.212 1339.103 29.812 o
3 3 3 497.241 483.967 18.530 o
3 3 5 79.080 78.492 2.385 o
3 3 6 4.586 4.635 0.626 o
3 3 7 57.920 57.790 1.763 o
3 3 8 239.414 247.533 9.059 o
3 3 9 23.289 21.504 2.610 o
3 3 10 46.178 43.789 3.586 o
3 4 0 25.856 24.931 1.278 o
3 4 1 34.497 31.923 1.712 o
3 4 2 143.473 130.395 3.775 o
3 4 3 146.145 146.663 7.361 o
3 4 4 295.757 291.781 6.915 o
3 4 5 77.448 76.231 6.672 o
3 4 7 5.257 6.588 1.642 o
3 4 8 75.599 79.868 3.904 o
3 4 9 113.160 118.860 5.498 o
3 4 10 272.114 280.737 13.658 o
3 5 0 126.768 128.675 3.768 o
3 5 1 10.404 10.952 1.307 o
3 5 2 11.497 9.521 1.303 o
3 5 3 25.048 24.886 1.685 o
3 5 4 342.208 334.257 9.995 o
3 5 5 191.243 190.840 8.707 o
3 5 6 3.054 3.834 0.872 o
3 5 10 264.298 274.064 13.163 o
3 6 0 12.520 14.891 1.687 o
3 6 2 82.671 82.021 3.143 o
3 6 3 138.517 135.947 4.374 o
3 6 4 19.574 21.183 1.902 o
3 6 5 49.703 50.780 2.085 o
3 6 6 73.471 72.776 2.794 o
3 6 7 10.699 10.315 0.994 o
3 6 10 14.094 10.518 2.075 o
3 7 1 25.347 24.669 2.195 o
3 7 2 5.008 4.858 1.515 o
3 7 3 82.190 81.242 3.610 o
3 7 5 387.650 396.464 13.049 o
3 7 6 51.804 52.011 3.182 o
3 7 7 24.460 27.099 2.636 o
3 7 9 16.252 15.808 2.665 o
3 8 0 50.133 49.145 3.197 o
3 8 1 11.211 10.831 2.069 o
3 8 2 29.944 30.748 2.767 o
3 8 3 10.446 8.586 2.066 o
3 8 4 143.917 146.572 5.756 o
3 8 5 77.680 80.159 4.028 o
3 8 7 12.850 16.655 2.519 o
3 9 0 49.084 55.220 3.780 o
3 9 1 108.363 108.835 5.503 o
3 9 5 51.247 51.348 3.776 o
3 9 7 447.563 446.699 24.149 o
3 9 8 17.986 18.171 2.723 o
3 10 2 28.649 26.685 3.094 o
3 10 5 12.542 11.230 2.594 o
3 10 6 24.509 25.379 3.282 o
4 -6 1 25.751 23.140 3.358 o
4 -5 1 96.192 87.068 12.208 o
4 -4 1 121.206 110.106 3.672 o
4 -3 1 24.813 23.741 1.123 o
4 -3 2 22.725 24.738 1.180 o
4 -3 3 57.066 53.470 1.887 o
4 -3 4 11.208 8.472 1.189 o
4 -3 5 6.645 4.578 1.261 o
4 -3 6 10.971 12.976 2.380 o
4 -2 1 2.736 2.219 0.663 o
4 -2 2 100.425 100.749 3.034 o
4 -2 3 360.371 377.076 10.405 o
4 -2 4 11.278 10.879 1.279 o
4 -1 1 7.523 6.431 0.723 o
4 -1 2 3.992 3.171 0.676 o
4 -1 3 303.570 318.765 8.167 o
4 -1 4 40.181 39.060 2.964 o
4 -1 6 42.744 39.040 3.265 o
4 -1 7 26.438 25.734 2.901 o
4 0 0 3.903 4.265 0.602 o
4 0 1 144.387 141.193 3.515 o
4 0 2 206.378 195.143 5.054 o
4 0 3 6.797 6.035 1.198 o
4 0 4 392.435 421.334 13.173 o
4 0 5 258.933 263.969 8.728 o
4 0 6 57.935 58.970 3.613 o
4 0 9 11.207 10.420 2.615 o
4 1 0 12.690 12.098 0.639 o
4 1 1 62.655 59.005 2.940 o
4 1 4 140.817 149.348 5.588 o
4 1 5 425.676 428.594 10.428 o
4 1 6 55.947 48.888 3.218 o
4 1 7 7.934 9.512 2.270 o
4 1 8 35.200 32.727 3.208 o
4 1 9 17.347 18.713 3.186 o
4 2 0 956.060 884.114 48.898 o
4 2 1 61.807 56.786 2.262 o
4 2 2 22.285 23.266 1.821 o
4 2 3 53.145 48.995 4.050 o
4 2 4 35.540 35.454 2.128 o
4 2 5 121.057 125.378 8.197 o
4 2 6 614.166 606.551 21.016 o
4 2 7 7.595 6.544 1.945 o
4 2 8 49.622 47.899 3.663 o
4 3 0 30.571 27.491 2.143 o
4 3 2 88.709 83.547 7.592 o
4 3 3 19.141 18.735 1.199 o
4 3 4 3.457 3.364 1.121 o
4 3 5 50.542 49.474 3.790 o
4 3 6 190.325 197.472 7.758 o
4 3 7 134.692 133.905 5.366 o
4 3 8 15.714 15.051 2.174 o
4 3 9 26.229 26.463 2.909 o
4 4 0 343.120 329.871 17.298 o
4 4 1 498.062 503.183 13.338 o
4 4 2 192.304 183.549 5.038 o
4 4 4 21.422 22.025 1.242 o
4 4 5 12.754 11.522 1.559 o
4 4 7 168.344 172.863 9.729 o
4 4 8 476.753 481.440 19.990 o
4 4 9 18.391 15.945 2.611 o
4 5 0 159.312 160.752 8.777 o
4 5 1 164.151 145.410 19.319 o
4 5 2 9.351 8.124 0.891 o
4 5 3 63.112 62.051 2.075 o
4 5 4 3.965 4.512 0.697 o
4 5 6 8.459 8.288 0.750 o
4 5 7 17.863 18.992 1.194 o
4 5 8 30.149 33.805 2.987 o
4 5 9 10.457 12.198 2.193 o
4 6 1 284.415 278.421 7.040 o
4 6 2 357.548 358.844 9.061 o
4 6 3 741.829 735.298 21.481 o
4 6 4 13.812 14.634 1.626 o
4 6 5 8.124 8.138 1.064 o
4 6 7 43.717 43.461 2.269 o
4 6 8 10.617 11.729 1.123 o
4 6 9 93.123 109.152 5.942 o
4 6 10 142.250 160.186 9.280 o
4 7 0 17.862 19.108 1.222 o
4 7 2 55.580 56.377 2.852 o
4 7 3 194.536 191.401 5.925 o
4 7 5 55.424 59.318 3.164 o
4 7 6 13.663 11.947 1.019 o
4 7 8 23.823 23.175 2.748 o
4 8 3 56.219 55.525 3.155 o
4 8 4 114.799 114.886 4.657 o
4 8 5 365.512 360.506 13.546 o
4 8 9 18.436 20.142 3.157 o
4 9 0 20.773 21.572 2.121 o
4 9 1 6.608 7.853 2.077 o
4 9 2 24.648 25.138 2.582 o
4 9 5 120.427 119.376 5.903 o
4 9 7 10.642 14.524 2.511 o
4 9 8 9.350 11.263 2.648 o
4 10 1 32.886 32.926 3.251 o
4 10 6 28.890 25.181 3.110 o
5 -4 1 9.305 9.610 1.272 o
5 -4 3 15.860 15.091 2.737 o
5 -3 1 237.185 241.073 7.360 o
5 -3 4 14.498 17.115 1.707 o
5 -2 1 66.151 70.203 2.228 o
5 -2 2 2.387 2.363 0.701 o
5 -2 3 11.444 13.407 1.373 o
5 -2 4 18.020 16.613 2.541 o
5 -2 5 35.180 33.690 2.171 o
5 -1 1 509.063 493.963 13.077 o
5 -1 2 232.749 227.542 5.902 o
5 -1 3 40.648 40.784 1.669 o
5 -1 4 5.376 3.560 0.947 o
5 -1 6 5.637 8.100 2.586 o
5 -1 7 24.669 27.309 3.291 o
5 0 0 126.431 123.175 3.176 o
5 0 1 3.143 3.156 0.532 o
5 0 2 326.144 327.951 7.929 o
5 0 3 61.470 60.238 3.979 o
5 0 4 29.082 28.128 2.571 o
5 0 7 30.663 38.068 3.657 o
5 1 0 77.978 79.170 4.044 o
5 1 2 1.896 2.160 0.672 o
5 1 3 943.255 935.494 27.204 o
5 1 4 248.136 247.339 6.557 o
5 1 5 43.803 42.168 3.069 o
5 1 7 10.154 12.524 2.465 o
5 2 0 19.388 19.380 1.386 o
5 2 1 12.067 14.799 1.813 o
5 2 2 18.243 19.018 1.935 o
5 2 4 293.276 275.173 7.193 o
5 2 5 8.087 7.755 0.851 o
5 2 6 71.377 75.081 4.131 o
5 2 9 18.082 20.390 2.960 o
5 3 1 54.833 60.856 2.971 o
5 3 2 44.712 45.048 2.545 o
5 3 3 25.927 26.431 1.422 o
5 3 4 6.014 5.527 0.828 o
5 3 5 468.365 468.162 12.685 o
5 3 6 146.564 152.698 4.383 o
5 3 7 67.814 80.571 4.522 o
5 4 0 39.921 39.084 2.653 o
5 4 1 128.449 128.145 4.607 o
5 4 4 36.694 39.105 5.260 o
5 4 6 46.160 43.978 1.796 o
5 4 8 39.274 44.551 3.702 o
5 5 0 381.442 392.304 12.480 o
5 5 1 125.779 120.665 5.594 o
5 5 3 8.748 9.045 0.789 o
5 5 4 8.914 8.163 0.946 o
5 5 5 13.843 13.186 1.601 o
5 5 6 39.222 39.213 1.728 o
5 5 7 59.441 61.656 2.365 o
5 5 8 11.394 7.074 2.164 o
5 6 0 121.872 128.497 5.142 o
5 6 1 374.935 368.796 9.290 o
5 6 3 41.684 40.127 1.561 o
5 6 4 11.456 10.296 0.896 o
5 6 5 12.118 11.975 1.305 o
5 6 6 63.358 61.639 2.428 o
5 6 7 30.392 30.216 2.649 o
5 7 0 33.828 26.376 2.742 o
5 7 2 55.303 51.612 1.950 o
5 7 3 5.193 6.462 1.519 o
5 7 8 55.685 53.849 3.454 o
5 8 0 77.035 84.101 4.799 o
5 8 2 139.561 140.860 6.617 o
5 8 3 223.695 212.214 12.063 o
5 8 7 26.689 26.575 1.887 o
5 8 8 10.814 10.913 1.751 o
5 9 1 16.340 19.667 2.599 o
5 9 3 43.601 42.942 3.541 o
5 9 5 14.521 18.941 2.320 o
6 -2 1 9.956 10.056 2.063 o
6 -2 3 57.225 58.609 2.839 o
6 -1 2 38.910 36.622 1.969 o
6 -1 3 18.993 18.291 1.792 o
6 -1 5 23.063 23.123 2.743 o
6 0 1 548.158 545.620 17.056 o
6 0 3 43.166 45.974 3.389 o
6 0 5 52.789 51.454 3.640 o
6 1 0 7.507 7.712 1.142 o
6 1 1 96.032 97.298 3.323 o
6 1 2 127.263 131.097 4.123 o
6 1 4 42.260 41.370 1.987 o
6 1 5 14.269 11.003 2.493 o
6 1 7 27.221 29.269 3.293 o
6 2 0 15.689 14.059 1.850 o
6 2 3 74.689 70.451 2.578 o
6 2 7 12.258 11.388 2.614 o
6 3 0 43.241 46.558 3.186 o
6 3 1 7.277 8.467 1.934 o
6 3 2 140.828 153.784 5.580 o
6 3 3 85.986 82.409 2.945 o
6 3 4 16.764 16.024 1.176 o
6 3 8 15.821 13.604 2.883 o
6 4 0 8.967 9.521 1.783 o
6 4 2 13.878 14.942 2.011 o
6 4 3 11.872 9.120 1.725 o
6 4 4 35.100 35.078 1.992 o
6 4 5 22.134 20.838 1.332 o
6 4 6 7.086 7.538 1.937 o
6 4 7 33.363 32.049 3.301 o
6 5 2 19.478 18.674 2.186 o
6 5 3 48.920 46.499 3.077 o
6 5 4 99.609 90.436 3.202 o
6 5 5 51.340 51.149 2.244 o
6 5 8 16.674 14.553 2.467 o
6 6 0 13.039 12.107 2.346 o
6 6 1 36.887 32.862 2.944 o
6 6 2 8.579 7.842 2.051 o
6 6 3 7.394 7.479 1.892 o
6 6 4 15.564 13.928 2.120 o
6 6 5 8.952 9.121 1.125 o
6 6 6 45.173 44.828 2.690 o
6 6 7 33.162 27.756 2.923 o
6 6 8 13.477 15.309 2.384 o
6 7 0 107.037 115.401 5.753 o
6 7 1 81.158 81.753 4.608 o
6 7 2 13.095 14.786 2.172 o
6 7 3 21.257 17.765 2.519 o
6 7 5 33.421 36.043 3.048 o
6 7 6 9.342 9.762 1.977 o
6 7 7 8.966 7.583 2.121 o
6 8 2 28.949 26.877 2.835 o
6 8 4 6.825 8.630 2.133 o
6 9 1 67.517 66.092 5.196 o
6 9 4 37.557 38.002 3.887 o
7 -1 3 25.422 27.636 2.922 o
7 0 3 13.831 13.609 2.280 o
7 1 0 6.203 6.445 1.287 o
7 1 1 32.458 31.955 1.990 o
7 1 3 51.486 50.250 2.552 o
7 2 0 165.468 158.824 6.799 o
7 2 1 40.881 42.033 3.133 o
7 2 4 17.844 16.161 2.276 o
7 2 5 48.115 53.241 4.098 o
7 2 6 50.009 51.689 4.407 o
7 3 0 27.518 24.468 2.775 o
7 3 1 21.768 18.336 2.377 o
7 3 3 94.050 90.747 4.335 o
7 3 4 3.982 6.002 1.126 o
7 3 5 52.184 52.388 3.905 o
7 4 0 19.585 19.858 2.725 o
7 4 1 5.825 6.319 2.038 o
7 4 2 51.822 39.127 3.274 o
7 4 5 7.911 8.667 1.839 o
7 4 6 28.003 28.522 3.150 o
7 4 7 43.687 39.575 3.960 o
7 5 2 18.504 15.629 2.241 o
7 5 5 8.958 10.504 1.299 o
7 6 0 33.140 34.957 3.229 o
7 6 1 6.330 6.682 2.061 o
7 7 0 15.210 11.657 2.381 o
7 7 1 35.640 40.245 3.409 o
7 7 3 43.354 42.601 3.425 o
7 8 2 38.856 40.517 3.739 o
8 2 2 25.633 26.683 2.856 o
8 2 3 12.339 12.512 2.423 o
8 3 1 13.601 12.088 2.425 o
8 3 3 32.279 33.416 3.200 o
8 4 1 12.390 10.692 2.137 o
8 4 3 18.400 18.944 2.377 o
8 5 1 11.104 11.538 2.419 o
8 6 0 24.887 9.289 2.671 o
8 6 1 51.411 56.444 4.441 o
8 6 2 12.643 15.519 2.510 o
8 6 3 18.044 21.956 2.688 o
