#------------------------------------------------------------------------------
#$Date: 2016-03-24 14:09:40 +0200 (Thu, 24 Mar 2016) $
#$Revision: 179654 $
#$URL: svn://www.crystallography.net/cod/cif/4/51/07/4510701.cif $
#------------------------------------------------------------------------------
#
# This file is available in the Crystallography Open Database (COD),
# http://www.crystallography.net/
#
# All data on this site have been placed in the public domain by the
# contributors.
#
data_4510701
loop_
_publ_author_name
'Olejniczak, Anna'
'Anio\/la, Michalina'
'Szafra\'nski, Marek'
'Budzianowski, Armand'
'Katrusiak, Andrzej'
_publ_section_title
;
 New Polar Phases of 1,4-Diazabicyclo[2.2.2]octane Perchlorate, An
 NH+&#x00B7;&#x00B7;&#x00B7;N Hydrogen-Bonded Ferroelectric
;
_journal_issue                   7
_journal_name_full               'Crystal Growth &amp; Design'
_journal_page_first              2872
_journal_paper_doi               10.1021/cg400276c
_journal_volume                  13
_journal_year                    2013
_chemical_formula_moiety         'C6 H13 N2, Cl O4'
_chemical_formula_sum            'C6 H13 Cl N2 O4'
_chemical_formula_weight         212.63
_chemical_name_common
;
dabcoHClO4
;
_chemical_name_systematic
; 
1,4-diazabicyclo[2.2.2]octane perchlorate
;
_space_group_IT_number           31
_symmetry_cell_setting           orthorhombic
_symmetry_space_group_name_Hall  'P -2ab -2'
_symmetry_space_group_name_H-M   'P m 21 n'
_atom_sites_solution_hydrogens   geom
_atom_sites_solution_primary     direct
_atom_sites_solution_secondary   difmap
_audit_creation_method           SHELXL-97
_cell_angle_alpha                90.00
_cell_angle_beta                 90.00
_cell_angle_gamma                90.00
_cell_formula_units_Z            2
_cell_length_a                   8.7889(9)
_cell_length_b                   9.7596(12)
_cell_length_c                   5.3418(6)
_cell_measurement_reflns_used    2091
_cell_measurement_temperature    230(2)
_cell_measurement_theta_max      29.10
_cell_measurement_theta_min      3.81
_cell_volume                     458.20(9)
_computing_cell_refinement       'CrysAlis (Oxford Diffraction, 2002)'
_computing_data_collection       'CrysAlis (Oxford Diffraction, 2002)'
_computing_data_reduction        'CrysAlis (Oxford Diffraction, 2002)'
_computing_molecular_graphics
;X-Seed (Barbour, 2001) 
and POV-Ray (Persistence of Vision, 2004)
;
_computing_publication_material  'SHELXL-97 (Sheldrick, 1997)'
_computing_structure_refinement  'SHELXL-97 (Sheldrick, 1997)'
_computing_structure_solution    'SHELXS-97 (Sheldrick, 1997)'
_diffrn_ambient_temperature      230(2)
_diffrn_measured_fraction_theta_full 0.952
_diffrn_measured_fraction_theta_max 0.952
_diffrn_radiation_monochromator  graphite
_diffrn_radiation_source         'fine-focus sealed tube'
_diffrn_radiation_type           MoK\a
_diffrn_radiation_wavelength     0.71073
_diffrn_reflns_av_R_equivalents  0.0288
_diffrn_reflns_av_sigmaI/netI    0.0196
_diffrn_reflns_limit_h_max       11
_diffrn_reflns_limit_h_min       -11
_diffrn_reflns_limit_k_max       13
_diffrn_reflns_limit_k_min       -9
_diffrn_reflns_limit_l_max       7
_diffrn_reflns_limit_l_min       -5
_diffrn_reflns_number            2091
_diffrn_reflns_theta_full        29.10
_diffrn_reflns_theta_max         29.10
_diffrn_reflns_theta_min         3.81
_exptl_absorpt_coefficient_mu    0.403
_exptl_absorpt_correction_T_max  0.95
_exptl_absorpt_correction_T_min  0.90
_exptl_absorpt_correction_type   numerical
_exptl_absorpt_process_details
; 
Correction for absorption was made using XEMP (SHELXTL, 
Sheldrick (1990)).
;
_exptl_crystal_colour            colourless
_exptl_crystal_density_diffrn    1.541
_exptl_crystal_density_method    'not measured'
_exptl_crystal_description       plate
_exptl_crystal_F_000             224
_exptl_crystal_size_max          0.40
_exptl_crystal_size_mid          0.20
_exptl_crystal_size_min          0.15
_refine_diff_density_max         0.434
_refine_diff_density_min         -0.243
_refine_diff_density_rms         0.056
_refine_ls_abs_structure_details 'Flack H D (1983), Acta Cryst. A39, 876-881'
_refine_ls_abs_structure_Flack   0.11(11)
_refine_ls_extinction_coef       0.037(6)
_refine_ls_extinction_expression Fc^*^=kFc[1+0.001xFc^2^\l^3^/sin(2\q)]^-1/4^
_refine_ls_extinction_method     SHELXL
_refine_ls_goodness_of_fit_ref   1.072
_refine_ls_hydrogen_treatment    constr
_refine_ls_matrix_type           full
_refine_ls_number_parameters     71
_refine_ls_number_reflns         1008
_refine_ls_number_restraints     1
_refine_ls_restrained_S_all      1.071
_refine_ls_R_factor_all          0.0349
_refine_ls_R_factor_gt           0.0339
_refine_ls_shift/su_max          0.000
_refine_ls_shift/su_mean         0.000
_refine_ls_structure_factor_coef Fsqd
_refine_ls_weighting_details
'calc w=1/[\s^2^(Fo^2^)+(0.0512P)^2^+0.1351P] where P=(Fo^2^+2Fc^2^)/3'
_refine_ls_weighting_scheme      calc
_refine_ls_wR_factor_gt          0.0904
_refine_ls_wR_factor_ref         0.0913
_reflns_number_gt                975
_reflns_number_total             1008
_reflns_threshold_expression     >2sigma(I)
_cod_data_source_file            cg400276c_si_002.cif
_cod_data_source_block           dabcoHClO4_II_230K
_cod_original_sg_symbol_H-M      Pm21n
_cod_database_code               4510701
loop_
_symmetry_equiv_pos_as_xyz
'x, y, z'
'-x+1/2, y+1/2, -z'
'x+1/2, y+1/2, -z'
'-x, y, z'
loop_
_atom_site_label
_atom_site_type_symbol
_atom_site_fract_x
_atom_site_fract_y
_atom_site_fract_z
_atom_site_U_iso_or_equiv
_atom_site_adp_type
_atom_site_occupancy
_atom_site_symmetry_multiplicity
_atom_site_calc_flag
_atom_site_refinement_flags
Cl Cl 0.0000 -0.01744(11) -0.06951(12) 0.0326(2) Uani 1 2 d S
O1 O 0.0000 -0.0184(8) -0.3371(4) 0.0705(9) Uani 1 2 d S
O2 O 0.1329(2) -0.0875(3) 0.0176(4) 0.0542(6) Uani 1 1 d .
O3 O 0.0000 0.1198(4) 0.0209(7) 0.0659(9) Uani 1 2 d S
N2 N 0.0000 0.5490(4) 0.2797(5) 0.0343(7) Uani 1 2 d S
N1 N 0.0000 0.5480(4) 0.7524(5) 0.0377(7) Uani 1 2 d S
H1 H 0.0000 0.5487 0.9227 0.045 Uiso 1 2 calc SR
C2 C 0.0000 0.4098(5) 0.3711(8) 0.079(2) Uani 1 2 d S
H2A H 0.0892 0.3626 0.3081 0.095 Uiso 0.50 1 calc PR
H2B H -0.0892 0.3626 0.3081 0.095 Uiso 0.50 1 calc PR
C1 C 0.0000 0.4041(5) 0.6627(7) 0.0494(11) Uani 1 2 d S
H1A H -0.0896 0.3563 0.7228 0.059 Uiso 0.50 1 calc PR
H1B H 0.0896 0.3563 0.7228 0.059 Uiso 0.50 1 calc PR
C4 C 0.1340(3) 0.6202(4) 0.3767(5) 0.0577(9) Uani 1 1 d .
H4A H 0.1335 0.7141 0.3171 0.069 Uiso 1 1 calc R
H4B H 0.2250 0.5761 0.3126 0.069 Uiso 1 1 calc R
C3 C 0.1392(3) 0.6203(3) 0.6585(5) 0.0432(6) Uani 1 1 d .
H3A H 0.2300 0.5735 0.7165 0.052 Uiso 1 1 calc R
H3B H 0.1414 0.7136 0.7208 0.052 Uiso 1 1 calc R
loop_
_atom_site_aniso_label
_atom_site_aniso_U_11
_atom_site_aniso_U_22
_atom_site_aniso_U_33
_atom_site_aniso_U_23
_atom_site_aniso_U_13
_atom_site_aniso_U_12
Cl 0.0339(3) 0.0341(3) 0.0297(3) 0.0006(4) 0.000 0.000
O1 0.0612(14) 0.123(3) 0.0271(11) 0.009(3) 0.000 0.000
O2 0.0483(10) 0.0592(14) 0.0551(11) -0.0050(10) -0.0148(8) 0.0199(9)
O3 0.075(2) 0.0334(16) 0.090(3) -0.0109(16) 0.000 0.000
N2 0.0470(14) 0.0408(17) 0.0150(11) -0.0008(13) 0.000 0.000
N1 0.0638(17) 0.0367(16) 0.0125(11) -0.0005(12) 0.000 0.000
C2 0.177(6) 0.033(2) 0.0281(19) -0.009(2) 0.000 0.000
C1 0.090(3) 0.0298(19) 0.0282(17) 0.0049(18) 0.000 0.000
C4 0.0359(12) 0.099(3) 0.0386(13) 0.0021(16) 0.0113(10) -0.0166(13)
C3 0.0409(12) 0.0494(15) 0.0392(13) -0.0044(11) -0.0141(10) 0.0016(10)
loop_
_atom_type_symbol
_atom_type_description
_atom_type_scat_dispersion_real
_atom_type_scat_dispersion_imag
_atom_type_scat_source
C C 0.0033 0.0016 'International Tables Vol C Tables 4.2.6.8 and 6.1.1.4'
H H 0.0000 0.0000 'International Tables Vol C Tables 4.2.6.8 and 6.1.1.4'
N N 0.0061 0.0033 'International Tables Vol C Tables 4.2.6.8 and 6.1.1.4'
I I -0.4742 1.8119 'International Tables Vol C Tables 4.2.6.8 and 6.1.1.4'
loop_
_geom_angle_atom_site_label_1
_geom_angle_atom_site_label_2
_geom_angle_atom_site_label_3
_geom_angle
_geom_angle_site_symmetry_1
_geom_angle_site_symmetry_3
O3 Cl O1 110.2(4) . .
O3 Cl O2 109.83(13) . .
O1 Cl O2 108.78(18) . .
O3 Cl O2 109.83(13) . 4
O1 Cl O2 108.78(18) . 4
O2 Cl O2 109.4(2) . 4
C2 N2 C4 109.1(2) . .
C2 N2 C4 109.1(2) . 4
C4 N2 C4 107.3(3) . 4
C1 N1 C3 109.73(19) . .
C1 N1 C3 109.73(19) . 4
C3 N1 C3 109.4(3) . 4
C1 N1 H1 109.3 . .
C3 N1 H1 109.3 . .
C3 N1 H1 109.3 4 .
N2 C2 C1 111.8(4) . .
N2 C2 H2A 109.2 . .
C1 C2 H2A 109.2 . .
N2 C2 H2B 109.2 . .
C1 C2 H2B 109.2 . .
H2A C2 H2B 107.9 . .
N1 C1 C2 106.8(4) . .
N1 C1 H1A 110.4 . .
C2 C1 H1A 110.4 . .
N1 C1 H1B 110.4 . .
C2 C1 H1B 110.4 . .
H1A C1 H1B 108.6 . .
N2 C4 C3 112.2(2) . .
N2 C4 H4A 109.2 . .
C3 C4 H4A 109.2 . .
N2 C4 H4B 109.2 . .
C3 C4 H4B 109.2 . .
H4A C4 H4B 107.9 . .
N1 C3 C4 108.0(2) . .
N1 C3 H3A 110.1 . .
C4 C3 H3A 110.1 . .
N1 C3 H3B 110.1 . .
C4 C3 H3B 110.1 . .
H3A C3 H3B 108.4 . .
loop_
_geom_bond_atom_site_label_1
_geom_bond_atom_site_label_2
_geom_bond_distance
_geom_bond_site_symmetry_2
Cl O3 1.424(4) .
Cl O1 1.430(2) .
Cl O2 1.4311(19) .
Cl O2 1.4311(19) 4
N2 C2 1.443(5) .
N2 C4 1.463(3) .
N2 C4 1.463(3) 4
N1 C1 1.484(5) .
N1 C3 1.499(3) .
N1 C3 1.499(3) 4
N1 H1 0.9100 .
C2 C1 1.558(5) .
C2 H2A 0.9700 .
C2 H2B 0.9700 .
C1 H1A 0.9700 .
C1 H1B 0.9700 .
C4 C3 1.506(3) .
C4 H4A 0.9700 .
C4 H4B 0.9700 .
C3 H3A 0.9700 .
C3 H3B 0.9700 .
loop_
_geom_torsion_atom_site_label_1
_geom_torsion_atom_site_label_2
_geom_torsion_atom_site_label_3
_geom_torsion_atom_site_label_4
_geom_torsion
_geom_torsion_site_symmetry_1
C4 N2 C2 C1 58.47(17) .
C4 N2 C2 C1 -58.47(17) 4
C3 N1 C1 C2 -60.14(16) .
C3 N1 C1 C2 60.14(16) 4
N2 C2 C1 N1 0.000(1) .
C2 N2 C4 C3 -58.1(3) .
C4 N2 C4 C3 59.9(4) 4
C1 N1 C3 C4 61.5(3) .
C3 N1 C3 C4 -59.0(4) 4
N2 C4 C3 N1 -1.2(4) .
loop_
_refln_index_h
_refln_index_k
_refln_index_l
_refln_F_squared_calc
_refln_F_squared_meas
_refln_F_squared_sigma
_refln_observed_status
4 -6 0 140.82 151.06 2.19 o
6 -6 0 61.28 67.87 1.96 o
3 -5 0 755.67 808.74 3.97 o
7 -5 0 140.19 149.03 2.78 o
9 -5 0 38.74 34.83 1.81 o
2 -4 0 243.59 219.03 1.76 o
4 -4 0 945.42 1008.69 4.70 o
6 -4 0 61.56 59.02 1.79 o
8 -4 0 15.05 14.08 1.23 o
10 -4 0 51.36 54.36 2.23 o
1 -3 0 1829.09 1787.52 3.95 o
3 -3 0 419.58 489.45 2.85 o
5 -3 0 42.79 50.75 1.39 o
7 -3 0 379.87 408.97 4.19 o
9 -3 0 50.02 53.14 2.16 o
11 -3 0 6.21 6.33 1.30 o
2 -2 0 2972.65 2998.66 5.69 o
4 -2 0 1159.52 1133.90 4.94 o
8 -2 0 228.73 246.58 3.99 o
10 -2 0 49.31 48.48 2.03 o
3 -1 0 1410.24 1439.85 4.69 o
5 -1 0 192.58 186.61 2.50 o
7 -1 0 173.14 153.66 2.84 o
9 -1 0 46.45 51.55 2.12 o
11 -1 0 34.93 37.39 2.15 o
2 0 0 7077.82 7822.40 19.13 o
4 0 0 299.37 311.00 2.63 o
6 0 0 1415.93 1495.09 7.10 o
8 0 0 792.61 806.47 6.59 o
10 0 0 27.10 24.80 1.84 o
3 1 0 1448.23 1435.91 4.35 o
5 1 0 201.35 196.21 2.63 o
7 1 0 165.56 148.68 2.87 o
9 1 0 45.55 49.04 2.13 o
11 1 0 36.29 38.03 2.23 o
0 2 0 7146.25 6460.35 16.25 o
2 2 0 2975.66 3049.65 4.18 o
4 2 0 1164.91 1123.81 23.56 o
6 2 0 617.73 678.50 6.85 o
8 2 0 232.94 253.00 4.06 o
10 2 0 48.79 42.84 2.15 o
1 3 0 1811.11 1621.37 4.58 o
3 3 0 440.62 514.96 12.56 o
5 3 0 46.00 52.25 1.82 o
7 3 0 372.95 401.20 4.53 o
9 3 0 48.77 51.41 2.40 o
11 3 0 7.17 6.81 1.42 o
0 4 0 659.64 689.64 3.52 o
2 4 0 245.92 224.30 1.35 o
4 4 0 962.64 1034.93 21.04 o
6 4 0 60.91 57.45 1.44 o
8 4 0 13.04 11.34 1.18 o
10 4 0 52.38 57.17 2.53 o
1 5 0 1078.89 1058.83 4.90 o
3 5 0 746.03 724.91 4.22 o
5 5 0 457.19 432.04 8.54 o
7 5 0 139.30 142.75 3.01 o
9 5 0 38.03 34.23 1.97 o
0 6 0 219.95 233.27 2.73 o
2 6 0 59.91 37.33 1.30 o
4 6 0 147.66 158.95 7.60 o
6 6 0 58.36 66.60 2.26 o
8 6 0 27.12 30.82 1.91 o
10 6 0 21.33 22.68 2.03 o
1 7 0 475.70 465.62 12.44 o
3 7 0 1306.51 1367.47 6.94 o
5 7 0 539.00 569.50 16.34 o
7 7 0 33.02 33.58 1.99 o
9 7 0 39.37 42.24 2.17 o
0 8 0 111.60 123.17 2.60 o
2 8 0 47.44 43.64 1.30 o
4 8 0 25.46 34.08 1.51 o
6 8 0 26.41 27.44 1.58 o
8 8 0 23.64 25.03 2.10 o
1 9 0 164.29 175.66 2.35 o
3 9 0 256.75 249.98 4.08 o
5 9 0 104.18 101.67 2.43 o
0 10 0 50.92 35.42 1.88 o
2 10 0 25.54 26.89 1.19 o
4 10 0 50.25 51.53 1.47 o
1 11 0 30.94 26.63 1.37 o
3 11 0 3.56 5.86 0.85 o
5 11 0 3.31 6.31 1.33 o
0 12 0 44.28 69.17 2.58 o
2 12 0 44.37 53.61 1.79 o
4 12 0 28.78 24.77 2.12 o
1 13 0 3.58 1.83 0.65 o
4 -7 1 38.86 40.10 1.51 o
6 -7 1 10.41 10.40 1.11 o
7 -7 1 34.88 36.75 1.64 o
8 -7 1 7.39 8.42 1.20 o
3 -6 1 27.29 31.08 1.33 o
5 -6 1 19.61 19.50 1.36 o
6 -6 1 69.08 67.35 2.03 o
7 -6 1 17.79 20.04 1.48 o
8 -6 1 8.18 6.47 1.02 o
9 -6 1 4.67 3.79 1.00 o
10 -6 1 21.65 19.54 1.63 o
3 -5 1 193.81 192.86 1.34 o
4 -5 1 61.06 64.42 0.97 o
5 -5 1 90.45 92.04 1.32 o
6 -5 1 33.32 35.49 1.02 o
8 -5 1 20.62 20.43 1.49 o
9 -5 1 12.94 13.74 1.44 o
10 -5 1 6.91 6.32 1.18 o
2 -4 1 48.29 46.50 0.72 o
3 -4 1 159.96 165.43 1.96 o
4 -4 1 66.64 69.48 0.98 o
5 -4 1 66.82 66.85 1.12 o
6 -4 1 96.19 98.51 1.52 o
7 -4 1 21.83 22.53 1.30 o
8 -4 1 50.25 54.48 2.09 o
9 -4 1 13.30 13.56 0.91 o
10 -4 1 3.40 3.70 0.87 o
11 -4 1 4.67 4.53 1.13 o
2 -3 1 247.19 260.15 5.68 o
3 -3 1 204.54 195.45 1.91 o
4 -3 1 115.55 112.54 1.23 o
5 -3 1 116.58 120.92 1.44 o
6 -3 1 72.06 71.72 1.67 o
7 -3 1 17.87 18.99 0.95 o
8 -3 1 21.26 23.06 1.16 o
9 -3 1 18.16 18.42 1.11 o
10 -3 1 5.60 5.59 0.66 o
11 -3 1 20.41 20.63 1.90 o
1 -2 1 406.50 383.69 2.28 o
2 -2 1 522.37 525.28 1.71 o
3 -2 1 350.59 351.30 1.73 o
4 -2 1 823.66 908.05 5.01 o
5 -2 1 122.14 125.39 1.46 o
6 -2 1 106.19 101.85 2.13 o
7 -2 1 33.81 32.88 2.53 o
8 -2 1 107.83 116.03 2.12 o
9 -2 1 16.78 15.58 0.86 o
10 -2 1 19.99 19.77 1.38 o
11 -2 1 5.81 4.64 0.65 o
1 -1 1 4139.93 4150.00 86.33 o
2 -1 1 336.01 347.37 10.49 o
3 -1 1 10.93 7.53 0.38 o
4 -1 1 200.14 218.66 1.64 o
5 -1 1 98.66 99.11 2.76 o
6 -1 1 58.37 64.00 2.36 o
7 -1 1 375.20 400.49 3.13 o
8 -1 1 18.96 19.16 1.04 o
9 -1 1 58.06 57.20 2.00 o
10 -1 1 11.30 10.64 0.82 o
11 -1 1 2.47 1.59 0.41 o
0 0 1 314.79 327.86 1.60 o
1 0 1 578.41 549.78 2.36 o
2 0 1 453.42 401.90 4.84 o
3 0 1 303.63 291.04 1.64 o
4 0 1 154.15 134.27 2.53 o
5 0 1 175.75 153.30 3.26 o
6 0 1 103.97 105.30 1.74 o
7 0 1 50.98 54.57 1.21 o
8 0 1 62.39 63.24 2.19 o
9 0 1 8.27 9.19 0.76 o
10 0 1 35.89 40.92 1.40 o
11 0 1 4.91 3.49 1.01 o
0 1 1 264.01 268.72 7.63 o
1 1 1 4149.63 4194.15 88.88 o
2 1 1 336.67 340.90 8.91 o
3 1 1 9.92 6.79 0.36 o
4 1 1 200.13 215.17 3.88 o
5 1 1 100.99 99.27 1.10 o
6 1 1 57.97 59.84 1.00 o
7 1 1 377.78 406.71 4.24 o
8 1 1 19.13 17.90 1.01 o
9 1 1 58.15 58.19 1.28 o
10 1 1 11.48 10.86 1.06 o
11 1 1 2.16 1.36 0.56 o
0 2 1 1247.42 1111.59 49.75 o
1 2 1 406.75 359.26 13.64 o
2 2 1 543.86 537.28 11.95 o
3 2 1 348.33 340.82 6.70 o
4 2 1 849.14 934.08 20.98 o
5 2 1 121.34 123.97 3.05 o
6 2 1 105.67 101.24 1.40 o
7 2 1 33.79 32.60 0.90 o
8 2 1 104.98 110.71 2.34 o
9 2 1 16.57 16.18 1.07 o
10 2 1 21.34 18.78 1.24 o
11 2 1 5.72 4.80 0.99 o
0 3 1 459.65 426.45 19.75 o
1 3 1 119.80 106.50 3.06 o
2 3 1 247.39 249.56 5.08 o
3 3 1 209.44 195.38 4.31 o
4 3 1 115.43 111.71 1.86 o
5 3 1 120.10 123.34 2.99 o
6 3 1 72.30 71.87 2.00 o
7 3 1 16.83 17.57 0.59 o
8 3 1 21.52 22.98 1.16 o
9 3 1 17.72 17.87 1.15 o
10 3 1 5.72 5.91 1.22 o
11 3 1 20.53 20.62 1.67 o
0 4 1 389.26 344.30 2.77 o
1 4 1 171.79 163.48 4.77 o
2 4 1 52.32 47.86 0.66 o
3 4 1 159.82 162.05 3.12 o
4 4 1 72.91 72.29 0.86 o
5 4 1 66.01 64.38 1.25 o
6 4 1 95.41 98.00 1.07 o
7 4 1 21.50 21.23 0.94 o
8 4 1 49.32 50.77 1.78 o
9 4 1 13.38 13.97 1.51 o
10 4 1 3.64 3.57 0.78 o
11 4 1 4.62 3.59 1.31 o
0 5 1 227.60 214.41 2.54 o
1 5 1 403.26 422.87 10.73 o
2 5 1 138.16 121.68 3.18 o
3 5 1 198.39 192.26 4.06 o
4 5 1 60.66 61.25 1.49 o
5 5 1 90.54 91.73 1.96 o
6 5 1 33.87 35.64 1.17 o
7 5 1 68.34 68.10 1.59 o
8 5 1 20.86 19.52 0.90 o
9 5 1 12.56 15.27 1.21 o
10 5 1 6.87 7.34 1.01 o
0 6 1 67.92 60.53 2.57 o
1 6 1 75.95 66.04 1.54 o
2 6 1 296.46 292.04 1.78 o
3 6 1 28.01 30.10 0.61 o
4 6 1 438.36 440.11 2.85 o
5 6 1 19.77 18.76 0.90 o
6 6 1 68.33 67.78 1.24 o
7 6 1 17.66 17.02 0.81 o
8 6 1 8.21 6.24 0.79 o
9 6 1 4.68 3.71 0.63 o
10 6 1 21.40 20.25 1.37 o
0 7 1 31.35 34.89 0.98 o
1 7 1 74.67 71.80 1.07 o
2 7 1 46.03 43.47 1.79 o
3 7 1 116.66 110.23 1.33 o
4 7 1 38.66 39.14 1.76 o
5 7 1 78.65 73.48 1.52 o
6 7 1 10.34 9.83 1.14 o
7 7 1 34.29 36.38 1.05 o
8 7 1 7.44 6.93 0.67 o
9 7 1 14.19 17.41 1.20 o
10 7 1 4.78 5.17 1.13 o
0 8 1 40.53 39.28 1.15 o
1 8 1 34.45 35.55 0.93 o
2 8 1 197.75 200.30 1.90 o
3 8 1 6.25 5.67 0.56 o
4 8 1 245.76 260.37 7.61 o
5 8 1 6.51 4.87 1.06 o
6 8 1 28.79 26.01 1.16 o
7 8 1 11.00 11.58 1.04 o
8 8 1 8.04 6.81 1.29 o
9 8 1 3.89 2.93 1.08 o
0 9 1 21.09 19.28 1.14 o
1 9 1 93.90 101.84 1.25 o
2 9 1 12.86 13.34 0.64 o
3 9 1 60.71 65.07 2.44 o
4 9 1 10.90 11.25 1.11 o
5 9 1 31.06 35.93 1.36 o
6 9 1 9.38 8.95 0.92 o
7 9 1 20.78 22.93 2.15 o
8 9 1 3.95 3.97 1.12 o
0 10 1 28.45 29.61 1.21 o
1 10 1 9.24 8.97 0.59 o
2 10 1 23.72 20.65 0.76 o
3 10 1 16.20 16.47 0.90 o
4 10 1 12.88 11.23 1.82 o
5 10 1 7.35 6.11 0.84 o
6 10 1 9.17 8.81 0.99 o
7 10 1 2.61 3.09 1.11 o
0 11 1 12.03 12.31 1.06 o
1 11 1 18.89 18.75 0.76 o
2 11 1 4.39 4.75 0.70 o
3 11 1 26.47 25.33 1.29 o
4 11 1 1.32 1.04 0.52 o
5 11 1 9.25 8.32 1.14 o
6 11 1 4.06 3.13 0.92 o
0 12 1 11.24 8.89 0.97 o
1 12 1 5.33 3.68 0.65 o
2 12 1 7.92 7.21 0.82 o
3 12 1 8.34 9.42 1.15 o
4 12 1 7.09 8.70 1.14 o
5 12 1 5.26 4.90 1.34 o
1 13 1 29.74 37.82 2.34 o
6 -8 2 36.98 39.11 1.83 o
7 -8 2 10.85 10.36 1.35 o
8 -8 2 9.43 9.63 1.03 o
1 -7 2 0.05 0.28 0.32 o
5 -7 2 9.54 10.92 1.12 o
6 -7 2 28.84 29.39 1.75 o
7 -7 2 0.56 1.09 0.66 o
8 -7 2 15.32 15.59 1.51 o
9 -7 2 2.62 2.29 0.68 o
0 -6 2 209.61 215.09 2.03 o
1 -6 2 50.39 55.96 1.32 o
2 -6 2 241.20 262.69 2.88 o
4 -6 2 290.84 289.47 3.67 o
5 -6 2 15.89 17.61 1.40 o
7 -6 2 19.35 19.88 1.17 o
8 -6 2 13.72 13.50 1.11 o
9 -6 2 19.17 18.93 1.30 o
10 -6 2 13.37 14.62 1.90 o
0 -5 2 120.93 114.06 1.46 o
1 -5 2 35.77 30.32 0.56 o
2 -5 2 77.00 83.49 1.71 o
3 -5 2 80.97 93.57 1.40 o
4 -5 2 43.94 42.78 1.15 o
5 -5 2 35.24 36.78 2.45 o
6 -5 2 34.94 36.32 1.22 o
7 -5 2 6.06 4.49 1.18 o
8 -5 2 20.36 20.24 1.61 o
9 -5 2 0.48 0.54 0.49 o
10 -5 2 8.13 8.27 1.51 o
0 -4 2 552.38 577.34 2.94 o
1 -4 2 126.59 126.24 0.98 o
2 -4 2 68.33 92.39 1.69 o
3 -4 2 62.52 63.22 1.53 o
4 -4 2 20.18 18.32 0.83 o
5 -4 2 53.91 56.70 1.30 o
6 -4 2 51.28 51.90 1.65 o
7 -4 2 36.14 38.94 1.32 o
8 -4 2 36.88 33.95 1.32 o
9 -4 2 13.24 13.54 1.16 o
10 -4 2 4.90 4.47 0.90 o
0 -3 2 57.95 53.76 0.94 o
1 -3 2 40.08 42.20 0.59 o
2 -3 2 78.31 76.76 0.85 o
3 -3 2 358.87 376.81 5.00 o
4 -3 2 75.52 74.80 0.91 o
5 -3 2 157.05 153.52 1.37 o
6 -3 2 29.11 30.87 0.91 o
7 -3 2 28.21 31.91 0.94 o
8 -3 2 25.67 27.16 0.96 o
9 -3 2 8.88 8.11 0.68 o
10 -3 2 14.14 14.27 1.11 o
0 -2 2 459.37 488.70 2.64 o
1 -2 2 93.94 83.80 2.16 o
2 -2 2 20.65 23.85 0.46 o
3 -2 2 104.86 94.67 1.54 o
4 -2 2 138.49 137.10 1.39 o
5 -2 2 82.94 85.22 1.18 o
6 -2 2 18.82 14.89 0.62 o
7 -2 2 29.16 31.44 0.94 o
8 -2 2 42.38 34.86 1.04 o
9 -2 2 13.75 13.49 0.88 o
10 -2 2 0.88 1.42 0.42 o
11 -2 2 8.82 6.54 1.00 o
0 -1 2 21.78 24.52 0.74 o
1 -1 2 2373.58 2406.71 30.31 o
2 -1 2 14.89 14.40 0.49 o
3 -1 2 209.83 202.74 1.78 o
4 -1 2 59.38 61.14 0.89 o
5 -1 2 157.38 171.79 2.48 o
6 -1 2 31.76 33.41 0.89 o
7 -1 2 220.93 221.20 4.06 o
8 -1 2 8.59 10.29 0.69 o
9 -1 2 58.63 58.72 1.32 o
10 -1 2 8.22 8.24 0.75 o
11 -1 2 4.13 4.26 0.70 o
0 0 2 6.36 4.74 0.32 o
1 0 2 90.46 78.10 1.45 o
2 0 2 1.03 2.68 0.25 o
3 0 2 91.86 90.72 1.19 o
4 0 2 37.65 52.39 1.01 o
5 0 2 47.69 56.29 1.14 o
6 0 2 24.76 19.53 0.69 o
7 0 2 23.74 21.70 0.86 o
8 0 2 14.32 14.84 0.84 o
9 0 2 18.66 18.83 0.90 o
10 0 2 0.59 0.93 0.45 o
11 0 2 6.74 4.93 0.66 o
0 1 2 19.60 23.59 0.90 o
1 1 2 2379.79 2310.19 28.75 o
2 1 2 12.47 11.40 0.30 o
3 1 2 215.27 197.14 9.24 o
4 1 2 57.72 59.13 0.89 o
5 1 2 160.65 173.25 1.94 o
6 1 2 31.29 32.46 1.13 o
7 1 2 221.90 226.92 3.12 o
8 1 2 8.05 9.84 0.73 o
9 1 2 59.14 58.88 1.64 o
10 1 2 8.02 8.24 0.74 o
11 1 2 4.28 3.39 0.86 o
0 2 2 446.05 446.23 16.89 o
1 2 2 96.82 82.20 1.12 o
2 2 2 22.47 23.97 0.42 o
3 2 2 104.64 95.25 1.15 o
4 2 2 143.52 139.65 3.74 o
5 2 2 82.08 83.59 1.56 o
6 2 2 17.69 13.20 0.54 o
7 2 2 29.90 32.21 1.27 o
8 2 2 40.46 32.44 1.02 o
9 2 2 14.54 14.89 0.82 o
10 2 2 0.89 0.53 0.58 o
11 2 2 8.76 4.37 1.12 o
0 3 2 57.80 51.61 1.23 o
1 3 2 41.89 42.52 0.53 o
2 3 2 76.11 70.75 1.92 o
3 3 2 369.31 371.92 11.17 o
4 3 2 71.89 71.16 1.22 o
5 3 2 162.15 153.97 2.43 o
6 3 2 27.63 28.03 0.78 o
7 3 2 28.29 31.81 1.31 o
8 3 2 25.44 27.56 0.97 o
9 3 2 9.42 9.91 0.99 o
10 3 2 14.05 14.11 1.18 o
0 4 2 538.98 520.18 20.00 o
1 4 2 129.64 124.38 1.38 o
2 4 2 64.00 77.26 1.51 o
3 4 2 62.95 62.54 0.89 o
4 4 2 19.71 16.75 0.94 o
5 4 2 54.91 56.38 1.64 o
6 4 2 48.72 46.01 1.03 o
7 4 2 37.19 40.12 0.91 o
8 4 2 35.31 31.18 1.11 o
9 4 2 13.43 13.40 1.10 o
10 4 2 4.81 4.79 0.87 o
0 5 2 121.19 106.84 2.60 o
1 5 2 33.72 25.50 0.70 o
2 5 2 77.37 78.53 1.94 o
3 5 2 85.04 95.95 1.91 o
4 5 2 43.14 40.55 0.84 o
5 5 2 36.97 39.54 0.87 o
6 5 2 34.05 33.86 0.86 o
7 5 2 5.22 4.49 0.59 o
8 5 2 20.55 19.10 0.94 o
9 5 2 0.55 0.62 0.39 o
10 5 2 8.21 7.42 1.01 o
0 6 2 204.50 188.13 2.85 o
1 6 2 52.04 52.08 1.35 o
2 6 2 238.03 243.28 9.44 o
3 6 2 35.90 32.62 0.87 o
4 6 2 289.11 276.38 12.72 o
5 6 2 16.33 16.84 0.70 o
6 6 2 78.78 75.04 1.50 o
7 6 2 19.91 17.49 0.78 o
8 6 2 13.30 14.41 0.89 o
9 6 2 19.25 16.95 0.95 o
10 6 2 13.32 11.56 1.36 o
0 7 2 108.33 94.46 2.07 o
1 7 2 0.17 0.48 0.23 o
2 7 2 47.01 46.14 0.95 o
3 7 2 33.63 34.63 1.11 o
4 7 2 19.42 19.40 1.01 o
5 7 2 9.47 8.51 0.79 o
6 7 2 29.24 27.85 1.22 o
7 7 2 0.40 0.81 0.68 o
8 7 2 15.31 14.19 1.10 o
9 7 2 2.79 2.45 0.79 o
0 8 2 70.73 65.12 1.39 o
1 8 2 16.56 15.10 1.26 o
2 8 2 163.48 159.21 3.69 o
3 8 2 18.55 20.22 1.08 o
4 8 2 189.47 190.40 3.52 o
5 8 2 13.21 12.99 0.97 o
6 8 2 37.03 39.80 1.54 o
7 8 2 10.53 11.00 1.46 o
8 8 2 9.66 8.13 0.98 o
0 9 2 45.41 51.53 1.32 o
1 9 2 8.96 6.92 0.69 o
2 9 2 38.12 37.23 1.39 o
3 9 2 9.02 9.68 0.90 o
4 9 2 22.28 18.83 1.15 o
5 9 2 4.20 2.30 0.68 o
6 9 2 15.19 14.35 1.04 o
7 9 2 2.05 0.70 0.38 o
8 9 2 10.54 8.71 0.92 o
0 10 2 37.40 40.86 2.03 o
1 10 2 21.41 20.95 0.93 o
2 10 2 30.85 29.76 1.06 o
3 10 2 7.63 9.33 1.00 o
4 10 2 15.55 13.96 1.26 o
5 10 2 10.69 11.44 1.05 o
6 10 2 8.52 8.03 0.93 o
7 10 2 10.81 9.46 1.41 o
0 11 2 13.46 9.28 1.49 o
1 11 2 2.94 1.96 0.72 o
2 11 2 22.62 23.50 1.27 o
3 11 2 13.07 11.47 0.87 o
4 11 2 23.47 28.13 1.38 o
5 11 2 5.39 2.91 0.71 o
0 12 2 8.40 8.02 1.35 o
1 12 2 12.50 15.43 1.27 o
2 12 2 2.19 2.05 0.67 o
3 12 2 7.73 3.84 1.04 o
5 -9 3 7.09 6.15 1.28 o
6 -9 3 18.21 20.83 1.84 o
7 -9 3 1.00 0.71 0.56 o
4 -8 3 0.99 1.91 0.70 o
5 -8 3 31.82 35.73 1.95 o
6 -8 3 1.93 2.65 1.15 o
7 -8 3 17.66 18.25 1.24 o
8 -8 3 5.17 4.91 1.34 o
2 -7 3 47.45 52.36 1.59 o
3 -7 3 206.69 216.59 3.13 o
4 -7 3 17.69 19.38 1.52 o
5 -7 3 76.34 77.27 2.59 o
7 -7 3 0.11 0.61 0.52 o
8 -7 3 29.41 31.42 1.57 o
1 -6 3 158.87 169.14 2.27 o
2 -6 3 1.63 2.21 0.53 o
3 -6 3 86.80 92.39 2.27 o
4 -6 3 20.64 18.56 1.38 o
5 -6 3 57.03 63.73 1.65 o
6 -6 3 11.22 11.13 0.98 o
7 -6 3 34.92 37.51 1.51 o
8 -6 3 7.91 7.26 1.02 o
9 -6 3 14.87 12.42 1.73 o
0 -5 3 136.56 140.96 1.87 o
1 -5 3 74.52 79.60 1.61 o
2 -5 3 128.62 131.23 2.22 o
3 -5 3 57.37 57.20 1.81 o
4 -5 3 78.56 86.97 1.69 o
5 -5 3 42.91 35.08 1.30 o
6 -5 3 47.44 49.16 1.53 o
7 -5 3 12.99 13.64 1.15 o
8 -5 3 33.60 33.69 1.63 o
9 -5 3 1.89 1.55 0.60 o
0 -4 3 287.79 302.34 2.66 o
1 -4 3 307.82 310.58 1.87 o
3 -4 3 118.55 123.91 3.34 o
4 -4 3 114.26 114.21 1.88 o
5 -4 3 71.49 74.17 3.40 o
6 -4 3 7.55 7.64 1.11 o
7 -4 3 69.67 71.86 2.70 o
8 -4 3 13.78 11.09 1.14 o
9 -4 3 33.12 34.91 1.69 o
0 -3 3 158.49 169.66 2.05 o
1 -3 3 147.91 156.40 3.04 o
2 -3 3 237.07 235.60 3.96 o
3 -3 3 199.70 203.17 6.94 o
4 -3 3 252.87 258.95 4.82 o
5 -3 3 25.98 28.79 1.14 o
6 -3 3 82.89 90.51 4.13 o
7 -3 3 67.59 60.55 1.64 o
8 -3 3 23.04 27.17 1.30 o
9 -3 3 4.54 3.30 1.01 o
10 -3 3 20.11 20.59 1.43 o
0 -2 3 421.50 457.22 3.26 o
1 -2 3 168.30 165.71 1.48 o
2 -2 3 162.07 162.59 2.20 o
3 -2 3 166.47 170.37 3.26 o
4 -2 3 62.65 64.97 2.61 o
5 -2 3 114.24 116.23 3.03 o
6 -2 3 57.17 56.95 1.11 o
7 -2 3 59.68 64.75 1.32 o
8 -2 3 25.56 24.46 1.93 o
9 -2 3 28.01 31.88 1.39 o
10 -2 3 2.72 1.15 0.54 o
0 -1 3 343.05 355.22 3.00 o
1 -1 3 44.29 43.27 1.31 o
2 -1 3 244.70 248.61 3.26 o
3 -1 3 222.89 213.33 1.77 o
4 -1 3 194.53 197.10 6.39 o
5 -1 3 48.82 52.67 1.90 o
6 -1 3 97.26 95.45 1.39 o
7 -1 3 27.12 21.17 1.13 o
8 -1 3 44.54 48.19 1.56 o
9 -1 3 2.92 2.27 0.54 o
10 -1 3 13.08 12.85 0.93 o
0 0 3 3258.32 3410.16 49.73 o
1 0 3 21.70 18.23 0.52 o
2 0 3 392.69 417.75 3.63 o
3 0 3 271.78 259.98 2.08 o
4 0 3 0.78 0.38 0.32 o
5 0 3 186.73 186.18 2.39 o
6 0 3 178.86 171.24 1.75 o
7 0 3 25.29 28.47 0.96 o
8 0 3 145.15 131.82 2.23 o
9 0 3 14.84 15.47 0.84 o
10 0 3 0.06 0.26 0.48 o
0 1 3 346.21 357.94 3.21 o
1 1 3 42.84 40.51 0.80 o
2 1 3 242.50 238.77 2.84 o
3 1 3 226.24 209.72 4.02 o
4 1 3 190.32 188.17 3.32 o
5 1 3 50.07 51.53 1.38 o
6 1 3 96.91 98.43 1.77 o
7 1 3 26.22 20.09 0.90 o
8 1 3 45.47 49.17 1.32 o
9 1 3 2.80 2.20 0.50 o
10 1 3 12.92 12.24 0.88 o
0 2 3 423.19 440.78 14.42 o
1 2 3 167.53 156.79 2.23 o
2 2 3 161.41 156.11 2.46 o
3 2 3 167.34 164.76 3.49 o
4 2 3 62.03 57.27 2.28 o
5 2 3 113.87 114.25 3.28 o
6 2 3 57.58 56.57 1.82 o
7 2 3 58.73 62.19 1.45 o
8 2 3 26.01 23.15 0.99 o
9 2 3 27.96 30.17 1.12 o
10 2 3 2.63 1.21 0.49 o
0 3 3 159.92 167.12 2.43 o
1 3 3 147.41 149.28 2.50 o
2 3 3 234.61 221.92 3.50 o
3 3 3 202.82 188.71 4.13 o
4 3 3 249.34 240.27 8.69 o
5 3 3 27.02 27.88 1.43 o
6 3 3 82.33 86.97 1.94 o
7 3 3 66.95 60.14 1.78 o
8 3 3 23.67 27.72 1.02 o
9 3 3 4.46 3.15 0.59 o
10 3 3 19.95 18.13 1.35 o
0 4 3 284.16 279.43 6.08 o
1 4 3 310.87 298.31 5.95 o
2 4 3 18.94 12.73 0.54 o
3 4 3 117.83 116.75 2.90 o
4 4 3 115.17 107.85 2.65 o
5 4 3 70.24 68.62 1.61 o
6 4 3 7.11 7.20 0.59 o
7 4 3 70.27 73.35 1.74 o
8 4 3 13.35 10.94 0.79 o
9 4 3 33.66 33.36 1.55 o
10 4 3 5.99 5.87 1.16 o
0 5 3 136.50 139.30 2.61 o
1 5 3 74.71 72.44 1.43 o
2 5 3 128.47 122.76 3.38 o
3 5 3 56.95 52.00 1.03 o
4 5 3 78.79 86.65 3.10 o
5 5 3 42.55 36.24 1.27 o
6 5 3 47.42 47.00 1.63 o
7 5 3 13.11 11.93 0.75 o
8 5 3 33.34 32.21 1.14 o
9 5 3 1.91 1.77 0.53 o
10 5 3 18.13 16.11 1.64 o
0 6 3 102.73 104.66 4.62 o
1 6 3 160.36 162.62 3.52 o
2 6 3 1.51 2.22 0.40 o
3 6 3 86.44 86.89 3.95 o
4 6 3 21.45 18.01 0.98 o
5 6 3 56.84 58.98 3.02 o
6 6 3 10.76 9.67 0.83 o
8 6 3 7.61 7.11 1.01 o
9 6 3 15.06 12.47 1.49 o
0 7 3 76.41 78.96 2.26 o
1 7 3 23.52 20.48 0.86 o
2 7 3 47.92 52.06 1.12 o
3 7 3 206.28 213.95 7.25 o
4 7 3 18.08 19.08 0.84 o
5 7 3 76.14 72.21 1.70 o
6 7 3 24.80 22.48 1.18 o
7 7 3 0.11 0.76 0.61 o
8 7 3 29.42 28.99 3.01 o
0 8 3 32.96 34.17 1.85 o
1 8 3 70.09 75.30 2.32 o
2 8 3 7.88 4.67 0.76 o
3 8 3 52.12 52.59 1.90 o
4 8 3 0.84 1.93 0.61 o
5 8 3 32.10 33.12 1.49 o
6 8 3 2.04 1.83 0.55 o
7 8 3 17.56 18.69 1.94 o
0 9 3 35.36 32.60 1.82 o
1 9 3 10.08 9.73 0.99 o
2 9 3 24.85 27.64 1.67 o
3 9 3 26.69 20.69 1.29 o
4 9 3 18.06 22.30 1.22 o
5 9 3 7.09 5.48 1.21 o
6 9 3 18.20 17.39 1.16 o
7 9 3 0.92 1.56 0.80 o
0 10 3 34.17 27.06 1.89 o
1 10 3 37.72 39.78 1.50 o
2 10 3 4.70 2.16 0.67 o
3 10 3 27.91 28.58 1.33 o
4 10 3 5.93 5.14 0.84 o
5 10 3 16.98 17.20 1.28 o
6 10 3 2.45 0.96 0.60 o
0 11 3 21.66 23.17 2.03 o
1 11 3 0.96 0.63 0.45 o
2 11 3 20.60 21.92 1.25 o
3 11 3 5.14 6.95 1.04 o
5 -8 4 19.35 24.45 1.91 o
6 -8 4 12.72 11.84 1.57 o
4 -7 4 44.20 46.92 2.04 o
5 -7 4 0.73 1.26 0.73 o
6 -7 4 15.57 16.76 1.71 o
7 -7 4 2.23 2.17 0.95 o
2 -6 4 8.14 6.86 0.97 o
3 -6 4 46.93 49.46 1.85 o
4 -6 4 1.87 3.56 0.94 o
5 -6 4 32.60 39.56 2.24 o
6 -6 4 12.26 13.74 1.18 o
7 -6 4 41.58 45.23 1.64 o
1 -5 4 198.68 210.28 2.84 o
2 -5 4 133.68 135.17 2.56 o
3 -5 4 0.15 0.60 0.62 o
4 -5 4 58.16 62.31 2.19 o
5 -5 4 5.12 5.17 1.26 o
6 -5 4 55.45 57.54 2.89 o
7 -5 4 50.62 50.12 3.05 o
8 -5 4 38.63 39.95 1.64 o
1 -4 4 131.34 139.63 2.35 o
2 -4 4 99.85 108.60 2.46 o
3 -4 4 188.57 199.44 3.36 o
4 -4 4 105.09 111.66 2.64 o
5 -4 4 96.56 99.52 6.47 o
6 -4 4 8.09 7.13 1.42 o
7 -4 4 26.36 27.50 2.41 o
8 -4 4 2.82 2.89 0.76 o
0 -3 4 347.08 343.21 3.38 o
1 -3 4 190.48 188.27 4.37 o
2 -3 4 210.55 224.04 3.15 o
3 -3 4 47.00 46.53 1.93 o
4 -3 4 103.10 111.58 4.60 o
5 -3 4 22.54 22.46 1.17 o
6 -3 4 98.15 103.75 3.20 o
7 -3 4 35.21 35.87 2.08 o
8 -3 4 51.85 57.84 4.82 o
9 -3 4 8.21 6.91 0.95 o
0 -2 4 7.22 5.93 0.99 o
1 -2 4 156.38 177.06 5.80 o
2 -2 4 136.51 139.52 2.09 o
3 -2 4 251.05 255.37 8.94 o
4 -2 4 278.95 288.33 8.94 o
5 -2 4 139.03 140.60 2.12 o
6 -2 4 0.85 0.93 0.71 o
7 -2 4 37.96 41.08 1.52 o
8 -2 4 3.48 4.35 0.91 o
9 -2 4 17.88 15.45 1.21 o
0 -1 4 112.70 126.55 2.32 o
1 -1 4 1.10 1.43 0.46 o
2 -1 4 231.19 248.50 3.53 o
3 -1 4 218.07 202.17 3.85 o
4 -1 4 271.06 283.38 9.04 o
5 -1 4 57.36 60.44 2.05 o
6 -1 4 80.69 82.57 1.40 o
7 -1 4 4.34 4.21 0.77 o
8 -1 4 23.58 25.22 1.31 o
9 -1 4 5.34 5.72 0.97 o
0 0 4 2.43 2.56 0.38 o
1 0 4 201.10 214.88 3.93 o
2 0 4 0.37 0.74 0.30 o
3 0 4 109.90 121.57 3.09 o
4 0 4 6.01 8.01 0.88 o
5 0 4 107.29 101.98 2.57 o
6 0 4 0.89 0.75 0.54 o
7 0 4 71.18 68.77 1.65 o
8 0 4 0.67 0.78 0.45 o
9 0 4 13.19 12.74 1.16 o
0 1 4 112.41 122.73 2.31 o
1 1 4 1.23 1.41 0.25 o
2 1 4 232.89 240.89 4.36 o
3 1 4 219.19 205.42 4.54 o
4 1 4 272.91 275.45 6.03 o
5 1 4 57.78 55.09 2.05 o
6 1 4 80.29 85.08 1.77 o
7 1 4 4.23 3.87 0.81 o
8 1 4 23.48 24.87 1.05 o
9 1 4 5.38 5.49 0.70 o
0 2 4 7.40 5.68 0.59 o
1 2 4 155.84 167.35 2.09 o
2 2 4 134.92 130.12 1.58 o
3 2 4 245.04 240.02 3.42 o
4 2 4 276.81 276.09 4.20 o
5 2 4 135.93 130.46 3.34 o
6 2 4 0.76 0.67 0.50 o
7 2 4 38.50 39.88 1.39 o
8 2 4 3.61 4.60 0.80 o
9 2 4 17.73 15.33 1.22 o
0 3 4 350.35 349.06 4.15 o
1 3 4 191.82 184.83 1.42 o
2 3 4 213.69 213.66 2.36 o
3 3 4 48.05 44.80 0.97 o
4 3 4 104.75 104.66 1.97 o
5 3 4 23.06 22.80 0.89 o
6 3 4 98.63 100.24 1.96 o
7 3 4 35.35 33.00 1.78 o
8 3 4 52.46 57.80 1.40 o
9 3 4 8.35 5.50 0.69 o
0 4 4 47.95 43.00 1.21 o
1 4 4 129.21 129.74 2.70 o
2 4 4 98.68 101.69 2.60 o
3 4 4 186.27 191.63 3.37 o
4 4 4 104.37 113.85 2.88 o
5 4 4 94.70 93.36 4.28 o
6 4 4 7.78 5.76 0.77 o
7 4 4 25.60 26.56 2.53 o
8 4 4 2.67 2.56 1.07 o
0 5 4 263.40 260.68 7.30 o
1 5 4 200.33 205.28 3.79 o
2 5 4 135.56 126.97 4.46 o
3 5 4 0.14 0.47 0.30 o
4 5 4 57.79 53.73 2.58 o
5 5 4 5.34 4.82 1.10 o
6 5 4 56.74 57.64 3.75 o
7 5 4 51.16 52.32 3.19 o
8 5 4 39.71 35.85 2.40 o
0 6 4 74.63 72.81 3.20 o
1 6 4 120.00 120.99 3.93 o
2 6 4 7.88 6.87 0.66 o
3 6 4 47.53 46.63 1.12 o
4 6 4 1.84 3.27 0.81 o
5 6 4 32.58 33.53 2.22 o
6 6 4 12.07 12.28 1.06 o
0 7 4 43.94 49.10 1.91 o
1 7 4 0.77 0.73 0.38 o
2 7 4 54.42 54.67 1.73 o
3 7 4 0.76 0.82 0.36 o
4 7 4 44.15 42.58 1.96 o
5 7 4 0.77 0.39 0.41 o
6 7 4 15.82 12.19 1.62 o
7 7 4 2.29 0.96 0.65 o
0 8 4 39.77 35.32 2.04 o
1 8 4 70.14 75.06 3.17 o
2 8 4 2.31 1.21 0.54 o
3 8 4 22.16 22.28 0.96 o
4 8 4 0.45 0.70 0.49 o
5 8 4 19.64 20.59 1.78 o
6 8 4 12.82 10.89 1.53 o
0 9 4 38.21 42.85 2.22 o
1 9 4 38.19 41.86 1.62 o
2 9 4 23.03 25.31 2.59 o
3 9 4 2.63 2.52 0.65 o
4 9 4 14.44 14.53 1.09 o
5 9 4 2.08 3.92 0.93 o
0 10 4 13.75 8.19 1.45 o
1 10 4 28.93 30.36 1.42 o
2 10 4 13.88 12.82 1.07 o
3 10 4 31.32 33.54 2.09 o
4 10 4 12.78 17.33 1.91 o
5 -7 5 10.18 9.15 1.42 o
4 -6 5 2.26 2.48 1.02 o
5 -6 5 6.71 7.01 1.25 o
6 -6 5 6.96 6.15 1.24 o
2 -5 5 22.53 21.71 1.45 o
3 -5 5 20.06 18.61 1.52 o
4 -5 5 12.30 10.50 1.25 o
5 -5 5 11.48 10.04 1.49 o
1 -4 5 49.92 52.85 1.79 o
2 -4 5 30.56 37.45 1.78 o
3 -4 5 15.46 12.83 1.28 o
4 -4 5 13.62 14.21 1.38 o
5 -4 5 19.16 19.20 1.72 o
6 -4 5 24.48 24.79 1.31 o
7 -4 5 19.53 18.61 1.71 o
0 -3 5 10.72 11.98 1.13 o
1 -3 5 22.27 26.02 1.55 o
2 -3 5 27.12 33.60 1.67 o
5 -3 5 18.36 14.66 1.55 o
6 -3 5 6.20 5.65 0.92 o
7 -3 5 3.50 3.28 0.73 o
0 -2 5 40.54 44.15 1.69 o
1 -2 5 25.40 29.22 1.13 o
2 -2 5 59.10 65.02 2.95 o
4 -2 5 57.15 57.23 2.35 o
5 -2 5 26.53 24.55 1.29 o
6 -2 5 17.80 18.83 1.28 o
7 -2 5 9.54 10.94 1.61 o
8 -2 5 10.17 9.77 1.41 o
0 -1 5 2.76 2.61 0.83 o
1 -1 5 6.89 5.30 0.67 o
2 -1 5 9.98 11.71 2.07 o
3 -1 5 36.24 35.76 2.74 o
4 -1 5 25.46 27.22 1.80 o
5 -1 5 16.04 13.02 1.25 o
6 -1 5 19.03 16.96 1.17 o
7 -1 5 3.26 3.29 0.73 o
8 -1 5 3.32 3.17 0.75 o
0 0 5 11.46 11.25 1.25 o
1 0 5 11.71 16.91 0.95 o
2 0 5 69.79 73.76 1.52 o
3 0 5 44.38 51.69 1.40 o
4 0 5 97.04 98.77 5.76 o
5 0 5 19.34 18.62 1.12 o
6 0 5 7.52 5.56 0.83 o
7 0 5 2.53 1.95 0.71 o
8 0 5 6.27 4.81 0.99 o
0 1 5 2.94 2.92 0.82 o
1 1 5 6.80 5.36 0.71 o
2 1 5 9.21 10.97 0.66 o
3 1 5 34.95 32.66 1.37 o
4 1 5 24.47 27.02 1.18 o
5 1 5 15.67 13.00 0.96 o
6 1 5 19.12 16.60 1.50 o
7 1 5 3.49 2.74 1.34 o
8 1 5 3.28 2.78 0.78 o
0 2 5 41.45 41.34 1.95 o
1 2 5 26.18 29.26 1.44 o
2 2 5 59.66 61.26 1.60 o
3 2 5 32.23 33.97 1.27 o
4 2 5 57.38 59.02 2.32 o
5 2 5 26.25 26.20 0.99 o
6 2 5 17.76 16.14 1.12 o
7 2 5 9.54 10.40 1.14 o
8 2 5 10.40 9.40 0.76 o
0 3 5 10.97 11.91 1.28 o
1 3 5 22.10 22.70 0.88 o
2 3 5 26.25 27.86 0.98 o
3 3 5 68.21 70.54 1.71 o
4 3 5 33.32 29.16 1.32 o
5 3 5 17.81 13.49 1.13 o
6 3 5 5.87 5.36 1.37 o
7 3 5 3.73 4.17 1.21 o
8 3 5 6.73 5.33 1.22 o
0 4 5 87.24 89.79 2.97 o
1 4 5 51.29 52.66 1.59 o
2 4 5 31.22 33.13 1.27 o
3 4 5 15.52 13.56 1.08 o
4 4 5 13.55 13.78 1.69 o
5 4 5 19.38 18.84 2.11 o
6 4 5 25.02 23.51 1.30 o
7 4 5 20.06 18.44 1.38 o
0 5 5 30.48 28.24 1.24 o
1 5 5 37.78 36.41 1.15 o
2 5 5 22.62 21.09 1.73 o
3 5 5 19.75 17.53 1.34 o
4 5 5 12.12 10.10 0.97 o
5 5 5 11.23 9.58 1.10 o
6 5 5 9.20 7.27 1.04 o
7 5 5 11.83 9.33 1.39 o
0 6 5 22.94 22.90 1.30 o
1 6 5 21.92 23.04 1.02 o
2 6 5 8.74 8.45 1.08 o
3 6 5 15.69 13.37 1.12 o
4 6 5 2.29 2.25 0.85 o
5 6 5 6.88 5.80 0.91 o
6 6 5 7.40 7.25 1.01 o
0 7 5 41.92 40.62 2.65 o
1 7 5 27.13 22.50 1.00 o
2 7 5 14.77 10.54 1.06 o
3 7 5 4.96 2.80 0.72 o
4 7 5 4.37 3.86 0.80 o
5 7 5 10.16 7.97 1.41 o
6 7 5 11.45 13.43 1.69 o
0 8 5 11.17 11.87 1.37 o
1 8 5 7.10 8.64 1.03 o
2 8 5 3.22 1.58 0.41 o
3 8 5 7.11 6.82 0.88 o
4 8 5 0.23 0.35 0.50 o
0 9 5 19.58 20.06 1.83 o
1 9 5 13.46 12.63 0.98 o
2 9 5 15.07 12.93 3.54 o
3 9 5 7.71 6.37 1.34 o
4 -5 6 10.00 10.27 1.54 o
5 -5 6 13.40 12.67 1.50 o
2 -4 6 30.47 29.86 1.93 o
3 -4 6 7.89 7.35 1.16 o
4 -4 6 6.87 8.07 1.25 o
5 -4 6 1.71 1.23 0.89 o
1 -3 6 14.68 11.17 1.46 o
2 -3 6 18.19 15.59 1.54 o
3 -3 6 56.22 60.13 2.60 o
4 -3 6 31.02 33.45 1.98 o
5 -3 6 27.31 31.59 2.07 o
0 -2 6 25.94 26.68 1.70 o
1 -2 6 17.92 17.99 1.53 o
2 -2 6 36.47 36.64 2.03 o
3 -2 6 23.25 24.82 1.78 o
4 -2 6 36.59 38.97 2.18 o
5 -2 6 15.50 15.76 1.51 o
0 -1 6 5.72 5.72 1.14 o
1 -1 6 4.29 4.75 0.84 o
2 -1 6 6.64 6.34 0.82 o
3 -1 6 18.02 19.28 1.89 o
4 -1 6 10.96 8.60 1.41 o
5 -1 6 8.22 8.86 1.60 o
6 -1 6 2.69 2.85 1.08 o
0 0 6 2.30 1.33 0.98 o
1 0 6 4.61 4.03 0.83 o
2 0 6 30.56 32.79 1.38 o
3 0 6 36.85 36.63 1.45 o
4 0 6 60.82 64.59 2.56 o
5 0 6 35.93 35.88 2.37 o
6 0 6 10.62 9.33 1.53 o
0 1 6 5.72 6.25 1.26 o
1 1 6 3.88 4.11 0.77 o
2 1 6 6.26 8.18 0.96 o
3 1 6 16.42 16.39 1.12 o
4 1 6 10.25 8.07 1.38 o
5 1 6 7.25 4.19 1.07 o
0 2 6 27.20 25.42 1.77 o
1 2 6 18.39 18.42 1.16 o
2 2 6 37.94 37.30 1.53 o
3 2 6 23.83 27.48 2.08 o
4 2 6 38.10 40.61 1.59 o
5 2 6 15.91 15.00 1.79 o
0 3 6 6.19 3.67 1.23 o
1 3 6 13.24 9.73 1.16 o
2 3 6 17.37 14.91 1.81 o
3 3 6 53.79 55.30 2.66 o
4 3 6 30.11 32.68 2.41 o
5 3 6 25.94 29.94 2.09 o
0 4 6 77.75 83.59 2.97 o
1 4 6 34.88 34.97 1.65 o
2 4 6 32.18 31.40 1.99 o
3 4 6 8.32 6.89 1.43 o
4 4 6 7.65 6.05 0.95 o
5 4 6 1.83 2.27 1.00 o
0 5 6 17.18 19.13 1.88 o
1 5 6 28.65 27.36 1.43 o
2 5 6 16.53 15.23 1.71 o
3 5 6 21.09 18.27 2.88 o
4 5 6 9.70 9.66 1.34 o
0 6 6 24.82 23.74 2.01 o
1 6 6 10.95 10.14 1.68 o
2 6 6 8.45 7.33 0.98 o
3 6 6 2.03 1.82 0.77 o
2 7 6 7.37 7.96 1.28 o
1 -2 7 0.67 1.07 0.66 o
2 -2 7 34.17 36.25 2.27 o
0 -1 7 0.33 0.98 0.65 o
1 -1 7 16.65 15.06 1.76 o
2 -1 7 4.31 2.75 0.98 o
0 0 7 46.60 50.85 2.48 o
1 0 7 4.43 4.18 0.83 o
2 0 7 24.86 23.18 2.02 o
0 1 7 0.33 0.69 0.67 o
1 1 7 16.78 13.26 1.72 o
2 1 7 4.37 2.25 0.87 o
0 2 7 19.21 15.32 1.81 o
1 2 7 0.65 0.72 0.83 o
