#------------------------------------------------------------------------------
#$Date: 2016-03-24 14:09:40 +0200 (Thu, 24 Mar 2016) $
#$Revision: 179654 $
#$URL: svn://www.crystallography.net/cod/cif/4/51/07/4510700.cif $
#------------------------------------------------------------------------------
#
# This file is available in the Crystallography Open Database (COD),
# http://www.crystallography.net/
#
# All data on this site have been placed in the public domain by the
# contributors.
#
data_4510700
loop_
_publ_author_name
'Olejniczak, Anna'
'Anio\/la, Michalina'
'Szafra\'nski, Marek'
'Budzianowski, Armand'
'Katrusiak, Andrzej'
_publ_section_title
;
 New Polar Phases of 1,4-Diazabicyclo[2.2.2]octane Perchlorate, An
 NH+&#x00B7;&#x00B7;&#x00B7;N Hydrogen-Bonded Ferroelectric
;
_journal_issue                   7
_journal_name_full               'Crystal Growth &amp; Design'
_journal_page_first              2872
_journal_paper_doi               10.1021/cg400276c
_journal_volume                  13
_journal_year                    2013
_chemical_formula_moiety         'C6 H13 N2, Cl O4'
_chemical_formula_sum            'C6 H13 Cl N2 O4'
_chemical_formula_weight         212.63
_chemical_name_common
;
dabcoHClO4
;
_chemical_name_systematic
; 
1,4-diazabicyclo[2.2.2]octane perchlorate
;
_space_group_IT_number           31
_symmetry_cell_setting           orthorhombic
_symmetry_space_group_name_Hall  'P -2ab -2'
_symmetry_space_group_name_H-M   'P m 21 n'
_atom_sites_solution_hydrogens   geom
_atom_sites_solution_primary     direct
_atom_sites_solution_secondary   difmap
_audit_creation_method           SHELXL-97
_cell_angle_alpha                90.00
_cell_angle_beta                 90.00
_cell_angle_gamma                90.00
_cell_formula_units_Z            2
_cell_length_a                   8.7856(9)
_cell_length_b                   9.7596(13)
_cell_length_c                   5.3418(6)
_cell_measurement_reflns_used    2078
_cell_measurement_temperature    227.5(2)
_cell_measurement_theta_max      29.10
_cell_measurement_theta_min      3.81
_cell_volume                     458.03(9)
_computing_cell_refinement       'CrysAlis (Oxford Diffraction, 2002)'
_computing_data_collection       'CrysAlis (Oxford Diffraction, 2002)'
_computing_data_reduction        'CrysAlis (Oxford Diffraction, 2002)'
_computing_molecular_graphics
;X-Seed (Barbour, 2001) 
and POV-Ray (Persistence of Vision, 2004)
;
_computing_publication_material  'SHELXL-97 (Sheldrick, 1997)'
_computing_structure_refinement  'SHELXL-97 (Sheldrick, 1997)'
_computing_structure_solution    'SHELXS-97 (Sheldrick, 1997)'
_diffrn_ambient_temperature      227.5(2)
_diffrn_measured_fraction_theta_full 0.949
_diffrn_measured_fraction_theta_max 0.949
_diffrn_radiation_monochromator  graphite
_diffrn_radiation_source         'fine-focus sealed tube'
_diffrn_radiation_type           MoK\a
_diffrn_radiation_wavelength     0.71073
_diffrn_reflns_av_R_equivalents  0.0279
_diffrn_reflns_av_sigmaI/netI    0.0192
_diffrn_reflns_limit_h_max       11
_diffrn_reflns_limit_h_min       -11
_diffrn_reflns_limit_k_max       13
_diffrn_reflns_limit_k_min       -9
_diffrn_reflns_limit_l_max       7
_diffrn_reflns_limit_l_min       -5
_diffrn_reflns_number            2078
_diffrn_reflns_theta_full        29.10
_diffrn_reflns_theta_max         29.10
_diffrn_reflns_theta_min         3.81
_exptl_absorpt_coefficient_mu    0.404
_exptl_absorpt_correction_T_max  0.95
_exptl_absorpt_correction_T_min  0.90
_exptl_absorpt_correction_type   numerical
_exptl_absorpt_process_details
; 
Correction for absorption was made using XEMP (SHELXTL, 
Sheldrick (1990)).
;
_exptl_crystal_colour            colourless
_exptl_crystal_density_diffrn    1.542
_exptl_crystal_density_method    'not measured'
_exptl_crystal_description       plate
_exptl_crystal_F_000             224
_exptl_crystal_size_max          0.40
_exptl_crystal_size_mid          0.20
_exptl_crystal_size_min          0.15
_refine_diff_density_max         0.400
_refine_diff_density_min         -0.249
_refine_diff_density_rms         0.056
_refine_ls_abs_structure_details 'Flack H D (1983), Acta Cryst. A39, 876-881'
_refine_ls_abs_structure_Flack   0.12(11)
_refine_ls_extinction_coef       0.037(6)
_refine_ls_extinction_expression Fc^*^=kFc[1+0.001xFc^2^\l^3^/sin(2\q)]^-1/4^
_refine_ls_extinction_method     SHELXL
_refine_ls_goodness_of_fit_ref   1.083
_refine_ls_hydrogen_treatment    constr
_refine_ls_matrix_type           full
_refine_ls_number_parameters     71
_refine_ls_number_reflns         1011
_refine_ls_number_restraints     1
_refine_ls_restrained_S_all      1.082
_refine_ls_R_factor_all          0.0345
_refine_ls_R_factor_gt           0.0336
_refine_ls_shift/su_max          0.000
_refine_ls_shift/su_mean         0.000
_refine_ls_structure_factor_coef Fsqd
_refine_ls_weighting_details
'calc w=1/[\s^2^(Fo^2^)+(0.0465P)^2^+0.1480P] where P=(Fo^2^+2Fc^2^)/3'
_refine_ls_weighting_scheme      calc
_refine_ls_wR_factor_gt          0.0876
_refine_ls_wR_factor_ref         0.0883
_reflns_number_gt                978
_reflns_number_total             1011
_reflns_threshold_expression     >2sigma(I)
_cod_data_source_file            cg400276c_si_002.cif
_cod_data_source_block           dabcoHClO4_II_227.5K
_cod_original_cell_volume        458.02(9)
_cod_original_sg_symbol_H-M      Pm21n
_cod_database_code               4510700
loop_
_symmetry_equiv_pos_as_xyz
'x, y, z'
'-x+1/2, y+1/2, -z'
'x+1/2, y+1/2, -z'
'-x, y, z'
loop_
_atom_site_label
_atom_site_type_symbol
_atom_site_fract_x
_atom_site_fract_y
_atom_site_fract_z
_atom_site_U_iso_or_equiv
_atom_site_adp_type
_atom_site_occupancy
_atom_site_symmetry_multiplicity
_atom_site_calc_flag
_atom_site_refinement_flags
Cl Cl 0.0000 -0.01748(11) -0.06963(12) 0.0322(2) Uani 1 2 d S
O1 O 0.0000 -0.0186(8) -0.3369(4) 0.0704(8) Uani 1 2 d S
O2 O 0.1330(2) -0.0873(3) 0.0174(4) 0.0533(6) Uani 1 1 d .
O3 O 0.0000 0.1196(3) 0.0207(7) 0.0642(9) Uani 1 2 d S
N2 N 0.0000 0.5491(4) 0.2796(5) 0.0341(7) Uani 1 2 d S
N1 N 0.0000 0.5480(4) 0.7516(5) 0.0374(7) Uani 1 2 d S
H1 H 0.0000 0.5487 0.9219 0.045 Uiso 1 2 calc SR
C2 C 0.0000 0.4097(5) 0.3708(8) 0.0775(19) Uani 1 2 d S
H2A H 0.0893 0.3626 0.3077 0.093 Uiso 0.50 1 calc PR
H2B H -0.0893 0.3626 0.3077 0.093 Uiso 0.50 1 calc PR
C1 C 0.0000 0.4039(5) 0.6624(7) 0.0498(11) Uani 1 2 d S
H1A H -0.0897 0.3561 0.7225 0.060 Uiso 0.50 1 calc PR
H1B H 0.0897 0.3561 0.7225 0.060 Uiso 0.50 1 calc PR
C4 C 0.1343(3) 0.6202(4) 0.3770(5) 0.0572(9) Uani 1 1 d .
H4A H 0.1341 0.7140 0.3170 0.069 Uiso 1 1 calc R
H4B H 0.2252 0.5758 0.3134 0.069 Uiso 1 1 calc R
C3 C 0.1390(3) 0.6205(3) 0.6588(5) 0.0430(6) Uani 1 1 d .
H3A H 0.2299 0.5740 0.7173 0.052 Uiso 1 1 calc R
H3B H 0.1408 0.7139 0.7208 0.052 Uiso 1 1 calc R
loop_
_atom_site_aniso_label
_atom_site_aniso_U_11
_atom_site_aniso_U_22
_atom_site_aniso_U_33
_atom_site_aniso_U_23
_atom_site_aniso_U_13
_atom_site_aniso_U_12
Cl 0.0335(3) 0.0339(3) 0.0291(3) 0.0007(4) 0.000 0.000
O1 0.0609(13) 0.124(3) 0.0264(10) 0.009(3) 0.000 0.000
O2 0.0473(10) 0.0584(14) 0.0541(10) -0.0048(10) -0.0144(8) 0.0196(9)
O3 0.073(2) 0.0326(16) 0.087(2) -0.0089(15) 0.000 0.000
N2 0.0460(14) 0.0417(17) 0.0147(11) -0.0001(13) 0.000 0.000
N1 0.0635(17) 0.0356(16) 0.0129(11) -0.0005(12) 0.000 0.000
C2 0.173(6) 0.032(2) 0.0272(18) -0.008(2) 0.000 0.000
C1 0.090(3) 0.031(2) 0.0285(18) 0.0046(18) 0.000 0.000
C4 0.0364(12) 0.097(3) 0.0385(13) 0.0012(16) 0.0109(10) -0.0167(13)
C3 0.0404(12) 0.0491(15) 0.0396(13) -0.0047(11) -0.0143(10) 0.0014(10)
loop_
_atom_type_symbol
_atom_type_description
_atom_type_scat_dispersion_real
_atom_type_scat_dispersion_imag
_atom_type_scat_source
C C 0.0033 0.0016 'International Tables Vol C Tables 4.2.6.8 and 6.1.1.4'
H H 0.0000 0.0000 'International Tables Vol C Tables 4.2.6.8 and 6.1.1.4'
N N 0.0061 0.0033 'International Tables Vol C Tables 4.2.6.8 and 6.1.1.4'
I I -0.4742 1.8119 'International Tables Vol C Tables 4.2.6.8 and 6.1.1.4'
loop_
_geom_angle_atom_site_label_1
_geom_angle_atom_site_label_2
_geom_angle_atom_site_label_3
_geom_angle
_geom_angle_site_symmetry_1
_geom_angle_site_symmetry_3
O3 Cl O1 110.3(4) . .
O3 Cl O2 109.74(13) . 4
O1 Cl O2 108.75(18) . 4
O3 Cl O2 109.74(13) . .
O1 Cl O2 108.75(18) . .
O2 Cl O2 109.6(2) 4 .
C2 N2 C4 109.0(2) . .
C2 N2 C4 109.0(2) . 4
C4 N2 C4 107.4(3) . 4
C1 N1 C3 109.97(19) . .
C1 N1 C3 109.97(19) . 4
C3 N1 C3 109.5(3) . 4
C1 N1 H1 109.1 . .
C3 N1 H1 109.1 . .
C3 N1 H1 109.1 4 .
N2 C2 C1 111.8(4) . .
N2 C2 H2A 109.3 . .
C1 C2 H2A 109.3 . .
N2 C2 H2B 109.3 . .
C1 C2 H2B 109.3 . .
H2A C2 H2B 107.9 . .
N1 C1 C2 106.6(4) . .
N1 C1 H1A 110.4 . .
C2 C1 H1A 110.4 . .
N1 C1 H1B 110.4 . .
C2 C1 H1B 110.4 . .
H1A C1 H1B 108.6 . .
N2 C4 C3 112.3(2) . .
N2 C4 H4A 109.2 . .
C3 C4 H4A 109.2 . .
N2 C4 H4B 109.2 . .
C3 C4 H4B 109.2 . .
H4A C4 H4B 107.9 . .
N1 C3 C4 107.9(2) . .
N1 C3 H3A 110.1 . .
C4 C3 H3A 110.1 . .
N1 C3 H3B 110.1 . .
C4 C3 H3B 110.1 . .
H3A C3 H3B 108.4 . .
loop_
_geom_bond_atom_site_label_1
_geom_bond_atom_site_label_2
_geom_bond_distance
_geom_bond_site_symmetry_2
Cl O3 1.422(3) .
Cl O1 1.428(2) .
Cl O2 1.4308(19) 4
Cl O2 1.4308(19) .
N2 C2 1.445(5) .
N2 C4 1.464(3) .
N2 C4 1.464(3) 4
N1 C1 1.485(5) .
N1 C3 1.496(3) .
N1 C3 1.496(3) 4
N1 H1 0.9100 .
C2 C1 1.558(5) .
C2 H2A 0.9700 .
C2 H2B 0.9700 .
C1 H1A 0.9700 .
C1 H1B 0.9700 .
C4 C3 1.506(3) .
C4 H4A 0.9700 .
C4 H4B 0.9700 .
C3 H3A 0.9700 .
C3 H3B 0.9700 .
loop_
_geom_torsion_atom_site_label_1
_geom_torsion_atom_site_label_2
_geom_torsion_atom_site_label_3
_geom_torsion_atom_site_label_4
_geom_torsion
_geom_torsion_site_symmetry_1
C4 N2 C2 C1 58.46(17) .
C4 N2 C2 C1 -58.46(17) 4
C3 N1 C1 C2 -60.31(16) .
C3 N1 C1 C2 60.31(16) 4
N2 C2 C1 N1 0.000(1) .
C2 N2 C4 C3 -58.4(3) .
C4 N2 C4 C3 59.6(4) 4
C1 N1 C3 C4 61.4(3) .
C3 N1 C3 C4 -59.5(4) 4
N2 C4 C3 N1 -0.9(4) .
loop_
_refln_index_h
_refln_index_k
_refln_index_l
_refln_F_squared_calc
_refln_F_squared_meas
_refln_F_squared_sigma
_refln_observed_status
4 -6 0 140.24 151.48 2.20 o
3 -5 0 758.46 811.32 4.00 o
7 -5 0 141.01 138.29 2.52 o
9 -5 0 39.42 37.19 1.83 o
2 -4 0 241.16 218.74 1.78 o
4 -4 0 944.14 1000.73 4.68 o
6 -4 0 60.96 57.42 1.67 o
8 -4 0 15.53 15.42 1.33 o
10 -4 0 52.17 57.03 2.27 o
1 -3 0 1842.68 1798.78 3.96 o
3 -3 0 422.79 491.87 2.85 o
5 -3 0 42.28 49.85 1.37 o
7 -3 0 383.65 413.81 4.21 o
9 -3 0 50.24 53.50 2.11 o
11 -3 0 6.31 6.03 1.39 o
2 -2 0 2971.23 3006.71 5.70 o
4 -2 0 1162.35 1146.47 5.00 o
6 -2 0 614.81 650.47 4.77 o
8 -2 0 231.76 243.92 3.82 o
10 -2 0 49.95 48.54 2.11 o
3 -1 0 1411.51 1449.26 4.69 o
5 -1 0 193.30 184.06 2.44 o
7 -1 0 176.11 165.14 3.09 o
9 -1 0 47.16 54.85 2.20 o
11 -1 0 35.09 36.74 2.24 o
2 0 0 7077.12 7863.68 19.19 o
4 0 0 303.20 314.18 2.69 o
6 0 0 1435.56 1508.04 7.18 o
8 0 0 803.76 823.87 6.62 o
10 0 0 27.70 21.75 1.86 o
3 1 0 1449.59 1440.29 4.37 o
5 1 0 202.09 194.76 2.58 o
7 1 0 168.47 161.98 2.44 o
9 1 0 46.26 52.90 2.26 o
11 1 0 36.48 36.82 2.43 o
0 2 0 7143.18 6434.32 16.24 o
2 2 0 2974.27 3066.83 4.20 o
4 2 0 1167.80 1132.36 26.98 o
6 2 0 623.29 685.42 8.59 o
8 2 0 236.01 252.24 3.91 o
10 2 0 49.45 44.37 2.39 o
1 3 0 1824.74 1627.20 4.59 o
3 3 0 443.92 484.08 2.90 o
5 3 0 45.48 52.65 1.55 o
7 3 0 376.65 390.54 4.42 o
9 3 0 48.99 50.43 2.46 o
11 3 0 7.29 6.59 1.40 o
0 4 0 668.15 685.34 3.52 o
2 4 0 243.53 225.07 1.34 o
4 4 0 961.50 1039.70 23.14 o
6 4 0 60.25 58.68 1.60 o
8 4 0 13.47 11.87 1.27 o
10 4 0 53.24 60.42 2.72 o
1 5 0 1082.93 1057.92 4.91 o
3 5 0 748.77 734.83 4.27 o
5 5 0 460.13 442.65 4.91 o
7 5 0 140.07 140.68 2.99 o
9 5 0 38.68 37.94 2.08 o
0 6 0 226.52 240.79 2.76 o
2 6 0 59.39 37.17 1.26 o
4 6 0 147.13 149.33 2.45 o
6 6 0 59.11 62.54 1.38 o
8 6 0 27.91 34.87 2.12 o
10 6 0 21.75 25.40 2.13 o
1 7 0 474.83 469.29 8.07 o
3 7 0 1320.45 1404.91 7.10 o
5 7 0 546.23 572.07 16.11 o
7 7 0 33.22 34.11 1.85 o
9 7 0 40.31 39.56 2.02 o
0 8 0 112.49 127.73 2.63 o
2 8 0 48.16 46.77 1.59 o
4 8 0 26.68 35.39 2.33 o
6 8 0 26.95 27.60 1.59 o
8 8 0 24.17 25.00 1.92 o
1 9 0 164.42 175.44 4.21 o
3 9 0 259.40 254.22 2.79 o
5 9 0 105.27 102.81 2.47 o
0 10 0 51.56 36.98 1.90 o
2 10 0 26.00 25.45 1.16 o
4 10 0 52.00 55.08 1.56 o
1 11 0 30.90 26.80 1.21 o
3 11 0 3.50 6.01 0.84 o
5 11 0 3.19 4.42 1.22 o
0 12 0 44.66 68.36 2.52 o
2 12 0 44.80 51.25 1.71 o
4 12 0 28.98 24.03 2.18 o
1 13 0 3.57 1.57 0.63 o
4 -7 1 38.97 38.91 1.44 o
5 -7 1 80.51 82.38 1.96 o
6 -7 1 10.68 10.96 1.02 o
7 -7 1 35.50 40.47 1.73 o
8 -7 1 7.33 6.67 1.08 o
3 -6 1 27.09 29.47 1.23 o
5 -6 1 19.70 18.47 1.35 o
6 -6 1 69.96 71.70 2.08 o
7 -6 1 18.12 17.62 1.40 o
8 -6 1 8.27 6.92 1.14 o
9 -6 1 4.87 5.48 1.02 o
10 -6 1 22.42 18.55 1.69 o
3 -5 1 193.56 192.16 1.33 o
4 -5 1 61.40 66.62 0.98 o
5 -5 1 89.70 93.15 1.31 o
6 -5 1 33.15 37.20 1.06 o
7 -5 1 74.71 75.49 2.12 o
8 -5 1 20.88 20.58 1.46 o
9 -5 1 13.13 16.47 1.48 o
10 -5 1 6.99 6.43 1.42 o
2 -4 1 48.79 46.65 0.83 o
3 -4 1 159.92 168.05 1.37 o
4 -4 1 67.20 69.84 1.02 o
5 -4 1 67.40 67.43 1.11 o
6 -4 1 96.49 99.99 1.48 o
7 -4 1 22.08 22.48 0.99 o
8 -4 1 50.67 55.51 1.94 o
9 -4 1 13.21 12.59 0.94 o
10 -4 1 3.47 2.73 0.79 o
11 -4 1 4.91 4.20 0.83 o
2 -3 1 249.36 261.89 3.14 o
3 -3 1 205.08 195.87 1.67 o
4 -3 1 116.32 112.16 1.23 o
5 -3 1 116.57 121.45 1.44 o
6 -3 1 72.12 73.83 1.33 o
7 -3 1 18.23 17.68 1.83 o
8 -3 1 22.16 25.03 1.09 o
9 -3 1 18.35 17.97 1.01 o
10 -3 1 5.86 5.70 0.68 o
11 -3 1 20.63 19.43 1.04 o
1 -2 1 406.69 383.91 2.27 o
2 -2 1 526.09 524.59 3.43 o
3 -2 1 351.08 353.13 1.73 o
4 -2 1 828.76 911.09 5.26 o
5 -2 1 123.60 125.54 1.43 o
6 -2 1 107.68 103.18 2.81 o
7 -2 1 33.95 34.14 2.20 o
8 -2 1 109.05 115.72 1.96 o
9 -2 1 16.71 16.47 0.83 o
10 -2 1 20.38 19.98 1.00 o
11 -2 1 6.00 5.89 0.73 o
1 -1 1 4154.05 4147.58 78.19 o
2 -1 1 338.31 350.03 9.76 o
3 -1 1 11.07 7.61 0.38 o
4 -1 1 203.88 221.79 2.69 o
5 -1 1 101.41 101.82 1.35 o
6 -1 1 59.69 64.01 2.32 o
7 -1 1 381.95 408.39 4.86 o
8 -1 1 19.08 19.78 1.30 o
9 -1 1 59.06 58.99 1.32 o
10 -1 1 11.62 10.01 0.88 o
11 -1 1 2.46 1.81 0.50 o
0 0 1 314.93 328.83 1.60 o
1 0 1 584.11 549.56 2.75 o
2 0 1 451.63 402.26 4.41 o
3 0 1 304.50 292.22 2.43 o
4 0 1 153.36 137.15 3.36 o
5 0 1 171.86 151.10 1.62 o
6 0 1 106.43 106.70 2.92 o
7 0 1 51.02 54.72 1.47 o
8 0 1 64.53 67.24 1.64 o
9 0 1 8.76 8.91 0.72 o
10 0 1 36.21 38.94 1.17 o
11 0 1 4.79 5.13 0.88 o
0 1 1 268.05 268.62 8.35 o
1 1 1 4163.82 4192.24 84.84 o
2 1 1 338.91 346.17 8.39 o
3 1 1 10.10 6.99 0.35 o
4 1 1 203.89 217.17 3.69 o
5 1 1 103.78 102.90 1.31 o
6 1 1 59.31 62.58 1.08 o
7 1 1 384.56 406.35 2.47 o
8 1 1 19.24 18.48 0.90 o
9 1 1 59.16 57.38 1.25 o
10 1 1 11.80 9.01 0.95 o
11 1 1 2.17 1.24 0.46 o
0 2 1 1254.03 1114.49 50.41 o
1 2 1 406.97 361.27 13.70 o
2 2 1 547.68 539.58 11.22 o
3 2 1 348.83 344.07 5.83 o
4 2 1 854.36 943.29 23.92 o
5 2 1 122.76 124.19 3.05 o
6 2 1 107.15 101.72 1.29 o
7 2 1 33.92 33.57 0.91 o
8 2 1 106.20 112.22 1.55 o
9 2 1 16.51 15.26 1.15 o
10 2 1 21.77 20.49 1.37 o
11 2 1 5.89 5.49 0.95 o
0 3 1 461.84 427.80 16.68 o
1 3 1 118.06 111.32 4.47 o
2 3 1 249.53 251.53 6.13 o
3 3 1 210.10 195.40 5.27 o
4 3 1 116.19 113.03 1.97 o
5 3 1 120.15 122.69 1.97 o
6 3 1 72.36 72.68 1.89 o
7 3 1 17.17 17.95 0.63 o
8 3 1 22.41 26.81 1.72 o
9 3 1 17.92 16.20 1.05 o
10 3 1 5.98 5.52 1.17 o
11 3 1 20.77 19.19 1.45 o
0 4 1 394.20 346.12 2.78 o
1 4 1 171.93 163.24 4.52 o
2 4 1 52.87 47.33 1.05 o
3 4 1 159.81 162.45 3.18 o
4 4 1 73.53 75.28 1.96 o
5 4 1 66.62 65.14 1.45 o
6 4 1 95.69 98.68 1.69 o
7 4 1 21.75 19.93 0.82 o
8 4 1 49.71 51.76 2.15 o
9 4 1 13.28 12.63 1.08 o
10 4 1 3.73 2.94 0.69 o
0 5 1 224.60 213.68 2.50 o
1 5 1 407.07 424.88 11.98 o
2 5 1 137.29 121.94 3.24 o
3 5 1 198.21 190.21 1.47 o
4 5 1 60.97 62.78 1.31 o
5 5 1 89.79 92.64 2.01 o
6 5 1 33.68 33.87 0.91 o
7 5 1 70.12 68.05 1.31 o
8 5 1 21.13 20.98 0.91 o
9 5 1 12.74 14.90 0.88 o
10 5 1 6.95 5.88 0.88 o
0 6 1 68.45 60.84 1.48 o
1 6 1 75.62 64.90 0.93 o
2 6 1 299.06 289.67 1.77 o
3 6 1 27.82 30.79 0.58 o
4 6 1 443.71 438.61 2.88 o
5 6 1 19.87 18.47 0.87 o
6 6 1 69.18 67.27 2.18 o
7 6 1 17.99 16.15 0.89 o
8 6 1 8.29 7.08 0.70 o
9 6 1 4.88 4.26 0.90 o
10 6 1 22.16 19.59 1.39 o
0 7 1 31.58 37.18 1.03 o
1 7 1 75.65 70.75 1.35 o
2 7 1 46.26 45.65 0.92 o
3 7 1 118.17 111.73 1.80 o
4 7 1 38.76 37.93 1.01 o
5 7 1 79.81 76.20 1.49 o
6 7 1 10.59 9.17 0.66 o
7 7 1 34.89 36.54 1.39 o
8 7 1 7.38 7.03 0.72 o
9 7 1 14.58 18.24 1.30 o
10 7 1 4.78 4.88 1.18 o
0 8 1 40.41 38.66 2.03 o
1 8 1 34.35 34.21 0.81 o
2 8 1 200.70 198.85 1.83 o
3 8 1 6.46 7.05 0.59 o
4 8 1 251.10 266.54 2.82 o
5 8 1 6.49 6.68 1.29 o
6 8 1 29.38 28.91 2.92 o
7 8 1 11.09 11.37 0.94 o
8 8 1 8.19 6.96 0.88 o
9 8 1 4.06 3.16 1.28 o
0 9 1 21.58 20.28 0.96 o
1 9 1 95.13 103.63 1.25 o
2 9 1 13.25 14.68 0.64 o
3 9 1 62.66 71.41 1.79 o
4 9 1 11.07 11.52 0.93 o
5 9 1 32.09 34.21 1.34 o
6 9 1 9.59 9.02 2.24 o
7 9 1 21.25 21.00 1.24 o
8 9 1 4.10 2.93 1.08 o
0 10 1 28.54 31.15 1.21 o
1 10 1 9.18 9.30 0.62 o
2 10 1 23.88 21.04 0.76 o
3 10 1 16.37 14.62 0.82 o
4 10 1 12.98 11.03 1.05 o
5 10 1 7.47 6.91 0.93 o
6 10 1 9.20 7.55 0.88 o
7 10 1 2.57 1.45 0.73 o
0 11 1 12.30 12.97 0.92 o
1 11 1 18.86 20.11 0.81 o
2 11 1 4.56 4.11 0.61 o
3 11 1 26.89 23.37 1.04 o
4 11 1 1.39 0.92 0.38 o
5 11 1 9.36 8.20 0.98 o
6 11 1 4.13 3.75 1.06 o
0 12 1 11.11 10.02 0.98 o
1 12 1 5.47 4.22 0.64 o
2 12 1 7.95 8.82 1.03 o
3 12 1 8.12 7.89 0.96 o
4 12 1 7.43 10.35 1.19 o
5 12 1 5.23 5.18 1.18 o
1 13 1 30.28 39.63 2.38 o
6 -8 2 37.56 43.06 1.91 o
7 -8 2 11.38 9.24 1.31 o
8 -8 2 9.59 10.65 1.32 o
6 -7 2 29.30 30.93 1.64 o
7 -7 2 0.59 0.84 0.73 o
8 -7 2 15.85 15.68 1.17 o
9 -7 2 2.72 2.66 1.05 o
0 -6 2 212.15 219.77 2.08 o
1 -6 2 49.30 54.63 1.27 o
2 -6 2 242.83 261.18 2.76 o
4 -6 2 293.73 281.46 3.63 o
5 -6 2 15.98 19.34 1.36 o
7 -6 2 19.37 20.92 1.15 o
8 -6 2 13.92 13.08 1.56 o
9 -6 2 19.28 18.53 1.27 o
0 -5 2 122.77 113.74 1.47 o
1 -5 2 36.74 31.49 0.57 o
2 -5 2 76.97 83.44 1.70 o
3 -5 2 81.29 94.02 2.30 o
4 -5 2 43.99 42.15 1.11 o
5 -5 2 34.88 36.99 1.18 o
6 -5 2 35.54 36.73 1.20 o
7 -5 2 6.39 6.38 1.41 o
8 -5 2 20.90 20.69 1.15 o
9 -5 2 0.48 0.96 0.47 o
10 -5 2 8.35 7.36 1.02 o
0 -4 2 554.07 583.22 2.97 o
1 -4 2 125.39 126.02 1.14 o
2 -4 2 67.85 90.03 1.69 o
3 -4 2 63.61 61.34 1.14 o
4 -4 2 19.75 16.84 1.06 o
5 -4 2 53.99 58.42 2.14 o
6 -4 2 51.90 53.49 1.37 o
7 -4 2 36.68 38.82 2.17 o
8 -4 2 37.41 33.03 1.31 o
9 -4 2 13.82 14.46 1.40 o
10 -4 2 4.91 4.91 0.84 o
0 -3 2 59.64 53.70 0.97 o
1 -3 2 39.71 41.51 0.59 o
2 -3 2 78.59 76.58 0.99 o
3 -3 2 363.79 381.65 3.84 o
4 -3 2 75.81 75.42 0.93 o
5 -3 2 158.47 157.26 1.39 o
6 -3 2 29.78 29.74 0.84 o
7 -3 2 28.27 32.74 0.89 o
8 -3 2 25.71 26.77 0.96 o
9 -3 2 9.01 9.07 0.73 o
10 -3 2 14.50 15.09 1.11 o
0 -2 2 458.76 495.18 2.65 o
1 -2 2 94.79 84.68 0.85 o
2 -2 2 21.23 24.48 0.47 o
3 -2 2 106.07 97.34 1.64 o
4 -2 2 141.10 136.62 2.72 o
5 -2 2 83.22 87.68 1.39 o
6 -2 2 19.13 15.02 0.63 o
7 -2 2 29.65 33.99 1.23 o
8 -2 2 43.11 35.27 1.01 o
9 -2 2 13.95 13.38 0.89 o
10 -2 2 0.84 1.44 0.53 o
11 -2 2 9.06 7.27 0.95 o
0 -1 2 21.15 25.17 0.79 o
1 -1 2 2378.85 2411.62 26.55 o
2 -1 2 15.27 14.30 0.46 o
3 -1 2 210.87 207.39 6.12 o
4 -1 2 59.98 61.61 0.87 o
5 -1 2 159.33 173.76 1.49 o
6 -1 2 31.71 33.21 0.89 o
7 -1 2 225.34 229.57 2.43 o
8 -1 2 8.85 10.44 0.74 o
9 -1 2 59.75 57.63 1.29 o
10 -1 2 8.51 10.54 0.84 o
11 -1 2 4.21 3.91 0.64 o
0 0 2 6.79 4.84 0.30 o
1 0 2 90.31 79.48 1.84 o
2 0 2 1.07 2.79 0.25 o
3 0 2 91.54 89.52 1.46 o
4 0 2 37.97 53.26 1.43 o
5 0 2 49.15 56.31 1.05 o
6 0 2 25.69 19.85 0.70 o
7 0 2 23.78 23.06 1.05 o
8 0 2 14.81 15.83 0.82 o
9 0 2 18.59 17.74 1.06 o
10 0 2 0.58 0.54 0.40 o
11 0 2 7.28 6.52 1.01 o
0 1 2 18.95 22.23 0.84 o
1 1 2 2385.08 2314.43 28.16 o
2 1 2 12.91 11.52 0.41 o
3 1 2 216.36 198.79 9.41 o
4 1 2 58.31 60.72 1.12 o
5 1 2 162.64 176.79 2.02 o
6 1 2 31.23 32.24 1.06 o
7 1 2 226.33 228.44 4.10 o
8 1 2 8.33 10.76 0.76 o
9 1 2 60.27 57.44 1.31 o
10 1 2 8.31 9.51 0.83 o
11 1 2 4.36 3.97 1.19 o
0 2 2 445.49 448.08 17.63 o
1 2 2 97.65 81.67 0.96 o
2 2 2 23.10 24.96 1.06 o
3 2 2 105.77 96.38 1.59 o
4 2 2 146.18 142.21 2.46 o
5 2 2 82.39 86.52 1.38 o
6 2 2 17.99 13.30 0.56 o
7 2 2 30.39 32.60 0.94 o
8 2 2 41.16 33.24 1.02 o
9 2 2 14.73 14.31 1.04 o
10 2 2 0.86 1.01 0.74 o
11 2 2 9.01 8.01 1.41 o
0 3 2 59.53 52.74 1.27 o
1 3 2 41.53 41.81 0.78 o
2 3 2 76.50 70.81 2.05 o
3 3 2 374.34 376.92 10.95 o
4 3 2 72.24 73.81 1.87 o
5 3 2 163.63 156.58 3.99 o
6 3 2 28.33 30.51 1.01 o
7 3 2 28.34 32.83 0.85 o
8 3 2 25.49 27.67 0.96 o
9 3 2 9.57 9.99 0.93 o
10 3 2 14.41 15.72 1.17 o
0 4 2 540.63 523.17 18.79 o
1 4 2 128.45 119.48 3.09 o
2 4 2 63.52 77.36 2.38 o
3 4 2 63.99 61.00 1.72 o
4 4 2 19.28 17.31 0.57 o
5 4 2 54.97 57.84 2.59 o
6 4 2 49.29 46.76 1.28 o
7 4 2 37.74 38.97 1.06 o
8 4 2 35.80 33.16 1.14 o
9 4 2 14.01 12.06 1.67 o
10 4 2 4.81 5.01 0.89 o
0 5 2 123.16 111.88 2.01 o
1 5 2 34.66 25.85 0.62 o
2 5 2 77.42 79.23 1.84 o
3 5 2 85.41 95.52 2.16 o
4 5 2 43.23 39.56 0.80 o
5 5 2 36.62 38.02 0.87 o
6 5 2 34.68 35.83 1.02 o
7 5 2 5.51 4.36 0.56 o
8 5 2 21.09 20.32 0.97 o
9 5 2 0.55 0.35 0.34 o
10 5 2 8.43 6.40 0.97 o
0 6 2 206.95 194.42 2.91 o
1 6 2 50.89 52.12 1.29 o
2 6 2 239.60 247.76 10.02 o
3 6 2 35.92 33.23 0.83 o
4 6 2 292.00 274.64 12.07 o
5 6 2 16.39 16.92 0.69 o
6 6 2 79.80 76.95 1.52 o
7 6 2 19.92 18.86 0.85 o
8 6 2 13.48 13.51 0.87 o
9 6 2 19.37 18.58 1.07 o
10 6 2 13.81 11.87 1.47 o
0 7 2 109.04 95.37 2.53 o
1 7 2 0.13 0.83 0.33 o
2 7 2 47.70 47.08 1.09 o
3 7 2 34.53 38.14 1.86 o
4 7 2 19.90 19.00 1.02 o
5 7 2 9.83 8.44 0.84 o
6 7 2 29.71 30.17 1.28 o
7 7 2 0.42 0.27 0.49 o
8 7 2 15.85 13.46 1.14 o
9 7 2 2.89 2.95 0.85 o
0 8 2 70.33 66.53 1.79 o
1 8 2 17.60 16.19 1.46 o
2 8 2 165.28 156.55 3.03 o
3 8 2 18.57 20.73 2.42 o
4 8 2 192.71 191.84 2.56 o
5 8 2 13.55 12.11 1.81 o
6 8 2 37.60 38.79 1.51 o
7 8 2 11.05 9.21 1.01 o
8 8 2 9.83 9.30 1.04 o
0 9 2 45.93 52.37 1.35 o
1 9 2 9.25 7.47 0.77 o
2 9 2 39.18 40.28 1.80 o
3 9 2 9.62 8.69 0.85 o
4 9 2 23.14 21.46 1.19 o
5 9 2 4.41 4.35 0.97 o
6 9 2 15.35 13.43 1.03 o
7 9 2 2.15 1.00 0.38 o
8 9 2 10.76 10.18 1.48 o
0 10 2 38.07 39.34 1.95 o
1 10 2 22.05 21.08 1.23 o
2 10 2 31.30 30.29 1.83 o
3 10 2 8.03 9.70 1.02 o
4 10 2 15.76 15.82 1.21 o
5 10 2 11.07 11.33 1.06 o
6 10 2 8.68 7.84 1.05 o
7 10 2 11.17 11.16 1.54 o
0 11 2 13.68 9.93 1.43 o
1 11 2 2.86 2.03 0.61 o
2 11 2 22.55 20.95 1.22 o
3 11 2 13.27 12.08 0.92 o
4 11 2 23.38 25.69 1.42 o
5 11 2 5.44 3.57 0.70 o
0 12 2 8.55 8.75 1.38 o
1 12 2 12.87 16.00 1.26 o
2 12 2 2.15 1.75 0.70 o
3 12 2 8.11 4.62 1.27 o
4 12 2 0.31 0.46 0.62 o
5 -9 3 7.12 3.94 1.08 o
6 -9 3 18.82 20.33 1.80 o
7 -9 3 0.96 1.34 0.80 o
4 -8 3 1.13 0.98 0.65 o
5 -8 3 32.84 34.66 1.91 o
6 -8 3 1.97 1.79 1.03 o
7 -8 3 18.07 17.83 2.32 o
8 -8 3 5.32 5.01 1.21 o
2 -7 3 47.35 53.89 1.64 o
3 -7 3 210.13 221.26 3.20 o
4 -7 3 17.49 21.86 1.60 o
5 -7 3 77.80 78.17 2.56 o
6 -7 3 25.17 25.54 1.20 o
7 -7 3 0.13 0.45 0.44 o
8 -7 3 30.07 26.80 2.04 o
1 -6 3 159.74 174.86 2.33 o
2 -6 3 1.49 2.81 0.70 o
3 -6 3 87.22 89.58 2.12 o
4 -6 3 20.43 18.72 1.37 o
5 -6 3 57.94 63.38 2.07 o
6 -6 3 11.50 11.20 0.97 o
7 -6 3 35.89 35.56 1.57 o
8 -6 3 8.07 8.89 1.53 o
9 -6 3 15.19 12.91 1.72 o
0 -5 3 134.14 142.39 1.90 o
1 -5 3 74.02 77.35 1.63 o
2 -5 3 128.90 131.62 2.24 o
3 -5 3 58.22 58.97 1.76 o
4 -5 3 79.72 88.86 2.89 o
5 -5 3 43.51 36.52 1.39 o
6 -5 3 47.89 52.05 1.56 o
7 -5 3 12.74 12.77 1.05 o
8 -5 3 34.03 34.55 1.91 o
9 -5 3 1.86 1.60 0.71 o
0 -4 3 291.57 309.06 2.68 o
1 -4 3 310.40 313.56 3.47 o
2 -4 3 18.48 14.32 1.01 o
3 -4 3 118.76 122.24 3.11 o
4 -4 3 113.73 115.64 3.84 o
5 -4 3 72.58 71.81 1.54 o
6 -4 3 7.57 7.98 0.84 o
7 -4 3 71.18 72.74 1.75 o
8 -4 3 14.16 10.47 1.01 o
9 -4 3 33.99 34.29 1.53 o
0 -3 3 158.72 167.31 1.99 o
1 -3 3 148.56 156.55 1.64 o
2 -3 3 239.37 238.84 4.77 o
3 -3 3 201.53 200.48 5.08 o
4 -3 3 256.06 265.40 7.25 o
5 -3 3 26.06 27.15 1.63 o
6 -3 3 84.24 89.70 1.85 o
7 -3 3 68.29 63.51 1.68 o
8 -3 3 23.65 28.08 1.32 o
9 -3 3 4.44 4.18 0.90 o
10 -3 3 20.51 20.06 1.36 o
0 -2 3 424.93 459.91 3.30 o
1 -2 3 171.10 163.98 2.70 o
2 -2 3 162.98 163.31 1.60 o
3 -2 3 170.19 172.24 3.09 o
4 -2 3 62.52 64.73 1.72 o
5 -2 3 115.99 116.72 1.36 o
6 -2 3 58.18 58.16 1.11 o
7 -2 3 60.48 63.84 1.32 o
8 -2 3 25.95 24.55 3.18 o
9 -2 3 28.88 29.76 1.32 o
10 -2 3 2.71 1.58 0.68 o
0 -1 3 345.54 356.89 3.01 o
1 -1 3 44.58 46.21 0.88 o
2 -1 3 245.24 250.93 2.94 o
3 -1 3 223.53 214.53 2.46 o
4 -1 3 195.40 198.58 3.10 o
5 -1 3 48.72 51.54 1.52 o
6 -1 3 97.63 97.10 1.39 o
7 -1 3 27.65 21.31 0.84 o
8 -1 3 44.93 47.41 1.44 o
9 -1 3 2.95 2.06 0.55 o
10 -1 3 13.53 13.82 0.86 o
0 0 3 3285.19 3434.16 59.41 o
1 0 3 22.38 17.52 0.45 o
2 0 3 399.04 418.93 4.48 o
3 0 3 276.49 264.90 3.44 o
4 0 3 0.60 0.27 0.27 o
5 0 3 188.45 188.30 2.18 o
6 0 3 183.39 179.31 2.29 o
7 0 3 25.91 29.37 1.00 o
8 0 3 147.71 136.00 3.64 o
9 0 3 15.39 14.79 1.01 o
10 0 3 0.06 0.65 0.53 o
0 1 3 348.75 348.93 8.36 o
1 1 3 43.14 41.66 1.19 o
2 1 3 242.99 239.74 1.74 o
3 1 3 226.88 211.32 4.06 o
4 1 3 191.13 189.53 2.55 o
5 1 3 49.97 52.28 1.09 o
6 1 3 97.25 100.68 1.79 o
7 1 3 26.75 20.94 1.13 o
8 1 3 45.85 48.71 1.44 o
9 1 3 2.84 2.09 0.58 o
10 1 3 13.37 13.31 0.89 o
0 2 3 426.61 443.68 15.72 o
1 2 3 170.23 155.20 1.70 o
2 2 3 162.33 156.00 2.77 o
3 2 3 171.10 167.87 3.38 o
4 2 3 61.93 55.42 1.40 o
5 2 3 115.66 114.82 1.88 o
6 2 3 58.59 57.34 1.40 o
7 2 3 59.54 63.09 1.35 o
8 2 3 26.40 24.10 1.09 o
9 2 3 28.83 33.18 1.19 o
10 2 3 2.62 1.81 0.56 o
0 3 3 160.27 166.26 4.99 o
1 3 3 148.06 149.45 1.75 o
2 3 3 236.87 223.63 3.54 o
3 3 3 204.66 194.33 4.41 o
4 3 3 252.46 243.10 8.61 o
5 3 3 27.10 27.55 0.91 o
6 3 3 83.68 88.95 2.63 o
7 3 3 67.64 60.87 1.63 o
8 3 3 24.29 28.67 1.32 o
9 3 3 4.36 2.94 0.57 o
10 3 3 20.33 17.58 1.22 o
0 4 3 287.94 287.38 8.24 o
1 4 3 313.46 299.45 5.03 o
2 4 3 17.78 13.72 0.60 o
3 4 3 118.07 116.58 2.64 o
4 4 3 114.66 108.01 2.99 o
5 4 3 71.35 68.89 2.27 o
6 4 3 7.12 7.57 0.84 o
7 4 3 71.79 73.71 1.35 o
8 4 3 13.73 11.51 0.99 o
9 4 3 34.55 34.88 2.43 o
10 4 3 6.12 6.89 1.38 o
0 5 3 134.08 139.46 2.55 o
1 5 3 74.18 73.57 1.61 o
2 5 3 128.77 121.57 4.06 o
3 5 3 57.79 53.70 1.35 o
4 5 3 79.96 82.70 3.72 o
5 5 3 43.14 33.43 1.69 o
6 5 3 47.88 49.11 2.89 o
7 5 3 12.85 11.74 0.96 o
8 5 3 33.77 34.94 1.26 o
9 5 3 1.87 1.59 0.66 o
10 5 3 18.59 17.33 1.72 o
0 6 3 104.56 106.78 4.72 o
1 6 3 161.26 162.88 5.15 o
2 6 3 1.38 2.58 0.62 o
3 6 3 86.78 87.93 2.51 o
4 6 3 21.24 16.79 0.75 o
5 6 3 57.72 58.03 3.21 o
6 6 3 11.02 9.46 0.92 o
7 6 3 36.57 37.48 2.16 o
8 6 3 7.77 9.47 1.63 o
9 6 3 15.39 11.96 1.60 o
0 7 3 77.42 76.36 2.32 o
1 7 3 23.51 19.41 0.99 o
2 7 3 47.81 51.20 1.16 o
3 7 3 209.70 220.96 4.36 o
4 7 3 17.88 20.46 1.45 o
5 7 3 77.58 75.34 2.44 o
6 7 3 25.16 22.71 1.21 o
7 7 3 0.13 0.80 0.48 o
8 7 3 30.08 26.44 1.46 o
0 8 3 33.45 34.22 2.04 o
1 8 3 71.54 76.71 1.75 o
2 8 3 7.97 4.06 0.60 o
3 8 3 54.05 53.21 1.49 o
4 8 3 0.97 1.44 0.50 o
5 8 3 33.11 33.38 1.91 o
6 8 3 2.08 1.27 0.57 o
7 8 3 17.97 17.39 1.39 o
0 9 3 36.77 38.57 2.09 o
1 9 3 9.97 10.02 0.97 o
2 9 3 25.34 28.16 1.31 o
3 9 3 27.05 21.50 1.27 o
4 9 3 18.23 20.50 1.20 o
5 9 3 7.12 2.81 0.86 o
6 9 3 18.81 18.03 1.18 o
7 9 3 0.88 0.70 0.59 o
0 10 3 35.00 30.39 1.98 o
1 10 3 38.80 40.31 2.11 o
2 10 3 4.92 3.08 0.78 o
3 10 3 28.64 29.10 1.41 o
4 10 3 6.26 4.84 0.87 o
5 10 3 17.41 17.98 1.37 o
6 10 3 2.55 1.63 0.79 o
0 11 3 22.02 24.75 2.02 o
1 11 3 0.80 0.50 0.45 o
2 11 3 21.10 21.36 1.29 o
3 11 3 5.27 7.26 2.23 o
5 -8 4 19.56 22.00 1.98 o
6 -8 4 12.87 9.89 1.33 o
3 -7 4 0.81 1.24 0.61 o
4 -7 4 45.07 51.40 2.10 o
5 -7 4 0.75 0.31 0.51 o
6 -7 4 16.16 16.91 1.64 o
7 -7 4 2.19 1.59 0.86 o
2 -6 4 8.29 6.74 0.94 o
3 -6 4 47.83 50.91 1.88 o
4 -6 4 2.01 1.62 0.73 o
5 -6 4 33.08 37.60 2.05 o
6 -6 4 12.56 11.50 1.79 o
7 -6 4 42.23 45.08 1.66 o
1 -5 4 201.39 217.48 2.91 o
2 -5 4 134.04 135.31 2.55 o
3 -5 4 0.10 0.58 0.49 o
4 -5 4 58.65 59.33 2.10 o
5 -5 4 5.25 4.98 1.00 o
6 -5 4 56.28 58.10 1.66 o
7 -5 4 51.81 55.53 3.64 o
8 -5 4 39.71 40.72 1.74 o
0 -4 4 49.58 47.94 1.50 o
1 -4 4 132.40 146.24 2.52 o
2 -4 4 102.27 114.86 2.55 o
3 -4 4 191.81 206.43 3.30 o
4 -4 4 107.66 115.57 2.70 o
5 -4 4 98.87 98.47 2.37 o
6 -4 4 8.41 7.56 0.88 o
7 -4 4 26.94 29.45 1.76 o
8 -4 4 2.89 2.63 0.75 o
0 -3 4 349.14 349.60 3.44 o
1 -3 4 191.72 189.94 1.82 o
2 -3 4 212.78 227.11 3.34 o
3 -3 4 46.21 49.22 1.94 o
4 -3 4 104.69 108.18 3.38 o
5 -3 4 22.69 22.47 1.21 o
6 -3 4 99.15 105.61 2.02 o
7 -3 4 35.93 35.79 2.93 o
8 -3 4 53.24 54.62 1.72 o
9 -3 4 8.35 5.17 1.21 o
0 -2 4 7.05 5.54 0.80 o
1 -2 4 160.53 179.52 6.67 o
2 -2 4 139.86 139.20 2.70 o
3 -2 4 254.93 252.50 8.31 o
4 -2 4 283.75 291.87 9.15 o
5 -2 4 142.24 140.09 5.47 o
6 -2 4 0.94 1.23 0.56 o
7 -2 4 39.27 40.08 1.49 o
8 -2 4 3.31 3.83 0.83 o
9 -2 4 18.41 17.61 1.26 o
0 -1 4 113.64 127.18 2.33 o
1 -1 4 1.17 1.78 0.50 o
2 -1 4 232.99 250.41 3.74 o
3 -1 4 218.13 206.59 3.66 o
4 -1 4 275.07 286.88 2.76 o
5 -1 4 57.12 56.91 2.14 o
6 -1 4 82.02 83.83 1.99 o
7 -1 4 4.35 3.85 1.11 o
8 -1 4 23.93 26.05 1.30 o
9 -1 4 5.59 5.99 0.93 o
0 0 4 2.17 1.94 0.39 o
1 0 4 206.22 216.23 3.64 o
2 0 4 0.33 0.92 0.33 o
3 0 4 113.15 121.61 1.64 o
4 0 4 5.44 6.28 0.78 o
5 0 4 108.16 101.05 1.88 o
6 0 4 0.89 0.52 0.46 o
7 0 4 72.33 70.82 1.87 o
8 0 4 0.56 0.61 0.49 o
9 0 4 14.08 14.04 0.97 o
0 1 4 113.27 120.60 2.41 o
1 1 4 1.30 1.40 0.26 o
2 1 4 234.62 243.94 2.96 o
3 1 4 219.27 206.67 2.97 o
4 1 4 276.92 276.82 4.45 o
5 1 4 57.53 58.08 1.51 o
6 1 4 81.63 85.31 2.47 o
7 1 4 4.23 3.47 0.70 o
8 1 4 23.81 26.17 1.08 o
9 1 4 5.64 5.24 0.69 o
0 2 4 7.21 5.56 0.50 o
1 2 4 160.07 168.56 2.30 o
2 2 4 138.22 137.35 2.07 o
3 2 4 248.90 241.83 3.31 o
4 2 4 281.54 281.26 7.52 o
5 2 4 139.09 134.08 3.36 o
6 2 4 0.84 0.95 0.40 o
7 2 4 39.83 41.58 2.11 o
8 2 4 3.44 3.62 0.72 o
9 2 4 18.28 18.28 1.23 o
0 3 4 352.32 354.90 4.15 o
1 3 4 193.11 186.03 2.85 o
2 3 4 215.85 213.76 3.88 o
3 3 4 47.27 43.88 1.62 o
4 3 4 106.33 105.81 1.43 o
5 3 4 23.22 21.86 1.04 o
6 3 4 99.62 102.03 1.97 o
7 3 4 36.09 36.25 3.03 o
8 3 4 53.84 56.64 1.42 o
9 3 4 8.51 6.02 0.76 o
0 4 4 48.47 45.90 1.26 o
1 4 4 130.38 131.52 2.77 o
2 4 4 101.07 101.60 1.95 o
3 4 4 189.54 184.35 7.69 o
4 4 4 106.91 118.46 2.93 o
5 4 4 97.05 96.32 1.95 o
6 4 4 8.09 7.12 0.97 o
7 4 4 26.21 27.85 1.68 o
8 4 4 2.73 3.38 1.14 o
0 5 4 264.49 263.95 3.66 o
1 5 4 203.11 207.38 3.25 o
2 5 4 135.88 128.71 2.97 o
3 5 4 0.08 0.49 0.29 o
4 5 4 58.21 55.92 1.64 o
5 5 4 5.47 5.09 0.82 o
6 5 4 57.56 57.95 1.96 o
7 5 4 52.38 53.54 3.72 o
0 6 4 75.50 73.31 1.62 o
1 6 4 120.95 117.80 1.92 o
2 6 4 8.02 6.95 0.64 o
3 6 4 48.48 47.36 1.63 o
4 6 4 1.97 2.59 0.51 o
5 6 4 33.10 36.04 1.88 o
6 6 4 12.37 11.35 1.04 o
7 6 4 41.68 40.38 2.47 o
0 7 4 44.57 48.97 2.88 o
1 7 4 0.72 0.79 0.39 o
2 7 4 55.15 58.36 1.62 o
3 7 4 0.76 1.20 0.51 o
4 7 4 44.98 44.14 1.65 o
5 7 4 0.79 0.47 0.41 o
6 7 4 16.41 11.62 1.50 o
7 7 4 2.25 1.18 0.82 o
0 8 4 40.09 38.61 2.11 o
1 8 4 71.50 77.50 1.83 o
2 8 4 2.21 1.74 0.73 o
3 8 4 22.38 23.16 1.32 o
4 8 4 0.51 0.59 0.39 o
5 8 4 19.85 21.87 1.92 o
6 8 4 12.98 10.93 1.57 o
0 9 4 39.32 43.18 2.29 o
1 9 4 39.39 44.24 3.97 o
2 9 4 23.97 26.17 1.42 o
3 9 4 2.86 2.74 0.71 o
4 9 4 15.11 16.61 2.28 o
5 9 4 2.21 3.23 0.75 o
0 10 4 13.45 6.27 1.34 o
1 10 4 29.20 31.66 1.49 o
2 10 4 13.85 13.38 1.18 o
3 10 4 31.61 33.77 2.23 o
4 10 4 12.98 15.34 1.79 o
5 -7 5 10.45 10.55 1.51 o
6 -7 5 11.63 10.20 1.41 o
4 -6 5 2.32 3.38 1.06 o
5 -6 5 6.75 5.76 1.15 o
6 -6 5 7.25 6.77 1.25 o
2 -5 5 23.27 23.40 1.50 o
3 -5 5 21.45 22.00 1.57 o
4 -5 5 12.74 10.18 1.42 o
5 -5 5 12.34 9.28 1.41 o
6 -5 5 9.82 10.00 1.52 o
1 -4 5 49.99 54.19 1.89 o
2 -4 5 31.87 32.36 1.68 o
3 -4 5 15.84 15.16 1.34 o
4 -4 5 14.23 16.36 1.56 o
5 -4 5 19.25 19.93 1.70 o
6 -4 5 25.44 25.19 1.33 o
7 -4 5 19.89 18.68 1.34 o
0 -3 5 11.37 13.30 1.22 o
1 -3 5 23.49 26.23 1.42 o
2 -3 5 27.43 35.45 1.66 o
3 -3 5 73.52 77.32 2.45 o
4 -3 5 35.38 34.87 2.06 o
5 -3 5 19.60 16.23 1.67 o
6 -3 5 6.54 5.22 0.94 o
7 -3 5 3.69 3.97 1.29 o
0 -2 5 41.79 40.38 1.60 o
1 -2 5 25.55 31.03 1.09 o
2 -2 5 61.28 64.91 1.42 o
4 -2 5 59.62 58.15 2.30 o
5 -2 5 26.92 27.22 1.37 o
6 -2 5 18.53 17.63 1.20 o
7 -2 5 9.65 8.06 0.93 o
8 -2 5 10.60 8.22 1.40 o
0 -1 5 2.76 3.60 0.92 o
1 -1 5 6.96 5.84 0.65 o
2 -1 5 10.20 11.94 0.94 o
3 -1 5 37.66 35.63 1.37 o
4 -1 5 25.84 29.62 1.84 o
5 -1 5 16.66 12.35 1.01 o
6 -1 5 19.16 17.72 1.71 o
7 -1 5 3.17 3.15 0.84 o
8 -1 5 3.53 3.21 0.76 o
0 0 5 11.94 11.19 1.05 o
1 0 5 11.74 16.97 0.97 o
2 0 5 72.30 76.94 1.54 o
3 0 5 44.66 51.26 1.42 o
4 0 5 100.26 101.67 1.85 o
5 0 5 19.90 18.96 1.13 o
6 0 5 7.97 6.68 0.86 o
7 0 5 2.52 1.64 0.62 o
8 0 5 6.67 5.68 0.98 o
0 1 5 2.95 3.38 0.88 o
1 1 5 6.84 4.84 0.66 o
2 1 5 9.44 9.62 0.65 o
3 1 5 36.32 34.18 1.08 o
4 1 5 24.84 24.76 0.94 o
5 1 5 16.26 10.95 1.20 o
6 1 5 19.25 16.68 1.11 o
7 1 5 3.40 1.96 0.72 o
8 1 5 3.51 2.87 0.71 o
0 2 5 42.75 40.80 1.93 o
1 2 5 26.30 29.47 0.90 o
2 2 5 61.88 63.95 1.23 o
3 2 5 32.75 32.79 1.27 o
4 2 5 59.85 60.79 2.35 o
5 2 5 26.63 27.25 1.01 o
6 2 5 18.51 17.86 1.10 o
7 2 5 9.64 11.57 1.13 o
8 2 5 10.85 10.92 0.88 o
0 3 5 11.68 11.71 1.34 o
1 3 5 23.28 22.61 0.87 o
2 3 5 26.60 30.50 2.05 o
3 3 5 71.81 74.88 2.63 o
4 3 5 33.88 31.94 2.01 o
5 3 5 19.01 15.48 1.13 o
6 3 5 6.23 4.08 1.22 o
7 3 5 3.91 3.56 1.32 o
0 4 5 90.47 96.22 1.80 o
1 4 5 51.36 51.20 1.51 o
2 4 5 32.58 35.60 1.26 o
3 4 5 15.88 14.49 1.05 o
4 4 5 14.17 15.26 1.73 o
5 4 5 19.45 19.74 1.28 o
6 4 5 26.01 25.64 1.43 o
7 4 5 20.42 18.61 1.39 o
0 5 5 31.50 29.40 1.28 o
1 5 5 39.66 35.28 1.02 o
2 5 5 23.39 22.47 1.83 o
3 5 5 21.12 20.80 1.20 o
4 5 5 12.59 10.79 1.40 o
5 5 5 12.07 8.01 0.97 o
6 5 5 9.35 8.74 1.14 o
7 5 5 12.49 10.59 1.61 o
0 6 5 24.28 26.08 1.27 o
1 6 5 21.72 20.62 0.96 o
2 6 5 9.13 9.13 1.07 o
3 6 5 15.42 13.20 1.08 o
4 6 5 2.34 2.85 1.09 o
5 6 5 6.91 7.04 1.42 o
6 6 5 7.71 7.36 1.31 o
0 7 5 43.20 40.38 1.66 o
1 7 5 28.09 24.64 1.95 o
2 7 5 15.51 11.97 1.03 o
3 7 5 5.07 3.86 1.60 o
4 7 5 4.64 4.09 0.79 o
5 7 5 10.43 9.67 1.29 o
6 7 5 11.77 14.80 1.80 o
0 8 5 11.72 16.63 1.84 o
1 8 5 7.21 7.49 1.07 o
2 8 5 3.41 2.30 0.61 o
3 8 5 7.02 7.95 0.97 o
4 8 5 0.24 0.82 0.62 o
0 9 5 20.23 20.37 1.80 o
1 9 5 13.69 13.83 1.06 o
2 9 5 15.65 14.23 1.87 o
3 9 5 7.68 8.48 1.60 o
4 -5 6 9.89 9.67 1.31 o
2 -4 6 31.27 32.77 2.03 o
3 -4 6 7.72 7.30 1.36 o
5 -4 6 1.74 1.62 0.91 o
1 -3 6 15.12 12.39 1.54 o
2 -3 6 18.41 15.77 1.63 o
3 -3 6 57.09 63.27 2.66 o
5 -3 6 27.76 31.04 2.15 o
0 -2 6 26.77 27.49 1.73 o
1 -2 6 17.32 14.87 1.54 o
3 -2 6 23.03 25.71 1.97 o
4 -2 6 36.95 38.10 2.12 o
5 -2 6 15.40 16.60 1.78 o
0 -1 6 6.15 7.10 1.11 o
1 -1 6 4.34 4.50 0.76 o
2 -1 6 7.02 6.23 0.84 o
4 -1 6 11.32 9.66 1.58 o
5 -1 6 8.43 7.82 1.36 o
6 -1 6 2.79 2.40 0.94 o
0 0 6 2.40 1.55 0.95 o
1 0 6 4.11 3.05 0.70 o
2 0 6 31.09 30.06 1.37 o
3 0 6 36.49 38.40 2.10 o
4 0 6 61.77 65.54 2.59 o
5 0 6 35.50 38.74 2.42 o
6 0 6 10.88 8.76 1.48 o
0 1 6 6.16 8.76 1.45 o
1 1 6 3.91 4.50 0.76 o
2 1 6 6.64 7.70 1.03 o
3 1 6 16.94 17.42 1.17 o
4 1 6 10.60 9.42 1.55 o
5 1 6 7.44 5.90 1.43 o
6 1 6 2.56 1.08 0.86 o
0 2 6 28.08 26.63 1.93 o
1 2 6 17.77 15.79 1.55 o
2 2 6 38.64 39.51 1.58 o
3 2 6 23.60 24.34 1.84 o
4 2 6 38.46 38.16 1.62 o
5 2 6 15.81 17.00 1.96 o
0 3 6 6.00 3.86 1.14 o
1 3 6 13.64 9.74 1.08 o
2 3 6 17.59 15.89 1.18 o
3 3 6 54.60 53.67 2.50 o
4 3 6 30.75 30.74 1.52 o
5 3 6 26.36 28.51 1.56 o
0 4 6 79.52 85.05 2.91 o
1 4 6 35.04 34.90 1.52 o
2 4 6 33.01 32.81 2.28 o
3 4 6 8.14 7.57 1.50 o
4 4 6 7.88 5.44 0.89 o
5 4 6 1.85 0.84 0.75 o
0 5 6 16.57 18.73 1.87 o
1 5 6 29.30 28.13 1.54 o
2 5 6 16.09 14.92 2.94 o
3 5 6 21.46 18.58 2.13 o
4 5 6 9.59 9.53 1.07 o
0 6 6 25.31 27.06 2.20 o
1 6 6 11.20 8.00 1.47 o
2 6 6 8.86 8.13 0.96 o
3 6 6 2.00 1.45 0.55 o
2 7 6 7.02 8.03 1.34 o
1 -2 7 0.67 0.89 0.77 o
2 -2 7 35.66 37.72 2.34 o
0 -1 7 0.38 1.18 0.75 o
1 -1 7 17.94 17.34 1.78 o
2 -1 7 4.21 3.89 1.12 o
0 0 7 46.33 50.17 2.42 o
1 0 7 4.59 3.95 0.99 o
2 0 7 25.37 22.30 1.96 o
0 1 7 0.39 0.36 0.60 o
1 1 7 18.11 16.47 2.03 o
2 1 7 4.26 1.52 0.61 o
0 2 7 19.60 20.42 1.92 o
1 2 7 0.65 1.04 0.58 o
