#------------------------------------------------------------------------------
#$Date: 2016-03-24 14:00:38 +0200 (Thu, 24 Mar 2016) $
#$Revision: 179648 $
#$URL: svn://www.crystallography.net/cod/cif/4/51/01/4510108.cif $
#------------------------------------------------------------------------------
#
# This file is available in the Crystallography Open Database (COD),
# http://www.crystallography.net/
#
# All data on this site have been placed in the public domain by the
# contributors.
#
data_4510108
loop_
_publ_author_name
'Mukherjee, Arijit'
'Desiraju, Gautam R.'
_publ_section_title
;
 Combinatorial Exploration of the Structural Landscape of Acid--Pyridine
 Cocrystals
;
_journal_issue                   3
_journal_name_full               'Crystal Growth &amp; Design'
_journal_page_first              1375
_journal_paper_doi               10.1021/cg401851z
_journal_volume                  14
_journal_year                    2014
_chemical_formula_sum            'C14 H16 N2 O3'
_chemical_formula_weight         260.29
_chemical_name_systematic
;
 ?
;
_space_group_IT_number           2
_symmetry_cell_setting           triclinic
_symmetry_space_group_name_Hall  '-P 1'
_symmetry_space_group_name_H-M   'P -1'
_atom_sites_solution_hydrogens   geom
_atom_sites_solution_primary     direct
_atom_sites_solution_secondary   difmap
_audit_creation_method           SHELXL-97
_cell_angle_alpha                70.636(5)
_cell_angle_beta                 77.528(7)
_cell_angle_gamma                79.727(7)
_cell_formula_units_Z            2
_cell_length_a                   7.9027(16)
_cell_length_b                   9.251(2)
_cell_length_c                   9.692(2)
_cell_measurement_reflns_used    6599
_cell_measurement_temperature    150(2)
_cell_measurement_theta_max      27.6
_cell_measurement_theta_min      3.0
_cell_volume                     648.3(2)
_computing_cell_refinement
;
CrystalClear-SM Expert 2.0 rc14 (Rigaku, 2009)
;
_computing_data_collection
;
CrystalClear-SM Expert 2.0 rc14 (Rigaku, 2009)
;
_computing_data_reduction
;
CrystalClear-SM Expert 2.0 rc14 (Rigaku, 2009)
;
_computing_structure_refinement  'SHELXL-97 (Sheldrick, 2008)'
_computing_structure_solution    'SHELXL-97 (Sheldrick, 2008)'
_diffrn_ambient_temperature      150(2)
_diffrn_detector                 CCD
_diffrn_detector_area_resol_mean 13.6612
_diffrn_measured_fraction_theta_full 0.995
_diffrn_measured_fraction_theta_max 0.995
_diffrn_measurement_device
;
XtaLABmini: Fixed Chi 2 circle
;
_diffrn_measurement_device_type
;
Rigaku Mercury375R (2x2 bin mode)
;
_diffrn_measurement_specimen_support Fiber
_diffrn_radiation_monochromator  'Graphite Monochromator'
_diffrn_radiation_source         'fine-focus sealed tube'
_diffrn_radiation_type           MoK\a
_diffrn_radiation_wavelength     0.71073
_diffrn_reflns_av_R_equivalents  0.0380
_diffrn_reflns_av_sigmaI/netI    0.0510
_diffrn_reflns_limit_h_max       10
_diffrn_reflns_limit_h_min       -10
_diffrn_reflns_limit_k_max       11
_diffrn_reflns_limit_k_min       -12
_diffrn_reflns_limit_l_max       12
_diffrn_reflns_limit_l_min       -12
_diffrn_reflns_number            6814
_diffrn_reflns_theta_full        27.48
_diffrn_reflns_theta_max         27.48
_diffrn_reflns_theta_min         3.19
_exptl_absorpt_coefficient_mu    0.095
_exptl_absorpt_correction_T_max  1.000
_exptl_absorpt_correction_T_min  0.839
_exptl_absorpt_correction_type   multi-scan
_exptl_absorpt_process_details   'Jacobson, R. (1998) Private communication'
_exptl_crystal_density_diffrn    1.333
_exptl_crystal_density_method    'not measured'
_exptl_crystal_F_000             276
_exptl_crystal_size_max          0.2
_exptl_crystal_size_mid          0.2
_exptl_crystal_size_min          0.2
_refine_diff_density_max         0.187
_refine_diff_density_min         -0.255
_refine_diff_density_rms         0.055
_refine_ls_extinction_method     none
_refine_ls_goodness_of_fit_ref   0.962
_refine_ls_hydrogen_treatment    mixed
_refine_ls_matrix_type           full
_refine_ls_number_parameters     182
_refine_ls_number_reflns         2962
_refine_ls_number_restraints     0
_refine_ls_restrained_S_all      0.962
_refine_ls_R_factor_all          0.0890
_refine_ls_R_factor_gt           0.0535
_refine_ls_shift/su_max          0.000
_refine_ls_shift/su_mean         0.000
_refine_ls_structure_factor_coef Fsqd
_refine_ls_weighting_details
'calc w=1/[\s^2^(Fo^2^)+(0.0647P)^2^+0.2748P] where P=(Fo^2^+2Fc^2^)/3'
_refine_ls_weighting_scheme      calc
_refine_ls_wR_factor_gt          0.1204
_refine_ls_wR_factor_ref         0.1383
_reflns_number_gt                1986
_reflns_number_total             2962
_reflns_threshold_expression     >2\s(I)
_cod_data_source_file            cg401851z_si_002.cif
_cod_data_source_block           32
_cod_depositor_comments
;
The following automatic conversions were performed:

'_exptl_absorpt_correction_type' value 'Multi-scan' changed to
'multi-scan' according to
/usr/data/users/saulius/crontab/automatic-downloads/current/ACS/lib/dictionaries/cif_core.dic
dictionary named 'cif_core.dic' version 2.4.2 from 2011-04-26.

Automatic conversion script
Id: cif_fix_values 2281 2013-09-26 08:29:07Z andrius 
;
_cod_database_code               4510108
loop_
_symmetry_equiv_pos_as_xyz
'x, y, z'
'-x, -y, -z'
loop_
_atom_site_label
_atom_site_type_symbol
_atom_site_fract_x
_atom_site_fract_y
_atom_site_fract_z
_atom_site_U_iso_or_equiv
_atom_site_adp_type
_atom_site_occupancy
_atom_site_symmetry_multiplicity
_atom_site_calc_flag
_atom_site_refinement_flags
H1N H 1.420(4) 0.752(3) 0.094(3) 0.061(8) Uiso 1 1 d .
H3O H -0.426(4) 0.267(4) 0.323(4) 0.079(11) Uiso 1 1 d .
N2 N 0.7672(2) 0.75950(18) 0.31806(18) 0.0234(4) Uani 1 1 d .
O3 O -0.36109(19) 0.24884(18) 0.38731(18) 0.0315(4) Uani 1 1 d .
C10 C 0.9388(2) 0.7575(2) 0.2637(2) 0.0205(4) Uani 1 1 d .
N1 N 1.2946(2) 0.7541(2) 0.14496(19) 0.0266(4) Uani 1 1 d .
C9 C 1.0508(2) 0.6180(2) 0.2722(2) 0.0234(4) Uani 1 1 d .
H9 H 1.0065 0.5238 0.3189 0.028 Uiso 1 1 calc R
C11 C 1.0193(2) 0.8952(2) 0.1939(2) 0.0230(4) Uani 1 1 d .
H11 H 0.9534 0.9904 0.1873 0.028 Uiso 1 1 calc R
C8 C 1.2236(3) 0.6215(2) 0.2121(2) 0.0261(4) Uani 1 1 d .
H8 H 1.2946 0.5287 0.2178 0.031 Uiso 1 1 calc R
C12 C 1.1928(3) 0.8883(2) 0.1366(2) 0.0260(4) Uani 1 1 d .
H12 H 1.2424 0.9799 0.0899 0.031 Uiso 1 1 calc R
C3 C 0.0295(2) 0.3035(2) 0.1013(2) 0.0215(4) Uani 1 1 d .
H3 H 0.0599 0.3350 -0.0015 0.026 Uiso 1 1 calc R
C2 C 0.1600(2) 0.2554(2) 0.1879(2) 0.0209(4) Uani 1 1 d .
O1 O 0.38241(17) 0.23930(19) -0.01344(18) 0.0372(4) Uani 1 1 d .
C4 C -0.1451(2) 0.3053(2) 0.1653(2) 0.0209(4) Uani 1 1 d .
H4 H -0.2310 0.3412 0.1059 0.025 Uiso 1 1 calc R
O2 O 0.45802(19) 0.2710(2) 0.1814(2) 0.0449(5) Uani 1 1 d .
C14 C 0.6851(3) 0.6171(2) 0.3758(3) 0.0324(5) Uani 1 1 d .
H14A H 0.7484 0.5425 0.4480 0.049 Uiso 1 1 calc R
H14B H 0.6862 0.5772 0.2959 0.049 Uiso 1 1 calc R
H14C H 0.5668 0.6377 0.4217 0.049 Uiso 1 1 calc R
C6 C -0.0625(3) 0.2045(2) 0.4071(2) 0.0256(4) Uani 1 1 d .
H6 H -0.0928 0.1697 0.5098 0.031 Uiso 1 1 calc R
C5 C -0.1915(2) 0.2531(2) 0.3190(2) 0.0222(4) Uani 1 1 d .
C13 C 0.6519(3) 0.9038(2) 0.2973(3) 0.0322(5) Uani 1 1 d .
H13B H 0.6451 0.9500 0.1939 0.048 Uiso 1 1 calc R
H13A H 0.6970 0.9728 0.3319 0.048 Uiso 1 1 calc R
H13C H 0.5376 0.8838 0.3525 0.048 Uiso 1 1 calc R
C7 C 0.1113(3) 0.2079(2) 0.3415(2) 0.0268(5) Uani 1 1 d .
H7 H 0.1970 0.1780 0.4011 0.032 Uiso 1 1 calc R
C1 C 0.3479(2) 0.2553(2) 0.1145(2) 0.0266(5) Uani 1 1 d .
loop_
_atom_site_aniso_label
_atom_site_aniso_U_11
_atom_site_aniso_U_22
_atom_site_aniso_U_33
_atom_site_aniso_U_23
_atom_site_aniso_U_13
_atom_site_aniso_U_12
N2 0.0202(8) 0.0222(9) 0.0273(9) -0.0097(7) 0.0019(7) -0.0042(6)
O3 0.0216(7) 0.0397(9) 0.0332(9) -0.0161(7) 0.0084(7) -0.0100(6)
C10 0.0209(9) 0.0248(10) 0.0174(9) -0.0087(8) -0.0021(7) -0.0036(8)
N1 0.0181(8) 0.0313(10) 0.0320(10) -0.0139(8) 0.0000(7) -0.0036(7)
C9 0.0242(10) 0.0214(10) 0.0240(10) -0.0066(8) -0.0014(8) -0.0051(8)
C11 0.0253(10) 0.0197(10) 0.0235(10) -0.0077(8) -0.0003(8) -0.0038(8)
C8 0.0240(10) 0.0259(10) 0.0308(11) -0.0122(9) -0.0058(8) -0.0003(8)
C12 0.0269(10) 0.0263(10) 0.0260(10) -0.0096(9) 0.0012(8) -0.0097(8)
C3 0.0200(9) 0.0230(10) 0.0214(10) -0.0077(8) -0.0004(7) -0.0046(7)
C2 0.0176(9) 0.0164(9) 0.0305(11) -0.0086(8) -0.0048(8) -0.0031(7)
O1 0.0189(7) 0.0522(10) 0.0450(10) -0.0261(8) 0.0066(7) -0.0087(7)
C4 0.0165(9) 0.0227(10) 0.0246(10) -0.0076(8) -0.0061(8) -0.0010(7)
O2 0.0211(8) 0.0607(11) 0.0613(11) -0.0247(10) -0.0129(8) -0.0070(7)
C14 0.0236(10) 0.0290(11) 0.0414(13) -0.0116(10) 0.0069(9) -0.0089(9)
C6 0.0330(11) 0.0262(11) 0.0181(10) -0.0063(8) -0.0028(8) -0.0071(8)
C5 0.0192(9) 0.0211(10) 0.0274(11) -0.0115(8) 0.0027(8) -0.0056(7)
C13 0.0241(10) 0.0282(11) 0.0403(13) -0.0117(10) 0.0018(9) 0.0004(9)
C7 0.0282(10) 0.0260(11) 0.0290(11) -0.0077(9) -0.0119(9) -0.0034(8)
C1 0.0183(9) 0.0213(10) 0.0408(13) -0.0102(9) -0.0061(9) -0.0013(8)
loop_
_atom_type_symbol
_atom_type_description
_atom_type_scat_dispersion_real
_atom_type_scat_dispersion_imag
_atom_type_scat_source
C C 0.0033 0.0016 'International Tables Vol C Tables 4.2.6.8 and 6.1.1.4'
H H 0.0000 0.0000 'International Tables Vol C Tables 4.2.6.8 and 6.1.1.4'
N N 0.0061 0.0033 'International Tables Vol C Tables 4.2.6.8 and 6.1.1.4'
O O 0.0106 0.0060 'International Tables Vol C Tables 4.2.6.8 and 6.1.1.4'
loop_
_geom_angle_atom_site_label_1
_geom_angle_atom_site_label_2
_geom_angle_atom_site_label_3
_geom_angle
C10 N2 C13 121.28(17)
C10 N2 C14 120.73(16)
C13 N2 C14 117.07(16)
N2 C10 C9 122.18(17)
N2 C10 C11 122.05(17)
C9 C10 C11 115.77(17)
C12 N1 C8 119.08(17)
C8 C9 C10 120.17(18)
C12 C11 C10 120.24(18)
N1 C8 C9 122.33(19)
N1 C12 C11 122.38(19)
C4 C3 C2 121.18(18)
C3 C2 C7 118.35(17)
C3 C2 C1 119.67(18)
C7 C2 C1 121.98(17)
C3 C4 C5 119.71(17)
C7 C6 C5 119.83(18)
O3 C5 C6 118.23(18)
O3 C5 C4 122.04(18)
C6 C5 C4 119.73(17)
C6 C7 C2 121.13(18)
O2 C1 O1 124.51(19)
O2 C1 C2 119.10(19)
O1 C1 C2 116.39(17)
loop_
_geom_bond_atom_site_label_1
_geom_bond_atom_site_label_2
_geom_bond_distance
N2 C10 1.343(2)
N2 C13 1.456(2)
N2 C14 1.459(3)
O3 C5 1.362(2)
C10 C9 1.418(3)
C10 C11 1.421(3)
N1 C12 1.342(3)
N1 C8 1.342(3)
C9 C8 1.366(3)
C11 C12 1.362(3)
C3 C4 1.385(2)
C3 C2 1.389(3)
C2 C7 1.391(3)
C2 C1 1.502(3)
O1 C1 1.263(3)
C4 C5 1.391(3)
O2 C1 1.244(2)
C6 C7 1.384(3)
C6 C5 1.388(3)
