#------------------------------------------------------------------------------
#$Date: 2016-03-24 14:05:35 +0200 (Thu, 24 Mar 2016) $
#$Revision: 179651 $
#$URL: svn://www.crystallography.net/cod/cif/4/51/04/4510412.cif $
#------------------------------------------------------------------------------
#
# This file is available in the Crystallography Open Database (COD),
# http://www.crystallography.net/
#
# All data on this site have been placed in the public domain by the
# contributors.
#
data_4510412
loop_
_publ_author_name
'Adalder, Tapas Kumar'
'Dastidar, Parthasarathi'
_publ_section_title
;
 Crystal Engineering Approach toward Selective Formation of an Asymmetric
 Supramolecular Synthon in Primary Ammonium Monocarboxylate (PAM) Salts
 and Their Gelation Studies
;
_journal_issue                   5
_journal_name_full               'Crystal Growth &amp; Design'
_journal_page_first              2254
_journal_paper_doi               10.1021/cg401863s
_journal_volume                  14
_journal_year                    2014
_chemical_absolute_configuration R
_chemical_formula_moiety         'C8 H6 Br O2, C8 H12 N'
_chemical_formula_sum            'C16 H18 Br N O2'
_chemical_formula_weight         336.22
_chemical_name_systematic
; 
 ? 
;
_space_group_IT_number           4
_symmetry_cell_setting           monoclinic
_symmetry_space_group_name_Hall  'P 2yb'
_symmetry_space_group_name_H-M   'P 1 21 1'
_atom_sites_solution_hydrogens   geom
_atom_sites_solution_primary     direct
_atom_sites_solution_secondary   difmap
_audit_creation_method           SHELXL-97
_cell_angle_alpha                90.00
_cell_angle_beta                 102.164(2)
_cell_angle_gamma                90.00
_cell_formula_units_Z            2
_cell_length_a                   9.1696(3)
_cell_length_b                   6.1000(2)
_cell_length_c                   14.0886(6)
_cell_measurement_temperature    296(2)
_cell_volume                     770.35(5)
_computing_cell_refinement       'BRUKER APEX II'
_computing_data_collection       'BRUKER APEX II'
_computing_data_reduction        'BRUKER APEX II'
_computing_molecular_graphics    'MERCURY 3.1, PLATON'
_computing_publication_material  'MERCURY 3.1, PLATON'
_computing_structure_refinement  'SHELXL-97 (Sheldrick, 1997)'
_computing_structure_solution    'SHELXS-97 (Sheldrick, 1990)'
_diffrn_ambient_temperature      296(2)
_diffrn_measured_fraction_theta_full 1.000
_diffrn_measured_fraction_theta_max 1.000
_diffrn_measurement_device_type  'BRUKER CCD AREA DETECTOR'
_diffrn_measurement_method       'PHI-OMEGA SCAN'
_diffrn_radiation_monochromator  graphite
_diffrn_radiation_source         'fine-focus sealed tube'
_diffrn_radiation_type           MoK\a
_diffrn_radiation_wavelength     0.71073
_diffrn_reflns_av_R_equivalents  0.0302
_diffrn_reflns_av_sigmaI/netI    0.0434
_diffrn_reflns_limit_h_max       11
_diffrn_reflns_limit_h_min       -11
_diffrn_reflns_limit_k_max       7
_diffrn_reflns_limit_k_min       -7
_diffrn_reflns_limit_l_max       17
_diffrn_reflns_limit_l_min       -17
_diffrn_reflns_number            12300
_diffrn_reflns_theta_full        26.00
_diffrn_reflns_theta_max         26.00
_diffrn_reflns_theta_min         1.48
_exptl_absorpt_coefficient_mu    2.669
_exptl_absorpt_correction_T_max  0.8893
_exptl_absorpt_correction_T_min  0.3488
_exptl_absorpt_correction_type   multi-scan
_exptl_absorpt_process_details   SADABS
_exptl_crystal_colour            COLORLESS
_exptl_crystal_density_diffrn    1.450
_exptl_crystal_density_method    'not measured'
_exptl_crystal_description       PLATE
_exptl_crystal_F_000             344
_exptl_crystal_size_max          0.50
_exptl_crystal_size_mid          0.30
_exptl_crystal_size_min          0.05
_refine_diff_density_max         0.448
_refine_diff_density_min         -0.343
_refine_diff_density_rms         0.102
_refine_ls_abs_structure_details 'Flack H D (1983), Acta Cryst. A39, 876-881'
_refine_ls_abs_structure_Flack   -0.022(13)
_refine_ls_extinction_method     none
_refine_ls_goodness_of_fit_ref   0.869
_refine_ls_hydrogen_treatment    constr
_refine_ls_matrix_type           full
_refine_ls_number_parameters     183
_refine_ls_number_reflns         3015
_refine_ls_number_restraints     1
_refine_ls_restrained_S_all      0.869
_refine_ls_R_factor_all          0.0525
_refine_ls_R_factor_gt           0.0354
_refine_ls_shift/su_max          0.000
_refine_ls_shift/su_mean         0.000
_refine_ls_structure_factor_coef Fsqd
_refine_ls_weighting_details
'calc w=1/[\s^2^(Fo^2^)+(0.1000P)^2^+0.2072P] where P=(Fo^2^+2Fc^2^)/3'
_refine_ls_weighting_scheme      calc
_refine_ls_wR_factor_gt          0.1055
_refine_ls_wR_factor_ref         0.1318
_reflns_number_gt                2425
_reflns_number_total             3015
_reflns_threshold_expression     >2sigma(I)
_cod_data_source_file            cg401863s_si_002.cif
_cod_data_source_block           (R)-PEA.2BPA
_cod_depositor_comments
;
The following automatic conversions were performed:

'_symmetry_cell_setting' value 'MONOCLINIC' changed to 'monoclinic'
according to
/usr/data/users/saulius/crontab/automatic-downloads/rss-feeds/ACS/lib/dictionaries/cif_core.dic
dictionary named 'cif_core.dic' version 2.4.2 from
2011-04-26.

'_exptl_absorpt_correction_type' value 'MULTI-SCAN'
changed to 'multi-scan' according to
/usr/data/users/saulius/crontab/automatic-downloads/rss-feeds/ACS/lib/dictionaries/cif_core.dic
dictionary named 'cif_core.dic' version 2.4.2 from 2011-04-26.

Automatic conversion script
Id: cif_fix_values 2281 2013-09-26 08:29:07Z andrius 

 Adding full bibliography for 4510410--4510441.cif.
;
_cod_original_sg_symbol_H-M      'P 21'
_cod_database_code               4510412
loop_
_symmetry_equiv_pos_as_xyz
'x, y, z'
'-x, y+1/2, -z'
loop_
_atom_site_label
_atom_site_type_symbol
_atom_site_fract_x
_atom_site_fract_y
_atom_site_fract_z
_atom_site_U_iso_or_equiv
_atom_site_adp_type
_atom_site_occupancy
_atom_site_symmetry_multiplicity
_atom_site_calc_flag
_atom_site_refinement_flags
O1 O -0.1372(6) 0.1233(6) 0.1005(3) 0.0890(14) Uani 1 1 d .
C2 C -0.0545(5) 0.2406(7) 0.1614(3) 0.0479(10) Uani 1 1 d .
O3 O 0.0071(3) 0.4079(5) 0.1400(2) 0.0540(7) Uani 1 1 d .
C4 C -0.0283(6) 0.1647(7) 0.2669(3) 0.0570(11) Uani 1 1 d .
H4A H -0.1244 0.1380 0.2832 0.068 Uiso 1 1 calc R
H4B H 0.0249 0.0264 0.2726 0.068 Uiso 1 1 calc R
C5 C 0.0575(5) 0.3221(7) 0.3397(3) 0.0458(9) Uani 1 1 d .
C6 C 0.2068(6) 0.2841(10) 0.3814(4) 0.0656(13) Uani 1 1 d .
H6 H 0.2526 0.1591 0.3637 0.079 Uiso 1 1 calc R
C7 C 0.2888(6) 0.4252(13) 0.4480(4) 0.0793(17) Uani 1 1 d .
H7 H 0.3884 0.3952 0.4748 0.095 Uiso 1 1 calc R
C8 C 0.2229(7) 0.6104(13) 0.4746(3) 0.0798(18) Uani 1 1 d .
H8 H 0.2776 0.7059 0.5199 0.096 Uiso 1 1 calc R
C9 C 0.0768(7) 0.6550(8) 0.4345(3) 0.0653(13) Uani 1 1 d .
H9 H 0.0322 0.7819 0.4515 0.078 Uiso 1 1 calc R
C10 C -0.0034(5) 0.5104(7) 0.3689(3) 0.0496(10) Uani 1 1 d .
Br11 Br -0.20709(5) 0.57739(12) 0.31825(4) 0.0776(2) Uani 1 1 d .
C12 C 0.6139(5) 0.6584(8) 1.0491(3) 0.0525(11) Uani 1 1 d .
H12A H 0.5088 0.6511 1.0219 0.079 Uiso 1 1 calc R
H12B H 0.6322 0.7648 1.1004 0.079 Uiso 1 1 calc R
H12C H 0.6486 0.5173 1.0745 0.079 Uiso 1 1 calc R
C13 C 0.6965(4) 0.7247(6) 0.9705(3) 0.0385(8) Uani 1 1 d .
H13 H 0.6641 0.8732 0.9493 0.046 Uiso 1 1 calc R
N14 N 0.8579(3) 0.7349(5) 1.0149(2) 0.0427(7) Uani 1 1 d .
H14A H 0.8861 0.6100 1.0461 0.064 Uiso 1 1 calc R
H14B H 0.8751 0.8460 1.0567 0.064 Uiso 1 1 calc R
H14C H 0.9095 0.7547 0.9687 0.064 Uiso 1 1 calc R
C15 C 0.6611(3) 0.5767(8) 0.8822(2) 0.0356(6) Uani 1 1 d .
C16 C 0.5413(4) 0.6313(7) 0.8085(3) 0.0484(10) Uani 1 1 d .
H16 H 0.4888 0.7604 0.8122 0.058 Uiso 1 1 calc R
C17 C 0.4992(5) 0.4926(9) 0.7286(3) 0.0573(12) Uani 1 1 d .
H17 H 0.4182 0.5294 0.6794 0.069 Uiso 1 1 calc R
C18 C 0.5749(5) 0.3057(8) 0.7220(3) 0.0562(11) Uani 1 1 d .
H18 H 0.5458 0.2144 0.6685 0.067 Uiso 1 1 calc R
C19 C 0.6952(5) 0.2495(7) 0.7942(3) 0.0531(10) Uani 1 1 d .
H19 H 0.7482 0.1217 0.7890 0.064 Uiso 1 1 calc R
C20 C 0.7369(4) 0.3832(6) 0.8743(3) 0.0443(9) Uani 1 1 d .
H20 H 0.8167 0.3430 0.9236 0.053 Uiso 1 1 calc R
loop_
_atom_site_aniso_label
_atom_site_aniso_U_11
_atom_site_aniso_U_22
_atom_site_aniso_U_33
_atom_site_aniso_U_23
_atom_site_aniso_U_13
_atom_site_aniso_U_12
O1 0.144(4) 0.047(3) 0.060(2) -0.0145(17) -0.016(2) -0.010(2)
C2 0.061(2) 0.040(2) 0.044(2) -0.0106(18) 0.0148(19) 0.0096(19)
O3 0.0618(18) 0.0618(19) 0.0393(15) 0.0054(13) 0.0125(13) -0.0087(15)
C4 0.085(3) 0.041(2) 0.048(2) -0.0013(18) 0.021(2) -0.002(2)
C5 0.067(3) 0.043(2) 0.0295(19) 0.0056(16) 0.0144(18) 0.0051(19)
C6 0.076(3) 0.069(3) 0.053(3) 0.013(2) 0.015(2) 0.015(3)
C7 0.068(3) 0.109(5) 0.052(3) 0.011(3) -0.008(3) 0.004(3)
C8 0.108(4) 0.085(5) 0.039(2) -0.001(3) -0.002(3) -0.020(4)
C9 0.102(4) 0.055(3) 0.038(2) -0.0028(19) 0.013(2) -0.001(2)
C10 0.074(3) 0.046(2) 0.0301(19) 0.0017(16) 0.0153(18) 0.0045(18)
Br11 0.0726(3) 0.0842(4) 0.0761(4) 0.0007(3) 0.0158(2) 0.0199(3)
C12 0.053(2) 0.064(3) 0.045(2) -0.0102(19) 0.0198(19) -0.0064(19)
C13 0.0378(18) 0.0357(18) 0.043(2) -0.0003(16) 0.0112(15) 0.0009(15)
N14 0.0452(17) 0.0441(18) 0.0398(17) -0.0101(15) 0.0111(14) -0.0082(14)
C15 0.0360(15) 0.0359(15) 0.0358(16) 0.0033(19) 0.0096(12) 0.0002(18)
C16 0.046(2) 0.049(3) 0.047(2) 0.0018(17) 0.0047(17) 0.0088(17)
C17 0.049(2) 0.079(3) 0.039(2) -0.0024(19) -0.0012(18) 0.004(2)
C18 0.056(2) 0.066(3) 0.045(2) -0.015(2) 0.009(2) -0.011(2)
C19 0.055(2) 0.045(2) 0.062(3) -0.015(2) 0.020(2) 0.0001(19)
C20 0.0377(18) 0.044(2) 0.047(2) -0.0015(17) 0.0002(16) 0.0019(16)
loop_
_atom_type_symbol
_atom_type_description
_atom_type_scat_dispersion_real
_atom_type_scat_dispersion_imag
_atom_type_scat_source
C C 0.0033 0.0016 'International Tables Vol C Tables 4.2.6.8 and 6.1.1.4'
H H 0.0000 0.0000 'International Tables Vol C Tables 4.2.6.8 and 6.1.1.4'
Br Br -0.2901 2.4595 'International Tables Vol C Tables 4.2.6.8 and 6.1.1.4'
N N 0.0061 0.0033 'International Tables Vol C Tables 4.2.6.8 and 6.1.1.4'
O O 0.0106 0.0060 'International Tables Vol C Tables 4.2.6.8 and 6.1.1.4'
loop_
_geom_angle_atom_site_label_1
_geom_angle_atom_site_label_2
_geom_angle_atom_site_label_3
_geom_angle
O3 C2 O1 123.4(4)
O3 C2 C4 120.2(4)
O1 C2 C4 116.4(4)
C5 C4 C2 115.0(4)
C5 C4 H4A 108.5
C2 C4 H4A 108.5
C5 C4 H4B 108.5
C2 C4 H4B 108.5
H4A C4 H4B 107.5
C10 C5 C6 115.9(4)
C10 C5 C4 123.4(4)
C6 C5 C4 120.7(4)
C7 C6 C5 122.2(5)
C7 C6 H6 118.9
C5 C6 H6 118.9
C8 C7 C6 119.6(5)
C8 C7 H7 120.2
C6 C7 H7 120.2
C9 C8 C7 120.1(5)
C9 C8 H8 119.9
C7 C8 H8 119.9
C8 C9 C10 119.3(5)
C8 C9 H9 120.4
C10 C9 H9 120.4
C9 C10 C5 122.9(5)
C9 C10 Br11 117.4(4)
C5 C10 Br11 119.7(3)
C13 C12 H12A 109.5
C13 C12 H12B 109.5
H12A C12 H12B 109.5
C13 C12 H12C 109.5
H12A C12 H12C 109.5
H12B C12 H12C 109.5
N14 C13 C15 113.2(3)
N14 C13 C12 108.0(3)
C15 C13 C12 112.7(3)
N14 C13 H13 107.6
C15 C13 H13 107.6
C12 C13 H13 107.6
C13 N14 H14A 109.5
C13 N14 H14B 109.5
H14A N14 H14B 109.5
C13 N14 H14C 109.5
H14A N14 H14C 109.5
H14B N14 H14C 109.5
C16 C15 C20 118.5(3)
C16 C15 C13 118.1(4)
C20 C15 C13 123.3(3)
C15 C16 C17 120.0(4)
C15 C16 H16 120.0
C17 C16 H16 120.0
C18 C17 C16 120.6(4)
C18 C17 H17 119.7
C16 C17 H17 119.7
C17 C18 C19 120.2(4)
C17 C18 H18 119.9
C19 C18 H18 119.9
C18 C19 C20 119.9(4)
C18 C19 H19 120.1
C20 C19 H19 120.1
C19 C20 C15 120.8(3)
C19 C20 H20 119.6
C15 C20 H20 119.6
loop_
_geom_bond_atom_site_label_1
_geom_bond_atom_site_label_2
_geom_bond_distance
O1 C2 1.245(5)
C2 O3 1.234(5)
C2 C4 1.527(6)
C4 C5 1.501(6)
C4 H4A 0.9700
C4 H4B 0.9700
C5 C10 1.378(6)
C5 C6 1.390(7)
C6 C7 1.374(9)
C6 H6 0.9300
C7 C8 1.370(10)
C7 H7 0.9300
C8 C9 1.367(8)
C8 H8 0.9300
C9 C10 1.373(6)
C9 H9 0.9300
C10 Br11 1.898(5)
C12 C13 1.523(6)
C12 H12A 0.9600
C12 H12B 0.9600
C12 H12C 0.9600
C13 N14 1.482(5)
C13 C15 1.516(5)
C13 H13 0.9800
N14 H14A 0.8900
N14 H14B 0.8900
N14 H14C 0.8900
C15 C16 1.384(5)
C15 C20 1.386(6)
C16 C17 1.396(6)
C16 H16 0.9300
C17 C18 1.348(7)
C17 H17 0.9300
C18 C19 1.377(7)
C18 H18 0.9300
C19 C20 1.379(6)
C19 H19 0.9300
C20 H20 0.9300
loop_
_geom_hbond_atom_site_label_D
_geom_hbond_atom_site_label_H
_geom_hbond_atom_site_label_A
_geom_hbond_distance_DH
_geom_hbond_distance_HA
_geom_hbond_distance_DA
_geom_hbond_angle_DHA
_geom_hbond_site_symmetry_A
N14 H14C O3 0.89 2.07 2.924(4) 159.6 2_656
N14 H14B O1 0.89 1.81 2.654(5) 157.1 1_666
N14 H14A O3 0.89 1.97 2.817(5) 158.5 1_656
