#------------------------------------------------------------------------------
#$Date: 2016-03-24 14:07:12 +0200 (Thu, 24 Mar 2016) $
#$Revision: 179652 $
#$URL: svn://www.crystallography.net/cod/cif/4/51/05/4510509.cif $
#------------------------------------------------------------------------------
#
# This file is available in the Crystallography Open Database (COD),
# http://www.crystallography.net/
#
# All data on this site have been placed in the public domain by the
# contributors.
#
data_4510509
loop_
_publ_author_name
'Phukan, Nithi'
'Baruah, Jubaraj B.'
_publ_section_title
;
 Polymorphs of 1-(5-Methylthiazol-2-yl)-3-phenylthiourea and Various
 Anion-Assisted Assemblies of Two Positional Isomers
;
_journal_issue                   5
_journal_name_full               'Crystal Growth &amp; Design'
_journal_page_first              2640
_journal_paper_doi               10.1021/cg5003379
_journal_volume                  14
_journal_year                    2014
_chemical_formula_sum            'C11 H14 Cl N3 O5 S2'
_chemical_formula_weight         367.84
_chemical_name_systematic
; 
 ? 
;
_space_group_IT_number           2
_symmetry_cell_setting           triclinic
_symmetry_space_group_name_Hall  '-P 1'
_symmetry_space_group_name_H-M   'P -1'
_atom_sites_solution_hydrogens   geom
_atom_sites_solution_primary     direct
_atom_sites_solution_secondary   difmap
_audit_creation_method           SHELXL-97
_cell_angle_alpha                90.801(6)
_cell_angle_beta                 98.642(5)
_cell_angle_gamma                109.424(7)
_cell_formula_units_Z            2
_cell_length_a                   7.5147(5)
_cell_length_b                   9.0185(8)
_cell_length_c                   12.1146(7)
_cell_measurement_temperature    296(2)
_cell_volume                     763.70(10)
_computing_structure_refinement  'SHELXL-97 (Sheldrick, 1997)'
_computing_structure_solution    'SHELXS-97 (Sheldrick, 1990)'
_diffrn_ambient_temperature      296(2)
_diffrn_measured_fraction_theta_full 0.998
_diffrn_measured_fraction_theta_max 0.998
_diffrn_radiation_monochromator  graphite
_diffrn_radiation_source         'fine-focus sealed tube'
_diffrn_radiation_type           MoK\a
_diffrn_radiation_wavelength     0.71073
_diffrn_reflns_av_R_equivalents  0.0319
_diffrn_reflns_av_sigmaI/netI    0.0550
_diffrn_reflns_limit_h_max       8
_diffrn_reflns_limit_h_min       -9
_diffrn_reflns_limit_k_max       10
_diffrn_reflns_limit_k_min       -10
_diffrn_reflns_limit_l_max       14
_diffrn_reflns_limit_l_min       -14
_diffrn_reflns_number            5327
_diffrn_reflns_theta_full        25.25
_diffrn_reflns_theta_max         25.25
_diffrn_reflns_theta_min         2.91
_exptl_absorpt_coefficient_mu    0.550
_exptl_absorpt_correction_T_max  0.936
_exptl_absorpt_correction_T_min  0.854
_exptl_absorpt_correction_type   multi-scan
_exptl_absorpt_process_details   multi-scan
_exptl_crystal_colour            colorless
_exptl_crystal_density_diffrn    1.600
_exptl_crystal_density_method    'not measured'
_exptl_crystal_description       block
_exptl_crystal_F_000             380
_exptl_crystal_size_max          0.32
_exptl_crystal_size_mid          0.24
_exptl_crystal_size_min          0.12
_refine_diff_density_max         0.547
_refine_diff_density_min         -0.536
_refine_diff_density_rms         0.067
_refine_ls_extinction_method     none
_refine_ls_goodness_of_fit_ref   1.010
_refine_ls_hydrogen_treatment    mixed
_refine_ls_matrix_type           full
_refine_ls_number_parameters     240
_refine_ls_number_reflns         2752
_refine_ls_number_restraints     12
_refine_ls_restrained_S_all      1.008
_refine_ls_R_factor_all          0.0792
_refine_ls_R_factor_gt           0.0535
_refine_ls_shift/su_max          0.000
_refine_ls_shift/su_mean         0.000
_refine_ls_structure_factor_coef Fsqd
_refine_ls_weighting_details
'calc w=1/[\s^2^(Fo^2^)+(0.0189P)^2^+1.2121P] where P=(Fo^2^+2Fc^2^)/3'
_refine_ls_weighting_scheme      calc
_refine_ls_wR_factor_gt          0.0998
_refine_ls_wR_factor_ref         0.1168
_reflns_number_gt                1948
_reflns_number_total             2752
_reflns_threshold_expression     >2sigma(I)
_cod_data_source_file            4b.cif
_cod_data_source_block           4b
_cod_depositor_comments
'Adding full bibliography for 4510508--4510523.cif.'
_cod_database_code               4510509
loop_
_symmetry_equiv_pos_as_xyz
'x, y, z'
'-x, -y, -z'
loop_
_atom_site_label
_atom_site_type_symbol
_atom_site_fract_x
_atom_site_fract_y
_atom_site_fract_z
_atom_site_U_iso_or_equiv
_atom_site_adp_type
_atom_site_occupancy
_atom_site_symmetry_multiplicity
_atom_site_calc_flag
_atom_site_refinement_flags
Cl1 Cl 0.68079(15) 0.89897(14) 0.92522(9) 0.0570(3) Uani 1 1 d .
S1 S 0.61300(15) 0.41086(13) 0.61950(9) 0.0505(3) Uani 1 1 d .
S2 S 0.38717(15) 0.17194(13) 0.43349(9) 0.0521(3) Uani 1 1 d .
O2 O 0.6839(4) 0.8514(4) 1.0360(3) 0.0746(10) Uani 1 1 d .
O3 O 0.8358(4) 0.8762(4) 0.8805(3) 0.0738(10) Uani 1 1 d .
N3 N 0.1695(4) -0.0829(4) 0.5246(3) 0.0425(8) Uani 1 1 d D
O5 O 0.8288(5) 0.1284(4) 0.2273(3) 0.0649(9) Uani 1 1 d D
N1 N 0.5476(4) 0.2841(4) 0.7986(3) 0.0418(8) Uani 1 1 d D
N2 N 0.3710(4) 0.1120(4) 0.6465(3) 0.0428(8) Uani 1 1 d D
O1 O 0.5043(5) 0.7985(6) 0.8600(3) 0.1259(17) Uani 1 1 d .
O4 O 0.6937(7) 1.0558(5) 0.9244(4) 0.1325(19) Uani 1 1 d .
C5 C 0.3064(5) 0.0631(4) 0.5350(3) 0.0388(9) Uani 1 1 d .
C6 C 0.0672(5) -0.1858(4) 0.4301(3) 0.0383(9) Uani 1 1 d .
C4 C 0.4997(5) 0.2531(4) 0.6893(3) 0.0393(9) Uani 1 1 d .
C2 C 0.6758(5) 0.4346(5) 0.8342(3) 0.0444(9) Uani 1 1 d .
C7 C 0.0775(6) -0.1532(5) 0.3193(3) 0.0478(10) Uani 1 1 d .
C10 C -0.1597(6) -0.4424(6) 0.3690(4) 0.0504(10) Uani 1 1 d .
C11 C -0.0533(5) -0.3325(5) 0.4534(4) 0.0458(10) Uani 1 1 d .
C3 C 0.7219(6) 0.5159(5) 0.7454(4) 0.0541(11) Uani 1 1 d .
H3A H 0.8050 0.6195 0.7510 0.065 Uiso 1 1 calc R
C9 C -0.1513(6) -0.4114(5) 0.2586(4) 0.0514(11) Uani 1 1 d .
C8 C -0.0313(6) -0.2650(6) 0.2358(4) 0.0557(12) Uani 1 1 d .
C1 C 0.7392(6) 0.4781(5) 0.9560(3) 0.0625(12) Uani 1 1 d .
H1A H 0.8274 0.5842 0.9671 0.094 Uiso 1 1 calc R
H1B H 0.8010 0.4078 0.9886 0.094 Uiso 1 1 calc R
H1C H 0.6302 0.4703 0.9909 0.094 Uiso 1 1 calc R
H5M H 0.866(9) 0.094(8) 0.173(4) 0.15(3) Uiso 1 1 d D
H5N H 0.746(7) 0.151(8) 0.183(5) 0.14(3) Uiso 1 1 d D
H7 H 0.153(5) -0.050(5) 0.301(3) 0.051(11) Uiso 1 1 d .
H9 H -0.220(5) -0.486(5) 0.199(3) 0.052(12) Uiso 1 1 d .
H8 H -0.027(5) -0.246(5) 0.166(4) 0.057(13) Uiso 1 1 d .
H11 H -0.055(5) -0.353(4) 0.526(3) 0.049(11) Uiso 1 1 d .
H10 H -0.231(6) -0.539(5) 0.387(4) 0.065(14) Uiso 1 1 d .
H3 H 0.150(5) -0.116(4) 0.5889(17) 0.041(11) Uiso 1 1 d D
H1 H 0.499(5) 0.217(4) 0.845(3) 0.055(13) Uiso 1 1 d D
H2 H 0.330(5) 0.055(4) 0.699(2) 0.051(12) Uiso 1 1 d D
loop_
_atom_site_aniso_label
_atom_site_aniso_U_11
_atom_site_aniso_U_22
_atom_site_aniso_U_33
_atom_site_aniso_U_23
_atom_site_aniso_U_13
_atom_site_aniso_U_12
Cl1 0.0571(7) 0.0735(8) 0.0513(6) 0.0208(6) 0.0202(5) 0.0310(6)
S1 0.0537(6) 0.0482(6) 0.0482(6) 0.0150(5) 0.0186(5) 0.0105(5)
S2 0.0610(7) 0.0530(7) 0.0429(6) 0.0148(5) 0.0192(5) 0.0150(5)
O2 0.078(2) 0.101(3) 0.058(2) 0.0346(19) 0.0325(17) 0.038(2)
O3 0.068(2) 0.089(2) 0.083(2) 0.0153(19) 0.0399(18) 0.0372(18)
N3 0.0428(18) 0.048(2) 0.0391(19) 0.0131(16) 0.0153(15) 0.0137(16)
O5 0.073(2) 0.069(2) 0.052(2) 0.0163(18) 0.0171(18) 0.0205(19)
N1 0.0403(18) 0.049(2) 0.0383(19) 0.0120(16) 0.0101(15) 0.0157(16)
N2 0.0467(19) 0.045(2) 0.0378(19) 0.0134(16) 0.0143(15) 0.0130(16)
O1 0.064(2) 0.204(5) 0.094(3) -0.025(3) -0.012(2) 0.037(3)
O4 0.161(4) 0.089(3) 0.214(5) 0.091(3) 0.126(4) 0.085(3)
C5 0.041(2) 0.044(2) 0.040(2) 0.0112(18) 0.0132(17) 0.0225(18)
C6 0.0358(19) 0.046(2) 0.040(2) 0.0086(18) 0.0094(16) 0.0211(18)
C4 0.0345(19) 0.043(2) 0.048(2) 0.0136(19) 0.0157(17) 0.0186(17)
C2 0.037(2) 0.047(2) 0.051(2) 0.002(2) 0.0075(18) 0.0174(18)
C7 0.048(2) 0.053(3) 0.044(2) 0.011(2) 0.0124(19) 0.016(2)
C10 0.045(2) 0.050(3) 0.056(3) 0.004(2) 0.010(2) 0.014(2)
C11 0.043(2) 0.055(3) 0.044(2) 0.012(2) 0.0139(19) 0.020(2)
C3 0.050(2) 0.046(2) 0.061(3) 0.010(2) 0.016(2) 0.008(2)
C9 0.046(2) 0.056(3) 0.050(3) -0.007(2) 0.003(2) 0.017(2)
C8 0.059(3) 0.070(3) 0.038(3) 0.007(2) 0.009(2) 0.021(2)
C1 0.059(3) 0.066(3) 0.055(3) 0.003(2) -0.001(2) 0.016(2)
loop_
_atom_type_symbol
_atom_type_description
_atom_type_scat_dispersion_real
_atom_type_scat_dispersion_imag
_atom_type_scat_source
C C 0.0033 0.0016 'International Tables Vol C Tables 4.2.6.8 and 6.1.1.4'
N N 0.0061 0.0033 'International Tables Vol C Tables 4.2.6.8 and 6.1.1.4'
O O 0.0106 0.0060 'International Tables Vol C Tables 4.2.6.8 and 6.1.1.4'
S S 0.1246 0.1234 'International Tables Vol C Tables 4.2.6.8 and 6.1.1.4'
Cl Cl 0.1484 0.1585 'International Tables Vol C Tables 4.2.6.8 and 6.1.1.4'
H H 0.0000 0.0000 'International Tables Vol C Tables 4.2.6.8 and 6.1.1.4'
loop_
_geom_angle_atom_site_label_1
_geom_angle_atom_site_label_2
_geom_angle_atom_site_label_3
_geom_angle
O4 Cl1 O2 109.7(3)
O4 Cl1 O3 110.5(2)
O2 Cl1 O3 109.6(2)
O4 Cl1 O1 111.3(3)
O2 Cl1 O1 107.2(3)
O3 Cl1 O1 108.4(2)
C4 S1 C3 89.8(2)
C5 N3 C6 132.0(3)
C4 N1 C2 115.9(3)
C4 N2 C5 127.0(3)
N3 C5 N2 110.0(3)
N3 C5 S2 127.2(3)
N2 C5 S2 122.7(3)
C7 C6 C11 118.7(4)
C7 C6 N3 126.0(4)
C11 C6 N3 115.4(3)
N1 C4 N2 120.3(3)
N1 C4 S1 111.1(3)
N2 C4 S1 128.5(3)
C3 C2 N1 109.6(4)
C3 C2 C1 131.2(4)
N1 C2 C1 119.2(4)
C8 C7 C6 119.5(4)
C11 C10 C9 121.0(4)
C10 C11 C6 120.9(4)
C2 C3 S1 113.6(3)
C10 C9 C8 117.9(4)
C7 C8 C9 122.0(4)
loop_
_geom_bond_atom_site_label_1
_geom_bond_atom_site_label_2
_geom_bond_distance
Cl1 O4 1.386(4)
Cl1 O2 1.414(3)
Cl1 O3 1.427(3)
Cl1 O1 1.439(4)
S1 C4 1.705(4)
S1 C3 1.721(4)
S2 C5 1.645(4)
N3 C5 1.365(5)
N3 C6 1.412(5)
N1 C4 1.319(5)
N1 C2 1.395(5)
N2 C4 1.355(5)
N2 C5 1.377(5)
C6 C7 1.387(5)
C6 C11 1.393(5)
C2 C3 1.334(5)
C2 C1 1.486(5)
C7 C8 1.372(6)
C10 C11 1.365(6)
C10 C9 1.377(6)
C9 C8 1.387(6)
