#------------------------------------------------------------------------------
#$Date: 2016-03-24 14:10:54 +0200 (Thu, 24 Mar 2016) $
#$Revision: 179655 $
#$URL: svn://www.crystallography.net/cod/cif/4/51/08/4510849.cif $
#------------------------------------------------------------------------------
#
# This file is available in the Crystallography Open Database (COD),
# http://www.crystallography.net/
#
# All data on this site have been placed in the public domain by the
# contributors.
#
data_4510849
loop_
_publ_author_name
'Attrell, Robert J.'
'Widdifield, Cory M.'
'Korobkov, Ilia'
'Bryce, David L.'
_publ_section_title
;
 Weak Halogen Bonding in Solid Haloanilinium Halides Probed Directly via
 Chlorine-35, Bromine-81, and Iodine-127 NMR Spectroscopy
;
_journal_issue                   3
_journal_name_full               'Crystal Growth &amp; Design'
_journal_page_first              1641
_journal_paper_doi               10.1021/cg201683p
_journal_volume                  12
_journal_year                    2012
_chemical_formula_sum            'C6 H9 Cl I N O'
_chemical_formula_weight         273.49
_chemical_name_systematic
; 
 ? 
;
_space_group_IT_number           14
_symmetry_cell_setting           monoclinic
_symmetry_space_group_name_Hall  '-P 2yn'
_symmetry_space_group_name_H-M   'P 1 21/n 1'
_atom_sites_solution_hydrogens   geom
_atom_sites_solution_primary     direct
_atom_sites_solution_secondary   difmap
_audit_creation_method           SHELXL-97
_cell_angle_alpha                90.00
_cell_angle_beta                 91.3540(10)
_cell_angle_gamma                90.00
_cell_formula_units_Z            4
_cell_length_a                   7.64850(10)
_cell_length_b                   6.64340(10)
_cell_length_c                   17.5487(3)
_cell_measurement_reflns_used    8409
_cell_measurement_temperature    200(2)
_cell_measurement_theta_max      28.24
_cell_measurement_theta_min      2.32
_cell_volume                     891.44(2)
_computing_cell_refinement       'APEX II, Bruker (2009)'
_computing_data_collection       'APEX II, Bruker (2009)'
_computing_data_reduction        'XPREP, Bruker (2009)'
_computing_molecular_graphics    'SHELXTL, Bruker (2004)'
_computing_publication_material  'SHELXTL, Bruker (2004)'
_computing_structure_refinement  'SHELXL-97 (Sheldrick, 2008)'
_computing_structure_solution    'SHELXS-97 (Sheldrick, 2008)'
_diffrn_ambient_temperature      200(2)
_diffrn_measured_fraction_theta_full 0.979
_diffrn_measured_fraction_theta_max 0.979
_diffrn_measurement_device_type  'Bruker APEX-II CCD'
_diffrn_measurement_method       '\f and \w scans'
_diffrn_radiation_monochromator  graphite
_diffrn_radiation_source         'fine-focus sealed tube'
_diffrn_radiation_type           MoK\a
_diffrn_radiation_wavelength     0.71073
_diffrn_reflns_av_R_equivalents  0.0174
_diffrn_reflns_av_sigmaI/netI    0.0132
_diffrn_reflns_limit_h_max       10
_diffrn_reflns_limit_h_min       -9
_diffrn_reflns_limit_k_max       8
_diffrn_reflns_limit_k_min       -8
_diffrn_reflns_limit_l_max       23
_diffrn_reflns_limit_l_min       -23
_diffrn_reflns_number            9170
_diffrn_reflns_theta_full        28.27
_diffrn_reflns_theta_max         28.27
_diffrn_reflns_theta_min         2.32
_exptl_absorpt_coefficient_mu    3.830
_exptl_absorpt_correction_T_max  0.5456
_exptl_absorpt_correction_T_min  0.5002
_exptl_absorpt_correction_type   multi-scan
_exptl_absorpt_process_details   'SADABS, Bruker (2003)'
_exptl_crystal_colour            colourless
_exptl_crystal_density_diffrn    2.038
_exptl_crystal_density_meas      ?
_exptl_crystal_density_method    'not measured'
_exptl_crystal_description       block
_exptl_crystal_F_000             520
_exptl_crystal_size_max          0.21
_exptl_crystal_size_mid          0.18
_exptl_crystal_size_min          0.18
_refine_diff_density_max         0.328
_refine_diff_density_min         -0.839
_refine_diff_density_rms         0.097
_refine_ls_extinction_method     none
_refine_ls_goodness_of_fit_ref   1.084
_refine_ls_hydrogen_treatment    constr
_refine_ls_matrix_type           full
_refine_ls_number_parameters     91
_refine_ls_number_reflns         2167
_refine_ls_number_restraints     0
_refine_ls_restrained_S_all      1.084
_refine_ls_R_factor_all          0.0162
_refine_ls_R_factor_gt           0.0153
_refine_ls_shift/su_max          0.001
_refine_ls_shift/su_mean         0.000
_refine_ls_structure_factor_coef Fsqd
_refine_ls_weighting_details
'calc w=1/[\s^2^(Fo^2^)+(0.0260P)^2^+0.1444P] where P=(Fo^2^+2Fc^2^)/3'
_refine_ls_weighting_scheme      calc
_refine_ls_wR_factor_gt          0.0402
_refine_ls_wR_factor_ref         0.0407
_reflns_number_gt                2079
_reflns_number_total             2167
_reflns_threshold_expression     >2sigma(I)
_cod_data_source_file            db068.cif
_cod_data_source_block           db068
_cod_depositor_comments
;
The following automatic conversions were performed:

'_symmetry_cell_setting' value 'Monoclinic' changed to 'monoclinic'
according to
/usr/data/users/saulius/automatic-downloads/retrospective/ACS/lib/dictionaries/cif_core.dic
dictionary named 'cif_core.dic' version 2.4.2 from 2011-04-26.

Automatic conversion script
Id: cif_fix_values 2281 2013-09-26 08:29:07Z andrius 

The following automatic conversions were performed:

'_exptl_crystal_density_meas' value 'n/a' was changed to '?' - the
value is perceived as not measured.

Automatic conversion script
Id: cif_fix_values 3008 2015-01-20 13:52:24Z robertas 
;
_cod_original_sg_symbol_H-M      P2(1)/n
_cod_database_code               4510849
loop_
_symmetry_equiv_pos_as_xyz
'x, y, z'
'-x+1/2, y+1/2, -z+1/2'
'-x, -y, -z'
'x-1/2, -y-1/2, z-1/2'
loop_
_atom_site_label
_atom_site_type_symbol
_atom_site_fract_x
_atom_site_fract_y
_atom_site_fract_z
_atom_site_U_iso_or_equiv
_atom_site_adp_type
_atom_site_occupancy
_atom_site_symmetry_multiplicity
_atom_site_calc_flag
_atom_site_refinement_flags
I1 I 0.370600(12) 0.157692(14) 0.123846(5) 0.02864(5) Uani 1 1 d .
Cl1 Cl 0.51316(4) 0.77356(6) 0.230177(19) 0.02723(8) Uani 1 1 d .
N1 N 0.16605(16) 0.5877(2) 0.15660(6) 0.0245(2) Uani 1 1 d .
H1A H 0.2684 0.6165 0.1817 0.037 Uiso 1 1 calc R
H1B H 0.1193 0.4735 0.1762 0.037 Uiso 1 1 calc R
H1C H 0.0899 0.6916 0.1622 0.037 Uiso 1 1 calc R
O1 O 0.91004(16) 0.87501(19) 0.17751(7) 0.0345(3) Uani 1 1 d .
H1D H 0.9425 0.9923 0.2060 0.052 Uiso 1 1 d R
H1E H 0.7899 0.8293 0.1911 0.052 Uiso 1 1 d R
C1 C 0.28462(18) 0.3877(2) 0.04982(8) 0.0250(3) Uani 1 1 d .
C2 C 0.19909(17) 0.5580(2) 0.07544(7) 0.0231(3) Uani 1 1 d .
C3 C 0.14494(19) 0.7071(2) 0.02518(8) 0.0272(3) Uani 1 1 d .
H3A H 0.0862 0.8229 0.0434 0.033 Uiso 1 1 calc R
C4 C 0.1769(2) 0.6868(3) -0.05204(9) 0.0320(3) Uani 1 1 d .
H4A H 0.1412 0.7893 -0.0868 0.038 Uiso 1 1 calc R
C5 C 0.2611(2) 0.5166(3) -0.07817(8) 0.0323(3) Uani 1 1 d .
H5A H 0.2822 0.5025 -0.1310 0.039 Uiso 1 1 calc R
C6 C 0.3147(2) 0.3669(3) -0.02803(9) 0.0304(3) Uani 1 1 d .
H6A H 0.3718 0.2503 -0.0465 0.037 Uiso 1 1 calc R
loop_
_atom_site_aniso_label
_atom_site_aniso_U_11
_atom_site_aniso_U_22
_atom_site_aniso_U_33
_atom_site_aniso_U_23
_atom_site_aniso_U_13
_atom_site_aniso_U_12
I1 0.02791(7) 0.02378(7) 0.03441(7) 0.00062(3) 0.00494(4) 0.00079(3)
Cl1 0.02660(16) 0.02482(17) 0.03043(16) 0.00030(14) 0.00420(12) 0.00176(13)
N1 0.0271(6) 0.0226(6) 0.0239(5) -0.0010(5) 0.0025(4) -0.0008(5)
O1 0.0301(6) 0.0310(6) 0.0426(6) -0.0098(5) 0.0042(5) -0.0006(4)
C1 0.0222(6) 0.0251(7) 0.0276(7) -0.0007(6) 0.0012(5) -0.0044(5)
C2 0.0222(6) 0.0240(7) 0.0231(6) -0.0016(5) 0.0019(5) -0.0057(5)
C3 0.0260(7) 0.0261(7) 0.0296(7) 0.0002(6) 0.0002(5) -0.0031(6)
C4 0.0324(8) 0.0360(9) 0.0275(7) 0.0056(6) -0.0023(6) -0.0077(6)
C5 0.0306(7) 0.0423(9) 0.0242(6) -0.0032(6) 0.0034(5) -0.0102(6)
C6 0.0267(7) 0.0340(8) 0.0308(7) -0.0089(6) 0.0057(6) -0.0041(6)
loop_
_atom_type_symbol
_atom_type_description
_atom_type_scat_dispersion_real
_atom_type_scat_dispersion_imag
_atom_type_scat_source
C C 0.0033 0.0016 'International Tables Vol C Tables 4.2.6.8 and 6.1.1.4'
H H 0.0000 0.0000 'International Tables Vol C Tables 4.2.6.8 and 6.1.1.4'
N N 0.0061 0.0033 'International Tables Vol C Tables 4.2.6.8 and 6.1.1.4'
O O 0.0106 0.0060 'International Tables Vol C Tables 4.2.6.8 and 6.1.1.4'
Cl Cl 0.1484 0.1585 'International Tables Vol C Tables 4.2.6.8 and 6.1.1.4'
I I -0.4742 1.8119 'International Tables Vol C Tables 4.2.6.8 and 6.1.1.4'
loop_
_geom_angle_atom_site_label_1
_geom_angle_atom_site_label_2
_geom_angle_atom_site_label_3
_geom_angle
C6 C1 C2 119.17(14)
C6 C1 I1 118.43(12)
C2 C1 I1 122.40(10)
C3 C2 C1 120.92(13)
C3 C2 N1 117.85(13)
C1 C2 N1 121.22(13)
C4 C3 C2 119.69(15)
C5 C4 C3 119.76(15)
C4 C5 C6 120.63(14)
C1 C6 C5 119.83(15)
loop_
_geom_bond_atom_site_label_1
_geom_bond_atom_site_label_2
_geom_bond_distance
I1 C1 2.1013(16)
N1 C2 1.4658(17)
C1 C6 1.398(2)
C1 C2 1.387(2)
C2 C3 1.383(2)
C3 C4 1.389(2)
C4 C5 1.385(3)
C5 C6 1.384(3)
loop_
_geom_torsion_atom_site_label_1
_geom_torsion_atom_site_label_2
_geom_torsion_atom_site_label_3
_geom_torsion_atom_site_label_4
_geom_torsion
C6 C1 C2 C3 -0.6(2)
I1 C1 C2 C3 179.68(11)
C6 C1 C2 N1 -179.38(13)
I1 C1 C2 N1 0.85(18)
C1 C2 C3 C4 -0.2(2)
N1 C2 C3 C4 178.69(13)
C2 C3 C4 C5 0.7(2)
C3 C4 C5 C6 -0.4(2)
C2 C1 C6 C5 0.8(2)
I1 C1 C6 C5 -179.41(11)
C4 C5 C6 C1 -0.4(2)
