#------------------------------------------------------------------------------
#$Date: 2016-02-16 22:30:59 +0200 (Tue, 16 Feb 2016) $
#$Revision: 176467 $
#$URL: svn://www.crystallography.net/cod/cif/4/51/13/4511326.cif $
#------------------------------------------------------------------------------
#
# This file is available in the Crystallography Open Database (COD),
# http://www.crystallography.net/
#
# All data on this site have been placed in the public domain by the
# contributors.
#
data_4511326
loop_
_publ_author_name
'Parkin, Andrew'
'Seaton, Colin C.'
'Blagden, Nicholas'
'Wilson, Chick C.'
_publ_section_title
;
 Designing Hydrogen Bonds with Temperature-Dependent Proton
 Disorder:&#x00A0; The Effect of Crystal Environment
;
_journal_issue                   3
_journal_name_full               'Crystal Growth &amp; Design'
_journal_page_first              531
_journal_paper_doi               10.1021/cg060777p
_journal_volume                  7
_journal_year                    2007
_chemical_formula_moiety         'C9 H11 N1 O2'
_chemical_formula_sum            'C9 H11 N O2'
_chemical_formula_weight         165.19
_space_group_IT_number           2
_symmetry_cell_setting           triclinic
_symmetry_space_group_name_Hall  '-P 1'
_symmetry_space_group_name_H-M   'P -1'
_atom_sites_solution_hydrogens   geom
_atom_sites_solution_primary     direct
_audit_creation_date             06-11-01
_audit_creation_method           CRYSTALS_ver_12.83
_cell_angle_alpha                88.12(3)
_cell_angle_beta                 84.75(3)
_cell_angle_gamma                66.70(3)
_cell_formula_units_Z            2
_cell_length_a                   6.619(5)
_cell_length_b                   7.963(5)
_cell_length_c                   8.543(7)
_cell_measurement_reflns_used    4115
_cell_measurement_temperature    200
_cell_measurement_theta_max      30.5
_cell_measurement_theta_min      3.3
_cell_volume                     411.8(5)
_computing_cell_refinement       'FSProcess in CrystalClear 1.3.6'
_computing_data_collection       'CrystalClear 1.3.6'
_computing_data_reduction        'FSProcess in CrystalClear 1.3.6'
_computing_molecular_graphics    'CAMERON (Watkin et al., 1996)'
_computing_publication_material  'CRYSTALS (Betteridge et al., 2003)'
_computing_structure_refinement  'CRYSTALS (Betteridge et al., 2003)'
_computing_structure_solution    'SHELXS 86 (Sheldrick, 1986)'
_diffrn_ambient_temperature      200
_diffrn_measured_fraction_theta_full 0.998
_diffrn_measured_fraction_theta_max 0.994
_diffrn_measurement_device_type
'Rigaku R-AXIS RAPID Image Plate Area Detector Diffractometer'
_diffrn_measurement_method       \w
_diffrn_radiation_monochromator  graphite
_diffrn_radiation_type           'Mo K\a'
_diffrn_radiation_wavelength     0.71073
_diffrn_reflns_av_R_equivalents  0.020
_diffrn_reflns_limit_h_max       9
_diffrn_reflns_limit_h_min       -8
_diffrn_reflns_limit_k_max       11
_diffrn_reflns_limit_k_min       -11
_diffrn_reflns_limit_l_max       12
_diffrn_reflns_limit_l_min       -12
_diffrn_reflns_number            5887
_diffrn_reflns_theta_full        29.895
_diffrn_reflns_theta_max         30.505
_diffrn_reflns_theta_min         3.364
_diffrn_standards_number         0
_exptl_absorpt_coefficient_mu    0.095
_exptl_absorpt_correction_T_max  0.99
_exptl_absorpt_correction_T_min  0.96
_exptl_absorpt_correction_type   multi-scan
_exptl_absorpt_process_details   'FSProcess in CrystalClear 1.3.6'
_exptl_crystal_colour            colourless
_exptl_crystal_density_diffrn    1.332
_exptl_crystal_description       block
_exptl_crystal_F_000             176
_exptl_crystal_size_max          0.25
_exptl_crystal_size_mid          0.20
_exptl_crystal_size_min          0.15
_refine_diff_density_max         0.32
_refine_diff_density_min         -0.38
_refine_ls_extinction_method     None
_refine_ls_goodness_of_fit_ref   0.9179
_refine_ls_hydrogen_treatment    mixed
_refine_ls_matrix_type           full
_refine_ls_number_parameters     139
_refine_ls_number_reflns         2504
_refine_ls_number_restraints     46
_refine_ls_R_factor_all          0.0818
_refine_ls_R_factor_gt           0.0548
_refine_ls_shift/su_max          0.002143
_refine_ls_structure_factor_coef Fsqd
_refine_ls_weighting_details
;
 Method= Modified Sheldrick 
 w=1/[\s^2^(F^2^) + ( 0.11P)^2^ + 0.00P] 
 ,where P=(max(Fo^2^,0) + 2Fc^2^)/3 
;
_refine_ls_weighting_scheme      calc
_refine_ls_wR_factor_all         0.1700
_refine_ls_wR_factor_gt          0.1584
_refine_ls_wR_factor_ref         0.1700
_reflns_limit_h_max              9
_reflns_limit_h_min              -9
_reflns_limit_k_max              11
_reflns_limit_k_min              -11
_reflns_limit_l_max              12
_reflns_limit_l_min              0
_reflns_number_gt                1478
_reflns_number_total             2505
_reflns_threshold_expression     I>2.0\s(I)
_oxford_diffrn_Wilson_B_factor   0.00
_oxford_diffrn_Wilson_scale      0.00
_oxford_refine_ls_scale          5.02(19)
_oxford_structure_analysis_title 4daba_200K
_cod_data_source_file            4daba_native.cif
_cod_data_source_block           4daba_200k
_cod_depositor_comments
;
The following automatic conversions were performed:

'_symmetry_cell_setting' value 'Triclinic' changed to 'triclinic'
according to
/usr/data/users/saulius/automatic-downloads/retrospective/ACS/lib/dictionaries/cif_core.dic
dictionary named 'cif_core.dic' version 2.4.2 from 2011-04-26.

Automatic conversion script
Id: cif_fix_values 2281 2013-09-26 08:29:07Z andrius 
;
_cod_original_sg_symbol_H-M      'P -1 '
_cod_original_formula_sum        'C9 H11 N1 O2'
_cod_database_code               4511326
loop_
_symmetry_equiv_pos_as_xyz
x,y,z
-x,-y,-z
loop_
_atom_site_label
_atom_site_type_symbol
_atom_site_fract_x
_atom_site_fract_y
_atom_site_fract_z
_atom_site_U_iso_or_equiv
_atom_site_occupancy
_atom_site_adp_type
_atom_site_refinement_flags_posn
O112 O 0.74602(16) -0.20297(14) 0.49121(12) 0.0429 1.0000 Uani D
O113 O 0.63619(16) 0.05686(13) 0.62937(12) 0.0432 1.0000 Uani D
N141 N 1.5986(2) -0.36872(17) 0.85856(17) 0.0472 1.0000 Uani D
C143 C 1.6453(3) -0.2595(2) 0.9700(2) 0.0489 1.0000 Uani D
C11 C 0.9925(2) -0.17052(17) 0.65779(15) 0.0318 1.0000 Uani D
C16 C 1.1484(2) -0.34678(18) 0.62530(16) 0.0334 1.0000 Uani D
C15 C 1.3480(2) -0.41355(18) 0.69004(16) 0.0349 1.0000 Uani D
C111 C 0.7785(2) -0.09764(18) 0.59065(16) 0.0337 1.0000 Uani .
C13 C 1.2434(2) -0.12670(19) 0.82435(17) 0.0382 1.0000 Uani D
C142 C 1.7658(3) -0.5489(2) 0.8239(2) 0.0449 1.0000 Uani D
C12 C 1.0451(2) -0.06261(19) 0.75838(17) 0.0363 1.0000 Uani D
C14 C 1.4024(2) -0.30520(18) 0.79172(16) 0.0326 1.0000 Uani D
H112 H 0.6243 -0.1665 0.4492 0.0509 0.7600 Uiso DR
H113 H 0.5127 0.0977 0.5897 0.0489 0.2400 Uiso DR
H161 H 1.116(2) -0.4192(16) 0.5588(12) 0.0402 1.0000 Uiso D
H151 H 1.449(2) -0.5354(17) 0.6639(13) 0.0397 1.0000 Uiso D
H131 H 1.267(2) -0.0477(17) 0.8916(13) 0.0457 1.0000 Uiso D
H121 H 0.944(2) 0.0492(17) 0.7814(13) 0.0422 1.0000 Uiso D
H1431 H 1.785(2) -0.320(2) 1.0044(17) 0.0590 1.0000 Uiso D
H1432 H 1.535(3) -0.218(2) 1.0559(17) 0.0590 1.0000 Uiso D
H1433 H 1.654(3) -0.152(2) 0.9208(18) 0.0590 1.0000 Uiso D
H1421 H 1.904(2) -0.5498(19) 0.8448(18) 0.0509 1.0000 Uiso D
H1422 H 1.747(2) -0.6381(19) 0.8806(17) 0.0509 1.0000 Uiso D
H1423 H 1.785(2) -0.5785(19) 0.7159(16) 0.0509 1.0000 Uiso D
loop_
_atom_site_aniso_label
_atom_site_aniso_U_11
_atom_site_aniso_U_22
_atom_site_aniso_U_33
_atom_site_aniso_U_23
_atom_site_aniso_U_13
_atom_site_aniso_U_12
O112 0.0361(5) 0.0393(6) 0.0526(7) -0.0067(5) -0.0174(5) -0.0106(4)
O113 0.0319(5) 0.0378(6) 0.0528(7) -0.0079(5) -0.0128(4) -0.0037(4)
N141 0.0375(7) 0.0395(7) 0.0577(8) -0.0075(6) -0.0208(6) -0.0035(5)
C143 0.0425(9) 0.0510(10) 0.0537(10) -0.0036(8) -0.0205(7) -0.0153(8)
C11 0.0299(7) 0.0316(7) 0.0338(7) -0.0004(5) -0.0059(5) -0.0113(5)
C16 0.0336(7) 0.0327(7) 0.0343(7) -0.0048(5) -0.0054(5) -0.0125(5)
C15 0.0332(7) 0.0283(7) 0.0378(7) -0.0050(5) -0.0056(5) -0.0054(5)
C111 0.0320(7) 0.0342(7) 0.0351(7) 0.0003(5) -0.0057(5) -0.0125(6)
C13 0.0367(7) 0.0317(7) 0.0460(8) -0.0062(6) -0.0144(6) -0.0105(6)
C142 0.0335(7) 0.0423(9) 0.0513(9) 0.0004(7) -0.0123(7) -0.0051(6)
C12 0.0329(7) 0.0271(7) 0.0454(8) -0.0042(6) -0.0095(6) -0.0065(5)
C14 0.0291(6) 0.0317(7) 0.0350(7) 0.0007(5) -0.0081(5) -0.0088(5)
loop_
_atom_type_symbol
_atom_type_scat_dispersion_real
_atom_type_scat_dispersion_imag
_atom_type_scat_Cromer_Mann_a1
_atom_type_scat_Cromer_Mann_b1
_atom_type_scat_Cromer_Mann_a2
_atom_type_scat_Cromer_Mann_b2
_atom_type_scat_Cromer_Mann_a3
_atom_type_scat_Cromer_Mann_b3
_atom_type_scat_Cromer_Mann_a4
_atom_type_scat_Cromer_Mann_b4
_atom_type_scat_Cromer_Mann_c
_atom_type_scat_source
C 0.0033 0.0016 2.3100 20.8439 1.0200 10.2075 1.5886 0.5687 0.8650 51.6512
0.2156 'International Tables Vol C 4.2.6.8 and 6.1.1.4'
H 0.0000 0.0000 0.4930 10.5109 0.3229 26.1257 0.1402 3.1424 0.0408 57.7998
0.0030 'International Tables Vol C 4.2.6.8 and 6.1.1.4'
N 0.0061 0.0033 12.2126 0.0057 3.1322 9.8933 2.0125 28.9975 1.1663 0.5826
-11.5290 'International Tables Vol C 4.2.6.8 and 6.1.1.4'
O 0.0106 0.0060 3.0485 13.2771 2.2868 5.7011 1.5463 0.3239 0.8670 32.9089
0.2508 'International Tables Vol C 4.2.6.8 and 6.1.1.4'
loop_
_geom_angle_atom_site_label_1
_geom_angle_atom_site_label_2
_geom_angle_atom_site_label_3
_geom_angle
_geom_angle_publ_flag
C111 O112 H112 119.7 no
C111 O113 H113 120.1 no
C143 N141 C142 117.08(13) yes
C143 N141 C14 121.19(13) yes
C142 N141 C14 121.72(14) yes
N141 C143 H1431 111.2(10) no
N141 C143 H1432 113.2(9) no
H1431 C143 H1432 111.4(12) no
N141 C143 H1433 111.0(9) no
H1431 C143 H1433 103.2(12) no
H1432 C143 H1433 106.3(12) no
C16 C11 C111 122.30(13) yes
C16 C11 C12 117.76(13) yes
C111 C11 C12 119.94(13) yes
C11 C16 C15 121.59(14) yes
C11 C16 H161 118.5(8) no
C15 C16 H161 119.9(8) no
C16 C15 C14 120.96(13) yes
C16 C15 H151 118.3(8) no
C14 C15 H151 120.7(8) no
C11 C111 O112 116.35(12) yes
C11 C111 O113 120.97(13) yes
O112 C111 O113 122.68(13) yes
C12 C13 C14 120.96(13) yes
C12 C13 H131 117.1(9) no
C14 C13 H131 121.9(9) no
N141 C142 H1421 108.5(9) no
N141 C142 H1422 114.6(9) no
H1421 C142 H1422 106.9(12) no
N141 C142 H1423 112.6(9) no
H1421 C142 H1423 103.6(12) no
H1422 C142 H1423 109.8(12) no
C11 C12 C13 121.57(13) yes
C11 C12 H121 117.9(9) no
C13 C12 H121 120.5(9) no
C13 C14 C15 117.15(13) yes
C13 C14 N141 120.72(14) yes
C15 C14 N141 122.12(13) yes
loop_
_geom_bond_atom_site_label_1
_geom_bond_atom_site_label_2
_geom_bond_distance
_geom_bond_publ_flag
O112 C111 1.3018(17) yes
O112 H112 0.850 no
O113 C111 1.2503(17) yes
O113 H113 0.850 no
N141 C143 1.442(2) yes
N141 C142 1.443(2) yes
N141 C14 1.366(2) yes
C143 H1431 0.927(14) no
C143 H1432 0.952(14) no
C143 H1433 0.964(14) no
C11 C16 1.393(2) yes
C11 C111 1.466(2) yes
C11 C12 1.392(2) yes
C16 C15 1.376(2) yes
C16 H161 0.919(12) no
C15 C14 1.407(2) yes
C15 H151 0.956(12) no
C13 C12 1.374(2) yes
C13 C14 1.412(2) yes
C13 H131 0.933(13) no
C142 H1421 0.948(14) no
C142 H1422 0.889(13) no
C142 H1423 0.944(13) no
C12 H121 0.892(13) no
loop_
_geom_hbond_atom_site_label_D
_geom_hbond_atom_site_label_H
_geom_hbond_atom_site_label_A
_geom_hbond_site_symmetry_A
_geom_hbond_angle_DHA
_geom_hbond_distance_DH
_geom_hbond_distance_HA
_geom_hbond_distance_DA
_geom_hbond_publ_flag
O112 H112 O113 2_656 171 0.85 1.78 2.624(2) yes
O113 H113 O112 2_656 175 0.85 1.78 2.624(2) yes
