#------------------------------------------------------------------------------
#$Date: 2016-03-24 14:28:49 +0200 (Thu, 24 Mar 2016) $
#$Revision: 179665 $
#$URL: svn://www.crystallography.net/cod/cif/4/51/18/4511857.cif $
#------------------------------------------------------------------------------
#
# This file is available in the Crystallography Open Database (COD),
# http://www.crystallography.net/
#
# All data on this site have been placed in the public domain by the
# contributors.
#
data_4511857
loop_
_publ_author_name
'Dikundwar, Amol G.'
'Guru Row, Tayur N.'
_publ_section_title
;
 Tracing a Crystallization Pathway of an RT Liquid, 4-Fluorobenzoyl
 Chloride: Metastable Polytypic Form as an Intermediate Phase
;
_journal_issue                   9
_journal_name_full               'Crystal Growth &amp; Design'
_journal_page_first              4230
_journal_paper_doi               10.1021/cg500460n
_journal_volume                  14
_journal_year                    2014
_chemical_formula_moiety         'C7 H4 Cl F O'
_chemical_formula_sum            'C7 H4 Cl F O'
_chemical_formula_weight         158.55
_chemical_melting_point          ?
_chemical_name_common            '4-fluoro benzoyl chloride'
_chemical_name_systematic
;
4-Fluoro benzoyl chloride
;
_space_group_crystal_system      monoclinic
_space_group_IT_number           14
_space_group_name_Hall           '-P 2ybc'
_space_group_name_H-M_alt        'P 1 21/c 1'
_symmetry_space_group_name_Hall  '-P 2ybc'
_symmetry_space_group_name_H-M   'P 1 21/c 1'
_atom_sites_solution_hydrogens   geom
_audit_creation_method           SHELXL-2013
_cell_angle_alpha                90
_cell_angle_beta                 106.423(9)
_cell_angle_gamma                90
_cell_formula_units_Z            4
_cell_length_a                   6.955(4)
_cell_length_b                   9.014(5)
_cell_length_c                   11.195(6)
_cell_measurement_reflns_used    2880
_cell_measurement_temperature    90(2)
_cell_measurement_theta_max      24.99
_cell_measurement_theta_min      2.95
_cell_volume                     673.2(6)
_computing_cell_refinement       Apex2
_computing_data_collection       'Bruker kappa Apex2'
_computing_data_reduction        SAINT32
_computing_structure_refinement  'SHELXL-2013 (Sheldrick, 2013)'
_computing_structure_solution    'SHELXS97  (Sheldrick, 2008)'
_diffrn_ambient_temperature      90(2)
_diffrn_measured_fraction_theta_full 0.981
_diffrn_measured_fraction_theta_max 0.983
_diffrn_measurement_device_type  'Brucker kappa apex2 CCD area detector'
_diffrn_measurement_method       '\f and \w scans'
_diffrn_radiation_monochromator  graphite
_diffrn_radiation_source         'fine-focus sealed tube'
_diffrn_radiation_type           MoK\a
_diffrn_radiation_wavelength     0.71073
_diffrn_reflns_av_unetI/netI     0.0544
_diffrn_reflns_Laue_measured_fraction_full 0.981
_diffrn_reflns_Laue_measured_fraction_max 0.983
_diffrn_reflns_limit_h_max       7
_diffrn_reflns_limit_h_min       -8
_diffrn_reflns_limit_k_max       10
_diffrn_reflns_limit_k_min       -10
_diffrn_reflns_limit_l_max       13
_diffrn_reflns_limit_l_min       0
_diffrn_reflns_number            1156
_diffrn_reflns_point_group_measured_fraction_full 0.981
_diffrn_reflns_point_group_measured_fraction_max 0.983
_diffrn_reflns_theta_full        25.000
_diffrn_reflns_theta_max         24.987
_diffrn_reflns_theta_min         2.950
_exptl_absorpt_coefficient_mu    0.502
_exptl_absorpt_correction_T_max  0.8618
_exptl_absorpt_correction_T_min  0.8217
_exptl_absorpt_correction_type   multi-scan
_exptl_absorpt_process_details   'Apex2 (Bruker)'
_exptl_crystal_colour            colourless
_exptl_crystal_density_diffrn    1.564
_exptl_crystal_description       cylindrical
_exptl_crystal_F_000             320
_exptl_crystal_size_max          0.400
_exptl_crystal_size_mid          0.300
_exptl_crystal_size_min          0.300
_refine_diff_density_max         0.719
_refine_diff_density_min         -0.482
_refine_diff_density_rms         0.141
_refine_ls_extinction_method     none
_refine_ls_goodness_of_fit_ref   1.168
_refine_ls_hydrogen_treatment    constr
_refine_ls_matrix_type           full
_refine_ls_number_parameters     92
_refine_ls_number_reflns         1156
_refine_ls_number_restraints     0
_refine_ls_restrained_S_all      1.168
_refine_ls_R_factor_all          0.1026
_refine_ls_R_factor_gt           0.0883
_refine_ls_shift/su_max          0.000
_refine_ls_shift/su_mean         0.000
_refine_ls_structure_factor_coef Fsqd
_refine_ls_weighting_details
;
 w=1/[\s^2^(Fo^2^)+(0.1550P)^2^+1.2340P]
 where P=(Fo^2^+2Fc^2^)/3
;
_refine_ls_weighting_scheme      calc
_refine_ls_wR_factor_gt          0.2694
_refine_ls_wR_factor_ref         0.2854
_reflns_Friedel_coverage         0.000
_reflns_number_gt                919
_reflns_number_total             1156
_reflns_threshold_expression     'I > 2\s(I)'
_cod_data_source_file            cg500460n_si_003.cif
_cod_data_source_block           4FBZ_FormII
_cod_depositor_comments
;
The following automatic conversions were performed:

'_chemical_melting_point' value '' was changed to '?' - the value is
undefined or not given.

Automatic conversion script
Id: cif_fix_values 2281 2013-09-26 08:29:07Z andrius 

 Adding full bibliography for 4511857.cif.
;
_cod_original_cell_volume        673.3(6)
_cod_database_code               4511857
#BEGIN Tags that were not found in dictionaries:
_shelx_space_group_comment
;
The symmetry employed for this shelxl refinement is uniquely defined
by the following loop, which should always be used as a source of
symmetry information in preference to the above space-group names.
They are only intended as comments.
;
_shelx_estimated_absorpt_t_min   0.824
_shelx_estimated_absorpt_t_max   0.864
_shelxl_version_number           2013-2
_shelx_res_file
;
TITL a4fbzm in P2(1)/c
CELL  0.71073   6.9554   9.0141  11.1954   90.000  106.423   90.000
ZERR     4.00   0.0037   0.0047   0.0059    0.000    0.009    0.000
LATT   1
SYMM  - X, 1/2 + Y, 1/2 - Z
SFAC  C    H    O    F    CL
UNIT  28   16   4    4    4
MERG   2
FMAP   2
PLAN   10
ACTA 50
size 0.3 0.3 0.4
BOND $H
conf
L.S.   10
TEMP    -183
WGHT    0.155000    1.234000
BASF   0.19056
FVAR      10.55101
C1    1    0.800414    0.301089    0.601749    11.00000    0.03687    0.03010 =
         0.04183    0.01106    0.01197    0.00384
C2    1    0.764812    0.438610    0.527508    11.00000    0.02762    0.01950 =
         0.03829    0.00353    0.01026    0.00201
C3    1    0.816579    0.571779    0.591799    11.00000    0.03266    0.03561 =
         0.02718   -0.00047    0.00589    0.00222
AFIX  43
H3    2    0.871993    0.570613    0.679694    11.00000   -1.20000
AFIX   0
C4    1    0.788181    0.704916    0.529162    11.00000    0.03633    0.02933 =
         0.04388   -0.00334    0.01148   -0.00157
AFIX  43
H4    2    0.823286    0.795946    0.572624    11.00000   -1.20000
AFIX   0
C5    1    0.708163    0.702728    0.402811    11.00000    0.03249    0.02953 =
         0.03842    0.00608    0.00974    0.00270
C6    1    0.656106    0.574123    0.335986    11.00000    0.03449    0.04088 =
         0.03039    0.00431    0.00383    0.00438
AFIX  43
H6    2    0.600984    0.577074    0.248100    11.00000   -1.20000
AFIX   0
C7    1    0.684968    0.441094    0.398190    11.00000    0.03424    0.03464 =
         0.02999   -0.00414    0.00483   -0.00115
AFIX  43
H7    2    0.650691    0.350876    0.353352    11.00000   -1.20000
AFIX   0
O1    3    0.866346    0.292949    0.710886    11.00000    0.07181    0.04043 =
         0.03985    0.01826    0.00713    0.00393
F1    4    0.679581    0.833572    0.341101    11.00000    0.06061    0.03323 =
         0.05106    0.01914    0.01085    0.00475
CL1   5    0.735859    0.132627    0.515072    11.00000    0.06872    0.02584 =
         0.07133    0.00084    0.01271   -0.00085
HKLF    5

REM  a4fbzm in P2(1)/c
REM R1 =  0.0883 for     919 Fo > 4sig(Fo)  and  0.1026 for all    1156 data
REM     92 parameters refined using      0 restraints

END

WGHT      0.1547      1.3195

REM Highest difference peak  0.719,  deepest hole -0.482,  1-sigma level  0.141
Q1    1   0.8972  0.1413  0.5245  11.00000  0.05    0.72
Q2    1   0.7372  0.8623  0.4971  11.00000  0.05    0.65
Q3    1   0.7809  0.1495  0.6380  11.00000  0.05    0.45
Q4    1   0.6221  0.1893  0.6391  11.00000  0.05    0.43
Q5    1   0.7704  0.4289  0.6638  11.00000  0.05    0.40
Q6    1   0.9894  0.8944  0.5402  11.00000  0.05    0.40
Q7    1   0.7381  0.3004  0.7010  11.00000  0.05    0.40
Q8    1   0.5563  0.2561  0.5425  11.00000  0.05    0.39
Q9    1   0.5625  0.8501  0.5378  11.00000  0.05    0.36
Q10   1   0.7498  0.5548  0.5940  11.00000  0.05    0.36
;
_shelx_res_checksum              52112
_shelx_hkl_file
;
   1   0   0       0     186   1
   2   0   0 2588054  141715   1
   3   0   0   16909     811   1
   4   0   0   30571    1395   1
   5   0   0    9282     633   1
   6   0   0    1401     350   1
   7   0   0       0     236   1
  -1  -1   1   21438     747  -2
   1   1   0   21438     747   1
   2   1   0  135422    6503   1
   3   1   0    6085     279   1
   4   1   0    9995     582   1
   5   1   0   13484     561   1
   6   1   0    1210     224   1
   7   1   0    8583     547   1
   0  -2   0  281006   11014  -2
   0   2   0  281006   11014   1
  -1  -2   1   28047    1527  -2
   1   2   0   28047    1527   1
   2   2   0   29428     890   1
   3   2   0   12086     498   1
   4   2   0       0     153   1
   5   2   0     851     201   1
   6   2   0       0     203   1
   7   2   0    1216     267   1
  -1  -3   1   62431    2114  -2
   1   3   0   62431    2114   1
   2   3   0   42612    1277   1
   3   3   0  125368    3540   1
   4   3   0   19200     806   1
   5   3   0   42614    1601   1
   6   3   0    3886     360   1
   7   3   0    4326     398   1
   0  -4   0  231266    9074  -2
   0   4   0  231266    9074   1
  -1  -4   1   22955     755  -2
   1   4   0   22955     755   1
   2   4   0   71703    3094   1
   3   4   0   35388    1318   1
   4   4   0   18074     790   1
   5   4   0    6523     444   1
   6   4   0    2102     288   1
   7   4   0    1061     247   1
  -1  -5   1   12311     569  -2
   1   5   0   12311     569   1
   2   5   0    3987     681   1
   3   5   0    9223     516   1
   4   5   0    2914     333   1
   5   5   0    4117     363   1
   6   5   0      97     202   1
   7   5   0     839     229   1
   0  -6   0    3653     399  -2
   0   6   0    3653     399   1
   2   6   0    2091     316   1
   3   6   0    4994     570   1
   4   6   0    1219     281   1
   5   6   0    2766     332   1
   6   6   0     458     255   1
  -1  -7   1   14267     746  -2
   1   7   0   14267     746   1
   2   7   0    6495     899   1
   3   7   0    6062     470   1
   4   7   0    5183     568   1
   5   7   0     958     289   1
   6   7   0     849     285   1
   0  -8   0   28706    2195  -2
   0   8   0   28706    2195   1
  -1  -8   1     803     445  -2
   1   8   0     803     445   1
   2   8   0    2673     504   1
   3   8   0     854     295   1
   4   8   0    7239     534   1
   5   8   0    2367     360   1
  -1  -9   1   30871    1665  -2
   1   9   0   30871    1665   1
   2   9   0    4274     579   1
   3   9   0   15705     815   1
   4   9   0    2723     364   1
   0 -10   0    1884     621  -2
   0  10   0    1884     621   1
  -1 -10   1   13016     956  -2
   1  10   0   13016     956   1
   2  10   0    2301     453   1
  -8   1   1    2493     528   1
  -7   1   1    4940     381   1
  -6   1   1    5224    1453   1
  -5   1   1    4339     566   1
  -4   1   1       0     259   1
  -3   1   1    9744     529   1
  -2   1   1  155196    5646   1
   1  -1   0    1185     194  -2
  -1   1   1    1185     194   1
   0  -1   1  124132    4681  -2
   0   1   1  124132    4681   1
   1   1   1    7689     308   1
   2   1   1   35191    1050   1
   3   1   1   14576     875   1
   4   1   1   31091    1003   1
   5   1   1    9132     450   1
   6   1   1    7801     412   1
   7   1   1    4070     355   1
  -7   2   1     977     260   1
  -6   2   1     164     220   1
  -5   2   1    7254     332   1
  -4   2   1    2673     232   1
  -3   2   1   15156     597   1
  -2   2   1    7447     320   1
   1  -2   0   84313    2370  -2
  -1   2   1   84313    2370   1
   0  -2   1    3735     187  -2
   0   2   1    3735     187   1
  -1  -2   2  176273    7221  -2
   1   2   1  176273    7221   1
   2   2   1   11667     458   1
   3   2   1  106180    3016   1
   4   2   1    1091     181   1
   5   2   1   20869     915   1
   6   2   1    3360     351   1
   7   2   1    2005     288   1
  -7   3   1    5884     438   1
  -6   3   1    2773     484   1
  -5   3   1   37480    1425   1
  -4   3   1   21562     902   1
  -3   3   1   55130    1943   1
  -2   3   1   59487    2030   1
   1  -3   0   39121    1731  -2
  -1   3   1   39121    1731   1
   0  -3   1  188862    5248  -2
   0   3   1  188862    5248   1
  -1  -3   2  168790    8188  -2
   1   3   1  168790    8188   1
   2   3   1   55642    1611   1
   3   3   1   22154     826   1
   4   3   1    4537     358   1
   5   3   1     705     259   1
   6   3   1    1769     279   1
   7   3   1     437     663   1
  -7   4   1    8785     557   1
  -6   4   1    1797     271   1
  -5   4   1   15290     717   1
  -4   4   1    5772     426   1
  -3   4   1    1522     265   1
  -2   4   1    2163     446   1
   1  -4   0   17098     574  -2
  -1   4   1   17098     574   1
   0  -4   1   17247    1027  -2
   0   4   1   17247    1027   1
  -1  -4   2  107409    3036  -2
   1   4   1  107409    3036   1
   2   4   1    9397     719   1
   3   4   1  130042    4353   1
   4   4   1    3387     323   1
   5   4   1   16258     770   1
   6   4   1    1321     256   1
   7   4   1     627     263   1
  -7   5   1     131     194   1
  -6   5   1    4713     391   1
  -5   5   1    3477     334   1
  -4   5   1   16152     757   1
  -3   5   1    6218     455   1
  -2   5   1   53857    1934   1
   1  -5   0   26720    1609  -2
  -1   5   1   26720    1609   1
   0  -5   1   99822    2849  -2
   0   5   1   99822    2849   1
  -1  -5   2   58306    4318  -2
   1   5   1   58306    4318   1
   2   5   1   33589    1268   1
   3   5   1       0     266   1
   4   5   1   15998     755   1
   5   5   1    3240     335   1
   6   5   1    1646     270   1
  -6   6   1    1791     314   1
  -5   6   1    6366     455   1
  -4   6   1    1038     359   1
  -3   6   1   36694    1721   1
  -2   6   1    6345     480   1
   1  -6   0   85035    2933  -2
  -1   6   1   85035    2933   1
   0  -6   1   40063    1645  -2
   0   6   1   40063    1645   1
  -1  -6   2   37247    1394  -2
   1   6   1   37247    1394   1
   2   6   1    7297     943   1
   3   6   1   11300     812   1
   4   6   1    2427     318   1
   5   6   1    9908     584   1
   6   6   1     282     223   1
  -6   7   1    2842     370   1
  -5   7   1    1177     312   1
  -4   7   1   76901    2774   1
  -3   7   1     684     311   1
  -2   7   1  388412   12719   1
   1  -7   0    8046    1022  -2
  -1   7   1    8046    1022   1
   0  -7   1  436532   18028  -2
   0   7   1  436532   18028   1
  -1  -7   2    2956     561  -2
   1   7   1    2956     561   1
   2   7   1   49052    2258   1
   3   7   1     988     361   1
   4   7   1    1752     303   1
   5   7   1      97     229   1
  -5   8   1       0     266   1
  -4   8   1    1209     327   1
  -3   8   1    1008     313   1
  -2   8   1     892     279   1
   1  -8   0    1159     442  -2
  -1   8   1    1159     442   1
   0  -8   1   26334    1448  -2
   0   8   1   26334    1448   1
  -1  -8   2    1704     435  -2
   1   8   1    1704     435   1
   2   8   1   14232     968   1
   3   8   1    2992     348   1
   4   8   1     249     141   1
   5   8   1    5232     440   1
  -4   9   1    1129     323   1
  -3   9   1    1515     547   1
  -2   9   1    1743     462   1
   0  -9   1    6237     667  -2
   0   9   1    6237     667   1
   2   9   1    8795     770   1
   3   9   1     957     546   1
   4   9   1    2091     345   1
  -2  10   1    1627     455   1
   1 -10   0   18886    1197  -2
  -1  10   1   18886    1197   1
   0 -10   1    1379     436  -2
   0  10   1    1379     436   1
  -1 -10   2   21627    1313  -2
   1  10   1   21627    1313   1
   2  10   1    3580     606   1
  -8   0   2     571     574   1
  -7   0   2    3261     418   1
  -6   0   2   92019    3928   1
  -5   0   2    1664     351   1
  -4   0   2 1174002   45767   1
  -3   0   2      37     199   1
  -2   0   2 1626668   86234   1
  -1   0   2    1301     183   1
   0   0   2  749596   29294  -2
   0   0   2  749596   29294   1
   2   0   2    6366     383   1
   3   0   2    6346     433   1
   4   0   2     158     239   1
   5   0   2   18493    1006   1
   6   0   2     425     274   1
   7   0   2    2433     757   1
  -8   1   2     254     495   1
  -7   1   2     480     187   1
  -6   1   2     112     308   1
  -5   1   2     499     322   1
  -4   1   2   31517    1035   1
  -3   1   2   10183     396   1
  -2   1   2  519255   14295   1
  -1   1   2   20402     610   1
   0  -1   2  524180   16887  -2
   0   1   2  524180   16887   1
   1   1   2   69214    1957   1
   2   1   2    2974     299   1
   3   1   2  112575    3201   1
   4   1   2   14141     553   1
   5   1   2   29378    1004   1
   6   1   2    1660     294   1
   7   1   2    1948     266   1
  -8   2   2     732     287   1
  -7   2   2     875     234   1
  -6   2   2    2438     342   1
  -5   2   2    6795     381   1
  -4   2   2   18977     671   1
  -3   2   2     172     240   1
  -2   2   2   13883     502   1
   1  -2   1   83150    4929  -2
  -1   2   2   83150    4929   1
   0  -2   2   10113     394  -2
   0   2   2   10113     394   1
   2   2   2    3385     220   1
   3   2   2    6439     348   1
   4   2   2     307     171   1
   5   2   2       0     246   1
   6   2   2    1001     247   1
   7   2   2     310     191   1
  -7   3   2    9654     557   1
  -6   3   2    6830     473   1
  -5   3   2    9796     556   1
  -4   3   2    5300     297   1
  -3   3   2   13529     555   1
  -2   3   2    8369     365   1
   1  -3   1  264824   15241  -2
  -1   3   2  264824   15241   1
   0  -3   2   73725    2101  -2
   0   3   2   73725    2101   1
  -1  -3   3  363736   11777  -2
   1   3   2  363736   11777   1
   2   3   2    8074     329   1
   3   3   2   62069    1816   1
   4   3   2     452     226   1
   5   3   2    3513     346   1
   6   3   2     490     226   1
   7   3   2     225     281   1
  -7   4   2    5840     477   1
  -6   4   2    3086     347   1
  -5   4   2   13998     836   1
  -4   4   2   17438     793   1
  -3   4   2    3190     306   1
  -2   4   2   59808    1754   1
   1  -4   1   39587    2562  -2
  -1   4   2   39587    2562   1
   0  -4   2  136820    3851  -2
   0   4   2  136820    3851   1
  -1  -4   3    2059     339  -2
   1   4   2    2059     339   1
   2   4   2   31626    1319   1
   3   4   2    1063     565   1
   4   4   2   10485     560   1
   5   4   2     199     203   1
   6   4   2    6235     445   1
  -7   5   2      48     250   1
  -6   5   2     356     318   1
  -5   5   2     236     247   1
  -4   5   2    3891     401   1
  -3   5   2    5618     433   1
  -2   5   2   23987     977   1
   1  -5   1   50555    2510  -2
  -1   5   2   50555    2510   1
   0  -5   2   78563    2270  -2
   0   5   2   78563    2270   1
  -1  -5   3   53747    1587  -2
   1   5   2   53747    1587   1
   2   5   2   16855    1405   1
   3   5   2   31426    1231   1
   4   5   2     536     289   1
   5   5   2    6634     453   1
   6   5   2    7100     481   1
  -6   6   2      20     245   1
  -5   6   2     206     233   1
  -4   6   2       0     285   1
  -3   6   2    2135     477   1
  -2   6   2     252     309   1
   1  -6   1   14555    1282  -2
  -1   6   2   14555    1282   1
   0  -6   2      83     183  -2
   0   6   2      83     183   1
  -1  -6   3   10751    1227  -2
   1   6   2   10751    1227   1
   2   6   2     328     248   1
   3   6   2     856     283   1
   4   6   2     488     236   1
   5   6   2      85     199   1
   6   6   2     106     198   1
  -6   7   2    1289     448   1
  -5   7   2    1420     315   1
  -4   7   2    2417    2290   1
  -3   7   2    3988     432   1
  -2   7   2    7512    1266   1
   1  -7   1    6016     479  -2
  -1   7   2    6016     479   1
   0  -7   2    9899     823  -2
   0   7   2    9899     823   1
  -1  -7   3    3532     369  -2
   1   7   2    3532     369   1
   2   7   2     287     258   1
   3   7   2    1253     307   1
   4   7   2      23     215   1
   5   7   2    1020     256   1
  -5   8   2    3383     409   1
  -4   8   2   12941     734   1
  -3   8   2    6199     490   1
  -2   8   2    4514     401   1
   1  -8   1    4780     588  -2
  -1   8   2    4780     588   1
   0  -8   2   21483    1244  -2
   0   8   2   21483    1244   1
  -1  -8   3    1526     457  -2
   1   8   2    1526     457   1
   2   8   2   43626    1682   1
   3   8   2    3297     371   1
   4   8   2   16533    1972   1
  -4   9   2     728     320   1
  -3   9   2   17306    1666   1
  -2   9   2    1695     477   1
   1  -9   1   28522    1568  -2
  -1   9   2   28522    1568   1
   0  -9   2     615     411  -2
   0   9   2     615     411   1
  -1  -9   3   20501    1254  -2
   1   9   2   20501    1254   1
   2   9   2    2085     460   1
   3   9   2    5710     459   1
  -2  10   2    2225     504   1
   1 -10   1   13266     963  -2
  -1  10   2   13266     963   1
   0 -10   2    5616     631  -2
   0  10   2    5616     631   1
  -1 -10   3   10137     838  -2
   1  10   2   10137     838   1
   2  10   2    3128     505   1
  -8   1   3     461     534   1
  -7   1   3    1454     241   1
  -6   1   3   11187     553   1
  -5   1   3    3946     372   1
  -4   1   3   39001    1214   1
  -3   1   3    5230     248   1
  -2   1   3     667     123   1
  -1   1   3    8582     623   1
   0  -1   3  154699    4864  -2
   0   1   3  154699    4864   1
   2   1   3   68801    1993   1
   3   1   3    6123     447   1
   4   1   3   21558     770   1
   5   1   3    3187     283   1
   6   1   3    4342     367   1
   7   1   3     684     220   1
  -8   2   3     357     231   1
  -7   2   3       0     333   1
  -6   2   3    3070     348   1
  -5   2   3    3098     276   1
  -4   2   3    6834     334   1
  -3   2   3   71908    2080   1
  -2   2   3   35778    1063   1
  -1   2   3  288935    8003   1
   0  -2   3  122842    4018  -2
   0   2   3  122842    4018   1
   1   2   3  193153    6119   1
   2   2   3    2081     281   1
   3   2   3   37319    1159   1
   4   2   3   12370     515   1
   5   2   3    7230     473   1
   6   2   3    8443     531   1
   7   2   3     627     205   1
  -7   3   3    7768     724   1
  -6   3   3    1465     275   1
  -5   3   3    1964     633   1
  -4   3   3    8087     447   1
  -3   3   3   11335     489   1
  -2   3   3   34138    1042   1
   0  -3   3   35881    1215  -2
   0   3   3   35881    1215   1
   1   3   3   89887    3996   1
   2   3   3    8029     366   1
   3   3   3    8142     371   1
   4   3   3   21009     897   1
   5   3   3      30     213   1
   6   3   3   19384     903   1
  -7   4   3     507     385   1
  -6   4   3     638     236   1
  -5   4   3     887     290   1
  -4   4   3     536     417   1
  -3   4   3   28311    1136   1
  -2   4   3   10240     401   1
   1  -4   2  293360   11576  -2
  -1   4   3  293360   11576   1
   0  -4   3   30708     954  -2
   0   4   3   30708     954   1
  -1  -4   4  143946    4066  -2
   1   4   3  143946    4066   1
   2   4   3   12078     520   1
   3   4   3    2650     871   1
   4   4   3     369     257   1
   5   4   3     510     243   1
   6   4   3    9707     571   1
  -7   5   3     499     250   1
  -6   5   3    3814     502   1
  -5   5   3    2670     393   1
  -4   5   3   11677     764   1
  -3   5   3   31923    1517   1
  -2   5   3   19676    1021   1
   0  -5   3   63803    1877  -2
   0   5   3   63803    1877   1
  -1  -5   4   20908    1923  -2
   1   5   3   20908    1923   1
   2   5   3   32198    2362   1
   3   5   3    2527     320   1
   4   5   3     488     229   1
   5   5   3     135     208   1
   6   5   3    3079     324   1
  -6   6   3    3393     675   1
  -5   6   3   10762     650   1
  -4   6   3   35211    1426   1
  -3   6   3   15116     761   1
  -2   6   3   39779    1515   1
   1  -6   2   16828     774  -2
  -1   6   3   16828     774   1
   0  -6   3    4580     298  -2
   0   6   3    4580     298   1
  -1  -6   4   34332    1923  -2
   1   6   3   34332    1923   1
   2   6   3     699     454   1
   3   6   3   31918    1722   1
   4   6   3     157     224   1
   5   6   3    8226     527   1
  -6   7   3   45224    2194   1
  -5   7   3     424     359   1
  -4   7   3  102977    3640   1
  -3   7   3    2424     370   1
  -2   7   3   57692    4156   1
   1  -7   2    1985    1705  -2
  -1   7   3    1985    1705   1
   0  -7   3   12580     884  -2
   0   7   3   12580     884   1
  -1  -7   4    2178     451  -2
   1   7   3    2178     451   1
   2   7   3    4870     409   1
   3   7   3    7244     902   1
   4   7   3    2177     318   1
   5   7   3    3749     571   1
  -5   8   3    1892     405   1
  -4   8   3   15811     862   1
  -3   8   3       0     289   1
  -2   8   3   20225    1188   1
   1  -8   2    2100     470  -2
  -1   8   3    2100     470   1
   0  -8   3    2150     485  -2
   0   8   3    2150     485   1
  -1  -8   4   10378    1337  -2
   1   8   3   10378    1337   1
   2   8   3    3734     548   1
   3   8   3    8301     550   1
   4   8   3    2177     329   1
  -4   9   3    3215     498   1
  -3   9   3    2718     675   1
  -2   9   3   10882     857   1
   1  -9   2    8910    1063  -2
  -1   9   3    8910    1063   1
   0  -9   3   14413     998  -2
   0   9   3   14413     998   1
  -1  -9   4    7013     696  -2
   1   9   3    7013     696   1
   2   9   3    2615     697   1
   3   9   3     264     321   1
  -2  10   3    1328     433   1
   1 -10   2   15604    1069  -2
  -1  10   3   15604    1069   1
   0 -10   3      13     513  -2
   0  10   3      13     513   1
  -1 -10   4   13301     957  -2
   1  10   3   13301     957   1
  -7   0   4       0     344   1
  -6   0   4  128259    5295   1
  -5   0   4     145     261   1
  -4   0   4   84676    3484   1
  -2   0   4    2671     347   1
  -1   0   4   77474    7837   1
   0   0   4    2001     454  -2
   0   0   4    2001     454   1
   1   0   4  290923   13317   1
   2   0   4   39714    2317   1
   3   0   4  117844    7717   1
   4   0   4   12174     775   1
   5   0   4    2112     366   1
   6   0   4    3361     432   1
  -8   1   4    5189     826   1
  -7   1   4      67     242   1
  -6   1   4   51754    1903   1
  -5   1   4    2506     256   1
  -4   1   4  143784    4072   1
  -3   1   4   13672     544   1
  -2   1   4   13926     538   1
  -1   1   4  111829    3579   1
   0  -1   4   74730    2116  -2
   0   1   4   74730    2116   1
   1   1   4  146743    4119   1
   2   1   4    7105     330   1
   3   1   4   14625     511   1
   4   1   4      29     188   1
   5   1   4     500     184   1
   6   1   4     758     266   1
  -8   2   4       0     298   1
  -7   2   4     427     307   1
  -6   2   4       0     451   1
  -5   2   4     803     199   1
  -4   2   4    7192     339   1
  -2   2   4   14161     483   1
   0  -2   4    4966     235  -2
   0   2   4    4966     235   1
   2   2   4    4229     293   1
   3   2   4    6405     348   1
   4   2   4    2294     258   1
   5   2   4     262     219   1
   6   2   4    2975     328   1
  -7   3   4    1299     391   1
  -6   3   4     129     305   1
  -5   3   4   10881     769   1
  -4   3   4    2397     238   1
  -3   3   4  117924    3357   1
  -2   3   4    5627     520   1
  -1   3   4  171220    4794   1
   0  -3   4     989     157  -2
   0   3   4     989     157   1
   1   3   4   28123    3143   1
   2   3   4    2831     263   1
   3   3   4    5679     519   1
   4   3   4   12249     634   1
   5   3   4    2959     346   1
   6   3   4   15828     786   1
  -7   4   4    2053     785   1
  -6   4   4    1111     360   1
  -5   4   4    2597     813   1
  -4   4   4    7381     472   1
  -3   4   4    9119     460   1
  -2   4   4   22458    1088   1
   1  -4   3   73566    3037  -2
  -1   4   4   73566    3037   1
   0  -4   4   36363    1272  -2
   0   4   4   36363    1272   1
   1   4   4   24584     940   1
   2   4   4   31819    1387   1
   3   4   4     576     250   1
   4   4   4   30058    1216   1
   5   4   4    1472     265   1
   6   4   4    9338     566   1
  -7   5   4       0     637   1
  -6   5   4    3156     468   1
  -5   5   4    2429     424   1
  -4   5   4   18729     920   1
  -3   5   4   19430     856   1
  -2   5   4   34028    1081   1
   1  -5   3   47965    1657  -2
  -1   5   4   47965    1657   1
   0  -5   4   15165     571  -2
   0   5   4   15165     571   1
   1   5   4   30285     984   1
   2   5   4    4634     380   1
   3   5   4    6984     461   1
   4   5   4   15165     858   1
   5   5   4     899     244   1
  -6   6   4    2819     478   1
  -5   6   4     100     332   1
  -4   6   4    4552     525   1
  -3   6   4     208     407   1
  -2   6   4    1220     302   1
   0  -6   4     667     275  -2
   0   6   4     667     275   1
  -1  -6   5   18226    2634  -2
   1   6   4   18226    2634   1
   2   6   4    2283     493   1
   3   6   4     860     270   1
   4   6   4    1007     308   1
   5   6   4     209     216   1
  -6   7   4     379     331   1
  -5   7   4       0     305   1
  -4   7   4    1054     528   1
  -3   7   4     497     406   1
  -2   7   4     670     285   1
   1  -7   3    1758     461  -2
  -1   7   4    1758     461   1
   0  -7   4    7980     501  -2
   0   7   4    7980     501   1
  -1  -7   5   20001    1177  -2
   1   7   4   20001    1177   1
   2   7   4    2437     515   1
   3   7   4    7798     527   1
   4   7   4     215     291   1
  -5   8   4    6302     648   1
  -4   8   4      29     577   1
  -3   8   4    5428     549   1
  -2   8   4   20021    1657   1
   1  -8   3    6442     931  -2
  -1   8   4    6442     931   1
   0  -8   4   54903    2615  -2
   0   8   4   54903    2615   1
  -1  -8   5    6083     461  -2
   1   8   4    6083     461   1
   2   8   4   21448     988   1
   3   8   4    3259     380   1
   4   8   4    8032     553   1
  -4   9   4       0     297   1
  -3   9   4    8144    1083   1
  -2   9   4    3815     641   1
   1  -9   3    9486     800  -2
  -1   9   4    9486     800   1
   0  -9   4   13730     980  -2
   0   9   4   13730     980   1
  -1  -9   5    8850    1155  -2
   1   9   4    8850    1155   1
   2   9   4    3817    1035   1
  -2  10   4    2204     763   1
   1 -10   3    9937     825  -2
  -1  10   4    9937     825   1
   0 -10   4    1626     426  -2
   0  10   4    1626     426   1
  -8   1   5    6931     889   1
  -7   1   5    1942     526   1
  -5   1   5    5785     390   1
  -4   1   5    1311     334   1
  -3   1   5    7870     503   1
  -2   1   5   41340    2428   1
   0  -1   5  110900    3127  -2
   0   1   5  110900    3127   1
   1   1   5    7458     331   1
   2   1   5   51665    1787   1
   3   1   5    1036     232   1
   4   1   5    9459     459   1
   5   1   5     187     180   1
   6   1   5     125     231   1
  -8   2   5       0     410   1
  -7   2   5    1476     484   1
  -6   2   5    1226     279   1
  -5   2   5   15182     687   1
  -4   2   5   19241     813   1
  -3   2   5   47307    1404   1
  -2   2   5   29751    1059   1
  -1   2   5   32967    1155   1
   0  -2   5     178     140  -2
   0   2   5     178     140   1
   1   2   5   23847     772   1
   2   2   5    3295     307   1
   3   2   5   10410     475   1
   4   2   5     386     238   1
   5   2   5     989     254   1
   6   2   5       0     215   1
  -7   3   5     826     470   1
  -6   3   5     163     269   1
  -5   3   5    3451     451   1
  -4   3   5    2494     279   1
  -3   3   5   54864    1638   1
  -2   3   5    7211     707   1
  -1   3   5   86037    2453   1
   0  -3   5   62996    2151  -2
   0   3   5   62996    2151   1
   1   3   5    9888     401   1
   2   3   5   97266    2817   1
   3   3   5     306     202   1
   4   3   5   36292    1420   1
   5   3   5     369     242   1
   6   3   5    3839     379   1
  -7   4   5    1173     503   1
  -6   4   5    2386     391   1
  -5   4   5   26712    1385   1
  -4   4   5   10482     717   1
  -3   4   5   61964    2311   1
  -2   4   5   20769     922   1
  -1   4   5   11432    1439   1
   0  -4   5   11064     452  -2
   0   4   5   11064     452   1
   1   4   5    5875     653   1
   2   4   5   19238     689   1
   3   4   5     162     238   1
   4   4   5   63469    2311   1
   5   4   5     305     233   1
  -7   5   5    1135     552   1
  -6   5   5     574     593   1
  -5   5   5    1634     383   1
  -4   5   5    3177    1128   1
  -3   5   5    9055     976   1
  -2   5   5   16082    1451   1
   0  -5   5   10295     514  -2
   0   5   5   10295     514   1
   1   5   5    7401     466   1
   2   5   5    2068     327   1
   3   5   5    7680     487   1
   4   5   5    1758     302   1
   5   5   5    1192     332   1
  -6   6   5   15330    1027   1
  -5   6   5    1022     352   1
  -4   6   5   13014    1219   1
  -3   6   5    7425    1106   1
  -2   6   5    3285     360   1
   1  -6   4   37068    1361  -2
  -1   6   5   37068    1361   1
   0  -6   5    8954     538  -2
   0   6   5    8954     538   1
   1   6   5   27961    1151   1
   2   6   5    5674    1120   1
   3   6   5    8209     914   1
   4   6   5     290     354   1
  -6   7   5   10072    1348   1
  -5   7   5    2047     417   1
  -4   7   5    1923     402   1
  -3   7   5    6892     886   1
  -2   7   5    2202     683   1
   1  -7   4   26353    1410  -2
  -1   7   5   26353    1410   1
   0  -7   5   15234     738  -2
   0   7   5   15234     738   1
  -1  -7   6   38054    1743  -2
   1   7   5   38054    1743   1
   2   7   5    6077     474   1
   3   7   5    6110     477   1
   4   7   5    2530     349   1
  -5   8   5       0     278   1
  -4   8   5    2791     563   1
  -3   8   5    2367     409   1
  -2   8   5    2160     678   1
   1  -8   4    8677     732  -2
  -1   8   5    8677     732   1
   0  -8   5    4308     547  -2
   0   8   5    4308     547   1
  -1  -8   6    1012     295  -2
   1   8   5    1012     295   1
   2   8   5       0     234   1
   3   8   5       0     205   1
  -3   9   5    1517     653   1
  -2   9   5    2414     757   1
   1  -9   4    5886    1001  -2
  -1   9   5    5886    1001   1
   0  -9   5     554     391  -2
   0   9   5     554     391   1
  -1  -9   6    4669     615  -2
   1   9   5    4669     615   1
   2   9   5     313     398   1
  -8   0   6    7239     883   1
  -7   0   6     484     388   1
  -6   0   6     566     353   1
  -5   0   6   16937    1290   1
  -4   0   6     224     303   1
  -3   0   6  154076    8423   1
  -2   0   6   34631    2108   1
  -1   0   6  312932   10098   1
   0   0   6   73822    3020  -2
   0   0   6   73822    3020   1
   1   0   6   79021    3276   1
   2   0   6   18019    1513   1
   3   0   6    1067     362   1
   4   0   6   12213     800   1
   5   0   6     469     303   1
   6   0   6    6225     497   1
  -8   1   6   10788    1135   1
  -7   1   6     203     176   1
  -6   1   6    8884     615   1
  -5   1   6    2969     376   1
  -4   1   6    1487     288   1
  -3   1   6   15748    1017   1
  -2   1   6    3226     858   1
  -1   1   6    7497     297   1
   0  -1   6    9392     369  -2
   0   1   6    9392     369   1
   1   1   6    1536     190   1
   2   1   6    2209     640   1
   3   1   6    3267     392   1
   4   1   6     783     223   1
   5   1   6   12563     571   1
  -7   2   6       0     355   1
  -6   2   6    3283     372   1
  -5   2   6     455     373   1
  -4   2   6       0     190   1
  -3   2   6     436     235   1
  -2   2   6   10742     512   1
  -1   2   6   18418     803   1
   0  -2   6     608     154  -2
   0   2   6     608     154   1
   1   2   6    7080     504   1
   2   2   6    4499     313   1
   3   2   6     924     250   1
   4   2   6     666     219   1
   5   2   6     285     277   1
  -7   3   6    4112     727   1
  -6   3   6     331     369   1
  -5   3   6   18234    1286   1
  -4   3   6     542     213   1
  -3   3   6   13167     600   1
  -2   3   6    3111     271   1
  -1   3   6    9499     462   1
   0  -3   6   37392    1154  -2
   0   3   6   37392    1154   1
   1   3   6   13220     565   1
   2   3   6   74447    2528   1
   3   3   6    9853     481   1
   4   3   6   38359    1503   1
   5   3   6    1806     294   1
  -7   4   6    2086     580   1
  -6   4   6     593     421   1
  -5   4   6   12959     899   1
  -4   4   6    2605     647   1
  -3   4   6   34036    1257   1
  -2   4   6   21314    1668   1
  -1   4   6   16607     609   1
   0  -4   6   76814    2637  -2
   0   4   6   76814    2637   1
   1   4   6     253     201   1
   2   4   6   50333    1847   1
   3   4   6    1316     376   1
   4   4   6   10083     584   1
   5   4   6     536     247   1
  -7   5   6       0     418   1
  -6   5   6    4689     705   1
  -5   5   6    1240     353   1
  -4   5   6    9321     689   1
  -3   5   6    3329     434   1
  -2   5   6    2753     412   1
  -1   5   6    5748     411   1
   0  -5   6    4061     321  -2
   0   5   6    4061     321   1
   2   5   6    4936     491   1
   3   5   6    1929     370   1
   4   5   6     675     268   1
  -6   6   6    1192     413   1
  -5   6   6     610     525   1
  -4   6   6     228     286   1
  -3   6   6    2020     498   1
  -2   6   6    2862     405   1
   0  -6   6    9203     655  -2
   0   6   6    9203     655   1
   1   6   6     927     286   1
   2   6   6    5126     639   1
   3   6   6      82     244   1
   4   6   6     546     270   1
  -5   7   6     518     296   1
  -4   7   6    2999     446   1
  -3   7   6    2456     491   1
  -2   7   6    4361     462   1
   1  -7   5     478     293  -2
  -1   7   6     478     293   1
   0  -7   6    2023     330  -2
   0   7   6    2023     330   1
   1   7   6   22198    2139   1
   2   7   6     179     227   1
   3   7   6     623     271   1
  -4   8   6    6199     767   1
  -3   8   6    1055     642   1
  -2   8   6     694     246   1
   1  -8   5     812     615  -2
  -1   8   6     812     615   1
   0  -8   6   19214    1728  -2
   0   8   6   19214    1728   1
   1   8   6    1006     329   1
   2   8   6    8817     591   1
  -3   9   6     426     366   1
  -2   9   6    6706    1006   1
   1  -9   5    5443     962  -2
  -1   9   6    5443     962   1
   0  -9   6    4899     962  -2
   0   9   6    4899     962   1
  -1  -9   7    7406    1137  -2
   1   9   6    7406    1137   1
  -7   1   7     410     379   1
  -6   1   7     841     283   1
  -5   1   7     346     269   1
  -4   1   7    9689     627   1
  -3   1   7     133     213   1
  -2   1   7   44092    2738   1
  -1   1   7    1489     203   1
   0  -1   7   39676    1214  -2
   0   1   7   39676    1214   1
   1   1   7     320     194   1
   2   1   7    3799     351   1
   3   1   7     318     218   1
   4   1   7       0     209   1
   5   1   7    2037     304   1
  -7   2   7     128     375   1
  -6   2   7    5088     488   1
  -5   2   7     319     272   1
  -4   2   7    9749     633   1
  -3   2   7     826     265   1
  -2   2   7    4878     394   1
  -1   2   7    8726     441   1
   0  -2   7   17987     631  -2
   0   2   7   17987     631   1
   1   2   7    7491     373   1
   2   2   7   10307    1137   1
   3   2   7    2044     315   1
   4   2   7     773     233   1
   5   2   7    2168     308   1
  -7   3   7    3912     711   1
  -6   3   7     760     396   1
  -5   3   7   19354    1027   1
  -4   3   7    5505     469   1
  -3   3   7   11323     673   1
  -2   3   7   61922    3711   1
  -1   3   7    9001     587   1
   0  -3   7   87967    2561  -2
   0   3   7   87967    2561   1
   1   3   7    7679     626   1
   2   3   7    6623     527   1
   3   3   7     458     249   1
   4   3   7       0     232   1
   5   3   7     207     306   1
  -7   4   7    3849     703   1
  -6   4   7    4150     670   1
  -5   4   7    1173     394   1
  -4   4   7    2454     519   1
  -3   4   7    1343     261   1
  -2   4   7   15652    1146   1
  -1   4   7     223     226   1
   0  -4   7  193398   11080  -2
   0   4   7  193398   11080   1
   1   4   7    3827     310   1
   2   4   7  125041    5169   1
   3   4   7    1505     298   1
   4   4   7   13439     787   1
  -6   5   7     183     301   1
  -5   5   7     648     366   1
  -4   5   7      71     339   1
  -3   5   7    2611     395   1
  -2   5   7    1020     249   1
  -1   5   7   20515     872   1
   0  -5   7     933     272  -2
   0   5   7     933     272   1
   1   5   7   10271     562   1
   2   5   7    4402     384   1
   3   5   7    1394     290   1
   4   5   7    6212     497   1
  -6   6   7    2264     487   1
  -5   6   7    1594     424   1
  -4   6   7    2629     400   1
  -3   6   7    4107     957   1
  -2   6   7    7536     850   1
  -1   6   7    1530     276   1
   0  -6   7    3680     458  -2
   0   6   7    3680     458   1
   1   6   7    3726     566   1
   2   6   7     186     239   1
   3   6   7   11539     668   1
  -5   7   7   12407    1208   1
  -4   7   7     506     362   1
  -3   7   7   26211    3072   1
  -2   7   7    4496     475   1
  -1   7   7   28947    2234   1
   0  -7   7    5410     700  -2
   0   7   7    5410     700   1
   1   7   7    2969     431   1
   2   7   7    5874     583   1
   3   7   7     278     268   1
  -4   8   7     972     311   1
  -3   8   7     578     257   1
  -2   8   7       0     569   1
  -1   8   7    1670     522   1
   0  -8   7     364     667  -2
   0   8   7     364     667   1
   1   8   7    1812     413   1
   2   8   7       5     306   1
  -2   9   7     123     413   1
   1  -9   6    4820     910  -2
  -1   9   7    4820     910   1
  -7   0   8   10167    1033   1
  -6   0   8     128     219   1
  -5   0   8   51756    3229   1
  -4   0   8    4024     607   1
  -3   0   8   57011    3404   1
  -2   0   8    9503     872   1
  -1   0   8    2666     470   1
   0   0   8   10977     932  -2
   0   0   8   10977     932   1
   1   0   8       0     301   1
   2   0   8   21689    2797   1
   3   0   8   11679     769   1
   4   0   8   12335    1214   1
  -7   1   8       0     223   1
  -6   1   8      37     254   1
  -5   1   8     560     503   1
  -4   1   8    2034     487   1
  -3   1   8    4914     445   1
  -2   1   8    7675     539   1
  -1   1   8      49     241   1
   0  -1   8    1068     218  -2
   0   1   8    1068     218   1
   1   1   8   27096     928   1
   2   1   8     222     221   1
   3   1   8   25517     949   1
   4   1   8      58     166   1
  -7   2   8     205     391   1
  -6   2   8     358     255   1
  -5   2   8       0     227   1
  -4   2   8    1332     303   1
  -3   2   8     631     274   1
  -2   2   8    2231     332   1
  -1   2   8    5218     820   1
   0  -2   8     661     231  -2
   0   2   8     661     231   1
   1   2   8    2299     275   1
   2   2   8    1343     255   1
   3   2   8     132     217   1
   4   2   8       0     241   1
  -7   3   8    1361     514   1
  -6   3   8       0     336   1
  -5   3   8     552     248   1
  -4   3   8    7638     574   1
  -3   3   8    2966     366   1
  -2   3   8   76131    3099   1
  -1   3   8   11014     557   1
   0  -3   8  180898    5843  -2
   0   3   8  180898    5843   1
   1   3   8    7900     471   1
   2   3   8   42922    2762   1
   3   3   8     874     241   1
   4   3   8       0     221   1
  -7   4   8    3964     689   1
  -6   4   8     271     375   1
  -5   4   8    6047     768   1
  -4   4   8    4248     426   1
  -3   4   8    1926     335   1
  -2   4   8   31685    1460   1
  -1   4   8    2412     306   1
   0  -4   8   18292     831  -2
   0   4   8   18292     831   1
   1   4   8    3335     923   1
   2   4   8    1610     297   1
   3   4   8      66     181   1
   4   4   8     273     389   1
  -6   5   8    1632     421   1
  -5   5   8       0     295   1
  -4   5   8     410     383   1
  -3   5   8     190    1072   1
  -2   5   8    2132    1243   1
  -1   5   8    7895     488   1
   0  -5   8       0     227  -2
   0   5   8       0     227   1
   1   5   8    3624     534   1
   2   5   8     865     325   1
   3   5   8    2738     532   1
  -5   6   8       0     287   1
  -4   6   8    1465     424   1
  -3   6   8     312     347   1
  -2   6   8    3669     420   1
  -1   6   8    3131     387   1
   0  -6   8    2019     406  -2
   0   6   8    2019     406   1
   1   6   8    1702     727   1
   2   6   8     129     239   1
   3   6   8     116     317   1
  -5   7   8    2488     500   1
  -4   7   8    1427     402   1
  -3   7   8    4935     683   1
  -2   7   8     663     533   1
  -1   7   8    2283     700   1
   0  -7   8     875     369  -2
   0   7   8     875     369   1
   1   7   8     557     660   1
   2   7   8     119     322   1
  -2   8   8    6028     932   1
  -1   8   8    4989     938   1
   0  -8   8    2800     757  -2
   0   8   8    2800     757   1
  -7   1   9    1067     315   1
  -6   1   9    1074     333   1
  -5   1   9     410     243   1
  -4   1   9    3190     387   1
  -3   1   9       0     279   1
  -2   1   9    1938     347   1
   0  -1   9     535     303  -2
   0   1   9     535     303   1
   2   1   9    2267     331   1
   3   1   9     784     239   1
   4   1   9     480     217   1
  -7   2   9     295     451   1
  -6   2   9    3804     614   1
  -5   2   9     194     268   1
  -4   2   9    6572     543   1
  -3   2   9     883     452   1
  -2   2   9   13598     791   1
  -1   2   9    1614     321   1
   0  -2   9    7970     658  -2
   0   2   9    7970     658   1
   1   2   9    3188     549   1
   2   2   9     774     330   1
   3   2   9    7312     434   1
   4   2   9     146     289   1
  -6   3   9    1687     539   1
  -5   3   9     706     249   1
  -4   3   9    2911     459   1
  -3   3   9     831     302   1
  -2   3   9     153     134   1
  -1   3   9    5552     471   1
   0  -3   9    6676     529  -2
   0   3   9    6676     529   1
   1   3   9    1202     245   1
   2   3   9    1223     366   1
   3   3   9     311     299   1
  -6   4   9    1605     418   1
  -5   4   9       0     279   1
  -4   4   9   36767    3355   1
  -3   4   9    4395     443   1
  -2   4   9  146026   18952   1
   0  -4   9   68061    2366  -2
   0   4   9   68061    2366   1
   1   4   9    2672     301   1
   2   4   9       0     346   1
   3   4   9     374     322   1
  -6   5   9     344     252   1
  -5   5   9    2739     530   1
  -4   5   9       0     243   1
  -3   5   9    6058     832   1
  -2   5   9    5120     473   1
  -1   5   9    5080     474   1
   0  -5   9   27871    1137  -2
   0   5   9   27871    1137   1
   1   5   9    1774     383   1
   2   5   9    6629    1780   1
  -5   6   9     744     303   1
  -4   6   9    2928     539   1
  -3   6   9     552     344   1
  -2   6   9    1113     422   1
  -1   6   9    4315     543   1
   0  -6   9    1495     390  -2
   0   6   9    1495     390   1
   1   6   9   10325     775   1
   2   6   9    2176    1031   1
  -4   7   9     317     301   1
  -3   7   9    4082     632   1
  -1   7   9    1419     664   1
   0  -7   9   10925     818  -2
   0   7   9   10925     818   1
   1   7   9    5037     574   1
  -6   0  10       0     350   1
  -5   0  10    2868     550   1
  -4   0  10      11     331   1
  -3   0  10     708     443   1
  -2   0  10   13115    1140   1
  -1   0  10   15441    1228   1
   0   0  10   23741    1698  -2
   0   0  10   23741    1698   1
   1   0  10   43103    2821   1
   2   0  10   13683    1307   1
   3   0  10   10154    1102   1
  -6   1  10     621     308   1
  -5   1  10    1318     454   1
  -4   1  10     601     468   1
  -3   1  10    3227     407   1
  -2   1  10      18     314   1
  -1   1  10   15479     872   1
   0  -1  10     905     282  -2
   0   1  10     905     282   1
   1   1  10    3538     438   1
   2   1  10     153     297   1
   3   1  10     314     307   1
  -6   2  10       0     267   1
  -5   2  10      24     259   1
  -4   2  10      13     210   1
  -3   2  10     217     247   1
  -2   2  10    1416     310   1
  -1   2  10    2110     390   1
   0  -2  10    1554     315  -2
   0   2  10    1554     315   1
   1   2  10    3638     793   1
   2   2  10     314     284   1
   3   2  10     392     292   1
  -6   3  10   10236    1129   1
  -5   3  10    2359     345   1
  -4   3  10   42483    2615   1
  -3   3  10    4038     722   1
  -2   3  10   53897    3197   1
  -1   3  10    1503     295   1
   0  -3  10    8046     605  -2
   0   3  10    8046     605   1
   1   3  10     893     304   1
   2   3  10     789     286   1
  -6   4  10     517     295   1
  -5   4  10     224     312   1
  -4   4  10     572     353   1
  -3   4  10     485     250   1
  -2   4  10     872     266   1
  -1   4  10    2840     372   1
   0  -4  10     690     306  -2
   0   4  10     690     306   1
   1   4  10    1662     329   1
   2   4  10    1227     562   1
  -5   5  10       0     232   1
  -4   5  10      79     271   1
  -3   5  10     634     375   1
  -2   5  10     491     252   1
  -1   5  10    2199     344   1
   0  -5  10    1902     326  -2
   0   5  10    1902     326   1
   1   5  10    3130     662   1
  -4   6  10     558     298   1
  -2   6  10     229     323   1
  -1   6  10    7830     919   1
   0  -6  10     342     241  -2
   0   6  10     342     241   1
   1   6  10     730     528   1
  -6   1  11       0     349   1
  -5   1  11     178     292   1
  -4   1  11     682     361   1
  -2   1  11    3290     465   1
  -1   1  11    2264     353   1
   0  -1  11    2413     358  -2
   0   1  11    2413     358   1
   1   1  11    1052     331   1
   2   1  11      98     260   1
  -6   2  11     586     316   1
  -5   2  11      31     254   1
  -4   2  11     651     235   1
  -3   2  11     246     279   1
  -2   2  11     558     273   1
  -1   2  11    2809     380   1
   0  -2  11     426     255  -2
   0   2  11     426     255   1
   1   2  11    5951     550   1
   2   2  11     954     317   1
  -5   3  11    1154     274   1
  -4   3  11    5137     499   1
  -3   3  11    2089     462   1
  -2   3  11    2885     385   1
  -1   3  11    1282     284   1
   0  -3  11    1594     317  -2
   0   3  11    1594     317   1
   1   3  11    1963     348   1
  -5   4  11    2715     514   1
  -4   4  11   19105    1296   1
  -3   4  11    2123     521   1
  -2   4  11      79     435   1
  -1   4  11    1033     336   1
   0  -4  11    6312     552  -2
   0   4  11    6312     552   1
   1   4  11    2977     686   1
  -4   5  11    6840     798   1
  -3   5  11    1121     287   1
  -2   5  11    5192     727   1
  -1   5  11    4106     580   1
   0  -5  11       0     462  -2
   0   5  11       0     462   1
  -2   6  11    4256     953   1
  -5   0  12    4208     694   1
  -4   0  12    4927     746   1
  -3   0  12   20010    1613   1
  -2   0  12   10241    1031   1
  -1   0  12   14536    1249   1
   0   0  12    5400     716  -2
   0   0  12    5400     716   1
   1   0  12    1274     440   1
  -5   1  12    1053     334   1
  -4   1  12     379     308   1
  -3   1  12     354     339   1
  -2   1  12     929     305   1
  -1   1  12    1902     422   1
   0  -1  12    1001     277  -2
   0   1  12    1001     277   1
   1   1  12    1308     323   1
  -5   2  12     192     205   1
  -4   2  12    1652     319   1
  -3   2  12    1917     353   1
  -2   2  12     208     237   1
  -1   2  12    3207     574   1
   0  -2  12    2032     344  -2
   0   2  12    2032     344   1
  -4   3  12    4551     477   1
  -3   3  12     396     223   1
  -2   3  12     537     239   1
  -1   3  12    1854     320   1
   0  -3  12    1088     450  -2
   0   3  12    1088     450   1
  -3   4  12    1001     275   1
  -2   4  12     148     388   1
  -1   4  12    3043     398   1
  -3   1  13     231     236   1
  -2   1  13     572     250   1
  -1   1  13    1296     280   1
  -3   2  13    1454     315   1
  -2   2  13     727     265   1
;
_shelx_hkl_checksum              20789
#END Tags that were not found in dictionaries
loop_
_space_group_symop_operation_xyz
'x, y, z'
'-x, y+1/2, -z+1/2'
'-x, -y, -z'
'x, -y-1/2, z-1/2'
loop_
_atom_site_label
_atom_site_type_symbol
_atom_site_fract_x
_atom_site_fract_y
_atom_site_fract_z
_atom_site_U_iso_or_equiv
_atom_site_adp_type
_atom_site_occupancy
_atom_site_site_symmetry_order
_atom_site_calc_flag
_atom_site_refinement_flags_posn
_atom_site_refinement_flags_adp
C1 C 0.8004(8) 0.3011(7) 0.6017(5) 0.0361(14) Uani 1 1 d . .
C2 C 0.7648(7) 0.4386(6) 0.5275(5) 0.0283(12) Uani 1 1 d . .
C3 C 0.8166(8) 0.5718(7) 0.5918(5) 0.0323(13) Uani 1 1 d . .
H3 H 0.8720 0.5706 0.6797 0.039 Uiso 1 1 calc R U
C4 C 0.7882(8) 0.7049(7) 0.5292(5) 0.0365(13) Uani 1 1 d . .
H4 H 0.8233 0.7959 0.5726 0.044 Uiso 1 1 calc R U
C5 C 0.7082(8) 0.7027(6) 0.4028(5) 0.0335(13) Uani 1 1 d . .
C6 C 0.6561(8) 0.5741(7) 0.3360(5) 0.0363(14) Uani 1 1 d . .
H6 H 0.6010 0.5771 0.2481 0.044 Uiso 1 1 calc R U
C7 C 0.6850(8) 0.4411(7) 0.3982(5) 0.0338(13) Uani 1 1 d . .
H7 H 0.6507 0.3509 0.3534 0.041 Uiso 1 1 calc R U
O1 O 0.8663(7) 0.2929(5) 0.7109(4) 0.0525(13) Uani 1 1 d . .
F1 F 0.6796(6) 0.8336(4) 0.3411(4) 0.0493(11) Uani 1 1 d . .
Cl1 Cl 0.7359(3) 0.13263(17) 0.51507(18) 0.0568(7) Uani 1 1 d . .
loop_
_atom_site_aniso_label
_atom_site_aniso_U_11
_atom_site_aniso_U_22
_atom_site_aniso_U_33
_atom_site_aniso_U_23
_atom_site_aniso_U_13
_atom_site_aniso_U_12
C1 0.037(3) 0.030(3) 0.042(3) 0.011(3) 0.012(2) 0.004(2)
C2 0.028(3) 0.019(3) 0.038(3) 0.004(2) 0.010(2) 0.0020(19)
C3 0.033(3) 0.036(3) 0.027(3) 0.000(2) 0.006(2) 0.002(2)
C4 0.036(3) 0.029(3) 0.044(3) -0.003(3) 0.011(2) -0.002(2)
C5 0.032(3) 0.030(3) 0.038(3) 0.006(2) 0.010(2) 0.003(2)
C6 0.034(3) 0.041(3) 0.030(3) 0.004(2) 0.004(2) 0.004(2)
C7 0.034(3) 0.035(3) 0.030(3) -0.004(2) 0.005(2) -0.001(2)
O1 0.072(3) 0.040(3) 0.040(2) 0.018(2) 0.007(2) 0.004(2)
F1 0.061(2) 0.033(2) 0.051(2) 0.0191(16) 0.0109(17) 0.0047(16)
Cl1 0.0687(12) 0.0258(10) 0.0713(13) 0.0008(8) 0.0127(9) -0.0009(7)
loop_
_atom_type_symbol
_atom_type_description
_atom_type_scat_dispersion_real
_atom_type_scat_dispersion_imag
_atom_type_scat_source
C C 0.0033 0.0016 'International Tables Vol C Tables 4.2.6.8 and 6.1.1.4'
H H 0.0000 0.0000 'International Tables Vol C Tables 4.2.6.8 and 6.1.1.4'
O O 0.0106 0.0060 'International Tables Vol C Tables 4.2.6.8 and 6.1.1.4'
F F 0.0171 0.0103 'International Tables Vol C Tables 4.2.6.8 and 6.1.1.4'
Cl Cl 0.1484 0.1585 'International Tables Vol C Tables 4.2.6.8 and 6.1.1.4'
loop_
_geom_angle_atom_site_label_1
_geom_angle_atom_site_label_2
_geom_angle_atom_site_label_3
_geom_angle
O1 C1 C2 126.2(6)
O1 C1 Cl1 118.2(5)
C2 C1 Cl1 115.6(4)
C3 C2 C7 119.4(5)
C3 C2 C1 117.1(5)
C7 C2 C1 123.5(5)
C4 C3 C2 120.6(5)
C4 C3 H3 119.7
C2 C3 H3 119.7
C5 C4 C3 118.2(6)
C5 C4 H4 120.9
C3 C4 H4 120.9
F1 C5 C4 118.3(5)
F1 C5 C6 118.7(5)
C4 C5 C6 123.0(5)
C5 C6 C7 118.9(5)
C5 C6 H6 120.5
C7 C6 H6 120.5
C6 C7 C2 119.9(5)
C6 C7 H7 120.1
C2 C7 H7 120.1
loop_
_geom_bond_atom_site_label_1
_geom_bond_atom_site_label_2
_geom_bond_distance
C1 O1 1.180(7)
C1 C2 1.474(8)
C1 Cl1 1.790(6)
C2 C3 1.394(8)
C2 C7 1.397(8)
C3 C4 1.376(9)
C3 H3 0.9500
C4 C5 1.366(8)
C4 H4 0.9500
C5 F1 1.353(7)
C5 C6 1.372(9)
C6 C7 1.373(9)
C6 H6 0.9500
C7 H7 0.9500
loop_
_geom_torsion_atom_site_label_1
_geom_torsion_atom_site_label_2
_geom_torsion_atom_site_label_3
_geom_torsion_atom_site_label_4
_geom_torsion
O1 C1 C2 C3 1.0(9)
Cl1 C1 C2 C3 -178.9(4)
O1 C1 C2 C7 -179.6(6)
Cl1 C1 C2 C7 0.4(7)
C7 C2 C3 C4 0.5(8)
C1 C2 C3 C4 179.9(5)
C2 C3 C4 C5 0.0(8)
C3 C4 C5 F1 179.8(5)
C3 C4 C5 C6 -0.3(9)
F1 C5 C6 C7 180.0(5)
C4 C5 C6 C7 0.1(9)
C5 C6 C7 C2 0.5(8)
C3 C2 C7 C6 -0.8(8)
C1 C2 C7 C6 179.9(5)
