#------------------------------------------------------------------------------
#$Date: 2016-03-24 14:18:17 +0200 (Thu, 24 Mar 2016) $
#$Revision: 179659 $
#$URL: svn://www.crystallography.net/cod/cif/4/51/12/4511248.cif $
#------------------------------------------------------------------------------
#
# This file is available in the Crystallography Open Database (COD),
# http://www.crystallography.net/
#
# All data on this site have been placed in the public domain by the
# contributors.
#
data_4511248
loop_
_publ_author_name
'P\'erez-Torralba, Marta'
'Garc\'ia, M. \'Angeles'
'L\'opez, Concepci\'on'
'Torralba, M. Carmen'
'Torres, M. Rosario'
'Claramunt, Rosa M.'
'Elguero, Jos\'e'
_publ_section_title
;
 Structural Investigation of Weak Intermolecular Interactions (Hydrogen
 and Halogen Bonds) in Fluorine-Substituted Benzimidazoles
;
_journal_issue                   7
_journal_name_full               'Crystal Growth &amp; Design'
_journal_page_first              3499
_journal_paper_doi               10.1021/cg500442k
_journal_volume                  14
_journal_year                    2014
_chemical_formula_sum            'C8 H4 F4 N2 O'
_chemical_formula_weight         220.13
_chemical_name_systematic
; 
 ? 
;
_space_group_IT_number           14
_symmetry_cell_setting           monoclinic
_symmetry_space_group_name_Hall  '-P 2yn'
_symmetry_space_group_name_H-M   'P 1 21/n 1'
_atom_sites_solution_hydrogens   geom
_atom_sites_solution_primary     direct
_atom_sites_solution_secondary   difmap
_audit_creation_method           SHELXL-97
_cell_angle_alpha                90.00
_cell_angle_beta                 101.503(2)
_cell_angle_gamma                90.00
_cell_formula_units_Z            4
_cell_length_a                   11.2581(11)
_cell_length_b                   5.4872(5)
_cell_length_c                   13.5463(13)
_cell_measurement_reflns_used    1923
_cell_measurement_temperature    296(2)
_cell_measurement_theta_max      26.07
_cell_measurement_theta_min      2.63
_cell_volume                     820.02(14)
_computing_cell_refinement       'Bruker SMART'
_computing_data_collection       'Bruker SMART'
_computing_data_reduction        'Bruker SAINT'
_computing_molecular_graphics    'Bruker SHELXTL'
_computing_publication_material  'Bruker SHELXTL'
_computing_structure_refinement  'SHELXL-97 (Sheldrick, 1997)'
_computing_structure_solution    'SHELXS-97 (Sheldrick, 1990)'
_diffrn_ambient_temperature      296(2)
_diffrn_measured_fraction_theta_full 0.990
_diffrn_measured_fraction_theta_max 0.990
_diffrn_measurement_device_type  'CCD area detector'
_diffrn_measurement_method       'phi and omega scans'
_diffrn_radiation_monochromator  graphite
_diffrn_radiation_source         'fine-focus sealed tube'
_diffrn_radiation_type           MoK\a
_diffrn_radiation_wavelength     0.71073
_diffrn_reflns_av_R_equivalents  0.0372
_diffrn_reflns_av_sigmaI/netI    0.0369
_diffrn_reflns_limit_h_max       14
_diffrn_reflns_limit_h_min       -14
_diffrn_reflns_limit_k_max       7
_diffrn_reflns_limit_k_min       -7
_diffrn_reflns_limit_l_max       13
_diffrn_reflns_limit_l_min       -17
_diffrn_reflns_number            7291
_diffrn_reflns_theta_full        27.99
_diffrn_reflns_theta_max         27.99
_diffrn_reflns_theta_min         2.15
_exptl_absorpt_coefficient_mu    0.182
_exptl_absorpt_correction_type   none
_exptl_crystal_colour            yellow
_exptl_crystal_density_diffrn    1.783
_exptl_crystal_density_method    'not measured'
_exptl_crystal_description       'thin plate'
_exptl_crystal_F_000             440
_exptl_crystal_size_max          0.45
_exptl_crystal_size_mid          0.32
_exptl_crystal_size_min          0.05
_refine_diff_density_max         0.171
_refine_diff_density_min         -0.162
_refine_diff_density_rms         0.036
_refine_ls_extinction_method     none
_refine_ls_goodness_of_fit_ref   0.995
_refine_ls_hydrogen_treatment    constr
_refine_ls_matrix_type           full
_refine_ls_number_parameters     137
_refine_ls_number_reflns         1962
_refine_ls_number_restraints     0
_refine_ls_restrained_S_all      0.995
_refine_ls_R_factor_all          0.0749
_refine_ls_R_factor_gt           0.0362
_refine_ls_shift/su_max          0.000
_refine_ls_shift/su_mean         0.000
_refine_ls_structure_factor_coef Fsqd
_refine_ls_weighting_details
'calc w=1/[\s^2^(Fo^2^)+(0.0518P)^2^+0.0000P] where P=(Fo^2^+2Fc^2^)/3'
_refine_ls_weighting_scheme      calc
_refine_ls_wR_factor_gt          0.0905
_refine_ls_wR_factor_ref         0.1045
_reflns_number_gt                1123
_reflns_number_total             1962
_reflns_threshold_expression     >2sigma(I)
_cod_data_source_file            cg500442k_si_001.cif
_cod_data_source_block           C8H4F4N2O_(4_polymorph_I)
_cod_depositor_comments
;
The following automatic conversions were performed:

'_symmetry_cell_setting' value 'Monoclinic' changed to 'monoclinic'
according to
/usr/data/users/saulius/crontab/automatic-downloads/rss-feeds/ACS/lib/dictionaries/cif_core.dic
dictionary named 'cif_core.dic' version 2.4.2 from 2011-04-26.

Automatic conversion script
Id: cif_fix_values 2281 2013-09-26 08:29:07Z andrius 

 Adding full bibliography for 4511245--4511251.cif.
;
_cod_original_cell_volume        820.02(13)
_cod_original_sg_symbol_H-M      P2(1)/n
_cod_database_code               4511248
loop_
_symmetry_equiv_pos_as_xyz
'x, y, z'
'-x+1/2, y+1/2, -z+1/2'
'-x, -y, -z'
'x-1/2, -y-1/2, z-1/2'
loop_
_atom_site_label
_atom_site_type_symbol
_atom_site_fract_x
_atom_site_fract_y
_atom_site_fract_z
_atom_site_U_iso_or_equiv
_atom_site_adp_type
_atom_site_occupancy
_atom_site_symmetry_multiplicity
_atom_site_calc_flag
_atom_site_refinement_flags
C2 C 0.51875(15) 0.7390(3) 0.10326(13) 0.0455(4) Uani 1 1 d .
C4 C 0.22029(16) 0.5128(3) -0.00231(13) 0.0499(5) Uani 1 1 d .
C5 C 0.16405(16) 0.3123(3) 0.02913(14) 0.0524(5) Uani 1 1 d .
C6 C 0.22176(17) 0.1760(3) 0.10946(14) 0.0512(5) Uani 1 1 d .
C7 C 0.33745(17) 0.2323(3) 0.15974(13) 0.0483(4) Uani 1 1 d .
C8 C 0.60403(18) 0.4506(3) 0.24203(15) 0.0639(6) Uani 1 1 d .
H8A H 0.6773 0.5388 0.2404 0.096 Uiso 1 1 calc R
H8B H 0.6171 0.2800 0.2326 0.096 Uiso 1 1 calc R
H8C H 0.5814 0.4755 0.3060 0.096 Uiso 1 1 calc R
C3A C 0.33470(15) 0.5714(3) 0.04784(12) 0.0430(4) Uani 1 1 d .
C7A C 0.39418(16) 0.4327(3) 0.12885(12) 0.0434(4) Uani 1 1 d .
F4 F 0.16463(10) 0.6443(2) -0.08194(9) 0.0737(4) Uani 1 1 d .
F5 F 0.05203(9) 0.2503(2) -0.01931(9) 0.0755(4) Uani 1 1 d .
F6 F 0.16506(11) -0.01869(19) 0.13882(9) 0.0747(4) Uani 1 1 d .
F7 F 0.39178(11) 0.09039(18) 0.23672(8) 0.0651(4) Uani 1 1 d .
N1 N 0.50775(13) 0.5378(2) 0.16203(10) 0.0459(4) Uani 1 1 d .
N3 N 0.41282(12) 0.7576(2) 0.03335(11) 0.0469(4) Uani 1 1 d .
H3 H 0.3985 0.8886 -0.0144 0.062(6) Uiso 1 1 d R
O1 O 0.60741(11) 0.8743(2) 0.11220(9) 0.0562(4) Uani 1 1 d .
loop_
_atom_site_aniso_label
_atom_site_aniso_U_11
_atom_site_aniso_U_22
_atom_site_aniso_U_33
_atom_site_aniso_U_23
_atom_site_aniso_U_13
_atom_site_aniso_U_12
C2 0.0488(11) 0.0428(9) 0.0462(10) -0.0052(8) 0.0128(9) -0.0027(8)
C4 0.0471(11) 0.0528(10) 0.0496(10) 0.0034(9) 0.0094(9) 0.0013(9)
C5 0.0438(11) 0.0565(11) 0.0584(12) -0.0063(9) 0.0136(9) -0.0106(9)
C6 0.0601(12) 0.0419(9) 0.0556(11) -0.0040(9) 0.0211(10) -0.0111(9)
C7 0.0634(12) 0.0396(9) 0.0442(10) 0.0017(8) 0.0162(9) -0.0008(8)
C8 0.0666(13) 0.0622(12) 0.0557(12) 0.0030(10) -0.0049(10) -0.0053(10)
C3A 0.0470(10) 0.0396(9) 0.0444(10) -0.0031(8) 0.0143(8) -0.0034(7)
C7A 0.0510(11) 0.0390(9) 0.0425(10) -0.0054(8) 0.0146(8) -0.0021(8)
F4 0.0591(7) 0.0825(8) 0.0738(8) 0.0236(7) -0.0008(6) -0.0058(6)
F5 0.0548(7) 0.0822(8) 0.0867(9) -0.0021(6) 0.0070(6) -0.0216(6)
F6 0.0838(9) 0.0624(7) 0.0807(9) 0.0058(6) 0.0233(7) -0.0277(6)
F7 0.0830(8) 0.0528(7) 0.0593(7) 0.0119(5) 0.0139(6) -0.0026(5)
N1 0.0484(9) 0.0429(8) 0.0451(8) -0.0017(7) 0.0063(7) -0.0042(7)
N3 0.0490(9) 0.0424(8) 0.0497(9) 0.0047(7) 0.0109(7) -0.0046(7)
O1 0.0547(8) 0.0539(7) 0.0593(8) -0.0004(6) 0.0097(6) -0.0139(6)
loop_
_atom_type_symbol
_atom_type_description
_atom_type_scat_dispersion_real
_atom_type_scat_dispersion_imag
_atom_type_scat_source
C C 0.0033 0.0016 'International Tables Vol C Tables 4.2.6.8 and 6.1.1.4'
H H 0.0000 0.0000 'International Tables Vol C Tables 4.2.6.8 and 6.1.1.4'
N N 0.0061 0.0033 'International Tables Vol C Tables 4.2.6.8 and 6.1.1.4'
O O 0.0106 0.0060 'International Tables Vol C Tables 4.2.6.8 and 6.1.1.4'
F F 0.0171 0.0103 'International Tables Vol C Tables 4.2.6.8 and 6.1.1.4'
loop_
_geom_angle_atom_site_label_1
_geom_angle_atom_site_label_2
_geom_angle_atom_site_label_3
_geom_angle
O1 C2 N3 126.87(16)
O1 C2 N1 126.14(16)
N3 C2 N1 106.99(14)
F4 C4 C3A 120.94(16)
F4 C4 C5 120.46(16)
C3A C4 C5 118.59(16)
F5 C5 C6 119.93(16)
F5 C5 C4 119.68(17)
C6 C5 C4 120.39(17)
F6 C6 C5 119.33(17)
F6 C6 C7 119.28(17)
C5 C6 C7 121.39(16)
F7 C7 C7A 122.01(17)
F7 C7 C6 119.43(15)
C7A C7 C6 118.55(16)
N1 C8 H8A 109.5
N1 C8 H8B 109.5
H8A C8 H8B 109.5
N1 C8 H8C 109.5
H8A C8 H8C 109.5
H8B C8 H8C 109.5
C4 C3A N3 131.50(16)
C4 C3A C7A 121.32(15)
N3 C3A C7A 107.17(15)
C7 C7A C3A 119.75(16)
C7 C7A N1 133.12(16)
C3A C7A N1 107.13(14)
C2 N1 C7A 109.08(14)
C2 N1 C8 123.64(15)
C7A N1 C8 127.23(14)
C2 N3 C3A 109.63(14)
C2 N3 H3 121.9
C3A N3 H3 128.4
loop_
_geom_bond_atom_site_label_1
_geom_bond_atom_site_label_2
_geom_bond_distance
C2 O1 1.2303(19)
C2 N3 1.371(2)
C2 N1 1.381(2)
C4 F4 1.344(2)
C4 C3A 1.369(2)
C4 C5 1.379(2)
C5 F5 1.344(2)
C5 C6 1.372(3)
C6 F6 1.3448(18)
C6 C7 1.379(2)
C7 F7 1.347(2)
C7 C7A 1.378(2)
C8 N1 1.452(2)
C8 H8A 0.9600
C8 H8B 0.9600
C8 H8C 0.9600
C3A N3 1.388(2)
C3A C7A 1.392(2)
C7A N1 1.393(2)
N3 H3 0.9587
loop_
_geom_hbond_atom_site_label_D
_geom_hbond_atom_site_label_H
_geom_hbond_atom_site_label_A
_geom_hbond_distance_DH
_geom_hbond_distance_HA
_geom_hbond_distance_DA
_geom_hbond_angle_DHA
_geom_hbond_site_symmetry_A
N3 H3 O1 0.96 1.85 2.8001(18) 171.1 3_675
loop_
_geom_torsion_atom_site_label_1
_geom_torsion_atom_site_label_2
_geom_torsion_atom_site_label_3
_geom_torsion_atom_site_label_4
_geom_torsion
F4 C4 C5 F5 -1.0(3)
C3A C4 C5 F5 -179.59(15)
F4 C4 C5 C6 178.98(16)
C3A C4 C5 C6 0.4(3)
F5 C5 C6 F6 0.0(3)
C4 C5 C6 F6 179.94(15)
F5 C5 C6 C7 178.92(15)
C4 C5 C6 C7 -1.1(3)
F6 C6 C7 F7 0.5(2)
C5 C6 C7 F7 -178.47(15)
F6 C6 C7 C7A -179.86(14)
C5 C6 C7 C7A 1.2(3)
F4 C4 C3A N3 0.9(3)
C5 C4 C3A N3 179.47(16)
F4 C4 C3A C7A -178.41(14)
C5 C4 C3A C7A 0.1(3)
F7 C7 C7A C3A 179.04(14)
C6 C7 C7A C3A -0.6(2)
F7 C7 C7A N1 -0.3(3)
C6 C7 C7A N1 -179.91(16)
C4 C3A C7A C7 0.0(2)
N3 C3A C7A C7 -179.52(14)
C4 C3A C7A N1 179.44(15)
N3 C3A C7A N1 -0.05(17)
O1 C2 N1 C7A 179.82(15)
N3 C2 N1 C7A -0.47(17)
O1 C2 N1 C8 -2.6(3)
N3 C2 N1 C8 177.06(14)
C7 C7A N1 C2 179.69(16)
C3A C7A N1 C2 0.33(18)
C7 C7A N1 C8 2.3(3)
C3A C7A N1 C8 -177.10(15)
O1 C2 N3 C3A -179.85(16)
N1 C2 N3 C3A 0.44(17)
C4 C3A N3 C2 -179.67(17)
C7A C3A N3 C2 -0.24(17)
