#------------------------------------------------------------------------------
#$Date: 2016-03-24 14:19:41 +0200 (Thu, 24 Mar 2016) $
#$Revision: 179660 $
#$URL: svn://www.crystallography.net/cod/cif/4/51/13/4511302.cif $
#------------------------------------------------------------------------------
#
# This file is available in the Crystallography Open Database (COD),
# http://www.crystallography.net/
#
# All data on this site have been placed in the public domain by the
# contributors.
#
data_4511302
loop_
_publ_author_name
'Tilborg, Ana\"elle'
'Springuel, G\'eraldine'
'Norberg, Bernadette'
'Wouters, Johan'
'Leyssens, Tom'
_publ_section_title
;
 How Cocrystallization Affects Solid-State Tautomerism: Stanozolol Case
 Study
;
_journal_issue                   7
_journal_name_full               'Crystal Growth &amp; Design'
_journal_page_first              3408
_journal_paper_doi               10.1021/cg500358h
_journal_volume                  14
_journal_year                    2014
_chemical_absolute_configuration rm
_chemical_formula_moiety         'C21 H32 N2 O, C11 H8 O3'
_chemical_formula_sum            'C32 H40 N2 O4'
_chemical_formula_weight         516.66
_chemical_name_common
;
 Stanozolol / 6-hydroxy-2-naphthoic acid
;
_chemical_name_systematic
;
 1S,10aS,12aS)-1,10a,12a-trimethyl-
1,2,3,3a,3b,4,5,5a,6,7,10,10a,10b,11,12,12a-
hexadecahydrocyclopenta[5,6]naphtho[1,2-f]indazol-1-ol 
6-hydroxy-2-naphthoic acid
;
_space_group_IT_number           1
_symmetry_cell_setting           triclinic
_symmetry_space_group_name_Hall  'P 1'
_symmetry_space_group_name_H-M   'P 1'
_atom_sites_solution_hydrogens   geom
_atom_sites_solution_primary     direct
_atom_sites_solution_secondary   difmap
_audit_creation_method           SHELXL-97
_audit_update_record
;
2014-02-26 # Formatted by publCIF
;
_cell_angle_alpha                83.337(6)
_cell_angle_beta                 86.973(6)
_cell_angle_gamma                75.431(7)
_cell_formula_units_Z            1
_cell_length_a                   7.9530(6)
_cell_length_b                   8.6403(7)
_cell_length_c                   10.4582(7)
_cell_measurement_reflns_used    4036
_cell_measurement_temperature    293(2)
_cell_measurement_theta_max      25.7010
_cell_measurement_theta_min      3.8710
_cell_volume                     690.63(9)
_computing_cell_refinement
;
CrysAlisPro, Agilent Technologies,
Version 1.171.36.28 (release 01-02-2013 CrysAlis171 .NET)
(compiled Feb  1 2013,16:14:44)
;
_computing_data_collection
;
CrysAlisPro, Agilent Technologies,
Version 1.171.36.28 (release 01-02-2013 CrysAlis171 .NET)
(compiled Feb  1 2013,16:14:44)
;
_computing_data_reduction
;
CrysAlisPro, Agilent Technologies,
Version 1.171.36.28 (release 01-02-2013 CrysAlis171 .NET)
(compiled Feb  1 2013,16:14:44)
;
_computing_structure_refinement  'SHELXL-97 (Sheldrick, 1997)'
_diffrn_ambient_temperature      293(2)
_diffrn_detector_area_resol_mean 5.1856
_diffrn_measured_fraction_theta_full 0.962
_diffrn_measured_fraction_theta_max 0.962
_diffrn_measurement_device_type  'Xcalibur, Ruby, Gemini ultra'
_diffrn_measurement_method       '\w scans'
_diffrn_radiation_monochromator  graphite
_diffrn_radiation_source         'fine-focus sealed tube'
_diffrn_radiation_type           MoK\a
_diffrn_radiation_wavelength     0.71073
_diffrn_reflns_av_R_equivalents  0.0323
_diffrn_reflns_av_sigmaI/netI    0.0426
_diffrn_reflns_limit_h_max       9
_diffrn_reflns_limit_h_min       -9
_diffrn_reflns_limit_k_max       10
_diffrn_reflns_limit_k_min       -10
_diffrn_reflns_limit_l_max       12
_diffrn_reflns_limit_l_min       -12
_diffrn_reflns_number            8869
_diffrn_reflns_theta_full        25.00
_diffrn_reflns_theta_max         25.02
_diffrn_reflns_theta_min         3.26
_exptl_absorpt_coefficient_mu    0.081
_exptl_absorpt_correction_T_max  0.994
_exptl_absorpt_correction_T_min  0.983
_exptl_absorpt_correction_type   multi-scan
_exptl_absorpt_process_details
;
CrysAlisPro, Agilent Technologies,
Version 1.171.36.28 (release 01-02-2013 CrysAlis171 .NET)
(compiled Feb  1 2013,16:14:44)
Empirical absorption correction using spherical harmonics,
 implemented in SCALE3 ABSPACK scaling algorithm.
;
_exptl_crystal_colour            colourless
_exptl_crystal_density_diffrn    1.242
_exptl_crystal_density_method    'not measured'
_exptl_crystal_description       block
_exptl_crystal_F_000             278
_exptl_crystal_size_max          0.53
_exptl_crystal_size_mid          0.18
_exptl_crystal_size_min          0.08
_refine_diff_density_max         0.221
_refine_diff_density_min         -0.176
_refine_diff_density_rms         0.031
_refine_ls_abs_structure_details 'Flack H D (1983), Acta Cryst. A39, 876-881'
_refine_ls_abs_structure_Flack   0.3(13)
_refine_ls_extinction_method     none
_refine_ls_goodness_of_fit_ref   1.032
_refine_ls_hydrogen_treatment    mixed
_refine_ls_matrix_type           full
_refine_ls_number_parameters     362
_refine_ls_number_reflns         4457
_refine_ls_number_restraints     4
_refine_ls_restrained_S_all      1.032
_refine_ls_R_factor_all          0.0537
_refine_ls_R_factor_gt           0.0465
_refine_ls_shift/su_max          0.000
_refine_ls_shift/su_mean         0.000
_refine_ls_structure_factor_coef Fsqd
_refine_ls_weighting_details
'calc w=1/[\s^2^(Fo^2^)+(0.0510P)^2^+0.0769P] where P=(Fo^2^+2Fc^2^)/3'
_refine_ls_weighting_scheme      calc
_refine_ls_wR_factor_gt          0.1025
_refine_ls_wR_factor_ref         0.1073
_reflns_number_gt                3966
_reflns_number_total             4457
_reflns_threshold_expression     >2sigma(I)
_iucr_refine_instructions_details
;
TITL bn_ATstannewcryst in P1
CELL  0.71073   7.9530   8.6403  10.4582   83.337   86.973   75.431
ZERR     1.00   0.0006   0.0007   0.0007    0.006    0.006    0.007
LATT  -1
SFAC  C    H    N    O
UNIT  32   40   2    4
MERG   2
SHEL 99 0.84
dfix 0.82 0.001 o3 h3O
FMAP   2
PLAN   10
SIZE     0.08   0.18   0.53
ACTA    50.00
BOND   $H
CONF
L.S.  10
TEMP    20.00
WGHT    0.051000    0.076900
FVAR       8.04319
C1    1    0.800277    0.404047   -0.070016    11.00000    0.04547    0.04974 =
         0.03594   -0.00036    0.00507   -0.01517
AFIX  43
H1    2    0.696520    0.480740   -0.087085    11.00000   -1.20000
AFIX   0
C2    1    0.838584    0.312241    0.048163    11.00000    0.04262    0.04190 =
         0.03078    0.00081    0.00737   -0.01197
C3    1    0.737841    0.300984    0.173304    11.00000    0.03871    0.04285 =
         0.02970    0.00216    0.00598   -0.00212
AFIX  23
H3A   2    0.619595    0.299983    0.155738    11.00000   -1.20000
H3B   2    0.733378    0.395002    0.217084    11.00000   -1.20000
AFIX   0
C4    1    0.821437    0.147256    0.262300    11.00000    0.03173    0.03808 =
         0.02677    0.00029    0.00538   -0.00690
C5    1    0.744399    0.163962    0.401130    11.00000    0.03095    0.03439 =
         0.03207    0.00026    0.00178   -0.00808
AFIX  13
H5    2    0.763099    0.264924    0.424362    11.00000   -1.20000
AFIX   0
C6    1    0.546141    0.183590    0.409761    11.00000    0.02917    0.04279 =
         0.03189    0.00240    0.00218   -0.00560
AFIX  23
H6A   2    0.490533    0.279289    0.354931    11.00000   -1.20000
H6B   2    0.519836    0.092086    0.376891    11.00000   -1.20000
AFIX   0
C7    1    0.469133    0.196918    0.546104    11.00000    0.02914    0.04716 =
         0.03578   -0.00019    0.00350   -0.00615
AFIX  23
H7A   2    0.477790    0.297630    0.574320    11.00000   -1.20000
H7B   2    0.347002    0.197599    0.545829    11.00000   -1.20000
AFIX   0
C8    1    0.562940    0.057755    0.640100    11.00000    0.02914    0.04141 =
         0.02921   -0.00381    0.00415   -0.01114
C9    1    0.520766    0.070051    0.785289    11.00000    0.04046    0.05493 =
         0.03213   -0.00361    0.00568   -0.01476
C10   1    0.680220   -0.049510    0.849206    11.00000    0.05401    0.09424 =
         0.03393    0.00281    0.00342   -0.00717
AFIX  23
H10A  2    0.708910   -0.010272    0.926415    11.00000   -1.20000
H10B  2    0.655512   -0.153616    0.872802    11.00000   -1.20000
AFIX   0
C11   1    0.832082   -0.064011    0.750772    11.00000    0.04251    0.07962 =
         0.03384    0.00016   -0.00219   -0.00984
AFIX  23
H11A  2    0.870452   -0.172836    0.727006    11.00000   -1.20000
H11B  2    0.929409   -0.034836    0.785191    11.00000   -1.20000
AFIX   0
C12   1    0.757255    0.054886    0.634043    11.00000    0.03215    0.04115 =
         0.03100   -0.00195   -0.00319   -0.00902
AFIX  13
H12   2    0.764936    0.161263    0.653117    11.00000   -1.20000
AFIX   0
C13   1    0.841415    0.031471    0.501680    11.00000    0.03008    0.03983 =
         0.03154   -0.00329    0.00284   -0.01033
AFIX  13
H13   2    0.832273   -0.072763    0.478532    11.00000   -1.20000
AFIX   0
C14   1    1.033716    0.031498    0.499954    11.00000    0.03026    0.05291 =
         0.04421    0.00301   -0.00144   -0.00702
AFIX  23
H14A  2    1.045532    0.132528    0.525582    11.00000   -1.20000
H14B  2    1.094539   -0.054653    0.561334    11.00000   -1.20000
AFIX   0
C15   1    1.114442    0.009090    0.367060    11.00000    0.02619    0.05064 =
         0.04541    0.00132    0.00312   -0.00510
AFIX  23
H15A  2    1.113222   -0.096877    0.345636    11.00000   -1.20000
H15B  2    1.234681    0.014744    0.367538    11.00000   -1.20000
AFIX   0
C16   1    1.019112    0.135352    0.264415    11.00000    0.03399    0.03459 =
         0.04182   -0.00274    0.00699   -0.00797
AFIX  13
H16   2    1.031472    0.239565    0.285273    11.00000   -1.20000
AFIX   0
C17   1    1.110127    0.107894    0.131781    11.00000    0.03841    0.05881 =
         0.04584   -0.00361    0.01483   -0.00385
AFIX  23
H17A  2    1.224881    0.127825    0.131241    11.00000   -1.20000
H17B  2    1.123100   -0.002611    0.114931    11.00000   -1.20000
AFIX   0
C18   1    1.003911    0.218774    0.030937    11.00000    0.04486    0.04295 =
         0.04075   -0.00021    0.00897   -0.00988
C19   1    0.787779   -0.000732    0.209972    11.00000    0.05104    0.05100 =
         0.03292   -0.00902    0.00321   -0.01476
AFIX 137
H19A  2    0.838195   -0.095497    0.265883    11.00000   -1.50000
H19B  2    0.839265   -0.010194    0.125220    11.00000   -1.50000
H19C  2    0.664829    0.010942    0.206085    11.00000   -1.50000
AFIX   0
C20   1    0.531635   -0.100048    0.604741    11.00000    0.04336    0.04674 =
         0.03244   -0.00428    0.00727   -0.01647
AFIX 137
H20A  2    0.575153   -0.117092    0.518796    11.00000   -1.50000
H20B  2    0.409298   -0.093959    0.609431    11.00000   -1.50000
H20C  2    0.590870   -0.187803    0.663878    11.00000   -1.50000
AFIX   0
C21   1    0.496508    0.235832    0.825854    11.00000    0.07023    0.07456 =
         0.05117   -0.02926    0.02161   -0.03145
AFIX 137
H21A  2    0.478645    0.231939    0.917556    11.00000   -1.50000
H21B  2    0.397223    0.307174    0.784292    11.00000   -1.50000
H21C  2    0.598175    0.274193    0.801604    11.00000   -1.50000
AFIX   0
N1    3    0.930060    0.368598   -0.155241    11.00000    0.05817    0.05648 =
         0.03495    0.00181    0.00945   -0.01843
N2    3    1.053936    0.254446   -0.091750    11.00000    0.04839    0.05942 =
         0.03616   -0.00135    0.01889   -0.01386
O1    4    0.359477    0.029890    0.827467    11.00000    0.05034    0.05164 =
         0.04590   -0.00577    0.01957   -0.01471
C31   1    0.303848    0.654547   -0.015148    11.00000    0.06608    0.03733 =
         0.03110    0.00036    0.01194   -0.00958
C32   1    0.143446    0.612212    0.003194    11.00000    0.07407    0.05949 =
         0.03506    0.00000    0.00504   -0.02692
AFIX  43
H32   2    0.080990    0.604297   -0.067455    11.00000   -1.20000
AFIX   0
C33   1    0.080528    0.583005    0.124800    11.00000    0.06398    0.06165 =
         0.04272   -0.00556    0.00303   -0.02700
AFIX  43
H33   2   -0.025677    0.555952    0.136587    11.00000   -1.20000
AFIX   0
C34   1    0.171910    0.592923    0.230821    11.00000    0.05591    0.03476 =
         0.03791   -0.00374    0.00675   -0.01590
C35   1    0.109152    0.561061    0.360315    11.00000    0.05944    0.03928 =
         0.04226   -0.00209    0.00442   -0.01623
AFIX  43
H35   2    0.005209    0.530050    0.373433    11.00000   -1.20000
AFIX   0
C36   1    0.198336    0.575253    0.463924    11.00000    0.06561    0.03623 =
         0.02946   -0.00229    0.00287   -0.01045
C37   1    0.358543    0.618457    0.444565    11.00000    0.05564    0.04126 =
         0.03847   -0.00497   -0.00149   -0.00671
AFIX  43
H37   2    0.420116    0.627126    0.515465    11.00000   -1.20000
AFIX   0
C38   1    0.424104    0.647560    0.323877    11.00000    0.04547    0.04938 =
         0.04735   -0.00510    0.00185   -0.01018
AFIX  43
H38   2    0.530240    0.674886    0.313200    11.00000   -1.20000
AFIX   0
C39   1    0.332761    0.636663    0.215274    11.00000    0.04905    0.03084 =
         0.04030   -0.00124   -0.00447   -0.00178
C40   1    0.397218    0.667694    0.086457    11.00000    0.05569    0.04524 =
         0.03791   -0.00324    0.00975   -0.00867
AFIX  43
H40   2    0.502242    0.696620    0.072634    11.00000   -1.20000
AFIX   0
C41   1    0.133390    0.544610    0.597307    11.00000    0.06209    0.03867 =
         0.03320    0.00107    0.00696   -0.01056
O2    4    0.369370    0.685495   -0.137389    11.00000    0.07926    0.06644 =
         0.02711   -0.00301    0.01243   -0.02914
O3    4    0.002095    0.477739    0.607096    11.00000    0.08669    0.08360 =
         0.03112   -0.00256    0.01016   -0.03507
O4    4    0.196573    0.576793    0.689552    11.00000    0.08767    0.07653 =
         0.03081   -0.01011    0.00638   -0.02591
H2O   2    0.308928    0.660666   -0.189747    11.00000    0.06882
H3O   2   -0.031017    0.460815    0.681817    11.00000    0.07964
H2N   2    1.151588    0.207863   -0.129423    11.00000    0.04979
H1O   2    0.378364   -0.071961    0.830614    11.00000    0.07982
HKLF    4
 
REM  bn_ATstannewcryst in P1
REM R1 =  0.0465 for   3966 Fo > 4sig(Fo)  and  0.0537 for all   4457 data
REM    362 parameters refined using      4 restraints
 
END
 
WGHT      0.0470      0.0858
REM Highest difference peak  0.221,  deepest hole -0.176,  1-sigma level  0.031
Q1    1   0.4519  0.6794  0.2076  11.00000  0.05    0.18
Q2    1   0.2629  0.6019  0.3894  11.00000  0.05    0.18
Q3    1   0.0170  0.5565  0.2308  11.00000  0.05    0.16
Q4    1   0.7969  0.1046  0.4561  11.00000  0.05    0.13
Q5    1   0.7875  0.1445  0.3362  11.00000  0.05    0.13
Q6    1   0.2158  0.6471  0.0668  11.00000  0.05    0.13
Q7    1   1.0935  0.0026  0.5802  11.00000  0.05    0.12
Q8    1   0.0803  0.6768  0.1722  11.00000  0.05    0.12
Q9    1   0.5378  0.0557  0.7120  11.00000  0.05    0.11
Q10   1   0.6755 -0.0780  0.9615  11.00000  0.05    0.11
;
_cod_data_source_file            cg500358h_si_005.cif
_cod_data_source_block           shelxl
_cod_depositor_comments
'Adding full bibliography for 4511300--4511302.cif.'
_cod_original_cell_volume        690.64(9)
_cod_original_sg_symbol_H-M      P1
_cod_database_code               4511302
loop_
_symmetry_equiv_pos_as_xyz
'x, y, z'
loop_
_atom_site_label
_atom_site_type_symbol
_atom_site_fract_x
_atom_site_fract_y
_atom_site_fract_z
_atom_site_U_iso_or_equiv
_atom_site_adp_type
_atom_site_occupancy
_atom_site_symmetry_multiplicity
_atom_site_calc_flag
_atom_site_refinement_flags
C1 C 0.8003(4) 0.4040(3) -0.0700(2) 0.0437(6) Uani 1 1 d .
H1 H 0.6965 0.4807 -0.0871 0.052 Uiso 1 1 calc R
C2 C 0.8386(3) 0.3122(3) 0.0482(2) 0.0388(6) Uani 1 1 d .
C3 C 0.7378(3) 0.3010(3) 0.1733(2) 0.0393(6) Uani 1 1 d .
H3A H 0.6196 0.3000 0.1557 0.047 Uiso 1 1 calc R
H3B H 0.7334 0.3950 0.2171 0.047 Uiso 1 1 calc R
C4 C 0.8214(3) 0.1473(3) 0.2623(2) 0.0330(6) Uani 1 1 d .
C5 C 0.7444(3) 0.1640(3) 0.4011(2) 0.0329(5) Uani 1 1 d .
H5 H 0.7631 0.2649 0.4244 0.039 Uiso 1 1 calc R
C6 C 0.5461(3) 0.1836(3) 0.4098(2) 0.0358(6) Uani 1 1 d .
H6A H 0.4905 0.2793 0.3549 0.043 Uiso 1 1 calc R
H6B H 0.5198 0.0921 0.3769 0.043 Uiso 1 1 calc R
C7 C 0.4691(3) 0.1969(3) 0.5461(2) 0.0385(6) Uani 1 1 d .
H7A H 0.4778 0.2976 0.5743 0.046 Uiso 1 1 calc R
H7B H 0.3470 0.1976 0.5458 0.046 Uiso 1 1 calc R
C8 C 0.5629(3) 0.0578(3) 0.6401(2) 0.0330(6) Uani 1 1 d .
C9 C 0.5208(3) 0.0701(3) 0.7853(2) 0.0423(6) Uani 1 1 d .
C10 C 0.6802(4) -0.0495(5) 0.8492(3) 0.0637(9) Uani 1 1 d .
H10A H 0.7089 -0.0103 0.9264 0.076 Uiso 1 1 calc R
H10B H 0.6555 -0.1536 0.8728 0.076 Uiso 1 1 calc R
C11 C 0.8321(4) -0.0640(4) 0.7508(3) 0.0534(8) Uani 1 1 d .
H11A H 0.8705 -0.1728 0.7270 0.064 Uiso 1 1 calc R
H11B H 0.9294 -0.0348 0.7852 0.064 Uiso 1 1 calc R
C12 C 0.7573(3) 0.0549(3) 0.6340(2) 0.0348(6) Uani 1 1 d .
H12 H 0.7649 0.1613 0.6531 0.042 Uiso 1 1 calc R
C13 C 0.8414(3) 0.0315(3) 0.5017(2) 0.0337(6) Uani 1 1 d .
H13 H 0.8323 -0.0728 0.4785 0.040 Uiso 1 1 calc R
C14 C 1.0337(3) 0.0315(4) 0.5000(3) 0.0437(6) Uani 1 1 d .
H14A H 1.0455 0.1325 0.5256 0.052 Uiso 1 1 calc R
H14B H 1.0945 -0.0547 0.5613 0.052 Uiso 1 1 calc R
C15 C 1.1144(3) 0.0091(3) 0.3671(2) 0.0422(6) Uani 1 1 d .
H15A H 1.1132 -0.0969 0.3456 0.051 Uiso 1 1 calc R
H15B H 1.2347 0.0147 0.3675 0.051 Uiso 1 1 calc R
C16 C 1.0191(3) 0.1354(3) 0.2644(2) 0.0373(6) Uani 1 1 d .
H16 H 1.0315 0.2396 0.2853 0.045 Uiso 1 1 calc R
C17 C 1.1101(4) 0.1079(4) 0.1318(3) 0.0499(7) Uani 1 1 d .
H17A H 1.2249 0.1278 0.1312 0.060 Uiso 1 1 calc R
H17B H 1.1231 -0.0026 0.1149 0.060 Uiso 1 1 calc R
C18 C 1.0039(3) 0.2188(3) 0.0309(3) 0.0437(7) Uani 1 1 d .
C19 C 0.7878(4) -0.0007(3) 0.2100(2) 0.0444(6) Uani 1 1 d .
H19A H 0.8382 -0.0955 0.2659 0.067 Uiso 1 1 calc R
H19B H 0.8393 -0.0102 0.1252 0.067 Uiso 1 1 calc R
H19C H 0.6648 0.0109 0.2061 0.067 Uiso 1 1 calc R
C20 C 0.5316(3) -0.1000(3) 0.6047(2) 0.0402(6) Uani 1 1 d .
H20A H 0.5752 -0.1171 0.5188 0.060 Uiso 1 1 calc R
H20B H 0.4093 -0.0940 0.6094 0.060 Uiso 1 1 calc R
H20C H 0.5909 -0.1878 0.6639 0.060 Uiso 1 1 calc R
C21 C 0.4965(4) 0.2358(4) 0.8259(3) 0.0619(9) Uani 1 1 d .
H21A H 0.4786 0.2319 0.9176 0.093 Uiso 1 1 calc R
H21B H 0.3972 0.3072 0.7843 0.093 Uiso 1 1 calc R
H21C H 0.5982 0.2742 0.8016 0.093 Uiso 1 1 calc R
N1 N 0.9301(3) 0.3686(3) -0.1552(2) 0.0500(6) Uani 1 1 d .
N2 N 1.0539(3) 0.2544(3) -0.0917(2) 0.0489(6) Uani 1 1 d .
O1 O 0.3595(2) 0.0299(3) 0.82747(18) 0.0496(5) Uani 1 1 d .
C31 C 0.3038(4) 0.6545(3) -0.0151(2) 0.0462(7) Uani 1 1 d .
C32 C 0.1434(4) 0.6122(4) 0.0032(3) 0.0550(8) Uani 1 1 d .
H32 H 0.0810 0.6043 -0.0675 0.066 Uiso 1 1 calc R
C33 C 0.0805(4) 0.5830(4) 0.1248(3) 0.0542(8) Uani 1 1 d .
H33 H -0.0257 0.5560 0.1366 0.065 Uiso 1 1 calc R
C34 C 0.1719(4) 0.5929(3) 0.2308(3) 0.0423(6) Uani 1 1 d .
C35 C 0.1092(4) 0.5611(3) 0.3603(3) 0.0467(7) Uani 1 1 d .
H35 H 0.0052 0.5301 0.3734 0.056 Uiso 1 1 calc R
C36 C 0.1983(4) 0.5753(3) 0.4639(2) 0.0444(7) Uani 1 1 d .
C37 C 0.3585(4) 0.6185(3) 0.4446(3) 0.0460(7) Uani 1 1 d .
H37 H 0.4201 0.6271 0.5155 0.055 Uiso 1 1 calc R
C38 C 0.4241(4) 0.6476(3) 0.3239(3) 0.0478(7) Uani 1 1 d .
H38 H 0.5302 0.6749 0.3132 0.057 Uiso 1 1 calc R
C39 C 0.3328(4) 0.6367(3) 0.2153(2) 0.0416(6) Uani 1 1 d .
C40 C 0.3972(4) 0.6677(3) 0.0865(3) 0.0475(7) Uani 1 1 d .
H40 H 0.5022 0.6966 0.0726 0.057 Uiso 1 1 calc R
C41 C 0.1334(4) 0.5446(3) 0.5973(3) 0.0457(7) Uani 1 1 d .
O2 O 0.3694(3) 0.6855(3) -0.13739(19) 0.0563(6) Uani 1 1 d .
O3 O 0.0021(3) 0.4777(3) 0.60710(18) 0.0653(6) Uani 1 1 d D
O4 O 0.1966(3) 0.5768(3) 0.68955(19) 0.0639(6) Uani 1 1 d .
H2O H 0.309(5) 0.661(4) -0.190(3) 0.069(11) Uiso 1 1 d .
H3O H -0.031(4) 0.461(4) 0.6818(11) 0.080(12) Uiso 1 1 d D
H2N H 1.152(4) 0.208(4) -0.129(3) 0.050(8) Uiso 1 1 d .
H1O H 0.378(5) -0.072(5) 0.831(4) 0.080(12) Uiso 1 1 d .
loop_
_atom_site_aniso_label
_atom_site_aniso_U_11
_atom_site_aniso_U_22
_atom_site_aniso_U_33
_atom_site_aniso_U_23
_atom_site_aniso_U_13
_atom_site_aniso_U_12
C1 0.0455(15) 0.0497(17) 0.0359(15) -0.0004(12) 0.0051(12) -0.0152(13)
C2 0.0426(15) 0.0419(15) 0.0308(14) 0.0008(11) 0.0074(11) -0.0120(13)
C3 0.0387(15) 0.0429(15) 0.0297(14) 0.0022(12) 0.0060(11) -0.0021(12)
C4 0.0317(13) 0.0381(14) 0.0268(13) 0.0003(10) 0.0054(10) -0.0069(11)
C5 0.0309(13) 0.0344(13) 0.0321(13) 0.0003(10) 0.0018(10) -0.0081(11)
C6 0.0292(13) 0.0428(14) 0.0319(14) 0.0024(11) 0.0022(10) -0.0056(12)
C7 0.0291(13) 0.0472(15) 0.0358(14) -0.0002(12) 0.0035(11) -0.0061(12)
C8 0.0291(13) 0.0414(14) 0.0292(13) -0.0038(11) 0.0042(10) -0.0111(11)
C9 0.0405(15) 0.0549(17) 0.0321(14) -0.0036(12) 0.0057(11) -0.0148(14)
C10 0.0540(19) 0.094(3) 0.0339(16) 0.0028(16) 0.0034(14) -0.0072(18)
C11 0.0425(16) 0.080(2) 0.0338(15) 0.0002(14) -0.0022(12) -0.0098(15)
C12 0.0322(13) 0.0411(14) 0.0310(14) -0.0019(11) -0.0032(11) -0.0090(12)
C13 0.0301(13) 0.0398(14) 0.0315(14) -0.0033(11) 0.0028(10) -0.0103(11)
C14 0.0303(13) 0.0529(17) 0.0442(15) 0.0030(13) -0.0014(11) -0.0070(12)
C15 0.0262(13) 0.0506(16) 0.0454(15) 0.0013(12) 0.0031(11) -0.0051(12)
C16 0.0340(14) 0.0346(14) 0.0418(15) -0.0027(11) 0.0070(11) -0.0080(12)
C17 0.0384(15) 0.0588(18) 0.0458(17) -0.0036(14) 0.0148(12) -0.0038(14)
C18 0.0449(16) 0.0429(16) 0.0407(16) -0.0002(12) 0.0090(12) -0.0099(13)
C19 0.0510(16) 0.0510(16) 0.0329(14) -0.0090(12) 0.0032(12) -0.0148(14)
C20 0.0434(14) 0.0467(16) 0.0324(14) -0.0043(12) 0.0073(11) -0.0165(13)
C21 0.070(2) 0.075(2) 0.0512(18) -0.0293(16) 0.0216(15) -0.0315(18)
N1 0.0582(15) 0.0565(15) 0.0349(13) 0.0018(11) 0.0094(12) -0.0184(14)
N2 0.0484(15) 0.0594(16) 0.0362(13) -0.0013(12) 0.0189(12) -0.0139(13)
O1 0.0503(12) 0.0516(13) 0.0459(11) -0.0058(10) 0.0196(9) -0.0147(10)
C31 0.0661(19) 0.0373(15) 0.0311(15) 0.0004(12) 0.0119(13) -0.0096(14)
C32 0.074(2) 0.0595(19) 0.0351(16) 0.0000(14) 0.0050(14) -0.0269(17)
C33 0.0640(19) 0.062(2) 0.0427(17) -0.0056(14) 0.0030(14) -0.0270(16)
C34 0.0559(17) 0.0348(14) 0.0379(15) -0.0037(12) 0.0067(12) -0.0159(13)
C35 0.0594(18) 0.0393(16) 0.0423(16) -0.0021(13) 0.0044(14) -0.0162(14)
C36 0.0656(19) 0.0362(15) 0.0295(15) -0.0023(11) 0.0029(13) -0.0105(14)
C37 0.0556(17) 0.0413(16) 0.0385(16) -0.0050(13) -0.0015(13) -0.0067(14)
C38 0.0455(16) 0.0494(17) 0.0473(17) -0.0051(14) 0.0018(13) -0.0102(14)
C39 0.0490(16) 0.0308(13) 0.0403(15) -0.0012(12) -0.0045(12) -0.0018(13)
C40 0.0557(17) 0.0452(16) 0.0379(16) -0.0032(12) 0.0098(13) -0.0087(14)
C41 0.0621(19) 0.0387(15) 0.0332(16) 0.0011(12) 0.0070(13) -0.0106(15)
O2 0.0793(15) 0.0664(14) 0.0271(11) -0.0030(9) 0.0124(10) -0.0291(12)
O3 0.0867(16) 0.0836(16) 0.0311(12) -0.0026(11) 0.0102(11) -0.0351(14)
O4 0.0877(16) 0.0765(15) 0.0308(11) -0.0101(10) 0.0064(10) -0.0259(13)
loop_
_atom_type_symbol
_atom_type_description
_atom_type_scat_dispersion_real
_atom_type_scat_dispersion_imag
_atom_type_scat_source
C C 0.0033 0.0016 'International Tables Vol C Tables 4.2.6.8 and 6.1.1.4'
H H 0.0000 0.0000 'International Tables Vol C Tables 4.2.6.8 and 6.1.1.4'
N N 0.0061 0.0033 'International Tables Vol C Tables 4.2.6.8 and 6.1.1.4'
O O 0.0106 0.0060 'International Tables Vol C Tables 4.2.6.8 and 6.1.1.4'
loop_
_geom_angle_atom_site_label_1
_geom_angle_atom_site_label_2
_geom_angle_atom_site_label_3
_geom_angle
N1 C1 C2 111.7(2)
N1 C1 H1 124.2
C2 C1 H1 124.2
C18 C2 C1 104.5(2)
C18 C2 C3 122.2(2)
C1 C2 C3 133.3(2)
C2 C3 C4 111.6(2)
C2 C3 H3A 109.3
C4 C3 H3A 109.3
C2 C3 H3B 109.3
C4 C3 H3B 109.3
H3A C3 H3B 108.0
C19 C4 C16 110.7(2)
C19 C4 C3 109.6(2)
C16 C4 C3 107.50(19)
C19 C4 C5 111.01(19)
C16 C4 C5 108.64(19)
C3 C4 C5 109.23(19)
C13 C5 C6 112.37(18)
C13 C5 C4 113.20(19)
C6 C5 C4 113.22(19)
C13 C5 H5 105.7
C6 C5 H5 105.7
C4 C5 H5 105.7
C7 C6 C5 113.8(2)
C7 C6 H6A 108.8
C5 C6 H6A 108.8
C7 C6 H6B 108.8
C5 C6 H6B 108.8
H6A C6 H6B 107.7
C8 C7 C6 111.5(2)
C8 C7 H7A 109.3
C6 C7 H7A 109.3
C8 C7 H7B 109.3
C6 C7 H7B 109.3
H7A C7 H7B 108.0
C7 C8 C20 109.4(2)
C7 C8 C12 108.22(18)
C20 C8 C12 111.7(2)
C7 C8 C9 117.2(2)
C20 C8 C9 108.98(19)
C12 C8 C9 101.00(19)
O1 C9 C21 102.9(2)
O1 C9 C10 112.2(2)
C21 C9 C10 111.5(3)
O1 C9 C8 113.5(2)
C21 C9 C8 114.6(2)
C10 C9 C8 102.5(2)
C11 C10 C9 107.3(2)
C11 C10 H10A 110.3
C9 C10 H10A 110.3
C11 C10 H10B 110.3
C9 C10 H10B 110.3
H10A C10 H10B 108.5
C10 C11 C12 104.4(2)
C10 C11 H11A 110.9
C12 C11 H11A 110.9
C10 C11 H11B 110.9
C12 C11 H11B 110.9
H11A C11 H11B 108.9
C13 C12 C8 113.61(19)
C13 C12 C11 119.5(2)
C8 C12 C11 103.82(19)
C13 C12 H12 106.4
C8 C12 H12 106.4
C11 C12 H12 106.4
C12 C13 C14 111.72(19)
C12 C13 C5 110.0(2)
C14 C13 C5 110.04(19)
C12 C13 H13 108.3
C14 C13 H13 108.3
C5 C13 H13 108.3
C15 C14 C13 110.8(2)
C15 C14 H14A 109.5
C13 C14 H14A 109.5
C15 C14 H14B 109.5
C13 C14 H14B 109.5
H14A C14 H14B 108.1
C14 C15 C16 112.3(2)
C14 C15 H15A 109.1
C16 C15 H15A 109.1
C14 C15 H15B 109.1
C16 C15 H15B 109.1
H15A C15 H15B 107.9
C15 C16 C17 109.7(2)
C15 C16 C4 113.78(19)
C17 C16 C4 112.6(2)
C15 C16 H16 106.8
C17 C16 H16 106.8
C4 C16 H16 106.8
C18 C17 C16 109.0(2)
C18 C17 H17A 109.9
C16 C17 H17A 109.9
C18 C17 H17B 109.9
C16 C17 H17B 109.9
H17A C17 H17B 108.3
N2 C18 C2 107.2(2)
N2 C18 C17 126.8(2)
C2 C18 C17 125.8(2)
C4 C19 H19A 109.5
C4 C19 H19B 109.5
H19A C19 H19B 109.5
C4 C19 H19C 109.5
H19A C19 H19C 109.5
H19B C19 H19C 109.5
C8 C20 H20A 109.5
C8 C20 H20B 109.5
H20A C20 H20B 109.5
C8 C20 H20C 109.5
H20A C20 H20C 109.5
H20B C20 H20C 109.5
C9 C21 H21A 109.5
C9 C21 H21B 109.5
H21A C21 H21B 109.5
C9 C21 H21C 109.5
H21A C21 H21C 109.5
H21B C21 H21C 109.5
C1 N1 N2 105.0(2)
N1 N2 C18 111.6(2)
N1 N2 H2N 122.2(19)
C18 N2 H2N 126.1(19)
C9 O1 H1O 107(2)
C40 C31 O2 118.1(3)
C40 C31 C32 121.3(2)
O2 C31 C32 120.6(3)
C33 C32 C31 119.7(3)
C33 C32 H32 120.2
C31 C32 H32 120.2
C32 C33 C34 121.0(3)
C32 C33 H33 119.5
C34 C33 H33 119.5
C33 C34 C39 120.5(2)
C33 C34 C35 122.1(3)
C39 C34 C35 117.4(2)
C36 C35 C34 121.5(3)
C36 C35 H35 119.3
C34 C35 H35 119.2
C35 C36 C37 119.5(2)
C35 C36 C41 121.8(3)
C37 C36 C41 118.8(2)
C38 C37 C36 121.1(3)
C38 C37 H37 119.5
C36 C37 H37 119.5
C37 C38 C39 120.5(3)
C37 C38 H38 119.7
C39 C38 H38 119.7
C38 C39 C34 120.1(2)
C38 C39 C40 122.1(3)
C34 C39 C40 117.8(2)
C31 C40 C39 119.6(3)
C31 C40 H40 120.2
C39 C40 H40 120.2
O4 C41 O3 122.5(2)
O4 C41 C36 123.0(3)
O3 C41 C36 114.5(3)
C31 O2 H2O 109(3)
C41 O3 H3O 113(3)
loop_
_geom_bond_atom_site_label_1
_geom_bond_atom_site_label_2
_geom_bond_distance
C1 N1 1.327(3)
C1 C2 1.393(3)
C1 H1 0.9300
C2 C18 1.374(4)
C2 C3 1.504(3)
C3 C4 1.551(3)
C3 H3A 0.9700
C3 H3B 0.9700
C4 C19 1.535(4)
C4 C16 1.551(3)
C4 C5 1.554(3)
C5 C13 1.541(3)
C5 C6 1.542(3)
C5 H5 0.9800
C6 C7 1.527(3)
C6 H6A 0.9700
C6 H6B 0.9700
C7 C8 1.523(3)
C7 H7A 0.9700
C7 H7B 0.9700
C8 C20 1.535(4)
C8 C12 1.537(3)
C8 C9 1.548(3)
C9 O1 1.445(3)
C9 C21 1.504(4)
C9 C10 1.547(4)
C10 C11 1.535(4)
C10 H10A 0.9700
C10 H10B 0.9700
C11 C12 1.542(4)
C11 H11A 0.9700
C11 H11B 0.9700
C12 C13 1.518(3)
C12 H12 0.9800
C13 C14 1.529(3)
C13 H13 0.9800
C14 C15 1.512(4)
C14 H14A 0.9700
C14 H14B 0.9700
C15 C16 1.522(3)
C15 H15A 0.9700
C15 H15B 0.9700
C16 C17 1.545(3)
C16 H16 0.9800
C17 C18 1.482(4)
C17 H17A 0.9700
C17 H17B 0.9700
C18 N2 1.347(3)
C19 H19A 0.9600
C19 H19B 0.9600
C19 H19C 0.9600
C20 H20A 0.9600
C20 H20B 0.9600
C20 H20C 0.9600
C21 H21A 0.9600
C21 H21B 0.9600
C21 H21C 0.9600
N1 N2 1.346(3)
N2 H2N 0.88(3)
O1 H1O 0.85(4)
C31 C40 1.359(4)
C31 O2 1.378(3)
C31 C32 1.411(4)
C32 C33 1.361(4)
C32 H32 0.9300
C33 C34 1.380(4)
C33 H33 0.9300
C34 C39 1.419(4)
C34 C35 1.439(4)
C35 C36 1.359(4)
C35 H35 0.9300
C36 C37 1.414(4)
C36 C41 1.480(4)
C37 C38 1.361(4)
C37 H37 0.9300
C38 C39 1.405(4)
C38 H38 0.9300
C39 C40 1.436(4)
C40 H40 0.9300
C41 O4 1.202(3)
C41 O3 1.309(4)
O2 H2O 0.83(3)
O3 H3O 0.8201(10)
loop_
_geom_torsion_atom_site_label_1
_geom_torsion_atom_site_label_2
_geom_torsion_atom_site_label_3
_geom_torsion_atom_site_label_4
_geom_torsion
N1 C1 C2 C18 1.1(3)
N1 C1 C2 C3 -177.9(3)
C18 C2 C3 C4 -14.5(4)
C1 C2 C3 C4 164.4(3)
C2 C3 C4 C19 -73.2(3)
C2 C3 C4 C16 47.2(3)
C2 C3 C4 C5 164.9(2)
C19 C4 C5 C13 69.1(3)
C16 C4 C5 C13 -52.9(2)
C3 C4 C5 C13 -169.9(2)
C19 C4 C5 C6 -60.3(3)
C16 C4 C5 C6 177.7(2)
C3 C4 C5 C6 60.7(3)
C13 C5 C6 C7 49.1(3)
C4 C5 C6 C7 178.9(2)
C5 C6 C7 C8 -53.1(3)
C6 C7 C8 C20 -65.5(3)
C6 C7 C8 C12 56.5(3)
C6 C7 C8 C9 169.7(2)
C7 C8 C9 O1 79.2(3)
C20 C8 C9 O1 -45.7(3)
C12 C8 C9 O1 -163.5(2)
C7 C8 C9 C21 -38.6(3)
C20 C8 C9 C21 -163.5(2)
C12 C8 C9 C21 78.7(3)
C7 C8 C9 C10 -159.5(2)
C20 C8 C9 C10 75.5(3)
C12 C8 C9 C10 -42.2(3)
O1 C9 C10 C11 146.9(3)
C21 C9 C10 C11 -98.3(3)
C8 C9 C10 C11 24.8(3)
C9 C10 C11 C12 2.6(3)
C7 C8 C12 C13 -60.3(3)
C20 C8 C12 C13 60.3(3)
C9 C8 C12 C13 176.0(2)
C7 C8 C12 C11 168.4(2)
C20 C8 C12 C11 -71.0(2)
C9 C8 C12 C11 44.7(3)
C10 C11 C12 C13 -157.1(2)
C10 C11 C12 C8 -29.3(3)
C8 C12 C13 C14 179.3(2)
C11 C12 C13 C14 -57.6(3)
C8 C12 C13 C5 56.8(3)
C11 C12 C13 C5 179.9(2)
C6 C5 C13 C12 -49.5(3)
C4 C5 C13 C12 -179.3(2)
C6 C5 C13 C14 -173.0(2)
C4 C5 C13 C14 57.2(3)
C12 C13 C14 C15 -179.6(2)
C5 C13 C14 C15 -57.1(3)
C13 C14 C15 C16 56.1(3)
C14 C15 C16 C17 178.8(2)
C14 C15 C16 C4 -54.0(3)
C19 C4 C16 C15 -71.3(3)
C3 C4 C16 C15 168.9(2)
C5 C4 C16 C15 50.8(3)
C19 C4 C16 C17 54.3(3)
C3 C4 C16 C17 -65.4(3)
C5 C4 C16 C17 176.5(2)
C15 C16 C17 C18 173.2(2)
C4 C16 C17 C18 45.3(3)
C1 C2 C18 N2 -1.2(3)
C3 C2 C18 N2 178.0(2)
C1 C2 C18 C17 175.2(3)
C3 C2 C18 C17 -5.6(4)
C16 C17 C18 N2 165.9(3)
C16 C17 C18 C2 -9.7(4)
C2 C1 N1 N2 -0.6(3)
C1 N1 N2 C18 -0.2(3)
C2 C18 N2 N1 0.9(3)
C17 C18 N2 N1 -175.4(3)
C40 C31 C32 C33 -0.3(4)
O2 C31 C32 C33 -179.6(3)
C31 C32 C33 C34 -0.5(5)
C32 C33 C34 C39 1.1(4)
C32 C33 C34 C35 -179.4(3)
C33 C34 C35 C36 -178.3(3)
C39 C34 C35 C36 1.3(4)
C34 C35 C36 C37 -1.6(4)
C34 C35 C36 C41 179.2(2)
C35 C36 C37 C38 0.6(4)
C41 C36 C37 C38 179.9(3)
C36 C37 C38 C39 0.6(4)
C37 C38 C39 C34 -0.9(4)
C37 C38 C39 C40 179.5(3)
C33 C34 C39 C38 179.5(3)
C35 C34 C39 C38 0.0(3)
C33 C34 C39 C40 -0.8(4)
C35 C34 C39 C40 179.6(2)
O2 C31 C40 C39 179.9(2)
C32 C31 C40 C39 0.6(4)
C38 C39 C40 C31 179.7(3)
C34 C39 C40 C31 0.0(4)
C35 C36 C41 O4 -169.7(3)
C37 C36 C41 O4 11.1(4)
C35 C36 C41 O3 11.0(4)
C37 C36 C41 O3 -168.2(2)
