#------------------------------------------------------------------------------
#$Date: 2016-03-24 14:23:22 +0200 (Thu, 24 Mar 2016) $
#$Revision: 179662 $
#$URL: svn://www.crystallography.net/cod/cif/4/51/15/4511588.cif $
#------------------------------------------------------------------------------
#
# This file is available in the Crystallography Open Database (COD),
# http://www.crystallography.net/
#
# All data on this site have been placed in the public domain by the
# contributors.
#
data_4511588
loop_
_publ_author_name
'SeethaLekshmi, Sunil'
'Varughese, Sunil'
'Giri, Lopamudra'
'Pedireddi, V. R.'
_publ_section_title
;
 Molecular Complexes of 4-Halophenylboronic Acids: A Systematic
 Exploration of Isostructurality and Structural Landscape
;
_journal_issue                   8
_journal_name_full               'Crystal Growth &amp; Design'
_journal_page_first              4143
_journal_paper_doi               10.1021/cg500750p
_journal_volume                  14
_journal_year                    2014
_chemical_formula_moiety         'C13 H9 N, C6 H6 B Br O2'
_chemical_formula_sum            'C19 H15 B Br N O2'
_chemical_formula_weight         380.04
_chemical_name_systematic
; 
 ? 
;
_space_group_IT_number           2
_symmetry_cell_setting           triclinic
_symmetry_space_group_name_Hall  '-P 1'
_symmetry_space_group_name_H-M   'P -1'
_atom_sites_solution_hydrogens   geom
_atom_sites_solution_primary     direct
_atom_sites_solution_secondary   difmap
_audit_creation_method           SHELXL-97
_cell_angle_alpha                109.402(10)
_cell_angle_beta                 104.453(4)
_cell_angle_gamma                94.515(5)
_cell_formula_units_Z            2
_cell_length_a                   7.218(4)
_cell_length_b                   11.132(6)
_cell_length_c                   11.861(7)
_cell_measurement_reflns_used    1433
_cell_measurement_temperature    301(2)
_cell_measurement_theta_max      27.5
_cell_measurement_theta_min      3.0
_cell_volume                     856.7(8)
_computing_cell_refinement
;
CrystalClear-SM Expert 2.0 r14k (Rigaku, 2012)
;
_computing_data_collection
;
CrystalClear-SM Expert 2.0 r14k (Rigaku, 2012)
;
_computing_data_reduction
;
CrystalClear-SM Expert 2.0 r14k (Rigaku, 2012)
;
_computing_structure_refinement  'SHELXTL (Sheldrick, 1997)'
_computing_structure_solution    'SHELXTL (Sheldrick, 1990)'
_diffrn_ambient_temperature      301(2)
_diffrn_measured_fraction_theta_full 0.967
_diffrn_measured_fraction_theta_max 0.967
_diffrn_measurement_device_type
;
Rigaku Saturn724+ (4x4 bin mode)
;
_diffrn_measurement_method       'profile data from \w-scans'
_diffrn_radiation_monochromator  graphite
_diffrn_radiation_source         'fine-focus sealed tube'
_diffrn_radiation_type           MoK\a
_diffrn_radiation_wavelength     0.71073
_diffrn_reflns_av_R_equivalents  0.0781
_diffrn_reflns_av_sigmaI/netI    0.1140
_diffrn_reflns_limit_h_max       6
_diffrn_reflns_limit_h_min       -9
_diffrn_reflns_limit_k_max       9
_diffrn_reflns_limit_k_min       -13
_diffrn_reflns_limit_l_max       14
_diffrn_reflns_limit_l_min       -13
_diffrn_reflns_number            6963
_diffrn_reflns_theta_full        26.50
_diffrn_reflns_theta_max         26.50
_diffrn_reflns_theta_min         3.01
_exptl_absorpt_coefficient_mu    2.409
_exptl_absorpt_correction_T_max  0.5318
_exptl_absorpt_correction_T_min  0.5318
_exptl_absorpt_correction_type   multi-scan
_exptl_absorpt_process_details   'SADABS; Sheldrick, 1997'
_exptl_crystal_colour            'Pale green'
_exptl_crystal_density_diffrn    1.473
_exptl_crystal_density_method    'not measured'
_exptl_crystal_description       Block
_exptl_crystal_F_000             384
_exptl_crystal_size_max          0.30
_exptl_crystal_size_mid          0.30
_exptl_crystal_size_min          0.30
_refine_diff_density_max         0.675
_refine_diff_density_min         -0.494
_refine_diff_density_rms         0.078
_refine_ls_extinction_method     none
_refine_ls_goodness_of_fit_ref   0.834
_refine_ls_hydrogen_treatment    mixed
_refine_ls_matrix_type           full
_refine_ls_number_parameters     225
_refine_ls_number_reflns         3421
_refine_ls_number_restraints     0
_refine_ls_restrained_S_all      0.834
_refine_ls_R_factor_all          0.0685
_refine_ls_R_factor_gt           0.0481
_refine_ls_shift/su_max          0.000
_refine_ls_shift/su_mean         0.000
_refine_ls_structure_factor_coef Fsqd
_refine_ls_weighting_details
'calc w=1/[\s^2^(Fo^2^)+(0.0394P)^2^+0.0000P] where P=(Fo^2^+2Fc^2^)/3'
_refine_ls_weighting_scheme      calc
_refine_ls_wR_factor_gt          0.1114
_refine_ls_wR_factor_ref         0.1152
_reflns_number_gt                1824
_reflns_number_total             3421
_reflns_threshold_expression     >2sigma(I)
_cod_data_source_file            16_bracridine.CIF
_cod_data_source_block           16
_cod_depositor_comments
;
The following automatic conversions were performed:

'_symmetry_cell_setting' value 'Triclinic' changed to 'triclinic'
according to
/usr/data/users/saulius/crontab/automatic-downloads/rss-feeds/ACS/lib/dictionaries/cif_core.dic
dictionary named 'cif_core.dic' version 2.4.2 from
2011-04-26.

'_exptl_absorpt_correction_type' value 'Multi-scan'
changed to 'multi-scan' according to
/usr/data/users/saulius/crontab/automatic-downloads/rss-feeds/ACS/lib/dictionaries/cif_core.dic
dictionary named 'cif_core.dic' version 2.4.2 from 2011-04-26.

Automatic conversion script
Id: cif_fix_values 2281 2013-09-26 08:29:07Z andrius 

 Adding full bibliography for 4511578--4511594.cif.
;
_cod_database_code               4511588
loop_
_symmetry_equiv_pos_as_xyz
'x, y, z'
'-x, -y, -z'
loop_
_atom_site_label
_atom_site_type_symbol
_atom_site_fract_x
_atom_site_fract_y
_atom_site_fract_z
_atom_site_U_iso_or_equiv
_atom_site_adp_type
_atom_site_occupancy
_atom_site_symmetry_multiplicity
_atom_site_calc_flag
_atom_site_refinement_flags
C8 C 0.9417(5) -0.0322(3) 0.2101(3) 0.0397(9) Uani 1 1 d .
C9 C 1.0377(6) -0.0668(4) 0.3108(4) 0.0557(11) Uani 1 1 d .
H9 H 1.0282 -0.1537 0.3012 0.067 Uiso 1 1 calc R
C10 C 1.1431(7) 0.0247(6) 0.4209(4) 0.0821(15) Uani 1 1 d .
H10 H 1.2070 0.0002 0.4860 0.099 Uiso 1 1 calc R
C11 C 1.1575(8) 0.1553(6) 0.4383(5) 0.0912(19) Uani 1 1 d .
H11 H 1.2304 0.2167 0.5152 0.109 Uiso 1 1 calc R
C12 C 1.0671(7) 0.1956(4) 0.3451(5) 0.0758(15) Uani 1 1 d .
H12 H 1.0775 0.2834 0.3588 0.091 Uiso 1 1 calc R
C13 C 0.9563(5) 0.1018(3) 0.2264(4) 0.0499(11) Uani 1 1 d .
C14 C 0.8669(6) 0.1331(3) 0.1258(4) 0.0536(12) Uani 1 1 d .
H14 H 0.8779 0.2195 0.1339 0.064 Uiso 1 1 calc R
C15 C 0.7601(5) 0.0381(3) 0.0119(4) 0.0434(9) Uani 1 1 d .
C16 C 0.6652(6) 0.0643(4) -0.0932(5) 0.0636(12) Uani 1 1 d .
H16 H 0.6725 0.1499 -0.0880 0.076 Uiso 1 1 calc R
C17 C 0.5631(6) -0.0310(5) -0.2025(5) 0.0737(14) Uani 1 1 d .
H17 H 0.4994 -0.0113 -0.2708 0.088 Uiso 1 1 calc R
C18 C 0.5549(6) -0.1624(5) -0.2106(4) 0.0661(12) Uani 1 1 d .
H18 H 0.4878 -0.2285 -0.2859 0.079 Uiso 1 1 calc R
C19 C 0.6425(6) -0.1926(4) -0.1114(4) 0.0493(10) Uani 1 1 d .
H19 H 0.6320 -0.2788 -0.1187 0.059 Uiso 1 1 calc R
C20 C 0.7503(5) -0.0944(3) 0.0037(3) 0.0353(8) Uani 1 1 d .
N7 N 0.8384(4) -0.1267(2) 0.0999(3) 0.0371(7) Uani 1 1 d .
H1A H 0.855(5) 0.678(3) 0.066(3) 0.032(12) Uiso 1 1 d .
H1B H 0.955(5) 0.413(3) 0.058(3) 0.042(11) Uiso 1 1 d .
B1 B 0.8175(6) 0.5413(4) 0.1128(4) 0.0437(11) Uani 1 1 d .
C1 C 0.6711(5) 0.5728(3) 0.1915(3) 0.0371(8) Uani 1 1 d .
C2 C 0.5481(6) 0.6608(3) 0.1846(4) 0.0591(11) Uani 1 1 d .
H2 H 0.5561 0.7071 0.1331 0.071 Uiso 1 1 calc R
C3 C 0.4138(6) 0.6832(4) 0.2508(4) 0.0658(13) Uani 1 1 d .
H3 H 0.3331 0.7430 0.2432 0.079 Uiso 1 1 calc R
C4 C 0.4005(5) 0.6170(3) 0.3274(3) 0.0442(9) Uani 1 1 d .
C5 C 0.5217(6) 0.5297(3) 0.3400(4) 0.0561(11) Uani 1 1 d .
H5 H 0.5157 0.4864 0.3942 0.067 Uiso 1 1 calc R
C6 C 0.6529(6) 0.5074(3) 0.2705(3) 0.0524(11) Uani 1 1 d .
H6 H 0.7316 0.4464 0.2773 0.063 Uiso 1 1 calc R
O1A O 0.8822(4) 0.6216(3) 0.0596(3) 0.0512(8) Uani 1 1 d .
O1B O 0.8805(4) 0.4277(2) 0.0949(3) 0.0570(8) Uani 1 1 d .
Br1 Br 0.22113(6) 0.64850(4) 0.42245(4) 0.0729(2) Uani 1 1 d .
loop_
_atom_site_aniso_label
_atom_site_aniso_U_11
_atom_site_aniso_U_22
_atom_site_aniso_U_33
_atom_site_aniso_U_23
_atom_site_aniso_U_13
_atom_site_aniso_U_12
C8 0.036(2) 0.041(2) 0.045(2) 0.0142(18) 0.0178(19) 0.0061(17)
C9 0.049(3) 0.069(3) 0.048(3) 0.022(2) 0.015(2) 0.006(2)
C10 0.065(3) 0.121(4) 0.047(3) 0.021(3) 0.013(3) -0.002(3)
C11 0.070(4) 0.102(5) 0.060(4) -0.013(3) 0.016(3) -0.020(3)
C12 0.072(4) 0.050(3) 0.082(4) -0.010(3) 0.037(3) -0.013(2)
C13 0.044(2) 0.039(2) 0.062(3) 0.008(2) 0.027(2) -0.0011(18)
C14 0.052(3) 0.028(2) 0.094(4) 0.023(2) 0.042(3) 0.0095(18)
C15 0.037(2) 0.045(2) 0.067(3) 0.033(2) 0.028(2) 0.0153(18)
C16 0.056(3) 0.075(3) 0.095(4) 0.060(3) 0.039(3) 0.028(2)
C17 0.051(3) 0.129(4) 0.086(4) 0.082(3) 0.033(3) 0.039(3)
C18 0.052(3) 0.090(3) 0.054(3) 0.022(3) 0.018(2) 0.007(2)
C19 0.049(2) 0.050(2) 0.046(2) 0.016(2) 0.012(2) 0.0035(19)
C20 0.032(2) 0.0357(19) 0.045(2) 0.0196(17) 0.0161(18) 0.0082(16)
N7 0.0390(17) 0.0301(15) 0.0445(19) 0.0143(14) 0.0155(16) 0.0051(13)
B1 0.045(3) 0.035(2) 0.052(3) 0.020(2) 0.013(2) 0.005(2)
C1 0.038(2) 0.0296(17) 0.039(2) 0.0120(16) 0.0069(18) 0.0006(15)
C2 0.059(3) 0.072(3) 0.081(3) 0.056(2) 0.035(3) 0.027(2)
C3 0.062(3) 0.087(3) 0.089(3) 0.062(3) 0.043(3) 0.043(2)
C4 0.040(2) 0.053(2) 0.040(2) 0.0184(18) 0.0097(19) 0.0098(18)
C5 0.072(3) 0.053(2) 0.054(3) 0.026(2) 0.027(2) 0.009(2)
C6 0.072(3) 0.041(2) 0.054(3) 0.0219(19) 0.027(2) 0.019(2)
O1A 0.067(2) 0.0322(15) 0.075(2) 0.0282(14) 0.0400(17) 0.0223(14)
O1B 0.079(2) 0.0372(14) 0.083(2) 0.0339(14) 0.0512(19) 0.0269(14)
Br1 0.0625(3) 0.1079(4) 0.0697(4) 0.0449(3) 0.0350(3) 0.0276(3)
loop_
_atom_type_symbol
_atom_type_description
_atom_type_scat_dispersion_real
_atom_type_scat_dispersion_imag
_atom_type_scat_source
C C 0.0033 0.0016 'International Tables Vol C Tables 4.2.6.8 and 6.1.1.4'
H H 0.0000 0.0000 'International Tables Vol C Tables 4.2.6.8 and 6.1.1.4'
B B 0.0013 0.0007 'International Tables Vol C Tables 4.2.6.8 and 6.1.1.4'
Br Br -0.2901 2.4595 'International Tables Vol C Tables 4.2.6.8 and 6.1.1.4'
N N 0.0061 0.0033 'International Tables Vol C Tables 4.2.6.8 and 6.1.1.4'
O O 0.0106 0.0060 'International Tables Vol C Tables 4.2.6.8 and 6.1.1.4'
loop_
_geom_angle_atom_site_label_1
_geom_angle_atom_site_label_2
_geom_angle_atom_site_label_3
_geom_angle
N7 C8 C9 119.3(3)
N7 C8 C13 121.6(4)
C9 C8 C13 119.1(4)
C10 C9 C8 120.7(4)
C10 C9 H9 119.7
C8 C9 H9 119.7
C9 C10 C11 120.8(5)
C9 C10 H10 119.6
C11 C10 H10 119.6
C12 C11 C10 121.5(5)
C12 C11 H11 119.2
C10 C11 H11 119.2
C11 C12 C13 119.5(4)
C11 C12 H12 120.2
C13 C12 H12 120.2
C14 C13 C12 123.6(4)
C14 C13 C8 118.1(3)
C12 C13 C8 118.4(4)
C13 C14 C15 121.4(3)
C13 C14 H14 119.3
C15 C14 H14 119.3
C14 C15 C16 123.9(4)
C14 C15 C20 117.1(4)
C16 C15 C20 119.1(4)
C17 C16 C15 122.0(4)
C17 C16 H16 119.0
C15 C16 H16 119.0
C16 C17 C18 118.7(4)
C16 C17 H17 120.6
C18 C17 H17 120.6
C19 C18 C17 121.4(4)
C19 C18 H18 119.3
C17 C18 H18 119.3
C18 C19 C20 120.8(4)
C18 C19 H19 119.6
C20 C19 H19 119.6
N7 C20 C19 119.7(3)
N7 C20 C15 122.3(3)
C19 C20 C15 117.9(4)
C20 N7 C8 119.5(3)
O1B B1 O1A 118.4(3)
O1B B1 C1 117.9(3)
O1A B1 C1 123.7(3)
C2 C1 C6 115.7(3)
C2 C1 B1 123.8(3)
C6 C1 B1 120.4(3)
C3 C2 C1 123.0(3)
C3 C2 H2 118.5
C1 C2 H2 118.5
C4 C3 C2 119.4(3)
C4 C3 H3 120.3
C2 C3 H3 120.3
C3 C4 C5 120.3(3)
C3 C4 Br1 120.4(3)
C5 C4 Br1 119.3(3)
C4 C5 C6 119.0(3)
C4 C5 H5 120.5
C6 C5 H5 120.5
C1 C6 C5 122.5(3)
C1 C6 H6 118.8
C5 C6 H6 118.8
B1 O1A H1A 122(3)
B1 O1B H1B 117(3)
loop_
_geom_bond_atom_site_label_1
_geom_bond_atom_site_label_2
_geom_bond_distance
C8 N7 1.360(4)
C8 C9 1.411(5)
C8 C13 1.431(5)
C9 C10 1.349(5)
C9 H9 0.9300
C10 C11 1.391(7)
C10 H10 0.9300
C11 C12 1.365(7)
C11 H11 0.9300
C12 C13 1.429(5)
C12 H12 0.9300
C13 C14 1.374(5)
C14 C15 1.393(5)
C14 H14 0.9300
C15 C16 1.400(5)
C15 C20 1.440(4)
C16 C17 1.354(6)
C16 H16 0.9300
C17 C18 1.429(6)
C17 H17 0.9300
C18 C19 1.350(6)
C18 H18 0.9300
C19 C20 1.417(5)
C19 H19 0.9300
C20 N7 1.335(4)
B1 O1B 1.347(4)
B1 O1A 1.367(5)
B1 C1 1.563(5)
C1 C2 1.382(5)
C1 C6 1.388(4)
C2 C3 1.381(5)
C2 H2 0.9300
C3 C4 1.362(5)
C3 H3 0.9300
C4 C5 1.377(5)
C4 Br1 1.899(3)
C5 C6 1.389(5)
C5 H5 0.9300
C6 H6 0.9300
O1A H1A 0.66(3)
O1B H1B 0.77(3)
loop_
_geom_torsion_atom_site_label_1
_geom_torsion_atom_site_label_2
_geom_torsion_atom_site_label_3
_geom_torsion_atom_site_label_4
_geom_torsion
N7 C8 C9 C10 179.3(3)
C13 C8 C9 C10 -0.5(5)
C8 C9 C10 C11 0.9(6)
C9 C10 C11 C12 -0.4(7)
C10 C11 C12 C13 -0.6(7)
C11 C12 C13 C14 -177.3(4)
C11 C12 C13 C8 1.0(6)
N7 C8 C13 C14 -1.8(5)
C9 C8 C13 C14 177.9(3)
N7 C8 C13 C12 179.8(3)
C9 C8 C13 C12 -0.4(5)
C12 C13 C14 C15 -179.9(3)
C8 C13 C14 C15 1.8(5)
C13 C14 C15 C16 179.6(3)
C13 C14 C15 C20 -1.0(5)
C14 C15 C16 C17 179.9(3)
C20 C15 C16 C17 0.5(5)
C15 C16 C17 C18 -1.0(6)
C16 C17 C18 C19 1.6(6)
C17 C18 C19 C20 -1.7(6)
C18 C19 C20 N7 -178.9(3)
C18 C19 C20 C15 1.2(5)
C14 C15 C20 N7 0.1(5)
C16 C15 C20 N7 179.5(3)
C14 C15 C20 C19 -179.9(3)
C16 C15 C20 C19 -0.6(4)
C19 C20 N7 C8 180.0(3)
C15 C20 N7 C8 -0.1(4)
C9 C8 N7 C20 -178.8(3)
C13 C8 N7 C20 0.9(4)
O1B B1 C1 C2 -158.2(4)
O1A B1 C1 C2 20.6(6)
O1B B1 C1 C6 19.2(5)
O1A B1 C1 C6 -162.0(4)
C6 C1 C2 C3 -0.4(6)
B1 C1 C2 C3 177.1(4)
C1 C2 C3 C4 0.4(7)
C2 C3 C4 C5 0.8(6)
C2 C3 C4 Br1 178.6(3)
C3 C4 C5 C6 -2.0(6)
Br1 C4 C5 C6 -179.8(3)
C2 C1 C6 C5 -0.8(5)
B1 C1 C6 C5 -178.4(3)
C4 C5 C6 C1 2.0(6)
