#------------------------------------------------------------------------------
#$Date: 2016-03-24 14:14:44 +0200 (Thu, 24 Mar 2016) $
#$Revision: 179657 $
#$URL: svn://www.crystallography.net/cod/cif/4/51/10/4511071.cif $
#------------------------------------------------------------------------------
#
# This file is available in the Crystallography Open Database (COD),
# http://www.crystallography.net/
#
# All data on this site have been placed in the public domain by the
# contributors.
#
data_4511071
loop_
_publ_author_name
'Pr\"asang, Carsten'
'Whitwood, Adrian C.'
'Bruce, Duncan W.'
_publ_section_title
;
 Halogen-Bonded Cocrystals of 4-(N,N-Dimethylamino)pyridine with
 Fluorinated Iodobenzenes
;
_journal_issue                   12
_journal_name_full               'Crystal Growth &amp; Design'
_journal_page_first              5319
_journal_paper_doi               10.1021/cg900823d
_journal_volume                  9
_journal_year                    2009
_chemical_formula_moiety         'C7 H10 N2, C6 H4 F I'
_chemical_formula_sum            'C13 H14 F I N2'
_chemical_formula_weight         344.16
_chemical_name_systematic
; 
 ? 
;
_space_group_IT_number           2
_symmetry_cell_setting           triclinic
_symmetry_space_group_name_Hall  '-P 1'
_symmetry_space_group_name_H-M   'P -1'
_atom_sites_solution_hydrogens   geom
_atom_sites_solution_primary     direct
_atom_sites_solution_secondary   difmap
_audit_creation_method           SHELXL-97
_cell_angle_alpha                74.868(2)
_cell_angle_beta                 84.318(2)
_cell_angle_gamma                79.366(2)
_cell_formula_units_Z            2
_cell_length_a                   7.4705(6)
_cell_length_b                   9.3362(8)
_cell_length_c                   9.9254(8)
_cell_measurement_reflns_used    5235
_cell_measurement_temperature    110(2)
_cell_measurement_theta_max      29.99
_cell_measurement_theta_min      2.29
_cell_volume                     655.84(9)
_computing_cell_refinement       'Bruker SMART'
_computing_data_collection       'Bruker SMART'
_computing_data_reduction        'Bruker SAINT'
_computing_molecular_graphics    'Bruker SHELXTL'
_computing_publication_material  'Bruker SHELXTL'
_computing_structure_refinement  'SHELXL-97 (Sheldrick, 1997)'
_computing_structure_solution    'SHELXS-97 (Sheldrick, 1997)'
_diffrn_ambient_temperature      110(2)
_diffrn_measured_fraction_theta_full 0.966
_diffrn_measured_fraction_theta_max 0.966
_diffrn_measurement_device_type  'CCD area detector'
_diffrn_measurement_method       'phi and omega scans'
_diffrn_radiation_monochromator  graphite
_diffrn_radiation_source         'fine-focus sealed tube'
_diffrn_radiation_type           MoK\a
_diffrn_radiation_wavelength     0.71073
_diffrn_reflns_av_R_equivalents  0.0176
_diffrn_reflns_av_sigmaI/netI    0.0272
_diffrn_reflns_limit_h_max       10
_diffrn_reflns_limit_h_min       -10
_diffrn_reflns_limit_k_max       12
_diffrn_reflns_limit_k_min       -12
_diffrn_reflns_limit_l_max       13
_diffrn_reflns_limit_l_min       -13
_diffrn_reflns_number            7477
_diffrn_reflns_theta_full        30.01
_diffrn_reflns_theta_max         30.01
_diffrn_reflns_theta_min         2.13
_exptl_absorpt_coefficient_mu    2.433
_exptl_absorpt_correction_T_max  0.864
_exptl_absorpt_correction_T_min  0.614
_exptl_absorpt_correction_type   multi-scan
_exptl_absorpt_process_details   'SADABS v2.03; (Sheldrick)'
_exptl_crystal_colour            colourless
_exptl_crystal_density_diffrn    1.743
_exptl_crystal_density_method    'not measured'
_exptl_crystal_description       plate
_exptl_crystal_F_000             336
_exptl_crystal_size_max          0.31
_exptl_crystal_size_mid          0.28
_exptl_crystal_size_min          0.06
_refine_diff_density_max         0.684
_refine_diff_density_min         -0.445
_refine_diff_density_rms         0.084
_refine_ls_extinction_method     none
_refine_ls_goodness_of_fit_ref   1.051
_refine_ls_hydrogen_treatment    constr
_refine_ls_matrix_type           full
_refine_ls_number_parameters     156
_refine_ls_number_reflns         3698
_refine_ls_number_restraints     0
_refine_ls_restrained_S_all      1.051
_refine_ls_R_factor_all          0.0219
_refine_ls_R_factor_gt           0.0204
_refine_ls_shift/su_max          0.001
_refine_ls_shift/su_mean         0.000
_refine_ls_structure_factor_coef Fsqd
_refine_ls_weighting_details
'calc w=1/[\s^2^(Fo^2^)+(0.0233P)^2^+0.2668P] where P=(Fo^2^+2Fc^2^)/3'
_refine_ls_weighting_scheme      calc
_refine_ls_wR_factor_gt          0.0489
_refine_ls_wR_factor_ref         0.0495
_reflns_number_gt                3524
_reflns_number_total             3698
_reflns_threshold_expression     >2sigma(I)
_cod_data_source_file            cg900823d_si_001.cif
_cod_data_source_block           dwb0826m
_cod_depositor_comments
;
The following automatic conversions were performed:

'_symmetry_cell_setting' value 'Triclinic' changed to 'triclinic'
according to
/usr/data/users/saulius/automatic-downloads/retrospective/ACS/lib/dictionaries/cif_core.dic
dictionary named 'cif_core.dic' version 2.4.2 from 2011-04-26.

Automatic conversion script
Id: cif_fix_values 2281 2013-09-26 08:29:07Z andrius 
;
_cod_original_sg_symbol_H-M      P-1
_cod_database_code               4511071
loop_
_symmetry_equiv_pos_as_xyz
'x, y, z'
'-x, -y, -z'
loop_
_atom_site_label
_atom_site_type_symbol
_atom_site_fract_x
_atom_site_fract_y
_atom_site_fract_z
_atom_site_U_iso_or_equiv
_atom_site_adp_type
_atom_site_occupancy
_atom_site_symmetry_multiplicity
_atom_site_calc_flag
_atom_site_refinement_flags
C1 C 0.1502(2) 0.25727(19) 0.66523(19) 0.0177(3) Uani 1 1 d .
C2 C 0.1741(3) 0.1985(2) 0.8075(2) 0.0211(3) Uani 1 1 d .
H2 H 0.2936 0.1675 0.8408 0.025 Uiso 1 1 calc R
C3 C 0.0232(3) 0.1851(2) 0.9009(2) 0.0246(4) Uani 1 1 d .
H3 H 0.0372 0.1445 0.9982 0.030 Uiso 1 1 calc R
C4 C -0.1477(3) 0.2324(2) 0.8479(2) 0.0253(4) Uani 1 1 d .
C5 C -0.1754(3) 0.2917(2) 0.7082(2) 0.0243(4) Uani 1 1 d .
H5 H -0.2953 0.3236 0.6759 0.029 Uiso 1 1 calc R
C6 C -0.0237(3) 0.3040(2) 0.6153(2) 0.0200(3) Uani 1 1 d .
H6 H -0.0389 0.3442 0.5180 0.024 Uiso 1 1 calc R
C7 C 0.7807(3) 0.3935(2) 0.26822(19) 0.0202(3) Uani 1 1 d .
H7 H 0.7032 0.4884 0.2552 0.024 Uiso 1 1 calc R
C8 C 0.9587(2) 0.3917(2) 0.21378(19) 0.0180(3) Uani 1 1 d .
H8 H 0.9999 0.4831 0.1663 0.022 Uiso 1 1 calc R
C9 C 1.0788(2) 0.2534(2) 0.22920(18) 0.0172(3) Uani 1 1 d .
C10 C 1.0041(3) 0.1245(2) 0.3026(2) 0.0210(3) Uani 1 1 d .
H10 H 1.0770 0.0275 0.3168 0.025 Uiso 1 1 calc R
C11 C 0.8249(3) 0.1404(2) 0.3534(2) 0.0229(4) Uani 1 1 d .
H11 H 0.7795 0.0516 0.4032 0.028 Uiso 1 1 calc R
C12 C 1.3294(3) 0.3805(2) 0.1104(2) 0.0241(4) Uani 1 1 d .
H12A H 1.2516 0.4447 0.0366 0.036 Uiso 1 1 calc R
H12B H 1.4523 0.3537 0.0700 0.036 Uiso 1 1 calc R
H12C H 1.3357 0.4349 0.1815 0.036 Uiso 1 1 calc R
C13 C 1.3764(3) 0.1007(2) 0.2015(2) 0.0257(4) Uani 1 1 d .
H13A H 1.3846 0.0596 0.3026 0.039 Uiso 1 1 calc R
H13B H 1.4977 0.1157 0.1588 0.039 Uiso 1 1 calc R
H13C H 1.3298 0.0303 0.1614 0.039 Uiso 1 1 calc R
F1 F -0.29614(19) 0.21836(16) 0.93923(15) 0.0390(3) Uani 1 1 d .
I1 I 0.378997(14) 0.273169(12) 0.522856(11) 0.01839(4) Uani 1 1 d .
N1 N 0.7092(2) 0.27165(19) 0.33788(18) 0.0225(3) Uani 1 1 d .
N2 N 1.2533(2) 0.24435(17) 0.17439(17) 0.0199(3) Uani 1 1 d .
loop_
_atom_site_aniso_label
_atom_site_aniso_U_11
_atom_site_aniso_U_22
_atom_site_aniso_U_33
_atom_site_aniso_U_23
_atom_site_aniso_U_13
_atom_site_aniso_U_12
C1 0.0187(8) 0.0168(8) 0.0191(8) -0.0059(6) 0.0005(6) -0.0053(6)
C2 0.0229(9) 0.0198(8) 0.0209(9) -0.0059(7) -0.0024(7) -0.0023(7)
C3 0.0364(11) 0.0203(9) 0.0177(8) -0.0055(7) 0.0033(8) -0.0073(8)
C4 0.0266(10) 0.0240(9) 0.0282(10) -0.0122(8) 0.0127(8) -0.0104(7)
C5 0.0181(9) 0.0255(9) 0.0323(10) -0.0122(8) 0.0008(7) -0.0049(7)
C6 0.0192(8) 0.0218(8) 0.0200(8) -0.0064(7) -0.0015(7) -0.0038(7)
C7 0.0186(8) 0.0203(8) 0.0218(9) -0.0066(7) -0.0017(7) -0.0011(7)
C8 0.0172(8) 0.0173(8) 0.0194(8) -0.0044(6) -0.0007(6) -0.0027(6)
C9 0.0186(8) 0.0192(8) 0.0147(8) -0.0054(6) -0.0008(6) -0.0034(6)
C10 0.0229(9) 0.0165(8) 0.0238(9) -0.0056(7) 0.0003(7) -0.0034(7)
C11 0.0236(9) 0.0209(8) 0.0256(9) -0.0057(7) 0.0036(7) -0.0092(7)
C12 0.0194(9) 0.0248(9) 0.0256(9) -0.0022(7) 0.0044(7) -0.0059(7)
C13 0.0211(9) 0.0222(9) 0.0331(10) -0.0093(8) 0.0016(8) 0.0006(7)
F1 0.0360(7) 0.0437(8) 0.0402(8) -0.0182(6) 0.0242(6) -0.0170(6)
I1 0.01640(6) 0.02025(6) 0.01892(6) -0.00516(4) 0.00096(4) -0.00460(4)
N1 0.0189(7) 0.0256(8) 0.0246(8) -0.0080(6) 0.0015(6) -0.0060(6)
N2 0.0175(7) 0.0184(7) 0.0231(8) -0.0058(6) 0.0025(6) -0.0024(6)
loop_
_atom_type_symbol
_atom_type_description
_atom_type_scat_dispersion_real
_atom_type_scat_dispersion_imag
_atom_type_scat_source
C C 0.0033 0.0016 'International Tables Vol C Tables 4.2.6.8 and 6.1.1.4'
H H 0.0000 0.0000 'International Tables Vol C Tables 4.2.6.8 and 6.1.1.4'
N N 0.0061 0.0033 'International Tables Vol C Tables 4.2.6.8 and 6.1.1.4'
F F 0.0171 0.0103 'International Tables Vol C Tables 4.2.6.8 and 6.1.1.4'
I I -0.4742 1.8119 'International Tables Vol C Tables 4.2.6.8 and 6.1.1.4'
loop_
_geom_angle_atom_site_label_1
_geom_angle_atom_site_label_2
_geom_angle_atom_site_label_3
_geom_angle
C6 C1 C2 120.60(17)
C6 C1 I1 119.35(13)
C2 C1 I1 120.05(14)
C3 C2 C1 119.99(18)
C3 C2 H2 120.0
C1 C2 H2 120.0
C4 C3 C2 117.99(18)
C4 C3 H3 121.0
C2 C3 H3 121.0
F1 C4 C5 118.55(19)
F1 C4 C3 118.13(19)
C5 C4 C3 123.31(18)
C4 C5 C6 118.37(18)
C4 C5 H5 120.8
C6 C5 H5 120.8
C1 C6 C5 119.74(18)
C1 C6 H6 120.1
C5 C6 H6 120.1
N1 C7 C8 125.03(17)
N1 C7 H7 117.5
C8 C7 H7 117.5
C7 C8 C9 119.65(16)
C7 C8 H8 120.2
C9 C8 H8 120.2
N2 C9 C8 122.21(16)
N2 C9 C10 122.21(16)
C8 C9 C10 115.56(16)
C11 C10 C9 119.61(17)
C11 C10 H10 120.2
C9 C10 H10 120.2
N1 C11 C10 125.13(17)
N1 C11 H11 117.4
C10 C11 H11 117.4
N2 C12 H12A 109.5
N2 C12 H12B 109.5
H12A C12 H12B 109.5
N2 C12 H12C 109.5
H12A C12 H12C 109.5
H12B C12 H12C 109.5
N2 C13 H13A 109.5
N2 C13 H13B 109.5
H13A C13 H13B 109.5
N2 C13 H13C 109.5
H13A C13 H13C 109.5
H13B C13 H13C 109.5
C1 I1 N1 175.47(6)
C7 N1 C11 115.02(16)
C7 N1 I1 125.51(12)
C11 N1 I1 116.78(12)
C9 N2 C12 120.32(15)
C9 N2 C13 120.31(15)
C12 N2 C13 118.40(15)
loop_
_geom_bond_atom_site_label_1
_geom_bond_atom_site_label_2
_geom_bond_distance
C1 C6 1.389(3)
C1 C2 1.392(3)
C1 I1 2.1086(18)
C2 C3 1.389(3)
C2 H2 0.9500
C3 C4 1.380(3)
C3 H3 0.9500
C4 F1 1.364(2)
C4 C5 1.373(3)
C5 C6 1.391(3)
C5 H5 0.9500
C6 H6 0.9500
C7 N1 1.341(2)
C7 C8 1.384(2)
C7 H7 0.9500
C8 C9 1.411(2)
C8 H8 0.9500
C9 N2 1.358(2)
C9 C10 1.414(2)
C10 C11 1.379(3)
C10 H10 0.9500
C11 N1 1.345(3)
C11 H11 0.9500
C12 N2 1.455(2)
C12 H12A 0.9800
C12 H12B 0.9800
C12 H12C 0.9800
C13 N2 1.457(2)
C13 H13A 0.9800
C13 H13B 0.9800
C13 H13C 0.9800
I1 N1 2.9259(16)
loop_
_geom_torsion_atom_site_label_1
_geom_torsion_atom_site_label_2
_geom_torsion_atom_site_label_3
_geom_torsion_atom_site_label_4
_geom_torsion
C6 C1 C2 C3 0.5(3)
I1 C1 C2 C3 -178.63(13)
C1 C2 C3 C4 -0.4(3)
C2 C3 C4 F1 179.51(16)
C2 C3 C4 C5 0.0(3)
F1 C4 C5 C6 -179.16(16)
C3 C4 C5 C6 0.3(3)
C2 C1 C6 C5 -0.1(3)
I1 C1 C6 C5 179.00(13)
C4 C5 C6 C1 -0.3(3)
N1 C7 C8 C9 0.6(3)
C7 C8 C9 N2 178.02(17)
C7 C8 C9 C10 -0.5(3)
N2 C9 C10 C11 -178.63(18)
C8 C9 C10 C11 -0.1(3)
C9 C10 C11 N1 0.8(3)
C8 C7 N1 C11 0.1(3)
C8 C7 N1 I1 160.78(14)
C10 C11 N1 C7 -0.8(3)
C10 C11 N1 I1 -163.23(16)
C8 C9 N2 C12 7.0(3)
C10 C9 N2 C12 -174.60(18)
C8 C9 N2 C13 175.49(17)
C10 C9 N2 C13 -6.1(3)
