#------------------------------------------------------------------------------
#$Date: 2016-02-16 22:30:59 +0200 (Tue, 16 Feb 2016) $
#$Revision: 176467 $
#$URL: svn://www.crystallography.net/cod/cif/4/51/13/4511325.cif $
#------------------------------------------------------------------------------
#
# This file is available in the Crystallography Open Database (COD),
# http://www.crystallography.net/
#
# All data on this site have been placed in the public domain by the
# contributors.
#
data_4511325
loop_
_publ_author_name
'Parkin, Andrew'
'Seaton, Colin C.'
'Blagden, Nicholas'
'Wilson, Chick C.'
_publ_section_title
;
 Designing Hydrogen Bonds with Temperature-Dependent Proton
 Disorder:&#x00A0; The Effect of Crystal Environment
;
_journal_issue                   3
_journal_name_full               'Crystal Growth &amp; Design'
_journal_page_first              531
_journal_paper_doi               10.1021/cg060777p
_journal_volume                  7
_journal_year                    2007
_chemical_formula_moiety         'C9 H11 N1 O2'
_chemical_formula_sum            'C9 H11 N O2'
_chemical_formula_weight         165.19
_space_group_IT_number           2
_symmetry_cell_setting           triclinic
_symmetry_space_group_name_Hall  '-P 1'
_symmetry_space_group_name_H-M   'P -1'
_atom_sites_solution_hydrogens   geom
_atom_sites_solution_primary     direct
_audit_creation_date             06-11-01
_audit_creation_method           CRYSTALS_ver_12.83
_cell_angle_alpha                87.15(3)
_cell_angle_beta                 84.31(3)
_cell_angle_gamma                67.09(2)
_cell_formula_units_Z            2
_cell_length_a                   6.605(4)
_cell_length_b                   7.872(5)
_cell_length_c                   8.470(7)
_cell_measurement_reflns_used    4063
_cell_measurement_temperature    100
_cell_measurement_theta_max      31
_cell_measurement_theta_min      3
_cell_volume                     403.6(5)
_computing_cell_refinement       'FSProcess in CrystalClear 1.3.6'
_computing_data_collection       'CrystalClear 1.3.6'
_computing_data_reduction        'FSProcess in CrystalClear 1.3.6'
_computing_molecular_graphics    'CAMERON (Watkin et al., 1996)'
_computing_publication_material  'CRYSTALS (Betteridge et al., 2003)'
_computing_structure_refinement  'CRYSTALS (Betteridge et al., 2003)'
_computing_structure_solution    'SHELXS 86 (Sheldrick, 1986)'
_diffrn_ambient_temperature      100
_diffrn_measured_fraction_theta_full 0.998
_diffrn_measured_fraction_theta_max 0.998
_diffrn_measurement_device_type
'Rigaku R-AXIS RAPID Image Plate Area Detector Diffractometer'
_diffrn_measurement_method       \w
_diffrn_radiation_monochromator  graphite
_diffrn_radiation_type           'Mo K\a'
_diffrn_radiation_wavelength     0.71073
_diffrn_reflns_av_R_equivalents  0.024
_diffrn_reflns_limit_h_max       9
_diffrn_reflns_limit_h_min       -8
_diffrn_reflns_limit_k_max       11
_diffrn_reflns_limit_k_min       -11
_diffrn_reflns_limit_l_max       12
_diffrn_reflns_limit_l_min       -12
_diffrn_reflns_number            5756
_diffrn_reflns_theta_full        30.466
_diffrn_reflns_theta_max         30.466
_diffrn_reflns_theta_min         3.361
_diffrn_standards_number         0
_exptl_absorpt_coefficient_mu    0.097
_exptl_absorpt_correction_T_max  0.99
_exptl_absorpt_correction_T_min  0.96
_exptl_absorpt_correction_type   multi-scan
_exptl_absorpt_process_details   'FSProcess in CrystalClear 1.3.6'
_exptl_crystal_colour            colourless
_exptl_crystal_density_diffrn    1.359
_exptl_crystal_description       block
_exptl_crystal_F_000             176
_exptl_crystal_size_max          0.25
_exptl_crystal_size_mid          0.20
_exptl_crystal_size_min          0.15
_refine_diff_density_max         0.41
_refine_diff_density_min         -0.40
_refine_ls_extinction_method     None
_refine_ls_goodness_of_fit_ref   0.9533
_refine_ls_hydrogen_treatment    mixed
_refine_ls_matrix_type           full
_refine_ls_number_parameters     139
_refine_ls_number_reflns         2454
_refine_ls_number_restraints     46
_refine_ls_R_factor_all          0.0757
_refine_ls_R_factor_gt           0.0536
_refine_ls_shift/su_max          0.000285
_refine_ls_structure_factor_coef Fsqd
_refine_ls_weighting_details
;
 Method= Modified Sheldrick 
 w=1/[\s^2^(F^2^) + ( 0.11P)^2^ + 0.00P] 
 ,where P=(max(Fo^2^,0) + 2Fc^2^)/3 
;
_refine_ls_weighting_scheme      calc
_refine_ls_wR_factor_all         0.1620
_refine_ls_wR_factor_gt          0.1520
_refine_ls_wR_factor_ref         0.1620
_reflns_limit_h_max              9
_reflns_limit_h_min              -9
_reflns_limit_k_max              11
_reflns_limit_k_min              -11
_reflns_limit_l_max              12
_reflns_limit_l_min              0
_reflns_number_gt                1617
_reflns_number_total             2454
_reflns_threshold_expression     I>2.0\s(I)
_oxford_diffrn_Wilson_B_factor   1.67
_oxford_diffrn_Wilson_scale      0.01
_oxford_refine_ls_scale          9.3(6)
_oxford_structure_analysis_title 4daba_100K
_cod_data_source_file            4daba_native.cif
_cod_data_source_block           4DABA_100K
_cod_depositor_comments
;
The following automatic conversions were performed:

'_symmetry_cell_setting' value 'Triclinic' changed to 'triclinic'
according to
/usr/data/users/saulius/automatic-downloads/retrospective/ACS/lib/dictionaries/cif_core.dic
dictionary named 'cif_core.dic' version 2.4.2 from 2011-04-26.

Automatic conversion script
Id: cif_fix_values 2281 2013-09-26 08:29:07Z andrius 
;
_cod_original_sg_symbol_H-M      'P -1 '
_cod_original_formula_sum        'C9 H11 N1 O2'
_cod_database_code               4511325
loop_
_symmetry_equiv_pos_as_xyz
x,y,z
-x,-y,-z
loop_
_atom_site_label
_atom_site_type_symbol
_atom_site_fract_x
_atom_site_fract_y
_atom_site_fract_z
_atom_site_U_iso_or_equiv
_atom_site_occupancy
_atom_site_adp_type
_atom_site_refinement_flags_posn
O112 O 0.74875(16) -0.20614(13) 0.49033(12) 0.0247 1.0000 Uani D
O113 O 0.63467(15) 0.05515(13) 0.62826(12) 0.0242 1.0000 Uani D
N141 N 1.5995(2) -0.36634(17) 0.85792(17) 0.0327 1.0000 Uani D
C143 C 1.6436(3) -0.2551(2) 0.9701(2) 0.0309 1.0000 Uani D
C11 C 0.9926(2) -0.17061(17) 0.65731(15) 0.0187 1.0000 Uani D
C16 C 1.1496(2) -0.34800(18) 0.62487(16) 0.0196 1.0000 Uani D
C15 C 1.3496(2) -0.41397(18) 0.68996(16) 0.0206 1.0000 Uani D
C111 C 0.7779(2) -0.09729(17) 0.59112(16) 0.0195 1.0000 Uani .
C13 C 1.2434(2) -0.12517(18) 0.82406(17) 0.0228 1.0000 Uani D
C142 C 1.7676(2) -0.5475(2) 0.82472(19) 0.0268 1.0000 Uani D
C12 C 1.0444(2) -0.06154(18) 0.75811(17) 0.0210 1.0000 Uani D
C14 C 1.4028(2) -0.30420(18) 0.79154(16) 0.0200 1.0000 Uani D
H16 H 1.117(2) -0.4223(16) 0.5605(13) 0.0240 1.0000 Uiso D
H15 H 1.451(2) -0.5353(17) 0.6651(13) 0.0237 1.0000 Uiso D
H13 H 1.268(2) -0.0431(17) 0.8923(13) 0.0273 1.0000 Uiso D
H12 H 0.944(2) 0.0513(17) 0.7814(13) 0.0248 1.0000 Uiso D
H1432 H 1.786(2) -0.317(2) 1.0058(17) 0.0368 1.0000 Uiso D
H1433 H 1.539(2) -0.221(2) 1.0607(17) 0.0368 1.0000 Uiso D
H1431 H 1.649(3) -0.1430(19) 0.9185(17) 0.0368 1.0000 Uiso D
H1421 H 1.909(2) -0.5433(19) 0.8298(18) 0.0310 1.0000 Uiso D
H1422 H 1.759(2) -0.6349(18) 0.8932(17) 0.0310 1.0000 Uiso D
H1423 H 1.771(2) -0.5862(19) 0.7200(16) 0.0310 1.0000 Uiso D
H113 H 0.5116 0.0940 0.5878 0.0280 0.1000 Uiso DR
H112 H 0.6279 -0.1722 0.4474 0.0296 0.9000 Uiso DR
loop_
_atom_site_aniso_label
_atom_site_aniso_U_11
_atom_site_aniso_U_22
_atom_site_aniso_U_33
_atom_site_aniso_U_23
_atom_site_aniso_U_13
_atom_site_aniso_U_12
O112 0.0193(5) 0.0214(5) 0.0332(6) -0.0044(4) -0.0104(4) -0.0053(4)
O113 0.0179(5) 0.0213(5) 0.0303(6) -0.0043(4) -0.0066(4) -0.0029(4)
N141 0.0246(7) 0.0248(7) 0.0431(8) -0.0091(6) -0.0171(6) 0.0010(5)
C143 0.0274(8) 0.0301(8) 0.0342(9) -0.0040(7) -0.0152(7) -0.0066(6)
C11 0.0176(6) 0.0189(6) 0.0197(7) -0.0001(5) -0.0030(5) -0.0069(5)
C16 0.0198(6) 0.0191(6) 0.0203(7) -0.0025(5) -0.0029(5) -0.0074(5)
C15 0.0196(6) 0.0164(6) 0.0222(7) -0.0027(5) -0.0023(5) -0.0027(5)
C111 0.0186(6) 0.0191(6) 0.0212(7) 0.0008(5) -0.0022(5) -0.0077(5)
C13 0.0224(7) 0.0190(6) 0.0267(7) -0.0033(5) -0.0080(5) -0.0060(5)
C142 0.0204(7) 0.0243(7) 0.0314(8) -0.0013(6) -0.0088(6) -0.0021(6)
C12 0.0185(6) 0.0163(6) 0.0260(7) -0.0022(5) -0.0037(5) -0.0039(5)
C14 0.0171(6) 0.0195(6) 0.0215(7) 0.0004(5) -0.0057(5) -0.0043(5)
loop_
_atom_type_symbol
_atom_type_scat_dispersion_real
_atom_type_scat_dispersion_imag
_atom_type_scat_Cromer_Mann_a1
_atom_type_scat_Cromer_Mann_b1
_atom_type_scat_Cromer_Mann_a2
_atom_type_scat_Cromer_Mann_b2
_atom_type_scat_Cromer_Mann_a3
_atom_type_scat_Cromer_Mann_b3
_atom_type_scat_Cromer_Mann_a4
_atom_type_scat_Cromer_Mann_b4
_atom_type_scat_Cromer_Mann_c
_atom_type_scat_source
C 0.0033 0.0016 2.3100 20.8439 1.0200 10.2075 1.5886 0.5687 0.8650 51.6512
0.2156 'International Tables Vol C 4.2.6.8 and 6.1.1.4'
N 0.0061 0.0033 12.2126 0.0057 3.1322 9.8933 2.0125 28.9975 1.1663 0.5826
-11.5290 'International Tables Vol C 4.2.6.8 and 6.1.1.4'
O 0.0106 0.0060 3.0485 13.2771 2.2868 5.7011 1.5463 0.3239 0.8670 32.9089
0.2508 'International Tables Vol C 4.2.6.8 and 6.1.1.4'
H 0.0000 0.0000 0.4930 10.5109 0.3229 26.1257 0.1402 3.1424 0.0408 57.7998
0.0030 'International Tables Vol C 4.2.6.8 and 6.1.1.4'
loop_
_geom_angle_atom_site_label_1
_geom_angle_atom_site_label_2
_geom_angle_atom_site_label_3
_geom_angle
_geom_angle_publ_flag
C111 O112 H112 120.0 no
C111 O113 H113 120.1 no
C143 N141 C142 117.31(12) yes
C143 N141 C14 120.81(13) yes
C142 N141 C14 121.83(13) yes
N141 C143 H1432 110.9(9) no
N141 C143 H1433 113.8(9) no
H1432 C143 H1433 108.3(12) no
N141 C143 H1431 110.4(9) no
H1432 C143 H1431 104.2(12) no
H1433 C143 H1431 108.8(11) no
C16 C11 C111 122.68(13) yes
C16 C11 C12 117.87(13) yes
C111 C11 C12 119.45(12) yes
C11 C16 C15 121.43(13) yes
C11 C16 H16 118.9(8) no
C15 C16 H16 119.6(8) no
C16 C15 C14 120.90(12) yes
C16 C15 H15 118.7(8) no
C14 C15 H15 120.4(8) no
C11 C111 O112 115.05(12) yes
C11 C111 O113 122.24(13) yes
O112 C111 O113 122.70(12) yes
C12 C13 C14 120.92(13) yes
C12 C13 H13 117.1(8) no
C14 C13 H13 122.0(8) no
N141 C142 H1421 109.0(9) no
N141 C142 H1422 114.0(9) no
H1421 C142 H1422 106.8(12) no
N141 C142 H1423 113.0(9) no
H1421 C142 H1423 104.1(11) no
H1422 C142 H1423 109.2(11) no
C11 C12 C13 121.47(13) yes
C11 C12 H12 118.6(9) no
C13 C12 H12 119.9(9) no
C13 C14 C15 117.41(13) yes
C13 C14 N141 120.50(13) yes
C15 C14 N141 122.09(13) yes
loop_
_geom_bond_atom_site_label_1
_geom_bond_atom_site_label_2
_geom_bond_distance
_geom_bond_publ_flag
O112 C111 1.3166(17) yes
O112 H112 0.850 no
O113 C111 1.2363(16) yes
O113 H113 0.850 no
N141 C143 1.446(2) yes
N141 C142 1.4457(19) yes
N141 C14 1.3662(19) yes
C143 H1432 0.949(14) no
C143 H1433 0.954(13) no
C143 H1431 0.976(13) no
C11 C16 1.3981(19) yes
C11 C111 1.465(2) yes
C11 C12 1.394(2) yes
C16 C15 1.379(2) yes
C16 H16 0.916(13) no
C15 C14 1.407(2) yes
C15 H15 0.948(12) no
C13 C12 1.376(2) yes
C13 C14 1.413(2) yes
C13 H13 0.957(13) no
C142 H1421 0.952(13) no
C142 H1422 0.892(13) no
C142 H1423 0.947(13) no
C12 H12 0.895(12) no
loop_
_geom_hbond_atom_site_label_D
_geom_hbond_atom_site_label_H
_geom_hbond_atom_site_label_A
_geom_hbond_site_symmetry_A
_geom_hbond_angle_DHA
_geom_hbond_distance_DH
_geom_hbond_distance_HA
_geom_hbond_distance_DA
_geom_hbond_publ_flag
O113 H113 O112 2_656 172 0.85 1.78 2.623(2) yes
O112 H112 O113 2_656 168 0.85 1.78 2.623(2) yes
