#------------------------------------------------------------------------------
#$Date: 2016-03-24 14:19:41 +0200 (Thu, 24 Mar 2016) $
#$Revision: 179660 $
#$URL: svn://www.crystallography.net/cod/cif/4/51/13/4511395.cif $
#------------------------------------------------------------------------------
#
# This file is available in the Crystallography Open Database (COD),
# http://www.crystallography.net/
#
# All data on this site have been placed in the public domain by the
# contributors.
#
data_4511395
loop_
_publ_author_name
'Khrustalev, Victor N.'
'Sandhu, Bhupinder'
'Bentum, Samuel'
'Fonari, Alexandr'
'Krivoshein, Arcadius V.'
'Timofeeva, Tatiana V.'
_publ_section_title
;
 Absolute Configuration and Polymorphism of 2-Phenylbutyramide and
 \a-Methyl-\a-phenylsuccinimide
;
_journal_issue                   7
_journal_name_full               'Crystal Growth &amp; Design'
_journal_page_first              3360
_journal_paper_doi               10.1021/cg500284q
_journal_volume                  14
_journal_year                    2014
_chemical_absolute_configuration ad
_chemical_formula_moiety         'C11 H11 N O2'
_chemical_formula_sum            'C11 H11 N O2'
_chemical_formula_weight         189.21
_chemical_name_systematic
; 
 ? 
;
_space_group_IT_number           4
_symmetry_cell_setting           monoclinic
_symmetry_space_group_name_Hall  'P 2yb'
_symmetry_space_group_name_H-M   'P 1 21 1'
_atom_sites_solution_hydrogens   difmap
_atom_sites_solution_primary     direct
_atom_sites_solution_secondary   difmap
_audit_creation_method           SHELXL-97
_cell_angle_alpha                90.00
_cell_angle_beta                 102.635(2)
_cell_angle_gamma                90.00
_cell_formula_units_Z            2
_cell_length_a                   6.7076(5)
_cell_length_b                   7.0112(5)
_cell_length_c                   10.0210(7)
_cell_measurement_reflns_used    9960
_cell_measurement_temperature    100(2)
_cell_measurement_theta_max      71.56
_cell_measurement_theta_min      4.52
_cell_volume                     459.86(6)
_computing_cell_refinement       'SAINT (Bruker, 2001)'
_computing_data_collection       'APEX2 (Bruker, 2005)'
_computing_data_reduction        'SAINT (Bruker, 2001)'
_computing_molecular_graphics    'SHELXTL (Sheldrick, 2008)'
_computing_publication_material  'SHELXTL (Sheldrick, 2008)'
_computing_structure_refinement  'SHELXTL (Sheldrick, 2008)'
_computing_structure_solution    'SHELXTL (Sheldrick, 2008)'
_diffrn_ambient_temperature      100(2)
_diffrn_measured_fraction_theta_full 0.995
_diffrn_measured_fraction_theta_max 0.995
_diffrn_measurement_device_type  'Bruker APEX-II CCD'
_diffrn_measurement_method       '\f and \w scans'
_diffrn_radiation_monochromator  graphite
_diffrn_radiation_source         'fine-focus sealed tube'
_diffrn_radiation_type           CuK\a
_diffrn_radiation_wavelength     1.54178
_diffrn_reflns_av_R_equivalents  0.0347
_diffrn_reflns_av_sigmaI/netI    0.0216
_diffrn_reflns_limit_h_max       7
_diffrn_reflns_limit_h_min       -8
_diffrn_reflns_limit_k_max       8
_diffrn_reflns_limit_k_min       -8
_diffrn_reflns_limit_l_max       12
_diffrn_reflns_limit_l_min       -12
_diffrn_reflns_number            13074
_diffrn_reflns_theta_full        69.94
_diffrn_reflns_theta_max         69.94
_diffrn_reflns_theta_min         4.52
_exptl_absorpt_coefficient_mu    0.773
_exptl_absorpt_correction_T_max  0.861
_exptl_absorpt_correction_T_min  0.801
_exptl_absorpt_correction_type   multi-scan
_exptl_absorpt_process_details   'SADABS (Sheldrick, 2003)'
_exptl_crystal_colour            colourless
_exptl_crystal_density_diffrn    1.366
_exptl_crystal_density_method    'not measured'
_exptl_crystal_description       prism
_exptl_crystal_F_000             200
_exptl_crystal_size_max          0.30
_exptl_crystal_size_mid          0.20
_exptl_crystal_size_min          0.20
_refine_diff_density_max         0.187
_refine_diff_density_min         -0.130
_refine_diff_density_rms         0.034
_refine_ls_abs_structure_details 'Flack H D (1983), Acta Cryst. A39, 876-881'
_refine_ls_abs_structure_Flack   0.17(18)
_refine_ls_extinction_coef       0.042(4)
_refine_ls_extinction_expression Fc^*^=kFc[1+0.001xFc^2^\l^3^/sin(2\q)]^-1/4^
_refine_ls_extinction_method     SHELXL
_refine_ls_goodness_of_fit_ref   1.002
_refine_ls_hydrogen_treatment    mixed
_refine_ls_matrix_type           full
_refine_ls_number_parameters     132
_refine_ls_number_reflns         1696
_refine_ls_number_restraints     1
_refine_ls_restrained_S_all      1.002
_refine_ls_R_factor_all          0.0257
_refine_ls_R_factor_gt           0.0257
_refine_ls_shift/su_max          0.000
_refine_ls_shift/su_mean         0.000
_refine_ls_structure_factor_coef Fsqd
_refine_ls_weighting_details
'calc w=1/[\s^2^(Fo^2^)+(0.0408P)^2^+0.094P] where P=(Fo^2^+2Fc^2^)/3'
_refine_ls_weighting_scheme      calc
_refine_ls_wR_factor_gt          0.0688
_refine_ls_wR_factor_ref         0.0688
_reflns_number_gt                1696
_reflns_number_total             1696
_reflns_threshold_expression     I>2\s(I)
_iucr_refine_instructions_details
;
TITL (S)-2m in P2(1)
CELL 1.54178   6.7076   7.0112  10.0210  90.000 102.635  90.000
ZERR    2.00   0.0005   0.0005   0.0007   0.000   0.002   0.000
LATT -1
SYMM -X, 0.5+Y, -Z
SFAC C H N O
UNIT 22 22 2 4
TEMP -173.0
SIZE 0.20 0.20 0.30
 
OMIT -0 140
L.S. 12
BOND $H
ACTA
CONF
HTAB
 
WGHT    0.040800    0.094000
EXTI    0.041665
FVAR       0.62445
O1    4    0.134867    0.746481    0.672474    11.00000    0.02728    0.01936 =
         0.02604    0.00074    0.00562    0.00097
O2    4    0.422579    0.216978    0.531744    11.00000    0.02404    0.03326 =
         0.03128   -0.00932    0.00844    0.00204
N1    3    0.307104    0.505831    0.590931    11.00000    0.02117    0.02384 =
         0.02375    0.00068    0.00780   -0.00288
H1    2    0.386549    0.573610    0.552571    11.00000   -1.20000
C2    1    0.174805    0.579032    0.666070    11.00000    0.01791    0.02133 =
         0.01853    0.00034    0.00021   -0.00104
C3    1    0.088252    0.412529    0.735475    11.00000    0.01902    0.01853 =
         0.02193   -0.00015    0.00415   -0.00012
C4    1    0.159846    0.236041    0.666108    11.00000    0.02176    0.01939 =
         0.02194   -0.00051    0.00361   -0.00158
AFIX  23
H4A   2    0.224274    0.141253    0.735467    11.00000   -1.20000
H4B   2    0.042999    0.175067    0.603005    11.00000   -1.20000
AFIX   0
C5    1    0.312329    0.310257    0.588706    11.00000    0.01859    0.02504 =
         0.02012   -0.00294    0.00152   -0.00047
C6    1    0.189509    0.416838    0.888814    11.00000    0.02383    0.01484 =
         0.02217    0.00024    0.00584   -0.00126
C7    1    0.079122    0.450532    0.988922    11.00000    0.02607    0.02256 =
         0.02777   -0.00135    0.00925    0.00022
AFIX  43
H7    2   -0.062763    0.478095    0.962920    11.00000   -1.20000
AFIX   0
C8    1    0.174803    0.444188    1.126719    11.00000    0.04022    0.02433 =
         0.02578   -0.00274    0.01481   -0.00313
AFIX  43
H8    2    0.096815    0.464781    1.193945    11.00000   -1.20000
AFIX   0
C9    1    0.381935    0.408310    1.167227    11.00000    0.04185    0.01989 =
         0.02048   -0.00006    0.00262   -0.00386
AFIX  43
H9    2    0.446441    0.404392    1.261552    11.00000   -1.20000
AFIX   0
C10   1    0.494223    0.378114    1.068178    11.00000    0.02720    0.02156 =
         0.02707    0.00100    0.00050   -0.00010
AFIX  43
H10   2    0.636902    0.354528    1.094590    11.00000   -1.20000
AFIX   0
C11   1    0.398672    0.382276    0.930645    11.00000    0.02570    0.02145 =
         0.02263    0.00072    0.00638    0.00044
AFIX  43
H11   2    0.477123    0.361205    0.863745    11.00000   -1.20000
AFIX   0
C12   1   -0.145001    0.429943    0.705247    11.00000    0.01961    0.02478 =
         0.02951    0.00280    0.00469   -0.00036
AFIX 137
H12A  2   -0.199234    0.423425    0.606266    11.00000   -1.50000
H12B  2   -0.183022    0.552189    0.740075    11.00000   -1.50000
H12C  2   -0.201951    0.325352    0.750063    11.00000   -1.50000
 
HKLF 4
 
REM (S)-2m in P2(1)
REM R1 =  0.0257 for   1696 Fo > 4sig(Fo)  and  0.0257 for all   1696 data
REM    132 parameters refined using      1 restraints
 
END  
     
WGHT      0.0408      0.0808 
REM Highest difference peak  0.187,  deepest hole -0.130,  1-sigma level  0.034
Q1    1  -0.0241  0.4189  0.7196  11.00000  0.05    0.19
Q2    1   0.1373  0.4137  0.8189  11.00000  0.05    0.19
Q3    1   0.4236  0.4308  1.1081  11.00000  0.05    0.18
Q4    1   0.2932  0.4472  0.8994  11.00000  0.05    0.17
Q5    1   0.1323  0.4933  0.7047  11.00000  0.05    0.16
Q6    1   0.1346  0.3880  0.9417  11.00000  0.05    0.16
Q7    1   0.1437  0.4515  0.9359  11.00000  0.05    0.15
Q8    1   0.1291  0.3219  0.7067  11.00000  0.05    0.14
Q9    1   0.1294  0.3862  1.0617  11.00000  0.05    0.13
Q10   1   0.4447  0.4331  0.9947  11.00000  0.05    0.13
Q11   1   0.2169  0.2624  0.6121  11.00000  0.05    0.13
Q12   1   0.2755  0.3844  1.1449  11.00000  0.05    0.12
Q13   1   0.5385  0.1510  0.5267  11.00000  0.05    0.11
Q14   1   0.2145  0.5411  0.6002  11.00000  0.05    0.10
Q15   1   0.3249  0.2530  0.5215  11.00000  0.05    0.10
Q16   1   0.5088  0.4537  0.8803  11.00000  0.05    0.10
Q17   1   0.1329  0.3851  1.1742  11.00000  0.05    0.10
Q18   1   0.4318  0.2614  0.6062  11.00000  0.05    0.09
Q19   1  -0.1397  0.3823  1.0567  11.00000  0.05    0.09
Q20   1   0.1697  0.1345  0.6974  11.00000  0.05    0.09
;
_cod_data_source_file            cg500284q_si_001.cif
_cod_data_source_block           (S)-2m
_cod_depositor_comments
;
The following automatic conversions were performed:

'_symmetry_cell_setting' value 'Monoclinic' changed to 'monoclinic'
according to
/usr/data/users/saulius/crontab/automatic-downloads/rss-feeds/ACS/lib/dictionaries/cif_core.dic
dictionary named 'cif_core.dic' version 2.4.2 from 2011-04-26.

Automatic conversion script
Id: cif_fix_values 2281 2013-09-26 08:29:07Z andrius 

 Adding full bibliography for 4511390--4511397.cif.
;
_cod_original_sg_symbol_H-M      'P 21'
_cod_database_code               4511395
loop_
_symmetry_equiv_pos_as_xyz
'x, y, z'
'-x, y+1/2, -z'
loop_
_atom_site_label
_atom_site_type_symbol
_atom_site_fract_x
_atom_site_fract_y
_atom_site_fract_z
_atom_site_U_iso_or_equiv
_atom_site_adp_type
_atom_site_occupancy
_atom_site_symmetry_multiplicity
_atom_site_calc_flag
_atom_site_refinement_flags
O1 O 0.13487(13) 0.74648(12) 0.67247(9) 0.0243(2) Uani 1 1 d .
O2 O 0.42258(14) 0.21698(15) 0.53174(9) 0.0292(2) Uani 1 1 d .
N1 N 0.30710(17) 0.50583(16) 0.59093(11) 0.0225(3) Uani 1 1 d .
H1 H 0.387(2) 0.574(3) 0.5526(16) 0.027 Uiso 1 1 d .
C2 C 0.17480(18) 0.57903(18) 0.66607(12) 0.0198(3) Uani 1 1 d .
C3 C 0.08825(16) 0.41253(19) 0.73548(11) 0.0199(3) Uani 1 1 d .
C4 C 0.15985(18) 0.23604(19) 0.66611(12) 0.0212(3) Uani 1 1 d .
H4A H 0.2243 0.1413 0.7355 0.025 Uiso 1 1 calc R
H4B H 0.0430 0.1751 0.6030 0.025 Uiso 1 1 calc R
C5 C 0.31233(18) 0.31026(19) 0.58871(13) 0.0217(3) Uani 1 1 d .
C6 C 0.18951(17) 0.41684(18) 0.88881(11) 0.0202(2) Uani 1 1 d .
C7 C 0.07912(19) 0.45053(18) 0.98892(13) 0.0250(3) Uani 1 1 d .
H7 H -0.0628 0.4781 0.9629 0.030 Uiso 1 1 calc R
C8 C 0.1748(2) 0.44419(19) 1.12672(13) 0.0289(3) Uani 1 1 d .
H8 H 0.0968 0.4648 1.1939 0.035 Uiso 1 1 calc R
C9 C 0.3819(2) 0.4083(2) 1.16723(12) 0.0281(3) Uani 1 1 d .
H9 H 0.4464 0.4044 1.2616 0.034 Uiso 1 1 calc R
C10 C 0.4942(2) 0.37811(19) 1.06818(13) 0.0261(3) Uani 1 1 d .
H10 H 0.6369 0.3545 1.0946 0.031 Uiso 1 1 calc R
C11 C 0.39867(19) 0.38228(19) 0.93064(12) 0.0231(3) Uani 1 1 d .
H11 H 0.4771 0.3612 0.8637 0.028 Uiso 1 1 calc R
C12 C -0.14500(17) 0.42994(19) 0.70525(13) 0.0247(3) Uani 1 1 d .
H12A H -0.1992 0.4234 0.6063 0.037 Uiso 1 1 calc R
H12B H -0.1830 0.5522 0.7401 0.037 Uiso 1 1 calc R
H12C H -0.2020 0.3254 0.7501 0.037 Uiso 1 1 calc R
loop_
_atom_site_aniso_label
_atom_site_aniso_U_11
_atom_site_aniso_U_22
_atom_site_aniso_U_33
_atom_site_aniso_U_23
_atom_site_aniso_U_13
_atom_site_aniso_U_12
O1 0.0273(4) 0.0194(5) 0.0260(4) 0.0007(3) 0.0056(4) 0.0010(4)
O2 0.0240(4) 0.0333(5) 0.0313(5) -0.0093(4) 0.0084(4) 0.0020(4)
N1 0.0212(6) 0.0238(6) 0.0238(6) 0.0007(4) 0.0078(4) -0.0029(4)
C2 0.0179(6) 0.0213(6) 0.0185(6) 0.0003(5) 0.0002(5) -0.0010(5)
C3 0.0190(5) 0.0185(6) 0.0219(5) -0.0001(5) 0.0042(4) -0.0001(5)
C4 0.0218(6) 0.0194(6) 0.0219(6) -0.0005(5) 0.0036(5) -0.0016(5)
C5 0.0186(6) 0.0250(6) 0.0201(7) -0.0029(5) 0.0015(5) -0.0005(5)
C6 0.0238(5) 0.0148(5) 0.0222(5) 0.0002(5) 0.0058(4) -0.0013(5)
C7 0.0261(6) 0.0226(6) 0.0278(6) -0.0013(5) 0.0092(5) 0.0002(5)
C8 0.0402(7) 0.0243(7) 0.0258(6) -0.0027(5) 0.0148(5) -0.0031(6)
C9 0.0419(7) 0.0199(6) 0.0205(5) -0.0001(6) 0.0026(5) -0.0039(6)
C10 0.0272(6) 0.0216(6) 0.0271(6) 0.0010(5) 0.0005(5) -0.0001(5)
C11 0.0257(6) 0.0214(6) 0.0226(6) 0.0007(5) 0.0064(5) 0.0004(5)
C12 0.0196(5) 0.0248(7) 0.0295(6) 0.0028(5) 0.0047(5) -0.0004(5)
loop_
_atom_type_symbol
_atom_type_description
_atom_type_scat_dispersion_real
_atom_type_scat_dispersion_imag
_atom_type_scat_source
C C 0.0181 0.0091 'International Tables Vol C Tables 4.2.6.8 and 6.1.1.4'
H H 0.0000 0.0000 'International Tables Vol C Tables 4.2.6.8 and 6.1.1.4'
N N 0.0311 0.0180 'International Tables Vol C Tables 4.2.6.8 and 6.1.1.4'
O O 0.0492 0.0322 'International Tables Vol C Tables 4.2.6.8 and 6.1.1.4'
loop_
_geom_angle_atom_site_label_1
_geom_angle_atom_site_label_2
_geom_angle_atom_site_label_3
_geom_angle
C5 N1 C2 113.69(11)
C5 N1 H1 121.5(12)
C2 N1 H1 124.7(12)
O1 C2 N1 124.45(12)
O1 C2 C3 127.14(12)
N1 C2 C3 108.40(10)
C12 C3 C2 108.70(10)
C12 C3 C6 113.86(9)
C2 C3 C6 108.02(10)
C12 C3 C4 112.27(10)
C2 C3 C4 102.67(9)
C6 C3 C4 110.61(10)
C5 C4 C3 105.54(10)
C5 C4 H4A 110.6
C3 C4 H4A 110.6
C5 C4 H4B 110.6
C3 C4 H4B 110.6
H4A C4 H4B 108.8
O2 C5 N1 124.35(14)
O2 C5 C4 127.32(12)
N1 C5 C4 108.33(11)
C7 C6 C11 118.15(11)
C7 C6 C3 122.36(10)
C11 C6 C3 119.48(10)
C8 C7 C6 120.52(12)
C8 C7 H7 119.7
C6 C7 H7 119.7
C9 C8 C7 120.89(11)
C9 C8 H8 119.6
C7 C8 H8 119.6
C8 C9 C10 119.06(11)
C8 C9 H9 120.5
C10 C9 H9 120.5
C9 C10 C11 120.16(12)
C9 C10 H10 119.9
C11 C10 H10 119.9
C10 C11 C6 121.20(11)
C10 C11 H11 119.4
C6 C11 H11 119.4
C3 C12 H12A 109.5
C3 C12 H12B 109.5
H12A C12 H12B 109.5
C3 C12 H12C 109.5
H12A C12 H12C 109.5
H12B C12 H12C 109.5
loop_
_geom_bond_atom_site_label_1
_geom_bond_atom_site_label_2
_geom_bond_distance
O1 C2 1.2090(16)
O2 C5 1.2186(16)
N1 C5 1.3720(16)
N1 C2 1.3821(17)
N1 H1 0.864(18)
C2 C3 1.5363(17)
C3 C12 1.5321(15)
C3 C6 1.5384(15)
C3 C4 1.5463(18)
C4 C5 1.5052(18)
C4 H4A 0.9900
C4 H4B 0.9900
C6 C7 1.3912(18)
C6 C11 1.3948(17)
C7 C8 1.3903(18)
C7 H7 0.9500
C8 C9 1.383(2)
C8 H8 0.9500
C9 C10 1.387(2)
C9 H9 0.9500
C10 C11 1.3873(17)
C10 H10 0.9500
C11 H11 0.9500
C12 H12A 0.9800
C12 H12B 0.9800
C12 H12C 0.9800
loop_
_geom_hbond_atom_site_label_D
_geom_hbond_atom_site_label_H
_geom_hbond_atom_site_label_A
_geom_hbond_site_symmetry_A
_geom_hbond_distance_DH
_geom_hbond_distance_HA
_geom_hbond_distance_DA
_geom_hbond_angle_DHA
N1 H1 O2 2_656 0.864(18) 1.955(16) 2.8223(14) 177(2)
loop_
_geom_torsion_atom_site_label_1
_geom_torsion_atom_site_label_2
_geom_torsion_atom_site_label_3
_geom_torsion_atom_site_label_4
_geom_torsion
C5 N1 C2 O1 -173.89(12)
C5 N1 C2 C3 5.16(14)
O1 C2 C3 C12 49.63(16)
N1 C2 C3 C12 -129.38(10)
O1 C2 C3 C6 -74.37(14)
N1 C2 C3 C6 106.61(10)
O1 C2 C3 C4 168.73(12)
N1 C2 C3 C4 -10.29(11)
C12 C3 C4 C5 127.98(10)
C2 C3 C4 C5 11.42(11)
C6 C3 C4 C5 -103.62(11)
C2 N1 C5 O2 -177.87(11)
C2 N1 C5 C4 2.66(14)
C3 C4 C5 O2 171.39(12)
C3 C4 C5 N1 -9.16(12)
C12 C3 C6 C7 -5.37(18)
C2 C3 C6 C7 115.46(13)
C4 C3 C6 C7 -132.90(12)
C12 C3 C6 C11 173.34(11)
C2 C3 C6 C11 -65.83(15)
C4 C3 C6 C11 45.80(16)
C11 C6 C7 C8 -1.82(19)
C3 C6 C7 C8 176.90(12)
C6 C7 C8 C9 1.35(19)
C7 C8 C9 C10 -0.1(2)
C8 C9 C10 C11 -0.6(2)
C9 C10 C11 C6 0.1(2)
C7 C6 C11 C10 1.1(2)
C3 C6 C11 C10 -177.65(12)
