#------------------------------------------------------------------------------
#$Date: 2016-03-24 14:18:17 +0200 (Thu, 24 Mar 2016) $
#$Revision: 179659 $
#$URL: svn://www.crystallography.net/cod/cif/4/51/12/4511247.cif $
#------------------------------------------------------------------------------
#
# This file is available in the Crystallography Open Database (COD),
# http://www.crystallography.net/
#
# All data on this site have been placed in the public domain by the
# contributors.
#
data_4511247
loop_
_publ_author_name
'P\'erez-Torralba, Marta'
'Garc\'ia, M. \'Angeles'
'L\'opez, Concepci\'on'
'Torralba, M. Carmen'
'Torres, M. Rosario'
'Claramunt, Rosa M.'
'Elguero, Jos\'e'
_publ_section_title
;
 Structural Investigation of Weak Intermolecular Interactions (Hydrogen
 and Halogen Bonds) in Fluorine-Substituted Benzimidazoles
;
_journal_issue                   7
_journal_name_full               'Crystal Growth &amp; Design'
_journal_page_first              3499
_journal_paper_doi               10.1021/cg500442k
_journal_volume                  14
_journal_year                    2014
_chemical_formula_sum            'C7 H2 F4 N2 O'
_chemical_formula_weight         206.11
_chemical_name_systematic
; 
 ? 
;
_space_group_IT_number           14
_symmetry_cell_setting           monoclinic
_symmetry_space_group_name_Hall  '-P 2ybc'
_symmetry_space_group_name_H-M   'P 1 21/c 1'
_atom_sites_solution_hydrogens   geom
_atom_sites_solution_primary     direct
_atom_sites_solution_secondary   difmap
_audit_creation_method           SHELXL-97
_cell_angle_alpha                90.00
_cell_angle_beta                 100.854(18)
_cell_angle_gamma                90.00
_cell_formula_units_Z            4
_cell_length_a                   13.723(15)
_cell_length_b                   4.884(5)
_cell_length_c                   11.259(12)
_cell_measurement_reflns_used    1436
_cell_measurement_temperature    296(2)
_cell_measurement_theta_max      23.88
_cell_measurement_theta_min      3.02
_cell_volume                     741.1(14)
_computing_cell_refinement       'Bruker SMART'
_computing_data_collection       'Bruker SMART'
_computing_data_reduction        'Bruker SAINT'
_computing_molecular_graphics    'Bruker SHELXTL'
_computing_publication_material  'Bruker SHELXTL'
_computing_structure_refinement  'SHELXL-97 (Sheldrick, 1997)'
_computing_structure_solution    'SHELXS-97 (Sheldrick, 1990)'
_diffrn_ambient_temperature      296(2)
_diffrn_measured_fraction_theta_full 1.000
_diffrn_measured_fraction_theta_max 1.000
_diffrn_measurement_device_type  'CCD area detector'
_diffrn_measurement_method       'phi and omega scans'
_diffrn_radiation_monochromator  graphite
_diffrn_radiation_source         'fine-focus sealed tube'
_diffrn_radiation_type           MoK\a
_diffrn_radiation_wavelength     0.71073
_diffrn_reflns_av_R_equivalents  0.0920
_diffrn_reflns_av_sigmaI/netI    0.0680
_diffrn_reflns_limit_h_max       17
_diffrn_reflns_limit_h_min       -13
_diffrn_reflns_limit_k_max       4
_diffrn_reflns_limit_k_min       -6
_diffrn_reflns_limit_l_max       14
_diffrn_reflns_limit_l_min       -14
_diffrn_reflns_number            5894
_diffrn_reflns_theta_full        27.00
_diffrn_reflns_theta_max         27.00
_diffrn_reflns_theta_min         1.51
_exptl_absorpt_coefficient_mu    0.194
_exptl_absorpt_correction_type   none
_exptl_crystal_colour            colorless
_exptl_crystal_density_diffrn    1.847
_exptl_crystal_density_method    'not measured'
_exptl_crystal_description       thin
_exptl_crystal_F_000             408
_exptl_crystal_size_max          0.50
_exptl_crystal_size_mid          0.25
_exptl_crystal_size_min          0.03
_refine_diff_density_max         0.170
_refine_diff_density_min         -0.212
_refine_diff_density_rms         0.048
_refine_ls_extinction_method     none
_refine_ls_goodness_of_fit_ref   0.990
_refine_ls_hydrogen_treatment    constr
_refine_ls_matrix_type           full
_refine_ls_number_parameters     127
_refine_ls_number_reflns         1623
_refine_ls_number_restraints     0
_refine_ls_restrained_S_all      0.990
_refine_ls_R_factor_all          0.0865
_refine_ls_R_factor_gt           0.0402
_refine_ls_shift/su_max          0.001
_refine_ls_shift/su_mean         0.000
_refine_ls_structure_factor_coef Fsqd
_refine_ls_weighting_details
'calc w=1/[\s^2^(Fo^2^)+(0.0500P)^2^+0.0000P] where P=(Fo^2^+2Fc^2^)/3'
_refine_ls_weighting_scheme      calc
_refine_ls_wR_factor_gt          0.0971
_refine_ls_wR_factor_ref         0.1152
_reflns_number_gt                908
_reflns_number_total             1623
_reflns_threshold_expression     >2sigma(I)
_cod_data_source_file            cg500442k_si_001.cif
_cod_data_source_block           C7H2F4N2O_(3)
_cod_depositor_comments
;
The following automatic conversions were performed:

'_symmetry_cell_setting' value 'Monoclinic' changed to 'monoclinic'
according to
/usr/data/users/saulius/crontab/automatic-downloads/rss-feeds/ACS/lib/dictionaries/cif_core.dic
dictionary named 'cif_core.dic' version 2.4.2 from 2011-04-26.

Automatic conversion script
Id: cif_fix_values 2281 2013-09-26 08:29:07Z andrius 

 Adding full bibliography for 4511245--4511251.cif.
;
_cod_original_cell_volume        741.0(14)
_cod_original_sg_symbol_H-M      P2(1)/c
_cod_database_code               4511247
loop_
_symmetry_equiv_pos_as_xyz
'x, y, z'
'-x, y+1/2, -z+1/2'
'-x, -y, -z'
'x, -y-1/2, z-1/2'
loop_
_atom_site_label
_atom_site_type_symbol
_atom_site_fract_x
_atom_site_fract_y
_atom_site_fract_z
_atom_site_U_iso_or_equiv
_atom_site_adp_type
_atom_site_occupancy
_atom_site_symmetry_multiplicity
_atom_site_calc_flag
_atom_site_refinement_flags
N1 N 0.11110(12) 0.1911(4) 1.00853(15) 0.0386(5) Uani 1 1 d .
H1 H 0.0865 0.0734 1.0562 0.046 Uiso 1 1 d R
O1 O -0.03331(11) 0.2246(3) 0.86298(13) 0.0471(4) Uani 1 1 d .
C2 C 0.05215(17) 0.2990(5) 0.90884(18) 0.0378(5) Uani 1 1 d .
N3 N 0.10550(13) 0.5057(4) 0.86841(15) 0.0399(5) Uani 1 1 d .
H3 H 0.0754 0.5860 0.7892 0.048 Uiso 1 1 d R
C3A C 0.19754(16) 0.5229(4) 0.94212(18) 0.0369(5) Uani 1 1 d .
C4 C 0.27931(17) 0.6884(5) 0.93952(19) 0.0432(6) Uani 1 1 d .
F4 F 0.27566(11) 0.8815(3) 0.85367(12) 0.0630(5) Uani 1 1 d .
C5 C 0.36281(18) 0.6488(5) 1.0259(2) 0.0506(7) Uani 1 1 d .
F5 F 0.44272(12) 0.8055(4) 1.02520(15) 0.0805(5) Uani 1 1 d .
C6 C 0.36684(18) 0.4535(5) 1.1140(2) 0.0504(7) Uani 1 1 d .
F6 F 0.44880(11) 0.4229(3) 1.19683(14) 0.0780(5) Uani 1 1 d .
C7 C 0.28471(17) 0.2906(5) 1.11821(19) 0.0417(6) Uani 1 1 d .
C7A C 0.20126(16) 0.3269(4) 1.03171(18) 0.0363(5) Uani 1 1 d .
F7 F 0.28801(11) 0.0994(3) 1.20404(12) 0.0605(5) Uani 1 1 d .
loop_
_atom_site_aniso_label
_atom_site_aniso_U_11
_atom_site_aniso_U_22
_atom_site_aniso_U_33
_atom_site_aniso_U_23
_atom_site_aniso_U_13
_atom_site_aniso_U_12
N1 0.0412(11) 0.0378(11) 0.0380(9) 0.0031(8) 0.0105(8) -0.0096(9)
O1 0.0428(9) 0.0553(11) 0.0424(8) -0.0032(8) 0.0055(7) -0.0116(8)
C2 0.0429(13) 0.0364(13) 0.0353(10) -0.0050(10) 0.0107(10) -0.0030(11)
N3 0.0443(11) 0.0407(11) 0.0348(9) 0.0035(8) 0.0079(8) -0.0074(9)
C3A 0.0423(13) 0.0353(13) 0.0353(10) -0.0035(10) 0.0130(9) -0.0034(11)
C4 0.0510(15) 0.0359(14) 0.0467(12) 0.0011(11) 0.0194(11) -0.0103(12)
F4 0.0804(11) 0.0522(10) 0.0608(9) 0.0111(7) 0.0240(7) -0.0179(7)
C5 0.0456(15) 0.0471(16) 0.0619(15) -0.0054(12) 0.0172(12) -0.0185(12)
F5 0.0589(10) 0.0820(12) 0.1004(12) 0.0048(10) 0.0144(8) -0.0358(9)
C6 0.0416(15) 0.0549(18) 0.0521(14) -0.0045(12) 0.0016(11) -0.0050(12)
F6 0.0523(10) 0.0863(13) 0.0853(11) 0.0048(9) -0.0130(8) -0.0143(8)
C7 0.0476(14) 0.0382(14) 0.0392(11) 0.0017(10) 0.0081(10) -0.0033(11)
C7A 0.0417(13) 0.0327(13) 0.0362(10) -0.0045(9) 0.0120(9) -0.0070(10)
F7 0.0679(10) 0.0584(10) 0.0517(8) 0.0159(7) 0.0022(7) -0.0054(7)
loop_
_atom_type_symbol
_atom_type_description
_atom_type_scat_dispersion_real
_atom_type_scat_dispersion_imag
_atom_type_scat_source
C C 0.0033 0.0016 'International Tables Vol C Tables 4.2.6.8 and 6.1.1.4'
H H 0.0000 0.0000 'International Tables Vol C Tables 4.2.6.8 and 6.1.1.4'
N N 0.0061 0.0033 'International Tables Vol C Tables 4.2.6.8 and 6.1.1.4'
O O 0.0106 0.0060 'International Tables Vol C Tables 4.2.6.8 and 6.1.1.4'
F F 0.0171 0.0103 'International Tables Vol C Tables 4.2.6.8 and 6.1.1.4'
loop_
_geom_angle_atom_site_label_1
_geom_angle_atom_site_label_2
_geom_angle_atom_site_label_3
_geom_angle
C2 N1 C7A 109.98(19)
O1 C2 N1 126.7(2)
O1 C2 N3 126.6(2)
N1 C2 N3 106.7(2)
C2 N3 C3A 109.29(18)
C4 C3A N3 132.6(2)
C4 C3A C7A 119.9(2)
N3 C3A C7A 107.51(19)
F4 C4 C5 121.5(2)
F4 C4 C3A 120.2(2)
C5 C4 C3A 118.3(2)
F5 C5 C4 119.5(2)
F5 C5 C6 118.7(2)
C4 C5 C6 121.8(2)
F6 C6 C5 120.0(2)
F6 C6 C7 119.9(2)
C5 C6 C7 120.1(2)
F7 C7 C7A 121.0(2)
F7 C7 C6 120.5(2)
C7A C7 C6 118.6(2)
C7 C7A N1 132.1(2)
C7 C7A C3A 121.3(2)
N1 C7A C3A 106.54(19)
loop_
_geom_bond_atom_site_label_1
_geom_bond_atom_site_label_2
_geom_bond_distance
N1 C2 1.360(3)
N1 C7A 1.385(3)
O1 C2 1.243(3)
C2 N3 1.374(3)
N3 C3A 1.377(3)
C3A C4 1.388(3)
C3A C7A 1.384(3)
C4 F4 1.345(3)
C4 C5 1.370(4)
C5 F5 1.338(3)
C5 C6 1.370(4)
C6 F6 1.327(3)
C6 C7 1.388(3)
C7 F7 1.338(3)
C7 C7A 1.368(3)
loop_
_geom_hbond_atom_site_label_D
_geom_hbond_atom_site_label_H
_geom_hbond_atom_site_label_A
_geom_hbond_distance_DH
_geom_hbond_distance_HA
_geom_hbond_distance_DA
_geom_hbond_angle_DHA
_geom_hbond_site_symmetry_A
N1 H1 O1 0.89 1.93 2.817(3) 170.2 3_557
N3 H3 O1 0.99 1.83 2.818(3) 173.4 2_556
loop_
_geom_torsion_atom_site_label_1
_geom_torsion_atom_site_label_2
_geom_torsion_atom_site_label_3
_geom_torsion_atom_site_label_4
_geom_torsion
C7A N1 C2 O1 179.8(2)
C7A N1 C2 N3 -0.1(2)
O1 C2 N3 C3A -179.1(2)
N1 C2 N3 C3A 0.8(2)
C2 N3 C3A C4 178.1(2)
C2 N3 C3A C7A -1.2(2)
N3 C3A C4 F4 1.7(4)
C7A C3A C4 F4 -179.11(19)
N3 C3A C4 C5 -178.1(2)
C7A C3A C4 C5 1.0(3)
F4 C4 C5 F5 0.0(4)
C3A C4 C5 F5 179.9(2)
F4 C4 C5 C6 179.6(2)
C3A C4 C5 C6 -0.5(4)
F5 C5 C6 F6 0.2(4)
C4 C5 C6 F6 -179.4(2)
F5 C5 C6 C7 179.1(2)
C4 C5 C6 C7 -0.5(4)
F6 C6 C7 F7 -1.1(3)
C5 C6 C7 F7 -180.0(2)
F6 C6 C7 C7A 180.0(2)
C5 C6 C7 C7A 1.1(4)
F7 C7 C7A N1 -2.4(4)
C6 C7 C7A N1 176.5(2)
F7 C7 C7A C3A -179.51(19)
C6 C7 C7A C3A -0.6(3)
C2 N1 C7A C7 -178.1(2)
C2 N1 C7A C3A -0.6(2)
C4 C3A C7A C7 -0.5(3)
N3 C3A C7A C7 178.86(19)
C4 C3A C7A N1 -178.26(19)
N3 C3A C7A N1 1.1(2)
