#------------------------------------------------------------------------------
#$Date: 2016-03-24 14:19:41 +0200 (Thu, 24 Mar 2016) $
#$Revision: 179660 $
#$URL: svn://www.crystallography.net/cod/cif/4/51/13/4511391.cif $
#------------------------------------------------------------------------------
#
# This file is available in the Crystallography Open Database (COD),
# http://www.crystallography.net/
#
# All data on this site have been placed in the public domain by the
# contributors.
#
data_4511391
loop_
_publ_author_name
'Khrustalev, Victor N.'
'Sandhu, Bhupinder'
'Bentum, Samuel'
'Fonari, Alexandr'
'Krivoshein, Arcadius V.'
'Timofeeva, Tatiana V.'
_publ_section_title
;
 Absolute Configuration and Polymorphism of 2-Phenylbutyramide and
 \a-Methyl-\a-phenylsuccinimide
;
_journal_issue                   7
_journal_name_full               'Crystal Growth &amp; Design'
_journal_page_first              3360
_journal_paper_doi               10.1021/cg500284q
_journal_volume                  14
_journal_year                    2014
_chemical_absolute_configuration ad
_chemical_formula_moiety         'C10 H13 N O'
_chemical_formula_sum            'C10 H13 N O'
_chemical_formula_weight         163.21
_chemical_name_systematic
; 
 ? 
;
_space_group_IT_number           1
_symmetry_cell_setting           triclinic
_symmetry_space_group_name_Hall  'P 1'
_symmetry_space_group_name_H-M   'P 1'
_atom_sites_solution_hydrogens   difmap
_atom_sites_solution_primary     direct
_atom_sites_solution_secondary   difmap
_audit_creation_method           SHELXL-97
_cell_angle_alpha                96.3260(10)
_cell_angle_beta                 102.9380(10)
_cell_angle_gamma                104.9980(10)
_cell_formula_units_Z            2
_cell_length_a                   5.19160(10)
_cell_length_b                   9.4525(2)
_cell_length_c                   10.0367(2)
_cell_measurement_reflns_used    9951
_cell_measurement_temperature    100(2)
_cell_measurement_theta_max      71.56
_cell_measurement_theta_min      4.59
_cell_volume                     456.226(16)
_computing_cell_refinement       'SAINT (Bruker, 2001)'
_computing_data_collection       'APEX2 (Bruker, 2005)'
_computing_data_reduction        'SAINT (Bruker, 2001)'
_computing_molecular_graphics    'SHELXTL (Sheldrick, 2008)'
_computing_publication_material  'SHELXTL (Sheldrick, 2008)'
_computing_structure_refinement  'SHELXTL (Sheldrick, 2008)'
_computing_structure_solution    'SHELXTL (Sheldrick, 2008)'
_diffrn_ambient_temperature      100(2)
_diffrn_measured_fraction_theta_full 0.975
_diffrn_measured_fraction_theta_max 0.975
_diffrn_measurement_device_type  'Bruker APEX-II CCD'
_diffrn_measurement_method       '\f and \w scans'
_diffrn_radiation_monochromator  graphite
_diffrn_radiation_source         'fine-focus sealed tube'
_diffrn_radiation_type           CuK\a
_diffrn_radiation_wavelength     1.54178
_diffrn_reflns_av_R_equivalents  0.0375
_diffrn_reflns_av_sigmaI/netI    0.0448
_diffrn_reflns_limit_h_max       6
_diffrn_reflns_limit_h_min       -6
_diffrn_reflns_limit_k_max       11
_diffrn_reflns_limit_k_min       -11
_diffrn_reflns_limit_l_max       12
_diffrn_reflns_limit_l_min       -10
_diffrn_reflns_number            11121
_diffrn_reflns_theta_full        69.99
_diffrn_reflns_theta_max         69.99
_diffrn_reflns_theta_min         4.59
_exptl_absorpt_coefficient_mu    0.607
_exptl_absorpt_correction_T_max  0.953
_exptl_absorpt_correction_T_min  0.776
_exptl_absorpt_correction_type   multi-scan
_exptl_absorpt_process_details   'SADABS (Sheldrick, 2003)'
_exptl_crystal_colour            colourless
_exptl_crystal_density_diffrn    1.188
_exptl_crystal_density_method    'not measured'
_exptl_crystal_description       needle
_exptl_crystal_F_000             176
_exptl_crystal_size_max          0.44
_exptl_crystal_size_mid          0.10
_exptl_crystal_size_min          0.08
_refine_diff_density_max         0.121
_refine_diff_density_min         -0.171
_refine_diff_density_rms         0.038
_refine_ls_abs_structure_details 'Flack H D (1983), Acta Cryst. A39, 876-881'
_refine_ls_abs_structure_Flack   0.24(19)
_refine_ls_extinction_method     none
_refine_ls_goodness_of_fit_ref   1.000
_refine_ls_hydrogen_treatment    mixed
_refine_ls_matrix_type           full
_refine_ls_number_parameters     231
_refine_ls_number_reflns         3010
_refine_ls_number_restraints     3
_refine_ls_restrained_S_all      1.000
_refine_ls_R_factor_all          0.0323
_refine_ls_R_factor_gt           0.0321
_refine_ls_shift/su_max          0.000
_refine_ls_shift/su_mean         0.000
_refine_ls_structure_factor_coef Fsqd
_refine_ls_weighting_details
'calc w=1/[\s^2^(Fo^2^)+(0.041P)^2^+0.073P] where P=(Fo^2^+2Fc^2^)/3'
_refine_ls_weighting_scheme      calc
_refine_ls_wR_factor_gt          0.0815
_refine_ls_wR_factor_ref         0.0818
_reflns_number_gt                2991
_reflns_number_total             3010
_reflns_threshold_expression     I>2\s(I)
_iucr_refine_instructions_details
;
TITL (R)-1 in P1
CELL 1.54178   5.1916   9.4525  10.0367  96.326 102.938 104.998
ZERR    2.00   0.0001   0.0002   0.0002   0.001   0.001   0.001
LATT -1
SFAC C H N O
UNIT 20 26 2 2
TEMP -173.0
SIZE 0.08 0.10 0.44
 
L.S. 12
BOND $H
ACTA
CONF
HTAB
 
WGHT    0.041000    0.073000
FVAR       0.78066
O1    4    0.863950    0.536214    0.088058    11.00000    0.02135    0.03066 =
         0.03258   -0.00506    0.00497    0.00574
N1    3    0.448579    0.552998    0.107269    11.00000    0.02061    0.02744 =
         0.03027   -0.00589    0.00394    0.00507
H1A   2    0.508580    0.623856    0.175273    11.00000   -1.20000
H1B   2    0.275404    0.524838    0.077455    11.00000   -1.20000
C1    1    0.607987    0.495113    0.045483    11.00000    0.02418    0.02167 =
         0.02732    0.00260    0.00580    0.00610
C2    1    0.466872    0.370349   -0.081153    11.00000    0.02399    0.02334 =
         0.02477   -0.00084    0.00665    0.00614
AFIX  13
H2    2    0.596426    0.376015   -0.141955    11.00000   -1.20000
AFIX   0
C3    1    0.194161    0.382759   -0.169223    11.00000    0.02652    0.02436 =
         0.02768   -0.00030    0.00361    0.00632
AFIX  23
H3A   2    0.115209    0.296743   -0.246773    11.00000   -1.20000
H3B   2    0.061843    0.377350   -0.111271    11.00000   -1.20000
AFIX   0
C4    1    0.225175    0.525795   -0.228727    11.00000    0.04536    0.02745 =
         0.03256    0.00315    0.00302    0.01155
AFIX 137
H4A   2    0.045942    0.524751   -0.287279    11.00000   -1.50000
H4B   2    0.358977    0.533234   -0.284641    11.00000   -1.50000
H4C   2    0.290566    0.611450   -0.152553    11.00000   -1.50000
AFIX   0
C5    1    0.428177    0.219844   -0.033040    11.00000    0.02099    0.02434 =
         0.02368   -0.00070    0.00125    0.00540
C6    1    0.553091    0.118473   -0.081578    11.00000    0.02616    0.02869 =
         0.03465   -0.00126    0.00903    0.00750
AFIX  43
H6    2    0.664400    0.143416   -0.143765    11.00000   -1.20000
AFIX   0
C7    1    0.515933   -0.019233   -0.039566    11.00000    0.03691    0.02746 =
         0.04813   -0.00071    0.00862    0.01463
AFIX  43
H7    2    0.602604   -0.087547   -0.073029    11.00000   -1.20000
AFIX   0
C8    1    0.354080   -0.057268    0.050360    11.00000    0.04112    0.02980 =
         0.03536    0.00609    0.00257    0.01174
AFIX  43
H8    2    0.329069   -0.151368    0.078825    11.00000   -1.20000
AFIX   0
C9    1    0.228376    0.042934    0.098778    11.00000    0.04142    0.03586 =
         0.02955    0.00689    0.00979    0.00944
AFIX  43
H9    2    0.115779    0.017364    0.160281    11.00000   -1.20000
AFIX   0
C10   1    0.266806    0.180825    0.057476    11.00000    0.03317    0.03031 =
         0.02869    0.00154    0.00745    0.01199
AFIX  43
H10   2    0.181212    0.249234    0.091806    11.00000   -1.20000
AFIX   0
O1A   4    0.686015    0.789210    0.346570    11.00000    0.01980    0.03214 =
         0.03385   -0.00603    0.00453    0.00708
N1A   3    1.107038    0.773070    0.337242    11.00000    0.02018    0.02676 =
         0.03164   -0.00380    0.00470    0.00588
H1C   2    1.288171    0.802338    0.368090    11.00000   -1.20000
H1D   2    1.028960    0.701019    0.262840    11.00000   -1.20000
C1A   1    0.940675    0.831566    0.393708    11.00000    0.02231    0.02253 =
         0.02656    0.00013    0.00589    0.00679
C2A   1    1.076355    0.956842    0.520292    11.00000    0.02070    0.02326 =
         0.02753    0.00022    0.00410    0.00714
AFIX  13
H2A   2    1.258779    0.945048    0.567642    11.00000   -1.20000
AFIX   0
C3A   1    0.898255    0.946027    0.623366    11.00000    0.02818    0.02322 =
         0.02949   -0.00125    0.00761    0.00542
AFIX  23
H3C   2    0.988016    1.029315    0.702971    11.00000   -1.20000
H3D   2    0.716346    0.956866    0.577500    11.00000   -1.20000
AFIX   0
C4A   1    0.853568    0.799184    0.677543    11.00000    0.05532    0.02735 =
         0.03753    0.00397    0.01723    0.00586
AFIX 137
H4D   2    0.742096    0.799251    0.744475    11.00000   -1.50000
H4E   2    1.032853    0.787680    0.723175    11.00000   -1.50000
H4F   2    0.757079    0.716390    0.599743    11.00000   -1.50000
AFIX   0
C5A   1    1.128672    1.106857    0.472644    11.00000    0.02674    0.02383 =
         0.02496   -0.00104    0.00976    0.00855
C6A   1    1.388217    1.211469    0.520285    11.00000    0.02889    0.02662 =
         0.03220   -0.00107    0.00862    0.00620
AFIX  43
H6A   2    1.533848    1.187629    0.580636    11.00000   -1.20000
AFIX   0
C7A   1    1.436964    1.350269    0.480703    11.00000    0.03801    0.02712 =
         0.04134   -0.00081    0.01562    0.00400
AFIX  43
H7A   2    1.615375    1.420281    0.513556    11.00000   -1.20000
AFIX   0
C8A   1    1.226190    1.386678    0.393553    11.00000    0.05211    0.02773 =
         0.03850    0.00866    0.02330    0.01372
AFIX  43
H8A   2    1.259179    1.481877    0.367142    11.00000   -1.20000
AFIX   0
C9A   1    0.966955    1.283928    0.344928    11.00000    0.04415    0.03822 =
         0.03067    0.00848    0.01353    0.02049
AFIX  43
H9A   2    0.822113    1.308398    0.284608    11.00000   -1.20000
AFIX   0
C10A  1    0.918564    1.145005    0.384333    11.00000    0.03133    0.03189 =
         0.02888    0.00337    0.00897    0.01105
AFIX  43
H10A  2    0.740127    1.075133    0.350699    11.00000   -1.20000
 
HKLF 4
 
REM (R)-1 in P1
REM R1 =  0.0321 for   2991 Fo > 4sig(Fo)  and  0.0323 for all   3010 data
REM    231 parameters refined using      3 restraints
 
END  
     
WGHT      0.0413      0.0632 
REM Highest difference peak  0.121,  deepest hole -0.171,  1-sigma level  0.038
Q1    1   0.0024  0.5567 -0.2182  11.00000  0.05    0.12
Q2    1   1.4848  1.0273  0.5266  11.00000  0.05    0.12
Q3    1   0.8170  0.3586 -0.0758  11.00000  0.05    0.12
Q4    1   1.0463  0.5345  0.0577  11.00000  0.05    0.11
Q5    1   0.8651  0.3319  0.0531  11.00000  0.05    0.10
Q6    1   0.2746  0.1784 -0.0343  11.00000  0.05    0.10
Q7    1   0.0426  0.2178  0.0507  11.00000  0.05    0.09
Q8    1   0.4462  0.2860 -0.0542  11.00000  0.05    0.09
Q9    1   0.9531  0.4449  0.0353  11.00000  0.05    0.09
Q10   1   0.5055  0.8005  0.3686  11.00000  0.05    0.09
Q11   1   1.5826  1.0839  0.4812  11.00000  0.05    0.09
Q12   1   0.8534 -0.0690 -0.0446  11.00000  0.05    0.09
Q13   1   0.8545  0.0839 -0.1064  11.00000  0.05    0.09
Q14   1   0.6137  0.4037 -0.1139  11.00000  0.05    0.09
Q15   1   0.0509  0.3232 -0.0980  11.00000  0.05    0.09
Q16   1   1.8226  1.3820  0.4842  11.00000  0.05    0.09
Q17   1   0.7600  1.4922  0.3459  11.00000  0.05    0.09
Q18   1   0.9996  1.1392  0.4553  11.00000  0.05    0.09
Q19   1   1.6263  1.1315  0.4789  11.00000  0.05    0.09
Q20   1   0.3669  0.7596 -0.2085  11.00000  0.05    0.08
;
_cod_data_source_file            cg500284q_si_001.cif
_cod_data_source_block           (R)-1
_cod_depositor_comments
;
The following automatic conversions were performed:

'_symmetry_cell_setting' value 'Triclinic' changed to 'triclinic'
according to
/usr/data/users/saulius/crontab/automatic-downloads/rss-feeds/ACS/lib/dictionaries/cif_core.dic
dictionary named 'cif_core.dic' version 2.4.2 from 2011-04-26.

Automatic conversion script
Id: cif_fix_values 2281 2013-09-26 08:29:07Z andrius 

 Adding full bibliography for 4511390--4511397.cif.
;
_cod_database_code               4511391
loop_
_symmetry_equiv_pos_as_xyz
'x, y, z'
loop_
_atom_site_label
_atom_site_type_symbol
_atom_site_fract_x
_atom_site_fract_y
_atom_site_fract_z
_atom_site_U_iso_or_equiv
_atom_site_adp_type
_atom_site_occupancy
_atom_site_symmetry_multiplicity
_atom_site_calc_flag
_atom_site_refinement_flags
O1 O 0.8639(2) 0.53621(12) 0.08806(12) 0.0298(2) Uani 1 1 d .
N1 N 0.4486(3) 0.55300(14) 0.10727(14) 0.0278(3) Uani 1 1 d .
H1A H 0.509(4) 0.624(2) 0.175(2) 0.033 Uiso 1 1 d .
H1B H 0.275(5) 0.525(2) 0.077(2) 0.033 Uiso 1 1 d .
C1 C 0.6080(3) 0.49511(15) 0.04548(15) 0.0248(3) Uani 1 1 d .
C2 C 0.4669(3) 0.37035(15) -0.08115(16) 0.0246(3) Uani 1 1 d .
H2 H 0.5964 0.3760 -0.1420 0.029 Uiso 1 1 calc R
C3 C 0.1942(3) 0.38276(15) -0.16922(15) 0.0274(3) Uani 1 1 d .
H3A H 0.1152 0.2967 -0.2468 0.033 Uiso 1 1 calc R
H3B H 0.0618 0.3774 -0.1113 0.033 Uiso 1 1 calc R
C4 C 0.2252(4) 0.52580(17) -0.22873(18) 0.0363(4) Uani 1 1 d .
H4A H 0.0459 0.5248 -0.2873 0.055 Uiso 1 1 calc R
H4B H 0.3590 0.5332 -0.2846 0.055 Uiso 1 1 calc R
H4C H 0.2906 0.6115 -0.1526 0.055 Uiso 1 1 calc R
C5 C 0.4282(3) 0.21984(15) -0.03304(15) 0.0244(3) Uani 1 1 d .
C6 C 0.5531(3) 0.11847(16) -0.08158(17) 0.0303(3) Uani 1 1 d .
H6 H 0.6644 0.1434 -0.1438 0.036 Uiso 1 1 calc R
C7 C 0.5159(3) -0.01923(16) -0.03957(19) 0.0375(4) Uani 1 1 d .
H7 H 0.6026 -0.0875 -0.0730 0.045 Uiso 1 1 calc R
C8 C 0.3541(3) -0.05727(17) 0.05036(19) 0.0364(4) Uani 1 1 d .
H8 H 0.3291 -0.1514 0.0788 0.044 Uiso 1 1 calc R
C9 C 0.2284(3) 0.04293(17) 0.09878(17) 0.0358(4) Uani 1 1 d .
H9 H 0.1158 0.0174 0.1603 0.043 Uiso 1 1 calc R
C10 C 0.2668(3) 0.18082(16) 0.05748(16) 0.0306(3) Uani 1 1 d .
H10 H 0.1812 0.2492 0.0918 0.037 Uiso 1 1 calc R
O1A O 0.68601(19) 0.78921(11) 0.34657(12) 0.0301(3) Uani 1 1 d .
N1A N 1.1070(2) 0.77307(13) 0.33724(14) 0.0275(3) Uani 1 1 d .
H1C H 1.288(5) 0.802(2) 0.368(2) 0.033 Uiso 1 1 d .
H1D H 1.029(4) 0.701(2) 0.263(2) 0.033 Uiso 1 1 d .
C1A C 0.9407(3) 0.83157(14) 0.39371(15) 0.0242(3) Uani 1 1 d .
C2A C 1.0764(3) 0.95684(15) 0.52029(15) 0.0244(3) Uani 1 1 d .
H2A H 1.2588 0.9450 0.5676 0.029 Uiso 1 1 calc R
C3A C 0.8983(3) 0.94603(14) 0.62337(16) 0.0279(3) Uani 1 1 d .
H3C H 0.9880 1.0293 0.7030 0.033 Uiso 1 1 calc R
H3D H 0.7163 0.9569 0.5775 0.033 Uiso 1 1 calc R
C4A C 0.8536(4) 0.79918(18) 0.67754(19) 0.0406(4) Uani 1 1 d .
H4D H 0.7421 0.7993 0.7445 0.061 Uiso 1 1 calc R
H4E H 1.0329 0.7877 0.7232 0.061 Uiso 1 1 calc R
H4F H 0.7571 0.7164 0.5997 0.061 Uiso 1 1 calc R
C5A C 1.1287(3) 1.10686(15) 0.47264(16) 0.0249(3) Uani 1 1 d .
C6A C 1.3882(3) 1.21147(15) 0.52029(17) 0.0300(3) Uani 1 1 d .
H6A H 1.5338 1.1876 0.5806 0.036 Uiso 1 1 calc R
C7A C 1.4370(3) 1.35027(17) 0.48070(18) 0.0363(4) Uani 1 1 d .
H7A H 1.6154 1.4203 0.5136 0.044 Uiso 1 1 calc R
C8A C 1.2262(4) 1.38668(17) 0.3936(2) 0.0369(4) Uani 1 1 d .
H8A H 1.2592 1.4819 0.3671 0.044 Uiso 1 1 calc R
C9A C 0.9670(3) 1.28393(17) 0.34493(17) 0.0352(4) Uani 1 1 d .
H9A H 0.8221 1.3084 0.2846 0.042 Uiso 1 1 calc R
C10A C 0.9186(3) 1.14500(16) 0.38433(16) 0.0303(3) Uani 1 1 d .
H10A H 0.7401 1.0751 0.3507 0.036 Uiso 1 1 calc R
loop_
_atom_site_aniso_label
_atom_site_aniso_U_11
_atom_site_aniso_U_22
_atom_site_aniso_U_33
_atom_site_aniso_U_23
_atom_site_aniso_U_13
_atom_site_aniso_U_12
O1 0.0214(5) 0.0307(5) 0.0326(6) -0.0051(4) 0.0050(4) 0.0057(4)
N1 0.0206(6) 0.0274(6) 0.0303(8) -0.0059(5) 0.0039(5) 0.0051(5)
C1 0.0242(7) 0.0217(6) 0.0273(8) 0.0026(6) 0.0058(6) 0.0061(5)
C2 0.0240(7) 0.0233(7) 0.0248(8) -0.0008(6) 0.0066(6) 0.0061(5)
C3 0.0265(6) 0.0244(6) 0.0277(7) -0.0003(5) 0.0036(6) 0.0063(5)
C4 0.0454(8) 0.0275(7) 0.0326(8) 0.0031(5) 0.0030(7) 0.0116(6)
C5 0.0210(6) 0.0243(7) 0.0237(8) -0.0007(5) 0.0013(5) 0.0054(5)
C6 0.0262(6) 0.0287(6) 0.0346(8) -0.0013(5) 0.0090(6) 0.0075(5)
C7 0.0369(8) 0.0275(7) 0.0481(10) -0.0007(6) 0.0086(7) 0.0146(6)
C8 0.0411(9) 0.0298(8) 0.0354(9) 0.0061(6) 0.0026(7) 0.0117(7)
C9 0.0414(8) 0.0359(8) 0.0295(8) 0.0069(6) 0.0098(7) 0.0094(6)
C10 0.0332(7) 0.0303(7) 0.0287(8) 0.0015(6) 0.0075(6) 0.0120(6)
O1A 0.0198(5) 0.0321(5) 0.0338(7) -0.0060(4) 0.0045(4) 0.0071(4)
N1A 0.0202(6) 0.0268(6) 0.0316(7) -0.0038(5) 0.0047(5) 0.0059(5)
C1A 0.0223(7) 0.0225(6) 0.0266(8) 0.0001(6) 0.0059(6) 0.0068(5)
C2A 0.0207(6) 0.0233(7) 0.0275(8) 0.0002(6) 0.0041(5) 0.0071(5)
C3A 0.0282(6) 0.0232(6) 0.0295(8) -0.0013(5) 0.0076(6) 0.0054(5)
C4A 0.0553(10) 0.0274(7) 0.0375(9) 0.0040(6) 0.0172(8) 0.0059(6)
C5A 0.0267(7) 0.0238(7) 0.0250(8) -0.0010(6) 0.0098(6) 0.0086(6)
C6A 0.0289(7) 0.0266(6) 0.0322(8) -0.0011(5) 0.0086(6) 0.0062(5)
C7A 0.0380(8) 0.0271(7) 0.0413(9) -0.0008(6) 0.0156(7) 0.0040(6)
C8A 0.0521(10) 0.0277(7) 0.0385(10) 0.0087(7) 0.0233(8) 0.0137(7)
C9A 0.0441(9) 0.0382(8) 0.0307(8) 0.0085(6) 0.0135(7) 0.0205(7)
C10A 0.0313(7) 0.0319(7) 0.0289(8) 0.0034(6) 0.0090(6) 0.0110(6)
loop_
_atom_type_symbol
_atom_type_description
_atom_type_scat_dispersion_real
_atom_type_scat_dispersion_imag
_atom_type_scat_source
C C 0.0181 0.0091 'International Tables Vol C Tables 4.2.6.8 and 6.1.1.4'
H H 0.0000 0.0000 'International Tables Vol C Tables 4.2.6.8 and 6.1.1.4'
N N 0.0311 0.0180 'International Tables Vol C Tables 4.2.6.8 and 6.1.1.4'
O O 0.0492 0.0322 'International Tables Vol C Tables 4.2.6.8 and 6.1.1.4'
loop_
_geom_angle_atom_site_label_1
_geom_angle_atom_site_label_2
_geom_angle_atom_site_label_3
_geom_angle
C1 N1 H1A 124.2(14)
C1 N1 H1B 121.9(15)
H1A N1 H1B 114(2)
O1 C1 N1 122.51(14)
O1 C1 C2 119.52(13)
N1 C1 C2 117.95(12)
C5 C2 C3 111.40(11)
C5 C2 C1 109.05(12)
C3 C2 C1 114.30(11)
C5 C2 H2 107.3
C3 C2 H2 107.3
C1 C2 H2 107.3
C4 C3 C2 113.51(12)
C4 C3 H3A 108.9
C2 C3 H3A 108.9
C4 C3 H3B 108.9
C2 C3 H3B 108.9
H3A C3 H3B 107.7
C3 C4 H4A 109.5
C3 C4 H4B 109.5
H4A C4 H4B 109.5
C3 C4 H4C 109.5
H4A C4 H4C 109.5
H4B C4 H4C 109.5
C10 C5 C6 118.70(13)
C10 C5 C2 121.17(13)
C6 C5 C2 120.12(14)
C5 C6 C7 120.39(15)
C5 C6 H6 119.8
C7 C6 H6 119.8
C8 C7 C6 120.48(14)
C8 C7 H7 119.8
C6 C7 H7 119.8
C7 C8 C9 119.45(14)
C7 C8 H8 120.3
C9 C8 H8 120.3
C8 C9 C10 120.08(16)
C8 C9 H9 120.0
C10 C9 H9 120.0
C5 C10 C9 120.90(14)
C5 C10 H10 119.6
C9 C10 H10 119.6
C1A N1A H1C 123.9(14)
C1A N1A H1D 117.6(12)
H1C N1A H1D 118.6(18)
O1A C1A N1A 122.34(14)
O1A C1A C2A 120.35(13)
N1A C1A C2A 117.30(12)
C5A C2A C3A 112.01(11)
C5A C2A C1A 109.60(12)
C3A C2A C1A 110.56(11)
C5A C2A H2A 108.2
C3A C2A H2A 108.2
C1A C2A H2A 108.2
C4A C3A C2A 112.97(12)
C4A C3A H3C 109.0
C2A C3A H3C 109.0
C4A C3A H3D 109.0
C2A C3A H3D 109.0
H3C C3A H3D 107.8
C3A C4A H4D 109.5
C3A C4A H4E 109.5
H4D C4A H4E 109.5
C3A C4A H4F 109.5
H4D C4A H4F 109.5
H4E C4A H4F 109.5
C6A C5A C10A 118.32(13)
C6A C5A C2A 120.22(13)
C10A C5A C2A 121.43(12)
C7A C6A C5A 120.87(14)
C7A C6A H6A 119.6
C5A C6A H6A 119.6
C8A C7A C6A 120.13(14)
C8A C7A H7A 119.9
C6A C7A H7A 119.9
C7A C8A C9A 119.80(14)
C7A C8A H8A 120.1
C9A C8A H8A 120.1
C8A C9A C10A 120.03(14)
C8A C9A H9A 120.0
C10A C9A H9A 120.0
C9A C10A C5A 120.85(13)
C9A C10A H10A 119.6
C5A C10A H10A 119.6
loop_
_geom_bond_atom_site_label_1
_geom_bond_atom_site_label_2
_geom_bond_distance
O1 C1 1.2415(17)
N1 C1 1.326(2)
N1 H1A 0.84(2)
N1 H1B 0.84(2)
C1 C2 1.5325(19)
C2 C5 1.5311(19)
C2 C3 1.5323(18)
C2 H2 1.0000
C3 C4 1.5228(19)
C3 H3A 0.9900
C3 H3B 0.9900
C4 H4A 0.9800
C4 H4B 0.9800
C4 H4C 0.9800
C5 C10 1.385(2)
C5 C6 1.391(2)
C6 C7 1.392(2)
C6 H6 0.9500
C7 C8 1.380(3)
C7 H7 0.9500
C8 C9 1.386(2)
C8 H8 0.9500
C9 C10 1.390(2)
C9 H9 0.9500
C10 H10 0.9500
O1A C1A 1.2395(17)
N1A C1A 1.3305(19)
N1A H1C 0.88(2)
N1A H1D 0.89(2)
C1A C2A 1.5325(19)
C2A C5A 1.5236(19)
C2A C3A 1.529(2)
C2A H2A 1.0000
C3A C4A 1.5272(19)
C3A H3C 0.9900
C3A H3D 0.9900
C4A H4D 0.9800
C4A H4E 0.9800
C4A H4F 0.9800
C5A C6A 1.393(2)
C5A C10A 1.395(2)
C6A C7A 1.390(2)
C6A H6A 0.9500
C7A C8A 1.383(2)
C7A H7A 0.9500
C8A C9A 1.385(2)
C8A H8A 0.9500
C9A C10A 1.390(2)
C9A H9A 0.9500
C10A H10A 0.9500
loop_
_geom_hbond_atom_site_label_D
_geom_hbond_atom_site_label_H
_geom_hbond_atom_site_label_A
_geom_hbond_site_symmetry_A
_geom_hbond_distance_DH
_geom_hbond_distance_HA
_geom_hbond_distance_DA
_geom_hbond_angle_DHA
N1 H1A O1A . 0.84(2) 2.05(2) 2.8882(16) 175(2)
N1 H1B O1 1_455 0.84(2) 2.19(2) 2.9591(16) 152(2)
N1A H1C O1A 1_655 0.88(2) 2.16(2) 2.9497(15) 150(2)
N1A H1D O1 . 0.89(2) 2.07(2) 2.9581(17) 178(2)
loop_
_geom_torsion_atom_site_label_1
_geom_torsion_atom_site_label_2
_geom_torsion_atom_site_label_3
_geom_torsion_atom_site_label_4
_geom_torsion
O1 C1 C2 C5 85.47(16)
N1 C1 C2 C5 -93.14(15)
O1 C1 C2 C3 -149.13(13)
N1 C1 C2 C3 32.26(18)
C5 C2 C3 C4 -175.72(13)
C1 C2 C3 C4 60.13(17)
C3 C2 C5 C10 -65.34(18)
C1 C2 C5 C10 61.73(17)
C3 C2 C5 C6 113.82(14)
C1 C2 C5 C6 -119.11(15)
C10 C5 C6 C7 0.0(2)
C2 C5 C6 C7 -179.21(13)
C5 C6 C7 C8 0.2(2)
C6 C7 C8 C9 0.0(2)
C7 C8 C9 C10 -0.4(2)
C6 C5 C10 C9 -0.4(2)
C2 C5 C10 C9 178.81(13)
C8 C9 C10 C5 0.6(2)
O1A C1A C2A C5A -87.28(16)
N1A C1A C2A C5A 91.97(15)
O1A C1A C2A C3A 36.68(18)
N1A C1A C2A C3A -144.08(13)
C5A C2A C3A C4A -177.46(12)
C1A C2A C3A C4A 59.98(15)
C3A C2A C5A C6A 107.00(15)
C1A C2A C5A C6A -129.90(15)
C3A C2A C5A C10A -71.08(18)
C1A C2A C5A C10A 52.02(18)
C10A C5A C6A C7A -0.1(2)
C2A C5A C6A C7A -178.25(14)
C5A C6A C7A C8A 0.4(2)
C6A C7A C8A C9A -0.5(2)
C7A C8A C9A C10A 0.4(2)
C8A C9A C10A C5A -0.1(2)
C6A C5A C10A C9A 0.0(2)
C2A C5A C10A C9A 178.08(14)
