#------------------------------------------------------------------------------
#$Date: 2015-06-05 03:20:15 +0300 (Fri, 05 Jun 2015) $
#$Revision: 138058 $
#$URL: svn://www.crystallography.net/cod/cif/4/51/29/4512999.cif $
#------------------------------------------------------------------------------
#
# This file is available in the Crystallography Open Database (COD),
# http://www.crystallography.net/
#
# All data on this site have been placed in the public domain by the
# contributors.
#
data_4512999
loop_
_publ_author_name
'Jiang, Qi'
'Shtukenberg, Alexander G.'
'Ward, Michael D.'
'Hu, Chunhua'
_publ_section_title
;
 Non-Topotactic Phase Transformations in Single Crystals of \b-Glycine
;
_journal_issue                   6
_journal_name_full               'Crystal Growth &amp; Design'
_journal_page_first              2568
_journal_paper_doi               10.1021/acs.cgd.5b00187
_journal_volume                  15
_journal_year                    2015
_chemical_formula_sum            'C2 H5 N O2'
_chemical_formula_weight         75.07
_chemical_name_systematic
; 
 ? 
;
_space_group_IT_number           144
_symmetry_cell_setting           trigonal
_symmetry_space_group_name_Hall  'P 31'
_symmetry_space_group_name_H-M   'P 31'
_atom_sites_solution_hydrogens   geom
_atom_sites_solution_primary     direct
_atom_sites_solution_secondary   difmap
_audit_creation_method           SHELXL-97
_cell_angle_alpha                90.00
_cell_angle_beta                 90.00
_cell_angle_gamma                120.00
_cell_formula_units_Z            3
_cell_length_a                   6.9824(7)
_cell_length_b                   6.9824(7)
_cell_length_c                   5.4749(6)
_cell_measurement_reflns_used    3066
_cell_measurement_temperature    100(2)
_cell_measurement_theta_max      28.26
_cell_measurement_theta_min      3.37
_cell_volume                     231.16(4)
_computing_cell_refinement       'Bruker SAINT'
_computing_data_collection       'Bruker APEX2'
_computing_data_reduction        'Bruker SAINT'
_computing_molecular_graphics    'Bruker SHELXTL'
_computing_publication_material  'Bruker SHELXTL'
_computing_structure_refinement  'SHELXL-97 (Sheldrick, 2008)'
_computing_structure_solution    'SHELXS-97 (Sheldrick, 2008)'
_diffrn_ambient_temperature      100(2)
_diffrn_measured_fraction_theta_full 1.000
_diffrn_measured_fraction_theta_max 1.000
_diffrn_measurement_device_type  'Bruker APEX-II CCD'
_diffrn_measurement_method       '\w scans'
_diffrn_radiation_monochromator  graphite
_diffrn_radiation_source         'fine-focus sealed tube'
_diffrn_radiation_type           MoK\a
_diffrn_radiation_wavelength     0.71073
_diffrn_reflns_av_R_equivalents  0.0231
_diffrn_reflns_av_sigmaI/netI    0.0104
_diffrn_reflns_limit_h_max       9
_diffrn_reflns_limit_h_min       -9
_diffrn_reflns_limit_k_max       9
_diffrn_reflns_limit_k_min       -9
_diffrn_reflns_limit_l_max       7
_diffrn_reflns_limit_l_min       -7
_diffrn_reflns_number            3614
_diffrn_reflns_theta_full        28.33
_diffrn_reflns_theta_max         28.33
_diffrn_reflns_theta_min         3.37
_exptl_absorpt_coefficient_mu    0.144
_exptl_absorpt_correction_T_max  0.9830
_exptl_absorpt_correction_T_min  0.9746
_exptl_absorpt_correction_type   multi-scan
_exptl_absorpt_process_details   SADABS
_exptl_crystal_colour            colorless
_exptl_crystal_density_diffrn    1.618
_exptl_crystal_density_method    'not measured'
_exptl_crystal_description       block
_exptl_crystal_F_000             120
_exptl_crystal_size_max          0.18
_exptl_crystal_size_mid          0.14
_exptl_crystal_size_min          0.12
_refine_diff_density_max         0.292
_refine_diff_density_min         -0.116
_refine_diff_density_rms         0.033
_refine_ls_abs_structure_details 'Flack H D (1983), Acta Cryst. A39, 876-881'
_refine_ls_abs_structure_Flack   0(10)
_refine_ls_extinction_coef       none
_refine_ls_extinction_expression none
_refine_ls_extinction_method     SHELXL
_refine_ls_goodness_of_fit_ref   1.146
_refine_ls_hydrogen_treatment    constr
_refine_ls_matrix_type           full
_refine_ls_number_parameters     49
_refine_ls_number_reflns         386
_refine_ls_number_restraints     1
_refine_ls_restrained_S_all      1.145
_refine_ls_R_factor_all          0.0183
_refine_ls_R_factor_gt           0.0183
_refine_ls_shift/su_max          0.000
_refine_ls_shift/su_mean         0.000
_refine_ls_structure_factor_coef Fsqd
_refine_ls_weighting_details
'calc w=1/[\s^2^(Fo^2^)+(0.0345P)^2^+0.0122P] where P=(Fo^2^+2Fc^2^)/3'
_refine_ls_weighting_scheme      calc
_refine_ls_wR_factor_gt          0.0482
_refine_ls_wR_factor_ref         0.0482
_reflns_number_gt                386
_reflns_number_total             386
_reflns_threshold_expression     >2sigma(I)
_cod_data_source_file            cg5b00187_si_005.cif
_cod_data_source_block           12hch20h_100k
_cod_depositor_comments
;
The following automatic conversions were performed:

'_symmetry_cell_setting' value 'Trigonal' changed to 'trigonal'
according to
/usr/data/users/saulius/crontab/automatic-downloads/rss-feeds/ACS/lib/dictionaries/cif_core.dic
dictionary named 'cif_core.dic' version 2.4.2 from 2011-04-26.

Automatic conversion script
Id: cif_fix_values 3271 2015-04-21 07:52:19Z andrius 

 Adding full bibliography for 4512893--4513002.cif.
;
_cod_database_code               4512999
loop_
_symmetry_equiv_pos_as_xyz
'x, y, z'
'-y, x-y, z+1/3'
'-x+y, -x, z+2/3'
loop_
_atom_site_label
_atom_site_type_symbol
_atom_site_fract_x
_atom_site_fract_y
_atom_site_fract_z
_atom_site_U_iso_or_equiv
_atom_site_adp_type
_atom_site_occupancy
_atom_site_symmetry_multiplicity
_atom_site_calc_flag
_atom_site_refinement_flags
O1 O -0.10060(18) 0.55355(18) 0.1323(2) 0.0113(2) Uani 1 1 d .
O2 O 0.2105(2) 0.88019(19) 0.10076(19) 0.0143(3) Uani 1 1 d .
N1 N -0.0892(2) 0.5488(2) 0.6221(2) 0.0094(2) Uani 1 1 d .
H1A H -0.0801 0.5713 0.7864 0.014 Uiso 1 1 calc R
H1B H -0.0520 0.4445 0.5853 0.014 Uiso 1 1 calc R
H1C H -0.2300 0.5018 0.5714 0.014 Uiso 1 1 calc R
C1 C 0.0587(2) 0.7267(2) 0.2200(2) 0.0096(3) Uani 1 1 d .
C2 C 0.0643(2) 0.7584(3) 0.4970(2) 0.0111(3) Uani 1 1 d .
H2A H 0.2165 0.8126 0.5575 0.013 Uiso 1 1 calc R
H2B H 0.0227 0.8713 0.5359 0.013 Uiso 1 1 calc R
loop_
_atom_site_aniso_label
_atom_site_aniso_U_11
_atom_site_aniso_U_22
_atom_site_aniso_U_33
_atom_site_aniso_U_23
_atom_site_aniso_U_13
_atom_site_aniso_U_12
O1 0.0114(6) 0.0115(5) 0.0089(4) -0.0004(5) -0.0009(4) 0.0042(5)
O2 0.0124(5) 0.0143(6) 0.0111(5) 0.0024(5) -0.0002(4) 0.0029(4)
N1 0.0100(6) 0.0105(6) 0.0073(4) 0.0000(5) 0.0008(5) 0.0048(5)
C1 0.0107(7) 0.0126(6) 0.0076(5) 0.0006(5) -0.0003(5) 0.0074(6)
C2 0.0126(7) 0.0091(6) 0.0087(5) -0.0001(4) 0.0007(5) 0.0032(6)
loop_
_atom_type_symbol
_atom_type_description
_atom_type_scat_dispersion_real
_atom_type_scat_dispersion_imag
_atom_type_scat_source
C C 0.0033 0.0000 'International Tables Vol C Tables 4.2.6.8 and 6.1.1.4'
H H 0.0000 0.0000 'International Tables Vol C Tables 4.2.6.8 and 6.1.1.4'
N N 0.0061 0.0000 'International Tables Vol C Tables 4.2.6.8 and 6.1.1.4'
O O 0.0106 0.0000 'International Tables Vol C Tables 4.2.6.8 and 6.1.1.4'
loop_
_geom_angle_atom_site_label_1
_geom_angle_atom_site_label_2
_geom_angle_atom_site_label_3
_geom_angle
C2 N1 H1A 109.5
C2 N1 H1B 109.5
H1A N1 H1B 109.5
C2 N1 H1C 109.5
H1A N1 H1C 109.5
H1B N1 H1C 109.5
O2 C1 O1 125.98(13)
O2 C1 C2 116.37(12)
O1 C1 C2 117.61(13)
N1 C2 C1 111.22(12)
N1 C2 H2A 109.4
C1 C2 H2A 109.4
N1 C2 H2B 109.4
C1 C2 H2B 109.4
H2A C2 H2B 108.0
loop_
_geom_bond_atom_site_label_1
_geom_bond_atom_site_label_2
_geom_bond_distance
O1 C1 1.2586(17)
O2 C1 1.2503(19)
N1 C2 1.480(2)
N1 H1A 0.9100
N1 H1B 0.9100
N1 H1C 0.9100
C1 C2 1.5300(18)
C2 H2A 0.9900
C2 H2B 0.9900
loop_
_geom_hbond_atom_site_label_D
_geom_hbond_atom_site_label_H
_geom_hbond_atom_site_label_A
_geom_hbond_distance_DH
_geom_hbond_distance_HA
_geom_hbond_distance_DA
_geom_hbond_angle_DHA
_geom_hbond_site_symmetry_A
N1 H1B O2 0.91 1.93 2.7826(17) 155.8 2_665
N1 H1A O1 0.91 1.90 2.7956(15) 168.1 1_556
N1 H1C O1 0.91 2.04 2.9425(15) 170.7 2_565
