#------------------------------------------------------------------------------
#$Date: 2016-03-24 14:47:55 +0200 (Thu, 24 Mar 2016) $
#$Revision: 179674 $
#$URL: svn://www.crystallography.net/cod/cif/4/51/26/4512622.cif $
#------------------------------------------------------------------------------
#
# This file is available in the Crystallography Open Database (COD),
# http://www.crystallography.net/
#
# All data on this site have been placed in the public domain by the
# contributors.
#
data_4512622
loop_
_publ_author_name
'Bujak, Maciej'
_publ_section_title
;
 Efficient Diffusion-Controlled Ligand Exchange Crystal Growth of
 Isostructural Inorganic--Organic Halogenidorhodates(III): The Missing
 Hexaiodidorhodate(III) Anion
;
_journal_issue                   3
_journal_name_full               'Crystal Growth &amp; Design'
_journal_page_first              1295
_journal_paper_doi               10.1021/cg501694d
_journal_volume                  15
_journal_year                    2015
_chemical_formula_moiety         'C4 H12 N2 2+, 2(I -), I2'
_chemical_formula_sum            'C4 H12 I4 N2'
_chemical_formula_weight         595.76
_chemical_name_systematic
; 
 Piperazine-1,4-diium diiodide diiodine 
;
_space_group_IT_number           2
_symmetry_cell_setting           triclinic
_symmetry_space_group_name_Hall  '-P 1'
_symmetry_space_group_name_H-M   'P -1'
_atom_sites_solution_hydrogens   difmap
_atom_sites_solution_primary     direct
_atom_sites_solution_secondary   difmap
_audit_creation_method           SHELXL-97
_cell_angle_alpha                64.635(4)
_cell_angle_beta                 68.060(4)
_cell_angle_gamma                69.507(4)
_cell_formula_units_Z            1
_cell_length_a                   6.5186(3)
_cell_length_b                   7.4950(3)
_cell_length_c                   8.1312(4)
_cell_measurement_reflns_used    8112
_cell_measurement_temperature    295(2)
_cell_measurement_theta_max      34.28
_cell_measurement_theta_min      2.87
_cell_volume                     324.30(3)
_computing_cell_refinement
; 
CrysAlis Pro ver. 1.171.34.44 (Oxford Diffraction, 2010) 
;
_computing_data_collection
; 
CrysAlis Pro ver. 1.171.34.44 (Oxford Diffraction, 2010) 
;
_computing_data_reduction
; 
CrysAlis Pro ver. 1.171.34.44 (Oxford Diffraction, 2010) 
;
_computing_molecular_graphics    'Mercury (Macrae at al., 2008)'
_computing_publication_material  'SHELXL-97 (Sheldrick, 2008)'
_computing_structure_refinement  'SHELXL-97 (Sheldrick, 2008)'
_computing_structure_solution    'SHELXS-97 (Sheldrick, 2008)'
_diffrn_ambient_temperature      295(2)
_diffrn_detector_area_resol_mean 16.2711
_diffrn_measured_fraction_theta_full 0.997
_diffrn_measured_fraction_theta_max 0.997
_diffrn_measurement_device_type  'Xcalibur, Eos'
_diffrn_measurement_method       \w-scan
_diffrn_radiation_monochromator  graphite
_diffrn_radiation_source         'fine-focus sealed tube'
_diffrn_radiation_type           MoK\a
_diffrn_radiation_wavelength     0.71073
_diffrn_reflns_av_R_equivalents  0.0441
_diffrn_reflns_av_sigmaI/netI    0.0189
_diffrn_reflns_limit_h_max       8
_diffrn_reflns_limit_h_min       -8
_diffrn_reflns_limit_k_max       9
_diffrn_reflns_limit_k_min       -9
_diffrn_reflns_limit_l_max       10
_diffrn_reflns_limit_l_min       -10
_diffrn_reflns_number            12400
_diffrn_reflns_theta_full        26.50
_diffrn_reflns_theta_max         26.50
_diffrn_reflns_theta_min         2.87
_exptl_absorpt_coefficient_mu    9.563
_exptl_absorpt_correction_T_max  0.45
_exptl_absorpt_correction_T_min  0.26
_exptl_absorpt_correction_type   analytical
_exptl_absorpt_process_details
; 
CrysAlis Pro ver. 1.171.34.44 (Oxford Diffraction, 2010) 
;
_exptl_crystal_colour            red
_exptl_crystal_density_diffrn    3.050
_exptl_crystal_density_method    'not measured'
_exptl_crystal_description       tabular
_exptl_crystal_F_000             262
_exptl_crystal_size_max          0.18
_exptl_crystal_size_mid          0.14
_exptl_crystal_size_min          0.09
_refine_diff_density_max         0.681
_refine_diff_density_min         -0.973
_refine_diff_density_rms         0.119
_refine_ls_extinction_coef       0.339(7)
_refine_ls_extinction_expression
Fc\^*\^=kFc[1+0.001xFc\^2\^\l\^3\^/sin(2\q)]\^-1/4\^
_refine_ls_extinction_method     SHELXL
_refine_ls_goodness_of_fit_ref   1.120
_refine_ls_hydrogen_treatment    constr
_refine_ls_matrix_type           full
_refine_ls_number_parameters     47
_refine_ls_number_reflns         1341
_refine_ls_number_restraints     0
_refine_ls_restrained_S_all      1.120
_refine_ls_R_factor_all          0.0252
_refine_ls_R_factor_gt           0.0226
_refine_ls_shift/su_max          0.001
_refine_ls_shift/su_mean         0.000
_refine_ls_structure_factor_coef Fsqd
_refine_ls_weighting_details
; 
 calc w=1/[\s\^2\^(Fo\^2\^)+(0.0252P)\^2\^+0.4858P] where
 P=(Fo\^2\^+2Fc\^2\^)/3
;
_refine_ls_weighting_scheme      calc
_refine_ls_wR_factor_gt          0.0549
_refine_ls_wR_factor_ref         0.0569
_reflns_number_gt                1223
_reflns_number_total             1341
_reflns_threshold_expression     >2sigma(I)
_cod_data_source_file            cg501694d_si_003.cif
_cod_data_source_block           PipI
_cod_depositor_comments
;
The following automatic conversions were performed:
'_atom_site_symetry_multiplicity' tag replaced with
'_atom_site_symmetry_multiplicity'.

Automatic conversion script
Id: cif_correct_tags 1440 2010-10-19 06:21:57Z saulius 

The following automatic conversions were performed:

'_symmetry_cell_setting' value 'Triclinic' changed to 'triclinic'
according to
/usr/data/users/saulius/crontab/automatic-downloads/rss-feeds/ACS/lib/dictionaries/cif_core.dic
dictionary named 'cif_core.dic' version 2.4.2 from 2011-04-26.

Automatic conversion script
Id: cif_fix_values 3008 2015-01-20 13:52:24Z robertas 

 Adding full bibliography for 4512619--4512622.cif.
;
_cod_original_sg_symbol_H-M      P-1
_cod_database_code               4512622
loop_
_symmetry_equiv_pos_as_xyz
'x, y, z'
'-x, -y, -z'
loop_
_atom_site_label
_atom_site_type_symbol
_atom_site_fract_x
_atom_site_fract_y
_atom_site_fract_z
_atom_site_U_iso_or_equiv
_atom_site_adp_type
_atom_site_occupancy
_atom_site_symmetry_multiplicity
_atom_site_calc_flag
_atom_site_refinement_flags
I1 I 0.26686(5) 0.25996(5) 0.69191(5) 0.04569(17) Uani 1 1 d .
I2 I 0.27769(6) 0.57367(5) 0.08774(4) 0.04939(17) Uani 1 1 d .
N1 N 0.1386(6) -0.1697(5) 0.4416(5) 0.0399(8) Uani 1 1 d .
H11 H 0.0344 -0.2258 0.4457 0.048 Uiso 1 1 calc R
H12 H 0.2770 -0.2446 0.4037 0.048 Uiso 1 1 calc R
C2 C 0.1160(8) 0.0410(7) 0.3023(6) 0.0449(10) Uani 1 1 d .
H21 H 0.1283 0.0383 0.1807 0.054 Uiso 1 1 calc R
H22 H 0.2383 0.0966 0.2873 0.054 Uiso 1 1 calc R
C3 C -0.1070(8) 0.1730(7) 0.3663(6) 0.0417(10) Uani 1 1 d .
H31 H -0.1140 0.3110 0.2784 0.050 Uiso 1 1 calc R
H32 H -0.2289 0.1262 0.3675 0.050 Uiso 1 1 calc R
loop_
_atom_site_aniso_label
_atom_site_aniso_U_11
_atom_site_aniso_U_22
_atom_site_aniso_U_33
_atom_site_aniso_U_23
_atom_site_aniso_U_13
_atom_site_aniso_U_12
I1 0.0302(2) 0.0491(2) 0.0639(2) -0.02847(16) -0.01065(14) -0.00640(13)
I2 0.0602(2) 0.0532(2) 0.0396(2) -0.01719(15) -0.00970(15) -0.02043(16)
N1 0.0325(18) 0.0389(18) 0.053(2) -0.0235(16) -0.0137(16) -0.0011(15)
C2 0.044(3) 0.046(2) 0.043(2) -0.0169(19) -0.0087(19) -0.007(2)
C3 0.043(2) 0.039(2) 0.050(2) -0.0166(18) -0.023(2) -0.0046(18)
loop_
_atom_type_symbol
_atom_type_description
_atom_type_scat_dispersion_real
_atom_type_scat_dispersion_imag
_atom_type_scat_source
C C 0.0033 0.0016 'International Tables Vol C Tables 4.2.6.8 and 6.1.1.4'
H H 0.0000 0.0000 'International Tables Vol C Tables 4.2.6.8 and 6.1.1.4'
N N 0.0061 0.0033 'International Tables Vol C Tables 4.2.6.8 and 6.1.1.4'
I I -0.4742 1.8119 'International Tables Vol C Tables 4.2.6.8 and 6.1.1.4'
loop_
_geom_angle_atom_site_label_1
_geom_angle_atom_site_label_2
_geom_angle_atom_site_label_3
_geom_angle
_geom_angle_site_symmetry_1
C3 N1 C2 111.7(3) 2_556
C3 N1 H11 109.3 2_556
C2 N1 H11 109.3 .
C3 N1 H12 109.3 2_556
C2 N1 H12 109.3 .
H11 N1 H12 107.9 .
N1 C2 C3 110.8(4) .
N1 C2 H21 109.5 .
C3 C2 H21 109.5 .
N1 C2 H22 109.5 .
C3 C2 H22 109.5 .
H21 C2 H22 108.1 .
N1 C3 C2 111.0(3) 2_556
N1 C3 H31 109.4 2_556
C2 C3 H31 109.4 .
N1 C3 H32 109.4 2_556
C2 C3 H32 109.4 .
H31 C3 H32 108.0 .
loop_
_geom_bond_atom_site_label_1
_geom_bond_atom_site_label_2
_geom_bond_distance
_geom_bond_site_symmetry_2
I2 I2 2.7703(7) 2_665
N1 C3 1.487(5) 2_556
N1 C2 1.492(6) .
N1 H11 0.9000 .
N1 H12 0.9000 .
C2 C3 1.494(6) .
C2 H21 0.9700 .
C2 H22 0.9700 .
C3 H31 0.9700 .
C3 H32 0.9700 .
loop_
_geom_hbond_atom_site_label_D
_geom_hbond_atom_site_label_H
_geom_hbond_atom_site_label_A
_geom_hbond_distance_DH
_geom_hbond_distance_HA
_geom_hbond_distance_DA
_geom_hbond_angle_DHA
_geom_hbond_site_symmetry_A
N1 H11 I1 0.90 2.72 3.556(4) 155 2_556
N1 H12 I1 0.90 2.75 3.508(4) 143 2_656
loop_
_geom_torsion_atom_site_label_1
_geom_torsion_atom_site_label_2
_geom_torsion_atom_site_label_3
_geom_torsion_atom_site_label_4
_geom_torsion
_geom_torsion_site_symmetry_1
_geom_torsion_site_symmetry_4
C3 N1 C2 C3 -55.7(5) 2_556 .
N1 C2 C3 N1 55.3(5) . 2_556
loop_
_refln_index_h
_refln_index_k
_refln_index_l
_refln_F_squared_calc
_refln_F_squared_meas
_refln_F_squared_sigma
_refln_observed_status
1 0 0 2.76 8.88 0.62 o
2 0 0 23550.25 22747.60 388.15 o
3 0 0 1475.28 1584.94 17.22 o
4 0 0 4736.61 4824.06 65.44 o
5 0 0 2016.45 2114.55 28.98 o
6 0 0 1041.81 977.01 22.67 o
7 0 0 607.85 599.96 21.64 o
-7 1 0 341.33 313.40 16.57 o
-6 1 0 3.28 2.32 2.16 o
-5 1 0 1664.41 1725.69 24.75 o
-4 1 0 481.49 438.38 10.39 o
-3 1 0 5335.14 5596.66 62.74 o
-2 1 0 1944.49 1946.25 16.33 o
-1 1 0 4292.48 4633.83 63.31 o
0 1 0 4653.01 4820.58 53.54 o
1 1 0 49.41 72.81 3.42 o
2 1 0 7771.93 7478.92 133.05 o
3 1 0 125.48 110.09 4.14 o
4 1 0 2243.77 2306.13 39.71 o
5 1 0 132.04 114.78 5.47 o
6 1 0 326.95 326.18 10.90 o
7 1 0 24.52 19.86 3.72 o
-6 2 0 119.57 109.97 6.80 o
-5 2 0 235.25 233.65 9.02 o
-4 2 0 130.68 125.74 5.20 o
-3 2 0 811.88 804.86 9.50 o
-2 2 0 114.77 91.71 3.03 o
-1 2 0 1510.78 1560.12 15.71 o
0 2 0 1409.13 1432.16 11.80 o
1 2 0 2503.53 2390.61 83.04 o
2 2 0 3135.87 3245.75 39.27 o
3 2 0 1191.57 1228.02 21.15 o
4 2 0 2018.47 2063.61 34.73 o
5 2 0 41.23 38.19 3.72 o
6 2 0 724.39 720.26 19.93 o
7 2 0 61.54 62.21 6.33 o
-6 3 0 212.28 221.02 11.62 o
-5 3 0 928.37 918.93 19.54 o
-4 3 0 455.26 479.64 11.87 o
-3 3 0 5178.79 5258.62 40.14 o
-2 3 0 765.71 782.78 8.73 o
-1 3 0 12870.90 12556.19 149.69 o
0 3 0 64.06 72.85 2.94 o
1 3 0 14396.79 13284.46 177.01 o
2 3 0 1455.16 1411.77 19.18 o
3 3 0 8986.47 9023.42 98.86 o
4 3 0 2230.93 2324.32 33.22 o
5 3 0 2542.70 2680.68 47.12 o
6 3 0 1107.81 1152.76 26.22 o
7 3 0 327.10 302.13 14.44 o
-5 4 0 0.33 3.83 2.57 o
-4 4 0 1101.79 1144.83 24.43 o
-3 4 0 233.73 228.79 7.62 o
-2 4 0 1176.86 1167.72 12.06 o
-1 4 0 2984.82 3085.47 27.66 o
0 4 0 1161.72 1143.73 18.83 o
1 4 0 5380.75 5312.29 60.65 o
2 4 0 556.46 580.90 10.62 o
3 4 0 2451.86 2475.97 29.08 o
4 4 0 0.33 2.93 1.88 o
5 4 0 847.45 891.35 21.62 o
6 4 0 21.95 13.65 3.48 o
7 4 0 284.70 286.90 13.59 o
-4 5 0 0.72 1.62 3.20 o
-3 5 0 52.52 58.00 4.49 o
-2 5 0 0.14 0.92 1.29 o
-1 5 0 240.08 254.77 7.16 o
0 5 0 275.76 249.32 7.54 o
1 5 0 180.97 172.78 5.36 o
2 5 0 466.93 462.79 11.20 o
3 5 0 117.97 106.13 5.01 o
4 5 0 31.73 29.11 5.62 o
5 5 0 269.34 259.56 13.60 o
6 5 0 8.94 4.09 3.92 o
-4 6 0 368.32 389.35 17.09 o
-3 6 0 76.03 60.75 5.12 o
-2 6 0 1103.81 1131.28 20.34 o
-1 6 0 54.67 32.05 3.10 o
0 6 0 1911.52 1914.56 23.43 o
1 6 0 91.76 101.69 5.38 o
2 6 0 2422.30 2416.03 34.26 o
3 6 0 543.30 537.19 15.40 o
4 6 0 1539.24 1620.97 40.90 o
5 6 0 476.88 470.84 21.15 o
6 6 0 333.06 353.44 14.66 o
-2 7 0 200.11 230.58 9.26 o
-1 7 0 289.94 265.75 9.67 o
0 7 0 599.03 647.85 16.14 o
1 7 0 156.05 135.27 7.33 o
2 7 0 746.36 726.43 20.31 o
3 7 0 2.63 3.99 4.14 o
4 7 0 513.80 561.16 21.21 o
5 7 0 16.51 13.03 3.33 o
0 8 0 0.11 3.28 2.20 o
1 8 0 0.09 1.54 2.68 o
2 8 0 0.83 4.82 2.74 o
3 8 0 1.52 0.00 3.55 o
4 8 0 17.15 3.40 3.12 o
-2 -8 1 309.47 303.50 17.10 o
-1 -8 1 7.53 6.28 3.18 o
-4 -7 1 262.75 256.41 14.88 o
-3 -7 1 141.52 129.38 11.37 o
-2 -7 1 618.06 597.15 18.82 o
-1 -7 1 58.97 68.73 6.55 o
0 -7 1 546.04 532.66 17.56 o
1 -7 1 13.07 20.64 2.97 o
2 -7 1 187.99 183.79 10.00 o
-5 -6 1 10.69 5.14 2.89 o
-4 -6 1 4.75 3.52 3.04 o
-3 -6 1 0.79 3.05 2.21 o
-2 -6 1 5.96 1.84 2.04 o
-1 -6 1 5.73 5.81 1.84 o
0 -6 1 0.06 0.00 2.08 o
1 -6 1 0.25 0.98 1.77 o
2 -6 1 15.88 11.46 2.16 o
3 -6 1 26.67 22.71 3.58 o
-6 -5 1 85.27 81.27 7.06 o
-5 -5 1 642.89 717.24 19.23 o
-4 -5 1 63.15 51.67 4.54 o
-3 -5 1 1820.92 1871.41 28.07 o
-2 -5 1 29.53 33.02 2.81 o
-1 -5 1 3060.94 3051.05 51.15 o
0 -5 1 378.71 356.40 9.51 o
1 -5 1 2108.70 2216.44 25.04 o
2 -5 1 515.32 467.27 11.54 o
3 -5 1 422.13 439.80 12.77 o
4 -5 1 427.59 428.10 15.05 o
-6 -4 1 696.55 719.51 20.13 o
-5 -4 1 907.65 935.03 23.82 o
-4 -4 1 1575.00 1605.75 28.29 o
-3 -4 1 3454.68 3396.67 41.74 o
-2 -4 1 1522.72 1447.62 20.14 o
-1 -4 1 4822.85 4710.48 101.77 o
0 -4 1 81.21 75.74 3.30 o
1 -4 1 4428.87 4550.75 51.65 o
2 -4 1 105.02 97.25 3.90 o
3 -4 1 2492.63 2649.75 31.70 o
4 -4 1 30.10 22.87 4.01 o
5 -4 1 558.03 625.71 18.36 o
-7 -3 1 47.96 35.11 5.03 o
-6 -3 1 206.01 205.46 10.13 o
-5 -3 1 16.30 12.74 2.47 o
-4 -3 1 293.33 273.35 10.31 o
-3 -3 1 111.81 107.47 4.61 o
-2 -3 1 183.07 164.03 4.81 o
-1 -3 1 728.07 703.70 14.22 o
0 -3 1 480.16 485.48 6.27 o
1 -3 1 28.06 24.06 1.69 o
2 -3 1 169.80 178.17 3.42 o
3 -3 1 47.13 42.25 2.24 o
4 -3 1 34.07 36.89 3.38 o
5 -3 1 0.53 4.66 2.72 o
6 -3 1 90.73 87.85 7.52 o
-7 -2 1 12.90 10.39 3.16 o
-6 -2 1 648.06 547.69 46.02 o
-5 -2 1 61.39 57.85 4.90 o
-4 -2 1 2566.80 2610.53 38.03 o
-3 -2 1 1.75 0.55 2.39 o
-2 -2 1 7991.19 7773.23 67.09 o
-1 -2 1 653.46 667.56 7.54 o
0 -2 1 13487.17 12564.41 195.54 o
1 -2 1 1659.86 1718.24 15.43 o
2 -2 1 4820.83 4808.32 37.78 o
3 -2 1 2769.56 2891.13 27.14 o
4 -2 1 628.14 608.67 10.22 o
5 -2 1 1844.78 1926.87 28.35 o
6 -2 1 39.73 27.50 3.23 o
-7 -1 1 711.96 692.82 32.77 o
-6 -1 1 467.34 421.32 20.16 o
-5 -1 1 2284.63 2345.73 63.57 o
-4 -1 1 3665.01 3678.50 34.39 o
-3 -1 1 3758.10 3882.37 43.38 o
-2 -1 1 15008.59 15285.05 183.30 o
-1 -1 1 1816.17 1887.25 17.87 o
0 -1 1 30326.13 30626.15 297.10 o
1 -1 1 5.07 5.51 1.19 o
2 -1 1 18781.89 17782.30 138.69 o
3 -1 1 327.92 343.21 8.07 o
4 -1 1 5065.99 5073.19 53.90 o
5 -1 1 464.63 478.62 12.85 o
6 -1 1 961.82 942.69 18.28 o
7 -1 1 229.62 235.57 13.17 o
-7 0 1 145.77 142.07 10.20 o
-6 0 1 69.03 67.74 5.87 o
-5 0 1 825.56 818.54 16.19 o
-4 0 1 47.85 41.36 2.87 o
-3 0 1 2705.33 2873.92 26.51 o
-2 0 1 546.44 583.77 7.89 o
-1 0 1 3087.08 3341.16 27.91 o
0 0 1 502.35 589.78 7.79 o
1 0 1 44.67 54.36 1.95 o
2 0 1 1531.81 1497.79 19.53 o
3 0 1 104.11 86.41 3.06 o
4 0 1 537.58 532.15 8.73 o
5 0 1 344.16 337.94 8.31 o
6 0 1 48.11 43.62 4.11 o
7 0 1 162.01 163.45 8.89 o
-6 1 1 16.56 14.44 3.87 o
-5 1 1 810.20 776.27 13.78 o
-4 1 1 42.52 37.06 2.67 o
-3 1 1 4343.55 4481.14 39.50 o
-2 1 1 10.85 24.44 1.81 o
-1 1 1 8209.97 8317.56 110.70 o
0 1 1 440.68 488.21 4.67 o
1 1 1 5234.03 4923.81 63.35 o
2 1 1 7794.88 6989.46 69.56 o
3 1 1 4131.83 3994.47 48.61 o
4 1 1 4587.24 4624.37 42.03 o
5 1 1 697.27 672.53 13.80 o
6 1 1 1265.81 1314.04 26.68 o
7 1 1 5.02 5.53 2.43 o
-6 2 1 736.06 764.78 21.22 o
-5 2 1 893.78 825.95 16.76 o
-4 2 1 1934.32 2071.96 24.23 o
-3 2 1 5107.93 5175.30 44.60 o
-2 2 1 1576.18 1644.85 15.15 o
0 2 1 881.87 955.84 8.42 o
2 2 1 2.98 9.74 1.98 o
4 2 1 1426.29 1490.54 23.68 o
5 2 1 3696.45 3711.09 69.18 o
6 2 1 1200.04 1212.30 24.84 o
7 2 1 888.60 849.19 27.45 o
-6 3 1 311.28 285.83 12.77 o
-5 3 1 22.74 21.58 2.93 o
-4 3 1 1295.20 1352.49 22.19 o
-3 3 1 99.66 82.29 3.63 o
-2 3 1 2568.83 2710.52 24.32 o
-1 3 1 1171.86 1113.93 12.00 o
0 3 1 1569.64 1603.77 14.93 o
1 3 1 3518.13 3408.32 27.32 o
2 3 1 474.51 478.16 11.66 o
3 3 1 2524.81 2446.03 54.13 o
4 3 1 225.76 230.51 8.57 o
5 3 1 541.85 514.70 13.56 o
6 3 1 74.71 69.02 5.76 o
7 3 1 105.51 92.85 7.37 o
-5 4 1 30.08 20.60 4.40 o
-4 4 1 241.31 248.36 9.21 o
-3 4 1 52.41 51.72 3.08 o
-2 4 1 659.60 678.84 10.59 o
-1 4 1 321.23 306.54 5.61 o
0 4 1 2138.86 2139.90 23.53 o
1 4 1 954.28 929.76 12.84 o
2 4 1 2592.94 2552.16 40.64 o
3 4 1 1337.47 1283.60 37.37 o
4 4 1 707.56 728.50 21.75 o
5 4 1 1160.29 1191.27 23.57 o
6 4 1 10.76 10.38 3.50 o
7 4 1 554.42 548.64 19.94 o
-4 5 1 712.81 751.91 26.08 o
-3 5 1 481.94 451.70 11.85 o
-2 5 1 2936.68 3044.27 32.54 o
-1 5 1 670.55 665.70 11.47 o
0 5 1 5475.74 5518.24 55.64 o
1 5 1 1.28 3.25 1.88 o
2 5 1 6583.69 6612.94 57.86 o
3 5 1 690.11 695.43 14.15 o
4 5 1 4409.15 4564.58 64.96 o
5 5 1 732.23 761.46 21.02 o
6 5 1 1166.99 1197.24 29.92 o
7 5 1 345.31 339.37 18.13 o
-4 6 1 3.43 0.00 3.11 o
-3 6 1 401.02 360.19 13.59 o
-2 6 1 120.67 122.76 6.11 o
-1 6 1 529.88 506.99 11.53 o
0 6 1 1050.08 1048.73 17.91 o
1 6 1 614.17 600.78 11.82 o
2 6 1 1185.82 1203.31 20.46 o
3 6 1 177.83 181.61 7.19 o
4 6 1 499.93 527.22 18.11 o
5 6 1 1.14 6.64 4.33 o
6 6 1 258.74 287.78 16.49 o
-2 7 1 47.96 51.08 5.91 o
-1 7 1 44.83 46.77 4.17 o
0 7 1 82.83 78.72 4.89 o
1 7 1 216.03 190.51 8.44 o
2 7 1 56.06 47.17 4.32 o
3 7 1 141.76 125.50 7.58 o
4 7 1 109.26 97.76 9.74 o
5 7 1 10.96 5.02 4.20 o
6 7 1 180.35 167.38 13.14 o
-1 8 1 365.20 383.33 14.13 o
0 8 1 8.27 2.44 2.41 o
1 8 1 745.38 757.84 18.82 o
2 8 1 23.88 22.88 5.06 o
3 8 1 861.36 905.69 28.30 o
4 8 1 99.95 109.52 10.86 o
5 8 1 415.93 451.77 22.61 o
-3 -7 2 17.37 21.55 4.40 o
-2 -7 2 0.67 0.56 2.48 o
-1 -7 2 45.41 53.28 6.09 o
0 -7 2 16.35 14.44 3.90 o
1 -7 2 28.71 31.64 4.86 o
-4 -6 2 82.69 68.48 5.64 o
-3 -6 2 854.45 859.56 25.64 o
-2 -6 2 28.23 34.73 4.19 o
-1 -6 2 1106.53 1106.86 23.33 o
0 -6 2 30.95 19.72 3.00 o
1 -6 2 738.39 784.35 18.23 o
2 -6 2 174.19 136.76 7.52 o
3 -6 2 315.27 357.85 13.13 o
-5 -5 2 174.42 185.42 11.54 o
-4 -5 2 624.15 582.54 18.14 o
-3 -5 2 696.05 702.91 15.55 o
-2 -5 2 439.45 420.94 12.00 o
-1 -5 2 1393.81 1404.59 21.79 o
0 -5 2 141.00 148.86 5.97 o
1 -5 2 1110.46 1072.94 18.32 o
2 -5 2 13.57 15.44 2.26 o
3 -5 2 454.71 471.07 16.17 o
4 -5 2 0.02 0.00 2.25 o
-6 -4 2 2.34 1.35 2.56 o
-5 -4 2 2.05 1.21 3.39 o
-4 -4 2 0.88 4.41 2.27 o
-3 -4 2 20.55 12.16 1.98 o
-2 -4 2 24.55 27.29 2.52 o
-1 -4 2 9.92 6.08 1.46 o
0 -4 2 33.71 32.41 2.19 o
1 -4 2 58.04 56.56 3.51 o
2 -4 2 3.67 0.00 1.32 o
3 -4 2 177.36 174.23 6.72 o
4 -4 2 7.27 7.27 2.44 o
5 -4 2 70.24 70.96 6.13 o
-6 -3 2 398.68 409.78 17.64 o
-5 -3 2 258.38 259.23 12.13 o
-4 -3 2 1789.19 1811.38 29.98 o
-3 -3 2 173.09 167.95 6.21 o
-2 -3 2 5498.71 5430.63 70.96 o
-1 -3 2 25.68 31.45 1.85 o
0 -3 2 8461.72 8646.49 106.64 o
1 -3 2 418.62 397.75 7.84 o
2 -3 2 4033.12 4129.53 42.01 o
3 -3 2 979.06 929.52 13.21 o
4 -3 2 738.41 755.77 16.96 o
5 -3 2 873.47 880.55 21.38 o
6 -3 2 96.92 108.09 10.50 o
-6 -2 2 101.97 87.90 8.00 o
-5 -2 2 1526.56 1553.14 39.14 o
-4 -2 2 1475.79 1524.96 28.49 o
-3 -2 2 3069.55 3114.64 36.95 o
-2 -2 2 5651.13 5631.65 70.98 o
-1 -2 2 2296.37 2267.15 29.93 o
0 -2 2 8557.24 8372.59 122.75 o
1 -2 2 89.00 79.76 2.81 o
2 -2 2 7612.27 7754.80 74.25 o
3 -2 2 11.36 10.07 1.67 o
4 -2 2 2953.59 3106.02 36.81 o
5 -2 2 3.21 0.84 1.58 o
6 -2 2 525.75 561.39 19.57 o
-6 -1 2 55.90 44.11 5.73 o
-5 -1 2 186.28 204.04 9.03 o
-4 -1 2 17.16 19.22 2.75 o
-3 -1 2 239.69 259.15 8.29 o
-2 -1 2 67.09 74.01 3.29 o
-1 -1 2 82.95 82.81 2.67 o
0 -1 2 223.43 237.96 3.99 o
1 -1 2 87.73 89.28 2.49 o
2 -1 2 28.72 30.59 1.87 o
3 -1 2 24.75 27.44 3.27 o
4 -1 2 97.38 104.94 5.09 o
5 -1 2 76.35 84.50 4.73 o
6 -1 2 9.08 3.70 2.88 o
7 -1 2 169.34 167.80 10.48 o
-6 0 2 40.62 41.20 4.73 o
-5 0 2 1272.13 1258.91 25.86 o
-4 0 2 202.25 224.26 7.68 o
-3 0 2 4905.97 5139.34 71.05 o
-2 0 2 97.33 118.47 4.14 o
-1 0 2 12802.61 12433.30 135.77 o
0 0 2 615.09 664.28 6.75 o
1 0 2 16269.04 16408.61 211.03 o
2 0 2 3292.74 3280.01 31.63 o
3 0 2 6508.06 6171.03 73.82 o
4 0 2 3583.89 3599.08 36.64 o
5 0 2 1150.40 1151.46 19.09 o
6 0 2 1651.20 1697.61 31.84 o
7 0 2 71.28 53.84 5.56 o
-6 1 2 974.93 970.26 35.39 o
-5 1 2 422.17 355.18 12.38 o
-4 1 2 2757.72 2930.40 31.30 o
-3 1 2 4008.82 4147.01 38.68 o
-2 1 2 4046.35 4297.10 39.29 o
-1 1 2 18534.00 18008.15 237.69 o
0 1 2 3156.72 3264.70 51.93 o
1 1 2 29207.25 27695.83 163.62 o
2 1 2 398.29 377.94 5.68 o
3 1 2 13072.93 11726.37 91.61 o
4 1 2 194.74 212.81 6.22 o
5 1 2 3658.90 3691.15 37.05 o
6 1 2 371.35 364.50 11.51 o
7 1 2 902.81 948.97 26.08 o
-6 2 2 118.95 106.82 9.17 o
-5 2 2 84.26 91.35 5.98 o
-4 2 2 677.67 695.06 15.56 o
-3 2 2 0.46 0.39 1.19 o
-2 2 2 1705.48 1782.18 21.95 o
-1 2 2 64.88 64.08 2.40 o
0 2 2 598.14 629.20 7.47 o
1 2 2 496.89 455.93 6.75 o
2 2 2 12.36 8.22 0.86 o
3 2 2 725.30 710.83 9.96 o
4 2 2 249.41 255.42 7.20 o
5 2 2 49.43 40.94 3.15 o
6 2 2 306.76 300.44 10.29 o
7 2 2 2.00 1.49 2.47 o
8 2 2 92.70 102.19 9.63 o
-5 3 2 0.23 1.42 2.10 o
-4 3 2 977.05 972.27 19.17 o
-3 3 2 0.89 2.24 1.61 o
-2 3 2 3791.89 3839.68 36.37 o
-1 3 2 1.54 2.26 0.84 o
0 3 2 6936.95 6520.63 76.67 o
1 3 2 1179.88 1125.63 13.54 o
2 3 2 7007.53 6553.26 109.18 o
3 3 2 3997.94 3812.16 45.21 o
4 3 2 3604.61 3476.01 47.51 o
5 3 2 2371.41 2453.18 34.02 o
6 3 2 396.43 389.01 11.72 o
7 3 2 854.12 847.99 22.81 o
8 3 2 2.90 3.08 2.78 o
-5 4 2 583.55 641.46 20.31 o
-4 4 2 694.45 646.84 15.92 o
-3 4 2 1590.25 1644.85 23.10 o
-2 4 2 3623.55 3645.90 33.28 o
-1 4 2 1758.16 1785.65 20.28 o
0 4 2 10583.86 10060.60 127.63 o
1 4 2 543.30 552.08 10.05 o
2 4 2 12661.44 11761.96 141.48 o
3 4 2 44.73 40.36 3.03 o
4 4 2 6329.81 6038.62 126.58 o
5 4 2 623.31 610.55 15.85 o
6 4 2 2085.29 2142.95 34.52 o
7 4 2 357.11 343.51 14.22 o
-4 5 2 45.75 44.09 5.94 o
-3 5 2 486.44 506.42 14.55 o
-2 5 2 31.33 23.88 2.20 o
-1 5 2 892.57 906.13 12.05 o
0 5 2 515.88 477.79 8.46 o
1 5 2 753.09 753.29 11.90 o
2 5 2 771.63 767.79 15.54 o
3 5 2 262.05 271.83 13.13 o
4 5 2 354.04 344.53 15.08 o
5 5 2 65.10 67.21 5.97 o
6 5 2 88.45 102.03 9.03 o
7 5 2 27.75 27.38 4.69 o
-4 6 2 8.11 7.26 5.10 o
-3 6 2 168.91 168.35 8.79 o
-2 6 2 42.79 36.97 3.83 o
-1 6 2 603.44 615.20 11.80 o
0 6 2 156.16 165.06 6.12 o
1 6 2 1435.13 1421.66 22.71 o
2 6 2 315.46 299.49 10.10 o
3 6 2 1146.78 1158.57 36.15 o
4 6 2 541.21 545.15 20.89 o
5 6 2 235.56 251.49 12.87 o
6 6 2 622.59 571.74 22.38 o
7 6 2 10.47 6.16 3.26 o
-2 7 2 290.05 271.55 12.50 o
-1 7 2 1039.55 1068.90 22.60 o
0 7 2 245.75 219.87 8.95 o
1 7 2 1961.37 2000.37 27.80 o
2 7 2 0.06 0.09 2.27 o
3 7 2 2435.65 2542.94 37.10 o
4 7 2 147.59 150.80 10.12 o
5 7 2 1474.34 1568.12 36.37 o
6 7 2 144.53 120.71 10.93 o
-1 8 2 31.56 30.84 4.65 o
0 8 2 198.43 194.15 9.06 o
1 8 2 197.95 194.67 8.98 o
2 8 2 168.33 156.37 8.65 o
3 8 2 187.96 193.63 10.94 o
4 8 2 25.94 20.56 4.19 o
5 8 2 108.13 130.73 11.89 o
1 9 2 17.88 12.63 3.04 o
2 9 2 70.29 73.60 6.36 o
3 9 2 31.97 33.90 5.26 o
-3 -6 3 124.77 112.06 16.07 o
-2 -6 3 89.96 69.39 5.84 o
-1 -6 3 220.04 194.79 9.38 o
0 -6 3 33.02 35.49 4.04 o
1 -6 3 157.11 155.91 8.38 o
2 -6 3 11.22 15.89 3.22 o
-4 -5 3 54.82 59.22 6.78 o
-3 -5 3 20.73 11.91 2.69 o
-2 -5 3 117.39 126.72 6.42 o
-1 -5 3 2.38 5.73 2.05 o
0 -5 3 193.46 210.75 7.68 o
1 -5 3 73.84 66.49 4.36 o
2 -5 3 98.69 98.34 6.21 o
3 -5 3 93.82 87.82 6.23 o
4 -5 3 0.80 6.18 2.63 o
-5 -4 3 228.79 232.18 12.75 o
-4 -4 3 748.14 775.80 24.64 o
-3 -4 3 236.38 215.90 8.56 o
-2 -4 3 2502.10 2555.68 50.27 o
-1 -4 3 95.82 98.38 4.42 o
0 -4 3 3003.57 3083.45 34.69 o
1 -4 3 36.98 26.95 2.63 o
2 -4 3 1699.44 1766.89 24.40 o
3 -4 3 287.51 241.61 9.35 o
4 -4 3 577.53 626.57 17.13 o
5 -4 3 197.44 193.65 10.63 o
-6 -3 3 22.23 16.21 3.42 o
-5 -3 3 718.68 732.25 24.00 o
-4 -3 3 303.41 296.39 13.42 o
-3 -3 3 1253.70 1255.74 21.12 o
-2 -3 3 1237.95 1249.29 19.79 o
-1 -3 3 712.20 688.59 10.73 o
0 -3 3 2448.78 2417.94 22.57 o
1 -3 3 176.41 176.25 5.73 o
2 -3 3 1938.41 1940.20 25.17 o
3 -3 3 48.54 51.19 3.04 o
4 -3 3 653.97 683.85 14.95 o
5 -3 3 11.95 7.93 3.22 o
6 -3 3 165.38 187.19 13.12 o
-6 -2 3 18.11 13.56 3.98 o
-5 -2 3 4.70 2.76 3.12 o
-4 -2 3 0.29 2.81 3.10 o
-3 -2 3 41.96 41.46 3.22 o
-2 -2 3 24.52 23.84 2.32 o
-1 -2 3 154.96 152.85 4.63 o
0 -2 3 22.31 24.89 1.89 o
1 -2 3 246.00 219.33 4.88 o
2 -2 3 375.04 369.66 8.20 o
3 -2 3 104.14 92.16 3.20 o
4 -2 3 370.95 358.74 10.64 o
5 -2 3 1.93 4.52 2.15 o
6 -2 3 119.57 113.37 8.45 o
-6 -1 3 191.56 179.33 11.59 o
-5 -1 3 828.82 814.56 24.24 o
-4 -1 3 593.97 599.30 15.72 o
-3 -1 3 3725.11 3969.55 64.96 o
-2 -1 3 557.05 550.98 9.21 o
-1 -1 3 10091.55 10014.85 63.38 o
0 -1 3 1.48 0.85 1.00 o
1 -1 3 12394.55 12958.86 183.21 o
2 -1 3 719.38 711.40 11.54 o
3 -1 3 5713.67 5611.81 77.67 o
4 -1 3 1459.59 1474.56 20.62 o
5 -1 3 1222.59 1255.68 22.73 o
6 -1 3 969.50 971.62 24.10 o
7 -1 3 186.32 172.98 12.39 o
-6 0 3 722.92 727.44 23.71 o
-5 0 3 72.99 60.95 5.50 o
-4 0 3 2007.74 2131.57 30.74 o
-3 0 3 1842.12 1921.99 26.27 o
-2 0 3 3796.53 3948.08 62.24 o
-1 0 3 7998.99 8096.85 71.12 o
0 0 3 3517.42 3698.70 36.02 o
1 0 3 10480.35 10656.15 111.53 o
2 0 3 480.28 463.31 7.49 o
3 0 3 6570.83 6244.30 66.36 o
4 0 3 1.98 3.71 1.73 o
5 0 3 2273.45 2344.05 29.66 o
6 0 3 0.46 0.00 2.13 o
7 0 3 452.28 474.06 18.97 o
-6 1 3 8.05 5.64 2.62 o
-5 1 3 51.12 44.28 4.70 o
-4 1 3 126.84 138.09 7.25 o
-3 1 3 63.98 61.15 3.87 o
-2 1 3 25.78 30.81 2.90 o
-1 1 3 1.38 1.03 0.43 o
0 1 3 213.90 211.38 3.61 o
1 1 3 90.35 81.14 2.57 o
2 1 3 37.38 40.96 1.94 o
3 1 3 111.81 109.56 4.21 o
4 1 3 5.38 6.12 1.05 o
5 1 3 252.58 250.15 11.28 o
6 1 3 95.67 110.07 6.60 o
7 1 3 81.41 72.36 5.95 o
-5 2 3 127.52 119.49 6.82 o
-4 2 3 1580.17 1489.99 23.87 o
-3 2 3 459.67 475.81 10.83 o
-2 2 3 5188.52 5349.73 52.09 o
-1 2 3 140.67 158.76 4.32 o
0 2 3 12004.09 11429.57 177.41 o
1 2 3 800.19 792.26 8.28 o
2 2 3 14583.89 13180.64 139.91 o
3 2 3 2611.87 2559.69 30.67 o
4 2 3 5899.82 5570.15 61.29 o
5 2 3 2414.33 2418.16 28.94 o
6 2 3 1011.97 1008.15 18.65 o
7 2 3 1031.04 1058.13 23.58 o
8 2 3 47.12 39.72 7.82 o
-5 3 3 827.82 840.84 20.22 o
-4 3 3 350.98 298.77 10.43 o
-3 3 3 2361.43 2479.66 32.03 o
-2 3 3 3182.53 3161.44 29.80 o
-1 3 3 3615.36 3694.75 31.35 o
0 3 3 10482.40 9760.74 104.85 o
1 3 3 2176.24 2188.36 18.79 o
3 3 3 175.38 175.25 4.31 o
4 3 3 6355.21 5838.44 73.93 o
5 3 3 107.49 106.08 4.46 o
6 3 3 2137.39 2136.94 28.51 o
7 3 3 119.46 118.28 8.00 o
8 3 3 553.03 542.93 26.05 o
-5 4 3 55.68 49.66 5.03 o
-4 4 3 107.38 103.47 6.25 o
-3 4 3 220.61 240.68 8.73 o
-2 4 3 4.49 6.11 1.67 o
-1 4 3 437.84 422.24 8.86 o
0 4 3 42.77 37.82 1.69 o
1 4 3 192.48 177.98 4.44 o
2 4 3 87.27 74.27 2.94 o
3 4 3 33.61 31.79 2.49 o
4 4 3 28.73 32.98 3.40 o
5 4 3 125.99 129.14 6.00 o
6 4 3 16.69 17.08 3.09 o
7 4 3 115.37 104.06 7.60 o
8 4 3 10.23 5.45 4.24 o
-4 5 3 9.53 7.50 3.48 o
-3 5 3 650.13 668.06 15.70 o
-2 5 3 0.36 0.00 1.34 o
-1 5 3 2627.44 2629.98 25.22 o
0 5 3 11.22 8.48 1.28 o
1 5 3 4650.07 4742.43 66.84 o
2 5 3 443.00 422.02 9.31 o
3 5 3 3873.18 3942.16 52.06 o
4 5 3 1418.36 1348.18 22.90 o
5 5 3 1546.70 1531.82 26.42 o
6 5 3 1110.97 1117.99 26.06 o
7 5 3 175.62 182.61 11.71 o
-3 6 3 328.48 308.89 13.32 o
-2 6 3 1000.16 1030.59 22.19 o
-1 6 3 1384.92 1428.43 23.04 o
0 6 3 809.75 789.53 16.05 o
1 6 3 3884.25 3917.10 67.66 o
2 6 3 190.87 177.47 6.62 o
3 6 3 4622.36 4720.41 86.33 o
4 6 3 6.19 3.61 2.17 o
5 6 3 2422.40 2478.61 67.32 o
6 6 3 107.70 102.27 9.34 o
7 6 3 713.61 720.76 24.66 o
-2 7 3 154.87 163.78 8.94 o
-1 7 3 6.44 6.07 2.09 o
0 7 3 293.92 286.56 10.08 o
1 7 3 70.30 56.10 4.22 o
2 7 3 187.53 175.88 6.95 o
3 7 3 76.27 75.67 5.50 o
4 7 3 42.53 34.08 4.69 o
5 7 3 31.98 31.38 4.60 o
6 7 3 12.16 8.86 3.18 o
7 7 3 14.00 7.11 3.88 o
-1 8 3 7.79 7.19 2.63 o
0 8 3 326.54 314.40 13.38 o
1 8 3 36.93 38.91 4.29 o
2 8 3 552.92 529.22 15.85 o
3 8 3 108.39 97.66 6.28 o
4 8 3 366.08 330.39 13.76 o
5 8 3 229.63 225.05 11.93 o
6 8 3 92.37 96.62 8.70 o
1 9 3 75.83 58.99 6.18 o
2 9 3 571.36 595.51 19.10 o
3 9 3 1.72 0.00 3.22 o
4 9 3 625.74 701.62 23.47 o
-2 -6 4 130.79 151.08 8.99 o
-1 -6 4 1.65 3.40 2.37 o
0 -6 4 135.65 135.35 8.08 o
1 -6 4 9.22 5.69 2.92 o
-3 -5 4 159.99 144.91 9.02 o
-2 -5 4 609.70 642.03 22.07 o
-1 -5 4 62.24 67.98 5.47 o
0 -5 4 865.33 892.93 19.11 o
1 -5 4 0.31 4.93 1.89 o
2 -5 4 544.18 578.84 15.41 o
3 -5 4 20.65 8.45 2.42 o
-4 -4 4 58.01 50.09 6.21 o
-3 -4 4 282.38 255.84 10.91 o
-2 -4 4 203.51 193.48 8.96 o
-1 -4 4 119.19 102.67 4.87 o
0 -4 4 402.27 399.37 10.61 o
1 -4 4 31.54 33.32 2.85 o
2 -4 4 294.78 289.64 9.39 o
3 -4 4 28.46 29.75 3.54 o
4 -4 4 67.61 64.89 5.49 o
-5 -3 4 64.67 59.11 6.53 o
-4 -3 4 34.20 29.15 4.32 o
-3 -3 4 202.71 208.91 8.88 o
-2 -3 4 59.92 56.02 4.09 o
-1 -3 4 355.55 366.45 8.23 o
0 -3 4 37.63 34.83 2.48 o
1 -3 4 604.77 592.18 9.85 o
2 -3 4 265.03 231.51 7.30 o
3 -3 4 333.25 336.89 9.48 o
4 -3 4 203.64 173.03 7.78 o
5 -3 4 9.46 10.72 3.27 o
-5 -2 4 240.06 244.10 13.74 o
-4 -2 4 481.56 460.93 16.33 o
-3 -2 4 1759.29 1810.32 28.27 o
-2 -2 4 641.67 625.69 14.21 o
-1 -2 4 5101.62 5357.49 43.77 o
0 -2 4 350.85 335.89 6.55 o
1 -2 4 5023.12 5224.33 67.75 o
2 -2 4 42.82 31.36 2.38 o
3 -2 4 2628.32 2720.32 32.80 o
4 -2 4 439.76 406.35 12.04 o
5 -2 4 924.33 1015.63 21.32 o
6 -2 4 242.81 225.02 13.24 o
-5 -1 4 14.20 6.23 3.33 o
-4 -1 4 1060.96 1070.32 32.19 o
-3 -1 4 358.55 348.95 12.30 o
-2 -1 4 1492.29 1526.82 19.24 o
-1 -1 4 1847.94 1887.93 20.88 o
0 -1 4 791.55 799.36 10.08 o
1 -1 4 3493.77 3544.03 33.68 o
2 -1 4 353.84 354.60 7.10 o
3 -1 4 1861.87 1882.29 25.62 o
4 -1 4 96.21 94.83 5.21 o
5 -1 4 499.68 538.93 14.93 o
6 -1 4 20.92 23.55 3.93 o
7 -1 4 132.96 141.53 12.34 o
-5 0 4 3.09 1.52 2.83 o
-4 0 4 25.25 17.32 3.58 o
-3 0 4 0.56 0.56 1.79 o
-2 0 4 199.63 180.61 5.66 o
-1 0 4 2.97 1.27 1.03 o
0 0 4 976.37 1005.11 11.94 o
1 0 4 113.83 112.50 3.04 o
2 0 4 1007.13 995.44 15.25 o
3 0 4 465.53 447.21 10.04 o
4 0 4 167.63 160.83 6.41 o
5 0 4 568.23 565.67 14.52 o
6 0 4 2.13 4.27 3.24 o
7 0 4 212.71 198.83 12.19 o
-5 1 4 329.40 335.83 15.54 o
-4 1 4 1261.39 1223.24 23.50 o
-3 1 4 1163.07 1208.32 18.75 o
-2 1 4 4452.75 4633.04 43.55 o
-1 1 4 947.38 982.39 13.52 o
0 1 4 9853.59 9973.42 149.95 o
1 1 4 52.73 59.74 2.26 o
2 1 4 13330.75 12971.14 141.47 o
3 1 4 814.24 817.24 15.20 o
4 1 4 6039.28 5860.76 72.84 o
5 1 4 1076.04 1032.39 21.20 o
6 1 4 1190.73 1192.43 25.08 o
7 1 4 668.38 669.26 19.98 o
-5 2 4 649.63 643.74 20.60 o
-4 2 4 53.31 41.40 3.96 o
-3 2 4 1699.74 1824.64 24.54 o
-2 2 4 1956.03 2012.27 23.04 o
-1 2 4 3862.05 4108.67 43.14 o
0 2 4 6053.18 6062.42 65.31 o
1 2 4 3501.18 3529.85 28.81 o
2 2 4 5470.56 5256.70 60.15 o
3 2 4 294.61 285.53 6.56 o
4 2 4 3795.23 3563.93 50.06 o
5 2 4 5.55 5.56 1.37 o
6 2 4 1397.97 1408.51 24.79 o
7 2 4 3.91 4.17 2.23 o
8 2 4 304.63 317.90 14.62 o
-5 3 4 3.05 6.84 2.32 o
-4 3 4 73.76 80.35 7.01 o
-3 3 4 12.26 20.90 2.49 o
-2 3 4 105.15 98.48 3.98 o
-1 3 4 100.42 91.20 3.65 o
0 3 4 0.89 1.88 0.82 o
1 3 4 287.35 287.49 4.94 o
2 3 4 0.43 1.56 0.72 o
3 3 4 55.98 57.41 2.74 o
4 3 4 360.33 378.00 9.09 o
5 3 4 0.14 2.84 1.37 o
6 3 4 388.40 385.66 12.22 o
7 3 4 36.69 41.85 4.91 o
8 3 4 105.11 87.95 8.99 o
-4 4 4 211.10 198.08 9.83 o
-3 4 4 1098.89 1030.39 20.28 o
-2 4 4 370.03 395.73 10.34 o
-1 4 4 3874.43 3840.79 34.92 o
0 4 4 65.94 73.86 3.07 o
1 4 4 8873.88 8513.80 94.82 o
2 4 4 188.88 186.91 4.75 o
3 4 4 8294.84 7888.96 65.08 o
4 4 4 1066.56 1069.54 19.16 o
5 4 4 3214.23 3184.01 41.80 o
6 4 4 1146.03 1129.74 20.29 o
7 4 4 541.26 541.92 18.03 o
8 4 4 555.71 548.92 21.24 o
-4 5 4 576.20 597.08 22.88 o
-3 5 4 211.64 191.94 7.98 o
-2 5 4 1678.33 1725.57 26.49 o
-1 5 4 1289.90 1263.56 19.31 o
0 5 4 1840.27 1848.41 18.09 o
1 5 4 3954.82 3945.28 44.50 o
2 5 4 752.96 777.91 13.06 o
3 5 4 4961.58 5008.07 68.34 o
4 5 4 80.70 78.45 5.01 o
5 5 4 2563.21 2532.86 42.52 o
6 5 4 7.14 1.49 2.01 o
7 5 4 825.58 851.78 32.65 o
8 5 4 13.62 10.49 3.45 o
-3 6 4 49.30 44.67 5.14 o
-2 6 4 28.51 30.58 3.27 o
-1 6 4 0.08 1.93 1.44 o
0 6 4 122.14 119.39 5.52 o
1 6 4 0.85 0.00 1.23 o
2 6 4 22.44 19.01 2.27 o
3 6 4 11.98 10.46 2.60 o
4 6 4 0.76 0.00 2.08 o
5 6 4 16.10 10.43 3.18 o
6 6 4 16.51 13.35 2.59 o
7 6 4 28.06 21.45 3.73 o
-2 7 4 410.33 397.85 14.48 o
-1 7 4 2.46 2.85 2.26 o
0 7 4 1403.59 1422.16 26.87 o
1 7 4 1.27 1.59 1.76 o
2 7 4 1825.40 1862.98 30.66 o
3 7 4 131.83 130.13 7.21 o
4 7 4 1307.63 1327.87 34.41 o
5 7 4 536.95 526.65 17.34 o
6 7 4 550.73 552.30 19.76 o
7 7 4 425.26 406.85 17.46 o
-1 8 4 337.91 334.60 14.44 o
0 8 4 436.05 436.52 16.03 o
1 8 4 248.14 229.33 11.66 o
2 8 4 1215.09 1305.90 27.96 o
3 8 4 90.30 79.57 6.29 o
4 8 4 1254.45 1300.97 30.94 o
5 8 4 1.99 4.16 2.99 o
6 8 4 589.81 591.28 20.14 o
1 9 4 50.17 38.74 4.96 o
2 9 4 2.23 3.48 2.38 o
3 9 4 20.59 22.64 4.19 o
4 9 4 5.58 4.95 2.68 o
-2 -5 5 62.29 62.14 5.93 o
-1 -5 5 18.79 10.69 2.97 o
0 -5 5 32.47 25.10 3.67 o
1 -5 5 0.34 1.09 2.89 o
2 -5 5 8.27 11.64 3.09 o
-3 -4 5 147.62 163.90 8.71 o
-2 -4 5 43.26 36.13 3.93 o
-1 -4 5 350.60 373.82 12.11 o
0 -4 5 2.55 5.42 1.86 o
1 -4 5 334.35 341.29 10.40 o
2 -4 5 55.35 36.05 3.88 o
3 -4 5 168.41 176.39 9.14 o
4 -4 5 104.63 86.70 7.48 o
-4 -3 5 275.87 271.89 14.49 o
-3 -3 5 482.84 521.91 16.31 o
-2 -3 5 340.85 313.69 11.78 o
-1 -3 5 1502.93 1581.52 25.21 o
0 -3 5 209.86 204.82 6.30 o
1 -3 5 1623.44 1666.10 23.40 o
2 -3 5 7.93 11.93 2.82 o
3 -3 5 809.73 872.63 17.39 o
4 -3 5 49.03 31.10 3.82 o
5 -3 5 311.14 349.84 15.12 o
-4 -2 5 304.08 285.47 13.39 o
-3 -2 5 59.87 66.65 5.28 o
-2 -2 5 320.46 303.27 10.28 o
-1 -2 5 283.93 275.04 8.55 o
0 -2 5 58.04 48.35 2.85 o
1 -2 5 703.41 701.84 11.14 o
2 -2 5 47.99 47.67 2.94 o
3 -2 5 327.58 345.56 10.86 o
4 -2 5 69.25 75.73 5.41 o
5 -2 5 24.80 24.26 3.23 o
6 -2 5 18.02 17.69 5.11 o
-5 -1 5 7.13 3.44 4.71 o
-4 -1 5 163.74 146.81 10.19 o
-3 -1 5 108.30 112.73 7.33 o
-2 -1 5 413.22 393.37 11.38 o
-1 -1 5 44.76 43.79 3.26 o
0 -1 5 901.50 894.21 13.08 o
1 -1 5 173.98 162.63 4.71 o
2 -1 5 1541.79 1538.97 20.45 o
3 -1 5 356.52 335.56 10.34 o
4 -1 5 548.45 531.08 13.16 o
5 -1 5 277.97 252.06 9.54 o
6 -1 5 9.44 13.65 2.81 o
-5 0 5 362.09 341.16 16.34 o
-4 0 5 438.26 448.88 16.38 o
-3 0 5 865.22 861.98 20.14 o
-2 0 5 2685.93 2829.32 33.68 o
-1 0 5 1257.99 1276.71 16.70 o
0 0 5 6025.19 6330.09 45.31 o
1 0 5 410.11 394.32 6.64 o
2 0 5 5686.52 5899.58 54.79 o
3 0 5 104.91 101.07 4.34 o
4 0 5 3305.93 3387.43 39.94 o
5 0 5 350.44 320.17 11.53 o
6 0 5 1040.36 1111.27 24.58 o
7 0 5 154.89 122.59 9.36 o
-5 1 5 321.18 329.91 15.81 o
-4 1 5 2.45 1.37 2.50 o
-3 1 5 913.37 959.49 18.85 o
-2 1 5 418.23 437.09 10.77 o
-1 1 5 1326.84 1369.04 18.29 o
0 1 5 2064.88 2139.23 21.07 o
1 1 5 1149.81 1147.49 13.30 o
2 1 5 2160.04 2152.74 20.06 o
3 1 5 352.18 346.81 10.07 o
4 1 5 917.91 926.70 20.53 o
5 1 5 49.85 48.63 5.39 o
6 1 5 312.82 320.12 11.53 o
7 1 5 26.15 25.98 3.88 o
-4 2 5 0.57 2.59 2.56 o
-3 2 5 64.08 50.49 4.12 o
-2 2 5 8.56 5.06 1.96 o
-1 2 5 732.08 695.91 9.76 o
0 2 5 4.74 3.79 1.01 o
1 2 5 1968.35 1990.65 19.58 o
2 2 5 24.91 23.18 1.78 o
3 2 5 874.06 861.99 16.22 o
4 2 5 592.19 609.00 11.40 o
5 2 5 147.18 141.04 6.11 o
6 2 5 725.51 701.90 28.67 o
7 2 5 1.83 3.00 2.10 o
-4 3 5 489.72 491.74 15.21 o
-3 3 5 1061.18 1007.31 21.54 o
-2 3 5 1316.72 1355.80 22.59 o
-1 3 5 3153.00 3189.48 32.22 o
0 3 5 508.24 499.41 8.36 o
1 3 5 8280.60 8075.59 98.40 o
2 3 5 23.04 26.85 1.68 o
3 3 5 10113.28 9866.78 92.14 o
4 3 5 244.30 240.29 6.61 o
5 3 5 3773.96 3805.42 45.79 o
6 3 5 502.59 481.62 13.62 o
7 3 5 679.37 727.14 18.51 o
8 3 5 394.44 382.51 15.22 o
-4 4 5 401.49 387.59 13.73 o
-3 4 5 58.73 54.26 4.89 o
-2 4 5 1269.62 1333.70 21.36 o
-1 4 5 1079.72 1058.33 15.26 o
0 4 5 2532.73 2584.94 23.60 o
1 4 5 2153.53 2106.80 21.09 o
2 4 5 1185.16 1162.53 13.22 o
3 4 5 2329.49 2167.41 22.62 o
4 4 5 82.96 81.27 3.30 o
5 4 5 1768.33 1723.39 26.14 o
6 4 5 23.98 26.88 2.89 o
7 4 5 591.25 621.74 18.05 o
8 4 5 22.86 21.04 5.12 o
-3 5 5 54.58 53.03 5.05 o
-2 5 5 28.10 14.50 2.47 o
-1 5 5 18.56 13.16 2.21 o
0 5 5 144.10 145.17 5.03 o
1 5 5 1.20 0.89 1.15 o
2 5 5 170.60 176.60 5.41 o
3 5 5 128.93 124.45 4.76 o
4 5 5 109.91 115.93 4.86 o
5 5 5 413.85 428.18 11.54 o
6 5 5 20.24 16.10 3.09 o
7 5 5 245.75 255.52 12.24 o
-3 6 5 132.24 130.33 7.57 o
-2 6 5 610.28 594.80 14.94 o
-1 6 5 163.27 160.72 7.39 o
0 6 5 2385.71 2388.27 30.23 o
1 6 5 93.06 84.13 4.36 o
2 6 5 4042.18 4184.75 42.25 o
3 6 5 18.18 17.07 2.62 o
4 6 5 3034.30 3147.19 60.98 o
5 6 5 406.16 395.15 15.61 o
6 6 5 1217.57 1258.75 32.07 o
7 6 5 480.77 446.66 16.22 o
-2 7 5 43.41 36.42 4.22 o
-1 7 5 704.06 728.05 16.30 o
0 7 5 335.03 333.79 13.11 o
1 7 5 527.32 525.33 14.14 o
2 7 5 1345.56 1330.82 23.94 o
3 7 5 267.47 259.05 9.99 o
4 7 5 1567.34 1608.03 28.35 o
5 7 5 82.80 84.32 6.96 o
6 7 5 652.68 688.83 23.63 o
7 7 5 1.05 0.54 2.45 o
-1 8 5 7.35 9.04 2.76 o
0 8 5 3.41 1.86 2.78 o
1 8 5 19.81 17.55 3.49 o
2 8 5 32.44 40.07 4.27 o
3 8 5 5.99 8.06 2.46 o
4 8 5 27.43 22.72 3.13 o
5 8 5 13.34 11.84 2.96 o
6 8 5 13.46 10.57 3.05 o
1 9 5 448.90 479.17 19.90 o
2 9 5 3.43 0.95 2.58 o
3 9 5 493.79 489.22 16.59 o
4 9 5 55.97 53.72 5.56 o
-1 -4 6 243.43 244.97 12.11 o
0 -4 6 32.90 26.17 4.17 o
1 -4 6 390.25 411.84 15.05 o
2 -4 6 5.81 2.02 2.46 o
-3 -3 6 30.26 26.97 4.26 o
-2 -3 6 25.41 23.17 3.67 o
-1 -3 6 79.10 71.89 4.83 o
0 -3 6 3.05 1.01 2.50 o
1 -3 6 47.57 49.32 4.29 o
2 -3 6 4.23 6.08 2.22 o
3 -3 6 16.48 12.79 2.94 o
4 -3 6 0.02 0.00 2.40 o
-3 -2 6 113.89 113.40 7.55 o
-2 -2 6 325.43 348.96 12.74 o
-1 -2 6 93.72 80.05 5.36 o
0 -2 6 666.33 667.16 13.51 o
1 -2 6 2.79 1.51 1.48 o
2 -2 6 789.07 797.46 17.94 o
3 -2 6 115.88 85.64 5.97 o
4 -2 6 396.01 394.55 15.10 o
5 -2 6 114.11 94.36 7.73 o
-4 -1 6 105.16 106.65 9.30 o
-3 -1 6 445.96 432.33 17.18 o
-2 -1 6 910.29 944.18 19.75 o
-1 -1 6 672.60 645.14 14.87 o
0 -1 6 2210.97 2307.87 27.03 o
1 -1 6 419.07 406.89 9.03 o
2 -1 6 1828.84 1878.54 26.13 o
3 -1 6 1.11 3.68 2.13 o
4 -1 6 1021.35 1034.47 23.32 o
5 -1 6 67.32 47.03 4.90 o
6 -1 6 445.41 497.93 18.00 o
-4 0 6 1.53 5.73 2.76 o
-3 0 6 297.94 308.90 13.91 o
-2 0 6 54.33 51.58 4.44 o
-1 0 6 189.72 196.10 6.96 o
0 0 6 405.88 407.38 8.72 o
1 0 6 42.41 42.81 2.71 o
2 0 6 669.76 650.87 11.67 o
3 0 6 83.33 89.74 5.20 o
4 0 6 115.56 119.73 7.15 o
5 0 6 47.77 47.26 4.89 o
6 0 6 1.00 0.26 2.63 o
-4 1 6 32.27 24.24 4.00 o
-3 1 6 235.16 197.81 10.87 o
-2 1 6 129.66 120.88 7.58 o
-1 1 6 732.16 738.36 12.96 o
0 1 6 17.94 15.03 1.74 o
1 1 6 1826.29 1839.94 19.07 o
2 1 6 112.24 107.06 3.97 o
3 1 6 1927.22 1928.68 36.12 o
4 1 6 289.77 272.01 13.13 o
5 1 6 461.76 466.40 15.97 o
6 1 6 363.37 321.22 16.51 o
7 1 6 14.34 21.60 4.01 o
-4 2 6 469.22 465.74 18.31 o
-3 2 6 499.01 488.80 13.88 o
-2 2 6 1148.28 1159.89 21.59 o
-1 2 6 2311.08 2389.72 36.57 o
0 2 6 1145.17 1120.89 15.41 o
1 2 6 4941.45 5073.85 38.13 o
2 2 6 167.72 157.56 4.89 o
3 2 6 5282.67 5219.43 81.25 o
4 2 6 50.20 51.74 4.66 o
5 2 6 2752.98 2827.59 42.22 o
6 2 6 122.34 100.15 6.80 o
7 2 6 663.17 688.77 21.41 o
-4 3 6 197.84 193.51 11.58 o
-3 3 6 3.33 1.75 2.12 o
-2 3 6 580.00 617.03 13.92 o
-1 3 6 391.86 400.21 10.75 o
0 3 6 1098.56 1114.74 14.30 o
1 3 6 925.67 930.44 11.81 o
2 3 6 690.55 649.89 9.66 o
3 3 6 654.44 632.35 9.67 o
4 3 6 77.80 75.79 4.24 o
5 3 6 392.01 376.93 10.27 o
6 3 6 22.50 20.65 2.99 o
7 3 6 171.81 152.80 8.95 o
-3 4 6 2.11 2.07 2.29 o
-2 4 6 174.80 140.05 7.85 o
-1 4 6 3.01 1.75 1.66 o
0 4 6 1004.89 981.65 14.40 o
1 4 6 7.01 4.95 1.30 o
2 4 6 1243.06 1247.76 14.59 o
3 4 6 65.34 65.81 3.06 o
4 4 6 501.27 517.01 10.36 o
5 4 6 690.15 706.56 13.50 o
6 4 6 176.65 176.36 8.93 o
7 4 6 515.36 524.79 18.29 o
-3 5 6 418.01 410.36 15.04 o
-2 5 6 551.26 528.82 15.12 o
-1 5 6 714.02 721.16 15.48 o
0 5 6 1997.60 2008.67 23.87 o
1 5 6 275.69 266.54 7.02 o
2 5 6 4961.13 4898.95 56.20 o
3 5 6 15.71 14.08 1.85 o
4 5 6 4550.08 4555.91 44.20 o
5 5 6 39.25 33.76 4.05 o
6 5 6 1464.52 1536.85 32.95 o
7 5 6 240.99 231.02 13.29 o
-2 6 6 19.29 17.40 2.85 o
-1 6 6 684.05 700.45 15.98 o
0 6 6 263.79 266.17 8.63 o
1 6 6 846.80 840.13 13.41 o
2 6 6 641.93 637.98 13.97 o
3 6 6 290.72 277.19 9.13 o
4 6 6 869.17 823.28 17.25 o
5 6 6 60.53 66.59 6.08 o
6 6 6 542.19 560.57 20.23 o
7 6 6 44.56 60.82 7.60 o
-1 7 6 39.34 31.02 3.06 o
0 7 6 1.64 3.98 1.87 o
1 7 6 75.88 81.38 6.58 o
2 7 6 26.36 26.96 3.76 o
3 7 6 148.59 156.66 7.78 o
4 7 6 148.85 157.87 8.08 o
5 7 6 143.40 147.85 9.95 o
6 7 6 170.67 207.16 12.79 o
7 7 6 16.79 13.58 3.47 o
0 8 6 98.95 93.84 8.30 o
1 8 6 960.11 1031.24 26.77 o
2 8 6 84.46 77.48 6.21 o
3 8 6 1177.25 1238.45 24.94 o
4 8 6 5.21 6.76 2.58 o
5 8 6 862.41 912.58 25.95 o
6 8 6 157.56 152.52 11.52 o
2 9 6 131.10 121.51 9.10 o
3 9 6 374.68 363.63 14.34 o
4 9 6 115.17 107.97 8.37 o
-1 -3 7 53.08 45.78 4.74 o
0 -3 7 319.15 353.26 15.33 o
1 -3 7 17.26 9.67 3.08 o
2 -3 7 250.24 264.03 13.09 o
-2 -2 7 186.32 211.32 9.87 o
-1 -2 7 211.53 192.44 8.58 o
0 -2 7 451.88 449.43 13.24 o
1 -2 7 75.79 66.77 4.72 o
2 -2 7 535.69 566.98 16.82 o
3 -2 7 11.73 16.31 3.19 o
4 -2 7 252.37 256.93 12.30 o
-2 -1 7 36.93 42.49 4.60 o
-1 -1 7 4.82 5.09 2.09 o
0 -1 7 106.63 99.74 5.62 o
1 -1 7 4.95 4.14 1.58 o
2 -1 7 72.47 75.31 4.59 o
3 -1 7 5.85 7.62 2.55 o
4 -1 7 4.24 7.85 2.49 o
5 -1 7 0.74 1.68 2.99 o
-3 0 7 150.85 144.36 10.16 o
-2 0 7 198.04 169.00 9.94 o
-1 0 7 502.26 509.84 13.60 o
0 0 7 86.61 84.48 4.68 o
1 0 7 1143.89 1146.65 16.48 o
2 0 7 9.95 4.26 1.52 o
3 0 7 1272.26 1295.20 29.25 o
4 0 7 91.64 68.11 5.65 o
5 0 7 456.99 473.72 16.22 o
6 0 7 109.92 93.56 8.17 o
-3 1 7 147.44 156.89 10.23 o
-2 1 7 594.82 607.54 20.72 o
-1 1 7 1021.30 1096.28 22.20 o
0 1 7 824.16 776.96 14.05 o
1 1 7 1994.56 2088.17 23.94 o
2 1 7 321.03 310.04 8.24 o
3 1 7 1688.23 1752.54 26.57 o
4 1 7 0.54 0.76 2.46 o
5 1 7 1034.67 1124.80 27.05 o
6 1 7 25.41 12.07 3.22 o
-3 2 7 1.11 0.00 2.48 o
-2 2 7 174.82 189.19 10.09 o
-1 2 7 63.20 67.32 4.73 o
0 2 7 107.05 111.87 4.71 o
1 2 7 282.65 287.43 7.58 o
2 2 7 31.97 29.33 2.29 o
3 2 7 234.59 239.26 8.76 o
4 2 7 31.42 28.15 3.75 o
5 2 7 9.02 9.51 2.44 o
6 2 7 8.89 10.96 4.36 o
7 2 7 0.03 1.07 3.46 o
-3 3 7 37.68 28.29 4.17 o
-2 3 7 297.64 271.35 10.24 o
-1 3 7 106.01 93.58 5.77 o
0 3 7 995.44 985.92 19.83 o
1 3 7 35.55 30.36 2.56 o
2 3 7 1767.99 1767.69 21.88 o
3 3 7 44.99 39.32 3.18 o
4 3 7 1318.10 1312.41 19.73 o
5 3 7 269.44 287.73 11.03 o
6 3 7 320.61 332.54 12.08 o
7 3 7 351.82 340.61 14.03 o
-2 4 7 305.37 284.53 11.99 o
-1 4 7 848.03 848.54 18.64 o
0 4 7 1414.29 1498.09 21.83 o
1 4 7 615.15 588.18 13.40 o
2 4 7 3250.94 3370.28 35.04 o
3 4 7 120.90 110.95 4.87 o
4 4 7 3208.75 3283.67 33.61 o
5 4 7 0.04 1.51 1.48 o
6 4 7 1310.29 1370.75 27.67 o
7 4 7 34.79 18.84 3.81 o
-2 5 7 4.20 3.59 2.72 o
-1 5 7 331.16 355.77 12.19 o
0 5 7 138.38 130.73 6.13 o
1 5 7 489.52 478.23 10.54 o
2 5 7 214.50 218.41 6.20 o
3 5 7 149.50 127.70 6.04 o
4 5 7 188.12 179.31 7.40 o
5 5 7 8.36 8.13 2.22 o
6 5 7 159.40 147.45 10.03 o
7 5 7 33.32 29.73 5.24 o
-1 6 7 192.19 181.98 8.84 o
0 6 7 3.32 2.47 1.93 o
1 6 7 583.43 593.24 12.02 o
2 6 7 2.00 2.73 1.53 o
3 6 7 587.34 615.66 13.56 o
4 6 7 116.98 125.94 6.46 o
5 6 7 349.18 356.04 13.00 o
6 6 7 389.70 403.79 15.62 o
7 6 7 149.12 155.21 19.79 o
0 7 7 312.03 308.09 10.81 o
1 7 7 967.06 1015.20 23.10 o
2 7 7 176.57 164.29 8.09 o
3 7 7 1831.04 1937.25 29.28 o
4 7 7 29.20 25.61 3.32 o
5 7 7 1349.81 1401.25 30.27 o
6 7 7 19.08 18.96 4.38 o
1 8 7 51.81 47.83 5.57 o
2 8 7 187.07 191.42 9.71 o
3 8 7 184.33 184.26 9.83 o
4 8 7 90.77 86.49 5.92 o
5 8 7 207.66 194.99 10.65 o
6 8 7 45.33 24.20 5.00 o
1 -2 8 16.99 7.31 2.92 o
2 -2 8 4.58 6.72 2.87 o
-1 -1 8 229.44 230.63 10.42 o
0 -1 8 77.68 65.11 4.92 o
1 -1 8 523.90 531.84 13.96 o
2 -1 8 15.51 15.91 2.47 o
3 -1 8 415.42 412.27 15.09 o
4 -1 8 13.37 3.93 2.95 o
-1 0 8 248.95 273.98 12.43 o
0 0 8 277.34 250.71 9.45 o
1 0 8 488.99 523.12 13.30 o
2 0 8 80.99 80.62 4.95 o
3 0 8 507.04 530.21 16.13 o
4 0 8 6.17 6.31 2.61 o
5 0 8 244.94 265.66 12.65 o
-2 1 8 7.54 6.25 3.01 o
-1 1 8 49.15 50.64 5.47 o
0 1 8 1.13 0.00 1.86 o
1 1 8 110.43 108.79 5.26 o
2 1 8 15.94 13.39 2.13 o
3 1 8 32.67 33.48 3.49 o
4 1 8 10.68 4.32 2.38 o
5 1 8 3.64 0.00 2.86 o
6 1 8 0.47 3.43 3.13 o
-2 2 8 188.51 178.61 11.56 o
-1 2 8 203.73 185.19 10.93 o
0 2 8 652.27 649.93 15.19 o
1 2 8 91.91 78.05 4.23 o
2 2 8 1279.07 1277.31 19.59 o
3 2 8 1.88 3.44 2.21 o
4 2 8 1132.52 1132.04 26.09 o
5 2 8 63.71 51.87 5.64 o
6 2 8 337.51 337.23 14.13 o
-2 3 8 109.56 109.31 9.02 o
-1 3 8 508.52 491.93 16.59 o
0 3 8 733.76 769.40 19.85 o
1 3 8 552.78 548.10 13.92 o
2 3 8 1424.60 1475.62 20.75 o
3 3 8 191.07 169.40 8.23 o
4 3 8 1178.50 1200.70 24.59 o
5 3 8 0.82 3.49 2.12 o
6 3 8 649.16 707.83 20.84 o
-1 4 8 90.00 92.77 7.44 o
0 4 8 31.20 33.03 4.58 o
1 4 8 34.31 28.31 3.81 o
2 4 8 87.31 79.28 4.41 o
3 4 8 0.78 0.02 1.53 o
4 4 8 45.93 47.19 3.44 o
5 4 8 0.55 0.00 1.51 o
6 4 8 0.01 0.00 2.53 o
7 4 8 2.69 4.60 2.42 o
-1 5 8 285.06 274.44 13.37 o
0 5 8 99.56 94.05 6.72 o
1 5 8 724.74 720.83 16.14 o
2 5 8 27.96 21.90 2.61 o
3 5 8 1032.62 1049.90 20.08 o
4 5 8 39.53 49.38 4.31 o
5 5 8 708.16 743.94 16.83 o
6 5 8 204.76 212.01 12.07 o
7 5 8 227.17 253.31 13.35 o
0 6 8 411.47 411.60 14.84 o
1 6 8 718.43 737.45 17.27 o
2 6 8 305.65 298.22 11.53 o
3 6 8 1452.04 1495.40 27.70 o
4 6 8 95.12 91.02 6.45 o
5 6 8 1177.37 1207.82 26.31 o
6 6 8 2.76 4.39 2.37 o
1 7 8 24.72 17.03 4.36 o
2 7 8 109.19 95.31 7.48 o
3 7 8 43.77 40.42 4.18 o
4 7 8 21.90 18.26 3.15 o
5 7 8 47.93 39.67 5.25 o
6 7 8 6.68 8.96 4.95 o
2 8 8 249.53 278.58 13.09 o
3 8 8 0.78 1.33 3.08 o
4 8 8 279.48 305.77 13.24 o
5 8 8 59.34 54.47 6.58 o
1 0 9 56.21 64.54 5.15 o
2 0 9 33.99 26.88 3.22 o
3 0 9 1.48 0.00 2.95 o
0 1 9 320.64 329.30 12.89 o
1 1 9 87.79 82.44 5.39 o
2 1 9 640.65 645.49 14.89 o
3 1 9 20.41 13.05 3.41 o
4 1 9 433.39 444.14 15.78 o
0 2 9 200.42 217.23 11.63 o
1 2 9 202.89 172.60 8.42 o
2 2 9 401.73 411.07 11.18 o
3 2 9 49.65 42.67 4.13 o
4 2 9 391.68 402.74 14.96 o
5 2 9 5.91 4.20 3.01 o
0 3 9 42.61 42.57 5.74 o
1 3 9 7.82 5.04 3.00 o
2 3 9 44.27 24.52 3.22 o
3 3 9 41.37 33.53 4.44 o
4 3 9 3.72 2.23 1.91 o
5 3 9 26.11 18.31 3.26 o
6 3 9 11.94 6.70 2.46 o
0 4 9 189.26 183.01 11.04 o
1 4 9 533.84 536.14 15.73 o
2 4 9 79.84 73.45 5.19 o
3 4 9 853.19 882.83 20.32 o
4 4 9 2.26 5.05 2.10 o
5 4 9 701.35 723.19 20.13 o
6 4 9 49.44 33.67 4.58 o
0 5 9 264.30 254.06 16.59 o
1 5 9 435.51 460.45 13.92 o
2 5 9 303.30 278.64 10.92 o
3 5 9 714.86 745.89 17.74 o
4 5 9 115.33 109.71 6.79 o
5 5 9 505.68 511.40 15.73 o
6 5 9 3.57 3.04 3.37 o
1 6 9 4.95 5.20 2.21 o
2 6 9 0.23 2.47 2.43 o
3 6 9 22.32 12.32 3.46 o
4 6 9 4.35 2.87 2.21 o
5 6 9 7.48 6.35 2.27 o
2 7 9 344.53 356.60 15.60 o
3 7 9 6.42 3.69 2.31 o
4 7 9 483.25 497.14 16.67 o
5 7 9 23.67 18.62 3.70 o
2 3 10 94.23 93.77 7.50 o
3 3 10 477.12 496.83 21.98 o
4 3 10 14.89 5.07 2.70 o
2 4 10 100.92 87.66 7.82 o
3 4 10 266.52 281.34 12.65 o
4 4 10 36.50 23.21 3.59 o
3 5 10 11.91 5.75 3.49 o
4 5 10 61.45 62.19 6.40 o
