#------------------------------------------------------------------------------
#$Date: 2016-03-24 14:47:55 +0200 (Thu, 24 Mar 2016) $
#$Revision: 179674 $
#$URL: svn://www.crystallography.net/cod/cif/4/51/26/4512644.cif $
#------------------------------------------------------------------------------
#
# This file is available in the Crystallography Open Database (COD),
# http://www.crystallography.net/
#
# All data on this site have been placed in the public domain by the
# contributors.
#
data_4512644
loop_
_publ_author_name
'Samarasekere, Pradeep'
'Wang, Xiqu'
'Kaveevivitchai, Watchareeya'
'Jacobson, Allan J.'
_publ_section_title
;
 Reactions of Rare Earth Hydrated Nitrates and Oxides with Formamide:
 Relevant to Recycling Rare Earth Metals
;
_journal_issue                   3
_journal_name_full               'Crystal Growth &amp; Design'
_journal_page_first              1119
_journal_paper_doi               10.1021/cg501421u
_journal_volume                  15
_journal_year                    2015
_chemical_formula_sum            'C5 H9 N2 O8 Sm'
_chemical_formula_weight         375.49
_chemical_name_systematic
;
 ?
;
_space_group_crystal_system      monoclinic
_space_group_IT_number           5
_space_group_name_Hall           'C 2y'
_space_group_name_H-M_alt        'C 1 2 1'
_symmetry_space_group_name_Hall  'C 2y'
_symmetry_space_group_name_H-M   'C 1 2 1'
_atom_sites_solution_hydrogens   geom
_audit_creation_method           SHELXL-2013
_cell_angle_alpha                90
_cell_angle_beta                 109.912(4)
_cell_angle_gamma                90
_cell_formula_units_Z            2
_cell_length_a                   11.430(4)
_cell_length_b                   7.220(3)
_cell_length_c                   6.655(2)
_cell_measurement_temperature    293(2)
_cell_volume                     516.4(3)
_computing_structure_refinement  'SHELXL-2013 (Sheldrick, 2013)'
_diffrn_ambient_temperature      293(2)
_diffrn_measured_fraction_theta_full 1.000
_diffrn_measured_fraction_theta_max 0.935
_diffrn_measurement_device_type  'Bruker ApexII'
_diffrn_measurement_method       'narrow frame'
_diffrn_radiation_type           MoK\a
_diffrn_radiation_wavelength     0.71073
_diffrn_reflns_av_R_equivalents  0.0747
_diffrn_reflns_av_unetI/netI     0.0522
_diffrn_reflns_Laue_measured_fraction_full 1.000
_diffrn_reflns_Laue_measured_fraction_max 0.935
_diffrn_reflns_limit_h_max       15
_diffrn_reflns_limit_h_min       -10
_diffrn_reflns_limit_k_max       9
_diffrn_reflns_limit_k_min       -7
_diffrn_reflns_limit_l_max       8
_diffrn_reflns_limit_l_min       -9
_diffrn_reflns_number            1699
_diffrn_reflns_point_group_measured_fraction_full 0.915
_diffrn_reflns_point_group_measured_fraction_max 0.821
_diffrn_reflns_theta_full        25.242
_diffrn_reflns_theta_max         29.276
_diffrn_reflns_theta_min         3.256
_diffrn_source                   'fine-focus sealed tube'
_exptl_absorpt_coefficient_mu    5.718
_exptl_absorpt_correction_T_max  0.7254
_exptl_absorpt_correction_T_min  0.3943
_exptl_absorpt_correction_type   psi-scan
_exptl_absorpt_process_details   'Bruker XPREP 2008/2'
_exptl_crystal_colour            'Pale Yellow'
_exptl_crystal_density_diffrn    2.415
_exptl_crystal_density_method    'not measured'
_exptl_crystal_description       Rhomboid
_exptl_crystal_F_000             358
_exptl_crystal_size_max          0.200
_exptl_crystal_size_mid          0.200
_exptl_crystal_size_min          0.060
_refine_diff_density_max         1.805
_refine_diff_density_min         -2.047
_refine_diff_density_rms         0.248
_refine_ls_abs_structure_details
;
 Flack x determined using 439 quotients [(I+)-(I-)]/[(I+)+(I-)]
 (Parsons and Flack (2004), Acta Cryst. A60, s61).
;
_refine_ls_abs_structure_Flack   0.11(6)
_refine_ls_extinction_coef       0.038(5)
_refine_ls_extinction_expression Fc^*^=kFc[1+0.001xFc^2^\l^3^/sin(2\q)]^-1/4^
_refine_ls_extinction_method     SHELXL
_refine_ls_goodness_of_fit_ref   1.167
_refine_ls_hydrogen_treatment    constr
_refine_ls_matrix_type           full
_refine_ls_number_parameters     74
_refine_ls_number_reflns         1150
_refine_ls_number_restraints     18
_refine_ls_restrained_S_all      1.159
_refine_ls_R_factor_all          0.0351
_refine_ls_R_factor_gt           0.0332
_refine_ls_shift/su_max          0.000
_refine_ls_shift/su_mean         0.000
_refine_ls_structure_factor_coef Fsqd
_refine_ls_weighting_details
'w=1/[\s^2^(Fo^2^)+(0.0485P)^2^+4.8782P] where P=(Fo^2^+2Fc^2^)/3'
_refine_ls_weighting_scheme      calc
_refine_ls_wR_factor_gt          0.0886
_refine_ls_wR_factor_ref         0.0889
_reflns_Friedel_coverage         0.634
_reflns_Friedel_fraction_full    0.814
_reflns_Friedel_fraction_max     0.688
_reflns_number_gt                1143
_reflns_number_total             1150
_reflns_threshold_expression     'I > 2\s(I)'
_cod_data_source_file            cg501421u_si_001.cif
_cod_data_source_block           2Sm
_cod_depositor_comments
'Adding full bibliography for 4512639--4512651.cif.'
_cod_database_code               4512644
#BEGIN Tags that were not found in dictionaries:
_shelx_space_group_comment
;
The symmetry employed for this shelxl refinement is uniquely defined
by the following loop, which should always be used as a source of
symmetry information in preference to the above space-group names.
They are only intended as comments.
;
_shelx_estimated_absorpt_t_min   0.394
_shelx_estimated_absorpt_t_max   0.725
_shelxl_version_number           2013-4
_shelx_res_file
;
TITL Sam_SmFMD_0m in C2          New: C2
CELL  0.71073   11.4300    7.2200    6.6550    90.000   109.912    90.000
ZERR 2           0.0040    0.0030    0.0020     0.000     0.004     0.000
LATT -7
SYMM             - X ,              Y ,            - Z
SFAC C  H  N  O  Sm
UNIT 10  18  4  16  2
L.S. 12
ACTA
BOND $H
FMAP 2
PLAN 20
SIZE .2 .2 .06
SADI C1 N1 C1 N1B
DELU
WGHT    0.048500    4.878200
EXTI    0.038237
FVAR       0.76473
SM1   5    0.000000    0.418552    0.000000    10.50000    0.01572    0.01522 =
         0.01715    0.00000    0.00938    0.00000
O3    4   -0.008430    0.271701   -0.337294    11.00000    0.03831    0.02801 =
         0.01464   -0.00142    0.01206   -0.00606
O4    4   -0.172611    0.215461   -0.115996    11.00000    0.03951    0.05492 =
         0.03757   -0.00980    0.02594   -0.02761
O7    4    0.153919    0.579587   -0.117440    11.00000    0.03517    0.07011 =
         0.03488   -0.01190    0.01543   -0.03315
O1    4    0.110083    0.641035    0.269530    11.00000    0.05347    0.03317 =
         0.04501   -0.01679    0.02527   -0.01391
C1    1    0.091570    0.804586    0.300684    11.00000    0.05992    0.02794 =
         0.04197   -0.00480    0.01814   -0.00745
AFIX  43
H1    2    0.037938    0.867049    0.183082    11.00000   -1.20000
PART 1
AFIX   0
N1    3    0.135359    0.902094    0.471750    10.50000    0.04373
AFIX  93
H1A   2    0.185535    0.852843    0.586418    10.50000   -1.20000
H1B   2    0.114464    1.016547    0.471471    10.50000   -1.20000
PART 2
AFIX   0
N1B   3    0.166947    0.904848    0.449237    10.50000    0.04173
AFIX  93
H1B2  2    0.235018    0.857841    0.533948    10.50000   -1.20000
H1B3  2    0.149136    1.018709    0.463580    10.50000   -1.20000
PART 0
AFIX   0
C3    1    0.000000    0.345839   -0.500000    10.50000    0.04235    0.02148 =
         0.02509    0.00000    0.02041    0.00000
AFIX  43
H3    2    0.000000    0.474648   -0.500001    10.50000   -1.20000
AFIX   0
C4    1   -0.237492    0.122540   -0.038174    11.00000    0.03085    0.04662 =
         0.03348   -0.00026    0.01711   -0.01632
AFIX  43
H5    2   -0.197465    0.079765    0.100118    11.00000   -1.20000
AFIX   0
HKLF 4

REM  Sam_SmFMD_0m in C2          New: C2
REM R1 =  0.0332 for    1143 Fo > 4sig(Fo)  and  0.0351 for all    1150 data
REM     74 parameters refined using     18 restraints

END

WGHT      0.0485      4.8783

REM Highest difference peak  1.805,  deepest hole -2.047,  1-sigma level  0.248
Q1    1   0.0000  0.5441  0.0000  10.50000  0.05    1.80
Q2    1   0.0000  0.2937  0.0000  10.50000  0.05    1.67
Q3    1   0.0442  0.4193 -0.0807  11.00000  0.05    1.19
Q4    1   0.0631  0.4182  0.0545  11.00000  0.05    0.88
Q5    1   0.0373  0.5510  0.1372  11.00000  0.05    0.79
Q6    1   0.0317  0.9261  0.3018  11.00000  0.05    0.77
Q7    1   0.0086  0.4162 -0.2536  11.00000  0.05    0.71
Q8    1   0.0266  0.6786  0.2219  11.00000  0.05    0.69
Q9    1  -0.0676  0.0848 -0.0059  11.00000  0.05    0.65
Q10   1   0.0283  0.4194 -0.4411  11.00000  0.05    0.65
Q11   1   0.0360  0.2845  0.1336  11.00000  0.05    0.65
Q12   1   0.0459  0.7173  0.1790  11.00000  0.05    0.65
Q13   1  -0.0178  0.1611 -0.0482  11.00000  0.05    0.63
Q14   1   0.0242  0.4147 -0.6024  11.00000  0.05    0.60
Q15   1   0.1369  0.5035  0.2449  11.00000  0.05    0.59
Q16   1  -0.1769 -0.0824  0.2102  11.00000  0.05    0.59
Q17   1  -0.0217  0.0969 -0.3338  11.00000  0.05    0.57
Q18   1  -0.0431  0.1138 -0.1681  11.00000  0.05    0.56
Q19   1   0.0193  0.6726  0.0522  11.00000  0.05    0.56
Q20   1  -0.1441  0.2787 -0.0785  11.00000  0.05    0.55
;
_shelx_res_checksum              5110
_shelx_hkl_file
;
   0   0  -1 3720.96   24.88
   0   0   1 7132.33   64.85
   0   0  -2 5824.89   41.21
   0   0   2 5101.80   36.31
   0   0   2 6170.67   52.80
   0   0  -3 5354.96   43.51
   0   0   3 4195.37   35.70
   0   0   3 5161.43   54.16
   0   0  -4 3189.87   34.67
   0   0   4 2365.24   27.92
   0   0   4 2788.78   43.06
   0   0   5  720.71   24.84
   0   0   6 1757.58   41.74
   0   0   7 1097.29   36.68
   0   0   8  800.49   34.05
   0   2   0 2138.81   23.32
   0  -2  -1 1786.29   20.73
   0  -2   1 2166.53   28.05
   0   2  -1 2487.83   27.39
   0  -2  -2 7086.55   52.80
   0  -2   2 8389.51   66.91
   0  -2   2 7278.65   61.56
   0   2  -2 5922.73   50.42
   0  -2  -3 3008.55   31.71
   0  -2   3 2955.09   35.82
   0  -2   3 2850.22   39.69
   0   2  -3 2612.81   32.49
   0   2   3 2387.98   30.93
   0  -2  -4 4117.93   41.62
   0  -2   4 3840.30   44.13
   0  -2   4 3648.17   51.45
   0   2  -4 3786.22   43.59
   0   2   4 3245.68   38.41
   0   2   4 2875.80   43.96
   0  -2   5 2311.57   44.66
   0   2  -5 2844.26   39.85
   0   2   5 2194.12   42.73
   0  -2   6 1731.76   42.32
   0   2   6 1510.30   38.74
   0  -2   7  791.40   31.42
   0   2   7  733.25   29.82
   0  -2   8  542.23   28.42
   0   2   8  499.66   27.31
   0   4   0 3549.96   42.56
   0   4  -1 3675.14   44.46
   0   4   1 3794.08   43.88
   0   4  -2 3573.94   45.11
   0   4   2 4076.73   46.10
   0  -4  -3 1848.68   30.14
   0  -4   3 1872.53   36.40
   0  -4   3 1465.72   29.40
   0   4  -3 1664.03   31.01
   0  -4  -4 3328.91   43.84
   0  -4   4 3478.20   51.73
   0  -4   4 2756.46   45.77
   0   4  -4 2871.32   43.72
   0   4   4 2776.20   44.09
   0  -4   5 1610.44   38.20
   0   4  -5 1861.59   36.48
   0   4   5 1263.06   33.72
   0  -4   6  654.91   26.94
   0   4   6  569.08   24.63
   0  -4   7  783.79   31.75
   0   4   7  607.49   28.05
   0   6   0 2882.30   46.59
   0   6  -1 2130.83   39.97
   0   6   1 2403.73   41.91
   0   6  -2 1936.23   38.86
   0   6   2 2394.85   42.03
   0   6  -3 1690.59   37.34
   0   6   3 2399.79   42.56
   0   6  -4  762.70   25.87
   0   6  -5  922.01   29.61
   0   6  -6  870.40   30.06
   0   6   6  433.45   23.44
   0   8   0 1209.15   35.28
   0   8  -1  947.26   31.50
   0   8   1 1017.18   32.28
   0   8  -2  714.54   28.09
   0   8   2  950.55   31.42
   0   8  -3 1027.42   34.05
   0   8  -4  690.36   28.70
  -1  -1   8  889.44   35.61
  -1   1   8  899.52   35.53
  -1  -1   7  749.66   30.10
  -1   1   7  896.93   32.49
  -1  -1   6 2148.23   46.31
  -1   1   6 1995.16   44.13
  -1  -1   5 1722.05   37.55
  -1   1   5 1771.07   38.37
   1  -1  -5 2142.10   31.62
   1   1  -5 2087.32   32.61
  -1  -1   4 2793.51   29.69
  -1  -1   4 2705.55   42.89
  -1   1   4 2403.08   26.20
  -1   1   4 2665.04   41.04
   1  -1  -4 3164.09   36.03
   1   1  -4 3075.92   37.14
  -1  -1   3 5712.17   43.72
  -1  -1   3 5525.83   57.29
  -1   1   3 3922.18   33.11
  -1   1   3 4368.83   47.50
   1  -1  -3 5977.63   49.27
   1   1  -3 4632.15   43.59
  -1  -1   2 9546.79   71.23
  -1  -1   2 8897.11   68.55
  -1   1   2 6825.29   54.16
   1  -1  -2 8510.37   58.68
   1   1  -2 5909.73   46.68
  -1  -1   1 3519.45   30.64
   1  -1  -1 4989.24   48.73
   1   1  -1 4121.30   32.82
   1  -1   0 4914.85   52.68
   1  -1   0 9118.56   95.70
   1   1   0 3653.68   30.68
  -1  -1  -1 6049.23   44.74
   1  -1   1 7812.69   55.23
   1  -1   1 6912.56   57.99
   1   1   1 6810.57   49.43
  -1  -1  -2 5195.23   35.20
  -1   1  -2 4579.47   36.72
   1  -1   2 4615.17   41.00
   1  -1   2 5209.87   48.24
   1   1   2 4505.24   39.81
  -1  -1  -3 5971.58   43.59
  -1   1  -3 5509.18   45.73
   1  -1   3 4890.05   46.14
   1  -1   3 5482.36   57.53
   1   1   3 4822.81   44.87
  -1  -1  -4 2817.69   29.40
  -1   1  -4 2868.32   33.11
   1  -1   4 2155.42   30.93
   1  -1   4 2254.53   39.23
   1   1   4 2127.87   29.94
   1   1   4 2108.99   37.30
   1  -1   5 2045.42   41.70
   1   1   5 1833.29   39.19
   1  -1   6 1435.83   38.57
   1   1   6 1270.87   36.72
   1  -1   7  852.31   32.61
   1   1   7  867.03   32.49
   1  -1   8  709.36   34.83
  -1  -3   8  630.73   30.88
  -1   3   8  617.20   29.86
  -1  -3   7  983.95   34.87
  -1   3   7  904.91   32.86
  -1  -3   6 1366.57   37.92
  -1   3   6 1237.07   34.91
   1   3  -6 1658.43   34.59
  -1  -3   5 2168.21   43.63
  -1   3   5 2199.43   43.47
   1   3  -5 2459.01   40.01
  -1  -3   4 4387.87   51.28
  -1  -3   4 3728.24   53.22
  -1   3   4 3415.24   42.81
  -1   3   4 3212.08   46.14
   1  -3  -4 4341.49   48.07
   1   3  -4 3741.11   47.66
  -1  -3   3 2765.18   40.22
   1  -3  -3 3338.70   39.11
   1   3  -3 3054.24   39.97
   1  -3  -2 4963.62   47.79
   1   3  -2 4849.50   49.56
   1  -3  -1 4078.74   41.37
   1   3  -1 3979.42   41.70
  -1   3   0 1435.66   22.58
   1   3   0 1427.93   22.04
  -1   3  -1 4923.60   47.42
   1  -3   1 5539.36   58.36
   1   3   1 4859.41   44.37
  -1   3  -2 3372.84   39.15
   1  -3   2 3865.76   48.20
   1  -3   2 3222.53   37.88
   1   3   2 3800.41   38.08
  -1  -3  -3 2923.30   33.27
  -1   3  -3 2574.36   35.24
   1  -3   3 2934.24   42.48
   1  -3   3 2621.57   38.86
   1   3   3 2431.33   36.97
  -1   3  -4 2455.47   36.48
   1  -3   4 2794.95   43.06
   1  -3   4 2469.78   42.36
   1   3   4 2298.50   37.09
  -1   3  -5 2378.36   38.00
   1  -3   5 1993.31   42.07
   1   3   5 1874.01   34.46
   1   3   5 1405.56   34.87
   1  -3   6  753.94   28.58
   1   3   6  635.99   26.81
   1  -3   7  750.07   31.01
   1   3   7  618.23   28.13
  -1  -5   7  679.30   30.10
  -1   5   7  529.69   26.48
  -1  -5   6  534.50   24.80
  -1   5   6  471.95   22.70
   1   5  -6  679.46   25.21
   1   5  -5  851.90   26.69
   1  -5  -4 1868.91   35.45
   1   5  -4 1689.15   35.94
  -1   5   3 2611.62   41.29
   1   5  -3 1995.86   37.75
  -1   5   2 2077.20   35.82
   1   5  -2 1781.81   34.17
  -1   5   1 4035.11   51.16
   1   5  -1 3635.75   48.86
  -1   5   0 3468.49   46.96
   1   5   0 3445.05   46.51
  -1   5  -1 2589.54   40.51
   1   5   1 2820.86   41.04
  -1   5  -2 1527.86   31.30
   1   5   2 1815.49   32.37
  -1   5  -3 2593.65   42.89
   1  -5   3 2785.99   50.67
   1   5   3 3331.30   45.52
   1   5   3 2558.16   47.99
  -1   5  -4 1166.99   29.32
   1  -5   4 1323.14   35.12
   1  -5   4  921.23   26.44
   1   5   4 1171.56   31.71
  -1   5  -5 1100.99   29.77
   1  -5   5  909.68   29.08
   1   5   5 1048.27   30.51
   1  -5   6  816.28   30.27
   1   5   6  528.94   25.37
   1  -5   7  803.29   33.43
   1   7  -6  944.55   33.56
   1   7  -5  884.67   31.34
   1   7  -4  724.04   27.39
  -1   7   3 1829.26   40.80
   1   7  -3 1345.60   36.27
  -1   7   2 1529.05   36.72
   1   7  -2 1230.61   33.72
  -1   7   1 1393.14   34.71
   1   7  -1 1245.42   33.15
  -1   7   0 1497.14   36.11
   1   7   0 1465.15   35.70
  -1   7  -1 1931.42   41.54
   1   7   1 2184.09   43.55
  -1   7  -2 1219.59   33.39
   1   7   2 1601.64   37.18
  -1   7  -3 1334.62   35.82
  -1   7  -4  623.41   25.25
   1   7   4  580.15   27.02
  -1   7  -5  772.53   29.03
  -1   9   3  694.92   29.61
  -1   9   2  865.71   32.65
   1   9  -2  749.62   30.84
  -1   9   1  976.09   34.34
   1   9  -1  938.13   34.09
  -1   9   0  642.33   28.01
   1   9   0  668.77   28.70
  -1   9  -1  773.14   30.88
   1   9   1  912.56   33.27
  -1   9  -2  504.80   25.70
   1   9   2  703.48   30.23
  -2   0   8  798.64   33.31
  -2   0   7  966.55   33.60
  -2   0   6 1979.90   43.80
   2   0  -6 2472.33   38.90
  -2   0   5 3178.52   51.32
   2   0  -5 3505.38   43.72
  -2   0   4 4974.02   59.63
   2   0  -4 5341.64   52.02
  -2   0   3 5772.42   56.88
   2   0  -3 5689.34   49.84
  -2   0   2  926.62   16.78
   2   0  -2 1027.42   16.00
  -2   0   1 5156.16   36.81
   2   0  -1 5126.39   41.21
   2   0   0 5645.51   47.79
   2   0   0 5714.14   53.91
   2   0   1   95.24    5.06
  -2   0  -2 4316.07   28.54
   2   0   2 3436.04   35.12
  -2   0  -3 6967.21   47.09
   2   0   3 5425.86   51.08
   2   0   3 6209.32   63.62
   2   0   4 2146.79   32.20
   2   0   4 2335.01   40.26
   2   0   5 1104.16   24.67
   2   0   5 1174.19   31.87
   2   0   6 1993.56   45.81
   2   0   7  585.45   27.55
  -2  -2   8  715.12   32.16
  -2   2   8  733.66   31.95
  -2  -2   7 1260.96   38.86
  -2   2   7 1405.43   40.26
  -2  -2   6 1551.22   39.93
  -2   2   6 1686.44   40.55
   2   2  -6 1924.47   36.27
  -2  -2   5 1802.86   39.03
  -2   2   5 2157.56   41.86
   2  -2  -5 2265.39   34.91
   2   2  -5 2296.73   37.26
  -2  -2   4 2143.21   38.41
  -2   2   4 2089.83   36.07
   2  -2  -4 2530.03   34.50
   2   2  -4 2317.13   34.67
  -2  -2   3 5446.01   58.23
  -2   2   3 4852.17   49.97
   2  -2  -3 5909.44   53.59
   2   2  -3 4756.84   48.90
  -2  -2   2 5209.13   50.13
   2  -2  -2 5582.09   48.73
   2   2  -2 4619.69   44.99
   2  -2  -1 5411.92   45.57
   2  -2  -1 7113.98   59.63
   2   2  -1 4223.09   39.36
   2  -2   0 5986.59   47.79
   2  -2   0 9445.42   73.28
   2   2   0 5210.00   41.49
  -2   2  -1 7280.00   55.31
   2  -2   1 9999.00   78.34
   2  -2   1 8219.62   57.66
   2   2   1 7291.77   50.25
   2   2   1 8933.54   70.86
  -2   2  -2 5472.08   46.96
   2  -2   2 5758.35   56.26
   2  -2   2 6058.52   54.74
   2   2   2 6186.67   43.47
   2   2   2 5530.81   53.79
  -2  -2  -3 2419.53   23.32
  -2   2  -3 2182.57   28.29
   2  -2   3 2142.26   33.52
   2  -2   3 2224.14   35.08
   2   2   3 1907.15   30.56
  -2   2  -4 3185.51   37.75
   2  -2   4 2869.14   41.86
   2  -2   4 2874.82   45.73
   2   2   4 2544.87   37.92
   2  -2   5 1603.65   37.46
   2   2   5 1467.98   30.06
   2   2   5 1184.35   31.99
   2  -2   6 1324.21   37.59
   2   2   6 1005.83   32.74
   2  -2   7  670.33   29.61
   2   2   7  587.59   27.80
  -2   4   8  542.76   30.06
  -2  -4   7  811.14   32.08
  -2   4   7  726.14   29.73
  -2  -4   6  691.84   27.55
  -2   4   6  633.89   25.58
   2   4  -6  895.69   27.39
  -2  -4   5 1910.28   41.78
  -2   4   5 2012.19   40.84
   2  -4  -5 2489.19   40.88
   2   4  -5 2240.68   41.37
  -2  -4   4 1742.45   36.40
   2  -4  -4 2253.30   37.05
   2   4  -4 2009.39   37.09
   2  -4  -3 2518.31   37.71
   2   4  -3 2729.52   41.45
   2  -4  -2 3591.04   44.62
   2   4  -2 3587.55   46.72
  -2   4   1 5197.29   54.74
   2   4  -1 4593.33   51.16
  -2   4   0 2455.35   35.45
   2   4   0 2303.27   33.23
  -2   4  -1 3148.30   41.25
   2  -4   1 3196.04   48.86
   2   4   1 3213.03   39.07
  -2   4  -2 2187.42   34.34
   2  -4   2 2390.78   42.52
   2   4   2 2535.33   33.76
   2   4   2 1976.08   37.38
  -2   4  -3 1382.16   27.92
   2  -4   3 1435.45   33.48
   2  -4   3 1207.34   26.28
   2   4   3 1260.43   30.19
  -2   4  -4 1976.45   35.16
   2  -4   4 2158.39   42.69
   2  -4   4 1799.98   36.48
   2   4   4 1925.33   38.53
   2  -4   5 1046.13   30.93
   2   4   5 1118.59   30.14
   2  -4   6  782.64   29.49
   2   4   6  511.14   24.47
   2  -4   7  739.79   31.21
   2   4   7  430.41   27.43
   2   6  -7  745.88   29.69
   2   6  -6  954.30   32.08
   2   6  -5 1083.96   32.53
  -2   6   4 1332.60   33.06
   2   6  -4  926.58   28.95
  -2   6   3 2952.87   48.98
   2   6  -3 2212.05   44.00
  -2   6   2 1564.18   34.38
   2   6  -2 1352.75   32.61
  -2   6   1 1763.26   36.27
   2   6  -1 1583.46   34.71
  -2   6   0 1929.03   37.92
   2   6   0 2003.26   38.29
  -2   6  -1 2197.95   40.96
   2   6   1 2461.80   42.23
  -2   6  -2 1748.08   36.97
   2   6   2 2181.83   39.40
  -2   6  -3 1616.32   36.40
   2   6   3 1584.37   41.37
  -2   6  -4 1089.10   30.84
   2   6   4 1053.04   33.60
   2   6   5  797.57   29.77
  -2   8   4  840.18   30.76
   2   8  -4  680.08   28.87
  -2   8   3 1254.67   36.85
   2   8  -3  997.19   33.68
  -2   8   2  942.82   31.62
   2   8  -2  811.14   29.86
  -2   8   1 1477.32   39.32
   2   8  -1 1442.98   39.11
  -2   8   0 1350.70   37.55
   2   8   0 1378.21   37.79
  -2   8  -1 1020.96   32.86
   2   8   1 1158.07   34.50
  -2   8  -2  912.68   31.42
  -2   8  -3  902.15   31.91
   2   8   3  864.65   35.16
  -2   8  -4  566.82   26.24
  -3  -1   8  796.21   33.31
  -3   1   8  804.36   33.15
  -3  -1   7  911.57   33.27
  -3   1   7 1003.03   33.85
  -3  -1   6 2801.53   53.05
  -3   1   6 2863.22   53.09
   3  -1  -6 3405.86   47.87
   3   1  -6 3255.59   47.79
  -3  -1   5 2569.26   46.43
  -3   1   5 2925.81   48.03
   3  -1  -5 2998.36   41.54
   3   1  -5 3242.39   44.37
  -3  -1   4 4511.99   57.16
  -3   1   4 4841.60   56.83
   3  -1  -4 4896.67   51.32
   3   1  -4 4989.69   53.01
  -3  -1   3 5371.95   56.01
  -3   1   3 4944.00   50.46
   3  -1  -3 5843.97   53.34
   3   1  -3 4960.21   49.19
  -3  -1   2 6454.43   55.27
  -3   1   2 8002.60   59.26
   3  -1  -2 7109.09   56.63
   3  -1  -2 8392.34   65.10
   3   1  -2 5993.46   50.95
   3   1  -2 5519.71   37.51
  -3   1   1 2917.59   21.43
   3  -1  -1 2589.58   27.02
   3   1  -1 3038.49   29.57
   3   1  -1 3003.13   27.51
   3  -1   0 6784.41   63.25
   3  -1   0 8422.74   76.45
   3   1   0 6616.38   50.05
   3   1   0 7169.67   54.61
  -3   1  -1 2484.13   23.19
   3  -1   1 2133.18   28.09
   3  -1   1   68.72    4.32
   3   1   1 1963.58   26.90
  -3   1  -2 4884.08   37.63
   3  -1   2 4628.62   47.87
   3  -1   2 4468.89   45.32
   3   1   2 4518.65   46.59
  -3   1  -3 3470.51   31.79
   3  -1   3 3008.47   40.06
   3  -1   3 3468.41   45.77
   3   1   3 2875.60   38.45
   3  -1   4 2628.40   39.97
   3  -1   4 2850.39   47.09
   3   1   4 2370.79   37.18
   3   1   4 2280.57   40.80
   3  -1   5 1452.56   31.42
   3  -1   5 1455.81   35.90
   3   1   5 1363.45   29.86
   3   1   5 1199.40   33.11
   3  -1   6 1212.89   36.35
   3   1   6 1063.89   34.09
   3  -1   7  614.07   28.75
   3   1   7  510.23   26.48
  -3  -3   8  818.71   34.42
  -3   3   8  826.11   33.68
  -3  -3   7 1158.36   37.88
  -3   3   7 1228.56   37.38
   3   3  -7 1523.46   36.60
  -3  -3   6  874.35   30.43
  -3   3   6  848.20   28.91
   3  -3  -6 1140.14   28.21
   3   3  -6 1026.27   28.29
  -3  -3   5  919.18   28.42
  -3   3   5 1108.93   29.36
   3  -3  -5 1222.59   27.47
   3   3  -5 1201.04   28.75
  -3  -3   4 1881.08   37.01
  -3   3   4 2067.66   35.24
   3  -3  -4 2314.70   36.23
   3   3  -4 2272.88   37.59
  -3   3   3  130.12    7.94
   3  -3  -3 1320.96   25.25
   3   3  -3 1382.82   27.39
   3  -3  -2 5645.47   55.39
   3   3  -2 4569.85   49.68
   3  -3  -1 4597.28   47.50
   3  -3  -1 6174.08   63.21
   3   3  -1 4357.98   45.44
  -3   3   0 6057.45   55.27
   3  -3   0 7416.62   72.46
   3   3   0 5031.10   46.96
  -3   3  -1 5016.13   49.14
   3  -3   1 5054.42   57.94
   3  -3   1 4160.95   36.44
   3   3   1 4681.13   42.61
   3   3   1 4771.57   55.19
  -3   3  -2 3652.20   41.25
   3  -3   2 3758.17   50.58
   3  -3   2 3585.57   40.30
   3   3   2 3906.59   36.35
   3   3   2 3347.17   46.02
  -3   3  -3 1109.17   22.25
   3  -3   3 1035.27   26.73
   3  -3   3  944.51   23.19
   3   3   3  908.94   24.14
   3  -3   4 1839.71   37.67
   3  -3   4 1672.91   34.91
   3   3   4 1639.02   34.09
   3  -3   5 1214.57   35.90
   3  -3   5 1162.18   32.57
   3   3   5 1164.94   30.06
   3  -3   6  788.36   29.69
   3   3   6  517.92   24.72
   3  -3   7  837.22   33.39
   3   3   7  558.35   29.57
  -3   5   7  630.93   28.05
   3   5  -7  925.43   31.58
  -3   5   6  648.86   26.11
   3   5  -6 1109.38   32.86
  -3   5   5 1152.68   30.76
   3  -5  -5 2302.24   43.18
   3   5  -5 2112.70   43.39
  -3   5   4  769.32   22.33
   3  -5  -4 3001.48   47.87
   3   5  -4 2627.41   46.51
   3  -5  -3 1660.04   33.72
   3   5  -3 1905.02   38.37
   3  -5  -2 2366.80   39.89
   3   5  -2 2352.08   40.71
  -3   5   1 3006.33   44.66
   3   5  -1 2537.59   40.67
  -3   5   0 2000.92   35.94
   3   5   0 1950.54   34.26
  -3   5  -1 1538.23   31.21
   3  -5   1 1532.22   37.18
   3   5   1 1668.26   30.84
  -3   5  -2 2655.83   42.44
   3  -5   2 2811.11   51.98
   3   5   2 3072.01   42.19
   3   5   2 2693.50   49.47
  -3   5  -3 2139.59   38.78
   3  -5   3 2052.45   45.15
   3   5   3 1984.88   43.35
  -3   5  -4 1139.03   28.95
   3  -5   4 1282.35   36.64
   3   5   4 1002.54   31.05
   3   5   5  951.34   31.09
   3   5   6  213.52   17.31
   3   7  -6  710.67   29.77
   3   7  -5  591.82   26.24
  -3   7   4  968.73   31.05
   3   7  -4  698.05   27.27
  -3   7   3 2065.03   44.54
   3   7  -3 1562.90   39.64
  -3   7   2 1318.46   34.79
   3   7  -2 1119.62   32.65
  -3   7   1 1149.89   32.08
   3   7  -1 1128.01   31.99
  -3   7   0 2018.31   42.85
   3   7   0 2081.44   43.06
  -3   7  -1 1495.17   36.93
   3   7   1 1657.65   37.83
  -3   7  -2  906.59   29.08
   3   7   2  805.84   31.62
  -3   7  -3 1107.69   32.69
   3   7   3 1070.64   36.77
  -3   7  -4  746.29   27.76
   3   7   4  697.14   30.39
   3   7   5  587.18   28.50
  -3   9   3  687.73   29.94
  -3   9   2  926.66   34.17
   3   9  -2  858.31   33.43
  -3   9   1  888.17   33.23
   3   9  -1  833.10   32.45
  -3   9   0  663.30   29.08
   3   9   0  751.51   30.60
  -3   9  -1  674.90   29.20
  -4   0   8  786.26   32.69
  -4   0   7  797.86   30.43
   4   0  -7  953.19   27.18
  -4   0   6 3114.04   55.89
   4   0  -6 3438.02   49.80
  -4   0   5 3468.00   53.26
   4   0  -5 3733.50   48.81
  -4   0   4 4318.33   54.00
   4   0  -4 4666.90   51.73
  -4   0   3 4895.72   51.28
   4   0  -3 4940.75   49.60
  -4   0   2 5243.10   45.94
   4   0  -2 5283.28   47.95
   4   0  -2 5460.61   39.32
   4   0  -1 5534.88   45.11
   4   0  -1 5443.34   43.30
   4   0   0 3508.96   29.28
   4   0   0 3083.85   32.94
   4   0   1 2446.83   19.45
   4   0   1 2393.45   31.30
   4   0   2 4688.74   50.30
   4   0   3 4216.18   50.67
   4   0   3 4431.71   54.45
   4   0   4 1545.83   31.58
   4   0   4 1504.05   33.48
   4   0   5 1802.08   36.64
   4   0   5 1875.41   43.02
   4   0   6 1318.62   38.37
   4   0   7  398.37   23.98
  -4  -2   8 1031.41   38.04
  -4   2   8 1061.88   37.67
  -4  -2   7 1243.65   38.70
  -4   2   7 1308.13   38.53
   4   2  -7 1478.31   35.49
  -4  -2   6 1423.86   37.92
  -4   2   6 1431.63   36.27
   4  -2  -6 1769.14   35.37
   4   2  -6 1567.71   34.34
  -4  -2   5 1318.54   33.43
  -4   2   5 1470.45   33.31
   4  -2  -5 1546.61   30.88
   4   2  -5 1593.00   32.45
  -4  -2   4 2950.53   46.02
  -4   2   4 3402.12   45.85
   4  -2  -4 3618.10   45.85
   4   2  -4 3615.39   47.21
  -4   2   3 3576.07   40.47
   4  -2  -3 3752.83   43.96
   4   2  -3 3775.90   45.15
   4   2  -3 3588.37   33.31
  -4   2   2 4568.66   38.29
   4  -2  -2 4098.27   43.63
   4  -2  -2 4464.65   45.85
   4   2  -2 4087.09   44.04
   4   2  -2 4389.56   40.88
   4  -2  -1 4651.85   44.87
   4  -2  -1 5660.15   54.45
   4   2  -1 4667.27   44.17
   4   2  -1 5072.31   47.99
   4  -2   0 4873.84   44.46
   4  -2   0 5956.53   58.52
   4   2   0 4990.84   42.15
   4   2   0 5303.43   52.48
  -4   2  -1 4608.30   42.19
   4  -2   1 4239.09   49.14
   4  -2   1 3863.29   35.28
   4   2   1 4614.35   35.49
   4   2   1 3826.56   45.24
  -4   2  -2 1693.55   23.32
   4  -2   2 1611.92   30.51
   4  -2   2 1478.02   24.84
   4   2   2 1351.89   27.14
  -4   2  -3 1860.07   25.79
   4  -2   3 1734.18   33.80
   4  -2   3 1824.54   32.65
   4   2   3 1520.50   30.84
   4  -2   4 1505.61   33.43
   4  -2   4 1385.24   32.45
   4   2   4 1450.96   31.83
   4  -2   5 1163.50   31.09
   4  -2   5 1144.50   33.02
   4   2   5 1114.85   29.65
   4   2   5  638.91   25.13
   4  -2   6  718.45   28.75
   4   2   6  471.66   23.89
   4  -2   7  699.16   31.13
  -4   4   8  668.52   30.43
  -4  -4   7  934.85   34.71
  -4   4   7 1028.12   34.13
   4   4  -7 1204.54   34.79
  -4  -4   6 1276.92   37.38
  -4   4   6 1329.93   35.41
   4  -4  -6 1639.10   36.60
   4   4  -6 1642.27   38.57
  -4   4   5 1646.59   35.53
   4  -4  -5 2161.84   40.22
   4   4  -5 2027.28   40.71
  -4   4   4 1217.08   26.90
   4  -4  -4 1910.69   35.98
   4   4  -4 1850.94   36.85
  -4   4   3  126.91    8.06
   4  -4  -3 1677.97   32.20
   4   4  -3 1766.38   34.17
   4  -4  -2 3427.94   45.77
   4   4  -2 3025.33   43.39
   4  -4  -1 3034.46   41.86
   4  -4  -1 4058.42   56.01
   4   4  -1 3285.03   43.30
  -4   4   0 2374.70   36.07
   4  -4   0 2000.47   38.78
   4   4   0 2162.62   32.74
   4   4   0 2069.43   38.90
  -4   4  -1 4513.10   51.98
   4  -4   1 4279.55   59.88
   4   4   1 4213.01   45.81
   4   4   1 4005.95   57.04
  -4   4  -2 2592.70   38.29
   4  -4   2 2638.14   47.25
   4   4   2 2279.54   42.36
  -4   4  -3 2273.57   36.56
   4  -4   3 2238.95   44.91
   4   4   3 2026.21   41.29
   4  -4   4 1501.83   38.04
   4   4   4 1303.20   34.05
   4  -4   5 1109.21   35.66
   4   4   5  967.66   30.76
   4   4   6  151.79   15.34
   4   6  -7  580.60   26.98
   4   6  -6  922.47   32.24
   4  -6  -5  932.21   29.69
   4   6  -5  952.20   31.30
   4  -6  -4 1293.37   33.89
   4   6  -4 1327.17   35.45
   4  -6  -3 2034.27   41.62
   4   6  -3 2236.48   44.83
  -4   6   2 1631.37   36.40
   4   6  -2 1411.48   34.26
  -4   6   1 1848.22   38.29
   4   6  -1 1839.01   38.04
  -4   6   0 1929.57   38.86
   4   6   0 2047.97   39.19
  -4   6  -1 1837.82   38.08
   4  -6   1 1808.62   44.91
   4   6   1 2090.53   38.74
   4   6   1 1712.51   42.52
  -4   6  -2 1078.82   29.36
   4  -6   2  901.62   32.24
   4   6   2  960.22   32.78
  -4   6  -3 1548.59   36.07
   4  -6   3 1541.97   43.14
   4   6   3 1462.76   40.92
   4  -6   4  924.60   34.34
   4   6   4  818.50   31.21
   4   6   5  726.47   30.39
  -4   8   5  830.14   32.20
  -4   8   4  860.49   31.95
   4   8  -4  694.14   29.73
  -4   8   3 1111.19   35.57
   4   8  -3  905.61   32.94
  -4   8   2 1008.70   33.35
   4   8  -2  902.69   32.08
  -4   8   1 1407.16   39.19
   4   8  -1 1295.63   37.59
  -4   8   0  880.07   30.80
   4   8   0  909.14   31.09
  -4   8  -1  857.08   30.60
   4   8   1  773.55   33.56
  -4   8  -2  604.45   26.11
   4   8   2  609.10   30.27
  -4   8  -3  702.29   28.58
   4   8   3  624.03   31.21
  -5  -1   8  874.19   34.79
  -5   1   8  822.37   33.27
  -5  -1   7 1204.70   37.63
  -5   1   7 1201.99   37.05
   5  -1  -7 1441.05   34.59
   5   1  -7 1346.95   33.85
  -5  -1   6 2243.64   47.38
  -5   1   6 2188.53   45.40
   5  -1  -6 2628.15   44.33
   5   1  -6 2458.76   43.39
  -5  -1   5 1649.84   36.77
  -5   1   5 1727.81   36.11
   5  -1  -5 1812.77   34.05
   5   1  -5 1894.98   35.45
  -5  -1   4 2232.90   38.62
  -5   1   4 2373.38   37.79
   5  -1  -4 2607.10   38.74
   5   1  -4 2604.83   39.11
  -5   1   3 5148.39   50.99
   5  -1  -3 5371.45   54.98
   5  -1  -3 5750.42   46.88
   5   1  -3 4925.50   52.56
   5   1  -3 4717.24   35.33
   5  -1  -2 4686.64   47.17
   5  -1  -2 4926.94   44.70
   5   1  -2 5139.22   50.01
   5   1  -2 4822.68   40.80
   5  -1  -1 3896.52   39.11
   5  -1  -1 3925.35   41.04
   5   1  -1 4229.46   40.51
   5   1  -1 3643.11   37.63
   5  -1   0 7080.14   54.49
   5  -1   0 7388.70   65.68
   5   1   0 7305.05   52.76
   5   1   0 6367.20   57.78
   5  -1   1 2488.25   25.70
   5  -1   1 2625.19   37.01
   5   1   1 3000.21   22.62
   5   1   1 2472.78   35.37
  -5   1  -2 3058.07   28.01
   5  -1   2 2616.14   39.69
   5  -1   2  691.39   17.56
   5   1   2 2488.45   38.12
   5  -1   3 2096.08   37.67
   5  -1   3 1064.10   25.62
   5   1   3 1802.90   34.38
   5  -1   4 1624.22   35.24
   5  -1   4 1619.78   35.57
   5   1   4 1576.22   34.34
   5  -1   5  883.73   27.84
   5  -1   5  936.33   30.68
   5   1   5 1001.30   29.12
   5   1   5  825.74   28.66
   5  -1   6 1037.33   34.83
   5   1   6  997.11   35.28
   5  -1   7  491.73   27.14
  -5  -3   8  826.32   34.75
  -5   3   8  947.43   35.66
   5   3  -8 1154.53   35.16
  -5  -3   7 1204.33   38.57
  -5   3   7 1455.56   40.10
   5  -3  -7 1569.81   37.42
   5   3  -7 1680.93   40.26
  -5  -3   6 1165.23   35.28
  -5   3   6 1225.64   33.72
   5  -3  -6 1410.16   33.48
   5   3  -6 1310.44   33.48
  -5  -3   5 2678.49   50.05
  -5   3   5 3104.99   48.73
   5  -3  -5 3432.71   50.87
   5   3  -5 3305.64   51.36
  -5   3   4 2314.53   36.52
   5  -3  -4 3669.30   50.09
   5   3  -4 3652.69   51.57
  -5   3   3 2348.09   30.80
   5  -3  -3 2692.55   40.01
   5   3  -3 2415.58   38.66
   5   3  -3 2491.29   33.23
   5  -3  -2 3157.34   41.86
   5  -3  -2 3973.46   50.17
   5   3  -2 3410.38   44.00
   5   3  -2 3475.65   42.61
   5  -3  -1 3062.10   39.60
   5  -3  -1 3726.30   49.27
   5   3  -1 3451.63   41.45
   5   3  -1 3510.52   44.99
   5  -3   0 1780.04   28.50
   5  -3   0 2152.13   37.42
   5   3   0 2119.07   35.57
  -5   3  -1 3484.90   41.08
   5  -3   1 2974.42   46.22
   5   3   1 2920.42   44.78
  -5   3  -2 3113.01   38.57
   5  -3   2 2769.37   46.39
   5  -3   2 2785.33   40.38
   5   3   2 2599.90   43.76
   5  -3   3 1611.18   36.68
   5   3   3 1495.70   34.22
   5  -3   4 1941.08   42.48
   5   3   4 1722.79   38.70
   5  -3   5  899.23   30.43
   5   3   5  801.64   27.92
   5   3   6  231.90   18.22
   5   5  -7  815.05   30.64
   5  -5  -6  969.47   30.39
   5   5  -6 1031.98   32.74
   5  -5  -5 1556.16   37.01
   5   5  -5 1596.87   39.03
   5  -5  -4  940.27   27.47
   5   5  -4  954.42   28.62
   5  -5  -3 1338.40   31.83
   5   5  -3 1581.08   35.66
   5  -5  -2 1894.90   37.05
   5   5  -2 2109.94   39.44
  -5   5   1 2466.78   41.82
   5  -5  -1 2318.48   46.35
   5   5  -1 2344.97   40.18
   5   5  -1 2179.77   43.02
  -5   5   0 1712.47   34.05
   5  -5   0 1465.02   37.18
   5   5   0 1673.69   32.37
   5   5   0 1484.27   36.85
  -5   5  -1 2557.25   42.07
   5  -5   1 2330.37   48.24
   5   5   1 2141.73   45.32
  -5   5  -2 2116.40   38.33
   5  -5   2 2002.44   45.65
   5   5   2 1942.07   43.80
  -5   5  -3 1168.89   28.70
   5  -5   3 1015.94   33.52
   5   5   3 1012.57   32.49
   5  -5   4 1021.70   34.71
   5   5   4  859.87   30.84
   5   5   5  764.84   30.31
   5  -7  -5  813.57   30.23
   5   7  -5  831.05   31.99
  -5   7   4 1260.51   36.56
   5   7  -4 1005.58   33.60
  -5   7   3 2234.34   47.95
   5   7  -3 1809.89   43.84
  -5   7   2 1114.52   32.94
   5   7  -2 1014.83   31.87
  -5   7   1 1744.79   40.96
   5   7  -1 1688.33   40.18
   5   7  -1 1646.88   44.58
  -5   7   0 1733.53   40.59
   5   7   0 1821.08   40.92
   5   7   0 1516.10   43.35
  -5   7  -1  863.04   28.62
   5   7   1  751.18   31.09
  -5   7  -2  666.55   25.50
   5  -7   2  665.81   30.60
   5   7   2  586.64   28.05
  -5   7  -3  917.70   30.39
   5  -7   3  887.47   36.11
   5   7   3  816.41   33.72
   5  -7   4  534.91   29.12
   5   7   4  530.84   28.09
   5   9  -2  620.16   29.20
   5   9  -1  681.35   30.14
   5   9  -1  605.89   31.50
  -6   0   8 1088.03   38.29
   6   0  -8 1348.44   36.60
  -6   0   7 1069.45   35.16
   6   0  -7 1305.25   33.80
  -6   0   6 2581.35   50.09
   6   0  -6 2863.88   47.91
  -6   0   5  852.68   25.91
   6   0  -5  948.66   25.29
  -6   0   4 1125.79   26.32
   6   0  -4 1319.77   27.88
   6   0  -3 3192.22   41.66
   6   0  -3 3013.24   29.94
   6   0  -2 6182.39   57.82
   6   0  -2 5947.81   50.91
   6   0  -1 3641.34   38.29
   6   0  -1 3151.75   37.05
   6   0   0 6942.29   53.34
   6   0   0 6111.61   59.84
   6   0   1 2829.50   25.50
   6   0   1 2701.23   39.56
   6   0   2 2211.15   38.04
   6   0   3  783.38   24.10
   6   0   4  719.48   24.63
   6   0   4  649.89   23.36
   6   0   5  860.53   28.66
   6   0   5  845.36   30.06
   6   0   6  650.51   29.12
  -6  -2   8  869.99   35.08
  -6   2   8  932.91   35.00
   6   2  -8 1097.29   34.01
  -6  -2   7 1004.84   34.91
  -6   2   7 1164.03   35.74
   6  -2  -7 1155.27   32.24
   6   2  -7 1287.82   34.79
  -6  -2   6 1623.60   41.04
  -6   2   6 1741.13   39.77
   6  -2  -6 1923.73   39.36
   6   2  -6 1812.12   39.07
  -6  -2   5 2565.52   47.62
  -6   2   5 2838.09   46.35
   6  -2  -5 2944.28   46.72
   6   2  -5 2936.71   47.70
  -6   2   4 5025.88   56.14
   6  -2  -4 5048.25   60.12
   6   2  -4 4896.79   59.67
  -6   2   3 2289.49   29.53
   6  -2  -3 2207.82   35.86
   6  -2  -3 2537.68   34.71
   6   2  -3 2386.42   37.38
   6   2  -3 2081.44   26.44
   6  -2  -2 3359.55   42.28
   6  -2  -2 3743.41   44.95
   6   2  -2 3583.44   43.80
   6   2  -2 3132.26   37.05
   6  -2  -1 2651.10   35.00
   6  -2  -1 2903.60   40.38
   6   2  -1 3201.02   37.75
   6   2  -1 2733.22   37.09
   6  -2   0 3097.67   36.56
   6  -2   0 3405.16   46.14
   6  -2   0   24.72    2.80
   6   2   0 3885.00   38.20
   6   2   0 3047.21   41.99
  -6   2  -1 2558.57   31.46
   6  -2   1 1775.06   34.13
   6   2   1 1911.72   34.59
   6  -2   2 2959.00   47.38
   6   2   2 2722.61   44.46
   6  -2   3 2328.81   44.13
   6  -2   3 2024.89   36.11
   6   2   3 2069.19   40.84
   6  -2   4 1860.40   41.58
   6  -2   4 1784.23   38.20
   6   2   4 1698.86   38.90
   6  -2   5 1031.65   32.82
   6   2   5  932.75   30.47
   6   2   5  563.33   25.62
   6   2   6  411.99   23.81
   6   4  -8  734.36   29.86
   6  -4  -7 1304.14   36.19
   6   4  -7 1283.09   37.34
   6  -4  -6 1314.38   34.59
   6   4  -6 1260.10   35.08
   6  -4  -5 1529.47   35.66
   6   4  -5 1616.32   37.83
   6  -4  -4 2093.90   40.14
   6   4  -4 2207.86   42.40
   6   4  -3 1907.36   37.26
   6   4  -3 1936.72   34.22
   6  -4  -2 2694.69   42.61
   6  -4  -2 2968.21   48.53
   6   4  -2 2878.48   44.25
   6   4  -2 2815.15   43.80
   6  -4  -1 1588.56   31.17
   6  -4  -1 1813.35   38.16
   6   4  -1 2037.23   34.75
   6   4  -1 1872.61   36.97
  -6   4   0 2273.25   37.01
   6  -4   0 1846.21   39.48
   6   4   0 2074.20   33.02
   6   4   0 1828.77   37.75
  -6   4  -1 2437.37   38.12
   6  -4   1 2165.17   44.13
  -6   4  -2 1930.10   33.60
   6  -4   2 1777.24   41.25
   6   4   2 1668.06   38.82
   6  -4   3 1128.71   34.13
   6   4   3 1226.50   34.67
   6  -4   4 1127.80   35.66
   6   4   4  978.97   32.24
   6  -4   5  765.66   30.93
   6   4   5  688.88   28.50
   6  -6  -6  802.01   29.77
   6   6  -6  834.83   31.71
   6  -6  -5  838.94   29.45
   6   6  -5  936.78   32.20
   6  -6  -4 1077.22   32.20
   6   6  -4 1178.06   34.71
   6  -6  -3 1422.21   36.11
   6   6  -3 1778.43   41.21
   6  -6  -2 1186.77   32.12
   6   6  -2 1539.83   36.93
   6   6  -2 1428.26   37.51
  -6   6   1 2018.03   41.58
   6  -6  -1 1807.55   45.20
   6   6  -1 2074.41   41.78
   6   6  -1 1720.70   42.28
  -6   6   0 2334.03   44.54
   6  -6   0 2161.55   50.25
   6   6   0 2354.80   44.37
   6   6   0 2081.65   47.91
  -6   6  -1 1153.30   30.93
   6  -6   1 1057.31   35.82
   6   6   1  961.90   33.15
  -6   6  -2  799.50   25.95
   6  -6   2  756.24   31.09
   6   6   2  721.33   29.77
   6  -6   3  931.23   35.45
   6   6   3  882.33   33.72
   6  -6   4  529.40   27.96
   6   6   4  490.53   26.32
  -6   8   4  845.93   32.69
   6   8  -4  650.39   29.45
  -6   8   3  957.92   34.01
   6   8  -3  796.91   31.71
  -6   8   2  932.87   33.02
   6   8  -2  859.18   32.12
   6   8  -2  717.25   31.50
  -6   8   1  869.91   31.58
   6   8  -1  974.94   33.48
   6   8  -1  848.65   34.91
  -6   8   0  759.12   29.49
   6   8   0  699.04   32.45
  -6   8  -1  893.84   31.95
   6   8   1  743.62   34.26
  -6   8  -2  900.22   32.37
  -7  -1   8  907.13   35.45
  -7   1   8 1035.39   37.09
   7  -1  -8 1153.13   34.67
   7   1  -8 1230.49   36.27
  -7  -1   7 1209.97   37.79
  -7   1   7 1373.07   39.07
   7  -1  -7 1491.22   37.34
   7   1  -7 1612.62   39.19
  -7  -1   6 1981.18   44.62
  -7   1   6 2225.66   45.69
   7  -1  -6 2315.40   44.17
   7   1  -6 2394.44   45.40
  -7  -1   5 1421.39   34.34
  -7   1   5 1512.69   33.48
   7  -1  -5 1653.00   34.83
   7   1  -5 1749.81   36.23
  -7   1   4 2612.69   39.23
   7  -1  -4 2978.57   45.07
   7   1  -4 2899.24   44.62
   7  -1  -3 3574.51   46.84
   7  -1  -3 3786.67   41.41
   7   1  -3 3634.35   47.58
   7   1  -3 3278.78   34.79
   7  -1  -2 2801.53   38.33
   7  -1  -2 2675.07   35.86
   7   1  -2 2978.74   39.40
   7   1  -2 2545.00   33.11
   7  -1  -1 3880.31   43.22
   7  -1  -1 3486.79   44.25
   7   1  -1 4017.59   43.10
   7   1  -1 3225.57   41.04
   7  -1   0 3936.90   40.67
   7  -1   0 3843.26   49.60
   7   1   0 4561.63   41.78
   7   1   0 3658.94   47.33
   7  -1   1 2554.50   41.95
   7   1   1 2657.23   42.77
   7  -1   2 1752.94   36.64
   7  -1   2  286.60   12.83
   7   1   2 1777.65   36.93
   7  -1   3 1737.35   38.74
   7  -1   3  903.30   25.09
   7   1   3 1618.95   37.05
   7  -1   4  958.04   30.60
   7  -1   4  780.87   26.24
   7   1   4  894.50   29.32
   7  -1   5  756.24   29.03
   7   1   5  739.13   28.38
   7   1   5  550.95   25.09
   7   1   6  551.89   27.72
  -7  -3   8  792.88   34.30
   7  -3  -8 1009.86   33.43
   7   3  -8  967.09   33.64
   7  -3  -7 1025.11   31.91
   7   3  -7 1014.96   32.61
   7  -3  -6 1372.95   35.08
   7   3  -6 1273.71   34.71
   7  -3  -5 2451.40   45.07
   7   3  -5 2512.02   46.76
   7  -3  -4 2382.10   42.28
   7   3  -4 2514.69   44.25
   7  -3  -3 1606.04   32.65
   7  -3  -3 1792.13   33.85
   7   3  -3 1762.60   34.71
   7   3  -3 1457.13   26.61
   7  -3  -2 2358.17   38.29
   7  -3  -2 2555.65   42.11
   7   3  -2 2741.66   41.37
   7   3  -2 2378.20   37.22
   7  -3  -1 1850.65   32.28
   7  -3  -1 2138.60   39.36
   7   3  -1 2538.17   36.97
   7   3  -1 2093.08   37.14
   7  -3   0  993.00   22.54
   7  -3   0 1095.97   28.95
   7   3   0 1276.80   23.32
   7   3   0  955.00   25.95
  -7   3  -1 2743.46   37.88
   7  -3   1 2086.70   41.91
   7   3   1 1951.24   39.48
   7  -3   2 1661.60   38.90
   7   3   2 1606.37   37.42
   7  -3   3 1393.10   37.46
   7   3   3 1334.82   35.98
   7  -3   4 1162.35   35.94
   7   3   4 1072.16   33.76
   7  -3   5  820.64   31.95
   7   3   5  811.96   31.13
   7  -5  -7  801.85   30.35
   7   5  -7  873.57   32.94
   7  -5  -6 1033.05   32.90
   7   5  -6 1103.66   35.24
   7  -5  -5 1197.01   34.01
   7   5  -5 1283.09   36.27
   7  -5  -4 1201.58   32.74
   7   5  -4 1364.19   35.90
   7  -5  -3 2101.67   43.30
   7   5  -3 2694.49   48.90
   7  -5  -2 2206.34   42.19
   7  -5  -2 2555.90   50.09
   7   5  -2 2663.89   46.68
   7   5  -2 2377.95   45.24
   7  -5  -1 1919.29   38.37
   7  -5  -1 2142.51   46.51
   7   5  -1 2520.73   43.35
   7   5  -1 2122.94   44.25
  -7   5   0 1992.61   38.57
   7  -5   0 1626.73   41.41
   7   5   0 1640.54   40.06
  -7   5  -1 2342.66   41.82
   7  -5   1 2116.40   49.27
   7   5   1 1983.73   46.59
   7  -5   2  802.67   30.88
   7   5   2  682.59   27.76
   7  -5   3  703.89   29.82
   7   5   3  665.07   28.54
   7  -5   4  645.25   29.98
   7   5   4  570.15   27.64
   7  -7  -5  725.23   29.77
   7   7  -5  787.95   31.87
   7  -7  -4  609.96   26.57
   7   7  -4  765.82   30.43
  -7   7   3 1090.05   34.54
   7   7  -3 1010.97   33.89
  -7   7   2  680.20   26.77
   7   7  -2  666.05   26.94
   7   7  -2  511.80   25.37
  -7   7   1 1347.04   37.26
   7   7  -1 1366.20   37.22
   7   7  -1 1178.67   38.78
  -7   7   0 1039.10   32.37
   7  -7   0  830.18   34.26
   7   7   0  956.56   35.98
  -7   7  -1  922.30   30.60
   7  -7   1  789.76   34.05
   7   7   1  824.67   34.13
  -7   7  -2  903.18   30.47
   7  -7   2  760.35   34.26
   7   7   2  754.84   33.39
   8   0  -9  710.14   33.56
  -8   0   8  610.29   29.03
   8   0  -8  740.16   28.54
  -8   0   7 1059.37   34.87
   8   0  -7 1189.20   34.09
  -8   0   6 2302.49   47.21
   8   0  -6 2574.69   48.20
  -8   0   5 1530.21   34.59
   8   0  -5 1718.84   36.77
   8   0  -4 2963.77   46.39
   8   0  -3 4492.45   55.07
   8   0  -3 4369.08   45.77
   8   0  -2 2478.70   36.81
   8   0  -2 2031.15   31.75
   8   0  -1 1789.37   28.33
   8   0  -1 1546.70   29.57
   8   0   0 3845.28   39.89
   8   0   0 3371.44   48.16
   8   0   1 1750.35   36.07
   8   0   2 1795.46   38.82
   8   0   3 1386.06   36.15
   8   0   4 1382.32   38.33
   8   0   4  938.55   29.98
   8   0   5  675.35   28.83
   8   0   5  502.34   24.72
  -8  -2   8  959.64   37.09
   8  -2  -8 1157.12   35.94
   8   2  -8 1262.53   38.16
   8  -2  -7 1264.42   35.70
   8   2  -7 1357.98   37.67
   8  -2  -6 1625.62   38.49
   8   2  -6 1636.10   39.19
   8  -2  -5 2216.17   42.89
   8   2  -5 2427.92   45.57
   8  -2  -4 1902.22   38.04
   8   2  -4 2062.61   39.56
   8  -2  -3 1831.44   35.28
   8  -2  -3 1821.37   32.24
   8   2  -3 1759.39   34.22
   8   2  -3 1417.48   25.21
   8  -2  -2 2838.71   41.78
   8  -2  -2 2802.52   42.40
   8   2  -2 3070.53   43.26
   8   2  -2 2473.07   37.05
   8  -2  -1 2515.14   37.14
   8  -2  -1 2496.39   41.66
   8   2  -1 3046.76   39.73
   8   2  -1 2324.90   38.37
   8  -2   0 1753.47   28.99
   8  -2   0 1708.03   35.66
   8   2   0 1702.39   34.63
   8  -2   1 1479.42   35.00
   8   2   1 1594.98   35.66
   8  -2   2 1778.23   40.43
   8   2   2 1752.11   39.69
   8  -2   3  899.31   30.39
   8   2   3  849.51   29.20
   8  -2   4  812.79   30.60
   8   2   4  815.25   30.31
   8  -2   5  525.49   26.36
   8   2   5  471.04   24.96
   8   2   5  257.89   18.75
   8  -4  -8  799.05   31.38
   8  -4  -7 1041.65   34.13
   8   4  -7 1069.82   35.66
   8  -4  -6  699.86   26.65
   8   4  -6  739.91   28.33
   8  -4  -5 1381.13   35.90
   8   4  -5 1578.65   39.36
   8  -4  -4 1879.27   40.26
   8   4  -4 2160.89   44.04
   8  -4  -3 1945.19   39.77
   8  -4  -3 2191.00   42.73
   8   4  -3 2466.86   45.15
   8   4  -3 2031.97   36.93
   8  -4  -2 2150.86   40.18
   8  -4  -2 2418.70   46.22
   8   4  -2 2803.47   45.85
   8   4  -2 2265.14   41.33
   8  -4  -1 2122.94   38.82
   8  -4  -1 2338.43   46.51
   8   4  -1 2784.30   43.06
   8   4  -1 2186.84   42.73
  -8   4   0 2169.65   38.25
   8  -4   0 1852.46   42.56
   8   4   0 1598.68   37.83
  -8   4  -1 1897.70   35.04
   8  -4   1 1648.89   41.49
   8   4   1 1462.06   37.96
   8  -4   2 1117.81   35.45
   8   4   2 1001.59   32.78
   8  -4   3  742.22   30.27
   8   4   3  675.60   28.33
   8  -4   4  884.18   34.46
   8   4   4  728.03   30.97
   8  -6  -6  806.54   31.34
   8   6  -6  933.04   34.71
   8  -6  -5  951.09   32.82
   8   6  -5 1099.67   36.23
   8  -6  -4  811.64   29.45
   8   6  -4  967.09   32.78
   8  -6  -3  989.58   32.28
   8   6  -3 1394.82   38.00
   8  -6  -2  715.40   26.20
   8  -6  -2  770.68   30.23
   8   6  -2  923.29   29.90
   8   6  -2  716.80   27.59
  -8   6   1 1432.12   36.48
   8  -6  -1 1035.11   35.70
   8   6  -1 1140.84   35.94
  -8   6   0 1464.86   36.44
   8  -6   0 1026.14   36.31
   8   6   0 1161.24   37.46
  -8   6  -1 1056.16   30.84
   8  -6   1  750.89   31.87
   8   6   1  842.11   32.98
   8  -6   2  970.99   37.30
   8   6   2  895.57   35.04
   8  -6   3  855.80   36.23
   8   6   3  819.12   34.75
   8   8  -3  900.71   34.87
  -8   8   2  731.65   31.91
   8   8  -2  783.30   31.95
   8   8  -2  668.56   31.30
  -8   8   1  758.63   30.64
   8   8  -1  666.67   32.08
  -8   8   0  694.39   29.24
  -9  -1   8  783.55   33.11
   9  -1  -8  897.83   32.32
   9   1  -8  915.97   32.86
   9  -1  -7 1110.94   34.09
   9   1  -7 1177.27   35.33
   9  -1  -6 2059.27   44.37
   9   1  -6 2011.65   44.09
   9  -1  -5 1828.57   39.36
   9   1  -5 1804.92   39.93
   9  -1  -4 2931.98   48.12
   9   1  -4 3004.03   48.86
   9  -1  -3 2368.94   40.55
   9  -1  -3 2152.13   34.67
   9   1  -3 2331.15   40.14
   9   1  -3 1900.74   30.72
   9  -1  -2 2198.40   36.60
   9  -1  -2 1943.30   34.83
   9   1  -2 2120.92   35.61
   9   1  -2 1682.33   31.13
   9  -1  -1 1695.24   29.82
   9  -1  -1 1479.58   31.91
   9   1  -1 1861.63   30.43
   9   1  -1 1364.31   29.98
   9  -1   0 1965.10   39.07
   9   1   0 1860.60   37.55
   9  -1   1 1093.50   30.68
   9   1   1 1155.48   31.30
   9  -1   2 1541.15   38.57
   9   1   2 1502.69   37.83
   9  -1   3 1186.20   35.94
   9   1   3 1146.76   35.12
   9  -1   4  767.43   30.80
   9   1   4  773.23   30.68
   9   1   4  522.08   24.10
   9  -1   5  619.34   29.32
   9   1   5  601.86   29.03
   9   1   5  460.84   25.17
   9  -3  -8 1052.09   35.98
   9  -3  -7  949.16   32.53
   9   3  -7 1018.53   34.34
   9  -3  -6  975.64   31.42
   9   3  -6 1121.14   34.38
   9  -3  -5 1294.03   34.42
   9   3  -5 1610.93   39.27
   9  -3  -4 1555.91   36.11
   9   3  -4 1748.58   38.95
   9  -3  -3 1732.13   36.52
   9  -3  -3 1657.36   35.24
   9   3  -3 2063.76   40.22
   9   3  -3 1595.22   31.05
   9  -3  -2 3458.75   50.79
   9  -3  -2 3579.82   54.78
   9   3  -2 4323.14   56.71
   9   3  -2 3252.34   48.69
   9  -3  -1 2512.43   41.08
   9  -3  -1 2530.32   47.09
   9   3  -1 2317.74   42.98
   9  -3   0 2004.25   35.08
   9  -3   0 2106.12   44.41
   9   3   0 1884.45   40.71
   9  -3   1 1742.94   42.03
   9   3   1 1602.38   39.60
   9  -3   2 1077.96   34.46
   9   3   2  994.43   32.65
   9  -3   3  503.16   25.17
   9   3   3  536.06   25.83
   9  -3   4  624.97   29.40
   9   3   4  576.28   28.01
   9  -5  -7  742.67   32.49
   9  -5  -6  929.58   32.98
   9   5  -6  967.46   34.59
   9  -5  -5 1041.28   33.48
   9   5  -5 1173.24   36.40
   9  -5  -4 1098.03   33.15
   9   5  -4 1338.52   37.38
   9  -5  -3  994.48   30.72
   9  -5  -3 1178.22   34.79
   9   5  -3 1408.23   36.77
   9  -5  -2  823.15   26.94
   9  -5  -2  940.64   31.83
   9   5  -2 1071.50   30.64
   9   5  -2  842.19   28.21
   9  -5  -1  678.80   24.02
   9  -5  -1  726.55   28.75
   9   5  -1  756.65   28.13
  -9   5   0 1430.64   34.26
   9  -5   0 1063.36   35.66
   9   5   0 1064.39   34.54
   9  -5   1  973.83   35.12
   9   5   1  947.47   33.97
   9  -5   2  747.07   31.99
   9   5   2  699.08   30.51
   9  -5   3  841.66   35.24
   9   5   3  811.84   34.30
   9  -7  -4  597.58   27.55
   9   7  -4  826.56   33.06
   9  -7  -3  848.85   31.87
   9   7  -3 1118.18   37.14
  -9   7   2 1028.44   34.42
   9   7  -2  845.48   33.23
  -9   7   1 1065.91   34.63
   9  -7  -1  825.25   34.96
   9   7  -1  890.22   35.04
  -9   7   0  895.90   31.42
   9  -7   0  704.18   33.15
   9   7   0  744.52   33.27
  10   0  -8  920.08   33.56
  10   0  -7 1284.77   37.79
  10   0  -6 2231.67   47.54
  10   0  -5 1747.76   39.81
  10   0  -4 2975.24   50.01
  10   0  -3 2663.03   44.46
  10   0  -3 2165.13   35.94
  10   0  -2 1181.84   27.18
  10   0  -2 1000.44   25.83
  10   0  -1 1419.58   27.64
  10   0  -1 1239.29   30.60
  10   0   0 1533.00   35.98
  10   0   1  853.25   28.46
  10   0   2  899.44   31.34
  10   0   3 1101.07   36.23
  10   0   4  633.89   29.69
  10  -2  -8  765.04   31.01
  10  -2  -7  828.87   30.64
  10   2  -7  798.93   30.51
  10  -2  -6 1237.11   35.66
  10   2  -6 1221.24   35.86
  10  -2  -5 1177.03   33.11
  10   2  -5 1459.31   37.30
  10  -2  -4 1434.34   34.79
  10   2  -4 1680.56   38.08
  10  -2  -3 1909.25   38.53
  10  -2  -3 1950.58   37.42
  10   2  -3 2368.37   43.10
  10  -2  -2 2812.47   45.11
  10  -2  -2 2566.34   45.15
  10   2  -2 3397.63   49.10
  10   2  -2 2486.11   42.28
  10  -2  -1 2208.35   37.59
  10  -2  -1 2057.75   41.95
  10   2  -1 1959.79   39.64
  10  -2   0 1693.14   39.85
  10   2   0 1510.55   36.89
  10  -2   1 1544.97   40.14
  10   2   1 1487.27   38.57
  10  -2   2 1046.75   34.79
  10   2   2  939.29   32.65
  10  -2   3  693.44   29.65
  10   2   3  640.27   28.62
  10  -2   4  577.39   28.91
  10   2   4  554.57   30.47
  10  -4  -7  905.15   33.56
  10   4  -7  991.64   40.47
  10  -4  -6  759.33   29.36
  10   4  -6  914.69   33.02
  10  -4  -5 1493.11   39.69
  10   4  -5 1642.39   42.48
  10  -4  -4 1412.80   37.09
  10   4  -4 1581.41   39.77
  10  -4  -3  919.63   28.79
  10  -4  -3  955.45   30.10
  10   4  -3 1101.73   31.58
  10  -4  -2 1088.32   30.19
  10  -4  -2 1185.99   34.50
  10   4  -2 1408.07   33.76
  10   4  -2 1035.35   30.23
  10  -4  -1 1252.08   31.42
  10  -4  -1 1294.69   37.18
  10   4  -1 1245.46   34.83
  10  -4   0  912.02   32.32
  10   4   0  897.46   31.05
  10  -4   1 1002.37   35.37
  10   4   1 1092.06   35.90
  10  -4   2  750.11   31.83
  10   4   2  757.06   31.50
  10  -4   3  685.30   31.79
  10   4   3  656.76   30.88
  10  -6  -5  739.79   30.47
  10   6  -5  952.57   35.49
  10  -6  -4  699.69   28.75
  10   6  -4 1010.47   35.20
  10  -6  -3  900.63   31.75
  10  -6  -3 1093.87   37.01
  10   6  -3 1343.99   39.07
  10  -6  -2  776.02   28.70
  10  -6  -2  837.91   33.19
  10   6  -2  772.86   30.31
 -10   6   1 1197.63   35.12
  10  -6  -1  898.78   35.24
  10   6  -1  904.00   33.93
 -10   6   0  874.72   29.53
  10  -6   0  609.71   29.98
  10   6   0  641.34   29.94
  10  -6   1  704.18   33.06
  10   6   1  676.05   31.99
  11  -1  -7  941.26   33.39
  11   1  -7  898.00   32.82
  11  -1  -6 1474.52   39.85
  11   1  -6 1444.21   39.73
  11  -1  -5 1279.30   35.20
  11   1  -5 1459.84   37.88
  11  -1  -4 1816.68   40.14
  11   1  -4 2114.09   43.51
  11  -1  -3 1913.94   39.11
  11  -1  -3 1735.05   37.59
  11   1  -3 2198.40   41.95
  11  -1  -2 2045.33   38.29
  11  -1  -2 1749.28   37.46
  11   1  -2 2340.65   40.63
  11   1  -2 1870.02   37.88
  11  -1  -1 1569.11   37.30
  11   1  -1 1583.30   36.93
  11  -1   0 1515.61   38.66
  11   1   0 1436.15   37.34
  11  -1   1  882.49   31.17
  11   1   1  857.28   30.56
  11  -1   2  977.49   34.54
  11   1   2  932.34   33.64
  11  -1   3  555.06   27.80
  11   1   3  590.22   28.54
  11  -3  -7  899.85   33.52
  11   3  -7  983.33   35.53
  11  -3  -6  986.95   33.56
  11   3  -6 1046.29   35.12
  11  -3  -5 1249.16   36.15
  11   3  -5 1460.62   39.73
  11  -3  -4 1342.18   35.94
  11   3  -4 1449.36   37.71
  11  -3  -3 1128.09   31.58
  11  -3  -3 1030.30   30.31
  11   3  -3 1340.66   34.34
  11  -3  -2 1261.25   32.08
  11  -3  -2 1216.80   34.22
  11   3  -2 1089.43   30.72
  11  -3  -1  839.72   25.00
  11  -3  -1  848.44   29.77
  11   3  -1  774.62   27.51
  11  -3   0  890.39   31.79
  11   3   0  880.19   30.93
  11  -3   1  972.97   34.67
  11   3   1  941.18   33.56
  11  -3   2  782.72   32.69
  11   3   2  733.87   31.67
  11  -5  -5  904.78   33.06
  11   5  -5 1178.43   38.53
  11  -5  -4  918.56   32.28
  11   5  -4 1165.51   36.81
  11  -5  -3 1012.73   32.82
  11  -5  -3 1086.39   35.57
  11   5  -3 1357.15   38.04
  11  -5  -2  884.30   29.82
  11  -5  -2  951.50   34.22
  11   5  -2  866.13   30.97
  11  -5  -1 1033.30   31.50
  11  -5  -1 1056.57   37.01
  11   5  -1 1067.64   35.78
  11  -5   0  935.63   35.94
  11   5   0  968.20   35.70
  11  -5   1  642.28   31.13
  11   5   1  626.53   30.39
  12   0  -7  658.82   28.79
  12   0  -6  948.83   32.86
  12   0  -5  710.67   27.14
  12   0  -4 1266.80   34.46
  12   0  -3 1518.49   35.78
  12   0  -2 1543.04   36.72
  12   0  -1 1676.12   40.47
  12   0   0 1595.76   41.41
  12   0   1  718.53   29.69
  12   0   2  730.21   31.58
  12  -2  -6 1298.02   39.07
  12   2  -6 1414.77   41.12
  12  -2  -5 1288.68   37.18
  12   2  -5 1527.78   40.80
  12  -2  -4 1571.25   39.27
  12   2  -4 1821.12   42.48
  12  -2  -3 1392.48   35.33
  12   2  -3 1518.57   36.56
  12  -2  -2 1184.55   30.88
  12  -2  -2 1066.44   32.16
  12   2  -2 1059.29   30.88
  12  -2  -1  701.22   27.47
  12   2  -1  699.20   26.85
  12  -2   0  914.24   32.65
  12   2   0  790.05   30.02
  12  -2   1  792.39   31.91
  12   2   1  792.47   31.79
  12  -2   2  639.73   30.39
  12   2   2  617.40   29.73
  12   4  -6  863.33   35.78
  12  -4  -5 1147.34   37.01
  12   4  -5 1352.01   40.75
  12  -4  -4  969.68   32.69
  12   4  -4 1197.88   36.72
  12  -4  -3  742.83   27.64
  12  -4  -2 1134.79   33.06
  12  -4  -2 1183.90   37.42
  12   4  -2 1050.12   33.43
  12  -4  -1  902.48   33.85
  12   4  -1  871.97   32.20
  12  -4   0  678.23   30.60
  12   4   0  694.68   30.39
  12  -4   1  781.37   34.01
  12   4   1  767.67   33.48
  12   6  -4  757.89   32.94
  12  -6  -2  734.49   29.73
  12  -6  -2  781.94   34.13
  13  -1  -6 1095.56   36.64
  13   1  -6 1161.69   37.92
  13  -1  -5  902.44   31.71
  13   1  -5 1019.69   33.89
  13  -1  -4 1213.51   35.12
  13   1  -4 1204.38   35.08
  13  -1  -3 1360.73   35.49
  13  -1  -2 1086.88   33.23
  13   1  -2  999.12   31.50
  13  -1  -1  939.94   32.53
  13   1  -1  916.38   31.75
  13  -1   0  881.96   33.11
  13   1   0  854.24   32.53
  13  -1   1  647.34   30.02
  13   1   1  664.66   30.51
  13   3  -6  951.91   40.47
  13  -3  -5 1165.88   37.30
  13   3  -5 1348.48   40.55
  13  -3  -4 1233.94   37.01
  13   3  -4 1474.44   40.38
  13  -3  -3  969.14   31.46
  13  -3  -2  888.58   32.32
  13   3  -2  826.19   29.98
  13  -3  -1  750.24   31.01
  13   3  -1  773.18   30.64
  13  -3   0  682.42   30.93
  13   3   0  661.00   30.02
  13  -5  -3  682.18   28.70
  13  -5  -2  730.17   28.87
  13  -5  -2  756.53   32.94
  13   5  -1  687.40   31.67
  14   0  -5  996.61   34.46
  14   0  -4 1230.28   36.52
  14   0  -2  805.14   30.14
  14   0  -1  698.50   29.77
  14   0   0  682.18   30.97
  14  -2  -5  744.97   30.35
  14   2  -5  894.71   33.31
  14  -2  -4 1053.57   34.54
  14  -2  -2  818.91   31.54
  14   2  -2  745.26   29.53
  14  -2  -1  739.34   31.25
  14   2  -1  737.94   30.88
  14   2   0  696.94   32.12
  14  -4  -3  762.66   30.10
  14  -4  -2  904.21   35.66
  15   1  -5  848.07   33.06
  15  -1  -1  494.36   30.84
  15   1  -1  538.69   27.88
;
_shelx_hkl_checksum              66559
#END Tags that were not found in dictionaries
loop_
_space_group_symop_operation_xyz
'x, y, z'
'-x, y, -z'
'x+1/2, y+1/2, z'
'-x+1/2, y+1/2, -z'
loop_
_atom_site_label
_atom_site_type_symbol
_atom_site_fract_x
_atom_site_fract_y
_atom_site_fract_z
_atom_site_U_iso_or_equiv
_atom_site_adp_type
_atom_site_occupancy
_atom_site_site_symmetry_order
_atom_site_calc_flag
_atom_site_refinement_flags_posn
_atom_site_refinement_flags_adp
_atom_site_refinement_flags_occupancy
_atom_site_disorder_assembly
_atom_site_disorder_group
Sm1 Sm 0.0000 0.41855(2) 0.0000 0.0151(3) Uani 1 2 d S TU P . .
O3 O -0.0084(9) 0.2717(14) -0.3373(13) 0.0262(18) Uani 1 1 d . U . . .
O4 O -0.1726(10) 0.2155(19) -0.1160(18) 0.041(3) Uani 1 1 d . U . . .
O7 O 0.1539(11) 0.580(2) -0.1174(18) 0.046(3) Uani 1 1 d . U . . .
O1 O 0.1101(12) 0.6410(18) 0.270(2) 0.042(3) Uani 1 1 d . U . . .
C1 C 0.0916(18) 0.805(2) 0.301(3) 0.043(3) Uani 1 1 d D U . . .
H1 H 0.0379 0.8670 0.1831 0.052 Uiso 1 1 calc R U . A 1
N1 N 0.135(3) 0.902(7) 0.472(4) 0.044(7) Uiso 0.5 1 d D . P B 1
H1A H 0.1855 0.8528 0.5864 0.052 Uiso 0.5 1 calc R U P B 1
H1B H 0.1145 1.0165 0.4715 0.052 Uiso 0.5 1 calc R U P B 1
N1B N 0.167(3) 0.905(7) 0.449(4) 0.042(6) Uiso 0.5 1 d D . P B 2
H1B2 H 0.2350 0.8578 0.5339 0.050 Uiso 0.5 1 calc R U P B 2
H1B3 H 0.1491 1.0187 0.4636 0.050 Uiso 0.5 1 calc R U P B 2
C3 C 0.0000 0.346(3) -0.5000 0.027(3) Uani 1 2 d S TU P . .
H3 H 0.0000 0.4746 -0.5000 0.033 Uiso 1 2 calc R U P . .
C4 C -0.2375(14) 0.123(3) -0.038(2) 0.035(3) Uani 1 1 d . U . . .
H5 H -0.1975 0.0798 0.1001 0.042 Uiso 1 1 calc R U . . .
loop_
_atom_site_aniso_label
_atom_site_aniso_U_11
_atom_site_aniso_U_22
_atom_site_aniso_U_33
_atom_site_aniso_U_23
_atom_site_aniso_U_13
_atom_site_aniso_U_12
Sm1 0.0157(4) 0.0152(4) 0.0171(4) 0.000 0.0094(2) 0.000
O3 0.038(5) 0.028(5) 0.015(3) -0.001(3) 0.012(3) -0.006(4)
O4 0.040(5) 0.055(8) 0.038(5) -0.010(5) 0.026(4) -0.028(5)
O7 0.035(5) 0.070(9) 0.035(5) -0.012(5) 0.015(4) -0.033(5)
O1 0.053(6) 0.033(6) 0.045(6) -0.017(5) 0.025(5) -0.014(5)
C1 0.060(10) 0.028(7) 0.042(8) -0.005(6) 0.018(7) -0.007(6)
C3 0.042(9) 0.021(8) 0.025(7) 0.000 0.020(7) 0.000
C4 0.031(6) 0.047(10) 0.033(7) 0.000(6) 0.017(5) -0.016(6)
loop_
_atom_type_symbol
_atom_type_description
_atom_type_scat_dispersion_real
_atom_type_scat_dispersion_imag
_atom_type_scat_source
C C 0.0033 0.0016 'International Tables Vol C Tables 4.2.6.8 and 6.1.1.4'
H H 0.0000 0.0000 'International Tables Vol C Tables 4.2.6.8 and 6.1.1.4'
N N 0.0061 0.0033 'International Tables Vol C Tables 4.2.6.8 and 6.1.1.4'
O O 0.0106 0.0060 'International Tables Vol C Tables 4.2.6.8 and 6.1.1.4'
Sm Sm -0.1638 3.4418 'International Tables Vol C Tables 4.2.6.8 and 6.1.1.4'
loop_
_geom_angle_atom_site_label_1
_geom_angle_atom_site_label_2
_geom_angle_atom_site_label_3
_geom_angle
_geom_angle_site_symmetry_1
_geom_angle_site_symmetry_3
O4 Sm1 O4 103.4(7) 2 .
O4 Sm1 O1 90.2(5) 2 .
O4 Sm1 O1 145.0(4) . .
O4 Sm1 O1 145.0(4) 2 2
O4 Sm1 O1 90.2(5) . 2
O1 Sm1 O1 96.7(7) . 2
O4 Sm1 O7 143.1(4) 2 2
O4 Sm1 O7 77.8(5) . 2
O1 Sm1 O7 72.3(5) . 2
O1 Sm1 O7 70.9(4) 2 2
O4 Sm1 O7 77.8(5) 2 .
O4 Sm1 O7 143.1(4) . .
O1 Sm1 O7 70.9(4) . .
O1 Sm1 O7 72.3(5) 2 .
O7 Sm1 O7 123.3(8) 2 .
O4 Sm1 O3 78.4(4) 2 .
O4 Sm1 O3 70.4(3) . .
O1 Sm1 O3 144.5(3) . .
O1 Sm1 O3 76.1(4) 2 .
O7 Sm1 O3 133.5(4) 2 .
O7 Sm1 O3 73.9(4) . .
O4 Sm1 O3 70.4(3) 2 2
O4 Sm1 O3 78.4(4) . 2
O1 Sm1 O3 76.1(4) . 2
O1 Sm1 O3 144.5(3) 2 2
O7 Sm1 O3 73.9(4) 2 2
O7 Sm1 O3 133.5(4) . 2
O3 Sm1 O3 128.8(4) . 2
C3 O3 Sm1 128.4(11) . .
C4 O4 Sm1 138.7(10) . .
C4 O7 Sm1 136.3(11) 3 .
C1 O1 Sm1 133.4(13) . .
O1 C1 N1 130(3) . .
O1 C1 N1B 124(3) . .
O1 C1 H1 115.2 . .
N1 C1 H1 115.2 . .
C1 N1 H1A 120.0 . .
C1 N1 H1B 120.0 . .
H1A N1 H1B 120.0 . .
C1 N1B H1B2 120.0 . .
C1 N1B H1B3 120.0 . .
H1B2 N1B H1B3 120.0 . .
O3 C3 O3 128.9(19) . 2_554
O3 C3 H3 115.6 . .
O3 C3 H3 115.6 2_554 .
O7 C4 O4 128.9(15) 3_445 .
O7 C4 H5 115.6 3_445 .
O4 C4 H5 115.6 . .
loop_
_geom_bond_atom_site_label_1
_geom_bond_atom_site_label_2
_geom_bond_distance
_geom_bond_site_symmetry_2
Sm1 O4 2.367(10) 2
Sm1 O4 2.367(10) .
Sm1 O1 2.417(11) .
Sm1 O1 2.417(11) 2
Sm1 O7 2.448(10) 2
Sm1 O7 2.448(10) .
Sm1 O3 2.455(8) .
Sm1 O3 2.455(8) 2
O3 C3 1.241(12) .
O4 C4 1.237(17) .
O7 C4 1.212(18) 3
O1 C1 1.23(2) .
C1 N1 1.29(3) .
C1 N1B 1.29(3) .
C1 H1 0.9300 .
N1 H1A 0.8600 .
N1 H1B 0.8600 .
N1B H1B2 0.8600 .
N1B H1B3 0.8600 .
C3 O3 1.241(12) 2_554
C3 H3 0.9300 .
C4 O7 1.212(18) 3_445
C4 H5 0.9300 .
