#------------------------------------------------------------------------------
#$Date: 2016-03-24 14:47:55 +0200 (Thu, 24 Mar 2016) $
#$Revision: 179674 $
#$URL: svn://www.crystallography.net/cod/cif/4/51/26/4512646.cif $
#------------------------------------------------------------------------------
#
# This file is available in the Crystallography Open Database (COD),
# http://www.crystallography.net/
#
# All data on this site have been placed in the public domain by the
# contributors.
#
data_4512646
loop_
_publ_author_name
'Samarasekere, Pradeep'
'Wang, Xiqu'
'Kaveevivitchai, Watchareeya'
'Jacobson, Allan J.'
_publ_section_title
;
 Reactions of Rare Earth Hydrated Nitrates and Oxides with Formamide:
 Relevant to Recycling Rare Earth Metals
;
_journal_issue                   3
_journal_name_full               'Crystal Growth &amp; Design'
_journal_page_first              1119
_journal_paper_doi               10.1021/cg501421u
_journal_volume                  15
_journal_year                    2015
_chemical_formula_sum            'C5 H9 Gd N2 O8'
_chemical_formula_weight         382.39
_chemical_name_systematic
;
 ?
;
_space_group_crystal_system      monoclinic
_space_group_IT_number           5
_space_group_name_Hall           'C 2y'
_space_group_name_H-M_alt        'C 1 2 1'
_symmetry_space_group_name_Hall  'C 2y'
_symmetry_space_group_name_H-M   'C 1 2 1'
_atom_sites_solution_hydrogens   geom
_audit_creation_method           SHELXL-2013
_cell_angle_alpha                90
_cell_angle_beta                 109.754(4)
_cell_angle_gamma                90
_cell_formula_units_Z            2
_cell_length_a                   11.380(4)
_cell_length_b                   7.182(2)
_cell_length_c                   6.628(2)
_cell_measurement_temperature    293(2)
_cell_volume                     509.8(3)
_computing_structure_refinement  'SHELXL-2013 (Sheldrick, 2013)'
_diffrn_ambient_temperature      293(2)
_diffrn_measured_fraction_theta_full 1.000
_diffrn_measured_fraction_theta_max 0.998
_diffrn_measurement_device_type  'Bruker ApexII'
_diffrn_measurement_method       'narrow frame'
_diffrn_radiation_type           MoK\a
_diffrn_radiation_wavelength     0.71073
_diffrn_reflns_av_R_equivalents  0.0398
_diffrn_reflns_av_unetI/netI     0.0202
_diffrn_reflns_Laue_measured_fraction_full 1.000
_diffrn_reflns_Laue_measured_fraction_max 0.998
_diffrn_reflns_limit_h_max       14
_diffrn_reflns_limit_h_min       -13
_diffrn_reflns_limit_k_max       8
_diffrn_reflns_limit_k_min       -8
_diffrn_reflns_limit_l_max       5
_diffrn_reflns_limit_l_min       -8
_diffrn_reflns_number            1451
_diffrn_reflns_point_group_measured_fraction_full 1.000
_diffrn_reflns_point_group_measured_fraction_max 0.999
_diffrn_reflns_theta_full        25.500
_diffrn_reflns_theta_max         26.359
_diffrn_reflns_theta_min         3.266
_diffrn_source                   'fine-focus sealed tube'
_exptl_absorpt_coefficient_mu    6.536
_exptl_absorpt_correction_T_max  0.6266
_exptl_absorpt_correction_T_min  0.2480
_exptl_absorpt_correction_type   psi-scan
_exptl_absorpt_process_details   'Bruker XPREP 2008/2'
_exptl_crystal_colour            Colorless
_exptl_crystal_density_diffrn    2.491
_exptl_crystal_density_method    'not measured'
_exptl_crystal_description       Rhomboid
_exptl_crystal_F_000             362
_exptl_crystal_size_max          0.300
_exptl_crystal_size_mid          0.300
_exptl_crystal_size_min          0.080
_refine_diff_density_max         0.788
_refine_diff_density_min         -0.904
_refine_diff_density_rms         0.171
_refine_ls_abs_structure_details
;
 Refined as an inversion twin.
;
_refine_ls_abs_structure_Flack   0.36(5)
_refine_ls_extinction_method     none
_refine_ls_goodness_of_fit_ref   1.039
_refine_ls_hydrogen_treatment    constr
_refine_ls_matrix_type           full
_refine_ls_number_parameters     75
_refine_ls_number_reflns         994
_refine_ls_number_restraints     17
_refine_ls_restrained_S_all      1.032
_refine_ls_R_factor_all          0.0238
_refine_ls_R_factor_gt           0.0238
_refine_ls_shift/su_max          0.000
_refine_ls_shift/su_mean         0.000
_refine_ls_structure_factor_coef Fsqd
_refine_ls_weighting_details
'w=1/[\s^2^(Fo^2^)+(0.0447P)^2^+4.5226P] where P=(Fo^2^+2Fc^2^)/3'
_refine_ls_weighting_scheme      calc
_refine_ls_wR_factor_gt          0.0603
_refine_ls_wR_factor_ref         0.0603
_reflns_Friedel_coverage         0.848
_reflns_Friedel_fraction_full    1.000
_reflns_Friedel_fraction_max     1.000
_reflns_number_gt                994
_reflns_number_total             994
_reflns_threshold_expression     'I > 2\s(I)'
_cod_data_source_file            cg501421u_si_001.cif
_cod_data_source_block           4Gd
_cod_depositor_comments
'Adding full bibliography for 4512639--4512651.cif.'
_cod_database_code               4512646
#BEGIN Tags that were not found in dictionaries:
_shelx_space_group_comment
;
The symmetry employed for this shelxl refinement is uniquely defined
by the following loop, which should always be used as a source of
symmetry information in preference to the above space-group names.
They are only intended as comments.
;
_shelx_estimated_absorpt_t_min   0.245
_shelx_estimated_absorpt_t_max   0.623
_shelxl_version_number           2013-4
_shelx_res_file
;
TITL sam3033_V4Gd_test_0m in C2  New: C2
CELL  0.71073   11.3800    7.1820    6.6280    90.000   109.754    90.000
ZERR 2           0.0040    0.0020    0.0020     0.000     0.004     0.000
LATT -7
SYMM             - X ,              Y ,            - Z
SFAC C  H  Gd N  O
UNIT 10  18  2  4  16
L.S. 12
SHEL 999 0.8
ACTA 51
BOND $H
FMAP 2
PLAN 20
TWIN
SIZE .3 .3 .08
DELU
WGHT    0.044700    4.522600
BASF   0.36127
FVAR       0.69071
GD1   3    0.500000    0.449549    0.000000    10.50000    0.00954    0.01074 =
         0.01083    0.00000    0.00473    0.00000
O1    5    0.508164    0.302579    0.337551    11.00000    0.03474    0.02109 =
         0.01634   -0.00111    0.01391    0.00548
O2    5    0.609951    0.670528    0.267827    11.00000    0.04139    0.03122 =
         0.03715   -0.01732    0.01817   -0.01336
O3    5    0.673004    0.249510    0.116237    11.00000    0.02514    0.04806 =
         0.03338    0.01413    0.01592    0.02686
C1    1    0.500000    0.381231    0.500000    10.50000    0.03717    0.01757 =
         0.02030    0.00000    0.01511    0.00000
AFIX  43
H1    2    0.500000    0.510722    0.500000    10.50000   -1.20000
AFIX   0
O5    5    0.847196    0.112589    0.118514    11.00000    0.02907    0.05421 =
         0.03501    0.00613    0.01652    0.02506
C2    1    0.735841    0.153202    0.035151    11.00000    0.02214    0.03644 =
         0.03069   -0.00293    0.01201    0.01112
AFIX  43
H2    2    0.695052    0.107088   -0.101863    11.00000   -1.20000
AFIX   0
N1    4    0.653091    0.929056    0.464846    11.00000    0.07827    0.02601 =
         0.04715   -0.01491   -0.00126   -0.00365
AFIX  93
H1A   2    0.713364    0.878379    0.565656    11.00000   -1.20000
H1B   2    0.634136    1.043770    0.474979    11.00000   -1.20000
AFIX   0
C3    1    0.592127    0.834572    0.301149    11.00000    0.05372    0.02934 =
         0.03127   -0.00419    0.01223   -0.01048
AFIX  43
H3    2    0.527802    0.895356    0.196400    11.00000   -1.20000
AFIX   0
HKLF 4 1 -1.0000  0.0000  0.0000  0.0000  1.0000  0.0000  0.0000  0.0000 -1.0000

REM  sam3033_V4Gd_test_0m in C2  New: C2
REM R1 =  0.0238 for     994 Fo > 4sig(Fo)  and  0.0238 for all     994 data
REM     75 parameters refined using     17 restraints

END

WGHT      0.0448      2.7870

REM Highest difference peak  0.788,  deepest hole -0.904,  1-sigma level  0.171
Q1    1   0.6100  0.4510  0.1199  11.00000  0.05    0.79
Q2    1   0.5370  0.9509  0.3413  11.00000  0.05    0.56
Q3    1   0.5000  0.6734  0.0000  10.50000  0.05    0.56
Q4    1   0.6575  0.4529  0.0908  11.00000  0.05    0.55
Q5    1   0.5000  0.2212  0.0000  10.50000  0.05    0.55
Q6    1   0.5304  0.9519  0.5573  11.00000  0.05    0.52
Q7    1   0.6975  0.7625  0.7364  11.00000  0.05    0.47
Q8    1   0.4639  0.3629  0.1891  11.00000  0.05    0.46
Q9    1   0.9666  0.0384  0.1901  11.00000  0.05    0.46
Q10   1   0.7830 -0.0487  0.0323  11.00000  0.05    0.42
Q11   1   0.6548  0.7830  0.4027  11.00000  0.05    0.42
Q12   1   0.6511  1.1233  0.4006  11.00000  0.05    0.41
Q13   1   0.5309  0.6023  0.1269  11.00000  0.05    0.40
Q14   1   0.7433  0.9487  0.4248  11.00000  0.05    0.38
Q15   1   0.5716  0.4497 -0.0189  11.00000  0.05    0.38
Q16   1   0.8750  0.1758  0.2924  11.00000  0.05    0.36
Q17   1   0.7101  1.0360  0.2782  11.00000  0.05    0.35
Q18   1   0.5323  0.2874  0.1359  11.00000  0.05    0.34
Q19   1   0.4411  0.2498  0.1695  11.00000  0.05    0.34
Q20   1   0.7063  0.7409  0.5802  11.00000  0.05    0.33
;
_shelx_res_checksum              50014
_shelx_hkl_file
;
   0   0   1 4546.74   35.24
   0   0   1 5401.13   36.35
   0   0   2 4568.44   36.69
   0   0   2 5360.30   39.40
   0   0   3 3862.70   33.43
   0   0   3 5099.75   38.53
   0   0   4 2670.54   22.11
   0   0   4 3369.97   22.75
   0   0   5  810.47   11.62
   0   0   6 2099.42   21.86
   0   0   7 1412.11   18.44
   0   0   8 1070.28   16.79
   0  -2   0 2639.91   24.06
   0  -2   0 2777.54   21.61
   0   2   0 2492.32   19.08
   0  -2  -1 2032.62   15.96
   0  -2  -1 2244.30   15.20
   0  -2   1 1952.14   14.90
   0   2   1 2612.93   18.80
   0  -2  -2 7174.32   59.01
   0  -2   2 7685.82   58.57
   0  -2   2 7274.38   60.29
   0   2   2 7973.51   64.74
   0  -2  -3 2615.39   21.63
   0  -2   3 2829.29   20.39
   0  -2   3 2756.53   20.90
   0   2   3 2737.02   21.20
   0  -2   4 3573.67   26.48
   0  -2   4 4143.68   29.64
   0   2   4 3345.20   26.56
   0  -2   5 2454.88   22.09
   0  -2   5 3117.66   25.23
   0   2   5 2417.34   23.02
   0  -2   6 2001.40   20.84
   0   2   6 1979.41   21.82
   0  -2   7 1002.48   14.93
   0   2   7  962.55   15.49
   0  -2   8  707.08   13.17
   0  -4   0 3795.04   32.58
   0  -4   0 4193.96   35.14
   0   4   0 3952.09   28.33
   0  -4  -1 3689.27   30.03
   0  -4  -1 4031.05   34.94
   0  -4   1 3789.35   26.33
   0  -4   1 4154.70   29.29
   0   4  -1 3997.76   29.32
   0   4   1 4224.68   34.28
   0  -4  -2 3847.50   28.95
   0  -4  -2 4119.99   29.35
   0  -4   2 4082.36   28.91
   0  -4   2 4205.12   30.02
   0  -4   2 4828.22   33.43
   0   4   2 4448.96   32.81
   0  -4  -3 1893.18   18.83
   0  -4   3 1986.89   15.89
   0  -4   3 1864.76   18.20
   0   4   3 1972.62   18.09
   0  -4  -4 3036.37   27.78
   0  -4   4 3443.25   25.70
   0  -4   4 3237.72   27.47
   0   4   4 3129.98   26.64
   0  -4   5 2156.18   20.29
   0  -4   5 2191.78   22.32
   0   4   5 1797.71   20.22
   0  -4   6 1058.86   15.19
   0   4   6  822.98   14.04
   0   4   7  931.41   16.09
   0  -6   0 2931.96   23.14
   0  -6   0 3061.16   23.22
   0   6   0 3319.63   23.81
   0  -6  -1 2234.95   18.27
   0  -6  -1 2324.16   20.60
   0  -6   1 2326.40   20.91
   0   6  -1 2495.18   19.26
   0   6   1 2545.45   20.60
   0  -6  -2 2103.50   16.86
   0  -6  -2 2212.14   21.52
   0  -6   2 2277.25   21.90
   0   6   2 2394.13   21.11
   0  -6  -3 1784.67   20.40
   0  -6   3 1799.51   20.06
   0   6   3 2086.24   20.79
   0  -6  -4  837.52   14.48
   0  -6   4  827.03   13.63
   0   6   4  916.39   13.92
   0  -6   5 1069.71   16.45
   0   6   5  975.50   15.57
   0  -6   6 1099.00   17.35
   0   6   6  857.30   15.56
   0  -8   0 1248.17   15.31
   0  -8  -1  905.51   12.06
   0  -8   1  957.93   14.00
   0  -8   2  848.81   13.96
   0  -8  -3 1177.50   18.55
   0  -8   3 1158.40   17.53
   0  -8  -4  833.19   16.46
   0  -8   4  805.90   15.14
  -1  -1   8 1138.55   16.77
  -1   1   8 1127.62   17.23
  -1  -1   7 1027.73   14.86
  -1   1   7  982.15   14.97
  -1  -1   6 2407.96   22.99
  -1   1   6 2222.88   22.45
  -1  -1   5 1899.77   18.40
  -1  -1   5 2265.94   19.39
  -1   1   5 1729.82   17.80
  -1  -1   4 2631.64   21.03
  -1  -1   4 3203.92   23.49
  -1   1   4 2406.34   20.21
  -1   1   4 3050.63   20.32
  -1  -1   3 4235.73   27.55
  -1  -1   3 5062.29   39.46
  -1   1   3 4387.92   39.79
  -1   1   3 5208.51   36.92
  -1  -1   2 6722.79   49.67
  -1  -1   2 6667.62   54.88
  -1   1   2 7347.54   57.05
  -1  -1   1 6143.30   38.08
  -1   1   1 6086.47   43.56
  -1  -1   0 6614.97   44.64
   1  -1   1 8416.54   59.54
  -1  -1  -2 4564.66   41.08
   1  -1   2 4885.11   38.10
   1  -1   2 5104.00   39.97
   1   1   2 4131.91   39.31
  -1  -1  -3 4895.49   36.03
   1  -1   3 4800.70   44.34
   1  -1   3 5362.14   39.75
   1   1   3 4926.08   41.32
   1   1   3 5923.91   37.08
   1  -1   4 2147.30   19.39
   1  -1   4 2816.88   20.88
   1   1   4 2310.96   20.97
   1  -1   5 2156.44   21.05
   1   1   5 2176.51   21.75
   1  -1   6 1692.16   19.46
   1   1   6 1712.83   20.13
   1  -1   7 1125.07   16.44
   1   1   7 1133.33   16.96
   1  -1   8  935.14   15.80
  -1   3   7 1107.56   16.79
  -1  -3   6 1638.01   17.87
  -1  -3   6 2048.39   21.16
  -1   3   6 1448.89   18.14
  -1  -3   5 2503.81   21.61
  -1  -3   5 2816.28   24.91
  -1   3   5 2292.22   22.17
  -1  -3   4 4265.98   29.14
  -1  -3   4 4243.64   31.76
  -1   3   4 4016.01   30.03
  -1  -3   3 3602.53   23.39
  -1  -3   3 3216.90   24.93
  -1   3   3 3507.25   25.22
   1  -3  -3 3148.04   26.09
  -1  -3   2 5550.06   40.93
  -1  -3   2 5228.83   47.79
  -1   3   2 5878.06   44.92
   1  -3  -2 5185.11   42.60
  -1  -3   1 4628.20   38.37
  -1   3   1 4774.20   39.45
   1  -3  -1 4341.57   35.34
   1  -3  -1 4533.64   38.47
   1   3  -1 4819.20   33.05
  -1  -3   0 1654.34   12.42
  -1  -3   0 1726.93   12.19
  -1   3   0 1521.31   10.92
   1  -3   0 1599.68   12.30
   1  -3   0 1692.40   11.82
   1   3   0 1731.45   11.59
  -1  -3  -1 4999.60   37.51
  -1  -3  -1 5223.88   42.64
   1  -3   1 4894.11   36.97
   1  -3   1 5420.74   45.31
   1  -3   1 5770.90   36.89
   1   3   1 5963.68   48.31
  -1  -3  -2 3634.56   23.89
  -1  -3  -2 3812.27   26.15
   1  -3   2 3771.31   29.23
   1  -3   2 3887.88   26.85
   1   3   2 3954.18   27.05
  -1  -3  -3 2799.31   22.83
   1  -3   3 3018.53   22.06
   1  -3   3 2922.31   23.04
   1   3   3 2782.15   22.79
  -1  -3  -4 2595.11   23.85
   1  -3   4 2692.13   22.22
   1  -3   4 2804.77   23.63
   1   3   4 2410.88   22.47
   1  -3   5 2330.06   21.92
   1  -3   5 2780.64   24.63
   1   3   5 2233.03   23.04
   1  -3   6  928.93   13.75
   1   3   6  950.69   15.10
   1  -3   7  899.17   14.49
   1   3   7  943.05   16.06
  -1  -5   7  996.08   16.92
  -1   5   7  747.91   14.54
  -1  -5   6  847.48   14.24
  -1   5   6  670.21   12.76
  -1  -5   5 1065.19   15.50
  -1   5   5  918.10   13.95
  -1  -5   4 1906.20   20.71
  -1   5   4 1947.50   19.86
  -1  -5   3 2055.69   20.59
  -1   5   3 2260.44   20.17
   1  -5  -3 2010.51   21.17
  -1  -5   2 2078.08   19.51
  -1  -5   2 2272.76   16.16
  -1   5   2 2070.15   17.63
   1  -5  -2 1876.59   14.89
   1  -5  -2 1947.83   19.06
   1   5  -2 2167.40   16.75
  -1  -5   1 4091.02   29.33
  -1  -5   1 4532.18   35.44
  -1   5   1 4267.90   28.26
   1  -5  -1 3879.38   29.05
   1  -5  -1 4078.55   29.15
   1   5  -1 4590.71   29.41
  -1  -5   0 3640.91   25.46
  -1  -5   0 3858.70   25.89
  -1   5   0 3808.51   25.15
   1  -5   0 3462.03   24.88
   1  -5   0 3761.24   25.50
   1   5   0 4256.24   27.13
  -1  -5  -1 2755.24   19.60
  -1  -5  -1 2968.70   22.53
  -1   5  -1 2967.00   20.75
   1  -5   1 2940.08   23.24
   1   5   1 3244.57   23.38
  -1  -5  -2 1642.77   12.81
  -1  -5  -2 1757.58   17.12
   1  -5   2 1775.49   17.67
   1   5   2 1858.05   17.30
  -1  -5  -3 2722.35   24.65
   1  -5   3 2935.15   22.57
   1  -5   3 2746.00   24.76
   1   5   3 3016.35   25.84
  -1  -5  -4 1268.32   16.94
   1  -5   4 1433.59   15.30
   1  -5   4 1258.20   16.24
   1   5   4 1305.71   16.66
  -1  -5  -5 1121.17   17.31
   1  -5   5 1308.66   17.45
   1   5   5 1111.58   16.42
   1  -5   6 1313.29   18.21
   1   5   6 1095.59   17.46
  -1  -7   5 1038.35   17.07
  -1   7   5 1018.30   16.39
  -1  -7   4  824.08   14.43
  -1   7   4  879.39   14.10
  -1  -7   3 1600.40   19.81
  -1   7   3 1755.86   19.47
   1  -7  -3 1529.93   20.35
  -1  -7   2 1395.87   17.24
  -1   7   2 1487.98   16.52
   1  -7  -2 1317.97   13.66
   1  -7  -2 1313.49   17.36
  -1  -7   1 1392.76   16.12
  -1   7   1 1460.57   15.45
   1  -7  -1 1310.06   14.14
  -1  -7   0 1507.21   15.82
   1  -7   0 1470.85   15.95
  -1  -7  -1 2065.65   18.25
  -1  -7  -1 2132.73   20.91
   1  -7   1 2067.41   20.79
  -1  -7  -2 1355.56   17.08
   1  -7   2 1347.60   17.07
  -1  -7  -3 1534.80   19.77
   1  -7   3 1481.43   19.08
   1   7   3 1709.81   20.17
  -1  -7  -4  697.61   13.89
   1  -7   4  667.40   13.00
   1   7   4  750.45   13.70
  -1  -7  -5  871.19   16.84
   1  -7   5  934.99   16.28
   1   7   5  916.65   16.31
  -1  -9   2  839.23   14.71
  -1  -9   1 1020.44   15.37
   1  -9  -1  972.91   13.75
  -1  -9   0  698.02   11.73
   1  -9   0  680.25   11.90
   1  -9   1  896.03   14.60
   1  -9   2  649.83   13.03
  -2   0   8  971.18   15.29
  -2   0   7 1218.94   16.22
  -2   0   6 2105.36   20.88
  -2   0   5 2906.93   23.96
  -2   0   5 3490.94   25.33
  -2   0   4 3952.84   27.69
  -2   0   4 4755.60   30.66
  -2   0   3 4768.65   39.04
  -2   0   3 5560.09   43.40
  -2   0   2 1042.16    8.10
  -2   0   2 1112.98    8.96
  -2   0   1 5570.18   36.50
   2   0   0 6239.93   41.82
  -2   0  -1  161.81    2.16
   2   0   1  233.56    3.43
   2   0   1  192.68    2.02
  -2   0  -2 3954.26   30.02
   2   0   2 3817.49   35.98
   2   0   2 4267.46   29.04
  -2   0  -3 5794.67   39.07
   2   0   3 5226.86   46.17
   2   0   3 6507.85   43.51
   2   0   4 2535.13   22.53
   2   0   5 1325.51   16.32
   2   0   6 2478.79   25.40
   2   0   7  789.33   14.07
  -2   2   8  918.39   15.50
  -2  -2   7 1709.47   19.25
  -2   2   7 1496.24   19.00
  -2  -2   6 1824.85   18.67
  -2  -2   6 2122.15   20.72
  -2   2   6 1545.60   17.94
  -2  -2   5 2070.20   18.66
  -2  -2   5 2459.19   21.84
  -2   2   5 1990.54   19.25
  -2  -2   4 2209.06   17.76
  -2  -2   4 2548.97   21.35
  -2   2   4 2195.91   18.72
  -2   2   4 2473.89   17.25
  -2  -2   3 5428.82   39.83
  -2  -2   3 5391.43   43.07
  -2   2   3 5207.71   40.44
  -2  -2   2 6038.23   40.62
  -2  -2   2 4732.51   44.21
  -2   2   2 5630.61   45.96
  -2  -2   1 5370.82   43.21
  -2   2   1 5994.54   46.45
   2  -2  -1 5829.06   45.85
  -2  -2   0 7721.52   57.42
  -2  -2   0 8282.58   60.11
   2  -2   0 7850.66   59.41
   2   2   0 7039.58   48.24
  -2  -2  -1 9786.10   59.80
  -2  -2  -1 9258.49   69.21
   2  -2   1 8581.55   63.86
   2  -2   1 9996.12   75.22
   2   2   1 8101.56   63.28
  -2  -2  -2 5877.72   48.01
   2  -2   2 6144.77   51.40
   2  -2   2 6370.74   51.93
   2   2   2 5531.93   47.84
  -2  -2  -3 2301.14   19.00
   2  -2   3 2293.25   18.80
   2  -2   3 2408.32   18.81
   2   2   3 2203.41   19.71
  -2  -2  -4 2941.91   24.88
   2  -2   4 3034.23   24.89
   2  -2   4 3242.00   24.62
   2   2   4 3078.61   26.56
   2  -2   5 1699.85   18.58
   2   2   5 1845.79   20.60
   2  -2   6 1473.27   18.36
   2   2   6 1552.31   19.87
   2  -2   7  782.04   13.80
   2   2   7  820.12   14.87
  -2  -4   7 1134.32   16.44
  -2   4   7  802.42   14.26
  -2  -4   6 1061.67   15.29
  -2   4   6  821.83   13.35
  -2  -4   5 2638.04   25.23
  -2   4   5 2347.71   22.66
  -2  -4   4 2188.89   21.51
  -2   4   4 2168.73   19.86
  -2  -4   3 2646.44   23.15
  -2   4   3 3000.92   22.92
  -2  -4   2 4044.86   29.55
  -2   4   2 4437.44   36.93
   2  -4  -2 4024.48   33.26
   2   4  -2 4864.21   31.45
  -2  -4   1 5549.47   42.39
  -2  -4   1 6003.67   46.09
  -2   4   1 5512.19   42.20
   2  -4  -1 5273.69   39.73
   2  -4  -1 4625.25   31.65
   2   4  -1 6324.28   42.33
  -2  -4   0 2504.33   18.22
  -2  -4   0 2556.58   18.09
  -2   4   0 2409.38   17.08
   2  -4   0 2278.88   17.50
   2  -4   0 2058.27   15.72
   2   4   0 2917.73   19.18
  -2  -4  -1 3197.03   21.94
  -2  -4  -1 3344.48   23.31
   2  -4   1 3289.30   23.96
   2   4   1 3634.38   24.96
  -2  -4  -2 2254.77   14.75
  -2  -4  -2 2449.58   19.94
   2  -4   2 2294.18   17.76
   2  -4   2 2530.50   21.03
   2   4   2 2425.98   20.43
  -2  -4  -3 1469.45   15.71
   2  -4   3 1522.95   14.69
   2  -4   3 1471.01   15.82
   2   4   3 1431.39   16.04
  -2  -4  -4 2156.32   21.89
   2  -4   4 2324.80   21.08
   2  -4   4 2143.25   21.15
   2   4   4 2075.80   21.77
  -2  -4  -5 1201.44   17.09
   2  -4   5 1353.18   16.43
   2  -4   5 1474.63   17.74
   2   4   5 1348.72   18.16
   2  -4   6  948.71   14.53
   2   4   6 1010.62   16.54
   2  -4   7  929.66   16.57
  -2  -6   6 1182.21   18.06
  -2   6   6 1009.87   16.28
  -2  -6   5 1388.86   19.04
  -2   6   5 1318.60   17.53
  -2  -6   4 1105.37   16.04
  -2   6   4 1118.62   14.77
  -2  -6   3 2586.88   25.19
  -2   6   3 2669.88   23.42
  -2  -6   2 1618.26   17.79
  -2   6   2 1542.12   15.49
   2  -6  -2 1482.91   14.05
   2  -6  -2 1435.70   17.56
  -2  -6   1 1738.98   17.34
  -2  -6   1 1843.36   15.92
  -2   6   1 1719.67   15.83
   2  -6  -1 1640.44   15.47
   2  -6  -1 1471.51   18.19
  -2  -6   0 1979.60   17.53
  -2  -6   0 1973.68   17.40
  -2   6   0 1942.80   16.78
   2  -6   0 1870.49   17.59
  -2  -6  -1 2286.83   18.10
  -2  -6  -1 2415.35   21.02
  -2   6  -1 2342.39   19.19
   2  -6   1 2270.97   20.98
  -2  -6  -2 1860.76   19.02
  -2   6  -2 1997.16   17.85
   2  -6   2 1826.96   19.39
   2   6   2 2078.46   20.43
  -2  -6  -3 1725.70   19.64
   2  -6   3 2033.47   19.13
   2  -6   3 1714.14   19.75
   2   6   3 1932.59   21.10
  -2  -6  -4 1289.20   18.04
   2  -6   4 1270.65   17.51
   2   6   4 1248.07   17.59
  -2  -6  -5  956.79   16.70
   2  -6   5 1089.84   16.85
   2   6   5 1033.03   16.99
   2   6   6  818.62   15.97
  -2  -8   4  738.39   14.44
  -2   8   4  782.00   13.91
  -2  -8   3 1195.05   17.77
  -2   8   3 1237.77   16.81
  -2  -8   2  860.28   13.97
  -2   8   2  938.64   13.64
   2  -8  -2  806.07   11.31
  -2  -8   1 1590.73   18.51
   2  -8  -1 1448.71   16.45
  -2  -8   0 1431.46   16.28
   2  -8   0 1351.05   16.52
  -2  -8  -1 1187.85   16.18
   2  -8   1 1119.37   15.67
  -2  -8  -2 1022.44   15.79
   2  -8   2 1012.87   15.69
  -2  -8  -3 1092.54   17.54
   2  -8   3 1034.99   16.77
  -2  -8  -4  619.99   14.28
  -3  -1   8  994.36   14.91
  -3   1   8  924.27   14.93
  -3  -1   7 1140.03   15.02
  -3   1   7 1027.71   14.71
  -3  -1   6 3077.34   25.85
  -3  -1   6 3447.00   27.65
  -3   1   6 2595.56   23.70
  -3  -1   5 2628.98   21.59
  -3  -1   5 2973.45   23.93
  -3   1   5 2596.17   21.92
  -3   1   5 2998.61   22.19
  -3  -1   4 4153.47   27.86
  -3  -1   4 4773.33   36.15
  -3   1   4 4465.29   39.03
  -3   1   4 5078.57   37.81
  -3  -1   3 4470.35   32.38
  -3  -1   3 4989.35   42.39
  -3   1   3 5195.31   42.12
  -3  -1   2 7167.49   47.88
  -3  -1   2 6923.22   59.08
  -3   1   2 7140.70   53.64
  -3  -1   1 2575.14   19.27
  -3   1   1 2745.71   22.43
  -3  -1   0 7733.20   56.01
   3  -1   0 8861.96   62.70
   3   1   0 8480.98   57.09
  -3  -1  -1 2336.13   14.03
  -3  -1  -1 2381.43   15.48
  -3   1  -1 2452.05   15.78
   3  -1   1 2402.02   20.39
   3  -1   1 2468.30   17.31
   3   1   1 2362.73   16.64
  -3  -1  -2 5114.94   41.95
  -3   1  -2 5365.24   37.84
   3  -1   2 5087.56   42.70
   3  -1   2 5539.47   40.70
   3   1   2 4923.86   32.44
  -3  -1  -3 3419.91   24.33
   3  -1   3 3321.33   25.30
   3  -1   3 3676.86   24.00
   3   1   3 3208.07   25.52
  -3  -1  -4 2864.43   23.73
   3  -1   4 2857.25   24.70
   3   1   4 3052.30   26.55
   3  -1   5 1537.37   18.11
   3   1   5 1735.10   19.97
   3  -1   6 1377.88   18.24
   3   1   6 1478.75   19.43
   3  -1   7  751.48   13.95
   3   1   7  787.28   14.63
  -3   3   8  999.48   16.42
  -3  -3   7 1679.79   19.76
  -3   3   7 1202.53   16.91
  -3  -3   6 1245.90   16.01
  -3   3   6  980.07   13.89
  -3  -3   5 1283.49   15.61
  -3   3   5 1146.98   13.83
  -3  -3   4 2495.15   18.23
  -3  -3   4 2420.24   22.02
  -3   3   4 2357.86   19.80
  -3  -3   3 1526.44   10.65
  -3  -3   3 1467.27   15.28
  -3   3   3 1454.08   13.13
  -3  -3   2 5352.40   47.15
  -3   3   2 5783.56   44.95
  -3  -3   1 5076.66   42.55
  -3   3   1 5440.36   42.30
   3  -3  -1 5036.02   42.92
  -3  -3   0 7131.97   57.00
  -3  -3   0 7222.35   56.70
   3  -3   0 6752.85   55.52
   3   3   0 5324.93   39.40
  -3  -3  -1 5351.17   37.17
  -3  -3  -1 5383.15   44.59
   3  -3   1 4917.16   43.13
   3  -3   1 5258.05   46.72
   3   3   1 4330.66   28.48
  -3  -3  -2 3713.55   29.45
   3  -3   2 3840.59   29.47
   3  -3   2 4025.12   27.95
   3   3   2 3622.07   27.02
  -3  -3  -3 1130.57   12.70
   3  -3   3 1181.67   12.85
   3  -3   3 1142.42   12.73
   3   3   3 1136.33   13.97
  -3  -3  -4 1879.53   19.24
   3  -3   4 1950.94   19.27
   3  -3   4 1907.25   18.60
   3   3   4 1990.40   21.19
  -3  -3  -5 1279.00   17.00
   3  -3   5 1335.82   16.69
   3   3   5 1487.42   19.13
   3  -3   6  925.76   14.65
   3   3   6 1062.61   16.92
   3  -3   7 1016.81   16.45
   3   3   7 1120.58   20.95
  -3  -5   7 1107.31   17.17
  -3   5   7  824.78   14.77
  -3  -5   6 1324.02   18.36
  -3   5   6 1136.07   16.29
  -3  -5   5 2516.35   25.87
  -3   5   5 2272.48   22.68
  -3  -5   4 2931.29   27.43
  -3   5   4 2978.72   25.21
  -3  -5   3 2093.05   21.17
  -3   5   3 2035.06   18.33
  -3  -5   2 2858.22   24.48
  -3  -5   2 3242.14   22.78
  -3   5   2 2715.97   21.13
   3  -5  -2 2577.97   19.70
  -3  -5   1 2863.90   22.99
  -3  -5   1 3067.68   21.97
  -3   5   1 2769.20   20.76
   3  -5  -1 2666.53   20.58
  -3  -5   0 1997.40   16.61
  -3  -5   0 2036.27   16.85
  -3   5   0 1906.72   15.87
   3  -5   0 1898.26   16.93
  -3  -5  -1 1513.04   12.56
  -3  -5  -1 1529.51   14.72
  -3   5  -1 1553.85   14.18
   3  -5   1 1523.26   15.50
   3   5   1 1704.47   16.01
  -3  -5  -2 2853.22   23.67
   3  -5   2 3003.04   23.27
   3  -5   2 2851.31   24.55
   3   5   2 2837.08   24.50
  -3  -5  -3 2179.47   21.35
   3  -5   3 2382.25   21.14
   3  -5   3 2206.24   21.94
   3   5   3 2246.41   22.75
  -3  -5  -4 1291.56   17.06
   3  -5   4 1406.88   16.47
   3  -5   4 1265.67   16.64
   3   5   4 1362.28   18.19
  -3  -5  -5 1098.00   17.11
   3  -5   5 1256.83   16.71
   3  -5   5 1255.23   17.40
   3   5   5 1241.57   18.48
   3  -5   6  857.66   14.68
   3   5   6  911.10   16.61
  -3  -7   5  681.63   13.74
  -3   7   5  677.78   12.68
  -3  -7   4  836.86   14.65
  -3   7   4  854.32   13.37
  -3  -7   3 1832.94   21.61
  -3   7   3 1844.84   19.55
  -3  -7   2 1265.10   16.40
  -3   7   2 1192.49   14.33
   3  -7  -2 1121.73   13.09
  -3  -7   1 1208.06   14.84
  -3  -7   1 1179.96   13.47
  -3   7   1 1138.56   13.48
   3  -7  -1 1073.68   13.16
  -3  -7   0 2185.00   19.83
  -3  -7   0 2196.62   20.49
  -3   7   0 2117.72   19.52
   3  -7   0 2014.66   20.06
  -3  -7  -1 1552.64   17.37
  -3   7  -1 1659.29   16.95
   3  -7   1 1528.18   17.82
  -3  -7  -2 1037.76   14.68
  -3   7  -2 1133.30   15.54
   3  -7   2 1024.36   15.02
  -3  -7  -3 1241.27   17.47
   3  -7   3 1214.54   17.47
  -3  -7  -4  850.64   15.39
   3  -7   4  853.40   15.16
  -3  -9   2 1016.89   16.25
   3  -9  -2  877.49   13.07
  -3  -9   1  971.17   14.82
   3  -9  -1  883.03   13.58
   3  -9   0  771.51   13.20
   3  -9   1  780.49   14.00
  -4   0   8  966.67   14.70
  -4   0   7  835.38   12.58
  -4   0   6 2774.87   23.92
  -4   0   6 3235.04   25.91
  -4   0   5 3032.82   23.52
  -4   0   5 3461.74   25.97
  -4   0   4 4155.72   32.50
  -4   0   4 4474.50   36.46
  -4   0   3 4978.90   38.02
  -4   0   3 5232.27   42.30
  -4   0   2 5734.86   42.24
  -4   0   2 6069.86   51.39
  -4   0   1 6060.40   41.92
   4   0   0 3347.02   25.26
  -4   0  -1 3015.11   20.34
   4   0   1 2978.26   19.99
  -4   0  -2 5537.06   40.91
   4   0   2 5438.61   41.33
  -4   0  -3 5083.46   32.43
   4   0   3 4978.12   35.17
  -4   0  -4 1750.97   16.77
   4   0   4 1689.35   18.39
   4   0   5 2144.25   22.93
   4   0   6 1638.06   20.87
   4   0   7  554.71   12.36
  -4   2   8 1173.57   17.21
  -4  -2   7 1598.89   18.60
  -4   2   7 1215.70   16.28
  -4  -2   6 1753.42   18.88
  -4   2   6 1395.01   16.19
  -4  -2   5 1530.48   14.45
  -4  -2   5 1658.28   17.47
  -4   2   5 1540.37   15.64
  -4   2   5 1656.84   14.80
  -4  -2   4 3299.58   22.38
  -4  -2   4 3566.41   27.66
  -4   2   4 3414.04   24.56
  -4  -2   3 3287.56   20.04
  -4  -2   3 3671.14   27.15
  -4   2   3 3612.56   23.97
  -4   2   2 4216.88   36.92
  -4  -2   1 4249.28   35.25
  -4   2   1 5082.31   41.85
  -4  -2   0 5347.72   40.85
  -4  -2   0 5691.48   45.59
   4  -2   0 5568.24   43.82
   4  -2   0 5605.47   44.31
   4   2   0 6068.76   43.84
  -4  -2  -1 4959.44   32.03
  -4  -2  -1 4598.36   38.64
   4  -2   1 4285.42   36.81
   4  -2   1 4781.41   38.67
   4   2   1 4442.93   35.71
  -4  -2  -2 1742.00   14.47
   4  -2   2 1743.40   15.22
   4  -2   2 1927.12   15.58
   4   2   2 1523.44   14.90
  -4  -2  -3 1985.07   17.37
   4  -2   3 1981.62   18.28
   4  -2   3 2061.13   17.33
   4   2   3 1814.90   18.41
  -4  -2  -4 1656.92   17.20
   4  -2   4 1628.86   17.74
   4   2   4 1705.42   19.28
  -4  -2  -5 1258.58   16.35
   4  -2   5 1274.10   16.69
   4   2   5 1457.09   18.91
   4  -2   6  817.54   14.07
   4   2   6  902.91   15.49
  -4  -4   7 1376.34   18.64
  -4   4   7 1088.12   16.29
  -4  -4   6 1878.43   21.60
  -4   4   6 1583.72   18.62
  -4  -4   5 2293.09   23.55
  -4   4   5 2122.85   20.55
  -4  -4   4 2028.26   21.00
  -4   4   4 1945.87   18.01
  -4  -4   3 1797.30   18.64
  -4   4   3 1844.58   16.21
  -4  -4   2 3640.69   28.18
  -4   4   2 3589.37   24.84
  -4  -4   1 3873.52   27.87
  -4  -4   1 4148.92   27.19
  -4   4   1 3593.20   29.68
   4  -4  -1 3562.08   27.91
  -4  -4   0 2334.36   17.82
  -4  -4   0 2315.89   17.82
  -4   4   0 2162.49   16.85
   4  -4   0 2123.34   17.52
   4   4   0 1695.98   13.41
  -4  -4  -1 4523.47   27.30
  -4  -4  -1 4381.36   33.06
   4  -4   1 3916.04   26.90
   4  -4   1 4498.96   31.27
   4   4   1 3859.66   27.44
  -4  -4  -2 2740.80   22.08
   4  -4   2 2758.46   21.90
   4  -4   2 2807.86   23.29
   4   4   2 2638.12   22.94
  -4  -4  -3 2333.12   21.31
   4  -4   3 2362.66   21.18
   4  -4   3 2332.61   21.73
   4   4   3 2425.80   23.56
  -4  -4  -4 1557.02   18.15
   4  -4   4 1688.16   18.57
   4  -4   4 1560.31   17.91
   4   4   4 1750.47   20.79
  -4  -4  -5 1172.46   17.04
   4  -4   5 1252.78   16.88
   4   4   5 1392.37   19.50
  -4  -4  -6  656.38   13.76
   4  -4   6  670.09   12.91
   4   4   6  772.06   15.06
  -4  -6   6 1134.98   17.87
  -4   6   6  972.38   15.45
  -4  -6   5 1147.81   17.38
  -4   6   5 1099.47   15.33
  -4  -6   4 1450.60   19.02
  -4   6   4 1491.46   17.04
  -4  -6   3 2535.76   25.31
  -4   6   3 2399.78   21.63
  -4  -6   2 1541.51   17.64
  -4  -6   2 1670.97   15.75
  -4   6   2 1436.65   14.97
  -4  -6   1 2000.18   19.22
  -4  -6   1 1954.76   17.57
  -4   6   1 1776.60   16.69
   4  -6  -1 1712.10   16.73
  -4  -6   0 2040.55   17.96
  -4  -6   0 1973.09   18.16
  -4   6   0 1857.45   17.18
   4  -6   0 1838.28   18.16
  -4  -6  -1 1990.54   19.08
  -4   6  -1 1964.90   18.23
   4  -6   1 1949.60   19.76
  -4  -6  -2 1083.40   14.08
  -4   6  -2 1157.97   13.83
   4  -6   2 1044.61   14.48
  -4  -6  -3 1667.97   19.49
   4  -6   3 1836.61   19.43
   4  -6   3 1666.90   20.04
  -4  -6  -4  986.36   15.74
   4  -6   4 1130.97   15.70
   4  -6   4  947.46   15.36
  -4  -6  -5  864.46   16.01
   4  -6   5 1002.98   16.75
   4  -6   5 1006.40   16.61
   4   6   5 1068.36   18.20
  -4  -8   4  787.15   15.08
  -4   8   4  785.98   13.60
  -4  -8   3 1127.57   17.39
  -4   8   3 1058.01   15.20
  -4  -8   2 1063.77   15.81
  -4   8   2  986.92   14.04
  -4  -8   1 1523.53   18.06
  -4   8   1 1465.46   17.22
   4  -8  -1 1341.79   16.46
  -4  -8   0  996.60   14.17
  -4   8   0  969.97   13.54
   4  -8   0  907.41   13.77
  -4  -8  -1  961.42   14.58
   4  -8   1  896.26   14.39
  -4  -8  -2  712.61   13.16
   4  -8   2  666.82   12.98
  -4  -8  -3  852.66   15.47
   4  -8   3  778.66   16.89
  -5   1   8  877.89   14.09
  -5  -1   7 1468.68   17.31
  -5   1   7 1164.74   15.24
  -5  -1   6 2243.44   20.10
  -5  -1   6 2399.94   22.39
  -5   1   6 2148.21   20.25
  -5   1   6 2385.88   20.91
  -5  -1   5 1522.04   14.23
  -5  -1   5 1774.46   17.64
  -5   1   5 1753.98   16.22
  -5   1   5 1908.76   17.10
  -5  -1   4 2286.41   16.83
  -5  -1   4 2501.19   20.99
  -5   1   4 2378.07   18.13
  -5   1   4 2579.89   19.89
  -5  -1   3 5182.22   37.47
  -5  -1   3 5256.54   38.07
  -5   1   3 4905.60   37.19
  -5  -1   2 4895.39   33.42
  -5   1   2 4886.37   39.99
  -5  -1   1 4250.66   31.77
  -5   1   1 3997.01   32.01
   5   1  -1 4234.97   28.80
  -5  -1   0 7818.11   56.40
   5  -1   0 7624.35   59.28
   5   1   0 7334.98   53.27
  -5  -1  -1 3261.48   20.39
  -5  -1  -1 3185.52   22.54
  -5   1  -1 3245.42   20.78
   5  -1   1 3078.52   21.35
   5   1   1 3168.63   21.76
  -5  -1  -2 3154.70   21.67
  -5   1  -2 3212.41   20.19
   5  -1   2 3214.27   23.95
   5  -1   2 3378.34   22.57
   5   1   2 3094.12   23.72
  -5  -1  -3 2428.95   19.38
   5  -1   3 2351.04   21.10
   5   1   3 2168.41   20.54
  -5  -1  -4 2013.22   18.97
   5  -1   4 1798.56   19.46
   5   1   4 1814.95   20.04
  -5  -1  -5 1080.08   14.65
   5  -1   5 1011.00   15.15
   5   1   5 1175.85   16.85
   5  -1   6 1272.40   18.47
   5   1   6 1366.50   19.58
  -5  -3   8 1202.94   17.33
  -5   3   8  930.64   15.42
  -5  -3   7 1732.84   20.64
  -5   3   7 1422.50   18.09
  -5  -3   6 1474.65   18.14
  -5   3   6 1275.40   15.61
  -5  -3   5 3442.91   29.63
  -5   3   5 3361.25   26.65
  -5  -3   4 3755.34   30.44
  -5   3   4 3713.81   26.89
  -5  -3   3 2616.77   22.99
  -5   3   3 2579.89   19.51
  -5  -3   2 3210.41   25.32
  -5   3   2 3357.69   22.90
  -5  -3   1 3585.13   26.07
  -5   3   1 3541.36   28.43
  -5  -3   0 2466.28   18.45
  -5  -3   0 2463.61   18.23
   5  -3   0 2072.05   16.11
   5  -3   0 2333.19   18.18
   5   3   0 2451.78   16.38
  -5  -3  -1 3439.61   21.87
  -5  -3  -1 3223.70   22.93
   5  -3   1 3033.69   22.18
   5  -3   1 3393.69   24.62
   5   3   1 3257.97   23.42
  -5  -3  -2 3100.80   23.38
   5  -3   2 3061.98   23.75
   5  -3   2 3143.96   24.27
   5   3   2 2752.38   23.09
  -5  -3  -3 1803.00   17.45
   5  -3   3 1816.69   18.18
   5  -3   3 1800.95   17.62
   5   3   3 1714.49   18.74
  -5  -3  -4 2153.69   21.38
   5  -3   4 2130.33   21.79
   5   3   4 2227.42   23.78
  -5  -3  -5 1013.42   15.21
   5  -3   5  983.11   15.04
   5   3   5 1140.82   17.36
  -5  -3  -6  753.53   14.38
   5  -3   6  715.57   13.63
   5   3   6  866.92   15.93
  -5  -5   7  998.79   16.54
  -5   5   7  810.94   14.28
  -5  -5   6 1122.85   17.11
  -5   5   6 1063.89   15.30
  -5  -5   5 1773.86   21.45
  -5   5   5 1648.97   18.26
  -5  -5   4 1029.32   15.14
  -5   5   4  984.88   12.56
  -5  -5   3 1626.85   18.78
  -5   5   3 1578.94   15.68
  -5  -5   2 2385.44   22.48
  -5   5   2 2072.40   17.99
  -5  -5   1 2586.04   22.13
  -5  -5   1 2586.97   20.65
  -5   5   1 2234.18   18.66
   5  -5  -1 2301.86   19.65
  -5  -5   0 1730.30   15.50
  -5  -5   0 1665.22   15.67
  -5   5   0 1533.36   14.72
   5  -5   0 1553.91   15.76
  -5  -5  -1 2549.21   21.52
  -5   5  -1 2470.61   20.80
   5  -5   1 2520.63   22.44
  -5  -5  -2 2280.36   21.07
   5  -5   2 2369.88   21.29
   5  -5   2 2259.84   21.98
  -5  -5  -3 1199.78   15.33
   5  -5   3 1237.30   15.30
   5  -5   3 1157.20   15.58
   5   5   3 1255.56   16.87
  -5  -5  -4 1067.77   15.68
   5  -5   4 1147.46   15.85
   5  -5   4 1057.45   15.65
   5   5   4 1189.47   17.71
  -5  -5  -5  928.32   15.94
   5  -5   5 1013.49   15.94
   5   5   5 1147.28   18.57
  -5  -7   5  962.40   16.79
  -5   7   5  901.40   14.48
  -5  -7   4 1202.51   18.22
  -5   7   4 1208.25   16.04
  -5  -7   3 2251.92   24.90
  -5   7   3 2047.12   20.89
  -5  -7   2 1207.79   16.30
  -5  -7   2 1221.44   14.44
  -5   7   2 1059.84   13.66
  -5  -7   1 1910.58   19.80
  -5  -7   1 1855.34   18.76
  -5   7   1 1670.23   17.60
   5  -7  -1 1636.50   17.84
  -5  -7   0 1852.59   19.21
  -5   7   0 1759.24   18.27
   5  -7   0 1653.49   18.64
  -5  -7  -1  923.27   13.36
  -5   7  -1  888.23   12.58
   5  -7   1  882.03   13.67
  -5  -7  -2  762.20   12.77
  -5   7  -2  751.76   12.03
   5  -7   2  723.98   12.99
  -5  -7  -3 1003.34   15.89
  -5   7  -3 1098.87   15.74
   5  -7   3  934.92   15.76
   5  -7   4  640.35   13.53
  -5  -9   2  705.51   13.45
  -5   9   2  689.61   12.69
   5  -9  -1  634.67   13.47
  -6   0   7 1089.98   14.09
  -6   0   7 1201.88   15.23
  -6   0   6 2492.88   21.55
  -6   0   6 2667.44   23.65
  -6   0   5  857.53    9.97
  -6   0   5  915.38   11.62
  -6   0   4 1267.90   11.26
  -6   0   4 1355.72   13.86
  -6   0   3 3016.95   21.06
  -6   0   3 3230.62   23.70
  -6   0   2 6395.52   46.73
   6   0  -1 3520.40   24.94
   6   0   0 6864.51   53.25
  -6   0  -1 3473.14   22.02
   6   0   1 3349.79   23.29
  -6   0  -2 2807.71   19.48
   6   0   2 2763.56   22.18
  -6   0  -3  961.76   10.40
   6   0   3  911.39   12.37
   6   0   4  781.56   12.56
   6   0   5 1004.97   15.67
   6   0   6  872.37   15.59
  -6  -2   8 1174.35   16.77
  -6   2   8  892.97   14.49
  -6  -2   7 1249.85   16.72
  -6   2   7 1087.79   14.89
  -6  -2   6 1872.89   20.34
  -6   2   6 1775.74   18.22
  -6   2   6 1871.46   18.07
  -6  -2   5 2929.03   25.96
  -6   2   5 2944.15   23.42
  -6   2   5 3043.19   23.83
  -6  -2   4 4903.84   35.93
  -6   2   4 4910.52   32.26
  -6  -2   3 2246.37   20.21
  -6   2   3 2227.33   16.94
  -6  -2   2 3411.76   25.89
  -6   2   2 3333.15   24.57
  -6  -2   1 2796.37   21.59
  -6   2   1 2707.44   18.94
   6   2  -1 2910.47   17.96
  -6  -2   0 3654.94   25.08
  -6  -2   0 3792.74   25.01
   6  -2   0 3475.52   23.52
   6   2   0 3555.10   23.60
  -6  -2  -1 2144.18   16.74
   6  -2   1 2016.03   16.74
   6   2   1 2208.08   17.39
  -6  -2  -2 3399.37   24.49
   6  -2   2 3243.93   25.10
   6  -2   2 3445.48   25.23
   6   2   2 3202.71   25.27
  -6  -2  -3 2731.19   22.37
   6  -2   3 2552.53   23.07
   6   2   3 2402.02   22.89
  -6  -2  -4 2194.38   21.12
   6  -2   4 2070.13   21.91
   6   2   4 2082.27   22.76
  -6  -2  -5 1181.34   16.19
   6  -2   5 1093.96   16.36
   6   2   5 1261.98   18.34
   6  -2   6  785.84   14.71
   6   2   6  891.95   16.24
  -6  -4   8  862.51   15.29
  -6  -4   7 1431.55   19.59
  -6   4   7 1238.71   17.16
  -6  -4   6 1455.40   19.17
  -6   4   6 1319.54   16.42
  -6  -4   5 1690.35   20.22
  -6   4   5 1584.99   16.95
  -6  -4   4 2299.48   23.53
  -6   4   4 2199.98   19.52
  -6  -4   3 1913.09   20.22
  -6   4   3 1942.64   17.12
  -6  -4   2 3128.32   26.46
  -6   4   2 2851.26   21.67
  -6  -4   1 2011.09   18.60
  -6  -4   1 2045.92   17.27
  -6   4   1 1833.03   15.89
  -6  -4   0 2210.69   18.08
  -6  -4   0 2082.47   17.67
  -6   4   0 1931.33   16.77
   6  -4   0 2017.14   18.11
  -6  -4  -1 2378.94   19.95
   6  -4   1 2192.88   19.04
   6  -4   1 2343.38   20.79
  -6  -4  -2 2061.23   19.10
   6  -4   2 2020.79   19.19
   6  -4   2 2068.19   20.12
   6   4   2 1851.16   18.67
  -6  -4  -3 1369.32   15.95
   6  -4   3 1323.72   16.02
   6  -4   3 1365.85   16.51
   6   4   3 1347.83   17.14
  -6  -4  -4 1282.43   16.77
   6  -4   4 1277.82   17.00
   6   4   4 1351.55   18.70
  -6  -4  -5  855.95   14.80
   6  -4   5  835.90   14.52
   6   4   5  983.44   16.87
  -6  -6   6 1020.87   17.29
  -6   6   6  916.97   14.74
  -6  -6   5  975.25   16.34
  -6   6   5  942.61   13.95
  -6  -6   4 1246.43   18.03
  -6   6   4 1220.92   15.18
  -6  -6   3 1896.76   21.90
  -6  -6   3 2154.60   20.31
  -6   6   3 1751.00   17.99
  -6  -6   2 1789.28   19.95
  -6  -6   2 1857.33   18.15
  -6   6   2 1524.42   16.08
  -6  -6   1 2313.01   21.71
  -6  -6   1 2205.67   20.25
  -6   6   1 1852.88   18.01
  -6  -6   0 2528.83   22.51
  -6   6   0 2271.00   20.78
   6  -6   0 2385.40   22.63
  -6  -6  -1 1215.13   14.86
  -6   6  -1 1195.15   14.48
   6  -6   1 1211.65   15.73
  -6  -6  -2  888.86   13.18
   6  -6   2  858.98   13.72
  -6  -6  -3 1056.27   15.55
   6  -6   3 1142.63   15.91
   6  -6   3  990.13   15.67
  -6  -6  -4  598.13   12.46
   6  -6   4  639.85   12.46
   6  -6   4  599.15   12.62
  -6  -8   4  852.07   16.09
  -6   8   4  782.87   13.57
  -6  -8   3 1037.69   16.98
  -6   8   3  908.50   14.12
  -6  -8   2  984.30   15.45
  -6   8   2  869.91   13.44
  -6  -8   1  941.40   14.03
  -6   8   1  897.88   13.56
  -6  -8   0  846.21   13.58
  -6   8   0  803.61   12.89
   6  -8   0  768.49   13.29
  -6  -8  -1  925.13   14.85
  -6   8  -1  944.24   14.48
   6  -8   1  844.65   14.68
  -6   8  -2 1004.68   15.62
  -7  -1   8 1196.02   16.77
  -7   1   8  953.22   15.36
  -7  -1   7 1497.68   18.28
  -7   1   7 1407.36   16.61
  -7   1   7 1537.46   17.63
  -7  -1   6 2203.28   22.10
  -7   1   6 2256.49   20.43
  -7   1   6 2336.92   21.73
  -7  -1   5 1610.18   17.44
  -7   1   5 1649.57   15.30
  -7   1   5 1670.60   16.73
  -7  -1   4 2916.23   24.47
  -7   1   4 2785.31   20.33
  -7   1   4 2947.31   23.30
  -7  -1   3 3667.90   23.08
  -7  -1   3 3798.53   28.45
  -7   1   3 3509.89   23.17
  -7  -1   2 2742.62   18.05
  -7  -1   2 3003.74   23.31
  -7   1   2 2693.81   18.52
  -7  -1   1 4150.14   28.74
   7  -1  -1 3945.65   32.80
   7   1  -1 3728.06   25.82
  -7  -1   0 4590.35   30.34
  -7  -1   0 4615.14   33.45
   7  -1   0 4057.63   26.63
   7   1   0 4235.12   31.86
  -7  -1  -1 3244.31   22.41
  -7   1  -1 3495.36   21.93
   7  -1   1 3037.20   22.66
   7   1   1 3281.55   23.53
  -7  -1  -2 2187.75   17.58
   7  -1   2 2055.85   18.85
   7   1   2 2096.79   19.08
  -7  -1  -3 2221.35   19.10
   7  -1   3 2009.99   20.34
   7   1   3 1971.95   20.31
   7  -1   4 1032.27   15.06
   7   1   4  985.62   14.90
   7  -1   5  800.54   14.23
   7   1   5  849.73   14.91
  -7  -3   8 1095.23   17.05
  -7   3   8  929.94   15.18
  -7  -3   7 1083.89   16.39
  -7   3   7  967.97   14.31
  -7  -3   6 1435.03   18.53
  -7   3   6 1301.07   15.57
  -7   3   6 1352.39   15.26
  -7  -3   5 2636.51   25.82
  -7   3   5 2597.89   22.28
  -7  -3   4 2502.35   24.20
  -7   3   4 2542.69   20.72
  -7  -3   3 1711.54   18.50
  -7   3   3 1654.32   14.86
  -7  -3   2 2351.49   21.69
  -7   3   2 2499.98   19.26
  -7  -3   1 2252.29   20.09
  -7   3   1 2180.63   17.55
  -7  -3   0 1263.82   12.87
  -7  -3   0 1279.19   12.66
   7  -3   0 1154.98   11.96
  -7  -3  -1 2495.28   20.22
   7  -3   1 2265.22   19.48
   7   3   1 2499.79   19.67
  -7  -3  -2 2018.57   18.38
   7  -3   2 1881.10   18.49
   7  -3   2 2043.42   19.47
   7   3   2 1937.92   18.80
  -7  -3  -3 1709.65   17.74
   7  -3   3 1603.90   18.18
   7   3   3 1567.72   18.40
  -7  -3  -4 1442.04   17.48
   7  -3   4 1405.00   18.25
   7   3   4 1374.22   18.69
  -7  -3  -5 1027.78   15.93
   7  -3   5  961.18   15.95
   7   3   5 1106.51   17.88
  -7  -5   7  983.20   16.88
  -7   5   7  840.03   14.38
  -7  -5   6 1269.64   18.90
  -7   5   6 1142.63   15.80
  -7  -5   5 1401.31   19.39
  -7   5   5 1280.92   15.75
  -7  -5   4 1384.57   18.65
  -7   5   4 1330.46   15.20
  -7  -5   3 2680.00   26.55
  -7   5   3 2554.80   22.02
  -7  -5   2 2884.85   26.52
  -7   5   2 2438.76   20.94
  -7  -5   1 2723.66   23.96
  -7  -5   1 2591.21   22.04
  -7   5   1 2231.17   19.73
  -7  -5   0 1952.87   18.53
  -7   5   0 1728.75   17.08
  -7  -5  -1 2422.01   21.94
  -7   5  -1 2235.28   20.92
   7  -5   1 2389.93   23.06
  -7  -5  -2  921.64   12.90
   7  -5   2  937.61   13.21
   7  -5   2  946.67   14.05
  -7  -5  -3  827.02   13.08
   7  -5   3  834.00   13.34
   7  -5   3  805.32   13.60
  -7  -5  -4  751.16   13.51
   7  -5   4  781.03   13.87
  -7  -7   5  929.89   16.99
  -7   7   5  857.70   14.12
  -7  -7   4  877.46   15.87
  -7   7   4  812.05   13.03
  -7  -7   3 1136.97   17.39
  -7  -7   3 1220.88   15.75
  -7   7   3  957.37   13.71
  -7  -7   2  756.45   13.01
  -7  -7   2  740.31   11.76
  -7   7   2  606.89   10.47
  -7  -7   1 1373.29   16.68
  -7   7   1 1239.94   15.52
  -7  -7   0 1070.27   14.74
  -7   7   0 1026.67   14.18
   7  -7   0  979.15   14.67
  -7  -7  -1  942.67   14.24
  -7   7  -1  926.81   13.87
   7  -7   1  902.73   14.72
  -7  -7  -2  892.72   14.57
  -7   7  -2  936.27   14.65
   7  -7   2  885.57   15.35
  -8   0   8  719.83   12.70
  -8   0   7 1165.93   15.79
  -8   0   6 2409.28   23.26
  -8   0   5 1654.24   14.73
  -8   0   5 1681.13   17.79
  -8   0   4 2779.92   19.68
  -8   0   4 2902.84   24.29
  -8   0   3 4556.36   32.56
  -8   0   3 4718.35   33.39
  -8   0   2 2259.12   15.97
   8   0  -1 1691.63   13.30
   8   0   0 3839.35   25.72
  -8   0  -1 2448.88   18.02
   8   0   1 2226.24   18.59
  -8   0  -2 2245.47   17.66
   8   0   2 2167.21   20.04
   8   0   3 1624.96   18.44
   8   0   4 1617.59   20.10
   8   0   5  793.92   14.69
  -8  -2   8 1265.84   18.25
  -8   2   8 1103.18   16.04
  -8  -2   7 1314.17   17.96
  -8   2   7 1289.30   16.18
  -8   2   7 1348.81   16.61
  -8  -2   6 1656.76   19.76
  -8   2   6 1655.09   17.30
  -8   2   6 1726.59   18.32
  -8  -2   5 2219.84   22.74
  -8   2   5 2340.70   20.08
  -8  -2   4 1894.21   19.95
  -8   2   4 1932.79   16.65
  -8  -2   3 1772.68   18.54
  -8   2   3 1647.21   14.38
  -8  -2   2 2923.83   24.80
  -8   2   2 2725.09   20.14
  -8  -2   1 2694.25   22.74
  -8   2   1 2701.88   20.23
  -8  -2   0 2205.38   19.07
  -8  -2   0 2202.78   17.90
   8  -2   0 1965.53   16.81
   8   2   0 2004.39   15.19
  -8  -2  -1 1935.13   16.79
   8  -2   1 1730.72   16.47
   8   2   1 1927.81   16.65
  -8  -2  -2 2182.97   19.03
   8  -2   2 2060.86   19.88
   8   2   2 2131.82   19.97
  -8  -2  -3 1119.51   13.50
   8  -2   3 1043.49   14.47
   8   2   3 1066.97   14.74
  -8  -2  -4 1031.35   14.17
   8  -2   4  945.86   14.97
   8   2   4  932.37   15.09
   8  -2   5  571.55   12.48
   8   2   5  624.75   13.26
  -8  -4   7 1235.79   18.71
  -8   4   7 1123.06   16.13
  -8  -4   6  777.87   14.15
  -8   4   6  722.21   11.71
  -8  -4   5 1570.60   20.24
  -8   4   5 1494.78   16.52
  -8  -4   4 2137.67   23.55
  -8   4   4 2010.55   18.84
  -8  -4   3 2239.45   23.46
  -8   4   3 2150.60   19.05
  -8  -4   2 2609.04   24.80
  -8   4   2 2355.95   19.96
  -8  -4   1 2819.45   24.69
  -8  -4   1 2817.62   23.01
  -8   4   1 2336.25   19.96
  -8  -4   0 2194.05   19.59
  -8   4   0 1856.72   17.64
  -8  -4  -1 1926.40   18.51
   8  -4   1 1830.92   18.33
  -8  -4  -2 1380.58   15.85
   8  -4   2 1280.23   15.78
  -8  -4  -3  869.98   13.06
   8  -4   3  838.25   13.44
  -8  -4  -4 1048.85   15.75
   8  -4   4 1001.71   16.02
  -8  -6   6 1022.64   18.17
  -8   6   6  938.55   15.41
  -8  -6   5 1234.12   19.30
  -8   6   5 1118.97   15.53
  -8  -6   4 1044.04   17.05
  -8   6   4  969.56   13.64
  -8  -6   3 1468.40   19.71
  -8  -6   3 1597.51   18.21
  -8   6   3 1275.35   15.43
  -8  -6   2 1051.51   15.39
  -8  -6   2 1047.32   13.92
  -8   6   2  817.83   11.80
  -8  -6   1 1415.96   16.49
  -8   6   1 1218.69   14.86
  -8  -6   0 1370.85   16.41
  -8   6   0 1272.08   15.58
  -8  -6  -1 1024.44   14.35
  -8   6  -1 1019.75   14.32
  -8  -6  -2 1124.68   15.88
  -8   6  -2 1135.97   16.07
   8  -6   2 1146.04   17.24
   8  -6   3 1050.60   16.48
   8  -6   3  975.77   16.59
  -8  -8   3 1084.99   17.95
  -8  -8   2  819.05   13.84
  -8   8   2  709.46   12.66
  -8  -8   1  841.11   14.08
  -8   8   1  760.19   13.07
  -9  -1   8  951.67   15.55
  -9   1   8  931.11   14.76
  -9  -1   7 1123.56   16.33
  -9   1   7 1182.17   16.07
  -9  -1   6 1978.51   21.75
  -9   1   6 2023.30   18.94
  -9   1   6 2011.05   20.97
  -9  -1   5 1811.96   19.89
  -9   1   5 1813.40   16.41
  -9   1   5 1778.19   18.66
  -9  -1   4 2910.68   25.94
  -9   1   4 2877.50   21.36
  -9  -1   3 2373.34   22.10
  -9   1   3 2079.47   16.46
  -9  -1   2 2358.15   21.51
  -9   1   2 1913.86   15.46
  -9  -1   1 1861.95   18.11
   9  -1  -1 1679.81   14.50
   9   1  -1 1659.64   13.15
  -9  -1   0 2537.60   21.68
  -9  -1   0 2603.96   20.04
   9  -1   0 2293.11   18.77
   9   1   0 2280.48   17.70
  -9  -1  -1 1479.47   13.96
   9  -1   1 1293.67   13.95
   9   1   1 1402.03   14.13
  -9  -1  -2 2022.28   17.87
   9  -1   2 1854.36   19.00
   9   1   2 1851.87   18.68
   9  -1   3 1450.50   17.93
   9   1   3 1455.36   17.89
   9  -1   4  923.01   15.19
   9   1   4  936.10   15.35
  -9  -3   7 1038.24   16.72
  -9   3   7 1036.50   14.82
  -9   3   7 1074.87   15.05
  -9  -3   6 1123.15   16.92
  -9   3   6 1145.79   14.54
  -9   3   6 1142.96   14.89
  -9  -3   5 1464.61   19.09
  -9   3   5 1516.49   16.07
  -9  -3   4 1611.07   19.59
  -9   3   4 1594.66   15.76
  -9  -3   3 1786.40   20.26
  -9   3   3 1721.98   16.07
  -9  -3   2 3568.62   30.44
  -9   3   2 3674.02   26.84
  -9  -3   1 2891.43   25.51
  -9   3   1 2663.87   21.58
  -9  -3   0 2568.12   21.51
   9  -3   0 2205.51   19.62
  -9  -3  -1 2142.36   19.52
   9  -3   1 1967.94   19.22
  -9  -3  -2 1350.31   15.34
   9  -3   2 1270.51   15.85
  -9  -3  -3  681.23   11.18
   9  -3   3  624.39   11.63
  -9  -3  -4  775.58   13.11
   9  -3   4  719.26   13.61
   9   3   4  703.67   13.56
  -9  -5   6 1132.81   18.50
  -9   5   6 1011.73   14.92
  -9  -5   5 1253.03   19.08
  -9   5   5 1159.73   15.18
  -9  -5   4 1428.45   19.97
  -9   5   4 1304.34   15.54
  -9  -5   3 1414.93   19.15
  -9   5   3 1257.14   14.77
  -9  -5   2 1217.06   16.69
  -9  -5   2 1182.91   14.68
  -9   5   2  919.08   12.20
  -9  -5   1  901.14   12.45
  -9   5   1  804.23   11.43
  -9  -5   0 1285.53   15.41
  -9   5   0 1191.85   14.74
  -9  -5  -1 1178.67   15.11
  -9   5  -1 1103.16   14.78
  -9  -5  -2  898.05   13.62
   9  -5   2  856.18   13.68
  -9  -5  -3 1021.02   15.60
   9  -5   3  990.21   15.93
  -9  -7   4  870.46   16.48
  -9  -7   4 1018.44   15.88
  -9   7   4  726.88   13.72
  -9  -7   3 1276.28   19.31
  -9  -7   3 1335.62   17.91
  -9   7   3  990.48   14.57
  -9  -7   2 1162.63   16.28
  -9   7   2  912.15   13.79
  -9  -7   1 1102.22   15.78
  -9   7   1  949.12   14.20
  -9  -7   0  956.63   14.81
  -9   7   0  866.47   13.85
 -10   0   8  859.65   14.79
 -10   0   7 1266.20   17.53
 -10   0   6 2279.37   23.79
 -10   0   5 1814.42   19.98
 -10   0   4 2939.15   26.27
 -10   0   3 2736.52   24.55
 -10   0   2 1035.00   10.21
  10   0  -1 1390.23   12.82
 -10   0   0 2157.21   17.55
  10   0   0 1879.67   16.59
  10   0   1 1076.53   12.77
  10   0   2 1117.90   14.43
  10   0   3 1365.23   17.81
  10   0   4  821.27   14.71
 -10   2   8  853.69   14.40
 -10  -2   7  869.71   15.07
 -10   2   7  888.30   14.03
 -10  -2   6 1237.03   17.68
 -10   2   6 1275.18   14.94
 -10   2   6 1281.28   16.46
 -10  -2   5 1257.25   17.28
 -10   2   5 1343.28   14.44
 -10  -2   4 1476.11   18.43
 -10   2   4 1489.95   14.68
 -10  -2   3 2149.71   22.53
 -10   2   3 1974.61   17.21
 -10  -2   2 2991.79   27.17
 -10   2   2 2771.35   21.68
 -10  -2   1 2511.94   23.71
 -10   2   1 2247.06   19.13
 -10  -2   0 2108.66   18.73
  10  -2   0 1835.52   17.46
 -10  -2  -1 2089.21   19.01
  10  -2   1 1853.56   18.67
 -10  -2  -2 1358.07   15.19
  10  -2   2 1278.11   16.14
  10  -2   3  816.55   13.69
  10   2   3  842.92   13.64
  10   2   4  688.97   13.55
 -10   4   7 1011.78   15.33
 -10   4   7 1046.49   15.48
 -10  -4   6  917.77   16.26
 -10   4   6  864.03   13.15
 -10  -4   5 1648.49   21.92
 -10   4   5 1547.35   17.34
 -10  -4   4 1534.15   20.54
 -10   4   4 1453.71   16.05
 -10  -4   3 1016.33   15.87
 -10   4   3  965.05   12.32
 -10  -4   2 1406.87   18.30
 -10   4   2 1207.91   13.97
 -10  -4   1 1707.63   17.83
 -10   4   1 1452.83   15.86
 -10  -4   0 1151.07   14.20
 -10   4   0 1045.99   13.54
 -10  -4  -1 1371.74   16.17
  10  -4   1 1271.24   15.99
 -10  -4  -2  969.28   13.90
  10  -4   2  936.90   14.39
 -10  -4  -3  862.39   13.91
 -10  -6   5 1059.16   18.65
 -10   6   5  941.82   15.03
 -10  -6   4 1002.35   17.58
 -10   6   4  903.58   13.65
 -10  -6   3 1432.57   20.48
 -10  -6   3 1531.27   19.12
 -10   6   3 1160.29   15.36
 -10  -6   2 1069.42   15.24
 -10   6   2  839.75   12.75
 -10  -6   1 1182.16   15.99
 -10   6   1  994.55   14.17
 -10  -6   0  827.41   13.29
 -10   6   0  777.12   12.77
 -10  -6  -1  869.92   15.22
 -10   6  -1  820.09   13.85
 -11  -1   7  896.17   15.32
 -11   1   7  955.84   15.24
 -11  -1   6 1385.51   18.80
 -11   1   6 1442.46   18.44
 -11  -1   5 1413.23   18.45
 -11   1   5 1434.53   17.75
 -11  -1   4 1898.17   21.39
 -11   1   4 1983.12   20.98
 -11  -1   3 2074.65   22.17
 -11   1   3 1891.07   16.45
 -11  -1   2 2296.21   23.28
 -11   1   2 2031.95   17.37
 -11  -1   1 2124.07   21.92
 -11   1   1 1791.43   16.46
 -11  -1   0 2029.01   18.21
  11  -1   0 1759.60   17.12
 -11  -1  -1 1216.95   13.49
  11  -1   1 1115.04   13.97
  11   1   1 1072.02   13.35
  11  -1   2 1259.71   16.32
  11   1   2 1239.05   15.73
  11  -1   3  729.85   13.22
  11   1   3  754.47   13.24
 -11   3   7 1056.23   15.16
 -11   3   7 1030.13   15.76
 -11  -3   6 1084.09   17.61
 -11   3   6 1052.39   14.19
 -11   3   6 1052.88   15.34
 -11  -3   5 1420.09   19.97
 -11   3   5 1405.19   15.90
 -11  -3   4 1405.93   19.44
 -11   3   4 1328.27   14.80
 -11  -3   3 1207.76   17.48
 -11   3   3 1169.80   13.49
 -11  -3   2 1397.56   18.48
 -11   3   2 1295.67   14.37
 -11  -3   1 1112.37   13.71
 -11   3   1  917.72   12.01
 -11  -3   0 1164.65   14.15
 -11   3   0 1014.39   13.27
 -11  -3  -1 1282.69   15.35
  11  -3   1 1139.28   15.07
 -11  -3  -2 1008.83   14.00
  11  -3   2  951.97   14.65
 -11  -5   5 1217.36   19.88
 -11   5   5 1111.13   15.35
 -11  -5   4 1188.97   19.15
 -11   5   4 1065.03   14.49
 -11  -5   3 1322.34   19.64
 -11   5   3 1123.52   14.67
 -11  -5   2 1289.67   16.67
 -11   5   2 1010.06   13.80
 -11  -5   1 1388.09   17.21
 -11   5   1 1201.57   15.50
 -11  -5   0 1277.34   16.55
 -11   5   0 1145.33   15.61
 -11  -5  -1  909.80   14.08
 -11   5  -1  832.05   13.77
 -12   0   7  705.06   13.62
 -12   0   6 1022.76   16.05
 -12   0   5  702.57   12.72
 -12   0   4 1369.49   17.98
 -12   0   3 1562.25   19.13
 -12   0   2 2034.12   22.25
 -12   0   1 2391.47   24.54
  12   0   0 1927.24   18.59
  12   0   1  884.45   12.47
  12   0   2  939.89   14.16
 -12   2   7 1106.13   16.97
 -12  -2   6 1378.44   20.01
 -12   2   6 1425.73   18.87
 -12  -2   5 1334.35   19.24
 -12   2   5 1421.11   18.30
 -12  -2   4 1800.24   22.39
 -12   2   4 1704.82   16.88
 -12  -2   3 1546.07   20.23
 -12   2   3 1389.07   14.71
 -12  -2   2 1353.21   18.46
 -12   2   2 1243.66   13.88
 -12  -2   1  952.40   12.51
 -12   2   1  816.72   11.21
 -12  -2   0 1199.73   14.32
  12  -2   0 1056.09   13.64
 -12  -2  -1 1054.04   13.60
  12  -2   1  937.28   13.64
  12  -2   2  786.11   13.41
 -12   4   6  871.42   13.63
 -12  -4   5 1397.49   21.29
 -12   4   5 1316.16   16.42
 -12  -4   4 1110.82   18.44
 -12   4   4 1044.32   13.95
 -12  -4   3  881.68   15.89
 -12   4   3  819.36   12.03
 -12  -4   2 1537.18   18.30
 -12   4   2 1223.77   15.16
 -12  -4   1 1195.56   15.62
 -12   4   1 1011.90   13.90
 -12  -4   0  888.62   13.32
 -12   4   0  793.78   12.66
 -12  -4  -1 1016.18   14.73
 -13  -1   6 1143.98   18.17
 -13   1   6 1155.08   17.56
 -13  -1   5  984.19   16.39
 -13   1   5  956.21   15.44
 -13  -1   4 1263.98   18.53
 -13   1   4 1223.27   17.42
 -13  -1   3 1481.24   20.06
 -13   1   3 1414.14   18.77
 -13  -1   2 1438.80   19.63
 -13  -1   1 1318.93   15.11
  13  -1   0 1063.34   13.81
  13  -1   1  843.50   13.06
 -13  -3   5 1345.11   20.82
 -13   3   5 1311.29   15.99
 -13  -3   4 1397.41   20.98
 -13   3   4 1357.38   15.92
 -13  -3   3 1104.60   18.14
 -13   3   3 1040.41   13.54
 -13  -3   2 1205.29   15.83
 -13   3   2  963.38   13.09
 -13  -3   1 1054.15   14.44
 -13   3   1  879.15   12.79
 -13  -3   0  927.21   13.51
 -13   3   0  836.19   13.04
 -14   0   5 1084.12   17.62
 -14   0   4 1310.40   19.37
 -14   0   3 1279.99   19.06
 -14   0   2 1199.28   18.99
 -14  -2   5  871.86   16.57
 -14  -2   4 1137.12   18.93
 -14  -2   3  946.92   17.02
 -14  -2   2 1063.59   14.72
 -14   2   2  848.61   12.50
 -14  -2   1 1010.79   14.06
 -14   2   1  867.44   12.68
 -15  -1   4 1069.46   18.69
 -15  -1   3 1017.80   20.21
 -15   1   3 1048.91   17.83
 -15  -1   2  960.16   13.89
   0   0   0    0.00    0.00
;
_shelx_hkl_checksum              87727
#END Tags that were not found in dictionaries
loop_
_space_group_symop_operation_xyz
'x, y, z'
'-x, y, -z'
'x+1/2, y+1/2, z'
'-x+1/2, y+1/2, -z'
loop_
_atom_site_label
_atom_site_type_symbol
_atom_site_fract_x
_atom_site_fract_y
_atom_site_fract_z
_atom_site_U_iso_or_equiv
_atom_site_adp_type
_atom_site_occupancy
_atom_site_site_symmetry_order
_atom_site_calc_flag
_atom_site_refinement_flags_posn
_atom_site_refinement_flags_adp
_atom_site_refinement_flags_occupancy
Gd1 Gd 0.5000 0.44955(2) 0.0000 0.01004(17) Uani 1 2 d S TU P
O1 O 0.5082(7) 0.3026(10) 0.3376(11) 0.0227(15) Uani 1 1 d . U .
O2 O 0.6100(9) 0.6705(13) 0.2678(15) 0.0353(19) Uani 1 1 d . U .
O3 O 0.6730(8) 0.2495(13) 0.1162(14) 0.034(2) Uani 1 1 d . U .
C1 C 0.5000 0.381(2) 0.5000 0.024(3) Uani 1 2 d S TU P
H1 H 0.5000 0.5107 0.5000 0.028 Uiso 1 2 calc R U P
O5 O 0.8472(8) 0.1126(14) 0.1185(15) 0.038(2) Uani 1 1 d . U .
C2 C 0.7358(11) 0.1532(18) 0.035(2) 0.029(2) Uani 1 1 d . U .
H2 H 0.6951 0.1071 -0.1019 0.035 Uiso 1 1 calc R U .
N1 N 0.6531(14) 0.929(5) 0.465(2) 0.056(5) Uani 1 1 d . U .
H1A H 0.7134 0.8784 0.5657 0.067 Uiso 1 1 calc R U .
H1B H 0.6341 1.0438 0.4750 0.067 Uiso 1 1 calc R U .
C3 C 0.5921(15) 0.8346(17) 0.301(2) 0.039(3) Uani 1 1 d . U .
H3 H 0.5278 0.8954 0.1964 0.046 Uiso 1 1 calc R U .
loop_
_atom_site_aniso_label
_atom_site_aniso_U_11
_atom_site_aniso_U_22
_atom_site_aniso_U_33
_atom_site_aniso_U_23
_atom_site_aniso_U_13
_atom_site_aniso_U_12
Gd1 0.0095(2) 0.0107(2) 0.0108(2) 0.000 0.00473(16) 0.000
O1 0.035(4) 0.021(3) 0.016(3) -0.001(3) 0.014(3) 0.005(3)
O2 0.041(5) 0.031(4) 0.037(5) -0.017(4) 0.018(4) -0.013(4)
O3 0.025(4) 0.048(5) 0.033(4) 0.014(4) 0.016(3) 0.027(4)
C1 0.037(8) 0.018(6) 0.020(6) 0.000 0.015(6) 0.000
O5 0.029(4) 0.054(6) 0.035(5) 0.006(4) 0.017(4) 0.025(4)
C2 0.022(5) 0.036(7) 0.031(6) -0.003(5) 0.012(4) 0.011(5)
N1 0.078(8) 0.026(15) 0.047(6) -0.015(9) -0.001(5) -0.004(8)
C3 0.054(8) 0.029(6) 0.031(6) -0.004(5) 0.012(6) -0.010(5)
loop_
_atom_type_symbol
_atom_type_description
_atom_type_scat_dispersion_real
_atom_type_scat_dispersion_imag
_atom_type_scat_source
C C 0.0033 0.0016 'International Tables Vol C Tables 4.2.6.8 and 6.1.1.4'
H H 0.0000 0.0000 'International Tables Vol C Tables 4.2.6.8 and 6.1.1.4'
Gd Gd -0.1653 3.9035 'International Tables Vol C Tables 4.2.6.8 and 6.1.1.4'
N N 0.0061 0.0033 'International Tables Vol C Tables 4.2.6.8 and 6.1.1.4'
O O 0.0106 0.0060 'International Tables Vol C Tables 4.2.6.8 and 6.1.1.4'
loop_
_geom_angle_atom_site_label_1
_geom_angle_atom_site_label_2
_geom_angle_atom_site_label_3
_geom_angle
_geom_angle_site_symmetry_1
_geom_angle_site_symmetry_3
O3 Gd1 O3 104.5(5) . 2_655
O3 Gd1 O2 89.6(3) . .
O3 Gd1 O2 145.0(3) 2_655 .
O3 Gd1 O2 145.0(3) . 2_655
O3 Gd1 O2 89.6(3) 2_655 2_655
O2 Gd1 O2 97.0(5) . 2_655
O3 Gd1 O5 77.8(3) . 4_655
O3 Gd1 O5 143.1(3) 2_655 4_655
O2 Gd1 O5 70.7(3) . 4_655
O2 Gd1 O5 72.2(3) 2_655 4_655
O3 Gd1 O5 143.1(3) . 3_455
O3 Gd1 O5 77.8(3) 2_655 3_455
O2 Gd1 O5 72.2(3) . 3_455
O2 Gd1 O5 70.7(3) 2_655 3_455
O5 Gd1 O5 122.5(5) 4_655 3_455
O3 Gd1 O1 78.7(3) . 2_655
O3 Gd1 O1 70.6(3) 2_655 2_655
O2 Gd1 O1 144.3(3) . 2_655
O2 Gd1 O1 76.1(3) 2_655 2_655
O5 Gd1 O1 73.9(3) 4_655 2_655
O5 Gd1 O1 133.7(3) 3_455 2_655
O3 Gd1 O1 70.6(3) . .
O3 Gd1 O1 78.7(3) 2_655 .
O2 Gd1 O1 76.1(3) . .
O2 Gd1 O1 144.3(3) 2_655 .
O5 Gd1 O1 133.7(3) 4_655 .
O5 Gd1 O1 73.9(3) 3_455 .
O1 Gd1 O1 128.9(3) 2_655 .
C1 O1 Gd1 127.1(8) . .
C3 O2 Gd1 133.8(10) . .
C2 O3 Gd1 137.9(8) . .
O1 C1 O1 126.1(16) 2_656 .
O1 C1 H1 116.9 2_656 .
O1 C1 H1 116.9 . .
C2 O5 Gd1 134.9(8) . 3_545
O5 C2 O3 126.4(12) . .
O5 C2 H2 116.8 . .
O3 C2 H2 116.8 . .
C3 N1 H1A 120.0 . .
C3 N1 H1B 120.0 . .
H1A N1 H1B 120.0 . .
O2 C3 N1 126.2(18) . .
O2 C3 H3 116.9 . .
N1 C3 H3 116.9 . .
loop_
_geom_bond_atom_site_label_1
_geom_bond_atom_site_label_2
_geom_bond_distance
_geom_bond_site_symmetry_2
Gd1 O3 2.347(7) .
Gd1 O3 2.347(7) 2_655
Gd1 O2 2.395(8) .
Gd1 O2 2.395(8) 2_655
Gd1 O5 2.436(8) 4_655
Gd1 O5 2.436(8) 3_455
Gd1 O1 2.447(7) 2_655
Gd1 O1 2.447(7) .
O1 C1 1.247(10) .
O2 C3 1.228(16) .
O3 C2 1.240(14) .
C1 O1 1.247(10) 2_656
C1 H1 0.9300 .
O5 C2 1.234(15) .
O5 Gd1 2.436(8) 3_545
C2 H2 0.9300 .
N1 C3 1.27(3) .
N1 H1A 0.8600 .
N1 H1B 0.8600 .
C3 H3 0.9300 .
