#------------------------------------------------------------------------------
#$Date: 2016-03-24 14:47:55 +0200 (Thu, 24 Mar 2016) $
#$Revision: 179674 $
#$URL: svn://www.crystallography.net/cod/cif/4/51/26/4512649.cif $
#------------------------------------------------------------------------------
#
# This file is available in the Crystallography Open Database (COD),
# http://www.crystallography.net/
#
# All data on this site have been placed in the public domain by the
# contributors.
#
data_4512649
loop_
_publ_author_name
'Samarasekere, Pradeep'
'Wang, Xiqu'
'Kaveevivitchai, Watchareeya'
'Jacobson, Allan J.'
_publ_section_title
;
 Reactions of Rare Earth Hydrated Nitrates and Oxides with Formamide:
 Relevant to Recycling Rare Earth Metals
;
_journal_issue                   3
_journal_name_full               'Crystal Growth &amp; Design'
_journal_page_first              1119
_journal_paper_doi               10.1021/cg501421u
_journal_volume                  15
_journal_year                    2015
_chemical_formula_sum            'C5 H9 N2 O8 Tm'
_chemical_formula_weight         394.07
_chemical_name_systematic
;
 ?
;
_space_group_crystal_system      monoclinic
_space_group_IT_number           5
_space_group_name_Hall           'C 2y'
_space_group_name_H-M_alt        'C 1 2 1'
_symmetry_space_group_name_Hall  'C 2y'
_symmetry_space_group_name_H-M   'C 1 2 1'
_atom_sites_solution_hydrogens   mixed
_audit_creation_method           SHELXL-2013
_cell_angle_alpha                90
_cell_angle_beta                 109.472(2)
_cell_angle_gamma                90
_cell_formula_units_Z            2
_cell_length_a                   11.172(2)
_cell_length_b                   7.1020(15)
_cell_length_c                   6.5390(13)
_cell_measurement_temperature    293(2)
_cell_volume                     489.15(17)
_computing_structure_refinement  'SHELXL-2013 (Sheldrick, 2013)'
_diffrn_ambient_temperature      293(2)
_diffrn_measured_fraction_theta_full 1.000
_diffrn_measured_fraction_theta_max 0.941
_diffrn_measurement_device_type  'Bruker ApexII'
_diffrn_measurement_method       'narrow frame'
_diffrn_radiation_type           MoK\a
_diffrn_radiation_wavelength     0.71073
_diffrn_reflns_av_R_equivalents  0.0348
_diffrn_reflns_av_unetI/netI     0.0278
_diffrn_reflns_Laue_measured_fraction_full 1.000
_diffrn_reflns_Laue_measured_fraction_max 0.941
_diffrn_reflns_limit_h_max       14
_diffrn_reflns_limit_h_min       -14
_diffrn_reflns_limit_k_max       5
_diffrn_reflns_limit_k_min       -9
_diffrn_reflns_limit_l_max       8
_diffrn_reflns_limit_l_min       -7
_diffrn_reflns_number            1619
_diffrn_reflns_point_group_measured_fraction_full 0.802
_diffrn_reflns_point_group_measured_fraction_max 0.727
_diffrn_reflns_theta_full        25.500
_diffrn_reflns_theta_max         29.080
_diffrn_reflns_theta_min         3.304
_diffrn_source                   'fine-focus sealed tube'
_exptl_absorpt_coefficient_mu    9.102
_exptl_absorpt_correction_T_max  0.5683
_exptl_absorpt_correction_T_min  0.1710
_exptl_absorpt_correction_type   psi-scan
_exptl_absorpt_process_details   'Bruker XPREP 2008/2'
_exptl_crystal_colour            'Pale Yellow'
_exptl_crystal_density_diffrn    2.676
_exptl_crystal_description       Rhomboid
_exptl_crystal_F_000             372
_exptl_crystal_size_max          0.300
_exptl_crystal_size_mid          0.300
_exptl_crystal_size_min          0.070
_refine_diff_density_max         1.059
_refine_diff_density_min         -1.533
_refine_diff_density_rms         0.149
_refine_ls_abs_structure_details
;
 Classical Flack method preferred over Parsons because s.u. lower.
;
_refine_ls_abs_structure_Flack   -0.04(3)
_refine_ls_extinction_coef       0.0105(13)
_refine_ls_extinction_expression Fc^*^=kFc[1+0.001xFc^2^\l^3^/sin(2\q)]^-1/4^
_refine_ls_extinction_method     SHELXL
_refine_ls_goodness_of_fit_ref   1.062
_refine_ls_hydrogen_treatment    constr
_refine_ls_matrix_type           full
_refine_ls_number_parameters     75
_refine_ls_number_reflns         960
_refine_ls_number_restraints     1
_refine_ls_restrained_S_all      1.062
_refine_ls_R_factor_all          0.0177
_refine_ls_R_factor_gt           0.0177
_refine_ls_shift/su_max          0.000
_refine_ls_shift/su_mean         0.000
_refine_ls_structure_factor_coef Fsqd
_refine_ls_weighting_details
'w=1/[\s^2^(Fo^2^)+(0.0314P)^2^+1.1060P] where P=(Fo^2^+2Fc^2^)/3'
_refine_ls_weighting_scheme      calc
_refine_ls_wR_factor_gt          0.0438
_refine_ls_wR_factor_ref         0.0438
_reflns_Friedel_coverage         0.437
_reflns_Friedel_fraction_full    0.567
_reflns_Friedel_fraction_max     0.478
_reflns_number_gt                960
_reflns_number_total             960
_reflns_threshold_expression     'I > 2\s(I)'
_cod_data_source_file            cg501421u_si_001.cif
_cod_data_source_block           7Tm
_cod_depositor_comments
'Adding full bibliography for 4512639--4512651.cif.'
_cod_database_code               4512649
#BEGIN Tags that were not found in dictionaries:
_shelx_space_group_comment
;
The symmetry employed for this shelxl refinement is uniquely defined
by the following loop, which should always be used as a source of
symmetry information in preference to the above space-group names.
They are only intended as comments.
;
_shelx_estimated_absorpt_t_min   0.171
_shelx_estimated_absorpt_t_max   0.568
_shelxl_version_number           2013-4
_shelx_res_file
;
TITL Sam_TmFA in C2       New: C2
CELL  0.71073   11.1720    7.1020    6.5390    90.000   109.472    90.000
ZERR 2           0.0020    0.0015    0.0013     0.000     0.002     0.000
LATT -7
SYMM             - X ,              Y ,            - Z
SFAC C  H  N  O  Tm
UNIT 10  18  4  16  2
L.S. 12
ACTA 51
BOND $H
FMAP 2
PLAN 20
SIZE .3 .3 .07
WGHT    0.031400    1.106000
EXTI    0.010494
FVAR       0.65148
TM1   5    0.500000    0.952517    1.000000    10.50000    0.00782    0.01268 =
         0.01193    0.00000    0.00371    0.00000
O5    4    0.507145    1.098349    1.334596    11.00000    0.02847    0.01952 =
         0.01817   -0.00139    0.01157   -0.00371
O6    4    0.670378    1.148747    1.114651    11.00000    0.02477    0.03846 =
         0.02565   -0.00730    0.01252   -0.01924
O7    4    0.391146    0.734532    0.734370    11.00000    0.03213    0.02771 =
         0.03206   -0.01168    0.01028   -0.01053
O10   4    0.653919    0.793569    0.881781    11.00000    0.02219    0.04127 =
         0.03007    0.00279    0.00942    0.01629
N1    3    0.346204    0.472646    0.537462    11.00000    0.05764    0.02047 =
         0.03622   -0.00701    0.00099   -0.00511
AFIX   3
H1A   2    0.281895    0.521256    0.439571    11.00000   -1.20000
H1B   2    0.366875    0.357466    0.526131    11.00000   -1.20000
AFIX   0
C1    1    0.412730    0.570475    0.702006    11.00000    0.03718    0.02835 =
         0.02264   -0.00323    0.00844   -0.00425
AFIX  43
H1    2    0.481935    0.512291    0.803124    11.00000   -1.20000
AFIX   0
C3    1    0.735555    1.247159    1.033604    11.00000    0.01942    0.03301 =
         0.02550    0.00238    0.00761   -0.00600
AFIX  43
H3    2    0.695263    1.289841    0.892902    11.00000   -1.20000
AFIX   0
C4    1    0.500000    1.016197    1.500000    10.50000    0.02834    0.01943 =
         0.01816    0.00000    0.01296    0.00000
AFIX  43
H4    2    0.500000    0.885248    1.499999    10.50000   -1.20000
AFIX   0
HKLF 4 1 -1.0000  0.0000  0.0000  0.0000  1.0000  0.0000  0.0000  0.0000 -1.0000

REM  Sam_TmFA in C2       New: C2
REM R1 =  0.0177 for     960 Fo > 4sig(Fo)  and  0.0177 for all     960 data
REM     75 parameters refined using      1 restraints

END

WGHT      0.0312      1.1515

REM Highest difference peak  1.059,  deepest hole -1.533,  1-sigma level  0.149
Q1    1   0.5000  0.8307  1.0000  10.50000  0.05    1.06
Q2    1   0.5000  1.0750  1.0000  10.50000  0.05    1.04
Q3    1   0.5310  0.8585  1.0793  11.00000  0.05    0.96
Q4    1   0.5459  0.9522  0.9418  11.00000  0.05    0.93
Q5    1   0.5315  1.0470  1.0802  11.00000  0.05    0.91
Q6    1   0.6375  0.9504  1.6043  11.00000  0.05    0.73
Q7    1   0.7185  1.4543  0.8247  11.00000  0.05    0.60
Q8    1   0.4418  0.6680  0.7425  11.00000  0.05    0.56
Q9    1   0.5578  1.2372  1.2535  11.00000  0.05    0.47
Q10   1   0.5067  0.9565  0.8143  11.00000  0.05    0.43
Q11   1   0.5638  0.7946  0.9942  11.00000  0.05    0.42
Q12   1   0.5381  0.6344  0.8336  11.00000  0.05    0.40
Q13   1   0.5209  0.5277  0.7534  11.00000  0.05    0.37
Q14   1   0.6308  1.0029  1.0756  11.00000  0.05    0.36
Q15   1   0.4136  1.1766  1.3772  11.00000  0.05    0.36
Q16   1   0.4660  1.2749  1.1640  11.00000  0.05    0.35
Q17   1   0.4981  0.4534  0.7076  11.00000  0.05    0.35
Q18   1   0.4438  0.8096  0.7016  11.00000  0.05    0.31
Q19   1   0.6318  0.9215  1.0775  11.00000  0.05    0.31
Q20   1   0.5716  1.3373  0.7735  11.00000  0.05    0.31
;
_shelx_res_checksum              74976
_shelx_hkl_file
;
   0   0  -1 5314.95   31.73
   0   0  -1 6107.88   40.85
   0   0   1 6311.06   39.51
   0   0  -2 4810.40   25.29
   0   0  -2 4888.84   39.98
   0   0   2 5602.71   44.83
   0   0  -3 4111.40   20.36
   0   0  -3 4112.78   25.96
   0   0   3 4881.75   26.56
   0   0  -4 3066.13   19.67
   0   0  -4 2838.91   25.29
   0   0   4 3465.67   25.96
   0   0  -5  860.62   16.07
   0   0   5 1042.92   16.14
   0   0  -6 1850.94   26.15
   0   0   6 2227.26   27.96
   0   0  -7 1378.94   25.10
   0   0  -8 1005.61   23.74
   0  -2   0 2397.82   14.74
   0  -2  -1 2516.01   13.98
   0  -2  -2 7474.54   52.16
   0  -2   2 6772.03   52.07
   0   2  -2 6777.52   52.95
   0  -2  -3 2683.60   25.66
   0  -2   3 2716.84   24.15
   0   2  -3 2793.86   24.84
   0   2   3 3207.67   19.80
   0  -2  -4 3532.78   31.67
   0  -2   4 3691.36   31.28
   0   2  -4 3355.74   30.48
   0   2   4 3900.62   25.12
   0  -2  -5 2643.01   29.08
   0  -2  -5 2442.46   27.19
   0  -2   5 2898.21   30.46
   0   2  -5 2474.99   29.15
   0  -2  -6 1703.32   25.27
   0  -2   6 2061.91   27.99
   0   2  -6 1952.24   28.57
   0  -2  -7  928.03   20.68
   0   2  -7  946.56   21.95
   0  -2  -8  639.46   19.00
   0   2  -8  650.79   20.14
   0  -4   0 3317.65   25.08
   0  -4  -1 3520.95   24.52
   0  -4   1 3417.42   27.42
   0  -4  -2 4090.07   26.05
   0  -4   2 3851.78   31.60
   0  -4   2 4261.21   25.70
   0  -4  -3 2109.46   19.20
   0  -4  -3 2043.39   28.18
   0  -4   3 2033.28   24.99
   0   4  -3 1799.38   24.39
   0  -4  -4 3166.60   37.10
   0  -4   4 3089.97   33.26
   0   4  -4 3137.91   34.43
   0  -4  -5 2253.44   33.03
   0  -4   5 2163.49   29.99
   0   4  -5 1959.52   29.39
   0  -4  -6  992.58   23.05
   0  -4   6  962.03   21.57
   0   4  -6  886.80   21.54
   0  -4  -7  810.73   20.49
   0  -4   7  975.28   23.14
   0   4  -7  878.65   23.18
   0  -6   0 3114.75   30.94
   0  -6   0 3132.91   34.30
   0  -6  -1 2301.33   25.72
   0  -6  -1 2292.95   31.28
   0  -6   1 2290.66   27.81
   0  -6   1 2371.37   27.79
   0  -6  -2 2159.64   24.39
   0  -6  -2 2098.62   31.76
   0  -6   2 2083.07   28.07
   0  -6  -3 2072.71   33.33
   0  -6   3 1969.62   28.85
   0  -6  -4 1045.47   25.06
   0  -6   4 1038.72   22.34
   0  -6  -5 1018.88   25.96
   0  -6   5 1009.62   23.35
   0  -6  -6 1038.40   27.34
   0  -6   6  997.79   24.67
   0  -8   0 1199.70   23.35
   0  -8   0 1176.04   24.69
   0  -8  -1 1001.30   20.85
   0  -8  -1  987.99   23.93
   0  -8   1  982.30   21.89
   0  -8  -2  936.87   24.54
   0  -8   2  884.77   21.63
   0  -8  -3 1194.98   29.02
   0  -8   3 1150.90   25.68
   0  -8  -4  832.08   25.42
   0  -8   4  824.32   22.97
   1  -1  -8 1035.79   23.85
   1   1  -8  997.88   23.93
   1  -1  -7  973.68   21.05
   1   1  -7  930.68   21.07
  -1  -1   6 2548.95   28.01
   1  -1  -6 2088.63   27.62
   1   1  -6 2237.67   29.28
  -1  -1   5 2226.90   23.83
  -1   1   5 2114.87   19.84
   1  -1  -5 1947.39   21.13
   1  -1  -5 1841.74   23.25
   1   1  -5 1828.94   23.78
  -1  -1   4 3265.10   25.72
  -1   1   4 3279.95   21.24
   1  -1  -4 2844.23   23.81
   1  -1  -4 2638.46   24.41
   1   1  -4 2679.59   25.44
  -1  -1   3 4516.63   26.43
  -1   1   3 5542.34   26.65
   1  -1  -3 4097.83   26.02
   1   1  -3 4851.70   29.62
  -1  -1   2 5798.65   44.47
  -1   1   2 8582.60   45.76
   1  -1  -2 6383.34   35.59
   1   1  -2 8389.54   38.65
  -1  -1   1 5407.14   42.61
   1  -1  -1 5211.33   24.52
   1  -1  -1 5059.49   40.55
   1   1  -1 6156.25   39.53
   1   1  -1 5704.70   47.25
  -1  -1   0 6270.56   44.44
   1  -1   0 6473.61   44.19
   1  -1   0 6584.00   44.66
  -1   1  -1 7211.63   47.68
   1  -1   1 6967.62   57.09
   1  -1   1 8078.17   35.91
   1   1   1 7505.40   52.33
  -1   1  -2 4249.94   23.83
   1  -1   2 4837.46   36.32
   1   1   2 4896.06   35.16
  -1   1  -3 4966.12   30.44
   1  -1   3 5951.37   34.71
   1   1   3 5565.27   29.49
  -1  -1  -4 2608.15   24.17
  -1  -1  -4 2350.08   22.99
  -1   1  -4 2207.27   23.42
   1  -1   4 2901.04   27.23
   1   1   4 2572.95   22.99
  -1  -1  -5 2053.43   24.50
  -1   1  -5 2249.90   26.69
   1  -1   5 2402.45   27.34
   1   1   5 2561.01   25.64
  -1  -1  -6 1451.61   23.09
  -1   1  -6 1622.79   25.29
   1  -1   6 1774.48   25.66
  -1  -1  -7 1104.82   22.43
  -1   1  -7 1029.70   22.34
  -1  -1  -8  853.62   21.80
  -1   1  -8  841.58   22.23
   1  -3  -8  763.20   22.79
  -1  -3   7 1354.10   25.10
   1  -3  -7 1159.45   23.68
   1   3  -7 1116.52   24.65
  -1  -3   6 1814.06   27.02
   1   3  -6 1641.36   27.32
  -1  -3   5 2496.19   29.26
   1  -3  -5 2415.21   30.74
   1   3  -5 2324.90   29.75
  -1  -3   4 3936.40   33.74
   1  -3  -4 3831.35   36.52
   1   3  -4 3813.88   34.75
  -1  -3   3 3474.53   29.02
   1  -3  -3 3659.74   20.32
   1  -3  -3 3255.69   31.43
   1   3  -3 3028.14   28.24
  -1  -3   2 5290.37   32.29
   1  -3  -2 5455.93   33.72
   1  -3  -2 4898.64   35.61
   1   3  -2 4966.07   33.13
  -1  -3   1 4129.75   25.92
   1  -3  -1 4345.40   22.47
  -1  -3   0 1550.02   14.78
   1  -3   0 1610.30   15.27
   1  -3   0 1622.99   16.78
  -1  -3  -1 4878.89   25.70
   1  -3   1 4780.52   29.64
   1  -3   1 4965.64   25.34
  -1  -3  -2 3983.15   24.13
  -1   3  -2 3479.09   28.50
   1  -3   2 3572.68   28.63
   1  -3   2 3883.32   17.64
  -1  -3  -3 3272.25   23.72
  -1   3  -3 2917.67   28.42
   1  -3   3 3063.71   29.23
  -1  -3  -4 2599.21   31.20
  -1   3  -4 2668.30   29.71
   1  -3   4 2593.24   29.39
   1   3   4 2990.31   24.82
  -1  -3  -5 2494.62   32.21
  -1   3  -5 2321.17   30.20
   1  -3   5 2462.47   31.00
  -1  -3  -6  947.66   19.41
  -1   3  -6 1031.87   22.17
   1  -3   6 1087.02   22.32
  -1  -3  -7  826.22   19.95
  -1   3  -7  887.79   22.38
   1  -3   7 1009.04   23.09
  -1  -5   7  812.19   21.80
   1   5  -7  725.82   22.38
  -1  -5   6  774.88   20.12
   1  -5  -6  777.03   21.93
   1   5  -6  669.27   19.82
  -1  -5   5 1059.19   22.00
   1  -5  -5 1102.02   24.90
   1   5  -5  954.47   22.00
  -1  -5   4 2036.58   28.42
   1  -5  -4 2120.71   32.60
  -1  -5   3 2178.53   27.51
   1  -5  -3 2225.88   31.60
  -1  -5   2 1999.33   24.69
   1  -5  -2 2041.30   20.62
   1  -5  -2 2019.93   28.24
  -1  -5   1 3874.57   32.38
   1  -5  -1 3969.34   29.84
   1  -5  -1 4003.66   37.10
  -1  -5   0 3532.67   29.49
   1  -5   0 3545.43   29.84
   1  -5   0 3670.92   32.94
  -1  -5  -1 2534.82   24.37
   1  -5   1 2580.49   27.23
   1  -5   1 2736.49   26.02
  -1  -5  -2 1579.04   19.26
   1  -5   2 1612.56   23.16
  -1  -5  -3 2860.25   26.35
   1  -5   3 2727.24   32.19
  -1  -5  -4 1504.39   28.31
   1  -5   4 1504.35   25.62
  -1  -5  -5 1321.01   27.88
   1  -5   5 1244.14   24.86
  -1  -5  -6 1220.85   27.92
  -1   5  -6  980.58   24.26
   1  -5   6 1156.44   25.57
  -1  -5  -7 1003.93   23.55
  -1  -7   5 1032.69   24.75
   1  -7  -5 1057.90   27.94
  -1  -7   4  884.04   21.76
   1  -7  -4  887.90   24.45
  -1  -7   3 1593.90   27.66
   1  -7  -3 1603.75   31.13
  -1  -7   2 1344.02   24.26
   1  -7  -2 1376.53   27.36
  -1  -7   1 1294.34   22.86
  -1  -7   1 1313.47   23.31
   1  -7  -1 1393.33   22.25
   1  -7  -1 1296.21   25.12
  -1  -7   0 1476.79   23.65
  -1  -7   0 1474.70   26.20
   1  -7   0 1512.10   24.02
   1  -7   0 1501.37   25.38
  -1  -7  -1 2130.64   27.68
  -1  -7  -1 2085.42   32.85
   1  -7   1 2107.67   29.62
  -1  -7  -2 1566.82   23.59
  -1  -7  -2 1516.22   29.49
   1  -7   2 1512.70   26.39
  -1  -7  -3 1535.09   31.28
   1  -7   3 1524.38   27.86
  -1  -7  -4  792.46   23.65
   1  -7   4  752.73   20.88
  -1  -7  -5  994.69   27.66
   1  -7   5  972.54   24.82
  -1  -9   2  884.51   23.14
   1  -9  -2  890.89   25.18
  -1  -9   1 1012.81   23.98
   1  -9  -1 1025.95   25.59
  -1  -9   0  732.05   20.08
  -1  -9   0  714.39   21.03
   1  -9   0  723.37   19.95
  -1  -9  -1  916.21   22.66
  -1  -9  -1  946.19   25.36
   1  -9   1  925.32   23.14
  -1  -9  -2  657.34   22.36
   1  -9   2  695.81   20.98
   2   0  -8  875.14   22.10
   2   0  -7 1186.40   23.25
   2   0  -6 1858.61   26.20
  -2   0   5 3728.68   26.43
   2   0  -5 2988.27   29.60
  -2   0   4 5389.97   27.49
   2   0  -4 5100.57   26.28
   2   0  -4 4714.19   32.60
  -2   0   3 5471.98   27.81
   2   0  -3 5177.44   23.91
   2   0  -3 4762.77   27.99
  -2   0   2 1320.43    8.49
   2   0  -2 1277.73   10.53
   2   0  -2 1151.83   11.18
  -2   0   1 4491.25   26.52
   2   0  -1 5383.70   43.88
   2   0   0 5460.39   40.46
   2   0   0 6515.96   46.28
  -2   0  -1  333.62    4.35
   2   0   1  417.02    5.97
  -2   0  -2 3540.00   19.65
   2   0   2 4079.73   25.14
  -2   0  -3 6504.78   32.96
   2   0   3 7205.34   38.46
  -2   0  -4 2577.65   24.39
   2   0   4 3091.96   28.24
  -2   0  -5 1185.48   18.98
   2   0   5 1363.36   20.77
  -2   0  -6 2264.34   29.21
   2   0   6 2657.68   31.56
  -2   0  -7  774.99   19.22
   2  -2  -8  884.97   22.28
   2   2  -8  869.52   22.90
   2  -2  -7 1501.93   26.33
   2   2  -7 1472.20   27.02
  -2  -2   6 1930.46   25.21
   2  -2  -6 1616.33   24.78
   2   2  -6 1674.52   26.22
  -2  -2   5 2478.68   26.15
   2  -2  -5 2229.24   26.15
   2   2  -5 1981.30   25.83
  -2  -2   4 2379.27   23.20
  -2   2   4 2656.91   16.55
   2  -2  -4 2240.19   24.58
   2   2  -4 2225.32   24.54
  -2  -2   3 4920.42   29.84
   2  -2  -3 5357.63   21.91
   2  -2  -3 4598.13   32.51
   2   2  -3 6186.93   26.82
   2   2  -3 5576.90   34.45
  -2  -2   2 5208.05   35.53
   2  -2  -2 5354.96   25.18
   2  -2  -2 4734.78   29.99
   2   2  -2 5868.36   33.76
   2   2  -2 5434.20   39.62
  -2  -2   1 5445.20   48.09
   2  -2  -1 5587.41   31.48
   2  -2  -1 5396.02   45.07
   2   2  -1 5659.35   39.34
   2  -2   0 6761.78   49.10
   2  -2   0 6591.90   39.45
  -2  -2  -1 9587.91   64.70
   2  -2   1 8962.39   75.40
   2  -2   1 9999.00   56.59
  -2   2  -2 5671.73   32.38
   2  -2   2 6228.01   36.30
   2  -2   2 7161.39   31.28
   2   2   2 6367.08   31.07
  -2   2  -3 2333.28   23.31
   2  -2   3 2513.04   25.77
   2   2   3 2554.53   22.04
  -2   2  -4 2915.75   29.08
   2  -2   4 3311.21   32.51
   2   2   4 3375.02   28.18
  -2  -2  -5 1732.08   22.84
  -2   2  -5 1832.17   25.57
   2  -2   5 2031.13   27.77
   2   2   5 2102.63   24.52
  -2  -2  -6 1350.48   22.53
  -2   2  -6 1631.82   26.65
   2  -2   6 1590.65   26.58
  -2   2  -7  748.79   19.99
   2  -2   7  866.05   21.20
  -2  -4   7  978.34   22.13
   2   4  -7  890.48   23.03
  -2  -4   6  976.38   20.72
   2  -4  -6 1009.02   22.97
   2   4  -6  887.40   21.29
  -2  -4   5 2329.36   29.67
   2  -4  -5 2332.63   32.98
   2   4  -5 2277.09   31.20
  -2  -4   4 2019.45   25.70
   2  -4  -4 1992.18   28.85
   2   4  -4 1912.90   26.54
  -2  -4   3 3024.42   29.11
   2  -4  -3 2911.03   32.70
   2   4  -3 2450.43   27.86
  -2  -4   2 4396.35   32.60
   2  -4  -2 4520.25   25.77
   2  -4  -2 4272.98   36.82
  -2  -4   1 4780.35   32.04
   2  -4  -1 5154.09   29.84
   2  -4  -1 4979.17   36.73
  -2  -4   0 2364.41   21.74
   2  -4   0 2468.55   22.77
   2  -4   0 2515.06   23.87
  -2  -4  -1 3214.15   25.21
   2  -4   1 3172.34   28.18
   2  -4   1 3322.69   24.41
  -2  -4  -2 2411.16   22.47
   2  -4   2 2273.00   26.05
   2  -4   2 2419.43   18.03
  -2  -4  -3 1495.12   18.68
   2  -4   3 1448.44   22.56
  -2  -4  -4 2568.94   26.02
  -2   4  -4 2087.87   28.80
   2  -4   4 2267.05   30.33
  -2  -4  -5 1614.91   28.95
  -2   4  -5 1235.68   23.98
   2  -4   5 1511.89   26.67
  -2   4  -6  914.16   22.34
   2  -4   6 1062.38   24.00
  -2   4  -7  846.75   23.14
   2  -4   7 1006.09   24.86
  -2  -6   6 1089.16   24.80
   2  -6  -6 1073.45   27.36
  -2  -6   5 1337.81   26.02
   2  -6  -5 1358.09   29.39
  -2  -6   4 1248.80   23.74
   2  -6  -4 1197.31   26.26
  -2  -6   3 2375.20   30.85
   2  -6  -3 2414.04   35.25
  -2  -6   2 1387.41   22.47
   2  -6  -2 1415.65   25.51
  -2  -6   1 1733.50   24.09
   2  -6  -1 1858.72   23.27
   2  -6  -1 1773.88   26.78
  -2  -6   0 1909.45   24.52
   2  -6   0 2000.08   25.46
   2  -6   0 1946.10   26.09
  -2  -6  -1 2080.61   25.25
   2  -6   1 2179.89   28.16
   2  -6   1 2142.70   25.16
  -2  -6  -2 1895.53   24.17
   2  -6   2 1863.20   27.68
  -2  -6  -3 2073.70   25.77
   2  -6   3 1981.32   30.23
  -2  -6  -4 1342.17   29.15
   2  -6   4 1319.87   26.26
  -2  -6  -5 1039.26   26.89
   2  -6   5 1022.09   24.52
  -2  -6  -6  907.16   26.15
  -2  -8   4  751.31   21.35
   2  -8  -4  797.54   24.50
  -2  -8   3 1135.71   25.08
   2  -8  -3 1153.85   27.94
  -2  -8   2  854.81   21.00
   2  -8  -2  852.97   22.90
  -2  -8   1 1397.25   25.90
  -2  -8   1 1427.78   26.86
   2  -8  -1 1393.55   27.58
  -2  -8   0 1376.27   25.14
   2  -8   0 1452.86   26.02
   2  -8   0 1399.23   26.07
  -2  -8  -1 1290.70   24.04
  -2  -8  -1 1223.70   27.55
   2  -8   1 1296.02   25.64
  -2  -8  -2 1125.98   22.41
  -2  -8  -2 1114.75   27.53
   2  -8   2 1120.98   24.97
  -2  -8  -3 1163.74   29.43
   2  -8   3 1158.29   26.50
   3  -1  -8  904.61   22.38
   3   1  -8  836.39   21.91
   3  -1  -7 1079.64   22.23
   3   1  -7 1054.54   22.34
   3  -1  -6 2781.08   32.08
   3   1  -6 2929.37   33.44
  -3  -1   5 3235.13   26.05
   3  -1  -5 2999.28   26.74
   3  -1  -5 2632.19   27.94
   3   1  -5 2414.11   27.30
  -3  -1   4 5020.39   28.83
  -3   1   4 5304.76   19.41
   3  -1  -4 4791.10   31.54
   3   1  -4 5066.25   24.69
   3   1  -4 4594.04   33.20
  -3  -1   3 4709.86   24.32
   3  -1  -3 4640.38   28.52
   3   1  -3 5708.29   25.18
   3   1  -3 5144.89   30.38
  -3  -1   2 6743.83   52.24
   3  -1  -2 6889.66   53.54
   3   1  -2 7036.39   48.75
   3   1  -2 6826.84   53.60
  -3  -1   1 3046.80   16.20
   3  -1  -1 3561.11   19.24
   3  -1  -1 3280.94   19.73
   3   1  -1 2359.91   16.44
   3   1  -1 2198.72   12.99
   3  -1   0 7130.04   59.46
   3  -1   0 7637.48   54.40
   3   1   0 7455.24   59.85
   3   1   0 8713.39   62.15
  -3   1  -1 2591.11   16.07
   3  -1   1 2544.34   20.06
   3  -1   1 2816.09   16.11
   3   1   1 2659.36   19.09
   3   1   1 3308.68   23.12
  -3   1  -2 5071.27   27.04
   3  -1   2 5435.64   33.72
   3  -1   2 6546.62   30.68
   3   1   2 5467.50   31.24
  -3  -1  -3 3292.98   23.20
  -3   1  -3 3649.31   26.89
   3  -1   3 3843.05   31.71
   3   1   3 3945.49   29.86
  -3  -1  -4 2821.00   25.23
  -3   1  -4 3113.44   28.39
   3  -1   4 3257.22   32.19
   3   1   4 3457.55   31.00
  -3  -1  -5 1598.96   21.76
  -3   1  -5 1773.40   24.17
   3  -1   5 1809.81   26.22
   3   1   5 1946.94   25.53
  -3   1  -6 1443.20   24.26
   3  -1   6 1562.40   26.35
   3   1   6 1608.01   25.23
   3  -1   7  894.58   21.63
   3  -3  -8 1014.57   24.37
   3   3  -8 1082.78   26.52
   3  -3  -7 1252.59   24.82
   3   3  -7 1248.71   25.85
  -3  -3   6 1070.85   19.78
   3  -3  -6 1058.39   21.35
   3   3  -6 1090.86   22.19
  -3  -3   5 1240.57   19.67
   3  -3  -5 1233.43   21.87
   3   3  -5 1123.35   20.64
  -3  -3   4 2552.48   25.90
   3  -3  -4 2331.47   28.20
   3   3  -4 2244.60   26.41
  -3  -3   3 1581.38   18.76
   3   3  -3 1444.69   19.35
  -3  -3   2 5239.61   31.50
   3  -3  -2 5560.68   22.94
   3  -3  -2 5213.65   36.28
   3   3  -2 5523.13   34.19
  -3  -3   1 4949.77   29.13
   3  -3  -1 5176.60   26.33
   3  -3  -1 5048.78   32.62
  -3  -3   0 6124.56   32.12
   3  -3   0 6362.62   33.72
   3  -3   0 6420.53   33.11
  -3  -3  -1 5121.51   30.38
   3  -3   1 4985.40   33.59
   3  -3   1 5158.63   26.26
  -3  -3  -2 4281.61   29.60
   3  -3   2 3796.93   32.42
   3  -3   2 4196.11   20.36
  -3   3  -3 1194.29   18.94
   3  -3   3 1310.97   20.96
   3   3   3 1274.24   17.56
  -3   3  -4 1849.80   25.46
   3  -3   4 1951.59   27.62
   3   3   4 2005.58   23.76
  -3  -3  -5 1374.95   21.03
  -3   3  -5 1390.16   24.04
   3  -3   5 1567.19   26.71
   3   3   5 1476.10   22.08
  -3   3  -6  933.25   21.57
   3  -3   6 1116.56   24.24
   3  -3   7 1128.24   26.00
  -3  -5   7  977.52   23.18
   3  -5  -7 1021.73   25.90
   3   5  -7  831.19   23.33
  -3  -5   6 1316.40   25.18
   3  -5  -6 1262.86   27.55
   3   5  -6 1074.27   24.60
  -3  -5   5 2361.63   31.60
   3  -5  -5 2369.79   35.91
   3   5  -5 2059.05   31.54
  -3  -5   4 2747.88   32.08
   3  -5  -4 2723.69   36.45
  -3  -5   3 1994.29   25.79
   3  -5  -3 1999.33   29.47
  -3  -5   2 2617.76   27.99
   3  -5  -2 2840.95   24.17
   3  -5  -2 2633.57   31.69
  -3  -5   1 2876.80   28.24
   3  -5  -1 2982.06   26.71
   3  -5  -1 2854.72   30.74
  -3  -5   0 2037.29   23.35
   3  -5   0 2058.10   23.98
   3  -5   0 2087.44   24.26
  -3  -5  -1 1565.72   20.53
   3  -5   1 1639.90   23.12
   3  -5   1 1630.09   19.54
  -3  -5  -2 2857.89   28.22
   3  -5   2 2793.00   32.32
  -3  -5  -3 2547.01   27.71
   3  -5   3 2334.98   31.63
  -3  -5  -4 1459.49   22.10
   3  -5   4 1355.44   25.77
  -3  -5  -5 1196.34   27.38
   3  -5   5 1144.03   25.25
   3  -5   6  924.52   24.13
  -3  -7   5  715.81   20.29
   3  -7  -5  761.93   23.57
  -3  -7   4  890.68   21.44
   3  -7  -4  906.30   24.41
  -3  -7   3 1708.13   28.29
   3  -7  -3 1760.76   32.16
  -3  -7   2 1133.34   22.28
   3  -7  -2 1152.43   24.62
  -3  -7   1 1054.17   20.85
   3  -7  -1 1145.06   21.11
   3  -7  -1 1057.32   22.25
  -3  -7   0 1898.23   27.34
   3  -7   0 2044.16   28.78
   3  -7   0 2024.00   28.70
  -3  -7  -1 1657.48   25.40
   3  -7   1 1709.57   27.71
  -3  -7  -2 1119.30   21.09
   3  -7   2 1087.58   23.37
  -3  -7  -3 1355.33   23.72
   3  -7   3 1330.73   27.19
  -3  -7  -4 1015.50   27.51
   3  -7   4  977.82   24.67
   3  -9  -2  967.93   25.70
  -3  -9   1  921.81   23.09
   3  -9  -1 1015.69   24.95
  -3  -9   0  761.61   20.75
  -3  -9   0  820.92   23.46
  -3  -9  -1  838.41   21.46
  -3  -9  -1  869.95   25.25
   3  -9   1  884.04   23.22
   4   0  -8  927.47   22.79
   4   0  -7  856.90   19.95
   4   0  -6 2893.63   32.79
   4   0  -5 3557.60   26.74
   4   0  -5 3106.28   30.42
  -4   0   4 4837.48   22.34
   4   0  -4 4589.97   28.65
   4   0  -4 4354.09   31.67
  -4   0   3 4875.61   19.00
   4   0  -3 5014.66   28.16
   4   0  -3 4640.68   27.96
  -4   0   2 5433.40   33.93
   4   0  -2 5619.47   43.71
   4   0  -2 5146.48   30.72
   4   0  -1 6133.87   39.66
   4   0  -1 6006.54   31.24
   4   0   0 3359.61   20.57
   4   0   0 3758.88   22.53
  -4   0  -1 3027.24   13.21
   4   0   1 3465.13   22.79
  -4   0  -2 5364.44   24.78
   4   0   2 5548.89   35.09
   4   0   2 6364.71   33.46
  -4   0  -3 5267.19   30.23
   4   0   3 5855.74   40.07
  -4   0  -4 1877.11   21.20
   4   0   4 2094.34   26.37
   4   0   5 2368.05   30.46
   4   0   6 1982.63   30.10
   4  -2  -8 1160.57   25.64
   4   2  -8 1289.04   27.60
   4  -2  -7 1204.80   23.87
   4   2  -7 1314.55   25.53
   4  -2  -6 1682.10   24.47
   4  -2  -6 1472.87   24.02
   4   2  -6 1675.12   26.18
  -4  -2   5 1743.16   20.77
   4  -2  -5 1614.52   22.71
   4   2  -5 1511.63   22.53
  -4  -2   4 3537.02   26.84
   4  -2  -4 3246.25   30.12
   4   2  -4 3785.38   24.02
   4   2  -4 3363.53   30.05
  -4  -2   3 3807.27   25.40
   4  -2  -3 3533.41   29.28
   4   2  -3 3891.18   24.78
   4   2  -3 3513.80   27.23
  -4  -2   2 4452.93   25.72
   4  -2  -2 5099.04   19.30
   4  -2  -2 4276.70   29.73
   4   2  -2 4139.88   26.28
   4   2  -2 3884.09   24.99
  -4  -2   1 5287.94   27.55
   4  -2  -1 5511.52   24.82
   4  -2  -1 5330.89   30.48
   4   2  -1 5288.86   31.24
  -4  -2   0 5693.39   29.86
   4  -2   0 5220.16   29.32
   4  -2   0 5526.98   28.59
   4   2   0 6403.35   36.69
   4  -2   1 4583.38   31.52
   4  -2   1 5129.76   25.70
   4   2   1 4896.40   29.99
  -4   2  -2 1875.20   19.48
   4  -2   2 1751.28   21.80
   4  -2   2 2052.09   15.68
   4   2   2 2039.75   21.22
  -4   2  -3 1997.95   22.36
   4  -2   3 2024.28   25.77
   4   2   3 2182.62   24.00
  -4   2  -4 1702.57   22.97
   4  -2   4 1929.66   27.32
   4   2   4 1812.78   23.91
   4  -2   5 1543.92   26.39
   4   2   5 1449.02   23.16
   4  -2   6  957.44   22.38
   4   2   6  919.26   20.04
   4  -2   7 1006.43   24.54
   4   4  -7 1052.94   24.80
  -4  -4   6 1778.01   26.89
   4  -4  -6 1733.98   29.88
   4   4  -6 1508.12   27.36
  -4  -4   5 2055.32   27.04
   4  -4  -5 2026.30   30.70
   4   4  -5 1960.96   28.76
  -4  -4   4 1962.10   24.71
   4  -4  -4 1875.99   27.94
   4   4  -4 1889.20   26.11
  -4  -4   3 1915.01   22.99
   4  -4  -3 1857.94   26.09
   4   4  -3 1859.19   24.02
  -4  -4   2 3442.32   29.26
   4  -4  -2 3650.43   23.87
  -4  -4   1 3569.30   28.91
   4  -4  -1 3727.69   27.40
   4  -4  -1 3711.61   31.78
  -4  -4   0 2330.78   23.40
   4  -4   0 2392.63   24.37
   4  -4   0 2470.57   23.85
  -4  -4  -1 4404.58   32.88
   4  -4   1 4396.46   36.17
   4  -4   1 4634.84   29.64
  -4  -4  -2 2986.33   28.31
   4  -4   2 2825.98   31.45
  -4  -4  -3 2674.18   28.37
   4  -4   3 2426.95   31.41
  -4  -4  -4 1961.16   25.94
   4  -4   4 1695.63   28.22
  -4  -4  -5 1445.25   23.81
   4  -4   5 1255.15   25.94
   4  -4   6  708.50   20.94
  -4  -6   7  707.02   20.83
  -4  -6   6 1097.43   24.41
   4  -6  -6 1082.78   27.40
  -4  -6   5 1186.12   24.04
   4  -6  -5 1196.21   27.51
  -4  -6   4 1491.96   25.55
   4  -6  -4 1445.21   28.70
  -4  -6   3 2230.90   29.79
   4  -6  -3 2220.67   33.54
  -4  -6   2 1507.19   23.63
   4  -6  -2 1540.54   26.35
  -4  -6   1 1822.89   25.31
   4  -6  -1 2038.99   25.31
   4  -6  -1 1908.11   27.45
  -4  -6   0 1813.62   24.97
   4  -6   0 1977.12   26.65
   4  -6   0 1846.20   25.14
  -4  -6  -1 1931.90   25.87
   4  -6   1 2008.74   28.59
  -4  -6  -2 1343.18   22.06
   4  -6   2 1318.96   24.65
  -4  -6  -3 1932.18   27.19
   4  -6   3 1748.05   30.10
   4  -6   4 1033.83   24.56
  -4  -6  -5 1044.28   27.88
  -4  -8   4  801.01   21.93
   4  -8  -4  864.18   25.23
  -4  -8   3 1038.53   24.02
   4  -8  -3 1078.67   26.78
  -4  -8   2  956.38   22.36
   4  -8  -2  962.65   24.02
  -4  -8   1 1327.71   25.74
   4  -8  -1 1421.45   27.51
  -4  -8   0  973.73   21.80
  -4  -8  -1  930.25   21.33
   4  -8   1  965.17   23.03
  -4  -8  -2  772.73   19.63
   4  -8   2  731.49   21.20
   5  -1  -8  812.19   21.39
   5   1  -8  937.99   23.22
   5  -1  -7 1278.74   24.41
   5   1  -7 1394.67   25.70
   5  -1  -6 2448.86   27.30
   5  -1  -6 2110.32   28.37
   5   1  -6 2410.12   30.55
   5  -1  -5 1957.19   23.20
   5  -1  -5 1738.89   23.12
   5   1  -5 1995.67   19.99
   5   1  -5 1744.23   23.35
  -5  -1   4 2501.47   19.45
   5  -1  -4 2455.95   24.52
   5   1  -4 2660.07   22.43
   5   1  -4 2476.61   24.62
  -5  -1   3 5166.75   25.64
   5  -1  -3 5545.92   34.58
   5   1  -3 5598.36   31.82
   5   1  -3 5346.86   31.15
  -5  -1   2 5042.40   24.73
   5  -1  -2 5196.94   21.54
   5  -1  -2 5088.18   31.20
   5   1  -2 4537.81   28.48
   5   1  -2 4306.17   23.16
  -5  -1   1 4600.33   25.03
   5  -1  -1 4487.68   22.92
   5  -1  -1 4634.30   28.33
   5   1  -1 4336.10   28.27
   5   1  -1 4412.71   17.62
   5  -1   0 6570.02   51.19
   5  -1   0 7030.53   44.49
   5   1   0 7319.11   52.48
   5   1   0 8152.80   69.54
   5  -1   1 3073.90   26.18
   5  -1   1 3514.99   24.00
   5   1   1 3218.05   25.72
   5   1   1 3734.06   29.02
  -5  -1  -2 3098.42   17.92
  -5   1  -2 3288.63   22.53
   5  -1   2 3211.65   29.82
   5  -1   2 3834.48   25.98
   5   1   2 3390.85   29.23
   5  -1   3 2413.20   28.37
   5   1   3 2776.23   29.02
   5  -1   4 2227.71   29.60
   5   1   4 2237.41   28.37
   5  -1   5 1357.01   25.03
   5   1   5 1168.98   22.30
   5  -1   6 1457.14   27.83
   5   1   6 1442.82   26.56
   5  -3  -8 1092.11   25.66
   5   3  -8 1017.12   25.40
   5  -3  -7 1399.38   26.63
   5   3  -7 1333.29   26.63
   5  -3  -6 1350.24   24.54
   5   3  -6 1293.26   24.13
  -5  -3   5 3437.58   31.69
   5  -3  -5 3358.95   36.58
   5   3  -5 3101.78   33.93
  -5  -3   4 3656.46   30.46
   5  -3  -4 3593.58   35.68
   5   3  -4 3883.75   28.70
   5   3  -4 3422.41   32.44
  -5  -3   3 2688.38   24.62
   5  -3  -3 2572.43   28.33
   5   3  -3 3119.19   26.52
   5   3  -3 2851.42   26.89
  -5  -3   2 3481.23   26.95
   5  -3  -2 3711.01   20.72
   5  -3  -2 3510.48   30.85
   5   3  -2 3745.67   30.12
   5   3  -2 3331.39   26.18
  -5  -3   1 4133.70   29.26
   5  -3  -1 4096.88   26.82
   5  -3  -1 4016.52   30.68
   5   3  -1 3942.73   32.38
  -5  -3   0 2764.00   24.58
   5  -3   0 2566.36   24.28
   5  -3   0 2643.25   23.18
  -5  -3  -1 3516.49   29.13
   5  -3   1 3188.04   30.10
   5  -3   1 3477.39   24.80
  -5  -3  -2 3561.52   31.32
   5  -3   2 3250.99   33.16
   5  -3   3 1841.20   27.10
   5   3   3 1821.81   24.04
   5  -3   4 2154.14   31.45
   5   3   4 2261.54   28.72
   5  -3   5 1139.33   24.62
   5   3   5 1164.54   22.21
   5  -3   6  823.61   22.38
   5  -5  -7  961.49   25.36
   5   5  -7  764.28   22.25
  -5  -5   6 1156.72   23.22
   5  -5  -6 1173.28   26.76
   5   5  -6  920.77   22.73
  -5  -5   5 1625.85   25.94
   5  -5  -5 1671.14   30.33
   5   5  -5 1541.55   27.21
  -5  -5   4  971.98   19.13
   5  -5  -4  935.92   21.57
  -5  -5   3 1548.77   22.97
   5  -5  -3 1620.01   26.65
  -5  -5   2 2030.37   25.40
   5  -5  -2 2087.21   28.44
  -5  -5   1 2251.56   26.30
   5  -5  -1 2411.63   25.70
   5  -5  -1 2364.92   28.27
  -5  -5   0 1669.78   22.73
   5  -5   0 1726.98   23.68
   5  -5   0 1731.57   22.53
  -5  -5  -1 2547.64   28.57
   5  -5   1 2616.58   31.37
  -5  -5  -2 2624.14   29.97
   5  -5   2 2487.70   32.70
  -5  -5  -3 1498.31   23.72
   5  -5   3 1421.29   26.48
  -5  -5  -4 1158.42   22.02
   5  -5   4 1090.56   24.71
   5  -5   5 1028.99   25.49
  -5  -7   5  871.27   22.17
   5  -7  -5  923.59   25.90
  -5  -7   4 1172.90   24.60
   5  -7  -4 1230.07   28.27
  -5  -7   3 1994.48   30.85
   5  -7  -3 2041.94   34.49
  -5  -7   2 1097.88   22.34
   5  -7  -2 1122.27   24.26
  -5  -7   1 1649.23   26.84
   5  -7  -1 1725.73   28.27
  -5  -7   0 1819.18   27.99
   5  -7   0 1929.08   29.30
  -5  -7  -1  954.70   20.51
   5  -7   1  985.14   22.25
  -5  -7  -2  709.86   18.10
   5  -7   2  717.51   20.10
  -5  -7  -3 1119.40   23.14
   5  -7   3 1085.62   25.98
   5  -9  -2  708.12   22.15
   6   0  -8 1295.05   27.02
   6   0  -7 1207.60   23.85
   6   0  -6 2434.38   30.51
   6   0  -5 1081.79   16.85
   6   0  -5 1014.90   17.77
   6   0  -4 1500.47   19.00
   6   0  -4 1416.34   18.42
  -6   0   3 3119.66   17.34
   6   0  -3 3033.36   25.98
   6   0  -3 2923.14   22.64
  -6   0   2 6369.04   38.50
   6   0  -2 6434.74   36.73
   6   0  -2 6002.45   26.26
   6   0  -1 3725.23   23.74
   6   0  -1 3882.91   28.22
   6   0   0 6713.73   36.26
   6   0   0 7257.28   39.02
   6   0   1 3487.69   29.19
   6   0   1 3933.06   29.75
   6   0   2 3309.78   31.37
   6   0   2 3667.34   30.25
   6   0   3 1114.15   19.95
   6   0   4  956.43   20.04
   6   0   5 1190.35   23.98
   6   0   6 1050.70   24.19
   6  -2  -8  975.15   23.87
   6   2  -8  990.66   24.41
   6  -2  -7 1095.90   23.20
   6   2  -7 1030.24   22.81
   6  -2  -6 1878.49   27.04
   6  -2  -6 1614.97   25.68
   6   2  -6 1825.75   27.47
   6  -2  -5 3002.55   32.49
   6   2  -5 2645.14   29.90
  -6  -2   4 4861.22   31.52
   6  -2  -4 4783.97   38.78
   6   2  -4 5100.36   34.23
   6   2  -4 4721.53   35.72
  -6  -2   3 2561.42   21.87
   6  -2  -3 2444.79   26.18
   6   2  -3 2743.57   25.25
   6   2  -3 2526.93   23.14
  -6  -2   2 3931.90   26.84
   6  -2  -2 4216.42   21.03
   6  -2  -2 3864.19   31.07
   6   2  -2 3962.83   30.83
   6   2  -2 3733.14   24.17
  -6  -2   1 3305.37   25.40
   6  -2  -1 3331.13   23.72
   6  -2  -1 3146.48   26.58
   6   2  -1 3150.90   28.33
  -6  -2   0 4173.03   30.29
   6  -2   0 4000.04   30.07
   6  -2   0 4200.11   29.43
   6   2   0 4717.98   36.21
   6  -2   1 2233.98   25.16
   6  -2   1 2463.16   22.04
   6   2   1 2080.68   23.07
   6   2   1 2306.30   26.80
   6  -2   2 3143.60   32.70
   6  -2   2 3565.35   27.83
   6   2   2 3326.26   31.45
   6  -2   3 2638.16   32.51
   6   2   3 2740.77   30.79
   6  -2   4 2384.12   33.24
   6   2   4 2417.36   31.17
   6  -2   5 1349.68   26.86
   6   2   5 1373.08   25.27
   6  -2   6  947.40   24.11
   6   2   6 1002.70   23.18
   6  -4  -7 1342.70   28.09
   6   4  -7 1150.10   25.85
   6  -4  -6 1379.56   27.21
   6   4  -6 1339.49   25.81
  -6  -4   5 1657.99   24.13
   6  -4  -5 1683.39   28.50
   6   4  -5 1571.24   25.77
  -6  -4   4 2364.62   27.30
   6  -4  -4 2292.80   31.50
   6   4  -4 2471.44   26.63
   6   4  -4 2219.59   28.20
  -6  -4   3 2047.11   24.41
   6  -4  -3 2048.69   28.07
  -6  -4   2 2786.60   27.81
   6  -4  -2 2878.63   31.24
  -6  -4   1 1999.18   23.57
   6  -4  -1 2000.15   22.17
   6  -4  -1 2032.10   24.67
  -6  -4   0 2249.58   25.46
   6  -4   0 2158.47   25.55
   6  -4   0 2244.47   24.30
  -6  -4  -1 2510.62   27.90
   6  -4   1 2428.41   29.49
   6  -4   1 2435.87   23.74
  -6  -4  -2 2243.94   27.71
   6  -4   2 2170.28   30.10
  -6  -4  -3 1762.09   25.98
   6  -4   3 1613.36   27.83
  -6  -4  -4 1536.75   25.81
   6  -4   4 1395.46   27.62
   6  -4   5  950.42   24.32
  -6  -6   6  981.98   22.97
   6  -6  -6  982.95   26.48
  -6  -6   5  936.56   21.44
   6  -6  -5  952.83   24.84
  -6  -6   4 1185.65   23.09
   6  -6  -4 1175.87   26.11
  -6  -6   3 1718.77   26.76
   6  -6  -3 1809.73   30.61
  -6  -6   2 1559.65   24.90
   6  -6  -2 1671.80   27.79
  -6  -6   1 1881.34   27.06
   6  -6  -1 1978.30   28.39
  -6  -6   0 2337.61   30.27
   6  -6   0 2476.07   31.73
   6  -6   0 2352.04   28.98
  -6  -6  -1 1338.35   23.40
   6  -6   1 1376.07   25.36
  -6  -6  -2  991.39   20.72
   6  -6   2 1018.06   23.18
  -6  -6  -3 1112.75   22.73
   6  -6   3 1043.36   24.84
  -6  -6  -4  724.62   19.26
   6  -6   4  679.10   21.37
  -6  -8   3  889.81   22.64
   6  -8  -3  945.78   25.23
  -6  -8   2  876.13   22.00
   6  -8  -2  926.55   23.70
  -6  -8   1  955.01   22.69
   6  -8  -1 1071.58   24.04
  -6  -8   0  813.03   20.96
  -6  -8  -1  918.27   22.41
   6  -8   1  952.74   24.11
   6  -8   2  990.57   26.00
   7  -1  -8 1128.19   25.57
   7   1  -8 1076.99   25.12
   7  -1  -7 1522.59   27.02
   7   1  -7 1374.03   25.81
   7  -1  -6 2466.46   29.79
   7  -1  -6 2136.37   29.04
   7   1  -6 2045.71   28.50
   7  -1  -5 1896.98   25.06
   7  -1  -5 1668.46   23.16
   7   1  -5 1788.78   22.30
   7   1  -5 1599.16   22.69
  -7  -1   4 2958.64   22.69
   7  -1  -4 3000.85   30.05
   7  -1  -4 2701.22   26.20
   7   1  -4 3094.95   28.65
   7   1  -4 2832.42   26.61
  -7  -1   3 3805.87   24.65
   7  -1  -3 3712.54   31.99
   7   1  -3 4058.94   32.34
   7   1  -3 3893.36   26.82
  -7  -1   2 3140.28   23.33
   7  -1  -2 3047.62   20.14
   7  -1  -2 3159.62   28.44
   7   1  -2 3035.10   27.90
   7   1  -2 2914.09   18.89
  -7  -1   1 4314.94   29.41
   7  -1  -1 3956.48   27.19
   7  -1  -1 4139.66   31.69
   7   1  -1 4440.24   34.10
   7  -1   0 4717.20   33.76
   7  -1   0 4980.88   34.47
   7   1   0 4478.48   32.70
   7   1   0 5308.88   38.37
   7  -1   1 3710.84   33.18
   7  -1   1 3973.91   31.11
   7   1   1 3207.24   30.16
   7   1   1 3409.68   32.08
   7  -1   2 2325.87   28.76
   7  -1   2 2651.09   26.11
   7   1   2 2267.57   27.55
   7   1   2 2377.36   28.18
   7  -1   3 2194.60   30.20
   7   1   3 2337.95   30.20
   7  -1   4 1198.86   24.09
   7   1   4 1198.90   23.35
   7  -1   5 1009.68   23.72
   7   1   5 1009.77   23.01
   7   3  -8  962.27   25.01
   7  -3  -7  965.39   22.64
   7  -3  -7  898.22   21.91
   7   3  -7  926.89   22.49
   7  -3  -6 1383.03   25.79
   7   3  -6 1406.41   25.23
  -7  -3   5 2708.50   28.24
   7  -3  -5 2688.66   34.15
   7   3  -5 2511.55   30.74
  -7  -3   4 2446.42   25.64
   7  -3  -4 2463.06   31.00
   7   3  -4 2924.02   29.32
   7   3  -4 2495.87   27.81
  -7  -3   3 1703.62   20.81
   7  -3  -3 1686.32   24.32
   7   3  -3 2117.00   25.38
   7   3  -3 1830.90   21.46
  -7  -3   2 2761.80   26.35
   7  -3  -2 2712.72   29.19
   7   3  -2 2883.97   30.27
  -7  -3   1 2673.52   26.48
   7  -3  -1 2619.01   24.62
   7  -3  -1 2556.86   26.93
   7   3  -1 2516.66   29.21
  -7  -3   0 1231.69   18.79
   7  -3   0 1138.56   18.33
   7  -3   0 1194.96   17.64
   7   3   0 1358.90   22.45
  -7  -3  -1 2621.14   28.80
   7  -3   1 2463.81   29.49
   7  -3   1 2631.01   25.21
  -7  -3  -2 2329.94   28.83
   7  -3   2 2128.53   29.64
   7  -3   3 1754.29   28.91
   7   3   3 1771.57   26.80
   7  -3   4 1533.32   28.91
   7   3   4 1535.82   26.65
   7  -3   5 1167.17   26.86
   7   3   5 1175.76   24.84
   7  -5  -7  911.98   25.21
   7   5  -7  836.97   23.31
  -7  -5   6 1186.81   25.16
   7  -5  -6 1186.75   27.49
   7   5  -6 1036.22   24.06
  -7  -5   5 1234.17   22.86
   7  -5  -5 1261.16   26.95
   7   5  -5 1175.53   23.81
  -7  -5   4 1425.30   23.55
   7  -5  -4 1421.66   27.14
  -7  -5   3 2593.80   30.81
   7  -5  -3 2656.17   35.05
  -7  -5   2 2516.66   29.88
   7  -5  -2 2556.77   32.51
  -7  -5   1 2361.03   29.00
   7  -5  -1 2370.22   29.54
   7  -5   0 1941.42   27.21
   7  -5   0 1865.67   24.71
  -7  -5  -1 2482.10   31.04
   7  -5   1 2456.10   32.94
  -7  -5  -2 1087.93   21.50
   7  -5   2 1080.15   23.42
  -7  -5  -3  951.73   21.07
   7  -5   3  902.72   22.75
  -7  -5  -4  887.44   21.44
   7  -5   4  824.69   23.16
  -7  -7   5  857.09   22.19
   7  -7  -5  864.97   28.01
  -7  -7   4  819.28   21.03
   7  -7  -4  835.18   23.74
  -7  -7   3  947.31   22.02
   7  -7  -3 1022.89   24.80
  -7  -7   2  619.74   17.62
   7  -7  -2  656.78   18.94
  -7  -7   1 1287.68   25.03
   7  -7  -1 1336.31   25.44
  -7  -7   0 1139.16   23.65
  -7  -7  -1  953.48   22.08
   7  -7   1  988.40   23.57
  -7  -7  -2  946.75   22.47
   7  -7   2  931.46   24.21
   8   0  -8  658.50   19.84
   8   0  -7 1165.98   23.85
   8   0  -6 2514.42   29.90
   8   0  -6 2169.89   29.32
   8   0  -5 2137.88   26.71
   8   0  -5 1935.37   24.86
   8   0  -4 2904.61   30.18
   8   0  -4 2640.27   25.57
  -8   0   3 4730.09   26.43
   8   0  -3 4769.92   37.64
   8   0  -3 4444.22   28.20
  -8   0   2 2882.21   22.88
   8   0  -2 3024.50   29.56
   8   0  -1 1882.50   20.64
   8   0  -1 2022.96   24.11
   8   0   0 4044.70   33.28
   8   0   0 4403.72   35.96
   8   0   1 2633.72   29.41
   8   0   1 2812.73   29.51
   8   0   2 2351.91   30.05
   8   0   2 2586.37   29.36
   8   0   3 1749.42   27.96
   8   0   4 1934.03   31.48
   8   0   5 1087.78   25.29
   8  -2  -8 1108.40   25.94
   8   2  -8 1081.94   25.79
   8  -2  -7 1535.91   27.25
   8  -2  -7 1402.12   26.80
   8   2  -7 1283.54   25.72
   8  -2  -6 1717.63   27.66
   8  -2  -6 1522.29   25.51
   8   2  -6 1626.63   26.26
   8  -2  -5 2411.14   31.26
   8   2  -5 2577.86   28.67
   8   2  -5 2206.39   27.62
  -8  -2   4 2010.88   21.52
   8  -2  -4 2003.10   27.25
   8   2  -4 2154.64   26.05
   8   2  -4 1970.42   23.31
  -8  -2   3 1811.92   20.38
   8  -2  -3 1787.36   24.65
   8   2  -3 2204.47   26.37
   8   2  -3 2003.25   20.53
  -8  -2   2 3050.08   26.97
   8  -2  -2 2921.16   30.20
   8   2  -2 3281.84   32.53
  -8  -2   1 3215.12   29.02
   8  -2  -1 3048.18   26.97
   8  -2  -1 2927.28   29.23
   8   2  -1 3105.77   32.32
  -8  -2   0 2474.93   27.04
   8  -2   0 2414.56   26.95
   8  -2   0 2405.06   25.96
   8   2   0 2457.69   29.73
   8  -2   1 2152.85   27.90
   8  -2   1 2291.63   25.21
   8   2   1 1818.95   24.82
   8   2   1 1946.70   27.62
   8  -2   2 2379.77   31.69
   8   2   2 2217.80   29.26
   8  -2   3 1315.32   25.44
   8   2   3 1227.21   23.33
   8  -2   4 1167.30   25.62
   8   2   4 1106.74   23.68
   8   2   5  702.23   20.23
   8  -4  -7 1151.05   27.08
   8   4  -7 1070.26   25.16
   8  -4  -6  761.22   21.16
   8   4  -6  711.09   19.13
  -8  -4   5 1596.72   24.17
   8  -4  -5 1563.76   28.61
   8   4  -5 1430.26   24.73
  -8  -4   4 2044.18   26.46
   8  -4  -4 2054.44   31.11
   8   4  -4 2194.56   28.59
   8   4  -4 1874.66   25.83
  -8  -4   3 2357.36   27.81
   8  -4  -3 2271.66   31.13
   8   4  -3 2297.17   29.84
  -8  -4   2 2584.63   29.13
   8  -4  -2 2556.19   31.35
   8   4  -2 2640.90   32.83
  -8  -4   1 2637.69   29.82
   8  -4  -1 2579.26   30.01
  -8  -4   0 2123.62   27.60
   8  -4   0 2067.60   27.58
   8  -4   0 2051.42   25.55
  -8  -4  -1 1874.79   27.04
   8  -4   1 1773.83   27.66
  -8  -4  -2 1493.21   25.40
   8  -4   2 1401.67   26.43
  -8  -4  -3 1048.63   22.47
   8  -4   3  913.45   22.79
  -8  -4  -4 1185.91   25.25
   8  -4   4 1047.13   25.87
  -8  -6   5 1137.16   24.02
   8  -6  -5 1127.16   27.47
  -8  -6   4  975.90   21.59
   8  -6  -4 1003.46   24.80
  -8  -6   3 1413.15   25.38
   8  -6  -3 1460.05   28.29
  -8  -6   2  936.24   20.53
   8  -6  -2  941.43   21.59
  -8  -6   1 1293.99   24.13
   8  -6  -1 1330.94   24.30
  -8  -6   0 1456.43   25.92
  -8  -6  -1 1161.50   23.76
   8  -6   1 1167.60   24.97
  -8  -6  -2 1162.75   24.52
   8  -6   2 1179.30   26.67
  -8  -6  -3 1137.48   27.77
   8  -8  -2  766.13   22.02
   9  -1  -8  934.17   23.76
   9   1  -8  885.31   23.22
   9  -1  -7 1183.50   24.41
   9   1  -7 1189.53   24.45
   9  -1  -6 2046.04   29.75
   9  -1  -6 1794.32   27.27
   9   1  -6 2263.37   29.28
   9   1  -6 1973.09   28.39
   9  -1  -5 1849.84   27.27
   9  -1  -5 1657.11   23.61
   9   1  -5 1957.73   26.69
   9   1  -5 1717.95   23.85
   9  -1  -4 3307.39   35.14
   9  -1  -4 3043.03   28.33
   9   1  -4 3444.75   34.79
  -9  -1   3 2290.13   22.21
   9  -1  -3 2191.33   27.73
   9   1  -3 2427.21   28.93
  -9  -1   2 2337.28   23.78
   9  -1  -2 2285.92   21.87
   9  -1  -2 2262.46   27.51
   9   1  -2 2513.51   29.39
  -9  -1   1 2004.59   23.68
   9  -1  -1 1875.48   22.36
   9  -1  -1 1825.71   24.41
   9   1  -1 2003.10   26.52
   9  -1   0 2633.38   29.21
   9  -1   0 2688.38   29.54
   9   1   0 2644.07   29.19
   9   1   0 2688.96   31.39
   9  -1   1 1626.32   25.01
   9  -1   1 1662.88   23.57
   9   1   1 1473.58   23.50
   9   1   1 1575.31   24.84
   9  -1   2 1958.44   29.62
   9   1   2 2093.41   29.99
   9   1   2 2214.25   30.57
   9  -1   3 1614.82   28.78
   9   1   3 1670.79   28.61
   9  -1   4 1176.37   26.24
   9   1   4 1064.99   24.43
   9  -3  -7 1071.81   25.14
   9  -3  -7  964.98   23.27
   9   3  -7  948.63   23.01
   9  -3  -6 1289.17   26.33
   9   3  -6 1118.35   22.79
   9  -3  -5 1550.00   27.60
   9   3  -5 1513.05   24.09
   9   3  -5 1302.68   22.36
  -9  -3   4 1610.34   22.17
   9  -3  -4 1526.77   26.18
   9   3  -4 1794.39   26.28
  -9  -3   3 1877.54   23.87
   9  -3  -3 1783.68   27.04
   9   3  -3 1835.73   26.84
  -9  -3   2 4045.13   35.50
   9  -3  -2 3970.14   38.65
   9   3  -2 4040.35   40.42
  -9  -3   1 2896.99   31.07
   9  -3  -1 2987.92   29.95
   9  -3  -1 2795.02   31.32
   9   3  -1 2940.63   35.35
  -9  -3   0 2529.50   30.38
   9  -3   0 2446.90   30.01
   9  -3   0 2410.64   28.31
   9   3   0 2660.31   34.75
  -9  -3  -1 2430.80   31.32
   9  -3   1 2286.76   31.50
  -9  -3  -2 1611.93   27.02
   9  -3   2 1492.73   27.36
   9  -3   3  760.27   21.00
   9   3   3  748.32   19.60
   9  -3   4  806.94   23.35
   9   3   4  813.83   21.69
   9   5  -7  757.45   22.94
   9  -5  -6 1010.22   26.26
   9   5  -6  950.57   24.69
  -9  -5   5 1176.47   23.03
   9  -5  -5 1139.72   26.54
  -9  -5   4 1429.11   24.73
   9  -5  -4 1425.65   28.27
  -9  -5   3 1434.80   24.47
   9  -5  -3 1425.58   26.97
  -9  -5   2 1098.59   21.39
   9  -5  -2 1126.19   22.88
  -9  -5   1  981.78   20.55
   9  -5  -1  939.45   19.97
  -9  -5   0 1369.83   24.75
  -9  -5  -1 1256.62   24.54
   9  -5   1 1183.47   24.88
  -9  -5  -2  889.84   21.57
   9  -5   2  869.18   22.79
  -9  -5  -3 1076.08   28.37
   9  -5   3 1034.37   26.24
  -9  -7   4  777.62   21.29
  -9  -7   3 1043.89   24.21
   9  -7  -3 1045.96   25.85
  -9  -7   2  951.32   22.99
   9  -7  -2 1008.35   24.17
  -9  -7   1 1052.08   24.19
  -9  -7   0  907.98   23.31
  10   0  -8  855.60   22.86
  10   0  -7 1232.59   24.93
  10   0  -6 2499.44   33.28
  10   0  -6 2250.64   30.42
  10   0  -5 1931.17   28.52
  10   0  -4 2961.19   34.45
  10   0  -3 2799.98   32.88
 -10   0   2 1429.33   19.35
  10   0  -2 1425.15   23.29
  10   0  -1 1618.29   22.47
  10   0  -1 1593.38   24.65
  10   0   0 2169.46   28.14
  10   0   0 2175.79   29.06
  10   0   1 1310.82   23.61
  10   0   1 1401.69   23.87
  10   0   2 1160.68   23.81
  10   0   3 1602.97   29.77
  10   2  -8  783.73   22.41
  10  -2  -7  978.90   23.50
  10  -2  -7  880.55   21.85
  10   2  -7  930.55   22.28
  10  -2  -6 1315.19   26.13
  10  -2  -6 1172.55   22.94
  10  -2  -5 1469.40   26.58
  10   2  -5 1357.72   23.81
  10  -2  -4 1722.24   27.71
  10   2  -4 1710.97   26.54
 -10  -2   3 2215.80   25.34
  10  -2  -3 2064.35   29.28
  10   2  -3 2169.85   29.88
 -10  -2   2 3127.70   31.20
  10  -2  -2 2938.95   33.89
  10   2  -2 2933.46   34.94
 -10  -2   1 2749.20   30.72
  10  -2  -1 2745.41   29.58
  10  -2  -1 2630.21   31.43
  10   2  -1 2628.98   33.72
 -10  -2   0 2042.85   28.07
  10  -2   0 2009.39   27.88
  10  -2   0 1934.05   26.69
  10   2   0 2127.32   31.13
  10  -2   1 2150.22   31.13
  10  -2   1 2190.77   31.04
  10   2   1 2078.07   30.03
  10   2   1 2243.61   32.96
  10  -2   2 1435.21   27.38
  10   2   2 1497.64   27.12
  10  -2   3  987.73   24.24
  10   2   3  992.56   23.46
  10  -4  -7  979.85   27.08
  10  -4  -7  904.68   23.78
  10  -4  -6  902.68   24.02
  10  -4  -5 1533.92   29.88
 -10  -4   4 1481.88   24.06
  10  -4  -4 1459.19   27.88
  10   4  -4 1706.04   28.33
 -10  -4   3 1107.10   20.77
  10  -4  -3 1071.86   22.94
  10   4  -3 1197.28   24.15
 -10  -4   2 1460.89   24.13
  10  -4  -2 1387.47   25.01
  10   4  -2 1497.15   27.51
 -10  -4   1 1792.96   27.36
  10  -4  -1 1723.81   26.86
 -10  -4   0 1251.21   23.70
  10  -4   0 1212.13   23.37
  10  -4   0 1223.61   22.02
 -10  -4  -1 1585.31   27.77
  10  -4   1 1505.40   27.94
 -10  -4  -2 1172.12   25.03
  10  -4   2 1087.50   25.38
 -10  -6   5  972.30   23.09
 -10  -6   4  994.54   22.92
  10  -6  -4 1023.58   25.92
 -10  -6   3 1279.54   25.68
  10  -6  -3 1295.14   27.83
 -10  -6   2  873.98   21.35
  10  -6  -2  852.33   21.67
 -10  -6   1 1087.22   24.00
  10  -6  -1 1083.08   23.46
 -10  -6   0  913.32   22.49
  11  -1  -7 1011.58   23.78
  11  -1  -6 1451.65   27.58
  11   1  -6 1635.29   27.99
  11  -1  -5 1605.36   28.07
  11   1  -5 1507.30   26.43
  11  -1  -4 2139.41   31.45
  11   1  -4 2004.05   30.03
  11  -1  -3 2075.12   30.31
  11   1  -3 1979.60   29.64
 -11  -1   2 2490.83   28.42
  11  -1  -2 2289.65   31.30
  11   1  -2 2119.03   30.70
 -11  -1   1 2320.16   29.23
  11  -1  -1 2301.28   28.61
  11  -1  -1 2272.91   30.94
  11   1  -1 2142.90   31.13
  11  -1   0 2025.85   29.15
  11  -1   0 1934.81   28.63
  11   1   0 2044.57   29.34
  11   1   0 2086.39   31.28
  11  -1   1 1255.84   24.80
  11  -1   1 1286.24   23.63
  11   1   1 1280.01   24.75
  11   1   1 1338.48   25.77
  11  -1   2 1380.17   27.66
  11   1   2 1423.13   27.75
  11  -1   3  941.54   24.37
  11   1   3  873.16   23.18
  11  -3  -7 1061.78   26.56
  11  -3  -6 1118.56   26.22
  11  -3  -5 1323.79   27.40
  11   3  -5 1504.91   27.10
  11  -3  -4 1303.88   26.18
  11   3  -4 1546.23   27.51
 -11  -3   3 1377.17   22.69
  11  -3  -3 1321.91   25.46
  11   3  -3 1429.46   26.65
 -11  -3   2 1535.52   24.60
  11  -3  -2 1488.58   26.15
  11   3  -2 1614.39   28.70
 -11  -3   1 1144.18   22.02
  11  -3  -1 1102.54   22.00
  11   3  -1 1199.09   25.27
 -11  -3   0 1287.75   24.41
  11  -3   0 1276.46   24.30
  11  -3   0 1211.85   22.64
  11   3   0 1272.99   26.69
 -11  -3  -1 1490.47   27.53
  11  -3   1 1415.95   27.42
 -11  -3  -2 1125.18   25.27
  11  -3   2 1031.03   25.03
  11  -5  -5 1163.53   28.20
 -11  -5   4 1144.14   23.63
  11  -5  -4 1152.34   26.86
 -11  -5   3 1227.49   24.43
  11  -5  -3 1194.07   26.20
 -11  -5   2 1089.11   23.25
  11  -5  -2 1076.73   23.96
 -11  -5   1 1385.38   26.71
  11  -5  -1 1351.92   25.85
 -11  -5   0 1368.94   27.25
  12   0  -7  823.74   22.88
  12   0  -6 1300.16   26.76
  12   0  -5  751.91   20.01
  12   0  -4 1442.04   26.99
  12   0  -3 1726.24   29.15
  12   0  -2 1909.04   30.40
  12   0  -1 2297.51   30.57
  12   0  -1 2227.54   32.88
  12   0   0 2275.24   32.60
  12   0   0 2287.91   33.72
  12   0   1 1030.26   23.53
  12   0   1 1064.73   23.50
  12   0   2 1049.69   25.25
  12  -2  -7 1102.10   26.84
  12  -2  -6 1439.93   29.60
  12   2  -6 1572.06   29.02
  12  -2  -5 1450.40   28.80
  12   2  -5 1342.83   26.63
  12  -2  -4 1775.23   30.85
  12   2  -4 1903.76   31.48
  12  -2  -3 1532.57   27.99
  12   2  -3 1672.39   29.54
 -12  -2   2 1619.84   25.46
  12  -2  -2 1500.79   27.08
  12   2  -2 1453.07   27.71
 -12  -2   1 1081.29   21.95
  12  -2  -1 1072.07   22.66
  12   2  -1  996.20   23.40
 -12  -2   0 1286.28   25.14
  12  -2   0 1229.43   24.50
  12  -2   0 1191.98   23.74
  12   2   0 1302.85   27.19
 -12  -2  -1 1230.29   25.98
  12  -2   1 1148.75   25.44
  12   2   1 1115.81   25.83
  12  -2   2  872.21   23.68
  12  -4  -5 1292.27   29.26
  12   4  -5 1474.66   29.15
  12  -4  -4 1089.57   25.90
  12   4  -4 1228.16   26.82
 -12  -4   3  908.43   20.70
  12  -4  -3  902.55   22.79
  12   4  -3  892.44   23.20
 -12  -4   2 1446.22   26.52
  12  -4  -2 1328.64   26.69
  12   4  -2 1423.30   29.60
 -12  -4   1 1129.47   24.19
  12  -4  -1 1081.25   23.48
 -12  -4   0  961.12   23.18
  12  -4   1 1063.24   25.79
  12  -6  -2  922.58   25.40
  13  -1  -6 1206.94   27.62
  13   1  -6 1288.48   27.73
  13  -1  -5 1080.58   25.46
  13   1  -5 1024.16   24.43
  13  -1  -4 1126.84   25.44
  13   1  -4 1262.32   26.80
  13  -1  -3 1331.41   27.08
  13   1  -3 1554.50   29.47
  13  -1  -2 1435.02   27.81
  13   1  -2 1427.37   28.29
 -13  -1   1 1464.53   26.39
  13  -1  -1 1306.25   26.46
  13   1  -1 1355.72   27.86
 -13  -1   0 1324.59   26.56
  13  -1   0 1203.23   25.31
  13  -1   0 1192.85   25.36
  13   1   0 1305.61   27.71
  13  -1   1 1010.46   24.80
  13   1   1  996.89   24.52
  13   1   1 1011.02   24.90
  13  -3  -5 1294.83   29.30
  13   3  -5 1410.20   29.28
  13  -3  -4 1450.49   29.97
  13   3  -4 1473.34   29.92
  13  -3  -3 1203.53   26.56
  13   3  -3 1215.49   27.40
 -13  -3   2 1140.24   23.74
  13  -3  -2 1042.47   24.19
  13   3  -2 1112.10   26.50
 -13  -3   1 1092.41   24.11
  13  -3  -1 1051.09   23.87
  13   3  -1  974.63   25.16
 -13  -3   0 1057.19   24.73
  13  -3   1 1044.30   26.20
 -13  -5   3  927.67   23.48
  13  -5  -2  924.65   26.80
  14   0  -5 1083.49   26.46
  14   0  -4 1304.94   28.59
  14   0  -3 1314.89   28.42
  14   0  -2 1175.25   26.76
  14   0  -1 1034.46   25.21
  14   0   0 1046.13   24.95
  14   0   0 1016.30   25.16
  14  -2  -4 1097.67   26.71
  14   2  -4 1210.23   28.05
  14  -2  -3  920.64   24.00
  14   2  -3 1012.23   25.68
  14  -2  -2 1004.99   24.69
  14   2  -2  976.72   25.34
 -14  -2   1 1025.07   23.96
  14  -2  -1  963.58   24.00
  14   2  -1  974.91   26.07
;
_shelx_hkl_checksum              59409
#END Tags that were not found in dictionaries
loop_
_space_group_symop_operation_xyz
'x, y, z'
'-x, y, -z'
'x+1/2, y+1/2, z'
'-x+1/2, y+1/2, -z'
loop_
_atom_site_label
_atom_site_type_symbol
_atom_site_fract_x
_atom_site_fract_y
_atom_site_fract_z
_atom_site_U_iso_or_equiv
_atom_site_adp_type
_atom_site_occupancy
_atom_site_site_symmetry_order
_atom_site_calc_flag
_atom_site_refinement_flags_posn
_atom_site_refinement_flags_adp
_atom_site_refinement_flags_occupancy
Tm1 Tm 0.5000 0.95252(7) 1.0000 0.01071(15) Uani 1 2 d S T P
O5 O 0.5071(5) 1.0983(8) 1.3346(8) 0.0211(10) Uani 1 1 d . . .
O6 O 0.6704(5) 1.1487(10) 1.1147(9) 0.0286(12) Uani 1 1 d . . .
O7 O 0.3911(6) 0.7345(9) 0.7344(10) 0.0307(12) Uani 1 1 d . . .
O10 O 0.6539(6) 0.7936(10) 0.8818(10) 0.0310(13) Uani 1 1 d . . .
N1 N 0.3462(9) 0.473(3) 0.5375(13) 0.042(4) Uani 1 1 d . . .
H1A H 0.2819 0.5213 0.4396 0.050 Uiso 1 1 d R U .
H1B H 0.3669 0.3575 0.5261 0.050 Uiso 1 1 d R U .
C1 C 0.4127(9) 0.5705(13) 0.7020(13) 0.0298(16) Uani 1 1 d . . .
H1 H 0.4819 0.5123 0.8031 0.036 Uiso 1 1 calc R U .
C3 C 0.7356(7) 1.2472(13) 1.0336(13) 0.0259(15) Uani 1 1 d . . .
H3 H 0.6953 1.2898 0.8929 0.031 Uiso 1 1 calc R U .
C4 C 0.5000 1.0162(16) 1.5000 0.0207(18) Uani 1 2 d S T P
H4 H 0.5000 0.8852 1.5000 0.025 Uiso 1 2 calc R U P
loop_
_atom_site_aniso_label
_atom_site_aniso_U_11
_atom_site_aniso_U_22
_atom_site_aniso_U_33
_atom_site_aniso_U_23
_atom_site_aniso_U_13
_atom_site_aniso_U_12
Tm1 0.00782(17) 0.01268(19) 0.01193(17) 0.000 0.00371(9) 0.000
O5 0.028(2) 0.020(3) 0.018(2) -0.0014(18) 0.0116(19) -0.004(2)
O6 0.025(2) 0.038(3) 0.026(2) -0.007(2) 0.013(2) -0.019(3)
O7 0.032(3) 0.028(3) 0.032(3) -0.012(2) 0.010(2) -0.011(3)
O10 0.022(3) 0.041(4) 0.030(3) 0.003(2) 0.009(2) 0.016(3)
N1 0.058(4) 0.020(11) 0.036(3) -0.007(4) 0.001(3) -0.005(4)
C1 0.037(4) 0.028(4) 0.023(3) -0.003(3) 0.008(3) -0.004(3)
C3 0.019(3) 0.033(5) 0.025(3) 0.002(3) 0.008(3) -0.006(3)
C4 0.028(4) 0.019(4) 0.018(4) 0.000 0.013(3) 0.000
loop_
_atom_type_symbol
_atom_type_description
_atom_type_scat_dispersion_real
_atom_type_scat_dispersion_imag
_atom_type_scat_source
C C 0.0033 0.0016 'International Tables Vol C Tables 4.2.6.8 and 6.1.1.4'
H H 0.0000 0.0000 'International Tables Vol C Tables 4.2.6.8 and 6.1.1.4'
N N 0.0061 0.0033 'International Tables Vol C Tables 4.2.6.8 and 6.1.1.4'
O O 0.0106 0.0060 'International Tables Vol C Tables 4.2.6.8 and 6.1.1.4'
Tm Tm -0.3139 5.2483 'International Tables Vol C Tables 4.2.6.8 and 6.1.1.4'
loop_
_geom_angle_atom_site_label_1
_geom_angle_atom_site_label_2
_geom_angle_atom_site_label_3
_geom_angle
_geom_angle_site_symmetry_1
_geom_angle_site_symmetry_3
O6 Tm1 O6 104.5(4) . 2_657
O6 Tm1 O7 89.4(2) . 2_657
O6 Tm1 O7 145.1(2) 2_657 2_657
O6 Tm1 O7 145.1(2) . .
O6 Tm1 O7 89.4(2) 2_657 .
O7 Tm1 O7 97.2(4) 2_657 .
O6 Tm1 O10 77.5(2) . .
O6 Tm1 O10 142.72(19) 2_657 .
O7 Tm1 O10 71.1(2) 2_657 .
O7 Tm1 O10 72.5(2) . .
O6 Tm1 O10 142.72(19) . 2_657
O6 Tm1 O10 77.5(2) 2_657 2_657
O7 Tm1 O10 72.5(2) 2_657 2_657
O7 Tm1 O10 71.1(2) . 2_657
O10 Tm1 O10 123.6(4) . 2_657
O6 Tm1 O5 78.8(2) . 2_657
O6 Tm1 O5 70.43(19) 2_657 2_657
O7 Tm1 O5 144.43(19) 2_657 2_657
O7 Tm1 O5 76.0(2) . 2_657
O10 Tm1 O5 73.6(2) . 2_657
O10 Tm1 O5 133.7(2) 2_657 2_657
O6 Tm1 O5 70.43(19) . .
O6 Tm1 O5 78.8(2) 2_657 .
O7 Tm1 O5 76.0(2) 2_657 .
O7 Tm1 O5 144.43(19) . .
O10 Tm1 O5 133.7(2) . .
O10 Tm1 O5 73.6(2) 2_657 .
O5 Tm1 O5 128.8(3) 2_657 .
C4 O5 Tm1 126.4(6) . .
C3 O6 Tm1 138.2(5) . .
C1 O7 Tm1 132.4(6) . .
C3 O10 Tm1 135.3(6) 4_647 .
C1 N1 H1A 120.8 . .
C1 N1 H1B 119.2 . .
H1A N1 H1B 120.0 . .
O7 C1 N1 124.5(12) . .
O7 C1 H1 117.7 . .
N1 C1 H1 117.7 . .
O10 C3 O6 127.3(8) 4_657 .
O10 C3 H3 116.4 4_657 .
O6 C3 H3 116.4 . .
O5 C4 O5 124.6(10) . 2_658
O5 C4 H4 117.7 . .
O5 C4 H4 117.7 2_658 .
loop_
_geom_bond_atom_site_label_1
_geom_bond_atom_site_label_2
_geom_bond_distance
_geom_bond_site_symmetry_2
Tm1 O6 2.275(5) .
Tm1 O6 2.275(5) 2_657
Tm1 O7 2.342(6) 2_657
Tm1 O7 2.342(6) .
Tm1 O10 2.391(6) .
Tm1 O10 2.391(6) 2_657
Tm1 O5 2.398(5) 2_657
Tm1 O5 2.398(5) .
O5 C4 1.255(7) .
O6 C3 1.248(10) .
O7 C1 1.222(11) .
O10 C3 1.218(10) 4_647
N1 C1 1.288(16) .
N1 H1A 0.8594 .
N1 H1B 0.8599 .
C1 H1 0.9300 .
C3 O10 1.218(10) 4_657
C3 H3 0.9300 .
C4 O5 1.255(7) 2_658
C4 H4 0.9300 .
