#------------------------------------------------------------------------------
#$Date: 2018-09-04 11:41:10 +0300 (Tue, 04 Sep 2018) $
#$Revision: 210387 $
#$URL: file:///home/coder/svn-repositories/cod/cif/4/51/23/4512326.cif $
#------------------------------------------------------------------------------
#
# This file is available in the Crystallography Open Database (COD),
# http://www.crystallography.net/
#
# All data on this site have been placed in the public domain by the
# contributors.
#
data_4512326
loop_
_publ_author_name
'Kim, Yejin'
'Mckinley, Emma J.'
'Christensen, Kirsten E.'
'Rees, Nicholas H.'
'Thompson, Amber L.'
_publ_section_title
;
 Toward the Understanding of Modulation in Molecular Materials:
 Barluenga's Reagent and its Analogues.
;
_journal_coden_ASTM              CGDEFU
_journal_issue                   12
_journal_name_full               'Crystal Growth & Design'
_journal_page_first              6294
_journal_page_last               6301
_journal_paper_doi               10.1021/cg500983s
_journal_volume                  14
_journal_year                    2014
_chemical_formula_moiety         'C10 H10 Br N2, C F3 O3 S'
_chemical_formula_sum            'C11 H10 Br F3 N2 O3 S'
_chemical_formula_weight         387.18
_chemical_melting_point          ?
_space_group_IT_number           2
_symmetry_cell_setting           triclinic
_symmetry_space_group_name_Hall  '-P 1'
_symmetry_space_group_name_H-M   'P -1'
_atom_sites_solution_hydrogens   difmap
_atom_sites_solution_primary     other
_audit_creation_date             2014-05-25
_audit_creation_method           CRYSTALS_ver_14.43
_cell_angle_alpha                96.948(4)
_cell_angle_beta                 103.368(4)
_cell_angle_gamma                103.979(5)
_cell_formula_units_Z            2
_cell_length_a                   6.8906(4)
_cell_length_b                   10.5223(6)
_cell_length_c                   10.6716(5)
_cell_measurement_reflns_used    3077
_cell_measurement_temperature    100
_cell_measurement_theta_max      76
_cell_measurement_theta_min      4
_cell_volume                     717.56(7)
_computing_cell_refinement       'CrysAlis, (Oxford Diffraction, 2002)'
_computing_data_collection       'SuperNova, (Oxford Diffraction, 2010)'
_computing_data_reduction        'CrysAlis, (Oxford Diffraction, 2002)'
_computing_molecular_graphics    'CAMERON (Watkin et al., 1996)'
_computing_publication_material  'CRYSTALS (Betteridge et al., 2003)'
_computing_structure_refinement  'CRYSTALS (Betteridge et al., 2003)'
_computing_structure_solution    'Superflip (Palatinus & Chapuis, 2007)'
_diffrn_ambient_temperature      100
_diffrn_measured_fraction_theta_full 0.995
_diffrn_measured_fraction_theta_max 0.976
_diffrn_measurement_device       Area
_diffrn_measurement_device_type  'Oxford Diffraction SuperNova'
_diffrn_measurement_method       \w
_diffrn_radiation_monochromator  graphite
_diffrn_radiation_type           'Cu K\a'
_diffrn_radiation_wavelength     1.54180
_diffrn_reflns_av_R_equivalents  0.041
_diffrn_reflns_limit_h_max       7
_diffrn_reflns_limit_h_min       -8
_diffrn_reflns_limit_k_max       11
_diffrn_reflns_limit_k_min       -13
_diffrn_reflns_limit_l_max       13
_diffrn_reflns_limit_l_min       -13
_diffrn_reflns_number            5545
_diffrn_reflns_theta_full        69.219
_diffrn_reflns_theta_max         76.065
_diffrn_reflns_theta_min         4.335
_diffrn_standards_number         0
_exptl_absorpt_coefficient_mu    5.719
_exptl_absorpt_correction_T_max  0.36
_exptl_absorpt_correction_T_min  0.17
_exptl_absorpt_correction_type   multi-scan
_exptl_absorpt_process_details   'CrysAlis, (Oxford Diffraction, 2002)'
_exptl_crystal_colour            clear_pale_colourless
_exptl_crystal_density_diffrn    1.792
_exptl_crystal_density_meas      ?
_exptl_crystal_density_method    'not measured'
_exptl_crystal_description       lath
_exptl_crystal_F_000             384
_exptl_crystal_size_max          0.25
_exptl_crystal_size_mid          0.25
_exptl_crystal_size_min          0.18
_refine_diff_density_max         1.16
_refine_diff_density_min         -1.32
_refine_ls_extinction_method     None
_refine_ls_goodness_of_fit_ref   1.0335
_refine_ls_hydrogen_treatment    constr
_refine_ls_matrix_type           full
_refine_ls_number_parameters     190
_refine_ls_number_reflns         2920
_refine_ls_number_restraints     0
_refine_ls_R_factor_all          0.0578
_refine_ls_R_factor_gt           0.0555
_refine_ls_shift/su_max          0.0003911
_refine_ls_shift/su_mean         0.0000129
_refine_ls_structure_factor_coef Fsqd
_refine_ls_weighting_details
;
 Method= Modified Sheldrick 
 w=1/[\s^2^(F^2^) + ( 0.10P)^2^ + 4.16P] 
 ,where P=(max(Fo^2^,0) + 2Fc^2^)/3 
;
_refine_ls_weighting_scheme      calc
_refine_ls_wR_factor_all         0.1613
_refine_ls_wR_factor_gt          0.1592
_refine_ls_wR_factor_ref         0.1613
_reflns_limit_h_max              8
_reflns_limit_h_min              -8
_reflns_limit_k_max              13
_reflns_limit_k_min              -13
_reflns_limit_l_max              13
_reflns_limit_l_min              0
_reflns_number_gt                2733
_reflns_number_total             2930
_reflns_threshold_expression     I>2.0\s(I)
_oxford_diffrn_Wilson_B_factor   1.38
_oxford_diffrn_Wilson_scale      0.02
_oxford_refine_ls_r_factor_ref   0.0578
_oxford_refine_ls_scale          7.4(4)
_oxford_reflns_number_all        2920
_oxford_reflns_threshold_expression_ref I>-3.0\s(I)
_oxford_structure_analysis_title 050yk14-100K
_cod_data_source_file            cg500983s_si_002.cif
_cod_data_source_block           BrPy2OTf-100K
_cod_depositor_comments
;
The following automatic conversions were performed:

'_chemical_melting_point' value 'not measured' was changed to '?' -
the value is undefined or not given.

'_atom_sites_solution_primary'
value 'Other' changed to 'other' according to
/home/saulius/struct/COD-crude-data--automatic-downloads/rss-feeds/ACS/lib/dictionaries/cif_core.dic
dictionary named 'cif_core.dic' version 2.4.2 from 2011-04-26.

Automatic conversion script
Id: cif_fix_values 2935 2014-11-11 08:27:57Z andrius 

The following automatic conversions were performed:

'_exptl_crystal_density_meas' value 'not measured' was changed to '?'
- the value is perceived as not measured.

Automatic conversion script
Id: cif_fix_values 3008 2015-01-20 13:52:24Z robertas 

 Adding full bibliography for 4512310--4512328.cif.
;
_cod_original_formula_sum        'C11 H10 Br1 F3 N2 O3 S1'
_cod_database_code               4512326
loop_
_symmetry_equiv_pos_as_xyz
x,y,z
-x,-y,-z
loop_
_atom_site_label
_atom_site_type_symbol
_atom_site_fract_x
_atom_site_fract_y
_atom_site_fract_z
_atom_site_U_iso_or_equiv
_atom_site_occupancy
_atom_site_adp_type
_atom_site_refinement_flags_posn
C1 C 0.2972(8) 0.8478(5) 0.3435(5) 0.0227 1.0000 Uani .
F1 F 0.3144(6) 0.9717(3) 0.4001(4) 0.0428 1.0000 Uani .
F2 F 0.2985(6) 0.7736(4) 0.4361(3) 0.0380 1.0000 Uani .
F3 F 0.4660(6) 0.8508(5) 0.3036(4) 0.0449 1.0000 Uani .
S1 S 0.05941(18) 0.78356(11) 0.20844(11) 0.0169 1.0000 Uani .
O1 O 0.0619(6) 0.6499(3) 0.1610(4) 0.0264 1.0000 Uani .
O2 O 0.0906(6) 0.8755(4) 0.1201(3) 0.0251 1.0000 Uani .
O3 O -0.1025(6) 0.7928(4) 0.2717(4) 0.0267 1.0000 Uani .
Br1 Br 0.72281(7) 0.49961(4) 0.40962(4) 0.0166 1.0000 Uani .
N1 N 0.6076(6) 0.3609(4) 0.2299(4) 0.0180 1.0000 Uani .
C11 C 0.5133(7) 0.2330(5) 0.2265(5) 0.0182 1.0000 Uani .
C12 C 0.4324(8) 0.1430(5) 0.1099(5) 0.0207 1.0000 Uani .
C13 C 0.4523(8) 0.1868(5) -0.0055(5) 0.0223 1.0000 Uani .
C14 C 0.5534(8) 0.3190(5) -0.0004(5) 0.0227 1.0000 Uani .
C15 C 0.6302(8) 0.4044(5) 0.1196(5) 0.0211 1.0000 Uani .
N2 N 0.8398(6) 0.6368(4) 0.5836(4) 0.0173 1.0000 Uani .
C21 C 0.8566(8) 0.5952(5) 0.6984(5) 0.0198 1.0000 Uani .
C22 C 0.9408(8) 0.6847(5) 0.8150(5) 0.0210 1.0000 Uani .
C23 C 1.0120(8) 0.8199(5) 0.8126(5) 0.0210 1.0000 Uani .
C24 C 0.9975(8) 0.8604(5) 0.6922(5) 0.0210 1.0000 Uani .
C25 C 0.9092(8) 0.7666(5) 0.5788(5) 0.0181 1.0000 Uani .
H111 H 0.5041 0.2045 0.3040 0.0221 1.0000 Uiso R
H121 H 0.3657 0.0542 0.1093 0.0249 1.0000 Uiso R
H131 H 0.3962 0.1283 -0.0856 0.0269 1.0000 Uiso R
H141 H 0.5698 0.3507 -0.0762 0.0272 1.0000 Uiso R
H151 H 0.6986 0.4933 0.1245 0.0249 1.0000 Uiso R
H211 H 0.8106 0.5041 0.6995 0.0239 1.0000 Uiso R
H221 H 0.9480 0.6544 0.8950 0.0248 1.0000 Uiso R
H231 H 1.0681 0.8816 0.8907 0.0250 1.0000 Uiso R
H241 H 1.0485 0.9503 0.6888 0.0251 1.0000 Uiso R
H251 H 0.8950 0.7919 0.4976 0.0220 1.0000 Uiso R
loop_
_atom_site_aniso_label
_atom_site_aniso_U_11
_atom_site_aniso_U_22
_atom_site_aniso_U_33
_atom_site_aniso_U_23
_atom_site_aniso_U_13
_atom_site_aniso_U_12
C1 0.026(2) 0.017(2) 0.022(2) 0.0059(18) 0.0021(19) 0.0031(19)
F1 0.047(2) 0.0230(17) 0.038(2) -0.0090(14) -0.0182(16) 0.0069(15)
F2 0.042(2) 0.040(2) 0.0273(17) 0.0178(15) -0.0003(15) 0.0074(16)
F3 0.0250(17) 0.064(3) 0.039(2) 0.0040(18) 0.0066(15) 0.0033(17)
S1 0.0222(6) 0.0089(5) 0.0152(5) 0.0045(4) 0.0025(4) -0.0024(4)
O1 0.036(2) 0.0086(16) 0.0291(19) 0.0017(14) 0.0042(16) 0.0018(14)
O2 0.0317(19) 0.0170(16) 0.0188(17) 0.0080(14) 0.0024(14) -0.0055(14)
O3 0.0256(19) 0.029(2) 0.0233(18) 0.0094(15) 0.0058(15) 0.0027(15)
Br1 0.0183(3) 0.0108(3) 0.0180(3) 0.00169(18) 0.00365(19) 0.00087(18)
N1 0.0180(19) 0.0118(18) 0.0212(19) 0.0025(14) 0.0035(15) 0.0007(15)
C11 0.019(2) 0.012(2) 0.022(2) 0.0040(17) 0.0052(18) -0.0003(17)
C12 0.019(2) 0.013(2) 0.027(2) 0.0050(18) 0.0046(19) 0.0002(17)
C13 0.021(2) 0.017(2) 0.024(2) 0.0005(19) 0.0006(19) 0.0034(19)
C14 0.026(3) 0.019(2) 0.022(2) 0.0062(19) 0.006(2) 0.005(2)
C15 0.023(2) 0.013(2) 0.025(2) 0.0040(18) 0.0074(19) 0.0012(18)
N2 0.0205(19) 0.0120(18) 0.0184(19) 0.0011(14) 0.0061(15) 0.0029(15)
C21 0.022(2) 0.017(2) 0.022(2) 0.0059(18) 0.0041(19) 0.0069(18)
C22 0.020(2) 0.025(3) 0.018(2) 0.0056(18) 0.0054(18) 0.0072(19)
C23 0.019(2) 0.021(2) 0.019(2) -0.0015(18) 0.0006(18) 0.0061(18)
C24 0.025(2) 0.013(2) 0.023(2) 0.0013(18) 0.006(2) 0.0030(18)
C25 0.023(2) 0.013(2) 0.016(2) 0.0020(17) 0.0048(18) 0.0021(17)
loop_
_atom_type_symbol
_atom_type_scat_dispersion_real
_atom_type_scat_dispersion_imag
_atom_type_scat_Cromer_Mann_a1
_atom_type_scat_Cromer_Mann_b1
_atom_type_scat_Cromer_Mann_a2
_atom_type_scat_Cromer_Mann_b2
_atom_type_scat_Cromer_Mann_a3
_atom_type_scat_Cromer_Mann_b3
_atom_type_scat_Cromer_Mann_a4
_atom_type_scat_Cromer_Mann_b4
_atom_type_scat_Cromer_Mann_c
_atom_type_scat_source
C 0.0181 0.0091 2.3100 20.8439 1.0200 10.2075 1.5886 0.5687 0.8650 51.6512
0.2156 'International Tables Vol C 4.2.6.8 and 6.1.1.4'
H 0.0000 0.0000 0.4930 10.5109 0.3229 26.1257 0.1402 3.1424 0.0408 57.7998
0.0030 'International Tables Vol C 4.2.6.8 and 6.1.1.4'
Br -0.6763 1.2805 17.1789 2.1723 5.2358 16.5796 5.6377 0.2609 3.9851 41.4328
2.9557 'International Tables Vol C 4.2.6.8 and 6.1.1.4'
F 0.0727 0.0534 3.5392 10.2825 2.6412 4.2944 1.5170 0.2615 1.0243 26.1476
0.2776 'International Tables Vol C 4.2.6.8 and 6.1.1.4'
N 0.0311 0.0180 12.2126 0.0057 3.1322 9.8933 2.0125 28.9975 1.1663 0.5826
-11.5290 'International Tables Vol C 4.2.6.8 and 6.1.1.4'
O 0.0492 0.0322 3.0485 13.2771 2.2868 5.7011 1.5463 0.3239 0.8670 32.9089
0.2508 'International Tables Vol C 4.2.6.8 and 6.1.1.4'
S 0.3331 0.5567 6.9053 1.4679 5.2034 22.2151 1.4379 0.2536 1.5863 56.1720
0.8669 'International Tables Vol C 4.2.6.8 and 6.1.1.4'
loop_
_geom_angle_atom_site_label_1
_geom_angle_atom_site_label_2
_geom_angle_atom_site_label_3
_geom_angle
_geom_angle_publ_flag
F1 C1 F2 107.3(4) yes
F1 C1 F3 107.5(5) yes
F2 C1 F3 107.3(5) yes
F1 C1 S1 110.8(4) yes
F2 C1 S1 111.6(4) yes
F3 C1 S1 112.2(4) yes
C1 S1 O1 103.7(2) yes
C1 S1 O2 102.6(2) yes
O1 S1 O2 115.1(2) yes
C1 S1 O3 103.1(2) yes
O1 S1 O3 115.2(2) yes
O2 S1 O3 114.6(2) yes
N1 Br1 N2 178.90(15) yes
Br1 N1 C11 120.7(3) yes
Br1 N1 C15 118.6(3) yes
C11 N1 C15 120.7(4) yes
N1 C11 C12 121.2(5) yes
N1 C11 H111 119.3 no
C12 C11 H111 119.5 no
C11 C12 C13 118.8(4) yes
C11 C12 H121 120.0 no
C13 C12 H121 121.2 no
C12 C13 C14 119.4(5) yes
C12 C13 H131 120.4 no
C14 C13 H131 120.2 no
C13 C14 C15 118.9(5) yes
C13 C14 H141 121.1 no
C15 C14 H141 119.9 no
C14 C15 N1 120.9(4) yes
C14 C15 H151 119.9 no
N1 C15 H151 119.2 no
Br1 N2 C21 120.1(3) yes
Br1 N2 C25 118.7(3) yes
C21 N2 C25 121.1(4) yes
N2 C21 C22 120.8(5) yes
N2 C21 H211 119.7 no
C22 C21 H211 119.5 no
C21 C22 C23 119.1(5) yes
C21 C22 H221 120.0 no
C23 C22 H221 120.9 no
C22 C23 C24 119.0(5) yes
C22 C23 H231 120.0 no
C24 C23 H231 120.9 no
C23 C24 C25 119.3(4) yes
C23 C24 H241 120.2 no
C25 C24 H241 120.5 no
C24 C25 N2 120.6(4) yes
C24 C25 H251 120.6 no
N2 C25 H251 118.8 no
loop_
_geom_bond_atom_site_label_1
_geom_bond_atom_site_label_2
_geom_bond_distance
_geom_bond_publ_flag
C1 F1 1.334(6) yes
C1 F2 1.331(6) yes
C1 F3 1.322(7) yes
C1 S1 1.832(5) yes
S1 O1 1.441(4) yes
S1 O2 1.444(3) yes
S1 O3 1.447(4) yes
Br1 N1 2.121(4) yes
Br1 N2 2.068(4) yes
N1 C11 1.338(6) yes
N1 C15 1.341(6) yes
C11 C12 1.377(7) yes
C11 H111 0.924 no
C12 C13 1.390(7) yes
C12 H121 0.935 no
C13 C14 1.385(7) yes
C13 H131 0.930 no
C14 C15 1.380(7) yes
C14 H141 0.932 no
C15 H151 0.929 no
N2 C21 1.339(6) yes
N2 C25 1.346(6) yes
C21 C22 1.374(7) yes
C21 H211 0.936 no
C22 C23 1.394(7) yes
C22 H221 0.942 no
C23 C24 1.391(7) yes
C23 H231 0.930 no
C24 C25 1.374(7) yes
C24 H241 0.935 no
C25 H251 0.928 no
loop_
_geom_hbond_atom_site_label_D
_geom_hbond_atom_site_label_H
_geom_hbond_atom_site_label_A
_geom_hbond_site_symmetry_A
_geom_hbond_angle_DHA
_geom_hbond_distance_DH
_geom_hbond_distance_HA
_geom_hbond_distance_DA
_geom_hbond_publ_flag
C12 H121 O2 1_545 155.73 0.935 2.361 3.236(7) yes
C15 H151 O1 1_655 141.59 0.929 2.556 3.334(7) yes
C21 H211 O1 2_666 134.75 0.936 2.507 3.235(7) yes
C23 H231 O2 1_656 135.38 0.930 2.427 3.157(7) yes
C25 H251 O3 1_655 160.85 0.928 2.415 3.306(7) yes
