#------------------------------------------------------------------------------
#$Date: 2018-09-04 11:41:10 +0300 (Tue, 04 Sep 2018) $
#$Revision: 210387 $
#$URL: file:///home/coder/svn-repositories/cod/cif/4/51/23/4512317.cif $
#------------------------------------------------------------------------------
#
# This file is available in the Crystallography Open Database (COD),
# http://www.crystallography.net/
#
# All data on this site have been placed in the public domain by the
# contributors.
#
data_4512317
loop_
_publ_author_name
'Kim, Yejin'
'Mckinley, Emma J.'
'Christensen, Kirsten E.'
'Rees, Nicholas H.'
'Thompson, Amber L.'
_publ_section_title
;
 Toward the Understanding of Modulation in Molecular Materials:
 Barluenga's Reagent and its Analogues.
;
_journal_coden_ASTM              CGDEFU
_journal_issue                   12
_journal_name_full               'Crystal Growth & Design'
_journal_page_first              6294
_journal_page_last               6301
_journal_paper_doi               10.1021/cg500983s
_journal_volume                  14
_journal_year                    2014
_chemical_formula_moiety         'C10 H10 I N2, C F3 O3 S'
_chemical_formula_sum            'C11 H10 F3 I N2 O3 S'
_chemical_formula_weight         434.18
_chemical_melting_point          ?
_space_group_IT_number           2
_symmetry_cell_setting           triclinic
_symmetry_space_group_name_Hall  '-P 1'
_symmetry_space_group_name_H-M   'P -1'
_atom_sites_solution_hydrogens   difmap
_atom_sites_solution_primary     other
_audit_creation_date             2014-05-24
_audit_creation_method           CRYSTALS_ver_14.43
_cell_angle_alpha                93.588(4)
_cell_angle_beta                 105.368(4)
_cell_angle_gamma                104.094(4)
_cell_formula_units_Z            2
_cell_length_a                   6.9897(3)
_cell_length_b                   10.6617(5)
_cell_length_c                   10.7350(5)
_cell_measurement_reflns_used    3625
_cell_measurement_temperature    100
_cell_measurement_theta_max      76
_cell_measurement_theta_min      4
_cell_volume                     741.23(6)
_computing_cell_refinement       'CrysAlis, (Oxford Diffraction, 2002)'
_computing_data_collection       'SuperNova, (Oxford Diffraction, 2010)'
_computing_data_reduction        'CrysAlis, (Oxford Diffraction, 2002)'
_computing_molecular_graphics    'CAMERON (Watkin et al., 1996)'
_computing_publication_material  'CRYSTALS (Betteridge et al., 2003)'
_computing_structure_refinement  'CRYSTALS (Betteridge et al., 2003)'
_computing_structure_solution    'Superflip (Palatinus & Chapuis, 2007)'
_diffrn_ambient_temperature      100
_diffrn_measured_fraction_theta_full 0.995
_diffrn_measured_fraction_theta_max 0.971
_diffrn_measurement_device       Area
_diffrn_measurement_device_type  'Oxford Diffraction SuperNova'
_diffrn_measurement_method       \w
_diffrn_radiation_monochromator  graphite
_diffrn_radiation_type           'Cu K\a'
_diffrn_radiation_wavelength     1.54180
_diffrn_reflns_av_R_equivalents  0.033
_diffrn_reflns_limit_h_max       8
_diffrn_reflns_limit_h_min       -8
_diffrn_reflns_limit_k_max       12
_diffrn_reflns_limit_k_min       -13
_diffrn_reflns_limit_l_max       13
_diffrn_reflns_limit_l_min       -13
_diffrn_reflns_number            5812
_diffrn_reflns_theta_full        67.957
_diffrn_reflns_theta_max         76.356
_diffrn_reflns_theta_min         4.311
_diffrn_standards_number         0
_exptl_absorpt_coefficient_mu    18.730
_exptl_absorpt_correction_T_max  0.33
_exptl_absorpt_correction_T_min  0.07
_exptl_absorpt_correction_type   multi-scan
_exptl_absorpt_process_details   'CrysAlis, (Oxford Diffraction, 2002)'
_exptl_crystal_colour            clear_pale_colourless
_exptl_crystal_density_diffrn    1.945
_exptl_crystal_density_meas      ?
_exptl_crystal_density_method    'not measured'
_exptl_crystal_description       plate
_exptl_crystal_F_000             420
_exptl_crystal_size_max          0.30
_exptl_crystal_size_mid          0.20
_exptl_crystal_size_min          0.06
_refine_diff_density_max         3.56
_refine_diff_density_min         -1.32
_refine_ls_extinction_method     None
_refine_ls_goodness_of_fit_ref   1.0101
_refine_ls_hydrogen_treatment    constr
_refine_ls_matrix_type           full
_refine_ls_number_parameters     190
_refine_ls_number_reflns         3011
_refine_ls_number_restraints     0
_refine_ls_R_factor_all          0.0409
_refine_ls_R_factor_gt           0.0406
_refine_ls_shift/su_max          0.0007850
_refine_ls_shift/su_mean         0.0000174
_refine_ls_structure_factor_coef Fsqd
_refine_ls_weighting_details
;
 Method= Modified Sheldrick 
 w=1/[\s^2^(F^2^) + ( 0.10P)^2^ + 0.16P] 
 ,where P=(max(Fo^2^,0) + 2Fc^2^)/3 
;
_refine_ls_weighting_scheme      calc
_refine_ls_wR_factor_all         0.1084
_refine_ls_wR_factor_gt          0.1076
_refine_ls_wR_factor_ref         0.1084
_reflns_limit_h_max              8
_reflns_limit_h_min              -8
_reflns_limit_k_max              13
_reflns_limit_k_min              -13
_reflns_limit_l_max              13
_reflns_limit_l_min              0
_reflns_number_gt                2968
_reflns_number_total             3022
_reflns_threshold_expression     I>2.0\s(I)
_oxford_diffrn_Wilson_B_factor   1.12
_oxford_diffrn_Wilson_scale      0.03
_oxford_refine_ls_r_factor_ref   0.0409
_oxford_refine_ls_scale          5.92(18)
_oxford_reflns_number_all        3011
_oxford_reflns_threshold_expression_ref I>-3.0\s(I)
_oxford_structure_analysis_title 052yk14-100K
_cod_data_source_file            cg500983s_si_002.cif
_cod_data_source_block           IPy2OTf-100K
_cod_depositor_comments
;
The following automatic conversions were performed:

'_chemical_melting_point' value 'not measured' was changed to '?' -
the value is undefined or not given.

'_atom_sites_solution_primary'
value 'Other' changed to 'other' according to
/home/saulius/struct/COD-crude-data--automatic-downloads/rss-feeds/ACS/lib/dictionaries/cif_core.dic
dictionary named 'cif_core.dic' version 2.4.2 from 2011-04-26.

Automatic conversion script
Id: cif_fix_values 2935 2014-11-11 08:27:57Z andrius 

The following automatic conversions were performed:

'_exptl_crystal_density_meas' value 'not measured' was changed to '?'
- the value is perceived as not measured.

Automatic conversion script
Id: cif_fix_values 3008 2015-01-20 13:52:24Z robertas 

 Adding full bibliography for 4512310--4512328.cif.
;
_cod_original_formula_sum        'C11 H10 F3 I1 N2 O3 S1'
_cod_database_code               4512317
loop_
_symmetry_equiv_pos_as_xyz
x,y,z
-x,-y,-z
loop_
_atom_site_label
_atom_site_type_symbol
_atom_site_fract_x
_atom_site_fract_y
_atom_site_fract_z
_atom_site_U_iso_or_equiv
_atom_site_occupancy
_atom_site_adp_type
_atom_site_refinement_flags_posn
C1 C 0.3131(6) 0.3457(4) 0.3401(4) 0.0233 1.0000 Uani .
F1 F 0.3490(5) 0.4720(3) 0.3774(3) 0.0405 1.0000 Uani .
F2 F 0.3052(5) 0.2846(3) 0.4440(3) 0.0384 1.0000 Uani .
F3 F 0.4749(4) 0.3278(4) 0.3057(3) 0.0445 1.0000 Uani .
S1 S 0.07175(15) 0.28509(9) 0.20721(8) 0.0168 1.0000 Uani .
O1 O 0.0620(5) 0.1502(3) 0.1729(3) 0.0272 1.0000 Uani .
O2 O 0.1068(5) 0.3683(3) 0.1100(3) 0.0263 1.0000 Uani .
O3 O -0.0806(5) 0.3074(3) 0.2674(3) 0.0249 1.0000 Uani .
I1 I 0.71966(3) 0.005739(16) 0.398109(15) 0.0145 1.0000 Uani .
N1 N 0.6024(5) -0.1401(3) 0.2151(3) 0.0164 1.0000 Uani .
C11 C 0.5056(6) -0.2644(4) 0.2148(4) 0.0181 1.0000 Uani .
C12 C 0.4294(7) -0.3545(5) 0.1027(5) 0.0223 1.0000 Uani .
C13 C 0.4543(7) -0.3137(5) -0.0133(5) 0.0222 1.0000 Uani .
C14 C 0.5585(7) -0.1849(4) -0.0135(4) 0.0223 1.0000 Uani .
C15 C 0.6309(6) -0.0999(4) 0.1027(4) 0.0197 1.0000 Uani .
N2 N 0.8439(5) 0.1503(3) 0.5798(3) 0.0157 1.0000 Uani .
C21 C 0.8644(6) 0.1094(4) 0.6987(4) 0.0187 1.0000 Uani .
C22 C 0.9477(6) 0.1971(4) 0.8119(4) 0.0209 1.0000 Uani .
C23 C 1.0112(7) 0.3293(5) 0.8036(4) 0.0222 1.0000 Uani .
C24 C 0.9927(7) 0.3700(4) 0.6816(4) 0.0237 1.0000 Uani .
C25 C 0.9078(7) 0.2777(4) 0.5713(4) 0.0194 1.0000 Uani .
H111 H 0.4887 -0.2917 0.2929 0.0220 1.0000 Uiso R
H121 H 0.3628 -0.4407 0.1054 0.0274 1.0000 Uiso R
H131 H 0.4025 -0.3729 -0.0895 0.0270 1.0000 Uiso R
H141 H 0.5779 -0.1568 -0.0903 0.0267 1.0000 Uiso R
H151 H 0.7004 -0.0132 0.1049 0.0244 1.0000 Uiso R
H211 H 0.8247 0.0242 0.7025 0.0223 1.0000 Uiso R
H221 H 0.9624 0.1679 0.8920 0.0251 1.0000 Uiso R
H231 H 1.0654 0.3889 0.8786 0.0267 1.0000 Uiso R
H241 H 1.0367 0.4576 0.6741 0.0281 1.0000 Uiso R
H251 H 0.8944 0.3046 0.4897 0.0229 1.0000 Uiso R
loop_
_atom_site_aniso_label
_atom_site_aniso_U_11
_atom_site_aniso_U_22
_atom_site_aniso_U_33
_atom_site_aniso_U_23
_atom_site_aniso_U_13
_atom_site_aniso_U_12
C1 0.0261(19) 0.0239(18) 0.0159(17) 0.0042(14) 0.0019(14) 0.0037(15)
F1 0.0451(16) 0.0269(13) 0.0298(13) -0.0041(10) -0.0150(11) 0.0038(11)
F2 0.0436(16) 0.0476(16) 0.0198(12) 0.0181(11) 0.0006(11) 0.0106(13)
F3 0.0249(13) 0.071(2) 0.0337(14) 0.0002(14) 0.0048(11) 0.0108(13)
S1 0.0221(4) 0.0150(4) 0.0106(4) 0.0033(3) 0.0035(3) 0.0011(3)
O1 0.0339(16) 0.0174(13) 0.0290(15) 0.0001(11) 0.0108(12) 0.0036(11)
O2 0.0324(16) 0.0245(14) 0.0131(13) 0.0073(11) 0.0025(11) -0.0049(12)
O3 0.0271(14) 0.0275(14) 0.0196(12) 0.0042(10) 0.0067(11) 0.0061(11)
I1 0.01568(18) 0.01592(17) 0.01164(17) 0.00075(10) 0.00364(11) 0.00437(11)
N1 0.0177(16) 0.0173(15) 0.0136(15) 0.0024(12) 0.0035(12) 0.0049(13)
C11 0.0182(17) 0.0177(18) 0.0179(18) 0.0007(14) 0.0060(14) 0.0032(14)
C12 0.021(2) 0.0180(19) 0.025(2) 0.0012(16) 0.0082(16) -0.0010(16)
C13 0.022(2) 0.023(2) 0.019(2) -0.0005(16) 0.0021(16) 0.0069(17)
C14 0.029(2) 0.0252(19) 0.0120(17) 0.0036(14) 0.0041(15) 0.0086(16)
C15 0.0224(18) 0.0202(17) 0.0151(17) 0.0023(13) 0.0035(14) 0.0051(14)
N2 0.0178(15) 0.0180(15) 0.0122(15) 0.0034(12) 0.0030(12) 0.0076(12)
C21 0.0198(18) 0.0225(18) 0.0161(17) 0.0049(14) 0.0056(14) 0.0087(14)
C22 0.0199(18) 0.031(2) 0.0138(16) 0.0043(14) 0.0052(14) 0.0103(16)
C23 0.0208(19) 0.031(2) 0.0138(18) -0.0027(15) 0.0036(14) 0.0078(16)
C24 0.028(2) 0.021(2) 0.021(2) 0.0002(16) 0.0070(16) 0.0052(16)
C25 0.0248(19) 0.0191(19) 0.0163(18) 0.0036(15) 0.0068(15) 0.0082(15)
loop_
_atom_type_symbol
_atom_type_scat_dispersion_real
_atom_type_scat_dispersion_imag
_atom_type_scat_Cromer_Mann_a1
_atom_type_scat_Cromer_Mann_b1
_atom_type_scat_Cromer_Mann_a2
_atom_type_scat_Cromer_Mann_b2
_atom_type_scat_Cromer_Mann_a3
_atom_type_scat_Cromer_Mann_b3
_atom_type_scat_Cromer_Mann_a4
_atom_type_scat_Cromer_Mann_b4
_atom_type_scat_Cromer_Mann_c
_atom_type_scat_source
C 0.0181 0.0091 2.3100 20.8439 1.0200 10.2075 1.5886 0.5687 0.8650 51.6512
0.2156 'International Tables Vol C 4.2.6.8 and 6.1.1.4'
H 0.0000 0.0000 0.4930 10.5109 0.3229 26.1257 0.1402 3.1424 0.0408 57.7998
0.0030 'International Tables Vol C 4.2.6.8 and 6.1.1.4'
F 0.0727 0.0534 3.5392 10.2825 2.6412 4.2944 1.5170 0.2615 1.0243 26.1476
0.2776 'International Tables Vol C 4.2.6.8 and 6.1.1.4'
I -0.3257 6.8362 20.1472 4.3470 18.9949 0.3814 7.5138 27.7660 2.2735 66.8776
4.0712 'International Tables Vol C 4.2.6.8 and 6.1.1.4'
N 0.0311 0.0180 12.2126 0.0057 3.1322 9.8933 2.0125 28.9975 1.1663 0.5826
-11.5290 'International Tables Vol C 4.2.6.8 and 6.1.1.4'
O 0.0492 0.0322 3.0485 13.2771 2.2868 5.7011 1.5463 0.3239 0.8670 32.9089
0.2508 'International Tables Vol C 4.2.6.8 and 6.1.1.4'
S 0.3331 0.5567 6.9053 1.4679 5.2034 22.2151 1.4379 0.2536 1.5863 56.1720
0.8669 'International Tables Vol C 4.2.6.8 and 6.1.1.4'
loop_
_geom_angle_atom_site_label_1
_geom_angle_atom_site_label_2
_geom_angle_atom_site_label_3
_geom_angle
_geom_angle_publ_flag
F1 C1 F2 107.6(3) yes
F1 C1 F3 107.9(4) yes
F2 C1 F3 106.9(4) yes
F1 C1 S1 110.8(3) yes
F2 C1 S1 111.3(3) yes
F3 C1 S1 112.3(3) yes
C1 S1 O1 103.86(19) yes
C1 S1 O2 102.38(19) yes
O1 S1 O2 114.89(19) yes
C1 S1 O3 102.76(18) yes
O1 S1 O3 115.81(18) yes
O2 S1 O3 114.6(2) yes
N1 I1 N2 178.59(9) yes
I1 N1 C11 121.8(3) yes
I1 N1 C15 119.0(3) yes
C11 N1 C15 119.2(4) yes
N1 C11 C12 122.5(4) yes
N1 C11 H111 118.8 no
C12 C11 H111 118.8 no
C11 C12 C13 118.7(4) yes
C11 C12 H121 120.7 no
C13 C12 H121 120.6 no
C12 C13 C14 119.3(4) yes
C12 C13 H131 119.7 no
C14 C13 H131 121.1 no
C13 C14 C15 118.9(4) yes
C13 C14 H141 120.0 no
C15 C14 H141 121.1 no
C14 C15 N1 121.5(4) yes
C14 C15 H151 120.5 no
N1 C15 H151 118.1 no
I1 N2 C21 120.6(3) yes
I1 N2 C25 119.6(3) yes
C21 N2 C25 119.8(4) yes
N2 C21 C22 121.2(4) yes
N2 C21 H211 118.5 no
C22 C21 H211 120.3 no
C21 C22 C23 119.2(4) yes
C21 C22 H221 120.3 no
C23 C22 H221 120.4 no
C22 C23 C24 119.1(4) yes
C22 C23 H231 120.0 no
C24 C23 H231 120.9 no
C23 C24 C25 119.1(4) yes
C23 C24 H241 120.5 no
C25 C24 H241 120.4 no
C24 C25 N2 121.5(4) yes
C24 C25 H251 119.4 no
N2 C25 H251 119.2 no
loop_
_geom_bond_atom_site_label_1
_geom_bond_atom_site_label_2
_geom_bond_distance
_geom_bond_publ_flag
C1 F1 1.323(5) yes
C1 F2 1.333(5) yes
C1 F3 1.331(5) yes
C1 S1 1.837(4) yes
S1 O1 1.443(3) yes
S1 O2 1.443(3) yes
S1 O3 1.441(3) yes
I1 N1 2.257(3) yes
I1 N2 2.238(3) yes
N1 C11 1.333(5) yes
N1 C15 1.353(5) yes
C11 C12 1.386(6) yes
C11 H111 0.931 no
C12 C13 1.384(7) yes
C12 H121 0.930 no
C13 C14 1.389(7) yes
C13 H131 0.931 no
C14 C15 1.391(5) yes
C14 H141 0.926 no
C15 H151 0.929 no
N2 C21 1.357(5) yes
N2 C25 1.340(6) yes
C21 C22 1.381(6) yes
C21 H211 0.890 no
C22 C23 1.387(6) yes
C22 H221 0.922 no
C23 C24 1.388(6) yes
C23 H231 0.924 no
C24 C25 1.386(6) yes
C24 H241 0.925 no
C25 H251 0.926 no
loop_
_geom_hbond_atom_site_label_D
_geom_hbond_atom_site_label_H
_geom_hbond_atom_site_label_A
_geom_hbond_site_symmetry_A
_geom_hbond_angle_DHA
_geom_hbond_distance_DH
_geom_hbond_distance_HA
_geom_hbond_distance_DA
_geom_hbond_publ_flag
C12 H121 O2 1_545 162.11 0.930 2.374 3.271(6) yes
C15 H151 O1 1_655 143.38 0.929 2.583 3.375(6) yes
C21 H211 O1 2_656 141.09 0.890 2.518 3.259(6) yes
C23 H231 O2 1_656 133.07 0.924 2.453 3.157(6) yes
C24 H241 O3 2_666 154.26 0.925 2.468 3.326(6) yes
C25 H251 O3 1_655 158.01 0.926 2.441 3.318(6) yes
