#------------------------------------------------------------------------------
#$Date: 2018-09-04 11:41:10 +0300 (Tue, 04 Sep 2018) $
#$Revision: 210387 $
#$URL: file:///home/coder/svn-repositories/cod/cif/4/51/23/4512316.cif $
#------------------------------------------------------------------------------
#
# This file is available in the Crystallography Open Database (COD),
# http://www.crystallography.net/
#
# All data on this site have been placed in the public domain by the
# contributors.
#
data_4512316
loop_
_publ_author_name
'Kim, Yejin'
'Mckinley, Emma J.'
'Christensen, Kirsten E.'
'Rees, Nicholas H.'
'Thompson, Amber L.'
_publ_section_title
;
 Toward the Understanding of Modulation in Molecular Materials:
 Barluenga's Reagent and its Analogues.
;
_journal_coden_ASTM              CGDEFU
_journal_issue                   12
_journal_name_full               'Crystal Growth & Design'
_journal_page_first              6294
_journal_page_last               6301
_journal_paper_doi               10.1021/cg500983s
_journal_volume                  14
_journal_year                    2014
_chemical_formula_moiety         'C10 H10 I N2, C F3 O3 S'
_chemical_formula_sum            'C11 H10 F3 I N2 O3 S'
_chemical_formula_weight         434.18
_chemical_melting_point          ?
_space_group_IT_number           2
_symmetry_cell_setting           triclinic
_symmetry_space_group_name_Hall  '-P 1'
_symmetry_space_group_name_H-M   'P -1'
_atom_sites_solution_hydrogens   difmap
_atom_sites_solution_primary     other
_audit_creation_date             2014-05-24
_audit_creation_method           CRYSTALS_ver_14.43
_cell_angle_alpha                92.950(5)
_cell_angle_beta                 106.067(5)
_cell_angle_gamma                104.941(5)
_cell_formula_units_Z            2
_cell_length_a                   7.2427(4)
_cell_length_b                   10.7513(7)
_cell_length_c                   10.8275(6)
_cell_measurement_reflns_used    3664
_cell_measurement_temperature    300
_cell_measurement_theta_max      76
_cell_measurement_theta_min      4
_cell_volume                     775.92(9)
_computing_cell_refinement       'CrysAlis, (Oxford Diffraction, 2002)'
_computing_data_collection       'SuperNova, (Oxford Diffraction, 2010)'
_computing_data_reduction        'CrysAlis, (Oxford Diffraction, 2002)'
_computing_molecular_graphics    'CAMERON (Watkin et al., 1996)'
_computing_publication_material  'CRYSTALS (Betteridge et al., 2003)'
_computing_structure_refinement  'CRYSTALS (Betteridge et al., 2003)'
_computing_structure_solution    'Superflip (Palatinus & Chapuis, 2007)'
_diffrn_ambient_temperature      300
_diffrn_measured_fraction_theta_full 0.996
_diffrn_measured_fraction_theta_max 0.979
_diffrn_measurement_device       Area
_diffrn_measurement_device_type  'Oxford Diffraction SuperNova'
_diffrn_measurement_method       \w
_diffrn_radiation_monochromator  graphite
_diffrn_radiation_type           'Cu K\a'
_diffrn_radiation_wavelength     1.54180
_diffrn_reflns_av_R_equivalents  0.042
_diffrn_reflns_limit_h_max       9
_diffrn_reflns_limit_h_min       -8
_diffrn_reflns_limit_k_max       12
_diffrn_reflns_limit_k_min       -13
_diffrn_reflns_limit_l_max       13
_diffrn_reflns_limit_l_min       -13
_diffrn_reflns_number            6234
_diffrn_reflns_theta_full        73.266
_diffrn_reflns_theta_max         76.318
_diffrn_reflns_theta_min         4.294
_diffrn_standards_number         0
_exptl_absorpt_coefficient_mu    17.893
_exptl_absorpt_correction_T_max  0.34
_exptl_absorpt_correction_T_min  0.05
_exptl_absorpt_correction_type   multi-scan
_exptl_absorpt_process_details   'CrysAlis, (Oxford Diffraction, 2002)'
_exptl_crystal_colour            clear_pale_colourless
_exptl_crystal_density_diffrn    1.858
_exptl_crystal_density_meas      ?
_exptl_crystal_density_method    'not measured'
_exptl_crystal_description       plate
_exptl_crystal_F_000             420
_exptl_crystal_size_max          0.30
_exptl_crystal_size_mid          0.30
_exptl_crystal_size_min          0.06
_refine_diff_density_max         1.63
_refine_diff_density_min         -1.27
_refine_ls_extinction_method     None
_refine_ls_goodness_of_fit_ref   0.9584
_refine_ls_hydrogen_treatment    constr
_refine_ls_matrix_type           full
_refine_ls_number_parameters     190
_refine_ls_number_reflns         3181
_refine_ls_number_restraints     0
_refine_ls_R_factor_all          0.0490
_refine_ls_R_factor_gt           0.0476
_refine_ls_shift/su_max          0.0005254
_refine_ls_shift/su_mean         0.0000251
_refine_ls_structure_factor_coef Fsqd
_refine_ls_weighting_details
;
 Method= Modified Sheldrick 
 w=1/[\s^2^(F^2^) + ( 0.11P)^2^ + 0.16P] 
 ,where P=(max(Fo^2^,0) + 2Fc^2^)/3 
;
_refine_ls_weighting_scheme      calc
_refine_ls_wR_factor_all         0.1256
_refine_ls_wR_factor_gt          0.1221
_refine_ls_wR_factor_ref         0.1256
_reflns_limit_h_max              8
_reflns_limit_h_min              -9
_reflns_limit_k_max              13
_reflns_limit_k_min              -13
_reflns_limit_l_max              13
_reflns_limit_l_min              0
_reflns_number_gt                3021
_reflns_number_total             3192
_reflns_threshold_expression     I>2.0\s(I)
_oxford_diffrn_Wilson_B_factor   4.00
_oxford_diffrn_Wilson_scale      0.02
_oxford_refine_ls_r_factor_ref   0.0490
_oxford_refine_ls_scale          6.9(3)
_oxford_reflns_number_all        3181
_oxford_reflns_threshold_expression_ref I>-3.0\s(I)
_oxford_structure_analysis_title 052yk14-300K
_cod_data_source_file            cg500983s_si_002.cif
_cod_data_source_block           IPy2OTf-300K
_cod_depositor_comments
;
The following automatic conversions were performed:

'_chemical_melting_point' value 'not measured' was changed to '?' -
the value is undefined or not given.

'_atom_sites_solution_primary'
value 'Other' changed to 'other' according to
/home/saulius/struct/COD-crude-data--automatic-downloads/rss-feeds/ACS/lib/dictionaries/cif_core.dic
dictionary named 'cif_core.dic' version 2.4.2 from 2011-04-26.

Automatic conversion script
Id: cif_fix_values 2935 2014-11-11 08:27:57Z andrius 

The following automatic conversions were performed:

'_exptl_crystal_density_meas' value 'not measured' was changed to '?'
- the value is perceived as not measured.

Automatic conversion script
Id: cif_fix_values 3008 2015-01-20 13:52:24Z robertas 

 Adding full bibliography for 4512310--4512328.cif.
;
_cod_original_formula_sum        'C11 H10 F3 I1 N2 O3 S1'
_cod_database_code               4512316
loop_
_symmetry_equiv_pos_as_xyz
x,y,z
-x,-y,-z
loop_
_atom_site_label
_atom_site_type_symbol
_atom_site_fract_x
_atom_site_fract_y
_atom_site_fract_z
_atom_site_U_iso_or_equiv
_atom_site_occupancy
_atom_site_adp_type
_atom_site_refinement_flags_posn
C1 C 0.3059(11) 0.3449(7) 0.3386(6) 0.0803 1.0000 Uani .
F1 F 0.3464(11) 0.4687(5) 0.3783(6) 0.1455 1.0000 Uani .
F2 F 0.2990(12) 0.2851(7) 0.4397(5) 0.1439 1.0000 Uani .
F3 F 0.4602(10) 0.3313(11) 0.3081(7) 0.1704 1.0000 Uani .
S1 S 0.0746(2) 0.28925(11) 0.20686(11) 0.0610 1.0000 Uani .
O1 O 0.0583(10) 0.1565(4) 0.1697(5) 0.0946 1.0000 Uani .
O2 O 0.1114(10) 0.3737(5) 0.1132(4) 0.0976 1.0000 Uani .
O3 O -0.0722(9) 0.3103(5) 0.2656(5) 0.0886 1.0000 Uani .
I1 I 0.72024(3) 0.00364(2) 0.39805(2) 0.0520 1.0000 Uani .
N1 N 0.6031(6) -0.1388(4) 0.2141(4) 0.0525 1.0000 Uani .
C11 C 0.5061(10) -0.2614(6) 0.2124(6) 0.0674 1.0000 Uani .
C12 C 0.4294(12) -0.3487(7) 0.1000(8) 0.0801 1.0000 Uani .
C13 C 0.4573(12) -0.3062(7) -0.0127(7) 0.0768 1.0000 Uani .
C14 C 0.5655(12) -0.1801(7) -0.0108(6) 0.0781 1.0000 Uani .
C15 C 0.6373(9) -0.0980(5) 0.1056(5) 0.0656 1.0000 Uani .
N2 N 0.8426(6) 0.1456(4) 0.5799(4) 0.0523 1.0000 Uani .
C21 C 0.8617(9) 0.1047(6) 0.6964(5) 0.0615 1.0000 Uani .
C22 C 0.9423(10) 0.1916(8) 0.8095(5) 0.0742 1.0000 Uani .
C23 C 1.0060(11) 0.3229(8) 0.8012(6) 0.0802 1.0000 Uani .
C24 C 0.9870(12) 0.3627(7) 0.6824(7) 0.0794 1.0000 Uani .
C25 C 0.9036(11) 0.2721(6) 0.5727(6) 0.0672 1.0000 Uani .
H111 H 0.4878 -0.2897 0.2894 0.0810 1.0000 Uiso R
H121 H 0.3618 -0.4350 0.1011 0.0970 1.0000 Uiso R
H131 H 0.4045 -0.3631 -0.0894 0.0911 1.0000 Uiso R
H141 H 0.5882 -0.1505 -0.0853 0.0921 1.0000 Uiso R
H151 H 0.7102 -0.0126 0.1091 0.0781 1.0000 Uiso R
H211 H 0.8215 0.0176 0.6997 0.0734 1.0000 Uiso R
H221 H 0.9551 0.1618 0.8900 0.0891 1.0000 Uiso R
H231 H 1.0607 0.3835 0.8761 0.0950 1.0000 Uiso R
H241 H 1.0318 0.4503 0.6746 0.0951 1.0000 Uiso R
H251 H 0.8892 0.2998 0.4913 0.0808 1.0000 Uiso R
loop_
_atom_site_aniso_label
_atom_site_aniso_U_11
_atom_site_aniso_U_22
_atom_site_aniso_U_33
_atom_site_aniso_U_23
_atom_site_aniso_U_13
_atom_site_aniso_U_12
C1 0.086(4) 0.080(4) 0.059(3) 0.010(3) 0.006(3) 0.012(3)
F1 0.165(6) 0.090(3) 0.104(3) -0.014(3) -0.049(4) 0.004(3)
F2 0.172(6) 0.161(6) 0.073(3) 0.055(3) 0.000(3) 0.038(5)
F3 0.091(4) 0.274(11) 0.129(5) -0.008(6) 0.017(3) 0.047(5)
S1 0.0778(8) 0.0478(5) 0.0443(5) 0.0053(4) 0.0127(5) 0.0019(5)
O1 0.119(4) 0.054(2) 0.097(3) -0.006(2) 0.026(3) 0.010(2)
O2 0.125(4) 0.082(3) 0.0494(19) 0.0208(19) 0.008(2) -0.016(3)
O3 0.094(3) 0.093(3) 0.075(2) 0.010(2) 0.026(2) 0.019(3)
I1 0.0497(2) 0.0541(2) 0.04898(19) 0.00017(12) 0.01202(12) 0.01377(13)
N1 0.049(2) 0.054(2) 0.0499(18) 0.0014(15) 0.0116(15) 0.0112(16)
C11 0.070(3) 0.056(3) 0.071(3) 0.001(2) 0.027(3) 0.004(2)
C12 0.076(4) 0.057(3) 0.090(4) -0.009(3) 0.024(3) -0.004(3)
C13 0.075(4) 0.071(3) 0.066(3) -0.016(3) 0.004(3) 0.012(3)
C14 0.096(5) 0.085(4) 0.050(3) 0.005(3) 0.015(3) 0.028(3)
C15 0.074(3) 0.058(3) 0.055(2) 0.006(2) 0.011(2) 0.010(2)
N2 0.052(2) 0.058(2) 0.0470(18) 0.0020(15) 0.0116(15) 0.0203(16)
C21 0.065(3) 0.071(3) 0.050(2) 0.009(2) 0.0139(19) 0.027(2)
C22 0.072(3) 0.104(5) 0.049(2) 0.004(3) 0.015(2) 0.033(3)
C23 0.073(4) 0.098(5) 0.058(3) -0.019(3) 0.013(3) 0.020(3)
C24 0.093(5) 0.062(3) 0.078(4) -0.008(3) 0.026(3) 0.017(3)
C25 0.084(4) 0.055(3) 0.061(3) 0.003(2) 0.020(3) 0.019(2)
loop_
_atom_type_symbol
_atom_type_scat_dispersion_real
_atom_type_scat_dispersion_imag
_atom_type_scat_Cromer_Mann_a1
_atom_type_scat_Cromer_Mann_b1
_atom_type_scat_Cromer_Mann_a2
_atom_type_scat_Cromer_Mann_b2
_atom_type_scat_Cromer_Mann_a3
_atom_type_scat_Cromer_Mann_b3
_atom_type_scat_Cromer_Mann_a4
_atom_type_scat_Cromer_Mann_b4
_atom_type_scat_Cromer_Mann_c
_atom_type_scat_source
C 0.0181 0.0091 2.3100 20.8439 1.0200 10.2075 1.5886 0.5687 0.8650 51.6512
0.2156 'International Tables Vol C 4.2.6.8 and 6.1.1.4'
H 0.0000 0.0000 0.4930 10.5109 0.3229 26.1257 0.1402 3.1424 0.0408 57.7998
0.0030 'International Tables Vol C 4.2.6.8 and 6.1.1.4'
F 0.0727 0.0534 3.5392 10.2825 2.6412 4.2944 1.5170 0.2615 1.0243 26.1476
0.2776 'International Tables Vol C 4.2.6.8 and 6.1.1.4'
I -0.3257 6.8362 20.1472 4.3470 18.9949 0.3814 7.5138 27.7660 2.2735 66.8776
4.0712 'International Tables Vol C 4.2.6.8 and 6.1.1.4'
N 0.0311 0.0180 12.2126 0.0057 3.1322 9.8933 2.0125 28.9975 1.1663 0.5826
-11.5290 'International Tables Vol C 4.2.6.8 and 6.1.1.4'
O 0.0492 0.0322 3.0485 13.2771 2.2868 5.7011 1.5463 0.3239 0.8670 32.9089
0.2508 'International Tables Vol C 4.2.6.8 and 6.1.1.4'
S 0.3331 0.5567 6.9053 1.4679 5.2034 22.2151 1.4379 0.2536 1.5863 56.1720
0.8669 'International Tables Vol C 4.2.6.8 and 6.1.1.4'
loop_
_geom_angle_atom_site_label_1
_geom_angle_atom_site_label_2
_geom_angle_atom_site_label_3
_geom_angle
_geom_angle_publ_flag
F1 C1 F2 106.2(7) yes
F1 C1 F3 105.9(8) yes
F2 C1 F3 106.8(8) yes
F1 C1 S1 111.2(5) yes
F2 C1 S1 112.5(6) yes
F3 C1 S1 113.7(5) yes
C1 S1 O1 104.4(4) yes
C1 S1 O2 102.5(3) yes
O1 S1 O2 114.7(4) yes
C1 S1 O3 103.0(3) yes
O1 S1 O3 115.5(4) yes
O2 S1 O3 114.5(4) yes
N1 I1 N2 178.84(12) yes
I1 N1 C11 121.5(4) yes
I1 N1 C15 118.9(3) yes
C11 N1 C15 119.6(5) yes
N1 C11 C12 122.1(6) yes
N1 C11 H111 118.9 no
C12 C11 H111 119.0 no
C11 C12 C13 118.6(6) yes
C11 C12 H121 120.7 no
C13 C12 H121 120.8 no
C12 C13 C14 119.8(6) yes
C12 C13 H131 119.7 no
C14 C13 H131 120.5 no
C13 C14 C15 118.3(6) yes
C13 C14 H141 120.9 no
C15 C14 H141 120.8 no
C14 C15 N1 121.6(6) yes
C14 C15 H151 119.8 no
N1 C15 H151 118.6 no
I1 N2 C21 120.9(4) yes
I1 N2 C25 119.6(4) yes
C21 N2 C25 119.4(5) yes
N2 C21 C22 121.3(6) yes
N2 C21 H211 118.3 no
C22 C21 H211 120.4 no
C21 C22 C23 118.9(6) yes
C21 C22 H221 120.4 no
C23 C22 H221 120.7 no
C22 C23 C24 119.0(6) yes
C22 C23 H231 120.6 no
C24 C23 H231 120.4 no
C23 C24 C25 119.7(7) yes
C23 C24 H241 120.4 no
C25 C24 H241 119.9 no
C24 C25 N2 121.6(6) yes
C24 C25 H251 119.5 no
N2 C25 H251 118.9 no
loop_
_geom_bond_atom_site_label_1
_geom_bond_atom_site_label_2
_geom_bond_distance
_geom_bond_publ_flag
C1 F1 1.309(9) yes
C1 F2 1.304(8) yes
C1 F3 1.289(10) yes
C1 S1 1.809(7) yes
S1 O1 1.428(5) yes
S1 O2 1.429(4) yes
S1 O3 1.439(6) yes
I1 N1 2.261(4) yes
I1 N2 2.241(4) yes
N1 C11 1.320(7) yes
N1 C15 1.339(7) yes
C11 C12 1.382(9) yes
C11 H111 0.934 no
C12 C13 1.373(12) yes
C12 H121 0.933 no
C13 C14 1.375(11) yes
C13 H131 0.929 no
C14 C15 1.387(8) yes
C14 H141 0.922 no
C15 H151 0.927 no
N2 C21 1.339(7) yes
N2 C25 1.331(7) yes
C21 C22 1.386(8) yes
C21 H211 0.912 no
C22 C23 1.383(12) yes
C22 H221 0.933 no
C23 C24 1.358(11) yes
C23 H231 0.935 no
C24 C25 1.380(9) yes
C24 H241 0.930 no
C25 H251 0.931 no
loop_
_geom_hbond_atom_site_label_D
_geom_hbond_atom_site_label_H
_geom_hbond_atom_site_label_A
_geom_hbond_site_symmetry_A
_geom_hbond_angle_DHA
_geom_hbond_distance_DH
_geom_hbond_distance_HA
_geom_hbond_distance_DA
_geom_hbond_publ_flag
C12 H121 O2 1_545 162.2 0.933 2.403 3.304(10) yes
C15 H151 O1 1_655 147.57 0.927 2.587 3.406(10) yes
C21 H211 O1 2_656 139.62 0.912 2.588 3.335(10) yes
C23 H231 O2 1_656 135.3 0.935 2.503 3.235(10) yes
C24 H241 O3 2_666 153.0 0.930 2.543 3.398(10) yes
C25 H251 O3 1_655 157.0 0.931 2.540 3.417(10) yes
