#------------------------------------------------------------------------------
#$Date: 2016-03-24 14:36:54 +0200 (Thu, 24 Mar 2016) $
#$Revision: 179669 $
#$URL: svn://www.crystallography.net/cod/cif/4/51/22/4512288.cif $
#------------------------------------------------------------------------------
#
# This file is available in the Crystallography Open Database (COD),
# http://www.crystallography.net/
#
# All data on this site have been placed in the public domain by the
# contributors.
#
data_4512288
loop_
_publ_author_name
'Aitipamula, Srinivasulu'
'Chow, Pui Shan'
'Tan, Reginald B. H.'
_publ_section_title
;
 Crystal Engineering of Tegafur Cocrystals: Structural Analysis and
 Physicochemical Properties
;
_journal_issue                   12
_journal_name_full               'Crystal Growth &amp; Design'
_journal_page_first              6557
_journal_paper_doi               10.1021/cg501469r
_journal_volume                  14
_journal_year                    2014
_chemical_formula_sum            'C14 H15 F N4 O4'
_chemical_formula_weight         322.30
_chemical_name_systematic
; 
 ? 
;
_space_group_IT_number           2
_symmetry_cell_setting           triclinic
_symmetry_space_group_name_Hall  '-P 1'
_symmetry_space_group_name_H-M   'P -1'
_atom_sites_solution_hydrogens   geom
_atom_sites_solution_primary     direct
_atom_sites_solution_secondary   difmap
_audit_creation_method           SHELXL-97
_cell_angle_alpha                87.43(3)
_cell_angle_beta                 81.56(3)
_cell_angle_gamma                78.70(3)
_cell_formula_units_Z            2
_cell_length_a                   5.2764(11)
_cell_length_b                   10.181(2)
_cell_length_c                   13.495(3)
_cell_measurement_reflns_used    2094
_cell_measurement_temperature    110(2)
_cell_measurement_theta_max      30.6742
_cell_measurement_theta_min      2.0403
_cell_volume                     703.1(3)
_computing_cell_refinement       'CrystalClear (Rigaku Inc., 2007)'
_computing_data_collection       'CrystalClear (Rigaku Inc., 2007)'
_computing_data_reduction        'CrystalClear (Rigaku Inc., 2007)'
_computing_structure_refinement  'SHELXL-97 (Sheldrick, 1997)'
_computing_structure_solution    'SHELXS-97 (Sheldrick, 1990)'
_diffrn_ambient_temperature      110(2)
_diffrn_measured_fraction_theta_full 0.983
_diffrn_measured_fraction_theta_max 0.983
_diffrn_measurement_device_type  'Rigaku Saturn 70 CCD area detector'
_diffrn_measurement_method       '\w scans'
_diffrn_radiation_monochromator  graphite
_diffrn_radiation_source         'fine-focus sealed tube'
_diffrn_radiation_type           MoK\a
_diffrn_radiation_wavelength     0.71073
_diffrn_reflns_av_R_equivalents  0.0147
_diffrn_reflns_av_sigmaI/netI    0.0137
_diffrn_reflns_limit_h_max       7
_diffrn_reflns_limit_h_min       -6
_diffrn_reflns_limit_k_max       13
_diffrn_reflns_limit_k_min       -13
_diffrn_reflns_limit_l_max       17
_diffrn_reflns_limit_l_min       -17
_diffrn_reflns_number            9977
_diffrn_reflns_theta_full        28.28
_diffrn_reflns_theta_max         28.28
_diffrn_reflns_theta_min         2.04
_exptl_absorpt_coefficient_mu    0.122
_exptl_absorpt_correction_T_max  0.9607
_exptl_absorpt_correction_T_min  0.9481
_exptl_absorpt_correction_type   multi-scan
_exptl_absorpt_process_details   'R. H. Blessing, Acta Cryst. 1995 A51, 33-38'
_exptl_crystal_colour            colorless
_exptl_crystal_density_diffrn    1.522
_exptl_crystal_density_method    'not measured'
_exptl_crystal_description       needle
_exptl_crystal_F_000             336
_exptl_crystal_size_max          0.44
_exptl_crystal_size_mid          0.44
_exptl_crystal_size_min          0.33
_refine_diff_density_max         0.404
_refine_diff_density_min         -0.322
_refine_diff_density_rms         0.080
_refine_ls_extinction_method     none
_refine_ls_goodness_of_fit_ref   1.098
_refine_ls_hydrogen_treatment    mixed
_refine_ls_matrix_type           full
_refine_ls_number_parameters     220
_refine_ls_number_reflns         3412
_refine_ls_number_restraints     0
_refine_ls_restrained_S_all      1.098
_refine_ls_R_factor_all          0.0426
_refine_ls_R_factor_gt           0.0400
_refine_ls_shift/su_max          0.001
_refine_ls_shift/su_mean         0.000
_refine_ls_structure_factor_coef Fsqd
_refine_ls_weighting_details
'calc w=1/[\s^2^(Fo^2^)+(0.0706P)^2^+0.2138P] where P=(Fo^2^+2Fc^2^)/3'
_refine_ls_weighting_scheme      calc
_refine_ls_wR_factor_gt          0.1117
_refine_ls_wR_factor_ref         0.1200
_reflns_number_gt                3290
_reflns_number_total             3412
_reflns_threshold_expression     >2sigma(I)
_cod_data_source_file            cg501469r_si_002.cif
_cod_data_source_block           TG-INA
_cod_depositor_comments
;
The following automatic conversions were performed:

'_symmetry_cell_setting' value 'Triclinic' changed to 'triclinic'
according to
/home/saulius/struct/COD-crude-data--automatic-downloads/rss-feeds/ACS/lib/dictionaries/cif_core.dic
dictionary named 'cif_core.dic' version 2.4.2 from
2011-04-26.

'_exptl_absorpt_correction_type' value 'Multi-scan'
changed to 'multi-scan' according to
/home/saulius/struct/COD-crude-data--automatic-downloads/rss-feeds/ACS/lib/dictionaries/cif_core.dic
dictionary named 'cif_core.dic' version 2.4.2 from 2011-04-26.

Automatic conversion script
Id: cif_fix_values 2935 2014-11-11 08:27:57Z andrius 

 Adding full bibliography for 4512287--4512291.cif.
;
_cod_database_code               4512288
loop_
_symmetry_equiv_pos_as_xyz
'x, y, z'
'-x, -y, -z'
loop_
_atom_site_label
_atom_site_type_symbol
_atom_site_fract_x
_atom_site_fract_y
_atom_site_fract_z
_atom_site_U_iso_or_equiv
_atom_site_adp_type
_atom_site_occupancy
_atom_site_symmetry_multiplicity
_atom_site_calc_flag
_atom_site_refinement_flags
F1 F 0.19064(14) 0.63489(7) 0.48695(5) 0.02409(18) Uani 1 1 d .
O2 O 0.04511(16) 0.38628(8) 0.16426(6) 0.02084(19) Uani 1 1 d .
N1 N -0.09356(18) 0.55254(9) 0.27794(7) 0.0172(2) Uani 1 1 d .
O1 O -0.23587(17) 0.72633(9) 0.38644(7) 0.0253(2) Uani 1 1 d .
O3 O 0.65748(15) 0.23452(8) 0.32009(6) 0.0219(2) Uani 1 1 d .
N2 N 0.27284(18) 0.38815(9) 0.29625(7) 0.0166(2) Uani 1 1 d .
C3 C 0.3109(2) 0.45517(11) 0.37736(8) 0.0180(2) Uani 1 1 d .
H3 H 0.4536 0.4199 0.4124 0.022 Uiso 1 1 calc R
C6 C 0.3124(2) 0.14110(11) 0.28102(8) 0.0191(2) Uani 1 1 d .
H6A H 0.3953 0.0662 0.2356 0.023 Uiso 1 1 calc R
H6B H 0.1257 0.1679 0.2729 0.023 Uiso 1 1 calc R
C5 C 0.4526(2) 0.25877(11) 0.26240(8) 0.0179(2) Uani 1 1 d .
H5 H 0.5228 0.2655 0.1898 0.021 Uiso 1 1 calc R
C1 C -0.0755(2) 0.62594(11) 0.36008(8) 0.0180(2) Uani 1 1 d .
C2 C 0.1507(2) 0.56916(11) 0.40783(8) 0.0179(2) Uani 1 1 d .
C7 C 0.3461(2) 0.10367(12) 0.38993(9) 0.0228(2) Uani 1 1 d .
H7A H 0.2122 0.1607 0.4370 0.027 Uiso 1 1 calc R
H7B H 0.3373 0.0084 0.4047 0.027 Uiso 1 1 calc R
C4 C 0.0730(2) 0.43840(11) 0.24121(8) 0.0168(2) Uani 1 1 d .
C8 C 0.6167(2) 0.13014(12) 0.39525(9) 0.0247(3) Uani 1 1 d .
H8A H 0.6278 0.1607 0.4628 0.030 Uiso 1 1 calc R
H8B H 0.7500 0.0478 0.3804 0.030 Uiso 1 1 calc R
O4 O 1.28051(16) 0.00189(8) 0.91103(6) 0.02060(19) Uani 1 1 d .
N3 N 1.25228(19) 0.15574(10) 1.02943(7) 0.0194(2) Uani 1 1 d .
N4 N 0.51839(19) 0.33183(10) 0.82150(7) 0.0189(2) Uani 1 1 d .
C14 C 1.1722(2) 0.10913(10) 0.95144(8) 0.0156(2) Uani 1 1 d .
C9 C 0.9405(2) 0.19150(10) 0.90937(8) 0.0155(2) Uani 1 1 d .
C13 C 0.8039(2) 0.31433(12) 0.94697(8) 0.0208(2) Uani 1 1 d .
H13 H 0.8520 0.3523 1.0028 0.025 Uiso 1 1 calc R
C10 C 0.8632(2) 0.14127(11) 0.82709(9) 0.0192(2) Uani 1 1 d .
H10 H 0.9533 0.0579 0.7997 0.023 Uiso 1 1 calc R
C12 C 0.5947(2) 0.37981(12) 0.90032(9) 0.0226(2) Uani 1 1 d .
H12 H 0.5008 0.4635 0.9261 0.027 Uiso 1 1 calc R
C11 C 0.6521(2) 0.21447(11) 0.78522(8) 0.0200(2) Uani 1 1 d .
H11 H 0.6011 0.1797 0.7287 0.024 Uiso 1 1 calc R
H4 H 1.178(3) 0.2249(18) 1.0617(13) 0.027(4) Uiso 1 1 d .
H2 H 1.396(4) 0.105(2) 1.0516(14) 0.041(5) Uiso 1 1 d .
H1 H -0.229(4) 0.5854(18) 0.2426(14) 0.036(5) Uiso 1 1 d .
loop_
_atom_site_aniso_label
_atom_site_aniso_U_11
_atom_site_aniso_U_22
_atom_site_aniso_U_33
_atom_site_aniso_U_23
_atom_site_aniso_U_13
_atom_site_aniso_U_12
F1 0.0268(4) 0.0260(4) 0.0217(3) -0.0079(3) -0.0103(3) -0.0036(3)
O2 0.0257(4) 0.0183(4) 0.0187(4) -0.0038(3) -0.0086(3) 0.0003(3)
N1 0.0179(4) 0.0164(4) 0.0173(4) -0.0019(3) -0.0068(3) 0.0005(3)
O1 0.0249(4) 0.0242(4) 0.0247(4) -0.0076(3) -0.0072(3) 0.0046(3)
O3 0.0163(4) 0.0225(4) 0.0265(4) 0.0041(3) -0.0069(3) -0.0005(3)
N2 0.0170(4) 0.0153(4) 0.0175(4) -0.0014(3) -0.0057(3) -0.0002(3)
C3 0.0182(5) 0.0198(5) 0.0173(5) 0.0009(4) -0.0066(4) -0.0042(4)
C6 0.0209(5) 0.0168(5) 0.0192(5) -0.0025(4) -0.0040(4) -0.0009(4)
C5 0.0165(5) 0.0168(5) 0.0185(5) -0.0003(4) -0.0035(4) 0.0023(4)
C1 0.0193(5) 0.0190(5) 0.0160(5) -0.0012(4) -0.0044(4) -0.0031(4)
C2 0.0202(5) 0.0201(5) 0.0150(5) -0.0031(4) -0.0057(4) -0.0048(4)
C7 0.0287(6) 0.0205(5) 0.0188(5) 0.0006(4) -0.0027(4) -0.0047(4)
C4 0.0180(5) 0.0157(5) 0.0169(5) 0.0002(4) -0.0048(4) -0.0021(4)
C8 0.0292(6) 0.0207(5) 0.0245(6) 0.0039(4) -0.0109(5) -0.0009(4)
O4 0.0188(4) 0.0192(4) 0.0224(4) -0.0044(3) -0.0061(3) 0.0032(3)
N3 0.0190(5) 0.0181(4) 0.0201(5) -0.0033(4) -0.0079(4) 0.0029(4)
N4 0.0181(4) 0.0195(4) 0.0188(4) 0.0006(3) -0.0059(3) -0.0004(3)
C14 0.0135(5) 0.0164(5) 0.0160(5) 0.0006(4) -0.0023(4) -0.0011(4)
C9 0.0138(5) 0.0160(5) 0.0163(5) 0.0010(4) -0.0035(4) -0.0012(4)
C13 0.0219(5) 0.0211(5) 0.0187(5) -0.0041(4) -0.0079(4) 0.0019(4)
C10 0.0195(5) 0.0163(5) 0.0218(5) -0.0022(4) -0.0068(4) 0.0001(4)
C12 0.0228(5) 0.0205(5) 0.0222(5) -0.0048(4) -0.0070(4) 0.0055(4)
C11 0.0212(5) 0.0188(5) 0.0209(5) -0.0020(4) -0.0083(4) -0.0017(4)
loop_
_atom_type_symbol
_atom_type_description
_atom_type_scat_dispersion_real
_atom_type_scat_dispersion_imag
_atom_type_scat_source
C C 0.0033 0.0016 'International Tables Vol C Tables 4.2.6.8 and 6.1.1.4'
H H 0.0000 0.0000 'International Tables Vol C Tables 4.2.6.8 and 6.1.1.4'
N N 0.0061 0.0033 'International Tables Vol C Tables 4.2.6.8 and 6.1.1.4'
O O 0.0106 0.0060 'International Tables Vol C Tables 4.2.6.8 and 6.1.1.4'
F F 0.0171 0.0103 'International Tables Vol C Tables 4.2.6.8 and 6.1.1.4'
loop_
_geom_angle_atom_site_label_1
_geom_angle_atom_site_label_2
_geom_angle_atom_site_label_3
_geom_angle
C4 N1 C1 127.59(9)
C4 N1 H1 115.9(11)
C1 N1 H1 116.4(11)
C5 O3 C8 109.81(9)
C3 N2 C4 121.25(9)
C3 N2 C5 121.12(9)
C4 N2 C5 117.60(9)
C2 C3 N2 121.16(10)
C2 C3 H3 119.4
N2 C3 H3 119.4
C5 C6 C7 101.69(9)
C5 C6 H6A 111.4
C7 C6 H6A 111.4
C5 C6 H6B 111.4
C7 C6 H6B 111.4
H6A C6 H6B 109.3
O3 C5 N2 108.33(9)
O3 C5 C6 106.82(9)
N2 C5 C6 111.02(9)
O3 C5 H5 110.2
N2 C5 H5 110.2
C6 C5 H5 110.2
O1 C1 N1 122.15(10)
O1 C1 C2 125.77(10)
N1 C1 C2 112.08(10)
C3 C2 F1 120.79(10)
C3 C2 C1 122.25(10)
F1 C2 C1 116.94(10)
C8 C7 C6 102.11(10)
C8 C7 H7A 111.3
C6 C7 H7A 111.3
C8 C7 H7B 111.3
C6 C7 H7B 111.3
H7A C7 H7B 109.2
O2 C4 N1 121.68(10)
O2 C4 N2 122.87(10)
N1 C4 N2 115.45(9)
O3 C8 C7 105.99(9)
O3 C8 H8A 110.5
C7 C8 H8A 110.5
O3 C8 H8B 110.5
C7 C8 H8B 110.5
H8A C8 H8B 108.7
C14 N3 H4 126.1(11)
C14 N3 H2 116.3(12)
H4 N3 H2 117.5(16)
C12 N4 C11 117.86(10)
O4 C14 N3 123.00(10)
O4 C14 C9 118.50(9)
N3 C14 C9 118.50(10)
C10 C9 C13 118.54(10)
C10 C9 C14 117.28(10)
C13 C9 C14 124.18(10)
C12 C13 C9 118.01(10)
C12 C13 H13 121.0
C9 C13 H13 121.0
C9 C10 C11 119.26(10)
C9 C10 H10 120.4
C11 C10 H10 120.4
N4 C12 C13 123.78(11)
N4 C12 H12 118.1
C13 C12 H12 118.1
N4 C11 C10 122.55(10)
N4 C11 H11 118.7
C10 C11 H11 118.7
loop_
_geom_bond_atom_site_label_1
_geom_bond_atom_site_label_2
_geom_bond_distance
F1 C2 1.3482(12)
O2 C4 1.2275(14)
N1 C4 1.3755(14)
N1 C1 1.3890(14)
N1 H1 0.918(19)
O1 C1 1.2215(15)
O3 C5 1.4002(13)
O3 C8 1.4605(15)
N2 C3 1.3745(14)
N2 C4 1.3818(14)
N2 C5 1.5102(14)
C3 C2 1.3367(16)
C3 H3 0.9500
C6 C5 1.5204(16)
C6 C7 1.5286(16)
C6 H6A 0.9900
C6 H6B 0.9900
C5 H5 1.0000
C1 C2 1.4478(16)
C7 C8 1.5165(17)
C7 H7A 0.9900
C7 H7B 0.9900
C8 H8A 0.9900
C8 H8B 0.9900
O4 C14 1.2383(14)
N3 C14 1.3288(14)
N3 H4 0.841(18)
N3 H2 0.91(2)
N4 C12 1.3347(15)
N4 C11 1.3363(15)
C14 C9 1.5094(15)
C9 C10 1.3880(15)
C9 C13 1.3919(15)
C13 C12 1.3919(16)
C13 H13 0.9500
C10 C11 1.3915(16)
C10 H10 0.9500
C12 H12 0.9500
C11 H11 0.9500
