#------------------------------------------------------------------------------
#$Date: 2015-09-05 23:34:09 +0300 (Sat, 05 Sep 2015) $
#$Revision: 154543 $
#$URL: svn://www.crystallography.net/cod/cif/4/51/33/4513308.cif $
#------------------------------------------------------------------------------
#
# This file is available in the Crystallography Open Database (COD),
# http://www.crystallography.net/
#
# All data on this site have been placed in the public domain by the
# contributors.
#
data_4513308
loop_
_publ_author_name
'Lusi, Matteo'
'Vitorica-Yrezabal, Inigo J.'
'Zaworotko, Michael J.'
_publ_section_title
;
 Expanding the Scope of Molecular Mixed Crystals Enabled by Three
 Component Solid Solutions
;
_journal_issue                   8
_journal_name_full               'Crystal Growth &amp; Design'
_journal_page_first              4098
_journal_paper_doi               10.1021/acs.cgd.5b00685
_journal_volume                  15
_journal_year                    2015
_chemical_formula_sum            'C6.99 H4.99 N0.01'
_chemical_formula_weight         89.12
_chemical_name_systematic
;
 ?
;
_space_group_crystal_system      monoclinic
_space_group_IT_number           14
_space_group_name_Hall           '-P 2ybc'
_space_group_name_H-M_alt        'P 1 21/c 1'
_symmetry_space_group_name_Hall  '-P 2ybc'
_symmetry_space_group_name_H-M   'P 1 21/c 1'
_atom_sites_solution_hydrogens   geom
_audit_creation_method           SHELXL-2014
_cell_angle_alpha                90
_cell_angle_beta                 102.54(2)
_cell_angle_gamma                90
_cell_formula_units_Z            4
_cell_length_a                   9.2763(15)
_cell_length_b                   5.9882(10)
_cell_length_c                   8.4030(17)
_cell_measurement_temperature    100(2)
_cell_volume                     455.64(14)
_computing_structure_refinement  'SHELXL-2014 (Sheldrick, 2014)'
_diffrn_ambient_temperature      100(2)
_diffrn_measured_fraction_theta_full 0.996
_diffrn_measured_fraction_theta_max 0.863
_diffrn_radiation_type           MoK\a
_diffrn_radiation_wavelength     0.71073
_diffrn_reflns_av_R_equivalents  0.0566
_diffrn_reflns_av_unetI/netI     0.1215
_diffrn_reflns_laue_measured_fraction_full 0.996
_diffrn_reflns_laue_measured_fraction_max 0.863
_diffrn_reflns_limit_h_max       4
_diffrn_reflns_limit_h_min       -12
_diffrn_reflns_limit_k_max       7
_diffrn_reflns_limit_k_min       -7
_diffrn_reflns_limit_l_max       11
_diffrn_reflns_limit_l_min       -10
_diffrn_reflns_number            1657
_diffrn_reflns_point_group_measured_fraction_full 0.996
_diffrn_reflns_point_group_measured_fraction_max 0.863
_diffrn_reflns_theta_full        25.242
_diffrn_reflns_theta_max         28.768
_diffrn_reflns_theta_min         4.080
_exptl_absorpt_coefficient_mu    0.073
_exptl_absorpt_correction_T_max  1.21
_exptl_absorpt_correction_T_min  0.91
_exptl_absorpt_correction_type   multi-scan
_exptl_absorpt_process_details   sadabs
_exptl_crystal_colour            colourless
_exptl_crystal_density_diffrn    1.299
_exptl_crystal_description       prism
_exptl_crystal_F_000             188
_refine_diff_density_max         0.347
_refine_diff_density_min         -0.345
_refine_diff_density_rms         0.080
_refine_ls_extinction_method     none
_refine_ls_goodness_of_fit_ref   0.948
_refine_ls_hydrogen_treatment    constr
_refine_ls_matrix_type           full
_refine_ls_number_parameters     65
_refine_ls_number_reflns         1019
_refine_ls_number_restraints     0
_refine_ls_restrained_S_all      0.948
_refine_ls_R_factor_all          0.1196
_refine_ls_R_factor_gt           0.0723
_refine_ls_shift/su_max          0.000
_refine_ls_shift/su_mean         0.000
_refine_ls_structure_factor_coef Fsqd
_refine_ls_weighting_details
'w=1/[\s^2^(Fo^2^)+(0.0740P)^2^] where P=(Fo^2^+2Fc^2^)/3'
_refine_ls_weighting_scheme      calc
_refine_ls_wR_factor_gt          0.1567
_refine_ls_wR_factor_ref         0.1990
_reflns_Friedel_coverage         0.000
_reflns_number_gt                578
_reflns_number_total             1019
_reflns_threshold_expression     'I > 2\s(I)'
_cod_data_source_file            cg5b00685_si_020.cif
_cod_data_source_block           D:\#19
_cod_depositor_comments
'Adding full bibliography for 4513301--4513322.cif.'
_cod_original_cell_volume        455.63(15)
_cod_database_code               4513308
_shelx_space_group_comment
;
The symmetry employed for this shelxl refinement is uniquely defined
by the following loop, which should always be used as a source of
symmetry information in preference to the above space-group names.
They are only intended as comments.
;
_shelxl_version_number           2014-3
_shelx_res_file
;
REM  Ml22b in P21/c #14
REM R1 =  0.0948 for     425 Fo > 4sig(Fo)  and  0.2139 for all     989 data
REM     65 parameters refined using      0 restraints
REM Highest difference peak  0.331,  deepest hole -0.340,  1-sigma level  0.077
REM  CF solution in P21/c
REM R1 =  0.0725 for     578 Fo > 4sig(Fo)  and  0.1197 for all    1019 data
REM     65 parameters refined using      0 restraints
REM Highest difference peak  0.347,  deepest hole -0.345,  1-sigma level  0.080
REM  CF solution in P21/c
REM R1 =  0.0714 for     578 Fo > 4sig(Fo)  and  0.1190 for all    1019 data
REM     65 parameters refined using      0 restraints
REM Highest difference peak  0.352,  deepest hole -0.344,  1-sigma level  0.080
TITL CF solution in P21/c
CELL 0.71073 9.2763 5.9882 8.4030 90.000 102.542 90.000
ZERR 4.0000 0.0015 0.0010 0.0017 0.000 0.021 0.000
LATT 1
SYMM -X, 0.5+Y, 0.5-Z
SFAC C H N
UNIT 27.96 19.96 0.04
MERG 2
FMAP 2
GRID
PLAN 5
TEMP -173
BOND
EXYZ N1 C1
EADP N1 C1
L.S. 20
ACTA
WGHT    0.074000
FVAR      13.12916   0.98881
C1    1    0.451256    0.210925    0.538538    21.00000    0.01918    0.01989 =
         0.02008    0.00012    0.01210   -0.00104
AFIX  43
H1    2    0.418150    0.353603    0.564817    21.00000   -1.20000
AFIX   0
C2    1    0.589677    0.134183    0.620044    11.00000    0.01871    0.01848 =
         0.01614    0.00054    0.01030   -0.00078
C3    1    0.682535    0.263867    0.743274    11.00000    0.02145    0.02692 =
         0.01703   -0.00232    0.00990   -0.00432
AFIX  43
H3    2    0.650025    0.406101    0.771261    11.00000   -1.20000
AFIX   0
C4    1    0.817563    0.186150    0.821518    11.00000    0.01895    0.03358 =
         0.02024   -0.00231    0.00644   -0.00859
AFIX  43
H4    2    0.878255    0.274815    0.903238    11.00000   -1.20000
AFIX   0
C5    1    0.360542    0.081492    0.418949    11.00000    0.01668    0.01962 =
         0.01754    0.00121    0.00971   -0.00083
C6    1    0.218067    0.155388    0.335076    11.00000    0.01686    0.03096 =
         0.02037    0.00033    0.00786   -0.00154
AFIX  43
H6    2    0.182662    0.296706    0.360997    11.00000   -1.20000
AFIX   0
C7    1    0.131824    0.026131    0.218133    11.00000    0.01595    0.02981 =
         0.02495    0.00463    0.00470    0.00319
AFIX  43
H7    2    0.037488    0.078479    0.163020    11.00000   -1.20000
PART 2
AFIX   0
N1    3    0.451256    0.210925    0.538538   -21.00000    0.01918    0.01989 =
         0.02008    0.00012    0.01210   -0.00104
HKLF 4

REM  CF solution in P21/c
REM R1 =  0.0723 for     578 Fo > 4sig(Fo)  and  0.1196 for all    1019 data
REM     65 parameters refined using      0 restraints

END

WGHT      0.0794      0.0000

REM Highest difference peak  0.347,  deepest hole -0.345,  1-sigma level  0.080
Q1    1   0.6241  0.1455  0.7311  11.00000  0.05    0.35
Q2    1   0.4203  0.1921  0.4231  11.00000  0.05    0.32
Q3    1   0.3047  0.0949  0.2734  11.00000  0.05    0.27
Q4    1   0.1642  0.0491  0.3317  11.00000  0.05    0.27
Q5    1   0.0206  0.1494  0.0419  11.00000  0.05    0.26
;
_shelx_res_checksum              10533
_shelx_hkl_file
;
  -2   0   0 82803.0 3580.62   1
   2   0   0 75842.7 3236.88   2
  -2   0   0 79358.4 3386.77   2
  -3   0   0 37253.2 2572.28   1
  -3   0   0 38920.2 2430.26   2
  -4   0   0 105829. 5446.47   2
  -4   0   0 115195. 5791.52   1
  -5   0   0 55687.2 3897.99   2
  -5   0   0 56054.4 4187.96   1
  -6   0   0 9951.54 1752.70   2
  -6   0   0 8426.82 1710.96   1
  -7   0   0 784.672 606.318   1
  -7   0   0 741.640 586.512   2
  -8   0   0 6833.51 1828.21   1
  -9   0   0 16242.1 3101.60   1
 -10   0   0 480.561 682.458   1
 -11   0   0 2290.45 1469.22   1
   0   1   0 15.8050 37.8308   2
   1   1   0 16908.3 1218.96   2
  -1  -1   0 16370.8 1167.25   2
  -1  -1   0 15755.0 1390.55   1
   1   1   0 18427.9 1501.65   1
  -1  -1   0 20311.5 2108.04   3
   1   1   0 21337.1 2151.85   3
   2   1   0 988.142 326.809   1
   2  -1   0 848.100 242.057   2
  -2  -1   0 1341.16 418.238   1
  -2  -1   0 738.989 269.776   2
  -2  -1   0 756.334 410.835   3
  -3  -1   0 2270.27 581.484   2
  -3  -1   0 1431.68 491.562   1
   3   1   0 2011.01 536.301   1
  -4  -1   0 27199.6 2525.38   1
  -4  -1   0 27392.0 2473.24   2
  -5  -1   0 44952.9 3596.62   2
  -5   1   0 41182.4 3650.15   1
  -5  -1   0 47254.9 3844.52   1
  -6   1   0 156.781 454.256   1
  -6  -1   0 648.049 620.026   1
  -6  -1   0 393.247 491.909   2
  -7   1   0 2754.27 1190.53   1
  -7  -1   0 2313.89 958.763   1
  -7  -1   0 2734.48 1053.48   2
  -8   1   0 24098.2 3491.31   1
  -8  -1   0 26365.7 3552.96   2
  -8  -1   0 24665.6 3557.57   1
  -9  -1   0 27044.0 4000.57   1
  -9  -1   0 27683.4 3958.32   2
  -9   1   0 26462.4 3998.71   1
 -10   1   0 690.348 868.919   1
 -10  -1   0 75.7269 473.812   1
 -11   1   0-415.843 564.222   1
   0   2   0 126600. 5416.68   2
   0  -2   0 131935. 5254.22   2
  -1  -2   0 58153.9 3045.81   2
   1  -2   0 56235.1 2825.43   2
   1   2   0 56205.0 3231.02   2
   2   2   0 14232.6 2330.54   3
  -2  -2   0 12634.5 1376.76   2
   3  -2   0 4651.86 727.075   2
  -3  -2   0 7030.34 1156.60   2
  -3  -2   0 4761.89 1052.20   1
  -4  -2   0 41974.5 3565.16   1
  -4  -2   0 46478.2 3442.89   2
  -5  -2   0 2480.97 834.394   2
  -5  -2   0 2528.85 890.478   1
  -6  -2   0 1030.87 570.316   2
  -6  -2   0 745.080 633.284   1
  -7   2   0-41.2766 266.690   1
  -7  -2   0-86.9035 270.779   1
  -7  -2   0-65.9997 292.276   2
  -8  -2   0 56247.5 5597.54   1
  -8   2   0 57247.3 5626.11   1
  -8  -2   0 60721.8 5774.21   2
  -9   2   0 3046.20 1291.55   1
  -9  -2   0 2737.59 1254.69   2
  -9  -2   0 4450.92 1589.99   1
 -10   2   0 2977.15 1583.77   1
 -10  -2   0 2379.88 1195.21   2
 -11   2   0 829.549 901.604   1
   0   3   0 594.743 867.097   3
   0  -3   0-15.4596 147.113   2
   1  -3   0 82137.4 4093.57   2
  -1  -3   0 83777.8 4280.45   2
   2  -3   0 800.199 354.864   2
  -2  -3   0 1066.69 407.747   2
   2   3   0 128.581 1139.67   3
  -3  -3   0 9381.47 1432.78   2
  -4  -3   0 41977.7 3440.25   2
  -5  -3   0 55989.7 4337.05   2
  -5  -3   0 49563.3 4591.07   1
  -6  -3   0 3153.37 1145.10   1
  -6  -3   0 4277.09 1238.98   2
  -7  -3   0 1601.43 887.179   1
  -7  -3   0 1707.91 901.511   2
  -8  -3   0 3228.00 1411.21   2
  -8   3   0 1966.44 1185.05   1
  -9   3   0 1875.22 1096.89   1
  -9  -3   0 2022.21 1085.77   2
 -10  -3   0 1063.80 845.696   2
 -10   3   0 816.633 1190.57   1
   0   4   0 328.081 236.816   3
   0  -4   0 145.322 366.558   2
   1   4   0 4035.37 1732.47   3
  -1  -4   0 5788.98 1031.38   2
   1  -4   0 5940.24 961.377   2
   2  -4   0 151.320 249.123   2
  -2  -4   0 424.466 311.326   2
   3  -4   0 516.756 395.704   2
  -3  -4   0 889.228 568.746   2
  -4  -4   0 198.759 199.344   2
  -5  -4   0 52269.3 4508.90   2
  -6  -4   0 11483.5 2170.49   2
  -7  -4   0 8790.67 2236.91   2
  -8  -4   0 845.704 764.323   2
  -9   4   0 5908.15 2088.75   1
  -9  -4   0 5378.05 1918.06   2
   0  -5   0 182.515 254.684   2
   0   5   0 596.937 879.430   3
  -1  -5   0 337.513 322.111   2
   1   5   0 1412.95 1197.02   3
  -1   5   0 876.071 878.571   3
  -2  -5   0 1338.12 589.980   2
  -2   5   0 287.202 805.812   3
   2   5   0 1708.19 1512.50   3
  -3  -5   0 40379.2 3594.09   2
  -4  -5   0 10084.1 1841.64   2
  -5  -5   0 3094.32 1121.25   2
  -6  -5   0 737.401 773.216   2
  -7  -5   0 4243.89 1522.02   2
  -8  -5   0 7312.08 2171.47   2
   0   6   0 1466.16 1480.55   3
   1   6   0 3039.13 1712.92   3
  -1   6   0 471.564 1312.56   3
  -2   6   0 30.7983 647.732   3
   2   6   0 1601.58 1348.59   3
  -3   6   0 12405.1 3786.25   3
  -4   6   0 993.432 1391.21   3
  -4  -6   0 3686.77 1227.95   2
  -5   6   0 381.297 1058.78   3
  -5  -6   0 11105.0 2243.60   2
  -6   6   0-1246.54 1135.65   3
  -6  -6   0 3796.39 1433.91   2
  -7  -6   0 545.077 539.531   2
   0   7   0 1559.34 1301.52   3
  -1   7   0 1330.80 1410.99   3
   1   7   0 976.408 951.177   3
  -2   7   0 1267.34 1187.14   3
  -3   7   0 1594.84 1449.74   3
  -4   7   0-44.4550 690.986   3
  -5   7   0 763.579 447.162   3
 -11   0   1 253.162 736.779   1
 -10   0   1 236.803 473.056   1
  -9   0   1 315.846 564.581   1
  -9   0   1 379.388 447.967   2
  -8   0   1 150.094 310.713   2
  -8   0   1-93.8391 217.155   1
  -7   0   1 237.303 341.422   2
  -7   0   1 448.208 428.305   1
  -6   0   1 348.868 349.625   1
  -6   0   1 137.091 184.298   2
  -5   0   1-116.122 87.0612   2
  -5   0   1 185.329 282.600   1
  -4   0   1 506.686 401.655   2
  -3   0   1-57.5106 67.1865   2
  -2   0   1 54.1741 121.016   2
   2   0  -1-121.562 133.947   2
  -1   0  -1-52.6793 61.2667   1
  -2   0  -1 7.66436 141.694   1
  -3   0  -1-4.23178 40.8166   1
  -4   0  -1-21.1779 342.828   1
  -5   0  -1 322.987 406.283   1
  -6   0  -1 96.8445 354.328   1
  -7   0  -1-1.97328 434.789   1
  -8   0  -1 2.34036 381.168   1
  -9   0  -1-124.576 839.315   1
 -10   0  -1-23.9881 378.917   1
 -11   0  -1 1289.69 1337.17   1
 -12   1   1-122.349 497.861   1
 -11  -1   1 717.075 695.322   2
 -11   1   1 12.1528 167.199   1
 -10  -1   1 4180.16 1606.42   2
 -10   1   1 4808.71 1678.35   1
  -9  -1   1-76.4846 374.057   1
  -9   1   1 287.651 381.260   1
  -9  -1   1 352.470 622.400   2
  -8   1   1 534.763 558.107   1
  -8  -1   1 343.612 482.141   1
  -8  -1   1 140.782 382.930   2
  -7  -1   1 649.370 593.197   2
  -7   1   1 255.687 230.679   1
  -7   1   1 135.823 156.496   2
  -7  -1   1 292.709 354.895   1
  -6   1   1 5728.19 1236.46   2
  -6  -1   1 5778.19 1294.59   2
  -6  -1   1 5205.29 1193.18   1
  -5  -1   1 41169.8 3187.86   1
  -5   1   1 40904.1 3113.49   2
  -5  -1   1 41278.2 3325.89   2
  -4  -1   1 6576.14 1021.75   1
  -4  -1   1 6030.09 1120.93   2
  -4   1   1 5457.14 946.211   2
  -3  -1   1 497.489 204.971   1
   3   1  -1 337.628 177.170   1
  -3   1   1 162.550 121.368   2
  -3  -1   1 254.227 248.618   2
   3  -1  -1 399.152 190.567   2
  -2   1   1 26723.3 1337.20   2
   2  -1  -1 26505.3 1351.83   2
  -2  -1   1 26061.8 1408.83   1
   2   1  -1 24885.4 1202.27   1
  -2  -1   1 25334.1 1972.97   2
  -1  -1   1 605279. 19649.0   2
   1   1  -1 586877. 19733.2   2
   0  -1   1 85433.2 5007.16   3
   0   1  -1 76139.2 4263.95   3
   1   1   1 23337.4 2060.43   1
  -1  -1  -1 17839.7 1241.82   2
   1   1   1 18900.6 1196.43   2
  -1  -1  -1 18636.1 1845.12   1
  -2   1  -1 28365.6 2231.31   1
  -2  -1  -1 29023.5 2475.89   1
  -2  -1  -1 26715.2 1928.19   2
  -3  -1  -1 65731.0 4117.50   3
  -3  -1  -1 67175.6 3819.54   2
  -3   1  -1 70876.2 4249.11   1
  -3  -1  -1 66280.7 4287.09   1
  -4  -1  -1 50326.7 3667.36   3
  -4   1  -1 57159.9 4141.19   1
  -4  -1  -1 55972.8 4236.89   1
  -4  -1  -1 53546.4 3704.87   2
  -5  -1  -1-189.174 349.771   2
  -5  -1  -1 343.986 353.167   1
  -5   1  -1 58.9474 282.643   1
  -6  -1  -1 274.910 420.953   2
  -6   1  -1 86.3393 127.154   1
  -6  -1  -1 426.088 461.589   1
  -7  -1  -1 12946.2 2531.55   1
  -7   1  -1 12874.2 2538.02   1
  -8  -1  -1 4037.59 1573.20   1
  -8   1  -1 1592.83 1008.88   1
  -9   1  -1 3508.27 1484.24   1
  -9  -1  -1 3860.78 1640.71   1
 -10   1  -1 1917.66 1167.46   1
 -10  -1  -1 1451.20 1151.20   1
 -11   1  -1 1368.46 935.951   1
 -11  -1  -1 908.804 960.493   1
 -11   2   1 749.028 659.744   1
 -11  -2   1 1286.34 1035.53   2
 -10   2   1 7700.11 2197.26   1
 -10  -2   1 7748.08 2220.51   2
  -9   2   1 26558.1 3850.76   1
  -9  -2   1 33526.9 4296.46   2
  -8  -2   1 3806.54 1217.43   1
  -8  -2   1 1817.04 872.604   2
  -8   2   1 2888.25 1178.64   1
  -7  -2   1 1010.08 653.203   2
  -7  -2   1 304.940 406.134   1
  -6  -2   1 8653.27 1737.84   2
  -6  -2   1 8684.17 1606.50   1
  -5  -2   1 12167.3 1725.58   1
  -5  -2   1 14077.4 1985.95   2
  -4  -2   1 636.988 402.459   1
  -4  -2   1 945.605 588.872   2
   4   2  -1 415.570 261.386   1
   3  -2  -1 8.92246 47.4514   2
  -3  -2   1-6.64583 144.207   2
   2   2  -1 24736.8 2069.38   1
  -2  -2   1 19744.6 1955.58   2
   1   2  -1 61436.0 4878.50   3
  -1  -2   1 61203.8 3640.51   2
   0  -2   1 10476.2 1309.66   2
   0   2  -1 8609.24 1822.90   3
   0  -2  -1 10895.2 773.239   2
   0   2   1 11533.6 918.116   2
   1   2   1 6806.98 824.440   2
  -1  -2  -1 6039.98 730.941   2
   2   2   1 22276.5 4223.91   3
  -2  -2  -1 16826.3 2252.15   1
  -2  -2  -1 18488.8 1625.80   2
  -3  -2  -1 38079.2 3568.14   1
  -3  -2  -1 39117.3 2838.11   2
  -4  -2  -1 1700.55 618.590   2
  -4  -2  -1 2183.32 853.726   1
  -5   2  -1 406.081 459.310   1
  -5  -2  -1 833.957 677.011   1
  -5  -2  -1 448.207 429.654   2
  -6  -2  -1 1279.49 863.969   1
  -6   2  -1 1045.21 678.291   1
  -6  -2  -1 506.776 445.372   2
  -7  -2  -1 31782.5 4167.60   1
  -7  -2  -1 35649.3 4111.00   2
  -7   2  -1 31829.5 4030.61   1
  -8  -2  -1 38643.2 4952.63   1
  -8   2  -1 39095.1 4878.95   1
  -8  -2  -1 42168.5 4785.55   2
  -9   2  -1 1689.32 1210.25   1
  -9  -2  -1 1519.58 1171.67   1
 -10  -2  -1 60.2284 631.145   1
 -10   2  -1 1248.96 1253.23   1
 -10  -3   1 1136.71 822.035   2
 -10   3   1 620.588 740.127   1
  -9  -3   1 34400.3 4580.22   2
  -9   3   1 26581.4 4061.55   1
  -8  -3   1 650.808 721.540   2
  -7  -3   1 574.216 721.783   2
  -6  -3   1 76286.3 5513.50   1
  -6  -3   1 93968.8 6234.42   2
  -5  -3   1 5269.42 1318.80   2
   4  -3  -1 34727.1 1921.24   2
  -4  -3   1 42663.6 3552.11   2
  -3  -3   1 4834.77 1098.64   2
   3  -3  -1 2773.05 343.693   2
  -2  -3   1 14721.3 1862.77   2
   1  -3  -1 66683.8 2568.62   2
  -1  -3   1 68078.5 4242.34   2
   0   3   1 38253.4 2389.40   2
   0  -3   1 37619.3 2980.55   2
   0  -3  -1 37307.5 1962.69   2
   1  -3   1 344.227 271.352   2
  -1   3  -1 1132.06 989.848   3
  -1  -3  -1 265.820 213.554   2
   1   3   1 318.422 650.538   3
  -2  -3  -1 2432.87 614.025   2
   2   3   1 2178.90 1556.99   3
  -2   3  -1 120.564 71.0254   3
  -3  -3  -1 20021.6 2085.29   2
   3   3   1 27066.3 4567.86   3
  -4  -3  -1 27339.2 2718.34   2
  -4  -3  -1 25595.6 3408.51   1
  -5  -3  -1 14501.9 2642.26   1
  -5  -3  -1 13127.0 2049.05   2
  -6  -3  -1 10546.7 2361.55   1
  -6  -3  -1 8509.42 1908.31   2
  -7  -3  -1 4220.96 1643.42   1
  -7  -3  -1 2900.99 1199.44   2
  -7   3  -1 2142.59 1148.58   1
  -8   3  -1 344.024 672.917   1
  -8  -3  -1 375.573 592.971   1
  -8  -3  -1 414.049 807.732   2
  -9   3  -1 2844.69 1570.01   1
 -10   3  -1 1224.94 1225.48   1
  -9  -4   1 1449.01 1067.87   2
  -8  -4   1 1532.18 883.130   2
  -7  -4   1 2397.97 1222.54   2
  -6  -4   1 19068.2 2840.62   2
  -5  -4   1 5159.52 1401.65   2
  -4  -4   1 38.8945 205.581   2
  -3  -4   1 3073.07 992.338   2
   2  -4  -1 3196.18 330.074   2
  -2  -4   1 4382.49 1079.17   2
  -1  -4   1 284.896 410.953   2
   1  -4  -1 144.370 127.151   2
   1   4  -1-233.410 479.785   3
   0  -4  -1 23778.4 1663.26   2
   0   4   1 23007.7 3892.19   3
   0  -4   1 25435.8 2566.09   2
   0   4  -1 21236.9 3740.26   3
   1  -4   1 2042.64 732.304   2
   1   4   1 1867.57 1241.68   3
  -1   4  -1 621.062 621.276   3
  -1  -4  -1 2550.19 608.692   2
   2  -4   1 11261.4 1706.68   2
   2   4   1 9610.91 3709.38   3
  -2  -4  -1 12094.8 1483.39   2
  -3  -4  -1 8929.54 1441.54   2
   3   4   1 7659.71 2656.79   3
  -4  -4  -1 53828.9 4221.76   2
  -5  -4  -1 22237.5 2838.35   2
  -6  -4  -1 15.4373 368.683   2
  -7  -4  -1 11955.1 2801.36   1
  -7  -4  -1 15132.2 2834.01   2
  -7   4  -1 10633.9 2545.80   1
  -8  -4  -1-331.610 494.830   2
  -8   4  -1 121.371 508.344   1
  -9   4  -1 8222.15 2539.39   1
  -9  -4  -1 7954.18 2358.20   2
  -8  -5   1 4790.08 1725.47   2
  -7  -5   1 4265.36 1580.87   2
  -6  -5   1 2190.12 1077.94   2
  -5  -5   1 212.148 439.849   2
  -4  -5   1 27583.6 3248.13   2
  -3  -5   1 804.218 561.309   2
  -2  -5   1 6597.51 1434.42   2
   1   5  -1 1346.57 1226.33   3
  -1   5   1 212.295 1015.34   3
  -1  -5   1 2078.82 721.761   2
   0  -5   1 2306.22 849.258   2
   0   5   1 42.8143 185.792   3
   0   5  -1 1968.39 1378.80   3
  -1   5  -1 948.446 1281.56   3
   1  -5   1 149.022 286.273   2
   1   5   1-7.54465 1093.48   3
  -1  -5  -1 303.461 329.837   2
  -2  -5  -1 58753.1 3719.00   2
   2  -5   1 56688.2 4156.60   2
   3   5   1 16869.6 4207.27   3
  -3  -5  -1 11210.7 1760.13   2
  -4   5  -1 194.125 397.568   3
  -4  -5  -1 1087.72 680.603   2
  -5  -5  -1 6747.73 1619.39   2
  -5   5  -1-43.1743 211.117   3
  -6  -5  -1 1686.20 1012.25   2
  -6   5  -1-166.677 134.250   3
  -7  -5  -1 2675.57 1220.48   2
  -8  -5  -1 573.350 555.795   2
  -8   5  -1 1217.01 1220.56   1
  -7  -6   1 12828.1 2813.66   2
  -6  -6   1 3670.06 1391.98   2
  -5  -6   1 271.750 482.898   2
  -4  -6   1 35849.6 3982.21   2
  -3   6   1 6512.49 2864.29   3
  -3  -6   1 23767.0 2972.42   2
  -2   6   1 1338.58 1862.36   3
  -2  -6   1 3138.80 1018.73   2
  -1   6   1 375.935 792.063   3
   1   6  -1 635.378 882.063   3
   0   6   1 1202.60 1480.00   3
   0   6  -1 3210.80 1699.35   3
   1   6   1 1126.03 1224.46   3
  -1   6  -1 1709.81 1340.75   3
  -2   6  -1 4820.96 2287.90   3
   2   6   1 7000.22 3232.75   3
  -3   6  -1 1006.91 1248.80   3
   3   6   1 1745.73 1762.39   3
  -4   6  -1 1482.36 1258.06   3
  -5  -6  -1 11345.0 2259.22   2
  -5   6  -1 423.462 993.985   3
  -6  -6  -1 1122.43 909.403   2
  -6   6  -1 350.670 889.399   3
  -7  -6  -1 723.695 628.783   2
  -4   7   1 1305.71 1656.04   3
  -3   7   1 869.766 1283.44   3
  -2   7   1 1414.70 1266.73   3
  -1   7   1 808.066 1286.04   3
   0   7  -1 1726.36 1345.00   3
   0   7   1 1882.99 1579.77   3
  -1   7  -1 3602.95 1958.51   3
   1   7   1 4701.71 2647.89   3
  -2   7  -1 1430.92 1364.54   3
   2   7   1 669.316 1326.22   3
  -3   7  -1 277.310 1120.15   3
  -4   7  -1 155.987 616.294   3
  -5   7  -1 329.657 787.830   3
 -11   0   2 18990.5 3538.12   2
 -10   0   2 26070.7 3687.77   1
 -10   0   2 32008.4 4294.73   2
  -9   0   2-86.2487 175.649   1
  -9   0   2 565.653 780.538   2
  -8   0   2 5417.59 1372.85   1
  -8   0   2 5399.96 1425.46   2
  -7   0   2 21075.4 2581.06   2
  -7   0   2 17018.6 2245.65   1
  -6   0   2 152862. 7675.18   1
  -6   0   2 176344. 8191.94   2
  -5   0   2 5670.46 1093.60   2
  -4   0   2 4621.13 886.775   2
  -3   0   2 6117.50 958.938   2
   2   0  -2 999999. 31540.5   2
  -2   0   2 951251. 31067.2   2
  -1   0   2 449377. 14851.9   2
  -1   0   2 422113. 14587.7   1
   0   0  -2 138619. 6115.18   1
   0   0   2 147339. 6072.05   1
  -1   0  -2 38519.0 2708.34   1
  -2   0  -2 741.076 381.085   1
  -3   0  -2 3402.61 933.988   1
  -4   0  -2 5039.12 1296.18   1
  -5   0  -2 1615.43 340.759   3
  -5   0  -2 3569.58 1221.31   1
  -6   0  -2 3288.13 1342.32   1
  -7   0  -2 22027.2 3571.93   1
  -8   0  -2 44.0740 528.132   1
  -9   0  -2 1482.40 972.335   1
 -10   0  -2 827.933 1036.94   1
 -11   0  -2 23333.6 4826.41   1
 -11   1   2 737.065 696.870   1
 -11  -1   2 193.301 465.715   2
 -10   1   2-257.490 286.623   1
 -10  -1   2 959.696 878.369   2
  -9   1   2 1333.97 731.906   1
  -9   1   2 1473.17 837.888   2
  -9  -1   2 1209.11 858.500   2
  -8  -1   2 1653.07 812.737   2
  -8   1   2 277.205 451.525   1
  -8   1   2 1004.19 727.191   2
  -8  -1   2 596.379 487.183   1
  -7  -1   2 614.465 490.852   1
  -7   1   2 375.605 334.392   2
  -7  -1   2 320.529 402.517   2
  -6  -1   2 1382.69 573.778   1
  -6  -1   2 2209.86 850.493   2
  -6   1   2 1911.28 706.926   2
  -5  -1   2 2389.42 754.063   2
  -5  -1   2 2202.82 566.151   1
  -5   1   2 2346.89 666.237   2
  -4   1   2 1791.93 532.152   2
  -4  -1   2 1905.47 409.044   1
  -4  -1   2 1907.03 645.780   2
  -3  -1   2 892.648 424.411   2
   3  -1  -2 1846.51 520.662   2
  -3  -1   2 1591.35 272.379   1
  -3   1   2 1374.88 377.264   2
  -2  -1   2 524047. 18493.9   2
   2  -1  -2 556993. 17427.5   2
  -2   1   2 528994. 16962.2   2
   1   1  -2 346641. 11560.4   1
  -1  -1   2 362665. 13441.2   2
  -1  -1   2 359221. 11456.3   1
   0  -1   2 22738.8 1549.78   1
   0   1  -2 19337.8 1482.65   1
   1  -1   2 108.650 374.453   3
  -1  -1  -2-230.500 212.875   1
  -1   1  -2-6.01042 107.168   1
  -2  -1  -2 7435.96 1402.00   1
  -2   1  -2 7114.24 1191.21   1
  -2   1  -2 6004.35 851.510   3
  -3   1  -2 42981.0 3288.58   1
  -3  -1  -2 40796.1 3420.13   1
  -4  -1  -2 1159.59 645.040   1
  -4   1  -2 505.794 466.003   1
  -5   1  -2 9380.90 1924.01   1
  -5  -1  -2 8030.38 1872.15   1
  -6   1  -2 39082.5 4457.36   1
  -6  -1  -2 40527.3 4535.16   1
  -7   1  -2 93954.5 7778.19   1
  -7  -1  -2 95253.5 7915.64   1
  -8   1  -2 2107.57 1326.85   1
  -8  -1  -2 465.562 628.574   1
  -9   1  -2 1662.53 1173.00   1
  -9  -1  -2 2616.35 1430.14   1
 -10  -1  -2 1943.29 1331.56   1
 -10   1  -2 891.331 1014.15   1
 -11  -1  -2 4996.62 2269.78   1
 -12   2   2 104.507 504.661   1
 -11   2   2 55.0282 232.989   1
 -11  -2   2-392.944 684.980   2
 -10   2   2 29601.6 4124.77   1
 -10  -2   2 30143.0 4271.57   2
  -9  -2   2 2285.35 1185.30   2
  -8  -2   2 5063.64 1504.88   2
  -7  -2   2 39500.4 3962.00   2
  -7  -2   2 35805.8 3256.83   1
  -6   2   2 7778.40 1337.23   2
  -6  -2   2 9132.70 1763.73   2
  -6  -2   2 7375.62 1256.10   1
  -5  -2   2 1771.68 515.830   1
  -5   2   2 2632.99 666.987   2
  -5  -2   2 3804.13 1075.64   2
  -4   2   2 9146.12 1023.58   2
  -4  -2   2 9007.01 1549.09   2
   4  -2  -2 9268.75 1041.19   2
  -3   2   2 35165.8 1736.97   2
   3  -2  -2 37458.8 2025.07   2
  -3  -2   2 36809.4 3124.09   2
  -2  -2   2 35449.0 3014.25   2
  -1   2   2 4839.29 402.916   2
  -1  -2   2 4425.32 971.326   2
   0   2   2 233.585 129.733   2
   0  -2   2-110.164 148.089   2
  -1   2  -2-53.9396 117.291   3
  -2   2  -2 107615. 5610.84   1
  -2  -2  -2 114723. 7015.64   1
  -3   2  -2 72250.5 4448.12   1
  -3  -2  -2 72398.6 5253.07   1
  -4   2  -2 529.860 554.849   1
  -4  -2  -2 826.101 701.012   1
  -4   2  -2 56.5280 317.018   3
  -5   2  -2 410.325 487.680   1
  -5  -2  -2 328.495 568.343   1
  -6   2  -2 11272.9 2354.68   1
  -6  -2  -2 13270.7 2671.67   1
  -7   2  -2 3670.27 1572.21   1
  -7  -2  -2 2600.44 1250.50   1
  -8  -2  -2 10697.8 2812.60   1
  -8   2  -2 12639.5 2932.03   1
  -9   2  -2 1307.37 1205.03   1
  -9  -2  -2 925.230 981.578   1
 -10  -2  -2 1637.33 1375.52   1
 -10   2  -2 111.155 681.493   1
 -11   3   2 2655.59 1349.48   1
 -10  -3   2 23959.5 3967.00   2
 -10   3   2 17656.1 3362.39   1
  -9  -3   2 10757.6 2444.67   2
  -8  -3   2 1750.22 959.450   2
  -7  -3   2 46181.4 4571.84   2
  -6  -3   2 48754.1 4481.45   2
  -5  -3   2 7493.54 1577.17   2
   4  -3  -2 390.700 191.092   2
  -4  -3   2 1047.62 565.304   2
   4   3  -2 913.338 327.606   1
  -3  -3   2 11338.7 1824.27   2
   3   3  -2 13573.2 1611.54   1
  -2  -3   2 2598.05 817.227   2
  -1  -3   2 59879.8 4375.57   2
   0  -3   2 839.053 543.340   2
   0   3  -2 1711.16 1062.08   3
   0   3   2 832.522 306.776   2
  -1   3  -2 1692.15 1139.15   3
   1  -3   2 1792.00 708.663   2
  -2   3  -2 336.619 801.789   3
  -2  -3  -2 215.087 253.203   2
   2   3   2-142.595 744.900   3
   3   3   2 7982.34 2795.74   3
  -3  -3  -2 8050.08 1335.10   2
  -4   3  -2 1584.15 833.954   1
  -4   3  -2 52.8026 619.558   3
  -4  -3  -2 668.219 419.533   2
  -4  -3  -2 868.863 725.471   1
  -5  -3  -2 32.2922 327.355   1
  -5  -3  -2 162.585 383.088   2
  -5   3  -2-678.403 524.239   3
  -5   3  -2 822.083 679.172   1
  -6   3  -2 4561.13 1477.50   1
  -6  -3  -2 7374.91 2148.57   1
  -7   3  -2 1695.15 1163.78   1
  -7  -3  -2 389.183 705.300   1
  -8   3  -2 1144.48 1060.14   1
  -8  -3  -2 2080.71 1439.83   1
  -9  -3  -2-62.1819 426.670   1
  -9   3  -2-55.3208 157.122   1
  -9  -4   2 951.655 859.473   2
  -8  -4   2 1542.35 910.170   2
  -7  -4   2 9369.66 2168.07   2
  -6  -4   2 2037.40 963.715   2
  -5  -4   2 14423.8 2392.56   2
  -4  -4   2-310.628 259.550   2
  -3  -4   2 878.466 583.416   2
  -2  -4   2 39.4028 102.177   2
  -1  -4   2 17440.5 2372.36   2
   0   4  -2 5118.45 1769.55   3
   0  -4   2 9659.09 1731.81   2
  -1   4  -2 15576.1 2953.70   3
  -1  -4  -2 23839.1 1947.22   2
   1  -4   2 26797.3 2847.39   2
   1   4   2 24480.6 4782.54   3
  -2  -4  -2 18219.8 1926.45   2
   2   4   2 10709.7 5347.76   3
  -2   4  -2 11736.9 2586.95   3
   2  -4   2 13253.5 2013.04   2
   3   4   2 31911.6 6845.17   3
  -3  -4  -2 27917.8 2700.53   2
  -4   4  -2 957.277 1757.97   3
  -4  -4  -2 41447.5 3553.93   2
  -5   4  -2 781.887 673.032   3
  -5  -4  -2 3505.06 1163.25   2
  -6  -4  -2 9324.78 2026.07   2
  -6   4  -2 8839.41 2235.88   1
  -7   4  -2 962.332 830.013   1
  -7  -4  -2 1209.41 1137.21   1
  -8   4  -2 765.373 888.085   1
  -8  -5   2 2069.40 1096.72   2
  -7  -5   2 10251.7 2359.21   2
  -6  -5   2 713.516 696.330   2
  -5  -5   2 2741.58 1127.87   2
  -4  -5   2 1779.30 863.510   2
  -3  -5   2 2419.58 974.583   2
  -2  -5   2 1071.59 636.802   2
  -1  -5   2 1678.22 789.624   2
   0   5  -2-39.7881 126.686   3
   0  -5   2 681.905 596.225   2
   0   5   2 219.088 254.753   3
   1   5   2 28514.5 5246.63   3
  -1   5  -2 17729.8 3542.90   3
   1  -5   2 27604.6 3142.82   2
  -2  -5  -2 41786.2 3166.40   2
  -2   5  -2 22973.0 4139.42   3
   2  -5   2 43244.2 3952.58   2
   2   5   2 10238.3 4516.34   3
   3  -5   2 18112.1 2568.35   2
  -3   5  -2 6582.77 2423.20   3
  -3  -5  -2 19796.7 2390.04   2
   3   5   2 8804.01 3764.78   3
  -4  -5  -2 15682.3 2333.66   2
  -4   5  -2 5606.68 2456.97   3
  -5   5  -2-34.0496 298.622   3
  -5  -5  -2 36.5674 280.197   2
  -6   5  -2 205.322 995.916   3
  -6   5  -2 3462.26 1460.10   1
  -7   5  -2 400.118 570.545   1
  -7  -6   2 5579.45 1814.28   2
  -6  -6   2 648.045 999.552   2
  -5  -6   2 37522.5 4411.23   2
  -4  -6   2 6879.65 1776.75   2
  -3  -6   2 13798.8 2430.66   2
  -2  -6   2 226.247 416.474   2
  -1  -6   2 555.264 547.516   2
  -1   6   2-343.786 563.566   3
   0   6  -2 1497.57 1292.55   3
   0   6   2 2007.93 1416.71   3
   1   6   2 471.306 1073.46   3
  -1   6  -2 2248.72 1679.02   3
   2   6   2 292.391 686.982   3
  -2   6  -2 923.276 877.301   3
   3   6   2 755.814 1151.44   3
  -3   6  -2 826.458 1127.71   3
  -4   6  -2-231.243 288.136   3
  -5   6  -2 376.238 916.146   3
  -6   6  -2 427.005 578.627   1
  -3   7   2 990.046 1114.21   3
  -2   7   2 196.150 1236.16   3
  -1   7   2 2664.15 2001.52   3
   0   7   2-197.971 855.541   3
   1   7   2 222.767 694.657   3
  -1   7  -2 2321.99 1544.39   3
  -2   7  -2 728.198 803.581   3
   2   7   2-23.8825 1043.14   3
  -3   7  -2 1204.42 1361.54   3
   3   7   2 825.346 1190.82   3
  -4   7  -2-63.1951 667.712   3
  -5   7  -2 58.1501 766.779   3
 -12   0   3 104.633 521.126   2
 -11   0   3-97.6125 391.859   2
 -10   0   3 329.917 570.529   2
  -9   0   3 102.903 135.988   1
  -9   0   3 85.9001 39.0735   2
  -8   0   3 361.051 519.024   2
  -8   0   3 138.875 280.869   1
  -7   0   3 353.520 404.337   2
  -6   0   3 74.1225 31.6651   2
  -5   0   3 6.59539 175.381   2
  -4   0   3 143.466 313.096   2
  -3   0   3 181.812 292.461   2
  -2   0   3-40.7442 236.523   2
  -2   0   3 190.142 293.684   1
  -1   0   3 172.418 206.788   1
   1   0  -3 313.944 535.535   1
   0   0  -3 69.5996 91.0192   1
  -1   0  -3 229.021 181.944   1
  -2   0  -3 184.297 294.400   1
  -3   0  -3 47.2044 308.812   1
  -4   0  -3-45.5022 421.172   1
  -5   0  -3-2.48259 323.086   1
  -6   0  -3 292.173 572.917   1
  -7   0  -3 265.690 760.714   1
  -8   0  -3 7.24048 511.034   1
  -9   0  -3 769.555 1030.14   1
 -10   0  -3 405.014 806.019   1
 -11   1   3 5112.89 1737.95   2
 -11  -1   3 4808.60 1797.64   2
 -10   1   3 598.070 667.086   1
 -10   1   3 776.685 848.613   2
 -10  -1   3 511.579 622.076   2
  -9   1   3 404.652 470.996   2
  -9  -1   3 164.363 428.750   2
  -9   1   3 443.329 534.249   1
  -8   1   3 1419.87 791.081   2
  -8  -1   3 2167.77 986.597   2
  -7   1   3 8796.64 1552.38   2
  -7  -1   3 6932.49 1522.34   2
  -7  -1   3 7253.93 1281.53   1
  -6  -1   3 5851.18 968.713   1
  -6   1   3 4854.36 1053.38   2
  -6  -1   3 6543.79 1423.29   2
  -5  -1   3 7677.55 951.260   1
  -5   1   3 5608.77 1028.19   2
  -5  -1   3 5078.68 1179.70   2
  -4  -1   3 18337.6 2150.86   2
  -4   1   3 13714.7 1541.60   2
  -3   1   3 23962.5 1905.81   2
  -3  -1   3 22474.2 2433.05   2
  -3  -1   3 21662.2 1370.23   1
  -2  -1   3 202110. 9271.34   2
  -2   1   3 209050. 8311.50   2
  -2  -1   3 206086. 7218.12   1
   1   1  -3 3510.10 675.939   1
  -1  -1   3 3798.97 645.887   1
  -1  -1   3 3448.61 938.073   2
   0   1  -3 2213.74 604.004   1
   0  -1  -3 2467.65 853.109   1
  -1   1  -3 35475.6 2827.94   1
  -1  -1  -3 38633.2 3635.32   1
  -2   1  -3 91452.2 5415.80   1
  -2  -1  -3 90538.9 6025.91   1
   3   1   3 208.515 567.068   3
  -3  -1  -3 142.750 343.077   1
  -3   1  -3 482.310 399.314   1
  -4  -1  -3 1326.95 834.975   1
  -4   1  -3 269.621 420.255   1
  -5  -1  -3 5212.95 1554.80   1
  -5   1  -3 7467.02 1839.37   1
  -6   1  -3 43663.8 5039.58   1
  -6  -1  -3 47477.6 5303.64   1
  -7  -1  -3 1756.47 1125.77   1
  -7   1  -3 1904.23 1222.49   1
  -8  -1  -3 742.168 633.870   1
  -8   1  -3-202.911 358.947   1
  -9  -1  -3 1959.66 1212.84   1
  -9   1  -3 1145.74 1277.31   1
 -10  -1  -3 4642.29 2205.99   1
 -10   1  -3 7208.32 2777.87   1
 -11  -2   3 2837.42 1335.84   2
 -11   2   3 4174.37 1572.17   1
 -10   2   3 1139.59 852.206   1
 -10  -2   3 708.927 905.520   2
  -9  -2   3 34.8449 467.936   2
  -8   2   3 19836.9 2630.87   2
  -8  -2   3 20401.2 3049.66   2
  -7  -2   3 35725.1 3830.48   2
  -7   2   3 38070.0 3369.52   2
  -6   2   3 885.205 502.524   2
  -6  -2   3 330.375 488.715   2
  -5   2   3 855.003 396.302   2
  -5  -2   3 659.334 245.045   2
  -4  -2   3 1345.66 622.537   2
  -4   2   3 1993.77 484.346   2
   4  -2  -3 2023.27 610.159   2
  -3   2   3 132546. 5018.31   2
  -3  -2   3 129766. 7244.87   2
  -2   2   3 77572.8 3448.88   2
  -2  -2   3 77487.5 5188.74   2
   2   2  -3 73048.5 3050.90   1
  -1  -2   3 4880.46 1211.08   2
   1   2  -3 4711.95 699.599   1
   0   2  -3 4511.31 827.198   1
  -1   2  -3 24665.3 2272.19   1
  -2  -2  -3 9476.82 2036.16   1
  -2   2  -3 9281.61 1508.65   1
  -3   2  -3 19659.9 2569.02   1
  -3  -2  -3 19661.2 3052.05   1
  -4  -2  -3 2130.96 1031.58   1
  -4   2  -3 4480.89 1305.08   1
  -4   2  -3 1589.68 698.932   3
  -5   2  -3 391.434 313.249   3
  -5   2  -3 643.740 701.140   1
  -5  -2  -3 1494.79 1043.30   1
  -6   2  -3 28592.5 4081.45   1
  -6  -2  -3 26072.7 4099.86   1
  -7   2  -3 3017.62 1555.53   1
  -7  -2  -3 2779.65 1498.35   1
  -8   2  -3 598.755 1050.31   1
  -8  -2  -3 710.875 917.160   1
  -9   2  -3 2426.27 1488.29   1
  -9  -2  -3 2295.34 1518.76   1
 -10  -2  -3 3378.25 1955.53   1
 -11   3   3 14396.5 3152.49   1
 -10  -3   3 18685.7 3388.03   2
  -9  -3   3 2146.76 1142.90   2
  -8  -3   3 26511.9 3674.26   2
  -7  -3   3 8598.69 2013.88   2
  -6  -3   3 18037.4 2721.58   2
  -5  -3   3 1587.03 710.113   2
  -4  -3   3 82.1263 318.847   2
  -3  -3   3 17521.1 2499.26   2
  -2  -3   3 2952.89 953.196   2
   2   3  -3 3192.84 504.035   1
  -1   3   3 11984.7 905.579   2
   1   3  -3 8637.96 1076.38   1
  -1  -3   3 9413.70 1734.91   2
   0  -3   3 3919.63 1147.63   2
   0   3  -3 3214.54 763.341   1
  -1   3  -3 3461.21 885.010   1
  -2   3  -3 1124.63 527.034   1
  -3   3  -3 1876.07 873.346   1
  -3  -3  -3 1207.93 775.086   1
   3   3   3 38.9817 866.577   3
  -3   3  -3 297.604 452.853   3
  -4   3  -3 997.210 674.844   1
   4   3   3 1093.93 1706.92   3
  -4   3  -3 13.8879 51.5138   3
  -4  -3  -3 1126.41 922.126   1
  -5  -3  -3 4694.81 1720.18   1
  -5   3  -3 696.742 832.499   3
  -5   3  -3 4968.10 1555.22   1
  -6   3  -3 6063.74 1828.20   1
  -6  -3  -3 4417.71 1601.57   1
  -7   3  -3 2868.05 1431.95   1
  -7  -3  -3 1041.52 933.075   1
  -8   3  -3 1419.78 1104.69   1
  -8  -3  -3 1924.38 1294.32   1
  -9   3  -3 5822.53 2370.97   1
  -9  -3  -3 4016.57 1919.91   1
  -9  -4   3 591.137 753.847   2
  -8  -4   3 1602.15 943.186   2
  -7  -4   3 1232.26 926.437   2
  -6  -4   3 13469.1 2486.71   2
  -5  -4   3 4054.25 1362.16   2
  -4  -4   3 3575.34 1188.74   2
  -3  -4   3 221.577 382.338   2
  -2  -4   3 27441.7 3269.86   2
  -1  -4   3 603.133 535.940   2
   0  -4   3 7067.47 1585.06   2
   1  -4   3 60652.1 4929.06   2
  -2   4  -3 2744.65 1177.44   3
   2   4   3 12218.8 4499.59   3
   2  -4   3 7848.55 1641.82   2
  -3   4  -3 15804.9 3058.45   3
   3   4   3 10804.0 4795.91   3
   4   4   3 545.636 2039.12   3
  -4   4  -3 17.5799 712.791   3
  -4   4  -3 926.513 662.896   1
  -5   4  -3 5097.33 1607.35   1
  -5   4  -3 684.539 1074.84   3
  -6   4  -3 4968.94 1731.68   1
  -6  -4  -3 3027.12 1596.23   1
  -7   4  -3 4333.39 1828.85   1
  -7  -4  -3 4413.23 1892.24   1
  -8   4  -3 209.082 300.642   1
  -8  -4  -3-440.880 633.595   1
  -8  -5   3 7612.16 2144.24   2
  -7  -5   3 1040.21 863.100   2
  -6  -5   3 104.614 449.723   2
  -5  -5   3 526.593 575.298   2
  -4  -5   3 10294.6 2134.46   2
  -3  -5   3 388.301 659.918   2
  -2  -5   3 1061.70 546.286   2
  -1  -5   3 2301.23 984.548   2
   0  -5   3 20617.3 2918.35   2
   1   5   3 12454.8 3659.75   3
   1  -5   3 12174.4 2230.28   2
  -2   5  -3 4168.54 1580.78   3
   2   5   3 5173.71 2764.26   3
   2  -5   3 4510.06 1468.72   2
  -3   5  -3 13249.1 2961.99   3
   3   5   3 2676.96 1969.76   3
   4   5   3 2076.23 1686.75   3
  -4   5  -3 466.961 1084.90   3
  -4   5  -3 1134.71 767.598   1
  -5   5  -3 400.694 811.030   3
  -5   5  -3 3287.03 1396.44   1
  -6   5  -3 360.143 620.522   1
  -7   5  -3 5526.43 2013.26   1
  -7  -6   3 69.0696 370.254   2
  -6  -6   3 16397.0 3122.12   2
  -5  -6   3 14435.9 2772.17   2
  -4  -6   3 340.731 514.981   2
  -3  -6   3 1500.93 830.620   2
  -2  -6   3 1106.93 833.775   2
  -1  -6   3 415.570 513.805   2
   0  -6   3 2947.09 1146.77   2
   0   6   3 2801.38 1699.18   3
   1   6   3 117.844 787.948   3
   2   6   3 1420.25 1806.57   3
   3   6   3-885.709 1057.02   3
  -3   6  -3 982.033 1082.20   3
  -4   6  -3-274.399 295.102   3
  -4   6  -3 690.364 623.324   1
  -5   6  -3 1626.46 1047.43   1
  -6   6  -3-281.686 578.141   1
  -6  -7   3 5562.69 1923.66   2
  -5  -7   3 39623.8 4902.75   2
  -2   7   3-17.2697 131.407   3
  -1   7   3 7203.70 2814.27   3
   0   7   3 10383.1 3558.00   3
   1   7   3 548.016 1016.11   3
   2   7   3-659.005 864.242   3
   3   7   3-76.0686 686.743   3
  -4   7  -3 2028.42 1600.21   3
  -4   7  -3 12220.5 2821.95   1
 -12   0   4 13652.5 3036.36   2
 -11   0   4 787.958 776.190   2
 -10   0   4-119.756 570.415   2
  -9   0   4 1816.49 957.261   2
  -8   0   4 22665.7 2884.49   2
  -7   0   4 16050.5 2264.14   2
  -6   0   4 3423.96 944.913   2
  -5   0   4 87.2858 83.3457   2
  -4   0   4 4314.42 1055.03   2
  -3   0   4 3913.15 1059.98   2
  -2   0   4 10296.7 1798.57   2
   1   0  -4 10644.5 1882.55   1
   0   0  -4 1104.18 487.558   1
  -1   0  -4 20870.2 2563.56   1
  -2   0  -4 6834.99 1529.36   1
  -3   0  -4 7523.69 1709.63   1
  -4   0  -4 1936.95 876.239   1
  -5   0  -4 211793. 12316.3   1
  -6   0  -4 22786.8 3779.94   1
  -7   0  -4 3395.27 1669.75   1
  -8   0  -4 4065.15 1871.78   1
  -9   0  -4 15229.9 3925.91   1
 -11  -1   4 2993.95 1321.78   2
 -10   1   4 3017.42 1222.13   2
 -10  -1   4 2972.33 1270.02   2
  -9   1   4 2273.30 984.941   2
  -9  -1   4 2198.32 994.522   2
  -8   1   4 50441.5 4267.12   2
  -8  -1   4 50435.2 4724.28   2
  -7   1   4 5594.96 1239.01   2
  -7  -1   4 5626.55 1414.25   2
  -6   1   4 1282.42 596.035   2
  -6  -1   4 943.453 328.547   1
  -6  -1   4 1210.21 738.369   2
  -5  -1   4 2258.54 849.987   2
  -5   1   4 1764.85 627.265   2
  -4   1   4 128326. 6196.86   2
  -4  -1   4 127135. 7225.93   2
  -4  -1   4 123080. 5301.72   1
  -3   1   4 266182. 10939.3   2
  -3  -1   4 260407. 11995.7   2
  -3  -1   4 269796. 9626.73   1
  -2  -1   4 3239.35 988.099   2
  -2   1   4 4057.52 946.443   2
   2   1  -4 4906.07 1099.58   1
  -2  -1   4 3899.92 728.179   1
   1   1  -4 4853.48 1059.30   1
   0   1  -4 55446.9 3871.91   1
   0  -1  -4 60591.2 5158.77   1
  -1   1  -4 14568.9 1985.86   1
  -1  -1  -4 18292.9 2680.64   1
   2  -1   4 943.423 823.338   3
  -2   1  -4 1088.17 707.069   1
  -2  -1  -4 1461.15 768.007   1
   3   1   4 127.373 1456.47   3
  -3  -1  -4 1348.86 735.430   1
  -3   1  -4 1603.88 828.614   1
  -4  -1  -4 4989.39 1693.22   1
  -4   1  -4 4338.88 1398.00   1
  -5   1  -4 38840.6 4611.16   1
  -5  -1  -4 38141.0 4736.16   1
  -6  -1  -4 3882.05 1657.30   1
  -6   1  -4 3383.87 1511.83   1
  -7  -1  -4 4280.83 1853.90   1
  -7   1  -4 1588.11 1107.09   1
  -8  -1  -4 3219.92 1766.87   1
  -8   1  -4 1285.87 1214.92   1
  -9  -1  -4 725.631 796.936   1
  -9   1  -4 2101.55 1404.07   1
 -11  -2   4 1665.71 1045.65   2
 -10  -2   4 1781.86 1063.99   2
  -9  -2   4 22770.8 3392.88   2
  -8  -2   4 28281.9 3676.08   2
  -7   2   4 509.114 449.185   2
  -7  -2   4 597.081 617.626   2
  -6   2   4 1291.18 466.160   2
  -6  -2   4 1063.32 647.294   2
  -5  -2   4 5470.26 1368.76   2
  -5   2   4 4837.09 882.240   2
  -4   2   4 2334.87 566.756   2
  -4  -2   4 2966.76 1028.49   2
  -3   2   4 99359.6 4740.44   2
  -3  -2   4 103961. 6734.52   2
  -2  -2   4 4212.98 1233.10   2
  -2   2   4 4409.10 976.042   2
   2   2  -4 4682.85 827.901   1
  -1  -2   4 2359.89 973.284   2
   1   2  -4 3132.08 711.174   1
   0   2  -4 2558.78 723.871   1
  -1   2  -4 74514.3 4864.85   1
  -1  -2  -4 72620.9 6382.97   1
  -2  -2  -4 5802.83 1743.70   1
  -2   2  -4 5974.48 1345.00   1
  -3   2  -4 1638.32 812.838   1
   3   2   4 501.657 2489.41   3
  -3  -2  -4 2402.77 1160.01   1
  -4  -2  -4 2869.19 1363.20   1
   4   2   4 415.520 885.962   3
  -4   2  -4 2544.41 1054.43   1
  -5   2  -4 3325.01 1369.84   1
  -5  -2  -4 2848.09 1380.63   1
  -6   2  -4 10144.2 2514.64   1
  -6  -2  -4 10987.4 2960.09   1
  -7   2  -4-47.0144 621.808   1
  -7  -2  -4 573.523 453.083   1
  -8   2  -4 1154.10 1110.53   1
  -8  -2  -4 2779.45 1814.28   1
  -9   2  -4 6318.13 2495.22   1
  -9  -2  -4 4037.03 2090.61   1
 -10  -3   4 65.1832 386.594   2
  -9  -3   4 4866.91 1647.51   2
  -8  -3   4 8448.48 2049.68   2
  -7  -3   4 1424.34 801.591   2
  -6  -3   4 28.1713 530.850   2
  -5  -3   4 1161.40 768.299   2
  -4  -3   4 392.851 442.186   2
  -3  -3   4 1157.82 773.993   2
  -3   3   4 299.310 114.082   2
  -2  -3   4 333.892 409.067   2
  -2   3   4 297.710 227.290   2
   2   3  -4 320.259 229.707   1
  -2   3   4 258.333 140.277   2
   1   3  -4-57.7662 124.688   1
  -1  -3   4 92.2561 325.372   2
   0  -3   4 23238.9 2984.47   2
   0   3  -4 21382.4 2183.63   1
  -1   3  -4 13997.6 1942.63   1
  -2   3  -4 2650.53 952.972   1
  -3   3  -4 574.722 560.705   1
   3   3   4 132.559 2019.01   3
  -3  -3  -4 420.207 608.277   1
  -4   3  -4 11619.4 2316.42   1
  -4  -3  -4 8977.04 2445.62   1
  -5  -3  -4 3456.36 1654.39   1
  -5   3  -4 4435.10 1539.03   1
  -6   3  -4 6123.68 1990.80   1
  -6  -3  -4 5938.94 2166.70   1
  -7   3  -4 984.313 880.092   1
  -7  -3  -4 1045.40 1072.92   1
  -8   3  -4 1850.38 1362.78   1
  -8  -3  -4 296.260 506.213   1
  -9  -3  -4 8845.99 3198.30   1
  -9  -4   4 4755.05 1682.97   2
  -8  -4   4 3901.18 1499.18   2
  -7  -4   4 10354.4 2353.95   2
  -6  -4   4 2408.77 1057.77   2
  -5  -4   4 504.028 338.806   2
  -4  -4   4 2642.75 1147.01   2
  -3  -4   4 9419.34 2026.83   2
  -2  -4   4 20949.5 3020.68   2
  -1  -4   4 10278.8 2066.41   2
   1   4  -4 13040.0 1555.15   1
   0   4  -4 52500.7 3752.07   1
   0  -4   4 50765.4 4799.64   2
  -1   4  -4 4779.89 1163.71   1
   1  -4   4 4536.04 1355.66   2
   2   4   4 4812.57 3003.90   3
  -2   4  -4 8566.46 1731.30   1
  -3   4  -4 1315.01 813.226   1
   3   4   4 72.7080 1406.56   3
  -4   4  -4 6624.92 1845.04   1
   4   4   4 944.894 2287.01   3
  -5   4  -4 472.852 739.919   1
  -6   4  -4 815.720 958.463   1
  -6  -4  -4-29.2724 394.532   1
  -7   4  -4 47.4014 190.517   1
  -7  -4  -4 299.245 1010.30   1
  -8  -4  -4 849.046 1125.92   1
  -8  -5   4 866.506 962.857   2
  -7  -5   4 4832.79 1656.86   2
  -6  -5   4 514.391 634.634   2
  -5  -5   4 5652.63 1708.55   2
  -4  -5   4 6636.69 1804.54   2
  -3  -5   4 5168.16 1554.58   2
  -2  -5   4 4650.33 1466.74   2
  -1  -5   4 742.799 803.518   2
   0   5  -4 17710.2 2213.88   1
   0  -5   4 17285.0 2824.30   2
   1  -5   4 3412.37 1204.12   2
  -1   5  -4 4571.37 1169.47   1
   2   5   4 32989.5 7461.38   3
  -2   5  -4 38261.4 3984.88   1
   2  -5   4 41432.9 4465.10   2
  -3   5  -4 773.349 685.853   1
   3  -5   4 446.147 481.829   2
  -4   5  -4 257.862 349.834   1
   4   5   4-178.643 513.370   3
  -5   5  -4 1201.32 839.940   1
  -6   5  -4 1923.20 1055.71   1
  -7  -6   4 2956.20 1394.53   2
  -6  -6   4 8528.09 2219.39   2
  -5  -6   4-62.2627 570.891   2
  -4  -6   4 114.650 340.401   2
  -3  -6   4 608.292 639.878   2
  -2  -6   4 1194.69 855.788   2
  -1  -6   4 3528.58 1332.73   2
   0  -6   4 3900.07 1441.60   2
   0   6   4 2720.30 1653.64   3
   1  -6   4 1144.32 939.076   2
   1   6   4 742.020 1481.66   3
   2   6   4 12909.1 4062.67   3
  -3   6  -4 151.457 195.002   1
   3   6   4-437.526 406.007   3
  -4   6  -4 3018.20 1313.99   1
  -5   6  -4 603.346 829.412   1
  -5  -7   4 16317.2 3221.08   2
  -4  -7   4 1531.65 926.665   2
  -1   7   4 1464.37 1334.21   3
   0   7   4 2886.65 1897.02   3
   1   7   4 407.526 649.387   3
   2   7   4-207.757 826.543   3
   3   7   4-2000.70 1580.89   3
 -12   0   5 28.6812 399.165   2
 -11   0   5-262.831 542.579   2
 -10   0   5 114.450 544.133   2
  -9   0   5 377.482 495.610   2
  -8   0   5 73.2447 177.504   2
  -7   0   5-139.668 460.426   2
  -6   0   5 41.9660 263.021   2
  -5   0   5 621.225 512.891   2
  -4   0   5-170.109 343.856   2
  -3   0   5 239.198 382.428   2
  -2   0   5 355.091 605.867   2
   1   0  -5-17.0264 455.388   1
   0   0  -5 598.868 550.214   1
  -1   0  -5-83.0425 446.062   1
  -2   0  -5 57.9977 451.194   1
  -3   0  -5-91.7660 276.952   1
  -4   0  -5-91.8225 485.402   1
  -5   0  -5 993.516 829.850   1
  -6   0  -5 943.277 1021.82   1
  -7   0  -5 242.597 665.657   1
  -8   0  -5 249.462 540.066   1
 -11  -1   5 154.178 413.341   2
 -10  -1   5 2524.43 1111.24   2
  -9   1   5 4164.53 1272.89   2
  -9  -1   5 4637.33 1465.99   2
  -8   1   5 5074.08 1277.59   2
  -8  -1   5 4909.64 1447.49   2
  -7   1   5 109.909 273.122   2
  -7  -1   5 370.587 384.889   2
  -6  -1   5 777.098 581.891   2
  -6   1   5 420.892 508.908   2
  -5  -1   5 8261.78 1725.66   2
  -5   1   5 8000.59 1471.71   2
  -4   1   5 9629.76 1645.78   2
  -4  -1   5 9651.81 1962.57   2
  -4  -1   5 10554.3 1311.88   1
  -3  -1   5 3187.17 1165.50   2
  -3   1   5 2684.06 971.443   2
   2   1  -5 623.951 511.276   1
  -2  -1   5 812.113 605.392   2
  -2   1   5 1243.83 786.554   2
   1   1  -5 2284.35 843.044   1
   0   1  -5 44432.5 3914.82   1
   0  -1  -5 45727.2 4854.88   1
  -1   1  -5 202.678 321.504   1
  -1  -1  -5 479.262 523.214   1
  -2  -1  -5-27.0414 434.577   1
  -2   1  -5 102.077 307.068   1
  -3  -1  -5 2461.84 1151.40   1
  -3   1  -5 1804.36 828.504   1
  -4   1  -5 44860.1 4965.05   1
  -4  -1  -5 50048.4 5539.57   1
  -5  -1  -5 8966.59 2463.53   1
  -5   1  -5 10409.6 2515.45   1
  -6  -1  -5 2973.16 1623.01   1
  -6   1  -5 3316.62 1418.06   1
  -7  -1  -5 3599.08 1853.98   1
  -7   1  -5 4319.35 1981.76   1
  -8  -1  -5 4005.64 2087.06   1
  -8   1  -5 4392.53 2152.09   1
 -10  -2   5 3236.57 1439.05   2
  -9  -2   5 47530.3 5095.46   2
  -8  -2   5 6013.25 1697.77   2
  -7  -2   5 3032.22 1150.77   2
  -6  -2   5 5278.01 1452.96   2
  -6   2   5 3825.57 890.178   2
  -5   2   5 18165.6 1864.65   2
  -5  -2   5 15910.9 2607.70   2
  -4   2   5 115617. 5852.27   2
  -4  -2   5 124789. 8060.32   2
  -3  -2   5 5874.99 1625.88   2
  -3   2   5 7350.11 1337.58   2
   2   2  -5 1067.54 531.941   1
  -2  -2   5 921.559 654.108   2
  -2   2   5 562.388 505.362   2
   1   2  -5 469.762 310.163   1
  -1  -2   5 888.749 795.494   2
   0   2  -5 5857.26 1257.50   1
  -1   2  -5 12089.9 1967.97   1
  -1  -2  -5 13355.9 2805.68   1
  -2  -2  -5 51.4528 268.277   1
  -2   2  -5 380.973 397.528   1
  -3   2  -5 3331.54 1201.20   1
  -3  -2  -5 2563.20 1389.56   1
  -4  -2  -5 344.563 726.612   1
  -4   2  -5 323.778 478.812   1
  -5  -2  -5 3259.28 1587.80   1
  -5   2  -5 4994.92 1644.66   1
  -6  -2  -5 1217.69 1214.84   1
  -6   2  -5 333.474 463.748   1
  -7   2  -5 1103.14 1103.66   1
  -7  -2  -5 1423.21 1432.96   1
  -8   2  -5 505.251 452.037   1
  -8  -2  -5 2248.84 1857.74   1
 -10  -3   5 9.23553 285.924   2
  -9  -3   5 2401.02 1244.51   2
  -8  -3   5 1709.54 983.082   2
  -7  -3   5 1413.30 854.451   2
  -6  -3   5 418.875 692.121   2
  -5  -3   5 2580.54 1170.53   2
  -4  -3   5 16707.2 2794.88   2
  -3  -3   5 930.828 778.350   2
   2   3  -5 364.014 353.823   1
  -2  -3   5 888.657 751.247   2
  -2   3   5 255.229 295.690   2
  -1  -3   5 49996.6 4947.45   2
   1   3  -5 50848.4 3619.35   1
   0  -3   5-60.0164 293.009   2
   0   3  -5 472.342 386.728   1
  -1   3  -5 14684.7 2164.52   1
  -2   3  -5 420.931 283.216   1
   3   3   5 72.3166 1153.69   3
  -3   3  -5 2108.42 1005.32   1
  -3  -3  -5 2025.49 1346.17   1
  -4   3  -5 13725.5 2682.36   1
  -4  -3  -5 15350.1 3359.55   1
  -5  -3  -5 6322.11 2247.48   1
  -5   3  -5 5444.96 1908.60   1
  -6  -3  -5 631.263 1128.41   1
  -6   3  -5 813.370 980.278   1
  -7   3  -5 2662.31 1510.93   1
  -7  -3  -5 2047.68 1429.00   1
  -8  -3  -5 9780.16 3361.95   1
  -9  -4   5 4148.94 1678.46   2
  -8  -4   5 7461.02 2058.03   2
  -7  -4   5 2888.40 1336.15   2
  -6  -4   5 6408.53 1872.38   2
  -5  -4   5 4429.54 1516.50   2
  -4  -4   5 6962.80 1893.64   2
  -3  -4   5 5384.21 1711.15   2
  -2  -4   5 2329.04 1110.07   2
  -1  -4   5 36580.1 4231.61   2
   0   4  -5 6234.15 1312.36   1
   0  -4   5 4419.04 1474.97   2
   1  -4   5 6917.51 1797.24   2
  -1   4  -5 8513.62 1677.53   1
  -2   4  -5 610.395 493.053   1
  -3   4  -5 602.712 667.383   1
   3   4   5 463.180 2067.55   3
  -4   4  -5 2265.19 1249.12   1
  -5   4  -5 3247.31 1582.00   1
  -6   4  -5 493.774 880.398   1
  -6  -4  -5 924.948 1145.01   1
  -7  -4  -5 966.764 1308.56   1
  -7   4  -5-119.270 558.731   1
  -7  -5   5 4192.79 1617.79   2
  -6  -5   5 2974.49 1372.63   2
  -5  -5   5 1790.41 1009.79   2
  -4  -5   5 2862.40 1313.15   2
  -3  -5   5 5879.68 1848.63   2
  -2  -5   5-59.8128 253.334   2
  -1  -5   5 1307.25 960.376   2
   0  -5   5 772.905 639.648   2
   1  -5   5 25293.9 3673.69   2
  -2   5  -5 8351.94 1900.70   1
   2   5   5 7905.59 3250.64   3
   2  -5   5 8320.34 2033.28   2
  -3   5  -5 3645.24 1368.21   1
   3   5   5 1829.81 2895.21   3
   3  -5   5 3681.87 1351.40   2
  -4   5  -5 315.971 633.666   1
  -5   5  -5 292.045 891.073   1
  -6   5  -5 834.009 1014.18   1
  -6  -6   5 6889.54 2102.83   2
  -5  -6   5-111.669 393.939   2
  -4  -6   5 472.126 437.649   2
  -3  -6   5 1059.49 830.073   2
  -2  -6   5 8522.33 2173.17   2
  -1  -6   5 4272.42 1506.97   2
   0  -6   5 143.965 561.941   2
   1  -6   5 10601.2 2457.36   2
   1   6   5 7097.95 2760.46   3
   2   6   5 6720.88 2957.51   3
  -4   6  -5 78.8451 353.991   1
  -5   6  -5 783.193 128.844   1
  -4  -7   5 373.406 538.224   2
  -3  -7   5 461.635 554.160   2
 -11   0   6 459.739 295.750   2
 -10   0   6 9826.60 2198.66   2
  -9   0   6 515.137 553.987   2
  -8   0   6 259.765 554.118   2
  -7   0   6 2482.54 1016.05   2
  -6   0   6 24776.9 3126.63   2
  -5   0   6 53485.2 4804.65   2
  -4   0   6 985.067 679.725   2
  -3   0   6 13285.9 2642.69   2
  -2   0   6 6058.25 1882.63   2
   1   0  -6 113480. 8301.91   1
   0   0  -6 4149.40 1471.78   1
  -1   0  -6 443.538 856.266   1
  -2   0  -6 1881.02 1048.96   1
  -3   0  -6 119850. 8784.64   1
  -4   0  -6 87276.6 7729.17   1
  -5   0  -6 10884.6 2750.73   1
  -6   0  -6 118.163 583.436   1
  -7   0  -6 673.459 487.670   1
 -11  -1   6 259.786 371.821   2
 -10  -1   6 48167.9 5182.64   2
  -9  -1   6 21197.9 3266.40   2
  -8   1   6 870.924 560.064   2
  -8  -1   6 944.678 689.689   2
  -7  -1   6-295.806 471.584   2
  -7   1   6 16.0708 311.360   2
  -6  -1   6 5185.34 1481.20   2
  -6   1   6 7660.43 1568.81   2
  -5   1   6 32895.4 3387.95   2
  -5  -1   6 35895.1 4109.14   2
  -4   1   6 328.998 376.788   2
  -4  -1   6-307.961 538.407   2
  -3  -1   6 1697.15 980.611   2
  -3   1   6 1090.34 759.324   2
  -2  -1   6 12874.1 2685.37   2
  -2   1   6 17343.1 3274.68   2
   2   1  -6 13951.9 2594.96   1
   1   1  -6 11503.0 2253.54   1
   0  -1  -6 767.749 639.357   1
   0   1  -6 496.883 484.816   1
  -1   1  -6 1349.28 802.044   1
  -1  -1  -6 1433.97 929.237   1
  -2   1  -6 579.032 434.354   1
  -2  -1  -6 673.297 747.375   1
  -3  -1  -6 6504.25 2091.65   1
  -3   1  -6 5390.69 1663.98   1
  -4   1  -6 9509.73 2398.74   1
  -4  -1  -6 8674.78 2425.27   1
  -5  -1  -6 837.526 911.375   1
  -5   1  -6 777.209 524.618   1
  -6  -1  -6 458.969 655.534   1
  -6   1  -6 693.844 977.426   1
  -7   1  -6 645.541 884.818   1
  -7  -1  -6-63.4526 295.849   1
 -10  -2   6 9839.91 2458.51   2
  -9  -2   6 2838.36 1255.28   2
  -8  -2   6 395.322 657.296   2
  -7  -2   6 159.968 284.093   2
  -6  -2   6 188.454 707.120   2
  -5   2   6 56158.2 3973.80   2
  -5  -2   6 62110.2 5773.39   2
  -4   2   6 22392.8 2569.35   2
  -4  -2   6 22381.0 3411.41   2
  -3  -2   6 9642.52 2209.76   2
  -3   2   6 12537.2 2210.11   2
  -2  -2   6 10801.8 2427.06   2
  -2   2   6 17684.9 3342.31   2
   2   2  -6 14817.2 2352.64   1
  -1  -2   6 605.661 717.121   2
   1   2  -6 615.216 449.592   1
   0   2  -6 4001.27 1183.35   1
  -1  -2  -6 2260.03 1189.76   1
  -1   2  -6 2248.87 1025.84   1
  -2  -2  -6 3226.74 1478.00   1
  -2   2  -6 2283.20 1038.21   1
  -3  -2  -6 10344.3 2713.65   1
  -3   2  -6 12741.4 2494.85   1
  -4  -2  -6 3072.98 1711.07   1
  -4   2  -6 3550.09 1477.47   1
  -5  -2  -6 360.575 1074.29   1
  -5   2  -6 444.925 683.382   1
  -6  -2  -6 533.121 766.629   1
  -6   2  -6 1142.50 890.447   1
  -7  -2  -6 9191.37 3127.66   1
  -7   2  -6 10359.6 3108.59   1
  -9  -3   6 1443.90 968.671   2
  -8  -3   6 421.864 592.845   2
  -7  -3   6 1106.03 916.892   2
  -6  -3   6 3133.28 1354.42   2
  -5  -3   6 15114.8 2884.85   2
  -4  -3   6 11203.7 2485.23   2
  -3  -3   6 2509.18 1296.42   2
  -2  -3   6 32504.2 4186.89   2
  -1  -3   6 41797.7 4811.68   2
   1   3  -6 44124.4 3791.26   1
   0  -3   6 8703.42 2107.66   2
   0   3  -6 7227.97 1562.85   1
  -1   3  -6 817.983 569.587   1
  -2   3  -6 2906.47 1129.32   1
  -3  -3  -6 2477.55 1411.39   1
  -3   3  -6 2888.86 1170.41   1
  -4  -3  -6 9601.92 2950.29   1
  -4   3  -6 9676.68 2358.04   1
  -5   3  -6 3388.18 1546.96   1
  -5  -3  -6 2514.38 1667.91   1
  -6  -3  -6 2967.47 1952.33   1
  -6   3  -6 4049.39 1818.36   1
  -8  -4   6 330.952 455.264   2
  -7  -4   6 1241.05 883.583   2
  -6  -4   6 11907.9 2655.45   2
  -5  -4   6 1443.01 1058.15   2
  -4  -4   6 2781.58 1244.90   2
  -3  -4   6 74.2599 369.731   2
  -2  -4   6 25401.0 3739.33   2
  -1  -4   6 2341.45 1149.24   2
   0  -4   6 2966.05 1307.44   2
   1  -4   6 809.402 597.692   2
  -1   4  -6 606.378 416.733   1
  -2   4  -6 381.859 558.635   1
  -3   4  -6-83.2063 132.729   1
  -4   4  -6 1595.89 1097.54   1
  -5   4  -6 1673.48 1151.19   1
  -6   4  -6 322.544 879.908   1
  -7  -5   6 829.748 901.451   2
  -6  -5   6 2141.05 1179.56   2
  -5  -5   6 2307.34 1120.25   2
  -4  -5   6 12319.9 2715.12   2
  -3  -5   6 1255.14 1018.45   2
  -2  -5   6 1284.83 909.537   2
  -1  -5   6 1087.04 807.553   2
   0  -5   6 12702.9 2617.94   2
   1  -5   6 3699.95 1407.75   2
   2  -5   6 850.085 949.219   2
  -3   5  -6 1068.51 878.414   1
   3  -5   6 583.231 632.601   2
  -4   5  -6 890.382 869.907   1
  -5   5  -6-367.027 132.918   1
  -5  -6   6-146.489 267.602   2
  -4  -6   6 1486.10 996.334   2
  -3  -6   6 4821.76 1709.22   2
  -2  -6   6 9155.47 2355.55   2
  -1  -6   6-345.021 190.333   2
   0  -6   6 20234.2 3560.39   2
   1  -6   6 4217.97 1582.24   2
   1   6   6 3172.25 2008.83   3
   2  -6   6 8866.82 2396.82   2
 -10   0   7 510.012 653.346   2
  -9   0   7-97.1465 202.139   2
  -8   0   7 68.2832 289.413   2
  -7   0   7 2605.29 1220.82   2
  -6   0   7 352.675 551.292   2
  -5   0   7 245.761 369.377   2
  -4   0   7 159.663 636.270   2
  -3   0   7 15.9165 399.800   2
  -2   0   7-260.039 581.151   2
   1   0  -7 151.785 465.476   1
   0   0  -7 728.882 667.260   1
  -1   0  -7 673.728 718.973   1
  -2   0  -7 417.057 625.462   1
  -3   0  -7-139.645 397.843   1
  -4   0  -7 1100.48 1028.80   1
  -5   0  -7 454.587 903.329   1
  -6   0  -7 846.892 959.134   1
 -10  -1   7 1838.86 1031.84   2
  -9  -1   7 2613.77 1222.97   2
  -8  -1   7 1719.85 891.279   2
  -7   1   7 3148.65 1068.43   2
  -7  -1   7 4333.97 1504.15   2
  -6   1   7 7973.78 1726.73   2
  -6  -1   7 7668.27 2051.43   2
  -5   1   7 156.510 289.389   2
  -5  -1   7 516.523 671.004   2
  -4  -1   7 364.679 594.474   2
  -4   1   7 292.210 367.159   2
  -3  -1   7 473.286 640.966   2
  -3   1   7 314.072 673.038   2
  -2  -1   7 12629.7 2968.73   2
  -2   1   7 19310.0 4096.83   2
   1   1  -7 3672.56 1416.56   1
   0   1  -7 2843.20 1229.17   1
   0  -1  -7 3131.51 1381.84   1
  -1  -1  -7 4586.57 1776.59   1
  -1   1  -7 4640.51 1566.57   1
  -2   1  -7 4976.94 1688.25   1
  -2  -1  -7 4752.37 1810.10   1
  -3   1  -7 33576.8 4539.85   1
  -3  -1  -7 28277.8 4595.70   1
  -4  -1  -7 2098.02 1574.12   1
  -4   1  -7 898.370 919.964   1
  -5   1  -7-207.281 514.769   1
  -5  -1  -7 501.325 1002.76   1
  -6   1  -7 109.015 451.961   1
  -6  -1  -7 1307.84 1280.03   1
 -10  -2   7 10844.8 2639.05   2
  -9  -2   7-226.754 562.313   2
  -8  -2   7 250.414 475.652   2
  -7  -2   7 187.219 563.016   2
  -6  -2   7 24279.4 3804.33   2
  -5  -2   7 10832.7 2548.85   2
  -4   2   7 279.538 332.761   2
  -4  -2   7 9.23216 310.675   2
  -3  -2   7 6767.43 2035.26   2
  -3   2   7 8718.39 2214.18   2
  -2  -2   7 18661.0 3486.18   2
   2   2  -7 20929.0 3287.73   1
  -1  -2   7 1879.62 1097.30   2
   1   2  -7 420.223 449.416   1
   0   2  -7-129.124 99.5870   1
  -1   2  -7 577.832 687.052   1
  -2   2  -7 9540.63 2255.94   1
  -2  -2  -7 8689.11 2565.66   1
  -3   2  -7 6734.47 1928.72   1
  -3  -2  -7 5701.32 2161.12   1
  -4   2  -7 2286.25 1261.02   1
  -4  -2  -7 1792.35 1417.76   1
  -5  -2  -7 498.701 743.213   1
  -5   2  -7 201.776 646.597   1
  -6  -2  -7 2768.24 1665.17   1
  -6   2  -7 3878.23 1880.01   1
  -8  -3   7 690.043 769.636   2
  -7  -3   7 8083.34 2216.66   2
  -6  -3   7 17099.9 3216.99   2
  -5  -3   7 20848.4 3562.81   2
  -4  -3   7 2524.75 1190.95   2
  -3  -3   7 31409.1 4441.20   2
  -2  -3   7 17704.9 3305.71   2
  -1  -3   7 16555.2 3201.83   2
   0   3  -7 507.644 545.467   1
   0  -3   7 916.979 949.751   2
  -1   3  -7 2078.55 986.696   1
  -2   3  -7 6640.79 1870.02   1
  -3   3  -7 7423.78 2081.85   1
  -4  -3  -7 2846.46 1638.13   1
  -4   3  -7 2894.31 1461.25   1
  -5  -3  -7 10.0373 1016.15   1
  -5   3  -7 120.995 283.196   1
  -6   3  -7 2299.65 1503.15   1
  -7  -4   7 2978.82 1480.14   2
  -6  -4   7 449.128 564.298   2
  -5  -4   7 67.1418 389.550   2
  -4  -4   7 1040.26 840.531   2
  -3  -4   7 1427.32 894.124   2
  -2  -4   7 4749.24 1726.56   2
  -1  -4   7 2914.58 1368.95   2
   0  -4   7 1403.90 924.753   2
   1  -4   7 169.789 601.596   2
  -2   4  -7 1001.16 734.168   1
  -3   4  -7 4763.46 1658.86   1
  -4   4  -7 359.629 443.500   1
  -5   4  -7 291.079 690.567   1
  -5  -5   7 4848.26 1762.95   2
  -4  -5   7 4841.33 1794.88   2
  -3  -5   7 3091.89 1308.31   2
  -2  -5   7 2391.58 1260.62   2
  -1  -5   7 4744.30 1680.40   2
   0  -5   7 3905.31 1544.90   2
   1  -5   7 4409.69 1678.00   2
   2  -5   7 501.209 490.861   2
   3  -5   7 998.695 925.300   2
  -2  -6   7 967.972 873.683   2
  -1  -6   7 8240.01 2360.67   2
   0  -6   7 20527.5 3668.26   2
   1  -6   7 2738.21 1296.26   2
  -9   0   8 113.240 312.378   2
  -8   0   8 2945.43 1161.49   2
  -7   0   8 44731.7 5030.06   2
  -6   0   8 3813.49 1505.61   2
  -5   0   8 4337.34 1812.81   2
  -4   0   8 2868.79 1577.71   2
  -3   0   8 65574.9 7968.56   2
  -2   0   8 44103.2 6691.27   2
   0   0  -8 381.989 563.171   1
  -1   0  -8 5689.98 1987.24   1
  -2   0  -8 31615.9 4769.87   1
  -3   0  -8 982.125 859.875   1
  -4   0  -8 1158.80 1070.85   1
  -5   0  -8 3155.18 1633.67   1
 -10  -1   8-405.303 487.463   2
  -9  -1   8-432.929 509.202   2
  -8  -1   8 361.202 555.872   2
  -7  -1   8 701.652 739.024   2
  -6   1   8 2461.15 1130.47   2
  -6  -1   8 2727.07 1345.98   2
  -5   1   8 1025.90 690.988   2
  -5  -1   8 1106.02 981.751   2
  -4  -1   8-126.317 408.685   2
  -4   1   8 1570.05 1144.79   2
  -3  -1   8 9709.41 2825.05   2
  -3   1   8 15597.5 3848.51   2
  -2  -1   8 4589.92 1938.04   2
  -2   1   8 5759.92 2657.92   2
   1   1  -8 908.269 1102.42   1
  -1  -1   8-59.3768 949.574   2
   0   1  -8 447.499 648.742   1
  -1   1  -8 18380.9 3421.83   1
  -1  -1  -8 16282.7 3581.09   1
  -2   1  -8 49520.9 5816.41   1
  -2  -1  -8 43913.7 5968.93   1
  -3   1  -8 794.710 853.438   1
  -3  -1  -8 1025.54 938.615   1
  -4  -1  -8 3422.66 1863.28   1
  -4   1  -8 2847.02 1505.37   1
  -5  -1  -8 2266.23 1630.47   1
  -5   1  -8 4276.88 1938.62   1
  -9  -2   8 1047.91 795.564   2
  -8  -2   8 926.569 1025.30   2
  -7  -2   8 3889.55 1675.69   2
  -6  -2   8 11900.0 2854.48   2
  -5  -2   8 4301.62 1732.12   2
  -4  -2   8 8519.30 2454.63   2
  -3  -2   8 35692.6 5230.90   2
  -2  -2   8-245.527 615.591   2
  -2   2   8 1210.33 1891.17   2
  -1  -2   8 479.011 371.280   2
   0   2  -8 889.879 748.220   1
  -1   2  -8 4592.87 1638.69   1
  -2   2  -8 3417.20 1383.48   1
  -2  -2  -8 4664.32 2119.84   1
  -3   2  -8 1573.46 1035.98   1
  -3  -2  -8 2413.48 1588.61   1
  -4   2  -8 243.210 667.417   1
  -4  -2  -8 379.538 1168.32   1
  -5   2  -8 3982.52 1876.51   1
  -7  -3   8 18319.8 3653.61   2
  -6  -3   8 25429.5 4256.51   2
  -5  -3   8-118.808 590.062   2
  -4  -3   8 9806.66 2656.59   2
  -3  -3   8 22214.6 4002.70   2
  -2  -3   8 2734.45 1378.62   2
  -1  -3   8 580.049 906.920   2
   0  -3   8 387.978 408.742   2
  -2   3  -8 1808.42 1038.13   1
  -3   3  -8 1897.13 1191.50   1
  -4   3  -8 1117.28 787.696   1
  -5   3  -8 1652.82 1467.70   1
  -6  -4   8 5844.46 2034.20   2
  -5  -4   8-85.0672 345.896   2
  -4  -4   8 1374.16 1183.39   2
  -3  -4   8 342.806 391.739   2
  -2  -4   8 9096.53 2519.84   2
  -1  -4   8 1149.54 955.859   2
   0  -4   8 574.536 757.061   2
   1  -4   8 443.479 705.352   2
   2  -4   8 2560.03 1372.51   2
  -2  -5   8 101.141 687.725   2
  -1  -5   8 1507.79 1347.85   2
   0  -5   8 812.950 695.190   2
  -8   0   9 333.142 551.681   2
  -7   0   9-138.668 207.990   2
  -6   0   9 862.177 879.502   2
  -5   0   9-115.666 782.239   2
  -4   0   9 737.342 1089.03   2
  -3   0   9-134.718 392.504   2
  -2   0   9-103.604 563.707   2
   0   0  -9 437.964 655.991   1
  -1   0  -9-154.986 461.745   1
  -2   0  -9 260.441 662.835   1
  -3   0  -9-57.0489 278.258   1
  -4   0  -9-97.5922 456.012   1
  -9  -1   9 104.690 488.211   2
  -8  -1   9 11576.5 2891.39   2
  -7  -1   9 2961.78 1516.90   2
  -6  -1   9 386.667 628.224   2
  -5   1   9 194.161 766.592   2
  -5  -1   9 1384.72 1277.44   2
  -4  -1   9 367.936 688.133   2
  -4   1   9 866.955 1364.40   2
  -3  -1   9 9571.74 3136.35   2
  -3   1   9 8972.89 3332.40   2
  -2  -1   9 1172.61 1250.93   2
  -2   1   9 498.167 1482.75   2
   1   1  -9 707.293 1033.29   1
  -1  -1   9 173.522 256.901   2
   0   1  -9 842.035 1095.09   1
  -1  -1  -9 8498.31 2781.44   1
  -1   1  -9 7398.56 2341.27   1
  -2   1  -9 2614.21 1761.88   1
  -2  -1  -9 2626.83 1537.12   1
  -3  -1  -9 443.897 840.776   1
  -3   1  -9-64.2492 435.497   1
  -4   1  -9-133.492 620.819   1
  -7  -2   9 921.024 1374.42   2
  -6  -2   9 289.779 568.157   2
  -5  -2   9 5114.50 2136.70   2
  -4  -2   9 37571.2 5900.54   2
  -3  -2   9 4732.35 2199.56   2
  -2  -2   9 2199.39 1541.11   2
  -1  -2   9 807.576 891.053   2
   0  -2   9 3840.95 1859.08   2
  -1   2  -9 32700.4 4870.34   1
  -2   2  -9 591.267 663.169   1
  -3  -2  -9 308.440 1132.42   1
  -3   2  -9 450.337 415.193   1
  -4   2  -9 1810.05 1310.30   1
  -6  -3   9 1028.61 1127.47   2
  -5  -3   9 683.994 1087.19   2
  -4  -3   9 15380.3 3573.20   2
  -3  -3   9 2410.87 1519.97   2
  -2  -3   9 446.777 787.989   2
  -1  -3   9 1562.03 1207.08   2
   0  -3   9 2360.85 1457.74   2
   1  -3   9-48.1321 732.834   2
  -6   0  10 1665.61 1403.06   2
  -5   0  10 947.904 845.414   2
  -4   0  10 9616.43 3782.51   2
  -3   0  10 2825.67 2446.17   2
  -2   0  10 3259.98 2360.26   2
  -1   0  10 13101.8 4537.93   2
  -1   0 -10 872.391 1239.27   1
  -2   0 -10 387.981 232.654   1
  -7  -1  10-639.125 726.495   2
  -6  -1  10 168.526 641.215   2
  -5  -1  10 42693.7 7071.56   2
  -4  -1  10 30234.2 6082.72   2
  -3  -1  10 315.149 1222.69   2
  -3   1  10-674.096 1106.67   2
  -2  -1  10-215.189 899.287   2
  -2   1  10-1798.04 1869.37   2
  -1  -1  10 5621.73 2597.72   2
  -1   1  10 12897.1 5363.71   2
  -1   1 -10 2248.43 1614.30   1
  -2   1 -10 1662.07 1218.57   1
  -2  -1 -10 1505.20 1121.18   1
  -5  -2  10 27674.7 5478.69   2
  -4  -2  10 1357.93 1396.20   2
  -3  -2  10 1257.09 1089.53   2
  -2  -2  10 972.728 881.406   2
  -1  -2  10 671.495 630.314   2
  -5   0  11-621.378 924.542   2
  -4   0  11-926.791 1955.13   2
  -3   0  11 1654.57 2459.88   2
  -2   0  11-511.909 1618.60   2
  -1   1  11 3615.99 4234.53   2
   0   0   0    0.00    0.00   0
TITL Ml26a in P2(1)/c
REM P2(1)/c (#14 in standard setting)
CELL 0.71073   9.276321   5.988214   8.403017  90.0000 102.5418  90.0000
ZERR    2.00   0.001539   0.000974   0.001690   0.0000   0.0208   0.0000
LATT  1
SYMM -x, y+1/2,-z+1/2
SFAC C H N
UNIT 20.00 20.00 4.00
TREF
HKLF 4
END
;
_shelx_hkl_checksum              21203
loop_
_space_group_symop_operation_xyz
'x, y, z'
'-x, y+1/2, -z+1/2'
'-x, -y, -z'
'x, -y-1/2, z-1/2'
loop_
_atom_site_label
_atom_site_type_symbol
_atom_site_fract_x
_atom_site_fract_y
_atom_site_fract_z
_atom_site_U_iso_or_equiv
_atom_site_adp_type
_atom_site_occupancy
_atom_site_site_symmetry_order
_atom_site_calc_flag
_atom_site_refinement_flags_posn
_atom_site_refinement_flags_adp
_atom_site_refinement_flags_occupancy
_atom_site_disorder_assembly
_atom_site_disorder_group
C1 C 0.4513(3) 0.2109(5) 0.5385(3) 0.0185(8) Uani 0.99(3) 1 d . . P A .
H1 H 0.4181 0.3536 0.5648 0.022 Uiso 0.99(3) 1 calc R U P . .
C2 C 0.5897(3) 0.1342(5) 0.6200(3) 0.0168(7) Uani 1 1 d . . . . .
C3 C 0.6825(3) 0.2639(5) 0.7433(3) 0.0209(7) Uani 1 1 d . . . . .
H3 H 0.6500 0.4061 0.7713 0.025 Uiso 1 1 calc R U . . .
C4 C 0.8176(3) 0.1861(5) 0.8215(4) 0.0239(8) Uani 1 1 d . . . . .
H4 H 0.8783 0.2748 0.9032 0.029 Uiso 1 1 calc R U . . .
C5 C 0.3605(3) 0.0815(4) 0.4189(3) 0.0170(7) Uani 1 1 d . . . . .
C6 C 0.2181(3) 0.1554(5) 0.3351(3) 0.0222(7) Uani 1 1 d . . . . .
H6 H 0.1827 0.2967 0.3610 0.027 Uiso 1 1 calc R U . . .
C7 C 0.1318(3) 0.0261(5) 0.2181(4) 0.0235(7) Uani 1 1 d . . . . .
H7 H 0.0375 0.0785 0.1630 0.028 Uiso 1 1 calc R U . . .
N1 N 0.4513(3) 0.2109(5) 0.5385(3) 0.0185(8) Uani 0.01(3) 1 d . . P A 2
loop_
_atom_site_aniso_label
_atom_site_aniso_U_11
_atom_site_aniso_U_22
_atom_site_aniso_U_33
_atom_site_aniso_U_23
_atom_site_aniso_U_13
_atom_site_aniso_U_12
C1 0.0192(14) 0.0199(16) 0.0201(16) 0.0001(12) 0.0121(12) -0.0010(12)
C2 0.0187(14) 0.0185(15) 0.0161(15) 0.0005(12) 0.0103(11) -0.0008(11)
C3 0.0214(15) 0.0269(17) 0.0170(16) -0.0023(12) 0.0099(12) -0.0043(12)
C4 0.0189(14) 0.0336(18) 0.0202(17) -0.0023(13) 0.0064(12) -0.0086(13)
C5 0.0167(13) 0.0196(15) 0.0175(16) 0.0012(11) 0.0097(11) -0.0008(11)
C6 0.0169(14) 0.0310(18) 0.0204(16) 0.0003(13) 0.0079(12) -0.0015(12)
C7 0.0160(14) 0.0298(18) 0.0250(18) 0.0046(13) 0.0047(12) 0.0032(12)
N1 0.0192(14) 0.0199(16) 0.0201(16) 0.0001(12) 0.0121(12) -0.0010(12)
loop_
_atom_type_symbol
_atom_type_description
_atom_type_scat_dispersion_real
_atom_type_scat_dispersion_imag
_atom_type_scat_source
C C 0.0033 0.0016 'International Tables Vol C Tables 4.2.6.8 and 6.1.1.4'
H H 0.0000 0.0000 'International Tables Vol C Tables 4.2.6.8 and 6.1.1.4'
N N 0.0061 0.0033 'International Tables Vol C Tables 4.2.6.8 and 6.1.1.4'
loop_
_geom_angle_atom_site_label_1
_geom_angle_atom_site_label_2
_geom_angle_atom_site_label_3
_geom_angle
_geom_angle_site_symmetry_3
C2 C1 C5 121.1(3) .
C1 C2 C3 121.6(3) .
C1 C2 C5 119.5(3) 3_656
C3 C2 C5 118.9(2) 3_656
C4 C3 C2 120.8(3) .
C3 C4 C7 120.6(3) 3_656
C1 C5 C6 122.1(3) .
C1 C5 C2 119.4(2) 3_656
C6 C5 C2 118.5(3) 3_656
C7 C6 C5 121.0(3) .
C6 C7 C4 120.3(3) 3_656
loop_
_geom_bond_atom_site_label_1
_geom_bond_atom_site_label_2
_geom_bond_distance
_geom_bond_site_symmetry_2
C1 C2 1.395(4) .
C1 C5 1.397(4) .
C2 C3 1.425(4) .
C2 C5 1.433(4) 3_656
C3 C4 1.364(4) .
C4 C7 1.420(4) 3_656
C5 C6 1.426(3) .
C5 C2 1.433(4) 3_656
C6 C7 1.365(4) .
C7 C4 1.420(4) 3_656
