#------------------------------------------------------------------------------
#$Date: 2015-06-04 06:06:32 +0300 (Thu, 04 Jun 2015) $
#$Revision: 137789 $
#$URL: svn://www.crystallography.net/cod/cif/4/51/30/4513073.cif $
#------------------------------------------------------------------------------
#
# This file is available in the Crystallography Open Database (COD),
# http://www.crystallography.net/
#
# All data on this site have been placed in the public domain by the
# contributors.
#
data_4513073
loop_
_publ_author_name
'Carletta, Andrea'
'Meinguet, C\'eline'
'Wouters, Johan'
'Tilborg, Ana\"elle'
_publ_section_title
;
 Solid-State Investigation of Polymorphism and Tautomerism of
 Phenylthiazole-thione: A Combined Crystallographic, Calorimetric, and
 Theoretical Survey
;
_journal_issue                   5
_journal_name_full               'Crystal Growth &amp; Design'
_journal_page_first              2461
_journal_paper_doi               10.1021/acs.cgd.5b00237
_journal_volume                  15
_journal_year                    2015
_chemical_formula_moiety         'C9 H7 N S2'
_chemical_formula_sum            'C9 H7 N S2'
_chemical_formula_weight         193.28
_chemical_name_common            'C33 Polymorph I'
_space_group_IT_number           14
_symmetry_cell_setting           monoclinic
_symmetry_space_group_name_Hall  '-P 2yn'
_symmetry_space_group_name_H-M   'P 1 21/n 1'
_atom_sites_solution_hydrogens   geom
_atom_sites_solution_primary     direct
_atom_sites_solution_secondary   difmap
_audit_creation_method           SHELXL-97
_audit_update_record
;
2015-02-09 # Formatted by publCIF
;
_cell_angle_alpha                90.00
_cell_angle_beta                 101.780(3)
_cell_angle_gamma                90.00
_cell_formula_units_Z            4
_cell_length_a                   6.2423(2)
_cell_length_b                   11.5747(3)
_cell_length_c                   12.7785(4)
_cell_measurement_reflns_used    2590
_cell_measurement_temperature    293(2)
_cell_measurement_theta_max      67.4964
_cell_measurement_theta_min      3.5303
_cell_volume                     903.84(5)
_computing_cell_refinement
;
CrysAlisPro, Agilent Technologies,
Version 1.171.35.21 (release 20-01-2012 CrysAlis171 .NET)
(compiled Jan 23 2012,18:06:46)
;
_computing_data_collection
;
CrysAlisPro, Agilent Technologies,
Version 1.171.35.21 (release 20-01-2012 CrysAlis171 .NET)
(compiled Jan 23 2012,18:06:46)
;
_computing_data_reduction
;
CrysAlisPro, Agilent Technologies,
Version 1.171.35.21 (release 20-01-2012 CrysAlis171 .NET)
(compiled Jan 23 2012,18:06:46)
;
_computing_structure_refinement  'SHELXL-97 (Sheldrick, 1997)'
_computing_structure_solution    sir92
_diffrn_ambient_temperature      293(2)
_diffrn_detector_area_resol_mean 10.3712
_diffrn_measured_fraction_theta_full 0.989
_diffrn_measured_fraction_theta_max 0.989
_diffrn_measurement_device_type  'Xcalibur, Ruby, Gemini ultra'
_diffrn_measurement_method       '\w scans'
_diffrn_radiation_monochromator  mirror
_diffrn_radiation_source         'Enhance Ultra (Cu) X-ray Source'
_diffrn_radiation_type           CuK\a
_diffrn_radiation_wavelength     1.54184
_diffrn_reflns_av_R_equivalents  0.0173
_diffrn_reflns_av_sigmaI/netI    0.0191
_diffrn_reflns_limit_h_max       7
_diffrn_reflns_limit_h_min       -6
_diffrn_reflns_limit_k_max       11
_diffrn_reflns_limit_k_min       -13
_diffrn_reflns_limit_l_max       15
_diffrn_reflns_limit_l_min       -14
_diffrn_reflns_number            3637
_diffrn_reflns_theta_full        67.61
_diffrn_reflns_theta_max         67.61
_diffrn_reflns_theta_min         5.21
_exptl_absorpt_coefficient_mu    4.836
_exptl_absorpt_correction_T_max  1.00000
_exptl_absorpt_correction_T_min  0.67970
_exptl_absorpt_correction_type   multi-scan
_exptl_absorpt_process_details
;
CrysAlisPro, Agilent Technologies,
Version 1.171.35.21 (release 20-01-2012 CrysAlis171 .NET)
(compiled Jan 23 2012,18:06:46)
Empirical absorption correction using spherical harmonics,
 implemented in SCALE3 ABSPACK scaling algorithm.
;
_exptl_crystal_colour            colourless
_exptl_crystal_density_diffrn    1.420
_exptl_crystal_density_method    'not measured'
_exptl_crystal_description       block
_exptl_crystal_F_000             400
_exptl_crystal_size_max          0.2
_exptl_crystal_size_mid          0.2
_exptl_crystal_size_min          0.2
_refine_diff_density_max         0.183
_refine_diff_density_min         -0.230
_refine_diff_density_rms         0.040
_refine_ls_extinction_method     none
_refine_ls_goodness_of_fit_ref   1.062
_refine_ls_hydrogen_treatment    constr
_refine_ls_matrix_type           full
_refine_ls_number_parameters     109
_refine_ls_number_reflns         1632
_refine_ls_number_restraints     0
_refine_ls_restrained_S_all      1.062
_refine_ls_R_factor_all          0.0307
_refine_ls_R_factor_gt           0.0276
_refine_ls_shift/su_max          0.000
_refine_ls_shift/su_mean         0.000
_refine_ls_structure_factor_coef Fsqd
_refine_ls_weighting_details
'calc w=1/[\s^2^(Fo^2^)+(0.0381P)^2^+0.2281P] where P=(Fo^2^+2Fc^2^)/3'
_refine_ls_weighting_scheme      calc
_refine_ls_wR_factor_gt          0.0735
_refine_ls_wR_factor_ref         0.0767
_reflns_number_gt                1483
_reflns_number_total             1632
_reflns_threshold_expression     >2sigma(I)
_iucr_refine_instructions_details
;
TITL jw_c33 in P2(1)/n
CELL  1.54184   6.2423  11.5747  12.7785   90.000  101.780   90.000
ZERR     4.00   0.0002   0.0003   0.0004    0.000    0.003    0.000
LATT   1
SYMM  1/2 - X, 1/2 + Y, 1/2 - Z
SFAC  C        2.31000 20.84392  1.02000 10.20751   1.58860   0.56870 =
         0.86500  51.65125   0.21560   0.018   0.009    89.900   0.770  12.011
SFAC  H        0.49300 10.51091  0.32291 26.12573   0.14019   3.14236 =
         0.04081  57.79977   0.00304   0.000   0.000     0.660   0.320   1.008
SFAC  N       12.21261  0.00570  3.13220  9.89331   2.01250  28.99754 =
         1.16630   0.58260 -11.52901   0.031   0.018   173.000   0.700  14.007
SFAC  S        6.90531  1.46790  5.20341 22.21512   1.43790   0.25360 =
         1.58630  56.17207   0.86690   0.333   0.557  4970.000   1.040  32.066
UNIT  36   28   4    8
MERG   2
FMAP   2
PLAN   20
L.S.  10
ACTA
BOND $H
HTAB
CONF
TEMP 20
WGHT    0.038100    0.228100
FVAR      12.82951
S1    4    0.206645    0.268102    0.691851    11.00000    0.05163    0.04021 =
         0.05000   -0.00984   -0.00817   -0.00009
S2    4    0.263961    0.016371    0.642190    11.00000    0.05887    0.03799 =
         0.04900   -0.00363   -0.01442    0.00815
N1    3   -0.063382    0.160821    0.555065    11.00000    0.04484    0.03400 =
         0.03885   -0.00362   -0.00390   -0.00028
rem found via delta F
AFIX  43
HN1   2   -0.130300    0.106778    0.515090    11.00000   -1.20000
AFIX   0
C4    1   -0.349618    0.300369    0.474614    11.00000    0.04378    0.04299 =
         0.03712   -0.00117    0.00607    0.00645
C3    1   -0.145629    0.272438    0.550880    11.00000    0.04500    0.03544 =
         0.04033    0.00003    0.00583    0.00263
C1    1    0.125675    0.141111    0.624482    11.00000    0.04624    0.03662 =
         0.03631   -0.00174   -0.00135   -0.00080
C5    1   -0.519122    0.220139    0.451789    11.00000    0.04570    0.05067 =
         0.05358    0.00273    0.00580    0.00200
AFIX  43
H5    2   -0.505151    0.148794    0.485983    11.00000   -1.20000
AFIX   0
C6    1   -0.708108    0.246408    0.378377    11.00000    0.04268    0.07638 =
         0.06826   -0.00522    0.00070    0.00332
AFIX  43
H6    2   -0.820561    0.192474    0.362891    11.00000   -1.20000
AFIX   0
C7    1   -0.730105    0.352291    0.328155    11.00000    0.05306    0.08220 =
         0.05985   -0.00112   -0.00411    0.02276
AFIX  43
H7    2   -0.857302    0.369710    0.278757    11.00000   -1.20000
AFIX   0
C9    1   -0.374225    0.406839    0.424193    11.00000    0.05637    0.04454 =
         0.05272    0.00402    0.00763    0.00911
AFIX  43
H9    2   -0.262987    0.461478    0.439476    11.00000   -1.20000
AFIX   0
C2    1   -0.016381    0.341543    0.621348    11.00000    0.05137    0.03539 =
         0.05073   -0.00414    0.00143    0.00317
AFIX  43
H2    2   -0.044023    0.419389    0.630839    11.00000   -1.20000
AFIX   0
C8    1   -0.564967    0.431949    0.350850    11.00000    0.07105    0.06068 =
         0.05643    0.01218    0.00856    0.02632
AFIX  43
H8    2   -0.580774    0.503401    0.316857    11.00000   -1.20000
HKLF    4
 
REM  jw_c33 in P2(1)/n
REM R1 =  0.0276 for   1483 Fo > 4sig(Fo)  and  0.0307 for all   1615 data
REM    109 parameters refined using      0 restraints
 
END
 
WGHT      0.0367      0.2231
REM Highest difference peak  0.183,  deepest hole -0.230,  1-sigma level  0.040
Q1    1   0.1472  0.1897  0.6588  11.00000  0.05    0.18
Q2    1   0.0864  0.3157  0.6593  11.00000  0.05    0.18
Q3    1  -0.2431  0.2848  0.5056  11.00000  0.05    0.17
Q4    1  -0.0979  0.2244  0.5484  11.00000  0.05    0.15
Q5    1  -0.3497  0.3419  0.4428  11.00000  0.05    0.14
Q6    1   0.2174  0.0917  0.6164  11.00000  0.05    0.14
Q7    1  -0.4255  0.2618  0.4598  11.00000  0.05    0.14
Q8    1  -0.3794  0.3590  0.4675  11.00000  0.05    0.13
Q9    1  -0.0297  0.3144  0.5587  11.00000  0.05    0.13
Q10   1  -0.1135  0.2998  0.5882  11.00000  0.05    0.12
Q11   1  -0.4722  0.4166  0.4033  11.00000  0.05    0.11
Q12   1   0.4320  0.0880  0.6506  11.00000  0.05    0.11
Q13   1   0.0590  0.1581  0.5872  11.00000  0.05    0.11
Q14   1  -0.5067  0.1804  0.4709  11.00000  0.05    0.10
Q15   1   0.1155  0.0042  0.5410  11.00000  0.05    0.10
Q16   1   0.0000  0.0000  0.5000  10.50000  0.05    0.10
Q17   1   0.0589  0.0154  0.5522  11.00000  0.05    0.10
Q18   1  -0.5906  0.2189  0.4000  11.00000  0.05    0.10
Q19   1  -0.8903  0.3173  0.2264  11.00000  0.05    0.09
Q20   1   0.3952  0.3389  0.6869  11.00000  0.05    0.09
;
_cod_data_source_file            cg5b00237_si_001.cif
_cod_data_source_block           jw_c33
_cod_database_code               4513073
loop_
_symmetry_equiv_pos_as_xyz
'x, y, z'
'-x+1/2, y+1/2, -z+1/2'
'-x, -y, -z'
'x-1/2, -y-1/2, z-1/2'
loop_
_atom_site_label
_atom_site_type_symbol
_atom_site_fract_x
_atom_site_fract_y
_atom_site_fract_z
_atom_site_U_iso_or_equiv
_atom_site_adp_type
_atom_site_occupancy
_atom_site_symmetry_multiplicity
_atom_site_calc_flag
_atom_site_refinement_flags
S1 S 0.20664(7) 0.26810(4) 0.69185(4) 0.04991(16) Uani 1 1 d .
S2 S 0.26396(8) 0.01637(4) 0.64219(4) 0.05223(17) Uani 1 1 d .
N1 N -0.0634(2) 0.16082(11) 0.55507(10) 0.0410(3) Uani 1 1 d .
HN1 H -0.1303 0.1068 0.5151 0.049 Uiso 1 1 calc R
C4 C -0.3496(3) 0.30037(15) 0.47461(13) 0.0416(4) Uani 1 1 d .
C3 C -0.1456(3) 0.27244(14) 0.55088(13) 0.0407(4) Uani 1 1 d .
C1 C 0.1257(3) 0.14111(14) 0.62448(12) 0.0411(4) Uani 1 1 d .
C5 C -0.5191(3) 0.22014(17) 0.45179(15) 0.0506(4) Uani 1 1 d .
H5 H -0.5052 0.1488 0.4860 0.061 Uiso 1 1 calc R
C6 C -0.7081(3) 0.2464(2) 0.37838(18) 0.0639(6) Uani 1 1 d .
H6 H -0.8206 0.1925 0.3629 0.077 Uiso 1 1 calc R
C7 C -0.7301(3) 0.3523(2) 0.32816(17) 0.0673(6) Uani 1 1 d .
H7 H -0.8573 0.3697 0.2788 0.081 Uiso 1 1 calc R
C9 C -0.3742(3) 0.40684(17) 0.42419(15) 0.0517(4) Uani 1 1 d .
H9 H -0.2630 0.4615 0.4395 0.062 Uiso 1 1 calc R
C2 C -0.0164(3) 0.34154(15) 0.62135(14) 0.0471(4) Uani 1 1 d .
H2 H -0.0440 0.4194 0.6308 0.057 Uiso 1 1 calc R
C8 C -0.5650(4) 0.4319(2) 0.35085(17) 0.0634(6) Uani 1 1 d .
H8 H -0.5808 0.5034 0.3169 0.076 Uiso 1 1 calc R
loop_
_atom_site_aniso_label
_atom_site_aniso_U_11
_atom_site_aniso_U_22
_atom_site_aniso_U_33
_atom_site_aniso_U_23
_atom_site_aniso_U_13
_atom_site_aniso_U_12
S1 0.0516(3) 0.0402(3) 0.0500(3) -0.00984(18) -0.00817(19) -0.00009(18)
S2 0.0589(3) 0.0380(2) 0.0490(3) -0.00363(18) -0.0144(2) 0.00815(19)
N1 0.0448(7) 0.0340(7) 0.0388(7) -0.0036(6) -0.0039(6) -0.0003(6)
C4 0.0438(9) 0.0430(9) 0.0371(8) -0.0012(7) 0.0061(7) 0.0065(7)
C3 0.0450(9) 0.0354(8) 0.0403(8) 0.0000(7) 0.0058(7) 0.0026(7)
C1 0.0462(9) 0.0366(9) 0.0363(8) -0.0017(7) -0.0013(7) -0.0008(7)
C5 0.0457(9) 0.0507(10) 0.0536(10) 0.0027(8) 0.0058(8) 0.0020(8)
C6 0.0427(10) 0.0764(15) 0.0683(13) -0.0052(11) 0.0007(9) 0.0033(10)
C7 0.0531(11) 0.0822(16) 0.0599(12) -0.0011(12) -0.0041(9) 0.0228(11)
C9 0.0564(10) 0.0445(10) 0.0527(10) 0.0040(8) 0.0076(8) 0.0091(8)
C2 0.0514(10) 0.0354(8) 0.0507(10) -0.0041(8) 0.0014(8) 0.0032(7)
C8 0.0710(13) 0.0607(13) 0.0564(11) 0.0122(10) 0.0086(10) 0.0263(11)
loop_
_atom_type_symbol
_atom_type_description
_atom_type_scat_dispersion_real
_atom_type_scat_dispersion_imag
_atom_type_scat_source
C C 0.0180 0.0090 'International Tables Vol C Tables 4.2.6.8 and 6.1.1.4'
H H 0.0000 0.0000 'International Tables Vol C Tables 4.2.6.8 and 6.1.1.4'
N N 0.0310 0.0180 'International Tables Vol C Tables 4.2.6.8 and 6.1.1.4'
S S 0.3330 0.5570 'International Tables Vol C Tables 4.2.6.8 and 6.1.1.4'
loop_
_geom_angle_atom_site_label_1
_geom_angle_atom_site_label_2
_geom_angle_atom_site_label_3
_geom_angle
C2 S1 C1 92.08(8)
C1 N1 C3 116.87(13)
C1 N1 HN1 121.6
C3 N1 HN1 121.6
C9 C4 C5 119.24(16)
C9 C4 C3 120.14(16)
C5 C4 C3 120.62(16)
C2 C3 N1 111.21(15)
C2 C3 C4 129.24(16)
N1 C3 C4 119.55(15)
N1 C1 S2 126.52(12)
N1 C1 S1 108.24(12)
S2 C1 S1 125.22(10)
C6 C5 C4 120.11(19)
C6 C5 H5 119.9
C4 C5 H5 119.9
C7 C6 C5 120.1(2)
C7 C6 H6 119.9
C5 C6 H6 119.9
C8 C7 C6 120.09(18)
C8 C7 H7 120.0
C6 C7 H7 120.0
C4 C9 C8 119.95(19)
C4 C9 H9 120.0
C8 C9 H9 120.0
C3 C2 S1 111.58(13)
C3 C2 H2 124.2
S1 C2 H2 124.2
C7 C8 C9 120.5(2)
C7 C8 H8 119.8
C9 C8 H8 119.8
loop_
_geom_bond_atom_site_label_1
_geom_bond_atom_site_label_2
_geom_bond_distance
S1 C2 1.7206(18)
S1 C1 1.7261(16)
S2 C1 1.6737(17)
N1 C1 1.343(2)
N1 C3 1.387(2)
N1 HN1 0.8600
C4 C9 1.385(3)
C4 C5 1.393(3)
C4 C3 1.473(2)
C3 C2 1.343(2)
C5 C6 1.383(3)
C5 H5 0.9300
C6 C7 1.377(3)
C6 H6 0.9300
C7 C8 1.369(3)
C7 H7 0.9300
C9 C8 1.387(3)
C9 H9 0.9300
C2 H2 0.9300
C8 H8 0.9300
loop_
_geom_torsion_atom_site_label_1
_geom_torsion_atom_site_label_2
_geom_torsion_atom_site_label_3
_geom_torsion_atom_site_label_4
_geom_torsion
C1 N1 C3 C2 -1.0(2)
C1 N1 C3 C4 178.56(15)
C9 C4 C3 C2 36.1(3)
C5 C4 C3 C2 -144.3(2)
C9 C4 C3 N1 -143.44(17)
C5 C4 C3 N1 36.1(2)
C3 N1 C1 S2 -177.65(13)
C3 N1 C1 S1 1.28(18)
C2 S1 C1 N1 -0.90(13)
C2 S1 C1 S2 178.04(13)
C9 C4 C5 C6 0.9(3)
C3 C4 C5 C6 -178.65(17)
C4 C5 C6 C7 -0.5(3)
C5 C6 C7 C8 -0.1(3)
C5 C4 C9 C8 -0.8(3)
C3 C4 C9 C8 178.75(17)
N1 C3 C2 S1 0.28(19)
C4 C3 C2 S1 -179.28(15)
C1 S1 C2 C3 0.36(15)
C6 C7 C8 C9 0.2(3)
C4 C9 C8 C7 0.3(3)
