#------------------------------------------------------------------------------
#$Date: 2015-09-05 23:34:09 +0300 (Sat, 05 Sep 2015) $
#$Revision: 154543 $
#$URL: svn://www.crystallography.net/cod/cif/4/51/33/4513319.cif $
#------------------------------------------------------------------------------
#
# This file is available in the Crystallography Open Database (COD),
# http://www.crystallography.net/
#
# All data on this site have been placed in the public domain by the
# contributors.
#
data_4513319
loop_
_publ_author_name
'Lusi, Matteo'
'Vitorica-Yrezabal, Inigo J.'
'Zaworotko, Michael J.'
_publ_section_title
;
 Expanding the Scope of Molecular Mixed Crystals Enabled by Three
 Component Solid Solutions
;
_journal_issue                   8
_journal_name_full               'Crystal Growth &amp; Design'
_journal_page_first              4098
_journal_paper_doi               10.1021/acs.cgd.5b00685
_journal_volume                  15
_journal_year                    2015
_chemical_formula_sum            'C13.98 H9.98 N0.02'
_chemical_formula_weight         178.23
_chemical_name_systematic
;
 ?
;
_space_group_crystal_system      monoclinic
_space_group_IT_number           14
_space_group_name_Hall           '-P 2ybc'
_space_group_name_H-M_alt        'P 1 21/c 1'
_symmetry_space_group_name_Hall  '-P 2ybc'
_symmetry_space_group_name_H-M   'P 1 21/c 1'
_atom_sites_solution_hydrogens   geom
_audit_creation_method           SHELXL-2014
_cell_angle_alpha                90
_cell_angle_beta                 102.50(3)
_cell_angle_gamma                90
_cell_formula_units_Z            2
_cell_length_a                   9.2981(19)
_cell_length_b                   5.9945(18)
_cell_length_c                   8.408(3)
_cell_measurement_temperature    100(2)
_cell_volume                     457.5(2)
_computing_structure_refinement  'SHELXL-2014 (Sheldrick, 2014)'
_diffrn_ambient_temperature      100(2)
_diffrn_measured_fraction_theta_full 0.984
_diffrn_measured_fraction_theta_max 0.850
_diffrn_radiation_type           MoK\a
_diffrn_radiation_wavelength     0.71073
_diffrn_reflns_av_R_equivalents  0.0744
_diffrn_reflns_av_unetI/netI     0.2253
_diffrn_reflns_laue_measured_fraction_full 0.984
_diffrn_reflns_laue_measured_fraction_max 0.850
_diffrn_reflns_limit_h_max       11
_diffrn_reflns_limit_h_min       -11
_diffrn_reflns_limit_k_max       8
_diffrn_reflns_limit_k_min       -6
_diffrn_reflns_limit_l_max       11
_diffrn_reflns_limit_l_min       -8
_diffrn_reflns_number            1502
_diffrn_reflns_point_group_measured_fraction_full 0.984
_diffrn_reflns_point_group_measured_fraction_max 0.850
_diffrn_reflns_theta_full        25.242
_diffrn_reflns_theta_max         28.559
_diffrn_reflns_theta_min         4.074
_exptl_absorpt_coefficient_mu    0.073
_exptl_absorpt_correction_T_max  2.70
_exptl_absorpt_correction_T_min  0.34
_exptl_absorpt_correction_type   multi-scan
_exptl_absorpt_process_details   sadabs
_exptl_crystal_colour            colourless
_exptl_crystal_density_diffrn    1.294
_exptl_crystal_description       prism
_exptl_crystal_F_000             188
_refine_diff_density_max         0.331
_refine_diff_density_min         -0.340
_refine_diff_density_rms         0.077
_refine_ls_extinction_method     none
_refine_ls_goodness_of_fit_ref   1.006
_refine_ls_hydrogen_treatment    constr
_refine_ls_matrix_type           full
_refine_ls_number_parameters     65
_refine_ls_number_reflns         989
_refine_ls_number_restraints     0
_refine_ls_restrained_S_all      1.006
_refine_ls_R_factor_all          0.2139
_refine_ls_R_factor_gt           0.0948
_refine_ls_shift/su_max          0.000
_refine_ls_shift/su_mean         0.000
_refine_ls_structure_factor_coef Fsqd
_refine_ls_weighting_details
'w=1/[\s^2^(Fo^2^)+(0.0496P)^2^] where P=(Fo^2^+2Fc^2^)/3'
_refine_ls_weighting_scheme      calc
_refine_ls_wR_factor_gt          0.1639
_refine_ls_wR_factor_ref         0.2230
_reflns_Friedel_coverage         0.000
_reflns_number_gt                425
_reflns_number_total             989
_reflns_threshold_expression     'I > 2\s(I)'
_cod_data_source_file            cg5b00685_si_019.cif
_cod_data_source_block           D:\#18
_cod_depositor_comments
'Adding full bibliography for 4513301--4513322.cif.'
_cod_database_code               4513319
_shelx_space_group_comment
;
The symmetry employed for this shelxl refinement is uniquely defined
by the following loop, which should always be used as a source of
symmetry information in preference to the above space-group names.
They are only intended as comments.
;
_shelxl_version_number           2014-3
_shelx_res_file
;
REM  CF solution in P21/c
REM R1 =  0.0617 for     700 Fo > 4sig(Fo)  and  0.0918 for all    1025 data
REM     65 parameters refined using      0 restraints
REM Highest difference peak  0.231,  deepest hole -0.294,  1-sigma level  0.060
REM  Ml22b in P21/c #14
REM R1 =  0.0948 for     425 Fo > 4sig(Fo)  and  0.2139 for all     989 data
REM     65 parameters refined using      0 restraints
REM Highest difference peak  0.331,  deepest hole -0.340,  1-sigma level  0.077
REM  CF solution in P21/c
REM R1 =  0.0617 for     700 Fo > 4sig(Fo)  and  0.0918 for all    1025 data
REM     65 parameters refined using      0 restraints
REM Highest difference peak  0.231,  deepest hole -0.294,  1-sigma level  0.060
REM  ml039bislt_0m in P2(1)/n
REM R1 =  0.0792 for    1194 Fo > 4sig(Fo)  and  0.1832 for all    2362 data
REM    128 parameters refined using      0 restraints
REM Highest difference peak  0.246,  deepest hole -0.321,  1-sigma level  0.063
TITL Ml22b in P21/c #14
CELL 0.71073 9.2981 5.9945 8.4084 90.000 102.505 90.000
ZERR 2.0000 0.0019 0.0018 0.0026 0.000 0.025 0.000
LATT 1
SYMM -X, 0.5+Y, 0.5-Z
SFAC C H N
UNIT 27.97 19.97 0.03
MERG 2
FMAP 2
GRID
PLAN 5
TEMP -173
BOND
EXYZ N1 C1
EADP N1 C1
L.S. 20
ACTA
WGHT    0.049600
FVAR       8.43771   0.99366
C1    1    0.450937    0.209424    0.537876    21.00000    0.01673    0.01690 =
         0.02112   -0.00130    0.00324   -0.00365
AFIX  43
H1    2    0.418214    0.352142    0.564169    21.00000   -1.20000
AFIX   0
C2    1    0.589274    0.131834    0.619397    11.00000    0.01879    0.01524 =
         0.01379    0.00353    0.00167   -0.00229
C3    1    0.682841    0.262172    0.742555    11.00000    0.02200    0.01856 =
         0.01851    0.00133    0.00602    0.00275
AFIX  43
H3    2    0.650742    0.405008    0.769435    11.00000   -1.20000
AFIX   0
C4    1    0.817252    0.184974    0.822005    11.00000    0.01822    0.02859 =
         0.01835   -0.00426    0.00050    0.00272
AFIX  43
H4    2    0.876764    0.273394    0.904546    11.00000   -1.20000
AFIX   0
C5    1    0.360754    0.081143    0.419185    11.00000    0.01350    0.01788 =
         0.01557   -0.00647    0.00361    0.00170
C6    1    0.217123    0.153933    0.333940    11.00000    0.02286    0.02246 =
         0.01755    0.00728    0.00365    0.00671
AFIX  43
H6    2    0.181202    0.294901    0.359415    11.00000   -1.20000
AFIX   0
C7    1    0.131554    0.024017    0.217105    11.00000    0.01924    0.03281 =
         0.02073   -0.00153    0.00385    0.00708
AFIX  43
H7    2    0.037148    0.075199    0.162157    11.00000   -1.20000
PART 2
AFIX   0
N1    3    0.450937    0.209424    0.537876   -21.00000    0.01673    0.01690 =
         0.02112   -0.00130    0.00324   -0.00365
HKLF 4

REM  Ml22b in P21/c #14
REM R1 =  0.0948 for     425 Fo > 4sig(Fo)  and  0.2139 for all     989 data
REM     65 parameters refined using      0 restraints

END

WGHT      0.0497      0.0000

REM Highest difference peak  0.331,  deepest hole -0.340,  1-sigma level  0.077
Q1    1   0.1203  0.2259  0.4453  11.00000  0.05    0.33
Q2    1   0.5385  0.1920  0.5216  11.00000  0.05    0.30
Q3    1   0.8642  0.2472  0.7242  11.00000  0.05    0.28
Q4    1   0.3353  0.3069  0.6669  11.00000  0.05    0.26
Q5    1   0.0777  0.1798  0.0409  11.00000  0.05    0.24
;
_shelx_res_checksum              84135
_shelx_hkl_file
;
   4   0   0 46088.8 1927.40   3
   5   0   0 20701.7 1450.78   3
   6   0   0 4431.12 795.389   3
   7   0   0 496.475 276.475   3
   8   0   0 3476.81 779.137   3
   9   0   0 7460.24 1228.36   3
  10   0   0 56.9247 276.819   3
  11   0   0 92.0860 21.2580   3
   0   1   0 46.8561 89.8255   1
   0  -1   0 272.163 160.043   2
   1   1   0 6983.29 775.177   1
  -1  -1   0 9416.88 1397.42   2
   1   1   0 6568.11 1182.15   2
  -1  -1   0 7083.14 709.279   1
   1  -1   0 7161.32 604.532   2
  -2  -1   0 425.975 121.108   3
   4   1   0 11261.1 977.526   3
   5   1   0 18543.1 1408.42   3
   6   1   0 116.416 92.1379   3
   7   1   0 1005.01 368.652   3
   8   1   0 10383.1 1351.98   3
   8  -1   0 10950.8 1460.38   3
   9  -1   0 12131.3 1584.15   3
   9   1   0 11357.9 1519.28   3
  10   1   0-205.732 252.017   3
  10  -1   0 493.128 407.282   3
  11  -1   0 1072.58 537.341   3
  11   1   0-211.385 209.004   3
   0   2   0 55990.0 3409.91   1
   0  -2   0 51310.9 2783.19   2
   0   2   0 56219.7 1971.30   2
   1  -2   0 25315.7 1398.64   2
   1   2   0 20933.2 2179.26   2
   1   2   0 22325.7 2047.24   1
  -1   2   0 26300.2 1394.58   2
  -1  -2   0 23320.0 2700.13   2
  -2  -2   0 5424.60 847.733   1
   2   2   0 4729.04 916.123   1
   2  -2   0 5770.62 760.332   2
   3  -2   0 2080.83 585.286   2
  -3  -2   0 2195.66 527.326   1
  -4  -2   0 15537.2 1407.12   1
  -5  -2   0 968.670 394.668   1
  -9   2   0 1905.42 1162.79   1
  10  -2   0 2063.12 775.923   3
 -10   2   0 1234.60 1148.23   1
  11  -2   0 2056.17 844.442   3
   0   3   0 582.185 540.624   1
   0  -3   0 443.809 428.705   2
   0   3   0-216.339 92.8844   2
  -1  -3   0 36040.2 3848.00   2
  -1   3   0 34518.2 3574.77   1
   1  -3   0 33069.9 2135.27   2
   1   3   0 26798.4 2871.56   1
   2  -3   0 1084.48 404.177   2
  -2   3   0 414.277 419.068   1
   2   3   0 378.415 404.945   1
   3  -3   0 4923.88 879.809   2
   4  -3   0 17483.9 1870.28   2
   5  -3   0 22048.2 2288.65   2
   6  -3   0 1264.09 481.232   2
   7  -3   0 2106.28 999.200   2
  -8   3   0 1989.07 1261.82   1
   8  -3   0 299.451 186.754   2
   9  -3   0 647.603 652.075   2
  -9   3   0 866.902 922.267   1
  10  -3   0 586.718 667.470   2
 -10   3   0-20.4539 651.227   1
   0  -4   0-146.146 335.305   2
   0   4   0 355.736 493.986   1
   1   4   0 2311.21 1017.88   1
   1  -4   0 4531.86 1178.80   2
  -1   4   0 2368.15 1132.66   1
  -1  -4   0 1848.83 1019.22   2
  -2   4   0-125.713 440.475   1
   2   4   0 361.689 447.108   1
   2  -4   0 457.990 301.606   2
   3   4   0 23.2758 145.373   1
  -3   4   0 35.7033 305.981   1
  -4   4   0 1136.78 986.069   1
   4  -4   0 777.916 425.658   2
  -5   4   0 23215.3 4022.04   1
   5  -4   0 23248.6 2459.10   2
   6  -4   0 4621.22 1261.02   2
  -6   4   0 5907.09 2106.47   1
   7  -4   0 5269.19 1321.88   2
  -7   4   0 4120.48 1800.87   1
  -8   4   0 32.5303 364.832   1
   8  -4   0 1726.68 948.388   2
   9  -4   0 3355.01 1394.95   2
  -9   4   0 2477.13 1650.77   1
  10  -4   0 3081.11 1413.76   2
 -10   4   0 1599.85 1411.48   1
   0  -5   0 128.868 518.769   2
   0   5   0-253.764 370.171   1
   1  -5   0 933.592 721.136   2
   1   5   0 549.186 712.019   1
  -1   5   0 843.049 928.549   1
  -1  -5   0 233.941 698.332   2
   2  -5   0 103.285 238.936   2
   2   5   0 822.399 816.264   1
  -2   5   0 594.485 583.890   1
  -3   5   0 16217.4 3501.46   1
   3  -5   0 17270.8 2127.56   2
   3   5   0 14386.2 2832.74   1
   4  -5   0 3038.64 872.516   2
  -4   5   0 3278.66 1692.93   1
  -5   5   0 1034.28 1169.25   1
  -6   5   0 270.197 588.503   1
  -7   5   0 987.288 1108.27   1
  -8   5   0 3736.58 1983.62   1
   0   6   0 1259.75 1020.12   1
  -1   6   0 3938.59 1871.89   1
   1   6   0 4866.64 1971.66   1
  -2   6   0 844.808 1029.77   1
  -3   6   0 13530.0 3540.89   1
  -4   6   0 1386.29 1430.82   1
  -5   6   0 3412.49 1875.48   1
  -6   6   0 1091.92 1394.75   1
   0   7   0 795.428 889.515   1
  -1   7   0 1436.62 1321.44   1
  -2   7   0 737.274 908.971   1
  -3   7   0 476.191 636.210   1
  -4   7   0 850.127 1047.85   1
  -1   8   0-349.715 740.683   1
  11   0  -1-236.891 300.654   3
  10   0  -1 400.533 266.130   3
   9   0  -1 404.520 369.054   3
   8   0  -1 76.3799 170.271   3
  -8   0   1 280.460 410.517   1
  -7   0   1 224.483 353.911   1
   7   0  -1 266.038 340.232   3
  -6   0   1 321.216 455.859   1
   6   0  -1 117.379 148.447   3
   5   0  -1 154.221 201.828   3
  -5   0   1-128.336 162.855   1
   4   0  -1 84.4066 138.169   3
  -4   0   1 125.470 279.827   1
  -3   0   1 76.1008 149.517   1
   3   0  -1 182.310 155.163   3
   2   0  -1 135.026 168.647   1
   2   0  -1 798.504 639.024   2
  -2   0   1 156.020 129.590   1
  -1   0   1 551.741 364.570   2
   1   0   1 87.4360 88.8105   2
   3   0   1 185.483 175.660   3
   4   0   1 171.265 193.059   3
   5   0   1 157.723 175.235   3
   6   0   1 91.5506 137.562   3
   7   0   1-196.764 111.188   3
   8   0   1 225.696 315.967   3
   9   0   1 68.1650 221.059   3
  10   0   1 25.7063 178.726   3
  11   0   1-99.5576 222.382   3
  11   1  -1-254.382 357.125   3
  11  -1  -1 329.571 373.660   3
  10  -1  -1 1784.63 674.964   3
  10   1  -1 2994.48 860.887   3
   9   1  -1-109.237 295.667   3
  -9   1   1 631.813 619.600   1
   9  -1  -1 563.865 506.056   3
   8  -1  -1 422.659 441.189   3
   8   1  -1-174.669 209.094   3
  -8   1   1 593.127 554.459   1
   7   1  -1-13.5700 218.573   3
  -7  -1   1 310.411 281.004   1
  -7   1   1 305.866 464.759   1
  -6  -1   1 2788.59 663.945   1
  -6   1   1 2876.90 1063.85   1
   6   1  -1 2073.53 522.938   3
  -5  -1   1 17953.4 1379.62   1
   5   1  -1 16459.5 1328.91   3
  -5   1   1 19433.1 2531.72   1
  -4  -1   1 2257.89 392.836   1
   4   1  -1 2505.19 462.288   3
  -4   1   1 3718.68 1030.87   1
   3   1  -1-5.64227 108.682   3
  -3   1   1 1.92743 181.877   1
   2  -1  -1 12327.1 1519.90   1
  -2  -1   1 12244.5 2189.43   2
  -2   1   1 11596.9 1555.01   1
   1   1  -1 252516. 7395.93   2
  -1   1   1 243193. 6850.40   1
   1  -1  -1 257338. 6668.43   1
  -1  -1   1 229607. 7638.08   2
   0   1   1 35525.8 2605.30   1
   0  -1  -1 36992.7 2564.34   1
   0  -1   1 37668.6 1850.66   2
   0   1  -1 43190.0 1841.69   2
  -1   1  -1 8137.95 839.477   2
   1  -1   1 9567.70 902.459   2
   2  -1   1 13150.5 1223.78   2
  -2  -1  -1 13641.1 793.313   3
   3  -1   1 28264.7 2072.37   2
   4   1   1 23047.8 1375.12   3
   5   1   1-118.475 143.165   3
   6   1   1-64.1818 235.706   3
   7   1   1 5192.11 868.895   3
   8  -1   1 849.558 515.693   3
   8   1   1 680.127 229.074   3
   9   1   1 1100.20 455.717   3
   9  -1   1 1044.14 567.262   3
  10  -1   1 995.318 533.352   3
  10   1   1 167.431 81.3414   3
  11  -1   1 1107.26 638.889   3
  11  -2  -1 2809.33 1020.23   3
 -10   2   1 1480.52 1023.97   1
  -9   2   1 11902.5 2865.08   1
  -8   2   1 1430.56 1052.22   1
  -7   2   1 772.508 728.504   1
  -6   2   1 4717.75 1578.32   1
  -5   2   1 6063.98 1667.39   1
  -4   2   1 304.496 358.057   1
  -3   2   1-57.5233 369.248   1
   2  -2  -1 6167.50 729.461   2
  -2   2   1 7698.80 1583.86   1
  -2  -2   1 7648.39 1990.02   2
   2   2  -1 7703.48 940.088   1
   1  -2  -1 25467.2 961.124   2
  -1  -2   1 19930.8 2692.53   2
  -1   2   1 25492.1 2783.25   1
   0   2   1 3533.86 1019.48   1
   0  -2   1 3691.26 820.196   2
   1  -2   1 2582.85 557.969   2
   1   2   1 1315.06 559.865   2
   1   2   1 1659.89 716.486   1
   2  -2   1 8892.19 1087.28   2
   3  -2   1 16124.9 1677.81   2
   4  -2   1 615.704 396.963   2
   5  -2   1 229.474 254.085   2
   6  -2   1 39.1999 249.400   2
   7  -2   1 11557.8 2101.87   2
   8  -2   1 12105.0 2282.95   2
   9  -2   1 1505.40 1010.64   2
  10  -2   1 558.941 693.339   2
  10  -2   1 1261.53 669.798   3
  11  -2   1 1456.87 679.536   3
  11  -3  -1 892.189 676.845   2
 -10   3   1 196.555 321.801   1
  10  -3  -1 455.990 511.612   2
  -9   3   1 14888.6 3566.76   1
  -8   3   1 118.122 441.545   1
  -7   3   1 214.947 337.146   1
   6  -3  -1 31919.4 2884.69   2
  -6   3   1 34810.2 4654.09   1
   5  -3  -1 1287.44 535.589   2
  -5   3   1 628.770 592.016   1
  -4   3   1 18806.9 3159.63   1
   4  -3  -1 14821.8 1628.04   2
   3  -3  -1 1751.34 454.310   2
  -3   3   1 1841.54 915.792   1
  -3  -3   1 348.440 503.814   2
   3   3  -1 1896.86 662.664   1
  -2   3   1 4795.82 1519.96   1
   2   3  -1 5253.31 1071.64   1
   2  -3  -1 5897.22 697.264   2
  -2  -3   1 6538.43 2196.60   2
   1   3  -1 33830.7 2989.71   1
   1  -3  -1 26316.3 1594.71   2
  -1   3   1 29734.1 3570.18   1
  -1  -3   1 25040.3 3392.09   2
   0   3   1 17191.4 2667.24   1
   0  -3   1 14871.8 2055.63   2
   0  -3  -1 14956.1 1805.91   2
   0   3   1 16599.0 957.722   2
   1   3   1 355.282 364.411   1
   1   3   1-84.3840 130.194   2
   1  -3   1 284.643 253.086   2
   2  -3   1 1141.24 491.228   2
   3  -3   1 8071.12 1264.37   2
   4  -3   1 10472.6 1568.54   2
   5  -3   1 4965.50 1171.81   2
   6  -3   1 3883.00 1127.04   2
   7  -3   1 1458.93 818.905   2
   8  -3   1-186.243 440.512   2
   9  -3   1 747.945 728.963   2
  10  -3   1 1249.86 1142.03   2
 -11   3  -1 1251.82 1125.64   1
 -10   4   1 1371.36 1235.68   1
  10  -4  -1 1621.06 1068.29   2
   9  -4  -1 371.427 489.656   2
  -9   4   1 1022.00 999.156   1
  -8   4   1 1393.49 1191.73   1
   8  -4  -1-33.8851 183.856   2
  -7   4   1 377.379 344.410   1
   7  -4  -1 1796.49 855.133   2
  -6   4   1 8987.27 2654.66   1
   6  -4  -1 7416.54 1377.02   2
   5  -4  -1 1253.29 412.336   2
  -5   4   1 1875.72 1030.05   1
  -4   4   1 121.797 436.274   1
   4  -4  -1 245.088 198.110   2
   3   4  -1 1259.13 688.291   1
   3  -4  -1 1590.06 506.257   2
  -3   4   1 774.188 613.569   1
   2   4  -1 2032.55 858.229   1
  -2   4   1 2432.30 1268.87   1
   2  -4  -1 1564.30 469.739   2
  -2  -4   1 1739.38 1412.64   2
   1   4  -1 107.392 288.887   1
   1  -4  -1 346.148 308.926   2
  -1   4   1 278.843 630.547   1
  -1  -4   1 108.063 757.531   2
   0  -4   1 7416.51 1861.62   2
   0  -4  -1 7145.16 1527.95   2
   0   4   1 9800.44 2341.83   1
   0   4  -1 11379.8 2206.18   1
   0   4   1 10872.1 960.703   2
   1   4   1 534.432 615.165   1
   1  -4   1 407.572 338.992   2
   2  -4   1 5292.77 1147.18   2
   2   4   1 3273.25 1291.67   1
   3  -4   1 4219.10 1012.44   2
   4  -4   1 21307.1 2368.41   2
   5  -4   1 8339.76 1649.73   2
   6  -4   1 313.155 363.686   2
   7  -4   1 6663.65 1652.20   2
   8  -4   1-302.972 632.201   2
  -9   4  -1 6324.29 2585.38   1
   9  -4   1 2187.53 1117.76   2
  -8   5   1 2240.19 1664.61   1
  -7   5   1 1215.65 1187.55   1
  -6   5   1 218.495 507.736   1
  -5   5   1 1115.56 1071.98   1
  -4   5   1 11109.6 3033.64   1
  -3   5   1 265.359 769.901   1
  -3  -5   1 4346.64 2119.54   2
   2   5  -1 1564.07 992.558   1
  -2   5   1 3099.40 1594.84   1
  -2  -5   1 1393.73 1085.31   2
  -1  -5   1 1300.84 1431.71   2
  -1   5   1 687.951 574.220   1
   1   5  -1 1315.36 919.967   1
   0   5   1 1409.56 1139.44   1
   0  -5   1-1822.69 1548.96   2
   0   5  -1 337.161 712.243   1
   1   5   1 184.209 321.432   1
  -1   5  -1-189.937 64.7125   1
   2  -5   1 23704.9 2839.47   2
  -2   5  -1 23876.5 4011.56   1
   2   5   1 19515.9 3625.01   1
   3  -5   1 4772.38 1256.08   2
  -3   5  -1 7983.98 2392.27   1
  -4   5  -1 1255.66 1108.03   1
   4  -5   1 904.997 519.421   2
   5  -5   1 3040.19 1073.33   2
  -5   5  -1 3538.70 1784.78   1
  -6   5  -1 910.977 1083.45   1
   6  -5   1 1032.00 597.941   2
  -7   5  -1 2559.91 1821.42   1
   7  -5   1 1949.51 956.534   2
  -8   5  -1 531.163 1160.89   1
   8  -5   1 1443.11 1116.79   2
  -6   6   1 517.247 1104.71   1
  -5   6   1-23.0864 802.375   1
  -4   6   1 15400.2 4066.87   1
  -3   6   1 7304.27 2774.75   1
  -2   6   1 1669.57 1248.30   1
   1   6  -1 236.295 521.019   1
  -1   6   1-6.23795 75.0116   1
   0   6  -1 1186.37 881.013   1
   0   6   1 774.635 932.502   1
   1   6   1 767.990 748.751   1
  -1   6  -1 2339.97 1387.01   1
   2   6   1 3496.59 1766.07   1
  -2   6  -1 4121.77 1998.68   1
  -3   6  -1 967.427 1018.07   1
  -4   6  -1 293.239 614.003   1
  -5   6  -1 5904.27 2442.58   1
  -6   6  -1 514.075 902.185   1
  -4   7   1 4195.27 2490.01   1
  -3   7   1 930.077 1135.71   1
  -2   7   1 1769.74 1434.40   1
  -1   7   1 1253.54 1230.98   1
   0   7   1 270.200 325.387   1
   0   7  -1 1246.91 1279.76   1
  -1   7  -1 6415.07 2478.37   1
  -2   7  -1 2111.91 1450.87   1
  -3   7  -1 412.795 710.450   1
  -4   7  -1-139.242 665.488   1
  11   0  -2 7081.99 1410.02   3
  10   0  -2 11906.1 1698.68   3
   9   0  -2 80.6352 130.921   3
   8   0  -2 2651.84 694.479   3
  -8   0   2 3133.30 1153.58   1
  -7   0   2 8444.38 1725.07   1
   7   0  -2 7703.15 1088.14   3
  -6   0   2 64889.1 4480.36   1
   6   0  -2 64580.0 2900.60   3
   5   0  -2 2392.63 521.983   3
  -5   0   2 1737.95 690.888   1
  -4   0   2 1615.87 631.319   1
   4   0  -2 1900.94 448.330   3
  -3   0   2 1781.54 596.925   1
   3   0  -2 2828.30 734.738   1
   3   0  -2 2530.30 401.754   3
   2   0  -2 358802. 8450.70   1
   2   0  -2 355020. 3904.51   3
  -2   0   2 361522. 11580.6   2
   2   0  -2 356840. 11295.0   2
   1   0  -2 178239. 2057.72   3
   1   0  -2 176582. 4735.07   2
  -1   0   2 178996. 6200.96   2
   0   0  -2 65970.4 2313.08   2
   0   0   2 64467.0 2346.81   2
   1   0   2 17690.3 502.018   3
  -1   0  -2 18041.8 1312.68   2
   1   0   2 18814.8 1335.96   2
   2   0   2 1108.20 422.428   2
   2   0   2 619.251 166.477   3
   3   0   2 1561.15 317.164   3
   3   0   2 1639.30 518.817   2
   4   0   2 2476.00 462.542   3
   5   0   2 2228.53 470.990   3
   6   0   2 926.486 357.304   3
   7   0   2 8845.55 1150.37   3
   8   0   2 55.0586 152.584   3
   9   0   2 836.485 412.421   3
  10   0   2 383.555 263.715   3
  11   0   2 10175.5 1616.29   3
  11   1  -2 17.8666 135.707   3
  11  -1  -2 1487.40 665.903   3
  10  -1  -2 501.850 407.666   3
  10   1  -2-134.767 338.459   3
  -9   1   2 1005.83 796.257   1
   9  -1  -2 1257.55 644.687   3
   9   1  -2 188.384 117.662   3
   8  -1  -2 767.616 594.997   3
  -8   1   2 102.328 627.929   1
   8   1  -2 52.4033 196.178   3
  -7   1   2 578.334 499.793   1
   7   1  -2-92.4155 304.003   3
  -7  -1   2 139.402 180.398   1
   6   1  -2 461.056 142.259   3
  -6   1   2 437.175 486.690   1
  -6  -1   2 422.113 275.099   1
   5   1  -2 795.388 158.283   3
  -5   1   2 719.216 437.632   1
   4   1  -2 557.892 205.846   3
  -4   1   2 384.798 410.723   1
  -3  -1   2 365.828 326.642   2
   3   1  -2 385.655 232.390   1
  -3   1   2 887.359 575.253   1
  -2   1   2 205667. 7927.97   1
   2  -1  -2 205242. 7501.72   2
  -2  -1   2 187336. 9627.91   2
  -1  -1   2 139251. 6015.85   2
   1  -1  -2 148448. 3347.07   2
  -1   1   2 133161. 4943.34   2
  -1   1   2 138058. 6486.24   1
   0  -1  -2 9585.55 689.967   2
   0   1   2 9827.04 697.358   2
   0  -1   2 9558.61 1168.17   2
   1  -1   2 90.8970 209.091   2
   1   1   2 195.206 142.286   2
  -2  -1  -2 3589.59 395.659   3
   2  -1   2 3441.07 706.874   2
   3  -1   2 20141.3 1937.11   2
   4  -1   2 694.841 453.653   2
   5   1   2 3725.36 602.859   3
   5  -1   2 3659.72 980.837   2
   6  -1   2 15650.4 2233.02   2
   6   1   2 16245.2 1422.07   3
   7  -1   2 39753.6 3828.75   2
   7   1   2 36038.1 2325.70   3
   8   1   2 61.6100 102.214   3
   8  -1   2 1052.76 504.521   3
   8  -1   2 965.508 693.557   2
   9  -1   2 540.474 454.443   3
   9  -1   2 6.59776 345.882   2
  10  -1   2 1132.29 554.504   3
  10  -1   2-430.730 345.614   2
  11  -1   2 3837.41 1027.62   3
  11  -2  -2 790.919 627.797   3
 -10   2   2 13578.2 3346.04   1
  -9   2   2 712.747 829.213   1
  -8   2   2 1679.18 1036.89   1
  -7   2   2 17102.9 3185.09   1
  -6   2   2 2715.66 1154.89   1
  -5   2   2 938.393 753.744   1
  -4   2   2 3698.67 1279.58   1
  -4  -2   2 6380.59 2416.28   2
  -3  -2   2 15829.9 3326.07   2
  -3   2   2 14393.7 2520.59   1
  -2   2   2 16551.0 2608.95   1
   2  -2  -2 12845.5 1604.18   2
  -2  -2   2 14975.3 2958.75   2
  -1   2   2 2645.63 1069.52   1
  -1  -2   2 1802.24 843.756   2
   0   2   2 125.094 416.129   1
   0  -2   2 16.4385 191.634   2
   1  -2   2-9.33997 215.263   2
   2  -2   2 58508.0 3231.85   2
   3  -2   2 32973.0 2611.03   2
   4  -2   2-119.936 187.424   2
   5  -2   2 829.913 518.098   2
   6  -2   2 7181.28 1527.92   2
   7  -2   2 1488.74 793.826   2
   8  -2   2 3662.69 1374.05   2
   9  -2   2 166.405 602.035   2
  10  -2   2 640.217 812.067   2
  10  -2   2 913.074 589.949   3
  11  -2   2 2037.25 815.418   3
 -10   3   2 8172.41 2894.80   1
  -9   3   2 4862.34 2160.46   1
  -8   3   2-125.748 171.443   1
  -7   3   2 16454.5 3455.88   1
  -6   3   2 15494.4 3218.34   1
  -5   3   2 3501.35 1501.48   1
  -4   3   2 1557.22 1289.39   1
   4   3  -2 151.944 160.050   1
   3  -3  -2 4490.52 664.211   2
  -3   3   2 4086.62 1529.51   1
   3   3  -2 4739.09 898.423   1
  -3  -3   2 7006.70 2648.29   2
  -2  -3   2 1767.19 1187.44   2
  -2   3   2 1362.92 893.380   1
   2  -3  -2 1087.79 229.640   2
  -1   3   2 27882.7 3803.06   1
  -1  -3   2 21671.2 3326.12   2
   0  -3   2-107.906 234.847   2
   0   3   2 519.585 622.375   1
   1  -3   2 1321.80 637.212   2
   1   3   2 286.473 382.286   2
   2  -3   2-190.533 288.951   2
   3  -3   2 3756.35 959.905   2
   4  -3   2 363.111 432.100   2
   5  -3   2-180.634 260.352   2
   6  -3   2 2620.83 956.048   2
   7  -3   2-329.979 386.995   2
   8  -3   2 788.399 514.010   2
   9  -3   2 791.643 729.627   2
 -10   4   2 765.409 1060.23   1
  -9   4   2 666.340 844.268   1
  -8   4   2 1883.05 1529.54   1
  -7   4   2 4603.75 1997.32   1
   7  -4  -2 4339.42 1132.25   2
  -6   4   2 23.1697 573.024   1
   6  -4  -2 1097.79 566.846   2
  -5   4   2 8658.15 2645.55   1
   5  -4  -2 5659.38 1004.30   2
  -4  -4   2-327.199 955.199   2
  -4   4   2 977.124 1233.42   1
   4  -4  -2 669.841 351.258   2
   3  -4  -2 100.707 122.497   2
  -3   4   2-60.6863 395.410   1
   3   4  -2 28.6655 105.862   1
  -2   4   2 10.2055 220.399   1
  -2  -4   2 446.291 856.170   2
   2  -4  -2 143.212 170.082   2
   2   4  -2 79.4614 340.776   1
  -1  -4   2 3686.71 1636.96   2
  -1   4   2 6160.21 2018.19   1
   0  -4   2 3436.92 1124.98   2
   0   4   2 3875.19 1584.31   1
   1  -4   2 9972.29 1854.76   2
   1   4   2 9834.48 2495.94   1
   1   4   2 8970.14 860.731   2
   2  -4   2 6044.44 1345.72   2
   3  -4   2 13144.4 1961.24   2
   4  -4   2 20429.8 2511.07   2
   5  -4   2 2329.71 931.710   2
   6  -4   2 5287.02 1425.16   2
   7  -4   2-259.484 654.752   2
   8  -4   2 305.463 308.983   2
   9  -4   2 1827.60 1012.00   2
  -9   5   2 1872.17 1619.71   1
  -8   5   2 1516.94 1332.76   1
  -7   5   2 4804.66 2317.51   1
  -6   5   2-65.8112 465.465   1
  -5   5   2 1194.52 1109.64   1
  -4  -5   2 3075.12 2260.62   2
  -4   5   2 914.951 1078.53   1
  -3   5   2 1504.37 1244.94   1
  -3  -5   2 1907.57 1280.03   2
  -2   5   2 863.628 833.978   1
   2   5  -2 511.351 678.732   1
  -2  -5   2 2608.23 1958.63   2
  -1   5   2 64.0239 198.303   1
  -1  -5   2-105.193 609.749   2
   1   5  -2 383.409 484.336   1
   0  -5   2 454.752 611.147   2
   0   5  -2 704.146 640.133   1
   0   5   2 184.116 458.620   1
   1   5   2 10186.5 2810.96   1
   1  -5   2 9202.02 2489.15   2
   2  -5   2 15310.1 2603.74   2
   3  -5   2 8738.98 1822.27   2
   4  -5   2 7228.07 1701.57   2
   5  -5   2 47.0193 354.985   2
   6  -5   2 410.495 319.402   2
   7  -5   2 807.624 620.474   2
   8  -5   2 5148.96 1692.13   2
  -6   6   2-256.933 568.176   1
  -5   6   2 12888.7 3931.57   1
  -4   6   2 2263.37 1627.57   1
  -3   6   2 3906.22 2035.75   1
  -2   6   2 19.4133 207.956   1
  -1   6   2 232.106 58.0414   1
   1   6  -2-94.3018 472.505   1
   0   6   2 917.311 1221.72   1
   0   6  -2 1906.17 1197.63   1
  -1   6  -2 2957.37 1504.88   1
   1   6   2 868.527 1022.54   1
  -2   6  -2 709.873 586.504   1
  -3   6  -2 2113.99 1454.59   1
  -4   6  -2 1049.25 1059.42   1
  -5   6  -2 245.443 592.295   1
  -4   7   2 1971.72 1641.14   1
  -3   7   2 717.286 837.762   1
  -2   7   2 1612.29 1639.44   1
  -1   7   2 1725.95 1393.75   1
   0   7  -2 121.142 177.825   1
   0   7   2-664.017 892.991   1
  -1   7  -2 2468.48 1510.95   1
  -2   7  -2 485.747 529.375   1
  -3   7  -2 1248.40 1126.94   1
  11   0  -3-627.480 407.408   3
  10   0  -3-313.406 351.639   3
   9   0  -3 15.3497 78.8090   3
   8   0  -3 81.3295 223.722   3
  -8   0   3 221.165 392.751   1
   7   0  -3 260.761 236.736   3
  -7   0   3-202.561 155.880   1
  -6   0   3-110.063 122.642   1
   6   0  -3-19.4386 119.896   3
   5   0  -3 158.583 200.985   3
  -5   0   3 238.340 277.414   1
   4   0  -3 159.408 230.334   3
  -3   0   3-361.856 553.798   2
   3   0  -3 93.9169 131.976   3
   2   0  -3 183.459 119.323   3
  -2   0   3-646.514 932.194   2
   1   0  -3-19.7248 42.2343   3
  -1   0   3 163.517 369.549   2
   0   0   3 613.956 351.483   2
   1   0   3 6.43012 61.6571   2
   2   0   3-4.79681 52.2092   3
   2   0   3 155.616 252.616   2
   3   0   3 109.885 114.124   3
   3   0   3-334.293 236.769   2
   4   0   3 124.441 154.368   3
   4   0   3-175.675 352.162   2
   5   0   3 74.8559 44.4819   3
   5   0   3-112.052 387.601   2
   6   0   3-107.052 238.956   2
   6   0   3 36.7104 113.261   3
   7   0   3 56.7581 165.640   3
   7   0   3 124.642 265.331   2
   8   0   3 110.881 201.752   3
   8   0   3 338.418 436.072   2
   9   0   3-75.8012 360.403   3
   9   0   3-40.6292 503.906   2
  10   0   3-8.59904 245.748   3
  10   0   3 744.629 900.032   2
  11  -1  -3 2286.88 897.922   3
  11   1  -3 871.239 585.924   3
  10   1  -3-166.325 275.803   3
  10  -1  -3 181.954 395.808   3
   9   1  -3-191.372 275.244   3
   9  -1  -3 473.519 504.065   3
  -9   1   3-212.389 246.219   1
   8   1  -3-295.249 318.326   3
   8  -1  -3 1186.21 669.130   3
  -8   1   3 257.067 585.037   1
   7   1  -3 2311.24 545.001   3
  -7   1   3 2259.51 1154.16   1
   6   1  -3 1738.72 445.381   3
  -6   1   3 2370.27 1142.99   1
  -5   1   3 2963.73 1208.96   1
   5   1  -3 1859.96 442.011   3
   5   1  -3 2214.81 586.161   1
  -4  -1   3 5438.48 1978.57   2
   4   1  -3 6198.79 1096.76   1
   4   1  -3 5689.84 722.118   3
  -4   1   3 5551.54 1611.86   1
  -3   1   3 8518.27 1966.02   1
  -3  -1   3 10270.8 2592.72   2
   2  -1  -3 81785.7 4258.49   2
  -2  -1   3 76321.5 6323.65   2
  -2   1   3 73373.2 5138.72   2
   1  -1  -3 1412.14 329.571   2
  -1  -1   3 2721.04 943.332   2
  -1   1   3 2660.11 822.503   2
   0   1   3 1220.35 381.947   2
   0  -1   3 857.350 393.640   2
   0  -1  -3 1244.55 354.189   2
   1  -1   3 16940.6 1686.29   2
   1   1   3 18164.9 1443.06   2
  -2  -1  -3 46844.7 1345.43   3
   2   1   3 44800.9 2526.85   2
   2  -1   3 46571.5 2981.38   2
   3   1   3 223.521 360.437   2
   3  -1   3 550.870 299.307   2
   4   1   3-178.860 246.746   2
   4  -1   3 278.043 234.957   2
   5  -1   3 3374.42 1028.90   2
   6  -1   3 21931.5 2790.29   2
   7  -1   3 730.784 409.103   3
   7  -1   3-272.372 509.843   2
   8  -1   3 388.767 383.969   3
   8  -1   3-213.255 536.666   2
   9  -1   3 960.367 474.035   3
   9   1   3-332.923 178.820   2
   9  -1   3 647.803 531.412   2
  10  -1   3 2433.61 768.584   3
  10   1   3 5050.07 1720.41   2
  10  -1   3 2654.66 1363.21   2
  11  -2  -3 2049.56 896.210   3
  10  -2  -3 2066.29 794.140   3
  -9   2   3 263.793 46.6634   1
  -8   2   3 8358.41 2489.20   1
  -7   2   3 13941.3 3134.65   1
  -6   2   3 946.602 954.035   1
  -5   2   3 192.122 517.546   1
  -4   2   3 174.000 538.792   1
  -4  -2   3-412.107 362.231   2
  -3   2   3 47835.0 5049.81   1
   3  -2  -3 42416.6 4080.30   2
  -3  -2   3 45912.1 6178.47   2
  -2   2   3 31054.2 4083.53   1
   2  -2  -3 33389.4 1997.19   2
  -2  -2   3 32803.1 4626.84   2
  -1   2   3 2349.78 683.110   2
  -1  -2   3 619.095 703.390   2
   1  -2  -3 1901.86 302.285   2
   0   2   3 2483.27 413.323   2
   0  -2   3 1095.34 506.189   2
   1   2   3 12891.3 1044.74   2
   1  -2   3 11566.8 1577.83   2
   2  -2   3 5124.62 1095.89   2
   2   2   3 4834.41 810.957   2
   3  -2   3 8881.86 1481.56   2
   4  -2   3 1453.28 663.114   2
   5  -2   3 195.947 507.025   2
   6  -2   3 12281.2 2082.41   2
   7  -2   3 1573.02 947.572   2
   8  -2   3-587.151 601.841   2
   9  -2   3 1457.59 634.815   3
   9  -2   3 923.440 925.101   2
  10  -2   3 2397.01 884.180   3
 -10   3   3 7964.19 2925.29   1
  -9   3   3 1690.41 1164.25   1
  -8   3   3 9861.48 2978.21   1
  -7   3   3 2518.42 1503.14   1
  -6   3   3 7603.19 2457.62   1
  -5  -3   3-906.050 844.989   2
  -5   3   3 456.162 524.925   1
  -4  -3   3-1087.50 1438.05   2
  -4   3   3 142.377 443.799   1
  -3   3   3 8473.75 2467.96   1
   3  -3  -3 5891.19 1383.46   2
  -3  -3   3 7537.49 2850.36   2
  -2  -3   3-118.096 826.615   2
  -2   3   3 1511.75 1093.28   1
  -1   3   3 5028.88 1814.53   1
  -1  -3   3 5670.60 1694.34   2
   0  -3   3 1507.53 680.994   2
   1  -3   3 1513.44 610.175   2
   1   3   3 688.171 515.805   2
   1   3   3 1650.98 322.514   2
   2  -3   3 961.352 543.026   2
   2   3   3 421.349 232.317   2
   3  -3   3 1575.82 703.962   2
   4  -3   3 1254.47 438.130   2
   5  -3   3 2552.69 992.707   2
   6  -3   3 1859.23 753.043   2
   7  -3   3 2109.21 1199.69   2
   8  -3   3 1369.14 1101.60   2
   9  -3   3 1442.24 852.468   2
 -10   4   3 1322.88 1281.22   1
  -9   4   3-70.2579 677.966   1
  -8   4   3 1616.85 1514.49   1
  -7   4   3 629.225 797.804   1
  -6   4   3 5669.14 2471.42   1
  -5  -4   3 217.095 1115.70   2
  -5   4   3 1518.45 1201.61   1
  -4  -4   3-486.892 1357.97   2
  -4   4   3 735.067 870.546   1
  -3   4   3 287.014 400.037   1
  -3  -4   3-857.896 1109.60   2
  -2   4   3 11548.1 2987.24   1
  -2  -4   3 9205.73 3196.99   2
  -1   4   3 563.295 610.606   1
  -1  -4   3 1768.74 1295.25   2
   0  -4   3 1764.94 1507.65   2
   0   4   3 2272.40 1300.33   1
   1  -4   3 25491.5 3420.67   2
   2  -4   3 4385.91 1342.26   2
   3  -4   3 15623.7 2355.83   2
   4  -4   3 796.309 576.067   2
   5  -4   3 3224.66 1173.00   2
   6  -4   3 2760.46 1248.40   2
   7  -4   3 3170.69 1263.46   2
   8  -4   3 775.711 450.921   2
  -8   5   3 2901.22 2060.50   1
  -7   5   3 1006.52 1078.20   1
  -6   5   3 800.902 983.304   1
  -5  -5   3 6210.70 3438.45   2
  -5   5   3 710.026 1133.07   1
  -4  -5   3 4123.79 2934.25   2
  -4   5   3 2952.19 1741.35   1
  -3   5   3 346.659 875.666   1
  -3  -5   3-939.591 404.939   2
   2   5  -3 614.248 598.620   1
  -2   5   3 1941.68 1381.94   1
  -2  -5   3 2412.11 1918.54   2
  -1   5   3 53.0085 542.879   1
  -1  -5   3-60.2517 946.855   2
   0   5   3 6841.28 2611.56   1
   0  -5   3 6811.51 2342.47   2
   1  -5   3 5397.47 1827.01   2
   2  -5   3 2076.16 1246.11   2
   3  -5   3 16783.5 2717.70   2
   4  -5   3 1866.90 1063.75   2
   5  -5   3 944.263 691.671   2
   6  -5   3 180.183 690.299   2
   7  -5   3 2748.05 1214.96   2
  -6   6   3 7277.96 3208.26   1
  -5   6   3 3499.14 2106.88   1
  -4   6   3 537.776 713.618   1
  -4  -6   3 502.118 794.003   2
  -3  -6   3 373.599 1336.85   2
  -3   6   3 1608.05 1323.83   1
  -2  -6   3 2626.38 1944.55   2
  -2   6   3 800.890 1159.07   1
  -1  -6   3-921.953 2290.87   2
  -1   6   3 538.261 777.543   1
   1   6  -3 253.985 504.519   1
   0   6   3-101.394 206.787   1
   0  -6   3 186.460 127.891   2
   1  -6   3 2521.68 1709.89   2
   2  -6   3 1942.90 1342.90   2
   3  -6   3 2385.87 1263.84   2
   4  -6   3 192.429 369.927   2
  -3   7   3-259.493 607.590   1
  -2   7   3-344.969 1008.76   1
  -1   7   3 1728.16 1701.35   1
  -1   7  -3-673.986 789.179   1
  -2   7  -3 55.8125 337.082   1
  -3   7  -3 1041.61 854.124   1
  11   0  -4-62.8150 226.912   3
  10   0  -4-23.7172 208.652   3
   9   0  -4 407.492 262.530   3
   8   0  -4 6217.71 1098.64   3
   7   0  -4 7342.57 1091.13   3
   6   0  -4 2189.22 547.053   3
   5   0  -4 149.543 216.351   3
  -4   0   4 3289.93 1543.54   2
   4   0  -4 1436.95 377.012   3
   3   0  -4 1522.65 323.319   3
  -3   0   4 1687.38 1180.88   2
   2   0  -4 3981.50 431.214   3
  -2   0   4 3581.25 1243.31   2
  -1   0   4 5020.51 1161.33   2
   0   0   4 284.478 248.435   2
   1   0   4 9389.39 1331.02   2
   2   0   4 3611.76 844.745   2
   3   0   4 4906.10 467.021   3
   3   0   4 3602.57 899.038   2
   4   0   4 1270.71 294.480   3
   4   0   4 908.704 518.071   2
   5   0   4 96603.3 2965.34   3
   5   0   4 95673.6 5544.95   2
   6   0   4 10038.0 1062.74   3
   6   0   4 12163.7 2115.09   2
   7   0   4 2428.44 1162.67   2
   7   0   4 1556.76 441.672   3
   8   0   4 1942.72 1061.89   2
   9   0   4 6219.20 2006.04   2
  11   1  -4 1166.38 459.714   3
  11  -1  -4 2518.95 851.942   3
  10   1  -4 780.058 371.630   3
  10  -1  -4 1830.45 736.613   3
   9   1  -4 1491.62 668.332   3
   9  -1  -4 477.285 400.254   3
   8  -1  -4 20084.0 1973.38   3
   8   1  -4 17941.3 1851.70   3
  -8   1   4 18534.3 3555.45   1
  -7   1   4 1715.74 1099.81   1
   7   1  -4 1890.99 541.820   3
   7  -1  -4 2459.49 700.068   3
   6   1  -4-27.6622 161.803   3
  -6   1   4-115.358 286.191   1
  -5  -1   4-1172.30 1828.86   2
   5   1  -4 329.175 51.7049   3
  -5   1   4 261.383 622.916   1
  -4  -1   4 52176.4 6889.32   2
  -3  -1   4 95948.3 8918.01   2
  -3   1   4 91993.6 7342.07   2
  -2  -1   4 1612.39 1191.40   2
  -2   1   4 859.626 404.138   2
  -1  -1   4 2150.23 302.196   3
  -1  -1   4 1783.98 862.845   2
  -1   1   4 2737.66 835.799   2
   0   1   4 25985.4 2032.14   2
   0  -1   4 26201.5 2531.94   2
   1  -1   4 7239.07 1277.58   2
  -1  -1  -4 7873.88 394.367   3
   1   1   4 7483.88 1079.60   2
   2   1   4 542.250 302.033   2
   2  -1   4 598.022 481.317   2
   3   1   4 616.901 245.945   2
   3  -1   4 1495.23 691.862   2
   4   1   4 1610.29 651.700   2
   4  -1   4 3630.18 1049.07   2
   5   1   4 16945.4 2313.67   2
   5  -1   4 16243.4 2373.19   2
   6  -1   4 1539.35 487.330   3
   6   1   4 1260.90 792.324   2
   6  -1   4 1390.43 784.763   2
   7  -1   4 1813.11 557.282   3
   7   1   4 2755.60 1054.30   2
   7  -1   4 1560.56 1051.68   2
   8   1   4 1773.91 1041.07   2
   8  -1   4 921.984 752.018   2
   9   1   4 319.750 756.568   2
   9  -1   4 481.639 681.994   2
  11  -2  -4 720.951 543.350   3
  10  -2  -4 1719.82 725.224   3
  -9   2   4 8765.08 2804.41   1
  -8   2   4 8510.44 2677.89   1
  -7   2   4 320.972 629.926   1
  -6   2   4 286.525 653.583   1
  -5   2   4 1734.42 1110.64   1
  -5  -2   4 1488.39 1388.80   2
  -4   2   4 1742.50 1142.70   1
  -4  -2   4 1295.13 1348.93   2
  -3  -2   4 33879.0 5568.14   2
  -2   2   4 1356.10 834.055   2
   2  -2  -4 2153.54 481.187   2
  -2  -2   4 1222.74 1251.59   2
  -1  -2   4 1952.25 1241.45   2
  -1   2   4 1002.67 462.087   2
   1  -2  -4 1281.98 353.535   2
   0   2   4 1413.86 395.721   2
   0  -2   4 702.371 562.220   2
   1   2   4 38149.2 2163.53   2
   1  -2   4 33122.7 3118.12   2
   2  -2   4 2879.45 966.276   2
   2   2   4 2290.07 606.708   2
   3   2   4 534.122 285.010   2
   3  -2   4 1694.50 758.257   2
   4   2   4 1243.32 642.604   2
   4  -2   4 739.799 497.791   2
   5   2   4 933.075 658.787   2
   5  -2   4 2690.98 1088.02   2
   6   2   4 3641.95 1123.63   2
   6  -2   4 5264.65 1498.26   2
   7   2   4 143.082 352.176   2
   7  -2   4-286.921 381.717   2
   8   2   4-313.578 350.603   2
   8  -2   4-1251.36 709.431   2
   9   2   4 123.075 440.370   2
   9  -2   4 1900.84 1192.20   2
 -10   3   4 299.303 810.777   1
  -9   3   4 2751.33 1794.36   1
  -8   3   4 3985.57 2065.89   1
  -7   3   4 1100.61 1198.50   1
  -6   3   4 248.102 696.755   1
  -5  -3   4-151.744 1174.76   2
  -5   3   4 155.440 538.377   1
  -4  -3   4 1116.56 1667.37   2
  -4   3   4-255.353 436.052   1
  -3   3   4 286.992 902.571   1
  -3  -3   4-370.238 312.234   2
  -2  -3   4-558.707 882.784   2
  -1  -3   4 791.239 1240.22   2
   0  -3   4 7757.43 1838.67   2
   0   3   4 6088.67 906.827   2
   1  -3   4 5702.70 1447.09   2
   1   3   4 7130.36 803.130   2
   2  -3   4 1645.62 805.190   2
   2   3   4 1338.16 336.907   2
   3  -3   4 668.472 528.047   2
   3   3   4 46.9991 211.960   2
   4  -3   4 4633.95 1312.98   2
   4   3   4 3045.32 800.889   2
   5   3   4 1017.51 558.706   2
   5  -3   4 1145.62 729.687   2
   6   3   4 2582.94 1045.82   2
   6  -3   4 2230.25 975.585   2
   7   3   4-185.086 302.080   2
   7  -3   4 155.860 298.568   2
   8   3   4 544.497 593.152   2
   8  -3   4 1266.08 721.853   2
   9   3   4 1685.93 830.708   2
 -10   4   4 2512.33 1996.28   1
  -9   4   4-911.768 1050.09   1
  -8   4   4 1929.92 1577.73   1
  -7   4   4 6320.02 2915.41   1
  -6   4   4 1453.14 1610.54   1
  -5  -4   4 2602.69 1359.03   2
  -5   4   4 573.878 955.107   1
  -4   4   4 2036.72 1542.15   1
  -4  -4   4 3868.74 2429.48   2
  -3   4   4 4843.43 2188.88   1
  -3  -4   4 2633.61 2295.59   2
  -2  -4   4 7113.35 2493.70   2
  -2   4   4 10749.5 3202.77   1
  -1  -4   4 4662.45 2057.30   2
   0  -4   4 26307.8 4210.42   2
   1  -4   4 3221.03 1193.95   2
   2  -4   4 3251.60 1007.49   2
   3  -4   4 989.783 747.383   2
   4  -4   4 4097.63 1447.73   2
   5  -4   4 1349.40 857.170   2
   6  -4   4-321.904 364.639   2
   7  -4   4 1994.35 932.669   2
  -8   5   4-242.995 577.410   1
  -7   5   4 3887.34 2256.33   1
  -6   5   4 237.401 562.545   1
  -5  -5   4 4085.27 3278.08   2
  -5   5   4 213.821 545.210   1
  -4   5   4 3932.91 2135.95   1
  -4  -5   4 3535.24 3200.98   2
  -3   5   4 3725.33 2074.85   1
  -3  -5   4 1557.48 2495.40   2
  -2   5   4 841.850 843.385   1
  -2  -5   4 2870.66 1724.62   2
  -1  -5   4-437.229 517.640   2
   0  -5   4 6880.63 2343.93   2
   1  -5   4 3352.34 1620.44   2
   2  -5   4 17996.9 3129.05   2
   3  -5   4 10.3310 203.822   2
   4  -5   4 999.595 890.582   2
   5  -5   4 678.739 810.697   2
   6  -5   4-28.0886 234.471   2
  -6   6   4 6050.70 2981.33   1
  -5  -6   4 3618.12 1944.08   2
  -5   6   4 17.0030 769.681   1
  -4  -6   4 203.102 2048.83   2
  -4   6   4 278.799 609.103   1
  -3   6   4-82.0337 409.887   1
  -3  -6   4 1903.22 2135.74   2
  -2   6   4-975.414 1115.21   1
  -2  -6   4 3766.69 3018.41   2
  -1  -6   4-2966.27 2248.69   2
   0  -6   4 2181.24 1521.19   2
   1  -6   4 882.261 1592.32   2
   2  -6   4 5707.27 2302.53   2
   3  -6   4 808.489 842.767   2
   4  -6   4 2567.84 1311.23   2
   5  -6   4 1234.93 899.545   2
  -2   7   4 857.261 1133.33   1
  -1   7  -4 1232.82 1083.86   1
  -2   7  -4 630.510 888.440   1
  11   0  -5-130.840 425.484   3
  10   0  -5-225.667 235.175   3
   9   0  -5 164.858 143.662   3
   8   0  -5 0.31628 151.521   3
   7   0  -5 145.009 107.851   3
   6   0  -5 32.9472 136.785   3
  -5   0   5-1127.91 1901.75   2
   5   0  -5 230.280 168.604   3
   4   0  -5 51.7194 49.7008   3
  -4   0   5-382.067 668.375   2
   3   0  -5-71.5822 48.8492   3
  -3   0   5 529.506 647.066   2
  -2   0   5-161.623 728.176   2
  -1   0   5 2035.23 1075.06   2
   0   0   5 191.509 371.409   2
   1   0   5 60.0281 178.395   2
   2   0   5-600.164 392.188   2
   3   0   5 480.422 401.797   2
   4   0   5-249.266 221.563   2
   5   0   5-583.939 439.222   2
   6   0   5 211.856 268.095   2
   7   0   5-9.37967 429.011   2
   8   0   5 182.330 302.904   2
  11  -1  -5 796.514 598.494   3
  10   1  -5 495.503 259.828   3
  10  -1  -5 1248.11 619.837   3
   9   1  -5 1914.27 646.368   3
   9  -1  -5 3137.99 867.933   3
   8   1  -5 1721.88 530.398   3
   8  -1  -5 2176.33 705.423   3
   7   1  -5-100.701 175.767   3
   7  -1  -5 478.270 391.536   3
   6   1  -5 11.0170 154.689   3
   6  -1  -5 431.963 314.557   3
  -5  -1   5 4496.88 2180.57   2
  -4   1   5 2493.11 1515.03   2
  -4  -1   5 4255.41 2439.43   2
  -3  -1   5-2517.41 2219.46   2
  -3   1   5 2450.70 1640.72   2
  -2  -1   5 412.647 689.972   2
  -2   1   5 240.307 716.161   2
  -1  -1   5 1876.43 980.026   2
  -1   1   5 2759.16 1076.93   2
  -1  -1   5 1787.25 273.259   3
   0  -1   5 24783.4 881.385   3
   0   1   5 23530.1 2314.49   2
   0  -1   5 18773.8 2465.75   2
   1   1   5 216.861 216.892   2
   1  -1   5 450.497 453.152   2
   2  -1   5 65.5399 168.014   2
   2   1   5 413.171 362.844   2
   3   1   5 530.068 537.906   2
   3  -1   5 1005.59 452.183   2
   4   1   5 26124.8 2751.39   2
   4  -1   5 28459.8 3148.49   2
   5   1   5 4576.75 1303.75   2
   5  -1   5 4900.91 1419.11   2
   6   1   5 991.050 437.463   2
   6  -1   5 813.723 63.1091   2
   7   1   5 1205.27 940.971   2
   7  -1   5 768.959 585.629   2
   8   1   5 1431.42 1114.39   2
   8  -1   5 2608.36 1200.80   2
   9   1   5 4118.87 1610.37   2
  10  -2  -5 1901.26 788.231   3
   9  -2  -5 18594.8 2110.67   3
  -9   2   5 15140.5 3917.31   1
  -8   2   5 2411.82 1649.77   1
  -7   2   5 603.905 969.116   1
  -6  -2   5 1061.73 955.283   2
  -6   2   5 2022.92 1466.11   1
  -5  -2   5 4608.52 2567.04   2
  -4  -2   5 45236.1 7293.97   2
  -3   2   5 1369.63 863.778   2
  -3  -2   5 670.972 1134.25   2
  -2  -2   5 1005.22 934.622   2
  -2   2   5 521.396 741.926   2
  -1  -2   5 2905.32 1508.77   2
  -1   2   5-444.272 140.374   2
   0   2   5 2979.83 795.376   2
   0  -2   5 3251.94 1253.27   2
   1   2   5 6769.75 1084.47   2
   1  -2   5 3278.04 1235.61   2
   2  -2   5 134.091 171.433   2
   2   2   5 921.984 590.348   2
   3  -2   5 1729.09 873.178   2
   3   2   5 2008.88 692.263   2
   4   2   5-269.496 514.586   2
   4  -2   5 183.626 537.859   2
   5   2   5 2482.06 959.567   2
   5  -2   5 1803.46 896.386   2
   6   2   5-349.795 105.096   2
   6  -2   5-182.306 138.357   2
   7   2   5 840.218 557.220   2
   7  -2   5 761.490 615.021   2
   8   2   5 828.184 772.115   2
   8  -2   5 73.5932 756.687   2
   9   2   5 1536.58 1092.56   2
 -10   3   5 611.448 1140.84   1
  -9   3   5 342.072 452.316   1
  -8   3   5 255.635 828.921   1
  -7   3   5 879.262 1085.95   1
  -6  -3   5-1946.05 2240.12   2
  -6   3   5 45.7207 619.570   1
  -5   3   5 1025.56 977.146   1
  -5  -3   5 1468.10 986.396   2
  -4  -3   5 6244.50 2938.73   2
  -3  -3   5-2437.83 2421.52   2
  -2  -3   5 913.934 1124.20   2
  -1  -3   5 26419.2 3996.52   2
   0  -3   5-628.270 787.191   2
   0   3   5 651.304 526.616   2
   1  -3   5 10152.2 2137.62   2
   1   3   5 8774.14 1097.53   2
   2  -3   5 439.116 340.677   2
   2   3   5 109.997 228.140   2
   3  -3   5 506.066 458.300   2
   3   3   5 841.232 581.531   2
   4  -3   5 6501.59 1787.62   2
   4   3   5 7547.63 1387.01   2
   5  -3   5 4142.56 1437.37   2
   5   3   5 3125.12 993.442   2
   6   3   5-444.376 249.128   2
   6  -3   5 320.552 772.073   2
   7  -3   5 973.195 909.993   2
 -10   4   5 1960.09 1661.78   1
  -9   4   5 1035.28 1369.43   1
  -8   4   5 3273.89 2137.72   1
  -7   4   5 1143.94 1020.23   1
  -6  -4   5 1950.14 2374.13   2
  -6   4   5-306.449 934.305   1
  -5  -4   5 4397.66 2892.46   2
  -5   4   5 1055.73 1156.57   1
  -4   4   5 1580.66 1467.25   1
  -4  -4   5 3879.04 2753.92   2
  -3  -4   5 319.476 371.299   2
  -2  -4   5 863.253 1279.70   2
  -1  -4   5 20806.6 4460.15   2
   0  -4   5 2865.02 1980.69   2
   1  -4   5 977.961 425.424   2
   2  -4   5 361.162 586.504   2
   3  -4   5 575.387 427.292   2
   4  -4   5 1432.63 961.157   2
   5  -4   5 936.208 546.115   2
   6  -4   5 67.5455 453.501   2
  -8   5   5 1882.03 1816.65   1
  -7   5   5 1797.97 1633.21   1
  -6  -5   5 2032.70 1452.07   2
  -6   5   5 338.127 897.577   1
  -5  -5   5 1231.85 1768.80   2
  -5   5   5-138.007 384.715   1
  -4   5   5 623.581 1171.14   1
  -4  -5   5 1496.38 1646.14   2
  -3  -5   5 905.329 983.753   2
  -2  -5   5 1787.10 890.824   2
  -1  -5   5 2627.25 1761.31   2
   0  -5   5 1086.75 1005.98   2
   1  -5   5 10687.4 2977.09   2
   2  -5   5 3446.31 1556.28   2
   3  -5   5 3019.71 1486.73   2
   4  -5   5-122.189 192.627   2
   5  -5   5 1215.48 1227.09   2
  -6  -6   5 10409.7 5745.63   2
  -5  -6   5 5018.21 3518.85   2
  -5   6   5 653.918 1000.92   1
  -4   6   5 903.563 1158.34   1
  -4  -6   5 4786.23 3065.03   2
  -3  -6   5 2622.00 2303.21   2
  -2  -6   5 6028.84 3165.69   2
  -1  -6   5 1632.66 704.193   2
   0  -6   5 173.615 749.297   2
   1  -6   5 6059.16 2871.19   2
   2  -6   5 3984.10 1907.46   2
   3  -6   5 993.116 1300.42   2
   4  -6   5 195.114 784.757   2
  11   0  -6 300.209 111.602   3
  10   0  -6 4613.09 1080.32   3
   9   0  -6 43.4903 230.311   3
   8   0  -6 504.806 189.746   3
   7   0  -6 1295.20 487.644   3
   6   0  -6 9513.65 1158.37   3
  -5   0   6 14631.9 4204.82   2
   5   0  -6 19562.3 1520.42   3
   4   0  -6 255.088 148.688   3
  -4   0   6 1387.06 1186.94   2
  -3   0   6-200.034 1286.80   2
  -2   0   6 2424.78 1466.06   2
  -1   0   6 43976.4 4638.22   2
   0   0   6 1500.99 785.341   2
   1   0   6-273.487 409.389   2
   2   0   6 1263.57 584.456   2
   3   0   6 67579.8 4752.34   2
   4   0   6 51574.3 4378.62   2
   5   0   6 4299.25 1312.53   2
   6   0   6 1190.22 849.916   2
   7   0   6 233.090 453.293   2
   8   0   6 4446.06 1669.72   2
  11  -1  -6-232.981 300.624   3
  10  -1  -6 18520.6 2174.44   3
   9  -1  -6 7648.93 1328.63   3
   8  -1  -6 546.295 375.714   3
   7  -1  -6 384.143 301.350   3
  -6  -1   6 1781.93 1842.68   2
   6  -1  -6 2905.53 693.954   3
  -5  -1   6 12392.4 4298.52   2
   5  -1  -6 10715.6 1142.24   3
  -4   1   6 2615.52 1853.55   2
   4  -1  -6 328.332 266.074   3
  -4  -1   6 912.953 1847.71   2
   3  -1  -6 766.542 270.806   3
  -3  -1   6 1442.33 1397.60   2
  -3   1   6 574.557 970.782   2
   2  -1  -6 4340.29 477.794   3
  -2  -1   6 5455.46 2009.03   2
  -2   1   6 3154.25 1363.84   2
   1  -1  -6 4075.44 304.964   3
  -1  -1   6 6247.62 1944.96   2
  -1   1   6 7689.25 1885.07   2
   0   1   6 441.178 530.707   2
   0  -1   6 875.895 533.029   2
   1   1   6-4.15239 441.716   2
   1  -1   6 251.695 543.135   2
   2   1   6-162.037 323.790   2
   2  -1   6 18.6471 311.198   2
   3  -1   6 2409.22 960.727   2
   3   1   6 1838.10 731.493   2
   4   1   6 3866.88 1145.73   2
   4  -1   6 4942.01 1426.04   2
   5   1   6 670.890 702.906   2
   5  -1   6 1082.76 868.672   2
   6   1   6-1.45842 602.527   2
   6  -1   6 1208.56 884.665   2
   7   1   6 1145.94 833.431   2
   7  -1   6 98.8485 519.344   2
   8   1   6 3945.05 1571.63   2
  10  -2  -6 3945.98 1047.10   3
   9  -2  -6 1165.03 727.926   3
  -6  -2   6 27.7137 1272.79   2
  -5  -2   6 19741.2 5537.73   2
  -4  -2   6 8575.29 3621.81   2
  -3   2   6 5372.38 2356.08   2
  -3  -2   6 4155.95 1736.74   2
  -2  -2   6 5464.55 2399.81   2
  -2   2   6 3513.84 1547.62   2
  -1  -2   6 186.085 814.207   2
  -1   2   6 522.288 204.167   2
   0  -2   6 2319.31 791.566   2
   0   2   6 3023.13 1033.50   2
   1   2   6 868.319 384.718   2
   1  -2   6 1016.34 668.317   2
   2   2   6 2343.41 816.275   2
   2  -2   6 1479.99 744.181   2
   3  -2   6 5967.73 1541.39   2
   3   2   6 6472.22 1397.24   2
   4  -2   6 1205.50 776.305   2
   4   2   6 1189.49 619.326   2
   5  -2   6 554.382 690.258   2
   5   2   6 646.680 566.508   2
   6   2   6 583.396 701.934   2
   6  -2   6 1189.97 975.379   2
   7   2   6 5351.84 1533.17   2
   7  -2   6 7321.10 2142.15   2
   8   2   6 1605.23 904.943   2
  -7  -3   6-2075.10 1576.02   2
  -6  -3   6 2475.14 2270.71   2
  -5  -3   6 8627.06 3328.50   2
  -4  -3   6 6886.18 3539.22   2
  -3  -3   6-1869.13 1779.03   2
  -2  -3   6 13769.0 3996.27   2
  -1  -3   6 18589.4 3596.57   2
   0  -3   6 5510.74 1883.57   2
   1  -3   6 1137.12 908.092   2
   2  -3   6 1524.52 824.984   2
   3  -3   6 1510.02 1033.55   2
   4  -3   6 5475.01 1751.15   2
   5  -3   6 2171.10 1235.09   2
   6  -3   6 3042.50 1307.34   2
  -9   4   6 1130.33 1367.72   1
  -8   4   6-109.471 603.838   1
  -7  -4   6 2494.08 2047.52   2
  -7   4   6 413.942 633.428   1
  -6  -4   6 3797.38 3109.57   2
  -5  -4   6-1506.59 802.482   2
  -4  -4   6 2497.75 2755.35   2
  -3  -4   6-927.311 1808.21   2
  -2  -4   6 9047.42 3470.05   2
  -1  -4   6 2015.13 1548.81   2
   0  -4   6 4281.57 2010.39   2
   1  -4   6 3071.65 1647.81   2
   2  -4   6 681.090 639.963   2
   3  -4   6 1058.60 1029.17   2
   4  -4   6-1002.84 914.228   2
   5  -4   6-47.2096 347.665   2
  -7   5   6 1214.09 1629.96   1
  -7  -5   6 6666.01 4562.23   2
  -6  -5   6 1785.57 2714.83   2
  -6   5   6 1413.61 1379.94   1
  -5  -5   6-1147.40 1840.85   2
  -4  -5   6 3396.90 3385.28   2
  -3  -5   6 2804.09 998.308   2
  -2  -5   6-584.930 494.276   2
  -1  -5   6-2830.18 2073.88   2
   0  -5   6 6792.93 2975.45   2
   1  -5   6 3676.13 1920.21   2
   2  -5   6 1003.89 829.086   2
   3  -5   6 966.637 844.622   2
   4  -5   6 1576.86 1159.02   2
  -5  -6   6 691.387 872.546   2
  -4  -6   6-1125.76 1853.57   2
  -3  -6   6 1692.17 221.377   2
  -2  -6   6-1850.61 2777.75   2
  -1  -6   6 1204.13 880.766   2
   0  -6   6 9984.36 4642.16   2
   1  -6   6 1831.59 2072.90   2
   2  -6   6 6823.04 2971.15   2
  10   0  -7-928.273 482.264   3
   9   0  -7-65.5701 328.090   3
   8   0  -7-105.000 269.187   3
   7   0  -7 454.103 176.766   3
  -6   0   7-1266.66 2080.01   2
   6   0  -7-92.5095 209.558   3
  -5   0   7 1566.09 1862.07   2
   5   0  -7-92.8180 143.291   3
  -4   0   7 1173.48 2056.48   2
  -3   0   7-2181.13 1839.34   2
  -2   0   7-493.180 610.595   2
  -1   0   7 2246.78 1199.48   2
   0   0   7-119.702 176.104   2
   1   0   7-291.586 354.537   2
   2   0   7-325.199 402.688   2
   3   0   7-216.739 465.681   2
   4   0   7 1402.83 780.135   2
   5   0   7 536.698 589.273   2
   6   0   7 1055.93 872.836   2
   7   0   7 307.888 206.338   2
  10  -1  -7 1341.28 675.876   3
   9  -1  -7 879.397 473.953   3
   8  -1  -7 280.095 331.703   3
   7  -1  -7 1698.54 558.396   3
  -6  -1   7 1224.92 1217.77   2
   6  -1  -7 2739.15 665.498   3
  -5   1   7 1536.92 1428.88   2
   5  -1  -7 195.708 226.848   3
  -5  -1   7 2914.23 2277.46   2
   4  -1  -7 209.617 201.648   3
  -4  -1   7 51.9995 1990.86   2
  -4   1   7 670.237 1420.33   2
  -3  -1   7-308.703 1511.03   2
  -3   1   7 821.673 1445.21   2
  -2  -1   7 5376.80 2386.62   2
  -2   1   7 2207.14 1491.78   2
  -1  -1   7 3450.38 1699.85   2
  -1   1   7 2975.55 1560.45   2
   0  -1   7 675.354 253.055   2
   0   1   7 1165.94 624.609   2
   1   1   7 2184.05 934.158   2
   1  -1   7 2412.46 1032.68   2
   2   1   7 3750.18 1124.97   2
   2  -1   7 4202.43 1295.14   2
   3  -1   7 14056.9 2553.32   2
   3   1   7 16531.9 2467.00   2
   4   1   7 364.880 504.600   2
   4  -1   7 379.179 393.168   2
   5  -1   7 729.404 842.446   2
   5   1   7 84.6288 595.226   2
   6   1   7 80.9643 237.021   2
   6  -1   7 290.419 311.132   2
   7   1   7 7518.82 2071.24   2
  10  -2  -7 3978.93 1080.31   3
   9  -2  -7 722.023 529.448   3
   8  -2  -7 654.938 450.781   3
  -7  -2   7-1962.82 2619.53   2
   7  -2  -7 331.533 398.016   3
  -6  -2   7 8955.52 4491.76   2
  -5  -2   7 3170.34 2339.91   2
  -4   2   7-229.107 1029.66   2
  -4  -2   7 1698.47 2492.58   2
  -3  -2   7 1936.04 1643.82   2
  -3   2   7 2407.55 1282.12   2
  -2  -2   7 7663.82 2722.19   2
  -2   2   7 3421.38 1834.76   2
  -1  -2   7 1471.58 1211.06   2
  -1   2   7 1883.83 1165.37   2
   0  -2   7-457.015 361.686   2
   0   2   7 963.275 821.179   2
   1   2   7 1002.92 824.396   2
   1  -2   7 1090.18 797.535   2
   2   2   7 6972.28 1502.76   2
   2  -2   7 5305.31 1596.63   2
   3   2   7 2540.17 866.659   2
   3  -2   7 1818.18 1085.69   2
   4  -2   7 1189.90 676.778   2
   4   2   7 2361.86 1044.63   2
   5  -2   7-233.646 401.217   2
   5   2   7-522.942 509.756   2
   6  -2   7 3110.21 1461.05   2
  -7  -3   7 3042.89 2982.46   2
  -6  -3   7 5190.36 3184.23   2
  -5  -3   7 4519.74 2983.41   2
  -4  -3   7 5447.68 3913.74   2
  -3  -3   7 11315.2 3976.97   2
  -2  -3   7 5590.23 2699.98   2
  -1  -3   7 11318.2 3405.02   2
   0  -3   7 740.231 858.702   2
   1  -3   7 86.4118 924.501   2
   2  -3   7 3517.71 1742.15   2
   3  -3   7 2239.23 1118.20   2
   4  -3   7 998.941 646.314   2
   5  -3   7 283.263 830.248   2
  -7  -4   7 2164.30 3493.04   2
  -6  -4   7 187.594 1764.84   2
  -5  -4   7-429.929 1160.49   2
  -4  -4   7 1826.87 2628.48   2
  -3  -4   7-226.468 1650.20   2
  -2  -4   7 3538.05 2753.23   2
  -1  -4   7 2147.93 1520.37   2
   0  -4   7 2791.13 1865.20   2
   1  -4   7 235.977 453.550   2
   2  -4   7-888.628 926.489   2
   3  -4   7 1813.82 1354.59   2
   4  -4   7 1267.31 1288.16   2
  -5  -5   7 1783.10 3252.40   2
  -4  -5   7 8617.05 4368.69   2
  -3  -5   7 1062.49 2570.39   2
  -2  -5   7-5.90773 1381.27   2
  -1  -5   7 1995.99 271.231   2
   0  -5   7 11317.5 4141.32   2
   1  -5   7 5317.62 3013.55   2
   2  -5   7 165.209 432.948   2
  10   0  -8 274.491 165.188   3
   9   0  -8-118.352 128.281   3
   8   0  -8 892.558 394.289   3
  -6   0   8-1682.70 1658.97   2
  -5   0   8 5185.85 2437.02   2
  -4   0   8 471.620 1092.58   2
  -3   0   8 9610.44 3339.09   2
  -2   0   8 8872.72 3171.51   2
  -1   0   8 2819.99 1813.68   2
   0   0   8-440.483 614.811   2
   1   0   8 2506.43 1196.07   2
   2   0   8 20259.5 3163.73   2
   3   0   8 65.6311 251.462   2
   4   0   8 704.964 914.961   2
   5   0   8 2403.89 1132.01   2
   6   0   8 2551.15 1263.02   2
  10  -1  -8-226.498 295.998   3
   9  -1  -8 21.5911 97.3034   3
  -7  -1   8-1019.72 142.883   2
  -6  -1   8 1646.08 1679.96   2
  -5   1   8-471.719 1129.24   2
  -5  -1   8-2160.19 1995.53   2
  -4  -1   8-1998.20 1930.08   2
  -4   1   8 1020.92 1125.71   2
  -3  -1   8 3588.49 2125.77   2
  -3   1   8 3697.62 2384.86   2
  -2  -1   8-234.184 153.943   2
  -2   1   8-736.917 1094.82   2
  -1  -1   8 1341.81 1454.82   2
  -1   1   8-85.5276 897.302   2
   0  -1   8-58.2025 671.093   2
   0   1   8 964.743 809.121   2
   1   1   8 7234.15 1740.27   2
   1  -1   8 9589.00 2299.35   2
   2   1   8 23381.9 3226.36   2
   2  -1   8 30375.3 4106.46   2
   3   1   8-501.640 822.194   2
   3  -1   8 812.410 859.962   2
   4   1   8 1053.55 678.751   2
   4  -1   8 2651.50 1284.50   2
   5   1   8 1531.70 992.706   2
   5  -1   8 714.966 536.785   2
   6   1   8 1207.97 844.712   2
  10  -2  -8 827.608 498.263   3
  -7  -2   8 3801.16 2856.79   2
  -6  -2   8 9634.16 4593.76   2
  -5  -2   8 3705.43 2911.42   2
  -4  -2   8 5682.17 3137.05   2
  -3  -2   8 9378.08 3527.65   2
  -2  -2   8 1714.99 1913.48   2
  -1  -2   8 2280.37 1682.48   2
   0  -2   8 1061.06 933.094   2
   1  -2   8 3555.20 1581.63   2
   2  -2   8 593.840 756.432   2
   3  -2   8 3477.45 1837.86   2
   4  -2   8 1033.53 1447.97   2
  -7  -3   8 3049.34 3216.97   2
  -6  -3   8 7794.31 4083.50   2
  -5  -3   8 3557.71 2397.19   2
  -4  -3   8 7392.52 4038.20   2
  -3  -3   8 5007.81 1432.88   2
  -2  -3   8 3778.97 2470.83   2
  -1  -3   8 643.385 1068.24   2
   0  -3   8 2403.88 1910.38   2
   1  -3   8 1125.03 810.853   2
   2  -3   8 1323.11 1218.48   2
   3  -3   8 1329.75 997.860   2
  -5  -4   8 3931.70 3415.34   2
  -4  -4   8 2170.91 2532.48   2
  -3  -4   8 303.802 1098.57   2
  -2  -4   8 2734.02 2276.71   2
  -1  -4   8 2530.63 2440.73   2
   0  -4   8 1118.48 1086.09   2
   1  -4   8 4496.50 2336.99   2
   2  -4   8 2484.26 1924.48   2
  -6   0   9 3592.06 2819.13   2
  -5   0   9-677.467 1606.72   2
  -4   0   9 5740.98 3379.74   2
  -3   0   9-2374.96 2605.69   2
  -2   0   9-35.9306 172.889   2
  -1   0   9 3250.53 2399.14   2
   0   0   9 2412.46 1685.22   2
   1   0   9 660.233 1089.14   2
   2   0   9-1041.03 459.368   2
   3   0   9 1181.54 968.018   2
   4   0   9 13683.9 2617.16   2
  -7  -1   9 1997.37 2349.76   2
  -6  -1   9 2392.74 2388.31   2
  -5   1   9 1174.92 580.220   2
  -5  -1   9 3417.64 2529.20   2
  -4  -1   9 1204.10 587.647   2
  -4   1   9 3118.30 2364.43   2
  -3  -1   9 2459.26 1883.17   2
  -3   1   9 3257.95 2617.80   2
  -2  -1   9 1854.33 2146.13   2
  -2   1   9 785.238 1045.37   2
  -1  -1   9 553.969 1216.56   2
  -1   1   9 784.905 1046.07   2
   0  -1   9 1687.81 1481.75   2
   0   1   9 3626.96 2111.42   2
   1  -1   9 5305.35 2086.05   2
   1   1   9 2797.17 1338.84   2
   2   1   9 2476.90 1505.59   2
   2  -1   9 742.042 879.223   2
   3   1   9 999.771 740.151   2
   3  -1   9 616.287 852.436   2
   4  -1   9 1110.31 1034.49   2
  -7  -2   9 1472.21 2058.61   2
  -6  -2   9 1532.50 2158.32   2
  -5  -2   9 3360.57 2950.42   2
  -4  -2   9 12647.5 5171.67   2
  -3  -2   9-758.368 922.214   2
  -2  -2   9 645.230 346.597   2
  -1  -2   9 2538.30 2121.54   2
   0  -2   9 2712.35 2088.22   2
   1  -2   9 12726.1 3227.03   2
   2  -2   9 299.680 293.402   2
   3  -2   9 433.900 912.796   2
  -5  -3   9 347.536 882.132   2
  -4  -3   9 5302.83 3838.20   2
  -3  -3   9-414.899 1142.43   2
  -2  -3   9-1631.99 2259.47   2
  -1  -3   9 249.536 1164.71   2
   0  -3   9 2732.52 2662.96   2
   1  -3   9 4636.81 2664.19   2
  -7   0  10 1005.52 2325.29   2
  -6   0  10 81.9762 2443.71   2
  -5   0  10 358.780 2017.95   2
  -4   0  10 4551.45 2852.63   2
  -3   0  10-1656.35 2696.78   2
  -2   0  10 2902.17 2243.97   2
  -1   0  10 792.808 836.309   2
   0   0  10 2642.61 1892.68   2
   1   0  10 1078.52 732.034   2
   2   0  10 2093.38 1347.80   2
   3   0  10-264.090 643.365   2
  -7  -1  10-2344.41 2803.29   2
  -6  -1  10 4044.14 3349.39   2
  -5  -1  10 9262.68 4681.42   2
  -4  -1  10 12720.7 5371.08   2
  -3  -1  10 343.544 1011.21   2
  -2  -1  10-250.854 749.716   2
  -1  -1  10 2523.95 2165.95   2
   0  -1  10 19009.6 4552.80   2
   1  -1  10 3176.75 1662.39   2
   2  -1  10 1794.55 1393.59   2
  -5  -2  10 14970.8 6375.26   2
  -4  -2  10 829.704 989.073   2
  -3  -2  10-392.573 2063.67   2
  -2  -2  10 1599.34 2009.20   2
  -1  -2  10 2990.03 2404.10   2
   0  -2  10 5112.51 2458.82   2
  -4  -1  11 7091.62 4566.46   2
  -3  -1  11 1291.64 1857.91   2
  -2  -1  11 2417.29 2200.52   2
   0   0   0    0.00    0.00   0
TITL Ml22b in P2(1)/c
REM P2(1)/c (#14 in standard setting)
CELL 0.71073   9.298126   5.994455   8.408398  90.0000 102.5050  90.0000
ZERR    2.00   0.001874   0.001750   0.002621   0.0000   0.0246   0.0000
LATT  1
SYMM -x, y+1/2,-z+1/2
SFAC C H N
UNIT 20.00 20.00 4.00
TREF
HKLF 4
END
;
_shelx_hkl_checksum              64355
loop_
_space_group_symop_operation_xyz
'x, y, z'
'-x, y+1/2, -z+1/2'
'-x, -y, -z'
'x, -y-1/2, z-1/2'
loop_
_atom_site_label
_atom_site_type_symbol
_atom_site_fract_x
_atom_site_fract_y
_atom_site_fract_z
_atom_site_U_iso_or_equiv
_atom_site_adp_type
_atom_site_occupancy
_atom_site_site_symmetry_order
_atom_site_calc_flag
_atom_site_refinement_flags_posn
_atom_site_refinement_flags_adp
_atom_site_refinement_flags_occupancy
_atom_site_disorder_assembly
_atom_site_disorder_group
C1 C 0.4509(4) 0.2094(8) 0.5379(5) 0.0184(13) Uani 0.99(4) 1 d . . P A .
H1 H 0.4182 0.3521 0.5642 0.022 Uiso 0.99(4) 1 calc R U P . .
C2 C 0.5893(4) 0.1318(7) 0.6194(4) 0.0162(10) Uani 1 1 d . . . . .
C3 C 0.6828(4) 0.2622(7) 0.7426(4) 0.0194(11) Uani 1 1 d . . . . .
H3 H 0.6507 0.4050 0.7694 0.023 Uiso 1 1 calc R U . . .
C4 C 0.8173(4) 0.1850(8) 0.8220(5) 0.0222(11) Uani 1 1 d . . . . .
H4 H 0.8768 0.2734 0.9045 0.027 Uiso 1 1 calc R U . . .
C5 C 0.3608(3) 0.0811(7) 0.4192(4) 0.0156(10) Uani 1 1 d . . . . .
C6 C 0.2171(4) 0.1539(8) 0.3339(5) 0.0211(11) Uani 1 1 d . . . . .
H6 H 0.1812 0.2949 0.3594 0.025 Uiso 1 1 calc R U . . .
C7 C 0.1316(4) 0.0240(8) 0.2171(5) 0.0243(12) Uani 1 1 d . . . . .
H7 H 0.0371 0.0752 0.1622 0.029 Uiso 1 1 calc R U . . .
N1 N 0.4509(4) 0.2094(8) 0.5379(5) 0.0184(13) Uani 0.01(4) 1 d . . P A 2
loop_
_atom_site_aniso_label
_atom_site_aniso_U_11
_atom_site_aniso_U_22
_atom_site_aniso_U_33
_atom_site_aniso_U_23
_atom_site_aniso_U_13
_atom_site_aniso_U_12
C1 0.0167(17) 0.017(3) 0.021(2) -0.001(2) 0.0032(16) -0.0037(19)
C2 0.0188(17) 0.015(2) 0.014(2) 0.0035(19) 0.0017(15) -0.0023(19)
C3 0.0220(18) 0.019(3) 0.019(2) 0.001(2) 0.0060(16) 0.0028(19)
C4 0.0182(17) 0.029(3) 0.018(2) -0.004(2) 0.0005(15) 0.003(2)
C5 0.0135(16) 0.018(2) 0.016(2) -0.006(2) 0.0036(14) 0.0017(18)
C6 0.0229(19) 0.022(3) 0.018(2) 0.007(2) 0.0037(16) 0.007(2)
C7 0.0192(19) 0.033(3) 0.021(2) -0.002(2) 0.0038(15) 0.007(2)
N1 0.0167(17) 0.017(3) 0.021(2) -0.001(2) 0.0032(16) -0.0037(19)
loop_
_atom_type_symbol
_atom_type_description
_atom_type_scat_dispersion_real
_atom_type_scat_dispersion_imag
_atom_type_scat_source
C C 0.0033 0.0016 'International Tables Vol C Tables 4.2.6.8 and 6.1.1.4'
H H 0.0000 0.0000 'International Tables Vol C Tables 4.2.6.8 and 6.1.1.4'
N N 0.0061 0.0033 'International Tables Vol C Tables 4.2.6.8 and 6.1.1.4'
loop_
_geom_angle_atom_site_label_1
_geom_angle_atom_site_label_2
_geom_angle_atom_site_label_3
_geom_angle
_geom_angle_site_symmetry_1
_geom_angle_site_symmetry_3
C5 C1 C2 121.1(4) . .
C1 C2 C5 119.9(4) . 3_656
C1 C2 C3 121.5(4) . .
C5 C2 C3 118.6(3) 3_656 .
C4 C3 C2 121.2(4) . .
C3 C4 C7 120.6(4) . 3_656
C1 C5 C2 119.0(3) . 3_656
C1 C5 C6 122.7(4) . .
C2 C5 C6 118.2(3) 3_656 .
C7 C6 C5 121.2(4) . .
C6 C7 C4 120.2(4) . 3_656
loop_
_geom_bond_atom_site_label_1
_geom_bond_atom_site_label_2
_geom_bond_distance
_geom_bond_site_symmetry_2
C1 C5 1.389(5) .
C1 C2 1.400(5) .
C2 C5 1.420(5) 3_656
C2 C3 1.432(5) .
C3 C4 1.364(5) .
C4 C7 1.404(6) 3_656
C5 C2 1.420(5) 3_656
C5 C6 1.440(4) .
C6 C7 1.366(5) .
C7 C4 1.404(6) 3_656
