#------------------------------------------------------------------------------
#$Date: 2019-12-02 13:46:09 +0200 (Mon, 02 Dec 2019) $
#$Revision: 244843 $
#$URL: file:///home/coder/svn-repositories/cod/cif/4/51/38/4513830.cif $
#------------------------------------------------------------------------------
#
# This file is available in the Crystallography Open Database (COD),
# http://www.crystallography.net/
#
# All data on this site have been placed in the public domain by the
# contributors.
#
data_4513830
loop_
_publ_author_name
'Sobczak, Szymon'
'Katrusiak, Andrzej'
_publ_section_title
;
 Singularities in Molecular Conformation
;
_journal_coden_ASTM              CGDEFU
_journal_issue                   11
_journal_name_full               'Crystal Growth & Design'
_journal_page_first              5530
_journal_page_last               5534
_journal_paper_doi               10.1021/acs.cgd.5b01156
_journal_volume                  15
_journal_year                    2015
_chemical_formula_moiety         'C6 H12 O'
_chemical_formula_sum            'C6 H12 O'
_chemical_formula_weight         100.16
_chemical_melting_point          220.65
_chemical_name_common            pinacolone
_chemical_name_systematic        3,3-Dimethyl-2-butanone
_space_group_crystal_system      monoclinic
_space_group_IT_number           11
_space_group_name_Hall           '-P 2yb'
_space_group_name_H-M_alt        'P 1 21/m 1'
_symmetry_space_group_name_Hall  '-P 2yb'
_symmetry_space_group_name_H-M   'P 1 21/m 1'
_atom_sites_solution_hydrogens   mixed
_atom_sites_solution_primary     direct
_audit_block_doi                 10.5517/cc13lkgq
_audit_update_record
;
2015-10-05 deposited with the CCDC.
2016-03-01 downloaded from the CCDC.
;
_cell_angle_alpha                90
_cell_angle_beta                 107.89(11)
_cell_angle_gamma                90
_cell_formula_units_Z            2
_cell_length_a                   5.521(12)
_cell_length_b                   8.3045(5)
_cell_length_c                   6.716(2)
_cell_measurement_reflns_used    701
_cell_measurement_temperature    298
_cell_measurement_theta_max      26.1770
_cell_measurement_theta_min      4.0030
_cell_volume                     293.0(7)
_computing_cell_refinement
;
CrysAlisPro, Agilent Technologies,
Version 1.171.36.28 (release 01-02-2013 CrysAlis171 .NET)
(compiled Feb  1 2013,16:14:44)
;
_computing_data_collection
;
CrysAlisPro, Agilent Technologies,
Version 1.171.36.28 (release 01-02-2013 CrysAlis171 .NET)
(compiled Feb  1 2013,16:14:44)
;
_computing_data_reduction
;
CrysAlisPro, Agilent Technologies,
Version 1.171.36.28 (release 01-02-2013 CrysAlis171 .NET)
(compiled Feb  1 2013,16:14:44)
;
_computing_molecular_graphics    'Olex2 (Dolomanov et al., 2009)'
_computing_publication_material  'Olex2 (Dolomanov et al., 2009)'
_computing_structure_refinement  'ShelXL (Sheldrick, 2008)'
_computing_structure_solution    'ShelXS (Sheldrick, 2008)'
_diffrn_ambient_temperature      298
_diffrn_detector_area_resol_mean 16.2413
_diffrn_measured_fraction_theta_full 0.213
_diffrn_measured_fraction_theta_max 0.205
_diffrn_measurement_device_type  'Xcalibur, Eos'
_diffrn_measurement_method       '\w and \p scans'
_diffrn_orient_matrix_UB_11      -0.1330256000
_diffrn_orient_matrix_UB_12      0.0029641000
_diffrn_orient_matrix_UB_13      -0.0152336000
_diffrn_orient_matrix_UB_21      -0.0150786000
_diffrn_orient_matrix_UB_22      0.0546043000
_diffrn_orient_matrix_UB_23      -0.0840829000
_diffrn_orient_matrix_UB_31      -0.0184894000
_diffrn_orient_matrix_UB_32      -0.0655551000
_diffrn_orient_matrix_UB_33      -0.0707085000
_diffrn_radiation_monochromator  graphite
_diffrn_radiation_type           MoK\a
_diffrn_radiation_wavelength     0.71073
_diffrn_reflns_av_R_equivalents  0.0181
_diffrn_reflns_av_unetI/netI     0.0082
_diffrn_reflns_Laue_measured_fraction_full 0.213
_diffrn_reflns_Laue_measured_fraction_max 0.205
_diffrn_reflns_limit_h_max       1
_diffrn_reflns_limit_h_min       -1
_diffrn_reflns_limit_k_max       10
_diffrn_reflns_limit_k_min       -10
_diffrn_reflns_limit_l_max       8
_diffrn_reflns_limit_l_min       -8
_diffrn_reflns_number            1261
_diffrn_reflns_point_group_measured_fraction_full 0.213
_diffrn_reflns_point_group_measured_fraction_max 0.205
_diffrn_reflns_theta_full        26.000
_diffrn_reflns_theta_max         26.597
_diffrn_reflns_theta_min         4.023
_diffrn_source                   'Enhance (Mo) X-ray Source'
_exptl_absorpt_coefficient_mu    0.074
_exptl_absorpt_correction_T_max  1.00000
_exptl_absorpt_correction_T_min  0.67222
_exptl_absorpt_correction_type   multi-scan
_exptl_absorpt_process_details
;
CrysAlisPro, Agilent Technologies,
Version 1.171.36.28 (release 01-02-2013 CrysAlis171 .NET)
(compiled Feb  1 2013,16:14:44)
Empirical absorption correction using spherical harmonics,
 implemented in SCALE3 ABSPACK scaling algorithm.
;
_exptl_crystal_colour            'clear whiteish colourless'
_exptl_crystal_colour_lustre     clear
_exptl_crystal_colour_modifier   whiteish
_exptl_crystal_colour_primary    colourless
_exptl_crystal_density_diffrn    1.135
_exptl_crystal_density_method    'not measured'
_exptl_crystal_description       block
_exptl_crystal_F_000             112
_exptl_crystal_preparation
'The lhigh-pressure experiment was performed using modified Merrill-Bassett diamond-anvil cell (DAC)'
_exptl_crystal_size_max          0.38142
_exptl_crystal_size_mid          0.38142
_exptl_crystal_size_min          0.3
_refine_diff_density_max         0.050
_refine_diff_density_min         -0.029
_refine_diff_density_rms         0.011
_refine_ls_extinction_coef       .
_refine_ls_extinction_method     none
_refine_ls_goodness_of_fit_ref   1.097
_refine_ls_hydrogen_treatment    mixed
_refine_ls_matrix_type           full
_refine_ls_number_parameters     57
_refine_ls_number_reflns         135
_refine_ls_number_restraints     33
_refine_ls_restrained_S_all      0.961
_refine_ls_R_factor_all          0.0249
_refine_ls_R_factor_gt           0.0235
_refine_ls_shift/su_max          0.000
_refine_ls_shift/su_mean         0.000
_refine_ls_structure_factor_coef Fsqd
_refine_ls_weighting_details
'w=1/[\s^2^(Fo^2^)+(0.0365P)^2^+0.0546P] where P=(Fo^2^+2Fc^2^)/3'
_refine_ls_weighting_scheme      calc
_refine_ls_wR_factor_gt          0.0593
_refine_ls_wR_factor_ref         0.0601
_reflns_Friedel_coverage         0.000
_reflns_Friedel_fraction_full    .
_reflns_Friedel_fraction_max     .
_reflns_number_gt                126
_reflns_number_total             135
_reflns_threshold_expression     'I > 2\s(I)'
_cod_data_source_file            1030727-1030734.cif
_cod_data_source_block           pin_hp_1_52
_cod_depositor_comments
;
 Updated bibliographic information.

 Antanas Vaitkus,
 2019-12-02
;
_cod_database_code               4513830
_shelxl_version_number           2013-4
_chemical_oxdiff_formula         C6H12O1
_shelx_space_group_comment
;
The symmetry employed for this shelxl refinement is uniquely defined
by the following loop, which should always be used as a source of
symmetry information in preference to the above space-group names.
They are only intended as comments.
;
_reflns_odcompleteness_completeness 21.00
_reflns_odcompleteness_iscentric 1
_reflns_odcompleteness_theta     26.54
_shelx_res_file
;
TITL
CELL 0.71073 5.520796 8.304451 6.715696 90 107.8857 90
ZERR 2 0.012403 0.00052 0.002002 0 0.1067 0
LATT 1
SYMM -X,0.5+Y,-Z
SFAC C H O
UNIT 12 24 2
DFIX 0.96 C4 H4a
DFIX 0.96 C4 H4b
DFIX 1.53 C2 C1
DFIX 0.96 H1a C1
DFIX 0.96 H1c C1
DFIX 0.96 C1 H1b
RIGU C4 C3
RIGU C2 O1
RIGU C1 C2
ISOR 0.01 0.02 C4 C3 C2

L.S. 44
PLAN  8
TEMP 24.85
BOND
MORE -1
CONF
fmap 2
acta 52
OMIT -1 4 2
REM <olex2.extras>
REM <HklSrc "%.\\pol1_52.hkl">
REM </olex2.extras>

WGHT    0.036500    0.054600
FVAR      11.61773
C5    1    0.749687    0.400194    0.248953    11.00000    0.10390    0.03302 =
         0.04200    0.00192    0.02522   -0.00410
AFIX 137
H5A   2    0.919229    0.392654    0.344238    11.00000   -1.50000
H5B   2    0.668476    0.494965    0.280061    11.00000   -1.50000
H5C   2    0.756875    0.406454    0.108140    11.00000   -1.50000
AFIX   0
C2    1    0.574243    0.250000    0.491934    10.50000    0.04652    0.03487 =
         0.03880    0.00000    0.00284    0.00000
O1    3    0.371715    0.250000    0.518227    10.50000    0.05168    0.08728 =
         0.04531    0.00000    0.00908    0.00000
C1    1    0.811342    0.250000    0.673419    10.50000    0.04492    0.08000 =
         0.02501    0.00000    0.00410    0.00000
PART -1
H1A   2    0.956069    0.283735    0.632401    10.50000   -1.50000
H1C   2    0.810520    0.140153    0.725392    10.50000   -1.50000
H1B   2    0.735993    0.290401    0.776273    10.50000   -1.50000
PART 0
C3    1    0.596236    0.250000    0.272120    10.50000    0.02560    0.02918 =
         0.02631    0.00000    0.00023    0.00000
C4    1    0.331916    0.250000    0.109134    10.50000    0.03176    0.05282 =
         0.03500    0.00000   -0.00402    0.00000
H4A   2    0.235466    0.343408    0.131687    11.00000    0.04885
H4B   2    0.349724    0.250000   -0.031286    10.50000    0.05928
HKLF 4

REM
REM R1 =  0.0235 for     126 Fo > 4sig(Fo)  and  0.0249 for all     135 data
REM     57 parameters refined using     33 restraints

END

WGHT      0.0437      0.0355

REM Highest difference peak  0.050,  deepest hole -0.029,  1-sigma level  0.011
Q1    1   0.8002  0.4027  0.0846  11.00000  0.05    0.05
Q2    1   0.5222  0.2500  0.3548  10.50000  0.05    0.04
Q3    1   0.4540  0.2500  0.3472  10.50000  0.05    0.04
Q4    1   0.6406  0.5147  0.2340  11.00000  0.05    0.03
Q5    1   0.5698  0.5098  0.2479  11.00000  0.05    0.03
Q6    1   0.4296  0.2500  0.6210  10.50000  0.05    0.03
Q7    1   0.5182  0.2500  0.2441  10.50000  0.05    0.02
Q8    1   0.6122  0.2500 -0.0244  10.50000  0.05    0.02
;
_shelx_res_checksum              98255
_shelx_hkl_file
;
   0 -10   0  195.56   53.27   9
   0 -10   0  171.17   42.33   8
   0 -10  -1  127.40   43.36   9
   0 -10   1  135.88   48.57   9
   0 -10   1  203.05   50.29   8
   0 -10   2  622.68   82.80   8
   0  -9   0  -25.87   36.32   9
   0  -9   0  -43.95   39.39   8
   0  -9   1   15.71   31.50   8
   0  -9  -1  -28.94   30.78   9
   0  -9   1    5.48   28.21   9
   0  -9  -2   53.43   31.60   9
   0  -9   2   95.57   38.49   9
   0  -9  -2   52.30   27.77  15
   0  -9   2   63.47   29.57   8
   0  -9  -2  162.90   50.14  16
   0  -9   3  166.96   52.20   8
   0  -9  -3  174.36   49.82  16
   0  -9  -3  129.43   43.06   9
   0  -9  -3  191.41   49.01  15
   0  -9  -4   35.09   47.05  15
   0  -9  -4   34.31   38.36   9
   0  -8   010286.61  264.01   8
   0  -8   0 9737.26  261.15   9
   0  -8  -1  648.39   68.60  16
   0  -8   1  724.96   74.35   9
   0  -8  -1  739.47   77.50   9
   0  -8   1  715.38   74.80   8
   0  -8   2   10.91   27.65   9
   0  -8   2   47.11   31.78   8
   0  -8  -2   53.25   29.50  16
   0  -8  -2   57.17   31.60   9
   0  -8  -2   77.21   34.46  15
   0  -8  -3  207.70   46.58  16
   0  -8   3  177.41   43.89   3
   0  -8  -3  150.76   43.98   9
   0  -8   3  211.83   52.27   8
   0  -8   3  186.53   45.97   1
   0  -8  -3  175.80   46.08  15
   0  -8  -4 1074.86  104.18  16
   0  -8   4  989.33   95.04   8
   0  -8  -4 1235.83  108.72  15
   0  -8   4 1007.72   95.07   3
   0  -8  -4 1008.04   96.64   9
   0  -7   0   -2.73   25.32   9
   0  -7   0   12.75   21.61   8
   0  -7   1 6170.28  189.37   8
   0  -7  -1 6178.60  176.95   8
   0  -7  -1 6404.65  186.96  16
   0  -7   1 6304.53  191.68   9
   0  -7  -1 6328.76  177.37  15
   0  -7  -1 6504.20  195.58   9
   0  -7   2  555.64   61.90   9
   0  -7   2  571.18   57.35   3
   0  -7  -2  603.64   61.22  15
   0  -7   2  701.81   70.84   8
   0  -7  -2  580.95   62.34  16
   0  -7  -2  655.58   65.83   9
   0  -7   2  589.57   63.39   1
   0  -7  -3 2080.04  117.60  15
   0  -7   3 2120.79  121.51   1
   0  -7   3 2196.56  121.75   3
   0  -7   3 2204.70  130.48   8
   0  -7  -3 2291.14  123.30   9
   0  -7  -3 2219.84  124.65  16
   0  -7   4    7.76   31.62   8
   0  -7   4  104.86   38.07   3
   0  -7  -4   56.55   35.95  16
   0  -7   4   60.62   33.33   1
   0  -7  -4   63.64   36.05  15
   0  -7  -5 1938.32  133.69  15
   0  -7  -5 1874.03  135.86  16
   0  -6   046149.68  399.44  15
   0  -6   044786.00  426.44  16
   0  -6   045945.89  450.97   8
   0  -6   046071.49  463.41   9
   0  -6   1 3199.88  124.03   8
   0  -6  -1 3172.27  111.78   8
   0  -6   1 3207.65  112.96   1
   0  -6  -1 3163.54  122.12   9
   0  -6   1 3158.33  109.52   3
   0  -6  -1 3152.57  116.68  16
   0  -6  -1 3054.96  110.09  15
   0  -6   1 3244.70  122.79   9
   0  -6  -2  572.78   54.75   9
   0  -6   2  573.95   52.86   3
   0  -6   2  550.77   53.65   9
   0  -6  -2  552.17   53.99  15
   0  -6   2  570.21   57.46   8
   0  -6   2  589.60   56.81   1
   0  -6  -2  552.26   55.78  16
   0  -6   3  669.89   64.92   1
   0  -6  -3  653.42   64.40  16
   0  -6   3  645.01   63.81   3
   0  -6  -3  668.69   61.54   9
   0  -6  -3  622.76   60.44  15
   0  -6   3  663.62   66.86   8
   0  -6   4 4783.92  187.06   3
   0  -6  -4 4737.98  178.45  16
   0  -6  -4 4421.80  159.62  10
   0  -6  -4 4323.37  168.95  15
   0  -6   4 4282.63  177.38   1
   0  -6   4 4302.85  174.54   8
   0  -6   5 4186.94  190.61   3
   0  -6  -5 3679.15  164.10  10
   0  -6  -5 3787.24  169.93  15
   0  -6   5 3690.33  178.30   1
   0  -6  -5 3775.40  173.41  16
   0  -6  -6  113.06   47.88  16
   0  -6  -6  195.92   49.96  15
   0  -5   0   -0.11   13.40   9
   0  -5   0    3.90   12.47  16
   0  -5   0   -5.52   12.01   1
   0  -5   0    0.57    9.76   3
   0  -5   0   12.48   16.25   8
   0  -5   0   29.69   11.74  15
   0  -5   1 1254.79   62.70   3
   0  -5  -1 1157.58   60.13   8
   0  -5  -1 1194.32   64.46  16
   0  -5  -1 1144.89   60.83  15
   0  -5   1 1040.41   64.38   8
   0  -5   1 1184.59   65.46   9
   0  -5   1 1202.56   62.17   1
   0  -5  -1 1050.81   63.73   9
   0  -5  -2 1880.01   87.66  16
   0  -5   2 1939.16   87.37   3
   0  -5   2 1860.24   82.58   9
   0  -5   2 1817.59   88.96   8
   0  -5  -2 1778.13   73.22  10
   0  -5   2 1969.29   90.06   1
   0  -5  -2 1780.19   82.67  15
   0  -5  -2 1820.74   85.80   9
   0  -5  -3  270.64   39.04  15
   0  -5  -3  305.29   41.63  16
   0  -5   3  267.14   40.53   3
   0  -5  -3  240.64   33.68   9
   0  -5   3  307.68   43.02   1
   0  -5  -3  246.60   32.39  10
   0  -5   3  212.33   35.90   8
   0  -5  -4  866.68   95.99  16
   0  -5   4  108.33   33.81   3
   0  -5  -4  647.13   94.68  15
   0  -5   4  112.04   33.09   1
   0  -5   4   70.85   24.48   8
   0  -5   4  154.11   34.66   6
   0  -5  -5  476.13   60.81  10
   0  -5  -5  452.81   58.04  16
   0  -5   5  414.56   60.10   3
   0  -5  -5  438.89   57.87  15
   0  -5   5  513.07   64.43   6
   0  -5   5  456.69   61.66   1
   0  -5  -6  479.09   69.83  10
   0  -5  -6  464.77   67.81  16
   0  -5  -6  357.07   58.81  15
   0  -4   039327.45  273.67   3
   0  -4   039227.05  321.66   8
   0  -4   038550.25  270.41   1
   0  -4   039303.05  334.50   9
   0  -4   040321.84  287.06  15
   0  -4   039604.34  302.83  16
   0  -4  -116261.45  204.30  15
   0  -4  -116405.55  209.46  16
   0  -4  -116550.45  194.28   8
   0  -4   116751.65  203.25   3
   0  -4  -116433.55  217.54   9
   0  -4  -116396.35  168.46  10
   0  -4   116289.45  152.75   6
   0  -4   116217.75  201.12   1
   0  -4   116884.25  159.43  15
   0  -4   115924.16  174.93  16
   0  -4   116968.65  215.41   9
   0  -4   115567.16  215.43   8
   0  -4   213503.38  211.10   1
   0  -4   214128.47  198.91   9
   0  -4  -214179.67  215.94  16
   0  -4  -214764.57  215.06  15
   0  -4   214603.67  224.44   8
   0  -4   213997.07  180.80   6
   0  -4  -213962.97  208.09   9
   0  -4   214259.27  214.31   3
   0  -4  -214232.77  168.70   8
   0  -4  -213998.57  191.38  10
   0  -4  -3 1532.65   71.37   9
   0  -4  -3 1638.04   75.59  10
   0  -4   3 1613.20   82.53   3
   0  -4  -3 1670.90   80.92  15
   0  -4   3 1604.27   81.00   8
   0  -4  -3 1572.46   79.97  16
   0  -4   3 1479.42   71.40   6
   0  -4   3 1675.41   86.36   1
   0  -4   4  248.07   37.67   6
   0  -4   4  267.39   41.29   3
   0  -4  -4  268.29   39.26  10
   0  -4   4  222.86   38.13   8
   0  -4   4  223.93   40.07   1
   0  -4  -4  243.55   36.66  16
   0  -4  -4  257.49   38.24  15
   0  -4  -5 8086.20  214.50  15
   0  -4   5 7930.58  224.85   3
   0  -4  -5 8483.82  222.88  10
   0  -4   5 8306.75  235.36   1
   0  -4  -5 8551.32  220.25  16
   0  -4   5 8079.34  223.38   6
   0  -4   6 2007.97  120.85   3
   0  -4  -6 2284.68  130.63  10
   0  -4  -6 2035.40  124.21  16
   0  -4   6 2153.22  135.07   1
   0  -4  -6 2099.76  122.96  15
   0  -4   6 2277.52  129.35   6
   0  -3   0   36.54    9.01  15
   0  -3   0   60.66   10.70   3
   0  -3   0   74.40   15.29   9
   0  -3   0   46.11   11.49   8
   0  -3   0   88.12   13.66  16
   0  -3   118010.24  149.46   6
   0  -3  -118094.94  161.48  10
   0  -3  -117674.44  187.46  15
   0  -3   117349.44  184.80   9
   0  -3  -118136.94  169.50   8
   0  -3  -118007.94  195.84   9
   0  -3   117931.04  200.58   8
   0  -3   117956.74  187.67   1
   0  -3  -117467.94  189.59  16
   0  -3   117607.14  184.62   3
   0  -3   2 7659.73  143.20   3
   0  -3  -2 7626.93  141.89  16
   0  -3   2 7867.72  145.23   1
   0  -3  -2 7682.58  139.33  15
   0  -3   2 7632.62  125.96   9
   0  -3  -2 7643.31  133.15   9
   0  -3   2 7448.37  141.10   8
   0  -3  -2 7586.32  131.09  10
   0  -3   2 7559.99  126.25   6
   0  -3   3 2981.53  102.80   1
   0  -3   3 2948.38   96.11   6
   0  -3  -3 2847.34   85.41   9
   0  -3   3 2734.06   95.47   8
   0  -3  -3 2912.42   95.90  10
   0  -3   3 2873.13  102.09   3
   0  -3  -3 2832.12   97.13  16
   0  -3  -3 2781.52   94.41  15
   0  -3  -3 2675.33   80.53   7
   0  -3  -4  130.03   24.50   7
   0  -3   4  115.16   27.51   1
   0  -3   4  106.61   26.24   6
   0  -3   4  104.58   26.85   3
   0  -3  -4   72.97   20.89  15
   0  -3  -4   83.46   22.93  16
   0  -3   4  109.62   25.00   8
   0  -3  -4   85.91   26.62  10
   0  -3  -5  386.70   50.30  10
   0  -3   5  372.91   49.27   3
   0  -3   5  421.23   54.05   1
   0  -3  -5  364.99   45.82  15
   0  -3   5  374.56   49.76   6
   0  -3  -5  341.05   44.51  16
   0  -3   6  592.41   64.32   1
   0  -3  -6  578.72   64.32  15
   0  -3   6  466.57   49.68   3
   0  -3   6  604.15   73.68   6
   0  -3  -6  538.40   63.15  10
   0  -3  -7  331.55   62.95  10
   0  -2  -138746.15  247.74  16
   0  -2   139179.55  247.28   1
   0  -2  -138922.85  244.19  15
   0  -2  -139064.25  243.24   9
   0  -2   139169.45  245.87   3
   0  -2   138139.66  251.16   8
   0  -2   138446.95  208.83   6
   0  -2   221026.71  217.10   3
   0  -2   221316.61  208.38   8
   0  -2  -221727.10  208.96  10
   0  -2   221327.21  204.24   6
   0  -2  -220378.82  173.36   7
   0  -2  -220564.81  205.96  15
   0  -2  -221256.41  186.26   9
   0  -2   221440.41  219.19   1
   0  -2  -221085.11  209.65  16
   0  -2  -3 6266.87  121.46   7
   0  -2  -3 6014.91  126.96  15
   0  -2  -3 5856.93  102.77   9
   0  -2  -3 6222.40  129.34  16
   0  -2  -3 6048.64  133.60  10
   0  -2   3 6417.11  140.38   3
   0  -2   3 6062.12  127.75   8
   0  -2   3 6068.81  135.81   1
   0  -2   3 6282.02  135.95   6
   0  -2  -4 2223.99   93.53  10
   0  -2   4 2449.76  100.62   6
   0  -2   4 2128.14   94.99   1
   0  -2  -4 2202.00   87.41  16
   0  -2  -4 2085.47   86.59   7
   0  -2  -4 2220.59   89.63  15
   0  -2   4 2324.58   97.42   3
   0  -2   512993.58  263.07   1
   0  -2  -513610.58  255.10   7
   0  -2  -514026.67  252.92  15
   0  -2  -513467.48  244.54  16
   0  -2   513688.08  239.54  11
   0  -2   513432.88  257.60   3
   0  -2   514038.27  269.78   6
   0  -2  -513501.18  257.74  10
   0  -2   6 1916.43  112.52   6
   0  -2   6 2037.93  113.74   3
   0  -2  -6 1986.58  113.26  10
   0  -2  -6 2110.13  117.89   7
   0  -2  -7  142.86   47.22  10
   0  -1   146554.48  234.52   3
   0  -1   233622.60  250.22   1
   0  -1  -232720.11  246.46  10
   0  -1  -233344.80  235.42  16
   0  -1  -233121.40  231.25   7
   0  -1  -232862.30  231.40  15
   0  -1   232674.91  247.98   3
   0  -1   232030.41  246.94   6
   0  -1   3 4363.74  111.35   6
   0  -1   3 4594.22  108.72   3
   0  -1  -3 4281.93  106.45  10
   0  -1   3 4432.99  107.86   1
   0  -1  -3 4395.04   82.17   4
   0  -1   3 4170.11   88.95   8
   0  -1  -3 4334.15   99.40  15
   0  -1  -3 4113.97  101.25   7
   0  -1  -3 3972.43   86.62   2
   0  -1  -3 4463.76   98.59  16
   0  -1  -4  234.79   31.36   7
   0  -1  -4  251.98   28.17  16
   0  -1   4  240.44   30.67   3
   0  -1  -4  260.81   30.60  15
   0  -1   4  252.48   33.55   1
   0  -1  -4  233.45   24.96   4
   0  -1   4  240.28   32.58   6
   0  -1  -4  265.28   35.07  10
   0  -1   5 2525.61  113.55   6
   0  -1  -5 2484.96  109.72  10
   0  -1  -5 2822.64  115.44   7
   0  -1   5 2577.61  105.47  11
   0  -1   5 2580.75  107.89   3
   0  -1   5 2683.17  114.80   1
   0  -1   6  508.81   54.58  11
   0  -1  -6  444.98   56.81   7
   0  -1   6  502.08   59.81   6
   0  -1  -6  523.57   59.89  10
   0   0   217384.84  157.46   1
   0   0   217219.15  169.60   6
   0   0  -217738.44  167.64  10
   0   0   217682.54  155.71   3
   0   0   217197.65  144.94  13
   0   0  -217245.34  150.67   4
   0   0  -217304.44  169.83   7
   0   0   3 5653.74  123.01   6
   0   0  -3 5603.57  116.72  10
   0   0   3 5676.28  109.07   3
   0   0   3 5909.25  116.72   1
   0   0   3 5593.80  102.47  13
   0   0  -3 5701.05   97.13  16
   0   0  -3 5630.70  102.90  15
   0   0  -3 5500.95  105.40   4
   0   0  -3 5669.07  119.08   7
   0   0  -3 5601.60  108.18   2
   0   0   422507.50  255.62   3
   0   0  -422764.80  284.73  10
   0   0   423766.19  296.19   6
   0   0   422089.90  274.35   1
   0   0  -422779.79  250.12   4
   0   0  -422590.30  250.34  15
   0   0  -422903.49  286.99   7
   0   0  -422959.29  264.90   2
   0   0  -423456.19  234.18  16
   0   0  -520241.62  302.15  10
   0   0  -519753.52  266.91   4
   0   0   519391.63  298.95  11
   0   0  -519637.02  304.15   7
   0   0   6   58.91   30.20   6
   0   0   6   34.67   24.13  11
   0   0  -6    3.32   23.81   7
   0   0  -6   13.80   26.69  10
   0   0   7  212.22   47.51   6
   0   1  -147138.78  232.15   4
   0   1   233391.40  230.43   6
   0   1  -233537.60  245.01   4
   0   1  -233800.40  223.45  10
   0   1  -232766.21  208.09   5
   0   1  -233547.20  246.51   7
   0   1  -234452.59  245.32   2
   0   1   233524.50  236.58  13
   0   1   3 4456.86  103.05  13
   0   1  -3 4247.05  102.34   4
   0   1  -3 4045.49   96.54  10
   0   1  -3 4440.41   84.28   5
   0   1   3 4210.17  100.72   6
   0   1  -3 4317.36  107.45   7
   0   1   3 4242.08   81.95   3
   0   1  -3 4010.55   99.51   2
   0   1   3 4383.54   92.85   1
   0   1  -4  261.52   31.29   4
   0   1  -4  270.01   33.03   2
   0   1   4  233.11   29.81  13
   0   1   4  278.84   33.46   6
   0   1  -4  261.10   30.83  10
   0   1  -4  237.64   32.58   7
   0   1   5 2485.59  111.21  11
   0   1   5 2613.39  110.84   6
   0   1  -5 2767.60  108.60   4
   0   1  -5 2504.81  111.86   7
   0   1  -5 2514.88  108.04   2
   0   1  -5 2661.39  110.20  10
   0   1  -6  492.66   59.25  10
   0   1  -6  531.66   62.98   7
   0   1   6  542.20   62.10   6
   0   1   6  536.62   60.29  11
   0   1  -6  484.97   56.03   4
   0   1   7 4999.58  201.13  11
   0   2  -138312.86  242.15   4
   0   2  -139443.15  248.34   5
   0   2   138458.05  241.75  12
   0   2  -137897.66  241.53   2
   0   2  -220943.91  199.58   5
   0   2   220917.31  172.88   6
   0   2  -221055.21  212.20   2
   0   2  -221634.31  204.86   7
   0   2   221385.21  191.94  12
   0   2  -221145.71  213.18   4
   0   2   220950.11  212.71  13
   0   2   3 6287.71  116.75  12
   0   2   3 6037.87  117.54   6
   0   2  -3 6115.43  133.29   4
   0   2   3 6186.56  131.82  13
   0   2  -3 6219.94  119.67   5
   0   2  -3 5897.07  113.82  10
   0   2  -3 6188.18  133.18   2
   0   2  -3 6226.46  132.74   7
   0   2  -4 2245.67   86.42  10
   0   2  -4 2260.73   94.60   4
   0   2   4 2000.26   83.17   6
   0   2  -4 2268.66   94.94   7
   0   2  -4 2057.30   88.64   2
   0   2   4 2281.16   93.55  13
   0   2   514165.37  245.24  14
   0   2   513839.08  264.53  11
   0   2   513520.68  249.59   6
   0   2  -513343.98  251.38  10
   0   2  -514137.07  259.59   4
   0   2  -514012.17  259.02   2
   0   2   513719.78  261.48  13
   0   2  -513816.18  266.97   7
   0   2   6 1975.88  115.33  11
   0   2   6 1985.24  113.40   6
   0   2  -6 1962.27  111.05   4
   0   2  -6 1971.61  113.76   7
   0   2   7  121.30   47.53  11
   0   3   0   43.42   11.53   5
   0   3   0   94.97   12.47   4
   0   3   117957.74  195.78  12
   0   3   117645.04  158.89  11
   0   3   117779.14  168.83   5
   0   3  -117628.34  195.58   5
   0   3  -117799.24  185.07   4
   0   3  -117627.34  184.12   2
   0   3   2 7385.78  132.88  12
   0   3  -2 7888.60  143.46   4
   0   3  -2 7533.23  127.54   7
   0   3   2 7496.62  106.33   5
   0   3   2 7754.68  101.47   6
   0   3  -2 7697.29  138.81   5
   0   3  -2 7766.20  141.95   2
   0   3   2 7936.77  146.63  13
   0   3  -3 2618.55   94.00   2
   0   3  -3 2839.94   93.85   7
   0   3  -3 2785.89   91.06   5
   0   3   3 2720.19   96.66  13
   0   3  -3 2909.47   99.52   4
   0   3   3 2901.48   90.69  12
   0   3   3 2867.63   80.22   6
   0   3   4   88.85   21.37   6
   0   3   4  101.61   28.60  11
   0   3  -4   85.62   25.45   2
   0   3  -4   92.48   22.51   5
   0   3   4   79.18   25.26  13
   0   3  -4   61.27   21.72   7
   0   3  -4  142.15   29.93   4
   0   3  -5  321.23   47.87   7
   0   3   5  390.69   50.12  11
   0   3  -5  393.96   50.53   2
   0   3   5  402.15   49.03  13
   0   3   5  339.87   42.54  14
   0   3  -5  390.62   50.11   4
   0   3   6  595.12   65.32  14
   0   3   6  522.42   62.69  11
   0   3  -6  590.53   66.47   2
   0   3  -6  519.77   61.85   4
   0   3  -6  468.25   60.88   7
   0   3   7  503.25   76.53  11
   0   4   039125.65  321.52   5
   0   4   039431.85  286.78  14
   0   4   039560.54  270.48   4
   0   4   039982.84  267.96   2
   0   4   116337.85  167.50  11
   0   4   116701.55  220.15  12
   0   4  -116122.05  198.01   4
   0   4  -116560.25  217.41   5
   0   4   116473.25  194.95   5
   0   4  -115899.56  194.68   2
   0   4  -116181.55  162.87  14
   0   4  -116270.55  162.34   7
   0   4  -116325.05  159.50  13
   0   4   214067.17  209.99  12
   0   4   214310.27  191.66  11
   0   4   213780.38  174.33   5
   0   4  -214190.47  212.77   5
   0   4  -213526.18  207.04   4
   0   4   214394.27  220.22  13
   0   4  -214377.47  210.38   2
   0   4  -214022.57  184.80   7
   0   4   3 1591.03   81.03  13
   0   4   3 1611.30   75.20  11
   0   4  -3 1645.95   79.37   5
   0   4   3 1468.46   72.81  12
   0   4  -3 1505.62   77.69   4
   0   4  -3 1618.26   76.02   7
   0   4  -3 1613.54   80.36   2
   0   4   4  235.67   37.34  11
   0   4  -4  274.63   43.44   2
   0   4  -4  212.53   35.76   5
   0   4  -4  287.46   39.48   4
   0   4  -4  214.72   36.06   7
   0   4   4  234.35   40.01  13
   0   4   5 8197.61  219.41  11
   0   4  -5 8421.08  223.68   2
   0   4   5 8462.46  221.92  14
   0   4  -5 7877.99  220.55   4
   0   4  -5 8441.19  224.99   7
   0   4   5 8194.50  223.70  13
   0   4  -6 2187.35  131.52   2
   0   4   6 2058.45  126.59  11
   0   4  -6 2315.93  133.51   4
   0   4   6 2270.19  135.60  13
   0   4   6 2316.93  130.77  14
   0   5   0   32.16   13.86  13
   0   5   0  -13.27   14.79  12
   0   5   0   -0.29   11.99   4
   0   5   0   10.39   11.84   2
   0   5   0    2.01   15.38   5
   0   5   0   -3.03   10.72  14
   0   5  -1 1111.69   62.11  12
   0   5   1 1162.55   62.83  13
   0   5   1 1128.19   61.80  14
   0   5   1 1098.79   58.58   5
   0   5  -1 1103.74   65.13   5
   0   5   1 1160.24   67.04  12
   0   5  -1 1119.65   58.18   2
   0   5  -1 1212.32   61.29   4
   0   5   2 1753.27   84.15  12
   0   5  -2 1763.19   75.86  12
   0   5   2 1760.66   71.79  11
   0   5  -2 1864.45   87.53   5
   0   5  -2 1838.81   83.38   4
   0   5  -2 1867.35   83.17   2
   0   5   2 1813.74   87.04  13
   0   5   3  325.26   44.97  13
   0   5   3  228.25   33.10  11
   0   5  -3  225.32   36.69   2
   0   5  -3  241.21   36.57   5
   0   5   3  209.71   34.58  12
   0   5   3  259.67   39.30  14
   0   5  -3  238.82   36.68   4
   0   5  -3  229.47   32.84   7
   0   5  -4  160.23   35.91   2
   0   5  -4  141.46   32.92   5
   0   5   4   84.05   46.21  13
   0   5   4  187.11   81.15  14
   0   5  -4  198.55   41.92   4
   0   5  -4  169.88   32.62   7
   0   5  -5  467.79   63.64   4
   0   5   5  464.41   58.19  11
   0   5  -5  430.00   61.10   2
   0   5   5  402.51   61.37  13
   0   5   5  393.52   55.76  14
   0   5   6  317.37   56.51  11
   0   5   6  474.01   68.00  13
   0   5  -6  406.60   65.21   4
   0   5   6  416.58   65.16  14
   0   6   046312.38  458.25  12
   0   6   045792.29  404.08  14
   0   6   045270.99  398.49  13
   0   6   045924.09  447.62   5
   0   6   1 2904.25  118.60  12
   0   6  -1 3028.48  114.62  12
   0   6   1 3213.61  113.63   5
   0   6  -1 3148.28  121.20   5
   0   6  -1 3030.80  106.97   4
   0   6   1 3173.49  112.31  14
   0   6  -1 3148.71  105.95   2
   0   6   1 3088.06  113.06  13
   0   6   2  506.14   54.52  12
   0   6  -2  553.46   49.84  12
   0   6  -2  503.03   53.15   5
   0   6  -2  552.36   51.10   2
   0   6  -2  519.49   50.64   4
   0   6   2  510.21   50.89  14
   0   6   2  601.96   57.46  13
   0   6   3  614.32   61.08  12
   0   6  -3  587.22   60.73   5
   0   6  -3  655.78   63.03   4
   0   6   3  577.45   58.00  14
   0   6  -3  625.46   59.15   2
   0   6   3  674.89   65.29  13
   0   6   4 3833.23  146.01  11
   0   6  -4 4621.92  170.65   5
   0   6  -4 4371.65  169.83   4
   0   6   4 4393.17  166.34  14
   0   6  -4 4598.00  174.59   2
   0   6   4 4236.17  171.24  13
   0   6  -5 3431.63  164.17   2
   0   6   5 3487.71  156.91  11
   0   6  -5 3906.69  168.91   5
   0   6  -5 3454.95  168.55   4
   0   6   5 3701.59  167.35  14
   0   6   5 3686.14  175.45  13
   0   6   6   41.96   33.49  11
   0   6   6   44.92   39.74  14
   0   6   6   56.61   41.60  13
   0   7   0   10.54   24.03  12
   0   7   0   -9.34   27.95   5
   0   7   1 6350.82  194.53  12
   0   7  -1 6175.91  182.50  12
   0   7   1 6296.08  180.07   5
   0   7  -1 6688.58  196.00   5
   0   7   1 6341.63  177.78  14
   0   7   1 6436.46  181.75  13
   0   7   2  625.58   66.59  12
   0   7  -2  682.31   64.50  12
   0   7  -2  596.02   65.61   5
   0   7  -2  560.00   55.91   4
   0   7   2  635.29   61.66  14
   0   7   2  590.39   64.59  13
   0   7  -2  658.47   61.61   2
   0   7   3 2132.33  119.55  12
   0   7  -3 2053.96  119.52   5
   0   7  -3 2156.12  116.94   4
   0   7   3 2079.02  114.44  14
   0   7   3 2186.77  123.36  13
   0   7  -3 2226.32  119.93   2
   0   7   4   51.22   39.40  12
   0   7  -4  106.62   40.43   2
   0   7  -4   62.24   34.38   5
   0   7  -4   61.44   39.69   4
   0   7   4   57.29   31.19  14
   0   7   4   54.41   32.27  13
   0   7  -5 1728.57  131.77   4
   0   7   5 1856.06  133.40  14
   0   7   5 1912.50  134.69  13
   0   8   010087.51  260.92  12
   0   8   0 9616.62  247.28   5
   0   8   1  689.49   73.40  12
   0   8  -1  706.18   72.06  12
   0   8   1  735.64   71.65   5
   0   8  -1  696.34   73.72   5
   0   8   1  744.36   70.63  13
   0   8   2   68.59   33.36  12
   0   8  -2  106.40   40.05  12
   0   8  -2   14.88   31.30   5
   0   8   2   29.62   33.26  14
   0   8   2   76.82   37.13  13
   0   8   3  300.23   58.98  12
   0   8   3  197.42   48.21  13
   0   8  -3  243.76   49.02   5
   0   8  -3  186.78   43.18   4
   0   8   3  160.87   47.83  14
   0   8   4 1181.82  112.80  12
   0   8  -4 1093.89  107.29   5
   0   8  -4  929.35   87.80   4
   0   8   4  991.06   93.34  14
   0   8   4 1072.36  103.68  13
   0   9   0   -6.75   35.19  12
   0   9   0   40.31   38.35   5
   0   9   1   42.09   36.50  12
   0   9  -1   52.83   34.78  12
   0   9  -1  -33.31   33.44   5
   0   9   2   92.93   37.62  12
   0   9  -2   31.48   36.92  12
   0   9  -2   62.19   40.83   5
   0   9   2  123.14   42.08  13
   0   9   2  108.43   38.34  14
   0   9   3  143.85   50.06  12
   0   9  -3  126.86   46.40   5
   0   9   3   88.66   47.64  14
   0   9   3    8.30   39.71  13
   0  10   0  213.00   60.11   5
  -1  -9   4  103.62   47.04   8
  -1  -9   3  237.19   56.75   8
  -1  -9   2   25.14   30.57   9
  -1  -9   2   71.72   36.37   8
  -1  -9   1 1052.10   97.17   9
  -1  -9   1 1084.55  100.69   8
  -1  -9   0  167.72   45.58   9
  -1  -8   5   22.03   44.63   8
  -1  -8   5   14.79   36.05   1
   1  -8  -5  -28.30   33.07  16
  -1  -8   4  205.93   53.33   8
   1  -8  -4  237.83   48.54  16
  -1  -8   4  213.47   48.73   3
  -1  -8   4  228.68   54.76   1
   1  -8  -4  146.31   43.29  15
  -1  -8   3 2002.15  126.67   8
  -1  -8   3 1741.24  115.51   3
  -1  -8   2   14.08   26.41   9
  -1  -8   2   -2.03   28.32   8
  -1  -8   1   90.26   36.38   9
  -1  -8   1   37.56   25.97   8
  -1  -8   0 2261.50  129.66   9
  -1  -8   0 2380.99  129.31   8
  -1  -8  -1  993.53   92.64   9
   1  -7  -6   33.02   32.07  16
   1  -7  -6   36.86   36.30  15
  -1  -7   6   18.38   35.46   1
  -1  -7   5  216.11   51.15   8
   1  -7  -5   60.10   33.27  16
  -1  -7   5  117.50   37.97   3
   1  -7  -5   87.14   37.57  15
  -1  -7   5  117.35   41.08   1
  -1  -7   4 1263.93  100.06   3
  -1  -7   4 1324.53   99.71   1
   1  -7  -4 1397.80  103.18  16
  -1  -7   4 1299.97  101.89   8
   1  -7  -4 1214.45   94.13  15
   1  -7  -3  924.83   78.71   9
  -1  -7   3  928.08   80.45   8
   1  -7  -3  893.52   78.53  16
   1  -7  -3  885.87   77.75  15
  -1  -7   3  975.29   81.23   3
  -1  -7   3  880.89   75.84   1
  -1  -7   2 5171.98  168.62   9
   1  -7  -2 4941.62  173.36   9
  -1  -7   2 5129.88  175.94   8
   1  -7  -2 4988.65  164.18  15
  -1  -7   2 4881.67  157.59   1
  -1  -7   2 5126.54  169.74   3
  -1  -7   1 2233.41  112.26   9
   1  -7  -1 2114.87  111.87   9
  -1  -7   1 2245.26  114.00   8
  -1  -7   0 3605.45  143.42   9
  -1  -7   0 3777.20  143.20   8
  -1  -7   0 3710.49  130.72  16
  -1  -7  -1  205.81   43.32   9
  -1  -7  -1  182.42   35.50   8
  -1  -7  -1  217.95   40.56  16
   1  -6  -6  -25.20   31.05  10
  -1  -6   6    6.51   31.45   3
   1  -6  -6   -5.46   30.90  15
  -1  -6   6  109.91   44.41   1
   1  -6  -6    9.86   33.17  16
   1  -6  -5  351.22   55.27  16
   1  -6  -5  367.64   53.18  10
  -1  -6   5  423.85   61.44   3
  -1  -6   5  375.63   60.20   1
  -1  -6   5  367.40   56.73   8
   1  -6  -5  345.07   53.26  15
  -1  -6   4  495.28   62.04   3
   1  -6  -4  446.42   51.28  10
  -1  -6   4  507.90   62.70   8
   1  -6  -4  390.70   52.62  16
   1  -6  -4  494.75   57.41  15
  -1  -6   4  450.05   59.71   1
  -1  -6   3 8980.43  223.59   3
   1  -6  -3 9299.62  224.60   9
  -1  -6   3 9253.04  227.90   8
   1  -6  -3 9465.73  231.32  16
  -1  -6   3 9362.67  219.24   1
   1  -6  -3 9088.44  219.98  15
  -1  -6   2  330.91   40.54   9
   1  -6  -2  320.87   43.28   9
  -1  -6   2  385.46   47.44   8
   1  -6  -2  364.36   44.77  16
  -1  -6   2  350.85   41.22   1
   1  -6  -2  388.46   45.70  15
  -1  -6   2  382.92   46.94   3
  -1  -6   1  152.70   26.39   1
  -1  -6   1  159.22   28.46   9
   1  -6  -1  183.72   34.64   9
  -1  -6   1  143.65   31.42   8
   1  -6  -1  143.31   29.81  15
  -1  -6   0 6512.68  177.37   9
  -1  -6   0 6738.43  173.70   8
  -1  -6  -1 5951.12  178.29   9
  -1  -6  -1 5883.04  160.66   8
  -1  -6  -1 5698.34  165.65  16
  -1  -5   7  227.11   56.13   6
  -1  -5   7  282.93   58.31   1
   1  -5  -7  227.77   52.08  10
   1  -5  -7  120.79   38.23  16
   1  -5  -7  201.05   47.62  15
  -1  -5   6  885.44   90.55   3
   1  -5  -6  813.66   77.60  10
  -1  -5   6  768.26   84.79   1
   1  -5  -6  807.06   79.22  16
   1  -5  -6  724.92   72.67  15
  -1  -5   6  782.40   79.81   6
  -1  -5   5  107.75   28.99   6
   1  -5  -5   80.62   28.47  10
  -1  -5   5  113.81   33.63   1
  -1  -5   5  118.91   34.52   3
  -1  -5   5  106.48   31.29   8
   1  -5  -5   90.80   31.36  15
  -1  -5   4  158.37   33.25   6
  -1  -5   4  132.09   35.53   1
   1  -5  -4  164.07   33.12  10
  -1  -5   4  183.46   38.21   3
  -1  -5   4  123.70   31.55   8
   1  -5  -4  183.79   40.04  16
   1  -5  -4  174.13   34.95  15
  -1  -5   3 3909.94  136.98   3
   1  -5  -3 3940.88  134.39  15
   1  -5  -3 4017.78  123.46  10
   1  -5  -3 4101.83  137.04   9
  -1  -5   3 4028.69  135.11   1
  -1  -5   3 3987.33  139.14   8
   1  -5  -3 4071.30  142.48  16
   1  -5  -2 2887.00   91.28  10
  -1  -5   2 2856.63  102.13   9
   1  -5  -2 2790.10  109.57   9
  -1  -5   2 2717.52  108.37   8
  -1  -5   2 2884.91  104.36   1
   1  -5  -2 2921.83  110.47  16
   1  -5  -2 2642.82  104.60  15
  -1  -5   2 2990.41  108.71   3
  -1  -5   1 6354.41  153.38   9
   1  -5  -1 6454.82  162.61   9
  -1  -5   1 6668.30  161.13   8
   1  -5  -1 6587.42  151.93  15
  -1  -5   1 6626.77  140.94   1
  -1  -5   1 6369.21  125.93  16
  -1  -5   0  189.64   30.21   9
  -1  -5   0  177.29   26.27   8
  -1  -5   0  144.93   24.42  16
  -1  -5  -1 1031.47   69.51   9
  -1  -5  -1 1143.67   66.77   8
  -1  -5  -1  998.36   65.92  16
  -1  -4   7  299.74   60.87   6
   1  -4  -7  341.61   58.85  10
  -1  -4   7  334.26   55.91   3
  -1  -4   7  352.82   64.40   1
   1  -4  -7  289.10   52.16  15
  -1  -4   6  -15.45   31.90   6
   1  -4  -6  -12.74   29.48  10
  -1  -4   6   20.21   24.65   3
  -1  -4   6   67.73   34.81   1
   1  -4  -6   24.17   24.78  16
   1  -4  -6  110.07   37.56  15
  -1  -4   5 2123.93  116.89   3
   1  -4  -5 2057.65  109.26  10
   1  -4  -5 2230.74  116.09  16
   1  -4  -5 2085.37  108.46  15
  -1  -4   5 2105.50  114.52   1
  -1  -4   5 2131.02  111.32   6
  -1  -4   4  852.84   67.49   3
   1  -4  -4  974.83   69.43  15
   1  -4  -4  938.47   67.07  10
  -1  -4   4  946.64   66.01   8
   1  -4  -4  878.71   66.70  16
  -1  -4   4  888.88   67.41   1
  -1  -4   4  999.85   67.80   6
  -1  -4   3 1427.49   76.89   3
   1  -4  -3 1358.53   69.45  10
  -1  -4   3 1275.09   58.64   9
  -1  -4   3 1364.10   74.26   8
   1  -4  -3 1380.02   77.02  16
  -1  -4   3 1372.49   74.64   1
   1  -4  -3 1328.90   73.28  15
  -1  -4   3 1238.39   64.94   6
  -1  -4   2  215.02   27.90   1
   1  -4  -2  222.05   25.49  10
  -1  -4   2  162.98   24.75   3
  -1  -4   2  212.69   25.44   9
   1  -4  -2  205.19   28.69   9
  -1  -4   2  226.04   29.81   8
   1  -4  -2  231.77   30.91  16
   1  -4  -2  195.57   27.62  15
  -1  -4   129555.03  301.24   9
  -1  -4   130501.23  316.33   8
  -1  -4   129982.83  280.28   1
  -1  -4   129857.23  255.43  16
  -1  -4   032535.91  339.17   9
  -1  -4   032382.21  324.68   8
  -1  -4   032368.31  312.69  16
  -1  -3   8 1115.09  109.06   1
  -1  -3   7  372.76   62.39   1
  -1  -3   7  429.85   64.48   6
   1  -3  -7  340.41   54.64  10
  -1  -3   7  304.56   50.60   3
  -1  -3   6 5157.35  188.79   3
  -1  -3   6 5214.31  187.39   1
   1  -3  -6 5416.58  190.20  10
   1  -3  -6 5274.60  178.19  16
   1  -3  -6 5010.67  168.52  15
  -1  -3   6 4951.95  186.01   6
  -1  -3   5  101.13   28.23   6
  -1  -3   5   28.78   23.68   1
   1  -3  -5   23.59   22.82  10
  -1  -3   5   67.06   30.03   3
   1  -3  -5   74.21   27.85  16
   1  -3  -5   57.04   24.73  15
   1  -3  -5   64.64   24.26   7
  -1  -3   4 7596.33  185.11   3
   1  -3  -4 7877.65  182.30  10
  -1  -3   4 7516.31  166.07   8
   1  -3  -4 8158.95  188.61  16
  -1  -3   4 8051.06  186.60   1
  -1  -3   4 7883.52  179.76   6
   1  -3  -4 7645.60  176.77  15
   1  -3  -4 8055.14  158.83   7
  -1  -3   312135.79  207.44   3
   1  -3  -312012.99  199.48  10
  -1  -3   311956.99  152.49   9
  -1  -3   312029.99  197.79   8
  -1  -3   311997.89  207.49   1
   1  -3  -313019.08  217.33  16
   1  -3  -312595.99  210.27  15
   1  -3  -312500.49  172.04   7
  -1  -3   312405.99  197.45   6
  -1  -3   2  221.80   26.34   1
  -1  -3   2  219.09   26.89   3
   1  -3  -2  217.46   26.13  15
   1  -3  -2  153.60   20.72  10
  -1  -3   2  186.15   21.54   9
  -1  -3   2  202.27   25.68   8
   1  -3  -2  176.46   24.26  16
  -1  -3   127178.06  269.72   9
  -1  -3   126889.36  279.29   8
   1  -2  -8 1928.59  133.65  10
  -1  -2   7  -11.21   31.00   6
  -1  -2   7   15.00   27.92   1
   1  -2  -7  -30.81   31.62  10
   1  -2  -7  -50.58   37.20   7
  -1  -2   6  -26.02   25.98   6
   1  -2  -6   17.67   27.09  10
  -1  -2   6   16.61   24.91   1
  -1  -2   6    4.48   21.68   3
   1  -2  -6    4.34   27.55   7
   1  -2  -5  514.83   48.27  15
  -1  -2   5  569.53   56.52   6
  -1  -2   5  545.51   53.55   3
  -1  -2   5  523.18   49.89  11
   1  -2  -5  536.41   54.72  10
   1  -2  -5  544.52   52.57  16
   1  -2  -5  600.07   54.48   7
  -1  -2   5  524.91   52.59   1
  -1  -2   4  827.20   58.57   6
  -1  -2   4  702.32   53.88   3
  -1  -2   4  790.21   51.16  11
   1  -2  -4  851.61   59.05  10
  -1  -2   4  811.59   48.44   8
   1  -2  -4  813.22   55.40  16
  -1  -2   4  805.69   57.11   1
   1  -2  -4  759.79   52.57  15
   1  -2  -4  774.02   51.81   7
  -1  -2   312454.39  195.28   3
   1  -2  -311887.79  192.23  10
   1  -2  -311996.49  186.99  15
  -1  -2   312486.79  179.63   8
  -1  -2   312258.39  193.54   1
   1  -2  -312141.69  191.11  16
   1  -2  -312504.89  175.02   7
  -1  -2   312369.79  189.93   6
  -1  -2   2 4801.51  108.25   1
  -1  -2   2 4606.99  105.97   8
  -1  -2   2 4864.67  109.47   3
   1  -1  -8  131.72   45.64  10
   1  -1  -8   56.33   31.82   7
  -1  -1   7  308.08   56.08   6
  -1  -1   7  324.98   56.86  11
   1  -1  -7  335.46   54.24  10
   1  -1  -7  382.46   58.89   7
  -1  -1   6   99.20   31.42   6
  -1  -1   6   94.31   31.27  11
   1  -1  -6  113.30   30.22  10
  -1  -1   6   66.18   24.37   3
  -1  -1   6  101.91   29.69   1
   1  -1  -6   67.35   26.42   7
  -1  -1   5   74.55   22.97   1
  -1  -1   5  122.43   27.87   6
  -1  -1   5   68.48   24.52  11
   1  -1  -5   88.58   23.80  10
  -1  -1   5   64.79   21.94   3
   1  -1  -5   69.07   19.87  15
   1  -1  -5   49.59   23.74   7
  -1  -1   4  365.32   38.72   6
  -1  -1   4  364.94   36.23   3
  -1  -1   4  379.99   38.54  11
   1  -1  -4  337.76   35.91  10
   1  -1  -4  337.86   29.13   2
  -1  -1   4  367.98   36.91   1
   1  -1  -4  335.37   33.72  16
   1  -1  -4  308.12   31.13  15
   1  -1  -4  340.79   36.66   7
  -1  -1   334192.69  307.91   3
  -1  -1   334042.19  294.58  11
   1  -1  -333286.90  304.52  10
   1  -1  -333714.20  240.69   2
  -1  -1   333663.90  259.73   8
  -1  -1   333764.10  299.12   1
   1  -1  -333666.20  295.88   7
   1  -1  -334520.89  286.70  15
  -1  -1   335376.68  314.29   6
  -1   0   8 1906.70  138.83  11
   1   0  -8 1997.08  133.94  10
   1   0  -8 1772.86  124.04   7
  -1   0   7 1640.92  116.62  11
   1   0  -7 1329.40  100.04  10
   1   0  -7 1224.17   98.00   7
  -1   0   7 1321.06  102.94   6
  -1   0   6    7.99   22.21   6
  -1   0   6  -20.89   29.35  11
   1   0  -6    7.54   21.81  10
   1   0  -6    4.68   21.69   7
  -1   0   5 3385.26  127.45   6
  -1   0   5 3754.09  130.38  11
   1   0  -5 3363.45  120.57  10
   1   0  -5 3412.43  115.18   4
   1   0  -5 3522.15  112.17   2
   1   0  -5 3423.79  124.66   7
  -1   0   5 3566.27  118.22   1
  -1   0   5 3329.68  114.83   3
  -1   0   4 4328.32  123.37   6
  -1   0   4 4438.40  124.43  11
   1   0  -4 4303.66  119.28  10
   1   0  -4 4033.43  109.67   4
   1   0  -4 4355.51  107.80   2
  -1   0   4 4088.90  108.07   1
   1   0  -4 4182.70   96.67  15
   1   0  -4 3958.32  118.03   7
  -1   0   4 4039.63  112.21   3
  -1   0   394785.25  525.96  11
   1   0  -399999.00  523.01  10
   1   0  -397922.82  482.13   2
  -1   0   397399.12  483.91   1
   1   0  -396759.23  532.64   7
   1   0  -396916.93  442.60  15
  -1   0   397872.02  531.61   6
  -1   1   8  -24.83   36.13   6
   1   1  -8   34.57   32.06   7
  -1   1   7  302.84   53.15   6
  -1   1   7  437.12   64.74  11
   1   1  -7  348.00   55.60  10
   1   1  -7  402.91   57.64   7
  -1   1   6    6.94   25.23   6
  -1   1   6   72.25   32.91  11
   1   1  -6   72.15   28.48  10
   1   1  -6   67.00   29.72   4
   1   1  -6  130.50   35.16   7
   1   1  -5   57.48   21.70   2
  -1   1   5   90.68   26.42   6
  -1   1   5   27.50   24.76  11
   1   1  -5   79.76   26.30  10
   1   1  -5   73.57   23.99   4
   1   1  -5   68.30   28.02   7
  -1   1   5   67.24   20.84  14
  -1   1   4  333.90   38.83  11
   1   1  -4  353.19   34.41  10
   1   1  -4  366.07   37.00   4
   1   1  -4  340.96   34.68   2
  -1   1   4  346.47   30.63   1
   1   1  -4  395.48   40.77   7
  -1   1   4  354.76   34.21  14
  -1   1   4  317.20   36.00   6
   1   1  -332781.30  281.67  10
  -1   1   333552.50  246.93   1
   1   1  -333305.00  297.62   2
   1   1  -333890.39  303.77   4
   1   1  -333631.90  314.11   7
  -1   1   333758.50  293.05  14
  -1   1   333629.90  296.01   6
   1   2  -8 2042.57  143.45   7
  -1   2   8 1737.31  128.35   6
  -1   2   7   27.21   26.13   6
  -1   2   7   52.93   33.47  11
   1   2  -7   32.83   32.04   4
   1   2  -7   98.06   41.80   7
  -1   2   6   24.28   27.04   6
   1   2  -6   10.44   25.70   2
  -1   2   6  -20.53   27.92  11
   1   2  -6   20.90   27.63   4
   1   2  -6    0.26   28.15   7
   1   2  -5  435.10   48.09   2
  -1   2   5  543.61   56.06  11
   1   2  -5  488.86   45.35  10
   1   2  -5  535.33   53.29   4
   1   2  -5  516.07   53.54   7
  -1   2   5  515.00   50.82  14
  -1   2   5  540.02   51.20   6
  -1   2   4  757.22   55.38  11
   1   2  -4  720.89   49.48   5
   1   2  -4  817.34   49.19  10
   1   2  -4  713.40   53.71   4
   1   2  -4  804.37   56.93   2
   1   2  -4  732.44   55.60   7
  -1   2   4  792.52   53.67  14
  -1   2   4  784.49   52.63   6
  -1   2   312578.09  197.81  11
   1   2  -312858.48  164.68  10
   1   2  -312136.29  182.71   5
   1   2  -311956.79  191.24   2
   1   2  -312412.29  193.07   4
   1   2  -312579.69  195.44   7
  -1   2   312237.29  188.08  14
   1   2  -2 4707.57  105.39   2
   1   2  -2 4967.37  110.06   4
   1   2  -2 4861.50  102.53   7
  -1   3   7  418.53   62.72  11
   1   3  -7  463.72   66.18   2
   1   3  -7  397.73   61.79   4
   1   3  -7  346.42   61.50   7
  -1   3   6 5707.46  199.49  11
   1   3  -6 5490.18  189.83   4
   1   3  -6 5085.60  180.14   2
   1   3  -6 4723.65  177.88   7
  -1   3   6 5334.04  186.89  14
  -1   3   6 5117.67  176.78  13
  -1   3   5   75.68   23.42   6
   1   3  -5  163.72   36.96   2
  -1   3   5   19.05   21.64  11
   1   3  -5  119.26   32.90   4
   1   3  -5   87.08   33.21   7
  -1   3   5   38.45   26.98  14
  -1   3   4 7881.74  184.62  11
   1   3  -4 7131.05  161.45   5
   1   3  -4 7456.49  180.65   4
   1   3  -4 7472.67  179.49   2
   1   3  -4 7766.52  175.55   7
  -1   3   4 7839.83  180.50  14
  -1   3   311784.19  203.11  11
   1   3  -312357.09  147.82  10
   1   3  -312729.19  201.39   5
   1   3  -312997.68  211.03   2
   1   3  -312362.19  207.94   4
   1   3  -312752.19  196.66   7
  -1   3   312574.99  207.82  14
   1   3  -2  192.21   24.92   2
   1   3  -2  179.54   25.21   5
   1   3  -2  202.77   27.66   4
   1   3  -2  191.46   22.49   7
  -1   3   2  173.89   24.96  14
   1   3  -127223.75  276.46   5
  -1   4   7  331.20   70.20  11
   1   4  -7  338.00   60.15   2
   1   4  -7  272.71   60.71   4
  -1   4   7  332.63   58.99  14
   1   4  -7  428.85   65.80   7
  -1   4   6   -7.57   31.69  13
  -1   4   6  -16.94   33.79  11
   1   4  -6    8.01   28.96   2
   1   4  -6   43.65   29.99   4
   1   4  -6   70.48   32.79   7
  -1   4   6   86.83   40.46  14
  -1   4   5 1998.22  110.22  11
   1   4  -5 2089.76  114.66   4
   1   4  -5 2061.54  111.58   2
   1   4  -5 1906.48  102.14   7
  -1   4   5 2193.79  114.65  14
  -1   4   5 2333.54  122.93  13
   1   4  -4  857.77   63.91   5
   1   4  -4  972.68   71.93   4
   1   4  -4  941.42   69.70   2
   1   4  -4  959.42   64.00   7
  -1   4   3 1355.60   72.91  11
   1   4  -3 1242.00   70.53   5
   1   4  -3 1398.86   76.84   4
   1   4  -3 1392.25   75.09   2
   1   4  -3 1322.55   65.71   7
  -1   4   3 1325.30   73.59  14
   1   4  -2  215.21   27.79   2
  -1   4   2  227.84   23.95   5
   1   4  -2  200.47   30.74   5
   1   4  -2  229.64   25.74   7
   1   4  -2  217.57   29.94   4
  -1   4   2  183.24   27.99  14
   1   4  -130400.43  315.72   5
   1   4  -130022.03  281.76   2
   1   4  -129694.23  221.82   7
   1   4   033222.60  345.91  12
   1   5  -7  142.65   50.79   2
  -1   5   7  163.73   50.69  14
   1   5  -7  278.40   59.33   7
  -1   5   7  261.53   61.64  13
  -1   5   6  740.78   81.67  11
   1   5  -6  611.23   75.33   2
   1   5  -6  883.21   89.93   4
   1   5  -6  753.54   77.71   7
  -1   5   6  752.65   79.21  14
  -1   5   6  957.85   94.53  13
  -1   5   5   64.97   34.45  13
   1   5  -5  144.13   41.71   2
  -1   5   5  150.57   43.15  11
   1   5  -5   91.25   37.47   5
   1   5  -5  115.97   38.83   4
   1   5  -5  193.88   40.50   7
  -1   5   5  182.99   44.71  14
  -1   5   4  124.15   32.88  12
   1   5  -4  171.74   35.86   2
  -1   5   4  109.78   28.49  11
   1   5  -4  131.28   32.33   5
   1   5  -4  116.12   36.47   4
   1   5  -4  109.41   28.55   7
  -1   5   4  201.46   41.30  14
   1   5  -3 3794.65  135.48   5
   1   5  -3 3915.64  136.65   4
   1   5  -3 3769.37  131.68   2
  -1   5   3 4018.03  138.29  14
   1   5  -2 2878.63  108.69  12
   1   5  -2 2841.43  110.22   5
  -1   5   2 2728.45   89.65   5
   1   5  -2 2927.97  108.03   4
   1   5  -2 2819.31  102.28   2
  -1   5   2 2908.99  108.38  14
   1   5  -1 6891.63  165.05  12
   1   5  -1 6589.32  161.81   5
  -1   5   1 6516.63  146.25   5
   1   5  -1 6417.89  139.15   2
   1   5   0  163.54   21.77   2
   1   5   0  225.07   37.58  12
   1   5   0  204.41   31.72   5
   1   5   1 1150.87   81.62  12
  -1   6   6  -26.73   30.68  11
   1   6  -6   16.95   34.18   2
   1   6  -6  -64.11   43.17   4
  -1   6   6   92.02   41.46  14
  -1   6   6   19.68   46.11  13
  -1   6   5  455.79   68.19  13
  -1   6   5  311.72   51.16  11
   1   6  -5  399.22   61.87   2
   1   6  -5  352.20   58.67   5
   1   6  -5  333.25   58.38   4
  -1   6   5  386.66   59.86  14
  -1   6   4  478.36   61.60  12
   1   6  -4  454.65   58.37   2
   1   6  -4  403.75   55.49   5
   1   6  -4  457.38   57.63   4
  -1   6   4  432.72   56.22  14
   1   6  -3 9431.25  229.93   5
   1   6  -3 9258.96  225.73   4
   1   6  -3 8617.06  212.61   2
  -1   6   3 8787.60  219.83  14
   1   6  -2  401.69   47.94  12
   1   6  -2  345.68   41.86   2
   1   6  -2  414.78   52.00   5
   1   6  -2  323.77   41.73   4
  -1   6   2  435.86   49.52  14
   1   6  -1  217.47   34.14   2
   1   6  -1  153.36   30.83  12
   1   6  -1  200.40   36.20   5
  -1   6   1  160.77   27.85   5
   1   6   0 6717.51  184.11  12
   1   6   0 6306.15  172.49   5
   1   6   1 5583.20  176.42  12
   1   7  -6  105.61   47.28   2
  -1   7   5  111.79   44.91  13
   1   7  -5   93.21   36.30   2
   1   7  -5  201.80   54.45   5
   1   7  -5  118.34   39.08   4
  -1   7   5  197.07   54.23  14
  -1   7   4 1467.65  106.36  12
   1   7  -4 1334.25  101.90   5
   1   7  -4 1243.10   97.82   4
   1   7  -4 1182.03   92.62   2
  -1   7   4 1355.66  101.28  14
  -1   7   4 1285.47  100.02  13
  -1   7   3  858.43   78.29  12
   1   7  -3  832.41   79.51   5
   1   7  -3  897.42   78.22   4
   1   7  -3  830.88   72.99   2
  -1   7   3  867.63   78.74  14
   1   7  -2 5205.27  179.50  12
   1   7  -2 5292.14  180.88   5
   1   7  -2 4768.26  161.00   4
   1   7  -2 5319.18  165.00   2
   1   7  -1 2466.74  122.11  12
   1   7  -1 2239.19  116.00   5
   1   7   0 3967.65  157.78  12
   1   7   0 3625.70  145.23   5
   1   7   1  179.31   42.51  12
   1   8  -5  -50.61   46.43   2
  -1   8   4  320.16   65.77  13
   1   8  -4  143.17   42.36   2
   1   8  -4  151.80   44.03   5
   1   8  -4  184.81   50.76   4
  -1   8   4  306.28   62.37  14
  -1   8   3 1886.21  123.53  12
   1   8  -3 1711.56  120.25   5
   1   8  -3 1716.22  111.52   4
   1   8  -3 1933.58  117.46   2
  -1   8   3 2014.60  128.79  13
   1   8  -2  -26.31   34.28  12
   1   8  -2   -6.62   31.35   5
   1   8  -1  113.18   38.13  12
   1   8  -1   60.84   38.66   5
   1   8   0 2253.08  132.94  12
   1   8   1 1009.66   97.19  12
   1   9  -4   73.93   50.24   2
   1   9  -3  267.74   63.86   5
   1   9  -2   53.40   39.66   5
   1   9  -1 1268.15  110.05  12
   1   9  -1 1133.69  104.24   5
   0   0   0    0.00    0.00   0
;
_shelx_hkl_checksum              21336
loop_
_space_group_symop_operation_xyz
'x, y, z'
'-x, y+1/2, -z'
'-x, -y, -z'
'x, -y-1/2, z'
loop_
_atom_site_label
_atom_site_type_symbol
_atom_site_fract_x
_atom_site_fract_y
_atom_site_fract_z
_atom_site_U_iso_or_equiv
_atom_site_adp_type
_atom_site_occupancy
_atom_site_site_symmetry_order
_atom_site_calc_flag
_atom_site_refinement_flags_posn
_atom_site_refinement_flags_adp
_atom_site_refinement_flags_occupancy
_atom_site_disorder_assembly
_atom_site_disorder_group
C5 C 0.750(2) 0.4002(2) 0.2490(4) 0.059(10) Uani 1 1 d . . . . .
H5A H 0.9192 0.3927 0.3442 0.089 Uiso 1 1 calc GR . . . .
H5B H 0.6685 0.4950 0.2801 0.089 Uiso 1 1 calc GR . . . .
H5C H 0.7569 0.4065 0.1081 0.089 Uiso 1 1 calc GR . . . .
C2 C 0.574(5) 0.2500 0.4919(16) 0.042(6) Uani 1 2 d DS TU P . .
O1 O 0.372(4) 0.2500 0.5182(12) 0.063(6) Uani 1 2 d S TU P . .
C1 C 0.811(5) 0.2500 0.6734(8) 0.051(7) Uani 1 2 d DS TU P . .
H1A H 0.956(10) 0.284(11) 0.632(13) 0.077 Uiso 0.5 1 d DR . . A -1
H1C H 0.81(5) 0.140(4) 0.725(10) 0.077 Uiso 0.5 1 d DR . . B -1
H1B H 0.74(2) 0.290(7) 0.776(13) 0.077 Uiso 0.5 1 d DR . . C -1
C3 C 0.596(2) 0.2500 0.2721(5) 0.029(5) Uani 1 2 d S TU P . .
C4 C 0.332(3) 0.2500 0.1091(6) 0.043(5) Uani 1 2 d DS TU P . .
H4A H 0.235(11) 0.343(3) 0.132(4) 0.049(8) Uiso 1 1 d D . . . .
H4B H 0.35(2) 0.2500 -0.031(8) 0.059(12) Uiso 1 2 d DS T P . .
loop_
_atom_site_aniso_label
_atom_site_aniso_U_11
_atom_site_aniso_U_22
_atom_site_aniso_U_33
_atom_site_aniso_U_23
_atom_site_aniso_U_13
_atom_site_aniso_U_12
C5 0.10(3) 0.0330(11) 0.0420(15) 0.0019(9) 0.025(6) -0.004(3)
C2 0.047(15) 0.0349(18) 0.039(3) 0.000 0.003(8) 0.000
O1 0.052(17) 0.087(3) 0.045(3) 0.000 0.009(10) 0.000
C1 0.04(2) 0.080(3) 0.025(2) 0.000 0.004(6) 0.000
C3 0.026(13) 0.0292(14) 0.0263(16) 0.000 0.000(4) 0.000
C4 0.032(16) 0.053(2) 0.035(2) 0.000 -0.004(5) 0.000
loop_
_atom_type_symbol
_atom_type_description
_atom_type_scat_dispersion_real
_atom_type_scat_dispersion_imag
_atom_type_scat_source
C C 0.0033 0.0016 'International Tables Vol C Tables 4.2.6.8 and 6.1.1.4'
H H 0.0000 0.0000 'International Tables Vol C Tables 4.2.6.8 and 6.1.1.4'
O O 0.0106 0.0060 'International Tables Vol C Tables 4.2.6.8 and 6.1.1.4'
loop_
_citation_id
_citation_doi
_citation_year
1 10.1021/acs.cgd.5b01156 2015
loop_
_geom_angle_atom_site_label_1
_geom_angle_atom_site_label_2
_geom_angle_atom_site_label_3
_geom_angle
_geom_angle_site_symmetry_1
_geom_angle_site_symmetry_3
O1 C2 C1 120.7(16) . .
O1 C2 C3 120.4(16) . .
C1 C2 C3 118.9(18) . .
C5 C3 C5 107.9(10) . 4_565
C2 C3 C5 108.0(6) . 4_565
C2 C3 C5 108.0(6) . .
C2 C3 C4 110.6(13) . .
C4 C3 C5 111.1(4) . .
C4 C3 C5 111.1(4) . 4_565
loop_
_geom_bond_atom_site_label_1
_geom_bond_atom_site_label_2
_geom_bond_distance
_geom_bond_site_symmetry_2
C5 C3 1.542(10) .
C2 O1 1.18(4) .
C2 C1 1.49(2) .
C2 C3 1.518(14) .
C3 C5 1.542(10) 4_565
C3 C4 1.532(17) .
loop_
_geom_torsion_atom_site_label_1
_geom_torsion_atom_site_label_2
_geom_torsion_atom_site_label_3
_geom_torsion_atom_site_label_4
_geom_torsion
_geom_torsion_site_symmetry_1
_geom_torsion_site_symmetry_2
_geom_torsion_site_symmetry_3
_geom_torsion_site_symmetry_4
O1 C2 C3 C5 121.8(7) . . . .
O1 C2 C3 C5 -121.8(7) . . . 4_565
O1 C2 C3 C4 0.000(5) . . . .
C1 C2 C3 C5 -58.2(7) . . . .
C1 C2 C3 C5 58.2(7) . . . 4_565
C1 C2 C3 C4 180.000(5) . . . .
