#------------------------------------------------------------------------------
#$Date: 2017-12-10 03:21:49 +0200 (Sun, 10 Dec 2017) $
#$Revision: 204123 $
#$URL: file:///home/coder/svn-repositories/cod/cif/4/51/30/4513061.cif $
#------------------------------------------------------------------------------
#
# This file is available in the Crystallography Open Database (COD),
# http://www.crystallography.net/
#
# All data on this site have been placed in the public domain by the
# contributors.
#
data_4513061
loop_
_publ_author_name
'Timokhin, Ivan'
'Pettinari, Claudio'
'Marchetti, Fabio'
'Pettinari, Riccardo'
'Condello, Francesca'
'Galli, Simona'
'Alegria, Elisabete C. B. A.'
'Martins, Lu\'isa M. D. R. S.'
'Pombeiro, Armando J. L.'
_publ_section_title
;
 Novel Coordination Polymers with (Pyrazolato)-Based Tectons: Catalytic
 Activity in the Peroxidative Oxidation of Alcohols and Cyclohexane
;
_journal_issue                   5
_journal_name_full               'Crystal Growth &amp; Design'
_journal_page_first              2303
_journal_paper_doi               10.1021/acs.cgd.5b00083
_journal_volume                  15
_journal_year                    2015
_chemical_formula_moiety         'C7 H6 Cu N4'
_chemical_formula_structural     'Cu (C7 H6 N4)'
_chemical_formula_sum            'C7 H6 Cu N4'
_chemical_formula_weight         209.70
_chemical_name_systematic
;
catena-(bis(4-pyrazolato)methane)-cu(ii)
;
_space_group_crystal_system      orthorhombic
_space_group_IT_number           63
_space_group_name_Hall           '-C 2c 2'
_space_group_name_H-M_alt        'C m c m'
_cell_angle_alpha                90
_cell_angle_beta                 90
_cell_angle_gamma                90
_cell_formula_units_Z            4
_cell_length_a                   8.89432(75)
_cell_length_b                   12.1851(17)
_cell_length_c                   7.28369(91)
_cell_measurement_temperature    298
_cell_volume                     789.39(16)
_computing_cell_refinement       TOPAS-R
_computing_data_collection       'Bruker D8 Commander'
_computing_structure_refinement  TOPAS-R
_computing_structure_solution    TOPAS-R
_diffrn_ambient_temperature      298
_diffrn_detector_type            'Bruker Lynxeye linear PSD'
_diffrn_measurement_device_type  'Bruker AXS D8 Advance'
_diffrn_radiation_monochromator  'Nickel filter'
_diffrn_radiation_wavelength     'CuK\a~1~ 1.54056 CuK\a~2~ 1.54439'
_diffrn_source_target            Cu
_diffrn_source_type              'sealed X-ray tube'
_exptl_crystal_density_diffrn    1.76
_exptl_crystal_density_method    'not measured'
_exptl_crystal_F_000             420
_pd_char_colour                  'light green'
_pd_instr_location               ' ?'
_pd_meas_2theta_range_inc        0.02
_pd_meas_2theta_range_max        105
_pd_meas_2theta_range_min        5
_pd_meas_number_of_points        5001
_pd_meas_scan_method             step
_pd_proc_2theta_range_inc        0.02
_pd_proc_2theta_range_max        105
_pd_proc_2theta_range_min        10.5
_pd_proc_ls_background_function  'Chebychev polynomial'
_pd_proc_ls_profile_function     'fundamental parameters approach'
_pd_proc_ls_prof_R_factor        0.016
_pd_proc_ls_prof_wR_expected     0.011
_pd_proc_ls_prof_wR_factor       0.021
_pd_spec_mounting
;
 packed powder pellet
;
_pd_spec_mount_mode              reflection
_pd_spec_shape                   flat_sheet
_pd_spec_size_axial              20
_pd_spec_size_equat              15
_pd_spec_size_thick              0.1
_refine_ls_extinction_method     none
_refine_ls_matrix_type           fullcycle
_refine_ls_number_parameters     27
_refine_ls_number_restraints     0
_refine_ls_shift/su_max          .01
_refine_ls_structure_factor_coef Inet
_refine_ls_weighting_details     'w = 1/[Y~i~]'
_refine_ls_weighting_scheme      calc
_cod_data_source_file            cg5b00083_si_007.cif
_cod_data_source_block
;
;
_cod_depositor_comments
;
The following automatic conversions were performed:

'_refine_ls_weighting_scheme' value '1/[Y~i~]' was changed to 'calc'.
New tag '_refine_ls_weighting_details' was created. The value of the
new tag was set to 'w = 1/[Y~i~]'.

Automatic conversion script
Id: cif_fix_values 3271 2015-04-21 07:52:19Z andrius 
;
_cod_original_cell_volume        789.40(16)
_cod_database_code               4513061
loop_
_space_group_symop_id
_space_group_symop_operation_xyz
1 '-x, -y, -z'
2 '-x, -y, z+1/2'
3 '-x, y, -z+1/2'
4 '-x, y, z'
5 '-x+1/2, -y+1/2, -z'
6 '-x+1/2, -y+1/2, z+1/2'
7 '-x+1/2, y+1/2, -z+1/2'
8 '-x+1/2, y+1/2, z'
9 'x, -y, -z'
10 'x, -y, z+1/2'
11 'x, y, -z+1/2'
12 'x, y, z'
13 'x+1/2, -y+1/2, -z'
14 'x+1/2, -y+1/2, z+1/2'
15 'x+1/2, y+1/2, -z+1/2'
16 'x+1/2, y+1/2, z'
loop_
_atom_site_label
_atom_site_type_symbol
_atom_site_symmetry_multiplicity
_atom_site_fract_x
_atom_site_fract_y
_atom_site_fract_z
_atom_site_occupancy
_atom_site_B_iso_or_equiv
Cu Cu 4 0 -0.5 0 1 1.99(13)
C1 C 4 0 -0.2158599 0.25 1 3.99(13)
C2 C 8 0.1393047 -0.1540451 0.25 1 3.99(13)
C3 C 16 0.2161034 -0.1199666 0.09894152 1 3.99(13)
H3 H 16 0.1879 -0.1324815 -0.02510326 1 3.99(13)
N1 N 16 0.3403664 -0.06482638 0.1566407 1 3.99(13)
H1 H 8 0 -0.26049 0.10798 1 3.99(13)
loop_
_atom_type_symbol
_atom_type_description
_atom_type_scat_source
C C 'International Tables for Crystallography (Vol. IV)'
H H 'International Tables for Crystallography (Vol. IV)'
Cu Cu 'International Tables for Crystallography (Vol. IV)'
N N 'International Tables for Crystallography (Vol. IV)'
loop_
_diffrn_radiation_type
'Cu K\a'
loop_
_pd_proc_wavelength
1.540562
1.544390
