#------------------------------------------------------------------------------
#$Date: 2016-02-13 14:50:18 +0200 (Sat, 13 Feb 2016) $
#$Revision: 176428 $
#$URL: svn://www.crystallography.net/cod/cif/4/51/34/4513411.cif $
#------------------------------------------------------------------------------
#
# This file is available in the Crystallography Open Database (COD),
# http://www.crystallography.net/
#
# All data on this site have been placed in the public domain by the
# contributors.
#
data_4513411
loop_
_publ_author_name
'George, Fanny'
'Norberg, Bernadette'
'Wouters, Johan'
'Leyssens, Tom'
_publ_section_title
;
 Structural Investigation of Substituent Effect on Hydrogen Bonding in
 (S)-Phenylglycine Amide Benzaldimines
;
_journal_issue                   8
_journal_name_full               'Crystal Growth &amp; Design'
_journal_page_first              4005
_journal_paper_doi               10.1021/acs.cgd.5b00621
_journal_volume                  15
_journal_year                    2015
_chemical_absolute_configuration rm
_chemical_formula_moiety         'C16 H16 N2 O'
_chemical_formula_sum            'C16 H16 N2 O'
_chemical_formula_weight         252.31
_chemical_name_systematic
;
 ?
;
_space_group_IT_number           4
_symmetry_cell_setting           monoclinic
_symmetry_space_group_name_Hall  'P 2yb'
_symmetry_space_group_name_H-M   'P 1 21 1'
_atom_sites_solution_hydrogens   geom
_atom_sites_solution_primary     direct
_atom_sites_solution_secondary   difmap
_audit_creation_method           SHELXL-97
_cell_angle_alpha                90.00
_cell_angle_beta                 90.377(4)
_cell_angle_gamma                90.00
_cell_formula_units_Z            2
_cell_length_a                   8.2225(4)
_cell_length_b                   5.7932(3)
_cell_length_c                   14.5687(6)
_cell_measurement_reflns_used    4233
_cell_measurement_temperature    293(2)
_cell_measurement_theta_max      29.1605
_cell_measurement_theta_min      3.5097
_cell_volume                     693.96(6)
_computing_cell_refinement
;
CrysAlisPro, Agilent Technologies,
Version 1.171.35.21 (release 20-01-2012 CrysAlis171 .NET)
(compiled Jan 23 2012,18:06:46)
;
_computing_data_collection
;
CrysAlisPro, Agilent Technologies,
Version 1.171.35.21 (release 20-01-2012 CrysAlis171 .NET)
(compiled Jan 23 2012,18:06:46)
;
_computing_data_reduction
;
CrysAlisPro, Agilent Technologies,
Version 1.171.35.21 (release 20-01-2012 CrysAlis171 .NET)
(compiled Jan 23 2012,18:06:46)
;
_computing_structure_refinement  'SHELXL-97 (Sheldrick, 1997)'
_computing_structure_solution    Sir2004
_diffrn_ambient_temperature      293(2)
_diffrn_detector_area_resol_mean 10.3712
_diffrn_measured_fraction_theta_full 0.996
_diffrn_measured_fraction_theta_max 0.996
_diffrn_measurement_device_type  'Xcalibur, Ruby, Gemini ultra'
_diffrn_measurement_method       '\w scans'
_diffrn_radiation_monochromator  graphite
_diffrn_radiation_source         'fine-focus sealed tube'
_diffrn_radiation_type           MoK\a
_diffrn_radiation_wavelength     0.71073
_diffrn_reflns_av_R_equivalents  0.0170
_diffrn_reflns_av_sigmaI/netI    0.0191
_diffrn_reflns_limit_h_max       9
_diffrn_reflns_limit_h_min       -8
_diffrn_reflns_limit_k_max       6
_diffrn_reflns_limit_k_min       -6
_diffrn_reflns_limit_l_max       17
_diffrn_reflns_limit_l_min       -15
_diffrn_reflns_number            4918
_diffrn_reflns_theta_full        25.00
_diffrn_reflns_theta_max         25.03
_diffrn_reflns_theta_min         3.72
_exptl_absorpt_coefficient_mu    0.077
_exptl_absorpt_correction_T_max  0.9924
_exptl_absorpt_correction_T_min  0.9774
_exptl_absorpt_correction_type   multi-scan
_exptl_absorpt_process_details
;
CrysAlisPro, Agilent Technologies,
Version 1.171.35.21 (release 20-01-2012 CrysAlis171 .NET)
(compiled Jan 23 2012,18:06:46)
Empirical absorption correction using spherical harmonics,
 implemented in SCALE3 ABSPACK scaling algorithm.
;
_exptl_crystal_colour            colorless
_exptl_crystal_density_diffrn    1.207
_exptl_crystal_density_method    'not measured'
_exptl_crystal_description       plaquet
_exptl_crystal_F_000             268
_exptl_crystal_size_max          0.30
_exptl_crystal_size_mid          0.20
_exptl_crystal_size_min          0.10
_refine_diff_density_max         0.122
_refine_diff_density_min         -0.127
_refine_diff_density_rms         0.030
_refine_ls_abs_structure_details 'Flack H D (1983), Acta Cryst. A39, 876-881'
_refine_ls_extinction_method     none
_refine_ls_goodness_of_fit_ref   1.036
_refine_ls_hydrogen_treatment    mixed
_refine_ls_matrix_type           full
_refine_ls_number_parameters     185
_refine_ls_number_reflns         2418
_refine_ls_number_restraints     1
_refine_ls_restrained_S_all      1.035
_refine_ls_R_factor_all          0.0321
_refine_ls_R_factor_gt           0.0309
_refine_ls_shift/su_max          0.001
_refine_ls_shift/su_mean         0.000
_refine_ls_structure_factor_coef Fsqd
_refine_ls_weighting_details
'calc w=1/[\s^2^(Fo^2^)+(0.0474P)^2^+0.0589P] where P=(Fo^2^+2Fc^2^)/3'
_refine_ls_weighting_scheme      calc
_refine_ls_wR_factor_gt          0.0802
_refine_ls_wR_factor_ref         0.0813
_reflns_number_gt                2345
_reflns_number_total             2418
_reflns_threshold_expression     >2sigma(I)
_iucr_refine_instructions_details
;
TITL bn_TLFNC4MetOH in P2(1)
CELL  0.71073   8.2225   5.7932  14.5687   90.000   90.377   90.000
ZERR     2.00   0.0004   0.0003   0.0006    0.000    0.004    0.000
LATT  -1
SYMM  - X, 1/2 + Y, - Z
SFAC  C    H    N    O
UNIT  32   32   4    2
MERG   2
SHEL 99 0.84
FMAP   2
PLAN   10
SIZE     0.10   0.20   0.30
ACTA    50.00
HTAB    2.00000
BOND   $H
CONF
L.S.  20
TEMP    20.00
WGHT    0.047400    0.058900
FVAR      13.48757
C1    1    0.723401    0.283162    0.571999    11.00000    0.04674    0.04551 =
         0.03002   -0.00143    0.00273    0.00697
C2    1    0.664015    0.208474    0.487292    11.00000    0.06222    0.04848 =
         0.03640   -0.00052   -0.00275    0.00348
AFIX  43
H2    2    0.609825    0.067957    0.482908    11.00000   -1.20000
AFIX   0
C3    1    0.685252    0.342190    0.409763    11.00000    0.07091    0.05920 =
         0.02861   -0.00078   -0.00162    0.01089
AFIX  43
H3    2    0.644820    0.289880    0.353741    11.00000   -1.20000
AFIX   0
C4    1    0.765234    0.552013    0.413527    11.00000    0.06308    0.05216 =
         0.03392    0.00484    0.01207    0.01611
C5    1    0.825613    0.624708    0.498043    11.00000    0.06746    0.04610 =
         0.04294    0.00265    0.00855   -0.00092
AFIX  43
H5    2    0.881106    0.764259    0.502084    11.00000   -1.20000
AFIX   0
C6    1    0.804632    0.493555    0.575872    11.00000    0.06419    0.04833 =
         0.03283   -0.00407    0.00125    0.00084
AFIX  43
H6    2    0.845307    0.546330    0.631769    11.00000   -1.20000
AFIX   0
C7    1    0.704753    0.135594    0.653249    11.00000    0.04634    0.04277 =
         0.03353   -0.00140    0.00211    0.00059
AFIX  43
H7    2    0.666662   -0.014080    0.644713    11.00000   -1.20000
AFIX   0
C8    1    0.724804    0.026533    0.806949    11.00000    0.04870    0.04445 =
         0.03029    0.00212    0.00194   -0.00999
C9    1    0.623414    0.111868    0.888073    11.00000    0.03993    0.07038 =
         0.03215    0.00673    0.00391   -0.00628
C10   1    0.893312   -0.038782    0.840588    11.00000    0.04899    0.03968 =
         0.02443    0.00371    0.00596   -0.00737
C11   1    0.985254    0.112917    0.893392    11.00000    0.05539    0.04259 =
         0.03597   -0.00664    0.00605   -0.00588
AFIX  43
H11   2    0.941255    0.254281    0.910503    11.00000   -1.20000
AFIX   0
C12   1    1.141549    0.056097    0.920819    11.00000    0.05682    0.06212 =
         0.03788   -0.00212   -0.00265   -0.01328
AFIX  43
H12   2    1.201879    0.158985    0.956281    11.00000   -1.20000
AFIX   0
C13   1    1.208148   -0.153110    0.895641    11.00000    0.05411    0.06521 =
         0.04546    0.01178   -0.00065    0.00173
AFIX  43
H13   2    1.313873   -0.190294    0.913234    11.00000   -1.20000
AFIX   0
C14   1    1.117964   -0.305676    0.844665    11.00000    0.06710    0.04794 =
         0.05320    0.00348    0.00716    0.00803
AFIX  43
H14   2    1.162241   -0.447407    0.828271    11.00000   -1.20000
AFIX   0
C15   1    0.960877   -0.249831    0.817362    11.00000    0.06400    0.04237 =
         0.03552   -0.00405    0.00191   -0.00831
AFIX  43
H15   2    0.900317   -0.355054    0.783136    11.00000   -1.20000
AFIX   0
C16   1    0.786943    0.698337    0.328716    11.00000    0.10464    0.06736 =
         0.04043    0.01280    0.01450    0.01362
AFIX 137
H16A  2    0.881195    0.647056    0.295950    11.00000   -1.50000
H16B  2    0.800875    0.856854    0.346289    11.00000   -1.50000
H16C  2    0.692562    0.684129    0.289988    11.00000   -1.50000
AFIX   0
N1    3    0.737661    0.200750    0.734389    11.00000    0.04981    0.04484 =
         0.02875    0.00192    0.00428   -0.00100
N2    3    0.579178    0.331457    0.887878    11.00000    0.07282    0.07904 =
         0.03882    0.00311    0.02011    0.01447
O1    4    0.588841   -0.025556    0.948410    11.00000    0.05972    0.09187 =
         0.04453    0.01889    0.01623   -0.00907
H8    2    0.667111   -0.111139    0.784535    11.00000    0.04404
H2A   2    0.523448    0.392097    0.938237    11.00000    0.08102
H2B   2    0.615474    0.415659    0.844330    11.00000    0.07649
HKLF    4
 
REM  bn_TLFNC4MetOH in P2(1)
REM R1 =  0.0310 for   2345 Fo > 4sig(Fo)  and  0.0321 for all   2418 data
REM    185 parameters refined using      1 restraints
 
END
 
WGHT      0.0462      0.0634
REM Highest difference peak  0.122,  deepest hole -0.126,  1-sigma level  0.030
Q1    1   0.7015  0.8191  0.3244  11.00000  0.05    0.12
Q2    1   0.7808  0.6190  0.2754  11.00000  0.05    0.09
Q3    1   0.8220 -0.0085  0.8266  11.00000  0.05    0.09
Q4    1   0.9145  0.4935  0.6295  11.00000  0.05    0.08
Q5    1   0.9023  0.8335  0.3439  11.00000  0.05    0.08
Q6    1   0.6479  0.9955  0.3222  11.00000  0.05    0.08
Q7    1   0.8937  0.0063  0.8917  11.00000  0.05    0.08
Q8    1   0.5052 -0.0329  0.4749  11.00000  0.05    0.07
Q9    1   0.8426 -0.3779  0.8084  11.00000  0.05    0.07
Q10   1   1.0022  0.8692  0.4640  11.00000  0.05    0.07
;
_cod_data_source_file            cg5b00621_si_001.cif
_cod_data_source_block           p-Me
_cod_depositor_comments
'Adding full bibliography for 4513392--4513414.cif.'
_cod_original_sg_symbol_H-M      'P 21'
_cod_database_code               4513411
loop_
_symmetry_equiv_pos_as_xyz
'x, y, z'
'-x, y+1/2, -z'
loop_
_atom_site_label
_atom_site_type_symbol
_atom_site_fract_x
_atom_site_fract_y
_atom_site_fract_z
_atom_site_U_iso_or_equiv
_atom_site_adp_type
_atom_site_occupancy
_atom_site_symmetry_multiplicity
_atom_site_calc_flag
_atom_site_refinement_flags
C1 C 0.72340(17) 0.2832(2) 0.57200(9) 0.0407(3) Uani 1 1 d .
C2 C 0.6640(2) 0.2085(3) 0.48729(10) 0.0490(4) Uani 1 1 d .
H2 H 0.6098 0.0679 0.4829 0.059 Uiso 1 1 calc R
C3 C 0.6853(2) 0.3422(3) 0.40976(10) 0.0529(4) Uani 1 1 d .
H3 H 0.6448 0.2899 0.3537 0.063 Uiso 1 1 calc R
C4 C 0.76523(19) 0.5520(3) 0.41353(10) 0.0497(4) Uani 1 1 d .
C5 C 0.8256(2) 0.6247(3) 0.49804(10) 0.0521(4) Uani 1 1 d .
H5 H 0.8811 0.7643 0.5021 0.063 Uiso 1 1 calc R
C6 C 0.80464(19) 0.4935(3) 0.57588(10) 0.0484(4) Uani 1 1 d .
H6 H 0.8453 0.5463 0.6318 0.058 Uiso 1 1 calc R
C7 C 0.70475(16) 0.1356(3) 0.65325(9) 0.0409(3) Uani 1 1 d .
H7 H 0.6667 -0.0141 0.6447 0.049 Uiso 1 1 calc R
C8 C 0.72480(17) 0.0265(3) 0.80695(9) 0.0411(3) Uani 1 1 d .
C9 C 0.62341(17) 0.1119(3) 0.88807(10) 0.0475(4) Uani 1 1 d .
C10 C 0.89331(17) -0.0388(2) 0.84059(8) 0.0377(3) Uani 1 1 d .
C11 C 0.98526(18) 0.1129(3) 0.89339(9) 0.0446(3) Uani 1 1 d .
H11 H 0.9413 0.2543 0.9105 0.054 Uiso 1 1 calc R
C12 C 1.14155(19) 0.0561(3) 0.92082(10) 0.0523(4) Uani 1 1 d .
H12 H 1.2019 0.1590 0.9563 0.063 Uiso 1 1 calc R
C13 C 1.2082(2) -0.1531(3) 0.89564(11) 0.0549(4) Uani 1 1 d .
H13 H 1.3139 -0.1903 0.9132 0.066 Uiso 1 1 calc R
C14 C 1.1180(2) -0.3057(3) 0.84466(11) 0.0560(4) Uani 1 1 d .
H14 H 1.1622 -0.4474 0.8283 0.067 Uiso 1 1 calc R
C15 C 0.9609(2) -0.2498(3) 0.81736(9) 0.0473(4) Uani 1 1 d .
H15 H 0.9003 -0.3550 0.7831 0.057 Uiso 1 1 calc R
C16 C 0.7869(3) 0.6983(4) 0.32872(11) 0.0707(5) Uani 1 1 d .
H16A H 0.8810 0.6467 0.2958 0.106 Uiso 1 1 calc R
H16B H 0.8012 0.8568 0.3463 0.106 Uiso 1 1 calc R
H16C H 0.6924 0.6845 0.2901 0.106 Uiso 1 1 calc R
N1 N 0.73766(15) 0.2008(2) 0.73439(7) 0.0411(3) Uani 1 1 d .
N2 N 0.5792(2) 0.3315(3) 0.88788(11) 0.0635(4) Uani 1 1 d .
O1 O 0.58885(14) -0.0256(3) 0.94841(8) 0.0653(4) Uani 1 1 d .
H8 H 0.6671(19) -0.111(3) 0.7846(10) 0.044(4) Uiso 1 1 d .
H2A H 0.523(3) 0.392(4) 0.9382(16) 0.081(6) Uiso 1 1 d .
H2B H 0.616(3) 0.416(4) 0.8444(16) 0.077(7) Uiso 1 1 d .
loop_
_atom_site_aniso_label
_atom_site_aniso_U_11
_atom_site_aniso_U_22
_atom_site_aniso_U_33
_atom_site_aniso_U_23
_atom_site_aniso_U_13
_atom_site_aniso_U_12
C1 0.0468(7) 0.0455(8) 0.0300(7) -0.0014(6) 0.0027(5) 0.0070(6)
C2 0.0622(9) 0.0485(8) 0.0364(7) -0.0005(7) -0.0028(6) 0.0035(7)
C3 0.0710(10) 0.0592(10) 0.0286(7) -0.0008(7) -0.0016(6) 0.0109(9)
C4 0.0631(9) 0.0521(9) 0.0339(7) 0.0048(6) 0.0121(6) 0.0161(8)
C5 0.0675(9) 0.0461(8) 0.0429(8) 0.0026(7) 0.0086(7) -0.0009(8)
C6 0.0642(9) 0.0483(9) 0.0328(7) -0.0041(6) 0.0012(6) 0.0009(7)
C7 0.0463(7) 0.0428(8) 0.0335(7) -0.0014(6) 0.0021(5) 0.0006(6)
C8 0.0487(7) 0.0445(8) 0.0303(7) 0.0021(6) 0.0019(5) -0.0100(7)
C9 0.0399(7) 0.0704(10) 0.0321(7) 0.0067(7) 0.0039(5) -0.0063(7)
C10 0.0490(7) 0.0397(7) 0.0244(6) 0.0037(5) 0.0060(5) -0.0074(6)
C11 0.0554(8) 0.0425(7) 0.0360(7) -0.0066(6) 0.0060(6) -0.0059(7)
C12 0.0568(8) 0.0621(11) 0.0379(8) -0.0021(7) -0.0027(6) -0.0133(8)
C13 0.0541(9) 0.0652(10) 0.0455(8) 0.0118(8) -0.0006(7) 0.0018(8)
C14 0.0671(10) 0.0479(9) 0.0532(9) 0.0034(8) 0.0072(8) 0.0080(8)
C15 0.0640(9) 0.0424(8) 0.0355(7) -0.0040(6) 0.0019(6) -0.0083(7)
C16 0.1046(15) 0.0674(12) 0.0404(8) 0.0128(9) 0.0145(9) 0.0136(11)
N1 0.0498(6) 0.0448(6) 0.0287(6) 0.0019(5) 0.0043(5) -0.0010(5)
N2 0.0728(9) 0.0790(11) 0.0388(8) 0.0031(8) 0.0201(7) 0.0145(9)
O1 0.0597(7) 0.0919(9) 0.0445(6) 0.0189(7) 0.0162(5) -0.0091(7)
loop_
_atom_type_symbol
_atom_type_description
_atom_type_scat_dispersion_real
_atom_type_scat_dispersion_imag
_atom_type_scat_source
C C 0.0033 0.0016 'International Tables Vol C Tables 4.2.6.8 and 6.1.1.4'
H H 0.0000 0.0000 'International Tables Vol C Tables 4.2.6.8 and 6.1.1.4'
N N 0.0061 0.0033 'International Tables Vol C Tables 4.2.6.8 and 6.1.1.4'
O O 0.0106 0.0060 'International Tables Vol C Tables 4.2.6.8 and 6.1.1.4'
loop_
_geom_angle_atom_site_label_1
_geom_angle_atom_site_label_2
_geom_angle_atom_site_label_3
_geom_angle
C6 C1 C2 118.27(13)
C6 C1 C7 122.00(13)
C2 C1 C7 119.68(14)
C3 C2 C1 120.30(16)
C3 C2 H2 119.8
C1 C2 H2 119.8
C2 C3 C4 121.53(14)
C2 C3 H3 119.2
C4 C3 H3 119.2
C3 C4 C5 117.94(14)
C3 C4 C16 121.31(15)
C5 C4 C16 120.75(16)
C6 C5 C4 121.09(16)
C6 C5 H5 119.5
C4 C5 H5 119.5
C5 C6 C1 120.86(14)
C5 C6 H6 119.6
C1 C6 H6 119.6
N1 C7 C1 123.71(14)
N1 C7 H7 118.1
C1 C7 H7 118.1
N1 C8 C10 109.58(11)
N1 C8 C9 112.10(13)
C10 C8 C9 109.40(10)
N1 C8 H8 110.9(9)
C10 C8 H8 110.0(9)
C9 C8 H8 104.7(9)
O1 C9 N2 124.27(16)
O1 C9 C8 118.38(16)
N2 C9 C8 117.35(14)
C15 C10 C11 118.42(14)
C15 C10 C8 120.58(13)
C11 C10 C8 120.98(13)
C12 C11 C10 120.73(15)
C12 C11 H11 119.6
C10 C11 H11 119.6
C13 C12 C11 120.11(14)
C13 C12 H12 119.9
C11 C12 H12 119.9
C14 C13 C12 119.76(15)
C14 C13 H13 120.1
C12 C13 H13 120.1
C13 C14 C15 120.32(16)
C13 C14 H14 119.8
C15 C14 H14 119.8
C10 C15 C14 120.65(14)
C10 C15 H15 119.7
C14 C15 H15 119.7
C4 C16 H16A 109.5
C4 C16 H16B 109.5
H16A C16 H16B 109.5
C4 C16 H16C 109.5
H16A C16 H16C 109.5
H16B C16 H16C 109.5
C7 N1 C8 116.82(12)
C9 N2 H2A 119.7(14)
C9 N2 H2B 116.9(15)
H2A N2 H2B 123(2)
loop_
_geom_bond_atom_site_label_1
_geom_bond_atom_site_label_2
_geom_bond_distance
C1 C6 1.391(2)
C1 C2 1.393(2)
C1 C7 1.4690(19)
C2 C3 1.382(2)
C2 H2 0.9300
C3 C4 1.383(2)
C3 H3 0.9300
C4 C5 1.390(2)
C4 C16 1.510(2)
C5 C6 1.377(2)
C5 H5 0.9300
C6 H6 0.9300
C7 N1 1.2684(17)
C7 H7 0.9300
C8 N1 1.4659(17)
C8 C10 1.515(2)
C8 C9 1.533(2)
C8 H8 0.984(17)
C9 O1 1.2208(19)
C9 N2 1.323(2)
C10 C15 1.386(2)
C10 C11 1.389(2)
C11 C12 1.383(2)
C11 H11 0.9300
C12 C13 1.381(3)
C12 H12 0.9300
C13 C14 1.370(3)
C13 H13 0.9300
C14 C15 1.387(2)
C14 H14 0.9300
C15 H15 0.9300
C16 H16A 0.9600
C16 H16B 0.9600
C16 H16C 0.9600
N2 H2A 0.94(2)
N2 H2B 0.86(2)
loop_
_geom_torsion_atom_site_label_1
_geom_torsion_atom_site_label_2
_geom_torsion_atom_site_label_3
_geom_torsion_atom_site_label_4
_geom_torsion
C6 C1 C2 C3 -0.4(2)
C7 C1 C2 C3 -177.95(14)
C1 C2 C3 C4 0.0(2)
C2 C3 C4 C5 0.6(2)
C2 C3 C4 C16 -179.51(16)
C3 C4 C5 C6 -0.9(2)
C16 C4 C5 C6 179.23(16)
C4 C5 C6 C1 0.5(2)
C2 C1 C6 C5 0.1(2)
C7 C1 C6 C5 177.61(14)
C6 C1 C7 N1 11.1(2)
C2 C1 C7 N1 -171.40(14)
N1 C8 C9 O1 172.19(13)
C10 C8 C9 O1 -66.05(17)
N1 C8 C9 N2 -7.88(19)
C10 C8 C9 N2 113.88(15)
N1 C8 C10 C15 -106.47(14)
C9 C8 C10 C15 130.26(14)
N1 C8 C10 C11 71.94(15)
C9 C8 C10 C11 -51.32(17)
C15 C10 C11 C12 1.1(2)
C8 C10 C11 C12 -177.39(13)
C10 C11 C12 C13 0.1(2)
C11 C12 C13 C14 -1.0(2)
C12 C13 C14 C15 0.7(2)
C11 C10 C15 C14 -1.4(2)
C8 C10 C15 C14 177.10(13)
C13 C14 C15 C10 0.5(2)
C1 C7 N1 C8 -175.22(12)
C10 C8 N1 C7 108.38(14)
C9 C8 N1 C7 -129.96(13)
