#------------------------------------------------------------------------------
#$Date: 2015-09-05 23:34:09 +0300 (Sat, 05 Sep 2015) $
#$Revision: 154543 $
#$URL: svn://www.crystallography.net/cod/cif/4/51/33/4513309.cif $
#------------------------------------------------------------------------------
#
# This file is available in the Crystallography Open Database (COD),
# http://www.crystallography.net/
#
# All data on this site have been placed in the public domain by the
# contributors.
#
data_4513309
loop_
_publ_author_name
'Lusi, Matteo'
'Vitorica-Yrezabal, Inigo J.'
'Zaworotko, Michael J.'
_publ_section_title
;
 Expanding the Scope of Molecular Mixed Crystals Enabled by Three
 Component Solid Solutions
;
_journal_issue                   8
_journal_name_full               'Crystal Growth &amp; Design'
_journal_page_first              4098
_journal_paper_doi               10.1021/acs.cgd.5b00685
_journal_volume                  15
_journal_year                    2015
_chemical_formula_sum            'C6.13 H4.13 N0.87'
_chemical_formula_weight         89.98
_chemical_name_systematic
;
 ?
;
_space_group_crystal_system      monoclinic
_space_group_IT_number           14
_space_group_name_Hall           '-P 2yn'
_space_group_name_H-M_alt        'P 1 21/n 1'
_symmetry_space_group_name_Hall  '-P 2yn'
_symmetry_space_group_name_H-M   'P 1 21/n 1'
_atom_sites_solution_hydrogens   geom
_audit_creation_method           SHELXL-2014
_cell_angle_alpha                90
_cell_angle_beta                 103.035(9)
_cell_angle_gamma                90
_cell_formula_units_Z            4
_cell_length_a                   7.0733(6)
_cell_length_b                   4.9761(5)
_cell_length_c                   12.6164(11)
_cell_measurement_temperature    100(2)
_cell_volume                     432.62(7)
_computing_structure_refinement  'SHELXL-2014 (Sheldrick, 2014)'
_diffrn_ambient_temperature      100(2)
_diffrn_measured_fraction_theta_full 0.992
_diffrn_measured_fraction_theta_max 0.870
_diffrn_radiation_type           MoK\a
_diffrn_radiation_wavelength     0.71073
_diffrn_reflns_av_R_equivalents  0.0154
_diffrn_reflns_av_unetI/netI     0.0360
_diffrn_reflns_laue_measured_fraction_full 0.992
_diffrn_reflns_laue_measured_fraction_max 0.870
_diffrn_reflns_limit_h_max       5
_diffrn_reflns_limit_h_min       -9
_diffrn_reflns_limit_k_max       6
_diffrn_reflns_limit_k_min       -5
_diffrn_reflns_limit_l_max       16
_diffrn_reflns_limit_l_min       -10
_diffrn_reflns_number            1528
_diffrn_reflns_point_group_measured_fraction_full 0.992
_diffrn_reflns_point_group_measured_fraction_max 0.870
_diffrn_reflns_theta_full        25.242
_diffrn_reflns_theta_max         28.529
_diffrn_reflns_theta_min         3.046
_exptl_absorpt_coefficient_mu    0.083
_exptl_absorpt_correction_T_max  1.18
_exptl_absorpt_correction_T_min  0.71
_exptl_absorpt_correction_type   multi-scan
_exptl_absorpt_process_details   sadabs
_exptl_crystal_colour            yellow
_exptl_crystal_density_diffrn    1.381
_exptl_crystal_description       needle
_exptl_crystal_F_000             188
_refine_diff_density_max         0.267
_refine_diff_density_min         -0.215
_refine_diff_density_rms         0.052
_refine_ls_extinction_method     none
_refine_ls_goodness_of_fit_ref   1.163
_refine_ls_hydrogen_treatment    constr
_refine_ls_matrix_type           full
_refine_ls_number_parameters     65
_refine_ls_number_reflns         961
_refine_ls_number_restraints     0
_refine_ls_restrained_S_all      1.163
_refine_ls_R_factor_all          0.0607
_refine_ls_R_factor_gt           0.0505
_refine_ls_shift/su_max          0.000
_refine_ls_shift/su_mean         0.000
_refine_ls_structure_factor_coef Fsqd
_refine_ls_weighting_details
'w=1/[\s^2^(Fo^2^)+(0.0423P)^2^+0.3012P] where P=(Fo^2^+2Fc^2^)/3'
_refine_ls_weighting_scheme      calc
_refine_ls_wR_factor_gt          0.1266
_refine_ls_wR_factor_ref         0.1352
_reflns_Friedel_coverage         0.000
_reflns_number_gt                801
_reflns_number_total             961
_reflns_threshold_expression     'I > 2\s(I)'
_cod_data_source_file            cg5b00685_si_010.cif
_cod_data_source_block           D:\#9
_cod_depositor_comments
'Adding full bibliography for 4513301--4513322.cif.'
_cod_database_code               4513309
_shelx_space_group_comment
;
The symmetry employed for this shelxl refinement is uniquely defined
by the following loop, which should always be used as a source of
symmetry information in preference to the above space-group names.
They are only intended as comments.
;
_shelxl_version_number           2014-3
_shelx_res_file
;
REM  ml040b_0m in P2(1)/n
REM R1 =  0.0568 for    1456 Fo > 4sig(Fo)  and  0.0928 for all    2106 data
REM     65 parameters refined using      0 restraints
REM Highest difference peak  0.504,  deepest hole -0.276,  1-sigma level  0.072
TITL ml023a in P21/n #14
CELL 0.71073 7.0733 4.9761 12.6164 90.000 103.035 90.000
ZERR 4.0000 0.0006 0.0005 0.0011 0.000 0.009 0.000
LATT 1
SYMM 0.5-X, 0.5+Y, 0.5-Z
SFAC C H N
UNIT 24.51 16.51 3.49
MERG 2
FMAP 2
GRID
PLAN 5
TEMP -173
BOND
EXYZ N1 C1
EADP N1 C1
L.S. 20
ACTA
WGHT    0.042300    0.301200
FVAR      15.28882   0.87374
PART 1
N1    3    0.197940    0.059614    0.047903    21.00000    0.01607    0.01669 =
         0.01778    0.00105    0.00268    0.00002
PART 2
C1    1    0.197940    0.059614    0.047903   -21.00000    0.01607    0.01669 =
         0.01778    0.00105    0.00268    0.00002
AFIX  43
H1    2    0.329846    0.099647    0.079743   -21.00000   -1.20000
PART 0
AFIX   0
C2    1    0.147965   -0.131416   -0.028777    11.00000    0.01882    0.01529 =
         0.01741    0.00335    0.00372   -0.00077
C3    1    0.296212   -0.277828   -0.063018    11.00000    0.01795    0.01918 =
         0.02372    0.00245    0.00541   -0.00046
AFIX  43
H3    2    0.428728   -0.240231   -0.031728    11.00000   -1.20000
AFIX   0
C4    1    0.248683   -0.471614   -0.140482    11.00000    0.02418    0.01965 =
         0.02345    0.00241    0.01060    0.00232
AFIX  43
H4    2    0.348757   -0.569510   -0.162343    11.00000   -1.20000
AFIX   0
C5    1    0.051982    0.190515    0.077045    11.00000    0.01732    0.01603 =
         0.01722    0.00297    0.00297   -0.00141
C6    1    0.094142    0.395091    0.157954    11.00000    0.02129    0.02078 =
         0.01973   -0.00055    0.00175   -0.00292
AFIX  43
H6    2    0.225328    0.437829    0.190403    11.00000   -1.20000
AFIX   0
C7    1   -0.051544    0.529822    0.189205    11.00000    0.02606    0.02033 =
         0.01921   -0.00203    0.00636   -0.00238
AFIX  43
H7    2   -0.021273    0.663881    0.244031    11.00000   -1.20000
AFIX   0
HKLF 4

REM  ml023a in P21/n #14
REM R1 =  0.0505 for     801 Fo > 4sig(Fo)  and  0.0607 for all     961 data
REM     65 parameters refined using      0 restraints

END

WGHT      0.0423      0.3010

REM Highest difference peak  0.267,  deepest hole -0.215,  1-sigma level  0.052
Q1    1   0.0519 -0.1391 -0.0654  11.00000  0.05    0.27
Q2    1  -0.0460  0.2061  0.0424  11.00000  0.05    0.24
Q3    1   0.2025 -0.2425 -0.0466  11.00000  0.05    0.20
Q4    1   0.1546 -0.5279 -0.1441  11.00000  0.05    0.18
Q5    1  -0.0633  0.7508  0.3162  11.00000  0.05    0.18
;
_shelx_res_checksum              39742
_shelx_hkl_file
;
   0   0   2 263806. 1562.70   2
   0   0   3 31.3450 29.1191   2
   0   0  -3 2.51310 17.1456   2
   0   0   4 16946.4 561.213   2
   0   0   5 484.436 121.446   2
   0   0   6 21349.2 796.953   2
   0   0   7 5854.89 468.949   2
   0   0   8 137025. 2329.22   2
   0   0   9 629.126 187.213   2
   0   0  10 74178.1 1991.20   2
   0   0  11 151.704 111.011   2
   0   0  12 403.908 174.564   2
   0   0  13-15.6686 46.6244   2
   0   0  14 1573.19 377.362   2
   0   0  15-40.3886 67.3245   2
   0   0  16 301.060 177.972   2
   0   1   0-24.2300 24.9217   1
   0  -1   0 61.9660 53.6270   1
   0   1  -1 12691.7 596.742   1
   0   1   1 12858.5 610.618   1
   0   1  -1 13555.6 349.394   3
   0  -1  -1 12742.0 582.280   1
   0  -1  -1 13286.2 362.963   2
   0  -1   1 12796.3 381.070   3
   0  -1   1 13349.8 588.659   1
   0   1   2 504976. 2451.67   2
   0   1   2 491725. 3828.66   1
   0   1  -2 506647. 2500.01   3
   0  -1   2 522529. 2693.81   3
   0  -1  -2 514951. 2346.90   2
   0   1  -2 512972. 3788.65   1
   0  -1   3 984324. 4258.95   3
   0   1   3 982426. 3872.27   2
   0   1  -3 996145. 4187.42   3
   0   1   3 999089. 5515.41   1
   0   1  -3 996174. 5197.99   1
   0   1   4 302039. 3054.65   1
   0   1  -4 299808. 2780.97   1
   0  -1   4 299389. 2783.49   2
   0   1   4 300544. 2397.07   2
   0   1   5 18650.5 754.769   1
   0   1  -5 17874.8 652.020   1
   0   1   5 17764.4 643.138   2
   0  -1   5 18481.3 745.372   2
   0   1   6 72096.1 1427.06   2
   0  -1   6 69494.6 1545.90   2
   0  -1   7 51445.9 1438.83   2
   0   1   7 52554.1 1352.17   2
   0   1   8 19803.2 894.399   2
   0  -1   8 19474.6 932.016   2
   0   1   9 29.9905 62.7301   2
   0  -1   9-5.27227 38.3949   2
   0  -1  10 5747.51 577.829   2
   0   1  10 5938.53 563.636   2
   0   1  11 7420.54 673.991   2
   0  -1  11 7766.55 710.543   2
   0  -1  12 10680.9 878.739   2
   0   1  12 10981.5 878.606   2
   0  -1  13 6422.77 720.060   2
   0   1  13 5626.66 665.134   2
   0   1  14 1005.06 292.982   2
   0  -1  14 944.335 294.762   2
   0  -1  15 5998.53 771.624   2
   0   1  15 4651.09 680.869   2
   0   1  16 1080.30 326.114   2
   0   2   0 64794.0 1957.01   1
   0   2   0 63283.6 1187.66   3
   0   2  -1 70.7581 40.6894   3
   0   2  -1 38.7885 67.4800   1
   0   2   1 55.4677 26.0587   1
   0   2   2 80875.1 2215.66   1
   0  -2   2 82911.4 1409.66   3
   0  -2  -2 81855.4 1247.37   2
   0   2  -2 82026.7 2191.86   1
   0   2  -2 81802.1 1171.79   3
   0   2   3 41432.5 1589.57   1
   0   2  -3 40891.7 890.764   3
   0   2  -3 38061.9 1493.17   1
   0  -2   3 39600.2 1026.16   3
   0  -2  -3 40980.1 879.231   2
   0   2  -4 10650.8 784.701   1
   0   2   4 10433.7 535.647   2
   0   2   4 11582.5 853.115   1
   0   2  -4 11829.8 535.143   3
   0   2  -5 189578. 3301.87   1
   0   2   5 184864. 3401.18   1
   0   2  -5 188895. 2405.74   3
   0   2   5 191547. 2426.25   2
   0  -2   6 111353. 2196.10   2
   0   2   6 112239. 1992.74   2
   0   2   6 115639. 2646.88   1
   0   2  -6 112183. 2465.74   1
   0   2   7 17666.6 1017.50   1
   0   2  -7 16566.5 914.908   1
   0  -2   7 19230.5 953.621   2
   0   2   7 17361.6 833.257   2
   0   2   8 1132.36 229.130   2
   0  -2   8 1361.80 270.814   2
   0   2   9 91.8384 68.5171   2
   0  -2   9 191.106 66.8016   2
   0  -2  10 1583.80 321.072   2
   0   2  10 1440.05 289.888   2
   0  -2  11 11166.7 887.830   2
   0   2  11 13376.9 945.925   2
   0  -2  12 9729.95 874.713   2
   0   2  12 10109.3 873.081   2
   0   2  13 600.200 205.854   2
   0  -2  13 812.655 278.318   2
   0   2  14 4044.67 622.359   2
   0  -2  14 3149.73 555.512   2
   0   3   0 227.953 188.677   1
   0   3   0-32.8930 31.6636   3
   0   3   1 32889.0 1740.63   1
   0   3  -1 31060.4 1668.34   1
   0   3  -1 30014.4 846.700   3
   0   3   2 9015.84 914.792   1
   0   3  -2 10047.3 956.641   1
   0   3  -2 9883.30 460.931   3
   0   3  -3 12154.7 532.978   3
   0   3   3 12180.1 1065.80   1
   0   3  -3 11637.4 1030.31   1
   0   3  -4 573.541 128.273   3
   0   3  -4 273.123 204.216   1
   0   3   4 489.722 178.870   1
   0   3  -5 2926.35 308.196   3
   0   3   5 2968.71 533.056   1
   0   3  -5 1849.91 421.315   1
   0   3   6 8406.48 935.775   1
   0  -3   6 7431.90 672.202   2
   0   3  -6 7247.65 841.369   1
   0   3   7 92.9964 167.717   1
   0   3  -7-48.3098 101.047   1
   0  -3   7 231.410 123.298   2
   0   3   8 51875.4 1626.85   2
   0  -3   8 50614.1 1794.04   2
   0  -3   9 10557.2 880.177   2
   0   3   9 8055.02 692.972   2
   0  -3  10 17576.1 1150.45   2
   0  -3  11 1603.04 361.157   2
   0  -3  12 3103.06 541.672   2
   0  -3  13 196.779 165.062   2
   0   4   0 1469.59 421.165   1
   0   4   0 2169.20 266.957   3
   0   4  -1 460.036 112.768   3
   0   4   1 616.475 174.288   3
   0   4  -1 614.037 280.831   1
   0   4   1 584.981 285.942   1
   0   4  -2 2608.15 253.163   3
   0   4  -2 1807.67 470.824   1
   0   4   2 2954.42 618.800   1
   0   4  -3 224.284 163.731   1
   0   4   3 173.826 206.814   1
   0   4  -4 5823.21 849.645   1
   0   4   4 5516.60 851.463   1
   0   4  -5 17427.2 1479.77   1
   0   4   5 16328.1 1499.52   1
   0  -4   6 4110.43 528.470   2
   0   4  -6 4477.16 746.937   1
   0   4   6 4601.81 805.581   1
   0  -4   7 14090.6 1011.01   2
   0   4  -7 14699.4 1346.09   1
   0   4   7 15320.0 1433.70   1
   0  -4   8 9133.55 850.250   2
   0  -4   9 724.434 247.980   2
   0  -4  10 501.677 213.450   2
   0  -4  11 2569.14 498.355   2
   0  -4  12 5305.41 782.261   2
   0   5   0 106.532 154.293   1
   0   5  -1 2915.58 697.091   1
   0   5   1 3190.14 743.434   1
   0   5  -2 2358.50 624.039   1
   0   5   2 1898.85 556.329   1
   0   5  -3 2333.99 611.253   1
   0   5   3 2007.67 591.379   1
   0   5   4 6947.02 1111.42   1
   0   5  -4 8976.65 1217.44   1
   0   5  -5 4091.25 824.483   1
   0   5   5 5268.57 968.181   1
   0  -5   6 1345.50 340.635   2
   0   5   6 1662.86 567.799   1
   0  -5   7 41.3560 85.6995   2
   0  -5   8 1060.28 327.388   2
   0  -5   9 71.2190 27.5867   2
   0  -5  10-72.3775 92.2600   2
   0   6   0 798.500 463.860   1
   0   6  -1 2797.66 758.380   1
   0   6   1 1372.19 572.010   1
   0   6  -2 873.438 431.642   1
   0   6   2 1353.88 551.087   1
   0   6  -3 736.542 399.071   1
   0   6   3 725.748 437.169   1
  -1   0  16-50.4953 166.574   2
  -1   0  15 3484.96 587.269   2
  -1   0  14 173.250 146.734   2
  -1   0  13 748.029 239.746   2
  -1   0  12-10.0572 61.5212   2
  -1   0  11 46.3940 77.4524   2
  -1   0  10-31.5203 55.8224   2
  -1   0   9 60184.7 1696.51   2
  -1   0   8 27.8955 67.7930   2
  -1   0   7 8159.82 539.169   2
  -1   0   6 100.452 63.6890   2
  -1   0   5 61308.5 1252.47   2
  -1   0   4 23.8190 34.8971   2
  -1   0   3 140837. 1524.50   2
   1   0  -3 139401. 1495.02   2
   1   0  -2-5.97311 17.8256   2
  -1   0   2 62.0855 33.0445   2
  -1   0   1 240676. 1663.94   2
  -1   0   0-28.1948 24.3280   3
  -1   0  -1 705886. 3283.67   3
   1   0   1 707932. 3412.36   3
   1   0   2 38.8720 25.1809   3
  -1   0  -2 23.5915 25.9454   3
  -1   0  -3 23471.7 740.011   3
  -1   0  -4-3.30496 28.7065   3
   1   0   5 5821.45 402.761   2
   1   0   6-44.8740 53.1231   2
   1   0   7 4602.01 417.441   2
   1   0   8 54.9260 81.6481   2
   1   0   9 4829.31 483.049   2
   1   0  10-0.38366 41.1584   2
   1   0  11 14341.3 945.743   2
   1   0  12 43.5599 90.8603   2
   1   0  13 163.257 108.523   2
   1   0  14-9.10996 93.2803   2
   1   0  15 75.7121 130.288   2
  -1   1  16 641.849 267.381   2
  -1  -1  15 10075.1 1002.62   2
  -1   1  15 10054.2 1028.90   2
  -1   1  14 10688.7 1007.50   2
  -1  -1  14 9409.11 920.198   2
  -1  -1  13 267.250 162.626   2
  -1   1  13 422.211 191.892   2
  -1   1  12 23592.3 1319.39   2
  -1  -1  12 23911.0 1306.06   2
  -1   1  11 10324.5 824.304   2
  -1  -1  11 10704.8 819.363   2
  -1  -1  10 4856.85 515.229   2
  -1   1  10 4774.74 526.276   2
  -1   1   9 38.4741 47.6866   2
  -1  -1   9 123.309 113.030   2
  -1   1   9 100.186 57.1300   1
  -1   1   8 7510.10 586.900   2
  -1  -1   8 8555.58 606.137   2
  -1   1   8 8267.17 529.606   1
  -1  -1   7 1080.54 178.502   1
  -1  -1   7 1074.08 204.065   2
  -1   1   7 890.908 183.342   1
  -1   1   7 868.773 178.420   2
  -1  -1   6 35803.7 1075.49   2
  -1  -1   6 35388.3 1054.20   1
  -1   1   6 35659.8 1112.39   2
  -1  -1   5 332.440 89.6188   2
  -1  -1   5 258.168 86.9668   1
  -1   1   5 612.356 131.672   2
  -1  -1   4 74081.4 1276.51   2
  -1   1   4 73072.0 1410.11   2
  -1  -1   4 71061.1 1464.64   1
  -1   1   3 257010. 2470.99   2
  -1  -1   3 248949. 2078.46   2
   1   1  -2 740652. 3127.86   2
   1  -1  -2 753224. 3952.98   2
  -1  -1   2 731387. 3017.99   2
   1   1  -1 118177. 994.600   2
  -1  -1   1 116562. 953.042   2
   1  -1   0 15526.9 669.282   3
   1   1   0 15943.6 323.280   3
  -1  -1   0 16188.0 283.955   3
  -1   1   0 15451.2 628.697   3
   1   1   1 825.288 96.0872   3
  -1   1  -1 746.487 137.127   3
   1  -1   1 957.837 163.678   3
  -1  -1  -2 11464.2 597.524   1
   1   1   2 12543.1 471.672   3
  -1   1  -2 11633.4 531.170   3
   1   1   2 12440.5 274.674   2
   1   1   3 2423.13 163.535   2
  -1  -1  -3 2038.79 256.708   1
  -1   1  -3 2313.05 250.662   3
   1   1   4 56.9756 38.9017   2
  -1   1  -4 122.993 66.1041   3
  -1  -1  -4 159.213 79.1268   1
  -1   1  -5 1390.38 224.563   3
  -1  -1  -5 1002.11 189.614   1
   1   1   5 1155.46 159.254   2
  -1  -1  -6 52450.1 1386.98   1
   1   1   6 54922.3 1212.04   2
  -1   1  -6 57134.1 1522.23   3
   1  -1   7 6520.45 542.298   2
  -1   1  -7 6361.88 425.183   1
  -1  -1  -7 6542.50 473.463   1
   1   1   7 6135.91 452.124   2
  -1   1  -8 20.6671 26.2552   1
   1  -1   8 81.7615 80.3324   2
   1   1   8-11.5451 36.4084   2
   1   1   9 12.9372 50.1116   2
   1  -1   9 100.696 102.775   2
   1   1  10 1173.02 248.499   2
   1  -1  10 1609.38 311.073   2
   1  -1  11-1.41865 47.6395   2
   1   1  11 142.603 104.885   2
   1   1  12 2697.42 432.440   2
   1  -1  12 3337.34 506.813   2
   1   1  13 2638.65 443.699   2
   1  -1  13 3045.20 516.671   2
   1  -1  14 17058.9 1254.86   2
   1   1  14 15615.1 1155.60   2
   1   1  15 2789.13 514.988   2
   1  -1  15 2273.76 471.528   2
  -1   2  16 1731.01 458.839   2
  -1   2  15 4443.59 715.306   2
  -1   2  14 10586.1 1046.43   2
  -1  -2  14 8399.73 891.097   2
  -1  -2  13 13629.1 1080.07   2
  -1   2  13 13533.1 1116.86   2
  -1  -2  12 6466.52 702.184   2
  -1   2  12 6461.44 736.768   2
  -1   2  11 1963.73 382.910   2
  -1  -2  11 2239.76 386.842   2
  -1   2  10 2706.96 419.540   2
  -1  -2  10 2768.98 413.265   2
  -1   2   9 7191.29 653.884   2
  -1  -2   9 7219.97 628.467   2
  -1   2   9 7531.54 683.590   1
  -1   2   8 552.447 167.932   2
  -1   2   8 609.658 214.993   1
  -1  -2   8 375.286 132.142   2
  -1   2   7 21766.5 1251.52   1
  -1  -2   7 22660.8 997.629   2
  -1   2   7 21835.6 1042.75   2
  -1  -2   6 161000. 2481.69   2
  -1   2   6 162822. 3384.85   1
  -1   2   6 162472. 2669.93   2
  -1  -2   5 325205. 3314.54   2
  -1   2   5 324437. 4688.34   1
  -1   2   5 325193. 3632.72   2
  -1  -2   4 103927. 1349.15   3
  -1  -2   4 106224. 1749.00   2
  -1  -2   3 3677.67 298.661   2
  -1  -2   3 3615.42 216.542   3
  -1  -2   2 2338.44 212.847   2
   1   2   0 38.1912 16.6649   3
  -1   2   0-10.6589 45.5104   3
  -1   2  -1 17621.3 762.524   3
  -1  -2  -1 17259.1 373.567   2
  -1  -2  -2 33403.4 446.231   2
  -1   2  -2 34648.9 1040.02   3
  -1  -2  -3 81561.6 855.826   2
  -1   2  -3 80712.3 1609.73   3
   1   2   4 40365.3 851.414   2
  -1   2  -4 39377.5 1165.66   3
  -1  -2  -4 41519.7 762.873   2
   1   2   5 23949.4 735.021   2
  -1   2  -5 23297.1 938.194   3
  -1   2  -5 23155.1 1186.06   1
  -1   2  -6 105.132 50.1016   1
   1   2   6-20.6449 50.8943   2
  -1   2  -6 64.2329 63.7933   3
  -1   2  -7 11453.9 833.185   1
   1   2   7 11916.3 623.307   2
  -1   2  -7 12373.8 771.658   3
   1   2   8 12189.8 688.502   2
  -1   2  -8 11693.7 809.718   1
   1  -2   8 12739.9 877.344   2
   1   2   9 1340.15 245.915   2
   1  -2   9 1954.10 360.182   2
   1   2  10 1521.01 287.837   2
   1  -2  10 1828.35 355.894   2
   1   2  11 1733.43 331.656   2
   1  -2  11 1811.47 381.882   2
   1   2  12 138.813 81.2740   2
   1  -2  12 379.193 216.230   2
   1  -2  13 2379.18 470.247   2
   1  -2  14 440.924 178.389   2
  -1  -3  13 39.1025 63.7047   2
  -1  -3  12 58.4483 74.9103   2
  -1   3  12-36.7495 58.4520   2
  -1  -3  11 27.1170 84.8042   2
  -1   3  11 65.3010 78.1165   2
  -1  -3  10 2300.22 398.994   2
  -1   3  10 3064.93 474.834   2
  -1  -3   9 84408.4 2297.28   2
  -1   3   9 86261.0 2437.70   2
  -1   3   9 83784.4 2912.48   1
  -1  -3   8 89410.3 2265.72   2
  -1   3   8 83583.0 3004.51   1
  -1   3   8 86305.3 2368.73   2
  -1   3   7 55603.3 2489.67   1
  -1  -3   7 55524.9 1683.66   2
  -1  -3   6 3087.51 370.864   2
  -1   3   6 3102.81 579.535   1
  -1  -3   5 26.8024 21.0566   2
  -1   3   5 195.440 174.649   1
  -1   3   4 5808.65 788.393   1
  -1  -3   4 5140.26 431.192   2
  -1  -3   4 4856.34 340.950   3
  -1  -3   3 3207.55 322.201   2
  -1   3   3 3478.72 591.996   1
  -1   3   2 5855.20 745.934   1
   1   3  -2 6184.06 725.650   1
  -1   3   1 19672.9 1025.30   3
   1   3  -1 17054.9 1202.26   1
  -1   3   1 16878.1 1254.36   1
   1   3   0 47818.1 2025.97   1
  -1   3   0 46618.2 1467.84   3
  -1   3   0 45502.6 2023.23   1
   1   3   0 46879.5 817.160   3
  -1   3  -1 44827.7 2021.32   1
   1   3   1 48052.6 2048.49   1
  -1   3  -1 44669.4 1349.98   3
  -1  -3  -2 43785.3 770.808   2
  -1   3  -2 43612.9 1282.94   3
  -1   3  -2 43939.2 2000.51   1
  -1  -3  -3 7889.36 297.819   2
  -1   3  -3 8691.61 572.188   3
  -1   3  -3 8379.60 884.131   1
  -1   3  -4 2012.48 435.264   1
  -1   3  -4 1974.70 282.674   3
  -1   3  -5 507.275 145.122   3
  -1   3  -5 482.940 236.656   1
  -1   3  -6 578.226 164.763   3
  -1   3  -6 602.767 229.582   1
  -1   3  -7 844.447 207.364   3
   1   3   7 1211.29 210.086   2
  -1   3  -7 1195.57 340.843   1
   1  -3   8 1914.83 383.984   2
  -1   3  -8 1617.04 383.382   1
   1  -3   9 1964.14 408.386   2
   1  -3  10 27672.8 1538.88   2
   1  -3  11 5039.26 677.414   2
   1  -3  12 1084.66 334.819   2
   1  -3  13 182.107 127.345   2
  -1  -4  12 28563.1 1651.64   2
  -1  -4  11 28048.7 1559.74   2
  -1  -4  10 14324.6 1061.91   2
  -1  -4   9 4350.23 563.734   2
  -1   4   9 5435.02 881.806   1
  -1   4   8 884.246 371.859   1
  -1  -4   8 642.511 201.426   2
  -1  -4   7 3284.36 439.374   2
  -1   4   7 2950.44 681.059   1
  -1   4   6 104.738 134.119   1
  -1  -4   6 125.971 64.2111   2
  -1  -4   5 11435.1 739.792   2
  -1   4   5 12447.2 1360.67   1
  -1  -4   4 12318.8 732.324   2
  -1   4   4 15126.6 1466.07   1
  -1  -4   3 11031.5 653.935   2
  -1   4   3 8927.05 1109.04   1
  -1   4   2 16149.9 1065.09   3
  -1   4   2 17340.0 1525.61   1
  -1   4   1 43354.0 2402.16   1
  -1   4   1 41837.7 1594.89   3
  -1   4   0 1601.69 458.743   1
  -1   4   0 1246.97 259.225   3
  -1   4  -1 698.192 180.419   3
  -1   4  -1 1611.53 472.710   1
  -1   4  -2-18.2451 138.529   1
  -1   4  -2 0.86298 23.1326   3
  -1   4  -3-31.9659 150.349   1
  -1   4  -3 74.0953 88.8180   3
  -1   4  -4 6406.07 913.171   1
  -1   4  -4 4764.46 450.930   3
  -1   4  -5 9278.78 642.528   3
  -1   4  -5 8303.23 1045.42   1
  -1   4  -6 3547.86 417.559   3
  -1   4  -6 2775.08 596.307   1
  -1   4  -7 3264.70 650.087   1
  -1   4  -7 3663.31 448.290   3
   1  -4   8 5339.10 734.207   2
  -1   4  -8 4342.78 746.649   1
   1  -4   9 424.978 201.369   2
   1  -4  10 492.490 231.198   2
   1  -4  11 3738.82 666.969   2
  -1  -5  10 4922.11 663.231   2
  -1   5   9 3571.74 831.412   1
  -1  -5   9 2435.45 459.386   2
  -1   5   8 904.037 411.965   1
  -1  -5   8 872.706 262.283   2
  -1   5   7 1032.29 461.236   1
  -1  -5   7 999.200 250.454   2
  -1   5   6 2407.15 711.243   1
  -1  -5   6 2112.33 369.672   2
  -1   5   5 7682.25 1202.83   1
  -1   5   4 5566.34 1002.02   1
  -1   5   3 13091.3 1544.43   1
  -1   5   2 25157.5 2107.50   1
  -1   5   1 11028.5 1394.46   1
  -1   5   0 3422.90 765.065   1
  -1   5  -1 407.244 256.308   1
  -1   5  -2 11697.2 1410.54   1
  -1   5  -3 5511.07 965.528   1
  -1   5  -4 8997.02 1233.40   1
  -1   5  -5 5982.08 1004.71   1
  -1   5  -6 2552.78 647.332   1
  -1   5  -7 8677.59 1194.33   1
   1  -5   8 9640.35 1137.38   2
   1  -5   9 249.881 82.9191   2
  -1   6   6 645.273 372.658   1
  -1   6   5 1605.99 655.338   1
  -1   6   4-244.748 236.062   1
  -1   6   3 117.107 251.271   1
  -1   6   2 428.371 412.669   1
  -1   6   1 287.052 268.521   1
  -1   6   0 44559.2 3094.96   1
  -1   6  -1 5656.58 1101.58   1
  -1   6  -2 44668.8 3063.43   1
  -1   6  -3 452.424 246.050   1
  -1   6  -4 1410.06 598.509   1
  -1   6  -5 696.074 376.561   1
  -1   6  -6 253.665 211.314   1
  -2   0  16 1154.18 368.554   2
  -2   0  15 115.760 144.068   2
  -2   0  14 331.727 154.060   2
  -2   0  13 19.3159 47.3049   2
  -2   0  12 2187.45 400.379   2
  -2   0  11 96.5692 84.7253   2
  -2   0  10 4104.07 487.868   2
  -2   0   9 17.5093 42.1180   2
  -2   0   8 155.140 78.4957   2
  -2   0   7 62.3046 78.3013   2
  -2   0   6 805.195 174.348   2
  -2   0   5 34.8702 61.8998   2
  -2   0   4 56747.3 1284.15   2
  -2   0   3 79.1500 55.1360   2
  -2   0   2 892.239 147.623   2
  -2   0   1 51.7769 64.6930   3
   2   0  -1-3.50623 12.6527   2
  -2   0   0 74880.2 1490.82   3
  -2   0  -1-47.8375 66.6905   3
  -2   0  -2 533318. 3986.53   3
  -2   0  -3 72.2384 53.9303   3
  -2   0  -4 27593.9 1005.44   3
  -2   0  -5-19.8035 50.6201   3
  -2   0  -6 1763.32 291.851   3
   2   0   7 105.840 98.5367   2
   2   0   8 3551.10 414.086   2
   2   0   9 14.4327 51.4118   2
   2   0  10 125409. 2722.32   2
   2   0  11 153.601 132.740   2
   2   0  12 115380. 2918.04   2
   2   0  13-10.1017 34.4994   2
   2   0  14 382.740 191.351   2
   2   0  15 13.0601 99.4631   2
  -2   1  16 198.479 118.039   2
  -2  -1  15 539.103 222.906   2
  -2   1  15 669.231 259.914   2
  -2  -1  14-78.5414 85.8043   2
  -2   1  14 24.8594 113.559   2
  -2   1  13 4742.97 649.872   2
  -2  -1  13 4454.13 597.678   2
  -2   1  12 3774.05 547.837   2
  -2  -1  12 3087.80 471.744   2
  -2  -1  11 364.677 164.302   2
  -2   1  11 640.728 203.618   2
  -2  -1  10 691.704 198.887   2
  -2   1  10 258.624 134.020   2
  -2  -1   9 1917.58 316.880   2
  -2   1   9 2229.01 358.890   2
  -2  -1   8 5280.57 487.147   2
  -2   1   8 5062.23 517.566   2
  -2   1   7 16325.8 889.111   2
  -2  -1   7 16213.9 801.809   2
  -2   1   6 822.313 195.308   2
  -2  -1   6 627.013 146.286   2
  -2  -1   5 7836.57 477.829   2
  -2   1   5 9001.65 596.785   2
  -2   1   4 6100.12 472.391   2
  -2  -1   4 6093.21 388.046   2
  -2  -1   3 20227.0 640.327   2
  -2  -1   2 6275.68 329.178   2
   2   1  -2 6544.93 308.917   2
  -2  -1   1 12093.9 472.362   3
  -2   1   1 12642.5 729.506   3
   2   1  -1 12188.2 370.767   2
  -2  -1   1 11795.3 416.066   2
   2   1   0 106450. 1552.74   3
  -2  -1   0 106342. 1353.86   3
  -2   1   0 107106. 2057.33   3
   2   1   0 106317. 1020.42   2
   2   1   1 7878.38 437.852   3
  -2  -1  -1 8522.01 413.378   3
  -2   1  -1 8732.09 576.632   3
  -2   1  -2 3045.56 330.643   3
  -2  -1  -2 3136.76 270.549   3
  -2  -1  -3 12481.9 598.895   3
  -2   1  -3 12787.1 705.196   3
   2   1   4 46127.9 954.245   2
  -2   1  -4 47178.1 1396.25   3
  -2  -1  -4 46146.8 1239.94   3
   2   1   5 104977. 1584.57   2
  -2   1  -5 104278. 2158.47   3
   2   1   6 42739.7 1119.91   2
  -2   1  -6 42657.8 1453.35   3
   2   1   7 12673.0 662.973   2
  -2   1  -7 12847.0 834.678   3
   2  -1   8 39963.1 1514.32   2
   2   1   8 38890.2 1262.68   2
  -2   1  -8 40192.8 1557.65   3
   2   1   9 38580.6 1354.27   2
   2  -1   9 39554.9 1573.15   2
   2  -1  10 10549.4 846.760   2
   2   1  10 10696.5 751.846   2
   2  -1  11 1787.18 364.148   2
   2   1  11 1559.27 307.996   2
   2  -1  12 6805.15 759.626   2
   2   1  12 8688.59 770.858   2
   2  -1  13 29252.5 1618.88   2
   2   1  13 29205.0 1501.08   2
   2  -1  14 22373.0 1481.75   2
  -2   2  16 321.116 301.299   2
  -2   2  15 2445.42 546.201   2
  -2  -2  14 1125.97 329.216   2
  -2   2  14 1657.97 424.151   2
  -2  -2  13 971.223 306.465   2
  -2   2  13 767.007 256.664   2
  -2  -2  12 352.443 160.599   2
  -2   2  12 148.436 146.892   2
  -2  -2  11 1665.30 341.083   2
  -2   2  11 1805.14 390.390   2
  -2   2  10 39061.9 1749.11   1
  -2   2  10 38197.5 1690.15   2
  -2  -2  10 38594.2 1552.04   2
  -2  -2   9 20649.6 1070.68   2
  -2   2   9 19891.4 1161.57   2
  -2   2   9 19107.0 1238.30   1
  -2   2   8 146.640 136.869   2
  -2  -2   8 242.318 115.943   2
  -2   2   7 1878.58 334.659   2
  -2  -2   7 1854.19 285.734   2
  -2   2   6 229.149 115.961   2
  -2  -2   6 149.317 75.6511   2
  -2  -2   5 15917.8 720.383   2
  -2  -2   4 7002.74 433.419   2
  -2  -2   3 6107.21 362.342   2
  -2  -2   2 43166.2 832.484   2
  -2  -2   1 47245.4 705.897   2
  -2   2   1 47023.6 1647.96   3
   2   2   0 23236.1 570.647   3
  -2   2   0 22907.5 1090.63   3
   2   2   1 1992.92 195.951   3
  -2   2  -1 2298.42 330.754   3
  -2   2  -2 715.770 184.378   3
  -2   2  -3 4819.85 464.378   3
   2   2   4 8339.17 315.339   2
  -2   2  -4 8708.46 642.407   3
  -2   2  -5 25713.0 1125.63   3
   2   2   5 24790.9 648.737   2
   2   2   6 2979.80 261.671   2
  -2   2  -6 2676.56 376.350   3
   2   2   7 44886.6 1142.77   2
  -2   2  -7 45229.9 1613.83   3
   2   2   8 32326.0 1072.60   2
  -2   2  -8 30288.1 1377.02   3
   2  -2   9 5034.18 620.296   2
   2   2   9 4056.03 419.830   2
   2  -2  10 80.1380 87.5866   2
   2  -2  11 1090.68 310.189   2
   2  -2  12 584.924 235.601   2
   2  -2  13-47.9295 72.7252   2
  -2  -3  14 2627.91 514.708   2
  -2   3  14 2987.74 611.675   2
  -2  -3  13 1361.04 357.027   2
  -2   3  13 1059.46 334.772   2
  -2  -3  12 1890.44 403.690   2
  -2   3  12 1063.21 325.963   2
  -2   3  11 948.405 296.442   2
  -2  -3  11 1815.00 376.561   2
  -2   3  10 204.438 173.827   1
  -2   3  10-42.6633 121.500   2
  -2  -3  10-46.4369 70.2406   2
  -2   3   9 23506.9 1706.50   1
  -2  -3   9 23567.2 1222.54   2
  -2   3   8 1205.48 378.780   1
  -2  -3   8-1.17730 50.6107   2
  -2   3   7 169957. 4353.56   1
  -2  -3   7 169451. 2946.23   2
  -2  -3   6 24481.9 1049.64   2
  -2   3   6 24926.3 1632.39   1
  -2  -3   5 763.206 171.038   2
  -2  -3   4 2371.57 280.438   2
  -2  -3   3 1758.25 221.384   2
  -2   3   2 174.974 115.872   3
  -2  -3   2 405.104 96.5837   2
  -2   3   1 53.1826 24.4627   3
  -2  -3   1 37.0626 23.0706   2
  -2   3   0 1575.01 308.658   3
  -2  -3   0 1184.09 94.7970   2
  -2   3  -1 38352.3 1480.69   3
   2   3   1 40202.6 815.517   3
  -2   3  -2 45587.5 1570.43   3
  -2   3  -3 9065.24 684.535   3
  -2   3  -4 8279.85 663.880   3
  -2   3  -5 467.605 204.568   1
  -2   3  -5 390.433 143.989   3
  -2   3  -6 1315.19 365.340   1
  -2   3  -6 1089.96 267.179   3
  -2   3  -7 3412.85 462.074   3
  -2   3  -7 2125.52 444.783   1
  -2   3  -8 3032.24 448.388   3
  -2   3  -9 270.105 161.306   3
   2  -3  10 7298.23 884.437   2
   2  -3  11 16673.5 1338.39   2
   2  -3  12 678.620 258.286   2
  -2  -4  12 239.150 145.977   2
  -2  -4  11 32053.5 1630.88   2
  -2  -4  10 36619.1 1672.41   2
  -2   4  10 36088.0 2426.53   1
  -2  -4   9 3012.66 459.027   2
  -2   4   9 4209.77 836.139   1
  -2   4   8 176.499 195.582   1
  -2  -4   8 80.1449 60.3773   2
  -2   4   7-96.2034 54.0372   1
  -2  -4   7 131.799 103.596   2
  -2   4   6 11298.4 1315.45   1
  -2  -4   6 11124.4 751.663   2
  -2   4   5 37594.5 2345.69   1
  -2  -4   5 40880.3 1364.59   2
  -2   4   4 69906.7 3142.15   1
  -2  -4   4 73383.9 1692.14   2
  -2   4   3 83588.4 3401.29   1
  -2  -4   3 84356.2 1687.99   2
  -2   4   3 79879.2 2772.89   3
  -2   4   2 2998.77 511.856   3
  -2   4   2 2729.36 624.255   1
  -2   4   1 1002.80 290.589   3
  -2   4   1 514.403 260.853   1
  -2   4   0 5719.56 629.536   3
  -2   4   0 5280.10 827.906   1
  -2   4  -1 304.237 145.000   3
  -2   4  -1 313.436 229.887   1
  -2   4  -2 186.271 200.249   1
  -2   4  -2 115.648 122.363   3
  -2   4  -3 2218.93 364.660   3
  -2   4  -3 2269.60 552.680   1
  -2   4  -4 8226.96 1041.58   1
  -2   4  -4 7843.47 681.512   3
  -2   4  -5 35986.8 2183.53   1
  -2   4  -5 36661.4 1475.59   3
  -2   4  -6 4153.15 751.334   1
  -2   4  -6 4356.01 518.074   3
  -2   4  -7 1681.65 329.718   3
  -2   4  -7 1331.38 437.891   1
  -2   4  -8 1248.42 289.957   3
  -2   4  -9 676.514 233.335   3
   2  -4  10 371.119 229.798   2
  -2  -5  11 3280.94 532.892   2
  -2   5   9 4349.90 972.174   1
  -2   5   8 407.504 249.012   1
  -2   5   7 1733.82 570.828   1
  -2   5   6 4671.02 942.126   1
  -2   5   5 17276.1 1845.89   1
  -2   5   4 8172.61 1255.67   1
  -2   5   3 1742.79 565.825   1
  -2   5   2 51842.5 3086.73   1
  -2   5   1 52105.5 3073.15   1
  -2   5   0 18403.1 1817.41   1
  -2   5  -1 3283.85 739.568   1
  -2   5  -2 4505.42 904.878   1
  -2   5  -3 165.793 90.9043   1
  -2   5  -4 382.205 196.586   1
  -2   5  -5 1279.05 470.459   1
  -2   5  -6 1459.52 537.551   1
  -2   5  -7 3108.57 713.160   1
  -2   6   4 2304.20 714.281   1
  -2   6   3 824.426 432.130   1
  -2   6   2-1.60514 228.586   1
  -2   6   1-155.721 191.892   1
  -2   6   0 1959.42 665.509   1
  -2   6  -1 35286.8 2810.10   1
  -2   6  -2 9604.79 1476.05   1
  -2   6  -3 9194.13 1408.99   1
  -3   0  15 89073.0 3139.89   2
  -3   0  14 0.68569 55.5566   2
  -3   0  13 175.612 150.464   2
  -3   0  12 29.7613 85.8945   2
  -3   0  11 9360.71 826.380   2
  -3   0  10 131.145 91.4477   2
  -3   0   9 5634.35 590.999   2
  -3   0   8-53.6986 34.1887   2
  -3   0   7 124005. 2511.97   2
  -3   0   6 17.8350 47.6719   2
  -3   0   5 152680. 2565.37   2
  -3   0   4 112.480 101.026   2
  -3   0   3 5912.45 506.833   2
  -3   0   2-17.4808 52.3030   3
  -3   0   1 5152.39 489.993   3
  -3   0   0 40.6862 88.7859   3
  -3   0  -1 79701.3 1814.10   3
  -3   0  -2 21.6858 71.4938   3
  -3   0  -3 260725. 3448.24   3
  -3   0  -4-1.96242 26.8584   3
  -3   0  -5 3706.34 432.489   3
  -3   0  -6-42.5894 77.8817   3
  -3   0  -7 235.517 104.916   3
  -3   0  -8 82.2960 97.9560   3
   3   0   8-66.4806 68.2319   2
   3   0   9 600.154 186.245   2
   3   0  10-49.7583 66.0754   2
   3   0  11 108650. 2781.72   2
   3   0  12 116.185 96.3932   2
   3   0  13 18691.1 1271.36   2
   3   0  14 478.457 208.832   2
  -3  -1  15 2406.72 510.033   2
  -3   1  15 1546.03 421.983   2
  -3   1  14 2556.80 527.513   2
  -3  -1  14 2555.41 511.435   2
  -3  -1  13 35278.5 1762.43   2
  -3   1  13 33644.4 1837.55   2
  -3  -1  12 65060.6 2266.22   2
  -3   1  12 64570.4 2418.47   2
  -3   1  11 27418.3 1505.09   2
  -3  -1  11 28449.2 1414.69   2
  -3  -1  10 3003.67 433.260   2
  -3   1  10 2826.37 458.347   2
  -3  -1   9 3524.44 453.938   2
  -3   1   9 3317.18 478.696   2
  -3  -1   8 17819.1 954.630   2
  -3   1   8 17526.1 1055.18   2
  -3  -1   7 1727.12 280.555   2
  -3   1   7 2190.00 355.606   2
  -3   1   6 3507.10 440.248   2
  -3  -1   6 3373.07 367.429   2
  -3  -1   5 24545.8 952.382   2
  -3   1   5 25026.2 1140.53   2
  -3  -1   4 75512.2 1589.80   2
  -3  -1   3 85511.4 1612.57   2
  -3  -1   3 84589.2 1917.34   3
  -3   1   2 168777. 3212.44   3
  -3  -1   2 166894. 2519.67   3
  -3  -1   2 166682. 2189.62   2
  -3   1   1 44609.6 1611.69   3
  -3  -1   1 46709.8 1233.12   3
  -3  -1   0 125654. 1954.81   3
   3   1   0 126812. 1576.50   2
  -3   1   0 127723. 2620.65   3
  -3   1  -1 31264.5 1281.17   3
  -3  -1  -1 30976.5 991.285   3
  -3   1  -2 2237.78 345.004   3
  -3  -1  -2 1759.56 250.102   3
  -3   1  -3 2775.41 376.421   3
  -3  -1  -3 2441.57 304.104   3
  -3   1  -4 3369.46 437.763   3
  -3  -1  -4 2957.91 354.412   3
  -3   1  -5 8287.08 688.341   3
  -3  -1  -5 6519.40 555.136   3
   3   1   6 16144.8 744.745   2
  -3   1  -6 15507.1 967.095   3
   3   1   7 26284.5 1009.54   2
  -3   1  -7 25066.9 1281.57   3
   3   1   8 78607.1 1861.64   2
  -3   1  -8 78359.2 2361.51   3
   3  -1   9 44955.4 1806.00   2
   3   1   9 45648.0 1507.92   2
  -3   1  -9 44713.4 1850.37   3
   3  -1  10 13446.6 1020.46   2
   3   1  10 14638.8 908.173   2
   3  -1  11 4530.84 617.620   2
   3   1  11 3756.38 483.275   2
   3  -1  12 805.058 279.947   2
   3  -1  13 2951.64 529.567   2
  -3   2  15 1561.15 449.042   2
  -3  -2  14-8.29023 65.8904   2
  -3   2  14 81.1058 141.766   2
  -3  -2  13 2971.42 511.788   2
  -3   2  13 3533.25 624.622   2
  -3  -2  12 3260.29 521.097   2
  -3   2  12 3476.25 587.986   2
  -3  -2  11 9049.73 814.398   2
  -3   2  11 9859.73 960.122   2
  -3  -2  10 58854.7 1981.21   2
  -3   2  10 53488.4 2156.09   2
  -3  -2   9 105117. 2506.35   2
  -3   2   9 100596. 2850.74   2
  -3   2   8 21465.5 1263.09   2
  -3  -2   8 20057.2 1027.59   2
  -3  -2   7 160.762 102.229   2
  -3   2   7 127.943 30.9070   2
  -3  -2   6 69.1292 80.8831   2
  -3  -2   5 15654.8 745.343   2
  -3  -2   4 61489.8 1363.04   2
  -3  -2   3 62030.3 1210.95   3
  -3  -2   3 63195.2 1265.18   2
  -3  -2   2 1286.86 148.747   3
  -3  -2   2 1006.19 149.549   2
  -3   2   2 1011.07 278.918   3
   3   2  -1 81610.9 1004.82   2
  -3  -2   1 81465.2 1160.93   3
  -3  -2   1 80583.9 1187.36   2
  -3   2   1 77867.1 2352.69   3
   3   2   0 80568.8 774.935   2
   3   2   0 81706.7 1583.22   3
  -3   2   0 79423.7 2249.98   3
  -3  -2   0 82670.0 1231.55   3
  -3  -2  -1 14537.2 579.119   3
  -3   2  -1 16937.7 1020.82   3
  -3  -2  -2 422.927 107.716   3
  -3   2  -2 230.555 154.702   3
   3   2   3 1907.41 112.558   2
  -3   2  -3 2627.08 396.101   3
   3   2   4 19986.1 483.097   2
  -3   2  -4 18277.8 1055.83   3
   3   2   5 95304.9 1278.38   2
  -3   2  -5 98287.1 2489.96   3
   3   2   6 81049.3 1356.55   2
  -3   2  -6 78269.9 2273.56   3
  -3   2  -7 30118.5 1442.89   3
  -3   2  -8 9582.92 848.383   3
  -3   2  -9 6223.74 703.076   3
  -3   2 -10 43.2276 66.8723   3
   3  -2  10 201.414 188.920   2
   3  -2  11 2077.43 457.068   2
   3  -2  12 9.88227 101.856   2
  -3   3  15 2881.30 622.315   2
  -3  -3  14 1484.00 403.249   2
  -3   3  14 720.380 303.768   2
  -3  -3  13-16.1480 101.234   2
  -3   3  13 77.9665 99.8311   2
  -3   3  12 6011.89 833.631   2
  -3  -3  12 5659.15 706.202   2
  -3  -3  11-90.0814 116.226   2
  -3  -3  10 2677.85 454.335   2
  -3   3  10 3961.78 730.419   1
  -3  -3   9 3952.92 528.981   2
  -3  -3   8 8782.22 724.948   2
  -3  -3   7 123604. 2567.71   2
  -3  -3   6 20375.1 988.450   2
  -3  -3   5 58494.5 1514.75   2
  -3  -3   4 2196.07 266.137   2
  -3   3   3 5740.99 774.712   3
  -3  -3   3 5220.76 362.229   2
  -3  -3   2 221.790 67.2331   2
  -3   3   2 301.784 121.244   3
  -3   3   1 4696.76 631.256   3
  -3  -3   1 4074.04 219.049   2
  -3   3   0 674.229 228.610   3
  -3   3  -1 36397.2 1622.54   3
  -3   3  -2 8504.54 770.180   3
  -3   3  -3 142133. 3085.33   3
  -3   3  -4 21573.0 1207.83   3
  -3   3  -5 7255.84 708.415   3
  -3   3  -6 3662.52 511.738   3
  -3   3  -7 225.489 91.3515   3
  -3   3  -8 1154.20 299.093   3
  -3   3  -9 66.2142 77.2795   3
  -3   3 -10 243.532 174.411   3
   3  -3  11 3313.99 641.551   2
  -3  -4  12 2509.40 488.757   2
  -3  -4  11 48.4737 74.4317   2
  -3  -4  10 2996.77 489.389   2
  -3   4  10 3114.56 760.572   1
  -3   4   9 173.998 251.551   1
  -3  -4   9 95.5736 105.289   2
  -3  -4   8 3488.42 482.264   2
  -3   4   8 2246.04 595.464   1
  -3  -4   7 6148.43 602.436   2
  -3   4   7 4979.64 900.196   1
  -3  -4   6 68.9018 80.1104   2
  -3   4   6 258.339 220.978   1
  -3   4   4 33077.7 2015.47   3
  -3   4   3 16140.9 1354.13   3
  -3   4   2 301.601 192.332   3
  -3   4   1 11568.8 1032.81   3
  -3   4   0 41209.6 1887.87   3
  -3   4  -1 24183.1 1403.01   3
  -3   4  -2 376.252 167.187   3
  -3   4  -3 1267.79 296.459   3
  -3   4  -4 352.952 166.563   3
  -3   4  -4 361.052 198.978   1
  -3   4  -5 394.271 238.120   1
  -3   4  -5 172.611 114.081   3
  -3   4  -6 3111.05 650.466   1
  -3   4  -6 2238.78 406.483   3
  -3   4  -7 381.239 158.608   3
  -3   4  -7 267.022 244.716   1
  -3   4  -8 2987.40 499.516   3
  -3   4  -9 8830.10 882.394   3
  -3   4 -10 2223.76 450.233   3
  -3   5   9 1655.31 627.077   1
  -3   5   8 779.020 378.364   1
  -3   5   7 2224.92 717.325   1
  -3   5   6 1289.68 509.081   1
  -3   5   6 1200.69 412.676   3
  -3   5   5 226.681 182.744   1
  -3   5   5 720.762 313.466   3
  -3   5   4 0.90610 178.796   3
  -3   5   4 167.843 264.670   1
  -3   5   3 6119.08 852.740   3
  -3   5   3 8566.93 1283.92   1
  -3   5   2 17203.9 1807.13   1
  -3   5   2 17567.4 1379.41   3
  -3   5   1 2031.81 463.531   3
  -3   5   1 1719.64 561.595   1
  -3   5   0 891.326 425.062   1
  -3   5  -1 333.006 241.159   1
  -3   5  -2 104.571 70.6948   1
  -3   5  -3 3360.40 778.088   1
  -3   5  -4 1193.26 481.657   1
  -3   5  -5 1263.69 460.200   1
  -3   5  -6 3328.44 768.612   1
  -4   0  15 174.445 193.654   2
  -4   0  14 99182.0 3286.28   2
  -4   0  13 191.314 137.675   2
  -4   0  12 1366.29 369.074   2
  -4   0  11 24.1465 95.5861   2
  -4   0  10 4.91956 37.2913   2
  -4   0   9 25.2267 49.1026   2
  -4   0   8 2228.42 392.882   2
  -4   0   7 173.947 109.839   2
  -4   0   6 142708. 2891.25   2
  -4   0   5 157.206 110.003   2
  -4   0   4 26254.4 1207.36   2
  -4   0   3-52.0267 60.6221   3
  -4   0   2 9338.52 772.303   3
  -4   0   1 20.3869 65.7301   3
  -4   0   0 13173.1 867.936   3
  -4   0  -1 8.81312 47.7133   3
  -4   0  -2 32.6919 46.1058   3
  -4   0  -3-12.2813 82.0538   3
  -4   0  -4 12985.9 904.301   3
  -4   0  -5 32.9433 33.0824   3
  -4   0  -6 4936.11 571.871   3
  -4   0  -7 116.300 102.158   3
  -4   0  -8 1507.82 353.080   3
   4   0   9 51.7076 82.7595   2
   4   0  10 561.121 199.889   2
   4   0  11 97.2560 114.277   2
   4   0  12 732.768 247.034   2
  -4  -1  15 650.950 254.680   2
  -4   1  15 897.574 334.455   2
  -4  -1  14 2430.11 493.171   2
  -4   1  14 2934.43 573.494   2
  -4  -1  13 8555.83 904.353   2
  -4   1  13 9153.92 1009.10   2
  -4  -1  12 21933.2 1387.74   2
  -4   1  12 21990.6 1494.39   2
  -4  -1  11 15774.7 1127.09   2
  -4   1  11 14770.4 1181.99   2
  -4  -1  10 15244.5 1062.33   2
  -4   1  10 17165.1 1215.50   2
  -4  -1   9 36308.3 1561.07   2
  -4   1   9 38695.6 1765.78   2
  -4  -1   8 18803.4 1074.03   2
  -4   1   8 18795.7 1205.08   2
  -4  -1   7 6643.55 616.644   2
  -4   1   7 7849.77 748.723   2
  -4  -1   6 6922.99 599.342   2
  -4   1   6 7397.08 709.831   2
  -4  -1   5 3213.02 392.798   2
  -4  -1   4 13456.8 918.687   3
  -4  -1   4 12748.1 763.211   2
  -4  -1   3 4473.01 510.857   3
  -4   1   3 3665.41 544.210   3
  -4  -1   3 3699.71 409.502   2
  -4   1   2 4414.58 579.625   3
  -4  -1   2 4415.51 476.690   3
  -4   1   1 1819.97 350.131   3
  -4  -1   1 1380.16 257.964   3
  -4   1   0 9698.13 810.343   3
  -4  -1   0 10317.2 670.833   3
  -4   1  -1 18201.3 1086.35   3
  -4  -1  -1 18764.4 900.677   3
  -4   1  -2 853.337 221.128   3
  -4  -1  -2 427.974 145.049   3
  -4   1  -3 9092.36 769.505   3
  -4  -1  -3 10486.9 714.238   3
  -4  -1  -4 268.304 130.412   3
  -4   1  -4 414.745 183.523   3
  -4  -1  -5-32.9751 51.1844   3
  -4   1  -5 123.457 136.434   3
  -4  -1  -6 1185.93 280.381   3
  -4   1  -6 1655.67 346.960   3
  -4   1  -7 1475.13 347.235   3
  -4  -1  -7 1064.99 276.404   3
   4   1   7 1400.89 256.213   2
  -4   1  -8 3053.20 502.395   3
   4   1   8 2190.67 315.263   2
  -4   1  -9 4906.92 663.140   3
  -4   1 -10-13.5160 50.1831   3
   4  -1  10-64.5615 116.941   2
   4  -1  11 1151.81 322.356   2
   4  -1  12 139.893 40.8826   2
   4  -1  13 205.825 162.361   2
  -4   2  15 1719.08 495.462   2
  -4  -2  14 1374.35 397.825   2
  -4   2  14 1348.62 430.507   2
  -4  -2  13 1550.27 399.240   2
  -4   2  13 2304.87 537.040   2
  -4  -2  12 21899.6 1413.94   2
  -4   2  12 23096.3 1627.60   2
  -4  -2  11 17451.0 1214.44   2
  -4   2  11 15903.3 1313.01   2
  -4  -2  10 41.5944 35.2471   2
  -4   2  10-39.3409 123.007   2
  -4  -2   9 18913.9 1142.92   2
  -4   2   9 19172.3 1339.98   2
  -4  -2   8 3948.52 486.101   2
  -4  -2   7 2211.92 345.306   2
  -4  -2   6 563.107 158.096   2
  -4  -2   5 413.108 157.443   2
  -4  -2   5 140.994 112.259   3
  -4  -2   4 3421.00 392.441   3
  -4  -2   4 3248.63 358.574   2
  -4   2   4 2810.10 532.100   3
  -4   2   3 32010.8 1782.76   3
  -4  -2   3 28501.8 1006.77   3
  -4  -2   3 27091.7 968.604   2
  -4   2   2 25427.9 1537.72   3
  -4  -2   2 24408.2 859.540   3
  -4   2   1 123.282 165.829   3
  -4  -2   1 141.813 67.2474   3
   4   2   0 5056.43 263.737   2
  -4   2   0 5587.88 659.310   3
  -4  -2   0 5036.50 398.964   3
  -4  -2  -1 2276.84 274.521   3
   4   2   1 2007.31 157.848   2
  -4   2  -1 1584.94 354.854   3
  -4  -2  -2 3007.26 330.340   3
  -4   2  -2 4089.22 547.740   3
   4   2   3 6382.48 301.843   2
  -4   2  -3 6511.08 686.083   3
  -4  -2  -3 6413.55 515.903   3
  -4  -2  -4 1821.96 290.618   3
  -4   2  -4 1551.19 344.120   3
  -4   2  -5 16926.4 1152.52   3
  -4   2  -6 28324.5 1499.13   3
  -4   2  -7 4845.78 625.699   3
  -4   2  -8 1042.13 299.657   3
  -4   2  -9 30.6624 147.255   3
  -4   2 -10 2077.44 457.868   3
   4  -2  11 2113.10 484.308   2
  -4  -3  13 471.139 222.841   2
  -4  -3  12 4773.46 685.772   2
  -4  -3  11 3560.46 563.869   2
  -4  -3  10 617.242 236.197   2
  -4  -3   9 99.4618 78.8363   2
  -4  -3   8 337.924 144.593   2
  -4  -3   7 3325.84 434.746   2
  -4  -3   6 26787.0 1153.22   2
  -4   3   5 25145.9 1824.49   3
  -4  -3   5 26426.1 1055.60   2
  -4  -3   4 89.5672 53.0715   2
  -4   3   4 247.553 124.552   3
  -4   3   3 1026.43 370.197   3
  -4   3   2 1841.77 447.738   3
  -4   3   1 46.9138 36.3466   3
  -4   3   0 3379.21 553.343   3
  -4   3  -1 43.9896 79.4344   3
  -4   3  -2 13180.2 1049.93   3
  -4   3  -3 105490. 2935.95   3
  -4   3  -4 1957.68 396.406   3
  -4   3  -5 41314.7 1884.21   3
  -4   3  -6 1595.35 374.566   3
  -4   3  -7 2308.86 454.702   3
  -4   3  -8 1519.69 364.094   3
  -4   3  -9 545.463 246.033   3
  -4   3 -10 2000.37 450.245   3
  -4  -4  12 1173.81 369.876   2
  -4  -4  11-27.0877 84.5185   2
  -4   4  10 3696.00 860.198   1
  -4   4   6-183.928 171.327   3
  -4   4   5 935.875 363.107   3
  -4   4   4 2173.00 563.919   3
  -4   4   3 242.527 163.851   3
  -4   4   2 5989.61 853.254   3
  -4   4   1 47146.1 2279.56   3
  -4   4   0 41855.3 2078.86   3
  -4   4  -1 50062.6 2223.49   3
  -4   4  -2 20636.0 1395.04   3
  -4   4  -3 85.7344 120.327   3
  -4   4  -4 793.772 264.142   3
  -4   4  -5 3245.65 555.915   3
  -4   4  -6 25099.4 1533.45   3
  -4   4  -7 25314.8 1553.96   3
  -4   4  -8 2509.71 493.049   3
  -4   4  -9 13801.1 1196.60   3
  -4   5  10 3527.53 972.828   1
  -4   5   9 1430.63 549.048   1
  -4   5   8 2514.30 662.324   3
  -4   5   8 1759.25 666.076   1
  -4   5   7-233.530 207.006   3
  -4   5   7 268.498 237.818   1
  -4   5   6 1893.41 583.218   3
  -4   5   6 2291.43 718.711   1
  -4   5   5 1958.44 558.276   3
  -4   5   5 2520.93 759.914   1
  -4   5   4 5506.34 899.562   3
  -4   5   4 6196.22 1155.28   1
  -4   5   3 40388.0 2355.60   3
  -4   5   3 40848.5 2884.64   1
  -4   5   2 49574.6 2492.34   3
  -4   5   2 47626.8 3096.64   1
  -4   5   1 6173.51 852.145   3
  -4   5   1 7970.84 1259.50   1
  -4   5   0 9607.17 1037.33   3
  -4   5   0 9730.78 1349.47   1
  -4   5  -1 15284.3 1263.64   3
  -4   5  -1 14165.1 1616.53   1
  -4   5  -2 3482.69 803.749   1
  -4   5  -2 4423.98 652.048   3
  -4   5  -3 516.094 304.618   1
  -4   5  -4 85.8651 128.896   1
  -4   5  -5 514.782 306.129   1
  -4   5  -6 5102.62 972.471   1
  -5   0  14 41.8275 87.0396   2
  -5   0  13 672.312 244.391   2
  -5   0  12 35.2097 59.0781   2
  -5   0  11 5107.33 706.363   2
  -5   0  10 107.950 99.9569   2
  -5   0   9 2623.93 477.547   2
  -5   0   8 12.9769 38.8894   2
  -5   0   7 920.874 267.360   2
  -5   0   6-86.2753 115.691   2
  -5   0   5 56760.3 2307.83   3
  -5   0   4-261.224 152.740   3
  -5   0   3 77842.3 2589.46   3
  -5   0   2-61.4344 43.2926   3
  -5   0   1 11659.1 933.660   3
  -5   0   0 190.209 145.002   3
  -5   0  -1 2204.01 392.068   3
  -5   0  -2-0.48057 87.9609   3
  -5   0  -3 60.9293 56.6607   3
  -5   0  -4 319.562 189.139   3
  -5   0  -5 17333.6 1144.62   3
  -5   0  -6 70.7154 60.8480   3
  -5   0  -7 1156.35 317.916   3
  -5   0  -8 193.693 165.528   3
  -5   0  -9 1354.67 385.458   3
   5   0   9 949.692 291.346   2
   5   0  10 76.6327 113.135   2
  -5  -1  14 1337.99 382.802   2
  -5   1  14 1491.95 459.778   2
  -5  -1  13 52.8498 91.0473   2
  -5   1  13 39.0502 75.0087   2
  -5  -1  12-45.6791 83.6413   2
  -5   1  12 125.601 154.542   2
  -5  -1  11 3257.56 553.062   2
  -5   1  11 2186.30 499.501   2
  -5  -1  10 9475.74 900.946   2
  -5   1  10 8771.60 945.154   2
  -5  -1   9 2336.05 437.973   2
  -5   1   9 1987.08 424.479   2
  -5  -1   8 403.540 172.327   2
  -5   1   8 616.927 277.728   2
  -5  -1   7 2889.79 451.885   2
  -5  -1   6 4341.74 612.273   3
  -5  -1   6 5807.99 620.178   2
  -5   1   5 165.323 103.227   3
  -5  -1   5 192.366 173.135   3
  -5  -1   5 180.617 134.549   2
  -5   1   4 2025.18 454.957   3
  -5  -1   4 1409.30 342.323   3
  -5   1   3 14980.4 1196.28   3
  -5  -1   3 14447.5 1020.66   3
  -5   1   2 73950.9 2592.84   3
  -5  -1   2 74308.5 2200.00   3
  -5   1   1 46421.4 1983.11   3
  -5  -1   1 47157.8 1693.44   3
  -5   1   0 37674.2 1764.51   3
  -5  -1   0 38338.3 1488.39   3
  -5   1  -1 2441.50 448.987   3
  -5  -1  -1 2240.10 351.757   3
  -5   1  -2 7630.22 771.520   3
  -5  -1  -2 7277.12 655.107   3
  -5   1  -3 412.589 190.101   3
  -5  -1  -3 339.123 148.477   3
  -5   1  -4-82.1789 149.519   3
  -5  -1  -4 85.5078 29.7323   3
  -5  -1  -5 60.2501 120.470   3
  -5   1  -5 193.107 169.436   3
  -5  -1  -6 242.120 122.994   3
  -5   1  -6 592.112 225.784   3
  -5   1  -7 4725.54 650.892   3
  -5  -1  -7 4739.81 615.397   3
  -5   1  -8 11065.7 1039.19   3
  -5   1  -9 287.496 178.268   3
   5  -1  10 14433.6 1200.88   2
  -5   1 -10 14675.3 1279.84   3
   5  -1  11 12197.7 1138.84   2
  -5  -2  14 660.934 269.325   2
  -5   2  14 1393.91 444.334   2
  -5  -2  13 80.5569 98.3222   2
  -5   2  13 34.3808 86.4056   2
  -5  -2  12 5490.72 765.480   2
  -5   2  12 5047.90 812.163   2
  -5  -2  11 3455.83 578.037   2
  -5  -2  10 267.586 174.383   2
  -5  -2   9 4121.41 579.236   2
  -5  -2   8 6220.09 666.006   2
  -5  -2   7 19690.7 1190.18   3
  -5  -2   7 18666.2 1089.33   2
  -5  -2   6 4236.08 535.078   3
  -5  -2   6 4261.78 496.288   2
  -5  -2   5-128.828 82.0507   2
  -5  -2   5 108.021 61.8662   3
  -5   2   4 389.017 277.765   3
  -5  -2   4 525.713 162.115   3
  -5  -2   4 605.352 174.288   2
  -5   2   3 232.423 127.568   3
  -5  -2   3 208.013 106.037   3
  -5   2   2 50.7061 55.0580   3
  -5  -2   2 39.1600 47.0450   3
  -5   2   1 100.100 146.369   3
  -5  -2   1 103.921 72.3474   3
  -5   2   0 18067.2 1292.06   3
  -5  -2   0 15645.0 821.540   3
  -5   2  -1 78403.6 2669.04   3
  -5  -2  -1 76673.5 1857.01   3
  -5   2  -2 65200.6 2404.66   3
  -5  -2  -2 65562.3 1778.59   3
  -5   2  -3 23621.1 1436.77   3
  -5  -2  -3 21798.7 1070.97   3
  -5  -2  -4 2079.14 345.890   3
  -5   2  -4 1912.03 404.482   3
  -5  -2  -5 3874.12 500.659   3
  -5   2  -5 4038.27 622.425   3
  -5   2  -6 357.464 190.665   3
  -5   2  -7 3898.00 623.961   3
  -5   2  -8 10365.3 1034.88   3
  -5   2  -9 11543.3 1123.14   3
  -5  -3  13-9.38058 48.6285   2
  -5  -3  12 1318.26 372.464   2
  -5  -3  11 1368.57 365.347   2
  -5  -3  10 41.4236 60.8036   2
  -5  -3   9 845.839 279.130   2
  -5  -3   8 1164.97 322.578   2
  -5  -3   7 2144.18 374.645   2
  -5   3   6 9422.65 1222.72   3
  -5   3   5 4796.87 853.916   3
  -5   3   4 23027.6 1812.44   3
  -5   3   3 6858.39 964.787   3
  -5   3   2 1575.45 440.836   3
  -5   3   1 710.936 298.637   3
  -5   3   0 292.899 165.518   3
  -5   3  -1 241.297 144.444   3
  -5   3  -2 48.5443 136.224   3
  -5   3  -3 14814.1 1213.46   3
  -5   3  -4 40959.8 2015.93   3
  -5   3  -5 67782.4 2630.93   3
  -5   3  -6 2520.53 519.900   3
  -5   3  -7 2044.73 470.493   3
  -5   3  -8 273.994 206.376   3
  -5   4   8 4306.03 896.754   3
  -5   4   7 204.830 366.854   3
  -5   4   6 819.236 399.287   3
  -5   4   5 2459.36 659.187   3
  -5   4   4 1686.62 516.424   3
  -5   4   3 10443.5 1252.96   3
  -5   4   2 3515.69 686.284   3
  -5   4   1 9014.75 1083.84   3
  -5   4   0 8657.02 1031.04   3
  -5   4  -1 8215.43 975.600   3
  -5   4  -2 306.540 213.938   3
  -5   4  -3 516.321 258.563   3
  -5   4  -4-56.7188 81.1715   3
  -5   4  -5 1190.62 384.743   3
  -5   4  -6 6086.01 831.564   3
  -5   4  -7 23597.3 1626.23   3
  -5   5   8 2900.01 784.045   3
  -5   5   7 10674.0 1466.74   3
  -5   5   6 9208.14 1339.89   3
  -5   5   5 223.402 191.803   3
  -5   5   4 217.516 210.012   3
  -5   5   3 4518.44 839.737   3
  -5   5   2 19014.5 1664.69   3
  -5   5   1 10553.3 1212.85   3
  -5   5   0 550.987 288.661   3
  -5   5  -1 2819.07 616.379   3
  -5   5  -2 2418.67 541.262   3
  -5   5  -3 1158.82 361.119   3
  -5   5  -4 1074.80 348.068   3
  -6   0  13 590.858 272.128   2
  -6   0  12 35786.0 2088.24   2
  -6   0  11 185.767 185.436   2
  -6   0  10 428.801 214.566   2
  -6   0   9 173.614 148.853   2
  -6   0   8-131.835 176.435   2
  -6   0   7 388.786 234.322   3
  -6   0   6 6636.44 869.114   3
  -6   0   5-170.490 149.730   3
  -6   0   4 353506. 6147.75   3
  -6   0   3 0.69751 74.8510   3
  -6   0   2 72870.2 2646.69   3
  -6   0   1-676.304 246.423   3
  -6   0   0 10044.8 957.701   3
  -6   0  -1 34.1998 79.5291   3
  -6   0  -2 465.436 228.593   3
  -6   0  -3-41.9480 43.5533   3
  -6   0  -4 23569.2 1432.43   3
  -6   0  -5 71.6322 141.306   3
  -6   0  -6 39855.1 1932.13   3
  -6   0  -7-134.153 137.199   3
  -6   0  -8 1710.30 413.822   3
  -6   0  -9 109.495 98.1286   3
  -6  -1  13 381.158 207.267   2
  -6   1  13 12.6520 53.7904   2
  -6  -1  12 2023.64 498.526   2
  -6   1  12 3302.66 674.056   2
  -6  -1  11 4535.65 694.419   2
  -6   1  11 4232.28 729.835   2
  -6  -1  10 8508.44 924.737   2
  -6  -1   9 3954.85 601.801   2
  -6  -1   8 23282.3 1640.61   3
  -6  -1   8 24514.9 1472.42   2
  -6   1   7 68975.2 3054.33   3
  -6  -1   7 70871.7 2753.47   3
  -6  -1   7 71071.0 2423.17   2
  -6   1   6 45116.0 2408.95   3
  -6  -1   6 39689.9 2022.07   3
  -6   1   5 15620.7 1391.06   3
  -6  -1   5 16467.7 1267.91   3
  -6   1   4 812.881 282.014   3
  -6  -1   4 533.430 219.082   3
  -6   1   3 269.628 145.439   3
  -6  -1   3 119.663 42.5706   3
  -6   1   2 45120.8 2174.63   3
  -6  -1   2 39628.3 1791.52   3
  -6   1   1 77300.9 2832.83   3
  -6  -1   1 77762.0 2407.98   3
  -6   1   0 47136.6 2149.59   3
  -6  -1   0 48878.4 1868.53   3
  -6   1  -1 619.342 245.297   3
  -6  -1  -1 1266.59 304.103   3
  -6   1  -2 9652.03 957.192   3
  -6  -1  -2 9126.27 819.381   3
  -6   1  -3 16298.0 1257.96   3
  -6  -1  -3 20049.8 1216.20   3
  -6   1  -4 6101.71 773.961   3
  -6  -1  -4 6243.17 695.107   3
  -6  -1  -5 170.115 131.083   3
  -6   1  -5 24.7866 93.8285   3
  -6  -1  -6 1085.21 298.052   3
  -6   1  -6 1217.94 348.870   3
  -6  -1  -7 1881.87 416.635   3
  -6   1  -7 1787.35 441.986   3
  -6   1  -8 8699.81 994.629   3
  -6  -1  -8 8085.21 890.513   3
  -6  -2  13 167.467 149.331   2
  -6  -2  12 261.607 187.899   2
  -6  -2  11 2511.85 526.907   2
  -6  -2  10 24941.9 1574.96   2
  -6  -2   9 33774.2 1743.94   2
  -6  -2   8 1301.71 318.577   2
  -6   2   7 7933.93 1108.81   3
  -6  -2   7 8368.23 790.011   2
  -6   2   6 11622.7 1299.54   3
  -6  -2   6 13238.0 963.336   2
  -6   2   5 665.875 279.232   3
  -6   2   4 5401.30 848.596   3
  -6   2   3 647.968 281.975   3
  -6   2   2 2755.05 579.387   3
  -6  -2   2 1938.20 322.604   3
  -6   2   1 2849.33 571.191   3
  -6  -2   1 1488.01 284.535   3
  -6  -2   0 4678.53 511.370   3
  -6   2   0 3216.99 602.160   3
  -6   2  -1 33556.4 1901.73   3
  -6  -2  -1 34766.2 1407.04   3
  -6   2  -2 22156.1 1517.63   3
  -6  -2  -2 22240.6 1147.19   3
  -6   2  -3 10203.8 1036.71   3
  -6  -2  -3 10343.1 811.972   3
  -6  -2  -4 3157.18 464.766   3
  -6   2  -4 2893.22 552.724   3
  -6  -2  -5 907.653 267.785   3
  -6   2  -5 1415.35 395.790   3
  -6   2  -6 1249.10 369.261   3
  -6   2  -7 5965.21 829.262   3
  -6  -3  12 28041.5 1896.30   2
  -6   3   8 989.389 429.258   3
  -6   3   7 1442.95 490.828   3
  -6   3   6 1159.86 449.759   3
  -6   3   5 3276.06 744.475   3
  -6   3   4 124.401 95.7809   3
  -6   3   3 9511.68 1197.42   3
  -6   3   2 2865.77 639.309   3
  -6   3   1 2905.98 600.772   3
  -6   3   0 1108.66 401.445   3
  -6   3  -1 130.989 209.623   3
  -6   3  -2 973.323 325.180   3
  -6   3  -3 247.318 188.142   3
  -6   3  -4 19488.8 1512.64   3
  -6   3  -5 1524.01 428.277   3
  -6   3  -6 20310.9 1563.99   3
  -6   4   8 3268.81 845.931   3
  -6   4   7-211.923 205.334   3
  -6   4   6 2625.16 728.258   3
  -6   4   5-73.1137 196.430   3
  -6   4   4 202.217 91.1978   3
  -6   4   3 30.4264 168.726   3
  -6   4   2 8.79660 130.700   3
  -6   4   1 711.315 345.482   3
  -6   4   0 2228.86 538.308   3
  -6   4  -1 7127.18 971.080   3
  -6   4  -2 2709.63 593.864   3
  -6   4  -3 15158.9 1388.80   3
  -6   4  -4 4080.70 723.445   3
  -6   5   4 163.571 177.470   3
  -6   5   3 1584.15 540.902   3
  -6   5   2 247.095 167.030   3
  -6   5   1 3648.91 768.877   3
  -6   5   0 6299.01 982.000   3
  -6   5  -1 4492.10 833.281   3
  -7   0  12-58.8577 200.496   2
  -7   0  11 4120.69 739.247   2
  -7   0   9 10025.6 1263.60   3
  -7   0   8 195.189 270.397   3
  -7   0   7 2796.14 620.575   3
  -7   0   6-221.115 172.998   3
  -7   0   5 2560.00 565.718   3
  -7   0   4-48.9680 114.317   3
  -7   0   3 53717.4 2518.30   3
  -7   0   2 154.451 109.761   3
  -7   0   1 1153.80 360.523   3
  -7   0   0 1021.68 326.998   3
  -7   0  -1 864.971 299.444   3
  -7   0  -2 26.9847 40.8894   3
  -7   0  -3 141.455 77.1290   3
  -7   0  -4-58.5637 80.4700   3
  -7   0  -5 1255.76 385.777   3
  -7   0  -6 82.0164 96.9239   3
  -7   0  -7 12411.6 1212.54   3
  -7  -1  12 2469.91 572.321   2
  -7  -1  11 671.626 285.844   2
  -7  -1  10 2107.07 556.362   3
  -7  -1  10 2569.15 545.482   2
  -7  -1   9 41.9354 63.9496   3
  -7  -1   9 38.1908 94.8357   2
  -7   1   8 631.354 343.873   3
  -7  -1   8 364.005 220.047   3
  -7   1   7 11146.5 1308.91   3
  -7  -1   7 11487.0 1175.87   3
  -7   1   6 58582.4 2951.40   3
  -7  -1   6 58226.1 2578.38   3
  -7   1   5 8461.93 1085.57   3
  -7  -1   5 8529.94 960.285   3
  -7   1   4 242.039 200.727   3
  -7  -1   4 471.918 222.359   3
  -7   1   3-23.9164 158.211   3
  -7  -1   3 20.5884 78.5133   3
  -7   1   2 5.97283 46.2320   3
  -7  -1   2-9.82822 81.0699   3
  -7   1   1-138.333 131.270   3
  -7  -1   1 415.188 184.324   3
  -7   1   0 987.386 342.742   3
  -7  -1   0 416.021 193.640   3
  -7   1  -1 32.0287 54.7776   3
  -7  -1  -1 206.256 153.850   3
  -7   1  -2 13221.8 1210.48   3
  -7  -1  -2 13106.1 1068.60   3
  -7   1  -3 846.754 319.967   3
  -7  -1  -3 665.298 253.545   3
  -7   1  -4 20.8520 62.1438   3
  -7  -1  -4 73.5770 97.5969   3
  -7  -1  -5 555.003 225.185   3
  -7   1  -5 450.371 257.065   3
  -7  -1  -6 2.76560 27.8115   3
  -7   1  -6-37.9851 70.0369   3
  -7  -1  -7-25.7097 121.530   3
  -7  -2  12 23.2635 68.4719   2
  -7  -2  11 10.2695 43.5524   2
  -7   2  10 21955.9 2128.61   3
  -7  -2  10 24111.4 1651.27   2
  -7   2   9 43187.0 2879.19   3
  -7  -2   9 42320.6 2089.22   2
  -7   2   8 18049.3 1812.29   3
  -7   2   7 2914.86 758.520   3
  -7   2   6 110.520 302.766   3
  -7   2   5 914.274 391.588   3
  -7   2   4 514.849 286.540   3
  -7   2   3 3810.60 740.737   3
  -7   2   2 3177.90 648.206   3
  -7   2   1 7647.07 1013.22   3
  -7   2   0 3935.75 700.814   3
  -7   2  -1 6032.92 862.425   3
  -7   2  -2 37.6001 102.504   3
  -7   2  -3 2847.80 604.290   3
  -7   2  -4 5737.08 836.744   3
  -7   2  -5 3648.13 674.906   3
  -7   3   8 4632.12 1021.81   3
  -7   3   7 262.405 262.455   3
  -7   3   6 22.9345 77.5735   3
  -7   3   5 1869.53 583.190   3
  -7   3   4 7207.53 1115.79   3
  -7   3   3 5100.12 912.720   3
  -7   3   2 14775.0 1513.71   3
  -7   3   1 3160.56 692.047   3
  -7   3   0 854.957 345.114   3
  -7   3  -1 343.322 215.431   3
  -7   3  -2 669.277 270.434   3
  -7   3  -3 607.441 273.911   3
  -7   4   3 378.302 265.330   3
  -7   4   2-58.5145 59.3042   3
  -8   0  11 459.789 410.944   3
  -8   0  10 1137.86 453.012   3
  -8   0   9-346.341 244.002   3
  -8   0   8 4861.86 899.063   3
  -8   0   7 427.252 254.285   3
  -8   0   6 73.1475 73.7479   3
  -8   0   5-246.305 185.937   3
  -8   0   4 4087.05 761.539   3
  -8   0   3 272.247 182.319   3
  -8   0   2 39003.0 2241.07   3
  -8   0   1 2.62859 40.0517   3
  -8   0   0 15692.8 1379.10   3
  -8   0  -1-298.866 189.701   3
  -8   0  -2 1631.95 457.719   3
  -8   0  -3 98.0548 142.770   3
  -8   0  -4 479.726 262.001   3
  -8   1  10 509.837 319.039   3
  -8   1   9 485.279 302.514   3
  -8   1   8 914.432 454.457   3
  -8   1   7 3152.12 726.073   3
  -8   1   6 135.341 233.883   3
  -8  -1   6-1.69722 160.349   3
  -8   1   5 336.899 181.895   3
  -8  -1   5 251.118 229.616   3
  -8   1   4 7476.42 1058.11   3
  -8  -1   4 8669.45 997.863   3
  -8   1   3 1791.54 507.158   3
  -8  -1   3 2110.40 477.232   3
  -8   1   2-198.132 253.993   3
  -8  -1   2 87.6669 99.2381   3
  -8   1   1 114.362 143.695   3
  -8  -1   1 23.1435 74.0478   3
  -8   1   0 8914.52 1100.83   3
  -8  -1   0 10448.5 1041.88   3
  -8   1  -1 14501.3 1378.71   3
  -8  -1  -1 14767.6 1238.33   3
  -8   1  -2 11509.8 1230.98   3
  -8  -1  -2 12127.0 1118.50   3
  -8   1  -3 149.243 142.869   3
  -8  -1  -3 212.423 121.045   3
  -8  -1  -4 13523.7 1211.23   3
  -8   2   7 189.042 123.364   3
  -8   2   6 5947.92 1054.21   3
  -8   2   5 2608.09 681.684   3
  -8   2   4 2688.74 685.695   3
  -8   2   3 1559.19 493.791   3
  -8   2   2 163.773 190.464   3
  -8   2   1 693.359 329.595   3
  -8   2   0 1534.73 464.750   3
  -8   2  -1 4358.82 778.615   3
  -9   0   8-392.699 263.622   3
  -9   0   7 87.3861 130.086   3
  -9   0   6-5.62917 179.659   3
  -9   0   5 1715.39 501.683   3
  -9   0   4 221.363 185.005   3
  -9   0   3 3609.45 730.115   3
  -9   0   2 124.202 69.2028   3
  -9   0   1 27178.1 1965.26   3
  -9   0   0 73.2650 106.019   3
   0   0   0    0.00    0.00   0
TITL ml023a in P2(1)/n
REM P2(1)/n (#14 in standard setting)
CELL 0.71073   7.073269   4.976108  12.616419  90.0000 103.0352  90.0000
ZERR    2.00   0.000641   0.000465   0.001056   0.0000   0.0088   0.0000
LATT  1
SYMM -x+1/2, y+1/2,-z+1/2
SFAC C H N
UNIT 22.00 16.00 2.00
TREF
HKLF 4
END
;
_shelx_hkl_checksum              88987
loop_
_space_group_symop_operation_xyz
'x, y, z'
'-x+1/2, y+1/2, -z+1/2'
'-x, -y, -z'
'x-1/2, -y-1/2, z-1/2'
loop_
_atom_site_label
_atom_site_type_symbol
_atom_site_fract_x
_atom_site_fract_y
_atom_site_fract_z
_atom_site_U_iso_or_equiv
_atom_site_adp_type
_atom_site_occupancy
_atom_site_site_symmetry_order
_atom_site_calc_flag
_atom_site_refinement_flags_posn
_atom_site_refinement_flags_adp
_atom_site_refinement_flags_occupancy
_atom_site_disorder_assembly
_atom_site_disorder_group
N1 N 0.1979(2) 0.0596(3) 0.04790(11) 0.0170(4) Uani 0.87(2) 1 d . . P A 1
C1 C 0.1979(2) 0.0596(3) 0.04790(11) 0.0170(4) Uani 0.13(2) 1 d . . P A 2
H1 H 0.3298 0.0996 0.0797 0.020 Uiso 0.13(2) 1 calc R U P A 2
C2 C 0.1480(3) -0.1314(4) -0.02878(13) 0.0172(4) Uani 1 1 d . . . . .
C3 C 0.2962(3) -0.2778(4) -0.06302(14) 0.0202(4) Uani 1 1 d . . . . .
H3 H 0.4287 -0.2402 -0.0317 0.024 Uiso 1 1 calc R U . . .
C4 C 0.2487(3) -0.4716(4) -0.14048(14) 0.0216(5) Uani 1 1 d . . . . .
H4 H 0.3488 -0.5695 -0.1623 0.026 Uiso 1 1 calc R U . . .
C5 C 0.0520(3) 0.1905(4) 0.07705(13) 0.0170(4) Uani 1 1 d . . . . .
C6 C 0.0941(3) 0.3951(4) 0.15795(14) 0.0211(4) Uani 1 1 d . . . . .
H6 H 0.2253 0.4378 0.1904 0.025 Uiso 1 1 calc R U . . .
C7 C -0.0515(3) 0.5298(4) 0.18921(14) 0.0217(4) Uani 1 1 d . . . . .
H7 H -0.0213 0.6639 0.2440 0.026 Uiso 1 1 calc R U . . .
loop_
_atom_site_aniso_label
_atom_site_aniso_U_11
_atom_site_aniso_U_22
_atom_site_aniso_U_33
_atom_site_aniso_U_23
_atom_site_aniso_U_13
_atom_site_aniso_U_12
N1 0.0161(8) 0.0167(8) 0.0178(7) 0.0011(6) 0.0027(6) 0.0000(6)
C1 0.0161(8) 0.0167(8) 0.0178(7) 0.0011(6) 0.0027(6) 0.0000(6)
C2 0.0188(9) 0.0153(9) 0.0174(8) 0.0033(7) 0.0037(6) -0.0008(7)
C3 0.0179(9) 0.0192(10) 0.0237(9) 0.0025(7) 0.0054(7) -0.0005(7)
C4 0.0242(10) 0.0197(10) 0.0234(9) 0.0024(7) 0.0106(7) 0.0023(8)
C5 0.0173(9) 0.0160(9) 0.0172(8) 0.0030(7) 0.0030(6) -0.0014(7)
C6 0.0213(9) 0.0208(10) 0.0197(8) -0.0005(7) 0.0018(7) -0.0029(8)
C7 0.0261(10) 0.0203(10) 0.0192(8) -0.0020(7) 0.0064(7) -0.0024(8)
loop_
_atom_type_symbol
_atom_type_description
_atom_type_scat_dispersion_real
_atom_type_scat_dispersion_imag
_atom_type_scat_source
C C 0.0033 0.0016 'International Tables Vol C Tables 4.2.6.8 and 6.1.1.4'
H H 0.0000 0.0000 'International Tables Vol C Tables 4.2.6.8 and 6.1.1.4'
N N 0.0061 0.0033 'International Tables Vol C Tables 4.2.6.8 and 6.1.1.4'
loop_
_geom_angle_atom_site_label_1
_geom_angle_atom_site_label_2
_geom_angle_atom_site_label_3
_geom_angle
_geom_angle_site_symmetry_3
C5 N1 C2 116.54(15) .
N1 C2 C3 119.23(16) .
N1 C2 C5 121.51(16) 3
C3 C2 C5 119.26(16) 3
C4 C3 C2 120.13(17) .
C3 C4 C7 120.98(17) 3
N1 C5 C6 119.61(16) .
N1 C5 C2 121.95(16) 3
C6 C5 C2 118.45(16) 3
C7 C6 C5 120.67(17) .
C6 C7 C4 120.52(17) 3
loop_
_geom_bond_atom_site_label_1
_geom_bond_atom_site_label_2
_geom_bond_distance
_geom_bond_site_symmetry_2
N1 C5 1.340(2) .
N1 C2 1.345(2) .
C2 C3 1.422(3) .
C2 C5 1.438(2) 3
C3 C4 1.360(3) .
C4 C7 1.421(3) 3
C5 C6 1.425(2) .
C5 C2 1.438(2) 3
C6 C7 1.360(3) .
C7 C4 1.421(3) 3
