#------------------------------------------------------------------------------
#$Date: 2016-02-13 21:28:24 +0200 (Sat, 13 Feb 2016) $
#$Revision: 176429 $
#$URL: svn://www.crystallography.net/cod/cif/4/51/33/4513321.cif $
#------------------------------------------------------------------------------
#
# This file is available in the Crystallography Open Database (COD),
# http://www.crystallography.net/
#
# All data on this site have been placed in the public domain by the
# contributors.
#
data_4513321
loop_
_publ_author_name
'Lusi, Matteo'
'Vitorica-Yrezabal, Inigo J.'
'Zaworotko, Michael J.'
_publ_section_title
;
 Expanding the Scope of Molecular Mixed Crystals Enabled by Three
 Component Solid Solutions
;
_journal_issue                   8
_journal_name_full               'Crystal Growth &amp; Design'
_journal_page_first              4098
_journal_paper_doi               10.1021/acs.cgd.5b00685
_journal_volume                  15
_journal_year                    2015
_chemical_formula_sum            'C6.2 H4.2 N0.8'
_chemical_formula_weight         89.91
_chemical_name_systematic
;
 ?
;
_space_group_crystal_system      monoclinic
_space_group_IT_number           14
_space_group_name_Hall           '-P 2yn'
_space_group_name_H-M_alt        'P 1 21/n 1'
_symmetry_space_group_name_Hall  '-P 2yn'
_symmetry_space_group_name_H-M   'P 1 21/n 1'
_atom_sites_solution_hydrogens   geom
_audit_creation_method           SHELXL-2014
_cell_angle_alpha                90
_cell_angle_beta                 102.960(10)
_cell_angle_gamma                90
_cell_formula_units_Z            4
_cell_length_a                   7.1148(7)
_cell_length_b                   4.9875(5)
_cell_length_c                   12.6219(13)
_cell_measurement_temperature    100(2)
_cell_volume                     436.48(8)
_computing_structure_refinement  'SHELXL-2014 (Sheldrick, 2014)'
_diffrn_ambient_temperature      100(2)
_diffrn_measured_fraction_theta_full 0.992
_diffrn_measured_fraction_theta_max 0.850
_diffrn_radiation_type           MoK\a
_diffrn_radiation_wavelength     0.71073
_diffrn_reflns_av_R_equivalents  0.0229
_diffrn_reflns_av_unetI/netI     0.0475
_diffrn_reflns_Laue_measured_fraction_full 0.992
_diffrn_reflns_Laue_measured_fraction_max 0.850
_diffrn_reflns_limit_h_max       8
_diffrn_reflns_limit_h_min       -6
_diffrn_reflns_limit_k_max       5
_diffrn_reflns_limit_k_min       -6
_diffrn_reflns_limit_l_max       9
_diffrn_reflns_limit_l_min       -16
_diffrn_reflns_number            1537
_diffrn_reflns_point_group_measured_fraction_full 0.992
_diffrn_reflns_point_group_measured_fraction_max 0.850
_diffrn_reflns_theta_full        25.242
_diffrn_reflns_theta_max         28.820
_diffrn_reflns_theta_min         3.312
_exptl_absorpt_coefficient_mu    0.082
_exptl_absorpt_correction_T_max  2.48
_exptl_absorpt_correction_T_min  0.51
_exptl_absorpt_correction_type   multi-scan
_exptl_absorpt_process_details   sadabs
_exptl_crystal_colour            yellow
_exptl_crystal_density_diffrn    1.368
_exptl_crystal_description       needle
_exptl_crystal_F_000             188
_refine_diff_density_max         0.217
_refine_diff_density_min         -0.229
_refine_diff_density_rms         0.058
_refine_ls_extinction_method     none
_refine_ls_goodness_of_fit_ref   1.050
_refine_ls_hydrogen_treatment    constr
_refine_ls_matrix_type           full
_refine_ls_number_parameters     65
_refine_ls_number_reflns         971
_refine_ls_number_restraints     0
_refine_ls_restrained_S_all      1.050
_refine_ls_R_factor_all          0.0724
_refine_ls_R_factor_gt           0.0580
_refine_ls_shift/su_max          0.000
_refine_ls_shift/su_mean         0.000
_refine_ls_structure_factor_coef Fsqd
_refine_ls_weighting_details
'w=1/[\s^2^(Fo^2^)+(0.0666P)^2^+0.1263P] where P=(Fo^2^+2Fc^2^)/3'
_refine_ls_weighting_scheme      calc
_refine_ls_wR_factor_gt          0.1326
_refine_ls_wR_factor_ref         0.1487
_reflns_Friedel_coverage         0.000
_reflns_number_gt                765
_reflns_number_total             971
_reflns_threshold_expression     'I > 2\s(I)'
_cod_data_source_file            cg5b00685_si_013.cif
_cod_data_source_block           D:\#12
_cod_depositor_comments
'Adding full bibliography for 4513301--4513322.cif.'
_cod_original_formula_sum        'C6.20 H4.20 N0.80'
_cod_database_code               4513321
#BEGIN Tags that were not found in dictionaries:
_shelx_space_group_comment
;
The symmetry employed for this shelxl refinement is uniquely defined
by the following loop, which should always be used as a source of
symmetry information in preference to the above space-group names.
They are only intended as comments.
;
_shelxl_version_number           2014-3
_shelx_res_file
;
REM  Ml28a in P21/n #14
REM R1 =  0.0679 for     635 Fo > 4sig(Fo)  and  0.1201 for all     993 data
REM     65 parameters refined using      0 restraints
REM Highest difference peak  0.205,  deepest hole -0.219,  1-sigma level  0.056
REM  Ml28b_2 in P21/n #14
REM R1 =  0.0556 for     765 Fo > 4sig(Fo)  and  0.0700 for all     971 data
REM     66 parameters refined using      0 restraints
REM Highest difference peak  0.265,  deepest hole -0.183,  1-sigma level  0.052
REM  Ml28b_2 in P21/n #14
REM R1 =  0.0578 for     765 Fo > 4sig(Fo)  and  0.0722 for all     971 data
REM     65 parameters refined using      0 restraints
REM Highest difference peak  0.222,  deepest hole -0.229,  1-sigma level  0.058
TITL Ml28b_2 in P21/n #14
CELL 0.71073 7.1148 4.9875 12.6219 90.000 102.960 90.000
ZERR 4.0000 0.0007 0.0005 0.0013 0.000 0.010 0.000
LATT 1
SYMM 0.5-X, 0.5+Y, 0.5-Z
SFAC C H N
UNIT 24.79 16.79 3.21
MERG 2
FMAP 2
GRID
PLAN 5
TEMP -173
BOND
EXYZ N1 C1
EADP N1 C1
L.S. 20
ACTA
WGHT    0.066600    0.126300
FVAR      15.86510   0.80273
PART 1
N1    3    0.196773    0.057516    0.048753    21.00000    0.01718    0.01775 =
         0.02018    0.00162    0.00249   -0.00063
PART 2
C1    1    0.196773    0.057516    0.048753   -21.00000    0.01718    0.01775 =
         0.02018    0.00162    0.00249   -0.00063
AFIX  43
H1    2    0.327786    0.096127    0.081211   -21.00000   -1.20000
PART 0
AFIX   0
C2    1    0.147829   -0.132761   -0.028412    11.00000    0.01950    0.01785 =
         0.01956    0.00433    0.00389   -0.00206
C3    1    0.295356   -0.280647   -0.062332    11.00000    0.01789    0.02243 =
         0.02801    0.00437    0.00610   -0.00016
AFIX  43
H3    2    0.427021   -0.244528   -0.030520    11.00000   -1.20000
AFIX   0
C4    1    0.248521   -0.473150   -0.139998    11.00000    0.02394    0.02408 =
         0.02829    0.00170    0.01264    0.00056
AFIX  43
H4    2    0.348109   -0.571432   -0.161525    11.00000   -1.20000
AFIX   0
C5    1    0.050773    0.190585    0.077710    11.00000    0.01918    0.01700 =
         0.01790    0.00333    0.00382   -0.00076
C6    1    0.092724    0.392951    0.158819    11.00000    0.02231    0.02200 =
         0.02373   -0.00128    0.00240   -0.00226
AFIX  43
H6    2    0.223101    0.433526    0.191990    11.00000   -1.20000
AFIX   0
C7    1   -0.052555    0.529559    0.189505    11.00000    0.03010    0.02204 =
         0.02361   -0.00170    0.00820   -0.00209
AFIX  43
H7    2   -0.022591    0.663256    0.244313    11.00000   -1.20000
AFIX   0
HKLF 4

REM  Ml28b_2 in P21/n #14
REM R1 =  0.0580 for     765 Fo > 4sig(Fo)  and  0.0724 for all     971 data
REM     65 parameters refined using      0 restraints

END

WGHT      0.0666      0.1263

REM Highest difference peak  0.217,  deepest hole -0.229,  1-sigma level  0.058
Q1    1  -0.0495  0.1757  0.0545  11.00000  0.05    0.22
Q2    1   0.2584  0.2828  0.3008  11.00000  0.05    0.19
Q3    1  -0.0024  0.5140  0.1199  11.00000  0.05    0.16
Q4    1   0.2255  0.0778 -0.0623  11.00000  0.05    0.16
Q5    1   0.4393 -0.2177  0.1288  11.00000  0.05    0.15
;
_shelx_res_checksum              91802
_shelx_hkl_file
;
   0   0  -2 275277. 3029.24   2
   0   0   3 34.2381 105.363   2
   0   0  -3-24.5395 92.3089   2
   0   0   4 19682.5 1216.99   2
   0   0  -4 18130.8 1095.17   2
   0   0  -5 255.534 220.171   2
   0   0  -6 17546.0 1316.38   2
   0   0  -7 2496.85 598.935   2
   0   0  -8 133988. 4158.45   2
   0   0  -9 208.693 131.613   2
   0   0 -10 69672.7 3345.30   2
   0   0 -11 505.112 353.652   2
   0   0 -12 553.411 357.476   2
   0   0 -13 651.362 383.946   2
   0   0 -14 1305.53 592.783   2
   0   0 -15 135.455 326.848   2
   0   1   0-2.10954 35.8386   1
   0  -1   0 77.2115 80.9110   1
   0  -1   1 13430.1 775.809   1
   0  -1  -1 11990.7 585.314   2
   0   1  -1 13347.7 765.774   1
   0   1   1 13182.8 651.008   2
   0   1   2 497493. 5064.23   2
   0  -1  -2 502236. 4786.87   2
   0  -1   2 507942. 3518.76   2
   0   1  -2 510372. 3261.87   2
   0  -1   3 999525. 6625.59   2
   0   1   3 999999. 8459.91   2
   0  -1  -3 989250. 7871.69   2
   0   1  -4 296562. 4031.30   2
   0  -1  -4 291889. 4776.30   2
   0  -1   4 297363. 4413.64   2
   0  -1  -5 21600.0 1415.44   2
   0   1  -5 21805.1 1240.68   2
   0  -1   5 22168.5 1392.22   2
   0  -1  -6 77156.8 2903.87   2
   0   1  -6 70060.3 2488.89   2
   0   1  -7 53545.0 893.941   3
   0   1  -7 55134.8 2395.03   2
   0  -1  -7 52221.8 2553.26   2
   0  -1  -8 16481.0 1516.31   2
   0   1  -8 19369.8 1529.85   2
   0   1   9 6.03112 45.6265   3
   0   1  -9 750.417 426.434   2
   0  -1  -9 391.835 226.272   2
   0  -1 -10 9247.78 1300.34   2
   0   1 -10 6712.93 1033.11   2
   0   1 -11 6239.35 1051.21   2
   0  -1 -11 7385.32 1207.27   2
   0  -1 -12 11282.9 1509.89   2
   0   1 -12 11176.3 1487.29   2
   0  -1 -13 4456.85 1023.45   2
   0   1 -13 5021.31 1043.24   2
   0  -1 -14 1332.44 629.817   2
   0   1 -14 2658.52 848.192   2
   0   1 -15 5044.18 1134.01   2
   0  -1 -15 4659.40 1104.05   2
   0   1 -16 1021.90 418.265   2
   0  -2   0 65729.8 1099.56   2
   0  -2   0 66879.2 2416.77   1
   0  -2  -1 110.282 103.718   2
   0  -2   1 106.940 98.7661   1
   0  -2  -1-9.87776 80.1673   1
   0  -2  -2 85612.4 2164.87   2
   0   2   2 88177.5 2529.19   2
   0  -2  -3 38791.9 1668.97   2
   0   2   3 39378.6 1929.22   2
   0   2  -3 40900.9 897.014   2
   0  -2  -4 12919.6 1070.88   2
   0  -2   4 12912.3 800.072   2
   0   2  -4 14300.3 757.714   2
   0  -2   5 185661. 3635.87   2
   0  -2  -5 183994. 4406.87   2
   0   2  -5 187663. 3295.34   2
   0  -2  -6 106904. 3608.61   2
   0   2  -6 105475. 2831.87   2
   0  -2  -7 14984.5 1439.57   2
   0   2  -7 14765.0 1179.61   2
   0   2  -8 918.950 363.434   2
   0  -2  -8 1609.05 487.800   2
   0   2  -9 34.4731 140.748   2
   0  -2  -9 161.585 233.995   2
   0   2 -10 1964.38 568.225   2
   0  -2 -10 1664.91 567.933   2
   0  -2 -11 10648.5 1496.08   2
   0   2 -11 13825.0 1507.99   2
   0  -2 -12 11660.4 1641.93   2
   0   2 -12 11038.5 1448.74   2
   0  -2 -13 1086.28 569.542   2
   0   2 -13 499.015 311.313   2
   0  -2 -14 3509.74 975.303   2
   0   2 -14 3071.45 831.122   2
   0  -3   0-3.97882 13.2277   2
   0  -3   0 209.439 230.343   1
   0  -3  -1 32395.2 1161.86   2
   0  -3   1 33680.4 2130.01   1
   0  -3  -1 31164.9 2055.41   1
   0  -3   2 9606.46 1129.08   1
   0  -3  -2 9791.67 1146.44   1
   0  -3  -2 9580.17 759.231   2
   0  -3  -3 10868.8 1222.21   1
   0  -3  -3 11369.2 948.033   2
   0  -3  -4 699.089 250.589   2
   0   3  -5 1844.12 221.284   2
   0  -3  -5 3442.50 619.496   2
   0   3  -6 566.649 182.911   2
   0  -3  -6 3576.04 724.867   2
   0  -3  -7 597.927 347.760   2
   0   3  -7 379.813 154.620   2
   0   3  -8 41840.2 1881.40   2
   0  -3  -8 44016.4 2665.77   2
   0  -3  -9 6453.72 1119.74   2
   0  -3 -10 14398.8 1688.68   2
   0  -3 -11 3047.70 824.117   2
   0  -3 -12 2628.24 848.182   2
   0  -3 -13 331.105 507.159   2
   0  -4   0 3183.81 771.640   1
   0  -4  -1 348.950 105.000   2
   0  -4  -1 889.782 407.693   1
   0  -4   1 427.552 288.532   1
   0  -4  -2 1824.00 586.891   1
   0  -4  -2 1857.64 350.384   2
   0  -4  -3 182.577 246.737   1
   0  -4  -3 421.122 241.203   2
   0  -4  -4 5623.16 755.947   2
   0  -4  -4 4374.48 924.619   1
   0  -4  -5 15087.0 1326.81   2
   0  -4  -5 14646.7 1721.03   1
   0  -4  -6 3920.40 725.510   2
   0  -4  -6 3657.76 904.628   1
   0  -4  -7 13232.1 1385.11   2
   0  -4  -8 5346.09 925.309   2
   0  -4  -9 927.188 433.296   2
   0  -4 -10 461.063 314.406   2
   0  -4 -11 2284.91 722.549   2
   0  -4 -12 4621.75 1118.30   2
   0  -5   0 281.906 207.450   1
   0  -5  -1 1817.36 678.832   1
   0  -5   1 2306.81 746.921   1
   0  -5  -2 909.962 444.053   1
   0  -5  -3 2456.92 806.149   1
   0  -5  -4 7251.22 1345.87   1
   0  -5  -5 2358.58 785.351   1
   0  -5  -6 981.813 511.216   1
   0  -5  -7-485.416 373.962   1
   0  -5  -8 167.121 229.593   1
   0  -5  -9 261.265 300.423   1
   0  -6   0 1845.02 817.289   1
   0  -6  -1 2982.03 978.611   1
   0  -6  -2 342.473 325.237   1
   0  -6  -3 791.144 498.042   1
   0  -6  -4 570.989 426.409   1
   1   0 -15 1995.87 687.192   2
   1   0 -14 81.0778 221.942   2
   1   0 -13 776.762 485.248   2
   1   0 -12 213.821 184.241   2
   1   0 -11 89.7710 250.315   2
   1   0 -10 106.251 195.972   2
   1   0  -9 67435.3 3136.18   2
   1   0  -8 218.004 129.681   2
  -1   0   7 11188.3 499.718   3
   1   0  -7 10866.5 1144.19   2
  -1   0   6 51.7189 40.4371   3
   1   0  -6 35.4360 146.427   2
   1   0  -5 65707.4 2417.11   2
   1   0  -5 65936.3 1223.32   3
  -1   0   5 65083.7 953.034   3
   1   0  -4-39.2512 12.3239   3
  -1   0   4-11.9166 24.7558   3
   1   0  -4-105.328 141.538   2
   1   0  -3 140560. 1378.84   3
  -1   0   3 142048. 1262.86   3
   1   0  -2 30.4769 20.5040   3
  -1   0   2-1.96354 18.8632   3
  -1   0  -1 706519. 4574.48   2
   1   0   2-11.7824 5.46588   3
  -1   0  -2-74.9606 58.5875   2
   1   0   2-83.4115 86.9658   2
  -1   0  -2-2.74677 29.2370   3
   1   0   3 23982.9 444.209   3
   1   0   3 23616.4 1188.38   2
  -1   0  -3 21855.3 1130.50   2
  -1   0  -4-12.9936 70.7043   2
   1   0   4 28.7636 29.5540   3
  -1   0  -5 6526.74 754.612   2
  -1   0  -6 90.2557 105.316   2
  -1   0  -7 4782.93 760.092   2
  -1   0  -8 247.917 229.776   2
  -1   0  -9 2504.98 600.065   2
  -1   0 -10 161.834 299.503   2
  -1   0 -11 16071.8 1727.44   2
  -1   0 -12 274.937 361.194   2
  -1   0 -13 33.0376 263.724   2
  -1   0 -14 264.052 274.877   2
  -1   0 -15 464.204 347.059   2
   1   1 -16 1905.42 801.646   2
   1   1 -15 12164.4 1711.39   2
   1  -1 -15 9206.20 1529.85   2
   1  -1 -14 9722.61 1532.45   2
   1   1 -14 10870.1 1558.32   2
   1   1 -13 179.678 71.3613   2
   1  -1 -13 383.584 442.905   2
   1  -1 -12 21120.6 2092.06   2
   1   1 -12 22519.4 2059.11   2
   1  -1 -11 13216.8 1609.89   2
   1   1 -11 11460.4 1411.85   2
   1  -1 -10 4047.10 825.496   2
   1   1 -10 4663.23 863.952   2
   1   1  -9 342.620 278.144   2
   1   1  -9 164.119 48.2574   3
   1  -1  -9 290.574 322.926   2
  -1   1   9 88.2842 78.3741   3
  -1   1   8 8657.14 616.445   3
   1   1  -8 8671.92 1032.84   2
   1  -1  -8 9252.19 1155.69   2
   1   1  -8 8455.24 385.077   3
   1   1  -7 1661.70 421.890   2
  -1   1   7 1035.02 220.958   3
   1   1  -7 1395.41 168.860   3
   1  -1  -7 1242.78 402.438   2
   1   1  -6 40834.6 1081.71   3
   1   1  -6 39142.0 1895.25   2
   1   1  -5 644.400 152.715   3
   1   1  -5 432.805 196.564   2
   1  -1  -5 1019.80 332.491   2
   1  -1  -4 81835.0 2735.49   2
   1   1  -4 81283.0 2257.02   2
   1  -1  -3 269893. 4578.42   2
   1   1  -2 804770. 6102.16   1
   1   1  -1 137853. 2457.33   1
   1  -1  -1 137310. 2372.68   1
  -1  -1   1 137301. 2472.35   1
   1  -1   0 17194.9 854.992   1
  -1  -1   0 16534.3 639.384   2
   1   1   0 17990.8 675.762   2
  -1   1   0 17644.7 882.865   1
  -1  -1  -1 573.101 138.378   2
   1  -1   1 1088.84 172.859   2
   1   1   1 1163.99 213.030   2
  -1   1  -2 11709.5 627.579   2
   1   1   2 11617.0 815.201   2
  -1  -1  -2 10553.0 734.854   2
   1  -1   2 10607.7 610.955   2
  -1  -1  -3 1315.40 297.891   2
   1  -1   3 1633.88 289.358   2
  -1   1  -3 1182.50 251.102   2
  -1  -1  -4 407.749 232.132   2
   1  -1   4 663.227 229.345   2
  -1   1  -4 331.928 180.188   2
  -1   1  -5 904.358 300.205   2
  -1  -1  -5 505.568 169.623   2
  -1   1  -6 51624.6 936.714   3
  -1  -1  -6 55848.9 2472.14   2
  -1   1  -6 56554.0 2340.98   2
  -1  -1  -7 5998.41 873.714   2
  -1   1  -7 5468.40 795.182   2
  -1   1  -7 4389.74 190.493   3
  -1   1  -8 203.404 172.616   2
  -1  -1  -8 331.840 226.311   2
   1   1   9 30.2514 36.8928   3
  -1  -1  -9-113.682 123.545   2
  -1   1 -10 759.464 345.184   2
  -1  -1 -10 2148.05 650.023   2
  -1   1 -11 47.2274 253.374   2
  -1  -1 -11 158.802 187.788   2
  -1   1 -12 4230.21 927.318   2
  -1  -1 -12 2681.59 715.857   2
  -1  -1 -13 4224.90 1011.39   2
  -1   1 -13 4581.82 1061.86   2
  -1   1 -14 15864.2 2005.03   2
  -1  -1 -14 14578.2 1911.52   2
  -1   1 -15 2655.77 859.245   2
   1   2 -15 4609.84 1030.76   2
   1   2 -14 8780.40 1379.25   2
   1  -2 -14 10758.9 1698.54   2
   1   2 -13 15390.9 1743.13   2
   1  -2 -13 19715.3 2228.28   2
   1  -2 -12 5771.54 1188.79   2
   1   2 -12 6059.70 1055.99   2
   1  -2 -11 2309.95 695.410   2
   1   2 -11 3901.03 797.839   2
   1  -2 -10 4033.62 869.304   2
   1   2 -10 3730.17 756.168   2
   1   2  -9 6466.12 929.307   2
   1  -2  -9 7560.19 1162.43   2
   1   2  -9 6123.92 520.192   3
   1  -2  -8 998.032 460.946   2
   1   2  -8 233.671 193.495   2
   1  -2  -7 20853.3 1753.15   2
   1   2  -7 22852.6 1513.93   2
   1  -2  -6 171997. 4803.28   2
   1   2  -6 173190. 3730.14   2
   1   2  -5 353257. 4787.91   2
   1  -2  -5 348883. 6356.77   2
   1   2  -4 122129. 2440.06   2
   1  -2  -4 123506. 3571.59   2
   1  -2  -3 4810.81 660.353   2
   1   2  -3 4331.29 385.781   2
   1  -2  -2 2244.28 394.760   2
  -1  -2   2 2244.99 447.637   1
   1  -2  -2 3368.66 535.232   1
   1   2  -2 2371.43 192.631   2
   1  -2  -1 309.243 199.468   1
  -1  -2   1 389.862 211.422   1
   1   2  -1 200.113 70.9289   2
   1   2   0 48.7515 88.4937   2
  -1  -2   0 56.3258 52.9868   1
   1  -2   0-48.3966 58.5249   1
  -1  -2   0-11.1603 33.7104   2
   1   2   1 19041.4 1038.15   2
  -1  -2  -1 20140.4 1353.50   1
  -1  -2  -1 18807.3 883.516   2
   1  -2   1 19138.2 684.994   2
   1  -2   2 40051.4 1071.65   2
  -1  -2  -2 37011.1 1474.63   2
   1   2   2 38880.2 1719.78   2
  -1  -2  -3 82151.9 2471.58   2
  -1   2  -3 80748.9 1733.31   2
   1  -2   3 80208.6 1827.72   2
  -1   2  -4 39186.1 1395.24   2
  -1  -2  -4 42078.9 1944.80   2
   1  -2   4 41430.2 1579.06   2
  -1   2  -5 25356.4 1303.05   2
  -1  -2  -5 23958.0 1595.35   2
  -1   2  -6 112.926 39.2278   2
  -1  -2  -6 274.794 264.866   2
  -1   2  -7 12558.1 1137.76   2
  -1  -2  -7 14184.7 1413.30   2
  -1  -2  -8 14966.7 1514.30   2
  -1   2  -8 14130.5 1314.29   2
  -1   2  -9 2050.11 535.781   2
  -1  -2  -9 2104.16 637.820   2
  -1  -2 -10 1820.13 620.139   2
  -1   2 -10 1799.29 533.571   2
  -1   2 -11 1091.33 366.001   2
  -1  -2 -11 1345.64 587.985   2
  -1   2 -12 86.6012 228.655   2
  -1  -2 -12 269.880 317.686   2
  -1   2 -13 2468.85 736.333   2
  -1  -2 -13 2812.59 895.211   2
  -1   2 -14 866.419 424.324   2
  -1  -2 -14 1539.35 653.335   2
   1  -3 -14-1.71449 244.309   2
   1  -3 -13 594.080 474.649   2
   1  -3 -12 1138.23 658.643   2
   1  -3 -11-338.721 420.779   2
   1  -3 -10 1498.55 618.218   2
   1  -3  -9 89286.4 4115.21   2
   1   3  -8 86724.7 2712.21   2
   1  -3  -8 90349.6 3936.15   2
   1  -3  -7 54854.0 2911.04   2
   1   3  -7 56068.2 1957.16   2
   1  -3  -6 3797.60 722.390   2
   1   3  -6 3190.64 392.735   2
   1  -3  -5 157.431 90.8905   2
   1   3  -5 132.149 84.1770   2
   1  -3  -4 5680.45 743.718   2
   1  -3  -4 5978.62 901.765   1
   1  -3  -3 3265.66 549.751   2
   1  -3  -3 2894.94 616.667   1
  -1  -3   2 5770.81 890.863   1
   1  -3  -2 7444.41 738.615   2
   1  -3  -2 6328.13 922.920   1
  -1  -3   1 15044.1 1444.01   1
   1  -3  -1 17954.1 1002.36   2
   1  -3  -1 18366.6 1592.69   1
   1   3   0 51878.2 1612.11   2
  -1  -3   0 52371.1 1272.40   2
   1  -3   0 51850.7 2683.29   1
   1  -3   0 51394.7 1478.42   2
  -1  -3   0 50893.9 2658.92   1
  -1  -3  -1 47054.7 1465.21   2
   1  -3   1 47017.9 973.966   2
  -1  -3  -1 47374.6 2572.53   1
   1   3   1 46338.9 1853.63   2
   1  -3   1 44613.2 2471.81   1
  -1  -3  -2 49932.2 1822.99   2
  -1  -3  -2 50615.0 2679.59   1
   1  -3   2 50128.6 1025.18   2
  -1  -3  -3 9103.68 873.321   2
   1  -3   3 8233.74 519.101   2
  -1  -3  -4 2343.95 484.896   2
   1  -3   4 2624.28 364.873   2
   1  -3   5 426.824 195.834   2
  -1  -3  -5 487.479 231.836   2
  -1   3  -6 609.520 180.463   2
  -1  -3  -6 1665.16 505.856   2
  -1   3  -7 1430.37 342.599   2
  -1  -3  -7 1183.04 497.553   2
  -1   3  -8 2454.53 485.274   2
  -1  -3  -8 2176.98 615.718   2
  -1  -3  -9 2280.83 639.912   2
  -1  -3 -10 25586.0 2283.53   2
  -1  -3 -11 6703.82 1254.71   2
  -1  -3 -12 878.513 460.882   2
  -1  -3 -13 88.0699 219.580   2
   1  -4 -13 2028.52 860.933   2
   1  -4 -12 21854.1 2367.70   2
   1  -4 -11 24987.8 2390.01   2
   1  -4 -10 14387.4 1729.79   2
   1  -4  -9 4789.18 975.450   2
   1  -4  -8-56.3143 93.9351   2
   1  -4  -7 3177.80 715.234   2
   1  -4  -7 2979.09 816.757   1
   1  -4  -6-145.882 166.976   1
   1  -4  -6 12.5349 108.677   2
   1  -4  -5 14693.1 1667.10   1
   1  -4  -5 13728.9 1280.54   2
   1  -4  -4 13958.6 1186.98   2
   1  -4  -4 11542.1 1465.48   1
   1  -4  -3 8093.60 1214.94   1
   1  -4  -3 8113.56 844.001   2
  -1  -4   2 17408.7 1804.66   1
   1  -4  -2 17764.2 1095.91   2
   1  -4  -2 15242.9 1710.19   1
   1  -4  -1 41674.2 2859.85   1
   1  -4  -1 39478.3 1389.92   2
  -1  -4   1 42803.0 2882.24   1
  -1  -4   0 1654.64 559.813   1
   1  -4   0 244.816 214.166   1
  -1  -4  -1 1426.56 531.741   1
   1  -4   1 1122.75 492.144   1
  -1  -4  -1 1190.72 222.044   2
  -1  -4  -2 196.004 143.667   2
  -1  -4  -2-220.745 203.814   1
  -1  -4  -3 533.309 322.104   1
  -1  -4  -3 161.946 63.3661   2
  -1  -4  -4 8103.10 1288.17   1
  -1  -4  -4 5386.60 770.033   2
  -1  -4  -5 12587.5 1262.29   2
  -1  -4  -5 12260.1 1633.32   1
  -1  -4  -6 3173.41 659.464   2
  -1  -4  -7 4526.90 809.514   2
  -1  -4  -8 4064.76 842.956   2
  -1  -4  -9 560.102 351.251   2
  -1  -4 -10 743.949 316.920   2
  -1  -4 -11 2663.03 764.559   2
  -1  -4 -12 947.498 436.897   2
   1  -5 -10 6009.70 1493.55   1
   1  -5  -9 2823.16 988.427   1
   1  -5  -8-36.9053 103.181   1
   1  -5  -7 838.604 517.348   1
   1  -5  -6 1800.72 668.122   1
   1  -5  -5 5401.62 1168.41   1
   1  -5  -4 3157.86 884.008   1
   1  -5  -3 13903.3 1859.79   1
   1  -5  -2 25803.6 2576.51   1
  -1  -5   2 30245.4 2746.70   1
   1  -5  -1 14919.4 1930.96   1
  -1  -5   1 15171.7 1982.65   1
  -1  -5   0 3350.03 918.963   1
   1  -5   0 3946.28 984.177   1
  -1  -5  -1 12.3971 186.691   1
  -1  -5  -2 13416.3 1881.57   1
  -1  -5  -3 5250.43 1189.36   1
  -1  -5  -4 5208.78 1184.46   1
  -1  -5  -5 3929.22 1044.71   1
  -1  -5  -6 3808.11 1073.74   1
  -1  -5  -7 9286.70 1739.29   1
  -1  -5  -8 8975.38 1806.45   1
   1  -6  -5-553.776 415.424   1
   1  -6  -4 846.602 508.666   1
   1  -6  -3 163.271 221.630   1
   1  -6  -2-131.349 198.275   1
   1  -6  -1 101.592 173.911   1
  -1  -6   1-1.89139 966.170   1
  -1  -6   0 44945.1 3853.36   1
  -1  -6  -1 5932.58 1383.45   1
  -1  -6  -2 51654.1 4194.09   1
  -1  -6  -3 2104.71 829.431   1
   2   0 -16 1460.47 526.242   2
   2   0 -15-395.289 451.385   2
   2   0 -14 1069.59 440.771   2
   2   0 -13-194.969 298.136   2
   2   0 -12 1612.86 598.474   2
   2   0 -11-110.298 170.728   2
   2   0 -10 3487.40 792.231   2
  -2   0   9 39.6736 97.8440   3
   2   0  -9 181.377 334.842   2
  -2   0   8 412.096 157.913   3
   2   0  -8 671.267 361.218   2
   2   0  -7-47.6117 95.2616   2
  -2   0   7 12.5090 34.4248   3
   2   0  -7 28.2713 47.4754   3
  -2   0   6 660.276 134.307   3
   2   0  -6 634.745 149.880   3
  -2   0   5-29.8876 20.5312   3
   2   0  -5-29.2970 44.5554   3
  -2   0   4 58963.7 1163.57   3
   2   0  -4 55317.3 1197.77   3
  -2   0   3 57.3791 41.7081   3
   2   0  -3 62.6236 34.3762   3
   2   0  -2 945.095 142.997   3
  -2   0   2 1082.10 149.352   3
   2   0  -1 45.2021 45.4911   3
  -2   0   1 19.2658 43.5576   3
   2   0   0 70439.6 1164.57   3
  -2   0   0 69776.8 1165.70   3
   2   0   1-8.66578 17.9582   2
  -2   0  -1 15.1090 7.04194   3
   2   0   1 57.9208 46.8833   3
  -2   0  -2 509106. 3401.23   3
   2   0   2 506618. 3109.57   3
  -2   0  -3 90.9727 107.396   2
  -2   0  -3 36.3951 16.7628   3
   2   0   3 35.2036 38.6830   3
   2   0   4 31164.5 824.727   3
  -2   0  -4 31394.5 1041.93   3
  -2   0  -4 30822.4 1647.98   2
  -2   0  -5-61.4161 161.359   2
   2   0   5 14.8457 26.5060   3
   2   0   6 2292.84 258.664   3
  -2   0  -6 1374.88 400.962   2
  -2   0  -7 43.4252 65.7591   2
  -2   0  -8 3668.02 733.023   2
  -2   0  -9-119.587 88.7036   2
  -2   0 -10 130378. 4907.67   2
  -2   0 -11-27.1550 112.448   2
  -2   0 -12 117770. 5136.00   2
  -2   0 -13 309.006 359.835   2
  -2   0 -14 576.947 222.319   2
   2   1 -16 799.709 590.626   2
   2  -1 -15 1151.17 587.507   2
   2   1 -15 569.459 378.343   2
   2   1 -14 680.752 393.221   2
   2  -1 -14 86.3991 259.399   2
   2   1 -13 2802.92 779.577   2
   2  -1 -13 2860.49 837.917   2
   2  -1 -12 3235.70 854.640   2
   2   1 -12 3367.25 802.070   2
   2  -1 -11 593.938 361.954   2
   2   1 -11 924.238 399.076   2
   2   1 -10-37.9666 42.2563   2
   2  -1 -10 513.969 375.549   2
   2   1 -10 332.330 102.102   3
   2   1  -9 2254.44 270.292   3
   2  -1  -9 2338.26 653.007   2
   2   1  -9 2278.44 633.896   2
   2   1  -8 6029.04 913.619   2
   2  -1  -8 6751.20 1065.50   2
   2   1  -8 6057.58 420.623   3
   2   1  -7 17046.9 734.590   3
   2   1  -7 16688.3 1442.70   2
   2   1  -6 937.449 306.895   2
   2  -1  -6 1024.79 389.126   2
   2   1  -6 1369.28 222.433   3
   2   1  -5 9562.28 608.954   3
   2   1  -4 6758.52 545.568   3
   2   1  -3 19799.4 1018.70   1
   2   1  -3 20331.0 986.304   3
  -2  -1   2 3556.65 410.231   1
   2   1  -2 4988.35 503.101   3
   2   1  -2 4602.73 461.471   1
   2  -1  -2 4037.18 409.806   1
   2  -1  -1 9494.24 622.886   1
   2   1  -1 10364.6 745.055   3
  -2  -1   1 9593.25 654.371   1
  -2   1   1 9627.88 627.697   1
   2   1   0 108675. 2272.62   2
  -2   1   0 109681. 2294.91   1
  -2   1   0 109780. 2299.49   3
   2   1   1 8241.57 674.109   2
  -2  -1  -1 7770.22 653.216   2
   2  -1   1 8167.98 640.816   2
  -2   1  -1 7900.49 590.841   3
  -2  -1  -2 2783.95 430.298   2
  -2   1  -2 2825.47 340.702   3
   2  -1   2 3468.48 441.030   2
  -2   1  -2 2702.04 393.563   2
  -2  -1  -3 11453.0 971.915   2
  -2   1  -3 12267.5 909.008   2
  -2   1  -3 12864.7 685.303   3
  -2  -1  -4 48022.2 2130.74   2
  -2   1  -4 49206.4 2011.06   2
  -2   1  -4 49206.7 1224.36   3
   2   1   4 49588.2 1583.37   3
   2   1   5 105574. 2197.70   3
  -2   1  -5 100742. 3182.67   2
  -2   1  -5 107854. 1594.00   3
  -2  -1  -5 105450. 3383.89   2
  -2   1  -6 45018.9 910.174   3
  -2  -1  -6 42197.3 2278.88   2
   2   1   6 44735.8 1307.92   3
  -2   1  -6 45100.8 2271.00   2
   2   1   7 13789.8 643.055   3
  -2   1  -7 13096.9 487.234   3
  -2  -1  -7 13377.5 1358.49   2
  -2   1  -7 12866.7 1285.36   2
  -2   1  -8 41612.9 2474.42   2
   2   1   8 40355.1 940.891   3
  -2  -1  -8 38687.6 2451.44   2
  -2  -1  -9 42116.1 2683.05   2
  -2   1  -9 38893.4 2511.73   2
  -2  -1 -10 9424.61 1355.05   2
  -2   1 -10 9122.54 1287.98   2
  -2   1 -11 420.549 231.438   2
  -2  -1 -11 275.171 262.347   2
  -2   1 -12 6943.92 1228.55   2
  -2  -1 -12 9779.63 1487.45   2
  -2  -1 -13 29532.2 2712.93   2
  -2   1 -13 25351.0 2500.68   2
  -2  -1 -14 21131.5 2421.49   2
  -2   1 -14 20493.8 2339.41   2
   2   2 -15 3110.78 826.934   2
   2  -2 -14 1335.15 653.780   2
   2   2 -14 1333.61 489.177   2
   2  -2 -13 1988.30 815.625   2
   2   2 -13 1343.98 558.816   2
   2  -2 -12-102.918 298.951   2
   2   2 -12 117.755 145.879   2
   2  -2 -11 833.265 385.408   2
   2   2 -11 1817.75 536.766   2
   2   2 -10 37469.7 1226.61   3
   2  -2 -10 37506.3 2840.89   2
   2   2 -10 36389.2 2349.60   2
   2   2  -9 20705.5 995.318   3
   2  -2  -9 22214.1 2083.65   2
   2   2  -9 21465.7 1718.48   2
   2   2  -8 228.460 224.222   2
   2   2  -8 392.514 176.621   3
   2   2  -7 1587.03 352.361   3
   2   2  -7 1366.66 430.174   2
   2  -2  -7 2412.01 653.950   2
   2   2  -6 157.341 139.247   2
   2  -2  -6 247.674 225.865   2
   2  -2  -5 23571.9 1845.01   2
   2  -2  -3 4364.85 616.970   1
  -2  -2   2 43930.0 2005.15   1
   2   2  -2 45245.3 1358.59   2
   2  -2  -2 45787.0 2044.72   1
   2  -2  -1 53579.1 2218.14   1
   2   2  -1 52294.2 1492.17   2
  -2  -2   1 53299.5 2192.02   1
   2   2   0 26712.0 1173.66   2
  -2  -2   0 27128.8 1607.57   1
  -2  -2  -1 3213.70 436.510   2
   2  -2   1 3289.48 403.771   2
   2  -2   2 543.739 178.244   2
  -2  -2  -2 1154.15 300.932   2
  -2  -2  -3 5631.29 711.721   2
  -2  -2  -4 8025.55 914.692   2
  -2   2  -4 8989.65 791.359   2
  -2  -2  -5 25470.0 1745.21   2
  -2   2  -5 24102.2 1434.98   2
  -2   2  -6 3977.34 649.221   2
  -2  -2  -6 3844.30 694.149   2
  -2  -2  -7 48240.0 2684.44   2
  -2   2  -7 44629.2 2302.55   2
  -2  -2  -8 31114.5 2272.99   2
  -2   2  -8 28939.5 2000.83   2
  -2   2  -9 3676.78 767.214   2
  -2  -2  -9 3465.10 782.099   2
  -2   2 -10 450.289 368.570   2
  -2  -2 -10-79.6288 278.531   2
  -2   2 -11 843.181 449.147   2
  -2  -2 -11 702.744 370.702   2
  -2   2 -12 385.413 248.220   2
  -2  -2 -12 643.852 401.538   2
  -2   2 -13 351.359 440.142   2
  -2  -2 -13-137.070 141.084   2
  -2   2 -14 3418.13 925.352   2
   2  -3 -14 3415.21 1041.14   2
   2  -3 -13 2435.79 855.483   2
   2  -3 -12 2152.92 732.352   2
   2  -3 -11 1479.11 602.417   2
   2  -3 -10 45.8815 124.922   2
   2  -3  -9 23209.7 2202.44   2
   2   3  -8 345.354 164.901   2
   2  -3  -8 146.694 200.303   2
   2   3  -7 185242. 4030.37   2
   2  -3  -7 187388. 5778.92   2
   2  -3  -6 22028.0 1894.13   2
   2   3  -6 22965.4 1303.16   2
   2  -3  -5 1870.21 504.374   1
   2   3  -5 1281.40 283.943   2
   2  -3  -5 1715.57 547.556   2
   2  -3  -4 1668.11 471.594   1
   2   3  -4 1902.53 253.039   2
   2  -3  -4 1925.24 496.910   2
   2  -3  -3 1695.01 490.206   1
   2  -3  -3 2584.70 567.048   2
   2   3  -3 1840.70 243.439   2
  -2  -3   3 1244.44 404.517   1
   2  -3  -2 1007.05 377.090   1
  -2  -3   2 922.804 375.343   1
   2   3  -2 662.781 155.873   2
  -2  -3   1-77.8989 43.9600   1
   2  -3  -1 28.3928 76.6806   1
  -2  -3   0 2308.95 593.375   1
   2   3   0 1393.85 305.113   2
   2  -3   0 1199.47 397.584   1
   2  -3   1 45404.6 1461.23   2
  -2  -3  -1 46361.9 1732.87   2
  -2  -3  -1 44552.4 2587.08   1
   2  -3   2 47362.7 1521.62   2
  -2  -3  -2 47684.7 1921.34   2
  -2  -3  -2 48593.5 2720.63   1
   2  -3   3 10993.2 778.500   2
  -2  -3  -3 12755.6 1102.01   2
  -2  -3  -4 8250.01 963.783   2
  -2  -3  -5 220.735 37.8737   2
  -2  -3  -6 1796.93 518.556   2
  -2  -3  -7 2481.90 658.432   2
  -2   3  -7 1701.44 408.781   2
  -2   3  -8 1870.14 450.403   2
  -2  -3  -8 2678.63 708.471   2
  -2  -3  -9-99.2878 198.210   2
  -2  -3 -10 5379.65 1073.73   2
  -2  -3 -11 12404.2 1708.70   2
  -2  -3 -12-136.302 264.426   2
   2  -4 -13 8000.42 1502.78   2
   2  -4 -12 540.717 435.815   2
   2  -4 -11 35556.0 2971.94   2
   2  -4 -10 38585.7 2973.14   2
   2  -4  -9 6534.03 1187.02   2
   2  -4  -8 168.796 273.561   1
   2  -4  -8 347.572 313.934   2
   2  -4  -7 3.50773 25.9964   1
   2  -4  -7 93.5570 273.510   2
   2  -4  -6 8132.76 1238.26   1
   2  -4  -6 9587.50 1212.81   2
   2  -4  -5 35426.3 2558.34   1
   2  -4  -5 36638.6 2278.81   2
   2  -4  -4 71691.8 3662.19   1
   2  -4  -4 67775.4 2905.00   2
  -2  -4   3 83995.4 3997.88   1
   2  -4  -3 81507.6 2985.53   2
   2  -4  -3 87089.7 4109.89   1
   2  -4  -2 4375.97 932.927   1
   2  -4  -2 2912.00 544.051   2
  -2  -4   2 3484.86 832.360   1
   2  -4  -1 1416.71 530.077   1
   2  -4  -1 2175.10 436.009   2
  -2  -4   1 1315.42 501.214   1
  -2  -4   0 6017.71 1122.01   1
   2  -4   0 5704.39 648.939   2
  -2  -4  -1 322.139 248.250   1
  -2  -4  -2-32.0386 101.979   2
  -2  -4  -2 135.294 176.163   1
  -2  -4  -3 1767.47 627.222   1
  -2  -4  -3 2379.09 491.933   2
  -2  -4  -4 8807.61 1032.39   2
  -2  -4  -4 10155.6 1496.60   1
  -2  -4  -5 38939.8 2335.44   2
  -2  -4  -6 5963.07 967.718   2
  -2  -4  -7 1683.31 475.566   2
  -2  -4  -8 961.321 352.636   2
  -2  -4  -9 95.7727 161.285   2
  -2  -4 -10-89.4216 175.630   2
  -2  -4 -11-351.168 375.234   2
   2  -5 -10 4341.50 1181.99   1
   2  -5  -9 5296.17 1240.99   1
   2  -5  -8 229.148 247.107   1
   2  -5  -7 1865.82 702.065   1
   2  -5  -6 3850.55 979.595   1
   2  -5  -5 17463.5 2085.34   1
   2  -5  -4 8585.88 1441.35   1
   2  -5  -3 1487.63 614.200   1
   2  -5  -2 54353.0 3714.20   1
  -2  -5   2 58445.3 3890.76   1
  -2  -5   1 54968.7 3846.70   1
   2  -5  -1 48477.4 3505.93   1
  -2  -5   0 16272.9 2120.17   1
  -2  -5  -1 3885.14 1054.02   1
  -2  -5  -2 2457.13 803.383   1
  -2  -5  -3-531.900 376.888   1
  -2  -5  -4 1283.04 617.469   1
  -2  -5  -5 560.950 404.049   1
  -2  -5  -6 1823.45 815.907   1
  -2  -5  -7 4274.79 1287.51   1
   2  -6  -5 622.135 412.731   1
   2  -6  -4 3306.72 1019.07   1
   2  -6  -3 97.7350 170.211   1
   2  -6  -2 155.110 214.099   1
  -2  -6   1 679.441 469.104   1
  -2  -6   0 3544.09 1060.96   1
  -2  -6  -1 37347.4 3599.88   1
   3   0 -15 73774.6 4547.45   2
   3   0 -14-261.991 254.590   2
   3   0 -13 826.735 354.423   2
   3   0 -12 378.267 342.244   2
   3   0 -11 10926.3 1530.17   2
   3   0 -10 404.664 337.568   2
   3   0  -9 4991.12 998.574   2
   3   0  -8-2.11482 139.413   2
   3   0  -8 49.4202 29.0495   3
   3   0  -7 108206. 2400.34   3
   3   0  -6 62.8692 69.8047   3
   3   0  -5 127312. 2323.20   3
   3   0  -4-1.52038 44.4636   3
   3   0  -3 3923.81 401.115   3
   3   0  -2 61.6399 80.3443   3
   3   0  -1 4862.24 394.123   3
   3   0   0 2.89569 54.6794   3
   3   0   1 77564.4 1575.29   3
  -3   0  -2-105.253 188.800   2
   3   0   2 112.436 90.2217   3
  -3   0  -3 266343. 5106.64   2
   3   0   3 258447. 2968.53   3
   3   0   4 62.3782 79.9454   3
  -3   0  -4 10.8796 101.221   2
  -3   0  -5 3589.58 687.394   2
   3   0   5 3599.54 375.242   3
  -3   0  -6 214.563 346.486   2
   3   0   6-7.49648 22.0036   3
  -3   0  -7 381.039 267.788   2
  -3   0  -8 351.362 390.665   2
  -3   0  -9 942.642 526.689   2
  -3   0 -10 355.687 373.254   2
  -3   0 -11 97180.1 4642.70   2
  -3   0 -12 493.897 476.594   2
  -3   0 -13 15468.0 2015.77   2
   3   1 -16-301.229 319.740   2
   3  -1 -15 1422.69 656.986   2
   3   1 -15 617.410 411.488   2
   3   1 -14 2930.34 860.313   2
   3  -1 -14 2647.21 825.834   2
   3  -1 -13 27370.3 2697.08   2
   3   1 -13 31963.1 2708.94   2
   3   1 -12 67570.3 3814.23   2
   3  -1 -12 64681.9 3997.47   2
   3  -1 -11 30735.8 2707.04   2
   3   1 -11 24145.0 2220.42   2
   3   1 -10 3079.97 776.379   2
   3  -1 -10 2003.39 684.443   2
   3   1 -10 2556.76 352.456   3
   3   1  -9 3210.26 740.392   2
   3   1  -9 3044.52 371.003   3
   3  -1  -9 2543.06 639.664   2
   3   1  -8 19138.6 909.611   3
   3   1  -8 17595.7 1720.32   2
   3  -1  -8 18479.5 1885.14   2
   3   1  -7 1366.22 234.682   3
   3   1  -6 5178.52 471.970   3
   3   1  -5 26387.4 1310.36   1
   3   1  -5 27913.2 1113.57   3
   3   1  -4 79216.4 1944.42   3
   3  -1  -4 77557.2 1853.07   1
   3   1  -4 80376.8 2163.75   1
   3   1  -3 102252. 2235.62   3
   3   1  -3 103553. 2218.95   1
   3  -1  -3 101561. 2039.52   1
  -3  -1   2 173496. 2913.83   1
   3   1  -2 173838. 3061.06   3
   3   1  -1 50364.4 1653.07   3
  -3  -1   1 51085.5 1622.31   1
  -3   1   1 50926.9 1562.28   1
   3   1   0 151186. 2891.39   3
   3   1   1 37375.0 1447.57   3
  -3  -1  -2 1582.30 362.303   2
   3   1   2 2268.99 347.506   3
   3   1   3 2490.79 364.736   3
  -3   1  -3 2536.40 495.759   2
  -3  -1  -3 2367.13 486.546   2
  -3  -1  -4 3144.99 611.826   2
  -3   1  -4 2917.83 563.533   2
   3   1   4 3425.44 404.686   3
  -3  -1  -5 7070.09 970.519   2
  -3   1  -5 7607.03 953.742   2
   3   1   5 7018.62 550.378   3
  -3  -1  -6 15021.2 1462.18   2
  -3   1  -6 14459.4 1427.57   2
   3   1   6 16086.5 759.694   3
  -3  -1  -7 23463.1 1921.36   2
  -3   1  -7 25494.9 1981.82   2
   3   1   7 26505.3 918.611   3
  -3  -1  -8 75675.7 3598.52   2
  -3   1  -8 76631.7 3613.77   2
   3   1   8 78004.9 1506.55   3
  -3  -1  -9 43909.2 2890.42   2
  -3   1  -9 45967.2 2926.84   2
  -3  -1 -10 11360.7 1525.05   2
  -3   1 -10 12641.8 1618.36   2
  -3  -1 -11 3131.10 837.480   2
  -3   1 -11 3167.90 859.057   2
  -3  -1 -12 587.614 365.493   2
  -3   1 -12 700.998 360.549   2
  -3  -1 -13 2184.90 734.697   2
  -3   1 -13 3201.17 994.408   2
   3   2 -15 1539.07 695.387   2
   3  -2 -14 340.897 424.853   2
   3   2 -14-160.348 300.884   2
   3  -2 -13 2207.15 764.690   2
   3   2 -13 2636.66 777.628   2
   3   2 -12 2873.86 741.263   2
   3  -2 -12 3478.60 990.218   2
   3  -2 -11 9738.85 1568.47   2
   3   2 -11 8824.78 1274.59   2
   3   2 -10 56474.7 1654.57   3
   3  -2 -10 57098.7 3682.39   2
   3   2 -10 55318.0 3086.87   2
   3   2  -9 104329. 2372.06   3
   3   2  -9 100254. 3985.05   2
   3  -2  -9 106017. 4866.25   2
   3   2  -8 22105.1 1158.02   3
   3   2  -8 22808.6 1841.92   2
   3  -2  -8 22925.3 2167.64   2
   3  -2  -7-264.712 222.984   2
   3   2  -7 319.123 206.606   3
   3   2  -6 212.699 159.766   3
   3   2  -5 14755.6 1125.17   3
   3  -2  -5 14990.8 1163.83   1
   3   2  -4 60274.4 2304.31   3
   3  -2  -4 63665.4 2387.55   1
  -3  -2   3 65273.9 2501.72   1
   3  -2  -3 62974.1 2412.87   1
   3  -2  -2 2176.63 435.660   1
  -3  -2   2 1114.42 325.498   1
  -3  -2   1 83941.8 2852.75   1
  -3  -2   0 94672.4 3119.40   1
  -3  -2  -1 17083.6 1227.98   2
  -3  -2  -2 245.489 137.042   2
  -3  -2  -3 1945.04 463.955   2
  -3  -2  -4 17967.6 1475.10   2
  -3  -2  -5 92714.7 3568.26   2
  -3   2  -5 93565.3 3254.44   2
  -3  -2  -6 81060.9 3502.06   2
  -3   2  -6 82838.6 3266.62   2
   3   2   6 77060.1 2489.26   3
  -3  -2  -7 34050.0 2389.61   2
  -3   2  -7 30796.8 2105.60   2
   3   2   7 31553.6 1501.35   3
  -3  -2  -8 8873.57 1286.14   2
  -3   2  -8 7873.76 1135.33   2
   3   2   8 8491.76 722.664   3
  -3  -2  -9 4319.42 937.077   2
  -3   2  -9 4621.57 903.710   2
  -3  -2 -10-129.836 221.943   2
  -3   2 -10 120.006 100.289   2
  -3  -2 -11 1037.75 466.776   2
  -3   2 -11 2385.34 761.634   2
  -3  -2 -12 581.335 470.328   2
  -3   2 -12-365.889 286.877   2
  -3   2 -13 2599.83 812.295   2
   3  -3 -14 2238.24 884.165   2
   3  -3 -13-16.0073 362.342   2
   3  -3 -12 4090.85 1075.49   2
   3  -3 -11 140.518 302.413   2
   3  -3 -10 3753.85 960.804   2
   3   3 -10 2996.87 484.333   3
   3  -3  -9 4300.87 1074.89   2
   3   3  -9 1081.96 316.382   3
   3  -3  -8 9621.06 1460.74   2
   3   3  -8 8366.12 908.347   3
   3   3  -8 10185.5 1117.35   2
   3  -3  -7 101398. 3821.05   1
   3   3  -7 105840. 3472.57   2
   3  -3  -7 101458. 4549.96   2
   3  -3  -6 25955.9 1924.79   1
   3  -3  -6 25434.6 2204.89   2
   3  -3  -5 49433.6 2917.71   2
   3  -3  -5 56484.9 2792.40   1
   3  -3  -4 1836.95 495.922   1
   3  -3  -3 6547.11 994.369   1
  -3  -3   3 5705.80 931.796   1
   3  -3  -2 212.647 203.854   1
  -3  -3   2 288.911 216.101   1
  -3  -3   1 4979.35 866.887   1
  -3  -3   0 733.526 350.053   1
  -3  -3  -1 36140.0 2387.08   1
  -3  -3  -2 8747.28 926.211   2
  -3  -3  -3 142863. 4009.85   2
  -3  -3  -4 25133.3 1812.99   2
  -3  -3  -5 6259.96 979.852   2
  -3  -3  -6 3902.38 840.382   2
  -3  -3  -7 380.564 283.973   2
  -3  -3  -8 1614.10 565.003   2
  -3  -3  -9 439.908 431.571   2
  -3  -3 -10 453.066 406.042   2
  -3  -3 -11 3171.64 888.333   2
   3  -4 -13 6067.72 1339.27   2
   3  -4 -12 3459.54 992.991   2
   3  -4 -11-131.446 240.975   2
   3  -4 -10 1282.70 614.498   1
   3   4 -10 1125.18 343.674   3
   3  -4 -10 126.551 335.661   2
   3   4  -9 557.156 266.751   3
   3  -4  -9 1176.73 503.341   1
   3  -4  -9 991.357 429.755   2
   3  -4  -8 2734.77 808.986   2
   3  -4  -8 1644.01 591.062   1
   3  -4  -7 6145.01 1122.94   2
   3  -4  -7 5033.48 984.195   1
   3  -4  -6-8.97008 40.6890   1
   3  -4  -6 101.119 356.711   2
   3  -4  -5 14599.8 1592.65   2
   3  -4  -5 12987.5 1587.54   1
   3  -4  -4 27724.0 2348.90   1
   3  -4  -4 31977.4 2261.96   2
   3  -4  -3 16285.2 1781.47   1
  -3  -4   3 14274.8 1674.00   1
   3  -4  -3 14057.4 1440.40   2
  -3  -4   2 84.7007 96.9250   1
   3  -4  -2 176.960 203.677   1
  -3  -4   1 10565.2 1507.62   1
  -3  -4   0 41345.1 2992.56   1
  -3  -4  -1 25895.4 2357.88   1
  -3  -4  -2 481.532 286.944   1
  -3  -4  -3 1777.69 450.212   2
  -3  -4  -3 1554.40 565.513   1
  -3  -4  -4 525.436 251.168   2
  -3  -4  -4 860.227 451.171   1
  -3  -4  -5 477.314 334.561   2
  -3  -4  -6 2605.95 664.710   2
  -3  -4  -7 1068.90 510.426   2
  -3  -4  -8 3325.23 831.222   2
  -3  -4  -9 9517.30 1483.85   2
  -3  -4 -10 1782.00 664.955   2
   3  -5 -11 1193.57 624.173   1
   3  -5 -10 3713.42 1035.13   1
   3  -5  -9 1302.46 660.391   1
   3  -5  -8 613.413 398.350   1
   3  -5  -7 1788.62 664.486   1
   3  -5  -6 275.862 260.440   1
   3  -5  -5 704.426 414.964   1
   3  -5  -4 92.7566 280.510   1
   3  -5  -3 3886.66 991.093   1
  -3  -5   3 4979.58 1137.32   1
  -3  -5   2 13182.2 1900.43   1
   3  -5  -2 15773.2 2004.03   1
  -3  -5   1 3343.42 968.981   1
  -3  -5   0 220.531 409.714   1
  -3  -5  -1 162.900 212.147   1
  -3  -5  -2 70.2792 139.073   1
  -3  -5  -3 2473.58 850.049   1
  -3  -5  -4 1016.40 544.243   1
  -3  -5  -5 1501.59 710.187   1
  -3  -5  -6 1856.64 848.862   1
   3  -6  -6-489.550 387.608   1
   3  -6  -5 355.605 295.841   1
   3  -6  -4 1053.48 559.007   1
   3  -6  -3 1594.88 687.272   1
  -3  -6   2 529.028 476.969   1
  -3  -6   1 497.678 484.401   1
   4   0 -15 207.920 208.079   2
   4   0 -14 105979. 5589.80   2
   4   0 -13 93.0207 369.752   2
   4   0 -12 2619.00 896.615   2
   4   0 -11-273.671 206.041   2
   4   0 -10-398.136 454.448   2
   4   0  -9-65.9358 132.460   3
   4   0  -8 1592.96 356.234   3
   4   0  -7 173.693 152.632   3
   4   0  -6 135432. 2909.38   3
   4   0  -5-24.4572 50.0025   3
   4   0  -4 25681.0 1173.55   3
   4   0  -3 55.4534 84.6440   3
   4   0  -2 10602.8 717.175   3
   4   0  -1 26.1953 86.3172   3
   4   0   0 12835.5 785.905   3
   4   0   1 9.08717 85.1046   3
   4   0   2 223.521 114.523   3
   4   0   3-11.3476 19.5750   3
  -4   0  -4 4371.83 782.807   2
   4   0   4 8535.61 710.327   3
  -4   0  -5-178.091 180.154   2
   4   0   5-0.33929 77.4312   3
  -4   0  -6 5387.25 958.153   2
   4   0   6 5385.20 576.203   3
  -4   0  -7 566.670 348.456   2
  -4   0  -8 2240.38 687.074   2
  -4   0  -9 315.186 296.169   2
  -4   0 -10 813.668 530.608   2
  -4   0 -11-8.68437 45.4454   2
  -4   0 -12 1209.73 577.036   2
   4   1 -16 6294.08 1420.59   2
   4  -1 -15 475.221 203.990   2
   4   1 -15 1558.75 711.931   2
   4  -1 -14 1962.43 741.978   2
   4   1 -14 1974.92 736.899   2
   4  -1 -13 9567.55 1686.47   2
   4   1 -13 11624.9 1744.44   2
   4  -1 -12 23454.0 2538.64   2
   4   1 -12 24563.3 2480.67   2
   4   1 -11 18478.8 1177.13   3
   4   1 -11 19947.2 2194.86   2
   4  -1 -11 16902.5 2129.59   2
   4   1 -10 17970.1 1109.06   3
   4   1 -10 16569.6 1903.75   2
   4  -1 -10 18255.8 2141.02   2
   4   1  -9 40722.1 1591.91   3
   4  -1  -9 33553.3 2784.40   2
   4   1  -8 22361.4 1131.32   3
   4   1  -7 8688.76 701.350   3
   4   1  -6 8357.56 667.086   3
   4   1  -6 8943.12 815.234   1
   4   1  -5 2771.99 385.705   1
   4   1  -5 3241.24 405.165   3
   4  -1  -5 2353.41 309.646   1
   4   1  -4 13893.9 865.317   3
   4   1  -3 5125.98 526.715   3
   4   1  -2 5767.32 557.331   3
  -4  -1   2 5692.07 535.269   1
  -4   1   1 1964.38 330.317   1
   4   1  -1 1666.03 305.643   3
   4   1   0 13443.9 869.292   3
   4   1   1 23744.4 1141.57   3
   4   1   2 261.677 116.295   3
  -4  -1  -3 9091.98 1079.18   2
   4   1   3 9801.24 720.203   3
  -4  -1  -4 827.939 269.136   2
   4   1   4 456.587 151.426   3
  -4   1  -5 30.2162 82.4108   2
   4   1   5 10.1314 56.6634   3
  -4  -1  -5 201.320 197.664   2
  -4  -1  -6 785.249 367.707   2
  -4   1  -6 485.058 238.562   2
   4   1   6 1022.42 201.374   3
  -4  -1  -7 1088.38 504.597   2
  -4   1  -7 709.069 316.054   2
   4   1   7 1440.73 254.174   3
  -4  -1  -8 3135.94 797.688   2
  -4   1  -8 2205.54 676.707   2
  -4  -1  -9 3423.14 854.135   2
  -4   1  -9 4519.40 993.218   2
  -4  -1 -10 732.531 480.261   2
  -4   1 -10 80.8145 217.225   2
  -4  -1 -11 1669.14 687.150   2
  -4   1 -11 1365.58 585.223   2
  -4   1 -12 108.113 200.323   2
   4  -2 -14 2248.28 811.990   2
   4   2 -14 1281.06 530.559   2
   4  -2 -13 2180.89 948.751   2
   4   2 -13 1160.03 464.820   2
   4  -2 -12 19698.2 2363.20   2
   4   2 -12 17700.3 1991.58   2
   4   2 -11 16579.8 997.714   3
   4   2 -11 17590.5 1947.40   2
   4  -2 -11 18313.9 2245.41   2
   4   2 -10-63.4029 256.767   2
   4  -2 -10 50.9634 189.646   2
   4   2 -10-42.2000 105.634   3
   4   2  -9 21982.6 1157.16   3
   4   2  -9 19434.0 1981.25   2
   4  -2  -9 20856.6 2236.93   2
   4   2  -8 5921.48 620.192   3
   4   2  -7 1927.89 370.383   3
   4  -2  -7 1118.94 323.542   1
   4   2  -6 468.434 221.938   3
   4  -2  -6 561.576 231.207   1
   4  -2  -5 386.424 180.829   1
   4   2  -5 230.991 195.755   3
   4  -2  -4 4726.80 639.205   1
   4   2  -4 4092.56 620.056   3
  -4  -2   3 35115.5 1860.93   1
   4   2  -3 33134.6 1749.86   3
   4   2  -2 29534.1 1679.09   3
  -4  -2   2 32164.5 1795.85   1
   4   2  -1 321.539 260.893   3
  -4  -2   1-46.7774 68.4883   1
   4   2   0 5780.92 755.691   3
  -4  -2   0 4921.99 746.219   1
   4   2   1 1832.49 412.795   3
   4   2   2 4054.77 609.375   3
   4   2   3 6007.15 727.072   3
  -4  -2  -3 5924.21 892.366   2
  -4  -2  -4 1697.95 477.243   2
   4   2   4 1705.57 383.985   3
  -4  -2  -5 17390.2 1685.16   2
   4   2   5 16071.9 1123.64   3
  -4  -2  -6 24592.9 2073.09   2
   4   2   6 26680.2 1363.05   3
  -4  -2  -7 5620.35 1037.99   2
   4   2   7 6309.27 623.784   3
  -4   2  -7 7155.02 1156.86   2
  -4  -2  -8 2005.88 685.636   2
  -4   2  -8 1395.55 507.838   2
  -4  -2  -9 214.337 308.765   2
  -4   2  -9-218.946 236.105   2
  -4  -2 -10 1995.80 694.124   2
  -4   2 -10 1377.96 591.819   2
  -4  -2 -11 3285.14 948.092   2
  -4   2 -11 2433.70 757.681   2
  -4   2 -12-977.929 503.929   2
   4  -3 -13 669.820 167.769   2
   4  -3 -12 3983.48 1076.11   2
   4  -3 -11 4644.94 1136.30   2
   4  -3 -10 636.189 452.085   2
   4   3 -10 744.495 267.123   3
   4   3  -9 60.5069 92.7581   3
   4  -3  -9 455.279 291.687   1
   4  -3  -8 621.097 318.981   2
   4   3  -8 323.661 127.592   3
   4  -3  -8 194.732 135.659   1
   4   3  -8 531.694 315.254   2
   4   3  -7 3133.43 573.400   3
   4  -3  -7 2939.71 772.496   2
   4  -3  -7 4399.58 802.580   1
   4   3  -6 26134.6 1739.28   3
   4  -3  -6 27947.0 2007.88   1
   4  -3  -5 26466.6 1944.55   1
   4   3  -5 24553.7 1716.91   3
   4   3  -4 254.097 200.856   3
   4  -3  -4 95.4846 112.327   1
   4  -3  -3 999.587 377.185   1
  -4  -3   3 1927.33 580.111   1
  -4  -3   2 1543.63 505.392   1
  -4  -3   1-395.679 246.826   1
  -4  -3   0 4163.59 822.993   1
  -4  -3  -1-133.891 145.364   1
  -4  -3  -3 122125. 4200.09   2
  -4  -3  -4 1757.07 495.228   2
  -4  -3  -5 45354.5 2819.34   2
   4   3   5 44204.6 2353.69   3
  -4  -3  -6 2111.09 629.206   2
   4   3   6 2187.54 501.334   3
  -4  -3  -7 1770.38 630.721   2
   4   3   7 1472.13 380.364   3
  -4  -3  -8 1719.76 665.493   2
  -4  -3  -9-81.9436 192.360   2
  -4  -3 -10 1664.18 642.693   2
   4  -4 -12 1578.36 622.819   2
   4  -4 -11 690.998 591.565   2
   4   4 -10 1973.44 464.447   3
   4  -4 -10 2866.75 905.519   2
   4  -4 -10 2408.68 733.455   1
   4   4  -9 19080.1 1493.53   3
   4  -4  -9 22397.8 2207.93   1
   4  -4  -9 24631.8 2493.59   2
   4  -4  -8 8955.42 1483.41   2
   4  -4  -8 8280.02 1338.21   1
   4  -4  -7 6621.20 1151.21   1
   4  -4  -7 7303.72 1280.90   2
   4   4  -7 5269.43 831.259   3
   4  -4  -6 72.6793 159.420   2
   4  -4  -6-42.1985 90.1122   1
   4  -4  -5 1063.13 462.678   1
   4  -4  -5 1697.61 562.570   2
   4  -4  -4 1841.39 607.935   1
   4  -4  -3 714.135 325.864   1
  -4  -4   3 111.184 154.281   1
  -4  -4   2 6389.20 1169.01   1
  -4  -4   1 51865.0 3426.81   1
  -4  -4   0 49042.9 3323.43   1
  -4  -4  -1 51918.6 3411.70   1
  -4  -4  -2 25426.4 2407.31   1
  -4  -4  -3 1016.92 480.256   1
  -4  -4  -4 661.352 241.237   2
  -4  -4  -4 482.970 345.219   1
  -4  -4  -5 1658.19 508.949   2
  -4  -4  -6 30228.8 2482.67   2
  -4  -4  -7 26916.5 2447.92   2
  -4  -4  -8 2727.14 816.758   2
  -4  -4  -9 15136.5 1965.01   2
   4   5  -9 1697.58 487.600   3
   4   5  -8 1228.13 386.382   3
   4  -5  -8 612.375 401.187   1
   4  -5  -7-198.469 225.066   1
   4  -5  -6 1764.03 661.142   1
   4  -5  -5 1951.32 738.557   1
   4  -5  -4 6327.72 1261.83   1
  -4  -5   3 44063.7 3476.36   1
  -4  -5   2 47448.5 3673.63   1
  -4  -5   1 7217.14 1449.87   1
  -4  -5   0 10378.3 1739.43   1
  -4  -5  -1 17103.7 2259.35   1
  -4  -5  -2 2941.23 886.680   1
  -4  -5  -3 104.491 174.185   1
  -4  -5  -4 515.880 398.181   1
  -4  -5  -5 102.589 185.611   1
   4  -6  -5 35137.6 3324.69   1
   5   0 -15 7548.78 1634.15   2
   5   0 -14-1.93579 264.761   2
   5   0 -13 428.087 339.384   2
   5   0 -12 385.517 365.082   2
   5   0 -11 4302.46 1083.81   2
   5   0 -10 242.700 229.073   3
   5   0  -9 2167.91 463.277   3
   5   0  -8 58.2461 85.3584   3
   5   0  -7 671.630 226.469   3
   5   0  -6-38.7015 96.9286   3
   5   0  -5 42481.8 1819.66   3
   5   0  -4 53.4257 101.897   3
   5   0  -3 69420.0 2200.39   3
   5   0  -2 114.566 136.303   3
   5   0  -1 11675.1 886.495   3
   5   0   0 137.801 136.693   3
   5   0   1 2237.79 409.711   3
   5   0   2-59.0964 86.4273   3
   5   0   3 10.7738 25.3724   3
   5   0   4 33.4463 97.6196   3
  -5   0  -5 17465.4 1861.21   2
   5   0   5 16932.9 1176.43   3
  -5   0  -6-597.231 349.168   2
   5   0   6-29.0798 97.4105   3
  -5   0  -7 1449.61 581.058   2
  -5   0  -8-121.985 166.891   2
  -5   0  -9 694.504 338.938   2
  -5   0 -10-1.55629 189.166   2
   5   1 -15 361.973 469.144   2
   5  -1 -14 916.989 560.593   2
   5   1 -14 1842.52 793.074   2
   5   1 -13 448.000 454.823   2
   5  -1 -13 462.775 453.113   2
   5   1 -12-69.3702 364.363   2
   5  -1 -12-135.975 72.6023   2
   5   1 -11 3162.48 917.906   2
   5  -1 -11 1149.89 561.260   2
   5   1 -11 2186.05 466.233   3
   5   1 -10 8281.01 853.100   3
   5   1  -9 1074.12 298.115   3
   5   1  -8 1489.73 357.670   3
   5   1  -7 2292.28 405.196   3
   5   1  -6 4872.84 581.329   3
   5   1  -5 6.02997 38.7808   3
   5   1  -4 2384.51 389.107   3
   5   1  -3 15157.8 978.462   3
   5   1  -2 76693.3 2225.40   3
  -5  -1   2 73449.5 1969.89   1
   5   1  -1 54120.0 1844.62   3
  -5  -1   1 50054.6 1819.09   1
  -5   1   1 49361.1 1723.66   1
   5   1   0 48556.3 1746.91   3
   5   1   1 2741.57 413.183   3
   5   1   2 6985.05 663.610   3
   5   1   3 592.038 203.430   3
   5   1   4 231.444 118.340   3
  -5  -1  -5 1.12680 97.1479   2
   5   1   5 5.20632 106.766   3
  -5  -1  -6 398.961 115.859   2
   5   1   6 346.526 175.480   3
  -5  -1  -7 3463.30 851.913   2
  -5   1  -7 5502.54 1153.29   2
  -5  -1  -8 11212.4 1628.46   2
  -5   1  -8 12344.6 1756.52   2
  -5  -1  -9 12.9903 311.360   2
  -5   1  -9-297.619 275.986   2
  -5  -1 -10 11872.4 1754.28   2
  -5   1 -10 14025.7 1971.96   2
  -5   1 -11 11116.2 1819.56   2
   5   2 -14 1921.28 770.237   2
   5  -2 -13 437.109 598.934   2
   5   2 -13 496.988 290.090   2
   5   2 -12 4219.53 1006.67   2
   5  -2 -12 4863.29 1271.80   2
   5   2 -11 3345.17 878.017   2
   5  -2 -11 3253.44 987.466   2
   5   2 -11 4815.72 606.293   3
   5  -2 -10 607.597 434.921   2
   5   2 -10 320.427 150.354   3
   5   2  -9 3652.93 512.128   3
   5   2  -8 5741.34 641.427   3
   5   2  -7 21258.9 1257.56   3
   5  -2  -6 5948.30 689.387   1
   5   2  -6 5853.66 667.679   3
   5   2  -5 331.418 177.736   3
   5   2  -4 732.733 239.753   3
  -5  -2   3 288.510 186.832   1
   5   2  -3 187.963 113.627   3
  -5  -2   2 89.5964 95.7756   1
   5   2  -2 249.242 168.675   3
   5   2  -1 75.9530 130.511   3
  -5  -2   1-32.6881 57.5057   1
   5   2   0 17834.4 1268.38   3
  -5  -2   0 16170.5 1389.34   1
   5   2   1 87360.3 2755.63   3
   5   2   2 74882.6 2537.31   3
   5   2   3 26110.1 1457.36   3
   5   2   4 2970.37 485.623   3
  -5  -2  -4 2028.39 589.704   2
   5   2   5 3614.51 514.233   3
  -5  -2  -5 2610.54 686.898   2
  -5  -2  -6 48.2977 171.217   2
   5   2   6-101.205 84.2057   3
  -5  -2  -7 5337.25 1092.64   2
  -5  -2  -8 9321.06 1487.11   2
  -5  -2  -9 12222.6 1774.58   2
  -5   2 -11 3759.21 1066.43   2
   5  -3 -12 3061.78 976.380   2
   5  -3 -11 1311.43 687.807   2
   5   3 -11 1024.95 284.313   3
   5  -3 -10 14.3213 328.290   2
   5   3 -10 685.435 253.370   3
   5  -3  -9 882.934 544.985   2
   5   3  -9 439.537 218.593   3
   5   3  -8 894.156 282.799   3
   5   3  -7 2149.00 478.065   3
   5   3  -6 8746.49 997.109   3
   5  -3  -5 3943.42 726.153   1
   5   3  -5 4809.74 769.661   3
   5   3  -4 22312.6 1680.78   3
   5   3  -3 6816.22 925.907   3
  -5  -3   3 5531.32 921.993   1
   5   3  -2 1911.93 500.927   3
  -5  -3   2 2297.66 639.077   1
  -5  -3   1 310.363 155.297   1
   5   3  -1 607.233 309.510   3
   5   3   0 553.817 278.936   3
  -5  -3   0 443.456 279.059   1
  -5  -3  -1 134.449 148.993   1
   5   3   1 361.724 287.332   3
   5   3   2 27.6792 134.138   3
   5   3   3 13983.2 1317.13   3
   5   3   4 43362.9 2272.40   3
  -5  -3  -5 64166.7 3704.71   2
   5   3   5 64616.3 2704.06   3
  -5  -3  -6 3912.35 956.027   2
   5   3   6 2965.26 536.297   3
  -5  -3  -7 2636.91 786.740   2
  -5  -3  -8 191.702 258.345   2
  -5  -3  -9 454.087 335.842   2
   5  -4 -11 1636.84 718.175   2
   5  -4 -10 3238.59 934.377   2
   5   4 -10 4758.64 715.303   3
   5  -4  -9 6437.72 1285.60   2
   5   4  -9 5652.90 816.380   3
   5  -4  -8 1975.42 634.843   2
   5   4  -8 3172.24 645.415   3
   5  -4  -7 696.702 343.078   2
   5   4  -7 1238.24 442.215   3
   5   4  -6 431.981 153.727   3
   5   4  -5 2495.76 615.536   3
   5   4  -4 503.632 289.168   3
  -5  -4   3 9357.76 1418.04   1
   5   4  -3 8177.02 1127.73   3
  -5  -4   2 3438.15 860.549   1
   5   4  -2 3106.33 701.285   3
   5   4  -1 6613.46 1049.35   3
  -5  -4   1 9174.23 1487.39   1
   5   4   0 10589.4 1288.58   3
  -5  -4   0 10887.2 1593.94   1
   5   4   1 8889.21 1210.28   3
  -5  -4  -1 9646.27 1483.44   1
   5   4   2-101.324 238.576   3
  -5  -4  -2 295.740 277.902   1
   5   4   3 407.252 370.420   3
  -5  -4  -3 558.966 423.654   1
  -5  -4  -4-14.3913 61.4244   1
   5   4   4-65.8515 162.079   3
   5   4   5 434.658 333.114   3
   5   4   6 4987.25 859.006   3
  -5  -4  -6 4124.07 978.306   2
  -5  -4  -7 23871.3 2507.49   2
  -5  -4  -8 18372.1 2251.16   2
   5   5  -6 6275.96 987.688   3
   5   5  -5 316.250 255.135   3
   5   5  -4 500.831 321.363   3
  -5  -5   3 6209.45 1318.30   1
  -5  -5   2 25173.1 2715.18   1
  -5  -5   1 9428.53 1676.29   1
  -5  -5   0 265.697 277.417   1
  -5  -5  -1 2597.29 910.016   1
  -5  -5  -2 4379.77 1155.51   1
  -5  -5  -3 1080.49 570.398   1
   6   0 -14 13196.4 2135.81   2
   6   0 -13 165.822 226.293   2
   6   0 -12 28521.2 2986.86   2
   6   0 -10 588.238 293.601   3
   6   0  -9-101.344 120.683   3
   6   0  -8 205.239 181.833   3
   6   0  -7-82.5537 95.2530   3
   6   0  -6 5010.38 714.017   3
   6   0  -5 130.512 175.481   3
   6   0  -4 325315. 5659.55   3
   6   0  -3 294.430 181.588   3
   6   0  -2 73737.6 2644.33   3
   6   0  -1-430.104 197.746   3
   6   0   0 9278.96 942.022   3
   6   0   1 101.829 138.108   3
   6   0   2 551.013 200.161   3
   6   0   3-144.437 176.079   3
   6   0   4 21433.4 1497.24   3
   6   0   5 144.125 99.5165   3
  -6   0  -9-135.452 307.614   2
   6   1 -14 5077.83 1286.05   2
   6   1 -13 136.919 309.668   2
   6  -1 -13-1008.35 577.653   2
   6   1 -12 1502.34 652.433   2
   6  -1 -12 1152.22 533.909   2
   6   1 -12 1706.10 444.743   3
   6   1 -11 4271.67 716.765   3
   6   1 -10 11061.0 1103.64   3
   6   1  -9 5976.15 778.353   3
   6   1  -8 24922.8 1541.19   3
   6   1  -7 73931.1 2579.16   3
   6   1  -6 47253.8 2007.75   3
   6   1  -5 17160.7 1217.31   3
   6   1  -4 1284.57 328.609   3
   6   1  -3 611.806 255.495   3
   6   1  -2 46675.6 1949.68   3
   6   1  -1 88024.2 2667.70   3
   6   1   0 55118.1 2109.32   3
   6   1   1 2311.80 429.946   3
   6   1   2 10524.0 914.425   3
   6   1   3 19942.5 1260.66   3
   6   1   4 5763.90 679.422   3
   6   1   5 243.054 188.600   3
   6   1   6 843.799 253.570   3
  -6  -1  -7 909.722 417.506   2
  -6  -1  -8 6282.80 1326.04   2
   6   2 -14 1130.93 511.262   2
   6   2 -13 148.265 254.808   2
   6   2 -12 277.782 193.761   2
   6  -2 -12-180.843 235.098   2
   6  -2 -11 944.213 621.517   2
   6   2 -11 1340.82 372.886   3
   6   2 -10 22671.0 1418.21   3
   6   2  -9 31161.3 1637.57   3
   6   2  -8 736.580 260.673   3
   6   2  -7 9665.21 910.520   3
   6   2  -6 15312.5 1148.76   3
   6   2  -5 909.412 299.514   3
   6   2  -4 5647.25 714.045   3
   6   2  -3 475.278 245.662   3
   6   2  -2 2081.82 451.031   3
   6   2  -1 1631.16 387.237   3
   6   2   0 4618.94 639.914   3
   6   2   1 41566.1 1900.97   3
   6   2   2 26000.2 1488.24   3
   6   2   3 12775.7 1026.83   3
   6   2   4 4329.08 589.397   3
   6   2   5 1122.10 303.419   3
   6   2   6 564.032 199.679   3
  -6  -2  -7 7275.30 1403.63   2
  -6  -2  -8 9127.13 1605.06   2
   6  -3 -11 54.4097 124.993   2
   6   3 -11 272.998 144.516   3
   6  -3 -10 1.73422 135.087   2
   6   3 -10 80.0262 142.972   3
   6   3  -9 1526.81 387.007   3
   6   3  -8 1179.78 348.079   3
   6   3  -7 1335.38 352.679   3
   6   3  -6 1112.97 331.438   3
   6   3  -5 2880.45 567.545   3
   6   3  -4 337.798 231.978   3
   6   3  -3 8943.18 1033.88   3
   6   3  -2 2186.28 511.756   3
   6   3  -1 3078.40 604.142   3
   6   3   0 620.537 306.417   3
   6   3   1 113.327 126.784   3
  -6  -3  -1-538.406 304.921   1
  -6  -3  -2 1762.08 565.878   1
   6   3   2 1051.45 331.496   3
   6   3   3 617.535 316.908   3
   6   3   4 21016.5 1505.91   3
   6   3   5 1327.17 390.173   3
   6  -4 -10 2910.54 955.856   2
   6   4 -10 3952.39 663.459   3
   6  -4  -9 7571.97 1460.94   2
   6   4  -9 6885.53 908.907   3
   6  -4  -8 2034.45 749.196   2
   6   4  -8 1628.15 438.467   3
   6   4  -7-46.0911 254.437   3
   6   4  -6 2196.70 537.142   3
   6   4  -5 98.0835 151.947   3
   6   4  -4 540.998 233.667   3
   6   4  -3 40.4925 84.4576   3
   6   4  -2 882.273 397.195   3
   6   4  -1 68.5975 51.7457   3
   6   4   0 2169.91 571.945   3
   6   4   1 6151.20 970.173   3
   6   4   2 2796.57 654.947   3
  -6  -4  -2 3048.82 898.622   1
   6   4   3 14795.1 1501.50   3
  -6  -4  -3 14825.3 1963.09   1
  -6  -4  -4 3350.15 972.459   1
   6   4   4 4238.60 821.261   3
   6   4   5 99.3397 130.917   3
  -6  -4  -5-29.8216 98.2994   1
   7   0 -10 318.486 213.941   3
   7   0  -9 9916.85 1252.14   3
   7   0  -8-96.4515 76.0096   3
   7   0  -7 2619.94 606.503   3
   7   0  -6-98.9306 165.307   3
   7   0  -5 2787.63 605.810   3
   7   0  -4 379.458 276.474   3
   7   0  -3 60407.4 2821.56   3
   7   0  -2 45.0649 259.952   3
   7   0  -1 229.134 199.503   3
   7   0   0 845.076 371.359   3
   7   0   1 249.256 121.221   3
   7   0   2-238.466 168.182   3
   7   0   3-58.9073 89.5149   3
   7   0   4 116.972 166.571   3
   7   0   5 1600.89 445.028   3
   7   1 -12 1973.09 540.681   3
   7   1 -11 317.375 184.337   3
   7   1 -10 2733.47 619.325   3
   7   1  -9 420.529 230.704   3
   7   1  -8 955.474 350.758   3
   7   1  -7 13352.7 1258.67   3
   7   1  -6 66863.4 2753.83   3
   7   1  -5 12869.3 1202.62   3
   7   1  -4 839.113 290.918   3
   7   1  -3 221.469 75.5864   3
   7   1  -2 149.879 198.168   3
   7   1  -1 317.213 189.737   3
   7   1   0 922.637 311.224   3
   7   1   1-14.3857 99.2637   3
   7   1   2 13609.4 1206.10   3
   7   1   3 1177.41 362.774   3
   7   1   4 26.7767 111.900   3
   7   1   5 546.836 255.435   3
   7   2 -13 992.890 613.768   2
   7   2 -12 165.989 197.992   3
   7   2 -11 532.728 303.436   3
   7   2 -10 16416.1 1355.64   3
   7   2  -9 46829.1 2237.74   3
   7   2  -8 25099.7 1624.43   3
   7   2  -7 2780.89 547.815   3
   7   2  -6 364.746 126.606   3
   7   2  -5 1298.17 345.234   3
   7   2  -4 375.924 246.020   3
   7   2  -3 3925.59 636.227   3
   7   2  -2 3148.03 556.214   3
   7   2  -1 7552.47 872.873   3
   7   2   0 6457.45 792.765   3
   7   2   1 8272.45 901.731   3
   7   2   2 405.292 240.703   3
   7   2   3 4128.32 641.736   3
   7   2   4 5290.57 710.906   3
   7   2   5 1710.18 404.780   3
   7   3 -10 3720.67 633.191   3
   7   3  -9 279.922 162.399   3
   7   3  -8 5047.48 758.833   3
   7   3  -7 401.100 200.821   3
   7   3  -6 302.532 146.782   3
   7   3  -5 813.743 330.193   3
   7   3  -4 6413.16 865.423   3
   7   3  -3 5398.52 802.131   3
   7   3  -2 14279.9 1296.67   3
   7   3  -1 2922.43 602.905   3
   7   3   0 725.761 309.747   3
   7   3   1 287.540 182.382   3
   7   3   2 1065.17 354.381   3
   7   3   3 460.717 235.462   3
   7   3   4 367.497 212.176   3
   7   3   5-157.412 124.090   3
   8   0  -9-99.0257 133.580   3
   8   0  -8 4318.04 881.546   3
   8   0  -7-31.9615 158.096   3
   8   0  -6 150.253 150.925   3
   8   0  -5 168.664 268.350   3
   8   0  -4 3116.48 728.498   3
   8   0  -3 1.00376 87.3246   3
   8   0  -2 34558.0 2439.62   3
   8   0  -1 107.392 228.337   3
   8   0   0 14946.7 1608.59   3
   8   0   1 26.5023 66.5720   3
   8   0   2 906.572 395.304   3
   8   0   3-145.441 194.759   3
   8   1 -11 1275.67 462.722   3
   8   1 -10-186.035 255.045   3
   8   1  -9 918.413 417.978   3
   8   1  -8 115.361 123.987   3
   8   1  -7 2107.56 563.126   3
   8   1  -6 69.2651 144.729   3
   8   1  -5 359.140 280.128   3
   8   1  -4 9017.23 1131.94   3
   8   1  -3 1768.04 494.729   3
   8   1  -2-172.877 195.856   3
   8   1  -1 307.030 184.050   3
   8   1   0 10614.7 1216.44   3
   8   1   1 13480.1 1372.37   3
   8   1   2 11530.3 1280.33   3
   8   1   3 394.463 256.441   3
   8   1   4 13966.1 1383.39   3
   8   2  -8 2741.50 617.425   3
   8   2  -7 38.9596 198.082   3
   8   2  -6 3278.03 645.095   3
   8   2  -5 2917.78 607.977   3
   8   2  -4 2713.38 575.298   3
   8   2  -3 3448.86 645.678   3
   8   2  -2 326.028 194.991   3
   8   2  -1 1504.79 436.245   3
   8   2   0 2535.46 566.323   3
   8   2   1 4209.56 711.116   3
   8   2   2 3299.89 612.069   3
   8   2   3 16461.3 1413.92   3
   8   2   4 8194.11 991.843   3
   0   0   0    0.00    0.00   0
TITL Ml28b_2 in P2(1)/n
REM P2(1)/n (#14 in standard setting)
CELL 0.71073   7.114802   4.987522  12.621885  90.0000 102.9596  90.0000
ZERR    3.00   0.000724   0.000469   0.001265   0.0000   0.0098   0.0000
LATT  1
SYMM -x+1/2, y+1/2,-z+1/2
SFAC C H N
UNIT 24.00 30.00 6.00
TREF
HKLF 4
END
;
_shelx_hkl_checksum              66646
#END Tags that were not found in dictionaries
loop_
_space_group_symop_operation_xyz
'x, y, z'
'-x+1/2, y+1/2, -z+1/2'
'-x, -y, -z'
'x-1/2, -y-1/2, z-1/2'
loop_
_atom_site_label
_atom_site_type_symbol
_atom_site_fract_x
_atom_site_fract_y
_atom_site_fract_z
_atom_site_U_iso_or_equiv
_atom_site_adp_type
_atom_site_occupancy
_atom_site_site_symmetry_order
_atom_site_calc_flag
_atom_site_refinement_flags_posn
_atom_site_refinement_flags_adp
_atom_site_refinement_flags_occupancy
_atom_site_disorder_assembly
_atom_site_disorder_group
N1 N 0.1968(2) 0.0575(3) 0.04875(12) 0.0186(4) Uani 0.80(2) 1 d . . P A 1
C1 C 0.1968(2) 0.0575(3) 0.04875(12) 0.0186(4) Uani 0.20(2) 1 d . . P A 2
H1 H 0.3278 0.0961 0.0812 0.022 Uiso 0.20(2) 1 calc R U P A 2
C2 C 0.1478(2) -0.1328(4) -0.02841(13) 0.0190(4) Uani 1 1 d . . . . .
C3 C 0.2954(2) -0.2806(4) -0.06233(14) 0.0226(5) Uani 1 1 d . . . . .
H3 H 0.4270 -0.2445 -0.0305 0.027 Uiso 1 1 calc R U . . .
C4 C 0.2485(3) -0.4731(4) -0.14000(15) 0.0244(5) Uani 1 1 d . . . . .
H4 H 0.3481 -0.5714 -0.1615 0.029 Uiso 1 1 calc R U . . .
C5 C 0.0508(2) 0.1906(3) 0.07771(13) 0.0181(4) Uani 1 1 d . . . . .
C6 C 0.0927(2) 0.3930(4) 0.15882(14) 0.0231(5) Uani 1 1 d . . . . .
H6 H 0.2231 0.4335 0.1920 0.028 Uiso 1 1 calc R U . . .
C7 C -0.0526(3) 0.5296(4) 0.18951(14) 0.0249(5) Uani 1 1 d . . . . .
H7 H -0.0226 0.6633 0.2443 0.030 Uiso 1 1 calc R U . . .
loop_
_atom_site_aniso_label
_atom_site_aniso_U_11
_atom_site_aniso_U_22
_atom_site_aniso_U_33
_atom_site_aniso_U_23
_atom_site_aniso_U_13
_atom_site_aniso_U_12
N1 0.0172(7) 0.0178(9) 0.0202(8) 0.0016(6) 0.0025(5) -0.0006(6)
C1 0.0172(7) 0.0178(9) 0.0202(8) 0.0016(6) 0.0025(5) -0.0006(6)
C2 0.0195(9) 0.0178(9) 0.0196(9) 0.0043(7) 0.0039(6) -0.0021(6)
C3 0.0179(8) 0.0224(10) 0.0280(10) 0.0044(7) 0.0061(7) -0.0002(7)
C4 0.0239(9) 0.0241(10) 0.0283(10) 0.0017(8) 0.0126(7) 0.0006(7)
C5 0.0192(8) 0.0170(9) 0.0179(8) 0.0033(7) 0.0038(6) -0.0008(6)
C6 0.0223(9) 0.0220(10) 0.0237(10) -0.0013(7) 0.0024(7) -0.0023(7)
C7 0.0301(10) 0.0220(10) 0.0236(9) -0.0017(7) 0.0082(7) -0.0021(7)
loop_
_atom_type_symbol
_atom_type_description
_atom_type_scat_dispersion_real
_atom_type_scat_dispersion_imag
_atom_type_scat_source
C C 0.0033 0.0016 'International Tables Vol C Tables 4.2.6.8 and 6.1.1.4'
H H 0.0000 0.0000 'International Tables Vol C Tables 4.2.6.8 and 6.1.1.4'
N N 0.0061 0.0033 'International Tables Vol C Tables 4.2.6.8 and 6.1.1.4'
loop_
_geom_angle_atom_site_label_1
_geom_angle_atom_site_label_2
_geom_angle_atom_site_label_3
_geom_angle
_geom_angle_site_symmetry_3
C2 N1 C5 116.85(14) .
N1 C2 C3 119.54(15) .
N1 C2 C5 121.51(16) 3
C3 C2 C5 118.95(16) 3
C4 C3 C2 120.29(16) .
C3 C4 C7 120.94(17) 3
N1 C5 C6 119.61(15) .
N1 C5 C2 121.64(16) 3
C6 C5 C2 118.75(15) 3
C7 C6 C5 120.60(16) .
C6 C7 C4 120.45(17) 3
loop_
_geom_bond_atom_site_label_1
_geom_bond_atom_site_label_2
_geom_bond_distance
_geom_bond_site_symmetry_2
N1 C2 1.348(2) .
N1 C5 1.350(2) .
C2 C3 1.425(2) .
C2 C5 1.440(2) 3
C3 C4 1.359(3) .
C4 C7 1.422(2) 3
C5 C6 1.421(2) .
C5 C2 1.440(2) 3
C6 C7 1.365(2) .
C7 C4 1.422(2) 3
