#------------------------------------------------------------------------------
#$Date: 2016-02-04 08:09:49 +0200 (Thu, 04 Feb 2016) $
#$Revision: 175770 $
#$URL: svn://www.crystallography.net/cod/cif/4/51/37/4513730.cif $
#------------------------------------------------------------------------------
#
# This file is available in the Crystallography Open Database (COD),
# http://www.crystallography.net/
#
# All data on this site have been placed in the public domain by the
# contributors.
#
data_4513730
loop_
_publ_author_name
'Crochet, Aur\'elien'
'Brog, Jean-Pierre'
'Fromm, Katharina M.'
_publ_section_title
;
 Mixed Metal Multinuclear Cr(III) Cage Compounds and Coordination Polymers
 Based on Unsubstituted Phenolate: Design, Synthesis, Mechanism, and
 Properties
;
_journal_issue                   1
_journal_name_full               'Crystal Growth &amp; Design'
_journal_page_first              189
_journal_paper_doi               10.1021/acs.cgd.5b01084
_journal_volume                  16
_journal_year                    2016
_chemical_formula_moiety         'Cr Cl2 (O C4 H8)2'
_chemical_formula_sum            'C8 H16 Cl2 Cr O2'
_chemical_formula_weight         267.11
_space_group_IT_number           2
_symmetry_cell_setting           triclinic
_symmetry_Int_Tables_number      2
_symmetry_space_group_name_Hall  '-P 1'
_symmetry_space_group_name_H-M   'P -1'
_atom_sites_solution_hydrogens   geom
_atom_sites_solution_primary     direct
_atom_sites_solution_secondary   difmap
_cell_angle_alpha                86.918(4)
_cell_angle_beta                 79.841(4)
_cell_angle_gamma                87.105(4)
_cell_formula_units_Z            1
_cell_length_a                   3.9645(2)
_cell_length_b                   7.2398(4)
_cell_length_c                   9.2813(5)
_cell_measurement_reflns_used    16246
_cell_measurement_temperature    150(2)
_cell_measurement_theta_max      32.12
_cell_measurement_theta_min      2.23
_cell_volume                     261.61(2)
_computing_cell_refinement       X-Area
_computing_data_collection       'X-Area (Stoe & Cie, 2009)'
_computing_data_reduction        'X-RED32(Stoe & Cie, 2009)'
_computing_structure_refinement  'SHELXL-97 (Sheldrick, 2008)'
_computing_structure_solution    'SHELXS-97 (Sheldrick, 2008)'
_diffrn_ambient_temperature      150(2)
_diffrn_detector_area_resol_mean 6.67
_diffrn_measurement_device_type  'STOE IPDS 2T'
_diffrn_measurement_method       'rotation method'
_diffrn_radiation_monochromator  graphite
_diffrn_radiation_probe          x-ray
_diffrn_radiation_type           MoK\a
_diffrn_radiation_wavelength     0.71073
_diffrn_reflns_av_R_equivalents  0.0000
_diffrn_reflns_av_sigmaI/netI    0.0311
_diffrn_reflns_limit_h_max       4
_diffrn_reflns_limit_h_min       -4
_diffrn_reflns_limit_k_max       8
_diffrn_reflns_limit_k_min       -8
_diffrn_reflns_limit_l_max       11
_diffrn_reflns_limit_l_min       0
_diffrn_reflns_number            924
_diffrn_reflns_theta_max         25.00
_diffrn_reflns_theta_min         2.23
_diffrn_source                   'fine-focus sealed tube'
_exptl_absorpt_coefficient_mu    1.568
_exptl_absorpt_correction_type   none
_exptl_crystal_colour            colorless
_exptl_crystal_density_diffrn    1.695
_exptl_crystal_density_method    'not measured'
_exptl_crystal_description       rectangle
_exptl_crystal_F_000             138
_exptl_crystal_size_max          0.06
_exptl_crystal_size_mid          0.04
_exptl_crystal_size_min          0.03
_refine_diff_density_max         0.500
_refine_diff_density_min         -0.561
_refine_diff_density_rms         0.154
_refine_ls_extinction_method     none
_refine_ls_goodness_of_fit_ref   1.344
_refine_ls_hydrogen_treatment    constr
_refine_ls_matrix_type           full
_refine_ls_number_parameters     61
_refine_ls_number_reflns         924
_refine_ls_number_restraints     0
_refine_ls_restrained_S_all      1.344
_refine_ls_R_factor_all          0.0492
_refine_ls_R_factor_gt           0.0402
_refine_ls_shift/su_max          0.000
_refine_ls_shift/su_mean         0.000
_refine_ls_structure_factor_coef Fsqd
_refine_ls_weighting_details
'calc w=1/[\s^2^(Fo^2^)+(0.0781P)^2^+1.5609P] where P=(Fo^2^+2Fc^2^)/3'
_refine_ls_weighting_scheme      calc
_refine_ls_wR_factor_gt          0.1196
_refine_ls_wR_factor_ref         0.1213
_reflns_number_gt                768
_reflns_number_total             924
_reflns_threshold_expression     >2\s(I)
_cod_data_source_file            1.cif
_cod_data_source_block           '[CrCl2(THF)2]n'
_cod_depositor_comments
'Adding full bibliography for 4513725--4513731.cif.'
_cod_database_code               4513730
_shelx_res_file
;

    shelx.res created by SHELXL-2014/7

TITL
CELL  0.71073   3.9645   7.2398   9.2813   86.918   79.841   87.105
ZERR     1.00   0.0002   0.0004   0.0005    0.004    0.004    0.004
LATT   1
SFAC  C    H    O    CL   CR
UNIT  8 16 2 2 1
MERG   2
OMIT     0.00  50.00
FMAP   2
PLAN    5
ACTA
BOND   $H
CONF
L.S.  10
TEMP  -123.00
WGHT    0.056100    0.315100
FVAR       1.64241
CR1   5    1.000000    0.000000    1.000000    10.50000    0.01568    0.00765 =
         0.00864   -0.00210   -0.00393    0.00413
CL1   4    1.387859   -0.196113    1.119576    11.00000    0.01447    0.01045 =
         0.01366    0.00052   -0.00460    0.00160
O1    3    0.908386    0.164378    1.179625    11.00000    0.03080    0.00685 =
         0.00750    0.00026   -0.00038    0.00129
C4    1    0.928692    0.365153    1.172853    11.00000    0.01666    0.00744 =
         0.01286    0.00010   -0.00154   -0.00233
AFIX  23
H4A   2    0.798156    0.422419    1.099169    11.00000   -1.20000
H4B   2    1.170177    0.401179    1.146557    11.00000   -1.20000
AFIX   0
C1    1    0.776008    0.096418    1.327710    11.00000    0.01795    0.01201 =
         0.00858    0.00200    0.00139    0.00277
AFIX  23
H1A   2    0.905543   -0.017369    1.353690    11.00000   -1.20000
H1B   2    0.530422    0.069132    1.338372    11.00000   -1.20000
AFIX   0
C2    1    0.824707    0.252641    1.423259    11.00000    0.01332    0.01626 =
         0.01066   -0.00084   -0.00132    0.00234
AFIX  23
H2A   2    1.057571    0.245283    1.448516    11.00000   -1.20000
H2B   2    0.652773    0.251085    1.514655    11.00000   -1.20000
AFIX   0
C3    1    0.772498    0.425661    1.325644    11.00000    0.01246    0.00961 =
         0.01560   -0.00528   -0.00195    0.00053
AFIX  23
H3A   2    0.525863    0.460818    1.332198    11.00000   -1.20000
H3B   2    0.892843    0.531507    1.353029    11.00000   -1.20000
AFIX   0
HKLF    4

REM
REM R1 =  0.0402 for     768 Fo > 4sig(Fo)  and  0.0492 for all     924 data
REM     61 parameters refined using      0 restraints

END

WGHT      0.0556      0.3175

REM Highest difference peak  0.500,  deepest hole -0.561,  1-sigma level  0.154
Q1    1   1.2572  0.1691  1.3792  11.00000  0.05    0.50
Q2    1   0.6808 -0.1726  1.2996  11.00000  0.05    0.47
Q3    1   0.3472  0.0680  1.2998  11.00000  0.05    0.45
Q4    1   0.5362 -0.0671  1.2757  11.00000  0.05    0.45
Q5    1   0.3931  0.0807  1.2697  11.00000  0.05    0.44
;
_shelx_res_checksum              84804
_shelx_hkl_file
;
   1   0   0 1543.97   37.67   0
   2   0   0  400.06   21.56   0
   3   0   0  313.71   18.72   0
   4   0   0    9.71   17.66   0
   5   0   0  522.47   23.77   0
  -5   1   0  238.51   22.27   0
  -4   1   0  169.98   17.53   0
  -3   1   0    5.47   15.96   0
  -2   1   0 1285.86   26.15   0
  -1   1   0 2459.14   40.30   0
   0   1   0 2446.02   55.58   0
   1   1   0 3324.23   51.92   0
   2   1   0  446.04   22.10   0
   3   1   0 1914.23   28.30   0
   4   1   0    4.89   18.57   0
   5   1   0  115.39   21.49   0
  -5   2   0   18.92   19.39   0
  -4   2   0 1247.14   22.59   0
  -3   2   0   19.25   15.93   0
  -2   2   0  972.18   22.61   0
  -1   2   0  397.92   24.88   0
   0   2   0  127.80   24.95   0
   1   2   0 2287.03   37.89   0
   2   2   0    1.71   18.03   0
   3   2   0  471.00   21.35   0
   4   2   0  574.83   23.37   0
   5   2   0   44.37   22.66   0
  -5   3   0  111.77   22.45   0
  -4   3   0  463.56   19.55   0
  -3   3   0  596.46   18.85   0
  -2   3   0   17.43   14.08   0
  -1   3   0 1985.39   29.00   0
   0   3   0  288.17   20.63   0
   1   3   0 2009.88   33.17   0
   2   3   0 1255.27   25.94   0
   3   3   0   40.53   18.01   0
   4   3   0  813.29   25.92   0
   5   3   0   59.73   23.14   0
  -5   4   0   99.18   22.22   0
  -4   4   0   12.34   18.98   0
  -3   4   0 1170.01   21.94   0
  -2   4   0    4.87   15.37   0
  -1   4   0 1217.85   22.32   0
   0   4   0  304.31   17.64   0
   1   4   0  326.03   18.89   0
   2   4   0 1275.99   25.83   0
   3   4   0   43.76   17.29   0
   4   4   0  100.07   18.42   0
   5   4   0  215.42   22.63   0
  -5   5   0  246.61   22.53   0
  -4   5   0   24.59   16.83   0
  -3   5   0 1388.36   21.64   0
  -2   5   0  807.68   19.21   0
  -1   5   0   58.71   14.36   0
   0   5   0 3099.51   29.39   0
   1   5   0   68.00   16.59   0
   2   5   0  368.16   21.46   0
   3   5   0   84.88   18.40   0
   4   5   0  228.76   18.79   0
   5   5   0  130.83   24.38   0
  -4   6   0   19.80   18.89   0
  -3   6   0   38.67   17.10   0
  -2   6   0 2193.65   23.68   0
  -1   6   0   20.04   15.53   0
   0   6   0  525.49   18.54   0
   1   6   0  591.66   19.64   0
   2   6   0  162.00   18.68   0
   3   6   0 1468.04   24.08   0
   4   6   0   38.87   19.44   0
  -4   7   0  233.85   23.09   0
  -3   7   0  128.77   18.15   0
  -2   7   0  477.01   19.38   0
  -1   7   0  550.46   19.26   0
   0   7   0   18.82   16.79   0
   1   7   0  748.92   21.96   0
   2   7   0   68.75   18.69   0
   3   7   0  266.86   19.56   0
   4   7   0  284.41   23.42   0
  -3   8   0   46.52   20.03   0
  -2   8   0   21.12   17.68   0
  -1   8   0 1065.14   21.59   0
   0   8   0    8.01   17.55   0
   1   8   0  538.80   19.97   0
   2   8   0  312.58   19.64   0
   3   8   0   11.37   20.74   0
   4   8   0  203.74   21.79   0
  -2   9   0  119.12   19.32   0
  -1   9   0  259.76   19.00   0
   0   9   0  110.93   17.49   0
   1   9   0   50.89   18.87   0
   2   9   0  288.35   23.19   0
   3   9   0   26.89   20.57   0
  -1  10   0   14.81   21.32   0
   0  10   0  315.71   21.02   0
   1  10   0   48.01   19.26   0
   2  10   0   31.09   21.34   0
  -2 -10   1    9.06   22.17   0
  -1 -10   1   22.11   21.13   0
   0 -10   1  233.01   20.33   0
   1 -10   1   60.96   21.63   0
  -3  -9   1  128.84   20.87   0
  -2  -9   1  584.70   22.30   0
  -1  -9   1   31.99   18.96   0
   0  -9   1  332.15   18.29   0
   1  -9   1  102.89   20.48   0
   2  -9   1   40.88   19.40   0
  -3  -8   1   55.66   18.77   0
  -2  -8   1  592.70   21.33   0
  -1  -8   1  109.92   18.34   0
   0  -8   1   59.53   17.12   0
   1  -8   1  779.77   20.63   0
   2  -8   1   13.27   17.07   0
   3  -8   1  450.71   21.55   0
  -4  -7   1  199.25   24.01   0
  -3  -7   1   33.56   17.81   0
  -2  -7   1  295.04   17.81   0
  -1  -7   1 1034.72   21.55   0
   0  -7   1  111.32   17.87   0
   1  -7   1  645.13   18.36   0
   2  -7   1  206.58   17.78   0
   3  -7   1   28.98   18.08   0
   4  -7   1  299.73   22.79   0
  -4  -6   1   28.62   19.67   0
  -3  -6   1   89.59   20.26   0
  -2  -6   1   39.11   17.66   0
  -1  -6   1 2589.83   27.45   0
   0  -6   1  600.47   17.56   0
   1  -6   1   82.00   15.99   0
   2  -6   1 1337.08   21.72   0
   3  -6   1   18.97   16.93   0
   4  -6   1  455.63   19.90   0
  -5  -5   1  183.41   24.35   0
  -4  -5   1   19.12   18.82   0
  -3  -5   1  335.77   19.74   0
  -2  -5   1  191.60   18.00   0
  -1  -5   1   28.62   16.36   0
   0  -5   1 1772.25   24.48   0
   1  -5   1    5.69   16.02   0
   2  -5   1 1280.85   20.81   0
   3  -5   1  198.61   17.45   0
   4  -5   1   46.33   17.92   0
   5  -5   1  507.42   23.77   0
  -5  -4   1  506.54   24.06   0
  -4  -4   1   55.26   19.85   0
  -3  -4   1  352.08   19.98   0
  -2  -4   1 1309.62   24.14   0
  -1  -4   1  202.36   17.36   0
   0  -4   1  568.95   19.36   0
   1  -4   1   61.33   16.33   0
   2  -4   1    7.54   16.13   0
   3  -4   1 1462.95   24.12   0
   4  -4   1   22.41   18.41   0
   5  -4   1  124.20   20.42   0
  -5  -3   1   52.62   22.43   0
  -4  -3   1  587.32   21.80   0
  -3  -3   1   15.02   17.67   0
  -2  -3   1 1990.99   27.92   0
  -1  -3   1  484.74   23.23   0
   0  -3   1 1730.85   30.08   0
   1  -3   1 2090.91   27.64   0
   2  -3   1  551.15   19.68   0
   3  -3   1  700.61   19.02   0
   4  -3   1  354.55   20.75   0
   5  -3   1   42.26   21.26   0
  -5  -2   1   22.60   22.62   0
  -4  -2   1  688.73   23.92   0
  -3  -2   1   23.34   16.74   0
  -2  -2   1  509.06   21.16   0
  -1  -2   1 3284.00   42.87   0
   0  -2   1   31.00   24.34   0
   1  -2   1 4696.90   44.93   0
   2  -2   1   52.61   15.57   0
   3  -2   1   20.08   16.49   0
   4  -2   1  625.96   20.81   0
   5  -2   1   12.47   19.58   0
  -5  -1   1   14.82   20.01   0
  -4  -1   1  403.87   19.71   0
  -3  -1   1  905.68   22.15   0
  -2  -1   1   60.04   18.32   0
  -1  -1   1 6564.14   61.81   0
   0  -1   1 4934.73   64.05   0
   1  -1   1 3284.75   46.58   0
   2  -1   1 2568.31   32.75   0
   3  -1   1  354.72   19.74   0
   4  -1   1  292.27   18.87   0
   5  -1   1   39.48   20.34   0
  -5   0   1   14.53   19.39   0
  -4   0   1   68.19   18.88   0
  -3   0   1 1805.35   26.13   0
  -2   0   1   24.69   18.04   0
  -1   0   1  247.46   30.05   0
   0   0   1 2868.90   63.14   0
   1   0   1 1963.79   45.19   0
   2   0   1 8102.07   57.12   0
   3   0   1  524.74   21.00   0
   4   0   1   13.78   18.14   0
   5   0   1  440.99   23.68   0
  -5   1   1  413.07   20.81   0
  -4   1   1   40.70   17.48   0
  -3   1   1  213.01   16.92   0
  -2   1   1 1750.62   26.93   0
  -1   1   1  684.24   27.76   0
   0   1   1  512.44   36.15   0
   1   1   1  774.23   37.55   0
   2   1   1  383.52   24.02   0
   3   1   1 2862.11   33.49   0
   4   1   1    1.10   18.62   0
   5   1   1  302.69   22.27   0
  -5   2   1  122.84   20.78   0
  -4   2   1  422.71   19.03   0
  -3   2   1   12.36   15.53   0
  -2   2   1 2602.57   28.11   0
  -1   2   1   23.66   19.24   0
   0   2   1  683.14   27.76   0
   1   2   1 4034.23   48.72   0
   2   2   1  207.53   22.09   0
   3   2   1  791.90   24.28   0
   4   2   1   37.16   19.52   0
   5   2   1   24.55   23.44   0
  -5   3   1    3.83   18.98   0
  -4   3   1  533.01   18.88   0
  -3   3   1  121.97   16.98   0
  -2   3   1  832.97   20.47   0
  -1   3   1 2392.02   29.05   0
   0   3   1 1134.36   27.00   0
   1   3   1 1612.56   30.31   0
   2   3   1  280.35   17.80   0
   3   3   1  198.34   20.56   0
   4   3   1  543.95   26.13   0
   5   3   1   89.20   23.44   0
  -5   4   1    7.09   19.33   0
  -4   4   1  386.49   19.25   0
  -3   4   1  851.22   20.24   0
  -2   4   1   22.53   14.93   0
  -1   4   1 3567.77   30.63   0
   0   4   1   46.37   16.13   0
   1   4   1   12.73   18.44   0
   2   4   1  658.51   20.63   0
   3   4   1   81.20   17.13   0
   4   4   1  438.54   22.13   0
   5   4   1   -5.54   24.61   0
  -4   5   1  105.34   19.49   0
  -3   5   1  937.99   20.64   0
  -2   5   1  309.77   16.49   0
  -1   5   1 1749.83   23.13   0
   0   5   1 2642.83   27.95   0
   1   5   1    5.52   15.85   0
   2   5   1 1704.13   27.10   0
   3   5   1  134.26   17.71   0
   4   5   1   21.15   16.27   0
   5   5   1  160.42   24.57   0
  -4   6   1   25.20   17.91   0
  -3   6   1  -12.09   15.98   0
  -2   6   1  171.33   16.83   0
  -1   6   1    5.43   13.61   0
   0   6   1 2855.62   27.46   0
   1   6   1   38.43   16.25   0
   2   6   1   41.80   16.97   0
   3   6   1  840.80   23.79   0
   4   6   1   49.77   22.40   0
   5   6   1  235.61   27.05   0
  -4   7   1  281.22   21.89   0
  -3   7   1   14.06   17.64   0
  -2   7   1  456.30   20.82   0
  -1   7   1  101.71   16.84   0
   0   7   1  261.80   16.76   0
   1   7   1 1248.74   23.47   0
   2   7   1   39.28   18.79   0
   3   7   1  279.54   19.41   0
   4   7   1   19.20   19.37   0
  -3   8   1   -2.34   19.25   0
  -2   8   1  143.68   18.16   0
  -1   8   1  373.86   19.04   0
   0   8   1   50.58   16.32   0
   1   8   1  666.01   21.16   0
   2   8   1   39.85   18.54   0
   3   8   1  127.25   21.29   0
   4   8   1  266.23   22.73   0
  -2   9   1   13.38   18.17   0
  -1   9   1  346.18   20.50   0
   0   9   1   15.04   18.77   0
   1   9   1   45.37   18.99   0
   2   9   1  103.02   20.49   0
   3   9   1   97.07   22.54   0
  -1  10   1  256.83   20.64   0
   0  10   1  357.57   22.86   0
   1  10   1   12.24   20.03   0
   2  10   1  206.22   24.98   0
  -1 -10   2  165.01   23.72   0
   0 -10   2   66.40   19.86   0
   1 -10   2   54.85   18.70   0
  -3  -9   2  117.56   19.80   0
  -2  -9   2  234.45   21.34   0
  -1  -9   2  139.40   19.41   0
   0  -9   2  993.97   22.48   0
   1  -9   2   31.26   17.78   0
   2  -9   2  140.10   19.12   0
  -3  -8   2   17.09   22.06   0
  -2  -8   2  371.43   22.42   0
  -1  -8   2   16.87   18.36   0
   0  -8   2  641.11   20.12   0
   1  -8   2  407.15   18.51   0
   2  -8   2   29.83   19.77   0
   3  -8   2  421.17   22.07   0
  -4  -7   2  275.45   21.94   0
  -3  -7   2  101.32   21.10   0
  -2  -7   2  259.90   20.26   0
  -1  -7   2  472.32   17.55   0
   0  -7   2   66.78   15.18   0
   1  -7   2 1350.15   21.12   0
   2  -7   2   23.82   18.09   0
   3  -7   2  183.30   18.75   0
   4  -7   2  184.51   22.51   0
  -4  -6   2  385.76   19.27   0
  -3  -6   2   67.71   18.57   0
  -2  -6   2  227.26   18.23   0
  -1  -6   2  489.83   18.39   0
   0  -6   2   12.09   16.25   0
   1  -6   2 1208.17   21.96   0
   2  -6   2  723.48   19.92   0
   3  -6   2   19.45   16.78   0
   4  -6   2  748.26   22.76   0
  -5  -5   2   35.85   23.17   0
  -4  -5   2   26.71   20.55   0
  -3  -5   2 1162.07   23.14   0
  -2  -5   2   14.72   15.35   0
  -1  -5   2  200.78   16.12   0
   0  -5   2    8.14   15.69   0
   1  -5   2  217.96   14.49   0
   2  -5   2 1251.87   20.87   0
   3  -5   2   65.37   19.29   0
   4  -5   2  171.79   19.09   0
   5  -5   2  236.04   21.97   0
  -5  -4   2  234.97   23.28   0
  -4  -4   2    7.14   19.51   0
  -3  -4   2 1024.29   23.40   0
  -2  -4   2  631.19   19.41   0
  -1  -4   2  235.38   17.65   0
   0  -4   2 4280.65   34.44   0
   1  -4   2   47.24   15.27   0
   2  -4   2   96.34   15.81   0
   3  -4   2  208.78   16.96   0
   4  -4   2   23.44   18.09   0
   5  -4   2  465.85   24.31   0
  -5  -3   2   91.95   22.91   0
  -4  -3   2   30.99   18.08   0
  -3  -3   2   49.32   19.15   0
  -2  -3   2 2131.02   27.76   0
  -1  -3   2   72.18   17.90   0
   0  -3   2 2761.52   33.03   0
   1  -3   2 3855.81   34.63   0
   2  -3   2   77.20   17.77   0
   3  -3   2  886.39   19.58   0
   4  -3   2  132.76   19.00   0
   5  -3   2  148.88   22.14   0
  -5  -2   2   32.60   22.10   0
  -4  -2   2  645.40   23.70   0
  -3  -2   2   11.96   16.36   0
  -2  -2   2 1976.80   27.37   0
  -1  -2   2 1082.13   27.56   0
   0  -2   2  177.76   25.37   0
   1  -2   2 2921.60   35.27   0
   2  -2   2   63.22   17.90   0
   3  -2   2  692.91   21.56   0
   4  -2   2  213.01   19.51   0
   5  -2   2  139.54   22.07   0
  -5  -1   2  163.66   22.42   0
  -4  -1   2  288.43   20.31   0
  -3  -1   2  248.24   17.87   0
  -2  -1   2  129.72   16.90   0
  -1  -1   2 4533.98   45.28   0
   0  -1   2  132.25   28.01   0
   1  -1   2 4979.36   48.50   0
   2  -1   2 3369.48   37.81   0
   3  -1   2   88.36   18.12   0
   4  -1   2  975.61   23.30   0
   5  -1   2   33.62   21.64   0
  -5   0   2   24.61   19.99   0
  -4   0   2   83.89   17.86   0
  -3   0   2  402.83   18.79   0
  -2   0   2   98.55   17.77   0
  -1   0   2 3408.99   39.06   0
   0   0   2   39.78   28.42   0
   1   0   2 1016.42   35.20   0
   2   0   2 3724.11   41.59   0
   3   0   2  322.34   19.79   0
   4   0   2  808.59   23.54   0
   5   0   2  288.30   23.84   0
  -5   1   2  685.38   22.73   0
  -4   1   2   21.94   17.12   0
  -3   1   2  818.97   20.66   0
  -2   1   2  137.84   16.55   0
  -1   1   2   -5.61   22.23   0
   0   1   2 6129.61   58.47   0
   1   1   2  627.20   29.35   0
   2   1   2  187.81   21.04   0
   3   1   2  200.59   19.77   0
   4   1   2   12.78   18.34   0
   5   1   2  557.10   26.04   0
  -5   2   2  321.14   22.84   0
  -4   2   2   67.29   17.94   0
  -3   2   2  169.66   17.33   0
  -2   2   2 3265.04   29.18   0
  -1   2   2   28.40   19.85   0
   0   2   2 1953.69   33.80   0
   1   2   2  614.14   28.08   0
   2   2   2    9.68   18.89   0
   3   2   2 1704.56   31.16   0
   4   2   2   31.30   20.76   0
   5   2   2   36.21   24.18   0
  -5   3   2   60.08   19.99   0
  -4   3   2  671.65   19.92   0
  -3   3   2   73.39   16.43   0
  -2   3   2 1505.17   21.99   0
  -1   3   2 1176.95   22.52   0
   0   3   2  244.14   20.33   0
   1   3   2 1122.51   27.15   0
   2   3   2  523.71   22.91   0
   3   3   2  559.60   23.30   0
   4   3   2  623.80   26.45   0
   5   3   2   15.35   26.62   0
  -5   4   2   31.58   19.56   0
  -4   4   2  488.48   20.95   0
  -3   4   2  156.26   16.84   0
  -2   4   2  233.57   16.41   0
  -1   4   2 3961.57   32.10   0
   0   4   2  530.09   18.39   0
   1   4   2 2715.17   31.94   0
   2   4   2  301.91   21.04   0
   3   4   2  162.99   20.39   0
   4   4   2  306.54   21.35   0
   5   4   2   -6.36   22.30   0
  -4   5   2   11.25   18.19   0
  -3   5   2  227.37   17.45   0
  -2   5   2  345.75   15.86   0
  -1   5   2 1171.68   19.92   0
   0   5   2 1405.41   23.53   0
   1   5   2  464.78   18.82   0
   2   5   2 2255.87   29.16   0
   3   5   2    9.00   16.75   0
   4   5   2  262.93   21.89   0
   5   5   2  130.26   21.40   0
  -4   6   2   25.49   18.64   0
  -3   6   2  893.40   21.75   0
  -2   6   2    9.07   15.88   0
  -1   6   2  339.65   16.06   0
   0   6   2  723.51   19.14   0
   1   6   2    7.03   16.73   0
   2   6   2  817.89   25.62   0
   3   6   2  121.80   17.16   0
   4   6   2   16.04   22.38   0
   5   6   2  378.85   25.55   0
  -4   7   2   33.01   20.62   0
  -3   7   2  164.02   17.46   0
  -2   7   2 1365.17   22.51   0
  -1   7   2  107.37   15.95   0
   0   7   2  331.62   19.39   0
   1   7   2   50.96   17.11   0
   2   7   2   20.42   19.77   0
   3   7   2  744.46   20.85   0
   4   7   2   36.48   20.91   0
  -3   8   2   13.27   21.06   0
  -2   8   2  506.21   19.13   0
  -1   8   2   82.79   15.34   0
   0   8   2   33.17   15.95   0
   1   8   2  688.56   20.30   0
   2   8   2   65.22   20.09   0
   3   8   2  135.86   20.49   0
   4   8   2  101.41   21.92   0
  -2   9   2  155.33   20.59   0
  -1   9   2  558.76   18.80   0
   0   9   2   81.66   16.86   0
   1   9   2  361.04   20.45   0
   2   9   2   80.54   22.64   0
   3   9   2   26.20   22.13   0
  -1  10   2  590.94   23.15   0
   0  10   2  189.04   22.64   0
   1  10   2   36.36   20.23   0
   2  10   2  351.96   23.34   0
  -1 -10   3  553.12   24.81   0
   0 -10   3  105.63   20.92   0
   1 -10   3   38.07   20.76   0
  -2  -9   3   62.41   20.96   0
  -1  -9   3   51.41   20.60   0
   0  -9   3 1020.40   24.04   0
   1  -9   3   80.37   17.27   0
   2  -9   3  445.42   23.11   0
  -3  -8   3   72.51   20.11   0
  -2  -8   3  163.43   18.62   0
  -1  -8   3  173.92   18.84   0
   0  -8   3  534.56   20.62   0
   1  -8   3   88.92   17.61   0
   2  -8   3  175.42   18.73   0
   3  -8   3  371.65   21.20   0
  -4  -7   3  193.29   22.59   0
  -3  -7   3    4.31   19.48   0
  -2  -7   3  526.49   20.63   0
  -1  -7   3   33.18   16.63   0
   0  -7   3  125.64   17.15   0
   1  -7   3 1014.59   20.17   0
   2  -7   3   32.28   18.10   0
   3  -7   3  593.54   21.14   0
   4  -7   3   81.96   20.93   0
  -4  -6   3  200.91   20.61   0
  -3  -6   3   20.74   19.02   0
  -2  -6   3  251.65   17.09   0
  -1  -6   3  314.54   18.76   0
   0  -6   3  466.78   17.85   0
   1  -6   3  855.09   21.03   0
   2  -6   3  102.00   15.22   0
   3  -6   3   78.22   17.66   0
   4  -6   3  464.24   20.45   0
  -4  -5   3  171.25   19.11   0
  -3  -5   3  450.73   18.19   0
  -2  -5   3   11.29   16.00   0
  -1  -5   3 2224.22   26.64   0
   0  -5   3   20.61   14.74   0
   1  -5   3   34.45   14.95   0
   2  -5   3  455.39   18.26   0
   3  -5   3  218.16   18.12   0
   4  -5   3  315.59   18.92   0
   5  -5   3   49.19   22.19   0
  -5  -4   3   28.85   21.94   0
  -4  -4   3   20.00   20.72   0
  -3  -4   3 1223.50   22.44   0
  -2  -4   3  113.48   18.68   0
  -1  -4   3  726.45   20.95   0
   0  -4   3 2341.19   27.98   0
   1  -4   3  135.46   15.21   0
   2  -4   3 2739.35   28.00   0
   3  -4   3   78.72   18.26   0
   4  -4   3   25.47   18.00   0
   5  -4   3  194.75   22.68   0
  -5  -3   3  245.51   21.74   0
  -4  -3   3   95.12   18.29   0
  -3  -3   3   97.67   17.81   0
  -2  -3   3 1085.98   23.21   0
  -1  -3   3   60.45   16.05   0
   0  -3   3 2270.36   28.44   0
   1  -3   3   26.02   16.96   0
   2  -3   3  604.82   19.65   0
   3  -3   3 2356.58   26.58   0
   4  -3   3   33.74   16.63   0
   5  -3   3  184.48   23.45   0
  -5  -2   3  113.84   21.66   0
  -4  -2   3  173.69   19.30   0
  -3  -2   3   64.50   15.84   0
  -2  -2   3 1895.57   25.22   0
  -1  -2   3  231.95   20.43   0
   0  -2   3 2791.39   34.10   0
   1  -2   3 2724.01   33.57   0
   2  -2   3   77.66   16.71   0
   3  -2   3 1496.51   25.28   0
   4  -2   3  227.54   19.92   0
   5  -2   3   17.47   22.47   0
  -5  -1   3   13.15   21.07   0
  -4  -1   3  349.39   20.11   0
  -3  -1   3  282.36   17.07   0
  -2  -1   3  160.14   17.58   0
  -1  -1   3 2118.60   30.91   0
   0  -1   3   65.31   23.24   0
   1  -1   3 4875.24   47.39   0
   2  -1   3  225.18   19.19   0
   3  -1   3  428.90   21.53   0
   4  -1   3 1150.90   26.74   0
   5  -1   3   19.49   22.71   0
  -5   0   3   54.55   21.81   0
  -4   0   3  822.96   21.31   0
  -3   0   3  353.72   19.19   0
  -2   0   3  527.71   18.90   0
  -1   0   3 1310.07   26.26   0
   0   0   3    0.59   22.53   0
   1   0   3  109.70   24.10   0
   2   0   3  566.29   22.37   0
   3   0   3  197.26   20.81   0
   4   0   3 1151.64   26.15   0
   5   0   3  103.63   22.34   0
  -5   1   3   74.34   19.84   0
  -4   1   3   43.72   17.39   0
  -3   1   3 2739.84   26.46   0
  -2   1   3  274.72   17.26   0
  -1   1   3 1126.12   24.69   0
   0   1   3 1890.13   33.47   0
   1   1   3  437.49   27.38   0
   2   1   3 2231.59   34.62   0
   3   1   3   16.65   18.09   0
   4   1   3    7.28   19.18   0
   5   1   3  317.27   25.72   0
  -5   2   3  236.07   21.31   0
  -4   2   3   42.57   16.89   0
  -3   2   3  262.44   17.90   0
  -2   2   3 1079.28   20.43   0
  -1   2   3  285.55   17.32   0
   0   2   3 9999.99   56.26   0
   1   2   3  100.62   21.85   0
   2   2   3  147.24   19.41   0
   3   2   3  955.90   24.98   0
   4   2   3    8.68   21.33   0
   5   2   3  528.23   28.94   0
  -5   3   3  102.43   21.19   0
  -4   3   3  302.13   19.94   0
  -3   3   3   22.84   17.11   0
  -2   3   3 1557.19   21.14   0
  -1   3   3   27.31   15.95   0
   0   3   3 2120.03   28.15   0
   1   3   3 5023.49   43.23   0
   2   3   3  156.38   19.50   0
   3   3   3  338.57   21.15   0
   4   3   3   44.82   20.61   0
   5   3   3   74.20   23.95   0
  -4   4   3  408.76   19.52   0
  -3   4   3   31.96   16.68   0
  -2   4   3  613.56   18.27   0
  -1   4   3  930.73   20.06   0
   0   4   3    6.17   15.23   0
   1   4   3 4753.33   39.08   0
   2   4   3  646.56   21.55   0
   3   4   3  404.54   20.35   0
   4   4   3  264.74   20.54   0
   5   4   3  135.22   23.03   0
  -4   5   3  206.83   21.42   0
  -3   5   3  297.37   19.47   0
  -2   5   3   83.49   14.76   0
  -1   5   3  555.47   18.60   0
   0   5   3  235.62   16.11   0
   1   5   3  385.06   19.44   0
   2   5   3 1297.56   25.58   0
   3   5   3   18.06   18.55   0
   4   5   3  843.34   24.01   0
   5   5   3   29.39   24.20   0
  -4   6   3   14.93   20.32   0
  -3   6   3  892.06   21.32   0
  -2   6   3  124.33   15.89   0
  -1   6   3  595.30   18.60   0
   0   6   3   96.41   16.03   0
   1   6   3  372.02   19.45   0
   2   6   3  835.40   21.68   0
   3   6   3   46.46   18.64   0
   4   6   3   26.18   18.39   0
   5   6   3  108.02   25.02   0
  -3   7   3  149.32   19.11   0
  -2   7   3  329.21   17.47   0
  -1   7   3  153.83   18.69   0
   0   7   3 1736.39   24.11   0
   1   7   3   12.38   16.69   0
   2   7   3   65.26   19.24   0
   3   7   3  329.27   19.95   0
   4   7   3   10.83   19.17   0
  -3   8   3    5.06   19.72   0
  -2   8   3  742.22   22.15   0
  -1   8   3   13.26   16.63   0
   0   8   3  182.22   17.83   0
   1   8   3  330.94   20.06   0
   2   8   3    8.66   20.71   0
   3   8   3  425.47   23.80   0
   4   8   3   17.50   24.47   0
  -2   9   3  364.07   22.54   0
  -1   9   3  657.78   21.84   0
   0   9   3   93.80   17.99   0
   1   9   3  410.33   21.05   0
   2   9   3    0.48   22.53   0
   3   9   3   95.19   21.04   0
  -1  10   3  418.89   22.49   0
   0  10   3   60.46   19.73   0
   1  10   3  289.50   22.77   0
   2  10   3  163.69   25.71   0
   0 -10   4   36.64   19.71   0
  -2  -9   4   16.61   23.60   0
  -1  -9   4   47.45   18.11   0
   0  -9   4   11.32   18.91   0
   1  -9   4    1.77   18.71   0
   2  -9   4  876.91   24.66   0
  -3  -8   4  225.33   24.17   0
  -2  -8   4  131.27   20.06   0
  -1  -8   4   22.10   17.59   0
   0  -8   4  484.60   20.11   0
   1  -8   4  147.09   20.04   0
   2  -8   4  194.88   19.20   0
   3  -8   4  233.16   22.09   0
  -3  -7   4   11.64   20.21   0
  -2  -7   4  673.39   21.15   0
  -1  -7   4   35.62   16.75   0
   0  -7   4  412.82   18.37   0
   1  -7   4  167.08   17.70   0
   2  -7   4   22.51   17.14   0
   3  -7   4  577.21   20.77   0
   4  -7   4   16.50   20.27   0
  -4  -6   4  217.69   23.05   0
  -3  -6   4   78.31   17.80   0
  -2  -6   4  579.07   20.83   0
  -1  -6   4  263.83   17.82   0
   0  -6   4    5.46   14.70   0
   1  -6   4  538.97   18.85   0
   2  -6   4  145.64   18.18   0
   3  -6   4  315.80   21.52   0
   4  -6   4  131.97   18.71   0
  -4  -5   4  447.11   22.69   0
  -3  -5   4  212.19   16.71   0
  -2  -5   4  144.08   18.04   0
  -1  -5   4 1866.48   26.08   0
   0  -5   4   44.17   15.70   0
   1  -5   4 1119.54   21.49   0
   2  -5   4  223.63   17.69   0
   3  -5   4   34.98   16.64   0
   4  -5   4  460.92   23.15   0
  -4  -4   4   28.94   20.37   0
  -3  -4   4  241.65   18.07   0
  -2  -4   4   24.69   15.48   0
  -1  -4   4 2149.45   25.59   0
   0  -4   4  756.35   18.48   0
   1  -4   4   52.07   17.37   0
   2  -4   4 2052.49   26.16   0
   3  -4   4   94.51   16.30   0
   4  -4   4  592.59   21.37   0
   5  -4   4  129.24   21.25   0
  -5  -3   4  272.99   23.28   0
  -4  -3   4   15.45   19.51   0
  -3  -3   4  265.71   18.98   0
  -2  -3   4  152.75   17.52   0
  -1  -3   4   39.38   15.55   0
   0  -3   4 4714.29   35.77   0
   1  -3   4    0.84   16.43   0
   2  -3   4  453.79   18.64   0
   3  -3   4  146.39   17.74   0
   4  -3   4   70.33   19.00   0
   5  -3   4  783.49   23.42   0
  -5  -2   4  244.38   23.69   0
  -4  -2   4   64.97   19.72   0
  -3  -2   4   92.92   17.08   0
  -2  -2   4  728.27   19.36   0
  -1  -2   4  606.10   21.01   0
   0  -2   4 1795.97   27.38   0
   1  -2   4 1382.72   24.20   0
   2  -2   4  301.47   17.22   0
   3  -2   4 1369.04   23.35   0
   4  -2   4  105.91   17.43   0
   5  -2   4  217.90   22.91   0
  -5  -1   4   57.11   21.82   0
  -4  -1   4  623.72   20.57   0
  -3  -1   4   22.42   17.65   0
  -2  -1   4  644.39   18.16   0
  -1  -1   4  163.49   18.12   0
   0  -1   4  140.75   19.50   0
   1  -1   4 1671.99   27.56   0
   2  -1   4  103.13   17.38   0
   3  -1   4 1043.67   23.53   0
   4  -1   4  384.58   19.34   0
   5  -1   4   46.16   22.15   0
  -5   0   4   60.24   23.07   0
  -4   0   4  706.25   21.28   0
  -3   0   4  652.82   19.20   0
  -2   0   4  777.96   17.72   0
  -1   0   4 1672.65   26.41   0
   0   0   4 1051.73   24.87   0
   1   0   4 1703.29   30.60   0
   2   0   4  111.36   17.67   0
   3   0   4   99.72   18.78   0
   4   0   4  383.96   21.95   0
   5   0   4   29.21   22.61   0
  -5   1   4   35.92   21.96   0
  -4   1   4    3.57   17.66   0
  -3   1   4  646.06   18.42   0
  -2   1   4   84.64   13.40   0
  -1   1   4 6165.53   39.62   0
   0   1   4 2072.03   30.29   0
   1   1   4  648.99   25.52   0
   2   1   4 2599.62   32.85   0
   3   1   4   46.25   17.30   0
   4   1   4  257.96   20.10   0
   5   1   4   68.09   24.10   0
  -5   2   4  120.58   21.79   0
  -4   2   4   30.28   17.36   0
  -3   2   4  828.15   19.26   0
  -2   2   4    5.67   14.08   0
  -1   2   4    7.50   16.61   0
   0   2   4 3109.26   32.46   0
   1   2   4  303.02   20.41   0
   2   2   4 2664.30   33.55   0
   3   2   4  196.26   20.39   0
   4   2   4   32.17   22.65   0
   5   2   4  477.39   22.70   0
  -4   3   4   49.27   17.57   0
  -3   3   4  179.95   17.23   0
  -2   3   4 1809.57   22.33   0
  -1   3   4   13.03   15.07   0
   0   3   4  847.33   21.64   0
   1   3   4  240.13   19.75   0
   2   3   4  803.43   23.08   0
   3   3   4 2321.84   31.08   0
   4   3   4   81.70   20.50   0
   5   3   4   20.81   23.87   0
  -4   4   4  154.69   19.18   0
  -3   4   4  159.11   18.03   0
  -2   4   4  855.51   20.06   0
  -1   4   4  167.11   14.90   0
   0   4   4  145.45   16.92   0
   1   4   4 1290.04   24.30   0
   2   4   4   61.23   20.41   0
   3   4   4 1090.10   23.61   0
   4   4   4  570.31   22.56   0
   5   4   4    8.28   21.44   0
  -4   5   4  361.21   21.20   0
  -3   5   4   28.41   17.40   0
  -2   5   4  119.98   16.39   0
  -1   5   4  902.46   20.23   0
   0   5   4  343.14   17.58   0
   1   5   4  504.01   19.77   0
   2   5   4   22.42   19.70   0
   3   5   4   40.08   18.21   0
   4   5   4  605.04   23.17   0
   5   5   4   11.06   21.22   0
  -4   6   4  191.06   21.76   0
  -3   6   4  381.00   18.63   0
  -2   6   4   30.88   16.05   0
  -1   6   4 1840.02   22.56   0
   0   6   4  367.96   18.31   0
   1   6   4   21.00   16.33   0
   2   6   4  412.39   20.89   0
   3   6   4   95.56   19.53   0
   4   6   4  246.72   22.32   0
   5   6   4   35.33   28.93   0
  -3   7   4  619.92   21.75   0
  -2   7   4   18.28   16.88   0
  -1   7   4   88.79   16.52   0
   0   7   4 1041.06   23.14   0
   1   7   4   16.29   16.42   0
   2   7   4  696.26   23.10   0
   3   7   4   53.68   19.23   0
   4   7   4    9.71   23.26   0
  -3   8   4   63.57   19.91   0
  -2   8   4  487.06   19.99   0
  -1   8   4   26.79   17.31   0
   0   8   4  904.72   21.18   0
   1   8   4   14.41   16.48   0
   2   8   4    5.19   19.48   0
   3   8   4  297.05   24.06   0
   4   8   4   28.93   23.83   0
  -2   9   4  185.60   21.07   0
  -1   9   4   12.08   18.21   0
   0   9   4  429.07   22.26   0
   1   9   4 1154.92   25.33   0
   2   9   4   14.15   21.59   0
   3   9   4   92.48   25.04   0
  -1  10   4   54.69   20.29   0
   0  10   4   99.63   20.56   0
   1  10   4  351.95   22.53   0
   2  10   4  109.14   23.59   0
  -1  -9   5  377.96   24.44   0
   0  -9   5   66.67   21.80   0
   1  -9   5   26.87   19.87   0
   2  -9   5   86.33   23.11   0
  -2  -8   5   36.36   20.48   0
  -1  -8   5  160.31   22.29   0
   0  -8   5  510.45   20.87   0
   1  -8   5   23.23   19.23   0
   2  -8   5  335.05   19.99   0
   3  -8   5   30.17   21.91   0
  -3  -7   5  114.46   19.44   0
  -2  -7   5  141.82   19.32   0
  -1  -7   5   12.69   18.55   0
   0  -7   5  745.71   19.61   0
   1  -7   5   44.22   18.11   0
   2  -7   5   99.96   18.11   0
   3  -7   5  481.58   21.57   0
  -3  -6   5   20.11   18.58   0
  -2  -6   5  744.58   22.31   0
  -1  -6   5   24.84   16.63   0
   0  -6   5  618.24   18.17   0
   1  -6   5  596.49   19.52   0
   2  -6   5  214.65   17.60   0
   3  -6   5  361.55   19.94   0
   4  -6   5   34.44   22.23   0
  -4  -5   5  163.70   23.02   0
  -3  -5   5   86.54   20.74   0
  -2  -5   5  392.84   19.51   0
  -1  -5   5  816.53   20.88   0
   0  -5   5  101.54   16.55   0
   1  -5   5 2743.11   26.66   0
   2  -5   5   97.15   15.52   0
   3  -5   5  128.64   16.74   0
   4  -5   5  296.49   21.63   0
  -4  -4   5  195.90   20.74   0
  -3  -4   5   33.38   17.13   0
  -2  -4   5  369.38   18.56   0
  -1  -4   5  710.45   20.02   0
   0  -4   5   39.51   16.00   0
   1  -4   5  962.57   20.93   0
   2  -4   5  942.63   21.57   0
   3  -4   5   44.91   17.02   0
   4  -4   5  709.68   21.73   0
   5  -4   5   66.58   22.51   0
  -4  -3   5   41.36   19.66   0
  -3  -3   5 1472.43   24.34   0
  -2  -3   5   91.63   16.10   0
  -1  -3   5   16.29   15.96   0
   0  -3   5  110.19   15.25   0
   1  -3   5   18.13   16.01   0
   2  -3   5 2799.70   28.36   0
   3  -3   5   10.97   15.04   0
   4  -3   5   52.89   18.69   0
   5  -3   5  245.77   22.23   0
  -4  -2   5   63.01   19.99   0
  -3  -2   5  478.82   19.39   0
  -2  -2   5  831.65   22.10   0
  -1  -2   5   23.29   15.23   0
   0  -2   5 1028.04   21.77   0
   1  -2   5  236.70   18.27   0
   2  -2   5  499.96   18.33   0
   3  -2   5 1507.64   23.95   0
   4  -2   5   12.34   16.80   0
   5  -2   5  361.79   20.58   0
  -5  -1   5  106.49   22.35   0
  -4  -1   5   89.71   19.53   0
  -3  -1   5   34.64   16.52   0
  -2  -1   5 2126.64   25.77   0
  -1  -1   5  165.46   15.47   0
   0  -1   5  515.64   19.69   0
   1  -1   5  612.34   20.48   0
   2  -1   5  335.02   19.84   0
   3  -1   5  755.74   20.90   0
   4  -1   5   21.16   16.45   0
   5  -1   5  163.23   20.54   0
  -5   0   5   22.39   23.77   0
  -4   0   5  345.64   19.87   0
  -3   0   5   15.59   14.96   0
  -2   0   5 1812.34   23.09   0
  -1   0   5 3255.78   30.72   0
   0   0   5   84.57   16.16   0
   1   0   5 3148.15   34.39   0
   2   0   5   18.03   16.23   0
   3   0   5  228.34   18.06   0
   4   0   5  140.97   19.58   0
   5   0   5  211.93   24.55   0
  -4   1   5  228.88   18.22   0
  -3   1   5   51.17   16.04   0
  -2   1   5   55.51   15.04   0
  -1   1   5 2662.63   27.31   0
   0   1   5  321.72   19.19   0
   1   1   5 1931.28   28.54   0
   2   1   5 1938.61   30.18   0
   3   1   5   26.69   16.42   0
   4   1   5 1095.56   24.94   0
   5   1   5   17.89   23.71   0
  -4   2   5   46.85   16.01   0
  -3   2   5  719.48   19.05   0
  -2   2   5    7.49   13.44   0
  -1   2   5  867.69   18.81   0
   0   2   5  254.36   16.86   0
   1   2   5  201.46   18.96   0
   2   2   5 2472.50   31.34   0
   3   2   5  132.56   19.46   0
   4   2   5  278.96   20.99   0
   5   2   5  206.87   23.69   0
  -4   3   5   26.95   18.94   0
  -3   3   5  148.82   17.65   0
  -2   3   5  134.61   16.19   0
  -1   3   5  128.24   15.08   0
   0   3   5 4153.53   32.51   0
   1   3   5   31.98   15.91   0
   2   3   5  235.47   19.13   0
   3   3   5  703.20   22.60   0
   4   3   5   44.43   19.21   0
   5   3   5  516.76   27.85   0
  -4   4   5  149.23   19.53   0
  -3   4   5   19.43   15.97   0
  -2   4   5  456.18   16.97   0
  -1   4   5  261.84   16.55   0
   0   4   5  617.55   19.59   0
   1   4   5  836.52   20.79   0
   2   4   5   36.68   18.70   0
   3   4   5  694.61   22.32   0
   4   4   5    1.39   18.41   0
   5   4   5  224.26   26.92   0
  -4   5   5  672.52   23.95   0
  -3   5   5   44.60   17.36   0
  -2   5   5  715.51   18.64   0
  -1   5   5  377.05   17.14   0
   0   5   5    4.02   14.95   0
   1   5   5  731.35   19.74   0
   2   5   5   97.27   18.07   0
   3   5   5  176.06   18.10   0
   4   5   5  159.10   21.93   0
   5   5   5   26.64   27.51   0
  -3   6   5  262.03   19.48   0
  -2   6   5   73.96   17.07   0
  -1   6   5 1255.03   19.32   0
   0   6   5   87.22   16.30   0
   1   6   5 1087.29   22.36   0
   2   6   5  358.87   21.19   0
   3   6   5   71.54   19.78   0
   4   6   5  376.95   23.62   0
  -3   7   5  246.77   20.85   0
  -2   7   5    8.23   16.86   0
  -1   7   5  500.58   18.37   0
   0   7   5  275.80   17.16   0
   1   7   5    4.08   17.34   0
   2   7   5  982.26   25.84   0
   3   7   5   23.38   21.70   0
   4   7   5   90.43   22.12   0
  -2   8   5   40.54   20.17   0
  -1   8   5    5.51   18.04   0
   0   8   5 1035.96   22.10   0
   1   8   5   56.04   18.73   0
   2   8   5  279.45   21.52   0
   3   8   5   63.81   23.87   0
  -2   9   5  363.36   22.16   0
  -1   9   5   99.01   19.73   0
   0   9   5   40.86   18.52   0
   1   9   5  200.25   20.95   0
   2   9   5  124.39   22.55   0
   3   9   5  487.06   25.13   0
   0  10   5   50.68   20.93   0
   1  10   5   72.79   23.45   0
  -1  -9   6  123.81   22.80   0
   0  -9   6   14.13   21.61   0
   1  -9   6  300.15   23.91   0
  -2  -8   6    0.69   18.39   0
  -1  -8   6  315.10   21.85   0
   0  -8   6   46.59   18.51   0
   1  -8   6   25.11   19.17   0
   2  -8   6  557.78   24.01   0
  -3  -7   6  268.92   23.36   0
  -2  -7   6   30.49   20.30   0
  -1  -7   6   69.02   17.48   0
   0  -7   6  808.93   20.61   0
   1  -7   6   62.42   17.91   0
   2  -7   6  217.40   19.62   0
   3  -7   6   52.67   20.15   0
  -3  -6   6   79.00   21.69   0
  -2  -6   6  580.78   23.38   0
  -1  -6   6   23.67   17.53   0
   0  -6   6 1014.13   23.19   0
   1  -6   6  509.59   20.02   0
   2  -6   6  141.50   18.59   0
   3  -6   6  368.40   18.64   0
   4  -6   6  125.49   21.88   0
  -4  -5   6   78.54   24.70   0
  -3  -5   6   89.40   19.42   0
  -2  -5   6  332.94   19.28   0
  -1  -5   6    5.87   15.75   0
   0  -5   6   38.58   15.26   0
   1  -5   6 1424.36   22.81   0
   2  -5   6  126.15   16.90   0
   3  -5   6 1085.29   23.60   0
   4  -5   6  107.78   19.68   0
  -4  -4   6  288.86   21.24   0
  -3  -4   6   76.45   21.03   0
  -2  -4   6  191.31   17.34   0
  -1  -4   6  259.55   16.37   0
   0  -4   6  609.37   18.65   0
   1  -4   6  610.77   19.95   0
   2  -4   6  203.75   16.66   0
   3  -4   6   62.48   16.51   0
   4  -4   6  479.04   21.78   0
   5  -4   6   13.10   22.07   0
  -4  -3   6   26.55   21.58   0
  -3  -3   6  330.75   20.54   0
  -2  -3   6   80.58   16.24   0
  -1  -3   6 2352.15   26.76   0
   0  -3   6   17.19   16.63   0
   1  -3   6   46.78   16.25   0
   2  -3   6  960.35   21.17   0
   3  -3   6   31.92   15.67   0
   4  -3   6  558.98   21.59   0
   5  -3   6   43.04   21.16   0
  -4  -2   6   20.93   19.79   0
  -3  -2   6  373.15   19.53   0
  -2  -2   6    7.45   16.01   0
  -1  -2   6  458.69   17.29   0
   0  -2   6 2582.03   27.02   0
   1  -2   6   81.35   15.52   0
   2  -2   6  580.34   19.00   0
   3  -2   6   28.67   16.23   0
   4  -2   6   46.84   19.05   0
   5  -2   6  631.33   25.82   0
  -4  -1   6    7.62   18.41   0
  -3  -1   6  198.12   18.21   0
  -2  -1   6 1103.77   21.26   0
  -1  -1   6  106.76   15.47   0
   0  -1   6 2176.87   26.38   0
   1  -1   6  116.91   16.90   0
   2  -1   6   76.53   18.22   0
   3  -1   6  893.48   21.51   0
   4  -1   6  203.12   19.04   0
   5  -1   6  149.26   21.95   0
  -4   0   6  197.82   20.94   0
  -3   0   6   69.15   16.50   0
  -2   0   6  961.52   19.97   0
  -1   0   6  350.03   15.64   0
   0   0   6 1986.45   26.92   0
   1   0   6 3078.03   32.44   0
   2   0   6    5.41   16.52   0
   3   0   6 1466.29   24.97   0
   4   0   6  287.67   20.47   0
   5   0   6   23.40   22.87   0
  -4   1   6  254.93   21.97   0
  -3   1   6   15.63   16.32   0
  -2   1   6   34.71   17.08   0
  -1   1   6  666.62   18.40   0
   0   1   6  138.60   15.52   0
   1   1   6 2597.39   29.31   0
   2   1   6  201.82   19.81   0
   3   1   6   92.69   17.65   0
   4   1   6 1128.16   26.32   0
   5   1   6   22.28   21.34   0
  -4   2   6  267.93   19.33   0
  -3   2   6  255.59   16.42   0
  -2   2   6  153.69   15.32   0
  -1   2   6 1270.28   21.00   0
   0   2   6  195.06   17.34   0
   1   2   6  210.23   16.97   0
   2   2   6  979.94   24.38   0
   3   2   6  110.81   18.12   0
   4   2   6  506.88   21.49   0
   5   2   6   59.49   23.69   0
  -4   3   6   36.76   17.29   0
  -3   3   6 1151.04   21.73   0
  -2   3   6   11.20   13.51   0
  -1   3   6   12.48   17.44   0
   0   3   6  991.02   20.63   0
   1   3   6   50.00   16.08   0
   2   3   6 1629.15   27.98   0
   3   3   6   18.09   17.31   0
   4   3   6    3.51   19.47   0
   5   3   6  446.27   24.03   0
  -4   4   6    6.49   18.49   0
  -3   4   6  406.02   20.75   0
  -2   4   6 1104.57   20.38   0
  -1   4   6   48.01   15.24   0
   0   4   6  473.51   17.38   0
   1   4   6   43.05   15.84   0
   2   4   6   64.23   18.31   0
   3   4   6  916.39   24.64   0
   4   4   6   53.30   20.47   0
   5   4   6  166.09   23.99   0
  -3   5   6   21.08   17.62   0
  -2   5   6 1372.96   20.82   0
  -1   5   6  229.50   15.17   0
   0   5   6  671.83   20.24   0
   1   5   6 1264.73   22.90   0
   2   5   6  102.29   18.34   0
   3   5   6  330.20   21.85   0
   4   5   6    5.68   20.87   0
   5   5   6   12.68   27.70   0
  -3   6   6   37.31   19.21   0
  -2   6   6  246.30   18.13   0
  -1   6   6  689.36   19.86   0
   0   6   6    6.50   15.68   0
   1   6   6 1580.95   23.50   0
   2   6   6  371.11   20.26   0
   3   6   6  112.21   21.60   0
   4   6   6  170.57   23.62   0
  -3   7   6   91.67   17.85   0
  -2   7   6   42.63   19.09   0
  -1   7   6  531.70   20.58   0
   0   7   6    3.86   17.16   0
   1   7   6   60.09   18.00   0
   2   7   6  504.47   23.53   0
   3   7   6    4.74   19.73   0
   4   7   6  220.75   21.44   0
  -2   8   6   42.79   18.53   0
  -1   8   6  114.64   19.29   0
   0   8   6  222.45   17.79   0
   1   8   6   37.18   18.08   0
   2   8   6  513.79   24.51   0
   3   8   6   84.91   19.97   0
  -1   9   6   -3.04   19.43   0
   0   9   6  377.39   22.10   0
   1   9   6   76.64   20.89   0
   2   9   6   30.53   23.86   0
  -1  -8   7  508.64   24.27   0
   0  -8   7   15.38   18.27   0
   1  -8   7  191.80   20.63   0
   2  -8   7  176.71   20.60   0
  -2  -7   7   10.66   18.61   0
  -1  -7   7  157.10   20.06   0
   0  -7   7  173.55   17.88   0
   1  -7   7   52.61   20.16   0
   2  -7   7  702.16   21.96   0
   3  -7   7   22.74   23.35   0
  -3  -6   7   62.70   18.57   0
  -2  -6   7  140.26   21.47   0
  -1  -6   7   16.36   18.04   0
   0  -6   7  694.02   19.66   0
   1  -6   7   20.15   17.99   0
   2  -6   7  522.98   19.77   0
   3  -6   7  815.00   21.21   0
   4  -6   7    8.37   19.57   0
  -3  -5   7   10.41   20.89   0
  -2  -5   7  307.77   20.98   0
  -1  -5   7   82.66   17.47   0
   0  -5   7  220.04   17.73   0
   1  -5   7   89.94   16.95   0
   2  -5   7  167.29   19.23   0
   3  -5   7  905.32   20.55   0
   4  -5   7   87.35   23.13   0
  -3  -4   7   28.85   18.04   0
  -2  -4   7  589.40   21.17   0
  -1  -4   7  487.57   19.66   0
   0  -4   7    1.72   15.00   0
   1  -4   7  576.26   20.23   0
   2  -4   7  201.91   19.73   0
   3  -4   7   99.13   19.39   0
   4  -4   7  243.31   19.56   0
  -4  -3   7  314.12   23.95   0
  -3  -3   7   47.52   18.56   0
  -2  -3   7   43.34   15.94   0
  -1  -3   7 1302.16   22.46   0
   0  -3   7  161.81   16.54   0
   1  -3   7  979.45   21.88   0
   2  -3   7  233.16   18.26   0
   3  -3   7  104.04   16.78   0
   4  -3   7  608.82   20.37   0
   5  -3   7    6.63   24.85   0
  -4  -2   7   22.32   21.72   0
  -3  -2   7  758.99   22.44   0
  -2  -2   7    8.33   17.24   0
  -1  -2   7  494.32   19.20   0
   0  -2   7  289.76   16.64   0
   1  -2   7   24.89   16.19   0
   2  -2   7 1567.73   25.52   0
   3  -2   7   15.43   16.66   0
   4  -2   7  108.36   17.99   0
   5  -2   7  175.81   21.19   0
  -4  -1   7   40.99   20.81   0
  -3  -1   7  378.68   19.59   0
  -2  -1   7  250.63   17.43   0
  -1  -1   7  189.68   17.77   0
   0  -1   7 3115.93   28.26   0
   1  -1   7   26.61   15.77   0
   2  -1   7  554.99   21.75   0
   3  -1   7  406.41   19.85   0
   4  -1   7   13.01   18.24   0
   5  -1   7  365.16   25.24   0
  -4   0   7    5.97   19.14   0
  -3   0   7   30.27   18.58   0
  -2   0   7  426.51   18.00   0
  -1   0   7  221.90   16.84   0
   0   0   7 1255.41   21.41   0
   1   0   7 1861.97   25.01   0
   2   0   7  157.41   17.73   0
   3   0   7 1122.26   22.96   0
   4   0   7   -7.42   18.50   0
   5   0   7  304.10   21.43   0
  -4   1   7  314.98   20.41   0
  -3   1   7   29.06   17.00   0
  -2   1   7  381.47   17.19   0
  -1   1   7    5.36   15.11   0
   0   1   7  347.17   16.18   0
   1   1   7 1246.18   22.51   0
   2   1   7  -14.47   18.65   0
   3   1   7  522.35   21.00   0
   4   1   7  170.34   18.89   0
   5   1   7   12.63   23.19   0
  -4   2   7  412.41   24.46   0
  -3   2   7  367.90   18.37   0
  -2   2   7  118.44   14.88   0
  -1   2   7  800.41   18.61   0
   0   2   7  197.34   17.21   0
   1   2   7  836.12   21.97   0
   2   2   7  547.72   21.86   0
   3   2   7    2.27   18.76   0
   4   2   7  543.53   24.80   0
   5   2   7    1.10   23.68   0
  -4   3   7   22.32   19.26   0
  -3   3   7  514.05   20.60   0
  -2   3   7  103.11   15.65   0
  -1   3   7 1341.73   23.06   0
   0   3   7   58.66   15.51   0
   1   3   7  191.73   17.24   0
   2   3   7 1316.90   26.02   0
   3   3   7   13.95   17.45   0
   4   3   7  255.13   18.70   0
   5   3   7  107.22   25.15   0
  -3   4   7  310.08   19.30   0
  -2   4   7  160.74   15.10   0
  -1   4   7  325.12   17.39   0
   0   4   7 2079.41   24.20   0
   1   4   7   49.52   16.27   0
   2   4   7  187.96   19.62   0
   3   4   7   94.86   22.36   0
   4   4   7   21.97   19.22   0
   5   4   7  144.61   24.44   0
  -3   5   7   38.49   18.39   0
  -2   5   7  668.63   20.09   0
  -1   5   7   21.50   16.32   0
   0   5   7 1116.16   20.45   0
   1   5   7  762.26   20.80   0
   2   5   7  192.47   18.49   0
   3   5   7  931.52   25.18   0
   4   5   7   37.84   22.29   0
  -3   6   7   87.74   21.44   0
  -2   6   7  187.11   18.43   0
  -1   6   7   81.25   17.70   0
   0   6   7   18.33   17.03   0
   1   6   7  514.17   19.11   0
   2   6   7   17.09   19.70   0
   3   6   7  738.35   23.02   0
   4   6   7  288.50   22.92   0
  -2   7   7   19.77   18.72   0
  -1   7   7  447.38   19.43   0
   0   7   7   22.71   16.67   0
   1   7   7  313.75   19.99   0
   2   7   7   33.12   21.37   0
   3   7   7   37.97   21.13   0
   4   7   7  282.50   25.68   0
  -2   8   7   43.50   18.90   0
  -1   8   7  442.09   20.38   0
   0   8   7  151.49   17.78   0
   1   8   7    7.90   19.42   0
   2   8   7  257.46   21.91   0
   3   8   7   11.46   24.15   0
   0   9   7  385.43   22.81   0
   1   9   7    3.40   21.66   0
   2   9   7   60.10   25.01   0
  -1  -8   8   84.32   20.14   0
   0  -8   8   21.81   21.50   0
   1  -8   8  414.87   21.98   0
  -2  -7   8    9.56   21.00   0
  -1  -7   8  516.63   21.76   0
   0  -7   8   19.57   20.01   0
   1  -7   8   29.20   20.17   0
   2  -7   8  367.66   21.87   0
   3  -7   8   24.56   23.42   0
  -2  -6   8   63.29   20.39   0
  -1  -6   8   51.50   17.82   0
   0  -6   8  683.47   22.94   0
   1  -6   8   15.58   17.92   0
   2  -6   8  289.79   20.50   0
   3  -6   8   34.75   19.92   0
  -3  -5   8  131.52   22.05   0
  -2  -5   8  165.05   19.94   0
  -1  -5   8  134.37   16.19   0
   0  -5   8  458.60   19.95   0
   1  -5   8   11.62   16.49   0
   2  -5   8   50.97   17.82   0
   3  -5   8  177.32   20.63   0
   4  -5   8   70.58   21.12   0
  -3  -4   8   36.91   19.07   0
  -2  -4   8  720.33   22.43   0
  -1  -4   8   18.79   16.28   0
   0  -4   8  290.43   17.18   0
   1  -4   8  870.51   21.07   0
   2  -4   8   74.22   18.50   0
   3  -4   8  380.42   20.80   0
   4  -4   8   12.72   19.75   0
  -3  -3   8   30.36   18.64   0
  -2  -3   8  300.44   18.74   0
  -1  -3   8  399.74   18.15   0
   0  -3   8   44.13   15.85   0
   1  -3   8 1635.00   23.45   0
   2  -3   8  173.15   17.37   0
   3  -3   8  107.77   20.10   0
   4  -3   8  364.89   20.49   0
  -4  -2   8   75.17   16.59   0
  -3  -2   8  138.93   20.65   0
  -2  -2   8   14.54   16.68   0
  -1  -2   8 1624.55   23.31   0
   0  -2   8   41.82   15.47   0
   1  -2   8  182.74   18.13   0
   2  -2   8  745.04   20.68   0
   3  -2   8   45.62   16.41   0
   4  -2   8  388.98   21.23   0
   5  -2   8   -5.79   23.45   0
  -4  -1   8   -4.72   20.19   0
  -3  -1   8  402.39   20.84   0
  -2  -1   8   37.09   15.31   0
  -1  -1   8  138.47   17.31   0
   0  -1   8 1050.22   21.25   0
   1  -1   8  143.91   16.89   0
   2  -1   8 2181.75   28.42   0
   3  -1   8   41.73   15.62   0
   4  -1   8   17.36   17.24   0
   5  -1   8  237.92   20.84   0
  -4   0   8   51.37   22.63   0
  -3   0   8  113.69   19.49   0
  -2   0   8  331.54   19.47   0
  -1   0   8  140.34   15.53   0
   0   0   8  255.09   16.81   0
   1   0   8   67.02   17.56   0
   2   0   8  475.75   19.56   0
   3   0   8 1613.93   24.61   0
   4   0   8    7.32   19.09   0
   5   0   8  162.94   22.04   0
  -4   1   8  132.55   21.53   0
  -3   1   8   34.78   20.06   0
  -2   1   8 1168.14   20.84   0
  -1   1   8   42.48   16.81   0
   0   1   8  193.56   16.96   0
   1   1   8  181.03   17.67   0
   2   1   8  296.69   19.09   0
   3   1   8  793.57   23.56   0
   4   1   8   93.77   20.70   0
   5   1   8    6.39   21.72   0
  -3   2   8    6.26   16.54   0
  -2   2   8  595.06   19.31   0
  -1   2   8 1364.50   21.30   0
   0   2   8   17.62   17.29   0
   1   2   8 1124.57   21.09   0
   2   2   8   16.06   18.45   0
   3   2   8   73.75   16.77   0
   4   2   8  375.00   20.59   0
   5   2   8   25.97   25.45   0
  -3   3   8   46.91   19.22   0
  -2   3   8   71.43   16.26   0
  -1   3   8 1406.69   21.21   0
   0   3   8  234.05   18.95   0
   1   3   8  265.32   17.49   0
   2   3   8  305.54   18.88   0
   3   3   8   66.31   19.56   0
   4   3   8  498.83   23.76   0
   5   3   8   17.47   21.37   0
  -3   4   8  617.90   22.14   0
  -2   4   8   13.36   17.37   0
  -1   4   8  221.39   18.16   0
   0   4   8  882.71   20.83   0
   1   4   8   77.77   17.28   0
   2   4   8 1282.71   26.70   0
   3   4   8   11.57   19.29   0
   4   4   8   28.98   19.66   0
  -3   5   8   60.43   18.78   0
  -2   5   8  114.79   18.05   0
  -1   5   8    6.58   16.73   0
   0   5   8  998.12   21.42   0
   1   5   8    3.23   16.73   0
   2   5   8  263.44   20.15   0
   3   5   8  731.35   25.63   0
   4   5   8   43.59   20.82   0
  -2   6   8  244.08   20.30   0
  -1   6   8  110.54   17.45   0
   0   6   8  190.70   18.93   0
   1   6   8  418.30   20.38   0
   2   6   8   94.52   18.90   0
   3   6   8  210.61   23.24   0
   4   6   8   32.89   21.66   0
  -2   7   8  231.46   19.21   0
  -1   7   8  161.03   18.20   0
   0   7   8   29.25   17.37   0
   1   7   8  689.87   23.10   0
   2   7   8   17.83   20.75   0
   3   7   8   34.53   20.25   0
  -1   8   8  270.84   21.03   0
   0   8   8   22.82   20.85   0
   1   8   8  156.11   20.07   0
   2   8   8  175.67   22.10   0
   3   8   8    4.04   22.65   0
   1   9   8   10.85   22.72   0
  -1  -7   9  244.21   21.72   0
   0  -7   9    4.70   19.68   0
   1  -7   9  330.14   20.99   0
   2  -7   9   92.52   21.48   0
  -2  -6   9   33.27   21.59   0
  -1  -6   9   42.22   19.94   0
   0  -6   9    0.45   19.30   0
   1  -6   9    6.82   18.70   0
   2  -6   9  631.31   24.72   0
   3  -6   9   35.53   19.61   0
  -2  -5   9  245.32   20.13   0
  -1  -5   9   84.82   17.90   0
   0  -5   9  396.57   19.86   0
   1  -5   9  133.59   19.15   0
   2  -5   9  215.91   20.17   0
   3  -5   9  145.90   20.19   0
  -3  -4   9   38.92   20.28   0
  -2  -4   9  632.67   22.30   0
  -1  -4   9   19.32   17.02   0
   0  -4   9  789.21   20.52   0
   1  -4   9  336.82   17.91   0
   2  -4   9   47.80   20.03   0
   3  -4   9  566.61   24.41   0
   4  -4   9   -0.87   23.65   0
  -3  -3   9  113.94   19.38   0
  -2  -3   9  303.89   18.11   0
  -1  -3   9  157.56   18.55   0
   0  -3   9   21.74   16.51   0
   1  -3   9  816.40   21.52   0
   2  -3   9   -7.47   17.41   0
   3  -3   9  513.50   21.87   0
   4  -3   9  117.64   20.15   0
  -3  -2   9   14.69   18.47   0
  -2  -2   9    1.99   17.31   0
  -1  -2   9  616.82   19.97   0
   0  -2   9    6.94   16.78   0
   1  -2   9  840.64   20.08   0
   2  -2   9  264.76   19.48   0
   3  -2   9   30.71   18.28   0
   4  -2   9  457.13   21.08   0
  -3  -1   9  198.16   18.86   0
  -2  -1   9   30.51   16.50   0
  -1  -1   9  520.94   18.74   0
   0  -1   9   97.00   15.70   0
   1  -1   9   13.22   15.42   0
   2  -1   9 1371.07   25.07   0
   3  -1   9   88.53   17.72   0
   4  -1   9  453.15   22.04   0
  -3   0   9  206.09   22.18   0
  -2   0   9   10.90   19.09   0
  -1   0   9  116.03   15.56   0
   0   0   9 1183.40   21.62   0
   1   0   9  372.06   17.48   0
   2   0   9   50.88   17.80   0
   3   0   9   83.72   19.00   0
   4   0   9   67.68   19.61   0
   5   0   9  353.95   25.70   0
  -3   1   9  112.85   17.88   0
  -2   1   9  584.15   20.81   0
  -1   1   9    7.25   16.85   0
   0   1   9 1563.31   23.74   0
   1   1   9  466.41   18.80   0
   2   1   9   -0.31   17.45   0
   3   1   9  250.02   20.92   0
   4   1   9   96.73   20.06   0
   5   1   9  120.95   21.99   0
  -3   2   9   36.59   19.57   0
  -2   2   9  321.43   18.00   0
  -1   2   9   80.53   16.74   0
   0   2   9  230.72   16.29   0
   1   2   9 1599.68   24.36   0
   2   2   9   19.34   17.57   0
   3   2   9  532.94   21.32   0
   4   2   9   97.07   24.09   0
   5   2   9   61.59   27.28   0
  -3   3   9  117.62   19.74   0
  -2   3   9   49.46   16.09   0
  -1   3   9  319.22   17.34   0
   0   3   9   24.13   17.29   0
   1   3   9 1186.59   23.34   0
   2   3   9  197.96   19.36   0
   3   3   9   11.81   20.45   0
   4   3   9  333.22   22.35   0
  -3   4   9  159.62   20.26   0
  -2   4   9    9.72   17.20   0
  -1   4   9  727.86   21.56   0
   0   4   9   99.10   16.06   0
   1   4   9   81.87   16.89   0
   2   4   9 1251.58   25.84   0
   3   4   9   11.78   19.68   0
   4   4   9  273.34   24.35   0
  -2   5   9   40.73   19.98   0
  -1   5   9   14.29   16.10   0
   0   5   9  438.79   20.73   0
   1   5   9    5.90   16.28   0
   2   5   9  440.29   21.29   0
   3   5   9   50.89   22.59   0
   4   5   9   26.48   23.68   0
  -2   6   9  507.85   20.24   0
  -1   6   9   48.78   18.37   0
   0   6   9   91.05   18.20   0
   1   6   9   30.98   17.63   0
   2   6   9   57.81   20.07   0
   3   6   9  358.91   22.58   0
  -1   7   9  190.98   21.14   0
   0   7   9   59.78   17.75   0
   1   7   9  240.84   19.64   0
   2   7   9   18.64   21.12   0
   3   7   9  270.80   22.78   0
   0   8   9   14.01   20.28   0
   1   8   9  203.26   21.23   0
   2   8   9   32.40   23.27   0
  -1  -6  10  588.55   23.63   0
   0  -6  10   19.42   19.49   0
   1  -6  10   23.77   21.04   0
   2  -6  10  106.70   22.11   0
  -2  -5  10   -0.96   21.59   0
  -1  -5  10  419.99   20.78   0
   0  -5  10  751.60   21.55   0
   1  -5  10    5.57   18.64   0
   2  -5  10  301.18   22.79   0
   3  -5  10    8.61   21.98   0
  -2  -4  10   31.90   19.81   0
  -1  -4  10    7.99   18.27   0
   0  -4  10  752.61   21.17   0
   1  -4  10   58.47   18.96   0
   2  -4  10  298.08   20.17   0
   3  -4  10  539.14   23.17   0
  -2  -3  10  176.99   20.39   0
  -1  -3  10   53.06   17.89   0
   0  -3  10  215.14   18.45   0
   1  -3  10  286.33   18.42   0
   2  -3  10   58.06   18.51   0
   3  -3  10  621.25   22.65   0
   4  -3  10   61.15   21.33   0
  -3  -2  10   24.87   19.98   0
  -2  -2  10  214.75   19.66   0
  -1  -2  10  201.03   19.52   0
   0  -2  10   24.42   17.25   0
   1  -2  10  868.64   21.35   0
   2  -2  10    3.43   18.43   0
   3  -2  10  113.56   17.71   0
   4  -2  10  344.06   22.12   0
  -3  -1  10   38.01   19.66   0
  -2  -1  10   41.22   17.69   0
  -1  -1  10  562.35   19.23   0
   0  -1  10   47.97   16.00   0
   1  -1  10  151.26   17.34   0
   2  -1  10  138.98   17.68   0
   3  -1  10   58.68   18.54   0
   4  -1  10  547.22   21.07   0
  -3   0  10  644.15   23.46   0
  -2   0  10   -0.32   17.43   0
  -1   0  10  139.50   17.94   0
   0   0  10  380.17   17.40   0
   1   0  10   32.30   18.89   0
   2   0  10  745.45   21.73   0
   3   0  10  158.09   20.98   0
   4   0  10    0.01   21.00   0
  -3   1  10  215.38   21.24   0
  -2   1  10  322.37   20.43   0
  -1   1  10   29.74   17.49   0
   0   1  10  878.93   21.91   0
   1   1  10   64.25   16.95   0
   2   1  10  687.34   21.52   0
   3   1  10  577.29   21.70   0
   4   1  10   51.07   20.65   0
  -3   2  10   19.53   19.22   0
  -2   2  10  411.61   18.70   0
  -1   2  10   15.91   16.16   0
   0   2  10  292.17   16.95   0
   1   2  10  471.29   19.81   0
   2   2  10    6.77   17.84   0
   3   2  10  730.09   23.00   0
   4   2  10   11.85   21.52   0
  -2   3  10  326.20   20.29   0
  -1   3  10  274.50   18.13   0
   0   3  10   12.03   16.68   0
   1   3  10  836.56   21.82   0
   2   3  10   44.83   18.71   0
   3   3  10  216.78   21.99   0
   4   3  10  100.80   23.47   0
  -2   4  10   26.73   20.30   0
  -1   4  10  379.46   18.52   0
   0   4  10   10.19   17.75   0
   1   4  10  252.27   20.35   0
   2   4  10  389.69   22.62   0
   3   4  10   26.85   20.81   0
   4   4  10  457.94   28.21   0
  -2   5  10   65.05   18.54   0
  -1   5  10  150.83   19.27   0
   0   5  10    7.77   18.35   0
   1   5  10  125.37   21.02   0
   2   5  10  405.18   22.09   0
   3   5  10   22.65   24.57   0
  -1   6  10  238.15   21.21   0
   0   6  10  805.18   22.85   0
   1   6  10   89.51   20.94   0
   2   6  10   28.26   20.83   0
   3   6  10  115.25   26.63   0
   0   7  10  529.17   23.53   0
   1   7  10  304.19   22.04   0
   2   7  10    6.79   24.54   0
  -1  -5  11  167.21   19.05   0
   0  -5  11   76.96   22.72   0
   1  -5  11  178.66   22.12   0
   2  -5  11  638.06   24.59   0
  -1  -4  11   20.40   20.85   0
   0  -4  11  269.42   19.11   0
   1  -4  11   37.42   19.65   0
   2  -4  11  256.85   23.04   0
   3  -4  11  110.88   23.62   0
  -2  -3  11  244.51   19.27   0
  -1  -3  11   50.88   20.12   0
   0  -3  11  345.08   21.69   0
   1  -3  11   84.42   19.48   0
   2  -3  11    9.80   19.20   0
   3  -3  11  203.67   22.30   0
  -2  -2  11  298.01   20.01   0
  -1  -2  11   19.40   20.48   0
   0  -2  11   17.03   18.32   0
   1  -2  11  571.20   20.28   0
   2  -2  11   11.15   20.16   0
   3  -2  11  355.15   21.65   0
   4  -2  11   13.20   23.89   0
  -2  -1  11  130.69   21.95   0
  -1  -1  11  223.58   19.39   0
   0  -1  11  127.70   19.34   0
   1  -1  11  473.75   20.54   0
   2  -1  11   45.70   18.98   0
   3  -1  11   23.55   21.20   0
   4  -1  11  200.05   24.96   0
  -2   0  11  135.98   20.88   0
  -1   0  11 1120.10   22.99   0
   0   0  11   36.13   17.15   0
   1   0  11   28.48   16.07   0
   2   0  11  719.12   22.22   0
   3   0  11   17.56   19.01   0
   4   0  11  172.40   20.91   0
  -2   1  11   23.98   20.28   0
  -1   1  11  201.44   18.93   0
   0   1  11  945.19   21.43   0
   1   1  11   56.54   16.10   0
   2   1  11  487.32   21.58   0
   3   1  11  100.58   20.78   0
   4   1  11   87.27   23.63   0
  -2   2  11  115.33   20.54   0
  -1   2  11   60.79   19.57   0
   0   2  11  376.26   19.58   0
   1   2  11   56.80   19.30   0
   2   2  11   85.24   18.47   0
   3   2  11  481.04   22.95   0
   4   2  11   40.81   23.67   0
  -2   3  11  219.79   18.92   0
  -1   3  11   35.49   19.37   0
   0   3  11  100.16   18.55   0
   1   3  11  313.62   20.03   0
   2   3  11   35.76   20.52   0
   3   3  11  637.20   24.08   0
   4   3  11  108.00   25.66   0
  -2   4  11   73.92   21.97   0
  -1   4  11  183.03   19.94   0
   0   4  11   47.52   17.82   0
   1   4  11  302.19   20.31   0
   2   4  11   18.40   21.35   0
   3   4  11   29.39   20.60   0
  -1   5  11  673.84   23.01   0
   0   5  11  114.31   19.56   0
   1   5  11   16.97   20.10   0
   2   5  11   78.53   21.52   0
   3   5  11   79.14   22.67   0
   0   6  11  672.25   21.15   0
   1   6  11  142.36   22.15   0
   2   6  11  275.53   24.34   0
   0  -4  12   43.85   22.00   0
   1  -4  12    0.42   21.84   0
   2  -4  12  225.53   22.73   0
  -1  -3  12   37.45   19.66   0
   0  -3  12  263.60   22.51   0
   1  -3  12   39.03   19.84   0
   2  -3  12  191.18   22.82   0
  -1  -2  12    4.16   19.27   0
   0  -2  12  220.59   21.57   0
   1  -2  12   60.56   19.20   0
   2  -2  12   22.07   21.61   0
   3  -2  12  425.20   22.84   0
  -1  -1  12  368.46   20.75   0
   0  -1  12   41.66   19.08   0
   1  -1  12  417.41   19.79   0
   2  -1  12   26.74   19.27   0
   3  -1  12  103.93   19.34   0
  -1   0  12  638.22   22.86   0
   0   0  12  166.92   18.59   0
   1   0  12  593.47   22.10   0
   2   0  12  160.49   22.15   0
   3   0  12   -2.17   20.65   0
  -1   1  12   33.95   19.81   0
   0   1  12   57.48   19.01   0
   1   1  12   63.79   20.40   0
   2   1  12  642.12   22.68   0
   3   1  12    2.06   23.40   0
  -1   2  12   23.95   21.13   0
   0   2  12  336.62   21.33   0
   1   2  12   68.91   18.36   0
   2   2  12  113.01   20.30   0
   3   2  12  180.21   22.52   0
  -1   3  12   22.25   20.81   0
   0   3  12  361.98   20.67   0
   1   3  12  207.10   20.72   0
   2   3  12   16.49   20.65   0
   3   3  12  175.73   25.64   0
  -1   4  12   50.79   19.47   0
   0   4  12    7.96   19.43   0
   1   4  12  437.35   22.71   0
   2   4  12   20.43   21.59   0
   3   4  12   35.91   21.41   0
   0   5  12   28.86   20.05   0
   1   5  12  457.95   22.79   0
   2   5  12  123.30   22.58   0
   1  -3  13   22.31   21.88   0
   0  -2  13  484.80   24.38   0
   1  -2  13   48.35   22.09   0
   2  -2  13   22.81   22.09   0
   0  -1  13  204.16   22.31   0
   1  -1  13  491.32   24.76   0
   2  -1  13   21.00   21.65   0
   0   0  13   49.70   19.55   0
   1   0  13  582.72   22.94   0
   2   0  13   82.49   23.08   0
   0   1  13   40.61   19.95   0
   1   1  13   39.60   21.33   0
   2   1  13  131.86   21.17   0
   0   2  13  288.54   21.19   0
   1   2  13   13.91   20.43   0
   2   2  13  217.55   23.52   0
   0   3  13  168.08   20.49   0
   1   3  13    9.38   20.83   0
   2   3  13  152.70   22.96   0
   1   4  13  106.37   21.03   0
;
_shelx_hkl_checksum              19861
loop_
_symmetry_equiv_pos_as_xyz
'x, y, z'
'-x, -y, -z'
loop_
_atom_site_label
_atom_site_type_symbol
_atom_site_fract_x
_atom_site_fract_y
_atom_site_fract_z
_atom_site_U_iso_or_equiv
_atom_site_adp_type
_atom_site_occupancy
_atom_site_site_symmetry_order
_atom_site_calc_flag
_atom_site_refinement_flags_posn
_atom_site_refinement_flags_adp
_atom_site_refinement_flags_occupancy
Cr1 Cr 1.0000 0.0000 1.0000 0.0105(3) Uani 1 2 d S . P
Cl1 Cl 1.3879(3) -0.19611(14) 1.11958(11) 0.0127(3) Uani 1 1 d . . .
O1 O 0.9084(9) 0.1644(4) 1.1796(3) 0.0155(7) Uani 1 1 d . . .
C4 C 0.9287(12) 0.3652(6) 1.1729(5) 0.0124(9) Uani 1 1 d . . .
H4A H 0.7982 0.4224 1.0992 0.015 Uiso 1 1 calc R U .
H4B H 1.1702 0.4012 1.1466 0.015 Uiso 1 1 calc R U .
C1 C 0.7760(13) 0.0964(6) 1.3277(5) 0.0135(10) Uani 1 1 d . . .
H1A H 0.9055 -0.0174 1.3537 0.016 Uiso 1 1 calc R U .
H1B H 0.5304 0.0691 1.3384 0.016 Uiso 1 1 calc R U .
C2 C 0.8247(12) 0.2526(7) 1.4233(5) 0.0136(10) Uani 1 1 d . . .
H2A H 1.0576 0.2453 1.4485 0.016 Uiso 1 1 calc R U .
H2B H 0.6528 0.2511 1.5147 0.016 Uiso 1 1 calc R U .
C3 C 0.7725(12) 0.4257(6) 1.3256(5) 0.0125(10) Uani 1 1 d . . .
H3A H 0.5259 0.4608 1.3322 0.015 Uiso 1 1 calc R U .
H3B H 0.8928 0.5315 1.3530 0.015 Uiso 1 1 calc R U .
loop_
_atom_site_aniso_label
_atom_site_aniso_U_11
_atom_site_aniso_U_22
_atom_site_aniso_U_33
_atom_site_aniso_U_23
_atom_site_aniso_U_13
_atom_site_aniso_U_12
Cr1 0.0157(6) 0.0077(5) 0.0086(6) -0.0021(4) -0.0039(4) 0.0041(4)
Cl1 0.0145(6) 0.0105(6) 0.0137(6) 0.0005(4) -0.0046(4) 0.0016(4)
O1 0.0308(19) 0.0069(15) 0.0075(16) 0.0003(12) -0.0004(14) 0.0013(14)
C4 0.017(2) 0.007(2) 0.013(2) 0.0001(17) -0.0015(18) -0.0023(17)
C1 0.018(2) 0.012(2) 0.009(2) 0.0020(17) 0.0014(18) 0.0028(18)
C2 0.013(2) 0.016(2) 0.011(2) -0.0008(18) -0.0013(18) 0.0023(18)
C3 0.012(2) 0.010(2) 0.016(2) -0.0053(18) -0.0020(18) 0.0005(17)
loop_
_atom_type_symbol
_atom_type_description
_atom_type_scat_dispersion_real
_atom_type_scat_dispersion_imag
_atom_type_scat_source
C C 0.0033 0.0016 'International Tables Vol C Tables 4.2.6.8 and 6.1.1.4'
H H 0.0000 0.0000 'International Tables Vol C Tables 4.2.6.8 and 6.1.1.4'
O O 0.0106 0.0060 'International Tables Vol C Tables 4.2.6.8 and 6.1.1.4'
Cl Cl 0.1484 0.1585 'International Tables Vol C Tables 4.2.6.8 and 6.1.1.4'
Cr Cr 0.3209 0.6236 'International Tables Vol C Tables 4.2.6.8 and 6.1.1.4'
loop_
_geom_angle_atom_site_label_1
_geom_angle_atom_site_label_2
_geom_angle_atom_site_label_3
_geom_angle
_geom_angle_site_symmetry_1
_geom_angle_site_symmetry_3
O1 Cr1 O1 180.0 2_757 .
O1 Cr1 Cl1 90.52(10) 2_757 .
O1 Cr1 Cl1 89.48(10) . .
O1 Cr1 Cl1 89.48(10) 2_757 2_757
O1 Cr1 Cl1 90.52(10) . 2_757
Cl1 Cr1 Cl1 180.0 . 2_757
C1 O1 C4 110.8(3) . .
C1 O1 Cr1 123.9(3) . .
C4 O1 Cr1 125.0(3) . .
O1 C4 C3 105.4(4) . .
O1 C4 H4A 110.7 . .
C3 C4 H4A 110.7 . .
O1 C4 H4B 110.7 . .
C3 C4 H4B 110.7 . .
H4A C4 H4B 108.8 . .
O1 C1 C2 104.5(4) . .
O1 C1 H1A 110.8 . .
C2 C1 H1A 110.8 . .
O1 C1 H1B 110.8 . .
C2 C1 H1B 110.8 . .
H1A C1 H1B 108.9 . .
C1 C2 C3 102.8(4) . .
C1 C2 H2A 111.2 . .
C3 C2 H2A 111.2 . .
C1 C2 H2B 111.2 . .
C3 C2 H2B 111.2 . .
H2A C2 H2B 109.1 . .
C4 C3 C2 103.1(4) . .
C4 C3 H3A 111.1 . .
C2 C3 H3A 111.1 . .
C4 C3 H3B 111.1 . .
C2 C3 H3B 111.1 . .
H3A C3 H3B 109.1 . .
loop_
_geom_bond_atom_site_label_1
_geom_bond_atom_site_label_2
_geom_bond_distance
_geom_bond_site_symmetry_2
Cr1 O1 2.070(3) 2_757
Cr1 O1 2.070(3) .
Cr1 Cl1 2.4133(10) .
Cr1 Cl1 2.4133(10) 2_757
O1 C1 1.451(5) .
O1 C4 1.457(5) .
C4 C3 1.522(6) .
C4 H4A 0.9900 .
C4 H4B 0.9900 .
C1 C2 1.514(7) .
C1 H1A 0.9900 .
C1 H1B 0.9900 .
C2 C3 1.533(6) .
C2 H2A 0.9900 .
C2 H2B 0.9900 .
C3 H3A 0.9900 .
C3 H3B 0.9900 .
loop_
_geom_torsion_atom_site_label_1
_geom_torsion_atom_site_label_2
_geom_torsion_atom_site_label_3
_geom_torsion_atom_site_label_4
_geom_torsion
C1 O1 C4 C3 -4.4(5)
Cr1 O1 C4 C3 168.9(3)
C4 O1 C1 C2 -18.4(5)
Cr1 O1 C1 C2 168.2(3)
O1 C1 C2 C3 33.3(5)
O1 C4 C3 C2 25.0(5)
C1 C2 C3 C4 -35.7(5)
