#------------------------------------------------------------------------------
#$Date: 2015-09-05 23:46:15 +0300 (Sat, 05 Sep 2015) $
#$Revision: 154564 $
#$URL: svn://www.crystallography.net/cod/cif/4/51/33/4513339.cif $
#------------------------------------------------------------------------------
#
# This file is available in the Crystallography Open Database (COD),
# http://www.crystallography.net/
#
# All data on this site have been placed in the public domain by the
# contributors.
#
data_4513339
loop_
_publ_author_name
'L\'opez-Mej\'ias, Vilmal\'i'
'Matzger, Adam J.'
_publ_section_title
;
 Structure--Polymorphism Study of Fenamates: Toward Developing an
 Understanding of the Polymorphophore
;
_journal_issue                   8
_journal_name_full               'Crystal Growth &amp; Design'
_journal_page_first              3955
_journal_paper_doi               10.1021/acs.cgd.5b00570
_journal_volume                  15
_journal_year                    2015
_chemical_formula_moiety         'C13 H10 Cl N O2'
_chemical_formula_sum            'C13 H10 Cl N O2'
_chemical_formula_weight         247.67
_chemical_name_systematic
;
 ?
;
_space_group_IT_number           2
_symmetry_cell_setting           triclinic
_symmetry_space_group_name_Hall  '-P 1'
_symmetry_space_group_name_H-M   'P -1'
_atom_sites_solution_hydrogens   geom
_atom_sites_solution_primary     direct
_atom_sites_solution_secondary   difmap
_audit_creation_method           SHELXL-97
_cell_angle_alpha                91.314(6)
_cell_angle_beta                 90.823(6)
_cell_angle_gamma                97.691(7)
_cell_formula_units_Z            2
_cell_length_a                   3.80660(10)
_cell_length_b                   11.1261(3)
_cell_length_c                   13.2491(9)
_cell_measurement_reflns_used    6798
_cell_measurement_temperature    85(2)
_cell_measurement_theta_max      67.90
_cell_measurement_theta_min      3.30
_cell_volume                     555.85(4)
_computing_cell_refinement       'CrystalClear-SM Expert 2.0 r5'
_computing_data_collection
'CrystalClear-SM Expert 2.0 r5 (Rigaku, 2010)'
_computing_data_reduction        'CrystalClear-SM Expert 2.0 r5'
_computing_molecular_graphics    'Bruker SHELXTL'
_computing_publication_material  'Bruker SHELXTL'
_computing_structure_refinement  'SHELXL-97 (Sheldrick, 2008)'
_computing_structure_solution    'SHELXS-97 (Sheldrick, 2008)'
_diffrn_ambient_temperature      85(2)
_diffrn_detector_area_resol_mean 14.629
_diffrn_measured_fraction_theta_full 0.964
_diffrn_measured_fraction_theta_max 0.964
_diffrn_measurement_device_type  'Rigaku Saturn 944+ CCD, 2x2 bin mode'
_diffrn_measurement_method       \w
_diffrn_radiation_monochromator  confocal
_diffrn_radiation_source         'micro-source rotating anode'
_diffrn_radiation_type           CuK\a
_diffrn_radiation_wavelength     1.54187
_diffrn_reflns_av_R_equivalents  0.0756
_diffrn_reflns_av_sigmaI/netI    0.0652
_diffrn_reflns_limit_h_max       4
_diffrn_reflns_limit_h_min       -4
_diffrn_reflns_limit_k_max       11
_diffrn_reflns_limit_k_min       -12
_diffrn_reflns_limit_l_max       15
_diffrn_reflns_limit_l_min       -15
_diffrn_reflns_number            9458
_diffrn_reflns_theta_full        67.90
_diffrn_reflns_theta_max         67.90
_diffrn_reflns_theta_min         3.34
_exptl_absorpt_coefficient_mu    2.949
_exptl_absorpt_correction_T_max  0.9854
_exptl_absorpt_correction_T_min  0.9299
_exptl_absorpt_correction_type   multi-scan
_exptl_absorpt_process_details   'Jacobson, R. (1998) Private communication'
_exptl_crystal_colour            colorless
_exptl_crystal_density_diffrn    1.480
_exptl_crystal_density_method    'not measured'
_exptl_crystal_description       prism
_exptl_crystal_F_000             256
_exptl_crystal_size_max          0.03
_exptl_crystal_size_mid          0.03
_exptl_crystal_size_min          0.01
_refine_diff_density_max         0.416
_refine_diff_density_min         -0.506
_refine_diff_density_rms         0.104
_refine_ls_extinction_coef       none
_refine_ls_extinction_expression Fc^*^=kFc[1+0.001xFc^2^\l^3^/sin(2\q)]^-1/4^
_refine_ls_extinction_method     SHELXL
_refine_ls_goodness_of_fit_ref   1.157
_refine_ls_hydrogen_treatment    mixed
_refine_ls_matrix_type           full
_refine_ls_number_parameters     162
_refine_ls_number_reflns         1962
_refine_ls_number_restraints     0
_refine_ls_restrained_S_all      1.157
_refine_ls_R_factor_all          0.0779
_refine_ls_R_factor_gt           0.0640
_refine_ls_shift/su_max          0.006
_refine_ls_shift/su_mean         0.000
_refine_ls_structure_factor_coef Fsqd
_refine_ls_weighting_details
'calc w=1/[\s^2^(Fo^2^)+(0.0627P)^2^+2.0208P] where P=(Fo^2^+2Fc^2^)/3'
_refine_ls_weighting_scheme      calc
_refine_ls_wR_factor_gt          0.1827
_refine_ls_wR_factor_ref         0.1935
_reflns_number_gt                1554
_reflns_number_total             1962
_reflns_threshold_expression     >2sigma(I)
_cod_data_source_file            cg5b00570_si_002.cif
_cod_data_source_block           TAanalogue2-formI
_cod_depositor_comments
'Adding full bibliography for 4513336--4513344.cif.'
_cod_database_code               4513339
loop_
_symmetry_equiv_pos_as_xyz
'x, y, z'
'-x, -y, -z'
loop_
_atom_site_label
_atom_site_type_symbol
_atom_site_fract_x
_atom_site_fract_y
_atom_site_fract_z
_atom_site_U_iso_or_equiv
_atom_site_adp_type
_atom_site_occupancy
_atom_site_symmetry_multiplicity
_atom_site_calc_flag
_atom_site_refinement_flags
N1 N 0.0155(10) 0.2968(4) 0.1842(3) 0.0222(9) Uani 1 1 d .
Cl1 Cl 0.0255(3) 0.67230(11) 0.41931(8) 0.0278(4) Uani 1 1 d .
O1 O -0.3668(9) -0.0686(3) 0.1135(2) 0.0256(8) Uani 1 1 d .
O2 O -0.2967(8) 0.1219(3) 0.0587(2) 0.0254(8) Uani 1 1 d .
C1 C -0.2491(11) 0.0485(4) 0.1258(3) 0.0201(10) Uani 1 1 d .
C2 C -0.0632(11) 0.0825(4) 0.2217(3) 0.0185(9) Uani 1 1 d .
C3 C -0.0099(11) -0.0093(4) 0.2886(3) 0.0218(10) Uani 1 1 d .
H3A H -0.0979 -0.0909 0.2703 0.026 Uiso 1 1 calc R
C4 C 0.1648(12) 0.0144(4) 0.3798(3) 0.0232(10) Uani 1 1 d .
H4A H 0.1961 -0.0492 0.4243 0.028 Uiso 1 1 calc R
C5 C 0.2953(11) 0.1350(4) 0.4052(3) 0.0224(10) Uani 1 1 d .
H5A H 0.4188 0.1532 0.4677 0.027 Uiso 1 1 calc R
C6 C 0.2482(11) 0.2274(4) 0.3416(3) 0.0210(10) Uani 1 1 d .
H6A H 0.3421 0.3083 0.3607 0.025 Uiso 1 1 calc R
C7 C 0.0645(11) 0.2051(4) 0.2489(3) 0.0181(9) Uani 1 1 d .
C8 C 0.1019(11) 0.4227(4) 0.2021(3) 0.0204(10) Uani 1 1 d .
C9 C 0.0372(11) 0.4791(4) 0.2944(3) 0.0212(10) Uani 1 1 d .
H9A H -0.0603 0.4326 0.3490 0.025 Uiso 1 1 calc R
C10 C 0.1184(11) 0.6044(4) 0.3044(3) 0.0226(10) Uani 1 1 d .
C11 C 0.2622(12) 0.6748(4) 0.2273(4) 0.0251(10) Uani 1 1 d .
H11A H 0.3195 0.7601 0.2365 0.030 Uiso 1 1 calc R
C12 C 0.3213(12) 0.6185(4) 0.1361(4) 0.0250(11) Uani 1 1 d .
H12A H 0.4162 0.6658 0.0816 0.030 Uiso 1 1 calc R
C13 C 0.2433(12) 0.4934(4) 0.1234(3) 0.0230(10) Uani 1 1 d .
H13A H 0.2867 0.4559 0.0605 0.028 Uiso 1 1 calc R
H1N H -0.053(17) 0.261(6) 0.119(5) 0.057(19) Uiso 1 1 d .
H1 H -0.48(3) -0.082(9) 0.044(8) 0.13(4) Uiso 1 1 d .
loop_
_atom_site_aniso_label
_atom_site_aniso_U_11
_atom_site_aniso_U_22
_atom_site_aniso_U_33
_atom_site_aniso_U_23
_atom_site_aniso_U_13
_atom_site_aniso_U_12
N1 0.0266(19) 0.019(2) 0.0202(19) -0.0011(15) -0.0017(16) -0.0003(15)
Cl1 0.0277(6) 0.0262(7) 0.0289(7) -0.0077(5) 0.0037(4) 0.0027(5)
O1 0.0339(18) 0.0181(19) 0.0232(17) -0.0023(13) -0.0046(14) -0.0011(14)
O2 0.0341(18) 0.0202(18) 0.0205(16) -0.0006(13) -0.0047(14) -0.0012(14)
C1 0.023(2) 0.016(3) 0.021(2) -0.0013(18) 0.0037(18) 0.0005(17)
C2 0.019(2) 0.019(2) 0.017(2) -0.0015(17) 0.0022(17) 0.0012(17)
C3 0.022(2) 0.019(3) 0.024(2) -0.0012(18) 0.0034(18) 0.0028(18)
C4 0.026(2) 0.024(3) 0.021(2) 0.0013(18) -0.0008(18) 0.0056(19)
C5 0.019(2) 0.027(3) 0.021(2) -0.0035(18) 0.0022(17) 0.0027(18)
C6 0.021(2) 0.019(2) 0.023(2) -0.0037(18) 0.0004(17) 0.0012(18)
C7 0.018(2) 0.019(2) 0.017(2) -0.0015(17) 0.0016(16) 0.0022(17)
C8 0.020(2) 0.017(2) 0.024(2) -0.0035(18) -0.0024(17) 0.0004(17)
C9 0.017(2) 0.025(3) 0.022(2) 0.0015(18) 0.0019(17) 0.0018(18)
C10 0.019(2) 0.025(3) 0.025(2) -0.0023(19) -0.0019(18) 0.0049(18)
C11 0.024(2) 0.016(3) 0.035(3) 0.0000(19) 0.004(2) 0.0013(18)
C12 0.023(2) 0.023(3) 0.029(2) 0.0051(19) 0.0058(19) 0.0000(19)
C13 0.024(2) 0.024(3) 0.021(2) -0.0003(18) 0.0031(18) 0.0036(19)
loop_
_atom_type_symbol
_atom_type_description
_atom_type_scat_dispersion_real
_atom_type_scat_dispersion_imag
_atom_type_scat_source
C C 0.0181 0.0091 'International Tables Vol C Tables 4.2.6.8 and 6.1.1.4'
H H 0.0000 0.0000 'International Tables Vol C Tables 4.2.6.8 and 6.1.1.4'
N N 0.0311 0.0180 'International Tables Vol C Tables 4.2.6.8 and 6.1.1.4'
O O 0.0492 0.0322 'International Tables Vol C Tables 4.2.6.8 and 6.1.1.4'
Cl Cl 0.3639 0.7018 'International Tables Vol C Tables 4.2.6.8 and 6.1.1.4'
loop_
_geom_angle_atom_site_label_1
_geom_angle_atom_site_label_2
_geom_angle_atom_site_label_3
_geom_angle
C7 N1 C8 127.5(4)
O2 C1 O1 120.9(4)
O2 C1 C2 124.0(4)
O1 C1 C2 115.1(4)
C3 C2 C7 119.2(4)
C3 C2 C1 118.5(4)
C7 C2 C1 122.3(4)
C4 C3 C2 122.4(4)
C3 C4 C5 118.1(4)
C6 C5 C4 121.2(4)
C5 C6 C7 121.5(4)
N1 C7 C6 122.2(4)
N1 C7 C2 120.2(4)
C6 C7 C2 117.6(4)
C13 C8 C9 119.2(4)
C13 C8 N1 118.3(4)
C9 C8 N1 122.5(4)
C10 C9 C8 118.8(4)
C11 C10 C9 122.3(4)
C11 C10 Cl1 120.0(4)
C9 C10 Cl1 117.6(3)
C10 C11 C12 118.5(4)
C11 C12 C13 120.7(4)
C12 C13 C8 120.5(4)
loop_
_geom_bond_atom_site_label_1
_geom_bond_atom_site_label_2
_geom_bond_distance
N1 C7 1.377(6)
N1 C8 1.409(6)
Cl1 C10 1.745(5)
O1 C1 1.326(5)
O2 C1 1.248(5)
C1 C2 1.462(6)
C2 C3 1.401(6)
C2 C7 1.421(6)
C3 C4 1.373(6)
C4 C5 1.398(7)
C5 C6 1.373(6)
C6 C7 1.405(6)
C8 C13 1.392(6)
C8 C9 1.401(6)
C9 C10 1.390(7)
C10 C11 1.376(6)
C11 C12 1.384(7)
C12 C13 1.389(7)
loop_
_geom_hbond_atom_site_label_D
_geom_hbond_atom_site_label_H
_geom_hbond_atom_site_label_A
_geom_hbond_distance_DH
_geom_hbond_distance_HA
_geom_hbond_distance_DA
_geom_hbond_angle_DHA
_geom_hbond_site_symmetry_A
N1 H1N O2 0.96(7) 1.85(7) 2.672(5) 141(6) .
O1 H1 O2 1.02(11) 1.61(11) 2.617(4) 171(9) 2_455
