#------------------------------------------------------------------------------
#$Date: 2016-02-13 14:50:18 +0200 (Sat, 13 Feb 2016) $
#$Revision: 176428 $
#$URL: svn://www.crystallography.net/cod/cif/4/51/35/4513599.cif $
#------------------------------------------------------------------------------
#
# This file is available in the Crystallography Open Database (COD),
# http://www.crystallography.net/
#
# All data on this site have been placed in the public domain by the
# contributors.
#
data_4513599
loop_
_publ_author_name
'Dobrzycki, Lukasz'
'Taraszewska, Paulina'
'Boese, Roland'
'Cyra\'nski, Micha\/l K.'
_publ_section_title
;
 Pyrrolidine and Its Hydrates in the Solid State
;
_journal_issue                   10
_journal_name_full               'Crystal Growth &amp; Design'
_journal_page_first              4804
_journal_paper_doi               10.1021/acs.cgd.5b00527
_journal_volume                  15
_journal_year                    2015
_chemical_formula_sum            'C4 H21 N O6'
_chemical_formula_weight         179.22
_chemical_name_common            'Pyrrolidine hexahydrate - LT phase at 150K'
_chemical_name_systematic
; 
 Pyrrolidine hexahydrate - low temperature phase at 150K  
;
_space_group_IT_number           11
_symmetry_cell_setting           monoclinic
_symmetry_space_group_name_Hall  '-P 2yb'
_symmetry_space_group_name_H-M   'P 1 21/m 1'
_atom_sites_solution_hydrogens   geom
_atom_sites_solution_primary     direct
_atom_sites_solution_secondary   difmap
_cell_angle_alpha                90.00
_cell_angle_beta                 103.605(4)
_cell_angle_gamma                90.00
_cell_formula_units_Z            2
_cell_length_a                   7.7773(12)
_cell_length_b                   8.1088(12)
_cell_length_c                   8.6962(13)
_cell_measurement_reflns_used    4322
_cell_measurement_temperature    150(2)
_cell_measurement_theta_max      26.894
_cell_measurement_theta_min      2.410
_cell_volume                     533.03(14)
_computing_cell_refinement       'SAINT V8.27B (Bruker AXS Inc., 2012)'
_computing_data_collection       'APEX2 v2013.2-0 (Bruker AXS Inc., 2012)'
_computing_data_reduction        'SAINT V8.27B (Bruker AXS Inc., 2012)'
_computing_molecular_graphics    'Diamond 2.1 (Branderburg & Putz, 2012)'
_computing_publication_material  'APEX2 v2013.2-0 (Bruker AXS Inc., 2012)'
_computing_structure_refinement  'SHELXL-97 (Sheldrick, 2008)'
_computing_structure_solution    'SHELXS-97 (Sheldrick, 2008)'
_diffrn_ambient_temperature      150(2)
_diffrn_detector_area_resol_mean 10.4167
_diffrn_measured_fraction_theta_full 0.941
_diffrn_measured_fraction_theta_max 0.941
_diffrn_measurement_device_type  'Bruker D8 Venture CMOS area-detector'
_diffrn_measurement_method       'phi scan'
_diffrn_radiation_monochromator  'Bruker Triumph'
_diffrn_radiation_source         'fine-focus sealed tube'
_diffrn_radiation_type           MoK\a
_diffrn_radiation_wavelength     0.71073
_diffrn_reflns_av_R_equivalents  0.0000
_diffrn_reflns_av_sigmaI/netI    0.0137
_diffrn_reflns_limit_h_max       9
_diffrn_reflns_limit_h_min       -9
_diffrn_reflns_limit_k_max       8
_diffrn_reflns_limit_k_min       0
_diffrn_reflns_limit_l_max       10
_diffrn_reflns_limit_l_min       0
_diffrn_reflns_number            963
_diffrn_reflns_theta_full        25.05
_diffrn_reflns_theta_max         25.05
_diffrn_reflns_theta_min         2.41
_exptl_absorpt_coefficient_mu    0.103
_exptl_absorpt_correction_T_max  0.9698
_exptl_absorpt_correction_T_min  0.9409
_exptl_absorpt_correction_type   multi-scan
_exptl_absorpt_process_details
;
TWINABS V2012/1 (Bruker AXS Inc.) 
;
_exptl_crystal_colour            colourless
_exptl_crystal_density_diffrn    1.117
_exptl_crystal_density_method    'not measured'
_exptl_crystal_description       cylindical
_exptl_crystal_F_000             200
_exptl_crystal_size_max          0.60
_exptl_crystal_size_mid          0.30
_exptl_crystal_size_min          0.30
_refine_diff_density_max         0.225
_refine_diff_density_min         -0.262
_refine_diff_density_rms         0.055
_refine_ls_extinction_method     none
_refine_ls_goodness_of_fit_ref   1.186
_refine_ls_hydrogen_treatment    mixed
_refine_ls_matrix_type           full
_refine_ls_number_parameters     80
_refine_ls_number_reflns         963
_refine_ls_number_restraints     9
_refine_ls_restrained_S_all      1.195
_refine_ls_R_factor_all          0.0472
_refine_ls_R_factor_gt           0.0434
_refine_ls_shift/su_max          0.000
_refine_ls_shift/su_mean         0.000
_refine_ls_structure_factor_coef Fsqd
_refine_ls_weighting_details
'calc w=1/[\s^2^(Fo^2^)+(0.0450P)^2^+0.4115P] where P=(Fo^2^+2Fc^2^)/3'
_refine_ls_weighting_scheme      calc
_refine_ls_wR_factor_gt          0.1149
_refine_ls_wR_factor_ref         0.1184
_reflns_number_gt                859
_reflns_number_total             963
_reflns_threshold_expression     >2sigma(I)
_cod_data_source_file            cg5b00527_si_001.cif
_cod_data_source_block           Pyrrolidine_hexahydrate_LT_150K
_cod_depositor_comments
;
The following automatic conversions were performed:

'_symmetry_cell_setting' value 'Monoclinic' changed to 'monoclinic'
according to
/usr/data/users/saulius/crontab/automatic-downloads/rss-feeds/ACS/lib/dictionaries/cif_core.dic
dictionary named 'cif_core.dic' version 2.4.2 from 2011-04-26.

Automatic conversion script
Id: cif_fix_values 3271 2015-04-21 07:52:19Z andrius 

 Adding full bibliography for 4513593--4513603.cif.
;
_cod_original_sg_symbol_H-M      P21/m
_cod_database_code               4513599
loop_
_symmetry_equiv_pos_as_xyz
'x, y, z'
'-x, y+1/2, -z'
'-x, -y, -z'
'x, -y-1/2, z'
loop_
_atom_site_label
_atom_site_type_symbol
_atom_site_fract_x
_atom_site_fract_y
_atom_site_fract_z
_atom_site_U_iso_or_equiv
_atom_site_adp_type
_atom_site_occupancy
_atom_site_symmetry_multiplicity
_atom_site_calc_flag
_atom_site_refinement_flags
O1 O 0.2409(3) 0.2500 0.5738(2) 0.0229(4) Uani 1 2 d SD
H1O1 H 0.355(3) 0.2500 0.569(4) 0.034 Uiso 1 2 d SD
H2O1 H 0.181(4) 0.2500 0.479(3) 0.034 Uiso 1 2 d SD
O2 O 0.0365(2) 0.2500 0.2574(2) 0.0227(5) Uani 1 2 d SD
H1O2 H -0.031(3) 0.167(3) 0.252(3) 0.034 Uiso 1 1 d D
O3 O 0.2329(2) 0.2500 0.0259(2) 0.0223(4) Uani 1 2 d SD
H1O3 H 0.165(4) 0.2500 0.091(3) 0.033 Uiso 1 2 d SD
H2O3 H 0.342(3) 0.2500 0.079(4) 0.033 Uiso 1 2 d SD
O4 O 0.5704(2) 0.2500 0.2079(2) 0.0255(5) Uani 1 2 d SD
H1O4 H 0.634(3) 0.170(3) 0.193(3) 0.038 Uiso 1 1 d D
O5 O 0.19922(17) 0.48585(17) 0.78698(15) 0.0238(4) Uani 1 1 d D
H1O5 H 0.206(3) 0.429(3) 0.708(2) 0.036 Uiso 1 1 d D
H2O5 H 0.206(3) 0.430(3) 0.867(2) 0.036 Uiso 1 1 d D
N1 N 0.5910(3) 0.2500 0.5729(3) 0.0238(5) Uani 1 2 d SD
H1N H 0.593(4) 0.2500 0.468(3) 0.036 Uiso 1 2 d SD
C1 C 0.6879(3) 0.3927(3) 0.6553(2) 0.0338(5) Uani 1 1 d .
H1A H 0.6144 0.4937 0.6359 0.041 Uiso 1 1 calc R
H1B H 0.7986 0.4120 0.6206 0.041 Uiso 1 1 calc R
C2 C 0.7269(3) 0.3442(3) 0.8278(2) 0.0375(6) Uani 1 1 d .
H2A H 0.6348 0.3874 0.8787 0.045 Uiso 1 1 calc R
H2B H 0.8434 0.3874 0.8851 0.045 Uiso 1 1 calc R
loop_
_atom_site_aniso_label
_atom_site_aniso_U_11
_atom_site_aniso_U_22
_atom_site_aniso_U_33
_atom_site_aniso_U_23
_atom_site_aniso_U_13
_atom_site_aniso_U_12
O1 0.0314(10) 0.0177(11) 0.0195(9) 0.000 0.0059(7) 0.000
O2 0.0218(10) 0.0149(11) 0.0305(10) 0.000 0.0044(7) 0.000
O3 0.0254(10) 0.0173(11) 0.0235(9) 0.000 0.0047(7) 0.000
O4 0.0255(10) 0.0206(12) 0.0312(10) 0.000 0.0086(8) 0.000
O5 0.0356(7) 0.0129(8) 0.0236(7) -0.0003(5) 0.0082(5) 0.0017(5)
N1 0.0286(12) 0.0205(14) 0.0200(11) 0.000 0.0009(9) 0.000
C1 0.0435(12) 0.0163(12) 0.0376(11) 0.0030(8) 0.0015(9) -0.0059(9)
C2 0.0524(13) 0.0237(13) 0.0309(11) -0.0060(9) -0.0011(9) -0.0021(10)
loop_
_atom_type_symbol
_atom_type_description
_atom_type_scat_dispersion_real
_atom_type_scat_dispersion_imag
_atom_type_scat_source
C C 0.0033 0.0016 'International Tables Vol C Tables 4.2.6.8 and 6.1.1.4'
H H 0.0000 0.0000 'International Tables Vol C Tables 4.2.6.8 and 6.1.1.4'
N N 0.0061 0.0033 'International Tables Vol C Tables 4.2.6.8 and 6.1.1.4'
O O 0.0106 0.0060 'International Tables Vol C Tables 4.2.6.8 and 6.1.1.4'
loop_
_geom_angle_atom_site_label_1
_geom_angle_atom_site_label_2
_geom_angle_atom_site_label_3
_geom_angle
_geom_angle_site_symmetry_1
_geom_angle_site_symmetry_3
H1O1 O1 H2O1 106(3) . .
H1O3 O3 H2O3 109(3) . .
H1O5 O5 H2O5 113(3) . .
C1 N1 C1 103.6(2) . 4_565
C1 N1 H1N 111.1(11) . .
C1 N1 H1N 111.1(11) 4_565 .
N1 C1 C2 103.84(18) . .
N1 C1 H1A 111.0 . .
C2 C1 H1A 111.0 . .
N1 C1 H1B 111.0 . .
C2 C1 H1B 111.0 . .
H1A C1 H1B 109.0 . .
C1 C2 C2 105.10(13) . 4_565
C1 C2 H2A 110.7 . .
C2 C2 H2A 110.7 4_565 .
C1 C2 H2B 110.7 . .
C2 C2 H2B 110.7 4_565 .
H2A C2 H2B 108.8 . .
loop_
_geom_bond_atom_site_label_1
_geom_bond_atom_site_label_2
_geom_bond_distance
_geom_bond_site_symmetry_2
O1 H1O1 0.90(2) .
O1 H2O1 0.85(2) .
O2 H1O2 0.849(19) .
O3 H1O3 0.86(2) .
O3 H2O3 0.86(2) .
O4 H1O4 0.843(19) .
O5 H1O5 0.84(2) .
O5 H2O5 0.82(2) .
N1 C1 1.472(3) .
N1 C1 1.472(2) 4_565
N1 H1N 0.91(2) .
C1 C2 1.511(3) .
C1 H1A 0.9900 .
C1 H1B 0.9900 .
C2 C2 1.527(5) 4_565
C2 H2A 0.9900 .
C2 H2B 0.9900 .
loop_
_geom_hbond_atom_site_label_D
_geom_hbond_atom_site_label_H
_geom_hbond_atom_site_label_A
_geom_hbond_distance_DH
_geom_hbond_distance_HA
_geom_hbond_distance_DA
_geom_hbond_angle_DHA
_geom_hbond_site_symmetry_A
O1 H1O1 N1 0.90(2) 1.82(2) 2.725(3) 176(3) .
O1 H2O1 O2 0.85(2) 1.99(2) 2.835(3) 179(3) .
O2 H1O2 O5 0.849(19) 1.942(19) 2.7867(18) 173(2) 2_546
O3 H1O3 O2 0.86(2) 1.94(2) 2.799(3) 173(3) .
O3 H2O3 O4 0.86(2) 1.87(2) 2.728(3) 176(3) .
O4 H1O4 O5 0.843(19) 1.96(2) 2.7860(18) 167(2) 2_646
O5 H1O5 O1 0.84(2) 1.92(2) 2.7353(18) 163(2) .
O5 H2O5 O3 0.82(2) 1.99(2) 2.7902(19) 166(2) 1_556
N1 H1N O4 0.91(2) 2.23(2) 3.140(3) 175(3) .
loop_
_geom_torsion_atom_site_label_1
_geom_torsion_atom_site_label_2
_geom_torsion_atom_site_label_3
_geom_torsion_atom_site_label_4
_geom_torsion
_geom_torsion_site_symmetry_1
_geom_torsion_site_symmetry_4
C1 N1 C1 C2 -41.6(3) 4_565 .
N1 C1 C2 C2 25.18(17) . 4_565
