#------------------------------------------------------------------------------
#$Date: 2015-09-05 23:43:03 +0300 (Sat, 05 Sep 2015) $
#$Revision: 154557 $
#$URL: svn://www.crystallography.net/cod/cif/4/51/33/4513393.cif $
#------------------------------------------------------------------------------
#
# This file is available in the Crystallography Open Database (COD),
# http://www.crystallography.net/
#
# All data on this site have been placed in the public domain by the
# contributors.
#
data_4513393
loop_
_publ_author_name
'George, Fanny'
'Norberg, Bernadette'
'Wouters, Johan'
'Leyssens, Tom'
_publ_section_title
;
 Structural Investigation of Substituent Effect on Hydrogen Bonding in
 (S)-Phenylglycine Amide Benzaldimines
;
_journal_issue                   8
_journal_name_full               'Crystal Growth &amp; Design'
_journal_page_first              4005
_journal_paper_doi               10.1021/acs.cgd.5b00621
_journal_volume                  15
_journal_year                    2015
_chemical_formula_sum            'C15 H16 N2 O2'
_chemical_formula_weight         256.30
_chemical_name_systematic
;
 ?
;
_space_group_IT_number           4
_symmetry_space_group_name_Hall  'P 2yb'
_symmetry_space_group_name_H-M   'P 1 21 1'
_atom_sites_solution_hydrogens   geom
_atom_sites_solution_primary     direct
_atom_sites_solution_secondary   difmap
_audit_creation_method           SHELXL-97
_cell_angle_alpha                90.00
_cell_angle_beta                 94.308(5)
_cell_angle_gamma                90.00
_cell_formula_units_Z            2
_cell_length_a                   6.7394(3)
_cell_length_b                   7.9886(3)
_cell_length_c                   13.3084(10)
_cell_measurement_temperature    293(2)
_cell_volume                     714.48(7)
_computing_structure_refinement  'SHELXL-97 (Sheldrick, 1997)'
_diffrn_ambient_temperature      293(2)
_diffrn_measured_fraction_theta_full 0.997
_diffrn_measured_fraction_theta_max 0.997
_diffrn_radiation_monochromator  graphite
_diffrn_radiation_source         'fine-focus sealed tube'
_diffrn_radiation_type           MoK\a
_diffrn_radiation_wavelength     0.71073
_diffrn_reflns_av_R_equivalents  0.0326
_diffrn_reflns_av_sigmaI/netI    0.0441
_diffrn_reflns_limit_h_max       7
_diffrn_reflns_limit_h_min       -8
_diffrn_reflns_limit_k_max       9
_diffrn_reflns_limit_k_min       -9
_diffrn_reflns_limit_l_max       15
_diffrn_reflns_limit_l_min       -13
_diffrn_reflns_number            5401
_diffrn_reflns_theta_full        25.00
_diffrn_reflns_theta_max         25.03
_diffrn_reflns_theta_min         3.29
_exptl_absorpt_coefficient_mu    0.080
_exptl_absorpt_correction_T_max  0.9952
_exptl_absorpt_correction_T_min  0.9787
_exptl_crystal_density_diffrn    1.191
_exptl_crystal_density_method    'not measured'
_exptl_crystal_F_000             272
_exptl_crystal_size_max          0.27
_exptl_crystal_size_mid          0.26
_exptl_crystal_size_min          0.06
_refine_diff_density_max         0.190
_refine_diff_density_min         -0.159
_refine_diff_density_rms         0.032
_refine_ls_abs_structure_details 'Flack H D (1983), Acta Cryst. A39, 876-881'
_refine_ls_abs_structure_Flack   0.0(18)
_refine_ls_extinction_method     none
_refine_ls_goodness_of_fit_ref   1.047
_refine_ls_hydrogen_treatment    mixed
_refine_ls_matrix_type           full
_refine_ls_number_parameters     190
_refine_ls_number_reflns         2524
_refine_ls_number_restraints     1
_refine_ls_restrained_S_all      1.047
_refine_ls_R_factor_all          0.0628
_refine_ls_R_factor_gt           0.0505
_refine_ls_shift/su_max          0.000
_refine_ls_shift/su_mean         0.000
_refine_ls_structure_factor_coef Fsqd
_refine_ls_weighting_details
'calc w=1/[\s^2^(Fo^2^)+(0.0571P)^2^+0.0067P] where P=(Fo^2^+2Fc^2^)/3'
_refine_ls_weighting_scheme      calc
_refine_ls_wR_factor_gt          0.1105
_refine_ls_wR_factor_ref         0.1178
_reflns_number_gt                2101
_reflns_number_total             2524
_reflns_threshold_expression     >2sigma(I)
_cod_data_source_file            cg5b00621_si_001.cif
_cod_data_source_block           p-OMe
_cod_depositor_comments
'Adding full bibliography for 4513392--4513414.cif.'
_cod_database_code               4513393
loop_
_symmetry_equiv_pos_as_xyz
'x, y, z'
'-x, y+1/2, -z'
loop_
_atom_site_label
_atom_site_type_symbol
_atom_site_fract_x
_atom_site_fract_y
_atom_site_fract_z
_atom_site_U_iso_or_equiv
_atom_site_adp_type
_atom_site_occupancy
_atom_site_symmetry_multiplicity
_atom_site_calc_flag
_atom_site_refinement_flags
C1 C 0.6801(4) 0.7329(3) 0.72512(18) 0.0490(6) Uani 1 1 d .
C6 C 0.8703(4) 0.7932(3) 0.7444(2) 0.0543(7) Uani 1 1 d .
H6 H 0.9626 0.7776 0.6967 0.065 Uiso 1 1 calc R
C5 C 0.9276(5) 0.8766(4) 0.8331(2) 0.0678(8) Uani 1 1 d .
H5 H 1.0562 0.9182 0.8442 0.081 Uiso 1 1 calc R
C4 C 0.7941(6) 0.8972(4) 0.9038(2) 0.0750(9) Uani 1 1 d .
C3 C 0.6031(6) 0.8405(4) 0.8861(2) 0.0818(11) Uani 1 1 d .
H3 H 0.5116 0.8591 0.9338 0.098 Uiso 1 1 calc R
C2 C 0.5439(5) 0.7553(4) 0.7974(2) 0.0690(8) Uani 1 1 d .
H2 H 0.4150 0.7140 0.7867 0.083 Uiso 1 1 calc R
C7 C 0.6216(3) 0.6366(3) 0.63357(18) 0.0430(6) Uani 1 1 d .
H7 H 0.5088 0.5694 0.6323 0.052 Uiso 1 1 calc R
C8 C 0.6612(3) 0.5258(3) 0.47455(18) 0.0412(6) Uani 1 1 d .
H8 H 0.5408 0.4671 0.4919 0.049 Uiso 1 1 calc R
C9 C 0.8252(3) 0.3969(3) 0.46430(19) 0.0424(6) Uani 1 1 d .
C10 C 0.6141(3) 0.6199(3) 0.37657(17) 0.0424(6) Uani 1 1 d .
C11 C 0.7620(4) 0.6753(4) 0.3186(2) 0.0628(8) Uani 1 1 d .
H11 H 0.8945 0.6535 0.3389 0.075 Uiso 1 1 calc R
C12 C 0.7146(5) 0.7631(4) 0.2304(2) 0.0770(9) Uani 1 1 d .
H12 H 0.8156 0.8002 0.1920 0.092 Uiso 1 1 calc R
C13 C 0.5208(6) 0.7959(4) 0.1993(2) 0.0734(9) Uani 1 1 d .
H13 H 0.4896 0.8547 0.1398 0.088 Uiso 1 1 calc R
C14 C 0.3730(5) 0.7416(4) 0.2563(3) 0.0690(8) Uani 1 1 d .
H14 H 0.2407 0.7639 0.2357 0.083 Uiso 1 1 calc R
C15 C 0.4194(4) 0.6539(3) 0.3441(2) 0.0536(7) Uani 1 1 d .
H15 H 0.3175 0.6170 0.3820 0.064 Uiso 1 1 calc R
C16 C 1.0478(8) 0.9981(6) 1.0260(3) 0.1270(17) Uani 1 1 d .
H16A H 1.1167 0.8928 1.0272 0.191 Uiso 1 1 calc R
H16B H 1.0614 1.0477 1.0918 0.191 Uiso 1 1 calc R
H16C H 1.1038 1.0716 0.9785 0.191 Uiso 1 1 calc R
N1 N 0.7208(2) 0.6424(2) 0.55593(15) 0.0423(5) Uani 1 1 d .
N2 N 1.0080(3) 0.4370(3) 0.4985(2) 0.0510(6) Uani 1 1 d .
O1 O 0.7840(2) 0.2613(2) 0.42350(14) 0.0534(5) Uani 1 1 d .
O2 O 0.8400(5) 0.9713(4) 0.99648(18) 0.1085(10) Uani 1 1 d .
H2A H 1.107(4) 0.370(3) 0.4935(19) 0.052(8) Uiso 1 1 d .
H2B H 1.032(4) 0.527(4) 0.533(2) 0.058(9) Uiso 1 1 d .
loop_
_atom_site_aniso_label
_atom_site_aniso_U_11
_atom_site_aniso_U_22
_atom_site_aniso_U_33
_atom_site_aniso_U_23
_atom_site_aniso_U_13
_atom_site_aniso_U_12
C1 0.0606(16) 0.0488(13) 0.0383(15) 0.0070(12) 0.0081(12) 0.0158(13)
C6 0.0670(17) 0.0533(16) 0.0425(17) 0.0011(13) 0.0037(12) 0.0030(13)
C5 0.093(2) 0.0604(18) 0.0493(19) 0.0016(15) 0.0013(16) -0.0041(15)
C4 0.118(3) 0.0586(18) 0.048(2) -0.0040(15) 0.0044(19) 0.014(2)
C3 0.102(3) 0.096(3) 0.050(2) -0.0041(19) 0.0262(19) 0.028(2)
C2 0.0723(18) 0.084(2) 0.0522(19) 0.0022(16) 0.0141(14) 0.0151(16)
C7 0.0423(12) 0.0396(12) 0.0475(15) 0.0074(11) 0.0046(11) 0.0101(10)
C8 0.0375(13) 0.0394(12) 0.0468(15) 0.0025(11) 0.0034(10) -0.0030(10)
C9 0.0436(14) 0.0395(13) 0.0443(15) 0.0041(12) 0.0041(11) -0.0028(11)
C10 0.0483(13) 0.0370(12) 0.0419(14) -0.0057(11) 0.0028(11) -0.0007(10)
C11 0.0556(15) 0.0739(18) 0.0594(18) 0.0160(16) 0.0068(13) 0.0015(15)
C12 0.094(2) 0.078(2) 0.061(2) 0.0177(17) 0.0205(18) 0.0020(19)
C13 0.107(3) 0.0599(18) 0.0514(19) 0.0049(15) -0.0093(17) 0.0115(18)
C14 0.0685(18) 0.0641(17) 0.071(2) 0.0003(16) -0.0170(16) 0.0126(16)
C15 0.0535(14) 0.0479(14) 0.0585(17) -0.0013(13) -0.0009(12) 0.0019(12)
C16 0.186(5) 0.118(3) 0.073(3) -0.026(3) -0.018(3) -0.045(3)
N1 0.0405(10) 0.0432(11) 0.0434(12) -0.0006(9) 0.0042(9) 0.0002(9)
N2 0.0394(12) 0.0446(12) 0.0682(16) -0.0086(12) -0.0021(10) 0.0055(11)
O1 0.0492(10) 0.0404(9) 0.0703(13) -0.0084(9) 0.0021(8) -0.0042(7)
O2 0.169(3) 0.105(2) 0.0512(15) -0.0190(14) 0.0060(15) 0.0103(19)
loop_
_atom_type_symbol
_atom_type_description
_atom_type_scat_dispersion_real
_atom_type_scat_dispersion_imag
_atom_type_scat_source
C C 0.0033 0.0016 'International Tables Vol C Tables 4.2.6.8 and 6.1.1.4'
H H 0.0000 0.0000 'International Tables Vol C Tables 4.2.6.8 and 6.1.1.4'
N N 0.0061 0.0033 'International Tables Vol C Tables 4.2.6.8 and 6.1.1.4'
O O 0.0106 0.0060 'International Tables Vol C Tables 4.2.6.8 and 6.1.1.4'
loop_
_geom_angle_atom_site_label_1
_geom_angle_atom_site_label_2
_geom_angle_atom_site_label_3
_geom_angle
C6 C1 C2 118.7(3)
C6 C1 C7 121.7(2)
C2 C1 C7 119.4(3)
C1 C6 C5 121.6(3)
C1 C6 H6 119.2
C5 C6 H6 119.2
C4 C5 C6 119.5(3)
C4 C5 H5 120.3
C6 C5 H5 120.3
C5 C4 C3 120.2(3)
C5 C4 O2 123.7(3)
C3 C4 O2 116.1(3)
C4 C3 C2 120.9(3)
C4 C3 H3 119.6
C2 C3 H3 119.6
C1 C2 C3 119.1(3)
C1 C2 H2 120.4
C3 C2 H2 120.4
N1 C7 C1 122.0(2)
N1 C7 H7 119.0
C1 C7 H7 119.0
N1 C8 C10 110.42(18)
N1 C8 C9 109.65(18)
C10 C8 C9 111.33(19)
N1 C8 H8 108.5
C10 C8 H8 108.5
C9 C8 H8 108.5
O1 C9 N2 122.5(2)
O1 C9 C8 119.5(2)
N2 C9 C8 118.0(2)
C11 C10 C15 118.2(2)
C11 C10 C8 121.8(2)
C15 C10 C8 120.0(2)
C10 C11 C12 120.5(2)
C10 C11 H11 119.8
C12 C11 H11 119.8
C13 C12 C11 120.6(3)
C13 C12 H12 119.7
C11 C12 H12 119.7
C14 C13 C12 119.4(3)
C14 C13 H13 120.3
C12 C13 H13 120.3
C13 C14 C15 120.2(3)
C13 C14 H14 119.9
C15 C14 H14 119.9
C14 C15 C10 121.1(3)
C14 C15 H15 119.5
C10 C15 H15 119.5
O2 C16 H16A 109.5
O2 C16 H16B 109.5
H16A C16 H16B 109.5
O2 C16 H16C 109.5
H16A C16 H16C 109.5
H16B C16 H16C 109.5
C7 N1 C8 116.51(19)
C9 N2 H2A 121.8(16)
C9 N2 H2B 121.4(18)
H2A N2 H2B 116(2)
C4 O2 C16 117.0(3)
loop_
_geom_bond_atom_site_label_1
_geom_bond_atom_site_label_2
_geom_bond_distance
C1 C6 1.375(3)
C1 C2 1.390(4)
C1 C7 1.470(3)
C6 C5 1.385(4)
C6 H6 0.9300
C5 C4 1.360(4)
C5 H5 0.9300
C4 C3 1.368(5)
C4 O2 1.382(4)
C3 C2 1.395(4)
C3 H3 0.9300
C2 H2 0.9300
C7 N1 1.273(3)
C7 H7 0.9300
C8 N1 1.462(3)
C8 C10 1.518(3)
C8 C9 1.524(3)
C8 H8 0.9800
C9 O1 1.235(3)
C9 N2 1.320(3)
C10 C11 1.378(3)
C10 C15 1.378(3)
C11 C12 1.384(4)
C11 H11 0.9300
C12 C13 1.366(4)
C12 H12 0.9300
C13 C14 1.367(5)
C13 H13 0.9300
C14 C15 1.378(4)
C14 H14 0.9300
C15 H15 0.9300
C16 O2 1.442(5)
C16 H16A 0.9600
C16 H16B 0.9600
C16 H16C 0.9600
N2 H2A 0.86(3)
N2 H2B 0.86(3)
loop_
_geom_torsion_atom_site_label_1
_geom_torsion_atom_site_label_2
_geom_torsion_atom_site_label_3
_geom_torsion_atom_site_label_4
_geom_torsion
C2 C1 C6 C5 -0.7(4)
C7 C1 C6 C5 -176.7(2)
C1 C6 C5 C4 1.1(4)
C6 C5 C4 C3 -2.0(4)
C6 C5 C4 O2 176.8(3)
C5 C4 C3 C2 2.5(5)
O2 C4 C3 C2 -176.4(3)
C6 C1 C2 C3 1.1(4)
C7 C1 C2 C3 177.2(3)
C4 C3 C2 C1 -2.0(5)
C6 C1 C7 N1 -19.8(3)
C2 C1 C7 N1 164.2(2)
N1 C8 C9 O1 158.0(2)
C10 C8 C9 O1 -79.5(3)
N1 C8 C9 N2 -23.1(3)
C10 C8 C9 N2 99.4(3)
N1 C8 C10 C11 79.6(3)
C9 C8 C10 C11 -42.4(3)
N1 C8 C10 C15 -99.5(2)
C9 C8 C10 C15 138.4(2)
C15 C10 C11 C12 0.2(4)
C8 C10 C11 C12 -178.9(3)
C10 C11 C12 C13 -0.2(5)
C11 C12 C13 C14 0.2(5)
C12 C13 C14 C15 -0.3(5)
C13 C14 C15 C10 0.3(4)
C11 C10 C15 C14 -0.3(4)
C8 C10 C15 C14 178.9(2)
C1 C7 N1 C8 172.84(19)
C10 C8 N1 C7 124.2(2)
C9 C8 N1 C7 -112.8(2)
C5 C4 O2 C16 -12.2(5)
C3 C4 O2 C16 166.6(4)
