#------------------------------------------------------------------------------
#$Date: 2016-02-13 21:28:24 +0200 (Sat, 13 Feb 2016) $
#$Revision: 176429 $
#$URL: svn://www.crystallography.net/cod/cif/4/51/33/4513310.cif $
#------------------------------------------------------------------------------
#
# This file is available in the Crystallography Open Database (COD),
# http://www.crystallography.net/
#
# All data on this site have been placed in the public domain by the
# contributors.
#
data_4513310
loop_
_publ_author_name
'Lusi, Matteo'
'Vitorica-Yrezabal, Inigo J.'
'Zaworotko, Michael J.'
_publ_section_title
;
 Expanding the Scope of Molecular Mixed Crystals Enabled by Three
 Component Solid Solutions
;
_journal_issue                   8
_journal_name_full               'Crystal Growth &amp; Design'
_journal_page_first              4098
_journal_paper_doi               10.1021/acs.cgd.5b00685
_journal_volume                  15
_journal_year                    2015
_chemical_formula_sum            'C6.2 H4.2 N0.8'
_chemical_formula_weight         89.90
_chemical_name_systematic
;
 ?
;
_space_group_crystal_system      monoclinic
_space_group_IT_number           14
_space_group_name_Hall           '-P 2yn'
_space_group_name_H-M_alt        'P 1 21/n 1'
_symmetry_space_group_name_Hall  '-P 2yn'
_symmetry_space_group_name_H-M   'P 1 21/n 1'
_atom_sites_solution_hydrogens   geom
_audit_creation_method           SHELXL-2014
_cell_angle_alpha                90
_cell_angle_beta                 102.771(19)
_cell_angle_gamma                90
_cell_formula_units_Z            4
_cell_length_a                   7.1057(13)
_cell_length_b                   4.9933(7)
_cell_length_c                   12.597(2)
_cell_measurement_temperature    100(2)
_cell_volume                     435.90(13)
_computing_structure_refinement  'SHELXL-2014 (Sheldrick, 2014)'
_diffrn_ambient_temperature      100(2)
_diffrn_measured_fraction_theta_full 0.996
_diffrn_measured_fraction_theta_max 0.867
_diffrn_radiation_type           MoK\a
_diffrn_radiation_wavelength     0.71073
_diffrn_reflns_av_R_equivalents  0.0323
_diffrn_reflns_av_unetI/netI     0.0829
_diffrn_reflns_Laue_measured_fraction_full 0.996
_diffrn_reflns_Laue_measured_fraction_max 0.867
_diffrn_reflns_limit_h_max       9
_diffrn_reflns_limit_h_min       -5
_diffrn_reflns_limit_k_max       6
_diffrn_reflns_limit_k_min       -5
_diffrn_reflns_limit_l_max       16
_diffrn_reflns_limit_l_min       -17
_diffrn_reflns_number            1555
_diffrn_reflns_point_group_measured_fraction_full 0.996
_diffrn_reflns_point_group_measured_fraction_max 0.867
_diffrn_reflns_theta_full        25.242
_diffrn_reflns_theta_max         28.863
_diffrn_reflns_theta_min         3.039
_exptl_absorpt_coefficient_mu    0.082
_exptl_absorpt_correction_T_max  1.33
_exptl_absorpt_correction_T_min  0.71
_exptl_absorpt_correction_type   multy-scan
_exptl_absorpt_process_details   sadabs
_exptl_crystal_colour            yellow
_exptl_crystal_density_diffrn    1.370
_exptl_crystal_description       needle
_exptl_crystal_F_000             188
_refine_diff_density_max         0.205
_refine_diff_density_min         -0.219
_refine_diff_density_rms         0.056
_refine_ls_extinction_method     none
_refine_ls_goodness_of_fit_ref   1.088
_refine_ls_hydrogen_treatment    constr
_refine_ls_matrix_type           full
_refine_ls_number_parameters     65
_refine_ls_number_reflns         993
_refine_ls_number_restraints     0
_refine_ls_restrained_S_all      1.088
_refine_ls_R_factor_all          0.1201
_refine_ls_R_factor_gt           0.0679
_refine_ls_shift/su_max          0.000
_refine_ls_shift/su_mean         0.000
_refine_ls_structure_factor_coef Fsqd
_refine_ls_weighting_details
'w=1/[\s^2^(Fo^2^)+(0.0353P)^2^+0.1071P] where P=(Fo^2^+2Fc^2^)/3'
_refine_ls_weighting_scheme      calc
_refine_ls_wR_factor_gt          0.1146
_refine_ls_wR_factor_ref         0.1370
_reflns_Friedel_coverage         0.000
_reflns_number_gt                635
_reflns_number_total             993
_reflns_threshold_expression     'I > 2\s(I)'
_cod_data_source_file            cg5b00685_si_014.cif
_cod_data_source_block           D:\#13
_cod_depositor_comments
'Adding full bibliography for 4513301--4513322.cif.'
_cod_original_formula_sum        'C6.20 H4.20 N0.80'
_cod_database_code               4513310
#BEGIN Tags that were not found in dictionaries:
_shelx_space_group_comment
;
The symmetry employed for this shelxl refinement is uniquely defined
by the following loop, which should always be used as a source of
symmetry information in preference to the above space-group names.
They are only intended as comments.
;
_shelxl_version_number           2014-3
_shelx_res_file
;
REM  ml023b in P21/n #14
REM R1 =  0.0764 for     657 Fo > 4sig(Fo)  and  0.1283 for all    1153 data
REM     65 parameters refined using      0 restraints
REM Highest difference peak  0.268,  deepest hole -0.362,  1-sigma level  0.066
REM n/a parameters refined using n/a restraints
REM Highest difference peak 0.24, deepest hole -0.52
REM Mean Shift 0, Max Shift 0.
REM +++ Tabular Listing of Refinement Information +++
REM R1_all = n/a
REM R1_gt = 0.0763
REM wR_ref = 0.1875
REM GOOF = 1.094
REM Shift_max = 0
REM Shift_mean = 0
REM Reflections_all = 1697
REM Reflections_gt = 635
REM Parameters = n/a
REM Hole = 0.24
REM Peak = -0.52
REM Flack = n/a
REM  Ml28a in P21/n #14
REM R1 =  0.0679 for     635 Fo > 4sig(Fo)  and  0.1201 for all     993 data
REM     65 parameters refined using      0 restraints
REM Highest difference peak  0.205,  deepest hole -0.219,  1-sigma level  0.056
REM  Ml28a in P21/n #14
REM R1 =  0.0682 for     635 Fo > 4sig(Fo)  and  0.1201 for all     993 data
REM     65 parameters refined using      0 restraints
REM Highest difference peak  0.209,  deepest hole -0.222,  1-sigma level  0.056
TITL Ml28a in P21/n #14
CELL 0.71073 7.1057 4.9933 12.5972 90.000 102.771 90.000
ZERR 4.0000 0.0013 0.0007 0.0021 0.000 0.019 0.000
LATT 1
SYMM 0.5-X, 0.5+Y, 0.5-Z
SFAC C H N
UNIT 24.8 16.8 3.2
MERG 2
FMAP 2
GRID
PLAN 5
TEMP -173
BOND
EXYZ N1 C1
EADP N1 C1
L.S. 20
ACTA
WGHT    0.035300    0.107100
FVAR      11.12071   0.80102
PART 1
N1    3    0.196831    0.056927    0.049133    21.00000    0.02295    0.01563 =
         0.01821    0.00193    0.00424   -0.00051
PART 2
C1    1    0.196831    0.056927    0.049133   -21.00000    0.02295    0.01563 =
         0.01821    0.00193    0.00424   -0.00051
AFIX  43
H1    2    0.327761    0.095560    0.081733   -21.00000   -1.20000
PART 0
AFIX   0
C2    1    0.148181   -0.133577   -0.028363    11.00000    0.02468    0.01619 =
         0.01536    0.00340    0.00285    0.00050
C3    1    0.294921   -0.281318   -0.062210    11.00000    0.02235    0.02267 =
         0.02542    0.00375    0.00761    0.00224
AFIX  43
H3    2    0.426703   -0.245504   -0.030608    11.00000   -1.20000
AFIX   0
C4    1    0.247445   -0.474980   -0.140107    11.00000    0.03231    0.01946 =
         0.02571    0.00082    0.01473    0.00244
AFIX  43
H4    2    0.346992   -0.574592   -0.161300    11.00000   -1.20000
AFIX   0
C5    1    0.050570    0.189181    0.077825    11.00000    0.02535    0.01440 =
         0.01360    0.00486    0.00358   -0.00031
C6    1    0.091229    0.393008    0.159023    11.00000    0.02635    0.02106 =
         0.02264   -0.00206    0.00425   -0.00289
AFIX  43
H6    2    0.221484    0.433947    0.192276    11.00000   -1.20000
AFIX   0
C7    1   -0.053645    0.529409    0.189479    11.00000    0.03528    0.01931 =
         0.02185   -0.00291    0.00834   -0.00364
AFIX  43
H7    2   -0.023851    0.662521    0.244523    11.00000   -1.20000
AFIX   0
HKLF 4

REM  Ml28a in P21/n #14
REM R1 =  0.0679 for     635 Fo > 4sig(Fo)  and  0.1201 for all     993 data
REM     65 parameters refined using      0 restraints

END

WGHT      0.0354      0.1051

REM Highest difference peak  0.205,  deepest hole -0.219,  1-sigma level  0.056
Q1    1  -0.0286  0.1868  0.0178  11.00000  0.05    0.20
Q2    1   0.2779  0.0369  0.1072  11.00000  0.05    0.20
Q3    1   0.0612 -0.1348 -0.0861  11.00000  0.05    0.19
Q4    1   0.2382 -0.2852 -0.1424  11.00000  0.05    0.19
Q5    1   0.4970  0.1117  0.1013  11.00000  0.05    0.18
;
_shelx_res_checksum              17106
_shelx_hkl_file
;
   0   0  -2 142802. 2518.10   2
   0   0  -3-43.6506 167.974   2
   0   0   3 70.9018 155.402   2
   0   0   4 8959.32 672.366   2
   0   0  -4 8476.37 609.467   2
   0   0  -5 38.7165 181.077   2
   0   0  -6 6156.66 649.274   2
   0   0  -7 215.375 308.833   2
   0   0  -8 67482.4 2419.70   2
   0   0  -9 24.3006 270.654   2
   0   0 -10 33478.3 1809.17   2
   0   0 -11 264.427 331.301   2
   0   0  11 0.38566 243.253   1
   0   0  12 142.108 244.189   1
   0   0 -12 505.512 353.083   2
   0   0  13 551.419 361.575   1
   0   0  14 1041.33 480.929   1
   0   0  15 610.920 501.877   1
   0   1   0-3.84201 99.1802   2
   0  -1   0 43.4627 112.654   2
   0   1   0-144.408 155.369   3
   0   1   1 6681.82 470.280   2
   0  -1  -1 6374.71 436.382   2
   0  -1  -1 6206.11 427.862   3
   0   1   1 7257.77 451.077   3
   0  -1  -2 267663. 4771.92   2
   0   1   2 276838. 4930.32   2
   0   1  -2 271408. 4335.00   1
   0   1   2 276614. 4616.64   3
   0  -1  -2 277130. 4627.11   3
   0   1   3 519753. 8547.17   2
   0  -1  -3 508803. 8317.18   2
   0   1   3 514548. 7986.85   3
   0   1  -3 523498. 7523.35   1
   0  -1   3 515580. 7441.28   2
   0  -1  -3 519494. 8013.97   3
   0  -1   3 523715. 7720.54   1
   0  -1  -4 154616. 3556.14   2
   0   1  -4 153358. 2749.82   1
   0  -1   4 152659. 2937.85   2
   0  -1   4 153863. 2899.06   1
   0  -1   5 11173.5 647.737   1
   0  -1   5 11772.3 745.757   2
   0  -1  -5 10007.7 855.567   2
   0  -1  -6 37376.6 1748.61   2
   0  -1   6 36157.4 1290.66   1
   0  -1   7 28971.0 1220.66   1
   0  -1  -7 25842.1 1549.41   2
   0  -1  -8 7423.72 854.997   2
   0  -1   8 10142.5 769.968   1
   0  -1   9 579.158 269.257   1
   0  -1  -9-60.6103 301.847   2
   0  -1 -10 3662.58 734.297   2
   0  -1  10 3984.44 575.525   1
   0  -1 -11 4015.53 782.667   2
   0  -1  11 3428.50 578.961   1
   0  -1 -12 3743.54 803.821   2
   0  -1  12 5382.82 743.558   1
   0  -1 -13 2094.10 695.616   2
   0  -1  13 2385.33 561.178   1
   0  -1  14 1172.34 458.637   1
   0  -1 -14 1583.08 541.924   2
   0   1  16 1010.55 676.326   1
   0   2   0 38278.4 1416.88   3
   0  -2   0 35561.7 1186.15   2
   0   2   0 37289.4 1240.60   2
   0   2  -1 9.42919 105.053   2
   0   2   1 21.2602 187.875   2
   0  -2   1 5.83864 119.730   2
   0   2  -1 147.850 194.299   3
   0  -2  -1 493.682 264.887   2
   0   2   1 279.305 243.581   3
   0   2   2 45697.1 1766.68   2
   0   2   2 42985.7 1645.10   3
   0  -2  -2 43569.9 1611.71   2
   0  -2   2 41583.9 1041.74   2
   0   2   3 19463.2 1108.31   3
   0  -2   3 18853.2 606.222   2
   0  -2  -3 20779.3 1176.38   2
   0   2   4 6251.88 697.929   3
   0  -2  -4 6944.00 763.817   2
   0  -2   4 6056.96 348.125   2
   0  -2   5 86614.3 1970.92   2
   0  -2  -5 88310.4 2910.90   2
   0   2   5 87508.8 2635.36   3
   0  -2   6 47631.8 1825.87   1
   0  -2  -6 50254.4 2250.82   2
   0  -2   6 48116.7 1565.87   2
   0  -2   7 6533.32 710.748   1
   0  -2  -7 7125.21 900.909   2
   0  -2  -8 447.948 417.683   2
   0  -2   8 568.420 299.619   1
   0  -2  -9 687.708 356.331   2
   0  -2   9 350.968 259.894   1
   0  -2  10 1097.18 343.475   1
   0  -2 -10 838.650 471.482   2
   0  -2  11 6011.51 800.229   1
   0  -2 -11 4854.49 890.640   2
   0  -2 -12 4241.13 887.973   2
   0  -2  12 5361.60 768.852   1
   0  -2 -13-48.2519 331.876   2
   0  -2  13 366.671 266.386   1
   0  -2 -14 2120.73 640.958   2
   0   3   0 227.048 342.519   3
   0   3   0 161.738 174.029   2
   0  -3   0-73.2765 221.186   2
   0   3  -1 16200.4 1108.57   3
   0  -3  -1 14990.1 941.522   2
   0  -3   1 15887.1 765.914   2
   0   3  -1 15765.4 773.096   2
   0   3   1 15076.0 1118.29   3
   0   3  -2 5605.71 660.212   3
   0  -3  -2 5037.92 618.804   2
   0  -3   2 5071.10 369.099   2
   0   3   2 5994.63 743.783   3
   0  -3  -3 5829.90 711.281   2
   0   3   3 6962.40 805.841   3
   0  -3   3 4423.35 269.338   2
   0   3  -3 6724.28 694.765   3
   0  -3  -4 647.316 325.092   2
   0   3   4 910.769 509.984   3
   0  -3  -5 1065.09 427.515   2
   0   3   5 1347.94 495.932   3
   0  -3   5 756.334 120.517   2
   0  -3   5 720.198 137.900   2
   0   3   6 1283.09 502.138   3
   0  -3  -6 937.980 433.616   2
   0  -3   6 538.003 175.473   2
   0  -3  -7 772.314 450.331   2
   0  -3  -8 20193.8 1619.25   2
   0  -3  -9 2238.87 717.252   2
   0  -3 -10 6500.65 1028.09   2
   0  -3 -11 317.858 336.732   2
   0  -3 -12 930.144 556.092   2
   0  -3 -13-253.566 359.588   2
   0   4   0 1642.87 595.841   3
   0  -4   0 1490.72 318.974   2
   0   4  -1 594.351 501.948   3
   0  -4  -1 88.9234 222.439   2
   0  -4   1-36.6962 163.290   2
   0   4   1 848.258 483.324   3
   0   4   2 1187.72 514.051   3
   0   4  -2 1677.55 595.056   3
   0  -4  -2 1127.93 371.595   2
   0  -4   2 926.406 165.202   2
   0  -4  -3-15.8256 249.432   2
   0   4  -3-69.4427 341.086   3
   0   4   3 836.748 537.009   3
   0   4  -4 2605.42 555.658   3
   0  -4  -4 2642.15 579.261   2
   0   4   4 3037.92 739.701   3
   0   4   5 7350.48 980.722   3
   0  -4  -5 7875.80 918.295   2
   0   4  -5 5996.65 816.957   3
   0   4  -6 2203.82 525.297   3
   0  -4  -6 2482.53 675.587   2
   0   4   6 3101.58 744.602   3
   0  -4  -7 7631.45 989.838   2
   0   4  -7 5746.65 759.151   3
   0  -4  -8 2840.93 696.739   2
   0  -4  -9-455.835 386.029   2
   0  -4 -10 565.834 377.533   2
   0  -4 -11 1954.04 710.030   2
   0  -4 -12 676.034 461.505   2
   0   5   0 818.818 560.216   3
   0   5  -1 2313.95 796.131   3
   0   5   1 1948.84 558.779   3
   0   5  -2 445.461 373.339   3
   0   5   2 1370.82 723.276   3
   0  -5  -3 690.327 294.195   2
   0   5  -3 1063.26 552.221   3
   0   5   3 1977.39 701.700   3
   0  -5  -4 4374.68 686.884   2
   0   5   4 4458.05 937.541   3
   0   5  -4 3854.04 743.633   3
   0  -5  -5 1974.02 572.443   2
   0   5  -5 2096.23 626.511   3
   0   5   5 991.635 640.684   3
   0  -5  -6 663.554 361.985   2
   0   5   6 547.059 667.934   3
   0  -5  -7 94.8133 286.423   2
   0  -5  -8 200.821 403.361   2
   0  -5  -9-70.5786 335.829   2
   0  -5 -10 132.160 376.060   2
   0   6   0 2123.51 787.987   3
   0   6   1 1755.26 674.750   3
   0   6  -1 2159.66 693.166   3
   0   6   2 615.524 636.108   3
   0   6  -2 1591.93 717.104   3
   0   6   3-16.2093 628.685   3
   0   6  -3 10.2617 415.546   3
   0   6   4-72.3678 519.409   3
   1   0 -16 800.703 519.911   2
   1   0 -15 2121.70 635.527   2
   1   0 -14-213.773 278.199   2
  -1   0  14-96.6978 249.480   1
  -1   0  13 1123.06 413.359   1
   1   0 -13 14.9323 376.814   2
   1   0 -12 590.006 442.108   2
  -1   0  12-26.8683 224.824   1
   1   0 -11-23.6085 291.171   2
   1   0 -10-11.3852 306.066   2
   1   0  -9 35391.3 1868.77   2
   1   0  -8 224.515 305.380   2
   1   0  -7 5403.91 697.408   2
   1   0  -6 374.764 304.215   2
   1   0  -5 32926.9 1461.26   2
  -1   0   4 42.6780 182.922   2
   1   0  -4 225.400 208.781   2
  -1   0   3 77530.7 2050.81   2
   1   0  -3 74683.0 2026.75   2
  -1   0   2 180.928 159.840   2
   1   0  -2 87.1699 142.921   2
   1   0  -1 124109. 2299.64   2
   1   0   1 359764. 5208.07   1
   1   0   2-23.8774 84.8707   3
   1   0   3 10619.8 437.792   3
   1   0   3 12212.1 675.752   2
  -1   0  -4-25.9823 101.448   3
  -1   0  -5 2219.50 292.026   3
  -1   0  -6-323.716 154.086   3
  -1   0  -7 1346.60 271.097   3
   1   0   9 1688.12 407.757   1
   1   0  10 543.283 316.984   1
   1   0  11 11105.2 1128.56   1
   1   0  12-41.1195 275.904   1
   1   0  13 238.882 444.699   1
   1   0  14-418.065 294.253   1
   1   0  15 930.202 522.864   1
   1   0  16 56.5372 343.550   1
   1  -1 -16 130.547 370.326   2
   1  -1 -15 5171.89 984.480   2
   1  -1 -14 5980.93 1032.42   2
  -1  -1  13 621.609 351.005   1
   1   1 -13 133.852 308.816   2
   1  -1 -13 909.138 503.299   2
   1   1 -12 13257.2 1193.37   2
  -1  -1  12 12241.2 1022.13   1
   1  -1 -12 11456.9 1323.04   2
  -1  -1  11 7352.61 738.155   1
   1   1 -11 6720.92 815.352   2
   1  -1 -11 5582.82 902.694   2
   1   1 -10 2065.87 461.371   2
  -1  -1  10 2576.89 424.326   1
   1  -1 -10 3412.65 711.250   2
  -1  -1   9 148.538 178.286   1
   1  -1  -9 274.702 400.011   2
   1   1  -9 117.661 273.359   2
   1  -1  -8 3931.61 653.908   2
   1   1  -8 3711.97 505.638   2
  -1  -1   8 3896.80 430.854   1
   1   1  -7 712.034 249.364   2
   1  -1  -7 823.576 380.885   2
  -1  -1   7 613.318 193.428   1
   1  -1  -6 20076.2 1350.11   2
  -1  -1   6 20920.4 802.710   1
   1   1  -6 17218.1 960.512   2
  -1  -1   6 21274.2 1189.14   2
   1  -1  -5 274.648 280.694   2
  -1  -1   5 476.671 143.436   1
   1   1  -5 468.373 232.488   2
  -1  -1   5 290.862 204.535   2
   1   1  -4 39148.7 1190.22   2
  -1  -1   4 40852.7 1289.66   2
  -1  -1   4 39616.2 1036.04   1
   1   1  -4 39986.5 902.265   1
   1  -1  -4 39118.8 1743.05   2
  -1   1   3 149990. 3593.64   2
   1  -1  -3 147588. 3596.60   2
   1   1  -3 152798. 2406.26   1
  -1  -1   3 153686. 2674.65   2
   1   1  -3 151584. 2671.68   2
   1  -1  -2 421391. 7145.24   2
   1   1  -2 410579. 5966.53   2
  -1   1   2 434070. 7099.84   2
   1  -1  -1 69037.5 1905.51   2
  -1   1   1 71330.4 1859.19   2
   1  -1  -1 71139.4 1644.71   3
   1  -1   0 9316.30 474.579   3
   1  -1   0 7822.76 521.211   2
   1   1   0 9619.89 413.623   2
   1  -1   1 594.893 146.711   3
  -1   1  -1 446.306 128.530   1
   1   1   1 666.259 174.621   2
  -1   1  -2 4349.12 239.469   3
   1   1   2 4591.56 436.335   3
  -1  -1  -2 5501.10 435.815   2
   1   1   2 5133.39 454.279   2
  -1   1  -2 5327.81 401.443   1
   1  -1   2 5346.28 436.261   1
   1  -1   3 397.644 143.592   1
   1   1   3 495.011 223.430   3
  -1  -1  -3 717.825 245.476   2
   1   1   4 613.020 269.468   3
   1  -1   4 48.7628 192.326   1
  -1  -1  -4 336.024 248.681   2
   1  -1   5 210.437 174.491   1
   1   1   5 104.783 216.576   3
  -1  -1  -5 607.716 313.226   2
   1  -1   6 29046.8 1294.73   1
  -1  -1  -6 29047.1 1468.42   2
  -1   1  -7 1816.14 227.435   3
  -1  -1  -7 2613.64 518.493   2
  -1   1  -8 213.782 130.817   3
   1  -1   8 225.345 243.257   1
  -1  -1  -8-55.8151 288.120   2
  -1  -1  -9-228.550 306.468   2
   1  -1   9-115.613 191.182   1
  -1  -1 -10 1186.05 440.225   2
   1  -1  10 1082.43 439.078   1
   1  -1  11 0.84037 210.233   1
   1  -1  12 2577.07 574.687   1
   1  -1  13 1577.19 535.751   1
   1  -1  14 11518.3 1381.30   1
   1  -1  15 2325.74 728.542   1
   1   1  15 2873.87 821.717   1
   1  -2 -15 2078.44 734.174   2
   1  -2 -14 4199.28 1011.00   2
   1  -2 -13 7270.88 1157.73   2
   1  -2 -12 2162.91 645.869   2
  -1  -2  12 2312.06 491.496   1
  -1  -2  11 1279.12 360.607   1
   1  -2 -11 1495.97 596.783   2
   1  -2 -10 1619.72 598.017   2
  -1  -2  10 1962.33 440.122   1
  -1  -2   9 3575.43 510.468   1
   1  -2  -9 4445.94 798.251   2
  -1  -2   8 468.249 256.706   1
   1  -2  -8-102.794 506.344   2
   1  -2  -7 10586.9 1130.72   2
  -1  -2   7 11233.0 783.178   2
   1  -2  -6 86160.0 3207.50   2
  -1  -2   6 85998.2 2113.76   2
  -1  -2   5 165426. 2896.85   2
   1  -2  -5 172465. 4562.93   2
   1  -2  -4 60159.5 2434.56   2
   1   2  -4 59609.2 1600.18   1
   1  -2  -3 2620.59 553.655   2
   1  -2  -2 1709.21 502.363   2
  -1   2   2 1480.34 369.956   3
  -1   2   1 166.314 252.524   3
   1   2  -1-14.3096 124.404   2
   1  -2  -1 303.071 244.636   2
  -1   2   1 196.142 244.807   2
   1  -2   0-60.6303 207.739   2
  -1   2   0-2.60226 158.900   2
  -1   2   0 388.374 249.952   3
   1   2   0 55.5330 127.475   2
  -1   2  -1 9802.11 640.318   3
   1  -2   1 10125.7 705.576   2
   1   2   1 9631.89 699.885   2
   1   2   1 9069.01 776.440   3
  -1  -2  -1 10639.9 616.288   2
   1  -2   2 19960.5 931.982   2
  -1  -2  -2 20998.0 987.776   2
   1   2   2 20089.6 1179.85   3
  -1   2  -2 19832.5 882.582   3
   1   2   3 42438.9 1729.55   3
  -1   2  -3 40301.9 1249.37   3
  -1  -2  -3 42964.9 1590.94   2
  -1   2  -4 20788.6 818.692   3
  -1  -2  -4 21497.3 1213.26   2
   1   2   4 20832.1 1227.95   3
  -1   2  -5 10894.6 571.441   3
   1  -2   5 12678.0 962.336   1
  -1  -2  -5 14624.4 1069.72   2
   1   2   5 13991.6 1054.35   3
  -1  -2  -6 181.772 282.842   2
   1  -2   6 294.993 237.041   1
   1   2   6 389.686 370.825   3
  -1  -2  -7 7713.20 917.579   2
   1  -2   7 7180.99 783.082   1
   1   2   7 8458.05 859.881   3
   1  -2   8 6666.85 771.543   1
  -1  -2  -8 7225.52 908.487   2
  -1  -2  -9 1388.66 476.951   2
   1  -2   9 1232.34 381.542   1
   1  -2  10 1366.20 420.961   1
  -1  -2 -10 826.117 468.054   2
  -1  -2 -11 499.058 396.873   2
   1  -2  11 262.692 286.968   1
  -1  -2 -12 438.812 505.177   2
   1  -2  12 41.2164 240.987   1
   1  -2  13 1343.37 464.684   1
   1  -2  14 1071.91 493.979   1
   1  -3 -13-0.75261 396.440   2
   1  -3 -12 592.048 480.822   2
   1  -3 -11-404.346 440.620   2
   1  -3 -10 1077.80 561.039   2
   1  -3  -9 43724.4 2597.27   2
   1  -3  -8 48064.2 2668.82   2
   1  -3  -7 27669.3 1948.42   2
   1  -3  -6 1127.12 473.147   2
   1  -3  -5 82.0992 395.778   2
   1  -3  -4 3171.28 656.748   2
  -1   3   3 2483.59 609.482   3
   1  -3  -3 2333.72 584.548   2
  -1   3   2 4454.95 643.186   3
   1  -3  -2 4424.23 697.244   2
  -1   3   1 9179.44 820.699   3
   1   3  -1 8545.50 599.942   2
   1   3  -1 9408.15 870.670   3
   1  -3  -1 10432.1 946.051   2
   1   3   0 24891.8 1498.80   3
  -1  -3   0 26436.7 955.342   2
   1  -3   0 26950.1 1437.50   2
  -1   3   0 25159.0 1336.03   3
   1   3   0 26823.6 1267.15   2
   1  -3   1 23249.2 1265.01   2
   1   3   1 24438.9 1474.30   3
  -1  -3  -1 24362.9 1061.16   2
  -1   3  -1 24653.3 1294.57   3
  -1   3  -2 28800.5 1354.41   3
   1   3   2 28425.5 1635.60   3
  -1  -3  -2 25373.2 1228.83   2
   1  -3   2 25644.8 1258.61   2
   1  -3   3 3798.15 485.785   2
  -1   3  -3 3385.98 500.132   3
   1   3   3 3743.50 703.672   3
  -1  -3  -3 4086.33 544.250   2
  -1  -3  -4 811.981 337.859   2
   1   3   4 1555.17 558.414   3
  -1   3  -4 925.541 316.865   3
   1  -3   4 565.043 198.711   2
  -1  -3  -5 1.37337 269.443   2
  -1   3  -5 417.478 251.030   3
   1   3   5 512.445 365.927   3
  -1  -3  -6 31.9658 324.336   2
  -1   3  -6 316.745 230.206   3
  -1  -3  -7 349.910 282.071   2
   1   3   7 1088.74 580.963   3
  -1  -3  -8 1769.44 505.350   2
  -1  -3  -9 1506.94 607.050   2
  -1  -3 -10 13593.9 1415.76   2
  -1  -3 -11 2163.71 628.679   2
  -1  -3 -12 1579.62 604.944   2
   1  -4 -12 11187.1 1510.23   2
   1  -4 -11 13479.5 1645.21   2
   1  -4 -10 7275.70 1185.19   2
   1  -4  -9 2047.27 672.827   2
   1  -4  -8 640.930 469.199   2
   1  -4  -7 1363.61 621.387   2
   1  -4  -6 787.776 448.799   2
   1  -4  -5 6500.13 934.222   2
   1   4  -4 7595.39 979.730   3
   1  -4  -4 7516.26 966.727   2
  -1   4   4 6630.81 957.732   3
  -1   4   3 5090.15 795.030   3
   1   4  -3 3571.71 724.096   3
   1  -4  -3 2915.67 635.255   2
  -1   4   2 9336.94 1041.62   3
   1   4  -2 7784.54 997.521   3
   1  -4  -2 9926.21 1032.25   2
   1  -4  -1 21027.6 1406.51   2
  -1   4   1 22365.8 1501.31   3
   1   4  -1 22475.9 1613.21   3
   1  -4   0 1392.91 437.691   2
   1   4   0 1071.07 425.754   3
  -1   4   0 154.987 382.930   3
  -1  -4  -1 621.094 238.599   2
   1   4   1 911.842 598.207   3
   1  -4   1 1170.55 383.629   2
  -1   4  -1 941.414 442.356   3
  -1  -4  -2-137.145 210.702   2
  -1   4  -2 81.3034 328.485   3
   1  -4   2 149.421 267.482   2
   1  -4   3 215.177 237.984   2
  -1  -4  -3 435.465 271.490   2
   1   4   3 916.031 551.155   3
  -1   4  -3 99.3183 292.866   3
   1   4   4 2589.01 571.332   3
  -1  -4  -4 3312.02 602.730   2
  -1   4  -4 3267.92 596.617   3
  -1  -4  -5 6408.09 824.248   2
   1   4   5 5900.92 941.494   3
  -1   4  -5 6547.44 774.599   3
  -1  -4  -6 1634.66 511.369   2
   1   4   6 1316.23 636.034   3
  -1  -4  -7 2799.65 654.998   2
   1   4   7 2979.63 762.256   3
  -1  -4  -8 3365.51 714.100   2
   1   4   8 3991.29 903.317   3
  -1  -4  -9 309.337 264.629   2
  -1  -4 -10-191.288 379.485   2
  -1  -4 -11 635.499 447.001   2
   1  -5 -10 1850.09 700.325   2
   1  -5  -9 1700.40 623.839   2
   1  -5  -8 407.232 493.070   2
   1  -5  -7 1037.11 584.857   2
   1   5  -6 1531.55 611.227   3
   1  -5  -6 1535.08 586.897   2
   1   5  -5 1926.12 524.923   3
   1  -5  -5 3612.78 770.762   2
   1  -5  -4 2924.02 633.949   2
   1   5  -4 2107.78 577.420   3
   1   5  -3 8067.89 1098.05   3
  -1   5   3 7477.62 1041.59   3
   1  -5  -3 7187.99 956.506   2
   1   5  -2 16395.4 1580.11   3
  -1   5   2 16524.9 1488.25   3
  -1   5   1 8008.40 1089.36   3
   1   5  -1 11432.6 1348.52   3
  -1   5   0 4443.82 840.631   3
   1   5   0 3721.96 884.075   3
   1   5   1 551.139 527.285   3
  -1   5  -1 940.434 614.413   3
   1   5   2 8375.76 1152.72   3
  -1   5  -2 5513.75 846.536   3
  -1   5  -3 3164.66 652.394   3
   1   5   3 2987.69 765.181   3
  -1  -5  -4 3983.80 649.363   2
   1   5   4 4271.57 891.447   3
  -1   5  -4 3787.84 732.707   3
   1   5   5 3026.89 850.917   3
  -1  -5  -5 1854.99 496.611   2
   1   5   6 2906.71 838.158   3
  -1  -5  -6 1252.30 430.544   2
   1   5   7 5923.59 1178.34   3
  -1  -5  -7 4697.04 825.123   2
  -1  -5  -8 4039.96 786.222   2
  -1  -5  -9 235.679 330.522   2
  -1  -5 -10 552.556 442.796   2
   1   6  -5 111.781 457.336   3
   1   6  -4 753.413 738.426   3
   1   6  -3 833.238 648.720   3
  -1   6   2 1127.30 718.789   3
   1   6  -2 901.476 582.123   3
  -1   6   1 1281.94 740.547   3
   1   6  -1 1186.97 834.219   3
  -1   6   0 22324.1 1941.14   3
   1   6   0 22871.7 2017.37   3
  -1   6  -1 3237.57 923.757   3
   1   6   1 2276.80 768.865   3
   1   6   2 25579.0 2229.12   3
  -1   6  -2 24680.4 1955.24   3
   1   6   3 1530.98 873.275   3
   2   0 -17-153.093 353.635   2
   2   0 -16 912.721 466.501   2
   2   0 -15 667.973 414.122   2
   2   0 -14 495.026 494.261   2
  -2   0  13 413.158 365.045   1
   2   0 -13-222.384 373.004   2
   2   0 -12 818.427 424.979   2
   2   0 -11-36.0240 306.753   2
   2   0 -10 1895.95 495.111   2
   2   0  -9 411.936 423.219   2
   2   0  -8 480.353 329.771   2
   2   0  -7 138.861 296.297   2
   2   0  -6 858.875 377.951   2
   2   0  -5-69.9360 253.373   2
   2   0  -4 27505.4 1398.13   2
   2   0  -3 120.633 186.433   2
  -2   0   3 8.56005 162.678   2
  -2   0   2 743.982 118.900   1
   2   0  -2 433.526 164.031   2
   2   0  -1-175.887 96.3953   1
  -2   0   1 15.3521 54.0967   1
   2   0   0 38036.1 988.822   1
  -2   0   0 36769.3 958.272   1
   2   0   1 37.7264 86.2055   1
   2   0   2 271614. 4538.12   1
   2   0   3 207.030 183.698   1
   2   0   4 14686.2 610.674   3
   2   0   4 13767.2 858.913   1
   2   0   5-84.2971 129.233   3
   2   0   5 105.085 170.520   1
   2   0   6 815.491 270.562   1
   2   0   7 172.767 227.320   1
   2   0   8 1602.87 416.876   1
   2   0   9-154.765 243.499   1
   2   0  10 72869.2 2975.67   1
   2   0  11 568.326 447.968   1
   2   0  12 70234.2 3285.91   1
   2   0  13 407.700 416.315   1
   2   0  14-29.5656 316.659   1
   2   0  15 646.537 543.016   1
   2  -1 -16 248.503 352.285   2
   2  -1 -15 398.604 381.875   2
   2   1 -14 192.385 266.834   2
   2  -1 -14-398.445 454.320   2
   2   1 -13 1513.72 507.680   2
   2  -1 -13 2067.15 650.620   2
   2   1 -12 1592.73 486.144   2
   2  -1 -12 1552.52 631.294   2
  -2  -1  11 1005.75 261.903   1
   2  -1 -11 465.144 490.030   2
   2   1 -11 874.535 437.686   2
  -2  -1  10 84.7495 181.164   1
   2   1 -10-281.908 343.283   2
   2  -1  -9 551.746 479.813   2
  -2  -1   9 836.120 182.438   1
   2   1  -9 812.690 390.266   2
  -2  -1   8 2993.19 299.491   1
   2  -1  -8 2621.15 663.603   2
   2   1  -8 2322.58 449.576   2
  -2  -1   7 8514.65 443.879   1
   2  -1  -7 7929.90 974.909   2
   2   1  -7 7193.93 735.401   2
  -2  -1   6 498.802 127.616   1
   2   1  -6 649.921 267.788   2
   2  -1  -5 4490.71 759.652   2
   2   1  -5 4988.29 586.113   2
  -2  -1   5 4556.22 536.890   2
   2   1  -4 1996.40 347.326   2
   2  -1  -4 3728.83 632.872   2
  -2  -1   4 2919.40 390.351   2
   2  -1  -3 10174.3 900.869   2
   2   1  -3 8785.26 601.404   2
   2  -1  -2 1317.47 369.357   2
   2  -1  -1 4758.75 532.907   2
  -2   1   0 56043.4 1614.79   1
   2  -1   1 3906.89 426.156   1
   2  -1   2 1452.99 310.084   1
   2  -1   3 5771.85 553.669   1
   2   1   3 4803.18 551.051   3
   2  -1   4 22595.9 1155.97   1
   2   1   4 23102.0 1127.50   3
   2   1   5 50028.8 1708.26   3
   2  -1   5 53555.1 1889.72   1
   2  -1   6 21463.9 1231.32   1
   2   1   6 21851.5 1136.95   3
   2  -1   7 6731.15 739.367   1
   2  -1   8 22652.5 1427.71   1
   2  -1   9 19936.6 1404.77   1
   2  -1  10 6789.90 906.951   1
   2  -1  11-11.3524 243.912   1
   2  -1  12 4867.20 874.832   1
   2   1  13 19030.4 1831.95   1
   2  -1  13 15468.1 1595.68   1
   2  -1  14 12755.2 1600.04   1
   2   1  14 11762.6 1552.58   1
   2  -1  15 8308.50 1380.50   1
   2  -2 -15 466.025 561.504   2
   2  -2 -14 254.715 396.471   2
   2  -2 -13 1115.36 577.395   2
   2  -2 -12 697.946 501.530   2
   2  -2 -11-143.442 484.455   2
   2  -2 -10 17416.8 1682.68   2
   2   2 -10 18057.6 1097.36   2
   2   2  -9 10972.2 789.820   2
   2  -2  -9 10429.1 1301.05   2
   2  -2  -8-100.777 389.639   2
   2   2  -8 344.262 205.968   2
   2   2  -7 1201.24 267.224   2
  -2  -2   7 901.308 277.150   2
   2  -2  -7 395.178 562.684   2
   2   2  -6 156.457 129.500   2
  -2  -2   6 445.059 181.422   2
   2  -2  -6 253.270 472.880   2
   2   2  -6 110.296 84.3061   1
   2   2  -5 13191.8 555.130   1
   2  -2  -5 14206.1 1353.79   2
   2   2  -5 12446.6 620.047   2
   2  -2  -4 6881.34 907.514   2
   2   2  -4 6999.33 444.803   1
   2   2  -4 6867.90 433.893   2
   2  -2  -3 1959.61 514.079   2
   2   2  -3 2303.71 245.145   2
   2  -2  -2 21822.0 1413.65   2
   2  -2  -1 27382.9 1496.73   2
   2   2  -1 28278.7 949.516   2
   2   2   0 12581.7 718.235   2
   2  -2   0 13836.3 1025.28   2
   2  -2   1 1500.86 322.536   3
   2  -2   1 1653.14 380.145   2
   2  -2   2 274.984 171.914   3
   2   2   2 134.425 277.445   3
   2   2   3 2528.75 490.454   3
   2   2   4 4228.01 590.733   3
   2  -2   4 3598.09 572.466   1
   2   2   5 13007.1 1040.83   3
   2  -2   5 12902.4 1060.43   1
   2   2   6 2221.97 530.312   3
   2  -2   6 1467.32 392.612   1
   2   2   7 24365.9 1458.99   3
   2  -2   7 22133.4 1470.69   1
   2   2   8 16814.3 1276.97   3
   2  -2   8 16215.6 1295.42   1
   2  -2   9 1976.67 522.956   1
   2  -2  10 404.535 314.188   1
   2  -2  11-22.2877 268.274   1
   2  -2  12-189.659 344.249   1
   2  -2  13 810.352 600.398   1
   2  -2  14 587.376 439.718   1
   2  -3 -13 683.520 554.735   2
   2  -3 -12 1599.73 730.442   2
   2  -3 -11 1510.82 714.918   2
   2  -3 -10-585.211 650.638   2
   2  -3  -9 12792.6 1499.65   2
   2  -3  -8 801.441 587.656   2
   2  -3  -7 93592.4 3910.65   2
   2  -3  -6 13766.0 1445.44   2
   2  -3  -5 1770.29 744.211   2
   2  -3  -4 1167.84 600.179   2
   2  -3  -3 1538.30 521.738   2
   2  -3  -2 1281.58 541.020   2
   2   3  -2 397.075 166.598   2
   2  -3  -1-329.623 353.633   2
   2   3  -1 125.441 157.418   2
   2  -3   0 882.412 389.458   2
   2   3   1 20359.0 1482.08   3
   2  -3   1 23932.0 1472.74   2
   2   3   2 23067.4 1548.50   3
   2  -3   2 22674.2 1410.51   2
   2   3   3 6196.13 857.435   3
   2  -3   3 5189.67 640.836   2
   2  -3   4 3145.43 515.178   2
   2   3   4 4460.85 750.672   3
   2   3   5-111.372 396.477   3
   2   3   6 756.976 395.908   3
   2   3   7 950.620 461.874   3
   2   3   8 2315.43 626.499   3
   2  -3  11 7562.18 1178.29   1
   2  -3  12 374.914 295.231   1
   2  -3  13 1347.08 613.706   1
   2  -4 -12 107.508 516.602   2
   2  -4 -11 17704.9 1943.47   2
   2  -4 -10 19458.4 1981.63   2
   2  -4  -9 1748.15 605.473   2
   2  -4  -8-600.315 494.940   2
   2  -4  -7-381.918 494.756   2
   2  -4  -6 4207.54 922.917   2
   2  -4  -5 21092.5 1802.24   2
   2  -4  -4 42236.2 2512.85   2
   2  -4  -3 47195.3 2615.88   2
   2  -4  -2 2964.38 778.935   2
   2   4  -1 1013.49 501.182   3
   2  -4  -1 1934.60 641.607   2
   2  -4   0 3054.44 664.141   2
   2   4   0 2140.10 594.897   3
   2  -4   1 100.211 403.028   2
   2   4   1 3.60609 451.523   3
   2  -4   2 411.707 432.779   2
   2   4   2-502.823 411.688   3
   2  -4   3 2207.30 559.412   2
   2   4   3 2398.92 686.895   3
   2   4   4 5809.69 1016.98   3
   2   4   5 17695.3 1600.39   3
   2   4   6 2147.51 610.572   3
   2   4   7 1282.44 573.665   3
   2   4   8 1408.70 660.595   3
   2   4   9 1489.69 682.738   3
   2  -5 -10 3618.37 964.620   2
   2  -5  -9 1401.24 561.756   2
   2  -5  -8 621.073 519.836   2
   2  -5  -7 377.733 377.598   2
   2  -5  -6 2620.65 815.145   2
   2   5  -6 801.043 391.171   3
   2   5  -5 7674.52 1157.12   3
   2  -5  -5 11433.7 1457.27   2
   2   5  -4 4797.35 938.128   3
   2  -5  -4 5409.96 915.700   2
   2  -5  -3 196.761 369.630   2
   2   5  -3 852.819 527.020   3
   2   5  -2 24195.2 1937.89   3
   2  -5  -2 30022.6 2033.00   2
   2   5  -1 27597.4 2150.57   3
   2   5   0 8670.05 1243.83   3
   2   5   1 1469.86 696.599   3
   2   5   2 1465.56 811.546   3
   2   5   3 686.830 576.129   3
   2   5   4 1283.55 655.714   3
   2   5   5 499.092 595.953   3
   2   5   6-125.071 542.330   3
   2   5   7 1457.77 575.428   3
   2   5   8 3109.18 872.449   3
   2   6  -6 4662.04 1004.32   3
   2   6  -5-850.864 665.404   3
   2   6  -4 982.956 507.488   3
   2   6  -3 1122.60 631.620   3
   2   6  -2-852.999 613.254   3
   2   6  -1 926.439 646.667   3
   2   6   0 2270.11 840.088   3
   2   6   1 19764.3 2064.78   3
   2   6   2 6175.08 1270.01   3
   3   0 -17 3500.14 912.738   2
   3   0 -16 1295.71 646.317   2
   3   0 -15 41299.6 2743.43   2
   3   0 -14-16.5081 347.874   2
   3   0 -13 943.281 646.781   2
   3   0 -12-729.926 470.813   2
   3   0 -11 4501.31 887.341   2
   3   0 -10 845.622 533.222   2
   3   0  -9 2459.86 724.858   2
   3   0  -8-1.44127 331.444   2
   3   0  -7 55333.1 2527.55   2
   3   0  -6 369.819 367.476   2
   3   0  -5 77314.4 2784.93   2
  -3   0   4 92.7118 114.711   1
   3   0  -4 125.156 298.092   2
  -3   0   3 1721.60 207.786   1
   3   0  -3 1722.93 481.385   2
   3   0  -2-24.6664 149.764   1
  -3   0   2-20.3828 86.5623   1
  -3   0   1 2981.67 278.441   1
   3   0  -1 2936.27 311.247   1
   3   0   0-221.136 175.500   1
   3   0   1 40286.4 1320.01   1
   3   0   2-376.100 197.290   1
   3   0   3 125388. 2976.53   1
   3   0   4 53.6235 160.941   1
   3   0   5 1216.78 305.167   1
   3   0   5 1865.85 297.998   3
   3   0   6-51.6279 213.305   1
   3   0   6 40.1567 168.487   3
   3   0   7 317.919 204.864   1
   3   0   8 485.583 293.329   1
   3   0   9 391.570 369.923   1
   3   0  10 473.408 393.859   1
   3   0  11 58384.9 3004.94   1
   3   0  12-596.064 388.807   1
   3   0  13 9022.17 1329.29   1
   3  -1 -16-95.8018 510.425   2
   3  -1 -15-64.8450 397.996   2
   3  -1 -14 43.6130 462.285   2
   3   1 -14 623.049 414.710   2
   3  -1 -13 17133.1 1806.44   2
   3   1 -13 15927.7 1507.29   2
   3  -1 -12 32898.1 2416.20   2
   3   1 -12 36703.4 2209.94   2
   3  -1 -11 13016.6 1495.67   2
   3   1 -11 13575.5 1314.17   2
   3  -1 -10 942.236 545.192   2
   3   1 -10 1104.33 415.420   2
  -3  -1   9 1357.41 186.126   1
   3  -1  -9 981.697 561.463   2
   3   1  -9 664.422 450.105   2
   3   1  -8 8967.24 1024.29   2
   3  -1  -8 9493.22 1237.13   2
   3  -1  -7 892.102 462.085   2
   3   1  -7 991.321 366.042   2
   3   1  -6 2379.72 499.423   2
   3  -1  -6 2925.67 689.682   2
   3   1  -5 11139.2 934.217   2
   3  -1  -5 12890.5 1203.75   2
   3   1  -4 33725.1 1546.05   2
   3  -1  -4 38356.3 1961.21   2
   3   1  -3 42899.5 1658.96   2
   3   1  -3 38612.6 805.956   1
   3  -1  -3 44246.8 2053.03   2
   3   1  -2 82064.4 1546.19   1
   3  -1  -2 79773.8 2774.67   2
   3  -1  -1 22569.0 1376.56   2
   3  -1   0 59746.9 2009.23   1
   3  -1   1 14535.1 968.571   1
   3  -1   2 479.459 219.290   1
   3  -1   3 1384.12 346.952   1
   3   1   4 1165.23 341.360   3
   3  -1   4 1341.34 315.265   1
   3   1   5 3113.79 490.570   3
   3  -1   5 3703.51 583.545   1
   3  -1   6 7105.09 789.290   1
   3   1   6 8371.75 749.192   3
   3   1   7 12508.3 955.734   3
   3  -1   7 13291.4 1124.94   1
   3  -1   8 38242.0 2057.06   1
   3  -1   9 22095.7 1654.79   1
   3  -1  10 6751.79 959.107   1
   3  -1  11 3138.97 713.102   1
   3   1  11 1590.48 597.230   1
   3  -1  12 925.880 456.072   1
   3   1  12 255.815 428.939   1
   3  -1  13 1339.40 649.456   1
   3   1  13 820.440 492.515   1
   3  -2 -15 1665.98 678.255   2
   3  -2 -14 749.713 744.688   2
   3  -2 -13 1933.29 703.916   2
   3  -2 -12 1945.27 789.198   2
   3  -2 -11 3279.58 858.540   2
   3  -2 -10 26657.6 2178.06   2
   3   2 -10 28522.1 1553.93   2
   3  -2  -9 49703.8 2948.36   2
   3   2  -9 54873.5 2157.64   2
   3  -2  -8 14165.5 1587.04   2
   3   2  -8 13360.4 995.753   2
   3  -2  -7 674.931 555.653   2
   3   2  -7 300.994 266.088   2
   3   2  -6 264.141 309.902   2
   3  -2  -6-101.749 386.105   2
   3  -2  -5 9169.22 1188.56   2
   3   2  -5 6753.00 302.801   1
   3   2  -5 7784.49 699.048   2
   3   2  -4 29645.2 1284.59   2
   3  -2  -4 30570.6 1984.41   2
   3   2  -3 30380.6 1259.42   2
   3  -2  -3 31274.1 1933.49   2
   3  -2  -2 1173.50 496.437   2
   3  -2  -1 42322.4 2086.42   2
   3  -2   0 42196.1 2043.95   2
   3  -2   1 9123.49 719.311   3
   3  -2   1 9451.79 951.349   2
   3  -2   2 523.644 240.054   3
   3  -2   3 716.471 183.520   3
   3   2   3 1458.99 465.907   3
   3  -2   3 1794.02 490.761   1
   3   2   4 8059.74 876.631   3
   3  -2   4 9573.11 964.892   1
   3   2   5 44101.7 2009.56   3
   3  -2   5 43840.4 2144.96   1
   3   2   6 38401.6 1896.14   3
   3  -2   6 34484.8 1945.22   1
   3   2   7 15041.5 1215.21   3
   3  -2   7 18726.0 1474.60   1
   3   2   8 4944.50 761.773   3
   3  -2   8 4696.51 805.150   1
   3  -2   9 2490.35 573.727   1
   3  -2  10-357.836 254.457   1
   3  -2  11 1023.70 559.319   1
   3  -2  12 383.791 416.834   1
   3  -2  13 1633.91 652.616   1
   3  -3 -13-330.366 577.480   2
   3  -3 -12 2577.71 861.123   2
   3  -3 -11 541.043 562.410   2
   3  -3 -10 1360.09 653.443   2
   3  -3  -9 843.276 723.241   2
   3  -3  -8 5242.44 1110.12   2
   3  -3  -7 53747.5 3129.23   2
   3  -3  -6 8452.68 1249.87   2
   3  -3  -5 29657.0 2184.07   2
   3   3  -4 1551.58 281.703   2
   3  -3  -4 1402.21 628.170   2
   3   3  -3 1765.99 245.231   2
   3  -3  -3 1704.99 633.676   2
   3  -3  -2 832.449 421.347   2
   3   3  -2 182.946 152.943   2
   3  -3  -1 3955.96 833.992   2
   3  -3   0 1247.07 499.345   2
   3  -3   1 16118.9 1377.63   2
   3   3   2 3752.14 823.250   3
   3  -3   2 4177.76 673.234   2
   3   3   3 67046.1 2869.84   3
   3  -3   3 64527.0 2674.08   2
   3   3   4 12158.0 1249.58   3
   3  -3   4 11431.0 1091.81   2
   3   3   5 2858.61 597.584   3
   3   3   6 2122.47 601.718   3
   3   3   7-78.8189 377.774   3
   3   3   8 1872.69 605.413   3
   3   3   9 1004.53 520.823   3
   3  -3  10 754.330 498.781   1
   3  -3  11 1381.71 668.243   1
   3  -3  12 4643.57 1051.41   1
   3  -4 -12 2371.67 865.178   2
   3  -4 -11-135.386 496.268   2
   3  -4 -10 29.9415 497.846   2
   3  -4  -9 805.651 679.292   2
   3  -4  -8 1875.54 717.676   2
   3  -4  -7 3228.36 881.289   2
   3  -4  -6 433.720 685.863   2
   3  -4  -5 7612.30 1249.60   2
   3  -4  -4 16177.5 1736.25   2
   3  -4  -3 7130.05 1112.97   2
   3  -4  -2 420.746 501.857   2
   3  -4  -1 4276.08 854.852   2
   3   4   0 16431.0 1592.59   3
   3  -4   0 17929.8 1591.53   2
   3   4   1 12064.1 1370.96   3
   3  -4   1 12051.9 1275.96   2
   3  -4   2 788.750 497.601   2
   3   4   2-86.7390 432.360   3
   3  -4   3-12.4977 401.862   2
   3   4   3 1235.96 641.804   3
   3   4   4 1464.77 697.537   3
   3  -4   4-141.902 339.513   2
   3   4   5 1125.08 557.731   3
   3   4   6 404.981 472.753   3
   3   4   7-369.038 496.845   3
   3   4   8 1613.97 639.666   3
   3   4   9 4107.46 888.685   3
   3  -5 -10 1179.07 586.867   2
   3  -5  -9 33.5427 574.704   2
   3  -5  -8-82.6600 493.132   2
   3  -5  -7 1610.10 763.603   2
   3  -5  -6 1089.64 714.020   2
   3  -5  -5 878.746 539.872   2
   3  -5  -4 697.480 721.363   2
   3  -5  -3 2789.93 816.547   2
   3   5  -3 1609.69 629.093   3
   3  -5  -2 6682.59 1095.50   2
   3   5  -2 6766.75 1079.63   3
   3   5  -1 514.973 502.603   3
   3   5   0 7.17190 480.103   3
   3   5   1 45.6836 445.296   3
   3   5   2-718.529 614.861   3
   3   5   3 2644.36 818.621   3
   3   5   4 1672.29 827.199   3
   3   5   5 1556.40 731.209   3
   3   5   6 1485.25 808.446   3
   3   5   7 2183.67 755.726   3
   3   6  -6-843.538 661.249   3
   3   6  -5 501.417 552.360   3
   3   6  -4 116.215 480.814   3
   3   6  -3 1210.78 712.224   3
   3   6  -2-118.426 506.398   3
   4   0 -16 17757.9 1970.92   2
   4   0 -15-654.265 511.530   2
   4   0 -14 57018.5 3355.33   2
   4   0 -13-121.542 369.984   2
   4   0 -12-44.9663 460.131   2
   4   0 -11-366.833 416.463   2
   4   0 -10 277.426 503.953   2
   4   0  -9 72.1503 423.194   2
   4   0  -8 536.980 381.866   2
   4   0  -7 108.090 386.521   2
  -4   0   6 70831.9 1575.93   1
   4   0  -6 71932.5 2988.12   2
   4   0  -5 80.7432 380.035   2
  -4   0   5 95.1282 79.3863   1
  -4   0   4 15576.2 609.623   1
   4   0  -4 13533.0 1174.28   2
  -4   0   3 20.6973 74.5002   1
   4   0  -3 252.965 321.899   2
   4   0  -2 3789.31 404.021   1
   4   0  -2 3970.68 627.200   2
   4   0  -1-14.8072 129.051   1
   4   0   0 5098.22 510.092   1
   4   0   1-38.6613 125.112   1
   4   0   2 295.682 214.610   1
   4   0   3 94.5820 153.448   1
   4   0   4 2289.68 452.043   1
   4   0   5-155.318 192.530   1
   4   0   5-422.793 219.123   3
   4   0   6 2636.03 528.924   1
   4   0   6 1710.03 303.484   3
   4   0   7 144.915 378.293   1
   4   0   8 905.514 430.932   1
   4   0   9 472.407 374.740   1
   4   0  10 199.723 278.977   1
   4   0  11 950.704 481.841   1
   4   0  12 1359.18 574.126   1
   4  -1 -15-697.667 481.678   2
   4  -1 -14 759.781 612.123   2
   4  -1 -13 4358.60 961.130   2
   4   1 -13 4022.14 844.625   2
   4  -1 -12 12185.3 1543.59   2
   4   1 -12 14615.1 1550.76   2
   4  -1 -11 9128.72 1381.07   2
   4   1 -11 11348.1 1299.86   2
   4  -1 -10 10872.1 1411.46   2
   4   1 -10 10336.1 1237.16   2
   4  -1  -9 19918.4 1853.23   2
   4   1  -9 20454.8 1669.37   2
   4   1  -8 10535.4 1194.71   2
   4  -1  -8 9746.36 1274.78   2
   4   1  -7 4769.81 755.028   2
   4  -1  -7 4723.88 927.971   2
   4   1  -6 4260.07 727.682   2
   4  -1  -6 3241.42 717.051   2
   4   1  -5 754.951 350.251   2
   4  -1  -5 591.304 405.270   2
   4  -1  -4 7074.21 961.897   2
   4   1  -4 6617.30 770.556   2
   4   1  -3 2629.93 237.622   1
   4   1  -3 2165.11 478.650   2
   4  -1  -3 2292.70 581.941   2
   4   1  -2 2869.18 279.313   1
   4  -1  -2 2549.92 559.493   2
   4  -1  -1 769.251 309.916   2
   4   1  -1 896.298 204.025   1
   4   1   0 6009.42 493.157   1
   4  -1   0 5229.55 640.485   1
   4   1   1 8612.02 680.862   1
   4  -1   1 9354.41 875.674   1
   4   1   2-168.183 151.410   1
   4  -1   2 66.4778 198.027   1
   4  -1   3 3105.87 560.277   1
   4  -1   4 15.5022 220.029   1
   4   1   5 683.299 316.981   1
   4   1   5 465.981 317.598   3
   4  -1   5 283.790 276.524   1
   4   1   6 680.781 437.296   1
   4   1   6 439.480 312.923   3
   4  -1   6 458.907 341.099   1
   4   1   7 1585.08 404.593   3
   4   1   7 859.225 382.122   1
   4  -1   7 802.003 431.528   1
   4   1   8 1546.31 567.648   1
   4  -1   8 1285.20 427.697   1
   4  -1   9 2251.39 610.416   1
   4   1   9 2553.09 640.070   1
   4  -1  10 484.993 410.018   1
   4   1  10-343.957 346.096   1
   4  -1  11 189.934 353.670   1
   4   1  11 1203.54 539.484   1
   4   1  12 373.891 356.783   1
   4  -1  12 152.333 588.491   1
   4  -2 -14 369.798 443.631   2
   4  -2 -13 1449.66 671.379   2
   4  -2 -12 10731.0 1591.87   2
   4  -2 -11 7122.60 1256.71   2
   4  -2 -10 387.368 570.897   2
   4  -2  -9 11299.8 1471.16   2
   4   2  -9 12046.9 1178.02   2
   4  -2  -8 3298.82 855.449   2
   4   2  -8 4280.96 724.604   2
   4   2  -7 250.146 300.106   2
   4  -2  -7 1014.57 597.356   2
   4   2  -6 914.436 411.035   2
   4  -2  -6 753.642 549.518   2
   4   2  -5 336.274 350.923   2
   4  -2  -5 562.377 481.148   2
   4  -2  -4 1521.93 638.366   2
   4   2  -4 1648.55 410.964   2
   4  -2  -3 17108.5 1575.04   2
   4  -2  -2 13191.9 1341.47   2
   4  -2  -1-437.141 378.259   2
   4  -2   0 2649.76 671.301   2
   4  -2   1 651.990 301.219   2
   4  -2   2 2535.01 424.070   3
   4  -2   3 3150.61 664.053   1
   4   2   4 849.255 428.614   3
   4  -2   4 983.704 462.762   1
   4   2   5 8136.07 929.720   3
   4  -2   5 7827.65 987.077   1
   4   2   6 13649.5 1192.26   3
   4  -2   6 12177.4 1262.24   1
   4  -2   7 4336.15 837.888   1
   4   2   7 3435.34 644.564   3
   4  -2   8 1049.54 470.516   1
   4   2   8 132.789 348.582   3
   4  -2   9 45.0254 525.891   1
   4  -2  10 880.566 494.970   1
   4  -2  11 2203.56 737.818   1
   4  -3 -13 1462.10 770.037   2
   4  -3 -12 552.429 558.809   2
   4  -3 -11 3283.55 922.800   2
   4  -3 -10 1139.29 704.741   2
   4  -3  -9 1711.44 929.690   2
   4  -3  -8 1282.30 823.221   2
   4  -3  -7 2389.27 854.269   2
   4  -3  -6 13966.5 1695.01   2
   4  -3  -5 13163.5 1529.98   2
   4  -3  -4-94.6888 519.746   2
   4   3  -4 276.990 279.136   2
   4  -3  -3 868.544 603.071   2
   4  -3  -2 798.735 527.885   2
   4  -3  -1 814.188 545.915   2
   4  -3   0 1651.40 599.571   2
   4  -3   1 254.639 396.477   2
   4  -3   2 5172.04 889.962   2
   4   3   3 53669.8 2712.83   3
   4  -3   3 55475.5 2740.84   2
   4   3   4 1284.43 520.399   3
   4   3   5 23303.6 1771.79   3
   4   3   6 1461.07 579.710   3
   4   3   7 1502.08 594.657   3
   4   3   8 1291.67 554.905   3
   4   3   9 647.675 551.922   3
   4  -3  10 1408.89 649.908   1
   4  -4 -11 1227.01 716.597   2
   4  -4 -10 673.061 533.604   2
   4  -4  -9 11357.4 1672.48   2
   4  -4  -8 3699.71 1013.95   2
   4  -4  -7 5076.19 1162.17   2
   4  -4  -6 518.188 769.654   2
   4  -4  -5 947.072 725.020   2
   4  -4  -4 266.632 521.505   2
   4  -4  -3-268.918 546.559   2
   4  -4  -2 4091.30 936.949   2
   4  -4  -1 22415.2 2012.96   2
   4  -4   0 16700.2 1708.91   2
   4   4   1 25468.9 2069.33   3
   4  -4   1 27273.7 2110.50   2
   4  -4   2 8297.76 1160.52   2
   4   4   2 10941.4 1373.67   3
   4   4   3-12.4200 505.052   3
   4  -4   3 49.0060 358.410   2
   4   4   4 556.461 583.741   3
   4  -4   4 518.445 482.735   2
   4   4   5 1656.81 714.847   3
   4   4   6 12935.6 1528.79   3
   4   4   7 12395.0 1492.10   3
   4   4   8 1121.26 682.513   3
   4   4   9 6775.01 1142.57   3
   4   4  10 3587.36 920.490   3
   4  -5  -9 1487.20 951.819   2
   4  -5  -8 798.217 513.299   2
   4  -5  -7 10.1078 610.784   2
   4  -5  -6 2460.65 895.331   2
   4  -5  -5 2434.47 969.840   2
   4  -5  -4 2945.17 967.983   2
   4  -5  -3 19415.6 2072.00   2
   4   5  -2 19314.6 1950.33   3
   4  -5  -2 22163.0 2134.69   2
   4   5  -1 2255.54 884.517   3
   4   5   0 4956.27 1150.60   3
   4   5   1 7099.09 1238.54   3
   4   5   2 2686.50 904.801   3
   4   5   3-280.394 528.991   3
   4   5   4 585.260 590.169   3
   4   5   5 981.721 731.632   3
   5   0 -16 498.917 465.683   2
   5   0 -15 3333.21 1010.25   2
   5   0 -14-97.2969 513.443   2
   5   0 -13-99.8874 453.209   2
   5   0 -12 1438.34 701.065   2
   5   0 -11 2860.99 877.339   2
   5   0 -10 49.9027 483.139   2
   5   0  -9 724.247 514.413   2
   5   0  -8 978.602 473.318   2
   5   0  -7-129.884 476.514   2
  -5   0   6 61.7643 84.8571   1
   5   0  -6 6.54828 562.178   2
  -5   0   5 22151.8 787.658   1
   5   0  -5 20133.8 1650.57   2
   5   0  -4 371.011 406.746   2
   5   0  -3 31196.2 1942.41   2
   5   0  -2 132.260 165.757   1
   5   0  -2-107.149 304.711   2
   5   0  -1 5178.04 564.741   1
   5   0   0 232.542 239.535   1
   5   0   1 1058.45 285.577   1
   5   0   2-99.8543 237.892   1
   5   0   3-13.5349 226.130   1
   5   0   4 156.950 245.671   1
   5   0   5 7855.21 897.421   1
   5   0   6 710.050 423.452   1
   5   0   7 953.192 418.838   1
   5   0   8 500.864 379.002   1
   5   0   9 1221.96 541.075   1
   5   0  10 226.466 309.518   1
   5  -1 -15 1346.30 699.507   2
   5  -1 -14 1152.41 720.561   2
   5  -1 -13 176.838 610.587   2
   5  -1 -12 592.267 654.558   2
   5   1 -12 707.308 521.576   2
   5  -1 -11 1999.75 812.865   2
   5   1 -11 967.578 584.492   2
   5  -1 -10 4792.00 1133.67   2
   5   1 -10 6134.37 1068.52   2
   5   1  -9 903.794 529.454   2
   5  -1  -9 83.4276 451.176   2
   5   1  -8 744.132 469.905   2
   5  -1  -8 1209.08 694.732   2
   5   1  -7 1208.19 538.665   2
   5  -1  -7 537.680 619.939   2
   5   1  -6 2920.46 669.147   2
   5  -1  -6 2693.19 752.407   2
   5  -1  -5 403.898 483.949   2
   5   1  -5 42.9355 330.208   2
   5  -1  -4 342.294 376.712   2
   5   1  -4 373.711 322.777   2
   5   1  -3 5110.95 423.630   1
   5   1  -3 6005.08 856.779   2
   5  -1  -3 4550.09 843.416   2
   5   1  -2 33084.4 1220.27   1
   5  -1  -2 29531.0 2004.46   2
   5   1  -1 21393.1 1008.11   1
   5  -1  -1 20232.5 1605.05   2
   5   1   0 19372.1 1017.50   1
   5  -1   0 17775.2 1310.43   1
   5   1   1 1032.85 294.937   1
   5  -1   1 1547.31 415.312   1
   5   1   2 3059.89 474.167   1
   5  -1   2 2740.45 563.172   1
   5  -1   3 763.346 377.565   1
   5   1   3 444.924 207.282   1
   5  -1   4 122.149 233.752   1
   5   1   4 259.897 266.600   1
   5  -1   5 423.082 350.709   1
   5   1   5-271.167 268.365   3
   5   1   5-223.891 207.258   1
   5  -1   6 42.1491 299.382   1
   5   1   6 166.669 344.183   3
   5   1   6 301.758 288.864   1
   5  -1   7 1823.15 569.153   1
   5   1   7 1309.77 509.381   1
   5   1   8 6534.48 961.755   1
   5  -1   8 5206.51 950.352   1
   5  -1   9 314.666 308.103   1
   5   1   9-274.123 436.906   1
   5  -1  10 4923.59 984.016   1
   5   1  10 8894.83 1337.65   1
   5  -2 -13 169.725 470.455   2
   5  -2 -12 3033.79 1044.11   2
   5  -2 -11 2120.75 778.706   2
   5  -2 -10 1145.26 820.235   2
   5  -2  -9 2193.97 854.566   2
   5   2  -8 2245.46 644.742   2
   5  -2  -8 2950.81 842.542   2
   5   2  -7 10119.7 1155.35   2
   5  -2  -7 9227.79 1388.16   2
   5   2  -6 3002.24 698.165   2
   5  -2  -6 3190.96 846.302   2
   5  -2  -5 363.151 521.720   2
   5   2  -5 61.8936 416.581   2
   5  -2  -4 1514.60 741.008   2
   5   2  -4 571.353 389.509   2
   5  -2  -3-17.3427 456.706   2
   5   2  -3 108.844 102.213   1
   5   2  -2 195.897 135.703   1
   5  -2  -2 537.741 522.965   2
   5  -2  -1 572.747 452.948   2
   5  -2   0 5894.13 998.835   2
   5  -2   1 34985.3 2329.00   2
   5  -2   3 8832.93 1075.62   1
   5  -2   4 1982.09 621.767   1
   5  -2   5 1237.93 445.532   1
   5   2   5 1414.59 481.314   3
   5   2   6 106.891 382.582   3
   5  -2   6-784.807 447.725   1
   5   2   7 2310.51 603.656   3
   5  -2   7 1904.28 605.283   1
   5  -2   8 4781.09 960.931   1
   5   2   9 7159.80 1113.52   1
   5  -2   9 6772.08 1194.33   1
   5  -3 -12 1414.67 765.734   2
   5  -3 -11 2298.53 1035.42   2
   5  -3 -10 317.306 587.276   2
   5  -3  -9 507.259 613.993   2
   5  -3  -8 917.074 758.117   2
   5  -3  -7 214.371 563.102   2
   5  -3  -6 5848.28 1286.49   2
   5  -3  -5 2498.72 866.163   2
   5  -3  -4 12878.4 1633.65   2
   5  -3  -3 3895.49 1018.90   2
   5  -3  -2 1417.57 740.228   2
   5  -3  -1-79.6323 537.688   2
   5  -3   0-177.312 423.155   2
   5  -3   1-140.549 400.785   2
   5  -3   2-340.694 442.599   2
   5   3   3 5220.99 908.832   3
   5  -3   3 4229.04 836.858   2
   5   3   4 19408.1 1725.15   3
   5  -3   4 20453.5 1858.31   2
   5   3   5 28385.8 2043.82   3
   5   3   6 1774.61 595.374   3
   5   3   7 1864.21 656.098   3
   5  -4 -10 1088.26 889.685   2
   5  -4  -9 4943.52 1311.53   2
   5  -4  -8 544.574 601.337   2
   5  -4  -7 663.100 602.566   2
   5  -4  -6 633.980 701.145   2
   5  -4  -5 2617.48 870.198   2
   5  -4  -4 240.541 504.134   2
   5  -4  -3 5910.42 1216.40   2
   5  -4  -2 3162.16 1026.62   2
   5  -4  -1 5796.40 1214.41   2
   5  -4   0 6361.91 1284.56   2
   5  -4   1 5377.22 1174.32   2
   5   4   2-1698.57 828.186   3
   5  -4   2-214.701 544.257   2
   5   4   3-442.098 551.577   3
   5  -4   3-75.9650 366.015   2
   5   4   4 362.729 451.835   3
   5  -4   4 15.4097 393.473   2
   5   4   5 1072.74 764.580   3
   5   4   6 2920.02 792.576   3
   5   4   7 10096.8 1442.03   3
   5   4   8 8292.74 1277.81   3
   5  -5  -8 1427.54 850.810   2
   5  -5  -7 5275.59 1392.75   2
   5  -5  -6 5343.04 1432.41   2
   5  -5  -5-204.237 558.908   2
   5  -5  -4 1428.71 865.022   2
   5  -5  -3 2908.20 978.626   2
   5  -5  -2 12138.3 1747.50   2
   5   5  -1 4373.75 1008.92   3
   5   5   0-1067.86 924.898   3
   5   5   1-134.655 594.340   3
   5   5   2 1404.71 772.712   3
   6   0 -15 761.099 693.226   2
   6   0 -14 5818.53 1308.92   2
   6   0 -13-120.927 487.899   2
   6   0 -12 17955.3 2048.95   2
   6   0 -11 753.247 617.331   2
   6   0 -10 144.844 604.635   2
   6   0  -9-899.500 458.260   2
   6   0  -8-39.7941 511.500   2
   6   0  -7 351.885 516.518   2
   6   0  -6 3194.89 789.788   2
   6   0  -5-62.4650 448.609   2
   6   0  -4 152608. 5137.94   2
   6   0  -3-442.730 543.523   2
   6   0  -2 34505.6 2295.51   2
   6   0  -2 32735.0 1591.91   1
   6   0  -1-263.569 207.234   1
   6   0   0 3809.29 582.440   1
   6   0   1 763.021 341.530   1
   6   0   2 149.855 221.735   1
   6   0   3 169.879 227.332   1
   6   0   4 9669.29 1064.83   1
   6   0   5 781.514 380.362   1
   6   0   6 15087.3 1425.87   1
   6   0   7 349.162 483.859   1
   6   0   8-577.657 390.444   1
   6   0   9 1111.00 525.876   1
   6  -1 -14 3386.58 1105.42   2
   6  -1 -13-39.2896 600.671   2
   6  -1 -12 940.547 688.120   2
   6   1 -12 1530.60 671.235   2
   6  -1 -11 2960.35 1031.33   2
   6   1 -11 1420.90 758.794   2
   6   1 -10 6205.05 1110.04   2
   6  -1 -10 5523.65 1177.19   2
   6   1  -9 2429.82 811.015   2
   6  -1  -9 2987.98 944.530   2
   6   1  -8 10636.8 1398.84   2
   6  -1  -8 9879.49 1525.69   2
   6   1  -7 32143.3 2302.53   2
   6  -1  -7 28800.5 2362.84   2
   6   1  -6 17916.0 1691.94   2
   6  -1  -6 21092.0 1996.91   2
   6  -1  -5 9507.48 1366.95   2
   6   1  -5 6299.44 1028.15   2
   6   1  -4 832.368 409.281   2
   6  -1  -4 1378.76 488.356   2
   6   1  -3 227.570 176.190   1
   6   1  -3-127.745 454.439   2
   6  -1  -3-221.935 448.596   2
   6  -1  -2 19764.4 1820.48   2
   6   1  -2 18504.2 1025.83   1
   6  -1  -1 37199.1 2463.84   2
   6   1  -1 36890.6 1559.72   1
   6   1   0 23962.2 1304.70   1
   6  -1   0 22706.0 1554.72   1
   6   1   1 840.269 319.024   1
   6  -1   1 1094.96 420.433   1
   6   1   2 3999.80 601.311   1
   6  -1   2 4313.06 737.773   1
   6  -1   3 7515.79 965.976   1
   6   1   3 7249.33 837.790   1
   6   1   4 2619.31 561.557   1
   6  -1   4 2637.89 632.999   1
   6   1   5 40.1630 220.308   1
   6  -1   5 48.1321 271.702   1
   6   1   6 1166.72 455.314   1
   6  -1   6 475.908 362.713   1
   6   1   7 1018.98 467.350   1
   6  -1   7 1158.73 523.528   1
   6   1   8 3688.44 806.563   1
   6  -1   8 2478.41 792.071   1
   6  -2 -12 77.9718 666.071   2
   6  -2 -11 1978.64 887.229   2
   6  -2 -10 10241.2 1646.76   2
   6  -2  -9 13936.9 1830.15   2
   6  -2  -8 473.251 707.501   2
   6   2  -7 4316.92 921.943   2
   6  -2  -7 4111.50 1028.92   2
   6   2  -6 6724.12 1042.51   2
   6  -2  -6 7086.69 1274.41   2
   6  -2  -5 538.238 511.739   2
   6   2  -5 517.808 416.880   2
   6  -2  -4 2339.66 897.888   2
   6   2  -4 1899.75 564.913   2
   6  -2  -3 935.372 666.438   2
   6   2  -3 320.719 373.894   2
   6  -2  -2 1020.04 582.130   2
   6   2  -1 857.213 254.987   1
   6  -2  -1 221.015 428.068   2
   6  -2   0 2271.92 721.422   2
   6   2   0 1730.31 371.059   1
   6   2   1 15887.6 1113.89   1
   6  -2   1 15157.6 1712.96   2
   6   2   2 9614.03 937.963   1
   6   2   3 4257.53 678.028   1
   6  -2   4 1713.03 583.127   1
   6   2   4 2268.96 531.155   1
   6   2   5 700.591 553.596   3
   6  -2   5 516.876 390.252   1
   6   2   5 49.8381 246.780   1
   6  -2   6 630.950 482.605   1
   6   2   6 542.631 350.483   1
   6  -2   7 2733.96 815.547   1
   6   2   7 3471.24 754.790   1
   6   2   8 4240.89 838.919   1
   6  -3 -11 1339.49 983.939   2
   6  -3 -10 1132.09 919.403   2
   6  -3  -9 2283.82 872.173   2
   6  -3  -8 224.436 536.217   2
   6  -3  -7 1066.31 639.192   2
   6  -3  -6-334.784 524.174   2
   6  -3  -5 712.065 773.743   2
   6  -3  -4 2173.29 951.957   2
   6  -3  -3 3992.24 1063.59   2
   6  -3  -2 929.371 795.946   2
   6  -3  -1 1428.77 698.387   2
   6  -3   0 113.144 463.089   2
   6  -3   1 226.300 551.109   2
   6  -3   2-234.577 451.369   2
   6  -3   3 276.196 487.361   2
   6   3   4 7464.40 1158.32   3
   6  -3   4 6422.92 1192.95   2
   6   3   5 445.720 544.334   3
   6   3   6 6982.66 1129.70   3
   6  -4  -8 673.440 652.901   2
   6  -4  -7 1263.45 874.319   2
   6  -4  -6 1562.34 857.865   2
   6  -4  -5 1988.55 997.027   2
   6  -4  -4 1444.80 798.038   2
   6  -4  -3 129.611 507.313   2
   6  -4  -2 519.006 815.084   2
   6  -4  -1 1074.54 846.441   2
   6  -4   0 1617.91 806.293   2
   6  -4   1 2859.70 1001.62   2
   6   4   2 1233.98 649.414   3
   6  -4   2 975.732 730.538   2
   6   4   3 6859.26 1314.73   3
   6  -4   3 6373.74 1253.73   2
   6   4   4 1309.69 741.963   3
   6  -4   4 1526.38 580.734   2
   6   4   5 1255.70 771.136   3
   6   4   6 707.456 671.156   3
   6  -5  -5 232.838 589.012   2
   6  -5  -4 175.367 636.623   2
   6  -5  -3 799.822 728.590   2
   6  -5  -2 129.277 637.732   2
   7   0 -14 1479.08 933.525   2
   7   0 -13 4722.45 1228.28   2
   7   0 -12 652.214 671.767   2
   7   0 -11 2381.74 873.463   2
   7   0 -10 1793.91 835.332   2
   7   0  -9 3778.93 965.862   2
   7   0  -8 789.607 623.750   2
   7   0  -7 2721.23 910.431   2
   7   0  -6 59.0748 704.679   2
   7   0  -5 642.411 599.562   2
   7   0  -4-561.108 500.244   2
   7   0  -3 28065.0 2297.13   2
   7   0  -2 778.285 559.389   2
   7   0  -1 199.843 270.956   1
   7   0   0 384.285 363.922   1
   7   0   1 124.704 249.090   1
   7   0   2 73.9476 251.869   1
   7   0   3 706.771 404.743   1
   7   0   4 445.294 359.985   1
   7   0   5 919.101 498.083   1
   7   0   6-98.8634 315.533   1
   7   0   7 1482.66 607.946   1
   7  -1 -12 880.658 703.119   2
   7   1 -11-400.119 505.682   2
   7  -1 -11 971.640 841.488   2
   7   1 -10 1049.51 628.395   2
   7  -1 -10 1217.46 752.709   2
   7   1  -9 81.2154 501.697   2
   7  -1  -9-221.366 724.482   2
   7   1  -8 252.433 452.900   2
   7  -1  -8-467.950 702.828   2
   7   1  -7 4648.65 1061.02   2
   7  -1  -7 5857.29 1193.73   2
   7   1  -6 27206.1 2314.04   2
   7  -1  -6 28583.5 2523.77   2
   7  -1  -5 5482.69 1143.85   2
   7   1  -5 4925.84 1031.02   2
   7   1  -4 544.708 567.971   2
   7  -1  -4-830.214 621.296   2
   7   1  -3-867.731 463.480   2
   7  -1  -3 1394.75 682.264   2
   7  -1  -2 516.279 531.161   2
   7   1  -1 268.825 232.969   1
   7  -1  -1 964.982 640.327   2
   7  -1   0 676.541 577.958   2
   7   1   0 554.863 292.697   1
   7  -1   1 832.048 487.981   1
   7   1   1 287.880 267.216   1
   7  -1   2 5450.66 885.286   1
   7   1   2 4235.08 706.802   1
   7   1   3 577.119 327.752   1
   7  -1   3 99.1586 292.587   1
   7  -1   4 608.465 461.669   1
   7   1   4 243.835 294.929   1
   7  -1   5 389.129 352.566   1
   7   1   5 877.047 475.688   1
   7  -1   6 356.035 482.517   1
   7   1   6 450.780 375.446   1
   7   1   7 719.003 490.172   1
   7  -2 -11 689.885 803.307   2
   7  -2 -10 7260.55 1380.70   2
   7  -2  -9 19108.6 2254.16   2
   7  -2  -8 12589.7 1790.07   2
   7   2  -7 1593.85 695.770   2
   7  -2  -7 2413.02 930.096   2
   7   2  -6 781.526 573.359   2
   7  -2  -6-256.153 444.492   2
   7  -2  -5 983.014 772.994   2
   7   2  -5 1013.80 583.427   2
   7  -2  -4 387.418 518.110   2
   7   2  -4 325.991 410.861   2
   7   2  -3 1592.90 628.254   2
   7  -2  -3 2636.05 887.684   2
   7  -2  -2 2119.36 746.005   2
   7  -2  -1 2099.47 806.713   2
   7  -2   0 802.153 548.743   2
   7   2   1 3395.70 587.748   1
   7  -2   1 2215.95 818.360   2
   7   2   2 643.980 347.038   1
   7  -2   2 2.56631 471.909   2
   7   2   3 1427.52 425.232   1
   7   2   4 2736.77 607.792   1
   7   2   5 804.472 406.451   1
   7  -2   5 1589.85 649.872   1
   7   2   6 501.478 380.350   1
   7  -3  -8 1783.55 911.302   2
   7  -3  -7-711.259 841.255   2
   7  -3  -6-143.911 687.395   2
   7  -3  -5 1487.24 866.384   2
   7  -3  -4 3361.26 1123.05   2
   7  -3  -3 3826.13 1106.69   2
   7  -3  -2 6176.75 1364.08   2
   7  -3  -1 475.721 484.971   2
   7  -3   0-49.6609 555.747   2
   7  -3   1-1118.14 741.115   2
   7  -3   2-184.940 441.687   2
   7  -3   3 806.670 638.566   2
   7   3   4 138.911 497.845   3
   7  -3   4-62.7533 501.877   2
   7   3   4 162.740 211.610   1
   7  -3   5 628.333 667.781   2
   7   3   5-316.361 360.051   1
   7  -4  -5 7915.88 1583.22   2
   7  -4  -4 1095.66 885.555   2
   7  -4  -3 1697.36 916.167   2
   7  -4  -2-1417.59 556.832   2
   7  -4  -1 1970.82 1001.83   2
   7  -4   0 2138.84 919.200   2
   7  -4   1 1321.76 836.684   2
   7  -4   2 1365.45 771.292   2
   7  -4   3 2531.74 886.523   2
   8   0 -11 617.015 792.056   2
   8   0 -10 649.148 843.297   2
   8   0  -9 11.3660 507.753   2
   8   0  -8 2721.84 954.134   2
   8   0  -7 1138.64 632.914   2
   8   0  -6 1483.39 908.343   2
   8   0  -5-592.202 598.181   2
   8   0  -4 770.383 639.858   2
   8   0  -3-1386.75 868.306   2
   8   0  -2 13385.8 1779.25   2
   8   0  -1 783.472 665.906   2
   8   0   0 5628.93 866.072   1
   8   0   1-428.576 354.448   1
   8   0   2 594.995 435.714   1
   8   0   3 259.832 311.273   1
   8   0   4 413.203 410.224   1
   8   0   5 344.515 350.685   1
   8   1 -10-156.618 608.228   2
   8  -1 -10 1985.52 1002.06   2
   8   1  -9 684.205 681.055   2
   8  -1  -9 74.8961 552.848   2
   8   1  -8 931.068 744.737   2
   8  -1  -8 930.821 827.337   2
   8   1  -7 1281.79 686.995   2
   8  -1  -7 2360.39 969.652   2
   8   1  -6 473.906 821.230   2
   8  -1  -6 331.939 782.152   2
   8  -1  -5 1395.61 792.837   2
   8   1  -5-1072.53 498.395   2
   8   1  -4 3417.48 922.465   2
   8  -1  -4 2877.14 934.436   2
   8   1  -3 846.390 603.021   2
   8  -1  -3 1724.33 761.151   2
   8   1  -2 426.617 481.776   2
   8  -1  -2-503.008 456.476   2
   8  -1  -1-440.319 485.271   2
   8  -1   0 3601.71 991.942   2
   8  -1   1 3740.30 1043.61   2
   8   1   2 4385.18 793.621   1
   8  -1   2 4406.11 902.979   1
   8  -1   3-150.683 309.581   1
   8   1   3 322.207 407.963   1
   8  -1   4 4891.82 1052.60   1
   8   1   4 4004.58 811.770   1
   8   1   5 8005.52 1222.97   1
   8  -2  -8 1129.42 833.259   2
   8  -2  -7 63.0686 684.607   2
   8  -2  -6 2105.22 1002.03   2
   8  -2  -5 1746.40 920.986   2
   8   2  -5 1290.51 695.993   2
   8  -2  -4 1312.08 764.009   2
   8   2  -4-626.477 716.086   2
   8   2  -3 2441.76 845.075   2
   8  -2  -3 1983.49 831.644   2
   8   2  -2-799.517 577.716   2
   8  -2  -2 1855.17 934.078   2
   8  -2  -1 1149.40 721.474   2
   8  -2   0 1034.55 690.083   2
   8  -2   1 1570.31 892.306   2
   8  -2   2 688.073 593.151   2
   8  -3  -3 3296.82 1184.31   2
   8  -3  -2 3214.27 1062.34   2
   8  -3  -1 2698.08 1080.62   2
   9   0  -7 644.870 728.495   2
   9   0  -6 1715.90 852.236   2
   9   0  -5-172.907 550.086   2
   9   0  -4 637.976 946.409   2
   9   0  -3 2417.84 1060.79   2
   9   1  -9 293.661 850.825   2
   9   1  -8 1880.16 940.410   2
   9   1  -7 5445.44 1351.58   2
   9   1  -6 6621.78 1427.44   2
   9   1  -5-309.260 523.534   2
   9   1  -4 2766.12 1007.57   2
   9   1  -3 3638.40 1003.93   2
   9   1  -2 1113.44 763.565   2
   9   2  -4 3737.90 1106.37   2
   9   2  -3-11.9603 674.591   2
   9   2  -2 553.172 497.257   2
   0   0   0    0.00    0.00   0
TITL Ml28a in P2(1)/n
REM P2(1)/n (#14 in standard setting)
CELL 0.71073   7.105664   4.993287  12.597188  90.0000 102.7706  90.0000
ZERR    3.00   0.001258   0.000688   0.002122   0.0000   0.0188   0.0000
LATT  1
SYMM -x+1/2, y+1/2,-z+1/2
SFAC C H N
UNIT 24.00 30.00 6.00
TREF
HKLF 4
END
;
_shelx_hkl_checksum              996
#END Tags that were not found in dictionaries
loop_
_space_group_symop_operation_xyz
'x, y, z'
'-x+1/2, y+1/2, -z+1/2'
'-x, -y, -z'
'x-1/2, -y-1/2, z-1/2'
loop_
_atom_site_label
_atom_site_type_symbol
_atom_site_fract_x
_atom_site_fract_y
_atom_site_fract_z
_atom_site_U_iso_or_equiv
_atom_site_adp_type
_atom_site_occupancy
_atom_site_site_symmetry_order
_atom_site_calc_flag
_atom_site_refinement_flags_posn
_atom_site_refinement_flags_adp
_atom_site_refinement_flags_occupancy
_atom_site_disorder_assembly
_atom_site_disorder_group
N1 N 0.1968(3) 0.0569(4) 0.04913(15) 0.0190(6) Uani 0.80(3) 1 d . . P A 1
C1 C 0.1968(3) 0.0569(4) 0.04913(15) 0.0190(6) Uani 0.20(3) 1 d . . P A 2
H1 H 0.3278 0.0956 0.0817 0.023 Uiso 0.20(3) 1 calc R U P A 2
C2 C 0.1482(3) -0.1336(5) -0.02836(17) 0.0190(6) Uani 1 1 d . . . . .
C3 C 0.2949(3) -0.2813(5) -0.06221(18) 0.0231(6) Uani 1 1 d . . . . .
H3 H 0.4267 -0.2455 -0.0306 0.028 Uiso 1 1 calc R U . . .
C4 C 0.2474(4) -0.4750(5) -0.14011(19) 0.0245(6) Uani 1 1 d . . . . .
H4 H 0.3470 -0.5746 -0.1613 0.029 Uiso 1 1 calc R U . . .
C5 C 0.0506(3) 0.1892(4) 0.07783(17) 0.0179(6) Uani 1 1 d . . . . .
C6 C 0.0912(4) 0.3930(5) 0.15902(18) 0.0235(6) Uani 1 1 d . . . . .
H6 H 0.2215 0.4339 0.1923 0.028 Uiso 1 1 calc R U . . .
C7 C -0.0536(4) 0.5294(5) 0.18948(19) 0.0252(6) Uani 1 1 d . . . . .
H7 H -0.0239 0.6625 0.2445 0.030 Uiso 1 1 calc R U . . .
loop_
_atom_site_aniso_label
_atom_site_aniso_U_11
_atom_site_aniso_U_22
_atom_site_aniso_U_33
_atom_site_aniso_U_23
_atom_site_aniso_U_13
_atom_site_aniso_U_12
N1 0.0229(12) 0.0156(12) 0.0182(10) 0.0019(8) 0.0042(9) -0.0005(10)
C1 0.0229(12) 0.0156(12) 0.0182(10) 0.0019(8) 0.0042(9) -0.0005(10)
C2 0.0247(13) 0.0162(12) 0.0154(11) 0.0034(10) 0.0028(10) 0.0005(11)
C3 0.0224(13) 0.0227(14) 0.0254(13) 0.0037(11) 0.0076(11) 0.0022(12)
C4 0.0323(14) 0.0195(13) 0.0257(13) 0.0008(11) 0.0147(11) 0.0024(13)
C5 0.0254(13) 0.0144(12) 0.0136(10) 0.0049(10) 0.0036(10) -0.0003(11)
C6 0.0264(14) 0.0211(14) 0.0226(13) -0.0021(11) 0.0042(11) -0.0029(12)
C7 0.0353(14) 0.0193(13) 0.0218(12) -0.0029(11) 0.0083(11) -0.0036(13)
loop_
_atom_type_symbol
_atom_type_description
_atom_type_scat_dispersion_real
_atom_type_scat_dispersion_imag
_atom_type_scat_source
C C 0.0033 0.0016 'International Tables Vol C Tables 4.2.6.8 and 6.1.1.4'
H H 0.0000 0.0000 'International Tables Vol C Tables 4.2.6.8 and 6.1.1.4'
N N 0.0061 0.0033 'International Tables Vol C Tables 4.2.6.8 and 6.1.1.4'
loop_
_geom_angle_atom_site_label_1
_geom_angle_atom_site_label_2
_geom_angle_atom_site_label_3
_geom_angle
_geom_angle_site_symmetry_3
C5 N1 C2 116.7(2) .
N1 C2 C3 119.7(2) .
N1 C2 C5 121.2(2) 3
C3 C2 C5 119.1(2) 3
C4 C3 C2 120.2(2) .
C3 C4 C7 121.1(2) 3
N1 C5 C6 119.8(2) .
N1 C5 C2 122.1(2) 3
C6 C5 C2 118.2(2) 3
C7 C6 C5 120.9(2) .
C6 C7 C4 120.5(2) 3
loop_
_geom_bond_atom_site_label_1
_geom_bond_atom_site_label_2
_geom_bond_distance
_geom_bond_site_symmetry_2
N1 C5 1.346(3) .
N1 C2 1.352(3) .
C2 C3 1.418(3) .
C2 C5 1.439(3) 3
C3 C4 1.366(3) .
C4 C7 1.407(3) 3
C5 C6 1.427(3) .
C5 C2 1.439(3) 3
C6 C7 1.358(3) .
C7 C4 1.407(3) 3
