#------------------------------------------------------------------------------
#$Date: 2015-09-05 23:34:09 +0300 (Sat, 05 Sep 2015) $
#$Revision: 154543 $
#$URL: svn://www.crystallography.net/cod/cif/4/51/33/4513311.cif $
#------------------------------------------------------------------------------
#
# This file is available in the Crystallography Open Database (COD),
# http://www.crystallography.net/
#
# All data on this site have been placed in the public domain by the
# contributors.
#
data_4513311
loop_
_publ_author_name
'Lusi, Matteo'
'Vitorica-Yrezabal, Inigo J.'
'Zaworotko, Michael J.'
_publ_section_title
;
 Expanding the Scope of Molecular Mixed Crystals Enabled by Three
 Component Solid Solutions
;
_journal_issue                   8
_journal_name_full               'Crystal Growth &amp; Design'
_journal_page_first              4098
_journal_paper_doi               10.1021/acs.cgd.5b00685
_journal_volume                  15
_journal_year                    2015
_chemical_formula_sum            'C6.24 H4.24 N0.75'
_chemical_formula_weight         89.86
_chemical_name_systematic
;
 ?
;
_space_group_crystal_system      monoclinic
_space_group_IT_number           14
_space_group_name_Hall           '-P 2yn'
_space_group_name_H-M_alt        'P 1 21/n 1'
_symmetry_space_group_name_Hall  '-P 2yn'
_symmetry_space_group_name_H-M   'P 1 21/n 1'
_atom_sites_solution_hydrogens   geom
_audit_creation_method           SHELXL-2014
_cell_angle_alpha                90
_cell_angle_beta                 102.737(14)
_cell_angle_gamma                90
_cell_formula_units_Z            4
_cell_length_a                   7.1465(12)
_cell_length_b                   4.9932(8)
_cell_length_c                   12.6435(15)
_cell_measurement_temperature    100(2)
_cell_volume                     440.07(12)
_computing_structure_refinement  'SHELXL-2014 (Sheldrick, 2014)'
_diffrn_ambient_temperature      100(2)
_diffrn_measured_fraction_theta_full 0.995
_diffrn_measured_fraction_theta_max 0.885
_diffrn_radiation_type           MoK\a
_diffrn_radiation_wavelength     0.71073
_diffrn_reflns_av_R_equivalents  0.0352
_diffrn_reflns_av_unetI/netI     0.1041
_diffrn_reflns_laue_measured_fraction_full 0.995
_diffrn_reflns_laue_measured_fraction_max 0.885
_diffrn_reflns_limit_h_max       10
_diffrn_reflns_limit_h_min       -9
_diffrn_reflns_limit_k_max       4
_diffrn_reflns_limit_k_min       -7
_diffrn_reflns_limit_l_max       11
_diffrn_reflns_limit_l_min       -16
_diffrn_reflns_number            1773
_diffrn_reflns_point_group_measured_fraction_full 0.995
_diffrn_reflns_point_group_measured_fraction_max 0.885
_diffrn_reflns_theta_full        25.242
_diffrn_reflns_theta_max         30.154
_diffrn_reflns_theta_min         3.304
_exptl_absorpt_coefficient_mu    0.081
_exptl_absorpt_correction_T_max  1.58
_exptl_absorpt_correction_T_min  0.66
_exptl_absorpt_correction_type   multi-scan
_exptl_absorpt_process_details   sadabs
_exptl_crystal_colour            yellow
_exptl_crystal_density_diffrn    1.356
_exptl_crystal_description       needle
_exptl_crystal_F_000             188
_refine_diff_density_max         0.319
_refine_diff_density_min         -0.251
_refine_diff_density_rms         0.071
_refine_ls_extinction_method     none
_refine_ls_goodness_of_fit_ref   1.047
_refine_ls_hydrogen_treatment    constr
_refine_ls_matrix_type           full
_refine_ls_number_parameters     65
_refine_ls_number_reflns         1154
_refine_ls_number_restraints     0
_refine_ls_restrained_S_all      1.047
_refine_ls_R_factor_all          0.1403
_refine_ls_R_factor_gt           0.0838
_refine_ls_shift/su_max          0.000
_refine_ls_shift/su_mean         0.000
_refine_ls_structure_factor_coef Fsqd
_refine_ls_weighting_details
'w=1/[\s^2^(Fo^2^)+(0.0735P)^2^+0.3417P] where P=(Fo^2^+2Fc^2^)/3'
_refine_ls_weighting_scheme      calc
_refine_ls_wR_factor_gt          0.1843
_refine_ls_wR_factor_ref         0.2248
_reflns_Friedel_coverage         0.000
_reflns_number_gt                644
_reflns_number_total             1154
_reflns_threshold_expression     'I > 2\s(I)'
_cod_data_source_file            cg5b00685_si_015.cif
_cod_data_source_block           D:\#14
_cod_depositor_comments
'Adding full bibliography for 4513301--4513322.cif.'
_cod_database_code               4513311
_shelx_space_group_comment
;
The symmetry employed for this shelxl refinement is uniquely defined
by the following loop, which should always be used as a source of
symmetry information in preference to the above space-group names.
They are only intended as comments.
;
_shelxl_version_number           2014-3
_shelx_res_file
;
REM  ml023a in P21/n #14
REM R1 =  0.0510 for     801 Fo > 4sig(Fo)  and  0.0611 for all     961 data
REM     65 parameters refined using      0 restraints
REM  ml025b in P21/n #14
REM R1 =  0.0844 for     636 Fo > 4sig(Fo)  and  0.1431 for all    1154 data
REM     65 parameters refined using      0 restraints
REM Highest difference peak  0.296,  deepest hole -0.303,  1-sigma level  0.072
REM  ml025b in P21/n #14
REM R1 =  0.0838 for     644 Fo > 4sig(Fo)  and  0.1402 for all    1154 data
REM     65 parameters refined using      0 restraints
REM Highest difference peak  0.319,  deepest hole -0.250,  1-sigma level  0.071
REM  ml025b in P21/n #14
REM R1 =  0.0849 for     644 Fo > 4sig(Fo)  and  0.1418 for all    1154 data
REM     65 parameters refined using      0 restraints
REM Highest difference peak  0.312,  deepest hole -0.263,  1-sigma level  0.071
REM  ml025b in P21/n #14
REM R1 =  0.0838 for     644 Fo > 4sig(Fo)  and  0.1402 for all    1154 data
REM     65 parameters refined using      0 restraints
REM Highest difference peak  0.320,  deepest hole -0.250,  1-sigma level  0.071
TITL ml025b in P21/n #14
CELL 0.71073 7.1465 4.9932 12.6435 90.000 102.737 90.000
ZERR 4.0000 0.0012 0.0008 0.0015 0.000 0.014 0.000
LATT 1
SYMM 0.5-X, 0.5+Y, 0.5-Z
SFAC C H N
UNIT 24.98 16.98 3.02
MERG 2
FMAP 2
GRID
PLAN 5
TEMP -173
BOND
EXYZ N1 C1
EADP N1 C1
L.S. 20
ACTA
WGHT    0.073500    0.341700
FVAR      10.11302   0.75485
PART 1
N1    3    0.195148    0.055595    0.049718    21.00000    0.02549    0.02173 =
         0.01915   -0.00050    0.00742   -0.00057
PART 2
C1    1    0.195148    0.055595    0.049718   -21.00000    0.02549    0.02173 =
         0.01915   -0.00050    0.00742   -0.00057
AFIX  43
H1    2    0.325286    0.092871    0.082704   -21.00000   -1.20000
PART 0
AFIX   0
C2    1    0.147509   -0.134080   -0.027795    11.00000    0.02305    0.02183 =
         0.01999    0.00558    0.00869    0.00039
C3    1    0.294541   -0.284911   -0.061359    11.00000    0.02291    0.02411 =
         0.02851    0.00174    0.01062    0.00017
AFIX  43
H3    2    0.425362   -0.251658   -0.028588    11.00000   -1.20000
AFIX   0
C4    1    0.249001   -0.474778   -0.139454    11.00000    0.03011    0.02731 =
         0.02866    0.00283    0.01718    0.00457
AFIX  43
H4    2    0.348167   -0.573635   -0.160747    11.00000   -1.20000
AFIX   0
C5    1    0.049684    0.190030    0.078310    11.00000    0.02444    0.01619 =
         0.01943    0.00178    0.00771   -0.00148
C6    1    0.089992    0.390870    0.159693    11.00000    0.02985    0.02676 =
         0.02206   -0.00237    0.00750   -0.00351
AFIX  43
H6    2    0.219421    0.430229    0.193490    11.00000   -1.20000
AFIX   0
C7    1   -0.054143    0.527303    0.189787    11.00000    0.03877    0.02676 =
         0.02304   -0.00398    0.01429   -0.00351
AFIX  43
H7    2   -0.024519    0.659297    0.245070    11.00000   -1.20000
AFIX   0
HKLF 4

REM  ml025b in P21/n #14
REM R1 =  0.0838 for     644 Fo > 4sig(Fo)  and  0.1403 for all    1154 data
REM     65 parameters refined using      0 restraints

END

WGHT      0.0737      0.3411

REM Highest difference peak  0.319,  deepest hole -0.251,  1-sigma level  0.071
Q1    1   0.2187 -0.2246 -0.0414  11.00000  0.05    0.32
Q2    1  -0.0493  0.0901  0.0799  11.00000  0.05    0.30
Q3    1  -0.0458  0.2259  0.0269  11.00000  0.05    0.25
Q4    1   0.1217  0.6473  0.2825  11.00000  0.05    0.24
Q5    1   0.1565 -0.5303 -0.1418  11.00000  0.05    0.23
;
_shelx_res_checksum              89390
_shelx_hkl_file
;
   0   0   2 106735. 1508.93   1
   0   0   3 5.79802 35.3271   3
   0   0  -3 15.2854 22.7177   1
   0   0   4 7752.08 347.917   3
   0   0  -4 7067.95 547.790   1
   0   0  -5 216.267 142.109   1
   0   0   5 349.061 121.548   3
   0   0   6 8144.49 493.538   3
   0   0  -6 7390.92 712.760   1
   0   0   7 1849.82 282.205   3
   0   0  -7 2809.97 486.615   1
   0   0  -8 57625.3 2208.14   1
   0   0   8 54750.2 1621.36   3
   0   0  -9 82.8047 157.008   1
   0   0 -10 21064.3 1554.17   1
   0   0 -11 169.385 179.158   1
   0   0 -12 204.685 168.121   1
   0   0 -13 304.360 288.986   1
   0   0 -14 845.043 431.255   1
   0   0 -15 307.431 396.732   1
   0   0 -16 284.742 315.460   1
   0   1   0 19.2636 134.454   2
   0  -1   0-55.3205 26.0745   2
   0  -1   1 5078.70 352.234   1
   0   1  -1 5114.07 549.927   2
   0  -1   1 5763.26 589.927   2
   0  -1  -2 208213. 2361.86   1
   0   1  -2 214291. 2632.57   1
   0  -1   2 212814. 3060.52   2
   0  -1  -3 406263. 3784.63   1
   0  -1   3 416651. 3975.07   2
   0   1  -3 400192. 4020.28   1
   0   1  -4 120259. 2455.74   1
   0  -1  -4 120295. 2328.73   1
   0   1  -5 9200.44 745.208   1
   0  -1  -5 9749.15 734.290   1
   0  -1  -6 28956.0 1384.11   1
   0   1  -6 27819.1 1417.41   1
   0   1  -7 20696.2 1305.19   1
   0  -1  -7 21293.5 1277.20   1
   0  -1  -8 7016.74 785.125   1
   0   1  -8 7052.46 817.132   1
   0  -1  -9 15.5909 88.7685   1
   0   1  -9 228.372 160.563   1
   0   1 -10 2689.72 575.461   1
   0  -1 -10 2479.30 549.508   1
   0  -1 -11 2327.29 548.297   1
   0   1 -11 2397.33 579.905   1
   0  -1 -12 3713.04 728.218   1
   0   1 -12 2999.37 670.801   1
   0   1 -13 1166.92 468.282   1
   0  -1 -13 1671.19 546.921   1
   0  -1 -14 836.945 402.377   1
   0   1 -14 1418.92 548.205   1
   0  -1 -15 1514.30 545.524   1
   0   1 -15 1564.22 577.775   1
   0  -1 -16 347.391 169.731   1
   0   1 -16 0.62199 11.5374   1
   0  -2   0 22511.5 1618.63   2
   0  -2  -1 390.754 366.298   2
   0  -2   1 95.4363 234.901   2
   0  -2  -2 37684.4 2487.30   2
   0  -2   2 36258.8 2054.30   2
   0  -2   3 16145.2 1250.82   2
   0   2  -3 15201.0 947.276   1
   0  -2  -3 16203.4 870.911   1
   0   2  -4 5915.85 642.995   1
   0  -2   4 6510.02 716.072   2
   0  -2  -4 5484.94 543.195   1
   0  -2   5 72004.9 2252.02   2
   0   2  -5 69864.4 2343.26   1
   0  -2  -5 70764.4 2101.52   1
   0   2  -6 39029.6 1856.06   1
   0  -2  -6 39715.0 1707.46   1
   0  -2  -7 4519.10 617.063   1
   0   2  -7 4742.00 687.431   1
   0  -2  -8 349.246 233.475   1
   0   2  -8 273.981 216.464   1
   0  -2  -9 8.08314 49.6693   1
   0   2  -9-22.0312 88.7083   1
   0  -2 -10 598.511 299.290   1
   0   2 -10 242.099 251.021   1
   0  -2 -11 5902.21 904.435   1
   0   2 -11 4960.53 873.204   1
   0  -2 -12 3865.80 761.380   1
   0   2 -12 3081.99 750.900   1
   0   2 -13 847.147 394.298   1
   0  -2 -13 92.8864 114.289   1
   0   2 -14 890.434 429.481   1
   0  -2 -14 877.243 397.704   1
   0   2 -15 839.778 459.340   1
   0  -2 -15 642.711 388.571   1
   0  -2 -16-40.0686 174.822   1
   0  -3   0 174.655 241.277   2
   0  -3  -1 9985.52 1461.49   2
   0  -3   1 9945.47 1268.59   2
   0  -3  -2 3737.13 950.527   2
   0  -3   2 2663.29 658.554   2
   0  -3   3 5086.37 893.230   2
   0  -3  -3 4357.90 985.114   2
   0  -3  -4 207.776 262.116   2
   0  -3  -4 153.245 150.170   1
   0  -3   4 197.767 239.069   2
   0  -3  -5 915.043 264.512   1
   0  -3   5 885.641 283.864   2
   0   3  -6 2795.03 577.093   1
   0  -3  -6 2736.18 501.910   1
   0  -3   6 2201.01 509.458   2
   0  -3  -7 292.338 185.058   1
   0   3  -7 242.976 206.876   1
   0  -3  -8 15807.4 1280.25   1
   0   3  -8 16368.0 1516.71   1
   0  -3  -9 5301.30 820.753   1
   0   3  -9 6738.27 1046.49   1
   0  -3 -10 4118.19 751.683   1
   0   3 -10 5190.67 943.849   1
   0  -3 -11 1047.84 401.167   1
   0   3 -11 1296.06 521.863   1
   0   3 -12 1759.01 660.906   1
   0  -3 -12 795.024 449.461   1
   0   3 -13 739.765 397.533   1
   0  -3 -13 840.269 506.522   1
   0   3 -14 1419.94 598.602   1
   0  -4   0 1429.02 677.326   2
   0  -4   1 659.239 486.399   2
   0  -4  -1-162.972 307.512   2
   0  -4   2 108.370 355.184   2
   0  -4  -2 1397.93 644.481   2
   0  -4  -3-86.6564 127.072   2
   0  -4   3-29.4117 142.315   2
   0  -4   4 1894.77 633.135   2
   0  -4  -4 1921.44 398.346   1
   0  -4  -4 2511.94 847.966   2
   0  -4  -5 3069.57 926.672   2
   0  -4  -5 5966.11 721.311   1
   0  -4   5 5895.12 1033.20   2
   0  -4  -6 722.035 463.063   2
   0  -4   6 2006.16 595.240   2
   0  -4   7 5430.30 860.211   2
   0  -4  -7 5026.73 1278.43   2
   0  -4  -8 1078.09 646.049   2
   0  -4  -9 764.878 633.264   2
   0  -5   0 877.060 625.226   2
   0  -5   1 308.573 402.135   2
   0  -5  -1 1482.31 714.164   2
   0  -5  -2 421.017 309.451   2
   0  -5   2-202.253 272.757   2
   0  -5  -3 433.341 317.424   2
   0  -5   3 1119.50 568.545   2
   0  -5  -4 2326.34 864.469   2
   0  -5   4 3136.77 880.590   2
   0  -5  -5 923.530 791.206   2
   0  -5  -6-33.7998 146.626   2
   0  -5  -7 11.2729 517.813   2
   0  -5  -8 1041.71 707.316   2
   0  -5  -9 514.464 592.953   2
   0  -5 -10 314.065 389.244   2
   0  -6   0 1374.15 750.341   2
   0  -6  -1 1449.70 1100.91   2
   0  -6  -2 707.754 565.476   2
   0  -6  -3 376.458 628.861   2
   0  -6  -4 1138.14 825.880   2
   0  -6  -5-745.431 551.765   2
   0  -6  -6-158.349 364.312   2
   0  -6  -7 103.927 435.140   2
   1   0 -16 83.3843 264.799   1
   1   0 -15 1147.41 467.835   1
   1   0 -14 105.878 121.524   1
   1   0 -13 603.621 381.483   1
   1   0 -12 71.0519 110.802   1
   1   0 -11 265.443 216.581   1
   1   0 -10 181.847 230.641   1
   1   0  -9 31327.0 1771.38   1
   1   0  -8 153.535 146.969   1
   1   0  -7 5632.45 657.301   1
   1   0  -6 175.669 175.553   1
   1   0  -5 26321.6 1228.74   1
   1   0  -4 32.3623 98.1637   1
   1   0  -3 68706.1 1639.61   1
   1   0  -2 65.0316 58.9211   1
   1   0   1 310706. 2709.03   1
  -1   0  -1 314652. 3790.39   2
  -1   0  -2 7.52753 25.1680   1
   1   0   3 9926.26 493.451   3
  -1   0  -3 9768.89 622.590   1
   1   0   4 69.9368 84.4232   3
  -1   0  -4 12.6292 78.8515   1
   1   0   5 2470.29 291.123   3
  -1   0  -5 3050.91 430.228   1
   1   0   6 74.9104 96.3047   3
  -1   0  -6-0.95126 32.7268   1
   1   0   7 2124.14 342.499   3
  -1   0  -7 1969.28 402.893   1
   1   0   8-76.8138 50.9448   3
  -1   0  -8 14.0247 170.462   1
  -1   0  -9 200.934 155.331   1
   1   0   9 898.784 262.258   3
  -1   0 -10 207.230 199.501   1
   1   0  10-59.9948 136.517   3
  -1   0 -11 9163.07 1119.79   1
  -1   0 -12 246.022 264.669   1
  -1   0 -13 30.3099 111.820   1
  -1   0 -14 95.2860 259.186   1
  -1   0 -15 236.624 246.312   1
  -1   0 -16 146.876 241.485   1
   1   1 -16 1254.15 557.582   1
   1  -1 -16 220.777 246.625   1
   1   1 -15 3050.29 772.756   1
   1  -1 -15 4385.08 914.273   1
   1   1 -14 5284.87 976.332   1
   1  -1 -14 4264.30 866.877   1
   1  -1 -13 146.185 236.725   1
   1   1 -13 439.932 285.840   1
   1   1 -12 11230.7 1286.17   1
   1  -1 -12 9709.82 1178.56   1
   1   1 -11 6564.88 946.873   1
   1  -1 -11 3843.44 698.729   1
   1   1 -10 2300.86 524.547   1
   1  -1 -10 1987.53 484.919   1
   1   1  -9 206.534 193.848   1
   1  -1  -9 207.452 176.375   1
   1  -1  -8 2678.67 522.736   1
   1   1  -8 2700.85 530.354   1
   1   1  -7 433.248 218.927   1
   1  -1  -7 817.800 262.924   1
   1   1  -6 17386.5 1092.87   1
   1  -1  -6 17519.9 1137.30   1
   1   1  -5 715.692 204.926   1
   1  -1  -5 693.565 240.030   1
   1   1  -4 33571.8 1240.85   1
   1  -1  -4 31451.8 1359.27   1
  -1  -1   4 33684.4 1406.35   2
  -1  -1   3 126887. 2910.24   2
   1  -1  -3 128180. 2550.77   1
   1   1  -3 127549. 2087.15   1
  -1  -1   2 365581. 5384.79   2
   1   1  -2 364795. 2902.93   1
  -1  -1   1 59803.1 2286.15   2
   1   1  -1 61196.6 862.286   1
  -1  -1   1 60652.7 888.314   1
  -1  -1   0 5145.29 644.036   2
  -1  -1  -1 489.217 283.622   2
  -1  -1  -2 3872.09 265.064   1
  -1  -1  -2 4957.87 872.738   2
   1   1   2 4064.53 299.265   1
  -1   1  -2 4262.69 365.453   2
  -1   1  -3 253.972 148.412   1
  -1   1  -3 208.266 83.5598   2
  -1  -1  -3 176.793 91.6988   1
  -1  -1  -4 227.753 103.455   1
  -1   1  -4 540.246 195.537   1
  -1  -1  -5 106.893 118.693   1
  -1   1  -5 198.843 153.227   1
  -1   1  -6 21710.3 1307.10   1
  -1  -1  -6 20894.8 1160.08   1
  -1   1  -7 1807.58 420.995   1
  -1  -1  -7 2187.75 427.548   1
  -1  -1  -8 170.356 169.968   1
  -1   1  -8-27.8167 40.4419   1
  -1  -1  -9 31.6300 111.995   1
  -1   1  -9 272.625 242.494   1
  -1  -1 -10 317.617 181.171   1
  -1   1 -10 226.954 200.868   1
  -1  -1 -11-1.16304 117.064   1
  -1   1 -11-42.3028 79.0392   1
  -1   1 -12 1705.74 535.108   1
  -1  -1 -12 2258.25 594.070   1
  -1   1 -13 3394.71 776.237   1
  -1  -1 -13 2242.48 610.872   1
  -1  -1 -14 9041.59 1321.43   1
  -1   1 -14 8308.73 1262.56   1
  -1  -1 -15 1438.32 589.845   1
  -1   1 -15 1231.70 528.588   1
  -1  -1 -16 284.381 174.071   1
   1  -2 -16 810.605 411.399   1
   1   2 -16 957.479 511.943   1
   1  -2 -15 2105.10 686.343   1
   1   2 -15 1617.52 601.522   1
   1  -2 -14 3528.34 794.789   1
   1   2 -14 3305.60 818.745   1
   1   2 -13 5669.75 1036.06   1
   1  -2 -13 5769.34 967.147   1
   1   2 -12 3514.85 778.474   1
   1  -2 -12 1209.68 473.133   1
   1  -2 -11 1661.08 473.262   1
   1   2 -11 1337.78 483.471   1
   1  -2 -10 1592.05 458.893   1
   1   2 -10 1396.07 435.312   1
   1   2  -9 2928.72 599.792   1
   1  -2  -9 2464.99 533.500   1
   1   2  -8 360.768 219.102   1
   1  -2  -8 439.576 281.271   1
   1   2  -7 9791.05 954.798   1
   1  -2  -7 10720.0 1006.40   1
   1  -2  -6 72429.3 2519.21   1
   1   2  -6 71217.3 2404.39   1
  -1  -2   6 70515.3 2557.53   2
   1   2  -5 145509. 3177.59   1
  -1  -2   5 145812. 3857.47   2
   1  -2  -5 149486. 3457.09   1
   1   2  -4 54332.7 1761.95   1
  -1  -2   4 56217.3 2568.76   2
   1  -2  -4 53596.8 1990.29   1
   1   2  -3 2516.01 345.895   1
  -1  -2   3 2877.48 621.094   2
  -1  -2   2 1590.90 496.220   2
   1   2  -2 1165.04 214.734   1
  -1  -2   1 345.831 298.123   2
   1  -2  -1 311.540 255.602   2
  -1  -2   0 75.7451 60.4412   1
   1  -2   0-68.0305 110.569   2
  -1  -2   0-90.1467 110.255   2
   1  -2   1 6202.28 720.308   2
  -1  -2  -1 7443.58 360.169   1
  -1  -2  -1 6648.67 1071.14   2
  -1  -2  -2 17083.4 636.391   1
  -1  -2  -2 15733.2 1775.06   2
   1  -2   2 17135.6 1131.53   2
  -1  -2  -3 35008.0 1075.22   1
  -1  -2  -3 32340.0 2595.55   2
   1  -2   3 34980.9 1353.14   2
  -1  -2  -4 17331.8 869.343   1
  -1  -2  -5 11177.4 786.499   1
  -1   2  -5 10027.3 967.873   1
  -1  -2  -6 457.399 210.739   1
  -1   2  -6 326.309 185.472   1
  -1  -2  -7 5990.44 709.370   1
  -1   2  -7 7143.33 908.379   1
  -1  -2  -8 6048.59 749.670   1
  -1   2  -8 6409.59 886.456   1
  -1  -2  -9 666.820 296.635   1
  -1   2  -9 602.767 259.910   1
  -1   2 -10 806.421 386.746   1
  -1  -2 -10 977.222 358.434   1
  -1   2 -11 321.288 297.493   1
  -1  -2 -11 484.618 289.148   1
  -1   2 -12-83.3929 103.974   1
  -1  -2 -12-59.0073 72.6008   1
  -1   2 -13 1122.44 515.837   1
  -1  -2 -13 681.433 365.048   1
  -1   2 -14 4011.02 886.576   1
  -1  -2 -14 396.168 359.793   1
  -1  -2 -15 3201.18 860.298   1
  -1   2 -15 2967.09 890.021   1
   1  -3 -16 287.033 243.525   1
   1   3 -15 261.714 205.097   1
   1  -3 -15 317.687 325.076   1
   1  -3 -14 355.264 343.803   1
   1   3 -14 231.674 358.081   1
   1   3 -13 503.546 404.499   1
   1  -3 -13-93.6044 105.563   1
   1   3 -12 4.75749 65.7761   1
   1  -3 -12-37.4972 194.849   1
   1   3 -11 261.903 281.178   1
   1  -3 -11-78.5380 55.2387   1
   1   3 -10 1303.60 489.529   1
   1  -3 -10 884.561 379.878   1
   1   3  -9 35285.6 2243.80   1
   1  -3  -9 31383.5 1986.32   1
   1   3  -8 37752.5 2210.63   1
   1  -3  -8 36326.4 2066.07   1
   1  -3  -7 23872.6 1616.69   1
   1   3  -7 22814.0 1632.74   1
  -1  -3   7 22862.2 1714.14   2
   1  -3  -6 1254.60 359.367   1
  -1  -3   6 1982.69 556.881   2
   1   3  -6 1934.90 462.762   1
  -1  -3   5 222.903 316.176   2
   1  -3  -5 196.495 136.563   1
   1   3  -5 351.070 221.861   1
  -1  -3   4 3256.03 772.802   2
   1  -3  -3 1337.62 547.668   2
  -1  -3   3 1613.11 615.205   2
   1  -3  -2 2170.26 662.924   2
  -1  -3   2 1940.91 609.082   2
  -1  -3   1 5727.89 1072.05   2
   1  -3  -1 5808.22 1033.33   2
  -1  -3   0 18134.1 1979.03   2
   1  -3   0 14779.9 1503.44   2
   1  -3   1 15918.5 1453.51   2
  -1  -3  -1 15232.9 1904.74   2
  -1  -3  -2 21830.4 868.191   1
  -1  -3  -2 19666.7 2249.98   2
   1  -3   2 22086.8 1714.01   2
  -1  -3  -3 2560.17 329.622   1
   1  -3   3 2119.44 514.038   2
  -1  -3  -3 2175.18 750.734   2
   1  -3   4 601.113 248.106   2
  -1  -3  -4 1052.80 481.758   2
  -1  -3  -4 1193.93 255.293   1
  -1  -3  -5 5.25346 44.4555   1
   1  -3   5 341.114 179.881   2
  -1  -3  -5 319.306 421.948   2
  -1  -3  -6 694.773 237.230   1
  -1  -3  -6 253.053 376.871   2
  -1  -3  -7 1078.71 626.751   2
  -1  -3  -7 444.310 217.706   1
  -1  -3  -8 978.684 298.229   1
  -1   3  -9 1384.04 479.369   1
  -1  -3  -9 958.626 329.369   1
  -1   3 -10 10750.6 1380.17   1
  -1  -3 -10 9608.30 1074.99   1
  -1   3 -11 2256.22 682.356   1
  -1   3 -12 84.5949 129.866   1
  -1   3 -13 49.0046 102.924   1
  -1   3 -14-106.852 217.565   1
   1   4 -14 1253.47 543.823   1
   1   4 -13 898.012 513.666   1
   1   4 -12 8689.71 1384.81   1
   1   4 -11 7299.90 1240.74   1
   1  -4 -10 4557.10 805.513   1
   1   4 -10 5640.80 1036.00   1
   1   4  -9 1930.82 575.341   1
   1  -4  -9 2100.07 530.001   1
   1  -4  -8 300.499 198.301   1
  -1  -4   8 86.1432 186.318   2
   1  -4  -7 1358.79 448.140   1
  -1  -4   7 2427.46 662.068   2
  -1  -4   6-32.4586 207.355   2
   1  -4  -6 211.910 225.711   1
  -1  -4   5 7366.78 1266.37   2
   1  -4  -5 5024.24 1158.79   2
   1  -4  -5 5679.04 802.029   1
   1  -4  -4 3988.03 1047.06   2
  -1  -4   4 4616.29 1002.00   2
   1  -4  -3 3259.14 974.398   2
  -1  -4   3 3129.88 847.070   2
   1  -4  -2 6160.88 1299.32   2
  -1  -4   2 5311.95 1120.67   2
  -1  -4   1 12522.6 1812.46   2
   1  -4  -1 14848.5 1952.64   2
   1  -4   0 348.997 316.447   2
  -1  -4   0 482.549 386.549   2
  -1  -4  -1 365.971 381.039   2
   1  -4   1 666.089 403.370   2
   1  -4   2 145.104 342.051   2
  -1  -4  -2 526.337 565.127   2
   1  -4   3 451.405 271.094   2
  -1  -4  -3 653.371 679.812   2
   1  -4   4 3155.73 679.969   2
  -1  -4  -4 590.350 459.702   2
  -1  -4  -5 4567.09 1226.35   2
  -1  -4  -6 646.624 422.779   2
  -1  -4  -7 1339.71 674.669   2
  -1  -4  -8 1654.42 822.669   2
  -1  -4  -9 363.078 562.024   2
  -1  -4 -10 169.814 512.284   2
  -1  -4 -11 2277.52 1073.75   2
  -1  -4 -12 965.305 878.180   2
   1  -5 -11 277.975 261.883   2
   1  -5 -10 2028.27 1010.58   2
   1  -5  -9 2807.51 1146.93   2
   1  -5  -8 997.344 826.311   2
  -1  -5   7 484.872 402.552   2
   1  -5  -7 570.447 455.349   2
   1  -5  -6-554.387 430.350   2
  -1  -5   6 1116.87 529.224   2
  -1  -5   5 2199.70 761.205   2
   1  -5  -5 1128.01 636.576   2
  -1  -5   4 1567.72 620.193   2
   1  -5  -4 808.774 530.924   2
   1  -5  -3 4065.54 1162.94   2
  -1  -5   3 4870.04 1151.45   2
   1  -5  -2 9833.60 1840.49   2
  -1  -5   2 10085.3 1792.33   2
   1  -5  -1 5554.92 1397.40   2
  -1  -5   1 5214.02 1357.50   2
  -1  -5   0 2475.86 1049.23   2
   1  -5   0 2370.54 834.876   2
  -1  -5  -1 710.928 644.492   2
   1  -5   1 604.274 467.305   2
  -1  -5  -2 7566.02 1840.43   2
  -1  -5  -3 1415.58 754.307   2
  -1  -5  -4 2506.98 930.705   2
  -1  -5  -5 1857.49 892.339   2
  -1  -5  -6 1975.18 917.875   2
  -1  -5  -7 2382.86 959.875   2
  -1  -5  -8 2208.41 1034.64   2
  -1  -5  -9-659.838 533.668   2
  -1  -5 -10 524.078 501.336   2
   1  -6  -8 756.913 603.634   2
   1  -6  -7 2174.03 1112.53   2
   1  -6  -6 168.957 267.758   2
   1  -6  -5 1111.95 843.979   2
  -1  -6   4 286.045 463.413   2
   1  -6  -4 623.354 616.660   2
  -1  -6   3 245.095 361.721   2
   1  -6  -3-306.855 362.904   2
  -1  -6   2 670.501 498.290   2
  -1  -6   1 388.158 403.758   2
  -1  -6   0 17845.9 2976.32   2
  -1  -6  -1 1458.29 1071.30   2
  -1  -6  -2 16048.6 2875.70   2
  -1  -6  -3-13.0658 275.270   2
  -1  -6  -4-576.532 497.004   2
  -1  -6  -5 231.919 308.860   2
  -1  -6  -6 228.436 307.407   2
  -1  -6  -7 133.965 443.691   2
  -1  -7  -1-1824.56 1001.94   2
   2   0 -16 1816.50 636.579   1
   2   0 -15 386.833 410.422   1
   2   0 -14 409.682 373.111   1
   2   0 -13 258.125 236.373   1
   2   0 -12 753.576 350.906   1
   2   0 -11 259.349 184.059   1
   2   0 -10 1981.00 499.807   1
   2   0  -9 224.021 187.936   1
   2   0  -8 438.704 290.699   1
   2   0  -7 141.841 144.043   1
   2   0  -6 262.100 172.270   1
   2   0  -5 6.45840 71.2308   1
   2   0  -4 24501.6 718.041   3
   2   0  -4 23634.0 1228.13   1
   2   0  -3 44.9837 86.3953   3
   2   0  -3 43.2957 70.8434   1
   2   0  -2 1085.89 198.380   3
  -2   0   2 438.479 132.069   2
  -2   0   1 136.016 122.334   2
   2   0  -1 26.8199 68.7644   3
  -2   0   0 27897.2 1229.39   2
  -2   0  -1-13.0925 56.3516   2
   2   0   2 195375. 2584.03   3
  -2   0  -2 196276. 3873.62   2
   2   0   3 194.760 125.649   3
  -2   0  -3 7.25442 52.6098   1
  -2   0  -4 12794.5 905.493   1
   2   0   4 10671.1 673.871   3
   2   0   5 106.026 124.647   3
  -2   0  -5 91.4752 84.0861   1
   2   0   6 958.203 248.282   3
  -2   0  -6 761.740 274.323   1
   2   0   7 169.321 167.231   3
  -2   0  -7 150.964 118.848   1
   2   0   8 852.871 291.030   3
  -2   0  -8 996.976 370.407   1
   2   0   9 232.182 192.147   3
  -2   0  -9 44.7223 128.674   1
  -2   0 -10 49668.7 2614.19   1
   2   0  10 49839.3 2421.86   3
   2   0  11 432.510 343.118   3
  -2   0 -11-14.2792 296.132   1
  -2   0 -12 45284.1 2776.43   1
  -2   0 -13 771.856 426.477   1
  -2   0 -14 33.5020 145.865   1
  -2   0 -15 103.328 152.966   1
   2  -1 -16-632.355 359.092   1
   2   1 -16 426.334 303.042   1
   2   1 -15 559.514 348.129   1
   2  -1 -15 881.173 400.522   1
   2  -1 -14 308.656 257.733   1
   2   1 -14 365.316 320.047   1
   2   1 -13 837.706 456.243   1
   2  -1 -13 944.172 421.119   1
   2   1 -12 1066.08 396.113   1
   2  -1 -12 803.333 343.107   1
   2   1 -11 600.391 303.491   1
   2  -1 -11 171.747 90.2723   1
   2  -1 -10 388.781 253.804   1
   2   1 -10 381.305 232.001   1
   2  -1  -9 1014.52 331.891   1
   2   1  -9 985.608 355.352   1
   2  -1  -8 1227.93 152.625   3
   2   1  -8 2233.42 474.449   1
   2  -1  -8 1728.18 419.729   1
   2   1  -7 5989.09 716.290   1
   2  -1  -7 5458.95 747.145   1
   2  -1  -6 1206.73 350.096   1
   2   1  -6 689.154 230.378   1
   2   1  -5 4732.62 565.433   1
   2  -1  -5 4071.27 572.887   1
  -2  -1   4 1997.28 428.803   2
   2   1  -4 2918.33 395.892   1
  -2  -1   3 6633.62 808.319   2
   2   1  -3 7760.32 566.384   1
   2   1  -2 862.234 172.404   1
  -2  -1   2 467.850 265.502   2
   2   1  -1 2996.35 260.463   1
  -2  -1   1 2338.78 526.763   2
  -2  -1   0 36595.8 2019.82   2
   2  -1   0 33976.4 756.213   2
   2   1   1 3206.74 253.313   1
  -2  -1  -1 2504.81 548.784   2
  -2  -1  -2 1825.46 541.032   2
  -2  -1  -3 4067.37 411.706   1
  -2  -1  -3 3595.72 874.698   2
  -2  -1  -4 23507.8 2285.42   2
  -2  -1  -4 18406.7 939.900   1
  -2   1  -5 38135.0 1845.45   1
  -2  -1  -5 37824.4 1489.53   1
  -2   1  -6 15647.8 1228.86   1
  -2  -1  -6 16946.8 1090.95   1
  -2  -1  -7 5529.07 676.390   1
  -2   1  -7 4537.01 713.217   1
  -2  -1  -8 16271.6 1270.78   1
  -2   1  -8 14826.6 1343.99   1
  -2  -1  -9 14918.2 1305.69   1
  -2   1  -9 15590.8 1442.66   1
   2  -1  10 4854.96 639.545   3
  -2  -1 -10 3533.26 712.384   1
  -2   1 -10 5084.46 860.401   1
  -2   1 -11 221.839 226.444   1
   2  -1  11 627.182 312.457   3
  -2  -1 -11 542.242 253.835   1
  -2   1 -12 2749.50 681.872   1
  -2  -1 -12 4380.98 850.064   1
  -2  -1 -13 10208.3 1403.43   1
  -2   1 -13 11518.2 1508.57   1
  -2  -1 -14 8554.85 1343.04   1
  -2   1 -14 7072.14 1244.42   1
  -2   1 -15 4195.15 1042.50   1
  -2  -1 -15 5382.44 1127.68   1
  -2  -1 -16 1933.70 733.350   1
   2  -2 -16 539.337 461.465   1
   2   2 -16 10.9025 50.5583   1
   2   2 -15 511.344 326.964   1
   2  -2 -15 2570.23 735.399   1
   2   2 -14 1206.06 470.435   1
   2  -2 -14 1463.33 518.278   1
   2   2 -13 1048.88 475.732   1
   2  -2 -13 381.471 247.023   1
   2   2 -12 20.8767 244.159   1
   2  -2 -12 262.637 260.520   1
   2  -2 -11 324.613 270.711   1
   2   2 -11 190.606 111.846   1
   2   2 -10 13331.6 1326.87   1
   2  -2 -10 13788.0 1396.20   1
   2  -2  -9 9223.85 1105.19   1
   2   2  -9 8136.25 972.169   1
   2   2  -8 277.159 160.802   1
   2  -2  -8 106.076 132.804   1
   2   2  -7 621.777 231.967   1
   2  -2  -7 835.418 340.725   1
  -2  -2   6 347.630 194.995   2
   2   2  -6 15.1153 75.4096   1
   2  -2  -6 213.312 192.899   1
  -2  -2   5 13383.1 1344.65   2
   2   2  -5 12779.2 887.964   1
   2  -2  -5 12443.6 1125.08   1
  -2  -2   4 7819.84 1100.79   2
   2   2  -4 8226.33 637.570   1
   2   2  -3 1264.71 220.581   1
  -2  -2   3 1878.35 547.829   2
   2   2  -2 19076.0 706.163   1
  -2  -2   2 18150.9 1736.42   2
  -2  -2   1 18587.2 1750.57   2
  -2  -2   0 8602.08 1199.04   2
   2  -2   0 10091.8 847.098   2
   2  -2   1 1647.20 303.773   2
  -2  -2  -1 1245.35 462.586   2
   2  -2   2 429.039 110.734   2
  -2  -2  -2 665.380 429.006   2
  -2  -2  -3 3661.36 971.476   2
  -2   2  -3 1298.03 238.402   2
  -2  -2  -3 2581.37 262.034   1
  -2  -2  -4 2963.37 329.236   1
  -2  -2  -4 2976.56 870.931   2
  -2   2  -4 2185.24 379.588   2
  -2  -2  -5 7507.92 1469.69   2
  -2  -2  -5 9296.35 672.497   1
  -2  -2  -6 1395.02 303.583   1
  -2  -2  -6 2137.61 821.712   2
  -2  -2  -7 16820.6 1113.30   1
  -2   2  -8 12656.9 1326.02   1
  -2  -2  -8 11606.8 1008.96   1
  -2  -2  -9 1432.85 413.199   1
  -2   2  -9 1040.79 395.799   1
  -2  -2 -10 17.5217 129.155   1
  -2   2 -10 335.229 231.600   1
  -2  -2 -11 140.324 162.381   1
  -2   2 -11 555.206 328.452   1
  -2   2 -12 287.063 244.848   1
  -2  -2 -12 117.344 257.476   1
  -2   2 -13 251.688 234.989   1
  -2  -2 -13 301.922 243.614   1
  -2   2 -14 963.236 518.322   1
   2  -3 -15 2180.24 724.925   1
   2   3 -15 1986.15 667.720   1
   2  -3 -14 1144.96 498.565   1
   2   3 -14 1826.80 673.073   1
   2  -3 -13 501.352 325.935   1
   2   3 -13 367.748 288.085   1
   2  -3 -12 1101.87 447.425   1
   2   3 -12 716.823 432.153   1
   2  -3 -11 840.587 399.296   1
   2   3 -11 536.987 320.213   1
   2  -3 -10 185.803 201.216   1
   2   3 -10 293.985 258.814   1
   2   3  -9 12103.2 1274.92   1
   2  -3  -9 10168.7 1256.02   1
   2  -3  -8 224.025 198.791   1
  -2  -3   8 987.773 420.032   2
   2   3  -8 410.147 299.020   1
  -2  -3   7 84283.4 3736.31   2
   2   3  -7 85700.5 2996.16   1
   2  -3  -7 84531.6 3369.15   1
  -2  -3   6 9021.12 1284.36   2
   2  -3  -6 8508.00 1051.90   1
   2   3  -6 8764.76 906.085   1
  -2  -3   5 1246.11 489.256   2
   2   3  -5 1364.07 340.336   1
  -2  -3   4 793.852 468.640   2
   2   3  -4 624.527 199.614   1
  -2  -3   3 1674.14 622.585   2
  -2  -3   2-34.3106 58.0639   2
   2  -3  -2 322.141 260.114   2
   2  -3  -1 3.98736 140.190   2
  -2  -3   1-1.02922 20.4954   1
  -2  -3   1-43.5659 321.727   2
  -2  -3   0 384.265 425.953   2
   2  -3   0 1122.13 397.979   2
   2  -3   1 19428.5 1436.59   2
  -2  -3  -1 20100.7 2338.53   2
   2  -3   2 17092.2 1230.67   2
  -2  -3  -2 14741.1 2088.71   2
   2  -3   3 5574.11 575.522   2
  -2  -3  -3 5036.61 1239.26   2
  -2  -3  -4 2842.73 910.752   2
  -2  -3  -5 158.861 260.871   2
  -2  -3  -6 437.899 296.597   2
  -2  -3  -7 549.049 531.515   2
  -2  -3  -8 1385.70 767.053   2
  -2  -3  -9 690.010 756.091   2
  -2  -3 -10 1124.15 837.889   2
  -2  -3 -11 3776.38 1289.15   2
  -2  -3 -12 1068.50 938.188   2
  -2  -3 -13-1082.38 769.369   2
   2   4 -14 915.902 417.187   1
   2   4 -13 4633.19 1005.60   1
   2  -4 -13 3796.56 872.379   1
   2  -4 -12 270.348 232.433   1
   2   4 -12 65.1034 243.482   1
   2   4 -11 17079.7 1782.90   1
   2  -4 -11 16061.8 1714.32   1
   2   4 -10 19816.1 1849.94   1
   2  -4 -10 19290.4 1811.63   1
   2   4  -9 2505.90 645.029   1
   2  -4  -9 3041.96 701.877   1
   2  -4  -8 322.184 254.074   1
  -2  -4   8 63.1706 203.332   2
   2   4  -8-102.455 203.342   1
   2   4  -7-19.6404 142.479   1
   2  -4  -7 130.373 191.612   1
  -2  -4   7 431.081 353.685   2
   2  -4  -6 3026.58 660.686   1
  -2  -4   6 3515.87 918.504   2
  -2  -4   5 13080.6 1816.43   2
   2  -4  -5 12186.7 1852.64   2
   2  -4  -4 26716.9 2622.61   2
  -2  -4   4 26974.4 2619.77   2
  -2  -4   3 31467.9 2863.93   2
   2  -4  -3 26475.6 2574.81   2
  -2  -4   2 2042.05 734.553   2
   2  -4  -2 874.143 437.504   2
  -2  -4   1 888.815 472.600   2
   2  -4  -1 899.634 477.511   2
  -2  -4   0 2531.20 929.437   2
   2  -4   0 2281.67 653.592   2
   2  -4   1-57.5219 125.712   2
  -2  -4  -1 334.681 425.172   2
  -2  -4  -2-174.988 144.955   2
  -2  -4  -3 652.891 630.891   2
  -2  -4  -4 2781.13 998.998   2
  -2  -4  -5 7651.35 1628.32   2
  -2  -4  -6 2228.98 979.663   2
  -2  -4  -7 932.727 615.156   2
  -2  -4  -8 853.527 786.892   2
  -2  -4  -9 47.5949 276.552   2
  -2  -4 -10 139.106 465.063   2
  -2  -4 -11 2035.43 1008.34   2
   2  -5 -11 1907.21 1247.75   2
   2  -5 -10 2055.67 1269.84   2
  -2  -5   9 2489.20 787.945   2
   2  -5  -9 1791.04 938.173   2
  -2  -5   8 968.162 457.205   2
   2  -5  -8 1358.63 972.267   2
   2  -5  -7 452.958 419.577   2
  -2  -5   7 477.811 454.783   2
   2  -5  -6 1009.03 628.146   2
  -2  -5   6 1193.69 556.766   2
   2  -5  -5 5850.27 1499.21   2
  -2  -5   5 6522.12 1367.29   2
  -2  -5   4 4366.02 1159.30   2
   2  -5  -4 3231.97 1030.02   2
  -2  -5   3-0.88906 339.580   2
   2  -5  -3 264.263 461.092   2
  -2  -5   2 19325.1 2635.44   2
   2  -5  -2 20142.2 2530.62   2
  -2  -5   1 17748.6 2635.06   2
  -2  -5   0 6664.98 1797.10   2
  -2  -5  -1 967.265 603.792   2
  -2  -5  -2 793.665 863.252   2
  -2  -5  -3 708.317 623.723   2
  -2  -5  -4 489.631 527.694   2
  -2  -5  -5 1199.19 744.854   2
  -2  -5  -6 519.762 527.141   2
  -2  -5  -7 773.494 616.600   2
  -2  -5  -8 1762.54 982.693   2
  -2  -5  -9 1023.11 730.779   2
   2  -6  -9-611.977 583.870   2
   2  -6  -8 5149.51 1718.08   2
   2  -6  -7 85.6885 167.354   2
  -2  -6   6 4354.29 1186.56   2
  -2  -6   5 5.60981 42.4815   2
  -2  -6   4 671.947 498.579   2
  -2  -6   3 1549.33 767.806   2
  -2  -6   2 831.198 655.580   2
  -2  -6   1 469.917 467.932   2
  -2  -6   0 414.971 113.001   2
  -2  -6  -1 10335.8 2464.73   2
  -2  -6  -2 5260.11 1652.19   2
  -2  -6  -3 2373.69 1054.64   2
  -2  -6  -4 562.213 433.466   2
  -2  -6  -5 120.594 521.758   2
   3   0 -16 14.3382 76.7044   1
   3   0 -15 25582.1 2297.23   1
   3   0 -14 212.136 239.362   1
   3   0 -13 234.833 237.982   1
   3   0 -12 21.2912 20.1540   1
   3   0 -11 3732.81 743.254   1
   3   0 -10 25.2125 166.796   1
   3   0  -9 2610.83 579.932   1
   3   0  -8 14.2250 74.8620   1
   3   0  -7 45651.5 2184.88   1
   3   0  -6-72.9706 118.064   1
   3   0  -5 66246.7 1629.54   3
   3   0  -5 65997.3 2366.42   1
   3   0  -4 58.6505 115.249   3
   3   0  -4-4.80756 27.4163   1
   3   0  -3 2684.85 395.510   3
   3   0  -2 159.222 164.141   3
  -3   0   2 37.9166 105.287   2
   3   0  -1 3118.63 397.000   3
  -3   0   1 3076.14 477.570   2
   3   0   0 7.19677 103.291   3
  -3   0   0 17.1471 9.61851   2
   3   0   1 28236.5 1169.26   3
  -3   0  -1 26820.9 1469.24   2
   3   0   2 65.4079 101.423   3
  -3   0  -2 29.7654 150.097   2
   3   0   3 88125.3 2123.65   3
  -3   0  -3 82811.0 2955.09   2
   3   0   4 13.1053 73.2955   3
  -3   0  -4 26.8389 34.3395   2
   3   0   5 675.283 189.373   3
  -3   0  -5 1493.86 540.899   2
   3   0   6 107.116 155.454   3
  -3   0  -6 133.329 135.545   1
   3   0   7 223.964 197.399   3
  -3   0  -7 175.107 166.019   1
   3   0   8 90.8108 52.1689   3
  -3   0  -8 23.4569 93.6510   1
   3   0   9 282.250 203.184   3
  -3   0  -9 146.582 306.052   1
   3   0  10 300.384 119.380   3
  -3   0 -10-78.0881 83.1478   1
   3   0  11 31679.3 2279.64   3
  -3   0 -11 35198.0 2443.03   1
  -3   0 -12 535.483 388.344   1
  -3   0 -13 6193.10 1144.99   1
  -3   0 -14-218.929 221.544   1
  -3   0 -15 344.566 340.376   1
   3   1 -16 564.975 418.295   1
   3  -1 -16 146.620 178.943   1
   3   1 -15 219.966 320.867   1
   3  -1 -15 1017.69 452.422   1
   3   1 -14 1017.70 476.816   1
   3  -1 -14 580.993 348.507   1
   3   1 -13 12605.9 1483.14   1
   3  -1 -13 11433.1 1442.82   1
   3   1 -12 26559.3 2083.89   1
   3  -1 -12 26165.8 2103.57   1
   3  -1 -11 10098.7 1250.80   1
   3   1 -11 11155.6 1276.92   1
   3   1 -10 130.343 136.042   1
   3  -1 -10 305.875 210.892   1
   3  -1  -9 1141.80 405.026   1
   3   1  -9 1101.22 369.035   1
   3   1  -8 7353.56 882.649   1
   3  -1  -8 6925.71 939.305   1
   3  -1  -7 680.583 274.637   1
   3   1  -7 401.007 177.737   1
   3   1  -6 2447.99 455.526   1
   3  -1  -6 1735.73 432.938   1
  -3  -1   5 10227.2 1025.67   2
   3   1  -5 10885.6 897.137   1
   3  -1  -5 10230.6 1011.13   1
  -3  -1   4 31842.0 1880.96   2
   3   1  -4 33284.9 1467.29   1
  -3  -1   3 41524.9 2250.29   2
   3   1  -3 39742.3 1500.61   1
  -3  -1   2 69647.7 3022.48   2
   3   1  -2 70708.6 1790.05   1
  -3  -1   1 18660.6 1612.25   2
   3  -1   0 42199.4 1408.29   2
  -3  -1   0 44796.2 2446.09   2
  -3  -1  -1 13235.1 1343.86   2
  -3  -1  -2 258.219 254.665   2
   3   1   3 404.190 254.833   3
  -3   1  -3 338.617 107.670   2
  -3  -1  -3 863.568 396.440   2
  -3  -1  -4 1591.33 677.503   2
  -3   1  -4 747.146 239.951   2
   3   1   4 766.713 322.657   3
  -3  -1  -5 2952.51 479.544   1
  -3  -1  -5 2434.78 838.380   2
  -3  -1  -6 5968.23 1266.22   2
  -3  -1  -6 4996.31 656.544   1
  -3  -1  -7 7390.41 1392.14   2
  -3  -1  -7 9426.22 945.311   1
  -3   1  -8 30558.2 2012.22   1
  -3  -1  -8 28030.5 1714.78   1
   3  -1   9 15861.1 1177.54   3
  -3  -1  -9 14529.5 1323.99   1
  -3   1  -9 17602.7 1608.85   1
  -3   1 -10 6579.54 1032.54   1
  -3  -1 -10 5605.12 880.638   1
   3  -1  10 5439.55 752.955   3
   3  -1  11 1669.65 477.539   3
  -3   1 -11 663.859 412.099   1
  -3  -1 -11 984.492 395.178   1
  -3   1 -12 361.556 261.054   1
  -3  -1 -12 349.688 404.040   1
  -3   1 -13 511.500 389.036   1
  -3  -1 -13 717.065 410.991   1
  -3   1 -14 2862.13 811.499   1
  -3  -1 -14 2209.31 703.234   1
  -3  -1 -15 702.143 529.906   1
   3   2 -16 249.485 302.896   1
   3  -2 -16 320.384 282.626   1
   3   2 -15 406.378 365.562   1
   3  -2 -15 1071.65 548.515   1
   3   2 -14-146.342 114.370   1
   3  -2 -14 52.2057 56.9353   1
   3  -2 -13 752.659 388.801   1
   3   2 -13 1535.36 527.422   1
   3  -2 -12 939.307 419.904   1
   3   2 -12 1544.76 493.743   1
   3   2 -11 2998.68 663.288   1
   3  -2 -11 5250.26 964.721   1
   3   2 -10 23615.7 1765.53   1
   3  -2 -10 22462.7 1919.45   1
   3  -2  -9 44398.0 2617.15   1
   3   2  -9 44317.3 2305.83   1
   3   2  -8 10937.5 1070.58   1
   3  -2  -8 13209.7 1391.74   1
   3  -2  -7-5.71488 128.186   1
  -3  -2   7 175.468 232.793   2
   3   2  -7 210.221 150.856   1
  -3  -2   6 34.4362 48.6126   2
   3   2  -6 103.410 76.2333   1
   3  -2  -6 365.049 246.525   1
   3   2  -5 6092.85 633.202   1
  -3  -2   5 6893.35 1075.73   2
  -3  -2   4 25570.7 2143.52   2
   3   2  -4 25778.5 1159.55   1
  -3  -2   3 22600.6 2043.21   2
   3   2  -3 24822.3 972.861   1
   3   2  -2 997.448 161.967   1
  -3  -2   2 1178.01 474.822   2
  -3  -2   1 30598.8 2387.39   2
   3   2  -1 27112.7 644.186   1
  -3  -2   0 28432.8 2357.05   2
   3  -2   0 26917.9 1171.02   2
  -3  -2  -1 6351.42 1157.04   2
   3   2   2 228.552 78.6239   1
  -3  -2  -2 103.030 155.962   2
  -3  -2  -3 1582.04 726.736   2
  -3  -2  -4 7337.26 1556.61   2
  -3  -2  -5 36760.5 1493.19   1
  -3  -2  -5 36505.9 3395.42   2
  -3  -2  -6 30161.3 1423.23   1
  -3  -2  -6 27818.2 3004.44   2
  -3  -2  -7 12549.8 975.540   1
  -3  -2  -7 12321.1 1997.32   2
  -3  -2  -8 3160.72 1022.37   2
  -3  -2  -8 2584.74 482.013   1
  -3  -2  -9 1466.59 726.547   2
  -3  -2  -9 1877.40 430.962   1
  -3  -2 -10-50.8398 128.332   2
  -3  -2 -11 1403.31 802.395   2
  -3  -2 -12 825.320 551.200   2
  -3  -2 -13 1473.50 753.156   2
  -3  -2 -14 1651.68 828.646   2
   3  -3 -15 1075.36 540.784   1
   3   3 -15 1630.52 646.835   1
   3  -3 -14 1281.13 549.099   1
   3   3 -14 901.266 380.998   1
   3  -3 -13-201.831 203.939   1
   3   3 -13 201.564 176.016   1
   3   3 -12 1726.38 558.571   1
   3  -3 -12 2379.90 731.874   1
   3   3 -11-79.1243 91.0920   1
   3  -3 -11-42.2861 231.845   1
   3   3 -10 2005.87 529.720   1
   3  -3 -10 1807.63 586.542   1
   3   3  -9 1420.15 454.548   1
   3  -3  -9 1687.69 570.115   1
   3   3  -8 4915.94 750.843   1
  -3  -3   8 4472.00 930.448   2
   3  -3  -8 3367.70 761.126   1
  -3  -3   7 41926.3 2924.82   2
   3   3  -7 42039.9 2020.95   1
   3  -3  -7 40924.5 2551.45   1
  -3  -3   6 12407.9 1652.24   2
   3   3  -6 12927.8 1053.54   1
  -3  -3   5 26267.7 2468.10   2
   3   3  -5 27825.1 1408.60   1
  -3  -3   4 949.561 550.484   2
   3   3  -4 845.019 216.286   1
   3   3  -3 3100.91 354.104   1
  -3  -3   3 1529.78 646.739   2
   3  -3  -2 368.476 311.907   2
  -3  -3   2 152.998 349.225   2
   3  -3  -1 1391.35 474.637   2
  -3  -3   1 1138.06 555.557   2
  -3  -3   0 863.807 474.768   2
   3  -3   0 547.050 249.754   2
  -3  -3  -1 9924.22 1760.33   2
  -3  -3  -2 2513.72 905.336   2
  -3  -3  -3 48287.4 4142.42   2
  -3  -3  -4 8881.97 1791.56   2
  -3  -3  -5 2174.19 954.320   2
  -3  -3  -6 2105.87 905.204   2
  -3  -3  -7 113.795 233.677   2
  -3  -3  -8 260.908 179.194   2
  -3  -3  -9 293.377 421.450   2
  -3  -3 -10 257.102 300.503   2
  -3  -3 -11 1094.58 674.169   2
  -3  -3 -12 1690.70 898.640   2
  -3  -3 -13 283.162 308.085   2
   3  -4 -14 530.100 346.998   1
   3   4 -14 1106.54 544.815   1
   3  -4 -13 3665.03 906.449   1
   3   4 -13 3110.63 832.336   1
   3  -4 -12 2220.78 713.314   1
   3   4 -12 2204.81 645.421   1
   3  -4 -11 539.931 378.403   1
   3  -4 -10 761.762 446.067   1
  -3  -4   9 1664.10 646.348   2
   3  -4  -9 1780.17 614.408   1
   3  -4  -8 350.386 265.769   1
  -3  -4   8 910.609 447.189   2
   3  -4  -7 3070.91 755.590   1
  -3  -4   7 2957.67 868.739   2
  -3  -4   6 301.086 222.536   2
  -3  -4   5 6158.04 1301.96   2
   3  -4  -4 10038.8 1695.34   2
  -3  -4   4 9733.91 1664.24   2
   3  -4  -3 6328.02 1246.70   2
  -3  -4   3 5009.88 1200.95   2
  -3  -4   2 561.753 497.753   2
   3  -4  -2 464.994 375.827   2
  -3  -4   1 2683.86 907.580   2
  -3  -4   0 10188.5 1927.53   2
  -3  -4  -1 11422.7 2131.38   2
  -3  -4  -2 849.932 588.368   2
  -3  -4  -3 775.678 620.538   2
  -3  -4  -4 903.416 569.798   2
  -3  -4  -5 1933.80 887.893   2
  -3  -4  -6 132.615 404.586   2
  -3  -4  -7 258.459 322.494   2
  -3  -4  -8 1673.07 860.129   2
  -3  -4  -9 1984.94 1086.48   2
  -3  -4 -10 981.755 609.246   2
  -3  -4 -11 1097.06 923.161   2
   3  -5  -9 320.861 260.500   1
  -3  -5   9 670.915 349.063   2
   3  -5  -9 837.651 718.475   2
  -3  -5   8 384.218 447.152   2
   3  -5  -8 333.659 401.182   2
   3  -5  -8 261.202 252.359   1
   3  -5  -7 513.633 466.006   2
  -3  -5   7 1642.40 778.734   2
   3  -5  -7 641.037 341.417   1
   3  -5  -6 498.787 552.191   2
  -3  -5   6 515.865 388.391   2
  -3  -5   5 319.153 422.674   2
  -3  -5   4 783.388 602.688   2
  -3  -5   3 1533.68 762.865   2
  -3  -5   2 4431.01 1343.91   2
  -3  -5   1 359.726 395.938   2
  -3  -5   0 657.468 610.904   2
  -3  -5  -1 88.9752 340.658   2
  -3  -5  -2 4.14806 511.029   2
  -3  -5  -3 1121.01 838.339   2
  -3  -5  -4 376.247 413.367   2
  -3  -5  -5-412.735 422.728   2
  -3  -5  -6 1274.55 781.828   2
  -3  -5  -7 400.045 422.140   2
  -3  -5  -8 1210.74 749.027   2
  -3  -6   8-402.293 347.174   2
  -3  -6   7 3600.43 1163.83   2
  -3  -6   6 619.719 628.979   2
  -3  -6   5-54.7893 223.694   2
  -3  -6   4 1216.54 839.827   2
  -3  -6   3 301.722 359.029   2
  -3  -6   2 312.845 509.634   2
  -3  -6   1 168.988 531.756   2
  -3  -6   0 474.424 899.254   2
  -3  -6  -1 868.678 681.522   2
  -3  -6  -2-358.655 432.145   2
  -3  -6  -3 2174.32 1120.20   2
   4   0 -16 14098.7 1815.23   1
   4   0 -15 413.977 325.957   1
   4   0 -14 44797.2 3008.01   1
   4   0 -13 196.539 219.350   1
   4   0 -12 790.263 419.794   1
   4   0 -11-63.7160 137.478   1
   4   0 -10 534.152 293.415   1
   4   0  -9 133.154 167.489   1
   4   0  -8 690.484 321.329   1
   4   0  -7 158.032 183.257   1
   4   0  -6 60683.7 1976.19   3
   4   0  -6 63130.8 2641.43   1
   4   0  -5 65.3566 133.625   3
   4   0  -5 153.880 148.604   1
   4   0  -4 18498.3 1164.46   3
   4   0  -3 220.986 166.627   3
  -4   0   3 72.0537 117.465   2
   4   0  -2 4484.72 572.507   3
  -4   0   2 4863.86 646.425   2
   4   0  -1-8.29789 107.138   3
  -4   0   1 127.307 159.013   2
   4   0   0 4367.24 560.784   3
  -4   0   0 4321.91 656.946   2
   4   0   1 18.4460 37.7299   3
  -4   0  -1 233.111 225.321   2
   4   0   2 55.7535 145.306   3
  -4   0  -2 120.016 181.569   2
   4   0   3 242.764 154.616   3
  -4   0  -3-7.22267 75.2757   2
   4   0   4 3247.78 508.645   3
  -4   0  -4 3460.83 690.225   2
   4   0   5 17.1587 134.071   3
  -4   0  -5 257.215 231.207   2
  -4   0  -6 1419.92 536.530   2
   4   0   6 975.806 327.650   3
  -4   0  -7 334.096 378.675   2
   4   0   7 310.225 188.853   3
  -4   0  -8-33.4752 84.8505   2
   4   0   8 652.884 295.967   3
   4   0   9 187.909 176.109   3
   4   0  10 225.393 232.354   3
   4   0  11-57.5765 172.348   3
   4   1 -16 2235.48 756.720   1
   4  -1 -16 3670.53 937.110   1
   4   1 -15 331.100 335.197   1
   4  -1 -15 759.591 458.809   1
   4   1 -14 1091.88 515.988   1
   4  -1 -14 1764.99 675.864   1
   4  -1 -13 4475.30 970.401   1
   4   1 -13 4763.07 941.400   1
   4   1 -12 12570.7 1447.28   1
   4  -1 -12 11603.9 1476.57   1
   4   1 -11 9833.17 1236.06   1
   4  -1 -11 11063.2 1397.97   1
   4   1 -10 8972.38 1135.63   1
   4  -1 -10 8270.62 1174.83   1
   4   1  -9 16116.1 1452.24   1
   4  -1  -9 16663.0 1625.93   1
   4   1  -8 10642.5 1123.91   1
   4  -1  -8 8821.47 1142.78   1
   4  -1  -7 3174.04 657.953   1
   4   1  -7 3962.60 654.877   1
   4  -1  -6 3966.06 709.264   1
   4   1  -6 3882.00 622.176   1
  -4  -1   5 833.397 343.835   2
   4   1  -5 944.365 321.997   1
  -4  -1   4 5975.88 900.497   2
   4   1  -4 5957.86 679.063   1
  -4  -1   3 2735.77 652.484   2
   4   1  -3 2154.58 394.873   1
  -4  -1   2 1581.29 486.579   2
  -4  -1   1 1024.75 424.535   2
   4   1   0 3712.06 630.676   3
  -4  -1   0 3866.59 790.319   2
   4   1   1 7913.43 922.129   3
  -4  -1  -1 7038.02 1067.00   2
   4   1   2 27.0081 65.8033   3
  -4   1  -2 76.8508 50.5843   2
  -4  -1  -2 209.155 285.164   2
   4   1   3 1784.94 459.874   3
  -4   1  -3 2032.12 286.582   2
  -4  -1  -3 1840.61 599.022   2
   4   1   4 2.94520 141.304   3
  -4   1  -4 235.660 133.693   2
  -4  -1  -4 209.027 200.361   2
   4   1   5 22.3861 102.846   3
  -4  -1  -5 388.679 394.467   2
  -4  -1  -6 595.391 471.777   2
  -4  -1  -7 448.944 451.249   2
   4  -1   8 967.841 331.647   3
  -4  -1  -8 1112.06 620.551   2
  -4  -1  -9 1881.85 755.263   2
   4  -1   9 1238.17 388.618   3
   4  -1  10 207.523 214.518   3
  -4  -1 -10 101.235 347.190   2
   4  -1  11 404.048 344.074   3
  -4  -1 -11 275.341 203.113   1
  -4  -1 -11 205.274 230.031   2
   4   2 -16 377.052 322.467   1
   4   2 -15 856.866 452.426   1
   4  -2 -15 561.984 386.747   1
   4  -2 -14 1423.10 642.350   1
   4   2 -14 550.357 354.732   1
   4  -2 -13 1038.30 541.697   1
   4   2 -13 962.870 424.665   1
   4   2 -12 6274.15 1023.43   1
   4  -2 -12 8443.73 1325.78   1
   4   2 -11 8180.45 1132.02   1
   4  -2 -11 7888.89 1264.54   1
   4  -2 -10-37.4848 9.79316   1
   4   2 -10 254.144 261.368   1
   4   2  -9 10295.7 1131.12   1
   4  -2  -9 7698.61 1179.40   1
   4  -2  -8 3298.54 754.864   1
   4   2  -8 2885.26 564.981   1
  -4  -2   7 738.981 401.118   2
   4   2  -7 789.138 298.160   1
   4  -2  -7 729.318 306.374   1
  -4  -2   6 504.077 357.143   2
   4   2  -6 411.357 179.703   1
  -4  -2   5 608.730 411.282   2
   4   2  -5-25.0336 61.2346   1
  -4  -2   4 3374.83 851.307   2
   4   2  -4 2001.07 350.130   1
  -4  -2   3 13940.5 1693.27   2
   4   2  -3 14809.3 833.577   1
  -4  -2   2 11761.4 1559.70   2
   4   2  -2 13046.7 692.787   1
  -4  -2   1 377.614 374.703   2
   4   2  -1 50.7426 51.4704   1
   4   2   0 1742.21 217.967   1
  -4  -2   0 632.882 457.841   2
  -4  -2  -1 1140.15 626.739   2
  -4  -2  -2 1933.52 680.193   2
  -4  -2  -3 3013.64 978.132   2
  -4  -2  -4 451.952 327.677   2
  -4  -2  -5 9523.04 1825.09   2
  -4  -2  -6 7194.69 1573.81   2
  -4  -2  -7 2209.25 1000.54   2
  -4  -2  -8 869.800 381.121   2
  -4  -2  -9 339.547 435.113   2
  -4  -2 -10 744.106 511.871   2
   4  -2  11 1706.36 558.808   3
  -4  -2 -11 1071.37 599.238   2
  -4  -2 -12 206.812 348.143   2
  -4  -2 -13 496.755 450.653   2
   4   3 -15 3649.93 910.223   1
   4   3 -14 571.252 371.964   1
   4  -3 -14 385.544 473.494   1
   4   3 -13-283.806 223.260   1
   4  -3 -13 770.881 379.472   1
   4   3 -12 1416.70 481.507   1
   4  -3 -12 2235.16 753.847   1
   4   3 -11 1547.84 487.677   1
   4  -3 -11 1949.42 693.855   1
   4   3 -10 277.854 238.318   1
   4  -3 -10-166.134 195.705   1
   4   3  -9-10.1900 19.5906   1
   4  -3  -9 465.798 409.825   1
   4   3  -8 202.581 201.196   1
  -4  -3   8 476.193 351.620   2
   4  -3  -8 105.550 243.620   1
   4   3  -7 1495.55 354.565   1
  -4  -3   7 1947.84 655.510   2
   4  -3  -7 2655.19 706.545   1
  -4  -3   6 15603.5 1936.29   2
   4   3  -6 13907.3 1027.52   1
  -4  -3   5 13125.0 1818.88   2
  -4  -3   4-112.053 269.692   2
  -4  -3   3 961.805 576.228   2
  -4  -3   2 1396.90 579.527   2
  -4  -3   1 368.161 420.773   2
  -4  -3   0 564.096 451.930   2
  -4  -3  -1 253.681 553.036   2
  -4  -3  -2 3941.87 1255.08   2
  -4  -3  -3 48761.0 4417.68   2
  -4  -3  -4 1648.15 839.611   2
  -4  -3  -5 17324.2 2754.47   2
  -4  -3  -6 255.890 442.484   2
  -4  -3  -7 951.192 736.662   2
  -4  -3  -8-138.985 205.967   2
  -4  -3  -9 427.151 663.742   2
  -4  -3 -10 571.125 499.744   2
  -4  -3 -11 917.432 762.935   2
  -4  -3 -12 868.050 591.112   2
   4  -4 -13 760.461 556.451   1
   4  -4 -12 574.139 344.930   1
   4  -4 -11 256.509 343.309   1
   4  -4 -10-66.5607 28.4615   1
  -4  -4   9 9280.05 1571.46   2
   4  -4  -9 9262.05 1480.34   1
  -4  -4   8 4746.35 1172.11   2
   4  -4  -8 5508.75 1136.49   1
  -4  -4   7 4071.71 1151.95   2
  -4  -4   6-80.8647 36.3781   2
  -4  -4   5 489.111 294.885   2
  -4  -4   4 726.661 584.607   2
  -4  -4   3-190.446 237.631   2
  -4  -4   2 747.347 488.901   2
  -4  -4   1 17669.0 2551.10   2
  -4  -4   0 15385.2 2467.79   2
  -4  -4  -1 20516.6 3026.42   2
  -4  -4  -2 9610.37 2132.80   2
  -4  -4  -3 641.621 686.907   2
  -4  -4  -4 2124.10 1107.48   2
  -4  -4  -5 1612.43 879.547   2
  -4  -4  -6 7354.56 1932.61   2
  -4  -4  -7 6280.22 1797.04   2
  -4  -4  -8 646.274 806.400   2
  -4  -4  -9 3814.49 1343.59   2
  -4  -4 -10 2154.82 1032.84   2
   4  -5 -11 1262.71 575.400   1
  -4  -5  10 1446.50 654.302   2
   4  -5 -10 1423.20 599.669   1
  -4  -5   9 1035.13 703.303   2
   4  -5  -9 1007.14 500.364   1
  -4  -5   8-0.85958 59.6593   2
   4  -5  -8 1207.40 646.839   1
  -4  -5   7-37.3643 282.949   2
   4  -5  -7-121.224 170.960   1
  -4  -5   6 797.210 627.718   2
  -4  -5   5 475.883 523.250   2
  -4  -5   4 1374.89 669.165   2
  -4  -5   3 12218.9 2233.32   2
  -4  -5   2 12825.0 2327.67   2
  -4  -5   1 2858.08 1188.30   2
  -4  -5   0 6634.58 1836.74   2
  -4  -5  -1 5848.83 1840.54   2
  -4  -5  -2 2386.11 1080.10   2
  -4  -5  -3 64.7928 318.651   2
  -4  -5  -4 656.828 749.506   2
  -4  -5  -5-111.495 407.886   2
  -4  -5  -6 1693.89 985.696   2
  -4  -6   5 11013.9 2249.60   2
  -4  -6   4 1186.14 828.394   2
  -4  -6   3 253.342 344.570   2
  -4  -6   2 296.128 122.215   2
  -4  -6   1 1107.27 777.416   2
  -4  -6   0 836.499 688.431   2
   5   0 -16-71.3746 202.086   1
   5   0 -15 3965.87 957.405   1
   5   0 -14 542.250 413.195   1
   5   0 -13 442.270 241.417   1
   5   0 -12 292.135 321.682   1
   5   0 -11 2695.20 712.602   1
   5   0 -10-44.3781 86.6507   1
   5   0  -9 1485.28 508.029   1
   5   0  -8 468.165 314.055   1
   5   0  -7 789.074 349.062   1
   5   0  -6 412.281 299.784   3
   5   0  -6 94.3546 171.093   1
   5   0  -5 16866.7 1289.96   3
   5   0  -5 15519.5 1420.71   1
   5   0  -4 213.266 200.720   3
   5   0  -3 29406.3 1717.57   3
  -5   0   3 30451.6 1723.98   2
   5   0  -2 289.329 193.635   3
  -5   0   2 225.275 215.649   2
   5   0  -1 4153.73 617.818   3
  -5   0   1 4873.21 724.219   2
   5   0   0 161.283 155.647   3
  -5   0   0 48.3435 126.724   2
   5   0   1 648.315 241.197   3
  -5   0  -1 678.003 262.821   2
   5   0   2 269.598 200.863   3
  -5   0  -2-108.158 157.556   2
   5   0   3-19.1652 93.4872   3
  -5   0  -3 134.577 170.100   2
   5   0   4 168.371 141.559   3
  -5   0  -4 69.1074 227.032   2
   5   0   5 4963.38 724.784   3
  -5   0  -5 3298.21 745.874   2
   5   0   6-0.27306 157.183   3
   5   0   7 541.473 267.328   3
   5   0   8-22.5344 96.6503   3
   5   0   9 430.624 328.333   3
   5   0  10-83.0759 205.749   3
   5   0  11 146.735 246.525   3
   5   1 -16 3354.46 910.805   1
   5   1 -15-25.7194 74.5067   1
   5  -1 -15 1267.43 633.716   1
   5  -1 -14 360.021 311.133   1
   5   1 -14 506.245 314.174   1
   5  -1 -13 129.217 90.3019   1
   5   1 -13 379.209 342.148   1
   5  -1 -12 428.781 331.650   1
   5   1 -12 301.798 171.410   1
   5  -1 -11 619.033 412.953   1
   5   1 -11 647.690 364.403   1
   5   1 -10 2632.05 656.176   1
   5  -1 -10 1980.73 636.753   1
   5   1  -9 541.128 264.634   1
   5  -1  -9 475.705 300.621   1
   5   1  -8 1424.43 451.259   1
   5  -1  -8 785.766 388.028   1
   5  -1  -7 417.534 209.025   3
   5  -1  -7 767.118 406.351   1
   5   1  -7 100.057 96.8111   1
   5   1  -6 1826.10 481.142   1
  -5  -1   5-31.3173 173.683   2
   5   1  -5 134.507 112.521   1
   5   1  -4 623.744 271.933   1
  -5  -1   4 1306.67 469.022   2
  -5  -1   3 5015.76 886.762   2
  -5  -1   2 27902.3 2110.10   2
  -5  -1   1 15086.9 1560.27   2
   5   1   0 12627.9 1289.60   3
  -5  -1   0 12613.2 1457.06   2
   5   1   1 860.929 402.361   3
  -5  -1  -1 1138.35 460.377   2
   5   1   2 1345.54 416.562   3
  -5  -1  -2 697.523 443.702   2
   5   1   3 110.385 136.054   3
  -5  -1  -3 1091.96 546.030   2
   5   1   4-23.0517 51.8532   3
  -5  -1  -4-125.912 185.874   2
   5   1   5-128.110 128.550   3
  -5  -1  -5-273.876 253.693   2
   5  -1   6 408.810 240.592   3
  -5  -1  -6 239.491 157.467   2
   5  -1   7 1669.86 443.545   3
  -5  -1  -7 162.786 298.377   2
   5  -1   8 3776.99 655.070   3
  -5  -1  -8 2352.75 789.971   2
   5  -1   9 564.097 345.848   3
   5  -1  10 3764.19 768.266   3
   5  -1  11 3177.88 817.410   3
   5  -2 -15-78.5087 142.800   1
   5   2 -15-192.683 176.480   1
   5  -2 -14 1065.02 589.558   1
   5   2 -14 527.299 385.612   1
   5   2 -13 713.655 398.165   1
   5  -2 -13 529.069 387.361   1
   5   2 -12 2596.91 689.845   1
   5  -2 -12 2206.91 732.546   1
   5   2 -11 2689.87 659.096   1
   5  -2 -11 3161.67 862.137   1
   5  -2 -10 459.438 362.594   1
   5   2 -10 453.778 269.028   1
   5   2  -9 1818.12 492.906   1
   5  -2  -9 2221.46 649.109   1
   5   2  -8 2031.10 481.003   1
   5  -2  -8 2306.70 654.659   1
  -5  -2   7 8404.45 1261.37   2
   5   2  -7 7564.35 888.269   1
  -5  -2   6 3375.64 803.522   2
   5   2  -6 2160.64 457.923   1
   5   2  -5 79.0993 135.315   1
  -5  -2   5 434.502 338.865   2
   5   2  -4 247.046 185.723   1
  -5  -2   4 293.022 267.437   2
  -5  -2   3 158.666 206.828   2
   5   2  -3 198.341 155.848   1
   5   2  -2 382.481 168.351   1
  -5  -2   2 250.109 292.675   2
  -5  -2   1 49.9374 301.048   2
  -5  -2   0 3527.24 947.234   2
  -5  -2  -1 28673.4 2686.32   2
  -5  -2  -2 23245.4 2514.44   2
  -5  -2  -3 8646.49 1617.09   2
  -5  -2  -4 912.398 564.344   2
  -5  -2  -5 842.675 567.549   2
  -5  -2  -6 86.0093 229.879   2
  -5  -2  -7 1309.23 755.368   2
  -5  -2  -8 1935.55 956.411   2
  -5  -2  -9 4410.74 1279.74   2
   5  -2  10 1357.25 567.183   3
  -5  -2 -10 704.670 477.608   2
   5  -2  11 1138.24 586.960   3
   5   3 -15-734.356 391.598   1
   5   3 -14 3880.79 864.291   1
   5  -3 -14 6374.62 1349.81   1
   5   3 -13-90.9230 156.316   1
   5  -3 -13 1019.81 597.039   1
   5  -3 -12 1479.33 647.895   1
   5  -3 -11 827.826 484.930   1
   5  -3 -10 374.499 334.686   1
  -5  -3   9 291.125 196.800   2
   5  -3  -9-27.3028 67.1151   1
   5  -3  -8 669.818 378.996   1
  -5  -3   8 437.236 447.814   2
  -5  -3   7 177.212 174.315   2
  -5  -3   6 4139.86 1028.27   2
  -5  -3   5 2042.70 742.805   2
  -5  -3   4 9565.75 1614.90   2
  -5  -3   3 2199.43 834.030   2
  -5  -3   2 717.339 387.397   2
  -5  -3   1-24.6586 218.830   2
  -5  -3   0 37.2415 334.661   2
  -5  -3  -1 291.807 268.800   2
  -5  -3  -2 273.495 460.110   2
  -5  -3  -3 3399.21 1271.18   2
  -5  -3  -4 15478.0 2715.91   2
  -5  -3  -5 19811.4 3086.74   2
  -5  -3  -6 900.404 767.099   2
  -5  -3  -7 1178.08 893.986   2
  -5  -3  -8 1110.94 745.228   2
  -5  -3  -9 767.807 556.916   2
  -5  -3 -10 751.470 558.634   2
  -5  -3 -11-568.418 466.427   2
   5  -4 -12 649.740 453.632   1
   5  -4 -11 853.093 484.441   1
   5  -4 -10 2714.67 836.779   1
  -5  -4   9 4094.94 1117.15   2
   5  -4  -9 5580.62 1219.17   1
   5  -4  -8 2232.23 741.740   1
  -5  -4   8 1797.69 804.036   2
  -5  -4   7 714.542 604.666   2
  -5  -4   6 925.113 602.876   2
  -5  -4   5 914.568 681.949   2
  -5  -4   4 305.672 438.372   2
  -5  -4   3 4352.43 1227.98   2
  -5  -4   2 1319.28 756.890   2
  -5  -4   1 2940.55 1049.33   2
  -5  -4   0 4552.56 1406.24   2
  -5  -4  -1 3761.03 1301.67   2
  -5  -4  -2 10.2417 335.695   2
  -5  -4  -3 956.414 718.893   2
  -5  -4  -4 96.3494 554.068   2
  -5  -4  -5 59.0890 180.191   2
  -5  -4  -6 1244.00 914.407   2
  -5  -4  -7 5371.13 1823.97   2
  -5  -4  -8 6519.71 1921.60   2
   5  -5 -10 2082.37 790.268   1
   5  -5  -9 574.985 485.889   1
  -5  -5   9 998.594 622.133   2
  -5  -5   8 1916.94 779.280   2
   5  -5  -8 2149.57 865.106   1
  -5  -5   7 4384.07 1225.52   2
  -5  -5   6 3965.43 1204.38   2
  -5  -5   5-114.386 66.8188   2
  -5  -5   4 419.444 349.871   2
  -5  -5   3 2034.50 939.860   2
  -5  -5   2 9095.33 2067.94   2
  -5  -5   1 4192.52 1431.10   2
  -5  -5   0 242.120 597.995   2
  -5  -5  -1 3421.20 1539.25   2
  -5  -5  -2 1595.16 1126.28   2
  -5  -5  -3-83.1364 224.941   2
  -5  -5  -4 1535.81 933.916   2
   6   0 -15-30.3824 84.9617   1
   6   0 -14 3172.82 930.494   1
   6   0 -13-224.697 219.367   1
   6   0 -12 13784.2 1727.62   1
   6   0 -11 292.085 225.495   1
   6   0 -10 447.100 310.238   1
   6   0  -9 244.445 259.733   1
   6   0  -8 164.699 230.412   1
   6   0  -7 280.652 277.339   1
   6   0  -6 1432.20 441.373   3
   6   0  -6 1425.94 492.479   1
   6   0  -5-86.4303 118.526   3
   6   0  -4 141308. 4308.36   3
   6   0  -3 70.2773 257.017   3
   6   0  -2 36044.4 2128.73   3
  -6   0   2 38823.7 2148.44   2
   6   0  -1-38.9745 57.6342   3
  -6   0   1 176.362 193.818   2
   6   0   0 2852.96 593.524   3
  -6   0   0 3103.19 629.240   2
   6   0   1-19.0633 32.7635   3
  -6   0  -1 70.4883 122.642   2
   6   0   2 268.814 262.858   3
   6   0   3 78.6434 134.728   3
   6   0   4 4447.96 703.259   3
   6   0   5 130.019 152.212   3
   6   0   6 9047.50 1043.79   3
   6   0   7 254.739 315.850   3
   6   0   8 355.820 212.510   3
   6   0   9 17.7145 159.639   3
   6   0  10 690.117 370.266   3
   6   0  11 41.9018 182.854   3
   6   1 -15 463.867 517.310   1
   6  -1 -14 2208.41 765.022   1
   6   1 -14 1849.31 622.870   1
   6  -1 -13 635.237 402.450   1
   6   1 -13 49.0130 137.430   1
   6  -1 -12 678.106 367.268   1
   6   1 -12 960.167 468.337   1
   6   1 -11 1161.11 471.076   1
   6  -1 -11 1842.34 711.273   1
   6  -1 -10 5514.42 1122.14   1
   6   1 -10 5053.36 924.087   1
   6   1  -9 2884.27 682.428   1
   6  -1  -9 2361.96 694.284   1
   6   1  -8 9639.27 1217.97   1
   6  -1  -8 7935.94 1235.86   1
   6  -1  -7 24670.2 1463.44   3
   6   1  -7 21347.8 1788.06   1
   6  -1  -7 24607.6 2122.75   1
   6  -1  -6 17538.3 1239.35   3
   6   1  -6 17147.9 1556.61   1
   6  -1  -5 7206.51 822.587   3
  -6  -1   5 5825.38 980.378   2
   6   1  -5 7349.57 990.003   1
   6   1  -4 1365.02 435.218   1
   6  -1  -4 519.152 232.071   3
  -6  -1   4 1215.16 450.431   2
  -6  -1   3 592.346 242.378   2
  -6  -1   2 13099.7 1501.32   2
  -6  -1   1 26163.4 2147.86   2
   6   1   0 17638.2 1701.39   3
  -6  -1   0 17681.0 1797.18   2
   6   1   1 450.850 222.940   3
  -6  -1  -1 481.978 418.293   2
   6   1   2 2874.85 659.646   3
   6  -1   2 3034.04 625.117   3
  -6  -1  -2 2791.95 800.711   2
   6   1   3 4525.68 829.543   3
   6  -1   3 5513.82 822.667   3
  -6  -1  -3 5359.02 1094.30   2
   6   1   4 1118.95 436.253   3
   6  -1   4 2077.78 527.590   3
  -6  -1  -4 1708.11 635.854   2
   6  -1   5 312.572 288.856   3
   6  -1   6 378.940 285.012   3
   6  -1   7 603.260 308.891   3
   6  -1   8 3076.54 662.992   3
   6  -1   9 832.933 427.625   3
   6  -1  10 173.673 172.443   3
   6  -1  11 291.325 236.975   3
   6   2 -15 2315.56 692.239   1
   6  -2 -14 997.581 566.209   1
   6   2 -14 279.717 235.817   1
   6   2 -13-95.4427 133.448   1
   6  -2 -13 220.830 237.688   1
   6   2 -12 707.779 433.281   1
   6  -2 -12 615.661 339.188   1
   6  -2 -11 320.540 330.395   1
   6   2 -11 444.171 356.092   1
   6  -2 -10 7883.39 1346.65   1
   6   2 -10 6129.79 958.319   1
   6   2  -9 10890.2 1197.73   1
   6  -2  -9 8634.62 1388.02   1
   6  -2  -8 1027.79 463.085   1
   6   2  -8 694.559 369.507   1
   6   2  -7 3995.87 689.246   1
  -6  -2   7 5206.64 1040.98   2
  -6  -2   6 7933.89 1297.04   2
   6   2  -6 6819.19 858.867   1
  -6  -2   5 391.084 315.318   2
  -6  -2   4 1175.33 515.855   2
  -6  -2   3 698.070 428.424   2
  -6  -2   2 928.784 536.864   2
  -6  -2   1 186.301 206.890   2
  -6  -2   0 1338.76 692.784   2
  -6  -2  -1 10557.0 1708.83   2
  -6  -2  -2 6541.27 1362.10   2
  -6  -2  -3 3008.36 978.188   2
  -6  -2  -4 2027.63 907.014   2
  -6  -2  -5 633.161 467.548   2
  -6  -2  -6-204.521 270.291   2
  -6  -2  -7 729.312 750.888   2
   6  -2   8 4076.26 901.040   3
   6  -2   9 1771.35 666.105   3
   6  -2  10 2546.07 756.960   3
   6  -3 -12 10403.5 1737.99   1
   6  -3 -11 1001.43 554.108   1
   6  -3 -10 667.237 490.699   1
  -6  -3   9 529.020 424.087   2
   6  -3  -9 1072.20 555.075   1
   6  -3  -8 317.264 332.261   1
  -6  -3   8 1178.28 618.964   2
  -6  -3   7 926.581 446.973   2
  -6  -3   6 2850.71 928.069   2
  -6  -3   5 1124.10 588.966   2
  -6  -3   4 436.344 285.264   2
  -6  -3   3 2058.88 787.487   2
  -6  -3   2 1020.96 644.037   2
  -6  -3   1 1368.29 717.620   2
  -6  -3   0 745.095 557.488   2
  -6  -3  -1 55.5842 366.276   2
  -6  -3  -2 119.835 563.976   2
  -6  -3  -3 76.7742 568.232   2
  -6  -3  -4 6454.77 1806.54   2
  -6  -3  -5 947.597 767.459   2
  -6  -3  -6 6268.68 1791.90   2
  -6  -3  -7 218.741 308.020   2
  -6  -3  -8 551.308 613.742   2
  -6  -3  -9 256.875 325.718   2
   6  -4 -10 2106.58 777.312   1
  -6  -4   9 4027.89 1109.88   2
   6  -4  -9 4257.37 1105.82   1
  -6  -4   8 1449.61 662.392   2
   6  -4  -8 464.681 238.592   1
  -6  -4   7 726.745 489.360   2
  -6  -4   6 818.297 497.368   2
  -6  -4   5 484.746 526.499   2
  -6  -4   4 124.777 201.429   2
  -6  -4   3 935.863 570.471   2
  -6  -4   2 512.350 383.244   2
  -6  -4   1 178.808 465.877   2
  -6  -4   0 1160.13 776.463   2
  -6  -4  -1 2004.30 1074.80   2
  -6  -4  -2 263.214 524.927   2
  -6  -4  -3 5227.87 1818.19   2
  -6  -4  -4 2871.90 1353.94   2
  -6  -4  -5-32.8307 139.711   2
  -6  -4  -6 762.532 791.854   2
  -6  -5   5 1270.58 705.906   2
  -6  -5   4-262.465 327.494   2
  -6  -5   3 1208.39 730.699   2
  -6  -5   2 243.116 339.926   2
  -6  -5   1 16.6218 368.667   2
  -6  -5   0 108.182 247.008   2
  -6  -5  -1 2822.47 1320.89   2
   7   0 -14 78.0127 30.2408   1
   7   0 -13 5668.89 1209.09   1
   7   0 -12 413.468 393.275   1
   7   0 -11 3769.74 992.685   1
   7   0 -10-131.880 225.056   1
   7   0  -9 2641.27 738.259   1
   7   0  -8-20.5936 148.175   1
   7   0  -7 1379.57 541.924   1
   7   0  -6-200.872 212.109   3
   7   0  -6 310.029 276.159   1
   7   0  -5 386.664 287.883   3
   7   0  -4 65.2258 112.097   3
   7   0  -3 30531.1 2225.94   3
   7   0  -2 240.492 224.199   3
  -7   0   2 119.535 198.126   2
   7   0  -1 271.763 348.999   3
   7   0   0 693.092 397.332   3
   7   0   1-8.70706 83.7042   3
   7   0   2 149.884 186.374   3
   7   0   3 125.974 179.292   3
   7   0   4 148.924 151.751   3
   7   0   5 250.702 205.128   3
   7   0   6-226.674 178.799   3
   7   0   7 2059.35 594.035   3
   7   0   8 72.4834 230.764   3
   7   0   9 511.560 362.881   3
   7   1 -14 1685.72 613.613   1
   7  -1 -13 230.216 244.921   1
   7   1 -13 932.754 500.043   1
   7  -1 -12 922.374 510.377   1
   7   1 -12 1305.70 493.727   1
   7  -1 -11 628.607 500.822   1
   7   1 -11 317.758 325.575   1
   7   1 -10 937.548 480.511   1
   7  -1 -10 1004.55 601.027   1
   7   1  -9 291.004 278.033   1
   7  -1  -9 515.174 369.364   1
   7  -1  -8 331.593 246.427   1
   7   1  -8 474.942 395.281   1
   7   1  -7 6490.59 1069.86   1
   7  -1  -7 6485.84 1218.63   1
   7  -1  -6 25875.3 1711.97   3
   7   1  -6 26279.7 2097.53   1
   7  -1  -5 5584.82 810.010   3
  -7  -1   5 5654.54 1007.40   2
   7   1  -5 6356.70 1007.19   1
   7  -1  -4 472.298 260.514   3
   7   1  -4 328.663 269.370   1
  -7  -1   4 359.181 328.424   2
   7  -1  -3 122.393 212.802   3
  -7  -1   3 365.002 315.699   2
   7  -1  -2 179.330 233.553   3
  -7  -1   2-90.8917 208.495   2
   7  -1  -1 666.190 328.245   3
  -7  -1   1 273.252 258.745   2
   7  -1   0 616.577 323.821   3
  -7  -1   0 768.104 453.079   2
   7  -1   1 285.616 226.270   3
  -7  -1  -1 76.0856 108.715   2
   7  -1   2 3351.08 693.477   3
   7  -1   3 675.230 329.687   3
   7  -1   4 465.803 297.995   3
   7  -1   5 119.218 273.719   3
   7  -1   6 206.169 252.711   3
   7  -1   7 710.364 342.860   3
   7  -1   8-93.5644 126.046   3
   7  -2 -12 502.408 449.521   1
   7  -2 -11 218.315 343.561   1
   7  -2 -10 7768.39 1419.98   1
   7  -2  -9 15091.1 1942.34   1
   7  -2  -8 9646.95 1530.85   1
  -7  -2   7 1612.59 642.570   2
  -7  -2   6 975.999 541.126   2
  -7  -2   5 668.268 416.447   2
  -7  -2   4 141.828 157.477   2
  -7  -2   3 669.488 416.963   2
  -7  -2   2 464.542 413.913   2
  -7  -2   1 2055.64 746.704   2
  -7  -2   0 2251.80 819.674   2
  -7  -2  -1 2876.97 918.745   2
  -7  -2  -2-246.690 260.737   2
  -7  -2  -3 763.104 476.083   2
  -7  -2  -4 1221.78 738.660   2
   7  -2   5 2157.90 729.151   3
   7  -2   6 819.573 485.109   3
   7  -2   7 484.979 413.887   3
   7  -3 -11 8618.95 1625.87   1
   7  -3 -10 2129.10 866.606   1
   7  -3  -9 202.194 376.595   1
  -7  -3   8 2074.39 771.555   2
   7  -3  -8 3243.06 944.064   1
  -7  -3   7-28.1690 223.735   2
  -7  -3   6 239.887 145.192   2
  -7  -3   5 280.577 309.084   2
  -7  -3   4 1599.30 716.916   2
  -7  -3   3 818.444 459.008   2
  -7  -3   2 3302.43 1058.29   2
  -7  -3   1 2247.40 835.069   2
  -7  -3   0 818.004 605.421   2
  -7  -3  -1-622.493 472.974   2
  -7  -3  -2 313.940 416.578   2
  -7  -3  -3-494.830 454.973   2
  -7  -3  -4 823.571 573.835   2
  -7  -3  -5-704.099 565.184   2
  -7  -3  -6 3655.64 1375.27   2
   7  -4  -8 1358.41 656.322   1
  -7  -4   7 265.316 369.862   2
  -7  -4   6 929.900 652.070   2
  -7  -4   5 3046.15 1075.35   2
  -7  -4   4 870.236 551.730   2
  -7  -4   3-110.489 200.969   2
  -7  -4   2 476.911 432.172   2
  -7  -4   1 850.656 745.575   2
  -7  -4   0 1526.37 833.458   2
  -7  -4  -1 1158.06 832.080   2
  -7  -4  -2 665.176 726.925   2
  -7  -4  -3 1557.25 881.429   2
  -7  -4  -4 2042.96 1103.79   2
   8   0 -13 900.952 525.902   1
   8   0 -12-726.942 435.202   1
   8   0 -11 912.058 576.732   1
   8   0 -10 314.067 272.039   1
   8   0  -9 145.600 323.542   1
   8   0  -8 2202.89 750.283   1
   8   0  -7 257.015 384.072   1
   8   0  -6-45.9642 224.666   3
   8   0  -6-7.85403 190.183   1
   8   0  -5 2.68435 289.141   3
   8   0  -4 1061.69 556.999   3
   8   0  -3 31.9570 136.738   3
   8   0  -2 12126.3 1546.58   3
   8   0  -1 192.974 333.090   3
   8   0   0 3290.54 779.489   3
   8   0   1 55.3062 213.080   3
   8   0   2 534.820 286.921   3
   8   0   3 739.707 430.340   3
   8   0   4 112.074 238.987   3
   8   0   5-118.671 102.169   3
   8   1 -13 1203.89 451.387   1
   8   1 -12 477.185 313.040   1
   8  -1 -12 754.247 421.290   1
   8  -1 -11 5136.77 1492.26   1
   8   1 -11 790.172 510.055   1
   8   1 -10 154.195 217.770   1
   8  -1 -10-88.5218 245.323   1
   8   1  -9 1293.43 540.446   1
   8  -1  -9 620.790 411.173   1
   8  -1  -8 692.982 479.610   1
   8   1  -8 94.5996 165.154   1
   8  -1  -7 464.354 279.343   1
   8  -1  -5 111.431 196.223   3
   8  -1  -4 2564.38 680.584   3
  -8  -1   4 2450.18 657.771   2
   8  -1  -3 674.982 438.373   3
  -8  -1   3 412.823 302.538   2
   8  -1  -2 298.924 318.014   3
  -8  -1   2 192.738 304.541   2
   8  -1  -1 278.084 410.708   3
   8  -1   0 3312.16 810.786   3
   8  -1   1 5372.41 997.431   3
   8  -1   2 3851.36 871.032   3
   8  -1   3 322.785 363.483   3
   8  -1   4 3878.09 933.856   3
   8  -1   5 5143.14 1113.18   3
   8  -2 -10 800.596 514.710   1
   8  -2  -9 3170.27 924.051   1
   8  -2  -8 1304.48 572.057   1
  -8  -2   6 738.335 475.758   2
   8  -2  -5 684.122 411.129   3
  -8  -2   5 573.576 378.880   2
   8  -2  -4 1680.27 552.788   3
  -8  -2   4 1458.76 615.234   2
   8  -2  -3 1583.86 546.246   3
  -8  -2   3 631.777 418.028   2
   8  -2  -2 446.896 323.489   3
  -8  -2   2 428.520 492.622   2
   8  -2  -1 433.870 390.246   3
  -8  -2   1 353.622 365.884   2
   8  -2   0 475.736 431.849   3
  -8  -2   0 253.039 319.011   2
   8  -2   1 1442.22 579.782   3
   8  -2   2 151.891 444.167   3
   8  -2   3 11116.5 1627.58   3
   8  -2   4 3949.25 1008.66   3
  -8  -3   8 451.151 394.261   2
   8  -3  -8 445.982 308.092   1
  -8  -3   7 1033.31 571.917   2
  -8  -3   6 1030.35 679.269   2
  -8  -3   5 510.405 551.195   2
  -8  -3   4 364.443 449.246   2
  -8  -3   3 2316.82 920.813   2
  -8  -3   2 1091.61 640.751   2
  -8  -3   1 2146.84 881.002   2
  -8  -3   0 1473.40 747.211   2
  -8  -3  -1 751.531 653.616   2
  -8  -3  -2 173.923 447.863   2
  -8  -3  -3 1363.77 706.018   2
   9   0 -11 2013.43 805.338   1
   9   0 -10-162.449 164.845   1
   9   0  -9 5466.33 1269.67   1
   9   0  -8 548.845 161.249   1
   9   0  -7 19.9338 213.733   1
   9   0  -6-36.2738 234.683   1
   9   0  -5 795.633 460.897   1
   9   0  -4 318.198 127.612   3
   9   0  -3 970.751 361.991   3
   9   0  -2 62.7142 346.423   3
   9   0  -1 10157.4 1590.39   3
   9   0   0 571.066 505.720   3
   9   0   1-207.009 146.827   3
   9  -1  -9 979.443 628.858   1
   9  -1  -8 1198.60 608.486   1
   9  -1  -7 2996.88 971.354   1
   9  -1  -5 503.096 341.549   3
   9  -1  -4 4762.49 977.623   3
   9  -1  -3 2573.88 780.252   3
   9  -1  -2 330.858 398.831   3
   9  -1  -1 84.5332 76.7332   3
   9  -1   0 397.525 343.048   3
   9  -1   1 1103.52 494.722   3
  -9  -2   5 3860.14 954.790   2
   9  -2  -4 3897.60 896.592   3
  -9  -2   4 3337.99 921.764   2
   9  -2  -3 1367.43 561.279   3
   9  -2  -2 699.914 379.396   3
   9  -2  -1 382.624 398.415   3
   9  -2   0 1259.69 630.420   3
  -9  -3   4 385.986 450.422   2
  -9  -3   3 477.454 380.416   2
  -9  -3   2 1104.04 565.543   2
  -9  -3   1 9420.56 1823.53   2
  10  -1  -4 24.9173 75.9846   3
   0   0   0    0.00    0.00   0
TITL ml025b in P2(1)/n
REM P2(1)/n (#14 in standard setting)
CELL 0.71073   7.146499   4.993171  12.643490  90.0000 102.7368  90.0000
ZERR    2.00   0.001165   0.000810   0.001550   0.0000   0.0138   0.0000
LATT  1
SYMM -x+1/2, y+1/2,-z+1/2
SFAC C H N
UNIT 22.00 16.00 2.00
TREF
HKLF 4
END
;
_shelx_hkl_checksum              57270
loop_
_space_group_symop_operation_xyz
'x, y, z'
'-x+1/2, y+1/2, -z+1/2'
'-x, -y, -z'
'x-1/2, -y-1/2, z-1/2'
loop_
_atom_site_label
_atom_site_type_symbol
_atom_site_fract_x
_atom_site_fract_y
_atom_site_fract_z
_atom_site_U_iso_or_equiv
_atom_site_adp_type
_atom_site_occupancy
_atom_site_site_symmetry_order
_atom_site_calc_flag
_atom_site_refinement_flags_posn
_atom_site_refinement_flags_adp
_atom_site_refinement_flags_occupancy
_atom_site_disorder_assembly
_atom_site_disorder_group
N1 N 0.1951(4) 0.0556(5) 0.04972(18) 0.0217(7) Uani 0.75(4) 1 d . . P A 1
C1 C 0.1951(4) 0.0556(5) 0.04972(18) 0.0217(7) Uani 0.25(4) 1 d . . P A 2
H1 H 0.3253 0.0929 0.0827 0.026 Uiso 0.25(4) 1 calc R U P A 2
C2 C 0.1475(4) -0.1341(7) -0.0278(2) 0.0210(7) Uani 1 1 d . . . . .
C3 C 0.2945(4) -0.2849(6) -0.0614(2) 0.0244(8) Uani 1 1 d . . . . .
H3 H 0.4254 -0.2517 -0.0286 0.029 Uiso 1 1 calc R U . . .
C4 C 0.2490(5) -0.4748(7) -0.1395(2) 0.0270(8) Uani 1 1 d . . . . .
H4 H 0.3482 -0.5736 -0.1607 0.032 Uiso 1 1 calc R U . . .
C5 C 0.0497(4) 0.1900(6) 0.0783(2) 0.0196(7) Uani 1 1 d . . . . .
C6 C 0.0900(4) 0.3909(7) 0.1597(2) 0.0259(8) Uani 1 1 d . . . . .
H6 H 0.2194 0.4302 0.1935 0.031 Uiso 1 1 calc R U . . .
C7 C -0.0541(5) 0.5273(7) 0.1898(2) 0.0284(8) Uani 1 1 d . . . . .
H7 H -0.0245 0.6593 0.2451 0.034 Uiso 1 1 calc R U . . .
loop_
_atom_site_aniso_label
_atom_site_aniso_U_11
_atom_site_aniso_U_22
_atom_site_aniso_U_33
_atom_site_aniso_U_23
_atom_site_aniso_U_13
_atom_site_aniso_U_12
N1 0.0255(14) 0.0217(15) 0.0192(12) -0.0005(10) 0.0074(10) -0.0006(13)
C1 0.0255(14) 0.0217(15) 0.0192(12) -0.0005(10) 0.0074(10) -0.0006(13)
C2 0.0231(14) 0.0218(17) 0.0200(13) 0.0056(12) 0.0087(11) 0.0004(14)
C3 0.0229(15) 0.0241(18) 0.0285(15) 0.0017(13) 0.0106(12) 0.0002(15)
C4 0.0301(16) 0.0273(18) 0.0287(14) 0.0028(14) 0.0172(12) 0.0046(16)
C5 0.0244(14) 0.0162(16) 0.0194(12) 0.0018(11) 0.0077(11) -0.0015(13)
C6 0.0299(16) 0.0268(19) 0.0221(14) -0.0024(12) 0.0075(12) -0.0035(15)
C7 0.0388(18) 0.0268(19) 0.0230(14) -0.0040(13) 0.0143(12) -0.0035(17)
loop_
_atom_type_symbol
_atom_type_description
_atom_type_scat_dispersion_real
_atom_type_scat_dispersion_imag
_atom_type_scat_source
C C 0.0033 0.0016 'International Tables Vol C Tables 4.2.6.8 and 6.1.1.4'
H H 0.0000 0.0000 'International Tables Vol C Tables 4.2.6.8 and 6.1.1.4'
N N 0.0061 0.0033 'International Tables Vol C Tables 4.2.6.8 and 6.1.1.4'
loop_
_geom_angle_atom_site_label_1
_geom_angle_atom_site_label_2
_geom_angle_atom_site_label_3
_geom_angle
_geom_angle_site_symmetry_3
C2 N1 C5 117.1(3) .
N1 C2 C3 120.0(3) .
N1 C2 C5 121.5(3) 3
C3 C2 C5 118.5(3) 3
C4 C3 C2 120.7(3) .
C3 C4 C7 120.6(3) 3
N1 C5 C6 120.0(3) .
N1 C5 C2 121.3(3) 3
C6 C5 C2 118.7(3) 3
C7 C6 C5 120.8(3) .
C6 C7 C4 120.7(3) 3
loop_
_geom_bond_atom_site_label_1
_geom_bond_atom_site_label_2
_geom_bond_distance
_geom_bond_site_symmetry_2
N1 C2 1.351(4) .
N1 C5 1.352(4) .
C2 C3 1.431(4) .
C2 C5 1.441(4) 3
C3 C4 1.356(4) .
C4 C7 1.422(4) 3
C5 C6 1.420(4) .
C5 C2 1.440(4) 3
C6 C7 1.357(4) .
C7 C4 1.422(4) 3
