#------------------------------------------------------------------------------
#$Date: 2016-02-13 14:50:18 +0200 (Sat, 13 Feb 2016) $
#$Revision: 176428 $
#$URL: svn://www.crystallography.net/cod/cif/4/51/35/4513594.cif $
#------------------------------------------------------------------------------
#
# This file is available in the Crystallography Open Database (COD),
# http://www.crystallography.net/
#
# All data on this site have been placed in the public domain by the
# contributors.
#
data_4513594
loop_
_publ_author_name
'Dobrzycki, Lukasz'
'Taraszewska, Paulina'
'Boese, Roland'
'Cyra\'nski, Micha\/l K.'
_publ_section_title
;
 Pyrrolidine and Its Hydrates in the Solid State
;
_journal_issue                   10
_journal_name_full               'Crystal Growth &amp; Design'
_journal_page_first              4804
_journal_paper_doi               10.1021/acs.cgd.5b00527
_journal_volume                  15
_journal_year                    2015
_chemical_formula_sum            'C4 H9 N'
_chemical_formula_weight         71.12
_chemical_name_common            'pyrrolidine LT phase at 205K'
_chemical_name_systematic
; 
 Pyrrolidine - low temperature phase at 205K 
;
_space_group_IT_number           14
_symmetry_cell_setting           monoclinic
_symmetry_space_group_name_Hall  '-P 2ybc'
_symmetry_space_group_name_H-M   'P 1 21/c 1'
_atom_sites_solution_hydrogens   geom
_atom_sites_solution_primary     direct
_atom_sites_solution_secondary   difmap
_cell_angle_alpha                90.00
_cell_angle_beta                 110.284(8)
_cell_angle_gamma                90.00
_cell_formula_units_Z            4
_cell_length_a                   8.740(2)
_cell_length_b                   5.2169(13)
_cell_length_c                   10.816(3)
_cell_measurement_reflns_used    1420
_cell_measurement_temperature    205(2)
_cell_measurement_theta_max      26.302
_cell_measurement_theta_min      4.018
_cell_volume                     462.6(2)
_computing_cell_refinement       'SAINT V8.27B (Bruker AXS Inc., 2012)'
_computing_data_collection       'APEX2 v2013.2-0 (Bruker AXS Inc., 2012)'
_computing_data_reduction        'SAINT V8.27B (Bruker AXS Inc., 2012)'
_computing_molecular_graphics    'Diamond 2.1 (Branderburg & Putz, 2012)'
_computing_publication_material  'APEX2 v2013.2-0 (Bruker AXS Inc., 2012)'
_computing_structure_refinement  'SHELXL-97 (Sheldrick, 2008)'
_computing_structure_solution    'SHELXS-97 (Sheldrick, 2008)'
_diffrn_ambient_temperature      205(2)
_diffrn_detector_area_resol_mean 10.4167
_diffrn_measured_fraction_theta_full 0.961
_diffrn_measured_fraction_theta_max 0.961
_diffrn_measurement_device_type  'Bruker D8 Venture CMOS area-detector'
_diffrn_measurement_method       'phi scan'
_diffrn_radiation_monochromator  'Bruker Triumph'
_diffrn_radiation_source         'fine-focus sealed tube'
_diffrn_radiation_type           MoK\a
_diffrn_radiation_wavelength     0.71073
_diffrn_reflns_av_R_equivalents  0.0000
_diffrn_reflns_av_sigmaI/netI    0.0275
_diffrn_reflns_limit_h_max       9
_diffrn_reflns_limit_h_min       -10
_diffrn_reflns_limit_k_max       6
_diffrn_reflns_limit_k_min       0
_diffrn_reflns_limit_l_max       12
_diffrn_reflns_limit_l_min       0
_diffrn_reflns_number            787
_diffrn_reflns_theta_full        25.03
_diffrn_reflns_theta_max         25.03
_diffrn_reflns_theta_min         4.02
_exptl_absorpt_coefficient_mu    0.062
_exptl_absorpt_correction_T_max  0.9818
_exptl_absorpt_correction_T_min  0.9640
_exptl_absorpt_correction_type   multi-scan
_exptl_absorpt_process_details
;
TWINABS V2012/1 (Bruker AXS Inc.) 
;
_exptl_crystal_colour            colourless
_exptl_crystal_density_diffrn    1.021
_exptl_crystal_density_method    'not measured'
_exptl_crystal_description       cylindical
_exptl_crystal_F_000             160
_exptl_crystal_size_max          0.60
_exptl_crystal_size_mid          0.30
_exptl_crystal_size_min          0.30
_refine_diff_density_max         0.176
_refine_diff_density_min         -0.129
_refine_diff_density_rms         0.043
_refine_ls_extinction_method     none
_refine_ls_goodness_of_fit_ref   1.056
_refine_ls_hydrogen_treatment    mixed
_refine_ls_matrix_type           full
_refine_ls_number_parameters     50
_refine_ls_number_reflns         787
_refine_ls_number_restraints     0
_refine_ls_restrained_S_all      1.056
_refine_ls_R_factor_all          0.0611
_refine_ls_R_factor_gt           0.0530
_refine_ls_shift/su_max          0.000
_refine_ls_shift/su_mean         0.000
_refine_ls_structure_factor_coef Fsqd
_refine_ls_weighting_details
'calc w=1/[\s^2^(Fo^2^)+(0.0801P)^2^+0.1070P] where P=(Fo^2^+2Fc^2^)/3'
_refine_ls_weighting_scheme      calc
_refine_ls_wR_factor_gt          0.1417
_refine_ls_wR_factor_ref         0.1498
_reflns_number_gt                614
_reflns_number_total             787
_reflns_threshold_expression     >2sigma(I)
_cod_data_source_file            cg5b00527_si_001.cif
_cod_data_source_block           Pyrrolidine_LT_205K
_cod_depositor_comments
;
The following automatic conversions were performed:

'_symmetry_cell_setting' value 'Monoclinic' changed to 'monoclinic'
according to
/usr/data/users/saulius/crontab/automatic-downloads/rss-feeds/ACS/lib/dictionaries/cif_core.dic
dictionary named 'cif_core.dic' version 2.4.2 from 2011-04-26.

Automatic conversion script
Id: cif_fix_values 3271 2015-04-21 07:52:19Z andrius 

 Adding full bibliography for 4513593--4513603.cif.
;
_cod_original_sg_symbol_H-M      P21/c
_cod_database_code               4513594
loop_
_symmetry_equiv_pos_as_xyz
'x, y, z'
'-x, y+1/2, -z+1/2'
'-x, -y, -z'
'x, -y-1/2, z-1/2'
loop_
_atom_site_label
_atom_site_type_symbol
_atom_site_fract_x
_atom_site_fract_y
_atom_site_fract_z
_atom_site_U_iso_or_equiv
_atom_site_adp_type
_atom_site_occupancy
_atom_site_symmetry_multiplicity
_atom_site_calc_flag
_atom_site_refinement_flags
N1 N 0.60763(18) 0.5247(3) 0.30359(16) 0.0491(5) Uani 1 1 d .
H1N H 0.543(3) 0.412(5) 0.266(2) 0.069(7) Uiso 1 1 d .
C2 C 0.6878(2) 0.4336(4) 0.43708(18) 0.0522(6) Uani 1 1 d .
H2A H 0.6076 0.3602 0.4717 0.063 Uiso 1 1 calc R
H2B H 0.7435 0.5755 0.4944 0.063 Uiso 1 1 calc R
C3 C 0.8109(2) 0.2300(4) 0.43265(18) 0.0518(6) Uani 1 1 d .
H3A H 0.9110 0.2428 0.5098 0.062 Uiso 1 1 calc R
H3B H 0.7652 0.0576 0.4296 0.062 Uiso 1 1 calc R
C4 C 0.8444(3) 0.2884(4) 0.3067(2) 0.0580(6) Uani 1 1 d .
H4A H 0.9598 0.3298 0.3263 0.070 Uiso 1 1 calc R
H4B H 0.8156 0.1417 0.2465 0.070 Uiso 1 1 calc R
C5 C 0.7375(3) 0.5173(4) 0.24730(19) 0.0575(6) Uani 1 1 d .
H5A H 0.8018 0.6756 0.2683 0.069 Uiso 1 1 calc R
H5B H 0.6909 0.5001 0.1512 0.069 Uiso 1 1 calc R
loop_
_atom_site_aniso_label
_atom_site_aniso_U_11
_atom_site_aniso_U_22
_atom_site_aniso_U_33
_atom_site_aniso_U_23
_atom_site_aniso_U_13
_atom_site_aniso_U_12
N1 0.0434(8) 0.0383(10) 0.0587(10) -0.0003(7) 0.0089(7) 0.0030(6)
C2 0.0555(10) 0.0536(12) 0.0516(11) -0.0015(8) 0.0236(8) 0.0117(8)
C3 0.0524(10) 0.0497(12) 0.0498(11) 0.0021(8) 0.0133(8) 0.0137(8)
C4 0.0617(12) 0.0507(12) 0.0720(13) -0.0038(9) 0.0363(10) 0.0045(9)
C5 0.0814(14) 0.0400(12) 0.0593(12) 0.0012(8) 0.0348(10) 0.0006(9)
loop_
_atom_type_symbol
_atom_type_description
_atom_type_scat_dispersion_real
_atom_type_scat_dispersion_imag
_atom_type_scat_source
C C 0.0033 0.0000 'International Tables Vol C Tables 4.2.6.8 and 6.1.1.4'
H H 0.0000 0.0000 'International Tables Vol C Tables 4.2.6.8 and 6.1.1.4'
N N 0.0061 0.0000 'International Tables Vol C Tables 4.2.6.8 and 6.1.1.4'
loop_
_geom_angle_atom_site_label_1
_geom_angle_atom_site_label_2
_geom_angle_atom_site_label_3
_geom_angle
C2 N1 C5 103.23(14)
C2 N1 H1N 105.6(18)
C5 N1 H1N 105.9(16)
N1 C2 C3 107.46(14)
N1 C2 H2A 110.2
C3 C2 H2A 110.2
N1 C2 H2B 110.2
C3 C2 H2B 110.2
H2A C2 H2B 108.5
C4 C3 C2 104.22(15)
C4 C3 H3A 110.9
C2 C3 H3A 110.9
C4 C3 H3B 110.9
C2 C3 H3B 110.9
H3A C3 H3B 108.9
C5 C4 C3 104.85(15)
C5 C4 H4A 110.8
C3 C4 H4A 110.8
C5 C4 H4B 110.8
C3 C4 H4B 110.8
H4A C4 H4B 108.9
N1 C5 C4 107.30(14)
N1 C5 H5A 110.3
C4 C5 H5A 110.3
N1 C5 H5B 110.3
C4 C5 H5B 110.3
H5A C5 H5B 108.5
loop_
_geom_bond_atom_site_label_1
_geom_bond_atom_site_label_2
_geom_bond_distance
N1 C2 1.449(2)
N1 C5 1.463(2)
N1 H1N 0.82(3)
C2 C3 1.524(2)
C2 H2A 0.9800
C2 H2B 0.9800
C3 C4 1.520(3)
C3 H3A 0.9800
C3 H3B 0.9800
C4 C5 1.515(3)
C4 H4A 0.9800
C4 H4B 0.9800
C5 H5A 0.9800
C5 H5B 0.9800
loop_
_geom_hbond_atom_site_label_D
_geom_hbond_atom_site_label_H
_geom_hbond_atom_site_label_A
_geom_hbond_distance_DH
_geom_hbond_distance_HA
_geom_hbond_distance_DA
_geom_hbond_angle_DHA
_geom_hbond_site_symmetry_A
N1 H1N N1 0.82(3) 2.39(3) 3.1899(18) 167(2) 2_645
loop_
_geom_torsion_atom_site_label_1
_geom_torsion_atom_site_label_2
_geom_torsion_atom_site_label_3
_geom_torsion_atom_site_label_4
_geom_torsion
C5 N1 C2 C3 -35.3(2)
N1 C2 C3 C4 22.3(2)
C2 C3 C4 C5 -0.7(2)
C2 N1 C5 C4 34.8(2)
C3 C4 C5 N1 -20.9(2)
