#------------------------------------------------------------------------------
#$Date: 2015-09-05 23:34:09 +0300 (Sat, 05 Sep 2015) $
#$Revision: 154543 $
#$URL: svn://www.crystallography.net/cod/cif/4/51/33/4513322.cif $
#------------------------------------------------------------------------------
#
# This file is available in the Crystallography Open Database (COD),
# http://www.crystallography.net/
#
# All data on this site have been placed in the public domain by the
# contributors.
#
data_4513322
loop_
_publ_author_name
'Lusi, Matteo'
'Vitorica-Yrezabal, Inigo J.'
'Zaworotko, Michael J.'
_publ_section_title
;
 Expanding the Scope of Molecular Mixed Crystals Enabled by Three
 Component Solid Solutions
;
_journal_issue                   8
_journal_name_full               'Crystal Growth &amp; Design'
_journal_page_first              4098
_journal_paper_doi               10.1021/acs.cgd.5b00685
_journal_volume                  15
_journal_year                    2015
_chemical_formula_sum            'C6.97 H4.97 N0.03'
_chemical_formula_weight         89.14
_chemical_name_systematic
;
 ?
;
_space_group_crystal_system      monoclinic
_space_group_IT_number           14
_space_group_name_Hall           '-P 2ybc'
_space_group_name_H-M_alt        'P 1 21/c 1'
_symmetry_space_group_name_Hall  '-P 2ybc'
_symmetry_space_group_name_H-M   'P 1 21/c 1'
_atom_sites_solution_hydrogens   geom
_audit_creation_method           SHELXL-2014
_cell_angle_alpha                90
_cell_angle_beta                 102.529(15)
_cell_angle_gamma                90
_cell_formula_units_Z            4
_cell_length_a                   9.2837(13)
_cell_length_b                   5.9932(8)
_cell_length_c                   8.4219(11)
_cell_measurement_temperature    100(2)
_cell_volume                     457.43(11)
_computing_structure_refinement  'SHELXL-2014 (Sheldrick, 2014)'
_diffrn_ambient_temperature      100(2)
_diffrn_measured_fraction_theta_full 0.996
_diffrn_measured_fraction_theta_max 0.896
_diffrn_radiation_type           MoK\a
_diffrn_radiation_wavelength     0.71073
_diffrn_reflns_av_R_equivalents  0.0348
_diffrn_reflns_av_unetI/netI     0.0714
_diffrn_reflns_laue_measured_fraction_full 0.996
_diffrn_reflns_laue_measured_fraction_max 0.896
_diffrn_reflns_limit_h_max       12
_diffrn_reflns_limit_h_min       -11
_diffrn_reflns_limit_k_max       7
_diffrn_reflns_limit_k_min       -7
_diffrn_reflns_limit_l_max       11
_diffrn_reflns_limit_l_min       -7
_diffrn_reflns_number            1799
_diffrn_reflns_point_group_measured_fraction_full 0.996
_diffrn_reflns_point_group_measured_fraction_max 0.896
_diffrn_reflns_theta_full        25.242
_diffrn_reflns_theta_max         28.386
_diffrn_reflns_theta_min         4.076
_exptl_absorpt_coefficient_mu    0.073
_exptl_absorpt_correction_T_max  1.02
_exptl_absorpt_correction_T_min  0.52
_exptl_absorpt_correction_type   multi-scan
_exptl_absorpt_process_details   sadabs
_exptl_crystal_colour            colourless
_exptl_crystal_density_diffrn    1.294
_exptl_crystal_description       prism
_exptl_crystal_F_000             188
_refine_diff_density_max         0.231
_refine_diff_density_min         -0.294
_refine_diff_density_rms         0.060
_refine_ls_extinction_method     none
_refine_ls_goodness_of_fit_ref   1.035
_refine_ls_hydrogen_treatment    constr
_refine_ls_matrix_type           full
_refine_ls_number_parameters     65
_refine_ls_number_reflns         1025
_refine_ls_number_restraints     0
_refine_ls_restrained_S_all      1.035
_refine_ls_R_factor_all          0.0918
_refine_ls_R_factor_gt           0.0617
_refine_ls_shift/su_max          0.000
_refine_ls_shift/su_mean         0.000
_refine_ls_structure_factor_coef Fsqd
_refine_ls_weighting_details
'w=1/[\s^2^(Fo^2^)+(0.0563P)^2^+0.2182P] where P=(Fo^2^+2Fc^2^)/3'
_refine_ls_weighting_scheme      calc
_refine_ls_wR_factor_gt          0.1300
_refine_ls_wR_factor_ref         0.1585
_reflns_Friedel_coverage         0.000
_reflns_number_gt                700
_reflns_number_total             1025
_reflns_threshold_expression     'I > 2\s(I)'
_cod_data_source_file            cg5b00685_si_021.cif
_cod_data_source_block           D:\#20
_cod_depositor_comments
'Adding full bibliography for 4513301--4513322.cif.'
_cod_database_code               4513322
_shelx_space_group_comment
;
The symmetry employed for this shelxl refinement is uniquely defined
by the following loop, which should always be used as a source of
symmetry information in preference to the above space-group names.
They are only intended as comments.
;
_shelxl_version_number           2014-3
_shelx_res_file
;
TITL CF solution in P21/c
CELL 0.71073 9.2837 5.9932 8.4219 90.000 102.529 90.000
ZERR 4.0000 0.0013 0.0008 0.0011 0.000 0.015 0.000
LATT 1
SYMM -X, 0.5+Y, 0.5-Z
SFAC C H N
UNIT 27.87 19.87 0.13
MERG 2
FMAP 2
GRID
PLAN 5
TEMP -173
BOND
EXYZ N1 C1
EADP N1 C1
L.S. 20
ACTA
WGHT    0.056300    0.218200
FVAR      17.31348   0.96717
C1    1    0.451151    0.210617    0.538259    21.00000    0.02134    0.01477 =
         0.01803   -0.00050    0.00807    0.00077
AFIX  43
H1    2    0.418098    0.353271    0.564319    21.00000   -1.20000
AFIX   0
C2    1    0.589478    0.134863    0.620543    11.00000    0.01895    0.01517 =
         0.01439    0.00248    0.00790   -0.00086
C3    1    0.682762    0.264087    0.743418    11.00000    0.02398    0.01930 =
         0.01731   -0.00323    0.00932   -0.00263
AFIX  43
H3    2    0.650654    0.406622    0.770983    11.00000   -1.20000
AFIX   0
C4    1    0.817417    0.186157    0.821997    11.00000    0.02233    0.02431 =
         0.01809   -0.00086    0.00468   -0.00433
AFIX  43
H4    2    0.877792    0.274407    0.903957    11.00000   -1.20000
AFIX   0
C5    1    0.360254    0.082669    0.418949    11.00000    0.01894    0.01627 =
         0.01571    0.00188    0.00830    0.00082
C6    1    0.217664    0.155862    0.334104    11.00000    0.01941    0.02036 =
         0.02183    0.00269    0.00588    0.00178
AFIX  43
H6    2    0.182109    0.297301    0.359209    11.00000   -1.20000
AFIX   0
C7    1    0.131845    0.026238    0.217817    11.00000    0.01746    0.02617 =
         0.02255    0.00313    0.00342    0.00281
AFIX  43
H7    2    0.037453    0.078164    0.162970    11.00000   -1.20000
PART 2
AFIX   0
N1    3    0.451151    0.210617    0.538259   -21.00000    0.02134    0.01477 =
         0.01803   -0.00050    0.00807    0.00077
HKLF 4

REM  CF solution in P21/c
REM R1 =  0.0617 for     700 Fo > 4sig(Fo)  and  0.0918 for all    1025 data
REM     65 parameters refined using      0 restraints

END

WGHT      0.0563      0.2182

REM Highest difference peak  0.231,  deepest hole -0.294,  1-sigma level  0.060
Q1    1   0.7778  0.2650  0.7442  11.00000  0.05    0.23
Q2    1   0.3944  0.4097  0.6091  11.00000  0.05    0.21
Q3    1   0.2764  0.0906  0.4014  11.00000  0.05    0.21
Q4    1   0.7947  0.1789  1.0349  11.00000  0.05    0.20
Q5    1   0.3810 -0.0013  0.3816  11.00000  0.05    0.20
;
_shelx_res_checksum              77692
_shelx_hkl_file
;
   2   0   0 147482. 3185.29   2
  -2   0   0 155882. 3194.64   2
   3   0   0 67321.6 1997.74   1
   3   0   0 69978.3 2661.08   2
   4   0   0 194127. 5113.62   2
   5   0   0 96891.3 4176.38   2
   6   0   0 13155.2 1730.53   2
   7   0   0 2136.99 837.451   2
   8   0   0 11139.8 1927.84   2
   9   0   0 30062.7 3389.50   2
  10   0   0 1862.13 1047.43   2
  11   0   0 2768.95 1442.86   2
  12   0   0 8283.84 2203.48   2
   0   1   0-33.6758 202.080   3
   0   1   0 61.9801 78.6477   2
  -1  -1   0 26572.1 1311.79   2
  -1   1   0 27929.2 1067.44   1
   1   1   0 29838.0 1362.36   2
   1  -1   0 29728.7 1468.29   3
  -1   1   0 28664.4 1442.39   3
   2  -1   0 1786.07 276.019   2
   2  -1   0 1482.47 262.988   1
  -2   1   0 1404.61 222.707   1
  -2   1   0 1773.76 344.355   3
  -2   1   0 1829.53 266.115   2
   2   1   0 1837.02 438.141   2
  -3   1   0 3158.13 489.302   2
  -3   1   0 2668.40 386.885   3
  -3   1   0 3315.19 374.739   1
   3   1   0 4174.43 744.576   2
   3  -1   0 3339.27 495.244   2
   3  -1   0 2840.88 378.062   1
   4   1   0 49784.3 2867.73   2
   4  -1   0 46178.5 2264.94   2
   4  -1   0 42047.3 1647.72   1
   5  -1   0 71200.8 3284.31   2
   5   1   0 68892.2 3766.01   2
   6  -1   0 534.740 356.399   2
  -6   1   0 90.4834 102.459   3
   6   1   0 346.516 401.276   2
   7   1   0 3984.18 1098.86   2
   7  -1   0 4287.44 1006.33   2
   8   1   0 44751.9 3968.24   2
   8  -1   0 51024.6 3869.08   2
   9   1   0 51819.7 4590.64   2
   9  -1   0 52324.3 4306.46   2
  10   1   0-664.218 348.013   2
  10  -1   0-516.326 521.390   2
  11   1   0 931.555 765.147   2
   0   2   0 231070. 3680.60   2
   0  -2   0 238569. 6222.07   3
   1   2   0 101082. 3063.79   2
  -1  -2   0 103701. 4288.08   3
   1  -2   0 102108. 3915.12   3
  -1   2   0 103714. 1652.72   2
   2   2   0 18901.9 1556.44   2
  -2  -2   0 19532.1 1974.80   3
   2  -2   0 22958.9 1847.85   3
  -2   2   0 20701.5 1275.95   1
   3  -2   0 10391.3 783.639   2
   3   2   0 11740.2 1373.47   2
  -3   2   0 9499.07 735.971   1
   4  -2   0 74345.2 2642.80   2
  -4   2   0 73961.7 1851.02   1
   4  -2   0 72525.6 2738.43   1
   4   2   0 74575.0 3850.44   2
  -5  -2   0 2293.30 840.898   3
   5   2   0 3395.90 901.224   2
   5  -2   0 3672.85 682.574   2
   6  -2   0 446.675 281.287   2
   6   2   0 1381.25 639.953   2
  -6  -2   0 484.553 527.856   3
   7  -2   0 71.0999 339.582   2
   7   2   0-19.9464 316.996   2
  -7  -2   0 759.560 511.198   3
   8   2   0 100338. 6126.46   2
   8  -2   0 104878. 5297.47   2
   9   2   0 6993.11 1749.14   2
  10   2   0 5990.80 1691.11   2
  11   2   0 601.153 455.056   2
   0  -3   0-402.570 384.378   3
   0   3   0 148.342 184.847   2
   1   3   0 144425. 4249.71   2
   1  -3   0 139108. 5601.23   3
  -1  -3   0 141138. 5989.29   3
  -1   3   0 145569. 2789.28   2
   2   3   0 1602.19 560.641   2
   2  -3   0 1829.07 772.972   3
  -2  -3   0 1145.57 632.028   3
  -3  -3   0 19062.8 2409.70   3
   3   3   0 15078.7 1724.93   2
  -3   3   0 16550.5 1316.70   1
   4   3   0 69897.4 3995.69   2
  -4   3   0 65301.9 2075.09   1
  -4  -3   0 66162.0 4542.33   3
   5   3   0 93271.3 4974.12   2
  -5  -3   0 77715.2 5131.61   3
   5  -3   0 82924.6 2655.12   2
  -5   3   0 87774.7 2129.27   1
  -6  -3   0 6341.40 1484.56   3
   6   3   0 5740.43 1402.43   2
  -7  -3   0 1150.53 641.450   3
   7   3   0 1594.80 906.893   2
   8   3   0 3756.40 1305.52   2
   9   3   0 2542.65 1102.15   2
  10   3   0-790.948 650.463   2
   0  -4   0 236.860 438.158   3
   0   4   0 570.887 283.252   2
  -1   4   0 9943.43 919.858   2
  -1  -4   0 10743.6 1957.24   3
   1   4   0 10390.7 1311.82   2
   2  -4   0 272.858 501.307   3
  -2  -4   0-282.989 590.426   3
   2   4   0 1.18790 164.291   2
  -3  -4   0 1199.19 766.774   3
   3  -4   0 993.262 603.539   3
  -3   4   0 1112.89 498.353   1
   3   4   0 1647.01 662.059   2
   4   4   0 814.470 529.312   2
  -4  -4   0 714.235 569.110   3
   5   4   0 83121.7 5073.51   2
  -5  -4   0 87403.8 6048.78   3
   6   4   0 21430.9 2733.12   2
  -6  -4   0 20099.2 3030.62   3
   7   4   0 16969.1 2616.78   2
  -7  -4   0 10667.2 2239.85   3
   8   4   0 1075.36 936.865   2
   9   4   0 9076.96 2202.66   2
   0   5   0 721.616 372.728   2
   0  -5   0 928.917 885.635   3
  -1  -5   0 904.863 666.153   3
   1  -5   0 168.565 583.416   3
   1   5   0-181.916 243.210   2
  -2  -5   0-19.3605 239.774   3
   2   5   0 297.565 251.025   2
   3   5   0 70572.8 4411.54   2
  -3  -5   0 68397.0 5607.84   3
   4   5   0 15820.8 2195.90   2
  -4  -5   0 13348.2 2606.87   3
   5   5   0 3274.77 1084.01   2
  -5  -5   0 2003.00 1049.83   3
   6   5   0 2127.69 929.173   2
  -6  -5   0 729.846 675.621   3
   7   5   0 5011.83 1490.64   2
  -7  -5   0 4791.25 1620.99   3
   8   5   0 10132.5 2479.05   2
   0  -6   0 2923.19 1299.87   3
  -1  -6   0 15167.7 2787.45   3
   1  -6   0 16773.7 2897.41   3
  -2  -6   0 1340.01 968.582   3
   2  -6   0 955.800 842.268   3
  -3  -6   0 63511.4 6015.00   3
   3   6   0 58730.6 4355.32   2
   4   6   0 4630.44 1254.43   2
  -4  -6   0 2815.92 1329.25   3
  -5  -6   0 15039.1 3023.20   3
   5   6   0 17038.8 2596.39   2
  -6  -6   0 5743.71 1765.52   3
   6   6   0 7355.15 1879.63   2
  -7  -6   0 2402.31 1328.99   3
   7   6   0 1801.64 882.533   2
   0  -7   0 2895.37 1398.09   3
  -1  -7   0 7172.74 2158.19   3
   1  -7   0 2278.63 1314.50   3
  -2  -7   0 4.16378 305.952   3
  -3  -7   0-210.160 553.042   3
  -4  -7   0 405.148 641.813   3
  12   0  -1 1257.74 839.529   2
  11   0  -1-1279.38 794.460   2
  10   0  -1 853.592 692.812   2
   9   0  -1 186.749 315.963   2
   8   0  -1-63.2386 246.647   2
   7   0  -1-259.706 296.996   2
   6   0  -1-278.586 276.589   2
   5   0  -1-14.9013 272.105   2
   4   0  -1-49.0845 219.942   2
  -3   0   1 0.79990 57.6134   1
  -2   0   1 44.4315 97.7645   1
   2   0  -1 89.8565 102.315   1
   1   0   1-82.7225 101.147   2
  -1   0  -1 116.648 126.239   2
  -2   0  -1 215.597 231.428   2
   2   0   1-296.413 192.099   2
   3   0   1 11.8716 118.918   2
   4   0   1 653.034 406.339   2
   5   0   1 109.582 319.784   2
   6   0   1 4.74591 180.745   2
   7   0   1-348.200 375.045   2
   8   0   1-248.029 391.223   2
   9   0   1-179.898 383.124   2
  10   0   1-619.435 396.693   2
  11   0   1 1548.79 1003.09   2
  12   0   1 475.200 850.710   2
  12   1  -1 528.136 590.300   2
  11   1  -1 1604.01 918.293   2
  10  -1  -1 7601.87 1699.00   2
  10   1  -1 9659.21 2007.04   2
   9   1  -1 655.978 518.697   2
   9  -1  -1 87.1983 217.301   2
   8  -1  -1-136.518 272.689   2
   8   1  -1 309.830 435.580   2
   7  -1  -1 218.132 313.156   2
   7   1  -1 588.924 432.398   2
   6  -1  -1 8676.39 1213.90   2
   6   1  -1 7602.27 1325.45   2
   5   1  -1 65610.4 3544.04   2
   5  -1  -1 67296.0 3052.21   2
  -5   1   1 64347.9 2516.90   1
   4  -1  -1 11053.3 1056.85   2
   4   1  -1 9134.96 1175.77   2
  -4   1   1 10939.2 911.877   1
   3  -1  -1 487.907 182.464   2
  -3   1   1 332.254 180.414   1
   3  -1  -1 489.027 177.888   1
  -2   1   1 45449.0 1963.40   1
   2  -1  -1 45197.7 2057.38   1
   1   1  -1 998039. 6502.32   1
  -1   1   1 999999. 9472.04   1
   0   1   1 174492. 3817.58   3
   0   1  -1 174629. 1947.34   1
   0   1   1 173112. 3409.45   2
   0  -1  -1 172840. 3173.19   2
  -1   1  -1 35898.5 1641.59   2
  -1  -1  -1 35069.5 1661.64   2
   1   1   1 34468.9 1742.86   2
   1  -1   1 33782.2 1573.97   2
  -1  -1  -1 35989.3 1728.70   3
   1   1   1 36545.0 1885.60   3
   2  -1   1 53020.4 1818.57   3
  -2   1  -1 53110.3 2126.08   2
  -2  -1  -1 53425.8 2216.76   3
   2   1   1 49638.6 2433.50   2
   2   1   1 50258.5 2353.86   3
   2  -1   1 50468.1 2224.12   2
  -3  -1  -1 114678. 3420.06   3
   3  -1   1 118425. 1862.52   1
   3   1   1 117144. 4217.86   2
   3  -1   1 119884. 3818.23   2
   4  -1   1 93740.6 3763.00   2
  -4  -1  -1 92390.2 3222.68   3
   4   1   1 95546.7 4318.48   2
   4  -1   1 94841.1 2112.58   1
  -5  -1  -1-75.7073 178.014   3
   5   1   1-1.45320 271.029   2
   5  -1   1-1.16653 181.693   2
   6  -1   1 273.895 290.358   2
  -6  -1  -1 429.879 241.406   3
   6   1   1 766.392 582.564   2
   7  -1   1 20965.4 2485.46   2
   7   1   1 20983.4 2666.52   2
   8  -1   1 4688.98 1256.27   2
   8   1   1 2647.01 1136.92   2
   9   1   1 4596.26 1511.93   2
   9  -1   1 5254.29 1439.21   2
  10   1   1 589.647 603.892   2
  10  -1   1 2663.78 1150.65   2
  11   1   1 2935.32 1380.55   2
  11   2  -1 1669.02 929.550   2
  10   2  -1 14192.9 2493.76   2
   9   2  -1 45454.3 4141.16   2
   8  -2  -1 3712.17 908.772   2
   8   2  -1 3670.71 1153.75   2
   7   2  -1 1363.63 676.622   2
   7  -2  -1 987.175 506.914   2
   6  -2  -1 12353.9 1319.22   2
   6   2  -1 14989.3 1941.62   2
  -6   2   1 13644.8 1189.33   1
   5   2  -1 21030.9 2133.54   2
  -5   2   1 23263.0 1427.52   1
   5  -2  -1 20719.3 1430.26   2
  -4   2   1 65.7261 177.159   1
   4  -2  -1 429.129 206.969   2
   3  -2  -1 115.836 93.7142   2
  -3   2   1-50.8689 224.884   1
   3   2  -1 8.39753 193.122   2
  -2   2   1 30884.5 1986.32   1
   1  -2  -1 108137. 2010.63   2
  -1   2   1 108407. 2501.24   2
   0   2   1 20010.1 1288.69   2
   0  -2  -1 19217.2 1136.58   2
   0  -2  -1 19554.6 1786.49   3
  -1   2  -1 11426.7 997.307   2
  -1  -2  -1 11759.4 1419.20   3
   1   2   1 10721.9 1106.37   2
   1  -2   1 11751.9 1395.16   3
   2  -2   1 30221.4 2076.92   3
  -2  -2  -1 32132.4 2455.67   3
   2   2   1 34594.2 2257.51   2
  -2   2  -1 33568.9 1671.80   2
  -3   2  -1 66495.3 2392.87   2
   3  -2   1 67737.5 2984.34   3
   3   2   1 67450.2 3518.19   2
   3  -2   1 67758.3 2721.08   2
  -3  -2  -1 64903.5 3589.00   3
  -4  -2  -1 1947.49 675.147   3
   4   2   1 2489.07 770.674   2
   4  -2   1 2890.50 665.543   2
   4  -2   1 2648.79 386.869   1
   5   2   1 1021.34 567.352   2
   5  -2   1 1796.06 630.766   2
  -5  -2  -1 698.623 575.867   3
   5  -2   1 460.841 199.665   1
   6   2   1 922.492 583.229   2
  -6  -2  -1 339.079 335.117   3
   6  -2   1 905.922 487.888   2
   7  -2   1 56913.7 3963.62   2
   7   2   1 58447.2 4618.45   2
   8  -2   1 67374.4 4713.05   2
   8   2   1 64736.4 5275.01   2
   9   2   1 795.205 764.629   2
  10   2   1-500.990 633.259   2
  10   3  -1 1139.59 748.213   2
   9   3  -1 56294.5 4850.89   2
  -8  -3   1 438.205 535.850   3
   8   3  -1 199.601 337.417   2
   7   3  -1 996.912 591.121   2
   6   3  -1 140225. 6260.18   2
  -6   3   1 130156. 3441.92   1
   5  -3  -1 5164.76 493.582   2
   5   3  -1 5930.36 1268.44   2
  -5   3   1 5731.17 779.794   1
   4   3  -1 63556.7 3699.66   2
  -4   3   1 67109.0 2984.26   1
   3   3  -1 5621.07 1017.46   2
  -3   3   1 6664.29 1071.70   1
  -2   3   1 22565.4 2008.05   1
   2   3  -1 23706.6 1892.95   2
  -1   3   1 120589. 3114.68   2
   1  -3  -1 122774. 5414.74   3
  -1  -3   1 122984. 5931.50   3
   0  -3  -1 63576.5 3931.19   3
   0  -3   1 69689.8 4303.12   3
   0   3   1 65369.8 2744.03   2
  -1  -3  -1 464.014 438.725   3
   1  -3   1 369.543 457.157   3
   1   3   1 826.381 410.322   2
   2   3   1 4383.28 899.634   2
  -2   3  -1 4081.23 602.774   2
   2  -3   1 3369.19 883.415   3
  -2  -3  -1 4162.68 1104.02   3
  -3  -3  -1 40981.4 3380.71   3
  -3   3  -1 33307.7 1531.10   2
   3   3   1 34250.3 2763.86   2
   3  -3   1 33707.0 2635.84   3
  -4   3  -1 44070.8 1886.53   2
   4   3   1 43839.5 3364.32   2
  -4  -3  -1 45907.3 3679.12   3
  -5  -3  -1 27668.0 2890.34   3
   5  -3   1 23714.1 1859.03   2
   6   3   1 12387.9 2086.35   2
  -6  -3  -1 11897.1 1915.11   3
   7   3   1 5218.15 1530.43   2
  -7  -3  -1 3490.58 1050.99   3
   8   3   1-313.548 452.239   2
   9   3   1 4208.59 1480.37   2
  10   3   1 4067.68 1560.94   2
   9   4  -1 1037.12 712.887   2
  -8  -4   1 505.407 669.453   3
   8   4  -1 2204.10 1009.89   2
  -7  -4   1 3236.47 1272.23   3
   7   4  -1 2156.99 863.490   2
  -6  -4   1 26356.5 3578.30   3
   6   4  -1 26816.3 2975.36   2
  -5  -4   1 12568.7 2480.87   3
   5   4  -1 6403.18 1354.82   2
  -4  -4   1 117.279 650.030   3
  -4   4   1-514.019 344.746   1
   4   4  -1-164.411 243.452   2
  -3  -4   1 5659.00 1513.32   3
   3   4  -1 5293.74 1068.14   2
  -3   4   1 4177.83 1009.04   1
  -2  -4   1 4129.80 1311.50   3
   2   4  -1 5659.95 1014.36   2
  -1  -4   1 532.600 670.699   3
   1   4  -1 73.7729 144.331   2
   1  -4  -1 1062.57 604.999   3
  -1   4   1 78.4021 162.968   2
   0  -4  -1 43471.5 3732.18   3
   0   4  -1 43649.7 2279.63   2
   0   4   1 49104.2 2708.62   2
   0  -4   1 43054.7 3820.17   3
  -1   4  -1 3375.14 552.333   2
   1   4   1 2986.06 741.966   2
  -1  -4  -1 3864.70 1156.90   3
   1  -4   1 3737.43 1181.75   3
   2   4   1 23423.1 2305.02   2
  -2  -4  -1 21563.4 2723.29   3
   2  -4   1 20862.4 2503.99   3
   3  -4   1 19174.0 2342.86   3
  -3  -4  -1 15172.3 2355.71   3
   3   4   1 16266.9 2097.52   2
  -4  -4  -1 96125.3 6004.72   3
   4  -4   1 97543.1 5300.82   3
   4   4   1 92861.2 5324.35   2
  -5  -4  -1 33278.4 3610.05   3
   5   4   1 38751.6 3672.67   2
   6   4   1 189.548 596.199   2
  -6  -4  -1 154.904 386.675   3
  -7  -4  -1 18363.4 2827.79   3
   7   4   1 20000.3 3030.45   2
   8   4   1 222.144 327.999   2
   9   4   1 13469.7 2733.92   2
  -8  -5   1 9832.53 2446.89   3
   8   5  -1 6712.86 1751.30   2
  -7  -5   1 4397.28 1609.34   3
   7   5  -1 4624.71 1407.58   2
   6   5  -1 3556.95 1136.33   2
  -6  -5   1 2822.45 1446.19   3
   5   5  -1 487.805 354.693   2
  -5  -5   1 888.806 779.617   3
   4   5  -1 45643.8 3602.39   2
  -4  -5   1 34205.5 4284.67   3
  -3  -5   1 955.267 909.215   3
  -3   5   1 1483.60 704.884   1
   3   5  -1 689.743 490.327   2
  -2  -5   1 13334.9 2552.63   3
   2   5  -1 9898.58 1457.76   2
  -1  -5   1 1482.10 757.637   3
   1   5  -1 3217.45 792.061   2
   1  -5  -1 4844.15 1505.41   3
   0   5   1 2433.24 731.268   2
   0   5  -1 2362.34 616.641   2
   0  -5   1 2161.10 1079.61   3
   0  -5  -1 2669.40 1216.67   3
   1   5   1 607.078 378.130   2
   1  -5   1 497.367 713.557   3
  -1  -5  -1-659.428 591.077   3
   2  -5   1 88501.4 5898.57   3
   2   5   1 100865. 5314.06   2
  -2  -5  -1 94644.3 6399.80   3
  -3  -5  -1 20663.9 3081.78   3
   3   5   1 19761.6 2514.87   2
   3  -5   1 16464.5 2518.11   3
   4   5   1 1937.24 826.454   2
  -4  -5  -1 3640.19 1373.11   3
   5   5   1 9124.90 1890.83   2
  -5  -5  -1 12769.0 2512.52   3
   6   5   1 2107.29 919.789   2
  -6  -5  -1 2580.64 1251.07   3
   7   5   1 3365.24 1265.51   2
  -7  -5  -1 4795.42 1576.06   3
   8   5   1 3457.40 1398.33   2
  -8  -6   1 2926.14 1603.05   3
   7   6  -1 20958.8 3120.70   2
  -7  -6   1 17325.9 3557.22   3
  -6  -6   1 8550.17 2346.53   3
   6   6  -1 3987.87 1276.19   2
   5   6  -1 708.947 536.601   2
  -5  -6   1 1149.83 948.400   3
   4   6  -1 50901.2 4044.26   2
  -4  -6   1 61410.3 6138.27   3
   3   6  -1 33263.3 3074.80   2
  -3  -6   1 37799.7 4730.77   3
  -2  -6   1 5613.88 1938.38   3
  -1  -6   1 1285.97 902.337   3
   0  -6  -1 4458.66 1565.47   3
   0  -6   1 3779.25 1441.62   3
   1  -6   1 8372.59 2184.99   3
  -1  -6  -1 6359.25 1750.81   3
  -2  -6  -1 19641.9 3239.92   3
   2  -6   1 23301.2 3400.55   3
   3  -6   1 1175.28 1040.29   3
   3   6   1 1819.31 837.488   2
  -3  -6  -1 2729.51 1110.42   3
  -4  -6  -1-349.291 547.558   3
   4   6   1-461.320 493.021   2
  -5  -6  -1 21886.4 3652.97   3
   5   6   1 16469.8 2753.92   2
  -6  -6  -1 357.940 658.668   3
   6   6   1 281.428 472.784   2
  -7  -6  -1 1476.51 1002.58   3
   7   6   1 1705.34 1113.90   2
  -4  -7   1 2624.98 1306.68   3
  -3  -7   1 2660.40 1408.98   3
  -2  -7   1 203.825 573.143   3
  -1  -7   1-324.173 557.008   3
   0  -7   1 872.945 886.864   3
   1  -7   1 27263.2 4167.32   3
  -1  -7  -1 23008.2 3819.89   3
  -2  -7  -1 7338.08 2261.41   3
   2  -7   1 8707.11 2349.35   3
  -3  -7  -1 1009.10 874.802   3
  -4  -7  -1-320.387 595.936   3
  12   0  -2 2055.32 1003.81   2
  11   0  -2 33315.9 3728.06   2
  10   0  -2 46450.7 4057.25   2
   9   0  -2 977.693 658.712   2
   8   0  -2 6869.49 1359.23   2
   7   0  -2 24814.7 2348.88   2
   6   0  -2 277009. 7237.82   2
  -5   0   2 6734.61 933.624   1
  -4   0   2 7441.20 888.864   1
  -3   0   2 8971.01 886.800   1
  -1   0   2 765190. 8114.97   1
   1   0  -2 763677. 9158.42   1
   0   0  -2 268534. 5807.76   2
   0   0   2 264959. 5570.33   2
   0   0   2 264316. 5028.58   1
   0   0  -2 255569. 5189.26   1
   1   0   2 71438.5 3203.24   2
   2   0   2 1330.04 497.089   2
   3   0   2 4858.07 495.370   3
   3   0   2 6344.36 1090.20   2
   4   0   2 7901.31 1293.99   2
   5   0   2 6442.23 1266.83   2
   6   0   2 1855.86 818.381   2
   7   0   2 40018.5 3797.88   2
   8   0   2 111.775 506.547   2
   9   0   2 1828.38 1033.26   2
  10   0   2 305.434 596.387   2
  11   0   2 40479.7 5204.91   2
  12   1  -2 379.263 544.582   2
  11   1  -2 473.001 483.588   2
  10  -1  -2 831.536 561.414   2
  10   1  -2 216.110 464.515   2
   9   1  -2 948.912 564.225   2
   9  -1  -2 806.047 490.480   2
   8  -1  -2 366.610 262.025   2
   8   1  -2 1078.32 661.873   2
   7  -1  -2 600.905 356.991   2
  -7   1   2 506.919 314.170   1
   7   1  -2-25.8747 297.982   2
   6  -1  -2 3409.56 782.317   2
  -6   1   2 3296.99 683.435   1
   6   1  -2 2498.14 762.850   2
  -5   1   2 2794.13 621.408   1
  -4   1   2 2800.27 582.614   1
  -3  -1   2 2636.09 506.583   1
  -3   1   2 1900.21 541.256   1
  -2  -1   2 907497. 8052.81   1
  -2   1   2 908316. 11178.6   1
  -1   1   2 641533. 9469.90   1
   1   1  -2 635168. 6200.17   1
   1  -1  -2 638696. 8424.35   2
  -1   1   2 628002. 8198.23   2
  -1  -1   2 639732. 5545.38   1
   0   1  -2 37596.3 2271.74   2
   0  -1  -2 37904.1 2166.81   2
   0  -1   2 37477.1 1205.29   1
   0   1   2 37329.0 2216.20   2
   0   1  -2 39789.3 1650.34   1
   1  -1   2-17.6243 58.7131   1
   1  -1   2 58.9179 150.912   2
   1   1   2 12.8445 140.233   2
   2  -1   2 11469.4 817.313   1
   2   1   2 13746.8 1314.64   3
   2  -1   2 11809.7 1365.72   2
   2   1   2 12374.4 1491.13   2
   3   1   2 76709.2 3863.85   2
   3  -1   2 71546.8 3643.40   2
   3   1   2 72207.5 3107.20   3
   4   1   2 1268.36 584.604   2
   4  -1   2 1902.45 643.941   2
   5  -1   2 16634.2 2032.37   2
   5   1   2 15605.0 2097.89   2
   6   1   2 75736.8 4993.87   2
   6  -1   2 72017.9 4603.42   2
   7   1   2 163113. 8099.83   2
   7  -1   2 152016. 7187.99   2
   8   1   2 2070.20 1058.72   2
   8  -1   2 3164.31 1159.27   2
   9   1   2 5171.60 1658.74   2
   9  -1   2 2571.77 1220.28   2
  10  -1   2 3663.19 1415.06   2
  10   1   2 834.517 780.486   2
  11   1   2 12107.5 2960.90   2
  11   2  -2 504.074 523.286   2
  10   2  -2 43697.2 4127.06   2
   9   2  -2 3298.87 1077.37   2
  -8   2   2 6373.73 1059.95   1
   8  -2  -2 7426.13 1228.39   2
   8   2  -2 6944.40 1506.09   2
   7  -2  -2 60942.0 3161.21   2
   7   2  -2 59894.0 4167.03   2
  -7   2   2 59414.2 2923.57   1
   6  -2  -2 13315.7 1358.06   2
   6   2  -2 12599.5 1736.84   2
  -6   2   2 13347.8 1317.53   1
   5   2  -2 4515.83 966.769   2
  -5   2   2 2527.69 598.786   1
   5  -2  -2 3669.40 629.884   2
  -4   2   2 13693.6 1451.00   1
   3  -2  -2 61014.2 2353.49   2
  -3   2   2 64651.1 3324.52   1
   2  -2  -2 68703.2 2519.73   2
  -2   2   2 66673.9 3465.82   1
  -1   2   2 7371.27 925.007   2
   1  -2  -2 7277.15 857.731   2
   0   2   2 48.8729 227.223   2
   0   2  -2 110.682 84.6067   1
  -1   2  -2 27.5606 92.6151   1
   1   2   2 217.213 280.137   2
   2  -2   2 221256. 5566.20   2
   2   2   2 211993. 6354.06   2
   3  -2   2 133094. 4322.63   3
   3  -2   2 136132. 4760.98   2
   3   2   2 132163. 5477.42   2
   4   2   2-31.4666 237.763   2
   4  -2   2 24.4423 212.279   3
   4  -2   2-37.7970 227.056   2
   5   2   2-678.292 489.494   2
   5  -2   2 480.144 388.118   2
   6   2   2 18691.6 2603.66   2
   6  -2   2 20118.5 2432.98   2
   7   2   2 3843.86 1282.96   2
   7  -2   2 5884.78 1464.73   2
   8   2   2 17295.3 2966.13   2
   8  -2   2 14433.4 2429.98   2
   9   2   2 598.295 656.530   2
  10   2   2 323.970 566.224   2
  10   3  -2 32965.8 3825.74   2
   9   3  -2 16859.3 2557.62   2
   8   3  -2 2649.67 981.242   2
   7   3  -2 71391.4 4750.77   2
  -7   3   2 72289.9 3085.58   1
   6   3  -2 69528.8 4396.23   2
  -6   3   2 71437.8 3170.75   1
   5  -3  -2 9366.69 682.740   2
   5   3  -2 11846.3 1709.80   2
  -5   3   2 10801.8 1362.79   1
   4   3  -2 1779.17 614.057   2
  -4   3   2 665.914 375.373   1
   3  -3  -2 16191.9 787.562   2
  -3   3   2 17889.9 1964.81   1
   2  -3  -2 5171.92 564.601   2
  -2   3   2 3265.38 896.548   1
  -1   3   2 110767. 3855.38   2
   1  -3  -2 112599. 3136.75   2
   0   3   2 877.353 431.018   2
  -1   3  -2 3423.10 401.756   1
   1   3   2 2164.45 642.249   2
   2   3   2 511.432 366.365   2
  -2  -3  -2 39.4108 374.889   3
   2  -3   2 463.416 418.784   3
  -3  -3  -2 14060.0 1945.40   3
   3  -3   2 14047.4 1755.55   3
   3   3   2 12979.3 1857.10   2
   4   3   2 1500.21 682.292   2
  -4  -3  -2 1056.89 571.379   3
   4  -3   2 3208.77 871.042   3
   5   3   2-821.288 562.968   2
  -5  -3  -2-143.040 351.429   3
   5  -3   2 128.345 378.394   2
  -6  -3  -2 7782.09 1441.29   3
   6   3   2 8472.85 1889.93   2
   7   3   2 358.086 482.288   2
   8   3   2-40.3631 518.537   2
   9   3   2-1026.40 849.609   2
   9   4  -2 82.4924 286.498   2
   8   4  -2 311.270 428.724   2
   7   4  -2 13259.4 2187.34   2
   6   4  -2 2203.95 868.689   2
  -5   4   2 21406.8 2091.20   1
   5   4  -2 24706.3 2635.67   2
   4   4  -2 109.649 245.876   2
  -4   4   2 277.510 337.783   1
  -3   4   2 176.213 294.600   1
   3   4  -2 70.8171 157.673   2
  -2   4   2 275.915 174.151   2
  -2   4   2 105.367 277.819   1
  -1  -4   2 39701.0 4133.39   3
  -1   4   2 36878.8 2418.58   2
   0   4   2 16675.0 1832.38   2
   0  -4   2 16388.5 2550.20   3
   1  -4   2 50322.1 4230.58   3
   1   4   2 51978.9 3493.66   2
  -1  -4  -2 46029.9 4028.80   3
  -2  -4  -2 35224.3 3554.16   3
   2  -4   2 29940.4 3126.94   3
   2   4   2 27661.3 2772.31   2
  -3  -4  -2 49321.2 4249.06   3
   3  -4   2 49491.2 3901.19   3
   3   4   2 50156.1 3965.51   2
  -4  -4  -2 77379.7 5402.65   3
   4  -4   2 78221.9 4747.02   3
   4   4   2 74404.6 5159.91   2
   5   4   2 5084.54 1502.31   2
  -5  -4  -2 7710.00 1751.20   3
   6   4   2 20761.0 3086.57   2
  -6  -4  -2 16381.6 2561.10   3
   7   4   2 202.210 837.000   2
   8   4   2 2018.91 936.658   2
   8   5  -2 5381.16 1535.26   2
  -8  -5   2 1004.58 1060.95   3
   7   5  -2 12699.6 2281.54   2
  -7  -5   2 13549.4 3092.81   3
  -6  -5   2 807.879 800.348   3
   6   5  -2 560.413 487.297   2
   5   5  -2 2871.97 1019.08   2
  -5  -5   2 2764.26 1575.10   3
   4   5  -2 2947.65 918.484   2
  -4   5   2 4953.25 1262.02   1
   3   5  -2 3554.15 922.612   2
  -3  -5   2 6096.19 1855.41   3
  -3   5   2 3789.64 1293.95   1
  -2   5   2 4584.42 1302.89   1
  -2  -5   2 1494.03 1525.28   3
   2   5  -2 2026.02 646.847   2
  -1  -5   2 2581.33 1175.17   3
   1   5  -2 2115.02 601.399   2
   0   5  -2 410.817 297.752   2
   0  -5   2-32.8707 596.779   3
   0   5   2 706.156 441.144   2
   1  -5   2 52676.9 4836.77   3
   1   5   2 52753.0 3909.56   2
   2  -5   2 85164.0 5968.95   3
   2   5   2 69533.7 4812.63   2
  -2  -5  -2 76403.6 5906.69   3
  -3  -5  -2 42091.7 4408.80   3
   3  -5   2 41709.7 4063.29   3
   3   5   2 31123.4 3433.98   2
  -4  -5  -2 29241.2 3732.38   3
   4  -5   2 26041.3 3188.12   3
   4   5   2 27652.0 3456.98   2
   5   5   2 828.907 596.288   2
  -5  -5  -2 940.874 384.584   3
   6   5   2 7057.32 1903.16   2
  -6  -5  -2 7131.12 1881.11   3
   7   5   2 451.464 589.415   2
  -8  -6   2 6054.71 2159.08   3
   7   6  -2 8112.23 1847.94   2
  -7  -6   2 9267.40 2668.31   3
   6   6  -2-43.4722 299.141   2
  -6  -6   2-497.124 702.024   3
  -5  -6   2 38637.6 5308.91   3
   5   6  -2 42588.7 3816.58   2
  -4  -6   2 8979.93 2485.79   3
   4   6  -2 9231.03 1685.58   2
  -3  -6   2 20949.9 3829.59   3
   3   6  -2 18348.7 2230.50   2
  -2  -6   2 334.412 620.726   3
  -2   6   2 1005.80 755.820   1
  -1  -6   2 219.062 1131.55   3
   0  -6   2 5296.23 1806.56   3
   1  -6   2 1395.63 922.753   3
   2  -6   2 823.354 895.960   3
   3   6   2 3757.22 1353.65   2
   3  -6   2 1933.59 1015.28   3
   4   6   2 903.418 692.070   2
  -4  -6  -2 858.724 835.172   3
   4  -6   2 109.302 393.524   3
   5   6   2 3685.18 1396.26   2
   6   6   2-205.725 456.553   2
  -4  -7   2 2162.59 1303.61   3
  -3  -7   2 1998.85 1064.95   3
  -2  -7   2 1969.17 1320.46   3
  -1  -7   2 7548.05 2346.61   3
   0  -7   2 2520.77 1231.34   3
   1  -7   2 7106.47 2190.36   3
   2  -7   2 1936.50 1122.67   3
   3  -7   2 3212.92 1469.39   3
  12   0  -3 324.682 449.627   2
  11   0  -3 395.382 444.839   2
  10   0  -3-213.380 237.562   2
   9   0  -3-555.362 427.787   2
   8   0  -3 135.336 239.854   2
  -7   0   3-220.943 306.753   1
   7   0  -3-36.3672 245.786   2
  -6   0   3 18.6513 146.328   1
  -5   0   3 357.722 288.078   1
  -4   0   3-136.621 163.978   1
  -3   0   3 100.173 174.318   1
  -2   0   3-182.144 181.555   1
  -1   0   3 62.4912 174.214   1
   0   0   3 145.474 239.893   1
   0   0   3-25.1257 186.644   2
   1   0   3 22.0645 157.925   1
   1   0   3 12.2513 227.818   2
   2   0   3-191.594 185.426   2
   3   0   3 306.682 351.591   2
   4   0   3-481.093 397.521   2
   4   0   3 164.533 86.6109   3
   5   0   3-74.8672 275.883   2
   6   0   3-667.828 529.552   2
   7   0   3 124.751 321.304   2
   8   0   3-89.6267 377.317   2
   9   0   3 447.659 573.221   2
  10   0   3 1753.90 1118.48   2
  12   1  -3 2417.90 1058.52   2
  11   1  -3 7151.18 1669.82   2
  10   1  -3-168.646 543.760   2
  10  -1  -3 793.162 527.216   2
   9   1  -3-459.881 427.464   2
   9  -1  -3-62.8130 374.096   2
  -8   1   3 2947.17 850.121   1
   8   1  -3 1139.53 572.103   2
   8  -1  -3 2201.09 906.099   2
   7   1  -3 12701.9 1783.25   2
   7  -1  -3 16442.9 1807.81   2
  -7   1   3 12841.5 1548.42   1
  -6   1   3 8061.92 1182.71   1
  -5  -1   3 7762.09 1115.82   1
  -5   1   3 8286.99 1137.40   1
  -4  -1   3 27038.3 1852.91   1
  -4   1   3 26169.1 2073.36   1
  -3  -1   3 42330.1 2020.55   1
  -3   1   3 42356.9 2696.99   1
  -2  -1   3 351291. 5388.67   1
  -2   1   3 349918. 7948.94   1
  -1   1   3 7215.23 1099.58   2
  -1   1   3 5770.30 1086.94   1
  -1  -1   3 6513.19 717.562   1
   0   1   3 3117.93 834.687   1
   0   1   3 3049.87 743.043   2
   0  -1   3 4226.08 582.724   1
   1  -1   3 74303.6 3753.66   2
   1   1   3 72326.7 3908.10   2
   1  -1   3 67163.3 2442.10   1
   2   1   3 178844. 6454.63   2
   2  -1   3 166566. 5946.88   2
   2  -1   3 171962. 4246.08   1
   3  -1   3 131.809 417.875   2
   3   1   3 266.527 320.944   2
   4  -1   3 516.033 406.282   2
   4   1   3 93.3167 210.400   2
   5  -1   3 13024.8 1991.20   2
   5   1   3 9689.13 1807.13   2
   6   1   3 73804.6 5472.14   2
   6  -1   3 76586.8 5181.87   2
   7  -1   3 2351.08 1032.53   2
   7   1   3 2225.12 943.530   2
   8   1   3 2256.35 1104.01   2
   8  -1   3 170.440 681.756   2
   9  -1   3 1343.00 921.055   2
   9   1   3 2844.84 1391.31   2
  10  -1   3 13516.5 2897.30   2
  10   1   3 12748.4 3021.28   2
  11   2  -3 6196.25 1695.31   2
  10   2  -3 1125.95 817.564   2
  -9   2   3 965.825 484.254   1
   9   2  -3 291.114 239.620   2
   8  -2  -3 33692.1 2620.13   2
   8   2  -3 35940.6 3328.38   2
  -8   2   3 30983.4 2454.42   1
   7  -2  -3 55975.2 3078.99   2
  -7   2   3 59253.4 3160.12   1
   7   2  -3 61765.8 4135.76   2
  -6   2   3 1936.31 608.206   1
  -5   2   3 1061.66 485.353   1
  -4   2   3 960.056 514.997   1
  -3   2   3 220747. 6873.10   1
  -2   2   3 140872. 5671.53   1
  -1   2   3 9023.78 1443.79   1
  -1  -2   3 9186.74 893.594   1
  -1   2   3 7301.65 1108.33   2
   0  -2   3 8445.35 735.147   1
   0   2   3 9848.97 1452.98   2
   1   2   3 47169.5 3270.70   2
   1  -2   3 50176.7 1449.79   1
  -1   2  -3 53181.2 2308.19   1
   2   2   3 17504.2 2156.81   2
   2  -2   3 18395.8 672.596   1
   2  -2   3 17194.6 1860.52   2
   3  -2   3 35890.2 2862.69   2
   3   2   3 35755.4 3187.42   2
   4  -2   3 6287.72 920.560   3
   4  -2   3 4675.46 1134.14   2
   4   2   3 8120.46 1636.48   2
   5  -2   3 991.394 655.840   2
   5   2   3 286.472 388.555   2
   6  -2   3 50678.3 4271.62   2
   6   2   3 45990.2 4490.98   2
   7  -2   3 3360.65 1186.36   2
   7   2   3 4651.77 1538.75   2
   8  -2   3 1085.95 779.178   2
   8   2   3-221.043 452.078   2
   9   2   3 1367.83 966.244   2
  10   3  -3 27381.4 3452.46   2
   9   3  -3 2623.53 1049.45   2
   8   3  -3 36615.6 3607.95   2
  -8   3   3 41718.6 2729.26   1
   7   3  -3 11904.3 1939.65   2
  -7   3   3 16669.5 1742.25   1
   6   3  -3 36410.0 3217.36   2
  -6   3   3 29613.8 2414.71   1
  -5   3   3 1743.73 628.350   1
   4  -3  -3 149.722 159.657   2
  -4   3   3-39.7526 203.632   1
   3  -3  -3 30009.0 2031.39   2
  -3   3   3 31236.8 2934.33   1
  -2   3   3 6176.47 1309.59   1
  -2   3   3 5199.54 919.089   2
  -1   3   3 16379.1 1759.10   2
   0   3   3 7270.82 1354.73   2
   1   3   3 5626.17 1176.21   2
  -1   3  -3 5123.47 609.120   1
   2   3   3 1794.47 704.948   2
   3  -3   3 3568.55 1006.25   3
   3   3   3 3371.26 1020.16   2
   4  -3   3 2016.81 786.712   3
   4   3   3 2773.88 1047.84   2
   5   3   3 11282.8 2238.69   2
   5  -3   3 12174.0 1874.29   2
   6   3   3 9155.52 2065.31   2
   7   3   3 3593.79 1383.14   2
   8   3   3 6609.23 1999.27   2
   9   3   3 6181.10 2097.28   2
   9   4  -3-65.9654 299.365   2
   8   4  -3 2360.19 1054.34   2
   7   4  -3 244.561 368.925   2
   6   4  -3 19694.8 2517.27   2
  -6   4   3 20757.9 2163.92   1
  -5   4   3 5549.96 1248.05   1
   5   4  -3 6817.65 1437.23   2
  -4   4   3 5151.76 1247.26   1
  -3   4   3 181.955 260.423   1
  -2   4   3 54517.5 4346.84   1
  -2   4   3 51304.6 2911.14   2
  -1   4   3 615.504 352.726   2
   0   4   3 16118.3 2077.79   2
   1  -4   3 130770. 7290.49   3
   1   4   3 132184. 6329.57   2
   2  -4   3 17455.1 2596.93   3
   2   4   3 21926.6 2715.66   2
   3  -4   3 65125.1 4735.08   3
   3   4   3 72666.9 5292.27   2
   4  -4   3 1140.79 647.304   3
   4   4   3 3824.05 1274.76   2
   5   4   3 8312.57 1998.92   2
   6   4   3 10721.9 2387.40   2
   7   4   3 7585.26 2105.67   2
   8   4   3-431.248 564.859   2
  -9  -5   3 7462.67 2282.48   3
   8   5  -3 10101.1 2129.34   2
  -8  -5   3 8378.97 2570.75   3
   7   5  -3 996.533 669.522   2
   6   5  -3 981.396 615.244   2
  -5   5   3-749.349 536.045   1
   5   5  -3 626.701 483.757   2
   4   5  -3 16897.1 2197.37   2
  -4   5   3 21928.2 2864.17   1
   3   5  -3 620.107 474.677   2
  -3   5   3 310.202 421.244   1
  -2  -5   3 3290.13 1435.69   3
  -2   5   3 3513.67 1222.75   1
  -1  -5   3 6947.13 2166.26   3
   0  -5   3 37181.3 4484.03   3
   0   5   3 41108.3 3473.15   2
   1  -5   3 27799.0 3765.65   3
   1   5   3 25725.8 3020.86   2
   2  -5   3 4817.49 1502.78   3
   2   5   3 5040.69 1478.99   2
   3  -5   3 73443.4 5688.92   3
   3   5   3 80240.5 5983.28   2
   4  -5   3 1213.29 773.267   3
   4   5   3 4112.17 1541.87   2
   5   5   3 4183.44 1567.96   2
   6   5   3-373.765 549.086   2
   7   5   3 9337.53 2472.00   2
  -7  -6   3 1414.49 1449.42   3
   7   6  -3 181.883 368.838   2
  -6  -6   3 15466.8 3632.03   3
   6   6  -3 19436.0 2749.10   2
  -5  -6   3 27167.0 4693.41   3
   5   6  -3 23414.5 2832.41   2
   4   6  -3 565.326 430.984   2
  -4  -6   3 110.902 516.211   3
   3   6  -3 1726.95 677.021   2
  -3  -6   3 192.384 662.047   3
  -3   6   3 2107.28 1089.15   1
  -2  -6   3-261.120 619.118   3
  -2   6   3 356.661 490.160   1
  -1  -6   3 2045.91 1080.93   3
   0  -6   3 6102.73 1952.64   3
   1  -6   3 732.450 712.501   3
   2  -6   3-1919.22 1164.56   3
   3  -6   3-117.645 486.567   3
   4   6   3-420.838 512.219   2
   5   6   3 1648.21 1011.43   2
   6   6   3 318.728 605.794   2
  -3  -7   3-691.571 728.865   3
  -2  -7   3 2365.75 1450.98   3
  -1   7   3 18651.4 3253.91   1
  -1  -7   3 17492.7 3879.31   3
   0  -7   3 37065.1 5305.70   3
   1  -7   3 1282.20 1239.46   3
   2  -7   3 123.809 473.377   3
   3  -7   3 10024.1 2456.29   3
  12   0  -4 22889.6 3071.33   2
  11   0  -4-286.893 400.469   2
  10   0  -4 1190.51 655.425   2
   9   0  -4 1757.40 782.525   2
  -8   0   4 35869.1 3093.90   1
   8   0  -4 42350.3 3282.19   2
  -7   0   4 28315.9 2532.84   1
  -6   0   4 6909.06 1139.70   1
  -5   0   4 150.816 195.899   1
  -4   0   4 5319.73 951.826   1
  -3   0   4 5938.80 1020.91   1
  -2   0   4 16573.2 1625.49   1
  -1   0   4 16388.5 1683.06   1
   0   0   4 1973.98 814.146   2
   0   0   4 1588.76 564.426   1
   1   0   4 36561.4 2696.79   1
   1   0   4 36430.7 3038.63   2
   2   0   4 10878.3 1494.53   1
   2   0   4 10513.4 1724.74   2
   3   0   4 18503.6 2429.88   2
   4   0   4 5693.42 1423.95   2
   5   0   4 368641. 11808.6   2
   6   0   4 38219.4 4056.06   2
   7   0   4 6048.65 1747.25   2
   8   0   4 4764.61 1632.60   2
   9   0   4 25950.4 4040.17   2
  10   0   4 32674.8 4853.06   2
  11   1  -4 6933.49 1641.24   2
  10  -1  -4 4448.43 1179.95   2
  10   1  -4 4469.57 1251.30   2
  -9   1   4 2478.08 838.614   1
   9  -1  -4 2322.33 853.962   2
   9   1  -4 425.387 369.011   2
   8  -1  -4 105425. 5032.98   2
   8   1  -4 93801.7 5187.33   2
  -8   1   4 99366.1 4829.91   1
  -7   1   4 7572.19 1260.21   1
  -6  -1   4 1217.29 487.109   1
  -6   1   4 1581.64 558.864   1
  -5  -1   4 3296.11 730.697   1
  -5   1   4 3862.86 879.618   1
  -4  -1   4 247334. 5692.23   1
  -4   1   4 239398. 6897.99   1
  -3  -1   4 473382. 7437.29   1
  -3   1   4 462918. 9772.50   1
  -2   1   4 4407.25 988.843   1
  -2  -1   4 6313.53 845.812   1
  -1   1   4 7805.53 1361.45   1
  -1   1   4 6041.06 1225.59   2
  -1  -1   4 7796.38 927.059   1
   0   1   4 102909. 4962.76   1
   0   1   4 105262. 5083.40   2
   0  -1   4 102932. 3490.52   1
   1  -1   4 33150.0 2879.16   2
   1   1   4 27128.6 2767.62   2
   1  -1   4 33552.9 2123.22   1
   2  -1   4 1238.74 530.337   2
   2   1   4 1333.19 779.976   2
   2  -1   4 2097.17 582.538   1
   3  -1   4 1322.92 631.958   2
   3  -1   4 3060.59 702.262   1
   3   1   4 1891.59 848.744   2
   4  -1   4 8995.74 1280.32   1
   4  -1   4 11722.4 1995.84   2
   4   1   4 8931.28 1786.58   2
   5  -1   4 63972.8 4904.84   2
   5   1   4 63873.1 5062.31   2
   6  -1   4 2206.21 1039.87   2
   6   1   4 2714.82 1251.64   2
   7  -1   4 5880.11 1656.58   2
   7   1   4 4423.23 1509.44   2
   8  -1   4-3.38227 329.550   2
   8   1   4 2466.95 1231.84   2
   9  -1   4 1546.36 1016.85   2
   9   1   4 3719.46 1616.76   2
  10  -1   4-2515.57 1354.19   2
  11   2  -4 618.619 581.431   2
  10   2  -4 3515.65 1185.64   2
 -10   2   4 5321.33 1205.15   1
   9   2  -4 32446.5 3359.10   2
  -9   2   4 37598.2 3050.23   1
   8  -2  -4 52199.5 3370.44   2
   8   2  -4 53416.2 4115.37   2
  -8   2   4 53485.8 3394.54   1
  -7   2   4 2186.04 671.864   1
  -6   2   4 2999.03 797.279   1
  -5   2   4 7178.05 1286.25   1
  -4   2   4 4854.46 1096.11   1
  -4  -2   4 5583.71 949.929   1
  -3  -2   4 184147. 4905.70   1
  -3   2   4 188221. 7008.13   1
  -2   2   4 7542.83 1467.82   1
  -2  -2   4 6825.17 853.441   1
  -1   2   4 6002.21 1339.62   1
  -1  -2   4 4565.45 642.907   1
  -1   2   4 5713.45 1190.96   2
   0  -2   4 5292.85 635.918   1
   0   2   4 3683.47 980.431   2
   1   2   4 140751. 6474.06   2
   1  -2   4 148308. 3026.66   1
   2  -2   4 9951.11 737.476   1
   2   2   4 9762.63 1784.40   2
   3  -2   4 1325.06 616.955   2
   3  -2   4 2346.14 379.557   1
   3   2   4 2643.18 1016.30   2
   4  -2   4 3067.66 1081.46   2
   4   2   4 2574.00 1035.38   2
   5  -2   4 5456.06 1467.17   2
   5   2   4 3762.78 1279.09   2
   6  -2   4 21487.7 3026.22   2
   6   2   4 24207.5 3476.25   2
   7  -2   4 420.630 563.006   2
   7   2   4 731.783 744.246   2
   8  -2   4 1601.47 1366.02   2
   8   2   4 859.338 830.859   2
   9   2   4 6361.97 2132.93   2
  10   3  -4-247.360 419.577   2
   9   3  -4 4079.43 1342.12   2
   8   3  -4 15164.9 2363.84   2
  -8   3   4 13090.1 1659.58   1
   7   3  -4 2281.89 880.139   2
  -7   3   4 1924.22 638.990   1
  -6   3   4-162.672 244.658   1
  -5   3   4 270.400 309.833   1
  -4   3   4 20.2998 259.381   1
  -3   3   4 378.180 478.646   1
  -2   3   4 151.723 414.290   2
  -2   3   4 306.108 353.977   1
  -1   3   4 292.820 488.531   1
  -1   3   4-3.04446 181.070   2
   0   3   4 40912.1 3469.13   2
   1   3   4 25938.8 2919.47   2
   2   3   4 5602.00 1479.31   2
   3   3   4-56.9667 367.785   2
   4  -3   4 21317.2 2412.75   3
   4   3   4 19205.5 2930.61   2
   5  -3   4 4810.39 1354.82   2
   5   3   4 5390.17 1622.58   2
   6   3   4 12058.0 2540.80   2
   7   3   4 318.791 549.590   2
   8   3   4 2906.33 1435.46   2
   9   4  -4 4101.08 1420.86   2
   8   4  -4 4644.60 1377.51   2
   7   4  -4 20035.6 2820.51   2
  -7   4   4 15038.6 1971.33   1
  -6   4   4 608.335 364.607   1
  -5   4   4 954.608 588.343   1
  -4   4   4 7692.70 1706.29   1
  -3   4   4 18276.4 2669.61   1
  -2   4   4 38790.4 3926.82   1
  -2   4   4 38916.3 3003.52   2
  -1   4   4 24850.1 3224.44   1
  -1   4   4 19595.6 2243.73   2
   0   4   4 108093. 5880.95   2
   1   4   4 8311.18 1760.45   2
   2   4   4 19090.0 2801.35   2
   3  -4   4 1063.72 785.770   3
   3   4   4 2853.60 1147.36   2
   4   4   4 13416.7 2640.23   2
   5   4   4 656.393 635.162   2
   6   4   4 74.3282 341.912   2
   7   4   4 261.547 514.430   2
   8   5  -4 634.299 384.321   2
   7   5  -4 6801.68 1712.96   2
   6   5  -4 286.386 393.651   2
  -5   5   4 7723.07 1781.58   1
   5   5  -4 14010.0 2201.33   2
  -4   5   4 11173.5 2287.81   1
  -3   5   4 6161.21 1700.93   1
  -2   5   4 6281.19 1727.67   1
  -1   5   4-190.113 468.520   1
   0  -5   4 31831.6 4287.86   3
   1  -5   4 11827.3 2595.85   3
   1   5   4 12576.5 2312.99   2
   2  -5   4 97067.0 7033.59   3
   2   5   4 97361.8 6757.09   2
   3  -5   4-1363.80 885.683   3
   3   5   4 852.800 683.371   2
   4   5   4 465.158 612.496   2
   5   5   4 3636.68 1568.67   2
   6   5   4 1557.55 1066.40   2
   7   6  -4 1910.68 923.718   2
  -6  -6   4 8159.70 2678.09   3
   6   6  -4 11056.3 2097.28   2
  -5  -6   4 76.5567 571.598   3
   5   6  -4 320.636 395.609   2
  -4  -6   4-177.098 675.026   3
   4   6  -4 518.672 432.301   2
  -4   6   4-97.2067 237.792   1
  -3  -6   4-912.054 1011.11   3
  -3   6   4 1602.64 961.754   1
   3   6  -4 1023.16 551.315   2
  -2   6   4 1453.01 951.597   1
  -2  -6   4 2822.30 1570.03   3
  -1   6   4 4671.72 1442.52   1
  -1  -6   4 6050.60 2170.16   3
   0  -6   4 9423.02 2494.47   3
   1  -6   4-91.8687 496.022   3
   2  -6   4 23516.0 3750.89   3
   3  -6   4-1813.75 1100.86   3
   4   6   4 8594.34 2302.46   2
   5   6   4-2122.17 1252.08   2
  -2   7   4 1917.60 1136.57   1
  -1   7   4 7912.53 2263.86   1
  -1  -7   4 6812.71 2393.16   3
   0  -7   4 5687.11 2150.31   3
   1  -7   4 904.944 986.080   3
   2  -7   4 2517.91 1187.07   3
  12   0  -5 926.502 691.842   2
  11   0  -5-525.519 550.358   2
  10   0  -5-103.094 276.064   2
  -9   0   5 214.937 350.046   1
  -8   0   5 200.835 375.807   1
  -7   0   5 153.982 296.204   1
  -6   0   5 211.247 347.591   1
  -5   0   5 1445.33 656.225   1
  -4   0   5 40.9981 231.267   1
  -3   0   5 202.231 315.286   1
  -2   0   5-192.662 278.998   1
  -1   0   5-53.6147 238.368   1
   0   0   5 810.099 674.326   2
   0   0   5 440.581 405.993   1
   1   0   5 370.406 332.534   1
   1   0   5 51.9644 251.719   2
   2   0   5-31.6225 210.340   1
   2   0   5 443.111 533.469   2
   3   0   5 45.3026 218.175   1
   3   0   5 875.865 593.013   2
   4   0   5 596.565 749.203   2
   5   0   5-1015.81 718.810   2
   6   0   5-538.206 575.524   2
   7   0   5-904.081 772.104   2
   8   0   5-202.369 547.373   2
   9   0   5-273.992 656.647   2
  11   1  -5-200.383 415.217   2
 -10   1   5 4017.78 1219.33   1
  10  -1  -5 2338.47 929.215   2
  10   1  -5 1964.16 968.252   2
  -9   1   5 12887.3 1925.85   1
   9  -1  -5 10488.5 1804.41   2
   9   1  -5 12013.6 1977.13   2
  -8   1   5 6472.64 1318.68   1
  -7  -1   5 84.5690 284.656   1
  -7   1   5 274.842 316.418   1
  -6  -1   5-708.489 409.027   1
  -6   1   5 291.930 425.664   1
  -5  -1   5 15044.0 1646.21   1
  -5   1   5 16694.5 1966.06   1
  -4  -1   5 20003.2 1759.46   1
  -4   1   5 21043.1 2227.32   1
  -3   1   5 4343.26 1069.30   1
  -3  -1   5 4024.00 771.225   1
  -2   1   5 913.421 577.748   1
  -2  -1   5 1323.10 475.225   1
  -1   1   5 6698.93 1387.05   2
  -1  -1   5 4171.19 784.055   1
  -1   1   5 5537.31 1211.99   1
   0   1   5 81012.7 4840.37   1
   0   1   5 89308.8 5275.53   2
   0  -1   5 94303.4 3875.59   1
   1  -1   5 897.936 408.799   1
   1  -1   5 1205.70 615.874   2
   1   1   5 614.679 505.439   1
   1   1   5 817.582 565.684   2
   2  -1   5 914.505 436.193   1
   2  -1   5 1551.03 794.283   2
   2   1   5 769.047 605.609   2
   3  -1   5 1851.67 664.319   1
   3   1   5 1458.83 790.147   2
   4  -1   5 86412.4 5841.11   2
   4   1   5 83900.9 5951.78   2
   4  -1   5 87201.5 4395.65   1
   5  -1   5 13900.0 2476.26   2
   5   1   5 12508.2 2430.07   2
   6  -1   5 7788.52 1890.83   2
   6   1   5 7386.80 2013.64   2
   7  -1   5 4758.66 1664.88   2
   7   1   5 6072.42 1885.58   2
   8  -1   5 3424.13 1449.25   2
   8   1   5 8958.50 2404.87   2
   9  -1   5 8449.37 2368.16   2
 -10   2   5 3923.22 1105.05   1
  10   2  -5 6240.66 1580.57   2
   9   2  -5 83950.5 5567.73   2
  -9   2   5 85626.6 4801.72   1
  -8   2   5 7780.83 1370.55   1
  -7   2   5 5048.72 1143.47   1
  -6   2   5 7758.80 1429.82   1
  -5  -2   5 32799.0 2545.35   1
  -5   2   5 29071.1 2812.85   1
  -4  -2   5 210990. 5935.19   1
  -4   2   5 214956. 7839.88   1
  -3   2   5 9191.92 1700.64   1
  -3  -2   5 10156.1 1201.47   1
  -2  -2   5 1232.70 397.221   1
  -2   2   5 60.8186 247.419   1
  -1  -2   5 380.282 251.285   1
  -1   2   5 665.841 474.319   2
  -1   2   5 29.8192 278.129   1
   0   2   5 11859.3 2040.42   1
   0   2   5 12793.1 2018.75   2
   0  -2   5 12602.0 1132.00   1
   1   2   5 22565.7 2825.51   2
   1  -2   5 26485.6 1611.32   1
   2  -2   5 768.963 280.769   1
   2   2   5 894.874 614.241   2
   3  -2   5 6368.52 1544.46   2
   3   2   5 6064.39 1628.33   2
   4  -2   5-135.432 442.305   2
   4   2   5 445.928 376.306   2
   5  -2   5 5081.28 1655.97   2
   5   2   5 4463.50 1504.88   2
   6  -2   5 584.357 643.029   2
   6   2   5 1218.40 889.518   2
   7  -2   5 1197.92 856.852   2
   7   2   5 1148.55 926.813   2
   8   2   5-229.622 543.408   2
  10   3  -5-407.524 527.329   2
  -9   3   5 4588.23 1120.85   1
   9   3  -5 4876.38 1432.49   2
  -8   3   5 2762.07 860.488   1
  -7   3   5 867.883 498.934   1
  -6   3   5-214.976 321.566   1
  -5   3   5 3462.43 1050.96   1
  -4   3   5 30753.9 3249.81   1
  -3   3   5-91.7278 281.836   1
  -2   3   5-24.3571 279.927   1
  -1   3   5 101473. 6361.04   1
  -1   3   5 93192.0 5382.61   2
   0   3   5 417.459 427.059   2
   0   3   5 443.520 500.854   1
   1   3   5 37795.8 3848.63   2
   2   3   5 1085.04 699.114   2
   3   3   5 2801.50 1104.47   2
   4   3   5 24414.7 3532.34   2
   5  -3   5 13580.6 2496.10   2
   5   3   5 12760.1 2684.63   2
   6   3   5-761.842 786.708   2
   7   3   5-1668.85 1130.14   2
   9   4  -5 3387.78 1309.88   2
   8   4  -5 14992.1 2592.13   2
  -8   4   5 10258.2 1726.76   1
  -7   4   5 5145.46 1347.51   1
  -6   4   5 9265.41 1816.68   1
  -5   4   5 7165.86 1632.01   1
  -4   4   5 11343.1 2118.89   1
  -3   4   5 8420.01 1894.74   1
  -2   4   5 2273.96 817.250   2
  -2   4   5 2469.63 1088.04   1
  -1   4   5 82217.4 6253.26   1
  -1   4   5 73207.2 4932.69   2
   0   4   5 8862.22 1856.27   2
   1   4   5 18747.4 2838.74   2
   2   4   5 1558.38 823.776   2
   3  -4   5-16.2011 543.875   3
   3   4   5-1028.83 790.278   2
   4   4   5 5717.92 1817.69   2
   5   4   5 4494.21 1581.84   2
   6   4   5 548.221 685.070   2
   7   5  -5 7870.63 1867.89   2
  -6   5   5 925.993 664.528   1
  -5   5   5 2703.14 1123.26   1
  -4   5   5 6113.52 1715.99   1
  -3   5   5 12995.4 2580.54   1
  -2   5   5 64.5238 293.316   1
  -1   5   5 3.54143 819.548   1
   1   5   5 58049.8 5265.03   2
   2  -5   5 17642.9 3107.21   3
   2   5   5 21425.9 3376.33   2
   3   5   5 9659.98 2372.75   2
   4   5   5 3433.89 1513.78   2
   5   5   5 1366.21 1018.84   2
   6   6  -5 9189.82 1965.12   2
   5   6  -5 695.502 552.443   2
  -4   6   5-695.864 756.990   1
  -3   6   5 2588.34 1251.08   1
  -2   6   5 16691.2 3186.63   1
  -1  -6   5 8735.57 2564.14   3
  -1   6   5 9038.61 2397.63   1
   0  -6   5 1123.56 954.747   3
   0   6   5-1069.64 948.767   1
   1  -6   5 19434.9 3565.55   3
   2  -6   5 20759.6 3620.15   3
   4   6   5 932.102 850.007   2
  -2   7   5 8638.22 2556.25   1
  -1   7   5 1569.80 1152.86   1
   1  -7   5-1340.70 1108.38   3
  11   0  -6 1711.42 787.391   2
 -10   0   6 20249.4 2895.84   1
  10   0  -6 20757.1 2769.62   2
  -9   0   6 1942.96 823.941   1
  -8   0   6 921.412 524.948   1
  -7   0   6 4912.41 1113.71   1
  -6   0   6 53679.8 3569.23   1
  -5   0   6 96782.8 4623.40   1
  -4   0   6 2153.57 738.516   1
  -3   0   6 18497.9 2093.11   1
  -2   0   6 8404.37 1418.27   1
  -1   0   6 178366. 6706.93   1
   0   0   6 8532.08 1475.35   1
   1   0   6-393.182 458.538   2
   1   0   6 710.231 566.621   1
   2   0   6 2197.10 824.575   1
   2   0   6 2501.40 1044.77   2
   3   0   6 237141. 8523.52   1
   3   0   6 253964. 10502.2   2
   4   0   6 157832. 7047.76   1
   4   0   6 174956. 8996.95   2
   5   0   6 12469.2 2033.63   1
   5   0   6 18669.4 3106.51   2
   6   0   6 1399.50 947.048   2
   7   0   6 1192.65 897.523   2
   8   0   6 15453.3 3302.95   2
  11   1  -6 57.4589 694.608   2
 -11   1   6-397.821 478.878   1
 -10   1   6 89556.8 5698.27   1
  10  -1  -6 88182.2 5690.02   2
  10   1  -6 100843. 6298.52   2
  -9   1   6 43328.7 3691.14   1
  -8  -1   6 1760.87 756.255   1
  -8   1   6 1025.73 651.068   1
  -7  -1   6 50.4981 367.668   1
  -7   1   6-619.434 429.173   1
  -6   1   6 10148.4 1641.87   1
  -6  -1   6 13349.5 1702.41   1
  -5  -1   6 60541.5 3413.54   1
  -5   1   6 56265.1 3840.51   1
  -4  -1   6 122.806 271.098   1
  -4   1   6 234.228 317.948   1
  -3   1   6 1201.56 613.876   1
  -3  -1   6 1723.83 606.440   1
  -2  -1   6 16979.5 1760.37   1
  -2   1   6 17260.6 2321.44   1
  -1  -1   6 18033.6 1844.21   1
  -1   1   6 18780.0 2473.23   1
   0   1   6 1277.37 727.924   1
   0   1   6 2544.29 983.126   2
   0  -1   6 1807.53 619.417   1
   1  -1   6 549.954 390.572   1
   1   1   6 142.034 467.043   1
   2  -1   6 209.821 389.451   1
   2   1   6 1114.46 788.111   1
   2  -1   6 130.300 536.576   2
   2   1   6 1084.11 868.956   2
   3   1   6 9350.40 1855.44   1
   3  -1   6 11488.3 2178.62   2
   3  -1   6 11572.8 1772.32   1
   3   1   6 9882.45 2083.62   2
   4  -1   6 15268.0 2683.33   2
   4   1   6 19040.4 3036.91   2
   5  -1   6 855.348 710.733   2
   5   1   6 1361.55 880.726   2
   6  -1   6 517.669 606.285   2
   6   1   6 1927.33 1122.77   2
   7  -1   6 323.722 591.934   2
   7   1   6 264.395 503.614   2
   8  -1   6 7293.80 2141.86   2
 -11   2   6 6075.48 1524.09   1
 -10   2   6 15167.4 2208.19   1
  10   2  -6 17566.4 2727.55   2
  -9   2   6 3326.50 1011.95   1
  -8   2   6 1244.38 599.115   1
  -7   2   6 351.967 459.957   1
  -6  -2   6 47.6706 205.620   1
  -6   2   6 619.439 462.807   1
  -5  -2   6 102799. 4634.94   1
  -5   2   6 101550. 5626.80   1
  -4  -2   6 35104.5 2521.35   1
  -4   2   6 35463.1 3441.57   1
  -3  -2   6 18099.8 1703.20   1
  -3   2   6 16203.3 2387.16   1
  -2  -2   6 21117.9 1753.63   1
  -2   2   6 22822.4 2911.27   1
  -1   2   6 851.709 626.095   1
  -1  -2   6 900.825 348.781   1
  -1   2   6 72.4009 401.975   2
   0   2   6 9913.30 1955.77   2
   0  -2   6 9435.03 1137.76   1
   0   2   6 9022.98 1898.77   1
   1  -2   6 3421.81 708.109   1
   1   2   6 3753.14 1323.73   2
   1   2   6 4599.35 1403.81   1
   2  -2   6 6500.56 951.991   1
   2   2   6 4583.03 1423.50   2
   2   2   6 3898.20 1276.44   1
   3  -2   6 26849.7 3382.67   2
   3   2   6 20266.6 3140.45   2
   4  -2   6 4922.41 1602.73   2
   4   2   6 6290.99 1855.72   2
   5  -2   6 738.537 659.275   2
   5   2   6 924.213 770.181   2
   6  -2   6 430.980 598.665   2
   6   2   6 1390.26 1011.58   2
   7  -2   6 19743.5 3460.59   2
   7   2   6 17861.8 3547.46   2
 -10   3   6-425.529 434.429   1
  -9   3   6 375.372 383.043   1
  -8   3   6 147.041 287.671   1
  -7   3   6-236.378 354.001   1
  -6   3   6 6544.24 1579.41   1
  -5   3   6 31460.4 3363.68   1
  -4   3   6 21351.7 2912.14   1
  -3  -3   6 2162.51 649.645   1
  -3   3   6 7338.63 1842.52   1
  -2  -3   6 63748.4 3298.35   1
  -2   3   6 58249.7 5069.56   1
  -1   3   6 84831.6 6200.17   1
  -1   3   6 96977.9 6022.36   2
  -1  -3   6 84725.4 3598.93   1
   0   3   6 15151.0 2649.52   1
   0  -3   6 14034.4 1365.16   1
   0   3   6 16573.0 2584.21   2
   1   3   6 2734.75 1220.33   1
   1   3   6 594.431 556.677   2
   2   3   6 6939.49 1895.54   2
   3   3   6 5478.64 1698.16   2
   4   3   6 14458.7 2911.19   2
   5   3   6 1672.42 1057.77   2
   6   3   6 5027.41 1899.62   2
  -8   4   6-448.729 318.149   1
  -7   4   6 2369.94 1002.00   1
  -6   4   6 11106.8 2036.57   1
  -5   4   6 548.126 1003.33   1
  -4   4   6 1810.43 848.821   1
  -3   4   6 437.859 525.520   1
  -2   4   6 47933.8 4951.23   1
  -1   4   6 5077.23 1657.67   1
  -1   4   6 3913.49 1236.03   2
   0   4   6 5068.78 1660.86   1
   0   4   6 5933.78 1642.70   2
   1   4   6 1894.06 960.878   2
   2   4   6 436.985 581.399   2
   3   4   6 952.986 775.956   2
   4   4   6 2191.96 1237.39   2
   5   4   6 2384.97 1337.86   2
  -7   5   6-400.786 501.862   1
  -6   5   6 2869.74 1143.06   1
  -5   5   6 4439.97 1495.50   1
  -4   5   6 24934.4 3648.83   1
  -3   5   6 2917.45 1315.18   1
  -2   5   6 5118.76 1802.03   1
  -1   5   6 1217.19 891.319   1
   0   5   6 23558.2 3850.80   1
   1   5   6 7445.41 1912.19   2
   2  -5   6-2134.03 1150.57   3
   2   5   6-203.007 388.539   2
   3   5   6 1340.15 956.842   2
   4   5   6-682.661 707.095   2
  -5   6   6 74.0265 390.840   1
  -4   6   6 3438.68 1498.04   1
  -3   6   6 5430.09 1879.78   1
  -2   6   6 18841.3 3593.50   1
  -1   6   6 150.953 551.512   1
   0   6   6 38758.4 5436.91   1
   0  -6   6 35016.6 4973.95   3
   1  -6   6 8307.56 2304.06   3
   1   6   6 10705.0 2872.30   1
  11   0  -7 479.286 569.733   2
 -10   0   7 1021.52 827.887   1
  -9   0   7-405.478 442.331   1
  -8   0   7-13.2580 215.092   1
  -7   0   7 8449.35 1570.62   1
  -6   0   7-158.208 278.599   1
  -5   0   7 11.2118 249.419   1
  -4   0   7 479.977 527.456   1
  -3   0   7 84.8663 311.673   1
  -2   0   7 96.8344 239.295   1
  -1   0   7 83.0844 486.161   1
   0   0   7 2382.04 906.005   1
   1   0   7 627.365 746.231   2
   1   0   7 342.274 389.668   1
   2   0   7-423.928 540.222   2
   2   0   7 231.439 572.125   1
   3   0   7-725.900 566.157   1
   3   0   7-118.196 363.824   2
   4   0   7 51.4998 268.729   1
   4   0   7-865.673 722.889   2
   5   0   7 1128.06 841.100   2
   6   0   7-5421.53 649.828   2
   7   0   7 235.273 621.498   2
 -10   1   7 3120.47 1096.67   1
  -9  -1   7 2613.69 1015.35   1
  -9   1   7 4681.42 1265.00   1
  -8  -1   7 1833.17 786.251   1
  -8   1   7 3325.49 1011.98   1
  -7  -1   7 4869.34 1190.81   1
  -7   1   7 5186.29 1267.36   1
  -6   1   7 10469.5 1832.91   1
  -6  -1   7 14541.7 1880.70   1
  -5  -1   7 375.287 318.131   1
  -5   1   7 634.323 463.786   1
  -4  -1   7 346.418 251.977   1
  -4   1   7 647.444 550.958   1
  -3   1   7-43.0157 264.326   1
  -3  -1   7 33.6240 272.259   1
  -2  -1   7 21628.3 2173.20   1
  -2   1   7 18994.5 2573.00   1
  -1   1   7 4711.50 1377.25   1
  -1  -1   7 5717.44 1115.61   1
   0   1   7 4202.71 1381.56   2
   0   1   7 4930.18 1412.79   1
   0  -1   7 4224.89 1025.45   1
   1  -1   7 9197.70 1573.26   1
   1   1   7 8824.81 1865.40   1
   1   1   7 9187.37 2090.83   2
   2  -1   7 13769.3 1973.09   1
   2  -1   7 13582.6 2541.97   2
   2   1   7 9864.68 1995.70   1
   2   1   7 12559.6 2496.06   2
   3   1   7 50887.4 4579.79   1
   3  -1   7 62123.3 5595.32   2
   3   1   7 60183.4 5570.48   2
   4  -1   7 257.648 497.509   2
   4   1   7 1373.92 868.132   1
   4   1   7-706.451 785.649   2
   5  -1   7 748.317 720.896   2
   5   1   7 838.721 717.587   1
   5   1   7 2742.79 1322.60   2
   6  -1   7-773.338 829.227   2
   6   1   7 183.664 453.218   2
   7  -1   7 22219.9 3813.70   2
 -10   2   7 23230.8 2847.34   1
  -9   2   7-477.126 444.833   1
  -8   2   7-362.772 395.829   1
  -7  -2   7-122.491 300.579   1
  -7   2   7 535.839 479.399   1
  -6  -2   7 39092.6 3204.48   1
  -6   2   7 42999.2 3801.15   1
  -5  -2   7 15359.6 1880.55   1
  -5   2   7 19240.4 2623.81   1
  -4   2   7-346.224 431.127   1
  -4  -2   7 256.886 417.646   1
  -3   2   7 5399.34 1480.19   1
  -3  -2   7 8219.61 1264.96   1
  -2  -2   7 32514.6 2402.76   1
  -2   2   7 30623.4 3578.62   1
  -1  -2   7 1718.69 545.864   1
  -1   2   7 2297.04 951.267   1
   0   2   7 1455.10 843.065   1
   0  -2   7 518.951 338.985   1
   0   2   7 1521.01 847.800   2
   1  -2   7-535.216 333.300   1
   1   2   7 301.469 814.704   2
   1   2   7 1285.36 802.006   1
   2   2   7 12179.0 2442.84   1
   2   2   7 20992.7 3272.00   2
   3   2   7 9417.65 2096.28   1
   3   2   7 9798.23 2335.62   2
   4   2   7 3526.19 1338.08   1
   4  -2   7 4997.08 1633.56   2
   4   2   7 2624.67 1274.25   2
   5  -2   7 965.449 811.021   2
   5   2   7 2183.95 1390.28   2
   6  -2   7 9214.87 2425.33   2
   6   2   7 7128.15 2279.13   2
   7  -2   7 454.202 740.749   2
 -10   3   7 5328.21 1337.73   1
  -9   3   7-425.938 427.167   1
  -8   3   7 640.434 512.870   1
  -7   3   7 14003.8 2288.36   1
  -6   3   7 29039.3 3366.87   1
  -5   3   7 39391.7 4068.99   1
  -4  -3   7 3931.78 1030.74   1
  -4   3   7 2164.49 1016.71   1
  -3  -3   7 55807.7 3486.71   1
  -3   3   7 57941.9 5173.14   1
  -2  -3   7 38823.4 2723.13   1
  -2   3   7 37658.8 4292.83   1
  -1   3   7 31769.4 3806.20   2
  -1  -3   7 41953.2 2680.00   1
  -1   3   7 44667.8 4798.99   1
   0   3   7-283.242 467.101   2
   0   3   7 583.718 439.358   1
   1   3   7 607.935 624.451   1
   1   3   7 2355.47 1064.88   2
   2   3   7 12391.5 2624.33   1
   2   3   7 11999.6 2564.32   2
   3   3   7 6708.24 1976.90   1
   3   3   7 12453.9 2851.52   2
   4   3   7 3188.35 1435.71   2
   5   3   7-135.902 422.084   2
  -9   4   7 2445.44 956.531   1
  -8   4   7 1816.00 835.008   1
  -7   4   7 7556.01 1815.27   1
  -6   4   7 2495.41 1061.24   1
  -5   4   7-32.4617 352.862   1
  -4   4   7-653.964 668.237   1
  -3   4   7 2771.42 1266.91   1
  -2   4   7 7159.76 2006.63   1
  -1   4   7 1332.87 969.531   1
  -1   4   7 2871.80 1227.11   2
   0   4   7 2656.39 1259.46   1
   0   4   7 3763.61 1427.36   2
   1   4   7 675.310 658.592   2
   1   4   7 213.508 503.753   1
   2   4   7 2837.93 1402.25   1
   2   4   7 937.587 796.514   2
   3   4   7 9655.62 2571.93   2
   4   4   7 212.735 558.296   2
  -7   5   7 1375.66 812.915   1
  -6   5   7 2143.62 1046.36   1
  -5   5   7 4441.15 1559.92   1
  -4   5   7 7902.04 2134.78   1
  -3   5   7 3449.35 1528.72   1
  -2   5   7 2032.08 1193.36   1
  -1   5   7 12275.3 2866.72   1
   0   5   7 5730.34 2043.46   1
   1   5   7 8745.91 2627.45   1
   1   5   7 11374.6 2583.85   2
   2   5   7 2332.23 1248.30   2
   2   5   7 592.877 817.849   1
   3   5   7-1328.95 978.733   2
  -9   0   8 638.256 520.998   1
  -8   0   8 5892.01 1441.33   1
  -7   0   8 77783.3 4883.03   1
  -6   0   8 6975.62 1471.17   1
  -5   0   8 5649.33 1283.75   1
  -4   0   8 5946.20 1340.10   1
  -3   0   8 75764.3 4767.29   1
  -2   0   8 44654.5 3747.44   1
  -1   0   8 5861.49 1405.60   1
   0   0   8 1038.55 768.978   1
   1   0   8 7287.08 1630.23   1
   2   0   8 69724.2 6232.74   2
   2   0   8 67218.6 5148.35   1
   3   0   8 3147.19 1389.83   2
   3   0   8 2817.51 1088.91   1
   4   0   8 391.266 600.204   2
   5   0   8 5712.54 1954.99   2
  -9  -1   8 1435.36 789.090   1
  -9   1   8 489.222 448.686   1
  -8  -1   8 400.047 439.161   1
  -8   1   8 1387.45 636.182   1
  -7  -1   8 613.132 488.991   1
  -7   1   8-50.7946 348.061   1
  -6  -1   8 4693.62 1142.28   1
  -6   1   8 3993.10 1160.92   1
  -5  -1   8 608.568 420.000   1
  -5   1   8-379.426 397.275   1
  -4  -1   8 1468.32 660.684   1
  -4   1   8 1531.71 871.130   1
  -3  -1   8 14077.4 1885.50   1
  -3   1   8 17252.4 2502.69   1
  -2   1   8 1599.66 859.170   1
  -2  -1   8 4348.78 1101.60   1
  -1   1   8-216.120 416.606   1
  -1  -1   8-453.996 410.736   1
   0   1   8-1172.19 779.563   1
   0  -1   8 1961.05 754.377   1
   1   1   8 38262.3 4615.77   2
   1  -1   8 39201.1 3439.25   1
   1   1   8 38725.6 4102.66   1
   2   1   8 102663. 7618.60   2
   2   1   8 91673.0 6408.76   1
   3  -1   8 521.709 626.267   2
   3   1   8 972.504 695.976   1
   3   1   8 22.6908 269.057   2
   4  -1   8 5241.48 1798.05   2
   4   1   8 3600.33 1536.04   2
   4   1   8 1586.99 902.996   1
   5  -1   8 7171.12 2186.02   2
   5   1   8 6717.62 2131.75   2
  -9   2   8 1275.80 711.556   1
  -8   2   8 26.7032 290.251   1
  -8  -2   8 363.582 461.650   1
  -7  -2   8 4946.57 1272.49   1
  -7   2   8 8399.15 1737.24   1
  -6  -2   8 19119.6 2354.21   1
  -6   2   8 17815.9 2596.83   1
  -5  -2   8 7473.35 1384.80   1
  -5   2   8 7106.46 1644.43   1
  -4   2   8 16425.1 2604.82   1
  -4  -2   8 13781.0 1799.74   1
  -3  -2   8 65929.6 3836.92   1
  -3   2   8 60385.2 5112.07   1
  -2  -2   8 88.5897 307.260   1
  -2   2   8 1096.08 871.599   1
  -1  -2   8 111.023 231.639   1
  -1   2   8 97.9896 512.382   1
   0   2   8 1730.76 1019.18   1
   0  -2   8 478.314 379.384   1
   0   2   8 948.936 743.467   2
   1   2   8 8872.83 2121.45   1
   1   2   8 7430.96 2066.73   2
   2   2   8 4943.90 1838.20   2
   2   2   8 5161.84 1835.68   1
   3   2   8 3239.03 1341.05   1
   3   2   8 1029.40 846.810   2
   4   2   8 1075.06 846.807   1
   4   2   8-823.691 777.702   2
   5   2   8 4055.76 1536.55   1
   6  -2   8 26600.3 4394.49   2
  -8   3   8 3945.04 1295.40   1
  -7   3   8 34418.3 3753.07   1
  -6   3   8 37983.3 4009.29   1
  -5   3   8 440.489 553.829   1
  -5  -3   8 250.264 423.403   1
  -4   3   8 19741.7 3176.66   1
  -4  -3   8 19975.3 2357.16   1
  -3  -3   8 41997.9 3218.81   1
  -3   3   8 37924.6 4408.81   1
  -2  -3   8 6888.65 1283.76   1
  -2   3   8 8358.64 2134.97   1
  -1   3   8 382.839 599.158   1
   0   3   8-33.1516 447.348   1
   0   3   8 1239.54 857.641   2
   1   3   8-150.842 435.547   2
   1   3   8-11.2318 561.561   1
   2   3   8 3192.37 1425.00   1
   2   3   8 4603.59 1711.63   2
   3   3   8 2890.23 1575.57   1
   3   3   8 3121.31 1447.02   2
   4   3   8 685.563 1061.32   1
   4   3   8 1610.42 1086.49   2
   5   3   8 3961.56 1645.36   1
  -7   4   8-578.237 557.400   1
  -6   4   8 14921.1 2679.46   1
  -5   4   8-1137.27 818.025   1
  -4   4   8 791.232 765.078   1
  -3   4   8-819.408 771.978   1
  -2   4   8 20929.0 3596.68   1
  -1   4   8 111.714 419.018   1
   0   4   8 1885.19 1489.60   1
   0   4   8 1009.50 806.454   2
   1   4   8 1371.66 1023.63   1
   1   4   8-476.373 578.127   2
   2   4   8 5355.42 2035.74   1
   2   4   8 3576.01 1684.68   2
   3   4   8 10641.7 2930.67   2
   2   5   8 714.395 802.044   2
  -8   0   9-361.801 408.232   1
  -7   0   9 405.959 437.042   1
  -6   0   9 251.073 273.617   1
  -5   0   9-242.545 306.296   1
  -4   0   9-843.484 574.403   1
  -3   0   9-357.407 415.222   1
  -2   0   9 776.177 563.213   1
  -1   0   9 155.260 364.459   1
   0   0   9 213.797 386.166   1
   1   0   9-491.557 540.128   1
   2   0   9 480.594 624.035   1
   3   0   9-670.694 431.490   2
  -7  -1   9 3143.00 1066.09   1
  -7   1   9 2280.15 899.272   1
  -6  -1   9 322.736 372.658   1
  -6   1   9-273.200 390.028   1
  -5  -1   9 554.253 439.331   1
  -5   1   9 818.466 609.357   1
  -4  -1   9 975.150 675.132   1
  -4   1   9-188.967 384.514   1
  -3  -1   9 6648.40 1412.57   1
  -3   1   9 6031.72 1554.47   1
  -2   1   9 784.437 666.983   1
  -2  -1   9 900.552 572.835   1
  -1   1   9-1435.12 834.625   1
  -1  -1   9-61.0043 261.377   1
   0   1   9 1626.19 942.146   1
   0  -1   9 2147.00 843.786   1
   1   1   9 17958.5 3375.23   2
   1   1   9 22735.4 3284.23   1
   2   1   9 3623.41 1552.60   2
   2   1   9 15.4766 1025.13   1
   3   1   9-448.357 621.532   2
   3   1   9-656.655 663.724   1
   4  -1   9 114.631 501.164   2
  -7  -2   9 141.071 368.145   1
  -7   2   9 520.859 910.103   1
  -6  -2   9 265.269 353.147   1
  -6   2   9 210.604 462.644   1
  -5  -2   9 4239.57 1095.72   1
  -5   2   9 4863.87 1530.08   1
  -4  -2   9 58158.3 3948.16   1
  -4   2   9 56880.7 5169.98   1
  -3   2   9 8762.17 2072.64   1
  -3  -2   9 9484.67 1584.46   1
  -2  -2   9 3547.11 983.760   1
  -2   2   9 1972.53 1036.74   1
  -1  -2   9 3962.33 1013.35   1
  -1   2   9 2738.76 1225.61   1
   0   2   9 5398.71 1672.47   1
   1   2   9 58807.3 6183.72   2
   1   2   9 50569.5 5243.36   1
   2   2   9 3762.90 1490.84   1
   2   2   9 1860.42 1141.61   2
   3   2   9-973.545 767.744   1
   3   2   9-807.276 440.606   2
   4   2   9 5912.42 1831.14   1
  -6  -3   9-1099.23 684.174   1
  -6   3   9 2627.23 1128.13   1
  -5  -3   9 909.866 594.736   1
  -5   3   9 992.551 740.064   1
  -4   3   9 18890.6 3172.24   1
  -4  -3   9 30753.9 3115.84   1
  -3  -3   9 5690.81 1288.68   1
  -3   3   9 3419.13 1462.92   1
  -2   3   9 454.432 615.717   1
  -1   3   9 3917.80 1493.26   1
   0   3   9 2371.59 1211.80   2
   0   3   9 1981.61 1023.25   1
   1   3   9 2122.12 1226.74   1
   1   3   9 1700.14 1080.99   2
   2   3   9 324.809 750.741   1
   2   3   9 951.316 894.384   2
   0   4   9 5422.86 1911.82   2
   1   4   9 6805.57 2203.35   2
  -6   0  10 1010.12 754.311   1
  -5   0  10 2187.82 968.236   1
  -4   0  10 4177.21 1245.95   1
  -3   0  10 882.444 564.490   1
  -2   0  10 1405.81 780.645   1
  -1   0  10 6594.61 1610.99   1
   0   0  10 3173.88 1142.98   1
   1   0  10 636.746 630.524   1
  -6  -1  10 318.642 401.800   1
  -5  -1  10 49153.6 3990.41   1
  -5   1  10 49049.6 4574.07   1
  -4  -1  10 44382.9 3778.89   1
  -4   1  10 41108.5 4220.49   1
  -3  -1  10-454.920 448.658   1
  -3   1  10 486.429 535.528   1
  -2   1  10 730.794 627.868   1
  -2  -1  10-564.122 494.268   1
  -1   1  10 9982.28 2211.65   1
  -1  -1  10 11035.5 2001.26   1
   0   1  10 59721.1 5444.55   1
   1   1  10 2967.35 1236.14   1
   2   1  10 5023.27 1735.79   1
  -6  -2  10 2782.65 1012.32   1
  -5  -2  10 43210.9 3771.34   1
  -4  -2  10 582.122 479.443   1
  -4   2  10 1380.63 903.231   1
  -3   2  10-659.492 653.321   1
  -3  -2  10 1107.76 613.495   1
  -2   2  10-1380.64 913.809   1
  -1   2  10 2040.66 1112.23   1
   0   2  10 15934.3 3030.58   1
   1   2  10 14073.8 2819.79   1
   2   2  10 1875.99 1023.49   1
  -5  -3  10 1616.74 890.643   1
  -4  -3  10 1864.55 860.575   1
  -3   0  11 1240.82 844.777   1
  -2   0  11 581.600 578.814   1
  -1   0  11-798.758 658.482   1
  -3  -1  11 943.824 616.765   1
  -2  -1  11 1870.84 874.944   1
   0   0   0    0.00    0.00   0
TITL ml22a in P2(1)/c
REM P2(1)/c (#14 in standard setting)
CELL 0.71073   9.283719   5.993160   8.421856  90.0000 102.5293  90.0000
ZERR    2.00   0.001334   0.000788   0.001134   0.0000   0.0152   0.0000
LATT  1
SYMM -x, y+1/2,-z+1/2
SFAC C H N
UNIT 20.00 20.00 4.00
TREF
HKLF 4
END
;
_shelx_hkl_checksum              67409
loop_
_space_group_symop_operation_xyz
'x, y, z'
'-x, y+1/2, -z+1/2'
'-x, -y, -z'
'x, -y-1/2, z-1/2'
loop_
_atom_site_label
_atom_site_type_symbol
_atom_site_fract_x
_atom_site_fract_y
_atom_site_fract_z
_atom_site_U_iso_or_equiv
_atom_site_adp_type
_atom_site_occupancy
_atom_site_site_symmetry_order
_atom_site_calc_flag
_atom_site_refinement_flags_posn
_atom_site_refinement_flags_adp
_atom_site_refinement_flags_occupancy
_atom_site_disorder_assembly
_atom_site_disorder_group
C1 C 0.4512(2) 0.2106(4) 0.5383(2) 0.0175(6) Uani 0.97(3) 1 d . . P A .
H1 H 0.4181 0.3533 0.5643 0.021 Uiso 0.97(3) 1 calc R U P . .
C2 C 0.5895(2) 0.1349(3) 0.6205(2) 0.0155(5) Uani 1 1 d . . . . .
C3 C 0.6828(2) 0.2641(4) 0.7434(2) 0.0195(5) Uani 1 1 d . . . . .
H3 H 0.6507 0.4066 0.7710 0.023 Uiso 1 1 calc R U . . .
C4 C 0.8174(2) 0.1862(4) 0.8220(3) 0.0215(5) Uani 1 1 d . . . . .
H4 H 0.8778 0.2744 0.9040 0.026 Uiso 1 1 calc R U . . .
C5 C 0.3603(2) 0.0827(3) 0.4189(2) 0.0163(5) Uani 1 1 d . . . . .
C6 C 0.2177(2) 0.1559(4) 0.3341(3) 0.0203(5) Uani 1 1 d . . . . .
H6 H 0.1821 0.2973 0.3592 0.024 Uiso 1 1 calc R U . . .
C7 C 0.1318(2) 0.0262(4) 0.2178(3) 0.0222(6) Uani 1 1 d . . . . .
H7 H 0.0375 0.0782 0.1630 0.027 Uiso 1 1 calc R U . . .
N1 N 0.4512(2) 0.2106(4) 0.5383(2) 0.0175(6) Uani 0.03(3) 1 d . . P A 2
loop_
_atom_site_aniso_label
_atom_site_aniso_U_11
_atom_site_aniso_U_22
_atom_site_aniso_U_33
_atom_site_aniso_U_23
_atom_site_aniso_U_13
_atom_site_aniso_U_12
C1 0.0213(11) 0.0148(11) 0.0180(10) -0.0005(9) 0.0081(8) 0.0008(9)
C2 0.0189(11) 0.0152(11) 0.0144(9) 0.0025(8) 0.0079(8) -0.0009(8)
C3 0.0240(11) 0.0193(12) 0.0173(10) -0.0032(9) 0.0093(9) -0.0026(9)
C4 0.0223(11) 0.0243(12) 0.0181(10) -0.0009(10) 0.0047(9) -0.0043(10)
C5 0.0189(10) 0.0163(11) 0.0157(10) 0.0019(9) 0.0083(8) 0.0008(8)
C6 0.0194(11) 0.0204(12) 0.0218(11) 0.0027(9) 0.0059(9) 0.0018(9)
C7 0.0175(11) 0.0262(13) 0.0225(11) 0.0031(10) 0.0034(9) 0.0028(9)
N1 0.0213(11) 0.0148(11) 0.0180(10) -0.0005(9) 0.0081(8) 0.0008(9)
loop_
_atom_type_symbol
_atom_type_description
_atom_type_scat_dispersion_real
_atom_type_scat_dispersion_imag
_atom_type_scat_source
C C 0.0033 0.0016 'International Tables Vol C Tables 4.2.6.8 and 6.1.1.4'
H H 0.0000 0.0000 'International Tables Vol C Tables 4.2.6.8 and 6.1.1.4'
N N 0.0061 0.0033 'International Tables Vol C Tables 4.2.6.8 and 6.1.1.4'
loop_
_geom_angle_atom_site_label_1
_geom_angle_atom_site_label_2
_geom_angle_atom_site_label_3
_geom_angle
_geom_angle_site_symmetry_3
C5 C1 C2 121.8(2) .
C1 C2 C3 122.15(19) .
C1 C2 C5 119.11(19) 3_656
C3 C2 C5 118.74(18) 3_656
C4 C3 C2 121.0(2) .
C3 C4 C7 120.5(2) 3_656
C1 C5 C6 122.8(2) .
C1 C5 C2 119.10(18) 3_656
C6 C5 C2 118.11(19) 3_656
C7 C6 C5 121.2(2) .
C6 C7 C4 120.5(2) 3_656
loop_
_geom_bond_atom_site_label_1
_geom_bond_atom_site_label_2
_geom_bond_distance
_geom_bond_site_symmetry_2
C1 C5 1.394(3) .
C1 C2 1.396(3) .
C2 C3 1.425(3) .
C2 C5 1.448(3) 3_656
C3 C4 1.364(3) .
C4 C7 1.422(3) 3_656
C5 C6 1.430(3) .
C5 C2 1.448(3) 3_656
C6 C7 1.363(3) .
C7 C4 1.422(3) 3_656
