#------------------------------------------------------------------------------
#$Date: 2015-09-05 23:34:09 +0300 (Sat, 05 Sep 2015) $
#$Revision: 154543 $
#$URL: svn://www.crystallography.net/cod/cif/4/51/33/4513306.cif $
#------------------------------------------------------------------------------
#
# This file is available in the Crystallography Open Database (COD),
# http://www.crystallography.net/
#
# All data on this site have been placed in the public domain by the
# contributors.
#
data_4513306
loop_
_publ_author_name
'Lusi, Matteo'
'Vitorica-Yrezabal, Inigo J.'
'Zaworotko, Michael J.'
_publ_section_title
;
 Expanding the Scope of Molecular Mixed Crystals Enabled by Three
 Component Solid Solutions
;
_journal_issue                   8
_journal_name_full               'Crystal Growth &amp; Design'
_journal_page_first              4098
_journal_paper_doi               10.1021/acs.cgd.5b00685
_journal_volume                  15
_journal_year                    2015
_chemical_formula_sum            'C6.13 H4.13 N0.87'
_chemical_formula_weight         89.98
_chemical_name_systematic
;
 ?
;
_space_group_crystal_system      monoclinic
_space_group_IT_number           14
_space_group_name_Hall           '-P 2yn'
_space_group_name_H-M_alt        'P 1 21/n 1'
_symmetry_space_group_name_Hall  '-P 2yn'
_symmetry_space_group_name_H-M   'P 1 21/n 1'
_atom_sites_solution_hydrogens   geom
_audit_creation_method           SHELXL-2014
_cell_angle_alpha                90
_cell_angle_beta                 103.036(16)
_cell_angle_gamma                90
_cell_formula_units_Z            4
_cell_length_a                   7.0842(11)
_cell_length_b                   4.9820(7)
_cell_length_c                   12.617(2)
_cell_measurement_temperature    100(2)
_cell_volume                     433.82(12)
_computing_structure_refinement  'SHELXL-2014 (Sheldrick, 2014)'
_diffrn_ambient_temperature      100(2)
_diffrn_measured_fraction_theta_full 0.995
_diffrn_measured_fraction_theta_max 0.882
_diffrn_radiation_type           MoK\a
_diffrn_radiation_wavelength     0.71073
_diffrn_reflns_av_R_equivalents  0.0526
_diffrn_reflns_av_unetI/netI     0.1039
_diffrn_reflns_laue_measured_fraction_full 0.995
_diffrn_reflns_laue_measured_fraction_max 0.882
_diffrn_reflns_limit_h_max       10
_diffrn_reflns_limit_h_min       -8
_diffrn_reflns_limit_k_max       6
_diffrn_reflns_limit_k_min       -6
_diffrn_reflns_limit_l_max       10
_diffrn_reflns_limit_l_min       -17
_diffrn_reflns_number            1774
_diffrn_reflns_point_group_measured_fraction_full 0.995
_diffrn_reflns_point_group_measured_fraction_max 0.882
_diffrn_reflns_theta_full        25.242
_diffrn_reflns_theta_max         30.384
_diffrn_reflns_theta_min         3.315
_exptl_absorpt_coefficient_mu    0.083
_exptl_absorpt_correction_T_max  1.25
_exptl_absorpt_correction_T_min  0.81
_exptl_absorpt_correction_type   multi-scan
_exptl_absorpt_process_details   sadabs
_exptl_crystal_colour            yellow
_exptl_crystal_density_diffrn    1.378
_exptl_crystal_description       needle
_exptl_crystal_F_000             188
_refine_diff_density_max         0.268
_refine_diff_density_min         -0.362
_refine_diff_density_rms         0.066
_refine_ls_extinction_method     none
_refine_ls_goodness_of_fit_ref   1.026
_refine_ls_hydrogen_treatment    constr
_refine_ls_matrix_type           full
_refine_ls_number_parameters     65
_refine_ls_number_reflns         1153
_refine_ls_number_restraints     0
_refine_ls_restrained_S_all      1.026
_refine_ls_R_factor_all          0.1283
_refine_ls_R_factor_gt           0.0764
_refine_ls_shift/su_max          0.000
_refine_ls_shift/su_mean         0.000
_refine_ls_structure_factor_coef Fsqd
_refine_ls_weighting_details
'w=1/[\s^2^(Fo^2^)+(0.0515P)^2^+0.0665P] where P=(Fo^2^+2Fc^2^)/3'
_refine_ls_weighting_scheme      calc
_refine_ls_wR_factor_gt          0.1422
_refine_ls_wR_factor_ref         0.1736
_reflns_Friedel_coverage         0.000
_reflns_number_gt                657
_reflns_number_total             1153
_reflns_threshold_expression     'I > 2\s(I)'
_cod_data_source_file            cg5b00685_si_011.cif
_cod_data_source_block           D:\#10
_cod_depositor_comments
'Adding full bibliography for 4513301--4513322.cif.'
_cod_original_cell_volume        433.83(12)
_cod_database_code               4513306
_shelx_space_group_comment
;
The symmetry employed for this shelxl refinement is uniquely defined
by the following loop, which should always be used as a source of
symmetry information in preference to the above space-group names.
They are only intended as comments.
;
_shelxl_version_number           2014-3
_shelx_res_file
;
REM  ml023a in P21/n #14
REM R1 =  0.0510 for     801 Fo > 4sig(Fo)  and  0.0611 for all     961 data
REM     65 parameters refined using      0 restraints
REM  ml040b_0m in P2(1)/n
REM R1 =  0.0568 for    1456 Fo > 4sig(Fo)  and  0.0928 for all    2106 data
REM     65 parameters refined using      0 restraints
REM Highest difference peak  0.504,  deepest hole -0.276,  1-sigma level  0.072
TITL ml023b in P21/n #14
CELL 0.71073 7.0842 4.9820 12.6173 90.000 103.036 90.000
ZERR 4.0000 0.0011 0.0007 0.0022 0.000 0.016 0.000
LATT 1
SYMM 0.5-X, 0.5+Y, 0.5-Z
SFAC C H N
UNIT 24.51 16.51 3.49
MERG 2
FMAP 2
GRID
PLAN 5
TEMP -173
BOND
EXYZ N1 C1
EADP N1 C1
L.S. 20
ACTA
WGHT    0.051500    0.066500
FVAR      11.67743   0.87219
PART 1
N1    3    0.197866    0.059557    0.047990    21.00000    0.01530    0.01731 =
         0.02267    0.00137    0.00430    0.00085
PART 2
C1    1    0.197866    0.059557    0.047990   -21.00000    0.01530    0.01731 =
         0.02267    0.00137    0.00430    0.00085
AFIX  43
H1    2    0.329509    0.099467    0.080010   -21.00000   -1.20000
PART 0
AFIX   0
C2    1    0.147702   -0.131134   -0.029005    11.00000    0.01852    0.01508 =
         0.02022    0.00389    0.00517   -0.00030
C3    1    0.295816   -0.278115   -0.063425    11.00000    0.01700    0.02129 =
         0.02738    0.00306    0.00625    0.00083
AFIX  43
H3    2    0.428181   -0.240143   -0.032448    11.00000   -1.20000
AFIX   0
C4    1    0.248412   -0.471784   -0.140175    11.00000    0.02261    0.02073 =
         0.02888    0.00135    0.01240    0.00302
AFIX  43
H4    2    0.348360   -0.570334   -0.161662    11.00000   -1.20000
AFIX   0
C5    1    0.050913    0.190359    0.076993    11.00000    0.01673    0.01718 =
         0.01883    0.00257    0.00200   -0.00046
C6    1    0.093918    0.394758    0.157772    11.00000    0.01936    0.02364 =
         0.02448    0.00156    0.00323   -0.00191
AFIX  43
H6    2    0.225057    0.437037    0.190026    11.00000   -1.20000
AFIX   0
C7    1   -0.051359    0.530118    0.189170    11.00000    0.02823    0.01759 =
         0.02438   -0.00243    0.00634   -0.00190
AFIX  43
H7    2   -0.021057    0.664006    0.243993    11.00000   -1.20000
AFIX   0
HKLF 4

REM  ml023b in P21/n #14
REM R1 =  0.0764 for     657 Fo > 4sig(Fo)  and  0.1283 for all    1153 data
REM     65 parameters refined using      0 restraints

END

WGHT      0.0515      0.0661

REM Highest difference peak  0.268,  deepest hole -0.362,  1-sigma level  0.066
Q1    1  -0.0483  0.1704  0.0579  11.00000  0.05    0.27
Q2    1   0.3175  0.0269  0.0980  11.00000  0.05    0.24
Q3    1   0.1599 -0.5429 -0.1416  11.00000  0.05    0.21
Q4    1   0.4220  0.1428  0.1352  11.00000  0.05    0.21
Q5    1   0.3159  0.4878  0.2225  11.00000  0.05    0.20
;
_shelx_res_checksum              90417
_shelx_hkl_file
;
   0   0   2 155054. 2520.92   3
   0   0  -3 199.536 279.506   3
   0   0  -4 10416.7 973.752   3
   0   0  -5 252.322 305.306   3
   0   0  -6 9813.22 1211.82   3
   0   0  -7 2182.95 760.748   3
   0   0  -8 69419.0 3732.20   3
   0   0  -9 1242.91 720.664   3
   0   0 -10 39316.2 3202.41   3
   0   0 -11 198.943 473.414   3
   0   0 -12 870.175 625.554   3
   0   0 -13 1569.08 973.597   3
   0   0 -14 1012.62 798.896   3
   0   0 -15 68.9182 567.266   3
   0   0 -15 257.858 266.304   1
   0   0 -16-54.6011 385.463   1
   0   0 -17-74.7803 254.207   1
   0   1   0-144.415 176.265   2
   0   1   0 236.273 108.815   1
   0  -1   0-0.11668 49.1238   1
   0   1  -1 7173.88 821.753   2
   0   1  -1 7751.12 394.115   1
   0  -1   1 7508.32 371.649   1
   0  -1  -1 7902.88 600.341   1
   0  -1   2 290786. 2497.92   1
   0   1  -2 294807. 2552.98   1
   0   1  -2 298300. 5716.25   3
   0   1  -2 301056. 5346.64   2
   0  -1   3 576592. 4568.43   1
   0   1  -3 576488. 4372.63   1
   0   1  -3 567084. 8631.32   3
   0   1  -4 158723. 4953.95   3
   0   1  -5 8444.35 1278.60   3
   0  -1  -5 11185.5 935.580   3
   0   1  -6 41499.4 2929.60   3
   0  -1  -6 37263.1 1904.52   3
   0  -1  -7 27637.6 1854.39   3
   0   1  -7 23302.7 2354.24   3
   0  -1  -8 9761.40 1241.76   3
   0   1  -8 9166.26 1607.57   3
   0  -1  -9-147.075 399.210   3
   0   1  -9 642.711 719.063   3
   0  -1 -10 3028.42 868.749   3
   0   1 -10 2164.59 959.320   3
   0  -1 -11 5240.66 1193.18   3
   0   1 -11 2394.51 997.807   3
   0   1 -12 5143.56 1520.70   3
   0  -1 -12 5869.93 1287.53   3
   0   1 -13 1469.69 984.589   3
   0  -1 -13 2846.79 892.302   1
   0   1 -14-15.4523 585.089   3
   0  -1 -14 347.839 321.077   1
   0  -1 -15 1804.82 750.635   1
   0  -1 -16 1029.44 614.948   1
   0  -2   0 37302.8 1445.74   1
   0   2   0 34953.4 2585.15   2
   0   2  -1-148.956 309.159   2
   0   2   1 380.862 474.003   2
   0  -2   1 171.815 116.697   1
   0  -2  -1 245.194 194.975   1
   0  -2   2 50441.2 1314.81   1
   0   2  -2 48911.4 1392.78   1
   0  -2  -2 45174.5 2054.35   1
   0   2  -2 52196.0 3177.27   2
   0   2  -3 23038.0 942.854   1
   0  -2  -3 23707.9 1620.16   1
   0  -2   3 22575.9 887.057   1
   0   2  -3 26507.3 2269.68   2
   0  -2  -4 8004.31 1006.63   1
   0  -2   4 6399.54 530.792   1
   0   2  -5 110428. 5221.46   3
   0  -2  -5 107953. 3945.69   1
   0  -2   5 109116. 2551.88   1
   0  -2  -6 62394.3 3183.10   1
   0   2  -6 58670.7 4019.81   3
   0   2  -7 7796.80 1593.95   3
   0  -2  -7 10141.0 992.084   3
   0  -2  -7 11034.5 1410.10   1
   0   2  -8 389.974 588.175   3
   0  -2  -8 1282.74 471.736   3
   0  -2  -8 455.915 297.175   1
   0   2  -9 367.172 705.369   3
   0  -2  -9 5.56806 292.555   3
   0  -2  -9 62.6634 228.931   1
   0  -2 -10 883.361 495.254   1
   0   2 -10 1571.75 1009.34   3
   0   2 -11 4884.77 1528.65   3
   0  -2 -11 6125.41 1241.75   1
   0  -2 -12 4620.03 1127.34   1
   0  -2 -13 101.077 264.203   1
   0  -2 -14 1590.81 729.485   1
   0  -2 -15 1029.77 690.637   1
   0  -3   0 59.8472 115.726   1
   0   3   0 97.8178 211.029   2
   0   3   1 17744.1 2321.88   2
   0   3  -1 14413.9 2115.26   2
   0  -3   1 18286.2 1115.47   1
   0  -3  -1 18113.7 1368.41   1
   0   3  -2 6359.85 1384.70   2
   0   3   2 5577.05 1307.61   2
   0  -3   2 6512.27 606.568   1
   0  -3  -2 7054.07 944.396   1
   0   3   3 6904.87 1462.48   2
   0  -3  -3 6725.88 977.932   1
   0  -3   3 7011.51 585.129   1
   0   3  -3 7165.50 1463.80   2
   0  -3   4 300.799 117.341   1
   0   3   4 634.354 567.023   2
   0  -3  -4 68.8983 166.695   1
   0   3   5 949.664 577.601   2
   0  -3   5 1063.90 238.271   1
   0  -3  -5 894.624 426.754   1
   0  -3  -6 5374.97 1068.88   1
   0  -3  -7 192.958 297.540   1
   0  -3  -8 30262.6 2692.82   1
   0  -3  -9 8475.35 1528.27   1
   0  -3 -10 11383.1 1788.08   1
   0  -3 -11 325.154 357.183   1
   0  -3 -12 1905.31 866.106   1
   0  -3 -13 339.734 416.773   1
   0  -3 -14 1752.38 811.593   1
   0  -4   0 1896.77 460.216   1
   0   4   0 910.927 673.628   2
   0   4   1 23.5726 393.542   2
   0   4  -1 426.039 561.060   2
   0  -4   1-13.4838 81.6129   1
   0  -4  -1 94.1434 142.995   1
   0   4  -2 2427.71 1065.66   2
   0  -4  -2 1041.33 419.778   1
   0   4   2 2659.13 1126.52   2
   0  -4  -3 180.726 231.648   1
   0   4  -3-205.219 371.544   2
   0   4   3 37.2370 517.978   2
   0   4   4 2996.34 1182.31   2
   0  -4  -4 3002.37 780.046   1
   0  -4  -5 9317.70 1431.56   1
   0   4   5 7920.47 1891.63   2
   0   4   6 1822.35 979.093   2
   0  -4  -6 2982.32 887.732   1
   0   4   7 6118.89 1673.03   2
   0  -4  -7 7866.50 1439.32   1
   0   4   8 5047.43 1554.30   2
   0  -4  -8 3431.84 1001.34   1
   0   4   9 1379.50 916.930   2
   0  -4  -9 614.895 475.435   1
   0  -4 -10 547.758 506.454   1
   0  -4 -11 2488.24 918.379   1
   0  -4 -12 3397.26 1193.82   1
   0  -4 -13 1056.92 679.699   1
   0   5   0 366.368 674.527   2
   0   5   1 2487.55 1250.23   2
   0   5  -1 2645.88 1321.68   2
   0   5  -2 1957.86 1198.14   2
   0   5   2-93.9208 417.425   2
   0   5   3 917.208 951.802   2
   0  -5  -3 2370.55 709.047   1
   0  -5  -4 6878.59 1278.80   1
   0   5   4 5029.28 1757.79   2
   0   5   5 1397.38 1135.82   2
   0  -5  -5 1659.71 676.103   1
   0   5   6-261.407 604.956   2
   0  -5  -6 475.752 374.736   1
   0  -5  -7-177.192 306.225   1
   0   5   7 64.0270 531.404   2
   0   5   8 1582.16 1142.56   2
   0  -5  -8-75.6336 297.719   1
   0  -5  -9 318.134 357.924   1
   0  -5 -10 406.762 430.313   1
   0  -5 -11 2963.47 1153.78   1
   0   6   0 1188.16 1012.05   2
   0   6   1 1676.51 1241.20   2
   0   6   2 432.461 679.656   2
   0   6   3 1152.09 977.291   2
   0   6   4 60.4236 388.670   2
   0   6   5 1145.81 1226.83   2
   0   6   6 1848.23 1280.69   2
   0   6   7 1258.41 1076.96   2
   1   0 -17 11590.1 1931.98   1
   1   0 -16-117.332 228.421   1
   1   0 -15 2129.64 790.453   1
   1   0 -14-231.450 282.521   1
   1   0 -13 460.197 392.694   1
   1   0 -12-485.940 342.906   1
   1   0 -11-63.9089 174.765   1
   1   0 -10-19.5920 173.108   1
   1   0 -10-953.067 609.120   3
   1   0  -9 32641.5 2225.70   1
   1   0  -9 33359.9 2764.18   3
   1   0  -8-46.9470 588.123   3
   1   0  -8 218.298 185.868   1
   1   0  -7 4185.13 895.245   3
   1   0  -7 4927.42 768.419   1
   1   0  -6-202.041 375.752   3
   1   0  -6 148.321 200.514   1
   1   0  -5 36442.0 1748.37   1
   1   0  -4 22.8425 107.288   1
   1   0  -3 83867.8 2126.43   1
   1   0  -2 61.9500 99.0377   1
  -1   0   2-44.7278 67.1347   1
   1   0   1 400715. 3871.03   1
   1   0   2-63.1706 81.7513   1
   1   0   3 13903.7 983.796   1
  -1   0  -5 3484.12 754.834   3
  -1   0  -6 142.402 443.933   3
  -1   0  -7 3180.59 888.227   3
  -1   0  -8 718.119 640.520   3
  -1   0  -9 3695.84 1082.71   3
  -1   0 -10 32.0293 558.314   3
  -1   0 -11 4876.39 1302.97   3
  -1   0 -12 149.147 617.595   3
  -1   0 -13 742.689 925.023   3
  -1   0 -14-185.232 582.624   3
  -1   0 -15 372.518 805.939   3
   1  -1 -17-224.229 357.991   1
   1  -1 -16-603.247 475.849   1
   1  -1 -15 4807.00 1231.66   1
   1   1 -14 3969.76 960.922   1
   1  -1 -14 2824.06 936.609   1
   1   1 -13 133.330 199.829   1
   1  -1 -13 82.6834 271.409   1
   1  -1 -12 10492.4 1586.30   1
   1   1 -12 11178.8 1418.63   1
   1  -1 -11 6544.19 1227.64   3
   1  -1 -11 4694.60 1038.72   1
   1   1 -11 4722.70 878.079   1
   1  -1 -10 2955.07 831.973   3
   1  -1 -10 2778.89 754.874   1
   1  -1  -9 144.049 369.350   3
   1  -1  -9 242.960 253.375   1
   1  -1  -8 3821.74 757.573   3
   1  -1  -8 4177.30 817.688   1
   1  -1  -7 1239.92 460.782   1
   1  -1  -7 397.783 330.200   3
   1  -1  -6 20656.5 1369.62   3
   1  -1  -6 22240.2 1718.59   1
   1   1  -5 260.226 146.396   1
   1  -1  -5-37.6079 181.504   1
   1  -1  -4 42293.6 2070.36   1
   1   1  -4 42710.9 1298.56   1
   1   1  -3 153558. 1856.36   1
   1  -1  -3 153756. 3596.80   1
   1  -1  -2 444491. 5517.97   1
  -1  -1   1 67832.7 999.727   1
   1  -1  -1 66568.6 1939.29   1
  -1   1   1 68258.2 1471.79   3
   1   1  -1 66982.3 1041.20   1
  -1  -1   0 9771.08 541.856   1
  -1   1   0 9336.26 724.947   3
   1  -1   0 10380.4 706.558   1
  -1   1  -1 718.027 360.436   3
   1  -1   1 623.118 181.647   1
  -1   1  -2 6452.43 830.600   3
   1   1   2 7137.95 764.980   2
   1  -1   2 7057.29 597.326   1
   1   1   3 1086.84 309.224   2
   1  -1   3 1640.72 326.340   1
  -1   1  -3 1623.71 511.299   3
  -1   1  -3 1650.44 429.464   2
   1  -1   4 94.7311 119.026   1
   1   1   4 105.770 167.154   2
  -1   1  -4 282.184 355.506   3
  -1   1  -4 208.760 194.618   2
   1   1   5 1097.94 293.339   2
  -1   1  -5 1151.58 530.398   3
   1  -1   5 697.731 267.148   1
   1   1   6 29689.2 1454.93   2
  -1   1  -6 27955.9 2400.19   3
   1   1   7 3964.51 519.795   2
  -1   1  -7 3007.27 945.285   3
   1   1   8 14.0555 79.0260   2
  -1   1  -8-411.296 678.932   3
  -1   1  -9-341.568 720.989   3
  -1  -1  -9-79.9784 505.099   3
  -1   1 -10 503.323 574.227   3
  -1  -1 -10 383.157 401.740   3
  -1  -1 -11-32.9829 412.121   3
  -1   1 -11 953.988 821.606   3
  -1   1 -12 1803.16 979.563   3
  -1  -1 -12 1460.17 844.108   3
  -1   1 -13 3269.98 1451.44   3
  -1  -1 -13 1125.75 853.807   3
  -1   1 -14 7414.40 2046.13   3
  -1   1 -15 765.920 1013.38   3
  -1  -1 -16-609.525 511.195   1
  -1   1 -16-43.1241 932.941   3
   1  -2 -16 1072.73 700.249   1
   1  -2 -15 4651.56 1303.80   1
   1  -2 -14 3737.19 1114.15   1
   1  -2 -13 8568.57 1591.66   1
   1  -2 -12 3664.12 1060.46   1
   1  -2 -11 1396.64 634.672   1
   1   2 -10 1507.20 430.467   1
   1  -2 -10 1233.07 586.072   1
   1  -2  -9 3877.65 926.758   1
   1  -2  -8 206.101 181.147   3
   1  -2  -8 862.908 452.742   1
   1  -2  -7 12312.3 860.401   3
   1  -2  -7 9569.21 1337.82   1
   1  -2  -6 96997.6 4012.42   1
   1   2  -5 176753. 2191.50   1
   1  -2  -5 176216. 5150.93   1
   1   2  -5 176706. 2086.98   1
   1  -2  -4 64317.1 2907.91   1
   1  -2  -3 1660.55 451.611   1
   1  -2  -2 1116.44 354.547   1
   1  -2  -2 1550.01 276.746   3
   1  -2  -1 223.718 166.611   1
  -1  -2   1 352.252 116.799   1
  -1   2   0 202.778 278.410   3
   1   2   0 69.9307 261.643   2
   1  -2   0 190.436 180.793   1
   1   2   1 9091.58 1271.09   2
  -1   2  -1 10409.7 1250.05   3
   1  -2   1 10245.1 829.599   1
  -1   2  -2 23544.0 2219.23   2
   1   2   2 17444.0 1768.49   2
   1  -2   2 20721.3 1157.23   1
  -1   2  -2 17954.9 1758.60   3
  -1   2  -3 43526.7 3014.54   2
   1   2   3 46883.8 2899.41   2
  -1   2  -3 44126.4 2915.57   3
   1  -2   3 43276.5 1705.60   1
   1   2   4 20918.1 1925.00   2
   1  -2   4 22519.8 1310.93   1
  -1   2  -4 21577.1 2180.05   3
  -1   2  -4 22934.6 2170.22   2
   1   2   5 13565.8 1535.41   2
  -1   2  -5 9274.05 1557.48   3
   1  -2   5 13643.2 1096.97   1
  -1   2  -5 13000.9 1627.46   2
   1  -2   6 119.114 151.858   1
   1   2   6-0.71747 127.905   2
  -1   2  -6-55.5853 589.302   3
   1   2   7 8214.38 1217.82   2
   1  -2   7 6517.63 920.019   1
  -1   2  -7 5654.60 1399.62   3
  -1   2  -8 7499.57 1692.06   3
   1   2   8 7206.25 1127.31   2
  -1   2  -9 1007.93 919.425   3
  -1  -2  -9 315.793 492.600   3
  -1   2 -10 704.096 839.121   3
  -1  -2 -10 547.881 484.267   3
  -1   2 -11 1122.36 981.150   3
  -1   2 -12 1449.11 1234.07   3
  -1   2 -13 7557.53 2258.58   3
  -1  -2 -14 426.620 444.876   1
  -1   2 -14-1944.10 1230.78   3
  -1  -2 -15 2774.67 1073.23   1
  -1   2 -15 4402.76 1845.84   3
   1  -3 -15-248.680 366.891   1
   1  -3 -14-20.6682 364.112   1
   1  -3 -13 149.675 377.210   1
   1  -3 -12-469.279 448.494   1
   1  -3 -11 345.069 433.606   1
   1  -3 -10 1778.77 799.701   1
   1  -3  -9 43220.7 3362.87   1
   1  -3  -8 45764.5 3330.75   1
   1  -3  -7 25720.0 2392.16   1
   1  -3  -6 698.110 392.518   1
   1  -3  -5 60.0954 163.901   1
   1  -3  -4 3271.16 731.354   1
   1  -3  -4 2745.12 338.497   3
   1  -3  -3 1958.34 565.055   1
   1  -3  -2 2533.69 586.463   1
  -1  -3   2 3895.77 366.690   1
  -1  -3   1 9836.13 751.609   1
   1  -3  -1 9547.19 1047.47   1
   1  -3   0 24513.8 1563.86   1
  -1  -3   0 27146.9 1471.68   1
  -1   3   0 23144.5 2786.23   2
   1   3   0 27994.6 2808.32   2
   1  -3   1 25727.1 1532.95   1
  -1  -3  -1 29645.1 1752.09   1
   1   3   1 27234.4 2781.18   2
  -1   3  -1 29571.0 3092.81   2
   1   3   2 26255.8 2737.56   2
  -1  -3  -2 28079.6 1887.45   1
   1  -3   2 29149.2 1569.22   1
  -1   3  -2 26507.6 2949.51   2
  -1   3  -3 4900.03 1292.60   2
   1   3   3 5567.88 1270.00   2
  -1   3  -3 4608.27 1134.56   3
   1  -3   3 5345.14 670.599   1
  -1  -3  -3 4981.13 847.252   1
  -1   3  -4 1256.35 658.132   2
   1   3   4 805.819 490.836   2
  -1  -3  -4 956.963 388.560   1
  -1   3  -4 2332.70 959.286   3
   1  -3   4 1196.96 330.275   1
   1   3   5 180.488 395.545   2
  -1   3  -5 727.996 629.444   3
  -1  -3  -5 104.178 134.653   1
   1  -3   5 321.156 199.988   1
  -1   3  -5 260.151 433.323   2
  -1   3  -6 53.8227 568.778   3
   1  -3   6 333.904 217.606   1
   1   3   6 150.859 263.043   2
   1  -3   7 807.173 326.967   1
   1   3   7 1319.23 675.273   2
  -1   3  -7 417.843 591.811   3
   1   3   8 222.208 375.874   2
  -1   3  -8 1449.37 979.724   3
  -1  -3  -8 722.500 486.365   1
  -1   3  -9 266.753 577.353   3
  -1  -3  -9 1702.40 702.901   1
  -1   3 -10 13477.0 2690.81   3
  -1  -3 -10 13281.4 1957.92   1
  -1   3 -11 1422.26 1009.95   3
  -1  -3 -11 4795.22 1223.26   1
  -1   3 -12 961.560 978.084   3
  -1  -3 -12 329.960 386.011   1
  -1  -3 -13 383.348 467.576   1
  -1  -3 -14 465.996 483.578   1
   1  -4 -13 999.330 661.704   1
   1  -4 -12 11978.0 2119.49   1
   1  -4 -11 13634.8 2176.49   1
   1  -4 -10 7526.42 1588.37   1
   1  -4  -9 2377.90 891.531   1
   1  -4  -8 146.389 393.775   1
   1  -4  -7 2169.86 775.073   1
   1  -4  -6 121.502 242.173   1
   1  -4  -5 7258.05 1281.98   1
   1  -4  -4 6952.02 1183.42   1
   1  -4  -3 6124.58 1048.13   1
  -1   4   3 5963.10 1674.02   2
  -1   4   2 6993.80 1798.63   2
   1  -4  -2 10289.7 1295.40   1
  -1   4   1 22885.4 3237.50   2
   1  -4  -1 23328.3 1839.10   1
  -1  -4   0 730.737 299.925   1
   1   4   0 524.086 587.823   2
  -1   4   0 1132.32 862.976   2
   1  -4   0 844.876 348.269   1
  -1  -4  -1 506.695 300.471   1
   1  -4   1 1206.11 395.625   1
  -1   4  -1 606.500 571.613   2
   1   4   1 960.584 649.028   2
  -1   4  -2-37.9746 297.191   2
  -1  -4  -2 56.5462 109.654   1
   1  -4   2-24.4060 117.651   1
   1   4   2 103.522 371.841   2
  -1   4  -3 408.924 757.066   2
   1  -4   3 427.280 211.511   1
  -1  -4  -3 4.36965 138.395   1
   1   4   3 199.537 516.529   2
   1   4   4 839.984 684.593   2
  -1   4  -4 2392.71 1110.31   2
  -1  -4  -4 3804.44 894.173   1
  -1   4  -5 3610.53 1382.79   2
   1   4   5 5504.51 1537.82   2
  -1  -4  -5 5121.05 1099.17   1
  -1  -4  -6 2416.69 811.565   1
   1   4   6 3240.92 1205.62   2
  -1  -4  -7 980.683 554.466   1
   1   4   7 2778.86 1107.03   2
  -1  -4  -8 2211.49 822.991   1
  -1  -4  -9-506.206 456.664   1
  -1  -4 -10 845.161 549.816   1
  -1  -4 -11 2128.88 879.216   1
  -1  -4 -12 374.558 413.692   1
   1  -5 -11 108.301 279.696   1
   1  -5 -10 2774.49 1068.85   1
  -1   5   9 26.1592 683.467   2
   1  -5  -9 1812.11 853.213   1
  -1   5   8 540.341 844.657   2
   1  -5  -8-346.885 384.054   1
  -1   5   7 2280.50 1221.68   2
   1  -5  -7 217.204 305.117   1
   1  -5  -6 2384.62 895.844   1
  -1   5   6 1444.79 927.836   2
   1  -5  -5 4779.11 1138.28   1
  -1   5   5 4531.50 1685.65   2
   1  -5  -4 3915.66 978.483   1
  -1   5   4 3865.87 1564.53   2
  -1   5   3 4773.26 1710.43   2
   1  -5  -3 5437.44 1111.89   1
   1  -5  -2 14386.0 1678.83   1
  -1   5   2 13998.5 2935.22   2
  -1   5   1 8063.23 2192.49   2
  -1   5   0 2317.69 1131.21   2
  -1   5  -1 758.212 765.250   2
  -1   5  -2 4094.52 1543.69   2
   1   5   2 7076.35 1986.19   2
   1   5   3 1978.53 1058.60   2
  -1   5  -3 1990.48 1203.01   2
  -1  -5  -4 3326.09 918.365   1
   1   5   4 4666.77 1613.52   2
  -1   5  -4 6639.60 2023.40   2
  -1  -5  -5 2033.97 756.293   1
   1   5   5 3598.20 1481.07   2
  -1  -5  -6 2004.03 765.347   1
   1   5   6 892.249 791.023   2
  -1  -5  -7 4056.42 1156.77   1
   1   5   7 5340.81 1742.91   2
  -1  -5  -8 3851.20 1169.96   1
  -1  -5  -9 31.3641 193.115   1
  -1  -5 -10-481.938 470.302   1
  -1  -5 -11 303.746 381.427   1
   1  -6  -9 1963.86 909.036   1
  -1   6   8 974.341 1028.05   2
   1  -6  -8 347.995 458.754   1
  -1   6   7 7083.34 2513.46   2
  -1   6   6-301.358 598.333   2
  -1   6   5 15.5378 885.532   2
  -1   6   4-233.538 772.294   2
  -1   6   3-306.030 782.504   2
  -1   6   2 794.628 991.465   2
  -1   6   1 51.6615 654.214   2
  -1   6   0 23003.9 4169.32   2
  -1   6  -1 3531.51 1652.15   2
  -1   6  -2 29467.8 4648.44   2
  -1   6  -3 1119.38 1095.01   2
   2   0 -16-190.287 315.933   1
   2   0 -15 980.855 582.716   1
   2   0 -14-319.974 321.562   1
   2   0 -13-39.0592 243.773   1
   2   0 -12 2658.19 765.893   1
   2   0 -11 12.1697 160.076   1
   2   0 -10 2604.69 681.252   1
   2   0  -9 95.2307 204.944   1
   2   0  -8 1.11617 136.262   1
   2   0  -7 140.456 156.896   1
   2   0  -6 663.930 286.529   1
   2   0  -5 39.3726 149.578   1
   2   0  -4 33945.1 1664.73   1
   2   0  -3 44.0273 104.313   1
   2   0  -2 777.909 234.531   1
   2   0  -1 23.6503 94.0813   1
   2   0   0 43482.4 1602.77   1
   2   0   1 87.0027 94.2700   1
   2   0   2 299529. 4859.87   1
   2   0   3 222.630 185.604   1
   2   0   4 15481.4 1318.28   1
   2   0   5-146.855 176.256   1
  -2   0  -7 1083.08 829.423   3
  -2   0  -8 3868.27 1169.55   3
  -2   0  -9 326.917 770.335   3
  -2   0 -10 66401.7 4590.54   3
  -2   0 -11 532.655 1010.49   3
  -2   0 -12 64691.0 5134.80   3
  -2   0 -13-190.957 665.024   3
  -2   0 -14-198.374 745.595   3
  -2   0 -15 1465.90 1079.94   3
  -2   0 -16-313.930 1091.42   3
   2  -1 -17 579.857 488.096   1
   2  -1 -16-136.116 455.052   1
   2  -1 -15 349.450 417.882   1
   2  -1 -14 24.8292 200.040   1
   2  -1 -13 1631.41 670.118   1
   2   1 -13 2326.59 695.046   1
   2  -1 -12 1883.83 671.580   1
   2   1 -12 1925.92 574.296   1
   2   1 -11 429.041 303.360   1
   2  -1 -11 16.0836 206.111   1
   2  -1 -10-82.3032 209.684   1
   2   1 -10 125.177 185.369   1
   2   1  -9 1548.03 470.462   1
   2  -1  -9 1294.33 491.649   1
   2   1  -8 2361.99 510.131   1
   2  -1  -8 2143.65 603.092   1
   2  -1  -7 8039.50 1128.66   1
   2   1  -7 8416.71 880.146   1
   2   1  -6 411.808 185.963   1
   2  -1  -6 319.765 304.434   1
   2  -1  -5 5795.85 865.636   1
   2   1  -5 5232.03 571.742   1
  -2   1   5 4971.39 626.736   3
   2  -1  -4 3667.81 649.649   1
   2   1  -4 4173.04 447.344   1
   2  -1  -3 11645.1 1084.43   1
   2   1  -3 12412.6 691.134   1
  -2  -1   3 12488.8 709.079   1
   2  -1  -2 3304.10 540.372   1
   2   1  -2 3966.48 395.113   1
   2  -1  -1 6765.78 733.897   1
   2   1  -1 6828.99 551.309   1
   2   1   0 61941.5 1880.97   1
   2  -1   0 61673.9 2157.73   1
   2  -1   1 3900.78 549.869   1
   2   1   1 4289.85 562.983   1
   2  -1   2 1433.29 359.930   1
   2   1   2 2581.73 485.704   1
   2  -1   3 8025.44 859.168   1
   2   1   3 6101.47 813.404   1
  -2   1  -4 29835.0 2318.81   3
   2  -1   4 27634.3 1695.19   1
  -2   1  -5 62975.9 3521.96   3
  -2   1  -5 54627.0 2434.19   2
   2  -1   5 59914.3 2680.31   1
   2  -1   6 25008.3 1872.68   1
  -2   1  -6 22741.7 2325.68   3
   2  -1   7 6422.15 1025.63   1
  -2   1  -7 7062.36 1462.12   3
  -2   1  -8 18475.0 2395.38   3
  -2  -1  -9 21684.2 2390.47   3
  -2   1  -9 21255.8 2674.17   3
  -2  -1 -10 5287.11 1285.50   3
  -2   1 -10 5845.14 1612.49   3
  -2   1 -11 1178.16 1024.08   3
  -2  -1 -11 2238.88 928.623   3
  -2  -1 -12 2767.77 1022.06   3
  -2   1 -12 3361.77 1370.96   3
  -2   1 -13 12373.3 2682.02   3
  -2  -1 -13 15554.1 2506.00   3
  -2  -1 -14 8716.77 2111.50   3
  -2   1 -14 11092.6 2566.18   3
  -2   1 -15 7427.92 2278.86   3
   2  -2 -16 58.9706 293.725   1
   2  -2 -15 792.298 570.807   1
   2  -2 -14 1113.35 646.142   1
   2  -2 -13 708.342 530.941   1
   2  -2 -12 405.703 406.300   1
   2  -2 -11 1312.14 636.781   1
   2  -2 -10 23168.5 2356.81   1
   2  -2  -9 9984.50 1497.74   1
   2   2  -9 12144.1 1027.41   1
   2   2  -8 161.088 118.046   1
   2  -2  -8 346.935 397.079   1
   2   2  -7 815.185 212.708   1
   2  -2  -7 894.928 449.123   1
   2   2  -6 98.2558 58.8215   1
   2  -2  -6 185.471 285.659   1
   2   2  -6 65.7136 63.5777   1
   2  -2  -5 8730.39 1195.25   1
   2  -2  -4 4419.29 812.527   1
  -2   2   3 3877.03 435.110   3
   2  -2  -3 4178.83 744.138   1
   2  -2  -2 25210.3 1703.85   1
  -2   2   2 26744.3 1395.45   3
  -2  -2   2 25385.6 851.847   1
  -2   2   1 27077.0 1625.52   3
   2  -2  -1 26545.2 1661.56   1
  -2   2   0 13266.6 1259.69   3
   2  -2   0 13171.7 1138.50   1
  -2   2  -1 1664.46 508.795   3
   2  -2   1 1314.23 356.517   1
  -2   2  -2 1333.10 644.333   3
   2  -2   2 518.743 241.258   1
  -2   2  -3 3360.69 901.530   3
   2  -2   3 3319.17 579.210   1
  -2   2  -4 5807.31 1187.18   2
  -2   2  -4 4715.77 1185.44   3
   2  -2   4 5536.22 781.850   1
  -2   2  -5 13241.8 1718.21   2
   2  -2   5 13398.0 1274.52   1
  -2   2  -5 14042.1 1937.76   3
   2  -2   6 1638.40 505.229   1
  -2   2  -6 2873.95 1115.78   3
  -2   2  -6 1308.45 517.884   2
  -2   2  -7 26020.8 2926.58   3
   2  -2   7 26713.7 2041.55   1
   2  -2   8 17653.6 1771.73   1
  -2   2  -8 15034.8 2377.60   3
  -2   2  -9 2585.91 1146.87   3
  -2   2 -10 1059.31 990.733   3
  -2  -2 -11 2221.81 1002.61   3
  -2   2 -11 673.780 1112.80   3
  -2   2 -12 164.272 951.834   3
  -2   2 -13 154.247 1090.14   3
  -2   2 -14 1898.25 1657.69   3
   2  -3 -15 2185.49 997.998   1
   2  -3 -14 507.718 494.045   1
   2  -3 -13 581.159 484.213   1
   2  -3 -12-302.001 373.108   1
   2  -3 -11 1178.11 738.202   1
   2  -3 -10 257.419 423.289   1
   2  -3  -9 15550.4 2029.67   1
   2  -3  -8 62.1873 322.207   1
   2  -3  -7 91821.6 4590.46   1
   2  -3  -6 14653.0 1783.67   1
   2  -3  -5 452.458 356.662   1
   2  -3  -4 1461.75 531.206   1
   2  -3  -3 1125.75 455.515   1
  -2  -3   2 276.404 99.0136   1
   2  -3  -2 184.414 257.393   1
  -2  -3   2 273.963 109.378   1
  -2  -3   1 182.867 161.281   1
  -2   3   1-185.066 307.767   3
   2  -3  -1 34.4282 142.632   1
  -2   3   0 130.021 353.352   3
   2  -3   0 681.182 318.824   1
  -2   3  -1 22997.4 2252.24   3
   2  -3   1 22915.1 1637.83   1
  -2   3  -2 26225.3 2538.57   3
   2  -3   2 25340.8 1723.07   1
   2  -3   3 5348.73 795.807   1
  -2   3  -3 3600.52 1128.16   3
  -2   3  -3 4148.56 1216.06   2
  -2   3  -4 2246.47 897.037   2
   2  -3   4 4098.17 709.678   1
  -2   3  -5 320.249 848.904   3
   2  -3   5 434.561 250.017   1
  -2   3  -5 586.093 567.121   2
  -2   3  -6-5.91268 770.912   3
  -2   3  -6 495.491 431.948   2
   2  -3   6 663.131 340.534   1
  -2   3  -7 1721.41 1089.84   3
   2  -3   7 1260.10 459.671   1
  -2   3  -8 1450.77 1156.65   3
   2  -3   8 1621.58 574.887   1
  -2   3  -9-25.7224 802.790   3
  -2   3 -10 2696.00 1309.87   3
  -2   3 -11 10613.9 2617.86   3
  -2   3 -12 1712.84 1376.71   3
  -2   3 -13-308.012 1056.09   3
   2  -4 -13 5828.40 1527.55   1
   2  -4 -12 26.0601 294.875   1
   2  -4 -11 20836.6 2722.29   1
   2  -4 -10 20494.6 2609.79   1
   2  -4  -9 1857.03 819.814   1
   2  -4  -8 273.804 284.977   1
   2  -4  -7 37.5906 221.235   1
   2  -4  -6 6641.97 1309.90   1
   2  -4  -5 22874.8 2323.11   1
   2  -4  -4 40902.0 2957.78   1
   2  -4  -3 46612.4 3005.03   1
   2  -4  -2 1783.75 576.199   1
   2  -4  -1-8.55961 127.933   1
   2  -4   0 2447.85 635.121   1
  -2   4   0 3696.28 1391.19   2
   2  -4   1 185.390 220.046   1
  -2  -4  -1 139.851 152.155   1
  -2   4  -1-199.087 628.137   2
  -2  -4  -2-66.9185 124.076   1
  -2   4  -2-180.692 381.751   2
   2  -4   2 288.248 228.942   1
  -2  -4  -3 1201.97 505.409   1
  -2   4  -3 1111.57 766.833   2
   2  -4   3 1550.65 469.875   1
  -2  -4  -4 3960.29 915.772   1
  -2   4  -4 3709.91 1219.74   3
  -2   4  -4 5330.78 1618.95   2
   2  -4   4 5564.95 896.570   1
  -2   4  -5 22331.5 3277.59   2
  -2   4  -5 17661.6 2764.58   3
  -2  -4  -5 21500.6 2244.40   1
  -2  -4  -6 2314.65 816.184   1
  -2   4  -6 4535.28 1507.88   2
  -2   4  -6 1953.38 1075.78   3
  -2  -4  -7 653.744 466.346   1
  -2   4  -7 1596.92 1070.38   3
  -2  -4  -8 1179.05 635.048   1
  -2   4  -8 1533.28 999.456   3
  -2  -4  -9 489.864 437.737   1
  -2   4  -9 320.935 910.476   3
  -2  -4 -10 393.240 407.755   1
  -2   4 -10-841.334 780.197   3
  -2  -4 -11-4.48725 312.314   1
  -2  -4 -12-787.901 589.965   1
   2  -5 -11 1648.10 850.700   1
   2  -5 -10 3664.45 1236.39   1
   2  -5  -9 1647.22 814.435   1
   2  -5  -8 1104.86 643.913   1
   2  -5  -7 355.368 386.104   1
   2  -5  -6 4809.11 1190.07   1
  -2   5   5 5306.26 1837.49   2
   2  -5  -5 9520.90 1621.91   1
  -2   5   4 5969.81 1980.32   2
   2  -5  -4 4705.69 1094.99   1
   2  -5  -3 137.757 236.438   1
  -2   5   3 1369.05 975.351   2
  -2   5   2 30175.8 4354.35   2
   2  -5  -2 33426.2 2667.24   1
  -2   5   1 32681.1 4568.95   2
   2  -5  -1 30924.7 2474.03   1
  -2   5   0 18164.7 3452.84   2
  -2   5  -1 1907.71 1134.33   2
  -2   5  -2 4337.63 1771.95   2
  -2   5  -3 729.131 748.809   2
  -2   5  -4 2584.30 1428.95   2
  -2   5  -5 1156.07 999.011   2
  -2  -5  -6-161.443 277.194   1
  -2  -5  -7 2705.60 960.716   1
  -2  -5  -8 5206.31 1347.60   1
  -2  -5  -9 3384.13 1162.37   1
  -2  -5 -10 377.387 550.066   1
  -2   6   9-1060.11 1125.55   2
  -2   6   8 7950.80 2655.59   2
   2  -6  -8 11478.3 2162.12   1
  -2   6   7 467.517 765.724   2
   2  -6  -7 49.0115 334.004   1
  -2   6   6 8300.10 2595.76   2
  -2   6   5 545.377 504.454   2
  -2   6   4-258.982 655.654   2
  -2   6   3 611.481 967.704   2
  -2   6   2-133.001 452.027   2
  -2   6   1 599.072 898.199   2
  -2   6   0 2401.58 1386.75   2
  -2   6  -1 20405.7 4007.10   2
  -2   6  -2 8003.82 2540.17   2
  -2   6  -3 5582.68 2176.83   2
  -2   6  -4-811.680 855.272   2
   3   0 -16 254.223 298.809   1
   3   0 -15 46029.9 3488.06   1
   3   0 -14 113.995 247.538   1
   3   0 -13 677.951 409.195   1
   3   0 -12 388.888 308.978   1
   3   0 -11 5127.60 1015.36   1
   3   0 -10 114.841 201.687   1
   3   0  -9 2592.81 680.965   1
   3   0  -8-27.9387 152.085   1
   3   0  -7 74151.7 3206.10   1
   3   0  -6 4.99535 109.531   1
   3   0  -5 94208.6 3237.64   1
   3   0  -4 5.58008 92.2581   1
   3   0  -3 3947.96 630.838   1
   3   0  -2 15.6012 161.661   1
   3   0  -1 2644.86 489.959   1
   3   0   0 158.530 176.133   1
   3   0   1 42748.9 2035.20   1
   3   0   2-15.0911 125.344   1
   3   0   3 151598. 4321.38   1
   3   0   4 105.091 180.440   1
   3   0   5 1943.66 574.767   1
   3   0   6-261.951 253.793   1
   3   0   7 619.084 408.253   1
  -3   0  -9 1507.66 965.779   3
  -3   0 -10 923.604 918.931   3
  -3   0 -11 57146.4 4763.75   3
  -3   0 -12 722.109 879.381   3
  -3   0 -13 8295.62 2029.69   3
  -3   0 -14 1424.44 1128.47   3
  -3   0 -15 315.348 934.934   3
   3  -1 -17 140.486 365.716   1
   3  -1 -16-253.083 371.321   1
   3  -1 -15 1328.95 669.774   1
   3  -1 -14 1758.05 731.902   1
   3  -1 -13 17058.2 2129.90   1
   3  -1 -12 34284.5 2917.64   1
   3   1 -12 35983.8 2505.79   1
   3  -1 -11 14855.1 1861.54   1
   3   1 -11 15495.7 1572.00   1
   3  -1 -10 1969.75 685.273   1
   3   1 -10 432.800 277.182   1
   3  -1  -9 1017.99 481.008   1
   3   1  -9 2247.43 554.352   1
   3  -1  -8 10443.2 1408.62   1
   3   1  -8 11440.5 1148.29   1
   3  -1  -7 788.701 384.833   1
   3   1  -7 1358.07 381.504   1
   3  -1  -6 3133.12 721.271   1
   3   1  -6 2740.69 497.143   1
   3  -1  -5 14478.8 1454.61   1
   3   1  -5 15229.0 1079.61   1
   3  -1  -4 44107.9 2400.47   1
   3   1  -4 43569.2 1732.61   1
   3  -1  -3 53516.9 2520.34   1
   3   1  -3 50136.9 1838.45   1
   3   1  -2 94251.2 2534.56   1
   3  -1  -2 93268.6 3224.10   1
   3  -1  -1 28667.3 1739.25   1
   3   1  -1 25197.4 1380.09   1
   3  -1   0 74879.1 2810.50   1
   3   1   0 78534.4 2608.38   1
   3  -1   1 17781.7 1385.83   1
   3   1   1 18355.3 1356.99   1
   3   1   2 735.297 335.455   1
   3  -1   2 1097.26 397.396   1
   3  -1   3 1499.92 449.461   1
   3   1   3 1167.36 425.793   1
   3  -1   4 1615.65 480.347   1
   3   1   4 1658.41 509.668   1
   3  -1   5 3954.62 778.741   1
  -3   1  -6 8724.08 993.232   2
  -3   1  -6 10764.6 1806.60   3
   3  -1   6 9652.49 1288.29   1
  -3   1  -7 12655.7 1999.26   3
   3  -1   7 14090.0 1638.44   1
  -3   1  -8 48202.8 3997.12   3
   3  -1   8 41660.2 3003.61   1
  -3   1  -9 26514.1 3122.58   3
  -3   1 -10 7078.06 1781.38   3
  -3  -1 -10 9530.76 1894.55   3
  -3   1 -11 2040.01 1307.54   3
  -3  -1 -11 3232.28 1238.31   3
  -3   1 -12 1162.02 1238.04   3
  -3  -1 -12 1666.43 1065.80   3
  -3  -1 -13 1313.84 1052.12   3
  -3   1 -13 1332.56 857.114   3
  -3  -1 -14 4445.49 1565.77   3
  -3   1 -14 5035.15 1958.89   3
   3  -2 -16-348.850 438.650   1
   3  -2 -15 7.02049 200.924   1
   3  -2 -14-96.4639 234.093   1
   3  -2 -13 1615.73 736.820   1
   3  -2 -12 704.430 461.608   1
   3  -2 -11 5059.28 1184.19   1
   3  -2 -10 31067.7 2818.69   1
   3  -2  -9 56355.3 3641.97   1
   3   2  -8 12198.4 893.520   1
   3  -2  -8 8847.12 1409.35   1
   3  -2  -7 23.2718 229.740   1
   3   2  -7 226.565 129.269   1
   3  -2  -6-75.4671 174.128   1
   3   2  -6 124.909 90.5426   1
  -3  -2   5 9914.08 652.958   1
   3  -2  -5 9868.08 1345.24   1
   3   2  -5 10588.4 621.569   1
   3  -2  -4 36517.6 2436.45   1
   3   2  -4 38702.3 1231.84   1
   3  -2  -3 34813.6 2282.00   1
   3   2  -3 34378.3 1286.55   1
   3   2  -2 642.862 209.056   1
   3  -2  -2 873.648 386.577   1
   3  -2  -1 47439.6 2486.80   1
   3   2  -1 44003.7 1837.09   1
  -3   2   0 47431.4 2621.33   3
   3  -2   0 45679.9 2400.29   1
   3   2   0 50975.1 2183.77   1
  -3   2  -1 10062.8 1319.83   3
   3  -2   1 8727.30 1054.39   1
   3  -2   2 304.953 218.825   1
  -3   2  -2 1190.10 662.866   3
  -3   2  -3 1400.76 717.451   3
   3  -2   3 651.239 296.770   1
  -3   2  -4 11755.4 1754.56   3
   3  -2   4 11082.7 1258.11   1
  -3   2  -5 49955.2 3750.89   3
  -3   2  -5 55240.9 3699.66   2
   3  -2   5 52910.9 2879.84   1
  -3   2  -6 40774.3 3606.07   3
  -3   2  -6 40459.2 3083.44   2
   3  -2   6 38568.1 2573.97   1
  -3   2  -7 18514.7 2599.76   3
   3  -2   7 14632.6 1673.97   1
   3  -2   8 4583.26 1008.33   1
  -3   2  -8 6279.16 1611.89   3
   3  -2   9 2655.24 821.316   1
  -3   2  -9 3619.76 1430.47   3
  -3   2 -10 634.020 901.369   3
  -3   2 -11 415.166 848.873   3
  -3  -2 -11 2334.47 1188.86   3
  -3   2 -12 719.339 1053.11   3
  -3   2 -13-36.8396 1167.10   3
   3  -3 -15 2195.10 929.760   1
   3  -3 -14 1245.01 710.207   1
   3  -3 -13 54.6651 351.496   1
   3  -3 -12 3876.51 1165.55   1
   3  -3 -11-79.4793 255.227   1
   3  -3 -10 2213.34 828.341   1
   3  -3  -9 2738.93 914.809   1
   3  -3  -8 6660.50 1336.58   1
   3  -3  -7 71316.3 4212.56   1
   3  -3  -6 15020.7 1877.48   1
   3  -3  -5 32957.4 2622.75   1
   3  -3  -4 1977.71 641.418   1
  -3   3   3 2945.17 598.729   3
   3  -3  -3 3639.62 812.871   1
  -3   3   2 153.047 372.701   3
   3  -3  -2-33.4331 256.223   1
  -3   3   1 1756.04 649.019   3
   3  -3  -1 2707.44 668.714   1
   3  -3   0 442.431 310.991   1
  -3   3   0 70.3974 509.108   3
  -3   3  -1 19877.4 2158.37   3
   3  -3   1 21015.7 1764.79   1
  -3   3  -2 7050.23 1391.87   3
   3  -3   2 5180.66 886.998   1
  -3   3  -3 82364.3 4850.93   3
   3  -3   3 88111.2 3632.62   1
  -3   3  -4 15438.9 2249.38   3
  -3   3  -4 13930.3 2310.50   2
   3  -3   4 12156.3 1387.69   1
   3  -3   5 3614.17 800.837   1
  -3   3  -5 1953.83 867.874   3
  -3   3  -5 4282.44 1290.13   2
  -3   3  -6 1424.31 864.930   3
  -3   3  -6 2207.47 935.666   2
   3  -3   6 2048.56 632.903   1
   3  -3   7 25.9342 239.147   1
  -3   3  -7 710.779 1000.69   3
  -3   3  -8 700.341 934.572   3
   3  -3   8 969.195 516.992   1
   3  -3   9-175.008 266.513   1
  -3   3  -9 6220.41 1968.89   3
  -3   3 -10 3925.59 1740.02   3
  -3   3 -11 3254.79 1584.06   3
  -3   3 -12 5663.51 2163.26   3
   3  -4 -13 3054.26 1128.65   1
   3  -4 -12 3028.39 1144.39   1
   3  -4 -11-254.288 357.973   1
   3  -4 -10 896.063 602.934   1
   3  -4  -9 97.2018 388.845   1
   3  -4  -8 1915.45 791.485   1
   3  -4  -7 3394.57 1021.26   1
   3  -4  -6-123.722 269.150   1
   3  -4  -5 10411.0 1606.40   1
   3  -4  -4 19963.7 2147.84   1
   3  -4  -3 7216.12 1246.78   1
   3  -4  -2-49.0191 228.593   1
   3  -4  -1 7329.83 1182.96   1
  -3   4   0 22665.8 2488.47   3
   3  -4   0 24335.8 2086.43   1
  -3   4  -1 16945.4 2289.87   3
   3  -4   1 14579.1 1602.99   1
   3  -4   2 343.853 268.245   1
  -3   4  -2 1727.28 1044.79   2
  -3   4  -2 340.561 611.323   3
  -3   4  -3 1307.00 904.280   3
  -3   4  -3 1787.94 1021.51   2
   3  -4   3 777.980 391.321   1
  -3   4  -4 1211.52 1006.31   3
  -3   4  -4 914.268 671.566   2
   3  -4   4 279.064 243.197   1
   3  -4   5 160.574 201.213   1
  -3   4  -5-18.4816 546.831   2
  -3   4  -6 1750.37 1072.36   2
  -3   4  -6 602.580 624.247   3
  -3   4  -7 45.0663 794.302   3
  -3   4  -7 375.272 534.828   2
  -3   4  -8 3238.92 1465.69   3
  -3   4  -9 5933.11 2057.59   3
  -3   4 -10 62.7357 674.931   3
  -3  -4 -11 172.079 292.027   1
   3  -5 -11 8.71023 495.901   1
   3  -5 -10 1354.69 764.137   1
   3  -5  -9 2016.80 945.325   1
   3  -5  -8 134.835 311.146   1
   3  -5  -7 2171.95 891.803   1
   3  -5  -6 498.559 421.324   1
   3  -5  -5 24.7151 280.327   1
   3  -5  -4 251.231 297.705   1
   3  -5  -3 3786.39 985.637   1
   3  -5  -2 9780.16 1531.33   1
   3  -5  -1 2434.23 759.958   1
  -3   5   1 2742.79 1541.84   2
   3  -5   0 10.5076 227.885   1
  -3   5   0 1386.49 796.313   2
  -3   5  -1 606.532 917.356   2
  -3   5  -2 1009.71 817.483   2
  -3   5  -3 1842.36 1041.11   2
  -3   5  -4 53.7047 747.286   2
  -3   5  -5 733.670 920.126   2
  -3   5  -6 2947.77 1473.41   2
  -3  -5  -7 602.662 490.976   1
  -3  -5  -8 65.6332 239.219   1
  -3  -5  -9 3012.59 1151.38   1
   3  -6  -8 390.786 457.047   1
  -3   6   7 938.080 1072.77   2
   3  -6  -7 1829.58 805.795   1
  -3   6   6-103.461 600.586   2
   3  -6  -6 348.005 411.186   1
  -3   6   5-119.732 623.840   2
  -3   6   4-233.755 779.753   2
  -3   6   3 1352.94 1162.07   2
  -3   6   2 1994.94 1351.29   2
  -3   6   1-171.580 663.040   2
  -3   6   0 1055.82 1010.77   2
  -3   6  -1 1534.29 1209.69   2
  -3   6  -2 2438.93 1740.99   2
  -3   6  -3 829.263 915.730   2
  -3   6  -4-301.763 672.758   2
  -3   6  -5 1088.89 1063.20   2
   4   0 -15-42.0234 279.090   1
   4   0 -14 51916.3 3635.52   1
   4   0 -13 647.332 503.954   1
   4   0 -12 437.698 327.641   1
   4   0 -11 1.69735 232.508   1
   4   0 -10 102.941 193.046   1
   4   0  -9-3.68356 220.431   1
   4   0  -8 1678.87 546.829   1
   4   0  -7-8.71758 129.277   1
   4   0  -6 81406.2 3421.01   1
   4   0  -5-21.2209 119.829   1
   4   0  -4 16069.6 1432.29   1
   4   0  -3 239.589 234.996   1
   4   0  -2 6030.61 851.919   1
   4   0  -1-185.464 170.968   1
   4   0   0 9194.76 1067.18   1
   4   0   1 142.072 196.826   1
   4   0   2 205.271 223.286   1
   4   0   3-208.965 214.936   1
   4   0   4 6325.72 1072.75   1
   4   0   5-332.604 284.939   1
   4   0   6 4465.16 976.666   1
   4   0   7 219.919 304.909   1
  -4   0 -10 1430.01 998.456   3
  -4   0 -11-44.2460 915.968   3
  -4   0 -12 2810.26 1378.97   3
  -4   0 -13 697.066 1116.40   3
   4  -1 -17 13532.6 2167.48   1
   4  -1 -16 5658.13 1378.23   1
   4  -1 -15 430.623 454.627   1
   4  -1 -14 1644.85 716.727   1
   4  -1 -13 4126.60 1077.37   1
   4  -1 -12 10576.0 1687.94   1
   4  -1 -11 8986.16 1496.40   1
   4   1 -11 7222.66 1111.52   1
   4  -1 -10 8894.21 1448.95   1
   4   1 -10 8888.58 1163.94   1
   4  -1  -9 18758.9 2031.49   1
   4   1  -9 20843.3 1718.15   1
   4  -1  -8 10693.2 1487.57   1
   4   1  -8 10756.4 1170.20   1
   4  -1  -7 5320.03 1047.96   1
   4   1  -7 4473.53 725.967   1
   4  -1  -6 4701.70 916.672   1
   4   1  -6 4602.38 707.216   1
   4   1  -5 1348.03 379.441   1
   4  -1  -5 1569.75 535.283   1
   4  -1  -4 8634.09 1155.91   1
   4   1  -4 6492.28 805.431   1
   4   1  -3 3345.83 581.498   1
   4  -1  -3 2638.50 631.243   1
   4  -1  -2 3269.22 692.246   1
   4   1  -2 3482.55 607.132   1
   4   1  -1 646.403 295.312   1
   4  -1  -1 713.169 359.103   1
   4  -1   0 5660.91 880.605   1
   4   1   0 5646.03 828.961   1
   4  -1   1 11159.0 1257.44   1
   4   1   1 8641.69 1072.31   1
   4   1   2 289.461 271.898   1
   4  -1   2 230.405 165.070   1
   4  -1   3 4232.87 833.818   1
   4   1   3 2772.50 685.133   1
   4   1   4 672.470 398.662   1
   4  -1   4 277.170 326.320   1
   4   1   5 106.238 220.250   1
   4  -1   5 461.416 317.949   1
   4  -1   6 665.899 373.185   1
   4  -1   7 529.463 374.799   1
  -4   1  -7 1191.48 930.730   3
  -4   1  -8 2021.97 1232.41   3
   4  -1   8 2131.94 772.023   1
   4  -1   9 4232.53 1110.17   1
  -4   1  -9 2466.61 1420.54   3
  -4   1 -10 3035.86 1311.78   3
  -4   1 -11 1.98283 731.745   3
  -4  -1 -11 2920.03 1376.05   3
  -4  -1 -12 1468.60 1167.32   3
  -4   1 -12 694.361 880.250   3
  -4   1 -13-2057.44 1380.97   3
  -4  -1 -13 1135.35 1131.21   3
  -4  -1 -14 2051.03 1469.29   3
   4  -2 -16 398.980 498.697   1
   4  -2 -15 1489.62 713.305   1
   4  -2 -14 831.288 648.654   1
   4  -2 -13 429.051 386.487   1
   4  -2 -12 14321.8 2104.05   1
   4  -2 -11 8163.44 1568.25   1
   4  -2 -10-53.1913 260.838   1
   4  -2  -9 10402.6 1660.82   1
   4  -2  -8 2095.69 716.848   1
   4   2  -7 1218.12 305.326   1
   4  -2  -7 507.692 382.038   1
   4   2  -6 560.260 206.380   1
   4  -2  -6 506.474 374.070   1
   4  -2  -5 378.864 319.891   1
   4   2  -5 237.143 160.941   1
   4   2  -4 2494.09 431.456   1
   4  -2  -4 1749.48 601.563   1
   4  -2  -3 18791.4 1825.23   1
   4   2  -3 17319.9 1210.62   1
   4  -2  -2 15365.5 1605.65   1
   4   2  -2 15477.6 1218.59   1
   4  -2  -1 251.693 324.779   1
   4   2  -1-51.1051 102.652   1
   4  -2   0 2591.32 657.814   1
   4   2   0 3435.43 657.992   1
   4  -2   1 537.583 296.238   1
   4   2   1 1373.14 471.923   1
   4  -2   2 1757.31 560.414   1
   4   2   2 1256.26 471.167   1
  -4   2  -3 4455.36 1262.79   3
   4  -2   3 2914.82 708.982   1
   4  -2   4 549.612 361.245   1
  -4   2  -4 521.815 739.582   3
  -4   2  -5 10249.0 1898.37   3
   4  -2   5 9013.55 1311.58   1
  -4   2  -6 14681.0 2304.89   3
   4  -2   6 13153.7 1686.18   1
   4  -2   7 3332.68 888.950   1
  -4   2  -7 1389.45 1025.46   3
  -4   2  -8 1921.39 1293.53   3
   4  -2   8 628.863 426.242   1
   4  -2   9 330.930 380.657   1
  -4   2  -9-382.562 647.076   3
  -4   2 -10 2496.14 1441.36   3
   4  -2  10 552.830 441.416   1
  -4   2 -11 1703.79 1358.97   3
  -4   2 -12-350.918 962.578   3
  -4  -2 -12 464.758 766.066   3
   4  -3 -14 2077.10 886.691   1
   4  -3 -13 998.713 648.977   1
   4  -3 -12 1648.26 851.177   1
   4  -3 -11 1672.59 808.704   1
   4  -3 -10 86.4710 318.054   1
   4  -3  -9 462.827 417.078   1
   4  -3  -8 816.591 559.522   1
   4  -3  -7 2328.36 801.733   1
   4  -3  -6 16645.9 2029.73   1
   4  -3  -5 18357.7 2065.70   1
   4  -3  -4 34.8318 212.247   1
   4  -3  -3-183.055 249.064   1
  -4   3   2 1391.08 661.255   3
   4  -3  -2 894.140 416.374   1
   4  -3  -1 152.817 258.171   1
  -4   3   1-180.300 437.129   3
   4  -3   0 2217.09 654.119   1
  -4   3   0 2013.80 839.464   3
  -4   3  -1-299.360 464.160   3
   4  -3   1-22.6747 183.277   1
  -4   3  -2 6540.74 1444.83   3
   4  -3   2 6421.82 1099.78   1
  -4   3  -3 58354.7 4265.96   3
   4  -3   3 58245.4 3294.25   1
  -4   3  -4 2021.50 970.208   3
   4  -3   4 572.559 367.511   1
  -4   3  -5 25707.7 3193.78   3
  -4   3  -5 24599.9 3148.18   2
   4  -3   5 26849.2 2349.75   1
  -4   3  -6 1247.51 1112.84   3
   4  -3   6 974.130 481.301   1
  -4   3  -7 779.830 761.020   3
   4  -3   7 1193.18 564.774   1
  -4   3  -8 2418.12 1365.16   3
   4  -3   8 797.297 471.606   1
   4  -3   9 213.639 290.174   1
  -4   3  -9-977.514 989.112   3
   4  -3  10 635.948 573.949   1
  -4   3 -10 1400.70 1275.93   3
  -4   3 -11 2869.47 1652.93   3
   4  -4 -12 678.739 536.881   1
   4  -4 -11 462.787 489.962   1
   4  -4 -10 624.391 514.107   1
   4  -4  -9 13939.6 2193.44   1
   4  -4  -8 5594.80 1369.74   1
   4  -4  -7 2521.71 903.060   1
   4  -4  -6 324.185 348.981   1
   4  -4  -5 880.351 579.603   1
   4  -4  -4 1945.08 768.271   1
   4  -4  -3 40.5074 257.225   1
   4  -4  -2 4244.72 993.879   1
   4  -4  -1 23478.8 2261.91   1
   4  -4   0 21209.5 2108.99   1
  -4   4  -1 24504.5 2880.85   3
   4  -4   1 25930.2 2340.07   1
  -4   4  -2 11390.8 2141.53   3
   4  -4   2 12481.8 1626.18   1
  -4   4  -3 546.038 791.661   3
  -4   4  -3-455.047 579.206   2
   4  -4   3 435.605 347.451   1
  -4   4  -4 579.939 984.452   3
  -4   4  -4 1102.86 1072.07   2
   4  -4   4 1111.13 535.686   1
   4  -4   5 1671.14 631.488   1
  -4   4  -5 1965.11 1044.44   3
  -4   4  -5 1263.85 912.044   2
  -4   4  -6 16393.3 2941.11   3
   4  -4   6 15845.1 1979.89   1
  -4   4  -7 19795.6 3411.32   3
  -4   4  -8 3733.29 1642.40   3
  -4   4  -9 9814.81 2582.11   3
   4  -5 -10 356.518 410.277   1
   4  -5  -9 1505.16 830.562   1
   4  -5  -8 612.474 551.774   1
   4  -5  -7-104.746 283.857   1
   4  -5  -6 1760.02 774.000   1
   4  -5  -5 684.250 495.628   1
   4  -5  -4 2368.90 839.778   1
   4  -5  -3 24555.4 2601.96   1
   4  -5  -2 24555.7 2548.57   1
   4  -5  -1 3147.00 939.221   1
   4  -5   0 7685.08 1391.94   1
   4  -5   1 8366.69 1432.09   1
  -4   5  -1 8056.99 2373.76   2
  -4   5  -2 5186.43 2005.30   2
  -4   5  -3-276.136 555.628   2
  -4   5  -4-382.258 943.837   3
  -4   5  -4 957.712 868.260   2
  -4   5  -5 1730.01 1283.54   3
  -4   5  -5 467.628 692.087   2
  -4   5  -6 2573.09 1391.86   3
  -4   5  -7 417.908 691.224   3
   4  -6  -6 3130.21 1127.67   1
   4  -6  -5 23791.3 2896.85   1
  -4   6   3 850.059 1033.21   2
  -4   6   2 913.551 1012.04   2
  -4   6   1 823.990 1014.70   2
  -4   6   0 2876.44 1606.02   2
  -4   6  -1 220.340 908.046   2
  -4   6  -2 3784.84 1810.81   2
   5   0 -14 242.974 328.787   1
   5   0 -13-10.3605 286.874   1
   5   0 -12 213.651 356.089   1
   5   0 -11 2169.92 717.600   1
   5   0 -10 119.068 220.577   1
   5   0  -9 1831.03 658.831   1
   5   0  -8 129.977 285.597   1
   5   0  -7 510.263 328.526   1
   5   0  -6 206.896 283.785   1
   5   0  -5 33859.8 2325.64   1
   5   0  -4-26.6204 253.526   1
   5   0  -3 43656.7 2602.92   1
   5   0  -2 35.9980 125.297   1
   5   0  -1 6101.65 973.966   1
   5   0   0 156.971 277.634   1
   5   0   1 980.072 435.114   1
   5   0   2 162.329 278.090   1
   5   0   3-144.123 209.752   1
   5   0   4 167.460 254.073   1
   5   0   5 10127.9 1528.74   1
   5   0   6 303.434 353.093   1
   5   0   7 381.747 363.617   1
   5   0   8-467.639 424.241   1
  -5   0 -10 1487.56 1199.17   3
  -5   0 -11 999.184 1144.62   3
  -5   0 -12 1237.48 1224.14   3
   5  -1 -17 1045.49 758.287   1
   5  -1 -16 1127.65 671.917   1
   5  -1 -15-668.136 528.277   1
   5  -1 -14 449.282 359.978   1
   5  -1 -13 331.244 398.026   1
   5  -1 -12 259.149 334.295   1
   5  -1 -11 1266.38 693.180   1
   5  -1 -10 5252.41 1175.74   1
   5   1 -10 4513.97 878.233   1
   5  -1  -9 938.302 489.650   1
   5   1  -9 998.377 416.062   1
   5  -1  -8 406.531 368.204   1
   5   1  -8 84.1385 152.524   1
   5   1  -7 1083.87 398.567   1
   5  -1  -7 1718.63 637.096   1
   5   1  -6 3221.23 667.981   1
   5  -1  -6 3307.25 848.008   1
   5   1  -5 249.103 203.807   1
   5  -1  -5-259.999 257.341   1
   5  -1  -4 880.991 467.874   1
   5   1  -4 1376.07 427.213   1
   5  -1  -3 8347.27 1218.79   1
   5   1  -3 6955.27 963.783   1
   5  -1  -2 41499.7 2676.17   1
   5   1  -2 39984.8 2346.31   1
   5  -1  -1 24426.4 2057.91   1
   5   1  -1 27345.7 1984.68   1
   5  -1   0 18889.4 1816.94   1
   5   1   0 21389.1 1832.12   1
   5   1   1 1787.53 578.227   1
   5  -1   1 1637.16 551.870   1
   5   1   2 3745.16 845.876   1
   5  -1   2 4731.93 944.718   1
   5  -1   3-372.415 298.364   1
   5   1   3 515.992 473.594   1
   5  -1   4 123.947 243.996   1
   5   1   4 354.656 320.359   1
   5  -1   5 241.762 275.162   1
   5   1   5 123.763 215.235   1
   5  -1   6-58.4682 201.777   1
   5   1   6 570.839 420.606   1
   5  -1   7 3933.04 1037.71   1
   5  -1   8 8282.07 1588.10   1
  -5   1  -8 6777.64 1805.22   3
   5  -1   9 681.307 556.802   1
  -5   1  -9 1258.51 1142.12   3
  -5   1 -10 6227.22 1957.15   3
  -5   1 -11 6857.29 2047.51   3
  -5  -1 -11 7747.17 2007.22   3
  -5  -1 -12 3807.15 1593.05   3
   5  -2 -15 381.699 509.750   1
   5  -2 -14 553.080 501.179   1
   5  -2 -13 8990.32 2317.83   1
   5  -2 -12 2519.38 928.054   1
   5  -2 -11 2841.72 945.778   1
   5  -2 -10 359.576 451.795   1
   5  -2  -9 3767.42 1054.12   1
   5  -2  -8 5040.82 1167.18   1
   5  -2  -7 11693.8 1728.65   1
   5   2  -6 2596.41 511.064   1
   5  -2  -6 2943.77 844.139   1
   5  -2  -5 141.414 255.518   1
   5   2  -5 221.342 168.658   1
   5   2  -4 294.368 216.294   1
   5  -2  -4 121.535 204.860   1
   5  -2  -3 129.565 244.374   1
   5   2  -3 76.2453 139.582   1
   5  -2  -2 294.952 299.620   1
   5   2  -2-3.21401 108.457   1
   5   2  -1 161.719 196.393   1
   5  -2  -1 302.045 364.756   1
   5  -2   0 9487.26 1390.04   1
   5   2   0 11064.7 1339.79   1
   5  -2   1 48645.2 3068.93   1
   5   2   1 49598.2 2994.88   1
   5  -2   2 42748.9 2898.45   1
   5   2   2 33923.4 2628.42   1
   5  -2   3 11293.1 1531.27   1
   5   2   3 11202.0 1571.13   1
   5  -2   4 2191.75 704.286   1
  -5   2  -4 3878.19 1308.83   3
  -5   2  -5 2182.94 1127.35   3
   5  -2   5 2456.21 774.316   1
  -5   2  -6 2856.34 1258.70   3
   5  -2   6 440.672 321.118   1
   5  -2   7 1271.97 587.147   1
  -5   2  -7 1946.24 1082.10   3
  -5   2  -8 3432.25 1481.69   3
   5  -2   8 5289.50 1253.46   1
  -5   2  -9 4438.19 1603.51   3
   5  -2   9 7372.50 1559.58   1
  -5   2 -10 1063.14 1235.77   3
   5  -2  10 1252.22 689.534   1
  -5   2 -11 2915.66 1560.11   3
  -5  -2 -12 3802.16 1554.94   3
   5  -3 -14 7477.36 1772.28   1
   5  -3 -13-228.262 388.159   1
   5  -3 -12 2484.00 981.784   1
   5  -3 -11 1475.89 725.227   1
   5  -3 -10-227.355 364.650   1
   5  -3  -9 172.973 243.480   1
   5  -3  -8 272.345 323.361   1
   5  -3  -7 1258.13 640.125   1
   5  -3  -6 4151.49 1076.61   1
   5  -3  -5 3218.17 934.845   1
   5  -3  -4 12555.7 1761.09   1
   5  -3  -3 3408.22 928.210   1
   5  -3  -2 369.806 316.087   1
  -5   3   2 875.617 625.465   3
   5  -3  -1 81.3878 159.571   1
  -5   3   1 628.104 541.377   3
   5  -3   0 111.817 228.575   1
  -5   3   0 1133.76 844.104   3
  -5   3  -1 759.956 674.493   3
   5  -3   1 712.718 407.740   1
  -5   3  -2 815.514 676.072   3
   5  -3   2 108.897 160.590   1
  -5   3  -3 6829.78 1648.85   3
   5  -3   3 8406.04 1391.43   1
  -5   3  -4 19075.8 2732.39   3
   5  -3   4 27686.0 2560.17   1
  -5   3  -5 39945.9 4150.29   3
   5  -3   5 35291.4 2966.02   1
  -5   3  -6 4356.75 1602.81   3
   5  -3   6 2345.24 813.994   1
  -5   3  -7 158.535 786.661   3
   5  -3   7 1530.08 698.110   1
  -5   3  -8-995.037 1059.35   3
   5  -3   8 388.764 395.006   1
   5  -3   9 1088.60 630.110   1
  -5   3  -9-643.322 1194.54   3
   5  -3  10 53.5944 232.160   1
   5  -4 -11 2022.72 911.524   1
   5  -4 -10 3715.67 1238.89   1
   5  -4  -9 3049.57 1084.32   1
   5  -4  -8 1226.63 703.556   1
   5  -4  -7-110.778 281.129   1
   5  -4  -6-166.966 286.282   1
   5  -4  -5 1237.81 661.043   1
   5  -4  -4-133.206 242.634   1
   5  -4  -3 7398.07 1416.48   1
   5  -4  -2 2611.83 873.782   1
   5  -4  -1 4535.47 1063.23   1
   5  -4   0 5343.61 1163.36   1
   5  -4   1 4274.63 1041.20   1
  -5   4  -2-734.353 663.435   3
   5  -4   2 196.412 254.510   1
  -5   4  -3-341.460 694.867   3
   5  -4   3 431.619 389.387   1
   5  -4   4 205.862 415.465   1
  -5   4  -4-387.326 858.264   3
  -5   4  -4-657.627 665.574   2
  -5   4  -5 1381.94 1035.32   3
   5  -4   5 836.006 530.874   1
  -5   4  -6 4927.19 1816.97   3
   5  -4   6 2622.22 918.109   1
  -5   4  -7 10503.4 2601.33   3
  -5   4  -8 12372.4 2887.96   3
   5  -5  -8 3450.49 1215.29   1
   5  -5  -7 6146.78 1520.49   1
   5  -5  -6 2717.72 987.820   1
   5  -5  -5 29.0013 270.840   1
   5  -5  -4-51.1443 166.387   1
   5  -5  -3 2995.14 976.971   1
   5  -5  -2 10054.8 1719.53   1
   5  -5  -1 6251.00 1341.14   1
   5  -5   0 63.9545 305.901   1
   5  -5   1 1902.30 769.315   1
  -5   5  -2 478.831 553.443   2
  -5   5  -3 1068.92 939.175   2
  -5   5  -4 1623.75 1111.99   2
  -5   5  -6 524.100 1021.23   3
   5  -6  -4 20112.0 2688.21   1
   6   0 -13-71.5686 270.381   1
   6   0 -12 21296.6 2329.46   1
   6   0 -11-30.8817 200.036   1
   6   0 -10 266.069 334.365   1
   6   0  -9 261.421 302.475   1
   6   0  -8 388.767 342.306   1
   6   0  -7 70.4491 283.039   1
   6   0  -6 4898.13 977.813   1
   6   0  -5 106.383 179.900   1
   6   0  -4 210695. 6307.70   1
   6   0  -3-18.2331 238.142   1
   6   0  -2 42033.3 2822.86   1
   6   0  -1 127.197 201.193   1
   6   0   0 5466.41 1055.93   1
   6   0   1-38.4687 216.366   1
   6   0   2-26.6384 185.494   1
   6   0   3 236.353 386.237   1
   6   0   4 13674.0 1862.15   1
   6   0   5-3.31357 239.022   1
   6   0   6 24225.1 2673.85   1
   6   0   7-97.2935 296.218   1
   6   0   8 778.534 542.017   1
  -6   0 -10 1653.15 1211.89   3
   6  -1 -16 1949.63 884.091   1
   6  -1 -15 581.962 545.949   1
   6  -1 -14 2573.52 980.347   1
   6  -1 -13 354.281 452.859   1
   6  -1 -12 2160.76 809.957   1
   6  -1 -11 1660.90 764.507   1
   6  -1 -10 5073.69 1196.85   1
   6   1  -9 1805.25 580.226   1
   6  -1  -9 2885.18 882.787   1
   6   1  -8 13669.1 1535.43   1
   6  -1  -8 12147.9 1754.23   1
   6  -1  -7 46753.5 3365.69   1
   6   1  -7 41829.8 2658.06   1
   6  -1  -6 21539.8 2233.51   1
   6   1  -6 26324.4 2098.96   1
   6  -1  -5 8607.14 1389.47   1
   6   1  -5 6223.33 1013.58   1
   6  -1  -4 476.813 380.469   1
   6   1  -4 413.894 292.525   1
   6  -1  -3-63.6177 159.995   1
   6   1  -3 152.335 185.282   1
   6  -1  -2 26555.6 2367.99   1
   6   1  -2 23032.0 2020.19   1
   6  -1  -1 39822.1 2891.42   1
   6   1  -1 43535.2 2846.27   1
   6  -1   0 28472.3 2458.01   1
   6   1   0 26493.8 2271.05   1
   6   1   1 791.042 480.841   1
   6  -1   1 705.460 404.770   1
   6  -1   2 5477.72 1124.87   1
   6   1   2 4938.02 1070.75   1
   6   1   3 8703.78 1476.79   1
   6  -1   3 11271.0 1649.17   1
   6  -1   4 3690.77 991.360   1
   6   1   4 5226.46 1204.45   1
   6   1   5 306.610 368.699   1
   6  -1   5-290.142 322.754   1
   6  -1   6 918.732 545.288   1
   6   1   6 475.333 449.444   1
   6  -1   7 683.264 550.255   1
   6  -1   8 4325.48 1243.96   1
  -6   1  -8 3696.31 1462.96   3
  -6   1  -9 5760.75 1798.30   3
   6  -1   9 3500.80 1205.42   1
  -6   1 -10 514.107 1032.38   3
   6  -2 -14 291.918 390.915   1
   6  -2 -13 965.387 683.877   1
   6  -2 -12-143.199 310.515   1
   6  -2 -11 759.511 525.922   1
   6  -2 -10 12333.3 2014.36   1
   6  -2  -9 20798.2 2516.99   1
   6  -2  -8 612.381 470.281   1
   6  -2  -7 3635.41 1044.37   1
   6  -2  -6 6217.89 1310.27   1
   6  -2  -5 483.368 411.705   1
   6   2  -5 98.1952 161.407   1
   6  -2  -4 2518.10 812.487   1
   6   2  -4 3499.61 737.241   1
   6  -2  -3 34.5679 313.967   1
   6   2  -3 195.241 259.676   1
   6  -2  -2 1752.53 668.084   1
   6   2  -2 953.112 431.831   1
   6   2  -1 1904.12 619.779   1
   6  -2  -1 1058.51 547.188   1
   6   2   0 3369.68 822.796   1
   6  -2   0 2736.90 811.394   1
   6  -2   1 23378.5 2341.95   1
   6   2   1 26572.8 2425.33   1
   6  -2   2 13398.6 1803.86   1
   6   2   2 16741.8 2031.61   1
   6  -2   3 5163.18 1152.70   1
   6   2   3 7255.60 1405.12   1
   6  -2   4 2160.82 780.055   1
   6   2   4 3015.07 987.633   1
  -6   2  -5 2781.38 1301.90   3
   6  -2   5 445.593 397.374   1
  -6   2  -6 2381.71 1204.46   3
   6  -2   6 470.414 406.294   1
   6  -2   7 3009.09 1006.05   1
  -6   2  -7 5130.67 1683.46   3
  -6   2  -8 2075.69 1369.62   3
   6  -2   8 4669.97 1285.21   1
  -6   2  -9 953.030 1079.20   3
   6  -2   9 2174.55 997.007   1
   6  -3 -12 18620.1 2713.12   1
   6  -3 -11-214.366 380.874   1
   6  -3 -10 560.227 480.615   1
   6  -3  -9 1887.12 826.173   1
   6  -3  -8 307.745 472.208   1
   6  -3  -7 1327.32 732.146   1
   6  -3  -6 101.469 330.526   1
   6  -3  -5 2420.42 888.610   1
   6  -3  -4 637.546 467.535   1
   6  -3  -3 6386.05 1330.11   1
   6  -3  -2 1602.87 690.486   1
   6  -3  -1 2413.80 801.331   1
  -6   3   1 2873.09 994.435   3
  -6   3   0 1433.40 762.640   3
   6  -3   0 501.386 447.323   1
  -6   3  -1 351.875 751.006   3
   6  -3   1-18.7022 205.483   1
  -6   3  -2 2438.90 1208.32   3
   6  -3   2 558.208 478.642   1
  -6   3  -3 951.751 832.920   3
   6  -3   3 149.422 351.289   1
   6  -3   4 8684.42 1565.62   1
  -6   3  -4 9630.12 2088.81   3
  -6   3  -5 1532.10 1117.18   3
   6  -3   5 819.380 518.797   1
  -6   3  -6 8317.84 2072.27   3
   6  -3   6 10426.8 1824.67   1
  -6   3  -7 1404.47 1125.28   3
   6  -3   7 1784.85 778.760   1
  -6   3  -8-163.695 947.130   3
   6  -3   8 325.309 425.214   1
   6  -3   9 428.282 461.303   1
   6  -4 -10 3592.33 1257.83   1
   6  -4  -9 5197.34 1463.27   1
   6  -4  -8 1103.08 635.311   1
   6  -4  -7 55.7901 377.226   1
   6  -4  -6 1796.54 812.016   1
   6  -4  -5 1.33890 204.451   1
   6  -4  -4 1013.49 576.791   1
   6  -4  -3-282.475 342.823   1
   6  -4  -2 492.953 388.790   1
   6  -4  -1 739.310 552.469   1
   6  -4   0 1431.12 659.163   1
   6  -4   1 5165.26 1226.01   1
   6  -4   2 2565.07 897.371   1
  -6   4  -3 8005.84 2098.36   3
   6  -4   3 7091.67 1456.01   1
   6  -4   4 2490.84 905.940   1
  -6   4  -4 1980.47 1149.25   3
  -6   4  -5-862.904 924.477   3
   6  -4   5 1180.02 667.011   1
  -6   4  -6-969.237 1317.92   3
   6  -4   6 362.973 464.313   1
   6  -5  -6 1471.08 781.235   1
   6  -5  -5 838.523 621.834   1
   6  -5  -4 36.3159 257.748   1
   6  -5  -3 1105.31 639.655   1
   6  -5  -2 400.141 439.136   1
   6  -5  -1 651.078 479.773   1
   6  -5   0 3928.23 1148.89   1
   6  -5   1 2555.63 940.612   1
  -6   5  -2 697.709 750.559   2
   6  -5   2 180.063 339.932   1
   7   0 -12-406.057 407.886   1
   7   0 -11 1277.95 631.431   1
   7   0 -10 86.9559 326.544   1
   7   0  -9 5949.44 1222.49   1
   7   0  -8-23.7483 308.143   1
   7   0  -7 1251.01 628.154   1
   7   0  -6-6.66548 155.802   1
   7   0  -5 2108.75 709.077   1
   7   0  -4 118.345 195.603   1
   7   0  -3 29264.7 2596.74   1
   7   0  -2 7.42454 216.605   1
   7   0  -1 1089.08 559.162   1
   7   0   0 467.712 368.521   1
   7   0   1 252.478 273.412   1
   7   0   2-172.771 273.180   1
   7   0   3 503.257 382.359   1
   7   0   4-420.632 408.311   1
   7   0   5 2468.43 892.438   1
   7   0   6 200.612 553.356   1
   7   0   7 6315.71 1564.89   1
   7   0   8-113.000 287.669   1
   7  -1 -15 50.6442 303.077   1
   7  -1 -14 720.926 544.856   1
   7  -1 -13-23.6754 283.149   1
   7  -1 -12 1272.25 645.667   1
   7  -1 -11-37.6086 409.924   1
   7  -1 -10 1216.18 661.483   1
   7  -1  -9 40.8438 259.280   1
   7  -1  -8 1229.14 666.954   1
   7   1  -8 361.642 379.820   1
   7  -1  -7 7139.87 1437.35   1
   7   1  -7 6511.42 1159.68   1
   7  -1  -6 33595.9 2993.26   1
   7   1  -6 31875.2 2534.18   1
   7  -1  -5 3728.96 1004.63   1
   7   1  -5 6036.26 1119.01   1
   7  -1  -4 221.967 355.916   1
   7   1  -4 154.167 267.649   1
   7  -1  -3 264.049 347.348   1
   7   1  -3-201.818 228.447   1
   7   1  -2 98.8037 204.202   1
   7  -1  -2 156.537 366.950   1
   7   1  -1 388.144 328.786   1
   7  -1  -1 208.021 309.462   1
   7   1   0 203.353 301.867   1
   7  -1   0-110.426 293.926   1
   7  -1   1 121.566 208.221   1
   7   1   1 508.531 388.337   1
   7   1   2 8501.98 1531.99   1
   7  -1   2 5829.42 1274.62   1
   7  -1   3 694.939 507.359   1
   7   1   3 428.136 339.088   1
   7  -1   4 51.6746 255.660   1
   7   1   4-75.7724 246.766   1
   7   1   5-238.649 335.120   1
   7  -1   5 508.750 470.116   1
   7  -1   6-180.151 336.070   1
   7   1   6 951.014 621.089   1
   7  -1   7 226.798 325.457   1
   7  -1   8 493.764 517.536   1
   7  -2 -13 826.767 612.783   1
   7  -2 -12-657.019 554.975   1
   7  -2 -11 60.9923 364.175   1
   7  -2 -10 11004.3 1960.55   1
   7  -2  -9 25797.4 3012.10   1
   7  -2  -8 13585.2 2125.23   1
   7  -2  -7 1140.71 656.296   1
   7  -2  -6 649.617 507.138   1
   7  -2  -5 1266.89 656.286   1
   7  -2  -4 202.019 284.761   1
   7  -2  -3 2902.72 921.945   1
   7   2  -3 1872.40 635.091   1
   7  -2  -2 2437.69 884.021   1
   7   2  -2 1754.63 610.701   1
   7   2  -1 4676.94 1048.68   1
   7  -2  -1 2750.36 887.351   1
   7   2   0 3416.80 958.538   1
   7  -2   0 3705.29 1024.56   1
   7   2   1 5488.41 1235.64   1
   7  -2   1 4123.67 1080.22   1
   7  -2   2 257.792 498.281   1
   7   2   2 1093.16 622.912   1
   7  -2   3 1727.81 725.226   1
   7   2   3 956.946 577.323   1
   7  -2   4 3672.49 1097.89   1
   7   2   4 3042.05 1038.94   1
  -7   2  -5 949.273 1066.19   3
   7  -2   5 654.000 493.606   1
  -7   2  -6 2201.52 1188.56   3
   7  -2   6 398.019 413.962   1
   7  -2   7 1024.54 675.928   1
  -7   2  -7 1663.58 1286.37   3
   7  -3 -11 11891.6 2218.25   1
   7  -3 -10 2305.10 981.544   1
   7  -3  -9 242.714 443.886   1
   7  -3  -8 3947.45 1235.34   1
   7  -3  -7 681.986 579.295   1
   7  -3  -6 671.051 483.687   1
   7  -3  -5 111.170 291.296   1
   7  -3  -4 2788.89 952.494   1
   7  -3  -3 2309.67 866.287   1
   7  -3  -2 7469.53 1511.98   1
   7  -3  -1 2101.28 837.067   1
  -7   3   0 2140.21 1129.66   3
   7  -3   0 288.654 378.614   1
  -7   3  -1 1373.32 964.945   3
   7  -3   1-185.130 298.891   1
  -7   3  -2 557.204 892.946   3
   7  -3   2-8.78009 227.332   1
   7  -3   3 95.5832 266.828   1
  -7   3  -3 1116.64 1039.82   3
   7  -3   4 261.627 402.116   1
  -7   3  -4 2837.13 1341.77   3
  -7   3  -5 1027.69 1098.23   3
   7  -3   5-348.278 395.568   1
  -7   3  -6 5905.19 1923.26   3
   7  -3   6 7538.07 1684.78   1
   7  -4  -7 529.404 622.232   1
   7  -4  -6 1586.49 810.138   1
   7  -4  -5 10121.5 1929.93   1
   7  -4  -4 180.275 516.860   1
   7  -4  -3-61.0886 283.814   1
   7  -4  -2 27.7132 214.296   1
   7  -4  -1 2.73499 313.468   1
   7  -4   0 1290.95 673.855   1
   7  -4   1 1602.28 776.103   1
   7  -4   2 16.4443 217.614   1
   7  -4   3 2617.22 934.202   1
   8   0 -10 1340.91 632.892   1
   8   0  -9 167.003 286.936   1
   8   0  -8 2380.88 859.709   1
   8   0  -7-424.493 384.549   1
   8   0  -6 177.384 263.593   1
   8   0  -5 53.0403 204.710   1
   8   0  -4 1359.21 625.280   1
   8   0  -3 564.140 412.059   1
   8   0  -2 24635.0 2616.41   1
   8   0  -1-236.030 291.965   1
   8   0   0 9855.66 1720.56   1
   8   0   1 397.016 448.703   1
   8   0   2 670.954 481.099   1
   8   0   3 222.913 334.952   1
   8   0   4 95.2743 263.228   1
   8   0   5 221.857 393.016   1
   8  -1 -13 1437.65 732.397   1
   8  -1 -12 553.707 471.415   1
   8  -1 -11 1260.61 686.153   1
   8  -1 -10 35.9975 390.207   1
   8  -1  -9 480.439 490.408   1
   8  -1  -8 361.526 405.109   1
   8  -1  -7 1224.49 659.628   1
   8  -1  -6 530.690 479.092   1
   8   1  -6 44.0184 177.531   1
   8  -1  -5 859.465 563.322   1
   8   1  -5-128.946 215.021   1
   8   1  -4 6634.45 1297.75   1
   8  -1  -4 6669.00 1430.76   1
   8   1  -3 1507.10 644.905   1
   8  -1  -3 924.308 525.097   1
   8   1  -2 1.08059 112.804   1
   8  -1  -2 130.164 264.297   1
   8   1  -1 158.910 288.307   1
   8  -1  -1 21.9234 212.781   1
   8  -1   0 5083.68 1269.24   1
   8   1   0 6017.58 1334.37   1
   8  -1   1 10387.9 1812.62   1
   8   1   1 8886.55 1666.59   1
   8   1   2 4999.24 1282.68   1
   8  -1   2 5706.33 1392.78   1
   8  -1   3 382.911 512.091   1
   8   1   3 1361.54 767.434   1
   8   1   4 8374.97 1798.64   1
   8  -1   4 9010.21 1807.41   1
   8  -1   5 12562.3 2208.47   1
   8   1   5 11538.8 2161.54   1
   8  -2 -11 176.054 374.845   1
   8  -2 -10 1394.94 845.047   1
   8  -2  -9 1395.71 763.763   1
   8  -2  -8 965.871 662.553   1
   8  -2  -7-213.465 347.572   1
   8  -2  -6 2319.84 936.535   1
   8  -2  -5 1291.19 684.589   1
   8  -2  -4 2596.01 959.813   1
   8  -2  -3 1476.43 720.471   1
   8  -2  -2 208.501 300.083   1
   8   2  -2-343.163 358.223   1
   8   2  -1 265.197 300.506   1
   8  -2  -1 566.982 574.570   1
   8   2   0 871.568 584.547   1
   8  -2   0 992.321 659.786   1
   8  -2   1 2735.09 984.376   1
   8   2   1 1241.02 653.929   1
   8  -2   2 1381.39 719.617   1
   8   2   2 3754.87 1160.63   1
   8  -2   3 9694.20 1869.50   1
   8   2   3 10783.5 1993.41   1
   8  -2   4 4866.13 1353.18   1
   8   2   4 5279.52 1463.00   1
   8  -3  -8 622.887 642.052   1
   8  -3  -7 727.013 576.107   1
   8  -3  -6 194.782 298.924   1
   8  -3  -5-140.559 346.168   1
   8  -3  -4-5.97321 386.605   1
   8  -3  -3 3778.64 1154.78   1
   8  -3  -2 3536.96 1152.22   1
   8  -3  -1 1531.24 762.788   1
   8  -3   0 2218.01 861.155   1
   8  -3   1 277.589 337.149   1
  -8   3  -2 1691.02 1129.49   3
  -8   3  -3 343.446 805.405   3
   9   0  -9 13101.0 2060.31   1
   9   0  -8-567.161 464.426   1
   9   0  -7-385.607 397.187   1
   9   0  -6-145.981 323.765   1
   9   0  -5 1865.11 757.611   1
   9   0  -4-86.0009 224.651   1
   9   0  -3 3379.51 1047.10   1
   9   0  -2-59.4722 283.042   1
   9   0  -1 18221.0 2501.69   1
   9   0   0 415.852 501.532   1
   9   0   1 1102.26 701.803   1
   9   0   2-657.782 546.425   1
   9  -1 -10 160.567 444.012   1
   9  -1  -9 762.741 506.615   1
   9  -1  -8 784.163 580.711   1
   9  -1  -7 5051.72 1360.51   1
   9  -1  -6 7401.22 1629.21   1
   9   1  -5 923.541 526.086   1
   9  -1  -5 586.377 611.972   1
   9   1  -4 6824.50 1426.57   1
   9  -1  -4 6828.83 1568.90   1
   9   1  -3 3000.84 965.696   1
   9  -1  -3 5480.00 1388.69   1
   9   1  -2 222.990 457.834   1
   9  -1  -2 144.751 401.302   1
   9  -1  -1 11.6553 204.794   1
   9   1  -1-122.066 275.665   1
   9  -1   0-397.009 436.297   1
   9   1   0 419.996 452.365   1
   9   1   1-225.396 382.592   1
   9  -1   1 474.303 456.435   1
   9   1   2 2070.93 932.078   1
   9  -2  -6 2117.23 967.588   1
   9  -2  -5 8685.27 1843.23   1
   9  -2  -4 4010.25 1290.44   1
   9  -2  -3 2531.82 1011.79   1
   9  -2  -2 816.414 684.806   1
   9   2   1 12749.9 2226.19   1
   9   2   2 13955.3 2407.28   1
  10   0  -7-441.221 461.274   1
  10   0  -6 1586.91 747.327   1
  10   0  -5-27.2563 339.023   1
   0   0   0    0.00    0.00   0
TITL ml023b in P2(1)/n
REM P2(1)/n (#14 in standard setting)
CELL 0.71073   7.084194   4.981980  12.617261  90.0000 103.0360  90.0000
ZERR    2.00   0.001118   0.000694   0.002230   0.0000   0.0163   0.0000
LATT  1
SYMM -x+1/2, y+1/2,-z+1/2
SFAC C H N
UNIT 22.00 16.00 2.00
TREF
HKLF 4
END
;
_shelx_hkl_checksum              87075
loop_
_space_group_symop_operation_xyz
'x, y, z'
'-x+1/2, y+1/2, -z+1/2'
'-x, -y, -z'
'x-1/2, -y-1/2, z-1/2'
loop_
_atom_site_label
_atom_site_type_symbol
_atom_site_fract_x
_atom_site_fract_y
_atom_site_fract_z
_atom_site_U_iso_or_equiv
_atom_site_adp_type
_atom_site_occupancy
_atom_site_site_symmetry_order
_atom_site_calc_flag
_atom_site_refinement_flags_posn
_atom_site_refinement_flags_adp
_atom_site_refinement_flags_occupancy
_atom_site_disorder_assembly
_atom_site_disorder_group
N1 N 0.1979(3) 0.0596(4) 0.04799(17) 0.0184(6) Uani 0.87(3) 1 d . . P A 1
C1 C 0.1979(3) 0.0596(4) 0.04799(17) 0.0184(6) Uani 0.13(3) 1 d . . P A 2
H1 H 0.3295 0.0995 0.0800 0.022 Uiso 0.13(3) 1 calc R U P A 2
C2 C 0.1477(3) -0.1311(5) -0.0290(2) 0.0178(6) Uani 1 1 d . . . . .
C3 C 0.2958(3) -0.2781(5) -0.0634(2) 0.0217(6) Uani 1 1 d . . . . .
H3 H 0.4282 -0.2401 -0.0324 0.026 Uiso 1 1 calc R U . . .
C4 C 0.2484(4) -0.4718(5) -0.1402(2) 0.0230(6) Uani 1 1 d . . . . .
H4 H 0.3484 -0.5703 -0.1617 0.028 Uiso 1 1 calc R U . . .
C5 C 0.0509(3) 0.1904(5) 0.0770(2) 0.0179(6) Uani 1 1 d . . . . .
C6 C 0.0939(3) 0.3948(5) 0.1578(2) 0.0228(6) Uani 1 1 d . . . . .
H6 H 0.2251 0.4370 0.1900 0.027 Uiso 1 1 calc R U . . .
C7 C -0.0514(4) 0.5301(5) 0.1892(2) 0.0233(6) Uani 1 1 d . . . . .
H7 H -0.0211 0.6640 0.2440 0.028 Uiso 1 1 calc R U . . .
loop_
_atom_site_aniso_label
_atom_site_aniso_U_11
_atom_site_aniso_U_22
_atom_site_aniso_U_33
_atom_site_aniso_U_23
_atom_site_aniso_U_13
_atom_site_aniso_U_12
N1 0.0153(10) 0.0173(12) 0.0227(12) 0.0014(9) 0.0043(9) 0.0008(8)
C1 0.0153(10) 0.0173(12) 0.0227(12) 0.0014(9) 0.0043(9) 0.0008(8)
C2 0.0185(12) 0.0151(13) 0.0202(13) 0.0039(10) 0.0052(10) -0.0003(9)
C3 0.0170(12) 0.0213(14) 0.0274(15) 0.0031(11) 0.0063(11) 0.0008(10)
C4 0.0226(12) 0.0207(13) 0.0289(15) 0.0014(12) 0.0124(11) 0.0030(11)
C5 0.0167(11) 0.0172(13) 0.0188(12) 0.0026(10) 0.0020(10) -0.0005(9)
C6 0.0194(12) 0.0236(14) 0.0245(14) 0.0016(11) 0.0032(11) -0.0019(10)
C7 0.0282(13) 0.0176(13) 0.0244(14) -0.0024(11) 0.0063(11) -0.0019(10)
loop_
_atom_type_symbol
_atom_type_description
_atom_type_scat_dispersion_real
_atom_type_scat_dispersion_imag
_atom_type_scat_source
C C 0.0033 0.0016 'International Tables Vol C Tables 4.2.6.8 and 6.1.1.4'
H H 0.0000 0.0000 'International Tables Vol C Tables 4.2.6.8 and 6.1.1.4'
N N 0.0061 0.0033 'International Tables Vol C Tables 4.2.6.8 and 6.1.1.4'
loop_
_geom_angle_atom_site_label_1
_geom_angle_atom_site_label_2
_geom_angle_atom_site_label_3
_geom_angle
_geom_angle_site_symmetry_3
C5 N1 C2 116.3(2) .
N1 C2 C3 119.3(2) .
N1 C2 C5 121.6(2) 3
C3 C2 C5 119.1(2) 3
C4 C3 C2 120.2(2) .
C3 C4 C7 121.1(2) 3
N1 C5 C6 119.1(2) .
N1 C5 C2 122.1(2) 3
C6 C5 C2 118.8(2) 3
C7 C6 C5 120.6(2) .
C6 C7 C4 120.3(2) 3
loop_
_geom_bond_atom_site_label_1
_geom_bond_atom_site_label_2
_geom_bond_distance
_geom_bond_site_symmetry_2
N1 C5 1.347(3) .
N1 C2 1.348(3) .
C2 C3 1.425(3) .
C2 C5 1.431(3) 3
C3 C4 1.355(3) .
C4 C7 1.423(3) 3
C5 C6 1.424(3) .
C5 C2 1.431(3) 3
C6 C7 1.362(3) .
C7 C4 1.423(3) 3
