#------------------------------------------------------------------------------
#$Date: 2016-02-13 14:50:18 +0200 (Sat, 13 Feb 2016) $
#$Revision: 176428 $
#$URL: svn://www.crystallography.net/cod/cif/4/51/33/4513396.cif $
#------------------------------------------------------------------------------
#
# This file is available in the Crystallography Open Database (COD),
# http://www.crystallography.net/
#
# All data on this site have been placed in the public domain by the
# contributors.
#
data_4513396
loop_
_publ_author_name
'George, Fanny'
'Norberg, Bernadette'
'Wouters, Johan'
'Leyssens, Tom'
_publ_section_title
;
 Structural Investigation of Substituent Effect on Hydrogen Bonding in
 (S)-Phenylglycine Amide Benzaldimines
;
_journal_issue                   8
_journal_name_full               'Crystal Growth &amp; Design'
_journal_page_first              4005
_journal_paper_doi               10.1021/acs.cgd.5b00621
_journal_volume                  15
_journal_year                    2015
_chemical_absolute_configuration rm
_chemical_formula_moiety         'C15 H13 Br N2 O'
_chemical_formula_sum            'C15 H13 Br N2 O'
_chemical_formula_weight         317.18
_chemical_name_systematic
;
 ?
;
_space_group_IT_number           4
_symmetry_cell_setting           monoclinic
_symmetry_space_group_name_Hall  'P 2yb'
_symmetry_space_group_name_H-M   'P 1 21 1'
_atom_sites_solution_hydrogens   geom
_atom_sites_solution_primary     direct
_atom_sites_solution_secondary   difmap
_audit_creation_method           SHELXL-97
_cell_angle_alpha                90.00
_cell_angle_beta                 98.867(6)
_cell_angle_gamma                90.00
_cell_formula_units_Z            2
_cell_length_a                   6.7098(4)
_cell_length_b                   8.0495(4)
_cell_length_c                   13.1003(8)
_cell_measurement_reflns_used    1391
_cell_measurement_temperature    293(2)
_cell_measurement_theta_max      29.0828
_cell_measurement_theta_min      3.6552
_cell_volume                     699.10(7)
_computing_cell_refinement
;
CrysAlisPro, Agilent Technologies,
Version 1.171.35.21 (release 20-01-2012 CrysAlis171 .NET)
(compiled Jan 23 2012,18:06:46)
;
_computing_data_collection
;
CrysAlisPro, Agilent Technologies,
Version 1.171.35.21 (release 20-01-2012 CrysAlis171 .NET)
(compiled Jan 23 2012,18:06:46)
;
_computing_data_reduction
;
CrysAlisPro, Agilent Technologies,
Version 1.171.35.21 (release 20-01-2012 CrysAlis171 .NET)
(compiled Jan 23 2012,18:06:46)
;
_computing_structure_refinement  'SHELXL-97 (Sheldrick, 1997)'
_computing_structure_solution    Sir2004
_diffrn_ambient_temperature      293(2)
_diffrn_detector_area_resol_mean 10.3712
_diffrn_measured_fraction_theta_full 0.996
_diffrn_measured_fraction_theta_max 0.996
_diffrn_measurement_device_type  'Xcalibur, Ruby, Gemini ultra'
_diffrn_measurement_method       '\w scans'
_diffrn_radiation_monochromator  graphite
_diffrn_radiation_source         'fine-focus sealed tube'
_diffrn_radiation_type           MoK\a
_diffrn_radiation_wavelength     0.71073
_diffrn_reflns_av_R_equivalents  0.0275
_diffrn_reflns_av_sigmaI/netI    0.0369
_diffrn_reflns_limit_h_max       7
_diffrn_reflns_limit_h_min       -7
_diffrn_reflns_limit_k_max       6
_diffrn_reflns_limit_k_min       -9
_diffrn_reflns_limit_l_max       11
_diffrn_reflns_limit_l_min       -15
_diffrn_reflns_number            2959
_diffrn_reflns_theta_full        25.00
_diffrn_reflns_theta_max         25.02
_diffrn_reflns_theta_min         3.66
_exptl_absorpt_coefficient_mu    2.933
_exptl_absorpt_correction_T_max  0.7017
_exptl_absorpt_correction_T_min  0.3866
_exptl_absorpt_correction_type   multi-scan
_exptl_absorpt_process_details
;
CrysAlisPro, Agilent Technologies,
Version 1.171.35.21 (release 20-01-2012 CrysAlis171 .NET)
(compiled Jan 23 2012,18:06:46)
Empirical absorption correction using spherical harmonics,
 implemented in SCALE3 ABSPACK scaling algorithm.
;
_exptl_crystal_colour            colorless
_exptl_crystal_density_diffrn    1.507
_exptl_crystal_density_method    'not measured'
_exptl_crystal_description       prism
_exptl_crystal_F_000             320
_exptl_crystal_size_max          0.40
_exptl_crystal_size_mid          0.20
_exptl_crystal_size_min          0.13
_refine_diff_density_max         0.538
_refine_diff_density_min         -0.310
_refine_diff_density_rms         0.060
_refine_ls_abs_structure_details 'Flack H D (1983), Acta Cryst. A39, 876-881'
_refine_ls_abs_structure_Flack   -0.035(17)
_refine_ls_extinction_method     none
_refine_ls_goodness_of_fit_ref   1.060
_refine_ls_hydrogen_treatment    mixed
_refine_ls_matrix_type           full
_refine_ls_number_parameters     180
_refine_ls_number_reflns         1915
_refine_ls_number_restraints     1
_refine_ls_restrained_S_all      1.059
_refine_ls_R_factor_all          0.0520
_refine_ls_R_factor_gt           0.0446
_refine_ls_shift/su_max          0.000
_refine_ls_shift/su_mean         0.000
_refine_ls_structure_factor_coef Fsqd
_refine_ls_weighting_details
'calc w=1/[\s^2^(Fo^2^)+(0.0702P)^2^+0.0000P] where P=(Fo^2^+2Fc^2^)/3'
_refine_ls_weighting_scheme      calc
_refine_ls_wR_factor_gt          0.1099
_refine_ls_wR_factor_ref         0.1178
_reflns_number_gt                1681
_reflns_number_total             1915
_reflns_threshold_expression     >2sigma(I)
_iucr_refine_instructions_details
;
TITL bn_TLFG-NC18MET in P2(1)
CELL  0.71073   6.7098   8.0495  13.1003   90.000   98.867   90.000
ZERR     2.00   0.0004   0.0004   0.0008    0.000    0.006    0.000
LATT  -1
SYMM  - X, 1/2 + Y, - Z
SFAC  C    H    N    O    BR
UNIT  30   26   4    2    2
MERG   2
SHEL 99 0.84
FMAP   2
PLAN   10
ACTA    50.00
HTAB    2.00000
BOND   $H
CONF
L.S.  10
SIZE 0.13 0.20 0.4
TEMP    20.00
WGHT    0.070200
FVAR       9.43308
C1    1    0.300912    0.853846    0.271542    11.00000    0.05212    0.02958 =
         0.03922   -0.00599    0.00653   -0.00317
C2    1    0.434482    0.880870    0.201165    11.00000    0.05725    0.04540 =
         0.05623   -0.00314    0.01480    0.00040
AFIX  43
H2    2    0.563149    0.834955    0.213309    11.00000   -1.20000
AFIX   0
C3    1    0.376244    0.975326    0.113811    11.00000    0.07829    0.05699 =
         0.05509    0.00543    0.02583   -0.00089
AFIX  43
H3    2    0.465729    0.995024    0.067561    11.00000   -1.20000
AFIX   0
C4    1    0.186738    1.039235    0.096112    11.00000    0.09441    0.03040 =
         0.04224    0.00322    0.00460    0.00131
C5    1    0.050236    1.014174    0.162760    11.00000    0.07205    0.04047 =
         0.04713   -0.00348   -0.00045    0.00841
AFIX  43
H5    2   -0.078313    1.060089    0.149196    11.00000   -1.20000
AFIX   0
C6    1    0.107310    0.920012    0.249791    11.00000    0.06135    0.03837 =
         0.05009   -0.00393    0.01121   -0.00260
AFIX  43
H6    2    0.015426    0.900194    0.294779    11.00000   -1.20000
AFIX   0
C7    1    0.365038    0.753719    0.364684    11.00000    0.04525    0.02918 =
         0.04642   -0.00701    0.00813   -0.00655
AFIX  43
H7    2    0.476577    0.684499    0.366820    11.00000   -1.20000
AFIX   0
C8    1    0.341259    0.644340    0.526454    11.00000    0.04448    0.03693 =
         0.04457    0.00294    0.00910    0.00637
AFIX  13
H8    2    0.459725    0.584908    0.509954    11.00000   -1.20000
AFIX   0
C9    1    0.177248    0.516861    0.536933    11.00000    0.04779    0.02836 =
         0.04044   -0.00332    0.00994    0.00353
C10   1    0.403665    0.739917    0.626930    11.00000    0.05212    0.02749 =
         0.04687    0.00675    0.00630    0.00243
C11   1    0.605025    0.781035    0.657928    11.00000    0.05481    0.03400 =
         0.05441    0.00343    0.00777    0.00003
AFIX  43
H11   2    0.701097    0.747321    0.618112    11.00000   -1.20000
AFIX   0
C12   1    0.663846    0.870498    0.746282    11.00000    0.07254    0.04250 =
         0.07059    0.00542   -0.00754   -0.00893
AFIX  43
H12   2    0.799279    0.896434    0.766369    11.00000   -1.20000
AFIX   0
C13   1    0.525653    0.921120    0.804286    11.00000    0.10258    0.04363 =
         0.04820   -0.00634    0.00211   -0.00370
AFIX  43
H13   2    0.566193    0.982843    0.863882    11.00000   -1.20000
AFIX   0
C14   1    0.325462    0.882097    0.775900    11.00000    0.08667    0.07123 =
         0.06169   -0.01501    0.02162    0.00676
AFIX  43
H14   2    0.230603    0.917393    0.816001    11.00000   -1.20000
AFIX   0
C15   1    0.266248    0.790643    0.687939    11.00000    0.05400    0.05930 =
         0.05776   -0.00984    0.01685    0.00068
AFIX  43
H15   2    0.131014    0.762684    0.669456    11.00000   -1.20000
AFIX   0
N1    3    0.273028    0.758834    0.442123    11.00000    0.04598    0.03122 =
         0.04416    0.00253    0.00583    0.00040
N2    3   -0.012121    0.558233    0.500115    11.00000    0.04728    0.03561 =
         0.06743    0.00754    0.00370   -0.00221
H2B   2   -0.043133    0.652200    0.469317    11.00000    0.05550
H2A   2   -0.099305    0.486689    0.510323    11.00000    0.07413
O1    4    0.222223    0.383679    0.580445    11.00000    0.05537    0.02614 =
         0.06755    0.00591    0.00982    0.00116
BR1   5    0.105383    1.172959   -0.023182    11.00000    0.14912    0.06472 =
         0.05476    0.01663    0.00856    0.02260
 
HKLF    4
 
REM  bn_TLFG-NC18MET in P2(1)
REM R1 =  0.0446 for   1681 Fo > 4sig(Fo)  and  0.0520 for all   1915 data
REM    180 parameters refined using      1 restraints
 
END
 
WGHT      0.0701      0.0000
REM Highest difference peak  0.538,  deepest hole -0.310,  1-sigma level  0.060
Q1    1   0.1546  1.1779  0.0556  11.00000  0.05    0.54
Q2    1   0.0668  1.1732 -0.0932  11.00000  0.05    0.54
Q3    1   0.0027  1.2312  0.0030  11.00000  0.05    0.35
Q4    1  -0.0704  1.1834 -0.0834  11.00000  0.05    0.23
Q5    1   0.2465  0.7463  0.3780  11.00000  0.05    0.21
Q6    1   0.4300  0.7508  0.6735  11.00000  0.05    0.20
Q7    1   0.1752  0.6787  0.2226  11.00000  0.05    0.19
Q8    1   0.3807  0.7586  0.4317  11.00000  0.05    0.19
Q9    1   0.5426  0.7206  0.3470  11.00000  0.05    0.18
Q10   1   0.4039  0.9466  0.0397  11.00000  0.05    0.18
;
_cod_data_source_file            cg5b00621_si_001.cif
_cod_data_source_block           p-Br
_cod_depositor_comments
'Adding full bibliography for 4513392--4513414.cif.'
_cod_original_sg_symbol_H-M      'P 21'
_cod_database_code               4513396
loop_
_symmetry_equiv_pos_as_xyz
'x, y, z'
'-x, y+1/2, -z'
loop_
_atom_site_label
_atom_site_type_symbol
_atom_site_fract_x
_atom_site_fract_y
_atom_site_fract_z
_atom_site_U_iso_or_equiv
_atom_site_adp_type
_atom_site_occupancy
_atom_site_symmetry_multiplicity
_atom_site_calc_flag
_atom_site_refinement_flags
C1 C 0.3009(6) 0.8538(6) 0.2715(4) 0.0404(11) Uani 1 1 d .
C2 C 0.4345(8) 0.8809(8) 0.2012(5) 0.0523(14) Uani 1 1 d .
H2 H 0.5631 0.8350 0.2133 0.063 Uiso 1 1 calc R
C3 C 0.3762(9) 0.9753(8) 0.1138(4) 0.0618(15) Uani 1 1 d .
H3 H 0.4657 0.9950 0.0676 0.074 Uiso 1 1 calc R
C4 C 0.1867(9) 1.0392(7) 0.0961(4) 0.0563(13) Uani 1 1 d .
C5 C 0.0502(8) 1.0142(7) 0.1628(4) 0.0542(13) Uani 1 1 d .
H5 H -0.0783 1.0601 0.1492 0.065 Uiso 1 1 calc R
C6 C 0.1073(7) 0.9200(7) 0.2498(4) 0.0497(12) Uani 1 1 d .
H6 H 0.0154 0.9002 0.2948 0.060 Uiso 1 1 calc R
C7 C 0.3650(6) 0.7537(6) 0.3647(3) 0.0402(10) Uani 1 1 d .
H7 H 0.4766 0.6845 0.3668 0.048 Uiso 1 1 calc R
C8 C 0.3413(6) 0.6443(6) 0.5265(3) 0.0418(12) Uani 1 1 d .
H8 H 0.4597 0.5849 0.5100 0.050 Uiso 1 1 calc R
C9 C 0.1772(6) 0.5169(6) 0.5369(4) 0.0385(10) Uani 1 1 d .
C10 C 0.4037(7) 0.7399(6) 0.6269(4) 0.0423(11) Uani 1 1 d .
C11 C 0.6050(7) 0.7810(7) 0.6579(4) 0.0478(11) Uani 1 1 d .
H11 H 0.7011 0.7473 0.6181 0.057 Uiso 1 1 calc R
C12 C 0.6638(9) 0.8705(8) 0.7463(5) 0.0638(16) Uani 1 1 d .
H12 H 0.7993 0.8964 0.7664 0.077 Uiso 1 1 calc R
C13 C 0.5257(10) 0.9211(8) 0.8043(5) 0.0658(17) Uani 1 1 d .
H13 H 0.5662 0.9828 0.8639 0.079 Uiso 1 1 calc R
C14 C 0.3255(9) 0.8821(9) 0.7759(5) 0.0721(18) Uani 1 1 d .
H14 H 0.2306 0.9174 0.8160 0.087 Uiso 1 1 calc R
C15 C 0.2662(7) 0.7906(8) 0.6879(4) 0.0562(14) Uani 1 1 d .
H15 H 0.1310 0.7627 0.6695 0.067 Uiso 1 1 calc R
N1 N 0.2730(5) 0.7588(5) 0.4421(3) 0.0406(9) Uani 1 1 d .
N2 N -0.0121(7) 0.5582(7) 0.5001(4) 0.0506(11) Uani 1 1 d .
H2B H -0.043(7) 0.652(10) 0.469(4) 0.056(16) Uiso 1 1 d .
H2A H -0.099(8) 0.487(11) 0.510(4) 0.07(2) Uiso 1 1 d .
O1 O 0.2222(5) 0.3837(4) 0.5804(3) 0.0497(8) Uani 1 1 d .
Br1 Br 0.10538(11) 1.17296(12) -0.02318(4) 0.0903(3) Uani 1 1 d .
loop_
_atom_site_aniso_label
_atom_site_aniso_U_11
_atom_site_aniso_U_22
_atom_site_aniso_U_33
_atom_site_aniso_U_23
_atom_site_aniso_U_13
_atom_site_aniso_U_12
C1 0.052(2) 0.030(3) 0.039(2) -0.006(2) 0.007(2) -0.003(2)
C2 0.057(3) 0.045(3) 0.056(3) -0.003(3) 0.015(2) 0.000(3)
C3 0.078(3) 0.057(4) 0.055(3) 0.005(3) 0.026(3) -0.001(3)
C4 0.094(4) 0.030(3) 0.042(3) 0.003(2) 0.005(3) 0.001(3)
C5 0.072(3) 0.040(3) 0.047(3) -0.003(3) 0.000(2) 0.008(3)
C6 0.061(3) 0.038(3) 0.050(3) -0.004(3) 0.011(2) -0.003(2)
C7 0.045(2) 0.029(3) 0.046(2) -0.007(2) 0.0081(18) -0.0065(19)
C8 0.044(2) 0.037(4) 0.045(2) 0.003(2) 0.0091(18) 0.006(2)
C9 0.048(3) 0.028(3) 0.040(2) -0.003(2) 0.010(2) 0.004(2)
C10 0.052(2) 0.027(2) 0.047(3) 0.007(2) 0.006(2) 0.0024(19)
C11 0.055(3) 0.034(3) 0.054(3) 0.003(3) 0.008(2) 0.000(2)
C12 0.073(3) 0.043(3) 0.071(4) 0.005(3) -0.008(3) -0.009(3)
C13 0.103(5) 0.044(4) 0.048(4) -0.006(3) 0.002(3) -0.004(3)
C14 0.087(4) 0.071(5) 0.062(4) -0.015(4) 0.022(3) 0.007(3)
C15 0.054(3) 0.059(4) 0.058(3) -0.010(3) 0.017(2) 0.001(3)
N1 0.0460(18) 0.031(2) 0.044(2) 0.0025(19) 0.0058(16) 0.0004(16)
N2 0.047(2) 0.036(3) 0.067(3) 0.008(2) 0.004(2) -0.002(2)
O1 0.0554(17) 0.0261(18) 0.068(2) 0.0059(17) 0.0098(16) 0.0012(14)
Br1 0.1491(7) 0.0647(5) 0.0548(4) 0.0166(4) 0.0086(3) 0.0226(5)
loop_
_atom_type_symbol
_atom_type_description
_atom_type_scat_dispersion_real
_atom_type_scat_dispersion_imag
_atom_type_scat_source
C C 0.0033 0.0016 'International Tables Vol C Tables 4.2.6.8 and 6.1.1.4'
H H 0.0000 0.0000 'International Tables Vol C Tables 4.2.6.8 and 6.1.1.4'
N N 0.0061 0.0033 'International Tables Vol C Tables 4.2.6.8 and 6.1.1.4'
O O 0.0106 0.0060 'International Tables Vol C Tables 4.2.6.8 and 6.1.1.4'
Br Br -0.2901 2.4595 'International Tables Vol C Tables 4.2.6.8 and 6.1.1.4'
loop_
_geom_angle_atom_site_label_1
_geom_angle_atom_site_label_2
_geom_angle_atom_site_label_3
_geom_angle
C6 C1 C2 118.6(5)
C6 C1 C7 121.6(4)
C2 C1 C7 119.8(4)
C3 C2 C1 120.3(5)
C3 C2 H2 119.9
C1 C2 H2 119.9
C4 C3 C2 119.2(5)
C4 C3 H3 120.4
C2 C3 H3 120.4
C3 C4 C5 122.3(5)
C3 C4 Br1 119.7(4)
C5 C4 Br1 118.0(4)
C4 C5 C6 118.7(5)
C4 C5 H5 120.6
C6 C5 H5 120.6
C5 C6 C1 120.9(4)
C5 C6 H6 119.6
C1 C6 H6 119.6
N1 C7 C1 122.0(4)
N1 C7 H7 119.0
C1 C7 H7 119.0
N1 C8 C10 110.3(4)
N1 C8 C9 110.3(3)
C10 C8 C9 111.5(3)
N1 C8 H8 108.2
C10 C8 H8 108.2
C9 C8 H8 108.2
O1 C9 N2 122.6(4)
O1 C9 C8 119.9(4)
N2 C9 C8 117.4(4)
C15 C10 C11 118.0(5)
C15 C10 C8 122.2(4)
C11 C10 C8 119.8(4)
C12 C11 C10 120.9(5)
C12 C11 H11 119.6
C10 C11 H11 119.6
C13 C12 C11 120.1(6)
C13 C12 H12 119.9
C11 C12 H12 119.9
C12 C13 C14 120.4(6)
C12 C13 H13 119.8
C14 C13 H13 119.8
C15 C14 C13 119.6(5)
C15 C14 H14 120.2
C13 C14 H14 120.2
C10 C15 C14 121.0(5)
C10 C15 H15 119.5
C14 C15 H15 119.5
C7 N1 C8 116.8(4)
C9 N2 H2B 122(3)
C9 N2 H2A 115(5)
H2B N2 H2A 123(5)
loop_
_geom_bond_atom_site_label_1
_geom_bond_atom_site_label_2
_geom_bond_distance
C1 C6 1.392(7)
C1 C2 1.398(7)
C1 C7 1.470(7)
C2 C3 1.379(8)
C2 H2 0.9300
C3 C4 1.358(8)
C3 H3 0.9300
C4 C5 1.374(7)
C4 Br1 1.907(5)
C5 C6 1.373(7)
C5 H5 0.9300
C6 H6 0.9300
C7 N1 1.267(5)
C7 H7 0.9300
C8 N1 1.457(6)
C8 C10 1.526(6)
C8 C9 1.526(6)
C8 H8 0.9800
C9 O1 1.230(6)
C9 N2 1.330(6)
C10 C15 1.372(6)
C10 C11 1.390(6)
C11 C12 1.369(8)
C11 H11 0.9300
C12 C13 1.349(10)
C12 H12 0.9300
C13 C14 1.374(9)
C13 H13 0.9300
C14 C15 1.373(8)
C14 H14 0.9300
C15 H15 0.9300
N2 H2B 0.87(8)
N2 H2A 0.85(7)
loop_
_geom_torsion_atom_site_label_1
_geom_torsion_atom_site_label_2
_geom_torsion_atom_site_label_3
_geom_torsion_atom_site_label_4
_geom_torsion
C6 C1 C2 C3 1.9(8)
C7 C1 C2 C3 -179.7(5)
C1 C2 C3 C4 -1.1(9)
C2 C3 C4 C5 0.5(9)
C2 C3 C4 Br1 179.0(5)
C3 C4 C5 C6 -0.6(9)
Br1 C4 C5 C6 -179.1(4)
C4 C5 C6 C1 1.3(8)
C2 C1 C6 C5 -2.0(8)
C7 C1 C6 C5 179.6(5)
C6 C1 C7 N1 -19.4(7)
C2 C1 C7 N1 162.2(5)
N1 C8 C9 O1 158.4(4)
C10 C8 C9 O1 -78.7(5)
N1 C8 C9 N2 -23.4(5)
C10 C8 C9 N2 99.6(5)
N1 C8 C10 C15 83.3(5)
C9 C8 C10 C15 -39.6(6)
N1 C8 C10 C11 -95.4(5)
C9 C8 C10 C11 141.7(4)
C15 C10 C11 C12 -0.5(8)
C8 C10 C11 C12 178.2(5)
C10 C11 C12 C13 -0.5(9)
C11 C12 C13 C14 0.7(10)
C12 C13 C14 C15 0.1(11)
C11 C10 C15 C14 1.3(9)
C8 C10 C15 C14 -177.4(6)
C13 C14 C15 C10 -1.1(10)
C1 C7 N1 C8 175.3(4)
C10 C8 N1 C7 122.3(4)
C9 C8 N1 C7 -114.0(4)
