#------------------------------------------------------------------------------
#$Date: 2016-02-13 14:50:18 +0200 (Sat, 13 Feb 2016) $
#$Revision: 176428 $
#$URL: svn://www.crystallography.net/cod/cif/4/51/33/4513398.cif $
#------------------------------------------------------------------------------
#
# This file is available in the Crystallography Open Database (COD),
# http://www.crystallography.net/
#
# All data on this site have been placed in the public domain by the
# contributors.
#
data_4513398
loop_
_publ_author_name
'George, Fanny'
'Norberg, Bernadette'
'Wouters, Johan'
'Leyssens, Tom'
_publ_section_title
;
 Structural Investigation of Substituent Effect on Hydrogen Bonding in
 (S)-Phenylglycine Amide Benzaldimines
;
_journal_issue                   8
_journal_name_full               'Crystal Growth &amp; Design'
_journal_page_first              4005
_journal_paper_doi               10.1021/acs.cgd.5b00621
_journal_volume                  15
_journal_year                    2015
_chemical_absolute_configuration rm
_chemical_formula_moiety         'C15 H13 F N2 O'
_chemical_formula_sum            'C15 H13 F N2 O'
_chemical_formula_weight         256.27
_chemical_name_systematic
;
 ?
;
_space_group_IT_number           4
_symmetry_cell_setting           monoclinic
_symmetry_space_group_name_Hall  'P 2yb'
_symmetry_space_group_name_H-M   'P 1 21 1'
_atom_sites_solution_hydrogens   geom
_atom_sites_solution_primary     direct
_atom_sites_solution_secondary   difmap
_audit_creation_method           SHELXL-97
_cell_angle_alpha                90.00
_cell_angle_beta                 105.511(5)
_cell_angle_gamma                90.00
_cell_formula_units_Z            2
_cell_length_a                   6.9740(3)
_cell_length_b                   7.8282(3)
_cell_length_c                   12.5581(6)
_cell_measurement_reflns_used    3377
_cell_measurement_temperature    293(2)
_cell_measurement_theta_max      29.1709
_cell_measurement_theta_min      3.3604
_cell_volume                     660.63(5)
_computing_cell_refinement
;
CrysAlisPro, Agilent Technologies,
Version 1.171.35.21 (release 20-01-2012 CrysAlis171 .NET)
(compiled Jan 23 2012,18:06:46)
;
_computing_data_collection
;
CrysAlisPro, Agilent Technologies,
Version 1.171.35.21 (release 20-01-2012 CrysAlis171 .NET)
(compiled Jan 23 2012,18:06:46)
;
_computing_data_reduction
;
CrysAlisPro, Agilent Technologies,
Version 1.171.35.21 (release 20-01-2012 CrysAlis171 .NET)
(compiled Jan 23 2012,18:06:46)
;
_computing_structure_refinement  'SHELXL-97 (Sheldrick, 1997)'
_computing_structure_solution    Sir2004
_diffrn_ambient_temperature      293(2)
_diffrn_detector_area_resol_mean 10.3712
_diffrn_measured_fraction_theta_full 0.997
_diffrn_measured_fraction_theta_max 0.997
_diffrn_measurement_device_type  'Xcalibur, Ruby, Gemini ultra'
_diffrn_measurement_method       '\w scans'
_diffrn_radiation_monochromator  graphite
_diffrn_radiation_source         'fine-focus sealed tube'
_diffrn_radiation_type           MoK\a
_diffrn_radiation_wavelength     0.71073
_diffrn_reflns_av_R_equivalents  0.0159
_diffrn_reflns_av_sigmaI/netI    0.0190
_diffrn_reflns_limit_h_max       8
_diffrn_reflns_limit_h_min       -6
_diffrn_reflns_limit_k_max       9
_diffrn_reflns_limit_k_min       -9
_diffrn_reflns_limit_l_max       11
_diffrn_reflns_limit_l_min       -14
_diffrn_reflns_number            4822
_diffrn_reflns_theta_full        25.00
_diffrn_reflns_theta_max         25.02
_diffrn_reflns_theta_min         3.37
_exptl_absorpt_coefficient_mu    0.092
_exptl_absorpt_correction_T_max  0.9909
_exptl_absorpt_correction_T_min  0.9729
_exptl_absorpt_correction_type   multi-scan
_exptl_absorpt_process_details
;
CrysAlisPro, Agilent Technologies,
Version 1.171.35.21 (release 20-01-2012 CrysAlis171 .NET)
(compiled Jan 23 2012,18:06:46)
Empirical absorption correction using spherical harmonics,
 implemented in SCALE3 ABSPACK scaling algorithm.
;
_exptl_crystal_colour            colorless
_exptl_crystal_density_diffrn    1.288
_exptl_crystal_density_method    'not measured'
_exptl_crystal_description       plaquet
_exptl_crystal_F_000             268
_exptl_crystal_size_max          0.30
_exptl_crystal_size_mid          0.20
_exptl_crystal_size_min          0.10
_refine_diff_density_max         0.081
_refine_diff_density_min         -0.127
_refine_diff_density_rms         0.023
_refine_ls_abs_structure_details 'Flack H D (1983), Acta Cryst. A39, 876-881'
_refine_ls_extinction_method     none
_refine_ls_goodness_of_fit_ref   0.950
_refine_ls_hydrogen_treatment    mixed
_refine_ls_matrix_type           full
_refine_ls_number_parameters     193
_refine_ls_number_reflns         2331
_refine_ls_number_restraints     1
_refine_ls_restrained_S_all      0.950
_refine_ls_R_factor_all          0.0324
_refine_ls_R_factor_gt           0.0303
_refine_ls_shift/su_max          0.003
_refine_ls_shift/su_mean         0.000
_refine_ls_structure_factor_coef Fsqd
_refine_ls_weighting_details
'calc w=1/[\s^2^(Fo^2^)+(0.0462P)^2^+0.0405P] where P=(Fo^2^+2Fc^2^)/3'
_refine_ls_weighting_scheme      calc
_refine_ls_wR_factor_gt          0.0753
_refine_ls_wR_factor_ref         0.0773
_reflns_number_gt                2223
_reflns_number_total             2331
_reflns_threshold_expression     >2sigma(I)
_iucr_refine_instructions_details
;
TITL bn_TL-F-NC7MetOH in P2(1)
CELL  0.71073   6.9740   7.8282  12.5581   90.000  105.511   90.000
ZERR     2.00   0.0003   0.0003   0.0006    0.000    0.005    0.000
LATT  -1
SYMM  - X, 1/2 + Y, - Z
SFAC  C    H    N    O    F
UNIT  30   26   4    2    2
MERG   2
shel 99 0.84
FMAP   2
PLAN   10
SIZE     0.10   0.20   0.30
ACTA    50.00
BOND   $H
CONF
L.S.  30
TEMP    20.00
WGHT    0.046200    0.040500
FVAR      14.20883
C7    1    0.820787    0.016260    0.349502    11.00000    0.04283    0.04693 =
         0.04730   -0.01141    0.01392   -0.00997
AFIX  43
H7    2    0.935327   -0.046848    0.353097    11.00000   -1.20000
AFIX   0
C1    1    0.733184    0.116356    0.249333    11.00000    0.05790    0.05388 =
         0.03905   -0.01161    0.01343   -0.01444
C2    1    0.850644    0.157211    0.179239    11.00000    0.07074    0.07106 =
         0.04707   -0.01061    0.02260   -0.01560
AFIX  43
H2    2    0.982266    0.120979    0.195117    11.00000   -1.20000
AFIX   0
C3    1    0.769001    0.251816    0.086344    11.00000    0.09923    0.08897 =
         0.04346   -0.00906    0.02626   -0.03078
C4    1    0.575225    0.303339    0.057350    11.00000    0.10683    0.08787 =
         0.04036    0.00162    0.00336   -0.02231
AFIX  43
H4    2    0.523149    0.365581   -0.006973    11.00000   -1.20000
AFIX   0
C5    1    0.459328    0.260380    0.126184    11.00000    0.07986    0.09224 =
         0.04866   -0.00225    0.00035   -0.01013
C6    1    0.535886    0.167619    0.221964    11.00000    0.06019    0.07463 =
         0.04555   -0.00383    0.01074   -0.01070
AFIX  43
H6    2    0.455350    0.139860    0.267688    11.00000   -1.20000
AFIX   0
C8    1    0.839187   -0.103728    0.521668    11.00000    0.03976    0.04412 =
         0.04794   -0.00167    0.01454    0.00488
C10    1    0.927360   -0.005122    0.627408    11.00000    0.04413    0.04156 =
         0.04257    0.00363    0.00663    0.00082
C11   1    1.129454    0.029528    0.659833    11.00000    0.04924    0.04768 =
         0.06062    0.01115    0.00749   -0.00354
AFIX  43
H11   2    1.210691   -0.008819    0.616915    11.00000   -1.20000
AFIX   0
C12   1    1.211485    0.120825    0.755662    11.00000    0.06463    0.06183 =
         0.06616    0.01405   -0.01284   -0.01626
AFIX  43
H12   2    1.347550    0.142429    0.777115    11.00000   -1.20000
AFIX   0
C13   1    1.093298    0.179303    0.818832    11.00000    0.10217    0.06981 =
         0.04768   -0.00241   -0.00496   -0.01784
AFIX  43
H13   2    1.148469    0.240808    0.883086    11.00000   -1.20000
AFIX   0
C14   1    0.893690    0.146840    0.786996    11.00000    0.09487    0.08863 =
         0.05247   -0.01972    0.01723   -0.00328
AFIX  43
H14   2    0.812854    0.186939    0.829657    11.00000   -1.20000
AFIX   0
C15   1    0.811107    0.055147    0.692170    11.00000    0.05845    0.07755 =
         0.05291   -0.01360    0.01193   -0.00058
AFIX  43
H15   2    0.674990    0.033695    0.671651    11.00000   -1.20000
AFIX   0
C9   1    0.686675   -0.233522    0.539065    11.00000    0.04364    0.04119 =
         0.04660   -0.00397    0.01324    0.00173
N1    3    0.746415    0.012469    0.431313    11.00000    0.04105    0.04669 =
         0.04104   -0.00347    0.01225   -0.00098
N2    3    0.495691   -0.192270    0.502054    11.00000    0.04008    0.04743 =
         0.06852    0.00810    0.01143   -0.00229
O1    4    0.743093   -0.367957    0.588047    11.00000    0.04949    0.04579 =
         0.07119    0.00737    0.01555    0.00478
PART    1
F1    5    0.879033    0.304334    0.021530    10.75000    0.14063    0.12877 =
         0.06446    0.00170    0.05698   -0.02570
PART    2
F1'   5    0.289813    0.310170    0.096649    10.25000    0.06516    0.13555 =
         0.05313    0.00710   -0.00336    0.03003
PART    1
AFIX   1
H5    2    0.325803    0.293800    0.105700    10.75000    0.12000
PART    2
H3    2    0.848400    0.283900    0.038900    10.25000    0.12000
AFIX   0
PART    0
H8    2    0.938866   -0.168877    0.505154    11.00000    0.04383
H2A   2    0.409389   -0.261327    0.514098    11.00000    0.06190
H2B   2    0.458282   -0.101124    0.465921    11.00000    0.05389
HKLF    4
 
REM  bn_TL-F-NC7MetOH in P2(1)
REM R1 =  0.0303 for   2223 Fo > 4sig(Fo)  and  0.0324 for all   2331 data
REM    193 parameters refined using      1 restraints
 
END
 
WGHT      0.0417      0.0151
REM Highest difference peak  0.081,  deepest hole -0.127,  1-sigma level  0.023
Q1    1   0.6205  0.0573  0.4266  11.00000  0.05    0.08
Q2    1   0.8849 -0.0524  0.5828  11.00000  0.05    0.08
Q3    1   1.2314 -0.0466  0.5829  11.00000  0.05    0.07
Q4    1   0.2489  0.3380  0.1383  11.00000  0.05    0.07
Q5    1   1.0100  0.0588  0.6165  11.00000  0.05    0.07
Q6    1   1.0044  0.2383  0.3343  11.00000  0.05    0.07
Q7    1   1.0432 -0.3356  0.5665  11.00000  0.05    0.06
Q8    1   0.8355  0.0398  0.9163  11.00000  0.05    0.06
Q9    1   0.6408  0.1291 -0.0593  11.00000  0.05    0.06
Q10   1   0.5087  0.0580  0.5921  11.00000  0.05    0.06
;
_cod_data_source_file            cg5b00621_si_001.cif
_cod_data_source_block           m-F
_cod_depositor_comments
'Adding full bibliography for 4513392--4513414.cif.'
_cod_original_sg_symbol_H-M      'P 21'
_cod_database_code               4513398
loop_
_symmetry_equiv_pos_as_xyz
'x, y, z'
'-x, y+1/2, -z'
loop_
_atom_site_label
_atom_site_type_symbol
_atom_site_fract_x
_atom_site_fract_y
_atom_site_fract_z
_atom_site_U_iso_or_equiv
_atom_site_adp_type
_atom_site_occupancy
_atom_site_symmetry_multiplicity
_atom_site_calc_flag
_atom_site_refinement_flags
_atom_site_disorder_assembly
_atom_site_disorder_group
C7 C 0.8208(2) 0.01626(19) 0.34950(11) 0.0453(3) Uani 1 1 d . . .
H7 H 0.9353 -0.0468 0.3531 0.054 Uiso 1 1 calc R . .
C1 C 0.7332(2) 0.1164(2) 0.24933(11) 0.0502(4) Uani 1 1 d . . .
C2 C 0.8506(3) 0.1572(2) 0.17924(13) 0.0616(4) Uani 1 1 d . A .
H2 H 0.9823 0.1210 0.1951 0.074 Uiso 1 1 calc R . .
C3 C 0.7690(3) 0.2518(3) 0.08634(14) 0.0758(6) Uani 1 1 d . . .
C4 C 0.5752(4) 0.3033(3) 0.05735(14) 0.0815(6) Uani 1 1 d . A .
H4 H 0.5231 0.3656 -0.0070 0.098 Uiso 1 1 calc R . .
C5 C 0.4593(3) 0.2604(3) 0.12618(15) 0.0768(6) Uani 1 1 d . . .
C6 C 0.5359(3) 0.1676(2) 0.22196(13) 0.0608(4) Uani 1 1 d . A .
H6 H 0.4554 0.1399 0.2677 0.073 Uiso 1 1 calc R . .
C8 C 0.8392(2) -0.10373(18) 0.52167(12) 0.0434(3) Uani 1 1 d . . .
C10 C 0.9274(2) -0.00512(18) 0.62741(11) 0.0437(3) Uani 1 1 d . . .
C11 C 1.1295(2) 0.0295(2) 0.65983(13) 0.0539(4) Uani 1 1 d . . .
H11 H 1.2107 -0.0088 0.6169 0.065 Uiso 1 1 calc R . .
C12 C 1.2115(3) 0.1208(2) 0.75566(15) 0.0700(5) Uani 1 1 d . . .
H12 H 1.3476 0.1424 0.7771 0.084 Uiso 1 1 calc R . .
C13 C 1.0933(4) 0.1793(3) 0.81883(16) 0.0780(6) Uani 1 1 d . . .
H13 H 1.1485 0.2408 0.8831 0.094 Uiso 1 1 calc R . .
C14 C 0.8937(3) 0.1468(3) 0.78700(15) 0.0791(6) Uani 1 1 d . . .
H14 H 0.8129 0.1869 0.8297 0.095 Uiso 1 1 calc R . .
C15 C 0.8111(2) 0.0551(2) 0.69217(13) 0.0635(4) Uani 1 1 d . . .
H15 H 0.6750 0.0337 0.6717 0.076 Uiso 1 1 calc R . .
C9 C 0.6867(2) -0.23352(18) 0.53906(12) 0.0436(3) Uani 1 1 d . . .
N1 N 0.74642(16) 0.01247(16) 0.43131(9) 0.0427(3) Uani 1 1 d . . .
N2 N 0.4957(2) -0.19227(19) 0.50205(13) 0.0526(3) Uani 1 1 d . . .
O1 O 0.74309(15) -0.36796(13) 0.58805(9) 0.0556(3) Uani 1 1 d . . .
F1 F 0.8790(3) 0.3043(3) 0.02153(12) 0.1056(6) Uani 0.75 1 d P A 1
F1' F 0.2898(6) 0.3102(8) 0.0966(3) 0.0883(15) Uani 0.25 1 d P A 2
H5 H 0.3258 0.2938 0.1057 0.120 Uiso 0.75 1 d P B 1
H3 H 0.8484 0.2839 0.0389 0.120 Uiso 0.25 1 d P C 2
H8 H 0.939(2) -0.169(2) 0.5052(12) 0.044(4) Uiso 1 1 d . . .
H2A H 0.409(3) -0.261(3) 0.5141(15) 0.062(5) Uiso 1 1 d . . .
H2B H 0.458(2) -0.101(3) 0.4659(13) 0.054(5) Uiso 1 1 d . . .
loop_
_atom_site_aniso_label
_atom_site_aniso_U_11
_atom_site_aniso_U_22
_atom_site_aniso_U_33
_atom_site_aniso_U_23
_atom_site_aniso_U_13
_atom_site_aniso_U_12
C7 0.0428(7) 0.0469(8) 0.0473(8) -0.0114(6) 0.0139(6) -0.0100(6)
C1 0.0579(9) 0.0539(8) 0.0390(8) -0.0116(7) 0.0134(7) -0.0144(7)
C2 0.0707(10) 0.0711(11) 0.0471(9) -0.0106(8) 0.0226(8) -0.0156(9)
C3 0.0992(15) 0.0890(14) 0.0435(10) -0.0091(10) 0.0263(10) -0.0308(12)
C4 0.1068(16) 0.0879(14) 0.0404(9) 0.0016(9) 0.0034(10) -0.0223(12)
C5 0.0799(13) 0.0922(14) 0.0487(10) -0.0022(10) 0.0003(9) -0.0101(12)
C6 0.0602(10) 0.0746(12) 0.0455(9) -0.0038(8) 0.0107(7) -0.0107(9)
C8 0.0398(8) 0.0441(8) 0.0479(8) -0.0017(6) 0.0145(6) 0.0049(6)
C10 0.0441(7) 0.0416(7) 0.0426(7) 0.0036(6) 0.0066(6) 0.0008(6)
C11 0.0492(8) 0.0477(8) 0.0606(9) 0.0111(7) 0.0075(7) -0.0035(7)
C12 0.0646(11) 0.0618(10) 0.0662(11) 0.0141(9) -0.0128(9) -0.0163(9)
C13 0.1022(16) 0.0698(12) 0.0477(10) -0.0024(9) -0.0050(10) -0.0178(12)
C14 0.0949(15) 0.0886(15) 0.0525(10) -0.0197(10) 0.0172(10) -0.0033(11)
C15 0.0584(9) 0.0776(11) 0.0529(9) -0.0136(9) 0.0119(7) -0.0006(9)
C9 0.0436(7) 0.0412(7) 0.0466(8) -0.0040(6) 0.0132(6) 0.0017(6)
N1 0.0410(6) 0.0467(6) 0.0410(6) -0.0035(5) 0.0122(5) -0.0010(5)
N2 0.0401(7) 0.0474(8) 0.0685(8) 0.0081(7) 0.0114(6) -0.0023(6)
O1 0.0495(6) 0.0458(6) 0.0712(7) 0.0074(5) 0.0155(5) 0.0048(5)
F1 0.1406(14) 0.1288(14) 0.0645(9) 0.0017(10) 0.0570(10) -0.0257(12)
F1' 0.065(2) 0.136(4) 0.053(2) 0.007(3) -0.0034(19) 0.030(3)
loop_
_atom_type_symbol
_atom_type_description
_atom_type_scat_dispersion_real
_atom_type_scat_dispersion_imag
_atom_type_scat_source
C C 0.0033 0.0016 'International Tables Vol C Tables 4.2.6.8 and 6.1.1.4'
H H 0.0000 0.0000 'International Tables Vol C Tables 4.2.6.8 and 6.1.1.4'
N N 0.0061 0.0033 'International Tables Vol C Tables 4.2.6.8 and 6.1.1.4'
O O 0.0106 0.0060 'International Tables Vol C Tables 4.2.6.8 and 6.1.1.4'
F F 0.0171 0.0103 'International Tables Vol C Tables 4.2.6.8 and 6.1.1.4'
loop_
_geom_angle_atom_site_label_1
_geom_angle_atom_site_label_2
_geom_angle_atom_site_label_3
_geom_angle
N1 C7 C1 122.63(13)
N1 C7 H7 118.7
C1 C7 H7 118.7
C6 C1 C2 119.37(16)
C6 C1 C7 121.66(13)
C2 C1 C7 118.96(15)
C3 C2 C1 118.82(18)
C3 C2 H2 120.6
C1 C2 H2 120.6
F1 C3 C4 116.1(2)
F1 C3 C2 120.9(2)
C4 C3 C2 122.94(18)
C4 C3 H3 117.2
C2 C3 H3 119.9
C3 C4 C5 117.88(19)
C3 C4 H4 121.1
C5 C4 H4 121.1
F1' C5 C4 114.9(3)
F1' C5 C6 123.8(3)
C4 C5 C6 121.3(2)
C4 C5 H5 118.0
C6 C5 H5 120.7
C5 C6 C1 119.62(16)
C5 C6 H6 120.2
C1 C6 H6 120.2
N1 C8 C10 110.75(11)
N1 C8 C9 110.11(11)
C10 C8 C9 110.36(11)
N1 C8 H8 111.7(9)
C10 C8 H8 108.8(9)
C9 C8 H8 104.9(9)
C15 C10 C11 118.23(14)
C15 C10 C8 121.79(13)
C11 C10 C8 119.96(13)
C10 C11 C12 120.52(16)
C10 C11 H11 119.7
C12 C11 H11 119.7
C13 C12 C11 120.27(17)
C13 C12 H12 119.9
C11 C12 H12 119.9
C14 C13 C12 119.57(18)
C14 C13 H13 120.2
C12 C13 H13 120.2
C13 C14 C15 120.52(19)
C13 C14 H14 119.7
C15 C14 H14 119.7
C10 C15 C14 120.88(16)
C10 C15 H15 119.6
C14 C15 H15 119.6
O1 C9 N2 122.70(14)
O1 C9 C8 119.92(12)
N2 C9 C8 117.36(13)
C7 N1 C8 116.79(12)
C9 N2 H2A 118.3(12)
C9 N2 H2B 121.9(12)
H2A N2 H2B 119.9(16)
loop_
_geom_bond_atom_site_label_1
_geom_bond_atom_site_label_2
_geom_bond_distance
C7 N1 1.2690(17)
C7 C1 1.469(2)
C7 H7 0.9300
C1 C6 1.385(2)
C1 C2 1.391(2)
C2 C3 1.371(3)
C2 H2 0.9300
C3 F1 1.325(2)
C3 C4 1.363(3)
C3 H3 0.9493
C4 C5 1.374(3)
C4 H4 0.9300
C5 F1' 1.205(4)
C5 C6 1.384(3)
C5 H5 0.9347
C6 H6 0.9300
C8 N1 1.4632(18)
C8 C10 1.5168(19)
C8 C9 1.528(2)
C8 H8 0.929(15)
C10 C15 1.376(2)
C10 C11 1.3852(19)
C11 C12 1.385(2)
C11 H11 0.9300
C12 C13 1.367(3)
C12 H12 0.9300
C13 C14 1.366(3)
C13 H13 0.9300
C14 C15 1.378(2)
C14 H14 0.9300
C15 H15 0.9300
C9 O1 1.2293(17)
C9 N2 1.328(2)
N2 H2A 0.85(2)
N2 H2B 0.85(2)
F1 H3 0.3791
F1' H5 0.2776
loop_
_geom_torsion_atom_site_label_1
_geom_torsion_atom_site_label_2
_geom_torsion_atom_site_label_3
_geom_torsion_atom_site_label_4
_geom_torsion
N1 C7 C1 C6 -21.0(2)
N1 C7 C1 C2 160.42(14)
C6 C1 C2 C3 1.9(2)
C7 C1 C2 C3 -179.46(15)
C1 C2 C3 F1 175.02(17)
C1 C2 C3 C4 -2.2(3)
F1 C3 C4 C5 -176.08(19)
C2 C3 C4 C5 1.3(3)
C3 C4 C5 F1' 179.6(3)
C3 C4 C5 C6 -0.1(3)
F1' C5 C6 C1 -179.8(4)
C4 C5 C6 C1 -0.1(3)
C2 C1 C6 C5 -0.8(2)
C7 C1 C6 C5 -179.38(15)
N1 C8 C10 C15 79.15(18)
C9 C8 C10 C15 -43.05(19)
N1 C8 C10 C11 -99.48(14)
C9 C8 C10 C11 138.33(13)
C15 C10 C11 C12 0.7(2)
C8 C10 C11 C12 179.39(14)
C10 C11 C12 C13 -0.7(3)
C11 C12 C13 C14 0.1(3)
C12 C13 C14 C15 0.3(3)
C11 C10 C15 C14 -0.3(3)
C8 C10 C15 C14 -178.94(15)
C13 C14 C15 C10 -0.2(3)
N1 C8 C9 O1 159.98(12)
C10 C8 C9 O1 -77.45(16)
N1 C8 C9 N2 -21.72(18)
C10 C8 C9 N2 100.84(15)
C1 C7 N1 C8 174.99(12)
C10 C8 N1 C7 117.04(13)
C9 C8 N1 C7 -120.63(13)
