#------------------------------------------------------------------------------
#$Date: 2016-02-13 14:50:18 +0200 (Sat, 13 Feb 2016) $
#$Revision: 176428 $
#$URL: svn://www.crystallography.net/cod/cif/4/51/30/4513001.cif $
#------------------------------------------------------------------------------
#
# This file is available in the Crystallography Open Database (COD),
# http://www.crystallography.net/
#
# All data on this site have been placed in the public domain by the
# contributors.
#
data_4513001
loop_
_publ_author_name
'Jiang, Qi'
'Shtukenberg, Alexander G.'
'Ward, Michael D.'
'Hu, Chunhua'
_publ_section_title
;
 Non-Topotactic Phase Transformations in Single Crystals of \b-Glycine
;
_journal_issue                   6
_journal_name_full               'Crystal Growth &amp; Design'
_journal_page_first              2568
_journal_paper_doi               10.1021/acs.cgd.5b00187
_journal_volume                  15
_journal_year                    2015
_chemical_formula_sum            'C2 H5 N O2'
_chemical_formula_weight         75.07
_chemical_name_systematic
; 
 ? 
;
_space_group_IT_number           4
_symmetry_cell_setting           monoclinic
_symmetry_space_group_name_Hall  'P 2yb'
_symmetry_space_group_name_H-M   'P 1 21 1'
_atom_sites_solution_hydrogens   geom
_atom_sites_solution_primary     direct
_atom_sites_solution_secondary   difmap
_audit_creation_method           SHELXL-97
_cell_angle_alpha                90.00
_cell_angle_beta                 113.393(2)
_cell_angle_gamma                90.00
_cell_formula_units_Z            2
_cell_length_a                   5.0749(8)
_cell_length_b                   6.1692(10)
_cell_length_c                   5.3880(8)
_cell_measurement_reflns_used    2898
_cell_measurement_temperature    100(2)
_cell_measurement_theta_max      28.27
_cell_measurement_theta_min      3.30
_cell_volume                     154.82(4)
_computing_cell_refinement       'Bruker SAINT'
_computing_data_collection       'Bruker APEX2'
_computing_data_reduction        'Bruker SAINT'
_computing_molecular_graphics    'Bruker SHELXTL'
_computing_publication_material  'Bruker SHELXTL'
_computing_structure_refinement  'SHELXL-97 (Sheldrick, 2008)'
_computing_structure_solution    'SHELXS-97 (Sheldrick, 2008)'
_diffrn_ambient_temperature      100(2)
_diffrn_measured_fraction_theta_full 1.000
_diffrn_measured_fraction_theta_max 1.000
_diffrn_radiation_monochromator  graphite
_diffrn_radiation_source         'fine-focus sealed tube'
_diffrn_radiation_type           MoK\a
_diffrn_radiation_wavelength     0.71073
_diffrn_reflns_av_R_equivalents  0.0550
_diffrn_reflns_av_sigmaI/netI    0.0207
_diffrn_reflns_limit_h_max       6
_diffrn_reflns_limit_h_min       -6
_diffrn_reflns_limit_k_max       8
_diffrn_reflns_limit_k_min       -8
_diffrn_reflns_limit_l_max       7
_diffrn_reflns_limit_l_min       -7
_diffrn_reflns_number            3219
_diffrn_reflns_theta_full        28.27
_diffrn_reflns_theta_max         28.27
_diffrn_reflns_theta_min         4.12
_exptl_absorpt_coefficient_mu    0.143
_exptl_absorpt_correction_T_max  0.9943
_exptl_absorpt_correction_T_min  0.9255
_exptl_absorpt_correction_type   multi-scan
_exptl_absorpt_process_details   SADABS
_exptl_crystal_colour            colorless
_exptl_crystal_density_diffrn    1.610
_exptl_crystal_density_method    'not measured'
_exptl_crystal_description       needle
_exptl_crystal_F_000             80
_exptl_crystal_size_max          0.55
_exptl_crystal_size_mid          0.12
_exptl_crystal_size_min          0.04
_refine_diff_density_max         0.269
_refine_diff_density_min         -0.226
_refine_diff_density_rms         0.057
_refine_ls_abs_structure_details 'Flack H D (1983), Acta Cryst. A39, 876-881'
_refine_ls_abs_structure_Flack   0(10)
_refine_ls_extinction_method     none
_refine_ls_goodness_of_fit_ref   1.196
_refine_ls_hydrogen_treatment    constr
_refine_ls_matrix_type           full
_refine_ls_number_parameters     47
_refine_ls_number_reflns         420
_refine_ls_number_restraints     1
_refine_ls_restrained_S_all      1.194
_refine_ls_R_factor_all          0.0235
_refine_ls_R_factor_gt           0.0232
_refine_ls_shift/su_max          0.000
_refine_ls_shift/su_mean         0.000
_refine_ls_structure_factor_coef Fsqd
_refine_ls_weighting_details
'calc w=1/[\s^2^(Fo^2^)+(0.0383P)^2^+0.0162P] where P=(Fo^2^+2Fc^2^)/3'
_refine_ls_weighting_scheme      calc
_refine_ls_wR_factor_gt          0.0633
_refine_ls_wR_factor_ref         0.0637
_reflns_number_gt                414
_reflns_number_total             420
_reflns_threshold_expression     >2sigma(I)
_cod_data_source_file            cg5b00187_si_004.cif
_cod_data_source_block           11hch2h
_cod_depositor_comments
;
The following automatic conversions were performed:

'_symmetry_cell_setting' value 'Monoclinic' changed to 'monoclinic'
according to
/usr/data/users/saulius/crontab/automatic-downloads/rss-feeds/ACS/lib/dictionaries/cif_core.dic
dictionary named 'cif_core.dic' version 2.4.2 from 2011-04-26.

Automatic conversion script
Id: cif_fix_values 3271 2015-04-21 07:52:19Z andrius 

 Adding full bibliography for 4512893--4513002.cif.
;
_cod_original_sg_symbol_H-M      'P 21'
_cod_database_code               4513001
loop_
_symmetry_equiv_pos_as_xyz
'x, y, z'
'-x, y+1/2, -z'
loop_
_atom_site_label
_atom_site_type_symbol
_atom_site_fract_x
_atom_site_fract_y
_atom_site_fract_z
_atom_site_U_iso_or_equiv
_atom_site_adp_type
_atom_site_occupancy
_atom_site_symmetry_multiplicity
_atom_site_calc_flag
_atom_site_refinement_flags
O1 O 0.61729(19) 0.26191(18) 0.25803(16) 0.0129(3) Uani 1 1 d .
O2 O 1.09057(18) 0.31904(17) 0.40311(16) 0.0117(2) Uani 1 1 d .
N1 N 0.6466(2) 0.1892(2) 0.76487(18) 0.0103(3) Uani 1 1 d .
H1A H 0.4769 0.2398 0.6411 0.015 Uiso 1 1 calc R
H1B H 0.6548 0.2128 0.9345 0.015 Uiso 1 1 calc R
H1C H 0.6604 0.0445 0.7394 0.015 Uiso 1 1 calc R
C1 C 0.8633(3) 0.29086(19) 0.4396(2) 0.0097(3) Uani 1 1 d .
C2 C 0.8870(2) 0.3037(2) 0.7317(2) 0.0108(3) Uani 1 1 d .
H2A H 1.0711 0.2385 0.8539 0.013 Uiso 1 1 calc R
H2B H 0.8868 0.4577 0.7835 0.013 Uiso 1 1 calc R
loop_
_atom_site_aniso_label
_atom_site_aniso_U_11
_atom_site_aniso_U_22
_atom_site_aniso_U_33
_atom_site_aniso_U_23
_atom_site_aniso_U_13
_atom_site_aniso_U_12
O1 0.0110(4) 0.0177(5) 0.0099(4) 0.0002(3) 0.0041(3) 0.0012(4)
O2 0.0121(4) 0.0122(5) 0.0127(4) 0.0009(4) 0.0069(3) 0.0001(4)
N1 0.0113(5) 0.0110(5) 0.0093(5) 0.0001(4) 0.0049(4) -0.0008(4)
C1 0.0140(6) 0.0062(5) 0.0100(5) 0.0007(4) 0.0059(4) 0.0019(5)
C2 0.0111(5) 0.0127(6) 0.0092(5) -0.0006(5) 0.0046(4) -0.0019(5)
loop_
_atom_type_symbol
_atom_type_description
_atom_type_scat_dispersion_real
_atom_type_scat_dispersion_imag
_atom_type_scat_source
C C 0.0033 0.0000 'International Tables Vol C Tables 4.2.6.8 and 6.1.1.4'
H H 0.0000 0.0000 'International Tables Vol C Tables 4.2.6.8 and 6.1.1.4'
N N 0.0061 0.0000 'International Tables Vol C Tables 4.2.6.8 and 6.1.1.4'
O O 0.0106 0.0000 'International Tables Vol C Tables 4.2.6.8 and 6.1.1.4'
loop_
_geom_angle_atom_site_label_1
_geom_angle_atom_site_label_2
_geom_angle_atom_site_label_3
_geom_angle
C2 N1 H1A 109.5
C2 N1 H1B 109.5
H1A N1 H1B 109.5
C2 N1 H1C 109.5
H1A N1 H1C 109.5
H1B N1 H1C 109.5
O1 C1 O2 126.01(11)
O1 C1 C2 117.10(10)
O2 C1 C2 116.82(11)
N1 C2 C1 111.54(9)
N1 C2 H2A 109.3
C1 C2 H2A 109.3
N1 C2 H2B 109.3
C1 C2 H2B 109.3
H2A C2 H2B 108.0
loop_
_geom_bond_atom_site_label_1
_geom_bond_atom_site_label_2
_geom_bond_distance
O1 C1 1.2563(15)
O2 C1 1.2565(15)
N1 C2 1.4806(15)
N1 H1A 0.9100
N1 H1B 0.9100
N1 H1C 0.9100
C1 C2 1.5320(15)
C2 H2A 0.9900
C2 H2B 0.9900
loop_
_geom_hbond_atom_site_label_D
_geom_hbond_atom_site_label_H
_geom_hbond_atom_site_label_A
_geom_hbond_distance_DH
_geom_hbond_distance_HA
_geom_hbond_distance_DA
_geom_hbond_angle_DHA
_geom_hbond_site_symmetry_A
N1 H1A O2 0.91 1.93 2.8349(14) 171.6 1_455
N1 H1B O1 0.91 1.85 2.7564(12) 172.2 1_556
N1 H1C O2 0.91 2.21 2.9616(16) 139.3 2_746
N1 H1C O1 0.91 2.25 2.9370(15) 132.4 2_646
