#------------------------------------------------------------------------------
#$Date: 2019-10-28 10:59:28 +0200 (Mon, 28 Oct 2019) $
#$Revision: 219947 $
#$URL: file:///home/coder/svn-repositories/cod/cif/4/51/47/4514787.cif $
#------------------------------------------------------------------------------
#
# This file is available in the Crystallography Open Database (COD),
# http://www.crystallography.net/
#
# All data on this site have been placed in the public domain by the
# contributors.
#
data_4514787
loop_
_publ_author_name
'Wu, Wenli'
'Cui, Enxin'
'Zhang, Yun'
'Zhang, Chen'
'Zhu, Feng'
'Tung, Chen-Ho'
'Wang, Yifeng'
_publ_section_title
;
 Involving Single-Atom Silver(0) in Selective Dehalogenation by AgF under
 Visible-Light Irradiation
;
_journal_issue                   7
_journal_name_full               'ACS Catalysis'
_journal_page_first              6335
_journal_paper_doi               10.1021/acscatal.9b01929
_journal_volume                  9
_journal_year                    2019
_chemical_formula_moiety         'C8 H6 N'
_chemical_formula_sum            'C8 H6 N'
_chemical_formula_weight         116.14
_space_group_crystal_system      monoclinic
_space_group_IT_number           14
_space_group_name_Hall           '-P 2yn'
_space_group_name_H-M_alt        'P 1 21/n 1'
_symmetry_space_group_name_Hall  '-P 2yn'
_symmetry_space_group_name_H-M   'P 1 21/n 1'
_atom_sites_solution_hydrogens   geom
_atom_sites_solution_primary     dual
_audit_creation_date             2018-12-03
_audit_creation_method
;
Olex2 1.2
(compiled 2018.05.29 svn.r3508 for OlexSys, GUI svn.r5506)
;
_cell_angle_alpha                90
_cell_angle_beta                 92.593(4)
_cell_angle_gamma                90
_cell_formula_units_Z            4
_cell_length_a                   7.8048(3)
_cell_length_b                   5.9454(3)
_cell_length_c                   13.2408(5)
_cell_measurement_reflns_used    1495
_cell_measurement_temperature    172.98(10)
_cell_measurement_theta_max      75.4910
_cell_measurement_theta_min      6.4370
_cell_volume                     613.78(5)
_computing_cell_refinement       'CrysAlisPro 1.171.39.30d (Rigaku OD, 2017)'
_computing_data_collection       'CrysAlisPro 1.171.39.30d (Rigaku OD, 2017)'
_computing_data_reduction        'CrysAlisPro 1.171.39.30d (Rigaku OD, 2017)'
_computing_molecular_graphics    'Olex2 (Dolomanov et al., 2009)'
_computing_publication_material  'Olex2 (Dolomanov et al., 2009)'
_computing_structure_refinement  'ShelXL (Sheldrick, 2015)'
_computing_structure_solution    'ShelXT (Sheldrick, 2015)'
_diffrn_ambient_environment      N~2~
_diffrn_ambient_temperature      172.98(10)
_diffrn_detector                 'CCD plate'
_diffrn_detector_type            HyPix
_diffrn_measured_fraction_theta_full 0.992
_diffrn_measured_fraction_theta_max 0.943
_diffrn_measurement_details
;
List of Runs (angles in degrees, time in seconds):

  # Type    Start    End  Width  t~exp~   \w     \q     \k     \f   Frames
--------------------------------------------------------------------------
  1  \w    -62.00 -37.00   1.00    0.10    --  -86.25 142.00-137.00   25
  2  \w    -96.00 -23.00   1.00    0.10    --  -48.45 142.00-137.00   73
  3  \w     37.00 123.00   1.00    0.10    --  107.75 -57.00 -60.00   86
  4  \w    110.00 135.00   1.00    0.10    --  107.75 128.00  51.00   25
  5  \w   -118.00 -26.00   1.00    0.10    --  -48.45 -77.00  90.00   92
  6  \w   -105.00 -70.00   1.00    0.10    --  -86.25-128.00 -23.00   35
  7  \w   -120.00 -72.00   1.00    0.10    --  -48.45-128.00 -23.00   48
  8  \w    -86.00 -61.00   1.00    0.10    --  -48.45-142.00 165.00   25
  9  \w   -158.00 -83.00   1.00    0.10    --  -86.25 -99.00-120.00   75
 10  \w     56.00  81.00   1.00    0.10    --   48.45-142.00 165.00   25
 11  \w     42.00 129.00   1.00    0.10    --  107.75-142.00 165.00   87
 12  \w     58.00 122.00   1.00    0.10    --  107.75-128.00 -23.00   64
 13  \w     96.00 134.00   1.00    0.10    --  107.75  37.00 -30.00   38
 14  \w    153.00 178.00   1.00    0.10    --  107.75  37.00 -30.00   25
 15  \w     86.00 174.00   1.00    0.10    --  107.75  77.00 120.00   88
;
_diffrn_measurement_device       'four-circle diffractometer'
_diffrn_measurement_device_type  'CCD area detector'
_diffrn_measurement_method       '\w scans'
_diffrn_orient_matrix_type
'CrysAlisPro convention (1999,Acta A55,543-557)'
_diffrn_orient_matrix_UB_11      0.0362116000
_diffrn_orient_matrix_UB_12      -0.2510083000
_diffrn_orient_matrix_UB_13      -0.0181512000
_diffrn_orient_matrix_UB_21      -0.1650859000
_diffrn_orient_matrix_UB_22      -0.0629898000
_diffrn_orient_matrix_UB_23      0.0530070000
_diffrn_orient_matrix_UB_31      -0.1023929000
_diffrn_orient_matrix_UB_32      0.0124601000
_diffrn_orient_matrix_UB_33      -0.1021084000
_diffrn_radiation_monochromator  mirror
_diffrn_radiation_probe          x-ray
_diffrn_radiation_type           CuK\a
_diffrn_radiation_wavelength     1.54184
_diffrn_reflns_av_R_equivalents  0.0355
_diffrn_reflns_av_unetI/netI     0.0413
_diffrn_reflns_Laue_measured_fraction_full 0.992
_diffrn_reflns_Laue_measured_fraction_max 0.943
_diffrn_reflns_limit_h_max       9
_diffrn_reflns_limit_h_min       -9
_diffrn_reflns_limit_k_max       7
_diffrn_reflns_limit_k_min       -7
_diffrn_reflns_limit_l_max       14
_diffrn_reflns_limit_l_min       -16
_diffrn_reflns_number            3467
_diffrn_reflns_point_group_measured_fraction_full 0.992
_diffrn_reflns_point_group_measured_fraction_max 0.943
_diffrn_reflns_theta_full        67.684
_diffrn_reflns_theta_max         76.353
_diffrn_reflns_theta_min         6.458
_diffrn_source                   'micro-focus sealed X-ray tube'
_diffrn_source_type              'PhotonJet (Cu) X-ray Source'
_exptl_absorpt_coefficient_mu    0.584
_exptl_absorpt_correction_T_max  1.00000
_exptl_absorpt_correction_T_min  0.39850
_exptl_absorpt_correction_type   multi-scan
_exptl_absorpt_process_details
;
CrysAlisPro 1.171.39.30d (Rigaku Oxford Diffraction, 2017)
Empirical absorption correction using spherical harmonics,
 implemented in SCALE3 ABSPACK scaling algorithm.
;
_exptl_crystal_colour            colourless
_exptl_crystal_colour_primary    colourless
_exptl_crystal_density_diffrn    1.257
_exptl_crystal_description       block
_exptl_crystal_F_000             244
_refine_diff_density_max         0.162
_refine_diff_density_min         -0.245
_refine_diff_density_rms         0.055
_refine_ls_extinction_method     none
_refine_ls_goodness_of_fit_ref   1.055
_refine_ls_hydrogen_treatment    constr
_refine_ls_matrix_type           full
_refine_ls_number_parameters     82
_refine_ls_number_reflns         1219
_refine_ls_number_restraints     0
_refine_ls_restrained_S_all      1.055
_refine_ls_R_factor_all          0.0648
_refine_ls_R_factor_gt           0.0523
_refine_ls_shift/su_max          0.000
_refine_ls_shift/su_mean         0.000
_refine_ls_structure_factor_coef Fsqd
_refine_ls_weighting_details
'w=1/[\s^2^(Fo^2^)+(0.0823P)^2^+0.1821P] where P=(Fo^2^+2Fc^2^)/3'
_refine_ls_weighting_scheme      calc
_refine_ls_wR_factor_gt          0.1393
_refine_ls_wR_factor_ref         0.1581
_reflns_Friedel_coverage         0.000
_reflns_number_gt                987
_reflns_number_total             1219
_reflns_threshold_expression     'I > 2\s(I)'
_iucr_refine_instructions_details
;
    exp_283.res created by SHELXL-2014/7

TITL exp_283_a.res in P2(1)/n
REM Old TITL exp_283 in P2(1)/n
REM SHELXT solution in P2(1)/n
REM R1 0.229, Rweak 0.309, Alpha 0.018, Orientation as input
REM Formula found by SHELXT: C8 N
CELL 1.54184 7.8048 5.9454 13.2408 90 92.593 90
ZERR 4 0.0003 0.0003 0.0005 0 0.004 0
LATT 1
SYMM 0.5-X,0.5+Y,0.5-Z
SFAC C H N
UNIT 32 24 4
 
L.S. 40
PLAN  2
BOND $H
LIST 6
fmap 2
acta
REM <olex2.extras>
REM <HklSrc "%.\\exp_283.hkl">
REM </olex2.extras>
 
WGHT    0.082300    0.182100
FVAR       1.10185
N1    3    0.710039    0.546027    0.175634    11.00000    0.04249    0.04549 =
         0.04606    0.00053    0.01524    0.00123
C7    1    0.611067    0.530437    0.236915    11.00000    0.03200    0.03500 =
         0.03417    0.00157    0.00262    0.00226
C3    1    0.325682    0.665737    0.446057    11.00000    0.03153    0.03610 =
         0.02838    0.00033    0.00124    0.00519
AFIX  43
H3    2    0.305577    0.783899    0.489996    11.00000   -1.20000
AFIX   0
C4    1    0.226708    0.470306    0.450156    11.00000    0.02394    0.04191 =
         0.02725    0.00576   -0.00093    0.00427
C5    1    0.259082    0.295883    0.383679    11.00000    0.02788    0.03681 =
         0.03711    0.00252    0.00040   -0.00351
AFIX  43
H5    2    0.194288    0.164862    0.386009    11.00000   -1.20000
AFIX   0
C2    1    0.453269    0.685347    0.377333    11.00000    0.02824    0.03399 =
         0.03438    0.00341    0.00238    0.00054
AFIX  43
H2    2    0.519147    0.815504    0.375505    11.00000   -1.20000
AFIX   0
C1    1    0.482523    0.509458    0.310996    11.00000    0.02450    0.03746 =
         0.02805    0.00312    0.00078    0.00369
C8    1    0.084097    0.452011    0.522455    11.00000    0.02965    0.04813 =
         0.02897    0.00853    0.00351    0.00361
AFIX  23
H8A   2    0.116309    0.532395    0.584177    11.00000   -1.20000
H8B   2    0.067535    0.295175    0.539687    11.00000   -1.20000
AFIX   0
C6    1    0.385343    0.312936    0.314268    11.00000    0.03191    0.03605 =
         0.03125   -0.00172    0.00014    0.00214
AFIX  43
H6    2    0.405305    0.194846    0.270264    11.00000   -1.20000
AFIX   0
HKLF 4
 
REM  exp_283_a.res in P2(1)/n
REM R1 =  0.0523 for     987 Fo > 4sig(Fo)  and  0.0648 for all    1219 data
REM     82 parameters refined using      0 restraints
 
END  
     
WGHT      0.0823      0.1821 

REM Highest difference peak  0.162,  deepest hole -0.245,  1-sigma level  0.055
Q1    1   0.3625  0.0723  0.3601  11.00000  0.05    0.16
Q2    1   0.3119 -0.0471  0.3330  11.00000  0.05    0.15

  REM The information below was added by Olex2.
  REM
  REM R1 = 0.0523 for 987 Fo > 4sig(Fo) and 0.0648 for all 3686 data
  REM n/a parameters refined using n/a restraints
  REM Highest difference peak 0.16, deepest hole -0.24
  REM Mean Shift 0, Max Shift 0.000.

  REM +++ Tabular Listing of Refinement Information +++
  REM R1_all = 0.0648
  REM R1_gt = 0.0523
  REM wR_ref = 0.1581
  REM GOOF = 1.055
  REM Shift_max = 0.000
  REM Shift_mean = 0
  REM Reflections_all = 3686
  REM Reflections_gt = 987
  REM Parameters = n/a
  REM Hole = -0.24
  REM Peak = 0.16
  REM Flack = n/a
;
_cod_data_source_file            cs9b01929_si_004.cif
_cod_data_source_block           exp_283
_cod_database_code               4514787
_shelx_shelxl_version_number     2014/7
_chemical_oxdiff_formula         'C N H '
_shelx_space_group_comment
;
The symmetry employed for this shelxl refinement is uniquely defined
by the following loop, which should always be used as a source of
symmetry information in preference to the above space-group names.
They are only intended as comments.
;
_reflns_odcompleteness_completeness 99.09
_reflns_odcompleteness_iscentric 1
_reflns_odcompleteness_theta     66.97
_olex2_refinement_description
;
1. Fixed Uiso
 At 1.2 times of:
  All C(H) groups, All C(H,H) groups
2.a Secondary CH2 refined with riding coordinates:
 C8(H8A,H8B)
2.b Aromatic/amide H refined with riding coordinates:
 C3(H3), C5(H5), C2(H2), C6(H6)
;
_olex2_submission_special_instructions 'No special instructions were received'
_oxdiff_exptl_absorpt_empirical_details
;
Empirical correction (ABSPACK) includes:
- Absorption correction using spherical harmonics
- Frame scaling
;
_oxdiff_exptl_absorpt_empirical_full_max 1.641
_oxdiff_exptl_absorpt_empirical_full_min 0.562
loop_
_space_group_symop_operation_xyz
'x, y, z'
'-x+1/2, y+1/2, -z+1/2'
'-x, -y, -z'
'x-1/2, -y-1/2, z-1/2'
loop_
_atom_site_label
_atom_site_type_symbol
_atom_site_fract_x
_atom_site_fract_y
_atom_site_fract_z
_atom_site_U_iso_or_equiv
_atom_site_adp_type
_atom_site_occupancy
_atom_site_site_symmetry_order
_atom_site_calc_flag
_atom_site_refinement_flags_posn
N1 N 0.71004(19) 0.5460(3) 0.17563(11) 0.0443(5) Uani 1 1 d .
C7 C 0.6111(2) 0.5304(3) 0.23691(12) 0.0337(4) Uani 1 1 d .
C3 C 0.3257(2) 0.6657(3) 0.44606(12) 0.0320(4) Uani 1 1 d .
H3 H 0.3056 0.7839 0.4900 0.038 Uiso 1 1 calc R
C4 C 0.2267(2) 0.4703(3) 0.45016(12) 0.0311(4) Uani 1 1 d .
C5 C 0.2591(2) 0.2959(3) 0.38368(12) 0.0340(4) Uani 1 1 d .
H5 H 0.1943 0.1649 0.3860 0.041 Uiso 1 1 calc R
C2 C 0.4533(2) 0.6853(3) 0.37733(12) 0.0322(4) Uani 1 1 d .
H2 H 0.5191 0.8155 0.3755 0.039 Uiso 1 1 calc R
C1 C 0.48252(19) 0.5095(3) 0.31100(11) 0.0300(4) Uani 1 1 d .
C8 C 0.0841(2) 0.4520(3) 0.52246(12) 0.0355(5) Uani 1 1 d .
H8A H 0.1163 0.5324 0.5842 0.043 Uiso 1 1 calc R
H8B H 0.0675 0.2952 0.5397 0.043 Uiso 1 1 calc R
C6 C 0.3853(2) 0.3129(3) 0.31427(12) 0.0331(4) Uani 1 1 d .
H6 H 0.4053 0.1948 0.2703 0.040 Uiso 1 1 calc R
loop_
_atom_site_aniso_label
_atom_site_aniso_U_11
_atom_site_aniso_U_22
_atom_site_aniso_U_33
_atom_site_aniso_U_23
_atom_site_aniso_U_13
_atom_site_aniso_U_12
N1 0.0425(9) 0.0455(10) 0.0461(9) 0.0005(7) 0.0152(7) 0.0012(7)
C7 0.0320(9) 0.0350(9) 0.0342(9) 0.0016(7) 0.0026(7) 0.0023(7)
C3 0.0315(8) 0.0361(9) 0.0284(8) 0.0003(6) 0.0012(6) 0.0052(7)
C4 0.0239(8) 0.0419(9) 0.0272(8) 0.0058(6) -0.0009(6) 0.0043(6)
C5 0.0279(8) 0.0368(9) 0.0371(9) 0.0025(7) 0.0004(6) -0.0035(6)
C2 0.0282(8) 0.0340(8) 0.0344(9) 0.0034(7) 0.0024(7) 0.0005(6)
C1 0.0245(8) 0.0375(9) 0.0280(8) 0.0031(6) 0.0008(6) 0.0037(6)
C8 0.0296(9) 0.0481(10) 0.0290(8) 0.0085(7) 0.0035(7) 0.0036(7)
C6 0.0319(8) 0.0361(9) 0.0313(8) -0.0017(7) 0.0001(6) 0.0021(7)
loop_
_atom_type_symbol
_atom_type_description
_atom_type_scat_dispersion_real
_atom_type_scat_dispersion_imag
_atom_type_scat_source
C C 0.0181 0.0091 'International Tables Vol C Tables 4.2.6.8 and 6.1.1.4'
H H 0.0000 0.0000 'International Tables Vol C Tables 4.2.6.8 and 6.1.1.4'
N N 0.0311 0.0180 'International Tables Vol C Tables 4.2.6.8 and 6.1.1.4'
loop_
_geom_angle_atom_site_label_1
_geom_angle_atom_site_label_2
_geom_angle_atom_site_label_3
_geom_angle
_geom_angle_site_symmetry_1
_geom_angle_site_symmetry_3
N1 C7 C1 178.01(17) . .
C4 C3 H3 119.6 . .
C2 C3 H3 119.6 . .
C2 C3 C4 120.73(15) . .
C3 C4 C8 120.72(15) . .
C5 C4 C3 118.60(14) . .
C5 C4 C8 120.64(15) . .
C4 C5 H5 119.3 . .
C6 C5 C4 121.46(15) . .
C6 C5 H5 119.3 . .
C3 C2 H2 120.2 . .
C3 C2 C1 119.69(15) . .
C1 C2 H2 120.2 . .
C2 C1 C7 120.29(14) . .
C2 C1 C6 120.34(14) . .
C6 C1 C7 119.36(14) . .
C4 C8 C8 111.89(15) . 3_566
C4 C8 H8A 109.2 . .
C4 C8 H8B 109.2 . .
C8 C8 H8A 109.2 3_566 .
C8 C8 H8B 109.2 3_566 .
H8A C8 H8B 107.9 . .
C5 C6 C1 119.18(14) . .
C5 C6 H6 120.4 . .
C1 C6 H6 120.4 . .
loop_
_geom_bond_atom_site_label_1
_geom_bond_atom_site_label_2
_geom_bond_distance
_geom_bond_site_symmetry_2
N1 C7 1.149(2) .
C7 C1 1.440(2) .
C3 H3 0.9300 .
C3 C4 1.398(2) .
C3 C2 1.384(2) .
C4 C5 1.391(2) .
C4 C8 1.505(2) .
C5 H5 0.9300 .
C5 C6 1.381(2) .
C2 H2 0.9300 .
C2 C1 1.391(2) .
C1 C6 1.395(2) .
C8 C8 1.527(3) 3_566
C8 H8A 0.9700 .
C8 H8B 0.9700 .
C6 H6 0.9300 .
loop_
_refln_index_h
_refln_index_k
_refln_index_l
_refln_F_squared_meas
_refln_F_squared_sigma
0 0 -2 13.38 1.15
0 0 -3 0.09 0.37
0 0 -4 1.22 0.6
0 0 -5 0.15 0.56
0 0 -6 136.83 7.64
0 0 -6 141.81 7.69
0 0 -7 -0.46 0.81
0 0 -7 -0.46 0.62
0 0 -8 108.44 7.28
0 0 -8 120.93 7.54
0 0 -9 0.33 0.89
0 0 -9 -0.5 0.76
0 0 -9 1.08 1.16
0 0 -10 2.85 1.17
0 0 -10 3.72 1.73
0 0 -10 3.09 1.52
0 0 -11 -0.44 0.99
0 0 -11 -0.32 0.92
0 0 -12 91.08 7.78
0 0 -12 91.57 6.84
0 0 -13 0.33 1.02
0 0 -14 258.79 13.65
0 0 -15 0.23 0.98
0 0 -16 173.27 8.55
0 1 0 0.05 0.25
0 1 -1 3245.37 130.33
0 1 1 3322.54 130.39
0 -1 -1 3299.91 130.37
0 1 -1 3286.16 130.88
0 -1 -2 69.94 3.45
0 1 -2 67.51 3.4
0 1 2 67.64 2.9
0 -1 -3 678.76 27.94
0 1 -3 672.26 27.9
0 -1 -4 921.73 39.33
0 1 -4 986.52 39.39
0 -1 -5 3.15 0.93
0 1 -5 3.29 0.91
0 -1 -6 -0.2 0.56
0 -1 -6 0.97 0.82
0 -1 -6 1.19 0.6
0 1 -6 0.2 0.53
0 1 -6 1.18 0.82
0 1 -7 19.17 2.47
0 -1 -7 23.03 2.45
0 1 -7 18.11 2.39
0 -1 -7 17.71 2.35
0 -1 -7 17.6 2.38
0 -1 -8 49.66 4.48
0 1 -8 52.97 4.61
0 -1 -9 64.65 5.42
0 -1 -9 39.78 3.97
0 -1 -9 44.35 4.04
0 -1 -9 47.7 4.71
0 1 -9 43.85 4.09
0 1 -9 70.9 5.55
0 1 -9 53.3 4.89
0 -1 -10 39.88 3.96
0 1 -10 42.92 4.67
0 -1 -10 39.68 4.57
0 1 -10 39.29 3.93
0 1 -11 7.09 2.07
0 -1 -11 5.5 1.56
0 -1 -11 4.89 1.98
0 1 -11 4.21 1.49
0 1 -12 36.66 4.87
0 -1 -12 50.74 4.72
0 1 -12 46.83 4.53
0 -1 -12 41 3.94
0 -1 -12 49.39 5.39
0 -1 -13 210.72 11.27
0 -1 -13 223.87 12.32
0 1 -13 225.18 12.37
0 -1 -14 1.39 0.98
0 1 -14 3.67 1.44
0 1 -15 36.35 3.35
0 -1 -15 42.82 3.51
0 -1 -16 4.55 0.93
0 1 -16 4.53 0.97
0 2 0 615.98 25.76
0 2 1 216.76 9.69
0 -2 -2 135.89 6
0 2 -2 137.73 5.95
0 2 -3 28.17 1.91
0 -2 -3 27.57 1.93
0 -2 -4 1128.48 44.93
0 -2 -4 1061.66 44.78
0 2 -4 1092.64 44.75
0 -2 -5 91.03 5.36
0 -2 -5 90.14 5.37
0 2 -5 96.34 5.45
0 -2 -6 79.86 4.95
0 2 -6 67.27 4.73
0 -2 -6 64.32 4.67
0 -2 -7 6.9 1.57
0 2 -7 12.18 2
0 -2 -7 11.61 1.87
0 -2 -8 198.73 11.07
0 -2 -8 198.29 10.92
0 -2 -8 218.19 11.69
0 -2 -8 209.66 11.85
0 2 -8 224.67 12.13
0 2 -8 195.05 11.01
0 -2 -9 64.21 5.73
0 -2 -9 71.24 5.29
0 -2 -9 77.23 5.83
0 2 -9 66.38 5.27
0 2 -9 76.1 6.19
0 -2 -9 68.33 5.2
0 2 -10 38.94 4.57
0 -2 -10 36.31 4.38
0 -2 -10 38.06 3.73
0 -2 -10 28.94 3.45
0 2 -10 37.55 3.91
0 -2 -11 1.26 1.21
0 -2 -11 2.37 1.07
0 -2 -11 4.05 1.49
0 2 -11 3.86 1.69
0 2 -11 1.29 1.14
0 -2 -11 4.22 1.58
0 -2 -12 47.11 4.41
0 -2 -12 42.53 4.21
0 2 -12 45 4.41
0 -2 -12 40.87 3.7
0 2 -13 -0.28 0.99
0 -2 -13 -0.52 0.8
0 -2 -13 -0.27 0.99
0 -2 -14 16.78 2.17
0 -2 -14 17.37 2.12
0 2 -14 18.34 2.28
0 2 -15 -0.52 0.79
0 -2 -15 -0.12 0.75
0 -3 -1 106.27 5.59
0 -3 -2 20.49 1.91
0 -3 -3 513.43 22.16
0 -3 -4 9.96 1.49
0 -3 -5 74.96 4.98
0 -3 -6 7.16 1.23
0 3 -6 10.06 1.87
0 -3 -6 7.19 1.56
0 -3 -7 0.21 0.55
0 -3 -7 0.27 0.83
0 -3 -8 1.18 0.94
0 -3 -8 0.31 0.95
0 -3 -9 11.63 2.22
0 -3 -9 10.04 2.19
0 -3 -10 17.86 2.78
0 -3 -10 12.84 2.55
0 -3 -10 13.16 2.31
0 -3 -11 9.04 2.15
0 -3 -11 8.22 1.78
0 -3 -12 49.93 4.24
0 -3 -12 63.75 5.17
0 -3 -13 -0.24 0.85
0 -3 -14 0.32 0.53
0 -4 0 533.32 23.44
0 -4 -1 255.99 12.36
0 -4 -2 43.23 3.82
0 4 2 56.81 4.35
0 -4 -2 50.48 3.8
0 -4 -3 194.9 10.56
0 4 -3 220.1 11.53
0 -4 -3 228.68 11.11
0 -4 -3 219.07 11.38
0 4 3 219.47 11.39
0 -4 -4 32.95 3.14
0 -4 -4 28.42 2.93
0 4 4 27.83 3.14
0 -4 -4 29.25 3.22
0 -4 -5 82.91 5.83
0 -4 -5 75.58 5.66
0 4 -5 89.4 6.32
0 -4 -5 82.79 6.14
0 4 5 91.73 6.15
0 -4 -6 8.38 1.9
0 4 6 9.7 1.93
0 -4 -6 10.74 2.07
0 4 -6 10.96 2.12
0 -4 -6 11.7 2.22
0 -4 -7 31.01 3.74
0 -4 -7 34.58 3.75
0 -4 -7 37.69 3.85
0 -4 -8 0.99 1.01
0 -4 -8 2.98 1.39
0 -4 -9 6.25 1.69
0 -4 -9 5.09 1.77
0 -4 -10 1.52 1.2
0 -4 -10 0.31 0.7
0 -4 -10 1.31 1.25
0 -4 -11 18.96 2.54
0 -4 -12 0.58 0.7
0 -4 -13 194.82 9.66
0 -4 -14 30.21 2.05
0 -5 0 -0.49 0.86
0 5 -1 228.99 12.62
0 -5 -1 240.5 12.31
0 -5 1 235.43 12.2
0 5 -2 95.24 6.58
0 -5 -2 90.55 6.08
0 -5 -2 75.79 5.54
0 -5 2 88.19 5.9
0 5 -3 82.61 6.36
0 -5 -3 89.74 6.08
0 -5 -3 85.92 6.11
0 -5 -4 6.23 1.6
0 5 -4 7.2 1.81
0 -5 -4 8.76 1.75
0 -5 -4 7.21 1.43
0 -5 -5 1.82 1.07
0 -5 -5 -0.3 0.86
0 -5 -5 1.16 0.85
0 -5 -6 2.46 1.3
0 -5 -6 3.81 1.27
0 -5 -6 4.74 1.54
0 -5 -7 2.36 1.07
0 -5 -7 0.93 1.09
0 -5 -7 1.26 0.96
0 -5 -8 -0.3 1.01
0 -5 -8 0.77 0.78
0 -5 -8 -0.3 0.74
0 -5 -9 3.59 1.28
0 -5 -9 5.39 1.48
0 -5 -9 3.91 1.22
0 -5 -10 3.06 1.16
0 -5 -11 0.48 0.69
0 -5 -12 59.13 3.48
0 6 0 251.77 13.19
0 -6 0 244.53 12.71
0 -6 -1 17.22 2.42
0 -6 1 15.95 2.37
0 6 -1 17.66 2.62
0 6 1 17.73 2.58
0 6 -2 2.93 1.31
0 6 2 4.18 1.41
0 -6 -2 2.84 1.09
0 -6 2 3.98 1.31
0 -6 -3 24.03 3.07
0 -6 3 32.21 3.16
0 6 3 32.67 3.28
0 -6 -4 0.94 0.63
0 -6 4 0.21 0.65
0 -6 -4 0.78 0.84
0 6 4 1.57 0.88
0 6 -4 0.29 0.99
0 -6 5 0.2 0.57
0 6 5 0.39 0.66
0 -6 -5 0.51 0.73
0 -6 -5 -0.19 0.69
0 -6 -6 0.96 0.73
0 -6 6 0.54 0.64
0 -6 -6 0.48 0.48
0 -6 -6 0.96 0.76
0 -6 -7 -0.12 0.44
0 -6 -7 0.89 0.73
0 -6 -7 -0.21 0.68
0 -6 7 -0.47 0.56
0 -6 -8 25.06 2.31
0 -6 -8 29.06 2.08
0 -6 -9 7.54 0.93
0 -6 -9 10.54 1.3
0 -7 0 0.31 0.49
0 7 0 2.81 0.97
0 -7 1 0.44 0.5
0 7 1 0.76 0.67
0 -7 -1 0.46 0.52
0 7 2 0.78 0.58
0 7 3 -0.1 0.38
1 0 -16 0.43 0.5
1 0 -15 5.52 1.4
1 0 -14 0.91 0.69
1 0 -13 658.54 30.34
1 0 -12 -0.5 1.24
1 0 -12 0.72 1.04
1 0 -11 96.34 7.21
1 0 -11 97.74 8.11
1 0 -10 0.81 1.09
1 0 -10 -0.42 0.95
1 0 -10 -0.32 0.79
1 0 -9 20.48 3.07
1 0 -9 15.91 2.44
1 0 -9 18.64 2.98
1 0 -8 0.31 0.88
1 0 -8 -0.62 0.94
1 0 -7 14.43 2.18
1 0 -7 12.55 2.03
1 0 -6 -0.44 0.63
1 0 -6 -0.21 0.64
1 0 -5 58.65 4.02
1 0 -4 -0.52 0.41
1 0 -4 -0.13 0.6
1 0 -3 12.38 1.01
1 0 -3 14.2 1.41
1 0 -2 0.08 0.22
1 0 -1 616.18 24.75
-1 0 0 0.03 0.15
-1 0 -1 0.26 0.31
-1 0 -2 -0.08 0.35
-1 0 -3 9999 396.92
-1 0 -4 0.15 0.55
-1 0 -5 200.51 10.07
-1 0 -6 0.21 0.72
-1 0 -7 7.25 1.63
-1 0 -8 0.29 0.93
-1 0 -9 9.04 2.06
-1 0 -9 6.96 1.63
-1 0 -9 8.86 2.24
-1 0 -10 0.75 1.14
-1 0 -10 -0.28 0.94
-1 0 -10 -1.28 1.5
-1 0 -11 0.41 1.01
-1 0 -11 -0.46 1.54
-1 0 -12 0.32 0.72
-1 0 -12 -0.41 0.83
-1 0 -13 1.83 1.16
-1 0 -14 0.54 0.98
-1 0 -15 454.75 20.53
-1 0 -16 -0.12 0.59
1 1 -16 2.55 0.76
1 -1 -16 3.81 0.87
1 -1 -15 9.01 1.57
1 1 -15 9.8 1.66
1 1 -14 108.48 6.86
1 -1 -14 106.51 6.74
1 1 -13 107.9 7.45
1 -1 -13 109.81 7.45
1 -1 -13 90.92 6.52
1 -1 -12 7.37 2.2
1 1 -12 7.22 1.93
1 1 -12 6.95 2.39
1 -1 -12 12.12 2.31
1 1 -11 8.61 2.61
1 -1 -11 9.51 2.55
1 -1 -11 15.55 2.63
1 1 -11 11.73 2.44
1 -1 -10 17.81 3.13
1 1 -10 22.01 3.51
1 -1 -10 21.22 2.93
1 1 -10 14.96 2.96
1 -1 -10 18.08 3.24
1 1 -10 22.58 3.05
1 1 -9 208.85 12.34
1 1 -9 207.97 11.5
1 -1 -9 205.67 12.28
1 -1 -9 232.5 11.84
1 1 -9 202.08 12.28
1 -1 -9 201.1 12.19
1 -1 -8 12.59 2.28
1 -1 -8 15.29 2.55
1 1 -8 12.25 2.26
1 1 -8 16.88 2.59
1 1 -7 58.33 4.83
1 -1 -7 56.8 4.77
1 -1 -7 72.45 5.27
1 -1 -7 63.47 4.38
1 1 -7 60.98 4.86
1 -1 -6 298.71 15.13
1 -1 -6 347.9 14.62
1 1 -6 310.74 15.14
1 1 -6 306.18 15.2
1 -1 -6 306.21 15.1
1 -1 -5 59.75 4.27
1 1 -5 63.56 4.11
1 1 -5 66.24 4.35
1 -1 -4 223.17 10.81
1 1 -4 238 10.87
1 1 -4 231.38 10.87
1 1 -4 230.32 10.73
1 -1 -4 229.35 10.87
1 -1 -3 11.51 1.28
1 1 -3 9.54 1.18
1 1 -3 10.76 1.26
1 -1 -2 49.89 2.87
1 1 -2 51.88 2.89
1 1 -1 105.27 5.08
-1 -1 0 1308.2 52.4
1 1 0 1337.85 52.81
-1 1 0 1308.54 52.4
1 1 1 5.67 0.66
-1 1 -1 5.81 0.67
-1 -1 -1 5.19 0.65
-1 1 -2 7659.58 300.35
-1 -1 -2 7553.83 300.39
1 1 2 7518.85 299.86
-1 -1 -2 7531.43 300.2
-1 1 -2 7623.06 300.21
-1 -1 -3 1387.06 52.73
-1 -1 -3 1272.63 52.53
-1 1 -3 1236.09 52.43
1 1 3 1304.24 51.62
-1 1 -3 1257.23 52.57
-1 1 -4 5.28 1.05
-1 -1 -4 7.57 1.22
1 1 4 6.18 0.58
-1 1 -5 2.06 0.96
1 1 5 2.02 0.36
-1 -1 -5 1.22 0.84
-1 -1 -6 279.22 14.29
-1 1 -6 285.77 14.33
1 1 6 308.55 12.47
-1 1 -7 270.11 13.63
-1 -1 -7 256.98 13.49
-1 -1 -7 277.81 13.35
-1 1 -8 154.31 9.28
-1 -1 -8 152.61 9.25
-1 -1 -9 4.47 1.26
-1 1 -9 4.33 1.3
-1 1 -9 5.43 1.69
-1 -1 -9 3.3 1.19
-1 -1 -9 5.97 1.9
-1 -1 -9 4.76 1.23
-1 -1 -9 3.06 1.39
-1 1 -9 5.82 1.78
-1 -1 -10 57.81 5.41
-1 -1 -10 78.65 6.47
-1 1 -10 53.28 4.72
-1 1 -10 73.6 6.13
-1 -1 -10 51.18 4.59
-1 1 -10 50.19 5.12
-1 -1 -10 60.02 4.55
-1 -1 -10 51.77 4.34
-1 1 -11 27.82 3.97
-1 -1 -11 14.91 2.24
-1 -1 -11 24.37 3.73
-1 1 -11 20.03 2.81
-1 1 -11 16.54 2.95
-1 -1 -11 15.72 2.93
-1 -1 -11 21.25 2.88
-1 1 -12 17.22 3.03
-1 -1 -12 18.31 2.38
-1 1 -12 22.87 3.02
-1 -1 -12 20.64 2.93
-1 -1 -12 18.35 3.05
-1 -1 -13 0.9 0.91
-1 1 -13 1.5 1.1
-1 -1 -14 5.81 1.54
-1 1 -14 6.13 1.68
-1 -1 -15 4.34 1.12
-1 1 -15 7.75 1.45
-1 -1 -16 260.2 11.18
-1 1 -16 242.48 11.16
1 2 -15 47.36 2.67
1 -2 -15 49.33 2.62
1 -2 -14 108.28 6.47
1 2 -14 107.75 6.56
1 -2 -14 102.66 6.4
1 -2 -13 61.88 5.06
1 2 -13 57.98 4.98
1 -2 -13 66.94 5.18
1 -2 -12 4.62 1.25
1 2 -12 3.28 1.53
1 -2 -12 1.27 1.08
1 2 -11 11.05 2.59
1 -2 -11 8.66 1.77
1 -2 -11 11.78 2.26
1 -2 -11 8.21 2.35
1 2 -11 9.76 2.14
1 2 -10 32.68 4.3
1 -2 -10 32.61 3.56
1 2 -10 35.73 3.95
1 -2 -10 36.89 3.9
1 -2 -10 31.88 4.26
1 2 -10 37.01 3.97
1 2 -9 37.25 4.34
1 -2 -9 40.23 3.92
1 -2 -9 37.97 4.4
1 2 -9 34.57 3.79
1 -2 -9 36.69 3.71
1 2 -8 4.15 1.19
1 -2 -8 7.23 1.87
1 -2 -8 4.6 1.43
1 -2 -8 5.22 1.3
1 2 -8 4.71 1.61
1 -2 -8 2.26 1.29
1 2 -8 5.59 1.58
1 -2 -8 5.9 1.44
1 -2 -7 0.55 0.8
1 -2 -7 0.27 0.68
1 2 -7 1.41 1.03
1 2 -7 0.56 0.7
1 -2 -7 0.22 0.6
1 -2 -6 5.23 1.17
1 2 -6 4.86 1.3
1 -2 -6 3.19 1.1
1 2 -6 3.32 1.09
1 -2 -6 5.35 1.3
1 2 -5 173.2 9
1 -2 -5 165.72 8.89
1 -2 -5 174.3 8.6
1 2 -4 108.76 6.05
1 -2 -4 112.12 6.08
1 -2 -3 0.22 0.43
1 2 -3 0.19 0.62
1 2 -3 0.44 0.48
1 -2 -2 79.49 4.21
1 2 -2 86.14 4.27
1 2 -2 83 5.01
1 2 -2 84.05 4.2
1 2 -1 3942.28 157.11
-1 -2 1 3936.5 155.67
-1 2 1 3920.98 155.69
1 2 -1 3875.33 156
1 -2 -1 3961.88 155.91
-1 2 0 445.37 18.32
-1 2 0 452.33 18.37
1 2 0 496.38 19.61
1 2 1 200.82 9.47
-1 -2 -1 210.7 8.89
1 2 2 216.03 9.67
-1 2 -3 26.95 1.88
1 2 3 25.64 1.76
-1 -2 -3 24.44 1.79
-1 2 -4 67.21 3.96
-1 -2 -4 67.78 4
1 2 4 71.74 3.48
-1 -2 -5 74.11 4.64
-1 2 -5 68.13 4.33
-1 -2 -5 68.16 4.37
-1 -2 -6 313.22 15.44
-1 2 -6 323.85 15.46
-1 -2 -7 61.65 4.63
-1 2 -7 52.3 4.31
-1 -2 -7 51.51 4.3
-1 -2 -8 5.16 1.27
-1 -2 -8 6.53 1.69
-1 2 -8 7.43 1.68
-1 -2 -8 5.12 1.48
-1 -2 -8 5 1.32
-1 2 -8 3.44 1.28
-1 2 -8 3.83 1.11
-1 -2 -8 4.98 1.53
-1 -2 -8 4 1.23
-1 -2 -9 14.63 2.46
-1 2 -9 15.91 2.33
-1 -2 -9 13.36 2.28
-1 2 -9 17.27 2.69
-1 2 -9 15.41 2.58
-1 -2 -9 14.67 2.24
-1 -2 -9 15.24 2.52
-1 -2 -9 15.83 2.24
-1 -2 -9 14.48 2.58
-1 -2 -10 10.07 2.21
-1 -2 -10 10.26 1.94
-1 2 -10 7.2 1.94
-1 -2 -10 12.28 2.48
-1 -2 -10 11.39 2.07
-1 -2 -10 8.33 1.93
-1 2 -10 8.37 2.12
-1 2 -10 9 1.9
-1 -2 -11 129.37 7.86
-1 2 -11 120.43 7.78
-1 -2 -11 105.41 7.35
-1 -2 -11 110.16 8.14
-1 2 -11 114.8 8.38
-1 -2 -11 115.11 7.36
-1 2 -12 53.35 4.66
-1 -2 -12 53.63 4.61
-1 -2 -12 51.03 4.42
-1 -2 -13 29.34 3.05
-1 -2 -13 32.81 3.39
-1 2 -13 40.48 3.71
-1 2 -14 1.72 0.97
-1 -2 -14 1.47 0.82
-1 -2 -14 -0.14 0.14
-1 -2 -15 0.71 0.47
-1 2 -15 1.07 0.52
1 -3 -14 23.3 2.37
1 -3 -13 0.51 0.83
1 -3 -13 0.61 0.52
1 -3 -12 3.58 1.49
1 -3 -12 4.33 1.19
1 -3 -11 90.78 6.91
1 -3 -11 78.15 5.95
1 -3 -10 3.83 1.46
-1 3 10 2.86 1.13
1 -3 -9 32.21 3.61
1 -3 -9 26.72 3.4
-1 3 9 28.96 3.37
-1 3 8 0.83 0.74
1 -3 -8 0.32 0.93
1 -3 -8 1.5 1.01
1 -3 -7 -0.31 0.89
-1 3 7 0.52 0.7
1 -3 -7 0.27 0.66
1 -3 -7 0.24 0.64
1 -3 -6 24.38 2.72
1 -3 -6 22.91 2.49
-1 3 6 26.48 2.94
1 -3 -5 0.77 0.75
1 -3 -5 0.81 0.91
1 -3 -5 0.57 0.5
1 -3 -4 7.58 1.25
1 3 -3 143.18 8.55
1 -3 -3 136.55 7.11
1 -3 -2 825.89 34.64
1 3 -2 858.05 36.46
1 -3 -1 71.79 4.06
1 3 -1 65.81 4.96
1 3 0 48.92 3.85
1 3 1 87.5 5.35
1 3 2 136.4 7.09
1 3 3 723.4 31.33
-1 -3 -3 805.63 32.06
-1 -3 -4 271.68 12.96
-1 -3 -5 2.58 0.93
-1 -3 -5 2.19 0.92
-1 -3 -5 1.26 0.88
-1 -3 -6 72.42 5.16
-1 -3 -6 67.66 5.08
-1 3 -6 75.26 5.1
-1 -3 -6 66.27 5.08
-1 -3 -7 0.29 0.83
-1 -3 -7 0.82 1
-1 -3 -8 6.86 1.58
-1 -3 -8 7.45 1.82
-1 -3 -9 12.77 2.32
-1 -3 -9 7.94 1.98
-1 -3 -9 7.47 1.81
-1 -3 -10 12.89 2.22
-1 -3 -10 13.99 2.57
-1 -3 -10 13.31 2.44
-1 -3 -11 2.48 1.38
-1 -3 -11 1.89 1.06
-1 -3 -12 109.42 7.09
-1 -3 -13 0.41 0.81
-1 -3 -14 15.77 1.67
1 -4 -14 3.8 0.7
1 -4 -12 6.63 1.6
1 -4 -12 5.98 1.27
1 -4 -11 85.71 6.18
1 -4 -11 79.02 5.74
1 -4 -10 343.73 17.75
1 -4 -10 355.84 17.66
1 -4 -9 0.34 1.21
-1 4 9 -0.3 0.75
1 -4 -9 0.7 0.95
1 -4 -9 -0.31 1
-1 4 8 48.39 4.58
1 -4 -8 43.47 4.51
1 -4 -8 45.09 4.46
1 -4 -7 0.95 0.96
-1 4 7 -0.33 0.82
1 -4 -7 2.96 1.45
1 -4 -7 0.92 0.93
1 -4 -6 1.43 1.15
1 -4 -6 0.86 0.96
1 -4 -6 1.39 0.98
-1 4 6 1.3 0.93
1 -4 -5 -0.25 0.62
-1 4 5 0.63 0.78
1 -4 -5 0.25 0.72
1 -4 -5 0.34 0.97
1 -4 -4 1.52 0.94
1 4 -4 1.7 1.12
-1 4 4 3.94 1.35
1 -4 -4 1.99 0.93
1 -4 -4 1.57 0.9
1 4 -3 3.64 1.3
1 -4 -3 3.71 1.39
-1 4 3 2.92 1.26
1 -4 -3 2.05 0.86
-1 4 2 0.84 0.9
1 -4 -2 0.37 0.6
1 -4 -2 0.51 0.74
1 4 -2 0.24 0.6
1 4 -1 46.43 3.92
-1 4 1 47.1 4.25
1 -4 -1 51.58 3.72
1 -4 0 217.96 10.75
-1 -4 -1 3.15 1.01
-1 -4 -2 79.14 4.84
-1 -4 -2 65.65 4.87
-1 -4 -2 81.15 5.18
-1 -4 -3 127.7 7.28
-1 -4 -3 122.7 7.48
-1 -4 -3 134.09 7.62
-1 -4 -4 225.56 11.94
-1 4 -4 249.49 12.39
-1 -4 -4 231.79 11.93
-1 -4 -4 213.99 11.54
-1 -4 -5 11.63 2.09
-1 -4 -5 12.56 2.07
-1 4 -5 17.51 2.57
-1 -4 -5 15.36 2.2
-1 -4 -6 8.57 1.8
-1 -4 -6 6.08 1.56
-1 4 -6 8.04 1.89
-1 -4 -6 10.38 1.99
-1 -4 -7 0.59 1
-1 -4 -7 -0.32 0.93
-1 -4 -7 -0.3 0.93
-1 -4 -8 16.34 2.61
-1 -4 -8 12.18 2.39
-1 -4 -8 18.89 2.74
-1 -4 -9 0.32 0.96
-1 -4 -9 1.01 1.02
-1 -4 -10 0.28 0.81
-1 -4 -10 -0.31 0.7
-1 -4 -11 8.88 1.73
-1 -4 -12 4.36 1.26
-1 -4 -13 0.41 0.64
1 -5 -12 -0.1 0.4
1 -5 -11 100.19 5.81
1 -5 -11 103.47 5.78
1 -5 -10 30.36 2.9
1 -5 -9 33.61 3.4
1 -5 -9 34.48 3.39
1 -5 -8 3.45 1.39
1 -5 -8 3.01 1.23
1 -5 -8 0.82 0.73
1 -5 -7 6.74 1.75
-1 5 7 4.89 1.48
1 -5 -7 6.4 1.86
1 -5 -7 5.6 1.43
1 -5 -6 14.91 2.23
-1 5 6 12.24 2.27
1 -5 -6 13.24 2.26
1 -5 -6 13.03 2.42
1 -5 -5 34.6 3.32
1 -5 -5 32.37 3.61
1 -5 -5 36.55 3.99
-1 5 5 35.73 3.95
1 5 -4 4.88 1.53
1 -5 -4 6.67 1.75
1 -5 -4 3.26 1.22
1 -5 -3 10.53 2.03
1 -5 -3 6.74 1.58
1 5 -2 14.56 2.41
1 -5 -2 15.48 2.34
-1 -5 2 15.59 2.27
1 -5 -2 16.36 2.3
1 -5 -1 130.04 7.72
1 5 -1 122.67 7.94
-1 -5 1 132.59 7.89
1 5 0 217.93 11.97
1 -5 0 226 11.76
-1 -5 0 241.13 12.16
-1 -5 -1 3.96 1.38
1 -5 1 7.84 1.64
1 5 1 4.82 1.45
1 -5 2 404.48 18.53
-1 -5 -2 382.1 18.9
-1 -5 -3 350.85 16.62
-1 -5 -3 350.43 17.04
-1 -5 -3 396.79 18.05
-1 -5 -4 9.77 2.07
-1 -5 -4 7.28 1.55
-1 5 -4 10 2.1
-1 -5 -4 9.09 1.77
-1 5 -5 16.06 2.66
-1 -5 -5 13.31 2.33
-1 -5 -5 15.42 2.29
-1 -5 -5 10.8 1.88
-1 -5 -6 1.24 0.91
-1 5 -6 1.58 1.16
-1 -5 -6 1.97 1.03
-1 -5 -6 0.95 1.02
-1 -5 -7 0.63 0.85
-1 -5 -7 0.85 0.99
-1 -5 -7 -0.25 0.96
-1 -5 -8 4.35 1.41
-1 -5 -8 3.3 1.19
-1 -5 -8 1.73 1.1
-1 -5 -9 2.26 1.06
-1 -5 -9 4.41 1.3
-1 -5 -9 1.05 0.85
-1 -5 -10 2.65 1.06
-1 -5 -10 2.32 1.1
-1 -5 -11 6.03 1.18
-1 -5 -12 7.38 1.01
1 -6 -9 2.5 0.7
1 -6 -8 8.79 1.36
-1 -6 8 7.14 1.12
1 -6 -7 16.73 2.12
1 -6 -6 11.8 1.82
1 -6 -6 8.1 1.58
1 -6 -5 19.53 2.34
1 -6 -5 17.35 2.36
1 -6 -4 2.13 1.02
1 -6 -4 1.44 0.81
1 -6 -3 0.19 0.61
1 -6 -3 -0.24 0.77
-1 -6 3 0.23 0.62
1 -6 -2 0.24 0.59
-1 -6 2 -0.24 0.85
1 6 -2 -0.55 1
1 6 -1 106.49 6.89
-1 -6 1 98.69 6.52
1 -6 -1 100.18 6.5
1 -6 0 222.63 11.42
-1 -6 0 222.72 11.7
-1 6 0 200.55 11.87
1 6 0 228.61 11.78
1 -6 1 2.93 1.18
1 6 1 5.34 1.42
-1 6 -1 3.57 1.58
-1 -6 -1 3.45 1.24
-1 6 -2 0.3 1.05
-1 -6 -2 0.8 0.86
1 6 2 1.37 0.98
1 -6 2 0.44 0.74
1 6 3 89.34 5.92
1 -6 3 95.42 5.94
-1 -6 -3 91.86 6.38
1 -6 4 1.01 0.71
-1 -6 -4 2.04 0.73
-1 -6 -4 1.62 1.03
1 -6 5 0.75 0.74
-1 -6 -5 0.79 0.84
-1 -6 -5 0.84 0.66
-1 -6 -5 0.66 0.46
-1 -6 -6 29.84 3.22
-1 -6 -6 31.94 2.74
-1 -6 -6 28.46 2.37
1 -6 6 27.31 2.62
-1 -6 -7 23.6 2.66
-1 -6 -7 26.92 2.44
-1 -6 -7 26.44 2.2
1 -6 7 24.62 2.33
-1 -6 -8 -0.18 0.51
-1 -6 -8 0.11 0.43
-1 -6 -9 0.08 0.31
-1 7 4 17.14 1.55
-1 7 3 6.8 1.1
-1 -7 2 5.69 1.12
-1 7 2 9.43 1.37
-1 7 1 21.29 2.19
-1 -7 1 16.55 1.91
-1 -7 0 3.77 0.93
-1 7 0 5.22 1.2
-1 7 -1 8.09 1.47
-1 -7 -1 7.51 1.31
2 0 -16 9.64 1.32
2 0 -15 -0.21 0.74
2 0 -14 4.33 1.42
2 0 -13 -0.35 1.11
2 0 -12 47.75 4.76
2 0 -12 32.19 4.74
2 0 -11 0.49 1
2 0 -11 -0.38 0.77
2 0 -11 -0.51 0.73
2 0 -10 173.66 10.83
2 0 -10 185.16 11.96
2 0 -10 175.39 11.74
2 0 -9 -0.42 1.29
2 0 -9 0.67 0.9
2 0 -9 0.43 0.98
2 0 -8 246.31 13.9
2 0 -8 239.99 13.72
2 0 -7 -0.32 0.85
2 0 -6 1073.69 46.06
2 0 -6 1066.11 46.02
2 0 -6 1088.46 44.55
2 0 -5 0.11 0.38
2 0 -5 -0.21 0.78
2 0 -4 23.76 1.83
2 0 -4 24.57 2.36
2 0 -3 0.16 0.36
2 0 -2 894.74 36.25
2 0 -1 0.05 0.27
-2 0 0 302.68 12.79
-2 0 -1 -0.08 0.5
-2 0 -2 5301.96 211.11
-2 0 -3 -0.13 0.53
-2 0 -3 0.91 0.58
-2 0 -4 431.32 19.82
-2 0 -4 458.16 19.78
-2 0 -5 -0.46 0.73
-2 0 -5 0.78 0.79
-2 0 -6 214.62 11.31
-2 0 -7 -0.27 0.87
-2 0 -8 27.83 3.01
-2 0 -8 34.36 4.3
-2 0 -8 27.97 3.35
-2 0 -9 0.99 1.06
-2 0 -9 -0.45 1.01
-2 0 -9 -0.27 0.81
-2 0 -10 58.85 4.93
-2 0 -10 49.57 5.05
-2 0 -11 0.3 1.05
-2 0 -11 0.47 1.07
-2 0 -11 -0.38 0.95
-2 0 -12 10.07 2.54
-2 0 -12 11.08 2.36
-2 0 -12 10.07 2.01
-2 0 -13 -0.27 0.78
-2 0 -14 2.02 1
-2 0 -15 0.16 0.61
-2 0 -16 11.28 1.31
2 -1 -16 0.9 0.56
2 1 -16 0.63 0.5
2 -1 -15 3.36 1.06
2 1 -15 2.35 1
2 1 -14 35.62 3.61
2 -1 -14 33.94 3.44
2 -1 -14 29.94 3.04
2 -1 -13 10.46 2.14
2 1 -13 10.14 2.16
2 -1 -12 128.88 8.75
2 1 -12 140.86 9.07
2 -1 -12 123.83 9.78
2 1 -12 114.04 9.51
2 1 -11 604.71 29.78
2 -1 -11 607.07 28.24
2 -1 -11 581.44 29.25
2 1 -11 611.51 29.62
2 1 -11 600.28 28.31
2 -1 -11 568.61 29.39
2 1 -10 212.56 13.55
2 -1 -10 222.99 13.72
2 1 -10 213.28 13.57
2 -1 -10 218.61 12.62
2 -1 -10 216.04 13.57
2 1 -10 228.92 12.89
2 -1 -9 -0.43 1.17
2 1 -9 1.32 1.41
2 1 -9 1.03 0.98
2 1 -9 0.87 0.98
2 -1 -9 0.67 0.97
2 -1 -9 0.43 1.15
2 1 -8 65.69 5.91
2 -1 -8 60.96 5.69
2 1 -8 72.23 6.07
2 -1 -8 61.59 5.78
2 1 -7 396.81 19.69
2 -1 -7 397.98 19.63
2 1 -6 190.2 10.68
2 -1 -6 187.05 10.49
2 1 -6 183.64 10.51
2 -1 -6 191.73 10.65
2 1 -6 190.15 10.04
2 -1 -5 555.31 23.51
2 -1 -5 491.92 21.11
2 1 -5 561.37 23.03
2 1 -5 567.04 23.58
2 -1 -4 0.05 0.2
2 -1 -4 -0.18 0.63
2 1 -4 0.74 0.75
2 1 -4 0.31 0.69
2 -1 -3 63.76 3.1
2 1 -3 66.95 4.04
2 -1 -2 1.72 0.34
2 1 -1 21.6 1.77
2 1 0 21.25 1.64
-2 -1 0 20.57 1.51
-2 1 0 22.21 1.55
-2 1 -1 136.7 6.51
2 1 1 140.2 6.36
-2 -1 -1 132.5 6.46
-2 -1 -2 4196.48 165.36
2 1 2 4123.67 164.72
-2 1 -2 4121.95 165.36
-2 1 -3 3194.44 127.91
2 1 3 3159.36 126.71
-2 -1 -3 3225.01 127.91
-2 1 -4 5.42 1.2
-2 -1 -4 5.88 1.22
-2 1 -4 6.4 1.4
-2 -1 -4 6.73 1.37
2 1 4 6.83 0.8
-2 -1 -5 644.43 27.62
2 1 5 638.24 26.11
-2 -1 -5 635.55 27.34
-2 1 -5 622.35 27.47
-2 -1 -6 669.54 28.52
-2 1 -6 626.14 28.52
2 1 6 660.88 26.84
-2 -1 -6 639.5 28.61
-2 -1 -7 17.98 2.31
-2 1 -7 11.67 2.1
2 1 7 12.47 1.21
-2 -1 -7 14.37 2.18
-2 1 -8 8.8 1.85
-2 1 -8 11.45 1.89
-2 1 -8 8.24 2.22
-2 -1 -8 9.09 1.95
-2 -1 -8 8.45 1.6
-2 -1 -8 13.27 2.64
-2 -1 -8 11.13 1.83
-2 -1 -9 12.85 2.39
-2 1 -9 9.73 2.44
-2 -1 -9 11.62 2.08
-2 1 -9 13.03 2.11
-2 -1 -9 15.54 3.19
-2 1 -9 10.24 2.12
-2 -1 -9 10.74 1.8
-2 -1 -10 10.56 2.01
-2 1 -10 12.69 2.52
-2 1 -10 14.34 2.31
-2 1 -10 15.03 2.95
-2 -1 -10 13.45 2.89
-2 -1 -10 13 2.54
-2 -1 -10 11.36 1.84
-2 -1 -11 19.16 2.37
-2 1 -11 19.84 3.24
-2 -1 -11 26.69 3.16
-2 -1 -11 28.39 4
-2 1 -11 27.66 3.21
-2 -1 -11 23.18 3.41
-2 1 -11 35.76 4.48
-2 1 -12 -0.44 1.17
-2 -1 -12 0.87 1.09
-2 1 -12 0.29 0.94
-2 -1 -12 -0.29 0.89
-2 1 -13 5.5 1.51
-2 -1 -13 8.63 1.82
-2 -1 -14 0.42 0.8
-2 1 -14 -0.42 0.78
-2 -1 -15 0.85 0.61
-2 1 -15 1.88 0.76
2 -2 -15 0.53 0.48
2 2 -15 0.23 0.43
2 -2 -15 -0.11 0.42
2 -2 -14 79.75 5.21
2 -2 -14 73.8 4.99
2 2 -14 77.74 5.12
-2 2 13 3.18 0.96
2 -2 -13 2.62 1.23
2 2 -13 3.3 1.19
2 -2 -12 1.56 1.14
2 2 -12 -0.32 0.81
2 -2 -12 0.4 0.53
2 -2 -11 212.87 11.85
2 2 -11 198.06 11.71
2 -2 -11 193.75 10.69
2 -2 -11 196.74 12.78
2 2 -11 195.85 12.82
2 -2 -10 177.37 10.49
2 2 -10 169 10.5
2 -2 -10 165.31 9.8
2 -2 -10 174.87 11.52
2 -2 -10 164.16 11.21
2 2 -10 166.7 11.25
2 2 -10 180.36 11.68
2 -2 -9 55.28 5.46
2 -2 -9 41.49 4.34
2 2 -9 45.88 4.64
2 2 -9 46 5.13
2 -2 -9 43.71 4.93
2 2 -9 51.89 5.32
2 -2 -9 49.37 4.48
2 -2 -8 22.04 2.94
2 -2 -8 24.82 3.03
2 2 -8 21.51 3.3
2 2 -8 20.54 3.25
2 -2 -8 25.34 3.57
2 2 -8 15.84 2.61
2 -2 -8 17.29 2.98
2 -2 -7 93.15 6.87
2 2 -7 83.37 6.62
2 2 -7 81.26 6.5
2 -2 -7 88.9 6.67
2 -2 -7 82.07 5.37
2 -2 -7 85.6 6.11
2 -2 -6 15.2 1.82
2 -2 -6 13.47 2.34
2 2 -6 12.69 2.3
2 2 -6 16.24 2.62
2 2 -6 18.9 2.7
2 2 -5 1.44 1.13
2 -2 -5 0.49 0.7
2 2 -5 0.25 0.66
2 -2 -5 0.56 0.49
2 2 -4 6.35 1.39
2 -2 -4 3.91 1.09
2 2 -3 2.49 0.8
2 -2 -3 2.7 0.35
2 -2 -3 2.21 0.81
2 2 -2 85.02 5.36
2 2 -1 223.95 11.04
-2 -2 1 226.94 9.93
-2 2 1 230.86 9.96
-2 2 0 1.96 0.55
-2 -2 0 3.33 0.66
2 2 0 1.67 0.7
-2 -2 -1 442.91 18.77
2 2 1 456.04 19.34
-2 2 -1 432.73 18.83
-2 2 -2 2.77 0.82
-2 -2 -2 2.65 0.73
2 2 2 2.02 0.7
-2 2 -3 339.55 15.17
2 2 3 346.39 14.78
-2 -2 -3 328.1 15.1
-2 -2 -3 322.84 14.85
2 2 4 86.79 4.69
-2 -2 -4 85.72 5.16
-2 -2 -5 3.14 0.95
2 2 5 4.21 0.8
-2 -2 -6 19.96 2.53
-2 -2 -7 77.59 5.46
-2 -2 -7 77.07 6.18
-2 -2 -7 80.94 5.85
-2 -2 -7 79.6 5.31
-2 -2 -7 73.89 5.36
-2 -2 -8 22.41 3.1
-2 -2 -8 26.58 2.91
-2 -2 -8 23.97 3.44
-2 -2 -8 23.15 2.84
-2 -2 -8 26.57 3.09
-2 2 -8 24.56 2.85
-2 2 -8 24.54 3.51
-2 -2 -8 30.5 2.98
-2 -2 -9 33.85 3.36
-2 -2 -9 28.85 3.14
-2 2 -9 30.87 3.84
-2 2 -9 29.5 3.24
-2 -2 -9 34.44 3.45
-2 -2 -9 29.81 3.9
-2 -2 -10 21.59 2.72
-2 2 -10 17.78 2.62
-2 -2 -10 18.76 2.49
-2 2 -10 18.75 3.15
-2 -2 -10 19.01 3.16
-2 -2 -10 16.84 2.47
-2 -2 -11 1.24 0.91
-2 2 -11 1.12 0.9
-2 2 -11 1.17 1.05
-2 -2 -11 1.94 1.42
-2 -2 -11 -0.27 0.9
-2 -2 -12 0.64 0.65
-2 -2 -12 -0.25 0.67
-2 2 -12 0.78 0.99
-2 2 -13 -0.21 0.72
-2 -2 -13 0.62 0.76
-2 -2 -13 -0.16 0.56
-2 2 -14 114.07 6.29
-2 -2 -14 116.22 6.24
-2 2 -15 0.07 0.12
2 -3 -14 4.73 1.06
2 -3 -13 -0.25 0.93
2 -3 -13 -0.13 0.18
2 -3 -12 10 1.68
-2 3 12 8.24 1.58
-2 3 11 155.42 8.92
2 -3 -11 143.07 8.76
2 -3 -10 80.9 6.18
-2 3 10 77.04 5.84
2 -3 -9 4.16 1.46
-2 3 9 3.24 1.28
2 -3 -8 90.24 6.09
2 -3 -8 88.78 6.8
2 -3 -8 74.06 6.09
-2 3 8 82.35 6.1
2 -3 -7 10.64 2
2 -3 -7 12.11 1.98
2 -3 -7 11.75 2.39
2 -3 -6 66.95 4.74
-2 3 6 63.78 5.01
2 -3 -6 54.6 4.59
2 -3 -6 66.11 5.66
-2 3 5 34.65 3.54
2 -3 -5 37.12 3.3
2 -3 -5 42.6 3.37
2 -3 -4 33.83 2.99
2 -3 -4 42.04 3.18
2 -3 -3 200.43 9.77
2 3 -3 216.23 12.15
2 -3 -2 66.61 4.05
2 3 -2 76.45 5.81
2 -3 -1 354.84 15.68
2 3 -1 375.25 17.74
2 3 0 0.25 0.76
-2 -3 0 3.48 0.86
2 3 1 871.54 36.45
-2 -3 -1 832.66 35.42
2 3 2 135.58 7.63
-2 -3 -2 141.94 7.4
2 3 3 97.04 5.75
-2 -3 -3 101.7 5.94
-2 -3 -4 3.47 1.05
-2 -3 -4 4.19 1.1
-2 -3 -5 106.43 6.78
-2 3 -5 108.38 6.52
-2 -3 -5 122.49 7.1
-2 -3 -5 112.77 6.99
-2 -3 -6 276.16 14.46
-2 -3 -6 289.25 14.22
-2 3 -6 287.65 13.78
-2 -3 -7 0.77 0.9
-2 -3 -8 21.19 2.81
-2 -3 -9 5.31 1.52
-2 -3 -9 7.37 1.71
-2 -3 -10 15.22 2.34
-2 -3 -10 13.18 2.23
-2 -3 -11 10.43 1.99
-2 -3 -12 -0.22 0.79
-2 -3 -13 30.63 2.64
-2 -3 -14 -0.07 0.07
2 -4 -13 2.09 0.76
2 -4 -13 0.08 0.15
2 -4 -12 6.29 1.4
2 -4 -12 3.15 0.94
2 -4 -11 92.02 6.19
-2 4 11 95.16 6
2 -4 -11 103.1 6.71
2 -4 -10 29.36 3.45
-2 4 10 30.4 3.29
2 -4 -10 31.03 3.68
2 -4 -9 -0.33 1.16
2 -4 -9 0.7 1.18
-2 4 9 -1.24 0.89
2 -4 -8 24.64 3.03
-2 4 8 20.97 3.03
2 -4 -7 75.15 5.77
-2 4 7 84.76 6.46
2 -4 -6 3.44 1.3
-2 4 6 5.9 1.7
2 -4 -6 3.19 1.52
2 -4 -5 1.21 0.78
2 -4 -5 0.39 0.96
-2 4 5 0.34 0.7
2 -4 -4 3.47 1.07
2 4 -4 7.58 1.86
2 -4 -4 2.93 1.35
-2 4 4 5.02 1.57
2 -4 -3 11.48 1.74
2 -4 -3 11.51 2.32
-2 4 3 9.77 2.06
2 4 -3 13.84 2.31
2 4 -2 10.42 1.87
-2 4 2 10.71 2.09
2 -4 -2 11.7 2.24
2 4 -2 8.44 2.38
2 -4 -2 8.95 1.51
2 -4 -1 129.28 8.3
2 4 -1 149.49 9.57
2 4 -1 138.12 8.09
2 -4 -1 135.01 7.41
-2 -4 1 138.87 7.77
2 -4 0 -0.17 0.57
-2 -4 0 0.21 0.6
-2 -4 0 0.3 0.48
-2 4 0 -0.29 0.79
2 -4 0 0.25 0.56
2 4 0 -0.22 0.75
-2 -4 -1 12.67 1.89
2 4 1 11.79 2.21
-2 -4 -1 10.63 1.58
-2 -4 -2 50.69 3.88
-2 -4 -2 50.75 3.97
-2 -4 -2 50.88 4.1
-2 -4 -3 40.73 3.62
-2 -4 -3 34.8 3.33
-2 -4 -3 45.91 3.9
-2 -4 -4 75.22 5.57
-2 -4 -4 86.3 5.69
-2 4 -4 84.84 5.9
-2 -4 -4 77.64 5.72
-2 4 -5 758.56 33.92
-2 -4 -5 781.51 33.98
-2 -4 -5 776.67 33.76
-2 -4 -6 0.27 0.87
-2 4 -6 1.84 1.13
-2 -4 -6 0.28 0.93
-2 -4 -7 94.65 6.64
-2 -4 -7 98.49 6.79
-2 -4 -8 5.25 1.63
-2 -4 -8 1.42 1.04
-2 -4 -10 0.3 0.81
-2 -4 -11 1.98 0.92
-2 -4 -12 -0.5 0.71
-2 -4 -13 3.18 0.74
2 -5 -11 59.03 3.73
2 -5 -11 59 3.82
2 -5 -10 62.97 4.26
2 -5 -9 12.46 1.9
-2 5 9 8.01 1.5
2 -5 -8 38.58 3.54
-2 5 8 37.2 3.67
2 -5 -8 35.71 3.83
2 -5 -7 23.16 3.26
-2 5 7 18.73 2.79
2 -5 -7 22.62 2.66
2 -5 -6 11.27 2.26
-2 5 6 8.3 2.05
2 -5 -6 6.94 1.58
2 -5 -5 0.25 0.68
2 -5 -5 0.71 1.08
-2 5 5 1.4 1.01
-2 -5 4 0.25 0.67
-2 5 4 -0.36 1.09
2 -5 -4 -0.25 0.56
2 -5 -4 0.35 0.79
-2 -5 3 0.51 0.73
2 -5 -3 1.18 0.76
2 -5 -3 0.98 1.05
-2 5 3 1.43 1.03
2 5 -3 0.91 1.15
-2 -5 2 3.11 1.15
2 -5 -2 2.75 1.05
2 -5 -2 3.03 1.15
2 5 -2 1.71 1.05
-2 -5 1 6.34 1.58
2 -5 -1 7.08 1.49
2 5 -1 6.2 1.56
2 -5 -1 4.33 1.31
-2 -5 0 22.15 2.84
2 5 0 22.7 2.78
2 -5 0 19.38 2.42
2 5 1 45.6 3.91
2 -5 1 41.77 3.55
-2 -5 -1 34.84 2.98
-2 -5 -1 40.63 3.96
-2 -5 -2 137.75 7.86
2 -5 2 163.79 8.51
-2 -5 -3 114.45 6.71
-2 5 -3 122.03 7.81
-2 -5 -3 104.46 6.58
-2 -5 -4 7.92 1.56
-2 5 -4 3.05 1.34
-2 -5 -4 7.94 1.57
-2 -5 -5 85.81 5.97
-2 5 -5 95.83 6.63
-2 -5 -5 92.21 6.02
-2 -5 -6 214.93 11.18
-2 -5 -6 202.58 10.93
-2 5 -6 207.42 11.5
-2 -5 -7 15.57 2.32
-2 -5 -7 14.31 2.29
-2 -5 -8 23.95 2.67
-2 -5 -8 20.09 2.54
-2 -5 -8 19.91 2.81
-2 -5 -9 7.25 1.58
-2 -5 -9 9.83 1.7
-2 -5 -10 0.67 0.63
-2 -5 -11 2.7 0.77
2 -6 -9 3.22 0.73
2 -6 -8 0.14 0.48
-2 -6 7 9.57 1.34
2 -6 -7 6.42 1.3
2 -6 -6 34.7 3.09
-2 -6 6 34.14 2.88
-2 -6 5 1.12 0.83
2 -6 -5 2.29 0.95
-2 -6 4 12.79 1.84
2 -6 -4 9.17 1.64
2 -6 -3 17.93 2.22
-2 -6 3 20 2.46
2 -6 -2 0.39 0.56
-2 -6 2 -0.24 0.79
-2 -6 1 0.5 0.71
2 -6 -1 0.2 0.6
-2 -6 0 7.01 1.66
2 -6 0 4.7 1.15
-2 6 0 5.97 1.72
2 -6 1 52.55 3.98
-2 6 -2 122.64 7.82
2 -6 2 123.26 7
-2 6 -3 72.09 5.41
2 -6 3 67 4.59
2 -6 4 4.33 1.06
-2 6 -4 2.76 1.28
-2 -6 -4 1.98 0.7
-2 -6 -5 12 1.53
2 -6 5 12.51 1.67
2 -6 6 0.71 0.56
-2 -6 -6 0.95 0.87
-2 -6 -6 0.13 0.5
-2 -6 -7 3.49 1.07
-2 -6 -7 3.78 0.84
-2 -6 -8 0.68 0.51
-2 7 4 0.86 0.41
-2 7 3 6.91 1.08
-2 7 2 3.84 0.91
-2 7 1 0.43 0.57
-2 7 0 0.15 0.67
-2 7 -1 0.75 0.76
3 0 -16 0.1 0.32
3 0 -15 16.51 1.99
3 0 -14 -0.26 0.69
3 0 -13 0.33 0.74
3 0 -12 1.11 1.19
3 0 -12 -0.5 0.88
3 0 -12 0.97 1.3
3 0 -11 2.38 1.4
3 0 -11 1.56 1.49
3 0 -11 2.59 1.58
3 0 -10 0.51 1.17
3 0 -10 0.4 0.91
3 0 -10 1.04 1.66
3 0 -9 253.97 15.3
3 0 -9 256.15 15.45
3 0 -8 -0.86 1.38
3 0 -7 160.57 10.37
3 0 -7 186.58 10.71
3 0 -7 154.48 8.58
3 0 -6 0.16 0.47
3 0 -6 0.31 0.82
3 0 -5 1055.92 44.04
3 0 -5 1013.07 42.5
3 0 -4 -0.13 0.5
3 0 -3 2805.19 112.45
3 0 -2 0.1 0.4
-3 0 1 172.67 8.08
3 0 -1 173.07 7.95
-3 0 0 0.33 0.38
-3 0 -1 2.01 0.66
-3 0 -2 0.59 0.67
-3 0 -3 27.13 2.54
-3 0 -4 -0.23 0.76
-3 0 -5 1676.59 69.78
-3 0 -6 6.06 1.57
-3 0 -7 44.47 5.12
-3 0 -7 40.03 3.73
-3 0 -8 -0.27 0.86
-3 0 -8 0.48 1.3
-3 0 -9 564.76 27.48
-3 0 -9 529.15 24.86
-3 0 -10 -0.29 1.06
-3 0 -10 0.5 1.24
-3 0 -11 16.67 2.46
-3 0 -11 17.9 3.38
-3 0 -12 0.26 0.92
-3 0 -12 -0.42 1.14
-3 0 -13 9.89 1.75
-3 0 -13 8.65 2.1
-3 0 -14 -0.35 0.73
-3 0 -15 1.13 0.99
3 -1 -15 1.24 0.65
3 1 -15 1.14 0.64
3 -1 -15 -0.09 0.14
3 -1 -14 0.23 0.66
3 1 -14 0.24 0.74
3 -1 -13 19.36 2.74
3 1 -13 17.42 2.67
3 -1 -12 68.29 5.83
3 1 -12 65.7 5.83
3 1 -12 59.14 6.24
3 -1 -12 77.49 6.84
3 -1 -11 160.8 10.55
3 1 -11 175.61 11.03
3 -1 -11 157.8 11.48
3 1 -11 168.88 11.92
3 1 -11 177.82 12.04
3 -1 -11 193.96 12.26
3 -1 -10 29.88 4.52
3 1 -10 30.79 4.49
3 -1 -10 32.21 4.58
3 1 -10 35.25 4.97
3 -1 -10 32.71 4.06
3 1 -10 34.09 4.2
3 1 -9 159.56 10.95
3 1 -9 129.14 10.17
3 -1 -9 151.66 10.59
3 -1 -9 145.9 10.5
3 -1 -8 294.29 16.48
3 1 -8 293.93 16.65
3 -1 -7 167.66 10.61
3 1 -7 162.39 10.66
3 -1 -7 169.69 10.55
3 1 -7 166.25 10.63
3 1 -7 163.41 9.68
3 1 -6 85.29 6.45
3 -1 -6 78.97 6.16
3 1 -6 83.05 5.77
3 1 -5 85.74 6.05
3 -1 -5 80.69 5.79
3 -1 -5 77.92 4.18
3 1 -5 79.99 5.37
3 1 -4 511.07 21.22
3 -1 -4 455.36 19.75
3 -1 -3 1.39 0.42
3 1 -3 1.49 0.74
3 -1 -2 61.66 3.22
3 1 -2 55.6 3.82
-3 1 1 0.96 0.52
-3 -1 1 2.18 0.6
-3 1 0 23.63 2.09
-3 -1 0 29.79 2.24
3 1 0 31.39 2.34
-3 -1 -1 122.64 6.46
-3 1 -1 114.27 6.44
3 1 1 135.82 6.41
-3 1 -2 290.02 14.19
-3 -1 -2 312.58 14.22
3 1 2 321.24 13.66
-3 1 -3 93.35 6.22
3 1 3 112.65 5.51
3 1 4 269.9 11.8
-3 -1 -4 252.24 13.08
-3 1 -4 260.8 13.19
-3 -1 -4 259.98 12.39
3 1 5 1660.18 65.68
-3 -1 -5 1574.69 66.68
-3 1 -5 1596.27 67.71
-3 -1 -5 1624.67 67.72
-3 -1 -6 156.03 8.88
3 1 6 161.55 7.81
-3 1 -7 1.38 1.02
-3 1 -7 0.44 1.01
-3 -1 -7 3.11 1.63
-3 -1 -7 0.46 0.77
3 1 7 3.05 0.79
-3 -1 -8 137.27 8
-3 -1 -8 148.28 8.68
-3 1 -8 156.43 8.81
-3 1 -8 167.52 10.93
-3 -1 -8 151.66 10.6
-3 1 -9 104.63 6.78
-3 -1 -9 92.6 5.95
-3 1 -9 110.17 8.58
-3 -1 -9 100.2 8.3
-3 -1 -9 94.63 6.62
-3 1 -10 32.36 4.4
-3 -1 -10 40.18 3.78
-3 1 -10 37.09 3.67
-3 -1 -10 25.93 2.74
-3 -1 -10 34.13 4.6
-3 -1 -11 0.27 0.79
-3 1 -11 0.55 0.79
-3 1 -11 1.34 1.37
-3 -1 -11 2.68 1.5
-3 -1 -12 2.27 1.03
-3 1 -12 2.53 1.15
-3 1 -12 1.2 1.29
-3 -1 -12 1.59 1.34
-3 1 -13 -0.21 0.94
-3 1 -13 0.34 1.09
-3 -1 -13 0.33 1.07
-3 -1 -13 -0.21 0.75
-3 1 -14 -1.58 1.29
-3 1 -15 5.51 1.27
-3 -1 -15 3.13 1.11
3 -2 -15 0.66 0.42
-3 2 14 2.32 0.7
3 2 -14 3.4 0.95
3 -2 -14 3.32 0.92
3 -2 -14 4.09 1.14
3 -2 -13 11.24 1.85
3 2 -13 9.26 1.78
3 -2 -12 105.39 6.85
3 2 -12 83 6.47
3 -2 -11 16.92 3.18
3 -2 -11 21.31 2.98
3 2 -11 14.22 2.59
3 2 -11 11.48 2.61
3 -2 -11 15.61 2.23
3 -2 -11 14.39 2.93
3 2 -10 0.74 0.99
3 -2 -10 1.39 1.06
3 2 -10 1.42 1.36
3 -2 -10 0.28 0.69
3 2 -10 0.94 1.35
3 -2 -10 1.41 1.26
3 -2 -10 2.32 1.42
3 2 -9 372.27 19.6
3 2 -9 404.89 20.92
3 -2 -9 387.06 20.68
3 -2 -9 358.01 20.31
3 -2 -9 380.41 18.87
3 -2 -9 385.79 19.48
3 2 -9 424.1 21.1
3 2 -8 28 4.14
3 -2 -8 22.59 3.15
3 -2 -8 31.65 4.2
3 -2 -8 23.26 3.64
3 2 -8 29.44 4.12
3 -2 -7 173.36 10.2
3 -2 -7 169.92 10.97
3 2 -7 180.44 11.17
3 2 -7 166.55 10.87
3 2 -6 12.27 2.42
3 2 -6 13.29 2.55
3 -2 -6 11.44 2.12
3 -2 -6 11.66 2.27
3 -2 -6 9.29 2.11
3 2 -6 9.85 2.22
3 2 -5 6.4 1.68
3 2 -5 6.66 1.67
3 -2 -5 6.03 1.56
3 2 -4 0.56 0.85
3 2 -4 1.28 1.11
3 -2 -4 0.24 0.74
3 -2 -3 110.75 5.17
-3 -2 2 47.92 3.12
-3 2 2 48.17 3.13
3 2 -2 46.42 3.85
-3 -2 1 128.77 6.42
-3 2 1 122.64 6.42
3 2 -1 122.8 7.15
-3 2 0 25.85 2.3
-3 -2 0 30.01 2.38
3 2 0 27.48 2.66
-3 -2 -1 651.17 27.12
3 2 1 648.91 27.42
-3 2 -1 630.47 27.17
-3 -2 -1 621.48 26.58
3 2 2 51.35 3.58
-3 2 -2 46.89 3.62
-3 -2 -2 43.66 3.15
3 2 3 133.62 7.1
-3 2 -3 125.71 7.44
-3 -2 -3 126.6 7.48
-3 -2 -3 135.58 7.09
-3 -2 -4 1117.75 46.03
3 2 4 1111.47 45.61
-3 2 -4 1127.79 46.72
-3 -2 -4 1034.03 46.48
-3 -2 -5 1391.86 58.38
-3 -2 -5 1465.63 58.14
3 2 5 1357.87 57.35
-3 -2 -6 105.22 7.02
-3 2 -6 105.55 6.15
-3 -2 -6 116.15 6.96
-3 2 -6 107.68 7.96
-3 -2 -6 103.94 7.91
-3 -2 -6 105.58 6.15
-3 2 -7 39.85 3.44
-3 -2 -7 34.06 3.83
-3 -2 -7 35.65 3.25
-3 -2 -7 42.59 3.81
-3 2 -7 41.62 4.76
-3 -2 -7 41.13 4.71
-3 -2 -8 0.5 0.81
-3 -2 -8 0.87 0.89
-3 2 -8 0.91 0.73
-3 -2 -8 0.67 0.96
-3 2 -8 0.83 1.26
-3 -2 -8 1.26 1.42
-3 -2 -9 -0.74 1.15
-3 -2 -9 0.24 0.8
-3 2 -9 0.25 0.71
-3 2 -9 -0.42 1.41
-3 -2 -9 0.42 1.22
-3 -2 -10 0.23 0.74
-3 -2 -10 0.24 0.74
-3 2 -10 0.25 0.68
-3 2 -10 -0.4 1.36
-3 -2 -10 1.22 1.3
-3 2 -11 6.07 1.54
-3 -2 -11 9.76 1.77
-3 2 -11 4.48 1.84
-3 -2 -11 8.84 2.17
-3 -2 -11 5.6 1.34
-3 2 -12 0.84 0.95
-3 -2 -12 1.93 1.09
-3 -2 -12 1.62 0.94
-3 -2 -12 1.27 0.65
-3 -2 -13 8.12 1.7
-3 2 -13 12.74 1.97
-3 -2 -14 7.36 1.35
-3 2 -14 7.05 1.38
3 -3 -14 1.51 0.73
-3 3 13 12.08 1.57
3 -3 -12 66.38 4.51
-3 3 12 74.35 5.01
-3 3 11 13.5 2.12
3 -3 -11 11.82 2.05
3 -3 -10 5.76 1.59
-3 3 10 7.5 1.75
3 3 -10 5.32 1.65
3 -3 -9 11.8 2.4
-3 3 9 9.39 1.97
3 -3 -9 11.08 2.2
3 -3 -8 589.58 28.85
3 -3 -8 675.72 29.8
3 -3 -7 60.25 5.55
3 -3 -7 50.28 4.94
3 -3 -6 13.67 2.36
3 3 -6 16.34 3.37
3 -3 -6 20.61 3.16
3 -3 -5 0.27 0.68
-3 3 5 -0.28 0.64
3 3 -4 2.1 1.54
-3 3 4 1.86 0.67
3 -3 -4 1.29 1.09
3 -3 -4 3.78 1.15
3 3 -3 15.66 2.79
-3 3 3 15.44 1.67
-3 3 3 11.76 2.01
3 -3 -3 16.07 2.5
3 3 -2 19.24 2.88
3 -3 -2 17.46 2.47
-3 3 2 14.17 2.17
3 3 -1 5.56 1.59
-3 -3 1 6.29 1.12
3 3 0 191.8 10.66
-3 -3 0 184.62 9.21
3 3 1 303.49 14.3
-3 -3 -1 294.68 13.08
-3 -3 -2 272.72 11.99
3 3 2 230.23 12.04
-3 -3 -2 202.98 11.04
-3 -3 -2 243.18 11.55
3 3 3 2.23 0.99
-3 -3 -3 2.04 0.96
-3 -3 -3 3.26 1.04
-3 -3 -3 5.42 1.25
3 3 4 8.81 1.59
-3 -3 -4 11.74 1.96
-3 -3 -4 16.34 2.25
-3 -3 -4 13.46 2.03
-3 -3 -5 3.5 1.23
-3 -3 -5 4.44 1.42
-3 3 -5 1.86 0.81
-3 -3 -6 56.45 4.93
-3 -3 -6 57.54 4.63
-3 -3 -7 81.85 6.42
-3 -3 -7 91.48 6.22
-3 -3 -7 78.65 5.82
-3 -3 -8 28.38 3.65
-3 -3 -8 33.18 3.5
-3 -3 -9 27.01 3.58
-3 -3 -9 36.06 3.51
-3 -3 -9 25.96 3.22
-3 -3 -10 3.22 1.19
-3 -3 -10 1.94 1.05
-3 -3 -11 2.86 1.04
-3 -3 -12 0.16 0.6
-3 -3 -13 -0.1 0.1
3 -4 -13 4.08 0.87
3 -4 -12 36.05 2.74
-3 4 12 35.25 2.66
3 -4 -12 39.38 3.19
3 -4 -11 0.2 0.59
-3 4 11 0.8 0.73
3 -4 -11 -0.23 0.92
3 -4 -10 6.78 1.59
3 -4 -10 5.49 1.54
-3 4 10 2.3 1.08
3 -4 -9 123.64 8.13
-3 4 9 112.23 7.62
3 -4 -8 428 21.81
-3 4 8 452.37 21.52
-3 4 7 10.48 2.28
3 -4 -6 -0.42 1.12
-3 4 6 -0.36 1.03
3 -4 -5 0.41 1.1
-3 4 5 0.36 0.9
3 4 -4 0.52 1.19
3 -4 -4 1.96 1.38
-3 4 4 0.71 1.14
3 4 -3 47.53 5.65
3 -4 -3 55.18 5.15
3 4 -2 13.14 3.07
3 -4 -2 18.01 2.8
-3 -4 2 11.89 1.69
-3 4 2 18.18 2.78
-3 -4 2 17.95 2.21
-3 -4 1 7.9 1.61
3 4 -1 10.74 2.51
3 -4 -1 6.87 1.85
-3 4 1 7.78 1.83
-3 -4 1 8.4 1.42
3 -4 0 23.95 3.11
-3 -4 0 32.94 2.94
-3 4 0 24.8 3.25
3 4 0 29.98 4.1
-3 -4 0 32.68 3.05
-3 -4 -1 105.27 6.27
3 -4 1 89.85 6.46
3 4 1 97.17 7.39
-3 -4 -1 108.73 6.58
3 4 2 20.71 2.95
-3 -4 -2 20.37 2.48
-3 -4 -2 26.39 2.87
-3 -4 -3 1.05 0.93
-3 -4 -3 0.92 0.84
-3 -4 -3 -0.23 0.92
-3 -4 -4 1.73 1.06
-3 -4 -4 1.49 0.98
-3 4 -4 0.5 0.81
-3 -4 -4 2.17 1.1
-3 -4 -5 184.07 10.88
-3 -4 -5 202.5 10.62
-3 4 -5 167.69 10.06
-3 -4 -5 206.61 10.67
-3 -4 -6 145.84 9.52
-3 -4 -6 154.76 9.12
-3 4 -6 152.22 8.81
-3 -4 -6 165.87 9.21
-3 -4 -7 55.63 5.29
-3 -4 -7 71.45 5.25
-3 -4 -8 251 13.84
-3 -4 -9 4.34 1.52
-3 -4 -10 22.2 2.52
-3 -4 -11 1.35 0.82
-3 -4 -12 0.23 0.49
3 -5 -11 16.51 1.59
3 -5 -11 15.36 1.43
3 -5 -10 0.67 0.56
3 -5 -10 0.34 0.52
-3 -5 9 -0.12 0.39
3 -5 -9 0.33 0.59
-3 5 9 -0.19 0.59
-3 -5 8 1.37 0.71
3 -5 -8 2.27 1
3 -5 -8 1.09 1.08
-3 5 8 1.97 1
3 -5 -7 48.15 4.58
3 -5 -7 50.65 3.87
-3 5 7 46.31 4.33
-3 -5 7 54.06 3.84
-3 -5 6 10.61 1.69
3 -5 -6 14.47 2.51
-3 5 6 12.92 2.39
3 -5 -5 21.66 3.16
-3 5 5 21.4 3.16
-3 -5 5 27.39 2.81
-3 5 4 87.61 6.89
3 -5 -4 88.01 6.86
-3 -5 4 95.92 6.1
-3 -5 3 8.69 1.73
-3 5 3 6.44 1.73
3 -5 -3 9.57 2.08
-3 -5 2 0.25 0.62
3 -5 -2 0.98 0.93
-3 -5 1 6.76 1.62
3 -5 -1 3.59 1.27
-3 -5 0 -0.27 0.73
3 -5 0 0.53 0.76
-3 -5 0 0.34 0.52
-3 -5 -1 27.23 2.71
-3 -5 -1 29.61 3.37
-3 -5 -2 1.75 1.03
-3 -5 -2 1.78 0.85
-3 -5 -3 7.87 1.88
-3 -5 -3 8.3 1.6
-3 5 -3 11.2 2.11
-3 5 -4 33.06 3.58
-3 -5 -4 41.26 3.48
3 -5 4 38.87 3.23
-3 -5 -4 43.07 4.23
-3 -5 -5 0.32 0.79
-3 5 -5 1.8 1.01
-3 -5 -5 0.22 0.74
-3 -5 -6 0.31 0.84
-3 5 -6 0.94 0.79
-3 -5 -6 0.22 0.76
-3 -5 -7 27.12 3.26
-3 -5 -7 21.81 2.56
-3 -5 -8 3.1 1.21
-3 -5 -8 3.83 1.14
-3 -5 -9 7.31 1.33
-3 -5 -10 19.56 1.9
3 -6 -8 0.11 0.42
3 -6 -7 4.23 0.95
-3 -6 6 0.13 0.43
3 -6 -6 0.17 0.6
3 -6 -5 10.96 1.65
-3 -6 5 11.3 1.56
-3 -6 4 10.17 1.59
3 -6 -4 6.86 1.38
3 -6 -3 11.07 1.65
-3 -6 3 14.41 1.92
-3 -6 2 7.85 1.5
3 -6 -2 5.48 1.15
-3 -6 1 1.35 0.86
-3 -6 0 9.61 1.79
-3 -6 -1 3.15 1.16
-3 6 -1 2.47 1.1
-3 6 -2 50.68 4.15
-3 -6 -2 44.87 4.05
-3 -6 -3 11.37 1.97
-3 6 -3 10.94 1.91
-3 -6 -3 12.1 1.48
-3 -6 -4 184.37 10.1
-3 -6 -4 182.93 8.92
-3 6 -4 191.09 9.85
-3 -6 -5 20.87 2.56
-3 -6 -5 20.8 1.96
-3 -6 -6 0.81 0.58
-3 -6 -6 1.63 0.62
-3 -6 -7 0.9 0.55
-3 -6 -8 0.37 0.36
-3 7 3 0.43 0.39
-3 7 2 1.55 0.59
-3 7 -1 1.54 0.64
4 0 -15 -0.27 0.43
4 0 -14 3.57 1.1
4 0 -13 -0.28 0.7
4 0 -12 2.24 1.52
4 0 -12 3.76 1.35
4 0 -11 -0.51 1.03
4 0 -11 0.39 0.88
4 0 -11 -0.5 1.15
4 0 -10 227.68 14.65
4 0 -10 229.51 14.6
4 0 -9 -0.51 1.27
4 0 -8 16.23 3.22
4 0 -7 0.21 0.53
4 0 -7 -0.41 1.02
4 0 -6 30.59 3.72
4 0 -6 27.55 2.77
4 0 -5 0.19 0.5
4 0 -5 -0.3 0.75
4 0 -4 441.69 19.67
4 0 -3 0.17 0.53
-4 0 2 175.28 8.88
-4 0 2 178.54 8.91
4 0 -2 185.71 8.97
-4 0 1 0.8 0.56
-4 0 1 0.95 0.62
4 0 -1 0.14 0.43
-4 0 0 115.39 6.62
-4 0 0 116.72 6.66
4 0 0 124.17 6.29
-4 0 -1 -0.19 0.72
-4 0 -1 -0.19 0.64
-4 0 -2 -0.21 0.6
4 0 2 0.24 0.5
-4 0 -3 0.23 0.62
4 0 3 0.38 0.5
-4 0 -4 562.96 25.86
-4 0 -5 -0.21 0.71
-4 0 -5 0.4 1.07
-4 0 -5 0.31 0.9
-4 0 -6 13.82 2.05
-4 0 -6 10 2.43
-4 0 -6 6.21 1.93
-4 0 -7 -0.5 1.35
-4 0 -7 0.26 0.84
-4 0 -8 6.4 1.71
-4 0 -8 4.2 1.86
4 0 8 5.91 1.25
-4 0 -9 0.28 0.91
-4 0 -9 -1.57 1.5
-4 0 -10 59.09 4.79
-4 0 -10 51.43 5.87
-4 0 -11 -0.5 0.67
-4 0 -11 -0.44 0.99
-4 0 -12 157.43 8.87
-4 0 -12 177.16 10.59
-4 0 -13 0.17 1.16
-4 0 -13 0.29 0.92
-4 0 -14 10.39 1.63
4 -1 -15 0.44 0.45
4 1 -15 0.11 0.44
4 -1 -14 2.61 0.95
4 1 -14 2.54 0.98
4 -1 -13 17 2.4
4 1 -13 11.32 2.08
4 1 -12 5.2 1.87
4 -1 -12 5.69 1.68
4 -1 -12 2.09 1.48
4 1 -12 3.99 1.4
4 -1 -11 1.09 1.05
4 1 -11 1.54 1.3
4 -1 -11 3.83 1.76
4 1 -11 3.49 1.83
4 -1 -10 67.97 6.72
4 1 -10 61.28 6.65
4 1 -10 75.4 7.25
4 -1 -10 55.02 6.18
4 -1 -9 2.51 1.84
4 1 -9 2.62 1.77
4 -1 -8 104.07 8.49
4 -1 -8 109.44 7.02
4 1 -8 118.3 9.06
4 1 -8 103.37 7.39
4 -1 -7 50.19 4.36
4 1 -7 57.72 5.77
4 -1 -7 49.33 5.26
4 1 -7 58.13 4.98
4 1 -6 -0.28 0.81
4 -1 -6 -0.36 1.09
4 -1 -6 0.23 0.58
4 1 -6 -0.38 1.09
4 1 -5 47.7 4.52
4 -1 -5 43.47 4.29
4 -1 -5 41.36 3
4 1 -5 46.58 4.04
4 -1 -4 9.89 1.39
4 1 -4 11.5 1.89
-4 1 3 5.28 1.12
-4 -1 3 3.56 0.9
4 -1 -3 2.75 0.81
4 1 -3 3.21 1.1
-4 1 2 2.06 0.87
-4 1 2 1.91 0.86
-4 -1 2 1.42 0.7
-4 -1 2 1.42 0.74
4 -1 -2 2.62 0.72
4 1 -2 1.79 0.95
-4 1 1 329.11 15.37
-4 -1 1 336.2 15.39
-4 1 1 326.91 15.34
-4 -1 1 330.76 15.33
4 -1 -1 347.01 14.73
-4 1 0 3.16 0.89
-4 -1 0 2.52 0.85
-4 1 0 4.09 1.06
-4 -1 0 3.78 0.96
4 1 0 2.65 0.99
-4 1 -1 96.63 6.02
-4 -1 -1 98.51 5.97
-4 1 -1 88 5.83
-4 -1 -1 93.75 5.86
4 1 1 109.55 5.96
-4 1 -2 28.26 2.84
-4 -1 -2 24.13 2.66
4 1 2 26.63 2.49
4 1 3 108.33 6.16
-4 -1 -4 596.06 23.33
4 1 4 545.66 23.01
-4 1 -4 486.16 24.2
-4 -1 -4 440.51 23.84
-4 -1 -5 23.58 2.6
-4 1 -5 29.84 2.88
-4 -1 -5 25.05 2.69
4 1 5 25.53 2.5
-4 1 -5 22.55 3.65
-4 -1 -5 24.4 3.61
-4 1 -5 20.14 2.98
-4 -1 -5 18.95 2.89
-4 -1 -6 77.63 4.96
-4 1 -6 79.27 5.26
-4 -1 -6 86.49 5.39
-4 1 -6 71.23 6.92
4 1 6 77.83 4.96
-4 1 -6 72.54 6.28
-4 -1 -6 70.85 6.15
-4 -1 -7 558.03 23.37
-4 -1 -7 471.85 22.28
-4 1 -7 545.1 23.27
-4 1 -7 504.22 26.02
-4 -1 -7 474.71 25.63
4 1 7 494.18 22.47
-4 -1 -8 96.59 6.06
-4 1 -8 118.45 7.07
-4 -1 -8 111.87 6.94
-4 1 -8 102.41 8.72
-4 -1 -8 84.95 8.15
-4 -1 -9 1.58 1.11
-4 1 -9 3.18 1.32
-4 1 -9 4.59 1.94
-4 -1 -9 0.5 1.44
-4 -1 -10 0.77 0.94
-4 1 -10 0.52 0.83
-4 1 -10 -0.48 1.28
-4 -1 -10 0.47 1.43
-4 1 -11 120.65 8.9
-4 -1 -11 113.92 8.69
-4 1 -11 129 7.59
-4 -1 -11 128.98 7.55
-4 -1 -12 -0.98 1.51
-4 1 -12 -1.38 1.71
-4 1 -12 -0.34 0.85
-4 -1 -12 0.34 0.9
-4 1 -13 42.47 3.31
-4 -1 -13 37.61 3.11
-4 1 -13 32.27 3.43
-4 -1 -13 33.35 3.5
-4 -1 -14 2.42 1.14
-4 1 -14 5.83 1.28
4 -2 -14 4.04 1.01
-4 2 14 2.53 0.7
4 -2 -14 3.45 0.76
4 2 -14 1.76 0.58
-4 2 13 4.53 1.11
4 -2 -13 4.05 1.03
4 2 -13 2.17 0.91
4 2 -12 0.54 0.54
4 -2 -12 -0.25 0.88
4 -2 -11 0.9 0.86
4 2 -11 0.65 0.8
4 -2 -11 0.4 0.82
4 -2 -11 1.19 0.73
4 2 -11 0.41 0.94
4 -2 -10 24.82 3.34
4 2 -10 27.12 3.62
4 -2 -10 24.11 2.92
4 -2 -10 20.22 3.56
4 2 -10 21.11 3.69
4 -2 -10 29.55 4.21
4 2 -10 22.31 3.66
4 -2 -9 398.15 20.61
4 2 -9 394.2 20.75
4 -2 -9 392.19 20.45
4 2 -9 374.07 20.38
4 -2 -9 339.18 18.09
4 -2 -8 506.96 24.32
4 -2 -8 502.69 25.87
4 2 -8 540.3 26.36
4 2 -8 520.36 25.47
4 2 -7 3.46 1.71
4 -2 -7 4.86 1.52
4 -2 -7 4.31 1.76
4 2 -7 5.81 1.94
4 -2 -6 665.31 30.01
4 2 -6 687.94 31.33
4 -2 -6 650.88 30.82
4 2 -6 638.89 30.8
4 -2 -5 49.18 4.41
4 -2 -5 43.72 4.53
4 2 -5 38.52 4.38
4 -2 -4 233.4 12.09
4 2 -4 219.77 12.42
4 -2 -4 216.78 12.15
-4 -2 4 229.95 11.04
-4 2 4 231.51 11.12
-4 -2 4 224.73 11.03
-4 2 4 233.76 11.16
4 2 -4 193.13 12.12
-4 2 3 46.05 3.54
-4 2 3 41.53 3.41
-4 -2 3 46.92 3.5
4 -2 -3 44.43 2.97
-4 -2 3 48.18 3.53
-4 2 2 24.93 2.49
-4 -2 2 21.6 2.32
-4 2 2 23.76 2.46
-4 -2 2 25.09 2.46
4 -2 -2 23.4 1.94
4 2 -2 23.46 2.85
-4 2 1 2.93 1
-4 -2 1 3.2 0.98
-4 2 1 3.51 1.09
-4 -2 1 2.82 1.07
4 2 -1 4.77 1.36
-4 2 0 30.09 2.9
-4 -2 0 33.15 2.97
-4 2 0 31.17 2.95
-4 -2 0 26.33 2.71
4 2 0 27.36 2.93
-4 -2 -1 2.54 0.73
-4 2 -1 3.34 1.04
-4 -2 -1 3.16 1.12
4 2 1 2.29 1.07
-4 -2 -2 5.19 1.09
-4 2 -2 7.65 1.58
4 2 2 7.96 1.67
-4 -2 -3 43.64 3.55
-4 -2 -3 56.38 4.11
4 2 3 50.97 4.04
-4 2 -3 47.35 4.3
-4 -2 -3 39.68 3.98
-4 -2 -4 102.67 6.77
-4 -2 -4 115.41 6.32
-4 -2 -4 139.87 7.46
-4 2 -4 120.86 6.44
-4 2 -4 143.58 9.09
-4 -2 -4 100.83 8.07
4 2 4 108.46 6.91
-4 2 -4 126.99 8.02
-4 -2 -4 105.18 7.44
-4 -2 -5 196.71 10.9
-4 2 -5 220.34 10.21
-4 -2 -5 241.13 11.23
-4 -2 -5 214.52 10.12
-4 2 -5 229.82 13.08
-4 -2 -5 204.16 12.55
4 2 5 173.26 10.28
-4 2 -5 183.23 11.63
-4 -2 -5 171.15 11.24
-4 -2 -6 0.28 0.75
-4 2 -6 4.17 1.46
-4 -2 -6 3.22 1.31
-4 2 -6 -0.46 0.93
-4 -2 -6 0.91 1.31
-4 -2 -6 0.24 0.82
-4 -2 -7 186.3 11.1
-4 -2 -7 206.47 10.28
-4 2 -7 199.31 10.23
-4 -2 -7 195.15 10.61
-4 2 -7 211.1 13.02
-4 -2 -7 185.78 12.47
-4 -2 -8 763.04 32.02
-4 2 -8 747 32.04
-4 -2 -8 722.37 32.17
-4 2 -8 724.21 34.76
-4 -2 -8 712.36 34.65
-4 -2 -9 14.3 2.43
-4 2 -9 17.12 2.51
-4 2 -9 19.84 3.28
-4 -2 -9 19.87 3.43
-4 -2 -9 14.41 2.18
-4 -2 -10 4.93 1.79
-4 2 -10 7.09 1.88
-4 2 -10 5.79 1.89
-4 -2 -10 7.35 2.13
-4 -2 -10 5.53 1.32
-4 -2 -11 2.95 1.88
-4 2 -11 4.43 1.97
-4 2 -11 -0.65 1.05
-4 -2 -11 0.32 0.87
-4 -2 -11 -0.15 0.49
-4 -2 -12 7.56 1.84
-4 2 -12 6.59 1.77
-4 2 -12 -0.52 0.95
-4 -2 -12 1.04 1.02
4 -3 -14 2.85 0.65
-4 3 13 1.27 0.53
4 -3 -12 0.12 0.13
-4 3 12 30.43 2.61
4 -3 -11 2.05 0.86
-4 3 11 1.68 0.91
4 3 -10 0.68 0.51
-4 3 10 1.39 0.98
4 -3 -10 2.17 1.03
4 3 -9 77.83 6
4 -3 -9 87.48 6.71
-4 3 9 89.11 6.46
4 -3 -8 11.07 2.29
-4 3 8 11.62 1.85
4 -3 -8 10.97 2.29
-4 3 8 11.63 2.29
4 3 -7 5.56 2.15
4 -3 -7 12.44 2.61
-4 3 7 9.55 2.09
-4 3 7 9.56 1.64
4 -3 -7 7.99 2.02
4 -3 -6 228.07 13.52
4 3 -6 249.26 15.05
-4 3 5 465.21 22.8
4 3 -5 508.67 25.04
-4 3 4 16.52 2.57
4 3 -3 5.29 1.99
-4 -3 3 5.96 1.07
-4 3 3 8.23 1.83
4 -3 -3 6.09 1.7
-4 -3 3 2.75 0.98
4 3 -2 1.12 1.38
-4 -3 2 2.15 0.72
4 -3 -2 2.38 1.14
-4 3 2 2.92 0.97
-4 3 2 3.69 1.29
-4 -3 2 0.65 0.88
-4 3 1 42.55 3.62
-4 -3 1 51.94 4.15
-4 3 1 43.69 4.12
4 3 -1 45.07 4.65
-4 -3 1 47.78 3.36
4 3 0 8.91 2
-4 -3 0 9.07 1.45
-4 3 0 8.18 1.66
-4 3 0 4.21 1.27
-4 -3 0 10.19 1.79
4 3 1 -0.31 0.89
-4 -3 -1 0.17 0.43
-4 3 -1 -0.25 0.56
-4 -3 -1 -0.23 0.58
-4 -3 -1 -0.22 0.55
4 3 2 2.35 1.08
-4 -3 -2 2.72 0.91
-4 -3 -2 4.33 1.3
-4 -3 -2 2.27 0.96
4 3 3 78.33 5.78
-4 -3 -3 83.4 5.46
4 3 4 10.97 1.94
-4 -3 -4 12.77 2.04
-4 -3 -5 19.15 2.61
-4 -3 -6 2.76 1.25
-4 -3 -6 3.29 1.31
-4 -3 -7 583.81 28.66
-4 -3 -7 673.77 28.54
-4 -3 -8 61.61 5.4
-4 -3 -8 70.66 5.17
-4 -3 -8 64.71 5.42
-4 -3 -9 34.71 3.37
-4 -3 -9 38.43 3.75
-4 -3 -10 25.89 2.47
-4 -3 -10 0.22 0.23
-4 -3 -11 4.23 1.04
-4 -3 -12 -0.1 0.14
-4 4 12 15.49 1.56
4 -4 -12 24.57 2.05
4 -4 -11 1.25 0.68
4 -4 -11 0.92 0.7
-4 4 11 0.51 0.62
4 -4 -10 9.7 1.78
4 -4 -10 8.14 1.71
-4 4 10 9.5 1.7
4 -4 -9 0.29 0.72
-4 4 9 0.28 0.68
4 -4 -8 34.43 3.96
-4 4 8 37.53 3.89
-4 -4 7 0.64 0.54
-4 4 7 0.35 0.99
-4 4 6 124.73 8.8
-4 -4 6 139.15 7.36
4 -4 -5 129.79 9.14
4 4 -5 125.18 10.03
-4 -4 5 130.26 7.18
-4 -4 4 -0.19 0.5
4 4 -4 0.54 1.1
4 -4 -4 0.79 0.99
-4 4 4 0.37 0.92
4 4 -3 35.77 4.96
4 -4 -3 35.24 4.12
-4 -4 3 21.78 2.58
-4 4 3 40.01 4.31
-4 -4 3 33.26 2.97
4 4 -2 12.15 2.95
-4 -4 2 13.62 1.91
4 -4 -2 13.55 2.56
-4 4 2 18.67 2.89
-4 -4 2 10.61 1.79
4 4 -1 2.32 1.5
-4 -4 1 1.85 0.79
-4 4 1 5.72 1.64
4 -4 -1 1.34 1.02
-4 -4 1 3.35 1.16
4 -4 0 41.74 4.18
-4 4 0 40.98 4.19
-4 -4 0 45.79 3.93
4 4 0 50.47 5.3
-4 -4 0 39.8 3.58
4 4 1 17.71 3.03
-4 -4 -1 14.63 2.13
4 -4 1 13.52 2.31
-4 -4 -1 16.9 2.36
-4 -4 -2 0.24 0.61
4 -4 2 -0.26 0.7
-4 -4 -2 0.24 0.7
-4 -4 -3 219.51 10.92
-4 -4 -3 174.4 10.48
-4 -4 -4 51.32 4.61
-4 4 -4 46.26 4.13
-4 -4 -5 0.3 0.86
-4 4 -5 -0.43 0.75
-4 -4 -5 -0.51 0.82
-4 -4 -6 6.8 1.88
-4 -4 -6 9.14 1.83
-4 -4 -7 41.48 4.18
-4 -4 -8 60.65 5.16
-4 -4 -8 76 5.12
-4 -4 -9 15.29 2.06
-4 -4 -10 1.92 0.83
-4 -4 -11 0.7 0.57
4 -5 -10 0.12 0.37
-4 5 9 14.24 1.78
4 -5 -9 15.28 1.51
-4 5 8 -0.42 0.68
4 -5 -7 1.33 0.94
-4 5 7 1.54 0.86
4 -5 -6 31.34 3.51
-4 5 6 31.58 3.47
-4 -5 6 30.08 2.59
4 -5 -5 42.74 4.22
-4 -5 5 38.4 3.16
-4 -5 4 4.09 1.08
4 -5 -4 6.27 1.78
-4 -5 3 1.82 0.87
4 -5 -3 -0.33 0.82
-4 5 3 2.68 1.32
4 -5 -2 30.34 3.65
-4 -5 2 38.33 3.43
-4 -5 1 43.98 3.59
4 -5 -1 53.65 4.72
-4 -5 1 57.98 4.36
4 -5 0 26.76 3.18
-4 -5 0 34.54 3.06
-4 -5 0 31.66 3.21
-4 -5 -1 0.75 0.72
-4 -5 -1 0.81 0.77
-4 -5 -2 1.31 0.88
-4 -5 -2 0.83 0.73
-4 -5 -3 15.05 2.31
-4 5 -3 15.55 2.31
-4 -5 -3 13.29 1.96
-4 -5 -4 0.27 0.78
-4 5 -4 0.22 0.6
-4 -5 -4 0.41 0.66
-4 -5 -5 0.27 0.72
-4 5 -5 1.17 0.74
-4 -5 -5 1 0.81
-4 -5 -6 8.37 1.72
-4 -5 -6 8.02 1.5
-4 -5 -7 2.01 0.94
-4 -5 -7 0.88 0.69
-4 -5 -8 54.04 3.71
-4 -5 -9 22.84 2.04
4 -6 -7 7.17 1.02
4 -6 -6 1.82 0.68
4 -6 -5 17.08 1.86
4 -6 -4 29.97 2.59
4 -6 -3 13.42 1.71
-4 -6 3 15.44 1.72
-4 -6 2 7.73 1.29
4 -6 -2 7.95 1.24
-4 -6 1 4.34 1.02
-4 -6 0 0.18 0.6
-4 6 0 0.61 0.78
-4 -6 -1 0.56 0.7
-4 6 -1 0.39 0.72
-4 -6 -2 0.38 0.51
-4 6 -2 0.91 0.66
-4 -6 -2 1.3 0.54
-4 6 -3 1.61 0.85
-4 -6 -3 2.59 0.98
-4 -6 -3 2.15 0.68
-4 -6 -4 4.23 0.88
-4 -6 -5 52.29 3.21
-4 -6 -6 8.29 1.04
5 0 -14 0.15 0.5
5 0 -13 6.8 1.46
-5 0 13 8.72 1.51
5 0 -13 5.39 1.61
5 0 -12 -0.39 0.97
5 0 -12 -0.29 0.79
5 0 -11 3.26 1.57
5 0 -11 2.49 1.36
5 0 -10 0.51 1.05
5 0 -10 -0.52 1.29
5 0 -9 145.19 10.81
5 0 -8 1.51 1.61
5 0 -6 -0.25 0.67
5 0 -5 41.43 4.69
-5 0 5 52.61 4.03
5 0 -5 45.95 4
-5 0 4 -0.21 0.67
-5 0 4 -0.21 0.66
5 0 -4 0.24 0.68
-5 0 3 412.77 18.55
-5 0 3 390.96 18.38
5 0 -3 395.68 18.66
-5 0 2 -0.22 0.88
-5 0 2 0.66 0.8
5 0 -2 -0.22 0.77
-5 0 1 418.87 19.31
-5 0 1 402.07 19.17
5 0 -1 413.17 18.85
-5 0 0 -0.26 0.79
-5 0 0 -0.26 0.69
5 0 0 0.2 0.66
-5 0 -1 16.95 2.49
-5 0 -2 -0.88 0.89
-5 0 -2 0.74 0.84
5 0 2 0.52 0.64
-5 0 -3 6.83 1.75
-5 0 -3 9.09 2.43
5 0 3 7.18 1.37
-5 0 -4 0.89 1.24
-5 0 -4 -0.44 1.17
5 0 4 -0.57 0.72
-5 0 -4 -0.72 1.1
-5 0 -5 34.97 3.58
5 0 5 24.41 2.63
-5 0 -5 27.82 4.18
-5 0 -5 23.23 3.47
-5 0 -6 0.52 1.4
-5 0 -6 -0.42 1.36
5 0 6 0.44 0.77
-5 0 -7 154.76 12.04
5 0 7 176.23 9.88
-5 0 -8 0.55 1.24
5 0 8 -0.5 0.83
-5 0 -9 50.17 4.35
-5 0 -9 30.47 4.64
-5 0 -10 12.9 2.68
-5 0 -10 0.45 1.29
-5 0 -11 100.46 6.05
-5 0 -11 80.23 6.68
-5 0 -12 10.42 1.85
-5 0 -12 -0.28 0.87
-5 0 -13 16.69 2.17
-5 1 14 63.7 3.98
5 -1 -14 77.49 4.32
5 1 -14 74.6 4.33
5 1 -13 -0.21 0.64
-5 1 13 -0.16 0.61
-5 -1 13 -0.32 0.65
5 -1 -13 0.41 0.65
5 -1 -12 4.02 1.37
5 -1 -12 4.66 1.64
5 1 -12 8.45 2.05
5 1 -12 3.66 1.41
5 -1 -11 8.25 2.06
5 1 -11 6.25 1.78
5 1 -11 5.41 2.06
5 -1 -11 6.11 2.05
5 -1 -10 16.29 3.08
5 1 -10 7.69 2.48
5 -1 -9 9.7 2.68
5 1 -9 14.38 3.23
5 -1 -8 57.65 4.71
5 1 -8 58.49 6.44
5 -1 -8 56.01 6.06
5 -1 -8 52.62 5.88
5 1 -8 50.87 5.95
5 -1 -7 64.4 5.1
5 1 -7 63.01 6.41
5 -1 -7 61.32 6.2
5 1 -7 62.45 5.58
5 1 -6 179.5 11.73
5 -1 -6 180.38 11.57
5 -1 -6 179.23 10.08
5 1 -6 171.45 10.54
5 1 -5 1.59 1.12
5 1 -5 3.23 1.54
5 -1 -5 1.94 1.36
-5 1 5 2.43 1.08
-5 -1 5 2.65 0.95
-5 1 5 1.09 0.81
-5 -1 5 1.97 0.92
-5 1 4 57.93 4.36
-5 -1 4 62.07 4.5
-5 1 4 49.87 4.12
-5 -1 4 61.77 4.46
5 -1 -4 51.62 4.04
5 1 -4 61.1 5.03
-5 1 3 154.6 8.37
-5 -1 3 147.32 8.27
-5 1 3 144.14 8.17
-5 -1 3 138.59 8.12
5 -1 -3 142.11 7.88
5 1 -3 133.07 8.57
-5 1 2 205.74 10.67
-5 -1 2 192.18 10.5
-5 1 2 194.61 10.49
-5 -1 2 211.05 10.65
5 -1 -2 193.16 9.96
5 1 -2 186.56 10.71
-5 -1 1 277.3 14.08
-5 1 1 294.29 14.59
-5 -1 1 298.05 14.55
-5 1 1 289.8 14.54
-5 -1 1 270.67 14.31
5 -1 -1 304.99 13.67
-5 -1 0 135.21 7.73
-5 1 0 137.76 8.41
-5 -1 0 141.09 8.41
-5 1 0 144.6 8.53
-5 -1 0 136.12 8.31
5 -1 0 132.7 7.23
-5 1 -1 9.95 2.03
-5 -1 -1 13.82 2.14
-5 -1 -1 8.85 1.59
-5 1 -1 12.81 2.53
5 -1 1 8.74 1.38
5 1 1 10.85 1.89
-5 -1 -2 42.77 3.47
-5 1 -2 35.23 3.89
-5 -1 -2 36.46 3.91
5 -1 2 43.82 3.23
-5 1 -2 44.75 4.83
-5 -1 -2 34.57 4.22
5 1 2 44.75 3.8
-5 -1 -3 29.44 2.83
5 1 3 29.05 3.01
-5 1 -3 28.2 3.92
-5 -1 -3 25.22 3.68
-5 1 -3 25.47 3.41
-5 -1 -3 24.9 3.47
-5 -1 -4 8.49 1.49
-5 1 -4 6.86 2.34
-5 -1 -4 7.41 2.19
-5 1 -4 6.03 1.81
-5 -1 -4 5.06 1.7
5 1 4 5.66 1.5
-5 -1 -5 20.97 2.45
-5 -1 -5 31.08 3.05
-5 1 -5 31.03 3.14
5 1 5 25.53 2.95
-5 1 -5 22.47 3.87
-5 -1 -5 21.68 3.83
-5 1 -5 12.39 2.72
-5 -1 -5 19.63 3.25
-5 -1 -6 270.48 12.82
-5 1 -6 292.59 13.39
-5 -1 -6 301.39 13.51
-5 1 -6 251.17 15.92
-5 -1 -6 256.36 15.78
5 1 6 255.98 13.4
-5 1 -6 217.53 14.52
-5 -1 -6 201.53 14.06
-5 -1 -7 195.72 10.42
-5 -1 -7 233.45 11.34
-5 1 -7 231.23 11.3
-5 1 -7 214.65 14
-5 -1 -7 161.32 12.73
5 1 7 189.67 11.02
-5 -1 -8 56.06 4.62
-5 1 -8 56.96 4.52
-5 1 -8 33.42 5.04
5 -1 8 36.76 3.7
-5 -1 -8 34.6 4.95
-5 -1 -9 15.66 2.82
-5 1 -9 15.04 2.7
-5 1 -9 6.4 2.26
-5 -1 -9 3.87 1.8
-5 -1 -10 94.98 5.8
-5 1 -10 92.85 5.84
-5 1 -10 68.54 6.56
-5 -1 -10 58.55 6.12
-5 -1 -11 17.27 2.46
-5 1 -11 17.73 2.46
-5 1 -11 10.33 2.33
-5 -1 -11 11.59 2.34
-5 1 -12 -0.26 0.95
-5 -1 -12 0.51 0.82
5 -2 -14 5.2 0.87
-5 2 13 3.58 0.88
5 -2 -13 2.86 0.73
5 2 -13 4 0.88
5 -2 -12 1.15 0.76
5 2 -12 1.04 0.76
-5 2 12 0.96 0.68
-5 2 12 0.43 0.55
-5 -2 12 0.56 0.57
5 -2 -11 13.88 2.5
5 -2 -11 11.88 2.07
5 2 -11 12.1 2.08
-5 2 11 15.28 1.94
-5 -2 11 14.77 1.88
5 2 -11 10.87 2.26
5 -2 -10 0.42 0.85
5 -2 -10 1.34 0.68
5 -2 -10 0.31 0.77
5 2 -10 -0.67 1.08
5 2 -10 0.43 1.06
-5 2 10 -0.42 0.63
-5 -2 10 0.2 0.68
-5 2 9 3.64 1.21
-5 -2 9 3.73 1.17
5 -2 -9 2.57 1.2
5 -2 -9 4.19 1.77
5 2 -9 5.27 2.07
5 -2 -8 4.3 1.76
5 2 -8 4.96 2.02
5 2 -8 5.1 1.98
5 -2 -8 3.57 1.45
-5 2 8 4.86 1.29
-5 -2 8 4.21 1.2
-5 2 8 3.8 1.22
-5 -2 8 3.89 1.15
5 2 -7 64.6 6.57
5 -2 -7 61.33 6.26
-5 2 7 64.16 4.9
-5 -2 7 66.34 4.92
5 -2 -7 58.27 6.24
5 2 -7 57.42 6.35
-5 2 7 82.71 5.33
-5 -2 7 63.52 4.79
5 -2 -7 64.37 5.61
5 2 -7 68.11 6.45
5 -2 -6 68.85 5.75
5 2 -6 70.99 6.66
5 -2 -6 53.64 5.81
-5 2 6 75.8 5.28
-5 -2 6 71.9 5.12
-5 2 6 72.22 5.2
-5 -2 6 59.89 4.79
5 2 -6 66.86 6.29
5 -2 -5 468.73 22.88
5 2 -5 475.38 24.08
5 -2 -5 447.34 23.49
-5 2 5 492.14 22.13
-5 -2 5 490.2 22.03
-5 2 5 485.53 22.08
-5 -2 5 499.83 22.09
5 2 -5 452.16 23.59
5 2 -4 69.76 6.16
5 -2 -4 65.67 5.87
-5 2 4 72.24 5.27
-5 -2 4 74.01 5.27
-5 2 4 71.98 5.23
-5 -2 4 76.56 5.3
5 2 -4 61.13 5.86
-5 -2 3 69.21 5.53
-5 2 3 81.21 5.75
-5 -2 3 83.22 5.72
-5 2 3 76.91 5.61
-5 -2 3 79.52 5.61
5 -2 -3 81.43 4.96
5 2 -3 77.19 6.32
-5 -2 2 159.69 9.63
-5 2 2 167.82 9.66
-5 -2 2 177.02 9.73
-5 2 2 149.55 9.13
-5 2 2 170.81 9.67
-5 -2 2 172.83 9.66
5 -2 -2 178.32 8.73
-5 2 1 -1.14 1.3
-5 -2 1 -0.28 0.97
-5 2 1 -0.23 0.58
-5 2 1 -0.28 1.02
-5 -2 1 0.27 0.95
-5 -2 1 -0.26 1.03
5 -2 -1 -0.16 0.56
5 2 -1 0.65 1.15
-5 2 0 17.75 2.7
-5 -2 0 17.82 2.65
5 -2 0 21.96 2.16
5 2 0 26.43 3.28
-5 2 0 22.22 3.25
-5 2 -1 9.8 2.04
-5 -2 -1 5.54 1.66
-5 2 -1 10.18 2.26
-5 -2 -1 12.21 2.49
5 2 1 8.23 1.94
-5 -2 -2 26.65 2.91
-5 2 -2 21.54 3.43
-5 -2 -2 21.3 3.36
-5 2 -2 23.11 3.22
5 2 2 18.72 2.78
-5 2 -3 0.43 1.16
-5 -2 -3 -0.42 1.2
-5 -2 -3 1.51 0.95
-5 2 -3 3.21 1.49
-5 -2 -3 1.04 1.06
5 2 3 0.3 0.96
-5 2 -4 1.87 1.5
-5 -2 -4 0.46 1.31
-5 -2 -4 2.04 1.22
-5 2 -4 1.12 1.14
-5 -2 -4 0.73 1.17
5 2 4 1.78 1.13
-5 -2 -5 0.88 0.59
-5 2 -5 -0.5 1.01
-5 -2 -5 -1.92 1.47
-5 -2 -5 1.03 0.94
-5 2 -5 0.41 0.92
-5 -2 -5 -0.39 0.97
5 2 5 0.87 0.88
-5 -2 -6 133.47 7.94
-5 2 -6 124.79 9.82
-5 -2 -6 122.55 9.62
-5 -2 -7 173.89 9.58
-5 2 -7 178 11.91
-5 -2 -7 163 11.54
-5 -2 -8 36.43 3.36
-5 2 -8 38.44 4.84
-5 -2 -8 35.17 4.56
-5 -2 -9 103.09 6.18
-5 2 -9 99.31 7.77
-5 -2 -9 104.11 7.84
-5 2 -10 16.49 2.63
-5 -2 -10 11.43 2.3
-5 -2 -10 10.5 1.48
-5 2 -11 111.8 7.01
-5 -2 -11 108.7 6.95
-5 -2 -12 2.8 0.95
5 -3 -13 4.8 0.89
-5 3 12 2.07 0.74
5 -3 -11 0.14 0.21
-5 3 11 0.2 0.5
5 -3 -10 -0.22 0.55
-5 3 10 -0.24 0.7
5 3 -9 0.22 0.23
5 -3 -9 -0.29 0.83
-5 3 9 -0.85 1
5 -3 -8 10 2.25
5 3 -8 9.62 1.84
5 -3 -7 47.37 4.91
-5 3 7 45.31 4.54
5 3 -7 53.96 5.95
5 -3 -7 43.52 4.72
5 -3 -6 1090.5 48.52
-5 3 6 1137.77 48.19
-5 3 6 1085.03 46.66
5 3 -6 1096.92 50.21
5 3 -5 2.04 1.64
5 -3 -5 1.16 1.04
-5 3 5 2.1 1.18
-5 3 5 1.76 1.02
-5 3 4 14.09 2.52
-5 3 4 6.43 1.67
5 -3 -3 100.47 7.48
-5 -3 3 97.68 6.88
-5 3 3 110.6 7.52
5 3 -3 107.61 8.46
5 -3 -2 68.94 5.67
-5 -3 2 59.73 5.12
-5 3 2 61.47 5.29
5 3 -2 59.33 5.89
5 3 -1 14.01 2.9
-5 -3 1 22.52 2.91
-5 3 1 15.96 2.57
5 -3 -1 20.44 2.1
5 3 0 5.9 1.78
-5 3 0 9.99 1.88
-5 -3 0 11.16 2.07
5 -3 0 10.22 1.59
5 3 1 -0.75 1.14
-5 3 -1 -0.49 0.66
-5 -3 -1 0.57 0.92
-5 -3 -2 42.64 4.02
5 3 2 30.25 3.85
5 3 3 5.7 1.57
-5 -3 -3 4.19 1.12
-5 -3 -4 7.97 1.55
-5 -3 -5 7.89 1.67
-5 -3 -5 11.08 2.11
-5 -3 -6 0.73 0.74
-5 -3 -6 0.71 0.95
-5 -3 -6 1.09 0.92
-5 -3 -7 59.16 4.67
-5 -3 -7 54.54 5.02
-5 -3 -8 122.58 6.17
-5 -3 -8 49.41 4.86
-5 -3 -9 4.73 1.2
-5 -3 -10 329.83 14.85
-5 -3 -11 -0.09 0.13
5 -4 -11 4.38 0.85
-5 4 11 4.74 0.89
5 -4 -10 96.19 5.56
-5 4 10 92.83 5.62
5 -4 -10 94.84 5.52
5 -4 -9 22.19 2.61
-5 4 9 24.72 2.73
5 -4 -8 3.45 1.34
5 -4 -7 0.67 1.08
-5 4 6 23.43 3.21
5 -4 -5 49.62 4.93
-5 4 5 39.12 4.38
5 4 -4 33.62 4.96
5 -4 -4 43.37 4.62
-5 4 4 34.15 4.11
5 4 -3 2.65 1.62
5 -4 -3 2.28 1.22
-5 4 3 2.53 1.33
5 4 -2 10.23 2.73
5 -4 -2 10.67 2.37
-5 4 2 10.38 2.2
-5 -4 2 8.55 1.79
5 4 -1 21.81 3.64
5 -4 -1 16.57 2.83
-5 4 1 15.26 2.61
-5 -4 1 14.67 2.3
5 4 0 12.19 2.76
5 -4 0 14.37 2.5
-5 -4 0 11.46 2.08
5 -4 1 22.4 3.01
-5 -4 -1 28.33 3.13
5 4 1 29.39 3.99
-5 -4 -2 5.27 1.28
5 -4 2 5.07 1.44
-5 -4 -2 3.98 1.33
-5 -4 -3 32.71 3.27
5 -4 3 32.48 3.34
-5 -4 -3 41.04 3.79
-5 -4 -4 34.47 3.49
-5 -4 -4 55.65 4.34
-5 -4 -5 0.23 0.7
-5 -4 -5 0.25 0.75
-5 -4 -6 19.18 2.43
-5 -4 -7 6.05 1.39
-5 -4 -8 -0.18 0.68
-5 -4 -9 24.09 2.25
-5 -4 -10 30.61 2.29
5 -5 -9 6.72 1.04
-5 5 8 3.18 0.92
5 -5 -7 71.33 4.91
5 -5 -6 21.03 2.6
5 -5 -5 6.44 1.61
-5 5 5 8.05 1.73
5 -5 -4 3.15 1.24
-5 5 4 4.69 1.49
5 -5 -3 6.16 1.65
5 -5 -2 64.44 5.23
5 -5 -1 4.69 1.35
-5 -5 1 3.56 1
5 -5 0 0.25 0.67
-5 -5 0 -0.19 0.62
5 -5 1 4.37 1.18
-5 -5 -1 5.52 1.33
-5 5 -2 24.36 2.51
-5 -5 -2 23.33 2.43
-5 -5 -3 2.04 0.75
-5 -5 -3 4.23 1.16
-5 -5 -4 0.53 0.51
-5 -5 -4 11.43 1.69
-5 -5 -5 -0.16 0.23
-5 -5 -5 1.89 0.86
-5 -5 -6 35.94 2.9
-5 -5 -7 26.11 2.28
5 -6 -4 0.39 0.37
5 -6 -3 0.19 0.35
-5 6 2 23.09 2.17
-5 6 1 11.01 1.49
-5 6 0 3.49 0.86
-5 6 -1 0.11 0.25
6 0 -13 -0.16 0.6
6 0 -12 58.64 4.52
6 0 -12 50.03 4.88
6 0 -11 -0.79 0.81
6 0 -11 -0.3 0.75
-6 0 11 0.23 0.77
-6 0 10 6.77 1.67
6 0 -10 4.28 1.76
-6 0 9 0.28 0.85
-6 0 8 66.23 5.14
-6 0 8 62.72 4.96
-6 0 7 -0.28 0.82
-6 0 7 -0.56 0.85
-6 0 6 64.21 5.09
-6 0 6 59.91 4.93
6 0 -5 0.31 0.76
-6 0 5 0.28 0.8
-6 0 5 0.27 0.83
-6 0 4 56.36 4.74
-6 0 4 56.74 4.74
6 0 -4 55.33 4.95
-6 0 3 0.29 0.92
6 0 -3 -0.6 1.01
-6 0 2 22.51 2.95
-6 0 2 17.96 2.71
6 0 -2 21.6 2.95
-6 0 1 0.66 0.83
-6 0 1 0.32 0.93
6 0 -1 -0.28 0.9
-6 0 0 154.46 9.92
-6 0 0 154.06 9.95
6 0 0 166.03 9.35
-6 0 -1 -0.37 1
-6 0 -1 -0.46 1.23
6 0 1 -0.26 0.74
-6 0 -2 126.57 8.86
-6 0 -2 129.55 9.81
-6 0 -3 -0.21 0.56
-6 0 -3 -0.51 1.16
6 0 3 -0.26 0.83
-6 0 -3 0.88 1.1
-6 0 -4 8.6 2.59
-6 0 -4 8.06 2.35
6 0 4 10.19 2
-6 0 -5 -0.56 1.4
-6 0 -5 -0.45 1.03
6 0 5 -0.28 0.76
-6 0 -6 121.84 10.08
6 0 6 145.4 8.39
-6 0 -7 -0.56 1.4
6 0 7 -0.31 0.83
-6 0 -8 127.3 9.88
-6 0 -9 0.89 1.28
-6 0 -10 0.36 1.1
-6 0 -11 -0.27 0.86
-6 0 -12 3.28 1.01
6 -1 -13 0.38 0.46
6 1 -13 0.4 0.45
-6 1 13 0.11 0.37
6 -1 -13 0.12 0.47
6 1 -13 0.26 0.45
6 -1 -12 6.39 1.37
6 1 -12 7.86 1.5
6 -1 -12 6.25 1.54
-6 1 12 6.04 1.24
-6 -1 12 8.24 1.36
6 1 -12 9.21 1.83
6 -1 -11 21.11 2.73
6 1 -11 25.35 3.01
-6 1 11 22 2.46
-6 -1 11 21.1 2.47
6 -1 -11 18.87 3.05
6 1 -11 19.07 3.1
-6 1 10 -0.24 0.72
-6 -1 10 -0.24 0.79
6 -1 -10 -0.44 1.01
6 1 -10 0.45 1.03
-6 1 9 8.56 1.85
-6 -1 9 6.19 1.55
6 -1 -8 1.29 0.91
-6 1 8 0.81 0.96
-6 -1 8 0.27 0.95
6 -1 -7 278.18 14.79
6 1 -7 282.67 17.23
6 -1 -7 278.17 16.91
-6 1 7 285.99 14.77
-6 -1 7 290.57 14.81
-6 1 7 302.29 14.9
-6 -1 7 303.48 14.94
6 1 -6 0.38 1.02
6 1 -6 1.59 1.32
6 -1 -6 0.51 1.17
6 -1 -6 0.61 0.88
-6 1 6 0.57 0.82
-6 -1 6 0.28 0.7
-6 1 6 0.83 0.97
-6 -1 6 0.55 0.79
6 1 -5 19.37 3.11
6 1 -5 22.25 3.89
6 -1 -5 29.8 4.29
-6 1 5 21.12 2.82
-6 -1 5 20.79 2.83
-6 1 5 20.65 2.72
-6 -1 5 22.56 2.89
6 1 -4 10.01 2.35
-6 1 4 8.22 1.88
-6 -1 4 8.82 1.95
-6 1 4 8.28 1.85
-6 -1 4 10.86 2.09
6 -1 -4 10.73 1.93
-6 1 3 232.64 12.91
-6 -1 3 233.7 12.89
-6 1 3 241.03 12.96
-6 -1 3 238.33 12.9
6 -1 -3 252.36 12.74
6 1 -3 236.41 13.47
-6 1 2 107.81 7.73
-6 -1 2 127.26 8.15
-6 1 2 117.79 7.97
-6 -1 2 126.49 8.13
6 -1 -2 117.17 7.39
6 1 -2 110.81 7.93
-6 1 1 24.35 3.32
-6 -1 1 29.66 3.56
-6 1 1 29.16 3.54
-6 -1 1 22.2 3.26
6 -1 -1 30.13 3.17
6 1 -1 27.54 3.49
-6 -1 0 118.38 7.91
-6 1 0 132.95 8.99
-6 -1 0 142.94 9.16
6 -1 0 142.68 8.05
-6 -1 -1 86.76 6.01
-6 1 -1 87.94 7.07
-6 -1 -1 89.43 6.98
6 -1 1 89.18 5.84
-6 1 -1 93.52 7.86
-6 -1 -1 98.44 7.96
6 1 1 75.87 6.23
-6 -1 -2 63.96 4.92
-6 1 -2 62.43 5.88
-6 -1 -2 61.18 5.73
6 -1 2 72.88 4.95
-6 1 -2 65.62 6.66
-6 -1 -2 65.5 6.56
6 1 2 63.36 5.35
-6 -1 -3 7.57 1.62
-6 1 -3 12.58 2.98
-6 -1 -3 10.7 2.8
-6 1 -3 4.92 1.95
-6 -1 -3 4.78 2
6 1 3 9.11 2.04
-6 -1 -4 2.31 1.05
-6 1 -4 0.55 1.25
-6 -1 -4 2.67 1.72
6 -1 4 1.21 0.98
-6 1 -4 -0.45 1.02
-6 -1 -4 -0.87 1.17
6 1 4 1.59 1.29
-6 -1 -5 1.13 0.92
-6 1 -5 2.86 1.75
-6 -1 -5 3.88 1.87
-6 1 -5 1.4 1.06
-6 -1 -5 1.35 1.21
6 -1 5 3.27 1.23
6 1 5 0.97 1.14
-6 -1 -6 3.19 1.09
-6 1 -6 5.76 2.27
-6 -1 -6 3.34 2.04
-6 1 -6 4.28 1.81
-6 -1 -6 2.76 1.41
6 -1 6 4.99 1.39
6 1 6 4.29 1.51
-6 -1 -7 14.94 1.99
-6 1 -7 18.8 3.77
-6 -1 -7 9.12 2.73
6 -1 7 15.33 2.3
-6 1 -8 6.46 2.26
-6 -1 -8 2.42 1.97
-6 1 -9 5.43 1.96
-6 -1 -9 8.23 2.27
-6 1 -10 -0.33 1.35
-6 -1 -10 -0.33 1.1
-6 1 -11 0.96 0.88
-6 -1 -11 0.71 0.77
-6 1 -12 6.45 1.21
-6 -1 -12 6.53 1.23
-6 2 12 58.94 2.92
6 -2 -12 43.87 2.29
6 -2 -11 9.74 1.55
6 2 -11 7.36 1.45
-6 2 11 9.42 1.39
-6 -2 11 9.13 1.38
6 -2 -11 8.61 1.78
6 -2 -10 8.53 1.7
6 2 -10 7.71 1.71
6 -2 -10 7.45 1.87
-6 2 10 6.16 1.39
-6 2 10 8.45 1.5
-6 -2 10 6.61 1.32
6 2 -10 7.07 1.89
6 -2 -9 2.37 0.97
-6 2 9 2.6 0.99
-6 -2 9 3.35 1.05
6 -2 -9 2.06 1.26
6 2 -9 2.08 1.4
6 -2 -8 6.34 1.72
-6 2 8 7.32 1.64
-6 -2 8 5.4 1.49
-6 2 7 2.39 1.08
-6 -2 7 0.26 0.86
6 -2 -6 55.46 5.18
6 2 -6 55.37 6.15
6 -2 -6 50.08 5.75
-6 2 6 56 4.87
-6 -2 6 51.21 4.71
-6 2 6 61.51 4.96
-6 -2 6 65.11 4.98
6 2 -6 55.89 5.95
6 2 -5 1.37 1.31
6 2 -5 0.99 1
6 -2 -5 2.78 1.63
6 -2 -5 1.08 1.1
-6 2 5 0.31 0.88
-6 -2 5 1.78 1.04
-6 2 5 0.6 1.01
-6 -2 5 1.15 1.06
6 -2 -4 765.48 33.95
6 2 -4 755.14 35.08
6 -2 -4 722.66 34.59
-6 2 4 717.84 33.25
-6 -2 4 757.66 33.29
-6 2 4 752.3 33.04
-6 2 4 750.29 33.33
-6 -2 4 721.62 33.08
6 2 -4 719.89 34.65
-6 2 3 162.63 9.85
-6 -2 3 161.48 9.73
-6 2 3 147.35 9
-6 2 3 160.26 9.7
-6 -2 3 151.43 9.46
6 2 -3 136.36 10.05
-6 2 2 101.54 7.65
-6 -2 2 112.08 7.82
-6 2 2 113.61 7.12
-6 2 2 106.74 7.71
-6 -2 2 108.35 7.7
6 -2 -2 112.85 6.9
-6 2 1 21.29 3.34
-6 -2 1 22.42 3.28
6 -2 -1 19.68 2.53
-6 2 1 25.84 4.01
6 2 -1 19.56 3.35
-6 2 0 3.4 1.73
-6 -2 0 4.01 1.82
-6 2 0 5.93 2.23
-6 -2 0 5.46 2.13
6 -2 0 5.51 1.28
6 2 0 6.18 1.93
-6 -2 -1 148.66 8.99
-6 2 -1 123.65 9.16
-6 -2 -1 145.13 9.41
6 -2 1 137.72 8.01
-6 2 -1 163.32 10.7
-6 -2 -1 140.24 10.17
6 2 1 137.12 9.37
-6 -2 -2 101.96 6.84
6 -2 2 99.43 6.19
-6 2 -2 85.73 7.79
-6 -2 -2 96.33 8.02
6 2 2 93.17 7.14
-6 2 -2 78.48 7.11
-6 -2 -2 76.76 7.01
-6 -2 -3 1.17 1.15
-6 2 -3 -0.51 1.46
-6 -2 -3 1.01 1.36
6 -2 3 0.48 0.55
-6 2 -3 0.42 0.85
-6 -2 -3 0.41 1.03
6 2 3 0.36 0.98
-6 -2 -4 9.03 1.93
-6 2 -4 8.42 2.53
-6 -2 -4 5.7 2.19
6 -2 4 6.82 1.61
-6 2 -4 8.64 2.3
-6 -2 -4 8.02 2.08
6 2 4 8.5 2.12
-6 -2 -5 5.87 1.62
-6 2 -5 6.82 2.34
-6 -2 -5 5.69 2.24
-6 -2 -5 6.43 2.01
6 2 5 6.18 1.72
-6 2 -6 0.5 1.14
-6 -2 -6 -1 1.25
-6 -2 -6 -0.24 0.74
6 -2 6 -0.26 0.74
-6 2 -7 2.25 1.45
-6 -2 -7 1.35 1.45
-6 -2 -7 0.86 0.76
-6 -2 -8 2.12 0.87
-6 2 -8 4.18 1.81
-6 -2 -8 2.7 1.47
-6 2 -9 39.72 3.76
-6 -2 -9 32.06 3.4
-6 2 -10 277.84 13.83
-6 -2 -10 294.02 14.11
-6 2 -11 0.39 0.56
-6 -2 -11 1.16 0.66
6 -3 -10 0.14 0.14
6 -3 -9 5.07 1.34
-6 3 9 3.98 1.2
6 -3 -8 16.18 2.52
-6 3 8 12.56 2.11
6 -3 -7 9.52 2.1
-6 3 7 7.1 1.76
6 -3 -6 81.59 6.62
-6 3 6 80.79 6.21
6 -3 -5 5.36 1.95
-6 3 5 3.67 1.45
6 3 -4 30.48 4.57
-6 3 4 30.35 3.66
-6 3 3 801.71 35.48
-6 -3 3 783.63 35.77
6 3 -3 794.39 37.47
-6 -3 2 23.58 3.21
6 -3 -2 20.89 3.27
-6 3 2 18.42 2.75
6 3 -2 27.57 4.02
-6 -3 2 24.13 3.52
6 3 -1 4.62 1.89
-6 3 1 4.05 1.27
-6 -3 1 5.36 1.64
-6 -3 1 5.92 1.85
6 3 0 -0.44 1.19
-6 -3 0 1 1.02
-6 -3 0 -0.38 1.27
6 3 1 20.42 3.47
-6 -3 -1 29.76 3.57
6 -3 1 24.7 2.73
-6 -3 -1 29.04 3.92
6 3 2 0.4 0.92
-6 -3 -2 0.39 0.9
6 -3 2 -0.23 0.69
6 3 3 1.13 1.02
-6 -3 -3 0.93 1.04
-6 -3 -3 1.18 1.06
6 -3 3 0.72 0.88
-6 -3 -4 2.97 1.32
-6 -3 -4 4.18 1.6
-6 -3 -5 -0.35 0.93
-6 -3 -5 0.55 0.88
-6 -3 -6 -0.3 0.42
-6 -3 -6 10.97 1.92
-6 -3 -7 -0.24 0.01
-6 -3 -7 -0.21 0.66
-6 -3 -8 -0.17 0.67
-6 -3 -9 113.49 5.94
6 -4 -9 4.56 1.02
-6 4 9 3.74 0.94
6 -4 -8 4.52 1.22
-6 4 8 5.68 1.26
6 -4 -7 1.04 1.02
-6 4 7 0.46 0.7
-6 4 6 3.71 1.27
-6 4 5 13.51 2.31
6 -4 -4 52.67 5.02
-6 4 4 57.08 4.86
6 -4 -3 44.44 4.61
-6 4 3 47.02 4.35
6 -4 -2 11.69 2.41
-6 4 2 13.35 2.2
6 -4 -1 16.67 2.75
-6 -4 1 18.11 2.58
6 -4 0 23.35 3.24
-6 -4 0 23.1 2.86
6 -4 1 25.88 3.23
-6 -4 -1 19.87 2.79
6 -4 2 31.91 3.52
-6 -4 -2 33.55 3.48
6 -4 3 -0.23 0.66
-6 -4 -3 -0.75 0.91
-6 -4 -4 12.42 2.04
-6 -4 -6 35.05 3.08
-6 -4 -7 1.89 0.79
-6 -4 -8 1.58 0.69
6 -5 -6 5.96 1.18
6 -5 -5 9.62 1.63
6 -5 -4 66.18 4.74
6 -5 -3 1.84 0.91
6 -5 -2 0.23 0.82
6 -5 -1 0.89 0.71
6 -5 0 3.13 1.01
-6 5 0 -0.13 0.19
6 -5 1 15.03 1.84
-6 -5 -1 17.23 1.96
-6 -5 -2 0.48 0.56
-6 -5 -3 0.61 0.58
-6 -5 -4 1.99 0.77
-6 -5 -5 27.35 2.28
-6 -5 -6 26.93 2.11
7 0 -12 -0.64 0.52
7 0 -11 10.97 1.72
-7 0 11 9.73 1.6
7 0 -11 11.1 2.04
-7 0 10 0.22 0.64
7 0 -10 0.75 1.14
-7 0 9 26.09 3.05
-7 0 8 -0.28 0.91
-7 0 7 19.28 2.73
-7 0 6 -0.61 0.88
-7 0 5 427.06 21.41
-7 0 5 465.72 21.63
7 0 -4 -0.35 0.87
-7 0 4 -0.34 0.76
-7 0 4 0.33 1
-7 0 3 0.7 1.01
-7 0 3 1.36 0.98
7 0 -3 1.74 1.22
-7 0 2 -0.74 1.55
-7 0 2 0.36 1.09
7 0 -2 0.34 1.03
-7 0 1 223.95 13.32
7 0 -1 232.75 12.89
-7 0 0 -0.41 1.86
-7 0 0 1.5 1.13
7 0 0 0.33 0.74
-7 0 -1 29.32 4.16
7 0 1 42.95 4.19
-7 0 -1 29.84 4.68
-7 0 -2 -1.09 1.74
-7 0 -2 0.48 1.38
-7 0 -3 4.51 2.07
-7 0 -3 0.95 0.97
7 0 3 2.87 1.21
-7 0 -4 -0.58 1.55
-7 0 -4 -0.47 0.95
7 0 4 -0.32 0.65
-7 0 -5 18.78 3.77
-7 0 -6 0.54 1.35
-7 0 -7 3.39 1.97
-7 0 -8 -0.81 1.16
-7 0 -9 157.22 9.61
-7 0 -10 0.67 0.85
-7 0 -11 4.25 0.94
7 -1 -11 4.93 1.09
7 1 -11 4.4 1.1
-7 1 11 3.67 0.81
7 -1 -10 10 2.16
7 1 -10 11.13 2.33
7 -1 -10 12.26 2.03
7 1 -10 12.38 2.07
-7 1 10 12.54 1.87
-7 -1 10 10.76 1.69
-7 1 9 3.51 1.12
-7 -1 9 2.09 1.01
7 -1 -9 3.76 1.76
7 1 -9 4.98 1.89
-7 1 8 5.79 1.55
-7 -1 8 4.18 1.37
7 -1 -7 3.4 1.22
-7 1 7 0.57 0.96
-7 -1 7 3.11 1.35
7 -1 -6 0.3 0.75
-7 1 6 0.9 0.97
-7 -1 6 2.1 1.14
7 -1 -5 32.52 3.69
-7 1 5 27.8 3.39
-7 -1 5 21.41 3.05
7 1 -4 46.42 5.84
7 -1 -4 60.44 6.51
-7 1 4 49.37 4.96
-7 -1 4 50.31 4.96
-7 1 4 62.59 5.26
-7 -1 4 60.23 5.22
7 1 -4 59.85 5.65
-7 1 3 36.59 4.21
-7 -1 3 43.41 4.59
-7 1 3 41.23 4.42
-7 -1 3 40.22 4.33
7 1 -3 43.53 4.75
-7 1 2 86.04 6.77
-7 -1 2 80.73 6.67
-7 1 2 81.84 6.54
7 -1 -2 83.76 6.32
7 1 -2 65.31 6.23
-7 1 1 218.31 13.24
-7 -1 1 225.59 13.32
-7 1 1 242.95 14.47
7 -1 -1 222.38 12.45
7 1 -1 202.51 12.71
-7 1 0 59.29 5.75
-7 -1 0 53.91 5.54
-7 1 0 69.04 6.75
-7 -1 0 65.87 6.5
7 -1 0 56.05 5
-7 1 -1 105.63 8.46
-7 -1 -1 108.9 8.53
-7 1 -1 130.38 9.86
-7 -1 -1 122.27 9.61
7 -1 1 111.07 7.6
7 1 1 120.35 8.23
-7 1 -2 14.9 3.36
-7 -1 -2 11.35 3.05
-7 1 -2 11.93 2.79
-7 -1 -2 14.66 3
7 -1 2 13.83 2.38
7 1 2 12.11 2.35
-7 -1 -3 19.83 2.63
7 -1 3 22.61 3.01
-7 1 -3 28.74 4.72
-7 -1 -3 24.45 4.23
-7 1 -3 18.84 3.51
-7 -1 -3 14.52 3.08
7 1 3 23.22 3.31
-7 -1 -4 44.28 3.99
-7 1 -4 55.94 6.39
-7 -1 -4 60.61 6.52
-7 -1 -5 -0.21 0.67
-7 1 -5 -0.56 1.69
-7 -1 -5 1.09 1.36
-7 1 -6 -0.52 1.3
-7 -1 -6 -0.51 1.47
-7 1 -7 0.45 1.46
-7 -1 -7 -0.45 1.51
-7 1 -8 55.96 5.28
-7 -1 -8 48.57 4.98
-7 1 -9 2.52 1.14
-7 -1 -9 2.24 1.11
-7 1 -10 0.94 0.74
-7 -1 -10 -0.19 0.64
-7 2 11 15.94 1.47
7 -2 -10 0.26 0.44
7 2 -10 -0.15 0.51
-7 2 10 0.13 0.43
7 -2 -9 21.19 2.95
7 -2 -9 19.54 2.38
7 2 -9 23.09 2.65
7 2 -9 20.21 2.77
-7 2 9 22.8 2.29
-7 2 9 21.42 2.34
-7 -2 9 25.66 2.46
7 -2 -8 7.69 1.55
-7 2 8 6.52 1.36
7 -2 -8 6.14 1.82
-7 2 8 7.94 1.57
-7 -2 8 6.63 1.42
7 2 -8 4.94 1.78
7 -2 -7 -0.29 0.87
-7 2 7 0.44 0.64
-7 2 7 0.24 0.74
-7 -2 7 -0.23 0.63
7 -2 -6 9.43 2.01
-7 2 6 9.02 1.71
-7 2 6 8 1.74
-7 -2 6 8.94 1.86
7 -2 -5 18.29 2.86
-7 2 5 15.26 2.22
-7 2 5 13.92 2.47
-7 -2 5 11.27 2.25
7 -2 -4 -0.35 1.29
-7 2 4 0.23 0.63
-7 2 4 0.33 0.87
-7 -2 4 0.31 0.9
-7 2 3 147.1 10.17
7 2 -2 0.85 1.06
-7 2 2 -1.14 1.49
-7 2 2 -2.25 1.77
-7 -2 2 0.89 1.51
-7 2 1 374.76 20.4
-7 -2 1 381.03 20.3
-7 2 1 440.47 21.84
-7 -2 1 446.11 21.88
-7 2 0 259.25 15.42
-7 -2 0 273.17 15.64
7 -2 0 265.31 13.49
7 2 0 227.13 14.25
-7 -2 -1 3.53 1.57
-7 2 -1 3.48 1.96
-7 -2 -1 0.5 1.53
7 -2 1 3.72 1.3
7 2 1 1.99 1.41
-7 -2 -2 6.49 1.67
-7 2 -2 1.53 1.72
-7 -2 -2 3.56 2.01
-7 -2 -3 26.51 3.23
-7 2 -3 25.49 4.27
-7 -2 -3 27.59 4.25
-7 -2 -4 4.28 1.4
-7 2 -4 7.87 2.41
-7 -2 -4 7.43 2.26
-7 -2 -5 19.99 2.63
-7 2 -5 21.53 3.62
-7 -2 -5 29.76 4.21
-7 -2 -6 0.19 0.62
-7 2 -6 0.4 1.07
-7 -2 -6 0.41 1.18
-7 -2 -7 -0.15 0.26
-7 2 -7 0.96 1.17
-7 -2 -7 1.67 1.13
-7 2 -8 1.88 0.99
-7 -2 -8 2.78 1.12
-7 2 -9 -0.44 0.52
-7 -2 -9 0.17 0.54
-7 3 10 17.9 1.5
7 -3 -9 0.1 0.14
-7 3 9 32.98 2.14
7 -3 -8 2.72 0.94
-7 3 8 0.79 0.58
7 -3 -7 0.74 0.83
-7 3 7 0.76 0.67
7 -3 -6 4.67 1.43
-7 3 6 3.41 1.11
7 -3 -5 1.28 1.18
-7 3 5 0.68 0.65
-7 -3 5 0.24 0.24
7 -3 -4 94.12 5.89
-7 3 4 70.66 4.17
-7 3 3 31.44 2.73
-7 -3 3 0.3 0.61
7 -3 -2 14.99 2.65
-7 -3 2 11.21 2.22
7 -3 -1 2.45 1.51
-7 -3 1 2.02 1.14
7 -3 0 56.3 5.08
-7 -3 0 41.85 4.54
-7 -3 -1 4.19 1.63
-7 -3 -2 5.4 1.67
-7 -3 -2 -0.34 0
-7 -3 -3 11.21 2.13
-7 -3 -3 -0.32 0.46
-7 -3 -4 89.74 5.05
-7 -3 -4 -0.28 0.28
-7 -3 -5 8.43 1.65
-7 -3 -6 0.18 0.69
-7 -3 -7 -0.52 0.56
7 -4 -7 4.19 0.96
-7 4 7 3.67 0.75
7 -4 -6 2.9 1
-7 4 6 1.87 0.67
-7 4 5 14.68 1.71
7 -4 -4 242.22 12.61
7 -4 -3 62.67 5.03
7 -4 -2 12.72 2.37
7 -4 -1 37.29 3.86
7 -4 0 54.07 4.67
7 -4 1 0.26 0.75
7 -4 2 7.13 1.52
-7 -4 -2 4.52 1.2
7 -4 3 17.17 2.02
-7 -4 -5 11.68 1.57
-7 -4 -6 0.11 0.4
7 -5 -4 11.29 1.28
7 -5 -3 3.63 0.82
7 -5 -2 1.25 0.61
7 -5 -1 0.79 0.5
8 0 -10 5.96 1.09
-8 0 8 3.62 1.24
-8 0 7 -0.51 0.86
-8 0 6 1.1 1.01
-8 0 5 0.29 0.94
8 0 -4 57.29 4.6
-8 0 3 0.8 1.21
-8 0 2 63.48 5.98
-8 0 1 -0.43 1.64
-8 0 0 26.11 3.88
-8 0 -1 -0.47 1.59
-8 0 -2 134.8 9.96
-8 0 -3 0.48 1.63
-8 0 -4 30.67 4.39
-8 0 -5 0.86 1.58
-8 0 -6 2.22 1.41
-8 0 -7 -0.3 0.85
-8 0 -8 2.76 1.13
-8 0 -9 0.13 0.43
8 -1 -9 46.82 3.55
8 1 -9 48.92 3.62
-8 1 8 -0.1 0.01
8 1 -8 -0.62 1.04
-8 1 8 0.2 0.63
-8 -1 8 -0.19 0.71
-8 1 7 7.34 1.57
-8 -1 7 7.5 1.56
8 -1 -6 0.21 0.3
-8 1 6 -0.26 0.9
-8 -1 6 -1.27 1.18
8 -1 -5 8.65 1.8
8 -1 -4 8.98 1.97
-8 1 4 9.51 2.32
-8 -1 4 9.97 2.37
-8 1 3 41 4.73
-8 -1 3 62.5 5.6
-8 1 2 59.41 5.69
-8 -1 2 54.27 5.47
-8 1 1 108.61 8.22
-8 -1 1 96.58 7.87
-8 1 0 63.41 6.26
-8 -1 0 59.2 5.94
-8 1 -1 77.77 7.05
-8 -1 -1 77.79 7.07
-8 1 -2 158.44 10.75
-8 -1 -2 139.6 10.33
-8 1 -3 18.06 3.42
-8 -1 -3 22.8 3.78
-8 1 -4 35.58 4.51
-8 -1 -4 29.44 4.29
-8 1 -5 0.4 1.28
-8 -1 -5 0.4 1.15
-8 1 -6 -0.33 1.01
-8 -1 -6 -0.34 0.97
-8 1 -7 11.11 1.98
-8 -1 -7 9.4 1.88
-8 1 -8 -0.34 0.64
-8 -1 -8 -0.18 0.58
8 -2 -8 3.42 0.7
8 2 -8 1.05 0.43
-8 -2 8 2.79 0.77
-8 2 7 3.88 1
-8 -2 7 7.1 1.37
8 -2 -6 6.35 1.43
-8 2 6 5.49 1.38
-8 -2 6 6.47 1.49
8 -2 -5 15.31 2.32
-8 2 5 16.49 2.43
-8 -2 5 19.04 2.6
8 -2 -4 8.98 1.91
-8 2 4 8.03 1.83
-8 -2 4 12.33 2.25
8 -2 -3 10.81 2.07
-8 2 3 12.54 2.37
-8 -2 3 11.24 2.3
8 -2 -2 0.88 0.99
-8 2 2 0.35 1.24
-8 -2 2 0.35 1.14
-8 2 1 32.2 3.96
-8 -2 1 24.03 3.54
-8 2 0 4.26 1.85
-8 -2 0 5.08 2.03
-8 2 -1 24.49 3.6
-8 -2 -1 18.85 3.27
-8 2 -2 6.54 2.01
-8 -2 -2 7.12 2.11
-8 2 -3 84.62 6.75
-8 -2 -3 85.98 6.86
-8 2 -4 16.95 2.73
-8 -2 -4 17.67 2.89
-8 2 -5 5.7 1.6
-8 -2 -5 9.31 1.9
-8 2 -6 17.01 2.12
-8 -2 -6 17.3 2.24
-8 -2 -7 1.45 0.57
8 -3 -6 15.5 1.83
8 -3 -5 2.35 0.92
8 -3 -4 6.28 1.52
8 -3 -1 79.94 5.74
8 -3 0 13.26 2.17
8 -3 1 8.64 1.83
8 -3 2 3.42 1.3
8 -3 3 29.9 2.99
8 -3 4 4.78 1.06
8 -4 -3 0.29 0.58
8 -4 -2 0.65 0.57
8 -4 -1 253.52 12.08
8 -4 0 34.57 2.87
8 -4 1 3.97 0.9
-9 0 7 25.15 2.46
-9 0 5 0.48 0.69
-9 0 4 0.52 0.8
9 0 -3 -0.15 0.15
-9 0 3 2.23 1.13
-9 0 2 -0.29 1.02
-9 0 1 2.12 1.23
-9 0 0 -0.31 1.04
-9 0 -1 215.95 12.02
-9 0 -2 -0.6 0.96
-9 0 -3 54.49 4.65
-9 0 -4 0.24 0.77
-9 0 -5 22.75 2.44
-9 0 -6 -0.38 0.47
-9 1 6 25.49 2.39
-9 -1 6 22.85 2.38
-9 1 5 -0.2 0.68
-9 -1 5 0.21 0.67
-9 1 4 6.15 1.43
-9 -1 4 4.5 1.32
9 -1 -3 32.37 2.92
-9 1 3 32.97 3.39
-9 -1 3 34.7 3.5
9 -1 -2 54.36 4
-9 1 2 51.75 4.42
-9 -1 2 40.8 4.05
-9 1 1 11.67 2.17
-9 -1 1 13.36 2.31
-9 1 0 3.12 1.45
-9 -1 0 4.65 1.48
-9 1 -1 39.95 3.95
-9 -1 -1 33.77 3.68
-9 1 -2 186.68 10.2
-9 -1 -2 172.36 10.05
-9 1 -3 4.35 1.29
-9 -1 -3 4.52 1.38
-9 1 -4 0.6 0.64
-9 -1 -4 1.68 0.88
-9 1 -5 5.42 1.08
-9 -1 -5 5.93 1.15
9 -2 -4 -0.27 0.45
-9 -2 4 0.13 0.22
9 -2 -3 0.16 0.49
-9 -2 3 -0.31 0.67
-9 2 2 22.88 2.39
-9 -2 2 25.64 2.6
9 -2 -1 0.38 0.66
-9 2 1 -0.17 1.01
-9 -2 1 -0.57 0.96
-9 -2 0 -0.38 0.95
9 -2 1 18.96 2.22
-9 2 -1 15.24 1.9
-9 -2 -1 20.38 2.29
9 -2 2 21.47 2.26
-9 -2 -2 17.13 1.96
9 -2 3 2.94 0.9
9 -3 -1 7.19 1.13
9 -3 0 10.38 1.36
