#------------------------------------------------------------------------------
#$Date: 2019-10-28 18:59:13 +0200 (Mon, 28 Oct 2019) $
#$Revision: 220276 $
#$URL: file:///home/coder/svn-repositories/cod/cif/4/51/51/4515174.cif $
#------------------------------------------------------------------------------
#
# This file is available in the Crystallography Open Database (COD),
# http://www.crystallography.net/
#
# All data on this site have been placed in the public domain by the
# contributors.
#
data_4515174
loop_
_publ_author_name
'Gao, Lili'
'Spanopoulos, Ioannis'
'Ke, Weijun'
'Huang, Sheng'
'Hadar, Ido'
'Chen, Lin'
'Li, Xiaolei'
'Yang, Guanjun'
'Kanatzidis, Mercouri G.'
_publ_section_title
;
 Improved Environmental Stability and Solar Cell Efficiency of (MA,FA)PbI3
 Perovskite Using a Wide-Band-Gap 1D Thiazolium Lead Iodide Capping Layer
 Strategy
;
_journal_issue                   7
_journal_name_full               'ACS Energy Letters'
_journal_page_first              1763
_journal_paper_doi               10.1021/acsenergylett.9b00930
_journal_volume                  4
_journal_year                    2019
_chemical_formula_moiety         (C3H4NS)PbI3
_chemical_formula_sum            'C3 H3 I4.5 N3 Pb1.5 S1.5'
_chemical_formula_weight         1011
_chemical_name_common            'thiazolium lead iodide'
_space_group_IT_number           174
_space_group_name_Hall           'P -6'
_space_group_name_H-M_alt        'P -6'
_symmetry_cell_setting           hexagonal
_symmetry_Int_Tables_number      174
_symmetry_space_group_name_Hall  'P -6'
_symmetry_space_group_name_H-M   'P -6'
_cell_angle_alpha                90
_cell_angle_beta                 90
_cell_angle_gamma                120
_cell_formula_units_Z            4
_cell_length_a                   15.6998(3)
_cell_length_b                   15.6998(3)
_cell_length_c                   8.0618(3)
_cell_measurement_reflns_used    6359
_cell_measurement_temperature    293
_cell_measurement_theta_max      61.032
_cell_measurement_theta_min      5.189
_cell_volume                     1720.88(8)
_computing_cell_refinement       'SAINT V8.34A (Bruker, 2017)'
_computing_data_collection       'APEX2 V2017.3 (Bruker, 2017)'
_computing_data_reduction        'Bruker SAINT'
_diffrn_ambient_temperature      293
_diffrn_detector_area_resol_mean 8
_diffrn_measured_fraction_theta_full 0.98
_diffrn_measured_fraction_theta_max 0.95
_diffrn_measurement_device       'four-circle diffractometer'
_diffrn_measurement_device_type  'Bruker Kappa APEX CCD area detector'
_diffrn_measurement_method       '\w and \f scans'
_diffrn_radiation_monochromator  'MX optics'
_diffrn_radiation_probe          x-ray
_diffrn_radiation_source         microsource
_diffrn_radiation_type           'Mo K\a'
_diffrn_radiation_wavelength     0.71073
_diffrn_reflns_av_R_equivalents  0.0189
_diffrn_reflns_av_unetI/netI     0.0167
_diffrn_reflns_limit_h_max       19
_diffrn_reflns_limit_h_min       -21
_diffrn_reflns_limit_k_max       23
_diffrn_reflns_limit_k_min       -19
_diffrn_reflns_limit_l_max       12
_diffrn_reflns_limit_l_min       -10
_diffrn_reflns_number            16143
_diffrn_reflns_theta_full        31.97
_diffrn_reflns_theta_max         32.4
_diffrn_reflns_theta_min         1.5
_diffrn_source                   'sealed tube'
_exptl_absorpt_coefficient_mu    22.902
_exptl_absorpt_correction_T_max  0.7464
_exptl_absorpt_correction_T_min  0.4305
_exptl_absorpt_correction_type   multi-scan
_exptl_absorpt_process_details   'Scale APEX3'
_exptl_crystal_density_diffrn    3.9023
_exptl_crystal_description       'yellow rod'
_exptl_crystal_F_000             1722
_exptl_crystal_size_max          0.70
_exptl_crystal_size_mid          0.20
_exptl_crystal_size_min          0.10
_refine_diff_density_max         3.70
_refine_diff_density_min         -4.71
_refine_ls_abs_structure_details
'  1112 of Friedel pairs used in the refinement'
_refine_ls_extinction_method     none
_refine_ls_goodness_of_fit_gt    4.52
_refine_ls_goodness_of_fit_ref   4.37
_refine_ls_hydrogen_treatment    constr
_refine_ls_number_constraints    20
_refine_ls_number_parameters     64
_refine_ls_number_reflns         2233
_refine_ls_number_restraints     2
_refine_ls_R_factor_all          0.0511
_refine_ls_R_factor_gt           0.0478
_refine_ls_shift/su_max          0.0490
_refine_ls_shift/su_mean         0.0108
_refine_ls_structure_factor_coef Fsqd
_refine_ls_weighting_details     w=1/(\s^2^(I)+0.0004I^2^)
_refine_ls_weighting_scheme      sigma
_refine_ls_wR_factor_gt          0.1406
_refine_ls_wR_factor_ref         0.1414
_reflns_number_gt                2066
_reflns_number_total             2233
_reflns_threshold_expression     I>2\s(I)
_cod_data_source_file            nz9b00930_si_002.cif
_cod_data_source_block           TAPbI3
_cod_depositor_comments
;
The following automatic conversions were performed:

'_diffrn_radiation_probe' value 'X-ray' changed to 'x-ray' according
to
/home/data/users/saulius/crontab/automatic-downloads/current/ACS/lib/dictionaries/cif_core.dic
dictionary named 'cif_core.dic' version 2.4.2 from 2011-04-26.

Automatic conversion script
Id: cif_fix_values 4973 2017-02-22 13:04:09Z antanas 
;
_cod_database_code               4515174
loop_
_space_group_symop_id
_space_group_symop_operation_xyz
1 x,y,z
2 -y,x-y,z
3 -x+y,-x,z
4 x,y,-z
5 -y,x-y,-z
6 -x+y,-x,-z
loop_
_atom_site_label
_atom_site_type_symbol
_atom_site_fract_x
_atom_site_fract_y
_atom_site_fract_z
_atom_site_adp_type
_atom_site_U_iso_or_equiv
_atom_site_site_symmetry_multiplicity
_atom_site_occupancy
_atom_site_calc_flag
Pb1 Pb 0.666667 0.333333 0.25312(19) Uani 0.0390(4) 2 1 d
Pb2 Pb 0.333333 0.666667 0.2489(2) Uani 0.0440(3) 2 1 d
Pb3 Pb 0 0 0.2482(2) Uani 0.0440(3) 2 1 d
I1 I 0.17616(16) 0.03406(17) 0 Uani 0.0537(10) 3 1 d
I2 I 0.50739(18) 0.17325(19) 0 Uani 0.0506(8) 3 1 d
I3 I 0.15760(16) 0.52561(18) 0 Uani 0.0567(10) 3 1 d
I4 I 0.30733(19) 0.49383(16) 0.5 Uani 0.0561(12) 3 1 d
I5 I 0.14619(19) 0.17240(17) 0.5 Uani 0.0602(10) 3 1 d
I6 I 0.8300(2) 0.4955(2) 0.5 Uani 0.0899(13) 3 1 d
N1 N 0.2458(17) 0.334(2) 0.097(2) Uiso 0.133(4) 6 1 d
S1 S 0.3484(10) 0.3250(11) 0 Uiso 0.133(4) 3 1 d
S2 S 0.3865(17) -0.0243(17) 0.5 Uiso 0.206(7) 3 1 d
N2 N 0.311(3) 0.054(3) -0.417(4) Uiso 0.206(7) 6 1 d
C6 C 0.3341(16) 0.331(2) 0.158(5) Uiso 0.133(4) 6 1 d
C7 C 0.366(3) 0.005(3) -0.358(7) Uiso 0.206(7) 6 1 d
H1c6 H 0.364758 0.331608 0.261284 Uiso 0.1597 6 1 d
H1c7 H 0.382982 -0.002893 -0.246661 Uiso 0.247 6 1 d
H1n1 H 0.199685 0.337436 0.151497 Uiso 0.1597 6 1 d
H1n2 H 0.283405 0.078774 -0.353481 Uiso 0.247 6 1 d
loop_
_atom_site_aniso_label
_atom_site_aniso_type_symbol
_atom_site_aniso_U_11
_atom_site_aniso_U_22
_atom_site_aniso_U_33
_atom_site_aniso_U_12
_atom_site_aniso_U_13
_atom_site_aniso_U_23
Pb1 Pb 0.0453(4) 0.0453(4) 0.0263(7) 0.0227(2) 0 0
Pb2 Pb 0.0522(4) 0.0522(4) 0.0276(6) 0.0261(2) 0 0
Pb3 Pb 0.0525(4) 0.0525(4) 0.0270(6) 0.0263(2) 0 0
I1 I 0.0428(10) 0.0740(16) 0.0463(12) 0.0307(10) 0 0
I2 I 0.0441(10) 0.0458(10) 0.0445(13) 0.0092(7) 0 0
I3 I 0.0462(11) 0.0619(14) 0.0425(11) 0.0124(10) 0 0
I4 I 0.0793(18) 0.0529(12) 0.0421(13) 0.0374(12) 0 0
I5 I 0.0643(14) 0.0567(13) 0.0393(12) 0.0151(10) 0 0
I6 I 0.0777(18) 0.0790(18) 0.0420(13) -0.0141(12) 0 0
loop_
_atom_type_symbol
_atom_type_scat_dispersion_real
_atom_type_scat_dispersion_imag
_atom_type_scat_source
C 0.0033 0.0016 'International Tables Vol C tables 4.2.6.8 and 6.1.1.1'
H 0.0000 0.0000 'International Tables Vol C tables 4.2.6.8 and 6.1.1.1'
I -0.4742 1.8119 'International Tables Vol C tables 4.2.6.8 and 6.1.1.1'
N 0.0061 0.0033 'International Tables Vol C tables 4.2.6.8 and 6.1.1.1'
Pb -3.3944 10.1111 'International Tables Vol C tables 4.2.6.8 and 6.1.1.1'
S 0.1246 0.1234 'International Tables Vol C tables 4.2.6.8 and 6.1.1.1'
loop_
_geom_angle_atom_site_label_1
_geom_angle_atom_site_label_2
_geom_angle_atom_site_label_3
_geom_angle_site_symmetry_1
_geom_angle_site_symmetry_3
_geom_angle
I2 Pb1 I2 . 2_655 84.36(7)
I2 Pb1 I2 . 3_665 84.36(7)
I2 Pb1 I6 . . 178.65(6)
I2 Pb1 I6 . 2_655 95.03(6)
I2 Pb1 I6 . 3_665 94.39(6)
I2 Pb1 I2 2_655 3_665 84.36(10)
I2 Pb1 I6 2_655 . 94.39(7)
I2 Pb1 I6 2_655 2_655 178.65(10)
I2 Pb1 I6 2_655 3_665 95.03(10)
I2 Pb1 I6 3_665 . 95.03(7)
I2 Pb1 I6 3_665 2_655 94.39(10)
I2 Pb1 I6 3_665 3_665 178.65(6)
I6 Pb1 I6 . 2_655 86.21(8)
I6 Pb1 I6 . 3_665 86.21(8)
I6 Pb1 I6 2_655 3_665 86.21(12)
I3 Pb2 I3 . 2_665 85.43(7)
I3 Pb2 I3 . 3_565 85.43(7)
I3 Pb2 I4 . . 96.04(5)
I3 Pb2 I4 . 2_665 178.02(9)
I3 Pb2 I4 . 3_565 93.36(6)
I3 Pb2 I3 2_665 3_565 85.43(9)
I3 Pb2 I4 2_665 . 93.36(7)
I3 Pb2 I4 2_665 2_665 96.04(6)
I3 Pb2 I4 2_665 3_565 178.02(7)
I3 Pb2 I4 3_565 . 178.02(8)
I3 Pb2 I4 3_565 2_665 93.36(6)
I3 Pb2 I4 3_565 3_565 96.04(8)
I4 Pb2 I4 . 2_665 85.21(7)
I4 Pb2 I4 . 3_565 85.21(8)
I4 Pb2 I4 2_665 3_565 85.21(7)
I1 Pb3 I1 . 2_555 85.71(7)
I1 Pb3 I1 . 3_555 85.71(7)
I1 Pb3 I5 . . 93.52(5)
I1 Pb3 I5 . 2_555 178.21(7)
I1 Pb3 I5 . 3_555 95.85(8)
I1 Pb3 I1 2_555 3_555 85.71(7)
I1 Pb3 I5 2_555 . 95.85(6)
I1 Pb3 I5 2_555 2_555 93.52(8)
I1 Pb3 I5 2_555 3_555 178.21(7)
I1 Pb3 I5 3_555 . 178.21(9)
I1 Pb3 I5 3_555 2_555 95.85(6)
I1 Pb3 I5 3_555 3_555 93.52(6)
I5 Pb3 I5 . 2_555 84.95(7)
I5 Pb3 I5 . 3_555 84.95(7)
I5 Pb3 I5 2_555 3_555 84.95(10)
Pb3 I1 Pb3 . 4_555 76.49(7)
Pb1 I2 Pb1 . 4_555 78.33(6)
Pb2 I3 Pb2 . 4_555 76.87(6)
Pb2 I4 Pb2 . 4_556 77.18(7)
Pb3 I5 Pb3 . 4_556 77.53(6)
Pb1 I6 Pb1 . 4_556 75.80(7)
C6 N1 H1n1 . . 131(3)
C6 S1 C6 . 4_555 155(3)
C7 S2 C7 1_556 4_555 117(4)
N2 N2 C7 4_554 . 110(5)
N2 N2 H1n2 4_554 . 125(6)
C7 N2 H1n2 . . 125(5)
N1 C6 S1 . . 84(3)
N1 C6 H1c6 . . 138(5)
S1 C6 H1c6 . . 138(4)
S2 C7 N2 1_554 . 102(4)
S2 C7 H1c7 1_554 . 129(7)
N2 C7 H1c7 . . 129(7)
loop_
_geom_bond_atom_site_label_1
_geom_bond_atom_site_label_2
_geom_bond_site_symmetry_2
_geom_bond_distance
Pb1 I2 . 3.2350(19)
Pb1 I2 2_655 3.235(3)
Pb1 I2 3_665 3.235(3)
Pb1 I6 . 3.236(2)
Pb1 I6 2_655 3.236(4)
Pb1 I6 3_665 3.236(4)
Pb2 I3 . 3.2321(19)
Pb2 I3 2_665 3.232(3)
Pb2 I3 3_565 3.232(2)
Pb2 I4 . 3.241(2)
Pb2 I4 2_665 3.241(2)
Pb2 I4 3_565 3.241(4)
Pb3 I1 . 3.236(2)
Pb3 I1 2_555 3.236(3)
Pb3 I1 3_555 3.236(2)
Pb3 I5 . 3.238(2)
Pb3 I5 2_555 3.238(3)
Pb3 I5 3_555 3.238(3)
N1 C6 . 1.50(5)
N1 H1n1 . 0.87(4)
S1 C6 . 1.29(5)
S1 C6 4_555 1.29(5)
S2 C7 1_556 1.38(6)
S2 C7 4_555 1.38(6)
N2 N2 4_554 1.34(5)
N2 C7 . 1.50(8)
N2 H1n2 . 0.87(7)
C6 H1c6 . 0.96(6)
C7 H1c7 . 0.96(8)
loop_
_refln_index_h
_refln_index_k
_refln_index_l
_refln_F_squared_calc
_refln_F_squared_meas
_refln_F_squared_sigma
_refln_observed_status
0 1 0 6.99 12.73 6.37 <
-1 1 0 7.04 0.00 6.37 <
-1 2 0 278618.00 262498.00 2941.41 o
1 1 0 278692.00 259175.00 3622.64 o
0 2 0 123.33 63.67 12.73 o
-2 2 0 123.21 44.57 6.37 o
-2 3 0 1107.39 1146.00 25.47 o
1 2 0 1105.83 1177.84 25.47 o
-1 3 0 1315.64 1101.44 25.47 o
-3 2 0 1314.55 1152.37 25.47 o
0 3 0 68970.90 68925.60 687.60 o
-3 3 0 68999.00 67136.60 687.60 o
-3 4 0 6848.74 7767.35 89.13 o
1 3 0 6846.76 7729.15 70.03 o
-2 4 0 2139.80 2432.07 50.93 o
2 2 0 2049.29 2260.17 31.83 o
-1 4 0 5806.78 7773.71 89.13 o
-4 3 0 5804.94 7824.65 89.13 o
0 4 0 2545.30 2890.47 38.20 o
-4 4 0 2545.69 2947.77 44.57 o
-4 5 0 131631.00 136126.00 1063.24 o
1 4 0 131781.00 137055.00 1069.60 o
-3 5 0 8919.28 10396.80 114.60 o
2 3 0 8913.24 10333.10 89.13 o
-2 5 0 10552.30 10447.70 101.87 o
-5 3 0 10544.30 10377.70 89.13 o
-1 5 0 131817.00 135738.00 1387.94 o
-5 4 0 131960.00 138125.00 1203.30 o
0 5 0 279.68 585.73 25.47 o
-5 5 0 280.68 579.37 25.47 o
-5 6 0 15798.40 13994.00 114.60 o
1 5 0 15787.10 14223.20 120.97 o
-4 6 0 13691.40 12185.80 120.97 o
2 4 0 13679.40 12275.00 108.23 o
-3 6 0 89272.30 82836.80 725.80 o
3 3 0 89250.90 82894.10 649.40 o
-2 6 0 13125.00 12300.40 120.97 o
-6 4 0 13129.40 12275.00 120.97 o
-1 6 0 16688.20 13930.30 140.07 o
-6 5 0 16688.80 14191.30 140.07 o
0 6 0 612237.00 593699.00 5392.58 o
-6 6 0 612238.00 592489.00 4628.57 o
-6 7 0 17253.50 18953.60 146.43 o
1 6 0 17267.90 18679.80 159.17 o
-5 7 0 213667.00 230537.00 1808.14 o
2 5 0 213516.00 230862.00 1808.14 o
-4 7 0 5287.90 5265.24 63.67 o
3 4 0 5288.60 5430.78 57.30 o
-3 7 0 5417.00 5227.04 63.67 o
-7 4 0 5411.03 5284.34 63.67 o
-2 7 0 214147.00 230512.00 2011.87 o
-7 5 0 213959.00 228895.00 2011.87 o
-1 7 0 17556.40 19316.50 184.63 o
-7 6 0 17558.40 18960.00 165.53 o
0 7 0 2525.19 2992.34 50.93 o
-7 7 0 2525.23 3024.17 44.57 o
-7 8 0 116371.00 121202.00 865.87 o
1 7 0 116531.00 121648.00 948.64 o
-6 8 0 26319.30 28573.60 267.40 o
2 6 0 26297.90 29312.20 241.93 o
-5 8 0 14514.30 14783.40 127.33 o
3 5 0 14534.20 14732.50 133.70 o
-4 8 0 16639.60 15687.50 140.07 o
4 4 0 16726.00 16566.10 140.07 o
-3 8 0 14637.30 14770.70 146.43 o
-8 5 0 14656.30 14738.90 133.70 o
-2 8 0 26620.80 28637.30 267.40 o
-8 6 0 26597.30 28885.60 241.93 o
-1 8 0 115476.00 121922.00 1063.24 o
-8 7 0 115673.00 121088.00 948.64 o
0 8 0 308.72 286.50 25.47 o
-8 8 0 308.76 292.87 19.10 o
-8 9 0 782.18 674.87 31.83 o
1 8 0 779.66 662.13 25.47 o
-7 9 0 482.86 369.27 25.47 o
2 7 0 482.79 388.37 25.47 o
-6 9 0 23311.30 22614.40 191.00 o
3 6 0 23378.30 22487.10 191.00 o
-5 9 0 507.70 458.40 19.10 o
4 5 0 508.43 432.93 25.47 o
-4 9 0 382.38 426.57 25.47 o
-9 5 0 382.24 452.03 25.47 o
-3 9 0 22691.10 22461.60 216.47 o
-9 6 0 22681.00 22493.50 191.00 o
-2 9 0 376.94 407.47 25.47 o
-9 7 0 378.13 388.37 25.47 o
-1 9 0 697.72 623.93 31.83 o
-9 8 0 695.71 636.67 31.83 o
0 9 0 4790.37 5169.74 70.03 o
-9 9 0 4827.59 5106.08 76.40 o
-9 10 0 1731.43 1782.67 50.93 o
1 9 0 1727.59 1763.57 44.57 o
-8 10 0 9415.05 9677.35 108.23 o
2 8 0 9396.24 9155.28 95.50 o
-7 10 0 1789.43 1719.00 44.57 o
3 7 0 1790.57 1706.27 44.57 o
-6 10 0 455.84 611.20 31.83 o
4 6 0 453.64 585.73 25.47 o
-5 10 0 22477.10 25301.20 241.93 o
5 5 0 22418.20 25409.40 216.47 o
-4 10 0 704.92 630.30 31.83 o
-10 6 0 703.82 630.30 31.83 o
-3 10 0 1665.83 1719.00 50.93 o
-10 7 0 1668.00 1757.20 57.30 o
-2 10 0 9491.98 9683.72 120.97 o
-10 8 0 9482.90 9117.08 108.23 o
-1 10 0 1357.52 1750.84 50.93 o
-10 9 0 1355.10 1846.34 50.93 o
0 10 0 914.34 598.47 31.83 o
-10 10 0 914.07 579.37 31.83 o
-10 11 0 18359.00 17075.40 178.27 o
1 10 0 18383.40 17673.90 210.10 o
-9 11 0 358.60 362.90 31.83 o
2 9 0 357.83 299.23 31.83 o
-8 11 0 11460.90 10212.20 120.97 o
3 8 0 11447.00 10174.00 120.97 o
-7 11 0 49126.70 49373.60 452.03 o
4 7 0 49170.90 49118.90 452.03 o
-6 11 0 5083.49 5825.51 89.13 o
5 6 0 5092.14 5959.21 82.77 o
-5 11 0 5574.50 5991.04 95.50 o
-11 6 0 5583.83 5959.21 101.87 o
-4 11 0 48796.60 48813.30 509.33 o
-11 7 0 48800.00 47928.30 515.70 o
-3 11 0 11349.50 9976.58 127.33 o
-11 8 0 11335.00 10065.70 140.07 o
-2 11 0 349.99 280.13 31.83 o
-11 9 0 349.67 292.87 38.20 o
-1 11 0 18851.70 17317.40 203.73 o
-11 10 0 18895.10 17190.00 184.63 o
0 11 0 1215.78 1585.30 63.67 o
-11 11 0 1215.62 1534.37 50.93 o
-11 12 0 2770.17 3450.74 76.40 o
1 11 0 2764.31 3520.77 82.77 o
-10 12 0 401.14 388.37 44.57 o
2 10 0 402.58 267.40 38.20 o
-9 12 0 51052.20 54511.50 579.37 o
3 9 0 51044.40 54969.90 502.97 o
-8 12 0 8025.41 7187.98 114.60 o
4 8 0 8035.86 7060.65 101.87 o
-7 12 0 7775.26 8404.01 120.97 o
5 7 0 7770.26 8270.31 108.23 o
-6 12 0 98924.30 97995.90 1005.93 o
6 6 0 98858.60 98269.70 1012.30 o
-5 12 0 7161.12 8270.31 120.97 o
-12 7 0 7154.61 8276.68 127.33 o
-4 12 0 7750.50 7187.98 108.23 o
-12 8 0 7759.52 6952.41 114.60 o
-3 12 0 51203.80 54040.40 566.63 o
-12 9 0 51173.40 54371.40 579.37 o
-2 12 0 568.14 382.00 38.20 o
-12 10 0 570.05 362.90 44.57 o
-1 12 0 2801.64 3399.81 82.77 o
-12 11 0 2795.99 3552.61 89.13 o
0 12 0 46545.90 48800.60 528.43 o
-12 12 0 46534.80 49621.90 534.80 o
-12 13 0 4562.78 4278.41 120.97 o
1 12 0 4568.20 4004.64 89.13 o
-11 13 0 38573.20 40110.10 458.40 o
2 11 0 38566.10 38563.00 432.93 o
-10 13 0 1730.57 1330.64 57.30 o
3 10 0 1726.97 1432.50 57.30 o
-9 13 0 1674.85 1865.44 70.03 o
4 9 0 1671.80 1750.84 63.67 o
-8 13 0 54652.70 53333.70 566.63 o
5 8 0 54627.00 53766.60 496.60 o
-7 13 0 2791.98 2705.84 76.40 o
6 7 0 2794.65 2693.10 82.77 o
-6 13 0 2975.17 2591.24 70.03 o
-13 7 0 2977.53 2654.90 82.77 o
-5 13 0 54305.80 53550.10 566.63 o
-13 8 0 54298.10 53034.40 573.00 o
-4 13 0 1545.49 1719.00 63.67 o
-13 9 0 1542.90 1655.34 70.03 o
-3 13 0 1713.34 1362.47 57.30 o
-13 10 0 1709.78 1477.07 63.67 o
-2 13 0 38929.20 37830.80 509.33 o
-13 11 0 38899.60 37945.40 420.20 o
-1 13 0 4385.74 4081.04 95.50 o
-13 12 0 4390.88 4278.41 101.87 o
0 13 0 1146.52 840.40 57.30 o
-13 13 0 1146.34 846.77 70.03 o
-13 14 0 12976.20 12262.20 216.47 o
1 13 0 12978.60 12033.00 171.90 o
-12 14 0 3343.17 3151.51 114.60 o
2 12 0 3336.23 3297.94 89.13 o
-11 14 0 6560.48 6557.68 146.43 o
3 11 0 6569.94 6640.44 114.60 o
-10 14 0 17300.20 19284.70 241.93 o
4 10 0 17312.00 19571.20 235.57 o
-9 14 0 712.73 884.97 50.93 o
5 9 0 715.63 783.10 50.93 o
-8 14 0 1645.72 1693.54 70.03 o
6 8 0 1641.33 1655.34 70.03 o
-7 14 0 18530.00 19386.50 235.57 o
7 7 0 18555.60 19240.10 241.93 o
-6 14 0 1767.26 1598.04 70.03 o
-14 8 0 1762.08 1559.84 63.67 o
-5 14 0 735.80 732.17 50.93 o
-14 9 0 738.72 827.67 50.93 o
-4 14 0 17723.40 19246.50 248.30 o
-14 10 0 17745.10 19755.80 248.30 o
-3 14 0 6471.55 6614.98 140.07 o
-14 11 0 6481.11 6583.14 120.97 o
-2 14 0 3282.49 3234.27 89.13 o
-14 12 0 3275.67 3202.44 95.50 o
-1 14 0 13099.40 12033.00 171.90 o
-14 13 0 13104.60 11848.40 216.47 o
0 14 0 934.72 1005.94 57.30 o
-14 14 0 934.58 834.03 76.40 o
-14 15 0 18.30 82.77 63.67 <
1 14 0 17.91 -19.10 50.93 <
-13 15 0 109.16 38.20 57.30 <
2 13 0 110.30 82.77 50.93 <
-12 15 0 7011.43 8002.91 165.53 o
3 12 0 7022.41 7939.25 133.70 o
-11 15 0 192.59 171.90 57.30 o
4 11 0 191.06 267.40 50.93 o
-10 15 0 1379.69 1464.34 63.67 o
5 10 0 1383.75 1413.40 63.67 o
-9 15 0 2627.64 2572.14 82.77 o
6 9 0 2628.29 2597.60 101.87 o
-8 15 0 178.83 324.70 44.57 o
7 8 0 177.54 280.13 57.30 o
-7 15 0 258.02 337.43 44.57 o
-15 8 0 256.64 337.43 50.93 o
-6 15 0 2753.20 2705.84 82.77 o
-15 9 0 2788.37 2642.17 89.13 o
-5 15 0 1310.86 1368.84 76.40 o
-15 10 0 1315.06 1464.34 63.67 o
-4 15 0 235.60 89.13 57.30 <
-15 11 0 234.25 216.47 50.93 o
-3 15 0 6895.65 7671.85 159.17 o
-15 12 0 6892.31 7716.41 133.70 o
-2 15 0 98.77 50.93 44.57 <
-15 13 0 100.03 76.40 63.67 <
-1 15 0 55.36 38.20 50.93 <
-15 14 0 54.82 95.50 63.67 <
0 15 0 1753.30 1515.27 70.03 o
-15 15 0 1764.90 1617.14 89.13 o
-15 16 0 816.86 802.20 76.40 o
1 15 0 813.61 783.10 63.67 o
-14 16 0 3083.48 3170.61 127.33 o
2 14 0 3076.69 2992.34 101.87 o
-13 16 0 203.14 261.03 63.67 o
3 13 0 204.58 311.97 57.30 o
-12 16 0 173.95 267.40 63.67 o
4 12 0 175.43 331.07 50.93 o
-11 16 0 2178.97 2005.50 108.23 o
5 11 0 2179.80 1922.74 82.77 o
-10 16 0 23.24 -44.57 44.57 <
6 10 0 23.55 31.83 44.57 <
-9 16 0 50.83 89.13 44.57 <
7 9 0 50.22 133.70 57.30 o
-8 16 0 1317.26 1101.44 57.30 o
8 8 0 1328.60 1082.34 76.40 o
-7 16 0 108.78 108.23 44.57 o
-16 9 0 108.16 133.70 50.93 o
-6 16 0 3.88 -50.93 57.30 <
-16 10 0 4.09 0.00 50.93 <
-5 16 0 2138.02 2101.00 101.87 o
-16 11 0 2143.29 2183.77 82.77 o
-4 16 0 157.76 235.57 57.30 o
-16 12 0 159.12 305.60 57.30 o
-3 16 0 215.15 261.03 50.93 o
-16 13 0 216.65 280.13 70.03 o
-2 16 0 2869.99 3138.77 101.87 o
-16 14 0 2869.65 3024.17 133.70 o
-1 16 0 843.84 821.30 63.67 o
-16 15 0 840.60 865.87 82.77 o
0 16 0 24.70 89.13 57.30 <
-16 16 0 24.68 165.53 70.03 o
-15 17 0 233.50 171.90 70.03 o
2 15 0 235.11 280.13 63.67 o
-14 17 0 2430.10 2603.97 127.33 o
3 14 0 2424.59 2578.50 101.87 o
-13 17 0 5191.25 4940.54 146.43 o
4 13 0 5194.03 4679.51 120.97 o
-12 17 0 1020.81 955.00 76.40 o
5 12 0 1023.15 929.53 63.67 o
-11 17 0 435.66 496.60 70.03 o
6 11 0 436.74 452.03 70.03 o
-10 17 0 5203.88 4940.54 114.60 o
7 10 0 5192.44 4940.54 146.43 o
-9 17 0 333.97 496.60 57.30 o
8 9 0 332.07 496.60 70.03 o
-8 17 0 333.66 496.60 70.03 o
-17 9 0 331.79 471.13 70.03 o
-7 17 0 5195.87 4717.71 140.07 o
-17 10 0 5194.88 4927.81 140.07 o
-6 17 0 625.39 477.50 70.03 o
-17 11 0 626.41 509.33 63.67 o
-5 17 0 886.39 929.53 76.40 o
-17 12 0 888.88 967.73 70.03 o
-4 17 0 5175.82 4889.61 140.07 o
-17 13 0 5167.62 5023.31 159.17 o
-3 17 0 2453.89 2642.17 101.87 o
-17 14 0 2448.23 2476.64 120.97 o
-2 17 0 200.88 165.53 57.30 o
-17 15 0 202.47 140.07 70.03 <
-13 18 0 975.42 751.27 76.40 o
5 13 0 972.79 846.77 70.03 o
-12 18 0 7509.14 7194.35 171.90 o
6 12 0 7504.44 7047.91 178.27 o
-11 18 0 128.36 57.30 63.67 <
7 11 0 127.98 191.00 70.03 o
-10 18 0 5.79 70.03 50.93 <
8 10 0 6.05 12.73 70.03 <
-9 18 0 13893.20 14758.00 261.03 o
9 9 0 13880.80 14987.20 261.03 o
-8 18 0 8.69 216.47 63.67 o
-18 10 0 9.04 -6.37 63.67 <
-7 18 0 159.17 120.97 63.67 <
-18 11 0 158.68 114.60 70.03 <
-6 18 0 7571.95 6799.61 165.53 o
-18 12 0 7559.79 6952.41 171.90 o
-5 18 0 948.45 802.20 82.77 o
-18 13 0 946.13 910.43 89.13 o
0 0 1 9.53 70.03 6.37 o
0 1 1 32.32 38.20 6.37 o
-1 1 1 32.38 25.47 6.37 o
-1 2 1 5991.29 8824.22 63.67 o
1 1 1 5991.81 8499.51 95.50 o
0 2 1 2667.83 2508.47 25.47 o
-2 2 1 2671.74 2502.10 25.47 o
-2 3 1 4385.74 3826.37 38.20 o
1 2 1 4384.43 3788.17 31.83 o
-1 3 1 3444.12 3781.81 31.83 o
-3 2 1 3443.82 3794.54 31.83 o
0 3 1 97.34 63.67 6.37 o
-3 3 1 97.35 38.20 19.10 <
-3 4 1 21192.80 22474.40 165.53 o
1 3 1 21198.00 22614.40 127.33 o
-2 4 1 434696.00 428751.00 2794.97 o
2 2 1 434693.00 420634.00 2820.44 o
-1 4 1 22124.60 22518.90 140.07 o
-4 3 1 22125.30 22557.10 152.80 o
0 4 1 31521.20 33374.10 184.63 o
-4 4 1 31518.80 33342.30 267.40 o
-4 5 1 28506.10 36723.00 267.40 o
1 4 1 28494.50 36080.00 184.63 o
-3 5 1 1633.94 1980.04 25.47 o
2 3 1 1636.33 1980.04 25.47 o
-2 5 1 1347.34 1980.04 25.47 o
-5 3 1 1350.43 1999.14 25.47 o
-1 5 1 28999.50 36048.10 203.73 o
-5 4 1 28987.70 36372.80 267.40 o
0 5 1 1014.28 649.40 12.73 o
-5 5 1 1017.46 643.03 19.10 o
-5 6 1 396.57 693.97 19.10 o
1 5 1 395.12 713.07 12.73 o
-4 6 1 1202.03 1247.87 25.47 o
2 4 1 1201.94 1324.27 19.10 o
-3 6 1 5477.17 4978.74 38.20 o
3 3 1 5487.03 4940.54 38.20 o
-2 6 1 1138.79 1266.97 25.47 o
-6 4 1 1138.48 1254.24 25.47 o
-1 6 1 414.74 674.87 19.10 o
-6 5 1 412.77 719.43 19.10 o
0 6 1 174.10 331.07 12.73 o
-6 6 1 173.90 356.53 19.10 o
-6 7 1 6373.05 5367.11 44.57 o
1 6 1 6368.13 5456.24 44.57 o
-5 7 1 23384.40 26625.40 171.90 o
2 5 1 23391.20 26332.60 152.80 o
-4 7 1 3049.63 2425.70 25.47 o
3 4 1 3053.03 2406.60 25.47 o
-3 7 1 2787.85 2425.70 25.47 o
-7 4 1 2793.25 2393.87 25.47 o
-2 7 1 23023.20 26065.20 159.17 o
-7 5 1 23029.10 26453.50 171.90 o
-1 7 1 6244.64 5418.04 44.57 o
-7 6 1 6241.33 5411.68 50.93 o
0 7 1 1611.24 2470.27 25.47 o
-7 7 1 1611.63 2451.17 31.83 o
-7 8 1 642.18 305.60 19.10 o
1 7 1 643.11 362.90 19.10 o
-6 8 1 11546.60 12198.60 89.13 o
2 6 1 11553.60 12109.40 76.40 o
-5 8 1 8915.63 9199.85 63.67 o
3 5 1 8919.31 9161.65 57.30 o
-4 8 1 98984.70 96735.30 598.47 o
4 4 1 98996.90 96665.30 566.63 o
-3 8 1 8230.54 9078.88 63.67 o
-8 5 1 8228.25 9225.32 70.03 o
-2 8 1 10600.60 11975.70 82.77 o
-8 6 1 10602.20 12096.70 89.13 o
-1 8 1 543.94 311.97 12.73 o
-8 7 1 544.86 401.10 19.10 o
0 8 1 4180.18 3934.61 38.20 o
-8 8 1 4182.78 3858.21 38.20 o
-8 9 1 7604.58 7321.68 57.30 o
1 8 1 7608.41 7334.41 57.30 o
-7 9 1 3510.30 3800.91 38.20 o
2 7 1 3513.49 3800.91 38.20 o
-6 9 1 6225.44 7569.98 57.30 o
3 6 1 6220.13 7544.51 57.30 o
-5 9 1 8311.95 8270.31 63.67 o
4 5 1 8306.76 8213.01 57.30 o
-4 9 1 7766.84 8213.01 63.67 o
-9 5 1 7762.08 8251.21 63.67 o
-3 9 1 6295.12 7716.41 63.67 o
-9 6 1 6289.84 7512.68 63.67 o
-2 9 1 3244.57 3807.27 38.20 o
-9 7 1 3248.17 3781.81 44.57 o
-1 9 1 7971.31 7423.55 57.30 o
-9 8 1 7976.43 7302.58 57.30 o
0 9 1 76.49 50.93 19.10 o
-9 9 1 76.40 89.13 19.10 o
-9 10 1 17874.50 17890.40 127.33 o
1 9 1 17879.60 17807.60 140.07 o
-8 10 1 23512.10 23976.90 165.53 o
2 8 1 23507.80 24053.30 146.43 o
-7 10 1 7991.41 8416.75 76.40 o
3 7 1 7996.13 8302.15 63.67 o
-6 10 1 7807.89 7391.71 63.67 o
4 6 1 7802.02 7283.48 57.30 o
-5 10 1 409.78 267.40 19.10 o
5 5 1 409.98 311.97 19.10 o
-4 10 1 8739.90 7474.48 63.67 o
-10 6 1 8734.15 7442.65 63.67 o
-3 10 1 8565.30 8327.61 70.03 o
-10 7 1 8570.04 8270.31 70.03 o
-2 10 1 23577.00 23735.00 159.17 o
-10 8 1 23571.40 23824.10 178.27 o
-1 10 1 17748.40 18005.00 120.97 o
-10 9 1 17752.90 17623.00 140.07 o
0 10 1 17647.10 17890.40 140.07 o
-10 10 1 17647.50 18106.80 140.07 o
-10 11 1 1330.63 891.34 31.83 o
1 10 1 1329.45 955.00 31.83 o
-9 11 1 1129.63 935.90 31.83 o
2 9 1 1130.40 904.07 25.47 o
-8 11 1 1479.30 1273.34 31.83 o
3 8 1 1480.15 1330.64 31.83 o
-7 11 1 18330.20 19895.90 152.80 o
4 7 1 18329.40 19806.70 127.33 o
-6 11 1 1666.88 1719.00 38.20 o
5 6 1 1666.23 1693.54 31.83 o
-5 11 1 1575.78 1699.90 38.20 o
-11 6 1 1574.35 1706.27 44.57 o
-4 11 1 18841.80 19736.70 146.43 o
-11 7 1 18841.60 19787.60 152.80 o
-3 11 1 1645.51 1266.97 38.20 o
-11 8 1 1645.84 1356.10 38.20 o
-2 11 1 1126.57 955.00 31.83 o
-11 9 1 1127.47 955.00 31.83 o
-1 11 1 1263.89 916.80 31.83 o
-11 10 1 1263.33 916.80 31.83 o
0 11 1 818.96 706.70 31.83 o
-11 11 1 819.51 706.70 31.83 o
-11 12 1 134.23 63.67 25.47 o
1 11 1 134.15 101.87 25.47 o
-10 12 1 594.59 560.27 31.83 o
2 10 1 595.91 674.87 31.83 o
-9 12 1 2351.13 2756.77 50.93 o
3 9 1 2352.83 2718.57 50.93 o
-8 12 1 2917.57 2533.94 44.57 o
4 8 1 2916.24 2654.90 44.57 o
-7 12 1 2523.90 2922.31 44.57 o
5 7 1 2524.16 2820.44 44.57 o
-6 12 1 3229.45 4762.27 57.30 o
6 6 1 3230.84 4501.24 63.67 o
-5 12 1 2532.06 2845.90 50.93 o
-12 7 1 2532.47 2839.54 57.30 o
-4 12 1 2557.81 2610.34 44.57 o
-12 8 1 2556.50 2674.00 50.93 o
-3 12 1 2440.05 2845.90 57.30 o
-12 9 1 2441.75 2680.37 50.93 o
-2 12 1 502.48 623.93 31.83 o
-12 10 1 503.28 604.83 31.83 o
-1 12 1 154.51 146.43 25.47 o
-12 11 1 154.40 70.03 25.47 o
0 12 1 4.50 171.90 31.83 o
-12 12 1 4.53 191.00 31.83 o
-12 13 1 5773.54 5857.34 82.77 o
1 12 1 5773.95 5736.38 76.40 o
-11 13 1 4082.85 4100.14 63.67 o
2 11 1 4083.30 4144.71 63.67 o
-10 13 1 1554.15 2183.77 50.93 o
3 10 1 1553.48 2183.77 50.93 o
-9 13 1 425.96 674.87 31.83 o
4 9 1 425.70 655.77 31.83 o
-8 13 1 969.38 942.27 38.20 o
5 8 1 969.66 929.53 31.83 o
-7 13 1 862.69 732.17 31.83 o
6 7 1 862.46 802.20 31.83 o
-6 13 1 832.52 770.37 31.83 o
-13 7 1 832.38 751.27 38.20 o
-5 13 1 963.87 942.27 31.83 o
-13 8 1 964.44 910.43 38.20 o
-4 13 1 458.94 681.23 31.83 o
-13 9 1 458.33 662.13 38.20 o
-3 13 1 1699.47 2081.90 50.93 o
-13 10 1 1698.78 2171.04 57.30 o
-2 13 1 4174.50 4119.24 63.67 o
-13 11 1 4175.05 4017.37 76.40 o
-1 13 1 5761.22 5704.54 82.77 o
-13 12 1 5761.61 5615.41 89.13 o
0 13 1 477.33 579.37 38.20 o
-13 13 1 477.23 579.37 38.20 o
-13 14 1 900.37 1056.87 50.93 o
1 13 1 900.47 1107.80 44.57 o
-12 14 1 1083.63 923.17 44.57 o
2 12 1 1084.10 948.64 38.20 o
-11 14 1 862.13 802.20 44.57 o
3 11 1 861.67 764.00 38.20 o
-10 14 1 5745.26 6137.48 89.13 o
4 10 1 5745.26 6137.48 76.40 o
-9 14 1 753.71 1082.34 38.20 o
5 9 1 753.02 1069.60 38.20 o
-8 14 1 321.64 191.00 31.83 o
6 8 1 321.70 197.37 31.83 o
-7 14 1 7492.32 7875.58 89.13 o
7 7 1 7491.27 8041.11 101.87 o
-6 14 1 364.33 203.73 31.83 o
-14 8 1 364.82 197.37 31.83 o
-5 14 1 874.92 974.10 38.20 o
-14 9 1 874.49 1037.77 44.57 o
-4 14 1 5901.70 6010.14 82.77 o
-14 10 1 5901.49 6220.24 82.77 o
-3 14 1 719.18 700.34 38.20 o
-14 11 1 718.59 719.43 44.57 o
-2 14 1 1091.55 910.43 44.57 o
-14 12 1 1091.79 891.34 44.57 o
-1 14 1 932.67 1171.47 44.57 o
-14 13 1 932.70 1114.17 50.93 o
0 14 1 202.99 394.73 38.20 o
-14 14 1 202.89 407.47 44.57 o
-14 15 1 544.46 471.13 50.93 o
1 14 1 544.74 553.90 38.20 o
-13 15 1 330.90 273.77 44.57 o
2 13 1 331.29 299.23 38.20 o
-12 15 1 762.40 687.60 44.57 o
3 12 1 762.14 744.90 38.20 o
-11 15 1 578.75 369.27 38.20 o
4 11 1 578.36 445.67 38.20 o
-10 15 1 3572.26 3361.61 70.03 o
5 10 1 3570.84 3342.51 63.67 o
-9 15 1 1759.68 1674.44 50.93 o
6 9 1 1759.41 1820.87 50.93 o
-8 15 1 1983.91 1846.34 50.93 o
7 8 1 1984.92 1865.44 57.30 o
-7 15 1 1895.73 1827.24 57.30 o
-15 8 1 1896.91 1820.87 57.30 o
-6 15 1 1796.66 1782.67 57.30 o
-15 9 1 1796.37 1731.74 57.30 o
-5 15 1 3333.97 3348.87 70.03 o
-15 10 1 3332.71 3418.91 70.03 o
-4 15 1 591.64 426.57 31.83 o
-15 11 1 591.14 413.83 38.20 o
-3 15 1 734.41 744.90 44.57 o
-15 12 1 734.15 732.17 44.57 o
-2 15 1 297.45 337.43 38.20 o
-15 13 1 297.74 331.07 44.57 o
-1 15 1 533.47 509.33 38.20 o
-15 14 1 533.81 560.27 50.93 o
0 15 1 0.82 101.87 38.20 o
-15 15 1 0.82 44.57 44.57 <
-15 16 1 2683.52 2457.54 89.13 o
1 15 1 2683.76 2635.80 70.03 o
-14 16 1 173.30 19.10 44.57 <
2 14 1 173.36 127.33 38.20 o
-13 16 1 73.04 70.03 44.57 <
3 13 1 73.23 57.30 38.20 <
-12 16 1 350.52 324.70 44.57 o
4 12 1 350.08 305.60 38.20 o
-11 16 1 924.83 1165.10 50.93 o
5 11 1 924.91 1101.44 44.57 o
-10 16 1 1287.21 1063.24 44.57 o
6 10 1 1287.09 1107.80 50.93 o
-9 16 1 1821.61 1668.07 57.30 o
7 9 1 1822.22 1598.04 57.30 o
-8 16 1 148.42 -31.83 38.20 <
8 8 1 148.40 25.47 38.20 <
-7 16 1 1720.54 1578.94 50.93 o
-16 9 1 1721.42 1674.44 57.30 o
-6 16 1 1253.50 1050.50 44.57 o
-16 10 1 1253.45 1152.37 50.93 o
-5 16 1 917.83 1107.80 57.30 o
-16 11 1 917.82 1120.54 57.30 o
-4 16 1 271.02 388.37 38.20 o
-16 12 1 270.53 273.77 44.57 o
-3 16 1 115.93 70.03 38.20 <
-16 13 1 116.16 114.60 44.57 o
-2 16 1 189.00 70.03 38.20 <
-16 14 1 189.03 12.73 44.57 <
-1 16 1 2644.97 2553.04 70.03 o
-16 15 1 2645.41 2514.84 89.13 o
0 16 1 729.28 732.17 44.57 o
-16 16 1 729.29 757.64 57.30 o
-15 17 1 300.19 159.17 50.93 o
2 15 1 300.40 229.20 44.57 o
-14 17 1 685.71 547.53 57.30 o
3 14 1 686.13 490.23 44.57 o
-13 17 1 1794.54 2088.27 70.03 o
4 13 1 1794.56 2101.00 63.67 o
-12 17 1 159.36 76.40 44.57 <
5 12 1 159.11 70.03 38.20 <
-11 17 1 180.36 82.77 38.20 o
6 11 1 180.14 57.30 38.20 <
-10 17 1 2369.10 2266.54 82.77 o
7 10 1 2369.30 2005.50 76.40 o
-9 17 1 413.33 337.43 44.57 o
8 9 1 413.75 292.87 50.93 o
-8 17 1 550.40 286.50 38.20 o
-17 9 1 550.89 241.93 44.57 o
-7 17 1 2374.53 2266.54 70.03 o
-17 10 1 2374.79 2260.17 76.40 o
-6 17 1 128.40 89.13 44.57 <
-17 11 1 128.32 146.43 44.57 o
-5 17 1 196.84 70.03 38.20 <
-17 12 1 196.55 31.83 44.57 <
-4 17 1 1878.21 2145.57 70.03 o
-17 13 1 1878.30 2062.80 76.40 o
-3 17 1 604.16 509.33 44.57 o
-17 14 1 604.62 534.80 57.30 o
-2 17 1 385.17 241.93 44.57 o
-17 15 1 385.45 235.57 50.93 o
-13 18 1 656.78 649.40 57.30 o
5 13 1 656.81 770.37 50.93 o
-12 18 1 1027.03 1120.54 70.03 o
6 12 1 1027.14 1266.97 57.30 o
-11 18 1 149.47 140.07 44.57 o
7 11 1 149.27 222.83 50.93 o
-10 18 1 207.95 178.27 50.93 o
8 10 1 208.11 191.00 50.93 o
-9 18 1 672.07 617.57 50.93 o
9 9 1 672.18 579.37 57.30 o
-8 18 1 119.74 159.17 44.57 o
-18 10 1 119.79 159.17 50.93 o
-7 18 1 138.44 178.27 50.93 o
-18 11 1 138.23 89.13 50.93 <
-6 18 1 1106.78 1216.04 57.30 o
-18 12 1 1106.90 1165.10 63.67 o
-5 18 1 638.42 674.87 50.93 o
-18 13 1 638.43 636.67 57.30 o
0 0 2 203254.00 179973.00 1814.50 o
0 1 2 11.53 12.73 6.37 <
-1 1 2 11.53 31.83 6.37 o
-1 2 2 79155.30 74668.40 464.77 o
1 1 2 79136.40 75063.10 496.60 o
0 2 2 251.36 140.07 12.73 o
-2 2 2 251.19 140.07 6.37 o
-2 3 2 237.25 267.40 12.73 o
1 2 2 237.27 254.67 12.73 o
-1 3 2 396.54 273.77 12.73 o
-3 2 2 397.07 292.87 6.37 o
0 3 2 370213.00 399725.00 2629.44 o
-3 3 2 370214.00 398783.00 2667.64 o
-3 4 2 2042.32 2151.94 31.83 o
1 3 2 2040.63 2075.54 25.47 o
-2 4 2 489234.00 473178.00 2724.94 o
2 2 2 489261.00 464042.00 2896.84 o
-1 4 2 1646.02 2120.10 25.47 o
-4 3 2 1643.62 2151.94 25.47 o
0 4 2 1017.13 1394.30 19.10 o
-4 4 2 1017.18 1464.34 31.83 o
-4 5 2 105361.00 104840.00 693.97 o
1 4 2 105307.00 105604.00 649.40 o
-3 5 2 5913.58 6341.21 44.57 o
2 3 2 5915.38 6341.21 44.57 o
-2 5 2 6238.37 6334.84 44.57 o
-5 3 2 6239.18 6322.11 44.57 o
-1 5 2 108388.00 105827.00 553.90 o
-5 4 2 108309.00 104980.00 693.97 o
0 5 2 179.20 343.80 12.73 o
-5 5 2 179.16 337.43 12.73 o
-5 6 2 14718.50 14280.50 108.23 o
1 5 2 14725.00 14204.10 82.77 o
-4 6 2 12919.70 13140.80 101.87 o
2 4 2 12909.00 13287.30 82.77 o
-3 6 2 157524.00 183927.00 1012.30 o
3 3 2 157580.00 183462.00 1063.23 o
-2 6 2 13442.70 13153.60 82.77 o
-6 4 2 13436.60 13115.40 82.77 o
-1 6 2 15141.20 14159.50 89.13 o
-6 5 2 15150.00 14299.60 108.23 o
0 6 2 11228.90 8849.68 57.30 o
-6 6 2 11247.70 8932.45 70.03 o
-6 7 2 12693.90 13421.00 101.87 o
1 6 2 12688.80 13217.20 76.40 o
-5 7 2 26388.60 24454.40 171.90 o
2 5 2 26433.20 24199.70 140.07 o
-4 7 2 5851.79 6073.81 50.93 o
3 4 2 5854.97 5978.31 44.57 o
-3 7 2 5946.12 5971.94 44.57 o
-7 4 2 5948.75 5971.94 44.57 o
-2 7 2 25525.90 24040.60 140.07 o
-7 5 2 25594.90 24282.50 159.17 o
-1 7 2 12904.00 13408.20 82.77 o
-7 6 2 12895.80 13471.90 95.50 o
0 7 2 866.11 1037.77 19.10 o
-7 7 2 866.20 1088.70 25.47 o
-7 8 2 32123.50 30560.10 203.73 o
1 7 2 32063.30 30350.00 178.27 o
-6 8 2 20242.80 20449.80 140.07 o
2 6 2 20248.80 20462.50 114.60 o
-5 8 2 12550.10 11956.60 89.13 o
3 5 2 12547.40 11893.00 76.40 o
-4 8 2 166303.00 165916.00 955.00 o
4 4 2 166255.00 164789.00 910.43 o
-3 8 2 11533.00 11994.80 76.40 o
-8 5 2 11531.40 12084.00 89.13 o
-2 8 2 19629.70 20589.80 120.97 o
-8 6 2 19635.10 20526.20 140.07 o
-1 8 2 33896.40 30534.60 178.27 o
-8 7 2 33789.50 30655.60 203.73 o
0 8 2 146.59 152.80 19.10 o
-8 8 2 146.56 159.17 19.10 o
-8 9 2 774.78 802.20 25.47 o
1 8 2 777.10 821.30 25.47 o
-7 9 2 330.52 292.87 19.10 o
2 7 2 328.57 280.13 19.10 o
-6 9 2 118191.00 129683.00 802.20 o
3 6 2 118128.00 129142.00 757.63 o
-5 9 2 667.70 566.63 19.10 o
4 5 2 665.38 623.93 19.10 o
-4 9 2 490.45 630.30 19.10 o
-9 5 2 488.60 636.67 19.10 o
-3 9 2 119197.00 129785.00 802.20 o
-9 6 2 119211.00 129365.00 802.20 o
-2 9 2 389.38 318.33 19.10 o
-9 7 2 387.55 292.87 19.10 o
-1 9 2 756.71 834.03 25.47 o
-9 8 2 758.74 802.20 25.47 o
0 9 2 129856.00 139806.00 865.87 o
-9 9 2 129831.00 138953.00 923.17 o
-9 10 2 1695.16 1712.64 44.57 o
1 9 2 1698.73 1706.27 38.20 o
-8 10 2 99233.10 100549.00 674.87 o
2 8 2 99224.50 100734.00 630.30 o
-7 10 2 1594.61 1655.34 31.83 o
3 7 2 1590.21 1706.27 31.83 o
-6 10 2 269.61 248.30 19.10 o
4 6 2 270.95 267.40 19.10 o
-5 10 2 87956.80 87783.80 547.53 o
5 5 2 87991.30 87357.20 515.70 o
-4 10 2 238.70 235.57 19.10 o
-10 6 2 240.02 267.40 19.10 o
-3 10 2 1504.75 1617.14 31.83 o
-10 7 2 1500.79 1598.04 31.83 o
-2 10 2 98211.00 101230.00 630.30 o
-10 8 2 98193.00 100192.00 630.30 o
-1 10 2 1214.56 1636.24 38.20 o
-10 9 2 1218.14 1687.17 44.57 o
0 10 2 268.72 191.00 19.10 o
-10 10 2 268.70 140.07 25.47 o
-10 11 2 40954.40 41784.50 318.33 o
1 10 2 40953.60 41370.70 292.87 o
-9 11 2 582.21 553.90 31.83 o
2 9 2 583.70 611.20 25.47 o
-8 11 2 10410.80 10154.90 95.50 o
3 8 2 10418.70 10167.60 76.40 o
-7 11 2 28784.00 27981.50 203.73 o
4 7 2 28772.10 28344.40 178.27 o
-6 11 2 3916.54 4424.84 50.93 o
5 6 2 3911.69 4431.21 50.93 o
-5 11 2 4439.98 4335.71 50.93 o
-11 6 2 4435.51 4335.71 50.93 o
-4 11 2 29121.70 27879.70 178.27 o
-11 7 2 29141.00 27854.20 191.00 o
-3 11 2 10432.40 10059.40 82.77 o
-11 8 2 10441.30 10142.10 89.13 o
-2 11 2 601.48 566.63 25.47 o
-11 9 2 602.28 553.90 31.83 o
-1 11 2 40602.60 41625.30 292.87 o
-11 10 2 40583.30 41332.50 318.33 o
0 11 2 536.72 700.34 31.83 o
-11 11 2 536.54 738.53 31.83 o
-11 12 2 2101.40 2578.50 57.30 o
1 11 2 2106.19 2591.24 50.93 o
-10 12 2 656.78 643.03 31.83 o
2 10 2 654.76 643.03 31.83 o
-9 12 2 12274.10 12797.00 120.97 o
3 9 2 12277.00 12930.70 101.87 o
-8 12 2 7280.66 6748.68 76.40 o
4 8 2 7271.88 6907.85 70.03 o
-7 12 2 5947.43 5933.74 63.67 o
5 7 2 5955.69 5831.88 63.67 o
-6 12 2 2941.33 3820.01 50.93 o
6 6 2 2986.90 3616.27 50.93 o
-5 12 2 5436.00 5838.24 70.03 o
-12 7 2 5443.79 5933.74 70.03 o
-4 12 2 6856.22 6659.54 70.03 o
-12 8 2 6847.96 6844.18 76.40 o
-3 12 2 12279.70 12841.60 114.60 o
-12 9 2 12303.10 12835.20 120.97 o
-2 12 2 828.51 662.13 31.83 o
-12 10 2 826.24 662.13 31.83 o
-1 12 2 2146.50 2451.17 50.93 o
-12 11 2 2151.26 2521.20 57.30 o
0 12 2 4168.03 4615.84 63.67 o
-12 12 2 4177.70 4647.67 70.03 o
-12 13 2 3187.83 2826.80 63.67 o
1 12 2 3182.90 2852.27 63.67 o
-11 13 2 5312.54 4985.11 70.03 o
2 11 2 5309.00 5036.04 70.03 o
-10 13 2 2127.04 1884.54 50.93 o
3 10 2 2130.73 1833.60 44.57 o
-9 13 2 1911.55 1884.54 50.93 o
4 9 2 1914.91 1878.17 44.57 o
-8 13 2 5424.33 5628.14 70.03 o
5 8 2 5440.84 5704.54 70.03 o
-7 13 2 1639.37 1572.57 44.57 o
6 7 2 1636.18 1610.77 44.57 o
-6 13 2 1817.59 1496.17 44.57 o
-13 7 2 1814.70 1528.00 50.93 o
-5 13 2 5441.11 5653.61 70.03 o
-13 8 2 5442.46 5551.74 76.40 o
-4 13 2 1841.06 1808.14 50.93 o
-13 9 2 1844.66 1808.14 50.93 o
-3 13 2 2055.74 1859.07 50.93 o
-13 10 2 2059.41 1833.60 50.93 o
-2 13 2 5205.44 5010.58 70.03 o
-13 11 2 5222.09 4864.14 76.40 o
-1 13 2 3058.92 2820.44 57.30 o
-13 12 2 3053.45 2833.17 63.67 o
0 13 2 485.36 216.47 38.20 o
-13 13 2 485.48 331.07 38.20 o
-13 14 2 8585.23 8805.12 101.87 o
1 13 2 8587.33 8798.75 101.87 o
-12 14 2 2820.08 2648.54 63.67 o
2 12 2 2826.17 2597.60 63.67 o
-11 14 2 5997.01 6105.64 82.77 o
3 11 2 5988.30 5946.48 76.40 o
-10 14 2 13695.10 12103.10 120.97 o
4 10 2 13691.60 11899.30 108.23 o
-9 14 2 981.16 1146.00 44.57 o
5 9 2 979.27 1044.14 38.20 o
-8 14 2 1161.68 1171.47 50.93 o
6 8 2 1165.20 1228.77 44.57 o
-7 14 2 16689.30 16298.70 165.53 o
7 7 2 16674.10 16298.70 165.53 o
-6 14 2 1303.01 1165.10 44.57 o
-14 8 2 1306.61 1107.80 44.57 o
-5 14 2 980.01 1095.07 38.20 o
-14 9 2 977.63 980.47 50.93 o
-4 14 2 13450.10 11803.80 114.60 o
-14 10 2 13437.20 12013.90 146.43 o
-3 14 2 6063.10 5870.08 76.40 o
-14 11 2 6055.16 5901.91 89.13 o
-2 14 2 2765.61 2712.20 57.30 o
-14 12 2 2771.63 2699.47 70.03 o
-1 14 2 8523.16 8626.85 108.23 o
-14 13 2 8522.25 8690.51 114.60 o
0 14 2 362.21 388.37 38.20 o
-14 14 2 362.17 420.20 44.57 o
-14 15 2 48.34 184.63 44.57 o
1 14 2 48.64 108.23 38.20 o
-13 15 2 114.03 120.97 38.20 o
2 13 2 112.94 127.33 38.20 o
-12 15 2 13133.70 13128.10 146.43 o
3 12 2 13124.00 12809.80 127.33 o
-11 15 2 361.51 407.47 38.20 o
4 11 2 362.57 267.40 38.20 o
-10 15 2 1460.69 1559.84 50.93 o
5 10 2 1456.81 1470.70 50.93 o
-9 15 2 29130.40 29299.50 299.23 o
6 9 2 29128.00 29840.60 241.93 o
-8 15 2 87.64 318.33 44.57 o
7 8 2 88.67 273.77 38.20 o
-7 15 2 112.99 241.93 38.20 o
-15 8 2 114.19 261.03 38.20 o
-6 15 2 29414.70 29452.20 241.93 o
-15 9 2 29381.90 30012.50 299.23 o
-5 15 2 1412.36 1572.57 50.93 o
-15 10 2 1408.64 1585.30 63.67 o
-4 15 2 464.41 286.50 31.83 o
-15 11 2 465.48 343.80 44.57 o
-3 15 2 13262.90 12873.40 127.33 o
-15 12 2 13266.10 12835.20 159.17 o
-2 15 2 185.99 171.90 38.20 o
-15 13 2 184.89 184.63 50.93 o
-1 15 2 30.33 120.97 38.20 o
-15 14 2 30.81 178.27 44.57 o
0 15 2 12794.30 13764.80 140.07 o
-15 15 2 12784.10 13707.50 159.17 o
-15 16 2 929.26 1075.97 63.67 o
1 15 2 932.07 948.64 50.93 o
-14 16 2 9244.96 9346.28 140.07 o
2 14 2 9249.79 9301.72 114.60 o
-13 16 2 131.75 165.53 44.57 o
3 13 2 130.39 184.63 38.20 o
-12 16 2 316.73 394.73 44.57 o
4 12 2 315.44 496.60 38.20 o
-11 16 2 17852.70 18068.60 203.73 o
5 11 2 17850.20 17960.40 178.27 o
-10 16 2 36.97 210.10 44.57 o
6 10 2 36.71 203.73 38.20 o
-9 16 2 46.58 140.07 44.57 o
7 9 2 47.16 44.57 38.20 <
-8 16 2 24073.90 24957.40 261.03 o
8 8 2 24062.60 24982.80 235.57 o
-7 16 2 34.08 127.33 38.20 o
-16 9 2 34.78 140.07 44.57 o
-6 16 2 86.44 191.00 31.83 o
-16 10 2 86.23 235.57 44.57 o
-5 16 2 17960.30 17884.00 165.53 o
-16 11 2 17954.30 17661.20 203.73 o
-4 16 2 268.81 426.57 38.20 o
-16 12 2 267.42 496.60 50.93 o
-3 16 2 143.43 127.33 38.20 o
-16 13 2 142.02 178.27 50.93 o
-2 16 2 9559.44 9091.62 120.97 o
-16 14 2 9558.66 9301.72 140.07 o
-1 16 2 925.70 1044.14 50.93 o
-16 15 2 928.69 942.27 57.30 o
-14 17 2 2365.81 2565.77 95.50 o
3 14 2 2370.86 2502.10 70.03 o
-13 17 2 5150.26 5316.18 108.23 o
4 13 2 5148.28 5398.94 89.13 o
-12 17 2 577.75 681.23 57.30 o
5 12 2 575.46 662.13 50.93 o
-11 17 2 158.71 356.53 50.93 o
6 11 2 157.71 280.13 44.57 o
-10 17 2 8055.69 8219.38 127.33 o
7 10 2 8067.11 8225.75 127.33 o
-9 17 2 502.41 643.03 50.93 o
8 9 2 504.14 630.30 50.93 o
-8 17 2 513.86 534.80 44.57 o
-17 9 2 515.53 566.63 50.93 o
-7 17 2 8002.75 8308.51 108.23 o
-17 10 2 8004.87 8263.95 133.70 o
-6 17 2 256.23 267.40 38.20 o
-17 11 2 255.12 254.67 50.93 o
-5 17 2 517.99 566.63 44.57 o
-17 12 2 515.66 719.43 57.30 o
-4 17 2 5198.29 5239.78 95.50 o
-17 13 2 5206.13 5666.34 114.60 o
-3 17 2 2314.08 2457.54 76.40 o
-17 14 2 2319.24 2502.10 89.13 o
-12 18 2 2103.83 2661.27 89.13 o
6 12 2 2108.12 2565.77 76.40 o
-11 18 2 14.45 6.37 44.57 <
7 11 2 14.81 -12.73 50.93 <
-10 18 2 79.23 19.10 44.57 <
8 10 2 79.00 -12.73 44.57 <
-9 18 2 687.63 534.80 50.93 o
9 9 2 698.24 541.17 57.30 o
-8 18 2 64.57 57.30 38.20 <
-18 10 2 64.27 -19.10 50.93 <
-7 18 2 25.52 19.10 38.20 <
-18 11 2 25.98 12.73 50.93 <
-6 18 2 2124.30 2591.24 89.13 o
-18 12 2 2135.09 2629.44 89.13 o
0 0 3 54.16 25.47 12.73 <
0 1 3 779.57 967.73 12.73 o
-1 1 3 778.01 986.84 12.73 o
-1 2 3 22798.20 40345.60 235.57 o
1 1 3 22798.50 40453.90 235.57 o
0 2 3 3364.76 3915.51 31.83 o
-2 2 3 3363.39 3940.97 31.83 o
-2 3 3 5771.03 5207.94 38.20 o
1 2 3 5773.51 5201.58 44.57 o
-1 3 3 4219.84 5227.04 38.20 o
-3 2 3 4219.60 5258.88 38.20 o
0 3 3 40.32 -6.37 12.73 <
-3 3 3 40.37 44.57 12.73 o
-3 4 3 7840.17 7646.38 50.93 o
1 3 3 7846.22 7659.11 63.67 o
-2 4 3 223294.00 202206.00 1177.84 o
2 2 3 223273.00 202537.00 1184.20 o
-1 4 3 8877.06 7659.11 57.30 o
-4 3 3 8875.38 7646.38 50.93 o
0 4 3 21863.40 21697.60 152.80 o
-4 4 3 21856.30 21519.40 152.80 o
-4 5 3 23321.30 32298.20 222.83 o
1 4 3 23316.20 32482.80 210.10 o
-3 5 3 914.02 872.23 19.10 o
2 3 3 910.51 872.23 25.47 o
-2 5 3 804.77 808.57 19.10 o
-5 3 3 803.64 846.77 19.10 o
-1 5 3 24482.50 32928.50 210.10 o
-5 4 3 24482.60 32680.20 210.10 o
0 5 3 1322.29 1668.07 25.47 o
-5 5 3 1321.76 1763.57 25.47 o
-5 6 3 226.36 547.53 19.10 o
1 5 3 223.76 598.47 19.10 o
-4 6 3 230.73 159.17 12.73 o
2 4 3 233.38 184.63 12.73 o
-3 6 3 5748.10 7735.51 57.30 o
3 3 3 5750.80 7773.71 57.30 o
-2 6 3 250.24 159.17 12.73 o
-6 4 3 253.07 146.43 12.73 o
-1 6 3 314.47 560.27 19.10 o
-6 5 3 311.59 598.47 19.10 o
0 6 3 15.13 356.53 19.10 o
-6 6 3 15.04 369.27 19.10 o
-6 7 3 6052.90 6353.94 63.67 o
1 6 3 6048.20 6328.48 57.30 o
-5 7 3 19914.50 25568.60 184.63 o
2 5 3 19918.60 25651.30 184.63 o
-4 7 3 1416.56 1528.00 25.47 o
3 4 3 1416.72 1528.00 25.47 o
-3 7 3 1454.36 1547.10 25.47 o
-7 4 3 1456.78 1534.37 25.47 o
-2 7 3 19358.10 25594.00 146.43 o
-7 5 3 19366.50 25759.60 159.17 o
-1 7 3 6614.27 6379.41 50.93 o
-7 6 3 6614.48 6322.11 57.30 o
0 7 3 1007.12 687.60 19.10 o
-7 7 3 1006.84 649.40 25.47 o
-7 8 3 239.67 184.63 19.10 o
1 7 3 240.12 95.50 19.10 o
-6 8 3 6121.04 5691.81 57.30 o
2 6 3 6114.93 5761.84 50.93 o
-5 8 3 6694.76 6946.04 57.30 o
3 5 3 6697.59 6882.38 57.30 o
-4 8 3 69890.60 70313.60 413.83 o
4 4 3 69892.10 69918.90 439.30 o
-3 8 3 6673.79 6939.68 50.93 o
-8 5 3 6677.28 6984.25 57.30 o
-2 8 3 5740.26 5723.64 50.93 o
-8 6 3 5737.64 5774.58 50.93 o
-1 8 3 214.71 171.90 19.10 o
-8 7 3 214.51 76.40 19.10 o
0 8 3 2107.56 1776.30 31.83 o
-8 8 3 2106.73 1827.24 38.20 o
-8 9 3 7455.15 8162.08 76.40 o
1 8 3 7452.61 8200.28 70.03 o
-7 9 3 3027.80 2998.71 44.57 o
2 7 3 3023.51 2998.71 38.20 o
-6 9 3 3445.31 3196.07 38.20 o
3 6 3 3444.97 3227.91 44.57 o
-5 9 3 4283.66 4074.67 38.20 o
4 5 3 4286.88 4023.74 44.57 o
-4 9 3 3994.94 4093.77 38.20 o
-9 5 3 3999.80 4023.74 44.57 o
-3 9 3 3701.04 3132.41 38.20 o
-9 6 3 3700.45 3132.41 38.20 o
-2 9 3 2981.98 2966.87 38.20 o
-9 7 3 2978.34 2960.51 44.57 o
-1 9 3 7835.29 8174.81 70.03 o
-9 8 3 7831.09 8168.45 76.40 o
0 9 3 2.33 38.20 19.10 <
-9 9 3 2.34 44.57 19.10 o
-9 10 3 11434.10 11116.20 101.87 o
1 9 3 11431.30 11294.50 89.13 o
-8 10 3 15432.10 13236.30 108.23 o
2 8 3 15431.60 13300.00 101.87 o
-7 10 3 4940.47 5634.51 63.67 o
3 7 3 4938.65 5602.68 57.30 o
-6 10 3 7145.97 7671.85 63.67 o
4 6 3 7146.71 7773.71 70.03 o
-5 10 3 125.58 146.43 19.10 o
5 5 3 125.40 159.17 19.10 o
-4 10 3 8043.05 7710.05 63.67 o
-10 6 3 8045.51 7608.18 76.40 o
-3 10 3 5380.46 5666.34 57.30 o
-10 7 3 5379.59 5519.91 63.67 o
-2 10 3 15589.80 13535.60 101.87 o
-10 8 3 15586.50 13484.60 114.60 o
-1 10 3 11302.70 11199.00 89.13 o
-10 9 3 11297.30 11167.20 101.87 o
0 10 3 13845.40 13465.50 108.23 o
-10 10 3 13844.60 13783.90 127.33 o
-10 11 3 1166.91 1712.64 44.57 o
1 10 3 1166.55 1719.00 38.20 o
-9 11 3 890.91 744.90 31.83 o
2 9 3 888.04 808.57 25.47 o
-8 11 3 1518.02 1547.10 38.20 o
3 8 3 1513.52 1578.94 38.20 o
-7 11 3 13820.40 15846.70 108.23 o
4 7 3 13819.30 15859.40 120.97 o
-6 11 3 955.20 878.60 25.47 o
5 6 3 958.47 834.03 25.47 o
-5 11 3 772.66 865.87 25.47 o
-11 6 3 775.95 814.93 31.83 o
-4 11 3 14222.30 15853.00 114.60 o
-11 7 3 14222.00 15451.90 133.70 o
-3 11 3 1492.34 1540.74 38.20 o
-11 8 3 1488.08 1508.90 44.57 o
-2 11 3 862.95 834.03 25.47 o
-11 9 3 859.48 827.67 31.83 o
-1 11 3 1212.74 1642.60 38.20 o
-11 10 3 1212.71 1655.34 44.57 o
0 11 3 323.97 222.83 25.47 o
-11 11 3 323.70 248.30 31.83 o
-11 12 3 24.71 -31.83 31.83 <
1 11 3 24.31 12.73 25.47 <
-10 12 3 357.84 388.37 31.83 o
2 10 3 356.16 439.30 25.47 o
-9 12 3 1751.33 2056.44 50.93 o
3 9 3 1750.61 2024.60 38.20 o
-8 12 3 1523.52 1362.47 44.57 o
4 8 3 1523.25 1356.10 31.83 o
-7 12 3 2266.58 2069.17 44.57 o
5 7 3 2267.46 2069.17 44.57 o
-6 12 3 2411.63 3501.67 57.30 o
6 6 3 2411.08 3495.31 50.93 o
-5 12 3 2108.01 2043.70 44.57 o
-12 7 3 2110.61 2081.90 50.93 o
-4 12 3 1348.66 1337.00 31.83 o
-12 8 3 1349.05 1343.37 44.57 o
-3 12 3 1764.56 2088.27 44.57 o
-12 9 3 1764.06 1999.14 57.30 o
-2 12 3 360.70 432.93 25.47 o
-12 10 3 358.73 394.73 38.20 o
-1 12 3 27.04 6.37 25.47 <
-12 11 3 26.76 -12.73 31.83 <
0 12 3 1.71 146.43 25.47 o
-12 12 3 1.70 140.07 31.83 o
-12 13 3 4892.55 5207.94 76.40 o
1 12 3 4891.46 5188.84 70.03 o
-11 13 3 3274.73 3979.17 70.03 o
2 11 3 3274.92 4030.11 63.67 o
-10 13 3 815.38 1088.70 44.57 o
3 10 3 815.97 1005.94 31.83 o
-9 13 3 265.24 292.87 31.83 o
4 9 3 266.64 280.13 31.83 o
-8 13 3 834.87 859.50 31.83 o
5 8 3 835.02 802.20 31.83 o
-7 13 3 985.70 1101.44 38.20 o
6 7 3 985.72 1095.07 38.20 o
-6 13 3 907.47 1107.80 38.20 o
-13 7 3 906.97 1107.80 44.57 o
-5 13 3 785.45 923.17 31.83 o
-13 8 3 785.74 993.20 44.57 o
-4 13 3 252.06 324.70 25.47 o
-13 9 3 253.14 286.50 38.20 o
-3 13 3 938.12 1050.50 38.20 o
-13 10 3 939.26 1101.44 44.57 o
-2 13 3 3370.99 4297.51 70.03 o
-13 11 3 3371.66 4100.14 76.40 o
-1 13 3 4925.97 5010.58 76.40 o
-13 12 3 4926.52 5169.74 82.77 o
0 13 3 226.38 197.37 31.83 o
-13 13 3 226.58 222.83 38.20 o
-13 14 3 619.35 764.00 44.57 o
1 13 3 619.56 643.03 44.57 o
-12 14 3 636.42 674.87 44.57 o
2 12 3 636.31 662.13 38.20 o
-11 14 3 735.08 630.30 44.57 o
3 11 3 736.87 604.83 38.20 o
-10 14 3 4128.79 3775.44 76.40 o
4 10 3 4129.30 3826.37 70.03 o
-9 14 3 752.22 770.37 44.57 o
5 9 3 752.69 814.93 38.20 o
-8 14 3 116.47 44.57 31.83 <
6 8 3 116.15 12.73 31.83 <
-7 14 3 5373.52 5277.98 70.03 o
7 7 3 5374.12 5163.38 95.50 o
-6 14 3 151.16 95.50 31.83 o
-14 8 3 150.43 76.40 38.20 <
-5 14 3 870.55 770.37 38.20 o
-14 9 3 870.75 846.77 44.57 o
-4 14 3 4216.92 3686.31 63.67 o
-14 10 3 4217.31 3915.51 76.40 o
-3 14 3 623.39 604.83 38.20 o
-14 11 3 625.23 592.10 44.57 o
-2 14 3 618.81 706.70 38.20 o
-14 12 3 619.08 598.47 44.57 o
-1 14 3 650.95 636.67 38.20 o
-14 13 3 651.08 681.23 44.57 o
0 14 3 238.91 286.50 38.20 o
-14 14 3 238.96 324.70 44.57 o
-14 15 3 540.05 547.53 50.93 o
1 14 3 539.44 515.70 44.57 o
-13 15 3 297.21 426.57 44.57 o
2 13 3 296.30 356.53 38.20 o
-12 15 3 566.36 541.17 44.57 o
3 12 3 566.69 522.07 38.20 o
-11 15 3 429.95 369.27 44.57 o
4 11 3 431.57 375.63 38.20 o
-10 15 3 2387.27 2088.27 70.03 o
5 10 3 2389.84 2190.14 57.30 o
-9 15 3 1353.44 1457.97 50.93 o
6 9 3 1353.97 1457.97 50.93 o
-8 15 3 1763.68 1661.70 50.93 o
7 8 3 1761.57 1591.67 63.67 o
-7 15 3 1633.25 1534.37 50.93 o
-15 8 3 1631.00 1661.70 63.67 o
-6 15 3 1385.70 1387.94 44.57 o
-15 9 3 1386.18 1432.50 57.30 o
-5 15 3 2132.92 2126.47 63.67 o
-15 10 3 2134.60 2177.40 70.03 o
-4 15 3 482.00 382.00 38.20 o
-15 11 3 483.63 343.80 44.57 o
-3 15 3 552.75 534.80 38.20 o
-15 12 3 553.04 604.83 50.93 o
-2 15 3 298.62 280.13 38.20 o
-15 13 3 297.82 356.53 50.93 o
-1 15 3 516.45 592.10 44.57 o
-15 14 3 515.73 515.70 50.93 o
0 15 3 0.75 76.40 44.57 <
-15 15 3 0.75 50.93 50.93 <
-14 16 3 121.15 108.23 50.93 o
2 14 3 121.08 70.03 38.20 <
-13 16 3 49.63 89.13 44.57 <
3 13 3 49.23 76.40 38.20 <
-12 16 3 271.88 191.00 50.93 o
4 12 3 272.92 178.27 38.20 o
-11 16 3 671.40 770.37 50.93 o
5 11 3 671.23 789.47 44.57 o
-10 16 3 1191.69 1088.70 57.30 o
6 10 3 1192.11 1107.80 50.93 o
-9 16 3 1164.18 1107.80 44.57 o
7 9 3 1163.06 1012.30 57.30 o
-8 16 3 90.57 19.10 31.83 <
8 8 3 90.50 -38.20 44.57 <
-7 16 3 1125.37 1069.60 44.57 o
-16 9 3 1123.93 1139.64 57.30 o
-6 16 3 1171.56 1031.40 44.57 o
-16 10 3 1171.81 1165.10 57.30 o
-5 16 3 668.72 776.73 44.57 o
-16 11 3 668.49 732.17 57.30 o
-4 16 3 198.99 210.10 38.20 o
-16 12 3 199.84 127.33 44.57 o
-3 16 3 79.17 63.67 38.20 <
-16 13 3 78.66 -19.10 44.57 <
-2 16 3 129.39 25.47 44.57 <
-16 14 3 129.29 6.37 50.93 <
-13 17 3 1373.79 1578.94 70.03 o
4 13 3 1373.52 1648.97 63.67 o
-12 17 3 122.78 89.13 50.93 <
5 12 3 123.44 50.93 44.57 <
-11 17 3 115.82 76.40 44.57 <
6 11 3 116.44 95.50 44.57 o
-10 17 3 1822.71 1833.60 57.30 o
7 10 3 1822.40 2005.50 76.40 o
-9 17 3 301.78 286.50 38.20 o
8 9 3 300.69 159.17 50.93 o
-8 17 3 389.41 184.63 38.20 o
-17 9 3 388.21 184.63 50.93 o
-7 17 3 1834.87 1769.94 57.30 o
-17 10 3 1834.56 1789.04 70.03 o
-6 17 3 74.56 82.77 38.20 o
-17 11 3 75.04 38.20 50.93 <
-5 17 3 158.15 63.67 38.20 <
-17 12 3 158.86 89.13 50.93 <
-4 17 3 1432.72 1559.84 63.67 o
-17 13 3 1432.48 1598.04 70.03 o
0 0 4 814099.00 623361.00 7659.11 o
0 1 4 28.60 -6.37 12.73 <
-1 1 4 28.63 6.37 12.73 <
-1 2 4 187956.00 219007.00 1273.34 o
1 1 4 187999.00 218141.00 1349.74 o
0 2 4 281.73 216.47 12.73 o
-2 2 4 281.77 210.10 12.73 o
-2 3 4 17.88 114.60 12.73 o
1 2 4 17.76 108.23 12.73 o
-1 3 4 184.53 101.87 12.73 o
-3 2 4 185.26 120.97 12.73 o
0 3 4 16722.50 10021.20 70.03 o
-3 3 4 16717.60 10205.80 70.03 o
-3 4 4 308.20 114.60 12.73 o
1 3 4 308.83 70.03 12.73 o
-2 4 4 4586.56 6379.41 44.57 o
2 2 4 4587.20 6385.78 44.57 o
-1 4 4 196.33 95.50 12.73 o
-4 3 4 195.46 95.50 12.73 o
0 4 4 718.63 643.03 19.10 o
-4 4 4 719.18 700.34 19.10 o
-4 5 4 88618.50 99581.20 655.77 o
1 4 4 88675.40 99492.10 662.13 o
-3 5 4 2567.28 2234.70 25.47 o
2 3 4 2564.70 2234.70 31.83 o
-2 5 4 2982.05 2228.34 25.47 o
-5 3 4 2978.42 2266.54 25.47 o
-1 5 4 86331.00 99804.00 662.13 o
-5 4 4 86404.10 99759.50 617.57 o
0 5 4 146.53 184.63 19.10 o
-5 5 4 147.14 222.83 19.10 o
-5 6 4 9696.99 11230.80 89.13 o
1 5 4 9693.38 11402.70 89.13 o
-4 6 4 8722.09 9938.38 76.40 o
2 4 4 8722.23 9804.68 89.13 o
-3 6 4 45022.00 40396.60 254.67 o
3 3 4 44961.40 40638.50 254.67 o
-2 6 4 8713.25 9868.35 70.03 o
-6 4 4 8717.64 9804.68 89.13 o
-1 6 4 9868.75 11148.10 89.13 o
-6 5 4 9866.37 11186.30 89.13 o
0 6 4 305610.00 301398.00 1859.07 o
-6 6 4 305581.00 301959.00 1986.40 o
-6 7 4 7474.29 7277.11 70.03 o
1 6 4 7478.33 7366.25 76.40 o
-5 7 4 112467.00 113391.00 751.27 o
2 5 4 112435.00 112958.00 808.57 o
-4 7 4 3701.42 4291.14 50.93 o
3 4 4 3699.47 4284.77 44.57 o
-3 7 4 3716.95 4189.27 44.57 o
-7 4 4 3714.34 4189.27 44.57 o
-2 7 4 113883.00 113231.00 700.33 o
-7 5 4 113842.00 114326.00 814.93 o
-1 7 4 7462.66 7187.98 63.67 o
-7 6 4 7463.78 7200.71 70.03 o
0 7 4 563.74 471.13 25.47 o
-7 7 4 563.32 420.20 25.47 o
-7 8 4 72618.40 79093.20 534.80 o
1 7 4 72648.00 79360.60 534.80 o
-6 8 4 10767.20 9117.08 89.13 o
2 6 4 10760.20 8945.18 89.13 o
-5 8 4 7358.12 7054.28 70.03 o
3 5 4 7364.65 7111.58 63.67 o
-4 8 4 15757.90 20513.40 152.80 o
4 4 4 15780.60 20806.30 152.80 o
-3 8 4 6757.45 7009.71 63.67 o
-8 5 4 6763.81 7028.81 70.03 o
-2 8 4 10549.80 9034.32 70.03 o
-8 6 4 10543.20 9034.32 89.13 o
-1 8 4 70763.10 79519.80 534.80 o
-8 7 4 70830.90 79889.10 579.37 o
0 8 4 300.38 394.73 25.47 o
-8 8 4 300.15 420.20 25.47 o
-8 9 4 761.48 1298.80 38.20 o
1 8 4 759.79 1305.17 31.83 o
-7 9 4 192.32 203.73 25.47 o
2 7 4 193.39 191.00 25.47 o
-6 9 4 14914.20 13866.60 120.97 o
3 6 4 14950.70 14178.60 108.23 o
-5 9 4 264.47 210.10 25.47 o
4 5 4 265.23 248.30 19.10 o
-4 9 4 216.88 222.83 19.10 o
-9 5 4 217.69 203.73 19.10 o
-3 9 4 14530.10 14446.00 108.23 o
-9 6 4 14518.10 14204.10 120.97 o
-2 9 4 211.91 191.00 19.10 o
-9 7 4 213.24 197.37 25.47 o
-1 9 4 646.32 1337.00 31.83 o
-9 8 4 644.34 1292.44 38.20 o
0 9 4 3360.13 2342.94 38.20 o
-9 9 4 3377.32 2425.70 50.93 o
-9 10 4 710.12 496.60 31.83 o
1 9 4 708.01 471.13 25.47 o
-8 10 4 7295.81 8015.65 82.77 o
2 8 4 7318.09 7888.31 76.40 o
-7 10 4 874.65 814.93 31.83 o
3 7 4 876.90 814.93 25.47 o
-6 10 4 248.05 159.17 25.47 o
4 6 4 247.40 178.27 19.10 o
-5 10 4 14451.70 13605.60 101.87 o
5 5 4 14431.90 13592.90 108.23 o
-4 10 4 254.49 184.63 19.10 o
-10 6 4 254.04 171.90 25.47 o
-3 10 4 759.31 821.30 25.47 o
-10 7 4 761.23 840.40 31.83 o
-2 10 4 7571.36 7888.31 70.03 o
-10 8 4 7597.71 7741.88 82.77 o
-1 10 4 522.87 483.87 25.47 o
-10 9 4 521.07 573.00 31.83 o
0 10 4 348.94 292.87 25.47 o
-10 10 4 348.85 210.10 31.83 o
-10 11 4 13260.10 14083.10 159.17 o
1 10 4 13253.40 14261.40 114.60 o
-9 11 4 131.04 101.87 25.47 o
2 9 4 130.60 101.87 25.47 o
-8 11 4 6337.34 7054.28 82.77 o
3 8 4 6330.55 7149.78 76.40 o
-7 11 4 32082.60 33915.30 267.40 o
4 7 4 32087.30 33673.40 241.93 o
-6 11 4 2881.58 3164.24 44.57 o
5 6 4 2885.01 3068.74 50.93 o
-5 11 4 3215.97 3151.51 44.57 o
-11 6 4 3220.20 3036.91 57.30 o
-4 11 4 31868.00 34080.80 248.30 o
-11 7 4 31854.00 34469.20 267.40 o
-3 11 4 6487.12 7092.48 76.40 o
-11 8 4 6480.42 7213.45 82.77 o
-2 11 4 121.09 101.87 25.47 o
-11 9 4 120.85 120.97 25.47 o
-1 11 4 13373.10 13911.20 108.23 o
-11 10 4 13377.30 13917.60 140.07 o
0 11 4 694.01 706.70 31.83 o
-11 11 4 693.79 713.07 44.57 o
-11 12 4 1583.27 1814.50 63.67 o
1 11 4 1579.71 1731.74 44.57 o
-10 12 4 234.11 248.30 38.20 o
2 10 4 235.35 159.17 25.47 o
-9 12 4 30441.00 28930.20 261.03 o
3 9 4 30441.10 29465.00 216.47 o
-8 12 4 4448.58 4488.51 76.40 o
4 8 4 4454.87 4437.57 57.30 o
-7 12 4 4065.07 3858.21 57.30 o
5 7 4 4058.94 3896.41 57.30 o
-6 12 4 58252.70 56122.30 362.90 o
6 6 4 58224.60 56981.80 394.73 o
-5 12 4 3800.60 3870.94 57.30 o
-12 7 4 3795.12 3947.34 63.67 o
-4 12 4 4226.68 4507.61 63.67 o
-12 8 4 4233.33 4501.24 70.03 o
-3 12 4 30572.50 29095.70 216.47 o
-12 9 4 30558.10 29299.50 261.03 o
-2 12 4 290.25 203.73 25.47 o
-12 10 4 291.59 184.63 38.20 o
-1 12 4 1618.78 1750.84 44.57 o
-12 11 4 1615.15 1808.14 57.30 o
0 12 4 27817.00 25396.70 197.37 o
-12 12 4 27810.60 25008.30 261.03 o
-12 13 4 2647.72 2527.57 76.40 o
1 12 4 2651.13 2495.74 57.30 o
-11 13 4 24654.60 26440.80 273.77 o
2 11 4 24658.80 26644.50 203.73 o
-10 13 4 1040.53 1177.84 50.93 o
3 10 4 1038.16 1088.70 38.20 o
-9 13 4 781.68 674.87 44.57 o
4 9 4 779.68 693.97 31.83 o
-8 13 4 34227.70 34953.10 305.60 o
5 8 4 34214.20 35163.20 254.67 o
-7 13 4 1476.72 1540.74 50.93 o
6 7 4 1478.72 1438.87 38.20 o
-6 13 4 1676.10 1394.30 44.57 o
-13 7 4 1677.80 1419.77 50.93 o
-5 13 4 34208.70 34456.50 273.77 o
-13 8 4 34205.50 34940.30 305.60 o
-4 13 4 794.08 630.30 31.83 o
-13 9 4 792.00 706.70 44.57 o
-3 13 4 992.52 1037.77 38.20 o
-13 10 4 990.28 986.84 44.57 o
-2 13 4 24890.80 26020.60 210.10 o
-13 11 4 24881.10 26491.70 241.93 o
-1 13 4 2472.90 2330.20 57.30 o
-13 12 4 2476.44 2495.74 76.40 o
0 13 4 667.69 598.47 38.20 o
-13 13 4 667.61 598.47 50.93 o
-13 14 4 8831.99 8887.88 133.70 o
1 13 4 8828.86 8747.81 108.23 o
-12 14 4 1831.50 1897.27 70.03 o
2 12 4 1826.67 1903.64 57.30 o
-11 14 4 3641.61 3699.04 82.77 o
3 11 4 3647.97 3609.91 76.40 o
-10 14 4 11629.30 13179.00 146.43 o
4 10 4 11630.00 13159.90 140.07 o
-9 14 4 399.14 445.67 38.20 o
5 9 4 401.14 496.60 38.20 o
-8 14 4 997.18 1095.07 44.57 o
6 8 4 994.39 1152.37 44.57 o
-7 14 4 12173.20 11568.30 127.33 o
7 7 4 12182.40 11886.60 133.70 o
-6 14 4 1051.42 1018.67 38.20 o
-14 8 4 1048.23 1228.77 50.93 o
-5 14 4 422.15 477.50 38.20 o
-14 9 4 424.15 464.77 44.57 o
-4 14 4 11766.30 12688.80 133.70 o
-14 10 4 11773.60 12924.40 146.43 o
-3 14 4 3574.20 3533.51 70.03 o
-14 11 4 3580.49 3648.11 76.40 o
-2 14 4 1840.35 1808.14 57.30 o
-14 12 4 1835.53 1782.67 63.67 o
-1 14 4 8847.45 8792.38 114.60 o
-14 13 4 8847.18 8747.81 133.70 o
0 14 4 516.36 509.33 44.57 o
-14 14 4 516.28 515.70 50.93 o
-14 15 4 13.11 38.20 50.93 <
1 14 4 12.85 12.73 38.20 <
-13 15 4 68.55 76.40 50.93 <
2 13 4 69.36 -19.10 38.20 <
-12 15 4 4797.97 4953.28 101.87 o
3 12 4 4804.23 4940.54 82.77 o
-11 15 4 88.47 76.40 44.57 <
4 11 4 87.55 82.77 38.20 o
-10 15 4 735.54 681.23 44.57 o
5 10 4 738.34 865.87 44.57 o
-9 15 4 2090.28 2050.07 63.67 o
6 9 4 2093.54 2030.97 57.30 o
-8 15 4 109.52 261.03 38.20 o
7 8 4 108.78 216.47 44.57 o
-7 15 4 139.74 133.70 31.83 o
-15 8 4 138.85 197.37 44.57 o
-6 15 4 2159.56 2113.74 63.67 o
-15 9 4 2184.22 2221.97 70.03 o
-5 15 4 696.73 725.80 44.57 o
-15 10 4 699.48 744.90 50.93 o
-4 15 4 111.65 31.83 38.20 <
-15 11 4 110.78 57.30 38.20 <
-3 15 4 4715.30 4673.14 82.77 o
-15 12 4 4712.78 4959.64 95.50 o
-2 15 4 59.19 70.03 38.20 <
-15 13 4 60.02 70.03 50.93 <
-1 15 4 35.81 6.37 44.57 <
-15 14 4 35.46 38.20 50.93 <
-13 16 4 113.59 146.43 50.93 o
3 13 4 114.49 146.43 44.57 o
-12 16 4 93.03 140.07 50.93 o
4 12 4 93.99 178.27 44.57 o
-11 16 4 1766.09 1655.34 63.67 o
5 11 4 1768.18 1636.24 57.30 o
-10 16 4 9.34 -19.10 38.20 <
6 10 4 9.46 19.10 38.20 <
-9 16 4 29.82 25.47 44.57 <
7 9 4 29.42 38.20 44.57 <
-8 16 4 1214.67 1216.04 57.30 o
8 8 4 1221.83 1018.67 57.30 o
-7 16 4 56.15 44.57 38.20 <
-16 9 4 55.70 44.57 44.57 <
-6 16 4 1.47 -25.47 38.20 <
-16 10 4 1.58 25.47 44.57 <
-5 16 4 1747.15 1578.94 57.30 o
-16 11 4 1751.29 1808.14 70.03 o
-4 16 4 90.13 146.43 38.20 o
-16 12 4 91.10 133.70 50.93 o
-3 16 4 123.44 133.70 38.20 o
-16 13 4 124.40 140.07 57.30 o
-10 17 4 3647.66 3597.17 95.50 o
7 10 4 3639.89 3533.51 101.87 o
-9 17 4 176.12 248.30 50.93 o
8 9 4 174.89 210.10 50.93 o
-8 17 4 177.14 241.93 44.57 o
-17 9 4 175.91 184.63 50.93 o
-7 17 4 3639.05 3469.84 89.13 o
-17 10 4 3637.72 3425.27 101.87 o
0 0 5 13.71 38.20 25.47 <
0 1 5 8.72 6.37 12.73 <
-1 1 5 9.10 12.73 12.73 <
-1 2 5 10490.30 18412.40 140.07 o
1 1 5 10490.30 18425.20 140.07 o
0 2 5 3665.34 5207.94 50.93 o
-2 2 5 3669.88 5246.14 50.93 o
-2 3 5 1052.23 1012.30 25.47 o
1 2 5 1052.39 1075.97 25.47 o
-1 3 5 757.15 1037.77 25.47 o
-3 2 5 760.15 1005.94 25.47 o
0 3 5 55.92 25.47 12.73 <
-3 3 5 55.96 31.83 12.73 o
-3 4 5 6597.27 6061.08 57.30 o
1 3 5 6604.75 6131.11 57.30 o
-2 4 5 110160.00 102758.00 732.17 o
2 2 5 110152.00 102567.00 732.17 o
-1 4 5 7078.67 6150.21 57.30 o
-4 3 5 7084.52 6124.74 57.30 o
0 4 5 6759.19 5838.24 57.30 o
-4 4 5 6761.81 5889.18 63.67 o
-4 5 5 10556.80 11638.30 101.87 o
1 4 5 10554.90 11772.00 101.87 o
-3 5 5 123.33 171.90 19.10 o
2 3 5 125.78 146.43 19.10 o
-2 5 5 72.32 127.33 19.10 o
-5 3 5 74.23 152.80 12.73 o
-1 5 5 10971.20 11689.20 89.13 o
-5 4 5 10971.30 11574.60 101.87 o
0 5 5 2068.34 3221.54 44.57 o
-5 5 5 2071.40 3259.74 50.93 o
-5 6 5 199.03 375.63 25.47 o
1 5 5 201.36 369.27 19.10 o
-4 6 5 372.79 146.43 19.10 o
2 4 5 370.11 191.00 19.10 o
-3 6 5 3148.69 5233.41 63.67 o
3 3 5 3152.15 5182.48 50.93 o
-2 6 5 302.57 184.63 19.10 o
-6 4 5 299.36 146.43 19.10 o
-1 6 5 213.86 394.73 25.47 o
-6 5 5 216.40 337.43 25.47 o
0 6 5 5.45 159.17 25.47 o
-6 6 5 5.33 178.27 25.47 o
-6 7 5 1687.03 1808.14 44.57 o
1 6 5 1688.89 1731.74 38.20 o
-5 7 5 9452.54 9817.42 101.87 o
2 5 5 9454.23 9830.15 89.13 o
-4 7 5 2205.89 2642.17 44.57 o
3 4 5 2206.05 2648.54 38.20 o
-3 7 5 2014.50 2616.70 38.20 o
-7 4 5 2013.01 2718.57 44.57 o
-2 7 5 9332.26 9887.45 82.77 o
-7 5 5 9335.59 9932.02 101.87 o
-1 7 5 1823.20 1738.10 38.20 o
-7 6 5 1822.15 1808.14 44.57 o
0 7 5 21.87 95.50 19.10 o
-7 7 5 22.24 70.03 25.47 o
-7 8 5 210.23 350.17 25.47 o
1 7 5 210.20 299.23 25.47 o
-6 8 5 4774.43 4221.11 63.67 o
2 6 5 4779.71 4157.44 57.30 o
-5 8 5 1939.31 2005.50 44.57 o
3 5 5 1936.90 1992.77 38.20 o
-4 8 5 38633.60 44095.60 362.90 o
4 4 5 38631.40 44445.80 305.60 o
-3 8 5 2067.17 1941.84 38.20 o
-8 5 5 2062.39 1986.40 44.57 o
-2 8 5 4537.79 4182.91 44.57 o
-8 6 5 4539.86 4259.31 63.67 o
-1 8 5 194.50 343.80 25.47 o
-8 7 5 194.29 388.37 31.83 o
0 8 5 2100.68 1827.24 44.57 o
-8 8 5 2102.43 1782.67 50.93 o
-8 9 5 2816.91 3457.11 63.67 o
1 8 5 2819.79 3438.01 57.30 o
-7 9 5 969.41 764.00 31.83 o
2 7 5 974.51 751.27 31.83 o
-6 9 5 1734.41 1241.50 38.20 o
3 6 5 1732.71 1292.44 38.20 o
-5 9 5 3468.50 3336.14 57.30 o
4 5 5 3465.27 3291.57 44.57 o
-4 9 5 3158.49 3361.61 50.93 o
-9 5 5 3152.71 3272.47 50.93 o
-3 9 5 1827.73 1375.20 31.83 o
-9 6 5 1825.91 1337.00 44.57 o
-2 9 5 867.22 795.84 25.47 o
-9 7 5 870.94 757.64 31.83 o
-1 9 5 3035.52 3476.21 57.30 o
-9 8 5 3041.08 3520.77 63.67 o
0 9 5 0.44 63.67 25.47 o
-9 9 5 0.43 38.20 31.83 <
-9 10 5 8109.80 8104.78 95.50 o
1 9 5 8113.00 8009.28 89.13 o
-8 10 5 8606.08 7837.38 95.50 o
2 8 5 8607.30 8009.28 89.13 o
-7 10 5 4172.82 5061.51 76.40 o
3 7 5 4176.83 5042.41 70.03 o
-6 10 5 2537.69 2807.70 57.30 o
4 6 5 2536.74 2826.80 44.57 o
-5 10 5 97.77 31.83 25.47 <
5 5 5 97.86 95.50 25.47 o
-4 10 5 2836.92 2877.74 50.93 o
-10 6 5 2833.09 2820.44 57.30 o
-3 10 5 4480.56 5157.01 57.30 o
-10 7 5 4481.75 5061.51 76.40 o
-2 10 5 8694.88 8085.68 76.40 o
-10 8 5 8694.94 7881.95 95.50 o
-1 10 5 7951.73 8283.05 89.13 o
-10 9 5 7957.88 8117.51 101.87 o
0 10 5 5724.55 5112.44 70.03 o
-10 10 5 5726.13 5207.94 82.77 o
-10 11 5 627.15 840.40 44.57 o
1 10 5 627.43 821.30 38.20 o
-9 11 5 307.87 286.50 31.83 o
2 9 5 310.55 248.30 31.83 o
-8 11 5 703.93 808.57 38.20 o
3 8 5 708.29 725.80 38.20 o
-7 11 5 7341.13 7175.25 89.13 o
4 7 5 7341.87 7296.21 76.40 o
-6 11 5 889.65 655.77 38.20 o
5 6 5 886.86 674.87 31.83 o
-5 11 5 717.94 655.77 31.83 o
-11 6 5 715.02 751.27 31.83 o
-4 11 5 7495.69 7258.01 70.03 o
-11 7 5 7496.64 7296.21 95.50 o
-3 11 5 607.26 732.17 31.83 o
-11 8 5 611.14 814.93 38.20 o
-2 11 5 401.72 254.67 31.83 o
-11 9 5 404.76 216.47 31.83 o
-1 11 5 643.85 910.43 38.20 o
-11 10 5 644.31 808.57 38.20 o
0 11 5 477.05 356.53 38.20 o
-11 11 5 477.48 305.60 44.57 o
-11 12 5 123.01 6.37 38.20 <
1 11 5 123.30 114.60 31.83 o
-10 12 5 333.83 369.27 44.57 o
2 10 5 335.74 394.73 38.20 o
-9 12 5 963.24 1050.50 50.93 o
3 9 5 963.77 1095.07 44.57 o
-8 12 5 1405.17 1407.04 44.57 o
4 8 5 1404.83 1266.97 44.57 o
-7 12 5 644.40 471.13 31.83 o
5 7 5 643.95 458.40 31.83 o
-6 12 5 1333.55 1738.10 50.93 o
6 6 5 1334.49 1808.14 50.93 o
-5 12 5 635.96 458.40 31.83 o
-12 7 5 634.16 471.13 38.20 o
-4 12 5 1346.18 1228.77 38.20 o
-12 8 5 1344.91 1216.04 44.57 o
-3 12 5 973.81 1037.77 38.20 o
-12 9 5 974.44 993.20 44.57 o
-2 12 5 324.55 445.67 38.20 o
-12 10 5 326.40 420.20 44.57 o
-1 12 5 134.90 120.97 31.83 o
-12 11 5 135.05 12.73 38.20 <
0 12 5 3.17 70.03 38.20 <
-12 12 5 3.17 120.97 44.57 o
-12 13 5 2064.45 2221.97 82.77 o
1 12 5 2065.49 2234.70 63.67 o
-11 13 5 1827.95 2126.47 76.40 o
2 11 5 1827.26 2120.10 63.67 o
-10 13 5 875.58 935.90 50.93 o
3 10 5 874.94 1025.04 44.57 o
-9 13 5 291.75 369.27 44.57 o
4 9 5 290.08 273.77 38.20 o
-8 13 5 413.12 178.27 38.20 o
5 8 5 412.79 273.77 31.83 o
-7 13 5 204.85 305.60 38.20 o
6 7 5 204.81 305.60 31.83 o
-6 13 5 195.46 299.23 38.20 o
-13 7 5 196.04 267.40 38.20 o
-5 13 5 406.43 222.83 31.83 o
-13 8 5 406.19 210.10 44.57 o
-4 13 5 311.94 311.97 31.83 o
-13 9 5 310.31 311.97 44.57 o
-3 13 5 922.03 955.00 44.57 o
-13 10 5 920.82 961.37 50.93 o
-2 13 5 1857.77 1948.20 57.30 o
-13 11 5 1857.24 2081.90 70.03 o
-1 13 5 2071.90 2171.04 57.30 o
-13 12 5 2071.51 2241.07 76.40 o
0 13 5 334.65 375.63 44.57 o
-13 13 5 334.43 432.93 50.93 o
-13 14 5 364.43 464.77 50.93 o
1 13 5 364.18 432.93 44.57 o
-12 14 5 661.58 923.17 57.30 o
2 12 5 661.94 814.93 50.93 o
-11 14 5 280.79 286.50 44.57 o
3 11 5 278.98 235.57 44.57 o
-10 14 5 2360.86 2304.74 82.77 o
4 10 5 2360.28 2311.10 63.67 o
-9 14 5 188.13 159.17 44.57 o
5 9 5 187.40 159.17 38.20 o
-8 14 5 236.13 229.20 38.20 o
6 8 5 236.56 191.00 38.20 o
-7 14 5 3076.06 3189.71 76.40 o
7 7 5 3075.59 3113.31 76.40 o
-6 14 5 234.09 146.43 38.20 o
-14 8 5 234.97 120.97 44.57 o
-5 14 5 218.62 89.13 38.20 o
-14 9 5 218.09 146.43 44.57 o
-4 14 5 2404.74 2177.40 57.30 o
-14 10 5 2404.15 2292.00 76.40 o
-3 14 5 270.31 216.47 38.20 o
-14 11 5 268.42 203.73 44.57 o
-2 14 5 642.97 693.97 50.93 o
-14 12 5 642.87 757.64 57.30 o
-1 14 5 381.61 394.73 50.93 o
-14 13 5 381.32 452.03 50.93 o
-12 15 5 326.25 286.50 50.93 o
3 12 5 326.00 280.13 50.93 o
-11 15 5 286.12 299.23 50.93 o
4 11 5 284.42 267.40 50.93 o
-10 15 5 1729.58 1572.57 63.67 o
5 10 5 1726.69 1508.90 63.67 o
-9 15 5 786.84 967.73 57.30 o
6 9 5 786.36 1082.34 57.30 o
-8 15 5 736.82 681.23 50.93 o
7 8 5 739.21 719.43 50.93 o
-7 15 5 720.55 674.87 50.93 o
-15 8 5 723.28 636.67 57.30 o
-6 15 5 801.93 1101.44 57.30 o
-15 9 5 801.42 1082.34 63.67 o
-5 15 5 1637.98 1578.94 57.30 o
-15 10 5 1636.04 1668.07 70.03 o
-4 15 5 268.18 261.03 44.57 o
-15 11 5 266.40 254.67 50.93 o
-3 15 5 321.70 331.07 50.93 o
-15 12 5 321.43 311.97 50.93 o
-9 16 5 979.34 1031.40 57.30 o
7 9 5 980.57 1056.87 63.67 o
-8 16 5 61.83 44.57 44.57 <
8 8 5 61.93 63.67 57.30 <
-7 16 5 900.96 1005.94 63.67 o
-16 9 5 902.71 1044.14 70.03 o
0 0 6 20218.60 14694.30 210.10 o
0 1 6 2.94 0.00 12.73 <
-1 1 6 2.90 -12.73 12.73 <
-1 2 6 27972.40 26479.00 197.37 o
1 1 6 27933.20 26020.60 197.37 o
0 2 6 64.05 63.67 19.10 o
-2 2 6 63.92 63.67 19.10 o
-2 3 6 35.49 38.20 19.10 <
1 2 6 35.50 76.40 19.10 o
-1 3 6 44.32 57.30 19.10 o
-3 2 6 44.50 50.93 19.10 o
0 3 6 115949.00 120922.00 865.87 o
-3 3 6 115953.00 122196.00 865.87 o
-3 4 6 150.43 38.20 19.10 <
1 3 6 150.28 38.20 19.10 <
-2 4 6 143437.00 148146.00 1056.87 o
2 2 6 143438.00 148515.00 1056.87 o
-1 4 6 161.70 31.83 19.10 <
-4 3 6 161.09 44.57 19.10 o
0 4 6 232.34 273.77 19.10 o
-4 4 6 232.24 286.50 25.47 o
-4 5 6 38471.50 39887.20 331.07 o
1 4 6 38436.10 39944.50 299.23 o
-3 5 6 1171.21 897.70 31.83 o
2 3 6 1171.80 916.80 25.47 o
-2 5 6 1158.93 814.93 25.47 o
-5 3 6 1159.33 878.60 25.47 o
-1 5 6 39000.60 40167.40 299.23 o
-5 4 6 38967.30 39995.50 299.23 o
0 5 6 51.76 38.20 19.10 <
-5 5 6 51.84 38.20 19.10 <
-5 6 6 4455.77 5290.71 70.03 o
1 5 6 4458.31 5271.61 57.30 o
-4 6 6 3746.37 4131.97 50.93 o
2 4 6 3742.55 4125.61 50.93 o
-3 6 6 53447.40 52518.70 426.57 o
3 3 6 53471.30 52270.40 356.53 o
-2 6 6 3718.26 4151.07 50.93 o
-6 4 6 3716.17 4017.37 50.93 o
-1 6 6 4441.27 5246.14 57.30 o
-6 5 6 4444.57 5246.14 70.03 o
0 6 6 1373.88 1833.60 44.57 o
-6 6 6 1376.57 1833.60 44.57 o
-6 7 6 3344.72 3227.91 57.30 o
1 6 6 3341.81 3202.44 50.93 o
-5 7 6 13976.80 16572.50 152.80 o
2 5 6 13996.70 16375.10 127.33 o
-4 7 6 1814.89 1986.40 50.93 o
3 4 6 1817.15 2101.00 38.20 o
-3 7 6 1818.07 1986.40 38.20 o
-7 4 6 1820.02 2069.17 44.57 o
-2 7 6 14089.80 16502.40 133.70 o
-7 5 6 14115.70 16553.40 152.80 o
-1 7 6 3204.58 3202.44 57.30 o
-7 6 6 3200.63 3285.21 57.30 o
0 7 6 143.93 95.50 25.47 o
-7 7 6 143.91 76.40 25.47 o
-7 8 6 14721.60 14637.00 146.43 o
1 7 6 14701.50 14726.10 140.07 o
-6 8 6 4749.11 3909.14 63.67 o
2 6 6 4752.98 3864.57 63.67 o
-5 8 6 3679.34 3571.71 63.67 o
3 5 6 3676.70 3660.84 57.30 o
-4 8 6 57324.80 56345.10 458.40 o
4 4 6 57316.70 55886.70 458.40 o
-3 8 6 3368.24 3622.64 63.67 o
-8 5 6 3365.55 3679.94 63.67 o
-2 8 6 4885.44 3877.31 63.67 o
-8 6 6 4889.30 3985.54 63.67 o
-1 8 6 15123.20 14560.60 127.33 o
-8 7 6 15087.50 14554.20 146.43 o
0 8 6 52.37 89.13 31.83 o
-8 8 6 52.39 70.03 31.83 o
-8 9 6 326.65 598.47 38.20 o
1 8 6 327.93 668.50 38.20 o
-7 9 6 124.52 114.60 31.83 o
2 7 6 123.86 101.87 31.83 o
-6 9 6 42509.60 40326.50 337.43 o
3 6 6 42492.00 40186.50 337.43 o
-5 9 6 184.34 229.20 31.83 o
4 5 6 183.80 197.37 31.83 o
-4 9 6 167.21 241.93 31.83 o
-9 5 6 166.76 222.83 31.83 o
-3 9 6 42857.20 40396.60 311.97 o
-9 6 6 42859.20 40371.10 337.43 o
-2 9 6 103.30 89.13 25.47 o
-9 7 6 102.75 70.03 31.83 o
-1 9 6 292.12 674.87 38.20 o
-9 8 6 293.30 623.93 38.20 o
0 9 6 47199.70 47559.10 394.73 o
-9 9 6 47191.10 47629.10 401.10 o
-9 10 6 416.27 286.50 38.20 o
1 9 6 417.61 343.80 38.20 o
-8 10 6 37494.90 38766.70 331.07 o
2 8 6 37483.00 39256.90 331.07 o
-7 10 6 461.36 477.50 38.20 o
3 7 6 459.75 509.33 38.20 o
-6 10 6 55.87 38.20 31.83 <
4 6 6 56.43 25.47 38.20 <
-5 10 6 34456.30 37124.10 318.33 o
5 5 6 34471.20 36952.20 318.33 o
-4 10 6 64.67 108.23 25.47 o
-10 6 6 65.33 70.03 31.83 o
-3 10 6 438.97 407.47 38.20 o
-10 7 6 437.57 426.57 38.20 o
-2 10 6 37273.80 38683.90 331.07 o
-10 8 6 37261.00 38722.10 331.07 o
-1 10 6 288.26 343.80 38.20 o
-10 9 6 289.52 254.67 38.20 o
0 10 6 37.66 70.03 38.20 <
-10 10 6 37.57 82.77 38.20 o
-10 11 6 16853.60 17482.90 171.90 o
1 10 6 16852.50 17387.40 178.27 o
-9 11 6 171.33 184.63 38.20 o
2 9 6 171.64 210.10 38.20 o
-8 11 6 3210.37 3616.27 70.03 o
3 8 6 3214.68 3584.44 70.03 o
-7 11 6 12788.10 13561.00 140.07 o
4 7 6 12781.90 13713.80 165.53 o
-6 11 6 1265.15 1305.17 44.57 o
5 6 6 1262.57 1330.64 57.30 o
-5 11 6 1336.76 1241.50 44.57 o
-11 6 6 1334.19 1222.40 44.57 o
-4 11 6 12790.40 13516.50 146.43 o
-11 7 6 12794.00 13058.10 140.07 o
-3 11 6 3217.06 3629.01 82.77 o
-11 8 6 3221.50 3578.07 70.03 o
-2 11 6 174.18 191.00 38.20 o
-11 9 6 174.32 178.27 38.20 o
-1 11 6 16715.40 17406.50 171.90 o
-11 10 6 16711.40 17648.40 178.27 o
0 11 6 148.05 178.27 38.20 o
-11 11 6 148.03 127.33 44.57 o
-11 12 6 684.25 751.27 50.93 o
1 11 6 686.51 725.80 44.57 o
-10 12 6 230.13 311.97 44.57 o
2 10 6 229.36 261.03 38.20 o
-9 12 6 6252.87 6220.24 95.50 o
3 9 6 6253.09 6232.98 95.50 o
-8 12 6 2209.88 2292.00 63.67 o
4 8 6 2206.01 2438.44 70.03 o
-7 12 6 1789.95 1725.37 57.30 o
5 7 6 1793.17 1699.90 63.67 o
-6 12 6 2213.12 2190.14 57.30 o
6 6 6 2228.85 2101.00 76.40 o
-5 12 6 1716.52 1699.90 50.93 o
-12 7 6 1719.65 1776.30 57.30 o
-4 12 6 2136.38 2336.57 76.40 o
-12 8 6 2132.63 2260.17 70.03 o
-3 12 6 6172.94 6245.71 108.23 o
-12 9 6 6179.48 5991.04 95.50 o
-2 12 6 256.24 197.37 38.20 o
-12 10 6 255.43 241.93 44.57 o
-1 12 6 690.66 744.90 44.57 o
-12 11 6 692.91 751.27 50.93 o
0 12 6 2603.83 2807.70 76.40 o
-12 12 6 2606.42 3017.81 89.13 o
-12 13 6 1023.59 1044.14 57.30 o
1 12 6 1021.22 1044.14 50.93 o
-11 13 6 3023.17 2966.87 89.13 o
2 11 6 3023.67 2814.07 76.40 o
-10 13 6 729.93 681.23 50.93 o
3 10 6 731.65 687.60 44.57 o
-9 13 6 595.93 585.73 50.93 o
4 9 6 597.26 452.03 44.57 o
-8 13 6 3264.73 3068.74 82.77 o
5 8 6 3274.49 3240.64 95.50 o
-7 13 6 470.48 464.77 38.20 o
6 7 6 469.15 483.87 50.93 o
-6 13 6 517.77 496.60 38.20 o
-13 7 6 516.46 502.97 50.93 o
-5 13 6 3250.26 3202.44 89.13 o
-13 8 6 3253.74 3068.74 76.40 o
-4 13 6 604.41 477.50 50.93 o
-13 9 6 605.78 528.43 50.93 o
-3 13 6 705.60 668.50 50.93 o
-13 10 6 707.38 738.53 57.30 o
-2 13 6 3000.51 2731.30 76.40 o
-13 11 6 3008.12 2807.70 89.13 o
-1 13 6 956.10 974.10 50.93 o
-13 12 6 953.70 1139.64 63.67 o
-11 14 6 1995.94 2132.84 82.77 o
3 11 6 1992.14 2145.57 70.03 o
-10 14 6 6339.85 5946.48 108.23 o
4 10 6 6338.64 6061.08 101.87 o
-9 14 6 337.30 432.93 50.93 o
5 9 6 336.29 458.40 57.30 o
-8 14 6 377.12 464.77 50.93 o
6 8 6 378.77 458.40 57.30 o
-7 14 6 7672.62 8429.48 127.33 o
7 7 6 7666.81 8563.18 159.17 o
-6 14 6 403.24 420.20 50.93 o
-14 8 6 404.96 496.60 50.93 o
-5 14 6 356.88 375.63 57.30 o
-14 9 6 355.80 394.73 50.93 o
-4 14 6 6314.57 6061.08 127.33 o
-14 10 6 6310.28 5959.21 114.60 o
-3 14 6 1986.51 2228.34 89.13 o
-14 11 6 1982.85 2043.70 76.40 o
0 0 7 14.56 -19.10 31.83 <
0 1 7 416.19 458.40 25.47 o
-1 1 7 416.59 490.23 25.47 o
-1 2 7 4023.42 3883.67 50.93 o
1 1 7 4021.82 4004.64 50.93 o
0 2 7 200.59 222.83 19.10 o
-2 2 7 199.21 222.83 19.10 o
-2 3 7 1580.27 1585.30 38.20 o
1 2 7 1580.87 1578.94 38.20 o
-1 3 7 1519.14 1617.14 38.20 o
-3 2 7 1517.23 1598.04 38.20 o
0 3 7 29.45 -12.73 19.10 <
-3 3 7 29.46 0.00 19.10 <
-3 4 7 1090.37 1095.07 38.20 o
1 3 7 1090.71 1095.07 31.83 o
-2 4 7 42938.50 43917.30 331.07 o
2 2 7 42932.50 44273.90 331.07 o
-1 4 7 1112.81 1101.44 31.83 o
-4 3 7 1110.61 1088.70 31.83 o
0 4 7 4962.62 4704.97 57.30 o
-4 4 7 4959.51 4679.51 63.67 o
-4 5 7 4401.11 3998.27 63.67 o
1 4 7 4399.22 3902.77 50.93 o
-3 5 7 422.54 458.40 31.83 o
2 3 7 420.92 439.30 25.47 o
-2 5 7 448.33 439.30 25.47 o
-5 3 7 446.53 445.67 25.47 o
-1 5 7 4553.38 3998.27 50.93 o
-5 4 7 4551.71 3915.51 63.67 o
0 5 7 72.55 50.93 19.10 o
-5 5 7 71.72 50.93 25.47 <
-5 6 7 159.29 280.13 25.47 o
1 5 7 157.77 305.60 25.47 o
-4 6 7 84.42 140.07 25.47 o
2 4 7 85.77 146.43 19.10 o
-3 6 7 1153.55 1457.97 44.57 o
3 3 7 1153.70 1508.90 38.20 o
-2 6 7 109.84 140.07 25.47 o
-6 4 7 111.05 133.70 25.47 o
-1 6 7 179.30 350.17 25.47 o
-6 5 7 177.98 343.80 31.83 o
0 6 7 13.52 82.77 25.47 o
-6 6 7 13.51 101.87 25.47 o
-6 7 7 1676.80 1769.94 50.93 o
1 6 7 1674.82 1820.87 44.57 o
-5 7 7 3859.64 3291.57 63.67 o
2 5 7 3861.30 3215.17 57.30 o
-4 7 7 177.87 191.00 25.47 o
3 4 7 177.88 191.00 25.47 o
-3 7 7 168.27 210.10 31.83 o
-7 4 7 170.16 229.20 31.83 o
-2 7 7 3893.96 3234.27 57.30 o
-7 5 7 3895.84 3285.21 57.30 o
-1 7 7 1906.64 1776.30 50.93 o
-7 6 7 1906.95 1731.74 50.93 o
0 7 7 366.28 235.57 31.83 o
-7 7 7 366.07 261.03 31.83 o
-7 8 7 68.70 133.70 31.83 o
1 7 7 68.91 191.00 31.83 o
-6 8 7 959.47 827.67 38.20 o
2 6 7 955.55 904.07 38.20 o
-5 8 7 1901.64 1948.20 57.30 o
3 5 7 1903.40 1871.80 63.67 o
-4 8 7 15455.70 16929.00 159.17 o
4 4 7 15458.40 16623.40 159.17 o
-3 8 7 2020.52 1935.47 50.93 o
-8 5 7 2023.16 1929.10 50.93 o
-2 8 7 757.23 840.40 44.57 o
-8 6 7 755.61 827.67 38.20 o
-1 8 7 76.35 184.63 31.83 o
-8 7 7 76.53 216.47 31.83 o
0 8 7 232.18 146.43 31.83 o
-8 8 7 231.47 178.27 31.83 o
-8 9 7 2263.13 2285.64 63.67 o
1 8 7 2261.15 2260.17 63.67 o
-7 9 7 922.86 916.80 38.20 o
2 7 7 918.99 891.34 44.57 o
-6 9 7 762.97 935.90 44.57 o
3 6 7 763.12 955.00 50.93 o
-5 9 7 552.15 598.47 38.20 o
4 5 7 554.44 522.07 44.57 o
-4 9 7 565.99 560.27 38.20 o
-9 5 7 569.81 502.97 38.20 o
-3 9 7 782.62 814.93 44.57 o
-9 6 7 782.77 910.43 44.57 o
-2 9 7 1027.11 872.23 44.57 o
-9 7 7 1024.42 846.77 38.20 o
-1 9 7 2231.63 2368.40 70.03 o
-9 8 7 2227.77 2196.50 63.67 o
0 9 7 4.23 -38.20 31.83 <
-9 9 7 4.23 6.37 31.83 <
-9 10 7 2230.14 2279.27 70.03 o
1 9 7 2227.90 2234.70 63.67 o
-8 10 7 3647.48 3584.44 76.40 o
2 8 7 3646.25 3635.37 70.03 o
-7 10 7 908.16 923.17 44.57 o
3 7 7 905.57 955.00 50.93 o
-6 10 7 2080.49 2139.20 63.67 o
4 6 7 2081.12 2196.50 76.40 o
-5 10 7 20.47 82.77 31.83 o
5 5 7 20.41 38.20 38.20 <
-4 10 7 2093.91 2043.70 63.67 o
-10 6 7 2096.76 1992.77 57.30 o
-3 10 7 943.62 929.53 44.57 o
-10 7 7 942.61 929.53 44.57 o
-2 10 7 3676.02 3597.17 82.77 o
-10 8 7 3674.60 3571.71 76.40 o
-1 10 7 2289.00 2209.24 70.03 o
-10 9 7 2284.36 2260.17 70.03 o
0 10 7 3678.72 3896.41 76.40 o
-10 10 7 3677.57 3807.27 76.40 o
-10 11 7 255.02 248.30 44.57 o
1 10 7 254.69 273.77 38.20 o
-9 11 7 320.80 286.50 38.20 o
2 9 7 318.71 248.30 38.20 o
-8 11 7 432.03 452.03 44.57 o
3 8 7 428.94 464.77 50.93 o
-7 11 7 3174.28 3119.67 70.03 o
4 7 7 3173.11 3240.64 89.13 o
-6 11 7 150.46 210.10 38.20 o
5 6 7 152.79 108.23 44.57 o
-5 11 7 158.77 146.43 38.20 o
-11 6 7 161.26 191.00 44.57 o
-4 11 7 3186.04 3043.27 76.40 o
-11 7 7 3184.91 3151.51 70.03 o
-3 11 7 443.68 452.03 50.93 o
-11 8 7 440.85 477.50 44.57 o
-2 11 7 254.45 241.93 44.57 o
-11 9 7 252.06 235.57 38.20 o
-1 11 7 272.11 343.80 50.93 o
-11 10 7 271.81 267.40 44.57 o
0 11 7 21.33 25.47 38.20 <
-11 11 7 21.11 25.47 38.20 <
-10 12 7 83.08 25.47 44.57 <
2 10 7 81.62 6.37 38.20 <
-9 12 7 418.14 477.50 44.57 o
3 9 7 417.85 413.83 50.93 o
-8 12 7 175.83 171.90 38.20 o
4 8 7 175.64 191.00 50.93 o
-7 12 7 782.97 853.14 44.57 o
5 7 7 783.57 795.84 57.30 o
-6 12 7 577.32 713.07 44.57 o
6 6 7 577.03 649.40 57.30 o
-5 12 7 708.45 783.10 50.93 o
-12 7 7 710.18 802.20 57.30 o
-4 12 7 193.74 203.73 44.57 o
-12 8 7 194.30 197.37 38.20 o
-3 12 7 428.34 439.30 50.93 o
-12 9 7 428.06 452.03 44.57 o
-2 12 7 102.36 76.40 50.93 <
-12 10 7 100.77 114.60 44.57 o
0 0 8 148497.00 153214.00 1897.27 o
0 1 8 0.07 19.10 25.47 <
-1 1 8 0.07 -6.37 25.47 <
-1 2 8 41707.30 41224.20 311.97 o
1 1 8 41723.50 41542.60 311.97 o
0 2 8 4.33 -6.37 25.47 <
-2 2 8 4.36 -31.83 25.47 <
-2 3 8 18.97 38.20 25.47 <
1 2 8 18.87 25.47 25.47 <
-1 3 8 30.49 76.40 25.47 o
-3 2 8 30.46 50.93 25.47 <
0 3 8 7411.69 8232.11 82.77 o
-3 3 8 7408.18 8244.85 95.50 o
-3 4 8 38.85 89.13 25.47 o
1 3 8 39.01 127.33 25.47 o
-2 4 8 3946.36 4144.71 63.67 o
2 2 8 3965.43 4023.74 57.30 o
-1 4 8 101.39 89.13 25.47 o
-4 3 8 101.61 82.77 25.47 o
0 4 8 96.96 140.07 25.47 o
-4 4 8 97.07 165.53 31.83 o
-4 5 8 22730.50 21735.80 197.37 o
1 4 8 22741.10 21799.50 178.27 o
-3 5 8 408.04 401.10 31.83 o
2 3 8 407.46 439.30 31.83 o
-2 5 8 393.77 401.10 31.83 o
-5 3 8 393.12 407.47 31.83 o
-1 5 8 22544.90 21901.40 197.37 o
-5 4 8 22550.30 21557.60 197.37 o
0 5 8 66.51 31.83 25.47 <
-5 5 8 66.50 19.10 25.47 <
-5 6 8 1600.88 1687.17 44.57 o
1 5 8 1599.25 1508.90 50.93 o
-4 6 8 1238.10 1222.40 44.57 o
2 4 8 1239.24 1120.54 38.20 o
-3 6 8 13340.30 13064.40 133.70 o
3 3 8 13335.00 12981.70 120.97 o
-2 6 8 1280.76 1139.64 44.57 o
-6 4 8 1282.15 1235.14 38.20 o
-1 6 8 1651.91 1534.37 57.30 o
-6 5 8 1650.46 1578.94 44.57 o
0 6 8 64001.20 63144.70 515.70 o
-6 6 8 64001.40 62832.70 515.70 o
-6 7 8 1282.97 1438.87 44.57 o
1 6 8 1284.60 1394.30 44.57 o
-5 7 8 28050.80 28751.90 254.67 o
2 5 8 28043.40 29057.50 261.03 o
-4 7 8 570.78 522.07 31.83 o
3 4 8 570.00 528.43 38.20 o
-3 7 8 609.95 573.00 38.20 o
-7 4 8 608.97 553.90 38.20 o
-2 7 8 27710.50 28860.10 286.50 o
-7 5 8 27701.80 28605.50 254.67 o
-1 7 8 1260.28 1438.87 57.30 o
-7 6 8 1261.56 1387.94 50.93 o
0 7 8 113.84 159.17 38.20 o
-7 7 8 113.85 159.17 38.20 o
-7 8 8 18692.10 18648.00 184.63 o
1 7 8 18697.80 19093.70 184.63 o
-6 8 8 1680.08 1954.57 57.30 o
2 6 8 1677.93 1910.00 63.67 o
-5 8 8 1349.72 1381.57 44.57 o
3 5 8 1351.56 1438.87 57.30 o
-4 8 8 6212.03 5946.48 89.13 o
4 4 8 6202.38 6131.11 101.87 o
-3 8 8 1228.29 1317.90 57.30 o
-8 5 8 1230.10 1324.27 50.93 o
-2 8 8 1833.77 1922.74 70.03 o
-8 6 8 1831.52 1948.20 57.30 o
-1 8 8 18540.00 19080.90 184.63 o
-8 7 8 18552.00 18762.60 184.63 o
0 8 8 75.13 95.50 44.57 o
-8 8 8 75.11 63.67 38.20 <
-8 9 8 132.55 89.13 38.20 o
1 8 8 131.90 159.17 44.57 o
-7 9 8 30.12 38.20 38.20 <
2 7 8 30.42 12.73 44.57 <
-6 9 8 5703.91 5679.08 89.13 o
3 6 8 5710.96 5730.01 101.87 o
-5 9 8 28.15 25.47 31.83 <
4 5 8 28.43 70.03 44.57 <
-4 9 8 21.35 12.73 38.20 <
-9 5 8 21.53 44.57 44.57 <
-3 9 8 5611.58 5698.18 101.87 o
-9 6 8 5614.16 5704.54 89.13 o
-2 9 8 30.54 31.83 38.20 <
-9 7 8 30.85 50.93 38.20 <
-1 9 8 118.44 178.27 44.57 o
-9 8 8 117.83 159.17 38.20 o
0 9 8 2194.33 2342.94 76.40 o
-9 9 8 2197.40 2228.34 63.67 o
-8 10 8 3384.14 3495.31 82.77 o
2 8 8 3393.89 3488.94 89.13 o
-7 10 8 156.06 63.67 38.20 <
3 7 8 156.80 222.83 44.57 o
-6 10 8 43.96 63.67 38.20 <
4 6 8 43.68 70.03 44.57 <
-5 10 8 5481.56 5742.74 108.23 o
5 5 8 5477.45 5800.04 108.23 o
-4 10 8 46.20 70.03 38.20 <
-10 6 8 45.88 114.60 44.57 o
-3 10 8 125.16 108.23 38.20 o
-10 7 8 125.81 120.97 44.57 o
-2 10 8 3412.46 3603.54 89.13 o
-10 8 8 3421.70 3514.41 82.77 o
0 0 9 42.97 50.93 44.57 <
0 1 9 68.10 108.23 25.47 o
-1 1 9 67.45 50.93 25.47 <
-1 2 9 1396.38 1031.40 31.83 o
1 1 9 1396.89 1120.54 38.20 o
0 2 9 677.24 509.33 31.83 o
-2 2 9 677.92 528.43 31.83 o
-2 3 9 15.58 0.00 31.83 <
1 2 9 15.38 -31.83 25.47 <
-1 3 9 36.59 19.10 31.83 <
-3 2 9 38.04 -19.10 31.83 <
0 3 9 3.08 -19.10 25.47 <
-3 3 9 3.09 -6.37 31.83 <
-3 4 9 1390.13 1668.07 50.93 o
1 3 9 1390.02 1572.57 50.93 o
-2 4 9 13397.70 13115.40 133.70 o
2 2 9 13399.50 13230.00 133.70 o
-1 4 9 1345.27 1585.30 50.93 o
-4 3 9 1346.23 1477.07 50.93 o
0 4 9 501.77 515.70 31.83 o
-4 4 9 503.22 522.07 38.20 o
-4 5 9 1533.49 1916.37 57.30 o
1 4 9 1534.11 1852.70 57.30 o
-3 5 9 39.00 50.93 31.83 <
2 3 9 39.42 19.10 31.83 <
-2 5 9 47.52 12.73 31.83 <
-5 3 9 48.62 6.37 31.83 <
-1 5 9 1592.77 1967.30 57.30 o
-5 4 9 1593.40 1865.44 50.93 o
0 5 9 420.40 261.03 38.20 o
-5 5 9 420.87 254.67 31.83 o
-5 6 9 110.65 101.87 31.83 o
1 5 9 111.53 82.77 38.20 o
-4 6 9 152.79 191.00 31.83 o
2 4 9 152.25 159.17 38.20 o
-3 6 9 351.67 286.50 31.83 o
3 3 9 352.01 235.57 31.83 o
-2 6 9 115.29 191.00 38.20 o
-6 4 9 115.02 133.70 31.83 o
-1 6 9 79.78 95.50 38.20 o
-6 5 9 80.31 165.53 38.20 o
loop_
_twin_individual_id
_twin_individual_mass_fraction_refined
_twin_individual_twin_matrix_11
_twin_individual_twin_matrix_12
_twin_individual_twin_matrix_13
_twin_individual_twin_matrix_21
_twin_individual_twin_matrix_22
_twin_individual_twin_matrix_23
_twin_individual_twin_matrix_31
_twin_individual_twin_matrix_32
_twin_individual_twin_matrix_33
1 0.48 1 0 0 0 1 0 0 0 1
2 0.52 -1 0 0 0 -1 0 0 0 1
loop_
_restr_distance_atom_site_label_1
_restr_distance_atom_site_label_2
_restr_distance_target
_restr_distance_target_weight_param
N1 C6 1.5 0.001
N2 C7 1.5 0.001
loop_
_restr_angle_atom_site_label_1
_restr_angle_atom_site_label_2
_restr_angle_atom_site_label_3
_restr_angle_target
_restr_angle_target_weight_param
N1 C6 S1 109.47 0.01
N2 C7 S2 109.47 0.01
