#------------------------------------------------------------------------------
#$Date: 2019-10-29 01:33:13 +0200 (Tue, 29 Oct 2019) $
#$Revision: 220318 $
#$URL: file:///home/coder/svn-repositories/cod/cif/4/51/52/4515218.cif $
#------------------------------------------------------------------------------
#
# This file is available in the Crystallography Open Database (COD),
# http://www.crystallography.net/
#
# All data on this site have been placed in the public domain by the
# contributors.
#
data_4515218
loop_
_publ_author_name
'Sagawa, Takuya'
'Kobayashi, Hirokazu'
'Murata, Chinatsu'
'Shichibu, Yukatsu'
'Konishi, Katsuaki'
'Fukuoka, Atsushi'
_publ_section_title
;
 Catalytic Conversion of a Chitin-Derived Sugar Alcohol to an
 Amide-Containing Isosorbide Analog
;
_journal_issue                   17
_journal_name_full               'ACS Sustainable Chemistry &amp; Engineering'
_journal_page_first              14883
_journal_paper_doi               10.1021/acssuschemeng.9b02985
_journal_volume                  7
_journal_year                    2019
_chemical_absolute_configuration syn
_chemical_formula_sum            'C8 H13 N O4'
_chemical_formula_weight         187.19
_space_group_crystal_system      monoclinic
_space_group_IT_number           4
_space_group_name_Hall           'P 2yb'
_space_group_name_H-M_alt        'P 1 21 1'
_symmetry_space_group_name_Hall  'P 2yb'
_symmetry_space_group_name_H-M   'P 1 21 1'
_atom_sites_solution_hydrogens   difmap
_cell_angle_alpha                90
_cell_angle_beta                 109.041(5)
_cell_angle_gamma                90
_cell_formula_units_Z            2
_cell_length_a                   6.217(2)
_cell_length_b                   7.746(3)
_cell_length_c                   9.321(3)
_cell_measurement_reflns_used    124
_cell_measurement_temperature    90.0(2)
_cell_measurement_theta_max      27.0562
_cell_measurement_theta_min      4.3736
_cell_volume                     424.3(3)
_computing_cell_refinement       'APEX3 v2017.3-0 (Bruker AXS)'
_computing_data_reduction        'SAINT V8.38A (Bruker AXS Inc., 2017)'
_computing_molecular_graphics    'shelXle (C.B. Huebschle, rev 833)'
_computing_structure_refinement  'SHELXL-2016/6 (Sheldrick, 2016)'
_computing_structure_solution    'SHELXT 2014/5 (Sheldrick, 2014)'
_diffrn_ambient_temperature      90.0(2)
_diffrn_detector_area_resol_mean 8.3333
_diffrn_measured_fraction_theta_full 0.997
_diffrn_measured_fraction_theta_max 0.997
_diffrn_measurement_device_type  'Bruker D8 goniometer'
_diffrn_measurement_method       'omega scans'
_diffrn_radiation_monochromator  graphite
_diffrn_radiation_type           'Mo K\a'
_diffrn_radiation_wavelength     0.71073
_diffrn_reflns_av_R_equivalents  0.0157
_diffrn_reflns_av_unetI/netI     0.0329
_diffrn_reflns_limit_h_max       4
_diffrn_reflns_limit_h_min       -7
_diffrn_reflns_limit_k_max       9
_diffrn_reflns_limit_k_min       -9
_diffrn_reflns_limit_l_max       11
_diffrn_reflns_limit_l_min       -9
_diffrn_reflns_number            2349
_diffrn_reflns_theta_full        26.71
_diffrn_reflns_theta_max         26.71
_diffrn_reflns_theta_min         2.31
_diffrn_source                   'sealed tube'
_exptl_absorpt_coefficient_mu    0.118
_exptl_absorpt_correction_T_max  0.99
_exptl_absorpt_correction_T_min  0.89
_exptl_absorpt_correction_type   multi-scan
_exptl_absorpt_process_details
;
SADABS-2016/2 - Bruker AXS area detector scaling and absorption correction
;
_exptl_crystal_colour            colourless
_exptl_crystal_density_diffrn    1.465
_exptl_crystal_density_method    'not measured'
_exptl_crystal_description       prism
_exptl_crystal_F_000             200
_exptl_crystal_size_max          0.383
_exptl_crystal_size_mid          0.097
_exptl_crystal_size_min          0.066
_refine_diff_density_max         0.172
_refine_diff_density_min         -0.170
_refine_ls_abs_structure_details
;

Flack x determined using 616 quotients [(I+)-(I-)]/[(I+)+(I-)]
(Parsons, Flack and Wagner, Acta Cryst. B69 (2013) 249-259).
;
_refine_ls_abs_structure_Flack   0.3(8)
_refine_ls_extinction_method     none
_refine_ls_goodness_of_fit_ref   1.079
_refine_ls_hydrogen_treatment    refall
_refine_ls_matrix_type           full
_refine_ls_number_parameters     170
_refine_ls_number_reflns         1683
_refine_ls_number_restraints     1
_refine_ls_restrained_S_all      1.078
_refine_ls_R_factor_all          0.0357
_refine_ls_R_factor_gt           0.0313
_refine_ls_shift/su_max          0.000
_refine_ls_shift/su_mean         0.000
_refine_ls_structure_factor_coef Fsqd
_refine_ls_weighting_details
'w=1/[\s^2^(Fo^2^)+(0.0272P)^2^+0.0883P] where P=(Fo^2^+2Fc^2^)/3'
_refine_ls_weighting_scheme      calc
_refine_ls_wR_factor_gt          0.0664
_refine_ls_wR_factor_ref         0.0685
_reflns_number_gt                1552
_reflns_number_total             1683
_reflns_threshold_expression     'I > 2\s(I)'
_cod_data_source_file            sc9b02985_si_002.cif
_cod_data_source_block           exp832
_cod_depositor_comments
;
The following automatic conversions were performed:

'_exptl_absorpt_correction_type' value 'Multi-Scan' changed to
'multi-scan' according to
/home/data/users/saulius/crontab/automatic-downloads/current/ACS/lib/dictionaries/cif_core.dic
dictionary named 'cif_core.dic' version 2.4.2 from 2011-04-26.

Automatic conversion script
Id: cif_fix_values 4973 2017-02-22 13:04:09Z antanas 
;
_cod_database_code               4515218
_shelx_res_file
;

TITL exp832_0m_a.res in P2(1)
    exp832_0m_a.res
    created by SHELXL-2016/6 at 22:10:49 on 04-Jul-2018
CELL  0.71073   6.2168   7.7455   9.3212   90.000  109.041   90.000
ZERR    2.000   0.0023   0.0028   0.0033    0.000    0.005    0.000
LATT -1
SYMM -X, 1/2+Y, -Z
SFAC C  H  N  O
UNIT 16  26  2  8
L.S. 50
ACTA
BOND $H
FMAP 2
PLAN 20
SIZE 0.066 0.097 0.383
TEMP -183
WGHT    0.027200    0.088300
FVAR       1.75445
C1    1    0.775554    0.244323    0.252508    11.00000    0.01600    0.01702 =
         0.01750    0.00352    0.00717    0.00163
C2    1    0.967175    0.359202    0.345689    11.00000    0.01318    0.01680 =
         0.02630    0.00489    0.00646    0.00035
C3    1    0.652677    0.539486    0.227443    11.00000    0.01160    0.01720 =
         0.01508    0.00116    0.00424    0.00016
C4    1    0.567832    0.355662    0.240452    11.00000    0.01351    0.01611 =
         0.01717    0.00047    0.00577   -0.00098
C5    1    0.559229    0.645540    0.332666    11.00000    0.01384    0.01457 =
         0.01829    0.00049    0.00516   -0.00140
C6    1    0.567993    0.515611    0.455976    11.00000    0.02065    0.01598 =
         0.01751    0.00000    0.00865    0.00199
C7    1    0.271312    0.830607    0.155967    11.00000    0.01952    0.01476 =
         0.01515   -0.00328    0.00753    0.00186
C8    1    0.022783    0.870208    0.085386    11.00000    0.02127    0.02178 =
         0.02343    0.00454    0.00833    0.00441
N1    3    0.324062    0.696631    0.252303    11.00000    0.01294    0.01406 =
         0.02202    0.00131    0.00825   -0.00035
O1    4    0.784575    0.081854    0.323161    11.00000    0.01833    0.01463 =
         0.02317    0.00209    0.00703    0.00064
O2    4    0.898893    0.530589    0.287181    11.00000    0.01285    0.01727 =
         0.02840    0.00500    0.00771   -0.00038
O3    4    0.511613    0.351819    0.378247    11.00000    0.02051    0.01363 =
         0.02225   -0.00017    0.01359   -0.00078
O4    4    0.419401    0.917879    0.127024    11.00000    0.02185    0.02164 =
         0.02224    0.00315    0.00689   -0.00513
H1    2    0.671252    0.027030    0.257066    11.00000    0.03363
H2    2    0.788640    0.232332    0.146285    11.00000    0.00569
H3    2    1.117711    0.331781    0.331606    11.00000    0.01998
H4    2    0.977288    0.349043    0.456281    11.00000    0.01834
H5    2    0.435139    0.330654    0.151387    11.00000    0.01366
H6    2    0.602510    0.587022    0.124314    11.00000    0.01703
H7    2    0.649176    0.748624    0.366591    11.00000    0.01219
H8    2    0.726259    0.508329    0.530114    11.00000    0.01478
H9    2    0.457204    0.543864    0.508736    11.00000    0.01747
H10   2    0.209508    0.647343    0.275052    11.00000    0.02335
H11   2   -0.067776    0.765334    0.070590    11.00000    0.05697
H12   2   -0.032968    0.941647    0.154932    11.00000    0.05275
H13   2   -0.007946    0.922449   -0.009834    11.00000    0.02402
HKLF 4




REM  exp832_0m_a.res in P2(1)
REM R1 =  0.0313 for    1552 Fo > 4sig(Fo)  and  0.0357 for all    1683 data
REM    170 parameters refined using      1 restraints

END

WGHT      0.0274      0.0878

REM Highest difference peak  0.172,  deepest hole -0.170,  1-sigma level  0.038
Q1    1   0.6630  0.2998  0.2477  11.00000  0.05    0.17
Q2    1   0.5610  0.5701  0.3845  11.00000  0.05    0.17
Q3    1   0.6704  0.2732  0.5016  11.00000  0.05    0.17
Q4    1   0.6123  0.4462  0.2358  11.00000  0.05    0.16
Q5    1   0.5726  0.9183  0.1895  11.00000  0.05    0.15
Q6    1   0.0036  0.8335 -0.0720  11.00000  0.05    0.14
Q7    1   0.3198  0.5801  0.0442  11.00000  0.05    0.13
Q8    1   0.4271  0.3584  0.0622  11.00000  0.05    0.13
Q9    1   0.8653  0.5503  0.5777  11.00000  0.05    0.13
Q10   1   0.1334  0.8515  0.1454  11.00000  0.05    0.13
Q11   1   0.6148  0.5949  0.2725  11.00000  0.05    0.12
Q12   1   0.6742  0.6919  0.4170  11.00000  0.05    0.12
Q13   1   0.8652  0.2999  0.2964  11.00000  0.05    0.12
Q14   1   0.4296  0.9067 -0.0010  11.00000  0.05    0.11
Q15   1   0.2434  0.4438  0.5371  11.00000  0.05    0.11
Q16   1  -0.1431  0.7845  0.2582  11.00000  0.05    0.11
Q17   1   0.4362  0.6810  0.3022  11.00000  0.05    0.11
Q18   1   0.1568  0.6889  0.4413  11.00000  0.05    0.11
Q19   1   0.5131  0.5945  0.5981  11.00000  0.05    0.11
Q20   1   0.9367  0.1885  0.0749  11.00000  0.05    0.11
;
_shelx_res_checksum              38956
_shelx_hkl_file
;
  -1   0   0 2741.13   46.40
  -2   0   0 1290.77   24.90
  -3   0   0    3.00    2.70
  -4   0   0  228.78   10.10
  -5   0   0   61.89    7.50
  -5   0   0   65.79    5.20
  -6   0   0   69.89    8.50
  -7   0   0    4.40    5.10
   0   1   0    0.80    0.90
   1  -1   0 5517.65   92.49
  -1  -1   0 5380.86   92.39
  -1   1   0 5337.87   89.79
  -1   1   0 5324.87   88.59
  -2   1   0 1051.09   18.40
  -2   1   0 1021.10   20.90
  -3  -1   0 4333.07   74.99
  -3   1   0 4099.69   74.99
  -3   1   0 4289.07   71.49
  -4  -1   0    4.50    3.30
  -4   1   0    5.00    2.00
  -4   1   0    2.90    3.50
  -5  -1   0  417.86   15.40
  -5   1   0  430.36   15.80
  -6  -1   0  131.09   10.60
  -6  -1   0  122.89    7.40
  -6   1   0  100.99    9.70
  -7  -1   0   32.70    7.30
  -7   1   0   29.70    7.00
   0   2   0 1749.82   30.80
   1  -2   0    8.90    1.70
  -1   2   0    7.20    2.20
   2  -2   0 3961.50   68.89
  -2  -2   0 4060.89   69.39
  -2   2   0 3986.30   69.99
  -2   2   0 4065.19   66.09
  -3  -2   0   45.00    4.50
  -3   2   0   46.80    5.00
  -3   2   0   51.09    2.60
  -4  -2   0  793.22   20.40
  -4   2   0  786.22   20.70
  -5  -2   0   11.40    4.40
  -5   2   0   15.30    5.00
  -6  -2   0   58.89    7.90
  -6   2   0   62.49    8.50
  -7  -2   0  119.59   11.70
  -7  -2   0  112.49    8.90
  -7   2   0  111.79   11.40
   0  -3   0    1.90    1.40
   0   3   0    1.50    2.00
   1  -3   0  172.48    5.70
  -1   3   0  175.58    6.90
   1   3   0  181.88    6.40
   2  -3   0   13.20    2.60
  -2  -3   0   14.10    2.70
  -2   3   0   14.00    3.40
  -3  -3   0   34.60    4.20
  -3   3   0   31.90    4.50
  -4  -3   0  332.77   12.20
  -4   3   0  325.27   12.80
  -5  -3   0  626.04   19.20
  -5   3   0  608.04   19.60
  -6  -3   0   38.00    6.90
  -6   3   0   34.40    7.10
  -7  -3   0   55.39    6.60
  -7  -3   0   57.99    9.10
  -7   3   0   67.49   10.00
   0  -4   0 2008.90   35.60
   0   4   0 1954.50   36.80
   1  -4   0  271.07    7.90
   1   4   0  298.67    9.10
  -1   4   0  283.27    9.30
   2  -4   0 1115.99   22.80
  -2  -4   0 1125.89   23.50
  -2   4   0 1072.99   24.10
  -3  -4   0  120.39    6.90
   3  -4   0  140.59    7.40
  -3   4   0  118.69    7.80
  -4  -4   0  448.16   14.80
  -4   4   0  479.75   16.10
  -5  -4   0   95.69    8.50
  -5   4   0   87.19    8.80
  -6  -4   0    5.60    4.80
  -6   4   0   17.00    5.60
   0  -5   0    0.00    1.50
   0   5   0   -1.00    2.40
   1  -5   0   75.79    4.50
  -1   5   0   57.29    5.20
   1   5   0   63.09    5.20
  -2  -5   0  217.88    8.80
   2  -5   0  225.78    8.50
  -2   5   0  226.48    9.70
  -3  -5   0  334.57   11.80
   3  -5   0  348.97   11.70
  -3   5   0  351.36   13.00
  -4  -5   0  358.26   13.30
  -4   5   0  331.17   13.90
  -5  -5   0   -2.00    3.60
  -5   5   0    3.60    4.30
  -6  -5   0   15.30    5.80
  -6   5   0   17.90    6.30
   0  -6   0 1958.10   36.60
   0   6   0 1922.21   38.60
   1  -6   0   78.89    5.30
  -1   6   0   85.79    6.90
   1   6   0   78.49    6.40
  -2  -6   0  489.85   14.70
   2  -6   0  509.45   13.90
  -2   6   0  488.45   15.60
  -3  -6   0   89.79    7.00
   3  -6   0   88.79    7.10
  -3   6   0   93.99    8.30
  -4  -6   0    6.40    3.70
  -4   6   0    2.80    4.30
  -5  -6   0  222.08   12.30
  -5   6   0  212.48   12.60
   0  -7   0    0.70    2.00
   0   7   0   -4.60    3.10
   1  -7   0  408.16   12.20
  -1  -7   0  424.06   13.80
  -1   7   0  389.76   14.00
   1   7   0  412.56   13.90
  -2  -7   0   39.70    5.30
   2  -7   0   37.90    4.80
  -2   7   0   49.40    6.70
   3  -7   0  137.49    8.60
  -3  -7   0  135.09    8.80
  -3   7   0  141.59   10.30
  -4  -7   0   43.20    6.30
  -4   7   0   60.19    8.30
  -5  -7   0  224.08   12.70
  -5   7   0  226.98   13.30
   0   8   0   43.40    6.30
  -1   8   0   10.20    5.00
   1   8   0   14.70    5.00
  -2  -8   0  281.87   12.30
  -2   8   0  294.77   13.80
  -3  -8   0   35.90    5.80
  -3   8   0   32.80    6.80
  -4   8   0  369.86   16.50
   0   9   0   -1.30    4.00
   1   9   0  181.38   11.10
  -1   9   0  192.68   11.40
  -2  -9   0   65.79    7.40
  -2   9   0   69.29    8.60
  -7   0   1   55.89    8.50
  -6   0   1   80.69    8.80
  -6   0   1   63.69    5.80
  -5   0   1   42.50    4.40
  -5   0   1   53.89    6.80
  -4   0   1  142.89    7.70
  -4   0   1  143.59    6.00
  -3   0   1   28.90    3.90
  -3   0   1   29.10    2.90
  -2   0   1 1386.46   26.00
  -2   0   1 1428.46   25.20
  -1   0   1  478.15    9.10
  -1   0   1  466.95    9.10
   0   0   1  707.23   12.30
   0   0  -1  690.63   12.20
   0   0   1  709.93   12.10
  -1   0  -1 4525.15   76.09
  -2   0  -1  107.29    5.70
  -3   0  -1 1846.82   36.70
  -4   0  -1  519.55   16.10
  -5   0  -1  311.37   13.90
  -6   0  -1   33.90    6.90
  -7   0  -1   10.00    6.10
  -7  -1   1  143.79   11.70
  -7   1   1  144.49   11.80
  -6  -1   1  126.49   10.10
  -6  -1   1  124.59    7.70
  -6   1   1  149.29   10.90
  -5  -1   1  558.14   15.10
  -5  -1   1  568.64   17.60
  -5   1   1  584.94   14.10
  -5   1   1  584.84   18.10
  -4  -1   1  571.24   14.10
  -4  -1   1  545.75   15.80
  -4   1   1  574.34   13.00
  -4   1   1  577.44   16.10
  -3  -1   1  872.91   18.90
  -3   1   1  803.82   19.00
  -3   1   1  874.81   16.80
  -2  -1   1 1066.29   20.60
  -2   1   1 1087.49   19.40
  -2   1   1 1065.79   21.10
  -1  -1   1  483.25    9.30
  -1  -1   1  488.25    9.90
  -1   1   1  502.05   10.30
  -1   1   1  494.95    9.30
   0  -1   1 2012.70   33.40
   0  -1   1 1987.40   33.90
   0   1   1 2020.40   34.20
   0   1  -1 1965.80   33.50
   0   1   1 2022.70   33.90
  -1  -1  -1  481.35   10.40
   1  -1   1  461.75   10.00
  -1   1  -1  480.65   10.60
  -2  -1  -1 1379.26   27.10
  -2   1  -1 1394.76   27.20
  -3  -1  -1 1161.78   24.80
  -3   1  -1 1063.99   24.30
  -4  -1  -1  504.05   15.80
  -4   1  -1  512.65   16.20
  -5  -1  -1  185.58   11.10
  -5   1  -1  193.08   11.60
  -6  -1  -1   10.40    5.50
  -6   1  -1    7.60    5.40
  -7  -1  -1   31.60    7.90
  -7   1  -1   40.80    8.30
  -7  -2   1   -2.90    2.80
  -7  -2   1    6.10    5.20
  -7   2   1   -0.60    4.60
  -6  -2   1  172.28    9.10
  -6  -2   1  195.88   11.40
  -6   2   1  146.59   10.90
  -5  -2   1  394.56   12.50
  -5  -2   1  408.06   14.60
  -5   2   1  400.46   15.00
  -4  -2   1  723.53   18.30
  -4   2   1  685.73   14.60
  -4   2   1  710.53   18.80
  -3  -2   1   18.40    3.20
  -3   2   1   15.70    3.50
  -3   2   1   18.10    2.00
  -2  -2   1   68.69    3.80
  -2   2   1   66.99    2.90
  -2   2   1   72.99    5.20
   1  -2  -1 2063.79   35.80
   1   2  -1 2148.78   36.10
  -1   2   1 2152.68   35.60
  -1   2   1 2047.40   37.30
   0  -2   1 1175.88   20.40
   0  -2   1 1158.08   21.30
   0   2  -1 1172.68   21.10
   0   2   1 1177.28   21.80
   1  -2   1 1524.35   27.70
  -1  -2  -1 1533.35   28.30
  -1   2  -1 1523.75   28.20
  -2  -2  -1  137.39    6.20
   2  -2   1  122.19    5.80
  -2   2  -1  133.09    6.60
  -3  -2  -1  138.99    7.30
  -3   2  -1  144.49    7.90
  -4  -2  -1  352.06   12.90
  -4   2  -1  326.77   13.10
  -5  -2  -1  154.88   10.00
  -5   2  -1  158.68   10.60
  -6  -2  -1  105.09   10.50
  -6   2  -1  100.69   10.20
  -7  -2  -1  237.88   15.30
  -7   2  -1  252.87   15.40
  -7  -3   1    0.50    4.50
  -7  -3   1    2.80    3.60
  -7   3   1   10.60    5.60
  -6  -3   1   24.90    6.00
  -6  -3   1   20.00    4.30
  -6   3   1   35.20    6.80
  -5  -3   1   34.00    5.50
  -5   3   1   35.10    6.10
  -4  -3   1  185.48    8.70
  -4   3   1  199.58   10.00
  -3  -3   1  301.27    9.60
  -3   3   1  305.27    6.80
  -3   3   1  323.97   10.90
  -2  -3   1  979.10   19.80
   2  -3  -1  969.70   19.50
  -2   3   1 1011.10   21.40
  -2   3   1  971.40   17.50
   1  -3  -1  676.03   13.20
  -1   3   1  672.53   15.10
  -1   3   1  652.73   12.80
   1   3  -1  666.43   13.90
   0  -3   1  604.14   13.00
   0   3  -1  626.64   13.20
   0   3   1  610.54   13.80
   1  -3   1 1697.23   31.40
   1   3   1 1736.93   32.10
  -1   3  -1 1696.03   32.00
  -2  -3  -1  404.06   11.40
   2  -3   1  381.76   10.80
  -2   3  -1  407.96   11.70
  -3  -3  -1  258.97    9.90
  -3   3  -1  270.77   10.80
  -4  -3  -1  206.98   10.30
  -4   3  -1  220.88   10.90
  -5  -3  -1   27.90    5.70
  -5   3  -1   29.60    6.00
  -6  -3  -1  155.88   11.40
  -6   3  -1  142.69   12.40
  -6  -4   1   12.30    3.90
  -6  -4   1    7.80    4.60
  -6   4   1   12.90    5.20
  -5  -4   1   -0.80    3.60
  -5   4   1   -0.90    4.10
  -4  -4   1   19.90    4.10
  -4   4   1   16.70    4.70
  -3  -4   1   62.49    5.30
  -3   4   1   57.09    5.90
   2  -4  -1  105.99    5.00
  -2  -4   1  100.59    5.10
  -2   4   1  104.19    6.50
   1  -4  -1  835.12   16.70
   1   4  -1  858.01   17.90
  -1   4   1  845.52   19.10
   0  -4  -1  535.75   11.20
   0  -4   1  531.85   12.30
   0   4  -1  514.35   12.60
   0   4   1  517.35   13.30
   1  -4   1 1457.55   25.20
   1  -4   1 1469.45   28.40
   1   4   1 1489.65   29.30
  -1   4  -1 1483.35   29.10
   2  -4   1  452.65   12.30
  -2  -4  -1  439.96   12.80
  -2   4  -1  444.16   13.20
   3  -4   1  542.75   15.10
  -3  -4  -1  543.15   15.70
  -3   4  -1  541.85   16.20
  -4  -4  -1  188.08    9.80
  -4   4  -1  182.08   10.30
  -5  -4  -1  179.78   11.00
  -5   4  -1  161.68   11.30
  -6  -4  -1   67.59    8.50
  -6   4  -1   85.99   10.00
  -6  -5   1   12.30    4.00
  -6  -5   1   20.20    5.70
  -6   5   1   17.80    5.80
  -5  -5   1  109.79    9.20
  -5   5   1   90.99    8.90
  -4  -5   1  136.99    7.90
  -4   5   1  136.09    9.40
  -3  -5   1   73.39    5.90
  -3   5   1   91.69    8.00
   2  -5  -1  979.30   20.60
  -2  -5   1  988.60   21.60
  -2   5   1  956.60   23.00
   1  -5  -1  160.88    5.80
   1   5  -1  162.18    7.00
  -1   5   1  158.18    7.80
   0  -5  -1  965.10   19.10
   0  -5   1  984.30   20.50
   0   5   1  971.70   22.00
   0   5  -1  980.50   21.20
   1  -5   1  131.19    6.20
   1   5   1  142.19    7.40
  -1   5  -1  128.29    7.20
   2  -5   1  674.93   17.10
  -2  -5  -1  680.93   17.70
  -2   5  -1  686.23   18.00
   3  -5   1  208.58    9.60
  -3  -5  -1  227.88   10.30
  -3   5  -1  244.08   11.20
  -4  -5  -1  410.86   15.30
  -4   5  -1  453.05   16.20
  -5  -5  -1   82.19    9.10
  -5   5  -1   68.59    8.30
  -6  -5  -1   12.30    5.70
  -6   5  -1   17.50    6.50
  -6  -6   1   85.49    8.60
  -6   6   1   74.59    9.10
  -5  -6   1   17.30    5.70
  -5   6   1   17.60    5.40
  -4  -6   1   36.50    5.30
  -4   6   1   42.00    6.40
  -3  -6   1  606.84   17.00
   3  -6  -1  612.44   16.30
  -3   6   1  587.54   18.30
   2  -6  -1  183.08    7.70
  -2   6   1  184.08    9.80
   1  -6  -1  698.53   16.00
   1   6  -1  748.13   18.00
  -1   6   1  722.63   19.10
   0  -6   1  209.78    8.10
   0  -6  -1  222.28    7.30
   0   6  -1  222.78    9.30
   0   6   1  230.68   10.00
   1  -6   1  144.49    7.20
  -1   6  -1  150.18    8.40
   1   6   1  132.59    8.50
   2  -6   1  665.43   17.40
  -2  -6  -1  658.83   18.30
  -2   6  -1  651.93   18.40
  -3  -6  -1 1131.59   27.50
   3  -6   1 1129.49   26.40
  -3   6  -1 1117.69   27.70
  -4  -6  -1    6.40    4.00
  -4   6  -1    2.40    4.30
  -5  -6  -1   26.00    6.10
  -5   6  -1   21.90    5.90
  -5   7   1   30.20    6.70
  -4   7   1  227.38   12.60
  -3  -7   1  576.24   17.30
  -3   7   1  578.64   19.20
  -2   7   1  619.94   19.00
  -1  -7   1  297.97   10.20
  -1   7   1  253.37   11.60
   1   7  -1  266.77   10.80
   0  -7   1 1073.69   23.80
   0   7   1 1079.09   26.00
   0   7  -1 1089.29   25.20
   1  -7   1   67.39    5.90
  -1   7  -1   60.99    6.70
   1   7   1   70.89    7.20
   2  -7   1  223.78    9.90
  -2  -7  -1  205.28   10.40
  -2   7  -1  209.78   10.90
   3  -7   1   31.10    5.20
  -3  -7  -1   46.30    6.30
  -3   7  -1   36.30    6.10
  -4  -7  -1   20.50    5.10
  -4   7  -1   20.40    5.90
  -4   8   1   69.49    8.80
  -3   8   1   29.40    6.50
  -2   8   1   25.90    6.10
  -1   8   1   19.00    5.20
   1   8  -1   22.20    5.00
   0  -8   1   39.90    5.00
   0   8  -1   40.60    6.00
   0   8   1   45.20    6.40
   1  -8   1  330.47   12.00
  -1   8  -1  333.07   13.30
   1   8   1  313.07   13.50
   2  -8   1   84.39    7.30
  -2  -8  -1  102.79    8.10
  -2   8  -1  102.79    9.30
  -3  -8  -1   13.70    4.80
   3  -8   1   12.50    4.60
  -3   8  -1   33.00    6.50
  -4  -8  -1  186.78   11.70
  -4   8  -1  152.08   11.40
  -3  -9   1   20.40    6.10
  -3   9   1   20.50    6.40
  -2   9   1   29.00    7.00
  -1   9   1   29.60    6.30
   0   9  -1   34.90    6.10
   0   9   1   38.60    6.80
  -1   9  -1  105.29    9.40
   1   9   1  114.79    9.30
  -2  -9  -1   56.89    7.40
  -2   9  -1   74.59    8.90
  -7   0   2  186.58   12.30
  -6   0   2    5.30    3.10
  -6   0   2    1.50    4.10
  -5   0   2 1270.37   29.00
  -5   0   2 1231.58   26.10
  -4   0   2   55.99    4.50
  -4   0   2   46.70    5.00
  -3   0   2  635.44   14.70
  -3   0   2  620.54   13.80
  -2   0   2  759.32   15.00
  -2   0   2  761.42   15.20
  -1   0   2 4510.15   77.29
  -1   0   2 4716.03   76.89
   0   0   2 9999.00  161.38
   0   0   2 9580.64  161.98
   0   0  -2 9626.64  163.88
   1   0   2 1678.93   30.30
  -1   0  -2 1737.13   31.30
   1   0   2 1737.73   30.20
  -2   0  -2 1679.63   32.50
  -3   0  -2  552.44   15.70
  -4   0  -2  338.27   13.40
  -5   0  -2  400.76   16.00
  -6   0  -2   29.00    6.90
  -7  -1   2   38.30    5.50
  -7  -1   2   47.50    7.50
  -7   1   2   28.10    6.50
  -6  -1   2  162.38    8.50
  -6  -1   2  143.09   10.20
  -6   1   2  158.48   10.40
  -5  -1   2   82.59    7.20
  -5  -1   2   83.09    5.90
  -5   1   2   72.69    6.80
  -5   1   2   86.09    5.50
  -4  -1   2  540.45   13.80
  -4  -1   2  536.15   14.60
  -4   1   2  546.05   12.90
  -4   1   2  563.24   15.30
  -3  -1   2  859.11   18.20
  -3  -1   2  870.81   18.30
  -3   1   2  855.41   18.90
  -3   1   2  866.11   17.30
  -2  -1   2 3501.25   61.59
  -2  -1   2 3696.03   60.89
  -2   1   2 3535.85   61.89
  -2   1   2 3677.43   61.09
  -1  -1   2 2777.62   47.40
  -1   1   2 2768.02   47.30
  -1   1   2 2795.42   47.20
   0  -1   2 7492.25  125.49
   0  -1   2 7496.75  124.59
   0   1   2 7404.66  124.89
   0   1  -2 7485.45  123.09
   0   1   2 7329.07  121.79
   0   1   2 7209.18  123.69
  -1  -1  -2 1146.29   22.50
   1  -1   2 1158.58   21.90
   1  -1   2 1183.18   20.70
  -1   1  -2 1181.68   22.30
  -2  -1  -2 1991.40   38.50
   2  -1   2 2074.39   37.60
  -2   1  -2 2076.09   38.60
  -3  -1  -2  595.24   16.40
  -3   1  -2  594.24   16.30
  -4  -1  -2  318.47   13.00
  -4   1  -2  343.77   13.40
  -5  -1  -2   25.40    5.60
  -5   1  -2   14.40    5.30
  -6  -1  -2   -1.10    4.50
  -6   1  -2    3.80    5.20
  -7  -2   2   18.80    4.60
  -7  -2   2    5.80    4.70
  -7   2   2   22.80    6.30
  -6  -2   2   86.59    7.20
  -6  -2   2   79.59    8.00
  -6   2   2   87.99    9.00
  -5  -2   2  151.78    8.70
  -5  -2   2  135.69    7.70
  -5   2   2  143.79    9.20
  -4  -2   2  112.89    6.70
  -4  -2   2  115.19    6.30
  -4   2   2  125.59    5.10
  -4   2   2  120.29    7.40
  -3  -2   2  599.34   14.30
  -3  -2   2  593.74   13.90
  -3   2   2  590.44   12.60
  -3   2   2  599.64   15.10
  -2  -2   2  848.82   16.10
  -2  -2   2  842.72   17.40
  -2   2   2  821.22   17.90
  -2   2   2  838.22   16.10
  -1  -2   2  678.83   13.70
  -1   2   2  692.23   13.50
   1   2  -2  676.43   12.40
  -1   2   2  671.53   14.40
   0  -2   2  899.41   16.30
   0  -2   2  854.01   17.30
   0   2  -2  891.21   16.60
   0   2   2  916.81   17.20
   0   2   2  890.11   17.80
   1  -2   2 1155.68   22.40
   1  -2   2 1174.38   20.10
  -1  -2  -2 1146.49   22.90
  -1   2  -2 1142.99   22.50
   2  -2   2  149.49    6.60
  -2  -2  -2  141.19    6.70
  -2   2  -2  169.18    7.60
  -3  -2  -2  100.49    6.80
  -3   2  -2   91.29    7.00
  -4  -2  -2  455.25   15.70
  -4   2  -2  474.15   16.20
  -5  -2  -2   78.09    8.20
  -5   2  -2   72.69    8.50
  -6  -2  -2   14.10    6.00
  -6   2  -2   32.30    7.20
  -7  -3   2   11.10    4.00
  -7  -3   2   14.30    7.80
  -7   3   2    3.20    5.00
  -6  -3   2   18.70    5.10
  -6  -3   2   18.60    4.20
  -6   3   2   23.10    5.80
  -5  -3   2  531.35   15.60
  -5  -3   2  519.75   16.20
  -5   3   2  538.75   17.30
  -4  -3   2   17.90    3.70
  -4  -3   2   14.00    3.50
  -4   3   2   12.80    4.00
  -3  -3   2   25.90    3.50
  -3  -3   2   28.00    3.30
  -3   3   2   32.00    2.60
  -3   3   2   36.80    4.60
  -2  -3   2   37.30    3.00
  -2  -3   2   30.70    3.20
  -2   3   2   36.60    2.80
  -2   3   2   40.00    4.30
   1  -3  -2  964.10   17.10
  -1  -3   2  933.61   18.60
  -1   3   2  973.30   20.00
   1   3  -2  916.71   17.90
  -1   3   2  955.10   18.20
   0  -3   2 3730.63   65.19
   0  -3   2 3809.52   63.59
   0   3  -2 3776.22   64.49
   0   3   2 3829.42   65.99
   1  -3   2   40.40    3.70
   1  -3   2   46.80    2.10
  -1  -3  -2   51.39    4.30
  -1   3  -2   50.99    4.30
  -2  -3  -2  600.44   15.60
   2  -3   2  627.14   15.20
  -2   3  -2  593.34   15.40
   3  -3   2    7.30    3.10
  -3  -3  -2   15.40    3.80
  -3   3  -2   13.90    4.10
  -4  -3  -2 1674.43   36.90
  -4   3  -2 1619.34   36.60
  -5  -3  -2  265.77   13.50
  -5   3  -2  324.07   14.70
  -6  -3  -2   93.09   10.50
  -6   3  -2  102.29   10.80
  -7  -4   2   23.30    5.30
  -7   4   2   17.80    6.40
  -6  -4   2  144.29    9.20
  -6   4   2  137.09   11.00
  -5  -4   2   76.39    7.00
  -5  -4   2   55.29    6.00
  -5   4   2   38.90    6.50
  -4  -4   2  108.39    6.80
  -4  -4   2   96.39    6.50
  -4   4   2   83.19    7.40
  -3  -4   2  229.68    8.80
  -3  -4   2  255.67    8.40
  -3   4   2  248.48   10.20
  -2  -4   2  697.63   15.90
  -2  -4   2  680.03   15.10
  -2   4   2  683.13   17.30
  -2   4   2  688.03   14.00
   1  -4  -2 1275.57   22.90
  -1  -4   2 1271.97   24.50
   1   4  -2 1258.07   24.30
  -1   4   2 1281.87   26.50
   0  -4   2  141.49    4.80
   0  -4  -2  155.38    4.30
   0  -4   2  129.69    5.90
   0   4   2  160.28    7.30
   0   4  -2  153.98    6.10
   1  -4   2  542.55   13.70
   1  -4   2  540.65   10.90
   1   4   2  553.04   14.50
  -1   4  -2  566.44   14.00
  -2  -4  -2  213.78    8.90
   2  -4   2  205.48    8.50
  -2   4  -2  191.58    8.80
  -3  -4  -2  310.17   12.00
   3  -4   2  312.67   11.50
  -3   4  -2  299.67   11.90
  -4  -4  -2    4.80    3.80
  -4   4  -2    5.20    4.30
  -5  -4  -2  285.47   14.10
  -5   4  -2  297.37   14.40
  -6  -4  -2    6.20    5.30
  -6   4  -2   16.70    6.00
  -6  -5   2   10.40    3.90
  -6   5   2   10.00    5.40
  -5  -5   2  295.87   12.30
  -5   5   2  334.77   14.50
  -4  -5   2  612.44   16.50
  -4  -5   2  588.54   16.80
  -3  -5   2  307.77   10.60
  -3  -5   2  290.27    9.90
  -3   5   2  298.47   12.20
  -2  -5   2   99.09    5.80
   2  -5  -2   98.09    5.00
  -2  -5   2  104.09    5.40
  -2   5   2   91.69    7.00
   1  -5  -2  211.88    6.20
  -1  -5   2  211.08    7.20
  -1   5   2  222.68    9.10
   1   5  -2  209.28    7.60
   0  -5   2  216.18    6.50
   0  -5  -2  212.88    6.20
   0  -5   2  212.28    8.00
   0   5  -2  216.88    8.00
   0   5   2  227.28    9.10
   1  -5   2  109.89    6.30
   1   5   2   97.39    7.00
  -1   5  -2  109.39    6.70
  -2  -5  -2 1069.69   25.30
   2  -5   2 1066.79   24.50
  -2   5  -2 1093.69   25.00
  -3  -5  -2   78.99    7.40
   3  -5   2   77.89    7.00
  -3   5  -2   76.39    7.40
  -4  -5  -2    4.00    3.80
  -4   5  -2    1.50    4.20
  -5  -5  -2   21.80    5.70
  -5   5  -2    9.60    5.30
  -6  -6   2   71.29    7.70
  -6   6   2   53.59    8.00
  -5  -6   2  367.26   14.00
  -5   6   2  350.76   15.40
  -4  -6   2  395.56   13.70
  -4   6   2  377.96   15.20
  -3  -6   2   21.40    4.00
  -3  -6   2   26.40    4.10
  -3   6   2   34.60    6.00
  -2  -6   2  288.17   10.00
  -2   6   2  299.87   12.00
  -1  -6   2   -0.10    2.00
   1   6  -2    0.70    2.70
  -1   6   2   -2.20    3.30
   0  -6   2  249.88    9.40
   0   6  -2  267.07    9.90
   0   6   2  275.97   11.00
   1  -6   2   12.80    3.40
  -1   6  -2   13.50    3.80
   1   6   2    8.10    4.00
  -2  -6  -2   64.29    6.50
   2  -6   2   53.79    5.90
  -2   6  -2   61.79    6.60
  -3  -6  -2  191.18   10.30
   3  -6   2  193.68   10.30
  -3   6  -2  182.08   10.70
  -4  -6  -2   10.60    4.50
   4  -6   2    8.50    4.50
  -4   6  -2   -1.40    3.80
  -5  -6  -2   13.50    5.20
  -5   6  -2   11.20    5.30
  -5  -7   2   33.00    5.70
  -5   7   2   28.80    6.80
  -4  -7   2  166.88    9.30
  -4   7   2  173.08   11.60
  -3  -7   2   20.60    4.10
  -3   7   2   22.10    5.60
  -2  -7   2  359.76   11.50
  -2   7   2  292.97   13.50
  -1  -7   2  215.98    9.40
   1   7  -2  221.88    9.50
  -1   7   2  226.18   11.00
   0  -7   2  475.75   14.20
   0   7  -2  476.85   14.60
   0   7   2  494.65   15.90
   1  -7   2   74.39    6.70
   1   7   2   81.09    7.70
  -1   7  -2   75.19    7.00
  -2  -7  -2   98.69    7.80
   2  -7   2   81.89    7.30
  -2   7  -2  101.09    8.70
  -3  -7  -2   15.70    4.80
   3  -7   2   13.70    4.70
  -3   7  -2   10.30    5.00
   4  -7   2  212.88   12.20
  -4  -7  -2  223.28   12.40
  -4   7  -2  215.58   12.40
  -4  -8   2    2.40    3.30
  -4   8   2   -0.70    4.80
  -3  -8   2  318.37   12.50
  -3   8   2  328.17   15.00
  -2   8   2   60.09    7.90
  -1  -8   2   87.89    6.80
  -1   8   2  101.39    9.30
   0  -8   2   28.80    4.60
   0   8  -2   38.30    5.70
   0   8   2   30.60    5.90
   1  -8   2    3.80    3.40
   1   8   2    8.00    4.80
  -1   8  -2    3.40    4.00
  -2  -8  -2    4.30    3.80
   2  -8   2   11.20    4.20
  -2   8  -2    7.50    4.60
   3  -8   2  172.18   11.10
  -3  -8  -2  162.38   10.90
  -3   8  -2  158.18   11.20
  -3   9   2   40.30    7.70
  -2   9   2   62.39    8.60
  -1   9   2   13.60    5.20
   0   9   2   35.20    6.50
   1   9   2  245.38   13.20
   2  -9   2   38.10    8.00
  -2  -9  -2   61.29    7.90
  -2   9  -2   52.39    7.80
  -7   0   3  512.35   18.50
  -6   0   3  170.38    8.60
  -6   0   3  182.08   10.30
  -5   0   3   12.90    3.30
  -5   0   3   21.80    4.50
  -4   0   3   12.20    3.10
  -4   0   3   11.10    2.70
  -3   0   3   71.79    4.50
  -3   0   3   73.89    4.60
  -2   0   3  599.64   12.10
  -2   0   3  589.54   13.10
  -1   0   3 4131.59   69.29
  -1   0   3 4245.88   70.99
   0   0   3  520.55   11.20
   0   0  -3  527.75   10.80
   0   0   3  508.05   10.40
   1   0   3    7.80    1.90
  -1   0  -3    5.00    2.30
   1   0   3    6.10    2.00
  -2   0  -3   15.60    3.50
  -3   0  -3  614.74   17.20
  -4   0  -3  183.38   10.60
  -5   0  -3   47.70    7.30
  -6   0  -3    1.10    5.10
  -7  -1   3    1.80    4.30
  -7  -1   3    1.10    3.30
  -7   1   3    0.20    4.40
  -6  -1   3  780.62   19.80
  -6  -1   3  730.33   21.10
  -6   1   3  733.23   18.60
  -6   1   3  736.13   21.50
  -5  -1   3  590.14   15.70
  -5  -1   3  564.64   16.40
  -5   1   3  577.64   14.80
  -5   1   3  577.34   16.90
  -4  -1   3 1058.69   22.90
  -4  -1   3 1046.80   22.80
  -4   1   3 1071.09   23.60
  -4   1   3 1103.59   22.20
  -3  -1   3   12.20    2.40
  -3  -1   3   14.20    2.80
  -3   1   3   11.80    2.70
  -3   1   3   10.50    2.40
  -2  -1   3  733.23   15.60
  -2  -1   3  734.03   13.60
  -2   1   3  725.73   15.10
  -2   1   3  734.93   15.20
  -1  -1   3 1813.72   33.00
  -1   1   3 1886.91   33.10
  -1   1   3 1846.62   32.70
   0  -1  -3 1345.87   25.00
   0  -1   3 1332.17   24.40
   0  -1   3 1365.06   24.70
   0   1   3 1324.67   23.10
   0   1   3 1360.36   25.00
   0   1  -3 1370.86   24.00
   1  -1   3  207.28    6.80
   1  -1   3  224.48    6.30
  -1  -1  -3  212.68    7.30
   1   1   3  215.88    7.00
  -1   1  -3  206.78    7.20
   2  -1   3  406.86   11.10
  -2  -1  -3  428.76   12.20
  -2   1  -3  408.86   12.20
  -3  -1  -3  691.93   18.70
  -3   1  -3  685.03   18.50
  -4  -1  -3   44.30    6.20
  -4   1  -3   46.60    6.60
  -5  -1  -3  134.89   10.40
  -5   1  -3  154.58   11.10
  -6  -1  -3   21.10    6.70
  -6   1  -3   19.20    6.20
  -7  -2   3   18.60    4.70
  -7   2   3   17.50    5.80
  -6  -2   3  259.07   11.10
  -6  -2   3  256.67   11.70
  -6   2   3  248.78   12.40
  -5  -2   3  376.56   12.70
  -5  -2   3  390.16   12.90
  -5   2   3  391.06   11.20
  -5   2   3  397.86   14.00
  -4  -2   3  609.24   15.80
  -4  -2   3  625.54   15.20
  -4   2   3  596.34   14.10
  -4   2   3  615.44   16.50
  -3  -2   3  469.45   12.20
  -3  -2   3  459.25   10.90
  -3   2   3  450.75   12.50
  -3   2   3  454.75   11.00
  -2  -2   3  748.93   14.10
  -2  -2   3  767.12   16.50
  -2   2   3  750.62   15.70
  -2   2   3  796.42   16.90
  -1  -2   3 2966.00   51.49
  -1   2   3 2937.41   51.99
  -1   2   3 3047.09   51.59
   1   2  -3 2925.71   48.90
   0  -2   3  751.22   15.60
   0  -2   3  735.63   14.60
   0   2   3  730.23   15.60
   0   2   3  732.63   16.00
   0   2  -3  745.93   14.40
   1  -2   3  104.99    5.40
  -1  -2  -3   93.69    5.40
   1  -2   3   96.79    3.90
  -1   2  -3   93.49    5.20
  -2  -2  -3 1275.27   26.90
   2  -2   3 1253.17   26.10
  -2   2  -3 1320.17   27.10
  -3  -2  -3  168.48    8.90
  -3   2  -3  184.68    9.40
  -4  -2  -3  193.28   10.80
  -4   2  -3  225.98   11.70
  -5  -2  -3  163.28   11.10
  -5   2  -3  141.29   10.90
  -6  -2  -3  194.58   13.60
  -6   2  -3  229.28   14.30
  -7  -3   3   63.79    7.30
  -7   3   3   47.90    7.60
  -6  -3   3  186.78   10.00
  -6   3   3  188.38   11.10
  -5  -3   3   65.39    6.20
  -5  -3   3   71.19    6.40
  -5   3   3   65.29    6.90
  -4  -3   3  185.78    7.70
  -4  -3   3  191.88    8.40
  -4   3   3  194.58    9.50
  -4   3   3  191.38    6.80
  -3  -3   3  867.81   18.20
  -3  -3   3  905.61   20.10
  -3   3   3  934.61   20.90
  -3   3   3  869.81   18.00
  -2  -3   3  130.89    5.90
  -2  -3   3  132.49    4.30
  -2   3   3  123.89    5.20
  -2   3   3  126.99    6.50
  -1  -3   3  586.54   13.10
   1   3  -3  584.34   11.70
  -1   3   3  586.64   13.20
  -1   3   3  598.84   14.40
   0  -3   3   41.10    3.00
   0  -3   3   31.60    3.30
   0   3  -3   37.90    3.10
   0   3   3   36.00    3.90
   0   3   3   45.80    3.90
  -1  -3  -3   89.09    5.50
   1  -3   3   95.59    3.50
   1  -3   3   89.49    5.40
  -1   3  -3   84.19    5.20
  -2  -3  -3  488.45   14.10
   2  -3   3  481.35   13.60
  -2   3  -3  499.85   14.10
   3  -3   3  504.55   14.90
  -3  -3  -3  494.45   15.50
  -3   3  -3  498.45   15.80
  -4  -3  -3   45.30    6.40
  -4   3  -3   30.50    5.90
  -5  -3  -3  173.48   11.90
  -5   3  -3  189.78   12.10
  -6  -3  -3   38.50    8.10
  -6   3  -3   31.40    7.30
  -7  -4   3   19.80    5.20
  -6  -4   3   11.00    3.90
  -6   4   3   11.90    5.10
  -5  -4   3  203.38    9.70
  -5   4   3  189.48   10.80
  -4  -4   3  255.37   10.20
  -4   4   3  263.17   11.40
  -3  -4   3  250.17    9.20
  -3  -4   3  237.78    7.70
  -3   4   3  263.27   10.50
  -3   4   3  247.08    7.50
  -2  -4   3   21.00    3.30
  -2  -4   3   19.90    2.40
  -2   4   3   19.10    4.10
  -2   4   3   18.20    2.60
  -1  -4   3  921.61   19.00
  -1   4   3  930.91   21.00
   1   4  -3  915.51   18.30
  -1   4   3  936.01   19.20
   0  -4   3  513.95   13.30
   0  -4   3  533.15   11.50
   0   4  -3  519.95   12.30
   0   4   3  545.25   14.20
   1  -4   3   64.29    5.20
  -1  -4  -3   59.89    5.40
  -1   4  -3   64.99    5.20
  -2  -4  -3  495.95   15.00
   2  -4   3  485.35   14.30
  -2   4  -3  524.05   14.70
   3  -4   3  228.28   10.30
  -3  -4  -3  203.28   10.10
  -3   4  -3  211.98   10.40
  -4  -4  -3  326.57   14.00
  -4   4  -3  324.07   14.00
  -5  -4  -3  117.69   10.80
  -5   4  -3  102.89    9.80
  -6  -5   3   15.80    4.40
  -6   5   3   24.80    6.20
  -5  -5   3  129.69    8.40
  -5   5   3  114.69    9.30
  -4  -5   3  374.46   12.90
  -3  -5   3   34.20    4.60
  -3   5   3   38.30    5.70
  -2  -5   3  396.26   10.60
  -2  -5   3  396.06   11.60
  -2   5   3  390.96   10.40
  -2   5   3  385.06   13.10
  -1  -5   3  353.76   10.00
  -1   5   3  361.16   12.20
   1   5  -3  361.06   10.00
   0  -5   3   10.70    3.60
   0  -5   3   10.30    3.10
   0   5  -3   15.50    3.00
   0   5   3   11.20    3.70
   1  -5   3  111.59    6.80
  -1   5  -3   98.99    6.40
   2  -5   3  132.19    8.20
  -2  -5  -3  144.39    8.50
  -2   5  -3  156.48    8.70
   3  -5   3  353.36   13.50
  -3  -5  -3  342.47   14.00
  -3   5  -3  375.76   13.90
  -4  -5  -3   83.19    8.60
  -4   5  -3   90.99    9.20
  -5  -5  -3  119.69   11.00
  -5   5  -3  104.79   10.30
  -6  -6   3   20.40    5.20
  -6   6   3    6.10    5.20
  -5  -6   3   49.10    6.30
  -5   6   3   59.79    8.00
  -4  -6   3   15.00    4.00
  -4   6   3   20.10    5.50
  -3  -6   3   48.50    5.40
  -3   6   3   34.80    5.80
  -2  -6   3  818.52   19.40
  -2   6   3  812.12   21.90
  -1  -6   3  398.76   11.40
  -1  -6   3  409.36   12.90
   1   6  -3  437.36   14.00
  -1   6   3  414.06   14.30
   0  -6   3    9.50    3.30
   0   6  -3   13.50    3.60
   0   6   3   18.50    4.70
   1  -6   3   34.30    4.70
  -1   6  -3   45.80    5.50
   1   6   3   31.90    5.40
  -2  -6  -3  210.38   10.60
   2  -6   3  217.48   10.40
  -2   6  -3  207.38    9.90
   3  -6   3   36.10    5.90
  -3  -6  -3   33.70    5.80
  -3   6  -3   32.80    5.80
  -4  -6  -3   96.39    9.60
   4  -6   3   92.49    9.30
  -4   6  -3   94.19    9.40
  -5  -7   3   25.40    5.20
  -5   7   3   23.40    6.40
  -4  -7   3   80.89    7.40
  -4   7   3   80.39    8.70
  -3  -7   3  113.59    7.60
  -3   7   3   99.59    9.00
  -2  -7   3  126.19    7.10
  -2   7   3  138.59    9.50
  -1  -7   3   25.80    4.60
  -1   7   3   27.60    5.80
   0  -7   3  373.26   13.10
   0   7   3  405.76   14.60
   1  -7   3  340.97   12.70
   1   7   3  333.87   13.50
  -1   7  -3  319.97   12.20
  -2  -7  -3   17.20    4.80
   2  -7   3   25.20    5.10
  -2   7  -3   31.40    5.50
   3  -7   3   24.00    5.70
  -3  -7  -3   23.60    5.60
  -3   7  -3   18.30    5.20
   4  -7   3    6.50    5.30
  -4  -7  -3    5.50    4.60
  -4   7  -3    8.80    5.00
  -4  -8   3   45.80    6.40
  -4   8   3   40.30    7.20
  -3  -8   3   22.60    4.50
  -3   8   3   25.00    5.90
  -2  -8   3   49.60    5.80
  -2   8   3   48.90    7.10
  -1  -8   3   60.99    6.40
  -1   8   3   43.10    7.00
   0  -8   3   56.49    6.30
   0   8   3   66.99    8.00
   1  -8   3   48.00    6.30
   1   8   3   30.90    6.10
  -2  -8  -3    9.80    4.50
   2  -8   3   22.00    5.40
  -3  -8  -3   35.10    6.60
   3  -8   3   40.20    6.70
  -3   8  -3   34.40    6.50
  -2  -9   3   14.00    4.50
  -2   9   3   12.50    5.70
  -1  -9   3    9.70    3.90
  -1   9   3    3.50    4.90
   0  -9   3   10.10    4.10
   0   9   3   18.30    6.00
   1  -9   3   38.00    6.20
  -7   0   4    0.70    4.90
  -7   0   4   -4.00    3.10
  -6   0   4   -1.00    3.20
  -6   0   4   -2.90    2.70
  -5   0   4  222.48    9.20
  -5   0   4  222.88    9.50
  -4   0   4  559.94   13.90
  -4   0   4  534.55   14.10
  -3   0   4  629.04   14.80
  -3   0   4  620.24   13.70
  -2   0   4 3843.42   64.39
  -2   0   4 3821.92   66.59
  -1   0   4  246.18    7.70
   0   0  -4   40.60    3.30
   0   0   4   36.90    3.40
   0   0   4   38.70    3.00
   1   0   4  791.82   16.30
  -1   0  -4  769.82   17.30
   1   0   4  784.62   16.70
  -2   0  -4   95.69    6.60
  -3   0  -4   11.80    4.00
  -4   0  -4  238.68   12.20
  -5   0  -4   11.10    5.50
  -6   0  -4   -1.50    5.10
  -7  -1   4    7.30    3.70
  -7   1   4    5.60    4.70
  -6  -1   4   34.90    5.10
  -6   1   4   36.70    5.80
  -6   1   4   30.00    4.50
  -5  -1   4  715.03   17.90
  -5  -1   4  701.93   18.20
  -5   1   4  671.33   17.10
  -5   1   4  692.43   18.40
  -4  -1   4   22.60    3.20
  -4  -1   4   22.10    3.70
  -4   1   4   19.40    3.30
  -4   1   4   21.80    3.70
  -3  -1   4   23.80    2.40
  -3  -1   4   15.60    3.00
  -3   1   4   22.90    3.30
  -3   1   4   24.30    3.30
  -2  -1   4 1600.34   30.60
  -2   1   4 1627.84   30.40
  -2   1   4 1595.14   29.50
  -1  -1   4  551.04   12.70
  -1   1   4  556.44   12.90
   1   1  -4  554.34    9.90
  -1   1   4  548.25   12.10
   0  -1   4   56.19    3.70
   0  -1   4   48.50    3.70
   0  -1  -4   54.89    4.00
   0   1   4   55.29    4.10
   0   1  -4   54.59    3.60
   0   1   4   52.09    2.80
   1  -1   4  104.79    5.00
   1  -1   4  105.59    5.30
  -1  -1  -4  113.49    5.70
  -1   1  -4  107.19    5.60
   1   1   4  110.09    5.50
  -2  -1  -4   74.79    5.80
   2  -1   4   66.39    5.10
  -2   1  -4   61.39    5.60
  -3  -1  -4   31.70    5.30
  -3   1  -4   19.90    4.70
  -4  -1  -4   73.49    7.80
  -4   1  -4   79.99    8.20
  -5  -1  -4   19.70    6.20
  -5   1  -4   23.30    6.10
  -6  -1  -4   12.80    6.10
  -6   1  -4   19.60    6.60
  -7  -2   4   45.70    6.40
  -7   2   4   33.70    6.40
  -6  -2   4   77.69    7.20
  -6   2   4   75.79    7.70
  -5  -2   4  344.97   12.00
  -5   2   4  340.07   10.70
  -5   2   4  309.07   12.20
  -4  -2   4  511.75   12.90
  -4  -2   4  502.15   14.40
  -4   2   4  526.85   14.80
  -4   2   4  522.35   13.20
  -3  -2   4    6.60    2.60
  -3  -2   4    9.70    1.80
  -3   2   4    8.50    2.90
  -3   2   4    7.30    2.50
  -2  -2   4  106.29    5.60
  -2   2   4  110.69    5.40
  -2   2   4  110.39    5.60
  -1  -2   4  335.77    9.30
  -1   2   4  345.47    9.60
  -1   2   4  342.07    9.60
   0  -2   4 1803.72   33.10
   0  -2   4 1865.21   34.20
   0   2   4 1851.61   34.40
   0   2  -4 1835.72   32.60
  -1  -2  -4   42.00    4.40
   1  -2   4   38.00    3.00
   1  -2   4   44.60    3.90
   1   2   4   36.40    3.90
  -1   2  -4   33.20    3.80
  -2  -2  -4  940.61   22.00
   2  -2   4  939.71   21.10
  -2   2  -4  905.01   21.50
  -3  -2  -4  130.79    8.70
   3  -2   4  142.59    8.40
  -3   2  -4  167.78    9.60
  -4  -2  -4   17.50    5.20
  -4   2  -4    8.00    4.80
  -5  -2  -4   86.39    9.60
  -5   2  -4   78.99    9.50
  -7  -3   4   49.70    6.70
  -7   3   4   55.49    8.00
  -6  -3   4   27.60    5.20
  -6   3   4   23.30    5.40
  -5  -3   4   39.90    5.30
  -5   3   4   18.60    4.80
  -4  -3   4   92.69    6.60
  -4   3   4  109.29    7.40
  -4   3   4  105.39    5.80
  -3  -3   4   47.20    4.50
  -3   3   4   52.39    5.30
  -3   3   4   50.09    4.20
  -2  -3   4   45.90    4.20
  -2   3   4   58.09    5.00
  -2   3   4   61.89    4.50
  -1  -3   4 2844.72   50.99
  -1   3   4 2936.41   51.49
  -1   3   4 2863.81   52.39
   1   3  -4 2879.41   48.40
   0  -3   4  169.28    5.80
   0  -3   4  159.78    6.80
   0   3   4  168.88    7.40
   0   3   4  163.58    6.70
   0   3  -4  169.78    5.70
   1  -3   4  406.16    9.50
   1  -3   4  399.86   11.70
  -1  -3  -4  405.16   12.30
  -1   3  -4  416.96   11.40
  -2  -3  -4  315.17   11.70
   2  -3   4  299.27   10.80
  -2   3  -4  298.67   11.00
  -3  -3  -4   22.00    4.80
   3  -3   4   11.50    4.20
  -3   3  -4   16.40    4.60
  -4  -3  -4  183.48   11.10
  -4   3  -4  179.78   10.90
  -5  -3  -4   59.89    8.40
  -5   3  -4   65.39    8.60
  -7  -4   4   75.49    8.10
  -7   4   4   64.39    8.50
  -6  -4   4  185.48   10.50
  -6   4   4  161.38   10.90
  -5  -4   4   40.90    5.80
  -5   4   4   34.80    6.20
  -4  -4   4  388.26   13.00
  -3  -4   4   73.19    5.90
  -3   4   4   74.89    6.50
  -3   4   4   75.39    5.10
  -2  -4   4   36.10    4.10
  -2   4   4   34.20    3.70
  -2   4   4   35.20    4.90
  -1  -4   4  361.36   10.20
  -1   4   4  366.16   10.60
  -1   4   4  363.56   11.80
   1   4  -4  383.76    8.80
   0  -4   4 1746.73   34.10
   0  -4   4 1727.23   31.60
   0   4   4 1718.53   34.80
   0   4   4 1749.22   33.60
   0   4  -4 1692.43   31.80
  -1  -4  -4  147.29    7.70
   1  -4   4  146.59    7.50
  -1   4  -4  143.29    7.00
  -2  -4  -4  713.53   19.70
   2  -4   4  730.43   19.10
  -2   4  -4  729.23   18.80
  -3  -4  -4   74.59    7.50
   3  -4   4   78.29    7.20
  -3   4  -4   83.79    8.00
  -4  -4  -4  315.37   14.50
  -4   4  -4  312.37   14.30
  -5  -4  -4   95.49   10.50
  -5   4  -4  102.69   10.30
  -6  -5   4   51.09    6.50
  -5  -5   4  305.67   12.60
  -4   5   4  123.39    9.40
  -3  -5   4  613.04   16.80
  -3   5   4  628.14   18.30
  -2  -5   4  319.07   10.50
  -2   5   4  298.67   11.70
  -2   5   4  299.97    9.50
  -1  -5   4  352.36   11.60
  -1  -5   4  350.66   10.40
  -1   5   4  356.36   12.60
  -1   5   4  365.16   10.90
   0  -5   4  148.89    7.90
   0   5  -4  163.48    6.90
   0   5   4  152.38    8.50
  -1  -5  -4  252.77   10.60
   1  -5   4  251.57   10.20
  -1   5  -4  243.78    9.60
  -2  -5  -4  111.79    8.00
   2  -5   4  123.09    8.50
  -2   5  -4  109.69    7.80
   3  -5   4  363.56   14.30
  -3  -5  -4  364.76   14.90
  -3   5  -4  359.96   14.00
  -4  -5  -4   75.59    8.70
   4  -5   4   75.49    8.40
  -4   5  -4   93.49    9.30
  -5  -5  -4   27.40    6.60
  -5   5  -4   28.20    6.60
  -6  -6   4   20.60    5.30
  -6   6   4   22.00    6.60
  -5  -6   4   23.30    5.10
  -5   6   4   13.60    5.50
  -4  -6   4  967.60   24.30
  -4   6   4  927.41   25.90
  -3  -6   4   67.19    6.20
  -3   6   4   60.29    7.30
  -2  -6   4  462.15   13.60
  -2   6   4  483.45   16.00
  -1  -6   4   44.70    5.30
  -1   6   4   45.30    5.80
   0  -6   4  126.09    7.70
   0   6   4   99.99    8.00
   1  -6   4  181.88    9.40
  -1  -6  -4  172.78    9.40
  -2  -6  -4   18.00    4.80
   2  -6   4   11.00    4.40
  -2   6  -4   14.60    4.60
  -3  -6  -4   34.70    6.40
   3  -6   4   24.30    5.60
  -3   6  -4   25.90    5.50
   4  -6   4   47.30    7.60
  -4  -6  -4   46.50    7.40
  -4   6  -4   51.89    7.80
  -5  -7   4   -1.10    3.30
  -5   7   4    0.10    4.90
  -4  -7   4    4.90    3.50
  -4   7   4   13.00    5.40
  -3  -7   4  123.29    8.10
  -3   7   4  131.19   10.30
  -2   7   4  224.08   11.60
  -1  -7   4  205.38   10.00
  -1   7   4  194.08   10.90
   0  -7   4   33.40    5.00
   0   7   4   33.00    6.20
  -1  -7  -4    6.80    3.80
   1  -7   4    5.50    3.70
   2  -7   4   19.80    5.30
  -2  -7  -4   15.50    4.80
   3  -7   4   53.39    7.60
  -3  -7  -4   56.19    7.60
  -4  -8   4   23.30    4.90
  -4   8   4   16.10    5.90
  -3   8   4  165.88   11.50
  -2  -8   4   16.10    4.60
  -2   8   4   20.30    5.80
  -1  -8   4  103.69    8.00
  -1   8   4   69.39    7.90
   0  -8   4   38.70    5.80
   0   8   4   50.29    7.30
   1  -8   4   50.79    6.70
  -1  -8  -4   44.90    6.60
  -2  -8  -4   35.20    6.40
   2  -8   4   32.00    6.30
  -2  -9   4    5.70    4.20
  -2   9   4    3.90    5.10
  -1  -9   4    8.40    4.40
  -1   9   4    9.50    5.30
   0  -9   4   86.49    8.40
   0   9   4   83.19    9.40
  -7   0   5  125.59    8.50
  -6   0   5  503.75   15.60
  -5   0   5  307.07   11.20
  -5   0   5  301.87   11.50
  -4   0   5  428.76   11.40
  -4   0   5  406.26   12.40
  -3   0   5  135.99    5.20
  -3   0   5  129.19    6.60
  -2   0   5  206.98    5.80
  -2   0   5  205.58    7.90
   1   0  -5 1207.38   22.30
  -1   0   5 1211.78   24.40
   0   0  -5  823.62   17.20
   0   0   5  824.32   18.00
   0   0   5  846.52   16.70
   1   0   5   66.59    5.10
  -1   0  -5   61.29    5.00
   1   0   5   62.89    4.20
  -2   0  -5  140.39    8.00
  -3   0  -5   63.09    7.00
  -4   0  -5   57.19    7.60
  -5   0  -5   13.80    5.70
  -7  -1   5  137.59    9.40
  -6  -1   5  959.30   24.10
  -6   1   5  968.90   24.40
  -6   1   5  950.20   23.30
  -5  -1   5  113.69    7.50
  -5   1   5  107.99    7.30
  -5   1   5  133.29    7.20
  -4  -1   5  284.17   10.50
  -4   1   5  299.67   10.10
  -4   1   5  302.67   10.20
  -3  -1   5  496.75   13.50
  -3   1   5  489.85   12.20
  -3   1   5  494.85   13.10
  -2  -1   5  475.75   12.80
  -2   1   5  488.35   11.50
  -2   1   5  503.85   12.80
  -1  -1   5  484.85   12.30
  -1   1   5  486.65   11.50
  -1   1   5  503.95   12.60
   1   1  -5  480.45    9.60
  -1   1   5  480.25   10.00
   0  -1   5  837.32   17.30
   0  -1   5  807.82   17.60
   0  -1  -5  816.32   17.70
   0   1   5  805.82   15.80
   0   1   5  829.32   18.10
   0   1  -5  813.52   16.70
  -1  -1  -5  225.48    8.60
   1  -1   5  234.18    8.10
   1  -1   5  219.08    7.80
  -1   1  -5  224.18    8.30
   1   1   5  226.88    8.20
  -2  -1  -5   35.10    4.70
   2  -1   5   40.80    4.40
   2  -1   5   36.90    4.00
  -2   1  -5   39.60    5.20
  -3  -1  -5  369.46   13.80
  -3   1  -5  335.67   13.20
  -4  -1  -5   48.00    7.10
  -4   1  -5   41.70    6.80
  -5  -1  -5   53.09    8.50
  -5   1  -5   47.60    7.80
  -7  -2   5   63.19    7.40
  -7   2   5   61.79    7.60
  -6  -2   5  302.57   12.40
  -6   2   5  270.27   12.40
  -5  -2   5  369.86   13.00
  -5   2   5  337.77   12.60
  -5   2   5  354.36   11.50
  -4  -2   5  680.33   17.80
  -4   2   5  711.33   17.60
  -4   2   5  653.23   16.70
  -3  -2   5  630.84   16.20
  -3   2   5  644.14   15.80
  -3   2   5  651.63   15.60
  -2  -2   5  552.94   14.10
  -2   2   5  552.74   13.80
  -2   2   5  553.34   13.60
  -1  -2   5 1337.17   26.00
  -1   2   5 1306.87   26.30
  -1   2   5 1285.97   25.90
  -1   2   5 1281.67   22.20
   0  -2  -5  453.25   12.10
   0  -2   5  467.35   12.00
   0  -2   5  444.46   11.30
   0   2  -5  448.46   10.50
   0   2   5  455.35   12.30
   1  -2   5   98.59    6.20
  -1  -2  -5  115.79    6.60
   1  -2   5  102.29    5.20
   1   2   5  107.19    6.40
  -1   2  -5  100.29    5.90
  -2  -2  -5  582.64   16.40
   2  -2   5  566.84   15.50
  -2   2  -5  532.65   15.60
   3  -2   5  794.32   21.00
  -3  -2  -5  818.92   22.50
  -3   2  -5  818.92   22.10
  -4  -2  -5   85.79    9.30
  -4   2  -5   95.59    9.40
  -5  -2  -5    5.50    5.60
  -5   2  -5    8.70    5.40
  -7  -3   5   83.99    8.40
  -7   3   5  100.09    9.70
  -6  -3   5  213.28   11.00
  -5  -3   5   58.69    6.40
  -5   3   5   47.60    6.10
  -5   3   5   60.39    5.60
  -4  -3   5   44.50    5.20
  -4   3   5   49.80    4.70
  -4   3   5   51.49    5.90
  -3  -3   5  279.87   10.10
  -3   3   5  267.87    9.20
  -3   3   5  278.27   10.30
  -2  -3   5  773.42   18.10
  -2   3   5  777.72   18.50
  -2   3   5  771.62   17.80
  -1  -3   5  600.14   14.90
  -1  -3   5  598.24   14.50
  -1   3   5  608.54   15.30
  -1   3   5  592.04   15.00
   0  -3   5  235.58    7.60
   0  -3   5  241.78    8.70
   0   3  -5  222.18    6.90
   0   3   5  240.48    8.80
   1  -3   5   50.89    5.10
   1  -3   5   43.30    3.60
  -1  -3  -5   52.29    5.40
  -1   3  -5   37.60    4.40
  -2  -3  -5  733.43   19.90
   2  -3   5  725.53   19.10
  -2   3  -5  721.93   19.00
   3  -3   5   11.20    4.40
  -3  -3  -5    7.00    4.00
  -3   3  -5    6.70    4.20
  -4  -3  -5  128.29   11.20
  -4   3  -5  112.59   10.10
  -5  -3  -5   28.40    7.00
  -5   3  -5   27.20    6.80
  -7  -4   5    3.40    4.10
  -7   4   5   -1.80    4.80
  -6  -4   5  224.88   11.60
  -5  -4   5   28.70    5.40
  -5   4   5   42.80    6.50
  -4  -4   5  147.59    8.50
  -4   4   5  158.58    7.30
  -4   4   5  149.19    9.10
  -3  -4   5   43.80    5.10
  -3   4   5   46.60    5.70
  -3   4   5   50.39    4.70
  -2  -4   5  461.05   13.20
  -2   4   5  437.56   13.90
  -2   4   5  465.15   12.70
  -1  -4   5  936.11   21.70
  -1  -4   5  966.80   20.60
  -1   4   5  952.10   21.20
  -1   4   5  947.91   22.20
   0  -4   5    3.00    2.20
   0  -4   5   -0.90    2.60
   0   4   5    7.00    3.60
   0   4   5    2.20    2.90
   1  -4   5  202.98    9.30
  -1  -4  -5  203.98    9.50
  -1   4  -5  187.28    8.30
  -2  -4  -5   24.70    4.90
   2  -4   5   32.50    5.20
  -2   4  -5   25.50    4.70
  -3  -4  -5  120.59    9.30
   3  -4   5  110.49    8.70
  -3   4  -5  121.69    9.10
  -4  -4  -5   45.60    7.30
  -4   4  -5   41.90    6.80
  -6  -5   5  109.59    9.60
  -6   5   5  128.39   11.40
  -5  -5   5   67.99    7.30
  -5   5   5   65.39    7.80
  -4  -5   5  418.96   14.60
  -4   5   5  439.66   15.70
  -3  -5   5  251.77   10.50
  -3   5   5  241.78    9.10
  -3   5   5  240.18   11.30
  -2  -5   5  510.75   14.30
  -2   5   5  495.45   15.50
  -2   5   5  482.25   13.60
  -1  -5   5   18.10    3.80
  -1  -5   5   24.90    3.70
  -1   5   5   29.80    4.30
  -1   5   5   27.10    4.90
   0  -5   5   84.09    6.70
   0   5   5   70.39    6.70
  -1  -5  -5  225.78   10.30
   1  -5   5  197.28    9.90
  -2  -5  -5  104.89    8.50
   2  -5   5  114.19    8.60
  -2   5  -5  124.89   10.40
  -3  -5  -5   34.40    6.10
   3  -5   5   25.80    5.80
  -3   5  -5   22.00    5.50
   4  -5   5    3.30    5.20
  -4  -5  -5   10.30    5.40
  -4   5  -5   -1.60    4.20
  -6  -6   5   87.19    9.10
  -6   6   5   91.69   10.20
  -5  -6   5    9.30    4.20
  -5   6   5   14.20    5.70
  -4  -6   5  192.48   10.30
  -4   6   5  192.98   11.40
  -3  -6   5  103.79    7.60
  -3   6   5   94.89    8.60
  -2  -6   5   24.50    4.40
  -2   6   5   20.40    3.90
  -2   6   5   28.50    5.40
  -1  -6   5  391.46   13.40
  -1   6   5  377.36   14.00
   0  -6   5   71.79    6.80
   0   6   5   63.59    7.00
  -1  -6  -5  132.99    9.10
   1  -6   5  138.09    9.10
  -2  -6  -5   29.10    5.70
   2  -6   5   38.40    6.50
  -3  -6  -5   45.40    7.10
   3  -6   5   56.69    7.70
  -5  -7   5   47.70    6.70
  -5   7   5   37.10    7.20
  -4  -7   5   73.09    7.50
  -4   7   5   65.49    8.70
  -3  -7   5   14.50    4.20
  -3   7   5   15.80    5.60
  -2  -7   5  114.29    8.60
  -2   7   5   90.89    8.50
  -1  -7   5  114.69    8.80
  -1   7   5  105.69    9.40
   0  -7   5  208.78   10.70
   0   7   5  217.38   11.80
   1  -7   5   11.60    4.60
  -1  -7  -5   10.20    4.10
   2  -7   5   28.00    6.00
  -2  -7  -5   29.60    6.20
   3  -7   5   50.09    7.90
  -3  -7  -5   44.00    7.60
  -4  -8   5   19.20    5.20
  -4   8   5    8.40    5.40
  -3   8   5    6.80    4.90
  -2  -8   5  119.79    9.20
  -2   8   5   70.39    8.30
  -1  -8   5   69.39    7.40
  -1   8   5   56.39    7.60
   0  -8   5   45.10    6.40
   0   8   5   43.70    7.20
  -1  -8  -5   66.89    8.00
   1  -8   5   92.09    9.10
  -7   0   6   19.60    4.90
  -6   0   6  124.39    8.70
  -5   0   6    1.90    3.10
  -4   0   6  146.89    8.00
  -3   0   6  256.07    9.70
  -2   0   6  505.25   13.50
  -2   0   6  476.75   10.50
  -1   0   6    9.10    2.00
   1   0  -6    9.80    2.00
  -1   0   6   18.10    3.40
   0   0   6   14.30    2.40
   0   0  -6   16.50    2.70
   0   0   6   14.20    3.20
   1   0   6   41.30    4.60
  -1   0  -6   46.50    4.80
   1   0   6   41.20    3.90
   2   0   6  330.17   11.00
  -2   0  -6  311.57   12.00
  -3   0  -6   38.90    6.30
  -4   0  -6   42.30    7.20
  -5   0  -6    3.20    5.10
  -7  -1   6   12.00    4.40
  -7   1   6   13.80    4.50
  -6  -1   6   14.00    4.20
  -6   1   6   11.30    4.00
  -5   1   6  106.69    7.40
  -4  -1   6  448.96   14.10
  -4   1   6  445.16   12.40
  -4   1   6  439.76   13.40
  -3  -1   6  309.97   10.70
  -3   1   6  284.87   10.30
  -3   1   6  302.07    9.00
  -2  -1   6  864.81   19.80
  -2   1   6  825.72   17.70
  -2   1   6  861.51   19.70
  -1  -1   6 1003.90   21.60
   1  -1  -6  964.80   20.20
  -1  -1   6 1002.30   20.50
  -1   1   6  981.70   18.70
  -1   1   6  987.70   21.90
   0  -1   6  425.36   11.30
   0  -1  -6  434.26   11.80
   0  -1   6  416.26   12.10
   0   1  -6  439.86   11.00
   0   1   6  430.56   12.30
   0   1   6  441.16   10.10
  -1  -1  -6   77.79    5.90
   1  -1   6   79.59    5.70
   1  -1   6   79.99    5.80
  -1   1  -6   71.19    5.70
   1   1   6   78.29    4.90
   1   1   6   71.19    5.70
  -2  -1  -6    3.00    3.40
   2  -1   6    6.10    3.20
   2  -1   6    7.80    3.10
  -2   1  -6    0.20    3.40
  -3  -1  -6   26.70    5.60
  -3   1  -6   24.10    5.30
  -4  -1  -6   10.80    5.20
  -4   1  -6   10.40    5.00
  -5  -1  -6    1.30    5.30
  -5   1  -6    5.60    5.00
  -7  -2   6   75.39    8.20
  -6  -2   6  144.59    9.40
  -6   2   6  134.59    8.30
  -5  -2   6  876.41   22.70
  -5   2   6  869.61   21.50
  -5   2   6  888.01   21.90
  -4  -2   6   59.79    6.00
  -4   2   6   67.19    5.90
  -4   2   6   61.79    5.80
  -3  -2   6   32.20    4.70
  -3   2   6   29.50    4.20
  -3   2   6   30.30    4.30
  -2  -2   6   41.60    4.80
  -2   2   6   44.00    4.40
  -2   2   6   39.00    4.70
  -1  -2   6   79.79    5.80
  -1  -2   6   72.39    5.10
  -1   2   6   72.29    5.40
  -1   2   6   65.39    5.50
   0  -2  -6   85.99    5.80
   0  -2   6   95.09    5.60
   0  -2   6   83.79    5.60
   0   2   6   88.79    6.20
   1  -2   6  334.77   10.60
  -1  -2  -6  269.67   10.50
   1   2   6  254.27   10.30
  -2  -2  -6  325.67   12.60
   2  -2   6  333.07   11.90
  -2   2  -6  318.97   12.00
   3  -2   6  402.86   14.40
  -3  -2  -6  407.16   15.50
  -3   2  -6  388.66   15.10
  -4  -2  -6   96.09   10.00
  -4   2  -6   85.99    9.20
  -7  -3   6   59.69    7.80
  -6  -3   6   66.19    7.30
  -6   3   6   58.29    7.10
  -5  -3   6   76.39    7.50
  -5   3   6   59.29    6.70
  -5   3   6   61.39    5.80
  -4  -3   6  263.47   11.20
  -4   3   6  240.68   10.50
  -4   3   6  249.68    9.80
  -3  -3   6  638.64   17.20
  -3   3   6  653.83   16.90
  -3   3   6  590.54   16.10
  -2  -3   6  446.76   13.00
  -2   3   6  438.06   13.20
  -2   3   6  435.56   13.00
  -1  -3   6  178.48    7.80
  -1  -3   6  176.68    8.00
  -1   3   6  196.38    8.50
  -1   3   6  189.18    8.60
   0  -3   6  621.74   15.00
   0  -3  -6  638.24   16.70
   0  -3   6  618.54   16.10
   0   3   6  605.84   16.20
   1  -3   6  661.23   17.80
  -1  -3  -6  716.93   18.80
   1   3   6  662.73   17.70
  -2  -3  -6  362.36   13.50
   2  -3   6  347.27   13.00
  -2   3  -6  365.06   13.00
   3  -3   6   64.99    7.30
  -3  -3  -6   75.79    8.20
  -3   3  -6   62.29    7.30
  -4  -3  -6   10.20    5.30
  -4   3  -6    8.80    5.00
  -6  -4   6   11.30    4.50
  -6   4   6    8.80    5.40
  -5  -4   6  137.79    9.30
  -5   4   6  123.49    9.10
  -4  -4   6  113.09    8.00
  -4   4   6  103.29    6.90
  -4   4   6  107.19    8.40
  -3  -4   6  423.46   13.70
  -3   4   6  427.06   14.00
  -3   4   6  403.16   12.70
  -2  -4   6  334.97   11.70
  -2   4   6  353.16   12.50
  -2   4   6  378.46   11.90
  -1  -4   6  137.79    7.10
  -1  -4   6  151.38    8.00
  -1   4   6  146.29    8.10
  -1   4   6  139.49    8.20
   0  -4   6  255.57   10.30
   0  -4  -6  253.07   10.40
   0   4   6  246.18   10.20
   1  -4   6   36.60    5.10
  -1  -4  -6   22.70    4.50
   2  -4   6  335.57   13.30
  -2  -4  -6  325.37   13.70
  -3  -4  -6   92.99    9.10
   3  -4   6  101.19    9.20
  -3   4  -6   97.19   10.80
  -4  -4  -6   92.89   10.10
  -4   4  -6  120.09   10.60
  -6  -5   6  299.87   14.50
  -6   5   6  365.06   16.10
  -5  -5   6    7.80    4.30
  -5   5   6    5.00    4.80
  -4  -5   6  508.65   16.70
  -4   5   6  500.45   17.30
  -3  -5   6  257.37   10.90
  -3   5   6  254.17   11.60
  -3   5   6  255.27   10.00
  -2  -5   6  200.38    9.10
  -2   5   6  174.98    9.80
  -2   5   6  194.98    9.00
  -1  -5   6  356.06   12.80
  -1   5   6  379.26   12.70
  -1   5   6  366.06   13.40
   0  -5   6  262.47   11.10
  -1  -5  -6   75.09    7.40
   1  -5   6   59.39    6.50
   2  -5   6   92.19    9.00
  -2  -5  -6   88.69    8.40
  -3  -5  -6  209.68   12.60
   3  -5   6  244.18   12.70
  -5  -6   6    1.80    3.90
  -5   6   6    3.80    4.80
  -4  -6   6   -4.00    3.50
  -4   6   6   -2.50    4.50
  -3  -6   6  173.18    9.60
  -3   6   6  171.98   10.90
  -2  -6   6   45.60    5.80
  -2  -6   6   46.40    5.80
  -2   6   6   55.89    5.90
  -2   6   6   46.90    6.90
  -1  -6   6   63.29    6.60
  -1   6   6   72.99    7.40
   0  -6   6  263.17   11.80
   1  -6   6   71.99    7.60
  -1  -6  -6   59.19    7.30
  -2  -6  -6   39.60    6.60
   2  -6   6   41.10    6.90
  -3  -6  -6  101.49   10.20
   3  -6   6   93.99    9.70
  -4  -7   6   32.90    5.80
  -4   7   6   15.50    5.70
  -3  -7   6   99.69    8.90
  -3   7   6  109.29   10.30
  -2  -7   6   43.80    6.50
  -2   7   6   54.19    7.60
  -1  -7   6   50.19    6.50
  -1   7   6   61.59    7.90
   0  -7   6   18.10    4.90
   1  -7   6    7.80    4.50
  -1  -7  -6    2.60    3.90
   2  -7   6   -0.10    4.40
  -2  -7  -6   -2.00    4.10
  -3  -8   6   74.89    8.10
  -3   8   6   82.89    9.90
  -2  -8   6  166.88   10.80
  -2   8   6  145.99   11.10
  -1  -8   6   48.10    7.20
  -1   8   6   40.10    7.10
   0  -8   6   19.60    5.20
  -7   0   7    7.80    4.20
  -6   0   7  423.16   15.30
  -5   0   7   87.49    7.80
  -4   0   7   58.59    6.10
  -3   0   7  281.97   11.00
  -2   0   7  130.69    7.80
  -1   0   7   15.30    2.50
  -1   0   7   14.70    3.70
   0   0  -7    0.20    2.20
   0   0   7    4.10    2.20
   0   0   7    0.40    2.90
   1   0   7   38.10    5.00
   1   0   7   52.29    4.80
  -1   0  -7   49.00    5.50
  -2   0  -7  159.38    9.00
   2   0   7  154.28    8.40
  -3   0  -7   -1.80    4.00
  -4   0  -7   48.90    7.90
  -7  -1   7   40.90    6.70
  -7   1   7   38.80    6.20
  -6  -1   7  291.57   13.00
  -6   1   7  318.07   12.60
  -5  -1   7   69.09    6.90
  -5   1   7   76.89    7.20
  -4  -1   7  254.27   11.00
  -4   1   7  266.07   10.90
  -3  -1   7  181.18    8.90
  -3   1   7  184.28    8.90
  -2  -1   7  631.94   16.90
  -2   1   7  660.23   17.20
   1  -1  -7  426.06   11.40
  -1  -1   7  411.06   12.70
  -1  -1   7  418.96   11.40
  -1   1   7  403.46   12.90
   0  -1   7   20.80    3.40
   0  -1  -7   23.60    3.70
   0  -1   7   14.10    3.70
   0   1   7   20.90    4.30
  -1  -1  -7   27.10    4.50
   1  -1   7   21.10    3.90
   1  -1   7   29.10    4.30
  -1   1  -7   26.70    4.40
   1   1   7   28.20    4.60
   2  -1   7   84.59    6.70
   2  -1   7   90.49    7.20
  -2  -1  -7   78.49    7.50
  -2   1  -7   67.79    7.10
  -3  -1  -7  241.48   12.60
  -3   1  -7  254.47   12.50
  -4  -1  -7    3.30    4.90
  -4   1  -7   -3.10    4.50
  -7  -2   7  142.99   10.40
  -6  -2   7  393.26   15.30
  -6   2   7  404.46   14.40
  -5   2   7  358.86   13.00
  -4  -2   7  476.85   15.40
  -4   2   7  510.25   15.10
  -3  -2   7   33.90    4.90
  -3   2   7   45.60    4.90
  -3   2   7   40.80    5.00
  -2  -2   7  500.35   15.00
  -2   2   7  521.85   15.10
  -2   2   7  503.15   13.90
   1  -2  -7   22.00    3.50
  -1  -2   7   21.70    3.60
  -1  -2   7   25.00    4.20
  -1   2   7   20.20    3.90
   0  -2   7   63.79    5.50
   0  -2   7   71.19    5.60
   0  -2  -7   69.39    6.00
   0   2   7   62.69    6.20
  -1  -2  -7  531.25   15.70
   1  -2   7  528.75   15.10
   1  -2   7  487.25   13.90
   1   2   7  513.85   15.60
   2  -2   7  184.48    9.90
  -2  -2  -7  183.08   10.10
  -3  -2  -7   37.00    6.50
  -3   2  -7   43.10    6.60
  -4  -2  -7  161.08   12.10
  -4   2  -7  165.38   11.80
  -7  -3   7   99.59    9.80
  -6  -3   7   26.10    5.70
  -5  -3   7   91.89    8.20
  -5   3   7   85.29    7.20
  -4  -3   7    3.30    3.20
  -4   3   7    7.10    4.00
  -4   3   7   10.10    3.60
  -3  -3   7  179.98    9.40
  -3   3   7  162.48    8.60
  -3   3   7  190.18    8.80
  -2  -3   7  558.84   15.60
  -2   3   7  531.95   15.20
  -2   3   7  522.65   15.40
  -1  -3   7  270.07   10.20
  -1  -3   7  264.47   10.10
  -1   3   7  271.77   10.70
   0  -3   7  195.68    8.40
   0  -3   7  209.58    9.30
   0  -3  -7  198.78    9.30
   0   3   7  210.38    9.60
   1  -3   7  224.58   10.10
  -1  -3  -7  215.08   10.40
   1   3   7  225.68   10.20
  -2  -3  -7   29.10    5.50
   2  -3   7   24.80    5.20
  -3  -3  -7  217.48   12.50
   3  -3   7  235.98   12.10
  -4  -3  -7   69.29    9.20
  -6  -4   7  387.16   16.00
  -5  -4   7   89.79    8.50
  -5   4   7   80.49    8.40
  -4  -4   7   58.89    6.90
  -4   4   7   55.89    6.50
  -4   4   7   70.59    6.60
  -3  -4   7  132.49    8.60
  -3   4   7  126.29    8.40
  -3   4   7  142.49    8.40
  -2  -4   7 1001.90   23.30
  -2   4   7  961.90   23.30
  -2   4   7  957.70   23.50
  -1  -4   7  315.97   11.90
  -1  -4   7  337.27   11.40
  -1   4   7  325.17   12.50
  -1   4   7  341.97   12.10
   0  -4   7  188.48    9.50
   0  -4  -7  183.68    9.50
   0   4   7  196.38    9.90
   1  -4   7   -1.10    3.60
  -1  -4  -7    3.90    3.70
   2  -4   7   86.19    8.20
  -2  -4  -7   98.99    8.70
   3  -4   7   68.79    8.40
  -3  -4  -7   69.39    8.40
  -6  -5   7  136.29   11.10
  -6   5   7  154.68   12.60
  -5  -5   7  112.49    9.60
  -5   5   7  142.59   10.20
  -4  -5   7   62.49    7.00
  -4   5   7   54.99    7.10
  -3  -5   7  142.09    8.90
  -3   5   7  119.19    8.10
  -3   5   7  125.69    9.30
  -2  -5   7   48.40    5.70
  -2  -5   7   37.30    5.60
  -2   5   7   50.89    6.60
  -2   5   7   49.80    5.90
  -1  -5   7  305.27   12.30
  -1   5   7  288.17   11.80
  -1   5   7  293.47   12.60
   0  -5  -7   97.79    8.00
   0  -5   7   74.29    7.00
   1  -5   7  228.98   11.60
  -1  -5  -7  218.88   11.60
  -2  -5  -7  119.69   10.70
   2  -5   7  129.89   10.60
  -3  -5  -7  144.59   11.60
   3  -5   7  151.58   11.30
  -5  -6   7   33.80    6.20
  -5   6   7   31.40    6.80
  -4  -6   7  235.58   12.10
  -4   6   7  234.18   12.60
  -3  -6   7   31.40    5.30
  -3   6   7   27.00    5.10
  -3   6   7   23.90    6.00
  -2  -6   7  131.69    9.50
  -2   6   7  143.29   10.10
  -2   6   7  135.69    8.70
  -1  -6   7   53.19    6.40
  -1   6   7   55.99    7.10
   0  -6   7   52.79    7.00
   0  -6  -7   50.19    6.50
  -1  -6  -7   11.10    4.80
   1  -6   7    3.40    4.40
  -2  -6  -7   89.59    9.50
   2  -6   7  110.59   10.50
  -4  -7   7   17.90    5.10
  -4   7   7   23.80    6.50
  -3   7   7    2.30    4.90
  -2  -7   7  148.19   10.40
  -2   7   7  139.09   10.70
  -1  -7   7   28.30    5.50
  -1   7   7   38.80    6.90
   0  -7  -7   30.00    6.00
   0  -7   7   23.90    5.90
   1  -7   7   24.40    6.20
  -1  -7  -7   17.80    5.60
  -7   0   8    8.20    4.80
  -6   0   8   19.70    4.90
  -5   0   8   14.20    4.60
  -4   0   8   54.49    6.50
  -3   0   8    3.20    3.40
  -2   0   8  212.08   11.10
  -2   0   8  242.68   10.50
  -1   0   8   60.89    6.40
   0   0   8  264.77   10.60
   1   0   8  737.33   19.50
  -2   0  -8  238.68   11.60
  -3   0  -8   -3.80    4.00
  -7  -1   8   64.89    8.20
  -7   1   8   52.49    7.00
  -6  -1   8   20.90    5.20
  -6   1   8   25.30    5.30
  -5  -1   8   82.39    7.90
  -5   1   8   69.69    7.50
  -4  -1   8  141.99    9.00
  -4   1   8  133.09    8.60
  -3  -1   8   49.90    5.80
  -3   1   8   55.39    6.40
  -2  -1   8   74.39    5.50
  -2  -1   8   66.69    6.40
  -2   1   8   71.99    6.80
  -1  -1   8  463.25   14.70
  -1  -1   8  487.65   13.10
  -1   1   8  496.55   15.20
   0  -1  -8   43.60    5.30
   0  -1   8   43.50    5.40
   0  -1   8   42.40    4.60
   0   1   8   35.40    5.20
   1  -1   8  221.28    9.70
   1  -1   8  205.88    9.70
  -1  -1  -8  217.28   10.20
   1   1   8  217.98   10.20
   2  -1   8  175.08    9.60
  -2  -1  -8  189.58   10.80
  -3  -1  -8   44.30    7.20
  -6  -2   8  152.08   10.60
  -6   2   8  173.58   10.20
  -5  -2   8   44.30    6.30
  -5   2   8   32.90    5.40
  -4  -2   8  312.87   12.90
  -4   2   8  327.47   12.70
  -3  -2   8  352.86   13.10
  -3   2   8  353.56   13.00
  -2  -2   8  211.08    8.90
  -2  -2   8  217.08    9.90
  -2   2   8  213.78   10.20
   1  -2  -8  217.58    9.10
  -1  -2   8  227.48    9.20
  -1  -2   8  215.48    9.70
  -1   2   8  221.58   10.10
   0  -2   8  366.66   12.50
   0  -2   8  410.86   12.90
   0  -2  -8  396.06   13.10
   0   2   8  393.76   13.70
  -1  -2  -8  157.48    9.10
   1  -2   8  168.98    8.90
   1   2   8  139.39    9.20
   2  -2   8  179.08    9.90
  -2  -2  -8  173.88   10.80
  -3  -2  -8   93.09    9.70
  -6  -3   8   49.90    7.50
  -6   3   8   48.40    6.90
  -5  -3   8  199.78   11.20
  -5   3   8  156.18    9.70
  -4  -3   8  191.98   10.60
  -4   3   8  196.38   10.00
  -3  -3   8  685.53   19.60
  -3   3   8  724.03   19.70
  -2  -3   8   13.10    4.10
  -2  -3   8   22.00    4.30
  -2   3   8   23.20    4.60
  -2   3   8   19.00    4.60
  -1  -3   8  252.07   10.40
  -1  -3   8  242.08   10.30
   1  -3  -8  252.47   10.20
  -1   3   8  249.38   11.00
   0  -3  -8   41.10    5.50
   0  -3   8   41.70    5.20
   0   3   8   45.30    6.00
   1  -3   8    3.50    3.90
  -1  -3  -8    5.40    3.70
   1   3   8    8.60    4.10
   2  -3   8   43.30    6.30
  -2  -3  -8   50.79    7.10
   3  -3   8   79.19    9.00
  -3  -3  -8   77.39    9.10
  -6  -4   8   62.19    8.30
  -5  -4   8    5.70    4.50
  -5   4   8   11.30    4.20
  -4  -4   8   17.90    4.90
  -4   4   8   23.00    6.60
  -4   4   8   13.90    4.20
  -3  -4   8  156.58    9.60
  -3   4   8  154.18    9.30
  -3   4   8  155.08    9.10
  -2  -4   8  436.96   14.60
  -2  -4   8  448.16   15.00
  -2   4   8  426.06   14.80
  -2   4   8  456.25   15.00
  -1  -4   8   34.40    5.30
  -1  -4   8   44.60    5.50
   1  -4  -8   39.60    5.40
  -1   4   8   43.90    5.90
   0  -4   8   65.09    6.60
   0  -4  -8   65.69    7.10
   0   4   8   69.69    7.20
   1  -4   8  237.28   11.60
  -1  -4  -8  249.88   12.40
   2  -4   8  131.89   10.20
  -2  -4  -8  139.39   10.30
  -5  -5   8   61.59    7.90
  -5   5   8   84.69   11.20
  -4  -5   8   15.20    5.00
  -4   5   8   17.20    4.50
  -4   5   8   25.90    5.90
  -3  -5   8   26.60    5.30
  -3   5   8   39.10    6.30
  -3   5   8   32.60    5.60
  -2  -5   8   83.19    7.40
  -2  -5   8   83.69    7.90
  -2   5   8  100.29    8.80
  -2   5   8   70.39    7.20
  -1  -5   8   62.29    7.20
  -1   5   8   65.69    7.10
   0  -5  -8   26.90    5.30
   0  -5   8   33.20    5.50
   1  -5   8  128.99   10.10
  -1  -5  -8  141.69   10.20
   2  -5   8   75.19    8.60
  -2  -5  -8   85.99    9.30
  -4  -6   8    4.50    4.50
  -4   6   8   12.70    5.30
  -3  -6   8    2.50    3.80
  -3  -6   8    6.10    4.50
  -3   6   8    5.70    3.80
  -3   6   8   -3.90    4.30
  -2  -6   8  103.89    9.00
  -2   6   8  106.79    8.70
  -2   6   8  110.59    9.80
  -1  -6   8   75.99    8.00
  -1   6   8   92.59    8.40
   0  -6   8   63.49    7.30
   0  -6  -8   72.09    7.90
  -1  -6  -8  101.39    9.80
   1  -6   8   89.19    9.20
  -3  -7   8   10.00    5.20
  -3   7   8    9.80    5.20
  -2  -7   8    1.30    4.00
  -2   7   8   -1.30    4.70
  -1  -7   8   51.99    7.30
  -6   0   9   76.09    8.10
  -5   0   9  156.78   10.40
  -4   0   9    8.30    4.60
  -3   0   9    2.70    3.90
  -2   0   9   10.60    4.00
  -1   0   9   13.10    4.30
   0   0   9  107.79    8.40
   1   0   9   94.99    8.10
  -6  -1   9   88.89    9.20
  -6   1   9   77.09    8.20
  -5  -1   9   58.29    7.50
  -5   1   9   81.59    8.20
  -4  -1   9   50.19    6.90
  -4   1   9   63.99    7.00
  -3  -1   9  231.68   11.30
  -3   1   9  219.88   10.90
  -2  -1   9  378.66   13.90
  -2  -1   9  407.36   13.00
  -2   1   9  392.76   14.40
  -1  -1   9    3.80    3.60
  -1   1   9    2.10    3.40
   0  -1   9   61.89    6.50
   0   1   9   70.89    7.20
   1  -1   9   48.80    6.10
   1   1   9   39.50    5.90
  -6  -2   9   88.39    9.50
  -6   2   9   74.09    7.80
  -5  -2   9  113.29    9.90
  -5   2   9  104.59    8.80
  -4  -2   9  132.59    9.90
  -4   2   9  163.58    9.90
  -3  -2   9   14.60    4.80
  -3   2   9   17.50    4.70
  -2  -2   9   12.20    3.50
  -2  -2   9   13.30    4.40
  -2   2   9   13.50    4.40
  -1  -2   9   91.59    6.90
  -1  -2   9   82.79    7.60
  -1   2   9   80.59    7.80
   0  -2   9  117.79    8.00
   0  -2   9  120.19    8.20
   0   2   9  115.99    9.10
   1  -2   9  223.88   11.00
   1   2   9  212.48   11.30
   2  -2   9  147.19   10.10
  -2  -2  -9  141.39   10.50
  -6  -3   9  128.19   11.20
  -6   3   9  175.88   10.80
  -5  -3   9    6.20    4.80
  -5   3   9    8.50    4.30
  -4  -3   9   17.70    5.10
  -4   3   9   15.10    4.80
  -3  -3   9  167.58   10.20
  -3   3   9  152.98   10.00
  -2  -3   9  471.85   15.10
  -2  -3   9  455.75   15.40
  -2   3   9  447.46   15.70
  -1  -3   9   98.09    7.80
  -1  -3   9   85.59    7.30
  -1   3   9  100.39    8.70
   0  -3  -9   87.39    7.90
   0  -3   9   83.39    7.40
   0   3   9   73.19    7.70
  -1  -3  -9   20.20    5.00
   1  -3   9   15.70    4.70
   2  -3   9   20.70    5.50
  -2  -3  -9   10.50    5.10
  -5  -4   9  112.69   10.40
  -5   4   9  105.49    9.00
  -4  -4   9   86.49    8.70
  -4   4   9   94.69    8.70
  -3  -4   9   85.89    8.10
  -3   4   9   73.19    7.30
  -2  -4   9   34.10    5.60
  -2  -4   9   34.10    5.60
  -2   4   9   33.40    5.90
  -1  -4   9  117.29    8.90
   1  -4  -9  111.99    8.20
  -1   4   9  125.49    9.10
   0  -4   9   34.00    5.80
   0  -4  -9   34.10    5.80
   0   4   9   27.40    5.70
   1  -4   9   18.60    5.30
  -1  -4  -9   12.10    4.60
  -4  -5   9  117.79   10.00
  -4   5   9  126.99    8.80
  -3  -5   9    2.10    4.20
  -3  -5   9    5.20    4.30
  -3   5   9    3.60    6.40
  -3   5   9    2.50    4.10
  -2  -5   9   95.19    8.60
  -2   5   9   99.29    8.70
  -2   5   9  111.59    9.60
   1  -5  -9  125.79    9.00
  -1  -5   9  123.79    9.50
  -1   5   9  127.19   10.10
   0  -5  -9   59.79    7.50
   0  -5   9   51.19    7.00
  -3  -6   9   58.29    7.80
  -3   6   9   58.99    7.40
  -3   6   9   65.59    8.30
  -2  -6   9   98.39    9.50
  -2   6   9   97.89    9.30
  -2   6   9   93.79    9.30
   1  -6  -9    0.60    3.50
  -1  -6   9    5.90    4.60
  -1   6   9    4.80    4.30
  -6   0  10    2.00    4.50
  -5   0  10   33.60    6.20
  -4   0  10   50.99    6.90
  -3   0  10    3.00    4.10
  -2   0  10   60.99    7.20
  -1   0  10   17.60    5.00
   0   0  10  283.67   12.50
   1   0  10  224.88   11.30
  -6  -1  10   60.09    8.10
  -6   1  10   41.40    7.00
  -5  -1  10   41.70    7.00
  -5   1  10   51.29    7.20
  -4  -1  10   51.79    6.90
  -4   1  10   40.60    6.50
  -3  -1  10  192.28   11.40
  -3   1  10  207.58   11.50
  -2  -1  10   72.29    7.90
  -2   1  10   80.29    8.20
  -1  -1  10   -1.20    3.70
  -1   1  10    3.30    3.90
   0  -1  10   17.50    4.80
   0   1  10    9.30    4.60
   1   1  10  296.87   13.50
  -5  -2  10    0.60    4.30
  -5   2  10   -1.40    3.80
  -4  -2  10  113.19    9.70
  -4   2  10  133.29   10.50
  -3  -2  10   85.49    8.70
  -3  -2  10   99.39    7.80
  -3   2  10   99.39    9.10
  -2  -2  10  100.69   10.60
  -2  -2  10   90.79    8.40
  -2   2  10   90.49    8.70
  -1  -2  10   25.00    5.20
  -1   2  10   19.30    5.40
   0   2  10   62.09    7.30
   1   2  10   64.19    7.90
  -5  -3  10   16.70    5.90
  -5   3  10   20.90    5.40
  -4  -3  10   13.00    5.30
  -4   3  10   16.10    5.30
  -3  -3  10   75.99    7.50
  -3  -3  10   89.79    8.60
  -3   3  10   84.19    8.70
  -2  -3  10   43.20    5.80
  -2  -3  10   49.80    6.60
  -2   3  10   42.90    6.60
  -1  -3  10  249.97   12.00
  -1  -3  10  261.87   11.70
  -1   3  10  221.78   11.90
   0  -3  10   17.60    5.00
   0   3  10   23.90    5.50
   1  -3  10   43.90    6.90
  -4  -4  10   35.00    6.50
  -4   4  10   44.50    6.80
  -3  -4  10   28.50    5.60
  -3  -4  10   19.30    5.40
  -3   4  10   27.20    6.00
  -2  -4  10   63.89    7.40
  -2  -4  10   59.99    7.30
  -2   4  10   55.89    7.40
  -1  -4  10   57.49    6.90
  -1   4  10   65.49    7.70
   0  -4  10   -3.40    3.80
   0   4  10    0.60    4.00
  -3  -5  10  126.59   10.60
  -3  -5  10  123.89   10.50
  -3   5  10  131.29   10.40
  -2  -5  10   23.90    5.70
  -2   5  10   15.10    5.10
  -5   0  11    8.20    5.10
  -4   0  11   84.59    8.70
  -3   0  11   12.00    5.10
  -1   0  11   44.40    6.80
   0   0  11   12.90    5.00
  -4  -1  11   36.20    7.10
  -4   1  11   46.70    7.30
  -3  -1  11   19.10    5.50
  -3   1  11   22.60    5.90
  -2  -1  11   24.70    5.60
  -1  -1  11   59.49    7.40
  -1   1  11   77.99    8.50
   0  -1  11    1.90    3.90
   0   1  11    1.70    4.20
  -4  -2  11   90.39    9.40
  -4   2  11  118.29   10.70
  -3  -2  11   77.89    8.50
  -3   2  11   84.89    9.10
  -2  -2  11    0.50    4.00
  -2   2  11   -5.30    3.90
  -1  -2  11    7.50    4.60
  -1   2  11   10.50    4.90
  -3  -3  11   76.39    8.90
  -3   3  11   65.69    8.30
  -2  -3  11    9.20    4.50
  -2   3  11    7.20    5.00
  -1   3  11   16.90    5.40
   0   0   0    0.00    0.00

_computing_structure_solution     'SHELXT 2014/5 (Sheldrick, 2014)'
;
_shelx_hkl_checksum              60900
loop_
_space_group_symop_operation_xyz
'x, y, z'
'-x, y+1/2, -z'
loop_
_atom_site_type_symbol
_atom_site_label
_atom_site_fract_x
_atom_site_fract_y
_atom_site_fract_z
_atom_site_U_iso_or_equiv
_atom_site_adp_type
_atom_site_calc_flag
_atom_site_occupancy
C C1 0.7756(4) 0.2443(3) 0.2525(3) 0.0164(5) Uani d 1
C C2 0.9672(4) 0.3592(3) 0.3457(3) 0.0188(5) Uani d 1
C C3 0.6527(4) 0.5395(3) 0.2274(3) 0.0147(5) Uani d 1
C C4 0.5678(4) 0.3557(3) 0.2405(3) 0.0154(5) Uani d 1
C C5 0.5592(4) 0.6455(3) 0.3327(3) 0.0156(5) Uani d 1
C C6 0.5680(4) 0.5156(3) 0.4560(3) 0.0175(5) Uani d 1
C C7 0.2713(4) 0.8306(3) 0.1560(3) 0.0160(5) Uani d 1
C C8 0.0228(5) 0.8702(4) 0.0854(3) 0.0219(6) Uani d 1
N N1 0.3241(4) 0.6966(3) 0.2523(2) 0.0157(4) Uani d 1
O O1 0.7846(3) 0.0819(2) 0.3232(2) 0.0186(4) Uani d 1
O O2 0.8989(3) 0.5306(2) 0.28718(19) 0.0193(4) Uani d 1
O O3 0.5116(3) 0.3518(2) 0.37825(18) 0.0172(4) Uani d 1
O O4 0.4194(3) 0.9179(2) 0.12702(19) 0.0220(4) Uani d 1
H H1 0.671(6) 0.027(5) 0.257(3) 0.034(9) Uiso d 1
H H2 0.789(4) 0.232(3) 0.146(3) 0.006(6) Uiso d 1
H H3 1.118(5) 0.332(4) 0.332(3) 0.020(7) Uiso d 1
H H4 0.977(5) 0.349(4) 0.456(3) 0.018(7) Uiso d 1
H H5 0.435(5) 0.331(4) 0.151(3) 0.014(6) Uiso d 1
H H6 0.603(5) 0.587(4) 0.124(3) 0.017(7) Uiso d 1
H H7 0.649(5) 0.749(3) 0.367(3) 0.012(7) Uiso d 1
H H8 0.726(5) 0.508(4) 0.530(3) 0.015(7) Uiso d 1
H H9 0.457(5) 0.544(4) 0.509(3) 0.017(7) Uiso d 1
H H10 0.210(5) 0.647(4) 0.275(3) 0.023(8) Uiso d 1
H H11 -0.068(7) 0.765(6) 0.071(4) 0.057(12) Uiso d 1
H H12 -0.033(6) 0.942(5) 0.155(4) 0.053(11) Uiso d 1
H H13 -0.008(5) 0.922(4) -0.010(3) 0.024(7) Uiso d 1
loop_
_atom_site_aniso_label
_atom_site_aniso_U_11
_atom_site_aniso_U_22
_atom_site_aniso_U_33
_atom_site_aniso_U_12
_atom_site_aniso_U_13
_atom_site_aniso_U_23
C1 0.0160(13) 0.0170(13) 0.0175(12) 0.0016(10) 0.0072(10) 0.0035(9)
C2 0.0132(12) 0.0168(12) 0.0263(13) 0.0004(11) 0.0065(10) 0.0049(11)
C3 0.0116(11) 0.0172(13) 0.0151(11) 0.0002(10) 0.0042(9) 0.0012(10)
C4 0.0135(12) 0.0161(12) 0.0172(11) -0.0010(11) 0.0058(10) 0.0005(10)
C5 0.0138(12) 0.0146(12) 0.0183(13) -0.0014(10) 0.0052(10) 0.0005(9)
C6 0.0207(13) 0.0160(13) 0.0175(12) 0.0020(11) 0.0086(11) 0.0000(10)
C7 0.0195(13) 0.0148(13) 0.0152(11) 0.0019(10) 0.0075(9) -0.0033(10)
C8 0.0213(14) 0.0218(14) 0.0234(14) 0.0044(12) 0.0083(11) 0.0045(12)
N1 0.0129(10) 0.0141(10) 0.0220(11) -0.0003(8) 0.0083(9) 0.0013(9)
O1 0.0183(9) 0.0146(9) 0.0232(9) 0.0006(7) 0.0070(8) 0.0021(7)
O2 0.0128(8) 0.0173(9) 0.0284(9) -0.0004(8) 0.0077(7) 0.0050(8)
O3 0.0205(9) 0.0136(8) 0.0223(8) -0.0008(7) 0.0136(7) -0.0002(7)
O4 0.0218(10) 0.0216(10) 0.0222(9) -0.0051(8) 0.0069(8) 0.0031(8)
loop_
_atom_type_symbol
_atom_type_description
_atom_type_scat_dispersion_real
_atom_type_scat_dispersion_imag
_atom_type_scat_source
C C 0.0033 0.0016 'International Tables Vol C Tables 4.2.6.8 and 6.1.1.4'
H H 0.0000 0.0000 'International Tables Vol C Tables 4.2.6.8 and 6.1.1.4'
N N 0.0061 0.0033 'International Tables Vol C Tables 4.2.6.8 and 6.1.1.4'
O O 0.0106 0.0060 'International Tables Vol C Tables 4.2.6.8 and 6.1.1.4'
loop_
_geom_angle_atom_site_label_1
_geom_angle_atom_site_label_2
_geom_angle_atom_site_label_3
_geom_angle
O1 C1 C2 110.6(2)
O1 C1 C4 116.2(2)
C2 C1 C4 101.5(2)
O1 C1 H2 111.5(14)
C2 C1 H2 108.2(14)
C4 C1 H2 108.2(13)
O2 C2 C1 104.13(19)
O2 C2 H3 108.4(18)
C1 C2 H3 113.0(17)
O2 C2 H4 111.6(17)
C1 C2 H4 108.3(17)
H3 C2 H4 111.(2)
O2 C3 C5 110.67(18)
O2 C3 C4 105.8(2)
C5 C3 C4 103.57(18)
O2 C3 H6 110.7(16)
C5 C3 H6 111.1(16)
C4 C3 H6 114.7(16)
O3 C4 C1 111.66(19)
O3 C4 C3 106.23(19)
C1 C4 C3 103.02(19)
O3 C4 H5 111.7(15)
C1 C4 H5 114.1(16)
C3 C4 H5 109.4(17)
N1 C5 C6 110.5(2)
N1 C5 C3 110.0(2)
C6 C5 C3 101.7(2)
N1 C5 H7 108.6(16)
C6 C5 H7 115.2(15)
C3 C5 H7 110.6(16)
O3 C6 C5 105.05(18)
O3 C6 H8 108.6(16)
C5 C6 H8 110.2(16)
O3 C6 H9 110.3(18)
C5 C6 H9 111.7(17)
H8 C6 H9 111.(2)
O4 C7 N1 122.0(2)
O4 C7 C8 121.6(2)
N1 C7 C8 116.3(2)
C7 C8 H11 111.(2)
C7 C8 H12 111.(2)
H11 C8 H12 104.(3)
C7 C8 H13 111.5(19)
H11 C8 H13 107.(3)
H12 C8 H13 112.(3)
C7 N1 C5 122.5(2)
C7 N1 H10 117.(2)
C5 N1 H10 120.(2)
C1 O1 H1 102.(2)
C2 O2 C3 109.39(18)
C4 O3 C6 109.86(18)
loop_
_geom_bond_atom_site_label_1
_geom_bond_atom_site_label_2
_geom_bond_distance
C1 O1 1.413(3)
C1 C2 1.513(4)
C1 C4 1.526(3)
C1 H2 1.02(2)
C2 O2 1.445(3)
C2 H3 1.01(3)
C2 H4 1.02(3)
C3 O2 1.450(3)
C3 C5 1.532(3)
C3 C4 1.537(4)
C3 H6 0.98(3)
C4 O3 1.437(3)
C4 H5 0.98(3)
C5 N1 1.463(3)
C5 C6 1.515(3)
C5 H7 0.97(3)
C6 O3 1.446(3)
C6 H8 1.00(3)
C6 H9 0.99(3)
C7 O4 1.241(3)
C7 N1 1.341(3)
C7 C8 1.500(4)
C8 H11 0.97(4)
C8 H12 1.00(4)
C8 H13 0.94(3)
N1 H10 0.89(3)
O1 H1 0.88(4)
