#------------------------------------------------------------------------------
#$Date: 2019-11-22 21:52:56 +0200 (Fri, 22 Nov 2019) $
#$Revision: 231383 $
#$URL: file:///home/coder/svn-repositories/cod/cif/4/51/65/4516571.cif $
#------------------------------------------------------------------------------
#
# This file is available in the Crystallography Open Database (COD),
# http://www.crystallography.net/
#
# All data on this site have been placed in the public domain by the
# contributors.
#
data_4516571
loop_
_publ_author_name
'Patyk, Ewa'
'Podsiad\/lo, Marcin'
'Katrusiak, Andrzej'
_publ_section_title
;
 Discrete CH&#x00B7;&#x00B7;&#x00B7;N Bonded Patterns Modified by
 Temperature and Pressure in Four Pyrazine Polymorphs
;
_journal_issue                   12
_journal_name_full               'Crystal Growth &amp; Design'
_journal_page_first              5670
_journal_paper_doi               10.1021/acs.cgd.5b01475
_journal_volume                  15
_journal_year                    2015
_chemical_formula_moiety         'C4 H4 N2'
_chemical_formula_sum            'C4 H4 N2'
_chemical_formula_weight         80.09
_chemical_melting_point          325
_chemical_name_common            pyrazine
_chemical_name_systematic
; 
pyrazine phase II
;
_space_group_IT_number           14
_space_group_name_Hall           '-P 2ybc'
_space_group_name_H-M_alt        'P 1 21/c 1'
_symmetry_cell_setting           monoclinic
_symmetry_space_group_name_Hall  '-P 2ybc'
_symmetry_space_group_name_H-M   'P 1 21/c 1'
_atom_sites_solution_hydrogens   geom
_atom_sites_solution_primary     direct
_atom_sites_solution_secondary   difmap
_audit_creation_method           SHELXL-97
_cell_angle_alpha                90.00
_cell_angle_beta                 116.79(4)
_cell_angle_gamma                90.00
_cell_formula_units_Z            4
_cell_length_a                   11.239(4)
_cell_length_b                   3.8173(7)
_cell_length_c                   11.060(3)
_cell_measurement_reflns_used    1306
_cell_measurement_temperature    305.0(1)
_cell_measurement_theta_max      26.87
_cell_measurement_theta_min      3.69
_cell_volume                     423.6(3)
_computing_cell_refinement       'CrysAlisRED (Oxford Diffraction, 2004)'
_computing_data_collection       'CrysAlisCCD (Oxford Diffraction, 2004)'
_computing_data_reduction        'CrysAlisRED (Oxford Diffraction, 2004)'
_computing_molecular_graphics    'SHELXTL (Sheldrick, 1990)'
_computing_publication_material  'SHELXL--97 (Sheldrick, 1997)'
_computing_structure_refinement  'SHELXL--97 (Sheldrick, 1997)'
_computing_structure_solution    'SHELXS--97 (Sheldrick, 1997)'
_diffrn_ambient_pressure         100
_diffrn_ambient_temperature      305.0(1)
_diffrn_measured_fraction_theta_full 0.800
_diffrn_measured_fraction_theta_max 0.800
_diffrn_measurement_device_type  'KM-4 CCD'
_diffrn_measurement_method       \w-scans
_diffrn_radiation_monochromator  graphite
_diffrn_radiation_source         'fine-focus sealed tube'
_diffrn_radiation_type           MoK\a
_diffrn_radiation_wavelength     0.71073
_diffrn_reflns_av_R_equivalents  0.0219
_diffrn_reflns_av_sigmaI/netI    0.0319
_diffrn_reflns_limit_h_max       12
_diffrn_reflns_limit_h_min       -13
_diffrn_reflns_limit_k_max       4
_diffrn_reflns_limit_k_min       -4
_diffrn_reflns_limit_l_max       12
_diffrn_reflns_limit_l_min       -13
_diffrn_reflns_number            1306
_diffrn_reflns_theta_full        26.87
_diffrn_reflns_theta_max         26.87
_diffrn_reflns_theta_min         3.69
_diffrn_standards_decay_%        0
_diffrn_standards_interval_count 0
_diffrn_standards_number         0
_exptl_absorpt_coefficient_mu    0.083
_exptl_absorpt_correction_T_max  0.984
_exptl_absorpt_correction_T_min  0.984
_exptl_absorpt_correction_type   numerical
_exptl_absorpt_process_details
; 
 Correction for absorption was made using XEMP (SHELXTL, 
 Sheldrick (1990)).
;
_exptl_crystal_colour            colourless
_exptl_crystal_density_diffrn    1.256
_exptl_crystal_density_method    'not measured'
_exptl_crystal_description       irregular
_exptl_crystal_F_000             168
_exptl_crystal_size_max          0.20
_exptl_crystal_size_mid          0.20
_exptl_crystal_size_min          0.20
_refine_diff_density_max         0.239
_refine_diff_density_min         -0.135
_refine_diff_density_rms         0.039
_refine_ls_extinction_method     none
_refine_ls_goodness_of_fit_ref   1.057
_refine_ls_hydrogen_treatment    constr
_refine_ls_matrix_type           full
_refine_ls_number_parameters     55
_refine_ls_number_reflns         724
_refine_ls_number_restraints     0
_refine_ls_restrained_S_all      1.057
_refine_ls_R_factor_all          0.0957
_refine_ls_R_factor_gt           0.0720
_refine_ls_shift/su_max          0.000
_refine_ls_shift/su_mean         0.000
_refine_ls_structure_factor_coef Fsqd
_refine_ls_weighting_details
'calc w=1/[\s^2^(Fo^2^)+(0.1361P)^2^+0.0129P] where P=(Fo^2^+2Fc^2^)/3'
_refine_ls_weighting_scheme      calc
_refine_ls_wR_factor_gt          0.2095
_refine_ls_wR_factor_ref         0.2397
_reflns_number_gt                456
_reflns_number_total             724
_reflns_threshold_expression     >2sigma(I)
_cod_data_source_file            cg5b01475_si_002.cif
_cod_data_source_block           phaseII_305K
_cod_original_cell_volume        423.6(2)
_cod_original_sg_symbol_H-M      'P 21/c'
_cod_database_code               4516571
loop_
_symmetry_equiv_pos_as_xyz
'x, y, z'
'-x, y+1/2, -z+1/2'
'-x, -y, -z'
'x, -y-1/2, z-1/2'
loop_
_atom_site_label
_atom_site_type_symbol
_atom_site_fract_x
_atom_site_fract_y
_atom_site_fract_z
_atom_site_U_iso_or_equiv
_atom_site_adp_type
_atom_site_occupancy
_atom_site_symmetry_multiplicity
_atom_site_calc_flag
_atom_site_refinement_flags
N1 N 0.0778(3) 0.0057(8) 0.1402(3) 0.0861(10) Uani 1 1 d .
C2 C 0.1226(3) 0.1101(7) 0.0535(3) 0.0799(10) Uani 1 1 d .
H2 H 0.2099 0.1908 0.0878 0.096 Uiso 1 1 calc R
C3 C -0.0471(3) -0.1040(8) 0.0821(3) 0.0788(11) Uani 1 1 d .
H3 H -0.0846 -0.1804 0.1371 0.095 Uiso 1 1 calc R
N11 N 0.4201(3) 0.4844(8) 0.0643(3) 0.0905(11) Uani 1 1 d .
C12 C 0.5465(4) 0.3886(9) 0.1245(3) 0.0820(11) Uani 1 1 d .
H12 H 0.5826 0.3062 0.2131 0.098 Uiso 1 1 calc R
C13 C 0.3755(3) 0.5934(8) -0.0619(3) 0.0824(11) Uani 1 1 d .
H13 H 0.2866 0.6604 -0.1092 0.099 Uiso 1 1 calc R
loop_
_atom_site_aniso_label
_atom_site_aniso_U_11
_atom_site_aniso_U_22
_atom_site_aniso_U_33
_atom_site_aniso_U_23
_atom_site_aniso_U_13
_atom_site_aniso_U_12
N1 0.073(2) 0.121(2) 0.0637(18) 0.0027(12) 0.0308(15) 0.0016(14)
C2 0.064(2) 0.096(2) 0.083(2) 0.0035(15) 0.0354(18) -0.0017(14)
C3 0.077(3) 0.101(2) 0.071(2) 0.0119(14) 0.0448(18) 0.0073(16)
N11 0.081(2) 0.122(2) 0.079(2) -0.0088(14) 0.0456(17) -0.0154(15)
C12 0.083(3) 0.096(2) 0.062(2) 0.0026(13) 0.0285(18) -0.0133(16)
C13 0.064(2) 0.103(2) 0.076(2) -0.0074(15) 0.0269(17) -0.0062(15)
loop_
_atom_type_symbol
_atom_type_description
_atom_type_scat_dispersion_real
_atom_type_scat_dispersion_imag
_atom_type_scat_source
C C 0.0033 0.0016 'International Tables Vol C Tables 4.2.6.8 and 6.1.1.4'
H H 0.0000 0.0000 'International Tables Vol C Tables 4.2.6.8 and 6.1.1.4'
N N 0.0061 0.0033 'International Tables Vol C Tables 4.2.6.8 and 6.1.1.4'
loop_
_geom_angle_atom_site_label_1
_geom_angle_atom_site_label_2
_geom_angle_atom_site_label_3
_geom_angle
_geom_angle_site_symmetry_3
C3 N1 C2 114.2(3) .
N1 C2 C3 122.9(3) 3
N1 C3 C2 122.9(3) 3
C13 N11 C12 115.5(3) .
N11 C12 C13 122.1(3) 3_665
N11 C13 C12 122.5(3) 3_665
loop_
_geom_bond_atom_site_label_1
_geom_bond_atom_site_label_2
_geom_bond_distance
_geom_bond_site_symmetry_2
N1 C3 1.321(4) .
N1 C2 1.329(4) .
C2 C3 1.351(5) 3
C3 C2 1.351(5) 3
N11 C13 1.320(4) .
N11 C12 1.320(4) .
C12 C13 1.342(5) 3_665
C13 C12 1.342(5) 3_665
loop_
_refln_index_h
_refln_index_k
_refln_index_l
_refln_F_squared_calc
_refln_F_squared_meas
_refln_F_squared_sigma
_refln_observed_status
3 0 0 0.85 1.00 0.10 o
4 0 0 681.36 805.29 3.40 o
5 0 0 0.10 0.15 0.06 o
6 0 0 368.09 392.32 5.96 o
7 0 0 0.96 0.76 0.31 o
1 1 0 3.13 3.36 0.20 o
2 1 0 937.39 942.43 7.35 o
3 1 0 5.72 5.84 0.62 o
4 1 0 89.17 102.57 2.75 o
5 1 0 0.61 0.74 0.17 o
6 1 0 0.10 0.08 0.11 o
7 1 0 0.10 0.05 0.15 o
0 2 0 366.98 404.41 7.95 o
1 2 0 0.03 0.10 0.08 o
2 2 0 100.03 114.11 1.61 o
3 2 0 1.43 1.25 0.27 o
4 2 0 25.18 36.11 1.43 o
5 2 0 0.18 -0.16 0.19 o
6 2 0 26.86 37.16 1.60 o
7 2 0 0.37 0.41 0.19 o
8 2 0 1.24 0.62 0.28 o
1 3 0 0.05 0.04 0.23 o
2 3 0 33.24 44.50 1.91 o
3 3 0 0.77 0.99 0.33 o
4 3 0 6.06 6.45 2.08 o
5 3 0 0.39 0.36 0.66 o
6 3 0 0.39 0.51 0.24 o
7 3 0 0.01 -0.12 0.50 o
8 3 0 0.77 1.42 0.55 o
0 4 0 2.82 3.98 0.95 o
1 4 0 0.00 -0.14 0.20 o
2 4 0 0.31 0.08 0.21 o
3 4 0 0.05 0.05 0.44 o
4 4 0 0.10 0.07 0.30 o
5 4 0 0.05 0.04 0.45 o
6 4 0 0.10 -0.17 0.30 o
-7 1 1 47.59 38.51 1.27 o
-6 1 1 3.78 13.71 2.44 o
-5 1 1 296.95 277.26 3.22 o
-4 1 1 39.64 60.27 1.90 o
-3 1 1 77.19 57.74 1.21 o
-2 1 1 51.86 50.53 1.52 o
0 1 1 10.84 10.58 1.50 o
1 1 1 2106.64 1844.70 10.48 o
2 1 1 41.54 56.87 1.94 o
3 1 1 116.59 97.28 2.71 o
4 1 1 2.28 2.28 0.68 o
5 1 1 203.04 193.22 4.26 o
6 1 1 9.55 15.78 1.30 o
7 1 1 4.59 6.98 0.87 o
8 1 1 10.12 8.59 1.02 o
-8 2 1 3.25 3.90 0.73 o
-7 2 1 1.31 1.08 0.29 o
-6 2 1 0.12 0.20 0.18 o
-5 2 1 5.38 6.09 0.48 o
-4 2 1 17.75 18.69 0.97 o
-3 2 1 206.51 172.91 9.90 o
-2 2 1 78.03 92.62 3.01 o
-1 2 1 39.45 31.69 1.33 o
0 2 1 84.75 74.23 1.83 o
1 2 1 286.26 286.30 2.72 o
2 2 1 13.32 34.63 4.32 o
3 2 1 83.67 90.17 3.39 o
4 2 1 0.10 0.30 0.27 o
5 2 1 1.78 2.13 0.59 o
6 2 1 1.54 1.83 0.56 o
7 2 1 0.09 1.08 0.41 o
8 2 1 1.10 1.39 0.45 o
-8 3 1 0.52 0.59 0.30 o
-7 3 1 1.17 1.61 0.45 o
-6 3 1 2.11 2.69 0.54 o
-5 3 1 0.28 0.30 0.28 o
-4 3 1 13.74 14.80 1.19 o
-3 3 1 0.49 0.46 0.51 o
-2 3 1 6.42 6.41 0.75 o
-1 3 1 0.17 0.14 0.23 o
0 3 1 1.58 1.87 0.38 o
1 3 1 0.23 0.51 0.40 o
2 3 1 8.32 7.22 1.41 o
3 3 1 0.15 0.79 0.94 o
4 3 1 2.69 3.03 0.52 o
5 3 1 1.04 0.47 0.18 o
6 3 1 0.15 0.76 0.49 o
7 3 1 0.78 1.25 0.37 o
8 3 1 0.00 -0.39 0.40 o
-7 4 1 0.03 -0.36 0.36 o
-6 4 1 0.13 0.49 0.30 o
-5 4 1 0.00 0.04 0.42 o
-4 4 1 0.24 0.33 0.20 o
-3 4 1 0.54 0.65 0.28 o
-2 4 1 0.18 0.02 0.19 o
-1 4 1 0.04 0.07 0.16 o
0 4 1 0.21 0.17 0.32 o
1 4 1 0.63 0.25 0.21 o
2 4 1 0.11 0.27 0.25 o
3 4 1 0.30 0.24 0.26 o
4 4 1 0.00 0.02 0.52 o
5 4 1 0.10 -0.19 0.24 o
6 4 1 0.03 0.16 0.23 o
-7 0 2 57.86 69.86 2.11 o
-6 0 2 152.69 177.80 1.92 o
-5 0 2 9.52 7.98 0.61 o
-4 0 2 301.14 315.13 3.85 o
-3 0 2 100.92 123.99 2.08 o
-2 0 2 1892.05 1856.76 5.83 o
-1 0 2 0.33 0.82 0.12 o
1 0 2 88.56 118.31 2.42 o
2 0 2 248.76 281.27 4.17 o
3 0 2 10.09 10.65 0.90 o
4 0 2 201.18 217.34 4.41 o
5 0 2 46.94 62.82 2.55 o
6 0 2 1.47 1.58 0.43 o
7 0 2 61.93 81.09 3.29 o
-7 1 2 7.01 7.42 0.55 o
-6 1 2 7.03 7.40 0.53 o
-5 1 2 6.84 6.45 0.28 o
-4 1 2 41.65 41.35 0.93 o
-3 1 2 208.63 222.56 1.99 o
-2 1 2 173.21 182.63 1.75 o
-1 1 2 506.46 517.80 3.39 o
0 1 2 290.32 259.63 2.12 o
1 1 2 160.52 170.85 2.16 o
2 1 2 81.97 71.33 1.35 o
3 1 2 4.28 4.95 0.47 o
4 1 2 12.08 11.31 1.05 o
5 1 2 4.17 4.34 0.70 o
6 1 2 8.40 6.93 0.88 o
7 1 2 4.44 5.98 0.87 o
8 1 2 2.12 2.41 0.59 o
-8 2 2 0.00 -0.16 0.26 o
-7 2 2 0.06 0.24 0.33 o
-6 2 2 10.90 14.47 1.57 o
-5 2 2 53.16 58.62 1.48 o
-4 2 2 2.72 3.03 0.35 o
-3 2 2 94.27 110.07 2.42 o
-2 2 2 32.89 34.96 1.81 o
-1 2 2 1.02 0.65 0.23 o
0 2 2 44.05 43.08 1.01 o
1 2 2 85.97 92.44 1.61 o
2 2 2 0.14 1.28 0.28 o
3 2 2 36.84 46.91 1.54 o
4 2 2 13.67 17.04 1.52 o
5 2 2 0.08 -0.19 0.24 o
6 2 2 0.16 0.13 0.31 o
7 2 2 6.38 8.21 1.20 o
8 2 2 0.33 0.38 0.35 o
-8 3 2 0.60 0.42 0.39 o
-7 3 2 0.09 0.36 0.25 o
-6 3 2 1.65 2.99 0.56 o
-5 3 2 2.13 2.45 0.41 o
-4 3 2 7.53 8.56 0.70 o
-3 3 2 11.17 14.62 1.28 o
-2 3 2 6.45 8.02 0.90 o
-1 3 2 18.68 24.64 1.17 o
0 3 2 12.39 12.34 1.00 o
1 3 2 11.71 14.46 0.89 o
2 3 2 12.98 12.56 0.82 o
3 3 2 1.28 1.04 0.44 o
4 3 2 1.66 2.00 0.47 o
5 3 2 0.13 0.38 0.16 o
6 3 2 2.08 3.09 0.86 o
7 3 2 0.67 0.58 0.55 o
8 3 2 0.50 0.84 0.44 o
-7 4 2 0.55 0.46 0.23 o
-6 4 2 0.18 0.73 0.33 o
-5 4 2 3.29 4.54 0.79 o
-4 4 2 0.30 0.65 0.25 o
-3 4 2 2.32 2.59 0.44 o
-2 4 2 0.96 1.07 0.33 o
-1 4 2 0.02 0.13 0.20 o
0 4 2 0.98 1.55 0.38 o
1 4 2 2.28 2.30 0.44 o
2 4 2 0.31 0.43 0.26 o
3 4 2 1.90 2.00 0.48 o
4 4 2 0.22 -0.26 0.26 o
5 4 2 0.42 1.11 0.52 o
-8 1 3 24.43 26.10 1.67 o
-7 1 3 1.77 1.46 0.40 o
-6 1 3 7.33 10.28 0.65 o
-5 1 3 165.96 149.94 2.03 o
-4 1 3 119.81 133.37 2.29 o
-3 1 3 89.05 93.60 1.24 o
-2 1 3 6.27 6.97 0.40 o
-1 1 3 0.13 0.07 0.07 o
0 1 3 97.80 72.32 1.56 o
1 1 3 184.19 151.21 2.57 o
2 1 3 64.06 51.30 1.33 o
3 1 3 57.69 49.34 1.27 o
4 1 3 4.20 3.32 0.61 o
5 1 3 20.97 15.33 1.39 o
6 1 3 35.53 29.23 2.05 o
7 1 3 28.03 26.63 2.01 o
8 1 3 15.35 13.98 1.53 o
-9 2 3 2.60 1.69 0.50 o
-8 2 3 5.07 3.95 0.75 o
-7 2 3 33.40 32.53 3.04 o
-6 2 3 0.16 1.36 0.29 o
-5 2 3 0.90 1.02 0.25 o
-4 2 3 35.31 28.64 1.20 o
-3 2 3 40.32 30.56 1.05 o
-2 2 3 118.42 106.67 2.31 o
-1 2 3 22.77 29.76 1.32 o
0 2 3 92.94 89.88 1.73 o
1 2 3 42.07 43.87 1.70 o
2 2 3 15.01 14.93 0.88 o
3 2 3 20.19 18.19 1.61 o
4 2 3 0.02 0.34 0.20 o
5 2 3 33.15 34.25 2.38 o
6 2 3 3.00 2.75 0.67 o
7 2 3 0.06 -0.02 0.24 o
8 2 3 2.83 2.62 0.75 o
-9 3 3 0.07 0.34 0.27 o
-8 3 3 0.18 0.18 0.24 o
-7 3 3 0.50 1.23 0.39 o
-6 3 3 11.61 12.99 1.11 o
-5 3 3 1.21 1.77 0.41 o
-4 3 3 18.37 16.88 0.95 o
-3 3 3 0.78 1.27 0.26 o
-2 3 3 0.51 0.42 0.17 o
-1 3 3 4.32 5.34 0.56 o
0 3 3 13.28 11.26 0.80 o
1 3 3 0.66 0.46 0.22 o
2 3 3 13.76 13.69 1.13 o
3 3 3 1.38 1.86 0.66 o
4 3 3 1.90 1.77 0.60 o
5 3 3 0.01 0.31 0.48 o
6 3 3 0.07 0.13 0.36 o
7 3 3 0.14 0.43 0.25 o
8 3 3 0.32 -0.10 0.19 o
-8 4 3 0.00 0.36 0.41 o
-7 4 3 0.33 -0.16 0.23 o
-6 4 3 0.01 -0.29 0.29 o
-5 4 3 0.00 -0.07 0.19 o
-4 4 3 0.04 0.23 0.26 o
-3 4 3 0.19 0.28 0.17 o
-2 4 3 0.29 0.35 0.20 o
-1 4 3 0.07 0.10 0.20 o
0 4 3 0.71 0.57 0.20 o
1 4 3 0.41 0.63 0.25 o
2 4 3 0.33 0.22 0.21 o
3 4 3 0.05 -0.28 0.28 o
4 4 3 0.01 0.00 0.16 o
5 4 3 0.38 0.14 0.35 o
-8 0 4 116.15 116.04 2.52 o
-7 0 4 0.87 0.57 0.18 o
-6 0 4 113.73 118.63 2.33 o
-5 0 4 31.17 29.16 1.08 o
-4 0 4 1067.46 994.40 6.02 o
-3 0 4 10.38 10.84 0.62 o
-2 0 4 526.60 471.71 3.78 o
-1 0 4 16.07 14.30 0.72 o
0 0 4 1000.44 977.39 5.91 o
1 0 4 45.49 55.99 2.29 o
2 0 4 205.91 204.17 4.69 o
3 0 4 0.05 0.24 0.26 o
4 0 4 73.20 75.56 3.23 o
5 0 4 17.72 19.85 1.74 o
6 0 4 129.98 146.97 5.01 o
-9 1 4 2.68 2.80 0.63 o
-8 1 4 44.54 46.59 2.46 o
-7 1 4 0.64 1.30 0.43 o
-6 1 4 41.86 41.63 0.89 o
-5 1 4 3.28 3.31 0.44 o
-4 1 4 17.10 19.66 0.78 o
-3 1 4 29.10 29.06 1.25 o
-2 1 4 0.00 0.07 0.09 o
-1 1 4 31.02 27.15 1.56 o
0 1 4 43.91 41.25 2.60 o
1 1 4 7.48 7.79 0.74 o
2 1 4 35.53 34.81 2.26 o
3 1 4 1.05 0.63 0.25 o
4 1 4 57.12 54.92 2.70 o
5 1 4 0.31 0.14 0.24 o
6 1 4 4.35 2.87 0.63 o
7 1 4 0.83 0.51 0.34 o
8 1 4 1.53 1.21 0.53 o
-9 2 4 0.51 0.63 0.34 o
-8 2 4 13.29 13.78 1.45 o
-7 2 4 3.01 3.16 0.47 o
-6 2 4 0.23 0.16 0.14 o
-5 2 4 13.17 14.03 0.88 o
-4 2 4 32.47 33.31 1.00 o
-3 2 4 1.48 0.94 0.19 o
-2 2 4 78.38 80.24 1.73 o
-1 2 4 11.80 9.52 0.58 o
0 2 4 28.28 37.09 1.44 o
1 2 4 11.31 12.35 1.28 o
2 2 4 0.78 1.35 0.40 o
3 2 4 0.75 0.73 0.33 o
4 2 4 8.02 7.61 1.13 o
5 2 4 1.19 1.36 0.54 o
6 2 4 6.22 6.59 1.10 o
7 2 4 1.35 0.73 0.40 o
8 2 4 0.05 0.37 0.43 o
-10 3 4 0.29 0.62 0.43 o
-9 3 4 0.23 0.97 0.45 o
-8 3 4 9.43 10.19 1.45 o
-7 3 4 0.40 0.83 0.28 o
-6 3 4 3.75 4.36 0.54 o
-5 3 4 0.03 -0.16 0.23 o
-4 3 4 2.21 2.58 0.33 o
-3 3 4 2.35 2.12 0.39 o
-2 3 4 0.00 0.28 0.13 o
-1 3 4 5.84 4.83 0.53 o
0 3 4 4.13 3.94 0.47 o
1 3 4 2.15 1.50 0.30 o
2 3 4 1.57 1.64 0.55 o
3 3 4 0.06 -0.05 0.31 o
4 3 4 11.32 13.38 1.69 o
5 3 4 0.11 -0.40 0.40 o
6 3 4 1.23 0.79 0.48 o
7 3 4 0.19 -0.49 0.49 o
-7 4 4 0.47 0.41 0.29 o
-6 4 4 1.54 2.13 0.44 o
-5 4 4 0.95 1.02 0.47 o
-4 4 4 0.19 0.33 0.45 o
-3 4 4 0.08 -0.08 0.23 o
-2 4 4 0.55 0.30 0.33 o
-1 4 4 0.54 -0.03 0.17 o
0 4 4 0.13 -0.11 0.18 o
1 4 4 0.91 1.58 0.49 o
2 4 4 1.68 2.68 0.59 o
3 4 4 0.20 -0.30 0.38 o
-10 1 5 1.49 1.60 0.68 o
-9 1 5 88.79 89.21 9.34 o
-8 1 5 0.56 0.37 0.33 o
-7 1 5 0.06 0.20 0.23 o
-6 1 5 0.40 0.59 0.26 o
-5 1 5 260.03 234.22 2.20 o
-4 1 5 3.65 5.52 0.42 o
-3 1 5 347.12 316.69 3.14 o
-2 1 5 0.30 0.66 0.44 o
-1 1 5 340.29 330.90 4.01 o
0 1 5 1.13 7.07 3.33 o
1 1 5 115.98 117.75 4.35 o
2 1 5 0.03 0.22 0.19 o
3 1 5 17.41 14.65 1.44 o
4 1 5 0.22 0.25 0.23 o
5 1 5 73.73 75.83 3.56 o
6 1 5 0.12 0.06 0.24 o
7 1 5 8.77 8.26 1.24 o
8 1 5 0.00 -0.34 0.41 o
-10 2 5 0.00 0.08 0.30 o
-9 2 5 29.73 29.85 3.10 o
-8 2 5 1.54 1.30 0.55 o
-7 2 5 40.83 39.30 1.73 o
-6 2 5 2.79 2.87 0.47 o
-5 2 5 1.39 1.08 0.25 o
-4 2 5 1.12 0.90 0.18 o
-3 2 5 6.96 6.45 0.53 o
-2 2 5 0.00 0.25 0.21 o
-1 2 5 14.56 11.65 0.70 o
0 2 5 0.32 0.21 0.15 o
1 2 5 3.77 3.07 0.66 o
2 2 5 0.08 0.24 0.28 o
3 2 5 48.11 46.65 2.80 o
4 2 5 0.05 0.97 0.45 o
5 2 5 11.35 9.09 1.34 o
6 2 5 0.09 -0.02 0.22 o
7 2 5 0.61 0.67 0.39 o
8 2 5 0.01 0.20 0.28 o
-10 3 5 0.00 0.12 0.38 o
-9 3 5 0.36 0.17 0.52 o
-8 3 5 0.06 -0.17 0.17 o
-7 3 5 3.63 4.19 0.54 o
-6 3 5 0.03 0.08 0.19 o
-5 3 5 0.41 0.33 0.20 o
-4 3 5 0.19 0.11 0.11 o
-3 3 5 6.26 5.31 0.47 o
-2 3 5 0.75 0.63 0.20 o
-1 3 5 1.47 1.44 0.30 o
0 3 5 0.05 0.08 0.13 o
1 3 5 2.86 2.31 0.68 o
2 3 5 0.24 -0.09 0.25 o
3 3 5 2.04 2.01 0.68 o
4 3 5 0.09 0.37 0.35 o
5 3 5 0.00 0.20 0.33 o
-7 4 5 0.20 0.12 0.30 o
-6 4 5 0.25 0.33 0.27 o
-5 4 5 0.07 -0.09 0.30 o
-4 4 5 0.23 0.33 0.30 o
-3 4 5 0.07 -0.02 0.29 o
-2 4 5 0.00 -0.20 0.20 o
-1 4 5 0.06 0.22 0.14 o
0 4 5 0.04 -0.03 0.31 o
1 4 5 0.02 -0.31 0.31 o
2 4 5 0.00 -0.63 0.63 o
-10 0 6 86.26 90.48 3.77 o
-9 0 6 15.16 12.78 0.94 o
-8 0 6 3.42 2.45 0.38 o
-7 0 6 3.87 3.90 0.47 o
-6 0 6 170.67 166.21 3.05 o
-5 0 6 48.04 51.26 1.67 o
-4 0 6 151.73 136.47 3.87 o
-3 0 6 0.65 0.51 0.24 o
-2 0 6 103.20 97.80 3.17 o
-1 0 6 49.82 42.58 4.42 o
0 0 6 198.87 218.75 5.35 o
1 0 6 5.90 5.23 0.89 o
2 0 6 0.71 1.35 0.51 o
3 0 6 12.05 11.29 1.39 o
4 0 6 66.85 75.72 3.79 o
-13 1 6 1.05 2.12 0.89 o
-12 1 6 0.63 1.46 0.69 o
-11 1 6 1.18 1.25 0.53 o
-10 1 6 10.19 10.30 0.99 o
-9 1 6 0.07 0.16 0.24 o
-8 1 6 30.10 31.89 1.89 o
-7 1 6 4.79 4.25 0.65 o
-6 1 6 0.02 0.02 0.11 o
-5 1 6 14.04 10.53 0.58 o
-4 1 6 26.69 29.77 1.02 o
-3 1 6 11.04 10.45 0.63 o
-2 1 6 9.85 10.71 2.36 o
-1 1 6 17.22 14.88 0.92 o
0 1 6 0.89 1.55 0.48 o
1 1 6 4.93 3.85 0.47 o
2 1 6 22.88 19.33 1.73 o
3 1 6 0.06 0.58 0.38 o
4 1 6 10.90 8.68 1.24 o
5 1 6 1.75 1.95 0.57 o
6 1 6 0.24 0.31 0.19 o
7 1 6 0.60 1.55 0.65 o
8 1 6 0.65 1.19 0.55 o
-12 2 6 0.19 -0.86 0.86 o
-11 2 6 1.93 1.40 0.74 o
-10 2 6 5.36 4.61 0.72 o
-9 2 6 0.59 0.29 0.24 o
-8 2 6 3.42 3.26 0.57 o
-7 2 6 3.12 2.96 0.58 o
-6 2 6 1.78 1.24 0.32 o
-5 2 6 10.77 10.09 0.76 o
-4 2 6 18.01 17.62 0.88 o
-3 2 6 1.32 1.33 0.27 o
-2 2 6 18.63 18.65 0.94 o
-1 2 6 6.64 6.18 0.66 o
0 2 6 2.06 2.41 0.42 o
1 2 6 7.82 7.45 1.05 o
2 2 6 1.30 0.80 0.34 o
3 2 6 0.01 -0.22 0.34 o
4 2 6 4.76 3.84 0.84 o
5 2 6 1.74 1.28 0.44 o
6 2 6 0.53 0.52 0.34 o
7 2 6 0.83 0.82 0.48 o
-11 3 6 0.43 0.33 0.39 o
-10 3 6 1.87 1.32 0.42 o
-9 3 6 0.00 -0.02 0.31 o
-8 3 6 5.51 4.64 0.72 o
-7 3 6 1.59 0.60 0.25 o
-6 3 6 0.05 -0.01 0.19 o
-5 3 6 3.74 3.63 0.49 o
-4 3 6 2.54 2.07 0.31 o
-3 3 6 3.22 3.46 0.50 o
-2 3 6 0.39 0.16 0.15 o
-1 3 6 1.89 1.58 0.36 o
0 3 6 0.36 0.55 0.31 o
1 3 6 0.81 0.41 0.32 o
2 3 6 3.27 2.81 0.71 o
3 3 6 0.00 -0.31 0.31 o
4 3 6 2.30 1.96 0.69 o
-7 4 6 0.34 0.15 0.38 o
-6 4 6 0.77 0.32 0.66 o
-5 4 6 0.41 0.27 0.92 o
-4 4 6 0.03 -0.49 0.52 o
-3 4 6 0.08 -0.10 0.43 o
-2 4 6 0.08 0.16 0.14 o
-1 4 6 0.13 0.17 0.17 o
0 4 6 0.61 0.22 0.28 o
-13 1 7 0.23 0.17 0.66 o
-12 1 7 10.41 15.57 2.15 o
-11 1 7 9.70 9.58 2.73 o
-10 1 7 14.37 15.02 2.49 o
-9 1 7 0.68 1.01 0.34 o
-8 1 7 0.28 -0.04 0.21 o
-7 1 7 14.57 12.32 1.31 o
-6 1 7 30.88 28.31 1.46 o
-5 1 7 0.26 0.85 0.50 o
-4 1 7 7.67 8.50 0.60 o
-3 1 7 14.07 10.39 0.80 o
-2 1 7 27.68 25.71 1.29 o
-1 1 7 4.50 4.43 0.53 o
0 1 7 22.55 20.11 1.16 o
1 1 7 7.82 6.51 1.03 o
2 1 7 2.33 2.30 0.68 o
3 1 7 3.21 3.70 0.80 o
4 1 7 18.23 16.96 1.83 o
5 1 7 5.00 4.71 0.98 o
6 1 7 5.82 6.89 1.31 o
7 1 7 0.13 0.60 0.42 o
-12 2 7 2.61 3.34 1.15 o
-11 2 7 0.66 0.48 0.28 o
-10 2 7 0.82 1.22 0.71 o
-9 2 7 10.57 11.69 1.15 o
-8 2 7 1.48 1.19 0.39 o
-7 2 7 0.00 0.17 0.44 o
-6 2 7 11.81 10.69 0.78 o
-5 2 7 18.53 19.62 1.55 o
-4 2 7 18.95 21.88 1.07 o
-3 2 7 0.08 0.08 0.19 o
-2 2 7 21.15 26.17 2.07 o
-1 2 7 8.47 8.93 1.22 o
0 2 7 11.80 11.86 0.99 o
1 2 7 1.64 1.04 0.41 o
2 2 7 0.25 -0.03 0.26 o
3 2 7 4.82 6.27 1.15 o
4 2 7 2.21 3.55 0.88 o
5 2 7 0.19 0.14 0.31 o
-10 3 7 0.07 -0.45 0.45 o
-9 3 7 0.06 -0.06 0.76 o
-8 3 7 2.06 2.70 0.56 o
-7 3 7 0.79 0.87 0.46 o
-6 3 7 4.80 4.75 0.57 o
-5 3 7 0.01 0.32 0.21 o
-4 3 7 1.22 1.55 0.34 o
-3 3 7 0.34 0.24 0.16 o
-2 3 7 1.33 1.12 0.59 o
-1 3 7 0.36 0.31 0.18 o
0 3 7 6.05 7.68 1.24 o
1 3 7 0.50 0.57 0.31 o
2 3 7 2.10 3.25 0.86 o
3 3 7 0.01 -0.44 0.53 o
-6 4 7 0.24 -0.36 0.68 o
-5 4 7 0.26 0.58 0.57 o
-4 4 7 0.24 0.19 0.22 o
-3 4 7 0.00 -0.36 0.36 o
-2 4 7 0.10 0.36 0.54 o
-1 4 7 0.17 -0.34 0.36 o
-11 0 8 16.01 16.36 1.78 o
-10 0 8 1.60 1.54 0.86 o
-9 0 8 3.40 3.35 0.55 o
-8 0 8 19.14 16.04 1.10 o
-7 0 8 9.30 9.96 0.87 o
-6 0 8 13.53 11.08 1.34 o
-5 0 8 10.75 13.47 1.46 o
-4 0 8 254.43 220.74 5.79 o
-3 0 8 14.77 12.78 1.41 o
-2 0 8 51.91 44.64 2.55 o
-13 1 8 1.44 1.90 0.78 o
-12 1 8 0.27 -0.13 0.42 o
-11 1 8 1.47 1.08 0.30 o
-10 1 8 1.50 0.83 0.31 o
-9 1 8 0.01 -0.17 0.23 o
-8 1 8 0.08 0.19 0.18 o
-7 1 8 3.09 3.84 0.60 o
-6 1 8 16.55 18.07 1.24 o
-5 1 8 8.86 7.92 0.83 o
-4 1 8 1.58 2.07 0.59 o
-3 1 8 13.58 12.74 1.05 o
-2 1 8 13.39 13.07 0.98 o
-1 1 8 12.34 10.59 0.90 o
0 1 8 1.12 0.53 0.21 o
1 1 8 0.91 1.43 0.50 o
2 1 8 0.54 0.13 0.26 o
3 1 8 1.21 1.92 0.66 o
4 1 8 0.22 0.45 0.39 o
5 1 8 1.96 1.43 0.67 o
-12 2 8 0.07 0.04 0.23 o
-11 2 8 0.84 0.51 0.30 o
-10 2 8 0.66 0.64 0.42 o
-9 2 8 0.34 0.87 0.37 o
-8 2 8 0.92 0.36 0.24 o
-7 2 8 7.69 5.53 0.71 o
-6 2 8 2.68 2.37 0.37 o
-5 2 8 4.39 4.31 0.99 o
-4 2 8 15.67 16.75 0.98 o
-3 2 8 2.02 1.09 0.48 o
-2 2 8 6.57 6.68 0.76 o
-1 2 8 12.22 10.20 1.17 o
0 2 8 0.37 0.26 0.28 o
1 2 8 2.07 2.26 0.63 o
2 2 8 1.24 1.01 0.53 o
3 2 8 1.13 0.67 0.44 o
4 2 8 0.06 -0.19 0.41 o
-9 3 8 0.00 -0.21 0.24 o
-8 3 8 0.14 -0.26 0.27 o
-7 3 8 0.65 0.81 0.26 o
-6 3 8 4.33 3.89 0.52 o
-5 3 8 1.68 1.58 0.36 o
-4 3 8 0.41 0.44 0.30 o
-3 3 8 2.10 1.73 0.43 o
-2 3 8 2.81 1.63 0.38 o
-1 3 8 1.89 1.12 0.49 o
0 3 8 0.92 1.13 0.56 o
1 3 8 0.42 0.32 0.31 o
2 3 8 0.08 0.15 0.37 o
-13 1 9 0.26 0.47 0.28 o
-12 1 9 0.88 1.10 0.39 o
-11 1 9 4.07 4.02 0.67 o
-10 1 9 0.74 0.69 0.48 o
-9 1 9 14.28 15.70 1.26 o
-8 1 9 0.59 0.58 0.33 o
-7 1 9 3.77 4.22 1.38 o
-6 1 9 2.16 2.29 0.69 o
-5 1 9 149.56 185.46 6.03 o
-4 1 9 0.81 1.00 0.33 o
-3 1 9 105.67 143.77 3.94 o
-2 1 9 6.32 6.65 0.74 o
-1 1 9 0.06 0.43 0.19 o
0 1 9 0.19 0.07 0.21 o
1 1 9 12.73 14.17 1.70 o
2 1 9 2.86 4.01 0.97 o
3 1 9 1.55 2.52 0.78 o
4 1 9 1.84 2.12 0.81 o
-12 2 9 0.69 0.45 0.50 o
-11 2 9 0.00 0.33 0.44 o
-10 2 9 0.29 -0.20 0.28 o
-9 2 9 0.58 0.41 0.47 o
-8 2 9 0.01 0.29 0.23 o
-7 2 9 14.25 16.45 1.32 o
-6 2 9 0.50 0.27 0.29 o
-5 2 9 5.53 6.46 0.81 o
-4 2 9 1.42 1.32 0.47 o
-3 2 9 8.79 11.07 1.02 o
-2 2 9 3.13 3.23 0.54 o
-1 2 9 9.06 11.49 1.55 o
0 2 9 1.06 0.69 0.45 o
1 2 9 0.20 0.28 0.28 o
2 2 9 0.13 0.83 0.49 o
3 2 9 0.19 0.23 0.38 o
-8 3 9 0.53 0.47 0.68 o
-7 3 9 0.04 0.03 0.28 o
-6 3 9 0.49 0.51 0.23 o
-5 3 9 0.04 -0.07 0.21 o
-4 3 9 0.00 0.43 0.25 o
-3 3 9 0.08 0.20 0.24 o
-2 3 9 0.90 0.62 0.42 o
-1 3 9 0.01 -0.24 0.26 o
0 3 9 1.04 1.56 0.68 o
-12 0 10 3.44 3.53 0.94 o
-11 0 10 0.01 -0.12 0.24 o
-10 0 10 20.99 20.03 2.15 o
-9 0 10 0.08 0.19 0.43 o
-8 0 10 0.80 0.57 0.37 o
-7 0 10 0.01 0.55 0.34 o
-6 0 10 120.72 131.38 5.11 o
-5 0 10 0.12 3.67 1.16 o
-4 0 10 185.20 193.67 6.16 o
-3 0 10 0.76 4.27 0.93 o
-13 1 10 0.03 -0.33 0.39 o
-12 1 10 0.07 -0.08 0.36 o
-11 1 10 0.07 -0.03 0.19 o
-10 1 10 0.27 0.18 0.22 o
-9 1 10 0.21 0.46 0.29 o
-8 1 10 7.42 6.51 0.82 o
-7 1 10 0.45 0.68 0.54 o
-6 1 10 7.66 6.06 1.13 o
-5 1 10 0.59 0.57 0.22 o
-4 1 10 2.84 3.61 0.85 o
-3 1 10 0.00 0.31 0.36 o
-2 1 10 9.50 11.43 1.07 o
-1 1 10 0.11 0.01 0.35 o
0 1 10 0.95 0.73 0.54 o
1 1 10 0.00 -0.45 0.50 o
2 1 10 0.06 -0.22 0.22 o
-11 2 10 0.01 -0.04 0.42 o
-10 2 10 2.26 2.13 0.52 o
-9 2 10 0.02 0.04 0.52 o
-8 2 10 0.06 0.20 0.68 o
-7 2 10 0.00 -0.12 0.22 o
-6 2 10 7.64 6.92 1.32 o
-5 2 10 0.00 -0.27 0.27 o
-4 2 10 11.53 12.95 1.74 o
-3 2 10 0.06 -0.27 0.37 o
-2 2 10 0.42 0.89 0.30 o
-1 2 10 0.12 0.46 0.49 o
0 2 10 2.28 2.41 0.80 o
1 2 10 0.00 0.43 0.45 o
-7 3 10 0.30 0.58 0.55 o
-6 3 10 1.37 0.97 0.29 o
-5 3 10 0.48 0.04 0.22 o
-4 3 10 0.43 1.12 0.68 o
-3 3 10 0.12 0.63 0.47 o
-2 3 10 1.92 2.11 0.69 o
-1 3 10 0.02 -0.05 0.18 o
-12 1 11 0.89 0.94 0.37 o
-11 1 11 4.02 4.57 0.73 o
-10 1 11 0.00 -0.02 0.55 o
-9 1 11 4.15 5.84 1.31 o
-8 1 11 0.41 0.15 0.32 o
-7 1 11 7.36 9.49 1.49 o
-6 1 11 0.03 1.11 0.56 o
-5 1 11 34.76 54.84 3.58 o
-4 1 11 0.10 -0.07 0.35 o
-3 1 11 3.41 5.11 0.77 o
-2 1 11 0.11 0.03 0.28 o
-1 1 11 4.68 7.44 1.39 o
0 1 11 0.04 -0.20 0.34 o
1 1 11 2.10 3.62 0.97 o
-9 2 11 1.54 1.30 0.41 o
-8 2 11 1.35 2.55 0.59 o
-7 2 11 4.63 6.49 1.36 o
-6 2 11 4.15 7.26 1.41 o
-5 2 11 0.11 0.18 0.34 o
-4 2 11 2.87 3.76 0.99 o
-3 2 11 4.84 6.64 0.90 o
-2 2 11 0.29 1.79 0.67 o
-1 2 11 0.68 0.26 0.25 o
0 2 11 0.01 0.51 0.32 o
-4 3 11 0.25 0.79 0.56 o
-11 0 12 0.42 0.14 0.24 o
-10 0 12 5.29 6.54 1.35 o
-9 0 12 0.02 1.09 0.58 o
-8 0 12 0.62 1.13 0.62 o
-7 0 12 0.00 -0.67 0.67 o
-6 0 12 5.58 6.02 1.19 o
-10 1 12 0.01 0.45 0.31 o
-9 1 12 0.33 0.64 0.56 o
-8 1 12 1.45 1.53 0.63 o
-7 1 12 3.00 3.89 1.02 o
-6 1 12 0.10 0.03 0.26 o
-5 1 12 3.82 3.42 0.95 o
-4 1 12 1.40 2.48 0.83 o
-3 1 12 0.92 1.30 0.44 o
-2 1 12 0.20 -0.60 0.60 o
-1 1 12 0.01 -0.27 0.51 o
-7 2 12 0.30 0.48 0.45 o
-6 2 12 0.00 -0.62 0.62 o
-5 2 12 0.38 0.11 0.31 o
-4 2 12 0.01 0.27 0.36 o
-2 2 12 0.28 0.90 0.54 o
-7 1 13 1.50 3.27 1.02 o
-6 1 13 0.21 0.04 0.39 o
-5 1 13 1.25 2.36 0.82 o
-4 1 13 0.31 0.35 0.32 o
