#------------------------------------------------------------------------------
#$Date: 2019-11-22 19:03:52 +0200 (Fri, 22 Nov 2019) $
#$Revision: 231268 $
#$URL: file:///home/coder/svn-repositories/cod/cif/4/51/63/4516345.cif $
#------------------------------------------------------------------------------
#
# This file is available in the Crystallography Open Database (COD),
# http://www.crystallography.net/
#
# All data on this site have been placed in the public domain by the
# contributors.
#
data_4516345
loop_
_publ_author_name
'Patyk, Ewa'
'Podsiad\/lo, Marcin'
'Katrusiak, Andrzej'
_publ_section_title
;
 CH&#x00B7;&#x00B7;&#x00B7;N Bonds and Dynamics in Isostructural
 Pyrimidine Polymorphs
;
_journal_issue                   8
_journal_name_full               'Crystal Growth &amp; Design'
_journal_page_first              4039
_journal_paper_doi               10.1021/acs.cgd.5b00657
_journal_volume                  15
_journal_year                    2015
_chemical_formula_moiety         'C4 H4 N2'
_chemical_formula_sum            'C4 H4 N2'
_chemical_formula_weight         80.09
_chemical_melting_point          293.15
_chemical_name_common            pyrimidine
_chemical_name_systematic
; 
pyrimidine phase I
;
_space_group_IT_number           33
_space_group_name_Hall           'P 2c -2n'
_space_group_name_H-M_alt        'P n a 21'
_symmetry_cell_setting           orthorhombic
_symmetry_space_group_name_Hall  'P 2c -2n'
_symmetry_space_group_name_H-M   'P n a 21'
_atom_sites_solution_hydrogens   geom
_atom_sites_solution_primary     direct
_atom_sites_solution_secondary   difmap
_audit_creation_method           SHELXL-97
_cell_angle_alpha                90.00
_cell_angle_beta                 90.00
_cell_angle_gamma                90.00
_cell_formula_units_Z            4
_cell_length_a                   11.666(4)
_cell_length_b                   9.487(3)
_cell_length_c                   3.7850(12)
_cell_measurement_reflns_used    3038
_cell_measurement_temperature    240.0(1)
_cell_measurement_theta_max      28.01
_cell_measurement_theta_min      3.49
_cell_volume                     418.9(2)
_computing_cell_refinement       'CrysAlisRED (Oxford Diffraction, 2004)'
_computing_data_collection       'CrysAlisCCD (Oxford Diffraction, 2004)'
_computing_data_reduction        'CrysAlisRED (Oxford Diffraction, 2004)'
_computing_molecular_graphics    'SHELXTL (Sheldrick, 1990)'
_computing_publication_material  'SHELXL--97 (Sheldrick, 1997)'
_computing_structure_refinement  'SHELXL--97 (Sheldrick, 1997)'
_computing_structure_solution    'SHELXS--97 (Sheldrick, 1997)'
_diffrn_ambient_pressure         100
_diffrn_ambient_temperature      240.0(1)
_diffrn_measured_fraction_theta_full 0.924
_diffrn_measured_fraction_theta_max 0.924
_diffrn_measurement_device_type  'KM-4 CCD'
_diffrn_measurement_method       \w-scans
_diffrn_radiation_monochromator  graphite
_diffrn_radiation_source         'fine-focus sealed tube'
_diffrn_radiation_type           MoK\a
_diffrn_radiation_wavelength     0.71073
_diffrn_reflns_av_R_equivalents  0.0552
_diffrn_reflns_av_sigmaI/netI    0.0515
_diffrn_reflns_limit_h_max       14
_diffrn_reflns_limit_h_min       -14
_diffrn_reflns_limit_k_max       11
_diffrn_reflns_limit_k_min       -11
_diffrn_reflns_limit_l_max       4
_diffrn_reflns_limit_l_min       -4
_diffrn_reflns_number            3038
_diffrn_reflns_theta_full        28.01
_diffrn_reflns_theta_max         28.01
_diffrn_reflns_theta_min         3.49
_diffrn_standards_decay_%        0
_diffrn_standards_interval_count 0
_diffrn_standards_number         0
_exptl_absorpt_coefficient_mu    0.084
_exptl_absorpt_correction_T_max  0.983
_exptl_absorpt_correction_T_min  0.983
_exptl_absorpt_correction_type   numerical
_exptl_absorpt_process_details
; 
 Correction for absorption was made using XEMP (SHELXTL, 
 Sheldrick (1990)).
;
_exptl_crystal_colour            colourless
_exptl_crystal_density_diffrn    1.270
_exptl_crystal_density_method    'not measured'
_exptl_crystal_description       irregular
_exptl_crystal_F_000             168
_exptl_crystal_size_max          0.20
_exptl_crystal_size_mid          0.20
_exptl_crystal_size_min          0.20
_refine_diff_density_max         0.137
_refine_diff_density_min         -0.165
_refine_diff_density_rms         0.037
_refine_ls_abs_structure_details 'Flack H D (1983), Acta Cryst. A39, 876-881'
_refine_ls_abs_structure_Flack   2(8)
_refine_ls_extinction_coef       0.033(9)
_refine_ls_extinction_expression Fc^*^=kFc[1+0.001xFc^2^\l^3^/sin(2\q)]^-1/4^
_refine_ls_extinction_method     SHELXL
_refine_ls_goodness_of_fit_ref   1.079
_refine_ls_hydrogen_treatment    constr
_refine_ls_matrix_type           full
_refine_ls_number_parameters     56
_refine_ls_number_reflns         885
_refine_ls_number_restraints     1
_refine_ls_restrained_S_all      1.079
_refine_ls_R_factor_all          0.1072
_refine_ls_R_factor_gt           0.0556
_refine_ls_shift/su_max          0.000
_refine_ls_shift/su_mean         0.000
_refine_ls_structure_factor_coef Fsqd
_refine_ls_weighting_details
'calc w=1/[\s^2^(Fo^2^)+(0.0498P)^2^+0.0006P] where P=(Fo^2^+2Fc^2^)/3'
_refine_ls_weighting_scheme      calc
_refine_ls_wR_factor_gt          0.1181
_refine_ls_wR_factor_ref         0.1486
_reflns_number_gt                529
_reflns_number_total             885
_reflns_threshold_expression     >2sigma(I)
_cod_data_source_file            cg5b00657_si_002.cif
_cod_data_source_block           phaseI_240K
_cod_database_code               4516345
loop_
_symmetry_equiv_pos_as_xyz
'x, y, z'
'-x, -y, z+1/2'
'x+1/2, -y+1/2, z'
'-x+1/2, y+1/2, z+1/2'
loop_
_atom_site_label
_atom_site_type_symbol
_atom_site_fract_x
_atom_site_fract_y
_atom_site_fract_z
_atom_site_U_iso_or_equiv
_atom_site_adp_type
_atom_site_occupancy
_atom_site_symmetry_multiplicity
_atom_site_calc_flag
_atom_site_refinement_flags
N1 N 0.1279(2) 0.3968(3) 0.0229(11) 0.0603(9) Uani 1 1 d .
N3 N 0.0120(2) 0.1912(3) 0.0164(9) 0.0643(11) Uani 1 1 d .
C2 C 0.0313(3) 0.3262(3) 0.0733(13) 0.0573(11) Uani 1 1 d .
H2 H -0.0303 0.3781 0.1592 0.069 Uiso 1 1 calc R
C4 C 0.1016(3) 0.1188(3) -0.1047(12) 0.0630(11) Uani 1 1 d .
H4 H 0.0927 0.0232 -0.1517 0.076 Uiso 1 1 calc R
C5 C 0.2058(3) 0.1794(4) -0.1624(10) 0.0581(11) Uani 1 1 d .
H5 H 0.2677 0.1272 -0.2450 0.070 Uiso 1 1 calc R
C6 C 0.2152(3) 0.3200(4) -0.0936(9) 0.0596(13) Uani 1 1 d .
H6 H 0.2856 0.3638 -0.1296 0.072 Uiso 1 1 calc R
loop_
_atom_site_aniso_label
_atom_site_aniso_U_11
_atom_site_aniso_U_22
_atom_site_aniso_U_33
_atom_site_aniso_U_23
_atom_site_aniso_U_13
_atom_site_aniso_U_12
N1 0.0547(15) 0.0438(15) 0.082(2) -0.0045(17) -0.0054(17) -0.0019(14)
N3 0.0483(16) 0.0484(16) 0.096(3) -0.004(2) 0.0004(17) -0.0039(13)
C2 0.0460(19) 0.052(2) 0.074(3) -0.006(2) -0.004(2) 0.0095(16)
C4 0.063(2) 0.0425(19) 0.083(3) -0.0083(19) -0.0068(18) 0.0028(18)
C5 0.048(2) 0.056(2) 0.071(3) -0.011(2) 0.0027(19) 0.0058(17)
C6 0.0472(18) 0.064(2) 0.068(3) -0.001(2) -0.0012(16) -0.0082(17)
loop_
_atom_type_symbol
_atom_type_description
_atom_type_scat_dispersion_real
_atom_type_scat_dispersion_imag
_atom_type_scat_source
C C 0.0033 0.0016 'International Tables Vol C Tables 4.2.6.8 and 6.1.1.4'
H H 0.0000 0.0000 'International Tables Vol C Tables 4.2.6.8 and 6.1.1.4'
N N 0.0061 0.0033 'International Tables Vol C Tables 4.2.6.8 and 6.1.1.4'
loop_
_geom_angle_atom_site_label_1
_geom_angle_atom_site_label_2
_geom_angle_atom_site_label_3
_geom_angle
C2 N1 C6 115.0(3)
C2 N3 C4 115.1(3)
N3 C2 N1 127.8(3)
N3 C4 C5 122.5(3)
C4 C5 C6 117.0(3)
N1 C6 C5 122.6(3)
loop_
_geom_bond_atom_site_label_1
_geom_bond_atom_site_label_2
_geom_bond_distance
N1 C2 1.325(4)
N1 C6 1.328(4)
N3 C2 1.318(4)
N3 C4 1.333(4)
C4 C5 1.362(4)
C5 C6 1.364(4)
loop_
_refln_index_h
_refln_index_k
_refln_index_l
_refln_F_squared_calc
_refln_F_squared_meas
_refln_F_squared_sigma
_refln_observed_status
5 1 -4 2.64 -1.10 2.00 o
6 1 -4 2.05 -1.59 1.59 o
7 1 -4 0.40 0.63 1.32 o
4 2 -4 0.36 1.58 2.23 o
5 2 -4 1.30 -0.08 0.96 o
6 2 -4 0.40 1.21 1.96 o
7 2 -4 0.97 -2.89 2.89 o
8 2 -4 0.07 -0.46 0.98 o
3 3 -4 3.88 1.17 1.70 o
4 3 -4 0.27 -2.31 2.31 o
5 3 -4 3.60 1.27 1.65 o
6 3 -4 0.20 -0.19 1.55 o
7 3 -4 1.36 -0.38 1.54 o
8 3 -4 0.06 2.21 1.90 o
2 4 -4 0.05 2.03 1.92 o
3 4 -4 1.74 0.75 2.17 o
4 4 -4 0.09 1.93 3.01 o
5 4 -4 0.13 -2.14 2.14 o
6 4 -4 0.23 -2.23 2.23 o
2 5 -4 0.75 1.40 2.70 o
3 5 -4 2.16 0.30 2.11 o
4 5 -4 0.38 0.14 2.38 o
5 5 -4 0.07 -0.02 2.39 o
0 6 -4 2.85 0.74 1.14 o
1 6 -4 2.01 0.85 1.14 o
2 6 -4 1.90 1.86 1.00 o
3 7 -4 0.02 5.36 3.26 o
4 0 -3 20.29 19.89 4.61 o
6 0 -3 6.60 4.81 2.59 o
2 1 -3 57.89 51.71 7.57 o
3 1 -3 19.93 15.52 4.19 o
4 1 -3 1.13 1.85 2.11 o
5 1 -3 2.20 4.36 1.62 o
6 1 -3 10.97 9.78 3.56 o
7 1 -3 1.44 0.36 1.06 o
8 1 -3 6.98 7.23 2.86 o
9 1 -3 0.40 1.59 1.81 o
1 2 -3 21.33 20.20 5.30 o
2 2 -3 1.83 1.52 0.97 o
3 2 -3 26.93 24.48 5.12 o
4 2 -3 11.74 10.01 3.44 o
5 2 -3 12.70 12.98 3.96 o
6 2 -3 0.12 -1.97 1.97 o
7 2 -3 1.94 0.53 1.50 o
8 2 -3 7.08 6.66 2.97 o
9 2 -3 0.59 1.71 1.94 o
10 2 -3 0.04 2.97 2.19 o
0 3 -3 2.38 2.81 1.73 o
1 3 -3 9.71 9.57 2.06 o
2 3 -3 6.37 4.60 1.88 o
3 3 -3 20.65 14.93 2.97 o
4 3 -3 4.56 4.66 1.58 o
5 3 -3 0.59 0.77 1.51 o
6 3 -3 0.11 1.06 1.10 o
7 3 -3 0.33 4.10 2.34 o
8 3 -3 0.17 1.65 1.62 o
9 3 -3 3.00 6.41 2.92 o
10 3 -3 0.75 2.83 2.68 o
11 3 -3 0.65 1.57 1.61 o
1 4 -3 4.18 2.27 1.27 o
2 4 -3 2.04 3.56 1.34 o
3 4 -3 12.25 14.24 2.39 o
4 4 -3 0.16 0.76 0.90 o
5 4 -3 0.88 0.00 0.93 o
6 4 -3 0.88 1.68 1.16 o
7 4 -3 10.35 8.64 3.05 o
8 4 -3 4.01 3.01 1.65 o
9 4 -3 3.30 6.15 3.16 o
10 4 -3 0.61 0.26 1.32 o
0 5 -3 1.83 0.63 0.83 o
1 5 -3 8.78 6.11 1.39 o
2 5 -3 10.81 10.82 2.13 o
3 5 -3 7.71 7.39 1.91 o
4 5 -3 0.60 1.38 0.87 o
5 5 -3 1.71 0.56 1.78 o
6 5 -3 1.47 2.04 1.31 o
7 5 -3 5.21 1.93 2.31 o
8 5 -3 0.40 0.82 1.06 o
9 5 -3 4.63 3.88 2.33 o
1 6 -3 8.57 7.08 1.45 o
2 6 -3 4.31 4.73 1.33 o
3 6 -3 3.10 2.32 1.21 o
4 6 -3 10.79 8.82 1.87 o
5 6 -3 1.10 -0.70 0.92 o
6 6 -3 0.06 -1.02 1.26 o
7 6 -3 3.76 1.83 1.25 o
8 6 -3 6.01 4.07 1.84 o
0 7 -3 3.13 1.93 1.34 o
1 7 -3 0.68 -0.84 0.84 o
2 7 -3 19.55 15.34 2.64 o
3 7 -3 0.62 1.01 0.95 o
4 7 -3 1.54 0.29 0.70 o
5 7 -3 0.27 0.44 1.06 o
6 7 -3 0.30 0.20 0.68 o
7 7 -3 0.08 -0.84 0.84 o
8 7 -3 0.17 -3.12 3.12 o
1 8 -3 0.00 -0.08 0.67 o
2 8 -3 0.59 0.19 1.04 o
3 8 -3 1.60 0.92 1.10 o
4 8 -3 5.68 4.12 1.40 o
5 8 -3 1.84 0.76 0.94 o
6 8 -3 0.36 0.23 1.27 o
0 9 -3 1.26 0.08 2.14 o
1 9 -3 1.07 0.63 1.13 o
2 9 -3 3.31 -0.71 1.10 o
3 9 -3 1.22 -1.97 1.97 o
4 9 -3 0.20 -1.75 1.75 o
1 10 -3 0.20 0.16 2.34 o
2 0 -2 474.59 448.00 6.53 o
4 0 -2 2.24 1.38 0.44 o
6 0 -2 60.32 57.69 3.99 o
8 0 -2 48.85 43.75 4.83 o
10 0 -2 26.56 24.96 4.19 o
12 0 -2 2.66 0.57 1.56 o
1 1 -2 88.11 69.28 2.79 o
2 1 -2 97.25 84.58 2.82 o
3 1 -2 47.06 45.83 1.81 o
4 1 -2 88.83 95.21 2.93 o
5 1 -2 14.57 13.65 1.23 o
6 1 -2 9.84 9.98 1.35 o
7 1 -2 0.40 0.53 0.65 o
8 1 -2 82.48 90.71 5.00 o
9 1 -2 1.66 1.78 0.87 o
10 1 -2 16.67 18.99 2.61 o
11 1 -2 5.45 6.22 1.72 o
12 1 -2 1.94 3.26 1.38 o
13 1 -2 2.91 3.58 1.35 o
14 1 -2 1.16 -0.39 2.16 o
0 2 -2 33.75 31.59 4.38 o
1 2 -2 120.73 123.97 2.90 o
2 2 -2 166.91 162.06 3.58 o
3 2 -2 82.14 81.90 2.71 o
4 2 -2 52.77 51.42 2.29 o
5 2 -2 4.46 3.78 0.66 o
6 2 -2 11.36 14.04 1.54 o
7 2 -2 1.42 1.64 0.86 o
8 2 -2 4.44 3.62 1.13 o
9 2 -2 2.61 2.53 1.10 o
10 2 -2 2.99 3.22 1.26 o
11 2 -2 7.45 9.00 1.91 o
12 2 -2 2.52 1.41 1.23 o
13 2 -2 5.36 7.52 2.55 o
1 3 -2 47.59 52.19 2.08 o
2 3 -2 54.60 52.43 2.32 o
3 3 -2 46.84 45.07 2.18 o
4 3 -2 17.78 16.78 1.55 o
5 3 -2 0.56 1.05 0.59 o
6 3 -2 21.39 21.71 2.23 o
7 3 -2 11.46 10.93 1.69 o
8 3 -2 1.19 0.30 0.63 o
9 3 -2 0.24 0.47 0.66 o
10 3 -2 1.42 0.61 0.74 o
11 3 -2 6.71 6.44 3.01 o
12 3 -2 1.98 3.33 1.68 o
13 3 -2 6.03 2.92 2.60 o
0 4 -2 53.21 56.09 3.20 o
1 4 -2 5.09 5.89 0.78 o
2 4 -2 6.94 5.20 0.71 o
3 4 -2 15.79 14.84 1.40 o
4 4 -2 26.35 26.75 2.01 o
5 4 -2 9.47 9.18 1.40 o
6 4 -2 4.17 4.35 1.07 o
7 4 -2 14.23 13.27 1.88 o
8 4 -2 2.67 0.76 0.74 o
9 4 -2 5.82 5.20 1.39 o
10 4 -2 5.86 5.78 1.42 o
11 4 -2 0.97 0.83 0.75 o
12 4 -2 1.79 4.57 2.28 o
13 4 -2 0.79 -2.15 2.15 o
1 5 -2 23.45 25.19 1.85 o
2 5 -2 10.49 11.55 1.42 o
3 5 -2 8.41 9.25 1.28 o
4 5 -2 16.66 17.44 2.03 o
5 5 -2 14.27 10.54 1.58 o
6 5 -2 3.21 4.05 1.02 o
7 5 -2 37.00 36.23 3.27 o
8 5 -2 19.10 19.80 2.50 o
9 5 -2 6.43 4.82 2.46 o
10 5 -2 1.79 1.12 1.31 o
11 5 -2 0.07 1.61 1.65 o
12 5 -2 0.12 -0.54 1.60 o
0 6 -2 6.33 3.26 0.99 o
1 6 -2 5.88 4.99 0.95 o
2 6 -2 70.14 69.91 4.29 o
3 6 -2 12.88 16.82 2.58 o
4 6 -2 34.20 34.06 3.65 o
5 6 -2 2.57 1.80 0.70 o
6 6 -2 3.31 3.17 1.26 o
7 6 -2 8.72 7.12 1.64 o
8 6 -2 1.80 1.28 1.19 o
9 6 -2 5.16 3.29 1.26 o
10 6 -2 3.65 3.29 2.30 o
11 6 -2 0.18 -0.58 1.95 o
1 7 -2 5.55 8.98 1.52 o
2 7 -2 9.67 9.65 1.49 o
3 7 -2 5.88 6.00 1.38 o
4 7 -2 37.66 38.12 4.06 o
5 7 -2 2.06 2.94 1.51 o
6 7 -2 19.92 22.94 3.53 o
7 7 -2 1.01 -0.51 0.82 o
8 7 -2 11.90 10.74 2.04 o
9 7 -2 0.20 -1.49 1.96 o
10 7 -2 0.40 1.27 2.32 o
11 7 -2 0.20 6.31 4.01 o
0 8 -2 2.03 2.20 1.14 o
1 8 -2 0.81 2.25 0.74 o
2 8 -2 34.72 38.44 3.46 o
3 8 -2 0.38 0.87 0.84 o
4 8 -2 16.29 17.06 3.50 o
5 8 -2 5.27 7.47 1.95 o
6 8 -2 2.62 1.38 1.36 o
7 8 -2 4.33 7.88 2.08 o
8 8 -2 2.14 3.85 2.21 o
9 8 -2 0.54 1.73 1.64 o
1 9 -2 0.59 0.20 1.25 o
2 9 -2 1.26 1.31 1.06 o
3 9 -2 3.08 3.18 2.11 o
4 9 -2 4.98 2.65 2.12 o
5 9 -2 6.66 4.29 3.19 o
6 9 -2 1.79 -1.96 1.96 o
7 9 -2 2.59 3.58 3.86 o
8 9 -2 1.99 1.67 2.46 o
0 10 -2 7.52 7.61 2.51 o
1 10 -2 1.08 0.41 1.70 o
2 10 -2 1.85 1.94 0.93 o
3 10 -2 0.95 1.47 0.93 o
4 10 -2 0.60 -1.66 1.66 o
5 10 -2 0.94 0.90 1.72 o
6 10 -2 1.15 3.88 2.45 o
1 11 -2 0.19 -0.55 1.18 o
2 11 -2 1.44 1.49 1.87 o
3 11 -2 2.07 4.52 3.57 o
4 11 -2 1.37 0.01 1.83 o
2 0 -1 2331.30 2271.64 14.43 o
4 0 -1 112.10 105.49 5.21 o
6 0 -1 63.84 65.16 6.29 o
8 0 -1 100.85 103.22 7.51 o
10 0 -1 131.21 140.31 10.06 o
12 0 -1 10.63 11.26 4.30 o
14 0 -1 0.95 3.97 2.35 o
0 1 -1 5616.74 5980.39 33.30 o
1 1 -1 153.51 149.29 2.76 o
2 1 -1 773.16 741.09 6.17 o
3 1 -1 51.35 48.55 1.67 o
4 1 -1 183.51 180.12 4.21 o
5 1 -1 17.86 18.16 1.46 o
6 1 -1 66.58 69.71 3.08 o
7 1 -1 4.16 7.24 1.38 o
8 1 -1 50.16 49.06 3.75 o
9 1 -1 20.16 21.55 2.69 o
10 1 -1 47.62 52.24 4.31 o
11 1 -1 2.99 4.90 1.44 o
12 1 -1 15.04 15.39 3.46 o
13 1 -1 5.24 3.20 1.21 o
14 1 -1 3.70 4.14 1.45 o
1 2 -1 236.98 229.37 6.60 o
2 2 -1 13.37 12.53 1.59 o
3 2 -1 89.67 83.86 2.81 o
4 2 -1 97.23 98.75 2.91 o
5 2 -1 9.10 10.50 1.07 o
6 2 -1 198.53 207.81 5.97 o
7 2 -1 4.31 4.60 0.83 o
8 2 -1 22.99 22.29 2.05 o
9 2 -1 5.06 4.24 1.24 o
10 2 -1 18.74 21.78 2.89 o
11 2 -1 43.16 43.49 4.21 o
12 2 -1 3.12 4.73 1.66 o
13 2 -1 6.47 5.34 2.08 o
14 2 -1 2.48 4.33 3.77 o
0 3 -1 136.95 136.60 4.46 o
1 3 -1 77.99 75.71 3.39 o
2 3 -1 17.84 16.78 1.45 o
3 3 -1 12.64 11.23 1.49 o
4 3 -1 410.36 397.02 9.86 o
5 3 -1 3.33 2.42 0.97 o
6 3 -1 27.40 32.67 3.27 o
7 3 -1 2.76 4.07 1.19 o
8 3 -1 9.43 9.55 1.42 o
9 3 -1 7.40 6.79 1.51 o
10 3 -1 0.70 1.04 1.03 o
11 3 -1 5.17 5.85 1.45 o
12 3 -1 3.71 1.69 1.38 o
13 3 -1 3.81 7.47 1.87 o
14 3 -1 1.26 1.66 2.48 o
1 4 -1 44.76 48.91 2.42 o
2 4 -1 292.75 272.53 6.80 o
3 4 -1 1.75 0.93 0.96 o
4 4 -1 4.18 1.88 0.81 o
5 4 -1 17.11 14.59 2.06 o
6 4 -1 24.40 25.10 3.13 o
7 4 -1 54.32 51.94 4.66 o
8 4 -1 6.60 5.06 1.70 o
9 4 -1 7.63 10.37 2.42 o
10 4 -1 9.38 10.51 2.15 o
11 4 -1 5.71 3.88 1.40 o
12 4 -1 1.74 1.58 1.28 o
13 4 -1 2.37 2.50 1.35 o
0 5 -1 317.66 307.97 11.14 o
1 5 -1 5.14 4.78 1.30 o
2 5 -1 59.61 64.47 3.15 o
3 5 -1 13.49 11.25 1.89 o
4 5 -1 18.09 16.10 2.92 o
5 5 -1 37.79 37.28 3.66 o
6 5 -1 3.74 4.66 1.28 o
7 5 -1 17.86 16.00 2.75 o
8 5 -1 1.04 0.90 0.99 o
9 5 -1 9.38 9.95 2.54 o
10 5 -1 9.56 9.81 2.39 o
11 5 -1 0.70 -0.96 0.96 o
12 5 -1 5.01 4.34 1.73 o
13 5 -1 0.84 2.17 1.06 o
1 6 -1 25.63 28.48 2.20 o
2 6 -1 5.57 5.59 0.94 o
3 6 -1 6.31 4.60 1.23 o
4 6 -1 34.58 32.32 6.80 o
5 6 -1 21.47 18.89 2.82 o
6 6 -1 136.44 147.86 8.08 o
7 6 -1 27.80 29.82 3.84 o
8 6 -1 15.23 16.68 3.01 o
9 6 -1 1.56 1.50 1.26 o
10 6 -1 5.95 7.11 2.23 o
11 6 -1 0.19 -0.71 1.37 o
12 6 -1 2.03 -0.72 1.29 o
0 7 -1 22.29 21.16 3.57 o
1 7 -1 3.07 4.36 0.97 o
2 7 -1 49.06 46.64 3.26 o
3 7 -1 3.28 2.64 1.31 o
4 7 -1 202.98 201.61 11.79 o
5 7 -1 2.82 1.98 1.27 o
6 7 -1 17.79 18.79 3.05 o
7 7 -1 7.25 3.80 1.56 o
8 7 -1 7.43 7.30 2.12 o
9 7 -1 0.75 -0.18 0.87 o
10 7 -1 3.24 -0.19 1.54 o
11 7 -1 0.02 2.48 1.87 o
1 8 -1 0.46 0.03 1.24 o
2 8 -1 2.08 2.07 0.94 o
3 8 -1 18.78 18.79 3.25 o
4 8 -1 23.34 31.79 4.02 o
5 8 -1 6.09 6.98 2.79 o
6 8 -1 61.18 67.45 6.09 o
7 8 -1 2.25 1.97 1.08 o
8 8 -1 5.93 5.02 1.67 o
9 8 -1 0.75 2.98 1.97 o
10 8 -1 5.74 6.31 2.49 o
0 9 -1 34.37 32.07 5.12 o
1 9 -1 0.42 0.57 0.99 o
2 9 -1 10.05 6.45 1.77 o
3 9 -1 2.42 3.84 1.83 o
4 9 -1 13.09 17.56 3.16 o
5 9 -1 10.29 11.80 3.03 o
6 9 -1 5.62 3.58 2.50 o
7 9 -1 5.04 6.89 2.48 o
8 9 -1 4.97 4.76 1.85 o
9 9 -1 0.56 -0.18 1.07 o
1 10 -1 2.37 2.38 2.44 o
2 10 -1 10.63 10.65 2.12 o
3 10 -1 0.24 1.53 1.23 o
4 10 -1 0.14 0.21 1.04 o
5 10 -1 4.76 7.85 2.41 o
6 10 -1 2.23 5.25 2.18 o
7 10 -1 1.25 0.29 1.07 o
0 11 -1 8.29 2.90 2.41 o
1 11 -1 2.07 4.51 1.54 o
2 11 -1 1.25 2.63 2.48 o
3 11 -1 1.33 1.23 0.74 o
4 11 -1 2.91 4.95 2.46 o
5 11 -1 0.21 -1.15 2.75 o
2 0 0 110.31 126.00 4.33 o
4 0 0 293.38 308.04 9.07 o
6 0 0 30.38 23.95 3.25 o
8 0 0 105.87 107.25 7.72 o
10 0 0 95.78 99.19 8.38 o
12 0 0 45.50 38.23 5.70 o
14 0 0 2.36 4.07 2.54 o
2 1 0 2675.25 2728.70 21.56 o
3 1 0 31.55 42.36 2.29 o
4 1 0 3.57 5.84 0.84 o
5 1 0 0.01 0.32 0.41 o
6 1 0 226.61 222.12 4.50 o
7 1 0 22.08 21.36 1.16 o
8 1 0 6.04 4.59 1.27 o
9 1 0 2.45 2.45 1.24 o
10 1 0 143.75 150.47 7.33 o
11 1 0 35.11 33.22 3.60 o
12 1 0 14.08 16.33 2.74 o
13 1 0 0.99 2.24 1.30 o
14 1 0 0.38 1.39 1.65 o
0 2 0 1774.46 1610.12 19.91 o
1 2 0 29.75 31.16 1.16 o
2 2 0 14.30 14.51 0.87 o
3 2 0 0.32 0.56 0.20 o
4 2 0 960.67 989.82 31.79 o
5 2 0 24.52 28.64 2.75 o
6 2 0 78.13 88.93 5.03 o
7 2 0 1.80 2.92 1.16 o
8 2 0 0.08 0.71 0.88 o
9 2 0 57.67 57.62 4.37 o
10 2 0 21.36 22.43 2.93 o
11 2 0 0.02 1.56 1.44 o
12 2 0 3.32 1.84 1.20 o
13 2 0 10.57 8.31 2.06 o
14 2 0 2.36 2.95 1.60 o
1 3 0 8.23 11.38 1.32 o
2 3 0 467.95 435.01 6.87 o
3 3 0 6.08 5.20 0.49 o
4 3 0 32.73 32.73 2.87 o
5 3 0 13.60 13.48 1.91 o
6 3 0 335.77 418.90 16.22 o
7 3 0 4.45 4.07 3.06 o
8 3 0 4.58 4.17 1.21 o
9 3 0 14.12 15.59 2.28 o
10 3 0 0.04 -0.88 1.01 o
11 3 0 43.27 43.10 4.29 o
12 3 0 0.03 -1.40 2.26 o
13 3 0 1.26 -0.05 1.38 o
14 3 0 2.91 2.43 1.34 o
0 4 0 1216.81 1174.07 19.37 o
1 4 0 7.94 8.47 1.31 o
2 4 0 0.46 0.39 0.39 o
3 4 0 1.67 1.38 0.87 o
4 4 0 124.79 99.81 10.78 o
5 4 0 59.79 53.74 5.35 o
6 4 0 11.08 9.58 2.11 o
7 4 0 0.50 -1.11 1.11 o
8 4 0 12.74 15.15 2.70 o
9 4 0 0.01 2.08 1.09 o
10 4 0 3.22 2.41 1.00 o
11 4 0 1.60 1.65 2.10 o
12 4 0 10.32 12.25 2.67 o
13 4 0 0.08 1.90 1.50 o
1 5 0 77.46 83.67 4.15 o
2 5 0 134.23 140.68 3.77 o
3 5 0 0.68 0.70 0.49 o
4 5 0 0.02 0.21 0.83 o
5 5 0 21.05 22.33 2.82 o
6 5 0 47.76 46.50 4.42 o
7 5 0 69.93 71.92 5.62 o
8 5 0 1.11 -1.32 1.32 o
9 5 0 5.44 2.04 1.42 o
10 5 0 15.95 9.12 3.06 o
11 5 0 0.06 -0.43 1.16 o
12 5 0 4.04 2.48 1.32 o
13 5 0 0.12 -0.14 0.95 o
0 6 0 205.29 215.18 10.28 o
1 6 0 0.41 0.01 0.80 o
2 6 0 0.63 2.48 1.12 o
3 6 0 0.76 1.45 0.98 o
4 6 0 293.63 287.04 13.06 o
5 6 0 9.36 7.31 1.92 o
6 6 0 16.48 16.95 2.64 o
7 6 0 7.84 3.00 3.01 o
8 6 0 11.93 15.95 3.04 o
9 6 0 6.27 2.34 1.87 o
10 6 0 8.20 5.84 1.65 o
11 6 0 0.32 0.30 1.54 o
12 6 0 4.35 3.61 2.77 o
1 7 0 1.93 2.41 0.87 o
2 7 0 10.56 8.15 2.04 o
3 7 0 27.52 27.26 2.97 o
4 7 0 12.58 13.88 3.28 o
5 7 0 24.22 27.73 4.49 o
6 7 0 263.64 294.01 12.15 o
7 7 0 1.45 1.96 1.22 o
8 7 0 1.87 2.51 1.02 o
9 7 0 0.39 0.66 1.56 o
10 7 0 9.26 13.94 3.33 o
11 7 0 0.00 2.37 1.97 o
0 8 0 40.40 35.94 4.74 o
1 8 0 4.26 3.04 1.17 o
2 8 0 0.81 -0.50 1.00 o
3 8 0 0.12 0.76 1.12 o
4 8 0 157.79 179.94 9.65 o
5 8 0 19.83 18.68 3.94 o
6 8 0 25.26 25.69 3.86 o
7 8 0 5.24 4.81 2.15 o
8 8 0 0.70 1.78 1.85 o
9 8 0 0.18 -1.69 2.85 o
10 8 0 2.95 0.41 1.46 o
1 9 0 2.68 3.93 1.46 o
2 9 0 5.61 5.91 1.70 o
3 9 0 9.52 8.80 2.00 o
4 9 0 2.59 -0.74 2.11 o
5 9 0 0.14 0.45 1.53 o
6 9 0 13.32 16.53 3.36 o
7 9 0 4.40 3.69 1.58 o
8 9 0 0.23 -0.42 1.15 o
9 9 0 0.01 0.77 0.87 o
0 10 0 46.48 49.02 6.57 o
1 10 0 1.13 0.96 1.36 o
2 10 0 1.83 1.34 1.18 o
3 10 0 6.36 4.62 1.47 o
4 10 0 0.16 1.51 1.90 o
5 10 0 2.38 6.63 2.60 o
6 10 0 0.83 0.45 1.58 o
7 10 0 0.79 0.45 1.65 o
1 11 0 1.40 2.18 1.40 o
2 11 0 7.61 10.52 2.40 o
3 11 0 1.50 3.58 2.02 o
4 11 0 0.62 5.58 2.17 o
5 11 0 4.00 8.66 3.30 o
2 0 1 2330.79 2267.66 10.66 o
4 0 1 112.09 105.58 3.66 o
6 0 1 63.88 65.22 5.07 o
8 0 1 100.94 91.07 7.08 o
10 0 1 131.19 144.01 10.16 o
12 0 1 10.63 9.06 3.53 o
14 0 1 0.95 2.48 2.50 o
0 1 1 5615.81 5694.00 24.02 o
1 1 1 153.61 151.60 2.64 o
2 1 1 773.60 756.39 7.89 o
3 1 1 51.43 51.01 1.22 o
4 1 1 183.49 175.08 2.57 o
5 1 1 17.86 19.57 1.30 o
6 1 1 66.65 64.34 2.49 o
7 1 1 4.18 2.85 0.70 o
8 1 1 50.19 46.54 2.97 o
9 1 1 20.15 22.42 2.66 o
10 1 1 47.59 49.14 4.13 o
11 1 1 2.99 2.58 0.91 o
12 1 1 15.04 20.29 3.06 o
13 1 1 5.24 6.24 1.85 o
14 1 1 3.70 7.62 2.11 o
1 2 1 236.97 225.43 4.11 o
2 2 1 13.38 14.04 1.12 o
3 2 1 89.71 85.99 2.08 o
4 2 1 97.27 96.32 2.67 o
5 2 1 9.13 11.12 0.96 o
6 2 1 198.49 215.18 4.58 o
7 2 1 4.31 3.28 1.03 o
8 2 1 23.00 23.81 2.13 o
9 2 1 5.07 7.03 1.59 o
10 2 1 18.74 21.70 2.81 o
11 2 1 43.15 41.56 4.11 o
12 2 1 3.12 1.77 1.00 o
13 2 1 6.48 6.38 1.52 o
14 2 1 2.48 5.67 1.91 o
0 3 1 136.89 142.73 3.49 o
1 3 1 77.98 80.24 1.99 o
2 3 1 17.85 16.98 1.01 o
3 3 1 12.65 11.62 0.81 o
4 3 1 410.28 412.20 4.67 o
5 3 1 3.33 3.75 0.58 o
6 3 1 27.38 26.65 2.06 o
7 3 1 2.75 2.86 0.95 o
8 3 1 9.43 8.70 1.30 o
9 3 1 7.41 8.14 1.79 o
10 3 1 0.71 -0.97 0.97 o
11 3 1 5.16 5.40 1.45 o
12 3 1 3.72 4.44 1.15 o
13 3 1 3.81 4.06 1.89 o
14 3 1 1.26 -1.99 1.99 o
1 4 1 44.71 47.27 2.27 o
2 4 1 292.70 282.73 5.72 o
3 4 1 1.75 1.54 0.38 o
4 4 1 4.17 4.84 1.23 o
5 4 1 17.08 16.74 1.49 o
6 4 1 24.38 28.43 2.14 o
7 4 1 54.33 51.50 4.42 o
8 4 1 6.60 8.19 2.22 o
9 4 1 7.64 8.50 1.58 o
10 4 1 9.38 8.35 1.99 o
11 4 1 5.71 6.71 1.65 o
12 4 1 1.74 1.90 1.08 o
13 4 1 2.37 2.68 1.37 o
0 5 1 317.61 341.27 12.00 o
1 5 1 5.15 2.90 0.89 o
2 5 1 59.65 64.62 2.92 o
3 5 1 13.51 12.77 1.41 o
4 5 1 18.09 13.68 1.45 o
5 5 1 37.79 36.96 1.98 o
6 5 1 3.75 2.48 1.50 o
7 5 1 17.86 19.17 2.95 o
8 5 1 1.04 3.85 1.63 o
9 5 1 9.38 9.71 2.25 o
10 5 1 9.56 9.05 2.07 o
11 5 1 0.69 1.12 1.07 o
12 5 1 5.01 2.81 1.05 o
13 5 1 0.84 -1.32 1.48 o
1 6 1 25.67 25.02 2.54 o
2 6 1 5.59 6.54 1.38 o
3 6 1 6.31 6.81 1.34 o
4 6 1 34.59 33.37 2.28 o
5 6 1 21.46 20.82 2.72 o
6 6 1 136.41 143.34 7.95 o
7 6 1 27.80 26.66 3.44 o
8 6 1 15.24 15.98 2.85 o
9 6 1 1.57 3.10 0.99 o
10 6 1 5.95 2.08 1.33 o
11 6 1 0.19 -1.28 1.28 o
12 6 1 2.03 3.48 1.53 o
0 7 1 22.30 24.40 3.83 o
1 7 1 3.06 1.82 1.04 o
2 7 1 49.11 46.17 3.95 o
3 7 1 3.28 2.38 1.20 o
4 7 1 202.93 210.85 11.97 o
5 7 1 2.82 5.83 2.61 o
6 7 1 17.78 16.15 2.84 o
7 7 1 7.25 5.15 1.87 o
8 7 1 7.42 13.99 3.08 o
9 7 1 0.75 0.49 1.08 o
10 7 1 3.23 0.79 1.68 o
11 7 1 0.02 1.91 1.61 o
1 8 1 0.46 -1.06 1.06 o
2 8 1 2.08 2.56 0.85 o
3 8 1 18.78 19.81 2.70 o
4 8 1 23.36 22.90 4.11 o
5 8 1 6.10 8.77 2.64 o
6 8 1 61.15 75.84 6.47 o
7 8 1 2.25 2.30 2.42 o
8 8 1 5.94 9.85 2.50 o
9 8 1 0.75 1.23 2.40 o
10 8 1 5.74 6.83 2.61 o
0 9 1 34.37 33.37 5.05 o
1 9 1 0.42 0.51 1.05 o
2 9 1 10.07 8.94 1.93 o
3 9 1 2.43 -0.47 1.24 o
4 9 1 13.08 11.14 3.02 o
5 9 1 10.30 14.86 3.61 o
6 9 1 5.62 4.85 1.77 o
7 9 1 5.05 7.89 2.18 o
8 9 1 4.97 6.47 2.34 o
9 9 1 0.56 3.45 1.97 o
1 10 1 2.38 -0.85 0.85 o
2 10 1 10.62 12.60 2.31 o
3 10 1 0.24 1.19 1.02 o
4 10 1 0.14 -0.37 3.89 o
5 10 1 4.76 7.51 3.09 o
6 10 1 2.23 2.06 1.20 o
7 10 1 1.25 1.16 1.46 o
0 11 1 8.28 2.22 5.99 o
1 11 1 2.07 1.28 1.86 o
2 11 1 1.24 2.45 1.72 o
3 11 1 1.33 1.79 2.14 o
4 11 1 2.91 2.31 1.77 o
5 11 1 0.21 -2.64 2.64 o
0 0 2 580.28 579.68 18.09 o
2 0 2 474.77 450.41 10.48 o
4 0 2 2.24 2.31 0.52 o
6 0 2 60.38 59.93 3.09 o
8 0 2 48.87 57.02 5.45 o
10 0 2 26.54 31.17 3.61 o
12 0 2 2.66 8.27 3.49 o
1 1 2 88.14 75.32 4.94 o
2 1 2 97.18 88.37 1.76 o
3 1 2 47.06 44.49 1.26 o
4 1 2 88.84 93.91 1.85 o
5 1 2 14.59 14.48 0.99 o
6 1 2 9.85 10.73 0.99 o
7 1 2 0.40 0.92 0.53 o
8 1 2 82.52 89.07 3.58 o
9 1 2 1.66 2.20 0.84 o
10 1 2 16.66 15.82 1.91 o
11 1 2 5.45 6.86 2.11 o
12 1 2 1.94 3.19 1.47 o
13 1 2 2.91 3.04 2.12 o
0 2 2 33.74 32.10 2.61 o
1 2 2 120.71 128.11 2.64 o
2 2 2 166.98 168.82 3.01 o
3 2 2 82.20 86.49 2.03 o
4 2 2 52.73 52.98 1.69 o
5 2 2 4.46 5.03 0.67 o
6 2 2 11.36 14.67 1.27 o
7 2 2 1.43 1.72 0.60 o
8 2 2 4.44 4.12 0.77 o
9 2 2 2.61 2.26 0.74 o
10 2 2 2.99 4.33 1.44 o
11 2 2 7.45 5.57 2.06 o
12 2 2 2.52 5.39 2.19 o
13 2 2 5.35 2.67 1.68 o
1 3 2 47.55 53.84 1.61 o
2 3 2 54.56 57.84 2.44 o
3 3 2 46.81 47.87 1.81 o
4 3 2 17.79 16.89 1.25 o
5 3 2 0.56 0.12 0.67 o
6 3 2 21.36 23.27 1.65 o
7 3 2 11.46 11.56 1.19 o
8 3 2 1.19 1.48 0.57 o
9 3 2 0.24 0.30 0.62 o
10 3 2 1.42 0.94 1.54 o
11 3 2 6.71 6.89 2.30 o
12 3 2 1.98 -0.67 1.28 o
13 3 2 6.03 5.58 2.49 o
0 4 2 53.16 62.15 2.92 o
1 4 2 5.10 6.22 0.58 o
2 4 2 6.93 8.46 0.92 o
3 4 2 15.78 17.58 1.81 o
4 4 2 26.33 24.44 1.97 o
5 4 2 9.47 9.66 1.11 o
6 4 2 4.17 3.97 0.95 o
7 4 2 14.22 17.15 1.45 o
8 4 2 2.67 1.32 0.78 o
9 4 2 5.82 4.22 1.13 o
10 4 2 5.87 4.92 1.48 o
11 4 2 0.97 -0.70 1.02 o
12 4 2 1.79 2.84 1.39 o
13 4 2 0.78 -0.71 2.36 o
1 5 2 23.47 29.20 1.86 o
2 5 2 10.48 11.86 1.44 o
3 5 2 8.40 7.64 1.52 o
4 5 2 16.66 17.62 1.88 o
5 5 2 14.26 14.24 1.86 o
6 5 2 3.21 3.41 1.28 o
7 5 2 36.98 39.55 2.99 o
8 5 2 19.10 21.92 2.80 o
9 5 2 6.44 5.73 1.91 o
10 5 2 1.79 1.35 1.22 o
11 5 2 0.07 -0.34 1.37 o
12 5 2 0.12 2.15 1.58 o
0 6 2 6.33 8.94 2.30 o
1 6 2 5.89 7.27 1.25 o
2 6 2 70.17 76.86 4.07 o
3 6 2 12.89 8.61 1.61 o
4 6 2 34.19 33.19 2.71 o
5 6 2 2.58 1.89 0.77 o
6 6 2 3.31 1.83 0.80 o
7 6 2 8.72 10.36 2.11 o
8 6 2 1.79 3.52 1.52 o
9 6 2 5.16 2.47 1.05 o
10 6 2 3.65 1.03 1.13 o
11 6 2 0.18 0.78 2.05 o
1 7 2 5.56 7.42 1.62 o
2 7 2 9.67 10.10 1.89 o
3 7 2 5.88 6.60 1.87 o
4 7 2 37.67 38.96 4.22 o
5 7 2 2.06 2.19 0.80 o
6 7 2 19.89 18.86 2.73 o
7 7 2 1.01 1.48 1.17 o
8 7 2 11.90 14.30 3.59 o
9 7 2 0.20 3.10 1.77 o
10 7 2 0.40 1.46 3.43 o
11 7 2 0.20 3.74 3.55 o
0 8 2 2.03 2.66 1.64 o
1 8 2 0.81 0.60 1.39 o
2 8 2 34.75 36.39 4.18 o
3 8 2 0.38 -0.37 1.27 o
4 8 2 16.27 16.98 5.15 o
5 8 2 5.28 11.15 4.04 o
6 8 2 2.62 1.65 1.30 o
7 8 2 4.34 9.02 2.79 o
8 8 2 2.15 4.24 1.76 o
9 8 2 0.54 -0.83 2.84 o
1 9 2 0.59 0.25 2.54 o
2 9 2 1.26 0.12 3.46 o
3 9 2 3.09 7.63 3.92 o
4 9 2 4.98 7.72 2.97 o
5 9 2 6.66 11.24 4.33 o
6 9 2 1.79 3.86 2.08 o
7 9 2 2.59 1.11 1.48 o
8 9 2 2.00 1.43 1.00 o
0 10 2 7.51 13.43 5.40 o
1 10 2 1.08 0.16 1.37 o
2 10 2 1.85 0.34 1.13 o
3 10 2 0.95 -0.96 1.47 o
4 10 2 0.60 1.06 3.13 o
5 10 2 0.94 0.06 1.52 o
6 10 2 1.15 0.87 1.14 o
1 11 2 0.19 1.96 1.55 o
2 11 2 1.44 2.79 1.69 o
2 0 3 1.93 0.76 1.48 o
4 0 3 20.29 21.58 1.78 o
6 0 3 6.60 6.51 1.42 o
8 0 3 38.23 40.57 4.99 o
10 0 3 1.56 0.18 1.05 o
0 1 3 0.15 -0.75 0.75 o
1 1 3 11.59 12.50 1.33 o
2 1 3 57.91 62.92 2.75 o
3 1 3 19.94 21.80 1.39 o
4 1 3 1.13 0.86 0.40 o
5 1 3 2.20 2.06 0.66 o
6 1 3 10.98 13.10 1.56 o
7 1 3 1.44 2.10 1.11 o
8 1 3 6.98 9.45 1.74 o
9 1 3 0.40 0.69 1.26 o
10 1 3 3.28 1.82 1.14 o
11 1 3 0.92 0.08 1.80 o
1 2 3 21.33 26.78 1.88 o
2 2 3 1.83 1.17 0.58 o
3 2 3 26.91 30.11 1.77 o
4 2 3 11.74 13.14 1.24 o
5 2 3 12.72 16.27 1.83 o
6 2 3 0.12 -0.44 0.87 o
7 2 3 1.94 -0.02 0.85 o
8 2 3 7.08 5.51 3.02 o
9 2 3 0.59 1.26 0.78 o
10 2 3 0.04 -0.16 0.84 o
0 3 3 2.38 0.92 0.78 o
1 3 3 9.70 11.95 1.19 o
2 3 3 6.37 8.43 1.16 o
3 3 3 20.65 21.62 1.65 o
4 3 3 4.55 4.80 1.22 o
5 3 3 0.59 1.08 0.96 o
6 3 3 0.11 -0.61 0.67 o
7 3 3 0.33 -0.87 1.25 o
8 3 3 0.17 0.21 0.71 o
9 3 3 3.00 1.75 2.66 o
10 3 3 0.75 -2.26 2.26 o
1 4 3 4.17 5.43 0.76 o
2 4 3 2.04 2.94 0.87 o
3 4 3 12.24 13.27 2.18 o
4 4 3 0.16 0.02 1.28 o
5 4 3 0.88 2.43 1.17 o
6 4 3 0.88 0.24 0.69 o
7 4 3 10.34 10.87 1.91 o
8 4 3 4.01 7.06 1.64 o
9 4 3 3.30 1.41 1.23 o
0 5 3 1.83 4.53 1.54 o
1 5 3 8.79 12.79 1.88 o
2 5 3 10.82 14.68 2.08 o
3 5 3 7.71 9.47 1.82 o
4 5 3 0.60 0.73 0.75 o
5 5 3 1.71 3.73 1.28 o
6 5 3 1.47 1.07 1.19 o
7 5 3 5.21 8.60 1.74 o
8 5 3 0.40 2.03 1.13 o
9 5 3 4.62 6.71 2.87 o
1 6 3 8.58 14.01 2.48 o
2 6 3 4.31 4.51 2.33 o
3 6 3 3.10 4.51 1.56 o
4 6 3 10.79 9.94 2.40 o
5 6 3 1.10 1.26 0.75 o
6 6 3 0.06 0.04 0.91 o
7 6 3 3.75 1.84 3.10 o
8 6 3 6.01 5.49 2.68 o
1 7 3 0.68 0.89 1.37 o
2 7 3 19.56 26.69 4.75 o
3 7 3 0.62 1.18 1.21 o
4 7 3 1.54 -0.33 1.04 o
5 7 3 0.27 0.04 0.97 o
6 7 3 0.30 0.31 0.98 o
7 7 3 0.08 -0.41 1.08 o
8 7 3 0.17 1.08 1.48 o
2 8 3 0.59 -3.15 3.15 o
3 8 3 1.60 1.21 4.23 o
4 8 3 5.68 3.97 3.51 o
5 8 3 1.84 3.00 2.15 o
6 8 3 0.36 0.29 1.21 o
7 8 3 0.43 1.59 2.03 o
0 0 4 5.22 6.51 2.34 o
2 0 4 4.35 2.92 0.91 o
4 0 4 0.85 0.23 0.72 o
6 0 4 2.56 4.77 1.72 o
8 0 4 0.97 -0.64 1.42 o
1 1 4 1.11 0.82 0.63 o
2 1 4 0.98 0.15 0.46 o
3 1 4 1.74 0.63 0.56 o
4 1 4 0.89 0.60 0.71 o
5 1 4 2.64 4.69 0.98 o
6 1 4 2.05 2.00 0.73 o
7 1 4 0.40 -0.68 0.68 o
8 1 4 2.80 2.70 2.46 o
0 2 4 1.66 3.64 1.25 o
1 2 4 1.16 0.81 0.44 o
2 2 4 2.21 1.14 0.57 o
3 2 4 7.12 7.94 1.06 o
4 2 4 0.36 1.36 0.68 o
5 2 4 1.30 0.79 0.83 o
6 2 4 0.40 1.17 0.99 o
7 2 4 0.97 0.75 1.21 o
1 3 4 0.56 0.54 0.60 o
2 3 4 0.10 0.88 0.72 o
3 3 4 3.88 3.30 1.37 o
4 3 4 0.27 1.22 0.91 o
5 3 4 3.60 3.32 1.20 o
6 3 4 0.20 1.96 1.24 o
7 3 4 1.36 2.14 1.32 o
0 4 4 0.51 1.97 1.92 o
1 4 4 3.36 4.19 0.89 o
2 4 4 0.05 0.66 0.59 o
3 4 4 1.74 1.85 0.95 o
4 4 4 0.08 0.05 1.30 o
5 4 4 0.13 3.23 1.14 o
6 4 4 0.23 1.60 1.19 o
7 4 4 0.27 -0.09 2.00 o
1 5 4 3.37 7.96 2.13 o
2 5 4 0.75 1.65 1.64 o
3 5 4 2.16 1.67 0.90 o
4 5 4 0.38 -0.85 1.24 o
5 5 4 0.07 -2.09 2.09 o
6 5 4 0.45 -0.34 2.02 o
0 6 4 2.85 10.42 3.65 o
1 6 4 2.01 3.65 1.66 o
2 6 4 1.90 0.81 1.26 o
3 6 4 0.63 0.83 1.58 o
4 6 4 0.36 -2.58 2.58 o
