#------------------------------------------------------------------------------
#$Date: 2019-11-22 19:03:52 +0200 (Fri, 22 Nov 2019) $
#$Revision: 231268 $
#$URL: file:///home/coder/svn-repositories/cod/cif/4/51/63/4516348.cif $
#------------------------------------------------------------------------------
#
# This file is available in the Crystallography Open Database (COD),
# http://www.crystallography.net/
#
# All data on this site have been placed in the public domain by the
# contributors.
#
data_4516348
loop_
_publ_author_name
'Patyk, Ewa'
'Podsiad\/lo, Marcin'
'Katrusiak, Andrzej'
_publ_section_title
;
 CH&#x00B7;&#x00B7;&#x00B7;N Bonds and Dynamics in Isostructural
 Pyrimidine Polymorphs
;
_journal_issue                   8
_journal_name_full               'Crystal Growth &amp; Design'
_journal_page_first              4039
_journal_paper_doi               10.1021/acs.cgd.5b00657
_journal_volume                  15
_journal_year                    2015
_chemical_formula_moiety         'C4 H4 N2'
_chemical_formula_sum            'C4 H4 N2'
_chemical_formula_weight         80.09
_chemical_melting_point          293.15
_chemical_name_common            pyrimidine
_chemical_name_systematic
; 
pyrimidine phase II
;
_space_group_IT_number           33
_space_group_name_Hall           'P 2c -2n'
_space_group_name_H-M_alt        'P n a 21'
_symmetry_cell_setting           orthorhombic
_symmetry_space_group_name_Hall  'P 2c -2n'
_symmetry_space_group_name_H-M   'P n a 21'
_atom_sites_solution_hydrogens   geom
_atom_sites_solution_primary     direct
_atom_sites_solution_secondary   difmap
_audit_creation_method           SHELXL-97
_cell_angle_alpha                90.00
_cell_angle_beta                 90.00
_cell_angle_gamma                90.00
_cell_formula_units_Z            4
_cell_length_a                   11.664(3)
_cell_length_b                   9.479(3)
_cell_length_c                   3.7749(11)
_cell_measurement_reflns_used    3045
_cell_measurement_temperature    225.0(1)
_cell_measurement_theta_max      28.06
_cell_measurement_theta_min      3.49
_cell_volume                     417.4(2)
_computing_cell_refinement       'CrysAlisRED (Oxford Diffraction, 2004)'
_computing_data_collection       'CrysAlisCCD (Oxford Diffraction, 2004)'
_computing_data_reduction        'CrysAlisRED (Oxford Diffraction, 2004)'
_computing_molecular_graphics    'SHELXTL (Sheldrick, 1990)'
_computing_publication_material  'SHELXL--97 (Sheldrick, 1997)'
_computing_structure_refinement  'SHELXL--97 (Sheldrick, 1997)'
_computing_structure_solution    'SHELXS--97 (Sheldrick, 1997)'
_diffrn_ambient_pressure         100
_diffrn_ambient_temperature      225.0(1)
_diffrn_measured_fraction_theta_full 0.915
_diffrn_measured_fraction_theta_max 0.915
_diffrn_measurement_device_type  'KM-4 CCD'
_diffrn_measurement_method       \w-scans
_diffrn_radiation_monochromator  graphite
_diffrn_radiation_source         'fine-focus sealed tube'
_diffrn_radiation_type           MoK\a
_diffrn_radiation_wavelength     0.71073
_diffrn_reflns_av_R_equivalents  0.0517
_diffrn_reflns_av_sigmaI/netI    0.0552
_diffrn_reflns_limit_h_max       14
_diffrn_reflns_limit_h_min       -14
_diffrn_reflns_limit_k_max       11
_diffrn_reflns_limit_k_min       -11
_diffrn_reflns_limit_l_max       4
_diffrn_reflns_limit_l_min       -4
_diffrn_reflns_number            3045
_diffrn_reflns_theta_full        28.06
_diffrn_reflns_theta_max         28.06
_diffrn_reflns_theta_min         3.49
_diffrn_standards_decay_%        0
_diffrn_standards_interval_count 0
_diffrn_standards_number         0
_exptl_absorpt_coefficient_mu    0.084
_exptl_absorpt_correction_T_max  0.983
_exptl_absorpt_correction_T_min  0.983
_exptl_absorpt_correction_type   numerical
_exptl_absorpt_process_details
; 
 Correction for absorption was made using XEMP (SHELXTL, 
 Sheldrick (1990)).
;
_exptl_crystal_colour            colourless
_exptl_crystal_density_diffrn    1.275
_exptl_crystal_density_method    'not measured'
_exptl_crystal_description       irregular
_exptl_crystal_F_000             168
_exptl_crystal_size_max          0.20
_exptl_crystal_size_mid          0.20
_exptl_crystal_size_min          0.20
_refine_diff_density_max         0.121
_refine_diff_density_min         -0.109
_refine_diff_density_rms         0.033
_refine_ls_abs_structure_details 'Flack H D (1983), Acta Cryst. A39, 876-881'
_refine_ls_abs_structure_Flack   5(7)
_refine_ls_extinction_coef       0.051(8)
_refine_ls_extinction_expression Fc^*^=kFc[1+0.001xFc^2^\l^3^/sin(2\q)]^-1/4^
_refine_ls_extinction_method     SHELXL
_refine_ls_goodness_of_fit_ref   1.023
_refine_ls_hydrogen_treatment    constr
_refine_ls_matrix_type           full
_refine_ls_number_parameters     56
_refine_ls_number_reflns         880
_refine_ls_number_restraints     1
_refine_ls_restrained_S_all      1.022
_refine_ls_R_factor_all          0.0962
_refine_ls_R_factor_gt           0.0495
_refine_ls_shift/su_max          0.000
_refine_ls_shift/su_mean         0.000
_refine_ls_structure_factor_coef Fsqd
_refine_ls_weighting_details
'calc w=1/[\s^2^(Fo^2^)+(0.0377P)^2^+0.0000P] where P=(Fo^2^+2Fc^2^)/3'
_refine_ls_weighting_scheme      calc
_refine_ls_wR_factor_gt          0.0959
_refine_ls_wR_factor_ref         0.1199
_reflns_number_gt                535
_reflns_number_total             880
_reflns_threshold_expression     >2sigma(I)
_cod_data_source_file            cg5b00657_si_002.cif
_cod_data_source_block           phaseII_225K
_cod_original_cell_volume        417.3(2)
_cod_database_code               4516348
loop_
_symmetry_equiv_pos_as_xyz
'x, y, z'
'-x, -y, z+1/2'
'x+1/2, -y+1/2, z'
'-x+1/2, y+1/2, z+1/2'
loop_
_atom_site_label
_atom_site_type_symbol
_atom_site_fract_x
_atom_site_fract_y
_atom_site_fract_z
_atom_site_U_iso_or_equiv
_atom_site_adp_type
_atom_site_occupancy
_atom_site_symmetry_multiplicity
_atom_site_calc_flag
_atom_site_refinement_flags
N1 N 0.1276(2) 0.3969(2) 0.0235(9) 0.0567(8) Uani 1 1 d .
N3 N 0.01194(19) 0.1905(3) 0.0153(8) 0.0588(9) Uani 1 1 d .
C2 C 0.0307(2) 0.3259(3) 0.0754(12) 0.0549(10) Uani 1 1 d .
H2 H -0.0308 0.3774 0.1640 0.066 Uiso 1 1 calc R
C4 C 0.1016(3) 0.1194(3) -0.1035(10) 0.0583(10) Uani 1 1 d .
H4 H 0.0929 0.0235 -0.1484 0.070 Uiso 1 1 calc R
C5 C 0.2065(3) 0.1794(3) -0.1638(9) 0.0539(9) Uani 1 1 d .
H5 H 0.2685 0.1272 -0.2469 0.065 Uiso 1 1 calc R
C6 C 0.2148(3) 0.3209(3) -0.0943(8) 0.0562(12) Uani 1 1 d .
H6 H 0.2848 0.3655 -0.1315 0.067 Uiso 1 1 calc R
loop_
_atom_site_aniso_label
_atom_site_aniso_U_11
_atom_site_aniso_U_22
_atom_site_aniso_U_33
_atom_site_aniso_U_23
_atom_site_aniso_U_13
_atom_site_aniso_U_12
N1 0.0512(14) 0.0424(14) 0.077(2) -0.0043(15) -0.0046(16) 0.0016(12)
N3 0.0462(14) 0.0466(14) 0.083(2) -0.0041(18) -0.0015(15) -0.0008(12)
C2 0.0465(17) 0.0510(19) 0.067(3) -0.007(2) -0.0023(19) 0.0115(15)
C4 0.062(2) 0.0392(17) 0.074(3) -0.0054(16) -0.0072(16) 0.0026(16)
C5 0.0469(17) 0.055(2) 0.060(2) -0.0093(18) -0.0008(16) 0.0074(15)
C6 0.0427(16) 0.058(2) 0.068(3) -0.003(2) -0.0002(14) -0.0078(15)
loop_
_atom_type_symbol
_atom_type_description
_atom_type_scat_dispersion_real
_atom_type_scat_dispersion_imag
_atom_type_scat_source
C C 0.0033 0.0016 'International Tables Vol C Tables 4.2.6.8 and 6.1.1.4'
H H 0.0000 0.0000 'International Tables Vol C Tables 4.2.6.8 and 6.1.1.4'
N N 0.0061 0.0033 'International Tables Vol C Tables 4.2.6.8 and 6.1.1.4'
loop_
_geom_angle_atom_site_label_1
_geom_angle_atom_site_label_2
_geom_angle_atom_site_label_3
_geom_angle
C6 N1 C2 115.3(2)
C2 N3 C4 115.0(3)
N3 C2 N1 127.3(3)
N3 C4 C5 123.5(3)
C4 C5 C6 116.0(3)
N1 C6 C5 122.9(3)
loop_
_geom_bond_atom_site_label_1
_geom_bond_atom_site_label_2
_geom_bond_distance
N1 C6 1.324(4)
N1 C2 1.330(3)
N3 C2 1.322(3)
N3 C4 1.323(3)
C4 C5 1.369(4)
C5 C6 1.370(4)
loop_
_refln_index_h
_refln_index_k
_refln_index_l
_refln_F_squared_calc
_refln_F_squared_meas
_refln_F_squared_sigma
_refln_observed_status
0 0 -4 7.78 8.82 2.41 o
2 0 -4 4.84 2.64 0.94 o
4 0 -4 1.25 -0.06 0.73 o
6 0 -4 3.43 5.69 1.59 o
1 1 -4 1.43 0.89 0.57 o
2 1 -4 1.44 0.53 0.57 o
3 1 -4 2.53 1.94 0.51 o
4 1 -4 0.92 0.62 0.82 o
5 1 -4 3.70 4.48 1.04 o
6 1 -4 2.88 3.12 0.85 o
7 1 -4 0.52 1.47 0.90 o
0 2 -4 2.32 4.16 1.20 o
1 2 -4 1.69 1.51 0.75 o
2 2 -4 2.55 2.77 0.58 o
3 2 -4 9.46 9.07 1.15 o
4 2 -4 0.72 0.58 1.00 o
5 2 -4 1.86 0.47 1.07 o
6 2 -4 0.46 1.18 0.99 o
7 2 -4 1.52 0.96 1.08 o
1 3 -4 0.85 0.46 0.88 o
2 3 -4 0.09 1.23 0.80 o
3 3 -4 5.63 6.05 1.11 o
4 3 -4 0.35 0.64 0.89 o
5 3 -4 5.20 4.55 1.24 o
6 3 -4 0.27 0.48 0.99 o
7 3 -4 1.90 0.26 1.21 o
0 4 -4 0.80 3.50 1.33 o
1 4 -4 4.32 4.66 1.05 o
2 4 -4 0.04 1.54 0.94 o
3 4 -4 2.61 3.52 1.00 o
4 4 -4 0.08 -0.08 1.10 o
5 4 -4 0.20 1.78 1.04 o
6 4 -4 0.37 -1.55 1.55 o
7 4 -4 0.36 -3.57 3.57 o
1 5 -4 5.15 6.43 2.86 o
2 5 -4 1.08 2.78 1.03 o
3 5 -4 2.81 2.70 1.45 o
4 5 -4 0.42 1.10 1.98 o
5 5 -4 0.10 -2.06 2.06 o
6 5 -4 0.78 3.73 3.20 o
0 6 -4 3.90 6.75 2.83 o
1 6 -4 2.68 6.12 2.03 o
2 6 -4 2.37 1.74 3.15 o
4 6 -4 0.74 1.36 1.67 o
2 0 -3 2.22 1.50 0.84 o
4 0 -3 23.08 24.92 2.25 o
6 0 -3 8.79 8.90 2.32 o
8 0 -3 44.09 51.59 4.94 o
10 0 -3 2.06 3.50 2.75 o
0 1 -3 0.05 -0.93 1.11 o
1 1 -3 13.75 11.92 1.28 o
2 1 -3 67.17 68.23 2.73 o
3 1 -3 23.43 22.86 1.48 o
4 1 -3 2.19 2.46 0.57 o
5 1 -3 2.66 3.82 0.87 o
6 1 -3 13.10 15.08 1.63 o
7 1 -3 1.94 3.41 0.92 o
8 1 -3 9.67 12.17 2.01 o
9 1 -3 0.45 1.04 1.03 o
10 1 -3 3.63 1.43 3.75 o
11 1 -3 1.15 4.30 2.77 o
1 2 -3 24.83 29.73 2.18 o
2 2 -3 2.18 2.50 0.58 o
3 2 -3 33.55 34.85 1.93 o
4 2 -3 13.51 14.00 1.43 o
5 2 -3 15.68 16.41 1.68 o
6 2 -3 0.23 -0.56 0.73 o
7 2 -3 2.49 1.63 0.82 o
8 2 -3 7.76 4.53 2.31 o
9 2 -3 0.91 1.28 0.97 o
10 2 -3 0.05 1.06 1.42 o
0 3 -3 2.81 2.52 0.80 o
1 3 -3 11.32 11.68 1.11 o
2 3 -3 7.19 10.17 1.23 o
3 3 -3 25.17 25.17 2.06 o
4 3 -3 5.17 2.96 1.23 o
5 3 -3 0.75 1.47 1.01 o
6 3 -3 0.20 0.20 0.96 o
7 3 -3 0.56 0.56 1.15 o
8 3 -3 0.17 -0.38 0.93 o
9 3 -3 3.67 3.12 1.64 o
10 3 -3 1.02 -2.92 2.92 o
1 4 -3 6.46 7.14 0.97 o
2 4 -3 2.32 3.18 1.38 o
3 4 -3 15.43 16.33 2.45 o
4 4 -3 0.25 0.60 0.92 o
5 4 -3 0.93 -0.35 0.95 o
6 4 -3 1.30 2.65 1.31 o
7 4 -3 13.50 13.86 2.31 o
8 4 -3 4.90 8.03 1.83 o
9 4 -3 3.94 2.82 1.91 o
0 5 -3 2.23 3.10 1.19 o
1 5 -3 9.84 10.44 1.73 o
2 5 -3 13.35 14.97 2.37 o
3 5 -3 10.78 10.36 1.93 o
4 5 -3 1.04 0.83 0.85 o
5 5 -3 1.91 2.23 0.76 o
6 5 -3 1.79 6.30 1.53 o
7 5 -3 6.38 6.48 2.85 o
8 5 -3 0.68 2.75 1.47 o
9 5 -3 6.00 8.19 3.66 o
1 6 -3 10.85 14.42 2.58 o
2 6 -3 5.23 5.03 2.36 o
3 6 -3 4.02 2.26 1.50 o
4 6 -3 12.96 12.48 2.95 o
5 6 -3 1.70 0.74 1.04 o
6 6 -3 0.07 -1.09 1.09 o
7 6 -3 4.99 1.47 5.55 o
8 6 -3 6.87 13.40 4.29 o
1 7 -3 0.78 5.39 2.61 o
2 7 -3 24.00 21.46 4.29 o
3 7 -3 1.06 0.75 0.82 o
4 7 -3 1.88 3.21 1.71 o
5 7 -3 0.37 0.44 1.08 o
6 7 -3 0.48 1.99 1.39 o
7 7 -3 0.20 0.44 1.74 o
8 7 -3 0.39 1.98 2.03 o
2 8 -3 0.87 0.68 1.37 o
3 8 -3 2.02 1.51 3.95 o
4 8 -3 6.56 7.36 2.06 o
5 8 -3 1.99 -2.54 2.54 o
6 8 -3 0.53 1.21 1.36 o
7 8 -3 0.49 2.75 2.55 o
2 9 -3 3.94 5.89 3.47 o
0 0 -2 607.92 586.53 19.04 o
2 0 -2 517.28 497.16 5.71 o
4 0 -2 2.64 2.72 0.53 o
6 0 -2 68.61 68.26 3.34 o
8 0 -2 57.01 53.11 5.29 o
10 0 -2 30.41 26.29 3.40 o
12 0 -2 3.18 3.68 2.86 o
1 1 -2 93.19 85.49 2.29 o
2 1 -2 104.77 96.42 1.92 o
3 1 -2 52.29 49.93 1.39 o
4 1 -2 95.82 102.61 2.01 o
5 1 -2 16.34 16.74 1.12 o
6 1 -2 10.76 11.78 1.06 o
7 1 -2 0.36 0.01 0.62 o
8 1 -2 90.38 95.69 3.73 o
9 1 -2 1.98 2.29 0.80 o
10 1 -2 17.74 15.22 2.18 o
11 1 -2 6.60 10.31 2.89 o
12 1 -2 2.69 4.54 2.28 o
13 1 -2 3.29 1.65 1.17 o
0 2 -2 34.56 36.63 3.72 o
1 2 -2 128.66 130.31 2.72 o
2 2 -2 181.55 186.24 3.91 o
3 2 -2 89.50 93.93 2.19 o
4 2 -2 54.83 56.68 1.81 o
5 2 -2 4.57 5.07 0.76 o
6 2 -2 13.36 14.39 1.31 o
7 2 -2 1.94 2.67 0.63 o
8 2 -2 5.23 5.73 0.97 o
9 2 -2 2.96 1.74 0.62 o
10 2 -2 3.42 3.19 1.81 o
11 2 -2 8.47 9.53 2.33 o
12 2 -2 3.38 6.31 3.74 o
13 2 -2 6.85 5.17 2.48 o
1 3 -2 54.25 57.66 1.71 o
2 3 -2 58.14 58.90 2.31 o
3 3 -2 52.88 52.32 1.89 o
4 3 -2 18.72 18.52 1.35 o
5 3 -2 0.62 0.71 0.67 o
6 3 -2 23.60 25.76 1.83 o
7 3 -2 14.03 15.88 1.46 o
8 3 -2 1.44 2.79 0.99 o
9 3 -2 0.10 0.08 0.99 o
10 3 -2 1.70 1.93 1.39 o
11 3 -2 8.23 10.83 2.79 o
12 3 -2 2.48 2.72 2.15 o
13 3 -2 6.63 4.91 1.86 o
0 4 -2 58.28 66.48 3.11 o
1 4 -2 4.91 5.33 0.57 o
2 4 -2 8.29 7.90 1.00 o
3 4 -2 19.66 19.25 1.94 o
4 4 -2 28.81 29.27 2.21 o
5 4 -2 11.09 13.40 1.43 o
6 4 -2 4.66 4.90 0.89 o
7 4 -2 14.79 19.39 1.87 o
8 4 -2 3.59 2.17 1.65 o
9 4 -2 7.06 4.61 2.13 o
10 4 -2 6.90 8.12 2.72 o
11 4 -2 1.08 0.77 1.41 o
12 4 -2 1.79 0.57 2.23 o
13 4 -2 1.15 2.74 4.94 o
1 5 -2 27.03 28.01 1.87 o
2 5 -2 12.33 13.59 1.71 o
3 5 -2 10.41 10.65 1.63 o
4 5 -2 19.72 19.74 2.63 o
5 5 -2 16.76 18.63 1.91 o
6 5 -2 2.81 2.98 0.79 o
7 5 -2 42.03 41.17 3.20 o
8 5 -2 21.15 24.00 3.01 o
9 5 -2 6.66 6.48 2.23 o
10 5 -2 1.78 3.34 1.50 o
11 5 -2 0.10 -1.24 1.40 o
12 5 -2 0.28 -0.68 2.09 o
0 6 -2 7.49 4.79 1.54 o
1 6 -2 5.80 6.03 1.13 o
2 6 -2 81.23 83.74 4.36 o
3 6 -2 15.76 14.45 2.19 o
4 6 -2 36.95 32.34 4.45 o
5 6 -2 2.74 1.07 0.84 o
6 6 -2 4.17 3.46 0.86 o
7 6 -2 10.18 10.79 2.21 o
8 6 -2 1.99 1.61 3.40 o
9 6 -2 6.11 2.83 3.13 o
10 6 -2 4.18 5.40 2.07 o
11 6 -2 0.29 0.16 1.70 o
1 7 -2 5.57 4.20 1.39 o
2 7 -2 10.85 10.62 1.97 o
3 7 -2 6.82 5.24 1.74 o
4 7 -2 42.11 41.92 4.67 o
5 7 -2 2.88 2.65 0.81 o
6 7 -2 21.59 28.79 3.48 o
7 7 -2 0.95 0.62 1.06 o
8 7 -2 13.92 17.29 3.88 o
9 7 -2 0.17 -0.76 2.36 o
10 7 -2 0.43 -0.18 6.45 o
11 7 -2 0.22 -0.81 3.85 o
0 8 -2 2.31 1.74 1.34 o
1 8 -2 1.03 1.33 1.27 o
2 8 -2 39.37 43.43 4.50 o
3 8 -2 0.40 0.62 1.01 o
4 8 -2 19.19 16.24 5.06 o
5 8 -2 6.24 2.60 2.36 o
6 8 -2 4.35 6.82 2.33 o
7 8 -2 5.23 7.34 2.52 o
8 8 -2 2.71 0.93 3.70 o
9 8 -2 0.58 -1.07 1.71 o
1 9 -2 0.78 0.16 1.25 o
2 9 -2 1.30 0.87 3.31 o
3 9 -2 3.37 2.45 2.65 o
4 9 -2 5.15 0.52 1.77 o
5 9 -2 7.06 11.28 5.01 o
6 9 -2 2.15 4.20 2.25 o
7 9 -2 3.27 -0.19 2.34 o
8 9 -2 2.65 5.33 2.77 o
0 10 -2 8.29 10.07 4.33 o
1 10 -2 1.62 3.04 2.32 o
2 10 -2 1.85 3.29 2.04 o
3 10 -2 1.05 -2.61 2.61 o
4 10 -2 0.57 0.86 1.55 o
5 10 -2 1.01 -0.66 1.97 o
6 10 -2 1.55 0.92 2.04 o
1 11 -2 0.18 0.39 1.64 o
2 11 -2 1.78 0.48 1.19 o
2 0 -1 2369.39 2308.63 43.28 o
4 0 -1 114.07 102.04 4.43 o
6 0 -1 65.00 65.79 5.22 o
8 0 -1 107.69 105.20 7.81 o
10 0 -1 141.88 157.47 10.79 o
12 0 -1 12.19 10.02 3.33 o
14 0 -1 0.89 0.04 1.45 o
0 1 -1 5679.42 5828.28 21.33 o
1 1 -1 155.84 154.61 2.35 o
2 1 -1 807.75 794.97 6.89 o
3 1 -1 52.18 52.75 1.28 o
4 1 -1 185.39 179.39 2.50 o
5 1 -1 18.53 18.71 1.29 o
6 1 -1 71.39 69.03 2.61 o
7 1 -1 4.55 4.92 1.03 o
8 1 -1 55.19 49.47 3.15 o
9 1 -1 21.00 17.46 2.35 o
10 1 -1 54.20 58.10 4.69 o
11 1 -1 3.24 1.74 1.86 o
12 1 -1 16.64 16.57 2.89 o
13 1 -1 6.32 4.09 1.85 o
14 1 -1 4.69 6.28 2.02 o
1 2 -1 242.31 239.12 3.10 o
2 2 -1 13.59 13.63 0.92 o
3 2 -1 94.99 92.28 2.21 o
4 2 -1 98.45 100.88 2.84 o
5 2 -1 10.17 12.67 1.06 o
6 2 -1 204.84 218.22 4.71 o
7 2 -1 3.81 2.87 0.81 o
8 2 -1 24.07 24.57 2.15 o
9 2 -1 4.81 3.60 1.81 o
10 2 -1 20.45 21.35 2.90 o
11 2 -1 47.06 49.64 4.73 o
12 2 -1 3.91 3.86 1.49 o
13 2 -1 7.04 7.38 2.92 o
14 2 -1 2.88 5.56 2.10 o
0 3 -1 144.31 143.90 2.86 o
1 3 -1 78.72 79.17 2.36 o
2 3 -1 17.38 17.64 1.10 o
3 3 -1 13.48 12.14 0.91 o
4 3 -1 419.47 414.40 4.52 o
5 3 -1 3.90 3.59 0.69 o
6 3 -1 28.53 28.57 1.83 o
7 3 -1 2.25 2.12 0.96 o
8 3 -1 10.43 12.18 1.58 o
9 3 -1 6.57 10.69 2.01 o
10 3 -1 0.85 0.47 0.94 o
11 3 -1 5.34 7.32 2.07 o
12 3 -1 4.20 6.50 2.36 o
13 3 -1 4.72 3.68 1.79 o
14 3 -1 1.42 -0.11 3.64 o
1 4 -1 49.28 48.89 2.53 o
2 4 -1 303.26 278.50 5.82 o
3 4 -1 2.05 1.40 0.77 o
4 4 -1 4.55 4.28 1.30 o
5 4 -1 17.35 16.56 1.42 o
6 4 -1 26.83 29.49 2.28 o
7 4 -1 59.42 51.23 4.56 o
8 4 -1 8.03 5.60 1.48 o
9 4 -1 7.03 8.24 1.96 o
10 4 -1 10.01 12.13 3.77 o
11 4 -1 5.68 8.53 2.02 o
12 4 -1 2.09 3.86 1.45 o
13 4 -1 2.26 4.01 2.26 o
0 5 -1 342.58 347.23 12.19 o
1 5 -1 5.51 5.26 1.16 o
2 5 -1 66.85 71.85 3.14 o
3 5 -1 15.14 12.45 1.35 o
4 5 -1 19.59 15.86 1.61 o
5 5 -1 38.20 35.48 1.91 o
6 5 -1 3.78 3.01 0.79 o
7 5 -1 18.08 19.68 3.03 o
8 5 -1 1.16 1.17 1.13 o
9 5 -1 11.10 10.95 2.38 o
10 5 -1 12.38 12.06 2.67 o
11 5 -1 0.76 2.23 1.46 o
12 5 -1 5.28 2.60 1.59 o
13 5 -1 0.84 1.89 4.01 o
1 6 -1 24.66 25.03 2.64 o
2 6 -1 6.11 4.31 1.12 o
3 6 -1 6.93 4.89 1.10 o
4 6 -1 37.91 35.04 2.36 o
5 6 -1 22.28 21.40 2.60 o
6 6 -1 142.79 155.89 8.52 o
7 6 -1 26.95 28.39 3.75 o
8 6 -1 16.43 16.92 3.07 o
9 6 -1 1.38 1.23 1.08 o
10 6 -1 6.37 5.84 2.70 o
11 6 -1 0.36 -1.10 1.10 o
12 6 -1 2.50 0.72 1.49 o
0 7 -1 25.33 24.70 4.06 o
1 7 -1 3.06 1.90 0.98 o
2 7 -1 53.39 48.03 3.21 o
3 7 -1 3.93 4.08 1.14 o
4 7 -1 220.33 245.53 13.46 o
5 7 -1 4.06 1.74 1.29 o
6 7 -1 21.34 20.88 3.32 o
7 7 -1 8.01 9.12 2.44 o
8 7 -1 7.38 3.04 1.55 o
9 7 -1 0.79 0.99 1.16 o
10 7 -1 4.05 2.61 1.53 o
11 7 -1 0.06 2.12 1.34 o
1 8 -1 0.23 0.56 1.02 o
2 8 -1 2.60 3.22 1.74 o
3 8 -1 18.23 18.14 2.68 o
4 8 -1 25.88 31.24 5.15 o
5 8 -1 6.29 8.54 2.96 o
6 8 -1 67.26 70.05 6.46 o
7 8 -1 3.53 1.56 1.69 o
8 8 -1 7.30 7.98 2.25 o
9 8 -1 1.10 2.47 1.55 o
10 8 -1 6.59 8.32 2.52 o
0 9 -1 35.55 36.32 5.50 o
1 9 -1 0.54 0.04 1.48 o
2 9 -1 10.32 9.11 1.95 o
3 9 -1 2.25 0.46 1.02 o
4 9 -1 15.42 14.65 3.85 o
5 9 -1 11.47 12.25 3.51 o
6 9 -1 7.50 9.32 2.56 o
7 9 -1 5.82 5.34 2.11 o
8 9 -1 5.62 6.68 2.24 o
9 9 -1 0.63 0.23 1.10 o
1 10 -1 2.64 1.99 1.14 o
2 10 -1 11.02 11.74 2.54 o
3 10 -1 0.43 0.80 1.17 o
4 10 -1 0.09 -2.70 2.70 o
5 10 -1 4.95 5.47 2.81 o
6 10 -1 2.22 2.92 2.36 o
7 10 -1 1.67 2.95 2.95 o
0 11 -1 8.78 8.78 3.05 o
1 11 -1 2.82 3.22 1.24 o
2 11 -1 1.50 1.44 2.32 o
3 11 -1 1.40 2.02 2.83 o
4 11 -1 3.55 7.55 3.04 o
5 11 -1 0.26 3.98 2.96 o
2 0 0 111.64 133.91 4.10 o
4 0 0 302.81 304.90 9.00 o
6 0 0 28.92 26.04 3.37 o
8 0 0 117.43 102.99 7.62 o
10 0 0 107.37 110.06 8.77 o
12 0 0 49.70 47.92 6.43 o
14 0 0 3.68 2.93 4.69 o
2 1 0 2664.65 2655.47 17.44 o
3 1 0 35.42 44.65 1.86 o
4 1 0 3.60 4.89 0.63 o
5 1 0 0.02 0.30 0.30 o
6 1 0 225.56 216.02 4.51 o
7 1 0 21.70 23.83 1.51 o
8 1 0 8.32 5.25 1.53 o
9 1 0 2.21 2.98 1.33 o
10 1 0 156.02 161.78 7.55 o
11 1 0 37.53 34.89 3.78 o
12 1 0 14.66 14.50 2.67 o
13 1 0 1.28 0.70 1.13 o
14 1 0 0.48 2.73 1.61 o
0 2 0 1764.33 1723.30 18.02 o
1 2 0 30.63 29.96 1.16 o
2 2 0 15.60 14.54 1.31 o
3 2 0 0.34 0.82 0.26 o
4 2 0 973.11 976.16 16.05 o
5 2 0 26.07 23.88 2.52 o
6 2 0 76.24 80.17 4.82 o
7 2 0 1.73 1.52 0.77 o
8 2 0 0.17 0.44 0.93 o
9 2 0 56.64 54.64 4.27 o
10 2 0 24.13 21.30 2.71 o
11 2 0 0.02 -0.16 1.05 o
12 2 0 3.48 1.97 1.33 o
13 2 0 12.55 10.37 2.44 o
14 2 0 2.99 1.42 1.50 o
1 3 0 8.53 13.52 1.65 o
2 3 0 473.62 451.81 5.57 o
3 3 0 7.46 5.22 1.20 o
4 3 0 31.91 28.66 2.64 o
5 3 0 12.67 11.10 1.70 o
6 3 0 347.65 398.19 11.05 o
7 3 0 5.84 6.36 1.78 o
8 3 0 4.92 3.56 1.24 o
9 3 0 13.02 12.30 2.20 o
10 3 0 0.02 -0.69 1.19 o
11 3 0 43.89 41.84 4.28 o
12 3 0 0.03 -0.48 1.51 o
13 3 0 1.73 1.34 2.29 o
14 3 0 3.85 1.97 1.53 o
0 4 0 1268.94 1253.25 21.00 o
1 4 0 8.62 11.08 1.52 o
2 4 0 0.33 0.86 0.43 o
3 4 0 1.96 2.34 0.91 o
4 4 0 121.68 119.32 2.82 o
5 4 0 58.77 63.95 3.59 o
6 4 0 11.98 12.25 2.22 o
7 4 0 0.73 0.29 0.87 o
8 4 0 14.51 15.64 2.66 o
9 4 0 0.09 0.56 2.17 o
10 4 0 4.84 3.64 1.14 o
11 4 0 1.16 2.11 1.16 o
12 4 0 11.38 10.95 2.55 o
13 4 0 0.06 1.29 1.19 o
1 5 0 75.83 81.53 4.19 o
2 5 0 138.79 137.31 3.08 o
3 5 0 0.64 -0.45 0.45 o
4 5 0 0.03 0.74 0.94 o
5 5 0 17.80 17.07 2.58 o
6 5 0 48.38 45.73 4.30 o
7 5 0 70.99 72.61 5.54 o
8 5 0 2.77 2.35 1.44 o
9 5 0 5.44 2.80 1.57 o
10 5 0 17.05 18.37 3.35 o
11 5 0 0.00 0.40 1.29 o
12 5 0 4.64 3.14 1.80 o
13 5 0 0.08 -0.37 2.22 o
0 6 0 224.30 249.97 11.61 o
1 6 0 0.39 0.05 0.95 o
2 6 0 0.83 3.29 1.49 o
3 6 0 0.77 -0.27 0.84 o
4 6 0 312.98 320.46 14.13 o
5 6 0 7.48 4.45 2.50 o
6 6 0 16.88 13.68 2.50 o
7 6 0 7.11 7.07 2.00 o
8 6 0 11.20 13.83 2.53 o
9 6 0 7.12 9.66 2.43 o
10 6 0 11.57 8.78 2.94 o
11 6 0 0.43 1.43 1.48 o
12 6 0 4.31 6.02 1.77 o
1 7 0 1.19 2.54 1.13 o
2 7 0 10.97 11.35 1.93 o
3 7 0 27.18 31.23 3.23 o
4 7 0 15.47 16.58 2.65 o
5 7 0 23.57 24.65 4.47 o
6 7 0 279.47 301.14 12.40 o
7 7 0 0.60 3.04 2.01 o
8 7 0 1.44 0.75 0.77 o
9 7 0 0.46 -0.44 1.04 o
10 7 0 10.43 12.65 3.83 o
11 7 0 0.03 1.78 2.20 o
0 8 0 42.07 36.24 5.12 o
1 8 0 3.81 5.25 1.59 o
2 8 0 0.61 -0.24 1.22 o
3 8 0 0.26 0.20 1.29 o
4 8 0 172.78 182.15 9.96 o
5 8 0 22.96 21.84 4.45 o
6 8 0 30.01 27.48 4.01 o
7 8 0 6.02 5.50 2.19 o
8 8 0 0.52 -0.57 1.11 o
9 8 0 0.23 -0.07 2.44 o
10 8 0 2.99 2.56 1.64 o
1 9 0 2.55 2.94 1.22 o
2 9 0 5.14 3.42 1.34 o
3 9 0 7.69 10.32 2.24 o
4 9 0 3.45 0.29 1.48 o
5 9 0 0.10 0.67 2.19 o
6 9 0 14.80 14.93 4.80 o
7 9 0 6.09 7.90 2.45 o
8 9 0 0.43 -1.25 1.80 o
9 9 0 0.03 0.97 1.51 o
0 10 0 47.57 42.45 6.49 o
1 10 0 2.06 1.41 1.90 o
2 10 0 1.94 1.81 1.16 o
3 10 0 6.48 6.68 1.92 o
4 10 0 0.14 -0.23 1.37 o
5 10 0 2.51 5.35 2.81 o
6 10 0 0.85 -1.67 1.94 o
7 10 0 0.63 1.46 1.54 o
1 11 0 1.67 2.52 1.56 o
2 11 0 8.29 7.81 2.17 o
3 11 0 2.33 3.25 1.48 o
4 11 0 1.13 1.08 2.16 o
5 11 0 4.11 2.96 5.72 o
2 0 1 2368.87 2314.72 36.71 o
4 0 1 114.06 103.64 5.21 o
6 0 1 65.04 64.84 5.11 o
8 0 1 107.78 101.34 7.52 o
10 0 1 141.85 151.08 10.39 o
12 0 1 12.18 15.38 3.84 o
14 0 1 0.89 -0.02 1.31 o
0 1 1 5678.49 5829.82 20.24 o
1 1 1 155.94 149.10 2.47 o
2 1 1 808.22 786.94 6.44 o
3 1 1 52.26 49.18 1.71 o
4 1 1 185.36 179.51 4.31 o
5 1 1 18.53 20.12 1.60 o
6 1 1 71.46 73.26 3.34 o
7 1 1 4.57 4.94 1.23 o
8 1 1 55.22 47.84 3.68 o
9 1 1 20.99 22.13 2.78 o
10 1 1 54.17 59.21 4.61 o
11 1 1 3.25 5.18 1.44 o
12 1 1 16.64 12.30 2.31 o
13 1 1 6.31 6.17 1.84 o
14 1 1 4.68 5.09 1.74 o
1 2 1 242.31 230.18 4.94 o
2 2 1 13.60 14.10 1.47 o
3 2 1 95.02 93.23 2.66 o
4 2 1 98.49 100.50 2.57 o
5 2 1 10.20 9.92 1.02 o
6 2 1 204.80 212.37 6.19 o
7 2 1 3.81 2.97 0.81 o
8 2 1 24.08 26.92 2.82 o
9 2 1 4.81 7.76 1.69 o
10 2 1 20.45 22.82 2.94 o
11 2 1 47.05 46.75 4.46 o
12 2 1 3.91 4.00 1.46 o
13 2 1 7.05 9.02 2.36 o
14 2 1 2.88 4.70 3.16 o
0 3 1 144.25 141.04 4.65 o
1 3 1 78.72 82.91 2.88 o
2 3 1 17.39 16.72 1.50 o
3 3 1 13.49 11.69 1.62 o
4 3 1 419.39 422.59 10.35 o
5 3 1 3.89 4.20 0.72 o
6 3 1 28.51 32.07 3.44 o
7 3 1 2.24 1.70 1.16 o
8 3 1 10.42 10.97 1.59 o
9 3 1 6.58 6.46 1.63 o
10 3 1 0.86 1.73 1.08 o
11 3 1 5.33 3.97 1.88 o
12 3 1 4.21 3.58 1.52 o
13 3 1 4.71 1.29 1.89 o
14 3 1 1.42 4.09 3.81 o
1 4 1 49.23 51.85 2.54 o
2 4 1 303.21 286.91 6.12 o
3 4 1 2.05 2.04 1.01 o
4 4 1 4.54 5.32 1.45 o
5 4 1 17.33 17.67 2.45 o
6 4 1 26.82 33.18 3.50 o
7 4 1 59.42 55.86 4.84 o
8 4 1 8.04 6.44 1.76 o
9 4 1 7.03 6.32 2.10 o
10 4 1 10.01 12.85 2.46 o
11 4 1 5.68 5.22 1.77 o
12 4 1 2.09 1.16 1.37 o
13 4 1 2.26 4.13 1.74 o
0 5 1 342.52 354.99 12.62 o
1 5 1 5.52 3.62 0.94 o
2 5 1 66.89 68.50 3.31 o
3 5 1 15.16 15.01 2.29 o
4 5 1 19.58 15.18 3.02 o
5 5 1 38.20 36.80 3.78 o
6 5 1 3.78 2.37 1.49 o
7 5 1 18.08 16.83 2.73 o
8 5 1 1.17 2.81 1.64 o
9 5 1 11.09 9.04 3.76 o
10 5 1 12.38 15.56 3.09 o
11 5 1 0.75 0.76 1.25 o
12 5 1 5.28 7.48 2.17 o
13 5 1 0.84 4.54 3.12 o
1 6 1 24.69 26.80 2.19 o
2 6 1 6.13 6.36 1.09 o
3 6 1 6.93 6.61 1.34 o
4 6 1 37.92 39.29 4.87 o
5 6 1 22.27 23.21 3.23 o
6 6 1 142.76 155.20 8.79 o
7 6 1 26.95 26.41 3.61 o
8 6 1 16.43 16.76 3.05 o
9 6 1 1.38 2.50 1.56 o
10 6 1 6.38 6.44 2.11 o
11 6 1 0.36 3.21 2.26 o
12 6 1 2.50 -0.47 1.22 o
0 7 1 25.34 24.17 3.90 o
1 7 1 3.05 3.02 1.04 o
2 7 1 53.45 50.67 3.27 o
3 7 1 3.93 3.99 1.55 o
4 7 1 220.27 242.96 13.36 o
5 7 1 4.06 4.13 2.71 o
6 7 1 21.34 25.75 5.00 o
7 7 1 8.01 6.95 1.93 o
8 7 1 7.38 8.79 2.07 o
9 7 1 0.79 2.22 1.42 o
10 7 1 4.04 2.93 2.08 o
11 7 1 0.06 0.56 1.63 o
1 8 1 0.23 2.04 1.66 o
2 8 1 2.59 2.55 1.42 o
3 8 1 18.23 21.92 3.43 o
4 8 1 25.89 30.61 4.14 o
5 8 1 6.30 8.73 2.75 o
6 8 1 67.23 72.49 6.51 o
7 8 1 3.53 2.72 1.75 o
8 8 1 7.30 5.99 1.89 o
9 8 1 1.10 -1.21 1.92 o
10 8 1 6.59 3.61 4.05 o
0 9 1 35.55 36.99 5.71 o
1 9 1 0.54 -0.20 1.56 o
2 9 1 10.34 11.43 2.12 o
3 9 1 2.26 3.78 1.76 o
4 9 1 15.41 14.19 3.06 o
5 9 1 11.47 16.90 4.15 o
6 9 1 7.50 6.13 2.55 o
7 9 1 5.82 12.26 2.78 o
8 9 1 5.63 6.94 2.37 o
9 9 1 0.63 0.43 3.45 o
1 10 1 2.64 2.57 1.03 o
2 10 1 11.01 13.46 2.63 o
3 10 1 0.43 -0.90 1.39 o
4 10 1 0.09 0.44 1.77 o
5 10 1 4.94 5.54 4.03 o
6 10 1 2.23 1.30 1.84 o
7 10 1 1.67 8.83 2.77 o
0 11 1 8.77 6.92 2.45 o
1 11 1 2.82 4.42 1.74 o
2 11 1 1.50 1.96 1.75 o
3 11 1 1.40 1.72 1.72 o
4 11 1 3.55 3.32 4.59 o
5 11 1 0.26 -1.56 2.43 o
2 0 2 517.48 494.88 6.60 o
4 0 2 2.64 1.82 0.70 o
6 0 2 68.67 74.03 4.52 o
8 0 2 57.03 56.62 5.64 o
10 0 2 30.38 28.42 4.53 o
12 0 2 3.18 0.39 1.56 o
1 1 2 93.22 84.45 2.56 o
2 1 2 104.70 96.06 3.52 o
3 1 2 52.29 51.09 1.98 o
4 1 2 95.83 101.52 3.11 o
5 1 2 16.36 19.69 1.51 o
6 1 2 10.77 11.74 1.39 o
7 1 2 0.36 0.47 0.71 o
8 1 2 90.42 95.80 5.23 o
9 1 2 1.98 3.92 1.27 o
10 1 2 17.73 15.00 2.39 o
11 1 2 6.59 7.69 1.77 o
12 1 2 2.70 3.85 1.47 o
13 1 2 3.29 2.56 1.53 o
0 2 2 34.55 33.25 4.21 o
1 2 2 128.64 133.06 3.11 o
2 2 2 181.63 176.52 3.87 o
3 2 2 89.56 90.23 2.98 o
4 2 2 54.80 57.73 2.53 o
5 2 2 4.57 6.25 0.86 o
6 2 2 13.36 13.84 1.61 o
7 2 2 1.95 2.17 0.74 o
8 2 2 5.23 5.31 1.68 o
9 2 2 2.95 4.00 1.21 o
10 2 2 3.41 1.96 1.54 o
11 2 2 8.47 9.21 1.96 o
12 2 2 3.39 5.92 1.72 o
13 2 2 6.84 5.67 2.34 o
1 3 2 54.20 54.54 2.20 o
2 3 2 58.10 66.37 2.80 o
3 3 2 52.85 53.24 2.58 o
4 3 2 18.73 18.16 1.73 o
5 3 2 0.63 -0.24 0.73 o
6 3 2 23.57 25.49 2.56 o
7 3 2 14.03 15.30 1.87 o
8 3 2 1.44 1.88 1.87 o
9 3 2 0.10 -0.52 1.15 o
10 3 2 1.70 2.15 1.28 o
11 3 2 8.23 8.91 1.97 o
12 3 2 2.48 5.59 1.82 o
13 3 2 6.64 8.29 3.00 o
0 4 2 58.23 63.78 4.21 o
1 4 2 4.91 4.98 0.74 o
2 4 2 8.28 9.79 1.16 o
3 4 2 19.65 19.73 1.73 o
4 4 2 28.79 29.92 2.32 o
5 4 2 11.09 13.87 1.66 o
6 4 2 4.66 3.42 1.00 o
7 4 2 14.78 16.94 2.27 o
8 4 2 3.59 1.59 1.20 o
9 4 2 7.05 8.38 1.74 o
10 4 2 6.91 7.64 1.96 o
11 4 2 1.07 1.06 1.98 o
12 4 2 1.79 0.34 2.27 o
13 4 2 1.15 2.40 3.17 o
1 5 2 27.05 28.99 2.03 o
2 5 2 12.33 12.54 1.50 o
3 5 2 10.40 12.12 1.62 o
4 5 2 19.72 24.56 2.61 o
5 5 2 16.75 13.60 1.85 o
6 5 2 2.81 6.69 1.48 o
7 5 2 42.01 41.70 3.62 o
8 5 2 21.15 25.75 4.60 o
9 5 2 6.68 9.45 2.37 o
10 5 2 1.78 -0.52 1.14 o
11 5 2 0.10 0.09 1.62 o
12 5 2 0.28 -0.86 1.86 o
0 6 2 7.49 5.46 1.40 o
1 6 2 5.81 5.42 0.98 o
2 6 2 81.27 87.22 4.25 o
3 6 2 15.77 19.25 2.74 o
4 6 2 36.93 42.97 4.39 o
5 6 2 2.74 3.60 1.14 o
6 6 2 4.17 4.62 1.52 o
7 6 2 10.18 10.52 2.14 o
8 6 2 1.99 2.01 1.38 o
9 6 2 6.10 3.31 1.30 o
10 6 2 4.17 2.70 3.40 o
11 6 2 0.29 0.18 1.90 o
1 7 2 5.57 7.46 2.27 o
2 7 2 10.85 10.99 1.57 o
3 7 2 6.82 5.03 1.50 o
4 7 2 42.13 50.65 4.97 o
5 7 2 2.87 2.36 2.90 o
6 7 2 21.56 28.22 4.07 o
7 7 2 0.95 -0.30 1.00 o
8 7 2 13.92 11.55 2.05 o
9 7 2 0.17 -2.39 2.39 o
10 7 2 0.43 2.48 1.99 o
11 7 2 0.22 -0.52 2.72 o
0 8 2 2.31 1.65 0.92 o
1 8 2 1.03 0.07 0.61 o
2 8 2 39.40 42.57 3.84 o
3 8 2 0.40 1.91 1.56 o
4 8 2 19.16 25.18 4.57 o
5 8 2 6.24 3.87 1.56 o
6 8 2 4.35 3.74 2.41 o
7 8 2 5.23 7.86 2.76 o
8 8 2 2.71 1.02 2.70 o
9 8 2 0.58 -2.10 2.10 o
1 9 2 0.78 2.71 1.20 o
2 9 2 1.30 0.99 0.80 o
3 9 2 3.37 2.27 1.03 o
4 9 2 5.16 3.41 1.69 o
5 9 2 7.06 9.72 2.48 o
6 9 2 2.15 5.12 3.09 o
7 9 2 3.27 2.09 3.15 o
8 9 2 2.65 -0.32 2.89 o
0 10 2 8.28 8.66 3.10 o
1 10 2 1.62 3.74 1.28 o
2 10 2 1.85 1.51 0.94 o
3 10 2 1.05 0.64 1.12 o
4 10 2 0.57 -0.54 2.73 o
5 10 2 1.01 0.09 1.91 o
6 10 2 1.55 2.30 4.37 o
1 11 2 0.18 2.02 1.75 o
2 11 2 1.78 -0.90 1.78 o
3 11 2 2.90 0.54 2.07 o
4 11 2 1.78 1.11 1.23 o
4 0 3 23.08 21.99 4.70 o
6 0 3 8.79 5.34 2.92 o
2 1 3 67.19 68.24 7.91 o
3 1 3 23.44 21.82 4.73 o
4 1 3 2.19 2.22 1.28 o
5 1 3 2.66 1.29 1.08 o
6 1 3 13.12 14.57 3.06 o
7 1 3 1.94 1.20 1.29 o
8 1 3 9.67 7.33 3.54 o
9 1 3 0.45 0.47 1.60 o
1 2 3 24.83 24.12 4.96 o
2 2 3 2.18 3.11 2.52 o
3 2 3 33.53 31.35 5.85 o
4 2 3 13.51 17.26 4.43 o
5 2 3 15.70 18.00 4.70 o
6 2 3 0.23 2.29 1.79 o
7 2 3 2.50 1.67 1.77 o
8 2 3 7.76 6.79 4.07 o
9 2 3 0.91 2.34 1.74 o
10 2 3 0.05 -6.22 6.22 o
0 3 3 2.80 -0.44 1.85 o
1 3 3 11.31 14.04 2.49 o
2 3 3 7.19 5.19 1.89 o
3 3 3 25.17 25.21 4.03 o
4 3 3 5.16 4.65 1.97 o
5 3 3 0.75 1.72 2.06 o
6 3 3 0.20 0.31 1.53 o
7 3 3 0.56 0.88 1.10 o
8 3 3 0.17 2.63 2.36 o
9 3 3 3.67 9.79 4.90 o
10 3 3 1.03 -2.03 4.31 o
11 3 3 0.80 2.07 10.20 o
1 4 3 6.45 7.26 1.98 o
2 4 3 2.32 2.42 1.10 o
3 4 3 15.42 16.77 3.11 o
4 4 3 0.25 1.54 1.24 o
5 4 3 0.93 0.37 1.47 o
6 4 3 1.30 1.72 1.19 o
7 4 3 13.49 9.59 2.73 o
8 4 3 4.90 2.68 2.51 o
9 4 3 3.95 6.03 3.54 o
10 4 3 0.72 -2.73 2.73 o
0 5 3 2.23 1.08 1.61 o
1 5 3 9.86 10.16 2.42 o
2 5 3 13.35 15.17 2.79 o
3 5 3 10.78 10.23 2.14 o
4 5 3 1.04 0.39 1.25 o
5 5 3 1.91 1.98 1.34 o
6 5 3 1.79 2.61 2.69 o
7 5 3 6.38 2.80 1.63 o
8 5 3 0.68 0.14 0.98 o
9 5 3 5.99 1.47 1.97 o
1 6 3 10.86 8.06 1.57 o
2 6 3 5.23 7.18 1.90 o
3 6 3 4.02 3.16 1.22 o
4 6 3 12.96 10.09 4.39 o
5 6 3 1.70 1.89 2.64 o
6 6 3 0.07 -0.54 1.05 o
7 6 3 4.98 1.75 2.90 o
8 6 3 6.87 3.16 1.41 o
0 7 3 3.98 2.14 4.28 o
1 7 3 0.77 -0.41 0.75 o
2 7 3 24.01 15.20 4.40 o
3 7 3 1.06 0.79 1.16 o
4 7 3 1.88 0.29 1.19 o
5 7 3 0.37 -0.41 2.03 o
6 7 3 0.48 3.18 1.39 o
7 7 3 0.20 0.13 0.93 o
8 7 3 0.39 -1.06 1.49 o
1 8 3 0.01 -0.15 0.88 o
2 8 3 0.86 0.76 0.83 o
3 8 3 2.02 1.23 1.07 o
4 8 3 6.56 2.45 1.50 o
5 8 3 1.99 3.36 1.63 o
6 8 3 0.53 6.91 3.31 o
0 9 3 1.71 1.24 2.27 o
1 9 3 1.50 0.73 0.65 o
2 9 3 3.94 0.38 0.63 o
3 9 3 1.51 -0.03 0.86 o
4 9 3 0.19 0.52 0.90 o
1 10 3 0.37 0.03 2.31 o
5 1 4 3.70 3.80 3.19 o
6 1 4 2.88 4.61 3.37 o
7 1 4 0.52 -1.46 2.30 o
4 2 4 0.72 1.06 1.92 o
5 2 4 1.86 -2.16 2.45 o
6 2 4 0.47 -0.54 1.87 o
7 2 4 1.52 1.17 2.26 o
8 2 4 0.15 1.61 2.14 o
3 3 4 5.62 6.78 3.21 o
4 3 4 0.35 -1.21 1.83 o
5 3 4 5.21 12.30 5.11 o
6 3 4 0.27 0.50 2.26 o
7 3 4 1.90 -1.56 3.75 o
2 4 4 0.04 4.93 3.20 o
3 4 4 2.61 2.48 2.82 o
4 4 4 0.08 -3.21 3.71 o
5 4 4 0.20 0.49 1.89 o
6 4 4 0.37 9.84 5.02 o
2 5 4 1.08 1.52 1.35 o
3 5 4 2.81 -2.55 3.72 o
4 5 4 0.42 0.59 2.54 o
0 6 4 3.89 0.39 1.43 o
1 6 4 2.68 3.56 2.52 o
2 6 4 2.37 1.29 1.28 o
3 7 4 0.06 -0.33 1.45 o
