#------------------------------------------------------------------------------
#$Date: 2019-11-22 19:03:52 +0200 (Fri, 22 Nov 2019) $
#$Revision: 231268 $
#$URL: file:///home/coder/svn-repositories/cod/cif/4/51/63/4516355.cif $
#------------------------------------------------------------------------------
#
# This file is available in the Crystallography Open Database (COD),
# http://www.crystallography.net/
#
# All data on this site have been placed in the public domain by the
# contributors.
#
data_4516355
loop_
_publ_author_name
'Patyk, Ewa'
'Podsiad\/lo, Marcin'
'Katrusiak, Andrzej'
_publ_section_title
;
 CH&#x00B7;&#x00B7;&#x00B7;N Bonds and Dynamics in Isostructural
 Pyrimidine Polymorphs
;
_journal_issue                   8
_journal_name_full               'Crystal Growth &amp; Design'
_journal_page_first              4039
_journal_paper_doi               10.1021/acs.cgd.5b00657
_journal_volume                  15
_journal_year                    2015
_chemical_formula_moiety         'C4 H4 N2'
_chemical_formula_sum            'C4 H4 N2'
_chemical_formula_weight         80.09
_chemical_melting_point          293.15
_chemical_name_common            pyrimidine
_chemical_name_systematic
; 
pyrimidine phase I
;
_space_group_IT_number           33
_space_group_name_Hall           'P 2c -2n'
_space_group_name_H-M_alt        'P n a 21'
_symmetry_cell_setting           orthorhombic
_symmetry_space_group_name_Hall  'P 2c -2n'
_symmetry_space_group_name_H-M   'P n a 21'
_atom_sites_solution_hydrogens   geom
_atom_sites_solution_primary     direct
_atom_sites_solution_secondary   difmap
_audit_creation_method           SHELXL-97
_cell_angle_alpha                90.00
_cell_angle_beta                 90.00
_cell_angle_gamma                90.00
_cell_formula_units_Z            4
_cell_length_a                   11.667(6)
_cell_length_b                   9.491(5)
_cell_length_c                   3.7874(15)
_cell_measurement_reflns_used    3066
_cell_measurement_temperature    245.0(1)
_cell_measurement_theta_max      28.28
_cell_measurement_theta_min      3.49
_cell_volume                     419.4(4)
_computing_cell_refinement       'CrysAlisRED (Oxford Diffraction, 2004)'
_computing_data_collection       'CrysAlisCCD (Oxford Diffraction, 2004)'
_computing_data_reduction        'CrysAlisRED (Oxford Diffraction, 2004)'
_computing_molecular_graphics    'SHELXTL (Sheldrick, 1990)'
_computing_publication_material  'SHELXL--97 (Sheldrick, 1997)'
_computing_structure_refinement  'SHELXL--97 (Sheldrick, 1997)'
_computing_structure_solution    'SHELXS--97 (Sheldrick, 1997)'
_diffrn_ambient_pressure         100
_diffrn_ambient_temperature      245.0(1)
_diffrn_measured_fraction_theta_full 0.901
_diffrn_measured_fraction_theta_max 0.901
_diffrn_measurement_device_type  'KM-4 CCD'
_diffrn_measurement_method       \w-scans
_diffrn_radiation_monochromator  graphite
_diffrn_radiation_source         'fine-focus sealed tube'
_diffrn_radiation_type           MoK\a
_diffrn_radiation_wavelength     0.71073
_diffrn_reflns_av_R_equivalents  0.0982
_diffrn_reflns_av_sigmaI/netI    0.0956
_diffrn_reflns_limit_h_max       14
_diffrn_reflns_limit_h_min       -14
_diffrn_reflns_limit_k_max       11
_diffrn_reflns_limit_k_min       -11
_diffrn_reflns_limit_l_max       4
_diffrn_reflns_limit_l_min       -4
_diffrn_reflns_number            3066
_diffrn_reflns_theta_full        28.28
_diffrn_reflns_theta_max         28.28
_diffrn_reflns_theta_min         3.49
_diffrn_standards_decay_%        0
_diffrn_standards_interval_count 0
_diffrn_standards_number         0
_exptl_absorpt_coefficient_mu    0.084
_exptl_absorpt_correction_T_max  0.983
_exptl_absorpt_correction_T_min  0.983
_exptl_absorpt_correction_type   numerical
_exptl_absorpt_process_details
; 
 Correction for absorption was made using XEMP (SHELXTL, 
 Sheldrick (1990)).
;
_exptl_crystal_colour            colourless
_exptl_crystal_density_diffrn    1.268
_exptl_crystal_density_method    'not measured'
_exptl_crystal_description       irregular
_exptl_crystal_F_000             168
_exptl_crystal_size_max          0.20
_exptl_crystal_size_mid          0.20
_exptl_crystal_size_min          0.20
_refine_diff_density_max         0.140
_refine_diff_density_min         -0.177
_refine_diff_density_rms         0.039
_refine_ls_abs_structure_details 'Flack H D (1983), Acta Cryst. A39, 876-881'
_refine_ls_abs_structure_Flack   -1(10)
_refine_ls_extinction_coef       0.042(8)
_refine_ls_extinction_expression Fc^*^=kFc[1+0.001xFc^2^\l^3^/sin(2\q)]^-1/4^
_refine_ls_extinction_method     SHELXL
_refine_ls_goodness_of_fit_ref   1.034
_refine_ls_hydrogen_treatment    constr
_refine_ls_matrix_type           full
_refine_ls_number_parameters     56
_refine_ls_number_reflns         894
_refine_ls_number_restraints     1
_refine_ls_restrained_S_all      1.033
_refine_ls_R_factor_all          0.1697
_refine_ls_R_factor_gt           0.0630
_refine_ls_shift/su_max          0.000
_refine_ls_shift/su_mean         0.000
_refine_ls_structure_factor_coef Fsqd
_refine_ls_weighting_details
'calc w=1/[\s^2^(Fo^2^)+(0.0371P)^2^+0.0000P] where P=(Fo^2^+2Fc^2^)/3'
_refine_ls_weighting_scheme      calc
_refine_ls_wR_factor_gt          0.1161
_refine_ls_wR_factor_ref         0.1665
_reflns_number_gt                379
_reflns_number_total             894
_reflns_threshold_expression     >2sigma(I)
_cod_data_source_file            cg5b00657_si_002.cif
_cod_data_source_block           phaseI_245K
_cod_database_code               4516355
loop_
_symmetry_equiv_pos_as_xyz
'x, y, z'
'-x, -y, z+1/2'
'x+1/2, -y+1/2, z'
'-x+1/2, y+1/2, z+1/2'
loop_
_atom_site_label
_atom_site_type_symbol
_atom_site_fract_x
_atom_site_fract_y
_atom_site_fract_z
_atom_site_U_iso_or_equiv
_atom_site_adp_type
_atom_site_occupancy
_atom_site_symmetry_multiplicity
_atom_site_calc_flag
_atom_site_refinement_flags
N1 N 0.1278(4) 0.3961(4) 0.0235(16) 0.0655(14) Uani 1 1 d .
N3 N 0.0122(4) 0.1905(4) 0.0153(13) 0.0693(16) Uani 1 1 d .
C2 C 0.0313(4) 0.3256(5) 0.0720(19) 0.0627(17) Uani 1 1 d .
H2 H -0.0305 0.3776 0.1561 0.075 Uiso 1 1 calc R
C4 C 0.1020(5) 0.1194(5) -0.1029(17) 0.0707(19) Uani 1 1 d .
H4 H 0.0934 0.0237 -0.1486 0.085 Uiso 1 1 calc R
C5 C 0.2064(5) 0.1795(5) -0.1610(15) 0.0659(18) Uani 1 1 d .
H5 H 0.2685 0.1272 -0.2421 0.079 Uiso 1 1 calc R
C6 C 0.2151(5) 0.3201(5) -0.0940(12) 0.066(2) Uani 1 1 d .
H6 H 0.2850 0.3646 -0.1323 0.079 Uiso 1 1 calc R
loop_
_atom_site_aniso_label
_atom_site_aniso_U_11
_atom_site_aniso_U_22
_atom_site_aniso_U_33
_atom_site_aniso_U_23
_atom_site_aniso_U_13
_atom_site_aniso_U_12
N1 0.054(2) 0.052(3) 0.091(4) -0.011(3) -0.006(3) -0.001(2)
N3 0.055(3) 0.052(3) 0.100(4) -0.005(3) 0.004(3) -0.008(2)
C2 0.048(3) 0.061(4) 0.079(4) -0.004(4) -0.005(3) 0.010(3)
C4 0.072(4) 0.050(3) 0.091(5) -0.008(3) -0.004(3) 0.002(3)
C5 0.057(4) 0.063(4) 0.077(4) -0.011(3) 0.001(3) 0.008(3)
C6 0.045(3) 0.074(4) 0.078(5) -0.003(4) -0.005(3) -0.005(3)
loop_
_atom_type_symbol
_atom_type_description
_atom_type_scat_dispersion_real
_atom_type_scat_dispersion_imag
_atom_type_scat_source
C C 0.0033 0.0016 'International Tables Vol C Tables 4.2.6.8 and 6.1.1.4'
H H 0.0000 0.0000 'International Tables Vol C Tables 4.2.6.8 and 6.1.1.4'
N N 0.0061 0.0033 'International Tables Vol C Tables 4.2.6.8 and 6.1.1.4'
loop_
_geom_angle_atom_site_label_1
_geom_angle_atom_site_label_2
_geom_angle_atom_site_label_3
_geom_angle
C2 N1 C6 115.2(4)
C2 N3 C4 114.6(4)
N3 C2 N1 127.8(5)
N3 C4 C5 123.3(5)
C6 C5 C4 116.5(5)
N1 C6 C5 122.6(5)
loop_
_geom_bond_atom_site_label_1
_geom_bond_atom_site_label_2
_geom_bond_distance
N1 C2 1.322(6)
N1 C6 1.324(6)
N3 C2 1.320(5)
N3 C4 1.324(6)
C4 C5 1.363(6)
C5 C6 1.363(6)
loop_
_refln_index_h
_refln_index_k
_refln_index_l
_refln_F_squared_calc
_refln_F_squared_meas
_refln_F_squared_sigma
_refln_observed_status
6 0 -4 1.67 5.36 5.02 o
5 1 -4 1.78 -1.37 1.37 o
6 1 -4 1.47 -0.38 2.86 o
7 1 -4 0.28 2.38 3.65 o
4 2 -4 0.28 -1.58 1.58 o
5 2 -4 0.89 2.28 3.70 o
6 2 -4 0.26 5.19 5.00 o
7 2 -4 0.55 0.53 1.36 o
8 2 -4 0.03 -1.33 4.83 o
9 2 -4 0.71 -2.47 5.24 o
3 3 -4 2.72 3.16 2.56 o
4 3 -4 0.19 4.78 5.08 o
5 3 -4 2.38 -4.05 4.05 o
6 3 -4 0.13 -1.02 1.02 o
7 3 -4 1.02 0.55 0.77 o
8 3 -4 0.03 -1.63 4.15 o
2 4 -4 0.03 2.93 4.67 o
3 4 -4 1.22 7.26 6.48 o
4 4 -4 0.08 8.18 6.79 o
5 4 -4 0.08 5.76 5.33 o
6 4 -4 0.14 0.62 3.19 o
2 5 -4 0.58 -1.46 1.93 o
3 5 -4 1.53 5.62 5.90 o
4 5 -4 0.26 -1.18 1.18 o
5 5 -4 0.03 -2.39 5.50 o
0 6 -4 2.03 -0.31 3.01 o
1 6 -4 1.30 0.67 2.43 o
2 6 -4 1.28 1.73 1.22 o
3 6 -4 0.38 0.02 1.10 o
2 7 -4 0.23 4.24 5.11 o
3 7 -4 0.03 1.27 1.99 o
4 7 -4 0.65 -0.66 2.56 o
4 0 -3 17.90 16.75 6.33 o
6 0 -3 5.12 4.66 2.54 o
8 0 -3 30.90 29.12 8.58 o
2 1 -3 50.26 44.76 10.57 o
3 1 -3 15.71 18.54 7.30 o
4 1 -3 0.98 4.28 2.20 o
5 1 -3 1.77 3.34 2.47 o
6 1 -3 8.89 7.18 3.35 o
7 1 -3 1.01 2.44 4.61 o
8 1 -3 4.98 8.67 5.10 o
9 1 -3 0.35 -0.81 2.09 o
1 2 -3 18.01 14.96 6.67 o
2 2 -3 1.36 -1.59 1.85 o
3 2 -3 21.63 20.70 7.67 o
4 2 -3 9.86 5.58 3.52 o
5 2 -3 9.78 7.49 5.53 o
6 2 -3 0.03 -0.50 0.50 o
7 2 -3 1.86 1.24 3.12 o
8 2 -3 6.02 11.93 6.15 o
9 2 -3 0.23 0.77 1.15 o
10 2 -3 0.06 -0.05 2.20 o
0 3 -3 1.70 0.72 3.21 o
1 3 -3 7.17 1.87 1.61 o
2 3 -3 5.16 3.21 1.96 o
3 3 -3 16.28 11.23 4.73 o
4 3 -3 4.14 -0.52 2.60 o
5 3 -3 0.38 5.35 5.09 o
6 3 -3 0.13 1.85 1.77 o
7 3 -3 0.14 1.27 3.11 o
8 3 -3 0.21 0.34 2.52 o
9 3 -3 2.44 4.91 3.33 o
10 3 -3 0.44 4.39 3.84 o
11 3 -3 0.37 -0.13 1.68 o
1 4 -3 3.61 2.82 1.54 o
2 4 -3 1.51 2.00 2.67 o
3 4 -3 9.28 6.73 3.06 o
4 4 -3 0.15 1.17 2.96 o
5 4 -3 0.61 0.84 2.39 o
6 4 -3 0.80 -0.07 2.36 o
7 4 -3 8.37 1.54 2.61 o
8 4 -3 2.90 8.31 6.50 o
9 4 -3 2.36 3.58 4.18 o
10 4 -3 0.52 -0.59 3.39 o
0 5 -3 1.31 4.92 2.48 o
1 5 -3 6.15 2.89 2.67 o
2 5 -3 8.70 0.94 2.08 o
3 5 -3 5.65 2.91 2.40 o
4 5 -3 0.33 1.66 1.97 o
5 5 -3 1.40 1.10 1.36 o
6 5 -3 1.18 3.68 2.69 o
7 5 -3 3.73 -2.62 2.62 o
8 5 -3 0.27 -0.17 3.25 o
9 5 -3 3.12 4.13 1.80 o
1 6 -3 6.21 2.73 1.69 o
2 6 -3 3.06 4.25 2.50 o
3 6 -3 2.89 1.41 1.50 o
4 6 -3 8.10 4.47 3.48 o
5 6 -3 0.99 -0.16 3.46 o
6 6 -3 0.10 1.85 2.24 o
7 6 -3 2.69 -0.47 3.07 o
8 6 -3 4.71 -0.47 1.86 o
0 7 -3 1.96 -2.55 2.55 o
1 7 -3 0.73 0.03 1.42 o
2 7 -3 14.46 3.95 3.47 o
3 7 -3 0.54 -1.02 1.09 o
4 7 -3 1.31 2.64 1.19 o
5 7 -3 0.08 -1.27 4.06 o
6 7 -3 0.29 0.31 3.95 o
7 7 -3 0.07 -0.53 4.25 o
8 7 -3 0.04 -1.35 3.86 o
1 8 -3 0.01 1.90 0.93 o
2 8 -3 0.26 -0.66 1.13 o
3 8 -3 0.87 -0.51 1.59 o
4 8 -3 3.98 0.34 1.48 o
5 8 -3 1.06 3.41 2.98 o
6 8 -3 0.12 3.72 1.24 o
0 9 -3 1.02 -0.97 3.31 o
1 9 -3 0.71 0.44 2.65 o
2 9 -3 2.37 -0.68 1.38 o
3 9 -3 0.79 -1.53 1.53 o
4 9 -3 0.07 -0.75 2.12 o
2 0 -2 445.18 452.08 10.96 o
4 0 -2 1.17 1.77 0.93 o
6 0 -2 55.05 55.55 6.46 o
8 0 -2 39.86 50.42 9.81 o
10 0 -2 21.31 18.51 6.14 o
12 0 -2 2.75 1.93 11.69 o
1 1 -2 79.21 63.70 9.47 o
2 1 -2 91.31 87.19 4.14 o
3 1 -2 41.35 45.00 3.13 o
4 1 -2 81.22 86.79 4.94 o
5 1 -2 12.60 12.16 2.13 o
6 1 -2 8.92 9.62 2.02 o
7 1 -2 0.33 2.77 2.11 o
8 1 -2 72.97 84.34 8.77 o
9 1 -2 1.19 0.28 1.60 o
10 1 -2 14.31 7.16 5.40 o
11 1 -2 4.61 4.01 2.00 o
12 1 -2 2.29 -1.21 2.05 o
13 1 -2 2.24 8.45 3.18 o
14 1 -2 0.41 14.29 10.98 o
0 2 -2 32.98 36.21 5.44 o
1 2 -2 104.48 104.17 4.13 o
2 2 -2 151.36 143.26 5.69 o
3 2 -2 71.97 72.21 4.09 o
4 2 -2 48.22 47.70 3.82 o
5 2 -2 4.26 3.88 1.42 o
6 2 -2 11.13 10.69 2.09 o
7 2 -2 1.27 2.95 0.81 o
8 2 -2 2.98 1.09 1.72 o
9 2 -2 2.21 3.38 3.08 o
10 2 -2 2.87 4.43 2.37 o
11 2 -2 5.36 9.46 3.11 o
12 2 -2 1.57 2.25 2.26 o
13 2 -2 4.49 1.99 3.61 o
1 3 -2 46.18 44.05 3.31 o
2 3 -2 48.42 48.16 3.79 o
3 3 -2 40.90 36.86 3.38 o
4 3 -2 15.16 12.68 2.21 o
5 3 -2 0.58 0.64 1.03 o
6 3 -2 20.15 17.10 3.68 o
7 3 -2 10.31 8.19 3.29 o
8 3 -2 0.92 1.94 1.76 o
9 3 -2 0.27 2.10 1.76 o
10 3 -2 1.53 4.02 2.44 o
11 3 -2 5.49 4.92 2.26 o
12 3 -2 1.43 6.27 4.11 o
13 3 -2 4.43 6.20 3.20 o
0 4 -2 45.07 44.38 4.94 o
1 4 -2 3.78 3.85 1.85 o
2 4 -2 6.82 6.90 1.64 o
3 4 -2 12.87 14.00 2.48 o
4 4 -2 23.50 19.05 3.20 o
5 4 -2 7.67 6.58 3.05 o
6 4 -2 3.65 7.21 2.73 o
7 4 -2 10.63 9.14 3.01 o
8 4 -2 2.73 2.17 1.51 o
9 4 -2 4.73 6.84 2.25 o
10 4 -2 4.10 6.26 2.96 o
11 4 -2 0.57 -1.72 3.71 o
12 4 -2 1.76 1.02 2.13 o
13 4 -2 0.67 5.76 7.09 o
1 5 -2 19.61 18.13 2.83 o
2 5 -2 7.90 8.65 1.92 o
3 5 -2 7.42 8.98 3.00 o
4 5 -2 14.22 12.58 3.10 o
5 5 -2 11.88 11.38 2.97 o
6 5 -2 2.95 1.56 1.59 o
7 5 -2 30.16 25.90 6.10 o
8 5 -2 15.97 9.02 4.10 o
9 5 -2 4.78 9.94 4.69 o
10 5 -2 1.57 3.68 2.66 o
11 5 -2 0.02 -1.76 3.10 o
12 5 -2 0.17 4.07 5.38 o
0 6 -2 4.51 2.26 2.93 o
1 6 -2 5.11 5.21 1.05 o
2 6 -2 58.65 55.75 7.64 o
3 6 -2 11.43 16.93 3.89 o
4 6 -2 27.94 31.48 6.10 o
5 6 -2 2.62 1.95 3.09 o
6 6 -2 3.07 2.45 1.78 o
7 6 -2 6.37 4.72 1.62 o
8 6 -2 1.51 2.35 1.79 o
9 6 -2 3.47 2.22 1.96 o
10 6 -2 2.75 1.92 4.60 o
11 6 -2 0.17 -2.14 3.61 o
1 7 -2 4.60 7.48 2.18 o
2 7 -2 7.14 4.86 1.98 o
3 7 -2 4.94 4.96 2.41 o
4 7 -2 28.91 32.78 8.56 o
5 7 -2 1.91 0.26 3.06 o
6 7 -2 16.46 15.41 6.10 o
7 7 -2 0.76 -1.55 1.86 o
8 7 -2 9.72 6.70 4.68 o
9 7 -2 0.11 2.06 3.26 o
10 7 -2 0.25 -1.41 7.61 o
11 7 -2 0.20 -4.59 6.65 o
0 8 -2 1.88 -1.08 3.05 o
1 8 -2 0.74 0.68 1.74 o
2 8 -2 26.49 30.78 5.74 o
3 8 -2 0.28 -0.76 1.54 o
4 8 -2 12.76 16.80 7.59 o
5 8 -2 3.10 3.68 2.83 o
6 8 -2 2.41 3.20 2.22 o
7 8 -2 2.82 0.14 4.28 o
8 8 -2 0.96 -1.35 4.22 o
9 8 -2 0.49 6.19 5.21 o
10 8 -2 0.12 -3.50 3.50 o
1 9 -2 0.57 -1.63 1.90 o
2 9 -2 0.85 2.20 2.06 o
3 9 -2 1.93 2.65 2.39 o
4 9 -2 3.52 1.57 2.93 o
5 9 -2 4.37 1.92 2.13 o
6 9 -2 0.82 1.95 1.50 o
7 9 -2 1.70 -2.68 4.91 o
8 9 -2 1.40 3.97 4.91 o
0 10 -2 5.73 9.34 5.78 o
1 10 -2 0.81 -1.29 3.22 o
2 10 -2 1.43 5.07 2.71 o
3 10 -2 0.94 2.86 1.87 o
4 10 -2 0.29 4.11 2.20 o
5 10 -2 0.59 3.00 11.89 o
6 10 -2 0.82 2.78 3.96 o
1 11 -2 0.05 3.23 5.24 o
2 11 -2 0.87 -1.88 6.30 o
3 11 -2 1.48 20.65 15.09 o
2 0 -1 2289.41 2336.15 36.54 o
4 0 -1 107.12 103.80 9.24 o
6 0 -1 59.79 62.09 8.65 o
8 0 -1 93.07 94.16 13.08 o
10 0 -1 124.64 127.75 16.98 o
12 0 -1 7.77 2.69 3.85 o
14 0 -1 0.32 0.46 2.91 o
0 1 -1 5548.00 5682.58 47.41 o
1 1 -1 140.76 129.96 3.73 o
2 1 -1 745.98 655.73 11.79 o
3 1 -1 48.19 44.49 2.77 o
4 1 -1 174.35 170.92 7.75 o
5 1 -1 17.31 19.59 2.59 o
6 1 -1 63.40 64.76 5.00 o
7 1 -1 3.56 5.72 2.79 o
8 1 -1 44.60 39.89 5.99 o
9 1 -1 17.38 16.90 4.15 o
10 1 -1 38.81 49.98 7.75 o
11 1 -1 2.49 2.16 0.97 o
12 1 -1 14.92 15.04 4.43 o
13 1 -1 4.92 3.13 4.01 o
14 1 -1 3.57 -0.34 1.46 o
1 2 -1 225.60 206.10 6.66 o
2 2 -1 12.88 14.30 2.48 o
3 2 -1 86.36 80.18 4.23 o
4 2 -1 89.45 84.98 5.75 o
5 2 -1 8.99 10.16 1.67 o
6 2 -1 187.25 197.27 11.30 o
7 2 -1 3.04 4.99 1.81 o
8 2 -1 21.54 19.11 4.30 o
9 2 -1 3.03 2.78 2.31 o
10 2 -1 16.06 15.41 4.65 o
11 2 -1 37.65 39.86 7.71 o
12 2 -1 2.71 4.52 2.47 o
13 2 -1 5.22 8.14 3.83 o
14 2 -1 1.76 0.12 4.79 o
0 3 -1 127.56 122.27 7.14 o
1 3 -1 72.27 71.87 4.49 o
2 3 -1 15.92 15.73 2.45 o
3 3 -1 12.34 7.97 2.24 o
4 3 -1 385.54 371.98 16.21 o
5 3 -1 2.37 2.84 1.75 o
6 3 -1 24.23 26.26 3.34 o
7 3 -1 2.08 2.09 1.50 o
8 3 -1 9.82 5.29 2.03 o
9 3 -1 5.68 7.59 3.24 o
10 3 -1 0.80 5.92 3.13 o
11 3 -1 3.58 4.09 1.85 o
12 3 -1 3.41 7.09 2.63 o
13 3 -1 3.85 0.95 2.25 o
14 3 -1 0.88 6.31 6.33 o
1 4 -1 43.77 48.05 4.13 o
2 4 -1 275.78 269.31 10.03 o
3 4 -1 2.13 0.91 1.56 o
4 4 -1 4.41 2.89 1.57 o
5 4 -1 13.68 15.07 4.27 o
6 4 -1 22.37 18.09 3.89 o
7 4 -1 48.70 45.24 7.42 o
8 4 -1 5.09 2.35 1.68 o
9 4 -1 6.02 5.03 3.26 o
10 4 -1 9.89 10.79 5.15 o
11 4 -1 4.70 7.34 3.19 o
12 4 -1 1.06 1.59 1.81 o
13 4 -1 1.68 0.90 1.85 o
0 5 -1 296.13 329.23 25.82 o
1 5 -1 4.68 3.98 1.38 o
2 5 -1 54.97 55.77 5.13 o
3 5 -1 12.18 15.07 3.71 o
4 5 -1 15.10 12.82 8.02 o
5 5 -1 32.67 27.12 5.84 o
6 5 -1 3.51 3.94 3.92 o
7 5 -1 13.35 12.68 4.06 o
8 5 -1 1.00 -0.26 1.67 o
9 5 -1 8.20 0.55 5.15 o
10 5 -1 6.90 1.49 1.52 o
11 5 -1 0.25 -2.78 2.78 o
12 5 -1 4.28 13.29 5.20 o
13 5 -1 0.51 2.18 4.80 o
1 6 -1 22.49 23.62 3.50 o
2 6 -1 3.77 3.51 1.20 o
3 6 -1 5.88 6.40 2.47 o
4 6 -1 28.43 20.97 5.91 o
5 6 -1 17.93 23.03 5.49 o
6 6 -1 118.14 126.10 12.98 o
7 6 -1 23.55 17.88 6.55 o
8 6 -1 13.28 10.69 4.84 o
9 6 -1 1.23 4.74 3.13 o
10 6 -1 4.94 7.41 4.87 o
11 6 -1 0.12 6.26 4.33 o
12 6 -1 1.80 1.26 3.34 o
0 7 -1 20.51 21.16 4.39 o
1 7 -1 2.87 2.84 2.29 o
2 7 -1 41.27 36.62 5.03 o
3 7 -1 3.89 1.92 3.91 o
4 7 -1 170.76 183.95 16.32 o
5 7 -1 1.95 1.18 4.00 o
6 7 -1 14.40 13.65 4.53 o
7 7 -1 4.20 6.25 3.73 o
8 7 -1 5.75 12.52 5.07 o
9 7 -1 0.48 4.42 3.68 o
10 7 -1 2.46 0.53 2.04 o
11 7 -1 0.03 -1.26 6.25 o
1 8 -1 0.17 2.01 4.24 o
2 8 -1 1.78 1.19 1.85 o
3 8 -1 13.93 14.90 3.99 o
4 8 -1 17.42 18.56 5.01 o
5 8 -1 4.32 6.22 6.65 o
6 8 -1 48.81 58.91 10.31 o
7 8 -1 1.66 0.95 4.48 o
8 8 -1 4.76 2.16 2.20 o
9 8 -1 0.57 -1.38 2.67 o
10 8 -1 4.14 6.11 5.15 o
0 9 -1 26.20 29.13 8.46 o
1 9 -1 0.45 3.46 1.20 o
2 9 -1 7.85 5.72 2.88 o
3 9 -1 1.65 4.91 1.80 o
4 9 -1 10.94 13.69 5.54 o
5 9 -1 6.63 12.86 8.06 o
6 9 -1 4.88 5.29 2.75 o
7 9 -1 3.42 2.22 3.01 o
8 9 -1 3.27 -1.55 2.35 o
9 9 -1 0.55 -1.07 4.09 o
1 10 -1 1.36 9.46 4.38 o
2 10 -1 7.24 5.24 2.29 o
3 10 -1 0.20 -1.80 2.49 o
4 10 -1 0.08 1.57 1.61 o
5 10 -1 3.55 2.13 6.74 o
6 10 -1 1.44 5.88 3.88 o
7 10 -1 0.95 2.13 4.36 o
0 11 -1 5.99 1.70 5.56 o
1 11 -1 1.18 -2.31 2.31 o
2 11 -1 0.95 5.13 3.59 o
3 11 -1 0.97 -0.32 4.84 o
4 11 -1 1.76 -0.39 3.97 o
5 11 -1 0.21 7.87 9.49 o
2 0 0 105.12 130.22 12.52 o
4 0 0 283.80 304.42 16.19 o
6 0 0 27.55 23.85 5.67 o
8 0 0 104.14 103.41 13.58 o
10 0 0 76.53 97.91 14.98 o
12 0 0 46.37 47.88 12.09 o
14 0 0 2.33 -0.49 3.61 o
2 1 0 2667.37 2684.03 39.07 o
3 1 0 33.11 40.38 2.44 o
4 1 0 3.43 4.96 1.46 o
5 1 0 0.03 -0.07 0.53 o
6 1 0 214.96 217.74 8.32 o
7 1 0 19.46 21.30 1.72 o
8 1 0 5.80 7.14 2.36 o
9 1 0 1.06 3.28 1.44 o
10 1 0 138.16 144.08 12.87 o
11 1 0 31.22 33.98 6.88 o
12 1 0 9.30 10.85 4.00 o
13 1 0 1.03 3.59 2.74 o
14 1 0 0.22 -1.62 1.62 o
0 2 0 1776.95 1773.24 62.20 o
1 2 0 28.55 26.64 1.66 o
2 2 0 14.90 16.22 1.42 o
3 2 0 0.39 2.24 0.94 o
4 2 0 924.05 896.14 30.27 o
5 2 0 24.70 22.97 4.16 o
6 2 0 68.90 66.77 8.07 o
7 2 0 0.94 1.09 2.93 o
8 2 0 0.04 -1.02 2.64 o
9 2 0 49.56 50.97 7.21 o
10 2 0 18.31 14.76 4.01 o
11 2 0 0.22 2.24 2.11 o
12 2 0 3.07 2.00 2.79 o
13 2 0 10.59 10.83 4.58 o
14 2 0 1.90 4.32 2.79 o
1 3 0 8.78 9.84 1.28 o
2 3 0 450.24 452.79 12.60 o
3 3 0 8.16 7.17 1.52 o
4 3 0 31.37 29.92 2.22 o
5 3 0 11.46 15.25 3.52 o
6 3 0 314.05 388.10 20.39 o
7 3 0 4.86 10.89 3.58 o
8 3 0 2.81 0.18 1.79 o
9 3 0 9.02 10.41 3.48 o
10 3 0 0.25 2.05 2.82 o
11 3 0 37.41 36.33 7.28 o
12 3 0 0.01 -1.81 1.87 o
13 3 0 1.31 -2.57 2.57 o
14 3 0 2.80 5.18 2.73 o
0 4 0 1174.63 1227.31 47.66 o
1 4 0 7.85 5.93 1.37 o
2 4 0 0.34 0.45 0.53 o
3 4 0 1.54 2.46 2.08 o
4 4 0 118.84 123.38 3.93 o
5 4 0 51.63 62.79 6.74 o
6 4 0 10.13 7.83 2.79 o
7 4 0 0.99 0.09 1.81 o
8 4 0 12.94 13.77 4.11 o
9 4 0 0.03 1.26 2.06 o
10 4 0 1.89 2.28 2.49 o
11 4 0 0.49 3.41 2.60 o
12 4 0 9.95 9.35 3.58 o
13 4 0 0.00 -2.48 2.48 o
1 5 0 71.71 72.02 6.84 o
2 5 0 132.23 129.81 4.41 o
3 5 0 0.38 0.33 1.33 o
4 5 0 0.06 1.25 1.18 o
5 5 0 15.82 16.89 4.17 o
6 5 0 42.99 43.94 7.50 o
7 5 0 63.44 77.78 10.23 o
8 5 0 0.67 0.94 1.84 o
9 5 0 5.01 2.92 2.28 o
10 5 0 15.53 8.67 5.51 o
11 5 0 0.03 3.78 2.66 o
12 5 0 2.92 0.61 2.12 o
13 5 0 0.12 2.13 3.32 o
0 6 0 194.33 213.18 18.89 o
1 6 0 0.50 1.09 0.95 o
2 6 0 1.18 3.66 1.24 o
3 6 0 1.01 1.16 1.44 o
4 6 0 256.66 249.69 21.68 o
5 6 0 8.20 5.97 2.99 o
6 6 0 12.78 18.25 5.24 o
7 6 0 3.70 0.88 1.97 o
8 6 0 9.78 16.29 4.58 o
9 6 0 5.62 6.81 3.63 o
10 6 0 5.96 4.87 4.57 o
11 6 0 0.10 1.03 3.45 o
12 6 0 3.25 7.53 6.14 o
1 7 0 1.28 2.15 2.49 o
2 7 0 8.62 3.60 3.79 o
3 7 0 22.25 25.49 5.14 o
4 7 0 8.65 10.84 5.98 o
5 7 0 18.73 21.01 7.46 o
6 7 0 221.92 241.08 19.22 o
7 7 0 1.27 1.60 2.11 o
8 7 0 1.61 2.77 3.79 o
9 7 0 0.12 -2.68 2.79 o
10 7 0 7.23 8.16 3.50 o
11 7 0 0.00 -0.08 4.60 o
0 8 0 32.67 25.94 7.51 o
1 8 0 3.68 3.19 2.70 o
2 8 0 1.20 -1.92 1.92 o
3 8 0 0.37 0.31 0.87 o
4 8 0 132.37 141.54 15.25 o
5 8 0 14.33 15.56 7.18 o
6 8 0 20.28 17.92 7.79 o
7 8 0 2.90 6.37 2.90 o
8 8 0 0.56 -3.48 4.28 o
9 8 0 0.22 4.56 3.91 o
10 8 0 2.15 1.84 2.32 o
1 9 0 1.26 -0.89 2.55 o
2 9 0 3.55 2.78 2.54 o
3 9 0 6.57 5.57 4.01 o
4 9 0 1.87 6.56 4.35 o
5 9 0 0.11 1.15 1.41 o
6 9 0 10.50 16.04 5.69 o
7 9 0 3.42 -0.45 2.44 o
8 9 0 0.25 0.45 6.33 o
9 9 0 0.01 -4.00 4.34 o
0 10 0 33.71 30.12 9.33 o
1 10 0 0.58 2.09 2.23 o
2 10 0 1.64 3.08 4.22 o
3 10 0 3.98 6.02 3.22 o
4 10 0 0.03 1.92 3.45 o
5 10 0 1.33 13.71 9.28 o
6 10 0 0.89 1.71 3.53 o
7 10 0 0.66 -2.91 3.16 o
1 11 0 0.62 2.20 1.66 o
2 11 0 5.22 4.02 3.97 o
3 11 0 1.25 0.84 2.18 o
4 11 0 0.33 7.61 3.38 o
5 11 0 3.03 15.55 7.25 o
2 0 1 2288.92 2218.25 16.43 o
4 0 1 107.12 91.97 8.95 o
6 0 1 59.82 67.27 9.64 o
8 0 1 93.15 84.71 12.33 o
10 0 1 124.61 129.61 17.28 o
12 0 1 7.77 9.15 5.54 o
14 0 1 0.32 0.58 4.23 o
0 1 1 5547.08 5557.61 33.93 o
1 1 1 140.85 136.63 3.25 o
2 1 1 746.42 729.11 24.81 o
3 1 1 48.26 50.53 2.64 o
4 1 1 174.33 170.84 4.55 o
5 1 1 17.31 20.05 2.05 o
6 1 1 63.47 69.45 5.62 o
7 1 1 3.58 2.42 1.03 o
8 1 1 44.62 42.08 4.65 o
9 1 1 17.38 18.70 4.41 o
10 1 1 38.79 44.19 7.17 o
11 1 1 2.49 2.59 3.29 o
12 1 1 14.92 15.36 4.49 o
13 1 1 4.91 1.45 1.90 o
14 1 1 3.56 0.82 4.89 o
1 2 1 225.60 216.04 4.28 o
2 2 1 12.89 12.41 1.27 o
3 2 1 86.39 77.97 2.72 o
4 2 1 89.49 89.03 3.93 o
5 2 1 9.02 9.26 1.41 o
6 2 1 187.21 228.51 12.96 o
7 2 1 3.04 0.51 1.03 o
8 2 1 21.55 22.42 3.30 o
9 2 1 3.03 3.62 2.10 o
10 2 1 16.06 24.13 5.20 o
11 2 1 37.64 42.57 7.53 o
12 2 1 2.71 0.44 1.22 o
13 2 1 5.22 8.08 3.54 o
14 2 1 1.76 6.99 4.75 o
0 3 1 127.50 134.96 4.00 o
1 3 1 72.27 90.19 6.96 o
2 3 1 15.93 16.02 1.26 o
3 3 1 12.35 11.36 1.22 o
4 3 1 385.46 387.50 9.23 o
5 3 1 2.37 1.85 0.76 o
6 3 1 24.21 30.25 2.90 o
7 3 1 2.08 3.38 1.30 o
8 3 1 9.81 9.42 2.33 o
9 3 1 5.68 2.18 3.35 o
10 3 1 0.80 -0.06 1.98 o
11 3 1 3.57 5.24 3.35 o
12 3 1 3.42 1.36 1.70 o
13 3 1 3.85 5.41 4.30 o
14 3 1 0.88 2.13 5.28 o
1 4 1 43.72 50.29 3.80 o
2 4 1 275.74 283.78 9.46 o
3 4 1 2.13 1.66 1.27 o
4 4 1 4.40 6.49 2.06 o
5 4 1 13.66 13.13 1.97 o
6 4 1 22.36 29.95 4.17 o
7 4 1 48.70 46.79 7.58 o
8 4 1 5.10 4.80 3.32 o
9 4 1 6.02 3.20 2.45 o
10 4 1 9.89 12.50 4.48 o
11 4 1 4.70 0.19 3.02 o
12 4 1 1.06 1.45 1.06 o
13 4 1 1.69 4.68 4.68 o
0 5 1 296.07 303.69 20.25 o
1 5 1 4.69 5.62 2.08 o
2 5 1 55.00 65.34 4.81 o
3 5 1 12.20 15.33 2.03 o
4 5 1 15.09 16.27 2.21 o
5 5 1 32.68 32.84 2.68 o
6 5 1 3.51 4.30 2.13 o
7 5 1 13.35 23.53 5.53 o
8 5 1 1.00 -3.34 3.34 o
9 5 1 8.20 4.10 2.68 o
10 5 1 6.90 4.09 3.51 o
11 5 1 0.24 1.68 1.82 o
12 5 1 4.28 0.00 3.68 o
13 5 1 0.51 0.33 2.42 o
1 6 1 22.52 22.81 4.31 o
2 6 1 3.78 4.44 1.77 o
3 6 1 5.88 4.44 1.39 o
4 6 1 28.44 30.30 3.21 o
5 6 1 17.93 16.65 3.26 o
6 6 1 118.11 124.06 12.87 o
7 6 1 23.55 27.79 6.93 o
8 6 1 13.28 14.83 5.56 o
9 6 1 1.23 5.97 3.75 o
10 6 1 4.94 4.99 5.62 o
11 6 1 0.12 3.62 4.15 o
12 6 1 1.81 1.09 2.70 o
0 7 1 20.51 20.69 6.39 o
1 7 1 2.87 0.37 0.94 o
2 7 1 41.32 37.60 4.32 o
3 7 1 3.89 2.00 1.41 o
4 7 1 170.71 183.33 20.02 o
5 7 1 1.95 0.28 3.13 o
6 7 1 14.39 14.04 7.35 o
7 7 1 4.20 5.14 2.21 o
8 7 1 5.75 10.98 4.23 o
9 7 1 0.48 6.46 8.05 o
10 7 1 2.45 0.68 1.09 o
11 7 1 0.03 2.14 2.80 o
1 8 1 0.17 1.97 2.09 o
2 8 1 1.78 0.31 1.63 o
3 8 1 13.93 21.52 4.76 o
4 8 1 17.43 15.98 5.80 o
5 8 1 4.32 7.74 5.47 o
6 8 1 48.78 66.22 13.79 o
7 8 1 1.66 0.54 2.58 o
8 8 1 4.76 -1.34 1.46 o
9 8 1 0.57 -1.91 1.91 o
10 8 1 4.14 6.67 4.18 o
0 9 1 26.19 27.22 7.98 o
1 9 1 0.45 -0.60 1.55 o
2 9 1 7.86 4.54 3.05 o
3 9 1 1.66 -0.79 3.60 o
4 9 1 10.93 16.67 7.13 o
5 9 1 6.63 18.89 7.11 o
6 9 1 4.88 3.09 2.65 o
7 9 1 3.43 5.15 3.10 o
8 9 1 3.27 3.83 2.39 o
9 9 1 0.55 -1.29 2.55 o
1 10 1 1.36 1.61 2.53 o
2 10 1 7.23 5.26 3.27 o
3 10 1 0.20 -2.48 2.48 o
4 10 1 0.08 0.98 2.47 o
5 10 1 3.54 5.27 3.65 o
6 10 1 1.44 3.72 4.63 o
7 10 1 0.95 3.95 4.25 o
0 11 1 5.98 11.01 6.18 o
1 11 1 1.18 6.22 4.53 o
2 11 1 0.95 7.47 3.93 o
3 11 1 0.97 -1.71 1.71 o
4 11 1 1.76 2.87 4.15 o
5 11 1 0.21 8.48 9.69 o
0 0 2 554.91 482.21 24.14 o
2 0 2 445.35 436.66 11.52 o
4 0 2 1.18 0.32 0.60 o
6 0 2 55.10 69.05 6.49 o
8 0 2 39.88 38.07 5.77 o
10 0 2 21.29 20.08 4.73 o
12 0 2 2.74 2.45 1.81 o
1 1 2 79.23 69.88 2.90 o
2 1 2 91.25 81.71 2.92 o
3 1 2 41.35 41.04 1.83 o
4 1 2 81.22 91.75 2.80 o
5 1 2 12.62 14.19 1.54 o
6 1 2 8.93 7.61 1.83 o
7 1 2 0.33 0.14 0.91 o
8 1 2 73.01 93.88 8.40 o
9 1 2 1.19 1.22 2.12 o
10 1 2 14.30 12.65 2.96 o
11 1 2 4.61 3.67 3.07 o
12 1 2 2.29 -1.51 3.10 o
13 1 2 2.24 3.17 10.48 o
0 2 2 32.97 35.55 3.63 o
1 2 2 104.47 115.57 3.81 o
2 2 2 151.43 150.46 4.38 o
3 2 2 72.02 83.32 5.23 o
4 2 2 48.19 52.07 2.55 o
5 2 2 4.26 4.56 0.88 o
6 2 2 11.13 12.88 1.63 o
7 2 2 1.27 2.86 1.45 o
8 2 2 2.98 2.93 1.36 o
9 2 2 2.20 -0.38 1.78 o
10 2 2 2.87 3.39 2.16 o
11 2 2 5.35 0.67 3.11 o
12 2 2 1.57 2.75 1.55 o
13 2 2 4.48 4.91 2.62 o
1 3 2 46.14 50.70 2.40 o
2 3 2 48.38 51.91 3.11 o
3 3 2 40.87 45.51 2.80 o
4 3 2 15.17 12.69 1.51 o
5 3 2 0.59 0.87 0.83 o
6 3 2 20.13 20.83 2.48 o
7 3 2 10.31 8.15 1.59 o
8 3 2 0.92 -0.47 1.47 o
9 3 2 0.27 0.98 1.06 o
10 3 2 1.53 -0.83 2.00 o
11 3 2 5.48 1.33 2.70 o
12 3 2 1.43 0.48 4.43 o
13 3 2 4.43 7.00 4.48 o
0 4 2 45.03 64.34 7.53 o
1 4 2 3.78 4.81 0.84 o
2 4 2 6.81 4.56 1.16 o
3 4 2 12.87 14.49 2.48 o
4 4 2 23.49 25.26 2.99 o
5 4 2 7.67 8.45 1.80 o
6 4 2 3.65 5.28 1.50 o
7 4 2 10.63 12.77 2.27 o
8 4 2 2.73 2.58 1.20 o
9 4 2 4.72 3.03 2.12 o
10 4 2 4.10 1.42 0.91 o
11 4 2 0.57 0.12 1.29 o
12 4 2 1.76 -0.58 4.71 o
13 4 2 0.67 -3.40 3.40 o
1 5 2 19.62 20.80 3.07 o
2 5 2 7.89 9.87 2.43 o
3 5 2 7.42 8.75 1.81 o
4 5 2 14.22 15.75 3.40 o
5 5 2 11.88 10.85 1.76 o
6 5 2 2.95 3.53 1.41 o
7 5 2 30.15 38.66 5.85 o
8 5 2 15.97 13.27 9.73 o
9 5 2 4.79 12.13 4.82 o
10 5 2 1.57 -0.86 2.41 o
11 5 2 0.02 0.19 3.84 o
12 5 2 0.17 -3.49 3.49 o
0 6 2 4.51 8.32 2.93 o
1 6 2 5.12 8.42 2.47 o
2 6 2 58.67 74.87 6.22 o
3 6 2 11.44 12.95 2.88 o
4 6 2 27.93 26.14 3.76 o
5 6 2 2.62 2.67 0.86 o
6 6 2 3.07 1.76 1.27 o
7 6 2 6.37 7.84 5.36 o
8 6 2 1.51 -0.07 5.40 o
9 6 2 3.47 -0.58 1.49 o
10 6 2 2.75 0.57 4.45 o
11 6 2 0.17 0.42 2.90 o
1 7 2 4.60 6.75 2.51 o
2 7 2 7.14 8.51 2.80 o
3 7 2 4.94 3.78 3.45 o
4 7 2 28.92 36.22 4.83 o
5 7 2 1.90 2.49 2.89 o
6 7 2 16.43 20.69 4.56 o
7 7 2 0.76 1.39 1.91 o
8 7 2 9.72 8.39 4.25 o
9 7 2 0.11 -0.63 2.63 o
10 7 2 0.25 -2.76 9.79 o
11 7 2 0.20 -0.30 3.34 o
0 8 2 1.88 2.34 2.27 o
1 8 2 0.74 -1.29 3.10 o
2 8 2 26.51 24.58 4.57 o
3 8 2 0.28 -1.49 1.85 o
4 8 2 12.74 16.72 10.05 o
5 8 2 3.11 13.76 8.47 o
6 8 2 2.41 4.11 8.10 o
7 8 2 2.82 5.15 6.72 o
8 8 2 0.96 1.05 2.06 o
9 8 2 0.49 -1.23 5.16 o
10 8 2 0.12 -8.26 8.26 o
1 9 2 0.57 -1.92 3.33 o
2 9 2 0.85 3.91 6.76 o
3 9 2 1.93 -4.99 4.99 o
4 9 2 3.52 4.76 2.05 o
5 9 2 4.38 20.16 11.57 o
6 9 2 0.83 -3.62 3.62 o
7 9 2 1.69 0.40 5.72 o
8 9 2 1.41 4.10 3.88 o
0 10 2 5.72 -1.72 4.06 o
1 10 2 0.81 0.85 1.10 o
2 10 2 1.43 -0.71 5.04 o
3 10 2 0.94 -0.07 4.45 o
4 10 2 0.29 2.27 3.23 o
5 10 2 0.59 6.96 10.10 o
6 10 2 0.82 3.07 2.49 o
1 11 2 0.05 -1.90 2.45 o
2 11 2 0.87 -0.49 2.16 o
2 0 3 1.84 2.66 1.14 o
4 0 3 17.90 21.97 2.97 o
6 0 3 5.11 6.55 2.13 o
8 0 3 30.91 44.34 16.20 o
10 0 3 1.31 0.59 2.67 o
0 1 3 0.18 1.36 1.06 o
1 1 3 9.24 9.01 1.34 o
2 1 3 50.28 50.18 3.19 o
3 1 3 15.72 17.15 1.69 o
4 1 3 0.98 1.84 0.57 o
5 1 3 1.77 2.22 0.99 o
6 1 3 8.90 10.99 1.98 o
7 1 3 1.01 1.23 1.78 o
8 1 3 4.98 5.01 2.80 o
9 1 3 0.35 0.18 0.76 o
10 1 3 2.57 2.02 1.88 o
11 1 3 0.59 6.72 4.37 o
1 2 3 18.02 21.02 2.38 o
2 2 3 1.36 1.38 1.04 o
3 2 3 21.61 23.82 2.19 o
4 2 3 9.86 10.49 1.49 o
5 2 3 9.79 13.40 2.60 o
6 2 3 0.03 1.20 1.86 o
7 2 3 1.86 3.08 1.24 o
8 2 3 6.02 6.57 3.23 o
9 2 3 0.23 0.18 2.21 o
10 2 3 0.06 0.69 1.25 o
11 2 3 0.72 0.62 3.06 o
0 3 3 1.70 1.70 0.95 o
1 3 3 7.17 8.56 1.24 o
2 3 3 5.16 8.63 1.60 o
3 3 3 16.28 20.75 2.37 o
4 3 3 4.13 1.38 1.85 o
5 3 3 0.38 1.89 1.05 o
6 3 3 0.13 -0.54 0.54 o
7 3 3 0.14 0.51 1.52 o
8 3 3 0.20 -0.40 2.11 o
9 3 3 2.44 7.14 3.12 o
10 3 3 0.44 0.34 1.40 o
1 4 3 3.60 5.38 1.14 o
2 4 3 1.50 0.16 1.09 o
3 4 3 9.27 10.71 2.05 o
4 4 3 0.15 0.26 2.11 o
5 4 3 0.61 -0.03 1.21 o
6 4 3 0.80 1.93 1.44 o
7 4 3 8.36 15.18 3.16 o
8 4 3 2.90 4.14 1.67 o
9 4 3 2.36 2.48 3.46 o
10 4 3 0.52 3.40 3.40 o
0 5 3 1.31 6.04 2.50 o
1 5 3 6.16 12.98 3.82 o
2 5 3 8.70 8.65 7.49 o
3 5 3 5.65 3.97 2.10 o
4 5 3 0.33 -1.24 2.11 o
5 5 3 1.40 2.08 1.26 o
6 5 3 1.19 0.81 1.42 o
7 5 3 3.73 3.70 1.07 o
8 5 3 0.27 1.93 1.58 o
9 5 3 3.11 4.47 3.85 o
1 6 3 6.22 12.08 5.43 o
2 6 3 3.06 2.71 2.23 o
3 6 3 2.89 0.05 6.58 o
4 6 3 8.10 7.31 2.43 o
5 6 3 0.99 -0.20 2.04 o
6 6 3 0.10 -0.53 1.27 o
7 6 3 2.69 0.27 3.91 o
8 6 3 4.71 10.94 5.61 o
1 7 3 0.73 6.43 4.35 o
2 7 3 14.47 20.89 4.89 o
3 7 3 0.54 2.79 1.25 o
4 7 3 1.31 2.28 2.34 o
5 7 3 0.08 -0.69 1.50 o
6 7 3 0.29 -0.78 0.78 o
7 7 3 0.07 1.83 2.26 o
8 7 3 0.04 4.24 3.53 o
2 8 3 0.26 0.36 1.29 o
3 8 3 0.87 3.36 1.42 o
4 8 3 3.98 7.63 3.23 o
5 8 3 1.06 -1.00 1.42 o
6 8 3 0.12 6.64 4.25 o
7 8 3 0.26 3.37 3.20 o
2 9 3 2.37 -0.37 1.44 o
0 0 4 3.92 3.79 2.62 o
2 0 4 3.37 3.70 2.45 o
4 0 4 0.74 1.13 1.19 o
6 0 4 1.67 1.68 1.87 o
8 0 4 0.65 1.28 4.73 o
1 1 4 0.79 0.80 0.53 o
2 1 4 0.71 0.32 0.65 o
3 1 4 1.30 3.20 1.23 o
4 1 4 0.75 0.19 0.99 o
5 1 4 1.78 3.58 0.98 o
6 1 4 1.47 4.73 1.43 o
7 1 4 0.28 0.88 1.31 o
8 1 4 2.02 0.65 2.43 o
0 2 4 1.27 1.75 0.57 o
1 2 4 0.78 1.14 0.72 o
2 2 4 1.68 0.72 0.82 o
3 2 4 4.87 4.91 1.22 o
4 2 4 0.28 0.89 1.41 o
5 2 4 0.89 1.67 1.48 o
6 2 4 0.26 0.71 1.58 o
7 2 4 0.55 2.15 1.37 o
1 3 4 0.54 0.03 0.84 o
2 3 4 0.07 0.59 1.24 o
3 3 4 2.72 2.88 1.45 o
4 3 4 0.19 2.38 2.43 o
5 3 4 2.38 0.55 1.24 o
6 3 4 0.13 -1.63 1.64 o
7 3 4 1.02 1.12 5.41 o
0 4 4 0.45 3.35 1.66 o
1 4 4 1.95 2.61 1.50 o
2 4 4 0.03 0.08 1.17 o
3 4 4 1.22 1.98 0.89 o
4 4 4 0.08 -0.11 1.16 o
5 4 4 0.08 0.23 1.13 o
6 4 4 0.14 -0.65 6.82 o
7 4 4 0.15 -5.97 5.97 o
1 5 4 2.15 5.55 2.89 o
2 5 4 0.58 1.34 1.95 o
3 5 4 1.53 3.08 1.56 o
4 5 4 0.26 1.97 1.30 o
5 5 4 0.03 -1.07 1.69 o
6 5 4 0.27 8.96 5.20 o
0 6 4 2.03 5.20 3.95 o
1 6 4 1.30 6.67 3.19 o
2 6 4 1.28 2.88 2.70 o
3 6 4 0.38 0.37 1.75 o
4 6 4 0.25 -1.75 1.75 o
