#------------------------------------------------------------------------------
#$Date: 2019-11-22 19:03:52 +0200 (Fri, 22 Nov 2019) $
#$Revision: 231268 $
#$URL: file:///home/coder/svn-repositories/cod/cif/4/51/63/4516349.cif $
#------------------------------------------------------------------------------
#
# This file is available in the Crystallography Open Database (COD),
# http://www.crystallography.net/
#
# All data on this site have been placed in the public domain by the
# contributors.
#
data_4516349
loop_
_publ_author_name
'Patyk, Ewa'
'Podsiad\/lo, Marcin'
'Katrusiak, Andrzej'
_publ_section_title
;
 CH&#x00B7;&#x00B7;&#x00B7;N Bonds and Dynamics in Isostructural
 Pyrimidine Polymorphs
;
_journal_issue                   8
_journal_name_full               'Crystal Growth &amp; Design'
_journal_page_first              4039
_journal_paper_doi               10.1021/acs.cgd.5b00657
_journal_volume                  15
_journal_year                    2015
_chemical_formula_moiety         'C4 H4 N2'
_chemical_formula_sum            'C4 H4 N2'
_chemical_formula_weight         80.09
_chemical_melting_point          293.15
_chemical_name_common            pyrimidine
_chemical_name_systematic
; 
pyrimidine phase II
;
_space_group_IT_number           33
_space_group_name_Hall           'P 2c -2n'
_space_group_name_H-M_alt        'P n a 21'
_symmetry_cell_setting           orthorhombic
_symmetry_space_group_name_Hall  'P 2c -2n'
_symmetry_space_group_name_H-M   'P n a 21'
_atom_sites_solution_hydrogens   geom
_atom_sites_solution_primary     direct
_atom_sites_solution_secondary   difmap
_audit_creation_method           SHELXL-97
_cell_angle_alpha                90.00
_cell_angle_beta                 90.00
_cell_angle_gamma                90.00
_cell_formula_units_Z            4
_cell_length_a                   11.659(3)
_cell_length_b                   9.479(3)
_cell_length_c                   3.7704(10)
_cell_measurement_reflns_used    3020
_cell_measurement_temperature    220.0(1)
_cell_measurement_theta_max      28.07
_cell_measurement_theta_min      3.49
_cell_volume                     416.7(2)
_computing_cell_refinement       'CrysAlisRED (Oxford Diffraction, 2004)'
_computing_data_collection       'CrysAlisCCD (Oxford Diffraction, 2004)'
_computing_data_reduction        'CrysAlisRED (Oxford Diffraction, 2004)'
_computing_molecular_graphics    'SHELXTL (Sheldrick, 1990)'
_computing_publication_material  'SHELXL--97 (Sheldrick, 1997)'
_computing_structure_refinement  'SHELXL--97 (Sheldrick, 1997)'
_computing_structure_solution    'SHELXS--97 (Sheldrick, 1997)'
_diffrn_ambient_pressure         100
_diffrn_ambient_temperature      220.0(1)
_diffrn_measured_fraction_theta_full 0.910
_diffrn_measured_fraction_theta_max 0.910
_diffrn_measurement_device_type  'KM-4 CCD'
_diffrn_measurement_method       \w-scans
_diffrn_radiation_monochromator  graphite
_diffrn_radiation_source         'fine-focus sealed tube'
_diffrn_radiation_type           MoK\a
_diffrn_radiation_wavelength     0.71073
_diffrn_reflns_av_R_equivalents  0.0607
_diffrn_reflns_av_sigmaI/netI    0.0554
_diffrn_reflns_limit_h_max       14
_diffrn_reflns_limit_h_min       -14
_diffrn_reflns_limit_k_max       11
_diffrn_reflns_limit_k_min       -11
_diffrn_reflns_limit_l_max       4
_diffrn_reflns_limit_l_min       -4
_diffrn_reflns_number            3020
_diffrn_reflns_theta_full        28.07
_diffrn_reflns_theta_max         28.07
_diffrn_reflns_theta_min         3.49
_diffrn_standards_decay_%        0
_diffrn_standards_interval_count 0
_diffrn_standards_number         0
_exptl_absorpt_coefficient_mu    0.084
_exptl_absorpt_correction_T_max  0.983
_exptl_absorpt_correction_T_min  0.983
_exptl_absorpt_correction_type   numerical
_exptl_absorpt_process_details
; 
 Correction for absorption was made using XEMP (SHELXTL, 
 Sheldrick (1990)).
;
_exptl_crystal_colour            colourless
_exptl_crystal_density_diffrn    1.277
_exptl_crystal_density_method    'not measured'
_exptl_crystal_description       irregular
_exptl_crystal_F_000             168
_exptl_crystal_size_max          0.20
_exptl_crystal_size_mid          0.20
_exptl_crystal_size_min          0.20
_refine_diff_density_max         0.138
_refine_diff_density_min         -0.132
_refine_diff_density_rms         0.035
_refine_ls_abs_structure_details 'Flack H D (1983), Acta Cryst. A39, 876-881'
_refine_ls_abs_structure_Flack   2(7)
_refine_ls_extinction_coef       0.049(9)
_refine_ls_extinction_expression Fc^*^=kFc[1+0.001xFc^2^\l^3^/sin(2\q)]^-1/4^
_refine_ls_extinction_method     SHELXL
_refine_ls_goodness_of_fit_ref   1.006
_refine_ls_hydrogen_treatment    constr
_refine_ls_matrix_type           full
_refine_ls_number_parameters     56
_refine_ls_number_reflns         877
_refine_ls_number_restraints     1
_refine_ls_restrained_S_all      1.006
_refine_ls_R_factor_all          0.0978
_refine_ls_R_factor_gt           0.0558
_refine_ls_shift/su_max          0.000
_refine_ls_shift/su_mean         0.000
_refine_ls_structure_factor_coef Fsqd
_refine_ls_weighting_details
'calc w=1/[\s^2^(Fo^2^)+(0.0495P)^2^+0.0000P] where P=(Fo^2^+2Fc^2^)/3'
_refine_ls_weighting_scheme      calc
_refine_ls_wR_factor_gt          0.1126
_refine_ls_wR_factor_ref         0.1334
_reflns_number_gt                567
_reflns_number_total             877
_reflns_threshold_expression     >2sigma(I)
_cod_data_source_file            cg5b00657_si_002.cif
_cod_data_source_block           phaseII_220K
_cod_original_cell_volume        416.68(19)
_cod_database_code               4516349
loop_
_symmetry_equiv_pos_as_xyz
'x, y, z'
'-x, -y, z+1/2'
'x+1/2, -y+1/2, z'
'-x+1/2, y+1/2, z+1/2'
loop_
_atom_site_label
_atom_site_type_symbol
_atom_site_fract_x
_atom_site_fract_y
_atom_site_fract_z
_atom_site_U_iso_or_equiv
_atom_site_adp_type
_atom_site_occupancy
_atom_site_symmetry_multiplicity
_atom_site_calc_flag
_atom_site_refinement_flags
N1 N 0.1272(2) 0.3972(2) 0.0235(10) 0.0553(8) Uani 1 1 d .
N3 N 0.0118(2) 0.1908(3) 0.0167(8) 0.0576(9) Uani 1 1 d .
C2 C 0.0307(2) 0.3260(3) 0.0743(12) 0.0516(10) Uani 1 1 d .
H2 H -0.0311 0.3776 0.1611 0.062 Uiso 1 1 calc R
C4 C 0.1014(3) 0.1195(3) -0.1056(11) 0.0565(10) Uani 1 1 d .
H4 H 0.0924 0.0240 -0.1546 0.068 Uiso 1 1 calc R
C5 C 0.2067(3) 0.1798(3) -0.1633(9) 0.0523(10) Uani 1 1 d .
H5 H 0.2689 0.1277 -0.2451 0.063 Uiso 1 1 calc R
C6 C 0.2149(3) 0.3210(3) -0.0937(8) 0.0535(11) Uani 1 1 d .
H6 H 0.2850 0.3656 -0.1299 0.064 Uiso 1 1 calc R
loop_
_atom_site_aniso_label
_atom_site_aniso_U_11
_atom_site_aniso_U_22
_atom_site_aniso_U_33
_atom_site_aniso_U_23
_atom_site_aniso_U_13
_atom_site_aniso_U_12
N1 0.0470(14) 0.0411(13) 0.078(2) -0.0055(15) -0.0063(16) -0.0021(12)
N3 0.0449(14) 0.0448(14) 0.083(3) -0.0034(19) 0.0006(15) -0.0037(12)
C2 0.0419(17) 0.0460(18) 0.067(3) -0.009(2) -0.0030(18) 0.0054(14)
C4 0.059(2) 0.0387(16) 0.072(3) -0.0070(16) -0.0070(16) 0.0043(16)
C5 0.0418(17) 0.0532(19) 0.062(2) -0.0081(19) -0.0013(16) 0.0071(15)
C6 0.0392(16) 0.055(2) 0.066(3) -0.003(2) -0.0027(14) -0.0067(14)
loop_
_atom_type_symbol
_atom_type_description
_atom_type_scat_dispersion_real
_atom_type_scat_dispersion_imag
_atom_type_scat_source
C C 0.0033 0.0016 'International Tables Vol C Tables 4.2.6.8 and 6.1.1.4'
H H 0.0000 0.0000 'International Tables Vol C Tables 4.2.6.8 and 6.1.1.4'
N N 0.0061 0.0033 'International Tables Vol C Tables 4.2.6.8 and 6.1.1.4'
loop_
_geom_angle_atom_site_label_1
_geom_angle_atom_site_label_2
_geom_angle_atom_site_label_3
_geom_angle
C2 N1 C6 115.1(3)
C2 N3 C4 114.9(3)
N3 C2 N1 127.8(3)
N3 C4 C5 123.2(3)
C6 C5 C4 116.1(3)
N1 C6 C5 122.8(3)
loop_
_geom_bond_atom_site_label_1
_geom_bond_atom_site_label_2
_geom_bond_distance
N1 C2 1.326(3)
N1 C6 1.328(4)
N3 C2 1.318(3)
N3 C4 1.327(4)
C4 C5 1.372(4)
C5 C6 1.367(4)
loop_
_refln_index_h
_refln_index_k
_refln_index_l
_refln_F_squared_calc
_refln_F_squared_meas
_refln_F_squared_sigma
_refln_observed_status
0 0 -4 7.74 10.99 2.69 o
2 0 -4 5.19 5.08 1.10 o
4 0 -4 1.18 1.09 1.13 o
6 0 -4 3.55 6.21 1.56 o
1 1 -4 1.45 0.34 0.63 o
2 1 -4 1.49 1.43 0.54 o
3 1 -4 2.49 0.89 0.68 o
4 1 -4 0.96 0.15 0.66 o
5 1 -4 3.84 3.11 1.24 o
6 1 -4 2.74 2.64 1.04 o
7 1 -4 0.52 2.01 1.32 o
0 2 -4 2.29 2.45 1.27 o
1 2 -4 1.67 1.32 0.77 o
2 2 -4 2.72 1.96 0.76 o
3 2 -4 9.73 8.87 1.17 o
4 2 -4 0.70 2.24 0.81 o
5 2 -4 1.85 1.78 0.90 o
6 2 -4 0.48 -0.06 0.69 o
7 2 -4 1.48 1.30 0.81 o
1 3 -4 0.78 0.56 0.61 o
2 3 -4 0.07 1.39 0.90 o
3 3 -4 5.61 5.91 1.11 o
4 3 -4 0.39 3.13 1.02 o
5 3 -4 5.31 4.65 1.28 o
6 3 -4 0.27 1.53 1.48 o
7 3 -4 2.04 0.63 1.59 o
0 4 -4 0.88 3.03 1.34 o
1 4 -4 4.26 4.56 1.32 o
2 4 -4 0.05 1.78 0.86 o
3 4 -4 2.48 2.71 0.93 o
4 4 -4 0.04 0.75 1.41 o
5 4 -4 0.22 1.82 1.09 o
6 4 -4 0.44 0.98 1.47 o
7 4 -4 0.38 3.01 2.65 o
1 5 -4 5.31 4.35 3.79 o
2 5 -4 1.14 3.50 1.38 o
3 5 -4 2.69 4.80 2.51 o
4 5 -4 0.44 -1.17 1.24 o
5 5 -4 0.12 -1.64 1.64 o
6 5 -4 0.62 6.30 3.10 o
0 6 -4 3.91 9.83 3.66 o
1 6 -4 2.60 7.09 3.32 o
2 6 -4 2.61 4.20 1.84 o
4 6 -4 0.73 2.34 2.79 o
2 0 -3 2.22 1.79 0.77 o
4 0 -3 23.22 25.06 2.12 o
6 0 -3 7.93 8.28 1.65 o
8 0 -3 48.00 53.97 10.33 o
10 0 -3 2.27 -0.21 1.76 o
0 1 -3 0.05 -0.97 1.06 o
1 1 -3 13.59 12.97 1.27 o
2 1 -3 68.22 66.74 2.44 o
3 1 -3 24.21 21.17 1.29 o
4 1 -3 2.25 1.97 0.72 o
5 1 -3 2.56 1.92 0.66 o
6 1 -3 14.10 17.17 1.78 o
7 1 -3 2.10 2.72 1.34 o
8 1 -3 9.30 11.52 1.92 o
9 1 -3 0.40 0.90 1.15 o
10 1 -3 4.18 3.13 1.40 o
11 1 -3 1.45 1.15 2.11 o
1 2 -3 25.25 30.74 2.71 o
2 2 -3 2.09 2.08 0.84 o
3 2 -3 33.05 34.73 1.78 o
4 2 -3 13.80 15.63 1.32 o
5 2 -3 16.62 19.12 1.77 o
6 2 -3 0.20 0.13 0.94 o
7 2 -3 2.71 2.63 1.02 o
8 2 -3 8.90 6.09 1.84 o
9 2 -3 0.99 1.99 2.07 o
10 2 -3 0.13 -0.24 3.73 o
0 3 -3 2.63 3.81 1.62 o
1 3 -3 11.42 12.09 1.19 o
2 3 -3 7.44 10.98 1.31 o
3 3 -3 25.70 28.33 1.87 o
4 3 -3 4.89 6.43 1.33 o
5 3 -3 0.69 -0.99 1.07 o
6 3 -3 0.20 -1.22 1.22 o
7 3 -3 0.44 -0.21 1.40 o
8 3 -3 0.22 1.34 1.09 o
9 3 -3 3.95 5.77 1.94 o
10 3 -3 0.89 -0.90 2.00 o
1 4 -3 6.20 8.62 1.03 o
2 4 -3 2.28 2.41 0.88 o
3 4 -3 15.21 12.53 2.62 o
4 4 -3 0.17 0.96 1.14 o
5 4 -3 1.03 0.55 0.94 o
6 4 -3 0.92 0.07 1.06 o
7 4 -3 14.35 15.90 2.23 o
8 4 -3 5.43 8.98 1.82 o
9 4 -3 4.73 6.84 3.33 o
0 5 -3 2.28 6.05 1.75 o
1 5 -3 9.82 14.73 1.96 o
2 5 -3 13.51 23.15 4.05 o
3 5 -3 10.78 10.76 2.96 o
4 5 -3 1.17 1.47 1.03 o
5 5 -3 1.85 1.85 1.08 o
6 5 -3 2.30 4.59 1.51 o
7 5 -3 7.29 9.80 2.45 o
8 5 -3 0.57 2.01 1.81 o
9 5 -3 6.59 8.99 3.78 o
1 6 -3 11.64 11.49 3.42 o
2 6 -3 5.07 3.38 2.07 o
3 6 -3 3.89 1.43 1.11 o
4 6 -3 13.49 9.56 2.67 o
5 6 -3 1.64 0.34 1.01 o
6 6 -3 0.11 -0.10 1.05 o
7 6 -3 5.30 2.65 3.35 o
8 6 -3 8.41 11.92 3.65 o
1 7 -3 0.67 1.15 2.25 o
2 7 -3 25.78 27.56 5.01 o
3 7 -3 1.15 -0.60 3.35 o
4 7 -3 1.81 1.94 1.33 o
5 7 -3 0.29 -2.57 3.17 o
6 7 -3 0.48 0.76 2.92 o
7 7 -3 0.22 4.09 2.73 o
8 7 -3 0.28 8.03 3.49 o
2 8 -3 0.76 -2.75 3.45 o
3 8 -3 2.44 3.70 6.70 o
4 8 -3 7.88 5.83 5.27 o
5 8 -3 2.33 -1.64 1.74 o
6 8 -3 0.62 2.62 2.58 o
7 8 -3 0.44 7.52 3.69 o
2 9 -3 4.47 -1.98 2.68 o
0 0 -2 604.13 531.03 16.06 o
2 0 -2 521.70 481.49 7.51 o
4 0 -2 2.99 3.37 0.60 o
6 0 -2 73.53 76.31 4.17 o
8 0 -2 57.24 54.67 4.10 o
10 0 -2 32.81 29.23 4.15 o
12 0 -2 3.72 6.74 3.72 o
1 1 -2 94.81 84.50 3.23 o
2 1 -2 103.86 94.29 1.75 o
3 1 -2 51.12 50.52 1.29 o
4 1 -2 95.95 101.36 1.87 o
5 1 -2 17.58 16.88 1.08 o
6 1 -2 10.72 12.35 1.05 o
7 1 -2 0.37 0.65 0.65 o
8 1 -2 98.66 105.83 3.82 o
9 1 -2 2.60 2.25 1.04 o
10 1 -2 18.53 17.15 2.34 o
11 1 -2 7.21 8.19 2.62 o
12 1 -2 3.35 2.27 1.45 o
13 1 -2 4.09 5.13 2.16 o
0 2 -2 35.46 34.78 2.67 o
1 2 -2 129.23 136.00 2.61 o
2 2 -2 183.49 186.50 4.12 o
3 2 -2 92.15 97.45 3.90 o
4 2 -2 55.37 55.91 1.67 o
5 2 -2 4.52 4.54 0.66 o
6 2 -2 14.69 16.85 1.32 o
7 2 -2 2.44 1.73 0.76 o
8 2 -2 4.68 5.28 1.02 o
9 2 -2 3.07 5.10 1.05 o
10 2 -2 4.22 3.57 1.72 o
11 2 -2 10.65 11.14 2.43 o
12 2 -2 3.68 3.65 2.25 o
13 2 -2 7.96 6.62 4.01 o
1 3 -2 54.27 59.04 1.65 o
2 3 -2 56.92 59.98 2.27 o
3 3 -2 52.45 55.91 1.94 o
4 3 -2 20.48 21.23 1.38 o
5 3 -2 0.82 1.06 0.56 o
6 3 -2 23.74 24.47 1.62 o
7 3 -2 14.53 15.94 1.41 o
8 3 -2 1.45 2.55 0.81 o
9 3 -2 0.10 -0.36 0.69 o
10 3 -2 2.30 3.31 1.84 o
11 3 -2 9.27 5.94 2.23 o
12 3 -2 2.35 1.54 5.86 o
13 3 -2 8.01 4.95 2.14 o
0 4 -2 58.13 68.06 3.04 o
1 4 -2 5.22 6.48 0.65 o
2 4 -2 8.10 8.86 1.42 o
3 4 -2 19.69 20.92 1.90 o
4 4 -2 27.74 29.54 2.12 o
5 4 -2 11.13 10.85 1.23 o
6 4 -2 5.37 6.74 1.04 o
7 4 -2 16.39 19.70 1.80 o
8 4 -2 3.87 4.19 1.27 o
9 4 -2 7.38 7.23 1.55 o
10 4 -2 6.70 10.63 2.51 o
11 4 -2 1.23 4.69 1.98 o
12 4 -2 2.15 3.07 1.86 o
13 4 -2 1.32 2.87 3.21 o
1 5 -2 27.70 32.43 2.27 o
2 5 -2 12.30 12.24 1.54 o
3 5 -2 9.98 7.62 1.62 o
4 5 -2 18.62 18.52 1.80 o
5 5 -2 17.41 17.66 1.73 o
6 5 -2 3.76 3.09 1.12 o
7 5 -2 46.00 51.94 3.55 o
8 5 -2 24.39 32.82 3.51 o
9 5 -2 8.38 11.01 2.68 o
10 5 -2 2.10 2.43 1.57 o
11 5 -2 0.24 -0.71 2.84 o
12 5 -2 0.34 -2.59 2.59 o
0 6 -2 7.32 6.39 2.40 o
1 6 -2 5.73 8.29 1.33 o
2 6 -2 83.66 94.10 4.09 o
3 6 -2 15.72 14.82 2.52 o
4 6 -2 39.32 34.70 2.95 o
5 6 -2 3.36 3.16 1.00 o
6 6 -2 5.45 4.99 1.16 o
7 6 -2 11.50 14.20 2.43 o
8 6 -2 2.16 2.18 2.00 o
9 6 -2 6.65 3.91 2.29 o
10 6 -2 4.86 6.07 2.54 o
11 6 -2 0.34 2.49 1.81 o
1 7 -2 6.48 6.74 1.74 o
2 7 -2 10.03 11.24 1.97 o
3 7 -2 7.50 6.03 1.58 o
4 7 -2 45.62 47.19 3.57 o
5 7 -2 3.52 3.84 1.07 o
6 7 -2 23.53 28.12 3.32 o
7 7 -2 1.28 1.90 1.15 o
8 7 -2 16.53 16.59 3.79 o
9 7 -2 0.32 0.57 1.47 o
10 7 -2 0.52 2.42 7.42 o
11 7 -2 0.39 2.98 2.30 o
0 8 -2 3.30 6.43 2.65 o
1 8 -2 1.04 0.23 2.03 o
2 8 -2 43.29 48.49 5.42 o
3 8 -2 0.47 0.21 1.00 o
4 8 -2 18.98 14.43 4.92 o
5 8 -2 6.12 6.69 3.74 o
6 8 -2 3.87 1.24 3.34 o
7 8 -2 5.82 10.16 3.34 o
8 8 -2 2.48 2.43 3.22 o
9 8 -2 0.75 1.03 3.54 o
1 9 -2 0.77 1.04 1.90 o
2 9 -2 1.81 3.20 1.86 o
3 9 -2 4.18 4.90 2.50 o
4 9 -2 6.75 7.81 3.42 o
5 9 -2 8.28 11.06 4.74 o
6 9 -2 2.18 2.08 1.53 o
7 9 -2 3.41 5.01 3.40 o
8 9 -2 2.68 5.63 2.67 o
0 10 -2 8.87 14.57 5.38 o
1 10 -2 1.88 2.92 3.50 o
2 10 -2 2.01 6.41 2.83 o
3 10 -2 1.00 -1.66 2.10 o
4 10 -2 0.74 -0.32 1.66 o
5 10 -2 1.24 -3.78 3.78 o
6 10 -2 1.32 1.24 1.98 o
1 11 -2 0.25 2.09 1.69 o
2 11 -2 1.67 -1.74 2.55 o
2 0 -1 2358.70 2343.67 57.34 o
4 0 -1 113.90 112.31 3.90 o
6 0 -1 67.40 67.93 5.09 o
8 0 -1 117.56 117.02 7.96 o
10 0 -1 155.94 156.70 10.36 o
12 0 -1 13.81 16.38 3.81 o
14 0 -1 0.87 0.38 2.53 o
0 1 -1 5688.02 5686.89 25.52 o
1 1 -1 156.96 155.67 2.20 o
2 1 -1 810.89 775.10 8.18 o
3 1 -1 54.25 51.47 1.29 o
4 1 -1 191.00 185.79 4.41 o
5 1 -1 19.11 19.32 1.27 o
6 1 -1 74.85 74.29 2.61 o
7 1 -1 5.25 5.68 1.00 o
8 1 -1 55.87 53.47 3.15 o
9 1 -1 23.05 23.83 2.70 o
10 1 -1 58.94 59.49 4.60 o
11 1 -1 4.26 4.63 1.37 o
12 1 -1 20.45 17.64 2.69 o
13 1 -1 6.89 8.35 2.17 o
14 1 -1 6.16 5.84 1.75 o
1 2 -1 245.03 228.84 3.54 o
2 2 -1 13.39 13.80 1.38 o
3 2 -1 93.37 92.62 2.04 o
4 2 -1 102.40 102.99 3.31 o
5 2 -1 10.59 12.55 1.03 o
6 2 -1 213.00 234.38 5.25 o
7 2 -1 4.70 3.59 0.95 o
8 2 -1 27.28 24.64 2.08 o
9 2 -1 4.99 6.31 1.68 o
10 2 -1 21.47 22.87 2.96 o
11 2 -1 51.63 54.70 4.64 o
12 2 -1 3.92 3.43 1.47 o
13 2 -1 8.48 6.29 1.84 o
14 2 -1 2.99 0.26 2.11 o
0 3 -1 142.50 130.48 4.00 o
1 3 -1 79.85 71.26 2.72 o
2 3 -1 17.81 16.28 0.98 o
3 3 -1 14.15 12.62 0.81 o
4 3 -1 422.13 434.55 4.45 o
5 3 -1 3.82 4.25 0.69 o
6 3 -1 30.36 30.10 2.09 o
7 3 -1 2.62 3.75 0.78 o
8 3 -1 12.27 13.57 1.63 o
9 3 -1 8.02 8.99 1.84 o
10 3 -1 0.59 0.32 1.21 o
11 3 -1 6.55 8.19 2.03 o
12 3 -1 4.60 1.16 1.28 o
13 3 -1 5.08 4.46 1.68 o
14 3 -1 1.80 -0.44 1.91 o
1 4 -1 49.25 50.20 2.23 o
2 4 -1 301.25 287.69 7.09 o
3 4 -1 1.94 2.11 0.64 o
4 4 -1 5.02 4.94 1.29 o
5 4 -1 17.48 18.79 1.59 o
6 4 -1 26.93 30.84 2.26 o
7 4 -1 62.38 59.85 4.84 o
8 4 -1 7.77 7.41 1.88 o
9 4 -1 9.14 9.42 1.98 o
10 4 -1 12.46 14.08 2.51 o
11 4 -1 6.82 5.03 1.61 o
12 4 -1 2.41 3.99 1.65 o
13 4 -1 2.59 -0.39 1.26 o
0 5 -1 346.12 348.97 20.95 o
1 5 -1 5.27 4.46 1.10 o
2 5 -1 67.21 67.71 2.85 o
3 5 -1 14.83 13.25 1.35 o
4 5 -1 22.21 19.80 1.72 o
5 5 -1 42.14 39.79 1.95 o
6 5 -1 5.24 5.66 1.11 o
7 5 -1 19.85 19.91 2.98 o
8 5 -1 1.27 1.64 2.25 o
9 5 -1 11.49 9.34 2.32 o
10 5 -1 12.63 13.22 2.40 o
11 5 -1 1.03 -1.30 1.30 o
12 5 -1 6.38 8.79 2.32 o
13 5 -1 1.10 8.02 3.82 o
1 6 -1 26.06 26.10 2.46 o
2 6 -1 6.15 4.33 1.24 o
3 6 -1 7.45 6.41 1.15 o
4 6 -1 38.65 38.52 2.37 o
5 6 -1 25.55 24.93 2.83 o
6 6 -1 155.99 166.36 8.37 o
7 6 -1 32.41 34.99 4.02 o
8 6 -1 19.71 18.55 3.24 o
9 6 -1 2.14 3.56 1.93 o
10 6 -1 7.92 9.52 3.10 o
11 6 -1 0.39 -0.13 1.10 o
12 6 -1 2.86 3.30 1.77 o
0 7 -1 28.74 29.31 4.01 o
1 7 -1 3.07 2.64 1.11 o
2 7 -1 56.68 49.66 5.25 o
3 7 -1 4.98 4.80 0.88 o
4 7 -1 229.64 227.13 11.67 o
5 7 -1 3.57 2.79 1.45 o
6 7 -1 22.12 25.91 3.84 o
7 7 -1 8.89 9.56 2.25 o
8 7 -1 8.27 7.06 2.20 o
9 7 -1 0.87 -1.34 1.48 o
10 7 -1 4.53 2.25 1.78 o
11 7 -1 0.04 -0.49 1.84 o
1 8 -1 0.45 0.48 1.01 o
2 8 -1 1.88 2.94 1.41 o
3 8 -1 20.72 21.02 2.78 o
4 8 -1 28.20 26.71 4.71 o
5 8 -1 9.02 10.25 3.15 o
6 8 -1 73.85 70.70 6.10 o
7 8 -1 2.95 5.08 1.84 o
8 8 -1 7.82 7.46 3.68 o
9 8 -1 0.85 1.47 1.61 o
10 8 -1 7.64 8.87 2.86 o
0 9 -1 40.29 31.13 4.77 o
1 9 -1 0.61 0.90 1.31 o
2 9 -1 11.92 12.17 2.25 o
3 9 -1 2.27 1.63 0.99 o
4 9 -1 15.76 15.55 3.52 o
5 9 -1 12.55 12.38 3.27 o
6 9 -1 6.43 8.08 3.06 o
7 9 -1 6.42 6.70 2.15 o
8 9 -1 5.30 9.98 2.81 o
9 9 -1 0.81 -0.75 1.37 o
1 10 -1 3.45 2.37 1.29 o
2 10 -1 12.05 10.30 2.36 o
3 10 -1 0.53 2.76 1.43 o
4 10 -1 0.19 1.48 5.17 o
5 10 -1 5.53 5.40 2.29 o
6 10 -1 2.29 6.64 3.00 o
7 10 -1 1.88 5.83 2.48 o
0 11 -1 8.72 5.46 2.10 o
1 11 -1 3.17 4.87 1.86 o
2 11 -1 1.39 1.93 2.01 o
3 11 -1 1.74 2.62 1.43 o
4 11 -1 3.81 8.98 3.25 o
5 11 -1 0.28 6.66 4.36 o
2 0 0 114.78 141.58 4.15 o
4 0 0 310.29 337.28 9.22 o
6 0 0 26.70 26.63 3.21 o
8 0 0 122.32 124.30 8.10 o
10 0 0 118.37 110.34 8.73 o
12 0 0 60.99 59.30 6.90 o
14 0 0 4.39 7.22 3.11 o
2 1 0 2668.49 2938.27 23.09 o
3 1 0 34.74 42.46 1.40 o
4 1 0 3.61 5.66 1.05 o
5 1 0 0.04 0.02 0.57 o
6 1 0 235.18 246.27 6.89 o
7 1 0 24.54 23.66 2.54 o
8 1 0 9.89 9.90 1.73 o
9 1 0 1.50 0.85 1.32 o
10 1 0 172.37 171.46 7.57 o
11 1 0 40.66 38.75 3.91 o
12 1 0 15.69 18.01 2.96 o
13 1 0 1.64 2.48 1.53 o
14 1 0 0.38 0.97 2.02 o
0 2 0 1779.40 1646.85 15.58 o
1 2 0 30.89 30.43 1.09 o
2 2 0 13.89 13.15 0.77 o
3 2 0 0.46 0.53 0.24 o
4 2 0 989.52 1048.55 22.17 o
5 2 0 27.38 28.92 2.74 o
6 2 0 80.21 90.30 5.14 o
7 2 0 1.42 2.03 1.21 o
8 2 0 0.06 -0.93 1.04 o
9 2 0 63.95 64.55 5.00 o
10 2 0 24.76 28.05 3.27 o
11 2 0 0.11 0.26 1.79 o
12 2 0 4.69 3.81 1.48 o
13 2 0 13.20 12.97 2.58 o
14 2 0 3.83 4.50 2.05 o
1 3 0 8.35 13.49 1.64 o
2 3 0 470.83 454.80 6.58 o
3 3 0 6.73 5.21 0.74 o
4 3 0 36.08 34.11 2.82 o
5 3 0 10.91 13.50 1.96 o
6 3 0 362.46 428.49 14.07 o
7 3 0 4.98 7.21 1.97 o
8 3 0 5.27 3.24 1.37 o
9 3 0 14.39 13.43 2.27 o
10 3 0 0.13 0.08 1.63 o
11 3 0 48.84 44.51 4.28 o
12 3 0 0.18 1.13 1.27 o
13 3 0 1.69 0.33 1.31 o
14 3 0 3.88 1.52 1.70 o
0 4 0 1267.82 1143.72 18.18 o
1 4 0 8.87 9.39 1.24 o
2 4 0 0.31 1.00 0.44 o
3 4 0 2.05 2.71 1.14 o
4 4 0 120.23 116.22 3.22 o
5 4 0 62.93 55.93 5.96 o
6 4 0 11.68 12.40 2.40 o
7 4 0 1.75 1.89 1.30 o
8 4 0 17.13 19.75 3.03 o
9 4 0 0.01 -1.40 1.40 o
10 4 0 5.37 6.26 1.70 o
11 4 0 1.87 1.53 1.40 o
12 4 0 12.89 14.05 2.99 o
13 4 0 0.14 0.19 1.49 o
1 5 0 77.79 81.80 3.98 o
2 5 0 137.95 145.11 5.22 o
3 5 0 0.65 1.14 0.53 o
4 5 0 0.11 3.34 1.91 o
5 5 0 19.20 19.06 2.50 o
6 5 0 53.24 49.43 4.38 o
7 5 0 78.58 81.93 5.85 o
8 5 0 1.86 3.53 1.85 o
9 5 0 8.46 8.33 2.36 o
10 5 0 21.24 23.63 3.67 o
11 5 0 0.02 0.98 1.31 o
12 5 0 5.27 4.08 1.71 o
13 5 0 0.09 1.35 2.16 o
0 6 0 234.01 221.92 9.90 o
1 6 0 0.39 -0.58 0.93 o
2 6 0 0.65 0.95 1.17 o
3 6 0 1.81 0.93 1.03 o
4 6 0 330.05 323.87 13.02 o
5 6 0 9.69 6.08 2.32 o
6 6 0 19.45 19.07 2.95 o
7 6 0 6.73 5.61 2.28 o
8 6 0 12.15 14.76 2.63 o
9 6 0 7.64 7.64 2.46 o
10 6 0 11.47 13.21 3.11 o
11 6 0 0.51 -1.43 1.46 o
12 6 0 5.62 6.45 1.94 o
1 7 0 1.40 2.69 1.26 o
2 7 0 9.66 6.04 1.49 o
3 7 0 30.00 27.44 2.85 o
4 7 0 15.30 10.91 2.28 o
5 7 0 31.49 34.40 4.88 o
6 7 0 304.87 313.59 12.02 o
7 7 0 1.42 2.48 2.23 o
8 7 0 1.66 0.72 1.42 o
9 7 0 0.23 0.05 1.27 o
10 7 0 12.84 15.75 3.38 o
11 7 0 0.00 -0.58 1.94 o
0 8 0 49.02 43.09 5.13 o
1 8 0 3.97 2.32 1.18 o
2 8 0 0.83 0.45 1.03 o
3 8 0 0.75 0.20 1.07 o
4 8 0 180.45 185.53 9.83 o
5 8 0 23.57 25.15 4.36 o
6 8 0 28.52 27.58 3.89 o
7 8 0 6.78 3.55 1.60 o
8 8 0 0.89 0.87 1.76 o
9 8 0 0.28 -2.25 2.25 o
10 8 0 3.57 3.67 1.91 o
1 9 0 3.47 5.73 1.68 o
2 9 0 6.47 6.22 1.72 o
3 9 0 9.60 11.19 2.22 o
4 9 0 2.83 0.24 1.78 o
5 9 0 0.00 -1.95 1.95 o
6 9 0 17.40 12.71 3.51 o
7 9 0 6.07 6.29 2.02 o
8 9 0 0.17 0.37 1.65 o
9 9 0 0.00 1.78 1.64 o
0 10 0 51.30 46.76 6.30 o
1 10 0 2.36 3.72 1.92 o
2 10 0 2.08 2.25 1.44 o
3 10 0 7.37 6.91 1.81 o
4 10 0 0.16 0.80 1.68 o
5 10 0 3.14 7.10 3.14 o
6 10 0 0.62 2.43 2.82 o
7 10 0 0.94 2.44 2.03 o
1 11 0 2.32 0.76 1.32 o
2 11 0 8.45 10.03 2.42 o
3 11 0 2.27 3.86 2.12 o
4 11 0 0.96 2.37 1.47 o
5 11 0 4.90 4.48 5.28 o
2 0 1 2358.17 2422.95 18.47 o
4 0 1 113.89 112.06 5.31 o
6 0 1 67.44 64.74 5.03 o
8 0 1 117.66 117.76 7.93 o
10 0 1 155.91 165.51 10.56 o
12 0 1 13.80 19.45 4.15 o
14 0 1 0.87 0.65 2.23 o
0 1 1 5687.08 5685.45 19.32 o
1 1 1 157.06 151.94 2.36 o
2 1 1 811.36 786.78 6.70 o
3 1 1 54.34 51.93 2.06 o
4 1 1 190.98 185.35 4.13 o
5 1 1 19.10 20.97 1.55 o
6 1 1 74.93 76.08 3.23 o
7 1 1 5.27 6.27 1.39 o
8 1 1 55.90 57.34 3.93 o
9 1 1 23.04 23.24 2.79 o
10 1 1 58.91 60.50 4.50 o
11 1 1 4.26 3.09 1.47 o
12 1 1 20.45 18.21 2.85 o
13 1 1 6.88 6.09 1.81 o
14 1 1 6.15 8.68 2.12 o
1 2 1 245.02 222.34 4.88 o
2 2 1 13.40 13.01 1.34 o
3 2 1 93.40 90.18 2.36 o
4 2 1 102.44 100.66 2.39 o
5 2 1 10.63 10.78 1.04 o
6 2 1 212.96 224.67 7.48 o
7 2 1 4.69 5.14 1.01 o
8 2 1 27.30 29.40 2.86 o
9 2 1 5.00 5.42 1.84 o
10 2 1 21.47 22.45 2.82 o
11 2 1 51.62 50.56 4.46 o
12 2 1 3.93 4.97 1.76 o
13 2 1 8.49 9.70 2.29 o
14 2 1 2.99 3.72 2.07 o
0 3 1 142.44 136.49 4.24 o
1 3 1 79.84 83.45 2.68 o
2 3 1 17.83 17.15 1.49 o
3 3 1 14.16 12.05 1.83 o
4 3 1 422.04 429.97 9.86 o
5 3 1 3.81 4.06 0.69 o
6 3 1 30.34 32.68 3.33 o
7 3 1 2.61 1.60 0.90 o
8 3 1 12.26 12.11 1.51 o
9 3 1 8.02 8.09 1.86 o
10 3 1 0.59 0.02 1.05 o
11 3 1 6.54 6.36 1.85 o
12 3 1 4.61 5.21 2.02 o
13 3 1 5.07 6.87 1.99 o
14 3 1 1.80 1.57 1.91 o
1 4 1 49.19 50.54 2.37 o
2 4 1 301.20 288.96 5.76 o
3 4 1 1.93 1.27 1.51 o
4 4 1 5.01 4.85 1.67 o
5 4 1 17.45 16.10 2.37 o
6 4 1 26.92 36.11 3.63 o
7 4 1 62.39 58.24 4.76 o
8 4 1 7.77 3.91 1.61 o
9 4 1 9.15 11.23 2.45 o
10 4 1 12.46 10.37 2.23 o
11 4 1 6.82 8.63 2.06 o
12 4 1 2.41 2.09 1.34 o
13 4 1 2.59 5.00 2.06 o
0 5 1 346.06 330.79 24.95 o
1 5 1 5.28 4.86 0.88 o
2 5 1 67.26 67.80 3.04 o
3 5 1 14.85 16.15 2.24 o
4 5 1 22.20 20.31 3.28 o
5 5 1 42.14 38.32 3.68 o
6 5 1 5.24 3.86 1.52 o
7 5 1 19.86 19.58 2.98 o
8 5 1 1.27 0.37 1.63 o
9 5 1 11.49 8.08 2.84 o
10 5 1 12.63 12.22 2.80 o
11 5 1 1.02 -0.71 1.42 o
12 5 1 6.38 3.68 1.85 o
13 5 1 1.10 2.03 2.01 o
1 6 1 26.10 28.38 2.18 o
2 6 1 6.17 7.37 1.19 o
3 6 1 7.45 7.76 1.39 o
4 6 1 38.67 40.69 4.76 o
5 6 1 25.54 27.43 3.61 o
6 6 1 155.95 167.56 8.37 o
7 6 1 32.42 33.44 3.87 o
8 6 1 19.72 13.91 2.73 o
9 6 1 2.15 3.40 1.91 o
10 6 1 7.92 8.14 2.47 o
11 6 1 0.39 1.16 1.53 o
12 6 1 2.87 5.44 3.30 o
0 7 1 28.74 30.85 4.13 o
1 7 1 3.07 2.48 0.86 o
2 7 1 56.74 52.39 3.17 o
3 7 1 4.98 3.28 1.25 o
4 7 1 229.57 241.25 12.17 o
5 7 1 3.57 1.80 2.39 o
6 7 1 22.11 18.47 2.84 o
7 7 1 8.88 6.17 1.64 o
8 7 1 8.27 5.55 2.00 o
9 7 1 0.87 0.34 1.74 o
10 7 1 4.52 -1.01 2.01 o
11 7 1 0.04 -1.78 1.78 o
1 8 1 0.45 0.89 1.20 o
2 8 1 1.88 2.25 1.23 o
3 8 1 20.72 17.47 3.02 o
4 8 1 28.22 27.99 3.62 o
5 8 1 9.02 11.60 3.01 o
6 8 1 73.81 75.39 6.23 o
7 8 1 2.95 1.24 2.49 o
8 8 1 7.83 9.13 2.63 o
9 8 1 0.85 1.70 2.25 o
10 8 1 7.64 10.22 2.82 o
0 9 1 40.29 34.35 5.16 o
1 9 1 0.62 -1.03 1.14 o
2 9 1 11.94 10.98 2.22 o
3 9 1 2.28 1.80 1.37 o
4 9 1 15.76 15.91 3.14 o
5 9 1 12.55 12.80 3.35 o
6 9 1 6.43 6.15 1.98 o
7 9 1 6.42 9.36 2.42 o
8 9 1 5.30 13.55 3.27 o
9 9 1 0.80 -0.84 3.08 o
1 10 1 3.45 4.03 1.50 o
2 10 1 12.04 16.19 2.66 o
3 10 1 0.53 1.56 1.52 o
4 10 1 0.19 -1.63 1.63 o
5 10 1 5.53 6.10 2.36 o
6 10 1 2.29 6.77 2.27 o
7 10 1 1.88 1.79 1.87 o
0 11 1 8.71 7.71 4.10 o
1 11 1 3.17 3.34 1.60 o
2 11 1 1.39 3.42 1.95 o
3 11 1 1.74 3.89 2.73 o
4 11 1 3.81 5.42 2.68 o
5 11 1 0.28 -0.18 2.09 o
2 0 2 521.90 492.22 6.09 o
4 0 2 3.00 2.47 0.73 o
6 0 2 73.60 65.55 5.14 o
8 0 2 57.27 50.93 4.98 o
10 0 2 32.78 34.09 4.73 o
12 0 2 3.71 4.22 1.92 o
1 1 2 94.84 80.33 4.72 o
2 1 2 103.78 93.10 2.20 o
3 1 2 51.11 48.43 1.78 o
4 1 2 95.96 97.06 2.77 o
5 1 2 17.61 18.05 1.32 o
6 1 2 10.73 11.37 1.25 o
7 1 2 0.37 1.79 0.72 o
8 1 2 98.70 104.08 5.09 o
9 1 2 2.60 3.31 1.69 o
10 1 2 18.52 18.02 2.45 o
11 1 2 7.20 6.36 1.61 o
12 1 2 3.35 3.64 1.43 o
13 1 2 4.09 3.11 1.35 o
0 2 2 35.45 36.05 2.75 o
1 2 2 129.21 138.53 3.10 o
2 2 2 183.57 182.69 3.65 o
3 2 2 92.22 91.67 2.77 o
4 2 2 55.33 55.30 2.26 o
5 2 2 4.52 5.27 0.82 o
6 2 2 14.70 17.35 1.70 o
7 2 2 2.45 1.33 1.15 o
8 2 2 4.68 3.04 1.01 o
9 2 2 3.07 1.93 0.90 o
10 2 2 4.21 4.85 1.44 o
11 2 2 10.65 11.40 2.23 o
12 2 2 3.68 1.87 1.21 o
13 2 2 7.95 7.57 2.56 o
1 3 2 54.23 58.75 2.14 o
2 3 2 56.87 63.46 3.49 o
3 3 2 52.43 53.86 2.74 o
4 3 2 20.49 19.50 1.68 o
5 3 2 0.83 0.91 0.87 o
6 3 2 23.71 25.03 2.33 o
7 3 2 14.53 13.75 1.71 o
8 3 2 1.45 1.39 0.81 o
9 3 2 0.10 0.41 1.04 o
10 3 2 2.30 3.58 1.33 o
11 3 2 9.27 5.54 2.45 o
12 3 2 2.35 0.51 1.08 o
13 3 2 8.01 6.21 2.42 o
0 4 2 58.08 68.68 3.50 o
1 4 2 5.22 5.15 0.94 o
2 4 2 8.10 9.33 1.10 o
3 4 2 19.68 20.53 2.07 o
4 4 2 27.72 30.17 2.18 o
5 4 2 11.13 12.74 1.77 o
6 4 2 5.37 4.26 1.03 o
7 4 2 16.38 19.10 2.29 o
8 4 2 3.87 3.29 1.63 o
9 4 2 7.37 6.75 1.61 o
10 4 2 6.70 8.51 1.76 o
11 4 2 1.23 0.52 1.22 o
12 4 2 2.15 2.53 1.53 o
13 4 2 1.32 -1.04 2.69 o
1 5 2 27.72 31.10 2.02 o
2 5 2 12.30 13.99 1.53 o
3 5 2 9.97 10.82 1.43 o
4 5 2 18.62 19.42 2.09 o
5 5 2 17.40 19.08 2.38 o
6 5 2 3.76 5.62 1.41 o
7 5 2 45.98 38.51 3.72 o
8 5 2 24.40 26.05 2.65 o
9 5 2 8.40 9.17 2.20 o
10 5 2 2.10 1.57 1.15 o
11 5 2 0.24 -0.24 1.64 o
12 5 2 0.34 0.65 2.14 o
0 6 2 7.32 6.64 1.49 o
1 6 2 5.74 6.85 1.14 o
2 6 2 83.70 88.73 3.99 o
3 6 2 15.74 20.76 2.70 o
4 6 2 39.30 45.78 4.20 o
5 6 2 3.36 3.04 1.05 o
6 6 2 5.46 2.90 1.29 o
7 6 2 11.50 10.90 1.86 o
8 6 2 2.16 0.85 0.85 o
9 6 2 6.64 7.41 1.88 o
10 6 2 4.86 4.93 2.49 o
11 6 2 0.34 -0.40 2.05 o
1 7 2 6.49 7.35 1.37 o
2 7 2 10.02 11.18 1.57 o
3 7 2 7.49 8.03 1.63 o
4 7 2 45.64 51.53 6.19 o
5 7 2 3.51 4.38 1.71 o
6 7 2 23.49 27.37 3.69 o
7 7 2 1.28 2.23 1.69 o
8 7 2 16.54 18.49 3.10 o
9 7 2 0.32 2.30 2.16 o
10 7 2 0.52 2.84 2.56 o
11 7 2 0.39 9.97 6.26 o
0 8 2 3.30 1.41 1.60 o
1 8 2 1.04 2.17 0.84 o
2 8 2 43.33 46.96 3.74 o
3 8 2 0.47 1.96 0.90 o
4 8 2 18.95 22.29 3.97 o
5 8 2 6.12 8.01 2.33 o
6 8 2 3.87 2.67 1.24 o
7 8 2 5.82 7.42 2.50 o
8 8 2 2.48 -0.18 2.14 o
9 8 2 0.75 0.43 2.46 o
1 9 2 0.77 0.57 1.08 o
2 9 2 1.81 2.57 1.12 o
3 9 2 4.18 5.46 1.58 o
4 9 2 6.76 3.95 3.42 o
5 9 2 8.29 6.25 2.29 o
6 9 2 2.18 3.16 3.89 o
7 9 2 3.41 -0.87 4.43 o
8 9 2 2.68 -0.73 2.44 o
0 10 2 8.86 11.59 6.78 o
1 10 2 1.88 2.09 1.26 o
2 10 2 2.01 0.88 1.14 o
3 10 2 1.00 -0.04 1.39 o
4 10 2 0.74 -1.42 1.70 o
5 10 2 1.24 1.30 3.23 o
6 10 2 1.32 1.41 2.17 o
1 11 2 0.25 2.17 3.67 o
2 11 2 1.66 1.74 4.43 o
4 0 3 23.22 24.01 4.30 o
6 0 3 7.92 3.46 1.68 o
2 1 3 68.25 64.31 7.45 o
3 1 3 24.22 19.58 4.18 o
4 1 3 2.26 1.89 1.77 o
5 1 3 2.56 2.19 1.34 o
6 1 3 14.11 8.66 1.86 o
7 1 3 2.10 2.75 1.77 o
8 1 3 9.30 6.99 2.56 o
9 1 3 0.40 -0.98 1.07 o
1 2 3 25.25 24.70 4.87 o
2 2 3 2.08 3.28 1.83 o
3 2 3 33.03 24.30 4.47 o
4 2 3 13.80 11.29 3.22 o
5 2 3 16.64 14.40 3.43 o
6 2 3 0.20 0.08 0.98 o
7 2 3 2.72 3.90 2.01 o
8 2 3 8.90 8.36 3.07 o
9 2 3 0.99 -0.35 1.22 o
10 2 3 0.13 -0.61 1.63 o
0 3 3 2.62 5.41 3.27 o
1 3 3 11.41 12.02 2.08 o
2 3 3 7.45 6.02 1.56 o
3 3 3 25.70 19.81 4.76 o
4 3 3 4.88 3.75 1.27 o
5 3 3 0.69 0.55 1.11 o
6 3 3 0.20 0.19 1.50 o
7 3 3 0.43 2.67 1.96 o
8 3 3 0.22 1.77 1.74 o
9 3 3 3.95 4.45 2.31 o
10 3 3 0.89 0.35 1.07 o
11 3 3 1.02 -0.97 1.96 o
1 4 3 6.19 5.08 1.52 o
2 4 3 2.28 0.24 0.95 o
3 4 3 15.20 15.95 2.46 o
4 4 3 0.17 -0.31 0.93 o
5 4 3 1.03 0.01 1.35 o
6 4 3 0.91 -0.51 1.39 o
7 4 3 14.34 8.82 2.43 o
8 4 3 5.43 3.60 2.76 o
9 4 3 4.74 6.89 3.70 o
10 4 3 0.92 0.65 1.68 o
0 5 3 2.28 1.73 1.62 o
1 5 3 9.83 7.84 2.12 o
2 5 3 13.51 11.73 2.16 o
3 5 3 10.77 11.39 2.25 o
4 5 3 1.17 0.76 1.25 o
5 5 3 1.85 2.52 1.71 o
6 5 3 2.31 3.72 2.39 o
7 5 3 7.29 6.90 2.68 o
8 5 3 0.57 2.10 1.59 o
9 5 3 6.58 2.15 2.14 o
1 6 3 11.65 10.86 2.17 o
2 6 3 5.07 6.21 1.81 o
3 6 3 3.89 3.42 1.60 o
4 6 3 13.50 9.99 2.18 o
5 6 3 1.64 0.75 1.28 o
6 6 3 0.11 0.73 1.57 o
7 6 3 5.29 0.55 1.80 o
8 6 3 8.41 6.10 2.64 o
0 7 3 3.69 5.43 2.19 o
1 7 3 0.67 0.03 0.87 o
2 7 3 25.79 29.58 7.45 o
3 7 3 1.15 3.14 1.67 o
4 7 3 1.80 -0.52 1.46 o
5 7 3 0.29 0.48 1.77 o
6 7 3 0.48 -0.53 2.99 o
7 7 3 0.22 1.57 2.24 o
8 7 3 0.28 0.90 1.74 o
1 8 3 0.00 -0.95 1.16 o
2 8 3 0.76 0.43 2.00 o
3 8 3 2.44 3.27 1.87 o
4 8 3 7.89 9.01 2.35 o
5 8 3 2.34 1.71 1.75 o
6 8 3 0.62 3.20 3.10 o
0 9 3 1.88 0.58 3.22 o
1 9 3 1.74 0.77 1.39 o
2 9 3 4.47 6.97 2.30 o
3 9 3 1.44 -0.97 3.16 o
4 9 3 0.32 -0.77 2.83 o
1 10 3 0.32 0.81 1.80 o
5 1 4 3.84 1.70 1.66 o
6 1 4 2.74 0.30 1.04 o
7 1 4 0.53 -0.10 1.11 o
4 2 4 0.70 0.48 1.68 o
5 2 4 1.85 1.91 1.80 o
6 2 4 0.48 -0.64 1.53 o
7 2 4 1.47 2.56 2.10 o
8 2 4 0.13 0.20 1.14 o
3 3 4 5.60 9.52 3.79 o
4 3 4 0.39 4.40 2.48 o
5 3 4 5.32 3.56 2.88 o
6 3 4 0.27 -0.58 2.06 o
7 3 4 2.04 0.36 1.25 o
2 4 4 0.05 0.73 2.10 o
3 4 4 2.47 0.04 1.96 o
4 4 4 0.04 2.59 2.50 o
5 4 4 0.22 -2.63 2.63 o
6 4 4 0.44 -0.04 1.84 o
2 5 4 1.14 4.28 2.80 o
3 5 4 2.69 2.78 2.05 o
4 5 4 0.44 0.63 1.25 o
0 6 4 3.91 -0.65 2.27 o
1 6 4 2.60 6.25 2.82 o
2 6 4 2.61 2.78 1.57 o
