#------------------------------------------------------------------------------
#$Date: 2019-11-22 19:03:52 +0200 (Fri, 22 Nov 2019) $
#$Revision: 231268 $
#$URL: file:///home/coder/svn-repositories/cod/cif/4/51/63/4516352.cif $
#------------------------------------------------------------------------------
#
# This file is available in the Crystallography Open Database (COD),
# http://www.crystallography.net/
#
# All data on this site have been placed in the public domain by the
# contributors.
#
data_4516352
loop_
_publ_author_name
'Patyk, Ewa'
'Podsiad\/lo, Marcin'
'Katrusiak, Andrzej'
_publ_section_title
;
 CH&#x00B7;&#x00B7;&#x00B7;N Bonds and Dynamics in Isostructural
 Pyrimidine Polymorphs
;
_journal_issue                   8
_journal_name_full               'Crystal Growth &amp; Design'
_journal_page_first              4039
_journal_paper_doi               10.1021/acs.cgd.5b00657
_journal_volume                  15
_journal_year                    2015
_chemical_formula_moiety         'C4 H4 N2'
_chemical_formula_sum            'C4 H4 N2'
_chemical_formula_weight         80.09
_chemical_melting_point          293.15
_chemical_name_common            pyrimidine
_chemical_name_systematic
; 
pyrimidine phase II
;
_space_group_IT_number           33
_space_group_name_Hall           'P 2c -2n'
_space_group_name_H-M_alt        'P n a 21'
_symmetry_cell_setting           orthorhombic
_symmetry_space_group_name_Hall  'P 2c -2n'
_symmetry_space_group_name_H-M   'P n a 21'
_atom_sites_solution_hydrogens   geom
_atom_sites_solution_primary     direct
_atom_sites_solution_secondary   difmap
_audit_creation_method           SHELXL-97
_cell_angle_alpha                90.00
_cell_angle_beta                 90.00
_cell_angle_gamma                90.00
_cell_formula_units_Z            4
_cell_length_a                   11.665(3)
_cell_length_b                   9.483(3)
_cell_length_c                   3.7740(12)
_cell_measurement_reflns_used    3036
_cell_measurement_temperature    222.5(1)
_cell_measurement_theta_max      28.16
_cell_measurement_theta_min      3.49
_cell_volume                     417.5(2)
_computing_cell_refinement       'CrysAlisRED (Oxford Diffraction, 2004)'
_computing_data_collection       'CrysAlisCCD (Oxford Diffraction, 2004)'
_computing_data_reduction        'CrysAlisRED (Oxford Diffraction, 2004)'
_computing_molecular_graphics    'SHELXTL (Sheldrick, 1990)'
_computing_publication_material  'SHELXL--97 (Sheldrick, 1997)'
_computing_structure_refinement  'SHELXL--97 (Sheldrick, 1997)'
_computing_structure_solution    'SHELXS--97 (Sheldrick, 1997)'
_diffrn_ambient_pressure         100
_diffrn_ambient_temperature      222.5(1)
_diffrn_measured_fraction_theta_full 0.909
_diffrn_measured_fraction_theta_max 0.909
_diffrn_measurement_device_type  'KM-4 CCD'
_diffrn_measurement_method       \w-scans
_diffrn_radiation_monochromator  graphite
_diffrn_radiation_source         'fine-focus sealed tube'
_diffrn_radiation_type           MoK\a
_diffrn_radiation_wavelength     0.71073
_diffrn_reflns_av_R_equivalents  0.0633
_diffrn_reflns_av_sigmaI/netI    0.0596
_diffrn_reflns_limit_h_max       14
_diffrn_reflns_limit_h_min       -14
_diffrn_reflns_limit_k_max       11
_diffrn_reflns_limit_k_min       -11
_diffrn_reflns_limit_l_max       4
_diffrn_reflns_limit_l_min       -4
_diffrn_reflns_number            3036
_diffrn_reflns_theta_full        28.16
_diffrn_reflns_theta_max         28.16
_diffrn_reflns_theta_min         3.49
_diffrn_standards_decay_%        0
_diffrn_standards_interval_count 0
_diffrn_standards_number         0
_exptl_absorpt_coefficient_mu    0.084
_exptl_absorpt_correction_T_max  0.983
_exptl_absorpt_correction_T_min  0.983
_exptl_absorpt_correction_type   numerical
_exptl_absorpt_process_details
; 
 Correction for absorption was made using XEMP (SHELXTL, 
 Sheldrick (1990)).
;
_exptl_crystal_colour            colourless
_exptl_crystal_density_diffrn    1.274
_exptl_crystal_density_method    'not measured'
_exptl_crystal_description       irregular
_exptl_crystal_F_000             168
_exptl_crystal_size_max          0.20
_exptl_crystal_size_mid          0.20
_exptl_crystal_size_min          0.20
_refine_diff_density_max         0.130
_refine_diff_density_min         -0.113
_refine_diff_density_rms         0.036
_refine_ls_abs_structure_details 'Flack H D (1983), Acta Cryst. A39, 876-881'
_refine_ls_abs_structure_Flack   -6(8)
_refine_ls_extinction_coef       0.068(12)
_refine_ls_extinction_expression Fc^*^=kFc[1+0.001xFc^2^\l^3^/sin(2\q)]^-1/4^
_refine_ls_extinction_method     SHELXL
_refine_ls_goodness_of_fit_ref   1.059
_refine_ls_hydrogen_treatment    constr
_refine_ls_matrix_type           full
_refine_ls_number_parameters     56
_refine_ls_number_reflns         883
_refine_ls_number_restraints     1
_refine_ls_restrained_S_all      1.058
_refine_ls_R_factor_all          0.1095
_refine_ls_R_factor_gt           0.0566
_refine_ls_shift/su_max          0.000
_refine_ls_shift/su_mean         0.000
_refine_ls_structure_factor_coef Fsqd
_refine_ls_weighting_details
'calc w=1/[\s^2^(Fo^2^)+(0.0495P)^2^+0.0000P] where P=(Fo^2^+2Fc^2^)/3'
_refine_ls_weighting_scheme      calc
_refine_ls_wR_factor_gt          0.1153
_refine_ls_wR_factor_ref         0.1424
_reflns_number_gt                534
_reflns_number_total             883
_reflns_threshold_expression     >2sigma(I)
_cod_data_source_file            cg5b00657_si_002.cif
_cod_data_source_block           phaseII_222.5K
_cod_database_code               4516352
loop_
_symmetry_equiv_pos_as_xyz
'x, y, z'
'-x, -y, z+1/2'
'x+1/2, -y+1/2, z'
'-x+1/2, y+1/2, z+1/2'
loop_
_atom_site_label
_atom_site_type_symbol
_atom_site_fract_x
_atom_site_fract_y
_atom_site_fract_z
_atom_site_U_iso_or_equiv
_atom_site_adp_type
_atom_site_occupancy
_atom_site_symmetry_multiplicity
_atom_site_calc_flag
_atom_site_refinement_flags
N1 N 0.1270(2) 0.3972(3) 0.0242(11) 0.0576(9) Uani 1 1 d .
N3 N 0.0118(2) 0.1902(3) 0.0160(9) 0.0610(10) Uani 1 1 d .
C2 C 0.0305(3) 0.3258(3) 0.0728(13) 0.0550(11) Uani 1 1 d .
H2 H -0.0316 0.3775 0.1571 0.066 Uiso 1 1 calc R
C4 C 0.1014(3) 0.1191(3) -0.1029(12) 0.0587(11) Uani 1 1 d .
H4 H 0.0929 0.0232 -0.1472 0.070 Uiso 1 1 calc R
C5 C 0.2065(3) 0.1801(4) -0.1643(10) 0.0556(11) Uani 1 1 d .
H5 H 0.2684 0.1285 -0.2495 0.067 Uiso 1 1 calc R
C6 C 0.2147(3) 0.3199(4) -0.0936(9) 0.0575(13) Uani 1 1 d .
H6 H 0.2850 0.3642 -0.1289 0.069 Uiso 1 1 calc R
loop_
_atom_site_aniso_label
_atom_site_aniso_U_11
_atom_site_aniso_U_22
_atom_site_aniso_U_33
_atom_site_aniso_U_23
_atom_site_aniso_U_13
_atom_site_aniso_U_12
N1 0.0515(16) 0.0440(14) 0.077(2) -0.0075(17) -0.0072(18) 0.0017(13)
N3 0.0449(15) 0.0492(16) 0.089(3) 0.002(2) 0.0013(17) -0.0036(13)
C2 0.0435(18) 0.050(2) 0.072(3) -0.003(2) -0.005(2) 0.0076(15)
C4 0.058(2) 0.0398(17) 0.078(3) -0.0068(18) -0.0100(18) 0.0028(17)
C5 0.0451(19) 0.055(2) 0.066(3) -0.011(2) -0.0026(18) 0.0086(17)
C6 0.0410(17) 0.063(2) 0.069(3) -0.006(2) -0.0040(16) -0.0077(16)
loop_
_atom_type_symbol
_atom_type_description
_atom_type_scat_dispersion_real
_atom_type_scat_dispersion_imag
_atom_type_scat_source
C C 0.0033 0.0016 'International Tables Vol C Tables 4.2.6.8 and 6.1.1.4'
H H 0.0000 0.0000 'International Tables Vol C Tables 4.2.6.8 and 6.1.1.4'
N N 0.0061 0.0033 'International Tables Vol C Tables 4.2.6.8 and 6.1.1.4'
loop_
_geom_angle_atom_site_label_1
_geom_angle_atom_site_label_2
_geom_angle_atom_site_label_3
_geom_angle
C2 N1 C6 114.6(3)
C4 N3 C2 114.9(3)
N3 C2 N1 127.9(3)
N3 C4 C5 123.2(3)
C6 C5 C4 116.2(3)
N1 C6 C5 123.3(3)
loop_
_geom_bond_atom_site_label_1
_geom_bond_atom_site_label_2
_geom_bond_distance
N1 C2 1.327(4)
N1 C6 1.335(4)
N3 C4 1.322(4)
N3 C2 1.323(4)
C4 C5 1.376(4)
C5 C6 1.355(5)
loop_
_refln_index_h
_refln_index_k
_refln_index_l
_refln_F_squared_calc
_refln_F_squared_meas
_refln_F_squared_sigma
_refln_observed_status
6 0 -4 2.67 -1.08 1.11 o
5 1 -4 3.41 0.41 1.78 o
6 1 -4 2.05 1.09 1.68 o
7 1 -4 0.43 4.70 2.73 o
4 2 -4 0.60 -2.22 2.22 o
5 2 -4 1.75 -1.90 2.32 o
6 2 -4 0.37 1.79 2.07 o
7 2 -4 1.16 1.87 1.73 o
8 2 -4 0.06 4.51 2.79 o
9 2 -4 1.03 -0.33 1.79 o
3 3 -4 4.61 0.66 1.98 o
4 3 -4 0.32 1.48 2.00 o
5 3 -4 4.54 2.44 2.83 o
6 3 -4 0.32 1.99 2.26 o
7 3 -4 1.69 -0.01 0.99 o
2 4 -4 0.01 2.71 2.57 o
3 4 -4 1.98 -3.63 3.63 o
4 4 -4 0.09 0.85 1.65 o
5 4 -4 0.11 0.81 2.33 o
6 4 -4 0.25 1.59 1.99 o
2 5 -4 0.96 -0.42 1.26 o
3 5 -4 2.49 -0.44 1.36 o
4 5 -4 0.38 -0.88 2.33 o
5 5 -4 0.09 0.71 1.19 o
0 6 -4 3.14 5.72 4.44 o
1 6 -4 2.46 1.06 4.08 o
2 6 -4 1.94 -2.17 2.17 o
4 0 -3 21.92 19.56 4.29 o
6 0 -3 6.94 2.97 1.65 o
2 1 -3 61.67 45.53 7.03 o
3 1 -3 22.64 18.34 4.47 o
4 1 -3 1.88 4.26 2.63 o
5 1 -3 2.84 3.40 1.32 o
6 1 -3 11.74 8.58 4.03 o
7 1 -3 1.90 1.71 1.67 o
8 1 -3 7.69 5.30 2.25 o
9 1 -3 0.36 -0.95 0.95 o
1 2 -3 24.29 18.62 5.06 o
2 2 -3 1.83 2.10 1.87 o
3 2 -3 31.04 22.02 4.68 o
4 2 -3 12.54 5.81 3.11 o
5 2 -3 15.17 13.28 3.49 o
6 2 -3 0.07 2.08 1.84 o
7 2 -3 2.43 0.77 1.70 o
8 2 -3 7.77 3.97 2.25 o
9 2 -3 0.65 0.62 1.11 o
10 2 -3 0.09 1.26 1.35 o
0 3 -3 2.68 3.84 2.15 o
1 3 -3 9.93 9.51 1.88 o
2 3 -3 6.78 4.79 1.81 o
3 3 -3 23.38 16.44 3.06 o
4 3 -3 5.16 4.00 1.73 o
5 3 -3 0.61 0.96 1.55 o
6 3 -3 0.17 2.22 1.43 o
7 3 -3 0.25 -0.96 1.27 o
8 3 -3 0.23 -0.20 1.52 o
9 3 -3 3.37 3.54 2.23 o
10 3 -3 0.86 -0.11 1.66 o
11 3 -3 0.87 -0.37 1.03 o
1 4 -3 4.93 3.78 1.86 o
2 4 -3 2.06 2.73 1.31 o
3 4 -3 13.14 13.07 2.40 o
4 4 -3 0.26 0.09 0.83 o
5 4 -3 1.01 -0.11 1.03 o
6 4 -3 1.13 1.11 1.73 o
7 4 -3 13.70 7.82 7.59 o
8 4 -3 4.15 5.37 2.99 o
9 4 -3 4.15 6.20 4.11 o
10 4 -3 0.67 -3.27 3.27 o
0 5 -3 2.17 2.34 1.99 o
1 5 -3 9.79 5.70 1.75 o
2 5 -3 11.04 8.64 2.00 o
3 5 -3 8.75 8.10 2.10 o
4 5 -3 0.64 -1.06 1.42 o
5 5 -3 2.22 2.47 1.25 o
6 5 -3 1.41 0.60 1.60 o
7 5 -3 6.69 4.03 4.48 o
8 5 -3 0.47 1.10 3.07 o
9 5 -3 5.66 3.07 4.52 o
1 6 -3 9.16 6.50 2.45 o
2 6 -3 4.82 3.40 2.23 o
3 6 -3 3.28 3.05 1.60 o
4 6 -3 11.40 6.18 2.12 o
5 6 -3 1.64 1.75 2.21 o
6 6 -3 0.08 1.70 1.84 o
7 6 -3 4.90 1.28 3.15 o
8 6 -3 6.59 2.90 8.04 o
0 7 -3 3.04 1.51 1.78 o
1 7 -3 1.03 -1.41 1.41 o
2 7 -3 20.69 16.47 3.69 o
3 7 -3 0.84 1.73 1.99 o
4 7 -3 1.73 1.86 1.54 o
5 7 -3 0.23 -0.98 2.81 o
6 7 -3 0.42 3.29 1.98 o
7 7 -3 0.07 7.08 3.26 o
8 7 -3 0.19 4.06 3.31 o
1 8 -3 0.11 0.04 1.34 o
2 8 -3 0.50 -0.83 1.36 o
3 8 -3 1.97 -1.96 2.25 o
4 8 -3 6.18 4.91 2.05 o
5 8 -3 1.91 2.19 2.67 o
6 8 -3 0.36 2.73 3.18 o
0 9 -3 1.84 0.60 1.67 o
1 9 -3 1.34 0.32 1.20 o
2 9 -3 3.70 2.35 1.84 o
3 9 -3 1.28 -0.91 1.65 o
4 9 -3 0.22 7.20 6.46 o
2 0 -2 501.22 480.77 6.14 o
4 0 -2 2.34 1.11 0.62 o
6 0 -2 66.04 66.20 3.84 o
8 0 -2 50.76 59.34 8.51 o
10 0 -2 29.35 31.20 4.72 o
12 0 -2 3.21 5.28 2.36 o
1 1 -2 92.67 81.56 3.19 o
2 1 -2 102.67 94.24 2.22 o
3 1 -2 50.24 46.00 1.78 o
4 1 -2 92.70 99.84 2.90 o
5 1 -2 16.24 16.50 1.34 o
6 1 -2 10.85 11.29 1.31 o
7 1 -2 0.46 0.59 0.66 o
8 1 -2 89.35 96.33 5.11 o
9 1 -2 2.51 3.09 1.03 o
10 1 -2 16.05 14.16 2.26 o
11 1 -2 7.05 8.13 1.98 o
12 1 -2 3.45 2.57 1.49 o
13 1 -2 3.80 1.78 1.32 o
0 2 -2 32.62 33.09 2.69 o
1 2 -2 122.03 125.30 2.81 o
2 2 -2 174.71 169.80 3.54 o
3 2 -2 88.09 84.82 2.71 o
4 2 -2 53.49 58.04 2.36 o
5 2 -2 5.20 5.25 0.90 o
6 2 -2 14.14 14.60 1.59 o
7 2 -2 2.35 0.75 0.71 o
8 2 -2 4.49 4.90 1.14 o
9 2 -2 2.96 2.80 1.27 o
10 2 -2 3.44 1.99 0.85 o
11 2 -2 9.83 13.45 2.53 o
12 2 -2 3.16 4.46 1.79 o
13 2 -2 7.73 9.17 2.62 o
1 3 -2 53.00 56.67 2.11 o
2 3 -2 56.46 61.70 2.60 o
3 3 -2 49.42 49.98 2.24 o
4 3 -2 17.84 21.21 1.68 o
5 3 -2 0.60 1.31 0.67 o
6 3 -2 23.89 23.02 2.28 o
7 3 -2 14.15 13.28 2.17 o
8 3 -2 1.64 2.08 1.01 o
9 3 -2 0.18 0.17 0.92 o
10 3 -2 1.62 1.61 1.44 o
11 3 -2 8.80 9.20 2.21 o
12 3 -2 2.41 3.06 1.54 o
13 3 -2 7.40 8.61 2.89 o
0 4 -2 54.82 63.71 3.43 o
1 4 -2 5.33 6.79 0.91 o
2 4 -2 7.08 9.21 1.08 o
3 4 -2 17.59 20.84 1.65 o
4 4 -2 27.02 27.18 2.14 o
5 4 -2 11.34 11.99 1.43 o
6 4 -2 3.88 1.06 0.97 o
7 4 -2 14.69 12.42 1.93 o
8 4 -2 3.18 1.58 1.26 o
9 4 -2 6.92 4.50 2.12 o
10 4 -2 6.54 7.96 2.78 o
11 4 -2 1.11 0.67 1.51 o
12 4 -2 1.57 4.52 2.67 o
13 4 -2 1.25 3.39 3.01 o
1 5 -2 23.67 26.15 1.86 o
2 5 -2 10.51 12.31 1.51 o
3 5 -2 8.37 9.76 1.80 o
4 5 -2 17.68 20.10 2.00 o
5 5 -2 16.85 16.66 2.73 o
6 5 -2 3.36 3.09 1.30 o
7 5 -2 43.80 43.03 5.27 o
8 5 -2 20.30 19.21 3.71 o
9 5 -2 7.33 7.48 2.47 o
10 5 -2 1.48 2.55 1.36 o
11 5 -2 0.15 -1.62 1.62 o
12 5 -2 0.43 1.12 1.50 o
0 6 -2 7.29 6.13 1.49 o
1 6 -2 5.98 5.35 1.01 o
2 6 -2 72.40 75.21 3.79 o
3 6 -2 15.62 16.44 3.05 o
4 6 -2 35.76 37.40 3.92 o
5 6 -2 3.53 4.91 1.53 o
6 6 -2 4.54 5.16 1.69 o
7 6 -2 9.72 8.44 1.87 o
8 6 -2 2.12 2.96 1.15 o
9 6 -2 5.43 2.28 1.30 o
10 6 -2 4.23 4.93 4.80 o
11 6 -2 0.38 1.00 2.06 o
1 7 -2 6.22 8.64 1.29 o
2 7 -2 9.75 11.44 2.27 o
3 7 -2 6.19 6.14 1.64 o
4 7 -2 38.25 45.14 4.35 o
5 7 -2 1.72 0.98 1.33 o
6 7 -2 21.43 26.80 3.53 o
7 7 -2 1.09 -0.50 1.81 o
8 7 -2 14.27 11.10 2.45 o
9 7 -2 0.39 -1.62 2.49 o
10 7 -2 0.43 0.12 2.49 o
11 7 -2 0.42 -1.10 3.05 o
0 8 -2 2.48 2.57 1.38 o
1 8 -2 1.38 0.53 0.94 o
2 8 -2 35.90 37.86 3.36 o
3 8 -2 0.31 1.18 0.87 o
4 8 -2 16.93 17.43 3.40 o
5 8 -2 5.03 4.88 1.85 o
6 8 -2 4.32 8.74 2.22 o
7 8 -2 5.07 11.78 2.59 o
8 8 -2 2.14 -0.04 1.91 o
9 8 -2 0.90 0.66 2.13 o
1 9 -2 0.43 2.31 0.96 o
2 9 -2 1.57 0.87 1.50 o
3 9 -2 3.95 3.12 1.39 o
4 9 -2 5.21 3.60 2.39 o
5 9 -2 8.04 11.62 2.52 o
6 9 -2 1.85 1.86 2.06 o
7 9 -2 2.98 5.17 2.77 o
8 9 -2 2.51 5.15 2.90 o
0 10 -2 8.29 8.61 2.64 o
1 10 -2 1.50 2.67 1.71 o
2 10 -2 1.84 1.54 1.18 o
3 10 -2 1.18 1.31 1.15 o
4 10 -2 0.63 2.45 1.78 o
5 10 -2 1.01 -0.31 4.55 o
6 10 -2 1.24 2.67 1.80 o
1 11 -2 0.29 1.90 1.86 o
2 11 -2 1.52 4.00 2.24 o
3 11 -2 2.56 7.36 5.53 o
4 11 -2 1.42 7.13 4.02 o
2 0 -1 2354.32 2414.01 16.34 o
4 0 -1 115.88 107.80 5.14 o
6 0 -1 66.29 64.06 4.89 o
8 0 -1 110.70 110.01 7.61 o
10 0 -1 142.88 145.97 10.01 o
12 0 -1 14.92 19.45 4.24 o
14 0 -1 1.05 3.72 2.66 o
0 1 -1 5640.82 5708.97 257.16 o
1 1 -1 152.13 152.56 2.91 o
2 1 -1 805.71 769.78 6.49 o
3 1 -1 51.93 48.70 2.18 o
4 1 -1 185.34 191.14 4.77 o
5 1 -1 19.12 19.93 1.56 o
6 1 -1 72.14 76.12 3.18 o
7 1 -1 5.08 5.01 1.23 o
8 1 -1 52.68 46.89 3.57 o
9 1 -1 21.38 22.52 2.73 o
10 1 -1 56.95 61.14 4.65 o
11 1 -1 3.99 5.91 1.73 o
12 1 -1 17.61 18.26 2.96 o
13 1 -1 6.63 4.36 1.65 o
14 1 -1 4.95 4.79 1.81 o
1 2 -1 242.04 235.78 5.03 o
2 2 -1 12.74 13.75 1.36 o
3 2 -1 91.41 85.99 2.41 o
4 2 -1 97.00 98.94 2.43 o
5 2 -1 9.78 11.21 1.10 o
6 2 -1 209.27 220.07 4.75 o
7 2 -1 3.66 2.86 0.73 o
8 2 -1 25.68 26.58 2.79 o
9 2 -1 5.76 7.45 1.53 o
10 2 -1 20.67 22.78 3.00 o
11 2 -1 48.66 49.91 4.53 o
12 2 -1 4.16 2.69 1.33 o
13 2 -1 7.93 7.67 1.88 o
14 2 -1 2.75 7.28 2.13 o
0 3 -1 140.34 143.97 5.30 o
1 3 -1 78.39 73.74 2.56 o
2 3 -1 16.84 17.14 1.53 o
3 3 -1 12.80 11.17 1.45 o
4 3 -1 419.34 421.33 9.63 o
5 3 -1 3.71 3.42 0.82 o
6 3 -1 28.96 27.61 2.18 o
7 3 -1 2.20 2.23 1.21 o
8 3 -1 11.01 12.49 2.05 o
9 3 -1 6.86 6.94 1.65 o
10 3 -1 0.64 -0.76 1.19 o
11 3 -1 6.28 9.24 2.29 o
12 3 -1 3.82 7.33 2.08 o
13 3 -1 4.92 4.29 1.75 o
14 3 -1 1.80 4.33 3.46 o
1 4 -1 45.57 47.12 2.25 o
2 4 -1 292.32 286.94 7.91 o
3 4 -1 1.56 1.00 0.82 o
4 4 -1 6.12 6.28 1.55 o
5 4 -1 17.89 17.55 2.38 o
6 4 -1 26.70 28.75 3.17 o
7 4 -1 59.99 60.09 4.97 o
8 4 -1 7.32 4.26 1.49 o
9 4 -1 7.43 8.05 2.04 o
10 4 -1 9.93 10.26 2.23 o
11 4 -1 6.22 4.83 1.61 o
12 4 -1 2.89 4.80 1.76 o
13 4 -1 2.41 3.57 1.80 o
0 5 -1 324.45 296.18 14.17 o
1 5 -1 4.47 3.78 0.85 o
2 5 -1 62.48 65.60 3.04 o
3 5 -1 15.41 13.54 1.97 o
4 5 -1 19.82 17.55 3.03 o
5 5 -1 40.09 43.77 3.79 o
6 5 -1 3.95 4.48 1.55 o
7 5 -1 17.76 22.40 3.26 o
8 5 -1 1.12 0.17 1.95 o
9 5 -1 10.49 5.66 1.80 o
10 5 -1 12.54 17.38 3.37 o
11 5 -1 0.56 -0.58 1.37 o
12 5 -1 5.09 2.50 1.77 o
13 5 -1 0.95 -1.54 1.76 o
1 6 -1 23.58 28.50 2.08 o
2 6 -1 5.73 3.93 1.05 o
3 6 -1 6.35 7.31 1.72 o
4 6 -1 34.26 38.61 4.60 o
5 6 -1 21.99 22.75 2.94 o
6 6 -1 142.94 150.14 7.85 o
7 6 -1 28.71 32.19 3.86 o
8 6 -1 17.04 14.82 2.91 o
9 6 -1 1.73 0.22 1.27 o
10 6 -1 6.55 9.82 2.36 o
11 6 -1 0.30 -2.13 2.79 o
12 6 -1 3.02 4.64 1.89 o
0 7 -1 24.87 22.42 3.41 o
1 7 -1 3.76 3.64 0.87 o
2 7 -1 49.63 52.33 3.18 o
3 7 -1 5.02 3.40 1.55 o
4 7 -1 212.43 212.77 10.45 o
5 7 -1 3.00 2.53 1.76 o
6 7 -1 22.78 21.39 3.10 o
7 7 -1 6.61 7.66 2.12 o
8 7 -1 7.56 7.07 2.23 o
9 7 -1 0.63 1.05 2.12 o
10 7 -1 3.53 2.49 1.85 o
11 7 -1 0.06 -0.09 1.68 o
1 8 -1 0.31 -0.49 1.12 o
2 8 -1 1.96 2.96 1.17 o
3 8 -1 18.41 21.05 2.68 o
4 8 -1 24.55 24.43 3.44 o
5 8 -1 6.19 7.80 2.53 o
6 8 -1 66.02 68.79 5.86 o
7 8 -1 2.66 3.05 1.43 o
8 8 -1 7.68 4.60 2.01 o
9 8 -1 0.86 5.01 2.21 o
10 8 -1 6.82 7.35 2.19 o
0 9 -1 35.71 34.84 5.10 o
1 9 -1 0.58 -0.34 0.89 o
2 9 -1 9.80 10.62 2.14 o
3 9 -1 2.47 2.88 1.24 o
4 9 -1 13.91 13.04 2.70 o
5 9 -1 10.05 12.43 3.69 o
6 9 -1 6.64 7.42 2.11 o
7 9 -1 6.14 7.08 2.12 o
8 9 -1 4.81 4.11 1.90 o
9 9 -1 0.68 0.44 1.47 o
1 10 -1 2.78 3.44 1.31 o
2 10 -1 11.11 11.49 2.26 o
3 10 -1 0.56 2.12 1.50 o
4 10 -1 0.13 2.64 1.61 o
5 10 -1 5.99 3.82 2.70 o
6 10 -1 2.04 2.31 1.85 o
7 10 -1 1.28 1.22 2.48 o
0 11 -1 8.23 5.58 2.44 o
1 11 -1 2.45 6.39 1.84 o
2 11 -1 1.01 2.82 1.59 o
3 11 -1 1.69 2.25 2.18 o
4 11 -1 3.29 4.31 1.69 o
5 11 -1 0.25 4.72 3.27 o
2 0 0 117.70 138.15 3.99 o
4 0 0 307.11 322.41 15.38 o
6 0 0 27.16 22.80 2.96 o
8 0 0 118.68 114.88 7.61 o
10 0 0 119.15 108.97 8.51 o
12 0 0 51.75 51.78 6.64 o
14 0 0 3.39 2.35 2.26 o
2 1 0 2656.79 3015.72 22.88 o
3 1 0 34.18 38.37 1.35 o
4 1 0 3.48 6.00 0.84 o
5 1 0 0.02 -0.31 0.43 o
6 1 0 232.40 209.52 9.26 o
7 1 0 22.00 24.53 1.19 o
8 1 0 10.03 8.25 1.91 o
9 1 0 2.06 2.20 1.26 o
10 1 0 162.35 160.08 7.25 o
11 1 0 38.26 31.42 3.44 o
12 1 0 16.87 15.89 2.49 o
13 1 0 1.39 -0.82 1.98 o
14 1 0 0.64 0.63 2.36 o
0 2 0 1776.53 1635.74 15.40 o
1 2 0 28.13 29.48 1.07 o
2 2 0 12.53 13.19 1.29 o
3 2 0 0.41 0.77 0.38 o
4 2 0 989.92 1030.57 17.79 o
5 2 0 26.03 29.82 2.64 o
6 2 0 77.45 86.42 4.87 o
7 2 0 1.72 2.45 0.97 o
8 2 0 0.13 0.98 0.99 o
9 2 0 58.10 57.07 4.25 o
10 2 0 25.11 24.46 3.07 o
11 2 0 0.05 0.11 1.26 o
12 2 0 4.08 3.18 1.40 o
13 2 0 12.57 11.99 2.49 o
14 2 0 3.47 6.97 2.01 o
1 3 0 8.46 11.86 1.27 o
2 3 0 468.75 413.30 9.33 o
3 3 0 6.14 4.81 0.95 o
4 3 0 37.69 34.47 2.78 o
5 3 0 12.31 12.45 1.98 o
6 3 0 353.49 419.29 18.40 o
7 3 0 5.58 6.44 1.58 o
8 3 0 4.90 6.25 1.39 o
9 3 0 13.44 13.09 2.01 o
10 3 0 0.02 0.19 1.22 o
11 3 0 45.21 47.41 4.41 o
12 3 0 0.26 1.08 1.23 o
13 3 0 1.91 1.35 1.55 o
14 3 0 3.35 4.33 1.74 o
0 4 0 1227.81 1096.05 17.51 o
1 4 0 9.32 9.70 1.21 o
2 4 0 0.02 0.95 0.30 o
3 4 0 1.44 2.30 0.78 o
4 4 0 122.28 110.78 3.92 o
5 4 0 59.61 55.34 4.43 o
6 4 0 11.92 12.08 2.10 o
7 4 0 1.09 1.68 1.27 o
8 4 0 15.06 16.51 2.71 o
9 4 0 0.03 2.67 1.60 o
10 4 0 5.89 4.90 1.45 o
11 4 0 1.14 2.70 1.31 o
12 4 0 10.65 5.74 2.21 o
13 4 0 0.09 2.09 1.58 o
1 5 0 71.42 70.94 3.51 o
2 5 0 131.44 137.20 4.23 o
3 5 0 0.78 0.54 0.82 o
4 5 0 0.04 -0.97 1.24 o
5 5 0 18.70 17.50 2.51 o
6 5 0 48.56 49.52 4.31 o
7 5 0 70.49 75.26 5.47 o
8 5 0 1.79 3.13 1.59 o
9 5 0 6.48 5.42 1.79 o
10 5 0 17.88 17.19 3.16 o
11 5 0 0.02 2.16 1.36 o
12 5 0 6.38 6.17 1.96 o
13 5 0 0.16 0.17 1.14 o
0 6 0 214.75 202.43 9.86 o
1 6 0 0.23 0.98 1.06 o
2 6 0 1.36 0.96 0.92 o
3 6 0 1.60 0.91 0.93 o
4 6 0 310.28 304.29 12.72 o
5 6 0 8.21 4.63 1.63 o
6 6 0 19.12 19.56 2.95 o
7 6 0 6.02 3.90 1.83 o
8 6 0 11.19 13.30 2.60 o
9 6 0 6.42 7.98 2.02 o
10 6 0 10.97 8.74 2.37 o
11 6 0 0.38 -2.11 2.11 o
12 6 0 4.70 8.28 2.01 o
1 7 0 0.84 2.50 1.02 o
2 7 0 10.50 6.68 1.34 o
3 7 0 27.26 26.86 2.80 o
4 7 0 14.66 13.61 2.77 o
5 7 0 24.52 23.54 4.28 o
6 7 0 277.41 293.35 11.34 o
7 7 0 0.90 2.83 1.29 o
8 7 0 2.47 3.13 1.75 o
9 7 0 0.21 1.34 1.65 o
10 7 0 11.16 10.41 3.61 o
11 7 0 0.00 -0.68 1.47 o
0 8 0 42.27 32.26 4.58 o
1 8 0 4.16 2.53 1.22 o
2 8 0 0.53 2.62 1.39 o
3 8 0 0.33 0.45 1.09 o
4 8 0 165.66 161.47 8.58 o
5 8 0 20.41 16.33 3.61 o
6 8 0 29.87 30.32 4.03 o
7 8 0 5.02 1.27 1.57 o
8 8 0 0.69 1.93 1.55 o
9 8 0 0.25 -1.79 1.79 o
10 8 0 2.51 2.59 1.85 o
1 9 0 2.79 3.96 1.65 o
2 9 0 5.70 4.31 1.56 o
3 9 0 8.02 11.04 2.17 o
4 9 0 3.43 2.99 1.51 o
5 9 0 0.15 -1.53 1.68 o
6 9 0 15.10 16.94 4.30 o
7 9 0 4.71 7.85 2.51 o
8 9 0 0.28 0.12 1.47 o
9 9 0 0.00 2.33 2.94 o
0 10 0 46.53 41.50 5.89 o
1 10 0 1.70 -0.88 1.15 o
2 10 0 1.36 1.16 1.27 o
3 10 0 7.13 4.63 2.54 o
4 10 0 0.18 2.56 1.38 o
5 10 0 2.13 2.19 1.81 o
6 10 0 0.44 0.19 1.63 o
7 10 0 0.75 -1.44 1.44 o
1 11 0 1.82 0.54 2.03 o
2 11 0 7.98 7.75 2.07 o
3 11 0 1.70 2.81 1.40 o
4 11 0 0.84 2.16 1.50 o
5 11 0 4.21 6.94 3.07 o
2 0 1 2353.80 2381.15 12.32 o
4 0 1 115.88 112.86 4.20 o
6 0 1 66.33 65.27 5.01 o
8 0 1 110.79 109.00 7.60 o
10 0 1 142.85 146.76 10.01 o
12 0 1 14.91 14.77 3.59 o
14 0 1 1.05 2.01 5.80 o
0 1 1 5639.88 5582.60 22.37 o
1 1 1 152.22 155.20 3.07 o
2 1 1 806.17 753.08 8.52 o
3 1 1 52.02 51.92 1.17 o
4 1 1 185.32 179.33 2.42 o
5 1 1 19.12 20.04 1.30 o
6 1 1 72.22 72.95 2.52 o
7 1 1 5.09 5.10 0.97 o
8 1 1 52.71 50.41 3.00 o
9 1 1 21.37 14.93 2.61 o
10 1 1 56.91 55.04 4.35 o
11 1 1 3.99 4.05 1.55 o
12 1 1 17.61 15.05 2.55 o
13 1 1 6.62 4.93 1.42 o
14 1 1 4.95 7.37 2.32 o
1 2 1 242.03 223.77 3.44 o
2 2 1 12.75 12.19 0.79 o
3 2 1 91.44 90.23 2.29 o
4 2 1 97.04 96.85 2.59 o
5 2 1 9.82 11.17 1.29 o
6 2 1 209.23 223.13 5.39 o
7 2 1 3.66 2.34 0.86 o
8 2 1 25.70 26.18 2.32 o
9 2 1 5.76 7.92 1.72 o
10 2 1 20.67 21.11 2.85 o
11 2 1 48.65 49.49 4.49 o
12 2 1 4.17 3.10 1.38 o
13 2 1 7.94 8.86 2.19 o
14 2 1 2.75 3.68 1.70 o
0 3 1 140.29 137.81 2.68 o
1 3 1 78.38 76.58 1.94 o
2 3 1 16.85 15.22 0.96 o
3 3 1 12.81 12.40 0.82 o
4 3 1 419.25 422.41 4.91 o
5 3 1 3.71 3.89 0.62 o
6 3 1 28.94 29.76 1.81 o
7 3 1 2.19 1.93 0.74 o
8 3 1 11.00 12.06 1.54 o
9 3 1 6.86 8.29 1.90 o
10 3 1 0.64 0.07 1.16 o
11 3 1 6.27 6.26 1.63 o
12 3 1 3.83 4.46 1.97 o
13 3 1 4.92 5.53 1.83 o
14 3 1 1.80 9.88 5.41 o
1 4 1 45.52 49.44 2.23 o
2 4 1 292.27 276.13 5.72 o
3 4 1 1.56 0.65 0.54 o
4 4 1 6.11 6.37 1.54 o
5 4 1 17.86 16.90 1.47 o
6 4 1 26.68 31.08 2.17 o
7 4 1 59.99 62.16 4.93 o
8 4 1 7.32 6.41 1.63 o
9 4 1 7.43 7.01 1.78 o
10 4 1 9.93 7.94 1.87 o
11 4 1 6.22 5.75 1.75 o
12 4 1 2.89 3.01 1.45 o
13 4 1 2.41 2.70 1.69 o
0 5 1 324.40 301.82 10.33 o
1 5 1 4.47 4.30 0.83 o
2 5 1 62.53 65.19 2.79 o
3 5 1 15.43 13.79 1.38 o
4 5 1 19.82 18.02 1.60 o
5 5 1 40.09 37.65 1.88 o
6 5 1 3.96 2.10 0.64 o
7 5 1 17.77 21.65 3.19 o
8 5 1 1.13 0.67 1.40 o
9 5 1 10.49 13.65 2.78 o
10 5 1 12.53 9.57 2.05 o
11 5 1 0.55 1.15 1.20 o
12 5 1 5.09 6.33 1.93 o
13 5 1 0.95 2.91 2.02 o
1 6 1 23.62 22.78 2.27 o
2 6 1 5.75 4.73 1.13 o
3 6 1 6.35 5.07 0.95 o
4 6 1 34.28 36.12 2.32 o
5 6 1 21.98 23.68 2.67 o
6 6 1 142.91 146.50 7.82 o
7 6 1 28.72 29.26 3.70 o
8 6 1 17.05 21.70 3.43 o
9 6 1 1.74 2.02 1.30 o
10 6 1 6.55 3.59 1.93 o
11 6 1 0.30 1.44 1.30 o
12 6 1 3.02 1.04 2.50 o
0 7 1 24.87 21.56 3.42 o
1 7 1 3.76 3.15 0.92 o
2 7 1 49.69 45.84 2.87 o
3 7 1 5.02 3.91 1.45 o
4 7 1 212.37 216.92 11.62 o
5 7 1 3.00 4.67 1.86 o
6 7 1 22.78 23.42 3.45 o
7 7 1 6.60 6.54 1.90 o
8 7 1 7.55 9.05 2.46 o
9 7 1 0.63 -1.74 1.74 o
10 7 1 3.53 2.00 1.48 o
11 7 1 0.06 -2.16 2.16 o
1 8 1 0.31 0.42 0.89 o
2 8 1 1.95 1.21 1.18 o
3 8 1 18.41 15.38 2.23 o
4 8 1 24.57 22.90 4.05 o
5 8 1 6.19 6.78 3.60 o
6 8 1 65.99 71.89 6.01 o
7 8 1 2.66 2.34 1.68 o
8 8 1 7.69 6.63 2.18 o
9 8 1 0.86 0.92 2.38 o
10 8 1 6.82 10.39 2.73 o
0 9 1 35.71 38.59 5.31 o
1 9 1 0.58 1.22 0.90 o
2 9 1 9.82 10.76 2.11 o
3 9 1 2.48 -0.18 1.65 o
4 9 1 13.91 12.90 3.38 o
5 9 1 10.05 12.90 3.44 o
6 9 1 6.64 6.82 3.69 o
7 9 1 6.14 2.50 1.71 o
8 9 1 4.82 7.49 2.31 o
9 9 1 0.68 -0.24 2.23 o
1 10 1 2.79 4.87 1.55 o
2 10 1 11.10 14.07 2.40 o
3 10 1 0.55 1.45 1.89 o
4 10 1 0.13 -0.08 1.38 o
5 10 1 5.98 7.20 2.95 o
6 10 1 2.05 6.80 3.68 o
7 10 1 1.28 3.63 2.02 o
0 11 1 8.22 8.12 2.71 o
1 11 1 2.45 1.89 1.24 o
2 11 1 1.01 1.11 1.11 o
3 11 1 1.69 0.93 1.09 o
4 11 1 3.29 2.42 1.81 o
5 11 1 0.25 2.51 3.28 o
0 0 2 598.57 533.97 16.25 o
2 0 2 501.40 487.74 5.34 o
4 0 2 2.34 2.52 0.81 o
6 0 2 66.10 73.08 4.19 o
8 0 2 50.79 47.86 5.52 o
10 0 2 29.32 29.37 3.43 o
12 0 2 3.20 7.34 3.94 o
1 1 2 92.70 84.96 1.81 o
2 1 2 102.60 93.00 1.89 o
3 1 2 50.24 48.95 1.28 o
4 1 2 92.71 102.68 2.02 o
5 1 2 16.26 17.63 1.10 o
6 1 2 10.86 11.89 1.04 o
7 1 2 0.46 -0.15 0.60 o
8 1 2 89.40 97.67 3.68 o
9 1 2 2.51 3.46 1.08 o
10 1 2 16.04 18.19 2.40 o
11 1 2 7.05 5.98 1.46 o
12 1 2 3.45 4.96 2.74 o
13 1 2 3.80 0.99 2.07 o
0 2 2 32.61 36.37 2.64 o
1 2 2 122.01 126.22 2.49 o
2 2 2 174.78 180.00 3.23 o
3 2 2 88.15 93.74 4.22 o
4 2 2 53.45 55.53 1.66 o
5 2 2 5.21 4.95 0.69 o
6 2 2 14.15 16.65 1.38 o
7 2 2 2.36 3.09 0.76 o
8 2 2 4.50 4.10 0.94 o
9 2 2 2.96 3.81 0.88 o
10 2 2 3.43 2.05 2.57 o
11 2 2 9.82 10.80 2.69 o
12 2 2 3.17 1.99 1.48 o
13 2 2 7.71 15.12 4.40 o
1 3 2 52.96 60.21 1.64 o
2 3 2 56.42 57.86 2.07 o
3 3 2 49.40 50.49 1.74 o
4 3 2 17.85 17.67 1.37 o
5 3 2 0.61 0.95 0.56 o
6 3 2 23.86 24.17 1.61 o
7 3 2 14.15 14.04 1.33 o
8 3 2 1.64 1.26 0.71 o
9 3 2 0.18 0.74 1.27 o
10 3 2 1.63 3.39 1.76 o
11 3 2 8.80 7.16 1.85 o
12 3 2 2.41 6.18 2.78 o
13 3 2 7.40 10.17 3.45 o
0 4 2 54.77 72.37 3.84 o
1 4 2 5.33 6.07 0.62 o
2 4 2 7.08 8.73 1.19 o
3 4 2 17.58 18.70 2.29 o
4 4 2 27.00 27.66 1.95 o
5 4 2 11.34 12.77 1.31 o
6 4 2 3.88 5.52 1.08 o
7 4 2 14.69 18.22 1.74 o
8 4 2 3.18 3.31 1.17 o
9 4 2 6.91 7.61 1.65 o
10 4 2 6.54 3.51 1.61 o
11 4 2 1.10 1.82 1.96 o
12 4 2 1.57 -1.04 4.51 o
13 4 2 1.25 5.68 4.23 o
1 5 2 23.69 25.59 2.00 o
2 5 2 10.51 12.56 1.59 o
3 5 2 8.37 6.39 1.35 o
4 5 2 17.68 16.57 1.73 o
5 5 2 16.84 16.88 1.63 o
6 5 2 3.37 2.93 0.96 o
7 5 2 43.78 45.88 3.25 o
8 5 2 20.30 25.57 4.37 o
9 5 2 7.35 11.34 2.49 o
10 5 2 1.48 0.32 1.49 o
11 5 2 0.15 0.22 1.65 o
12 5 2 0.43 1.72 4.04 o
0 6 2 7.29 7.97 2.12 o
1 6 2 5.99 8.61 1.35 o
2 6 2 72.43 80.84 4.12 o
3 6 2 15.63 15.19 2.56 o
4 6 2 35.74 34.23 2.60 o
5 6 2 3.53 3.38 1.09 o
6 6 2 4.54 2.29 1.61 o
7 6 2 9.72 13.80 2.30 o
8 6 2 2.12 3.25 2.10 o
9 6 2 5.42 4.75 2.55 o
10 6 2 4.22 0.68 1.72 o
11 6 2 0.38 0.63 2.06 o
1 7 2 6.22 8.78 1.76 o
2 7 2 9.75 12.87 2.03 o
3 7 2 6.19 3.83 1.35 o
4 7 2 38.27 40.42 4.04 o
5 7 2 1.72 0.45 0.77 o
6 7 2 21.40 22.35 2.80 o
7 7 2 1.09 4.20 1.60 o
8 7 2 14.27 16.58 4.07 o
9 7 2 0.39 0.70 2.22 o
10 7 2 0.43 -0.47 2.16 o
11 7 2 0.42 6.75 4.75 o
0 8 2 2.48 2.00 1.60 o
1 8 2 1.38 0.99 1.18 o
2 8 2 35.93 37.55 3.41 o
3 8 2 0.32 -0.51 1.00 o
4 8 2 16.90 19.97 5.43 o
5 8 2 5.03 9.53 4.06 o
6 8 2 4.32 3.66 2.10 o
7 8 2 5.07 11.91 3.63 o
8 8 2 2.14 2.75 2.20 o
9 8 2 0.90 -1.05 4.04 o
1 9 2 0.44 2.29 1.47 o
2 9 2 1.57 2.33 2.29 o
3 9 2 3.95 4.41 2.70 o
4 9 2 5.21 6.54 3.62 o
5 9 2 8.05 2.83 2.23 o
6 9 2 1.86 1.07 1.33 o
7 9 2 2.98 2.80 1.68 o
8 9 2 2.51 7.14 3.21 o
0 10 2 8.29 12.96 4.74 o
1 10 2 1.50 4.01 1.64 o
2 10 2 1.84 4.68 2.63 o
3 10 2 1.18 4.28 3.27 o
4 10 2 0.63 0.10 1.99 o
5 10 2 1.01 3.88 3.20 o
6 10 2 1.24 1.39 1.25 o
1 11 2 0.29 -0.52 1.62 o
2 11 2 1.52 1.75 1.50 o
2 0 3 2.40 0.98 0.91 o
4 0 3 21.92 20.13 1.90 o
6 0 3 6.94 6.21 1.94 o
8 0 3 41.42 50.81 8.82 o
10 0 3 2.07 -0.19 1.90 o
0 1 3 0.22 -0.98 0.98 o
1 1 3 12.34 13.37 1.34 o
2 1 3 61.69 59.39 2.34 o
3 1 3 22.65 22.13 1.29 o
4 1 3 1.88 1.25 0.80 o
5 1 3 2.84 3.76 0.79 o
6 1 3 11.75 17.10 1.70 o
7 1 3 1.90 4.47 1.38 o
8 1 3 7.69 7.94 2.44 o
9 1 3 0.36 -0.26 1.23 o
10 1 3 3.59 1.36 1.40 o
11 1 3 1.25 -2.41 2.41 o
1 2 3 24.29 26.12 1.76 o
2 2 3 1.82 1.28 0.68 o
3 2 3 31.01 31.74 1.72 o
4 2 3 12.54 13.82 1.22 o
5 2 3 15.19 16.16 1.59 o
6 2 3 0.07 0.95 0.99 o
7 2 3 2.43 3.50 1.75 o
8 2 3 7.77 7.45 1.89 o
9 2 3 0.65 0.07 1.36 o
10 2 3 0.09 3.48 3.27 o
0 3 3 2.67 2.88 1.04 o
1 3 3 9.92 11.02 1.36 o
2 3 3 6.79 8.38 1.09 o
3 3 3 23.38 23.64 1.91 o
4 3 3 5.15 6.07 0.97 o
5 3 3 0.61 2.44 1.00 o
6 3 3 0.17 2.54 1.96 o
7 3 3 0.25 0.79 0.88 o
8 3 3 0.23 1.87 1.04 o
9 3 3 3.36 2.50 1.10 o
10 3 3 0.86 -2.11 2.11 o
1 4 3 4.92 5.70 1.04 o
2 4 3 2.05 2.70 1.03 o
3 4 3 13.13 17.12 2.35 o
4 4 3 0.26 -1.10 1.10 o
5 4 3 1.02 0.58 0.98 o
6 4 3 1.13 1.02 0.97 o
7 4 3 13.68 13.38 2.21 o
8 4 3 4.15 4.65 1.67 o
9 4 3 4.16 8.46 3.04 o
10 4 3 0.67 3.64 2.49 o
0 5 3 2.17 7.01 1.75 o
1 5 3 9.81 13.03 1.88 o
2 5 3 11.04 17.90 2.33 o
3 5 3 8.74 5.96 2.04 o
4 5 3 0.65 -0.60 1.15 o
5 5 3 2.22 0.97 1.29 o
6 5 3 1.41 2.80 1.21 o
7 5 3 6.69 7.86 2.16 o
8 5 3 0.47 2.65 1.67 o
9 5 3 5.65 9.17 3.47 o
1 6 3 9.17 11.00 3.28 o
2 6 3 4.82 2.47 1.99 o
3 6 3 3.28 1.91 1.27 o
4 6 3 11.41 9.28 2.15 o
5 6 3 1.64 0.25 1.32 o
6 6 3 0.08 0.64 1.62 o
7 6 3 4.90 1.29 3.52 o
8 6 3 6.59 9.01 3.20 o
1 7 3 1.03 5.87 2.98 o
2 7 3 20.70 25.94 5.01 o
3 7 3 0.84 0.73 1.66 o
4 7 3 1.73 1.59 1.01 o
5 7 3 0.23 0.16 0.91 o
6 7 3 0.42 -0.48 2.58 o
7 7 3 0.07 1.91 1.80 o
8 7 3 0.19 -0.53 1.29 o
2 8 3 0.49 0.81 1.95 o
3 8 3 1.98 3.02 2.09 o
4 8 3 6.19 7.38 2.78 o
5 8 3 1.91 5.55 2.50 o
6 8 3 0.36 -1.28 1.76 o
7 8 3 0.50 0.81 1.64 o
2 9 3 3.70 2.50 1.69 o
0 0 4 5.86 11.00 2.65 o
2 0 4 4.37 3.42 0.94 o
4 0 4 0.97 0.88 1.24 o
6 0 4 2.67 5.16 1.60 o
8 0 4 1.30 -0.41 1.64 o
1 1 4 1.38 1.01 0.59 o
2 1 4 1.05 1.44 0.56 o
3 1 4 2.25 1.27 0.65 o
4 1 4 0.93 0.10 0.68 o
5 1 4 3.41 3.95 0.95 o
6 1 4 2.05 2.50 0.88 o
7 1 4 0.43 1.20 0.84 o
0 2 4 1.84 0.78 0.87 o
1 2 4 1.26 1.08 0.57 o
2 2 4 2.35 1.45 0.72 o
3 2 4 8.64 8.09 1.00 o
4 2 4 0.60 0.41 0.72 o
5 2 4 1.75 1.96 1.04 o
6 2 4 0.37 1.65 1.00 o
7 2 4 1.16 1.43 1.31 o
1 3 4 0.79 1.61 0.87 o
2 3 4 0.10 1.06 0.66 o
3 3 4 4.60 7.09 1.23 o
4 3 4 0.32 2.25 1.15 o
5 3 4 4.54 6.09 1.35 o
6 3 4 0.32 0.63 1.06 o
7 3 4 1.69 2.97 1.74 o
0 4 4 0.65 0.91 1.16 o
1 4 4 3.78 4.50 1.66 o
2 4 4 0.01 0.92 0.92 o
3 4 4 1.98 2.11 1.39 o
4 4 4 0.09 0.67 1.00 o
5 4 4 0.11 0.33 0.92 o
6 4 4 0.25 0.06 1.56 o
7 4 4 0.30 -0.80 2.20 o
1 5 4 3.84 2.11 1.23 o
2 5 4 0.96 1.74 1.13 o
3 5 4 2.49 4.57 1.49 o
4 5 4 0.38 -1.29 1.29 o
5 5 4 0.09 0.42 1.38 o
6 5 4 0.47 2.42 2.65 o
0 6 4 3.14 4.20 2.43 o
1 6 4 2.46 7.45 3.22 o
2 6 4 1.94 0.53 2.96 o
4 6 4 0.51 -2.58 2.58 o
