#------------------------------------------------------------------------------
#$Date: 2019-11-22 19:03:52 +0200 (Fri, 22 Nov 2019) $
#$Revision: 231268 $
#$URL: file:///home/coder/svn-repositories/cod/cif/4/51/63/4516357.cif $
#------------------------------------------------------------------------------
#
# This file is available in the Crystallography Open Database (COD),
# http://www.crystallography.net/
#
# All data on this site have been placed in the public domain by the
# contributors.
#
data_4516357
loop_
_publ_author_name
'Patyk, Ewa'
'Podsiad\/lo, Marcin'
'Katrusiak, Andrzej'
_publ_section_title
;
 CH&#x00B7;&#x00B7;&#x00B7;N Bonds and Dynamics in Isostructural
 Pyrimidine Polymorphs
;
_journal_issue                   8
_journal_name_full               'Crystal Growth &amp; Design'
_journal_page_first              4039
_journal_paper_doi               10.1021/acs.cgd.5b00657
_journal_volume                  15
_journal_year                    2015
_chemical_formula_moiety         'C4 H4 N2'
_chemical_formula_sum            'C4 H4 N2'
_chemical_formula_weight         80.09
_chemical_melting_point          293.15
_chemical_name_common            pyrimidine
_chemical_name_systematic
; 
pyrimidine phase I
;
_space_group_IT_number           33
_space_group_name_Hall           'P 2c -2n'
_space_group_name_H-M_alt        'P n a 21'
_symmetry_cell_setting           orthorhombic
_symmetry_space_group_name_Hall  'P 2c -2n'
_symmetry_space_group_name_H-M   'P n a 21'
_atom_sites_solution_hydrogens   geom
_atom_sites_solution_primary     direct
_atom_sites_solution_secondary   difmap
_audit_creation_method           SHELXL-97
_cell_angle_alpha                90.00
_cell_angle_beta                 90.00
_cell_angle_gamma                90.00
_cell_formula_units_Z            4
_cell_length_a                   11.574(2)
_cell_length_b                   9.4736(19)
_cell_length_c                   3.7485(7)
_cell_measurement_reflns_used    1703
_cell_measurement_temperature    295(2)
_cell_measurement_theta_max      28.17
_cell_measurement_theta_min      2.78
_cell_volume                     411.01(13)
_computing_cell_refinement       'CrysAlisRED (Oxford Diffraction, 2004)'
_computing_data_collection       'CrysAlisCCD (Oxford Diffraction, 2004)'
_computing_data_reduction
'CrysAlisRED (Oxford Diffraction, 2004); REDSHABS (Katrusiak, A.  2003)'
_computing_molecular_graphics    'SHELXTL (Sheldrick, 1990)'
_computing_publication_material  'SHELXL--97 (Sheldrick, 1997)'
_computing_structure_refinement  'SHELXL--97 (Sheldrick, 1997)'
_computing_structure_solution    'SHELXS--97 (Sheldrick, 1997)'
_diffrn_ambient_environment      'diamond-anvil cell'
_diffrn_ambient_pressure         520000
_diffrn_ambient_temperature      295(2)
_diffrn_measured_fraction_theta_full 0.247
_diffrn_measured_fraction_theta_max 0.247
_diffrn_measurement_device_type  'KM-4 CCD'
_diffrn_measurement_method       '\f- and \w-scans'
_diffrn_radiation_monochromator  graphite
_diffrn_radiation_source         'fine-focus sealed tube'
_diffrn_radiation_type           MoK\a
_diffrn_radiation_wavelength     0.71073
_diffrn_reflns_av_R_equivalents  0.0383
_diffrn_reflns_av_sigmaI/netI    0.0164
_diffrn_reflns_limit_h_max       11
_diffrn_reflns_limit_h_min       -11
_diffrn_reflns_limit_k_max       12
_diffrn_reflns_limit_k_min       -12
_diffrn_reflns_limit_l_max       3
_diffrn_reflns_limit_l_min       -3
_diffrn_reflns_number            1703
_diffrn_reflns_theta_full        28.17
_diffrn_reflns_theta_max         28.17
_diffrn_reflns_theta_min         2.78
_diffrn_standards_decay_%        0
_diffrn_standards_interval_count 0
_diffrn_standards_number         0
_exptl_absorpt_coefficient_mu    0.085
_exptl_absorpt_correction_T_max  0.93
_exptl_absorpt_correction_T_min  0.51
_exptl_absorpt_correction_type   analytical
_exptl_absorpt_process_details
; 
 Correction for absorption of the diamond-anvil cell and the sample 
 were made using program REDSHABS (Katrusiak, A. (2003) REDSHABS. Adam
 Mickiewicz University Pozna\'n; Katrusiak, A. (2004) Z. Kristallogr.
 219, 461-467).
;
_exptl_crystal_colour            colourless
_exptl_crystal_density_diffrn    1.294
_exptl_crystal_density_method    'not measured'
_exptl_crystal_description       cylinder
_exptl_crystal_F_000             168
_exptl_crystal_size_max          0.38
_exptl_crystal_size_mid          0.37
_exptl_crystal_size_min          0.25
_refine_diff_density_max         0.036
_refine_diff_density_min         -0.066
_refine_diff_density_rms         0.012
_refine_ls_abs_structure_details 'Flack H D (1983), Acta Cryst. A39, 876-881'
_refine_ls_abs_structure_Flack   -5(6)
_refine_ls_extinction_coef       0.08(3)
_refine_ls_extinction_expression Fc^*^=kFc[1+0.001xFc^2^\l^3^/sin(2\q)]^-1/4^
_refine_ls_extinction_method     SHELXL
_refine_ls_goodness_of_fit_ref   1.123
_refine_ls_hydrogen_treatment    constr
_refine_ls_matrix_type           full
_refine_ls_number_parameters     56
_refine_ls_number_reflns         254
_refine_ls_number_restraints     1
_refine_ls_restrained_S_all      1.120
_refine_ls_R_factor_all          0.0338
_refine_ls_R_factor_gt           0.0277
_refine_ls_shift/su_max          0.000
_refine_ls_shift/su_mean         0.000
_refine_ls_structure_factor_coef Fsqd
_refine_ls_weighting_details
'calc w=1/[\s^2^(Fo^2^)+(0.0533P)^2^+0.0000P] where P=(Fo^2^+2Fc^2^)/3'
_refine_ls_weighting_scheme      calc
_refine_ls_wR_factor_gt          0.0726
_refine_ls_wR_factor_ref         0.0770
_reflns_number_gt                223
_reflns_number_total             254
_reflns_threshold_expression     >2sigma(I)
_cod_data_source_file            cg5b00657_si_002.cif
_cod_data_source_block           phaseI_0.52GPa
_cod_original_cell_volume        411.01(14)
_cod_database_code               4516357
loop_
_symmetry_equiv_pos_as_xyz
'x, y, z'
'-x, -y, z+1/2'
'x+1/2, -y+1/2, z'
'-x+1/2, y+1/2, z+1/2'
loop_
_atom_site_label
_atom_site_type_symbol
_atom_site_fract_x
_atom_site_fract_y
_atom_site_fract_z
_atom_site_U_iso_or_equiv
_atom_site_adp_type
_atom_site_occupancy
_atom_site_symmetry_multiplicity
_atom_site_calc_flag
_atom_site_refinement_flags
N1 N 0.1270(3) 0.39716(17) 0.0176(17) 0.0697(12) Uani 1 1 d .
N3 N 0.0120(4) 0.1908(2) 0.0216(13) 0.0745(13) Uani 1 1 d .
C2 C 0.0304(4) 0.3263(2) 0.0719(16) 0.0665(14) Uani 1 1 d .
H2 H -0.0320 0.3783 0.1558 0.080 Uiso 1 1 calc R
C4 C 0.1028(4) 0.1193(2) -0.1023(15) 0.0694(14) Uani 1 1 d .
H4 H 0.0941 0.0235 -0.1496 0.083 Uiso 1 1 calc R
C5 C 0.2066(3) 0.1794(3) -0.1623(9) 0.0636(16) Uani 1 1 d .
H5 H 0.2689 0.1270 -0.2464 0.076 Uiso 1 1 calc R
C6 C 0.2163(4) 0.3213(3) -0.0938(11) 0.0650(16) Uani 1 1 d .
H6 H 0.2874 0.3654 -0.1263 0.078 Uiso 1 1 calc R
loop_
_atom_site_aniso_label
_atom_site_aniso_U_11
_atom_site_aniso_U_22
_atom_site_aniso_U_33
_atom_site_aniso_U_23
_atom_site_aniso_U_13
_atom_site_aniso_U_12
N1 0.060(3) 0.0512(9) 0.098(4) -0.0015(17) -0.0066(19) -0.0001(14)
N3 0.058(4) 0.0559(11) 0.109(5) -0.004(2) 0.002(2) -0.0043(13)
C2 0.067(7) 0.0581(12) 0.074(7) -0.007(2) -0.002(2) 0.0092(16)
C4 0.069(5) 0.0477(11) 0.092(6) -0.0092(16) -0.0120(15) -0.0019(17)
C5 0.051(6) 0.0653(14) 0.074(8) -0.0127(15) -0.005(2) 0.0102(16)
C6 0.036(6) 0.0710(14) 0.088(7) -0.004(2) -0.0067(13) -0.0100(15)
loop_
_atom_type_symbol
_atom_type_description
_atom_type_scat_dispersion_real
_atom_type_scat_dispersion_imag
_atom_type_scat_source
C C 0.0033 0.0016 'International Tables Vol C Tables 4.2.6.8 and 6.1.1.4'
H H 0.0000 0.0000 'International Tables Vol C Tables 4.2.6.8 and 6.1.1.4'
N N 0.0061 0.0033 'International Tables Vol C Tables 4.2.6.8 and 6.1.1.4'
loop_
_geom_angle_atom_site_label_1
_geom_angle_atom_site_label_2
_geom_angle_atom_site_label_3
_geom_angle
C2 N1 C6 115.7(2)
C2 N3 C4 114.7(3)
N3 C2 N1 127.7(3)
N3 C4 C5 123.1(3)
C4 C5 C6 117.0(3)
N1 C6 C5 121.7(4)
loop_
_geom_bond_atom_site_label_1
_geom_bond_atom_site_label_2
_geom_bond_distance
N1 C2 1.320(5)
N1 C6 1.326(5)
N3 C2 1.314(4)
N3 C4 1.333(5)
C4 C5 1.348(6)
C5 C6 1.374(4)
loop_
_refln_index_h
_refln_index_k
_refln_index_l
_refln_F_squared_calc
_refln_F_squared_meas
_refln_F_squared_sigma
_refln_observed_status
10 0 -3 0.30 0.62 0.45 o
9 1 -3 0.10 0.69 0.39 o
10 1 -3 1.94 1.11 0.58 o
11 1 -3 0.74 0.93 0.50 o
9 2 -3 0.66 0.49 0.68 o
10 2 -3 0.10 0.55 0.29 o
11 2 -3 0.66 1.29 0.66 o
10 3 -3 0.45 0.46 0.56 o
11 3 -3 0.79 0.43 0.48 o
10 4 -3 0.18 1.34 0.63 o
11 4 -3 0.08 0.39 0.53 o
6 0 -2 50.30 48.24 0.84 o
8 0 -2 29.97 31.90 0.68 o
5 1 -2 10.35 10.54 0.41 o
6 1 -2 7.00 7.18 0.25 o
7 1 -2 0.41 0.40 0.13 o
8 1 -2 64.94 67.61 0.84 o
9 1 -2 1.33 1.80 0.36 o
4 2 -2 39.10 39.26 0.73 o
5 2 -2 3.38 3.54 0.22 o
6 2 -2 11.56 11.88 0.33 o
7 2 -2 1.05 1.03 0.20 o
8 2 -2 2.70 2.86 0.25 o
9 2 -2 1.93 1.90 0.29 o
4 3 -2 11.81 11.19 0.47 o
5 3 -2 0.54 0.59 0.16 o
6 3 -2 16.60 16.17 0.38 o
7 3 -2 8.27 7.72 0.30 o
8 3 -2 1.28 1.39 0.23 o
9 3 -2 0.16 0.31 0.21 o
4 4 -2 21.08 18.67 0.82 o
5 4 -2 7.84 8.00 0.36 o
6 4 -2 2.47 2.44 0.24 o
7 4 -2 10.53 10.60 0.38 o
8 4 -2 1.70 1.12 0.23 o
9 4 -2 3.94 3.19 0.43 o
5 5 -2 11.07 12.10 0.44 o
6 5 -2 2.71 2.66 0.29 o
7 5 -2 27.56 26.34 0.55 o
8 5 -2 14.66 14.34 0.49 o
9 5 -2 4.48 4.21 0.57 o
5 6 -2 2.18 2.28 0.34 o
6 6 -2 3.68 3.79 0.36 o
7 6 -2 6.12 6.06 0.39 o
8 6 -2 1.88 2.17 0.35 o
5 7 -2 1.39 1.44 0.39 o
6 7 -2 14.79 14.67 0.56 o
7 7 -2 0.87 0.45 0.23 o
8 7 -2 9.46 10.15 0.59 o
6 8 -2 2.53 2.20 0.36 o
7 8 -2 2.84 2.64 0.37 o
8 8 -2 1.38 1.04 0.52 o
6 9 -2 1.03 0.74 0.37 o
7 9 -2 1.54 1.77 0.39 o
7 10 -2 2.28 3.39 1.28 o
2 0 -1 2215.47 2271.31 12.63 o
4 0 -1 107.80 103.30 0.77 o
6 0 -1 52.38 52.73 0.52 o
2 1 -1 775.43 768.38 5.21 o
3 1 -1 41.67 40.86 0.37 o
4 1 -1 165.14 166.84 1.00 o
5 1 -1 14.09 15.17 0.20 o
6 1 -1 58.37 60.49 0.53 o
2 2 -1 9.99 9.19 0.16 o
3 2 -1 74.03 76.02 0.77 o
4 2 -1 83.62 86.88 0.51 o
5 2 -1 8.16 8.28 0.19 o
6 2 -1 175.62 181.02 3.13 o
1 3 -1 67.41 65.79 1.00 o
2 3 -1 15.63 14.44 0.17 o
3 3 -1 11.03 10.06 0.15 o
4 3 -1 373.06 391.88 3.36 o
5 3 -1 3.21 3.35 0.12 o
6 3 -1 20.53 21.86 0.53 o
1 4 -1 39.35 45.40 0.61 o
2 4 -1 275.30 262.93 2.60 o
3 4 -1 1.32 1.39 0.11 o
4 4 -1 3.48 3.38 0.16 o
5 4 -1 11.98 11.87 0.24 o
6 4 -1 20.12 22.68 0.60 o
1 5 -1 4.08 3.57 0.13 o
2 5 -1 55.05 56.49 0.84 o
3 5 -1 11.81 11.20 0.22 o
4 5 -1 16.60 14.72 0.28 o
5 5 -1 29.84 29.06 0.56 o
6 5 -1 3.16 3.17 0.27 o
1 6 -1 19.72 19.65 0.40 o
2 6 -1 4.40 4.29 0.21 o
3 6 -1 5.14 5.30 0.24 o
4 6 -1 27.21 26.09 0.51 o
5 6 -1 16.84 16.68 0.38 o
6 6 -1 114.51 128.90 1.34 o
1 7 -1 2.27 2.12 0.29 o
2 7 -1 40.57 42.12 0.74 o
3 7 -1 3.60 3.33 0.29 o
4 7 -1 165.98 181.10 2.80 o
5 7 -1 2.09 1.98 0.25 o
6 7 -1 13.77 13.62 0.56 o
1 8 -1 0.38 0.53 0.24 o
2 8 -1 2.23 2.45 0.30 o
3 8 -1 13.50 13.26 0.43 o
4 8 -1 16.84 17.21 0.54 o
5 8 -1 4.66 4.74 0.38 o
6 8 -1 44.97 48.51 1.91 o
2 9 -1 7.62 7.64 0.47 o
3 9 -1 1.29 0.99 0.23 o
4 9 -1 9.32 8.05 0.41 o
5 9 -1 6.50 7.32 0.55 o
2 10 -1 6.90 8.36 0.74 o
3 10 -1 0.17 0.70 0.36 o
4 10 -1 0.11 0.54 0.32 o
5 10 -1 2.95 3.24 1.04 o
3 11 -1 0.96 0.73 0.42 o
4 11 -1 2.24 2.67 0.49 o
1 1 0 0.94 0.83 0.06 o
0 2 0 1715.16 1606.82 10.43 o
1 2 0 27.85 27.25 0.25 o
1 3 0 9.15 10.26 0.10 o
2 3 0 466.61 437.53 10.02 o
0 4 0 1191.09 1216.44 15.55 o
1 4 0 8.28 8.76 0.09 o
2 4 0 0.48 0.45 0.06 o
1 5 0 70.89 72.88 0.64 o
2 5 0 124.06 118.33 1.34 o
3 5 0 0.31 0.26 0.12 o
0 6 0 186.79 208.02 2.24 o
1 6 0 0.35 0.39 0.08 o
2 6 0 0.82 0.89 0.10 o
3 6 0 1.01 1.10 0.14 o
1 7 0 1.07 1.13 0.11 o
2 7 0 9.88 8.74 0.24 o
3 7 0 22.13 22.98 0.49 o
0 8 0 30.80 28.28 0.72 o
1 8 0 2.84 2.55 0.17 o
2 8 0 0.69 0.54 0.13 o
1 9 0 2.22 2.16 0.20 o
2 9 0 3.45 3.38 0.29 o
0 10 0 31.05 30.19 1.29 o
1 10 0 1.25 1.43 0.26 o
2 10 0 1.21 1.00 0.50 o
1 11 0 1.24 1.08 0.32 o
0 12 0 0.06 1.33 0.53 o
2 0 1 2215.00 2295.53 38.03 o
4 0 1 107.80 103.88 1.20 o
6 0 1 52.41 51.16 0.74 o
2 1 1 775.86 781.32 12.13 o
3 1 1 41.74 41.81 0.31 o
4 1 1 165.11 167.98 1.86 o
5 1 1 14.09 15.08 0.49 o
6 1 1 58.43 57.16 0.73 o
2 2 1 10.00 10.12 0.17 o
3 2 1 74.07 76.14 1.41 o
4 2 1 83.66 85.79 0.77 o
5 2 1 8.19 7.12 0.69 o
6 2 1 175.58 172.73 2.67 o
1 3 1 67.40 69.36 2.24 o
2 3 1 15.64 15.78 0.27 o
3 3 1 11.04 10.21 0.15 o
4 3 1 372.98 379.67 3.73 o
5 3 1 3.21 3.04 0.15 o
6 3 1 20.52 21.53 0.42 o
1 4 1 39.30 44.16 1.19 o
2 4 1 275.26 272.36 1.97 o
3 4 1 1.32 1.20 0.12 o
4 4 1 3.48 3.22 0.15 o
5 4 1 11.96 12.05 0.36 o
6 4 1 20.10 20.23 0.51 o
1 5 1 4.08 3.96 0.34 o
2 5 1 55.08 57.21 0.70 o
3 5 1 11.83 11.31 0.30 o
4 5 1 16.60 14.11 0.26 o
5 5 1 29.85 28.18 0.58 o
6 5 1 3.17 2.86 0.50 o
1 6 1 19.75 20.84 0.47 o
2 6 1 4.41 4.74 0.27 o
3 6 1 5.14 5.33 0.20 o
4 6 1 27.22 26.60 0.38 o
5 6 1 16.84 15.68 0.40 o
6 6 1 114.48 118.10 3.09 o
1 7 1 2.27 2.68 0.29 o
2 7 1 40.62 42.34 0.69 o
3 7 1 3.60 3.48 0.37 o
4 7 1 165.93 174.84 3.05 o
5 7 1 2.09 2.31 0.34 o
6 7 1 13.77 12.43 0.61 o
1 8 1 0.38 0.68 0.29 o
2 8 1 2.23 2.42 0.27 o
3 8 1 13.51 14.25 0.45 o
4 8 1 16.85 16.06 0.43 o
5 8 1 4.66 5.17 0.39 o
6 8 1 44.95 46.31 1.60 o
1 9 1 0.29 0.33 0.87 o
2 9 1 7.64 7.82 0.51 o
3 9 1 1.30 0.97 0.24 o
4 9 1 9.31 8.18 0.41 o
5 9 1 6.50 8.20 0.57 o
2 10 1 6.89 8.04 0.63 o
3 10 1 0.16 0.54 0.26 o
4 10 1 0.11 0.46 0.25 o
5 10 1 2.95 3.66 1.76 o
3 11 1 0.96 1.17 0.52 o
4 11 1 2.24 2.70 0.70 o
6 0 2 50.34 50.68 0.66 o
8 0 2 29.98 30.75 1.00 o
5 1 2 10.36 11.66 0.36 o
6 1 2 7.01 7.13 0.28 o
7 1 2 0.41 0.41 0.13 o
8 1 2 64.97 67.75 0.85 o
9 1 2 1.33 1.14 0.31 o
5 2 2 3.39 3.12 0.29 o
6 2 2 11.56 12.08 0.37 o
7 2 2 1.06 1.17 0.20 o
8 2 2 2.70 2.71 0.27 o
9 2 2 1.93 1.02 0.26 o
5 3 2 0.55 0.55 0.24 o
6 3 2 16.58 16.23 0.40 o
7 3 2 8.27 8.23 0.34 o
8 3 2 1.28 1.23 0.25 o
9 3 2 0.16 0.93 0.30 o
4 4 2 21.06 20.69 1.15 o
5 4 2 7.84 7.93 0.30 o
6 4 2 2.47 2.71 0.27 o
7 4 2 10.53 10.63 0.36 o
8 4 2 1.70 1.17 0.27 o
9 4 2 3.94 3.05 0.38 o
5 5 2 11.07 11.62 0.42 o
6 5 2 2.71 2.76 0.30 o
7 5 2 27.55 26.87 0.54 o
8 5 2 14.67 15.28 0.59 o
9 5 2 4.50 4.99 0.71 o
5 6 2 2.18 2.24 0.32 o
6 6 2 3.68 3.67 0.38 o
7 6 2 6.12 6.56 0.41 o
8 6 2 1.88 1.26 0.33 o
5 7 2 1.38 1.06 0.39 o
6 7 2 14.77 15.66 0.70 o
7 7 2 0.87 0.43 0.28 o
8 7 2 9.47 10.11 0.64 o
6 8 2 2.53 2.52 0.43 o
7 8 2 2.84 3.20 0.42 o
8 8 2 1.38 1.13 0.39 o
6 9 2 1.03 1.11 0.38 o
7 9 2 1.54 0.90 0.33 o
7 10 2 2.28 1.97 1.13 o
10 0 3 0.30 0.79 0.54 o
9 1 3 0.10 0.54 0.72 o
10 1 3 1.94 1.79 1.24 o
11 1 3 0.74 0.59 0.54 o
9 2 3 0.66 1.03 0.72 o
10 2 3 0.10 0.81 0.45 o
11 2 3 0.66 0.83 0.44 o
10 3 3 0.45 1.40 0.89 o
11 3 3 0.79 0.69 0.49 o
10 4 3 0.18 0.35 0.79 o
