#------------------------------------------------------------------------------
#$Date: 2019-11-22 19:03:52 +0200 (Fri, 22 Nov 2019) $
#$Revision: 231268 $
#$URL: file:///home/coder/svn-repositories/cod/cif/4/51/63/4516350.cif $
#------------------------------------------------------------------------------
#
# This file is available in the Crystallography Open Database (COD),
# http://www.crystallography.net/
#
# All data on this site have been placed in the public domain by the
# contributors.
#
data_4516350
loop_
_publ_author_name
'Patyk, Ewa'
'Podsiad\/lo, Marcin'
'Katrusiak, Andrzej'
_publ_section_title
;
 CH&#x00B7;&#x00B7;&#x00B7;N Bonds and Dynamics in Isostructural
 Pyrimidine Polymorphs
;
_journal_issue                   8
_journal_name_full               'Crystal Growth &amp; Design'
_journal_page_first              4039
_journal_paper_doi               10.1021/acs.cgd.5b00657
_journal_volume                  15
_journal_year                    2015
_chemical_formula_moiety         'C4 H4 N2'
_chemical_formula_sum            'C4 H4 N2'
_chemical_formula_weight         80.09
_chemical_melting_point          293.15
_chemical_name_common            pyrimidine
_chemical_name_systematic
; 
pyrimidine phase II
;
_space_group_IT_number           33
_space_group_name_Hall           'P 2c -2n'
_space_group_name_H-M_alt        'P n a 21'
_symmetry_cell_setting           orthorhombic
_symmetry_space_group_name_Hall  'P 2c -2n'
_symmetry_space_group_name_H-M   'P n a 21'
_atom_sites_solution_hydrogens   geom
_atom_sites_solution_primary     direct
_atom_sites_solution_secondary   difmap
_audit_creation_method           SHELXL-97
_cell_angle_alpha                90.00
_cell_angle_beta                 90.00
_cell_angle_gamma                90.00
_cell_formula_units_Z            4
_cell_length_a                   11.651(3)
_cell_length_b                   9.475(3)
_cell_length_c                   3.7623(10)
_cell_measurement_reflns_used    3019
_cell_measurement_temperature    210.0(1)
_cell_measurement_theta_max      27.78
_cell_measurement_theta_min      3.50
_cell_volume                     415.3(2)
_computing_cell_refinement       'CrysAlisRED (Oxford Diffraction, 2004)'
_computing_data_collection       'CrysAlisCCD (Oxford Diffraction, 2004)'
_computing_data_reduction        'CrysAlisRED (Oxford Diffraction, 2004)'
_computing_molecular_graphics    'SHELXTL (Sheldrick, 1990)'
_computing_publication_material  'SHELXL--97 (Sheldrick, 1997)'
_computing_structure_refinement  'SHELXL--97 (Sheldrick, 1997)'
_computing_structure_solution    'SHELXS--97 (Sheldrick, 1997)'
_diffrn_ambient_pressure         100
_diffrn_ambient_temperature      210.0(1)
_diffrn_measured_fraction_theta_full 0.931
_diffrn_measured_fraction_theta_max 0.931
_diffrn_measurement_device_type  'KM-4 CCD'
_diffrn_measurement_method       \w-scans
_diffrn_radiation_monochromator  graphite
_diffrn_radiation_source         'fine-focus sealed tube'
_diffrn_radiation_type           MoK\a
_diffrn_radiation_wavelength     0.71073
_diffrn_reflns_av_R_equivalents  0.0596
_diffrn_reflns_av_sigmaI/netI    0.0601
_diffrn_reflns_limit_h_max       14
_diffrn_reflns_limit_h_min       -14
_diffrn_reflns_limit_k_max       11
_diffrn_reflns_limit_k_min       -11
_diffrn_reflns_limit_l_max       4
_diffrn_reflns_limit_l_min       -4
_diffrn_reflns_number            3019
_diffrn_reflns_theta_full        27.78
_diffrn_reflns_theta_max         27.78
_diffrn_reflns_theta_min         3.50
_diffrn_standards_decay_%        0
_diffrn_standards_interval_count 0
_diffrn_standards_number         0
_exptl_absorpt_coefficient_mu    0.084
_exptl_absorpt_correction_T_max  0.983
_exptl_absorpt_correction_T_min  0.983
_exptl_absorpt_correction_type   numerical
_exptl_absorpt_process_details
; 
 Correction for absorption was made using XEMP (SHELXTL, 
 Sheldrick (1990)).
;
_exptl_crystal_colour            colourless
_exptl_crystal_density_diffrn    1.281
_exptl_crystal_density_method    'not measured'
_exptl_crystal_description       irregular
_exptl_crystal_F_000             168
_exptl_crystal_size_max          0.20
_exptl_crystal_size_mid          0.20
_exptl_crystal_size_min          0.20
_refine_diff_density_max         0.116
_refine_diff_density_min         -0.187
_refine_diff_density_rms         0.035
_refine_ls_abs_structure_details 'Flack H D (1983), Acta Cryst. A39, 876-881'
_refine_ls_abs_structure_Flack   -2(7)
_refine_ls_extinction_coef       0.042(7)
_refine_ls_extinction_expression Fc^*^=kFc[1+0.001xFc^2^\l^3^/sin(2\q)]^-1/4^
_refine_ls_extinction_method     SHELXL
_refine_ls_goodness_of_fit_ref   1.022
_refine_ls_hydrogen_treatment    constr
_refine_ls_matrix_type           full
_refine_ls_number_parameters     56
_refine_ls_number_reflns         876
_refine_ls_number_restraints     1
_refine_ls_restrained_S_all      1.021
_refine_ls_R_factor_all          0.0930
_refine_ls_R_factor_gt           0.0484
_refine_ls_shift/su_max          0.000
_refine_ls_shift/su_mean         0.000
_refine_ls_structure_factor_coef Fsqd
_refine_ls_weighting_details
'calc w=1/[\s^2^(Fo^2^)+(0.0344P)^2^+0.0000P] where P=(Fo^2^+2Fc^2^)/3'
_refine_ls_weighting_scheme      calc
_refine_ls_wR_factor_gt          0.0959
_refine_ls_wR_factor_ref         0.1165
_reflns_number_gt                560
_reflns_number_total             876
_reflns_threshold_expression     >2sigma(I)
_cod_data_source_file            cg5b00657_si_002.cif
_cod_data_source_block           phaseII_210K
_cod_original_cell_volume        415.31(19)
_cod_database_code               4516350
loop_
_symmetry_equiv_pos_as_xyz
'x, y, z'
'-x, -y, z+1/2'
'x+1/2, -y+1/2, z'
'-x+1/2, y+1/2, z+1/2'
loop_
_atom_site_label
_atom_site_type_symbol
_atom_site_fract_x
_atom_site_fract_y
_atom_site_fract_z
_atom_site_U_iso_or_equiv
_atom_site_adp_type
_atom_site_occupancy
_atom_site_symmetry_multiplicity
_atom_site_calc_flag
_atom_site_refinement_flags
N1 N 0.1271(2) 0.3974(2) 0.0228(9) 0.0519(8) Uani 1 1 d .
N3 N 0.0116(2) 0.1906(2) 0.0163(7) 0.0556(9) Uani 1 1 d .
C2 C 0.0303(2) 0.3259(3) 0.0773(11) 0.0499(9) Uani 1 1 d .
H2 H -0.0310 0.3770 0.1689 0.060 Uiso 1 1 calc R
C4 C 0.1013(3) 0.1186(3) -0.1059(10) 0.0529(9) Uani 1 1 d .
H4 H 0.0923 0.0230 -0.1546 0.063 Uiso 1 1 calc R
C5 C 0.2067(3) 0.1796(3) -0.1632(8) 0.0492(9) Uani 1 1 d .
H5 H 0.2691 0.1276 -0.2444 0.059 Uiso 1 1 calc R
C6 C 0.2148(3) 0.3208(3) -0.0943(7) 0.0499(11) Uani 1 1 d .
H6 H 0.2850 0.3654 -0.1311 0.060 Uiso 1 1 calc R
loop_
_atom_site_aniso_label
_atom_site_aniso_U_11
_atom_site_aniso_U_22
_atom_site_aniso_U_33
_atom_site_aniso_U_23
_atom_site_aniso_U_13
_atom_site_aniso_U_12
N1 0.0467(13) 0.0400(13) 0.069(2) -0.0050(14) -0.0039(15) 0.0004(12)
N3 0.0427(14) 0.0425(14) 0.082(2) -0.0022(17) -0.0004(14) -0.0022(12)
C2 0.0390(16) 0.0488(19) 0.062(2) -0.005(2) -0.0016(17) 0.0087(14)
C4 0.0562(19) 0.0329(15) 0.070(3) -0.0080(15) -0.0081(15) 0.0034(15)
C5 0.0438(17) 0.0483(18) 0.056(2) -0.0117(17) -0.0022(15) 0.0062(15)
C6 0.0399(15) 0.052(2) 0.057(3) -0.004(2) 0.0012(13) -0.0078(14)
loop_
_atom_type_symbol
_atom_type_description
_atom_type_scat_dispersion_real
_atom_type_scat_dispersion_imag
_atom_type_scat_source
C C 0.0033 0.0016 'International Tables Vol C Tables 4.2.6.8 and 6.1.1.4'
H H 0.0000 0.0000 'International Tables Vol C Tables 4.2.6.8 and 6.1.1.4'
N N 0.0061 0.0033 'International Tables Vol C Tables 4.2.6.8 and 6.1.1.4'
loop_
_geom_angle_atom_site_label_1
_geom_angle_atom_site_label_2
_geom_angle_atom_site_label_3
_geom_angle
C6 N1 C2 115.1(2)
C2 N3 C4 115.4(2)
N3 C2 N1 127.4(3)
N3 C4 C5 122.7(3)
C6 C5 C4 116.4(3)
N1 C6 C5 122.9(3)
loop_
_geom_bond_atom_site_label_1
_geom_bond_atom_site_label_2
_geom_bond_distance
N1 C6 1.329(4)
N1 C2 1.331(3)
N3 C2 1.320(3)
N3 C4 1.330(4)
C4 C5 1.374(4)
C5 C6 1.366(4)
loop_
_refln_index_h
_refln_index_k
_refln_index_l
_refln_F_squared_calc
_refln_F_squared_meas
_refln_F_squared_sigma
_refln_observed_status
5 1 -4 4.87 5.85 2.98 o
6 1 -4 4.04 2.58 2.66 o
7 1 -4 0.76 3.07 2.80 o
4 2 -4 0.77 -1.15 1.15 o
5 2 -4 2.68 3.06 2.18 o
6 2 -4 0.58 1.65 1.44 o
7 2 -4 2.24 3.88 2.78 o
8 2 -4 0.20 1.08 1.88 o
3 3 -4 6.98 5.73 2.94 o
4 3 -4 0.45 -0.86 0.86 o
5 3 -4 6.80 6.29 3.67 o
6 3 -4 0.44 3.08 2.65 o
7 3 -4 2.74 0.65 1.15 o
2 4 -4 0.05 0.60 1.33 o
3 4 -4 3.40 2.93 3.21 o
4 4 -4 0.16 -1.14 1.14 o
5 4 -4 0.23 -0.95 2.04 o
6 4 -4 0.44 -0.15 1.07 o
2 5 -4 1.75 4.83 3.10 o
3 5 -4 3.82 6.17 4.12 o
4 5 -4 0.65 2.30 2.47 o
0 6 -4 5.89 3.06 4.22 o
1 6 -4 3.93 -0.95 3.35 o
2 6 -4 3.30 3.38 2.00 o
4 0 -3 26.93 28.94 5.77 o
6 0 -3 11.51 10.89 3.33 o
2 1 -3 75.59 81.54 9.73 o
3 1 -3 27.25 28.12 5.86 o
4 1 -3 2.16 3.29 1.77 o
5 1 -3 3.27 2.83 2.15 o
6 1 -3 15.00 14.37 2.73 o
7 1 -3 2.76 1.64 1.23 o
8 1 -3 12.08 9.64 2.97 o
9 1 -3 0.58 0.52 1.20 o
1 2 -3 27.84 33.13 6.72 o
2 2 -3 2.88 3.96 2.54 o
3 2 -3 38.47 37.79 6.37 o
4 2 -3 15.85 13.74 4.17 o
5 2 -3 18.80 15.77 4.38 o
6 2 -3 0.30 0.00 1.25 o
7 2 -3 3.05 1.84 1.54 o
8 2 -3 9.62 7.07 3.05 o
9 2 -3 1.60 1.21 1.97 o
10 2 -3 0.11 2.08 2.16 o
0 3 -3 3.41 4.52 1.91 o
1 3 -3 13.21 12.51 2.41 o
2 3 -3 8.29 9.58 2.85 o
3 3 -3 29.72 24.63 4.03 o
4 3 -3 6.26 2.99 1.46 o
5 3 -3 0.83 -0.07 0.95 o
6 3 -3 0.22 0.76 1.01 o
7 3 -3 1.10 2.87 2.42 o
8 3 -3 0.25 3.14 2.72 o
9 3 -3 4.44 3.50 2.81 o
10 3 -3 1.27 3.93 3.16 o
11 3 -3 1.04 -0.35 1.25 o
1 4 -3 7.32 6.46 1.71 o
2 4 -3 2.54 2.29 1.11 o
3 4 -3 17.78 13.06 2.41 o
4 4 -3 0.26 1.02 0.83 o
5 4 -3 1.25 1.08 1.27 o
6 4 -3 1.63 1.68 1.68 o
7 4 -3 16.69 14.27 3.84 o
8 4 -3 6.47 6.56 3.57 o
9 4 -3 5.55 2.46 3.19 o
10 4 -3 0.93 -1.01 2.48 o
0 5 -3 4.20 2.02 4.24 o
1 5 -3 13.03 15.34 2.88 o
2 5 -3 15.81 19.42 3.21 o
3 5 -3 13.28 10.91 4.09 o
4 5 -3 0.84 -0.20 0.62 o
5 5 -3 2.39 1.43 1.72 o
6 5 -3 2.14 0.13 1.13 o
7 5 -3 8.49 4.95 2.95 o
8 5 -3 0.88 2.91 2.16 o
9 5 -3 7.38 17.33 9.01 o
1 6 -3 12.83 15.91 4.15 o
2 6 -3 7.31 6.76 3.26 o
3 6 -3 4.66 2.20 1.85 o
4 6 -3 16.62 15.36 3.08 o
5 6 -3 2.05 0.58 1.86 o
6 6 -3 0.01 1.49 1.66 o
7 6 -3 6.38 6.73 8.13 o
8 6 -3 9.16 6.91 11.24 o
0 7 -3 5.13 5.98 17.36 o
1 7 -3 1.10 -0.10 1.06 o
2 7 -3 30.22 44.33 23.66 o
3 7 -3 1.08 -0.13 1.45 o
4 7 -3 1.90 2.62 1.75 o
5 7 -3 0.40 1.10 1.94 o
6 7 -3 0.44 -1.52 2.30 o
7 7 -3 0.08 1.10 1.52 o
8 7 -3 0.54 2.05 2.74 o
1 8 -3 0.08 -0.92 0.92 o
2 8 -3 0.86 0.39 0.98 o
3 8 -3 2.52 8.97 5.12 o
4 8 -3 9.25 13.91 5.34 o
5 8 -3 2.80 4.89 2.60 o
6 8 -3 1.02 0.13 2.66 o
0 9 -3 2.26 -0.43 8.52 o
1 9 -3 2.05 2.21 14.26 o
2 9 -3 5.39 6.82 15.67 o
3 9 -3 2.36 1.54 4.05 o
4 9 -3 0.38 -6.80 8.86 o
2 0 -2 543.32 514.91 7.66 o
4 0 -2 3.00 2.17 0.46 o
6 0 -2 76.68 72.55 4.52 o
8 0 -2 64.98 59.85 6.18 o
10 0 -2 37.37 35.31 5.51 o
12 0 -2 3.49 1.41 1.37 o
1 1 -2 99.53 85.23 3.13 o
2 1 -2 107.91 95.99 2.56 o
3 1 -2 55.71 53.16 2.13 o
4 1 -2 103.22 107.81 3.35 o
5 1 -2 18.98 18.43 1.51 o
6 1 -2 11.11 9.45 1.21 o
7 1 -2 0.52 0.81 0.49 o
8 1 -2 105.75 107.20 5.89 o
9 1 -2 2.72 0.91 0.65 o
10 1 -2 20.45 22.06 3.12 o
11 1 -2 8.06 6.57 1.63 o
12 1 -2 3.44 3.91 1.63 o
13 1 -2 4.28 2.60 1.33 o
0 2 -2 34.09 30.10 2.92 o
1 2 -2 137.19 144.11 3.45 o
2 2 -2 194.25 189.03 5.09 o
3 2 -2 97.96 97.95 3.29 o
4 2 -2 59.46 60.21 2.71 o
5 2 -2 4.79 3.61 0.63 o
6 2 -2 14.74 14.96 1.80 o
7 2 -2 2.76 1.89 0.75 o
8 2 -2 5.93 5.63 1.41 o
9 2 -2 4.16 5.61 1.51 o
10 2 -2 4.08 3.39 1.57 o
11 2 -2 11.17 11.67 2.36 o
12 2 -2 4.10 7.87 2.29 o
13 2 -2 8.54 8.14 2.17 o
1 3 -2 57.96 59.16 2.45 o
2 3 -2 63.58 66.93 3.43 o
3 3 -2 56.33 54.15 2.67 o
4 3 -2 21.47 21.19 1.93 o
5 3 -2 0.72 1.18 0.58 o
6 3 -2 25.95 26.73 2.73 o
7 3 -2 15.19 15.55 1.98 o
8 3 -2 1.75 2.32 0.84 o
9 3 -2 0.02 -0.16 1.21 o
10 3 -2 2.14 5.16 1.68 o
11 3 -2 10.32 9.44 2.30 o
12 3 -2 3.02 4.48 1.99 o
13 3 -2 8.46 10.45 3.22 o
0 4 -2 61.96 73.21 4.19 o
1 4 -2 5.90 4.89 0.81 o
2 4 -2 8.75 8.38 1.17 o
3 4 -2 22.43 23.77 1.99 o
4 4 -2 30.93 33.91 2.61 o
5 4 -2 13.16 13.55 1.80 o
6 4 -2 5.83 5.80 1.24 o
7 4 -2 17.32 14.19 2.20 o
8 4 -2 3.93 1.23 1.80 o
9 4 -2 7.84 9.27 2.23 o
10 4 -2 8.74 8.56 1.90 o
11 4 -2 1.33 2.86 1.45 o
12 4 -2 2.27 -0.70 2.15 o
13 4 -2 1.34 -0.70 1.94 o
1 5 -2 29.44 30.59 2.20 o
2 5 -2 12.91 14.68 1.73 o
3 5 -2 10.99 13.68 1.81 o
4 5 -2 21.60 27.13 2.63 o
5 5 -2 19.33 20.54 2.33 o
6 5 -2 3.85 5.80 1.56 o
7 5 -2 50.21 46.71 4.20 o
8 5 -2 26.55 26.15 2.97 o
9 5 -2 8.77 7.59 2.13 o
10 5 -2 2.04 0.46 0.90 o
11 5 -2 0.21 1.78 2.08 o
12 5 -2 0.36 3.08 2.27 o
0 6 -2 8.85 6.12 1.45 o
1 6 -2 6.86 5.46 1.31 o
2 6 -2 91.88 86.38 4.39 o
3 6 -2 18.65 19.29 2.71 o
4 6 -2 43.21 47.31 4.84 o
5 6 -2 3.52 4.63 1.34 o
6 6 -2 5.31 3.87 1.47 o
7 6 -2 12.20 14.89 2.49 o
8 6 -2 2.66 4.91 1.72 o
9 6 -2 6.98 1.41 1.45 o
10 6 -2 5.33 3.44 1.74 o
11 6 -2 0.41 -1.16 2.60 o
1 7 -2 6.75 8.03 1.47 o
2 7 -2 12.58 11.06 1.67 o
3 7 -2 7.75 6.27 1.37 o
4 7 -2 52.03 53.25 5.43 o
5 7 -2 2.42 1.71 0.93 o
6 7 -2 26.14 28.32 4.16 o
7 7 -2 1.33 1.04 1.29 o
8 7 -2 17.25 15.96 2.86 o
9 7 -2 0.34 -1.30 2.32 o
10 7 -2 0.54 -0.63 2.35 o
11 7 -2 0.44 4.16 5.38 o
0 8 -2 3.05 2.83 1.36 o
1 8 -2 1.44 1.46 0.73 o
2 8 -2 47.89 45.85 4.72 o
3 8 -2 0.50 0.70 0.95 o
4 8 -2 21.68 22.61 4.48 o
5 8 -2 6.78 5.64 2.05 o
6 8 -2 4.70 8.79 2.58 o
7 8 -2 6.03 6.51 2.02 o
8 8 -2 3.66 7.79 4.02 o
9 8 -2 0.96 3.74 2.82 o
1 9 -2 0.98 0.95 0.96 o
2 9 -2 1.95 4.01 1.37 o
3 9 -2 4.38 5.98 1.63 o
4 9 -2 7.14 7.85 2.88 o
5 9 -2 9.72 13.38 2.98 o
6 9 -2 3.03 5.45 2.78 o
7 9 -2 3.91 -0.48 2.99 o
8 9 -2 3.20 0.82 3.49 o
0 10 -2 11.05 12.14 3.54 o
1 10 -2 2.09 3.56 1.27 o
2 10 -2 2.75 1.44 0.93 o
3 10 -2 1.66 1.34 1.24 o
4 10 -2 0.82 2.65 1.28 o
5 10 -2 1.21 -1.02 1.29 o
6 10 -2 1.80 -2.19 2.21 o
1 11 -2 0.17 2.57 2.21 o
2 11 -2 2.32 2.07 2.08 o
3 11 -2 3.77 9.01 5.51 o
2 0 -1 2384.73 2398.43 16.75 o
4 0 -1 115.58 116.35 6.12 o
6 0 -1 64.35 66.68 5.63 o
8 0 -1 122.27 114.43 8.81 o
10 0 -1 160.94 165.68 12.07 o
12 0 -1 16.06 16.04 4.34 o
14 0 -1 1.27 0.88 1.93 o
0 1 -1 5711.36 5832.29 27.91 o
1 1 -1 158.64 157.19 2.73 o
2 1 -1 827.56 801.58 9.82 o
3 1 -1 55.76 55.01 1.95 o
4 1 -1 194.94 191.03 5.08 o
5 1 -1 19.44 21.68 1.78 o
6 1 -1 77.07 79.74 3.69 o
7 1 -1 5.26 7.28 1.52 o
8 1 -1 60.88 57.88 4.42 o
9 1 -1 24.55 24.96 3.17 o
10 1 -1 62.87 61.34 5.21 o
11 1 -1 4.26 7.38 1.91 o
12 1 -1 19.05 19.64 3.17 o
13 1 -1 7.39 6.12 2.00 o
14 1 -1 5.68 2.54 1.88 o
1 2 -1 253.98 237.33 8.77 o
2 2 -1 12.15 13.39 1.60 o
3 2 -1 95.46 97.49 2.86 o
4 2 -1 106.21 106.63 2.84 o
5 2 -1 11.45 12.81 1.25 o
6 2 -1 216.75 225.42 5.40 o
7 2 -1 4.65 3.94 0.95 o
8 2 -1 27.08 28.80 3.25 o
9 2 -1 5.07 6.23 1.65 o
10 2 -1 22.51 22.22 3.15 o
11 2 -1 55.09 59.66 5.52 o
12 2 -1 4.64 6.06 2.02 o
13 2 -1 9.15 12.00 2.78 o
14 2 -1 3.75 1.65 1.77 o
0 3 -1 149.69 140.25 4.90 o
1 3 -1 80.28 82.69 3.08 o
2 3 -1 18.69 17.09 1.65 o
3 3 -1 14.05 13.49 1.73 o
4 3 -1 440.81 450.75 11.42 o
5 3 -1 4.65 4.76 0.94 o
6 3 -1 33.47 33.43 3.71 o
7 3 -1 2.36 3.97 1.23 o
8 3 -1 11.98 12.10 1.84 o
9 3 -1 8.41 8.93 2.07 o
10 3 -1 0.81 1.57 1.06 o
11 3 -1 6.65 7.17 1.95 o
12 3 -1 5.14 5.19 1.90 o
13 3 -1 5.12 7.10 2.51 o
14 3 -1 1.96 8.17 5.40 o
1 4 -1 50.65 50.38 2.70 o
2 4 -1 311.23 311.54 6.94 o
3 4 -1 2.07 1.35 1.20 o
4 4 -1 5.19 4.60 1.31 o
5 4 -1 18.67 19.68 2.93 o
6 4 -1 28.14 35.70 3.97 o
7 4 -1 65.33 67.48 5.71 o
8 4 -1 9.68 9.97 2.65 o
9 4 -1 8.25 8.99 2.69 o
10 4 -1 12.19 13.77 2.83 o
11 4 -1 7.01 6.46 2.47 o
12 4 -1 2.89 4.67 1.80 o
13 4 -1 2.79 1.19 1.60 o
0 5 -1 350.52 334.26 12.70 o
1 5 -1 4.86 4.75 0.82 o
2 5 -1 70.68 73.18 3.67 o
3 5 -1 16.53 17.70 2.59 o
4 5 -1 23.65 22.85 3.73 o
5 5 -1 43.42 40.02 4.20 o
6 5 -1 4.87 5.00 1.28 o
7 5 -1 20.47 26.50 3.76 o
8 5 -1 1.20 2.20 1.82 o
9 5 -1 12.02 12.82 2.87 o
10 5 -1 14.65 15.09 3.17 o
11 5 -1 0.87 0.28 1.15 o
12 5 -1 6.33 6.77 2.05 o
13 5 -1 1.31 4.46 2.58 o
1 6 -1 26.77 26.97 2.32 o
2 6 -1 6.77 5.87 1.18 o
3 6 -1 7.76 7.11 1.24 o
4 6 -1 43.27 47.77 7.19 o
5 6 -1 25.86 30.35 3.81 o
6 6 -1 163.72 168.02 9.60 o
7 6 -1 32.65 34.87 6.23 o
8 6 -1 19.87 22.68 3.87 o
9 6 -1 1.95 3.79 1.94 o
10 6 -1 7.97 10.42 3.02 o
11 6 -1 0.37 1.12 1.87 o
12 6 -1 3.16 3.14 1.22 o
0 7 -1 28.05 24.22 4.16 o
1 7 -1 3.63 2.62 1.28 o
2 7 -1 59.79 53.35 3.62 o
3 7 -1 5.06 4.61 1.42 o
4 7 -1 248.21 252.91 14.26 o
5 7 -1 3.77 2.40 0.96 o
6 7 -1 26.00 27.21 4.00 o
7 7 -1 8.94 5.31 2.07 o
8 7 -1 8.87 9.53 2.61 o
9 7 -1 0.78 1.31 1.47 o
10 7 -1 4.48 3.83 1.63 o
11 7 -1 0.05 1.03 1.62 o
1 8 -1 0.39 1.08 0.94 o
2 8 -1 2.37 1.82 1.01 o
3 8 -1 20.65 24.44 3.90 o
4 8 -1 32.46 30.21 4.36 o
5 8 -1 7.13 11.68 6.65 o
6 8 -1 79.45 94.55 7.96 o
7 8 -1 3.46 6.32 2.20 o
8 8 -1 8.51 6.85 2.57 o
9 8 -1 1.05 1.39 2.04 o
10 8 -1 8.57 12.46 3.44 o
0 9 -1 44.72 39.46 6.42 o
1 9 -1 0.74 -0.35 1.10 o
2 9 -1 12.58 13.11 2.54 o
3 9 -1 3.21 0.96 1.79 o
4 9 -1 17.38 19.69 3.72 o
5 9 -1 12.44 15.64 5.62 o
6 9 -1 7.85 4.82 1.82 o
7 9 -1 7.06 11.31 3.21 o
8 9 -1 6.94 7.15 3.84 o
9 9 -1 1.00 0.31 1.18 o
1 10 -1 3.33 3.08 0.92 o
2 10 -1 14.44 15.01 3.03 o
3 10 -1 0.63 0.36 1.38 o
4 10 -1 0.25 1.32 1.75 o
5 10 -1 7.16 4.10 2.30 o
6 10 -1 2.82 6.25 2.69 o
7 10 -1 1.97 3.03 1.27 o
0 11 -1 11.54 10.73 4.06 o
1 11 -1 3.24 4.22 1.17 o
2 11 -1 2.28 7.03 2.47 o
3 11 -1 1.64 0.50 1.64 o
4 11 -1 4.57 2.42 2.44 o
5 11 -1 0.34 0.91 2.56 o
2 0 0 119.55 140.81 4.69 o
4 0 0 315.09 330.80 14.48 o
6 0 0 28.39 29.18 3.73 o
8 0 0 130.28 131.03 15.08 o
10 0 0 123.71 125.35 10.23 o
12 0 0 57.36 57.44 7.91 o
14 0 0 3.43 5.70 2.88 o
2 1 0 2646.90 2842.70 45.30 o
3 1 0 35.40 42.76 1.65 o
4 1 0 3.33 5.53 1.64 o
5 1 0 0.01 -0.21 0.28 o
6 1 0 231.28 220.54 5.66 o
7 1 0 24.55 24.58 1.36 o
8 1 0 8.89 9.78 1.90 o
9 1 0 2.02 2.28 1.08 o
10 1 0 175.12 176.89 8.66 o
11 1 0 43.06 41.07 4.52 o
12 1 0 18.84 19.88 3.28 o
13 1 0 2.03 2.24 1.34 o
14 1 0 0.78 -0.15 1.04 o
0 2 0 1761.04 1635.97 19.06 o
1 2 0 29.82 30.68 1.25 o
2 2 0 14.41 14.26 0.93 o
3 2 0 0.37 0.34 0.26 o
4 2 0 1013.65 1010.62 19.82 o
5 2 0 26.99 27.86 2.88 o
6 2 0 85.04 100.24 6.02 o
7 2 0 2.13 2.40 1.28 o
8 2 0 0.21 0.46 0.92 o
9 2 0 65.39 62.80 5.04 o
10 2 0 25.94 26.09 3.42 o
11 2 0 0.22 0.43 1.33 o
12 2 0 3.95 1.46 1.03 o
13 2 0 14.03 10.34 2.49 o
14 2 0 3.51 7.27 2.29 o
1 3 0 8.68 15.09 1.50 o
2 3 0 486.24 474.36 7.62 o
3 3 0 6.92 5.39 0.91 o
4 3 0 38.23 37.48 3.29 o
5 3 0 12.22 13.82 2.26 o
6 3 0 369.28 452.27 19.94 o
7 3 0 5.73 8.83 2.26 o
8 3 0 6.39 3.94 1.26 o
9 3 0 14.70 14.18 2.41 o
10 3 0 0.07 0.67 1.18 o
11 3 0 50.59 46.25 4.98 o
12 3 0 0.14 0.25 1.20 o
13 3 0 2.60 1.77 1.22 o
14 3 0 4.43 6.25 1.95 o
0 4 0 1286.56 1184.17 21.13 o
1 4 0 8.85 11.17 1.57 o
2 4 0 0.30 0.77 0.27 o
3 4 0 1.64 1.63 0.68 o
4 4 0 123.38 113.70 6.16 o
5 4 0 63.45 63.51 5.32 o
6 4 0 13.88 12.44 2.49 o
7 4 0 1.25 0.74 1.06 o
8 4 0 16.72 22.15 3.54 o
9 4 0 0.03 -1.23 1.26 o
10 4 0 6.18 10.06 2.46 o
11 4 0 1.19 2.99 1.62 o
12 4 0 13.48 9.97 2.55 o
13 4 0 0.23 0.45 1.41 o
1 5 0 77.41 80.77 4.44 o
2 5 0 136.55 140.09 3.34 o
3 5 0 0.47 -0.05 0.33 o
4 5 0 0.11 1.29 1.10 o
5 5 0 21.36 20.01 2.97 o
6 5 0 54.19 53.28 5.01 o
7 5 0 79.32 79.85 6.51 o
8 5 0 2.57 0.31 2.29 o
9 5 0 6.98 3.50 1.13 o
10 5 0 20.92 21.93 3.90 o
11 5 0 0.00 -1.07 1.26 o
12 5 0 6.08 6.89 2.08 o
13 5 0 0.13 1.34 1.40 o
0 6 0 233.12 237.02 13.40 o
1 6 0 0.24 0.93 1.57 o
2 6 0 0.31 0.72 1.06 o
3 6 0 1.67 1.07 0.87 o
4 6 0 348.10 330.52 15.36 o
5 6 0 8.88 6.56 2.63 o
6 6 0 21.06 20.65 3.37 o
7 6 0 8.23 7.70 2.20 o
8 6 0 12.49 12.84 3.00 o
9 6 0 7.61 9.85 2.68 o
10 6 0 12.49 10.24 2.77 o
11 6 0 0.47 -1.65 1.65 o
12 6 0 5.45 5.18 1.58 o
1 7 0 1.36 1.90 1.20 o
2 7 0 11.95 10.29 1.93 o
3 7 0 30.56 33.12 3.47 o
4 7 0 20.50 18.20 3.18 o
5 7 0 29.47 34.24 5.47 o
6 7 0 319.31 334.56 14.22 o
7 7 0 1.03 4.68 2.20 o
8 7 0 2.11 1.48 1.60 o
9 7 0 0.42 1.86 1.57 o
10 7 0 13.53 14.79 3.50 o
11 7 0 0.00 -0.42 1.90 o
0 8 0 49.96 47.48 6.16 o
1 8 0 3.80 3.88 1.30 o
2 8 0 0.32 1.32 1.09 o
3 8 0 0.26 0.16 0.95 o
4 8 0 194.75 202.66 11.12 o
5 8 0 23.89 24.91 4.93 o
6 8 0 34.96 33.84 4.65 o
7 8 0 6.43 4.82 3.18 o
8 8 0 0.65 1.72 1.99 o
9 8 0 0.41 -0.25 1.84 o
10 8 0 3.57 2.20 2.45 o
1 9 0 3.76 5.14 1.79 o
2 9 0 7.12 7.29 2.01 o
3 9 0 8.09 14.14 2.80 o
4 9 0 4.07 1.50 1.87 o
5 9 0 0.30 -0.55 1.28 o
6 9 0 18.18 13.79 4.42 o
7 9 0 6.61 6.75 2.14 o
8 9 0 0.25 -1.12 1.12 o
9 9 0 0.00 2.66 4.34 o
0 10 0 60.08 52.27 7.52 o
1 10 0 2.58 1.91 1.08 o
2 10 0 2.48 0.32 1.03 o
3 10 0 8.67 7.81 2.16 o
4 10 0 0.22 -0.66 2.01 o
5 10 0 2.59 -2.10 2.10 o
6 10 0 0.60 -0.68 1.94 o
7 10 0 1.30 4.03 1.53 o
1 11 0 1.67 1.53 1.46 o
2 11 0 10.82 11.98 2.78 o
3 11 0 2.80 2.29 1.11 o
4 11 0 1.81 1.83 2.12 o
5 11 0 5.64 1.94 2.22 o
2 0 1 2384.20 2381.64 12.64 o
4 0 1 115.57 107.80 4.22 o
6 0 1 64.39 62.98 5.57 o
8 0 1 122.37 122.11 9.11 o
10 0 1 160.92 174.00 12.19 o
12 0 1 16.06 18.18 4.51 o
14 0 1 1.27 -0.20 1.74 o
0 1 1 5710.42 5736.40 60.48 o
1 1 1 158.73 162.70 2.57 o
2 1 1 828.04 786.67 7.36 o
3 1 1 55.84 56.12 1.43 o
4 1 1 194.91 194.68 2.83 o
5 1 1 19.43 18.77 1.41 o
6 1 1 77.16 77.48 3.01 o
7 1 1 5.28 5.26 1.02 o
8 1 1 60.91 58.55 3.70 o
9 1 1 24.54 25.16 3.14 o
10 1 1 62.83 63.80 5.26 o
11 1 1 4.26 2.93 1.34 o
12 1 1 19.05 23.07 3.55 o
13 1 1 7.38 8.51 2.28 o
14 1 1 5.67 5.11 2.07 o
1 2 1 253.97 235.42 2.86 o
2 2 1 12.16 13.92 0.99 o
3 2 1 95.48 90.02 2.32 o
4 2 1 106.25 106.86 3.14 o
5 2 1 11.48 12.64 1.16 o
6 2 1 216.70 239.67 5.36 o
7 2 1 4.65 5.72 1.17 o
8 2 1 27.10 29.59 2.57 o
9 2 1 5.07 4.72 1.47 o
10 2 1 22.51 24.33 3.33 o
11 2 1 55.07 49.89 4.98 o
12 2 1 4.65 3.33 1.33 o
13 2 1 9.16 8.95 2.30 o
14 2 1 3.75 4.42 1.64 o
0 3 1 149.63 154.87 6.60 o
1 3 1 80.27 77.67 2.36 o
2 3 1 18.71 16.69 1.43 o
3 3 1 14.06 12.23 0.92 o
4 3 1 440.72 442.73 5.09 o
5 3 1 4.65 5.65 0.80 o
6 3 1 33.45 33.19 2.18 o
7 3 1 2.35 2.47 0.71 o
8 3 1 11.97 12.71 1.64 o
9 3 1 8.41 12.20 2.37 o
10 3 1 0.82 2.30 1.44 o
11 3 1 6.64 7.48 2.05 o
12 3 1 5.15 2.89 1.38 o
13 3 1 5.11 4.70 1.54 o
14 3 1 1.96 7.57 4.70 o
1 4 1 50.59 52.47 2.62 o
2 4 1 311.19 305.93 6.59 o
3 4 1 2.07 2.84 0.86 o
4 4 1 5.19 5.07 1.57 o
5 4 1 18.64 19.52 1.84 o
6 4 1 28.12 32.52 2.51 o
7 4 1 65.33 65.14 5.60 o
8 4 1 9.68 9.06 2.30 o
9 4 1 8.25 8.04 2.07 o
10 4 1 12.18 12.09 2.50 o
11 4 1 7.01 5.90 2.62 o
12 4 1 2.89 0.60 1.39 o
13 4 1 2.79 0.82 1.35 o
0 5 1 350.46 347.21 12.91 o
1 5 1 4.87 3.58 0.79 o
2 5 1 70.73 74.68 3.53 o
3 5 1 16.56 15.46 1.64 o
4 5 1 23.64 22.19 2.01 o
5 5 1 43.43 44.54 2.37 o
6 5 1 4.87 3.51 1.03 o
7 5 1 20.47 23.30 3.64 o
8 5 1 1.20 1.17 0.80 o
9 5 1 12.02 10.21 2.42 o
10 5 1 14.65 12.55 2.86 o
11 5 1 0.86 2.38 1.50 o
12 5 1 6.33 5.97 2.00 o
13 5 1 1.31 1.09 1.89 o
1 6 1 26.81 28.65 2.98 o
2 6 1 6.79 4.53 1.15 o
3 6 1 7.76 6.18 1.04 o
4 6 1 43.29 43.50 3.01 o
5 6 1 25.84 27.37 3.32 o
6 6 1 163.68 183.46 10.01 o
7 6 1 32.65 41.49 4.98 o
8 6 1 19.88 20.57 3.63 o
9 6 1 1.96 -0.59 1.82 o
10 6 1 7.97 9.72 3.01 o
11 6 1 0.37 1.22 1.16 o
12 6 1 3.17 2.60 1.37 o
0 7 1 28.05 29.51 4.53 o
1 7 1 3.63 2.83 2.07 o
2 7 1 59.86 54.97 3.63 o
3 7 1 5.06 5.73 1.18 o
4 7 1 248.14 232.48 13.72 o
5 7 1 3.77 6.50 2.44 o
6 7 1 25.99 25.08 3.84 o
7 7 1 8.93 5.22 2.62 o
8 7 1 8.87 8.52 2.49 o
9 7 1 0.78 0.77 1.99 o
10 7 1 4.47 3.49 1.46 o
11 7 1 0.05 -0.81 1.69 o
1 8 1 0.38 0.71 1.81 o
2 8 1 2.37 3.35 1.11 o
3 8 1 20.65 22.82 3.18 o
4 8 1 32.47 29.38 5.40 o
5 8 1 7.14 4.37 2.39 o
6 8 1 79.42 81.67 7.40 o
7 8 1 3.46 0.19 1.36 o
8 8 1 8.52 8.67 2.71 o
9 8 1 1.05 0.48 1.95 o
10 8 1 8.57 9.11 3.09 o
0 9 1 44.72 48.57 6.93 o
1 9 1 0.75 -0.94 1.13 o
2 9 1 12.60 14.69 2.58 o
3 9 1 3.22 2.72 1.46 o
4 9 1 17.37 13.72 3.55 o
5 9 1 12.44 19.13 4.65 o
6 9 1 7.85 10.61 2.83 o
7 9 1 7.07 7.96 2.53 o
8 9 1 6.95 8.37 2.43 o
9 9 1 1.00 0.31 1.83 o
1 10 1 3.33 2.89 1.25 o
2 10 1 14.43 16.40 3.09 o
3 10 1 0.62 2.00 1.25 o
4 10 1 0.26 2.03 1.86 o
5 10 1 7.15 7.50 3.45 o
6 10 1 2.82 -0.12 1.50 o
7 10 1 1.97 5.37 2.93 o
0 11 1 11.53 9.09 3.54 o
1 11 1 3.24 6.74 1.95 o
2 11 1 2.28 3.55 1.51 o
3 11 1 1.64 0.75 1.64 o
4 11 1 4.57 5.75 2.72 o
5 11 1 0.33 -3.95 4.28 o
0 0 2 622.40 604.14 20.67 o
2 0 2 543.53 508.36 6.42 o
4 0 2 3.01 3.31 0.55 o
6 0 2 76.75 78.61 4.60 o
8 0 2 65.01 58.75 4.99 o
10 0 2 37.34 33.52 4.07 o
12 0 2 3.49 6.68 3.64 o
1 1 2 99.57 90.26 2.89 o
2 1 2 107.83 100.36 2.09 o
3 1 2 55.70 54.11 1.56 o
4 1 2 103.23 111.95 2.28 o
5 1 2 19.01 20.19 1.30 o
6 1 2 11.12 13.79 1.24 o
7 1 2 0.52 0.67 0.59 o
8 1 2 105.80 115.00 4.54 o
9 1 2 2.72 3.21 1.42 o
10 1 2 20.44 19.87 2.88 o
11 1 2 8.06 9.03 3.24 o
12 1 2 3.45 6.76 3.01 o
13 1 2 4.28 2.15 2.24 o
0 2 2 34.08 39.36 3.97 o
1 2 2 137.17 143.58 3.09 o
2 2 2 194.34 195.05 5.96 o
3 2 2 98.02 104.05 3.56 o
4 2 2 59.42 60.88 2.01 o
5 2 2 4.79 6.59 0.83 o
6 2 2 14.75 18.46 1.57 o
7 2 2 2.77 3.96 0.84 o
8 2 2 5.94 6.94 1.22 o
9 2 2 4.16 2.35 1.35 o
10 2 2 4.07 3.13 1.71 o
11 2 2 11.17 12.91 3.06 o
12 2 2 4.11 3.51 5.96 o
13 2 2 8.52 6.59 3.10 o
1 3 2 57.91 64.19 1.98 o
2 3 2 63.54 61.94 2.68 o
3 3 2 56.30 57.78 2.17 o
4 3 2 21.47 21.26 1.53 o
5 3 2 0.73 0.40 0.69 o
6 3 2 25.92 25.16 1.90 o
7 3 2 15.19 15.24 1.53 o
8 3 2 1.75 2.62 0.81 o
9 3 2 0.02 -0.61 1.13 o
10 3 2 2.14 3.17 1.53 o
11 3 2 10.32 7.65 2.58 o
12 3 2 3.03 6.93 3.25 o
13 3 2 8.47 5.72 2.03 o
0 4 2 61.90 74.92 3.65 o
1 4 2 5.91 5.98 0.65 o
2 4 2 8.75 8.46 1.06 o
3 4 2 22.42 22.30 2.29 o
4 4 2 30.90 29.74 2.36 o
5 4 2 13.16 11.48 1.30 o
6 4 2 5.83 7.71 1.25 o
7 4 2 17.32 19.93 2.01 o
8 4 2 3.93 2.91 1.19 o
9 4 2 7.83 8.07 1.85 o
10 4 2 8.74 8.77 2.27 o
11 4 2 1.33 2.98 1.87 o
12 4 2 2.27 4.22 2.66 o
13 4 2 1.34 -1.39 3.41 o
1 5 2 29.47 36.09 2.71 o
2 5 2 12.91 14.42 1.82 o
3 5 2 10.99 11.35 1.67 o
4 5 2 21.60 20.32 2.47 o
5 5 2 19.32 19.99 2.09 o
6 5 2 3.85 2.27 0.98 o
7 5 2 50.18 55.71 4.13 o
8 5 2 26.56 29.10 4.99 o
9 5 2 8.80 6.67 2.62 o
10 5 2 2.04 3.51 1.58 o
11 5 2 0.21 0.45 1.02 o
12 5 2 0.36 1.78 1.57 o
0 6 2 8.85 8.15 4.35 o
1 6 2 6.87 9.23 1.58 o
2 6 2 91.93 103.42 4.94 o
3 6 2 18.67 16.48 3.91 o
4 6 2 43.19 45.28 7.19 o
5 6 2 3.52 3.98 1.11 o
6 6 2 5.31 5.50 1.11 o
7 6 2 12.20 13.88 2.68 o
8 6 2 2.66 4.07 3.77 o
9 6 2 6.98 6.28 2.41 o
10 6 2 5.32 4.90 2.03 o
11 6 2 0.41 -0.53 2.86 o
1 7 2 6.76 6.16 1.92 o
2 7 2 12.57 12.85 3.36 o
3 7 2 7.75 4.95 2.79 o
4 7 2 52.05 56.12 4.75 o
5 7 2 2.41 2.41 0.86 o
6 7 2 26.10 28.60 3.83 o
7 7 2 1.33 1.15 1.13 o
8 7 2 17.26 15.59 6.67 o
9 7 2 0.34 -1.11 1.11 o
10 7 2 0.54 0.33 3.34 o
11 7 2 0.44 -1.51 2.61 o
0 8 2 3.05 1.38 1.39 o
1 8 2 1.44 -0.28 1.26 o
2 8 2 47.93 53.50 5.65 o
3 8 2 0.50 -0.32 0.92 o
4 8 2 21.65 21.41 6.36 o
5 8 2 6.78 7.85 3.90 o
6 8 2 4.70 7.42 3.90 o
7 8 2 6.03 8.02 3.00 o
8 8 2 3.66 4.25 2.21 o
9 8 2 0.96 3.28 2.28 o
1 9 2 0.99 0.91 1.27 o
2 9 2 1.96 4.73 2.32 o
3 9 2 4.38 5.58 3.04 o
4 9 2 7.14 7.70 3.72 o
5 9 2 9.72 13.91 5.19 o
6 9 2 3.04 2.46 1.90 o
7 9 2 3.91 2.67 2.79 o
8 9 2 3.20 3.52 1.64 o
0 10 2 11.04 10.56 4.61 o
1 10 2 2.09 1.28 1.62 o
2 10 2 2.75 3.36 2.15 o
3 10 2 1.67 1.15 2.24 o
4 10 2 0.81 -2.29 2.29 o
5 10 2 1.21 3.90 4.12 o
6 10 2 1.80 2.35 2.06 o
1 11 2 0.17 1.30 1.66 o
2 11 2 2.31 3.72 1.99 o
2 0 3 2.32 1.24 0.76 o
4 0 3 26.94 29.06 2.64 o
6 0 3 11.51 12.27 2.27 o
8 0 3 54.38 58.39 5.76 o
10 0 3 2.80 3.44 3.01 o
0 1 3 0.07 0.00 0.91 o
1 1 3 15.65 15.82 1.64 o
2 1 3 75.62 76.94 3.10 o
3 1 3 27.26 25.29 1.64 o
4 1 3 2.16 2.44 0.71 o
5 1 3 3.27 3.17 0.91 o
6 1 3 15.01 17.73 1.97 o
7 1 3 2.76 1.17 1.44 o
8 1 3 12.08 14.48 2.02 o
9 1 3 0.58 4.05 1.40 o
10 1 3 4.94 2.31 1.04 o
11 1 3 1.61 -2.48 2.48 o
1 2 3 27.85 32.27 2.28 o
2 2 3 2.87 2.72 0.48 o
3 2 3 38.44 40.65 2.26 o
4 2 3 15.85 17.42 1.62 o
5 2 3 18.82 22.84 2.23 o
6 2 3 0.30 0.46 0.85 o
7 2 3 3.06 3.97 1.83 o
8 2 3 9.62 11.00 2.17 o
9 2 3 1.60 1.61 1.38 o
10 2 3 0.11 1.03 2.67 o
0 3 3 3.40 3.65 1.34 o
1 3 3 13.20 14.86 1.39 o
2 3 3 8.29 10.16 1.39 o
3 3 3 29.72 33.67 2.50 o
4 3 3 6.25 5.52 1.47 o
5 3 3 0.83 1.30 1.45 o
6 3 3 0.22 0.64 1.29 o
7 3 3 1.10 1.17 1.15 o
8 3 3 0.25 -0.24 0.63 o
9 3 3 4.43 5.32 2.16 o
10 3 3 1.27 -0.68 1.95 o
1 4 3 7.31 9.34 1.27 o
2 4 3 2.53 3.02 1.11 o
3 4 3 17.76 21.34 3.73 o
4 4 3 0.26 -1.44 2.74 o
5 4 3 1.26 1.22 0.85 o
6 4 3 1.63 2.29 1.32 o
7 4 3 16.67 16.53 2.57 o
8 4 3 6.47 3.31 2.62 o
9 4 3 5.56 5.57 3.00 o
0 5 3 4.20 7.29 2.01 o
1 5 3 13.05 15.63 2.41 o
2 5 3 15.81 19.67 2.89 o
3 5 3 13.27 9.09 3.70 o
4 5 3 0.84 1.70 1.92 o
5 5 3 2.39 2.61 1.43 o
6 5 3 2.14 1.89 1.14 o
7 5 3 8.49 8.93 2.21 o
8 5 3 0.88 1.21 1.29 o
9 5 3 7.37 10.55 4.34 o
1 6 3 12.84 20.62 5.05 o
2 6 3 7.31 6.71 2.93 o
3 6 3 4.66 1.49 1.07 o
4 6 3 16.62 11.82 2.58 o
5 6 3 2.05 1.69 0.99 o
6 6 3 0.01 -0.95 1.08 o
7 6 3 6.37 2.97 3.79 o
8 6 3 9.16 12.14 3.94 o
1 7 3 1.10 6.02 3.86 o
2 7 3 30.23 40.74 7.25 o
3 7 3 1.08 -0.85 1.99 o
4 7 3 1.89 2.00 1.79 o
5 7 3 0.41 -0.83 2.98 o
6 7 3 0.44 0.83 1.29 o
7 7 3 0.08 2.17 2.11 o
8 7 3 0.54 3.17 2.79 o
2 8 3 0.86 -2.84 2.89 o
3 8 3 2.53 2.70 7.38 o
4 8 3 9.25 4.20 6.59 o
5 8 3 2.80 1.82 2.66 o
6 8 3 1.02 -0.84 1.61 o
7 8 3 0.64 2.14 2.24 o
2 9 3 5.39 0.45 1.72 o
0 0 4 9.87 10.38 2.76 o
2 0 4 6.26 4.63 1.21 o
4 0 4 1.47 2.53 0.90 o
6 0 4 4.07 6.48 1.93 o
1 1 4 1.75 1.57 0.76 o
2 1 4 1.97 1.33 0.63 o
3 1 4 3.19 0.33 1.13 o
4 1 4 1.29 1.12 1.29 o
5 1 4 4.87 6.36 1.15 o
6 1 4 4.03 1.92 1.49 o
7 1 4 0.77 -0.03 0.81 o
0 2 4 3.03 2.06 0.90 o
1 2 4 2.10 1.25 0.59 o
2 2 4 3.23 1.38 0.67 o
3 2 4 12.16 12.76 1.37 o
4 2 4 0.77 0.48 0.86 o
5 2 4 2.68 1.73 1.09 o
6 2 4 0.58 0.78 1.02 o
7 2 4 2.24 4.32 1.73 o
1 3 4 0.94 0.77 0.81 o
2 3 4 0.14 1.32 0.92 o
3 3 4 6.97 7.55 1.48 o
4 3 4 0.45 2.19 1.17 o
5 3 4 6.81 7.25 2.30 o
6 3 4 0.44 -1.29 1.29 o
7 3 4 2.74 3.61 2.23 o
0 4 4 1.27 3.72 1.42 o
1 4 4 6.39 9.24 1.62 o
2 4 4 0.05 1.33 0.92 o
3 4 4 3.39 2.65 1.16 o
4 4 4 0.16 -0.40 1.41 o
5 4 4 0.23 1.35 1.87 o
6 4 4 0.44 -0.26 1.31 o
1 5 4 6.70 11.22 3.69 o
2 5 4 1.75 4.68 1.36 o
3 5 4 3.82 4.78 2.41 o
4 5 4 0.65 0.78 1.86 o
5 5 4 0.22 2.07 4.26 o
6 5 4 1.04 -0.14 1.14 o
0 6 4 5.88 10.64 4.43 o
1 6 4 3.93 7.25 8.06 o
2 6 4 3.30 1.35 2.57 o
4 6 4 0.73 -2.33 2.33 o
