#------------------------------------------------------------------------------
#$Date: 2019-11-22 19:03:52 +0200 (Fri, 22 Nov 2019) $
#$Revision: 231268 $
#$URL: file:///home/coder/svn-repositories/cod/cif/4/51/63/4516354.cif $
#------------------------------------------------------------------------------
#
# This file is available in the Crystallography Open Database (COD),
# http://www.crystallography.net/
#
# All data on this site have been placed in the public domain by the
# contributors.
#
data_4516354
loop_
_publ_author_name
'Patyk, Ewa'
'Podsiad\/lo, Marcin'
'Katrusiak, Andrzej'
_publ_section_title
;
 CH&#x00B7;&#x00B7;&#x00B7;N Bonds and Dynamics in Isostructural
 Pyrimidine Polymorphs
;
_journal_issue                   8
_journal_name_full               'Crystal Growth &amp; Design'
_journal_page_first              4039
_journal_paper_doi               10.1021/acs.cgd.5b00657
_journal_volume                  15
_journal_year                    2015
_chemical_formula_moiety         'C4 H4 N2'
_chemical_formula_sum            'C4 H4 N2'
_chemical_formula_weight         80.09
_chemical_melting_point          293.15
_chemical_name_common            pyrimidine
_chemical_name_systematic
; 
pyrimidine phase I
;
_space_group_IT_number           33
_space_group_name_Hall           'P 2c -2n'
_space_group_name_H-M_alt        'P n a 21'
_symmetry_cell_setting           orthorhombic
_symmetry_space_group_name_Hall  'P 2c -2n'
_symmetry_space_group_name_H-M   'P n a 21'
_atom_sites_solution_hydrogens   geom
_atom_sites_solution_primary     direct
_atom_sites_solution_secondary   difmap
_audit_creation_method           SHELXL-97
_cell_angle_alpha                90.00
_cell_angle_beta                 90.00
_cell_angle_gamma                90.00
_cell_formula_units_Z            4
_cell_length_a                   11.673(5)
_cell_length_b                   9.484(4)
_cell_length_c                   3.7782(11)
_cell_measurement_reflns_used    3033
_cell_measurement_temperature    232.5(1)
_cell_measurement_theta_max      28.33
_cell_measurement_theta_min      3.49
_cell_volume                     418.3(3)
_computing_cell_refinement       'CrysAlisRED (Oxford Diffraction, 2004)'
_computing_data_collection       'CrysAlisCCD (Oxford Diffraction, 2004)'
_computing_data_reduction        'CrysAlisRED (Oxford Diffraction, 2004)'
_computing_molecular_graphics    'SHELXTL (Sheldrick, 1990)'
_computing_publication_material  'SHELXL--97 (Sheldrick, 1997)'
_computing_structure_refinement  'SHELXL--97 (Sheldrick, 1997)'
_computing_structure_solution    'SHELXS--97 (Sheldrick, 1997)'
_diffrn_ambient_pressure         100
_diffrn_ambient_temperature      232.5(1)
_diffrn_measured_fraction_theta_full 0.889
_diffrn_measured_fraction_theta_max 0.889
_diffrn_measurement_device_type  'KM-4 CCD'
_diffrn_measurement_method       \w-scans
_diffrn_radiation_monochromator  graphite
_diffrn_radiation_source         'fine-focus sealed tube'
_diffrn_radiation_type           MoK\a
_diffrn_radiation_wavelength     0.71073
_diffrn_reflns_av_R_equivalents  0.0735
_diffrn_reflns_av_sigmaI/netI    0.0689
_diffrn_reflns_limit_h_max       14
_diffrn_reflns_limit_h_min       -14
_diffrn_reflns_limit_k_max       11
_diffrn_reflns_limit_k_min       -11
_diffrn_reflns_limit_l_max       4
_diffrn_reflns_limit_l_min       -4
_diffrn_reflns_number            3033
_diffrn_reflns_theta_full        28.33
_diffrn_reflns_theta_max         28.33
_diffrn_reflns_theta_min         3.49
_diffrn_standards_decay_%        0
_diffrn_standards_interval_count 0
_diffrn_standards_number         0
_exptl_absorpt_coefficient_mu    0.084
_exptl_absorpt_correction_T_max  0.983
_exptl_absorpt_correction_T_min  0.983
_exptl_absorpt_correction_type   numerical
_exptl_absorpt_process_details
; 
 Correction for absorption was made using XEMP (SHELXTL, 
 Sheldrick (1990)).
;
_exptl_crystal_colour            colourless
_exptl_crystal_density_diffrn    1.272
_exptl_crystal_density_method    'not measured'
_exptl_crystal_description       irregular
_exptl_crystal_F_000             168
_exptl_crystal_size_max          0.20
_exptl_crystal_size_mid          0.20
_exptl_crystal_size_min          0.20
_refine_diff_density_max         0.158
_refine_diff_density_min         -0.144
_refine_diff_density_rms         0.039
_refine_ls_abs_structure_details 'Flack H D (1983), Acta Cryst. A39, 876-881'
_refine_ls_abs_structure_Flack   -1(10)
_refine_ls_extinction_coef       0.059(10)
_refine_ls_extinction_expression Fc^*^=kFc[1+0.001xFc^2^\l^3^/sin(2\q)]^-1/4^
_refine_ls_extinction_method     SHELXL
_refine_ls_goodness_of_fit_ref   1.093
_refine_ls_hydrogen_treatment    constr
_refine_ls_matrix_type           full
_refine_ls_number_parameters     56
_refine_ls_number_reflns         881
_refine_ls_number_restraints     1
_refine_ls_restrained_S_all      1.093
_refine_ls_R_factor_all          0.1304
_refine_ls_R_factor_gt           0.0638
_refine_ls_shift/su_max          0.000
_refine_ls_shift/su_mean         0.000
_refine_ls_structure_factor_coef Fsqd
_refine_ls_weighting_details
'calc w=1/[\s^2^(Fo^2^)+(0.0391P)^2^+0.0777P] where P=(Fo^2^+2Fc^2^)/3'
_refine_ls_weighting_scheme      calc
_refine_ls_wR_factor_gt          0.1206
_refine_ls_wR_factor_ref         0.1655
_reflns_number_gt                480
_reflns_number_total             881
_reflns_threshold_expression     >2sigma(I)
_cod_data_source_file            cg5b00657_si_002.cif
_cod_data_source_block           phaseI_232.5K
_cod_database_code               4516354
loop_
_symmetry_equiv_pos_as_xyz
'x, y, z'
'-x, -y, z+1/2'
'x+1/2, -y+1/2, z'
'-x+1/2, y+1/2, z+1/2'
loop_
_atom_site_label
_atom_site_type_symbol
_atom_site_fract_x
_atom_site_fract_y
_atom_site_fract_z
_atom_site_U_iso_or_equiv
_atom_site_adp_type
_atom_site_occupancy
_atom_site_symmetry_multiplicity
_atom_site_calc_flag
_atom_site_refinement_flags
N1 N 0.1274(3) 0.3965(3) 0.0236(13) 0.0630(12) Uani 1 1 d .
N3 N 0.0119(3) 0.1903(4) 0.0161(11) 0.0658(13) Uani 1 1 d .
C2 C 0.0306(3) 0.3263(4) 0.0736(17) 0.0580(14) Uani 1 1 d .
H2 H -0.0311 0.3782 0.1587 0.070 Uiso 1 1 calc R
C4 C 0.1018(4) 0.1193(4) -0.1031(15) 0.0667(16) Uani 1 1 d .
H4 H 0.0934 0.0235 -0.1480 0.080 Uiso 1 1 calc R
C5 C 0.2064(4) 0.1802(5) -0.1635(13) 0.0609(15) Uani 1 1 d .
H5 H 0.2683 0.1284 -0.2479 0.073 Uiso 1 1 calc R
C6 C 0.2149(4) 0.3197(5) -0.0938(11) 0.0644(17) Uani 1 1 d .
H6 H 0.2851 0.3639 -0.1296 0.077 Uiso 1 1 calc R
loop_
_atom_site_aniso_label
_atom_site_aniso_U_11
_atom_site_aniso_U_22
_atom_site_aniso_U_33
_atom_site_aniso_U_23
_atom_site_aniso_U_13
_atom_site_aniso_U_12
N1 0.055(2) 0.049(2) 0.086(3) -0.007(2) -0.005(2) 0.0015(18)
N3 0.050(2) 0.051(2) 0.096(4) -0.001(3) 0.000(2) -0.0019(17)
C2 0.048(2) 0.049(2) 0.077(4) -0.004(3) -0.003(3) 0.008(2)
C4 0.068(3) 0.044(3) 0.088(4) -0.008(2) -0.011(3) 0.000(2)
C5 0.049(3) 0.061(3) 0.073(4) -0.011(3) -0.002(2) 0.005(2)
C6 0.050(2) 0.072(3) 0.071(4) -0.005(3) -0.001(2) -0.011(2)
loop_
_atom_type_symbol
_atom_type_description
_atom_type_scat_dispersion_real
_atom_type_scat_dispersion_imag
_atom_type_scat_source
C C 0.0033 0.0016 'International Tables Vol C Tables 4.2.6.8 and 6.1.1.4'
H H 0.0000 0.0000 'International Tables Vol C Tables 4.2.6.8 and 6.1.1.4'
N N 0.0061 0.0033 'International Tables Vol C Tables 4.2.6.8 and 6.1.1.4'
loop_
_geom_angle_atom_site_label_1
_geom_angle_atom_site_label_2
_geom_angle_atom_site_label_3
_geom_angle
C2 N1 C6 115.3(4)
C4 N3 C2 114.7(4)
N1 C2 N3 127.3(4)
N3 C4 C5 123.3(4)
C6 C5 C4 116.4(4)
N1 C6 C5 123.0(4)
loop_
_geom_bond_atom_site_label_1
_geom_bond_atom_site_label_2
_geom_bond_distance
N1 C2 1.325(5)
N1 C6 1.330(5)
N3 C4 1.326(5)
N3 C2 1.326(5)
C4 C5 1.370(5)
C5 C6 1.352(6)
loop_
_refln_index_h
_refln_index_k
_refln_index_l
_refln_F_squared_calc
_refln_F_squared_meas
_refln_F_squared_sigma
_refln_observed_status
5 1 -4 2.29 -2.32 2.52 o
6 1 -4 1.64 -1.20 1.20 o
7 1 -4 0.34 1.58 0.81 o
4 2 -4 0.35 -2.29 2.29 o
5 2 -4 1.23 1.72 2.89 o
6 2 -4 0.31 -0.50 3.21 o
7 2 -4 0.79 2.16 2.72 o
8 2 -4 0.07 4.61 4.53 o
3 3 -4 3.36 1.15 1.49 o
4 3 -4 0.20 3.67 4.14 o
5 3 -4 3.20 11.48 6.09 o
6 3 -4 0.18 2.06 2.10 o
7 3 -4 1.17 4.76 4.16 o
2 4 -4 0.02 0.75 1.76 o
3 4 -4 1.59 -1.06 2.59 o
4 4 -4 0.07 4.43 4.05 o
5 4 -4 0.10 -3.42 3.42 o
6 4 -4 0.16 -1.59 2.34 o
2 5 -4 0.67 0.50 2.83 o
3 5 -4 1.78 2.94 3.01 o
4 5 -4 0.30 -1.80 2.84 o
0 6 -4 2.39 1.44 2.92 o
1 6 -4 1.71 2.50 3.10 o
2 6 -4 1.45 1.49 2.10 o
3 6 -4 0.49 2.00 3.38 o
3 7 -4 0.02 -3.19 3.19 o
4 7 -4 0.74 -4.40 4.40 o
4 0 -3 19.44 25.11 5.81 o
6 0 -3 6.05 10.82 4.10 o
2 1 -3 53.80 57.11 9.27 o
3 1 -3 17.96 23.28 5.96 o
4 1 -3 1.26 1.19 1.36 o
5 1 -3 2.23 4.18 1.90 o
6 1 -3 9.43 11.29 2.91 o
7 1 -3 1.33 0.71 0.66 o
8 1 -3 6.53 5.33 3.53 o
9 1 -3 0.40 0.85 2.18 o
1 2 -3 19.20 19.34 5.79 o
2 2 -3 1.67 1.53 2.89 o
3 2 -3 25.28 24.69 6.29 o
4 2 -3 10.58 7.97 3.15 o
5 2 -3 11.48 10.63 3.71 o
6 2 -3 0.10 -0.48 1.77 o
7 2 -3 1.86 4.63 3.54 o
8 2 -3 6.09 6.84 3.88 o
9 2 -3 0.63 0.87 0.74 o
10 2 -3 0.04 0.03 1.22 o
0 3 -3 2.18 2.75 3.55 o
1 3 -3 8.47 13.85 2.77 o
2 3 -3 5.60 3.81 2.01 o
3 3 -3 19.63 19.67 4.12 o
4 3 -3 4.14 4.10 1.92 o
5 3 -3 0.52 1.71 2.63 o
6 3 -3 0.13 0.08 1.28 o
7 3 -3 0.39 2.73 1.62 o
8 3 -3 0.12 0.03 1.58 o
9 3 -3 2.50 3.25 2.45 o
10 3 -3 0.59 2.34 2.45 o
11 3 -3 0.64 2.53 2.92 o
1 4 -3 4.03 2.20 1.44 o
2 4 -3 1.74 2.08 0.47 o
3 4 -3 11.07 10.30 2.59 o
4 4 -3 0.22 -0.29 1.14 o
5 4 -3 0.76 0.72 1.36 o
6 4 -3 0.85 1.62 1.33 o
7 4 -3 9.84 1.61 6.42 o
8 4 -3 3.17 5.23 3.16 o
9 4 -3 2.91 2.18 2.39 o
10 4 -3 0.51 0.96 0.64 o
0 5 -3 1.47 2.68 2.12 o
1 5 -3 7.75 6.60 2.26 o
2 5 -3 9.47 5.25 1.65 o
3 5 -3 6.84 7.47 2.13 o
4 5 -3 0.59 0.47 0.67 o
5 5 -3 1.61 1.38 1.45 o
6 5 -3 1.19 0.03 1.93 o
7 5 -3 4.85 0.94 2.77 o
8 5 -3 0.49 -0.45 1.30 o
9 5 -3 4.15 -0.71 1.79 o
1 6 -3 7.21 4.47 1.17 o
2 6 -3 3.71 1.23 1.02 o
3 6 -3 2.59 3.49 1.60 o
4 6 -3 8.98 5.49 2.29 o
5 6 -3 1.13 1.50 1.57 o
6 6 -3 0.05 0.23 0.92 o
7 6 -3 3.56 1.75 2.15 o
8 6 -3 4.95 2.71 3.25 o
0 7 -3 2.57 1.40 1.11 o
1 7 -3 0.75 0.58 0.60 o
2 7 -3 16.54 -0.33 1.55 o
3 7 -3 0.67 1.27 0.91 o
4 7 -3 1.44 -0.48 1.01 o
5 7 -3 0.30 1.38 2.01 o
6 7 -3 0.38 0.20 4.40 o
7 7 -3 0.05 -1.48 2.21 o
8 7 -3 0.21 0.98 2.06 o
1 8 -3 0.05 0.96 1.00 o
2 8 -3 0.44 2.14 1.08 o
3 8 -3 1.60 1.14 1.18 o
4 8 -3 4.55 1.45 1.21 o
5 8 -3 1.29 1.79 0.93 o
6 8 -3 0.26 -0.66 1.97 o
0 9 -3 1.21 -0.07 4.67 o
1 9 -3 0.84 -1.52 1.59 o
2 9 -3 2.74 0.84 1.37 o
3 9 -3 0.85 1.90 3.32 o
4 9 -3 0.11 -1.19 2.59 o
2 0 -2 467.71 458.43 8.38 o
4 0 -2 2.09 1.97 0.33 o
6 0 -2 56.88 61.69 5.03 o
8 0 -2 45.15 50.07 7.21 o
10 0 -2 23.47 29.71 6.21 o
12 0 -2 2.36 0.01 1.00 o
1 1 -2 82.67 72.75 4.91 o
2 1 -2 94.24 89.47 3.20 o
3 1 -2 45.66 45.11 2.39 o
4 1 -2 86.27 91.65 3.78 o
5 1 -2 13.33 14.89 1.67 o
6 1 -2 9.92 11.35 1.75 o
7 1 -2 0.47 2.41 1.06 o
8 1 -2 75.44 87.27 6.54 o
9 1 -2 1.80 2.95 1.90 o
10 1 -2 13.70 18.10 3.53 o
11 1 -2 5.32 1.93 2.57 o
12 1 -2 2.25 1.45 1.47 o
13 1 -2 2.59 5.23 1.99 o
14 1 -2 1.03 -4.69 5.80 o
0 2 -2 31.81 32.90 3.05 o
1 2 -2 112.83 115.02 3.29 o
2 2 -2 160.84 158.53 4.56 o
3 2 -2 77.08 79.55 3.52 o
4 2 -2 48.90 54.51 3.03 o
5 2 -2 4.50 4.74 1.02 o
6 2 -2 11.56 10.58 1.82 o
7 2 -2 1.58 1.48 1.70 o
8 2 -2 4.33 6.02 1.97 o
9 2 -2 2.95 7.17 1.98 o
10 2 -2 2.72 1.97 1.46 o
11 2 -2 7.45 7.15 2.11 o
12 2 -2 2.24 2.16 3.31 o
13 2 -2 4.84 7.22 2.81 o
1 3 -2 48.16 50.23 2.67 o
2 3 -2 50.94 52.15 4.17 o
3 3 -2 44.88 42.09 2.81 o
4 3 -2 16.06 16.18 1.96 o
5 3 -2 0.48 0.98 0.85 o
6 3 -2 20.26 20.49 2.90 o
7 3 -2 10.84 8.27 2.95 o
8 3 -2 1.30 0.77 0.91 o
9 3 -2 0.07 -0.13 1.33 o
10 3 -2 1.12 1.07 1.30 o
11 3 -2 6.63 8.21 2.57 o
12 3 -2 1.65 2.21 1.09 o
13 3 -2 5.18 0.79 3.63 o
0 4 -2 49.44 59.01 4.32 o
1 4 -2 4.90 5.08 0.96 o
2 4 -2 6.74 7.43 1.31 o
3 4 -2 15.63 15.27 1.88 o
4 4 -2 24.02 21.26 2.50 o
5 4 -2 9.93 9.40 1.77 o
6 4 -2 3.45 4.00 1.55 o
7 4 -2 12.51 8.18 2.83 o
8 4 -2 2.56 -0.67 0.77 o
9 4 -2 5.01 5.60 2.13 o
10 4 -2 4.90 6.37 2.30 o
11 4 -2 1.04 0.91 2.65 o
12 4 -2 1.23 3.79 2.37 o
13 4 -2 0.73 2.21 7.58 o
1 5 -2 20.53 22.54 2.32 o
2 5 -2 9.28 10.55 1.66 o
3 5 -2 7.62 9.83 2.31 o
4 5 -2 15.35 15.05 2.73 o
5 5 -2 13.40 10.31 2.14 o
6 5 -2 2.76 1.33 1.51 o
7 5 -2 35.09 28.42 4.77 o
8 5 -2 16.76 12.38 2.97 o
9 5 -2 5.58 6.79 2.19 o
10 5 -2 1.24 -0.12 1.96 o
11 5 -2 0.05 -1.65 1.65 o
12 5 -2 0.30 1.91 1.95 o
0 6 -2 5.09 6.18 2.15 o
1 6 -2 5.19 4.48 1.10 o
2 6 -2 64.71 68.85 4.70 o
3 6 -2 12.50 13.57 2.60 o
4 6 -2 30.93 33.64 4.77 o
5 6 -2 2.74 4.34 1.68 o
6 6 -2 4.04 3.64 1.37 o
7 6 -2 8.41 7.67 2.26 o
8 6 -2 1.90 1.49 1.66 o
9 6 -2 4.52 2.66 1.78 o
10 6 -2 3.11 2.55 2.10 o
11 6 -2 0.20 1.18 1.86 o
1 7 -2 5.51 8.22 1.43 o
2 7 -2 8.21 8.34 1.68 o
3 7 -2 5.11 9.66 2.33 o
4 7 -2 31.96 40.30 7.15 o
5 7 -2 1.59 1.03 1.09 o
6 7 -2 16.88 24.05 4.82 o
7 7 -2 0.97 0.02 0.88 o
8 7 -2 11.29 5.54 5.03 o
9 7 -2 0.28 -1.93 2.37 o
10 7 -2 0.22 1.18 3.02 o
11 7 -2 0.17 -5.48 5.48 o
0 8 -2 2.16 1.89 1.12 o
1 8 -2 0.87 0.62 0.56 o
2 8 -2 30.50 34.09 4.32 o
3 8 -2 0.14 -0.03 1.27 o
4 8 -2 14.18 16.35 4.22 o
5 8 -2 4.94 4.78 2.04 o
6 8 -2 3.40 4.18 1.24 o
7 8 -2 3.59 5.74 2.74 o
8 8 -2 1.76 2.60 2.40 o
9 8 -2 0.46 1.34 1.90 o
1 9 -2 0.26 2.35 1.47 o
2 9 -2 1.06 0.49 0.79 o
3 9 -2 3.54 3.23 1.74 o
4 9 -2 4.20 7.39 2.80 o
5 9 -2 5.85 6.44 2.60 o
6 9 -2 1.12 -0.17 3.40 o
7 9 -2 2.19 4.78 3.73 o
8 9 -2 1.78 4.33 4.93 o
0 10 -2 6.16 1.92 5.40 o
1 10 -2 0.90 2.15 2.51 o
2 10 -2 1.43 1.42 2.03 o
3 10 -2 0.81 1.40 2.42 o
4 10 -2 0.44 -1.17 2.37 o
5 10 -2 1.13 2.39 7.12 o
6 10 -2 0.78 6.28 2.82 o
1 11 -2 0.19 -0.39 1.66 o
2 11 -2 1.19 -4.02 4.02 o
3 11 -2 1.60 -2.65 2.65 o
2 0 -1 2296.76 2231.35 18.82 o
4 0 -1 112.69 99.07 6.74 o
6 0 -1 61.43 64.79 6.67 o
8 0 -1 95.92 105.97 10.28 o
10 0 -1 123.43 131.11 13.20 o
12 0 -1 10.90 9.80 5.24 o
14 0 -1 0.84 1.32 1.55 o
0 1 -1 5551.62 5710.37 31.49 o
1 1 -1 148.77 134.95 3.85 o
2 1 -1 782.20 695.20 15.48 o
3 1 -1 47.35 45.75 2.05 o
4 1 -1 178.96 167.46 5.92 o
5 1 -1 18.12 19.08 1.94 o
6 1 -1 66.77 67.07 3.91 o
7 1 -1 4.10 6.06 1.69 o
8 1 -1 48.64 47.11 4.91 o
9 1 -1 18.72 18.37 3.30 o
10 1 -1 45.52 47.92 5.53 o
11 1 -1 3.13 6.63 1.70 o
12 1 -1 13.84 15.87 3.76 o
13 1 -1 4.38 2.99 1.17 o
14 1 -1 3.46 2.88 1.27 o
1 2 -1 232.17 210.91 5.14 o
2 2 -1 13.59 10.85 1.62 o
3 2 -1 88.41 85.42 3.12 o
4 2 -1 92.51 91.82 3.11 o
5 2 -1 9.12 10.60 1.30 o
6 2 -1 193.40 209.30 5.97 o
7 2 -1 4.03 2.24 1.03 o
8 2 -1 22.56 23.22 3.44 o
9 2 -1 4.80 5.96 2.10 o
10 2 -1 16.98 22.60 3.87 o
11 2 -1 38.30 42.50 5.74 o
12 2 -1 3.28 5.99 1.83 o
13 2 -1 6.13 8.76 2.85 o
14 2 -1 2.21 2.04 2.00 o
0 3 -1 131.75 129.59 5.64 o
1 3 -1 77.39 76.59 3.58 o
2 3 -1 15.95 17.27 1.93 o
3 3 -1 11.77 9.37 1.65 o
4 3 -1 393.51 384.04 13.46 o
5 3 -1 3.17 2.52 0.68 o
6 3 -1 23.91 25.07 2.66 o
7 3 -1 2.05 1.22 1.26 o
8 3 -1 10.03 11.92 2.62 o
9 3 -1 7.03 8.00 1.72 o
10 3 -1 0.55 0.24 1.44 o
11 3 -1 5.20 6.38 2.13 o
12 3 -1 3.28 6.06 2.23 o
13 3 -1 2.93 4.24 2.29 o
14 3 -1 1.01 1.76 1.42 o
1 4 -1 43.33 45.53 3.08 o
2 4 -1 279.52 271.51 7.71 o
3 4 -1 1.62 1.12 0.44 o
4 4 -1 5.13 3.34 1.45 o
5 4 -1 16.17 16.15 3.04 o
6 4 -1 24.53 25.60 4.06 o
7 4 -1 49.76 49.99 5.91 o
8 4 -1 5.91 3.71 1.84 o
9 4 -1 6.55 5.03 3.89 o
10 4 -1 8.55 3.26 1.52 o
11 4 -1 5.17 1.29 1.24 o
12 4 -1 1.74 1.74 1.88 o
13 4 -1 2.01 2.21 1.47 o
0 5 -1 311.60 320.39 11.05 o
1 5 -1 4.37 4.13 0.99 o
2 5 -1 59.73 63.68 4.06 o
3 5 -1 12.74 12.49 2.70 o
4 5 -1 17.97 14.61 5.62 o
5 5 -1 36.82 33.21 4.62 o
6 5 -1 4.01 4.28 3.30 o
7 5 -1 16.16 16.80 3.84 o
8 5 -1 1.04 0.12 3.13 o
9 5 -1 7.73 8.70 3.31 o
10 5 -1 9.55 2.36 3.27 o
11 5 -1 0.77 1.76 1.77 o
12 5 -1 3.75 8.24 3.01 o
13 5 -1 0.73 -0.58 1.68 o
1 6 -1 22.99 23.62 2.66 o
2 6 -1 4.49 7.12 1.49 o
3 6 -1 5.13 6.27 1.91 o
4 6 -1 29.98 30.00 5.18 o
5 6 -1 19.87 22.02 5.16 o
6 6 -1 123.94 130.37 10.20 o
7 6 -1 25.03 25.32 4.60 o
8 6 -1 14.53 17.85 4.18 o
9 6 -1 1.53 -0.20 1.45 o
10 6 -1 4.84 2.79 1.09 o
11 6 -1 0.10 -0.60 2.50 o
12 6 -1 2.46 2.01 1.63 o
0 7 -1 22.15 22.59 3.48 o
1 7 -1 2.89 3.75 0.97 o
2 7 -1 46.33 48.82 4.19 o
3 7 -1 3.54 3.42 1.68 o
4 7 -1 189.20 204.24 13.13 o
5 7 -1 2.17 3.09 2.54 o
6 7 -1 19.27 15.28 3.75 o
7 7 -1 6.83 10.77 3.20 o
8 7 -1 6.22 6.54 3.11 o
9 7 -1 0.69 -0.84 1.65 o
10 7 -1 2.90 5.31 2.94 o
11 7 -1 0.11 -3.30 3.30 o
1 8 -1 0.57 1.62 1.29 o
2 8 -1 2.09 1.72 0.98 o
3 8 -1 16.13 19.74 3.50 o
4 8 -1 20.08 18.38 3.81 o
5 8 -1 5.18 10.21 4.01 o
6 8 -1 54.09 62.14 8.30 o
7 8 -1 1.72 2.77 1.71 o
8 8 -1 6.46 4.61 3.77 o
9 8 -1 0.67 2.26 1.44 o
10 8 -1 4.91 6.00 4.32 o
0 9 -1 29.14 37.32 7.47 o
1 9 -1 0.41 1.12 1.80 o
2 9 -1 8.80 6.29 2.83 o
3 9 -1 2.26 2.41 2.14 o
4 9 -1 11.96 5.44 1.79 o
5 9 -1 9.24 11.98 4.06 o
6 9 -1 5.93 6.38 2.75 o
7 9 -1 4.85 9.86 3.47 o
8 9 -1 4.07 3.70 2.47 o
9 9 -1 0.35 -1.22 3.34 o
1 10 -1 2.38 2.20 1.80 o
2 10 -1 8.67 9.50 3.19 o
3 10 -1 0.50 -0.13 1.60 o
4 10 -1 0.11 -1.56 2.39 o
5 10 -1 4.48 5.53 2.46 o
6 10 -1 1.72 8.09 4.13 o
7 10 -1 1.03 1.36 2.68 o
0 11 -1 6.56 14.00 5.22 o
1 11 -1 1.63 0.46 2.06 o
2 11 -1 0.66 -0.81 1.15 o
3 11 -1 1.43 8.60 3.64 o
4 11 -1 2.76 4.34 2.39 o
5 11 -1 0.13 4.04 3.88 o
2 0 0 112.12 129.31 5.37 o
4 0 0 297.31 296.64 11.79 o
6 0 0 31.21 27.87 4.56 o
8 0 0 109.85 106.00 10.35 o
10 0 0 93.27 102.49 11.53 o
12 0 0 43.15 42.10 8.37 o
14 0 0 2.42 3.40 3.01 o
2 1 0 2654.58 2733.36 29.84 o
3 1 0 32.56 41.91 1.92 o
4 1 0 3.52 4.19 0.67 o
5 1 0 0.07 -0.32 0.37 o
6 1 0 218.84 201.80 9.47 o
7 1 0 21.08 21.57 1.39 o
8 1 0 6.45 7.53 1.60 o
9 1 0 2.13 4.47 1.41 o
10 1 0 139.95 155.36 10.15 o
11 1 0 30.45 34.66 5.10 o
12 1 0 13.37 14.44 3.05 o
13 1 0 1.25 2.26 2.21 o
14 1 0 0.32 -0.66 1.55 o
0 2 0 1787.67 1787.97 28.94 o
1 2 0 28.02 26.18 1.31 o
2 2 0 13.49 14.59 1.04 o
3 2 0 0.06 0.42 0.81 o
4 2 0 949.24 935.75 23.29 o
5 2 0 26.16 28.91 3.61 o
6 2 0 70.71 78.62 6.38 o
7 2 0 1.65 1.71 1.27 o
8 2 0 0.07 0.03 1.49 o
9 2 0 52.80 53.23 5.72 o
10 2 0 21.03 17.33 3.44 o
11 2 0 0.02 -0.08 1.00 o
12 2 0 2.88 1.02 1.31 o
13 2 0 8.08 2.43 1.51 o
14 2 0 2.08 0.58 2.25 o
1 3 0 7.42 10.08 1.04 o
2 3 0 450.97 454.94 10.24 o
3 3 0 6.55 6.61 0.73 o
4 3 0 31.25 31.16 1.82 o
5 3 0 13.74 12.11 2.42 o
6 3 0 331.89 377.87 16.00 o
7 3 0 3.57 5.19 1.91 o
8 3 0 3.78 5.01 1.88 o
9 3 0 12.81 14.47 3.23 o
10 3 0 0.09 0.86 2.04 o
11 3 0 36.68 39.11 5.50 o
12 3 0 0.03 -0.93 2.03 o
13 3 0 1.89 -1.24 1.63 o
14 3 0 2.94 6.38 2.74 o
0 4 0 1201.76 1211.60 27.47 o
1 4 0 8.30 6.85 1.39 o
2 4 0 0.08 0.64 0.28 o
3 4 0 1.01 0.04 1.06 o
4 4 0 116.97 124.28 3.27 o
5 4 0 53.90 59.44 3.53 o
6 4 0 9.09 7.06 2.07 o
7 4 0 0.79 1.09 1.46 o
8 4 0 14.35 14.15 3.05 o
9 4 0 0.04 0.25 1.27 o
10 4 0 3.89 7.24 2.51 o
11 4 0 1.13 2.40 1.16 o
12 4 0 9.14 6.73 2.27 o
13 4 0 0.18 0.75 2.39 o
1 5 0 70.46 75.51 5.41 o
2 5 0 130.06 132.34 3.58 o
3 5 0 0.85 0.21 1.28 o
4 5 0 0.20 -0.17 0.91 o
5 5 0 18.85 20.20 3.63 o
6 5 0 42.90 39.93 5.33 o
7 5 0 60.45 67.16 7.10 o
8 5 0 1.14 0.39 1.35 o
9 5 0 5.80 1.73 3.34 o
10 5 0 14.71 16.37 4.14 o
11 5 0 0.07 2.27 1.69 o
12 5 0 4.53 6.55 3.06 o
13 5 0 0.09 1.74 2.04 o
0 6 0 207.85 239.70 14.95 o
1 6 0 0.38 -0.46 0.69 o
2 6 0 3.14 1.58 1.37 o
3 6 0 0.82 2.28 1.60 o
4 6 0 283.62 266.54 17.07 o
5 6 0 8.86 8.81 1.89 o
6 6 0 16.69 12.72 3.00 o
7 6 0 6.48 5.47 2.52 o
8 6 0 9.42 9.70 2.88 o
9 6 0 4.81 4.24 2.35 o
10 6 0 8.78 9.40 3.19 o
11 6 0 0.65 1.21 1.62 o
12 6 0 2.97 2.10 1.73 o
1 7 0 1.63 2.43 0.71 o
2 7 0 9.89 5.57 1.55 o
3 7 0 22.87 22.85 3.44 o
4 7 0 9.47 4.06 1.89 o
5 7 0 22.01 20.42 5.10 o
6 7 0 240.72 269.32 15.43 o
7 7 0 1.24 0.05 1.08 o
8 7 0 2.48 1.43 1.80 o
9 7 0 0.26 -1.24 1.46 o
10 7 0 7.99 9.24 3.91 o
11 7 0 0.01 -1.82 1.82 o
0 8 0 36.57 35.90 7.22 o
1 8 0 3.42 0.17 1.88 o
2 8 0 1.38 1.20 0.76 o
3 8 0 0.03 -0.49 1.54 o
4 8 0 147.90 159.06 12.32 o
5 8 0 16.35 18.66 5.36 o
6 8 0 26.10 20.67 5.49 o
7 8 0 6.05 4.25 2.65 o
8 8 0 0.49 4.32 2.04 o
9 8 0 0.08 0.19 2.35 o
10 8 0 2.08 -1.38 2.14 o
1 9 0 3.02 3.38 2.20 o
2 9 0 4.19 1.88 1.86 o
3 9 0 7.72 8.64 2.94 o
4 9 0 2.55 1.85 2.13 o
5 9 0 0.06 0.59 2.48 o
6 9 0 11.96 9.89 4.48 o
7 9 0 3.31 8.77 2.98 o
8 9 0 0.52 2.74 2.55 o
9 9 0 0.10 -1.43 2.48 o
0 10 0 37.74 44.12 8.78 o
1 10 0 1.13 -0.44 1.30 o
2 10 0 1.16 -1.49 1.49 o
3 10 0 6.56 8.63 2.62 o
4 10 0 0.15 0.81 1.35 o
5 10 0 2.26 3.79 2.82 o
6 10 0 0.71 1.16 2.12 o
7 10 0 0.17 -0.63 1.53 o
1 11 0 1.53 1.35 2.14 o
2 11 0 6.55 4.86 1.96 o
3 11 0 0.92 0.12 1.60 o
4 11 0 0.39 -3.37 3.37 o
5 11 0 3.19 2.74 1.92 o
2 0 1 2296.26 2155.33 14.04 o
4 0 1 112.68 109.60 8.26 o
6 0 1 61.46 61.22 6.67 o
8 0 1 96.01 95.56 9.90 o
10 0 1 123.41 140.48 13.36 o
12 0 1 10.89 17.84 5.44 o
14 0 1 0.84 3.56 3.76 o
0 1 1 5550.70 5728.93 27.04 o
1 1 1 148.86 135.57 2.60 o
2 1 1 782.65 718.37 15.84 o
3 1 1 47.43 48.77 1.84 o
4 1 1 178.94 171.52 3.19 o
5 1 1 18.11 17.90 1.59 o
6 1 1 66.84 76.92 3.78 o
7 1 1 4.12 6.53 1.37 o
8 1 1 48.67 40.13 3.57 o
9 1 1 18.71 19.88 3.43 o
10 1 1 45.49 48.83 5.66 o
11 1 1 3.13 3.51 1.35 o
12 1 1 13.84 14.50 3.56 o
13 1 1 4.37 0.05 1.83 o
14 1 1 3.45 0.50 3.05 o
1 2 1 232.16 224.72 5.22 o
2 2 1 13.60 13.77 1.49 o
3 2 1 88.43 80.42 2.27 o
4 2 1 92.54 92.30 3.26 o
5 2 1 9.15 10.55 1.08 o
6 2 1 193.36 217.12 5.86 o
7 2 1 4.03 2.52 0.86 o
8 2 1 22.58 22.45 2.62 o
9 2 1 4.80 3.13 1.37 o
10 2 1 16.98 16.72 3.30 o
11 2 1 38.29 42.30 5.76 o
12 2 1 3.28 0.60 0.78 o
13 2 1 6.14 4.09 1.56 o
14 2 1 2.21 6.08 2.46 o
0 3 1 131.70 137.80 7.01 o
1 3 1 77.38 80.94 3.32 o
2 3 1 15.97 14.11 1.02 o
3 3 1 11.78 10.71 0.94 o
4 3 1 393.42 371.72 11.79 o
5 3 1 3.17 2.44 0.77 o
6 3 1 23.89 28.03 2.29 o
7 3 1 2.05 2.09 0.96 o
8 3 1 10.02 7.47 1.49 o
9 3 1 7.03 6.51 1.72 o
10 3 1 0.55 -1.13 1.26 o
11 3 1 5.19 5.50 2.32 o
12 3 1 3.28 6.95 2.12 o
13 3 1 2.93 4.50 3.00 o
14 3 1 1.01 1.90 1.76 o
1 4 1 43.28 49.10 3.01 o
2 4 1 279.47 270.37 7.36 o
3 4 1 1.62 1.60 1.04 o
4 4 1 5.12 3.94 1.20 o
5 4 1 16.14 16.00 1.70 o
6 4 1 24.51 26.56 2.60 o
7 4 1 49.77 47.93 5.89 o
8 4 1 5.92 5.22 2.04 o
9 4 1 6.55 6.04 1.06 o
10 4 1 8.55 7.34 2.40 o
11 4 1 5.17 4.26 2.08 o
12 4 1 1.74 2.32 1.85 o
13 4 1 2.01 -0.03 1.23 o
0 5 1 311.55 330.81 16.00 o
1 5 1 4.37 1.67 1.14 o
2 5 1 59.77 64.55 3.84 o
3 5 1 12.76 11.97 1.38 o
4 5 1 17.96 15.22 1.80 o
5 5 1 36.82 35.98 2.30 o
6 5 1 4.02 2.63 0.65 o
7 5 1 16.16 17.67 3.44 o
8 5 1 1.04 0.70 1.66 o
9 5 1 7.73 9.07 3.14 o
10 5 1 9.54 5.41 2.77 o
11 5 1 0.76 -0.63 1.59 o
12 5 1 3.75 5.61 2.56 o
13 5 1 0.73 0.28 1.94 o
1 6 1 23.02 22.88 3.16 o
2 6 1 4.50 2.97 1.08 o
3 6 1 5.13 4.42 1.21 o
4 6 1 29.99 34.90 2.85 o
5 6 1 19.86 21.69 3.41 o
6 6 1 123.92 136.53 10.27 o
7 6 1 25.03 26.43 4.65 o
8 6 1 14.54 15.27 3.77 o
9 6 1 1.54 -0.27 1.22 o
10 6 1 4.84 4.95 2.40 o
11 6 1 0.10 -0.89 1.81 o
12 6 1 2.46 4.85 2.14 o
0 7 1 22.15 22.93 4.98 o
1 7 1 2.89 3.84 1.08 o
2 7 1 46.39 43.80 3.79 o
3 7 1 3.55 3.55 1.36 o
4 7 1 189.15 214.92 16.35 o
5 7 1 2.17 3.95 2.52 o
6 7 1 19.27 16.26 4.74 o
7 7 1 6.83 3.61 1.43 o
8 7 1 6.22 8.49 3.20 o
9 7 1 0.69 2.44 2.37 o
10 7 1 2.90 0.38 1.78 o
11 7 1 0.11 1.74 2.11 o
1 8 1 0.56 -0.24 1.82 o
2 8 1 2.08 3.98 1.90 o
3 8 1 16.14 13.94 3.02 o
4 8 1 20.09 27.04 6.33 o
5 8 1 5.19 11.46 4.68 o
6 8 1 54.06 67.80 10.46 o
7 8 1 1.72 1.19 1.69 o
8 8 1 6.46 7.35 3.07 o
9 8 1 0.68 5.08 3.03 o
10 8 1 4.91 5.91 2.45 o
0 9 1 29.14 33.97 7.20 o
1 9 1 0.41 0.86 1.21 o
2 9 1 8.82 8.34 2.29 o
3 9 1 2.27 1.31 1.79 o
4 9 1 11.96 15.69 4.97 o
5 9 1 9.24 10.24 4.04 o
6 9 1 5.93 8.08 3.76 o
7 9 1 4.85 4.97 2.65 o
8 9 1 4.08 1.91 2.79 o
9 9 1 0.35 1.89 1.69 o
1 10 1 2.38 2.57 1.30 o
2 10 1 8.66 8.28 2.16 o
3 10 1 0.49 2.15 1.81 o
4 10 1 0.11 -2.05 3.20 o
5 10 1 4.47 4.23 1.89 o
6 10 1 1.73 4.83 2.73 o
7 10 1 1.03 -1.73 2.05 o
0 11 1 6.55 10.03 3.96 o
1 11 1 1.64 4.01 1.58 o
2 11 1 0.66 3.83 2.65 o
3 11 1 1.43 1.90 2.36 o
4 11 1 2.76 1.53 4.20 o
5 11 1 0.13 9.68 7.10 o
0 0 2 556.72 505.46 19.99 o
2 0 2 467.88 462.70 7.65 o
4 0 2 2.09 2.29 0.38 o
6 0 2 56.94 66.50 6.63 o
8 0 2 45.17 43.61 4.96 o
10 0 2 23.45 18.89 3.70 o
12 0 2 2.36 11.18 7.07 o
1 1 2 82.70 78.58 2.33 o
2 1 2 94.18 84.59 2.36 o
3 1 2 45.66 42.48 1.49 o
4 1 2 86.28 91.92 2.28 o
5 1 2 13.35 14.50 1.24 o
6 1 2 9.93 11.23 1.22 o
7 1 2 0.47 0.44 0.56 o
8 1 2 75.47 91.22 5.03 o
9 1 2 1.80 5.39 1.60 o
10 1 2 13.69 14.47 2.61 o
11 1 2 5.32 3.35 1.40 o
12 1 2 2.25 6.26 3.58 o
13 1 2 2.59 1.59 2.02 o
0 2 2 31.81 30.97 2.66 o
1 2 2 112.81 114.57 3.03 o
2 2 2 160.91 159.46 3.67 o
3 2 2 77.13 85.14 2.99 o
4 2 2 48.87 53.02 2.08 o
5 2 2 4.50 4.83 0.84 o
6 2 2 11.57 14.33 1.62 o
7 2 2 1.58 0.24 0.47 o
8 2 2 4.33 5.48 1.22 o
9 2 2 2.95 2.98 2.24 o
10 2 2 2.71 1.14 2.09 o
11 2 2 7.45 9.49 2.90 o
12 2 2 2.25 3.70 2.68 o
13 2 2 4.84 8.55 3.95 o
1 3 2 48.12 51.38 2.59 o
2 3 2 50.90 59.78 4.87 o
3 3 2 44.86 48.65 2.18 o
4 3 2 16.07 16.08 1.68 o
5 3 2 0.48 0.26 0.56 o
6 3 2 20.23 20.27 1.82 o
7 3 2 10.84 11.10 1.41 o
8 3 2 1.30 1.00 0.84 o
9 3 2 0.07 0.56 0.79 o
10 3 2 1.12 -2.02 2.02 o
11 3 2 6.63 7.35 3.26 o
12 3 2 1.65 4.20 2.84 o
13 3 2 5.18 1.63 4.66 o
0 4 2 49.40 55.12 3.58 o
1 4 2 4.91 4.95 0.75 o
2 4 2 6.74 9.31 1.23 o
3 4 2 15.62 16.77 2.22 o
4 4 2 24.00 25.87 2.51 o
5 4 2 9.93 9.82 1.43 o
6 4 2 3.45 3.04 1.08 o
7 4 2 12.50 14.39 1.82 o
8 4 2 2.56 2.22 0.82 o
9 4 2 5.00 3.45 1.74 o
10 4 2 4.90 0.18 0.81 o
11 4 2 1.03 3.74 2.62 o
12 4 2 1.23 3.41 2.21 o
13 4 2 0.73 -4.79 4.79 o
1 5 2 20.55 25.93 2.67 o
2 5 2 9.28 9.39 1.55 o
3 5 2 7.62 5.57 2.08 o
4 5 2 15.35 16.99 2.50 o
5 5 2 13.39 13.01 1.64 o
6 5 2 2.76 2.28 1.43 o
7 5 2 35.07 40.07 4.78 o
8 5 2 16.77 16.92 4.91 o
9 5 2 5.59 13.04 3.67 o
10 5 2 1.24 -0.79 1.18 o
11 5 2 0.05 -0.06 1.14 o
12 5 2 0.30 -0.35 6.63 o
0 6 2 5.09 3.65 1.65 o
1 6 2 5.20 4.29 1.76 o
2 6 2 64.74 76.32 4.99 o
3 6 2 12.51 13.74 2.34 o
4 6 2 30.92 35.73 3.48 o
5 6 2 2.74 3.08 0.93 o
6 6 2 4.04 3.96 1.20 o
7 6 2 8.41 12.23 2.79 o
8 6 2 1.90 0.95 1.35 o
9 6 2 4.51 5.90 3.61 o
10 6 2 3.11 0.97 0.85 o
11 6 2 0.20 -1.14 1.14 o
1 7 2 5.52 5.67 1.62 o
2 7 2 8.20 10.11 2.56 o
3 7 2 5.11 1.97 1.41 o
4 7 2 31.98 41.01 5.66 o
5 7 2 1.59 1.60 1.11 o
6 7 2 16.86 21.17 3.51 o
7 7 2 0.97 1.66 2.72 o
8 7 2 11.30 6.35 2.53 o
9 7 2 0.28 1.09 2.60 o
10 7 2 0.22 1.78 2.26 o
11 7 2 0.17 0.60 3.45 o
0 8 2 2.17 3.26 2.48 o
1 8 2 0.87 -0.06 0.86 o
2 8 2 30.53 29.85 7.66 o
3 8 2 0.14 1.13 1.02 o
4 8 2 14.16 15.05 6.81 o
5 8 2 4.95 11.79 5.97 o
6 8 2 3.39 1.65 1.00 o
7 8 2 3.60 0.86 1.63 o
8 8 2 1.76 0.66 1.42 o
9 8 2 0.46 2.49 2.93 o
1 9 2 0.26 1.63 1.66 o
2 9 2 1.06 0.32 2.05 o
3 9 2 3.55 13.54 7.53 o
4 9 2 4.21 10.84 6.14 o
5 9 2 5.85 4.75 3.47 o
6 9 2 1.12 1.47 4.92 o
7 9 2 2.19 5.78 2.86 o
8 9 2 1.78 2.25 2.85 o
0 10 2 6.15 15.98 7.80 o
1 10 2 0.90 0.78 1.06 o
2 10 2 1.43 3.36 2.14 o
3 10 2 0.81 3.80 3.43 o
4 10 2 0.44 0.05 2.87 o
5 10 2 1.13 5.05 4.30 o
6 10 2 0.78 3.35 2.49 o
1 11 2 0.19 8.41 4.56 o
2 11 2 1.19 4.67 3.41 o
2 0 3 1.93 0.58 0.72 o
4 0 3 19.44 20.66 2.30 o
6 0 3 6.05 8.83 1.86 o
8 0 3 32.27 43.47 9.10 o
10 0 3 1.46 6.69 4.26 o
0 1 3 0.12 -0.52 0.52 o
1 1 3 10.14 11.66 1.46 o
2 1 3 53.82 56.91 2.85 o
3 1 3 17.96 18.74 1.44 o
4 1 3 1.26 1.04 0.54 o
5 1 3 2.23 2.82 0.69 o
6 1 3 9.44 14.73 1.86 o
7 1 3 1.33 2.82 1.04 o
8 1 3 6.53 12.01 2.06 o
9 1 3 0.40 3.97 1.76 o
10 1 3 2.61 2.25 1.27 o
11 1 3 0.86 -0.27 0.91 o
1 2 3 19.21 22.34 2.36 o
2 2 3 1.67 2.05 0.62 o
3 2 3 25.26 28.43 1.95 o
4 2 3 10.59 12.12 1.33 o
5 2 3 11.49 13.64 2.63 o
6 2 3 0.10 0.64 1.05 o
7 2 3 1.86 1.43 1.62 o
8 2 3 6.09 5.37 2.64 o
9 2 3 0.63 -0.54 2.00 o
10 2 3 0.04 1.00 3.13 o
0 3 3 2.18 1.56 0.96 o
1 3 3 8.46 10.25 1.35 o
2 3 3 5.60 8.65 1.26 o
3 3 3 19.63 22.57 2.23 o
4 3 3 4.13 3.23 1.23 o
5 3 3 0.52 1.42 0.49 o
6 3 3 0.13 0.63 1.43 o
7 3 3 0.39 1.99 0.91 o
8 3 3 0.12 0.02 1.57 o
9 3 3 2.50 0.90 2.76 o
10 3 3 0.59 0.56 3.52 o
1 4 3 4.02 4.07 0.81 o
2 4 3 1.73 3.58 1.37 o
3 4 3 11.06 15.40 2.56 o
4 4 3 0.21 -0.31 0.99 o
5 4 3 0.76 0.30 1.26 o
6 4 3 0.84 0.42 1.00 o
7 4 3 9.83 12.12 2.45 o
8 4 3 3.17 3.16 2.49 o
9 4 3 2.92 4.50 2.58 o
0 5 3 1.47 6.72 2.66 o
1 5 3 7.76 14.05 2.38 o
2 5 3 9.47 15.29 5.39 o
3 5 3 6.83 7.49 2.02 o
4 5 3 0.59 -0.12 1.22 o
5 5 3 1.61 0.89 0.56 o
6 5 3 1.19 3.76 1.48 o
7 5 3 4.85 6.97 1.67 o
8 5 3 0.49 2.22 1.44 o
9 5 3 4.14 6.43 3.60 o
1 6 3 7.22 14.19 4.05 o
2 6 3 3.71 0.33 1.10 o
3 6 3 2.59 0.63 1.22 o
4 6 3 8.98 9.11 2.72 o
5 6 3 1.13 -0.17 1.30 o
6 6 3 0.05 -0.46 1.36 o
7 6 3 3.55 4.75 2.31 o
8 6 3 4.95 9.84 4.45 o
1 7 3 0.75 3.99 3.53 o
2 7 3 16.55 19.26 3.83 o
3 7 3 0.67 -0.48 2.50 o
4 7 3 1.44 4.34 1.80 o
5 7 3 0.30 1.41 1.24 o
6 7 3 0.38 1.31 0.88 o
7 7 3 0.05 -1.20 1.20 o
8 7 3 0.21 5.84 3.47 o
2 8 3 0.44 -2.69 2.69 o
3 8 3 1.60 3.06 1.33 o
4 8 3 4.56 2.09 4.38 o
5 8 3 1.29 2.12 1.13 o
6 8 3 0.26 -1.94 1.94 o
7 8 3 0.37 2.23 1.65 o
0 0 4 4.41 3.02 1.63 o
2 0 4 3.70 2.07 0.88 o
4 0 4 0.71 2.18 0.80 o
6 0 4 1.98 1.49 1.51 o
1 1 4 0.89 0.81 0.43 o
2 1 4 0.83 0.81 0.36 o
3 1 4 1.55 0.51 0.64 o
4 1 4 0.81 0.60 0.67 o
5 1 4 2.29 3.41 0.92 o
6 1 4 1.64 1.67 0.88 o
7 1 4 0.34 2.47 1.11 o
0 2 4 1.43 0.59 1.30 o
1 2 4 0.90 0.29 0.52 o
2 2 4 1.87 1.73 0.70 o
3 2 4 6.19 7.23 1.19 o
4 2 4 0.35 0.51 0.67 o
5 2 4 1.23 -0.50 0.75 o
6 2 4 0.31 0.06 0.78 o
7 2 4 0.79 0.42 0.69 o
1 3 4 0.57 1.47 0.80 o
2 3 4 0.09 1.02 0.77 o
3 3 4 3.36 6.49 1.44 o
4 3 4 0.20 0.06 1.35 o
5 3 4 3.20 1.25 1.50 o
6 3 4 0.19 1.63 1.13 o
7 3 4 1.17 -0.51 1.45 o
0 4 4 0.45 1.64 0.92 o
1 4 4 2.86 4.29 1.23 o
2 4 4 0.02 2.01 0.94 o
3 4 4 1.58 2.89 0.83 o
4 4 4 0.07 -0.11 1.45 o
5 4 4 0.10 1.78 1.50 o
6 4 4 0.16 -0.26 2.81 o
7 4 4 0.23 -1.59 2.08 o
1 5 4 2.70 5.02 3.26 o
2 5 4 0.68 1.92 1.13 o
3 5 4 1.78 2.61 1.02 o
4 5 4 0.30 -0.96 0.96 o
5 5 4 0.07 2.43 1.31 o
6 5 4 0.37 -2.82 2.82 o
0 6 4 2.39 1.88 0.97 o
1 6 4 1.71 4.91 2.59 o
2 6 4 1.45 2.81 1.87 o
3 6 4 0.49 -2.57 2.57 o
4 6 4 0.36 -2.53 2.63 o
