#------------------------------------------------------------------------------
#$Date: 2019-11-22 21:52:56 +0200 (Fri, 22 Nov 2019) $
#$Revision: 231383 $
#$URL: file:///home/coder/svn-repositories/cod/cif/4/51/65/4516569.cif $
#------------------------------------------------------------------------------
#
# This file is available in the Crystallography Open Database (COD),
# http://www.crystallography.net/
#
# All data on this site have been placed in the public domain by the
# contributors.
#
data_4516569
loop_
_publ_author_name
'Patyk, Ewa'
'Podsiad\/lo, Marcin'
'Katrusiak, Andrzej'
_publ_section_title
;
 Discrete CH&#x00B7;&#x00B7;&#x00B7;N Bonded Patterns Modified by
 Temperature and Pressure in Four Pyrazine Polymorphs
;
_journal_issue                   12
_journal_name_full               'Crystal Growth &amp; Design'
_journal_page_first              5670
_journal_paper_doi               10.1021/acs.cgd.5b01475
_journal_volume                  15
_journal_year                    2015
_chemical_formula_moiety         'C4 H4 N2'
_chemical_formula_sum            'C4 H4 N2'
_chemical_formula_weight         80.09
_chemical_melting_point          325
_chemical_name_common            pyrazine
_chemical_name_systematic
; 
pyrazine phase II
;
_space_group_IT_number           14
_space_group_name_Hall           '-P 2ybc'
_space_group_name_H-M_alt        'P 1 21/c 1'
_symmetry_cell_setting           monoclinic
_symmetry_space_group_name_Hall  '-P 2ybc'
_symmetry_space_group_name_H-M   'P 1 21/c 1'
_atom_sites_solution_hydrogens   geom
_atom_sites_solution_primary     direct
_atom_sites_solution_secondary   difmap
_audit_creation_method           SHELXL-97
_cell_angle_alpha                90.00
_cell_angle_beta                 116.93(13)
_cell_angle_gamma                90.00
_cell_formula_units_Z            4
_cell_length_a                   11.263(12)
_cell_length_b                   3.831(2)
_cell_length_c                   11.086(12)
_cell_measurement_reflns_used    1395
_cell_measurement_temperature    315.0(1)
_cell_measurement_theta_max      26.85
_cell_measurement_theta_min      3.68
_cell_volume                     426.5(8)
_computing_cell_refinement       'CrysAlisRED (Oxford Diffraction, 2004)'
_computing_data_collection       'CrysAlisCCD (Oxford Diffraction, 2004)'
_computing_data_reduction        'CrysAlisRED (Oxford Diffraction, 2004)'
_computing_molecular_graphics    'SHELXTL (Sheldrick, 1990)'
_computing_publication_material  'SHELXL--97 (Sheldrick, 1997)'
_computing_structure_refinement  'SHELXL--97 (Sheldrick, 1997)'
_computing_structure_solution    'SHELXS--97 (Sheldrick, 1997)'
_diffrn_ambient_pressure         100
_diffrn_ambient_temperature      315.0(1)
_diffrn_measured_fraction_theta_full 0.844
_diffrn_measured_fraction_theta_max 0.844
_diffrn_measurement_device_type  'KM-4 CCD'
_diffrn_measurement_method       \w-scans
_diffrn_radiation_monochromator  graphite
_diffrn_radiation_source         'fine-focus sealed tube'
_diffrn_radiation_type           MoK\a
_diffrn_radiation_wavelength     0.71073
_diffrn_reflns_av_R_equivalents  0.0733
_diffrn_reflns_av_sigmaI/netI    0.1587
_diffrn_reflns_limit_h_max       14
_diffrn_reflns_limit_h_min       -12
_diffrn_reflns_limit_k_max       4
_diffrn_reflns_limit_k_min       -4
_diffrn_reflns_limit_l_max       12
_diffrn_reflns_limit_l_min       -11
_diffrn_reflns_number            1395
_diffrn_reflns_theta_full        26.85
_diffrn_reflns_theta_max         26.85
_diffrn_reflns_theta_min         3.68
_diffrn_standards_decay_%        0
_diffrn_standards_interval_count 0
_diffrn_standards_number         0
_exptl_absorpt_coefficient_mu    0.082
_exptl_absorpt_correction_T_max  0.984
_exptl_absorpt_correction_T_min  0.984
_exptl_absorpt_correction_type   numerical
_exptl_absorpt_process_details
; 
 Correction for absorption was made using XEMP (SHELXTL, 
 Sheldrick (1990)).
;
_exptl_crystal_colour            colourless
_exptl_crystal_density_diffrn    1.247
_exptl_crystal_density_method    'not measured'
_exptl_crystal_description       irregular
_exptl_crystal_F_000             168
_exptl_crystal_size_max          0.20
_exptl_crystal_size_mid          0.20
_exptl_crystal_size_min          0.20
_refine_diff_density_max         0.104
_refine_diff_density_min         -0.112
_refine_diff_density_rms         0.028
_refine_ls_extinction_coef       0.054(4)
_refine_ls_extinction_expression Fc^*^=kFc[1+0.001xFc^2^\l^3^/sin(2\q)]^-1/4^
_refine_ls_extinction_method     SHELXL
_refine_ls_goodness_of_fit_ref   0.904
_refine_ls_hydrogen_treatment    constr
_refine_ls_matrix_type           full
_refine_ls_number_parameters     56
_refine_ls_number_reflns         770
_refine_ls_number_restraints     0
_refine_ls_restrained_S_all      0.904
_refine_ls_R_factor_all          0.2481
_refine_ls_R_factor_gt           0.0643
_refine_ls_shift/su_max          0.000
_refine_ls_shift/su_mean         0.000
_refine_ls_structure_factor_coef Fsqd
_refine_ls_weighting_details
'calc w=1/[\s^2^(Fo^2^)+(0.0000P)^2^+0.0000P] where P=(Fo^2^+2Fc^2^)/3'
_refine_ls_weighting_scheme      calc
_refine_ls_wR_factor_gt          0.0598
_refine_ls_wR_factor_ref         0.0957
_reflns_number_gt                214
_reflns_number_total             770
_reflns_threshold_expression     >2sigma(I)
_cod_data_source_file            cg5b01475_si_002.cif
_cod_data_source_block           phaseII_315K
_cod_original_cell_volume        426.5(7)
_cod_original_sg_symbol_H-M      'P 21/c'
_cod_database_code               4516569
loop_
_symmetry_equiv_pos_as_xyz
'x, y, z'
'-x, y+1/2, -z+1/2'
'-x, -y, -z'
'x, -y-1/2, z-1/2'
loop_
_atom_site_label
_atom_site_type_symbol
_atom_site_fract_x
_atom_site_fract_y
_atom_site_fract_z
_atom_site_U_iso_or_equiv
_atom_site_adp_type
_atom_site_occupancy
_atom_site_symmetry_multiplicity
_atom_site_calc_flag
_atom_site_refinement_flags
N1 N 0.0773(5) 0.0079(13) 0.1394(4) 0.0903(16) Uani 1 1 d .
C2 C 0.1223(5) 0.1052(13) 0.0555(7) 0.0837(18) Uani 1 1 d .
H2 H 0.2101 0.1813 0.0902 0.100 Uiso 1 1 calc R
C3 C -0.0461(7) -0.1005(13) 0.0818(7) 0.0790(18) Uani 1 1 d .
H3 H -0.0836 -0.1777 0.1364 0.095 Uiso 1 1 calc R
N11 N 0.4192(5) 0.4865(13) 0.0647(6) 0.0928(18) Uani 1 1 d .
C12 C 0.5465(8) 0.3980(14) 0.1241(6) 0.0877(19) Uani 1 1 d .
H12 H 0.5837 0.3217 0.2134 0.105 Uiso 1 1 calc R
C13 C 0.3754(6) 0.5875(15) -0.0622(7) 0.0897(19) Uani 1 1 d .
H13 H 0.2865 0.6512 -0.1107 0.108 Uiso 1 1 calc R
loop_
_atom_site_aniso_label
_atom_site_aniso_U_11
_atom_site_aniso_U_22
_atom_site_aniso_U_33
_atom_site_aniso_U_23
_atom_site_aniso_U_13
_atom_site_aniso_U_12
N1 0.080(4) 0.126(4) 0.066(3) -0.004(3) 0.035(3) -0.017(3)
C2 0.053(4) 0.106(4) 0.080(5) 0.007(4) 0.020(4) 0.000(3)
C3 0.080(5) 0.085(4) 0.082(5) 0.015(4) 0.046(4) 0.005(4)
N11 0.074(4) 0.129(4) 0.083(4) -0.017(3) 0.042(3) -0.026(4)
C12 0.088(5) 0.109(4) 0.064(4) 0.003(4) 0.032(5) -0.011(5)
C13 0.068(5) 0.123(5) 0.071(5) -0.018(4) 0.025(4) 0.001(4)
loop_
_atom_type_symbol
_atom_type_description
_atom_type_scat_dispersion_real
_atom_type_scat_dispersion_imag
_atom_type_scat_source
C C 0.0033 0.0016 'International Tables Vol C Tables 4.2.6.8 and 6.1.1.4'
H H 0.0000 0.0000 'International Tables Vol C Tables 4.2.6.8 and 6.1.1.4'
N N 0.0061 0.0033 'International Tables Vol C Tables 4.2.6.8 and 6.1.1.4'
loop_
_geom_angle_atom_site_label_1
_geom_angle_atom_site_label_2
_geom_angle_atom_site_label_3
_geom_angle
_geom_angle_site_symmetry_3
C2 N1 C3 114.5(5) .
N1 C2 C3 122.8(5) 3
N1 C3 C2 122.7(5) 3
C13 N11 C12 113.8(5) .
N11 C12 C13 123.3(6) 3_665
N11 C13 C12 122.9(6) 3_665
loop_
_geom_bond_atom_site_label_1
_geom_bond_atom_site_label_2
_geom_bond_distance
_geom_bond_site_symmetry_2
N1 C2 1.300(5) .
N1 C3 1.307(6) .
C2 C3 1.367(7) 3
C3 C2 1.367(7) 3
N11 C13 1.320(6) .
N11 C12 1.323(7) .
C12 C13 1.339(6) 3_665
C13 C12 1.339(6) 3_665
loop_
_refln_index_h
_refln_index_k
_refln_index_l
_refln_F_squared_calc
_refln_F_squared_meas
_refln_F_squared_sigma
_refln_observed_status
2 0 0 3114.43 3137.41 70.33 o
3 0 0 2.28 -0.33 1.85 o
4 0 0 694.53 731.34 42.89 o
5 0 0 0.06 2.54 4.36 o
6 0 0 360.75 368.91 39.99 o
7 0 0 0.00 4.14 5.96 o
8 0 0 2.76 2.74 6.81 o
9 0 0 0.01 -1.33 1.33 o
10 0 0 1.17 -0.93 4.39 o
11 0 0 0.36 -0.96 0.96 o
12 0 0 3.61 11.78 13.74 o
1 1 0 3.04 2.46 0.78 o
2 1 0 843.31 861.82 21.31 o
3 1 0 7.85 8.42 1.99 o
4 1 0 87.13 101.21 7.60 o
5 1 0 3.05 2.26 2.83 o
6 1 0 0.07 0.68 4.12 o
7 1 0 0.32 1.55 4.02 o
8 1 0 1.03 9.53 8.20 o
9 1 0 0.05 6.88 5.17 o
10 1 0 5.41 10.60 5.36 o
11 1 0 0.00 6.68 6.17 o
0 2 0 431.85 441.58 15.21 o
1 2 0 0.07 -0.36 0.87 o
2 2 0 106.74 118.66 6.61 o
3 2 0 1.84 -1.14 1.56 o
4 2 0 28.09 30.37 5.18 o
5 2 0 0.25 0.12 1.66 o
6 2 0 28.30 33.59 9.34 o
7 2 0 0.12 -1.45 4.71 o
8 2 0 1.28 8.74 4.98 o
9 2 0 0.18 1.98 4.69 o
10 2 0 0.03 4.10 8.59 o
11 2 0 0.04 8.10 5.11 o
1 3 0 0.14 1.76 1.20 o
2 3 0 31.74 35.70 4.55 o
3 3 0 1.88 2.74 1.66 o
4 3 0 8.23 7.72 3.48 o
5 3 0 1.65 2.20 1.55 o
6 3 0 0.00 -1.66 1.66 o
7 3 0 0.35 -2.46 4.41 o
8 3 0 0.91 0.44 4.88 o
9 3 0 0.01 6.42 3.73 o
10 3 0 1.55 1.59 0.39 o
0 4 0 1.96 -1.93 3.44 o
1 4 0 0.24 0.30 1.44 o
2 4 0 0.39 -2.77 3.62 o
3 4 0 0.00 3.78 3.74 o
4 4 0 0.00 -0.65 2.23 o
5 4 0 0.04 0.80 1.38 o
-12 1 1 0.81 2.06 9.02 o
-11 1 1 0.81 9.75 7.07 o
-10 1 1 7.45 3.10 8.35 o
-9 1 1 0.34 6.12 4.53 o
-8 1 1 20.34 16.43 5.51 o
-7 1 1 45.07 37.79 16.87 o
-6 1 1 3.77 29.24 13.39 o
-5 1 1 302.03 307.87 10.30 o
-4 1 1 40.18 51.20 5.26 o
-3 1 1 76.33 71.76 5.76 o
-2 1 1 55.17 59.51 5.01 o
-1 1 1 5345.69 5334.17 34.01 o
0 1 1 8.81 11.30 1.55 o
1 1 1 2150.77 2184.93 30.15 o
2 1 1 34.21 36.61 4.71 o
3 1 1 118.14 126.30 12.23 o
4 1 1 1.28 1.33 0.33 o
5 1 1 205.46 193.53 18.02 o
6 1 1 13.53 23.16 7.35 o
7 1 1 3.82 8.04 5.83 o
8 1 1 14.28 7.24 10.15 o
9 1 1 0.01 -0.33 1.97 o
10 1 1 1.42 -4.38 4.47 o
11 1 1 1.63 0.68 4.26 o
-11 2 1 3.85 9.10 6.31 o
-10 2 1 0.68 8.03 5.45 o
-9 2 1 5.79 0.38 3.59 o
-8 2 1 0.98 4.74 3.72 o
-7 2 1 0.43 0.44 2.59 o
-6 2 1 0.23 1.32 0.95 o
-5 2 1 6.93 8.94 2.23 o
-4 2 1 21.23 32.70 4.59 o
-3 2 1 185.33 171.87 9.01 o
-2 2 1 77.88 98.50 6.83 o
-1 2 1 38.27 40.19 2.97 o
0 2 1 79.08 76.44 4.79 o
1 2 1 254.76 263.30 12.81 o
2 2 1 8.72 26.64 7.23 o
3 2 1 85.95 85.49 10.21 o
4 2 1 1.38 0.36 0.97 o
5 2 1 0.51 0.59 4.36 o
6 2 1 3.46 3.23 3.58 o
7 2 1 0.22 1.46 3.07 o
8 2 1 2.18 4.02 3.98 o
9 2 1 4.75 4.52 4.01 o
10 2 1 0.66 0.30 8.25 o
-10 3 1 0.55 -0.08 2.55 o
-9 3 1 0.03 18.90 10.46 o
-8 3 1 0.61 7.51 8.32 o
-7 3 1 0.68 -2.06 7.77 o
-6 3 1 1.25 2.41 2.41 o
-5 3 1 0.49 -0.18 1.26 o
-4 3 1 10.98 7.77 3.69 o
-3 3 1 0.31 0.25 1.97 o
-2 3 1 4.29 6.85 2.86 o
-1 3 1 0.08 3.53 3.06 o
0 3 1 2.67 0.40 1.21 o
1 3 1 0.63 -0.72 3.04 o
2 3 1 7.55 7.23 3.64 o
3 3 1 0.01 0.77 2.27 o
4 3 1 1.87 -0.01 3.98 o
5 3 1 1.78 1.28 0.98 o
6 3 1 0.03 1.39 3.56 o
7 3 1 0.91 5.86 4.99 o
8 3 1 0.08 3.14 3.54 o
9 3 1 0.02 3.31 3.00 o
-7 4 1 0.00 -8.25 8.25 o
-6 4 1 0.20 7.52 6.09 o
-5 4 1 0.03 0.50 1.57 o
-4 4 1 0.46 0.58 1.31 o
-3 4 1 0.74 5.02 3.71 o
-2 4 1 0.38 1.52 2.09 o
-1 4 1 0.12 -1.30 2.05 o
0 4 1 0.34 0.36 1.49 o
1 4 1 0.57 2.96 3.14 o
2 4 1 0.08 2.45 3.65 o
3 4 1 0.52 0.63 3.57 o
4 4 1 0.04 3.48 3.84 o
5 4 1 0.01 -0.56 1.29 o
-13 0 2 0.29 1.51 7.52 o
-12 0 2 3.50 14.33 13.04 o
-11 0 2 11.82 15.79 10.34 o
-10 0 2 8.65 3.05 5.80 o
-9 0 2 58.83 53.33 18.06 o
-8 0 2 6.35 12.24 9.12 o
-7 0 2 57.82 60.91 14.96 o
-6 0 2 153.90 128.68 19.57 o
-5 0 2 10.97 10.40 5.04 o
-4 0 2 285.83 274.73 24.26 o
-3 0 2 122.59 114.93 11.14 o
-2 0 2 1942.23 1941.18 21.21 o
-1 0 2 0.03 1.43 0.84 o
0 0 2 2366.02 2375.66 46.58 o
1 0 2 95.11 99.63 10.92 o
2 0 2 251.34 271.10 21.55 o
3 0 2 15.53 12.73 6.13 o
4 0 2 209.99 202.66 24.25 o
5 0 2 44.88 54.86 14.37 o
6 0 2 1.99 0.06 2.78 o
7 0 2 72.90 65.45 19.66 o
8 0 2 9.94 21.10 11.06 o
9 0 2 15.97 16.43 12.26 o
10 0 2 3.21 5.76 5.95 o
11 0 2 0.08 -6.24 8.24 o
-12 1 2 1.36 6.54 7.45 o
-11 1 2 0.84 0.56 3.48 o
-10 1 2 5.75 7.79 5.99 o
-9 1 2 4.38 4.19 2.76 o
-8 1 2 1.42 5.71 7.97 o
-7 1 2 4.98 6.61 3.85 o
-6 1 2 5.91 8.01 4.19 o
-5 1 2 5.44 1.50 4.03 o
-4 1 2 34.39 34.03 4.42 o
-3 1 2 181.91 178.41 7.17 o
-2 1 2 147.28 141.77 5.90 o
-1 1 2 445.65 438.80 14.46 o
0 1 2 267.02 239.76 10.37 o
1 1 2 132.04 131.98 22.80 o
2 1 2 85.84 65.62 8.13 o
3 1 2 3.10 1.28 3.60 o
4 1 2 8.09 11.02 10.15 o
5 1 2 2.92 5.77 4.13 o
6 1 2 10.01 14.27 3.77 o
7 1 2 3.90 -1.48 9.94 o
8 1 2 1.21 -3.43 3.77 o
9 1 2 2.69 1.46 5.98 o
10 1 2 1.08 3.00 4.06 o
-12 2 2 0.02 -2.69 4.85 o
-11 2 2 3.21 -5.68 5.68 o
-10 2 2 0.35 0.61 6.76 o
-9 2 2 11.66 7.01 6.05 o
-8 2 2 0.16 4.10 3.54 o
-7 2 2 1.10 5.28 5.37 o
-6 2 2 9.70 12.19 3.15 o
-5 2 2 39.96 48.05 7.01 o
-4 2 2 4.26 3.68 1.56 o
-3 2 2 85.26 81.89 6.04 o
-2 2 2 34.70 28.83 3.73 o
-1 2 2 0.96 -0.05 0.95 o
0 2 2 51.51 37.28 4.71 o
1 2 2 72.48 70.30 8.74 o
2 2 2 0.42 -0.21 1.10 o
3 2 2 28.96 33.45 8.19 o
4 2 2 15.33 12.50 4.59 o
5 2 2 0.40 0.77 2.52 o
6 2 2 0.27 -0.85 1.68 o
7 2 2 8.16 4.45 3.35 o
8 2 2 0.19 7.27 4.63 o
9 2 2 3.25 5.32 4.29 o
10 2 2 0.00 -2.43 6.08 o
-10 3 2 1.39 16.83 12.96 o
-9 3 2 0.81 -9.65 10.26 o
-8 3 2 0.18 9.29 8.73 o
-7 3 2 0.13 1.18 3.72 o
-6 3 2 1.02 0.14 1.41 o
-5 3 2 2.49 3.50 2.11 o
-4 3 2 6.22 2.41 3.88 o
-3 3 2 13.20 10.49 3.74 o
-2 3 2 7.37 5.78 2.09 o
-1 3 2 20.48 19.42 3.56 o
0 3 2 7.89 11.88 3.80 o
1 3 2 10.79 12.05 4.33 o
2 3 2 11.34 8.31 7.58 o
3 3 2 0.86 0.09 2.24 o
4 3 2 0.76 -2.43 2.43 o
5 3 2 0.14 8.58 6.95 o
6 3 2 1.99 4.40 6.97 o
7 3 2 0.78 7.45 5.75 o
8 3 2 0.19 -5.12 7.58 o
-7 4 2 0.40 9.64 9.96 o
-6 4 2 0.29 0.55 7.24 o
-5 4 2 2.92 3.51 4.88 o
-4 4 2 0.23 2.81 2.68 o
-3 4 2 1.88 4.88 3.14 o
-2 4 2 0.50 2.30 3.04 o
-1 4 2 0.11 2.74 3.51 o
0 4 2 0.70 1.82 3.29 o
1 4 2 2.37 -1.52 2.36 o
2 4 2 0.01 -0.97 3.04 o
3 4 2 1.61 -0.99 5.32 o
4 4 2 0.00 1.78 5.30 o
5 4 2 0.35 11.31 10.00 o
6 4 2 0.23 6.27 6.03 o
-13 1 3 2.23 4.49 5.51 o
-12 1 3 2.51 5.48 10.86 o
-11 1 3 3.43 -1.40 6.18 o
-10 1 3 22.56 33.78 10.44 o
-9 1 3 48.67 51.71 12.19 o
-8 1 3 31.37 31.41 8.46 o
-7 1 3 2.58 9.82 4.38 o
-6 1 3 3.35 8.08 3.56 o
-5 1 3 156.97 162.04 13.79 o
-4 1 3 121.74 116.58 7.35 o
-3 1 3 88.85 89.55 5.36 o
-2 1 3 8.30 6.76 2.53 o
-1 1 3 0.12 -1.90 1.90 o
0 1 3 93.30 88.33 7.02 o
1 1 3 192.65 190.01 12.52 o
2 1 3 68.02 58.66 8.32 o
3 1 3 62.24 66.69 9.58 o
4 1 3 2.59 1.90 3.37 o
5 1 3 20.37 22.66 7.37 o
6 1 3 38.00 42.01 9.91 o
7 1 3 28.29 39.57 9.97 o
8 1 3 17.82 23.19 9.15 o
9 1 3 0.05 0.80 6.34 o
10 1 3 0.41 -2.59 3.52 o
-11 2 3 3.45 7.89 7.49 o
-10 2 3 3.09 5.05 12.10 o
-9 2 3 1.80 -1.77 3.45 o
-8 2 3 6.84 11.01 5.77 o
-7 2 3 28.08 40.92 9.43 o
-6 2 3 0.02 -0.39 2.55 o
-5 2 3 1.61 0.39 2.45 o
-4 2 3 31.86 32.04 3.76 o
-3 2 3 33.36 37.58 3.73 o
-2 2 3 111.65 112.89 6.53 o
-1 2 3 16.58 19.66 3.72 o
0 2 3 79.37 85.33 8.58 o
1 2 3 34.67 40.65 7.27 o
2 2 3 14.56 19.76 4.93 o
3 2 3 15.53 10.59 4.23 o
4 2 3 0.57 0.20 7.38 o
5 2 3 31.84 40.99 10.34 o
6 2 3 1.05 -2.93 4.97 o
7 2 3 0.38 1.86 2.49 o
8 2 3 3.20 0.41 6.19 o
9 2 3 1.47 0.50 3.24 o
-10 3 3 0.94 5.29 7.20 o
-9 3 3 0.07 -7.48 7.48 o
-8 3 3 0.00 -7.21 7.21 o
-7 3 3 1.28 -2.07 5.78 o
-6 3 3 8.31 4.14 8.13 o
-5 3 3 0.72 -1.32 2.91 o
-4 3 3 16.75 14.86 5.71 o
-3 3 3 0.84 -0.29 2.20 o
-2 3 3 0.47 -1.66 1.66 o
-1 3 3 2.93 3.19 1.94 o
0 3 3 11.21 11.00 4.01 o
1 3 3 0.20 1.80 4.90 o
2 3 3 10.55 27.51 12.24 o
3 3 3 0.30 7.14 8.08 o
4 3 3 1.44 6.79 6.61 o
5 3 3 0.01 9.63 8.86 o
6 3 3 0.06 0.07 4.02 o
7 3 3 0.16 4.40 5.74 o
-7 4 3 0.39 0.25 3.22 o
-6 4 3 0.00 -0.62 0.62 o
-5 4 3 0.03 2.27 2.54 o
-4 4 3 0.12 0.26 2.36 o
-3 4 3 0.15 0.75 1.88 o
-2 4 3 0.50 0.10 1.56 o
-1 4 3 0.00 -0.99 0.99 o
0 4 3 0.85 2.55 3.09 o
1 4 3 0.23 3.33 5.15 o
2 4 3 0.39 -4.12 4.77 o
3 4 3 0.06 1.15 0.35 o
4 4 3 0.05 8.19 7.88 o
5 4 3 0.47 5.08 6.36 o
-13 0 4 0.07 -2.03 3.24 o
-12 0 4 1.36 -4.02 6.97 o
-11 0 4 3.69 20.14 12.11 o
-10 0 4 112.30 97.62 22.65 o
-9 0 4 16.36 19.45 10.59 o
-8 0 4 109.67 102.25 19.97 o
-7 0 4 3.12 2.67 3.82 o
-6 0 4 94.93 98.41 16.90 o
-5 0 4 33.22 32.53 8.00 o
-4 0 4 964.61 942.01 22.14 o
-3 0 4 13.67 16.21 2.12 o
-2 0 4 507.80 522.47 24.29 o
-1 0 4 16.33 14.63 3.98 o
0 0 4 1031.17 1066.96 40.02 o
1 0 4 51.02 61.93 10.73 o
2 0 4 229.41 228.16 22.98 o
3 0 4 0.51 0.99 0.46 o
4 0 4 66.68 68.61 15.39 o
5 0 4 16.09 15.32 6.50 o
6 0 4 134.48 131.95 24.90 o
7 0 4 14.98 14.18 8.44 o
8 0 4 4.62 7.17 4.61 o
9 0 4 0.86 14.15 12.33 o
-13 1 4 0.00 -1.33 8.38 o
-12 1 4 1.80 -0.64 7.03 o
-11 1 4 0.39 -0.03 5.11 o
-10 1 4 1.29 0.35 3.86 o
-9 1 4 3.92 -2.07 4.60 o
-8 1 4 37.96 32.16 8.19 o
-7 1 4 2.24 4.09 2.83 o
-6 1 4 33.37 29.84 6.77 o
-5 1 4 1.95 1.65 0.59 o
-4 1 4 14.13 17.37 2.69 o
-3 1 4 28.58 28.33 3.76 o
-2 1 4 0.28 1.23 5.36 o
-1 1 4 25.04 24.47 8.12 o
0 1 4 40.24 42.44 5.51 o
1 1 4 6.60 5.30 1.67 o
2 1 4 30.65 34.99 6.41 o
3 1 4 4.01 3.45 2.57 o
4 1 4 54.68 55.75 11.39 o
5 1 4 0.29 2.18 8.07 o
6 1 4 4.60 7.03 4.73 o
7 1 4 0.74 7.34 6.47 o
8 1 4 1.59 2.81 5.69 o
9 1 4 1.24 5.21 6.70 o
-12 2 4 0.03 -5.55 5.55 o
-10 2 4 7.10 3.47 5.53 o
-9 2 4 1.33 6.82 6.49 o
-8 2 4 17.86 8.76 8.64 o
-7 2 4 0.90 -0.56 2.08 o
-6 2 4 0.15 0.25 2.68 o
-5 2 4 12.72 14.72 4.84 o
-4 2 4 39.96 39.88 6.52 o
-3 2 4 1.94 1.71 0.41 o
-2 2 4 78.10 76.02 12.78 o
-1 2 4 11.30 7.80 3.93 o
0 2 4 30.49 25.24 8.38 o
1 2 4 10.83 13.27 5.88 o
2 2 4 1.97 4.17 4.85 o
3 2 4 1.05 4.76 5.27 o
4 2 4 7.02 4.50 4.04 o
5 2 4 0.83 -2.54 3.06 o
6 2 4 6.80 10.44 10.51 o
7 2 4 1.63 8.86 7.77 o
8 2 4 0.05 -2.83 5.85 o
-10 3 4 0.29 -11.23 11.23 o
-9 3 4 1.20 -3.64 6.61 o
-8 3 4 8.93 3.68 6.64 o
-7 3 4 1.39 9.10 11.60 o
-6 3 4 5.10 4.17 2.77 o
-5 3 4 0.01 3.02 6.62 o
-4 3 4 0.96 3.63 5.02 o
-3 3 4 2.46 1.65 2.37 o
-2 3 4 0.03 -0.01 2.64 o
-1 3 4 5.19 5.82 4.10 o
0 3 4 2.08 10.33 8.44 o
1 3 4 2.44 6.07 6.98 o
2 3 4 2.02 0.48 3.07 o
3 3 4 0.91 2.20 2.95 o
4 3 4 11.11 5.89 3.40 o
5 3 4 0.15 1.66 1.52 o
6 3 4 1.60 -1.63 1.63 o
-7 4 4 0.45 0.18 3.53 o
-6 4 4 1.33 -8.98 9.45 o
-5 4 4 1.32 1.15 2.45 o
-4 4 4 0.21 1.44 2.24 o
-3 4 4 0.31 -1.19 2.05 o
-2 4 4 0.17 3.46 2.60 o
-1 4 4 0.22 -1.91 2.47 o
0 4 4 0.12 6.89 8.62 o
1 4 4 0.51 1.08 3.48 o
2 4 4 0.81 1.78 4.95 o
3 4 4 0.17 7.63 7.38 o
-13 1 5 0.26 -1.30 7.00 o
-12 1 5 0.93 5.70 3.72 o
-11 1 5 28.35 24.88 9.13 o
-10 1 5 0.84 10.09 4.65 o
-9 1 5 83.15 89.51 14.61 o
-8 1 5 0.00 -1.46 1.46 o
-7 1 5 0.02 2.47 2.57 o
-6 1 5 0.28 0.79 1.34 o
-5 1 5 244.53 253.42 11.63 o
-4 1 5 2.52 4.55 1.48 o
-3 1 5 336.47 314.85 12.06 o
-2 1 5 0.73 1.31 5.24 o
-1 1 5 344.36 328.81 13.13 o
0 1 5 0.52 -1.61 1.61 o
1 1 5 129.76 130.83 12.18 o
2 1 5 0.07 0.05 3.58 o
3 1 5 13.78 13.64 4.95 o
4 1 5 0.56 0.03 2.32 o
5 1 5 78.15 79.18 13.77 o
6 1 5 0.00 1.39 6.38 o
7 1 5 9.63 9.20 7.71 o
8 1 5 0.03 1.32 2.63 o
9 1 5 1.83 -1.09 1.09 o
-12 2 5 0.24 10.92 9.17 o
-11 2 5 0.29 -14.57 14.57 o
-10 2 5 0.46 -5.23 5.37 o
-9 2 5 27.92 33.34 15.47 o
-8 2 5 4.06 2.37 8.53 o
-7 2 5 34.02 53.41 16.61 o
-6 2 5 3.66 0.56 5.53 o
-5 2 5 0.73 6.03 2.98 o
-4 2 5 0.66 0.99 1.58 o
-3 2 5 4.50 5.64 3.01 o
-2 2 5 0.00 -1.25 1.67 o
-1 2 5 11.33 7.23 3.17 o
0 2 5 0.32 -0.59 4.58 o
1 2 5 5.64 0.19 5.59 o
2 2 5 0.44 2.99 6.24 o
3 2 5 47.59 54.35 16.51 o
4 2 5 2.24 0.86 6.28 o
5 2 5 10.66 13.06 8.02 o
6 2 5 0.31 -3.64 6.11 o
7 2 5 0.91 4.96 4.54 o
-10 3 5 0.00 4.42 10.03 o
-9 3 5 1.19 -2.27 8.73 o
-8 3 5 0.01 -4.40 4.40 o
-7 3 5 3.61 7.20 10.79 o
-6 3 5 0.19 -0.44 1.98 o
-5 3 5 0.03 3.72 2.53 o
-4 3 5 0.01 -1.03 2.69 o
-3 3 5 5.66 3.33 2.31 o
-2 3 5 0.34 0.79 1.34 o
-1 3 5 1.00 -3.62 7.04 o
0 3 5 0.01 -9.61 9.61 o
1 3 5 1.72 1.02 2.15 o
2 3 5 0.15 25.56 12.71 o
3 3 5 1.38 4.11 6.18 o
4 3 5 0.00 6.31 2.38 o
5 3 5 0.01 -3.68 6.70 o
-6 4 5 0.24 5.14 3.72 o
-5 4 5 0.01 1.01 1.53 o
-4 4 5 0.22 1.17 3.77 o
-3 4 5 0.02 -0.24 3.19 o
-2 4 5 0.04 -1.91 1.91 o
-1 4 5 0.03 -0.13 3.53 o
0 4 5 0.01 12.05 12.50 o
1 4 5 0.00 0.30 3.30 o
2 4 5 0.04 -9.66 9.66 o
-14 0 6 1.22 7.23 8.18 o
-13 0 6 3.93 -2.35 5.06 o
-12 0 6 12.97 24.19 12.27 o
-11 0 6 18.04 28.93 14.38 o
-10 0 6 67.35 67.79 17.47 o
-9 0 6 10.21 10.79 6.18 o
-8 0 6 2.24 3.98 5.30 o
-7 0 6 4.03 2.03 3.67 o
-6 0 6 153.65 135.86 32.21 o
-5 0 6 45.63 40.57 4.70 o
-4 0 6 138.55 158.56 8.87 o
-3 0 6 1.75 2.72 1.09 o
-2 0 6 106.75 104.21 12.87 o
-1 0 6 45.31 39.28 8.62 o
0 0 6 209.67 215.72 21.68 o
1 0 6 6.35 15.26 7.45 o
2 0 6 1.65 -0.15 3.40 o
3 0 6 11.47 12.25 7.98 o
4 0 6 74.15 80.32 18.07 o
5 0 6 13.16 25.01 11.49 o
6 0 6 27.94 16.18 7.78 o
7 0 6 1.57 -1.19 1.19 o
8 0 6 1.01 5.01 5.53 o
-13 1 6 0.81 -10.80 12.36 o
-12 1 6 0.02 -9.34 9.34 o
-10 1 6 11.69 9.08 10.55 o
-9 1 6 0.48 -2.37 2.37 o
-8 1 6 21.73 25.61 11.89 o
-7 1 6 5.01 4.70 2.08 o
-6 1 6 0.18 0.77 3.44 o
-5 1 6 9.74 13.00 3.11 o
-4 1 6 19.95 27.19 4.13 o
-3 1 6 7.02 4.20 1.81 o
-2 1 6 9.81 17.02 8.09 o
-1 1 6 15.06 16.44 5.87 o
0 1 6 0.02 7.79 4.74 o
1 1 6 3.38 4.15 2.38 o
2 1 6 26.77 20.12 8.18 o
3 1 6 0.84 -5.84 5.84 o
4 1 6 9.91 10.87 7.13 o
5 1 6 2.18 0.14 2.57 o
6 1 6 0.83 2.08 5.20 o
7 1 6 0.10 14.36 10.56 o
-12 2 6 0.08 -10.93 11.27 o
-11 2 6 2.16 8.79 8.89 o
-10 2 6 6.25 -0.28 4.71 o
-9 2 6 0.39 2.51 5.78 o
-8 2 6 4.37 2.56 6.43 o
-7 2 6 1.85 10.71 4.67 o
-6 2 6 2.82 2.68 2.26 o
-5 2 6 6.11 6.33 2.91 o
-4 2 6 19.75 19.20 4.25 o
-3 2 6 1.23 1.63 5.27 o
-2 2 6 15.35 17.74 8.10 o
-1 2 6 4.67 14.94 8.04 o
0 2 6 2.62 -1.31 2.41 o
1 2 6 5.83 15.36 7.80 o
2 2 6 0.53 2.18 2.08 o
3 2 6 0.07 2.60 4.19 o
4 2 6 5.16 4.19 3.91 o
5 2 6 2.17 4.12 4.11 o
6 2 6 1.10 -4.93 6.78 o
-10 3 6 2.05 16.42 11.94 o
-9 3 6 0.14 1.33 7.66 o
-8 3 6 4.99 11.08 8.44 o
-7 3 6 1.55 4.78 3.24 o
-6 3 6 0.02 4.93 3.48 o
-5 3 6 3.44 0.11 2.57 o
-4 3 6 1.09 3.12 2.36 o
-3 3 6 3.61 4.30 3.63 o
-2 3 6 0.46 2.30 6.47 o
-1 3 6 2.30 3.35 5.05 o
0 3 6 0.07 -5.22 6.01 o
1 3 6 0.44 11.53 8.00 o
2 3 6 3.98 9.66 8.84 o
3 3 6 0.28 -7.70 9.28 o
4 3 6 2.29 1.31 3.70 o
-6 4 6 0.32 -0.78 1.38 o
-5 4 6 0.11 1.92 3.56 o
-4 4 6 0.01 -1.90 3.26 o
-3 4 6 0.00 0.16 1.20 o
-2 4 6 0.00 -0.91 2.36 o
-1 4 6 0.25 -2.03 2.04 o
0 4 6 0.73 -1.14 3.28 o
-13 1 7 0.12 3.14 10.11 o
-12 1 7 10.57 9.58 7.37 o
-11 1 7 6.72 16.46 9.28 o
-10 1 7 12.18 18.75 11.32 o
-9 1 7 0.26 0.83 4.99 o
-8 1 7 0.14 5.01 3.98 o
-7 1 7 15.22 10.54 3.66 o
-6 1 7 24.67 23.58 4.62 o
-5 1 7 0.59 -0.37 1.20 o
-4 1 7 9.08 8.09 2.21 o
-3 1 7 13.74 6.00 5.02 o
-2 1 7 21.05 22.94 8.04 o
-1 1 7 4.64 4.65 0.18 o
0 1 7 21.13 27.66 11.23 o
1 1 7 9.37 9.68 2.40 o
2 1 7 1.90 8.66 8.98 o
3 1 7 4.06 7.98 6.79 o
4 1 7 15.25 16.15 10.13 o
5 1 7 8.01 12.06 6.31 o
6 1 7 4.42 2.82 4.68 o
7 1 7 0.07 2.46 2.93 o
-12 2 7 1.66 1.07 1.19 o
-11 2 7 1.53 1.50 9.07 o
-10 2 7 0.45 6.78 8.30 o
-9 2 7 7.46 14.85 11.58 o
-8 2 7 1.22 4.67 3.30 o
-7 2 7 0.12 -0.91 2.39 o
-6 2 7 9.76 14.48 4.50 o
-5 2 7 12.32 16.28 4.50 o
-4 2 7 15.39 13.57 3.60 o
-3 2 7 0.60 7.50 7.25 o
-2 2 7 18.44 25.98 9.73 o
-1 2 7 5.06 -0.62 4.53 o
0 2 7 10.35 3.80 3.05 o
1 2 7 3.89 5.67 0.71 o
2 2 7 0.04 -1.00 5.75 o
3 2 7 5.23 5.64 7.02 o
4 2 7 2.45 13.06 10.87 o
5 2 7 0.60 6.25 8.76 o
-9 3 7 0.09 3.66 3.07 o
-8 3 7 1.47 7.19 4.76 o
-7 3 7 0.17 1.65 3.16 o
-6 3 7 2.53 4.00 3.10 o
-5 3 7 0.03 1.90 2.95 o
-4 3 7 0.53 0.47 1.77 o
-3 3 7 0.00 1.16 2.36 o
-2 3 7 1.10 -2.48 4.83 o
-1 3 7 0.93 -5.56 5.56 o
0 3 7 5.00 10.27 8.13 o
1 3 7 0.38 -0.26 7.36 o
2 3 7 1.48 6.43 6.73 o
3 3 7 0.01 -5.52 5.52 o
-4 4 7 0.37 2.49 3.03 o
-3 4 7 0.00 -0.63 0.63 o
-2 4 7 0.28 0.95 1.46 o
-7 0 8 7.23 13.42 4.18 o
-6 0 8 10.44 15.07 4.59 o
-5 0 8 13.70 10.96 2.97 o
1 0 8 1.01 9.60 6.87 o
2 0 8 3.36 7.16 3.45 o
3 0 8 17.32 22.41 9.93 o
4 0 8 2.54 2.30 0.83 o
5 0 8 5.58 13.17 9.66 o
6 0 8 0.01 8.47 9.78 o
-13 1 8 0.96 2.23 1.22 o
-12 1 8 0.00 -7.94 7.94 o
-11 1 8 1.30 1.70 3.11 o
-10 1 8 1.06 17.46 11.34 o
-9 1 8 0.02 -0.63 1.44 o
-8 1 8 0.64 1.63 1.72 o
-7 1 8 3.11 3.43 1.96 o
-6 1 8 12.96 13.13 3.36 o
-5 1 8 7.14 4.70 1.99 o
-4 1 8 0.24 10.82 7.10 o
-3 1 8 9.81 15.25 7.28 o
-2 1 8 10.11 17.21 7.28 o
-1 1 8 10.21 12.41 6.77 o
0 1 8 0.02 -3.45 4.92 o
1 1 8 0.96 -0.78 3.62 o
2 1 8 1.29 10.59 8.15 o
3 1 8 0.97 2.99 5.91 o
4 1 8 0.45 -4.10 6.67 o
5 1 8 1.14 7.17 8.88 o
6 1 8 1.81 -3.29 8.12 o
-12 2 8 0.11 -0.37 3.05 o
-11 2 8 0.71 0.80 5.48 o
-10 2 8 0.60 -0.78 6.53 o
-9 2 8 0.28 0.14 4.19 o
-8 2 8 1.49 7.55 5.38 o
-7 2 8 4.39 4.38 2.26 o
-6 2 8 1.22 5.82 2.97 o
-5 2 8 2.66 7.45 3.03 o
-4 2 8 17.27 14.16 4.39 o
-3 2 8 1.26 0.27 3.81 o
-2 2 8 9.66 23.03 9.73 o
-1 2 8 9.77 10.06 7.09 o
0 2 8 0.34 -6.56 6.56 o
1 2 8 1.88 4.12 1.90 o
2 2 8 1.42 -5.38 8.43 o
3 2 8 1.10 9.77 9.57 o
4 2 8 0.00 -0.94 3.58 o
-9 3 8 0.10 -2.41 6.95 o
-8 3 8 0.35 0.39 3.12 o
-7 3 8 0.33 1.99 3.40 o
-6 3 8 3.25 0.61 4.29 o
-5 3 8 1.81 1.97 3.29 o
-4 3 8 0.10 -0.03 2.22 o
-3 3 8 2.38 0.93 2.13 o
-2 3 8 2.64 16.08 11.29 o
-1 3 8 2.13 7.13 9.82 o
0 3 8 0.57 7.83 9.01 o
1 3 8 0.54 4.32 4.04 o
2 3 8 0.12 1.26 2.76 o
-13 1 9 0.26 7.05 11.31 o
-12 1 9 0.74 5.78 9.30 o
-11 1 9 4.54 3.74 5.96 o
-10 1 9 0.61 3.40 7.46 o
-9 1 9 14.36 12.86 6.51 o
-8 1 9 0.11 -0.91 1.01 o
-7 1 9 2.52 5.49 3.22 o
-6 1 9 1.57 -0.85 1.68 o
-5 1 9 134.99 153.78 14.95 o
-4 1 9 0.12 -0.56 0.56 o
-3 1 9 100.73 135.22 22.97 o
-2 1 9 4.13 9.97 8.25 o
-1 1 9 0.08 0.88 3.83 o
0 1 9 0.24 -0.32 4.74 o
1 1 9 12.02 8.53 7.07 o
2 1 9 2.07 2.66 1.35 o
3 1 9 0.62 4.14 6.87 o
4 1 9 1.20 -1.97 4.55 o
5 1 9 0.00 6.55 8.72 o
-11 2 9 0.02 -2.61 6.37 o
-10 2 9 0.74 9.73 7.59 o
-9 2 9 1.46 3.88 2.59 o
-8 2 9 0.01 4.85 3.78 o
-7 2 9 11.74 15.70 4.92 o
-6 2 9 0.89 2.37 1.87 o
-5 2 9 2.35 6.75 3.35 o
-4 2 9 1.28 8.67 8.16 o
-3 2 9 9.02 4.46 4.28 o
-2 2 9 2.66 6.42 6.78 o
-1 2 9 5.95 -1.23 3.65 o
0 2 9 1.41 4.95 7.83 o
1 2 9 0.00 1.53 3.30 o
2 2 9 0.01 4.19 8.46 o
3 2 9 0.17 4.47 8.37 o
-8 3 9 0.53 -0.55 2.16 o
-7 3 9 0.05 0.72 2.50 o
-6 3 9 0.30 -1.97 1.97 o
-5 3 9 0.10 4.01 8.71 o
-4 3 9 0.00 0.20 4.26 o
-3 3 9 0.70 -3.49 3.94 o
-2 3 9 0.63 7.49 6.57 o
-1 3 9 0.10 -4.65 5.27 o
0 3 9 1.07 -7.71 10.69 o
-9 1 10 0.09 1.88 2.95 o
-8 1 10 6.36 3.57 2.78 o
-7 1 10 0.02 -0.23 1.36 o
-6 1 10 3.56 7.57 4.52 o
-5 1 10 0.30 1.49 6.48 o
-4 1 10 4.34 18.30 9.51 o
-3 1 10 0.00 5.31 4.67 o
-2 1 10 7.39 13.86 6.50 o
-1 1 10 0.18 2.93 3.83 o
0 1 10 0.30 18.47 10.56 o
1 1 10 0.00 5.66 7.03 o
2 1 10 0.01 1.64 2.46 o
3 1 10 0.08 -1.11 1.11 o
4 1 10 0.50 5.55 5.20 o
-11 2 10 0.14 4.94 5.61 o
-10 2 10 2.21 10.27 8.22 o
-9 2 10 0.00 -0.22 1.76 o
-8 2 10 0.30 -0.74 2.80 o
-7 2 10 0.05 0.87 2.82 o
-6 2 10 6.58 4.66 3.13 o
-5 2 10 0.01 -1.22 1.99 o
-4 2 10 13.85 16.15 6.67 o
-3 2 10 0.00 -2.21 2.21 o
-2 2 10 0.82 5.73 6.85 o
-1 2 10 0.16 0.45 1.41 o
0 2 10 2.54 9.62 8.13 o
1 2 10 0.03 15.89 11.92 o
2 2 10 1.03 8.78 7.44 o
-7 3 10 0.16 11.15 9.67 o
-6 3 10 1.12 0.92 3.56 o
-5 3 10 0.30 5.71 4.13 o
-4 3 10 0.49 0.19 11.61 o
-3 3 10 0.13 -4.57 6.29 o
-2 3 10 1.87 11.65 9.53 o
-9 1 11 2.45 0.71 2.79 o
-8 1 11 0.96 3.41 2.59 o
-7 1 11 7.89 5.87 3.30 o
-6 1 11 0.03 -2.38 2.64 o
-5 1 11 31.79 39.84 8.28 o
-11 2 11 0.05 -1.36 4.69 o
-10 2 11 0.08 0.51 1.84 o
-9 2 11 1.72 1.56 1.91 o
-8 2 11 0.52 -1.82 2.67 o
-7 2 11 2.83 2.99 5.36 o
-6 2 11 2.44 9.80 4.15 o
-5 2 11 0.53 -0.85 1.56 o
-4 2 11 2.42 4.53 4.97 o
-3 2 11 4.86 1.10 4.76 o
-2 2 11 0.19 1.31 1.97 o
-1 2 11 0.51 0.42 4.83 o
0 2 11 0.04 4.28 5.19 o
-9 2 12 0.93 3.97 3.94 o
-8 2 12 0.18 -0.02 0.22 o
-7 2 12 0.28 7.30 5.21 o
-6 2 12 0.02 2.37 2.64 o
-5 2 12 0.50 1.02 5.67 o
-4 2 12 0.00 5.17 7.72 o
-3 2 12 0.83 -0.47 4.07 o
-2 2 12 0.43 -1.56 2.75 o
