#------------------------------------------------------------------------------
#$Date: 2019-11-22 19:03:52 +0200 (Fri, 22 Nov 2019) $
#$Revision: 231268 $
#$URL: file:///home/coder/svn-repositories/cod/cif/4/51/63/4516346.cif $
#------------------------------------------------------------------------------
#
# This file is available in the Crystallography Open Database (COD),
# http://www.crystallography.net/
#
# All data on this site have been placed in the public domain by the
# contributors.
#
data_4516346
loop_
_publ_author_name
'Patyk, Ewa'
'Podsiad\/lo, Marcin'
'Katrusiak, Andrzej'
_publ_section_title
;
 CH&#x00B7;&#x00B7;&#x00B7;N Bonds and Dynamics in Isostructural
 Pyrimidine Polymorphs
;
_journal_issue                   8
_journal_name_full               'Crystal Growth &amp; Design'
_journal_page_first              4039
_journal_paper_doi               10.1021/acs.cgd.5b00657
_journal_volume                  15
_journal_year                    2015
_chemical_formula_moiety         'C4 H4 N2'
_chemical_formula_sum            'C4 H4 N2'
_chemical_formula_weight         80.09
_chemical_melting_point          293.15
_chemical_name_common            pyrimidine
_chemical_name_systematic
; 
pyrimidine phase I
;
_space_group_IT_number           33
_space_group_name_Hall           'P 2c -2n'
_space_group_name_H-M_alt        'P n a 21'
_symmetry_cell_setting           orthorhombic
_symmetry_space_group_name_Hall  'P 2c -2n'
_symmetry_space_group_name_H-M   'P n a 21'
_atom_sites_solution_hydrogens   geom
_atom_sites_solution_primary     direct
_atom_sites_solution_secondary   difmap
_audit_creation_method           SHELXL-97
_cell_angle_alpha                90.00
_cell_angle_beta                 90.00
_cell_angle_gamma                90.00
_cell_formula_units_Z            4
_cell_length_a                   11.660(3)
_cell_length_b                   9.479(3)
_cell_length_c                   3.7837(12)
_cell_measurement_reflns_used    3043
_cell_measurement_temperature    235.0(1)
_cell_measurement_theta_max      28.03
_cell_measurement_theta_min      3.49
_cell_volume                     418.2(2)
_computing_cell_refinement       'CrysAlisRED (Oxford Diffraction, 2004)'
_computing_data_collection       'CrysAlisCCD (Oxford Diffraction, 2004)'
_computing_data_reduction        'CrysAlisRED (Oxford Diffraction, 2004)'
_computing_molecular_graphics    'SHELXTL (Sheldrick, 1990)'
_computing_publication_material  'SHELXL--97 (Sheldrick, 1997)'
_computing_structure_refinement  'SHELXL--97 (Sheldrick, 1997)'
_computing_structure_solution    'SHELXS--97 (Sheldrick, 1997)'
_diffrn_ambient_pressure         100
_diffrn_ambient_temperature      235.0(1)
_diffrn_measured_fraction_theta_full 0.924
_diffrn_measured_fraction_theta_max 0.924
_diffrn_measurement_device_type  'KM-4 CCD'
_diffrn_measurement_method       \w-scans
_diffrn_radiation_monochromator  graphite
_diffrn_radiation_source         'fine-focus sealed tube'
_diffrn_radiation_type           MoK\a
_diffrn_radiation_wavelength     0.71073
_diffrn_reflns_av_R_equivalents  0.0671
_diffrn_reflns_av_sigmaI/netI    0.0653
_diffrn_reflns_limit_h_max       14
_diffrn_reflns_limit_h_min       -14
_diffrn_reflns_limit_k_max       11
_diffrn_reflns_limit_k_min       -11
_diffrn_reflns_limit_l_max       4
_diffrn_reflns_limit_l_min       -4
_diffrn_reflns_number            3043
_diffrn_reflns_theta_full        28.03
_diffrn_reflns_theta_max         28.03
_diffrn_reflns_theta_min         3.49
_diffrn_standards_decay_%        0
_diffrn_standards_interval_count 0
_diffrn_standards_number         0
_exptl_absorpt_coefficient_mu    0.084
_exptl_absorpt_correction_T_max  0.983
_exptl_absorpt_correction_T_min  0.983
_exptl_absorpt_correction_type   numerical
_exptl_absorpt_process_details
; 
 Correction for absorption was made using XEMP (SHELXTL, 
 Sheldrick (1990)).
;
_exptl_crystal_colour            colourless
_exptl_crystal_density_diffrn    1.272
_exptl_crystal_density_method    'not measured'
_exptl_crystal_description       irregular
_exptl_crystal_F_000             168
_exptl_crystal_size_max          0.20
_exptl_crystal_size_mid          0.20
_exptl_crystal_size_min          0.20
_refine_diff_density_max         0.128
_refine_diff_density_min         -0.161
_refine_diff_density_rms         0.037
_refine_ls_abs_structure_details 'Flack H D (1983), Acta Cryst. A39, 876-881'
_refine_ls_abs_structure_Flack   -2(7)
_refine_ls_extinction_coef       0.065(10)
_refine_ls_extinction_expression Fc^*^=kFc[1+0.001xFc^2^\l^3^/sin(2\q)]^-1/4^
_refine_ls_extinction_method     SHELXL
_refine_ls_goodness_of_fit_ref   1.009
_refine_ls_hydrogen_treatment    constr
_refine_ls_matrix_type           full
_refine_ls_number_parameters     56
_refine_ls_number_reflns         886
_refine_ls_number_restraints     1
_refine_ls_restrained_S_all      1.008
_refine_ls_R_factor_all          0.1077
_refine_ls_R_factor_gt           0.0540
_refine_ls_shift/su_max          0.000
_refine_ls_shift/su_mean         0.000
_refine_ls_structure_factor_coef Fsqd
_refine_ls_weighting_details
'calc w=1/[\s^2^(Fo^2^)+(0.0418P)^2^+0.0000P] where P=(Fo^2^+2Fc^2^)/3'
_refine_ls_weighting_scheme      calc
_refine_ls_wR_factor_gt          0.1032
_refine_ls_wR_factor_ref         0.1274
_reflns_number_gt                528
_reflns_number_total             886
_reflns_threshold_expression     >2sigma(I)
_cod_data_source_file            cg5b00657_si_002.cif
_cod_data_source_block           phaseI_235K
_cod_database_code               4516346
loop_
_symmetry_equiv_pos_as_xyz
'x, y, z'
'-x, -y, z+1/2'
'x+1/2, -y+1/2, z'
'-x+1/2, y+1/2, z+1/2'
loop_
_atom_site_label
_atom_site_type_symbol
_atom_site_fract_x
_atom_site_fract_y
_atom_site_fract_z
_atom_site_U_iso_or_equiv
_atom_site_adp_type
_atom_site_occupancy
_atom_site_symmetry_multiplicity
_atom_site_calc_flag
_atom_site_refinement_flags
N1 N 0.1274(2) 0.3972(2) 0.0232(11) 0.0591(9) Uani 1 1 d .
N3 N 0.01211(19) 0.1908(3) 0.0161(8) 0.0616(10) Uani 1 1 d .
C2 C 0.0305(2) 0.3259(3) 0.0746(12) 0.0567(10) Uani 1 1 d .
H2 H -0.0312 0.3773 0.1618 0.068 Uiso 1 1 calc R
C4 C 0.1013(3) 0.1188(3) -0.1051(11) 0.0599(10) Uani 1 1 d .
H4 H 0.0923 0.0232 -0.1527 0.072 Uiso 1 1 calc R
C5 C 0.2062(3) 0.1795(3) -0.1628(9) 0.0562(10) Uani 1 1 d .
H5 H 0.2683 0.1274 -0.2449 0.067 Uiso 1 1 calc R
C6 C 0.2148(3) 0.3200(3) -0.0938(8) 0.0566(12) Uani 1 1 d .
H6 H 0.2850 0.3642 -0.1302 0.068 Uiso 1 1 calc R
loop_
_atom_site_aniso_label
_atom_site_aniso_U_11
_atom_site_aniso_U_22
_atom_site_aniso_U_33
_atom_site_aniso_U_23
_atom_site_aniso_U_13
_atom_site_aniso_U_12
N1 0.0493(14) 0.0449(13) 0.083(2) -0.0047(16) -0.0058(17) -0.0015(13)
N3 0.0466(14) 0.0499(15) 0.088(3) -0.002(2) 0.0025(16) -0.0018(13)
C2 0.0433(17) 0.054(2) 0.073(3) -0.008(2) -0.0043(19) 0.0104(15)
C4 0.062(2) 0.0406(17) 0.077(3) -0.0068(17) -0.0074(17) 0.0032(16)
C5 0.0470(18) 0.058(2) 0.064(3) -0.012(2) -0.0010(17) 0.0053(16)
C6 0.0414(15) 0.060(2) 0.068(3) -0.005(2) -0.0017(15) -0.0069(15)
loop_
_atom_type_symbol
_atom_type_description
_atom_type_scat_dispersion_real
_atom_type_scat_dispersion_imag
_atom_type_scat_source
C C 0.0033 0.0016 'International Tables Vol C Tables 4.2.6.8 and 6.1.1.4'
H H 0.0000 0.0000 'International Tables Vol C Tables 4.2.6.8 and 6.1.1.4'
N N 0.0061 0.0033 'International Tables Vol C Tables 4.2.6.8 and 6.1.1.4'
loop_
_geom_angle_atom_site_label_1
_geom_angle_atom_site_label_2
_geom_angle_atom_site_label_3
_geom_angle
C6 N1 C2 114.8(3)
C2 N3 C4 115.5(3)
N3 C2 N1 127.4(3)
N3 C4 C5 122.7(3)
C6 C5 C4 116.5(3)
N1 C6 C5 123.0(3)
loop_
_geom_bond_atom_site_label_1
_geom_bond_atom_site_label_2
_geom_bond_distance
N1 C6 1.330(4)
N1 C2 1.330(3)
N3 C2 1.317(3)
N3 C4 1.326(3)
C4 C5 1.368(4)
C5 C6 1.362(4)
loop_
_refln_index_h
_refln_index_k
_refln_index_l
_refln_F_squared_calc
_refln_F_squared_meas
_refln_F_squared_sigma
_refln_observed_status
5 1 -4 3.10 1.51 2.12 o
6 1 -4 2.39 2.28 1.94 o
7 1 -4 0.42 0.35 1.85 o
4 2 -4 0.52 -1.09 1.81 o
5 2 -4 1.47 -0.95 1.38 o
6 2 -4 0.40 -1.46 2.14 o
7 2 -4 1.15 1.13 1.91 o
8 2 -4 0.11 1.02 2.29 o
3 3 -4 4.79 4.34 3.16 o
4 3 -4 0.29 -0.72 1.34 o
5 3 -4 4.39 2.69 1.69 o
6 3 -4 0.23 1.05 1.44 o
7 3 -4 1.73 3.86 3.32 o
8 3 -4 0.11 1.17 2.52 o
2 4 -4 0.04 4.04 2.87 o
3 4 -4 2.04 1.58 2.25 o
4 4 -4 0.06 0.42 1.86 o
5 4 -4 0.14 -2.18 3.00 o
6 4 -4 0.29 -0.14 1.65 o
2 5 -4 0.99 4.65 3.08 o
3 5 -4 2.39 2.27 2.24 o
4 5 -4 0.44 0.32 1.48 o
5 5 -4 0.14 2.42 3.57 o
0 6 -4 3.23 -2.30 2.30 o
1 6 -4 2.46 5.26 1.90 o
2 6 -4 2.15 2.41 1.61 o
3 7 -4 0.03 -4.86 4.86 o
4 0 -3 22.33 19.66 4.52 o
6 0 -3 7.30 7.73 2.99 o
2 1 -3 62.54 43.71 7.13 o
3 1 -3 21.15 14.61 4.08 o
4 1 -3 1.74 1.87 1.69 o
5 1 -3 2.29 2.97 1.41 o
6 1 -3 11.83 8.82 2.09 o
7 1 -3 1.79 2.43 1.97 o
8 1 -3 8.28 8.40 2.95 o
9 1 -3 0.33 0.48 1.06 o
1 2 -3 22.30 14.02 4.41 o
2 2 -3 1.90 -0.03 1.57 o
3 2 -3 30.16 22.12 4.93 o
4 2 -3 12.82 9.57 3.77 o
5 2 -3 14.08 9.66 3.59 o
6 2 -3 0.18 -2.48 2.48 o
7 2 -3 2.41 0.17 1.57 o
8 2 -3 7.79 4.56 3.01 o
9 2 -3 0.69 3.24 2.45 o
10 2 -3 0.06 -0.21 1.24 o
0 3 -3 2.43 4.26 2.50 o
1 3 -3 10.56 10.49 2.02 o
2 3 -3 6.53 6.99 2.30 o
3 3 -3 21.81 15.33 3.15 o
4 3 -3 4.49 1.69 1.45 o
5 3 -3 0.60 2.28 1.41 o
6 3 -3 0.13 3.21 2.40 o
7 3 -3 0.34 2.34 2.98 o
8 3 -3 0.15 -0.91 1.85 o
9 3 -3 3.22 3.05 2.87 o
10 3 -3 0.84 -1.48 2.85 o
11 3 -3 0.69 0.05 1.54 o
1 4 -3 5.28 5.27 1.67 o
2 4 -3 2.10 0.75 0.83 o
3 4 -3 14.07 13.04 2.18 o
4 4 -3 0.20 1.00 1.16 o
5 4 -3 0.91 0.08 1.40 o
6 4 -3 1.00 -0.21 1.17 o
7 4 -3 12.72 11.27 7.17 o
8 4 -3 4.58 16.90 6.78 o
9 4 -3 3.83 10.61 5.58 o
10 4 -3 0.60 2.54 2.58 o
0 5 -3 2.56 1.64 1.11 o
1 5 -3 9.69 6.40 1.85 o
2 5 -3 11.96 11.97 2.46 o
3 5 -3 9.29 9.85 2.11 o
4 5 -3 0.69 0.96 1.05 o
5 5 -3 1.44 1.22 2.46 o
6 5 -3 1.61 0.86 2.78 o
7 5 -3 5.64 8.21 7.24 o
8 5 -3 0.50 1.88 3.69 o
9 5 -3 5.49 -4.05 7.07 o
1 6 -3 9.69 6.91 2.12 o
2 6 -3 4.51 5.45 2.08 o
3 6 -3 3.73 3.36 1.72 o
4 6 -3 11.91 11.04 2.58 o
5 6 -3 1.26 4.64 2.68 o
6 6 -3 0.02 4.34 2.75 o
7 6 -3 4.73 4.73 9.57 o
8 6 -3 6.71 4.44 12.23 o
0 7 -3 3.12 2.46 1.95 o
1 7 -3 0.93 1.60 1.12 o
2 7 -3 21.18 26.58 6.21 o
3 7 -3 0.82 2.21 1.81 o
4 7 -3 1.34 2.53 1.63 o
5 7 -3 0.34 -1.98 1.98 o
6 7 -3 0.31 1.42 2.19 o
7 7 -3 0.10 0.28 8.72 o
8 7 -3 0.29 3.76 2.82 o
1 8 -3 0.01 -1.13 1.13 o
2 8 -3 0.65 -2.47 2.71 o
3 8 -3 1.64 1.37 2.90 o
4 8 -3 6.24 9.39 3.03 o
5 8 -3 1.94 -0.84 1.74 o
6 8 -3 0.52 4.88 4.85 o
0 9 -3 1.42 -2.19 2.19 o
1 9 -3 1.16 5.96 18.57 o
2 9 -3 3.36 -0.24 1.60 o
3 9 -3 1.29 -3.23 10.31 o
4 9 -3 0.19 4.51 7.23 o
1 10 -3 0.28 2.79 2.70 o
2 0 -2 498.94 482.85 7.56 o
4 0 -2 2.71 2.73 0.76 o
6 0 -2 65.96 60.01 6.26 o
8 0 -2 52.91 54.23 9.05 o
10 0 -2 30.05 33.81 5.04 o
12 0 -2 3.12 2.68 2.09 o
1 1 -2 90.71 78.19 3.74 o
2 1 -2 100.52 92.37 2.31 o
3 1 -2 48.78 48.36 1.89 o
4 1 -2 94.22 98.96 3.02 o
5 1 -2 16.10 16.78 1.38 o
6 1 -2 10.13 11.16 1.39 o
7 1 -2 0.36 0.18 0.98 o
8 1 -2 91.02 96.40 5.19 o
9 1 -2 2.16 2.60 1.05 o
10 1 -2 17.42 20.21 2.78 o
11 1 -2 6.56 7.39 1.96 o
12 1 -2 2.89 3.20 1.49 o
13 1 -2 3.39 3.05 1.69 o
14 1 -2 1.28 -1.64 2.02 o
0 2 -2 34.05 32.63 2.85 o
1 2 -2 121.36 127.47 2.95 o
2 2 -2 174.98 170.49 3.68 o
3 2 -2 84.34 86.52 2.84 o
4 2 -2 53.13 53.77 2.39 o
5 2 -2 4.47 4.57 0.86 o
6 2 -2 12.95 14.90 1.65 o
7 2 -2 2.15 2.14 0.80 o
8 2 -2 4.82 2.65 0.93 o
9 2 -2 2.95 1.81 1.27 o
10 2 -2 3.60 4.74 1.65 o
11 2 -2 8.50 12.55 2.42 o
12 2 -2 3.00 2.20 1.11 o
13 2 -2 6.81 7.60 2.77 o
1 3 -2 50.73 52.98 2.14 o
2 3 -2 54.38 55.48 2.63 o
3 3 -2 50.06 47.83 2.63 o
4 3 -2 19.13 18.39 1.66 o
5 3 -2 0.49 0.10 0.56 o
6 3 -2 22.29 23.69 2.44 o
7 3 -2 13.17 9.70 2.37 o
8 3 -2 1.36 1.54 1.22 o
9 3 -2 0.14 -0.37 0.88 o
10 3 -2 1.51 1.13 1.23 o
11 3 -2 8.21 7.02 2.02 o
12 3 -2 2.25 1.86 1.25 o
13 3 -2 6.46 6.17 3.18 o
0 4 -2 55.52 66.13 3.65 o
1 4 -2 5.37 6.43 0.91 o
2 4 -2 7.26 7.20 1.00 o
3 4 -2 18.12 20.02 1.73 o
4 4 -2 26.16 30.65 2.28 o
5 4 -2 9.53 9.16 1.46 o
6 4 -2 4.48 5.49 1.27 o
7 4 -2 14.26 15.44 2.68 o
8 4 -2 2.97 0.57 1.37 o
9 4 -2 6.62 6.12 1.45 o
10 4 -2 6.40 9.64 2.18 o
11 4 -2 0.86 -1.74 1.74 o
12 4 -2 1.86 1.83 2.55 o
13 4 -2 1.14 1.84 6.01 o
1 5 -2 24.85 23.53 1.84 o
2 5 -2 11.48 12.75 1.58 o
3 5 -2 9.83 12.66 1.65 o
4 5 -2 17.29 23.00 2.50 o
5 5 -2 16.23 15.71 1.95 o
6 5 -2 3.27 4.01 1.21 o
7 5 -2 40.92 39.44 3.59 o
8 5 -2 20.93 23.57 3.18 o
9 5 -2 6.81 10.86 2.58 o
10 5 -2 1.57 -0.53 1.32 o
11 5 -2 0.05 1.53 2.86 o
12 5 -2 0.23 1.61 2.47 o
0 6 -2 7.53 7.11 1.61 o
1 6 -2 6.09 7.30 1.15 o
2 6 -2 73.31 75.29 4.02 o
3 6 -2 14.81 16.59 4.15 o
4 6 -2 34.37 35.94 3.88 o
5 6 -2 2.40 3.70 1.21 o
6 6 -2 4.23 4.15 1.47 o
7 6 -2 9.30 7.89 1.76 o
8 6 -2 1.95 1.77 1.21 o
9 6 -2 6.10 4.90 2.34 o
10 6 -2 4.17 -1.42 1.71 o
11 6 -2 0.28 -0.28 1.51 o
1 7 -2 5.37 6.35 1.28 o
2 7 -2 9.32 12.26 1.68 o
3 7 -2 6.76 6.64 1.61 o
4 7 -2 39.65 44.80 4.57 o
5 7 -2 1.93 2.11 1.11 o
6 7 -2 20.35 24.21 3.43 o
7 7 -2 1.21 1.57 1.83 o
8 7 -2 13.07 12.27 2.38 o
9 7 -2 0.28 -1.26 1.90 o
10 7 -2 0.37 1.23 7.31 o
11 7 -2 0.20 9.97 6.61 o
0 8 -2 2.30 0.88 1.12 o
1 8 -2 1.10 1.09 0.77 o
2 8 -2 35.65 39.68 3.62 o
3 8 -2 0.32 1.58 1.01 o
4 8 -2 16.45 21.70 3.95 o
5 8 -2 5.33 4.46 1.63 o
6 8 -2 3.25 3.75 1.70 o
7 8 -2 4.77 9.57 2.37 o
8 8 -2 2.38 5.47 3.46 o
9 8 -2 0.53 -3.28 3.28 o
1 9 -2 0.70 -0.91 1.00 o
2 9 -2 1.31 1.22 0.96 o
3 9 -2 3.23 5.32 1.81 o
4 9 -2 5.24 8.64 3.09 o
5 9 -2 6.74 9.62 2.39 o
6 9 -2 1.83 2.37 1.89 o
7 9 -2 2.69 5.36 2.89 o
8 9 -2 2.11 3.75 5.98 o
0 10 -2 7.23 8.54 2.81 o
1 10 -2 1.37 2.69 1.28 o
2 10 -2 1.66 1.00 1.13 o
3 10 -2 0.99 1.84 1.27 o
4 10 -2 0.52 0.45 1.63 o
5 10 -2 0.86 0.68 1.98 o
6 10 -2 1.14 1.84 5.35 o
1 11 -2 0.16 0.24 1.90 o
2 11 -2 1.45 2.08 2.05 o
3 11 -2 2.39 2.36 3.31 o
4 11 -2 1.45 -3.76 3.76 o
2 0 -1 2349.62 2489.27 15.88 o
4 0 -1 114.64 108.25 5.39 o
6 0 -1 65.79 66.58 5.23 o
8 0 -1 110.35 113.84 8.07 o
10 0 -1 144.82 140.38 10.26 o
12 0 -1 13.11 17.72 4.61 o
14 0 -1 0.95 0.32 4.35 o
0 1 -1 5639.92 5886.51 316.50 o
1 1 -1 151.83 154.50 3.71 o
2 1 -1 795.21 779.33 6.40 o
3 1 -1 52.47 52.18 1.76 o
4 1 -1 186.46 188.02 4.41 o
5 1 -1 18.85 21.00 1.62 o
6 1 -1 71.81 74.67 3.30 o
7 1 -1 4.91 6.64 1.43 o
8 1 -1 52.92 50.82 3.87 o
9 1 -1 21.77 19.52 2.60 o
10 1 -1 53.89 52.04 4.51 o
11 1 -1 3.59 3.18 1.17 o
12 1 -1 17.62 15.37 2.71 o
13 1 -1 6.37 6.09 1.83 o
14 1 -1 4.86 4.96 2.34 o
1 2 -1 241.01 230.44 5.77 o
2 2 -1 13.24 13.51 1.40 o
3 2 -1 90.83 84.35 3.42 o
4 2 -1 101.22 101.60 2.84 o
5 2 -1 10.20 11.18 1.10 o
6 2 -1 206.72 220.92 6.29 o
7 2 -1 4.21 3.78 0.95 o
8 2 -1 25.40 24.31 2.26 o
9 2 -1 4.68 5.94 1.55 o
10 2 -1 20.09 25.79 3.19 o
11 2 -1 47.97 53.18 4.81 o
12 2 -1 4.00 5.54 1.79 o
13 2 -1 7.37 5.53 1.70 o
14 2 -1 3.02 1.73 1.65 o
0 3 -1 138.97 133.81 5.23 o
1 3 -1 75.21 77.38 2.89 o
2 3 -1 17.93 15.93 1.45 o
3 3 -1 12.97 12.90 1.70 o
4 3 -1 413.24 420.04 10.09 o
5 3 -1 3.29 3.47 0.78 o
6 3 -1 30.08 33.59 3.42 o
7 3 -1 2.30 -0.29 1.69 o
8 3 -1 11.09 13.37 1.78 o
9 3 -1 7.24 7.73 1.83 o
10 3 -1 0.71 1.14 1.20 o
11 3 -1 5.28 7.32 1.95 o
12 3 -1 4.22 7.61 2.17 o
13 3 -1 4.78 6.14 1.72 o
14 3 -1 1.43 2.16 3.38 o
1 4 -1 46.55 49.03 2.39 o
2 4 -1 290.40 267.13 6.72 o
3 4 -1 2.02 2.88 1.01 o
4 4 -1 4.77 4.23 1.40 o
5 4 -1 17.33 17.67 2.43 o
6 4 -1 26.08 28.63 3.25 o
7 4 -1 57.49 55.45 4.87 o
8 4 -1 7.45 8.68 2.21 o
9 4 -1 7.01 8.26 2.33 o
10 4 -1 10.19 11.08 2.24 o
11 4 -1 5.85 3.66 1.50 o
12 4 -1 1.84 0.16 1.33 o
13 4 -1 2.08 1.27 1.28 o
0 5 -1 322.19 316.92 18.21 o
1 5 -1 4.43 5.67 1.00 o
2 5 -1 60.87 67.11 3.20 o
3 5 -1 15.65 16.53 2.33 o
4 5 -1 19.60 16.77 3.05 o
5 5 -1 37.60 38.42 3.71 o
6 5 -1 4.23 4.36 1.51 o
7 5 -1 17.86 16.59 2.89 o
8 5 -1 0.94 -1.35 1.35 o
9 5 -1 11.08 12.74 2.89 o
10 5 -1 10.92 8.12 2.72 o
11 5 -1 0.57 -0.41 1.31 o
12 5 -1 5.24 5.18 2.87 o
13 5 -1 0.81 -0.74 2.74 o
1 6 -1 23.35 26.42 2.19 o
2 6 -1 5.66 5.88 1.12 o
3 6 -1 6.98 7.54 1.52 o
4 6 -1 35.42 32.57 4.45 o
5 6 -1 21.26 19.08 2.85 o
6 6 -1 139.41 140.97 7.88 o
7 6 -1 28.53 30.17 3.95 o
8 6 -1 16.44 14.93 2.98 o
9 6 -1 1.42 1.06 1.61 o
10 6 -1 6.11 8.29 2.49 o
11 6 -1 0.26 1.55 2.01 o
12 6 -1 2.39 6.16 2.16 o
0 7 -1 23.04 22.68 3.58 o
1 7 -1 3.42 3.00 1.52 o
2 7 -1 49.13 46.74 3.24 o
3 7 -1 3.63 4.78 1.47 o
4 7 -1 205.92 208.68 11.73 o
5 7 -1 3.12 2.93 2.28 o
6 7 -1 20.26 17.73 2.87 o
7 7 -1 8.00 7.25 2.65 o
8 7 -1 7.44 6.62 2.18 o
9 7 -1 0.89 0.24 1.83 o
10 7 -1 3.74 5.78 3.39 o
11 7 -1 0.01 0.58 1.18 o
1 8 -1 0.27 -0.44 0.90 o
2 8 -1 2.05 2.21 1.05 o
3 8 -1 17.80 13.69 2.72 o
4 8 -1 24.92 26.73 3.81 o
5 8 -1 5.74 9.38 3.03 o
6 8 -1 62.50 65.91 6.01 o
7 8 -1 2.64 1.88 1.65 o
8 8 -1 6.32 7.98 2.21 o
9 8 -1 1.07 -0.14 1.99 o
10 8 -1 6.21 7.90 2.72 o
0 9 -1 33.78 30.21 4.77 o
1 9 -1 0.60 -0.46 0.97 o
2 9 -1 9.69 11.78 2.29 o
3 9 -1 2.45 0.19 1.08 o
4 9 -1 12.97 15.24 2.94 o
5 9 -1 10.23 13.90 3.54 o
6 9 -1 5.87 4.13 2.00 o
7 9 -1 5.24 6.63 2.23 o
8 9 -1 4.98 10.21 2.73 o
9 9 -1 0.70 1.97 2.23 o
1 10 -1 2.59 2.87 1.53 o
2 10 -1 10.63 13.60 2.47 o
3 10 -1 0.43 0.81 2.86 o
4 10 -1 0.15 1.75 1.97 o
5 10 -1 4.73 4.85 2.47 o
6 10 -1 1.97 3.13 1.46 o
7 10 -1 1.48 4.92 2.00 o
0 11 -1 8.07 7.31 2.81 o
1 11 -1 2.41 3.76 1.40 o
2 11 -1 1.23 3.72 1.88 o
3 11 -1 1.18 0.07 1.42 o
4 11 -1 3.17 4.77 3.61 o
5 11 -1 0.19 -3.05 3.35 o
2 0 0 116.55 131.20 4.09 o
4 0 0 300.08 314.84 11.48 o
6 0 0 29.60 24.40 3.23 o
8 0 0 115.39 105.25 7.79 o
10 0 0 108.05 108.84 8.88 o
12 0 0 53.47 54.55 6.99 o
14 0 0 3.18 7.16 3.63 o
2 1 0 2668.39 2954.48 18.47 o
3 1 0 34.48 40.09 1.43 o
4 1 0 3.68 5.66 0.61 o
5 1 0 0.04 0.51 0.67 o
6 1 0 232.30 226.98 4.60 o
7 1 0 23.30 25.30 1.29 o
8 1 0 7.23 4.86 1.36 o
9 1 0 1.61 2.56 1.28 o
10 1 0 160.35 161.10 7.66 o
11 1 0 38.37 39.47 4.06 o
12 1 0 15.91 15.46 2.66 o
13 1 0 1.58 -0.14 1.26 o
14 1 0 0.48 -0.32 1.71 o
0 2 0 1763.37 1534.75 15.75 o
1 2 0 28.98 28.84 1.22 o
2 2 0 13.74 12.76 0.79 o
3 2 0 0.39 0.50 0.23 o
4 2 0 976.04 1009.93 17.94 o
5 2 0 27.02 27.92 2.69 o
6 2 0 82.30 89.72 5.08 o
7 2 0 1.56 2.23 0.98 o
8 2 0 0.05 0.17 0.96 o
9 2 0 59.90 60.84 4.54 o
10 2 0 23.63 19.90 2.72 o
11 2 0 0.17 -0.36 1.23 o
12 2 0 3.81 2.42 1.23 o
13 2 0 12.72 8.32 2.22 o
14 2 0 2.91 3.73 1.67 o
1 3 0 8.34 12.18 1.76 o
2 3 0 465.92 396.06 10.69 o
3 3 0 6.77 5.37 0.59 o
4 3 0 35.87 33.40 2.84 o
5 3 0 10.90 12.23 1.89 o
6 3 0 351.75 403.88 18.78 o
7 3 0 4.95 4.49 1.59 o
8 3 0 5.49 6.30 1.95 o
9 3 0 12.19 11.03 1.94 o
10 3 0 0.07 1.29 1.08 o
11 3 0 45.21 47.63 4.59 o
12 3 0 0.02 2.00 1.56 o
13 3 0 1.70 1.69 1.57 o
14 3 0 3.81 9.42 2.52 o
0 4 0 1217.99 1111.12 18.08 o
1 4 0 7.61 7.04 1.06 o
2 4 0 0.27 0.51 0.29 o
3 4 0 2.55 2.78 1.30 o
4 4 0 121.14 110.46 6.31 o
5 4 0 58.97 51.55 4.57 o
6 4 0 12.39 10.21 2.03 o
7 4 0 1.02 0.71 1.28 o
8 4 0 15.12 14.60 2.69 o
9 4 0 0.04 1.24 1.28 o
10 4 0 4.06 5.08 1.32 o
11 4 0 1.05 0.76 1.05 o
12 4 0 11.43 8.87 2.23 o
13 4 0 0.06 0.97 1.53 o
1 5 0 72.29 74.82 3.69 o
2 5 0 128.49 128.92 3.46 o
3 5 0 0.59 0.26 0.33 o
4 5 0 0.06 -0.72 1.16 o
5 5 0 16.33 17.99 2.65 o
6 5 0 47.69 43.33 4.14 o
7 5 0 72.24 78.14 5.71 o
8 5 0 1.71 2.48 1.80 o
9 5 0 4.93 4.13 1.32 o
10 5 0 17.28 12.92 2.89 o
11 5 0 0.00 0.31 1.10 o
12 5 0 4.18 3.63 1.80 o
13 5 0 0.03 2.72 1.11 o
0 6 0 205.30 215.00 9.84 o
1 6 0 0.17 0.12 0.90 o
2 6 0 0.45 0.83 1.18 o
3 6 0 0.76 1.47 0.92 o
4 6 0 302.94 290.39 12.88 o
5 6 0 8.65 10.64 2.73 o
6 6 0 17.86 17.76 2.71 o
7 6 0 7.59 8.32 2.84 o
8 6 0 11.57 11.85 2.36 o
9 6 0 7.35 6.06 2.11 o
10 6 0 9.53 4.05 2.15 o
11 6 0 0.26 0.54 1.54 o
12 6 0 4.32 3.96 2.57 o
1 7 0 1.11 0.88 0.95 o
2 7 0 10.81 9.92 1.69 o
3 7 0 26.44 27.52 2.92 o
4 7 0 15.26 12.86 2.40 o
5 7 0 23.34 22.39 3.83 o
6 7 0 267.98 279.31 11.48 o
7 7 0 1.08 2.34 1.97 o
8 7 0 1.70 1.75 1.62 o
9 7 0 0.75 1.74 1.80 o
10 7 0 10.02 11.71 5.06 o
11 7 0 0.00 -0.44 1.84 o
0 8 0 39.62 30.55 7.87 o
1 8 0 3.73 2.76 1.16 o
2 8 0 0.47 -1.22 1.26 o
3 8 0 0.18 -1.07 1.07 o
4 8 0 158.15 157.85 8.72 o
5 8 0 20.26 19.20 3.79 o
6 8 0 26.96 31.63 4.23 o
7 8 0 5.99 6.19 3.08 o
8 8 0 0.65 -0.11 1.64 o
9 8 0 0.25 2.24 3.07 o
10 8 0 3.20 1.87 2.14 o
1 9 0 2.81 1.19 1.16 o
2 9 0 5.62 3.58 1.08 o
3 9 0 7.47 7.84 1.83 o
4 9 0 2.98 3.21 1.47 o
5 9 0 0.13 -0.17 1.54 o
6 9 0 13.72 8.36 2.15 o
7 9 0 5.39 5.91 2.19 o
8 9 0 0.19 0.39 1.57 o
9 9 0 0.01 -1.56 1.63 o
0 10 0 45.35 37.73 5.75 o
1 10 0 1.89 3.08 1.06 o
2 10 0 1.71 0.74 1.03 o
3 10 0 6.27 6.41 1.94 o
4 10 0 0.22 -1.70 1.70 o
5 10 0 2.34 7.41 2.95 o
6 10 0 0.64 3.15 1.91 o
7 10 0 0.78 -1.94 1.94 o
1 11 0 1.55 1.16 1.74 o
2 11 0 7.90 6.92 1.94 o
3 11 0 1.92 2.59 1.38 o
4 11 0 0.86 0.75 1.78 o
5 11 0 3.51 0.52 3.83 o
2 0 1 2349.09 2423.28 43.74 o
4 0 1 114.63 111.65 3.81 o
6 0 1 65.83 68.52 5.29 o
8 0 1 110.44 109.96 7.89 o
10 0 1 144.79 149.54 10.55 o
12 0 1 13.11 14.25 3.64 o
14 0 1 0.95 2.39 1.99 o
0 1 1 5638.99 5512.53 63.52 o
1 1 1 151.93 155.99 2.93 o
2 1 1 795.67 767.38 5.12 o
3 1 1 52.55 54.29 1.42 o
4 1 1 186.43 191.24 2.89 o
5 1 1 18.84 18.72 1.29 o
6 1 1 71.89 68.66 2.61 o
7 1 1 4.93 7.03 1.22 o
8 1 1 52.95 49.58 3.12 o
9 1 1 21.76 22.35 2.80 o
10 1 1 53.86 53.63 4.54 o
11 1 1 3.59 5.15 2.39 o
12 1 1 17.62 14.45 2.70 o
13 1 1 6.36 4.73 1.55 o
14 1 1 4.86 8.16 2.36 o
1 2 1 241.00 225.11 3.67 o
2 2 1 13.25 13.43 0.89 o
3 2 1 90.86 88.71 2.10 o
4 2 1 101.26 103.27 2.79 o
5 2 1 10.23 11.41 1.02 o
6 2 1 206.68 217.87 4.65 o
7 2 1 4.21 2.73 0.83 o
8 2 1 25.42 24.24 2.21 o
9 2 1 4.68 3.29 1.41 o
10 2 1 20.08 25.67 3.16 o
11 2 1 47.96 44.84 4.28 o
12 2 1 4.01 2.51 2.52 o
13 2 1 7.38 5.18 2.06 o
14 2 1 3.02 4.53 1.40 o
0 3 1 138.91 142.45 3.94 o
1 3 1 75.21 72.97 1.96 o
2 3 1 17.94 17.47 1.26 o
3 3 1 12.98 10.69 0.85 o
4 3 1 413.16 413.11 4.32 o
5 3 1 3.28 4.88 0.73 o
6 3 1 30.06 27.70 1.77 o
7 3 1 2.29 2.37 0.77 o
8 3 1 11.08 11.87 1.59 o
9 3 1 7.25 7.54 1.82 o
10 3 1 0.71 0.42 1.50 o
11 3 1 5.27 6.29 1.72 o
12 3 1 4.23 2.96 1.79 o
13 3 1 4.78 7.91 2.23 o
14 3 1 1.43 2.20 3.37 o
1 4 1 46.50 47.90 2.21 o
2 4 1 290.35 271.73 5.49 o
3 4 1 2.02 2.37 0.60 o
4 4 1 4.76 4.91 1.52 o
5 4 1 17.30 16.94 1.51 o
6 4 1 26.06 26.22 2.12 o
7 4 1 57.50 53.25 4.65 o
8 4 1 7.45 8.36 2.16 o
9 4 1 7.02 6.40 1.66 o
10 4 1 10.18 10.36 2.16 o
11 4 1 5.85 5.10 1.64 o
12 4 1 1.84 1.23 1.10 o
13 4 1 2.08 2.05 1.33 o
0 5 1 322.14 315.74 11.07 o
1 5 1 4.43 4.75 1.08 o
2 5 1 60.91 64.93 2.87 o
3 5 1 15.67 13.71 1.42 o
4 5 1 19.59 16.95 1.61 o
5 5 1 37.61 37.47 1.93 o
6 5 1 4.23 1.18 0.88 o
7 5 1 17.87 17.21 2.74 o
8 5 1 0.94 1.89 1.82 o
9 5 1 11.08 9.72 2.39 o
10 5 1 10.92 6.72 1.88 o
11 5 1 0.56 4.12 1.60 o
12 5 1 5.24 2.26 1.82 o
13 5 1 0.81 0.02 2.30 o
1 6 1 23.38 22.44 2.38 o
2 6 1 5.68 4.75 1.31 o
3 6 1 6.98 5.08 1.10 o
4 6 1 35.43 36.48 2.49 o
5 6 1 21.25 21.64 2.66 o
6 6 1 139.37 147.95 8.13 o
7 6 1 28.53 32.14 3.97 o
8 6 1 16.45 18.51 3.13 o
9 6 1 1.43 3.89 1.72 o
10 6 1 6.11 5.15 1.90 o
11 6 1 0.26 -1.15 1.15 o
12 6 1 2.39 3.00 1.28 o
0 7 1 23.04 21.74 3.59 o
1 7 1 3.42 4.11 1.42 o
2 7 1 49.19 42.19 3.77 o
3 7 1 3.63 4.10 0.99 o
4 7 1 205.86 220.40 12.03 o
5 7 1 3.12 3.67 2.34 o
6 7 1 20.25 23.67 3.45 o
7 7 1 7.99 5.21 1.80 o
8 7 1 7.44 5.77 2.02 o
9 7 1 0.89 1.18 1.32 o
10 7 1 3.74 5.07 2.19 o
11 7 1 0.01 -0.29 1.15 o
1 8 1 0.27 0.64 1.03 o
2 8 1 2.05 2.48 0.93 o
3 8 1 17.80 18.75 2.59 o
4 8 1 24.93 20.24 3.93 o
5 8 1 5.74 9.39 4.00 o
6 8 1 62.47 71.78 6.31 o
7 8 1 2.64 0.05 1.59 o
8 8 1 6.33 6.60 2.13 o
9 8 1 1.07 2.15 1.60 o
10 8 1 6.21 5.07 2.08 o
0 9 1 33.78 34.74 5.14 o
1 9 1 0.60 -0.41 1.06 o
2 9 1 9.71 10.22 1.89 o
3 9 1 2.46 2.16 1.36 o
4 9 1 12.96 13.89 3.77 o
5 9 1 10.23 12.46 3.43 o
6 9 1 5.87 6.41 2.18 o
7 9 1 5.25 4.02 2.81 o
8 9 1 4.99 5.07 2.11 o
9 9 1 0.69 2.93 1.62 o
1 10 1 2.60 2.47 1.17 o
2 10 1 10.62 9.96 1.91 o
3 10 1 0.43 -0.75 1.70 o
4 10 1 0.15 -0.07 1.18 o
5 10 1 4.72 8.29 2.96 o
6 10 1 1.98 -0.79 1.58 o
7 10 1 1.48 2.03 1.49 o
0 11 1 8.06 4.25 4.19 o
1 11 1 2.41 3.37 1.25 o
2 11 1 1.23 2.63 1.47 o
3 11 1 1.18 1.22 1.19 o
4 11 1 3.16 1.22 5.32 o
5 11 1 0.19 2.19 2.64 o
0 0 2 588.61 603.61 18.52 o
2 0 2 499.13 479.57 5.42 o
4 0 2 2.71 2.52 0.57 o
6 0 2 66.02 73.01 3.57 o
8 0 2 52.94 51.81 5.35 o
10 0 2 30.02 28.33 4.52 o
12 0 2 3.11 1.16 1.94 o
1 1 2 90.75 80.65 1.88 o
2 1 2 100.45 93.41 1.84 o
3 1 2 48.77 47.63 1.30 o
4 1 2 94.23 101.19 1.96 o
5 1 2 16.12 16.74 1.14 o
6 1 2 10.14 11.80 1.09 o
7 1 2 0.36 1.33 0.77 o
8 1 2 91.06 98.88 3.89 o
9 1 2 2.17 2.10 1.03 o
10 1 2 17.41 16.03 2.26 o
11 1 2 6.55 11.61 2.67 o
12 1 2 2.89 3.14 3.10 o
13 1 2 3.39 7.27 3.32 o
0 2 2 34.04 31.68 2.64 o
1 2 2 121.35 128.44 3.01 o
2 2 2 175.06 178.18 3.14 o
3 2 2 84.40 92.10 2.45 o
4 2 2 53.10 57.39 1.77 o
5 2 2 4.47 4.18 0.67 o
6 2 2 12.95 14.56 1.30 o
7 2 2 2.16 4.28 0.85 o
8 2 2 4.82 5.25 0.95 o
9 2 2 2.95 2.07 0.94 o
10 2 2 3.59 1.90 1.45 o
11 2 2 8.50 10.35 2.32 o
12 2 2 3.01 2.45 2.38 o
13 2 2 6.80 5.21 2.62 o
1 3 2 50.69 54.77 1.66 o
2 3 2 54.34 56.69 2.12 o
3 3 2 50.04 52.27 1.86 o
4 3 2 19.14 19.12 1.37 o
5 3 2 0.50 0.63 0.56 o
6 3 2 22.27 23.56 1.65 o
7 3 2 13.17 13.73 1.33 o
8 3 2 1.36 2.64 0.82 o
9 3 2 0.14 0.57 0.83 o
10 3 2 1.51 2.94 1.78 o
11 3 2 8.21 2.45 1.57 o
12 3 2 2.25 4.55 3.16 o
13 3 2 6.47 4.64 2.77 o
0 4 2 55.47 62.74 2.99 o
1 4 2 5.38 5.79 0.55 o
2 4 2 7.26 5.56 1.15 o
3 4 2 18.11 16.19 1.73 o
4 4 2 26.14 26.48 3.00 o
5 4 2 9.53 9.86 1.18 o
6 4 2 4.48 4.12 1.03 o
7 4 2 14.26 17.88 2.02 o
8 4 2 2.97 2.77 1.14 o
9 4 2 6.61 6.91 1.64 o
10 4 2 6.40 7.59 2.34 o
11 4 2 0.85 1.10 1.47 o
12 4 2 1.86 1.08 5.17 o
13 4 2 1.14 5.00 5.84 o
1 5 2 24.87 29.64 2.20 o
2 5 2 11.48 13.07 1.64 o
3 5 2 9.83 8.23 1.35 o
4 5 2 17.29 18.76 1.77 o
5 5 2 16.22 15.64 2.34 o
6 5 2 3.27 5.14 1.14 o
7 5 2 40.90 44.20 3.39 o
8 5 2 20.94 28.41 3.45 o
9 5 2 6.82 6.34 2.29 o
10 5 2 1.57 0.55 1.53 o
11 5 2 0.05 1.03 1.64 o
12 5 2 0.23 -0.21 2.03 o
0 6 2 7.53 5.79 1.75 o
1 6 2 6.10 5.68 1.11 o
2 6 2 73.34 80.35 4.26 o
3 6 2 14.82 12.77 2.50 o
4 6 2 34.35 31.16 2.62 o
5 6 2 2.40 1.57 1.01 o
6 6 2 4.23 3.57 1.07 o
7 6 2 9.30 10.45 2.06 o
8 6 2 1.94 2.54 1.94 o
9 6 2 6.09 1.28 5.71 o
10 6 2 4.16 3.20 1.50 o
11 6 2 0.28 1.37 1.33 o
1 7 2 5.37 5.41 1.33 o
2 7 2 9.32 11.07 1.94 o
3 7 2 6.76 6.24 2.24 o
4 7 2 39.66 40.87 3.44 o
5 7 2 1.92 2.97 0.88 o
6 7 2 20.32 25.25 3.20 o
7 7 2 1.21 2.44 1.06 o
8 7 2 13.07 20.67 4.45 o
9 7 2 0.28 -0.05 2.12 o
10 7 2 0.37 -0.13 3.76 o
11 7 2 0.20 3.37 2.81 o
0 8 2 2.31 1.73 1.92 o
1 8 2 1.10 1.12 1.15 o
2 8 2 35.68 39.38 4.40 o
3 8 2 0.32 -0.39 1.07 o
4 8 2 16.42 16.54 5.22 o
5 8 2 5.33 2.03 2.56 o
6 8 2 3.24 3.52 2.30 o
7 8 2 4.77 7.44 2.89 o
8 8 2 2.38 2.33 2.08 o
9 8 2 0.52 0.02 2.09 o
1 9 2 0.71 -0.36 1.28 o
2 9 2 1.31 1.52 1.19 o
3 9 2 3.24 3.39 2.51 o
4 9 2 5.25 2.45 1.62 o
5 9 2 6.74 9.92 4.20 o
6 9 2 1.83 1.52 2.29 o
7 9 2 2.69 3.76 2.56 o
8 9 2 2.11 3.61 2.71 o
0 10 2 7.23 4.56 3.04 o
1 10 2 1.37 2.08 2.74 o
2 10 2 1.66 1.25 1.54 o
3 10 2 0.99 1.26 2.62 o
4 10 2 0.52 -4.00 4.00 o
5 10 2 0.86 1.01 1.92 o
6 10 2 1.14 -2.24 2.24 o
1 11 2 0.16 -0.54 2.02 o
2 11 2 1.45 4.88 2.46 o
2 0 3 2.11 2.05 1.09 o
4 0 3 22.33 24.05 2.14 o
6 0 3 7.30 6.62 1.58 o
8 0 3 42.61 44.73 9.29 o
10 0 3 2.03 -0.53 2.47 o
0 1 3 0.10 -1.17 1.17 o
1 1 3 12.36 11.02 1.33 o
2 1 3 62.56 60.33 2.45 o
3 1 3 21.16 19.83 1.28 o
4 1 3 1.75 1.82 0.50 o
5 1 3 2.29 2.48 0.72 o
6 1 3 11.84 12.64 1.50 o
7 1 3 1.79 1.99 1.13 o
8 1 3 8.28 8.70 1.84 o
9 1 3 0.33 0.93 1.48 o
10 1 3 3.81 0.48 1.79 o
11 1 3 1.09 -2.76 3.19 o
1 2 3 22.31 26.02 2.88 o
2 2 3 1.90 1.91 0.63 o
3 2 3 30.14 29.68 1.72 o
4 2 3 12.82 13.41 1.59 o
5 2 3 14.09 14.78 1.64 o
6 2 3 0.18 0.39 1.09 o
7 2 3 2.42 3.19 0.96 o
8 2 3 7.79 9.00 1.78 o
9 2 3 0.69 1.98 2.12 o
10 2 3 0.06 1.95 1.20 o
0 3 3 2.42 2.86 0.85 o
1 3 3 10.55 11.84 1.13 o
2 3 3 6.54 8.80 1.14 o
3 3 3 21.81 25.15 1.80 o
4 3 3 4.48 4.71 0.83 o
5 3 3 0.60 1.68 0.89 o
6 3 3 0.13 -0.47 1.21 o
7 3 3 0.34 1.05 1.25 o
8 3 3 0.15 -0.54 0.84 o
9 3 3 3.21 5.68 1.70 o
10 3 3 0.84 0.68 1.42 o
1 4 3 5.27 6.54 1.00 o
2 4 3 2.10 1.75 0.84 o
3 4 3 14.06 15.59 3.05 o
4 4 3 0.20 1.92 1.60 o
5 4 3 0.91 -0.56 1.35 o
6 4 3 0.99 -0.11 1.09 o
7 4 3 12.71 12.35 2.17 o
8 4 3 4.59 6.51 2.11 o
9 4 3 3.84 6.02 2.44 o
0 5 3 2.56 4.70 1.69 o
1 5 3 9.70 12.40 2.38 o
2 5 3 11.96 15.97 2.72 o
3 5 3 9.28 7.61 1.92 o
4 5 3 0.69 -0.41 1.53 o
5 5 3 1.44 0.89 1.12 o
6 5 3 1.61 0.70 1.34 o
7 5 3 5.64 8.04 1.77 o
8 5 3 0.50 3.62 1.84 o
9 5 3 5.48 6.23 3.05 o
1 6 3 9.70 15.09 4.73 o
2 6 3 4.51 3.92 2.41 o
3 6 3 3.72 3.19 2.29 o
4 6 3 11.92 8.72 3.48 o
5 6 3 1.25 0.27 1.20 o
6 6 3 0.02 -0.47 0.93 o
7 6 3 4.72 1.02 2.88 o
8 6 3 6.71 11.25 3.41 o
1 7 3 0.93 4.05 2.88 o
2 7 3 21.19 24.11 4.78 o
3 7 3 0.82 0.32 1.52 o
4 7 3 1.34 -0.02 1.13 o
5 7 3 0.34 -1.24 1.45 o
6 7 3 0.31 -1.16 1.16 o
7 7 3 0.10 0.41 1.28 o
8 7 3 0.29 2.30 2.38 o
2 8 3 0.65 -2.11 2.36 o
3 8 3 1.64 0.77 5.31 o
4 8 3 6.24 5.91 1.86 o
5 8 3 1.94 -0.58 1.38 o
6 8 3 0.52 -0.53 1.58 o
7 8 3 0.38 0.28 1.32 o
2 9 3 3.36 0.28 1.52 o
0 0 4 6.50 4.90 3.03 o
2 0 4 4.58 2.85 1.03 o
4 0 4 0.94 2.19 0.99 o
6 0 4 2.80 4.38 1.98 o
8 0 4 1.32 -2.02 2.79 o
1 1 4 1.16 1.24 0.66 o
2 1 4 1.28 0.72 0.62 o
3 1 4 2.12 0.89 0.72 o
4 1 4 0.94 1.29 0.71 o
5 1 4 3.11 3.16 0.84 o
6 1 4 2.39 1.81 0.91 o
7 1 4 0.42 1.91 0.83 o
8 1 4 3.04 2.24 2.23 o
0 2 4 1.88 1.05 1.05 o
1 2 4 1.49 1.22 0.59 o
2 2 4 2.30 1.91 0.70 o
3 2 4 7.88 6.52 0.95 o
4 2 4 0.52 2.07 0.78 o
5 2 4 1.47 0.50 0.76 o
6 2 4 0.40 1.57 1.17 o
7 2 4 1.15 1.39 1.11 o
1 3 4 0.57 0.51 0.63 o
2 3 4 0.04 1.32 0.83 o
3 3 4 4.78 4.57 1.05 o
4 3 4 0.29 -1.53 1.53 o
5 3 4 4.40 3.79 1.22 o
6 3 4 0.23 0.90 1.40 o
7 3 4 1.73 -0.16 2.17 o
0 4 4 0.84 0.42 1.10 o
1 4 4 3.92 3.26 1.04 o
2 4 4 0.04 0.72 0.76 o
3 4 4 2.04 1.72 1.10 o
4 4 4 0.06 -0.30 0.73 o
5 4 4 0.14 0.66 1.10 o
6 4 4 0.29 3.89 1.65 o
7 4 4 0.23 -1.41 2.24 o
1 5 4 4.20 4.81 1.93 o
2 5 4 0.99 3.69 1.16 o
3 5 4 2.39 1.65 1.35 o
4 5 4 0.44 -0.34 1.44 o
5 5 4 0.14 0.92 1.04 o
6 5 4 0.61 1.55 2.29 o
0 6 4 3.23 4.75 2.74 o
1 6 4 2.46 6.24 3.95 o
2 6 4 2.15 -1.07 1.25 o
3 6 4 0.82 -0.15 1.69 o
4 6 4 0.48 0.10 2.04 o
