#------------------------------------------------------------------------------
#$Date: 2019-11-22 19:03:52 +0200 (Fri, 22 Nov 2019) $
#$Revision: 231268 $
#$URL: file:///home/coder/svn-repositories/cod/cif/4/51/63/4516356.cif $
#------------------------------------------------------------------------------
#
# This file is available in the Crystallography Open Database (COD),
# http://www.crystallography.net/
#
# All data on this site have been placed in the public domain by the
# contributors.
#
data_4516356
loop_
_publ_author_name
'Patyk, Ewa'
'Podsiad\/lo, Marcin'
'Katrusiak, Andrzej'
_publ_section_title
;
 CH&#x00B7;&#x00B7;&#x00B7;N Bonds and Dynamics in Isostructural
 Pyrimidine Polymorphs
;
_journal_issue                   8
_journal_name_full               'Crystal Growth &amp; Design'
_journal_page_first              4039
_journal_paper_doi               10.1021/acs.cgd.5b00657
_journal_volume                  15
_journal_year                    2015
_chemical_formula_moiety         'C4 H4 N2'
_chemical_formula_sum            'C4 H4 N2'
_chemical_formula_weight         80.09
_chemical_melting_point          293.15
_chemical_name_common            pyrimidine
_chemical_name_systematic
; 
pyrimidine phase I
;
_space_group_IT_number           33
_space_group_name_Hall           'P 2c -2n'
_space_group_name_H-M_alt        'P n a 21'
_symmetry_cell_setting           orthorhombic
_symmetry_space_group_name_Hall  'P 2c -2n'
_symmetry_space_group_name_H-M   'P n a 21'
_atom_sites_solution_hydrogens   geom
_atom_sites_solution_primary     direct
_atom_sites_solution_secondary   difmap
_audit_creation_method           SHELXL-97
_cell_angle_alpha                90.00
_cell_angle_beta                 90.00
_cell_angle_gamma                90.00
_cell_formula_units_Z            4
_cell_length_a                   11.699(2)
_cell_length_b                   9.5000(19)
_cell_length_c                   3.8295(8)
_cell_measurement_reflns_used    1842
_cell_measurement_temperature    295(2)
_cell_measurement_theta_max      28.05
_cell_measurement_theta_min      2.76
_cell_volume                     425.61(14)
_computing_cell_refinement       'CrysAlisRED (Oxford Diffraction, 2004)'
_computing_data_collection       'CrysAlisCCD (Oxford Diffraction, 2004)'
_computing_data_reduction
'CrysAlisRED (Oxford Diffraction, 2004); REDSHABS (Katrusiak, A.  2003)'
_computing_molecular_graphics    'SHELXTL (Sheldrick, 1990)'
_computing_publication_material  'SHELXL--97 (Sheldrick, 1997)'
_computing_structure_refinement  'SHELXL--97 (Sheldrick, 1997)'
_computing_structure_solution    'SHELXS--97 (Sheldrick, 1997)'
_diffrn_ambient_environment      'diamond-anvil cell'
_diffrn_ambient_pressure         320000
_diffrn_ambient_temperature      295(2)
_diffrn_measured_fraction_theta_full 0.385
_diffrn_measured_fraction_theta_max 0.385
_diffrn_measurement_device_type  'KM-4 CCD'
_diffrn_measurement_method       '\f- and \w-scans'
_diffrn_radiation_monochromator  graphite
_diffrn_radiation_source         'fine-focus sealed tube'
_diffrn_radiation_type           MoK\a
_diffrn_radiation_wavelength     0.71073
_diffrn_reflns_av_R_equivalents  0.0484
_diffrn_reflns_av_sigmaI/netI    0.0341
_diffrn_reflns_limit_h_max       10
_diffrn_reflns_limit_h_min       -10
_diffrn_reflns_limit_k_max       9
_diffrn_reflns_limit_k_min       -9
_diffrn_reflns_limit_l_max       4
_diffrn_reflns_limit_l_min       -4
_diffrn_reflns_number            1842
_diffrn_reflns_theta_full        28.05
_diffrn_reflns_theta_max         28.05
_diffrn_reflns_theta_min         2.76
_diffrn_standards_decay_%        0
_diffrn_standards_interval_count 0
_diffrn_standards_number         0
_exptl_absorpt_coefficient_mu    0.082
_exptl_absorpt_correction_T_max  0.94
_exptl_absorpt_correction_T_min  0.52
_exptl_absorpt_correction_type   analytical
_exptl_absorpt_process_details
; 
 Correction for absorption of the diamond-anvil cell and the sample 
 were made using program REDSHABS (Katrusiak, A. (2003) REDSHABS. Adam
 Mickiewicz University Pozna\'n; Katrusiak, A. (2004) Z. Kristallogr.
 219, 461-467).
;
_exptl_crystal_colour            colourless
_exptl_crystal_density_diffrn    1.250
_exptl_crystal_density_method    'not measured'
_exptl_crystal_description       cylinder
_exptl_crystal_F_000             168
_exptl_crystal_size_max          0.33
_exptl_crystal_size_mid          0.24
_exptl_crystal_size_min          0.22
_refine_diff_density_max         0.085
_refine_diff_density_min         -0.061
_refine_diff_density_rms         0.023
_refine_ls_abs_structure_details 'Flack H D (1983), Acta Cryst. A39, 876-881'
_refine_ls_abs_structure_Flack   2(7)
_refine_ls_extinction_coef       1.14(8)
_refine_ls_extinction_expression Fc^*^=kFc[1+0.001xFc^2^\l^3^/sin(2\q)]^-1/4^
_refine_ls_extinction_method     SHELXL
_refine_ls_goodness_of_fit_ref   1.087
_refine_ls_hydrogen_treatment    constr
_refine_ls_matrix_type           full
_refine_ls_number_parameters     56
_refine_ls_number_reflns         412
_refine_ls_number_restraints     1
_refine_ls_restrained_S_all      1.086
_refine_ls_R_factor_all          0.0708
_refine_ls_R_factor_gt           0.0421
_refine_ls_shift/su_max          0.000
_refine_ls_shift/su_mean         0.000
_refine_ls_structure_factor_coef Fsqd
_refine_ls_weighting_details
'calc w=1/[\s^2^(Fo^2^)+(0.0451P)^2^+0.0000P] where P=(Fo^2^+2Fc^2^)/3'
_refine_ls_weighting_scheme      calc
_refine_ls_wR_factor_gt          0.0806
_refine_ls_wR_factor_ref         0.0913
_reflns_number_gt                279
_reflns_number_total             412
_reflns_threshold_expression     >2sigma(I)
_cod_data_source_file            cg5b00657_si_002.cif
_cod_data_source_block           phaseI_0.32GPa
_cod_original_cell_volume        425.61(15)
_cod_database_code               4516356
loop_
_symmetry_equiv_pos_as_xyz
'x, y, z'
'-x, -y, z+1/2'
'x+1/2, -y+1/2, z'
'-x+1/2, y+1/2, z+1/2'
loop_
_atom_site_label
_atom_site_type_symbol
_atom_site_fract_x
_atom_site_fract_y
_atom_site_fract_z
_atom_site_U_iso_or_equiv
_atom_site_adp_type
_atom_site_occupancy
_atom_site_symmetry_multiplicity
_atom_site_calc_flag
_atom_site_refinement_flags
N1 N 0.1276(5) 0.3942(5) 0.0233(16) 0.0762(17) Uani 1 1 d .
N3 N 0.0135(5) 0.1916(4) 0.0124(10) 0.0824(15) Uani 1 1 d .
C2 C 0.0322(5) 0.3259(5) 0.0679(15) 0.0738(17) Uani 1 1 d .
H2 H -0.0297 0.3783 0.1480 0.089 Uiso 1 1 calc R
C4 C 0.1026(6) 0.1189(6) -0.1007(16) 0.082(2) Uani 1 1 d .
H4 H 0.0939 0.0230 -0.1415 0.098 Uiso 1 1 calc R
C5 C 0.2059(4) 0.1786(4) -0.1593(11) 0.0745(19) Uani 1 1 d .
H5 H 0.2673 0.1260 -0.2414 0.089 Uiso 1 1 calc R
C6 C 0.2164(5) 0.3193(5) -0.0931(11) 0.079(2) Uani 1 1 d .
H6 H 0.2863 0.3636 -0.1296 0.095 Uiso 1 1 calc R
loop_
_atom_site_aniso_label
_atom_site_aniso_U_11
_atom_site_aniso_U_22
_atom_site_aniso_U_33
_atom_site_aniso_U_23
_atom_site_aniso_U_13
_atom_site_aniso_U_12
N1 0.059(7) 0.055(4) 0.114(3) -0.011(2) -0.005(3) -0.003(2)
N3 0.068(4) 0.062(4) 0.118(4) -0.010(3) 0.005(3) -0.0044(17)
C2 0.052(7) 0.074(5) 0.095(4) -0.015(3) 0.000(3) 0.009(2)
C4 0.080(8) 0.056(5) 0.109(4) -0.014(3) -0.016(3) 0.002(3)
C5 0.076(7) 0.059(5) 0.089(4) -0.009(2) -0.007(3) 0.014(2)
C6 0.051(8) 0.083(6) 0.102(5) 0.005(4) 0.001(3) -0.009(2)
loop_
_atom_type_symbol
_atom_type_description
_atom_type_scat_dispersion_real
_atom_type_scat_dispersion_imag
_atom_type_scat_source
C C 0.0033 0.0016 'International Tables Vol C Tables 4.2.6.8 and 6.1.1.4'
H H 0.0000 0.0000 'International Tables Vol C Tables 4.2.6.8 and 6.1.1.4'
N N 0.0061 0.0033 'International Tables Vol C Tables 4.2.6.8 and 6.1.1.4'
loop_
_geom_angle_atom_site_label_1
_geom_angle_atom_site_label_2
_geom_angle_atom_site_label_3
_geom_angle
C2 N1 C6 116.4(7)
C2 N3 C4 115.4(6)
N1 C2 N3 127.3(7)
N3 C4 C5 122.6(6)
C4 C5 C6 117.4(5)
N1 C6 C5 120.9(7)
loop_
_geom_bond_atom_site_label_1
_geom_bond_atom_site_label_2
_geom_bond_distance
N1 C2 1.302(6)
N1 C6 1.336(6)
N3 C2 1.312(5)
N3 C4 1.324(8)
C4 C5 1.354(8)
C5 C6 1.366(6)
loop_
_refln_index_h
_refln_index_k
_refln_index_l
_refln_F_squared_calc
_refln_F_squared_meas
_refln_F_squared_sigma
_refln_observed_status
2 0 -4 1.75 1.29 1.52 o
4 0 -4 0.30 1.28 0.80 o
1 1 -4 0.49 1.04 1.74 o
2 1 -4 0.47 1.52 0.85 o
3 1 -4 0.70 1.70 0.81 o
4 1 -4 0.44 1.11 0.61 o
5 1 -4 0.69 0.96 0.92 o
6 1 -4 0.67 1.23 1.23 o
0 2 -4 0.83 1.20 1.38 o
1 2 -4 0.59 1.03 0.81 o
2 2 -4 0.79 0.79 3.61 o
3 2 -4 2.55 2.96 1.42 o
5 2 -4 0.42 2.17 1.50 o
6 2 -4 0.09 1.33 1.04 o
7 2 -4 0.16 0.73 0.94 o
1 3 -4 0.29 1.49 0.80 o
2 3 -4 0.05 1.29 1.65 o
7 3 -4 0.40 1.71 1.56 o
0 4 -4 0.12 1.28 1.18 o
1 4 -4 0.92 1.13 0.92 o
1 5 -4 1.00 2.23 1.43 o
2 5 -4 0.31 1.97 1.09 o
2 6 -4 0.60 2.52 1.81 o
3 6 -4 0.25 1.55 1.73 o
2 0 -3 1.37 3.73 1.24 o
4 0 -3 13.99 15.46 1.09 o
0 1 -3 0.19 0.89 1.01 o
1 1 -3 6.92 7.04 1.10 o
2 1 -3 35.66 33.57 1.66 o
3 1 -3 10.22 11.08 0.86 o
4 1 -3 0.67 1.16 0.49 o
5 1 -3 1.09 1.54 0.59 o
6 1 -3 4.53 6.71 1.41 o
1 2 -3 13.49 13.16 0.70 o
2 2 -3 1.10 1.55 0.73 o
3 2 -3 14.14 12.94 1.46 o
4 2 -3 6.82 5.81 0.99 o
5 2 -3 4.93 4.84 0.79 o
6 2 -3 0.05 0.80 0.56 o
7 2 -3 0.72 1.41 0.83 o
0 3 -3 1.74 1.75 0.47 o
1 3 -3 6.33 6.29 0.59 o
2 3 -3 3.10 2.10 0.68 o
4 3 -3 2.04 1.11 0.88 o
5 3 -3 0.21 1.21 0.66 o
6 3 -3 0.29 1.02 0.62 o
7 3 -3 0.35 0.79 0.86 o
8 3 -3 0.04 0.80 0.66 o
1 4 -3 1.91 1.48 0.59 o
2 4 -3 1.15 1.41 0.59 o
3 4 -3 5.65 4.84 0.88 o
6 4 -3 0.12 1.26 0.83 o
7 4 -3 4.40 5.46 1.36 o
8 4 -3 1.50 1.79 0.96 o
1 5 -3 3.23 4.83 1.13 o
2 5 -3 5.64 6.52 0.98 o
3 5 -3 3.77 4.19 0.92 o
4 5 -3 0.40 1.04 0.53 o
7 5 -3 2.67 4.10 2.08 o
8 5 -3 0.26 1.46 0.91 o
9 5 -3 1.76 2.98 1.30 o
2 6 -3 2.22 2.93 1.15 o
3 6 -3 1.74 1.24 0.97 o
4 6 -3 4.94 3.39 1.09 o
5 6 -3 0.82 1.17 0.70 o
9 6 -3 0.77 1.50 1.65 o
3 7 -3 0.48 2.28 1.52 o
4 7 -3 0.79 1.62 1.05 o
5 7 -3 0.09 1.54 1.06 o
5 8 -3 0.82 2.61 1.88 o
6 8 -3 0.24 1.29 1.03 o
0 0 -2 509.71 527.92 12.47 o
2 0 -2 385.09 422.70 8.18 o
4 0 -2 1.21 1.20 0.42 o
1 1 -2 66.33 62.81 1.78 o
2 1 -2 79.31 81.94 2.43 o
3 1 -2 31.97 34.45 0.59 o
4 1 -2 72.52 78.69 1.62 o
5 1 -2 8.58 10.12 0.78 o
0 2 -2 29.22 28.90 0.62 o
1 2 -2 94.62 101.71 2.09 o
2 2 -2 124.54 120.85 3.78 o
3 2 -2 54.60 55.92 1.52 o
4 2 -2 39.84 43.99 1.01 o
5 2 -2 3.28 3.26 0.58 o
6 2 -2 8.87 8.94 1.76 o
1 3 -2 39.73 42.28 0.67 o
2 3 -2 41.13 38.01 0.78 o
3 3 -2 31.16 30.18 1.01 o
4 3 -2 11.98 11.71 0.76 o
5 3 -2 0.26 0.62 0.59 o
6 3 -2 14.14 14.53 0.90 o
7 3 -2 5.32 6.52 0.93 o
0 4 -2 41.79 43.44 1.63 o
1 4 -2 3.96 3.86 0.49 o
2 4 -2 5.20 4.47 0.54 o
3 4 -2 9.94 10.40 0.68 o
4 4 -2 17.12 17.04 0.81 o
5 4 -2 6.32 6.45 0.80 o
6 4 -2 2.02 2.44 0.80 o
7 4 -2 7.70 9.38 1.00 o
8 4 -2 1.70 1.14 0.66 o
1 5 -2 15.15 15.05 1.27 o
2 5 -2 6.89 10.15 1.23 o
3 5 -2 5.56 4.04 0.65 o
4 5 -2 11.06 9.73 1.23 o
5 5 -2 9.41 8.47 0.96 o
6 5 -2 2.53 2.91 0.59 o
7 5 -2 20.64 20.42 1.22 o
8 5 -2 9.46 10.88 1.07 o
9 5 -2 3.22 2.40 1.79 o
2 6 -2 42.21 45.23 2.93 o
3 6 -2 8.71 8.53 1.01 o
4 6 -2 21.24 21.76 1.27 o
5 6 -2 2.61 1.75 0.61 o
6 6 -2 2.15 2.00 0.84 o
7 6 -2 5.44 5.76 1.42 o
8 6 -2 1.16 1.40 1.18 o
9 6 -2 2.81 2.86 0.98 o
10 6 -2 2.01 2.62 2.01 o
4 7 -2 21.12 23.29 1.36 o
5 7 -2 1.98 1.08 0.67 o
6 7 -2 10.99 11.82 1.30 o
7 7 -2 0.58 1.53 0.95 o
9 7 -2 0.06 1.64 1.48 o
10 7 -2 0.12 4.22 2.07 o
5 8 -2 2.65 3.91 1.35 o
6 8 -2 1.54 2.37 1.25 o
7 8 -2 2.05 1.53 0.92 o
8 8 -2 0.52 0.98 1.05 o
7 9 -2 1.58 1.85 1.04 o
8 9 -2 0.95 0.17 2.05 o
2 0 -1 2228.67 2401.52 14.20 o
0 1 -1 5449.85 5146.14 96.17 o
1 1 -1 134.82 143.57 2.32 o
2 1 -1 693.42 754.54 5.31 o
3 1 -1 39.32 36.13 3.29 o
4 1 -1 159.53 185.92 5.09 o
1 2 -1 202.10 208.93 3.95 o
2 2 -1 13.39 12.87 0.34 o
3 2 -1 73.58 75.60 1.41 o
4 2 -1 79.35 83.76 2.41 o
5 2 -1 7.63 8.82 0.52 o
0 3 -1 119.45 134.74 2.61 o
1 3 -1 76.77 77.42 0.80 o
2 3 -1 13.83 13.75 0.36 o
3 3 -1 10.02 9.28 0.36 o
4 3 -1 356.08 368.16 6.35 o
5 3 -1 2.46 2.03 0.36 o
6 3 -1 18.96 20.08 0.89 o
7 3 -1 0.75 1.10 0.74 o
1 4 -1 39.40 44.74 1.17 o
2 4 -1 263.99 276.94 2.88 o
3 4 -1 1.62 1.62 0.24 o
4 4 -1 3.05 3.10 0.31 o
5 4 -1 11.43 11.91 0.38 o
6 4 -1 21.22 20.95 0.73 o
7 4 -1 35.69 39.80 2.42 o
8 4 -1 2.99 3.31 1.86 o
2 5 -1 43.35 49.51 1.02 o
3 5 -1 10.27 9.93 0.56 o
4 5 -1 9.37 8.63 0.46 o
5 5 -1 28.37 27.62 0.67 o
6 5 -1 2.03 1.90 0.37 o
7 5 -1 10.51 10.70 0.69 o
8 5 -1 0.84 1.51 0.79 o
3 6 -1 5.29 5.88 0.76 o
4 6 -1 24.33 23.11 1.15 o
5 6 -1 14.97 14.52 0.84 o
6 6 -1 93.44 99.77 1.25 o
7 6 -1 18.55 17.51 0.84 o
8 6 -1 9.55 8.71 1.33 o
9 6 -1 1.01 2.17 1.27 o
5 7 -1 1.89 2.10 1.06 o
6 7 -1 10.07 10.43 1.33 o
7 7 -1 3.74 3.14 0.72 o
8 7 -1 5.31 4.18 0.93 o
9 7 -1 0.80 0.28 0.97 o
10 7 -1 1.49 1.88 1.54 o
6 8 -1 38.23 42.51 2.83 o
7 8 -1 1.29 1.10 0.70 o
8 8 -1 3.38 3.70 1.19 o
9 8 -1 0.36 1.94 0.78 o
10 8 -1 2.29 2.11 1.18 o
8 9 -1 1.77 3.94 1.96 o
9 9 -1 0.29 1.87 1.17 o
1 1 0 0.42 0.44 0.04 o
2 1 0 2693.39 2458.36 6.16 o
1 2 0 25.56 28.49 0.61 o
2 2 0 12.57 12.30 0.15 o
3 2 0 0.12 0.20 0.07 o
4 2 0 871.44 795.00 30.77 o
2 3 0 435.51 402.94 11.53 o
3 3 0 6.38 6.16 0.18 o
4 3 0 23.04 22.66 0.32 o
5 3 0 11.64 11.58 0.35 o
6 3 0 294.06 292.38 12.22 o
2 4 0 0.72 0.66 0.45 o
3 4 0 1.40 1.32 0.19 o
4 4 0 133.05 124.77 1.92 o
5 4 0 43.84 44.31 0.50 o
6 4 0 6.39 6.24 0.38 o
7 4 0 0.32 1.59 0.54 o
3 5 0 0.47 0.44 0.24 o
4 5 0 0.17 0.57 0.26 o
5 5 0 13.34 12.89 0.50 o
6 5 0 31.40 29.22 0.80 o
7 5 0 50.19 50.35 1.45 o
8 5 0 0.37 0.35 0.54 o
4 6 0 205.81 199.40 4.33 o
5 6 0 6.56 6.73 0.54 o
6 6 0 10.44 10.00 0.60 o
7 6 0 3.34 3.98 0.68 o
8 6 0 9.74 9.98 0.67 o
6 7 0 183.79 194.70 2.96 o
7 7 0 1.27 1.66 0.47 o
8 7 0 0.81 1.59 0.49 o
9 7 0 0.10 0.77 0.51 o
7 8 0 2.10 0.46 1.08 o
8 8 0 1.04 1.31 0.49 o
9 8 0 0.01 1.83 0.62 o
10 8 0 1.06 1.11 0.92 o
9 9 0 0.01 1.08 1.04 o
10 9 0 4.66 2.14 1.31 o
2 0 1 2228.20 2255.55 22.27 o
0 1 1 5448.98 5094.12 62.46 o
1 1 1 134.91 142.01 1.35 o
2 1 1 693.83 693.29 11.81 o
3 1 1 39.38 38.16 0.51 o
4 1 1 159.52 152.05 1.28 o
1 2 1 202.09 207.97 4.82 o
2 2 1 13.40 13.59 0.24 o
3 2 1 73.63 76.90 1.00 o
4 2 1 79.39 76.80 1.17 o
5 2 1 7.65 7.41 0.38 o
6 2 1 166.55 159.12 2.50 o
0 3 1 119.40 113.67 2.57 o
1 3 1 76.76 70.93 1.41 o
2 3 1 13.84 13.99 0.44 o
3 3 1 10.02 9.92 0.26 o
4 3 1 356.01 368.05 3.80 o
5 3 1 2.46 2.55 0.27 o
6 3 1 18.95 18.28 0.53 o
7 3 1 0.75 0.72 0.42 o
1 4 1 39.36 38.30 1.09 o
2 4 1 263.94 261.34 3.49 o
3 4 1 1.62 1.83 0.25 o
4 4 1 3.05 2.98 0.32 o
5 4 1 11.41 11.36 0.46 o
6 4 1 21.20 21.28 0.57 o
7 4 1 35.70 32.39 1.02 o
8 4 1 3.00 1.93 0.98 o
2 5 1 43.38 42.00 0.96 o
3 5 1 10.28 9.07 0.54 o
4 5 1 9.37 9.49 0.52 o
5 5 1 28.38 28.17 0.69 o
6 5 1 2.03 2.26 0.36 o
7 5 1 10.52 10.58 0.50 o
8 5 1 0.85 1.27 0.73 o
3 6 1 5.29 5.61 0.93 o
4 6 1 24.34 23.19 1.08 o
5 6 1 14.97 13.18 0.68 o
6 6 1 93.42 102.57 1.28 o
7 6 1 18.55 19.31 1.08 o
8 6 1 9.56 7.90 1.08 o
9 6 1 1.01 0.38 0.76 o
5 7 1 1.89 1.98 0.87 o
6 7 1 10.07 12.25 1.10 o
7 7 1 3.74 2.86 0.79 o
8 7 1 5.30 4.68 0.95 o
9 7 1 0.80 1.16 1.09 o
10 7 1 1.49 2.50 2.11 o
6 8 1 38.21 38.90 4.45 o
7 8 1 1.29 0.98 0.82 o
8 8 1 3.38 2.78 0.91 o
9 8 1 0.36 1.71 0.87 o
10 8 1 2.29 2.78 1.22 o
8 9 1 1.77 1.11 1.30 o
9 9 1 0.29 1.12 0.92 o
0 0 2 509.31 555.78 8.30 o
2 0 2 385.23 387.95 4.35 o
4 0 2 1.21 0.96 0.36 o
1 1 2 66.36 63.47 0.78 o
2 1 2 79.26 75.42 0.65 o
3 1 2 31.97 29.11 0.59 o
4 1 2 72.53 69.18 1.01 o
5 1 2 8.60 7.75 0.79 o
0 2 2 29.21 28.37 0.61 o
1 2 2 94.61 95.11 1.08 o
2 2 2 124.60 120.04 2.10 o
3 2 2 54.64 55.40 1.09 o
4 2 2 39.82 39.90 0.95 o
5 2 2 3.29 2.88 0.67 o
6 2 2 8.87 7.60 0.81 o
1 3 2 39.70 39.66 0.85 o
2 3 2 41.10 39.56 0.68 o
3 3 2 31.15 31.04 0.66 o
4 3 2 11.98 11.18 0.56 o
5 3 2 0.27 0.56 0.38 o
6 3 2 14.12 13.97 0.85 o
7 3 2 5.32 5.92 0.93 o
0 4 2 41.75 36.53 1.46 o
1 4 2 3.96 3.54 0.67 o
2 4 2 5.19 3.89 0.52 o
3 4 2 9.93 10.56 0.69 o
4 4 2 17.10 17.47 0.64 o
5 4 2 6.32 6.01 0.57 o
6 4 2 2.02 2.55 0.66 o
7 4 2 7.69 6.62 0.90 o
8 4 2 1.70 0.72 0.85 o
1 5 2 15.16 14.78 1.11 o
2 5 2 6.88 6.53 0.80 o
3 5 2 5.56 5.57 0.71 o
4 5 2 11.06 10.97 0.69 o
5 5 2 9.40 10.96 0.71 o
6 5 2 2.53 2.06 0.62 o
7 5 2 20.64 22.22 1.32 o
8 5 2 9.47 9.88 1.32 o
9 5 2 3.22 5.84 2.19 o
2 6 2 42.23 41.88 2.09 o
3 6 2 8.72 8.81 1.19 o
4 6 2 21.23 20.40 1.16 o
5 6 2 2.62 1.68 0.64 o
6 6 2 2.15 1.97 0.82 o
7 6 2 5.44 5.34 0.95 o
8 6 2 1.16 1.76 0.95 o
9 6 2 2.80 1.86 1.28 o
10 6 2 2.01 0.80 1.91 o
4 7 2 21.13 20.31 1.73 o
5 7 2 1.98 1.75 0.67 o
6 7 2 10.97 11.94 1.16 o
7 7 2 0.58 1.32 0.72 o
9 7 2 0.06 1.43 1.38 o
10 7 2 0.12 1.46 2.57 o
5 8 2 2.65 2.06 1.39 o
6 8 2 1.54 2.36 1.08 o
7 8 2 2.05 3.36 1.07 o
8 8 2 0.52 0.84 1.13 o
7 9 2 1.58 2.72 1.48 o
8 9 2 0.95 5.80 1.67 o
2 0 3 1.36 1.08 0.37 o
4 0 3 14.00 15.89 1.37 o
0 1 3 0.19 0.39 0.52 o
1 1 3 6.92 6.60 0.88 o
2 1 3 35.68 34.18 1.11 o
3 1 3 10.23 9.38 0.62 o
4 1 3 0.67 0.82 0.36 o
5 1 3 1.09 1.18 0.58 o
6 1 3 4.54 4.96 1.15 o
1 2 3 13.49 14.12 0.68 o
2 2 3 1.10 1.21 0.56 o
3 2 3 14.13 12.59 0.82 o
4 2 3 6.82 6.56 0.88 o
5 2 3 4.93 4.80 0.83 o
6 2 3 0.05 1.52 0.65 o
7 2 3 0.72 0.70 1.17 o
0 3 3 1.74 1.45 0.41 o
1 3 3 6.32 6.04 0.55 o
2 3 3 3.10 1.79 0.47 o
4 3 3 2.04 1.48 0.69 o
5 3 3 0.21 0.90 0.71 o
6 3 3 0.29 1.12 0.70 o
7 3 3 0.35 0.88 0.70 o
8 3 3 0.04 2.97 1.17 o
1 4 3 1.90 1.99 0.51 o
2 4 3 1.15 2.11 0.73 o
3 4 3 5.64 6.39 1.15 o
6 4 3 0.12 1.00 0.81 o
7 4 3 4.39 3.26 0.95 o
8 4 3 1.50 2.02 1.18 o
1 5 3 3.24 6.06 1.08 o
2 5 3 5.64 5.53 0.89 o
3 5 3 3.77 3.33 0.92 o
4 5 3 0.40 1.15 0.92 o
7 5 3 2.67 2.81 1.19 o
8 5 3 0.26 1.36 0.89 o
9 5 3 1.75 1.81 0.93 o
2 6 3 2.22 3.42 1.01 o
3 6 3 1.74 2.55 1.03 o
4 6 3 4.94 4.07 0.90 o
5 6 3 0.82 1.57 0.94 o
9 6 3 0.77 0.44 1.35 o
3 7 3 0.48 2.46 2.06 o
4 7 3 0.79 1.60 0.85 o
5 7 3 0.09 0.81 1.25 o
5 8 3 0.82 1.89 1.88 o
6 8 3 0.24 1.83 0.89 o
4 0 4 0.30 1.10 0.76 o
1 1 4 0.49 0.49 1.15 o
2 1 4 0.47 0.95 0.73 o
3 1 4 0.70 0.77 0.72 o
4 1 4 0.44 1.16 0.53 o
5 1 4 0.69 1.30 0.89 o
6 1 4 0.67 1.54 1.14 o
0 2 4 0.83 0.37 1.10 o
1 2 4 0.59 0.65 0.68 o
2 2 4 0.79 0.48 3.60 o
3 2 4 2.55 3.09 1.44 o
5 2 4 0.42 0.78 1.28 o
6 2 4 0.09 1.35 1.26 o
7 2 4 0.16 1.69 1.22 o
1 3 4 0.29 0.65 0.85 o
2 3 4 0.05 2.67 1.41 o
7 3 4 0.40 1.86 1.18 o
8 3 4 0.02 0.36 1.43 o
0 4 4 0.13 0.77 0.89 o
1 4 4 0.92 1.89 0.68 o
1 5 4 1.00 2.01 1.35 o
2 5 4 0.31 0.84 1.01 o
2 6 4 0.60 0.47 1.47 o
3 6 4 0.25 1.83 2.51 o
4 7 4 0.26 2.01 1.75 o
