#------------------------------------------------------------------------------
#$Date: 2019-11-22 19:03:52 +0200 (Fri, 22 Nov 2019) $
#$Revision: 231268 $
#$URL: file:///home/coder/svn-repositories/cod/cif/4/51/63/4516347.cif $
#------------------------------------------------------------------------------
#
# This file is available in the Crystallography Open Database (COD),
# http://www.crystallography.net/
#
# All data on this site have been placed in the public domain by the
# contributors.
#
data_4516347
loop_
_publ_author_name
'Patyk, Ewa'
'Podsiad\/lo, Marcin'
'Katrusiak, Andrzej'
_publ_section_title
;
 CH&#x00B7;&#x00B7;&#x00B7;N Bonds and Dynamics in Isostructural
 Pyrimidine Polymorphs
;
_journal_issue                   8
_journal_name_full               'Crystal Growth &amp; Design'
_journal_page_first              4039
_journal_paper_doi               10.1021/acs.cgd.5b00657
_journal_volume                  15
_journal_year                    2015
_chemical_formula_moiety         'C4 H4 N2'
_chemical_formula_sum            'C4 H4 N2'
_chemical_formula_weight         80.09
_chemical_melting_point          293.15
_chemical_name_common            pyrimidine
_chemical_name_systematic
; 
pyrimidine phase I
;
_space_group_IT_number           33
_space_group_name_Hall           'P 2c -2n'
_space_group_name_H-M_alt        'P n a 21'
_symmetry_cell_setting           orthorhombic
_symmetry_space_group_name_Hall  'P 2c -2n'
_symmetry_space_group_name_H-M   'P n a 21'
_atom_sites_solution_hydrogens   geom
_atom_sites_solution_primary     direct
_atom_sites_solution_secondary   difmap
_audit_creation_method           SHELXL-97
_cell_angle_alpha                90.00
_cell_angle_beta                 90.00
_cell_angle_gamma                90.00
_cell_formula_units_Z            4
_cell_length_a                   11.660(3)
_cell_length_b                   9.480(3)
_cell_length_c                   3.7771(10)
_cell_measurement_reflns_used    3037
_cell_measurement_temperature    230.0(1)
_cell_measurement_theta_max      28.05
_cell_measurement_theta_min      3.49
_cell_volume                     417.5(2)
_computing_cell_refinement       'CrysAlisRED (Oxford Diffraction, 2004)'
_computing_data_collection       'CrysAlisCCD (Oxford Diffraction, 2004)'
_computing_data_reduction        'CrysAlisRED (Oxford Diffraction, 2004)'
_computing_molecular_graphics    'SHELXTL (Sheldrick, 1990)'
_computing_publication_material  'SHELXL--97 (Sheldrick, 1997)'
_computing_structure_refinement  'SHELXL--97 (Sheldrick, 1997)'
_computing_structure_solution    'SHELXS--97 (Sheldrick, 1997)'
_diffrn_ambient_pressure         100
_diffrn_ambient_temperature      230.0(1)
_diffrn_measured_fraction_theta_full 0.915
_diffrn_measured_fraction_theta_max 0.915
_diffrn_measurement_device_type  'KM-4 CCD'
_diffrn_measurement_method       \w-scans
_diffrn_radiation_monochromator  graphite
_diffrn_radiation_source         'fine-focus sealed tube'
_diffrn_radiation_type           MoK\a
_diffrn_radiation_wavelength     0.71073
_diffrn_reflns_av_R_equivalents  0.0545
_diffrn_reflns_av_sigmaI/netI    0.0549
_diffrn_reflns_limit_h_max       14
_diffrn_reflns_limit_h_min       -14
_diffrn_reflns_limit_k_max       11
_diffrn_reflns_limit_k_min       -11
_diffrn_reflns_limit_l_max       4
_diffrn_reflns_limit_l_min       -4
_diffrn_reflns_number            3037
_diffrn_reflns_theta_full        28.05
_diffrn_reflns_theta_max         28.05
_diffrn_reflns_theta_min         3.49
_diffrn_standards_decay_%        0
_diffrn_standards_interval_count 0
_diffrn_standards_number         0
_exptl_absorpt_coefficient_mu    0.084
_exptl_absorpt_correction_T_max  0.983
_exptl_absorpt_correction_T_min  0.983
_exptl_absorpt_correction_type   numerical
_exptl_absorpt_process_details
; 
 Correction for absorption was made using XEMP (SHELXTL, 
 Sheldrick (1990)).
;
_exptl_crystal_colour            colourless
_exptl_crystal_density_diffrn    1.274
_exptl_crystal_density_method    'not measured'
_exptl_crystal_description       irregular
_exptl_crystal_F_000             168
_exptl_crystal_size_max          0.20
_exptl_crystal_size_mid          0.20
_exptl_crystal_size_min          0.20
_refine_diff_density_max         0.126
_refine_diff_density_min         -0.156
_refine_diff_density_rms         0.034
_refine_ls_abs_structure_details 'Flack H D (1983), Acta Cryst. A39, 876-881'
_refine_ls_abs_structure_Flack   -4(6)
_refine_ls_extinction_coef       0.039(6)
_refine_ls_extinction_expression Fc^*^=kFc[1+0.001xFc^2^\l^3^/sin(2\q)]^-1/4^
_refine_ls_extinction_method     SHELXL
_refine_ls_goodness_of_fit_ref   1.068
_refine_ls_hydrogen_treatment    constr
_refine_ls_matrix_type           full
_refine_ls_number_parameters     56
_refine_ls_number_reflns         880
_refine_ls_number_restraints     1
_refine_ls_restrained_S_all      1.067
_refine_ls_R_factor_all          0.1001
_refine_ls_R_factor_gt           0.0496
_refine_ls_shift/su_max          0.000
_refine_ls_shift/su_mean         0.000
_refine_ls_structure_factor_coef Fsqd
_refine_ls_weighting_details
'calc w=1/[\s^2^(Fo^2^)+(0.0277P)^2^+0.0000P] where P=(Fo^2^+2Fc^2^)/3'
_refine_ls_weighting_scheme      calc
_refine_ls_wR_factor_gt          0.0877
_refine_ls_wR_factor_ref         0.1093
_reflns_number_gt                549
_reflns_number_total             880
_reflns_threshold_expression     >2sigma(I)
_cod_data_source_file            cg5b00657_si_002.cif
_cod_data_source_block           phaseI_230K
_cod_original_cell_volume        417.52(19)
_cod_database_code               4516347
loop_
_symmetry_equiv_pos_as_xyz
'x, y, z'
'-x, -y, z+1/2'
'x+1/2, -y+1/2, z'
'-x+1/2, y+1/2, z+1/2'
loop_
_atom_site_label
_atom_site_type_symbol
_atom_site_fract_x
_atom_site_fract_y
_atom_site_fract_z
_atom_site_U_iso_or_equiv
_atom_site_adp_type
_atom_site_occupancy
_atom_site_symmetry_multiplicity
_atom_site_calc_flag
_atom_site_refinement_flags
N1 N 0.1271(2) 0.3969(2) 0.0235(10) 0.0564(8) Uani 1 1 d .
N3 N 0.0120(2) 0.1910(3) 0.0149(7) 0.0592(9) Uani 1 1 d .
C2 C 0.0309(2) 0.3263(3) 0.0744(11) 0.0543(10) Uani 1 1 d .
H2 H -0.0308 0.3778 0.1622 0.065 Uiso 1 1 calc R
C4 C 0.1012(3) 0.1190(3) -0.1045(10) 0.0586(10) Uani 1 1 d .
H4 H 0.0920 0.0234 -0.1513 0.070 Uiso 1 1 calc R
C5 C 0.2067(3) 0.1794(3) -0.1624(8) 0.0539(10) Uani 1 1 d .
H5 H 0.2690 0.1273 -0.2436 0.065 Uiso 1 1 calc R
C6 C 0.2146(3) 0.3206(3) -0.0936(7) 0.0570(12) Uani 1 1 d .
H6 H 0.2846 0.3653 -0.1306 0.068 Uiso 1 1 calc R
loop_
_atom_site_aniso_label
_atom_site_aniso_U_11
_atom_site_aniso_U_22
_atom_site_aniso_U_33
_atom_site_aniso_U_23
_atom_site_aniso_U_13
_atom_site_aniso_U_12
N1 0.0478(14) 0.0402(13) 0.081(2) -0.0046(16) -0.0090(16) 0.0023(12)
N3 0.0486(15) 0.0443(14) 0.085(2) -0.0030(18) 0.0020(15) -0.0024(12)
C2 0.0433(17) 0.050(2) 0.070(3) -0.007(2) -0.0002(18) 0.0094(15)
C4 0.061(2) 0.0386(17) 0.076(3) -0.0093(17) -0.0058(16) 0.0027(16)
C5 0.0495(19) 0.048(2) 0.064(2) -0.0093(18) -0.0035(16) 0.0060(16)
C6 0.0405(16) 0.058(2) 0.072(3) 0.002(2) -0.0025(14) -0.0077(15)
loop_
_atom_type_symbol
_atom_type_description
_atom_type_scat_dispersion_real
_atom_type_scat_dispersion_imag
_atom_type_scat_source
C C 0.0033 0.0016 'International Tables Vol C Tables 4.2.6.8 and 6.1.1.4'
H H 0.0000 0.0000 'International Tables Vol C Tables 4.2.6.8 and 6.1.1.4'
N N 0.0061 0.0033 'International Tables Vol C Tables 4.2.6.8 and 6.1.1.4'
loop_
_geom_angle_atom_site_label_1
_geom_angle_atom_site_label_2
_geom_angle_atom_site_label_3
_geom_angle
C2 N1 C6 115.2(2)
C2 N3 C4 115.4(3)
N1 C2 N3 127.5(3)
N3 C4 C5 122.9(3)
C6 C5 C4 116.0(3)
N1 C6 C5 123.1(3)
loop_
_geom_bond_atom_site_label_1
_geom_bond_atom_site_label_2
_geom_bond_distance
N1 C2 1.321(3)
N1 C6 1.327(4)
N3 C2 1.321(3)
N3 C4 1.322(4)
C4 C5 1.375(4)
C5 C6 1.367(4)
loop_
_refln_index_h
_refln_index_k
_refln_index_l
_refln_F_squared_calc
_refln_F_squared_meas
_refln_F_squared_sigma
_refln_observed_status
5 1 -4 3.15 4.15 2.92 o
6 1 -4 2.50 5.69 3.05 o
7 1 -4 0.44 -0.37 1.72 o
4 2 -4 0.66 0.80 1.60 o
5 2 -4 1.68 1.21 1.60 o
6 2 -4 0.38 -2.46 2.46 o
7 2 -4 1.22 1.83 3.34 o
8 2 -4 0.17 2.14 2.35 o
3 3 -4 5.27 5.90 3.55 o
4 3 -4 0.39 -1.09 1.75 o
5 3 -4 4.14 -2.47 2.84 o
6 3 -4 0.27 3.87 4.13 o
7 3 -4 1.75 2.22 1.79 o
2 4 -4 0.06 0.97 1.89 o
3 4 -4 1.96 -1.82 1.82 o
4 4 -4 0.04 -0.14 1.69 o
5 4 -4 0.18 1.68 2.83 o
6 4 -4 0.31 1.19 2.01 o
2 5 -4 1.03 -1.44 2.09 o
3 5 -4 2.36 -1.29 3.28 o
4 5 -4 0.36 4.28 3.34 o
0 6 -4 3.49 3.55 2.96 o
1 6 -4 2.30 6.20 2.72 o
2 6 -4 2.13 1.22 2.31 o
4 0 -3 21.85 22.33 4.56 o
6 0 -3 7.56 2.67 2.29 o
2 1 -3 63.37 63.14 7.64 o
3 1 -3 22.14 18.46 4.31 o
4 1 -3 2.09 4.67 2.11 o
5 1 -3 2.32 1.76 1.13 o
6 1 -3 12.04 11.82 2.56 o
7 1 -3 1.93 1.01 1.08 o
8 1 -3 9.20 9.01 3.16 o
9 1 -3 0.31 0.90 1.90 o
1 2 -3 24.25 20.49 4.54 o
2 2 -3 2.11 2.69 2.42 o
3 2 -3 31.42 30.63 5.25 o
4 2 -3 13.03 14.84 4.06 o
5 2 -3 14.48 10.89 3.22 o
6 2 -3 0.19 -0.27 1.35 o
7 2 -3 2.15 -1.28 1.28 o
8 2 -3 7.73 10.65 3.69 o
9 2 -3 0.99 3.39 2.69 o
10 2 -3 0.09 3.29 3.38 o
0 3 -3 2.77 2.84 2.16 o
1 3 -3 11.18 10.06 2.06 o
2 3 -3 7.36 7.39 2.17 o
3 3 -3 22.80 21.06 3.47 o
4 3 -3 4.93 4.40 1.71 o
5 3 -3 0.63 1.20 2.04 o
6 3 -3 0.16 3.35 2.74 o
7 3 -3 0.53 0.44 1.97 o
8 3 -3 0.19 2.68 2.82 o
9 3 -3 3.12 0.38 2.02 o
10 3 -3 0.75 1.05 1.98 o
11 3 -3 0.90 0.50 2.14 o
1 4 -3 5.59 5.08 1.30 o
2 4 -3 2.30 1.72 1.05 o
3 4 -3 14.12 16.63 2.65 o
4 4 -3 0.15 -1.46 1.46 o
5 4 -3 0.68 2.50 1.80 o
6 4 -3 0.95 -0.31 1.06 o
7 4 -3 12.73 11.10 3.08 o
8 4 -3 4.25 3.75 1.91 o
9 4 -3 3.98 5.83 4.06 o
10 4 -3 0.92 -0.03 2.14 o
0 5 -3 2.08 0.30 3.31 o
1 5 -3 8.89 8.29 2.03 o
2 5 -3 11.95 6.97 1.74 o
3 5 -3 9.71 11.74 2.49 o
4 5 -3 0.99 1.71 1.49 o
5 5 -3 1.50 3.98 2.43 o
6 5 -3 1.60 1.05 2.47 o
7 5 -3 6.73 4.78 2.75 o
8 5 -3 0.60 0.07 3.82 o
9 5 -3 5.64 4.30 2.80 o
1 6 -3 10.99 8.80 1.69 o
2 6 -3 5.18 3.67 1.27 o
3 6 -3 3.35 3.77 1.62 o
4 6 -3 12.23 12.57 2.51 o
5 6 -3 1.71 1.33 2.64 o
6 6 -3 0.09 -1.50 1.50 o
7 6 -3 4.34 0.06 4.31 o
8 6 -3 6.87 2.42 1.89 o
0 7 -3 3.82 4.00 1.92 o
1 7 -3 0.72 0.28 1.48 o
2 7 -3 23.17 23.07 3.67 o
3 7 -3 0.94 -0.27 1.49 o
4 7 -3 1.97 1.13 1.56 o
5 7 -3 0.46 -0.18 1.76 o
6 7 -3 0.46 1.31 1.25 o
7 7 -3 0.07 1.62 1.56 o
8 7 -3 0.32 8.05 4.20 o
1 8 -3 0.00 0.58 1.22 o
2 8 -3 0.80 1.40 1.37 o
3 8 -3 1.81 2.08 1.38 o
4 8 -3 6.99 7.70 2.29 o
5 8 -3 2.43 -0.30 1.68 o
6 8 -3 0.58 6.97 4.45 o
0 9 -3 1.68 -1.24 2.43 o
1 9 -3 1.31 0.85 1.06 o
2 9 -3 4.47 0.78 2.36 o
3 9 -3 1.88 2.07 3.14 o
4 9 -3 0.26 -0.32 1.90 o
1 10 -3 0.35 2.88 2.95 o
2 0 -2 501.62 477.00 6.16 o
4 0 -2 2.26 2.56 0.73 o
6 0 -2 66.00 65.47 3.94 o
8 0 -2 53.17 50.36 5.09 o
10 0 -2 29.75 30.42 4.48 o
12 0 -2 2.69 3.15 3.90 o
1 1 -2 93.47 85.35 4.28 o
2 1 -2 101.49 92.96 2.27 o
3 1 -2 48.89 48.39 1.84 o
4 1 -2 94.30 99.06 2.92 o
5 1 -2 16.72 18.02 1.39 o
6 1 -2 9.59 10.95 1.28 o
7 1 -2 0.45 0.38 0.62 o
8 1 -2 88.34 94.23 5.01 o
9 1 -2 2.47 3.82 1.12 o
10 1 -2 17.50 19.64 2.65 o
11 1 -2 6.84 9.40 1.97 o
12 1 -2 3.38 4.29 1.37 o
13 1 -2 3.47 1.04 1.34 o
0 2 -2 34.62 40.95 3.47 o
1 2 -2 126.76 130.93 2.96 o
2 2 -2 177.38 175.81 3.71 o
3 2 -2 87.74 91.51 2.88 o
4 2 -2 54.38 55.91 2.36 o
5 2 -2 3.95 4.66 0.75 o
6 2 -2 14.22 16.98 1.74 o
7 2 -2 2.67 1.54 0.82 o
8 2 -2 4.18 6.49 1.44 o
9 2 -2 3.27 2.68 1.10 o
10 2 -2 4.18 3.15 1.12 o
11 2 -2 9.18 7.83 1.78 o
12 2 -2 2.85 1.90 1.31 o
13 2 -2 7.01 10.79 2.93 o
1 3 -2 54.44 57.46 2.19 o
2 3 -2 57.56 59.93 2.94 o
3 3 -2 50.45 51.31 2.37 o
4 3 -2 18.72 20.70 1.76 o
5 3 -2 0.61 1.00 0.64 o
6 3 -2 22.93 21.47 2.20 o
7 3 -2 13.33 11.22 1.59 o
8 3 -2 1.62 1.65 0.73 o
9 3 -2 0.01 -0.12 0.82 o
10 3 -2 2.19 0.45 0.95 o
11 3 -2 8.08 9.03 2.07 o
12 3 -2 2.05 5.88 1.89 o
13 3 -2 6.57 1.42 1.98 o
0 4 -2 57.82 64.06 3.54 o
1 4 -2 4.82 4.95 0.72 o
2 4 -2 7.52 7.58 0.99 o
3 4 -2 17.54 18.59 1.58 o
4 4 -2 27.55 27.71 2.15 o
5 4 -2 10.68 6.40 1.40 o
6 4 -2 4.18 3.62 1.22 o
7 4 -2 14.63 15.56 2.20 o
8 4 -2 3.56 3.52 1.11 o
9 4 -2 6.71 7.08 1.66 o
10 4 -2 5.92 7.35 2.07 o
11 4 -2 0.84 3.93 1.43 o
12 4 -2 2.36 4.78 2.01 o
13 4 -2 0.90 -1.58 2.47 o
1 5 -2 27.20 29.88 2.06 o
2 5 -2 11.74 14.85 1.67 o
3 5 -2 9.06 9.80 1.39 o
4 5 -2 18.24 21.75 2.30 o
5 5 -2 17.44 15.55 2.36 o
6 5 -2 3.41 2.65 0.94 o
7 5 -2 41.16 37.38 3.44 o
8 5 -2 21.10 22.73 2.50 o
9 5 -2 7.63 8.26 2.17 o
10 5 -2 1.94 0.43 0.98 o
11 5 -2 0.08 0.63 1.25 o
12 5 -2 0.39 -0.21 1.49 o
0 6 -2 7.68 5.97 1.45 o
1 6 -2 6.01 6.44 1.00 o
2 6 -2 77.96 85.31 4.21 o
3 6 -2 16.02 22.23 3.20 o
4 6 -2 38.43 39.01 3.94 o
5 6 -2 2.20 4.05 1.25 o
6 6 -2 4.88 4.51 1.46 o
7 6 -2 10.51 9.06 1.85 o
8 6 -2 1.84 1.80 1.03 o
9 6 -2 5.72 4.02 1.37 o
10 6 -2 4.96 2.83 2.61 o
11 6 -2 0.49 0.25 1.50 o
1 7 -2 6.90 10.67 1.95 o
2 7 -2 11.02 15.59 1.98 o
3 7 -2 6.68 7.58 1.66 o
4 7 -2 42.84 46.95 4.65 o
5 7 -2 2.73 1.44 1.60 o
6 7 -2 22.42 22.48 3.18 o
7 7 -2 0.81 1.50 1.55 o
8 7 -2 15.43 15.48 2.65 o
9 7 -2 0.22 -0.03 3.12 o
10 7 -2 0.35 3.01 1.84 o
11 7 -2 0.27 5.99 3.69 o
0 8 -2 2.29 2.20 1.06 o
1 8 -2 0.56 0.81 0.78 o
2 8 -2 41.20 42.76 3.85 o
3 8 -2 0.53 1.79 1.19 o
4 8 -2 18.74 16.75 3.55 o
5 8 -2 6.70 5.04 1.95 o
6 8 -2 4.57 6.25 1.97 o
7 8 -2 5.24 5.74 1.91 o
8 8 -2 2.37 2.13 1.72 o
9 8 -2 0.78 -1.04 8.09 o
1 9 -2 0.69 0.40 1.13 o
2 9 -2 1.53 1.97 1.32 o
3 9 -2 3.06 2.88 1.58 o
4 9 -2 6.39 8.75 3.08 o
5 9 -2 8.95 11.43 2.74 o
6 9 -2 2.40 -1.63 2.30 o
7 9 -2 3.42 5.07 2.52 o
8 9 -2 2.79 0.50 4.26 o
0 10 -2 8.92 10.61 3.27 o
1 10 -2 1.40 1.02 2.11 o
2 10 -2 2.63 3.37 1.66 o
3 10 -2 1.58 2.22 1.44 o
4 10 -2 0.88 1.79 3.94 o
5 10 -2 1.06 3.56 2.54 o
6 10 -2 1.33 -1.58 2.23 o
1 11 -2 0.15 1.81 2.49 o
2 11 -2 1.83 2.99 2.36 o
4 11 -2 1.73 4.57 3.81 o
2 0 -1 2354.22 2289.39 14.28 o
4 0 -1 115.30 108.09 5.17 o
6 0 -1 63.60 64.39 5.00 o
8 0 -1 106.49 106.09 7.55 o
10 0 -1 144.85 144.78 9.99 o
12 0 -1 12.96 10.28 3.39 o
14 0 -1 0.44 0.75 4.27 o
0 1 -1 5669.18 5692.91 32.19 o
1 1 -1 154.41 152.46 2.99 o
2 1 -1 795.19 753.26 9.28 o
3 1 -1 53.42 50.38 2.13 o
4 1 -1 184.53 180.32 4.24 o
5 1 -1 18.96 18.94 1.48 o
6 1 -1 69.72 69.03 3.05 o
7 1 -1 5.44 5.97 1.29 o
8 1 -1 51.54 49.06 3.62 o
9 1 -1 22.12 21.53 2.67 o
10 1 -1 53.45 55.72 4.40 o
11 1 -1 3.84 2.81 1.94 o
12 1 -1 17.71 19.98 3.10 o
13 1 -1 6.77 8.17 2.07 o
14 1 -1 5.09 3.98 1.77 o
1 2 -1 246.98 233.93 6.31 o
2 2 -1 13.28 12.79 1.34 o
3 2 -1 91.06 87.65 3.69 o
4 2 -1 99.64 99.54 2.91 o
5 2 -1 10.97 11.00 1.22 o
6 2 -1 205.82 221.03 6.09 o
7 2 -1 4.61 4.65 0.96 o
8 2 -1 25.70 26.87 2.79 o
9 2 -1 4.26 7.06 1.55 o
10 2 -1 19.64 20.22 2.79 o
11 2 -1 48.31 51.99 4.53 o
12 2 -1 4.03 6.16 1.87 o
13 2 -1 7.79 7.66 1.89 o
14 2 -1 2.66 3.96 1.82 o
0 3 -1 143.99 147.27 7.90 o
1 3 -1 79.51 81.34 3.20 o
2 3 -1 17.83 18.43 1.56 o
3 3 -1 12.44 11.78 1.51 o
4 3 -1 419.74 421.02 10.16 o
5 3 -1 4.12 4.83 0.78 o
6 3 -1 30.16 29.79 3.09 o
7 3 -1 1.83 3.37 1.41 o
8 3 -1 11.56 12.57 1.66 o
9 3 -1 6.98 5.89 1.50 o
10 3 -1 0.58 1.11 1.03 o
11 3 -1 5.30 6.25 2.26 o
12 3 -1 4.64 5.15 1.81 o
13 3 -1 4.84 4.25 1.89 o
14 3 -1 1.32 2.83 3.26 o
1 4 -1 49.33 52.62 2.53 o
2 4 -1 303.98 290.87 7.12 o
3 4 -1 1.84 2.14 1.09 o
4 4 -1 4.97 5.02 1.40 o
5 4 -1 17.59 18.06 2.37 o
6 4 -1 26.46 29.60 3.23 o
7 4 -1 60.05 55.22 4.75 o
8 4 -1 7.59 4.73 2.19 o
9 4 -1 6.80 5.26 1.46 o
10 4 -1 11.60 12.12 2.26 o
11 4 -1 5.46 7.51 2.06 o
12 4 -1 2.04 3.78 1.63 o
13 4 -1 2.09 -0.29 1.56 o
0 5 -1 343.05 337.40 11.86 o
1 5 -1 6.01 3.93 1.42 o
2 5 -1 63.99 70.35 3.27 o
3 5 -1 15.60 16.85 2.33 o
4 5 -1 20.58 18.85 3.14 o
5 5 -1 38.79 34.06 3.49 o
6 5 -1 3.96 0.79 1.29 o
7 5 -1 18.44 19.25 3.22 o
8 5 -1 0.90 3.37 1.49 o
9 5 -1 11.45 6.56 2.19 o
10 5 -1 12.31 7.74 2.34 o
11 5 -1 0.60 -0.16 1.37 o
12 5 -1 5.79 9.34 2.32 o
13 5 -1 1.01 0.87 1.49 o
1 6 -1 28.34 27.82 2.28 o
2 6 -1 6.33 5.72 1.16 o
3 6 -1 7.09 6.45 1.34 o
4 6 -1 37.84 33.70 6.37 o
5 6 -1 23.20 17.43 2.67 o
6 6 -1 151.56 162.65 8.45 o
7 6 -1 28.33 33.31 4.16 o
8 6 -1 18.26 16.47 2.80 o
9 6 -1 2.02 4.08 1.64 o
10 6 -1 6.43 3.85 2.01 o
11 6 -1 0.33 1.03 1.64 o
12 6 -1 2.71 5.71 1.73 o
0 7 -1 26.93 26.33 4.03 o
1 7 -1 3.21 3.43 1.01 o
2 7 -1 54.12 55.71 3.41 o
3 7 -1 3.82 3.95 1.65 o
4 7 -1 227.03 232.78 12.58 o
5 7 -1 4.06 4.84 2.33 o
6 7 -1 22.80 25.19 3.55 o
7 7 -1 7.76 6.50 2.09 o
8 7 -1 8.19 12.28 3.37 o
9 7 -1 0.68 2.45 1.43 o
10 7 -1 4.36 -1.57 1.81 o
11 7 -1 0.11 0.45 1.46 o
1 8 -1 0.50 1.88 1.02 o
2 8 -1 2.21 3.50 1.12 o
3 8 -1 20.27 18.82 3.13 o
4 8 -1 28.52 26.26 3.69 o
5 8 -1 7.40 8.66 2.60 o
6 8 -1 70.81 74.46 6.44 o
7 8 -1 3.32 1.65 1.71 o
8 8 -1 8.18 6.70 1.97 o
9 8 -1 0.88 1.27 1.63 o
10 8 -1 6.53 7.65 2.80 o
0 9 -1 39.72 38.73 5.54 o
1 9 -1 0.29 -1.32 1.32 o
2 9 -1 11.86 9.93 2.28 o
3 9 -1 2.94 2.48 1.33 o
4 9 -1 15.35 14.49 2.82 o
5 9 -1 11.86 13.70 3.63 o
6 9 -1 7.66 3.08 2.37 o
7 9 -1 6.27 2.74 1.55 o
8 9 -1 5.66 10.68 2.77 o
9 9 -1 0.71 1.22 2.33 o
1 10 -1 2.48 2.45 1.27 o
2 10 -1 12.54 16.15 2.91 o
3 10 -1 0.25 0.50 1.63 o
4 10 -1 0.24 1.48 1.79 o
5 10 -1 6.08 4.44 2.32 o
6 10 -1 2.85 3.05 1.26 o
7 10 -1 1.42 2.52 1.44 o
0 11 -1 9.57 4.64 2.25 o
1 11 -1 2.49 4.31 1.63 o
2 11 -1 1.80 1.28 2.36 o
3 11 -1 1.69 -0.03 1.91 o
4 11 -1 3.86 8.22 3.20 o
5 11 -1 0.38 3.95 3.05 o
2 0 0 117.64 135.62 4.11 o
4 0 0 298.53 313.24 9.25 o
6 0 0 24.44 22.82 3.09 o
8 0 0 115.99 117.55 8.03 o
10 0 0 104.31 109.53 8.64 o
12 0 0 55.53 48.56 6.52 o
14 0 0 2.95 5.22 2.33 o
2 1 0 2674.21 2828.85 20.01 o
3 1 0 35.80 43.63 1.50 o
4 1 0 2.53 5.04 1.08 o
5 1 0 0.01 0.66 0.40 o
6 1 0 227.95 216.02 7.02 o
7 1 0 23.53 23.75 1.23 o
8 1 0 8.60 8.49 1.62 o
9 1 0 1.31 2.65 1.15 o
10 1 0 160.18 162.67 7.63 o
11 1 0 38.67 38.00 3.87 o
12 1 0 14.54 15.91 2.76 o
13 1 0 1.88 2.41 1.71 o
14 1 0 0.37 1.66 1.14 o
0 2 0 1770.70 1692.28 39.37 o
1 2 0 29.51 32.17 1.18 o
2 2 0 14.81 14.26 1.40 o
3 2 0 0.11 0.45 0.36 o
4 2 0 974.44 1021.01 27.93 o
5 2 0 27.69 24.40 2.54 o
6 2 0 76.24 93.30 5.13 o
7 2 0 1.62 0.99 0.77 o
8 2 0 0.05 1.51 1.04 o
9 2 0 59.00 59.63 4.40 o
10 2 0 22.88 21.13 2.82 o
11 2 0 0.54 2.39 1.36 o
12 2 0 3.88 2.35 1.93 o
13 2 0 13.56 13.83 2.72 o
14 2 0 2.64 4.23 1.54 o
1 3 0 7.77 12.66 1.38 o
2 3 0 475.87 480.74 6.91 o
3 3 0 7.10 6.06 0.67 o
4 3 0 35.58 33.64 2.91 o
5 3 0 12.09 13.78 1.88 o
6 3 0 353.65 423.32 16.48 o
7 3 0 5.53 8.20 1.88 o
8 3 0 5.33 3.72 1.35 o
9 3 0 11.08 12.11 1.98 o
10 3 0 0.14 -0.40 1.52 o
11 3 0 44.30 40.14 3.99 o
12 3 0 0.07 1.17 1.46 o
13 3 0 2.37 2.70 1.78 o
14 3 0 4.06 4.55 2.37 o
0 4 0 1270.59 1262.55 20.36 o
1 4 0 10.01 9.44 1.31 o
2 4 0 0.26 0.60 0.25 o
3 4 0 1.47 1.65 1.05 o
4 4 0 124.16 122.10 5.36 o
5 4 0 60.24 57.93 5.07 o
6 4 0 13.85 11.95 2.36 o
7 4 0 1.23 0.98 1.35 o
8 4 0 15.58 17.11 2.80 o
9 4 0 0.14 0.61 1.58 o
10 4 0 4.96 7.36 1.76 o
11 4 0 0.72 -0.54 1.76 o
12 4 0 12.71 11.37 2.50 o
13 4 0 0.08 2.57 1.75 o
1 5 0 81.64 88.39 4.25 o
2 5 0 140.48 146.88 3.96 o
3 5 0 0.65 0.33 0.45 o
4 5 0 0.01 0.02 1.32 o
5 5 0 18.17 19.50 2.75 o
6 5 0 51.96 50.44 4.58 o
7 5 0 75.30 80.26 5.88 o
8 5 0 2.68 4.74 1.95 o
9 5 0 6.41 5.62 1.74 o
10 5 0 18.69 18.98 4.71 o
11 5 0 0.00 2.86 1.24 o
12 5 0 4.96 5.30 3.73 o
13 5 0 0.03 3.55 1.89 o
0 6 0 227.83 244.91 11.11 o
1 6 0 0.59 1.44 0.92 o
2 6 0 0.48 3.29 1.38 o
3 6 0 0.71 1.09 1.10 o
4 6 0 323.71 317.74 13.72 o
5 6 0 8.19 6.47 2.12 o
6 6 0 17.04 17.90 3.15 o
7 6 0 6.32 6.36 2.01 o
8 6 0 13.14 13.23 2.69 o
9 6 0 7.52 6.22 1.83 o
10 6 0 10.82 6.00 2.26 o
11 6 0 0.57 0.16 1.93 o
12 6 0 4.82 9.15 2.30 o
1 7 0 1.95 3.02 1.15 o
2 7 0 10.78 9.42 1.86 o
3 7 0 30.20 34.46 3.44 o
4 7 0 17.34 15.42 2.65 o
5 7 0 25.47 25.09 4.12 o
6 7 0 297.68 314.45 12.65 o
7 7 0 0.98 2.36 1.52 o
8 7 0 1.72 0.72 1.39 o
9 7 0 0.32 1.37 1.62 o
10 7 0 10.60 14.76 3.41 o
11 7 0 0.00 0.58 1.49 o
0 8 0 47.30 41.88 5.43 o
1 8 0 4.77 3.30 1.20 o
2 8 0 0.37 2.50 1.77 o
3 8 0 0.18 1.25 1.13 o
4 8 0 179.17 183.48 9.71 o
5 8 0 23.29 23.79 4.31 o
6 8 0 31.38 30.07 4.21 o
7 8 0 6.71 5.48 2.37 o
8 8 0 0.84 0.67 1.66 o
9 8 0 0.31 -0.66 1.45 o
10 8 0 2.83 5.75 1.89 o
1 9 0 2.65 3.84 1.17 o
2 9 0 6.47 6.94 1.68 o
3 9 0 10.01 13.25 2.45 o
4 9 0 3.93 3.94 1.27 o
5 9 0 0.08 -1.69 1.69 o
6 9 0 15.73 14.31 3.86 o
7 9 0 5.33 7.07 2.47 o
8 9 0 0.36 -0.98 1.79 o
9 9 0 0.09 -0.90 1.62 o
0 10 0 53.64 47.24 6.77 o
1 10 0 1.25 0.91 1.18 o
2 10 0 2.10 2.66 1.27 o
3 10 0 7.44 4.71 3.40 o
4 10 0 0.21 0.97 1.70 o
5 10 0 2.32 4.79 2.50 o
6 10 0 0.83 1.20 2.09 o
7 10 0 0.58 2.49 2.02 o
1 11 0 1.49 -1.09 1.57 o
2 11 0 8.99 10.60 2.16 o
3 11 0 2.06 1.60 2.00 o
4 11 0 1.28 1.19 3.74 o
5 11 0 5.22 3.93 2.88 o
2 0 1 2353.70 2289.27 9.82 o
4 0 1 115.29 109.58 3.73 o
6 0 1 63.64 67.67 5.17 o
8 0 1 106.58 108.25 7.70 o
10 0 1 144.83 144.00 10.09 o
12 0 1 12.95 13.96 3.72 o
14 0 1 0.44 2.32 2.38 o
0 1 1 5668.25 5725.88 19.70 o
1 1 1 154.51 154.93 2.26 o
2 1 1 795.66 769.43 9.48 o
3 1 1 53.51 54.32 1.26 o
4 1 1 184.51 174.80 3.48 o
5 1 1 18.95 19.68 1.29 o
6 1 1 69.79 71.61 2.64 o
7 1 1 5.46 6.94 1.07 o
8 1 1 51.57 50.07 3.09 o
9 1 1 22.11 23.88 2.86 o
10 1 1 53.42 51.98 4.29 o
11 1 1 3.85 7.53 1.80 o
12 1 1 17.71 17.23 2.79 o
13 1 1 6.77 2.75 2.17 o
14 1 1 5.09 5.26 1.87 o
1 2 1 246.97 229.80 4.11 o
2 2 1 13.29 13.93 0.99 o
3 2 1 91.08 88.85 2.31 o
4 2 1 99.69 99.64 2.70 o
5 2 1 11.01 12.64 1.04 o
6 2 1 205.77 223.73 4.61 o
7 2 1 4.61 3.26 1.31 o
8 2 1 25.71 25.34 2.14 o
9 2 1 4.27 5.33 1.25 o
10 2 1 19.64 22.28 2.82 o
11 2 1 48.30 48.96 4.47 o
12 2 1 4.04 2.95 1.41 o
13 2 1 7.80 6.21 1.70 o
14 2 1 2.66 2.80 1.94 o
0 3 1 143.93 141.97 2.89 o
1 3 1 79.51 77.60 2.42 o
2 3 1 17.84 16.44 1.40 o
3 3 1 12.45 11.48 0.80 o
4 3 1 419.66 418.51 4.97 o
5 3 1 4.11 4.58 0.66 o
6 3 1 30.14 28.02 1.77 o
7 3 1 1.83 2.15 0.85 o
8 3 1 11.55 12.76 1.62 o
9 3 1 6.98 7.34 1.72 o
10 3 1 0.58 0.43 0.93 o
11 3 1 5.29 8.22 1.89 o
12 3 1 4.65 3.40 1.98 o
13 3 1 4.84 3.95 1.76 o
14 3 1 1.32 1.81 3.43 o
1 4 1 49.28 50.25 2.33 o
2 4 1 303.93 290.77 5.77 o
3 4 1 1.84 1.08 0.42 o
4 4 1 4.96 6.32 1.40 o
5 4 1 17.56 18.42 1.52 o
6 4 1 26.45 28.55 2.22 o
7 4 1 60.06 55.57 4.74 o
8 4 1 7.59 6.71 1.96 o
9 4 1 6.81 6.78 1.73 o
10 4 1 11.60 11.06 2.15 o
11 4 1 5.46 2.80 1.43 o
12 4 1 2.04 1.69 2.10 o
13 4 1 2.09 0.83 1.88 o
0 5 1 343.00 359.50 30.53 o
1 5 1 6.01 6.75 1.25 o
2 5 1 64.03 64.04 2.87 o
3 5 1 15.62 13.24 1.34 o
4 5 1 20.57 17.33 1.64 o
5 5 1 38.79 36.55 1.90 o
6 5 1 3.96 1.39 1.14 o
7 5 1 18.45 19.01 2.84 o
8 5 1 0.90 0.61 1.49 o
9 5 1 11.44 10.63 2.62 o
10 5 1 12.31 13.07 2.61 o
11 5 1 0.60 -1.28 1.28 o
12 5 1 5.79 3.04 2.49 o
13 5 1 1.01 -1.38 2.21 o
1 6 1 28.38 26.77 2.75 o
2 6 1 6.35 5.64 1.40 o
3 6 1 7.09 6.94 1.04 o
4 6 1 37.86 36.05 2.32 o
5 6 1 23.19 24.29 2.73 o
6 6 1 151.52 163.63 8.58 o
7 6 1 28.33 32.49 4.09 o
8 6 1 18.27 17.13 3.23 o
9 6 1 2.03 0.22 1.32 o
10 6 1 6.43 4.23 2.08 o
11 6 1 0.33 1.54 1.61 o
12 6 1 2.71 2.88 1.79 o
0 7 1 26.93 25.41 3.99 o
1 7 1 3.21 3.40 1.27 o
2 7 1 54.19 49.70 3.19 o
3 7 1 3.82 2.45 1.14 o
4 7 1 226.96 229.25 12.53 o
5 7 1 4.06 3.88 2.27 o
6 7 1 22.79 23.50 4.21 o
7 7 1 7.76 7.74 2.19 o
8 7 1 8.18 8.24 2.08 o
9 7 1 0.68 0.58 1.30 o
10 7 1 4.35 1.86 1.66 o
11 7 1 0.11 -1.61 1.61 o
1 8 1 0.50 -0.02 1.22 o
2 8 1 2.21 2.90 1.17 o
3 8 1 20.27 19.23 2.70 o
4 8 1 28.53 32.09 5.42 o
5 8 1 7.41 9.74 3.03 o
6 8 1 70.78 85.01 6.93 o
7 8 1 3.32 2.70 1.23 o
8 8 1 8.19 9.96 2.75 o
9 8 1 0.88 3.67 1.79 o
10 8 1 6.53 9.94 2.62 o
0 9 1 39.71 40.71 5.72 o
1 9 1 0.30 3.43 1.32 o
2 9 1 11.88 10.69 2.09 o
3 9 1 2.95 2.37 1.22 o
4 9 1 15.34 17.29 3.85 o
5 9 1 11.86 9.33 2.88 o
6 9 1 7.66 5.13 1.82 o
7 9 1 6.28 4.57 1.86 o
8 9 1 5.67 4.56 1.45 o
9 9 1 0.71 -1.44 1.44 o
1 10 1 2.48 1.59 1.26 o
2 10 1 12.53 14.16 2.66 o
3 10 1 0.24 0.48 1.07 o
4 10 1 0.24 2.64 5.15 o
5 10 1 6.07 9.86 3.41 o
6 10 1 2.85 9.25 4.36 o
7 10 1 1.42 0.26 1.46 o
0 11 1 9.56 3.44 6.15 o
1 11 1 2.49 2.29 1.97 o
2 11 1 1.80 1.41 2.09 o
3 11 1 1.69 2.17 1.56 o
4 11 1 3.85 5.83 3.18 o
5 11 1 0.38 -2.13 3.27 o
0 0 2 599.91 584.55 18.21 o
2 0 2 501.81 475.94 8.46 o
4 0 2 2.26 2.13 0.42 o
6 0 2 66.06 66.06 3.15 o
8 0 2 53.19 52.75 5.18 o
10 0 2 29.73 26.37 3.35 o
12 0 2 2.69 3.61 3.29 o
1 1 2 93.51 80.12 4.83 o
2 1 2 101.42 93.08 1.78 o
3 1 2 48.89 46.98 1.27 o
4 1 2 94.31 96.87 1.84 o
5 1 2 16.74 15.55 1.02 o
6 1 2 9.60 10.98 1.00 o
7 1 2 0.45 0.38 0.67 o
8 1 2 88.38 96.48 3.73 o
9 1 2 2.48 3.79 1.31 o
10 1 2 17.49 19.86 2.52 o
11 1 2 6.83 8.72 2.25 o
12 1 2 3.38 5.35 2.92 o
13 1 2 3.47 3.50 1.72 o
0 2 2 34.61 33.18 2.66 o
1 2 2 126.74 129.75 2.60 o
2 2 2 177.46 174.70 3.00 o
3 2 2 87.80 89.35 2.03 o
4 2 2 54.35 53.74 1.66 o
5 2 2 3.96 4.85 0.66 o
6 2 2 14.22 14.84 1.30 o
7 2 2 2.68 3.29 0.63 o
8 2 2 4.19 3.52 0.77 o
9 2 2 3.27 2.45 1.00 o
10 2 2 4.17 1.36 1.73 o
11 2 2 9.18 9.47 2.22 o
12 2 2 2.85 3.06 3.18 o
13 2 2 7.00 8.84 3.20 o
1 3 2 54.39 56.38 1.70 o
2 3 2 57.52 58.30 3.83 o
3 3 2 50.42 49.86 1.77 o
4 3 2 18.73 17.54 1.26 o
5 3 2 0.62 1.56 0.56 o
6 3 2 22.90 24.42 1.65 o
7 3 2 13.32 12.86 1.25 o
8 3 2 1.62 2.00 0.78 o
9 3 2 0.01 -0.63 0.66 o
10 3 2 2.19 3.31 1.38 o
11 3 2 8.07 6.69 1.80 o
12 3 2 2.06 1.65 2.00 o
13 3 2 6.58 5.95 2.60 o
0 4 2 57.77 64.04 2.89 o
1 4 2 4.82 5.98 0.60 o
2 4 2 7.52 8.38 0.89 o
3 4 2 17.53 17.34 1.67 o
4 4 2 27.53 29.00 2.10 o
5 4 2 10.68 12.63 1.30 o
6 4 2 4.18 4.38 0.69 o
7 4 2 14.62 16.12 1.59 o
8 4 2 3.56 1.38 0.85 o
9 4 2 6.70 6.37 1.43 o
10 4 2 5.92 2.75 0.95 o
11 4 2 0.84 0.70 1.60 o
12 4 2 2.36 1.55 2.92 o
13 4 2 0.90 1.49 3.28 o
1 5 2 27.22 28.74 1.84 o
2 5 2 11.74 11.26 2.21 o
3 5 2 9.05 9.05 1.83 o
4 5 2 18.24 16.43 1.74 o
5 5 2 17.43 17.09 2.03 o
6 5 2 3.41 4.29 0.89 o
7 5 2 41.14 41.51 3.10 o
8 5 2 21.10 24.95 3.27 o
9 5 2 7.65 8.22 2.04 o
10 5 2 1.94 -0.70 1.05 o
11 5 2 0.08 1.26 1.37 o
12 5 2 0.39 -1.42 2.44 o
0 6 2 7.68 8.34 2.07 o
1 6 2 6.02 6.70 1.18 o
2 6 2 78.00 82.23 4.20 o
3 6 2 16.03 13.18 1.98 o
4 6 2 38.41 36.58 2.80 o
5 6 2 2.20 1.85 1.12 o
6 6 2 4.88 5.35 1.39 o
7 6 2 10.51 7.76 1.73 o
8 6 2 1.84 -0.25 1.33 o
9 6 2 5.72 -1.43 1.43 o
10 6 2 4.95 5.86 2.09 o
11 6 2 0.49 1.36 1.40 o
1 7 2 6.90 7.52 1.65 o
2 7 2 11.02 12.19 1.97 o
3 7 2 6.68 6.92 1.49 o
4 7 2 42.86 40.27 3.75 o
5 7 2 2.73 2.73 0.79 o
6 7 2 22.39 22.90 2.94 o
7 7 2 0.81 1.70 1.06 o
8 7 2 15.43 19.78 3.99 o
9 7 2 0.22 0.58 2.30 o
10 7 2 0.35 1.08 4.39 o
11 7 2 0.27 2.40 2.66 o
0 8 2 2.30 -1.25 1.62 o
1 8 2 0.56 0.27 1.33 o
2 8 2 41.24 42.37 4.53 o
3 8 2 0.53 0.81 1.10 o
4 8 2 18.71 17.50 5.37 o
5 8 2 6.71 10.95 4.27 o
6 8 2 4.57 8.09 2.54 o
7 8 2 5.25 2.96 4.26 o
8 8 2 2.37 6.85 3.09 o
9 8 2 0.78 2.68 2.35 o
1 9 2 0.69 -0.48 2.35 o
2 9 2 1.53 0.37 1.93 o
3 9 2 3.06 1.94 1.67 o
4 9 2 6.39 6.68 4.26 o
5 9 2 8.95 8.59 4.02 o
6 9 2 2.40 -1.76 1.76 o
7 9 2 3.42 -0.20 5.47 o
8 9 2 2.80 0.64 1.33 o
0 10 2 8.91 9.70 4.16 o
1 10 2 1.40 4.18 2.47 o
2 10 2 2.63 -0.04 1.26 o
3 10 2 1.58 0.88 1.58 o
4 10 2 0.88 2.82 3.23 o
5 10 2 1.06 -3.46 3.46 o
6 10 2 1.33 0.39 3.92 o
1 11 2 0.15 -0.90 1.62 o
2 11 2 1.83 2.73 2.02 o
2 0 3 2.14 0.28 0.76 o
4 0 3 21.85 22.11 2.04 o
6 0 3 7.55 10.55 1.72 o
8 0 3 41.15 46.48 4.74 o
10 0 3 2.67 4.11 2.98 o
0 1 3 0.09 0.41 0.96 o
1 1 3 13.11 13.56 1.38 o
2 1 3 63.39 65.42 2.57 o
3 1 3 22.14 21.97 1.33 o
4 1 3 2.09 1.75 0.59 o
5 1 3 2.32 2.35 0.67 o
6 1 3 12.05 13.30 1.57 o
7 1 3 1.93 3.00 1.00 o
8 1 3 9.20 10.09 1.86 o
9 1 3 0.31 0.57 1.17 o
10 1 3 3.51 1.13 1.94 o
11 1 3 1.26 0.15 1.71 o
1 2 3 24.25 28.39 2.08 o
2 2 3 2.11 0.88 0.59 o
3 2 3 31.40 34.16 1.82 o
4 2 3 13.03 12.98 1.19 o
5 2 3 14.49 16.42 1.71 o
6 2 3 0.19 0.80 1.39 o
7 2 3 2.15 1.46 1.27 o
8 2 3 7.73 7.65 1.67 o
9 2 3 0.99 1.59 2.44 o
10 2 3 0.09 -0.61 0.74 o
0 3 3 2.76 4.28 1.06 o
1 3 3 11.17 11.91 1.21 o
2 3 3 7.36 8.11 1.08 o
3 3 3 22.81 24.67 1.94 o
4 3 3 4.92 5.12 0.98 o
5 3 3 0.63 0.76 0.96 o
6 3 3 0.16 1.07 1.29 o
7 3 3 0.53 -0.08 0.95 o
8 3 3 0.19 -0.39 0.97 o
9 3 3 3.11 3.67 1.53 o
10 3 3 0.75 -0.68 1.69 o
1 4 3 5.58 7.79 1.00 o
2 4 3 2.29 2.57 0.85 o
3 4 3 14.11 14.50 2.26 o
4 4 3 0.15 1.66 1.01 o
5 4 3 0.68 -0.19 0.74 o
6 4 3 0.95 0.63 1.73 o
7 4 3 12.71 12.60 2.07 o
8 4 3 4.25 4.47 1.39 o
9 4 3 3.99 4.24 2.60 o
0 5 3 2.08 5.21 1.47 o
1 5 3 8.90 11.31 1.64 o
2 5 3 11.95 14.31 2.04 o
3 5 3 9.71 10.70 1.75 o
4 5 3 0.99 1.06 1.31 o
5 5 3 1.50 -0.44 0.87 o
6 5 3 1.60 2.74 1.15 o
7 5 3 6.73 9.00 1.81 o
8 5 3 0.60 1.42 1.30 o
9 5 3 5.64 5.04 2.60 o
1 6 3 10.99 16.63 3.17 o
2 6 3 5.18 4.40 2.41 o
3 6 3 3.35 2.86 1.10 o
4 6 3 12.23 9.10 2.16 o
5 6 3 1.71 0.54 0.82 o
6 6 3 0.09 -1.14 1.14 o
7 6 3 4.34 1.97 1.18 o
8 6 3 6.87 5.60 2.79 o
1 7 3 0.72 5.19 2.48 o
2 7 3 23.19 22.79 4.27 o
3 7 3 0.94 1.05 1.06 o
4 7 3 1.96 1.78 1.82 o
5 7 3 0.46 -0.81 1.23 o
6 7 3 0.46 -1.67 1.67 o
7 7 3 0.07 -1.98 1.98 o
8 7 3 0.32 2.74 2.30 o
2 8 3 0.80 0.40 1.30 o
3 8 3 1.82 4.31 1.74 o
4 8 3 6.99 9.19 3.50 o
5 8 3 2.43 2.67 1.95 o
6 8 3 0.59 -2.62 2.62 o
7 8 3 0.65 1.23 2.09 o
2 9 3 4.47 4.71 2.47 o
0 0 4 6.64 6.22 5.52 o
2 0 4 4.43 3.31 1.27 o
4 0 4 1.05 2.54 0.96 o
6 0 4 2.89 3.58 1.53 o
8 0 4 1.82 -0.74 2.12 o
1 1 4 1.31 0.78 0.55 o
2 1 4 1.35 0.37 0.58 o
3 1 4 2.35 1.37 0.75 o
4 1 4 0.83 0.45 0.61 o
5 1 4 3.15 4.19 1.04 o
6 1 4 2.50 2.34 1.04 o
7 1 4 0.44 1.72 0.75 o
0 2 4 2.13 2.22 0.80 o
1 2 4 1.66 1.08 0.65 o
2 2 4 2.44 2.58 0.64 o
3 2 4 8.25 8.49 1.15 o
4 2 4 0.67 1.20 0.65 o
5 2 4 1.68 2.16 0.71 o
6 2 4 0.38 0.58 0.93 o
7 2 4 1.22 3.48 1.38 o
1 3 4 0.70 0.38 0.82 o
2 3 4 0.07 0.36 0.89 o
3 3 4 5.26 7.52 1.17 o
4 3 4 0.39 0.81 1.39 o
5 3 4 4.14 2.27 1.08 o
6 3 4 0.27 -1.36 1.36 o
7 3 4 1.75 0.13 2.09 o
0 4 4 0.67 2.74 1.21 o
1 4 4 3.68 5.23 1.09 o
2 4 4 0.06 1.39 0.87 o
3 4 4 1.96 1.86 1.36 o
4 4 4 0.04 -0.53 0.89 o
5 4 4 0.18 2.94 1.00 o
6 4 4 0.31 0.20 1.11 o
7 4 4 0.38 -3.31 3.31 o
1 5 4 4.58 6.10 2.06 o
2 5 4 1.03 2.55 0.95 o
3 5 4 2.36 0.59 1.11 o
4 5 4 0.36 1.19 1.23 o
5 5 4 0.03 -1.61 1.65 o
6 5 4 0.55 1.40 1.72 o
0 6 4 3.49 4.57 2.28 o
1 6 4 2.30 5.01 5.65 o
2 6 4 2.13 4.59 5.03 o
3 6 4 0.97 0.52 1.55 o
4 6 4 0.60 -3.07 3.07 o
