#------------------------------------------------------------------------------
#$Date: 2019-11-22 19:03:52 +0200 (Fri, 22 Nov 2019) $
#$Revision: 231268 $
#$URL: file:///home/coder/svn-repositories/cod/cif/4/51/63/4516361.cif $
#------------------------------------------------------------------------------
#
# This file is available in the Crystallography Open Database (COD),
# http://www.crystallography.net/
#
# All data on this site have been placed in the public domain by the
# contributors.
#
data_4516361
loop_
_publ_author_name
'Patyk, Ewa'
'Podsiad\/lo, Marcin'
'Katrusiak, Andrzej'
_publ_section_title
;
 CH&#x00B7;&#x00B7;&#x00B7;N Bonds and Dynamics in Isostructural
 Pyrimidine Polymorphs
;
_journal_issue                   8
_journal_name_full               'Crystal Growth &amp; Design'
_journal_page_first              4039
_journal_paper_doi               10.1021/acs.cgd.5b00657
_journal_volume                  15
_journal_year                    2015
_chemical_formula_moiety         'C4 H4 N2'
_chemical_formula_sum            'C4 H4 N2'
_chemical_formula_weight         80.09
_chemical_melting_point          293.15
_chemical_name_common            pyrimidine
_chemical_name_systematic
; 
pyrimidine phase III
;
_space_group_IT_number           14
_space_group_name_Hall           '-P 2ac'
_space_group_name_H-M_alt        'P 1 1 21/a'
_symmetry_cell_setting           monoclinic
_symmetry_space_group_name_Hall  '-P 2ac'
_symmetry_space_group_name_H-M   'P 1 1 21/a'
_atom_sites_solution_hydrogens   geom
_atom_sites_solution_primary     direct
_atom_sites_solution_secondary   difmap
_audit_creation_method           SHELXL-97
_cell_angle_alpha                90.00
_cell_angle_beta                 90.00
_cell_angle_gamma                95.13(4)
_cell_formula_units_Z            8
_cell_length_a                   22.069(12)
_cell_length_b                   9.510(4)
_cell_length_c                   3.6252(8)
_cell_measurement_reflns_used    3061
_cell_measurement_temperature    295(2)
_cell_measurement_theta_max      27.82
_cell_measurement_theta_min      2.96
_cell_volume                     757.8(5)
_computing_cell_refinement       'CrysAlisRED (Oxford Diffraction, 2004)'
_computing_data_collection       'CrysAlisCCD (Oxford Diffraction, 2004)'
_computing_data_reduction
'CrysAlisRED (Oxford Diffraction, 2004); REDSHABS (Katrusiak, A.  2003)'
_computing_molecular_graphics    'SHELXTL (Sheldrick, 1990)'
_computing_publication_material  'SHELXL--97 (Sheldrick, 1997)'
_computing_structure_refinement  'SHELXL--97 (Sheldrick, 1997)'
_computing_structure_solution    'SHELXS--97 (Sheldrick, 1997)'
_diffrn_ambient_environment      'diamond-anvil cell'
_diffrn_ambient_pressure         1070000
_diffrn_ambient_temperature      295(2)
_diffrn_measured_fraction_theta_full 0.176
_diffrn_measured_fraction_theta_max 0.176
_diffrn_measurement_device_type  'KM-4 CCD'
_diffrn_measurement_method       '\f- and \w-scans'
_diffrn_radiation_monochromator  graphite
_diffrn_radiation_source         'fine-focus sealed tube'
_diffrn_radiation_type           MoK\a
_diffrn_radiation_wavelength     0.71073
_diffrn_reflns_av_R_equivalents  0.0814
_diffrn_reflns_av_sigmaI/netI    0.0340
_diffrn_reflns_limit_h_max       10
_diffrn_reflns_limit_h_min       -10
_diffrn_reflns_limit_k_max       11
_diffrn_reflns_limit_k_min       -11
_diffrn_reflns_limit_l_max       4
_diffrn_reflns_limit_l_min       -4
_diffrn_reflns_number            3061
_diffrn_reflns_theta_full        27.82
_diffrn_reflns_theta_max         27.82
_diffrn_reflns_theta_min         2.96
_diffrn_standards_decay_%        0
_diffrn_standards_interval_count 0
_diffrn_standards_number         0
_exptl_absorpt_coefficient_mu    0.093
_exptl_absorpt_correction_T_max  0.92
_exptl_absorpt_correction_T_min  0.54
_exptl_absorpt_correction_type   analytical
_exptl_absorpt_process_details
; 
 Correction for absorption of the diamond-anvil cell and the sample 
 were made using program REDSHABS (Katrusiak, A. (2003) REDSHABS. Adam
 Mickiewicz University Pozna\'n; Katrusiak, A. (2004) Z. Kristallogr.
 219, 461-467).
;
_exptl_crystal_colour            colourless
_exptl_crystal_density_diffrn    1.404
_exptl_crystal_density_method    'not measured'
_exptl_crystal_description       cylinder
_exptl_crystal_F_000             336
_exptl_crystal_size_max          0.38
_exptl_crystal_size_mid          0.25
_exptl_crystal_size_min          0.23
_refine_diff_density_max         0.086
_refine_diff_density_min         -0.077
_refine_diff_density_rms         0.021
_refine_ls_extinction_method     none
_refine_ls_goodness_of_fit_ref   1.190
_refine_ls_hydrogen_treatment    constr
_refine_ls_matrix_type           full
_refine_ls_number_parameters     49
_refine_ls_number_reflns         317
_refine_ls_number_restraints     0
_refine_ls_restrained_S_all      1.190
_refine_ls_R_factor_all          0.0852
_refine_ls_R_factor_gt           0.0651
_refine_ls_shift/su_max          0.000
_refine_ls_shift/su_mean         0.000
_refine_ls_structure_factor_coef Fsqd
_refine_ls_weighting_details
'calc w=1/[\s^2^(Fo^2^)+(0.0000P)^2^+0.7679P] where P=(Fo^2^+2Fc^2^)/3'
_refine_ls_weighting_scheme      calc
_refine_ls_wR_factor_gt          0.0810
_refine_ls_wR_factor_ref         0.0876
_reflns_number_gt                263
_reflns_number_total             317
_reflns_threshold_expression     >2sigma(I)
_cod_data_source_file            cg5b00657_si_002.cif
_cod_data_source_block           phaseIII_1.07GPa
_cod_database_code               4516361
loop_
_symmetry_equiv_pos_as_xyz
'x, y, z'
'-x+1/2, -y, z+1/2'
'-x, -y, -z'
'x-1/2, y, -z-1/2'
loop_
_atom_site_label
_atom_site_type_symbol
_atom_site_fract_x
_atom_site_fract_y
_atom_site_fract_z
_atom_site_U_iso_or_equiv
_atom_site_adp_type
_atom_site_occupancy
_atom_site_symmetry_multiplicity
_atom_site_calc_flag
_atom_site_refinement_flags
N1 N 0.0601(11) 0.3762(9) 0.4290(17) 0.057(2) Uiso 1 1 d .
N3 N -0.0002(12) 0.1839(11) 0.7089(18) 0.064(3) Uiso 1 1 d .
C2 C 0.0094(11) 0.3177(12) 0.5735(16) 0.065(2) Uiso 1 1 d .
H2 H -0.0232 0.3731 0.5844 0.078 Uiso 1 1 calc R
C4 C 0.0502(14) 0.1203(13) 0.705(2) 0.052(3) Uiso 1 1 d .
H4 H 0.0469 0.0308 0.8105 0.062 Uiso 1 1 calc R
C5 C 0.1097(11) 0.1660(11) 0.5653(15) 0.059(2) Uiso 1 1 d .
H5 H 0.1422 0.1099 0.5659 0.071 Uiso 1 1 calc R
C6 C 0.1135(14) 0.3050(13) 0.427(2) 0.053(3) Uiso 1 1 d .
H6 H 0.1501 0.3485 0.3380 0.063 Uiso 1 1 calc R
N11 N 0.1909(9) 0.8787(8) 0.7824(16) 0.0570(19) Uiso 1 1 d .
N13 N 0.2438(8) 0.6882(8) 0.6652(12) 0.0490(14) Uiso 1 1 d .
C12 C 0.2318(12) 0.8277(11) 0.6628(19) 0.054(2) Uiso 1 1 d .
H12 H 0.2609 0.8894 0.5477 0.065 Uiso 1 1 calc R
C14 C 0.1956(10) 0.6038(9) 0.7920(17) 0.0426(18) Uiso 1 1 d .
H14 H 0.1985 0.5069 0.7842 0.051 Uiso 1 1 calc R
C15 C 0.1462(11) 0.6458(10) 0.9222(17) 0.0387(17) Uiso 1 1 d .
H15 H 0.1162 0.5819 1.0211 0.046 Uiso 1 1 calc R
C16 C 0.1387(10) 0.7910(9) 0.9110(16) 0.066(2) Uiso 1 1 d .
H16 H 0.1027 0.8275 0.9813 0.079 Uiso 1 1 calc R
loop_
_atom_type_symbol
_atom_type_description
_atom_type_scat_dispersion_real
_atom_type_scat_dispersion_imag
_atom_type_scat_source
C C 0.0033 0.0016 'International Tables Vol C Tables 4.2.6.8 and 6.1.1.4'
H H 0.0000 0.0000 'International Tables Vol C Tables 4.2.6.8 and 6.1.1.4'
N N 0.0061 0.0033 'International Tables Vol C Tables 4.2.6.8 and 6.1.1.4'
loop_
_geom_angle_atom_site_label_1
_geom_angle_atom_site_label_2
_geom_angle_atom_site_label_3
_geom_angle
C2 N1 C6 121.1(11)
C4 N3 C2 111.1(17)
N1 C2 N3 126(2)
N3 C4 C5 130.8(11)
C6 C5 C4 113(2)
C5 C6 N1 118(2)
C12 N11 C16 119.8(10)
C14 N13 C12 111.4(15)
N11 C12 N13 129.2(12)
C15 C14 N13 125.7(11)
C14 C15 C16 118.2(11)
C15 C16 N11 114.9(17)
loop_
_geom_bond_atom_site_label_1
_geom_bond_atom_site_label_2
_geom_bond_distance
N1 C2 1.31(2)
N1 C6 1.41(4)
N3 C4 1.31(5)
N3 C2 1.362(12)
C4 C5 1.44(3)
C5 C6 1.409(16)
N11 C12 1.15(4)
N11 C16 1.439(17)
N13 C14 1.354(15)
N13 C12 1.376(17)
C14 C15 1.28(3)
C15 C16 1.405(17)
loop_
_refln_index_h
_refln_index_k
_refln_index_l
_refln_F_squared_calc
_refln_F_squared_meas
_refln_F_squared_sigma
_refln_observed_status
2 1 0 43.50 38.39 3.82 o
0 2 0 7656.55 7808.77 82.51 o
2 2 0 58.42 44.65 1.25 o
4 2 0 26.84 20.96 5.87 o
0 3 0 9.60 8.67 1.16 o
2 3 0 31.51 27.74 1.48 o
4 3 0 1671.35 1700.74 7.23 o
0 4 0 4854.93 4970.15 39.48 o
2 4 0 211.24 200.81 2.50 o
4 4 0 2.41 3.36 0.73 o
6 4 0 35.26 22.83 1.86 o
2 5 0 145.10 143.74 3.01 o
4 5 0 311.52 318.74 5.20 o
6 5 0 24.24 23.86 1.88 o
8 5 0 3.71 2.75 1.78 o
2 6 0 206.13 207.38 5.69 o
4 6 0 35.98 44.03 2.37 o
6 6 0 204.66 215.61 3.68 o
8 6 0 907.56 895.92 11.10 o
2 7 0 96.36 105.18 3.77 o
4 7 0 234.90 250.58 4.17 o
6 7 0 7.91 8.93 5.81 o
8 7 0 5.04 2.61 1.86 o
4 8 0 61.70 62.26 4.34 o
6 8 0 186.31 197.04 5.83 o
8 8 0 630.00 792.61 109.25 o
4 9 0 15.40 9.27 3.83 o
6 9 0 3.67 10.65 3.32 o
8 9 0 4.12 10.40 3.55 o
6 10 0 3.49 8.20 4.33 o
8 10 0 1.24 8.64 3.73 o
8 11 0 0.45 6.54 4.32 o
1 0 1 1901.06 1872.13 25.47 o
2 0 1 2286.68 2221.14 99.60 o
3 0 1 1782.62 1764.91 13.60 o
-2 1 1 3338.13 3293.38 66.68 o
-1 1 1 602.20 595.69 19.92 o
0 1 1 1465.42 1476.92 25.64 o
1 1 1 1593.76 1572.35 17.87 o
2 1 1 8480.15 8494.25 74.15 o
3 1 1 6181.59 6051.72 144.36 o
4 1 1 767.84 750.42 3.09 o
-1 2 1 685.21 655.11 10.09 o
0 2 1 1510.82 1474.57 26.06 o
1 2 1 35.05 42.56 0.77 o
2 2 1 455.55 468.51 4.78 o
3 2 1 2.07 1.96 0.44 o
4 2 1 16.82 23.80 1.12 o
5 2 1 1.58 2.04 1.08 o
-1 3 1 374.56 338.18 46.06 o
0 3 1 125.80 136.29 2.66 o
1 3 1 10.37 7.77 0.54 o
2 3 1 115.95 134.02 1.63 o
3 3 1 107.53 103.51 2.36 o
4 3 1 55.85 54.00 1.07 o
5 3 1 75.73 84.76 3.74 o
6 3 1 535.36 419.98 101.58 o
-1 4 1 303.50 266.48 18.85 o
0 4 1 103.50 104.87 2.28 o
1 4 1 79.99 85.53 1.68 o
2 4 1 483.78 507.09 2.88 o
3 4 1 184.76 193.66 2.26 o
4 4 1 121.48 119.81 2.02 o
5 4 1 41.72 36.65 1.76 o
6 4 1 142.07 128.57 5.97 o
7 4 1 2.77 4.22 1.21 o
0 5 1 72.34 67.67 1.61 o
1 5 1 1.75 2.74 0.88 o
2 5 1 278.86 283.88 4.71 o
3 5 1 542.69 502.11 6.84 o
4 5 1 54.36 64.04 1.45 o
5 5 1 8.91 5.56 0.89 o
6 5 1 212.20 207.04 3.52 o
7 5 1 58.50 58.55 5.81 o
8 5 1 68.93 46.98 14.61 o
1 6 1 1.96 3.79 1.25 o
2 6 1 36.96 36.63 2.07 o
3 6 1 1.39 3.87 0.84 o
4 6 1 54.63 61.91 1.63 o
5 6 1 2.21 7.20 1.03 o
6 6 1 1.95 3.08 0.97 o
7 6 1 4.22 3.31 1.25 o
8 6 1 24.39 15.48 3.26 o
9 6 1 53.58 66.52 3.82 o
1 7 1 60.93 54.40 6.92 o
2 7 1 36.62 34.33 2.08 o
3 7 1 232.11 232.26 4.77 o
4 7 1 1.64 4.68 1.33 o
5 7 1 21.81 24.03 1.96 o
6 7 1 473.12 444.67 4.85 o
7 7 1 133.64 151.25 4.92 o
8 7 1 72.39 63.62 1.97 o
9 7 1 5.75 4.72 2.14 o
3 8 1 2.77 4.68 1.74 o
4 8 1 56.82 64.06 3.20 o
5 8 1 22.94 24.81 2.34 o
6 8 1 20.06 18.99 2.04 o
7 8 1 4.31 5.79 1.36 o
8 8 1 24.32 16.80 3.07 o
9 8 1 9.66 6.14 1.97 o
4 9 1 14.49 11.21 3.86 o
5 9 1 0.90 5.57 1.81 o
6 9 1 27.08 33.97 2.73 o
7 9 1 1.92 3.62 1.48 o
8 9 1 23.21 18.49 3.75 o
9 9 1 3.43 4.51 2.17 o
10 9 1 14.10 9.44 2.56 o
6 10 1 3.92 9.54 3.52 o
7 10 1 1.97 7.69 2.42 o
8 10 1 8.71 6.77 2.54 o
9 10 1 0.17 4.75 2.15 o
8 11 1 0.67 6.10 7.64 o
9 11 1 0.20 8.86 4.06 o
0 0 2 91.88 96.64 2.73 o
1 0 2 18.35 18.20 0.91 o
2 0 2 247.87 235.56 2.91 o
3 0 2 427.73 404.97 6.26 o
4 0 2 977.37 991.07 18.73 o
-4 1 2 106.79 104.78 5.00 o
-3 1 2 146.05 133.79 12.96 o
-2 1 2 15.07 14.87 1.04 o
-1 1 2 27.02 26.69 1.44 o
0 1 2 222.79 230.32 4.52 o
1 1 2 584.88 597.93 7.03 o
2 1 2 496.81 520.14 15.10 o
3 1 2 72.52 64.69 1.91 o
4 1 2 3.75 2.96 0.84 o
5 1 2 91.93 75.59 16.64 o
-3 2 2 118.67 108.33 4.68 o
-2 2 2 4.84 8.77 1.50 o
-1 2 2 298.10 294.88 4.47 o
0 2 2 26.77 30.34 1.19 o
1 2 2 80.06 70.92 3.02 o
2 2 2 0.39 2.45 0.64 o
3 2 2 243.83 258.45 3.39 o
4 2 2 779.42 766.57 40.24 o
5 2 2 715.72 638.92 63.59 o
6 2 2 70.97 77.00 17.42 o
-2 3 2 279.84 272.45 31.79 o
-1 3 2 48.29 46.11 3.26 o
0 3 2 315.83 297.18 6.65 o
1 3 2 74.33 63.59 1.75 o
2 3 2 53.97 49.58 1.47 o
3 3 2 474.96 495.50 6.54 o
4 3 2 371.40 397.64 3.67 o
5 3 2 28.83 22.87 1.39 o
6 3 2 9.11 8.40 1.87 o
7 3 2 3.17 2.22 1.42 o
-1 4 2 85.76 85.10 4.94 o
0 4 2 42.15 43.61 2.36 o
1 4 2 3.58 4.48 1.05 o
2 4 2 40.84 39.18 1.50 o
3 4 2 27.25 27.31 1.56 o
4 4 2 7.60 6.02 1.18 o
5 4 2 23.70 30.96 2.05 o
6 4 2 61.44 50.55 6.75 o
7 4 2 24.47 24.71 1.30 o
8 4 2 83.65 93.15 3.26 o
0 5 2 2.89 3.33 1.63 o
1 5 2 108.46 115.16 5.05 o
2 5 2 0.90 4.49 1.25 o
3 5 2 2.68 4.13 1.22 o
4 5 2 29.51 24.13 2.29 o
5 5 2 43.29 40.50 2.11 o
6 5 2 13.43 18.71 2.22 o
7 5 2 151.62 145.41 23.26 o
8 5 2 126.63 107.07 30.36 o
0 6 2 12.74 15.95 5.92 o
1 6 2 29.86 30.79 4.69 o
2 6 2 10.36 10.08 1.71 o
3 6 2 196.92 207.68 11.42 o
4 6 2 192.81 200.72 5.58 o
5 6 2 24.26 17.49 1.82 o
6 6 2 19.40 14.22 1.99 o
7 6 2 15.03 11.18 1.96 o
8 6 2 7.49 4.80 2.87 o
9 6 2 28.35 33.79 3.62 o
1 7 2 70.44 46.02 19.66 o
2 7 2 7.20 10.47 3.98 o
3 7 2 68.35 77.34 3.89 o
4 7 2 41.10 34.67 2.27 o
5 7 2 4.93 6.14 1.70 o
6 7 2 6.25 6.77 1.66 o
7 7 2 29.70 18.77 4.45 o
8 7 2 13.19 15.63 4.51 o
9 7 2 22.73 25.93 1.44 o
3 8 2 38.07 27.50 7.63 o
4 8 2 26.26 28.60 5.00 o
5 8 2 12.09 16.75 2.78 o
6 8 2 1.38 7.92 2.50 o
7 8 2 5.89 6.64 2.21 o
8 8 2 16.20 8.95 2.81 o
9 8 2 0.39 3.07 2.15 o
4 9 2 1.57 3.24 8.79 o
5 9 2 2.09 8.64 3.46 o
6 9 2 4.68 10.91 2.98 o
7 9 2 7.76 6.51 2.39 o
8 9 2 6.06 5.36 2.22 o
9 9 2 0.64 6.90 3.36 o
7 10 2 1.98 6.15 3.85 o
8 10 2 0.86 3.46 3.87 o
9 10 2 0.95 7.64 3.96 o
1 0 3 2.18 5.02 1.45 o
2 0 3 1.93 4.63 1.57 o
3 0 3 42.56 32.69 5.41 o
4 0 3 6.42 7.72 3.58 o
5 0 3 1.13 1.72 3.09 o
-4 1 3 9.92 4.94 2.68 o
-3 1 3 47.22 39.48 8.35 o
-2 1 3 39.38 30.15 2.63 o
-1 1 3 3.07 4.56 1.49 o
0 1 3 54.96 59.07 2.36 o
1 1 3 67.80 79.85 2.74 o
2 1 3 5.14 7.59 1.67 o
3 1 3 4.81 8.33 1.97 o
4 1 3 70.97 64.74 2.68 o
5 1 3 68.08 63.27 5.67 o
-3 2 3 5.92 7.19 2.78 o
-2 2 3 0.03 4.47 1.78 o
-1 2 3 0.02 5.01 1.56 o
0 2 3 24.64 18.11 2.37 o
1 2 3 5.19 5.96 1.41 o
2 2 3 46.70 45.85 2.24 o
3 2 3 6.82 15.80 2.54 o
4 2 3 87.98 80.13 6.46 o
5 2 3 65.68 53.38 10.86 o
6 2 3 17.64 10.69 3.60 o
-2 3 3 7.05 4.10 2.09 o
-1 3 3 3.47 4.63 2.24 o
0 3 3 7.36 5.74 1.66 o
1 3 3 99.60 105.15 3.04 o
2 3 3 94.56 103.28 2.98 o
3 3 3 1.70 4.30 1.14 o
4 3 3 41.81 49.05 2.42 o
5 3 3 30.70 29.59 5.52 o
6 3 3 55.62 35.63 16.40 o
7 3 3 1.60 9.18 4.73 o
-1 4 3 6.32 3.47 2.79 o
0 4 3 2.52 4.65 2.19 o
1 4 3 1.67 4.80 1.54 o
2 4 3 41.46 52.59 2.85 o
3 4 3 29.93 36.17 2.92 o
4 4 3 75.41 87.08 3.95 o
5 4 3 10.20 4.47 1.94 o
6 4 3 199.70 188.54 50.35 o
7 4 3 2.34 6.22 3.16 o
0 5 3 5.47 6.20 2.35 o
1 5 3 6.25 9.85 3.28 o
2 5 3 39.09 43.96 4.09 o
3 5 3 9.29 7.90 2.48 o
4 5 3 1.70 5.51 2.07 o
5 5 3 0.44 6.70 1.97 o
6 5 3 25.39 21.58 3.82 o
7 5 3 48.01 31.20 9.95 o
8 5 3 0.70 2.59 2.21 o
1 6 3 0.04 4.73 2.81 o
2 6 3 10.25 9.55 3.27 o
3 6 3 2.50 5.04 2.43 o
4 6 3 1.05 6.20 2.38 o
5 6 3 21.80 23.17 2.33 o
6 6 3 12.51 10.21 2.02 o
7 6 3 1.94 4.61 4.95 o
8 6 3 0.10 0.37 3.05 o
2 7 3 0.01 11.17 5.64 o
3 7 3 5.08 9.04 2.94 o
4 7 3 13.60 13.02 3.53 o
5 7 3 9.33 7.56 3.01 o
6 7 3 0.00 4.99 2.53 o
7 7 3 3.71 3.31 2.40 o
8 7 3 5.60 6.01 3.78 o
4 8 3 13.36 8.29 6.92 o
5 8 3 3.46 13.92 19.16 o
6 8 3 9.56 8.39 4.37 o
7 8 3 0.15 4.98 6.03 o
8 8 3 0.03 8.08 5.48 o
6 9 3 0.35 7.16 7.67 o
0 0 4 1.37 6.29 3.05 o
1 0 4 14.51 16.60 3.52 o
2 0 4 1.93 6.61 3.22 o
3 0 4 6.79 3.84 2.33 o
4 0 4 0.87 5.00 4.28 o
-3 1 4 18.34 9.47 3.93 o
-2 1 4 1.78 3.64 2.35 o
0 1 4 2.86 3.06 2.47 o
1 1 4 0.02 4.36 1.62 o
2 1 4 0.74 6.07 2.82 o
3 1 4 0.13 4.20 2.13 o
4 1 4 0.01 2.12 3.55 o
-2 2 4 2.27 2.96 3.43 o
-1 2 4 22.53 17.27 3.13 o
0 2 4 7.92 10.44 3.55 o
1 2 4 10.93 11.70 2.92 o
2 2 4 5.92 4.71 3.12 o
3 2 4 13.12 11.74 2.64 o
4 2 4 2.04 6.23 3.74 o
5 2 4 10.80 14.05 6.14 o
-1 3 4 0.97 8.55 3.29 o
0 3 4 7.40 17.86 4.25 o
1 3 4 30.00 21.90 7.12 o
2 3 4 0.00 3.78 2.89 o
3 3 4 2.85 7.51 2.83 o
4 3 4 7.56 7.36 3.98 o
5 3 4 0.30 6.90 3.78 o
0 4 4 2.15 8.46 4.66 o
1 4 4 0.01 7.45 4.07 o
2 4 4 0.63 12.15 4.88 o
3 4 4 24.65 14.05 3.60 o
4 4 4 0.03 8.74 3.39 o
5 4 4 43.75 41.97 3.17 o
6 4 4 1.25 4.11 6.79 o
1 5 4 2.70 7.05 3.71 o
2 5 4 0.01 5.40 2.74 o
3 5 4 4.45 7.09 3.47 o
5 5 4 2.04 7.98 4.81 o
6 5 4 0.03 6.10 3.94 o
3 6 4 0.03 8.99 3.19 o
6 6 4 3.37 1.00 6.11 o
