#------------------------------------------------------------------------------
#$Date: 2019-11-22 19:03:52 +0200 (Fri, 22 Nov 2019) $
#$Revision: 231268 $
#$URL: file:///home/coder/svn-repositories/cod/cif/4/51/63/4516363.cif $
#------------------------------------------------------------------------------
#
# This file is available in the Crystallography Open Database (COD),
# http://www.crystallography.net/
#
# All data on this site have been placed in the public domain by the
# contributors.
#
data_4516363
loop_
_publ_author_name
'Patyk, Ewa'
'Podsiad\/lo, Marcin'
'Katrusiak, Andrzej'
_publ_section_title
;
 CH&#x00B7;&#x00B7;&#x00B7;N Bonds and Dynamics in Isostructural
 Pyrimidine Polymorphs
;
_journal_issue                   8
_journal_name_full               'Crystal Growth &amp; Design'
_journal_page_first              4039
_journal_paper_doi               10.1021/acs.cgd.5b00657
_journal_volume                  15
_journal_year                    2015
_chemical_formula_moiety         'C4 H4 N2'
_chemical_formula_sum            'C4 H4 N2'
_chemical_formula_weight         80.09
_chemical_melting_point          293.15
_chemical_name_common            pyrimidine
_chemical_name_systematic
; 
pyrimidine phase IV
;
_space_group_IT_number           14
_space_group_name_Hall           '-P 2yn'
_space_group_name_H-M_alt        'P 1 21/n 1'
_symmetry_cell_setting           monoclinic
_symmetry_space_group_name_Hall  '-P 2yn'
_symmetry_space_group_name_H-M   'P 1 21/n 1'
_atom_sites_solution_hydrogens   geom
_atom_sites_solution_primary     direct
_atom_sites_solution_secondary   difmap
_audit_creation_method           SHELXL-97
_cell_angle_alpha                90.00
_cell_angle_beta                 90.73(8)
_cell_angle_gamma                90.00
_cell_formula_units_Z            4
_cell_length_a                   11.109(7)
_cell_length_b                   9.2258(17)
_cell_length_c                   3.5550(18)
_cell_measurement_reflns_used    1406
_cell_measurement_temperature    295(2)
_cell_measurement_theta_max      27.34
_cell_measurement_theta_min      4.42
_cell_volume                     364.3(3)
_computing_cell_refinement       'CrysAlisRED (Oxford Diffraction, 2004)'
_computing_data_collection       'CrysAlisCCD (Oxford Diffraction, 2004)'
_computing_data_reduction
'CrysAlisRED (Oxford Diffraction, 2004); REDSHABS (Katrusiak, A.  2003)'
_computing_molecular_graphics    'SHELXTL (Sheldrick, 1990)'
_computing_publication_material  'SHELXL--97 (Sheldrick, 1997)'
_computing_structure_refinement  'SHELXL--97 (Sheldrick, 1997)'
_computing_structure_solution    'SHELXS--97 (Sheldrick, 1997)'
_diffrn_ambient_environment      'diamond-anvil cell'
_diffrn_ambient_pressure         1390000
_diffrn_ambient_temperature      295(2)
_diffrn_measured_fraction_theta_full 0.154
_diffrn_measured_fraction_theta_max 0.154
_diffrn_measurement_device_type  'KM-4 CCD'
_diffrn_measurement_method       '\f- and \w-scans'
_diffrn_radiation_monochromator  graphite
_diffrn_radiation_source         'fine-focus sealed tube'
_diffrn_radiation_type           MoK\a
_diffrn_radiation_wavelength     0.71073
_diffrn_reflns_av_R_equivalents  0.0452
_diffrn_reflns_av_sigmaI/netI    0.0165
_diffrn_reflns_limit_h_max       3
_diffrn_reflns_limit_h_min       -3
_diffrn_reflns_limit_k_max       11
_diffrn_reflns_limit_k_min       -11
_diffrn_reflns_limit_l_max       4
_diffrn_reflns_limit_l_min       -4
_diffrn_reflns_number            1406
_diffrn_reflns_theta_full        27.34
_diffrn_reflns_theta_max         27.34
_diffrn_reflns_theta_min         4.42
_diffrn_standards_decay_%        0
_diffrn_standards_interval_count 0
_diffrn_standards_number         0
_exptl_absorpt_coefficient_mu    0.096
_exptl_absorpt_correction_T_max  0.93
_exptl_absorpt_correction_T_min  0.53
_exptl_absorpt_correction_type   analytical
_exptl_absorpt_process_details
; 
 Correction for absorption of the diamond-anvil cell and the sample 
 were made using program REDSHABS (Katrusiak, A. (2003) REDSHABS. Adam
 Mickiewicz University Pozna\'n; Katrusiak, A. (2004) Z. Kristallogr.
 219, 461-467).
;
_exptl_crystal_colour            colourless
_exptl_crystal_density_diffrn    1.460
_exptl_crystal_density_method    'not measured'
_exptl_crystal_description       cylinder
_exptl_crystal_F_000             168
_exptl_crystal_size_max          0.33
_exptl_crystal_size_mid          0.30
_exptl_crystal_size_min          0.23
_refine_diff_density_max         0.053
_refine_diff_density_min         -0.052
_refine_diff_density_rms         0.015
_refine_ls_extinction_method     none
_refine_ls_goodness_of_fit_ref   1.322
_refine_ls_hydrogen_treatment    constr
_refine_ls_matrix_type           full
_refine_ls_number_parameters     25
_refine_ls_number_reflns         126
_refine_ls_number_restraints     0
_refine_ls_restrained_S_all      1.322
_refine_ls_R_factor_all          0.0480
_refine_ls_R_factor_gt           0.0392
_refine_ls_shift/su_max          0.000
_refine_ls_shift/su_mean         0.000
_refine_ls_structure_factor_coef Fsqd
_refine_ls_weighting_details
'calc w=1/[\s^2^(Fo^2^)+(0.0000P)^2^+0.1486P] where P=(Fo^2^+2Fc^2^)/3'
_refine_ls_weighting_scheme      calc
_refine_ls_wR_factor_gt          0.0543
_refine_ls_wR_factor_ref         0.0574
_reflns_number_gt                111
_reflns_number_total             126
_reflns_threshold_expression     >2sigma(I)
_cod_data_source_file            cg5b00657_si_002.cif
_cod_data_source_block           phaseIV_1.39GPa
_cod_original_sg_symbol_H-M      'P 21/n'
_cod_database_code               4516363
loop_
_symmetry_equiv_pos_as_xyz
'x, y, z'
'-x+1/2, y+1/2, -z+1/2'
'-x, -y, -z'
'x-1/2, -y-1/2, z-1/2'
loop_
_atom_site_label
_atom_site_type_symbol
_atom_site_fract_x
_atom_site_fract_y
_atom_site_fract_z
_atom_site_U_iso_or_equiv
_atom_site_adp_type
_atom_site_occupancy
_atom_site_symmetry_multiplicity
_atom_site_calc_flag
_atom_site_refinement_flags
N1 N 0.1331(12) 0.3704(3) -0.0538(10) 0.0478(12) Uiso 1 1 d .
N3 N 0.0140(12) 0.1792(4) 0.2216(9) 0.0485(11) Uiso 1 1 d .
C2 C 0.0272(14) 0.3158(4) 0.0957(13) 0.0555(14) Uiso 1 1 d .
H2 H -0.0386 0.3777 0.1095 0.067 Uiso 1 1 calc R
C4 C 0.1178(13) 0.0953(5) 0.2021(11) 0.0398(12) Uiso 1 1 d .
H4 H 0.1172 0.0020 0.3006 0.048 Uiso 1 1 calc R
C5 C 0.2094(15) 0.1409(4) 0.0596(12) 0.0485(13) Uiso 1 1 d .
H5 H 0.2747 0.0787 0.0347 0.058 Uiso 1 1 calc R
C6 C 0.2193(15) 0.2824(4) -0.0666(12) 0.0474(13) Uiso 1 1 d .
H6 H 0.2922 0.3133 -0.1642 0.057 Uiso 1 1 calc R
loop_
_atom_type_symbol
_atom_type_description
_atom_type_scat_dispersion_real
_atom_type_scat_dispersion_imag
_atom_type_scat_source
C C 0.0033 0.0016 'International Tables Vol C Tables 4.2.6.8 and 6.1.1.4'
H H 0.0000 0.0000 'International Tables Vol C Tables 4.2.6.8 and 6.1.1.4'
N N 0.0061 0.0033 'International Tables Vol C Tables 4.2.6.8 and 6.1.1.4'
loop_
_geom_angle_atom_site_label_1
_geom_angle_atom_site_label_2
_geom_angle_atom_site_label_3
_geom_angle
C6 N1 C2 115.4(6)
C2 N3 C4 114.2(9)
N3 C2 N1 124.2(10)
C5 C4 N3 121.8(6)
C4 C5 C6 122.0(11)
N1 C6 C5 122.3(12)
loop_
_geom_bond_atom_site_label_1
_geom_bond_atom_site_label_2
_geom_bond_distance
N1 C6 1.256(16)
N1 C2 1.391(17)
N3 C2 1.346(5)
N3 C4 1.391(16)
C4 C5 1.217(16)
C5 C6 1.385(5)
loop_
_refln_index_h
_refln_index_k
_refln_index_l
_refln_F_squared_calc
_refln_F_squared_meas
_refln_F_squared_sigma
_refln_observed_status
0 2 0 1619.92 1611.55 2.03 o
1 2 0 32.22 28.36 0.89 o
1 3 0 12.38 14.67 0.29 o
0 4 0 890.92 903.48 2.82 o
1 4 0 190.39 183.09 0.76 o
1 5 0 0.12 0.22 0.11 o
0 6 0 79.88 80.93 1.06 o
1 6 0 55.97 54.07 1.08 o
2 6 0 83.41 89.80 2.52 o
1 7 0 4.27 5.24 0.41 o
0 8 0 0.03 0.68 0.38 o
1 8 0 5.84 3.85 0.41 o
1 9 0 1.57 1.35 0.47 o
0 10 0 7.60 11.63 1.32 o
1 10 0 8.51 10.35 1.06 o
-1 0 1 2268.28 2274.24 10.03 o
-1 1 1 112.48 112.34 0.49 o
0 1 1 44.48 41.70 0.83 o
-2 2 1 74.50 77.60 3.13 o
-1 2 1 11.34 10.79 0.25 o
0 2 1 1131.75 1136.79 11.79 o
1 2 1 412.61 409.58 6.38 o
-2 3 1 0.29 0.97 0.20 o
-1 3 1 10.74 11.33 0.27 o
0 3 1 188.37 180.82 2.49 o
1 3 1 63.64 58.53 1.75 o
-2 4 1 39.32 40.65 1.28 o
-1 4 1 310.85 312.49 2.29 o
0 4 1 29.05 33.20 0.59 o
1 4 1 27.94 26.02 0.54 o
-2 5 1 11.95 14.55 0.72 o
-1 5 1 2.59 3.77 0.23 o
0 5 1 75.15 76.96 1.50 o
1 5 1 175.47 184.31 4.97 o
-2 6 1 0.00 0.72 0.27 o
-1 6 1 9.12 8.52 0.44 o
0 6 1 4.81 5.06 0.36 o
1 6 1 25.10 26.10 0.84 o
-2 7 1 30.51 32.28 0.89 o
-1 7 1 58.44 60.75 1.05 o
0 7 1 9.71 8.20 0.49 o
1 7 1 3.13 2.45 0.41 o
-2 8 1 1.41 1.34 0.51 o
-1 8 1 0.00 0.49 0.29 o
0 8 1 6.07 5.78 0.64 o
1 8 1 0.10 0.53 0.33 o
-1 9 1 50.96 54.25 1.35 o
0 9 1 8.12 9.15 0.77 o
1 9 1 4.92 4.77 0.96 o
-1 10 1 2.28 2.42 0.60 o
0 10 1 0.05 0.94 0.48 o
-1 11 1 1.14 1.88 0.79 o
0 11 1 1.04 0.86 0.56 o
-2 0 2 266.63 266.93 8.67 o
0 0 2 25.93 28.22 0.61 o
-2 1 2 43.54 46.19 0.98 o
-1 1 2 7.18 7.35 0.32 o
0 1 2 34.16 33.53 0.76 o
1 1 2 501.88 497.74 3.51 o
-2 2 2 61.82 62.89 1.16 o
-1 2 2 124.15 121.28 4.23 o
0 2 2 18.79 23.15 0.58 o
1 2 2 0.55 0.44 0.24 o
-2 3 2 22.80 28.66 0.70 o
-1 3 2 5.99 5.78 0.42 o
0 3 2 23.30 23.92 0.62 o
1 3 2 480.96 474.49 16.17 o
-2 4 2 2.40 2.00 0.35 o
-1 4 2 5.15 6.35 0.40 o
0 4 2 6.02 3.20 0.36 o
1 4 2 9.19 7.36 0.46 o
-2 5 2 26.59 25.31 0.88 o
-1 5 2 12.02 11.26 0.51 o
0 5 2 19.70 18.09 0.57 o
1 5 2 0.13 0.39 0.27 o
-2 6 2 10.06 9.60 0.88 o
-1 6 2 6.33 7.10 0.67 o
0 6 2 1.01 0.80 0.34 o
1 6 2 21.32 18.60 2.73 o
-2 7 2 5.66 6.42 0.97 o
-1 7 2 1.06 0.74 0.37 o
0 7 2 8.76 6.26 0.62 o
-2 8 2 2.02 2.21 0.77 o
-1 8 2 22.20 25.21 1.21 o
0 8 2 20.57 23.43 1.58 o
-2 9 2 40.72 40.90 3.52 o
-1 9 2 5.36 3.91 1.08 o
0 9 2 4.88 3.67 1.20 o
-1 10 2 3.61 3.80 1.36 o
-3 0 3 60.92 62.67 3.64 o
-1 0 3 63.04 59.88 1.25 o
-3 1 3 27.49 28.69 1.16 o
-2 1 3 0.46 1.10 0.34 o
-1 1 3 28.03 28.22 0.78 o
0 1 3 13.31 10.92 0.70 o
-3 2 3 0.00 0.80 0.90 o
-2 2 3 21.88 23.82 0.90 o
-1 2 3 6.61 4.24 0.56 o
0 2 3 0.38 0.68 0.36 o
-3 3 3 3.49 1.65 0.91 o
-2 3 3 0.65 0.70 0.31 o
-1 3 3 2.21 1.78 0.45 o
0 3 3 8.16 5.68 0.66 o
-2 4 3 80.12 80.32 1.20 o
-1 4 3 0.20 0.90 0.34 o
0 4 3 0.36 0.51 0.37 o
-2 5 3 0.00 0.99 0.42 o
-1 5 3 5.48 4.60 0.54 o
0 5 3 2.89 2.28 0.88 o
-2 6 3 12.76 15.10 1.17 o
-1 6 3 7.69 3.88 0.76 o
0 6 3 9.24 7.46 1.43 o
-2 7 3 1.84 1.81 0.76 o
-1 7 3 0.97 1.43 0.65 o
-1 8 3 2.02 1.87 0.75 o
-1 9 3 1.91 2.20 2.76 o
-2 0 4 11.08 7.05 1.50 o
-2 1 4 0.28 1.19 0.55 o
-1 1 4 7.85 3.89 0.80 o
-2 2 4 0.30 1.03 0.50 o
-1 2 4 3.75 2.30 0.68 o
-2 3 4 9.61 11.81 0.98 o
-1 3 4 25.53 27.06 1.56 o
-2 4 4 3.87 1.87 0.98 o
-1 4 4 0.28 2.37 1.36 o
-2 5 4 4.42 4.34 1.56 o
