#------------------------------------------------------------------------------
#$Date: 2019-11-22 19:03:52 +0200 (Fri, 22 Nov 2019) $
#$Revision: 231268 $
#$URL: file:///home/coder/svn-repositories/cod/cif/4/51/63/4516342.cif $
#------------------------------------------------------------------------------
#
# This file is available in the Crystallography Open Database (COD),
# http://www.crystallography.net/
#
# All data on this site have been placed in the public domain by the
# contributors.
#
data_4516342
loop_
_publ_author_name
'Patyk, Ewa'
'Podsiad\/lo, Marcin'
'Katrusiak, Andrzej'
_publ_section_title
;
 CH&#x00B7;&#x00B7;&#x00B7;N Bonds and Dynamics in Isostructural
 Pyrimidine Polymorphs
;
_journal_issue                   8
_journal_name_full               'Crystal Growth &amp; Design'
_journal_page_first              4039
_journal_paper_doi               10.1021/acs.cgd.5b00657
_journal_volume                  15
_journal_year                    2015
_chemical_formula_moiety         'C4 H4 N2'
_chemical_formula_sum            'C4 H4 N2'
_chemical_formula_weight         80.09
_chemical_melting_point          293.15
_chemical_name_common            pyrimidine
_chemical_name_systematic
; 
pyrimidine phase I
;
_space_group_IT_number           33
_space_group_name_Hall           'P 2c -2n'
_space_group_name_H-M_alt        'P n a 21'
_symmetry_cell_setting           orthorhombic
_symmetry_space_group_name_Hall  'P 2c -2n'
_symmetry_space_group_name_H-M   'P n a 21'
_atom_sites_solution_hydrogens   geom
_atom_sites_solution_primary     direct
_atom_sites_solution_secondary   difmap
_audit_creation_method           SHELXL-97
_cell_angle_alpha                90.00
_cell_angle_beta                 90.00
_cell_angle_gamma                90.00
_cell_formula_units_Z            4
_cell_length_a                   11.7036(7)
_cell_length_b                   9.5020(4)
_cell_length_c                   3.8171(3)
_cell_measurement_reflns_used    15359
_cell_measurement_temperature    280.0(1)
_cell_measurement_theta_max      28.90
_cell_measurement_theta_min      3.48
_cell_volume                     424.49(5)
_computing_cell_refinement       'CrysAlisRED (Oxford Diffraction, 2004)'
_computing_data_collection       'CrysAlisCCD (Oxford Diffraction, 2004)'
_computing_data_reduction        'CrysAlisRED (Oxford Diffraction, 2004)'
_computing_molecular_graphics    'SHELXTL (Sheldrick, 1990)'
_computing_publication_material  'SHELXL--97 (Sheldrick, 1997)'
_computing_structure_refinement  'SHELXL--97 (Sheldrick, 1997)'
_computing_structure_solution    'SHELXS--97 (Sheldrick, 1997)'
_diffrn_ambient_pressure         100
_diffrn_ambient_temperature      280.0(1)
_diffrn_measured_fraction_theta_full 0.970
_diffrn_measured_fraction_theta_max 0.970
_diffrn_measurement_device_type  'KM-4 CCD'
_diffrn_measurement_method       \w-scans
_diffrn_radiation_monochromator  graphite
_diffrn_radiation_source         'fine-focus sealed tube'
_diffrn_radiation_type           MoK\a
_diffrn_radiation_wavelength     0.71073
_diffrn_reflns_av_R_equivalents  0.0356
_diffrn_reflns_av_sigmaI/netI    0.0125
_diffrn_reflns_limit_h_max       15
_diffrn_reflns_limit_h_min       -14
_diffrn_reflns_limit_k_max       12
_diffrn_reflns_limit_k_min       -12
_diffrn_reflns_limit_l_max       5
_diffrn_reflns_limit_l_min       -5
_diffrn_reflns_number            15359
_diffrn_reflns_theta_full        28.90
_diffrn_reflns_theta_max         28.90
_diffrn_reflns_theta_min         3.48
_diffrn_standards_decay_%        0
_diffrn_standards_interval_count 0
_diffrn_standards_number         0
_exptl_absorpt_coefficient_mu    0.083
_exptl_absorpt_correction_T_max  0.984
_exptl_absorpt_correction_T_min  0.984
_exptl_absorpt_correction_type   numerical
_exptl_absorpt_process_details
; 
 Correction for absorption was made using XEMP (SHELXTL, 
 Sheldrick (1990)).
;
_exptl_crystal_colour            colourless
_exptl_crystal_density_diffrn    1.253
_exptl_crystal_density_method    'not measured'
_exptl_crystal_description       irregular
_exptl_crystal_F_000             168
_exptl_crystal_size_max          0.20
_exptl_crystal_size_mid          0.20
_exptl_crystal_size_min          0.20
_refine_diff_density_max         0.109
_refine_diff_density_min         -0.107
_refine_diff_density_rms         0.025
_refine_ls_abs_structure_details 'Flack H D (1983), Acta Cryst. A39, 876-881'
_refine_ls_abs_structure_Flack   0(4)
_refine_ls_extinction_coef       0.067(9)
_refine_ls_extinction_expression Fc^*^=kFc[1+0.001xFc^2^\l^3^/sin(2\q)]^-1/4^
_refine_ls_extinction_method     SHELXL
_refine_ls_goodness_of_fit_ref   1.097
_refine_ls_hydrogen_treatment    constr
_refine_ls_matrix_type           full
_refine_ls_number_parameters     56
_refine_ls_number_reflns         1060
_refine_ls_number_restraints     1
_refine_ls_restrained_S_all      1.096
_refine_ls_R_factor_all          0.0505
_refine_ls_R_factor_gt           0.0408
_refine_ls_shift/su_max          0.000
_refine_ls_shift/su_mean         0.000
_refine_ls_structure_factor_coef Fsqd
_refine_ls_weighting_details
'calc w=1/[\s^2^(Fo^2^)+(0.0418P)^2^+0.0474P] where P=(Fo^2^+2Fc^2^)/3'
_refine_ls_weighting_scheme      calc
_refine_ls_wR_factor_gt          0.0992
_refine_ls_wR_factor_ref         0.1036
_reflns_number_gt                919
_reflns_number_total             1060
_reflns_threshold_expression     >2sigma(I)
_cod_data_source_file            cg5b00657_si_002.cif
_cod_data_source_block           phaseI_280K
_cod_original_cell_volume        424.49(4)
_cod_database_code               4516342
loop_
_symmetry_equiv_pos_as_xyz
'x, y, z'
'-x, -y, z+1/2'
'x+1/2, -y+1/2, z'
'-x+1/2, y+1/2, z+1/2'
loop_
_atom_site_label
_atom_site_type_symbol
_atom_site_fract_x
_atom_site_fract_y
_atom_site_fract_z
_atom_site_U_iso_or_equiv
_atom_site_adp_type
_atom_site_occupancy
_atom_site_symmetry_multiplicity
_atom_site_calc_flag
_atom_site_refinement_flags
N1 N 0.12808(11) 0.39572(12) 0.0238(5) 0.0649(5) Uani 1 1 d .
N3 N 0.01268(11) 0.19108(12) 0.0148(5) 0.0681(5) Uani 1 1 d .
C2 C 0.03162(13) 0.32615(14) 0.0714(6) 0.0601(5) Uani 1 1 d .
H2 H -0.0300 0.3783 0.1542 0.072 Uiso 1 1 calc R
C4 C 0.10215(14) 0.11914(15) -0.1038(6) 0.0656(5) Uani 1 1 d .
H4 H 0.0931 0.0237 -0.1497 0.079 Uiso 1 1 calc R
C5 C 0.20633(14) 0.17839(16) -0.1614(5) 0.0604(5) Uani 1 1 d .
H5 H 0.2682 0.1262 -0.2422 0.073 Uiso 1 1 calc R
C6 C 0.21465(14) 0.31940(16) -0.0933(5) 0.0647(6) Uani 1 1 d .
H6 H 0.2844 0.3637 -0.1311 0.078 Uiso 1 1 calc R
loop_
_atom_site_aniso_label
_atom_site_aniso_U_11
_atom_site_aniso_U_22
_atom_site_aniso_U_33
_atom_site_aniso_U_23
_atom_site_aniso_U_13
_atom_site_aniso_U_12
N1 0.0589(7) 0.0435(6) 0.0923(13) -0.0076(8) -0.0073(9) -0.0016(5)
N3 0.0510(7) 0.0529(6) 0.1005(15) -0.0033(9) -0.0017(9) -0.0055(5)
C2 0.0499(8) 0.0519(7) 0.0784(13) -0.0097(10) -0.0009(9) 0.0090(6)
C4 0.0676(9) 0.0408(6) 0.0883(14) -0.0105(8) -0.0102(9) -0.0006(7)
C5 0.0526(8) 0.0604(8) 0.0683(12) -0.0102(9) -0.0033(8) 0.0106(6)
C6 0.0481(8) 0.0635(9) 0.0826(17) -0.0025(10) -0.0015(8) -0.0082(6)
loop_
_atom_type_symbol
_atom_type_description
_atom_type_scat_dispersion_real
_atom_type_scat_dispersion_imag
_atom_type_scat_source
C C 0.0033 0.0016 'International Tables Vol C Tables 4.2.6.8 and 6.1.1.4'
H H 0.0000 0.0000 'International Tables Vol C Tables 4.2.6.8 and 6.1.1.4'
N N 0.0061 0.0033 'International Tables Vol C Tables 4.2.6.8 and 6.1.1.4'
loop_
_geom_angle_atom_site_label_1
_geom_angle_atom_site_label_2
_geom_angle_atom_site_label_3
_geom_angle
C2 N1 C6 115.24(12)
C2 N3 C4 115.03(13)
N3 C2 N1 127.42(14)
N3 C4 C5 123.22(13)
C4 C5 C6 115.99(14)
N1 C6 C5 123.10(14)
loop_
_geom_bond_atom_site_label_1
_geom_bond_atom_site_label_2
_geom_bond_distance
N1 C2 1.3207(18)
N1 C6 1.324(2)
N3 C2 1.3201(18)
N3 C4 1.330(2)
C4 C5 1.361(2)
C5 C6 1.368(2)
loop_
_refln_index_h
_refln_index_k
_refln_index_l
_refln_F_squared_calc
_refln_F_squared_meas
_refln_F_squared_sigma
_refln_observed_status
2 0 -5 0.42 0.07 0.33 o
0 1 -5 0.93 1.41 0.49 o
1 1 -5 0.02 0.67 0.49 o
2 1 -5 0.00 -0.43 0.43 o
3 1 -5 0.24 -0.33 0.33 o
1 2 -5 0.02 0.18 0.36 o
2 2 -5 0.04 0.34 0.49 o
0 3 -5 0.01 0.87 0.65 o
1 3 -5 0.31 -0.05 0.50 o
0 0 -4 5.50 6.06 0.39 o
2 0 -4 3.19 2.99 0.34 o
4 0 -4 0.80 0.91 0.52 o
6 0 -4 1.75 2.80 0.60 o
8 0 -4 0.97 1.85 0.54 o
1 1 -4 0.99 1.10 0.14 o
2 1 -4 1.06 1.04 0.16 o
3 1 -4 1.64 1.33 0.18 o
4 1 -4 0.74 0.62 0.19 o
5 1 -4 1.81 2.44 0.29 o
6 1 -4 1.73 1.23 0.31 o
7 1 -4 0.27 1.30 0.34 o
8 1 -4 1.89 2.58 0.55 o
0 2 -4 1.76 1.82 0.25 o
1 2 -4 1.34 1.09 0.15 o
2 2 -4 1.58 1.38 0.17 o
3 2 -4 5.75 5.67 0.28 o
4 2 -4 0.41 0.46 0.23 o
5 2 -4 1.05 1.03 0.27 o
6 2 -4 0.24 -0.10 0.28 o
7 2 -4 0.56 1.12 0.31 o
8 2 -4 0.11 1.08 0.54 o
1 3 -4 0.53 0.33 0.15 o
2 3 -4 0.06 0.10 0.16 o
3 3 -4 3.74 3.90 0.29 o
4 3 -4 0.17 0.50 0.20 o
5 3 -4 2.42 2.56 0.26 o
6 3 -4 0.13 0.44 0.19 o
7 3 -4 1.16 1.98 0.32 o
8 3 -4 0.08 1.44 0.67 o
0 4 -4 0.52 0.41 0.20 o
1 4 -4 2.49 2.65 0.20 o
2 4 -4 0.03 0.20 0.17 o
3 4 -4 1.68 1.73 0.21 o
4 4 -4 0.02 0.36 0.28 o
5 4 -4 0.11 0.11 0.23 o
6 4 -4 0.21 0.01 0.29 o
7 4 -4 0.29 0.42 0.49 o
8 4 -4 0.10 0.05 0.47 o
1 5 -4 2.62 2.77 0.25 o
2 5 -4 0.79 1.11 0.21 o
3 5 -4 1.78 1.78 0.23 o
4 5 -4 0.31 0.48 0.30 o
5 5 -4 0.05 -0.12 0.31 o
6 5 -4 0.37 0.39 0.38 o
7 5 -4 0.94 0.30 0.48 o
0 6 -4 2.79 3.15 0.38 o
1 6 -4 1.66 1.62 0.23 o
2 6 -4 1.43 1.51 0.28 o
3 6 -4 0.64 1.33 0.30 o
4 6 -4 0.36 0.38 0.30 o
5 6 -4 0.00 0.52 0.61 o
1 7 -4 0.44 0.12 0.54 o
2 7 -4 0.36 1.56 0.76 o
3 7 -4 0.02 0.76 0.69 o
4 7 -4 0.76 -0.16 0.56 o
2 0 -3 1.80 1.14 0.16 o
4 0 -3 19.79 20.28 0.58 o
6 0 -3 5.11 5.34 0.31 o
8 0 -3 31.52 32.61 1.66 o
10 0 -3 1.41 0.87 0.28 o
12 0 -3 0.32 0.06 0.59 o
0 1 -3 0.02 -0.15 0.15 o
1 1 -3 11.33 9.44 0.41 o
2 1 -3 53.59 49.86 0.87 o
3 1 -3 16.87 15.57 0.25 o
4 1 -3 1.50 1.65 0.15 o
5 1 -3 1.86 2.34 0.22 o
6 1 -3 8.71 8.86 0.32 o
7 1 -3 1.03 1.95 0.23 o
8 1 -3 6.22 6.36 0.29 o
9 1 -3 0.24 0.12 0.19 o
10 1 -3 2.97 1.80 0.26 o
11 1 -3 0.87 0.72 0.25 o
12 1 -3 0.73 0.63 0.39 o
1 2 -3 21.16 17.91 0.57 o
2 2 -3 1.66 1.93 0.10 o
3 2 -3 24.65 22.04 0.29 o
4 2 -3 10.45 10.01 0.25 o
5 2 -3 9.35 10.33 0.38 o
6 2 -3 0.15 0.04 0.14 o
7 2 -3 1.38 2.10 0.20 o
8 2 -3 5.94 6.31 0.40 o
9 2 -3 0.69 0.76 0.23 o
10 2 -3 0.04 0.08 0.21 o
11 2 -3 0.84 0.58 0.29 o
12 2 -3 0.64 0.80 0.36 o
0 3 -3 2.22 2.91 0.31 o
1 3 -3 9.90 9.46 0.19 o
2 3 -3 5.18 4.64 0.16 o
3 3 -3 18.53 16.57 0.32 o
4 3 -3 3.48 3.32 0.17 o
5 3 -3 0.50 0.43 0.11 o
6 3 -3 0.17 0.23 0.12 o
7 3 -3 0.44 0.76 0.19 o
8 3 -3 0.06 0.66 0.22 o
9 3 -3 2.27 2.53 0.33 o
10 3 -3 0.60 0.87 0.22 o
11 3 -3 0.71 0.43 0.28 o
12 3 -3 0.78 1.12 0.33 o
1 4 -3 3.36 3.42 0.17 o
2 4 -3 1.64 1.60 0.12 o
3 4 -3 10.64 10.18 0.23 o
4 4 -3 0.30 0.53 0.12 o
5 4 -3 0.89 0.72 0.13 o
6 4 -3 0.53 0.60 0.13 o
7 4 -3 9.12 9.21 0.32 o
8 4 -3 3.37 4.12 0.37 o
9 4 -3 2.79 3.31 0.25 o
10 4 -3 0.56 0.40 0.19 o
11 4 -3 0.03 0.13 0.23 o
12 4 -3 0.27 -0.35 0.61 o
0 5 -3 1.58 1.49 0.23 o
1 5 -3 6.88 6.80 0.25 o
2 5 -3 9.85 9.69 0.25 o
3 5 -3 7.26 7.94 0.26 o
4 5 -3 0.60 0.56 0.14 o
5 5 -3 1.69 1.75 0.17 o
6 5 -3 1.15 1.52 0.17 o
7 5 -3 5.00 5.33 0.26 o
8 5 -3 0.50 0.43 0.17 o
9 5 -3 4.19 3.46 0.27 o
10 5 -3 2.08 1.56 0.27 o
11 5 -3 0.33 0.20 0.33 o
1 6 -3 8.13 8.22 0.32 o
2 6 -3 3.96 4.16 0.26 o
3 6 -3 2.99 3.16 0.33 o
4 6 -3 9.52 9.59 0.33 o
5 6 -3 1.19 1.44 0.18 o
6 6 -3 0.04 0.36 0.16 o
7 6 -3 3.51 3.77 0.26 o
8 6 -3 5.26 5.45 0.32 o
9 6 -3 2.02 1.87 0.27 o
10 6 -3 0.10 0.54 0.63 o
0 7 -3 3.11 3.62 0.40 o
1 7 -3 0.82 1.05 0.21 o
2 7 -3 16.88 17.40 0.48 o
3 7 -3 0.82 0.66 0.20 o
4 7 -3 1.29 0.94 0.22 o
5 7 -3 0.20 0.55 0.18 o
6 7 -3 0.27 0.51 0.20 o
7 7 -3 0.15 0.72 0.21 o
8 7 -3 0.27 0.78 0.31 o
9 7 -3 0.02 0.17 0.39 o
1 8 -3 0.03 0.50 0.21 o
2 8 -3 0.47 0.32 0.21 o
3 8 -3 1.37 1.88 0.22 o
4 8 -3 4.99 5.16 0.32 o
5 8 -3 1.72 1.70 0.24 o
6 8 -3 0.39 0.63 0.42 o
7 8 -3 0.39 0.25 0.28 o
8 8 -3 0.88 0.64 0.38 o
0 9 -3 1.04 1.69 0.37 o
1 9 -3 0.92 1.68 0.25 o
2 9 -3 2.67 2.50 0.36 o
3 9 -3 1.07 1.16 0.38 o
4 9 -3 0.28 0.78 0.32 o
5 9 -3 1.13 0.59 0.38 o
6 9 -3 0.22 0.17 0.31 o
0 0 -2 567.41 590.01 3.63 o
2 0 -2 470.04 446.08 2.09 o
4 0 -2 2.03 1.68 0.08 o
6 0 -2 54.75 48.94 1.31 o
8 0 -2 39.62 37.94 0.82 o
10 0 -2 24.34 22.89 0.64 o
12 0 -2 2.32 2.34 0.64 o
14 0 -2 2.80 3.23 0.75 o
1 1 -2 85.85 78.19 0.65 o
2 1 -2 96.21 93.01 0.41 o
3 1 -2 43.07 41.19 0.24 o
4 1 -2 86.66 87.18 1.08 o
5 1 -2 12.41 12.24 0.18 o
6 1 -2 10.39 10.73 0.27 o
7 1 -2 0.46 0.81 0.13 o
8 1 -2 73.51 74.59 0.91 o
9 1 -2 1.65 1.69 0.19 o
10 1 -2 13.36 13.48 0.44 o
11 1 -2 4.90 4.80 0.30 o
12 1 -2 2.06 2.63 0.30 o
13 1 -2 2.43 2.62 0.34 o
14 1 -2 0.89 1.35 0.60 o
0 2 -2 33.17 33.60 0.30 o
1 2 -2 119.31 114.96 0.51 o
2 2 -2 158.68 151.56 0.59 o
3 2 -2 74.98 71.80 0.57 o
4 2 -2 48.22 50.40 0.48 o
5 2 -2 4.15 4.01 0.11 o
6 2 -2 12.05 11.19 0.21 o
7 2 -2 1.48 1.63 0.14 o
8 2 -2 3.83 3.72 0.26 o
9 2 -2 2.63 2.46 0.22 o
10 2 -2 3.09 3.17 0.23 o
11 2 -2 6.60 6.84 0.36 o
12 2 -2 1.97 1.87 0.26 o
13 2 -2 4.67 4.93 0.37 o
14 2 -2 1.55 3.83 0.82 o
1 3 -2 50.47 50.45 0.27 o
2 3 -2 50.75 47.61 0.32 o
3 3 -2 42.78 40.75 0.44 o
4 3 -2 15.29 15.58 0.20 o
5 3 -2 0.45 0.94 0.28 o
6 3 -2 19.36 18.85 0.69 o
7 3 -2 9.62 10.21 0.29 o
8 3 -2 1.18 1.65 0.17 o
9 3 -2 0.04 0.13 0.18 o
10 3 -2 1.14 1.07 0.21 o
11 3 -2 6.29 5.80 0.32 o
12 3 -2 1.77 1.91 0.22 o
13 3 -2 4.80 4.25 0.37 o
0 4 -2 52.52 51.70 0.50 o
1 4 -2 4.80 4.80 0.09 o
2 4 -2 7.16 5.83 0.10 o
3 4 -2 14.67 14.01 0.24 o
4 4 -2 23.81 22.03 0.49 o
5 4 -2 9.38 9.17 0.23 o
6 4 -2 3.00 3.67 0.17 o
7 4 -2 12.33 13.34 0.33 o
8 4 -2 2.32 1.95 0.18 o
9 4 -2 4.88 4.57 0.28 o
10 4 -2 5.32 5.19 0.30 o
11 4 -2 0.76 1.11 0.20 o
12 4 -2 1.28 1.22 0.23 o
13 4 -2 0.77 0.63 0.31 o
1 5 -2 20.81 19.98 0.23 o
2 5 -2 10.22 11.28 0.18 o
3 5 -2 8.45 7.58 0.14 o
4 5 -2 16.28 16.46 0.29 o
5 5 -2 13.48 14.87 0.32 o
6 5 -2 3.44 3.99 0.16 o
7 5 -2 33.86 32.31 0.46 o
8 5 -2 17.15 17.99 0.40 o
9 5 -2 5.60 6.07 0.26 o
10 5 -2 1.55 1.42 0.19 o
11 5 -2 0.12 0.30 0.17 o
12 5 -2 0.23 0.58 0.20 o
0 6 -2 6.10 5.03 0.22 o
1 6 -2 6.46 6.00 0.15 o
2 6 -2 64.33 61.68 0.57 o
3 6 -2 12.80 12.66 0.24 o
4 6 -2 31.31 30.68 0.41 o
5 6 -2 3.43 3.68 0.19 o
6 6 -2 3.51 3.97 0.18 o
7 6 -2 8.74 8.19 0.28 o
8 6 -2 2.05 2.43 0.17 o
9 6 -2 4.99 4.37 0.24 o
10 6 -2 3.81 2.86 0.21 o
11 6 -2 0.26 0.64 0.18 o
12 6 -2 1.15 1.58 0.72 o
1 7 -2 6.41 5.78 0.19 o
2 7 -2 9.08 8.12 0.22 o
3 7 -2 5.39 4.78 0.17 o
4 7 -2 33.98 33.96 0.42 o
5 7 -2 2.04 2.12 0.14 o
6 7 -2 18.81 20.17 0.38 o
7 7 -2 1.16 1.35 0.16 o
8 7 -2 11.40 11.80 0.33 o
9 7 -2 0.20 0.31 0.14 o
10 7 -2 0.32 0.25 0.16 o
11 7 -2 0.18 0.92 0.29 o
0 8 -2 1.55 1.92 0.30 o
1 8 -2 0.55 0.45 0.11 o
2 8 -2 31.27 31.91 0.43 o
3 8 -2 0.20 0.35 0.12 o
4 8 -2 14.44 14.89 0.32 o
5 8 -2 4.71 4.70 0.19 o
6 8 -2 2.79 2.91 0.18 o
7 8 -2 3.92 4.50 0.23 o
8 8 -2 1.46 1.88 0.19 o
9 8 -2 0.39 0.85 0.17 o
10 8 -2 0.14 0.50 0.27 o
1 9 -2 0.67 0.13 0.13 o
2 9 -2 1.27 1.26 0.16 o
3 9 -2 3.32 3.71 0.20 o
4 9 -2 4.64 4.63 0.21 o
5 9 -2 6.65 6.94 0.26 o
6 9 -2 1.21 1.15 0.16 o
7 9 -2 2.42 2.43 0.22 o
8 9 -2 1.56 1.93 0.25 o
9 9 -2 1.64 1.47 0.37 o
0 10 -2 6.99 7.15 0.48 o
1 10 -2 1.10 1.21 0.19 o
2 10 -2 1.31 1.18 0.17 o
3 10 -2 1.13 1.30 0.18 o
4 10 -2 0.83 1.07 0.16 o
5 10 -2 1.23 1.57 0.22 o
6 10 -2 0.93 0.98 0.25 o
7 10 -2 3.82 4.99 1.05 o
1 11 -2 0.14 0.62 0.21 o
2 11 -2 1.53 1.38 0.25 o
3 11 -2 1.63 1.72 0.22 o
4 11 -2 1.24 1.99 0.29 o
5 11 -2 0.46 0.25 0.28 o
2 0 -1 2343.19 2379.18 14.69 o
4 0 -1 112.30 106.48 1.00 o
6 0 -1 67.40 71.88 0.96 o
8 0 -1 90.95 86.34 1.04 o
10 0 -1 119.59 120.97 2.24 o
12 0 -1 10.30 10.60 0.55 o
14 0 -1 0.61 1.04 0.36 o
0 1 -1 5638.54 5505.98 40.63 o
1 1 -1 149.07 148.89 0.37 o
2 1 -1 761.29 747.52 2.09 o
3 1 -1 48.52 47.78 0.23 o
4 1 -1 177.56 184.14 1.13 o
5 1 -1 17.35 18.43 0.20 o
6 1 -1 65.08 64.91 0.64 o
7 1 -1 4.36 4.60 0.10 o
8 1 -1 42.29 38.19 0.33 o
9 1 -1 17.44 17.72 0.37 o
10 1 -1 42.99 42.36 0.64 o
11 1 -1 2.59 3.29 0.26 o
12 1 -1 14.06 12.88 0.45 o
13 1 -1 4.71 5.16 0.36 o
14 1 -1 3.27 3.40 0.32 o
15 1 -1 0.20 0.99 0.52 o
1 2 -1 233.65 225.74 0.58 o
2 2 -1 14.25 14.54 0.09 o
3 2 -1 85.23 87.68 0.61 o
4 2 -1 89.79 95.09 0.69 o
5 2 -1 8.99 9.62 0.14 o
6 2 -1 195.80 212.98 2.25 o
7 2 -1 4.13 4.38 0.11 o
8 2 -1 22.44 21.96 0.26 o
9 2 -1 4.79 4.91 0.19 o
10 2 -1 17.73 19.05 0.50 o
11 2 -1 37.90 36.57 0.67 o
12 2 -1 2.97 3.59 0.29 o
13 2 -1 5.22 5.24 0.36 o
14 2 -1 1.85 2.46 0.34 o
15 2 -1 0.04 -0.04 0.52 o
0 3 -1 137.84 138.66 1.89 o
1 3 -1 80.56 79.49 0.41 o
2 3 -1 15.90 15.72 0.12 o
3 3 -1 13.02 12.17 0.17 o
4 3 -1 398.93 427.23 1.89 o
5 3 -1 2.46 3.17 0.13 o
6 3 -1 23.72 25.40 0.50 o
7 3 -1 1.70 1.63 0.11 o
8 3 -1 8.77 8.67 0.23 o
9 3 -1 6.21 5.81 0.25 o
10 3 -1 0.68 0.31 0.13 o
11 3 -1 4.24 4.22 0.25 o
12 3 -1 2.87 3.00 0.25 o
13 3 -1 4.00 4.10 0.33 o
14 3 -1 1.19 1.47 0.51 o
1 4 -1 40.88 47.32 0.36 o
2 4 -1 300.20 297.30 1.21 o
3 4 -1 2.10 2.08 0.11 o
4 4 -1 4.12 3.71 0.11 o
5 4 -1 14.39 14.62 0.24 o
6 4 -1 23.27 27.30 0.30 o
7 4 -1 49.16 47.28 0.45 o
8 4 -1 5.04 5.11 0.20 o
9 4 -1 5.79 5.40 0.24 o
10 4 -1 8.12 7.10 0.28 o
11 4 -1 5.30 4.78 0.25 o
12 4 -1 1.93 2.08 0.23 o
13 4 -1 1.78 1.59 0.25 o
0 5 -1 328.54 332.33 1.57 o
1 5 -1 4.52 3.10 0.09 o
2 5 -1 56.52 57.27 0.38 o
3 5 -1 12.41 12.58 0.19 o
4 5 -1 14.95 12.12 0.18 o
5 5 -1 36.17 35.06 0.35 o
6 5 -1 3.25 3.61 0.15 o
7 5 -1 15.79 15.94 0.36 o
8 5 -1 1.19 0.99 0.13 o
9 5 -1 9.32 8.74 0.27 o
10 5 -1 9.19 7.76 0.27 o
11 5 -1 0.32 0.32 0.15 o
12 5 -1 4.57 4.11 0.26 o
13 5 -1 0.46 0.38 0.35 o
1 6 -1 24.52 23.89 0.25 o
2 6 -1 5.10 4.70 0.11 o
3 6 -1 6.85 6.97 0.16 o
4 6 -1 31.38 30.42 0.34 o
5 6 -1 19.07 17.18 0.30 o
6 6 -1 133.42 135.35 1.04 o
7 6 -1 27.70 26.92 0.39 o
8 6 -1 14.90 13.96 0.30 o
9 6 -1 1.56 1.71 0.15 o
10 6 -1 5.14 5.56 0.27 o
11 6 -1 0.34 0.27 0.16 o
12 6 -1 2.00 1.71 0.22 o
0 7 -1 19.33 21.17 0.39 o
1 7 -1 3.75 3.31 0.13 o
2 7 -1 45.13 44.06 0.39 o
3 7 -1 3.25 3.24 0.13 o
4 7 -1 195.36 193.61 1.44 o
5 7 -1 2.18 2.14 0.15 o
6 7 -1 16.33 16.57 0.31 o
7 7 -1 5.92 5.58 0.21 o
8 7 -1 7.79 8.58 0.28 o
9 7 -1 1.16 1.13 0.17 o
10 7 -1 2.96 2.56 0.22 o
11 7 -1 0.04 0.06 0.17 o
12 7 -1 1.90 2.19 0.84 o
1 8 -1 0.53 0.73 0.11 o
2 8 -1 2.92 3.36 0.15 o
3 8 -1 17.80 17.34 0.28 o
4 8 -1 21.31 20.54 0.34 o
5 8 -1 5.21 5.40 0.19 o
6 8 -1 59.83 61.39 0.67 o
7 8 -1 1.73 1.79 0.18 o
8 8 -1 5.68 5.82 0.26 o
9 8 -1 0.59 0.67 0.17 o
10 8 -1 5.21 6.98 0.33 o
11 8 -1 0.32 0.28 0.36 o
0 9 -1 29.00 27.00 0.59 o
1 9 -1 0.50 0.40 0.12 o
2 9 -1 9.00 7.95 0.24 o
3 9 -1 2.42 1.86 0.15 o
4 9 -1 12.37 12.34 0.29 o
5 9 -1 10.08 10.29 0.28 o
6 9 -1 4.93 4.72 0.21 o
7 9 -1 4.82 5.49 0.25 o
8 9 -1 3.87 4.49 0.24 o
9 9 -1 0.52 1.02 0.22 o
10 9 -1 0.86 1.40 0.64 o
1 10 -1 2.75 2.43 0.16 o
2 10 -1 10.23 10.26 0.30 o
3 10 -1 0.51 0.48 0.13 o
4 10 -1 0.10 0.24 0.13 o
5 10 -1 4.47 4.73 0.23 o
6 10 -1 2.21 3.27 0.20 o
7 10 -1 1.38 1.86 0.19 o
8 10 -1 0.47 0.85 0.26 o
9 10 -1 0.67 0.75 0.52 o
0 11 -1 8.29 6.93 0.37 o
1 11 -1 2.02 2.46 0.18 o
2 11 -1 0.84 1.18 0.15 o
3 11 -1 1.23 0.98 0.15 o
4 11 -1 3.58 4.77 0.23 o
5 11 -1 0.19 0.33 0.18 o
6 11 -1 0.70 0.51 0.31 o
7 11 -1 1.14 1.90 0.53 o
1 12 -1 0.42 0.05 0.27 o
2 12 -1 0.27 0.22 0.29 o
3 12 -1 2.18 2.69 0.39 o
4 12 -1 1.59 2.25 0.54 o
5 12 -1 0.29 0.30 0.49 o
2 0 0 104.00 108.12 1.16 o
4 0 0 285.70 281.73 1.39 o
6 0 0 28.94 46.45 1.57 o
8 0 0 98.21 96.97 0.98 o
10 0 0 84.61 81.98 1.36 o
12 0 0 43.19 40.57 0.83 o
14 0 0 2.12 2.13 0.37 o
2 1 0 2713.91 2899.13 24.51 o
3 1 0 29.72 37.09 0.28 o
4 1 0 2.83 4.28 0.09 o
5 1 0 0.00 0.10 0.03 o
6 1 0 228.77 231.32 1.65 o
7 1 0 19.53 23.47 0.28 o
8 1 0 5.18 5.63 0.17 o
9 1 0 2.44 2.38 0.13 o
10 1 0 137.47 139.44 1.82 o
11 1 0 30.13 29.74 0.50 o
12 1 0 11.97 10.88 0.34 o
13 1 0 0.73 0.72 0.27 o
14 1 0 0.36 0.99 0.30 o
15 1 0 0.03 0.24 0.38 o
0 2 0 1789.03 1808.88 12.39 o
1 2 0 27.27 28.40 0.14 o
2 2 0 14.85 14.19 0.10 o
3 2 0 0.29 0.10 0.04 o
4 2 0 937.81 1016.20 5.40 o
5 2 0 26.01 27.93 0.26 o
6 2 0 68.93 72.40 0.63 o
7 2 0 1.68 1.68 0.09 o
8 2 0 0.06 0.04 0.08 o
9 2 0 48.09 46.94 0.57 o
10 2 0 18.80 17.23 0.35 o
11 2 0 0.05 0.36 0.13 o
12 2 0 3.31 4.08 0.28 o
13 2 0 10.14 9.99 0.43 o
14 2 0 2.16 2.72 0.29 o
15 2 0 0.23 0.38 0.68 o
1 3 0 6.29 10.21 0.09 o
2 3 0 470.90 466.51 2.01 o
3 3 0 8.06 6.96 0.10 o
4 3 0 27.80 28.76 0.22 o
5 3 0 11.80 13.74 0.18 o
6 3 0 328.03 368.53 2.97 o
7 3 0 4.05 4.46 0.15 o
8 3 0 3.46 3.82 0.11 o
9 3 0 12.30 10.68 0.19 o
10 3 0 0.00 0.15 0.12 o
11 3 0 37.70 36.67 0.64 o
12 3 0 0.08 0.31 0.17 o
13 3 0 1.25 1.38 0.23 o
14 3 0 2.83 2.94 0.30 o
15 3 0 1.64 1.95 0.79 o
0 4 0 1249.50 1276.18 5.22 o
1 4 0 5.41 6.94 0.20 o
2 4 0 0.39 0.54 0.04 o
3 4 0 1.70 1.58 0.06 o
4 4 0 132.26 138.27 0.96 o
5 4 0 49.95 55.85 0.59 o
6 4 0 8.93 9.35 0.19 o
7 4 0 0.57 0.57 0.09 o
8 4 0 11.29 10.48 0.24 o
9 4 0 0.03 0.19 0.09 o
10 4 0 3.08 2.56 0.19 o
11 4 0 0.93 0.96 0.16 o
12 4 0 9.59 8.49 0.42 o
13 4 0 0.00 0.35 0.21 o
1 5 0 69.11 77.07 0.53 o
2 5 0 149.71 148.46 0.69 o
3 5 0 0.26 0.06 0.04 o
4 5 0 0.00 0.10 0.06 o
5 5 0 16.58 16.51 0.21 o
6 5 0 46.33 39.63 0.46 o
7 5 0 66.41 66.56 0.65 o
8 5 0 0.88 0.75 0.11 o
9 5 0 4.52 3.83 0.15 o
10 5 0 14.34 13.75 0.35 o
11 5 0 0.03 0.40 0.17 o
12 5 0 4.06 3.27 0.28 o
13 5 0 0.29 0.42 0.20 o
14 5 0 0.04 1.58 0.74 o
0 6 0 205.58 223.95 1.78 o
1 6 0 0.11 0.07 0.06 o
2 6 0 0.89 1.04 0.06 o
3 6 0 0.48 0.43 0.07 o
4 6 0 276.99 262.16 1.82 o
5 6 0 9.03 8.51 0.18 o
6 6 0 14.14 13.32 0.24 o
7 6 0 5.56 5.45 0.18 o
8 6 0 13.16 14.19 0.35 o
9 6 0 7.64 7.22 0.22 o
10 6 0 7.35 6.18 0.27 o
11 6 0 0.12 0.42 0.15 o
12 6 0 4.19 4.55 0.29 o
13 6 0 1.15 1.35 0.48 o
1 7 0 1.40 1.70 0.09 o
2 7 0 11.73 9.34 0.16 o
3 7 0 26.34 26.84 0.28 o
4 7 0 10.37 9.79 0.19 o
5 7 0 19.71 19.07 0.27 o
6 7 0 260.79 261.19 2.23 o
7 7 0 2.21 3.13 0.16 o
8 7 0 1.72 2.00 0.15 o
9 7 0 0.23 0.36 0.11 o
10 7 0 8.23 9.95 0.31 o
11 7 0 0.04 0.03 0.14 o
12 7 0 1.03 0.18 0.49 o
13 7 0 0.13 -0.46 0.63 o
0 8 0 31.29 28.75 0.49 o
1 8 0 4.56 4.38 0.14 o
2 8 0 0.59 0.41 0.09 o
3 8 0 0.12 0.03 0.11 o
4 8 0 157.37 157.72 0.86 o
5 8 0 17.68 17.56 0.28 o
6 8 0 21.78 19.91 0.33 o
7 8 0 3.94 3.48 0.16 o
8 8 0 1.01 1.09 0.13 o
9 8 0 0.04 0.05 0.13 o
10 8 0 2.05 2.04 0.18 o
11 8 0 0.01 0.25 0.26 o
12 8 0 1.09 1.87 0.69 o
1 9 0 2.68 2.24 0.13 o
2 9 0 3.86 3.10 0.15 o
3 9 0 9.63 10.43 0.26 o
4 9 0 2.43 2.36 0.15 o
5 9 0 0.10 0.31 0.11 o
6 9 0 12.85 11.86 0.30 o
7 9 0 4.01 3.72 0.19 o
8 9 0 0.24 0.17 0.14 o
9 9 0 0.00 0.14 0.15 o
10 9 0 9.39 11.22 0.63 o
11 9 0 0.18 0.93 0.52 o
0 10 0 42.23 37.65 0.69 o
1 10 0 1.26 1.01 0.12 o
2 10 0 1.25 1.16 0.12 o
3 10 0 5.88 5.01 0.20 o
4 10 0 0.29 0.81 0.13 o
5 10 0 2.62 3.48 0.19 o
6 10 0 0.52 0.42 0.13 o
7 10 0 0.60 0.64 0.14 o
8 10 0 10.01 10.33 0.51 o
9 10 0 0.01 0.31 0.36 o
10 10 0 1.26 0.90 0.53 o
1 11 0 2.04 1.64 0.15 o
2 11 0 8.28 7.82 0.26 o
3 11 0 1.26 1.63 0.16 o
4 11 0 0.59 0.87 0.15 o
5 11 0 2.87 2.78 0.19 o
6 11 0 8.23 10.69 0.55 o
7 11 0 0.01 -0.42 0.42 o
8 11 0 0.93 1.54 0.42 o
0 12 0 0.01 0.78 0.34 o
1 12 0 0.56 0.21 0.30 o
2 12 0 0.36 0.50 0.36 o
3 12 0 0.09 0.25 0.27 o
4 12 0 2.52 3.83 0.48 o
5 12 0 0.90 0.81 0.51 o
2 0 1 2342.68 2335.37 16.66 o
4 0 1 112.30 107.75 0.69 o
6 0 1 67.44 72.86 1.11 o
8 0 1 91.03 87.44 1.21 o
10 0 1 119.57 116.52 1.71 o
12 0 1 10.30 10.38 0.53 o
14 0 1 0.62 1.05 0.28 o
0 1 1 5637.62 5314.71 58.95 o
1 1 1 149.17 147.27 0.44 o
2 1 1 761.73 737.31 1.42 o
3 1 1 48.60 47.69 0.19 o
4 1 1 177.54 182.41 0.86 o
5 1 1 17.35 18.79 0.16 o
6 1 1 65.15 63.77 0.51 o
7 1 1 4.38 4.49 0.09 o
8 1 1 42.32 37.10 0.38 o
9 1 1 17.43 17.85 0.31 o
10 1 1 42.97 41.54 0.55 o
11 1 1 2.59 2.37 0.19 o
12 1 1 14.06 13.81 0.45 o
13 1 1 4.71 5.06 0.28 o
14 1 1 3.26 4.26 0.27 o
15 1 1 0.20 0.71 0.70 o
1 2 1 233.64 226.00 0.64 o
2 2 1 14.26 14.19 0.11 o
3 2 1 85.27 86.46 0.35 o
4 2 1 89.83 95.08 0.33 o
5 2 1 9.02 10.23 0.12 o
6 2 1 195.76 210.91 1.41 o
7 2 1 4.13 4.16 0.09 o
8 2 1 22.46 22.36 0.21 o
9 2 1 4.79 5.41 0.12 o
10 2 1 17.73 19.32 0.38 o
11 2 1 37.89 37.15 0.54 o
12 2 1 2.98 3.05 0.23 o
13 2 1 5.23 4.95 0.28 o
14 2 1 1.85 2.50 0.25 o
15 2 1 0.04 -0.13 0.38 o
0 3 1 137.78 133.82 0.92 o
1 3 1 80.55 79.87 0.30 o
2 3 1 15.91 16.09 0.13 o
3 3 1 13.03 11.93 0.12 o
4 3 1 398.85 417.15 1.73 o
5 3 1 2.45 3.19 0.07 o
6 3 1 23.70 25.46 0.22 o
7 3 1 1.70 2.17 0.10 o
8 3 1 8.76 9.07 0.20 o
9 3 1 6.21 6.31 0.16 o
10 3 1 0.68 0.40 0.12 o
11 3 1 4.23 4.45 0.22 o
12 3 1 2.87 2.84 0.20 o
13 3 1 4.00 3.60 0.22 o
14 3 1 1.19 1.53 0.30 o
15 3 1 0.13 -0.09 0.54 o
1 4 1 40.83 49.51 0.74 o
2 4 1 300.15 299.85 1.48 o
3 4 1 2.10 2.31 0.07 o
4 4 1 4.11 3.70 0.09 o
5 4 1 14.37 15.25 0.17 o
6 4 1 23.26 27.95 0.30 o
7 4 1 49.16 48.04 0.38 o
8 4 1 5.05 4.75 0.13 o
9 4 1 5.80 5.29 0.15 o
10 4 1 8.12 6.85 0.23 o
11 4 1 5.30 5.02 0.24 o
12 4 1 1.93 1.84 0.19 o
13 4 1 1.79 1.70 0.20 o
14 4 1 0.82 0.14 0.59 o
0 5 1 328.48 332.13 1.75 o
1 5 1 4.52 3.98 0.11 o
2 5 1 56.55 57.44 0.32 o
3 5 1 12.43 11.95 0.17 o
4 5 1 14.94 12.79 0.15 o
5 5 1 36.17 34.78 0.33 o
6 5 1 3.26 3.45 0.11 o
7 5 1 15.80 15.99 0.21 o
8 5 1 1.19 1.01 0.08 o
9 5 1 9.32 8.40 0.20 o
10 5 1 9.19 8.07 0.26 o
11 5 1 0.32 0.41 0.14 o
12 5 1 4.57 4.12 0.24 o
13 5 1 0.46 1.15 0.21 o
14 5 1 0.44 2.05 0.70 o
1 6 1 24.55 23.84 0.21 o
2 6 1 5.12 5.08 0.11 o
3 6 1 6.85 6.81 0.12 o
4 6 1 31.40 29.21 0.35 o
5 6 1 19.06 17.65 0.21 o
6 6 1 133.39 132.54 0.92 o
7 6 1 27.70 26.58 0.32 o
8 6 1 14.91 13.89 0.26 o
9 6 1 1.57 1.64 0.12 o
10 6 1 5.14 5.63 0.23 o
11 6 1 0.34 0.51 0.14 o
12 6 1 2.00 2.20 0.21 o
13 6 1 0.09 0.41 0.67 o
0 7 1 19.34 21.39 0.31 o
1 7 1 3.75 3.50 0.10 o
2 7 1 45.18 42.69 0.46 o
3 7 1 3.25 3.24 0.11 o
4 7 1 195.31 193.32 1.30 o
5 7 1 2.18 2.52 0.12 o
6 7 1 16.33 15.67 0.25 o
7 7 1 5.92 5.23 0.17 o
8 7 1 7.78 8.11 0.35 o
9 7 1 1.16 0.98 0.13 o
10 7 1 2.95 2.08 0.16 o
11 7 1 0.04 0.03 0.16 o
12 7 1 1.90 1.03 0.42 o
1 8 1 0.53 0.82 0.08 o
2 8 1 2.92 3.48 0.12 o
3 8 1 17.80 16.94 0.25 o
4 8 1 21.33 20.31 0.28 o
5 8 1 5.22 5.59 0.16 o
6 8 1 59.81 59.79 0.53 o
7 8 1 1.73 1.71 0.13 o
8 8 1 5.68 5.70 0.20 o
9 8 1 0.59 0.51 0.14 o
10 8 1 5.21 6.21 0.27 o
11 8 1 0.32 0.60 0.28 o
0 9 1 29.00 27.04 0.41 o
1 9 1 0.51 0.42 0.09 o
2 9 1 9.01 8.39 0.20 o
3 9 1 2.43 2.06 0.13 o
4 9 1 12.37 12.12 0.24 o
5 9 1 10.09 10.31 0.23 o
6 9 1 4.93 4.14 0.16 o
7 9 1 4.83 5.24 0.19 o
8 9 1 3.87 4.49 0.18 o
9 9 1 0.52 0.74 0.16 o
10 9 1 0.86 0.89 0.36 o
1 10 1 2.75 2.63 0.15 o
2 10 1 10.23 10.38 0.23 o
3 10 1 0.51 0.87 0.11 o
4 10 1 0.10 0.25 0.11 o
5 10 1 4.46 4.49 0.18 o
6 10 1 2.22 3.09 0.16 o
7 10 1 1.38 1.52 0.14 o
8 10 1 0.48 0.51 0.17 o
9 10 1 0.67 -0.68 0.68 o
0 11 1 8.28 7.16 0.32 o
1 11 1 2.02 2.66 0.16 o
2 11 1 0.84 1.49 0.14 o
3 11 1 1.23 1.05 0.13 o
4 11 1 3.58 4.97 0.20 o
5 11 1 0.19 0.70 0.26 o
6 11 1 0.70 1.03 0.33 o
7 11 1 1.14 0.97 0.25 o
1 12 1 0.42 0.53 0.26 o
2 12 1 0.27 0.19 0.72 o
3 12 1 2.18 4.70 1.13 o
4 12 1 1.59 3.21 0.65 o
0 0 2 566.93 597.96 2.98 o
2 0 2 470.21 450.13 2.70 o
4 0 2 2.03 1.84 0.09 o
6 0 2 54.80 51.62 0.56 o
8 0 2 39.63 37.26 0.72 o
10 0 2 24.33 23.58 0.58 o
12 0 2 2.32 1.92 0.24 o
14 0 2 2.80 2.90 0.37 o
1 1 2 85.88 79.52 0.82 o
2 1 2 96.15 92.62 0.58 o
3 1 2 43.07 41.20 0.21 o
4 1 2 86.67 90.23 0.38 o
5 1 2 12.43 12.69 0.16 o
6 1 2 10.40 11.22 0.18 o
7 1 2 0.46 0.46 0.07 o
8 1 2 73.55 75.43 0.54 o
9 1 2 1.65 2.13 0.13 o
10 1 2 13.35 13.05 0.32 o
11 1 2 4.90 5.03 0.23 o
12 1 2 2.06 2.60 0.20 o
13 1 2 2.43 2.55 0.20 o
14 1 2 0.89 0.92 0.30 o
0 2 2 33.16 33.84 0.28 o
1 2 2 119.30 116.23 0.51 o
2 2 2 158.75 153.39 0.53 o
3 2 2 75.03 71.91 0.40 o
4 2 2 48.19 51.62 0.30 o
5 2 2 4.15 4.42 0.11 o
6 2 2 12.06 11.60 0.17 o
7 2 2 1.48 1.48 0.10 o
8 2 2 3.83 3.53 0.14 o
9 2 2 2.63 2.49 0.12 o
10 2 2 3.08 2.96 0.17 o
11 2 2 6.60 6.91 0.26 o
12 2 2 1.98 1.92 0.19 o
13 2 2 4.67 4.61 0.29 o
14 2 2 1.55 1.74 0.33 o
1 3 2 50.43 51.98 0.45 o
2 3 2 50.71 48.82 0.26 o
3 3 2 42.76 41.97 0.27 o
4 3 2 15.30 16.02 0.17 o
5 3 2 0.45 1.59 0.25 o
6 3 2 19.34 20.95 0.26 o
7 3 2 9.62 9.85 0.20 o
8 3 2 1.18 1.59 0.11 o
9 3 2 0.04 0.01 0.09 o
10 3 2 1.14 0.97 0.13 o
11 3 2 6.29 6.23 0.26 o
12 3 2 1.77 2.12 0.20 o
13 3 2 4.81 4.45 0.29 o
14 3 2 0.89 1.57 0.42 o
0 4 2 52.47 53.34 0.46 o
1 4 2 4.81 5.00 0.11 o
2 4 2 7.15 6.27 0.12 o
3 4 2 14.66 14.67 0.18 o
4 4 2 23.79 23.96 0.24 o
5 4 2 9.38 9.37 0.16 o
6 4 2 3.00 3.51 0.12 o
7 4 2 12.32 13.16 0.22 o
8 4 2 2.32 3.81 0.59 o
9 4 2 4.87 4.72 0.17 o
10 4 2 5.32 4.96 0.21 o
11 4 2 0.76 0.57 0.14 o
12 4 2 1.28 1.17 0.17 o
13 4 2 0.77 0.47 0.22 o
1 5 2 20.82 20.81 0.22 o
2 5 2 10.21 11.44 0.17 o
3 5 2 8.45 8.18 0.16 o
4 5 2 16.28 16.66 0.22 o
5 5 2 13.47 14.88 0.22 o
6 5 2 3.44 4.14 0.14 o
7 5 2 33.85 32.63 0.35 o
8 5 2 17.16 17.38 0.28 o
9 5 2 5.62 5.98 0.21 o
10 5 2 1.55 1.25 0.16 o
11 5 2 0.12 0.03 0.15 o
12 5 2 0.23 0.46 0.20 o
13 5 2 0.24 0.42 0.35 o
0 6 2 6.10 5.33 0.18 o
1 6 2 6.47 6.28 0.14 o
2 6 2 64.36 63.57 0.46 o
3 6 2 12.81 13.17 0.22 o
4 6 2 31.29 31.02 0.34 o
5 6 2 3.43 3.46 0.14 o
6 6 2 3.51 3.68 0.15 o
7 6 2 8.74 8.08 0.21 o
8 6 2 2.05 2.27 0.15 o
9 6 2 4.98 4.34 0.23 o
10 6 2 3.81 3.27 0.21 o
11 6 2 0.26 0.18 0.16 o
12 6 2 1.15 1.15 0.28 o
1 7 2 6.41 5.92 0.16 o
2 7 2 9.07 8.64 0.19 o
3 7 2 5.39 5.11 0.16 o
4 7 2 33.99 34.29 0.38 o
5 7 2 2.03 1.99 0.12 o
6 7 2 18.78 19.95 0.31 o
7 7 2 1.15 1.20 0.12 o
8 7 2 11.40 11.64 0.28 o
9 7 2 0.20 0.34 0.14 o
10 7 2 0.32 -0.02 0.16 o
11 7 2 0.18 0.74 0.28 o
0 8 2 1.55 1.48 0.17 o
1 8 2 0.55 0.52 0.10 o
2 8 2 31.30 31.88 0.37 o
3 8 2 0.20 0.37 0.10 o
4 8 2 14.42 14.57 0.27 o
5 8 2 4.71 4.40 0.17 o
6 8 2 2.79 2.80 0.15 o
7 8 2 3.92 4.66 0.19 o
8 8 2 1.46 1.48 0.14 o
9 8 2 0.39 0.46 0.15 o
10 8 2 0.13 0.27 0.23 o
1 9 2 0.68 0.38 0.10 o
2 9 2 1.27 0.95 0.12 o
3 9 2 3.32 3.55 0.16 o
4 9 2 4.65 4.22 0.17 o
5 9 2 6.65 6.97 0.21 o
6 9 2 1.21 0.92 0.12 o
7 9 2 2.42 2.30 0.16 o
8 9 2 1.57 1.44 0.18 o
9 9 2 1.64 2.60 0.42 o
0 10 2 6.99 7.08 0.33 o
1 10 2 1.10 1.37 0.14 o
2 10 2 1.31 1.06 0.13 o
3 10 2 1.13 0.84 0.13 o
4 10 2 0.83 1.02 0.13 o
5 10 2 1.23 1.00 0.15 o
6 10 2 0.93 0.88 0.17 o
7 10 2 3.81 3.42 0.44 o
8 10 2 2.58 2.07 0.65 o
1 11 2 0.14 0.26 0.20 o
2 11 2 1.52 1.63 0.22 o
3 11 2 1.63 2.68 0.31 o
4 11 2 1.24 1.45 0.40 o
5 11 2 0.46 -0.13 0.40 o
2 0 3 1.79 0.98 0.18 o
4 0 3 19.80 20.81 0.46 o
6 0 3 5.10 5.11 0.29 o
8 0 3 31.53 31.44 0.91 o
10 0 3 1.41 1.19 0.26 o
0 1 3 0.02 0.09 0.12 o
1 1 3 11.32 11.13 0.22 o
2 1 3 53.61 53.98 0.80 o
3 1 3 16.87 15.57 0.28 o
4 1 3 1.50 1.94 0.13 o
5 1 3 1.86 2.32 0.14 o
6 1 3 8.72 8.88 0.25 o
7 1 3 1.03 1.49 0.15 o
8 1 3 6.22 6.39 0.27 o
9 1 3 0.24 0.36 0.17 o
10 1 3 2.97 2.91 0.27 o
11 1 3 0.87 0.74 0.33 o
12 1 3 0.73 0.08 0.45 o
1 2 3 21.17 20.18 0.27 o
2 2 3 1.66 2.05 0.12 o
3 2 3 24.63 22.29 0.32 o
4 2 3 10.46 10.29 0.22 o
5 2 3 9.37 9.82 0.23 o
6 2 3 0.15 0.37 0.10 o
7 2 3 1.38 1.98 0.15 o
8 2 3 5.94 6.16 0.23 o
9 2 3 0.69 0.93 0.19 o
10 2 3 0.04 0.21 0.20 o
11 2 3 0.84 0.79 0.31 o
12 2 3 0.64 1.07 0.48 o
0 3 3 2.21 2.58 0.15 o
1 3 3 9.89 9.64 0.17 o
2 3 3 5.19 4.88 0.16 o
3 3 3 18.53 16.93 0.27 o
4 3 3 3.47 3.55 0.16 o
5 3 3 0.49 0.51 0.10 o
6 3 3 0.17 0.24 0.10 o
7 3 3 0.44 0.63 0.12 o
8 3 3 0.06 0.31 0.12 o
9 3 3 2.27 2.29 0.20 o
10 3 3 0.60 0.97 0.21 o
11 3 3 0.71 0.94 0.38 o
12 3 3 0.78 0.93 0.37 o
1 4 3 3.35 3.68 0.12 o
2 4 3 1.63 1.52 0.10 o
3 4 3 10.63 10.66 0.23 o
4 4 3 0.30 0.49 0.10 o
5 4 3 0.90 0.73 0.11 o
6 4 3 0.53 0.40 0.11 o
7 4 3 9.11 9.53 0.27 o
8 4 3 3.38 4.04 0.19 o
9 4 3 2.79 3.16 0.24 o
10 4 3 0.56 0.43 0.19 o
11 4 3 0.03 0.81 0.68 o
0 5 3 1.59 1.91 0.16 o
1 5 3 6.89 6.93 0.17 o
2 5 3 9.85 9.97 0.20 o
3 5 3 7.26 8.32 0.22 o
4 5 3 0.60 0.74 0.11 o
5 5 3 1.69 1.73 0.13 o
6 5 3 1.15 1.44 0.14 o
7 5 3 5.00 5.55 0.24 o
8 5 3 0.50 0.50 0.14 o
9 5 3 4.19 3.93 0.26 o
10 5 3 2.08 1.48 0.33 o
11 5 3 0.33 0.80 0.71 o
1 6 3 8.13 8.05 0.20 o
2 6 3 3.96 4.07 0.15 o
3 6 3 2.99 2.95 0.16 o
4 6 3 9.52 10.20 0.25 o
5 6 3 1.19 1.39 0.14 o
6 6 3 0.04 0.14 0.12 o
7 6 3 3.51 3.02 0.20 o
8 6 3 5.26 5.49 0.26 o
9 6 3 2.02 2.29 0.32 o
10 6 3 0.10 0.51 0.33 o
0 7 3 3.11 3.40 0.22 o
1 7 3 0.82 0.72 0.11 o
2 7 3 16.89 17.64 0.33 o
3 7 3 0.82 0.78 0.12 o
4 7 3 1.28 1.21 0.13 o
5 7 3 0.20 0.26 0.12 o
6 7 3 0.27 0.39 0.13 o
7 7 3 0.15 0.34 0.13 o
8 7 3 0.27 0.14 0.17 o
9 7 3 0.02 0.25 0.35 o
1 8 3 0.03 0.32 0.12 o
2 8 3 0.47 0.66 0.12 o
3 8 3 1.38 1.75 0.15 o
4 8 3 4.99 4.85 0.21 o
5 8 3 1.72 2.04 0.17 o
6 8 3 0.39 0.52 0.15 o
7 8 3 0.39 0.56 0.21 o
8 8 3 0.89 0.94 0.24 o
0 9 3 1.04 1.50 0.23 o
1 9 3 0.92 1.25 0.15 o
2 9 3 2.67 2.75 0.20 o
3 9 3 1.07 0.95 0.16 o
4 9 3 0.28 0.41 0.19 o
5 9 3 1.13 0.77 0.24 o
6 9 3 0.22 0.22 0.30 o
1 10 3 0.19 0.53 0.53 o
2 10 3 0.58 0.43 0.34 o
3 10 3 1.20 1.45 0.45 o
0 0 4 5.51 5.77 0.56 o
2 0 4 3.19 3.35 0.47 o
4 0 4 0.80 0.98 0.25 o
6 0 4 1.75 2.16 0.38 o
8 0 4 0.96 1.26 0.48 o
1 1 4 0.99 1.32 0.22 o
2 1 4 1.06 1.53 0.23 o
3 1 4 1.64 1.55 0.20 o
4 1 4 0.74 0.63 0.17 o
5 1 4 1.81 2.49 0.22 o
6 1 4 1.73 2.02 0.21 o
7 1 4 0.27 0.59 0.19 o
8 1 4 1.89 2.33 0.34 o
9 1 4 0.09 1.15 0.69 o
0 2 4 1.76 1.90 0.24 o
1 2 4 1.33 1.58 0.18 o
2 2 4 1.58 1.58 0.19 o
3 2 4 5.75 5.52 0.27 o
4 2 4 0.42 0.62 0.15 o
5 2 4 1.05 1.32 0.19 o
6 2 4 0.24 0.54 0.16 o
7 2 4 0.56 1.38 0.20 o
8 2 4 0.11 0.48 0.20 o
9 2 4 0.73 0.75 0.34 o
1 3 4 0.53 0.50 0.14 o
2 3 4 0.06 0.27 0.14 o
3 3 4 3.73 3.33 0.23 o
4 3 4 0.17 0.26 0.14 o
5 3 4 2.43 2.19 0.19 o
6 3 4 0.13 0.58 0.16 o
7 3 4 1.16 1.14 0.20 o
8 3 4 0.08 0.39 0.21 o
9 3 4 0.52 0.55 0.69 o
0 4 4 0.52 1.07 0.23 o
1 4 4 2.49 2.31 0.19 o
2 4 4 0.03 0.16 0.16 o
3 4 4 1.67 1.45 0.19 o
4 4 4 0.02 0.12 0.15 o
5 4 4 0.11 0.08 0.15 o
6 4 4 0.21 0.29 0.16 o
7 4 4 0.29 0.08 0.20 o
8 4 4 0.10 0.19 0.27 o
1 5 4 2.62 2.96 0.21 o
2 5 4 0.79 1.27 0.18 o
3 5 4 1.78 1.59 0.19 o
4 5 4 0.31 0.24 0.16 o
5 5 4 0.05 0.15 0.18 o
6 5 4 0.37 0.26 0.20 o
7 5 4 0.93 0.59 0.24 o
8 5 4 0.72 1.67 0.76 o
0 6 4 2.79 2.77 0.32 o
1 6 4 1.66 1.79 0.20 o
2 6 4 1.43 1.62 0.20 o
3 6 4 0.64 0.85 0.19 o
4 6 4 0.36 0.36 0.19 o
5 6 4 0.00 0.04 0.56 o
1 7 4 0.44 0.23 0.40 o
2 7 4 0.36 0.42 0.42 o
3 7 4 0.02 0.32 0.40 o
4 7 4 0.76 1.14 0.57 o
1 1 5 0.02 0.86 0.67 o
2 1 5 0.00 -0.04 0.52 o
