#------------------------------------------------------------------------------
#$Date: 2019-11-22 19:03:52 +0200 (Fri, 22 Nov 2019) $
#$Revision: 231268 $
#$URL: file:///home/coder/svn-repositories/cod/cif/4/51/63/4516359.cif $
#------------------------------------------------------------------------------
#
# This file is available in the Crystallography Open Database (COD),
# http://www.crystallography.net/
#
# All data on this site have been placed in the public domain by the
# contributors.
#
data_4516359
loop_
_publ_author_name
'Patyk, Ewa'
'Podsiad\/lo, Marcin'
'Katrusiak, Andrzej'
_publ_section_title
;
 CH&#x00B7;&#x00B7;&#x00B7;N Bonds and Dynamics in Isostructural
 Pyrimidine Polymorphs
;
_journal_issue                   8
_journal_name_full               'Crystal Growth &amp; Design'
_journal_page_first              4039
_journal_paper_doi               10.1021/acs.cgd.5b00657
_journal_volume                  15
_journal_year                    2015
_chemical_formula_moiety         'C4 H4 N2'
_chemical_formula_sum            'C4 H4 N2'
_chemical_formula_weight         80.09
_chemical_melting_point          293.15
_chemical_name_common            pyrimidine
_chemical_name_systematic
; 
pyrimidine phase I
;
_space_group_IT_number           33
_space_group_name_Hall           'P 2c -2n'
_space_group_name_H-M_alt        'P n a 21'
_symmetry_cell_setting           orthorhombic
_symmetry_space_group_name_Hall  'P 2c -2n'
_symmetry_space_group_name_H-M   'P n a 21'
_atom_sites_solution_hydrogens   geom
_atom_sites_solution_primary     direct
_atom_sites_solution_secondary   difmap
_audit_creation_method           SHELXL-97
_cell_angle_alpha                90.00
_cell_angle_beta                 90.00
_cell_angle_gamma                90.00
_cell_formula_units_Z            4
_cell_length_a                   11.443(9)
_cell_length_b                   9.437(7)
_cell_length_c                   3.682(2)
_cell_measurement_reflns_used    1567
_cell_measurement_temperature    295(2)
_cell_measurement_theta_max      27.37
_cell_measurement_theta_min      4.17
_cell_volume                     397.6(5)
_computing_cell_refinement       'CrysAlisRED (Oxford Diffraction, 2004)'
_computing_data_collection       'CrysAlisCCD (Oxford Diffraction, 2004)'
_computing_data_reduction
'CrysAlisRED (Oxford Diffraction, 2004); REDSHABS (Katrusiak, A.  2003)'
_computing_molecular_graphics    'SHELXTL (Sheldrick, 1990)'
_computing_publication_material  'SHELXL--97 (Sheldrick, 1997)'
_computing_structure_refinement  'SHELXL--97 (Sheldrick, 1997)'
_computing_structure_solution    'SHELXS--97 (Sheldrick, 1997)'
_diffrn_ambient_environment      'diamond-anvil cell'
_diffrn_ambient_pressure         730000
_diffrn_ambient_temperature      295(2)
_diffrn_measured_fraction_theta_full 0.340
_diffrn_measured_fraction_theta_max 0.340
_diffrn_measurement_device_type  'KM-4 CCD'
_diffrn_measurement_method       '\f- and \w-scans'
_diffrn_radiation_monochromator  graphite
_diffrn_radiation_source         'fine-focus sealed tube'
_diffrn_radiation_type           MoK\a
_diffrn_radiation_wavelength     0.71073
_diffrn_reflns_av_R_equivalents  0.0479
_diffrn_reflns_av_sigmaI/netI    0.0281
_diffrn_reflns_limit_h_max       10
_diffrn_reflns_limit_h_min       -10
_diffrn_reflns_limit_k_max       8
_diffrn_reflns_limit_k_min       -9
_diffrn_reflns_limit_l_max       4
_diffrn_reflns_limit_l_min       -4
_diffrn_reflns_number            1567
_diffrn_reflns_theta_full        27.37
_diffrn_reflns_theta_max         27.37
_diffrn_reflns_theta_min         4.17
_diffrn_standards_decay_%        0
_diffrn_standards_interval_count 0
_diffrn_standards_number         0
_exptl_absorpt_coefficient_mu    0.088
_exptl_absorpt_correction_T_max  0.91
_exptl_absorpt_correction_T_min  0.53
_exptl_absorpt_correction_type   analytical
_exptl_absorpt_process_details
; 
 Correction for absorption of the diamond-anvil cell and the sample 
 were made using program REDSHABS (Katrusiak, A. (2003) REDSHABS. Adam
 Mickiewicz University Pozna\'n; Katrusiak, A. (2004) Z. Kristallogr.
 219, 461-467).
;
_exptl_crystal_colour            colourless
_exptl_crystal_density_diffrn    1.338
_exptl_crystal_density_method    'not measured'
_exptl_crystal_description       cylinder
_exptl_crystal_F_000             168
_exptl_crystal_size_max          0.37
_exptl_crystal_size_mid          0.27
_exptl_crystal_size_min          0.25
_refine_diff_density_max         0.072
_refine_diff_density_min         -0.071
_refine_diff_density_rms         0.019
_refine_ls_abs_structure_details 'Flack H D (1983), Acta Cryst. A39, 876-881'
_refine_ls_abs_structure_Flack   -7(10)
_refine_ls_extinction_coef       0.15(3)
_refine_ls_extinction_expression Fc^*^=kFc[1+0.001xFc^2^\l^3^/sin(2\q)]^-1/4^
_refine_ls_extinction_method     SHELXL
_refine_ls_goodness_of_fit_ref   1.127
_refine_ls_hydrogen_treatment    constr
_refine_ls_matrix_type           full
_refine_ls_number_parameters     56
_refine_ls_number_reflns         318
_refine_ls_number_restraints     1
_refine_ls_restrained_S_all      1.125
_refine_ls_R_factor_all          0.0629
_refine_ls_R_factor_gt           0.0393
_refine_ls_shift/su_max          0.000
_refine_ls_shift/su_mean         0.000
_refine_ls_structure_factor_coef Fsqd
_refine_ls_weighting_details
'calc w=1/[\s^2^(Fo^2^)+(0.0436P)^2^+0.0633P] where P=(Fo^2^+2Fc^2^)/3'
_refine_ls_weighting_scheme      calc
_refine_ls_wR_factor_gt          0.0982
_refine_ls_wR_factor_ref         0.1108
_reflns_number_gt                209
_reflns_number_total             318
_reflns_threshold_expression     >2sigma(I)
_cod_data_source_file            cg5b00657_si_002.cif
_cod_data_source_block           phaseI_0.73GPa
_cod_database_code               4516359
loop_
_symmetry_equiv_pos_as_xyz
'x, y, z'
'-x, -y, z+1/2'
'x+1/2, -y+1/2, z'
'-x+1/2, y+1/2, z+1/2'
loop_
_atom_site_label
_atom_site_type_symbol
_atom_site_fract_x
_atom_site_fract_y
_atom_site_fract_z
_atom_site_U_iso_or_equiv
_atom_site_adp_type
_atom_site_occupancy
_atom_site_symmetry_multiplicity
_atom_site_calc_flag
_atom_site_refinement_flags
N1 N 0.1253(7) 0.4019(8) 0.022(2) 0.074(3) Uani 1 1 d .
N3 N 0.0125(9) 0.1870(7) 0.0180(15) 0.0769(19) Uani 1 1 d .
C2 C 0.0311(10) 0.3240(10) 0.080(2) 0.074(3) Uani 1 1 d .
H2 H -0.0319 0.3726 0.1810 0.089 Uiso 1 1 calc R
C4 C 0.1070(10) 0.1152(11) -0.101(2) 0.075(3) Uani 1 1 d .
H4 H 0.1028 0.0177 -0.1344 0.090 Uiso 1 1 calc R
C5 C 0.2052(8) 0.1829(10) -0.1683(14) 0.072(2) Uani 1 1 d .
H5 H 0.2691 0.1341 -0.2618 0.086 Uiso 1 1 calc R
C6 C 0.2132(11) 0.3235(12) -0.1019(19) 0.082(3) Uani 1 1 d .
H6 H 0.2844 0.3680 -0.1453 0.098 Uiso 1 1 calc R
loop_
_atom_site_aniso_label
_atom_site_aniso_U_11
_atom_site_aniso_U_22
_atom_site_aniso_U_33
_atom_site_aniso_U_23
_atom_site_aniso_U_13
_atom_site_aniso_U_12
N1 0.067(11) 0.071(7) 0.086(4) -0.009(4) -0.010(5) -0.001(3)
N3 0.098(10) 0.051(8) 0.082(4) -0.008(4) -0.006(4) -0.005(3)
C2 0.077(10) 0.073(10) 0.072(6) 0.001(4) 0.002(4) 0.000(4)
C4 0.077(14) 0.069(11) 0.080(5) 0.009(4) -0.011(4) 0.006(4)
C5 0.069(10) 0.075(9) 0.072(4) -0.001(4) -0.003(5) -0.010(3)
C6 0.064(13) 0.090(12) 0.092(6) 0.008(5) 0.000(5) -0.002(4)
loop_
_atom_type_symbol
_atom_type_description
_atom_type_scat_dispersion_real
_atom_type_scat_dispersion_imag
_atom_type_scat_source
C C 0.0033 0.0016 'International Tables Vol C Tables 4.2.6.8 and 6.1.1.4'
H H 0.0000 0.0000 'International Tables Vol C Tables 4.2.6.8 and 6.1.1.4'
N N 0.0061 0.0033 'International Tables Vol C Tables 4.2.6.8 and 6.1.1.4'
loop_
_geom_angle_atom_site_label_1
_geom_angle_atom_site_label_2
_geom_angle_atom_site_label_3
_geom_angle
C2 N1 C6 111.4(13)
C2 N3 C4 114.6(10)
N1 C2 N3 129.9(11)
C5 C4 N3 120.2(11)
C4 C5 C6 120.0(11)
N1 C6 C5 123.8(14)
loop_
_geom_bond_atom_site_label_1
_geom_bond_atom_site_label_2
_geom_bond_distance
N1 C2 1.323(11)
N1 C6 1.329(12)
N3 C2 1.330(9)
N3 C4 1.349(14)
C4 C5 1.317(14)
C5 C6 1.352(12)
loop_
_refln_index_h
_refln_index_k
_refln_index_l
_refln_F_squared_calc
_refln_F_squared_meas
_refln_F_squared_sigma
_refln_observed_status
0 0 -4 4.95 3.72 1.24 o
2 0 -4 2.06 1.92 1.03 o
1 1 -4 0.61 0.89 0.41 o
2 1 -4 0.74 0.72 0.46 o
3 1 -4 1.61 0.96 0.64 o
4 1 -4 0.30 0.52 0.87 o
0 2 -4 1.71 1.86 0.89 o
1 2 -4 0.61 1.59 1.01 o
2 2 -4 1.19 0.85 1.02 o
3 2 -4 4.06 2.92 0.98 o
4 2 -4 0.65 1.26 1.00 o
1 3 -4 1.01 0.22 0.35 o
2 3 -4 0.06 0.81 0.87 o
3 3 -4 2.35 1.42 1.19 o
4 3 -4 0.22 0.59 0.65 o
5 3 -4 2.21 2.96 1.22 o
2 4 -4 0.07 1.31 1.73 o
3 4 -4 1.28 1.13 0.82 o
4 4 -4 0.05 2.21 1.90 o
4 5 -4 0.06 0.33 0.55 o
2 0 -3 1.38 0.79 0.40 o
0 1 -3 0.86 0.69 0.37 o
1 1 -3 8.61 7.90 0.52 o
2 1 -3 45.74 50.76 2.13 o
3 1 -3 15.35 17.54 1.07 o
4 1 -3 3.81 3.13 0.81 o
1 2 -3 13.27 13.73 1.26 o
2 2 -3 1.85 1.95 0.49 o
3 2 -3 22.78 20.43 1.09 o
4 2 -3 8.36 7.65 1.11 o
5 2 -3 11.28 9.56 2.29 o
0 3 -3 2.91 1.18 0.60 o
1 3 -3 3.61 6.14 0.75 o
2 3 -3 4.93 3.16 0.73 o
3 3 -3 14.79 19.35 0.91 o
4 3 -3 2.95 1.67 0.61 o
5 3 -3 0.94 0.56 0.54 o
6 3 -3 0.11 0.41 0.57 o
1 4 -3 8.39 10.16 0.79 o
2 4 -3 1.57 1.58 0.82 o
3 4 -3 6.83 9.98 1.91 o
4 4 -3 0.08 0.60 0.68 o
5 4 -3 0.68 0.63 0.43 o
6 4 -3 0.52 1.17 0.61 o
7 4 -3 4.69 3.38 1.32 o
3 5 -3 5.47 3.71 1.29 o
4 5 -3 1.34 1.20 1.07 o
5 5 -3 1.13 1.16 0.93 o
6 5 -3 0.87 0.32 0.70 o
7 5 -3 3.74 5.33 1.44 o
8 5 -3 0.07 0.36 1.18 o
4 6 -3 4.69 1.83 1.18 o
5 6 -3 0.95 0.99 1.03 o
6 6 -3 0.17 0.76 0.87 o
7 6 -3 1.27 0.94 1.02 o
8 6 -3 1.54 1.80 1.17 o
6 7 -3 0.30 0.78 1.96 o
7 7 -3 0.08 0.99 2.40 o
0 0 -2 451.15 495.09 20.69 o
2 0 -2 453.69 463.69 2.79 o
1 1 -2 66.64 66.29 1.00 o
2 1 -2 79.33 73.40 2.38 o
3 1 -2 45.06 49.19 0.54 o
4 1 -2 89.21 80.96 4.50 o
0 2 -2 15.08 14.92 0.48 o
1 2 -2 86.22 92.60 1.17 o
2 2 -2 148.27 155.42 1.73 o
3 2 -2 68.83 70.14 1.85 o
4 2 -2 35.57 37.17 1.74 o
5 2 -2 4.19 1.13 0.78 o
1 3 -2 38.49 37.67 2.13 o
2 3 -2 47.78 51.52 1.57 o
3 3 -2 36.45 38.61 1.07 o
4 3 -2 11.22 11.39 0.46 o
5 3 -2 0.59 0.72 0.28 o
6 3 -2 15.76 14.63 1.03 o
1 4 -2 0.77 0.56 0.35 o
2 4 -2 7.02 6.09 0.63 o
3 4 -2 16.64 14.58 0.61 o
4 4 -2 17.86 20.28 0.82 o
5 4 -2 6.72 8.96 0.59 o
6 4 -2 2.79 2.76 0.80 o
7 4 -2 11.45 12.15 2.00 o
3 5 -2 5.27 4.97 0.86 o
4 5 -2 11.51 16.49 1.41 o
5 5 -2 11.11 13.40 0.90 o
6 5 -2 1.29 2.08 0.59 o
7 5 -2 15.68 15.08 1.30 o
8 5 -2 7.14 6.25 1.16 o
4 6 -2 19.66 17.80 1.24 o
5 6 -2 1.54 1.48 0.59 o
6 6 -2 2.92 4.46 0.75 o
7 6 -2 5.90 6.38 0.99 o
8 6 -2 0.96 1.27 1.11 o
9 6 -2 1.33 0.21 0.66 o
5 7 -2 2.81 0.68 1.26 o
6 7 -2 7.45 6.89 0.60 o
7 7 -2 0.13 0.89 0.82 o
8 7 -2 4.88 4.19 1.10 o
9 7 -2 0.08 2.14 1.93 o
7 8 -2 1.17 1.25 2.38 o
8 8 -2 1.39 0.95 0.68 o
2 0 -1 2251.80 2284.85 4.58 o
1 1 -1 136.51 126.45 1.66 o
2 1 -1 825.47 815.10 4.57 o
3 1 -1 46.44 44.59 1.24 o
1 2 -1 194.78 198.46 3.37 o
2 2 -1 7.26 6.81 0.18 o
3 2 -1 76.63 76.94 0.79 o
4 2 -1 88.28 91.73 1.01 o
5 2 -1 8.40 6.17 0.44 o
1 3 -1 52.81 49.75 0.60 o
2 3 -1 13.04 14.71 0.31 o
3 3 -1 10.22 10.03 0.32 o
4 3 -1 315.43 300.82 1.93 o
5 3 -1 4.39 3.42 0.29 o
6 3 -1 20.62 15.47 2.07 o
2 4 -1 197.92 198.94 3.09 o
3 4 -1 1.18 0.91 0.19 o
4 4 -1 2.89 3.13 0.27 o
5 4 -1 13.50 10.88 0.43 o
6 4 -1 17.99 20.84 0.65 o
7 4 -1 29.16 31.50 1.50 o
3 5 -1 8.63 7.07 1.63 o
4 5 -1 24.85 24.39 0.60 o
5 5 -1 19.94 17.44 0.66 o
6 5 -1 3.51 2.72 0.45 o
7 5 -1 13.39 12.73 0.67 o
8 5 -1 0.36 0.64 0.66 o
4 6 -1 22.01 22.92 0.50 o
5 6 -1 16.59 18.76 0.88 o
6 6 -1 77.49 74.37 1.31 o
7 6 -1 6.88 9.36 0.92 o
8 6 -1 6.84 9.52 0.90 o
9 6 -1 1.11 0.05 0.44 o
6 7 -1 11.54 12.37 1.07 o
7 7 -1 3.44 4.79 0.86 o
8 7 -1 4.20 5.92 0.96 o
9 7 -1 0.31 0.44 0.55 o
7 8 -1 1.52 0.38 0.92 o
8 8 -1 2.71 2.49 0.99 o
9 8 -1 0.25 0.55 0.50 o
10 8 -1 0.76 1.26 1.25 o
2 1 0 2550.26 2512.45 4.59 o
1 2 0 24.25 24.22 2.97 o
2 2 0 12.43 11.42 0.28 o
3 2 0 0.07 0.13 0.07 o
4 2 0 801.93 797.91 5.65 o
2 3 0 413.13 412.04 2.04 o
3 3 0 4.35 4.50 0.18 o
4 3 0 30.24 29.30 0.68 o
5 3 0 6.83 7.46 0.36 o
6 3 0 275.52 251.68 2.21 o
3 4 0 1.12 1.27 0.19 o
4 4 0 57.88 50.36 1.01 o
5 4 0 38.55 39.93 0.57 o
6 4 0 7.25 7.43 0.47 o
7 4 0 1.02 0.65 0.28 o
3 5 0 0.28 0.24 0.12 o
4 5 0 0.17 0.18 0.15 o
5 5 0 14.46 13.18 0.48 o
6 5 0 34.71 34.34 0.79 o
7 5 0 25.66 24.46 0.97 o
8 5 0 0.83 0.54 0.29 o
5 6 0 2.84 2.53 0.47 o
6 6 0 12.77 13.21 0.67 o
7 6 0 3.94 3.77 0.58 o
8 6 0 6.24 7.98 0.79 o
6 7 0 131.50 155.83 28.53 o
7 7 0 0.07 0.51 0.40 o
8 7 0 0.90 1.09 0.60 o
9 7 0 0.27 0.58 0.52 o
8 8 0 0.77 0.39 0.33 o
9 8 0 0.76 1.16 0.57 o
10 8 0 0.81 0.72 0.63 o
10 9 0 1.31 0.85 0.94 o
2 0 1 2251.33 2287.20 8.40 o
1 1 1 136.60 130.15 3.30 o
2 1 1 825.92 819.19 2.84 o
3 1 1 46.51 48.24 0.69 o
1 2 1 194.76 203.50 6.38 o
2 2 1 7.26 7.51 0.27 o
3 2 1 76.66 79.91 1.65 o
4 2 1 88.31 87.04 1.23 o
5 2 1 8.43 10.01 0.83 o
1 3 1 52.80 48.51 0.87 o
2 3 1 13.05 14.40 0.36 o
3 3 1 10.22 10.44 0.31 o
4 3 1 315.36 303.31 2.13 o
5 3 1 4.39 4.26 0.42 o
6 3 1 20.61 25.08 1.31 o
2 4 1 197.90 196.74 2.69 o
3 4 1 1.17 1.04 0.20 o
4 4 1 2.89 2.87 0.32 o
5 4 1 13.48 11.83 0.46 o
6 4 1 17.98 21.28 0.72 o
7 4 1 29.17 29.76 1.79 o
3 5 1 8.65 9.30 0.63 o
4 5 1 24.84 24.66 0.42 o
5 5 1 19.94 18.01 0.67 o
6 5 1 3.51 3.95 0.49 o
7 5 1 13.39 15.36 0.79 o
8 5 1 0.36 0.39 0.51 o
4 6 1 22.02 21.65 0.76 o
5 6 1 16.58 15.83 1.53 o
6 6 1 77.47 76.79 1.50 o
7 6 1 6.89 10.12 0.92 o
8 6 1 6.84 9.16 1.00 o
9 6 1 1.11 0.75 1.26 o
6 7 1 11.54 10.37 4.06 o
7 7 1 3.44 2.24 0.89 o
8 7 1 4.19 4.76 0.77 o
9 7 1 0.31 0.67 0.40 o
7 8 1 1.52 1.25 0.72 o
8 8 1 2.72 2.35 2.31 o
9 8 1 0.25 0.61 0.68 o
10 8 1 0.76 2.52 1.75 o
0 0 2 450.73 482.15 14.27 o
2 0 2 453.85 455.85 2.39 o
1 1 2 66.67 67.65 0.87 o
2 1 2 79.28 74.44 2.23 o
3 1 2 45.06 49.72 0.61 o
4 1 2 89.22 89.68 11.87 o
0 2 2 15.08 14.41 1.11 o
1 2 2 86.21 93.04 2.19 o
2 2 2 148.33 156.21 2.50 o
3 2 2 68.87 68.43 4.29 o
4 2 2 35.54 32.39 6.19 o
5 2 2 4.20 2.65 1.28 o
1 3 2 38.44 37.64 2.70 o
2 3 2 47.75 48.80 3.70 o
3 3 2 36.42 38.91 1.16 o
4 3 2 11.23 9.87 0.89 o
5 3 2 0.60 0.60 0.32 o
6 3 2 15.74 16.85 2.14 o
1 4 2 0.77 0.92 0.64 o
2 4 2 7.01 8.57 0.81 o
3 4 2 16.64 14.11 1.72 o
4 4 2 17.85 17.84 1.70 o
5 4 2 6.72 8.62 0.57 o
6 4 2 2.79 1.95 0.67 o
7 4 2 11.45 13.48 1.70 o
3 5 2 5.26 3.74 1.01 o
4 5 2 11.51 12.96 2.45 o
5 5 2 11.11 12.83 1.27 o
6 5 2 1.29 2.36 0.61 o
7 5 2 15.68 15.00 1.16 o
8 5 2 7.14 5.27 1.96 o
4 6 2 19.65 16.69 1.90 o
5 6 2 1.54 1.73 0.67 o
6 6 2 2.92 3.48 1.12 o
7 6 2 5.90 7.67 1.07 o
8 6 2 0.96 1.34 0.90 o
9 6 2 1.33 2.96 2.10 o
6 7 2 7.44 7.79 1.33 o
7 7 2 0.13 0.39 0.35 o
8 7 2 4.88 3.91 0.86 o
9 7 2 0.08 0.27 0.46 o
8 8 2 1.39 2.00 1.01 o
2 0 3 1.37 1.26 0.61 o
0 1 3 0.87 0.92 0.47 o
1 1 3 8.61 8.76 0.69 o
2 1 3 45.75 47.14 3.95 o
3 1 3 15.35 17.11 1.09 o
4 1 3 3.81 3.82 1.30 o
1 2 3 13.27 12.99 1.54 o
2 2 3 1.85 2.01 0.43 o
3 2 3 22.76 21.05 1.90 o
4 2 3 8.36 8.23 1.17 o
5 2 3 11.29 10.46 1.19 o
0 3 3 2.90 1.58 1.09 o
1 3 3 3.61 5.80 1.29 o
2 3 3 4.93 3.76 0.77 o
3 3 3 14.79 13.97 1.61 o
4 3 3 2.94 2.15 0.68 o
5 3 3 0.94 0.99 0.86 o
6 3 3 0.10 0.38 0.61 o
1 4 3 8.38 9.87 0.79 o
2 4 3 1.56 1.41 0.89 o
3 4 3 6.82 9.75 2.48 o
4 4 3 0.08 1.07 0.56 o
5 4 3 0.68 0.52 0.43 o
6 4 3 0.52 0.79 0.63 o
7 4 3 4.69 3.70 2.61 o
3 5 3 5.47 5.62 2.10 o
4 5 3 1.34 1.19 1.12 o
5 5 3 1.13 1.09 0.60 o
6 5 3 0.88 0.79 0.58 o
7 5 3 3.74 2.69 1.25 o
8 5 3 0.07 1.38 1.81 o
4 6 3 4.69 3.31 1.57 o
5 6 3 0.95 0.49 1.95 o
6 6 3 0.17 0.74 1.30 o
7 6 3 1.27 0.71 0.77 o
8 6 3 1.55 1.72 1.18 o
6 7 3 0.30 0.94 1.89 o
7 7 3 0.08 0.88 1.87 o
0 0 4 4.97 1.89 0.73 o
2 0 4 2.06 1.87 0.82 o
1 1 4 0.61 0.57 0.34 o
2 1 4 0.75 0.54 0.50 o
3 1 4 1.61 2.20 1.00 o
4 1 4 0.30 0.63 0.93 o
0 2 4 1.71 2.53 1.06 o
1 2 4 0.61 0.85 0.91 o
2 2 4 1.19 1.90 1.17 o
3 2 4 4.06 1.47 0.69 o
4 2 4 0.65 1.28 1.33 o
1 3 4 1.00 0.92 1.07 o
2 3 4 0.06 0.26 0.85 o
3 3 4 2.35 1.60 1.60 o
4 3 4 0.22 0.55 0.64 o
5 3 4 2.21 0.75 0.78 o
2 4 4 0.07 1.26 1.33 o
3 4 4 1.28 4.24 2.57 o
4 4 4 0.05 1.38 1.83 o
6 4 4 0.11 0.12 0.55 o
4 5 4 0.06 0.71 2.18 o
