#------------------------------------------------------------------------------
#$Date: 2019-11-22 19:03:52 +0200 (Fri, 22 Nov 2019) $
#$Revision: 231268 $
#$URL: file:///home/coder/svn-repositories/cod/cif/4/51/63/4516351.cif $
#------------------------------------------------------------------------------
#
# This file is available in the Crystallography Open Database (COD),
# http://www.crystallography.net/
#
# All data on this site have been placed in the public domain by the
# contributors.
#
data_4516351
loop_
_publ_author_name
'Patyk, Ewa'
'Podsiad\/lo, Marcin'
'Katrusiak, Andrzej'
_publ_section_title
;
 CH&#x00B7;&#x00B7;&#x00B7;N Bonds and Dynamics in Isostructural
 Pyrimidine Polymorphs
;
_journal_issue                   8
_journal_name_full               'Crystal Growth &amp; Design'
_journal_page_first              4039
_journal_paper_doi               10.1021/acs.cgd.5b00657
_journal_volume                  15
_journal_year                    2015
_chemical_formula_moiety         'C4 H4 N2'
_chemical_formula_sum            'C4 H4 N2'
_chemical_formula_weight         80.09
_chemical_melting_point          293.15
_chemical_name_common            pyrimidine
_chemical_name_systematic
; 
pyrimidine phase II
;
_space_group_IT_number           33
_space_group_name_Hall           'P 2c -2n'
_space_group_name_H-M_alt        'P n a 21'
_symmetry_cell_setting           orthorhombic
_symmetry_space_group_name_Hall  'P 2c -2n'
_symmetry_space_group_name_H-M   'P n a 21'
_atom_sites_solution_hydrogens   geom
_atom_sites_solution_primary     direct
_atom_sites_solution_secondary   difmap
_audit_creation_method           SHELXL-97
_cell_angle_alpha                90.00
_cell_angle_beta                 90.00
_cell_angle_gamma                90.00
_cell_formula_units_Z            4
_cell_length_a                   11.6379(5)
_cell_length_b                   9.4709(3)
_cell_length_c                   3.75290(18)
_cell_measurement_reflns_used    14983
_cell_measurement_temperature    200.0(1)
_cell_measurement_theta_max      28.77
_cell_measurement_theta_min      3.50
_cell_volume                     413.65(3)
_computing_cell_refinement       'CrysAlisRED (Oxford Diffraction, 2004)'
_computing_data_collection       'CrysAlisCCD (Oxford Diffraction, 2004)'
_computing_data_reduction        'CrysAlisRED (Oxford Diffraction, 2004)'
_computing_molecular_graphics    'SHELXTL (Sheldrick, 1990)'
_computing_publication_material  'SHELXL--97 (Sheldrick, 1997)'
_computing_structure_refinement  'SHELXL--97 (Sheldrick, 1997)'
_computing_structure_solution    'SHELXS--97 (Sheldrick, 1997)'
_diffrn_ambient_pressure         100
_diffrn_ambient_temperature      200.0(1)
_diffrn_measured_fraction_theta_full 0.990
_diffrn_measured_fraction_theta_max 0.990
_diffrn_measurement_device_type  'KM-4 CCD'
_diffrn_measurement_method       \w-scans
_diffrn_radiation_monochromator  graphite
_diffrn_radiation_source         'fine-focus sealed tube'
_diffrn_radiation_type           MoK\a
_diffrn_radiation_wavelength     0.71073
_diffrn_reflns_av_R_equivalents  0.0336
_diffrn_reflns_av_sigmaI/netI    0.0109
_diffrn_reflns_limit_h_max       15
_diffrn_reflns_limit_h_min       -14
_diffrn_reflns_limit_k_max       12
_diffrn_reflns_limit_k_min       -12
_diffrn_reflns_limit_l_max       4
_diffrn_reflns_limit_l_min       -5
_diffrn_reflns_number            14983
_diffrn_reflns_theta_full        28.77
_diffrn_reflns_theta_max         28.77
_diffrn_reflns_theta_min         3.50
_diffrn_standards_decay_%        0
_diffrn_standards_interval_count 0
_diffrn_standards_number         0
_exptl_absorpt_coefficient_mu    0.085
_exptl_absorpt_correction_T_max  0.983
_exptl_absorpt_correction_T_min  0.983
_exptl_absorpt_correction_type   numerical
_exptl_absorpt_process_details
; 
 Correction for absorption was made using XEMP (SHELXTL, 
 Sheldrick (1990)).
;
_exptl_crystal_colour            colourless
_exptl_crystal_density_diffrn    1.286
_exptl_crystal_density_method    'not measured'
_exptl_crystal_description       irregular
_exptl_crystal_F_000             168
_exptl_crystal_size_max          0.20
_exptl_crystal_size_mid          0.20
_exptl_crystal_size_min          0.20
_refine_diff_density_max         0.157
_refine_diff_density_min         -0.126
_refine_diff_density_rms         0.026
_refine_ls_abs_structure_details 'Flack H D (1983), Acta Cryst. A39, 876-881'
_refine_ls_abs_structure_Flack   1(3)
_refine_ls_extinction_coef       0.053(8)
_refine_ls_extinction_expression Fc^*^=kFc[1+0.001xFc^2^\l^3^/sin(2\q)]^-1/4^
_refine_ls_extinction_method     SHELXL
_refine_ls_goodness_of_fit_ref   1.107
_refine_ls_hydrogen_treatment    constr
_refine_ls_matrix_type           full
_refine_ls_number_parameters     56
_refine_ls_number_reflns         1038
_refine_ls_number_restraints     1
_refine_ls_restrained_S_all      1.107
_refine_ls_R_factor_all          0.0329
_refine_ls_R_factor_gt           0.0312
_refine_ls_shift/su_max          0.000
_refine_ls_shift/su_mean         0.000
_refine_ls_structure_factor_coef Fsqd
_refine_ls_weighting_details
'calc w=1/[\s^2^(Fo^2^)+(0.0419P)^2^+0.0500P] where P=(Fo^2^+2Fc^2^)/3'
_refine_ls_weighting_scheme      calc
_refine_ls_wR_factor_gt          0.0872
_refine_ls_wR_factor_ref         0.0880
_reflns_number_gt                990
_reflns_number_total             1038
_reflns_threshold_expression     >2sigma(I)
_cod_data_source_file            cg5b00657_si_002.cif
_cod_data_source_block           phaseII_200K
_cod_database_code               4516351
loop_
_symmetry_equiv_pos_as_xyz
'x, y, z'
'-x, -y, z+1/2'
'x+1/2, -y+1/2, z'
'-x+1/2, y+1/2, z+1/2'
loop_
_atom_site_label
_atom_site_type_symbol
_atom_site_fract_x
_atom_site_fract_y
_atom_site_fract_z
_atom_site_U_iso_or_equiv
_atom_site_adp_type
_atom_site_occupancy
_atom_site_symmetry_multiplicity
_atom_site_calc_flag
_atom_site_refinement_flags
N1 N 0.12703(8) 0.39791(9) 0.0263(4) 0.0419(3) Uani 1 1 d .
N3 N 0.01146(9) 0.19049(10) 0.0173(4) 0.0442(3) Uani 1 1 d .
C2 C 0.02981(10) 0.32692(11) 0.0763(4) 0.0391(3) Uani 1 1 d .
H2 H -0.0323 0.3785 0.1621 0.047 Uiso 1 1 calc R
C4 C 0.10195(11) 0.11852(12) -0.1060(5) 0.0430(3) Uani 1 1 d .
H4 H 0.0932 0.0227 -0.1531 0.052 Uiso 1 1 calc R
C5 C 0.20698(11) 0.17956(13) -0.1663(4) 0.0403(3) Uani 1 1 d .
H5 H 0.2694 0.1278 -0.2494 0.048 Uiso 1 1 calc R
C6 C 0.21476(11) 0.32212(12) -0.0965(4) 0.0423(4) Uani 1 1 d .
H6 H 0.2845 0.3674 -0.1370 0.051 Uiso 1 1 calc R
loop_
_atom_site_aniso_label
_atom_site_aniso_U_11
_atom_site_aniso_U_22
_atom_site_aniso_U_33
_atom_site_aniso_U_23
_atom_site_aniso_U_13
_atom_site_aniso_U_12
N1 0.0404(5) 0.0296(4) 0.0556(8) -0.0041(5) -0.0047(6) -0.0008(4)
N3 0.0350(5) 0.0359(5) 0.0618(9) -0.0013(6) -0.0012(6) -0.0038(4)
C2 0.0339(6) 0.0353(5) 0.0479(8) -0.0043(6) -0.0007(6) 0.0062(4)
C4 0.0466(6) 0.0278(5) 0.0545(8) -0.0059(5) -0.0078(6) 0.0006(5)
C5 0.0364(6) 0.0426(6) 0.0419(8) -0.0070(6) -0.0025(5) 0.0083(5)
C6 0.0327(6) 0.0431(6) 0.0512(10) -0.0001(6) -0.0012(5) -0.0054(4)
loop_
_atom_type_symbol
_atom_type_description
_atom_type_scat_dispersion_real
_atom_type_scat_dispersion_imag
_atom_type_scat_source
C C 0.0033 0.0016 'International Tables Vol C Tables 4.2.6.8 and 6.1.1.4'
H H 0.0000 0.0000 'International Tables Vol C Tables 4.2.6.8 and 6.1.1.4'
N N 0.0061 0.0033 'International Tables Vol C Tables 4.2.6.8 and 6.1.1.4'
loop_
_geom_angle_atom_site_label_1
_geom_angle_atom_site_label_2
_geom_angle_atom_site_label_3
_geom_angle
C2 N1 C6 115.42(10)
C2 N3 C4 115.27(10)
N3 C2 N1 127.25(11)
N3 C4 C5 122.98(10)
C4 C5 C6 116.13(11)
N1 C6 C5 122.95(11)
loop_
_geom_bond_atom_site_label_1
_geom_bond_atom_site_label_2
_geom_bond_distance
N1 C2 1.3295(14)
N1 C6 1.3304(16)
N3 C2 1.3282(15)
N3 C4 1.3372(16)
C4 C5 1.3708(18)
C5 C6 1.3784(17)
loop_
_refln_index_h
_refln_index_k
_refln_index_l
_refln_F_squared_calc
_refln_F_squared_meas
_refln_F_squared_sigma
_refln_observed_status
2 0 -5 3.17 1.89 0.62 o
0 1 -5 6.38 7.26 0.98 o
1 1 -5 0.03 -0.61 0.61 o
1 2 -5 0.18 0.08 0.63 o
0 0 -4 21.61 20.97 0.59 o
2 0 -4 10.10 9.11 0.37 o
4 0 -4 2.91 3.19 0.40 o
6 0 -4 9.02 9.52 0.87 o
8 0 -4 5.02 5.88 0.60 o
1 1 -4 3.20 3.15 0.16 o
2 1 -4 3.91 3.83 0.19 o
3 1 -4 5.94 5.11 0.23 o
4 1 -4 1.70 1.91 0.21 o
5 1 -4 9.86 10.30 0.71 o
6 1 -4 6.87 7.21 0.47 o
7 1 -4 1.61 2.19 0.35 o
8 1 -4 7.87 8.33 0.66 o
0 2 -4 5.72 5.92 0.28 o
1 2 -4 3.34 3.33 0.17 o
2 2 -4 5.79 5.61 0.22 o
3 2 -4 22.38 20.18 0.42 o
4 2 -4 2.55 3.05 0.24 o
5 2 -4 5.23 5.18 0.32 o
6 2 -4 1.26 1.52 0.26 o
7 2 -4 4.66 5.45 0.41 o
8 2 -4 0.48 1.78 0.42 o
1 3 -4 2.09 2.04 0.16 o
2 3 -4 0.20 0.40 0.14 o
3 3 -4 13.17 12.70 0.40 o
4 3 -4 0.98 1.12 0.24 o
5 3 -4 13.55 12.99 0.40 o
6 3 -4 1.09 1.46 0.20 o
7 3 -4 5.14 5.79 0.57 o
8 3 -4 0.41 0.92 0.51 o
0 4 -4 2.34 2.40 0.26 o
1 4 -4 10.83 9.98 0.28 o
2 4 -4 0.08 0.33 0.15 o
3 4 -4 5.51 4.96 0.25 o
4 4 -4 0.15 0.29 0.20 o
5 4 -4 0.63 0.41 0.30 o
6 4 -4 1.12 1.35 0.37 o
7 4 -4 1.18 0.94 0.47 o
8 4 -4 0.51 0.28 0.39 o
1 5 -4 13.81 14.31 0.40 o
2 5 -4 2.86 3.44 0.23 o
3 5 -4 6.59 6.68 0.30 o
4 5 -4 0.72 0.82 0.24 o
5 5 -4 0.17 0.43 0.33 o
6 5 -4 1.96 1.75 0.40 o
0 6 -4 9.84 10.25 0.65 o
1 6 -4 6.39 6.34 0.38 o
2 6 -4 5.69 5.71 0.40 o
3 6 -4 2.85 3.02 0.48 o
4 6 -4 2.66 2.52 0.61 o
5 6 -4 0.01 0.36 0.47 o
1 7 -4 1.21 1.54 0.62 o
2 7 -4 1.16 2.12 0.69 o
3 7 -4 0.31 0.57 0.53 o
4 7 -4 3.45 2.44 0.69 o
2 0 -3 1.88 1.64 0.18 o
4 0 -3 35.59 36.21 0.65 o
6 0 -3 15.41 15.19 0.42 o
8 0 -3 83.80 85.71 1.49 o
10 0 -3 5.26 5.11 0.39 o
12 0 -3 1.60 1.21 0.37 o
0 1 -3 0.41 0.23 0.17 o
1 1 -3 21.75 22.23 0.43 o
2 1 -3 107.80 105.81 1.50 o
3 1 -3 40.27 37.96 0.34 o
4 1 -3 4.78 4.83 0.16 o
5 1 -3 5.19 5.25 0.19 o
6 1 -3 25.60 25.21 0.44 o
7 1 -3 4.51 5.39 0.35 o
8 1 -3 19.45 19.31 0.58 o
9 1 -3 1.08 1.06 0.16 o
10 1 -3 6.67 5.99 0.31 o
11 1 -3 3.24 3.05 0.27 o
12 1 -3 3.43 3.12 0.37 o
1 2 -3 40.80 39.24 0.40 o
2 2 -3 3.79 4.23 0.13 o
3 2 -3 56.63 51.88 0.41 o
4 2 -3 21.77 21.96 0.35 o
5 2 -3 30.05 31.38 0.50 o
6 2 -3 0.66 0.84 0.13 o
7 2 -3 5.59 6.29 0.24 o
8 2 -3 14.90 15.73 0.42 o
9 2 -3 2.44 2.34 0.24 o
10 2 -3 0.29 0.67 0.19 o
11 2 -3 2.80 2.07 0.31 o
12 2 -3 2.89 2.79 0.45 o
0 3 -3 3.95 4.39 0.35 o
1 3 -3 17.47 18.12 0.29 o
2 3 -3 12.73 11.64 0.20 o
3 3 -3 42.71 40.70 0.40 o
4 3 -3 8.25 8.16 0.19 o
5 3 -3 1.53 1.46 0.11 o
6 3 -3 0.53 0.68 0.11 o
7 3 -3 1.26 1.61 0.15 o
8 3 -3 0.27 0.21 0.20 o
9 3 -3 8.03 8.38 0.37 o
10 3 -3 2.39 2.74 0.25 o
11 3 -3 1.97 1.76 0.28 o
12 3 -3 4.03 4.76 0.44 o
1 4 -3 12.00 11.42 0.24 o
2 4 -3 2.98 2.75 0.14 o
3 4 -3 26.65 26.91 0.35 o
4 4 -3 0.26 0.35 0.10 o
5 4 -3 1.50 1.44 0.12 o
6 4 -3 1.91 1.75 0.14 o
7 4 -3 25.73 25.53 0.47 o
8 4 -3 10.81 11.53 0.37 o
9 4 -3 10.07 10.09 0.37 o
10 4 -3 1.86 1.47 0.24 o
11 4 -3 0.19 0.50 0.20 o
0 5 -3 4.52 4.16 0.28 o
1 5 -3 18.77 17.98 0.34 o
2 5 -3 22.93 23.17 0.46 o
3 5 -3 19.73 20.73 0.44 o
4 5 -3 2.34 2.46 0.16 o
5 5 -3 4.18 3.75 0.20 o
6 5 -3 4.39 4.74 0.24 o
7 5 -3 14.62 15.14 0.38 o
8 5 -3 1.36 1.42 0.21 o
9 5 -3 12.45 11.06 0.40 o
10 5 -3 5.35 4.70 0.40 o
11 5 -3 2.06 3.07 0.77 o
1 6 -3 21.65 21.51 0.42 o
2 6 -3 10.35 10.14 0.33 o
3 6 -3 5.68 6.05 0.39 o
4 6 -3 24.32 23.84 0.54 o
5 6 -3 3.06 3.41 0.23 o
6 6 -3 0.38 0.51 0.16 o
7 6 -3 9.52 9.48 0.35 o
8 6 -3 15.95 16.38 0.53 o
9 6 -3 8.19 7.87 0.59 o
10 6 -3 0.72 0.66 0.45 o
0 7 -3 7.79 9.32 1.00 o
1 7 -3 0.74 0.84 0.17 o
2 7 -3 49.37 49.92 0.71 o
3 7 -3 1.80 1.89 0.20 o
4 7 -3 3.75 3.48 0.24 o
5 7 -3 0.70 0.77 0.15 o
6 7 -3 1.19 1.52 0.33 o
7 7 -3 0.25 0.42 0.21 o
8 7 -3 1.08 1.22 0.40 o
9 7 -3 0.01 0.57 0.54 o
1 8 -3 0.14 0.57 0.17 o
2 8 -3 1.57 1.65 0.20 o
3 8 -3 6.54 7.19 0.30 o
4 8 -3 15.72 15.16 0.44 o
5 8 -3 5.88 5.46 0.29 o
6 8 -3 1.71 1.93 0.24 o
7 8 -3 1.44 0.92 0.36 o
0 9 -3 4.66 5.13 0.57 o
1 9 -3 4.80 5.57 0.34 o
2 9 -3 10.37 9.17 0.51 o
3 9 -3 4.11 4.04 0.38 o
4 9 -3 0.67 0.85 0.30 o
5 9 -3 3.04 3.05 0.49 o
6 9 -3 1.31 1.09 0.55 o
0 0 -2 676.09 709.26 5.36 o
2 0 -2 659.16 648.46 2.80 o
4 0 -2 4.23 3.67 0.11 o
6 0 -2 104.47 100.56 1.42 o
8 0 -2 88.48 85.89 2.95 o
10 0 -2 50.47 47.66 0.81 o
12 0 -2 5.02 5.11 0.70 o
1 1 -2 121.66 116.17 0.93 o
2 1 -2 118.51 117.44 0.46 o
3 1 -2 67.76 65.60 0.42 o
4 1 -2 120.76 124.24 1.55 o
5 1 -2 24.29 23.85 0.27 o
6 1 -2 13.32 13.97 0.39 o
7 1 -2 0.48 0.86 0.15 o
8 1 -2 138.69 141.21 1.56 o
9 1 -2 4.53 5.19 0.25 o
10 1 -2 26.86 26.31 0.53 o
11 1 -2 11.32 12.09 0.39 o
12 1 -2 6.30 6.94 0.39 o
13 1 -2 7.56 7.03 0.39 o
14 1 -2 3.08 4.05 0.72 o
0 2 -2 37.29 38.69 0.29 o
1 2 -2 162.38 160.84 0.67 o
2 2 -2 234.59 231.78 1.02 o
3 2 -2 122.59 120.14 0.90 o
4 2 -2 69.67 74.22 0.85 o
5 2 -2 6.74 6.19 0.12 o
6 2 -2 21.82 20.36 0.39 o
7 2 -2 4.01 4.18 0.16 o
8 2 -2 8.10 7.76 0.42 o
9 2 -2 4.73 4.22 0.23 o
10 2 -2 5.45 5.42 0.24 o
11 2 -2 18.35 19.37 0.49 o
12 2 -2 7.19 7.56 0.33 o
13 2 -2 14.44 15.37 0.59 o
14 2 -2 4.87 6.05 0.77 o
1 3 -2 68.61 69.62 0.44 o
2 3 -2 74.39 71.35 0.49 o
3 3 -2 69.66 67.54 0.63 o
4 3 -2 25.11 26.85 0.33 o
5 3 -2 1.08 1.88 0.31 o
6 3 -2 31.15 30.67 0.86 o
7 3 -2 20.59 20.89 0.46 o
8 3 -2 2.59 3.37 0.19 o
9 3 -2 0.06 0.18 0.16 o
10 3 -2 3.83 3.14 0.22 o
11 3 -2 14.98 15.09 0.42 o
12 3 -2 4.84 5.01 0.28 o
13 3 -2 14.39 13.53 0.50 o
0 4 -2 71.16 69.89 0.46 o
1 4 -2 6.34 6.64 0.09 o
2 4 -2 11.77 9.80 0.12 o
3 4 -2 27.55 26.54 0.27 o
4 4 -2 36.45 36.47 0.50 o
5 4 -2 16.72 16.19 0.25 o
6 4 -2 8.00 8.46 0.23 o
7 4 -2 24.56 25.78 0.39 o
8 4 -2 6.15 5.32 0.23 o
9 4 -2 11.33 10.71 0.35 o
10 4 -2 12.56 11.22 0.35 o
11 4 -2 1.65 1.78 0.19 o
12 4 -2 3.41 3.76 0.24 o
13 4 -2 2.35 2.12 0.42 o
1 5 -2 42.14 39.98 0.29 o
2 5 -2 15.50 17.06 0.19 o
3 5 -2 14.44 13.47 0.21 o
4 5 -2 28.12 27.85 0.33 o
5 5 -2 24.94 26.78 0.37 o
6 5 -2 5.05 5.60 0.16 o
7 5 -2 67.10 65.85 0.85 o
8 5 -2 39.09 39.39 0.54 o
9 5 -2 14.81 15.42 0.36 o
10 5 -2 3.48 2.71 0.19 o
11 5 -2 0.40 0.61 0.15 o
12 5 -2 0.76 0.95 0.18 o
0 6 -2 10.38 9.25 0.25 o
1 6 -2 8.45 8.00 0.15 o
2 6 -2 124.38 118.91 1.13 o
3 6 -2 23.86 23.87 0.28 o
4 6 -2 59.68 57.54 0.56 o
5 6 -2 5.03 4.92 0.18 o
6 6 -2 8.91 9.39 0.27 o
7 6 -2 16.42 16.12 0.33 o
8 6 -2 3.70 3.84 0.17 o
9 6 -2 10.15 9.73 0.27 o
10 6 -2 7.44 5.86 0.24 o
11 6 -2 1.08 1.37 0.17 o
1 7 -2 10.09 9.86 0.20 o
2 7 -2 17.10 15.82 0.26 o
3 7 -2 9.86 9.32 0.20 o
4 7 -2 71.08 71.41 0.64 o
5 7 -2 5.50 5.49 0.17 o
6 7 -2 36.20 39.70 0.51 o
7 7 -2 1.45 2.06 0.15 o
8 7 -2 28.27 29.60 0.43 o
9 7 -2 0.31 0.52 0.13 o
10 7 -2 0.74 0.83 0.17 o
11 7 -2 0.93 1.52 0.33 o
0 8 -2 4.70 5.36 0.39 o
1 8 -2 2.00 1.76 0.11 o
2 8 -2 70.26 69.92 0.76 o
3 8 -2 1.53 1.50 0.12 o
4 8 -2 30.47 30.59 0.40 o
5 8 -2 11.51 11.28 0.24 o
6 8 -2 8.12 7.84 0.24 o
7 8 -2 12.35 14.47 0.32 o
8 8 -2 5.93 6.07 0.23 o
9 8 -2 1.76 2.20 0.19 o
10 8 -2 0.31 0.37 0.24 o
1 9 -2 1.08 0.67 0.13 o
2 9 -2 3.27 3.15 0.17 o
3 9 -2 8.93 9.37 0.25 o
4 9 -2 10.75 10.65 0.26 o
5 9 -2 17.36 18.41 0.37 o
6 9 -2 5.01 4.34 0.21 o
7 9 -2 7.16 7.39 0.29 o
8 9 -2 5.40 5.70 0.31 o
9 9 -2 5.60 6.75 0.50 o
0 10 -2 16.74 17.52 0.57 o
1 10 -2 3.85 4.33 0.24 o
2 10 -2 3.98 3.79 0.20 o
3 10 -2 1.71 1.63 0.15 o
4 10 -2 1.86 2.18 0.17 o
5 10 -2 2.27 2.34 0.21 o
6 10 -2 3.05 3.14 0.30 o
7 10 -2 11.42 11.79 0.94 o
1 11 -2 0.77 1.04 0.20 o
2 11 -2 3.71 3.20 0.26 o
3 11 -2 6.57 7.95 0.34 o
4 11 -2 4.55 5.94 0.40 o
5 11 -2 0.94 0.53 0.27 o
2 0 -1 2454.12 2491.24 13.28 o
4 0 -1 123.61 119.31 1.05 o
6 0 -1 68.01 73.39 0.93 o
8 0 -1 145.09 138.28 1.95 o
10 0 -1 203.29 198.52 2.32 o
12 0 -1 24.26 24.12 0.77 o
14 0 -1 1.94 2.23 0.35 o
0 1 -1 5857.82 5823.66 28.76 o
1 1 -1 172.39 176.84 0.51 o
2 1 -1 899.85 895.55 3.52 o
3 1 -1 62.75 61.18 0.32 o
4 1 -1 207.67 210.25 1.63 o
5 1 -1 20.19 21.68 0.21 o
6 1 -1 92.68 91.61 1.09 o
7 1 -1 6.99 7.20 0.11 o
8 1 -1 75.80 67.21 0.71 o
9 1 -1 28.30 28.95 0.40 o
10 1 -1 82.46 77.21 0.77 o
11 1 -1 6.25 6.56 0.28 o
12 1 -1 25.14 23.68 0.52 o
13 1 -1 10.86 11.13 0.42 o
14 1 -1 8.70 9.81 0.39 o
15 1 -1 0.50 0.45 0.42 o
1 2 -1 274.37 265.40 0.83 o
2 2 -1 11.93 13.03 0.11 o
3 2 -1 102.52 105.92 0.95 o
4 2 -1 112.73 124.43 1.28 o
5 2 -1 11.85 13.26 0.24 o
6 2 -1 241.08 265.62 2.97 o
7 2 -1 4.60 4.96 0.11 o
8 2 -1 32.66 33.45 0.42 o
9 2 -1 7.21 7.31 0.24 o
10 2 -1 26.74 28.06 0.43 o
11 2 -1 71.52 70.13 0.82 o
12 2 -1 6.50 7.13 0.32 o
13 2 -1 13.45 12.08 0.44 o
14 2 -1 5.56 6.33 0.59 o
15 2 -1 0.26 0.04 0.42 o
0 3 -1 171.75 167.40 1.83 o
1 3 -1 86.48 86.67 0.46 o
2 3 -1 18.63 17.90 0.14 o
3 3 -1 16.13 14.92 0.17 o
4 3 -1 477.68 506.57 3.64 o
5 3 -1 4.77 5.95 0.14 o
6 3 -1 37.80 38.74 0.58 o
7 3 -1 3.12 2.90 0.21 o
8 3 -1 16.08 16.13 0.28 o
9 3 -1 9.80 9.40 0.23 o
10 3 -1 1.18 0.71 0.12 o
11 3 -1 9.41 9.70 0.33 o
12 3 -1 7.98 7.78 0.31 o
13 3 -1 7.85 7.99 0.36 o
14 3 -1 3.68 4.97 0.50 o
1 4 -1 55.61 62.61 0.49 o
2 4 -1 342.42 333.14 1.93 o
3 4 -1 2.64 2.57 0.08 o
4 4 -1 5.40 5.38 0.11 o
5 4 -1 21.33 21.02 0.25 o
6 4 -1 31.02 37.02 0.36 o
7 4 -1 76.79 75.29 0.87 o
8 4 -1 11.74 10.88 0.24 o
9 4 -1 11.23 10.80 0.33 o
10 4 -1 18.93 16.41 0.35 o
11 4 -1 9.25 8.60 0.27 o
12 4 -1 4.77 5.05 0.27 o
13 4 -1 4.06 4.28 0.28 o
0 5 -1 401.46 402.61 4.18 o
1 5 -1 7.56 5.89 0.17 o
2 5 -1 86.62 87.47 0.45 o
3 5 -1 19.11 18.01 0.20 o
4 5 -1 32.56 27.27 0.32 o
5 5 -1 49.48 48.97 0.49 o
6 5 -1 6.85 6.94 0.21 o
7 5 -1 25.73 27.17 0.41 o
8 5 -1 1.77 1.71 0.20 o
9 5 -1 15.96 15.03 0.29 o
10 5 -1 20.11 16.77 0.36 o
11 5 -1 0.90 0.76 0.14 o
12 5 -1 8.81 7.45 0.29 o
13 5 -1 2.11 2.32 0.75 o
1 6 -1 34.98 34.54 0.30 o
2 6 -1 8.87 7.93 0.14 o
3 6 -1 9.43 9.58 0.16 o
4 6 -1 52.36 49.88 0.47 o
5 6 -1 32.42 31.81 0.34 o
6 6 -1 215.70 218.57 2.04 o
7 6 -1 40.78 39.88 0.48 o
8 6 -1 28.66 27.28 0.40 o
9 6 -1 3.26 3.25 0.16 o
10 6 -1 11.47 11.77 0.32 o
11 6 -1 0.89 0.94 0.14 o
12 6 -1 5.40 5.49 0.28 o
0 7 -1 35.29 36.90 0.45 o
1 7 -1 3.28 2.97 0.11 o
2 7 -1 76.28 73.72 0.57 o
3 7 -1 7.41 7.49 0.15 o
4 7 -1 318.76 314.18 2.15 o
5 7 -1 5.95 5.74 0.17 o
6 7 -1 33.77 33.90 0.38 o
7 7 -1 11.47 11.46 0.28 o
8 7 -1 12.50 14.14 0.62 o
9 7 -1 1.44 1.20 0.14 o
10 7 -1 6.67 5.58 0.25 o
11 7 -1 0.19 0.44 0.15 o
1 8 -1 0.69 0.97 0.10 o
2 8 -1 2.71 3.10 0.12 o
3 8 -1 28.79 27.44 0.31 o
4 8 -1 41.01 40.35 0.41 o
5 8 -1 15.10 15.02 0.26 o
6 8 -1 107.12 108.84 0.79 o
7 8 -1 4.95 5.05 0.21 o
8 8 -1 12.97 13.33 0.31 o
9 8 -1 1.35 1.66 0.17 o
10 8 -1 13.23 15.78 0.40 o
11 8 -1 0.97 2.35 0.44 o
0 9 -1 60.22 56.65 0.76 o
1 9 -1 1.16 0.80 0.10 o
2 9 -1 16.86 16.15 0.29 o
3 9 -1 3.31 2.85 0.15 o
4 9 -1 20.85 21.18 0.34 o
5 9 -1 20.10 20.95 0.34 o
6 9 -1 11.50 11.12 0.25 o
7 9 -1 12.36 13.54 0.33 o
8 9 -1 11.22 12.22 0.32 o
9 9 -1 1.25 1.17 0.21 o
10 9 -1 2.71 3.34 0.51 o
1 10 -1 5.83 5.06 0.19 o
2 10 -1 21.16 20.67 0.36 o
3 10 -1 1.07 1.17 0.12 o
4 10 -1 0.16 0.39 0.11 o
5 10 -1 9.58 10.09 0.27 o
6 10 -1 6.29 7.98 0.24 o
7 10 -1 3.13 3.98 0.20 o
8 10 -1 1.32 1.51 0.24 o
9 10 -1 1.99 2.46 0.61 o
0 11 -1 14.12 11.56 0.44 o
1 11 -1 6.03 6.39 0.23 o
2 11 -1 2.84 3.66 0.18 o
3 11 -1 2.92 2.43 0.16 o
4 11 -1 8.82 10.99 0.29 o
5 11 -1 0.43 0.51 0.15 o
6 11 -1 1.72 1.44 0.30 o
7 11 -1 3.27 3.77 0.52 o
1 12 -1 1.38 1.48 0.28 o
2 12 -1 0.67 0.94 0.23 o
3 12 -1 6.65 8.07 0.61 o
4 12 -1 5.29 5.94 0.82 o
2 0 0 116.08 117.96 1.23 o
4 0 0 325.10 305.29 2.43 o
6 0 0 31.09 49.69 1.45 o
8 0 0 159.69 150.67 1.12 o
10 0 0 161.11 152.71 1.57 o
12 0 0 74.50 72.92 1.91 o
14 0 0 5.62 7.20 0.48 o
2 1 0 2646.33 2693.10 23.59 o
3 1 0 32.55 41.65 0.46 o
4 1 0 4.69 7.21 0.13 o
5 1 0 0.02 0.17 0.03 o
6 1 0 238.41 242.04 1.64 o
7 1 0 25.42 29.48 0.33 o
8 1 0 11.79 11.68 0.20 o
9 1 0 2.61 2.37 0.10 o
10 1 0 214.58 217.78 2.93 o
11 1 0 53.88 53.71 0.80 o
12 1 0 25.54 23.97 0.52 o
13 1 0 2.13 1.84 0.22 o
14 1 0 1.31 2.46 0.23 o
15 1 0 0.16 0.28 0.34 o
0 2 0 1718.99 1686.72 16.13 o
1 2 0 31.63 31.86 0.18 o
2 2 0 15.44 17.35 0.23 o
3 2 0 0.75 0.23 0.03 o
4 2 0 1063.67 1114.95 8.87 o
5 2 0 26.95 27.74 0.23 o
6 2 0 92.52 95.56 1.08 o
7 2 0 2.50 2.31 0.08 o
8 2 0 0.20 0.11 0.07 o
9 2 0 75.02 73.11 0.72 o
10 2 0 32.58 31.45 0.64 o
11 2 0 0.10 0.21 0.12 o
12 2 0 4.48 5.11 0.27 o
13 2 0 19.90 20.36 0.52 o
14 2 0 6.47 7.79 0.38 o
15 2 0 0.46 1.43 0.55 o
1 3 0 7.72 13.30 0.09 o
2 3 0 520.79 496.67 2.79 o
3 3 0 7.17 6.04 0.08 o
4 3 0 38.46 40.42 0.33 o
5 3 0 10.79 12.65 0.15 o
6 3 0 409.04 462.25 4.47 o
7 3 0 6.28 7.24 0.21 o
8 3 0 7.02 7.12 0.12 o
9 3 0 17.68 15.37 0.26 o
10 3 0 0.46 0.29 0.12 o
11 3 0 64.49 62.70 0.78 o
12 3 0 0.54 0.77 0.16 o
13 3 0 3.08 2.96 0.25 o
14 3 0 6.25 6.49 0.34 o
15 3 0 5.20 7.52 0.93 o
0 4 0 1415.18 1424.73 12.73 o
1 4 0 10.07 13.48 0.31 o
2 4 0 0.40 0.62 0.05 o
3 4 0 1.96 1.88 0.06 o
4 4 0 121.94 129.69 0.97 o
5 4 0 66.38 72.49 0.60 o
6 4 0 14.00 14.51 0.20 o
7 4 0 1.94 2.40 0.19 o
8 4 0 22.29 22.25 0.27 o
9 4 0 0.04 0.15 0.06 o
10 4 0 8.67 7.85 0.25 o
11 4 0 1.51 1.64 0.15 o
12 4 0 19.59 17.19 0.52 o
13 4 0 0.31 1.05 0.20 o
1 5 0 88.59 96.92 0.74 o
2 5 0 148.14 147.94 0.86 o
3 5 0 0.34 0.06 0.04 o
4 5 0 0.15 0.27 0.05 o
5 5 0 23.13 22.59 0.24 o
6 5 0 72.39 62.64 0.46 o
7 5 0 91.37 90.53 0.80 o
8 5 0 2.67 2.52 0.12 o
9 5 0 9.70 8.31 0.19 o
10 5 0 30.11 28.00 0.43 o
11 5 0 0.00 -0.01 0.14 o
12 5 0 9.51 8.13 0.35 o
13 5 0 0.56 0.83 0.18 o
0 6 0 268.96 293.36 2.64 o
1 6 0 0.61 0.48 0.06 o
2 6 0 0.76 1.10 0.06 o
3 6 0 2.62 2.47 0.08 o
4 6 0 431.38 402.58 3.11 o
5 6 0 8.85 8.13 0.15 o
6 6 0 25.75 24.31 0.30 o
7 6 0 8.78 8.81 0.19 o
8 6 0 16.81 18.37 0.32 o
9 6 0 11.24 10.59 0.23 o
10 6 0 17.69 14.59 0.35 o
11 6 0 0.55 0.64 0.13 o
12 6 0 6.96 6.84 0.29 o
13 6 0 3.65 5.36 0.62 o
1 7 0 1.94 2.08 0.08 o
2 7 0 13.99 11.03 0.15 o
3 7 0 39.12 38.53 0.37 o
4 7 0 21.55 20.51 0.24 o
5 7 0 42.65 41.67 0.44 o
6 7 0 419.83 424.11 2.81 o
7 7 0 1.51 3.02 0.33 o
8 7 0 2.68 2.94 0.19 o
9 7 0 0.12 0.39 0.10 o
10 7 0 19.18 21.52 0.38 o
11 7 0 0.04 0.11 0.12 o
12 7 0 1.65 1.16 0.39 o
13 7 0 0.68 0.37 0.55 o
0 8 0 62.96 58.41 0.62 o
1 8 0 4.23 4.15 0.12 o
2 8 0 0.77 0.77 0.11 o
3 8 0 1.11 0.92 0.11 o
4 8 0 243.76 243.49 1.31 o
5 8 0 34.44 34.18 0.34 o
6 8 0 44.05 41.34 0.41 o
7 8 0 8.76 7.93 0.21 o
8 8 0 0.79 0.88 0.13 o
9 8 0 0.18 0.38 0.11 o
10 8 0 5.63 5.57 0.22 o
11 8 0 0.15 0.16 0.21 o
1 9 0 5.76 5.27 0.16 o
2 9 0 10.54 8.68 0.20 o
3 9 0 12.63 13.26 0.24 o
4 9 0 5.12 5.34 0.17 o
5 9 0 0.00 0.11 0.10 o
6 9 0 20.76 20.25 0.33 o
7 9 0 8.97 8.75 0.24 o
8 9 0 0.27 0.14 0.12 o
9 9 0 0.17 0.43 0.13 o
10 9 0 23.49 27.30 0.84 o
11 9 0 0.36 1.05 0.48 o
0 10 0 78.18 70.22 0.84 o
1 10 0 4.48 3.96 0.16 o
2 10 0 2.85 2.84 0.13 o
3 10 0 11.49 10.56 0.24 o
4 10 0 1.33 2.36 0.14 o
5 10 0 4.75 5.39 0.20 o
6 10 0 0.90 0.73 0.11 o
7 10 0 1.75 1.95 0.15 o
8 10 0 22.96 24.55 0.72 o
9 10 0 0.26 0.33 0.39 o
1 11 0 3.98 3.12 0.16 o
2 11 0 14.21 13.29 0.29 o
3 11 0 4.04 4.44 0.19 o
4 11 0 1.90 2.19 0.16 o
5 11 0 8.04 8.53 0.26 o
6 11 0 20.93 24.90 0.71 o
7 11 0 0.06 -0.26 0.40 o
8 11 0 2.85 3.34 0.46 o
0 12 0 1.53 3.99 0.44 o
1 12 0 0.86 0.92 0.25 o
2 12 0 1.08 0.96 0.29 o
3 12 0 0.23 0.77 0.25 o
4 12 0 6.77 8.53 0.55 o
5 12 0 2.40 2.63 0.62 o
2 0 1 2453.56 2469.60 13.95 o
4 0 1 123.61 119.68 1.04 o
6 0 1 68.06 72.75 0.72 o
8 0 1 145.21 143.59 1.56 o
10 0 1 203.25 202.64 1.87 o
12 0 1 24.25 24.70 0.69 o
14 0 1 1.94 2.85 0.31 o
0 1 1 5856.81 5751.91 32.90 o
1 1 1 172.49 172.41 0.50 o
2 1 1 900.36 879.55 1.81 o
3 1 1 62.85 60.77 0.27 o
4 1 1 207.65 207.27 1.05 o
5 1 1 20.19 21.63 0.15 o
6 1 1 92.78 88.72 0.64 o
7 1 1 7.01 7.04 0.10 o
8 1 1 75.84 66.15 0.73 o
9 1 1 28.29 28.60 0.34 o
10 1 1 82.41 77.64 1.23 o
11 1 1 6.25 6.34 0.24 o
12 1 1 25.14 25.17 0.52 o
13 1 1 10.85 11.34 0.34 o
14 1 1 8.69 9.68 0.32 o
15 1 1 0.50 0.56 0.48 o
1 2 1 274.36 262.31 0.75 o
2 2 1 11.94 12.76 0.09 o
3 2 1 102.56 104.70 0.50 o
4 2 1 112.77 123.80 0.56 o
5 2 1 11.90 13.51 0.12 o
6 2 1 241.03 259.45 2.02 o
7 2 1 4.60 4.72 0.09 o
8 2 1 32.68 32.89 0.33 o
9 2 1 7.21 7.30 0.12 o
10 2 1 26.73 28.57 0.40 o
11 2 1 71.49 69.73 1.19 o
12 2 1 6.51 6.73 0.24 o
13 2 1 13.46 12.34 0.36 o
14 2 1 5.57 6.79 0.32 o
15 2 1 0.26 0.03 0.32 o
0 3 1 171.68 163.50 0.69 o
1 3 1 86.47 87.34 0.40 o
2 3 1 18.64 18.80 0.13 o
3 3 1 16.14 15.18 0.14 o
4 3 1 477.58 502.50 2.82 o
5 3 1 4.76 5.95 0.09 o
6 3 1 37.77 39.11 0.42 o
7 3 1 3.11 3.87 0.18 o
8 3 1 16.07 16.43 0.26 o
9 3 1 9.81 9.41 0.16 o
10 3 1 1.18 0.78 0.13 o
11 3 1 9.40 9.60 0.27 o
12 3 1 7.99 7.51 0.25 o
13 3 1 7.84 7.15 0.27 o
14 3 1 3.68 5.24 0.37 o
15 3 1 0.12 -0.01 0.50 o
1 4 1 55.55 66.98 0.90 o
2 4 1 342.36 343.91 1.22 o
3 4 1 2.64 2.93 0.07 o
4 4 1 5.40 5.19 0.12 o
5 4 1 21.30 21.65 0.21 o
6 4 1 31.00 37.70 0.41 o
7 4 1 76.80 74.43 0.66 o
8 4 1 11.75 10.32 0.16 o
9 4 1 11.23 10.48 0.18 o
10 4 1 18.93 15.99 0.30 o
11 4 1 9.25 8.53 0.28 o
12 4 1 4.77 4.35 0.22 o
13 4 1 4.06 3.72 0.22 o
14 4 1 1.42 1.63 0.64 o
0 5 1 401.40 420.31 3.86 o
1 5 1 7.56 7.87 0.52 o
2 5 1 86.68 89.34 0.71 o
3 5 1 19.14 18.01 0.15 o
4 5 1 32.55 27.54 0.19 o
5 5 1 49.49 47.63 0.52 o
6 5 1 6.85 6.40 0.14 o
7 5 1 25.74 26.83 0.27 o
8 5 1 1.78 1.37 0.08 o
9 5 1 15.96 14.79 0.24 o
10 5 1 20.10 17.01 0.31 o
11 5 1 0.89 0.75 0.12 o
12 5 1 8.81 7.65 0.27 o
13 5 1 2.11 3.04 0.26 o
14 5 1 1.57 2.27 0.63 o
1 6 1 35.03 34.16 0.32 o
2 6 1 8.89 8.47 0.11 o
3 6 1 9.43 9.49 0.14 o
4 6 1 52.38 48.80 0.37 o
5 6 1 32.41 31.37 0.27 o
6 6 1 215.64 213.17 1.62 o
7 6 1 40.78 38.99 0.37 o
8 6 1 28.68 26.96 0.33 o
9 6 1 3.28 3.35 0.14 o
10 6 1 11.47 11.44 0.27 o
11 6 1 0.89 0.98 0.14 o
12 6 1 5.40 5.61 0.25 o
13 6 1 0.37 0.57 0.34 o
0 7 1 35.29 36.72 0.35 o
1 7 1 3.28 3.06 0.09 o
2 7 1 76.36 72.39 0.68 o
3 7 1 7.41 7.49 0.14 o
4 7 1 318.66 311.74 1.99 o
5 7 1 5.94 5.97 0.14 o
6 7 1 33.76 32.51 0.32 o
7 7 1 11.47 10.95 0.20 o
8 7 1 12.49 13.55 0.45 o
9 7 1 1.44 1.14 0.12 o
10 7 1 6.65 5.44 0.22 o
11 7 1 0.19 0.27 0.13 o
12 7 1 5.80 6.10 1.08 o
1 8 1 0.69 0.92 0.07 o
2 8 1 2.71 3.13 0.10 o
3 8 1 28.80 26.98 0.27 o
4 8 1 41.03 39.14 0.39 o
5 8 1 15.11 15.05 0.22 o
6 8 1 107.07 107.54 1.11 o
7 8 1 4.95 5.00 0.15 o
8 8 1 12.98 12.91 0.25 o
9 8 1 1.36 1.53 0.14 o
10 8 1 13.23 15.25 0.37 o
11 8 1 0.97 2.01 0.29 o
0 9 1 60.21 54.37 0.53 o
1 9 1 1.16 0.85 0.08 o
2 9 1 16.89 16.14 0.23 o
3 9 1 3.33 3.00 0.12 o
4 9 1 20.84 20.85 0.27 o
5 9 1 20.10 20.44 0.27 o
6 9 1 11.50 10.57 0.21 o
7 9 1 12.37 12.86 0.24 o
8 9 1 11.23 12.09 0.24 o
9 9 1 1.25 1.37 0.16 o
10 9 1 2.70 3.58 0.42 o
1 10 1 5.83 5.23 0.16 o
2 10 1 21.15 20.39 0.29 o
3 10 1 1.07 1.20 0.10 o
4 10 1 0.16 0.21 0.09 o
5 10 1 9.56 10.12 0.22 o
6 10 1 6.29 7.17 0.19 o
7 10 1 3.13 3.35 0.17 o
8 10 1 1.33 1.58 0.16 o
9 10 1 1.99 1.02 0.48 o
0 11 1 14.10 11.84 0.35 o
1 11 1 6.03 6.68 0.19 o
2 11 1 2.84 4.15 0.16 o
3 11 1 2.92 2.67 0.14 o
4 11 1 8.82 11.05 0.25 o
5 11 1 0.43 0.74 0.22 o
6 11 1 1.72 1.60 0.17 o
7 11 1 3.26 3.40 0.27 o
1 12 1 1.38 1.39 0.25 o
2 12 1 0.67 0.52 0.34 o
3 12 1 6.65 8.95 1.08 o
4 12 1 5.29 7.11 0.72 o
0 0 2 675.46 710.21 3.36 o
2 0 2 659.40 650.15 3.16 o
4 0 2 4.24 3.87 0.10 o
6 0 2 104.55 99.80 0.90 o
8 0 2 88.52 84.07 1.34 o
10 0 2 50.42 47.02 0.71 o
12 0 2 5.01 4.25 0.26 o
14 0 2 7.87 7.75 0.66 o
1 1 2 121.70 119.80 1.05 o
2 1 2 118.42 116.82 0.85 o
3 1 2 67.75 64.38 0.31 o
4 1 2 120.78 127.94 0.46 o
5 1 2 24.32 24.29 0.19 o
6 1 2 13.34 14.46 0.33 o
7 1 2 0.48 0.54 0.07 o
8 1 2 138.75 142.99 1.04 o
9 1 2 4.53 4.92 0.15 o
10 1 2 26.84 26.08 0.39 o
11 1 2 11.31 11.29 0.28 o
12 1 2 6.31 7.32 0.24 o
13 1 2 7.57 7.30 0.25 o
14 1 2 3.08 3.17 0.30 o
0 2 2 37.28 39.19 0.34 o
1 2 2 162.35 161.27 0.59 o
2 2 2 234.69 231.17 0.71 o
3 2 2 122.67 121.78 0.40 o
4 2 2 69.62 73.95 0.32 o
5 2 2 6.75 6.44 0.11 o
6 2 2 21.82 20.40 0.21 o
7 2 2 4.03 3.68 0.12 o
8 2 2 8.11 7.60 0.16 o
9 2 2 4.72 4.33 0.13 o
10 2 2 5.44 5.32 0.18 o
11 2 2 18.35 18.55 0.39 o
12 2 2 7.20 7.33 0.26 o
13 2 2 14.41 14.58 0.42 o
14 2 2 4.86 5.52 0.47 o
1 3 2 68.55 70.79 0.59 o
2 3 2 74.33 72.70 0.31 o
3 3 2 69.62 68.09 0.32 o
4 3 2 25.12 27.18 0.19 o
5 3 2 1.09 3.44 0.46 o
6 3 2 31.10 33.22 0.31 o
7 3 2 20.58 20.61 0.25 o
8 3 2 2.59 3.15 0.12 o
9 3 2 0.06 0.12 0.08 o
10 3 2 3.83 3.64 0.17 o
11 3 2 14.98 14.98 0.31 o
12 3 2 4.85 5.70 0.24 o
13 3 2 14.40 13.73 0.42 o
14 3 2 3.73 5.05 0.50 o
0 4 2 71.09 70.62 0.48 o
1 4 2 6.35 6.80 0.11 o
2 4 2 11.77 10.46 0.13 o
3 4 2 27.54 27.56 0.22 o
4 4 2 36.41 38.05 0.26 o
5 4 2 16.72 16.36 0.18 o
6 4 2 8.00 8.59 0.16 o
7 4 2 24.55 26.03 0.28 o
8 4 2 6.15 7.98 1.03 o
9 4 2 11.31 11.20 0.22 o
10 4 2 12.57 11.34 0.26 o
11 4 2 1.64 1.59 0.14 o
12 4 2 3.41 3.55 0.19 o
13 4 2 2.35 2.17 0.26 o
1 5 2 42.17 40.40 0.27 o
2 5 2 15.50 17.77 0.31 o
3 5 2 14.43 14.33 0.17 o
4 5 2 28.12 28.25 0.25 o
5 5 2 24.93 27.13 0.24 o
6 5 2 5.05 5.46 0.13 o
7 5 2 67.07 65.83 0.58 o
8 5 2 39.10 39.16 0.37 o
9 5 2 14.85 15.68 0.28 o
10 5 2 3.48 2.92 0.17 o
11 5 2 0.40 0.59 0.13 o
12 5 2 0.76 0.86 0.17 o
13 5 2 0.57 0.82 0.30 o
0 6 2 10.38 9.62 0.21 o
1 6 2 8.46 8.03 0.14 o
2 6 2 124.44 120.97 0.57 o
3 6 2 23.88 24.35 0.26 o
4 6 2 59.65 57.43 0.40 o
5 6 2 5.03 5.10 0.14 o
6 6 2 8.91 9.10 0.18 o
7 6 2 16.43 16.63 0.26 o
8 6 2 3.70 3.70 0.15 o
9 6 2 10.14 9.68 0.28 o
10 6 2 7.43 5.76 0.23 o
11 6 2 1.08 1.19 0.15 o
12 6 2 5.93 6.81 0.40 o
1 7 2 10.10 10.20 0.17 o
2 7 2 17.09 16.43 0.22 o
3 7 2 9.86 9.45 0.18 o
4 7 2 71.10 70.66 0.47 o
5 7 2 5.49 5.41 0.15 o
6 7 2 36.14 38.09 0.37 o
7 7 2 1.45 1.77 0.11 o
8 7 2 28.28 28.66 0.38 o
9 7 2 0.31 0.25 0.12 o
10 7 2 0.75 0.70 0.14 o
11 7 2 0.93 1.48 0.31 o
0 8 2 4.70 3.95 0.19 o
1 8 2 2.01 1.85 0.10 o
2 8 2 70.31 69.21 0.50 o
3 8 2 1.53 1.65 0.10 o
4 8 2 30.43 30.19 0.33 o
5 8 2 11.51 11.02 0.21 o
6 8 2 8.11 7.74 0.19 o
7 8 2 12.36 13.73 0.26 o
8 8 2 5.94 5.94 0.19 o
9 8 2 1.75 2.01 0.18 o
10 8 2 0.31 0.25 0.21 o
1 9 2 1.09 0.70 0.09 o
2 9 2 3.27 3.06 0.13 o
3 9 2 8.94 8.63 0.20 o
4 9 2 10.76 9.95 0.22 o
5 9 2 17.37 17.56 0.29 o
6 9 2 5.01 3.96 0.15 o
7 9 2 7.16 6.90 0.20 o
8 9 2 5.41 5.18 0.21 o
9 9 2 5.61 6.09 0.47 o
0 10 2 16.72 17.26 0.42 o
1 10 2 3.85 4.23 0.16 o
2 10 2 3.98 3.58 0.15 o
3 10 2 1.71 1.62 0.12 o
4 10 2 1.86 1.93 0.13 o
5 10 2 2.26 2.12 0.15 o
6 10 2 3.06 2.81 0.21 o
7 10 2 11.41 10.40 0.49 o
1 11 2 0.77 0.76 0.18 o
2 11 2 3.70 3.40 0.26 o
3 11 2 6.56 8.06 0.40 o
4 11 2 4.55 4.86 0.59 o
5 11 2 0.93 0.78 0.37 o
2 0 3 1.87 1.45 0.17 o
4 0 3 35.59 36.19 0.52 o
6 0 3 15.40 15.32 0.39 o
8 0 3 83.83 83.97 1.91 o
10 0 3 5.27 5.24 0.37 o
0 1 3 0.42 0.61 0.12 o
1 1 3 21.74 21.70 0.33 o
2 1 3 107.83 110.54 1.19 o
3 1 3 40.28 38.65 0.38 o
4 1 3 4.79 4.87 0.19 o
5 1 3 5.19 5.22 0.17 o
6 1 3 25.62 25.30 0.34 o
7 1 3 4.51 5.24 0.19 o
8 1 3 19.45 19.09 0.42 o
9 1 3 1.08 0.80 0.15 o
10 1 3 6.67 5.64 0.30 o
11 1 3 3.24 3.05 0.27 o
1 2 3 40.80 39.40 0.34 o
2 2 3 3.78 4.34 0.13 o
3 2 3 56.59 52.61 0.43 o
4 2 3 21.77 22.40 0.30 o
5 2 3 30.08 30.53 0.35 o
6 2 3 0.66 0.83 0.09 o
7 2 3 5.59 5.84 0.19 o
8 2 3 14.91 15.73 0.30 o
9 2 3 2.44 2.79 0.21 o
10 2 3 0.29 0.41 0.17 o
11 2 3 2.79 2.87 0.49 o
12 2 3 2.89 2.58 0.49 o
0 3 3 3.94 4.32 0.15 o
1 3 3 17.46 17.83 0.23 o
2 3 3 12.74 12.82 0.26 o
3 3 3 42.71 41.28 0.36 o
4 3 3 8.24 8.98 0.26 o
5 3 3 1.53 1.40 0.11 o
6 3 3 0.53 0.60 0.09 o
7 3 3 1.25 1.55 0.12 o
8 3 3 0.27 0.32 0.10 o
9 3 3 8.02 8.46 0.28 o
10 3 3 2.39 2.72 0.22 o
11 3 3 1.96 1.73 0.49 o
12 3 3 4.03 4.50 0.60 o
1 4 3 11.98 12.06 0.18 o
2 4 3 2.97 3.02 0.12 o
3 4 3 26.63 26.61 0.30 o
4 4 3 0.26 0.43 0.09 o
5 4 3 1.50 1.41 0.11 o
6 4 3 1.90 1.98 0.12 o
7 4 3 25.70 26.27 0.37 o
8 4 3 10.82 11.81 0.29 o
9 4 3 10.08 10.51 0.33 o
10 4 3 1.87 1.59 0.25 o
11 4 3 0.19 -0.30 0.52 o
0 5 3 4.52 4.43 0.18 o
1 5 3 18.80 18.33 0.23 o
2 5 3 22.94 23.18 0.28 o
3 5 3 19.72 20.86 0.29 o
4 5 3 2.34 2.48 0.12 o
5 5 3 4.18 3.68 0.15 o
6 5 3 4.39 4.79 0.17 o
7 5 3 14.62 15.37 0.33 o
8 5 3 1.36 1.18 0.13 o
9 5 3 12.43 12.14 0.40 o
10 5 3 5.35 4.57 0.47 o
1 6 3 21.66 21.50 0.27 o
2 6 3 10.35 10.36 0.22 o
3 6 3 5.68 5.93 0.18 o
4 6 3 24.33 24.19 0.33 o
5 6 3 3.05 3.36 0.15 o
6 6 3 0.38 0.29 0.10 o
7 6 3 9.51 9.33 0.26 o
8 6 3 15.95 16.01 0.35 o
9 6 3 8.20 8.44 0.43 o
10 6 3 0.72 0.67 0.31 o
0 7 3 7.79 8.03 0.26 o
1 7 3 0.74 1.02 0.11 o
2 7 3 49.40 48.55 0.48 o
3 7 3 1.80 2.08 0.13 o
4 7 3 3.74 3.39 0.15 o
5 7 3 0.70 0.84 0.11 o
6 7 3 1.19 1.59 0.13 o
7 7 3 0.25 0.22 0.12 o
8 7 3 1.08 1.09 0.17 o
9 7 3 0.01 0.04 0.28 o
1 8 3 0.13 0.41 0.10 o
2 8 3 1.57 1.71 0.13 o
3 8 3 6.55 7.05 0.21 o
4 8 3 15.73 15.47 0.31 o
5 8 3 5.89 5.92 0.21 o
6 8 3 1.71 1.87 0.18 o
7 8 3 1.44 1.53 0.20 o
8 8 3 3.64 3.92 0.45 o
0 9 3 4.66 4.72 0.29 o
1 9 3 4.81 5.17 0.23 o
2 9 3 10.38 9.47 0.37 o
3 9 3 4.11 4.16 0.25 o
4 9 3 0.67 0.83 0.19 o
5 9 3 3.05 2.61 0.27 o
6 9 3 1.31 1.35 0.26 o
1 10 3 0.83 0.83 0.45 o
2 10 3 1.73 2.35 0.48 o
3 10 3 5.31 5.48 0.62 o
0 0 4 21.67 21.78 1.06 o
2 0 4 10.10 10.02 0.62 o
4 0 4 2.91 2.99 0.29 o
6 0 4 9.03 8.93 0.55 o
8 0 4 5.01 5.84 0.69 o
1 1 4 3.20 3.26 0.24 o
2 1 4 3.92 4.25 0.29 o
3 1 4 5.93 5.55 0.28 o
4 1 4 1.70 2.08 0.19 o
5 1 4 9.86 10.53 0.32 o
6 1 4 6.86 7.05 0.31 o
7 1 4 1.62 2.04 0.21 o
8 1 4 7.87 8.24 0.62 o
9 1 4 0.45 1.74 0.70 o
0 2 4 5.73 6.08 0.31 o
1 2 4 3.33 3.45 0.21 o
2 2 4 5.79 5.91 0.25 o
3 2 4 22.38 20.68 0.41 o
4 2 4 2.55 3.31 0.20 o
5 2 4 5.23 4.88 0.24 o
6 2 4 1.26 1.88 0.19 o
7 2 4 4.65 5.80 0.26 o
8 2 4 0.48 0.89 0.19 o
9 2 4 3.94 3.63 0.53 o
1 3 4 2.08 1.94 0.16 o
2 3 4 0.20 0.73 0.14 o
3 3 4 13.15 12.21 0.32 o
4 3 4 0.98 1.02 0.14 o
5 3 4 13.56 13.01 0.33 o
6 3 4 1.10 1.58 0.17 o
7 3 4 5.13 4.97 0.30 o
8 3 4 0.41 0.51 0.19 o
9 3 4 2.52 2.60 0.69 o
0 4 4 2.34 3.11 0.27 o
1 4 4 10.83 10.62 0.30 o
2 4 4 0.08 0.50 0.14 o
3 4 4 5.50 4.89 0.24 o
4 4 4 0.15 0.15 0.13 o
5 4 4 0.63 0.82 0.15 o
6 4 4 1.12 1.05 0.16 o
7 4 4 1.18 1.31 0.21 o
8 4 4 0.51 0.72 0.26 o
1 5 4 13.81 14.47 0.36 o
2 5 4 2.87 3.36 0.20 o
3 5 4 6.59 6.24 0.26 o
4 5 4 0.72 0.82 0.15 o
5 5 4 0.17 0.11 0.17 o
6 5 4 1.96 1.29 0.25 o
7 5 4 3.49 3.49 0.34 o
0 6 4 9.84 9.69 0.43 o
1 6 4 6.39 6.46 0.26 o
2 6 4 5.69 5.78 0.33 o
3 6 4 2.85 2.85 0.29 o
4 6 4 2.66 2.02 0.37 o
5 6 4 0.01 0.43 0.54 o
1 7 4 1.21 0.76 0.49 o
3 7 4 0.31 0.35 0.44 o
4 7 4 3.45 2.44 0.65 o
