#------------------------------------------------------------------------------
#$Date: 2019-11-22 19:03:52 +0200 (Fri, 22 Nov 2019) $
#$Revision: 231268 $
#$URL: file:///home/coder/svn-repositories/cod/cif/4/51/63/4516344.cif $
#------------------------------------------------------------------------------
#
# This file is available in the Crystallography Open Database (COD),
# http://www.crystallography.net/
#
# All data on this site have been placed in the public domain by the
# contributors.
#
data_4516344
loop_
_publ_author_name
'Patyk, Ewa'
'Podsiad\/lo, Marcin'
'Katrusiak, Andrzej'
_publ_section_title
;
 CH&#x00B7;&#x00B7;&#x00B7;N Bonds and Dynamics in Isostructural
 Pyrimidine Polymorphs
;
_journal_issue                   8
_journal_name_full               'Crystal Growth &amp; Design'
_journal_page_first              4039
_journal_paper_doi               10.1021/acs.cgd.5b00657
_journal_volume                  15
_journal_year                    2015
_chemical_formula_moiety         'C4 H4 N2'
_chemical_formula_sum            'C4 H4 N2'
_chemical_formula_weight         80.09
_chemical_melting_point          293.15
_chemical_name_common            pyrimidine
_chemical_name_systematic
; 
pyrimidine phase I
;
_space_group_IT_number           33
_space_group_name_Hall           'P 2c -2n'
_space_group_name_H-M_alt        'P n a 21'
_symmetry_cell_setting           orthorhombic
_symmetry_space_group_name_Hall  'P 2c -2n'
_symmetry_space_group_name_H-M   'P n a 21'
_atom_sites_solution_hydrogens   geom
_atom_sites_solution_primary     direct
_atom_sites_solution_secondary   difmap
_audit_creation_method           SHELXL-97
_cell_angle_alpha                90.00
_cell_angle_beta                 90.00
_cell_angle_gamma                90.00
_cell_formula_units_Z            4
_cell_length_a                   11.682(4)
_cell_length_b                   9.492(3)
_cell_length_c                   3.7897(12)
_cell_measurement_reflns_used    3052
_cell_measurement_temperature    250.0(1)
_cell_measurement_theta_max      27.99
_cell_measurement_theta_min      3.49
_cell_volume                     420.2(2)
_computing_cell_refinement       'CrysAlisRED (Oxford Diffraction, 2004)'
_computing_data_collection       'CrysAlisCCD (Oxford Diffraction, 2004)'
_computing_data_reduction        'CrysAlisRED (Oxford Diffraction, 2004)'
_computing_molecular_graphics    'SHELXTL (Sheldrick, 1990)'
_computing_publication_material  'SHELXL--97 (Sheldrick, 1997)'
_computing_structure_refinement  'SHELXL--97 (Sheldrick, 1997)'
_computing_structure_solution    'SHELXS--97 (Sheldrick, 1997)'
_diffrn_ambient_pressure         100
_diffrn_ambient_temperature      250.0(1)
_diffrn_measured_fraction_theta_full 0.920
_diffrn_measured_fraction_theta_max 0.920
_diffrn_measurement_device_type  'KM-4 CCD'
_diffrn_measurement_method       \w-scans
_diffrn_radiation_monochromator  graphite
_diffrn_radiation_source         'fine-focus sealed tube'
_diffrn_radiation_type           MoK\a
_diffrn_radiation_wavelength     0.71073
_diffrn_reflns_av_R_equivalents  0.0607
_diffrn_reflns_av_sigmaI/netI    0.0584
_diffrn_reflns_limit_h_max       14
_diffrn_reflns_limit_h_min       -14
_diffrn_reflns_limit_k_max       11
_diffrn_reflns_limit_k_min       -11
_diffrn_reflns_limit_l_max       4
_diffrn_reflns_limit_l_min       -4
_diffrn_reflns_number            3052
_diffrn_reflns_theta_full        27.99
_diffrn_reflns_theta_max         27.99
_diffrn_reflns_theta_min         3.49
_diffrn_standards_decay_%        0
_diffrn_standards_interval_count 0
_diffrn_standards_number         0
_exptl_absorpt_coefficient_mu    0.083
_exptl_absorpt_correction_T_max  0.984
_exptl_absorpt_correction_T_min  0.984
_exptl_absorpt_correction_type   numerical
_exptl_absorpt_process_details
; 
 Correction for absorption was made using XEMP (SHELXTL, 
 Sheldrick (1990)).
;
_exptl_crystal_colour            colourless
_exptl_crystal_density_diffrn    1.266
_exptl_crystal_density_method    'not measured'
_exptl_crystal_description       irregular
_exptl_crystal_F_000             168
_exptl_crystal_size_max          0.20
_exptl_crystal_size_mid          0.20
_exptl_crystal_size_min          0.20
_refine_diff_density_max         0.113
_refine_diff_density_min         -0.141
_refine_diff_density_rms         0.031
_refine_ls_abs_structure_details 'Flack H D (1983), Acta Cryst. A39, 876-881'
_refine_ls_abs_structure_Flack   10(7)
_refine_ls_extinction_coef       0.056(8)
_refine_ls_extinction_expression Fc^*^=kFc[1+0.001xFc^2^\l^3^/sin(2\q)]^-1/4^
_refine_ls_extinction_method     SHELXL
_refine_ls_goodness_of_fit_ref   1.033
_refine_ls_hydrogen_treatment    constr
_refine_ls_matrix_type           full
_refine_ls_number_parameters     56
_refine_ls_number_reflns         884
_refine_ls_number_restraints     1
_refine_ls_restrained_S_all      1.033
_refine_ls_R_factor_all          0.1053
_refine_ls_R_factor_gt           0.0505
_refine_ls_shift/su_max          0.000
_refine_ls_shift/su_mean         0.000
_refine_ls_structure_factor_coef Fsqd
_refine_ls_weighting_details
'calc w=1/[\s^2^(Fo^2^)+(0.0370P)^2^+0.0000P] where P=(Fo^2^+2Fc^2^)/3'
_refine_ls_weighting_scheme      calc
_refine_ls_wR_factor_gt          0.1007
_refine_ls_wR_factor_ref         0.1268
_reflns_number_gt                520
_reflns_number_total             884
_reflns_threshold_expression     >2sigma(I)
_cod_data_source_file            cg5b00657_si_002.cif
_cod_data_source_block           phaseI_250K
_cod_database_code               4516344
loop_
_symmetry_equiv_pos_as_xyz
'x, y, z'
'-x, -y, z+1/2'
'x+1/2, -y+1/2, z'
'-x+1/2, y+1/2, z+1/2'
loop_
_atom_site_label
_atom_site_type_symbol
_atom_site_fract_x
_atom_site_fract_y
_atom_site_fract_z
_atom_site_U_iso_or_equiv
_atom_site_adp_type
_atom_site_occupancy
_atom_site_symmetry_multiplicity
_atom_site_calc_flag
_atom_site_refinement_flags
N1 N 0.1278(2) 0.3966(2) 0.0249(11) 0.0630(9) Uani 1 1 d .
N3 N 0.0118(2) 0.1909(3) 0.0154(8) 0.0643(10) Uani 1 1 d .
C2 C 0.0313(2) 0.3257(3) 0.0718(14) 0.0604(11) Uani 1 1 d .
H2 H -0.0305 0.3777 0.1552 0.073 Uiso 1 1 calc R
C4 C 0.1018(3) 0.1194(3) -0.1027(11) 0.0635(11) Uani 1 1 d .
H4 H 0.0932 0.0236 -0.1467 0.076 Uiso 1 1 calc R
C5 C 0.2062(3) 0.1792(3) -0.1628(9) 0.0594(10) Uani 1 1 d .
H5 H 0.2681 0.1270 -0.2451 0.071 Uiso 1 1 calc R
C6 C 0.2147(3) 0.3203(3) -0.0951(8) 0.0626(13) Uani 1 1 d .
H6 H 0.2844 0.3648 -0.1348 0.075 Uiso 1 1 calc R
loop_
_atom_site_aniso_label
_atom_site_aniso_U_11
_atom_site_aniso_U_22
_atom_site_aniso_U_33
_atom_site_aniso_U_23
_atom_site_aniso_U_13
_atom_site_aniso_U_12
N1 0.0551(15) 0.0457(14) 0.088(2) -0.0063(17) -0.0046(18) -0.0032(13)
N3 0.0523(15) 0.0493(15) 0.091(3) -0.002(2) 0.0001(16) -0.0046(13)
C2 0.0477(18) 0.053(2) 0.081(3) -0.008(2) -0.001(2) 0.0091(15)
C4 0.067(2) 0.0436(18) 0.080(3) -0.0087(18) -0.0085(17) 0.0023(17)
C5 0.0520(19) 0.059(2) 0.067(3) -0.010(2) -0.0032(17) 0.0077(17)
C6 0.0471(17) 0.063(2) 0.078(3) -0.005(2) 0.0011(16) -0.0070(16)
loop_
_atom_type_symbol
_atom_type_description
_atom_type_scat_dispersion_real
_atom_type_scat_dispersion_imag
_atom_type_scat_source
C C 0.0033 0.0016 'International Tables Vol C Tables 4.2.6.8 and 6.1.1.4'
H H 0.0000 0.0000 'International Tables Vol C Tables 4.2.6.8 and 6.1.1.4'
N N 0.0061 0.0033 'International Tables Vol C Tables 4.2.6.8 and 6.1.1.4'
loop_
_geom_angle_atom_site_label_1
_geom_angle_atom_site_label_2
_geom_angle_atom_site_label_3
_geom_angle
C2 N1 C6 114.8(3)
C2 N3 C4 114.5(3)
N3 C2 N1 128.2(3)
N3 C4 C5 123.4(3)
C4 C5 C6 116.2(3)
N1 C6 C5 122.9(3)
loop_
_geom_bond_atom_site_label_1
_geom_bond_atom_site_label_2
_geom_bond_distance
N1 C2 1.324(4)
N1 C6 1.328(4)
N3 C2 1.317(3)
N3 C4 1.329(4)
C4 C5 1.365(4)
C5 C6 1.367(4)
loop_
_refln_index_h
_refln_index_k
_refln_index_l
_refln_F_squared_calc
_refln_F_squared_meas
_refln_F_squared_sigma
_refln_observed_status
0 0 -4 5.15 4.77 1.44 o
2 0 -4 3.62 1.33 0.72 o
4 0 -4 0.71 -0.04 1.32 o
6 0 -4 2.31 1.35 1.52 o
8 0 -4 1.18 -0.49 1.78 o
1 1 -4 1.06 -0.05 0.56 o
2 1 -4 1.11 0.82 0.43 o
3 1 -4 1.62 1.11 0.89 o
4 1 -4 0.76 0.69 0.68 o
5 1 -4 2.43 2.62 1.01 o
6 1 -4 1.71 1.08 0.79 o
7 1 -4 0.31 0.26 0.92 o
8 1 -4 2.15 -1.49 1.49 o
0 2 -4 1.58 0.37 0.83 o
1 2 -4 1.19 0.07 0.57 o
2 2 -4 1.89 0.99 0.70 o
3 2 -4 6.46 6.72 0.84 o
4 2 -4 0.45 1.81 0.62 o
5 2 -4 1.12 1.61 1.06 o
6 2 -4 0.30 1.40 1.17 o
7 2 -4 0.83 -0.42 1.23 o
1 3 -4 0.44 -0.05 0.78 o
2 3 -4 0.03 0.78 1.17 o
3 3 -4 3.49 3.23 0.99 o
4 3 -4 0.23 0.83 1.00 o
5 3 -4 3.27 2.75 0.86 o
6 3 -4 0.16 1.06 1.15 o
7 3 -4 1.19 -2.12 2.12 o
0 4 -4 0.65 -1.12 1.12 o
1 4 -4 2.91 2.57 0.98 o
2 4 -4 0.02 2.13 0.95 o
3 4 -4 1.54 2.54 0.91 o
4 4 -4 0.02 -0.23 1.61 o
5 4 -4 0.09 -0.48 1.12 o
6 4 -4 0.27 -1.38 1.38 o
7 4 -4 0.23 -0.74 2.12 o
1 5 -4 3.29 7.87 1.83 o
2 5 -4 0.85 3.88 1.27 o
3 5 -4 1.81 3.87 1.30 o
4 5 -4 0.31 0.73 1.69 o
5 5 -4 0.07 -2.31 2.31 o
6 5 -4 0.39 1.66 1.47 o
0 6 -4 2.57 4.16 2.66 o
1 6 -4 1.92 6.77 2.45 o
2 6 -4 1.62 -0.86 1.34 o
3 6 -4 0.72 -0.09 1.21 o
4 6 -4 0.37 -3.22 3.22 o
2 0 -3 2.14 1.29 0.81 o
4 0 -3 19.19 21.90 2.11 o
6 0 -3 6.07 5.63 1.57 o
8 0 -3 33.45 43.55 8.37 o
10 0 -3 1.60 2.12 2.16 o
0 1 -3 0.10 -0.02 0.81 o
1 1 -3 10.90 11.23 1.21 o
2 1 -3 55.44 53.16 2.36 o
3 1 -3 18.69 17.05 1.22 o
4 1 -3 1.65 1.64 0.58 o
5 1 -3 2.02 3.55 0.65 o
6 1 -3 9.81 13.78 1.68 o
7 1 -3 1.46 2.34 0.74 o
8 1 -3 7.49 8.99 3.20 o
9 1 -3 0.26 3.25 1.78 o
10 1 -3 3.09 0.86 1.02 o
11 1 -3 0.84 -0.70 2.56 o
1 2 -3 20.59 22.92 1.71 o
2 2 -3 1.85 1.59 0.60 o
3 2 -3 25.31 27.62 1.68 o
4 2 -3 10.89 13.63 1.30 o
5 2 -3 12.22 13.40 1.58 o
6 2 -3 0.16 0.21 0.99 o
7 2 -3 1.74 2.70 1.17 o
8 2 -3 5.99 6.59 1.50 o
9 2 -3 0.63 -0.09 2.20 o
10 2 -3 0.03 0.89 2.92 o
0 3 -3 2.18 0.54 0.66 o
1 3 -3 9.09 9.75 0.97 o
2 3 -3 5.84 7.16 1.07 o
3 3 -3 19.27 20.17 1.64 o
4 3 -3 4.12 2.80 0.87 o
5 3 -3 0.45 1.99 0.67 o
6 3 -3 0.24 1.11 1.01 o
7 3 -3 0.32 -0.89 1.69 o
8 3 -3 0.06 -0.22 1.14 o
9 3 -3 2.12 2.83 2.00 o
10 3 -3 0.70 2.26 2.16 o
1 4 -3 4.28 6.17 1.22 o
2 4 -3 1.84 2.46 1.33 o
3 4 -3 11.21 10.71 2.56 o
4 4 -3 0.24 2.64 1.91 o
5 4 -3 0.71 -1.21 1.21 o
6 4 -3 0.73 0.62 0.90 o
7 4 -3 9.74 8.47 1.72 o
8 4 -3 3.77 5.05 1.28 o
9 4 -3 3.08 0.88 1.17 o
0 5 -3 2.11 1.39 1.19 o
1 5 -3 8.02 12.22 1.98 o
2 5 -3 9.94 16.36 2.34 o
3 5 -3 7.75 9.60 1.81 o
4 5 -3 0.66 0.75 0.78 o
5 5 -3 1.55 2.84 0.96 o
6 5 -3 1.32 2.43 0.99 o
7 5 -3 4.94 6.80 1.58 o
8 5 -3 0.47 3.71 2.05 o
9 5 -3 3.99 7.90 3.71 o
1 6 -3 8.82 18.58 3.97 o
2 6 -3 4.22 5.07 2.56 o
3 6 -3 3.21 0.65 1.27 o
4 6 -3 9.87 9.57 2.27 o
5 6 -3 1.14 0.04 0.97 o
6 6 -3 0.03 -0.53 0.82 o
7 6 -3 3.80 1.81 2.77 o
8 6 -3 5.28 9.75 3.84 o
1 7 -3 0.78 2.18 2.29 o
2 7 -3 18.13 21.31 4.97 o
3 7 -3 0.82 0.02 0.99 o
4 7 -3 1.49 -0.79 6.10 o
5 7 -3 0.17 -0.07 2.70 o
6 7 -3 0.30 0.76 0.89 o
7 7 -3 0.13 0.84 1.23 o
8 7 -3 0.34 4.21 2.97 o
2 8 -3 0.58 -0.41 1.80 o
3 8 -3 1.46 3.41 1.45 o
4 8 -3 5.36 2.77 3.04 o
5 8 -3 1.56 5.13 3.30 o
6 8 -3 0.40 -2.88 2.88 o
7 8 -3 0.27 4.42 3.18 o
2 9 -3 3.07 0.67 1.23 o
0 0 -2 573.95 546.12 18.75 o
2 0 -2 474.67 458.57 10.84 o
4 0 -2 2.06 2.47 0.48 o
6 0 -2 57.36 67.87 3.55 o
8 0 -2 46.48 41.19 4.80 o
10 0 -2 26.43 23.82 3.16 o
12 0 -2 2.22 2.39 2.91 o
1 1 -2 85.24 76.03 2.21 o
2 1 -2 96.15 89.41 1.86 o
3 1 -2 44.53 43.33 1.25 o
4 1 -2 86.58 95.82 1.96 o
5 1 -2 14.48 15.74 1.09 o
6 1 -2 9.93 12.38 1.15 o
7 1 -2 0.38 0.48 0.58 o
8 1 -2 76.48 90.42 4.29 o
9 1 -2 1.68 1.49 0.71 o
10 1 -2 13.88 13.83 1.87 o
11 1 -2 5.40 6.94 2.16 o
12 1 -2 1.88 3.06 2.33 o
13 1 -2 2.46 0.88 1.20 o
0 2 -2 33.06 35.72 2.53 o
1 2 -2 113.67 118.27 2.58 o
2 2 -2 163.38 166.26 3.29 o
3 2 -2 79.34 84.73 2.14 o
4 2 -2 50.68 52.90 1.75 o
5 2 -2 4.17 4.79 0.71 o
6 2 -2 12.41 14.16 1.37 o
7 2 -2 1.91 1.92 0.59 o
8 2 -2 4.37 6.33 1.13 o
9 2 -2 3.10 2.85 0.75 o
10 2 -2 3.14 1.05 0.92 o
11 2 -2 6.41 5.48 1.85 o
12 2 -2 2.33 1.40 3.17 o
13 2 -2 4.78 4.55 2.46 o
1 3 -2 48.27 54.49 1.87 o
2 3 -2 52.31 56.57 3.12 o
3 3 -2 45.08 46.26 2.06 o
4 3 -2 17.19 17.38 1.37 o
5 3 -2 0.72 0.90 0.48 o
6 3 -2 19.91 21.20 1.58 o
7 3 -2 10.84 11.85 1.20 o
8 3 -2 1.24 2.38 0.68 o
9 3 -2 0.11 1.39 0.86 o
10 3 -2 1.29 0.41 1.19 o
11 3 -2 7.06 7.02 3.44 o
12 3 -2 1.74 2.66 1.49 o
13 3 -2 4.76 0.49 1.20 o
0 4 -2 52.19 60.80 3.09 o
1 4 -2 4.79 6.04 0.67 o
2 4 -2 6.62 7.39 0.98 o
3 4 -2 15.82 15.70 1.74 o
4 4 -2 24.69 25.39 2.02 o
5 4 -2 9.55 10.38 1.21 o
6 4 -2 3.77 3.55 0.76 o
7 4 -2 12.11 16.75 1.63 o
8 4 -2 2.62 1.79 0.81 o
9 4 -2 4.66 5.27 1.32 o
10 4 -2 5.60 6.83 2.21 o
11 4 -2 0.68 0.75 1.12 o
12 4 -2 1.38 0.60 1.64 o
13 4 -2 0.73 0.05 2.82 o
1 5 -2 23.32 27.10 1.91 o
2 5 -2 10.85 11.47 1.51 o
3 5 -2 8.92 8.61 1.41 o
4 5 -2 16.06 13.75 2.40 o
5 5 -2 13.36 14.83 2.02 o
6 5 -2 3.01 3.08 0.83 o
7 5 -2 35.73 39.84 3.34 o
8 5 -2 17.83 22.78 3.14 o
9 5 -2 5.78 4.96 2.46 o
10 5 -2 1.45 0.24 1.58 o
11 5 -2 0.11 1.67 1.19 o
12 5 -2 0.20 -0.40 2.06 o
0 6 -2 7.62 6.43 1.85 o
1 6 -2 5.66 8.50 1.33 o
2 6 -2 66.79 71.22 4.19 o
3 6 -2 13.13 12.62 1.91 o
4 6 -2 32.04 35.40 2.85 o
5 6 -2 3.21 3.22 0.96 o
6 6 -2 3.82 2.11 1.53 o
7 6 -2 8.50 10.29 2.11 o
8 6 -2 1.59 0.73 0.81 o
9 6 -2 4.81 4.90 5.01 o
10 6 -2 3.72 3.47 1.84 o
11 6 -2 0.19 -1.52 1.54 o
1 7 -2 5.60 5.23 1.35 o
2 7 -2 9.09 8.28 1.61 o
3 7 -2 6.07 4.29 2.59 o
4 7 -2 35.66 36.27 5.35 o
5 7 -2 2.30 3.16 0.96 o
6 7 -2 18.15 22.16 3.12 o
7 7 -2 1.19 1.92 1.23 o
8 7 -2 11.32 13.43 8.89 o
9 7 -2 0.22 1.58 1.67 o
10 7 -2 0.33 -0.57 3.15 o
11 7 -2 0.18 4.52 3.81 o
0 8 -2 2.11 -0.20 0.93 o
1 8 -2 0.83 -1.15 1.15 o
2 8 -2 33.13 31.28 3.98 o
3 8 -2 0.22 0.09 1.08 o
4 8 -2 15.53 17.74 5.87 o
5 8 -2 4.49 4.83 3.09 o
6 8 -2 3.10 1.45 3.41 o
7 8 -2 3.77 4.72 2.66 o
8 8 -2 1.89 -0.21 2.15 o
9 8 -2 0.38 -0.36 1.67 o
1 9 -2 0.63 2.62 1.89 o
2 9 -2 1.25 0.06 1.19 o
3 9 -2 3.10 2.88 3.32 o
4 9 -2 4.81 6.63 3.58 o
5 9 -2 5.77 6.95 3.43 o
6 9 -2 1.40 0.54 1.99 o
7 9 -2 2.29 1.09 2.63 o
8 9 -2 1.67 1.89 4.50 o
0 10 -2 7.23 8.09 3.62 o
1 10 -2 1.17 5.02 2.43 o
2 10 -2 1.64 -1.38 2.30 o
3 10 -2 0.91 0.74 1.43 o
4 10 -2 0.46 5.08 2.89 o
5 10 -2 1.00 -0.48 2.15 o
6 10 -2 1.03 1.34 1.40 o
1 11 -2 0.12 -0.69 1.69 o
2 11 -2 1.30 1.22 1.92 o
2 0 -1 2325.24 2262.45 15.49 o
4 0 -1 112.65 104.59 5.39 o
6 0 -1 62.23 67.12 5.32 o
8 0 -1 96.44 88.64 7.08 o
10 0 -1 121.83 130.63 9.80 o
12 0 -1 9.95 10.77 3.32 o
14 0 -1 0.58 -0.50 1.17 o
0 1 -1 5609.51 5833.59 56.80 o
1 1 -1 146.94 141.84 2.31 o
2 1 -1 776.11 751.07 18.80 o
3 1 -1 50.06 51.07 1.40 o
4 1 -1 177.32 169.29 4.45 o
5 1 -1 17.09 18.50 1.31 o
6 1 -1 66.49 70.54 3.47 o
7 1 -1 4.42 5.55 1.07 o
8 1 -1 46.92 42.01 2.87 o
9 1 -1 19.13 20.97 2.74 o
10 1 -1 45.57 46.61 4.14 o
11 1 -1 2.68 3.22 1.35 o
12 1 -1 14.28 10.74 2.23 o
13 1 -1 4.87 4.97 1.65 o
14 1 -1 3.51 5.19 2.04 o
1 2 -1 229.66 235.60 5.44 o
2 2 -1 13.86 15.21 1.03 o
3 2 -1 88.14 81.62 2.30 o
4 2 -1 94.74 95.13 2.98 o
5 2 -1 9.74 10.63 0.96 o
6 2 -1 192.42 197.90 5.93 o
7 2 -1 3.70 2.16 1.12 o
8 2 -1 22.63 21.13 2.02 o
9 2 -1 4.32 4.51 1.39 o
10 2 -1 16.75 19.10 2.76 o
11 2 -1 40.66 38.38 4.15 o
12 2 -1 2.84 -1.25 1.25 o
13 2 -1 5.47 4.47 1.80 o
14 2 -1 1.98 3.25 2.74 o
0 3 -1 134.90 138.79 4.56 o
1 3 -1 76.22 79.24 2.30 o
2 3 -1 17.16 17.63 1.13 o
3 3 -1 13.12 13.25 0.91 o
4 3 -1 400.78 402.11 4.95 o
5 3 -1 3.31 3.64 0.64 o
6 3 -1 27.16 28.65 1.86 o
7 3 -1 2.11 2.62 0.78 o
8 3 -1 9.62 11.52 1.56 o
9 3 -1 7.18 7.16 1.66 o
10 3 -1 0.66 2.22 1.05 o
11 3 -1 4.08 2.19 1.63 o
12 3 -1 3.35 5.92 1.76 o
13 3 -1 3.72 1.72 1.58 o
14 3 -1 1.15 1.52 2.69 o
1 4 -1 45.74 48.45 2.39 o
2 4 -1 290.12 270.65 5.94 o
3 4 -1 2.16 2.11 0.82 o
4 4 -1 4.23 5.13 1.46 o
5 4 -1 14.65 13.30 1.32 o
6 4 -1 23.79 29.41 2.22 o
7 4 -1 52.38 52.96 4.69 o
8 4 -1 5.82 3.91 1.48 o
9 4 -1 6.91 6.69 1.32 o
10 4 -1 8.98 10.91 2.25 o
11 4 -1 5.66 7.01 1.94 o
12 4 -1 1.68 2.30 2.04 o
13 4 -1 1.73 2.49 1.36 o
0 5 -1 322.43 328.14 14.66 o
1 5 -1 4.48 3.46 1.02 o
2 5 -1 57.90 62.68 3.01 o
3 5 -1 13.08 11.90 1.41 o
4 5 -1 16.79 14.20 1.48 o
5 5 -1 37.86 33.27 2.08 o
6 5 -1 3.61 3.85 1.28 o
7 5 -1 15.47 18.70 3.06 o
8 5 -1 0.93 0.80 1.44 o
9 5 -1 8.68 7.30 1.96 o
10 5 -1 9.15 10.10 2.12 o
11 5 -1 0.41 2.12 1.35 o
12 5 -1 4.43 5.70 1.83 o
13 5 -1 0.66 2.83 1.89 o
1 6 -1 23.75 23.17 2.49 o
2 6 -1 5.87 7.00 1.39 o
3 6 -1 6.71 4.48 1.17 o
4 6 -1 33.20 33.05 3.38 o
5 6 -1 20.69 19.75 2.48 o
6 6 -1 130.71 137.15 7.94 o
7 6 -1 27.45 26.95 3.69 o
8 6 -1 15.00 14.75 2.73 o
9 6 -1 1.36 1.41 1.50 o
10 6 -1 5.29 3.93 1.38 o
11 6 -1 0.25 3.69 1.97 o
12 6 -1 1.88 3.71 1.79 o
0 7 -1 23.90 22.93 3.85 o
1 7 -1 3.19 1.93 1.22 o
2 7 -1 47.38 44.99 3.87 o
3 7 -1 3.84 3.79 0.95 o
4 7 -1 195.54 210.29 12.43 o
5 7 -1 2.40 1.80 1.73 o
6 7 -1 17.83 20.32 3.27 o
7 7 -1 6.62 4.53 1.77 o
8 7 -1 6.71 6.60 2.17 o
9 7 -1 0.81 -0.38 1.73 o
10 7 -1 3.27 4.11 2.01 o
11 7 -1 0.01 -0.32 2.09 o
1 8 -1 0.36 -0.10 1.34 o
2 8 -1 2.07 0.01 1.00 o
3 8 -1 17.37 19.73 2.72 o
4 8 -1 22.03 24.80 4.45 o
5 8 -1 5.67 7.23 2.35 o
6 8 -1 58.25 67.12 6.15 o
7 8 -1 2.01 2.47 1.18 o
8 8 -1 5.65 3.56 1.60 o
9 8 -1 0.73 -0.72 1.35 o
10 8 -1 5.19 7.91 2.24 o
0 9 -1 32.39 31.30 5.23 o
1 9 -1 0.51 2.03 1.03 o
2 9 -1 9.84 7.39 1.91 o
3 9 -1 2.04 1.97 1.33 o
4 9 -1 13.17 15.71 3.99 o
5 9 -1 9.75 12.17 3.31 o
6 9 -1 5.42 3.89 1.88 o
7 9 -1 4.42 3.51 2.14 o
8 9 -1 4.29 4.31 1.53 o
9 9 -1 0.54 2.45 1.78 o
1 10 -1 2.36 2.13 1.04 o
2 10 -1 9.48 9.64 2.06 o
3 10 -1 0.40 0.44 1.15 o
4 10 -1 0.12 -0.29 4.12 o
5 10 -1 4.31 3.08 2.75 o
6 10 -1 1.81 2.34 2.30 o
7 10 -1 1.40 0.75 2.32 o
0 11 -1 7.47 8.70 3.58 o
1 11 -1 2.05 1.01 1.65 o
2 11 -1 1.05 4.89 1.70 o
3 11 -1 1.25 -0.30 2.47 o
4 11 -1 2.69 5.86 3.12 o
5 11 -1 0.19 -4.79 4.79 o
2 0 0 108.50 126.05 4.21 o
4 0 0 287.04 298.42 9.44 o
6 0 0 29.03 24.72 3.21 o
8 0 0 103.98 104.55 7.76 o
10 0 0 88.45 91.93 8.31 o
12 0 0 45.11 44.52 6.53 o
14 0 0 2.30 2.81 3.17 o
2 1 0 2679.28 2686.57 32.91 o
3 1 0 32.78 40.24 1.61 o
4 1 0 4.08 5.17 0.56 o
5 1 0 0.02 0.08 0.43 o
6 1 0 219.12 214.05 7.21 o
7 1 0 20.33 23.29 2.27 o
8 1 0 6.22 5.32 1.38 o
9 1 0 1.85 3.66 1.27 o
10 1 0 137.38 150.43 7.60 o
11 1 0 32.26 31.50 3.66 o
12 1 0 11.74 10.04 1.94 o
13 1 0 1.10 0.03 0.93 o
14 1 0 0.22 0.29 1.51 o
0 2 0 1784.59 1716.74 47.05 o
1 2 0 29.73 29.17 1.14 o
2 2 0 15.28 15.80 0.94 o
3 2 0 0.24 0.03 0.40 o
4 2 0 945.58 914.95 19.00 o
5 2 0 24.38 24.78 2.48 o
6 2 0 75.44 81.37 4.91 o
7 2 0 1.88 1.83 0.96 o
8 2 0 0.04 -0.60 0.82 o
9 2 0 53.06 56.99 4.49 o
10 2 0 19.46 17.74 2.64 o
11 2 0 0.03 0.87 1.13 o
12 2 0 3.22 3.95 1.96 o
13 2 0 10.09 6.95 2.80 o
14 2 0 2.19 2.65 1.38 o
1 3 0 8.14 12.90 1.42 o
2 3 0 462.89 453.43 8.85 o
3 3 0 7.86 7.04 0.75 o
4 3 0 31.49 30.85 2.68 o
5 3 0 11.07 12.37 1.85 o
6 3 0 328.68 354.64 13.47 o
7 3 0 4.71 4.84 1.61 o
8 3 0 3.98 4.47 1.50 o
9 3 0 12.71 13.95 2.14 o
10 3 0 0.09 0.21 0.86 o
11 3 0 39.65 42.37 4.37 o
12 3 0 0.05 1.78 1.47 o
13 3 0 1.42 1.07 1.07 o
14 3 0 2.82 2.70 1.35 o
0 4 0 1217.03 1186.31 22.77 o
1 4 0 7.25 7.21 1.24 o
2 4 0 0.62 0.52 0.56 o
3 4 0 1.76 1.34 0.98 o
4 4 0 123.06 116.39 3.05 o
5 4 0 56.15 58.33 2.96 o
6 4 0 10.12 8.82 1.88 o
7 4 0 1.43 0.79 1.20 o
8 4 0 12.83 11.78 2.86 o
9 4 0 0.00 -1.11 1.14 o
10 4 0 2.86 3.73 1.09 o
11 4 0 0.91 2.54 1.06 o
12 4 0 9.90 8.01 2.92 o
13 4 0 0.03 -0.11 1.15 o
1 5 0 73.12 79.96 4.19 o
2 5 0 138.02 131.35 3.66 o
3 5 0 0.48 0.24 0.26 o
4 5 0 0.05 -0.50 0.83 o
5 5 0 16.91 18.01 2.69 o
6 5 0 46.51 43.66 4.20 o
7 5 0 67.80 61.63 5.32 o
8 5 0 0.94 1.85 1.06 o
9 5 0 5.62 6.87 2.17 o
10 5 0 15.17 13.53 3.05 o
11 5 0 0.03 0.13 1.13 o
12 5 0 3.44 3.55 1.40 o
13 5 0 0.17 0.43 1.81 o
0 6 0 211.79 218.76 11.36 o
1 6 0 0.29 -0.73 0.83 o
2 6 0 0.79 2.37 1.12 o
3 6 0 1.06 -0.40 0.98 o
4 6 0 284.35 279.00 13.09 o
5 6 0 9.25 9.56 2.44 o
6 6 0 15.90 16.23 2.87 o
7 6 0 5.59 4.16 1.67 o
8 6 0 11.49 14.57 2.72 o
9 6 0 6.35 6.50 2.06 o
10 6 0 7.48 2.77 1.36 o
11 6 0 0.11 -0.08 1.53 o
12 6 0 3.88 5.14 1.88 o
1 7 0 1.29 3.47 1.09 o
2 7 0 9.48 7.28 1.56 o
3 7 0 25.53 27.11 3.06 o
4 7 0 11.45 9.19 2.26 o
5 7 0 23.31 26.63 4.44 o
6 7 0 254.21 263.41 11.72 o
7 7 0 1.47 0.57 1.06 o
8 7 0 1.56 0.95 1.17 o
9 7 0 0.36 -1.22 1.22 o
10 7 0 8.48 10.23 2.66 o
11 7 0 0.01 -0.46 1.18 o
0 8 0 39.75 34.24 4.71 o
1 8 0 4.01 4.60 1.57 o
2 8 0 1.09 0.33 0.94 o
3 8 0 0.33 -0.05 1.03 o
4 8 0 154.53 156.77 9.22 o
5 8 0 18.35 19.91 4.04 o
6 8 0 23.16 23.66 3.71 o
7 8 0 4.80 1.31 1.81 o
8 8 0 0.69 -0.10 1.03 o
9 8 0 0.15 -1.44 1.58 o
10 8 0 2.77 2.85 1.35 o
1 9 0 2.45 1.92 0.95 o
2 9 0 4.70 2.88 1.33 o
3 9 0 8.44 8.36 2.46 o
4 9 0 2.18 0.49 1.23 o
5 9 0 0.06 -1.14 4.61 o
6 9 0 13.02 10.77 2.75 o
7 9 0 4.56 0.84 1.82 o
8 9 0 0.19 0.65 1.96 o
9 9 0 0.00 2.34 2.30 o
0 10 0 42.52 42.45 6.36 o
1 10 0 1.34 2.88 1.11 o
2 10 0 1.86 1.81 1.37 o
3 10 0 5.82 5.12 1.68 o
4 10 0 0.08 0.25 1.83 o
5 10 0 2.45 2.69 2.50 o
6 10 0 0.80 4.91 1.93 o
7 10 0 0.68 0.78 1.52 o
1 11 0 1.55 3.97 1.58 o
2 11 0 6.83 9.48 2.43 o
3 11 0 1.52 2.51 1.19 o
4 11 0 0.54 0.10 1.49 o
5 11 0 3.53 1.23 1.12 o
2 0 1 2324.73 2308.92 30.44 o
4 0 1 112.64 109.23 5.46 o
6 0 1 62.28 61.33 4.98 o
8 0 1 96.53 99.71 7.57 o
10 0 1 121.81 138.07 10.23 o
12 0 1 9.94 12.83 3.56 o
14 0 1 0.58 -1.51 1.51 o
0 1 1 5608.57 5762.32 49.98 o
1 1 1 147.03 142.41 4.46 o
2 1 1 776.56 712.15 15.23 o
3 1 1 50.14 48.09 2.19 o
4 1 1 177.30 177.25 4.46 o
5 1 1 17.09 17.70 1.49 o
6 1 1 66.56 65.58 3.00 o
7 1 1 4.43 5.42 0.98 o
8 1 1 46.94 41.47 3.53 o
9 1 1 19.13 19.47 2.57 o
10 1 1 45.54 47.37 4.21 o
11 1 1 2.68 4.08 1.29 o
12 1 1 14.28 14.94 2.67 o
13 1 1 4.87 4.45 1.72 o
14 1 1 3.51 2.97 1.58 o
1 2 1 229.65 217.88 5.30 o
2 2 1 13.87 11.10 1.30 o
3 2 1 88.17 84.04 2.78 o
4 2 1 94.78 96.13 2.79 o
5 2 1 9.77 9.04 0.95 o
6 2 1 192.38 207.83 6.25 o
7 2 1 3.70 3.11 0.87 o
8 2 1 22.65 20.99 2.03 o
9 2 1 4.32 5.66 1.34 o
10 2 1 16.74 19.38 2.67 o
11 2 1 40.65 41.02 4.26 o
12 2 1 2.85 3.29 1.54 o
13 2 1 5.48 7.81 2.02 o
14 2 1 1.98 2.66 1.65 o
0 3 1 134.84 141.55 6.38 o
1 3 1 76.22 77.02 2.80 o
2 3 1 17.17 16.46 1.48 o
3 3 1 13.13 10.50 1.43 o
4 3 1 400.70 389.62 13.67 o
5 3 1 3.31 3.11 0.83 o
6 3 1 27.14 27.17 2.97 o
7 3 1 2.11 1.06 0.98 o
8 3 1 9.62 10.34 1.55 o
9 3 1 7.18 8.58 1.68 o
10 3 1 0.67 -0.75 1.04 o
11 3 1 4.08 1.89 0.82 o
12 3 1 3.36 2.15 1.55 o
13 3 1 3.71 3.61 1.81 o
14 3 1 1.15 1.38 2.65 o
1 4 1 45.69 48.34 2.46 o
2 4 1 290.08 274.18 6.13 o
3 4 1 2.16 0.38 0.97 o
4 4 1 4.23 2.93 1.53 o
5 4 1 14.62 13.15 2.19 o
6 4 1 23.78 28.30 4.44 o
7 4 1 52.39 50.12 4.46 o
8 4 1 5.82 4.15 1.67 o
9 4 1 6.92 6.32 2.01 o
10 4 1 8.98 7.84 1.93 o
11 4 1 5.66 4.71 1.46 o
12 4 1 1.68 4.63 1.62 o
13 4 1 1.73 3.79 1.87 o
0 5 1 322.37 310.66 11.73 o
1 5 1 4.49 3.59 0.94 o
2 5 1 57.94 57.59 3.00 o
3 5 1 13.10 12.77 1.60 o
4 5 1 16.78 12.02 2.44 o
5 5 1 37.86 35.33 3.56 o
6 5 1 3.62 2.50 1.21 o
7 5 1 15.47 13.22 2.45 o
8 5 1 0.93 2.38 1.35 o
9 5 1 8.67 6.69 1.67 o
10 5 1 9.15 5.82 2.00 o
11 5 1 0.41 1.38 0.98 o
12 5 1 4.43 5.17 1.84 o
13 5 1 0.66 3.52 2.12 o
1 6 1 23.78 24.36 2.16 o
2 6 1 5.89 6.68 1.25 o
3 6 1 6.71 6.16 1.24 o
4 6 1 33.22 26.73 4.12 o
5 6 1 20.68 19.85 2.91 o
6 6 1 130.68 130.31 7.79 o
7 6 1 27.45 27.79 3.74 o
8 6 1 15.01 14.26 3.07 o
9 6 1 1.37 1.64 1.15 o
10 6 1 5.29 4.78 2.04 o
11 6 1 0.25 2.01 3.34 o
12 6 1 1.88 1.73 1.01 o
0 7 1 23.91 25.74 4.07 o
1 7 1 3.18 2.45 1.04 o
2 7 1 47.44 47.01 3.17 o
3 7 1 3.84 3.73 1.97 o
4 7 1 195.48 208.21 14.91 o
5 7 1 2.40 3.08 1.50 o
6 7 1 17.82 16.67 2.91 o
7 7 1 6.61 5.97 1.59 o
8 7 1 6.70 7.93 2.19 o
9 7 1 0.81 -1.15 1.15 o
10 7 1 3.26 3.37 1.64 o
11 7 1 0.01 -0.57 1.49 o
1 8 1 0.36 0.45 1.00 o
2 8 1 2.07 2.27 1.22 o
3 8 1 17.37 17.29 2.94 o
4 8 1 22.04 21.90 3.58 o
5 8 1 5.67 7.46 2.70 o
6 8 1 58.22 60.15 5.84 o
7 8 1 2.01 1.87 1.23 o
8 8 1 5.66 9.25 2.37 o
9 8 1 0.73 -0.77 1.86 o
10 8 1 5.19 6.84 2.27 o
0 9 1 32.39 39.45 6.30 o
1 9 1 0.51 0.13 1.17 o
2 9 1 9.86 9.55 2.04 o
3 9 1 2.04 3.39 1.62 o
4 9 1 13.16 13.97 2.87 o
5 9 1 9.76 9.84 3.24 o
6 9 1 5.42 4.34 1.41 o
7 9 1 4.42 6.67 1.93 o
8 9 1 4.29 9.69 2.63 o
9 9 1 0.54 0.85 2.05 o
1 10 1 2.37 3.99 1.56 o
2 10 1 9.48 10.32 2.35 o
3 10 1 0.40 1.35 1.88 o
4 10 1 0.12 -0.62 1.58 o
5 10 1 4.30 3.22 1.73 o
6 10 1 1.82 2.79 1.64 o
7 10 1 1.40 3.50 1.97 o
0 11 1 7.47 7.45 3.14 o
1 11 1 2.05 3.85 1.72 o
2 11 1 1.05 2.03 1.11 o
3 11 1 1.25 2.25 2.57 o
4 11 1 2.68 3.31 1.48 o
5 11 1 0.19 -2.30 2.30 o
2 0 2 474.84 444.33 7.16 o
4 0 2 2.07 1.57 0.67 o
6 0 2 57.41 56.56 3.88 o
8 0 2 46.50 40.89 4.92 o
10 0 2 26.41 27.89 4.47 o
12 0 2 2.21 1.20 1.06 o
1 1 2 85.27 73.96 2.46 o
2 1 2 96.09 88.93 2.35 o
3 1 2 44.53 45.29 1.86 o
4 1 2 86.59 95.73 3.03 o
5 1 2 14.50 15.15 1.36 o
6 1 2 9.94 10.39 1.31 o
7 1 2 0.38 0.39 0.63 o
8 1 2 76.52 82.85 4.86 o
9 1 2 1.68 2.51 1.02 o
10 1 2 13.87 14.18 2.32 o
11 1 2 5.40 3.57 1.44 o
12 1 2 1.88 1.92 1.21 o
13 1 2 2.46 2.66 1.44 o
14 1 2 0.94 1.86 4.02 o
0 2 2 33.05 32.12 3.21 o
1 2 2 113.66 113.49 3.63 o
2 2 2 163.45 156.41 3.64 o
3 2 2 79.40 77.73 2.77 o
4 2 2 50.65 51.67 2.37 o
5 2 2 4.18 4.33 0.75 o
6 2 2 12.41 13.00 1.60 o
7 2 2 1.92 1.48 0.70 o
8 2 2 4.37 3.80 1.40 o
9 2 2 3.10 3.38 1.13 o
10 2 2 3.13 2.22 1.23 o
11 2 2 6.41 4.82 1.68 o
12 2 2 2.34 2.42 1.23 o
13 2 2 4.78 3.96 1.97 o
1 3 2 48.23 48.53 2.03 o
2 3 2 52.28 52.47 2.88 o
3 3 2 45.06 43.85 2.24 o
4 3 2 17.20 15.57 1.52 o
5 3 2 0.73 0.99 0.57 o
6 3 2 19.88 19.92 2.18 o
7 3 2 10.84 10.68 1.51 o
8 3 2 1.24 0.36 0.67 o
9 3 2 0.11 0.24 0.69 o
10 3 2 1.29 1.55 0.93 o
11 3 2 7.06 7.73 1.88 o
12 3 2 1.74 -0.08 0.89 o
13 3 2 4.76 1.56 2.24 o
0 4 2 52.15 60.07 3.43 o
1 4 2 4.79 5.25 0.81 o
2 4 2 6.62 7.61 1.01 o
3 4 2 15.81 15.08 1.51 o
4 4 2 24.67 24.25 2.02 o
5 4 2 9.55 8.69 1.29 o
6 4 2 3.77 3.07 0.96 o
7 4 2 12.10 12.63 1.95 o
8 4 2 2.61 1.14 1.22 o
9 4 2 4.65 6.05 1.65 o
10 4 2 5.60 5.56 1.59 o
11 4 2 0.68 0.90 1.10 o
12 4 2 1.38 -0.21 1.70 o
13 4 2 0.73 0.87 2.73 o
1 5 2 23.34 23.23 1.81 o
2 5 2 10.85 13.94 1.64 o
3 5 2 8.92 9.07 1.35 o
4 5 2 16.06 16.61 2.03 o
5 5 2 13.35 13.70 1.75 o
6 5 2 3.01 1.99 1.07 o
7 5 2 35.71 31.53 3.16 o
8 5 2 17.84 16.69 3.18 o
9 5 2 5.80 7.34 2.22 o
10 5 2 1.45 1.95 1.02 o
11 5 2 0.11 0.49 1.58 o
12 5 2 0.20 -1.07 2.02 o
0 6 2 7.62 7.37 1.61 o
1 6 2 5.67 6.95 1.17 o
2 6 2 66.82 70.41 3.84 o
3 6 2 13.14 14.82 2.72 o
4 6 2 32.02 31.83 3.67 o
5 6 2 3.21 3.72 1.26 o
6 6 2 3.83 3.42 1.09 o
7 6 2 8.50 7.24 1.69 o
8 6 2 1.59 2.88 1.00 o
9 6 2 4.80 3.55 1.68 o
10 6 2 3.72 2.34 1.28 o
11 6 2 0.19 1.13 2.31 o
12 6 2 1.50 3.08 3.61 o
1 7 2 5.61 7.76 1.40 o
2 7 2 9.08 8.69 1.43 o
3 7 2 6.06 6.95 1.60 o
4 7 2 35.67 38.70 4.27 o
5 7 2 2.30 1.37 1.36 o
6 7 2 18.12 18.75 3.16 o
7 7 2 1.19 1.91 1.46 o
8 7 2 11.32 12.21 2.22 o
9 7 2 0.22 0.06 1.55 o
10 7 2 0.33 0.01 1.85 o
11 7 2 0.18 2.01 3.58 o
0 8 2 2.12 0.90 0.92 o
1 8 2 0.83 -0.07 0.76 o
2 8 2 33.16 35.43 3.53 o
3 8 2 0.22 -0.35 0.88 o
4 8 2 15.50 20.68 4.09 o
5 8 2 4.49 4.18 2.64 o
6 8 2 3.10 2.19 2.10 o
7 8 2 3.78 7.82 2.26 o
8 8 2 1.89 3.18 2.26 o
9 8 2 0.38 -0.33 4.28 o
1 9 2 0.63 1.49 0.87 o
2 9 2 1.25 0.33 0.83 o
3 9 2 3.11 5.07 1.28 o
4 9 2 4.82 4.32 2.07 o
5 9 2 5.77 6.43 2.24 o
6 9 2 1.40 2.09 4.74 o
7 9 2 2.29 1.51 2.76 o
8 9 2 1.67 4.28 2.15 o
0 10 2 7.23 4.74 2.33 o
1 10 2 1.17 0.70 1.01 o
2 10 2 1.64 3.38 1.46 o
3 10 2 0.91 -0.38 1.24 o
4 10 2 0.46 0.59 2.60 o
5 10 2 1.00 0.28 4.14 o
6 10 2 1.04 2.96 1.59 o
1 11 2 0.12 -0.88 1.28 o
2 11 2 1.30 -0.11 1.76 o
3 11 2 1.94 8.51 4.60 o
4 0 3 19.19 16.77 3.95 o
6 0 3 6.06 6.04 2.42 o
2 1 3 55.46 53.88 7.41 o
3 1 3 18.69 15.85 4.18 o
4 1 3 1.66 -1.17 1.48 o
5 1 3 2.02 1.91 0.83 o
6 1 3 9.82 10.37 2.36 o
7 1 3 1.46 2.15 2.41 o
8 1 3 7.49 6.91 2.91 o
9 1 3 0.26 -0.49 1.40 o
1 2 3 20.59 19.81 4.79 o
2 2 3 1.85 2.93 2.49 o
3 2 3 25.29 28.14 5.86 o
4 2 3 10.89 12.99 4.12 o
5 2 3 12.23 8.84 3.24 o
6 2 3 0.17 1.00 1.10 o
7 2 3 1.75 3.32 1.80 o
8 2 3 5.99 2.37 2.37 o
9 2 3 0.63 2.11 2.21 o
10 2 3 0.03 -1.62 1.83 o
0 3 3 2.17 2.69 1.60 o
1 3 3 9.08 10.65 2.02 o
2 3 3 5.84 3.08 1.57 o
3 3 3 19.27 15.72 3.06 o
4 3 3 4.11 2.92 1.42 o
5 3 3 0.45 0.80 1.73 o
6 3 3 0.24 0.23 1.14 o
7 3 3 0.32 5.17 3.01 o
8 3 3 0.06 -1.61 1.74 o
9 3 3 2.12 6.58 3.89 o
10 3 3 0.70 5.88 3.84 o
11 3 3 0.56 1.69 2.91 o
1 4 3 4.27 3.71 1.26 o
2 4 3 1.83 1.72 0.97 o
3 4 3 11.20 9.22 1.87 o
4 4 3 0.24 -0.45 0.96 o
5 4 3 0.71 0.88 1.46 o
6 4 3 0.73 -0.05 2.39 o
7 4 3 9.72 5.20 3.77 o
8 4 3 3.77 1.95 1.49 o
9 4 3 3.08 2.58 2.99 o
10 4 3 0.49 -1.37 1.37 o
0 5 3 2.11 3.32 1.96 o
1 5 3 8.03 4.63 1.33 o
2 5 3 9.94 7.59 1.80 o
3 5 3 7.74 6.10 1.63 o
4 5 3 0.66 1.11 0.97 o
5 5 3 1.55 0.07 1.57 o
6 5 3 1.32 1.02 1.56 o
7 5 3 4.94 6.86 2.57 o
8 5 3 0.47 1.59 1.41 o
9 5 3 3.99 0.15 1.35 o
1 6 3 8.83 6.23 1.57 o
2 6 3 4.22 3.98 1.48 o
3 6 3 3.21 2.90 1.02 o
4 6 3 9.87 8.56 2.03 o
5 6 3 1.14 1.69 0.89 o
6 6 3 0.03 1.13 1.40 o
7 6 3 3.79 2.59 2.54 o
8 6 3 5.28 1.99 5.64 o
0 7 3 2.77 2.94 1.08 o
1 7 3 0.78 0.37 1.52 o
2 7 3 18.14 14.08 2.74 o
3 7 3 0.82 1.54 1.11 o
4 7 3 1.49 1.64 1.11 o
5 7 3 0.17 -0.65 1.17 o
6 7 3 0.30 2.16 2.51 o
7 7 3 0.13 -0.65 1.84 o
8 7 3 0.34 0.51 1.15 o
1 8 3 0.00 -0.76 0.99 o
2 8 3 0.58 1.75 1.54 o
3 8 3 1.46 1.12 0.98 o
4 8 3 5.36 3.77 1.62 o
5 8 3 1.56 -0.43 1.81 o
6 8 3 0.40 -0.50 1.51 o
0 9 3 1.45 0.11 1.38 o
1 9 3 1.05 2.05 0.78 o
2 9 3 3.08 2.39 1.82 o
3 9 3 1.01 0.06 1.58 o
1 10 3 0.24 -0.67 2.02 o
5 1 4 2.43 3.68 2.93 o
6 1 4 1.71 -1.05 1.67 o
7 1 4 0.31 -2.30 2.66 o
4 2 4 0.45 -2.55 2.65 o
5 2 4 1.11 3.58 3.04 o
6 2 4 0.30 -3.05 3.05 o
7 2 4 0.83 2.07 2.97 o
8 2 4 0.15 2.80 1.87 o
3 3 4 3.48 3.91 3.28 o
4 3 4 0.23 3.83 2.84 o
5 3 4 3.27 4.18 2.77 o
6 3 4 0.16 4.78 2.27 o
7 3 4 1.19 0.07 1.17 o
2 4 4 0.02 0.18 1.43 o
3 4 4 1.54 1.77 1.90 o
4 4 4 0.02 3.51 3.11 o
5 4 4 0.09 0.57 1.21 o
6 4 4 0.27 0.16 2.07 o
2 5 4 0.85 5.93 3.48 o
3 5 4 1.81 2.95 2.51 o
4 5 4 0.31 2.95 3.14 o
0 6 4 2.57 6.14 3.40 o
1 6 4 1.92 1.29 1.26 o
2 6 4 1.62 0.20 0.94 o
3 6 4 0.72 0.75 1.82 o
3 7 4 0.03 -0.67 2.27 o
