#------------------------------------------------------------------------------
#$Date: 2019-11-22 19:03:52 +0200 (Fri, 22 Nov 2019) $
#$Revision: 231268 $
#$URL: file:///home/coder/svn-repositories/cod/cif/4/51/63/4516353.cif $
#------------------------------------------------------------------------------
#
# This file is available in the Crystallography Open Database (COD),
# http://www.crystallography.net/
#
# All data on this site have been placed in the public domain by the
# contributors.
#
data_4516353
loop_
_publ_author_name
'Patyk, Ewa'
'Podsiad\/lo, Marcin'
'Katrusiak, Andrzej'
_publ_section_title
;
 CH&#x00B7;&#x00B7;&#x00B7;N Bonds and Dynamics in Isostructural
 Pyrimidine Polymorphs
;
_journal_issue                   8
_journal_name_full               'Crystal Growth &amp; Design'
_journal_page_first              4039
_journal_paper_doi               10.1021/acs.cgd.5b00657
_journal_volume                  15
_journal_year                    2015
_chemical_formula_moiety         'C4 H4 N2'
_chemical_formula_sum            'C4 H4 N2'
_chemical_formula_weight         80.09
_chemical_melting_point          293.15
_chemical_name_common            pyrimidine
_chemical_name_systematic
; 
pyrimidine phase II
;
_space_group_IT_number           33
_space_group_name_Hall           'P 2c -2n'
_space_group_name_H-M_alt        'P n a 21'
_symmetry_cell_setting           orthorhombic
_symmetry_space_group_name_Hall  'P 2c -2n'
_symmetry_space_group_name_H-M   'P n a 21'
_atom_sites_solution_hydrogens   geom
_atom_sites_solution_primary     direct
_atom_sites_solution_secondary   difmap
_audit_creation_method           SHELXL-97
_cell_angle_alpha                90.00
_cell_angle_beta                 90.00
_cell_angle_gamma                90.00
_cell_formula_units_Z            4
_cell_length_a                   11.665(4)
_cell_length_b                   9.484(4)
_cell_length_c                   3.7782(13)
_cell_measurement_reflns_used    3010
_cell_measurement_temperature    227.5(1)
_cell_measurement_theta_max      28.13
_cell_measurement_theta_min      3.49
_cell_volume                     418.0(3)
_computing_cell_refinement       'CrysAlisRED (Oxford Diffraction, 2004)'
_computing_data_collection       'CrysAlisCCD (Oxford Diffraction, 2004)'
_computing_data_reduction        'CrysAlisRED (Oxford Diffraction, 2004)'
_computing_molecular_graphics    'SHELXTL (Sheldrick, 1990)'
_computing_publication_material  'SHELXL--97 (Sheldrick, 1997)'
_computing_structure_refinement  'SHELXL--97 (Sheldrick, 1997)'
_computing_structure_solution    'SHELXS--97 (Sheldrick, 1997)'
_diffrn_ambient_pressure         100
_diffrn_ambient_temperature      227.5(1)
_diffrn_measured_fraction_theta_full 0.905
_diffrn_measured_fraction_theta_max 0.905
_diffrn_measurement_device_type  'KM-4 CCD'
_diffrn_measurement_method       \w-scans
_diffrn_radiation_monochromator  graphite
_diffrn_radiation_source         'fine-focus sealed tube'
_diffrn_radiation_type           MoK\a
_diffrn_radiation_wavelength     0.71073
_diffrn_reflns_av_R_equivalents  0.0666
_diffrn_reflns_av_sigmaI/netI    0.0613
_diffrn_reflns_limit_h_max       14
_diffrn_reflns_limit_h_min       -14
_diffrn_reflns_limit_k_max       11
_diffrn_reflns_limit_k_min       -11
_diffrn_reflns_limit_l_max       4
_diffrn_reflns_limit_l_min       -4
_diffrn_reflns_number            3010
_diffrn_reflns_theta_full        28.13
_diffrn_reflns_theta_max         28.13
_diffrn_reflns_theta_min         3.49
_diffrn_standards_decay_%        0
_diffrn_standards_interval_count 0
_diffrn_standards_number         0
_exptl_absorpt_coefficient_mu    0.084
_exptl_absorpt_correction_T_max  0.983
_exptl_absorpt_correction_T_min  0.983
_exptl_absorpt_correction_type   numerical
_exptl_absorpt_process_details
; 
 Correction for absorption was made using XEMP (SHELXTL, 
 Sheldrick (1990)).
;
_exptl_crystal_colour            colourless
_exptl_crystal_density_diffrn    1.273
_exptl_crystal_density_method    'not measured'
_exptl_crystal_description       irregular
_exptl_crystal_F_000             168
_exptl_crystal_size_max          0.20
_exptl_crystal_size_mid          0.20
_exptl_crystal_size_min          0.20
_refine_diff_density_max         0.147
_refine_diff_density_min         -0.136
_refine_diff_density_rms         0.036
_refine_ls_abs_structure_details 'Flack H D (1983), Acta Cryst. A39, 876-881'
_refine_ls_abs_structure_Flack   -7(8)
_refine_ls_extinction_coef       0.054(9)
_refine_ls_extinction_expression Fc^*^=kFc[1+0.001xFc^2^\l^3^/sin(2\q)]^-1/4^
_refine_ls_extinction_method     SHELXL
_refine_ls_goodness_of_fit_ref   1.073
_refine_ls_hydrogen_treatment    constr
_refine_ls_matrix_type           full
_refine_ls_number_parameters     56
_refine_ls_number_reflns         880
_refine_ls_number_restraints     1
_refine_ls_restrained_S_all      1.072
_refine_ls_R_factor_all          0.1161
_refine_ls_R_factor_gt           0.0579
_refine_ls_shift/su_max          0.000
_refine_ls_shift/su_mean         0.000
_refine_ls_structure_factor_coef Fsqd
_refine_ls_weighting_details
'calc w=1/[\s^2^(Fo^2^)+(0.0384P)^2^+0.0000P] where P=(Fo^2^+2Fc^2^)/3'
_refine_ls_weighting_scheme      calc
_refine_ls_wR_factor_gt          0.1077
_refine_ls_wR_factor_ref         0.1377
_reflns_number_gt                511
_reflns_number_total             880
_reflns_threshold_expression     >2sigma(I)
_cod_data_source_file            cg5b00657_si_002.cif
_cod_data_source_block           phaseII_227.5K
_cod_database_code               4516353
loop_
_symmetry_equiv_pos_as_xyz
'x, y, z'
'-x, -y, z+1/2'
'x+1/2, -y+1/2, z'
'-x+1/2, y+1/2, z+1/2'
loop_
_atom_site_label
_atom_site_type_symbol
_atom_site_fract_x
_atom_site_fract_y
_atom_site_fract_z
_atom_site_U_iso_or_equiv
_atom_site_adp_type
_atom_site_occupancy
_atom_site_symmetry_multiplicity
_atom_site_calc_flag
_atom_site_refinement_flags
N1 N 0.1272(3) 0.3964(3) 0.0237(12) 0.0603(10) Uani 1 1 d .
N3 N 0.0118(2) 0.1903(3) 0.0165(9) 0.0628(10) Uani 1 1 d .
C2 C 0.0308(3) 0.3258(4) 0.0727(14) 0.0578(12) Uani 1 1 d .
H2 H -0.0311 0.3777 0.1570 0.069 Uiso 1 1 calc R
C4 C 0.1010(3) 0.1189(4) -0.1038(12) 0.0618(12) Uani 1 1 d .
H4 H 0.0921 0.0233 -0.1501 0.074 Uiso 1 1 calc R
C5 C 0.2063(3) 0.1792(4) -0.1636(10) 0.0576(11) Uani 1 1 d .
H5 H 0.2682 0.1271 -0.2470 0.069 Uiso 1 1 calc R
C6 C 0.2149(3) 0.3203(4) -0.0935(9) 0.0610(15) Uani 1 1 d .
H6 H 0.2850 0.3647 -0.1293 0.073 Uiso 1 1 calc R
loop_
_atom_site_aniso_label
_atom_site_aniso_U_11
_atom_site_aniso_U_22
_atom_site_aniso_U_33
_atom_site_aniso_U_23
_atom_site_aniso_U_13
_atom_site_aniso_U_12
N1 0.0508(17) 0.0438(16) 0.086(3) -0.0085(19) -0.0046(19) -0.0005(14)
N3 0.0518(18) 0.0482(17) 0.088(3) -0.003(2) 0.0023(19) -0.0002(14)
C2 0.044(2) 0.053(2) 0.077(3) -0.004(3) -0.002(2) 0.0093(17)
C4 0.061(2) 0.048(2) 0.077(3) -0.006(2) -0.0032(19) 0.004(2)
C5 0.052(2) 0.056(2) 0.064(3) -0.012(2) -0.0004(19) 0.0067(19)
C6 0.0410(19) 0.067(3) 0.075(4) -0.005(3) -0.0031(17) -0.0084(18)
loop_
_atom_type_symbol
_atom_type_description
_atom_type_scat_dispersion_real
_atom_type_scat_dispersion_imag
_atom_type_scat_source
C C 0.0033 0.0016 'International Tables Vol C Tables 4.2.6.8 and 6.1.1.4'
H H 0.0000 0.0000 'International Tables Vol C Tables 4.2.6.8 and 6.1.1.4'
N N 0.0061 0.0033 'International Tables Vol C Tables 4.2.6.8 and 6.1.1.4'
loop_
_geom_angle_atom_site_label_1
_geom_angle_atom_site_label_2
_geom_angle_atom_site_label_3
_geom_angle
C2 N1 C6 115.2(3)
C2 N3 C4 114.9(3)
N3 C2 N1 127.8(3)
N3 C4 C5 123.2(3)
C6 C5 C4 116.1(3)
N1 C6 C5 122.7(3)
loop_
_geom_bond_atom_site_label_1
_geom_bond_atom_site_label_2
_geom_bond_distance
N1 C2 1.321(4)
N1 C6 1.328(4)
N3 C2 1.321(4)
N3 C4 1.322(4)
C4 C5 1.373(4)
C5 C6 1.368(5)
loop_
_refln_index_h
_refln_index_k
_refln_index_l
_refln_F_squared_calc
_refln_F_squared_meas
_refln_F_squared_sigma
_refln_observed_status
6 0 -4 2.80 4.92 3.55 o
5 1 -4 2.78 4.87 3.46 o
6 1 -4 2.05 -1.06 2.25 o
7 1 -4 0.38 1.38 1.07 o
4 2 -4 0.51 2.58 2.54 o
5 2 -4 1.11 3.31 2.55 o
6 2 -4 0.38 -0.59 1.17 o
7 2 -4 1.04 -0.99 2.13 o
8 2 -4 0.08 -1.63 3.01 o
9 2 -4 0.98 2.31 2.24 o
3 3 -4 4.00 9.88 5.13 o
4 3 -4 0.28 1.93 2.34 o
5 3 -4 3.87 -0.16 2.47 o
6 3 -4 0.20 1.71 1.21 o
7 3 -4 1.59 -0.97 2.58 o
2 4 -4 0.02 3.28 1.88 o
3 4 -4 1.87 1.18 1.88 o
4 4 -4 0.06 1.01 2.01 o
5 4 -4 0.09 -2.62 3.07 o
6 4 -4 0.27 -2.93 3.38 o
2 5 -4 0.96 0.57 1.81 o
3 5 -4 2.14 -1.65 1.81 o
4 5 -4 0.31 2.62 2.99 o
5 5 -4 0.14 1.17 1.50 o
0 6 -4 2.98 0.99 1.46 o
1 6 -4 2.18 4.32 2.02 o
2 6 -4 1.78 2.27 1.71 o
4 0 -3 18.92 14.15 4.40 o
6 0 -3 6.94 3.32 2.20 o
2 1 -3 58.01 58.92 8.42 o
3 1 -3 19.41 19.83 4.87 o
4 1 -3 1.83 3.01 1.91 o
5 1 -3 1.85 1.95 3.26 o
6 1 -3 11.78 10.31 2.64 o
7 1 -3 1.64 3.33 2.50 o
8 1 -3 7.66 9.70 4.11 o
9 1 -3 0.27 4.53 3.32 o
1 2 -3 20.89 22.57 5.47 o
2 2 -3 1.68 2.29 3.38 o
3 2 -3 27.42 23.59 5.77 o
4 2 -3 11.56 5.85 3.01 o
5 2 -3 13.28 11.53 4.14 o
6 2 -3 0.11 0.12 1.81 o
7 2 -3 2.32 1.57 2.16 o
8 2 -3 6.84 6.12 3.10 o
9 2 -3 0.61 0.40 2.04 o
10 2 -3 0.05 0.28 1.79 o
0 3 -3 2.20 0.11 1.32 o
1 3 -3 10.03 7.65 1.97 o
2 3 -3 6.43 5.79 2.04 o
3 3 -3 20.01 16.11 3.32 o
4 3 -3 4.65 4.10 1.53 o
5 3 -3 0.42 -0.01 1.23 o
6 3 -3 0.19 -1.50 2.16 o
7 3 -3 0.14 0.33 1.65 o
8 3 -3 0.22 -0.51 1.58 o
9 3 -3 3.04 -0.78 1.42 o
10 3 -3 0.84 1.42 2.69 o
11 3 -3 0.72 -0.24 1.61 o
1 4 -3 4.61 1.80 1.40 o
2 4 -3 1.81 0.78 1.39 o
3 4 -3 12.16 12.71 3.26 o
4 4 -3 0.13 0.39 1.12 o
5 4 -3 1.14 0.75 1.71 o
6 4 -3 1.31 0.56 1.16 o
7 4 -3 11.17 7.94 6.55 o
8 4 -3 4.15 6.05 3.88 o
9 4 -3 3.14 3.84 3.33 o
10 4 -3 0.59 0.68 2.17 o
0 5 -3 2.17 2.40 1.17 o
1 5 -3 8.33 5.74 1.63 o
2 5 -3 10.94 7.62 2.29 o
3 5 -3 8.77 9.56 2.16 o
4 5 -3 0.60 0.49 0.98 o
5 5 -3 1.39 0.93 1.24 o
6 5 -3 1.52 3.00 1.62 o
7 5 -3 5.15 2.00 4.31 o
8 5 -3 0.61 0.87 1.30 o
9 5 -3 4.31 -0.84 1.14 o
1 6 -3 8.69 8.57 2.05 o
2 6 -3 4.36 1.55 1.52 o
3 6 -3 3.56 2.87 1.23 o
4 6 -3 10.57 7.66 2.18 o
5 6 -3 1.39 3.10 1.96 o
6 6 -3 0.03 0.97 1.46 o
7 6 -3 3.72 3.22 1.96 o
8 6 -3 5.68 4.37 4.34 o
0 7 -3 2.95 3.13 1.84 o
1 7 -3 1.06 0.94 0.72 o
2 7 -3 19.70 14.78 2.92 o
3 7 -3 0.71 1.31 1.13 o
4 7 -3 1.67 1.67 1.75 o
5 7 -3 0.20 4.70 2.71 o
6 7 -3 0.38 0.40 1.88 o
7 7 -3 0.12 -0.40 1.31 o
8 7 -3 0.19 -0.88 2.06 o
1 8 -3 0.03 -0.03 1.40 o
2 8 -3 0.51 -1.17 1.17 o
3 8 -3 1.16 1.03 1.17 o
4 8 -3 5.39 1.42 1.98 o
5 8 -3 1.72 0.29 3.92 o
6 8 -3 0.27 -0.30 2.22 o
0 9 -3 1.55 -0.66 1.52 o
1 9 -3 0.88 1.73 1.26 o
2 9 -3 3.31 0.94 1.24 o
3 9 -3 1.33 2.99 1.71 o
4 9 -3 0.09 -0.24 2.14 o
2 0 -2 479.73 480.20 7.30 o
4 0 -2 2.43 1.62 0.71 o
6 0 -2 65.44 63.56 4.46 o
8 0 -2 50.34 53.37 6.16 o
10 0 -2 28.70 33.56 5.67 o
12 0 -2 2.67 5.23 3.06 o
1 1 -2 86.98 80.54 3.07 o
2 1 -2 96.46 91.42 3.25 o
3 1 -2 45.66 47.62 2.11 o
4 1 -2 86.85 97.75 3.38 o
5 1 -2 15.39 16.29 1.54 o
6 1 -2 9.39 10.22 1.58 o
7 1 -2 0.26 0.38 0.66 o
8 1 -2 85.15 93.01 5.92 o
9 1 -2 1.72 1.73 1.18 o
10 1 -2 16.68 17.79 2.76 o
11 1 -2 5.61 10.50 2.11 o
12 1 -2 2.68 0.38 1.23 o
13 1 -2 2.92 1.51 1.50 o
0 2 -2 33.44 35.33 3.48 o
1 2 -2 118.02 117.15 2.87 o
2 2 -2 168.42 168.74 5.52 o
3 2 -2 80.81 83.64 3.13 o
4 2 -2 52.05 54.54 2.64 o
5 2 -2 3.68 3.07 0.62 o
6 2 -2 12.60 14.08 1.67 o
7 2 -2 1.93 2.17 1.40 o
8 2 -2 4.02 2.91 0.73 o
9 2 -2 2.49 2.38 0.84 o
10 2 -2 3.10 2.29 1.09 o
11 2 -2 7.49 9.55 2.21 o
12 2 -2 2.27 3.41 1.85 o
13 2 -2 5.74 7.99 2.44 o
1 3 -2 49.37 50.19 2.31 o
2 3 -2 52.47 55.49 3.48 o
3 3 -2 47.92 45.77 2.49 o
4 3 -2 18.24 16.21 1.74 o
5 3 -2 0.70 1.48 0.66 o
6 3 -2 22.84 20.91 2.48 o
7 3 -2 12.67 10.62 1.79 o
8 3 -2 1.42 2.53 0.97 o
9 3 -2 0.15 1.41 0.92 o
10 3 -2 1.61 1.20 1.33 o
11 3 -2 6.90 7.62 1.87 o
12 3 -2 2.16 4.07 1.94 o
13 3 -2 5.95 8.15 2.50 o
0 4 -2 51.43 60.68 3.73 o
1 4 -2 5.06 5.76 0.88 o
2 4 -2 7.34 6.92 1.07 o
3 4 -2 16.65 17.89 1.69 o
4 4 -2 26.26 24.94 2.32 o
5 4 -2 9.03 10.08 1.54 o
6 4 -2 4.46 4.43 1.22 o
7 4 -2 13.03 14.96 2.13 o
8 4 -2 3.73 3.08 1.08 o
9 4 -2 5.70 3.10 1.50 o
10 4 -2 6.26 3.52 1.61 o
11 4 -2 0.93 2.13 1.51 o
12 4 -2 1.76 2.08 2.40 o
13 4 -2 0.83 2.59 1.52 o
1 5 -2 23.80 24.51 2.09 o
2 5 -2 9.56 11.94 1.66 o
3 5 -2 8.13 10.01 1.58 o
4 5 -2 16.80 20.21 2.22 o
5 5 -2 15.36 13.41 1.86 o
6 5 -2 2.60 2.69 1.07 o
7 5 -2 36.79 37.64 3.96 o
8 5 -2 19.40 20.20 3.02 o
9 5 -2 6.06 3.41 2.27 o
10 5 -2 1.55 -0.71 1.14 o
11 5 -2 0.08 -1.51 1.51 o
12 5 -2 0.25 0.22 1.82 o
0 6 -2 6.04 5.12 1.24 o
1 6 -2 5.58 5.64 1.49 o
2 6 -2 71.94 71.73 4.81 o
3 6 -2 14.87 17.76 2.82 o
4 6 -2 33.31 40.64 4.53 o
5 6 -2 2.49 2.62 1.25 o
6 6 -2 4.26 5.62 1.83 o
7 6 -2 8.53 11.98 2.31 o
8 6 -2 1.74 2.96 1.93 o
9 6 -2 4.79 2.51 1.74 o
10 6 -2 3.64 2.74 3.57 o
11 6 -2 0.23 -1.71 1.71 o
1 7 -2 5.43 7.37 2.40 o
2 7 -2 9.51 8.54 1.54 o
3 7 -2 6.07 8.42 1.94 o
4 7 -2 37.02 44.36 4.90 o
5 7 -2 1.81 1.26 0.77 o
6 7 -2 18.77 21.52 3.62 o
7 7 -2 0.91 1.39 1.03 o
8 7 -2 11.98 13.28 2.68 o
9 7 -2 0.31 3.13 2.76 o
10 7 -2 0.32 0.52 1.76 o
11 7 -2 0.21 -1.79 3.39 o
0 8 -2 2.12 0.14 1.10 o
1 8 -2 1.02 0.12 0.74 o
2 8 -2 34.48 34.45 3.92 o
3 8 -2 0.33 2.89 1.60 o
4 8 -2 16.19 23.27 5.07 o
5 8 -2 4.76 7.52 2.42 o
6 8 -2 3.39 0.92 1.05 o
7 8 -2 4.54 6.49 2.55 o
8 8 -2 1.55 7.46 3.86 o
9 8 -2 0.55 2.38 2.72 o
1 9 -2 0.53 -0.41 1.13 o
2 9 -2 1.08 -0.26 1.10 o
3 9 -2 2.51 0.95 1.17 o
4 9 -2 4.52 1.04 1.25 o
5 9 -2 6.48 7.49 2.49 o
6 9 -2 1.19 -3.14 3.14 o
7 9 -2 2.54 6.34 2.91 o
8 9 -2 2.08 9.33 4.19 o
0 10 -2 7.41 11.32 3.61 o
1 10 -2 1.00 1.29 1.61 o
2 10 -2 1.85 2.14 1.37 o
3 10 -2 1.13 -0.46 1.27 o
4 10 -2 0.46 0.57 1.24 o
5 10 -2 0.96 -1.40 1.78 o
6 10 -2 1.15 -0.03 1.49 o
1 11 -2 0.16 1.29 1.79 o
2 11 -2 1.23 4.47 3.08 o
3 11 -2 2.36 2.71 3.27 o
2 0 -1 2321.60 2206.84 20.51 o
4 0 -1 109.04 101.96 5.88 o
6 0 -1 62.00 58.96 5.61 o
8 0 -1 108.06 97.09 8.42 o
10 0 -1 136.45 136.76 11.42 o
12 0 -1 11.56 12.01 3.50 o
14 0 -1 0.48 2.64 1.72 o
0 1 -1 5610.44 5733.59 30.29 o
1 1 -1 149.03 146.28 2.95 o
2 1 -1 779.59 726.15 13.02 o
3 1 -1 51.46 47.77 2.34 o
4 1 -1 180.49 175.21 6.99 o
5 1 -1 17.48 17.85 1.61 o
6 1 -1 67.93 67.98 3.38 o
7 1 -1 4.47 6.17 1.47 o
8 1 -1 50.52 46.67 4.18 o
9 1 -1 21.02 24.22 3.20 o
10 1 -1 49.82 51.53 4.93 o
11 1 -1 3.25 3.42 1.60 o
12 1 -1 16.43 15.41 3.14 o
13 1 -1 6.05 4.18 1.63 o
14 1 -1 4.04 1.47 1.15 o
1 2 -1 234.83 218.23 4.40 o
2 2 -1 12.73 12.24 1.50 o
3 2 -1 90.09 82.20 3.42 o
4 2 -1 97.12 95.56 2.73 o
5 2 -1 10.30 10.97 1.18 o
6 2 -1 197.98 206.97 5.91 o
7 2 -1 3.86 4.42 0.92 o
8 2 -1 23.49 26.70 3.11 o
9 2 -1 3.71 1.41 1.11 o
10 2 -1 19.33 21.98 3.23 o
11 2 -1 45.67 46.06 4.98 o
12 2 -1 3.32 2.31 1.82 o
13 2 -1 6.92 5.42 2.16 o
14 2 -1 2.38 3.15 2.19 o
0 3 -1 137.45 130.84 4.94 o
1 3 -1 78.94 80.30 3.12 o
2 3 -1 16.75 15.38 1.56 o
3 3 -1 11.76 9.12 1.49 o
4 3 -1 403.75 395.59 11.21 o
5 3 -1 3.58 3.62 1.01 o
6 3 -1 28.29 30.38 2.68 o
7 3 -1 2.62 3.11 0.83 o
8 3 -1 10.72 9.05 1.76 o
9 3 -1 7.38 7.11 1.99 o
10 3 -1 0.55 2.26 1.16 o
11 3 -1 4.79 7.66 2.27 o
12 3 -1 3.63 2.31 1.05 o
13 3 -1 4.43 3.10 1.88 o
14 3 -1 1.26 -1.21 1.80 o
1 4 -1 46.07 48.34 2.71 o
2 4 -1 286.81 275.14 6.65 o
3 4 -1 2.05 1.69 0.95 o
4 4 -1 3.99 4.42 1.32 o
5 4 -1 15.87 13.71 2.37 o
6 4 -1 26.92 30.52 3.75 o
7 4 -1 55.35 53.46 5.48 o
8 4 -1 8.06 8.48 2.45 o
9 4 -1 6.55 5.34 1.97 o
10 4 -1 9.87 11.18 2.55 o
11 4 -1 5.55 4.02 1.95 o
12 4 -1 2.02 2.55 1.09 o
13 4 -1 2.16 1.30 1.79 o
0 5 -1 321.25 332.59 18.96 o
1 5 -1 5.02 5.12 0.96 o
2 5 -1 62.16 63.11 3.43 o
3 5 -1 15.26 14.75 2.62 o
4 5 -1 18.45 18.57 3.58 o
5 5 -1 37.45 39.03 4.21 o
6 5 -1 4.33 2.57 1.07 o
7 5 -1 16.45 16.81 3.14 o
8 5 -1 1.26 3.06 1.61 o
9 5 -1 9.71 10.57 2.91 o
10 5 -1 10.83 12.30 3.10 o
11 5 -1 0.41 -0.65 1.62 o
12 5 -1 4.79 6.91 2.59 o
13 5 -1 0.87 -0.06 1.34 o
1 6 -1 25.25 27.78 2.45 o
2 6 -1 5.03 2.99 0.99 o
3 6 -1 5.58 2.40 1.30 o
4 6 -1 35.21 31.90 5.80 o
5 6 -1 19.37 18.22 3.05 o
6 6 -1 131.44 148.16 9.14 o
7 6 -1 26.65 31.46 4.49 o
8 6 -1 15.42 12.64 3.08 o
9 6 -1 1.32 1.44 1.78 o
10 6 -1 5.62 5.87 2.25 o
11 6 -1 0.27 1.09 2.92 o
12 6 -1 2.13 2.44 2.08 o
0 7 -1 24.67 24.27 3.01 o
1 7 -1 3.11 2.58 0.76 o
2 7 -1 49.51 46.39 3.61 o
3 7 -1 3.59 5.33 1.40 o
4 7 -1 201.97 212.98 11.23 o
5 7 -1 2.89 4.51 2.00 o
6 7 -1 20.02 20.81 3.46 o
7 7 -1 6.96 3.54 1.46 o
8 7 -1 6.47 6.51 2.18 o
9 7 -1 0.77 -0.12 2.47 o
10 7 -1 3.22 3.10 3.85 o
11 7 -1 0.03 0.49 1.76 o
1 8 -1 0.16 0.69 1.04 o
2 8 -1 1.93 -0.28 1.46 o
3 8 -1 17.38 19.16 3.00 o
4 8 -1 22.20 24.11 4.50 o
5 8 -1 5.35 7.43 2.75 o
6 8 -1 59.04 68.35 7.11 o
7 8 -1 2.70 1.85 1.55 o
8 8 -1 6.20 3.10 1.21 o
9 8 -1 1.18 1.95 3.37 o
10 8 -1 5.43 13.11 3.65 o
0 9 -1 33.73 36.40 6.21 o
1 9 -1 0.52 2.86 1.80 o
2 9 -1 9.81 7.43 1.99 o
3 9 -1 2.15 0.64 1.21 o
4 9 -1 12.82 14.43 3.33 o
5 9 -1 10.33 12.70 3.77 o
6 9 -1 5.65 3.62 1.69 o
7 9 -1 5.36 9.06 2.87 o
8 9 -1 4.37 7.90 3.00 o
9 9 -1 0.51 1.56 1.37 o
1 10 -1 1.51 0.20 0.92 o
2 10 -1 9.95 14.60 3.16 o
3 10 -1 0.22 0.77 1.71 o
4 10 -1 0.15 -0.06 1.75 o
5 10 -1 4.63 5.01 3.10 o
6 10 -1 1.91 2.73 1.12 o
7 10 -1 1.38 2.58 2.15 o
0 11 -1 7.02 2.84 3.70 o
1 11 -1 1.91 0.35 1.47 o
2 11 -1 1.17 1.72 1.38 o
3 11 -1 1.45 1.32 1.61 o
4 11 -1 2.72 3.96 2.25 o
5 11 -1 0.23 9.10 6.29 o
2 0 0 118.31 138.29 4.72 o
4 0 0 294.66 307.71 10.24 o
6 0 0 23.29 25.04 3.50 o
8 0 0 110.68 107.38 8.86 o
10 0 0 99.28 101.36 10.02 o
12 0 0 50.52 50.98 7.81 o
14 0 0 2.23 2.89 2.99 o
2 1 0 2665.41 2765.57 25.30 o
3 1 0 35.30 43.32 1.69 o
4 1 0 2.81 5.26 1.27 o
5 1 0 0.01 0.02 0.38 o
6 1 0 222.25 202.50 12.07 o
7 1 0 21.99 21.74 2.80 o
8 1 0 8.48 8.26 1.67 o
9 1 0 1.35 2.11 1.62 o
10 1 0 151.40 155.80 8.63 o
11 1 0 37.71 35.20 4.34 o
12 1 0 13.34 10.98 2.61 o
13 1 0 1.63 1.42 1.38 o
14 1 0 0.43 2.84 1.80 o
0 2 0 1765.87 1783.63 46.53 o
1 2 0 29.78 28.01 1.47 o
2 2 0 13.79 13.82 1.06 o
3 2 0 0.11 1.17 0.90 o
4 2 0 949.90 944.13 19.57 o
5 2 0 25.30 28.28 3.02 o
6 2 0 75.12 85.73 7.74 o
7 2 0 2.09 5.73 1.59 o
8 2 0 0.07 -0.25 1.09 o
9 2 0 59.67 58.93 5.22 o
10 2 0 19.65 20.26 3.10 o
11 2 0 0.59 0.62 2.44 o
12 2 0 3.97 3.00 1.51 o
13 2 0 12.67 11.15 3.07 o
14 2 0 2.27 0.54 1.33 o
1 3 0 7.65 12.85 1.60 o
2 3 0 460.18 445.79 9.39 o
3 3 0 7.65 6.24 0.77 o
4 3 0 33.62 32.23 3.31 o
5 3 0 11.82 15.17 2.33 o
6 3 0 339.92 386.58 15.53 o
7 3 0 5.26 5.58 1.98 o
8 3 0 5.82 3.99 4.39 o
9 3 0 10.60 13.03 2.36 o
10 3 0 0.04 -1.01 1.07 o
11 3 0 44.61 38.81 4.62 o
12 3 0 0.13 -0.46 1.56 o
13 3 0 1.89 -1.44 1.44 o
14 3 0 3.38 3.75 1.88 o
0 4 0 1230.09 1190.43 23.05 o
1 4 0 8.49 7.78 1.38 o
2 4 0 0.13 0.27 0.23 o
3 4 0 1.37 5.37 1.54 o
4 4 0 118.58 122.01 2.91 o
5 4 0 60.24 59.98 2.39 o
6 4 0 10.82 6.89 1.95 o
7 4 0 1.44 2.51 1.37 o
8 4 0 15.26 13.42 2.62 o
9 4 0 0.01 -1.82 1.82 o
10 4 0 5.00 2.82 1.18 o
11 4 0 0.47 -1.27 3.38 o
12 4 0 10.40 8.25 2.33 o
13 4 0 0.05 -0.69 1.36 o
1 5 0 77.37 81.83 4.70 o
2 5 0 131.98 132.98 3.62 o
3 5 0 1.05 0.73 1.00 o
4 5 0 0.10 1.56 1.80 o
5 5 0 15.38 15.59 2.43 o
6 5 0 44.51 41.49 4.59 o
7 5 0 70.35 76.16 6.42 o
8 5 0 1.77 3.84 1.13 o
9 5 0 5.13 5.93 2.13 o
10 5 0 16.53 12.42 4.24 o
11 5 0 0.00 0.50 1.23 o
12 5 0 4.07 1.47 1.08 o
13 5 0 0.02 -0.36 1.21 o
0 6 0 213.57 225.65 12.35 o
1 6 0 0.81 0.39 1.12 o
2 6 0 1.12 1.65 0.56 o
3 6 0 0.36 -0.06 1.16 o
4 6 0 296.54 303.35 15.07 o
5 6 0 9.30 8.48 2.45 o
6 6 0 18.59 19.30 3.26 o
7 6 0 5.62 8.62 2.44 o
8 6 0 10.25 9.70 3.55 o
9 6 0 6.84 8.04 2.50 o
10 6 0 8.86 4.35 3.43 o
11 6 0 0.28 -0.57 1.89 o
12 6 0 4.07 1.40 1.63 o
1 7 0 1.58 3.50 1.40 o
2 7 0 9.97 6.94 1.25 o
3 7 0 24.07 31.42 3.60 o
4 7 0 13.13 11.09 2.70 o
5 7 0 20.29 19.09 4.08 o
6 7 0 256.97 309.14 13.89 o
7 7 0 0.91 1.49 2.50 o
8 7 0 1.83 3.14 1.45 o
9 7 0 0.57 -1.46 1.46 o
10 7 0 9.01 10.12 2.89 o
11 7 0 0.02 0.23 1.98 o
0 8 0 41.71 31.81 5.57 o
1 8 0 4.60 2.55 1.62 o
2 8 0 1.20 -0.16 1.73 o
3 8 0 0.15 -0.21 1.44 o
4 8 0 155.71 172.18 10.83 o
5 8 0 20.56 17.20 4.06 o
6 8 0 25.54 27.49 5.62 o
7 8 0 6.27 4.81 2.26 o
8 8 0 0.61 1.19 2.06 o
9 8 0 0.19 0.39 1.51 o
10 8 0 2.54 1.51 1.76 o
1 9 0 1.33 4.18 1.67 o
2 9 0 5.44 5.20 1.84 o
3 9 0 9.05 8.23 1.89 o
4 9 0 2.11 2.54 1.98 o
5 9 0 0.07 2.60 1.93 o
6 9 0 12.98 18.10 5.65 o
7 9 0 5.25 5.96 2.46 o
8 9 0 0.26 0.65 2.75 o
9 9 0 0.17 3.91 2.37 o
0 10 0 43.24 44.47 7.27 o
1 10 0 0.64 -0.33 1.87 o
2 10 0 1.91 0.06 1.81 o
3 10 0 5.52 3.88 1.78 o
4 10 0 0.15 2.71 1.75 o
5 10 0 2.55 2.62 2.57 o
6 10 0 0.61 -1.58 1.92 o
7 10 0 0.28 0.65 1.98 o
1 11 0 1.01 3.81 1.79 o
2 11 0 6.76 10.12 2.56 o
3 11 0 1.53 -1.52 1.60 o
4 11 0 0.73 5.60 3.46 o
5 11 0 4.00 -1.62 2.67 o
2 0 1 2321.08 2213.88 14.80 o
4 0 1 109.03 114.12 4.94 o
6 0 1 62.04 60.95 7.46 o
8 0 1 108.15 99.89 8.70 o
10 0 1 136.42 151.51 12.08 o
12 0 1 11.55 17.09 4.85 o
14 0 1 0.48 -0.10 5.94 o
0 1 1 5609.50 5750.02 33.62 o
1 1 1 149.13 144.78 2.51 o
2 1 1 780.04 741.94 14.53 o
3 1 1 51.54 52.30 2.31 o
4 1 1 180.47 173.90 2.94 o
5 1 1 17.47 19.01 1.45 o
6 1 1 68.00 72.80 3.80 o
7 1 1 4.49 5.84 1.32 o
8 1 1 50.54 44.98 3.28 o
9 1 1 21.01 20.81 3.01 o
10 1 1 49.79 55.39 5.13 o
11 1 1 3.25 5.26 1.71 o
12 1 1 16.43 16.42 2.96 o
13 1 1 6.04 5.74 1.61 o
14 1 1 4.03 3.20 2.07 o
1 2 1 234.82 228.77 3.24 o
2 2 1 12.74 12.13 1.32 o
3 2 1 90.12 79.27 2.83 o
4 2 1 97.16 91.49 2.86 o
5 2 1 10.34 10.97 1.51 o
6 2 1 197.93 218.38 6.25 o
7 2 1 3.86 2.41 0.66 o
8 2 1 23.51 23.50 2.81 o
9 2 1 3.71 5.04 1.51 o
10 2 1 19.32 19.18 2.86 o
11 2 1 45.65 50.26 5.29 o
12 2 1 3.33 3.33 1.93 o
13 2 1 6.93 8.35 2.43 o
14 2 1 2.38 1.18 1.24 o
0 3 1 137.40 145.84 4.13 o
1 3 1 78.93 81.10 4.08 o
2 3 1 16.76 16.95 1.16 o
3 3 1 11.77 10.63 0.81 o
4 3 1 403.66 381.62 10.26 o
5 3 1 3.57 4.07 0.75 o
6 3 1 28.27 31.46 2.10 o
7 3 1 2.62 2.43 0.86 o
8 3 1 10.71 10.33 1.75 o
9 3 1 7.38 9.31 2.02 o
10 3 1 0.55 0.60 1.43 o
11 3 1 4.79 7.71 2.32 o
12 3 1 3.63 3.98 1.45 o
13 3 1 4.43 5.12 2.39 o
14 3 1 1.26 10.41 4.08 o
1 4 1 46.03 50.56 2.61 o
2 4 1 286.76 272.45 6.19 o
3 4 1 2.05 1.76 0.71 o
4 4 1 3.99 4.29 1.19 o
5 4 1 15.85 16.26 1.54 o
6 4 1 26.91 29.28 2.50 o
7 4 1 55.35 53.25 5.31 o
8 4 1 8.06 6.85 2.03 o
9 4 1 6.55 5.04 1.60 o
10 4 1 9.87 8.02 1.66 o
11 4 1 5.55 4.29 1.54 o
12 4 1 2.02 1.68 2.14 o
13 4 1 2.16 0.66 1.85 o
0 5 1 321.19 333.87 13.53 o
1 5 1 5.02 4.13 0.99 o
2 5 1 62.20 64.95 3.28 o
3 5 1 15.29 12.39 1.27 o
4 5 1 18.45 15.85 2.12 o
5 5 1 37.45 35.97 2.01 o
6 5 1 4.34 3.75 0.97 o
7 5 1 16.45 17.96 3.22 o
8 5 1 1.27 2.80 1.20 o
9 5 1 9.71 7.16 2.50 o
10 5 1 10.82 7.23 2.48 o
11 5 1 0.40 1.61 1.17 o
12 5 1 4.79 6.79 2.18 o
13 5 1 0.87 2.51 1.35 o
1 6 1 25.29 26.92 3.08 o
2 6 1 5.05 6.07 1.63 o
3 6 1 5.58 5.00 1.04 o
4 6 1 35.23 32.53 2.47 o
5 6 1 19.36 20.12 2.59 o
6 6 1 131.41 146.03 9.13 o
7 6 1 26.65 31.20 4.20 o
8 6 1 15.43 15.76 3.19 o
9 6 1 1.33 -0.71 1.63 o
10 6 1 5.62 6.52 2.40 o
11 6 1 0.27 2.06 1.83 o
12 6 1 2.13 3.92 1.90 o
0 7 1 24.67 23.12 4.29 o
1 7 1 3.11 1.31 0.92 o
2 7 1 49.57 45.46 3.95 o
3 7 1 3.59 1.78 1.02 o
4 7 1 201.92 219.46 13.92 o
5 7 1 2.89 5.24 2.05 o
6 7 1 20.02 21.08 3.79 o
7 7 1 6.95 6.32 1.93 o
8 7 1 6.47 5.19 2.32 o
9 7 1 0.76 2.97 1.82 o
10 7 1 3.21 1.99 3.12 o
11 7 1 0.03 0.64 1.35 o
1 8 1 0.16 1.11 1.23 o
2 8 1 1.92 2.57 1.80 o
3 8 1 17.38 13.66 2.70 o
4 8 1 22.21 22.24 4.67 o
5 8 1 5.36 5.60 2.93 o
6 8 1 59.02 66.34 6.79 o
7 8 1 2.70 2.15 1.45 o
8 8 1 6.20 4.64 2.25 o
9 8 1 1.18 0.80 1.36 o
10 8 1 5.43 1.33 1.76 o
0 9 1 33.73 39.05 6.37 o
1 9 1 0.53 2.54 1.35 o
2 9 1 9.83 6.02 2.35 o
3 9 1 2.16 4.39 1.03 o
4 9 1 12.82 11.24 4.11 o
5 9 1 10.33 11.30 3.72 o
6 9 1 5.64 10.12 3.26 o
7 9 1 5.37 0.04 2.28 o
8 9 1 4.37 3.75 2.24 o
9 9 1 0.51 3.72 2.43 o
1 10 1 1.52 1.45 1.30 o
2 10 1 9.94 11.37 2.78 o
3 10 1 0.22 -0.40 1.57 o
4 10 1 0.15 2.33 1.78 o
5 10 1 4.62 4.02 1.81 o
6 10 1 1.91 1.25 2.48 o
7 10 1 1.38 0.26 2.07 o
0 11 1 7.02 5.19 4.45 o
1 11 1 1.91 6.34 2.01 o
2 11 1 1.17 0.01 1.74 o
3 11 1 1.45 2.87 1.94 o
4 11 1 2.72 3.43 2.45 o
5 11 1 0.23 -4.64 4.94 o
0 0 2 577.79 514.00 17.82 o
2 0 2 479.91 482.16 6.70 o
4 0 2 2.43 2.61 0.61 o
6 0 2 65.50 70.92 4.58 o
8 0 2 50.36 43.65 7.32 o
10 0 2 28.68 24.85 3.52 o
12 0 2 2.66 1.20 2.72 o
1 1 2 87.01 80.16 2.07 o
2 1 2 96.40 88.98 2.11 o
3 1 2 45.66 45.71 1.37 o
4 1 2 86.86 94.40 2.04 o
5 1 2 15.41 17.25 1.20 o
6 1 2 9.40 11.11 1.19 o
7 1 2 0.26 -0.04 0.57 o
8 1 2 85.19 106.35 5.22 o
9 1 2 1.72 2.08 0.77 o
10 1 2 16.67 17.93 2.69 o
11 1 2 5.60 5.19 1.99 o
12 1 2 2.68 5.95 2.88 o
13 1 2 2.93 1.76 1.91 o
0 2 2 33.43 35.26 2.52 o
1 2 2 118.01 118.08 3.27 o
2 2 2 168.50 166.97 3.26 o
3 2 2 80.87 87.52 2.35 o
4 2 2 52.02 54.55 1.86 o
5 2 2 3.68 6.04 0.88 o
6 2 2 12.60 13.45 1.38 o
7 2 2 1.94 2.08 0.81 o
8 2 2 4.02 3.13 0.89 o
9 2 2 2.49 0.44 0.74 o
10 2 2 3.09 4.33 1.66 o
11 2 2 7.49 9.99 3.04 o
12 2 2 2.27 6.41 3.22 o
13 2 2 5.73 7.96 3.25 o
1 3 2 49.32 53.72 2.12 o
2 3 2 52.43 59.65 3.89 o
3 3 2 47.89 49.84 2.58 o
4 3 2 18.25 17.65 1.51 o
5 3 2 0.71 1.53 0.66 o
6 3 2 22.81 23.44 1.84 o
7 3 2 12.67 13.22 1.37 o
8 3 2 1.42 1.99 0.73 o
9 3 2 0.15 1.73 0.75 o
10 3 2 1.61 3.40 1.69 o
11 3 2 6.90 4.12 1.44 o
12 3 2 2.16 4.10 4.47 o
13 3 2 5.96 5.42 2.43 o
0 4 2 51.38 52.09 3.70 o
1 4 2 5.07 4.94 0.51 o
2 4 2 7.34 7.79 0.96 o
3 4 2 16.64 18.46 2.09 o
4 4 2 26.23 27.81 2.29 o
5 4 2 9.03 10.19 1.36 o
6 4 2 4.46 4.58 0.97 o
7 4 2 13.02 15.43 1.67 o
8 4 2 3.73 3.17 1.06 o
9 4 2 5.70 6.61 1.63 o
10 4 2 6.27 7.12 2.97 o
11 4 2 0.93 -0.06 1.71 o
12 4 2 1.76 -1.18 3.30 o
13 4 2 0.83 -1.61 3.79 o
1 5 2 23.82 25.42 2.24 o
2 5 2 9.56 12.67 1.80 o
3 5 2 8.12 6.83 1.25 o
4 5 2 16.80 12.10 1.95 o
5 5 2 15.35 14.25 1.52 o
6 5 2 2.60 2.88 0.77 o
7 5 2 36.77 43.19 4.26 o
8 5 2 19.41 21.24 4.34 o
9 5 2 6.07 3.26 1.76 o
10 5 2 1.55 0.02 1.51 o
11 5 2 0.08 0.95 1.66 o
12 5 2 0.25 -0.10 2.86 o
0 6 2 6.04 4.26 2.21 o
1 6 2 5.59 7.67 1.39 o
2 6 2 71.98 78.19 4.27 o
3 6 2 14.88 13.78 1.91 o
4 6 2 33.29 34.50 2.96 o
5 6 2 2.49 2.71 1.47 o
6 6 2 4.26 3.76 1.19 o
7 6 2 8.53 10.06 2.27 o
8 6 2 1.73 0.65 1.38 o
9 6 2 4.79 4.82 2.48 o
10 6 2 3.64 1.36 2.15 o
11 6 2 0.23 1.33 1.98 o
1 7 2 5.44 6.27 1.76 o
2 7 2 9.50 9.24 1.89 o
3 7 2 6.07 2.98 2.58 o
4 7 2 37.03 38.58 3.80 o
5 7 2 1.81 1.95 0.98 o
6 7 2 18.74 23.65 3.23 o
7 7 2 0.90 1.23 1.35 o
8 7 2 11.99 12.75 4.93 o
9 7 2 0.31 1.93 2.38 o
10 7 2 0.33 -1.32 3.08 o
11 7 2 0.21 -1.35 2.13 o
0 8 2 2.12 1.39 1.94 o
1 8 2 1.02 3.55 1.47 o
2 8 2 34.51 35.02 3.98 o
3 8 2 0.33 -0.99 0.99 o
4 8 2 16.17 17.28 7.00 o
5 8 2 4.77 12.39 6.23 o
6 8 2 3.39 3.80 2.63 o
7 8 2 4.54 7.20 2.64 o
8 8 2 1.56 1.88 1.61 o
9 8 2 0.55 0.54 2.05 o
1 9 2 0.54 1.29 2.15 o
2 9 2 1.08 -1.88 2.35 o
3 9 2 2.51 1.15 2.18 o
4 9 2 4.52 0.87 2.17 o
5 9 2 6.48 8.13 3.88 o
6 9 2 1.19 1.85 2.16 o
7 9 2 2.53 2.69 3.26 o
8 9 2 2.08 6.71 3.00 o
0 10 2 7.40 11.79 5.41 o
1 10 2 1.00 1.45 2.16 o
2 10 2 1.85 4.84 2.99 o
3 10 2 1.13 0.95 3.83 o
4 10 2 0.46 5.60 4.50 o
5 10 2 0.96 -3.40 3.64 o
6 10 2 1.15 1.40 1.54 o
1 11 2 0.16 1.82 1.44 o
2 11 2 1.22 0.71 1.95 o
2 0 3 2.08 0.77 0.74 o
4 0 3 18.92 17.36 1.95 o
6 0 3 6.93 8.83 1.79 o
8 0 3 38.66 51.43 10.05 o
10 0 3 1.90 -1.05 2.26 o
0 1 3 0.07 0.48 0.91 o
1 1 3 11.63 12.18 1.27 o
2 1 3 58.03 57.89 2.51 o
3 1 3 19.41 18.05 1.25 o
4 1 3 1.84 2.05 0.53 o
5 1 3 1.85 2.32 0.83 o
6 1 3 11.79 14.62 1.73 o
7 1 3 1.64 4.42 1.48 o
8 1 3 7.66 11.11 2.34 o
9 1 3 0.27 1.11 1.78 o
10 1 3 3.21 2.99 1.61 o
11 1 3 0.95 0.53 2.79 o
1 2 3 20.89 23.47 1.92 o
2 2 3 1.68 2.44 0.68 o
3 2 3 27.40 29.38 1.79 o
4 2 3 11.56 12.47 1.29 o
5 2 3 13.30 15.62 1.76 o
6 2 3 0.11 -0.27 0.76 o
7 2 3 2.33 3.98 1.44 o
8 2 3 6.85 7.78 2.51 o
9 2 3 0.61 -0.08 3.53 o
10 2 3 0.05 -0.53 1.43 o
0 3 3 2.20 2.49 0.98 o
1 3 3 10.02 11.28 1.14 o
2 3 3 6.43 7.42 1.10 o
3 3 3 20.01 24.74 2.31 o
4 3 3 4.64 3.82 1.09 o
5 3 3 0.42 0.65 1.18 o
6 3 3 0.19 -0.58 1.12 o
7 3 3 0.14 -1.12 1.16 o
8 3 3 0.22 1.38 0.77 o
9 3 3 3.04 7.37 2.11 o
10 3 3 0.84 0.25 1.19 o
1 4 3 4.61 6.48 1.15 o
2 4 3 1.81 2.54 1.36 o
3 4 3 12.15 17.64 3.17 o
4 4 3 0.13 1.15 1.24 o
5 4 3 1.14 0.53 0.90 o
6 4 3 1.31 1.77 0.82 o
7 4 3 11.16 10.63 2.10 o
8 4 3 4.15 5.58 1.54 o
9 4 3 3.14 7.18 3.56 o
0 5 3 2.17 5.26 1.57 o
1 5 3 8.34 11.82 3.24 o
2 5 3 10.94 16.04 5.87 o
3 5 3 8.76 10.69 2.41 o
4 5 3 0.60 1.26 1.17 o
5 5 3 1.39 -0.21 1.02 o
6 5 3 1.52 1.38 1.18 o
7 5 3 5.15 3.41 1.99 o
8 5 3 0.61 5.18 2.69 o
9 5 3 4.30 2.41 2.38 o
1 6 3 8.70 12.05 3.43 o
2 6 3 4.36 3.82 2.07 o
3 6 3 3.56 1.09 2.62 o
4 6 3 10.57 9.33 2.32 o
5 6 3 1.39 0.43 0.90 o
6 6 3 0.03 -1.06 1.06 o
7 6 3 3.71 2.83 1.26 o
8 6 3 5.68 10.92 3.89 o
1 7 3 1.06 1.78 1.12 o
2 7 3 19.71 19.41 4.82 o
3 7 3 0.71 1.59 1.15 o
4 7 3 1.67 0.53 3.64 o
5 7 3 0.20 0.22 1.16 o
6 7 3 0.38 -0.39 0.77 o
7 7 3 0.12 3.53 2.77 o
8 7 3 0.19 4.57 3.13 o
2 8 3 0.51 -2.93 2.93 o
3 8 3 1.16 1.51 3.52 o
4 8 3 5.40 5.42 3.76 o
5 8 3 1.72 1.52 1.93 o
6 8 3 0.28 0.18 1.32 o
7 8 3 0.38 1.66 2.17 o
2 9 3 3.31 -0.12 1.15 o
0 0 4 5.76 7.11 2.57 o
2 0 4 3.85 2.47 0.95 o
4 0 4 0.97 0.00 0.76 o
6 0 4 2.80 3.29 1.29 o
1 1 4 1.04 -0.17 0.46 o
2 1 4 1.14 0.69 0.48 o
3 1 4 1.83 1.04 0.53 o
4 1 4 0.67 0.17 0.61 o
5 1 4 2.78 2.70 1.01 o
6 1 4 2.05 3.39 1.63 o
7 1 4 0.38 -0.14 1.12 o
0 2 4 1.76 2.54 1.09 o
1 2 4 1.43 1.40 0.68 o
2 2 4 2.08 1.04 0.47 o
3 2 4 6.86 5.70 0.98 o
4 2 4 0.51 0.67 0.92 o
5 2 4 1.10 -0.83 0.96 o
6 2 4 0.39 0.23 1.27 o
7 2 4 1.04 2.58 1.19 o
1 3 4 0.46 1.19 0.53 o
2 3 4 0.02 0.56 0.75 o
3 3 4 3.99 5.27 1.12 o
4 3 4 0.28 1.27 1.03 o
5 3 4 3.87 2.40 1.37 o
6 3 4 0.20 1.16 0.90 o
7 3 4 1.59 1.47 1.26 o
0 4 4 0.88 1.74 1.03 o
1 4 4 3.22 5.07 1.22 o
2 4 4 0.02 0.77 0.82 o
3 4 4 1.86 2.35 1.24 o
4 4 4 0.05 -0.64 1.07 o
5 4 4 0.09 3.78 1.81 o
6 4 4 0.27 -0.22 2.38 o
7 4 4 0.15 -1.60 2.40 o
1 5 4 3.51 3.60 1.97 o
2 5 4 0.96 3.05 1.42 o
3 5 4 2.14 2.32 1.31 o
4 5 4 0.31 0.16 1.34 o
5 5 4 0.14 -0.32 1.35 o
6 5 4 0.53 4.70 3.54 o
0 6 4 2.98 8.45 3.53 o
1 6 4 2.18 5.63 2.24 o
2 6 4 1.78 1.66 1.33 o
4 6 4 0.45 0.83 1.77 o
