#------------------------------------------------------------------------------
#$Date: 2019-11-22 19:03:52 +0200 (Fri, 22 Nov 2019) $
#$Revision: 231268 $
#$URL: file:///home/coder/svn-repositories/cod/cif/4/51/63/4516343.cif $
#------------------------------------------------------------------------------
#
# This file is available in the Crystallography Open Database (COD),
# http://www.crystallography.net/
#
# All data on this site have been placed in the public domain by the
# contributors.
#
data_4516343
loop_
_publ_author_name
'Patyk, Ewa'
'Podsiad\/lo, Marcin'
'Katrusiak, Andrzej'
_publ_section_title
;
 CH&#x00B7;&#x00B7;&#x00B7;N Bonds and Dynamics in Isostructural
 Pyrimidine Polymorphs
;
_journal_issue                   8
_journal_name_full               'Crystal Growth &amp; Design'
_journal_page_first              4039
_journal_paper_doi               10.1021/acs.cgd.5b00657
_journal_volume                  15
_journal_year                    2015
_chemical_formula_moiety         'C4 H4 N2'
_chemical_formula_sum            'C4 H4 N2'
_chemical_formula_weight         80.09
_chemical_melting_point          293.15
_chemical_name_common            pyrimidine
_chemical_name_systematic
; 
pyrimidine phase I
;
_space_group_IT_number           33
_space_group_name_Hall           'P 2c -2n'
_space_group_name_H-M_alt        'P n a 21'
_symmetry_cell_setting           orthorhombic
_symmetry_space_group_name_Hall  'P 2c -2n'
_symmetry_space_group_name_H-M   'P n a 21'
_atom_sites_solution_hydrogens   geom
_atom_sites_solution_primary     direct
_atom_sites_solution_secondary   difmap
_audit_creation_method           SHELXL-97
_cell_angle_alpha                90.00
_cell_angle_beta                 90.00
_cell_angle_gamma                90.00
_cell_formula_units_Z            4
_cell_length_a                   11.687(4)
_cell_length_b                   9.497(3)
_cell_length_c                   3.7988(13)
_cell_measurement_reflns_used    3060
_cell_measurement_temperature    260.0(1)
_cell_measurement_theta_max      28.10
_cell_measurement_theta_min      3.49
_cell_volume                     421.6(2)
_computing_cell_refinement       'CrysAlisRED (Oxford Diffraction, 2004)'
_computing_data_collection       'CrysAlisCCD (Oxford Diffraction, 2004)'
_computing_data_reduction        'CrysAlisRED (Oxford Diffraction, 2004)'
_computing_molecular_graphics    'SHELXTL (Sheldrick, 1990)'
_computing_publication_material  'SHELXL--97 (Sheldrick, 1997)'
_computing_structure_refinement  'SHELXL--97 (Sheldrick, 1997)'
_computing_structure_solution    'SHELXS--97 (Sheldrick, 1997)'
_diffrn_ambient_pressure         100
_diffrn_ambient_temperature      260.0(1)
_diffrn_measured_fraction_theta_full 0.916
_diffrn_measured_fraction_theta_max 0.916
_diffrn_measurement_device_type  'KM-4 CCD'
_diffrn_measurement_method       \w-scans
_diffrn_radiation_monochromator  graphite
_diffrn_radiation_source         'fine-focus sealed tube'
_diffrn_radiation_type           MoK\a
_diffrn_radiation_wavelength     0.71073
_diffrn_reflns_av_R_equivalents  0.0668
_diffrn_reflns_av_sigmaI/netI    0.0594
_diffrn_reflns_limit_h_max       14
_diffrn_reflns_limit_h_min       -14
_diffrn_reflns_limit_k_max       11
_diffrn_reflns_limit_k_min       -11
_diffrn_reflns_limit_l_max       4
_diffrn_reflns_limit_l_min       -4
_diffrn_reflns_number            3060
_diffrn_reflns_theta_full        28.10
_diffrn_reflns_theta_max         28.10
_diffrn_reflns_theta_min         3.49
_diffrn_standards_decay_%        0
_diffrn_standards_interval_count 0
_diffrn_standards_number         0
_exptl_absorpt_coefficient_mu    0.083
_exptl_absorpt_correction_T_max  0.984
_exptl_absorpt_correction_T_min  0.984
_exptl_absorpt_correction_type   numerical
_exptl_absorpt_process_details
; 
 Correction for absorption was made using XEMP (SHELXTL, 
 Sheldrick (1990)).
;
_exptl_crystal_colour            colourless
_exptl_crystal_density_diffrn    1.262
_exptl_crystal_density_method    'not measured'
_exptl_crystal_description       irregular
_exptl_crystal_F_000             168
_exptl_crystal_size_max          0.20
_exptl_crystal_size_mid          0.20
_exptl_crystal_size_min          0.20
_refine_diff_density_max         0.121
_refine_diff_density_min         -0.121
_refine_diff_density_rms         0.031
_refine_ls_abs_structure_details 'Flack H D (1983), Acta Cryst. A39, 876-881'
_refine_ls_abs_structure_Flack   10(8)
_refine_ls_extinction_coef       0.046(9)
_refine_ls_extinction_expression Fc^*^=kFc[1+0.001xFc^2^\l^3^/sin(2\q)]^-1/4^
_refine_ls_extinction_method     SHELXL
_refine_ls_goodness_of_fit_ref   1.051
_refine_ls_hydrogen_treatment    constr
_refine_ls_matrix_type           full
_refine_ls_number_parameters     56
_refine_ls_number_reflns         891
_refine_ls_number_restraints     1
_refine_ls_restrained_S_all      1.050
_refine_ls_R_factor_all          0.1143
_refine_ls_R_factor_gt           0.0572
_refine_ls_shift/su_max          0.000
_refine_ls_shift/su_mean         0.000
_refine_ls_structure_factor_coef Fsqd
_refine_ls_weighting_details
'calc w=1/[\s^2^(Fo^2^)+(0.0413P)^2^+0.0000P] where P=(Fo^2^+2Fc^2^)/3'
_refine_ls_weighting_scheme      calc
_refine_ls_wR_factor_gt          0.1114
_refine_ls_wR_factor_ref         0.1409
_reflns_number_gt                515
_reflns_number_total             891
_reflns_threshold_expression     >2sigma(I)
_cod_data_source_file            cg5b00657_si_002.cif
_cod_data_source_block           phaseI_260K
_cod_original_cell_volume        421.6(3)
_cod_database_code               4516343
loop_
_symmetry_equiv_pos_as_xyz
'x, y, z'
'-x, -y, z+1/2'
'x+1/2, -y+1/2, z'
'-x+1/2, y+1/2, z+1/2'
loop_
_atom_site_label
_atom_site_type_symbol
_atom_site_fract_x
_atom_site_fract_y
_atom_site_fract_z
_atom_site_U_iso_or_equiv
_atom_site_adp_type
_atom_site_occupancy
_atom_site_symmetry_multiplicity
_atom_site_calc_flag
_atom_site_refinement_flags
N1 N 0.1278(2) 0.3961(3) 0.0221(11) 0.0646(9) Uani 1 1 d .
N3 N 0.0124(2) 0.1909(3) 0.0140(9) 0.0685(11) Uani 1 1 d .
C2 C 0.0312(3) 0.3258(3) 0.0742(13) 0.0624(12) Uani 1 1 d .
H2 H -0.0301 0.3773 0.1630 0.075 Uiso 1 1 calc R
C4 C 0.1012(3) 0.1190(3) -0.1043(12) 0.0693(13) Uani 1 1 d .
H4 H 0.0921 0.0236 -0.1515 0.083 Uiso 1 1 calc R
C5 C 0.2062(3) 0.1789(3) -0.1606(10) 0.0631(12) Uani 1 1 d .
H5 H 0.2682 0.1264 -0.2401 0.076 Uiso 1 1 calc R
C6 C 0.2149(3) 0.3198(4) -0.0936(9) 0.0633(13) Uani 1 1 d .
H6 H 0.2849 0.3639 -0.1308 0.076 Uiso 1 1 calc R
loop_
_atom_site_aniso_label
_atom_site_aniso_U_11
_atom_site_aniso_U_22
_atom_site_aniso_U_33
_atom_site_aniso_U_23
_atom_site_aniso_U_13
_atom_site_aniso_U_12
N1 0.0569(16) 0.0480(15) 0.089(3) -0.0070(18) -0.0051(19) -0.0020(14)
N3 0.0510(16) 0.0541(17) 0.100(3) -0.004(2) 0.0016(18) -0.0012(14)
C2 0.052(2) 0.057(2) 0.078(3) -0.012(3) -0.006(2) 0.0110(17)
C4 0.070(2) 0.046(2) 0.092(4) -0.008(2) -0.007(2) 0.0036(18)
C5 0.052(2) 0.059(2) 0.078(3) -0.012(2) -0.0023(19) 0.0079(18)
C6 0.0484(18) 0.068(3) 0.074(3) -0.005(3) -0.0011(16) -0.0088(18)
loop_
_atom_type_symbol
_atom_type_description
_atom_type_scat_dispersion_real
_atom_type_scat_dispersion_imag
_atom_type_scat_source
C C 0.0033 0.0016 'International Tables Vol C Tables 4.2.6.8 and 6.1.1.4'
H H 0.0000 0.0000 'International Tables Vol C Tables 4.2.6.8 and 6.1.1.4'
N N 0.0061 0.0033 'International Tables Vol C Tables 4.2.6.8 and 6.1.1.4'
loop_
_geom_angle_atom_site_label_1
_geom_angle_atom_site_label_2
_geom_angle_atom_site_label_3
_geom_angle
C6 N1 C2 115.4(3)
C2 N3 C4 115.5(3)
N3 C2 N1 127.2(3)
N3 C4 C5 122.9(3)
C6 C5 C4 116.4(3)
N1 C6 C5 122.7(3)
loop_
_geom_bond_atom_site_label_1
_geom_bond_atom_site_label_2
_geom_bond_distance
N1 C6 1.325(4)
N1 C2 1.326(4)
N3 C2 1.320(4)
N3 C4 1.321(4)
C4 C5 1.368(4)
C5 C6 1.366(4)
loop_
_refln_index_h
_refln_index_k
_refln_index_l
_refln_F_squared_calc
_refln_F_squared_meas
_refln_F_squared_sigma
_refln_observed_status
0 0 -4 3.87 3.84 1.91 o
2 0 -4 3.60 2.82 0.76 o
4 0 -4 0.70 0.64 0.78 o
6 0 -4 1.49 2.34 1.42 o
8 0 -4 0.87 -0.51 1.35 o
1 1 -4 0.88 -0.12 0.50 o
2 1 -4 0.73 0.75 0.48 o
3 1 -4 1.39 0.56 0.47 o
4 1 -4 0.90 0.28 0.90 o
5 1 -4 1.91 2.99 0.74 o
6 1 -4 1.60 2.52 0.79 o
7 1 -4 0.28 1.63 1.04 o
8 1 -4 2.00 4.02 2.88 o
0 2 -4 1.29 1.66 0.80 o
1 2 -4 0.84 0.14 0.56 o
2 2 -4 1.63 0.39 0.56 o
3 2 -4 5.53 4.26 0.73 o
4 2 -4 0.23 0.53 0.52 o
5 2 -4 1.04 -0.33 0.96 o
6 2 -4 0.21 -0.81 1.02 o
7 2 -4 0.59 1.15 0.89 o
1 3 -4 0.61 0.48 0.50 o
2 3 -4 0.11 1.34 0.69 o
3 3 -4 3.14 3.79 1.03 o
4 3 -4 0.15 -0.81 1.03 o
5 3 -4 2.67 3.12 0.78 o
6 3 -4 0.11 0.73 1.57 o
7 3 -4 1.07 -0.17 1.25 o
0 4 -4 0.40 0.51 2.01 o
1 4 -4 2.41 2.73 0.75 o
2 4 -4 0.07 1.33 0.66 o
3 4 -4 1.50 1.37 1.10 o
4 4 -4 0.07 1.39 1.36 o
5 4 -4 0.12 1.99 1.02 o
6 4 -4 0.16 0.05 1.27 o
7 4 -4 0.23 -0.64 0.88 o
1 5 -4 2.82 5.24 2.01 o
2 5 -4 0.60 2.45 0.97 o
3 5 -4 1.64 4.19 1.31 o
4 5 -4 0.41 -0.93 1.35 o
5 5 -4 0.06 0.68 1.77 o
6 5 -4 0.36 -0.73 2.40 o
0 6 -4 2.34 9.87 3.59 o
1 6 -4 1.60 7.55 2.69 o
2 6 -4 1.56 -0.33 0.93 o
3 6 -4 0.55 2.86 1.24 o
4 6 -4 0.29 -2.71 2.71 o
2 0 -3 2.14 1.22 0.56 o
4 0 -3 19.22 19.23 1.70 o
6 0 -3 5.42 6.83 1.67 o
8 0 -3 30.93 39.19 10.67 o
10 0 -3 1.39 0.32 1.11 o
0 1 -3 0.26 0.55 1.11 o
1 1 -3 9.84 8.89 1.12 o
2 1 -3 50.86 48.42 2.26 o
3 1 -3 16.89 15.68 1.16 o
4 1 -3 0.99 0.46 0.38 o
5 1 -3 1.74 1.79 0.49 o
6 1 -3 8.19 11.61 1.56 o
7 1 -3 1.06 2.66 0.92 o
8 1 -3 5.67 9.42 2.82 o
9 1 -3 0.29 1.32 0.91 o
10 1 -3 2.88 1.42 2.25 o
11 1 -3 0.60 0.48 1.78 o
1 2 -3 18.80 22.44 1.93 o
2 2 -3 1.46 0.67 0.38 o
3 2 -3 23.06 25.12 1.62 o
4 2 -3 10.32 10.57 1.06 o
5 2 -3 10.17 12.33 1.54 o
6 2 -3 0.07 -0.50 0.75 o
7 2 -3 1.83 2.87 1.01 o
8 2 -3 5.80 6.60 1.71 o
9 2 -3 0.34 0.84 2.68 o
10 2 -3 0.04 0.33 1.31 o
0 3 -3 2.18 1.04 0.75 o
1 3 -3 7.95 7.68 0.91 o
2 3 -3 4.68 4.82 0.96 o
3 3 -3 18.07 20.51 1.92 o
4 3 -3 3.85 3.87 1.05 o
5 3 -3 0.43 0.19 0.69 o
6 3 -3 0.08 -0.73 0.79 o
7 3 -3 0.44 1.34 0.60 o
8 3 -3 0.20 -1.50 1.50 o
9 3 -3 2.27 2.30 1.01 o
10 3 -3 0.50 -0.31 1.29 o
1 4 -3 4.49 5.64 0.91 o
2 4 -3 1.81 2.29 1.11 o
3 4 -3 10.87 10.57 1.95 o
4 4 -3 0.28 -0.42 0.83 o
5 4 -3 0.50 0.23 0.85 o
6 4 -3 0.80 1.24 0.87 o
7 4 -3 9.31 8.17 1.67 o
8 4 -3 3.14 3.51 1.56 o
9 4 -3 2.70 5.00 3.05 o
0 5 -3 1.34 3.04 1.52 o
1 5 -3 7.06 10.19 1.75 o
2 5 -3 10.06 13.09 2.09 o
3 5 -3 7.09 4.85 1.31 o
4 5 -3 0.42 -0.65 1.16 o
5 5 -3 1.14 3.03 0.82 o
6 5 -3 1.06 2.99 1.13 o
7 5 -3 4.11 5.00 1.36 o
8 5 -3 0.44 4.85 2.01 o
9 5 -3 3.87 5.87 3.24 o
1 6 -3 7.55 14.19 3.28 o
2 6 -3 3.49 3.60 2.43 o
3 6 -3 3.22 1.53 2.51 o
4 6 -3 9.45 12.28 2.51 o
5 6 -3 0.88 -0.21 1.01 o
6 6 -3 0.03 -0.10 0.99 o
7 6 -3 3.40 1.42 3.29 o
8 6 -3 4.86 4.72 2.47 o
1 7 -3 0.78 5.63 2.97 o
2 7 -3 15.92 24.59 4.87 o
3 7 -3 0.73 0.19 1.78 o
4 7 -3 1.22 0.07 1.23 o
5 7 -3 0.26 -0.38 0.84 o
6 7 -3 0.21 -0.58 2.40 o
7 7 -3 0.19 3.43 2.68 o
8 7 -3 0.11 2.06 2.51 o
2 8 -3 0.41 -2.30 2.30 o
3 8 -3 1.30 1.50 2.09 o
4 8 -3 4.38 2.11 1.31 o
5 8 -3 1.35 -1.42 1.75 o
6 8 -3 0.28 0.80 0.81 o
7 8 -3 0.27 1.87 1.87 o
2 9 -3 2.12 -0.20 1.43 o
0 0 -2 566.82 532.14 18.63 o
2 0 -2 446.76 437.34 15.69 o
4 0 -2 1.52 1.46 0.39 o
6 0 -2 54.57 62.92 3.47 o
8 0 -2 40.85 40.26 4.86 o
10 0 -2 22.74 20.11 3.01 o
12 0 -2 2.47 0.94 2.25 o
1 1 -2 81.31 73.49 1.89 o
2 1 -2 96.22 87.68 1.87 o
3 1 -2 42.80 40.63 1.23 o
4 1 -2 83.30 89.93 1.93 o
5 1 -2 13.18 14.15 1.03 o
6 1 -2 9.80 10.89 1.05 o
7 1 -2 0.30 1.19 0.66 o
8 1 -2 73.08 80.93 4.24 o
9 1 -2 1.32 2.52 0.89 o
10 1 -2 13.58 12.45 1.89 o
11 1 -2 5.04 1.66 1.23 o
12 1 -2 1.90 0.81 2.15 o
13 1 -2 2.11 3.60 2.95 o
0 2 -2 32.73 31.87 3.46 o
1 2 -2 110.12 116.87 3.20 o
2 2 -2 153.60 157.93 3.66 o
3 2 -2 74.14 78.87 2.06 o
4 2 -2 47.07 50.57 1.73 o
5 2 -2 3.70 3.88 0.60 o
6 2 -2 10.63 13.49 1.31 o
7 2 -2 1.39 1.94 0.91 o
8 2 -2 3.45 3.74 0.65 o
9 2 -2 2.49 1.87 0.70 o
10 2 -2 2.82 2.42 1.30 o
11 2 -2 5.42 8.83 2.24 o
12 2 -2 1.94 1.31 2.56 o
13 2 -2 4.73 4.43 2.14 o
1 3 -2 48.27 51.35 1.64 o
2 3 -2 49.90 55.82 2.79 o
3 3 -2 43.38 43.21 2.00 o
4 3 -2 16.25 15.95 1.27 o
5 3 -2 0.39 -0.32 0.52 o
6 3 -2 19.51 19.73 1.57 o
7 3 -2 10.91 10.61 1.18 o
8 3 -2 0.98 1.24 0.66 o
9 3 -2 0.17 -0.12 0.49 o
10 3 -2 1.19 0.85 1.10 o
11 3 -2 6.52 7.76 2.34 o
12 3 -2 1.64 3.57 1.92 o
13 3 -2 4.18 1.72 1.94 o
0 4 -2 52.34 59.08 3.07 o
1 4 -2 4.32 5.73 0.56 o
2 4 -2 6.82 7.21 0.87 o
3 4 -2 15.39 14.59 1.71 o
4 4 -2 23.23 22.60 1.92 o
5 4 -2 8.40 9.91 1.29 o
6 4 -2 3.24 4.81 0.90 o
7 4 -2 11.40 13.57 1.43 o
8 4 -2 2.65 2.00 0.97 o
9 4 -2 5.09 5.12 1.11 o
10 4 -2 4.74 6.00 1.94 o
11 4 -2 0.68 1.00 0.98 o
12 4 -2 1.34 0.70 1.59 o
13 4 -2 0.88 -2.29 2.64 o
1 5 -2 21.29 28.05 1.96 o
2 5 -2 9.88 11.29 1.55 o
3 5 -2 8.87 7.26 1.12 o
4 5 -2 15.39 13.20 1.51 o
5 5 -2 13.21 15.38 1.75 o
6 5 -2 3.03 3.18 0.88 o
7 5 -2 33.37 37.28 3.17 o
8 5 -2 15.96 20.64 2.96 o
9 5 -2 4.66 5.03 1.77 o
10 5 -2 1.25 1.06 1.28 o
11 5 -2 0.05 -1.45 1.45 o
12 5 -2 0.13 -2.26 2.26 o
0 6 -2 6.04 7.29 3.91 o
1 6 -2 5.33 5.93 1.18 o
2 6 -2 63.03 68.01 4.92 o
3 6 -2 12.46 13.13 2.05 o
4 6 -2 29.04 30.46 2.66 o
5 6 -2 2.36 1.31 1.04 o
6 6 -2 3.20 2.78 0.78 o
7 6 -2 7.62 9.81 2.08 o
8 6 -2 1.76 1.63 2.13 o
9 6 -2 4.85 4.43 1.81 o
10 6 -2 3.24 4.69 1.95 o
11 6 -2 0.16 1.54 1.39 o
1 7 -2 4.80 3.74 1.17 o
2 7 -2 8.16 10.07 1.48 o
3 7 -2 5.94 4.34 1.20 o
4 7 -2 32.69 35.96 3.45 o
5 7 -2 1.79 3.27 1.22 o
6 7 -2 16.64 18.65 2.85 o
7 7 -2 0.99 1.32 1.51 o
8 7 -2 10.08 10.18 3.16 o
9 7 -2 0.21 1.08 2.69 o
10 7 -2 0.24 1.86 2.24 o
11 7 -2 0.12 -2.33 2.33 o
0 8 -2 1.43 1.21 2.08 o
1 8 -2 0.81 0.25 0.91 o
2 8 -2 29.02 30.51 4.01 o
3 8 -2 0.16 1.58 1.61 o
4 8 -2 12.98 15.47 5.77 o
5 8 -2 4.46 5.62 4.16 o
6 8 -2 2.27 5.76 2.34 o
7 8 -2 3.72 5.14 2.18 o
8 8 -2 1.31 0.58 1.43 o
9 8 -2 0.29 1.71 1.31 o
10 8 -2 0.16 -0.66 1.87 o
1 9 -2 0.45 2.41 1.24 o
2 9 -2 0.91 0.16 2.55 o
3 9 -2 2.61 4.38 3.14 o
4 9 -2 4.00 2.34 3.17 o
5 9 -2 5.16 5.16 4.18 o
6 9 -2 1.02 2.45 1.74 o
7 9 -2 2.08 3.24 2.85 o
8 9 -2 1.59 4.82 1.98 o
0 10 -2 5.38 9.17 4.54 o
1 10 -2 0.82 0.79 1.48 o
2 10 -2 1.08 2.50 2.31 o
3 10 -2 0.78 -1.00 1.89 o
4 10 -2 0.55 2.66 3.30 o
5 10 -2 0.90 -0.75 1.61 o
6 10 -2 0.87 3.14 1.88 o
1 11 -2 0.15 -1.01 2.75 o
2 11 -2 1.03 1.44 2.12 o
2 0 -1 2317.62 2226.72 46.57 o
4 0 -1 105.98 114.60 4.45 o
6 0 -1 65.33 66.50 5.45 o
8 0 -1 93.52 88.88 7.51 o
10 0 -1 117.22 124.03 9.99 o
12 0 -1 9.13 7.60 2.70 o
14 0 -1 0.62 -0.53 1.78 o
0 1 -1 5577.47 5819.47 56.03 o
1 1 -1 144.33 141.19 3.93 o
2 1 -1 750.82 738.93 16.11 o
3 1 -1 47.98 48.19 1.93 o
4 1 -1 176.37 163.93 5.04 o
5 1 -1 17.79 18.23 1.31 o
6 1 -1 64.89 67.81 3.17 o
7 1 -1 3.91 3.54 0.82 o
8 1 -1 44.20 39.78 2.83 o
9 1 -1 17.89 18.42 2.50 o
10 1 -1 42.34 43.26 4.14 o
11 1 -1 2.36 1.93 1.18 o
12 1 -1 13.41 10.87 2.15 o
13 1 -1 4.71 2.62 0.98 o
14 1 -1 3.46 1.92 1.14 o
1 2 -1 231.97 231.48 5.60 o
2 2 -1 13.66 14.04 1.28 o
3 2 -1 87.64 79.56 2.06 o
4 2 -1 92.59 93.20 2.86 o
5 2 -1 9.58 10.90 0.96 o
6 2 -1 189.69 191.30 7.93 o
7 2 -1 3.60 2.41 0.87 o
8 2 -1 22.03 19.64 1.95 o
9 2 -1 4.13 3.73 1.06 o
10 2 -1 17.31 16.51 2.73 o
11 2 -1 38.16 38.12 4.13 o
12 2 -1 2.95 3.98 1.40 o
13 2 -1 4.80 2.60 1.34 o
14 2 -1 1.97 -0.61 2.12 o
0 3 -1 134.48 142.36 8.21 o
1 3 -1 74.15 78.37 2.33 o
2 3 -1 16.75 17.09 1.17 o
3 3 -1 11.86 11.33 0.84 o
4 3 -1 387.20 389.89 5.37 o
5 3 -1 2.64 2.86 0.64 o
6 3 -1 24.63 27.97 1.88 o
7 3 -1 1.67 1.39 1.04 o
8 3 -1 8.51 7.92 1.26 o
9 3 -1 5.91 7.19 1.74 o
10 3 -1 0.62 0.98 1.21 o
11 3 -1 3.93 4.11 1.46 o
12 3 -1 2.90 4.92 1.82 o
13 3 -1 3.87 3.63 1.84 o
14 3 -1 0.95 0.80 1.75 o
1 4 -1 43.98 47.83 2.39 o
2 4 -1 284.76 264.67 5.95 o
3 4 -1 1.88 1.86 0.45 o
4 4 -1 3.83 3.22 0.91 o
5 4 -1 16.09 15.75 1.47 o
6 4 -1 23.49 30.76 2.35 o
7 4 -1 49.90 44.39 4.35 o
8 4 -1 5.60 1.11 1.21 o
9 4 -1 6.12 5.51 0.94 o
10 4 -1 7.39 8.06 2.14 o
11 4 -1 4.93 3.02 1.53 o
12 4 -1 1.40 3.25 1.70 o
13 4 -1 1.45 1.22 0.88 o
0 5 -1 313.97 315.70 12.47 o
1 5 -1 4.55 3.13 1.04 o
2 5 -1 55.46 60.97 3.00 o
3 5 -1 13.59 12.34 1.40 o
4 5 -1 15.47 12.01 1.66 o
5 5 -1 34.38 32.18 1.85 o
6 5 -1 3.56 1.53 2.18 o
7 5 -1 14.87 16.11 2.72 o
8 5 -1 1.13 2.87 1.39 o
9 5 -1 9.37 8.53 2.56 o
10 5 -1 8.64 5.11 1.65 o
11 5 -1 0.74 0.84 1.54 o
12 5 -1 4.08 2.99 1.52 o
13 5 -1 0.44 1.69 1.14 o
1 6 -1 22.17 24.32 2.60 o
2 6 -1 4.75 4.63 1.28 o
3 6 -1 5.94 4.83 0.96 o
4 6 -1 31.79 28.86 2.23 o
5 6 -1 18.68 14.29 2.17 o
6 6 -1 120.06 133.71 8.02 o
7 6 -1 24.92 26.02 3.58 o
8 6 -1 13.29 11.95 2.64 o
9 6 -1 1.00 2.94 1.56 o
10 6 -1 4.61 3.04 2.17 o
11 6 -1 0.23 -1.17 1.17 o
12 6 -1 1.66 1.12 1.86 o
0 7 -1 20.41 23.33 3.90 o
1 7 -1 2.95 2.99 0.85 o
2 7 -1 44.24 40.81 2.92 o
3 7 -1 2.74 1.56 0.51 o
4 7 -1 179.94 184.44 12.47 o
5 7 -1 2.62 3.33 1.44 o
6 7 -1 16.14 13.91 2.75 o
7 7 -1 6.57 5.42 1.83 o
8 7 -1 6.20 6.40 2.01 o
9 7 -1 0.90 5.45 2.20 o
10 7 -1 3.10 1.09 1.54 o
11 7 -1 0.01 -0.47 1.07 o
1 8 -1 0.29 0.24 0.92 o
2 8 -1 2.12 2.06 1.85 o
3 8 -1 16.25 15.84 2.57 o
4 8 -1 20.59 22.86 5.47 o
5 8 -1 4.28 3.96 6.32 o
6 8 -1 52.34 63.63 6.16 o
7 8 -1 2.05 1.58 1.67 o
8 8 -1 5.01 4.87 1.71 o
9 8 -1 0.87 0.88 1.31 o
10 8 -1 4.50 3.84 2.92 o
0 9 -1 27.21 24.53 5.17 o
1 9 -1 0.45 0.21 0.76 o
2 9 -1 8.49 4.81 1.40 o
3 9 -1 2.19 1.60 1.20 o
4 9 -1 11.22 11.86 3.65 o
5 9 -1 9.13 10.61 3.39 o
6 9 -1 4.33 2.02 2.17 o
7 9 -1 4.09 6.80 2.23 o
8 9 -1 3.51 2.78 2.31 o
9 9 -1 0.42 -0.04 1.39 o
1 10 -1 1.77 5.58 1.46 o
2 10 -1 8.36 11.15 2.51 o
3 10 -1 0.28 1.47 1.01 o
4 10 -1 0.12 0.37 1.61 o
5 10 -1 4.02 3.44 2.72 o
6 10 -1 1.49 2.95 1.09 o
7 10 -1 1.15 0.44 1.28 o
0 11 -1 6.22 1.30 1.65 o
1 11 -1 1.57 2.95 1.62 o
2 11 -1 0.84 0.66 1.06 o
3 11 -1 1.08 3.69 1.79 o
4 11 -1 2.48 6.07 2.74 o
5 11 -1 0.21 -0.72 2.42 o
2 0 0 111.75 127.61 4.28 o
4 0 0 293.62 304.64 9.81 o
6 0 0 28.09 29.15 3.52 o
8 0 0 98.73 102.65 7.92 o
10 0 0 86.66 94.62 8.87 o
12 0 0 40.33 45.42 7.60 o
14 0 0 2.73 2.80 2.22 o
2 1 0 2680.32 2477.26 32.26 o
3 1 0 34.31 40.05 1.54 o
4 1 0 2.93 4.45 1.07 o
5 1 0 0.09 -0.31 0.31 o
6 1 0 223.95 217.57 7.95 o
7 1 0 20.93 22.96 1.28 o
8 1 0 5.83 6.23 1.48 o
9 1 0 1.72 3.12 1.21 o
10 1 0 133.65 134.79 7.39 o
11 1 0 30.57 32.68 3.84 o
12 1 0 11.32 14.59 2.71 o
13 1 0 1.00 0.44 1.67 o
14 1 0 0.34 5.00 1.71 o
0 2 0 1779.59 1841.00 25.38 o
1 2 0 28.65 29.14 1.16 o
2 2 0 13.86 13.29 0.85 o
3 2 0 0.20 0.38 0.35 o
4 2 0 929.89 906.61 19.61 o
5 2 0 27.27 27.18 2.74 o
6 2 0 72.51 76.46 4.87 o
7 2 0 1.05 2.60 0.94 o
8 2 0 0.13 1.05 0.99 o
9 2 0 49.84 46.33 4.12 o
10 2 0 19.12 22.08 2.91 o
11 2 0 0.00 -0.94 0.94 o
12 2 0 3.04 4.52 1.54 o
13 2 0 9.88 7.14 3.03 o
14 2 0 2.14 2.57 1.20 o
1 3 0 7.34 11.14 1.40 o
2 3 0 453.91 418.95 6.80 o
3 3 0 7.47 7.01 0.84 o
4 3 0 30.31 28.15 2.94 o
5 3 0 13.21 12.49 2.58 o
6 3 0 320.60 343.53 13.84 o
7 3 0 4.13 6.16 1.61 o
8 3 0 4.38 4.66 1.52 o
9 3 0 11.77 13.75 2.27 o
10 3 0 0.00 1.00 1.55 o
11 3 0 36.65 33.29 3.93 o
12 3 0 0.01 0.38 1.57 o
13 3 0 1.12 -0.79 1.03 o
14 3 0 2.87 4.19 1.71 o
0 4 0 1203.76 1207.26 24.07 o
1 4 0 7.17 8.14 1.16 o
2 4 0 0.36 0.82 0.38 o
3 4 0 1.69 1.15 0.56 o
4 4 0 122.21 104.48 10.26 o
5 4 0 52.08 54.10 2.28 o
6 4 0 9.32 9.94 2.20 o
7 4 0 0.51 -0.82 1.16 o
8 4 0 11.47 6.75 2.31 o
9 4 0 0.06 1.16 1.25 o
10 4 0 3.26 5.23 1.66 o
11 4 0 1.43 2.45 1.20 o
12 4 0 8.53 10.70 2.33 o
13 4 0 0.00 -1.27 1.27 o
1 5 0 69.31 74.00 4.17 o
2 5 0 134.94 125.82 5.55 o
3 5 0 0.78 0.13 0.35 o
4 5 0 0.15 1.28 1.34 o
5 5 0 16.39 16.59 2.60 o
6 5 0 41.22 42.04 4.27 o
7 5 0 63.84 69.89 6.82 o
8 5 0 1.34 0.17 0.90 o
9 5 0 4.81 2.16 1.44 o
10 5 0 12.99 12.29 2.68 o
11 5 0 0.00 -0.61 1.11 o
12 5 0 3.06 5.20 1.53 o
13 5 0 0.03 0.39 1.80 o
0 6 0 199.60 211.65 11.89 o
1 6 0 0.41 0.49 0.80 o
2 6 0 0.52 3.32 1.28 o
3 6 0 0.40 0.81 0.68 o
4 6 0 266.35 265.52 13.04 o
5 6 0 8.18 9.94 2.83 o
6 6 0 15.83 14.02 2.54 o
7 6 0 6.17 4.41 1.69 o
8 6 0 10.10 9.49 2.09 o
9 6 0 6.76 6.91 2.22 o
10 6 0 7.90 6.43 1.92 o
11 6 0 0.33 -0.31 1.15 o
12 6 0 3.46 2.65 1.35 o
1 7 0 1.37 3.18 1.32 o
2 7 0 9.81 8.45 1.98 o
3 7 0 23.11 27.39 3.07 o
4 7 0 12.40 8.60 2.69 o
5 7 0 18.09 21.63 4.08 o
6 7 0 232.26 244.23 11.62 o
7 7 0 1.14 -0.44 0.87 o
8 7 0 1.20 0.05 1.14 o
9 7 0 0.50 0.46 1.00 o
10 7 0 7.67 13.06 3.16 o
11 7 0 0.03 5.96 2.41 o
0 8 0 33.77 29.51 4.65 o
1 8 0 4.05 2.28 1.02 o
2 8 0 0.58 0.54 0.87 o
3 8 0 0.04 0.08 1.08 o
4 8 0 141.80 158.12 9.54 o
5 8 0 17.85 17.68 3.93 o
6 8 0 20.95 20.04 3.49 o
7 8 0 4.65 3.05 1.59 o
8 8 0 0.61 -0.96 0.96 o
9 8 0 0.11 2.27 1.64 o
10 8 0 2.57 2.60 1.57 o
1 9 0 1.88 0.69 0.97 o
2 9 0 4.07 2.82 1.42 o
3 9 0 8.33 8.79 2.43 o
4 9 0 2.02 0.68 1.82 o
5 9 0 0.19 1.87 3.63 o
6 9 0 12.03 12.45 2.86 o
7 9 0 4.17 8.21 2.56 o
8 9 0 0.14 -0.32 0.84 o
9 9 0 0.06 0.57 2.37 o
0 10 0 37.23 31.76 5.97 o
1 10 0 0.74 1.38 1.65 o
2 10 0 1.44 1.18 0.95 o
3 10 0 5.37 5.88 1.95 o
4 10 0 0.09 2.49 1.74 o
5 10 0 2.18 0.40 3.75 o
6 10 0 0.46 0.14 1.05 o
7 10 0 0.46 0.25 1.72 o
1 11 0 1.16 2.30 1.22 o
2 11 0 6.28 5.30 2.13 o
3 11 0 1.10 1.70 1.70 o
4 11 0 0.66 2.75 5.49 o
5 11 0 3.03 5.54 2.58 o
2 0 1 2317.12 2408.30 40.50 o
4 0 1 105.97 100.55 5.37 o
6 0 1 65.37 64.53 5.38 o
8 0 1 93.60 93.08 7.62 o
10 0 1 117.20 126.55 10.17 o
12 0 1 9.13 10.53 3.27 o
14 0 1 0.62 2.26 2.09 o
0 1 1 5576.58 5714.57 56.30 o
1 1 1 144.43 138.51 3.64 o
2 1 1 751.26 701.89 16.74 o
3 1 1 48.06 43.33 2.29 o
4 1 1 176.35 169.62 4.33 o
5 1 1 17.78 18.22 1.52 o
6 1 1 64.96 62.15 3.05 o
7 1 1 3.92 3.21 0.77 o
8 1 1 44.23 39.32 3.47 o
9 1 1 17.88 21.37 2.73 o
10 1 1 42.32 46.98 4.35 o
11 1 1 2.36 1.50 1.67 o
12 1 1 13.41 15.27 2.76 o
13 1 1 4.71 4.35 1.39 o
14 1 1 3.46 6.31 1.93 o
1 2 1 231.97 226.21 7.66 o
2 2 1 13.67 11.36 1.39 o
3 2 1 87.66 83.31 2.66 o
4 2 1 92.63 82.08 4.42 o
5 2 1 9.61 11.05 1.10 o
6 2 1 189.65 212.77 6.68 o
7 2 1 3.59 3.24 0.92 o
8 2 1 22.04 20.55 2.02 o
9 2 1 4.13 2.81 1.49 o
10 2 1 17.31 19.19 2.77 o
11 2 1 38.15 37.21 4.13 o
12 2 1 2.95 3.50 0.90 o
13 2 1 4.80 4.23 1.23 o
14 2 1 1.98 2.91 1.40 o
0 3 1 134.42 134.91 7.73 o
1 3 1 74.14 74.76 2.90 o
2 3 1 16.76 15.98 1.50 o
3 3 1 11.87 10.35 1.46 o
4 3 1 387.12 375.20 10.20 o
5 3 1 2.64 1.45 0.70 o
6 3 1 24.61 28.68 3.11 o
7 3 1 1.66 1.28 0.92 o
8 3 1 8.50 11.16 1.64 o
9 3 1 5.92 5.74 1.28 o
10 3 1 0.62 1.05 1.08 o
11 3 1 3.93 4.31 1.39 o
12 3 1 2.90 1.15 1.34 o
13 3 1 3.87 4.17 1.40 o
14 3 1 0.95 -1.04 1.04 o
1 4 1 43.93 46.31 2.48 o
2 4 1 284.71 277.42 6.45 o
3 4 1 1.87 1.41 0.62 o
4 4 1 3.82 3.66 1.16 o
5 4 1 16.07 16.00 3.08 o
6 4 1 23.47 28.75 3.22 o
7 4 1 49.90 48.32 4.52 o
8 4 1 5.61 5.71 1.81 o
9 4 1 6.13 6.51 1.71 o
10 4 1 7.39 5.98 1.48 o
11 4 1 4.93 4.99 1.32 o
12 4 1 1.40 1.65 1.55 o
13 4 1 1.45 1.18 1.02 o
0 5 1 313.92 316.40 12.37 o
1 5 1 4.55 3.51 1.16 o
2 5 1 55.49 57.80 3.13 o
3 5 1 13.61 10.43 1.65 o
4 5 1 15.46 12.19 2.45 o
5 5 1 34.39 33.93 3.48 o
6 5 1 3.57 1.07 1.75 o
7 5 1 14.88 14.89 3.00 o
8 5 1 1.14 3.29 1.52 o
9 5 1 9.37 10.08 2.53 o
10 5 1 8.64 7.83 2.42 o
11 5 1 0.74 0.53 1.70 o
12 5 1 4.08 4.45 1.63 o
13 5 1 0.44 -2.55 2.55 o
1 6 1 22.20 25.10 2.23 o
2 6 1 4.77 4.64 1.53 o
3 6 1 5.94 4.00 1.23 o
4 6 1 31.80 31.47 4.45 o
5 6 1 18.67 17.43 2.65 o
6 6 1 120.03 127.07 7.85 o
7 6 1 24.92 23.68 3.42 o
8 6 1 13.30 14.77 2.55 o
9 6 1 1.00 0.08 0.86 o
10 6 1 4.61 1.53 1.45 o
11 6 1 0.23 3.24 2.01 o
12 6 1 1.66 4.07 1.77 o
0 7 1 20.42 22.17 4.08 o
1 7 1 2.95 3.55 0.79 o
2 7 1 44.30 41.07 3.15 o
3 7 1 2.74 3.02 1.22 o
4 7 1 179.89 186.32 11.88 o
5 7 1 2.62 2.37 1.65 o
6 7 1 16.14 15.14 2.74 o
7 7 1 6.57 6.02 1.71 o
8 7 1 6.20 5.48 1.85 o
9 7 1 0.90 1.02 1.39 o
10 7 1 3.10 1.07 1.48 o
11 7 1 0.01 0.10 1.62 o
1 8 1 0.29 0.71 0.64 o
2 8 1 2.11 2.59 0.89 o
3 8 1 16.25 16.35 3.05 o
4 8 1 20.60 19.69 3.15 o
5 8 1 4.28 5.14 2.29 o
6 8 1 52.32 58.17 6.03 o
7 8 1 2.05 3.36 1.88 o
8 8 1 5.02 4.48 1.66 o
9 8 1 0.87 0.12 1.36 o
10 8 1 4.50 4.99 1.98 o
0 9 1 27.21 26.15 4.78 o
1 9 1 0.45 -0.82 1.14 o
2 9 1 8.50 7.92 1.95 o
3 9 1 2.20 2.03 1.40 o
4 9 1 11.22 13.94 3.47 o
5 9 1 9.13 2.16 4.74 o
6 9 1 4.33 5.38 1.32 o
7 9 1 4.10 4.89 2.13 o
8 9 1 3.51 7.10 2.39 o
9 9 1 0.41 1.37 1.56 o
1 10 1 1.78 3.88 1.17 o
2 10 1 8.36 8.10 2.04 o
3 10 1 0.28 -0.14 1.50 o
4 10 1 0.12 2.76 1.83 o
5 10 1 4.02 8.01 6.33 o
6 10 1 1.49 -0.64 1.30 o
7 10 1 1.15 -0.60 1.27 o
0 11 1 6.22 6.60 2.82 o
1 11 1 1.57 2.14 0.98 o
2 11 1 0.83 0.27 0.76 o
3 11 1 1.08 3.97 2.33 o
4 11 1 2.48 2.68 1.96 o
5 11 1 0.21 1.40 3.13 o
2 0 2 446.94 432.52 16.35 o
4 0 2 1.52 2.42 0.80 o
6 0 2 54.62 50.99 3.90 o
8 0 2 40.87 39.31 4.81 o
10 0 2 22.72 21.11 4.06 o
12 0 2 2.47 4.94 2.25 o
1 1 2 81.34 75.54 2.79 o
2 1 2 96.15 86.92 3.94 o
3 1 2 42.80 41.53 1.85 o
4 1 2 83.31 90.44 3.08 o
5 1 2 13.20 14.25 1.33 o
6 1 2 9.80 11.71 1.42 o
7 1 2 0.30 2.96 0.88 o
8 1 2 73.12 78.89 4.90 o
9 1 2 1.32 0.11 0.78 o
10 1 2 13.57 15.06 2.47 o
11 1 2 5.04 6.58 2.60 o
12 1 2 1.91 5.27 1.73 o
13 1 2 2.12 0.47 1.05 o
14 1 2 0.74 3.86 3.41 o
0 2 2 32.72 32.45 2.94 o
1 2 2 110.11 109.58 4.08 o
2 2 2 153.68 148.24 3.66 o
3 2 2 74.19 71.84 2.70 o
4 2 2 47.04 50.97 2.43 o
5 2 2 3.70 4.59 0.73 o
6 2 2 10.64 9.73 1.40 o
7 2 2 1.39 0.94 0.61 o
8 2 2 3.45 1.83 1.22 o
9 2 2 2.49 2.15 0.77 o
10 2 2 2.82 4.08 1.33 o
11 2 2 5.42 5.59 1.57 o
12 2 2 1.95 1.29 1.12 o
13 2 2 4.73 6.11 2.06 o
14 2 2 1.51 -3.88 3.88 o
1 3 2 48.23 51.35 2.20 o
2 3 2 49.87 49.96 2.43 o
3 3 2 43.36 42.91 2.25 o
4 3 2 16.26 16.29 1.58 o
5 3 2 0.39 0.32 0.46 o
6 3 2 19.48 19.35 2.24 o
7 3 2 10.91 10.90 1.56 o
8 3 2 0.98 0.79 0.99 o
9 3 2 0.17 0.74 0.89 o
10 3 2 1.19 1.47 0.66 o
11 3 2 6.51 7.00 1.95 o
12 3 2 1.64 1.16 1.17 o
13 3 2 4.18 5.78 2.09 o
0 4 2 52.29 64.05 4.29 o
1 4 2 4.32 4.65 0.77 o
2 4 2 6.82 5.95 0.90 o
3 4 2 15.38 16.66 1.64 o
4 4 2 23.21 24.06 2.12 o
5 4 2 8.40 9.92 1.47 o
6 4 2 3.24 3.26 0.98 o
7 4 2 11.40 12.81 2.72 o
8 4 2 2.65 1.47 1.08 o
9 4 2 5.08 3.28 1.20 o
10 4 2 4.74 2.30 1.51 o
11 4 2 0.67 0.48 1.03 o
12 4 2 1.34 3.72 1.56 o
13 4 2 0.88 1.29 3.06 o
1 5 2 21.30 23.17 1.89 o
2 5 2 9.88 11.19 1.50 o
3 5 2 8.87 8.37 1.30 o
4 5 2 15.39 16.14 2.09 o
5 5 2 13.20 14.96 1.93 o
6 5 2 3.03 5.04 1.52 o
7 5 2 33.36 31.16 3.27 o
8 5 2 15.97 15.98 2.78 o
9 5 2 4.68 7.15 1.78 o
10 5 2 1.25 -0.28 0.87 o
11 5 2 0.05 -0.29 0.82 o
12 5 2 0.13 1.16 2.33 o
0 6 2 6.04 4.92 1.46 o
1 6 2 5.34 5.34 0.98 o
2 6 2 63.06 65.77 3.94 o
3 6 2 12.47 11.11 3.08 o
4 6 2 29.03 31.63 3.70 o
5 6 2 2.37 4.56 1.30 o
6 6 2 3.20 3.80 1.03 o
7 6 2 7.62 8.35 1.73 o
8 6 2 1.76 1.26 0.92 o
9 6 2 4.85 5.89 1.71 o
10 6 2 3.24 2.77 1.17 o
11 6 2 0.16 1.47 1.70 o
12 6 2 1.41 -0.39 1.85 o
1 7 2 4.80 4.92 1.52 o
2 7 2 8.16 9.23 1.58 o
3 7 2 5.94 5.29 1.47 o
4 7 2 32.70 36.50 4.22 o
5 7 2 1.79 1.78 1.34 o
6 7 2 16.61 17.18 4.29 o
7 7 2 0.99 0.96 0.68 o
8 7 2 10.09 11.80 2.36 o
9 7 2 0.21 -0.05 0.83 o
10 7 2 0.24 2.07 1.95 o
11 7 2 0.12 0.03 1.83 o
0 8 2 1.43 0.80 0.63 o
1 8 2 0.81 0.29 0.83 o
2 8 2 29.05 34.23 3.55 o
3 8 2 0.16 1.98 1.15 o
4 8 2 12.96 13.60 2.85 o
5 8 2 4.46 5.80 1.76 o
6 8 2 2.27 0.69 0.96 o
7 8 2 3.72 5.51 1.98 o
8 8 2 1.31 0.88 1.97 o
9 8 2 0.29 -0.09 2.56 o
1 9 2 0.46 0.39 0.80 o
2 9 2 0.91 1.63 0.79 o
3 9 2 2.62 1.17 1.19 o
4 9 2 4.00 7.44 2.95 o
5 9 2 5.16 10.51 2.83 o
6 9 2 1.02 0.14 1.74 o
7 9 2 2.08 0.00 4.30 o
8 9 2 1.59 4.87 2.74 o
0 10 2 5.38 3.77 1.32 o
1 10 2 0.82 0.58 1.01 o
2 10 2 1.08 -0.36 0.88 o
3 10 2 0.78 0.58 1.07 o
4 10 2 0.55 0.54 1.69 o
5 10 2 0.90 0.42 1.33 o
6 10 2 0.87 4.63 2.50 o
1 11 2 0.15 -1.67 2.55 o
2 11 2 1.02 2.62 6.99 o
3 11 2 1.71 10.93 5.71 o
4 11 2 1.03 0.11 2.20 o
4 0 3 19.22 20.11 5.11 o
6 0 3 5.42 4.73 2.34 o
2 1 3 50.87 46.46 7.78 o
3 1 3 16.89 11.80 3.84 o
4 1 3 0.99 2.34 1.63 o
5 1 3 1.74 1.98 1.35 o
6 1 3 8.20 6.50 2.07 o
7 1 3 1.06 1.30 1.12 o
8 1 3 5.67 3.08 1.42 o
9 1 3 0.29 2.53 1.98 o
1 2 3 18.81 12.99 4.79 o
2 2 3 1.46 -0.46 1.57 o
3 2 3 23.04 19.82 5.31 o
4 2 3 10.32 7.87 3.59 o
5 2 3 10.18 10.84 4.05 o
6 2 3 0.07 1.37 1.75 o
7 2 3 1.83 3.71 2.64 o
8 2 3 5.80 4.35 2.70 o
9 2 3 0.34 -0.93 1.08 o
10 2 3 0.04 1.81 2.19 o
0 3 3 2.18 2.14 1.92 o
1 3 3 7.95 9.02 2.07 o
2 3 3 4.69 2.60 1.40 o
3 3 3 18.07 16.33 3.39 o
4 3 3 3.84 6.95 2.08 o
5 3 3 0.43 1.75 2.04 o
6 3 3 0.08 0.65 1.16 o
7 3 3 0.44 -1.92 2.42 o
8 3 3 0.20 0.69 1.41 o
9 3 3 2.26 1.77 1.80 o
10 3 3 0.50 -1.42 2.62 o
11 3 3 0.35 -1.98 1.98 o
1 4 3 4.48 2.86 1.23 o
2 4 3 1.80 0.78 0.90 o
3 4 3 10.86 10.74 2.36 o
4 4 3 0.28 0.53 0.86 o
5 4 3 0.50 0.03 1.60 o
6 4 3 0.80 0.58 1.37 o
7 4 3 9.30 7.65 2.38 o
8 4 3 3.14 0.23 2.51 o
9 4 3 2.70 6.33 3.22 o
10 4 3 0.53 0.50 1.59 o
0 5 3 1.34 0.34 1.04 o
1 5 3 7.07 6.06 1.51 o
2 5 3 10.06 7.23 1.88 o
3 5 3 7.09 6.95 1.78 o
4 5 3 0.42 1.53 0.88 o
5 5 3 1.14 -0.61 0.87 o
6 5 3 1.06 -0.06 1.06 o
7 5 3 4.11 2.10 1.54 o
8 5 3 0.44 -0.69 1.53 o
9 5 3 3.87 0.43 1.01 o
1 6 3 7.56 6.96 1.66 o
2 6 3 3.49 4.27 1.69 o
3 6 3 3.22 3.23 1.46 o
4 6 3 9.46 8.91 2.20 o
5 6 3 0.88 1.51 1.66 o
6 6 3 0.03 1.88 1.37 o
7 6 3 3.40 1.36 3.61 o
8 6 3 4.86 1.76 2.78 o
0 7 3 2.61 0.16 0.86 o
1 7 3 0.78 -0.35 1.10 o
2 7 3 15.93 14.31 2.90 o
3 7 3 0.73 2.48 1.50 o
4 7 3 1.21 -0.88 1.02 o
5 7 3 0.26 0.67 1.26 o
6 7 3 0.21 0.81 1.34 o
7 7 3 0.19 0.11 1.67 o
8 7 3 0.11 -0.49 2.12 o
1 8 3 0.01 -0.23 0.89 o
2 8 3 0.41 1.48 1.21 o
3 8 3 1.30 0.63 0.88 o
4 8 3 4.38 1.60 1.87 o
5 8 3 1.35 0.51 2.36 o
6 8 3 0.28 1.81 1.60 o
0 9 3 0.74 0.44 0.83 o
1 9 3 0.73 -0.24 1.02 o
2 9 3 2.12 0.15 1.09 o
3 9 3 0.76 1.49 1.38 o
4 9 3 0.19 -3.42 3.42 o
1 10 3 0.14 1.79 2.46 o
5 1 4 1.91 2.83 2.10 o
6 1 4 1.60 1.88 1.64 o
7 1 4 0.28 -2.19 2.19 o
4 2 4 0.24 -0.55 1.71 o
5 2 4 1.04 3.75 3.50 o
6 2 4 0.21 -0.70 1.49 o
7 2 4 0.59 -1.58 1.94 o
8 2 4 0.05 2.16 1.24 o
3 3 4 3.14 6.43 4.05 o
4 3 4 0.15 -2.74 3.62 o
5 3 4 2.67 2.65 3.59 o
6 3 4 0.11 -0.30 2.08 o
7 3 4 1.07 0.93 2.44 o
8 3 4 0.05 -0.12 1.32 o
2 4 4 0.07 -3.13 3.13 o
3 4 4 1.50 0.04 1.81 o
4 4 4 0.07 -0.07 2.00 o
5 4 4 0.12 0.11 1.28 o
6 4 4 0.16 0.61 2.07 o
2 5 4 0.61 2.80 2.89 o
3 5 4 1.64 -1.46 2.54 o
4 5 4 0.41 -1.95 2.35 o
5 5 4 0.06 3.19 1.32 o
0 6 4 2.34 3.78 3.73 o
1 6 4 1.60 1.38 1.21 o
2 6 4 1.56 1.79 1.30 o
3 6 4 0.55 3.84 2.06 o
2 7 4 0.34 3.76 3.52 o
3 7 4 0.05 0.13 2.31 o
