#------------------------------------------------------------------------------
#$Date: 2019-11-22 19:03:52 +0200 (Fri, 22 Nov 2019) $
#$Revision: 231268 $
#$URL: file:///home/coder/svn-repositories/cod/cif/4/51/63/4516360.cif $
#------------------------------------------------------------------------------
#
# This file is available in the Crystallography Open Database (COD),
# http://www.crystallography.net/
#
# All data on this site have been placed in the public domain by the
# contributors.
#
data_4516360
loop_
_publ_author_name
'Patyk, Ewa'
'Podsiad\/lo, Marcin'
'Katrusiak, Andrzej'
_publ_section_title
;
 CH&#x00B7;&#x00B7;&#x00B7;N Bonds and Dynamics in Isostructural
 Pyrimidine Polymorphs
;
_journal_issue                   8
_journal_name_full               'Crystal Growth &amp; Design'
_journal_page_first              4039
_journal_paper_doi               10.1021/acs.cgd.5b00657
_journal_volume                  15
_journal_year                    2015
_chemical_formula_moiety         'C4 H4 N2'
_chemical_formula_sum            'C4 H4 N2'
_chemical_formula_weight         80.09
_chemical_melting_point          293.15
_chemical_name_common            pyrimidine
_chemical_name_systematic
; 
pyrimidine phase III
;
_space_group_IT_number           14
_space_group_name_Hall           '-P 2ac'
_space_group_name_H-M_alt        'P 1 1 21/a'
_symmetry_cell_setting           monoclinic
_symmetry_space_group_name_Hall  '-P 2ac'
_symmetry_space_group_name_H-M   'P 1 1 21/a'
_atom_sites_solution_hydrogens   geom
_atom_sites_solution_primary     direct
_atom_sites_solution_secondary   difmap
_audit_creation_method           SHELXL-97
_cell_angle_alpha                90.00
_cell_angle_beta                 90.00
_cell_angle_gamma                95.05(6)
_cell_formula_units_Z            8
_cell_length_a                   22.096(12)
_cell_length_b                   9.507(5)
_cell_length_c                   3.6415(15)
_cell_measurement_reflns_used    3110
_cell_measurement_temperature    295(2)
_cell_measurement_theta_max      28.10
_cell_measurement_theta_min      2.15
_cell_volume                     762.0(7)
_computing_cell_refinement       'CrysAlisRED (Oxford Diffraction, 2004)'
_computing_data_collection       'CrysAlisCCD (Oxford Diffraction, 2004)'
_computing_data_reduction
'CrysAlisRED (Oxford Diffraction, 2004); REDSHABS (Katrusiak, A.  2003)'
_computing_molecular_graphics    'SHELXTL (Sheldrick, 1990)'
_computing_publication_material  'SHELXL--97 (Sheldrick, 1997)'
_computing_structure_refinement  'SHELXL--97 (Sheldrick, 1997)'
_computing_structure_solution    'SHELXS--97 (Sheldrick, 1997)'
_diffrn_ambient_environment      'diamond-anvil cell'
_diffrn_ambient_pressure         1020000
_diffrn_ambient_temperature      295(2)
_diffrn_measured_fraction_theta_full 0.146
_diffrn_measured_fraction_theta_max 0.146
_diffrn_measurement_device_type  'KM-4 CCD'
_diffrn_measurement_method       '\f- and \w-scans'
_diffrn_radiation_monochromator  graphite
_diffrn_radiation_source         'fine-focus sealed tube'
_diffrn_radiation_type           MoK\a
_diffrn_radiation_wavelength     0.71073
_diffrn_reflns_av_R_equivalents  0.0547
_diffrn_reflns_av_sigmaI/netI    0.0139
_diffrn_reflns_limit_h_max       10
_diffrn_reflns_limit_h_min       -9
_diffrn_reflns_limit_k_max       12
_diffrn_reflns_limit_k_min       -12
_diffrn_reflns_limit_l_max       4
_diffrn_reflns_limit_l_min       -4
_diffrn_reflns_number            3110
_diffrn_reflns_theta_full        28.10
_diffrn_reflns_theta_max         28.10
_diffrn_reflns_theta_min         2.15
_diffrn_standards_decay_%        0
_diffrn_standards_interval_count 0
_diffrn_standards_number         0
_exptl_absorpt_coefficient_mu    0.092
_exptl_absorpt_correction_T_max  0.92
_exptl_absorpt_correction_T_min  0.54
_exptl_absorpt_correction_type   analytical
_exptl_absorpt_process_details
; 
 Correction for absorption of the diamond-anvil cell and the sample 
 were made using program REDSHABS (Katrusiak, A. (2003) REDSHABS. Adam
 Mickiewicz University Pozna\'n; Katrusiak, A. (2004) Z. Kristallogr.
 219, 461-467).
;
_exptl_crystal_colour            colourless
_exptl_crystal_density_diffrn    1.396
_exptl_crystal_density_method    'not measured'
_exptl_crystal_description       cylinder
_exptl_crystal_F_000             336
_exptl_crystal_size_max          0.37
_exptl_crystal_size_mid          0.25
_exptl_crystal_size_min          0.23
_refine_diff_density_max         0.048
_refine_diff_density_min         -0.051
_refine_diff_density_rms         0.014
_refine_ls_extinction_method     none
_refine_ls_goodness_of_fit_ref   1.194
_refine_ls_hydrogen_treatment    constr
_refine_ls_matrix_type           full
_refine_ls_number_parameters     49
_refine_ls_number_reflns         272
_refine_ls_number_restraints     0
_refine_ls_restrained_S_all      1.194
_refine_ls_R_factor_all          0.0517
_refine_ls_R_factor_gt           0.0407
_refine_ls_shift/su_max          0.000
_refine_ls_shift/su_mean         0.000
_refine_ls_structure_factor_coef Fsqd
_refine_ls_weighting_details
'calc w=1/[\s^2^(Fo^2^)+(0.0147P)^2^+0.2830P] where P=(Fo^2^+2Fc^2^)/3'
_refine_ls_weighting_scheme      calc
_refine_ls_wR_factor_gt          0.0649
_refine_ls_wR_factor_ref         0.0696
_reflns_number_gt                233
_reflns_number_total             272
_reflns_threshold_expression     >2sigma(I)
_cod_data_source_file            cg5b00657_si_002.cif
_cod_data_source_block           phaseIII_1.02GPa
_cod_original_cell_volume        762.0(6)
_cod_database_code               4516360
loop_
_symmetry_equiv_pos_as_xyz
'x, y, z'
'-x+1/2, -y, z+1/2'
'-x, -y, -z'
'x-1/2, y, -z-1/2'
loop_
_atom_site_label
_atom_site_type_symbol
_atom_site_fract_x
_atom_site_fract_y
_atom_site_fract_z
_atom_site_U_iso_or_equiv
_atom_site_adp_type
_atom_site_occupancy
_atom_site_symmetry_multiplicity
_atom_site_calc_flag
_atom_site_refinement_flags
N1 N 0.0641(6) 0.3791(5) 0.4316(11) 0.0596(12) Uiso 1 1 d .
N3 N 0.0018(6) 0.1848(5) 0.7160(9) 0.0622(10) Uiso 1 1 d .
C2 C 0.0144(8) 0.3184(7) 0.5712(12) 0.0567(14) Uiso 1 1 d .
H2 H -0.0181 0.3742 0.5741 0.068 Uiso 1 1 calc R
C4 C 0.0547(9) 0.1163(8) 0.7060(13) 0.0560(14) Uiso 1 1 d .
H4 H 0.0531 0.0265 0.8092 0.067 Uiso 1 1 calc R
C5 C 0.1051(10) 0.1644(8) 0.5695(13) 0.0613(16) Uiso 1 1 d .
H5 H 0.1374 0.1082 0.5613 0.074 Uiso 1 1 calc R
C6 C 0.1121(8) 0.3033(7) 0.4300(11) 0.0635(13) Uiso 1 1 d .
H6 H 0.1493 0.3411 0.3388 0.076 Uiso 1 1 calc R
N11 N 0.1848(7) 0.8814(6) 0.7898(10) 0.0656(12) Uiso 1 1 d .
N13 N 0.2447(6) 0.6895(6) 0.6718(9) 0.0586(11) Uiso 1 1 d .
C12 C 0.2331(8) 0.8250(7) 0.6747(11) 0.0652(14) Uiso 1 1 d .
H12 H 0.2638 0.8882 0.5813 0.078 Uiso 1 1 calc R
C14 C 0.1969(8) 0.6049(7) 0.8015(11) 0.0540(13) Uiso 1 1 d .
H14 H 0.2009 0.5083 0.8042 0.065 Uiso 1 1 calc R
C15 C 0.1449(7) 0.6472(6) 0.9253(10) 0.0561(12) Uiso 1 1 d .
H15 H 0.1139 0.5836 1.0132 0.067 Uiso 1 1 calc R
C16 C 0.1394(8) 0.7934(8) 0.9159(12) 0.0679(16) Uiso 1 1 d .
H16 H 0.1038 0.8287 0.9980 0.081 Uiso 1 1 calc R
loop_
_atom_type_symbol
_atom_type_description
_atom_type_scat_dispersion_real
_atom_type_scat_dispersion_imag
_atom_type_scat_source
C C 0.0033 0.0016 'International Tables Vol C Tables 4.2.6.8 and 6.1.1.4'
H H 0.0000 0.0000 'International Tables Vol C Tables 4.2.6.8 and 6.1.1.4'
N N 0.0061 0.0033 'International Tables Vol C Tables 4.2.6.8 and 6.1.1.4'
loop_
_geom_angle_atom_site_label_1
_geom_angle_atom_site_label_2
_geom_angle_atom_site_label_3
_geom_angle
C2 N1 C6 116.2(7)
C2 N3 C4 108.1(11)
N1 C2 N3 130.8(11)
C5 C4 N3 126.2(7)
C4 C5 C6 120.0(12)
N1 C6 C5 118.5(13)
C12 N11 C16 116.8(7)
C12 N13 C14 111.3(11)
N11 C12 N13 129.3(13)
C15 C14 N13 126.0(6)
C14 C15 C16 116.3(13)
N11 C16 C15 120.2(12)
loop_
_geom_bond_atom_site_label_1
_geom_bond_atom_site_label_2
_geom_bond_distance
N1 C2 1.30(2)
N1 C6 1.334(13)
N3 C2 1.381(10)
N3 C4 1.389(15)
C4 C5 1.27(3)
C5 C6 1.410(9)
N11 C12 1.303(14)
N11 C16 1.33(2)
N13 C12 1.336(5)
N13 C14 1.35(2)
C14 C15 1.329(18)
C15 C16 1.406(6)
loop_
_refln_index_h
_refln_index_k
_refln_index_l
_refln_F_squared_calc
_refln_F_squared_meas
_refln_F_squared_sigma
_refln_observed_status
-2 1 0 45.38 45.92 0.34 o
0 1 0 9.43 12.39 0.83 o
-2 2 0 9.72 11.84 0.31 o
0 2 0 7373.71 7396.97 3.38 o
-4 3 0 1741.92 1764.82 15.88 o
-2 3 0 4.78 3.78 0.30 o
0 3 0 6.39 5.89 0.75 o
-6 4 0 7.49 5.25 0.76 o
-4 4 0 2.49 2.79 0.34 o
-2 4 0 225.20 215.55 4.16 o
0 4 0 4400.94 4430.23 15.77 o
-6 5 0 57.95 55.14 1.24 o
-4 5 0 920.12 946.96 4.32 o
-2 5 0 20.38 24.14 1.11 o
-8 6 0 502.59 538.14 29.47 o
-6 6 0 86.42 89.50 1.96 o
-4 6 0 60.82 61.48 1.18 o
-2 6 0 67.50 63.62 1.44 o
-8 7 0 1.09 1.12 0.77 o
-6 7 0 137.88 142.98 1.98 o
-4 7 0 22.10 22.23 1.37 o
-2 7 0 0.06 0.54 0.31 o
-8 8 0 436.29 417.31 4.78 o
-6 8 0 91.56 94.62 2.37 o
-4 8 0 39.82 43.21 2.11 o
-8 9 0 9.05 12.44 1.65 o
-6 9 0 75.48 74.20 2.87 o
-4 9 0 0.01 1.40 1.11 o
-10 10 0 24.98 23.42 5.43 o
-8 10 0 1.76 1.20 1.09 o
-6 10 0 4.66 4.31 1.33 o
-8 11 0 2.74 2.44 1.38 o
1 0 1 1765.45 1746.40 9.22 o
2 0 1 2386.43 2367.52 38.47 o
-3 1 1 2284.78 2268.84 12.02 o
-2 1 1 3098.30 3005.56 29.38 o
-1 1 1 712.15 705.98 10.84 o
0 1 1 1362.91 1355.51 8.80 o
1 1 1 1922.63 1876.51 30.94 o
2 1 1 8804.12 8867.49 25.50 o
-4 2 1 1.69 2.27 0.26 o
-3 2 1 369.12 381.12 2.73 o
-2 2 1 653.06 645.49 8.87 o
-1 2 1 597.42 572.79 7.60 o
0 2 1 1417.88 1395.46 14.83 o
1 2 1 29.07 30.16 3.57 o
-5 3 1 197.87 218.02 8.27 o
-4 3 1 0.25 0.41 0.14 o
-3 3 1 122.09 114.93 2.34 o
-2 3 1 811.22 835.46 10.25 o
-1 3 1 467.06 463.85 1.57 o
0 3 1 101.23 108.59 1.65 o
1 3 1 8.67 4.86 1.16 o
-6 4 1 129.45 139.15 4.16 o
-5 4 1 64.76 70.51 0.98 o
-4 4 1 303.35 313.85 4.34 o
-3 4 1 130.27 128.29 1.39 o
-2 4 1 141.64 147.18 1.88 o
-1 4 1 284.22 261.29 2.26 o
0 4 1 99.63 100.53 2.27 o
-7 5 1 220.32 222.77 1.61 o
-6 5 1 41.97 45.46 0.77 o
-5 5 1 20.52 17.24 0.60 o
-4 5 1 52.83 59.50 0.80 o
-3 5 1 107.64 113.47 1.06 o
-2 5 1 328.78 342.29 1.36 o
-1 5 1 217.87 209.26 2.22 o
0 5 1 42.62 34.90 7.00 o
-8 6 1 87.07 85.54 1.05 o
-7 6 1 0.11 1.12 0.44 o
-6 6 1 22.99 20.53 1.60 o
-5 6 1 4.50 6.37 0.54 o
-4 6 1 17.71 19.51 0.76 o
-3 6 1 9.77 7.28 0.72 o
-2 6 1 38.20 34.47 1.41 o
-1 6 1 166.72 159.63 9.34 o
-9 7 1 59.78 42.75 13.21 o
-8 7 1 12.21 11.98 1.09 o
-7 7 1 17.60 18.42 1.02 o
-6 7 1 57.82 64.13 1.25 o
-5 7 1 138.99 146.13 1.43 o
-4 7 1 1.63 1.25 0.40 o
-3 7 1 1.96 1.88 0.48 o
-2 7 1 33.44 31.73 1.17 o
-9 8 1 191.98 210.63 25.99 o
-8 8 1 1.95 2.50 0.83 o
-7 8 1 50.87 57.95 1.07 o
-6 8 1 1.12 2.41 0.66 o
-5 8 1 1.27 2.08 0.49 o
-4 8 1 4.55 4.44 0.89 o
-3 8 1 10.83 5.10 2.01 o
-9 9 1 0.01 2.41 1.24 o
-8 9 1 12.64 16.88 1.40 o
-7 9 1 0.39 1.92 0.81 o
-6 9 1 47.26 53.49 1.63 o
-5 9 1 33.02 38.84 5.65 o
-4 9 1 10.58 4.52 1.73 o
-9 10 1 4.15 5.11 1.44 o
-8 10 1 6.48 4.87 1.24 o
-7 10 1 7.57 7.20 1.47 o
-6 10 1 38.00 38.46 2.67 o
-5 10 1 1.01 0.90 1.73 o
-9 11 1 1.76 3.47 1.67 o
-8 11 1 0.60 2.10 1.02 o
-7 11 1 1.23 1.10 1.05 o
-9 12 1 5.11 1.14 1.15 o
0 0 2 82.67 83.13 1.81 o
1 0 2 31.22 31.51 0.66 o
2 0 2 256.10 245.93 3.40 o
3 0 2 283.90 293.96 5.25 o
-4 1 2 58.64 51.55 3.20 o
-3 1 2 153.87 158.27 3.15 o
-2 1 2 20.66 19.15 0.54 o
-1 1 2 32.70 30.78 1.01 o
0 1 2 262.92 252.69 2.92 o
1 1 2 575.80 599.44 6.55 o
2 1 2 454.64 439.81 9.09 o
3 1 2 51.30 50.28 0.90 o
-5 2 2 5.85 6.12 0.66 o
-4 2 2 0.74 0.74 0.28 o
-3 2 2 126.39 127.87 1.44 o
-2 2 2 16.92 21.26 0.64 o
-1 2 2 283.02 289.87 4.23 o
0 2 2 17.19 20.14 0.89 o
1 2 2 67.17 67.28 1.19 o
2 2 2 0.23 0.60 0.36 o
-6 3 2 252.25 240.62 1.07 o
-5 3 2 13.73 10.24 0.84 o
-4 3 2 3.37 4.41 0.42 o
-3 3 2 22.42 19.21 0.60 o
-2 3 2 295.34 308.07 3.17 o
-1 3 2 40.30 46.81 2.17 o
0 3 2 304.39 306.25 3.37 o
1 3 2 45.96 41.97 2.14 o
-7 4 2 82.86 78.15 2.30 o
-6 4 2 4.15 3.99 0.51 o
-5 4 2 89.12 88.63 1.13 o
-4 4 2 31.15 33.79 0.79 o
-3 4 2 55.15 64.28 1.09 o
-2 4 2 40.07 44.44 0.82 o
-1 4 2 66.32 72.73 0.97 o
0 4 2 26.39 30.20 2.03 o
1 4 2 0.02 0.87 0.39 o
-7 5 2 3.08 1.59 0.53 o
-6 5 2 102.19 106.55 2.16 o
-5 5 2 32.85 29.11 0.98 o
-4 5 2 30.12 31.11 0.80 o
-3 5 2 3.15 3.01 0.57 o
-2 5 2 42.52 41.40 0.85 o
-1 5 2 1.17 0.95 0.35 o
0 5 2 3.37 1.61 0.57 o
-8 6 2 32.07 28.88 1.31 o
-7 6 2 99.82 107.03 1.81 o
-6 6 2 73.10 77.38 1.49 o
-5 6 2 67.29 65.10 1.75 o
-4 6 2 0.94 1.79 0.53 o
-3 6 2 5.19 5.09 0.70 o
-2 6 2 2.85 1.50 0.51 o
-1 6 2 34.61 25.30 5.47 o
-8 7 2 3.19 2.97 0.89 o
-7 7 2 40.25 42.29 1.55 o
-6 7 2 6.85 7.28 0.78 o
-5 7 2 4.73 4.34 0.79 o
-4 7 2 33.04 34.89 1.92 o
-3 7 2 11.86 7.95 1.55 o
-2 7 2 2.46 3.31 1.21 o
-9 8 2 4.11 4.00 3.94 o
-8 8 2 8.86 6.58 1.71 o
-7 8 2 3.94 3.62 0.98 o
-6 8 2 6.54 6.21 0.85 o
-5 8 2 18.80 21.22 1.55 o
-4 8 2 11.90 13.36 1.90 o
-3 8 2 4.40 1.25 2.02 o
-9 9 2 3.11 1.90 1.15 o
-8 9 2 11.46 11.87 1.84 o
-7 9 2 11.42 14.58 1.74 o
-6 9 2 10.43 8.84 1.31 o
-5 9 2 26.89 25.36 4.78 o
-9 10 2 15.33 10.25 6.51 o
-8 10 2 3.91 4.74 1.61 o
-7 10 2 1.96 2.25 1.01 o
-6 10 2 1.60 2.98 1.29 o
-9 11 2 0.74 1.51 1.52 o
-8 11 2 4.35 1.53 1.04 o
1 0 3 0.36 1.65 0.54 o
2 0 3 0.99 1.05 0.49 o
3 0 3 35.40 29.84 2.05 o
4 0 3 5.75 1.59 3.05 o
-4 1 3 10.65 9.02 1.10 o
-3 1 3 35.51 29.54 1.59 o
-2 1 3 35.98 40.92 1.29 o
-1 1 3 1.11 1.70 0.51 o
0 1 3 34.77 39.40 1.67 o
1 1 3 57.72 66.17 1.37 o
2 1 3 6.40 7.73 0.98 o
3 1 3 1.70 1.57 0.83 o
-5 2 3 1.50 1.12 0.57 o
-4 2 3 140.61 142.91 5.65 o
-3 2 3 14.21 12.52 1.14 o
-2 2 3 0.07 1.30 0.55 o
-1 2 3 0.08 1.56 0.54 o
0 2 3 12.00 11.76 0.84 o
1 2 3 5.54 3.46 0.73 o
2 2 3 51.55 47.40 1.08 o
-6 3 3 0.14 2.12 2.05 o
-5 3 3 0.22 1.85 0.63 o
-4 3 3 1.60 1.91 0.57 o
-3 3 3 47.15 52.93 4.90 o
-2 3 3 1.59 1.71 0.55 o
-1 3 3 3.77 4.08 0.70 o
0 3 3 2.19 1.89 0.47 o
1 3 3 98.54 94.82 1.74 o
-6 4 3 1.42 2.99 0.96 o
-5 4 3 4.49 5.13 0.99 o
-4 4 3 40.30 36.33 2.29 o
-3 4 3 2.96 3.07 0.72 o
-2 4 3 3.91 3.51 0.79 o
-1 4 3 3.02 3.00 0.83 o
0 4 3 0.26 1.81 0.76 o
-7 5 3 0.12 0.44 1.62 o
-6 5 3 30.31 29.07 2.47 o
-5 5 3 7.82 6.35 0.97 o
-4 5 3 0.18 1.87 0.75 o
-3 5 3 0.63 1.70 0.58 o
-2 5 3 7.14 4.76 0.85 o
-1 5 3 2.63 1.72 0.73 o
-7 6 3 12.97 9.73 2.34 o
-6 6 3 15.32 13.76 1.40 o
-5 6 3 10.67 12.65 1.27 o
-4 6 3 0.01 1.79 0.74 o
-3 6 3 18.56 13.52 2.18 o
-2 6 3 26.95 21.26 0.76 o
-7 7 3 0.79 1.28 0.94 o
-6 7 3 32.55 33.23 2.00 o
-5 7 3 9.79 7.92 1.31 o
-4 7 3 1.71 3.35 1.07 o
-3 7 3 11.99 5.23 2.59 o
-7 8 3 3.62 2.66 1.21 o
-6 8 3 12.50 8.67 1.33 o
-5 8 3 14.39 17.04 3.85 o
-4 8 3 1.01 4.89 5.25 o
-7 9 3 5.56 2.75 1.08 o
-6 9 3 0.15 2.98 4.17 o
0 0 4 0.06 1.90 1.55 o
1 0 4 9.64 17.33 2.41 o
2 0 4 2.07 1.44 1.09 o
-3 1 4 9.27 7.67 3.43 o
-2 1 4 1.16 2.26 0.95 o
-1 1 4 2.52 3.19 1.09 o
0 1 4 2.69 4.86 1.39 o
1 1 4 0.07 1.49 0.80 o
-4 2 4 0.42 0.83 2.15 o
-3 2 4 0.97 2.36 1.07 o
-2 2 4 1.04 2.61 0.95 o
-1 2 4 17.60 14.21 1.53 o
0 2 4 2.20 1.94 1.15 o
1 2 4 7.43 3.08 2.75 o
-4 3 4 0.01 1.88 1.34 o
-3 3 4 7.08 7.87 1.65 o
-2 3 4 3.14 2.90 1.29 o
-1 3 4 0.04 2.10 1.09 o
0 3 4 4.77 3.95 1.54 o
-4 4 4 0.01 2.27 1.11 o
-3 4 4 0.12 3.51 1.43 o
-2 4 4 0.00 3.27 1.42 o
-1 4 4 2.23 1.83 1.16 o
-5 5 4 0.02 2.37 1.62 o
-4 5 4 1.51 3.07 1.78 o
-3 5 4 2.38 1.64 1.31 o
-2 5 4 0.11 1.98 1.50 o
-5 6 4 4.07 3.41 1.89 o
-4 6 4 0.47 2.40 1.73 o
