#------------------------------------------------------------------------------
#$Date: 2019-11-22 19:03:52 +0200 (Fri, 22 Nov 2019) $
#$Revision: 231268 $
#$URL: file:///home/coder/svn-repositories/cod/cif/4/51/63/4516362.cif $
#------------------------------------------------------------------------------
#
# This file is available in the Crystallography Open Database (COD),
# http://www.crystallography.net/
#
# All data on this site have been placed in the public domain by the
# contributors.
#
data_4516362
loop_
_publ_author_name
'Patyk, Ewa'
'Podsiad\/lo, Marcin'
'Katrusiak, Andrzej'
_publ_section_title
;
 CH&#x00B7;&#x00B7;&#x00B7;N Bonds and Dynamics in Isostructural
 Pyrimidine Polymorphs
;
_journal_issue                   8
_journal_name_full               'Crystal Growth &amp; Design'
_journal_page_first              4039
_journal_paper_doi               10.1021/acs.cgd.5b00657
_journal_volume                  15
_journal_year                    2015
_chemical_formula_moiety         'C4 H4 N2'
_chemical_formula_sum            'C4 H4 N2'
_chemical_formula_weight         80.09
_chemical_melting_point          293.15
_chemical_name_common            pyrimidine
_chemical_name_systematic
; 
pyrimidine phase IV
;
_space_group_IT_number           14
_space_group_name_Hall           '-P 2yn'
_space_group_name_H-M_alt        'P 1 21/n 1'
_symmetry_cell_setting           monoclinic
_symmetry_space_group_name_Hall  '-P 2yn'
_symmetry_space_group_name_H-M   'P 1 21/n 1'
_atom_sites_solution_hydrogens   geom
_atom_sites_solution_primary     direct
_atom_sites_solution_secondary   difmap
_audit_creation_method           SHELXL-97
_cell_angle_alpha                90.00
_cell_angle_beta                 90.39(8)
_cell_angle_gamma                90.00
_cell_formula_units_Z            4
_cell_length_a                   11.171(9)
_cell_length_b                   9.245(4)
_cell_length_c                   3.5885(16)
_cell_measurement_reflns_used    1461
_cell_measurement_temperature    295(2)
_cell_measurement_theta_max      27.19
_cell_measurement_theta_min      4.41
_cell_volume                     370.6(4)
_computing_cell_refinement       'CrysAlisRED (Oxford Diffraction, 2004)'
_computing_data_collection       'CrysAlisCCD (Oxford Diffraction, 2004)'
_computing_data_reduction
'CrysAlisRED (Oxford Diffraction, 2004); REDSHABS (Katrusiak, A.  2003)'
_computing_molecular_graphics    'SHELXTL (Sheldrick, 1990)'
_computing_publication_material  'SHELXL--97 (Sheldrick, 1997)'
_computing_structure_refinement  'SHELXL--97 (Sheldrick, 1997)'
_computing_structure_solution    'SHELXS--97 (Sheldrick, 1997)'
_diffrn_ambient_environment      'diamond-anvil cell'
_diffrn_ambient_pressure         1260000
_diffrn_ambient_temperature      295(2)
_diffrn_measured_fraction_theta_full 0.228
_diffrn_measured_fraction_theta_max 0.228
_diffrn_measurement_device_type  'KM-4 CCD'
_diffrn_measurement_method       '\f- and \w-scans'
_diffrn_radiation_monochromator  graphite
_diffrn_radiation_source         'fine-focus sealed tube'
_diffrn_radiation_type           MoK\a
_diffrn_radiation_wavelength     0.71073
_diffrn_reflns_av_R_equivalents  0.0712
_diffrn_reflns_av_sigmaI/netI    0.0211
_diffrn_reflns_limit_h_max       3
_diffrn_reflns_limit_h_min       -3
_diffrn_reflns_limit_k_max       11
_diffrn_reflns_limit_k_min       -11
_diffrn_reflns_limit_l_max       4
_diffrn_reflns_limit_l_min       -4
_diffrn_reflns_number            1461
_diffrn_reflns_theta_full        27.19
_diffrn_reflns_theta_max         27.19
_diffrn_reflns_theta_min         4.41
_diffrn_standards_decay_%        0
_diffrn_standards_interval_count 0
_diffrn_standards_number         0
_exptl_absorpt_coefficient_mu    0.095
_exptl_absorpt_correction_T_max  0.91
_exptl_absorpt_correction_T_min  0.52
_exptl_absorpt_correction_type   analytical
_exptl_absorpt_process_details
; 
 Correction for absorption of the diamond-anvil cell and the sample 
 were made using program REDSHABS (Katrusiak, A. (2003) REDSHABS. Adam
 Mickiewicz University Pozna\'n; Katrusiak, A. (2004) Z. Kristallogr.
 219, 461-467).
;
_exptl_crystal_colour            colourless
_exptl_crystal_density_diffrn    1.435
_exptl_crystal_density_method    'not measured'
_exptl_crystal_description       cylinder
_exptl_crystal_F_000             168
_exptl_crystal_size_max          0.35
_exptl_crystal_size_mid          0.25
_exptl_crystal_size_min          0.23
_refine_diff_density_max         0.107
_refine_diff_density_min         -0.118
_refine_diff_density_rms         0.037
_refine_ls_extinction_method     none
_refine_ls_goodness_of_fit_ref   1.162
_refine_ls_hydrogen_treatment    constr
_refine_ls_matrix_type           full
_refine_ls_number_parameters     55
_refine_ls_number_reflns         188
_refine_ls_number_restraints     0
_refine_ls_restrained_S_all      1.162
_refine_ls_R_factor_all          0.0886
_refine_ls_R_factor_gt           0.0649
_refine_ls_shift/su_max          0.000
_refine_ls_shift/su_mean         0.000
_refine_ls_structure_factor_coef Fsqd
_refine_ls_weighting_details
'calc w=1/[\s^2^(Fo^2^)+(0.1506P)^2^+0.0000P] where P=(Fo^2^+2Fc^2^)/3'
_refine_ls_weighting_scheme      calc
_refine_ls_wR_factor_gt          0.1843
_refine_ls_wR_factor_ref         0.2122
_reflns_number_gt                133
_reflns_number_total             188
_reflns_threshold_expression     >2sigma(I)
_cod_data_source_file            cg5b00657_si_002.cif
_cod_data_source_block           phaseIV_1.26GPa
_cod_original_sg_symbol_H-M      'P 21/n'
_cod_database_code               4516362
loop_
_symmetry_equiv_pos_as_xyz
'x, y, z'
'-x+1/2, y+1/2, -z+1/2'
'-x, -y, -z'
'x-1/2, -y-1/2, z-1/2'
loop_
_atom_site_label
_atom_site_type_symbol
_atom_site_fract_x
_atom_site_fract_y
_atom_site_fract_z
_atom_site_U_iso_or_equiv
_atom_site_adp_type
_atom_site_occupancy
_atom_site_symmetry_multiplicity
_atom_site_calc_flag
_atom_site_refinement_flags
N1 N 0.137(2) 0.3702(9) -0.053(2) 0.06(2) Uani 1 1 d .
N3 N 0.016(2) 0.1806(7) 0.224(2) 0.07(2) Uani 1 1 d .
C2 C 0.028(3) 0.3151(15) 0.095(3) 0.07(2) Uani 1 1 d .
H2 H -0.0377 0.3760 0.1028 0.086 Uiso 1 1 calc R
C4 C 0.111(4) 0.0961(10) 0.202(3) 0.08(2) Uani 1 1 d .
H4 H 0.1048 0.0013 0.2873 0.098 Uiso 1 1 calc R
C5 C 0.215(4) 0.1411(16) 0.064(2) 0.06(2) Uani 1 1 d .
H5 H 0.2803 0.0796 0.0504 0.076 Uiso 1 1 calc R
C6 C 0.221(4) 0.2809(11) -0.059(3) 0.05(3) Uani 1 1 d .
H6 H 0.2938 0.3121 -0.1545 0.061 Uiso 1 1 calc R
loop_
_atom_site_aniso_label
_atom_site_aniso_U_11
_atom_site_aniso_U_22
_atom_site_aniso_U_33
_atom_site_aniso_U_23
_atom_site_aniso_U_13
_atom_site_aniso_U_12
N1 0.07(6) 0.056(5) 0.066(5) 0.003(3) 0.023(13) -0.008(9)
N3 0.09(7) 0.052(5) 0.060(4) 0.001(3) 0.022(13) 0.005(10)
C2 0.08(8) 0.063(7) 0.069(6) -0.005(5) 0.042(17) 0.021(12)
C4 0.15(7) 0.046(5) 0.048(5) 0.002(3) 0.016(15) 0.002(11)
C5 0.08(8) 0.060(6) 0.052(6) -0.004(4) 0.015(17) 0.006(12)
C6 0.04(9) 0.055(6) 0.059(4) -0.006(4) 0.016(17) 0.001(9)
loop_
_atom_type_symbol
_atom_type_description
_atom_type_scat_dispersion_real
_atom_type_scat_dispersion_imag
_atom_type_scat_source
C C 0.0033 0.0016 'International Tables Vol C Tables 4.2.6.8 and 6.1.1.4'
H H 0.0000 0.0000 'International Tables Vol C Tables 4.2.6.8 and 6.1.1.4'
N N 0.0061 0.0033 'International Tables Vol C Tables 4.2.6.8 and 6.1.1.4'
loop_
_geom_angle_atom_site_label_1
_geom_angle_atom_site_label_2
_geom_angle_atom_site_label_3
_geom_angle
C6 N1 C2 114.3(11)
C4 N3 C2 117(3)
N3 C2 N1 124(3)
N3 C4 C5 122.5(11)
C4 C5 C6 118(4)
N1 C6 C5 125(4)
loop_
_geom_bond_atom_site_label_1
_geom_bond_atom_site_label_2
_geom_bond_distance
N1 C6 1.25(4)
N1 C2 1.42(5)
N3 C4 1.31(5)
N3 C2 1.333(16)
C4 C5 1.33(6)
C5 C6 1.367(19)
loop_
_refln_index_h
_refln_index_k
_refln_index_l
_refln_F_squared_calc
_refln_F_squared_meas
_refln_F_squared_sigma
_refln_observed_status
0 2 0 1693.26 1620.27 2.35 o
1 2 0 23.02 19.71 0.74 o
1 3 0 9.86 10.07 0.44 o
2 3 0 328.96 383.63 10.08 o
0 4 0 799.65 776.66 13.45 o
1 4 0 159.86 140.93 3.92 o
2 4 0 1.10 0.91 0.20 o
1 5 0 0.12 0.22 0.12 o
2 5 0 104.09 93.86 4.86 o
0 6 0 62.56 75.39 7.24 o
1 6 0 41.87 48.93 0.99 o
2 6 0 60.11 57.64 1.61 o
3 6 0 72.47 60.38 4.07 o
1 7 0 5.04 4.34 0.55 o
2 7 0 21.81 18.81 1.05 o
3 7 0 0.29 0.26 0.43 o
0 8 0 0.18 0.64 0.48 o
1 8 0 3.70 3.45 0.60 o
2 8 0 61.33 62.48 2.68 o
3 8 0 50.75 53.18 2.04 o
1 9 0 1.06 0.60 0.43 o
2 9 0 0.08 1.01 0.54 o
3 9 0 0.06 0.91 0.76 o
1 10 0 6.16 7.02 1.34 o
2 10 0 6.80 7.76 1.12 o
3 10 0 0.08 1.26 1.28 o
2 11 0 1.45 2.65 0.94 o
-1 0 1 2296.48 2059.55 4.76 o
1 0 1 811.62 936.38 4.89 o
-1 1 1 114.42 139.47 0.89 o
0 1 1 40.73 43.83 1.67 o
1 1 1 4558.20 5088.86 7.90 o
-1 2 1 16.73 15.69 0.54 o
0 2 1 1118.76 1170.53 3.25 o
1 2 1 322.50 385.16 31.72 o
2 2 1 81.60 78.36 5.56 o
-2 3 1 0.45 0.40 0.29 o
-1 3 1 10.15 10.26 0.55 o
0 3 1 183.76 159.01 12.21 o
1 3 1 44.49 44.83 3.64 o
2 3 1 133.68 141.21 7.31 o
-2 4 1 33.36 33.74 1.71 o
-1 4 1 275.56 295.27 18.07 o
0 4 1 28.13 28.13 1.10 o
1 4 1 16.96 21.05 1.13 o
2 4 1 8.97 8.12 0.72 o
-2 5 1 12.64 11.43 0.56 o
-1 5 1 3.36 2.85 0.34 o
0 5 1 64.42 67.07 3.83 o
1 5 1 138.09 163.58 7.51 o
2 5 1 82.68 74.17 4.54 o
3 5 1 47.71 43.95 4.26 o
-2 6 1 0.31 0.79 0.38 o
-1 6 1 5.97 6.80 0.58 o
0 6 1 5.02 4.20 0.40 o
1 6 1 18.32 10.16 0.57 o
2 6 1 4.60 4.23 1.02 o
3 6 1 10.74 11.46 1.24 o
-3 7 1 36.12 43.29 3.70 o
-2 7 1 25.26 24.70 1.63 o
-1 7 1 48.58 48.03 2.70 o
0 7 1 7.97 6.17 0.49 o
1 7 1 1.75 1.44 0.50 o
2 7 1 19.01 19.72 1.74 o
3 7 1 31.33 43.52 4.83 o
-3 8 1 72.97 60.37 6.05 o
-2 8 1 1.31 1.01 0.62 o
-1 8 1 0.00 0.42 0.54 o
0 8 1 4.48 4.02 0.70 o
1 8 1 0.02 0.39 0.70 o
2 8 1 0.43 0.51 0.69 o
3 8 1 7.50 6.13 1.12 o
-2 9 1 23.98 24.39 1.47 o
-1 9 1 45.81 61.53 4.10 o
0 9 1 6.28 5.54 1.46 o
1 9 1 4.20 2.98 1.06 o
2 9 1 0.13 0.85 0.88 o
3 9 1 5.37 3.52 1.13 o
-2 10 1 0.32 1.34 0.76 o
-1 10 1 2.20 2.63 0.94 o
1 10 1 0.00 1.55 1.44 o
2 10 1 11.98 17.04 2.26 o
3 10 1 1.19 1.38 1.47 o
-2 11 1 0.01 1.00 0.79 o
2 11 1 1.62 0.78 1.23 o
0 0 2 25.26 17.68 2.19 o
2 0 2 312.89 346.41 3.02 o
-1 1 2 6.32 7.69 0.37 o
0 1 2 39.23 40.02 0.90 o
1 1 2 431.01 412.47 2.31 o
2 1 2 155.23 176.41 3.93 o
-1 2 2 111.04 128.03 5.07 o
0 2 2 18.59 25.88 1.08 o
1 2 2 0.59 0.48 0.15 o
2 2 2 40.93 37.43 1.92 o
-2 3 2 25.87 30.54 3.48 o
-1 3 2 7.99 7.49 0.49 o
0 3 2 22.23 26.87 1.33 o
1 3 2 388.65 409.99 2.37 o
2 3 2 47.81 47.03 3.16 o
-2 4 2 1.36 0.87 0.49 o
-1 4 2 6.17 6.13 0.80 o
0 4 2 2.62 2.33 0.34 o
1 4 2 8.42 7.94 0.56 o
2 4 2 8.71 6.68 0.54 o
3 4 2 1.87 1.80 0.54 o
-2 5 2 20.76 22.49 2.42 o
-1 5 2 10.00 10.06 0.96 o
0 5 2 13.71 17.91 0.76 o
1 5 2 0.14 0.51 0.28 o
2 5 2 5.20 5.03 0.63 o
3 5 2 0.10 0.31 0.48 o
-2 6 2 5.79 5.85 0.98 o
-1 6 2 6.45 6.99 0.97 o
0 6 2 0.54 0.79 0.35 o
1 6 2 15.38 17.70 1.18 o
2 6 2 2.02 1.90 0.55 o
3 6 2 29.61 30.45 3.18 o
-2 7 2 6.65 6.87 1.02 o
-1 7 2 1.49 0.91 0.62 o
0 7 2 4.37 3.50 0.71 o
1 7 2 0.03 0.83 0.48 o
2 7 2 6.02 7.87 0.86 o
3 7 2 0.72 1.18 0.83 o
-2 8 2 1.73 1.97 0.69 o
-1 8 2 17.28 20.52 1.55 o
0 8 2 16.14 21.08 2.03 o
1 8 2 6.58 6.10 1.13 o
2 8 2 2.28 2.64 0.79 o
3 8 2 0.05 1.20 1.01 o
-2 9 2 33.60 39.67 2.44 o
-1 9 2 3.52 2.46 0.86 o
1 9 2 3.28 3.30 1.71 o
2 9 2 0.05 1.60 0.97 o
3 9 2 5.15 4.82 2.15 o
-2 10 2 0.72 1.69 1.38 o
-1 10 2 3.00 2.31 1.33 o
2 10 2 0.49 1.72 1.18 o
-1 0 3 43.25 56.42 1.88 o
1 0 3 0.25 0.84 0.42 o
-1 1 3 25.52 28.73 1.77 o
0 1 3 12.31 11.03 0.67 o
1 1 3 0.96 0.86 0.35 o
2 1 3 2.85 1.91 0.54 o
-1 2 3 4.82 2.78 0.77 o
0 2 3 0.30 0.69 0.29 o
1 2 3 1.39 1.09 0.36 o
2 2 3 123.79 156.20 2.23 o
-1 3 3 0.51 1.21 0.75 o
0 3 3 5.21 4.92 0.66 o
1 3 3 8.08 6.99 0.87 o
2 3 3 8.54 7.78 0.87 o
-1 4 3 0.61 0.98 0.58 o
0 4 3 0.30 0.71 0.33 o
1 4 3 3.56 3.19 0.55 o
2 4 3 19.49 24.29 1.71 o
-1 5 3 2.56 2.98 0.72 o
0 5 3 2.74 2.14 0.52 o
1 5 3 0.04 0.78 0.48 o
2 5 3 0.13 1.02 0.60 o
3 5 3 0.34 1.15 1.19 o
-1 6 3 5.83 3.07 0.90 o
0 6 3 6.46 6.76 1.11 o
1 6 3 2.50 1.66 0.79 o
2 6 3 0.04 13.32 3.69 o
-1 7 3 0.96 1.03 0.76 o
0 7 3 1.28 1.88 1.05 o
1 7 3 0.61 1.29 0.90 o
2 7 3 5.20 6.01 1.19 o
-1 8 3 1.69 1.11 1.13 o
2 8 3 1.44 2.87 1.08 o
-1 9 3 1.22 1.13 0.99 o
0 0 4 2.42 0.27 1.49 o
0 1 4 4.99 3.42 1.06 o
1 1 4 0.00 0.74 0.56 o
2 1 4 0.17 1.49 2.11 o
0 2 4 0.02 0.91 1.12 o
1 2 4 0.56 0.90 0.64 o
2 2 4 0.00 0.71 0.70 o
0 3 4 0.22 1.00 1.05 o
1 3 4 0.31 0.99 0.59 o
2 3 4 0.97 1.24 0.94 o
0 4 4 0.44 1.15 1.06 o
1 4 4 0.00 1.40 1.05 o
2 4 4 1.71 2.06 1.26 o
0 5 4 1.11 2.25 1.21 o
1 5 4 0.01 1.52 1.02 o
2 5 4 1.61 2.48 1.37 o
