#------------------------------------------------------------------------------
#$Date: 2019-11-24 23:41:24 +0200 (Sun, 24 Nov 2019) $
#$Revision: 239727 $
#$URL: file:///home/coder/svn-repositories/cod/cif/4/51/70/4517070.cif $
#------------------------------------------------------------------------------
#
# This file is available in the Crystallography Open Database (COD),
# http://www.crystallography.net/
#
# All data on this site have been placed in the public domain by the
# contributors.
#
data_4517070
loop_
_publ_author_name
'Khorasani, Sanaz'
'Fernandes, Manuel A.'
_publ_section_title
;
 Cooperativity and Feedback Mechanisms in the
 Single-Crystal-to-Single-Crystal Solid-State Diels--Alder Reaction of
 9-Methylanthracene with Bis(N-cyclobutylimino)-1,4-dithiin
;
_journal_issue                   12
_journal_name_full               'Crystal Growth &amp; Design'
_journal_page_first              5499
_journal_paper_doi               10.1021/cg401474f
_journal_volume                  13
_journal_year                    2013
_chemical_formula_moiety
;
0.23(C31 H26 N2 O4 S2),  0.77(C16 H14 N2 O4 S2),  0.77(C15 H12)
;
_chemical_formula_sum            'C31 H26 N2 O4 S2'
_chemical_formula_weight         554.66
_space_group_IT_number           1
_space_group_name_Hall           'P 1'
_space_group_name_H-M_alt        'P 1'
_symmetry_cell_setting           triclinic
_symmetry_space_group_name_Hall  'P 1'
_symmetry_space_group_name_H-M   'P 1'
_atom_sites_solution_hydrogens   geom
_atom_sites_solution_primary     direct
_atom_sites_solution_secondary   difmap
_audit_creation_method           SHELXL-97
_cell_angle_alpha                77.5470(10)
_cell_angle_beta                 86.9280(10)
_cell_angle_gamma                87.0050(10)
_cell_formula_units_Z            1
_cell_length_a                   7.4171(2)
_cell_length_b                   8.5537(3)
_cell_length_c                   10.4144(3)
_cell_measurement_reflns_used    5052
_cell_measurement_temperature    173(2)
_cell_measurement_theta_max      28.35
_cell_measurement_theta_min      2.44
_cell_volume                     643.69(3)
_computing_cell_refinement       'Bruker SAINT'
_computing_data_collection       'Bruker APEX2'
_computing_data_reduction        'Bruker SAINT'
_computing_molecular_graphics    'Bruker SHELXTL'
_computing_publication_material  'Bruker SHELXTL'
_computing_structure_refinement  'SHELXL-97 (Sheldrick, 1997)'
_computing_structure_solution    'SHELXS-97 (Sheldrick, 2008)'
_diffrn_ambient_temperature      173(2)
_diffrn_measured_fraction_theta_full 1.000
_diffrn_measured_fraction_theta_max 1.000
_diffrn_measurement_device_type  'Bruker APEX-II CCD'
_diffrn_measurement_method       '\f and \w scans'
_diffrn_radiation_monochromator  graphite
_diffrn_radiation_source         'fine-focus sealed tube'
_diffrn_radiation_type           MoK\a
_diffrn_radiation_wavelength     0.71073
_diffrn_reflns_av_R_equivalents  0.0404
_diffrn_reflns_av_sigmaI/netI    0.0407
_diffrn_reflns_limit_h_max       9
_diffrn_reflns_limit_h_min       -9
_diffrn_reflns_limit_k_max       11
_diffrn_reflns_limit_k_min       -11
_diffrn_reflns_limit_l_max       13
_diffrn_reflns_limit_l_min       -13
_diffrn_reflns_number            10174
_diffrn_reflns_theta_full        28.00
_diffrn_reflns_theta_max         28.00
_diffrn_reflns_theta_min         2.00
_diffrn_standards_number         0
_exptl_absorpt_coefficient_mu    0.249
_exptl_absorpt_correction_type   none
_exptl_crystal_colour            red
_exptl_crystal_density_diffrn    1.431
_exptl_crystal_density_method    'not measured'
_exptl_crystal_description       plate
_exptl_crystal_F_000             290
_exptl_crystal_size_max          0.38
_exptl_crystal_size_mid          0.33
_exptl_crystal_size_min          0.05
_refine_diff_density_max         0.525
_refine_diff_density_min         -0.424
_refine_diff_density_rms         0.071
_refine_ls_abs_structure_details 'Flack H D (1983), Acta Cryst. A39, 876-881'
_refine_ls_abs_structure_Flack   0.44(13)
_refine_ls_extinction_method     none
_refine_ls_goodness_of_fit_ref   1.019
_refine_ls_hydrogen_treatment    constr
_refine_ls_matrix_type           full
_refine_ls_number_parameters     407
_refine_ls_number_reflns         6214
_refine_ls_number_restraints     193
_refine_ls_restrained_S_all      1.122
_refine_ls_R_factor_all          0.0634
_refine_ls_R_factor_gt           0.0452
_refine_ls_shift/su_max          0.003
_refine_ls_shift/su_mean         0.000
_refine_ls_structure_factor_coef Fsqd
_refine_ls_weighting_details
'calc w=1/[\s^2^(Fo^2^)+(0.0592P)^2^+0.2170P] where P=(Fo^2^+2Fc^2^)/3'
_refine_ls_weighting_scheme      calc
_refine_ls_wR_factor_gt          0.1088
_refine_ls_wR_factor_ref         0.1210
_reflns_number_gt                4858
_reflns_number_total             6214
_reflns_threshold_expression     >2sigma(I)
_iucr_refine_instructions_details
;
TITL 12s_sk117_d4ma20oilb18h_0s in P1
CELL  0.71073   7.4171   8.5537  10.4144   77.547   86.928   87.005
ZERR     1.00   0.0002   0.0003   0.0003    0.001    0.001    0.001
LATT  -1
SFAC  C    H    N    O    S
UNIT  31   26   2    4    2
MERG   2
OMIT    -2.00  56.00
DFIX     1.530   0.005 C17B C31B
SUMP 1.000 0.001 1 2 1 3 1 4
DELU     0.003   0.003 C1B > C31B
SIMU     0.010   0.020   1.700 C1B > C31B
DELU     0.003   0.003 C1C > C31C
SIMU     0.010   0.020   1.700 C1C > C31C
DFIX 1.65 0.002 C2C C17C C3C C24C
FMAP   2
PLAN    5
SIZE     0.05   0.33   0.38
ACTA
BOND   $H
CONF
L.S.  10
TEMP  -100.00
WGHT    0.059200    0.217000
FVAR       0.30623   0.77375   0.13071   0.09554   0.04977
MOLE    1
PART    2
C1A   1    0.724436    0.236481    0.324493    21.00000    0.03168    0.02407 =
         0.02786   -0.01279    0.00142    0.01064
C2A   1    0.655149    0.360206    0.406368    21.00000    0.03138    0.03078 =
         0.02334   -0.00815   -0.00621    0.00583
C3A   1    0.643897    0.507589    0.327326    21.00000    0.03646    0.01758 =
         0.02739    0.00313    0.00274    0.00854
C4A   1    0.704505    0.486684    0.193419    21.00000    0.03193    0.02409 =
         0.03697   -0.00349   -0.00664   -0.00574
C5A   1    0.465670    0.493220    0.736726    21.00000    0.03147    0.03481 =
         0.02434   -0.01158    0.00876    0.00569
C6A   1    0.524019    0.483544    0.598926    21.00000    0.02644    0.03252 =
         0.03126   -0.01738   -0.00207    0.00048
C7A   1    0.511617    0.625441    0.520083    21.00000    0.04149    0.01844 =
         0.03679   -0.00517    0.00625   -0.00078
C8A   1    0.442625    0.740731    0.596361    21.00000    0.01941    0.03223 =
         0.03176   -0.00339   -0.00782   -0.00308
C9A   1    0.786738    0.255974    0.082462    21.00000    0.04630    0.03202 =
         0.03628   -0.01443    0.00251   -0.01538
AFIX  13
H9A   2    0.775781    0.343630    0.002065    21.00000   -1.20000
AFIX   0
C10A  1    0.957046    0.155022    0.066592    21.00000    0.02053    0.09549 =
         0.11658   -0.08289    0.01233   -0.00504
AFIX  23
H10A  2    1.004431    0.094131    0.150757    21.00000   -1.20000
H10B  2    1.053535    0.214292    0.010033    21.00000   -1.20000
AFIX   0
C11A  1    0.845550    0.056206   -0.003861    21.00000    0.04185    0.08495 =
         0.08573   -0.06626    0.00924    0.00308
AFIX  23
H11A  2    0.848850    0.093520   -0.100760    21.00000   -1.20000
H11B  2    0.872392   -0.060696    0.021397    21.00000   -1.20000
AFIX   0
C12A  1    0.676975    0.112191    0.064835    21.00000    0.02538    0.04918 =
         0.05207   -0.02868   -0.00260    0.00020
AFIX  23
H12A  2    0.641053    0.038784    0.148434    21.00000   -1.20000
H12B  2    0.573185    0.143070    0.007404    21.00000   -1.20000
AFIX   0
C13A  1    0.393235    0.726029    0.845239    21.00000    0.04064    0.04464 =
         0.02856   -0.01660    0.00073    0.01836
AFIX  13
H13A  2    0.412884    0.638923    0.924923    21.00000   -1.20000
AFIX   0
C14A  1    0.497304    0.870858    0.860771    21.00000    0.04922    0.03698 =
         0.03144   -0.01280   -0.00802    0.00908
AFIX  23
H14A  2    0.531709    0.943439    0.776386    21.00000   -1.20000
H14B  2    0.601905    0.842693    0.917739    21.00000   -1.20000
AFIX   0
C15A  1    0.324204    0.928757    0.931502    21.00000    0.05558    0.04780 =
         0.04359   -0.02258   -0.00224    0.00186
AFIX  23
H15A  2    0.291283    1.043947    0.900771    21.00000   -1.20000
H15B  2    0.324885    0.898802    1.028760    21.00000   -1.20000
AFIX   0
C16A  1    0.214368    0.813890    0.867736    21.00000    0.05359    0.04985 =
         0.03528   -0.01524    0.00385    0.00364
AFIX  23
H16A  2    0.128131    0.748236    0.929912    21.00000   -1.20000
H16B  2    0.155797    0.867897    0.785734    21.00000   -1.20000
AFIX   0
N1A   3    0.748481    0.324276    0.198750    21.00000    0.03087    0.02878 =
         0.03546   -0.01127    0.00299    0.00411
N2A   3    0.425098    0.655968    0.730089    21.00000    0.03949    0.02930 =
         0.02569   -0.00792   -0.00117    0.00380
O1A   4    0.755686    0.099479    0.361861    21.00000    0.05126    0.03102 =
         0.03734   -0.01268    0.00689    0.01044
O2A   4    0.714137    0.593816    0.095084    21.00000    0.05780    0.04005 =
         0.02413   -0.00933   -0.00006   -0.01317
O3A   4    0.462832    0.386910    0.829302    21.00000    0.07271    0.02562 =
         0.03307   -0.00421    0.01021    0.00845
O4A   4    0.416460    0.887458    0.559471    21.00000    0.04785    0.02488 =
         0.03908   -0.00406   -0.01564    0.01160
S1A   5    0.596901    0.290082    0.569459    21.00000    0.05230    0.02241 =
         0.03666   -0.00901    0.00409    0.00290
S2A   5    0.571160    0.689037    0.354276    21.00000    0.04129    0.01740 =
         0.02559   -0.00024    0.00370    0.00676
MOLE    2
C17A  1    0.089475    0.349445    0.557974    21.00000    0.04256    0.03983 =
         0.02213    0.01038   -0.00821    0.00218
C18A  1    0.022210    0.486125    0.594886    21.00000    0.03329    0.03385 =
         0.03206   -0.00089   -0.00333   -0.00430
C19A  1   -0.048188    0.478130    0.722283    21.00000    0.04235    0.05846 =
         0.04681   -0.02286    0.00218   -0.00128
AFIX  43
H19A  2   -0.049315    0.378272    0.783615    21.00000   -1.20000
AFIX   0
C20A  1   -0.116297    0.615188    0.759452    21.00000    0.03376    0.06935 =
         0.07489   -0.04523    0.01561   -0.01411
AFIX  43
H20A  2   -0.157251    0.610093    0.848209    21.00000   -1.20000
AFIX   0
C21A  1   -0.126201    0.759610    0.670385    21.00000    0.03840    0.06254 =
         0.05801   -0.04390   -0.00234   -0.00350
AFIX  43
H21A  2   -0.176053    0.852716    0.697139    21.00000   -1.20000
AFIX   0
C22A  1   -0.065083    0.768071    0.545687    21.00000    0.03629    0.04473 =
         0.05965   -0.00969   -0.00523    0.00175
AFIX  43
H22A  2   -0.069731    0.869408    0.486358    21.00000   -1.20000
AFIX   0
C23A  1    0.006795    0.632119    0.497486    21.00000    0.03832    0.03336 =
         0.04549    0.00267   -0.00576    0.00544
C24A  1    0.070537    0.641725    0.372758    21.00000    0.03293    0.03073 =
         0.06730   -0.01201    0.00677    0.00183
AFIX  43
H24A  2    0.064151    0.741681    0.311660    21.00000   -1.20000
AFIX   0
C25A  1    0.146757    0.505056    0.331656    21.00000    0.04059    0.04409 =
         0.04871   -0.00665    0.00473    0.01065
C26A  1    0.217525    0.500070    0.198931    21.00000    0.03538    0.05169 =
         0.03972    0.01660    0.00223   -0.00316
AFIX  43
H26A  2    0.211027    0.596343    0.133469    21.00000   -1.20000
AFIX   0
C27A  1    0.291020    0.368331    0.163658    21.00000    0.03005    0.06722 =
         0.03867   -0.01000   -0.00486   -0.00584
AFIX  43
H27A  2    0.340402    0.373642    0.076826    21.00000   -1.20000
AFIX   0
C28A  1    0.294363    0.220079    0.257778    21.00000    0.02705    0.04261 =
         0.07873   -0.01684    0.00418    0.00296
AFIX  43
H28A  2    0.343432    0.126109    0.232015    21.00000   -1.20000
AFIX   0
C29A  1    0.229540    0.210347    0.382290    21.00000    0.04308    0.03079 =
         0.05813   -0.01329   -0.00402    0.00849
AFIX  43
H29A  2    0.233491    0.110355    0.443447    21.00000   -1.20000
AFIX   0
C30A  1    0.153898    0.352083    0.422953    21.00000    0.03144    0.04243 =
         0.04029   -0.00939    0.00238    0.00305
C31A  1    0.107763    0.190992    0.649404    21.00000    0.06248    0.04232 =
         0.03940    0.00350    0.01003    0.01097
AFIX  33
H31A  2    0.162808    0.112335    0.601660    21.00000   -1.50000
H31B  2   -0.011916    0.156743    0.685750    21.00000   -1.50000
H31C  2    0.184480    0.199208    0.721210    21.00000   -1.50000
AFIX   0
MOLE    3
PART    1
C1B   1    0.703879    0.238083    0.323956    31.00000    0.04324
AFIX   3
C2B   1    0.652741    0.358632    0.407840    31.00000    0.05601
C3B   1    0.634222    0.500647    0.317722    31.00000    0.07760
C4B   1    0.680693    0.475241    0.181550    31.00000    0.04250
C5B   1    0.422611    0.506087    0.728455    31.00000    0.02782
C6B   1    0.417405    0.471510    0.587286    31.00000    0.01345
C7B   1    0.394227    0.626252    0.483737    31.00000    0.03335
C8B   1    0.397972    0.747270    0.566535    31.00000    0.04248
C9B   1    0.741975    0.249311    0.073314    31.00000    0.03603
AFIX  13
H9B   2    0.728185    0.335825   -0.007560    31.00000   -1.20000
AFIX   3
C10B  1    0.915259    0.148649    0.059675    31.00000    0.05394
AFIX  23
H10C  2    1.014997    0.209042    0.008124    31.00000   -1.20000
H10D  2    0.956904    0.081955    0.143590    31.00000   -1.20000
AFIX   3
C11B  1    0.804799    0.061623   -0.018346    31.00000    0.05856
AFIX  23
H11C  2    0.831047   -0.055489   -0.002149    31.00000   -1.20000
H11D  2    0.804011    0.109966   -0.113681    31.00000   -1.20000
AFIX   3
C12B  1    0.636536    0.113496    0.064468    31.00000    0.04215
AFIX  23
H12C  2    0.525519    0.142456    0.014417    31.00000   -1.20000
H12D  2    0.611854    0.038736    0.149684    31.00000   -1.20000
AFIX   3
C13B  1    0.372147    0.742418    0.817859    31.00000    0.04237
AFIX  13
H13B  2    0.383348    0.658014    0.900345    31.00000   -1.20000
AFIX   3
C14B  1    0.476287    0.877328    0.827132    31.00000    0.04723
AFIX  23
H14C  2    0.518001    0.941354    0.740766    31.00000   -1.20000
H14D  2    0.577414    0.849031    0.887321    31.00000   -1.20000
AFIX   3
C15B  1    0.306677    0.951746    0.888649    31.00000    0.04428
AFIX  23
H15C  2    0.300557    0.927028    0.986091    31.00000   -1.20000
H15D  2    0.285657    1.067867    0.852887    31.00000   -1.20000
AFIX   3
C16B  1    0.198654    0.850286    0.830768    31.00000    0.03820
AFIX  23
H16C  2    0.149161    0.904389    0.745342    31.00000   -1.20000
H16D  2    0.103113    0.795587    0.891500    31.00000   -1.20000
AFIX   3
N1B   3    0.714858    0.318929    0.193067    31.00000    0.03468
N2B   3    0.398877    0.669196    0.706003    31.00000    0.03009
O1B   4    0.722029    0.094895    0.372654    31.00000    0.02738
O2B   4    0.687372    0.576936    0.074244    31.00000    0.01968
O3B   4    0.440678    0.413966    0.833728    31.00000    0.01738
O4B   4    0.393306    0.881468    0.527565    31.00000    0.02874
S1B   5    0.611800    0.321922    0.583778    31.00000    0.00724
S2B   5    0.584923    0.674696    0.360581    31.00000    0.14970
AFIX   0
C17B  1    0.240844    0.387135    0.589605    31.00000    0.02124
AFIX   3
C18B  1    0.085523    0.501157    0.617487    31.00000    0.03437
C19B  1   -0.019028    0.477803    0.735465    31.00000    0.03294
AFIX  43
H19B  2   -0.003368    0.384538    0.803073    31.00000   -1.20000
AFIX   3
C20B  1   -0.144063    0.595909    0.747851    31.00000    0.03922
AFIX  43
H20B  2   -0.223328    0.581440    0.823824    31.00000   -1.20000
AFIX   3
C21B  1   -0.160425    0.740326    0.651141    31.00000    0.04669
AFIX  43
H21B  2   -0.248250    0.821749    0.662343    31.00000   -1.20000
AFIX   3
C22B  1   -0.043222    0.760191    0.537947    31.00000    0.03952
AFIX  43
H22B  2   -0.051488    0.856449    0.472587    31.00000   -1.20000
AFIX   3
C23B  1    0.081231    0.643079    0.521545    31.00000    0.03263
C24B  1    0.223903    0.654387    0.409543    31.00000    0.02665
AFIX  13
H24B  2    0.217991    0.758330    0.343588    31.00000   -1.20000
AFIX   3
C25B  1    0.222069    0.513755    0.351803    31.00000    0.03054
C26B  1    0.214399    0.504846    0.215859    31.00000    0.04555
AFIX  43
H26B  2    0.196148    0.601653    0.152413    31.00000   -1.20000
AFIX   3
C27B  1    0.231871    0.365482    0.173714    31.00000    0.05914
AFIX  43
H27B  2    0.231849    0.360565    0.083451    31.00000   -1.20000
AFIX   3
C28B  1    0.249659    0.231638    0.273480    31.00000    0.06219
AFIX  43
H28B  2    0.269082    0.131771    0.247911    31.00000   -1.20000
AFIX   3
C29B  1    0.242230    0.227560    0.406115    31.00000    0.04200
AFIX  43
H29B  2    0.241985    0.128383    0.468334    31.00000   -1.20000
AFIX   3
C30B  1    0.235181    0.369857    0.446602    31.00000    0.03847
C31B  1    0.230290    0.228137    0.688730    31.00000    0.05354
AFIX  33
H31D  2    0.321525    0.151471    0.664223    31.00000   -1.50000
H31E  2    0.109827    0.186079    0.689087    31.00000   -1.50000
H31F  2    0.252724    0.244527    0.776677    31.00000   -1.50000
AFIX   0
PART    3
SAME 0.005 C1B > O4B
C1C   1    0.742122    0.224063    0.352596    41.00000   51.00000
AFIX   3
C2C   1    0.732420    0.352032    0.430703    41.00000   51.00000
C3C   1    0.719938    0.491252    0.335411    41.00000   51.00000
C4C   1    0.717091    0.455335    0.201550    41.00000   51.00000
C5C   1    0.457591    0.489537    0.745280    41.00000   51.00000
C6C   1    0.480701    0.463066    0.600651    41.00000   51.00000
C7C   1    0.488110    0.621081    0.503596    41.00000   51.00000
C8C   1    0.432841    0.736373    0.590779    41.00000   51.00000
C9C   1    0.760768    0.219380    0.104338    41.00000   51.00000
AFIX  13
H9C   2    0.750359    0.300814    0.020026    41.00000   -1.20000
AFIX   3
C10C  1    0.929710    0.109803    0.098915    41.00000   51.00000
AFIX  23
H10E  2    1.031699    0.161683    0.043496    41.00000   -1.20000
H10F  2    0.969500    0.050828    0.186009    41.00000   -1.20000
AFIX   3
C11C  1    0.814387    0.016456    0.030838    41.00000   51.00000
AFIX  23
H11E  2    0.834849   -0.101204    0.056785    41.00000   -1.20000
H11F  2    0.815970    0.053378   -0.066071    41.00000   -1.20000
AFIX   3
C12C  1    0.648054    0.084520    0.105313    41.00000   51.00000
AFIX  23
H12E  2    0.539020    0.112129    0.052846    41.00000   -1.20000
H12F  2    0.618640    0.019604    0.194074    41.00000   -1.20000
AFIX   3
C13C  1    0.399324    0.716674    0.844533    41.00000   51.00000
AFIX  13
H13C  2    0.411451    0.625666    0.922403    41.00000   -1.20000
AFIX   3
C14C  1    0.498779    0.847158    0.869075    41.00000   51.00000
AFIX  23
H14E  2    0.542276    0.921166    0.787949    41.00000   -1.20000
H14F  2    0.598041    0.812173    0.930059    41.00000   -1.20000
AFIX   3
C15C  1    0.325859    0.910870    0.934912    41.00000   51.00000
AFIX  23
H15E  2    0.318593    0.876776    1.032059    41.00000   -1.20000
H15F  2    0.301639    1.027820    0.906335    41.00000   -1.20000
AFIX   3
C16C  1    0.222504    0.814584    0.867562    41.00000   51.00000
AFIX  23
H16E  2    0.169915    0.876050    0.785460    41.00000   -1.20000
H16F  2    0.130120    0.750773    0.925053    41.00000   -1.20000
AFIX   3
N1C   3    0.738908    0.297581    0.219382    41.00000   51.00000
N2C   3    0.429753    0.652162    0.728396    41.00000   51.00000
O1C   4    0.765942    0.082361    0.407443    41.00000   51.00000
O2C   4    0.690187    0.549857    0.090985    41.00000   51.00000
O3C   4    0.447364    0.393104    0.847801    41.00000   51.00000
O4C   4    0.401176    0.870437    0.556102    41.00000   51.00000
S1C   5    0.550479    0.297266    0.562949    41.00000   51.00000
S2C   5    0.527071    0.647062    0.341589    41.00000   51.00000
AFIX   0
SAME 0.005 C17B > C31B
C17C  1    0.924799    0.322076    0.506596    41.00000   51.00000
AFIX   3
C18C  1    0.928769    0.457415    0.573112    41.00000   51.00000
C19C  1    0.932122    0.442103    0.711440    41.00000   51.00000
AFIX  43
H19C  2    0.936974    0.340246    0.770030    41.00000   -1.20000
AFIX   3
C20C  1    0.928189    0.575480    0.754202    41.00000   51.00000
AFIX  43
H20C  2    0.933214    0.572763    0.845619    41.00000   -1.20000
AFIX   3
C21C  1    0.916367    0.723578    0.662568    41.00000   51.00000
AFIX  43
H21C  2    0.911192    0.820261    0.693795    41.00000   -1.20000
AFIX   3
C22C  1    0.911960    0.731827    0.523271    41.00000   51.00000
AFIX  43
H22C  2    0.900537    0.833070    0.464339    41.00000   -1.20000
AFIX   3
C23C  1    0.923692    0.599607    0.476985    41.00000   51.00000
C24C  1    0.906184    0.590249    0.331676    41.00000   51.00000
AFIX  13
H24C  2    0.905447    0.696579    0.268699    41.00000   -1.20000
AFIX   3
C25C  1    1.051898    0.472351    0.300809    41.00000   51.00000
C26C  1    1.168123    0.478165    0.186647    41.00000   51.00000
AFIX  43
H26C  2    1.168002    0.575243    0.121921    41.00000   -1.20000
AFIX   3
C27C  1    1.281880    0.351770    0.163131    41.00000   51.00000
AFIX  43
H27C  2    1.353889    0.359127    0.083990    41.00000   -1.20000
AFIX   3
C28C  1    1.283645    0.216324    0.260941    41.00000   51.00000
AFIX  43
H28C  2    1.358054    0.127167    0.246992    41.00000   -1.20000
AFIX   3
C29C  1    1.186120    0.201084    0.376455    41.00000   51.00000
AFIX  43
H29C  2    1.196810    0.105652    0.442485    41.00000   -1.20000
AFIX   3
C30C  1    1.068269    0.329417    0.397119    41.00000   51.00000
C31C  1    0.951130    0.165982    0.610829    41.00000   51.00000
AFIX  33
H31G  2    0.965601    0.074991    0.567348    41.00000   -1.50000
H31H  2    0.845291    0.151851    0.672050    41.00000   -1.50000
H31I  2    1.059261    0.171730    0.659447    41.00000   -1.50000
HKLF    4
 
REM  12s_sk117_d4ma20oilb18h_0s in P1
REM R1 =  0.0452 for   4858 Fo > 4sig(Fo)  and  0.0634 for all   6214 data
REM    407 parameters refined using    193 restraints
 
END
 
WGHT      0.0600      0.2065
REM Highest difference peak  0.525,  deepest hole -0.424,  1-sigma level  0.071
Q1    1   0.6455  0.6941  0.4061  11.00000  0.05    0.52
Q2    1   0.5169  0.2910  0.5206  11.00000  0.05    0.49
Q3    1   0.2532  0.6795  0.4371  11.00000  0.05    0.37
Q4    1   0.9316  0.6129  0.3544  11.00000  0.05    0.29
Q5    1   0.2005  0.8227  0.3421  11.00000  0.05    0.24
;
_cod_data_source_file            12s_sk117_d4ma20oilb18h_0s-23p-x5.cif
_cod_data_source_block           12s_sk117_d4ma20oilb18h_0s
_cod_depositor_comments
;
The following automatic conversions were performed:

data item '_symmetry_cell_setting' value 'Triclinic' was changed to
'triclinic' in accordance with the
/home/saulius/struct/COD-crude-data/automatic-downloads/DataCite-retrospective/ACS/depositions/lib/dictionaries/cif_core.dic
dictionary named 'cif_core.dic' version 2.4.2 last updated on
2011-04-26.

Automatic conversion script
Id: cif_fix_values 6909 2019-04-08 15:41:33Z antanas 
;
_cod_original_sg_symbol_H-M      P1
_cod_database_code               4517070
loop_
_symmetry_equiv_pos_as_xyz
'x, y, z'
loop_
_atom_site_label
_atom_site_type_symbol
_atom_site_fract_x
_atom_site_fract_y
_atom_site_fract_z
_atom_site_U_iso_or_equiv
_atom_site_adp_type
_atom_site_occupancy
_atom_site_symmetry_multiplicity
_atom_site_calc_flag
_atom_site_refinement_flags
_atom_site_disorder_assembly
_atom_site_disorder_group
C1A C 0.7244(9) 0.2365(7) 0.3245(6) 0.0273(16) Uani 0.774(3) 1 d P A 2
C2A C 0.6551(9) 0.3602(8) 0.4064(6) 0.0282(17) Uani 0.774(3) 1 d P A 2
C3A C 0.6439(9) 0.5076(7) 0.3273(6) 0.0288(15) Uani 0.774(3) 1 d P A 2
C4A C 0.7045(10) 0.4867(8) 0.1934(7) 0.0311(15) Uani 0.774(3) 1 d P A 2
C5A C 0.4657(10) 0.4932(8) 0.7367(6) 0.0300(14) Uani 0.774(3) 1 d P A 2
C6A C 0.5240(8) 0.4835(7) 0.5989(6) 0.0285(14) Uani 0.774(3) 1 d P A 2
C7A C 0.5116(10) 0.6254(7) 0.5201(7) 0.0327(15) Uani 0.774(3) 1 d P A 2
C8A C 0.4426(8) 0.7407(8) 0.5964(6) 0.0280(14) Uani 0.774(3) 1 d P A 2
C9A C 0.7867(10) 0.2560(8) 0.0825(7) 0.0368(16) Uani 0.774(3) 1 d P A 2
H9A H 0.7758 0.3436 0.0021 0.044 Uiso 0.774(3) 1 calc PR A 2
C10A C 0.9570(9) 0.1550(11) 0.0666(9) 0.069(3) Uani 0.774(3) 1 d P A 2
H10A H 1.0044 0.0941 0.1508 0.083 Uiso 0.774(3) 1 calc PR A 2
H10B H 1.0535 0.2143 0.0100 0.083 Uiso 0.774(3) 1 calc PR A 2
C11A C 0.8455(11) 0.0562(11) -0.0039(9) 0.064(3) Uani 0.774(3) 1 d P A 2
H11A H 0.8488 0.0935 -0.1008 0.077 Uiso 0.774(3) 1 calc PR A 2
H11B H 0.8724 -0.0607 0.0214 0.077 Uiso 0.774(3) 1 calc PR A 2
C12A C 0.6770(10) 0.1122(9) 0.0648(7) 0.0395(17) Uani 0.774(3) 1 d P A 2
H12A H 0.6411 0.0388 0.1484 0.047 Uiso 0.774(3) 1 calc PR A 2
H12B H 0.5732 0.1431 0.0074 0.047 Uiso 0.774(3) 1 calc PR A 2
C13A C 0.3932(9) 0.7260(8) 0.8452(7) 0.0374(16) Uani 0.774(3) 1 d P A 2
H13A H 0.4129 0.6389 0.9249 0.045 Uiso 0.774(3) 1 calc PR A 2
C14A C 0.4973(10) 0.8709(8) 0.8608(7) 0.0385(16) Uani 0.774(3) 1 d P A 2
H14A H 0.5317 0.9434 0.7764 0.046 Uiso 0.774(3) 1 calc PR A 2
H14B H 0.6019 0.8427 0.9177 0.046 Uiso 0.774(3) 1 calc PR A 2
C15A C 0.3242(10) 0.9288(9) 0.9315(8) 0.0472(18) Uani 0.774(3) 1 d P A 2
H15A H 0.2913 1.0439 0.9008 0.057 Uiso 0.774(3) 1 calc PR A 2
H15B H 0.3249 0.8988 1.0288 0.057 Uiso 0.774(3) 1 calc PR A 2
C16A C 0.2144(11) 0.8139(9) 0.8677(7) 0.0457(17) Uani 0.774(3) 1 d P A 2
H16A H 0.1281 0.7482 0.9299 0.055 Uiso 0.774(3) 1 calc PR A 2
H16B H 0.1558 0.8679 0.7857 0.055 Uiso 0.774(3) 1 calc PR A 2
N1A N 0.7485(9) 0.3243(7) 0.1988(6) 0.0314(14) Uani 0.774(3) 1 d P A 2
N2A N 0.4251(8) 0.6560(7) 0.7301(6) 0.0314(13) Uani 0.774(3) 1 d P A 2
O1A O 0.7557(8) 0.0995(6) 0.3619(5) 0.0398(14) Uani 0.774(3) 1 d P A 2
O2A O 0.7141(7) 0.5938(6) 0.0951(5) 0.0400(13) Uani 0.774(3) 1 d P A 2
O3A O 0.4628(8) 0.3869(6) 0.8293(5) 0.0449(14) Uani 0.774(3) 1 d P A 2
O4A O 0.4165(7) 0.8875(5) 0.5595(5) 0.0377(13) Uani 0.774(3) 1 d P A 2
S1A S 0.5969(2) 0.29008(19) 0.56946(16) 0.0371(5) Uani 0.774(3) 1 d P A 2
S2A S 0.57116(16) 0.68904(13) 0.35428(10) 0.0292(4) Uani 0.774(3) 1 d P A 2
C17A C 0.0895(10) 0.3494(8) 0.5580(5) 0.0373(16) Uani 0.774(3) 1 d P A 2
C18A C 0.0222(10) 0.4861(8) 0.5949(7) 0.0338(15) Uani 0.774(3) 1 d P A 2
C19A C -0.0482(11) 0.4781(11) 0.7223(8) 0.048(2) Uani 0.774(3) 1 d P A 2
H19A H -0.0493 0.3783 0.7836 0.057 Uiso 0.774(3) 1 calc PR A 2
C20A C -0.1163(10) 0.6152(11) 0.7595(9) 0.055(3) Uani 0.774(3) 1 d P A 2
H20A H -0.1573 0.6101 0.8482 0.066 Uiso 0.774(3) 1 calc PR A 2
C21A C -0.1262(11) 0.7596(10) 0.6704(8) 0.048(2) Uani 0.774(3) 1 d P A 2
H21A H -0.1761 0.8527 0.6971 0.058 Uiso 0.774(3) 1 calc PR A 2
C22A C -0.0651(11) 0.7681(10) 0.5457(9) 0.047(2) Uani 0.774(3) 1 d P A 2
H22A H -0.0697 0.8694 0.4864 0.057 Uiso 0.774(3) 1 calc PR A 2
C23A C 0.0068(11) 0.6321(9) 0.4975(8) 0.0408(17) Uani 0.774(3) 1 d P A 2
C24A C 0.0705(10) 0.6417(9) 0.3728(8) 0.0439(18) Uani 0.774(3) 1 d P A 2
H24A H 0.0642 0.7417 0.3117 0.053 Uiso 0.774(3) 1 calc PR A 2
C25A C 0.1468(11) 0.5051(9) 0.3317(8) 0.046(2) Uani 0.774(3) 1 d P A 2
C26A C 0.2175(10) 0.5001(10) 0.1989(8) 0.046(2) Uani 0.774(3) 1 d P A 2
H26A H 0.2110 0.5963 0.1335 0.056 Uiso 0.774(3) 1 calc PR A 2
C27A C 0.2910(10) 0.3683(10) 0.1637(7) 0.0453(19) Uani 0.774(3) 1 d P A 2
H27A H 0.3404 0.3736 0.0768 0.054 Uiso 0.774(3) 1 calc PR A 2
C28A C 0.2944(11) 0.2201(9) 0.2578(9) 0.049(2) Uani 0.774(3) 1 d P A 2
H28A H 0.3434 0.1261 0.2320 0.059 Uiso 0.774(3) 1 calc PR A 2
C29A C 0.2295(10) 0.2103(9) 0.3823(9) 0.044(2) Uani 0.774(3) 1 d P A 2
H29A H 0.2335 0.1104 0.4434 0.052 Uiso 0.774(3) 1 calc PR A 2
C30A C 0.1539(10) 0.3521(9) 0.4230(7) 0.0383(16) Uani 0.774(3) 1 d P A 2
C31A C 0.1078(7) 0.1910(5) 0.6494(4) 0.0508(11) Uani 0.774(3) 1 d P A 2
H31A H 0.1628 0.1123 0.6017 0.076 Uiso 0.774(3) 1 calc PR A 2
H31B H -0.0119 0.1567 0.6857 0.076 Uiso 0.774(3) 1 calc PR A 2
H31C H 0.1845 0.1992 0.7212 0.076 Uiso 0.774(3) 1 calc PR A 2
C1B C 0.7039(8) 0.2381(7) 0.3240(5) 0.043(9) Uiso 0.131(4) 1 d PDU B 1
C2B C 0.6527(8) 0.3586(7) 0.4078(5) 0.056(11) Uiso 0.131(4) 1 d PRDU B 1
C3B C 0.6342(8) 0.5006(7) 0.3177(5) 0.078(9) Uiso 0.131(4) 1 d PRDU B 1
C4B C 0.6807(8) 0.4752(7) 0.1816(5) 0.042(8) Uiso 0.131(4) 1 d PRDU B 1
C5B C 0.4226(8) 0.5061(7) 0.7285(5) 0.028(6) Uiso 0.131(4) 1 d PRDU B 1
C6B C 0.4174(8) 0.4715(7) 0.5873(5) 0.013(3) Uiso 0.131(4) 1 d PRDU B 1
C7B C 0.3942(8) 0.6263(7) 0.4837(5) 0.033(4) Uiso 0.131(4) 1 d PRDU B 1
C8B C 0.3980(8) 0.7473(7) 0.5665(5) 0.042(6) Uiso 0.131(4) 1 d PRDU B 1
C9B C 0.7420(8) 0.2493(7) 0.0733(5) 0.036(7) Uiso 0.131(4) 1 d PRDU B 1
H9B H 0.7282 0.3358 -0.0076 0.043 Uiso 0.131(4) 1 calc PR B 1
C10B C 0.9153(8) 0.1486(7) 0.0597(5) 0.054(9) Uiso 0.131(4) 1 d PRDU B 1
H10C H 1.0150 0.2090 0.0081 0.065 Uiso 0.131(4) 1 calc PR B 1
H10D H 0.9569 0.0820 0.1436 0.065 Uiso 0.131(4) 1 calc PR B 1
C11B C 0.8048(8) 0.0616(7) -0.0183(5) 0.059(9) Uiso 0.131(4) 1 d PRDU B 1
H11C H 0.8310 -0.0555 -0.0021 0.070 Uiso 0.131(4) 1 calc PR B 1
H11D H 0.8040 0.1100 -0.1137 0.070 Uiso 0.131(4) 1 calc PR B 1
C12B C 0.6365(8) 0.1135(7) 0.0645(5) 0.042(8) Uiso 0.131(4) 1 d PRDU B 1
H12C H 0.5255 0.1425 0.0144 0.051 Uiso 0.131(4) 1 calc PR B 1
H12D H 0.6119 0.0387 0.1497 0.051 Uiso 0.131(4) 1 calc PR B 1
C13B C 0.3721(8) 0.7424(7) 0.8179(5) 0.042(7) Uiso 0.131(4) 1 d PRDU B 1
H13B H 0.3833 0.6580 0.9003 0.051 Uiso 0.131(4) 1 calc PR B 1
C14B C 0.4763(8) 0.8773(7) 0.8271(5) 0.047(8) Uiso 0.131(4) 1 d PRDU B 1
H14C H 0.5180 0.9414 0.7408 0.057 Uiso 0.131(4) 1 calc PR B 1
H14D H 0.5774 0.8490 0.8873 0.057 Uiso 0.131(4) 1 calc PR B 1
C15B C 0.3067(8) 0.9517(7) 0.8886(5) 0.044(7) Uiso 0.131(4) 1 d PRDU B 1
H15C H 0.3006 0.9270 0.9861 0.053 Uiso 0.131(4) 1 calc PR B 1
H15D H 0.2857 1.0679 0.8529 0.053 Uiso 0.131(4) 1 calc PR B 1
C16B C 0.1987(8) 0.8503(7) 0.8308(5) 0.038(7) Uiso 0.131(4) 1 d PRDU B 1
H16C H 0.1492 0.9044 0.7453 0.046 Uiso 0.131(4) 1 calc PR B 1
H16D H 0.1031 0.7956 0.8915 0.046 Uiso 0.131(4) 1 calc PR B 1
N1B N 0.7149(8) 0.3189(7) 0.1931(5) 0.035(7) Uiso 0.131(4) 1 d PRDU B 1
N2B N 0.3989(8) 0.6692(7) 0.7060(5) 0.030(6) Uiso 0.131(4) 1 d PRDU B 1
O1B O 0.7220(8) 0.0949(7) 0.3727(5) 0.027(7) Uiso 0.131(4) 1 d PRDU B 1
O2B O 0.6874(8) 0.5769(7) 0.0742(5) 0.020(5) Uiso 0.131(4) 1 d PRDU B 1
O3B O 0.4407(8) 0.4140(7) 0.8337(5) 0.017(5) Uiso 0.131(4) 1 d PRDU B 1
O4B O 0.3933(8) 0.8815(7) 0.5276(5) 0.029(6) Uiso 0.131(4) 1 d PRDU B 1
S1B S 0.6118(8) 0.3219(7) 0.5838(5) 0.0072(14) Uiso 0.131(4) 1 d PRU B 1
S2B S 0.5849(8) 0.6747(7) 0.3606(5) 0.150(10) Uiso 0.131(4) 1 d PRU B 1
C17B C 0.2408(12) 0.3871(11) 0.5896(9) 0.021(3) Uiso 0.131(4) 1 d PDU B 1
C18B C 0.0855(12) 0.5012(11) 0.6175(9) 0.034(5) Uiso 0.131(4) 1 d PRDU B 1
C19B C -0.0190(12) 0.4778(11) 0.7355(9) 0.033(7) Uiso 0.131(4) 1 d PRDU B 1
H19B H -0.0034 0.3845 0.8031 0.040 Uiso 0.131(4) 1 calc PR B 1
C20B C -0.1441(12) 0.5959(11) 0.7479(9) 0.039(7) Uiso 0.131(4) 1 d PRDU B 1
H20B H -0.2233 0.5814 0.8238 0.047 Uiso 0.131(4) 1 calc PR B 1
C21B C -0.1604(12) 0.7403(11) 0.6511(9) 0.047(8) Uiso 0.131(4) 1 d PRDU B 1
H21B H -0.2483 0.8217 0.6623 0.056 Uiso 0.131(4) 1 calc PR B 1
C22B C -0.0432(12) 0.7602(11) 0.5379(9) 0.040(8) Uiso 0.131(4) 1 d PRDU B 1
H22B H -0.0515 0.8564 0.4726 0.047 Uiso 0.131(4) 1 calc PR B 1
C23B C 0.0812(12) 0.6431(11) 0.5215(9) 0.033(5) Uiso 0.131(4) 1 d PRDU B 1
C24B C 0.2239(12) 0.6544(11) 0.4095(9) 0.027(4) Uiso 0.131(4) 1 d PRDU B 1
H24B H 0.2180 0.7583 0.3436 0.032 Uiso 0.131(4) 1 calc PR B 1
C25B C 0.2221(12) 0.5138(11) 0.3518(9) 0.031(5) Uiso 0.131(4) 1 d PRDU B 1
C26B C 0.2144(12) 0.5048(11) 0.2159(9) 0.046(9) Uiso 0.131(4) 1 d PRDU B 1
H26B H 0.1961 0.6017 0.1524 0.055 Uiso 0.131(4) 1 calc PR B 1
C27B C 0.2319(12) 0.3655(11) 0.1737(9) 0.059(9) Uiso 0.131(4) 1 d PRDU B 1
H27B H 0.2318 0.3606 0.0835 0.071 Uiso 0.131(4) 1 calc PR B 1
C28B C 0.2497(12) 0.2316(11) 0.2735(9) 0.062(9) Uiso 0.131(4) 1 d PRDU B 1
H28B H 0.2691 0.1318 0.2479 0.075 Uiso 0.131(4) 1 calc PR B 1
C29B C 0.2422(12) 0.2276(11) 0.4061(9) 0.042(8) Uiso 0.131(4) 1 d PRDU B 1
H29B H 0.2420 0.1284 0.4683 0.050 Uiso 0.131(4) 1 calc PR B 1
C30B C 0.2352(12) 0.3699(11) 0.4466(9) 0.038(5) Uiso 0.131(4) 1 d PRDU B 1
C31B C 0.2303(12) 0.2281(11) 0.6887(9) 0.054(6) Uiso 0.131(4) 1 d PRDU B 1
H31D H 0.3215 0.1515 0.6642 0.080 Uiso 0.131(4) 1 calc PR B 1
H31E H 0.1098 0.1861 0.6891 0.080 Uiso 0.131(4) 1 calc PR B 1
H31F H 0.2527 0.2445 0.7767 0.080 Uiso 0.131(4) 1 calc PR B 1
C1C C 0.7421(13) 0.2241(12) 0.3526(10) 0.050(3) Uiso 0.096(4) 1 d PDU C 3
C2C C 0.7324(13) 0.3520(12) 0.4307(10) 0.050(3) Uiso 0.096(4) 1 d PRDU C 3
C3C C 0.7199(13) 0.4913(12) 0.3354(10) 0.050(3) Uiso 0.096(4) 1 d PRDU C 3
C4C C 0.7171(13) 0.4553(12) 0.2015(10) 0.050(3) Uiso 0.096(4) 1 d PRDU C 3
C5C C 0.4576(13) 0.4895(12) 0.7453(10) 0.050(3) Uiso 0.096(4) 1 d PRDU C 3
C6C C 0.4807(13) 0.4631(12) 0.6007(10) 0.050(3) Uiso 0.096(4) 1 d PRDU C 3
C7C C 0.4881(13) 0.6211(12) 0.5036(10) 0.050(3) Uiso 0.096(4) 1 d PRDU C 3
C8C C 0.4328(13) 0.7364(12) 0.5908(10) 0.050(3) Uiso 0.096(4) 1 d PRDU C 3
C9C C 0.7608(13) 0.2194(12) 0.1043(10) 0.050(3) Uiso 0.096(4) 1 d PRDU C 3
H9C H 0.7504 0.3008 0.0200 0.060 Uiso 0.096(4) 1 calc PR C 3
C10C C 0.9297(13) 0.1098(12) 0.0989(10) 0.050(3) Uiso 0.096(4) 1 d PRDU C 3
H10E H 1.0317 0.1617 0.0435 0.060 Uiso 0.096(4) 1 calc PR C 3
H10F H 0.9695 0.0508 0.1860 0.060 Uiso 0.096(4) 1 calc PR C 3
C11C C 0.8144(13) 0.0165(12) 0.0308(10) 0.050(3) Uiso 0.096(4) 1 d PRDU C 3
H11E H 0.8348 -0.1012 0.0568 0.060 Uiso 0.096(4) 1 calc PR C 3
H11F H 0.8160 0.0534 -0.0661 0.060 Uiso 0.096(4) 1 calc PR C 3
C12C C 0.6481(13) 0.0845(12) 0.1053(10) 0.050(3) Uiso 0.096(4) 1 d PRDU C 3
H12E H 0.5390 0.1121 0.0528 0.060 Uiso 0.096(4) 1 calc PR C 3
H12F H 0.6186 0.0196 0.1941 0.060 Uiso 0.096(4) 1 calc PR C 3
C13C C 0.3993(13) 0.7167(12) 0.8445(10) 0.050(3) Uiso 0.096(4) 1 d PRDU C 3
H13C H 0.4115 0.6257 0.9224 0.060 Uiso 0.096(4) 1 calc PR C 3
C14C C 0.4988(13) 0.8472(12) 0.8691(10) 0.050(3) Uiso 0.096(4) 1 d PRDU C 3
H14E H 0.5423 0.9212 0.7879 0.060 Uiso 0.096(4) 1 calc PR C 3
H14F H 0.5980 0.8122 0.9301 0.060 Uiso 0.096(4) 1 calc PR C 3
C15C C 0.3259(13) 0.9109(12) 0.9349(10) 0.050(3) Uiso 0.096(4) 1 d PRDU C 3
H15E H 0.3186 0.8768 1.0321 0.060 Uiso 0.096(4) 1 calc PR C 3
H15F H 0.3016 1.0278 0.9063 0.060 Uiso 0.096(4) 1 calc PR C 3
C16C C 0.2225(13) 0.8146(12) 0.8676(10) 0.050(3) Uiso 0.096(4) 1 d PRDU C 3
H16E H 0.1699 0.8760 0.7855 0.060 Uiso 0.096(4) 1 calc PR C 3
H16F H 0.1301 0.7508 0.9251 0.060 Uiso 0.096(4) 1 calc PR C 3
N1C N 0.7389(13) 0.2976(12) 0.2194(10) 0.050(3) Uiso 0.096(4) 1 d PRDU C 3
N2C N 0.4298(13) 0.6522(12) 0.7284(10) 0.050(3) Uiso 0.096(4) 1 d PRDU C 3
O1C O 0.7659(13) 0.0824(12) 0.4074(10) 0.050(3) Uiso 0.096(4) 1 d PRDU C 3
O2C O 0.6902(13) 0.5499(12) 0.0910(10) 0.050(3) Uiso 0.096(4) 1 d PRDU C 3
O3C O 0.4474(13) 0.3931(12) 0.8478(10) 0.050(3) Uiso 0.096(4) 1 d PRDU C 3
O4C O 0.4012(13) 0.8704(12) 0.5561(10) 0.050(3) Uiso 0.096(4) 1 d PRDU C 3
S1C S 0.5505(13) 0.2973(12) 0.5629(10) 0.050(3) Uiso 0.096(4) 1 d PRU C 3
S2C S 0.5271(13) 0.6471(12) 0.3416(10) 0.050(3) Uiso 0.096(4) 1 d PRU C 3
C17C C 0.9248(14) 0.3221(14) 0.5066(13) 0.050(3) Uiso 0.096(4) 1 d PDU C 3
C18C C 0.9288(14) 0.4574(14) 0.5731(13) 0.050(3) Uiso 0.096(4) 1 d PRDU C 3
C19C C 0.9321(14) 0.4421(14) 0.7114(13) 0.050(3) Uiso 0.096(4) 1 d PRDU C 3
H19C H 0.9370 0.3402 0.7700 0.060 Uiso 0.096(4) 1 calc PR C 3
C20C C 0.9282(14) 0.5755(14) 0.7542(13) 0.050(3) Uiso 0.096(4) 1 d PRDU C 3
H20C H 0.9332 0.5728 0.8456 0.060 Uiso 0.096(4) 1 calc PR C 3
C21C C 0.9164(14) 0.7236(14) 0.6626(13) 0.050(3) Uiso 0.096(4) 1 d PRDU C 3
H21C H 0.9112 0.8203 0.6938 0.060 Uiso 0.096(4) 1 calc PR C 3
C22C C 0.9120(14) 0.7318(14) 0.5233(13) 0.050(3) Uiso 0.096(4) 1 d PRDU C 3
H22C H 0.9005 0.8331 0.4643 0.060 Uiso 0.096(4) 1 calc PR C 3
C23C C 0.9237(14) 0.5996(14) 0.4770(13) 0.050(3) Uiso 0.096(4) 1 d PRDU C 3
C24C C 0.9062(14) 0.5902(14) 0.3317(13) 0.050(3) Uiso 0.096(4) 1 d PRDU C 3
H24C H 0.9054 0.6966 0.2687 0.060 Uiso 0.096(4) 1 calc PR C 3
C25C C 1.0519(14) 0.4724(14) 0.3008(13) 0.050(3) Uiso 0.096(4) 1 d PRDU C 3
C26C C 1.1681(14) 0.4782(14) 0.1866(13) 0.050(3) Uiso 0.096(4) 1 d PRDU C 3
H26C H 1.1680 0.5752 0.1219 0.060 Uiso 0.096(4) 1 calc PR C 3
C27C C 1.2819(14) 0.3518(14) 0.1631(13) 0.050(3) Uiso 0.096(4) 1 d PRDU C 3
H27C H 1.3539 0.3591 0.0840 0.060 Uiso 0.096(4) 1 calc PR C 3
C28C C 1.2836(14) 0.2163(14) 0.2609(13) 0.050(3) Uiso 0.096(4) 1 d PRDU C 3
H28C H 1.3581 0.1272 0.2470 0.060 Uiso 0.096(4) 1 calc PR C 3
C29C C 1.1861(14) 0.2011(14) 0.3765(13) 0.050(3) Uiso 0.096(4) 1 d PRDU C 3
H29C H 1.1968 0.1057 0.4425 0.060 Uiso 0.096(4) 1 calc PR C 3
C30C C 1.0683(14) 0.3294(14) 0.3971(13) 0.050(3) Uiso 0.096(4) 1 d PRDU C 3
C31C C 0.9511(14) 0.1660(14) 0.6108(13) 0.050(3) Uiso 0.096(4) 1 d PRDU C 3
H31G H 0.9656 0.0750 0.5673 0.075 Uiso 0.096(4) 1 calc PR C 3
H31H H 0.8453 0.1519 0.6720 0.075 Uiso 0.096(4) 1 calc PR C 3
H31I H 1.0593 0.1717 0.6594 0.075 Uiso 0.096(4) 1 calc PR C 3
loop_
_atom_site_aniso_label
_atom_site_aniso_U_11
_atom_site_aniso_U_22
_atom_site_aniso_U_33
_atom_site_aniso_U_23
_atom_site_aniso_U_13
_atom_site_aniso_U_12
C1A 0.032(3) 0.024(3) 0.028(3) -0.013(2) 0.001(2) 0.011(2)
C2A 0.031(3) 0.031(3) 0.023(3) -0.008(3) -0.006(2) 0.006(3)
C3A 0.036(4) 0.018(3) 0.027(3) 0.003(2) 0.003(2) 0.009(2)
C4A 0.032(3) 0.024(3) 0.037(3) -0.003(3) -0.007(3) -0.006(2)
C5A 0.031(3) 0.035(3) 0.024(3) -0.012(3) 0.009(2) 0.006(3)
C6A 0.026(3) 0.033(3) 0.031(3) -0.017(3) -0.002(2) 0.000(2)
C7A 0.041(4) 0.018(3) 0.037(4) -0.005(3) 0.006(3) -0.001(3)
C8A 0.019(3) 0.032(3) 0.032(3) -0.003(2) -0.008(2) -0.003(2)
C9A 0.046(4) 0.032(3) 0.036(3) -0.014(3) 0.003(3) -0.015(3)
C10A 0.021(3) 0.095(6) 0.117(7) -0.083(5) 0.012(3) -0.005(3)
C11A 0.042(4) 0.085(6) 0.086(6) -0.066(5) 0.009(4) 0.003(4)
C12A 0.025(3) 0.049(4) 0.052(4) -0.029(3) -0.003(3) 0.000(3)
C13A 0.041(3) 0.045(4) 0.029(3) -0.017(3) 0.001(2) 0.018(3)
C14A 0.049(4) 0.037(4) 0.031(3) -0.013(3) -0.008(3) 0.009(3)
C15A 0.056(5) 0.048(4) 0.044(4) -0.023(3) -0.002(3) 0.002(3)
C16A 0.054(4) 0.050(3) 0.035(3) -0.015(3) 0.004(3) 0.004(3)
N1A 0.031(3) 0.029(3) 0.035(3) -0.011(2) 0.003(2) 0.004(2)
N2A 0.039(3) 0.029(3) 0.026(3) -0.008(2) -0.001(2) 0.004(2)
O1A 0.051(3) 0.031(3) 0.037(3) -0.013(2) 0.007(2) 0.010(2)
O2A 0.058(3) 0.040(3) 0.024(2) -0.009(2) 0.000(2) -0.013(2)
O3A 0.073(4) 0.026(2) 0.033(3) -0.004(2) 0.010(2) 0.008(2)
O4A 0.048(3) 0.025(3) 0.039(3) -0.004(2) -0.016(2) 0.012(2)
S1A 0.0523(11) 0.0224(8) 0.0367(10) -0.0090(7) 0.0041(8) 0.0029(8)
S2A 0.0413(9) 0.0174(6) 0.0256(7) -0.0002(6) 0.0037(6) 0.0068(6)
C17A 0.043(4) 0.040(3) 0.022(2) 0.010(2) -0.008(2) 0.002(3)
C18A 0.033(4) 0.034(3) 0.032(3) -0.001(3) -0.003(3) -0.004(3)
C19A 0.042(4) 0.058(5) 0.047(4) -0.023(3) 0.002(3) -0.001(3)
C20A 0.034(4) 0.069(6) 0.075(6) -0.045(5) 0.016(3) -0.014(4)
C21A 0.038(4) 0.063(6) 0.058(5) -0.044(4) -0.002(3) -0.004(4)
C22A 0.036(4) 0.045(5) 0.060(6) -0.010(4) -0.005(4) 0.002(3)
C23A 0.038(4) 0.033(4) 0.045(4) 0.003(3) -0.006(3) 0.005(3)
C24A 0.033(3) 0.031(3) 0.067(4) -0.012(3) 0.007(3) 0.002(3)
C25A 0.041(5) 0.044(4) 0.049(4) -0.007(4) 0.005(3) 0.011(4)
C26A 0.035(4) 0.052(5) 0.040(4) 0.017(3) 0.002(3) -0.003(3)
C27A 0.030(4) 0.067(5) 0.039(4) -0.010(3) -0.005(3) -0.006(3)
C28A 0.027(3) 0.043(4) 0.079(6) -0.017(4) 0.004(3) 0.003(3)
C29A 0.043(4) 0.031(4) 0.058(5) -0.013(4) -0.004(4) 0.008(3)
C30A 0.031(3) 0.042(4) 0.040(4) -0.009(3) 0.002(3) 0.003(3)
C31A 0.062(3) 0.042(2) 0.039(2) 0.0035(17) 0.0100(19) 0.0110(19)
loop_
_atom_type_symbol
_atom_type_description
_atom_type_scat_dispersion_real
_atom_type_scat_dispersion_imag
_atom_type_scat_source
C C 0.0033 0.0016 'International Tables Vol C Tables 4.2.6.8 and 6.1.1.4'
H H 0.0000 0.0000 'International Tables Vol C Tables 4.2.6.8 and 6.1.1.4'
N N 0.0061 0.0033 'International Tables Vol C Tables 4.2.6.8 and 6.1.1.4'
O O 0.0106 0.0060 'International Tables Vol C Tables 4.2.6.8 and 6.1.1.4'
S S 0.1246 0.1234 'International Tables Vol C Tables 4.2.6.8 and 6.1.1.4'
loop_
_geom_angle_atom_site_label_1
_geom_angle_atom_site_label_2
_geom_angle_atom_site_label_3
_geom_angle
O1A C1A N1A 127.3(6)
O1A C1A C2A 127.9(6)
N1A C1A C2A 104.8(5)
C3A C2A C1A 109.6(6)
C3A C2A S1A 132.5(5)
C1A C2A S1A 117.8(4)
C2A C3A C4A 106.0(5)
C2A C3A S2A 132.8(5)
C4A C3A S2A 121.1(4)
O2A C4A N1A 125.7(7)
O2A C4A C3A 125.4(6)
N1A C4A C3A 108.9(5)
O3A C5A N2A 128.7(6)
O3A C5A C6A 126.7(6)
N2A C5A C6A 104.5(5)
C7A C6A C5A 110.7(6)
C7A C6A S1A 131.8(5)
C5A C6A S1A 117.5(5)
C6A C7A C8A 108.6(6)
C6A C7A S2A 131.3(5)
C8A C7A S2A 120.0(4)
O4A C8A N2A 124.3(6)
O4A C8A C7A 128.7(6)
N2A C8A C7A 106.8(5)
N1A C9A C10A 122.0(6)
N1A C9A C12A 119.2(6)
C10A C9A C12A 87.8(5)
N1A C9A H9A 108.7
C10A C9A H9A 108.7
C12A C9A H9A 108.7
C9A C10A C11A 87.8(5)
C9A C10A H10A 114.0
C11A C10A H10A 114.0
C9A C10A H10B 114.0
C11A C10A H10B 114.0
H10A C10A H10B 111.2
C12A C11A C10A 88.8(5)
C12A C11A H11A 113.9
C10A C11A H11A 113.9
C12A C11A H11B 113.9
C10A C11A H11B 113.9
H11A C11A H11B 111.1
C11A C12A C9A 86.8(5)
C11A C12A H12A 114.2
C9A C12A H12A 114.2
C11A C12A H12B 114.2
C9A C12A H12B 114.2
H12A C12A H12B 111.3
N2A C13A C16A 120.7(6)
N2A C13A C14A 121.0(6)
C16A C13A C14A 90.6(5)
N2A C13A H13A 107.7
C16A C13A H13A 107.7
C14A C13A H13A 107.7
C13A C14A C15A 87.9(5)
C13A C14A H14A 114.0
C15A C14A H14A 114.0
C13A C14A H14B 114.0
C15A C14A H14B 114.0
H14A C14A H14B 111.2
C14A C15A C16A 87.7(5)
C14A C15A H15A 114.0
C16A C15A H15A 114.0
C14A C15A H15B 114.0
C16A C15A H15B 114.0
H15A C15A H15B 111.2
C13A C16A C15A 87.6(6)
C13A C16A H16A 114.1
C15A C16A H16A 114.1
C13A C16A H16B 114.1
C15A C16A H16B 114.1
H16A C16A H16B 111.2
C1A N1A C4A 110.7(5)
C1A N1A C9A 124.7(6)
C4A N1A C9A 123.9(6)
C5A N2A C8A 109.3(5)
C5A N2A C13A 123.7(6)
C8A N2A C13A 126.6(6)
C2A S1A C6A 94.7(3)
C3A S2A C7A 96.8(3)
C18A C17A C30A 121.1(6)
C18A C17A C31A 124.1(5)
C30A C17A C31A 114.9(6)
C17A C18A C19A 119.7(7)
C17A C18A C23A 119.3(6)
C19A C18A C23A 120.6(7)
C20A C19A C18A 119.8(8)
C20A C19A H19A 120.1
C18A C19A H19A 120.1
C19A C20A C21A 121.2(8)
C19A C20A H20A 119.4
C21A C20A H20A 119.4
C22A C21A C20A 119.6(7)
C22A C21A H21A 120.2
C20A C21A H21A 120.2
C21A C22A C23A 123.3(8)
C21A C22A H22A 118.4
C23A C22A H22A 118.4
C24A C23A C22A 123.0(8)
C24A C23A C18A 121.6(7)
C22A C23A C18A 115.1(7)
C23A C24A C25A 120.8(8)
C23A C24A H24A 119.6
C25A C24A H24A 119.6
C24A C25A C30A 120.1(7)
C24A C25A C26A 125.7(8)
C30A C25A C26A 114.2(7)
C27A C26A C25A 124.1(7)
C27A C26A H26A 117.9
C25A C26A H26A 117.9
C26A C27A C28A 119.3(7)
C26A C27A H27A 120.3
C28A C27A H27A 120.3
C29A C28A C27A 121.4(7)
C29A C28A H28A 119.3
C27A C28A H28A 119.3
C28A C29A C30A 120.0(7)
C28A C29A H29A 120.0
C30A C29A H29A 120.0
C25A C30A C29A 120.9(7)
C25A C30A C17A 116.9(7)
C29A C30A C17A 122.1(7)
C17A C31A H31A 109.5
C17A C31A H31B 109.5
H31A C31A H31B 109.5
C17A C31A H31C 109.5
H31A C31A H31C 109.5
H31B C31A H31C 109.5
O1B C1B N1B 130.3
O1B C1B C2B 121.3
N1B C1B C2B 108.3
C3B C2B C1B 103.6
C3B C2B S1B 128.3
C1B C2B S1B 128.1
C2B C3B C4B 110.2
C2B C3B S2B 122.9
C4B C3B S2B 126.8
O2B C4B N1B 124.4
O2B C4B C3B 129.0
N1B C4B C3B 106.5
O3B C5B N2B 127.3
O3B C5B C6B 129.9
N2B C5B C6B 102.8
C17B C6B C7B 104.7(4)
C17B C6B C5B 104.1(4)
C7B C6B C5B 111.3
C17B C6B S1B 108.9(4)
C7B C6B S1B 123.6
C5B C6B S1B 102.8
C8B C7B C24B 108.5(4)
C8B C7B C6B 100.8
C24B C7B C6B 118.3(4)
C8B C7B S2B 104.8
C24B C7B S2B 107.0(4)
C6B C7B S2B 116.2
O4B C8B N2B 124.6
O4B C8B C7B 124.7
N2B C8B C7B 110.6
C12B C9B N1B 118.5
C12B C9B C10B 89.5
N1B C9B C10B 117.7
C12B C9B H9B 109.8
N1B C9B H9B 109.8
C10B C9B H9B 109.8
C11B C10B C9B 85.4
C11B C10B H10C 114.4
C9B C10B H10C 114.4
C11B C10B H10D 114.4
C9B C10B H10D 114.4
H10C C10B H10D 111.5
C10B C11B C12B 85.7
C10B C11B H11C 114.4
C12B C11B H11C 114.4
C10B C11B H11D 114.4
C12B C11B H11D 114.4
H11C C11B H11D 111.5
C9B C12B C11B 85.4
C9B C12B H12C 114.4
C11B C12B H12C 114.4
C9B C12B H12D 114.4
C11B C12B H12D 114.4
H12C C12B H12D 111.5
N2B C13B C14B 120.2
N2B C13B C16B 119.5
C14B C13B C16B 87.6
N2B C13B H13B 109.2
C14B C13B H13B 109.2
C16B C13B H13B 109.2
C13B C14B C15B 89.2
C13B C14B H14C 113.8
C15B C14B H14C 113.8
C13B C14B H14D 113.8
C15B C14B H14D 113.8
H14C C14B H14D 111.0
C16B C15B C14B 87.7
C16B C15B H15C 114.0
C14B C15B H15C 114.0
C16B C15B H15D 114.0
C14B C15B H15D 114.0
H15C C15B H15D 111.2
C15B C16B C13B 88.5
C15B C16B H16C 113.9
C13B C16B H16C 113.9
C15B C16B H16D 113.9
C13B C16B H16D 113.9
H16C C16B H16D 111.1
C4B N1B C1B 111.3
C4B N1B C9B 120.4
C1B N1B C9B 128.0
C5B N2B C13B 118.1
C5B N2B C8B 113.9
C13B N2B C8B 128.0
C2B S1B C6B 97.9
C3B S2B C7B 102.8
C31B C17B C6B 114.6(4)
C31B C17B C18B 109.9
C6B C17B C18B 108.2(4)
C31B C17B C30B 113.3
C6B C17B C30B 101.7(4)
C18B C17B C30B 108.8
C23B C18B C19B 123.9
C23B C18B C17B 111.5
C19B C18B C17B 123.7
C20B C19B C18B 116.2
C20B C19B H19B 121.9
C18B C19B H19B 121.9
C19B C20B C21B 122.2
C19B C20B H20B 118.9
C21B C20B H20B 118.9
C22B C21B C20B 118.5
C22B C21B H21B 120.7
C20B C21B H21B 120.7
C23B C22B C21B 120.7
C23B C22B H22B 119.7
C21B C22B H22B 119.7
C22B C23B C18B 118.1
C22B C23B C24B 125.8
C18B C23B C24B 116.1
C25B C24B C7B 102.8(4)
C25B C24B C23B 110.1
C7B C24B C23B 101.3(4)
C25B C24B H24B 113.8
C7B C24B H24B 113.8
C23B C24B H24B 113.8
C30B C25B C26B 118.3
C30B C25B C24B 112.4
C26B C25B C24B 129.3
C27B C26B C25B 123.3
C27B C26B H26B 118.3
C25B C26B H26B 118.3
C26B C27B C28B 113.9
C26B C27B H27B 123.0
C28B C27B H27B 123.0
C29B C28B C27B 126.7
C29B C28B H28B 116.6
C27B C28B H28B 116.6
C30B C29B C28B 118.4
C30B C29B H29B 120.8
C28B C29B H29B 120.8
C29B C30B C25B 118.9
C29B C30B C17B 125.2
C25B C30B C17B 115.8
C17B C31B H31D 109.5
C17B C31B H31E 109.5
H31D C31B H31E 109.5
C17B C31B H31F 109.5
H31D C31B H31F 109.5
H31E C31B H31F 109.5
O1C C1C N1C 130.9
O1C C1C C2C 120.4
N1C C1C C2C 108.3
C3C C2C C1C 103.1
C3C C2C C17C 114.79(14)
C1C C2C C17C 102.7(6)
C3C C2C S1C 121.8
C1C C2C S1C 106.7
C17C C2C S1C 105.8(5)
C2C C3C C4C 111.0
C2C C3C C24C 108.87(14)
C4C C3C C24C 104.4(6)
C2C C3C S2C 121.3
C4C C3C S2C 105.1
C24C C3C S2C 104.8(5)
O2C C4C N1C 124.7
O2C C4C C3C 129.6
N1C C4C C3C 105.6
O3C C5C N2C 126.3
O3C C5C C6C 129.9
N2C C5C C6C 103.4
C7C C6C C5C 110.7
C7C C6C S1C 122.4
C5C C6C S1C 124.2
C6C C7C C8C 101.2
C6C C7C S2C 126.3
C8C C7C S2C 132.2
O4C C8C N2C 124.3
O4C C8C C7C 125.8
N2C C8C C7C 109.8
C12C C9C N1C 117.2
C12C C9C C10C 89.6
N1C C9C C10C 116.4
C12C C9C H9C 110.7
N1C C9C H9C 110.7
C10C C9C H9C 110.7
C11C C10C C9C 85.4
C11C C10C H10E 114.4
C9C C10C H10E 114.4
C11C C10C H10F 114.4
C9C C10C H10F 114.4
H10E C10C H10F 111.5
C10C C11C C12C 86.5
C10C C11C H11E 114.2
C12C C11C H11E 114.2
C10C C11C H11F 114.2
C12C C11C H11F 114.2
H11E C11C H11F 111.4
C9C C12C C11C 85.3
C9C C12C H12E 114.4
C11C C12C H12E 114.4
C9C C12C H12F 114.4
C11C C12C H12F 114.4
H12E C12C H12F 111.6
N2C C13C C14C 123.1
N2C C13C C16C 121.3
C14C C13C C16C 88.0
N2C C13C H13C 107.5
C14C C13C H13C 107.5
C16C C13C H13C 107.5
C13C C14C C15C 89.7
C13C C14C H14E 113.7
C15C C14C H14E 113.7
C13C C14C H14F 113.7
C15C C14C H14F 113.7
H14E C14C H14F 110.9
C16C C15C C14C 87.5
C16C C15C H15E 114.1
C14C C15C H15E 114.1
C16C C15C H15F 114.1
C14C C15C H15F 114.1
H15E C15C H15F 111.2
C15C C16C C13C 89.0
C15C C16C H16E 113.8
C13C C16C H16E 113.8
C15C C16C H16F 113.8
C13C C16C H16F 113.8
H16E C16C H16F 111.0
C4C N1C C1C 111.8
C4C N1C C9C 120.5
C1C N1C C9C 127.7
C5C N2C C13C 117.5
C5C N2C C8C 113.7
C13C N2C C8C 128.8
C6C S1C C2C 105.4
C7C S2C C3C 100.4
C18C C17C C30C 112.7
C18C C17C C31C 107.9
C30C C17C C31C 110.0
C18C C17C C2C 104.1(6)
C30C C17C C2C 104.5(6)
C31C C17C C2C 117.70(14)
C23C C18C C19C 127.1
C23C C18C C17C 108.1
C19C C18C C17C 124.7
C20C C19C C18C 116.6
C20C C19C H19C 121.7
C18C C19C H19C 121.7
C19C C20C C21C 119.1
C19C C20C H20C 120.4
C21C C20C H20C 120.4
C20C C21C C22C 121.8
C20C C21C H21C 119.1
C22C C21C H21C 119.1
C23C C22C C21C 120.4
C23C C22C H22C 119.8
C21C C22C H22C 119.8
C22C C23C C18C 114.8
C22C C23C C24C 125.7
C18C C23C C24C 118.9
C25C C24C C23C 106.9
C25C C24C C3C 102.8(6)
C23C C24C C3C 103.3(6)
C25C C24C H24C 114.2
C23C C24C H24C 114.2
C3C C24C H24C 114.2
C30C C25C C26C 114.8
C30C C25C C24C 114.7
C26C C25C C24C 130.4
C27C C26C C25C 124.7
C27C C26C H26C 117.7
C25C C26C H26C 117.7
C28C C27C C26C 115.9
C28C C27C H27C 122.0
C26C C27C H27C 122.0
C29C C28C C27C 124.2
C29C C28C H28C 117.9
C27C C28C H28C 117.9
C28C C29C C30C 118.9
C28C C29C H29C 120.5
C30C C29C H29C 120.5
C25C C30C C29C 121.3
C25C C30C C17C 111.9
C29C C30C C17C 125.8
C17C C31C H31G 109.5
C17C C31C H31H 109.5
H31G C31C H31H 109.5
C17C C31C H31I 109.5
H31G C31C H31I 109.5
H31H C31C H31I 109.5
loop_
_geom_bond_atom_site_label_1
_geom_bond_atom_site_label_2
_geom_bond_distance
C1A O1A 1.167(7)
C1A N1A 1.369(9)
C1A C2A 1.548(8)
C2A C3A 1.350(8)
C2A S1A 1.715(7)
C3A C4A 1.487(9)
C3A S2A 1.692(6)
C4A O2A 1.220(8)
C4A N1A 1.400(8)
C5A O3A 1.174(8)
C5A N2A 1.397(8)
C5A C6A 1.495(8)
C6A C7A 1.312(9)
C6A S1A 1.798(6)
C7A C8A 1.452(9)
C7A S2A 1.735(7)
C8A O4A 1.239(7)
C8A N2A 1.427(9)
C9A N1A 1.463(8)
C9A C10A 1.515(10)
C9A C12A 1.558(9)
C9A H9A 1.0000
C10A C11A 1.530(10)
C10A H10A 0.9900
C10A H10B 0.9900
C11A C12A 1.515(8)
C11A H11A 0.9900
C11A H11B 0.9900
C12A H12A 0.9900
C12A H12B 0.9900
C13A N2A 1.455(8)
C13A C16A 1.523(9)
C13A C14A 1.535(10)
C13A H13A 1.0000
C14A C15A 1.557(9)
C14A H14A 0.9900
C14A H14B 0.9900
C15A C16A 1.579(9)
C15A H15A 0.9900
C15A H15B 0.9900
C16A H16A 0.9900
C16A H16B 0.9900
C17A C18A 1.370(10)
C17A C30A 1.457(9)
C17A C31A 1.483(7)
C18A C19A 1.389(10)
C18A C23A 1.433(9)
C19A C20A 1.376(10)
C19A H19A 0.9500
C20A C21A 1.377(12)
C20A H20A 0.9500
C21A C22A 1.341(11)
C21A H21A 0.9500
C22A C23A 1.431(11)
C22A H22A 0.9500
C23A C24A 1.345(11)
C24A C25A 1.411(10)
C24A H24A 0.9500
C25A C30A 1.442(10)
C25A C26A 1.461(11)
C26A C27A 1.340(11)
C26A H26A 0.9500
C27A C28A 1.426(11)
C27A H27A 0.9500
C28A C29A 1.345(11)
C28A H28A 0.9500
C29A C30A 1.445(10)
C29A H29A 0.9500
C31A H31A 0.9800
C31A H31B 0.9800
C31A H31C 0.9800
C1B O1B 1.2238
C1B N1B 1.3894
C1B C2B 1.5108
C2B C3B 1.3711
C2B S1B 1.8028
C3B C4B 1.5000
C3B S2B 1.6618
C4B O2B 1.2599
C4B N1B 1.3285
C5B O3B 1.2137
C5B N2B 1.3676
C5B C6B 1.5637
C6B C17B 1.525(9)
C6B C7B 1.5248
C6B S1B 1.8813
C7B C8B 1.4854
C7B C24B 1.498(9)
C7B S2B 1.8587
C8B O4B 1.1314
C8B N2B 1.4622
C9B C12B 1.4555
C9B N1B 1.4938
C9B C10B 1.5268
C9B H9B 1.0000
C10B C11B 1.5105
C10B H10C 0.9900
C10B H10D 0.9900
C11B C12B 1.5780
C11B H11C 0.9900
C11B H11D 0.9900
C12B H12C 0.9900
C12B H12D 0.9900
C13B N2B 1.4372
C13B C14B 1.4446
C13B C16B 1.5608
C13B H13B 1.0000
C14B C15B 1.5505
C14B H14C 0.9900
C14B H14D 0.9900
C15B C16B 1.4521
C15B H15C 0.9900
C15B H15D 0.9900
C16B H16C 0.9900
C16B H16D 0.9900
C17B C31B 1.5226
C17B C18B 1.5270
C17B C30B 1.5310
C18B C23B 1.3962
C18B C19B 1.3997
C19B C20B 1.3575
C19B H19B 0.9500
C20B C21B 1.4198
C20B H20B 0.9500
C21B C22B 1.4119
C21B H21B 0.9500
C22B C23B 1.3583
C22B H22B 0.9500
C23B C24B 1.5230
C24B C25B 1.4572
C24B H24B 1.0000
C25B C30B 1.4046
C25B C26B 1.4384
C26B C27B 1.3542
C26B H26B 0.9500
C27B C28B 1.3761
C27B H27B 0.9500
C28B C29B 1.3724
C28B H28B 0.9500
C29B C30B 1.3691
C29B H29B 0.9500
C31B H31D 0.9800
C31B H31E 0.9800
C31B H31F 0.9800
C1C O1C 1.2314
C1C N1C 1.3952
C1C C2C 1.4948
C2C C3C 1.3785
C2C C17C 1.650(2)
C2C S1C 1.8778
C3C C4C 1.4923
C3C C24C 1.652(2)
C3C S2C 1.9117
C4C O2C 1.2750
C4C N1C 1.3243
C5C O3C 1.2017
C5C N2C 1.3700
C5C C6C 1.5699
C6C C7C 1.5047
C6C S1C 1.6047
C7C C8C 1.5063
C7C S2C 1.6650
C8C O4C 1.1415
C8C N2C 1.4582
C9C C12C 1.4576
C9C N1C 1.4909
C9C C10C 1.5311
C9C H9C 1.0000
C10C C11C 1.5008
C10C H10E 0.9900
C10C H10F 0.9900
C11C C12C 1.5747
C11C H11E 0.9900
C11C H11F 0.9900
C12C H12E 0.9900
C12C H12F 0.9900
C13C N2C 1.4366
C13C C14C 1.4438
C13C C16C 1.5547
C13C H13C 1.0000
C14C C15C 1.5511
C14C H14E 0.9900
C14C H14F 0.9900
C15C C16C 1.4597
C15C H15E 0.9900
C15C H15F 0.9900
C16C H16E 0.9900
C16C H16F 0.9900
C17C C18C 1.4739
C17C C30C 1.5107
C17C C31C 1.5394
C18C C23C 1.3990
C18C C19C 1.4196
C19C C20C 1.3096
C19C H19C 0.9500
C20C C21C 1.4139
C20C H20C 0.9500
C21C C22C 1.4392
C21C H21C 0.9500
C22C C23C 1.3189
C22C H22C 0.9500
C23C C24C 1.5452
C24C C25C 1.5090
C24C H24C 1.0000
C25C C30C 1.4086
C25C C26C 1.4242
C26C C27C 1.3919
C26C H26C 0.9500
C27C C28C 1.3678
C27C H27C 0.9500
C28C C29C 1.3551
C28C H28C 0.9500
C29C C30C 1.4131
C29C H29C 0.9500
C31C H31G 0.9800
C31C H31H 0.9800
C31C H31I 0.9800
loop_
_geom_torsion_atom_site_label_1
_geom_torsion_atom_site_label_2
_geom_torsion_atom_site_label_3
_geom_torsion_atom_site_label_4
_geom_torsion
O1A C1A C2A C3A 177.2(8)
N1A C1A C2A C3A -0.3(7)
O1A C1A C2A S1A -6.3(10)
N1A C1A C2A S1A 176.2(5)
C1A C2A C3A C4A -0.1(7)
S1A C2A C3A C4A -175.9(6)
C1A C2A C3A S2A 177.1(6)
S1A C2A C3A S2A 1.3(11)
C2A C3A C4A O2A -179.5(7)
S2A C3A C4A O2A 2.8(10)
C2A C3A C4A N1A 0.5(8)
S2A C3A C4A N1A -177.1(5)
O3A C5A C6A C7A -179.4(8)
N2A C5A C6A C7A -2.2(8)
O3A C5A C6A S1A 0.3(11)
N2A C5A C6A S1A 177.5(5)
C5A C6A C7A C8A -0.8(8)
S1A C6A C7A C8A 179.5(5)
C5A C6A C7A S2A 176.0(6)
S1A C6A C7A S2A -3.7(11)
C6A C7A C8A O4A 177.7(7)
S2A C7A C8A O4A 0.5(10)
C6A C7A C8A N2A 3.4(7)
S2A C7A C8A N2A -173.8(5)
N1A C9A C10A C11A 145.4(7)
C12A C9A C10A C11A 21.9(6)
C9A C10A C11A C12A -22.6(6)
C10A C11A C12A C9A 21.9(7)
N1A C9A C12A C11A -148.0(7)
C10A C9A C12A C11A -22.2(6)
N2A C13A C14A C15A 146.1(7)
C16A C13A C14A C15A 19.2(5)
C13A C14A C15A C16A -18.5(5)
N2A C13A C16A C15A -146.2(7)
C14A C13A C16A C15A -18.9(5)
C14A C15A C16A C13A 18.6(5)
O1A C1A N1A C4A -176.9(8)
C2A C1A N1A C4A 0.6(7)
O1A C1A N1A C9A 12.1(12)
C2A C1A N1A C9A -170.3(6)
O2A C4A N1A C1A 179.3(7)
C3A C4A N1A C1A -0.7(8)
O2A C4A N1A C9A -9.7(12)
C3A C4A N1A C9A 170.3(6)
C10A C9A N1A C1A -62.7(10)
C12A C9A N1A C1A 44.6(10)
C10A C9A N1A C4A 127.5(8)
C12A C9A N1A C4A -125.3(7)
O3A C5A N2A C8A -178.6(8)
C6A C5A N2A C8A 4.3(8)
O3A C5A N2A C13A 8.5(13)
C6A C5A N2A C13A -168.6(6)
O4A C8A N2A C5A -179.5(6)
C7A C8A N2A C5A -4.9(7)
O4A C8A N2A C13A -6.8(11)
C7A C8A N2A C13A 167.8(6)
C16A C13A N2A C5A -120.8(8)
C14A C13A N2A C5A 127.4(7)
C16A C13A N2A C8A 67.5(10)
C14A C13A N2A C8A -44.2(10)
C3A C2A S1A C6A -2.1(7)
C1A C2A S1A C6A -177.6(5)
C7A C6A S1A C2A 3.3(6)
C5A C6A S1A C2A -176.4(5)
C2A C3A S2A C7A -0.5(7)
C4A C3A S2A C7A 176.4(6)
C6A C7A S2A C3A 1.6(7)
C8A C7A S2A C3A 178.1(6)
C30A C17A C18A C19A 176.1(7)
C31A C17A C18A C19A -5.6(11)
C30A C17A C18A C23A 3.1(10)
C31A C17A C18A C23A -178.6(6)
C17A C18A C19A C20A -179.8(7)
C23A C18A C19A C20A -6.9(12)
C18A C19A C20A C21A 3.9(13)
C19A C20A C21A C22A -1.4(13)
C20A C21A C22A C23A 1.9(14)
C21A C22A C23A C24A -178.9(8)
C21A C22A C23A C18A -4.6(12)
C17A C18A C23A C24A -5.6(10)
C19A C18A C23A C24A -178.6(8)
C17A C18A C23A C22A 179.9(8)
C19A C18A C23A C22A 7.0(11)
C22A C23A C24A C25A 177.4(7)
C18A C23A C24A C25A 3.4(12)
C23A C24A C25A C30A 1.2(12)
C23A C24A C25A C26A 179.0(8)
C24A C25A C26A C27A 179.2(7)
C30A C25A C26A C27A -2.9(12)
C25A C26A C27A C28A 3.2(12)
C26A C27A C28A C29A -1.7(12)
C27A C28A C29A C30A 0.2(13)
C24A C25A C30A C29A 179.3(8)
C26A C25A C30A C29A 1.3(11)
C24A C25A C30A C17A -3.5(10)
C26A C25A C30A C17A 178.5(7)
C28A C29A C30A C25A 0.0(12)
C28A C29A C30A C17A -177.2(7)
C18A C17A C30A C25A 1.2(10)
C31A C17A C30A C25A -177.2(6)
C18A C17A C30A C29A 178.5(7)
C31A C17A C30A C29A 0.0(11)
O1B C1B C2B C3B -176.1
N1B C1B C2B C3B 1.2
O1B C1B C2B S1B 0.4
N1B C1B C2B S1B 177.7
C1B C2B C3B C4B -2.8
S1B C2B C3B C4B -179.3
C1B C2B C3B S2B -177.8
S1B C2B C3B S2B 5.7
C2B C3B C4B O2B -176.7
S2B C3B C4B O2B -1.9
C2B C3B C4B N1B 3.6
S2B C3B C4B N1B 178.4
O3B C5B C6B C17B 68.4(4)
N2B C5B C6B C17B -110.7(4)
O3B C5B C6B C7B -179.3
N2B C5B C6B C7B 1.5
O3B C5B C6B S1B -45.1
N2B C5B C6B S1B 135.7
C17B C6B C7B C8B 115.2(4)
C5B C6B C7B C8B 3.3
S1B C6B C7B C8B -119.6
C17B C6B C7B C24B -2.85(6)
C5B C6B C7B C24B -114.7(5)
S1B C6B C7B C24B 122.3(5)
C17B C6B C7B S2B -132.2(4)
C5B C6B C7B S2B 115.9
S1B C6B C7B S2B -7.0
C24B C7B C8B O4B -58.9(4)
C6B C7B C8B O4B 176.1
S2B C7B C8B O4B 55.1
C24B C7B C8B N2B 118.1(4)
C6B C7B C8B N2B -6.9
S2B C7B C8B N2B -127.9
C12B C9B C10B C11B 28.9
N1B C9B C10B C11B 151.2
C9B C10B C11B C12B -26.6
N1B C9B C12B C11B -149.2
C10B C9B C12B C11B -27.6
C10B C11B C12B C9B 28.0
N2B C13B C14B C15B 142.4
C16B C13B C14B C15B 19.2
C13B C14B C15B C16B -20.7
C14B C15B C16B C13B 19.1
N2B C13B C16B C15B -144.3
C14B C13B C16B C15B -20.6
O2B C4B N1B C1B 177.6
C3B C4B N1B C1B -2.7
O2B C4B N1B C9B -7.9
C3B C4B N1B C9B 171.9
O1B C1B N1B C4B 178.0
C2B C1B N1B C4B 1.0
O1B C1B N1B C9B 4.0
C2B C1B N1B C9B -173.0
C12B C9B N1B C4B -128.2
C10B C9B N1B C4B 125.8
C12B C9B N1B C1B 45.3
C10B C9B N1B C1B -60.6
O3B C5B N2B C13B -7.4
C6B C5B N2B C13B 171.8
O3B C5B N2B C8B 174.7
C6B C5B N2B C8B -6.1
C14B C13B N2B C5B 131.0
C16B C13B N2B C5B -123.0
C14B C13B N2B C8B -51.3
C16B C13B N2B C8B 54.6
O4B C8B N2B C5B -174.0
C7B C8B N2B C5B 9.0
O4B C8B N2B C13B 8.3
C7B C8B N2B C13B -168.7
C3B C2B S1B C6B 34.1
C1B C2B S1B C6B -141.5
C17B C6B S1B C2B 93.6(4)
C7B C6B S1B C2B -29.7
C5B C6B S1B C2B -156.4
C2B C3B S2B C7B -47.0
C4B C3B S2B C7B 138.9
C8B C7B S2B C3B 155.6
C24B C7B S2B C3B -89.3(4)
C6B C7B S2B C3B 45.3
C7B C6B C17B C31B -179.11(8)
C5B C6B C17B C31B -62.2(3)
S1B C6B C17B C31B 46.9(3)
C7B C6B C17B C18B -56.1(2)
C5B C6B C17B C18B 60.78(19)
S1B C6B C17B C18B 169.9
C7B C6B C17B C30B 58.31(17)
C5B C6B C17B C30B 175.2
S1B C6B C17B C30B -75.66(16)
C31B C17B C18B C23B -174.7
C6B C17B C18B C23B 59.6(4)
C30B C17B C18B C23B -50.1
C31B C17B C18B C19B 15.5
C6B C17B C18B C19B -110.2(4)
C30B C17B C18B C19B 140.1
C23B C18B C19B C20B 7.2
C17B C18B C19B C20B 175.8
C18B C19B C20B C21B -4.2
C19B C20B C21B C22B 0.6
C20B C21B C22B C23B 0.6
C21B C22B C23B C18B 2.1
C21B C22B C23B C24B -175.3
C19B C18B C23B C22B -6.2
C17B C18B C23B C22B -176.0
C19B C18B C23B C24B 171.4
C17B C18B C23B C24B 1.6
C8B C7B C24B C25B -170.5
C6B C7B C24B C25B -56.6(3)
S2B C7B C24B C25B 76.88(16)
C8B C7B C24B C23B -56.69(18)
C6B C7B C24B C23B 57.2(3)
S2B C7B C24B C23B -169.3
C22B C23B C24B C25B -130.8
C18B C23B C24B C25B 51.8
C22B C23B C24B C7B 121.0(4)
C18B C23B C24B C7B -56.4(4)
C7B C24B C25B C30B 54.9(4)
C23B C24B C25B C30B -52.4
C7B C24B C25B C26B -123.1(4)
C23B C24B C25B C26B 129.7
C30B C25B C26B C27B -4.8
C24B C25B C26B C27B 173.1
C25B C26B C27B C28B 2.8
C26B C27B C28B C29B 3.4
C27B C28B C29B C30B -7.3
C28B C29B C30B C25B 4.7
C28B C29B C30B C17B -175.1
C26B C25B C30B C29B 0.7
C24B C25B C30B C29B -177.5
C26B C25B C30B C17B -179.4
C24B C25B C30B C17B 2.4
C31B C17B C30B C29B -7.7
C6B C17B C30B C29B 115.8(4)
C18B C17B C30B C29B -130.2
C31B C17B C30B C25B 172.5
C6B C17B C30B C25B -64.1(4)
C18B C17B C30B C25B 49.9
O1C C1C C2C C3C 175.4
N1C C1C C2C C3C 1.4
O1C C1C C2C C17C 55.8(3)
N1C C1C C2C C17C -118.2(3)
O1C C1C C2C S1C -55.2
N1C C1C C2C S1C 130.7
C1C C2C C3C C4C 1.3
C17C C2C C3C C4C 112.2(8)
S1C C2C C3C C4C -118.1
C1C C2C C3C C24C -113.0(7)
C17C C2C C3C C24C -2.1
S1C C2C C3C C24C 127.5(7)
C1C C2C C3C S2C 125.4
C17C C2C C3C S2C -123.7(8)
S1C C2C C3C S2C 5.9
C2C C3C C4C O2C 172.8
C24C C3C C4C O2C -70.1(3)
S2C C3C C4C O2C 40.0
C2C C3C C4C N1C -3.7
C24C C3C C4C N1C 113.4(3)
S2C C3C C4C N1C -136.5
O3C C5C C6C C7C -179.6
N2C C5C C6C C7C 7.3
O3C C5C C6C S1C -18.0
N2C C5C C6C S1C 169.0
C5C C6C C7C C8C -10.6
S1C C6C C7C C8C -172.7
C5C C6C C7C S2C 175.1
S1C C6C C7C S2C 13.0
C6C C7C C8C O4C -171.2
S2C C7C C8C O4C 2.7
C6C C7C C8C N2C 10.3
S2C C7C C8C N2C -175.9
C12C C9C C10C C11C 28.2
N1C C9C C10C C11C 148.7
C9C C10C C11C C12C -25.9
N1C C9C C12C C11C -146.5
C10C C9C C12C C11C -26.7
C10C C11C C12C C9C 27.4
N2C C13C C14C C15C 144.2
C16C C13C C14C C15C 17.6
C13C C14C C15C C16C -18.8
C14C C15C C16C C13C 17.4
N2C C13C C16C C15C -146.9
C14C C13C C16C C15C -18.7
O2C C4C N1C C1C -172.1
C3C C4C N1C C1C 4.6
O2C C4C N1C C9C 9.2
C3C C4C N1C C9C -174.1
O1C C1C N1C C4C -177.1
C2C C1C N1C C4C -3.9
O1C C1C N1C C9C 1.4
C2C C1C N1C C9C 174.6
C12C C9C N1C C4C -130.8
C10C C9C N1C C4C 124.8
C12C C9C N1C C1C 50.8
C10C C9C N1C C1C -53.6
O3C C5C N2C C13C 5.3
C6C C5C N2C C13C 178.7
O3C C5C N2C C8C -173.8
C6C C5C N2C C8C -0.4
C14C C13C N2C C5C 128.9
C16C C13C N2C C5C -120.9
C14C C13C N2C C8C -52.2
C16C C13C N2C C8C 58.1
O4C C8C N2C C5C 174.8
C7C C8C N2C C5C -6.6
O4C C8C N2C C13C -4.2
C7C C8C N2C C13C 174.4
C7C C6C S1C C2C 28.6
C5C C6C S1C C2C -131.0
C3C C2C S1C C6C -37.4
C1C C2C S1C C6C -155.0
C17C C2C S1C C6C 96.1(5)
C6C C7C S2C C3C -42.8
C8C C7C S2C C3C 144.7
C2C C3C S2C C7C 30.9
C4C C3C S2C C7C 157.6
C24C C3C S2C C7C -92.6(5)
C3C C2C C17C C18C 62.8(4)
C1C C2C C17C C18C 173.95(2)
S1C C2C C17C C18C -74.31(8)
C3C C2C C17C C30C -55.6(4)
C1C C2C C17C C30C 55.56(7)
S1C C2C C17C C30C 167.3
C3C C2C C17C C31C -177.8
C1C C2C C17C C31C -66.7(4)
S1C C2C C17C C31C 45.0(5)
C30C C17C C18C C23C 52.4
C31C C17C C18C C23C 174.0
C2C C17C C18C C23C -60.2(4)
C30C C17C C18C C19C -129.2
C31C C17C C18C C19C -7.6
C2C C17C C18C C19C 118.2(4)
C23C C18C C19C C20C 0.8
C17C C18C C19C C20C -177.4
C18C C19C C20C C21C 1.6
C19C C20C C21C C22C -1.2
C20C C21C C22C C23C -1.8
C21C C22C C23C C18C 3.8
C21C C22C C23C C24C 175.0
C19C C18C C23C C22C -3.5
C17C C18C C23C C22C 174.8
C19C C18C C23C C24C -175.4
C17C C18C C23C C24C 2.9
C22C C23C C24C C25C 137.3
C18C C23C C24C C25C -51.7
C22C C23C C24C C3C -114.7(4)
C18C C23C C24C C3C 56.3(4)
C2C C3C C24C C25C 59.3(3)
C4C C3C C24C C25C -59.28(6)
S2C C3C C24C C25C -169.6
C2C C3C C24C C23C -51.8(3)
C4C C3C C24C C23C -170.4
S2C C3C C24C C23C 79.30(6)
C23C C24C C25C C30C 45.4
C3C C24C C25C C30C -63.0(4)
C23C C24C C25C C26C -138.8
C3C C24C C25C C26C 112.8(4)
C30C C25C C26C C27C 4.5
C24C C25C C26C C27C -171.3
C25C C26C C27C C28C -2.5
C26C C27C C28C C29C -1.3
C27C C28C C29C C30C 2.8
C26C C25C C30C C29C -2.8
C24C C25C C30C C29C 173.7
C26C C25C C30C C17C -172.4
C24C C25C C30C C17C 4.1
C28C C29C C30C C25C -0.6
C28C C29C C30C C17C 167.5
C18C C17C C30C C25C -58.2
C31C C17C C30C C25C -178.6
C2C C17C C30C C25C 54.2(4)
C18C C17C C30C C29C 132.8
C31C C17C C30C C29C 12.4
C2C C17C C30C C29C -114.8(4)
