#------------------------------------------------------------------------------
#$Date: 2019-11-24 23:54:12 +0200 (Sun, 24 Nov 2019) $
#$Revision: 239740 $
#$URL: file:///home/coder/svn-repositories/cod/cif/4/51/71/4517106.cif $
#------------------------------------------------------------------------------
#
# This file is available in the Crystallography Open Database (COD),
# http://www.crystallography.net/
#
# All data on this site have been placed in the public domain by the
# contributors.
#
data_4517106
loop_
_publ_author_name
'Behrnd, Norwid-Rasmus'
'Labat, Ga\"el'
'Venugopalan, Paloth'
'Hulliger, J\"urg'
'B\"urgi, Hans-Beat'
_publ_section_title
;
 Orientational Disorder of (trans)-4-Chloro-4&#x2032;-nitrostilbene: A
 Detailed Analysis by Single Crystal X-ray Diffraction
;
_journal_issue                   1
_journal_name_full               'Crystal Growth &amp; Design'
_journal_page_first              52
_journal_paper_doi               10.1021/cg801278j
_journal_volume                  10
_journal_year                    2010
_chemical_formula_moiety         'C14 H10 Cl N O2'
_chemical_formula_sum            'C14 H10 Cl N O2'
_chemical_formula_weight         259.68
_space_group_IT_number           4
_space_group_name_Hall           'P 2ybc'
_space_group_name_H-M_alt        'P 1 21 1 (a,b,c-1/4)'
_symmetry_cell_setting           monoclinic
_symmetry_space_group_name_Hall  'P 2ybc'
_symmetry_space_group_name_H-M   'P 1 21 1 (a,b,c-1/4)'
_atom_sites_solution_hydrogens   geom
_atom_sites_solution_primary     direct
_atom_sites_solution_secondary   difmap
_audit_creation_method           SHELXL-97
_cell_angle_alpha                90.00
_cell_angle_beta                 93.232(12)
_cell_angle_gamma                90.00
_cell_formula_units_Z            2
_cell_length_a                   3.9232(6)
_cell_length_b                   12.961(2)
_cell_length_c                   12.2008(19)
_cell_measurement_temperature    293(2)
_cell_volume                     619.41(17)
_computing_cell_refinement       'X-AREA (Stoe & Cie, 2005)'
_computing_data_collection       'X-AREA (Stoe & Cie, 2005)'
_computing_data_reduction        'X-RED32 (Stoe & Cie, 2005)'
_computing_molecular_graphics    'PLATON  (Spek, 2003)'
_computing_publication_material  SHELXL-97
_computing_structure_refinement  'SHELXL-97 (Sheldrick, 1997)'
_computing_structure_solution    'SHELXS-97 (Sheldrick, 1990)'
_diffrn_ambient_temperature      293(2)
_diffrn_measured_fraction_theta_full 0.886
_diffrn_measured_fraction_theta_max 0.886
_diffrn_measurement_device_type  'STOE image plate 2T'
_diffrn_measurement_method       'phi and omega scan method'
_diffrn_radiation_monochromator  graphite
_diffrn_radiation_source         'fine-focus sealed tube'
_diffrn_radiation_type           CuK\a
_diffrn_radiation_wavelength     1.54186
_diffrn_reflns_av_R_equivalents  0.0781
_diffrn_reflns_av_sigmaI/netI    0.0506
_diffrn_reflns_limit_h_max       4
_diffrn_reflns_limit_h_min       -4
_diffrn_reflns_limit_k_max       13
_diffrn_reflns_limit_k_min       -11
_diffrn_reflns_limit_l_max       13
_diffrn_reflns_limit_l_min       -8
_diffrn_reflns_number            1754
_diffrn_reflns_theta_full        58.53
_diffrn_reflns_theta_max         58.53
_diffrn_reflns_theta_min         3.63
_diffrn_standards_decay_%        0
_diffrn_standards_interval_time  0
_diffrn_standards_number         0
_exptl_absorpt_coefficient_mu    2.676
_exptl_absorpt_correction_T_max  0.747
_exptl_absorpt_correction_T_min  0.636
_exptl_absorpt_correction_type   numerical
_exptl_absorpt_process_details
'X-RED (Stoe & Cie, 2001) and X-SHAPE (Stoe & Cie, 1999)'
_exptl_crystal_colour            yellow
_exptl_crystal_density_diffrn    1.392
_exptl_crystal_density_method    'not measured'
_exptl_crystal_description       'prismatic rod'
_exptl_crystal_F_000             268
_exptl_crystal_size_max          0.188
_exptl_crystal_size_mid          0.156
_exptl_crystal_size_min          0.109
_refine_diff_density_max         0.149
_refine_diff_density_min         -0.093
_refine_diff_density_rms         0.025
_refine_ls_abs_structure_details 'Flack H D (1983), Acta Cryst. A39, 876-881'
_refine_ls_abs_structure_Flack   10(10)
_refine_ls_extinction_method     none
_refine_ls_goodness_of_fit_ref   1.148
_refine_ls_hydrogen_treatment    constr
_refine_ls_matrix_type           full
_refine_ls_number_parameters     101
_refine_ls_number_reflns         1516
_refine_ls_number_restraints     1
_refine_ls_restrained_S_all      1.148
_refine_ls_R_factor_all          0.0699
_refine_ls_R_factor_gt           0.0488
_refine_ls_shift/su_max          <0.001
_refine_ls_shift/su_mean         0.000
_refine_ls_structure_factor_coef Fsqd
_refine_ls_weighting_details
'calc w=1/[\s^2^(Fo^2^)+(0.0539P)^2^+0.0000P] where P=(Fo^2^+2Fc^2^)/3'
_refine_ls_weighting_scheme      calc
_refine_ls_wR_factor_gt          0.1134
_refine_ls_wR_factor_ref         0.1172
_reflns_number_gt                1021
_reflns_number_total             1516
_reflns_threshold_expression     I>2sigma(I)
_cod_data_source_file            cg801278j_si_003.cif
_cod_data_source_block           CNS-bzIIICu-small-P21/c
_cod_original_cell_volume        619.40(17)
_cod_original_sg_symbol_Hall     P2ybc
_cod_original_sg_symbol_H-M      P21/c
_cod_database_code               4517106
loop_
_symmetry_equiv_pos_as_xyz
'x, y, z'
'-x, y+1/2, -z+1/2'
loop_
_atom_site_label
_atom_site_type_symbol
_atom_site_fract_x
_atom_site_fract_y
_atom_site_fract_z
_atom_site_U_iso_or_equiv
_atom_site_adp_type
_atom_site_occupancy
_atom_site_symmetry_multiplicity
_atom_site_calc_flag
_atom_site_refinement_flags
Cl1 Cl 0.3675(13) -0.46059(13) -0.1737(5) 0.115(2) Uani 0.50 1 d P
N11 N 0.370(3) -0.4179(7) -0.1732(12) 0.086(2) Uani 0.50 1 d P
O11 O 0.3073(17) -0.4965(6) -0.1226(5) 0.136(3) Uani 0.50 1 d P
O12 O 0.5042(8) -0.4137(2) -0.2559(3) 0.1127(11) Uani 0.50 1 d P
C1 C 0.2616(4) -0.32919(16) -0.12184(16) 0.0717(6) Uani 1 1 d .
C2 C 0.3161(4) -0.23905(17) -0.17869(14) 0.0810(6) Uani 1 1 d .
H2A H 0.4139 -0.2405 -0.2463 0.097 Uiso 1 1 calc R
C3 C 0.2230(4) -0.14792(14) -0.13329(15) 0.0742(6) Uani 1 1 d .
H3A H 0.2581 -0.0869 -0.1712 0.089 Uiso 1 1 calc R
C4 C 0.0789(3) -0.14317(13) -0.03323(13) 0.0639(5) Uani 1 1 d .
C5 C 0.0284(4) -0.23580(13) 0.02059(14) 0.0719(5) Uani 1 1 d .
H5A H -0.0697 -0.2348 0.0882 0.086 Uiso 1 1 calc R
C6 C 0.1191(4) -0.32884(13) -0.02307(15) 0.0763(6) Uani 1 1 d .
H6A H 0.0835 -0.3902 0.0142 0.092 Uiso 1 1 calc R
C7 C -0.0232(4) -0.04663(11) 0.01850(15) 0.0723(5) Uani 1 1 d .
H7 H -0.1316 -0.0524 0.0841 0.087 Uiso 1 1 calc R
Cl11 Cl -0.3675(13) 0.46059(13) 0.1737(5) 0.115(2) Uani 0.50 1 d P
N1 N -0.370(3) 0.4179(7) 0.1732(12) 0.086(2) Uani 0.50 1 d P
O1 O -0.3073(17) 0.4965(6) 0.1226(5) 0.136(3) Uani 0.50 1 d P
O2 O -0.5042(8) 0.4137(2) 0.2559(3) 0.1127(11) Uani 0.50 1 d P
C11 C -0.2616(4) 0.32919(16) 0.12184(16) 0.0717(6) Uani 1 1 d .
C12 C -0.3161(4) 0.23905(17) 0.17869(14) 0.0810(6) Uani 1 1 d .
H12A H -0.4139 0.2405 0.2463 0.097 Uiso 1 1 calc R
C13 C -0.2230(4) 0.14792(14) 0.13329(15) 0.0742(6) Uani 1 1 d .
H13A H -0.2581 0.0869 0.1712 0.089 Uiso 1 1 calc R
C14 C -0.0789(3) 0.14317(13) 0.03323(13) 0.0639(5) Uani 1 1 d .
C15 C -0.0284(4) 0.23580(13) -0.02059(14) 0.0719(5) Uani 1 1 d .
H15A H 0.0697 0.2348 -0.0882 0.086 Uiso 1 1 calc R
C16 C -0.1191(4) 0.32884(13) 0.02307(15) 0.0763(6) Uani 1 1 d .
H16A H -0.0835 0.3902 -0.0142 0.092 Uiso 1 1 calc R
C17 C 0.0232(4) 0.04663(11) -0.01850(15) 0.0723(5) Uani 1 1 d .
H17 H 0.1316 0.0524 -0.0841 0.087 Uiso 1 1 calc R
loop_
_atom_site_aniso_label
_atom_site_aniso_U_11
_atom_site_aniso_U_22
_atom_site_aniso_U_33
_atom_site_aniso_U_23
_atom_site_aniso_U_13
_atom_site_aniso_U_12
Cl1 0.1054(15) 0.095(4) 0.144(4) -0.048(4) 0.0078(19) 0.020(2)
N11 0.073(3) 0.083(6) 0.102(7) 0.015(6) -0.008(4) -0.006(5)
O11 0.165(4) 0.079(3) 0.166(5) 0.006(3) 0.040(3) 0.008(2)
O12 0.141(3) 0.092(2) 0.108(2) -0.0293(19) 0.035(2) 0.0147(17)
C1 0.0541(10) 0.0785(15) 0.0820(13) -0.0177(11) 0.0000(9) 0.0070(8)
C2 0.0648(11) 0.1059(16) 0.0730(13) -0.0028(11) 0.0104(10) -0.0008(9)
C3 0.0636(10) 0.0769(12) 0.0824(13) 0.0054(10) 0.0077(9) -0.0025(8)
C4 0.0448(9) 0.0769(12) 0.0697(12) -0.0039(10) -0.0004(8) 0.0006(7)
C5 0.0634(10) 0.0810(13) 0.0718(12) 0.0023(10) 0.0085(8) -0.0009(9)
C6 0.0674(11) 0.0742(13) 0.0874(14) 0.0003(10) 0.0040(10) 0.0033(8)
C7 0.0575(10) 0.0799(12) 0.0795(12) 0.0049(10) 0.0055(9) -0.0031(9)
Cl11 0.1054(15) 0.095(4) 0.144(4) -0.048(4) 0.0078(19) 0.020(2)
N1 0.073(3) 0.083(6) 0.102(7) 0.015(6) -0.008(4) -0.006(5)
O1 0.165(4) 0.079(3) 0.166(5) 0.006(3) 0.040(3) 0.008(2)
O2 0.141(3) 0.092(2) 0.108(2) -0.0293(19) 0.035(2) 0.0147(17)
C11 0.0541(10) 0.0785(15) 0.0820(13) -0.0177(11) 0.0000(9) 0.0070(8)
C12 0.0648(11) 0.1059(16) 0.0730(13) -0.0028(11) 0.0104(10) -0.0008(9)
C13 0.0636(10) 0.0769(12) 0.0824(13) 0.0054(10) 0.0077(9) -0.0025(8)
C14 0.0448(9) 0.0769(12) 0.0697(12) -0.0039(10) -0.0004(8) 0.0006(7)
C15 0.0634(10) 0.0810(13) 0.0718(12) 0.0023(10) 0.0085(8) -0.0009(9)
C16 0.0674(11) 0.0742(13) 0.0874(14) 0.0003(10) 0.0040(10) 0.0033(8)
C17 0.0575(10) 0.0799(12) 0.0795(12) 0.0049(10) 0.0055(9) -0.0031(9)
loop_
_atom_type_symbol
_atom_type_description
_atom_type_scat_dispersion_real
_atom_type_scat_dispersion_imag
_atom_type_scat_source
C C 0.0181 0.0091 'International Tables Vol C Tables 4.2.6.8 and 6.1.1.4'
H H 0.0000 0.0000 'International Tables Vol C Tables 4.2.6.8 and 6.1.1.4'
N N 0.0311 0.0180 'International Tables Vol C Tables 4.2.6.8 and 6.1.1.4'
O O 0.0492 0.0322 'International Tables Vol C Tables 4.2.6.8 and 6.1.1.4'
Cl Cl 0.3639 0.7018 'International Tables Vol C Tables 4.2.6.8 and 6.1.1.4'
loop_
_geom_angle_atom_site_label_1
_geom_angle_atom_site_label_2
_geom_angle_atom_site_label_3
_geom_angle
N11 Cl1 O11 124(3)
N11 Cl1 O12 63(2)
O11 Cl1 O12 170.8(7)
N11 Cl1 C1 24.5(19)
O11 Cl1 C1 100.3(8)
O12 Cl1 C1 86.9(2)
Cl1 N11 O12 92(2)
Cl1 N11 O11 33.9(18)
O12 N11 O11 126.0(8)
Cl1 N11 C1 146(3)
O12 N11 C1 121.2(10)
O11 N11 C1 112.8(11)
Cl1 O11 N11 22.0(8)
N11 O12 Cl1 24.9(4)
C6 C1 N11 123.8(6)
C6 C1 C2 121.75(19)
N11 C1 C2 114.5(6)
C6 C1 Cl1 114.4(3)
N11 C1 Cl1 9.5(8)
C2 C1 Cl1 123.8(2)
C3 C2 C1 118.45(17)
C3 C2 H2A 120.8
C1 C2 H2A 120.8
C2 C3 C4 122.17(19)
C2 C3 H3A 118.9
C4 C3 H3A 118.9
C3 C4 C5 117.26(17)
C3 C4 C7 123.77(18)
C5 C4 C7 118.97(15)
C6 C5 C4 121.94(17)
C6 C5 H5A 119.0
C4 C5 H5A 119.0
C1 C6 C5 118.44(19)
C1 C6 H6A 120.8
C5 C6 H6A 120.8
C17 C7 C4 126.4(2)
C17 C7 H7 116.8
C4 C7 H7 116.8
N1 Cl11 O1 124(3)
N1 Cl11 O2 63(2)
O1 Cl11 O2 170.8(7)
N1 Cl11 C11 24.5(19)
O1 Cl11 C11 100.3(8)
O2 Cl11 C11 86.9(2)
Cl11 N1 O2 92(2)
Cl11 N1 O1 33.9(18)
O2 N1 O1 126.0(8)
Cl11 N1 C11 146(3)
O2 N1 C11 121.2(10)
O1 N1 C11 112.8(11)
Cl11 O1 N1 22.0(8)
N1 O2 Cl11 24.9(4)
C16 C11 N1 123.8(6)
C16 C11 C12 121.75(19)
N1 C11 C12 114.5(6)
C16 C11 Cl11 114.4(3)
N1 C11 Cl11 9.5(8)
C12 C11 Cl11 123.8(2)
C13 C12 C11 118.45(17)
C13 C12 H12A 120.8
C11 C12 H12A 120.8
C12 C13 C14 122.17(19)
C12 C13 H13A 118.9
C14 C13 H13A 118.9
C13 C14 C15 117.26(17)
C13 C14 C17 123.77(18)
C15 C14 C17 118.97(15)
C16 C15 C14 121.94(17)
C16 C15 H15A 119.0
C14 C15 H15A 119.0
C11 C16 C15 118.44(19)
C11 C16 H16A 120.8
C15 C16 H16A 120.8
C7 C17 C14 126.4(2)
C7 C17 H17 116.8
C14 C17 H17 116.8
loop_
_geom_bond_atom_site_label_1
_geom_bond_atom_site_label_2
_geom_bond_distance
Cl1 N11 0.554(10)
Cl1 O11 0.824(5)
Cl1 O12 1.312(6)
Cl1 C1 1.872(3)
N11 O12 1.166(16)
N11 O11 1.223(18)
N11 C1 1.387(9)
C1 C6 1.357(2)
C1 C2 1.381(2)
C2 C3 1.363(3)
C2 H2A 0.9300
C3 C4 1.375(2)
C3 H3A 0.9300
C4 C5 1.388(2)
C4 C7 1.467(2)
C5 C6 1.373(2)
C5 H5A 0.9300
C6 H6A 0.9300
C7 C17 1.307(3)
C7 H7 0.9300
Cl11 N1 0.554(10)
Cl11 O1 0.824(5)
Cl11 O2 1.312(6)
Cl11 C11 1.872(3)
N1 O2 1.166(16)
N1 O1 1.223(18)
N1 C11 1.387(9)
C11 C16 1.357(2)
C11 C12 1.381(2)
C12 C13 1.363(3)
C12 H12A 0.9300
C13 C14 1.375(2)
C13 H13A 0.9300
C14 C15 1.388(2)
C14 C17 1.467(2)
C15 C16 1.373(2)
C15 H15A 0.9300
C16 H16A 0.9300
C17 H17 0.9300
loop_
_geom_torsion_atom_site_label_1
_geom_torsion_atom_site_label_2
_geom_torsion_atom_site_label_3
_geom_torsion_atom_site_label_4
_geom_torsion
O11 Cl1 N11 O12 172.7(11)
C1 Cl1 N11 O12 -172(4)
O12 Cl1 N11 O11 -172.7(11)
C1 Cl1 N11 O11 15(5)
O11 Cl1 N11 C1 -15(5)
O12 Cl1 N11 C1 172(4)
O12 Cl1 O11 N11 135(7)
C1 Cl1 O11 N11 -6(2)
O12 N11 O11 Cl1 -9.0(13)
C1 N11 O11 Cl1 171(3)
O11 N11 O12 Cl1 5.0(8)
C1 N11 O12 Cl1 -175(3)
O11 Cl1 O12 N11 -139(6)
C1 Cl1 O12 N11 3.3(17)
Cl1 N11 C1 C6 13(4)
O12 N11 C1 C6 -176.7(7)
O11 N11 C1 C6 3.5(13)
Cl1 N11 C1 C2 -169(4)
O12 N11 C1 C2 2.2(12)
O11 N11 C1 C2 -177.7(8)
O12 N11 C1 Cl1 171(5)
O11 N11 C1 Cl1 -9(3)
N11 Cl1 C1 C6 -169(4)
O11 Cl1 C1 C6 -1.3(7)
O12 Cl1 C1 C6 -175.6(2)
O11 Cl1 C1 N11 167(4)
O12 Cl1 C1 N11 -7(4)
N11 Cl1 C1 C2 13(4)
O11 Cl1 C1 C2 179.8(6)
O12 Cl1 C1 C2 5.5(4)
C6 C1 C2 C3 0.0(2)
N11 C1 C2 C3 -178.8(6)
Cl1 C1 C2 C3 178.9(2)
C1 C2 C3 C4 0.2(2)
C2 C3 C4 C5 -0.4(2)
C2 C3 C4 C7 179.73(14)
C3 C4 C5 C6 0.3(2)
C7 C4 C5 C6 -179.81(14)
N11 C1 C6 C5 178.7(6)
C2 C1 C6 C5 -0.1(2)
Cl1 C1 C6 C5 -179.1(2)
C4 C5 C6 C1 -0.1(2)
C3 C4 C7 C17 -4.0(3)
C5 C4 C7 C17 176.2(2)
O1 Cl11 N1 O2 -172.7(11)
C11 Cl11 N1 O2 172(4)
O2 Cl11 N1 O1 172.7(11)
C11 Cl11 N1 O1 -15(5)
O1 Cl11 N1 C11 15(5)
O2 Cl11 N1 C11 -172(4)
O2 Cl11 O1 N1 -135(7)
C11 Cl11 O1 N1 6(2)
O2 N1 O1 Cl11 9.0(13)
C11 N1 O1 Cl11 -171(3)
O1 N1 O2 Cl11 -5.0(8)
C11 N1 O2 Cl11 175(3)
O1 Cl11 O2 N1 139(6)
C11 Cl11 O2 N1 -3.3(17)
Cl11 N1 C11 C16 -13(4)
O2 N1 C11 C16 176.7(7)
O1 N1 C11 C16 -3.5(13)
Cl11 N1 C11 C12 169(4)
O2 N1 C11 C12 -2.2(12)
O1 N1 C11 C12 177.7(8)
O2 N1 C11 Cl11 -171(5)
O1 N1 C11 Cl11 9(3)
N1 Cl11 C11 C16 169(4)
O1 Cl11 C11 C16 1.3(7)
O2 Cl11 C11 C16 175.6(2)
O1 Cl11 C11 N1 -167(4)
O2 Cl11 C11 N1 7(4)
N1 Cl11 C11 C12 -13(4)
O1 Cl11 C11 C12 -179.8(6)
O2 Cl11 C11 C12 -5.5(4)
C16 C11 C12 C13 0.0(2)
N1 C11 C12 C13 178.8(6)
Cl11 C11 C12 C13 -178.9(2)
C11 C12 C13 C14 -0.2(2)
C12 C13 C14 C15 0.4(2)
C12 C13 C14 C17 -179.73(14)
C13 C14 C15 C16 -0.3(2)
C17 C14 C15 C16 179.81(14)
N1 C11 C16 C15 -178.7(6)
C12 C11 C16 C15 0.1(2)
Cl11 C11 C16 C15 179.1(2)
C14 C15 C16 C11 0.1(2)
C4 C7 C17 C14 180.0
C13 C14 C17 C7 4.0(3)
C15 C14 C17 C7 -176.2(2)
