#------------------------------------------------------------------------------
#$Date: 2019-11-24 23:40:12 +0200 (Sun, 24 Nov 2019) $
#$Revision: 239722 $
#$URL: file:///home/coder/svn-repositories/cod/cif/4/51/70/4517065.cif $
#------------------------------------------------------------------------------
#
# This file is available in the Crystallography Open Database (COD),
# http://www.crystallography.net/
#
# All data on this site have been placed in the public domain by the
# contributors.
#
data_4517065
loop_
_publ_author_name
'Khorasani, Sanaz'
'Fernandes, Manuel A.'
_publ_section_title
;
 Cooperativity and Feedback Mechanisms in the
 Single-Crystal-to-Single-Crystal Solid-State Diels--Alder Reaction of
 9-Methylanthracene with Bis(N-cyclobutylimino)-1,4-dithiin
;
_journal_issue                   12
_journal_name_full               'Crystal Growth &amp; Design'
_journal_page_first              5499
_journal_paper_doi               10.1021/cg401474f
_journal_volume                  13
_journal_year                    2013
_chemical_absolute_configuration ad
_chemical_formula_moiety
;
0.91(C31 H26 N2 O4 S2),  0.09(C16 H14 N2 O4 S2),  0.09(C15 H12)
;
_chemical_formula_sum            'C31 H26 N2 O4 S2'
_chemical_formula_weight         554.66
_space_group_IT_number           1
_space_group_name_Hall           'P 1'
_space_group_name_H-M_alt        'P 1'
_symmetry_cell_setting           triclinic
_symmetry_space_group_name_Hall  'P 1'
_symmetry_space_group_name_H-M   'P 1'
_atom_sites_solution_hydrogens   geom
_atom_sites_solution_primary     direct
_atom_sites_solution_secondary   difmap
_audit_creation_method           SHELXL-97
_cell_angle_alpha                76.199(2)
_cell_angle_beta                 86.886(3)
_cell_angle_gamma                83.941(2)
_cell_formula_units_Z            1
_cell_length_a                   7.5049(4)
_cell_length_b                   8.8598(4)
_cell_length_c                   10.1573(6)
_cell_measurement_reflns_used    1841
_cell_measurement_temperature    173(2)
_cell_measurement_theta_max      28.24
_cell_measurement_theta_min      2.38
_cell_volume                     651.92(6)
_computing_cell_refinement       'Bruker SAINT'
_computing_data_collection       'Bruker APEX2'
_computing_data_reduction        'Bruker SAINT'
_computing_molecular_graphics    'Bruker SHELXTL'
_computing_publication_material  'Bruker SHELXTL'
_computing_structure_refinement  'SHELXL-97 (Sheldrick, 1997)'
_computing_structure_solution    'SHELXS-97 (Sheldrick, 2008)'
_diffrn_ambient_temperature      173(2)
_diffrn_measured_fraction_theta_full 1.000
_diffrn_measured_fraction_theta_max 1.000
_diffrn_measurement_device_type  'Bruker APEX-II CCD'
_diffrn_measurement_method       '\f and \w scans'
_diffrn_radiation_monochromator  graphite
_diffrn_radiation_source         'fine-focus sealed tube'
_diffrn_radiation_type           MoK\a
_diffrn_radiation_wavelength     0.71073
_diffrn_reflns_av_R_equivalents  0.0605
_diffrn_reflns_av_sigmaI/netI    0.1074
_diffrn_reflns_limit_h_max       8
_diffrn_reflns_limit_h_min       -8
_diffrn_reflns_limit_k_max       10
_diffrn_reflns_limit_k_min       -10
_diffrn_reflns_limit_l_max       12
_diffrn_reflns_limit_l_min       -12
_diffrn_reflns_number            8950
_diffrn_reflns_theta_full        25.00
_diffrn_reflns_theta_max         25.00
_diffrn_reflns_theta_min         2.07
_diffrn_standards_number         0
_exptl_absorpt_coefficient_mu    0.246
_exptl_absorpt_correction_type   none
_exptl_crystal_colour            yellow
_exptl_crystal_density_diffrn    1.413
_exptl_crystal_density_method    'not measured'
_exptl_crystal_description       needle
_exptl_crystal_F_000             290
_exptl_crystal_size_max          0.43
_exptl_crystal_size_mid          0.07
_exptl_crystal_size_min          0.04
_refine_diff_density_max         0.163
_refine_diff_density_min         -0.128
_refine_diff_density_rms         0.030
_refine_ls_abs_structure_details 'Flack H D (1983), Acta Cryst. A39, 876-881'
_refine_ls_abs_structure_Flack   0.23(18)
_refine_ls_extinction_method     none
_refine_ls_goodness_of_fit_ref   0.939
_refine_ls_hydrogen_treatment    constr
_refine_ls_matrix_type           full
_refine_ls_number_parameters     713
_refine_ls_number_reflns         4574
_refine_ls_number_restraints     882
_refine_ls_restrained_S_all      0.890
_refine_ls_R_factor_all          0.1378
_refine_ls_R_factor_gt           0.0486
_refine_ls_shift/su_max          0.002
_refine_ls_shift/su_mean         0.000
_refine_ls_structure_factor_coef Fsqd
_refine_ls_weighting_details
'calc w=1/[\s^2^(Fo^2^)+(0.0294P)^2^+0.0000P] where P=(Fo^2^+2Fc^2^)/3'
_refine_ls_weighting_scheme      calc
_refine_ls_wR_factor_gt          0.0723
_refine_ls_wR_factor_ref         0.0922
_reflns_number_gt                2190
_reflns_number_total             4574
_reflns_threshold_expression     >2sigma(I)
_iucr_refine_instructions_details
;
TITL 12s_sk124_d4mawaterb2d_0s in P1
CELL  0.71073   7.5049   8.8598  10.1573   76.199   86.886   83.941
ZERR     1.00   0.0004   0.0004   0.0006    0.002    0.003    0.002
LATT  -1
SFAC  C    H    N    O    S
UNIT  31   26   2    4    2
MERG   2
OMIT    -2.00  50.00
DFIX     1.530   0.005 C17B C31B
SUMP 1.000 0.001 1 2 1 3 1 4
DELU     0.003   0.003 C1B > C31B
SIMU     0.010   0.020   1.700 C1B > C31B
DELU     0.003   0.003 C1C > C31C
SIMU     0.010   0.020   1.700 C1C > C31C
FMAP   2
PLAN    5
SIZE     0.04   0.07   0.43
ACTA
BOND   $H
CONF
L.S.   5
TEMP  -100.00
WGHT    0.029400
FVAR       0.38267   0.09009   0.46407   0.44583   0.03881
MOLE    1
PART    2
C1A   1    0.726401    0.236914    0.325662    21.00000   51.00000
AFIX   3
C2A   1    0.658327    0.360131    0.407533    21.00000   51.00000
C3A   1    0.644832    0.502709    0.318219    21.00000   51.00000
C4A   1    0.704761    0.472447    0.183500    21.00000   51.00000
C5A   1    0.476491    0.510300    0.740229    21.00000   51.00000
C6A   1    0.532051    0.495122    0.599004    21.00000   51.00000
C7A   1    0.525273    0.629811    0.512311    21.00000   51.00000
C8A   1    0.458502    0.747766    0.582069    21.00000   51.00000
C9A   1    0.780784    0.246658    0.076011    21.00000   51.00000
AFIX  13
H9A   2    0.761778    0.330191   -0.009008    21.00000   -1.20000
AFIX   3
C10A  1    0.955369    0.147289    0.059844    21.00000   51.00000
AFIX  23
H10A  2    1.011907    0.093845    0.146612    21.00000   -1.20000
H10B  2    1.043088    0.202424   -0.005677    21.00000   -1.20000
AFIX   3
C11A  1    0.845307    0.044288    0.001630    21.00000   51.00000
AFIX  23
H11A  2    0.844139    0.070957   -0.098701    21.00000   -1.20000
H11B  2    0.876859   -0.068972    0.037347    21.00000   -1.20000
AFIX   3
C12A  1    0.677063    0.108669    0.068246    21.00000   51.00000
AFIX  23
H12A  2    0.644076    0.042897    0.157717    21.00000   -1.20000
H12B  2    0.572791    0.137806    0.008619    21.00000   -1.20000
AFIX   3
C13A  1    0.395658    0.747537    0.833484    21.00000   51.00000
AFIX  13
H13A  2    0.402166    0.664332    0.919577    21.00000   -1.20000
AFIX   3
C14A  1    0.508236    0.877206    0.848149    21.00000   51.00000
AFIX  23
H14A  2    0.547838    0.943430    0.760764    21.00000   -1.20000
H14B  2    0.609464    0.840493    0.910023    21.00000   -1.20000
AFIX   3
C15A  1    0.338166    0.949365    0.914585    21.00000   51.00000
AFIX  23
H15A  2    0.315932    1.064236    0.883370    21.00000   -1.20000
H15B  2    0.331368    0.915688    1.014782    21.00000   -1.20000
AFIX   3
C16A  1    0.226772    0.856503    0.840833    21.00000   51.00000
AFIX  23
H16A  2    0.128312    0.805813    0.897565    21.00000   -1.20000
H16B  2    0.183826    0.916729    0.751273    21.00000   -1.20000
AFIX   3
N1A   3    0.748753    0.317710    0.192888    21.00000   51.00000
N2A   3    0.434662    0.673777    0.720931    21.00000   51.00000
O1A   4    0.757559    0.101286    0.374297    21.00000   51.00000
O2A   4    0.718751    0.572776    0.075979    21.00000   51.00000
O3A   4    0.472029    0.411856    0.840991    21.00000   51.00000
O4A   4    0.431392    0.888484    0.536032    21.00000   51.00000
S1A   5    0.604789    0.304097    0.579230    21.00000   51.00000
S2A   5    0.580417    0.686594    0.337381    21.00000   51.00000
AFIX   0
MOLE    2
C17A  1    0.090744    0.365506    0.537459    21.00000   51.00000
AFIX   3
C18A  1    0.015609    0.493573    0.586208    21.00000   51.00000
C19A  1   -0.049773    0.477366    0.716086    21.00000   51.00000
AFIX  43
H19A  2   -0.044528    0.376723    0.775903    21.00000   -1.20000
AFIX   3
C20A  1   -0.121569    0.602327    0.760351    21.00000   51.00000
AFIX  43
H20A  2   -0.165943    0.590330    0.851283    21.00000   -1.20000
AFIX   3
C21A  1   -0.130910    0.754624    0.669186    21.00000   51.00000
AFIX  43
H21A  2   -0.178707    0.844087    0.700150    21.00000   -1.20000
AFIX   3
C22A  1   -0.070809    0.769351    0.538512    21.00000   51.00000
AFIX  43
H22A  2   -0.080234    0.870227    0.479027    21.00000   -1.20000
AFIX   3
C23A  1    0.005478    0.640630    0.486906    21.00000   51.00000
C24A  1    0.068865    0.660622    0.353712    21.00000   51.00000
AFIX  43
H24A  2    0.064840    0.760884    0.293338    21.00000   -1.20000
AFIX   3
C25A  1    0.138627    0.526795    0.312765    21.00000   51.00000
C26A  1    0.209398    0.526818    0.171404    21.00000   51.00000
AFIX  43
H26A  2    0.202008    0.623406    0.105679    21.00000   -1.20000
AFIX   3
C27A  1    0.283989    0.396118    0.131343    21.00000   51.00000
AFIX  43
H27A  2    0.328707    0.402463    0.041071    21.00000   -1.20000
AFIX   3
C28A  1    0.292164    0.255135    0.226031    21.00000   51.00000
AFIX  43
H28A  2    0.345430    0.164753    0.198924    21.00000   -1.20000
AFIX   3
C29A  1    0.229021    0.238890    0.354117    21.00000   51.00000
AFIX  43
H29A  2    0.235817    0.138312    0.414085    21.00000   -1.20000
AFIX   3
C30A  1    0.150758    0.372861    0.401801    21.00000   51.00000
C31A  1    0.107595    0.203043    0.633813    21.00000   51.00000
AFIX  33
H31A  2    0.162470    0.126396    0.584659    21.00000   -1.50000
H31B  2   -0.011698    0.174968    0.668886    21.00000   -1.50000
H31C  2    0.182789    0.203874    0.709510    21.00000   -1.50000
AFIX   0
MOLE    3
PART    1
C1B   1    0.745318    0.255980    0.327811    31.00000    0.02840    0.03129 =
         0.08961   -0.02099   -0.01622    0.00714
C2B   1    0.676862    0.378285    0.411288    31.00000    0.02645    0.03001 =
         0.07802   -0.01789   -0.00653   -0.00395
C3B   1    0.685394    0.523668    0.317660    31.00000    0.04302    0.02936 =
         0.06911   -0.00996   -0.01470    0.01475
C4B   1    0.716679    0.491400    0.178759    31.00000    0.03657    0.04180 =
         0.07329   -0.01817   -0.01706    0.00912
C5B   1    0.444841    0.523044    0.725651    31.00000    0.04169    0.03749 =
         0.05472    0.00115   -0.02396    0.01030
C6B   1    0.446521    0.488793    0.587427    31.00000    0.04132    0.03373 =
         0.05434   -0.00531   -0.01350    0.01077
C7B   1    0.430875    0.638778    0.488437    31.00000    0.03880    0.03145 =
         0.05564   -0.00750   -0.01182    0.00359
C8B   1    0.427468    0.762611    0.565718    31.00000    0.04765    0.03298 =
         0.05064   -0.00518   -0.01747    0.00667
C9B   1    0.793335    0.259028    0.080184    31.00000    0.03996    0.06137 =
         0.09673   -0.04442   -0.00879   -0.00058
AFIX  13
H9B   2    0.785525    0.340474   -0.006987    31.00000   -1.20000
AFIX   0
C10B  1    0.960043    0.151053    0.081089    31.00000    0.03432    0.07438 =
         0.11454   -0.04653   -0.00285    0.00050
AFIX  23
H10C  2    0.998639    0.095323    0.173094    31.00000   -1.20000
H10D  2    1.060733    0.199914    0.025881    31.00000   -1.20000
AFIX   0
C11B  1    0.859924    0.055115    0.011019    31.00000    0.03989    0.06947 =
         0.11593   -0.05353    0.00450    0.00288
AFIX  23
H11C  2    0.890487   -0.058877    0.042640    31.00000   -1.20000
H11D  2    0.867638    0.087989   -0.089199    31.00000   -1.20000
AFIX   0
C12B  1    0.680633    0.116322    0.074223    31.00000    0.03371    0.06557 =
         0.10618   -0.05245   -0.00052   -0.00045
AFIX  23
H12C  2    0.645528    0.051881    0.163735    31.00000   -1.20000
H12D  2    0.579154    0.144197    0.011878    31.00000   -1.20000
AFIX   0
C13B  1    0.401993    0.761545    0.815758    31.00000    0.06378    0.04828 =
         0.04859   -0.00701   -0.02657    0.00958
AFIX  13
H13B  2    0.405244    0.679347    0.902522    31.00000   -1.20000
AFIX   0
C14B  1    0.508975    0.885217    0.834160    31.00000    0.06339    0.06233 =
         0.04683   -0.01404   -0.01344   -0.00263
AFIX  23
H14C  2    0.558875    0.946180    0.747956    31.00000   -1.20000
H14D  2    0.604277    0.846562    0.901017    31.00000   -1.20000
AFIX   0
C15B  1    0.343224    0.972297    0.890521    31.00000    0.07167    0.05587 =
         0.04508   -0.01131   -0.01687    0.00452
AFIX  23
H15C  2    0.328896    1.086261    0.851143    31.00000   -1.20000
H15D  2    0.332165    0.948327    0.990764    31.00000   -1.20000
AFIX   0
C16B  1    0.226940    0.875389    0.822399    31.00000    0.05985    0.06277 =
         0.05610   -0.01569   -0.01991    0.00931
AFIX  23
H16C  2    0.181772    0.932322    0.732551    31.00000   -1.20000
H16D  2    0.129778    0.826667    0.882185    31.00000   -1.20000
AFIX   0
N1B   3    0.744498    0.329344    0.196475    31.00000    0.03994    0.04531 =
         0.08266   -0.02885   -0.01576    0.00449
N2B   3    0.418721    0.681976    0.705980    31.00000    0.05953    0.03743 =
         0.05041   -0.00474   -0.02334    0.01003
O1B   4    0.782757    0.112264    0.376785    31.00000    0.04094    0.02766 =
         0.11756   -0.02194   -0.01178    0.00287
O2B   4    0.718268    0.585131    0.067468    31.00000    0.05547    0.06412 =
         0.07394   -0.01071    0.00602    0.00211
O3B   4    0.479886    0.429376    0.830830    31.00000    0.04647    0.04492 =
         0.05237    0.02020   -0.01711   -0.02987
O4B   4    0.426407    0.895328    0.523962    31.00000    0.06157    0.02940 =
         0.06242   -0.00743   -0.00247    0.00917
S1B   5    0.640677    0.339996    0.582251    31.00000    0.05418    0.04060 =
         0.07555   -0.00367   -0.01945    0.01774
S2B   5    0.614644    0.691396    0.363939    31.00000    0.04765    0.02936 =
         0.07380   -0.00957   -0.00167    0.00278
C17B  1    0.261625    0.406142    0.588757    31.00000    0.05396    0.03762 =
         0.05758   -0.00628   -0.00755   -0.00499
C18B  1    0.114378    0.522136    0.616568    31.00000    0.04000    0.04547 =
         0.06311   -0.01309   -0.00670   -0.01063
C19B  1    0.007201    0.492697    0.734976    31.00000    0.03294    0.06377 =
         0.07578   -0.01535   -0.00240   -0.02280
AFIX  43
H19B  2    0.019450    0.395678    0.799990    31.00000   -1.20000
AFIX   0
C20B  1   -0.117244    0.612911    0.751649    31.00000    0.02560    0.08694 =
         0.09385   -0.02988    0.00190   -0.01672
AFIX  43
H20B  2   -0.193181    0.598412    0.830697    31.00000   -1.20000
AFIX   0
C21B  1   -0.135424    0.755267    0.656253    31.00000    0.01902    0.08031 =
         0.10427   -0.03383   -0.01057    0.00008
AFIX  43
H21B  2   -0.225565    0.834202    0.669964    31.00000   -1.20000
AFIX   0
C22B  1   -0.019121    0.784154    0.537062    31.00000    0.01910    0.05854 =
         0.09364   -0.01650   -0.01896    0.00231
AFIX  43
H22B  2   -0.025184    0.883044    0.474512    31.00000   -1.20000
AFIX   0
C23B  1    0.107104    0.656191    0.516825    31.00000    0.03920    0.04488 =
         0.06732   -0.01282   -0.01137   -0.00205
C24B  1    0.246935    0.674961    0.409315    31.00000    0.04201    0.03525 =
         0.05584   -0.00298   -0.01605    0.00118
AFIX  13
H24B  2    0.234743    0.777513    0.341405    31.00000   -1.20000
AFIX   0
C25B  1    0.241917    0.532350    0.349603    31.00000    0.05071    0.04185 =
         0.05751   -0.00809   -0.01266   -0.00623
C26B  1    0.231520    0.521929    0.215934    31.00000    0.06310    0.05392 =
         0.05886   -0.00739   -0.01846   -0.01272
AFIX  43
H26B  2    0.204360    0.615472    0.148870    31.00000   -1.20000
AFIX   0
C27B  1    0.258838    0.381348    0.174747    31.00000    0.07162    0.07333 =
         0.07118   -0.02992   -0.00514   -0.01154
AFIX  43
H27B  2    0.258090    0.378242    0.081934    31.00000   -1.20000
AFIX   0
C28B  1    0.286728    0.248388    0.275441    31.00000    0.07596    0.05324 =
         0.08582   -0.03442   -0.00709   -0.01956
AFIX  43
H28B  2    0.323212    0.152474    0.251043    31.00000   -1.20000
AFIX   0
C29B  1    0.265076    0.248638    0.403326    31.00000    0.07414    0.04394 =
         0.07927   -0.01950   -0.00616   -0.02202
AFIX  43
H29B  2    0.253869    0.153630    0.469100    31.00000   -1.20000
AFIX   0
C30B  1    0.258713    0.382989    0.441495    31.00000    0.06278    0.03985 =
         0.05930   -0.01063   -0.00704   -0.01204
C31B  1    0.249874    0.244446    0.683746    31.00000    0.07482    0.05183 =
         0.07397    0.01124   -0.00531   -0.00477
AFIX  33
H31D  2    0.342505    0.170027    0.656949    31.00000   -1.50000
H31E  2    0.131387    0.209847    0.677844    31.00000   -1.50000
H31F  2    0.268217    0.250073    0.777184    31.00000   -1.50000
AFIX   0
PART    3
SAME 0.005 C1B > O4B
C1C   1    0.730578    0.240814    0.344131    41.00000    0.03086    0.03686 =
         0.04701   -0.00027    0.00406   -0.00664
C2C   1    0.735513    0.361882    0.432538    41.00000    0.03206    0.03490 =
         0.04365    0.00046   -0.00163   -0.00462
C3C   1    0.720910    0.508743    0.338521    41.00000    0.03507    0.03625 =
         0.03454    0.00010   -0.00558   -0.00132
C4C   1    0.704872    0.479190    0.199919    41.00000    0.03304    0.04055 =
         0.03823    0.00056   -0.00227   -0.00401
C5C   1    0.459833    0.504830    0.741639    41.00000    0.03230    0.03626 =
         0.04864   -0.00233    0.00945   -0.00668
C6C   1    0.502465    0.483047    0.600470    41.00000    0.03904    0.03704 =
         0.04275   -0.00270   -0.00539   -0.00173
C7C   1    0.476275    0.636337    0.508333    41.00000    0.03589    0.03868 =
         0.04788   -0.00606    0.00452   -0.00915
C8C   1    0.433636    0.752752    0.592642    41.00000    0.03291    0.03695 =
         0.04406   -0.00063    0.00880    0.00390
C9C   1    0.748954    0.250831    0.093450    41.00000    0.03498    0.05738 =
         0.05231   -0.01815    0.00141   -0.00629
AFIX  13
H9C   2    0.720306    0.333381    0.009316    41.00000   -1.20000
AFIX   0
C10C  1    0.914136    0.149341    0.071073    41.00000    0.03009    0.07631 =
         0.06074   -0.02679   -0.00119   -0.00320
AFIX  23
H10E  2    0.973275    0.091755    0.155669    41.00000   -1.20000
H10F  2    1.001345    0.203442    0.004385    41.00000   -1.20000
AFIX   0
C11C  1    0.797227    0.053425    0.013680    41.00000    0.03950    0.06699 =
         0.06992   -0.03142    0.01072   -0.01069
AFIX  23
H11E  2    0.834845   -0.060026    0.037599    41.00000   -1.20000
H11F  2    0.779897    0.091329   -0.085075    41.00000   -1.20000
AFIX   0
C12C  1    0.636206    0.103947    0.102609    41.00000    0.04163    0.06453 =
         0.06701   -0.02986    0.01399   -0.01471
AFIX  23
H12E  2    0.624855    0.035286    0.194513    41.00000   -1.20000
H12F  2    0.519994    0.129173    0.056837    41.00000   -1.20000
AFIX   0
C13C  1    0.405940    0.731029    0.846003    41.00000    0.04175    0.04211 =
         0.04135   -0.00254    0.00185    0.00562
AFIX  13
H13C  2    0.423698    0.642649    0.927739    41.00000   -1.20000
AFIX   0
C14C  1    0.497260    0.860020    0.872032    41.00000    0.04218    0.04682 =
         0.04223   -0.00001   -0.00017    0.00095
AFIX  23
H14E  2    0.527427    0.937948    0.788527    41.00000   -1.20000
H14F  2    0.603640    0.824253    0.928834    41.00000   -1.20000
AFIX   0
C15C  1    0.329324    0.914279    0.951076    41.00000    0.04997    0.04406 =
         0.05370   -0.00832    0.00157    0.00520
AFIX  23
H15E  2    0.298178    1.028711    0.929582    41.00000   -1.20000
H15F  2    0.330340    0.869847    1.050214    41.00000   -1.20000
AFIX   0
C16C  1    0.221060    0.824126    0.870265    41.00000    0.03961    0.04571 =
         0.04282   -0.00008   -0.00035    0.00633
AFIX  23
H16E  2    0.132628    0.759265    0.926553    41.00000   -1.20000
H16F  2    0.167226    0.890502    0.786591    41.00000   -1.20000
AFIX   0
N1C   3    0.728504    0.317597    0.213738    41.00000    0.03407    0.04208 =
         0.04417   -0.00689   -0.00194   -0.00176
N2C   3    0.425722    0.662418    0.729848    41.00000    0.03687    0.03679 =
         0.04163    0.00127    0.00125    0.00629
O1C   4    0.735769    0.095188    0.389936    41.00000    0.01888    0.03511 =
         0.06346   -0.00590    0.01139   -0.00774
O2C   4    0.689339    0.575081    0.090086    41.00000    0.04590    0.04898 =
         0.02555   -0.00287    0.01877    0.01158
O3C   4    0.433774    0.402108    0.840811    41.00000    0.06518    0.03957 =
         0.04417   -0.00588    0.00174   -0.03185
O4C   4    0.398847    0.885538    0.556621    41.00000    0.05533    0.03602 =
         0.04517    0.00568    0.01121    0.00612
S1C   5    0.546716    0.308336    0.560254    41.00000    0.04750    0.03801 =
         0.04850   -0.00439    0.00594   -0.01051
S2C   5    0.522919    0.661987    0.339178    41.00000    0.04083    0.03700 =
         0.04427   -0.00363   -0.01173    0.00067
SAME 0.005 C17B > C31B
C17C  1    0.917432    0.333346    0.512848    41.00000    0.03854    0.04135 =
         0.04949    0.00526   -0.01093    0.00057
C18C  1    0.920128    0.467931    0.576217    41.00000    0.03314    0.04819 =
         0.05404    0.00060   -0.01536   -0.00284
C19C  1    0.920406    0.449315    0.716368    41.00000    0.03724    0.06387 =
         0.05626   -0.00585   -0.01355   -0.00646
AFIX  43
H19C  2    0.916745    0.349859    0.777200    41.00000   -1.20000
AFIX   0
C20C  1    0.926283    0.583115    0.761612    41.00000    0.03786    0.07567 =
         0.07473   -0.02575   -0.01004    0.00730
AFIX  43
H20C  2    0.936263    0.575494    0.855860    41.00000   -1.20000
AFIX   0
C21C  1    0.917900    0.729673    0.672046    41.00000    0.03846    0.06722 =
         0.09277   -0.03020   -0.02452   -0.00558
AFIX  43
H21C  2    0.920100    0.820112    0.706547    41.00000   -1.20000
AFIX   0
C22C  1    0.905942    0.746495    0.527893    41.00000    0.03989    0.05049 =
         0.08793   -0.01365   -0.02321   -0.00793
AFIX  43
H22C  2    0.889100    0.846403    0.467384    41.00000   -1.20000
AFIX   0
C23C  1    0.920687    0.604816    0.479509    41.00000    0.03669    0.04529 =
         0.06305   -0.00126   -0.02135   -0.00739
C24C  1    0.902128    0.602526    0.337166    41.00000    0.04246    0.03535 =
         0.05679    0.00981   -0.01596   -0.00808
AFIX  13
H24C  2    0.898823    0.707262    0.272413    41.00000   -1.20000
AFIX   0
C25C  1    1.054108    0.483464    0.308598    41.00000    0.03587    0.04423 =
         0.06035    0.00583   -0.01054   -0.01008
C26C  1    1.164474    0.484743    0.193503    41.00000    0.03673    0.06320 =
         0.05936    0.00509   -0.01182   -0.01707
AFIX  43
H26C  2    1.157061    0.576387    0.122078    41.00000   -1.20000
AFIX   0
C27C  1    1.285483    0.358761    0.177231    41.00000    0.04341    0.08058 =
         0.07624   -0.00836    0.00200   -0.01146
AFIX  43
H27C  2    1.372773    0.368694    0.105134    41.00000   -1.20000
AFIX   0
C28C  1    1.271663    0.220338    0.270583    41.00000    0.04037    0.07034 =
         0.08549   -0.00849    0.00130    0.00203
AFIX  43
H28C  2    1.327887    0.126523    0.251225    41.00000   -1.20000
AFIX   0
C29C  1    1.183206    0.214444    0.385252    41.00000    0.03395    0.05215 =
         0.07661   -0.00407   -0.00755    0.00155
AFIX  43
H29C  2    1.202734    0.125845    0.458707    41.00000   -1.20000
AFIX   0
C30C  1    1.065163    0.333341    0.399004    41.00000    0.03284    0.04435 =
         0.05873    0.00326   -0.00949   -0.00220
C31C  1    0.946978    0.174831    0.613819    41.00000    0.05578    0.04568 =
         0.06229    0.01433   -0.01510   -0.00528
AFIX  33
H31G  2    0.960133    0.091503    0.564576    41.00000   -1.50000
H31H  2    0.843870    0.160339    0.677481    41.00000   -1.50000
H31I  2    1.055839    0.171212    0.664017    41.00000   -1.50000
HKLF    4
 
REM  12s_sk124_d4mawaterb2d_0s in P1
REM R1 =  0.0486 for   2190 Fo > 4sig(Fo)  and  0.1378 for all   4574 data
REM    713 parameters refined using    882 restraints
 
END
 
WGHT      0.0292      0.0000
REM Highest difference peak  0.163,  deepest hole -0.128,  1-sigma level  0.030
Q1    1   0.4806  0.5762  0.5443  11.00000  0.05    0.16
Q2    1   0.4831  0.5007  0.6415  11.00000  0.05    0.14
Q3    1   0.6703  0.4307  0.3768  11.00000  0.05    0.14
Q4    1   0.6213  0.5583  0.3537  11.00000  0.05    0.13
Q5    1   0.6721  0.4940  0.2896  11.00000  0.05    0.13
;
_cod_data_source_file            12s_sk124_d4mawaterb2d_0s-91p-x1.cif
_cod_data_source_block           12s_sk124_d4mawaterb2d_0s
_cod_depositor_comments
;
The following automatic conversions were performed:

data item '_symmetry_cell_setting' value 'Triclinic' was changed to
'triclinic' in accordance with the
/home/saulius/struct/COD-crude-data/automatic-downloads/DataCite-retrospective/ACS/depositions/lib/dictionaries/cif_core.dic
dictionary named 'cif_core.dic' version 2.4.2 last updated on
2011-04-26.

Automatic conversion script
Id: cif_fix_values 6909 2019-04-08 15:41:33Z antanas 
;
_cod_original_sg_symbol_H-M      P1
_cod_database_code               4517065
loop_
_symmetry_equiv_pos_as_xyz
'x, y, z'
loop_
_atom_site_label
_atom_site_type_symbol
_atom_site_fract_x
_atom_site_fract_y
_atom_site_fract_z
_atom_site_U_iso_or_equiv
_atom_site_adp_type
_atom_site_occupancy
_atom_site_symmetry_multiplicity
_atom_site_calc_flag
_atom_site_refinement_flags
_atom_site_disorder_assembly
_atom_site_disorder_group
C1A C 0.726(5) 0.237(4) 0.326(4) 0.039(3) Uiso 0.090(3) 1 d P A 2
C2A C 0.658(5) 0.360(4) 0.408(4) 0.039(3) Uiso 0.090(3) 1 d PR A 2
C3A C 0.645(5) 0.503(4) 0.318(4) 0.039(3) Uiso 0.090(3) 1 d PR A 2
C4A C 0.705(5) 0.472(4) 0.184(4) 0.039(3) Uiso 0.090(3) 1 d PR A 2
C5A C 0.476(5) 0.510(4) 0.740(4) 0.039(3) Uiso 0.090(3) 1 d PR A 2
C6A C 0.532(5) 0.495(4) 0.599(4) 0.039(3) Uiso 0.090(3) 1 d PR A 2
C7A C 0.525(5) 0.630(4) 0.512(4) 0.039(3) Uiso 0.090(3) 1 d PR A 2
C8A C 0.459(5) 0.748(4) 0.582(4) 0.039(3) Uiso 0.090(3) 1 d PR A 2
C9A C 0.781(5) 0.247(4) 0.076(4) 0.039(3) Uiso 0.090(3) 1 d PR A 2
H9A H 0.7618 0.3302 -0.0090 0.047 Uiso 0.090(3) 1 calc PR A 2
C10A C 0.955(5) 0.147(4) 0.060(4) 0.039(3) Uiso 0.090(3) 1 d PR A 2
H10A H 1.0119 0.0938 0.1466 0.047 Uiso 0.090(3) 1 calc PR A 2
H10B H 1.0431 0.2024 -0.0057 0.047 Uiso 0.090(3) 1 calc PR A 2
C11A C 0.845(5) 0.044(4) 0.002(4) 0.039(3) Uiso 0.090(3) 1 d PR A 2
H11A H 0.8441 0.0710 -0.0987 0.047 Uiso 0.090(3) 1 calc PR A 2
H11B H 0.8769 -0.0690 0.0373 0.047 Uiso 0.090(3) 1 calc PR A 2
C12A C 0.677(5) 0.109(4) 0.068(4) 0.039(3) Uiso 0.090(3) 1 d PR A 2
H12A H 0.6441 0.0429 0.1577 0.047 Uiso 0.090(3) 1 calc PR A 2
H12B H 0.5728 0.1378 0.0086 0.047 Uiso 0.090(3) 1 calc PR A 2
C13A C 0.396(5) 0.748(4) 0.833(4) 0.039(3) Uiso 0.090(3) 1 d PR A 2
H13A H 0.4022 0.6643 0.9196 0.047 Uiso 0.090(3) 1 calc PR A 2
C14A C 0.508(5) 0.877(4) 0.848(4) 0.039(3) Uiso 0.090(3) 1 d PR A 2
H14A H 0.5478 0.9434 0.7608 0.047 Uiso 0.090(3) 1 calc PR A 2
H14B H 0.6095 0.8405 0.9100 0.047 Uiso 0.090(3) 1 calc PR A 2
C15A C 0.338(5) 0.949(4) 0.915(4) 0.039(3) Uiso 0.090(3) 1 d PR A 2
H15A H 0.3159 1.0642 0.8834 0.047 Uiso 0.090(3) 1 calc PR A 2
H15B H 0.3314 0.9157 1.0148 0.047 Uiso 0.090(3) 1 calc PR A 2
C16A C 0.227(5) 0.857(4) 0.841(4) 0.039(3) Uiso 0.090(3) 1 d PR A 2
H16A H 0.1283 0.8058 0.8976 0.047 Uiso 0.090(3) 1 calc PR A 2
H16B H 0.1838 0.9167 0.7513 0.047 Uiso 0.090(3) 1 calc PR A 2
N1A N 0.749(5) 0.318(4) 0.193(4) 0.039(3) Uiso 0.090(3) 1 d PR A 2
N2A N 0.435(5) 0.674(4) 0.721(4) 0.039(3) Uiso 0.090(3) 1 d PR A 2
O1A O 0.758(5) 0.101(4) 0.374(4) 0.039(3) Uiso 0.090(3) 1 d PR A 2
O2A O 0.719(5) 0.573(4) 0.076(4) 0.039(3) Uiso 0.090(3) 1 d PR A 2
O3A O 0.472(5) 0.412(4) 0.841(4) 0.039(3) Uiso 0.090(3) 1 d PR A 2
O4A O 0.431(5) 0.888(4) 0.536(4) 0.039(3) Uiso 0.090(3) 1 d PR A 2
S1A S 0.605(5) 0.304(4) 0.579(4) 0.039(3) Uiso 0.090(3) 1 d PR A 2
S2A S 0.580(5) 0.687(4) 0.337(4) 0.039(3) Uiso 0.090(3) 1 d PR A 2
C17A C 0.091(4) 0.366(3) 0.537(2) 0.039(3) Uiso 0.090(3) 1 d P A 2
C18A C 0.016(4) 0.494(3) 0.586(2) 0.039(3) Uiso 0.090(3) 1 d PR A 2
C19A C -0.050(4) 0.477(3) 0.716(2) 0.039(3) Uiso 0.090(3) 1 d PR A 2
H19A H -0.0445 0.3767 0.7759 0.047 Uiso 0.090(3) 1 calc PR A 2
C20A C -0.122(4) 0.602(3) 0.760(2) 0.039(3) Uiso 0.090(3) 1 d PR A 2
H20A H -0.1659 0.5903 0.8513 0.047 Uiso 0.090(3) 1 calc PR A 2
C21A C -0.131(4) 0.755(3) 0.669(2) 0.039(3) Uiso 0.090(3) 1 d PR A 2
H21A H -0.1787 0.8441 0.7001 0.047 Uiso 0.090(3) 1 calc PR A 2
C22A C -0.071(4) 0.769(3) 0.539(2) 0.039(3) Uiso 0.090(3) 1 d PR A 2
H22A H -0.0802 0.8702 0.4790 0.047 Uiso 0.090(3) 1 calc PR A 2
C23A C 0.005(4) 0.641(3) 0.487(2) 0.039(3) Uiso 0.090(3) 1 d PR A 2
C24A C 0.069(4) 0.661(3) 0.354(2) 0.039(3) Uiso 0.090(3) 1 d PR A 2
H24A H 0.0648 0.7609 0.2933 0.047 Uiso 0.090(3) 1 calc PR A 2
C25A C 0.139(4) 0.527(3) 0.313(2) 0.039(3) Uiso 0.090(3) 1 d PR A 2
C26A C 0.209(4) 0.527(3) 0.171(2) 0.039(3) Uiso 0.090(3) 1 d PR A 2
H26A H 0.2020 0.6234 0.1057 0.047 Uiso 0.090(3) 1 calc PR A 2
C27A C 0.284(4) 0.396(3) 0.131(2) 0.039(3) Uiso 0.090(3) 1 d PR A 2
H27A H 0.3287 0.4025 0.0411 0.047 Uiso 0.090(3) 1 calc PR A 2
C28A C 0.292(4) 0.255(3) 0.226(2) 0.039(3) Uiso 0.090(3) 1 d PR A 2
H28A H 0.3454 0.1648 0.1989 0.047 Uiso 0.090(3) 1 calc PR A 2
C29A C 0.229(4) 0.239(3) 0.354(2) 0.039(3) Uiso 0.090(3) 1 d PR A 2
H29A H 0.2358 0.1383 0.4141 0.047 Uiso 0.090(3) 1 calc PR A 2
C30A C 0.151(4) 0.373(3) 0.402(2) 0.039(3) Uiso 0.090(3) 1 d PR A 2
C31A C 0.108(4) 0.203(3) 0.634(2) 0.039(3) Uiso 0.090(3) 1 d PR A 2
H31A H 0.1625 0.1264 0.5847 0.058 Uiso 0.090(3) 1 calc PR A 2
H31B H -0.0117 0.1750 0.6689 0.058 Uiso 0.090(3) 1 calc PR A 2
H31C H 0.1828 0.2039 0.7095 0.058 Uiso 0.090(3) 1 calc PR A 2
C1B C 0.745(4) 0.2560(14) 0.3278(15) 0.049(3) Uani 0.464(5) 1 d PDU B 1
C2B C 0.677(2) 0.3783(14) 0.4113(14) 0.044(3) Uani 0.464(5) 1 d PDU B 1
C3B C 0.685(2) 0.5237(14) 0.3177(14) 0.048(3) Uani 0.464(5) 1 d PDU B 1
C4B C 0.717(5) 0.4914(16) 0.1788(15) 0.050(3) Uani 0.464(5) 1 d PDU B 1
C5B C 0.445(5) 0.5230(16) 0.7257(14) 0.047(2) Uani 0.464(5) 1 d PDU B 1
C6B C 0.447(3) 0.4888(16) 0.5874(15) 0.0446(17) Uani 0.464(5) 1 d PDU B 1
C7B C 0.431(3) 0.6388(17) 0.4884(14) 0.0425(17) Uani 0.464(5) 1 d PDU B 1
C8B C 0.427(4) 0.7626(15) 0.5657(14) 0.045(2) Uani 0.464(5) 1 d PDU B 1
C9B C 0.793(2) 0.259(2) 0.0802(16) 0.062(3) Uani 0.464(5) 1 d PDU B 1
H9B H 0.7855 0.3405 -0.0070 0.074 Uiso 0.464(5) 1 calc PR B 1
C10B C 0.960(2) 0.151(3) 0.081(3) 0.071(4) Uani 0.464(5) 1 d PDU B 1
H10C H 0.9986 0.0953 0.1731 0.085 Uiso 0.464(5) 1 calc PR B 1
H10D H 1.0607 0.1999 0.0259 0.085 Uiso 0.464(5) 1 calc PR B 1
C11B C 0.860(2) 0.055(3) 0.011(3) 0.071(4) Uani 0.464(5) 1 d PDU B 1
H11C H 0.8905 -0.0589 0.0426 0.085 Uiso 0.464(5) 1 calc PR B 1
H11D H 0.8676 0.0880 -0.0892 0.085 Uiso 0.464(5) 1 calc PR B 1
C12B C 0.681(2) 0.116(3) 0.074(3) 0.063(4) Uani 0.464(5) 1 d PDU B 1
H12C H 0.6455 0.0519 0.1637 0.076 Uiso 0.464(5) 1 calc PR B 1
H12D H 0.5792 0.1442 0.0119 0.076 Uiso 0.464(5) 1 calc PR B 1
C13B C 0.402(3) 0.7615(16) 0.8158(15) 0.054(3) Uani 0.464(5) 1 d PDU B 1
H13B H 0.4052 0.6793 0.9025 0.065 Uiso 0.464(5) 1 calc PR B 1
C14B C 0.509(2) 0.885(2) 0.834(2) 0.057(3) Uani 0.464(5) 1 d PDU B 1
H14C H 0.5589 0.9462 0.7480 0.069 Uiso 0.464(5) 1 calc PR B 1
H14D H 0.6043 0.8466 0.9010 0.069 Uiso 0.464(5) 1 calc PR B 1
C15B C 0.343(3) 0.9723(17) 0.8905(16) 0.058(3) Uani 0.464(5) 1 d PDU B 1
H15C H 0.3289 1.0863 0.8511 0.069 Uiso 0.464(5) 1 calc PR B 1
H15D H 0.3322 0.9483 0.9908 0.069 Uiso 0.464(5) 1 calc PR B 1
C16B C 0.227(2) 0.8754(19) 0.8224(17) 0.060(3) Uani 0.464(5) 1 d PDU B 1
H16C H 0.1818 0.9323 0.7326 0.072 Uiso 0.464(5) 1 calc PR B 1
H16D H 0.1298 0.8267 0.8822 0.072 Uiso 0.464(5) 1 calc PR B 1
N1B N 0.744(4) 0.3293(15) 0.1965(13) 0.054(3) Uani 0.464(5) 1 d PDU B 1
N2B N 0.419(3) 0.6820(13) 0.7060(12) 0.050(3) Uani 0.464(5) 1 d PDU B 1
O1B O 0.783(3) 0.1123(13) 0.3768(17) 0.061(5) Uani 0.464(5) 1 d PDU B 1
O2B O 0.718(5) 0.5851(19) 0.0675(13) 0.066(5) Uani 0.464(5) 1 d PDU B 1
O3B O 0.480(2) 0.4294(15) 0.8308(13) 0.051(4) Uani 0.464(5) 1 d PDU B 1
O4B O 0.426(5) 0.8953(14) 0.5240(15) 0.053(5) Uani 0.464(5) 1 d PDU B 1
S1B S 0.6407(9) 0.3400(7) 0.5823(7) 0.0594(18) Uani 0.464(5) 1 d PU B 1
S2B S 0.6146(9) 0.6914(7) 0.3639(7) 0.0512(18) Uani 0.464(5) 1 d PU B 1
C17B C 0.262(2) 0.4061(9) 0.5888(11) 0.0503(19) Uani 0.464(5) 1 d PDU B 1
C18B C 0.114(2) 0.5221(14) 0.6166(14) 0.049(2) Uani 0.464(5) 1 d PDU B 1
C19B C 0.007(2) 0.4927(17) 0.7350(15) 0.056(3) Uani 0.464(5) 1 d PDU B 1
H19B H 0.0194 0.3957 0.8000 0.068 Uiso 0.464(5) 1 calc PR B 1
C20B C -0.117(3) 0.6129(17) 0.7516(15) 0.067(4) Uani 0.464(5) 1 d PDU B 1
H20B H -0.1932 0.5984 0.8307 0.080 Uiso 0.464(5) 1 calc PR B 1
C21B C -0.135(2) 0.7553(17) 0.6563(17) 0.066(4) Uani 0.464(5) 1 d PDU B 1
H21B H -0.2256 0.8342 0.6700 0.079 Uiso 0.464(5) 1 calc PR B 1
C22B C -0.019(2) 0.7842(17) 0.5371(16) 0.057(3) Uani 0.464(5) 1 d PDU B 1
H22B H -0.0252 0.8830 0.4745 0.069 Uiso 0.464(5) 1 calc PR B 1
C23B C 0.107(2) 0.6562(14) 0.5168(13) 0.050(2) Uani 0.464(5) 1 d PDU B 1
C24B C 0.2469(19) 0.6750(11) 0.4093(12) 0.0455(19) Uani 0.464(5) 1 d PDU B 1
H24B H 0.2347 0.7775 0.3414 0.055 Uiso 0.464(5) 1 calc PR B 1
C25B C 0.242(2) 0.5324(14) 0.3496(14) 0.050(2) Uani 0.464(5) 1 d PDU B 1
C26B C 0.232(3) 0.5219(15) 0.2159(12) 0.058(3) Uani 0.464(5) 1 d PDU B 1
H26B H 0.2044 0.6155 0.1489 0.070 Uiso 0.464(5) 1 calc PR B 1
C27B C 0.259(5) 0.3813(17) 0.1747(15) 0.069(4) Uani 0.464(5) 1 d PDU B 1
H27B H 0.2581 0.3782 0.0819 0.083 Uiso 0.464(5) 1 calc PR B 1
C28B C 0.287(4) 0.2484(15) 0.2754(15) 0.067(4) Uani 0.464(5) 1 d PDU B 1
H28B H 0.3232 0.1525 0.2510 0.081 Uiso 0.464(5) 1 calc PR B 1
C29B C 0.265(3) 0.2486(14) 0.4033(15) 0.064(3) Uani 0.464(5) 1 d PDU B 1
H29B H 0.2539 0.1536 0.4691 0.076 Uiso 0.464(5) 1 calc PR B 1
C30B C 0.259(2) 0.3830(13) 0.4415(12) 0.053(2) Uani 0.464(5) 1 d PDU B 1
C31B C 0.2499(12) 0.2444(8) 0.6837(8) 0.071(3) Uani 0.464(5) 1 d PDU B 1
H31D H 0.3425 0.1700 0.6569 0.107 Uiso 0.464(5) 1 calc PR B 1
H31E H 0.1314 0.2098 0.6778 0.107 Uiso 0.464(5) 1 calc PR B 1
H31F H 0.2682 0.2501 0.7772 0.107 Uiso 0.464(5) 1 calc PR B 1
C1C C 0.731(5) 0.2408(15) 0.3441(14) 0.040(2) Uani 0.446(5) 1 d PDU C 3
C2C C 0.736(2) 0.3619(16) 0.4325(14) 0.0384(17) Uani 0.446(5) 1 d PDU C 3
C3C C 0.721(3) 0.5087(14) 0.3385(14) 0.0367(17) Uani 0.446(5) 1 d PDU C 3
C4C C 0.705(5) 0.4792(17) 0.1999(13) 0.039(2) Uani 0.446(5) 1 d PDU C 3
C5C C 0.460(4) 0.5048(16) 0.7416(15) 0.041(3) Uani 0.446(5) 1 d PDU C 3
C6C C 0.502(2) 0.4830(15) 0.6005(14) 0.041(2) Uani 0.446(5) 1 d PDU C 3
C7C C 0.476(2) 0.6363(17) 0.5083(13) 0.041(3) Uani 0.446(5) 1 d PDU C 3
C8C C 0.434(4) 0.7528(16) 0.5926(14) 0.040(3) Uani 0.446(5) 1 d PDU C 3
C9C C 0.749(3) 0.2508(19) 0.0934(16) 0.047(3) Uani 0.446(5) 1 d PDU C 3
H9C H 0.7203 0.3334 0.0093 0.057 Uiso 0.446(5) 1 calc PR C 3
C10C C 0.914(2) 0.149(3) 0.071(3) 0.054(3) Uani 0.446(5) 1 d PDU C 3
H10E H 0.9733 0.0918 0.1557 0.065 Uiso 0.446(5) 1 calc PR C 3
H10F H 1.0013 0.2034 0.0044 0.065 Uiso 0.446(5) 1 calc PR C 3
C11C C 0.797(2) 0.053(2) 0.014(2) 0.056(4) Uani 0.446(5) 1 d PDU C 3
H11E H 0.8348 -0.0600 0.0376 0.068 Uiso 0.446(5) 1 calc PR C 3
H11F H 0.7799 0.0913 -0.0851 0.068 Uiso 0.446(5) 1 calc PR C 3
C12C C 0.636(3) 0.104(2) 0.103(2) 0.055(3) Uani 0.446(5) 1 d PDU C 3
H12E H 0.6249 0.0353 0.1945 0.066 Uiso 0.446(5) 1 calc PR C 3
H12F H 0.5200 0.1292 0.0568 0.066 Uiso 0.446(5) 1 calc PR C 3
C13C C 0.406(3) 0.7310(17) 0.8460(15) 0.044(3) Uani 0.446(5) 1 d PDU C 3
H13C H 0.4237 0.6426 0.9277 0.053 Uiso 0.446(5) 1 calc PR C 3
C14C C 0.497(2) 0.8600(19) 0.8720(17) 0.046(3) Uani 0.446(5) 1 d PDU C 3
H14E H 0.5274 0.9379 0.7885 0.055 Uiso 0.446(5) 1 calc PR C 3
H14F H 0.6036 0.8243 0.9288 0.055 Uiso 0.446(5) 1 calc PR C 3
C15C C 0.329(2) 0.9143(15) 0.9511(13) 0.051(3) Uani 0.446(5) 1 d PDU C 3
H15E H 0.2982 1.0287 0.9296 0.061 Uiso 0.446(5) 1 calc PR C 3
H15F H 0.3303 0.8698 1.0502 0.061 Uiso 0.446(5) 1 calc PR C 3
C16C C 0.221(2) 0.8241(18) 0.8703(16) 0.045(3) Uani 0.446(5) 1 d PDU C 3
H16E H 0.1326 0.7593 0.9266 0.054 Uiso 0.446(5) 1 calc PR C 3
H16F H 0.1672 0.8905 0.7866 0.054 Uiso 0.446(5) 1 calc PR C 3
N1C N 0.729(4) 0.3176(15) 0.2137(12) 0.041(2) Uani 0.446(5) 1 d PDU C 3
N2C N 0.426(3) 0.6624(14) 0.7298(12) 0.041(3) Uani 0.446(5) 1 d PDU C 3
O1C O 0.736(3) 0.0952(13) 0.3899(16) 0.040(3) Uani 0.446(5) 1 d PDU C 3
O2C O 0.689(5) 0.5751(17) 0.0901(11) 0.043(5) Uani 0.446(5) 1 d PDU C 3
O3C O 0.434(3) 0.4021(15) 0.8408(14) 0.048(4) Uani 0.446(5) 1 d PDU C 3
O4C O 0.399(5) 0.8855(14) 0.5566(15) 0.049(4) Uani 0.446(5) 1 d PDU C 3
S1C S 0.5467(9) 0.3083(7) 0.5603(6) 0.0455(16) Uani 0.446(5) 1 d PU C 3
S2C S 0.5229(9) 0.6620(6) 0.3392(6) 0.0416(14) Uani 0.446(5) 1 d PU C 3
C17C C 0.9174(19) 0.3333(11) 0.5128(12) 0.0458(19) Uani 0.446(5) 1 d PDU C 3
C18C C 0.920(2) 0.4679(15) 0.5762(13) 0.047(2) Uani 0.446(5) 1 d PDU C 3
C19C C 0.920(2) 0.4493(15) 0.7164(11) 0.053(3) Uani 0.446(5) 1 d PDU C 3
H19C H 0.9167 0.3499 0.7772 0.064 Uiso 0.446(5) 1 calc PR C 3
C20C C 0.926(3) 0.5831(16) 0.7616(13) 0.062(3) Uani 0.446(5) 1 d PDU C 3
H20C H 0.9363 0.5755 0.8559 0.074 Uiso 0.446(5) 1 calc PR C 3
C21C C 0.918(2) 0.7297(15) 0.6720(14) 0.063(3) Uani 0.446(5) 1 d PDU C 3
H21C H 0.9201 0.8201 0.7065 0.076 Uiso 0.446(5) 1 calc PR C 3
C22C C 0.906(3) 0.7465(15) 0.5279(15) 0.059(3) Uani 0.446(5) 1 d PDU C 3
H22C H 0.8891 0.8464 0.4674 0.071 Uiso 0.446(5) 1 calc PR C 3
C23C C 0.921(2) 0.6048(14) 0.4795(13) 0.049(2) Uani 0.446(5) 1 d PDU C 3
C24C C 0.9021(19) 0.6025(11) 0.3372(12) 0.0475(19) Uani 0.446(5) 1 d PDU C 3
H24C H 0.8988 0.7073 0.2724 0.057 Uiso 0.446(5) 1 calc PR C 3
C25C C 1.054(2) 0.4835(15) 0.3086(14) 0.049(3) Uani 0.446(5) 1 d PDU C 3
C26C C 1.164(2) 0.4847(17) 0.1935(15) 0.055(3) Uani 0.446(5) 1 d PDU C 3
H26C H 1.1571 0.5764 0.1221 0.066 Uiso 0.446(5) 1 calc PR C 3
C27C C 1.285(4) 0.3588(19) 0.1772(16) 0.068(4) Uani 0.446(5) 1 d PDU C 3
H27C H 1.3728 0.3687 0.1051 0.082 Uiso 0.446(5) 1 calc PR C 3
C28C C 1.272(4) 0.2203(16) 0.2706(17) 0.068(4) Uani 0.446(5) 1 d PDU C 3
H28C H 1.3279 0.1265 0.2512 0.081 Uiso 0.446(5) 1 calc PR C 3
C29C C 1.183(2) 0.2144(17) 0.3853(17) 0.056(3) Uani 0.446(5) 1 d PDU C 3
H29C H 1.2027 0.1258 0.4587 0.068 Uiso 0.446(5) 1 calc PR C 3
C30C C 1.065(2) 0.3333(14) 0.3990(14) 0.048(2) Uani 0.446(5) 1 d PDU C 3
C31C C 0.9470(12) 0.1748(8) 0.6138(8) 0.059(2) Uani 0.446(5) 1 d PDU C 3
H31G H 0.9601 0.0915 0.5646 0.088 Uiso 0.446(5) 1 calc PR C 3
H31H H 0.8439 0.1603 0.6775 0.088 Uiso 0.446(5) 1 calc PR C 3
H31I H 1.0558 0.1712 0.6640 0.088 Uiso 0.446(5) 1 calc PR C 3
loop_
_atom_site_aniso_label
_atom_site_aniso_U_11
_atom_site_aniso_U_22
_atom_site_aniso_U_33
_atom_site_aniso_U_23
_atom_site_aniso_U_13
_atom_site_aniso_U_12
C1B 0.028(7) 0.031(4) 0.090(5) -0.021(4) -0.016(6) 0.007(5)
C2B 0.026(6) 0.030(3) 0.078(4) -0.018(3) -0.007(5) -0.004(5)
C3B 0.043(6) 0.029(3) 0.069(4) -0.010(3) -0.015(5) 0.015(5)
C4B 0.037(7) 0.042(4) 0.073(4) -0.018(3) -0.017(7) 0.009(6)
C5B 0.042(6) 0.037(4) 0.055(4) 0.001(3) -0.024(5) 0.010(5)
C6B 0.041(3) 0.034(3) 0.054(4) -0.005(2) -0.014(3) 0.011(2)
C7B 0.039(3) 0.031(3) 0.056(4) -0.007(3) -0.012(3) 0.004(3)
C8B 0.048(6) 0.033(3) 0.051(4) -0.005(3) -0.017(4) 0.007(5)
C9B 0.040(7) 0.061(6) 0.097(5) -0.044(5) -0.009(6) -0.001(5)
C10B 0.034(7) 0.074(8) 0.115(8) -0.047(6) -0.003(7) 0.001(6)
C11B 0.040(8) 0.069(8) 0.116(9) -0.054(7) 0.005(7) 0.003(7)
C12B 0.034(7) 0.066(7) 0.106(9) -0.052(7) -0.001(7) 0.000(6)
C13B 0.064(7) 0.048(5) 0.049(5) -0.007(4) -0.027(6) 0.010(5)
C14B 0.063(7) 0.062(7) 0.047(7) -0.014(5) -0.013(6) -0.003(6)
C15B 0.072(9) 0.056(6) 0.045(7) -0.011(5) -0.017(6) 0.005(6)
C16B 0.060(7) 0.063(7) 0.056(7) -0.016(5) -0.020(6) 0.009(6)
N1B 0.040(6) 0.045(5) 0.083(4) -0.029(4) -0.016(6) 0.004(5)
N2B 0.060(6) 0.037(4) 0.050(4) -0.005(3) -0.023(5) 0.010(5)
O1B 0.041(11) 0.028(4) 0.118(9) -0.022(4) -0.012(7) 0.003(6)
O2B 0.055(12) 0.064(7) 0.074(5) -0.011(5) 0.006(10) 0.002(8)
O3B 0.046(9) 0.045(6) 0.052(5) 0.020(4) -0.017(6) -0.030(6)
O4B 0.062(12) 0.029(3) 0.062(8) -0.007(4) -0.002(9) 0.009(7)
S1B 0.054(4) 0.041(3) 0.076(3) -0.004(2) -0.019(3) 0.018(3)
S2B 0.048(3) 0.029(2) 0.074(4) -0.010(2) -0.002(3) 0.003(3)
C17B 0.054(3) 0.038(4) 0.058(4) -0.006(3) -0.008(4) -0.005(3)
C18B 0.040(4) 0.045(4) 0.063(5) -0.013(3) -0.007(4) -0.011(4)
C19B 0.033(6) 0.064(6) 0.076(6) -0.015(5) -0.002(5) -0.023(5)
C20B 0.026(6) 0.087(7) 0.094(7) -0.030(5) 0.002(5) -0.017(5)
C21B 0.019(6) 0.080(6) 0.104(8) -0.034(6) -0.011(5) 0.000(5)
C22B 0.019(5) 0.059(5) 0.094(7) -0.016(5) -0.019(5) 0.002(4)
C23B 0.039(4) 0.045(4) 0.067(5) -0.013(3) -0.011(4) -0.002(4)
C24B 0.042(3) 0.035(3) 0.056(4) -0.003(3) -0.016(3) 0.001(4)
C25B 0.051(5) 0.042(4) 0.058(4) -0.008(3) -0.013(4) -0.006(4)
C26B 0.063(8) 0.054(5) 0.059(4) -0.007(4) -0.018(6) -0.013(6)
C27B 0.072(9) 0.073(6) 0.071(5) -0.030(4) -0.005(7) -0.012(7)
C28B 0.076(9) 0.053(5) 0.086(6) -0.034(5) -0.007(7) -0.020(7)
C29B 0.074(7) 0.044(4) 0.079(5) -0.020(4) -0.006(6) -0.022(6)
C30B 0.063(6) 0.040(3) 0.059(4) -0.011(3) -0.007(4) -0.012(4)
C31B 0.075(7) 0.052(4) 0.074(5) 0.011(4) -0.005(5) -0.005(4)
C1C 0.031(6) 0.037(4) 0.047(4) 0.000(3) 0.004(4) -0.007(5)
C2C 0.032(3) 0.035(3) 0.044(4) 0.000(2) -0.002(3) -0.005(3)
C3C 0.035(3) 0.036(3) 0.035(3) 0.000(2) -0.006(3) -0.001(3)
C4C 0.033(6) 0.041(4) 0.038(4) 0.001(3) -0.002(5) -0.004(5)
C5C 0.032(7) 0.036(4) 0.049(4) -0.002(3) 0.009(6) -0.007(5)
C6C 0.039(6) 0.037(3) 0.043(3) -0.003(2) -0.005(4) -0.002(5)
C7C 0.036(7) 0.039(3) 0.048(3) -0.006(3) 0.005(5) -0.009(5)
C8C 0.033(7) 0.037(3) 0.044(4) -0.001(3) 0.009(6) 0.004(5)
C9C 0.035(7) 0.057(6) 0.052(5) -0.018(4) 0.001(5) -0.006(5)
C10C 0.030(6) 0.076(8) 0.061(7) -0.027(6) -0.001(6) -0.003(6)
C11C 0.040(8) 0.067(7) 0.070(8) -0.031(6) 0.011(6) -0.011(6)
C12C 0.042(7) 0.065(7) 0.067(7) -0.030(5) 0.014(6) -0.015(5)
C13C 0.042(6) 0.042(5) 0.041(4) -0.003(4) 0.002(5) 0.006(4)
C14C 0.042(6) 0.047(5) 0.042(6) 0.000(5) 0.000(5) 0.001(5)
C15C 0.050(7) 0.044(6) 0.054(6) -0.008(4) 0.002(6) 0.005(5)
C16C 0.040(6) 0.046(6) 0.043(6) 0.000(4) 0.000(5) 0.006(5)
N1C 0.034(6) 0.042(4) 0.044(4) -0.007(3) -0.002(5) -0.002(5)
N2C 0.037(6) 0.037(4) 0.042(4) 0.001(3) 0.001(5) 0.006(5)
O1C 0.019(8) 0.035(4) 0.063(7) -0.006(4) 0.011(6) -0.008(5)
O2C 0.046(11) 0.049(6) 0.026(4) -0.003(4) 0.019(6) 0.012(7)
O3C 0.065(11) 0.040(4) 0.044(4) -0.006(4) 0.002(6) -0.032(6)
O4C 0.055(12) 0.036(4) 0.045(6) 0.006(4) 0.011(8) 0.006(6)
S1C 0.048(3) 0.038(3) 0.048(3) -0.004(2) 0.006(3) -0.011(3)
S2C 0.041(3) 0.037(3) 0.044(2) -0.004(2) -0.012(3) 0.001(2)
C17C 0.039(3) 0.041(3) 0.049(4) 0.005(3) -0.011(3) 0.001(4)
C18C 0.033(5) 0.048(3) 0.054(4) 0.001(3) -0.015(4) -0.003(4)
C19C 0.037(6) 0.064(5) 0.056(4) -0.006(4) -0.014(5) -0.006(6)
C20C 0.038(8) 0.076(6) 0.075(5) -0.026(4) -0.010(6) 0.007(6)
C21C 0.038(8) 0.067(5) 0.093(6) -0.030(5) -0.025(6) -0.006(6)
C22C 0.040(6) 0.050(4) 0.088(5) -0.014(4) -0.023(6) -0.008(6)
C23C 0.037(5) 0.045(3) 0.063(4) -0.001(3) -0.021(4) -0.007(4)
C24C 0.042(3) 0.035(4) 0.057(4) 0.010(3) -0.016(4) -0.008(3)
C25C 0.036(4) 0.044(4) 0.060(5) 0.006(4) -0.011(4) -0.010(4)
C26C 0.037(6) 0.063(6) 0.059(6) 0.005(5) -0.012(5) -0.017(5)
C27C 0.043(7) 0.081(7) 0.076(7) -0.008(6) 0.002(6) -0.011(6)
C28C 0.040(8) 0.070(6) 0.085(7) -0.008(6) 0.001(6) 0.002(6)
C29C 0.034(6) 0.052(5) 0.077(7) -0.004(5) -0.008(5) 0.002(5)
C30C 0.033(4) 0.044(4) 0.059(5) 0.003(3) -0.009(4) -0.002(4)
C31C 0.056(6) 0.046(4) 0.062(5) 0.014(3) -0.015(4) -0.005(4)
loop_
_atom_type_symbol
_atom_type_description
_atom_type_scat_dispersion_real
_atom_type_scat_dispersion_imag
_atom_type_scat_source
C C 0.0033 0.0016 'International Tables Vol C Tables 4.2.6.8 and 6.1.1.4'
H H 0.0000 0.0000 'International Tables Vol C Tables 4.2.6.8 and 6.1.1.4'
N N 0.0061 0.0033 'International Tables Vol C Tables 4.2.6.8 and 6.1.1.4'
O O 0.0106 0.0060 'International Tables Vol C Tables 4.2.6.8 and 6.1.1.4'
S S 0.1246 0.1234 'International Tables Vol C Tables 4.2.6.8 and 6.1.1.4'
loop_
_geom_angle_atom_site_label_1
_geom_angle_atom_site_label_2
_geom_angle_atom_site_label_3
_geom_angle
O1A C1A N1A 129.1
O1A C1A C2A 124.3
N1A C1A C2A 106.5
C3A C2A C1A 107.3
C3A C2A S1A 131.7
C1A C2A S1A 120.9
C2A C3A C4A 105.7
C2A C3A S2A 132.7
C4A C3A S2A 121.6
O2A C4A N1A 122.9
O2A C4A C3A 126.0
N1A C4A C3A 111.1
O3A C5A N2A 129.1
O3A C5A C6A 128.8
N2A C5A C6A 102.1
C7A C6A C5A 112.2
C7A C6A S1A 131.1
C5A C6A S1A 116.7
C6A C7A C8A 108.3
C6A C7A S2A 133.0
C8A C7A S2A 118.7
O4A C8A N2A 124.0
O4A C8A C7A 128.3
N2A C8A C7A 107.6
N1A C9A C10A 120.7
N1A C9A C12A 119.3
C10A C9A C12A 89.1
N1A C9A H9A 108.7
C10A C9A H9A 108.7
C12A C9A H9A 108.7
C9A C10A C11A 87.4
C9A C10A H10A 114.1
C11A C10A H10A 114.1
C9A C10A H10B 114.1
C11A C10A H10B 114.1
H10A C10A H10B 111.3
C12A C11A C10A 89.4
C12A C11A H11A 113.7
C10A C11A H11A 113.7
C12A C11A H11B 113.7
C10A C11A H11B 113.7
H11A C11A H11B 111.0
C11A C12A C9A 87.1
C11A C12A H12A 114.1
C9A C12A H12A 114.1
C11A C12A H12B 114.1
C9A C12A H12B 114.1
H12A C12A H12B 111.3
N2A C13A C16A 121.9
N2A C13A C14A 119.1
C16A C13A C14A 89.3
N2A C13A H13A 108.3
C16A C13A H13A 108.3
C14A C13A H13A 108.3
C13A C14A C15A 87.3
C13A C14A H14A 114.1
C15A C14A H14A 114.1
C13A C14A H14B 114.1
C15A C14A H14B 114.1
H14A C14A H14B 111.3
C14A C15A C16A 86.8
C14A C15A H15A 114.2
C16A C15A H15A 114.2
C14A C15A H15B 114.2
C16A C15A H15B 114.2
H15A C15A H15B 111.3
C13A C16A C15A 87.7
C13A C16A H16A 114.0
C15A C16A H16A 114.0
C13A C16A H16B 114.0
C15A C16A H16B 114.0
H16A C16A H16B 111.2
C4A N1A C1A 109.3
C4A N1A C9A 124.4
C1A N1A C9A 125.3
C8A N2A C5A 109.8
C8A N2A C13A 127.6
C5A N2A C13A 122.2
C2A S1A C6A 95.8
C3A S2A C7A 95.7
C18A C17A C30A 124.6
C18A C17A C31A 119.4
C30A C17A C31A 116.0
C19A C18A C17A 121.8
C19A C18A C23A 123.4
C17A C18A C23A 114.8
C20A C19A C18A 120.6
C20A C19A H19A 119.7
C18A C19A H19A 119.7
C19A C20A C21A 119.6
C19A C20A H20A 120.2
C21A C20A H20A 120.2
C22A C21A C20A 119.5
C22A C21A H21A 120.3
C20A C21A H21A 120.3
C21A C22A C23A 122.9
C21A C22A H22A 118.5
C23A C22A H22A 118.5
C24A C23A C22A 121.3
C24A C23A C18A 124.7
C22A C23A C18A 113.9
C23A C24A C25A 116.8
C23A C24A H24A 121.6
C25A C24A H24A 121.6
C24A C25A C30A 123.4
C24A C25A C26A 123.8
C30A C25A C26A 112.8
C27A C26A C25A 124.1
C27A C26A H26A 117.9
C25A C26A H26A 117.9
C26A C27A C28A 118.1
C26A C27A H27A 121.0
C28A C27A H27A 121.0
C29A C28A C27A 123.5
C29A C28A H28A 118.2
C27A C28A H28A 118.2
C28A C29A C30A 120.6
C28A C29A H29A 119.7
C30A C29A H29A 119.7
C17A C30A C25A 115.6
C17A C30A C29A 123.6
C25A C30A C29A 120.8
C17A C31A H31A 109.5
C17A C31A H31B 109.5
H31A C31A H31B 109.5
C17A C31A H31C 109.5
H31A C31A H31C 109.5
H31B C31A H31C 109.5
O1B C1B N1B 126.9(11)
O1B C1B C2B 125.2(11)
N1B C1B C2B 107.8(9)
C3B C2B C1B 104.1(9)
C3B C2B S1B 129.1(9)
C1B C2B S1B 125.8(9)
C2B C3B C4B 107.3(8)
C2B C3B S2B 120.4(9)
C4B C3B S2B 130.3(9)
O2B C4B N1B 124.1(11)
O2B C4B C3B 128.8(10)
N1B C4B C3B 107.1(9)
O3B C5B N2B 126.9(12)
O3B C5B C6B 126.2(10)
N2B C5B C6B 106.5(8)
C7B C6B C5B 107.2(8)
C7B C6B C17B 108.4(15)
C5B C6B C17B 103.6(16)
C7B C6B S1B 121.6(14)
C5B C6B S1B 106.1(14)
C17B C6B S1B 108.5(9)
C6B C7B C8B 107.0(9)
C6B C7B C24B 113.9(15)
C8B C7B C24B 104.9(15)
C6B C7B S2B 119.8(14)
C8B C7B S2B 101.4(13)
C24B C7B S2B 108.0(9)
O4B C8B N2B 126.4(11)
O4B C8B C7B 128.3(11)
N2B C8B C7B 105.3(8)
N1B C9B C10B 120.4(11)
N1B C9B C12B 114.3(10)
C10B C9B C12B 88.2(8)
N1B C9B H9B 110.7
C10B C9B H9B 110.7
C12B C9B H9B 110.7
C9B C10B C11B 88.5(10)
C9B C10B H10C 113.9
C11B C10B H10C 113.9
C9B C10B H10D 113.9
C11B C10B H10D 113.9
H10C C10B H10D 111.1
C10B C11B C12B 89.4(7)
C10B C11B H11C 113.7
C12B C11B H11C 113.7
C10B C11B H11D 113.8
C12B C11B H11D 113.7
H11C C11B H11D 111.0
C11B C12B C9B 82.7(8)
C11B C12B H12C 114.8
C9B C12B H12C 114.8
C11B C12B H12D 114.8
C9B C12B H12D 114.8
H12C C12B H12D 111.9
N2B C13B C14B 127.3(11)
N2B C13B C16B 117.1(10)
C14B C13B C16B 88.8(8)
N2B C13B H13B 107.2
C14B C13B H13B 107.2
C16B C13B H13B 107.2
C13B C14B C15B 91.8(9)
C13B C14B H14C 113.3
C15B C14B H14C 113.3
C13B C14B H14D 113.3
C15B C14B H14D 113.3
H14C C14B H14D 110.7
C14B C15B C16B 86.3(7)
C14B C15B H15C 114.3
C16B C15B H15C 114.3
C14B C15B H15D 114.3
C16B C15B H15D 114.3
H15C C15B H15D 111.4
C15B C16B C13B 87.1(8)
C15B C16B H16C 114.1
C13B C16B H16C 114.1
C15B C16B H16D 114.1
C13B C16B H16D 114.1
H16C C16B H16D 111.3
C1B N1B C4B 111.6(9)
C1B N1B C9B 126.9(9)
C4B N1B C9B 120.9(10)
C5B N2B C8B 113.2(9)
C5B N2B C13B 123.4(9)
C8B N2B C13B 123.1(9)
C2B S1B C6B 98.3(7)
C3B S2B C7B 104.3(7)
C18B C17B C31B 112.2(9)
C18B C17B C30B 112.2(11)
C31B C17B C30B 106.3(8)
C18B C17B C6B 105.5(10)
C31B C17B C6B 117.5(10)
C30B C17B C6B 102.8(10)
C23B C18B C19B 126.7(12)
C23B C18B C17B 111.4(11)
C19B C18B C17B 121.8(11)
C20B C19B C18B 115.9(10)
C20B C19B H19B 122.1
C18B C19B H19B 122.1
C19B C20B C21B 122.1(12)
C19B C20B H20B 118.9
C21B C20B H20B 118.9
C20B C21B C22B 120.8(12)
C20B C21B H21B 119.6
C22B C21B H21B 119.6
C21B C22B C23B 117.1(11)
C21B C22B H22B 121.4
C23B C22B H22B 121.4
C18B C23B C22B 117.2(12)
C18B C23B C24B 119.2(11)
C22B C23B C24B 122.6(11)
C23B C24B C25B 104.1(10)
C23B C24B C7B 104.5(11)
C25B C24B C7B 103.2(10)
C23B C24B H24B 114.6
C25B C24B H24B 114.6
C7B C24B H24B 114.6
C26B C25B C30B 112.3(11)
C26B C25B C24B 130.5(11)
C30B C25B C24B 117.1(11)
C25B C26B C27B 123.6(10)
C25B C26B H26B 118.2
C27B C26B H26B 118.2
C28B C27B C26B 116.4(14)
C28B C27B H27B 121.8
C26B C27B H27B 121.8
C29B C28B C27B 122.4(11)
C29B C28B H28B 118.8
C27B C28B H28B 118.8
C28B C29B C30B 119.6(12)
C28B C29B H29B 120.2
C30B C29B H29B 120.2
C29B C30B C25B 123.8(12)
C29B C30B C17B 127.5(10)
C25B C30B C17B 108.7(10)
C17B C31B H31D 109.5
C17B C31B H31E 109.5
H31D C31B H31E 109.5
C17B C31B H31F 109.5
H31D C31B H31F 109.5
H31E C31B H31F 109.5
O1C C1C N1C 126.8(11)
O1C C1C C2C 124.8(11)
N1C C1C C2C 108.3(9)
C3C C2C C1C 104.5(9)
C3C C2C C17C 111.6(14)
C1C C2C C17C 110.9(16)
C3C C2C S1C 119.4(14)
C1C C2C S1C 101.9(15)
C17C C2C S1C 107.9(9)
C2C C3C C4C 107.5(8)
C2C C3C C24C 111.4(15)
C4C C3C C24C 108.4(17)
C2C C3C S2C 123.1(14)
C4C C3C S2C 100.1(14)
C24C C3C S2C 105.2(8)
O2C C4C N1C 123.9(11)
O2C C4C C3C 128.5(10)
N1C C4C C3C 107.3(9)
O3C C5C N2C 127.0(12)
O3C C5C C6C 125.7(10)
N2C C5C C6C 106.4(8)
C7C C6C C5C 107.1(8)
C7C C6C S1C 127.8(9)
C5C C6C S1C 124.7(9)
C6C C7C C8C 107.4(9)
C6C C7C S2C 121.3(9)
C8C C7C S2C 130.6(9)
O4C C8C N2C 126.4(11)
O4C C8C C7C 128.1(11)
N2C C8C C7C 105.2(8)
N1C C9C C10C 120.5(11)
N1C C9C C12C 114.5(10)
C10C C9C C12C 88.2(8)
N1C C9C H9C 110.6
C10C C9C H9C 110.6
C12C C9C H9C 110.6
C9C C10C C11C 88.1(9)
C9C C10C H10E 114.0
C11C C10C H10E 114.0
C9C C10C H10F 114.0
C11C C10C H10F 114.0
H10E C10C H10F 111.2
C10C C11C C12C 89.3(7)
C10C C11C H11E 113.8
C12C C11C H11E 113.8
C10C C11C H11F 113.8
C12C C11C H11F 113.8
H11E C11C H11F 111.0
C11C C12C C9C 82.4(8)
C11C C12C H12E 114.9
C9C C12C H12E 114.9
C11C C12C H12F 114.9
C9C C12C H12F 114.9
H12E C12C H12F 112.0
N2C C13C C14C 128.7(11)
N2C C13C C16C 118.1(11)
C14C C13C C16C 88.6(8)
N2C C13C H13C 106.3
C14C C13C H13C 106.3
C16C C13C H13C 106.3
C13C C14C C15C 91.0(8)
C13C C14C H14E 113.5
C15C C14C H14E 113.5
C13C C14C H14F 113.5
C15C C14C H14F 113.5
H14E C14C H14F 110.8
C14C C15C C16C 85.8(7)
C14C C15C H15E 114.4
C16C C15C H15E 114.4
C14C C15C H15F 114.4
C16C C15C H15F 114.4
H15E C15C H15F 111.5
C13C C16C C15C 86.4(8)
C13C C16C H16E 114.2
C15C C16C H16E 114.2
C13C C16C H16F 114.2
C15C C16C H16F 114.2
H16E C16C H16F 111.4
C1C N1C C4C 111.5(8)
C1C N1C C9C 127.7(9)
C4C N1C C9C 120.8(9)
C5C N2C C8C 113.7(9)
C5C N2C C13C 122.6(10)
C8C N2C C13C 123.3(9)
C6C S1C C2C 97.7(6)
C7C S2C C3C 101.1(7)
C18C C17C C31C 113.3(10)
C18C C17C C30C 112.2(11)
C31C C17C C30C 106.3(8)
C18C C17C C2C 106.3(10)
C31C C17C C2C 115.1(10)
C30C C17C C2C 103.4(10)
C23C C18C C19C 127.0(12)
C23C C18C C17C 110.8(11)
C19C C18C C17C 122.1(10)
C20C C19C C18C 116.2(10)
C20C C19C H19C 121.9
C18C C19C H19C 121.9
C19C C20C C21C 121.4(12)
C19C C20C H20C 119.3
C21C C20C H20C 119.3
C20C C21C C22C 121.2(12)
C20C C21C H21C 119.4
C22C C21C H21C 119.4
C21C C22C C23C 117.1(11)
C21C C22C H22C 121.4
C23C C22C H22C 121.4
C18C C23C C22C 116.4(12)
C18C C23C C24C 119.0(11)
C22C C23C C24C 123.5(10)
C23C C24C C25C 104.8(10)
C23C C24C C3C 104.1(10)
C25C C24C C3C 102.5(10)
C23C C24C H24C 114.7
C25C C24C H24C 114.7
C3C C24C H24C 114.7
C26C C25C C30C 111.5(11)
C26C C25C C24C 130.5(11)
C30C C25C C24C 116.6(11)
C25C C26C C27C 123.7(10)
C25C C26C H26C 118.1
C27C C26C H26C 118.1
C28C C27C C26C 116.6(15)
C28C C27C H27C 121.7
C26C C27C H27C 121.7
C29C C28C C27C 121.5(11)
C29C C28C H28C 119.3
C27C C28C H28C 119.3
C28C C29C C30C 119.6(12)
C28C C29C H29C 120.2
C30C C29C H29C 120.2
C29C C30C C25C 124.4(12)
C29C C30C C17C 126.9(10)
C25C C30C C17C 108.7(10)
C17C C31C H31G 109.5
C17C C31C H31H 109.5
H31G C31C H31H 109.5
C17C C31C H31I 109.5
H31G C31C H31I 109.5
H31H C31C H31I 109.5
loop_
_geom_bond_atom_site_label_1
_geom_bond_atom_site_label_2
_geom_bond_distance
C1A O1A 1.1886
C1A N1A 1.3782
C1A C2A 1.5536
C2A C3A 1.3657
C2A S1A 1.7327
C3A C4A 1.4931
C3A S2A 1.7031
C4A O2A 1.2402
C4A N1A 1.3576
C5A O3A 1.1772
C5A N2A 1.4177
C5A C6A 1.5049
C6A C7A 1.3010
C6A S1A 1.7771
C7A C8A 1.4316
C7A S2A 1.7661
C8A O4A 1.2219
C8A N2A 1.4168
C9A N1A 1.4687
C9A C10A 1.5234
C9A C12A 1.5363
C9A H9A 1.0000
C10A C11A 1.5279
C10A H10A 0.9900
C10A H10B 0.9900
C11A C12A 1.5221
C11A H11A 0.9900
C11A H11B 0.9900
C12A H12A 0.9900
C12A H12B 0.9900
C13A N2A 1.4489
C13A C16A 1.5198
C13A C14A 1.5350
C13A H13A 1.0000
C14A C15A 1.5599
C14A H14A 0.9900
C14A H14B 0.9900
C15A C16A 1.5634
C15A H15A 0.9900
C15A H15B 0.9900
C16A H16A 0.9900
C16A H16B 0.9900
C17A C18A 1.3976
C17A C30A 1.4148
C17A C31A 1.5325
C18A C19A 1.3623
C18A C23A 1.4426
C19A C20A 1.3429
C19A H19A 0.9500
C20A C21A 1.4401
C20A H20A 0.9500
C21A C22A 1.3590
C21A H21A 0.9500
C22A C23A 1.4205
C22A H22A 0.9500
C23A C24A 1.3862
C24A C25A 1.3905
C24A H24A 0.9500
C25A C30A 1.4424
C25A C26A 1.5036
C26A C27A 1.3723
C26A H26A 0.9500
C27A C28A 1.3806
C27A H27A 0.9500
C28A C29A 1.3401
C28A H28A 0.9500
C29A C30A 1.4438
C29A H29A 0.9500
C31A H31A 0.9800
C31A H31B 0.9800
C31A H31C 0.9800
C1B O1B 1.259(11)
C1B N1B 1.337(12)
C1B C2B 1.559(14)
C2B C3B 1.412(12)
C2B S1B 1.700(14)
C3B C4B 1.507(15)
C3B S2B 1.688(13)
C4B O2B 1.233(12)
C4B N1B 1.398(12)
C5B O3B 1.209(12)
C5B N2B 1.369(12)
C5B C6B 1.505(14)
C6B C7B 1.460(12)
C6B C17B 1.63(2)
C6B S1B 1.866(17)
C7B C8B 1.491(13)
C7B C24B 1.60(2)
C7B S2B 1.839(18)
C8B O4B 1.150(11)
C8B N2B 1.435(12)
C9B N1B 1.474(13)
C9B C10B 1.492(15)
C9B C12B 1.608(15)
C9B H9B 1.0000
C10B C11B 1.508(14)
C10B H10C 0.9900
C10B H10D 0.9900
C11B C12B 1.560(14)
C11B H11C 0.9900
C11B H11D 0.9900
C12B H12C 0.9900
C12B H12D 0.9900
C13B N2B 1.448(12)
C13B C14B 1.476(15)
C13B C16B 1.578(14)
C13B H13B 1.0000
C14B C15B 1.550(13)
C14B H14C 0.9900
C14B H14D 0.9900
C15B C16B 1.576(14)
C15B H15C 0.9900
C15B H15D 0.9900
C16B H16C 0.9900
C16B H16D 0.9900
C17B C18B 1.491(17)
C17B C31B 1.533(5)
C17B C30B 1.559(16)
C18B C23B 1.363(16)
C18B C19B 1.397(15)
C19B C20B 1.376(15)
C19B H19B 0.9500
C20B C21B 1.394(12)
C20B H20B 0.9500
C21B C22B 1.441(14)
C21B H21B 0.9500
C22B C23B 1.445(15)
C22B H22B 0.9500
C23B C24B 1.465(15)
C24B C25B 1.531(17)
C24B H24B 1.0000
C25B C26B 1.390(17)
C25B C30B 1.424(16)
C26B C27B 1.398(15)
C26B H26B 0.9500
C27B C28B 1.369(13)
C27B H27B 0.9500
C28B C29B 1.301(14)
C28B H28B 0.9500
C29B C30B 1.333(15)
C29B H29B 0.9500
C31B H31D 0.9800
C31B H31E 0.9800
C31B H31F 0.9800
C1C O1C 1.260(11)
C1C N1C 1.337(12)
C1C C2C 1.559(15)
C2C C3C 1.416(12)
C2C C17C 1.59(2)
C2C S1C 1.888(16)
C3C C4C 1.505(15)
C3C C24C 1.66(2)
C3C S2C 1.905(17)
C4C O2C 1.233(12)
C4C N1C 1.398(12)
C5C O3C 1.208(12)
C5C N2C 1.370(12)
C5C C6C 1.505(14)
C6C C7C 1.455(12)
C6C S1C 1.689(13)
C7C C8C 1.490(13)
C7C S2C 1.700(13)
C8C O4C 1.152(12)
C8C N2C 1.434(12)
C9C N1C 1.474(13)
C9C C10C 1.493(15)
C9C C12C 1.608(15)
C9C H9C 1.0000
C10C C11C 1.510(14)
C10C H10E 0.9900
C10C H10F 0.9900
C11C C12C 1.561(14)
C11C H11E 0.9900
C11C H11F 0.9900
C12C H12E 0.9900
C12C H12F 0.9900
C13C N2C 1.445(12)
C13C C14C 1.475(15)
C13C C16C 1.576(14)
C13C H13C 1.0000
C14C C15C 1.553(13)
C14C H14E 0.9900
C14C H14F 0.9900
C15C C16C 1.579(14)
C15C H15E 0.9900
C15C H15F 0.9900
C16C H16E 0.9900
C16C H16F 0.9900
C17C C18C 1.486(17)
C17C C31C 1.531(6)
C17C C30C 1.558(16)
C18C C23C 1.367(16)
C18C C19C 1.394(15)
C19C C20C 1.375(15)
C19C H19C 0.9500
C20C C21C 1.394(12)
C20C H20C 0.9500
C21C C22C 1.443(14)
C21C H21C 0.9500
C22C C23C 1.445(15)
C22C H22C 0.9500
C23C C24C 1.465(15)
C24C C25C 1.534(17)
C24C H24C 1.0000
C25C C26C 1.394(17)
C25C C30C 1.422(16)
C26C C27C 1.398(15)
C26C H26C 0.9500
C27C C28C 1.369(13)
C27C H27C 0.9500
C28C C29C 1.302(14)
C28C H28C 0.9500
C29C C30C 1.332(15)
C29C H29C 0.9500
C31C H31G 0.9800
C31C H31H 0.9800
C31C H31I 0.9800
loop_
_geom_torsion_atom_site_label_1
_geom_torsion_atom_site_label_2
_geom_torsion_atom_site_label_3
_geom_torsion_atom_site_label_4
_geom_torsion
O1A C1A C2A C3A 177.7
N1A C1A C2A C3A 0.3
O1A C1A C2A S1A -5.2
N1A C1A C2A S1A 177.3
C1A C2A C3A C4A -0.7
S1A C2A C3A C4A -177.4
C1A C2A C3A S2A -179.8
S1A C2A C3A S2A 3.6
C2A C3A C4A O2A -177.1
S2A C3A C4A O2A 2.0
C2A C3A C4A N1A 1.0
S2A C3A C4A N1A -179.8
O3A C5A C6A C7A -178.1
N2A C5A C6A C7A 0.7
O3A C5A C6A S1A -1.1
N2A C5A C6A S1A 177.7
C5A C6A C7A C8A -2.5
S1A C6A C7A C8A -178.9
C5A C6A C7A S2A 177.5
S1A C6A C7A S2A 1.0
C6A C7A C8A O4A -179.4
C6A C7A C8A N2A 3.2
S2A C7A C8A N2A -176.7
N1A C9A C10A C11A 143.8
C12A C9A C10A C11A 19.7
C9A C10A C11A C12A -19.9
C10A C11A C12A C9A 19.8
N1A C9A C12A C11A -145.0
C10A C9A C12A C11A -19.8
N2A C13A C14A C15A 149.4
C16A C13A C14A C15A 22.6
C13A C14A C15A C16A -22.0
N2A C13A C16A C15A -147.0
C14A C13A C16A C15A -22.5
C14A C15A C16A C13A 22.2
O2A C4A N1A C1A 177.4
C3A C4A N1A C1A -0.9
O2A C4A N1A C9A -13.5
C3A C4A N1A C9A 168.3
O1A C1A N1A C4A -176.9
C2A C1A N1A C4A 0.4
O1A C1A N1A C9A 14.1
C2A C1A N1A C9A -168.7
C10A C9A N1A C4A 125.1
C12A C9A N1A C4A -126.7
C10A C9A N1A C1A -67.4
C12A C9A N1A C1A 40.7
O4A C8A N2A C5A 179.7
C7A C8A N2A C5A -2.8
O4A C8A N2A C13A -7.6
C7A C8A N2A C13A 170.0
O3A C5A N2A C8A -179.8
C6A C5A N2A C8A 1.3
O3A C5A N2A C13A 6.9
C6A C5A N2A C13A -171.9
C16A C13A N2A C8A 60.6
C14A C13A N2A C8A -48.7
C16A C13A N2A C5A -127.5
C14A C13A N2A C5A 123.2
C3A C2A S1A C6A -1.3
C1A C2A S1A C6A -177.5
C7A C6A S1A C2A -0.9
C5A C6A S1A C2A -177.2
C2A C3A S2A C7A -2.8
C4A C3A S2A C7A 178.3
C6A C7A S2A C3A 0.6
C8A C7A S2A C3A -179.5
C30A C17A C18A C19A 175.9
C31A C17A C18A C19A -2.6
C30A C17A C18A C23A -1.2
C31A C17A C18A C23A -179.7
C17A C18A C19A C20A -179.9
C23A C18A C19A C20A -3.0
C18A C19A C20A C21A 0.6
C19A C20A C21A C22A 1.6
C20A C21A C22A C23A -1.4
C21A C22A C23A C24A -178.6
C21A C22A C23A C18A -0.8
C19A C18A C23A C24A -179.2
C17A C18A C23A C24A -2.2
C19A C18A C23A C22A 3.1
C17A C18A C23A C22A -179.8
C22A C23A C24A C25A -179.1
C18A C23A C24A C25A 3.4
C23A C24A C25A C30A -1.3
C23A C24A C25A C26A 178.7
C24A C25A C26A C27A 177.7
C30A C25A C26A C27A -2.3
C25A C26A C27A C28A 1.1
C26A C27A C28A C29A 1.0
C27A C28A C29A C30A -1.5
C18A C17A C30A C25A 3.0
C31A C17A C30A C25A -178.5
C18A C17A C30A C29A 179.6
C31A C17A C30A C29A -1.9
C24A C25A C30A C17A -1.6
C26A C25A C30A C17A 178.3
C24A C25A C30A C29A -178.3
C26A C25A C30A C29A 1.6
C28A C29A C30A C17A -176.3
C28A C29A C30A C25A 0.1
O1B C1B C2B C3B 170(3)
N1B C1B C2B C3B -15(3)
O1B C1B C2B S1B 0(4)
N1B C1B C2B S1B 175.8(17)
C1B C2B C3B C4B 12(2)
S1B C2B C3B C4B -178.9(19)
C1B C2B C3B S2B 177.5(17)
S1B C2B C3B S2B -13(3)
C2B C3B C4B O2B 174(4)
S2B C3B C4B O2B 10(5)
C2B C3B C4B N1B -6(3)
S2B C3B C4B N1B -169.9(19)
O3B C5B C6B C7B -169(3)
N2B C5B C6B C7B 3(3)
O3B C5B C6B C17B 76(3)
N2B C5B C6B C17B -111(2)
O3B C5B C6B S1B -38(4)
N2B C5B C6B S1B 134.8(19)
C5B C6B C7B C8B 2(3)
C17B C6B C7B C8B 113.6(17)
S1B C6B C7B C8B -119.8(16)
C5B C6B C7B C24B -113.1(17)
C17B C6B C7B C24B -1.9(12)
S1B C6B C7B C24B 124.8(15)
C5B C6B C7B S2B 116.7(18)
C17B C6B C7B S2B -132.0(13)
S1B C6B C7B S2B -5.3(18)
C6B C7B C8B O4B 175(4)
C24B C7B C8B O4B -63(4)
S2B C7B C8B O4B 49(4)
C6B C7B C8B N2B -7(3)
C24B C7B C8B N2B 114.4(18)
S2B C7B C8B N2B -133.2(18)
N1B C9B C10B C11B 142.4(13)
C12B C9B C10B C11B 25.2(11)
C9B C10B C11B C12B -26.0(12)
C10B C11B C12B C9B 24.2(11)
N1B C9B C12B C11B -147.2(12)
C10B C9B C12B C11B -24.5(11)
N2B C13B C14B C15B 142.5(13)
C16B C13B C14B C15B 18.7(11)
C13B C14B C15B C16B -18.8(12)
C14B C15B C16B C13B 17.5(11)
N2B C13B C16B C15B -150.4(12)
C14B C13B C16B C15B -18.4(11)
O1B C1B N1B C4B -173(3)
C2B C1B N1B C4B 11(3)
O1B C1B N1B C9B -2(4)
C2B C1B N1B C9B -178.0(18)
O2B C4B N1B C1B 177(4)
C3B C4B N1B C1B -4(3)
O2B C4B N1B C9B 5(5)
C3B C4B N1B C9B -175.1(19)
C10B C9B N1B C1B -47(3)
C12B C9B N1B C1B 56(3)
C10B C9B N1B C4B 124(2)
C12B C9B N1B C4B -134(2)
O3B C5B N2B C8B 164(3)
C6B C5B N2B C8B -8(3)
O3B C5B N2B C13B -10(4)
C6B C5B N2B C13B 177.5(17)
O4B C8B N2B C5B -172(4)
C7B C8B N2B C5B 10(3)
O4B C8B N2B C13B 2(4)
C7B C8B N2B C13B -176.1(17)
C14B C13B N2B C5B 125(2)
C16B C13B N2B C5B -124(2)
C14B C13B N2B C8B -49(3)
C16B C13B N2B C8B 63(2)
C3B C2B S1B C6B 46(2)
C1B C2B S1B C6B -146.6(19)
C7B C6B S1B C2B -33.2(15)
C5B C6B S1B C2B -155.8(13)
C17B C6B S1B C2B 93.4(10)
C2B C3B S2B C7B -32.2(18)
C4B C3B S2B C7B 130(2)
C6B C7B S2B C3B 39.7(15)
C8B C7B S2B C3B 157.1(12)
C24B C7B S2B C3B -93.0(10)
C7B C6B C17B C18B -55.4(12)
C5B C6B C17B C18B 58.2(12)
S1B C6B C17B C18B 170.6(9)
C7B C6B C17B C31B 178.6(9)
C5B C6B C17B C31B -67.7(12)
S1B C6B C17B C31B 44.7(13)
C7B C6B C17B C30B 62.3(11)
C5B C6B C17B C30B 175.9(10)
S1B C6B C17B C30B -71.6(10)
C31B C17B C18B C23B -168.9(14)
C30B C17B C18B C23B -49.2(17)
C6B C17B C18B C23B 62.0(17)
C31B C17B C18B C19B 14(2)
C30B C17B C18B C19B 133.4(16)
C6B C17B C18B C19B -115.3(17)
C23B C18B C19B C20B 0(3)
C17B C18B C19B C20B 176.5(17)
C18B C19B C20B C21B 0(3)
C19B C20B C21B C22B -2(3)
C20B C21B C22B C23B 4(3)
C19B C18B C23B C22B 3(3)
C17B C18B C23B C22B -174.5(14)
C19B C18B C23B C24B 171.2(16)
C17B C18B C23B C24B -6(2)
C21B C22B C23B C18B -4(3)
C21B C22B C23B C24B -172.5(16)
C18B C23B C24B C25B 55.9(19)
C22B C23B C24B C25B -136.2(16)
C18B C23B C24B C7B -52.0(19)
C22B C23B C24B C7B 115.8(16)
C6B C7B C24B C23B 53.7(13)
C8B C7B C24B C23B -63.0(13)
S2B C7B C24B C23B -170.5(8)
C6B C7B C24B C25B -54.9(13)
C8B C7B C24B C25B -171.5(11)
S2B C7B C24B C25B 80.9(11)
C23B C24B C25B C26B 129(2)
C7B C24B C25B C26B -122(2)
C23B C24B C25B C30B -54.1(19)
C7B C24B C25B C30B 54.7(19)
C30B C25B C26B C27B -8(3)
C24B C25B C26B C27B 169(2)
C25B C26B C27B C28B 4(4)
C26B C27B C28B C29B 9(5)
C27B C28B C29B C30B -17(5)
C28B C29B C30B C25B 12(3)
C28B C29B C30B C17B -170(2)
C26B C25B C30B C29B 0(3)
C24B C25B C30B C29B -176.7(16)
C26B C25B C30B C17B -177.7(14)
C24B C25B C30B C17B 5(2)
C18B C17B C30B C29B -129.9(19)
C31B C17B C30B C29B -7(2)
C6B C17B C30B C29B 117.2(19)
C18B C17B C30B C25B 48.2(18)
C31B C17B C30B C25B 171.3(13)
C6B C17B C30B C25B -64.7(16)
O1C C1C C2C C3C -178(3)
N1C C1C C2C C3C 5(3)
O1C C1C C2C C17C 61(4)
N1C C1C C2C C17C -116(2)
O1C C1C C2C S1C -53(3)
N1C C1C C2C S1C 130(2)
C1C C2C C3C C4C 1(3)
C17C C2C C3C C4C 120.8(18)
S1C C2C C3C C4C -112.1(19)
C1C C2C C3C C24C -117.8(18)
C17C C2C C3C C24C 2.2(13)
S1C C2C C3C C24C 129.3(14)
C1C C2C C3C S2C 116.1(18)
C17C C2C C3C S2C -124.0(15)
S1C C2C C3C S2C 3.1(18)
C2C C3C C4C O2C 180(4)
C24C C3C C4C O2C -60(4)
S2C C3C C4C O2C 50(4)
C2C C3C C4C N1C -6(3)
C24C C3C C4C N1C 115(2)
S2C C3C C4C N1C -136(2)
O3C C5C C6C C7C 165(3)
N2C C5C C6C C7C -4(3)
O3C C5C C6C S1C -8(4)
N2C C5C C6C S1C -177.6(16)
C5C C6C C7C C8C 5(2)
S1C C6C C7C C8C 177.8(17)
C5C C6C C7C S2C 176.4(17)
S1C C6C C7C S2C -11(2)
C6C C7C C8C O4C -177(3)
S2C C7C C8C O4C 12(5)
C6C C7C C8C N2C -3(2)
S2C C7C C8C N2C -174.0(17)
N1C C9C C10C C11C 143.6(12)
C12C C9C C10C C11C 26.1(10)
C9C C10C C11C C12C -27.0(11)
C10C C11C C12C C9C 25.1(10)
N1C C9C C12C C11C -148.4(12)
C10C C9C C12C C11C -25.4(10)
N2C C13C C14C C15C 147.6(13)
C16C C13C C14C C15C 21.8(9)
C13C C14C C15C C16C -21.8(10)
N2C C13C C16C C15C -155.6(11)
C14C C13C C16C C15C -21.5(9)
C14C C15C C16C C13C 20.4(9)
O1C C1C N1C C4C 174(3)
C2C C1C N1C C4C -9(3)
O1C C1C N1C C9C -6(5)
C2C C1C N1C C9C 171(2)
O2C C4C N1C C1C -176(4)
C3C C4C N1C C1C 9(3)
O2C C4C N1C C9C 4(4)
C3C C4C N1C C9C -170.3(19)
C10C C9C N1C C1C -59(3)
C12C C9C N1C C1C 44(3)
C10C C9C N1C C4C 120(2)
C12C C9C N1C C4C -136(2)
O3C C5C N2C C8C -167(3)
C6C C5C N2C C8C 2(3)
O3C C5C N2C C13C 20(4)
C6C C5C N2C C13C -170.4(16)
O4C C8C N2C C5C 175(4)
C7C C8C N2C C5C 1(3)
O4C C8C N2C C13C -13(4)
C7C C8C N2C C13C 173.3(17)
C14C C13C N2C C5C 128(2)
C16C C13C N2C C5C -119(2)
C14C C13C N2C C8C -44(2)
C16C C13C N2C C8C 69(2)
C7C C6C S1C C2C 48.9(19)
C5C C6C S1C C2C -139.3(19)
C3C C2C S1C C6C -41.6(14)
C1C C2C S1C C6C -156.0(13)
C17C C2C S1C C6C 87.2(10)
C6C C7C S2C C3C -33.3(18)
C8C C7C S2C C3C 136(2)
C2C C3C S2C C7C 35.8(16)
C4C C3C S2C C7C 154.6(13)
C24C C3C S2C C7C -93.0(10)
C3C C2C C17C C18C 55.5(14)
C1C C2C C17C C18C 171.6(12)
S1C C2C C17C C18C -77.6(11)
C3C C2C C17C C31C -178.2(10)
C1C C2C C17C C31C -62.1(14)
S1C C2C C17C C31C 48.7(12)
C3C C2C C17C C30C -62.8(13)
C1C C2C C17C C30C 53.4(13)
S1C C2C C17C C30C 164.2(8)
C31C C17C C18C C23C 170.8(13)
C30C C17C C18C C23C 50.4(18)
C2C C17C C18C C23C -61.9(17)
C31C C17C C18C C19C -10(2)
C30C C17C C18C C19C -130.1(16)
C2C C17C C18C C19C 117.7(16)
C23C C18C C19C C20C -2(3)
C17C C18C C19C C20C 178.9(17)
C18C C19C C20C C21C 5(3)
C19C C20C C21C C22C -1(3)
C20C C21C C22C C23C -6(3)
C19C C18C C23C C22C -5(3)
C17C C18C C23C C22C 174.3(14)
C19C C18C C23C C24C -173.9(15)
C17C C18C C23C C24C 6(2)
C21C C22C C23C C18C 9(3)
C21C C22C C23C C24C 176.8(16)
C18C C23C C24C C25C -55.6(19)
C22C C23C C24C C25C 136.5(16)
C18C C23C C24C C3C 51.6(19)
C22C C23C C24C C3C -116.3(16)
C2C C3C C24C C23C -53.8(13)
C4C C3C C24C C23C -171.9(11)
S2C C3C C24C C23C 81.7(10)
C2C C3C C24C C25C 55.1(13)
C4C C3C C24C C25C -62.9(13)
S2C C3C C24C C25C -169.3(9)
C23C C24C C25C C26C -141.8(19)
C3C C24C C25C C26C 110(2)
C23C C24C C25C C30C 52.7(18)
C3C C24C C25C C30C -55.7(17)
C30C C25C C26C C27C -7(3)
C24C C25C C26C C27C -173(2)
C25C C26C C27C C28C 11(4)
C26C C27C C28C C29C -16(4)
C27C C28C C29C C30C 18(4)
C28C C29C C30C C25C -15(3)
C28C C29C C30C C17C 165(2)
C26C C25C C30C C29C 9(3)
C24C C25C C30C C29C 176.7(16)
C26C C25C C30C C17C -171.1(14)
C24C C25C C30C C17C -3(2)
C18C C17C C30C C29C 129.9(18)
C31C C17C C30C C29C 6(2)
C2C C17C C30C C29C -116.0(18)
C18C C17C C30C C25C -50.5(17)
C31C C17C C30C C25C -174.8(13)
C2C C17C C30C C25C 63.6(16)
