#------------------------------------------------------------------------------
#$Date: 2019-11-24 23:54:12 +0200 (Sun, 24 Nov 2019) $
#$Revision: 239740 $
#$URL: file:///home/coder/svn-repositories/cod/cif/4/51/71/4517118.cif $
#------------------------------------------------------------------------------
#
# This file is available in the Crystallography Open Database (COD),
# http://www.crystallography.net/
#
# All data on this site have been placed in the public domain by the
# contributors.
#
data_4517118
loop_
_publ_author_name
'Behrnd, Norwid-Rasmus'
'Labat, Ga\"el'
'Venugopalan, Paloth'
'Hulliger, J\"urg'
'B\"urgi, Hans-Beat'
_publ_section_title
;
 Orientational Disorder of (trans)-4-Chloro-4&#x2032;-nitrostilbene: A
 Detailed Analysis by Single Crystal X-ray Diffraction
;
_journal_issue                   1
_journal_name_full               'Crystal Growth &amp; Design'
_journal_page_first              52
_journal_paper_doi               10.1021/cg801278j
_journal_volume                  10
_journal_year                    2010
_chemical_formula_moiety         'C14 H10 Cl N O2'
_chemical_formula_sum            'C14 H10 Cl N O2'
_chemical_formula_weight         259.68
_space_group_IT_number           4
_space_group_name_Hall           'P 2ybc'
_space_group_name_H-M_alt        'P 1 21 1 (a,b,c-1/4)'
_symmetry_cell_setting           monoclinic
_symmetry_space_group_name_Hall  'P 2ybc'
_symmetry_space_group_name_H-M   'P 1 21 1 (a,b,c-1/4)'
_atom_sites_solution_hydrogens   geom
_atom_sites_solution_primary     direct
_atom_sites_solution_secondary   difmap
_audit_creation_method           SHELXL-97
_cell_angle_alpha                90.00
_cell_angle_beta                 93.2678(15)
_cell_angle_gamma                90.00
_cell_formula_units_Z            2
_cell_length_a                   3.91837(6)
_cell_length_b                   12.95759(18)
_cell_length_c                   12.20622(18)
_cell_measurement_reflns_used    2857
_cell_measurement_temperature    293(2)
_cell_measurement_theta_max      31.8601
_cell_measurement_theta_min      4.7132
_cell_volume                     618.734(16)
_computing_cell_refinement       'SAINT (Bruker, 2003)'
_computing_data_collection       'SMART (Bruker, 1997)'
_computing_data_reduction        'SHELXTL (Bruker, 2000)'
_computing_molecular_graphics    'PLATON  (Spek, 2003)'
_computing_publication_material  SHELXL-97
_computing_structure_refinement  'SHELXL-97 (Sheldrick, 1997)'
_computing_structure_solution    'SHELXS-97 (Sheldrick, 1990)'
_diffrn_ambient_temperature      293(2)
_diffrn_detector_area_resol_mean 8.2896
_diffrn_measured_fraction_theta_full 0.993
_diffrn_measured_fraction_theta_max 0.993
_diffrn_measurement_device_type  'Kuma 6-circle'
_diffrn_measurement_method       'omega scan method'
_diffrn_radiation_monochromator  synchrotron
_diffrn_radiation_source         synchrotron
_diffrn_radiation_type           synchrotron
_diffrn_radiation_wavelength     0.71000
_diffrn_reflns_av_R_equivalents  0.0260
_diffrn_reflns_av_sigmaI/netI    0.0314
_diffrn_reflns_limit_h_max       4
_diffrn_reflns_limit_h_min       -4
_diffrn_reflns_limit_k_max       16
_diffrn_reflns_limit_k_min       -16
_diffrn_reflns_limit_l_max       15
_diffrn_reflns_limit_l_min       -15
_diffrn_reflns_number            7410
_diffrn_reflns_theta_full        26.37
_diffrn_reflns_theta_max         26.37
_diffrn_reflns_theta_min         3.56
_diffrn_standards_decay_%        0
_diffrn_standards_interval_time  0
_exptl_absorpt_coefficient_mu    0.301
_exptl_absorpt_correction_T_max  1
_exptl_absorpt_correction_T_min  0.910412
_exptl_absorpt_correction_type   multi-scan
_exptl_absorpt_process_details   'SADABS (Bruker, 2004)'
_exptl_crystal_colour            yellow
_exptl_crystal_density_diffrn    1.394
_exptl_crystal_density_method    'not measured'
_exptl_crystal_description       'prismatic rod'
_exptl_crystal_F_000             268
_exptl_crystal_size_max          0.163
_exptl_crystal_size_mid          0.125
_exptl_crystal_size_min          0.106
_refine_diff_density_max         0.120
_refine_diff_density_min         -0.124
_refine_diff_density_rms         0.024
_refine_ls_abs_structure_details 'Flack H D (1983), Acta Cryst. A39, 876-881'
_refine_ls_abs_structure_Flack   1.0(5)
_refine_ls_extinction_method     none
_refine_ls_goodness_of_fit_ref   1.150
_refine_ls_hydrogen_treatment    constr
_refine_ls_matrix_type           full
_refine_ls_number_parameters     101
_refine_ls_number_reflns         2487
_refine_ls_number_restraints     1
_refine_ls_restrained_S_all      1.150
_refine_ls_R_factor_all          0.0565
_refine_ls_R_factor_gt           0.0488
_refine_ls_shift/su_max          0.000
_refine_ls_shift/su_mean         0.000
_refine_ls_structure_factor_coef Fsqd
_refine_ls_weighting_details
'calc w=1/[\s^2^(Fo^2^)+(0.0693P)^2^+0.0666P] where P=(Fo^2^+2Fc^2^)/3'
_refine_ls_weighting_scheme      calc
_refine_ls_wR_factor_gt          0.1608
_refine_ls_wR_factor_ref         0.1680
_reflns_number_gt                2048
_reflns_number_total             2487
_reflns_threshold_expression     I>2sigma(I)
_cod_data_source_file            cg801278j_si_003.cif
_cod_data_source_block           CNS-Slice4-small-P21/c
_cod_original_sg_symbol_Hall     P2ybc
_cod_original_sg_symbol_H-M      P21/c
_cod_database_code               4517118
loop_
_symmetry_equiv_pos_as_xyz
'x, y, z'
'-x, y+1/2, -z+1/2'
loop_
_atom_site_label
_atom_site_type_symbol
_atom_site_fract_x
_atom_site_fract_y
_atom_site_fract_z
_atom_site_U_iso_or_equiv
_atom_site_adp_type
_atom_site_occupancy
_atom_site_symmetry_multiplicity
_atom_site_calc_flag
_atom_site_refinement_flags
Cl1 Cl 0.3676(9) -0.4609(2) -0.1738(3) 0.1119(6) Uani 0.50 1 d P
N11 N 0.364(2) -0.4145(5) -0.1744(7) 0.0837(10) Uani 0.50 1 d P
O11 O 0.316(2) -0.5007(5) -0.1249(6) 0.1321(14) Uani 0.50 1 d P
O12 O 0.5022(14) -0.4128(4) -0.2577(4) 0.1177(8) Uani 0.50 1 d P
C1 C 0.2613(6) -0.3297(2) -0.1234(2) 0.0775(4) Uani 1 1 d .
C2 C 0.3161(6) -0.2396(2) -0.17909(19) 0.0813(4) Uani 1 1 d .
H2A H 0.4149 -0.2411 -0.2466 0.098 Uiso 1 1 calc R
C3 C 0.2236(3) -0.14758(10) -0.13414(10) 0.0782(4) Uani 1 1 d .
H3A H 0.2585 -0.0866 -0.1721 0.094 Uiso 1 1 calc R
C4 C 0.0780(3) -0.14360(9) -0.03246(9) 0.0686(3) Uani 1 1 d .
C5 C 0.0274(3) -0.23620(10) 0.02107(10) 0.0751(4) Uani 1 1 d .
H5A H -0.0712 -0.2352 0.0886 0.090 Uiso 1 1 calc R
C6 C 0.1181(3) -0.32973(10) -0.02231(11) 0.0796(4) Uani 1 1 d .
H6A H 0.0843 -0.3910 0.0152 0.096 Uiso 1 1 calc R
C7 C -0.0249(2) -0.04650(6) 0.01860(7) 0.0737(4) Uani 1 1 d .
H7 H -0.1361 -0.0518 0.0837 0.088 Uiso 1 1 calc R
Cl11 Cl -0.3700(2) 0.46043(6) 0.17530(7) 0.1119(6) Uani 0.50 1 d PR
N1 N -0.3618(2) 0.41614(6) 0.17161(7) 0.0837(10) Uani 0.50 1 d PR
O1 O -0.3159(2) 0.49818(6) 0.12324(7) 0.1321(14) Uani 0.50 1 d PR
O2 O -0.5033(2) 0.41205(6) 0.25801(7) 0.1177(8) Uani 0.50 1 d PR
C11 C -0.2619(2) 0.32968(6) 0.12275(7) 0.0775(4) Uani 1 1 d R
C12 C -0.3164(2) 0.23941(6) 0.17899(7) 0.0813(4) Uani 1 1 d R
H12A H -0.4150 0.2410 0.2465 0.098 Uiso 1 1 calc R
C13 C -0.2236(3) 0.14758(10) 0.13414(10) 0.0782(4) Uani 1 1 d .
H13A H -0.2581 0.0866 0.1721 0.094 Uiso 1 1 calc R
C14 C -0.0780(3) 0.14360(9) 0.03246(9) 0.0686(3) Uani 1 1 d .
C15 C -0.0274(3) 0.23620(10) -0.02107(10) 0.0751(4) Uani 1 1 d .
H15A H 0.0712 0.2352 -0.0886 0.090 Uiso 1 1 calc R
C16 C -0.1181(3) 0.32973(10) 0.02231(11) 0.0796(4) Uani 1 1 d .
H16A H -0.0835 0.3911 -0.0150 0.096 Uiso 1 1 calc R
C17 C 0.0249(2) 0.04650(6) -0.01860(7) 0.0737(4) Uani 1 1 d .
H17 H 0.1361 0.0518 -0.0837 0.088 Uiso 1 1 calc R
loop_
_atom_site_aniso_label
_atom_site_aniso_U_11
_atom_site_aniso_U_22
_atom_site_aniso_U_33
_atom_site_aniso_U_23
_atom_site_aniso_U_13
_atom_site_aniso_U_12
Cl1 0.1144(8) 0.0885(11) 0.1327(12) -0.0396(11) 0.0053(8) 0.0219(10)
N11 0.0834(17) 0.065(2) 0.102(2) -0.0017(19) -0.0008(15) 0.0066(18)
O11 0.179(3) 0.0694(17) 0.152(3) 0.0103(16) 0.041(2) 0.0168(16)
O12 0.155(2) 0.0930(15) 0.1082(15) -0.0282(13) 0.0339(15) 0.0186(13)
C1 0.0641(7) 0.0893(9) 0.0786(8) -0.0155(6) -0.0004(5) 0.0063(6)
C2 0.0725(8) 0.1043(10) 0.0679(7) -0.0043(6) 0.0112(6) -0.0019(6)
C3 0.0757(7) 0.0852(8) 0.0744(7) 0.0066(6) 0.0096(6) -0.0034(6)
C4 0.0577(6) 0.0781(7) 0.0698(7) -0.0031(5) 0.0022(5) -0.0015(5)
C5 0.0728(7) 0.0843(8) 0.0688(7) 0.0003(5) 0.0103(5) 0.0002(6)
C6 0.0781(8) 0.0804(8) 0.0804(8) 0.0029(6) 0.0050(6) 0.0021(6)
C7 0.0660(7) 0.0840(8) 0.0716(7) 0.0020(5) 0.0082(5) -0.0025(5)
Cl11 0.1144(8) 0.0885(11) 0.1327(12) -0.0396(11) 0.0053(8) 0.0219(10)
N1 0.0834(17) 0.065(2) 0.102(2) -0.0017(19) -0.0008(15) 0.0066(18)
O1 0.179(3) 0.0694(17) 0.152(3) 0.0103(16) 0.041(2) 0.0168(16)
O2 0.155(2) 0.0930(15) 0.1082(15) -0.0282(13) 0.0339(15) 0.0186(13)
C11 0.0641(7) 0.0893(9) 0.0786(8) -0.0155(6) -0.0004(5) 0.0063(6)
C12 0.0725(8) 0.1043(10) 0.0679(7) -0.0043(6) 0.0112(6) -0.0019(6)
C13 0.0757(7) 0.0852(8) 0.0744(7) 0.0066(6) 0.0096(6) -0.0034(6)
C14 0.0577(6) 0.0781(7) 0.0698(7) -0.0031(5) 0.0022(5) -0.0015(5)
C15 0.0728(7) 0.0843(8) 0.0688(7) 0.0003(5) 0.0103(5) 0.0002(6)
C16 0.0781(8) 0.0804(8) 0.0804(8) 0.0029(6) 0.0050(6) 0.0021(6)
C17 0.0660(7) 0.0840(8) 0.0716(7) 0.0020(5) 0.0082(5) -0.0025(5)
loop_
_atom_type_symbol
_atom_type_description
_atom_type_scat_dispersion_real
_atom_type_scat_dispersion_imag
_atom_type_scat_source
C C 0.0033 0.0016 'International Tables Vol C Tables 4.2.6.8 and 6.1.1.4'
H H 0.0000 0.0000 'International Tables Vol C Tables 4.2.6.8 and 6.1.1.4'
N N 0.0061 0.0033 'International Tables Vol C Tables 4.2.6.8 and 6.1.1.4'
O O 0.0106 0.0060 'International Tables Vol C Tables 4.2.6.8 and 6.1.1.4'
Cl Cl 0.1484 0.1585 'International Tables Vol C Tables 4.2.6.8 and 6.1.1.4'
loop_
_geom_angle_atom_site_label_1
_geom_angle_atom_site_label_2
_geom_angle_atom_site_label_3
_geom_angle
N11 Cl1 O11 128.9(15)
N11 Cl1 O12 62.2(11)
O11 Cl1 O12 167.1(7)
N11 Cl1 C1 23.9(11)
O11 Cl1 C1 105.3(6)
O12 Cl1 C1 86.1(3)
Cl1 N11 O12 90.9(12)
Cl1 N11 O11 29.8(10)
O12 N11 O11 120.4(7)
Cl1 N11 C1 145.6(15)
O12 N11 C1 123.5(7)
O11 N11 C1 116.0(7)
Cl1 O11 N11 21.3(5)
N11 O12 Cl1 26.8(3)
N11 C1 C6 124.3(4)
N11 C1 C2 114.2(4)
C6 C1 C2 121.6(2)
N11 C1 Cl1 10.5(5)
C6 C1 Cl1 113.8(2)
C2 C1 Cl1 124.6(2)
C3 C2 C1 119.3(2)
C3 C2 H2A 120.4
C1 C2 H2A 120.4
C2 C3 C4 121.26(16)
C2 C3 H3A 119.4
C4 C3 H3A 119.4
C5 C4 C3 117.63(11)
C5 C4 C7 119.41(11)
C3 C4 C7 122.96(11)
C6 C5 C4 122.25(12)
C6 C5 H5A 118.9
C4 C5 H5A 118.9
C1 C6 C5 117.98(16)
C1 C6 H6A 121.0
C5 C6 H6A 121.0
C17 C7 C4 126.29(12)
C17 C7 H7 116.9
C4 C7 H7 116.9
N1 Cl11 O1 120.3
N1 Cl11 O2 67.3
O1 Cl11 O2 169.7
N1 Cl11 C11 19.3
O1 Cl11 C11 101.4
O2 Cl11 C11 86.5
Cl11 N1 O2 86.9
Cl11 N1 O1 35.9
O2 N1 O1 122.5
Cl11 N1 C11 152.5
O2 N1 C11 120.5
O1 N1 C11 117.0
Cl11 O1 N1 23.8
N1 O2 Cl11 25.8
N1 C11 C16 122.75(6)
N1 C11 C12 115.5
C16 C11 C12 121.74(6)
N1 C11 Cl11 8.2
C16 C11 Cl11 114.65(6)
C12 C11 Cl11 123.6
C13 C12 C11 119.10(7)
C13 C12 H12A 120.4
C11 C12 H12A 120.4
C12 C13 C14 121.29(12)
C12 C13 H13A 119.4
C14 C13 H13A 119.4
C15 C14 C13 117.63(11)
C15 C14 C17 119.41(11)
C13 C14 C17 122.96(11)
C16 C15 C14 122.25(12)
C16 C15 H15A 118.9
C14 C15 H15A 118.9
C11 C16 C15 117.98(11)
C11 C16 H16A 121.0
C15 C16 H16A 121.0
C7 C17 C14 126.29(12)
C7 C17 H17 116.9
C14 C17 H17 116.9
loop_
_geom_bond_atom_site_label_1
_geom_bond_atom_site_label_2
_geom_bond_distance
Cl1 N11 0.601(6)
Cl1 O11 0.824(5)
Cl1 O12 1.333(6)
Cl1 C1 1.862(3)
N11 O12 1.180(10)
N11 O11 1.289(10)
N11 C1 1.335(7)
C1 C6 1.385(3)
C1 C2 1.374(4)
C2 C3 1.370(3)
C2 H2A 0.9300
C3 C4 1.3962(18)
C3 H3A 0.9300
C4 C5 1.3858(17)
C4 C7 1.4706(15)
C5 C6 1.3773(17)
C5 H5A 0.9300
C6 H6A 0.9300
C7 C17 1.3064(17)
C7 H7 0.9300
Cl11 N1 0.5767
Cl11 O1 0.8387
Cl11 O2 1.3210
Cl11 C11 1.8687
N1 O2 1.2201
N1 O1 1.2343
N1 C11 1.3382
C11 C16 1.3780(16)
C11 C12 1.3790
C12 C13 1.3677(15)
C12 H12A 0.9300
C13 C14 1.3962(18)
C13 H13A 0.9300
C14 C15 1.3858(17)
C14 C17 1.4706(15)
C15 C16 1.3773(17)
C15 H15A 0.9300
C16 H16A 0.9300
C17 H17 0.9300
loop_
_geom_torsion_atom_site_label_1
_geom_torsion_atom_site_label_2
_geom_torsion_atom_site_label_3
_geom_torsion_atom_site_label_4
_geom_torsion
O11 Cl1 N11 O12 172.3(10)
C1 Cl1 N11 O12 -178(3)
O12 Cl1 N11 O11 -172.3(10)
C1 Cl1 N11 O11 10(3)
O11 Cl1 N11 C1 -10(3)
O12 Cl1 N11 C1 178(3)
O12 Cl1 O11 N11 148(4)
C1 Cl1 O11 N11 -4.2(13)
O12 N11 O11 Cl1 -8.9(12)
C1 N11 O11 Cl1 174(2)
O11 N11 O12 Cl1 4.4(6)
C1 N11 O12 Cl1 -178.5(17)
O11 Cl1 O12 N11 -152(4)
C1 Cl1 O12 N11 0.9(10)
Cl1 N11 C1 C6 7(3)
O12 N11 C1 C6 -175.7(6)
O11 N11 C1 C6 1.5(11)
Cl1 N11 C1 C2 -174(2)
O12 N11 C1 C2 3.0(10)
O11 N11 C1 C2 -179.8(7)
O12 N11 C1 Cl1 177(3)
O11 N11 C1 Cl1 -5.5(17)
O11 Cl1 C1 N11 172(3)
O12 Cl1 C1 N11 -2(2)
N11 Cl1 C1 C6 -174(2)
O11 Cl1 C1 C6 -1.7(7)
O12 Cl1 C1 C6 -175.7(3)
N11 Cl1 C1 C2 6(2)
O11 Cl1 C1 C2 178.3(7)
O12 Cl1 C1 C2 4.3(4)
N11 C1 C2 C3 -179.5(4)
C6 C1 C2 C3 -0.7(4)
Cl1 C1 C2 C3 179.3(2)
C1 C2 C3 C4 0.6(3)
C2 C3 C4 C5 -0.5(2)
C2 C3 C4 C7 -179.98(15)
C3 C4 C5 C6 0.56(19)
C7 C4 C5 C6 -179.98(10)
N11 C1 C6 C5 179.3(5)
C2 C1 C6 C5 0.7(3)
Cl1 C1 C6 C5 -179.28(16)
C4 C5 C6 C1 -0.6(2)
C5 C4 C7 C17 175.65(12)
C3 C4 C7 C17 -4.93(19)
O1 Cl11 N1 O2 -172.1
C11 Cl11 N1 O2 175.1
O2 Cl11 N1 O1 172.1
C11 Cl11 N1 O1 -12.9
O1 Cl11 N1 C11 12.9
O2 Cl11 N1 C11 -175.1
O2 Cl11 O1 N1 -134.8
C11 Cl11 O1 N1 4.3
O2 N1 O1 Cl11 9.4
C11 N1 O1 Cl11 -173.4
O1 N1 O2 Cl11 -5.5
C11 N1 O2 Cl11 177.3
O1 Cl11 O2 N1 138.4
C11 Cl11 O2 N1 -1.6
Cl11 N1 C11 C16 -9.37(8)
O2 N1 C11 C16 176.37(8)
O1 N1 C11 C16 -0.93(8)
Cl11 N1 C11 C12 171.5
O2 N1 C11 C12 -2.8
O1 N1 C11 C12 179.9
O2 N1 C11 Cl11 -174.3
O1 N1 C11 Cl11 8.4
O1 Cl11 C11 N1 -168.7
O2 Cl11 C11 N1 4.6
N1 Cl11 C11 C16 171.34(7)
O1 Cl11 C11 C16 2.66(7)
O2 Cl11 C11 C16 175.91(7)
N1 Cl11 C11 C12 -9.2
O1 Cl11 C11 C12 -177.9
O2 Cl11 C11 C12 -4.7
N1 C11 C12 C13 179.53(7)
C16 C11 C12 C13 0.38(10)
Cl11 C11 C12 C13 -179.02(7)
C11 C12 C13 C14 -0.56(14)
C12 C13 C14 C15 0.65(18)
C12 C13 C14 C17 -179.92(8)
C13 C14 C15 C16 -0.56(19)
C17 C14 C15 C16 179.98(10)
N1 C11 C16 C15 -179.38(8)
C12 C11 C16 C15 -0.29(14)
Cl11 C11 C16 C15 179.16(9)
C14 C15 C16 C11 0.39(18)
C4 C7 C17 C14 180.0
C15 C14 C17 C7 -175.65(12)
C13 C14 C17 C7 4.93(19)
