#------------------------------------------------------------------------------
#$Date: 2019-11-24 23:39:46 +0200 (Sun, 24 Nov 2019) $
#$Revision: 239720 $
#$URL: file:///home/coder/svn-repositories/cod/cif/4/51/70/4517063.cif $
#------------------------------------------------------------------------------
#
# This file is available in the Crystallography Open Database (COD),
# http://www.crystallography.net/
#
# All data on this site have been placed in the public domain by the
# contributors.
#
data_4517063
loop_
_publ_author_name
'Khorasani, Sanaz'
'Fernandes, Manuel A.'
_publ_section_title
;
 Cooperativity and Feedback Mechanisms in the
 Single-Crystal-to-Single-Crystal Solid-State Diels--Alder Reaction of
 9-Methylanthracene with Bis(N-cyclobutylimino)-1,4-dithiin
;
_journal_issue                   12
_journal_name_full               'Crystal Growth &amp; Design'
_journal_page_first              5499
_journal_paper_doi               10.1021/cg401474f
_journal_volume                  13
_journal_year                    2013
_chemical_formula_moiety
'0.12(C31 H26 N2 O4 S2), 0.88(C16 H14 N2 O4 S2), 0.88(C15 H12)'
_chemical_formula_sum            'C31 H26 N2 O4 S2'
_chemical_formula_weight         554.66
_space_group_IT_number           1
_space_group_name_Hall           'P 1'
_space_group_name_H-M_alt        'P 1'
_symmetry_cell_setting           triclinic
_symmetry_space_group_name_Hall  'P 1'
_symmetry_space_group_name_H-M   'P 1'
_atom_sites_solution_hydrogens   geom
_atom_sites_solution_primary     direct
_atom_sites_solution_secondary   difmap
_audit_creation_method           SHELXL-97
_cell_angle_alpha                77.693(2)
_cell_angle_beta                 86.876(2)
_cell_angle_gamma                87.493(2)
_cell_formula_units_Z            1
_cell_length_a                   7.4063(4)
_cell_length_b                   8.5132(5)
_cell_length_c                   10.4515(6)
_cell_measurement_reflns_used    5320
_cell_measurement_temperature    173(2)
_cell_measurement_theta_max      28.37
_cell_measurement_theta_min      2.45
_cell_volume                     642.53(6)
_computing_cell_refinement       'Bruker SAINT'
_computing_data_collection       'Bruker APEX2'
_computing_data_reduction        'Bruker SAINT'
_computing_molecular_graphics    'Bruker SHELXTL'
_computing_publication_material  'Bruker SHELXTL'
_computing_structure_refinement  'SHELXL-97 (Sheldrick, 1997)'
_computing_structure_solution    'SHELXS-97 (Sheldrick, 2008)'
_diffrn_ambient_temperature      173(2)
_diffrn_measured_fraction_theta_full 0.998
_diffrn_measured_fraction_theta_max 0.998
_diffrn_measurement_device_type  'Bruker APEX-II CCD'
_diffrn_measurement_method       '\f and \w scans'
_diffrn_radiation_monochromator  graphite
_diffrn_radiation_source         'fine-focus sealed tube'
_diffrn_radiation_type           MoK\a
_diffrn_radiation_wavelength     0.71073
_diffrn_reflns_av_R_equivalents  0.0323
_diffrn_reflns_av_sigmaI/netI    0.0382
_diffrn_reflns_limit_h_max       9
_diffrn_reflns_limit_h_min       -9
_diffrn_reflns_limit_k_max       11
_diffrn_reflns_limit_k_min       -11
_diffrn_reflns_limit_l_max       13
_diffrn_reflns_limit_l_min       -13
_diffrn_reflns_number            10134
_diffrn_reflns_theta_full        28.00
_diffrn_reflns_theta_max         28.00
_diffrn_reflns_theta_min         2.00
_diffrn_standards_number         0
_exptl_absorpt_coefficient_mu    0.250
_exptl_absorpt_correction_type   none
_exptl_crystal_colour            red
_exptl_crystal_density_diffrn    1.433
_exptl_crystal_density_method    'not measured'
_exptl_crystal_description       plate
_exptl_crystal_F_000             290
_exptl_crystal_size_max          0.42
_exptl_crystal_size_mid          0.23
_exptl_crystal_size_min          0.07
_refine_diff_density_max         0.463
_refine_diff_density_min         -0.462
_refine_diff_density_rms         0.071
_refine_ls_abs_structure_details 'Flack H D (1983), Acta Cryst. A39, 876-881'
_refine_ls_abs_structure_Flack   0.35(13)
_refine_ls_extinction_method     none
_refine_ls_goodness_of_fit_ref   1.049
_refine_ls_hydrogen_treatment    constr
_refine_ls_matrix_type           full
_refine_ls_number_parameters     362
_refine_ls_number_reflns         6128
_refine_ls_number_restraints     102
_refine_ls_restrained_S_all      1.188
_refine_ls_R_factor_all          0.0598
_refine_ls_R_factor_gt           0.0434
_refine_ls_shift/su_max          0.000
_refine_ls_shift/su_mean         0.000
_refine_ls_structure_factor_coef Fsqd
_refine_ls_weighting_details
'calc w=1/[\s^2^(Fo^2^)+(0.0607P)^2^+0.1906P] where P=(Fo^2^+2Fc^2^)/3'
_refine_ls_weighting_scheme      calc
_refine_ls_wR_factor_gt          0.1072
_refine_ls_wR_factor_ref         0.1191
_reflns_number_gt                4928
_reflns_number_total             6128
_reflns_threshold_expression     >2sigma(I)
_iucr_refine_instructions_details
;
TITL 12s_sk119_8hwaterbath_0s in P1
CELL  0.71073   7.4063   8.5132  10.4515   77.693   86.876   87.493
ZERR     1.00   0.0004   0.0005   0.0006    0.002    0.002    0.002
LATT  -1
SFAC  C    H    N    O    S
UNIT  31   26   2    4    2
MERG   2
OMIT    -2.00  56.00
DFIX     1.530   0.005 C17B C31B
SUMP 1.000 0.001 1 2 1 3 1 4
FMAP   2
PLAN    5
SIZE     0.07   0.23   0.42
ACTA
BOND   $H
CONF
L.S.  8
TEMP  -100.00
WGHT    0.060700    0.190600
FVAR       0.25815   0.88416   0.05929   0.05655   0.03551
MOLE    1
PART    2
C1A   1    0.723665    0.235522    0.323406    21.00000    0.02803    0.02719 =
         0.02367   -0.01478   -0.00373    0.00877
C2A   1    0.653837    0.360329    0.404942    21.00000    0.02569    0.02728 =
         0.01930   -0.01213   -0.00158    0.00578
C3A   1    0.641476    0.504082    0.326487    21.00000    0.03070    0.01439 =
         0.02926   -0.00270    0.00117    0.00482
C4A   1    0.702906    0.486241    0.193477    21.00000    0.02870    0.02487 =
         0.03227   -0.00250   -0.00834   -0.00002
C5A   1    0.466439    0.491953    0.737051    21.00000    0.03292    0.03012 =
         0.02256   -0.01400    0.01042   -0.00050
C6A   1    0.524874    0.480528    0.598745    21.00000    0.02621    0.03634 =
         0.02390   -0.01290   -0.00194   -0.00005
C7A   1    0.514114    0.626757    0.520223    21.00000    0.03410    0.02059 =
         0.03665   -0.00178   -0.00012   -0.00150
C8A   1    0.444213    0.739542    0.597405    21.00000    0.02289    0.02542 =
         0.03553   -0.00155   -0.00167   -0.00397
C9A   1    0.780931    0.256967    0.080919    21.00000    0.03958    0.02893 =
         0.03203   -0.01197    0.00628   -0.00468
AFIX  13
H9A   2    0.761929    0.346144    0.002924    21.00000   -1.20000
AFIX   0
C10A  1    0.952320    0.166361    0.055162    21.00000    0.03520    0.05988 =
         0.04165   -0.01219    0.00051   -0.00513
AFIX  23
H10A  2    1.011529    0.110403    0.135783    21.00000   -1.20000
H10B  2    1.039656    0.231618   -0.006923    21.00000   -1.20000
AFIX   0
C11A  1    0.844208    0.056459   -0.006674    21.00000    0.03878    0.06633 =
         0.06596   -0.04613    0.00624    0.00188
AFIX  23
H11A  2    0.876879   -0.059208    0.022388    21.00000   -1.20000
H11B  2    0.843370    0.087828   -0.103466    21.00000   -1.20000
AFIX   0
C12A  1    0.673470    0.110447    0.063298    21.00000    0.03275    0.02891 =
         0.03678   -0.01754   -0.00071   -0.00234
AFIX  23
H12A  2    0.638511    0.036063    0.146554    21.00000   -1.20000
H12B  2    0.569143    0.139518    0.006598    21.00000   -1.20000
AFIX   0
C13A  1    0.386727    0.724310    0.844489    21.00000    0.04327    0.04270 =
         0.02938   -0.01824    0.00349    0.00485
AFIX  13
H13A  2    0.396694    0.638072    0.925610    21.00000   -1.20000
AFIX   0
C14A  1    0.493651    0.868198    0.859982    21.00000    0.03677    0.05134 =
         0.03958   -0.01975   -0.00636    0.01245
AFIX  23
H14A  2    0.530623    0.940080    0.775953    21.00000   -1.20000
H14B  2    0.597097    0.839283    0.917543    21.00000   -1.20000
AFIX   0
C15A  1    0.320687    0.928434    0.928875    21.00000    0.05067    0.05139 =
         0.05111   -0.03189    0.00093    0.00281
AFIX  23
H15A  2    0.295408    1.045720    0.902399    21.00000   -1.20000
H15B  2    0.315374    0.892341    1.025492    21.00000   -1.20000
AFIX   0
C16A  1    0.207681    0.824433    0.856104    21.00000    0.03001    0.07866 =
         0.09547   -0.07572    0.00946    0.00290
AFIX  23
H16A  2    0.110389    0.763934    0.911558    21.00000   -1.20000
H16B  2    0.162727    0.883619    0.771139    21.00000   -1.20000
AFIX   0
N1A   3    0.747405    0.322319    0.197808    21.00000    0.03440    0.01948 =
         0.03059   -0.00680    0.00404    0.00161
N2A   3    0.423928    0.652181    0.729679    21.00000    0.03351    0.03415 =
         0.02555   -0.01286    0.00195    0.00264
O1A   4    0.751489    0.096240    0.361652    21.00000    0.04689    0.02593 =
         0.03392   -0.01185    0.00207    0.00725
O2A   4    0.712208    0.593917    0.094104    21.00000    0.05049    0.02864 =
         0.03219   -0.00882    0.00215   -0.00430
O3A   4    0.460773    0.386537    0.829616    21.00000    0.06347    0.03233 =
         0.02076   -0.00177    0.00774   -0.00019
O4A   4    0.414086    0.884404    0.559357    21.00000    0.04359    0.02509 =
         0.03810   -0.00475   -0.01116    0.01276
S1A   5    0.598241    0.290587    0.570758    21.00000    0.03813    0.02203 =
         0.02588   -0.00481   -0.00080    0.00537
S2A   5    0.570845    0.690482    0.354632    21.00000    0.04213    0.01882 =
         0.02790   -0.00212    0.00339    0.00378
MOLE    2
C17A  1    0.088858    0.348803    0.559104    21.00000    0.03907    0.03453 =
         0.01945    0.01061    0.00009   -0.00041
C18A  1    0.021454    0.482057    0.597891    21.00000    0.02949    0.02312 =
         0.03318    0.00404   -0.00312   -0.00402
C19A  1   -0.047283    0.476264    0.721460    21.00000    0.03895    0.03553 =
         0.04105   -0.00874   -0.00018    0.00206
AFIX  43
H19A  2   -0.048106    0.376353    0.782846    21.00000   -1.20000
AFIX   0
C20A  1   -0.115524    0.612036    0.759218    21.00000    0.02875    0.06088 =
         0.04746   -0.03353    0.00443   -0.00404
AFIX  43
H20A  2   -0.155937    0.607258    0.847763    21.00000   -1.20000
AFIX   0
C21A  1   -0.126419    0.764145    0.663911    21.00000    0.03449    0.03381 =
         0.06285   -0.02287   -0.00938    0.00885
AFIX  43
H21A  2   -0.178520    0.858469    0.687631    21.00000   -1.20000
AFIX   0
C22A  1   -0.062640    0.766105    0.545933    21.00000    0.04195    0.03397 =
         0.06066   -0.00933   -0.00188   -0.00096
AFIX  43
H22A  2   -0.063548    0.866591    0.485278    21.00000   -1.20000
AFIX   0
C23A  1    0.008527    0.629726    0.500220    21.00000    0.03704    0.02382 =
         0.03624   -0.00373    0.00064    0.00127
C24A  1    0.071747    0.641730    0.374517    21.00000    0.02485    0.02858 =
         0.05474   -0.01640   -0.00424    0.00636
AFIX  43
H24A  2    0.066534    0.741671    0.313299    21.00000   -1.20000
AFIX   0
C25A  1    0.147011    0.498988    0.336239    21.00000    0.02983    0.04855 =
         0.03773   -0.01615    0.00150    0.00697
C26A  1    0.219123    0.496876    0.198780    21.00000    0.02978    0.05453 =
         0.03471    0.00017    0.00282   -0.00883
AFIX  43
H26A  2    0.212264    0.593485    0.133774    21.00000   -1.20000
AFIX   0
C27A  1    0.293211    0.362754    0.164418    21.00000    0.02445    0.06306 =
         0.04841   -0.01094   -0.00063   -0.00418
AFIX  43
H27A  2    0.344324    0.367577    0.078359    21.00000   -1.20000
AFIX   0
C28A  1    0.293964    0.223041    0.252683    21.00000    0.02387    0.06171 =
         0.05853   -0.02994    0.00873   -0.00580
AFIX  43
H28A  2    0.340012    0.129407    0.224644    21.00000   -1.20000
AFIX   0
C29A  1    0.230890    0.206277    0.384201    21.00000    0.02368    0.03081 =
         0.05027   -0.01275   -0.00579    0.00688
AFIX  43
H29A  2    0.238755    0.105292    0.443877    21.00000   -1.20000
AFIX   0
C30A  1    0.153565    0.347542    0.426005    21.00000    0.02208    0.03957 =
         0.04033   -0.00758   -0.00266    0.00088
C31A  1    0.106076    0.189725    0.649725    21.00000    0.05611    0.03446 =
         0.03914    0.00280    0.01168    0.00765
AFIX  33
H31A  2    0.161129    0.111080    0.601940    21.00000   -1.50000
H31B  2   -0.014060    0.154803    0.685689    21.00000   -1.50000
H31C  2    0.182540    0.198154    0.721441    21.00000   -1.50000
AFIX   0
MOLE    3
PART    1
C1B   1    0.700938    0.238972    0.328194    31.00000   51.00000
AFIX   3
C2B   1    0.649795    0.359522    0.412079    31.00000   51.00000
C3B   1    0.631277    0.501537    0.321960    31.00000   51.00000
C4B   1    0.677749    0.476131    0.185787    31.00000   51.00000
C5B   1    0.419667    0.506974    0.732692    31.00000   51.00000
C6B   1    0.414461    0.472401    0.591522    31.00000   51.00000
C7B   1    0.391284    0.627141    0.487974    31.00000   51.00000
C8B   1    0.395027    0.748158    0.570771    31.00000   51.00000
C9B   1    0.739032    0.250201    0.077552    31.00000   51.00000
AFIX  13
H9B   2    0.725842    0.337033   -0.002853    31.00000   -1.20000
AFIX   3
C10B  1    0.912316    0.149538    0.063913    31.00000   51.00000
AFIX  23
H10C  2    1.012799    0.210502    0.012894    31.00000   -1.20000
H10D  2    0.953156    0.082495    0.147408    31.00000   -1.20000
AFIX   3
C11B  1    0.801856    0.062512   -0.014108    31.00000   51.00000
AFIX  23
H11C  2    0.827142   -0.055023    0.001665    31.00000   -1.20000
H11D  2    0.801731    0.111272   -0.108980    31.00000   -1.20000
AFIX   3
C12B  1    0.633590    0.114385    0.068706    31.00000   51.00000
AFIX  23
H12C  2    0.522598    0.143020    0.018998    31.00000   -1.20000
H12D  2    0.608387    0.039353    0.153550    31.00000   -1.20000
AFIX   3
C13B  1    0.369202    0.743307    0.822096    31.00000   51.00000
AFIX  13
H13B  2    0.379809    0.658580    0.904110    31.00000   -1.20000
AFIX   3
C14B  1    0.473344    0.878216    0.831368    31.00000   51.00000
AFIX  23
H14C  2    0.515594    0.942522    0.745367    31.00000   -1.20000
H14D  2    0.574372    0.850242    0.891242    31.00000   -1.20000
AFIX   3
C15B  1    0.303733    0.952634    0.892884    31.00000   51.00000
AFIX  23
H15C  2    0.297086    0.927624    0.989939    31.00000   -1.20000
H15D  2    0.283625    1.069203    0.857579    31.00000   -1.20000
AFIX   3
C16B  1    0.195710    0.851174    0.835004    31.00000   51.00000
AFIX  23
H16C  2    0.146911    0.905478    0.749931    31.00000   -1.20000
H16D  2    0.099445    0.795928    0.895245    31.00000   -1.20000
AFIX   3
N1B   3    0.711916    0.319819    0.197304    31.00000   51.00000
N2B   3    0.395933    0.670084    0.710239    31.00000   51.00000
O1B   4    0.719086    0.095784    0.376892    31.00000   51.00000
O2B   4    0.684428    0.577824    0.078481    31.00000   51.00000
O3B   4    0.437734    0.414856    0.837965    31.00000   51.00000
O4B   4    0.390361    0.882356    0.531802    31.00000   51.00000
S1B   5    0.608857    0.322812    0.588014    31.00000   51.00000
S2B   5    0.581981    0.675585    0.364819    31.00000   51.00000
C17B  1    0.231001    0.390695    0.589481    31.00000   51.00000
C18B  1    0.075680    0.504717    0.617361    31.00000   51.00000
C19B  1   -0.028871    0.481364    0.735340    31.00000   51.00000
AFIX  43
H19B  2   -0.013198    0.388209    0.802843    31.00000   -1.20000
AFIX   3
C20B  1   -0.153906    0.599468    0.747725    31.00000   51.00000
AFIX  43
H20B  2   -0.233084    0.584981    0.823639    31.00000   -1.20000
AFIX   3
C21B  1   -0.170268    0.743885    0.651015    31.00000   51.00000
AFIX  43
H21B  2   -0.258002    0.825253    0.662184    31.00000   -1.20000
AFIX   3
C22B  1   -0.053065    0.763751    0.537819    31.00000   51.00000
AFIX  43
H22B  2   -0.061336    0.859961    0.472497    31.00000   -1.20000
AFIX   3
C23B  1    0.071388    0.646639    0.521420    31.00000   51.00000
C24B  1    0.214060    0.657946    0.409418    31.00000   51.00000
AFIX  13
H24B  2    0.209961    0.762496    0.344103    31.00000   -1.20000
AFIX   3
C25B  1    0.212226    0.517315    0.351679    31.00000   51.00000
C26B  1    0.204555    0.508406    0.215734    31.00000   51.00000
AFIX  43
H26B  2    0.186294    0.605488    0.152768    31.00000   -1.20000
AFIX   3
C27B  1    0.222028    0.369042    0.173588    31.00000   51.00000
AFIX  43
H27B  2    0.222059    0.363739    0.083709    31.00000   -1.20000
AFIX   3
C28B  1    0.239816    0.235199    0.273353    31.00000   51.00000
AFIX  43
H28B  2    0.259310    0.134893    0.247917    31.00000   -1.20000
AFIX   3
C29B  1    0.232386    0.231121    0.405989    31.00000   51.00000
AFIX  43
H29B  2    0.232176    0.131544    0.467799    31.00000   -1.20000
AFIX   3
C30B  1    0.225338    0.373417    0.446478    31.00000   51.00000
C31B  1    0.220446    0.231698    0.688601    31.00000   51.00000
AFIX  33
H31D  2    0.311585    0.155049    0.664161    31.00000   -1.50000
H31E  2    0.099744    0.188553    0.689537    31.00000   -1.50000
H31F  2    0.243209    0.249063    0.775960    31.00000   -1.50000
AFIX   0
PART    3
SAME 0.005 C1B > O4B
C1C   1    0.751123    0.222887    0.353148    41.00000   51.00000
AFIX   3
C2C   1    0.741422    0.350855    0.431256    41.00000   51.00000
C3C   1    0.728941    0.490076    0.335964    41.00000   51.00000
C4C   1    0.726094    0.454158    0.202102    41.00000   51.00000
C5C   1    0.466593    0.488360    0.745836    41.00000   51.00000
C6C   1    0.489704    0.461888    0.601204    41.00000   51.00000
C7C   1    0.497113    0.619903    0.504148    41.00000   51.00000
C8C   1    0.441842    0.735195    0.591330    41.00000   51.00000
C9C   1    0.769771    0.218204    0.104890    41.00000   51.00000
AFIX  13
H9C   2    0.759903    0.299936    0.021045    41.00000   -1.20000
AFIX   3
C10C  1    0.938713    0.108627    0.099467    41.00000   51.00000
AFIX  23
H10E  2    1.041396    0.161073    0.044543    41.00000   -1.20000
H10F  2    0.977737    0.049372    0.186171    41.00000   -1.20000
AFIX   3
C11C  1    0.823388    0.015279    0.031390    41.00000   51.00000
AFIX  23
H11E  2    0.842902   -0.102827    0.056879    41.00000   -1.20000
H11F  2    0.825575    0.052566   -0.065094    41.00000   -1.20000
AFIX   3
C12C  1    0.657057    0.083344    0.105865    41.00000   51.00000
AFIX  23
H12E  2    0.548049    0.110584    0.053738    41.00000   -1.20000
H12F  2    0.627194    0.018223    0.194272    41.00000   -1.20000
AFIX   3
C13C  1    0.408325    0.715496    0.845086    41.00000   51.00000
AFIX  13
H13C  2    0.419753    0.624112    0.922470    41.00000   -1.20000
AFIX   3
C14C  1    0.507783    0.845981    0.869626    41.00000   51.00000
AFIX  23
H14E  2    0.551942    0.920375    0.788905    41.00000   -1.20000
H14F  2    0.606872    0.811183    0.930301    41.00000   -1.20000
AFIX   3
C15C  1    0.334861    0.909692    0.935463    41.00000   51.00000
AFIX  23
H15E  2    0.327004    0.875236    1.032190    41.00000   -1.20000
H15F  2    0.311576    1.027082    0.907339    41.00000   -1.20000
AFIX   3
C16C  1    0.231507    0.813407    0.868115    41.00000   51.00000
AFIX  23
H16E  2    0.179648    0.875150    0.786388    41.00000   -1.20000
H16F  2    0.138336    0.749038    0.925075    41.00000   -1.20000
AFIX   3
N1C   3    0.747912    0.296405    0.219934    41.00000   51.00000
N2C   3    0.438755    0.650985    0.728947    41.00000   51.00000
O1C   4    0.774944    0.081185    0.407996    41.00000   51.00000
O2C   4    0.699189    0.548679    0.091537    41.00000   51.00000
O3C   4    0.456367    0.391927    0.848352    41.00000   51.00000
O4C   4    0.410179    0.869259    0.556653    41.00000   51.00000
S1C   5    0.559480    0.296089    0.563502    41.00000   51.00000
S2C   5    0.536075    0.645885    0.342143    41.00000   51.00000
SAME 0.005 C17B > C31B
C17C  1    0.932242    0.318697    0.512600    41.00000   51.00000
C18C  1    0.936211    0.454037    0.579117    41.00000   51.00000
C19C  1    0.939565    0.438724    0.717446    41.00000   51.00000
AFIX  43
H19C  2    0.944422    0.336487    0.775615    41.00000   -1.20000
AFIX   3
C20C  1    0.935633    0.572100    0.760208    41.00000   51.00000
AFIX  43
H20C  2    0.940621    0.569764    0.851231    41.00000   -1.20000
AFIX   3
C21C  1    0.923809    0.720198    0.668575    41.00000   51.00000
AFIX  43
H21C  2    0.918592    0.817443    0.699621    41.00000   -1.20000
AFIX   3
C22C  1    0.919403    0.728444    0.529278    41.00000   51.00000
AFIX  43
H22C  2    0.907958    0.830019    0.470792    41.00000   -1.20000
AFIX   3
C23C  1    0.931137    0.596229    0.482991    41.00000   51.00000
C24C  1    0.913627    0.586870    0.337682    41.00000   51.00000
AFIX  13
H24C  2    0.915728    0.693934    0.275604    41.00000   -1.20000
AFIX   3
C25C  1    1.059345    0.468972    0.306816    41.00000   51.00000
C26C  1    1.175566    0.474786    0.192653    41.00000   51.00000
AFIX  43
H26C  2    1.175365    0.571916    0.127967    41.00000   -1.20000
AFIX   3
C27C  1    1.289320    0.348390    0.169137    41.00000   51.00000
AFIX  43
H27C  2    1.361217    0.355732    0.090117    41.00000   -1.20000
AFIX   3
C28C  1    1.291086    0.212946    0.266948    41.00000   51.00000
AFIX  43
H28C  2    1.365434    0.123737    0.253101    41.00000   -1.20000
AFIX   3
C29C  1    1.193565    0.197706    0.382461    41.00000   51.00000
AFIX  43
H29C  2    1.204335    0.102303    0.448385    41.00000   -1.20000
AFIX   3
C30C  1    1.075711    0.326039    0.403126    41.00000   51.00000
C31C  1    0.958572    0.162604    0.616835    41.00000   51.00000
AFIX  33
H31G  2    0.973165    0.070902    0.573803    41.00000   -1.50000
H31H  2    0.852541    0.147971    0.677970    41.00000   -1.50000
H31I  2    1.066756    0.169657    0.665029    41.00000   -1.50000
HKLF    4
 
REM  12s_sk119_8hwaterbath_0s in P1
REM R1 =  0.0434 for   4928 Fo > 4sig(Fo)  and  0.0598 for all   6128 data
REM    362 parameters refined using    102 restraints
 
END
 
WGHT      0.0607      0.1906
REM Highest difference peak  0.463,  deepest hole -0.462,  1-sigma level  0.071
Q1    1   0.6603  0.6858  0.3984  11.00000  0.05    0.46
Q2    1   0.5157  0.2975  0.5258  11.00000  0.05    0.44
Q3    1   0.2425  0.6659  0.4332  11.00000  0.05    0.34
Q4    1   0.4139  0.6791  0.3598  11.00000  0.05    0.32
Q5    1   0.7518  0.3049  0.5681  11.00000  0.05    0.32
;
_cod_data_source_file            12s_sk119_8hwaterbath_0s-12p-x1.cif
_cod_data_source_block           12s_sk119_8hwaterbath_0s
_cod_depositor_comments
;
The following automatic conversions were performed:

data item '_symmetry_cell_setting' value 'Triclinic' was changed to
'triclinic' in accordance with the
/home/saulius/struct/COD-crude-data/automatic-downloads/DataCite-retrospective/ACS/depositions/lib/dictionaries/cif_core.dic
dictionary named 'cif_core.dic' version 2.4.2 last updated on
2011-04-26.

Automatic conversion script
Id: cif_fix_values 6909 2019-04-08 15:41:33Z antanas 
;
_cod_original_sg_symbol_H-M      P1
_cod_database_code               4517063
loop_
_symmetry_equiv_pos_as_xyz
'x, y, z'
loop_
_atom_site_label
_atom_site_type_symbol
_atom_site_fract_x
_atom_site_fract_y
_atom_site_fract_z
_atom_site_U_iso_or_equiv
_atom_site_adp_type
_atom_site_occupancy
_atom_site_symmetry_multiplicity
_atom_site_calc_flag
_atom_site_refinement_flags
_atom_site_disorder_assembly
_atom_site_disorder_group
C1A C 0.7237(8) 0.2355(7) 0.3234(6) 0.0251(13) Uani 0.884(3) 1 d P A 2
C2A C 0.6538(8) 0.3603(7) 0.4049(5) 0.0232(13) Uani 0.884(3) 1 d P A 2
C3A C 0.6415(8) 0.5041(6) 0.3265(6) 0.0253(13) Uani 0.884(3) 1 d P A 2
C4A C 0.7029(8) 0.4862(8) 0.1935(6) 0.0289(14) Uani 0.884(3) 1 d P A 2
C5A C 0.4664(8) 0.4920(7) 0.7371(5) 0.0277(14) Uani 0.884(3) 1 d P A 2
C6A C 0.5249(8) 0.4805(8) 0.5987(6) 0.0278(14) Uani 0.884(3) 1 d P A 2
C7A C 0.5141(9) 0.6268(7) 0.5202(7) 0.0311(15) Uani 0.884(3) 1 d P A 2
C8A C 0.4442(8) 0.7395(7) 0.5974(6) 0.0286(14) Uani 0.884(3) 1 d P A 2
C9A C 0.7809(9) 0.2570(8) 0.0809(6) 0.0329(14) Uani 0.884(3) 1 d P A 2
H9A H 0.7619 0.3461 0.0029 0.039 Uiso 0.884(3) 1 calc PR A 2
C10A C 0.9523(9) 0.1664(9) 0.0552(6) 0.0453(16) Uani 0.884(3) 1 d P A 2
H10A H 1.0115 0.1104 0.1358 0.054 Uiso 0.884(3) 1 calc PR A 2
H10B H 1.0397 0.2316 -0.0069 0.054 Uiso 0.884(3) 1 calc PR A 2
C11A C 0.8442(10) 0.0565(11) -0.0067(8) 0.053(2) Uani 0.884(3) 1 d P A 2
H11A H 0.8769 -0.0592 0.0224 0.063 Uiso 0.884(3) 1 calc PR A 2
H11B H 0.8434 0.0878 -0.1035 0.063 Uiso 0.884(3) 1 calc PR A 2
C12A C 0.6735(8) 0.1104(7) 0.0633(6) 0.0312(13) Uani 0.884(3) 1 d P A 2
H12A H 0.6385 0.0361 0.1466 0.037 Uiso 0.884(3) 1 calc PR A 2
H12B H 0.5691 0.1395 0.0066 0.037 Uiso 0.884(3) 1 calc PR A 2
C13A C 0.3867(10) 0.7243(9) 0.8445(7) 0.0372(16) Uani 0.884(3) 1 d P A 2
H13A H 0.3967 0.6381 0.9256 0.045 Uiso 0.884(3) 1 calc PR A 2
C14A C 0.4937(9) 0.8682(9) 0.8600(7) 0.0413(17) Uani 0.884(3) 1 d P A 2
H14A H 0.5306 0.9401 0.7760 0.050 Uiso 0.884(3) 1 calc PR A 2
H14B H 0.5971 0.8393 0.9175 0.050 Uiso 0.884(3) 1 calc PR A 2
C15A C 0.3207(10) 0.9284(10) 0.9289(8) 0.0482(19) Uani 0.884(3) 1 d P A 2
H15A H 0.2954 1.0457 0.9024 0.058 Uiso 0.884(3) 1 calc PR A 2
H15B H 0.3154 0.8923 1.0255 0.058 Uiso 0.884(3) 1 calc PR A 2
C16A C 0.2077(9) 0.8244(9) 0.8561(8) 0.060(2) Uani 0.884(3) 1 d P A 2
H16A H 0.1104 0.7639 0.9116 0.072 Uiso 0.884(3) 1 calc PR A 2
H16B H 0.1627 0.8836 0.7711 0.072 Uiso 0.884(3) 1 calc PR A 2
N1A N 0.7474(7) 0.3223(6) 0.1978(5) 0.0282(12) Uani 0.884(3) 1 d P A 2
N2A N 0.4239(7) 0.6522(7) 0.7297(5) 0.0303(12) Uani 0.884(3) 1 d P A 2
O1A O 0.7515(6) 0.0962(5) 0.3617(4) 0.0352(11) Uani 0.884(3) 1 d P A 2
O2A O 0.7122(6) 0.5939(5) 0.0941(4) 0.0368(12) Uani 0.884(3) 1 d P A 2
O3A O 0.4608(7) 0.3865(5) 0.8296(4) 0.0398(13) Uani 0.884(3) 1 d P A 2
O4A O 0.4141(6) 0.8844(5) 0.5594(5) 0.0359(12) Uani 0.884(3) 1 d P A 2
S1A S 0.59824(16) 0.29059(14) 0.57076(11) 0.0289(4) Uani 0.884(3) 1 d P A 2
S2A S 0.57085(18) 0.69048(14) 0.35463(11) 0.0304(4) Uani 0.884(3) 1 d P A 2
C17A C 0.0889(9) 0.3488(8) 0.5591(5) 0.0335(15) Uani 0.884(3) 1 d P A 2
C18A C 0.0215(9) 0.4821(7) 0.5979(6) 0.0299(14) Uani 0.884(3) 1 d P A 2
C19A C -0.0473(10) 0.4763(9) 0.7215(7) 0.0386(16) Uani 0.884(3) 1 d P A 2
H19A H -0.0481 0.3764 0.7828 0.046 Uiso 0.884(3) 1 calc PR A 2
C20A C -0.1155(10) 0.6120(10) 0.7592(7) 0.0426(19) Uani 0.884(3) 1 d P A 2
H20A H -0.1559 0.6073 0.8478 0.051 Uiso 0.884(3) 1 calc PR A 2
C21A C -0.1264(10) 0.7641(8) 0.6639(8) 0.0419(18) Uani 0.884(3) 1 d P A 2
H21A H -0.1785 0.8585 0.6876 0.050 Uiso 0.884(3) 1 calc PR A 2
C22A C -0.0626(11) 0.7661(10) 0.5459(8) 0.0457(19) Uani 0.884(3) 1 d P A 2
H22A H -0.0635 0.8666 0.4853 0.055 Uiso 0.884(3) 1 calc PR A 2
C23A C 0.0085(9) 0.6297(8) 0.5002(7) 0.0329(15) Uani 0.884(3) 1 d P A 2
C24A C 0.0717(9) 0.6417(8) 0.3745(7) 0.0351(15) Uani 0.884(3) 1 d P A 2
H24A H 0.0665 0.7417 0.3133 0.042 Uiso 0.884(3) 1 calc PR A 2
C25A C 0.1470(9) 0.4990(9) 0.3362(7) 0.0380(17) Uani 0.884(3) 1 d P A 2
C26A C 0.2191(9) 0.4969(10) 0.1988(7) 0.0410(18) Uani 0.884(3) 1 d P A 2
H26A H 0.2123 0.5935 0.1338 0.049 Uiso 0.884(3) 1 calc PR A 2
C27A C 0.2932(10) 0.3628(10) 0.1644(7) 0.0454(19) Uani 0.884(3) 1 d P A 2
H27A H 0.3443 0.3676 0.0784 0.054 Uiso 0.884(3) 1 calc PR A 2
C28A C 0.2940(9) 0.2230(10) 0.2527(8) 0.0457(19) Uani 0.884(3) 1 d P A 2
H28A H 0.3400 0.1294 0.2246 0.055 Uiso 0.884(3) 1 calc PR A 2
C29A C 0.2309(8) 0.2063(8) 0.3842(7) 0.0344(15) Uani 0.884(3) 1 d P A 2
H29A H 0.2388 0.1053 0.4439 0.041 Uiso 0.884(3) 1 calc PR A 2
C30A C 0.1536(9) 0.3475(9) 0.4260(7) 0.0341(15) Uani 0.884(3) 1 d P A 2
C31A C 0.1061(6) 0.1897(5) 0.6497(4) 0.0456(9) Uani 0.884(3) 1 d P A 2
H31A H 0.1611 0.1111 0.6019 0.068 Uiso 0.884(3) 1 calc PR A 2
H31B H -0.0141 0.1548 0.6857 0.068 Uiso 0.884(3) 1 calc PR A 2
H31C H 0.1825 0.1982 0.7214 0.068 Uiso 0.884(3) 1 calc PR A 2
C1B C 0.701(2) 0.239(2) 0.3282(16) 0.036(2) Uiso 0.059(3) 1 d PD B 1
C2B C 0.650(2) 0.360(2) 0.4121(16) 0.036(2) Uiso 0.059(3) 1 d PRD B 1
C3B C 0.631(2) 0.502(2) 0.3220(16) 0.036(2) Uiso 0.059(3) 1 d PRD B 1
C4B C 0.678(2) 0.476(2) 0.1858(16) 0.036(2) Uiso 0.059(3) 1 d PRD B 1
C5B C 0.420(2) 0.507(2) 0.7327(16) 0.036(2) Uiso 0.059(3) 1 d PRD B 1
C6B C 0.414(2) 0.472(2) 0.5915(16) 0.036(2) Uiso 0.059(3) 1 d PRD B 1
C7B C 0.391(2) 0.627(2) 0.4880(16) 0.036(2) Uiso 0.059(3) 1 d PRD B 1
C8B C 0.395(2) 0.748(2) 0.5708(16) 0.036(2) Uiso 0.059(3) 1 d PRD B 1
C9B C 0.739(2) 0.250(2) 0.0776(16) 0.036(2) Uiso 0.059(3) 1 d PRD B 1
H9B H 0.7258 0.3370 -0.0029 0.043 Uiso 0.059(3) 1 calc PR B 1
C10B C 0.912(2) 0.150(2) 0.0639(16) 0.036(2) Uiso 0.059(3) 1 d PRD B 1
H10C H 1.0128 0.2105 0.0129 0.043 Uiso 0.059(3) 1 calc PR B 1
H10D H 0.9532 0.0825 0.1474 0.043 Uiso 0.059(3) 1 calc PR B 1
C11B C 0.802(2) 0.063(2) -0.0141(16) 0.036(2) Uiso 0.059(3) 1 d PRD B 1
H11C H 0.8271 -0.0550 0.0017 0.043 Uiso 0.059(3) 1 calc PR B 1
H11D H 0.8017 0.1113 -0.1090 0.043 Uiso 0.059(3) 1 calc PR B 1
C12B C 0.634(2) 0.114(2) 0.0687(16) 0.036(2) Uiso 0.059(3) 1 d PRD B 1
H12C H 0.5226 0.1430 0.0190 0.043 Uiso 0.059(3) 1 calc PR B 1
H12D H 0.6084 0.0394 0.1535 0.043 Uiso 0.059(3) 1 calc PR B 1
C13B C 0.369(2) 0.743(2) 0.8221(16) 0.036(2) Uiso 0.059(3) 1 d PRD B 1
H13B H 0.3798 0.6586 0.9041 0.043 Uiso 0.059(3) 1 calc PR B 1
C14B C 0.473(2) 0.878(2) 0.8314(16) 0.036(2) Uiso 0.059(3) 1 d PRD B 1
H14C H 0.5156 0.9425 0.7454 0.043 Uiso 0.059(3) 1 calc PR B 1
H14D H 0.5744 0.8502 0.8912 0.043 Uiso 0.059(3) 1 calc PR B 1
C15B C 0.304(2) 0.953(2) 0.8929(16) 0.036(2) Uiso 0.059(3) 1 d PRD B 1
H15C H 0.2971 0.9276 0.9899 0.043 Uiso 0.059(3) 1 calc PR B 1
H15D H 0.2836 1.0692 0.8576 0.043 Uiso 0.059(3) 1 calc PR B 1
C16B C 0.196(2) 0.851(2) 0.8350(16) 0.036(2) Uiso 0.059(3) 1 d PRD B 1
H16C H 0.1469 0.9055 0.7499 0.043 Uiso 0.059(3) 1 calc PR B 1
H16D H 0.0994 0.7959 0.8952 0.043 Uiso 0.059(3) 1 calc PR B 1
N1B N 0.712(2) 0.320(2) 0.1973(16) 0.036(2) Uiso 0.059(3) 1 d PRD B 1
N2B N 0.396(2) 0.670(2) 0.7102(16) 0.036(2) Uiso 0.059(3) 1 d PRD B 1
O1B O 0.719(2) 0.096(2) 0.3769(16) 0.036(2) Uiso 0.059(3) 1 d PRD B 1
O2B O 0.684(2) 0.578(2) 0.0785(16) 0.036(2) Uiso 0.059(3) 1 d PRD B 1
O3B O 0.438(2) 0.415(2) 0.8380(16) 0.036(2) Uiso 0.059(3) 1 d PRD B 1
O4B O 0.390(2) 0.882(2) 0.5318(16) 0.036(2) Uiso 0.059(3) 1 d PRD B 1
S1B S 0.609(2) 0.323(2) 0.5880(16) 0.036(2) Uiso 0.059(3) 1 d PR B 1
S2B S 0.582(2) 0.676(2) 0.3648(16) 0.036(2) Uiso 0.059(3) 1 d PR B 1
C17B C 0.231(2) 0.391(2) 0.5895(16) 0.036(2) Uiso 0.059(3) 1 d PRD B 1
C18B C 0.076(2) 0.505(2) 0.6174(16) 0.036(2) Uiso 0.059(3) 1 d PRD B 1
C19B C -0.029(2) 0.481(2) 0.7353(16) 0.036(2) Uiso 0.059(3) 1 d PRD B 1
H19B H -0.0132 0.3882 0.8028 0.043 Uiso 0.059(3) 1 calc PR B 1
C20B C -0.154(2) 0.599(2) 0.7477(16) 0.036(2) Uiso 0.059(3) 1 d PRD B 1
H20B H -0.2331 0.5850 0.8236 0.043 Uiso 0.059(3) 1 calc PR B 1
C21B C -0.170(2) 0.744(2) 0.6510(16) 0.036(2) Uiso 0.059(3) 1 d PRD B 1
H21B H -0.2580 0.8253 0.6622 0.043 Uiso 0.059(3) 1 calc PR B 1
C22B C -0.053(2) 0.764(2) 0.5378(16) 0.036(2) Uiso 0.059(3) 1 d PRD B 1
H22B H -0.0613 0.8600 0.4725 0.043 Uiso 0.059(3) 1 calc PR B 1
C23B C 0.071(2) 0.647(2) 0.5214(16) 0.036(2) Uiso 0.059(3) 1 d PRD B 1
C24B C 0.214(2) 0.658(2) 0.4094(16) 0.036(2) Uiso 0.059(3) 1 d PRD B 1
H24B H 0.2100 0.7625 0.3441 0.043 Uiso 0.059(3) 1 calc PR B 1
C25B C 0.212(2) 0.517(2) 0.3517(16) 0.036(2) Uiso 0.059(3) 1 d PRD B 1
C26B C 0.205(2) 0.508(2) 0.2157(16) 0.036(2) Uiso 0.059(3) 1 d PRD B 1
H26B H 0.1863 0.6055 0.1528 0.043 Uiso 0.059(3) 1 calc PR B 1
C27B C 0.222(2) 0.369(2) 0.1736(16) 0.036(2) Uiso 0.059(3) 1 d PRD B 1
H27B H 0.2221 0.3637 0.0837 0.043 Uiso 0.059(3) 1 calc PR B 1
C28B C 0.240(2) 0.235(2) 0.2734(16) 0.036(2) Uiso 0.059(3) 1 d PRD B 1
H28B H 0.2593 0.1349 0.2479 0.043 Uiso 0.059(3) 1 calc PR B 1
C29B C 0.232(2) 0.231(2) 0.4060(16) 0.036(2) Uiso 0.059(3) 1 d PRD B 1
H29B H 0.2322 0.1315 0.4678 0.043 Uiso 0.059(3) 1 calc PR B 1
C30B C 0.225(2) 0.373(2) 0.4465(16) 0.036(2) Uiso 0.059(3) 1 d PRD B 1
C31B C 0.220(2) 0.232(2) 0.6886(16) 0.036(2) Uiso 0.059(3) 1 d PRD B 1
H31D H 0.3116 0.1550 0.6642 0.053 Uiso 0.059(3) 1 calc PR B 1
H31E H 0.0997 0.1886 0.6895 0.053 Uiso 0.059(3) 1 calc PR B 1
H31F H 0.2432 0.2491 0.7760 0.053 Uiso 0.059(3) 1 calc PR B 1
C1C C 0.751(2) 0.2229(18) 0.3531(15) 0.036(2) Uiso 0.057(3) 1 d PD C 3
C2C C 0.741(2) 0.3509(18) 0.4313(15) 0.036(2) Uiso 0.057(3) 1 d PRD C 3
C3C C 0.729(2) 0.4901(18) 0.3360(15) 0.036(2) Uiso 0.057(3) 1 d PRD C 3
C4C C 0.726(2) 0.4542(18) 0.2021(15) 0.036(2) Uiso 0.057(3) 1 d PRD C 3
C5C C 0.467(2) 0.4884(18) 0.7458(15) 0.036(2) Uiso 0.057(3) 1 d PRD C 3
C6C C 0.490(2) 0.4619(18) 0.6012(15) 0.036(2) Uiso 0.057(3) 1 d PRD C 3
C7C C 0.497(2) 0.6199(18) 0.5041(15) 0.036(2) Uiso 0.057(3) 1 d PRD C 3
C8C C 0.442(2) 0.7352(18) 0.5913(15) 0.036(2) Uiso 0.057(3) 1 d PRD C 3
C9C C 0.770(2) 0.2182(18) 0.1049(15) 0.036(2) Uiso 0.057(3) 1 d PRD C 3
H9C H 0.7599 0.2999 0.0210 0.043 Uiso 0.057(3) 1 calc PR C 3
C10C C 0.939(2) 0.1086(18) 0.0995(15) 0.036(2) Uiso 0.057(3) 1 d PRD C 3
H10E H 1.0414 0.1611 0.0445 0.043 Uiso 0.057(3) 1 calc PR C 3
H10F H 0.9777 0.0494 0.1862 0.043 Uiso 0.057(3) 1 calc PR C 3
C11C C 0.823(2) 0.0153(18) 0.0314(15) 0.036(2) Uiso 0.057(3) 1 d PRD C 3
H11E H 0.8429 -0.1028 0.0569 0.043 Uiso 0.057(3) 1 calc PR C 3
H11F H 0.8256 0.0526 -0.0651 0.043 Uiso 0.057(3) 1 calc PR C 3
C12C C 0.657(2) 0.0833(18) 0.1059(15) 0.036(2) Uiso 0.057(3) 1 d PRD C 3
H12E H 0.5480 0.1106 0.0537 0.043 Uiso 0.057(3) 1 calc PR C 3
H12F H 0.6272 0.0182 0.1943 0.043 Uiso 0.057(3) 1 calc PR C 3
C13C C 0.408(2) 0.7155(18) 0.8451(15) 0.036(2) Uiso 0.057(3) 1 d PRD C 3
H13C H 0.4198 0.6241 0.9225 0.043 Uiso 0.057(3) 1 calc PR C 3
C14C C 0.508(2) 0.8460(18) 0.8696(15) 0.036(2) Uiso 0.057(3) 1 d PRD C 3
H14E H 0.5519 0.9204 0.7889 0.043 Uiso 0.057(3) 1 calc PR C 3
H14F H 0.6069 0.8112 0.9303 0.043 Uiso 0.057(3) 1 calc PR C 3
C15C C 0.335(2) 0.9097(18) 0.9355(15) 0.036(2) Uiso 0.057(3) 1 d PRD C 3
H15E H 0.3270 0.8752 1.0322 0.043 Uiso 0.057(3) 1 calc PR C 3
H15F H 0.3116 1.0271 0.9073 0.043 Uiso 0.057(3) 1 calc PR C 3
C16C C 0.232(2) 0.8134(18) 0.8681(15) 0.036(2) Uiso 0.057(3) 1 d PRD C 3
H16E H 0.1796 0.8751 0.7864 0.043 Uiso 0.057(3) 1 calc PR C 3
H16F H 0.1383 0.7490 0.9251 0.043 Uiso 0.057(3) 1 calc PR C 3
N1C N 0.748(2) 0.2964(18) 0.2199(15) 0.036(2) Uiso 0.057(3) 1 d PRD C 3
N2C N 0.439(2) 0.6510(18) 0.7289(15) 0.036(2) Uiso 0.057(3) 1 d PRD C 3
O1C O 0.775(2) 0.0812(18) 0.4080(15) 0.036(2) Uiso 0.057(3) 1 d PRD C 3
O2C O 0.699(2) 0.5487(18) 0.0915(15) 0.036(2) Uiso 0.057(3) 1 d PRD C 3
O3C O 0.456(2) 0.3919(18) 0.8484(15) 0.036(2) Uiso 0.057(3) 1 d PRD C 3
O4C O 0.410(2) 0.8693(18) 0.5567(15) 0.036(2) Uiso 0.057(3) 1 d PRD C 3
S1C S 0.559(2) 0.2961(18) 0.5635(15) 0.036(2) Uiso 0.057(3) 1 d PR C 3
S2C S 0.536(2) 0.6459(18) 0.3421(15) 0.036(2) Uiso 0.057(3) 1 d PR C 3
C17C C 0.932(2) 0.3187(18) 0.5126(15) 0.036(2) Uiso 0.057(3) 1 d PRD C 3
C18C C 0.936(2) 0.4540(18) 0.5791(15) 0.036(2) Uiso 0.057(3) 1 d PRD C 3
C19C C 0.940(2) 0.4387(18) 0.7174(15) 0.036(2) Uiso 0.057(3) 1 d PRD C 3
H19C H 0.9444 0.3365 0.7756 0.043 Uiso 0.057(3) 1 calc PR C 3
C20C C 0.936(2) 0.5721(18) 0.7602(15) 0.036(2) Uiso 0.057(3) 1 d PRD C 3
H20C H 0.9406 0.5698 0.8512 0.043 Uiso 0.057(3) 1 calc PR C 3
C21C C 0.924(2) 0.7202(18) 0.6686(15) 0.036(2) Uiso 0.057(3) 1 d PRD C 3
H21C H 0.9186 0.8174 0.6996 0.043 Uiso 0.057(3) 1 calc PR C 3
C22C C 0.919(2) 0.7284(18) 0.5293(15) 0.036(2) Uiso 0.057(3) 1 d PRD C 3
H22C H 0.9080 0.8300 0.4708 0.043 Uiso 0.057(3) 1 calc PR C 3
C23C C 0.931(2) 0.5962(18) 0.4830(15) 0.036(2) Uiso 0.057(3) 1 d PRD C 3
C24C C 0.914(2) 0.5869(18) 0.3377(15) 0.036(2) Uiso 0.057(3) 1 d PRD C 3
H24C H 0.9157 0.6939 0.2756 0.043 Uiso 0.057(3) 1 calc PR C 3
C25C C 1.059(2) 0.4690(18) 0.3068(15) 0.036(2) Uiso 0.057(3) 1 d PRD C 3
C26C C 1.176(2) 0.4748(18) 0.1927(15) 0.036(2) Uiso 0.057(3) 1 d PRD C 3
H26C H 1.1754 0.5719 0.1280 0.043 Uiso 0.057(3) 1 calc PR C 3
C27C C 1.289(2) 0.3484(18) 0.1691(15) 0.036(2) Uiso 0.057(3) 1 d PRD C 3
H27C H 1.3612 0.3557 0.0901 0.043 Uiso 0.057(3) 1 calc PR C 3
C28C C 1.291(2) 0.2129(18) 0.2669(15) 0.036(2) Uiso 0.057(3) 1 d PRD C 3
H28C H 1.3654 0.1237 0.2531 0.043 Uiso 0.057(3) 1 calc PR C 3
C29C C 1.194(2) 0.1977(18) 0.3825(15) 0.036(2) Uiso 0.057(3) 1 d PRD C 3
H29C H 1.2043 0.1023 0.4484 0.043 Uiso 0.057(3) 1 calc PR C 3
C30C C 1.076(2) 0.3260(18) 0.4031(15) 0.036(2) Uiso 0.057(3) 1 d PRD C 3
C31C C 0.959(2) 0.1626(18) 0.6168(15) 0.036(2) Uiso 0.057(3) 1 d PRD C 3
H31G H 0.9732 0.0709 0.5738 0.053 Uiso 0.057(3) 1 calc PR C 3
H31H H 0.8525 0.1480 0.6780 0.053 Uiso 0.057(3) 1 calc PR C 3
H31I H 1.0668 0.1697 0.6650 0.053 Uiso 0.057(3) 1 calc PR C 3
loop_
_atom_site_aniso_label
_atom_site_aniso_U_11
_atom_site_aniso_U_22
_atom_site_aniso_U_33
_atom_site_aniso_U_23
_atom_site_aniso_U_13
_atom_site_aniso_U_12
C1A 0.028(3) 0.027(3) 0.024(3) -0.015(2) -0.004(2) 0.009(2)
C2A 0.026(3) 0.027(3) 0.019(3) -0.012(2) -0.002(2) 0.006(2)
C3A 0.031(3) 0.014(3) 0.029(3) -0.003(2) 0.001(2) 0.005(2)
C4A 0.029(3) 0.025(3) 0.032(3) -0.002(2) -0.008(2) 0.000(2)
C5A 0.033(3) 0.030(3) 0.023(3) -0.014(2) 0.010(2) 0.000(2)
C6A 0.026(3) 0.036(3) 0.024(3) -0.013(3) -0.002(2) 0.000(3)
C7A 0.034(3) 0.021(3) 0.037(3) -0.002(2) 0.000(3) -0.002(2)
C8A 0.023(3) 0.025(3) 0.036(3) -0.002(2) -0.002(2) -0.004(2)
C9A 0.040(4) 0.029(3) 0.032(3) -0.012(3) 0.006(3) -0.005(3)
C10A 0.035(3) 0.060(4) 0.042(3) -0.012(2) 0.001(2) -0.005(3)
C11A 0.039(4) 0.066(5) 0.066(5) -0.046(4) 0.006(4) 0.002(4)
C12A 0.033(3) 0.029(3) 0.037(3) -0.018(3) -0.001(3) -0.002(2)
C13A 0.043(4) 0.043(4) 0.029(3) -0.018(3) 0.003(3) 0.005(3)
C14A 0.037(4) 0.051(4) 0.040(4) -0.020(3) -0.006(3) 0.012(3)
C15A 0.051(5) 0.051(4) 0.051(4) -0.032(4) 0.001(4) 0.003(4)
C16A 0.030(3) 0.079(5) 0.095(5) -0.076(4) 0.009(3) 0.003(3)
N1A 0.034(3) 0.019(2) 0.031(3) -0.007(2) 0.004(2) 0.002(2)
N2A 0.034(3) 0.034(3) 0.026(3) -0.013(2) 0.002(2) 0.003(2)
O1A 0.047(3) 0.026(2) 0.034(2) -0.0118(18) 0.002(2) 0.007(2)
O2A 0.050(3) 0.029(3) 0.032(3) -0.0088(19) 0.002(2) -0.004(2)
O3A 0.063(3) 0.032(3) 0.021(2) -0.0018(19) 0.008(2) 0.000(2)
O4A 0.044(3) 0.025(2) 0.038(3) -0.0048(19) -0.011(2) 0.013(2)
S1A 0.0381(8) 0.0220(8) 0.0259(8) -0.0048(6) -0.0008(6) 0.0054(7)
S2A 0.0421(9) 0.0188(8) 0.0279(8) -0.0021(6) 0.0034(7) 0.0038(7)
C17A 0.039(3) 0.035(3) 0.019(2) 0.011(2) 0.000(2) 0.000(2)
C18A 0.029(3) 0.023(3) 0.033(3) 0.004(2) -0.003(2) -0.004(2)
C19A 0.039(4) 0.036(3) 0.041(4) -0.009(3) 0.000(3) 0.002(3)
C20A 0.029(3) 0.061(5) 0.047(4) -0.034(4) 0.004(3) -0.004(3)
C21A 0.034(4) 0.034(3) 0.063(5) -0.023(3) -0.009(3) 0.009(3)
C22A 0.042(4) 0.034(4) 0.061(5) -0.009(3) -0.002(4) -0.001(3)
C23A 0.037(4) 0.024(3) 0.036(4) -0.004(3) 0.001(3) 0.001(3)
C24A 0.025(3) 0.029(3) 0.055(4) -0.016(2) -0.004(2) 0.006(2)
C25A 0.030(3) 0.049(4) 0.038(3) -0.016(3) 0.002(3) 0.007(3)
C26A 0.030(3) 0.055(4) 0.035(4) 0.000(3) 0.003(3) -0.009(3)
C27A 0.024(3) 0.063(5) 0.048(4) -0.011(4) -0.001(3) -0.004(3)
C28A 0.024(3) 0.062(5) 0.059(4) -0.030(4) 0.009(3) -0.006(3)
C29A 0.024(3) 0.031(3) 0.050(4) -0.013(3) -0.006(3) 0.007(2)
C30A 0.022(3) 0.040(4) 0.040(4) -0.008(3) -0.003(3) 0.001(3)
C31A 0.056(2) 0.0345(19) 0.039(2) 0.0028(16) 0.0117(17) 0.0076(16)
loop_
_atom_type_symbol
_atom_type_description
_atom_type_scat_dispersion_real
_atom_type_scat_dispersion_imag
_atom_type_scat_source
C C 0.0033 0.0016 'International Tables Vol C Tables 4.2.6.8 and 6.1.1.4'
H H 0.0000 0.0000 'International Tables Vol C Tables 4.2.6.8 and 6.1.1.4'
N N 0.0061 0.0033 'International Tables Vol C Tables 4.2.6.8 and 6.1.1.4'
O O 0.0106 0.0060 'International Tables Vol C Tables 4.2.6.8 and 6.1.1.4'
S S 0.1246 0.1234 'International Tables Vol C Tables 4.2.6.8 and 6.1.1.4'
loop_
_geom_angle_atom_site_label_1
_geom_angle_atom_site_label_2
_geom_angle_atom_site_label_3
_geom_angle
O1A C1A N1A 127.5(6)
O1A C1A C2A 127.5(6)
N1A C1A C2A 105.0(5)
C3A C2A C1A 109.1(5)
C3A C2A S1A 132.8(4)
C1A C2A S1A 118.0(4)
C2A C3A C4A 107.5(5)
C2A C3A S2A 132.2(5)
C4A C3A S2A 120.3(4)
O2A C4A N1A 124.9(6)
O2A C4A C3A 126.7(6)
N1A C4A C3A 108.4(5)
O3A C5A N2A 128.3(5)
O3A C5A C6A 127.0(6)
N2A C5A C6A 104.7(5)
C7A C6A C5A 109.5(5)
C7A C6A S1A 132.7(5)
C5A C6A S1A 117.7(5)
C6A C7A C8A 108.4(6)
C6A C7A S2A 130.8(5)
C8A C7A S2A 120.8(5)
O4A C8A N2A 125.7(6)
O4A C8A C7A 127.3(6)
N2A C8A C7A 106.9(5)
N1A C9A C10A 122.8(6)
N1A C9A C12A 119.8(5)
C10A C9A C12A 88.5(5)
N1A C9A H9A 108.0
C10A C9A H9A 108.0
C12A C9A H9A 108.0
C9A C10A C11A 89.5(5)
C9A C10A H10A 113.7
C11A C10A H10A 113.7
C9A C10A H10B 113.7
C11A C10A H10B 113.7
H10A C10A H10B 111.0
C10A C11A C12A 88.7(5)
C10A C11A H11A 113.9
C12A C11A H11A 113.9
C10A C11A H11B 113.9
C12A C11A H11B 113.9
H11A C11A H11B 111.1
C11A C12A C9A 87.1(5)
C11A C12A H12A 114.1
C9A C12A H12A 114.1
C11A C12A H12B 114.1
C9A C12A H12B 114.1
H12A C12A H12B 111.3
N2A C13A C14A 119.9(6)
N2A C13A C16A 119.7(6)
C14A C13A C16A 89.4(5)
N2A C13A H13A 108.8
C14A C13A H13A 108.8
C16A C13A H13A 108.8
C13A C14A C15A 87.7(5)
C13A C14A H14A 114.0
C15A C14A H14A 114.0
C13A C14A H14B 114.0
C15A C14A H14B 114.0
H14A C14A H14B 111.2
C14A C15A C16A 87.7(5)
C14A C15A H15A 114.0
C16A C15A H15A 114.0
C14A C15A H15B 114.0
C16A C15A H15B 114.0
H15A C15A H15B 111.2
C13A C16A C15A 86.0(5)
C13A C16A H16A 114.3
C15A C16A H16A 114.3
C13A C16A H16B 114.3
C15A C16A H16B 114.3
H16A C16A H16B 111.5
C1A N1A C4A 109.9(5)
C1A N1A C9A 126.2(5)
C4A N1A C9A 123.0(5)
C5A N2A C8A 110.3(5)
C5A N2A C13A 124.0(6)
C8A N2A C13A 125.2(6)
C2A S1A C6A 94.8(3)
C3A S2A C7A 96.6(3)
C18A C17A C30A 123.5(5)
C18A C17A C31A 123.0(5)
C30A C17A C31A 113.5(6)
C17A C18A C19A 121.6(5)
C17A C18A C23A 118.0(6)
C19A C18A C23A 120.1(6)
C18A C19A C20A 121.0(7)
C18A C19A H19A 119.5
C20A C19A H19A 119.5
C19A C20A C21A 120.1(7)
C19A C20A H20A 119.9
C21A C20A H20A 119.9
C22A C21A C20A 117.6(6)
C22A C21A H21A 121.2
C20A C21A H21A 121.2
C21A C22A C23A 125.0(7)
C21A C22A H22A 117.5
C23A C22A H22A 117.5
C24A C23A C22A 121.3(7)
C24A C23A C18A 122.7(6)
C22A C23A C18A 115.8(7)
C23A C24A C25A 118.2(7)
C23A C24A H24A 120.9
C25A C24A H24A 120.9
C30A C25A C24A 121.8(7)
C30A C25A C26A 115.2(6)
C24A C25A C26A 123.0(7)
C27A C26A C25A 122.6(7)
C27A C26A H26A 118.7
C25A C26A H26A 118.7
C28A C27A C26A 119.5(7)
C28A C27A H27A 120.2
C26A C27A H27A 120.2
C27A C28A C29A 124.2(7)
C27A C28A H28A 117.9
C29A C28A H28A 117.9
C28A C29A C30A 118.1(6)
C28A C29A H29A 121.0
C30A C29A H29A 121.0
C25A C30A C17A 115.7(6)
C25A C30A C29A 120.3(6)
C17A C30A C29A 123.9(6)
C17A C31A H31A 109.5
C17A C31A H31B 109.5
H31A C31A H31B 109.5
C17A C31A H31C 109.5
H31A C31A H31C 109.5
H31B C31A H31C 109.5
O1B C1B N1B 130.3
O1B C1B C2B 121.0
N1B C1B C2B 108.6
C3B C2B C1B 103.2
C3B C2B S1B 128.5
C1B C2B S1B 128.2
C2B C3B C4B 110.5
C2B C3B S2B 122.6
C4B C3B S2B 126.7
O2B C4B N1B 124.3
O2B C4B C3B 129.3
N1B C4B C3B 106.4
O3B C5B N2B 127.2
O3B C5B C6B 130.3
N2B C5B C6B 102.5
C7B C6B C17B 102.1
C7B C6B C5B 111.7
C17B C6B C5B 105.1
C7B C6B S1B 123.7
C17B C6B S1B 110.5
C5B C6B S1B 102.6
C8B C7B C6B 100.3
C8B C7B C24B 108.3
C6B C7B C24B 119.4
C8B C7B S2B 105.3
C6B C7B S2B 116.0
C24B C7B S2B 106.2
O4B C8B N2B 124.7
O4B C8B C7B 124.3
N2B C8B C7B 110.9
C12B C9B N1B 118.4
C12B C9B C10B 89.5
N1B C9B C10B 117.6
C12B C9B H9B 109.9
N1B C9B H9B 109.9
C10B C9B H9B 109.9
C11B C10B C9B 85.3
C11B C10B H10C 114.4
C9B C10B H10C 114.4
C11B C10B H10D 114.4
C9B C10B H10D 114.4
H10C C10B H10D 111.6
C10B C11B C12B 85.5
C10B C11B H11C 114.4
C12B C11B H11C 114.4
C10B C11B H11D 114.4
C12B C11B H11D 114.4
H11C C11B H11D 111.5
C9B C12B C11B 85.5
C9B C12B H12C 114.4
C11B C12B H12C 114.4
C9B C12B H12D 114.4
C11B C12B H12D 114.4
H12C C12B H12D 111.5
C14B C13B N2B 120.1
C14B C13B C16B 87.6
N2B C13B C16B 119.4
C14B C13B H13B 109.3
N2B C13B H13B 109.3
C16B C13B H13B 109.3
C13B C14B C15B 89.2
C13B C14B H14C 113.8
C15B C14B H14C 113.8
C13B C14B H14D 113.8
C15B C14B H14D 113.8
H14C C14B H14D 111.0
C16B C15B C14B 87.6
C16B C15B H15C 114.0
C14B C15B H15C 114.0
C16B C15B H15D 114.0
C14B C15B H15D 114.0
H15C C15B H15D 111.2
C15B C16B C13B 88.4
C15B C16B H16C 113.9
C13B C16B H16C 113.9
C15B C16B H16D 113.9
C13B C16B H16D 113.9
H16C C16B H16D 111.1
C4B N1B C1B 111.3
C4B N1B C9B 120.1
C1B N1B C9B 128.3
C5B N2B C13B 117.8
C5B N2B C8B 113.9
C13B N2B C8B 128.3
C2B S1B C6B 97.8
C3B S2B C7B 103.2
C31B C17B C18B 109.9
C31B C17B C30B 113.7
C18B C17B C30B 108.6
C31B C17B C6B 111.9
C18B C17B C6B 109.4
C30B C17B C6B 102.9
C23B C18B C19B 123.9
C23B C18B C17B 111.6
C19B C18B C17B 123.7
C20B C19B C18B 116.2
C20B C19B H19B 121.9
C18B C19B H19B 121.9
C19B C20B C21B 122.2
C19B C20B H20B 118.9
C21B C20B H20B 118.9
C22B C21B C20B 118.5
C22B C21B H21B 120.8
C20B C21B H21B 120.8
C23B C22B C21B 120.7
C23B C22B H22B 119.7
C21B C22B H22B 119.7
C22B C23B C18B 118.1
C22B C23B C24B 125.8
C18B C23B C24B 116.0
C25B C24B C23B 110.5
C25B C24B C7B 102.4
C23B C24B C7B 100.6
C25B C24B H24B 114.0
C23B C24B H24B 114.0
C7B C24B H24B 114.0
C30B C25B C26B 118.7
C30B C25B C24B 112.0
C26B C25B C24B 129.3
C27B C26B C25B 123.3
C27B C26B H26B 118.4
C25B C26B H26B 118.4
C26B C27B C28B 113.6
C26B C27B H27B 123.2
C28B C27B H27B 123.2
C29B C28B C27B 127.0
C29B C28B H28B 116.5
C27B C28B H28B 116.5
C30B C29B C28B 118.4
C30B C29B H29B 120.8
C28B C29B H29B 120.8
C29B C30B C25B 118.6
C29B C30B C17B 125.2
C25B C30B C17B 116.2
C17B C31B H31D 109.5
C17B C31B H31E 109.5
H31D C31B H31E 109.5
C17B C31B H31F 109.5
H31D C31B H31F 109.5
H31E C31B H31F 109.5
O1C C1C N1C 131.0
O1C C1C C2C 120.0
N1C C1C C2C 108.6
C3C C2C C1C 102.7
C3C C2C C17C 116.7
C1C C2C C17C 103.3
C3C C2C S1C 121.7
C1C C2C S1C 107.2
C17C C2C S1C 103.6
C2C C3C C4C 111.4
C2C C3C C24C 106.9
C4C C3C C24C 106.1
C2C C3C S2C 121.3
C4C C3C S2C 105.0
C24C C3C S2C 105.1
O2C C4C N1C 124.7
O2C C4C C3C 129.9
N1C C4C C3C 105.3
O3C C5C N2C 126.2
O3C C5C C6C 130.2
N2C C5C C6C 103.2
C7C C6C C5C 111.1
C7C C6C S1C 122.1
C5C C6C S1C 124.1
C6C C7C C8C 100.9
C6C C7C S2C 126.5
C8C C7C S2C 132.3
O4C C8C N2C 124.3
O4C C8C C7C 125.6
N2C C8C C7C 110.1
C12C C9C N1C 117.0
C12C C9C C10C 89.7
N1C C9C C10C 116.3
C12C C9C H9C 110.8
N1C C9C H9C 110.8
C10C C9C H9C 110.8
C11C C10C C9C 85.2
C11C C10C H10E 114.4
C9C C10C H10E 114.4
C11C C10C H10F 114.4
C9C C10C H10F 114.4
H10E C10C H10F 111.6
C10C C11C C12C 86.4
C10C C11C H11E 114.3
C12C C11C H11E 114.3
C10C C11C H11F 114.3
C12C C11C H11F 114.3
H11E C11C H11F 111.4
C9C C12C C11C 85.3
C9C C12C H12E 114.4
C11C C12C H12E 114.4
C9C C12C H12F 114.4
C11C C12C H12F 114.4
H12E C12C H12F 111.6
C14C C13C N2C 123.1
C14C C13C C16C 87.9
N2C C13C C16C 121.2
C14C C13C H13C 107.6
N2C C13C H13C 107.6
C16C C13C H13C 107.6
C13C C14C C15C 89.8
C13C C14C H14E 113.7
C15C C14C H14E 113.7
C13C C14C H14F 113.7
C15C C14C H14F 113.7
H14E C14C H14F 110.9
C16C C15C C14C 87.4
C16C C15C H15E 114.1
C14C C15C H15E 114.1
C16C C15C H15F 114.1
C14C C15C H15F 114.1
H15E C15C H15F 111.3
C15C C16C C13C 88.9
C15C C16C H16E 113.8
C13C C16C H16E 113.8
C15C C16C H16F 113.8
C13C C16C H16F 113.8
H16E C16C H16F 111.0
C4C N1C C1C 111.8
C4C N1C C9C 120.2
C1C N1C C9C 128.0
C5C N2C C13C 117.3
C5C N2C C8C 113.6
C13C N2C C8C 129.1
C6C S1C C2C 105.8
C7C S2C C3C 100.2
C18C C17C C30C 113.1
C18C C17C C31C 107.5
C30C C17C C31C 109.9
C18C C17C C2C 104.4
C30C C17C C2C 102.4
C31C C17C C2C 119.5
C23C C18C C19C 127.5
C23C C18C C17C 107.7
C19C C18C C17C 124.8
C20C C19C C18C 116.7
C20C C19C H19C 121.7
C18C C19C H19C 121.7
C19C C20C C21C 118.8
C19C C20C H20C 120.6
C21C C20C H20C 120.6
C20C C21C C22C 122.1
C20C C21C H21C 118.9
C22C C21C H21C 118.9
C23C C22C C21C 120.4
C23C C22C H22C 119.8
C21C C22C H22C 119.8
C22C C23C C18C 114.4
C22C C23C C24C 125.7
C18C C23C C24C 119.3
C25C C24C C23C 106.8
C25C C24C C3C 102.6
C23C C24C C3C 105.1
C25C C24C H24C 113.8
C23C C24C H24C 113.8
C3C C24C H24C 113.8
C30C C25C C26C 114.8
C30C C25C C24C 114.7
C26C C25C C24C 130.4
C27C C26C C25C 124.7
C27C C26C H26C 117.6
C25C C26C H26C 117.6
C28C C27C C26C 115.8
C28C C27C H27C 122.1
C26C C27C H27C 122.1
C29C C28C C27C 124.3
C29C C28C H28C 117.9
C27C C28C H28C 117.9
C28C C29C C30C 119.0
C28C C29C H29C 120.5
C30C C29C H29C 120.5
C25C C30C C29C 121.2
C25C C30C C17C 111.9
C29C C30C C17C 125.9
C17C C31C H31G 109.5
C17C C31C H31H 109.5
H31G C31C H31H 109.5
C17C C31C H31I 109.5
H31G C31C H31I 109.5
H31H C31C H31I 109.5
loop_
_geom_bond_atom_site_label_1
_geom_bond_atom_site_label_2
_geom_bond_distance
C1A O1A 1.181(7)
C1A N1A 1.368(8)
C1A C2A 1.553(7)
C2A C3A 1.323(8)
C2A S1A 1.741(6)
C3A C4A 1.476(8)
C3A S2A 1.729(6)
C4A O2A 1.231(7)
C4A N1A 1.412(7)
C5A O3A 1.171(7)
C5A N2A 1.373(8)
C5A C6A 1.508(7)
C6A C7A 1.339(9)
C6A S1A 1.762(6)
C7A C8A 1.443(9)
C7A S2A 1.734(7)
C8A O4A 1.227(7)
C8A N2A 1.427(8)
C9A N1A 1.452(8)
C9A C10A 1.498(9)
C9A C12A 1.557(8)
C9A H9A 1.0000
C10A C11A 1.521(9)
C10A H10A 0.9900
C10A H10B 0.9900
C11A C12A 1.529(8)
C11A H11A 0.9900
C11A H11B 0.9900
C12A H12A 0.9900
C12A H12B 0.9900
C13A N2A 1.468(8)
C13A C14A 1.529(10)
C13A C16A 1.558(9)
C13A H13A 1.0000
C14A C15A 1.556(9)
C14A H14A 0.9900
C14A H14B 0.9900
C15A C16A 1.576(9)
C15A H15A 0.9900
C15A H15B 0.9900
C16A H16A 0.9900
C16A H16B 0.9900
C17A C18A 1.351(9)
C17A C30A 1.449(9)
C17A C31A 1.483(6)
C18A C19A 1.354(9)
C18A C23A 1.444(8)
C19A C20A 1.367(9)
C19A H19A 0.9500
C20A C21A 1.458(11)
C20A H20A 0.9500
C21A C22A 1.293(10)
C21A H21A 0.9500
C22A C23A 1.418(10)
C22A H22A 0.9500
C23A C24A 1.355(9)
C24A C25A 1.439(9)
C24A H24A 0.9500
C25A C30A 1.424(9)
C25A C26A 1.509(9)
C26A C27A 1.354(10)
C26A H26A 0.9500
C27A C28A 1.341(12)
C27A H27A 0.9500
C28A C29A 1.407(9)
C28A H28A 0.9500
C29A C30A 1.450(9)
C29A H29A 0.9500
C31A H31A 0.9800
C31A H31B 0.9800
C31A H31C 0.9800
C1B O1B 1.2213
C1B N1B 1.3940
C1B C2B 1.5095
C2B C3B 1.3718
C2B S1B 1.8092
C3B C4B 1.5040
C3B S2B 1.6575
C4B O2B 1.2623
C4B N1B 1.3247
C5B O3B 1.2176
C5B N2B 1.3632
C5B C6B 1.5676
C6B C7B 1.5260
C6B C17B 1.5565
C6B S1B 1.8841
C7B C8B 1.4819
C7B C24B 1.5688
C7B S2B 1.8569
C8B O4B 1.1278
C8B N2B 1.4677
C9B C12B 1.4449
C9B N1B 1.4955
C9B C10B 1.5290
C9B H9B 1.0000
C10B C11B 1.5055
C10B H10C 0.9900
C10B H10D 0.9900
C11B C12B 1.5794
C11B H11C 0.9900
C11B H11D 0.9900
C12B H12C 0.9900
C12B H12D 0.9900
C13B C14B 1.4340
C13B N2B 1.4385
C13B C16B 1.5631
C13B H13B 1.0000
C14B C15B 1.5520
C14B H14C 0.9900
C14B H14D 0.9900
C15B C16B 1.4450
C15B H15C 0.9900
C15B H15D 0.9900
C16B H16C 0.9900
C16B H16D 0.9900
C17B C31B 1.5212
C17B C18B 1.5287
C17B C30B 1.5357
C18B C23B 1.3964
C18B C19B 1.4016
C19B C20B 1.3587
C19B H19B 0.9500
C20B C21B 1.4207
C20B H20B 0.9500
C21B C22B 1.4133
C21B H21B 0.9500
C22B C23B 1.3595
C22B H22B 0.9500
C23B C24B 1.5239
C24B C25B 1.4519
C24B H24B 1.0000
C25B C30B 1.4052
C25B C26B 1.4432
C26B C27B 1.3496
C26B H26B 0.9500
C27B C28B 1.3778
C27B H27B 0.9500
C28B C29B 1.3774
C28B H28B 0.9500
C29B C30B 1.3638
C29B H29B 0.9500
C31B H31D 0.9800
C31B H31E 0.9800
C31B H31F 0.9800
C1C O1C 1.2299
C1C N1C 1.4006
C1C C2C 1.4914
C2C C3C 1.3793
C2C C17C 1.6712
C2C S1C 1.8764
C3C C4C 1.4958
C3C C24C 1.6303
C3C S2C 1.9143
C4C O2C 1.2795
C4C N1C 1.3199
C5C O3C 1.2039
C5C N2C 1.3657
C5C C6C 1.5744
C6C C7C 1.5034
C6C S1C 1.6018
C7C C8C 1.5055
C7C S2C 1.6709
C8C O4C 1.1395
C8C N2C 1.4634
C9C C12C 1.4467
C9C N1C 1.4919
C9C C10C 1.5335
C9C H9C 1.0000
C10C C11C 1.4946
C10C H10E 0.9900
C10C H10F 0.9900
C11C C12C 1.5762
C11C H11E 0.9900
C11C H11F 0.9900
C12C H12E 0.9900
C12C H12F 0.9900
C13C C14C 1.4339
C13C N2C 1.4385
C13C C16C 1.5567
C13C H13C 1.0000
C14C C15C 1.5525
C14C H14E 0.9900
C14C H14F 0.9900
C15C C16C 1.4536
C15C H15E 0.9900
C15C H15F 0.9900
C16C H16E 0.9900
C16C H16F 0.9900
C17C C18C 1.4691
C17C C30C 1.5116
C17C C31C 1.5408
C18C C23C 1.3992
C18C C19C 1.4252
C19C C20C 1.3046
C19C H19C 0.9500
C20C C21C 1.4139
C20C H20C 0.9500
C21C C22C 1.4446
C21C H21C 0.9500
C22C C23C 1.3143
C22C H22C 0.9500
C23C C24C 1.5503
C24C C25C 1.5105
C24C H24C 1.0000
C25C C30C 1.4095
C25C C26C 1.4261
C26C C27C 1.3925
C26C H26C 0.9500
C27C C28C 1.3684
C27C H27C 0.9500
C28C C29C 1.3574
C28C H28C 0.9500
C29C C30C 1.4138
C29C H29C 0.9500
C31C H31G 0.9800
C31C H31H 0.9800
C31C H31I 0.9800
loop_
_geom_torsion_atom_site_label_1
_geom_torsion_atom_site_label_2
_geom_torsion_atom_site_label_3
_geom_torsion_atom_site_label_4
_geom_torsion
O1A C1A C2A C3A 179.6(7)
N1A C1A C2A C3A 0.1(6)
O1A C1A C2A S1A -3.4(9)
N1A C1A C2A S1A 177.1(4)
C1A C2A C3A C4A -1.0(6)
S1A C2A C3A C4A -177.5(5)
C1A C2A C3A S2A 178.9(5)
S1A C2A C3A S2A 2.5(10)
C2A C3A C4A O2A -179.4(6)
S2A C3A C4A O2A 0.7(9)
C2A C3A C4A N1A 1.6(7)
S2A C3A C4A N1A -178.4(5)
O3A C5A C6A C7A -179.6(7)
N2A C5A C6A C7A -0.2(7)
O3A C5A C6A S1A -1.6(10)
N2A C5A C6A S1A 177.8(4)
C5A C6A C7A C8A -2.0(7)
S1A C6A C7A C8A -179.6(5)
C5A C6A C7A S2A 177.2(6)
S1A C6A C7A S2A -0.4(11)
C6A C7A C8A O4A -179.3(7)
S2A C7A C8A O4A 1.4(10)
C6A C7A C8A N2A 3.4(7)
S2A C7A C8A N2A -175.9(5)
N1A C9A C10A C11A 143.7(7)
C12A C9A C10A C11A 18.5(6)
C9A C10A C11A C12A -18.9(6)
C10A C11A C12A C9A 18.2(6)
N1A C9A C12A C11A -146.0(6)
C10A C9A C12A C11A -18.5(6)
N2A C13A C14A C15A 147.4(7)
C16A C13A C14A C15A 23.0(6)
C13A C14A C15A C16A -22.7(6)
N2A C13A C16A C15A -147.3(7)
C14A C13A C16A C15A -22.7(6)
C14A C15A C16A C13A 22.3(6)
O1A C1A N1A C4A -178.6(7)
C2A C1A N1A C4A 0.9(6)
O1A C1A N1A C9A 11.9(11)
C2A C1A N1A C9A -168.6(6)
O2A C4A N1A C1A 179.4(6)
C3A C4A N1A C1A -1.6(7)
O2A C4A N1A C9A -10.7(10)
C3A C4A N1A C9A 168.4(6)
C10A C9A N1A C1A -67.4(9)
C12A C9A N1A C1A 42.1(9)
C10A C9A N1A C4A 124.3(7)
C12A C9A N1A C4A -126.1(7)
O3A C5A N2A C8A -178.2(7)
C6A C5A N2A C8A 2.4(7)
O3A C5A N2A C13A 9.2(12)
C6A C5A N2A C13A -170.2(6)
O4A C8A N2A C5A 179.0(6)
C7A C8A N2A C5A -3.6(7)
O4A C8A N2A C13A -8.5(10)
C7A C8A N2A C13A 168.8(6)
C14A C13A N2A C5A 125.5(7)
C16A C13A N2A C5A -126.3(7)
C14A C13A N2A C8A -46.0(9)
C16A C13A N2A C8A 62.3(10)
C3A C2A S1A C6A -1.5(6)
C1A C2A S1A C6A -177.7(4)
C7A C6A S1A C2A 0.5(6)
C5A C6A S1A C2A -177.0(5)
C2A C3A S2A C7A -1.7(6)
C4A C3A S2A C7A 178.3(5)
C6A C7A S2A C3A 0.7(7)
C8A C7A S2A C3A 179.8(5)
C30A C17A C18A C19A 176.1(6)
C31A C17A C18A C19A -4.8(11)
C30A C17A C18A C23A 1.9(9)
C31A C17A C18A C23A -179.0(6)
C17A C18A C19A C20A -179.8(7)
C23A C18A C19A C20A -5.7(11)
C18A C19A C20A C21A 4.1(11)
C19A C20A C21A C22A -2.9(10)
C20A C21A C22A C23A 3.5(12)
C21A C22A C23A C24A 179.5(7)
C21A C22A C23A C18A -5.0(12)
C17A C18A C23A C24A -4.4(9)
C19A C18A C23A C24A -178.7(7)
C17A C18A C23A C22A -179.9(7)
C19A C18A C23A C22A 5.9(10)
C22A C23A C24A C25A 178.2(7)
C18A C23A C24A C25A 3.0(9)
C23A C24A C25A C30A 1.0(10)
C23A C24A C25A C26A 179.1(6)
C30A C25A C26A C27A -3.2(10)
C24A C25A C26A C27A 178.5(7)
C25A C26A C27A C28A 4.1(11)
C26A C27A C28A C29A -3.8(11)
C27A C28A C29A C30A 2.5(10)
C24A C25A C30A C17A -3.2(9)
C26A C25A C30A C17A 178.5(6)
C24A C25A C30A C29A -179.8(7)
C26A C25A C30A C29A 1.9(9)
C18A C17A C30A C25A 1.7(9)
C31A C17A C30A C25A -177.5(5)
C18A C17A C30A C29A 178.2(6)
C31A C17A C30A C29A -1.0(9)
C28A C29A C30A C25A -1.6(10)
C28A C29A C30A C17A -177.9(6)
O1B C1B C2B C3B -176.1
N1B C1B C2B C3B 1.2
O1B C1B C2B S1B 0.4
N1B C1B C2B S1B 177.7
C1B C2B C3B C4B -2.8
S1B C2B C3B C4B -179.3
C1B C2B C3B S2B -177.8
S1B C2B C3B S2B 5.7
C2B C3B C4B O2B -176.7
S2B C3B C4B O2B -1.9
C2B C3B C4B N1B 3.6
S2B C3B C4B N1B 178.4
O3B C5B C6B C7B -179.3
N2B C5B C6B C7B 1.5
O3B C5B C6B C17B 70.7
N2B C5B C6B C17B -108.5
O3B C5B C6B S1B -44.9
N2B C5B C6B S1B 136.0
C17B C6B C7B C8B 115.2
C5B C6B C7B C8B 3.3
S1B C6B C7B C8B -119.9
C17B C6B C7B C24B -2.8
C5B C6B C7B C24B -114.7
S1B C6B C7B C24B 122.1
C17B C6B C7B S2B -131.9
C5B C6B C7B S2B 116.2
S1B C6B C7B S2B -7.0
C6B C7B C8B O4B 176.1
C24B C7B C8B O4B -58.0
S2B C7B C8B O4B 55.3
C6B C7B C8B N2B -6.9
C24B C7B C8B N2B 119.0
S2B C7B C8B N2B -127.7
C12B C9B C10B C11B 29.1
N1B C9B C10B C11B 151.3
C9B C10B C11B C12B -26.5
N1B C9B C12B C11B -149.2
C10B C9B C12B C11B -27.6
C10B C11B C12B C9B 28.2
N2B C13B C14B C15B 142.2
C16B C13B C14B C15B 19.3
C13B C14B C15B C16B -20.9
C14B C15B C16B C13B 19.1
C14B C13B C16B C15B -20.8
N2B C13B C16B C15B -144.3
O2B C4B N1B C1B 177.6
C3B C4B N1B C1B -2.7
O2B C4B N1B C9B -7.8
C3B C4B N1B C9B 171.9
O1B C1B N1B C4B 178.0
C2B C1B N1B C4B 1.0
O1B C1B N1B C9B 4.0
C2B C1B N1B C9B -173.0
C12B C9B N1B C4B -128.0
C10B C9B N1B C4B 126.2
C12B C9B N1B C1B 45.6
C10B C9B N1B C1B -60.2
O3B C5B N2B C13B -7.4
C6B C5B N2B C13B 171.8
O3B C5B N2B C8B 174.7
C6B C5B N2B C8B -6.1
C14B C13B N2B C5B 130.8
C16B C13B N2B C5B -123.4
C14B C13B N2B C8B -51.6
C16B C13B N2B C8B 54.2
O4B C8B N2B C5B -174.0
C7B C8B N2B C5B 9.0
O4B C8B N2B C13B 8.3
C7B C8B N2B C13B -168.7
C3B C2B S1B C6B 33.9
C1B C2B S1B C6B -141.7
C7B C6B S1B C2B -29.5
C17B C6B S1B C2B 91.7
C5B C6B S1B C2B -156.7
C2B C3B S2B C7B -47.0
C4B C3B S2B C7B 138.8
C8B C7B S2B C3B 155.4
C6B C7B S2B C3B 45.4
C24B C7B S2B C3B -89.9
C7B C6B C17B C31B -179.1
C5B C6B C17B C31B -62.3
S1B C6B C17B C31B 47.7
C7B C6B C17B C18B -57.0
C5B C6B C17B C18B 59.8
S1B C6B C17B C18B 169.8
C7B C6B C17B C30B 58.4
C5B C6B C17B C30B 175.2
S1B C6B C17B C30B -74.8
C31B C17B C18B C23B -174.7
C30B C17B C18B C23B -49.6
C6B C17B C18B C23B 62.0
C31B C17B C18B C19B 15.5
C30B C17B C18B C19B 140.5
C6B C17B C18B C19B -107.9
C23B C18B C19B C20B 7.2
C17B C18B C19B C20B 175.8
C18B C19B C20B C21B -4.2
C19B C20B C21B C22B 0.6
C20B C21B C22B C23B 0.6
C21B C22B C23B C18B 2.1
C21B C22B C23B C24B -175.3
C19B C18B C23B C22B -6.2
C17B C18B C23B C22B -176.0
C19B C18B C23B C24B 171.4
C17B C18B C23B C24B 1.6
C22B C23B C24B C25B -130.5
C18B C23B C24B C25B 52.1
C22B C23B C24B C7B 121.9
C18B C23B C24B C7B -55.5
C8B C7B C24B C25B -170.6
C6B C7B C24B C25B -56.8
S2B C7B C24B C25B 76.7
C8B C7B C24B C23B -56.6
C6B C7B C24B C23B 57.1
S2B C7B C24B C23B -169.4
C23B C24B C25B C30B -52.4
C7B C24B C25B C30B 54.0
C23B C24B C25B C26B 129.6
C7B C24B C25B C26B -124.0
C30B C25B C26B C27B -4.8
C24B C25B C26B C27B 173.1
C25B C26B C27B C28B 2.7
C26B C27B C28B C29B 3.4
C27B C28B C29B C30B -7.4
C28B C29B C30B C25B 4.7
C28B C29B C30B C17B -175.1
C26B C25B C30B C29B 0.7
C24B C25B C30B C29B -177.5
C26B C25B C30B C17B -179.4
C24B C25B C30B C17B 2.4
C31B C17B C30B C29B -7.7
C18B C17B C30B C29B -130.5
C6B C17B C30B C29B 113.6
C31B C17B C30B C25B 172.5
C18B C17B C30B C25B 49.7
C6B C17B C30B C25B -66.2
O1C C1C C2C C3C 175.4
N1C C1C C2C C3C 1.4
O1C C1C C2C C17C 53.7
N1C C1C C2C C17C -120.4
O1C C1C C2C S1C -55.3
N1C C1C C2C S1C 130.6
C1C C2C C3C C4C 1.3
C17C C2C C3C C4C 113.4
S1C C2C C3C C4C -118.4
C1C C2C C3C C24C -114.2
C17C C2C C3C C24C -2.1
S1C C2C C3C C24C 126.1
C1C C2C C3C S2C 125.6
C17C C2C C3C S2C -122.3
S1C C2C C3C S2C 5.9
C2C C3C C4C O2C 172.8
C24C C3C C4C O2C -71.2
S2C C3C C4C O2C 39.8
C2C C3C C4C N1C -3.7
C24C C3C C4C N1C 112.3
S2C C3C C4C N1C -136.7
O3C C5C C6C C7C -179.6
N2C C5C C6C C7C 7.3
O3C C5C C6C S1C -17.9
N2C C5C C6C S1C 169.0
C5C C6C C7C C8C -10.6
S1C C6C C7C C8C -172.7
C5C C6C C7C S2C 175.1
S1C C6C C7C S2C 13.0
C6C C7C C8C O4C -171.2
S2C C7C C8C O4C 2.6
C6C C7C C8C N2C 10.2
S2C C7C C8C N2C -175.9
C12C C9C C10C C11C 28.4
N1C C9C C10C C11C 148.7
C9C C10C C11C C12C -25.9
N1C C9C C12C C11C -146.4
C10C C9C C12C C11C -26.8
C10C C11C C12C C9C 27.6
N2C C13C C14C C15C 144.1
C16C C13C C14C C15C 17.6
C13C C14C C15C C16C -18.9
C14C C15C C16C C13C 17.4
C14C C13C C16C C15C -18.9
N2C C13C C16C C15C -146.9
O2C C4C N1C C1C -172.2
C3C C4C N1C C1C 4.5
O2C C4C N1C C9C 9.2
C3C C4C N1C C9C -174.1
O1C C1C N1C C4C -177.1
C2C C1C N1C C4C -3.9
O1C C1C N1C C9C 1.4
C2C C1C N1C C9C 174.6
C12C C9C N1C C4C -130.6
C10C C9C N1C C4C 125.2
C12C C9C N1C C1C 51.0
C10C C9C N1C C1C -53.2
O3C C5C N2C C13C 5.3
C6C C5C N2C C13C 178.7
O3C C5C N2C C8C -173.8
C6C C5C N2C C8C -0.4
C14C C13C N2C C5C 128.6
C16C C13C N2C C5C -121.3
C14C C13C N2C C8C -52.5
C16C C13C N2C C8C 57.6
O4C C8C N2C C5C 174.8
C7C C8C N2C C5C -6.6
O4C C8C N2C C13C -4.2
C7C C8C N2C C13C 174.4
C7C C6C S1C C2C 28.6
C5C C6C S1C C2C -131.1
C3C C2C S1C C6C -37.4
C1C C2C S1C C6C -154.8
C17C C2C S1C C6C 96.4
C6C C7C S2C C3C -42.7
C8C C7C S2C C3C 144.9
C2C C3C S2C C7C 30.7
C4C C3C S2C C7C 157.8
C24C C3C S2C C7C -90.5
C3C C2C C17C C18C 62.1
C1C C2C C17C C18C 173.9
S1C C2C C17C C18C -74.4
C3C C2C C17C C30C -56.0
C1C C2C C17C C30C 55.8
S1C C2C C17C C30C 167.5
C3C C2C C17C C31C -177.7
C1C C2C C17C C31C -66.0
S1C C2C C17C C31C 45.7
C30C C17C C18C C23C 52.5
C31C C17C C18C C23C 174.0
C2C C17C C18C C23C -58.1
C30C C17C C18C C19C -129.1
C31C C17C C18C C19C -7.6
C2C C17C C18C C19C 120.4
C23C C18C C19C C20C 0.8
C17C C18C C19C C20C -177.4
C18C C19C C20C C21C 1.6
C19C C20C C21C C22C -1.2
C20C C21C C22C C23C -1.8
C21C C22C C23C C18C 3.8
C21C C22C C23C C24C 175.1
C19C C18C C23C C22C -3.5
C17C C18C C23C C22C 174.9
C19C C18C C23C C24C -175.4
C17C C18C C23C C24C 2.9
C22C C23C C24C C25C 137.6
C18C C23C C24C C25C -51.5
C22C C23C C24C C3C -113.9
C18C C23C C24C C3C 57.0
C2C C3C C24C C25C 60.2
C4C C3C C24C C25C -58.8
S2C C3C C24C C25C -169.6
C2C C3C C24C C23C -51.3
C4C C3C C24C C23C -170.3
S2C C3C C24C C23C 78.8
C23C C24C C25C C30C 45.0
C3C C24C C25C C30C -65.3
C23C C24C C25C C26C -139.2
C3C C24C C25C C26C 110.4
C30C C25C C26C C27C 4.4
C24C C25C C26C C27C -171.3
C25C C26C C27C C28C -2.5
C26C C27C C28C C29C -1.3
C27C C28C C29C C30C 2.8
C26C C25C C30C C29C -2.7
C24C C25C C30C C29C 173.7
C26C C25C C30C C17C -172.4
C24C C25C C30C C17C 4.1
C28C C29C C30C C25C -0.6
C28C C29C C30C C17C 167.5
C18C C17C C30C C25C -58.5
C31C C17C C30C C25C -178.6
C2C C17C C30C C25C 53.3
C18C C17C C30C C29C 132.5
C31C C17C C30C C29C 12.3
C2C C17C C30C C29C -115.8
