#------------------------------------------------------------------------------
#$Date: 2019-11-24 23:54:12 +0200 (Sun, 24 Nov 2019) $
#$Revision: 239740 $
#$URL: file:///home/coder/svn-repositories/cod/cif/4/51/71/4517104.cif $
#------------------------------------------------------------------------------
#
# This file is available in the Crystallography Open Database (COD),
# http://www.crystallography.net/
#
# All data on this site have been placed in the public domain by the
# contributors.
#
data_4517104
loop_
_publ_author_name
'Behrnd, Norwid-Rasmus'
'Labat, Ga\"el'
'Venugopalan, Paloth'
'Hulliger, J\"urg'
'B\"urgi, Hans-Beat'
_publ_section_title
;
 Orientational Disorder of (trans)-4-Chloro-4&#x2032;-nitrostilbene: A
 Detailed Analysis by Single Crystal X-ray Diffraction
;
_journal_issue                   1
_journal_name_full               'Crystal Growth &amp; Design'
_journal_page_first              52
_journal_paper_doi               10.1021/cg801278j
_journal_volume                  10
_journal_year                    2010
_chemical_formula_moiety         'C14 H10 Cl N O2'
_chemical_formula_sum            'C14 H10 Cl N O2'
_chemical_formula_weight         259.68
_space_group_IT_number           4
_space_group_name_Hall           'P 2ybc'
_space_group_name_H-M_alt        'P 1 21 1 (a,b,c-1/4)'
_symmetry_cell_setting           monoclinic
_symmetry_space_group_name_Hall  'P 2ybc'
_symmetry_space_group_name_H-M   'P 1 21 1 (a,b,c-1/4)'
_atom_sites_solution_hydrogens   geom
_atom_sites_solution_primary     direct
_atom_sites_solution_secondary   difmap
_audit_creation_method           SHELXL-97
_cell_angle_alpha                90.00
_cell_angle_beta                 93.242(2)
_cell_angle_gamma                90.00
_cell_formula_units_Z            2
_cell_length_a                   3.9228(2)
_cell_length_b                   12.9611(6)
_cell_length_c                   12.1996(6)
_cell_measurement_reflns_used    3476
_cell_measurement_temperature    293(2)
_cell_measurement_theta_max      25.94
_cell_measurement_theta_min      3.15
_cell_volume                     619.28(5)
_computing_cell_refinement       'SAINT (Bruker, 2003)'
_computing_data_collection       'SMART (Bruker, 1997)'
_computing_data_reduction        'SHELXTL (Bruker, 2000)'
_computing_molecular_graphics    'PLATON  (Spek, 2003)'
_computing_publication_material  SHELXL-97
_computing_structure_refinement  'SHELXL-97 (Sheldrick, 1997)'
_computing_structure_solution    'SHELXS-97 (Sheldrick, 1990)'
_diffrn_ambient_temperature      293(2)
_diffrn_measured_fraction_theta_full 0.922
_diffrn_measured_fraction_theta_max 0.922
_diffrn_measurement_device_type  'Bruker SMART 1K'
_diffrn_measurement_method       'omega scan method'
_diffrn_radiation_monochromator  graphite
_diffrn_radiation_source         'fine-focus sealed tube'
_diffrn_radiation_type           MoK\a
_diffrn_radiation_wavelength     0.71073
_diffrn_reflns_av_R_equivalents  0.0151
_diffrn_reflns_av_sigmaI/netI    0.0256
_diffrn_reflns_limit_h_max       3
_diffrn_reflns_limit_h_min       -5
_diffrn_reflns_limit_k_max       13
_diffrn_reflns_limit_k_min       -16
_diffrn_reflns_limit_l_max       15
_diffrn_reflns_limit_l_min       -14
_diffrn_reflns_number            3445
_diffrn_reflns_theta_full        27.66
_diffrn_reflns_theta_max         27.66
_diffrn_reflns_theta_min         2.29
_diffrn_standards_decay_%        0
_diffrn_standards_interval_time  0
_diffrn_standards_number         0
_exptl_absorpt_coefficient_mu    0.300
_exptl_absorpt_correction_T_max  1
_exptl_absorpt_correction_T_min  0.625968
_exptl_absorpt_correction_type   multi-scan
_exptl_absorpt_process_details   'SADABS (Bruker, 2004)'
_exptl_crystal_colour            yellow
_exptl_crystal_density_diffrn    1.393
_exptl_crystal_density_method    'not measured'
_exptl_crystal_description       'prismatic rod'
_exptl_crystal_F_000             268
_exptl_crystal_size_max          0.188
_exptl_crystal_size_mid          0.156
_exptl_crystal_size_min          0.109
_refine_diff_density_max         0.119
_refine_diff_density_min         -0.107
_refine_diff_density_rms         0.025
_refine_ls_abs_structure_details 'Flack H D (1983), Acta Cryst. A39, 876-881'
_refine_ls_abs_structure_Flack   -0.1(3)
_refine_ls_extinction_method     none
_refine_ls_goodness_of_fit_ref   1.031
_refine_ls_hydrogen_treatment    constr
_refine_ls_matrix_type           full
_refine_ls_number_parameters     101
_refine_ls_number_reflns         2296
_refine_ls_number_restraints     1
_refine_ls_restrained_S_all      1.031
_refine_ls_R_factor_all          0.0972
_refine_ls_R_factor_gt           0.0541
_refine_ls_shift/su_max          0.000
_refine_ls_shift/su_mean         0.000
_refine_ls_structure_factor_coef Fsqd
_refine_ls_weighting_details
'calc w=1/[\s^2^(Fo^2^)+(0.0377P)^2^+0.1249P] where P=(Fo^2^+2Fc^2^)/3'
_refine_ls_weighting_scheme      calc
_refine_ls_wR_factor_gt          0.1101
_refine_ls_wR_factor_ref         0.1264
_reflns_number_gt                1362
_reflns_number_total             2296
_reflns_threshold_expression     I>2sigma(I)
_cod_data_source_file            cg801278j_si_003.cif
_cod_data_source_block           CNS-bzIII-small-P21
_cod_original_sg_symbol_Hall     P2yb
_cod_original_sg_symbol_H-M      P21
_cod_database_code               4517104
loop_
_symmetry_equiv_pos_as_xyz
'x, y, z'
'-x, y+1/2, -z+1/2'
loop_
_atom_site_label
_atom_site_type_symbol
_atom_site_fract_x
_atom_site_fract_y
_atom_site_fract_z
_atom_site_U_iso_or_equiv
_atom_site_adp_type
_atom_site_occupancy
_atom_site_symmetry_multiplicity
_atom_site_calc_flag
_atom_site_refinement_flags
Cl1 Cl 0.3707(18) -0.4614(4) -0.1728(6) 0.1094(10) Uani 0.431(3) 1 d P
N11 N 0.369(3) -0.4148(6) -0.1747(11) 0.0840(19) Uani 0.569(3) 1 d P
O11 O 0.304(2) -0.4977(5) -0.1246(6) 0.130(2) Uani 0.569(3) 1 d P
O12 O 0.5021(14) -0.4141(4) -0.2566(4) 0.1120(10) Uani 0.569(3) 1 d P
C1 C 0.2608(8) -0.3292(3) -0.1226(3) 0.0726(5) Uani 1 1 d .
C2 C 0.3152(8) -0.2392(3) -0.1787(3) 0.0802(5) Uani 1 1 d .
H2A H 0.4134 -0.2408 -0.2463 0.096 Uiso 1 1 calc R
C3 C 0.2236(4) -0.14767(14) -0.13399(14) 0.0757(5) Uani 1 1 d .
H3A H 0.2591 -0.0867 -0.1720 0.091 Uiso 1 1 calc R
C4 C 0.0780(4) -0.14351(13) -0.03275(13) 0.0652(4) Uani 1 1 d .
C5 C 0.0282(4) -0.23604(13) 0.02082(14) 0.0722(5) Uani 1 1 d .
H5A H -0.0702 -0.2350 0.0884 0.087 Uiso 1 1 calc R
C6 C 0.1188(4) -0.32903(13) -0.02237(14) 0.0764(5) Uani 1 1 d .
H6A H 0.0850 -0.3903 0.0152 0.092 Uiso 1 1 calc R
C7 C -0.0238(3) -0.04664(7) 0.01829(12) 0.0726(5) Uani 1 1 d .
H7 H -0.1339 -0.0522 0.0836 0.087 Uiso 1 1 calc R
Cl11 Cl -0.3700(3) 0.46060(7) 0.17432(12) 0.1094(10) Uani 0.569(3) 1 d PR
N1 N -0.3647(3) 0.41555(7) 0.17407(12) 0.0840(19) Uani 0.431(3) 1 d PR
O1 O -0.3128(3) 0.49774(7) 0.12342(12) 0.130(2) Uani 0.431(3) 1 d PR
O2 O -0.5026(3) 0.41276(7) 0.25724(12) 0.1120(10) Uani 0.431(3) 1 d PR
C11 C -0.2615(3) 0.32913(7) 0.12285(12) 0.0726(5) Uani 1 1 d R
C12 C -0.3154(3) 0.23942(7) 0.17889(12) 0.0802(5) Uani 1 1 d R
H12A H -0.4133 0.2410 0.2466 0.096 Uiso 1 1 calc R
C13 C -0.2236(4) 0.14767(14) 0.13399(14) 0.0757(5) Uani 1 1 d .
H13A H -0.2591 0.0867 0.1719 0.091 Uiso 1 1 calc R
C14 C -0.0780(4) 0.14351(13) 0.03275(13) 0.0652(4) Uani 1 1 d .
C15 C -0.0282(4) 0.23604(13) -0.02082(14) 0.0722(5) Uani 1 1 d .
H15A H 0.0702 0.2350 -0.0884 0.087 Uiso 1 1 calc R
C16 C -0.1188(4) 0.32903(13) 0.02237(14) 0.0764(5) Uani 1 1 d .
H16A H -0.0848 0.3903 -0.0151 0.092 Uiso 1 1 calc R
C17 C 0.0238(3) 0.04664(7) -0.01829(12) 0.0726(5) Uani 1 1 d .
H17 H 0.1339 0.0522 -0.0836 0.087 Uiso 1 1 calc R
loop_
_atom_site_aniso_label
_atom_site_aniso_U_11
_atom_site_aniso_U_22
_atom_site_aniso_U_33
_atom_site_aniso_U_23
_atom_site_aniso_U_13
_atom_site_aniso_U_12
Cl1 0.1101(12) 0.0868(18) 0.132(2) -0.0393(19) 0.0123(12) 0.0179(16)
N11 0.082(3) 0.060(4) 0.108(4) 0.006(4) -0.008(3) 0.002(3)
O11 0.164(4) 0.078(3) 0.151(4) 0.007(2) 0.049(3) 0.005(2)
O12 0.151(3) 0.091(2) 0.097(2) -0.0267(18) 0.0349(19) 0.0155(18)
C1 0.0601(10) 0.0819(13) 0.0753(12) -0.0157(10) -0.0014(8) 0.0051(9)
C2 0.0688(11) 0.1058(15) 0.0666(11) -0.0037(10) 0.0100(9) -0.0004(10)
C3 0.0695(11) 0.0822(12) 0.0758(12) 0.0079(10) 0.0087(9) -0.0035(9)
C4 0.0515(9) 0.0780(11) 0.0658(11) -0.0060(9) 0.0011(7) 0.0009(8)
C5 0.0693(10) 0.0817(12) 0.0661(10) 0.0021(9) 0.0099(8) -0.0005(9)
C6 0.0763(11) 0.0747(12) 0.0783(12) 0.0021(9) 0.0053(9) 0.0021(9)
C7 0.0612(10) 0.0849(12) 0.0722(11) 0.0041(9) 0.0068(8) -0.0040(9)
Cl11 0.1101(12) 0.0868(18) 0.132(2) -0.0393(19) 0.0123(12) 0.0179(16)
N1 0.082(3) 0.060(4) 0.108(4) 0.006(4) -0.008(3) 0.002(3)
O1 0.164(4) 0.078(3) 0.151(4) 0.007(2) 0.049(3) 0.005(2)
O2 0.151(3) 0.091(2) 0.097(2) -0.0267(18) 0.0349(19) 0.0155(18)
C11 0.0601(10) 0.0819(13) 0.0753(12) -0.0157(10) -0.0014(8) 0.0051(9)
C12 0.0688(11) 0.1058(15) 0.0666(11) -0.0037(10) 0.0100(9) -0.0004(10)
C13 0.0695(11) 0.0822(12) 0.0758(12) 0.0079(10) 0.0087(9) -0.0035(9)
C14 0.0515(9) 0.0780(11) 0.0658(11) -0.0060(9) 0.0011(7) 0.0009(8)
C15 0.0693(10) 0.0817(12) 0.0661(10) 0.0021(9) 0.0099(8) -0.0005(9)
C16 0.0763(11) 0.0747(12) 0.0783(12) 0.0021(9) 0.0053(9) 0.0021(9)
C17 0.0612(10) 0.0849(12) 0.0722(11) 0.0041(9) 0.0068(8) -0.0040(9)
loop_
_atom_type_symbol
_atom_type_description
_atom_type_scat_dispersion_real
_atom_type_scat_dispersion_imag
_atom_type_scat_source
C C 0.0033 0.0016 'International Tables Vol C Tables 4.2.6.8 and 6.1.1.4'
H H 0.0000 0.0000 'International Tables Vol C Tables 4.2.6.8 and 6.1.1.4'
N N 0.0061 0.0033 'International Tables Vol C Tables 4.2.6.8 and 6.1.1.4'
O O 0.0106 0.0060 'International Tables Vol C Tables 4.2.6.8 and 6.1.1.4'
Cl Cl 0.1484 0.1585 'International Tables Vol C Tables 4.2.6.8 and 6.1.1.4'
loop_
_geom_angle_atom_site_label_1
_geom_angle_atom_site_label_2
_geom_angle_atom_site_label_3
_geom_angle
N11 Cl1 O11 127(2)
N11 Cl1 O12 60.7(17)
O11 Cl1 O12 171.8(9)
N11 Cl1 C1 25.6(17)
O11 Cl1 C1 101.8(8)
O12 Cl1 C1 86.3(4)
Cl1 N11 O12 92.1(18)
Cl1 N11 O11 30.5(15)
O12 N11 O11 122.5(8)
Cl1 N11 C1 143(2)
O12 N11 C1 124.6(9)
O11 N11 C1 112.9(10)
Cl1 O11 N11 22.3(8)
N11 O12 Cl1 27.2(4)
N11 C1 C2 113.5(6)
N11 C1 C6 124.9(6)
C2 C1 C6 121.6(3)
N11 C1 Cl1 11.1(7)
C2 C1 Cl1 124.6(3)
C6 C1 Cl1 113.9(3)
C3 C2 C1 119.2(3)
C3 C2 H2A 120.4
C1 C2 H2A 120.4
C2 C3 C4 121.3(2)
C2 C3 H3A 119.3
C4 C3 H3A 119.3
C5 C4 C3 117.49(16)
C5 C4 C7 119.45(14)
C3 C4 C7 123.06(16)
C6 C5 C4 122.24(16)
C6 C5 H5A 118.9
C4 C5 H5A 118.9
C1 C6 C5 118.1(2)
C1 C6 H6A 120.9
C5 C6 H6A 120.9
C17 C7 C4 126.84(17)
C17 C7 H7 116.6
C4 C7 H7 116.6
N1 Cl11 O1 124.5
N1 Cl11 O2 63.2
O1 Cl11 O2 170.3
N1 Cl11 C11 23.1
O1 Cl11 C11 101.6
O2 Cl11 C11 86.4
Cl11 N1 O2 90.5
Cl11 N1 O1 32.9
O2 N1 O1 123.1
Cl11 N1 C11 147.1
O2 N1 C11 122.4
O1 N1 C11 114.4
Cl11 O1 N1 22.6
N1 O2 Cl11 26.3
N1 C11 C12 114.3
N1 C11 C16 123.95(7)
C12 C11 C16 121.69(7)
N1 C11 Cl11 9.8
C12 C11 Cl11 124.0
C16 C11 Cl11 114.27(7)
C13 C12 C11 119.11(9)
C13 C12 H12A 120.4
C11 C12 H12A 120.4
C12 C13 C14 121.37(16)
C12 C13 H13A 119.3
C14 C13 H13A 119.3
C15 C14 C13 117.49(16)
C15 C14 C17 119.45(14)
C13 C14 C17 123.06(16)
C16 C15 C14 122.24(16)
C16 C15 H15A 118.9
C14 C15 H15A 118.9
C11 C16 C15 118.09(14)
C11 C16 H16A 121.0
C15 C16 H16A 121.0
C7 C17 C14 126.84(17)
C7 C17 H17 116.6
C14 C17 H17 116.6
loop_
_geom_bond_atom_site_label_1
_geom_bond_atom_site_label_2
_geom_bond_distance
Cl1 N11 0.605(9)
Cl1 O11 0.809(7)
Cl1 O12 1.321(8)
Cl1 C1 1.877(5)
N11 O12 1.153(13)
N11 O11 1.270(14)
N11 C1 1.358(9)
C1 C2 1.375(4)
C1 C6 1.373(4)
C2 C3 1.362(4)
C2 H2A 0.9300
C3 C4 1.391(2)
C3 H3A 0.9300
C4 C5 1.385(2)
C4 C7 1.4670(19)
C5 C6 1.370(2)
C5 H5A 0.9300
C6 H6A 0.9300
C7 C17 1.3058(19)
C7 H7 0.9300
Cl11 N1 0.5843
Cl11 O1 0.8266
Cl11 O2 1.3183
Cl11 C11 1.8733
N1 O2 1.1771
N1 O1 1.2539
N1 C11 1.3556
C11 C12 1.3713
C11 C16 1.376(2)
C12 C13 1.366(2)
C12 H12A 0.9300
C13 C14 1.391(2)
C13 H13A 0.9300
C14 C15 1.385(2)
C14 C17 1.4670(19)
C15 C16 1.370(2)
C15 H15A 0.9300
C16 H16A 0.9300
C17 H17 0.9300
loop_
_geom_torsion_atom_site_label_1
_geom_torsion_atom_site_label_2
_geom_torsion_atom_site_label_3
_geom_torsion_atom_site_label_4
_geom_torsion
O11 Cl1 N11 O12 177.7(16)
C1 Cl1 N11 O12 -177(4)
O12 Cl1 N11 O11 -177.7(16)
C1 Cl1 N11 O11 6(5)
O11 Cl1 N11 C1 -6(5)
O12 Cl1 N11 C1 177(4)
O12 Cl1 O11 N11 166(10)
C1 Cl1 O11 N11 -3(2)
O12 N11 O11 Cl1 -2.7(19)
C1 N11 O11 Cl1 176(3)
O11 N11 O12 Cl1 1.4(10)
C1 N11 O12 Cl1 -177(3)
O11 Cl1 O12 N11 -167(9)
C1 Cl1 O12 N11 1.5(17)
Cl1 N11 C1 C2 -174(3)
O12 N11 C1 C2 1.9(14)
O11 N11 C1 C2 -177.0(9)
Cl1 N11 C1 C6 8(4)
O12 N11 C1 C6 -176.3(9)
O11 N11 C1 C6 4.7(14)
O12 N11 C1 Cl1 176(5)
O11 N11 C1 Cl1 -3(3)
O11 Cl1 C1 N11 175(4)
O12 Cl1 C1 N11 -3(3)
N11 Cl1 C1 C2 7(4)
O11 Cl1 C1 C2 -177.9(9)
O12 Cl1 C1 C2 3.8(6)
N11 Cl1 C1 C6 -173(4)
O11 Cl1 C1 C6 2.4(10)
O12 Cl1 C1 C6 -176.0(4)
N11 C1 C2 C3 -178.8(6)
C6 C1 C2 C3 -0.5(4)
Cl1 C1 C2 C3 179.8(3)
C1 C2 C3 C4 0.3(4)
C2 C3 C4 C5 -0.3(3)
C2 C3 C4 C7 179.9(2)
C3 C4 C5 C6 0.4(2)
C7 C4 C5 C6 -179.80(14)
N11 C1 C6 C5 178.7(7)
C2 C1 C6 C5 0.6(4)
Cl1 C1 C6 C5 -179.6(3)
C4 C5 C6 C1 -0.6(3)
C5 C4 C7 C17 175.72(18)
C3 C4 C7 C17 -4.5(3)
O1 Cl11 N1 O2 -173.3
C11 Cl11 N1 O2 177.7
O2 Cl11 N1 O1 173.3
C11 Cl11 N1 O1 -9.0
O1 Cl11 N1 C11 9.0
O2 Cl11 N1 C11 -177.7
O2 Cl11 O1 N1 -141.7
C11 Cl11 O1 N1 3.6
O2 N1 O1 Cl11 8.0
C11 N1 O1 Cl11 -174.7
O1 N1 O2 Cl11 -4.3
C11 N1 O2 Cl11 178.5
O1 Cl11 O2 N1 145.2
C11 Cl11 O2 N1 -0.9
Cl11 N1 C11 C12 174.1
O2 N1 C11 C12 -3.2
O1 N1 C11 C12 179.4
Cl11 N1 C11 C16 -6.90(10)
O2 N1 C11 C16 175.83(11)
O1 N1 C11 C16 -1.56(10)
O2 N1 C11 Cl11 -177.3
O1 N1 C11 Cl11 5.3
O1 Cl11 C11 N1 -172.5
O2 Cl11 C11 N1 2.1
N1 Cl11 C11 C12 -6.5
O1 Cl11 C11 C12 -179.0
O2 Cl11 C11 C12 -4.5
N1 Cl11 C11 C16 173.72(10)
O1 Cl11 C11 C16 1.27(10)
O2 Cl11 C11 C16 175.78(10)
N1 C11 C12 C13 179.38(10)
C16 C11 C12 C13 0.32(11)
Cl11 C11 C12 C13 -179.41(10)
C11 C12 C13 C14 -0.23(19)
C12 C13 C14 C15 0.3(2)
C12 C13 C14 C17 -179.95(10)
C13 C14 C15 C16 -0.4(2)
C17 C14 C15 C16 179.80(14)
N1 C11 C16 C15 -179.42(10)
C12 C11 C16 C15 -0.45(18)
Cl11 C11 C16 C15 179.30(11)
C14 C15 C16 C11 0.5(2)
C4 C7 C17 C14 180.0
C15 C14 C17 C7 -175.72(18)
C13 C14 C17 C7 4.5(3)
