#------------------------------------------------------------------------------
#$Date: 2019-11-24 23:54:12 +0200 (Sun, 24 Nov 2019) $
#$Revision: 239740 $
#$URL: file:///home/coder/svn-repositories/cod/cif/4/51/71/4517109.cif $
#------------------------------------------------------------------------------
#
# This file is available in the Crystallography Open Database (COD),
# http://www.crystallography.net/
#
# All data on this site have been placed in the public domain by the
# contributors.
#
data_4517109
loop_
_publ_author_name
'Behrnd, Norwid-Rasmus'
'Labat, Ga\"el'
'Venugopalan, Paloth'
'Hulliger, J\"urg'
'B\"urgi, Hans-Beat'
_publ_section_title
;
 Orientational Disorder of (trans)-4-Chloro-4&#x2032;-nitrostilbene: A
 Detailed Analysis by Single Crystal X-ray Diffraction
;
_journal_issue                   1
_journal_name_full               'Crystal Growth &amp; Design'
_journal_page_first              52
_journal_paper_doi               10.1021/cg801278j
_journal_volume                  10
_journal_year                    2010
_chemical_formula_moiety         'C14 H10 Cl N O2'
_chemical_formula_sum            'C14 H10 Cl N O2'
_chemical_formula_weight         259.68
_space_group_IT_number           4
_space_group_name_Hall           'P 2ybc'
_space_group_name_H-M_alt        'P 1 21 1 (a,b,c-1/4)'
_symmetry_cell_setting           monoclinic
_symmetry_space_group_name_Hall  'P 2ybc'
_symmetry_space_group_name_H-M   'P 1 21 1 (a,b,c-1/4)'
_atom_sites_solution_hydrogens   geom
_atom_sites_solution_primary     direct
_atom_sites_solution_secondary   difmap
_audit_creation_method           SHELXL-97
_cell_angle_alpha                90.00
_cell_angle_beta                 93.2477(17)
_cell_angle_gamma                90.00
_cell_formula_units_Z            2
_cell_length_a                   3.91134(7)
_cell_length_b                   12.9311(2)
_cell_length_c                   12.1805(2)
_cell_measurement_reflns_used    2685
_cell_measurement_temperature    293(2)
_cell_measurement_theta_max      31.9565
_cell_measurement_theta_min      4.7173
_cell_volume                     615.075(18)
_computing_cell_refinement       'SAINT (Bruker, 2003)'
_computing_data_collection       'SMART (Bruker, 1997)'
_computing_data_reduction        'SHELXTL (Bruker, 2000)'
_computing_molecular_graphics    'PLATON  (Spek, 2003)'
_computing_publication_material  SHELXL-97
_computing_structure_refinement  'SHELXL-97 (Sheldrick, 1997)'
_computing_structure_solution    'SHELXS-97 (Sheldrick, 1990)'
_diffrn_ambient_temperature      293(2)
_diffrn_detector_area_resol_mean 8.2896
_diffrn_measured_fraction_theta_full 0.993
_diffrn_measured_fraction_theta_max 0.993
_diffrn_measurement_device_type  'Kuma 6-circle'
_diffrn_measurement_method       'omega scan method'
_diffrn_radiation_monochromator  synchrotron
_diffrn_radiation_source         synchrotron
_diffrn_radiation_type           synchrotron
_diffrn_radiation_wavelength     0.7100
_diffrn_reflns_av_R_equivalents  0.0340
_diffrn_reflns_av_sigmaI/netI    0.0481
_diffrn_reflns_limit_h_max       4
_diffrn_reflns_limit_h_min       -4
_diffrn_reflns_limit_k_max       16
_diffrn_reflns_limit_k_min       -16
_diffrn_reflns_limit_l_max       15
_diffrn_reflns_limit_l_min       -15
_diffrn_reflns_number            7590
_diffrn_reflns_theta_full        26.45
_diffrn_reflns_theta_max         26.45
_diffrn_reflns_theta_min         3.57
_diffrn_standards_decay_%        0
_diffrn_standards_interval_time  0
_exptl_absorpt_coefficient_mu    0.302
_exptl_absorpt_correction_T_max  1
_exptl_absorpt_correction_T_min  0.888950
_exptl_absorpt_correction_type   multi-scan
_exptl_absorpt_process_details   'SADABS (Bruker, 2004)'
_exptl_crystal_colour            yellow
_exptl_crystal_density_diffrn    1.402
_exptl_crystal_density_method    'not measured'
_exptl_crystal_description       'prismatic rod'
_exptl_crystal_F_000             268
_exptl_crystal_size_max          0.20
_exptl_crystal_size_mid          0.10
_exptl_crystal_size_min          0.075
_refine_diff_density_max         0.172
_refine_diff_density_min         -0.141
_refine_diff_density_rms         0.031
_refine_ls_abs_structure_details 'Flack H D (1983), Acta Cryst. A39, 876-881'
_refine_ls_abs_structure_Flack   0.6(3)
_refine_ls_extinction_method     none
_refine_ls_goodness_of_fit_ref   1.011
_refine_ls_hydrogen_treatment    constr
_refine_ls_matrix_type           full
_refine_ls_number_parameters     101
_refine_ls_number_reflns         2464
_refine_ls_number_restraints     1
_refine_ls_restrained_S_all      1.010
_refine_ls_R_factor_all          0.0605
_refine_ls_R_factor_gt           0.0497
_refine_ls_shift/su_max          0.000
_refine_ls_shift/su_mean         0.000
_refine_ls_structure_factor_coef Fsqd
_refine_ls_weighting_details
'calc w=1/[\s^2^(Fo^2^)+(0.0855P)^2^+0.0656P] where P=(Fo^2^+2Fc^2^)/3'
_refine_ls_weighting_scheme      calc
_refine_ls_wR_factor_gt          0.1651
_refine_ls_wR_factor_ref         0.1750
_reflns_number_gt                1917
_reflns_number_total             2464
_reflns_threshold_expression     I>2sigma(I)
_cod_data_source_file            cg801278j_si_003.cif
_cod_data_source_block           CNS-Slice1-small-P21/c
_cod_original_sg_symbol_Hall     P2ybc
_cod_original_sg_symbol_H-M      P21/c
_cod_database_code               4517109
loop_
_symmetry_equiv_pos_as_xyz
'x, y, z'
'-x, y+1/2, -z+1/2'
loop_
_atom_site_label
_atom_site_type_symbol
_atom_site_fract_x
_atom_site_fract_y
_atom_site_fract_z
_atom_site_U_iso_or_equiv
_atom_site_adp_type
_atom_site_occupancy
_atom_site_symmetry_multiplicity
_atom_site_calc_flag
_atom_site_refinement_flags
Cl1 Cl 0.3754(9) -0.4598(3) -0.1787(3) 0.1191(7) Uani 0.50 1 d P
N11 N 0.351(2) -0.4213(6) -0.1657(6) 0.0835(10) Uani 0.50 1 d P
O11 O 0.3084(18) -0.4932(5) -0.1212(5) 0.1319(13) Uani 0.50 1 d P
O12 O 0.5047(14) -0.4125(4) -0.2579(4) 0.1186(8) Uani 0.50 1 d P
C1 C 0.2602(6) -0.3298(2) -0.1220(2) 0.0784(4) Uani 1 1 d .
C2 C 0.3151(6) -0.2395(2) -0.17882(18) 0.0823(4) Uani 1 1 d .
H2A H 0.4129 -0.2412 -0.2466 0.099 Uiso 1 1 calc R
C3 C 0.2235(3) -0.14762(10) -0.13394(11) 0.0791(4) Uani 1 1 d .
H3A H 0.2590 -0.0865 -0.1719 0.095 Uiso 1 1 calc R
C4 C 0.0783(3) -0.14374(9) -0.03275(9) 0.0697(4) Uani 1 1 d .
C5 C 0.0272(3) -0.23655(10) 0.02124(10) 0.0763(4) Uani 1 1 d .
H5A H -0.0716 -0.2355 0.0889 0.092 Uiso 1 1 calc R
C6 C 0.1184(3) -0.32975(10) -0.02244(11) 0.0805(4) Uani 1 1 d .
H6A H 0.0842 -0.3912 0.0150 0.097 Uiso 1 1 calc R
C7 C -0.0251(2) -0.04666(6) 0.01889(7) 0.0749(4) Uani 1 1 d .
H7 H -0.1361 -0.0520 0.0842 0.090 Uiso 1 1 calc R
Cl11 Cl -0.3699(2) 0.46067(6) 0.17588(7) 0.1191(7) Uani 0.50 1 d PR
N1 N -0.3635(2) 0.41687(6) 0.17160(7) 0.0835(10) Uani 0.50 1 d PR
O1 O -0.3164(2) 0.49778(6) 0.12366(7) 0.1319(13) Uani 0.50 1 d PR
O2 O -0.5051(2) 0.41206(6) 0.25817(7) 0.1186(8) Uani 0.50 1 d PR
C11 C -0.2623(2) 0.32961(6) 0.12292(7) 0.0784(4) Uani 1 1 d R
C12 C -0.3169(2) 0.23988(6) 0.17938(7) 0.0823(4) Uani 1 1 d R
H12A H -0.4153 0.2415 0.2471 0.099 Uiso 1 1 calc R
C13 C -0.2235(3) 0.14762(10) 0.13394(11) 0.0791(4) Uani 1 1 d .
H13A H -0.2583 0.0864 0.1718 0.095 Uiso 1 1 calc R
C14 C -0.0783(3) 0.14374(9) 0.03275(9) 0.0697(4) Uani 1 1 d .
C15 C -0.0272(3) 0.23655(10) -0.02124(10) 0.0763(4) Uani 1 1 d .
H15A H 0.0716 0.2355 -0.0889 0.092 Uiso 1 1 calc R
C16 C -0.1184(3) 0.32975(10) 0.02244(11) 0.0805(4) Uani 1 1 d .
H16A H -0.0839 0.3913 -0.0149 0.097 Uiso 1 1 calc R
C17 C 0.0251(2) 0.04666(6) -0.01889(7) 0.0749(4) Uani 1 1 d .
H17 H 0.1361 0.0520 -0.0842 0.090 Uiso 1 1 calc R
loop_
_atom_site_aniso_label
_atom_site_aniso_U_11
_atom_site_aniso_U_22
_atom_site_aniso_U_33
_atom_site_aniso_U_23
_atom_site_aniso_U_13
_atom_site_aniso_U_12
Cl1 0.1133(8) 0.1083(12) 0.1358(12) -0.0541(10) 0.0076(7) 0.0264(9)
N11 0.0787(17) 0.091(2) 0.081(2) -0.0157(16) 0.0079(13) 0.0131(17)
O11 0.176(3) 0.0838(18) 0.141(3) -0.0034(16) 0.045(2) 0.0187(16)
O12 0.154(2) 0.0970(15) 0.1080(15) -0.0257(13) 0.0387(15) 0.0161(13)
C1 0.0642(7) 0.0909(8) 0.0798(8) -0.0156(6) 0.0009(5) 0.0061(6)
C2 0.0722(8) 0.1067(10) 0.0688(7) -0.0047(6) 0.0113(6) -0.0012(6)
C3 0.0751(8) 0.0857(8) 0.0770(8) 0.0055(6) 0.0096(6) -0.0036(6)
C4 0.0570(6) 0.0809(8) 0.0712(7) -0.0025(5) 0.0036(5) -0.0015(5)
C5 0.0735(7) 0.0857(8) 0.0705(7) 0.0001(6) 0.0108(5) 0.0004(6)
C6 0.0777(8) 0.0810(8) 0.0831(8) 0.0025(6) 0.0064(6) 0.0012(6)
C7 0.0656(7) 0.0857(8) 0.0738(7) 0.0011(5) 0.0086(6) -0.0023(6)
Cl11 0.1133(8) 0.1083(12) 0.1358(12) -0.0541(10) 0.0076(7) 0.0264(9)
N1 0.0787(17) 0.091(2) 0.081(2) -0.0157(16) 0.0079(13) 0.0131(17)
O1 0.176(3) 0.0838(18) 0.141(3) -0.0034(16) 0.045(2) 0.0187(16)
O2 0.154(2) 0.0970(15) 0.1080(15) -0.0257(13) 0.0387(15) 0.0161(13)
C11 0.0642(7) 0.0909(8) 0.0798(8) -0.0156(6) 0.0009(5) 0.0061(6)
C12 0.0722(8) 0.1067(10) 0.0688(7) -0.0047(6) 0.0113(6) -0.0012(6)
C13 0.0751(8) 0.0857(8) 0.0770(8) 0.0055(6) 0.0096(6) -0.0036(6)
C14 0.0570(6) 0.0809(8) 0.0712(7) -0.0025(5) 0.0036(5) -0.0015(5)
C15 0.0735(7) 0.0857(8) 0.0705(7) 0.0001(6) 0.0108(5) 0.0004(6)
C16 0.0777(8) 0.0810(8) 0.0831(8) 0.0025(6) 0.0064(6) 0.0012(6)
C17 0.0656(7) 0.0857(8) 0.0738(7) 0.0011(5) 0.0086(6) -0.0023(6)
loop_
_atom_type_symbol
_atom_type_description
_atom_type_scat_dispersion_real
_atom_type_scat_dispersion_imag
_atom_type_scat_source
C C 0.0033 0.0016 'International Tables Vol C Tables 4.2.6.8 and 6.1.1.4'
H H 0.0000 0.0000 'International Tables Vol C Tables 4.2.6.8 and 6.1.1.4'
N N 0.0061 0.0033 'International Tables Vol C Tables 4.2.6.8 and 6.1.1.4'
O O 0.0106 0.0060 'International Tables Vol C Tables 4.2.6.8 and 6.1.1.4'
Cl Cl 0.1484 0.1585 'International Tables Vol C Tables 4.2.6.8 and 6.1.1.4'
loop_
_geom_angle_atom_site_label_1
_geom_angle_atom_site_label_2
_geom_angle_atom_site_label_3
_geom_angle
N11 Cl1 O11 98.9(13)
N11 Cl1 O12 82.2(12)
O11 Cl1 O12 173.9(7)
N11 Cl1 C1 5.8(11)
O11 Cl1 C1 93.3(5)
O12 Cl1 C1 87.9(3)
Cl1 N11 O11 52.4(11)
Cl1 N11 O12 74.1(11)
O11 N11 O12 126.1(7)
Cl1 N11 C1 171.9(15)
O11 N11 C1 119.9(6)
O12 N11 C1 113.9(6)
Cl1 O11 N11 28.8(4)
N11 O12 Cl1 23.8(3)
N11 C1 C2 119.4(4)
N11 C1 C6 118.7(4)
C2 C1 C6 121.9(2)
N11 C1 Cl1 2.3(4)
C2 C1 Cl1 121.6(2)
C6 C1 Cl1 116.5(2)
C3 C2 C1 118.94(19)
C3 C2 H2A 120.5
C1 C2 H2A 120.5
C2 C3 C4 121.19(15)
C2 C3 H3A 119.4
C4 C3 H3A 119.4
C5 C4 C3 117.82(11)
C5 C4 C7 118.99(10)
C3 C4 C7 123.18(11)
C6 C5 C4 121.86(11)
C6 C5 H5A 119.1
C4 C5 H5A 119.1
C1 C6 C5 118.28(16)
C1 C6 H6A 120.9
C5 C6 H6A 120.9
C17 C7 C4 125.83(10)
C17 C7 H7 117.1
C4 C7 H7 117.1
N1 Cl11 O1 119.3
N1 Cl11 O2 67.5
O1 Cl11 O2 169.7
N1 Cl11 C11 19.1
O1 Cl11 C11 100.8
O2 Cl11 C11 86.4
Cl11 N1 O1 36.6
Cl11 N1 O2 87.0
O1 N1 O2 123.1
Cl11 N1 C11 152.9
O1 N1 C11 117.0
O2 N1 C11 119.9
Cl11 O1 N1 24.1
N1 O2 Cl11 25.5
N1 C11 C12 115.5
N1 C11 C16 122.46(6)
C12 C11 C16 122.03(6)
N1 C11 Cl11 8.0
C12 C11 Cl11 123.3
C16 C11 Cl11 114.65(6)
C13 C12 C11 118.70(6)
C13 C12 H12A 120.7
C11 C12 H12A 120.7
C12 C13 C14 121.42(11)
C12 C13 H13A 119.3
C14 C13 H13A 119.3
C15 C14 C13 117.82(11)
C15 C14 C17 118.99(10)
C13 C14 C17 123.18(11)
C16 C15 C14 121.86(11)
C16 C15 H15A 119.1
C14 C15 H15A 119.1
C11 C16 C15 118.16(11)
C11 C16 H16A 120.9
C15 C16 H16A 120.9
C7 C17 C14 125.83(10)
C7 C17 H17 117.1
C14 C17 H17 117.1
loop_
_geom_bond_atom_site_label_1
_geom_bond_atom_site_label_2
_geom_bond_distance
Cl1 N11 0.533(6)
Cl1 O11 0.876(6)
Cl1 O12 1.272(6)
Cl1 C1 1.882(4)
N11 O11 1.093(10)
N11 O12 1.310(8)
N11 C1 1.353(7)
C1 C2 1.381(4)
C1 C6 1.362(3)
C2 C3 1.364(3)
C2 H2A 0.9300
C3 C4 1.3868(18)
C3 H3A 0.9300
C4 C5 1.3884(17)
C4 C7 1.4710(15)
C5 C6 1.3726(17)
C5 H5A 0.9300
C6 H6A 0.9300
C7 C17 1.3104(16)
C7 H7 0.9300
Cl11 N1 0.5695
Cl11 O1 0.8329
Cl11 O2 1.3189
Cl11 C11 1.8698
N1 O1 1.2174
N1 O2 1.2201
N1 C11 1.3446
C11 C12 1.3717
C11 C16 1.3758(15)
C12 C13 1.3733(14)
C12 H12A 0.9300
C13 C14 1.3868(18)
C13 H13A 0.9300
C14 C15 1.3884(17)
C14 C17 1.4710(15)
C15 C16 1.3726(17)
C15 H15A 0.9300
C16 H16A 0.9300
C17 H17 0.9300
loop_
_geom_torsion_atom_site_label_1
_geom_torsion_atom_site_label_2
_geom_torsion_atom_site_label_3
_geom_torsion_atom_site_label_4
_geom_torsion
O12 Cl1 N11 O11 -174.0(7)
C1 Cl1 N11 O11 17(12)
O11 Cl1 N11 O12 174.0(7)
C1 Cl1 N11 O12 -169(12)
O11 Cl1 N11 C1 -17(12)
O12 Cl1 N11 C1 169(12)
O12 Cl1 O11 N11 99(6)
C1 Cl1 O11 N11 -1.7(12)
O12 N11 O11 Cl1 -7.2(9)
C1 N11 O11 Cl1 177.2(19)
O11 N11 O12 Cl1 5.9(7)
C1 N11 O12 Cl1 -178.3(17)
O11 Cl1 O12 N11 -100(6)
C1 Cl1 O12 N11 1.1(12)
Cl1 N11 C1 C2 -164(11)
O11 N11 C1 C2 180.0(7)
O12 N11 C1 C2 3.9(8)
Cl1 N11 C1 C6 16(12)
O11 N11 C1 C6 0.3(11)
O12 N11 C1 C6 -175.8(4)
O11 N11 C1 Cl1 -16(11)
O12 N11 C1 Cl1 168(12)
O11 Cl1 C1 N11 163(12)
O12 Cl1 C1 N11 -11(11)
N11 Cl1 C1 C2 16(12)
O11 Cl1 C1 C2 179.0(6)
O12 Cl1 C1 C2 4.9(4)
N11 Cl1 C1 C6 -164(12)
O11 Cl1 C1 C6 -1.4(6)
O12 Cl1 C1 C6 -175.5(3)
N11 C1 C2 C3 -179.9(4)
C6 C1 C2 C3 -0.2(4)
Cl1 C1 C2 C3 179.4(2)
C1 C2 C3 C4 0.2(3)
C2 C3 C4 C5 -0.4(2)
C2 C3 C4 C7 -179.90(14)
C3 C4 C5 C6 0.53(19)
C7 C4 C5 C6 -179.92(10)
N11 C1 C6 C5 -180.0(4)
C2 C1 C6 C5 0.3(3)
Cl1 C1 C6 C5 -179.28(17)
C4 C5 C6 C1 -0.5(2)
C5 C4 C7 C17 175.74(11)
C3 C4 C7 C17 -4.74(19)
O2 Cl11 N1 O1 171.3
C11 Cl11 N1 O1 -15.9
O1 Cl11 N1 O2 -171.3
C11 Cl11 N1 O2 172.8
O1 Cl11 N1 C11 15.9
O2 Cl11 N1 C11 -172.8
O2 Cl11 O1 N1 -129.0
C11 Cl11 O1 N1 5.2
O2 N1 O1 Cl11 10.3
C11 N1 O1 Cl11 -172.0
O1 N1 O2 Cl11 -6.2
C11 N1 O2 Cl11 176.2
O1 Cl11 O2 N1 132.8
C11 Cl11 O2 N1 -2.4
Cl11 N1 C11 C12 169.0
O1 N1 C11 C12 179.6
O2 N1 C11 C12 -2.6
Cl11 N1 C11 C16 -11.95(8)
O1 N1 C11 C16 -1.39(8)
O2 N1 C11 C16 176.37(8)
O1 N1 C11 Cl11 10.6
O2 N1 C11 Cl11 -171.7
O1 Cl11 C11 N1 -165.9
O2 Cl11 C11 N1 6.7
N1 Cl11 C11 C12 -11.9
O1 Cl11 C11 C12 -177.8
O2 Cl11 C11 C12 -5.2
N1 Cl11 C11 C16 168.91(7)
O1 Cl11 C11 C16 2.98(7)
O2 Cl11 C11 C16 175.60(7)
N1 C11 C12 C13 179.25(7)
C16 C11 C12 C13 0.23(10)
Cl11 C11 C12 C13 -178.94(7)
C11 C12 C13 C14 -0.38(14)
C12 C13 C14 C15 0.52(18)
C12 C13 C14 C17 -179.95(8)
C13 C14 C15 C16 -0.53(19)
C17 C14 C15 C16 179.92(10)
N1 C11 C16 C15 -179.18(8)
C12 C11 C16 C15 -0.23(14)
Cl11 C11 C16 C15 179.01(9)
C14 C15 C16 C11 0.39(18)
C4 C7 C17 C14 180.0
C15 C14 C17 C7 -175.74(11)
C13 C14 C17 C7 4.74(19)
