#------------------------------------------------------------------------------
#$Date: 2019-11-24 23:54:12 +0200 (Sun, 24 Nov 2019) $
#$Revision: 239740 $
#$URL: file:///home/coder/svn-repositories/cod/cif/4/51/70/4517097.cif $
#------------------------------------------------------------------------------
#
# This file is available in the Crystallography Open Database (COD),
# http://www.crystallography.net/
#
# All data on this site have been placed in the public domain by the
# contributors.
#
data_4517097
loop_
_publ_author_name
'Behrnd, Norwid-Rasmus'
'Labat, Ga\"el'
'Venugopalan, Paloth'
'Hulliger, J\"urg'
'B\"urgi, Hans-Beat'
_publ_section_title
;
 Orientational Disorder of (trans)-4-Chloro-4&#x2032;-nitrostilbene: A
 Detailed Analysis by Single Crystal X-ray Diffraction
;
_journal_issue                   1
_journal_name_full               'Crystal Growth &amp; Design'
_journal_page_first              52
_journal_paper_doi               10.1021/cg801278j
_journal_volume                  10
_journal_year                    2010
_chemical_formula_moiety         'C14 H10 Cl N O2'
_chemical_formula_sum            'C14 H10 Cl N O2'
_chemical_formula_weight         259.68
_space_group_IT_number           4
_space_group_name_Hall           'P 2ybc'
_space_group_name_H-M_alt        'P 1 21 1 (a,b,c-1/4)'
_symmetry_cell_setting           monoclinic
_symmetry_space_group_name_Hall  'P 2ybc'
_symmetry_space_group_name_H-M   'P 1 21 1 (a,b,c-1/4)'
_atom_sites_solution_hydrogens   geom
_atom_sites_solution_primary     direct
_atom_sites_solution_secondary   difmap
_audit_creation_method           SHELXL-97
_cell_angle_alpha                90.00
_cell_angle_beta                 93.228(3)
_cell_angle_gamma                90.00
_cell_formula_units_Z            2
_cell_length_a                   3.9241(2)
_cell_length_b                   12.9719(8)
_cell_length_c                   12.2347(7)
_cell_measurement_reflns_used    3482
_cell_measurement_temperature    293(2)
_cell_measurement_theta_max      22.981
_cell_measurement_theta_min      3.141
_cell_volume                     621.80(6)
_computing_cell_refinement       'SAINT (Bruker, 2003)'
_computing_data_collection       'SMART (Bruker, 1997)'
_computing_data_reduction        'SHELXTL (Bruker, 2000)'
_computing_molecular_graphics    'PLATON  (Spek, 2003)'
_computing_publication_material  SHELXL-97
_computing_structure_refinement  'SHELXL-97 (Sheldrick, 1997)'
_computing_structure_solution    'SHELXS-97 (Sheldrick, 1990)'
_diffrn_ambient_temperature      293(2)
_diffrn_measured_fraction_theta_full 0.918
_diffrn_measured_fraction_theta_max 0.918
_diffrn_measurement_device_type  'Bruker SMART 1K'
_diffrn_measurement_method       'omega scan method'
_diffrn_radiation_monochromator  graphite
_diffrn_radiation_source         'fine-focus sealed tube'
_diffrn_radiation_type           MoK\a
_diffrn_radiation_wavelength     0.71073
_diffrn_reflns_av_R_equivalents  0.0151
_diffrn_reflns_av_sigmaI/netI    0.0267
_diffrn_reflns_limit_h_max       5
_diffrn_reflns_limit_h_min       -5
_diffrn_reflns_limit_k_max       10
_diffrn_reflns_limit_k_min       -16
_diffrn_reflns_limit_l_max       15
_diffrn_reflns_limit_l_min       -14
_diffrn_reflns_number            3470
_diffrn_reflns_theta_full        27.71
_diffrn_reflns_theta_max         27.71
_diffrn_reflns_theta_min         2.29
_diffrn_standards_decay_%        0
_diffrn_standards_interval_time  0
_diffrn_standards_number         0
_exptl_absorpt_coefficient_mu    0.299
_exptl_absorpt_correction_T_max  1
_exptl_absorpt_correction_T_min  0.533241
_exptl_absorpt_correction_type   multi-scan
_exptl_absorpt_process_details   'SADABS (Bruker, 2004)'
_exptl_crystal_colour            yellow
_exptl_crystal_density_diffrn    1.387
_exptl_crystal_density_method    'not measured'
_exptl_crystal_description       'prismatic rod'
_exptl_crystal_F_000             268
_exptl_crystal_size_max          0.31
_exptl_crystal_size_mid          0.20
_exptl_crystal_size_min          0.11
_refine_diff_density_max         0.100
_refine_diff_density_min         -0.085
_refine_diff_density_rms         0.026
_refine_ls_abs_structure_details 'Flack H D (1983), Acta Cryst. A39, 876-881'
_refine_ls_abs_structure_Flack   0.0(3)
_refine_ls_extinction_method     none
_refine_ls_goodness_of_fit_ref   1.036
_refine_ls_hydrogen_treatment    constr
_refine_ls_matrix_type           full
_refine_ls_number_parameters     101
_refine_ls_number_reflns         1865
_refine_ls_number_restraints     1
_refine_ls_restrained_S_all      1.036
_refine_ls_R_factor_all          0.1137
_refine_ls_R_factor_gt           0.0458
_refine_ls_shift/su_max          0.000
_refine_ls_shift/su_mean         0.000
_refine_ls_structure_factor_coef Fsqd
_refine_ls_weighting_details
'calc w=1/[\s^2^(Fo^2^)+(0.0381P)^2^+0.0762P] where P=(Fo^2^+2Fc^2^)/3'
_refine_ls_weighting_scheme      calc
_refine_ls_wR_factor_gt          0.1007
_refine_ls_wR_factor_ref         0.1243
_reflns_number_gt                921
_reflns_number_total             1865
_reflns_threshold_expression     I>2sigma(I)
_cod_data_source_file            cg801278j_si_003.cif
_cod_data_source_block           CNS-bzI-small-P21/c
_cod_original_sg_symbol_Hall     P2ybc
_cod_original_sg_symbol_H-M      P21/c
_cod_database_code               4517097
loop_
_symmetry_equiv_pos_as_xyz
'x, y, z'
'-x, y+1/2, -z+1/2'
loop_
_atom_site_label
_atom_site_type_symbol
_atom_site_fract_x
_atom_site_fract_y
_atom_site_fract_z
_atom_site_U_iso_or_equiv
_atom_site_adp_type
_atom_site_occupancy
_atom_site_symmetry_multiplicity
_atom_site_calc_flag
_atom_site_refinement_flags
Cl1 Cl 0.379(2) -0.4575(6) -0.1826(5) 0.1334(14) Uani 0.50 1 d P
N11 N 0.346(4) -0.4291(11) -0.1584(9) 0.0778(19) Uani 0.50 1 d P
O11 O 0.302(3) -0.4888(9) -0.1203(7) 0.133(2) Uani 0.50 1 d P
O12 O 0.5088(19) -0.4134(5) -0.2575(5) 0.1183(12) Uani 0.50 1 d P
C1 C 0.2597(9) -0.3298(3) -0.1225(3) 0.0758(6) Uani 1 1 d .
C2 C 0.3132(8) -0.2392(4) -0.1785(3) 0.0823(6) Uani 1 1 d .
H2A H 0.4102 -0.2408 -0.2461 0.099 Uiso 1 1 calc R
C3 C 0.2230(4) -0.14761(16) -0.13400(15) 0.0785(6) Uani 1 1 d .
H3A H 0.2588 -0.0868 -0.1720 0.094 Uiso 1 1 calc R
C4 C 0.0783(4) -0.14314(14) -0.03285(14) 0.0682(5) Uani 1 1 d .
C5 C 0.0286(4) -0.23611(15) 0.02043(15) 0.0757(5) Uani 1 1 d .
H5A H -0.0701 -0.2352 0.0878 0.091 Uiso 1 1 calc R
C6 C 0.1199(4) -0.32951(15) -0.02277(16) 0.0810(6) Uani 1 1 d .
H6A H 0.0874 -0.3907 0.0149 0.097 Uiso 1 1 calc R
C7 C -0.0246(3) -0.04649(8) 0.01865(11) 0.0748(5) Uani 1 1 d .
H7 H -0.1348 -0.0520 0.0837 0.090 Uiso 1 1 calc R
Cl11 Cl -0.3696(3) 0.46081(8) 0.17499(11) 0.1334(14) Uani 0.50 1 d PR
N1 N -0.3662(3) 0.41629(8) 0.17341(11) 0.0778(19) Uani 0.50 1 d PR
O1 O -0.3145(3) 0.49811(8) 0.12434(11) 0.133(2) Uani 0.50 1 d PR
O2 O -0.5056(3) 0.41242(8) 0.25810(11) 0.1183(12) Uani 0.50 1 d PR
C11 C -0.2623(3) 0.32961(8) 0.12323(11) 0.0758(6) Uani 1 1 d R
C12 C -0.3164(3) 0.23929(8) 0.17909(11) 0.0823(6) Uani 1 1 d R
H12A H -0.4149 0.2406 0.2465 0.099 Uiso 1 1 calc R
C13 C -0.2230(4) 0.14761(16) 0.13400(15) 0.0785(6) Uani 1 1 d .
H13A H -0.2572 0.0867 0.1720 0.094 Uiso 1 1 calc R
C14 C -0.0783(4) 0.14314(14) 0.03285(14) 0.0682(5) Uani 1 1 d .
C15 C -0.0286(4) 0.23611(15) -0.02043(15) 0.0757(5) Uani 1 1 d .
H15A H 0.0701 0.2352 -0.0878 0.091 Uiso 1 1 calc R
C16 C -0.1199(4) 0.32951(15) 0.02277(16) 0.0810(6) Uani 1 1 d .
H16A H -0.0865 0.3907 -0.0147 0.097 Uiso 1 1 calc R
C17 C 0.0246(3) 0.04649(8) -0.01865(11) 0.0748(5) Uani 1 1 d .
H17 H 0.1348 0.0520 -0.0837 0.090 Uiso 1 1 calc R
loop_
_atom_site_aniso_label
_atom_site_aniso_U_11
_atom_site_aniso_U_22
_atom_site_aniso_U_33
_atom_site_aniso_U_23
_atom_site_aniso_U_13
_atom_site_aniso_U_12
Cl1 0.1152(17) 0.137(3) 0.148(3) -0.073(2) 0.0071(17) 0.0301(17)
N11 0.072(3) 0.105(5) 0.057(3) -0.004(4) 0.013(3) 0.006(3)
O11 0.175(4) 0.083(3) 0.145(4) -0.012(3) 0.050(3) 0.017(3)
O12 0.150(3) 0.100(2) 0.110(3) -0.027(2) 0.045(2) 0.015(2)
C1 0.0615(11) 0.0873(15) 0.0780(13) -0.0157(12) -0.0010(10) 0.0064(10)
C2 0.0737(12) 0.1056(17) 0.0684(12) -0.0056(12) 0.0098(10) -0.0003(12)
C3 0.0733(12) 0.0846(15) 0.0780(13) 0.0066(11) 0.0084(10) -0.0033(10)
C4 0.0556(10) 0.0785(13) 0.0700(12) -0.0040(10) 0.0010(9) -0.0012(9)
C5 0.0729(12) 0.0858(14) 0.0693(11) 0.0007(11) 0.0110(9) -0.0005(11)
C6 0.0784(12) 0.0815(15) 0.0830(15) 0.0000(11) 0.0038(11) 0.0032(11)
C7 0.0648(10) 0.0838(14) 0.0762(12) 0.0019(11) 0.0068(9) -0.0036(11)
Cl11 0.1152(17) 0.137(3) 0.148(3) -0.073(2) 0.0071(17) 0.0301(17)
N1 0.072(3) 0.105(5) 0.057(3) -0.004(4) 0.013(3) 0.006(3)
O1 0.175(4) 0.083(3) 0.145(4) -0.012(3) 0.050(3) 0.017(3)
O2 0.150(3) 0.100(2) 0.110(3) -0.027(2) 0.045(2) 0.015(2)
C11 0.0615(11) 0.0873(15) 0.0780(13) -0.0157(12) -0.0010(10) 0.0064(10)
C12 0.0737(12) 0.1056(17) 0.0684(12) -0.0056(12) 0.0098(10) -0.0003(12)
C13 0.0733(12) 0.0846(15) 0.0780(13) 0.0066(11) 0.0084(10) -0.0033(10)
C14 0.0556(10) 0.0785(13) 0.0700(12) -0.0040(10) 0.0010(9) -0.0012(9)
C15 0.0729(12) 0.0858(14) 0.0693(11) 0.0007(11) 0.0110(9) -0.0005(11)
C16 0.0784(12) 0.0815(15) 0.0830(15) 0.0000(11) 0.0038(11) 0.0032(11)
C17 0.0648(10) 0.0838(14) 0.0762(12) 0.0019(11) 0.0068(9) -0.0036(11)
loop_
_atom_type_symbol
_atom_type_description
_atom_type_scat_dispersion_real
_atom_type_scat_dispersion_imag
_atom_type_scat_source
C C 0.0033 0.0016 'International Tables Vol C Tables 4.2.6.8 and 6.1.1.4'
H H 0.0000 0.0000 'International Tables Vol C Tables 4.2.6.8 and 6.1.1.4'
N N 0.0061 0.0033 'International Tables Vol C Tables 4.2.6.8 and 6.1.1.4'
O O 0.0106 0.0060 'International Tables Vol C Tables 4.2.6.8 and 6.1.1.4'
Cl Cl 0.1484 0.1585 'International Tables Vol C Tables 4.2.6.8 and 6.1.1.4'
loop_
_geom_angle_atom_site_label_1
_geom_angle_atom_site_label_2
_geom_angle_atom_site_label_3
_geom_angle
N11 Cl1 O11 74(2)
N11 Cl1 O12 103(3)
O11 Cl1 O12 173.3(14)
N11 Cl1 C1 14(2)
O11 Cl1 C1 88.0(9)
O12 Cl1 C1 90.2(6)
Cl1 N11 O12 57(2)
Cl1 N11 O11 75(2)
O12 N11 O11 131.2(13)
Cl1 N11 C1 161(3)
O12 N11 C1 105.3(10)
O11 N11 C1 123.5(13)
Cl1 O11 N11 30.9(8)
N11 O12 Cl1 19.8(8)
N11 C1 C6 113.4(6)
N11 C1 C2 125.2(6)
C6 C1 C2 121.4(3)
N11 C1 Cl1 4.9(7)
C6 C1 Cl1 118.1(4)
C2 C1 Cl1 120.5(4)
C3 C2 C1 119.5(3)
C3 C2 H2A 120.2
C1 C2 H2A 120.2
C2 C3 C4 121.4(3)
C2 C3 H3A 119.3
C4 C3 H3A 119.3
C5 C4 C3 117.13(19)
C5 C4 C7 119.33(16)
C3 C4 C7 123.54(19)
C6 C5 C4 122.47(18)
C6 C5 H5A 118.8
C4 C5 H5A 118.8
C1 C6 C5 118.1(3)
C1 C6 H6A 120.9
C5 C6 H6A 120.9
C17 C7 C4 125.98(17)
C17 C7 H7 117.0
C4 C7 H7 117.0
N1 Cl11 O1 123.6
N1 Cl11 O2 64.3
O1 Cl11 O2 169.6
N1 Cl11 C11 22.2
O1 Cl11 C11 101.9
O2 Cl11 C11 86.4
Cl11 N1 O2 90.0
Cl11 N1 O1 33.6
O2 N1 O1 123.2
Cl11 N1 C11 148.5
O2 N1 C11 121.3
O1 N1 C11 115.4
Cl11 O1 N1 22.8
N1 O2 Cl11 25.7
N1 C11 C16 123.52(8)
N1 C11 C12 115.0
C16 C11 C12 121.50(8)
N1 C11 Cl11 9.3
C16 C11 Cl11 114.37(8)
C12 C11 Cl11 124.1
C13 C12 C11 119.08(10)
C13 C12 H12A 120.5
C11 C12 H12A 120.5
C12 C13 C14 121.76(19)
C12 C13 H13A 119.1
C14 C13 H13A 119.1
C15 C14 C13 117.13(19)
C15 C14 C17 119.33(16)
C13 C14 C17 123.54(19)
C16 C15 C14 122.47(18)
C16 C15 H15A 118.8
C14 C15 H15A 118.8
C11 C16 C15 118.05(16)
C11 C16 H16A 121.0
C15 C16 H16A 121.0
C7 C17 C14 125.98(17)
C7 C17 H17 117.0
C14 C17 H17 117.0
loop_
_geom_bond_atom_site_label_1
_geom_bond_atom_site_label_2
_geom_bond_distance
Cl1 N11 0.493(14)
Cl1 O11 0.928(12)
Cl1 O12 1.217(10)
Cl1 C1 1.882(7)
N11 O12 1.415(14)
N11 O11 0.926(16)
N11 C1 1.409(13)
C1 C6 1.366(4)
C1 C2 1.382(5)
C2 C3 1.362(4)
C2 H2A 0.9300
C3 C4 1.391(2)
C3 H3A 0.9300
C4 C5 1.390(2)
C4 C7 1.470(2)
C5 C6 1.377(2)
C5 H5A 0.9300
C6 H6A 0.9300
C7 C17 1.308(2)
C7 H7 0.9300
Cl11 N1 0.5780
Cl11 O1 0.8246
Cl11 O2 1.3317
Cl11 C11 1.8721
N1 O2 1.1995
N1 O1 1.2417
N1 C11 1.3548
C11 C16 1.378(2)
C11 C12 1.3789
C12 C13 1.370(2)
C12 H12A 0.9300
C13 C14 1.391(2)
C13 H13A 0.9300
C14 C15 1.390(2)
C14 C17 1.470(2)
C15 C16 1.377(2)
C15 H15A 0.9300
C16 H16A 0.9300
C17 H17 0.9300
loop_
_geom_torsion_atom_site_label_1
_geom_torsion_atom_site_label_2
_geom_torsion_atom_site_label_3
_geom_torsion_atom_site_label_4
_geom_torsion
O11 Cl1 N11 O12 173.5(13)
C1 Cl1 N11 O12 -22(11)
O12 Cl1 N11 O11 -173.5(13)
C1 Cl1 N11 O11 164(10)
O11 Cl1 N11 C1 -164(10)
O12 Cl1 N11 C1 22(11)
O12 Cl1 O11 N11 71(10)
C1 Cl1 O11 N11 -4(2)
O12 N11 O11 Cl1 -7.3(15)
C1 N11 O11 Cl1 174(4)
O11 N11 O12 Cl1 8.4(17)
C1 N11 O12 Cl1 -173(4)
O11 Cl1 O12 N11 -70(10)
C1 Cl1 O12 N11 5(3)
Cl1 N11 C1 C6 165(10)
O12 N11 C1 C6 -175.7(6)
O11 N11 C1 C6 3(2)
Cl1 N11 C1 C2 -16(11)
O12 N11 C1 C2 2.8(13)
O11 N11 C1 C2 -178.1(15)
O12 N11 C1 Cl1 19(10)
O11 N11 C1 Cl1 -162(12)
O11 Cl1 C1 N11 15(10)
O12 Cl1 C1 N11 -158(11)
N11 Cl1 C1 C6 -16(11)
O11 Cl1 C1 C6 -0.4(12)
O12 Cl1 C1 C6 -173.9(5)
N11 Cl1 C1 C2 165(10)
O11 Cl1 C1 C2 179.7(10)
O12 Cl1 C1 C2 6.2(7)
N11 C1 C2 C3 -178.9(8)
C6 C1 C2 C3 -0.5(5)
Cl1 C1 C2 C3 179.5(4)
C1 C2 C3 C4 0.2(4)
C2 C3 C4 C5 -0.3(3)
C2 C3 C4 C7 -179.8(2)
C3 C4 C5 C6 0.7(2)
C7 C4 C5 C6 -179.76(14)
N11 C1 C6 C5 179.4(7)
C2 C1 C6 C5 0.9(4)
Cl1 C1 C6 C5 -179.1(3)
C4 C5 C6 C1 -1.0(3)
C5 C4 C7 C17 175.76(18)
C3 C4 C7 C17 -4.7(3)
O1 Cl11 N1 O2 -172.2
C11 Cl11 N1 O2 174.6
O2 Cl11 N1 O1 172.2
C11 Cl11 N1 O1 -13.2
O1 Cl11 N1 C11 13.2
O2 Cl11 N1 C11 -174.6
O2 Cl11 O1 N1 -137.2
C11 Cl11 O1 N1 5.1
O2 N1 O1 Cl11 9.4
C11 N1 O1 Cl11 -172.4
O1 N1 O2 Cl11 -5.2
C11 N1 O2 Cl11 176.7
O1 Cl11 O2 N1 141.1
C11 Cl11 O2 N1 -2.0
Cl11 N1 C11 C16 -10.36(10)
O2 N1 C11 C16 175.95(10)
O1 N1 C11 C16 -2.32(10)
Cl11 N1 C11 C12 171.1
O2 N1 C11 C12 -2.6
O1 N1 C11 C12 179.1
O2 N1 C11 Cl11 -173.7
O1 N1 C11 Cl11 8.0
O1 Cl11 C11 N1 -168.8
O2 Cl11 C11 N1 4.9
N1 Cl11 C11 C16 170.53(10)
O1 Cl11 C11 C16 1.74(9)
O2 Cl11 C11 C16 175.39(10)
N1 Cl11 C11 C12 -9.8
O1 Cl11 C11 C12 -178.6
O2 Cl11 C11 C12 -4.9
N1 C11 C12 C13 179.26(10)
C16 C11 C12 C13 0.67(12)
Cl11 C11 C12 C13 -179.01(10)
C11 C12 C13 C14 -0.67(19)
C12 C13 C14 C15 0.7(2)
C12 C13 C14 C17 -179.81(10)
C13 C14 C15 C16 -0.7(2)
C17 C14 C15 C16 179.76(14)
N1 C11 C16 C15 -179.15(10)
C12 C11 C16 C15 -0.68(18)
Cl11 C11 C16 C15 179.03(11)
C14 C15 C16 C11 0.7(2)
C4 C7 C17 C14 180.0
C15 C14 C17 C7 -175.76(18)
C13 C14 C17 C7 4.7(3)
