#------------------------------------------------------------------------------
#$Date: 2019-11-24 23:40:22 +0200 (Sun, 24 Nov 2019) $
#$Revision: 239723 $
#$URL: file:///home/coder/svn-repositories/cod/cif/4/51/70/4517066.cif $
#------------------------------------------------------------------------------
#
# This file is available in the Crystallography Open Database (COD),
# http://www.crystallography.net/
#
# All data on this site have been placed in the public domain by the
# contributors.
#
data_4517066
loop_
_publ_author_name
'Khorasani, Sanaz'
'Fernandes, Manuel A.'
_publ_section_title
;
 Cooperativity and Feedback Mechanisms in the
 Single-Crystal-to-Single-Crystal Solid-State Diels--Alder Reaction of
 9-Methylanthracene with Bis(N-cyclobutylimino)-1,4-dithiin
;
_journal_issue                   12
_journal_name_full               'Crystal Growth &amp; Design'
_journal_page_first              5499
_journal_paper_doi               10.1021/cg401474f
_journal_volume                  13
_journal_year                    2013
_chemical_absolute_configuration ad
_chemical_formula_moiety
;
0.96(C31 H26 N2 O4 S2),  0.04(C16 H14 N2 O4 S2),  0.04(C15 H12)
;
_chemical_formula_sum            'C31 H26 N2 O4 S2'
_chemical_formula_weight         554.66
_space_group_IT_number           1
_space_group_name_Hall           'P 1'
_space_group_name_H-M_alt        'P 1'
_symmetry_cell_setting           triclinic
_symmetry_space_group_name_Hall  'P 1'
_symmetry_space_group_name_H-M   'P 1'
_atom_sites_solution_hydrogens   geom
_atom_sites_solution_primary     direct
_atom_sites_solution_secondary   difmap
_audit_creation_method           SHELXL-97
_cell_angle_alpha                76.054(2)
_cell_angle_beta                 86.817(2)
_cell_angle_gamma                83.763(2)
_cell_formula_units_Z            1
_cell_length_a                   7.5175(3)
_cell_length_b                   8.8851(3)
_cell_length_c                   10.1345(4)
_cell_measurement_reflns_used    2970
_cell_measurement_temperature    173(2)
_cell_measurement_theta_max      28.28
_cell_measurement_theta_min      2.37
_cell_volume                     652.78(4)
_computing_cell_refinement       'Bruker SAINT'
_computing_data_collection       'Bruker APEX2'
_computing_data_reduction        'Bruker SAINT'
_computing_molecular_graphics    'Bruker SHELXTL'
_computing_publication_material  'Bruker SHELXTL'
_computing_structure_refinement  'SHELXL-97 (Sheldrick, 2008)'
_computing_structure_solution    'SHELXS-97 (Sheldrick, 2008)'
_diffrn_ambient_temperature      173(2)
_diffrn_measured_fraction_theta_full 0.999
_diffrn_measured_fraction_theta_max 0.999
_diffrn_measurement_device_type  'Bruker APEX-II CCD'
_diffrn_measurement_method       '\f and \w scans'
_diffrn_radiation_monochromator  graphite
_diffrn_radiation_source         'fine-focus sealed tube'
_diffrn_radiation_type           MoK\a
_diffrn_radiation_wavelength     0.71073
_diffrn_reflns_av_R_equivalents  0.0431
_diffrn_reflns_av_sigmaI/netI    0.0623
_diffrn_reflns_limit_h_max       9
_diffrn_reflns_limit_h_min       -9
_diffrn_reflns_limit_k_max       11
_diffrn_reflns_limit_k_min       -11
_diffrn_reflns_limit_l_max       13
_diffrn_reflns_limit_l_min       -13
_diffrn_reflns_number            9554
_diffrn_reflns_theta_full        28.00
_diffrn_reflns_theta_max         28.00
_diffrn_reflns_theta_min         2.07
_exptl_absorpt_coefficient_mu    0.246
_exptl_absorpt_correction_type   none
_exptl_crystal_colour            yellow
_exptl_crystal_density_diffrn    1.411
_exptl_crystal_density_method    'not measured'
_exptl_crystal_description       block
_exptl_crystal_F_000             290
_exptl_crystal_size_max          0.38
_exptl_crystal_size_mid          0.38
_exptl_crystal_size_min          0.17
_refine_diff_density_max         0.223
_refine_diff_density_min         -0.153
_refine_diff_density_rms         0.036
_refine_ls_abs_structure_details 'Flack H D (1983), Acta Cryst. A39, 876-881'
_refine_ls_abs_structure_Flack   0.56(13)
_refine_ls_extinction_method     none
_refine_ls_goodness_of_fit_ref   1.015
_refine_ls_hydrogen_treatment    constr
_refine_ls_matrix_type           full
_refine_ls_number_parameters     599
_refine_ls_number_reflns         6217
_refine_ls_number_restraints     888
_refine_ls_restrained_S_all      1.000
_refine_ls_R_factor_all          0.1015
_refine_ls_R_factor_gt           0.0510
_refine_ls_shift/su_max          0.001
_refine_ls_shift/su_mean         0.000
_refine_ls_structure_factor_coef Fsqd
_refine_ls_weighting_details
'calc w=1/[\s^2^(Fo^2^)+(0.0620P)^2^+0.0248P] where P=(Fo^2^+2Fc^2^)/3'
_refine_ls_weighting_scheme      calc
_refine_ls_wR_factor_gt          0.1130
_refine_ls_wR_factor_ref         0.1362
_reflns_number_gt                3660
_reflns_number_total             6217
_reflns_threshold_expression     >2sigma(I)
_iucr_refine_instructions_details
;
TITL 12s_sk126_d4mawaterb4d_0s in P1
CELL  0.71073   7.5175   8.8851  10.1345   76.054   86.817   83.763
ZERR     1.00   0.0003   0.0003   0.0004    0.002    0.002    0.002
LATT  -1
SFAC  C    H    N    O    S
UNIT  31   26   2    4    2
MERG   2
OMIT    -2.00  56.00
DFIX     1.530   0.005 C17B C31B
SUMP 1.000 0.001 1 2 1 3 1 4
DELU     0.003   0.003 C1B > C31B
SIMU     0.010   0.020   1.700 C1B > C31B
DELU     0.003   0.003 C1C > C31C
SIMU     0.010   0.020   1.700 C1C > C31C
FMAP   2
PLAN    5
SIZE     0.17   0.38   0.38
ACTA
BOND   $H
CONF
L.S.  10
TEMP  -100.00
WGHT    0.062000    0.024800
FVAR       0.84108   0.03679   0.49600   0.46720   0.01254
MOLE    1
PART    2
C1A   1    0.710239    0.248487    0.319785    21.00000   51.00000
AFIX   3
C2A   1    0.642163    0.371707    0.401656    21.00000   51.00000
C3A   1    0.628669    0.514283    0.312342    21.00000   51.00000
C4A   1    0.688598    0.484021    0.177623    21.00000   51.00000
C5A   1    0.460329    0.521875    0.734353    21.00000   51.00000
C6A   1    0.515888    0.506696    0.593127    21.00000   51.00000
C7A   1    0.509111    0.641385    0.506434    21.00000   51.00000
C8A   1    0.442339    0.759339    0.576194    21.00000   51.00000
C9A   1    0.764622    0.258231    0.070134    21.00000   51.00000
AFIX  13
H9A   2    0.745627    0.341649   -0.015242    21.00000   -1.20000
AFIX   3
C10A  1    0.939206    0.158862    0.053967    21.00000   51.00000
AFIX  23
H10A  2    0.995802    0.105459    0.140993    21.00000   -1.20000
H10B  2    1.026659    0.213813   -0.011899    21.00000   -1.20000
AFIX   3
C11A  1    0.829142    0.055861   -0.004247    21.00000   51.00000
AFIX  23
H11A  2    0.828008    0.082436   -0.104864    21.00000   -1.20000
H11B  2    0.860859   -0.057193    0.031810    21.00000   -1.20000
AFIX   3
C12A  1    0.660900    0.120242    0.062369    21.00000   51.00000
AFIX  23
H12A  2    0.627880    0.054542    0.152114    21.00000   -1.20000
H12B  2    0.556868    0.149574    0.002481    21.00000   -1.20000
AFIX   3
C13A  1    0.379495    0.759110    0.827607    21.00000   51.00000
AFIX  13
H13A  2    0.386053    0.676049    0.914064    21.00000   -1.20000
AFIX   3
C14A  1    0.492072    0.888780    0.842273    21.00000   51.00000
AFIX  23
H14A  2    0.531661    0.954897    0.754606    21.00000   -1.20000
H14B  2    0.593094    0.851928    0.904403    21.00000   -1.20000
AFIX   3
C15A  1    0.322003    0.960938    0.908709    21.00000   51.00000
AFIX  23
H15A  2    0.299558    1.075588    0.877133    21.00000   -1.20000
H15B  2    0.315252    0.927410    1.009215    21.00000   -1.20000
AFIX   3
C16A  1    0.210609    0.868078    0.834957    21.00000   51.00000
AFIX  23
H16A  2    0.112446    0.817583    0.892059    21.00000   -1.20000
H16B  2    0.167514    0.928213    0.745116    21.00000   -1.20000
AFIX   3
N1A   3    0.732590    0.329284    0.187011    21.00000   51.00000
N2A   3    0.418499    0.685350    0.715054    21.00000   51.00000
O1A   4    0.741394    0.112859    0.368420    21.00000   51.00000
O2A   4    0.702588    0.584352    0.070102    21.00000   51.00000
O3A   4    0.455867    0.423430    0.835114    21.00000   51.00000
O4A   4    0.415230    0.900059    0.530155    21.00000   51.00000
S1A   5    0.588626    0.315670    0.573353    21.00000   51.00000
S2A   5    0.564255    0.698169    0.331504    21.00000   51.00000
AFIX   0
MOLE    2
C17A  1    0.104701    0.383997    0.535235    21.00000   51.00000
AFIX   3
C18A  1    0.029566    0.512062    0.583984    21.00000   51.00000
C19A  1   -0.035816    0.495858    0.713862    21.00000   51.00000
AFIX  43
H19A  2   -0.030754    0.395354    0.773914    21.00000   -1.20000
AFIX   3
C20A  1   -0.107612    0.620821    0.758128    21.00000   51.00000
AFIX  43
H20A  2   -0.152052    0.608660    0.849302    21.00000   -1.20000
AFIX   3
C21A  1   -0.116953    0.773114    0.666965    21.00000   51.00000
AFIX  43
H21A  2   -0.164724    0.862322    0.698060    21.00000   -1.20000
AFIX   3
C22A  1   -0.056852    0.787843    0.536291    21.00000   51.00000
AFIX  43
H22A  2   -0.066099    0.888585    0.476556    21.00000   -1.20000
AFIX   3
C23A  1    0.019435    0.659122    0.484684    21.00000   51.00000
C24A  1    0.082822    0.679114    0.351490    21.00000   51.00000
AFIX  43
H24A  2    0.078969    0.779238    0.290886    21.00000   -1.20000
AFIX   3
C25A  1    0.152584    0.545285    0.310542    21.00000   51.00000
C26A  1    0.223355    0.545308    0.169181    21.00000   51.00000
AFIX  43
H26A  2    0.216147    0.641777    0.103191    21.00000   -1.20000
AFIX   3
C27A  1    0.297945    0.414610    0.129120    21.00000   51.00000
AFIX  43
H27A  2    0.342715    0.421142    0.038601    21.00000   -1.20000
AFIX   3
C28A  1    0.306120    0.273627    0.223808    21.00000   51.00000
AFIX  43
H28A  2    0.359353    0.183478    0.196579    21.00000   -1.20000
AFIX   3
C29A  1    0.242978    0.257381    0.351894    21.00000   51.00000
AFIX  43
H29A  2    0.249594    0.156936    0.412098    21.00000   -1.20000
AFIX   3
C30A  1    0.164715    0.391352    0.399578    21.00000   51.00000
C31A  1    0.121552    0.221534    0.631591    21.00000   51.00000
AFIX  33
H31A  2    0.176423    0.145281    0.582134    21.00000   -1.50000
H31B  2    0.002418    0.193646    0.666696    21.00000   -1.50000
H31C  2    0.196592    0.221770    0.707569    21.00000   -1.50000
AFIX   0
PART    1
C1B   1    0.757628    0.262426    0.318135    31.00000    0.02725    0.02469 =
         0.05256   -0.01153    0.00059    0.00447
C2B   1    0.705330    0.381958    0.402226    31.00000    0.02276    0.02772 =
         0.05293   -0.01650    0.00366   -0.00697
C3B   1    0.688197    0.528325    0.310908    31.00000    0.03209    0.02339 =
         0.04934   -0.00800    0.00187    0.00469
C4B   1    0.730363    0.502005    0.171540    31.00000    0.03807    0.02458 =
         0.05340   -0.01210    0.00562   -0.00516
C5B   1    0.470037    0.531360    0.717179    31.00000    0.02616    0.02989 =
         0.04364   -0.00484   -0.00328   -0.00094
C6B   1    0.464698    0.497603    0.578276    31.00000    0.03419    0.02640 =
         0.04033   -0.00745   -0.00085    0.00688
C7B   1    0.447319    0.650414    0.475968    31.00000    0.02646    0.02750 =
         0.04776   -0.00908    0.00264   -0.00277
C8B   1    0.447600    0.770962    0.560658    31.00000    0.03177    0.02715 =
         0.04624   -0.00794    0.00291    0.00010
C9B   1    0.797774    0.274436    0.066561    31.00000    0.05445    0.03615 =
         0.05320   -0.02258    0.00132   -0.00844
AFIX  13
H9B   2    0.780231    0.358957   -0.018245    31.00000   -1.20000
AFIX   0
C10B  1    0.969852    0.175558    0.051151    31.00000    0.05213    0.04936 =
         0.05853   -0.02073    0.00883   -0.00602
AFIX  23
H10C  2    1.016947    0.110088    0.137910    31.00000   -1.20000
H10D  2    1.064170    0.233378   -0.004533    31.00000   -1.20000
AFIX   0
C11B  1    0.862028    0.090247   -0.026698    31.00000    0.07213    0.04709 =
         0.07626   -0.03560    0.00697   -0.00220
AFIX  23
H11C  2    0.895806   -0.023555   -0.008141    31.00000   -1.20000
H11D  2    0.857521    0.137237   -0.125655    31.00000   -1.20000
AFIX   0
C12B  1    0.689095    0.139279    0.058188    31.00000    0.05305    0.03593 =
         0.06499   -0.02269   -0.00589   -0.00407
AFIX  23
H12C  2    0.578753    0.171271    0.005372    31.00000   -1.20000
H12D  2    0.667387    0.065286    0.146279    31.00000   -1.20000
AFIX   0
C13B  1    0.418850    0.765659    0.810597    31.00000    0.04006    0.03497 =
         0.04429   -0.00997   -0.00324    0.00659
AFIX  13
H13B  2    0.432134    0.683065    0.897047    31.00000   -1.20000
AFIX   0
C14B  1    0.518732    0.902907    0.821374    31.00000    0.04098    0.05758 =
         0.05686   -0.02340   -0.00822   -0.00615
AFIX  23
H14C  2    0.617728    0.873111    0.885959    31.00000   -1.20000
H14D  2    0.560822    0.964113    0.732280    31.00000   -1.20000
AFIX   0
C15B  1    0.352739    0.979403    0.877955    31.00000    0.06926    0.05540 =
         0.04612   -0.02700   -0.00635    0.01004
AFIX  23
H15C  2    0.328158    1.091908    0.835449    31.00000   -1.20000
H15D  2    0.347509    0.959661    0.978429    31.00000   -1.20000
AFIX   0
C16B  1    0.242524    0.874949    0.821611    31.00000    0.03138    0.06537 =
         0.04917   -0.02421   -0.00034    0.01031
AFIX  23
H16C  2    0.189334    0.926235    0.732813    31.00000   -1.20000
H16D  2    0.151585    0.824763    0.887121    31.00000   -1.20000
AFIX   0
N1B   3    0.770051    0.344130    0.184912    31.00000    0.04572    0.02640 =
         0.04746   -0.01303   -0.00083   -0.00325
N2B   3    0.446311    0.693361    0.697112    31.00000    0.03248    0.02715 =
         0.04425   -0.00793    0.00107    0.00445
O1B   4    0.790923    0.121658    0.364764    31.00000    0.07291    0.02639 =
         0.05955   -0.01089    0.00256    0.01006
O2B   4    0.734374    0.602721    0.065244    31.00000    0.05134    0.03161 =
         0.04916   -0.00832    0.00516   -0.00630
O3B   4    0.490711    0.437772    0.822902    31.00000    0.05538    0.03220 =
         0.03716    0.00342    0.00708   -0.01684
O4B   4    0.439565    0.907067    0.519578    31.00000    0.04682    0.02142 =
         0.06099   -0.00507    0.00821    0.00996
S1B   5    0.660207    0.348170    0.575319    31.00000    0.04289    0.03503 =
         0.04663   -0.00653   -0.00887    0.00907
S2B   5    0.635897    0.700310    0.352417    31.00000    0.03739    0.02132 =
         0.05354   -0.01062    0.00811   -0.00445
C17B  1    0.282873    0.415577    0.577061    31.00000    0.04011    0.03021 =
         0.05494   -0.00230   -0.00636   -0.00924
C18B  1    0.132809    0.530312    0.607269    31.00000    0.03305    0.04443 =
         0.06413   -0.00941    0.00212   -0.01095
C19B  1    0.024448    0.505761    0.727373    31.00000    0.03042    0.06492 =
         0.06858   -0.01490    0.00265   -0.02539
AFIX  43
H19B  2    0.038740    0.412233    0.796622    31.00000   -1.20000
AFIX   0
C20B  1   -0.100743    0.623716    0.737467    31.00000    0.03017    0.09502 =
         0.08290   -0.02983    0.00755   -0.01162
AFIX  43
H20B  2   -0.182476    0.609640    0.813354    31.00000   -1.20000
AFIX   0
C21B  1   -0.114922    0.766857    0.639874    31.00000    0.01846    0.07969 =
         0.10594   -0.03514   -0.00129    0.00371
AFIX  43
H21B  2   -0.203008    0.847771    0.652366    31.00000   -1.20000
AFIX   0
C22B  1   -0.000587    0.790937    0.524828    31.00000    0.01518    0.05140 =
         0.08789   -0.01896   -0.01473   -0.00202
AFIX  43
H22B  2   -0.009708    0.887420    0.458873    31.00000   -1.20000
AFIX   0
C23B  1    0.124812    0.672270    0.509420    31.00000    0.02738    0.04186 =
         0.06206   -0.01051   -0.00698   -0.00291
C24B  1    0.266879    0.683459    0.398486    31.00000    0.03440    0.03391 =
         0.05175   -0.00007   -0.00845   -0.00375
AFIX  13
H24B  2    0.256060    0.784818    0.328832    31.00000   -1.20000
AFIX   0
C25B  1    0.264868    0.542433    0.339372    31.00000    0.04055    0.04488 =
         0.05261   -0.00918   -0.01104   -0.00707
C26B  1    0.259281    0.536802    0.206777    31.00000    0.05960    0.06449 =
         0.05462   -0.00972   -0.02334   -0.00836
AFIX  43
H26B  2    0.241487    0.632403    0.140329    31.00000   -1.20000
AFIX   0
C27B  1    0.278404    0.397096    0.162356    31.00000    0.05949    0.08845 =
         0.06947   -0.03632   -0.01276   -0.02046
AFIX  43
H27B  2    0.282131    0.398231    0.068272    31.00000   -1.20000
AFIX   0
C28B  1    0.291314    0.260818    0.258762    31.00000    0.06075    0.06524 =
         0.09237   -0.04378   -0.01663   -0.01724
AFIX  43
H28B  2    0.306357    0.165195    0.231218    31.00000   -1.20000
AFIX   0
C29B  1    0.283296    0.257890    0.392774    31.00000    0.05310    0.04589 =
         0.08113   -0.02203   -0.01729   -0.00724
AFIX  43
H29B  2    0.283820    0.161578    0.458680    31.00000   -1.20000
AFIX   0
C30B  1    0.274214    0.398195    0.433461    31.00000    0.04164    0.04029 =
         0.06013   -0.01075   -0.00904   -0.01092
C31B  1    0.273762    0.256512    0.675928    31.00000    0.07876    0.04353 =
         0.07921    0.01512   -0.00036   -0.01058
AFIX  33
H31D  2    0.283401    0.267056    0.769255    31.00000   -1.50000
H31E  2    0.372568    0.183679    0.654894    31.00000   -1.50000
H31F  2    0.159475    0.216828    0.667016    31.00000   -1.50000
AFIX   0
MOLE    3
PART    3
SAME 0.005 C1B > O4B
C1C   1    0.756308    0.244487    0.343048    41.00000    0.03443    0.04434 =
         0.05974    0.00306   -0.01463   -0.00608
AFIX   3
C2C   1    0.752900    0.369530    0.422817    41.00000    0.04113    0.03893 =
         0.06151    0.00361   -0.01486   -0.00171
C3C   1    0.737810    0.514464    0.326618    41.00000    0.04256    0.03970 =
         0.05663    0.00553   -0.02038    0.00994
C4C   1    0.734183    0.478704    0.189621    41.00000    0.03097    0.04971 =
         0.05915    0.00530   -0.01793    0.00746
C5C   1    0.480893    0.513382    0.735340    41.00000    0.04558    0.04500 =
         0.07347   -0.00086   -0.01382    0.00332
C6C   1    0.503605    0.485501    0.593823    41.00000    0.04901    0.04514 =
         0.07029    0.00299   -0.01938    0.02225
C7C   1    0.506387    0.639587    0.496618    41.00000    0.04381    0.04869 =
         0.07417   -0.00718   -0.01539    0.00340
C8C   1    0.452249    0.756392    0.583541    41.00000    0.04712    0.04450 =
         0.06839   -0.00085   -0.02461    0.01361
C9C   1    0.778613    0.241255    0.094112    41.00000    0.05194    0.05984 =
         0.06093   -0.00644   -0.01639   -0.00449
AFIX  13
H9C   2    0.762970    0.320349    0.005751    41.00000   -1.20000
AFIX   3
C10C  1    0.949648    0.136944    0.087249    41.00000    0.05196    0.06874 =
         0.07436   -0.01533   -0.00045   -0.00661
AFIX  23
H10E  2    0.994442    0.078553    0.177099    41.00000   -1.20000
H10F  2    1.045884    0.189063    0.028980    41.00000   -1.20000
AFIX   3
C11C  1    0.841494    0.043625    0.017203    41.00000    0.07414    0.05981 =
         0.06436   -0.00763   -0.00151   -0.01329
AFIX  23
H11E  2    0.873250   -0.070457    0.043984    41.00000   -1.20000
H11F  2    0.838921    0.081682   -0.082941    41.00000   -1.20000
AFIX   3
C12C  1    0.668406    0.103518    0.095858    41.00000    0.05804    0.06209 =
         0.07290   -0.01105   -0.00977   -0.01187
AFIX  23
H12E  2    0.558987    0.131515    0.041654    41.00000   -1.20000
H12F  2    0.644664    0.037311    0.187409    41.00000   -1.20000
AFIX   3
C13C  1    0.427875    0.739602    0.836178    41.00000    0.05364    0.05819 =
         0.06850   -0.00899   -0.02666    0.01416
AFIX  13
H13C  2    0.443236    0.650708    0.918007    41.00000   -1.20000
AFIX   3
C14C  1    0.527399    0.869943    0.861011    41.00000    0.05979    0.06112 =
         0.07316   -0.01046   -0.03256    0.01258
AFIX  23
H14E  2    0.627983    0.832354    0.923449    41.00000   -1.20000
H14F  2    0.567244    0.941363    0.776263    41.00000   -1.20000
AFIX   3
C15C  1    0.362353    0.935613    0.927519    41.00000    0.07667    0.06762 =
         0.07633   -0.01885   -0.02371    0.01389
AFIX  23
H15E  2    0.335854    1.049870    0.895465    41.00000   -1.20000
H15F  2    0.360029    0.903384    1.028117    41.00000   -1.20000
AFIX   3
C16C  1    0.251071    0.841282    0.860530    41.00000    0.05479    0.06852 =
         0.06498   -0.00446   -0.02758    0.01745
AFIX  23
H16E  2    0.194246    0.902365    0.775801    41.00000   -1.20000
H16F  2    0.163098    0.782865    0.923294    41.00000   -1.20000
AFIX   3
N1C   3    0.752451    0.319644    0.207505    41.00000    0.03979    0.04877 =
         0.06004   -0.00198   -0.01072   -0.00192
N2C   3    0.453066    0.675327    0.718735    41.00000    0.04718    0.04915 =
         0.06416   -0.00008   -0.02613    0.01044
O1C   4    0.766970    0.103146    0.393259    41.00000    0.03489    0.03980 =
         0.08483   -0.00059   -0.00250   -0.00391
O2C   4    0.713033    0.573564    0.080075    41.00000    0.06215    0.05868 =
         0.05522    0.00679   -0.02023    0.01093
O3C   4    0.466964    0.417306    0.839003    41.00000    0.09624    0.06688 =
         0.07397    0.01271   -0.00485   -0.01099
O4C   4    0.426102    0.892731    0.544784    41.00000    0.06607    0.03925 =
         0.07872    0.00410   -0.02702    0.00370
S1C   5    0.567112    0.318027    0.550898    41.00000    0.05549    0.04579 =
         0.07308   -0.00134   -0.00313   -0.00412
S2C   5    0.542879    0.668418    0.331425    41.00000    0.05431    0.03901 =
         0.07269   -0.00117   -0.02350    0.01047
SAME 0.005 C17B > C31B
C17C  1    0.939104    0.342590    0.502939    41.00000    0.04596    0.03462 =
         0.05666    0.00669   -0.02067    0.00374
C18C  1    0.941915    0.476815    0.568315    41.00000    0.04021    0.04296 =
         0.06675   -0.00308   -0.01431   -0.00310
C19C  1    0.944999    0.462301    0.709708    41.00000    0.05740    0.06968 =
         0.06810   -0.01234   -0.01005   -0.00844
AFIX  43
H19C  2    0.947123    0.363775    0.772659    41.00000   -1.20000
AFIX   3
C20C  1    0.944775    0.595450    0.750826    41.00000    0.05411    0.09126 =
         0.09013   -0.03612   -0.00995   -0.01064
AFIX  43
H20C  2    0.952100    0.590758    0.845035    41.00000   -1.20000
AFIX   3
C21C  1    0.933919    0.741695    0.657290    41.00000    0.05440    0.07253 =
         0.11860   -0.04453   -0.01560   -0.00424
AFIX  43
H21C  2    0.932752    0.833674    0.689619    41.00000   -1.20000
AFIX   3
C22C  1    0.924832    0.753640    0.517608    41.00000    0.06096    0.04597 =
         0.10968   -0.01789   -0.01438   -0.01563
AFIX  43
H22C  2    0.912864    0.852861    0.455566    41.00000   -1.20000
AFIX   3
C23C  1    0.933448    0.620208    0.471739    41.00000    0.04863    0.03995 =
         0.07998   -0.00445   -0.01717   -0.00673
C24C  1    0.919512    0.610399    0.327395    41.00000    0.05039    0.03615 =
         0.07137    0.00840   -0.01672   -0.00232
AFIX  13
H24C  2    0.915638    0.713660    0.260372    41.00000   -1.20000
AFIX   3
C25C  1    1.067770    0.491809    0.297089    41.00000    0.04263    0.04579 =
         0.06697    0.00272   -0.01551   -0.00480
C26C  1    1.183218    0.499115    0.187992    41.00000    0.04446    0.06535 =
         0.07602    0.00183   -0.00920   -0.01793
AFIX  43
H26C  2    1.186633    0.596474    0.123957    41.00000   -1.20000
AFIX   3
C27C  1    1.298123    0.371590    0.163784    41.00000    0.04987    0.08497 =
         0.09270   -0.01378    0.00753   -0.01451
AFIX  43
H27C  2    1.371127    0.381382    0.083173    41.00000   -1.20000
AFIX   3
C28C  1    1.301619    0.234419    0.258787    41.00000    0.05149    0.07483 =
         0.10348   -0.01404    0.00182    0.00423
AFIX  43
H28C  2    1.377365    0.146764    0.244192    41.00000   -1.20000
AFIX   3
C29C  1    1.198829    0.221087    0.373663    41.00000    0.04460    0.05168 =
         0.08602   -0.00398   -0.01255    0.00667
AFIX  43
H29C  2    1.205858    0.126031    0.441427    41.00000   -1.20000
AFIX   3
C30C  1    1.081998    0.348228    0.392106    41.00000    0.04236    0.04198 =
         0.06355   -0.00120   -0.01690   -0.00096
C31C  1    0.965818    0.185997    0.605760    41.00000    0.06970    0.03872 =
         0.06444    0.01298   -0.02309   -0.00376
AFIX  33
H31G  2    0.979143    0.101792    0.557742    41.00000   -1.50000
H31H  2    0.861740    0.173459    0.668673    41.00000   -1.50000
H31I  2    1.073737    0.182111    0.656938    41.00000   -1.50000
HKLF    4
 
REM  12s_sk126_d4mawaterb4d_0s in P1
REM R1 =  0.0510 for   3660 Fo > 4sig(Fo)  and  0.1015 for all   6217 data
REM    599 parameters refined using    888 restraints
 
END  
     
WGHT      0.0620      0.0248 
REM Highest difference peak  0.223,  deepest hole -0.153,  1-sigma level  0.036
Q1    1   0.4988  0.5875  0.5408  11.00000  0.05    0.22
Q2    1   0.7061  0.4375  0.3750  11.00000  0.05    0.20
Q3    1   0.7854  0.5487  0.3311  11.00000  0.05    0.18
Q4    1   0.2388  0.8378  0.2948  11.00000  0.05    0.17
Q5    1   0.5208  0.5142  0.6353  11.00000  0.05    0.16
;
_cod_data_source_file            12s_sk126_d4mawaterb4d_0s-96p-x1.cif
_cod_data_source_block           12s_sk126_d4mawaterb4d_0s
_cod_depositor_comments
;
The following automatic conversions were performed:

data item '_symmetry_cell_setting' value 'Triclinic' was changed to
'triclinic' in accordance with the
/home/saulius/struct/COD-crude-data/automatic-downloads/DataCite-retrospective/ACS/depositions/lib/dictionaries/cif_core.dic
dictionary named 'cif_core.dic' version 2.4.2 last updated on
2011-04-26.

Automatic conversion script
Id: cif_fix_values 6909 2019-04-08 15:41:33Z antanas 
;
_cod_original_sg_symbol_H-M      P1
_cod_database_code               4517066
loop_
_symmetry_equiv_pos_as_xyz
'x, y, z'
loop_
_atom_site_label
_atom_site_type_symbol
_atom_site_fract_x
_atom_site_fract_y
_atom_site_fract_z
_atom_site_U_iso_or_equiv
_atom_site_adp_type
_atom_site_occupancy
_atom_site_symmetry_multiplicity
_atom_site_calc_flag
_atom_site_refinement_flags
_atom_site_disorder_assembly
_atom_site_disorder_group
C1A C 0.710(2) 0.248(2) 0.3198(19) 0.013(3) Uiso 0.037(2) 1 d P A 2
C2A C 0.642(2) 0.372(2) 0.4017(19) 0.013(3) Uiso 0.037(2) 1 d PR A 2
C3A C 0.629(2) 0.514(2) 0.3123(19) 0.013(3) Uiso 0.037(2) 1 d PR A 2
C4A C 0.689(2) 0.484(2) 0.1776(19) 0.013(3) Uiso 0.037(2) 1 d PR A 2
C5A C 0.460(2) 0.522(2) 0.7344(19) 0.013(3) Uiso 0.037(2) 1 d PR A 2
C6A C 0.516(2) 0.507(2) 0.5931(19) 0.013(3) Uiso 0.037(2) 1 d PR A 2
C7A C 0.509(2) 0.641(2) 0.5064(19) 0.013(3) Uiso 0.037(2) 1 d PR A 2
C8A C 0.442(2) 0.759(2) 0.5762(19) 0.013(3) Uiso 0.037(2) 1 d PR A 2
C9A C 0.765(2) 0.258(2) 0.0701(19) 0.013(3) Uiso 0.037(2) 1 d PR A 2
H9A H 0.7456 0.3416 -0.0152 0.015 Uiso 0.037(2) 1 calc PR A 2
C10A C 0.939(2) 0.159(2) 0.0540(19) 0.013(3) Uiso 0.037(2) 1 d PR A 2
H10A H 0.9958 0.1055 0.1410 0.015 Uiso 0.037(2) 1 calc PR A 2
H10B H 1.0267 0.2138 -0.0119 0.015 Uiso 0.037(2) 1 calc PR A 2
C11A C 0.829(2) 0.056(2) -0.0042(19) 0.013(3) Uiso 0.037(2) 1 d PR A 2
H11A H 0.8280 0.0824 -0.1049 0.015 Uiso 0.037(2) 1 calc PR A 2
H11B H 0.8609 -0.0572 0.0318 0.015 Uiso 0.037(2) 1 calc PR A 2
C12A C 0.661(2) 0.120(2) 0.0624(19) 0.013(3) Uiso 0.037(2) 1 d PR A 2
H12A H 0.6279 0.0545 0.1521 0.015 Uiso 0.037(2) 1 calc PR A 2
H12B H 0.5569 0.1496 0.0025 0.015 Uiso 0.037(2) 1 calc PR A 2
C13A C 0.379(2) 0.759(2) 0.8276(19) 0.013(3) Uiso 0.037(2) 1 d PR A 2
H13A H 0.3861 0.6760 0.9141 0.015 Uiso 0.037(2) 1 calc PR A 2
C14A C 0.492(2) 0.889(2) 0.8423(19) 0.013(3) Uiso 0.037(2) 1 d PR A 2
H14A H 0.5317 0.9549 0.7546 0.015 Uiso 0.037(2) 1 calc PR A 2
H14B H 0.5931 0.8519 0.9044 0.015 Uiso 0.037(2) 1 calc PR A 2
C15A C 0.322(2) 0.961(2) 0.9087(19) 0.013(3) Uiso 0.037(2) 1 d PR A 2
H15A H 0.2996 1.0756 0.8771 0.015 Uiso 0.037(2) 1 calc PR A 2
H15B H 0.3153 0.9274 1.0092 0.015 Uiso 0.037(2) 1 calc PR A 2
C16A C 0.211(2) 0.868(2) 0.8350(19) 0.013(3) Uiso 0.037(2) 1 d PR A 2
H16A H 0.1124 0.8176 0.8921 0.015 Uiso 0.037(2) 1 calc PR A 2
H16B H 0.1675 0.9282 0.7451 0.015 Uiso 0.037(2) 1 calc PR A 2
N1A N 0.733(2) 0.329(2) 0.1870(19) 0.013(3) Uiso 0.037(2) 1 d PR A 2
N2A N 0.418(2) 0.685(2) 0.7151(19) 0.013(3) Uiso 0.037(2) 1 d PR A 2
O1A O 0.741(2) 0.113(2) 0.3684(19) 0.013(3) Uiso 0.037(2) 1 d PR A 2
O2A O 0.703(2) 0.584(2) 0.0701(19) 0.013(3) Uiso 0.037(2) 1 d PR A 2
O3A O 0.456(2) 0.423(2) 0.8351(19) 0.013(3) Uiso 0.037(2) 1 d PR A 2
O4A O 0.415(2) 0.900(2) 0.5302(19) 0.013(3) Uiso 0.037(2) 1 d PR A 2
S1A S 0.589(2) 0.316(2) 0.5734(19) 0.013(3) Uiso 0.037(2) 1 d PR A 2
S2A S 0.564(2) 0.698(2) 0.3315(19) 0.013(3) Uiso 0.037(2) 1 d PR A 2
C17A C 0.105(3) 0.384(2) 0.535(2) 0.013(3) Uiso 0.037(2) 1 d P A 2
C18A C 0.030(3) 0.512(2) 0.584(2) 0.013(3) Uiso 0.037(2) 1 d PR A 2
C19A C -0.036(3) 0.496(2) 0.714(2) 0.013(3) Uiso 0.037(2) 1 d PR A 2
H19A H -0.0308 0.3954 0.7739 0.015 Uiso 0.037(2) 1 calc PR A 2
C20A C -0.108(3) 0.621(2) 0.758(2) 0.013(3) Uiso 0.037(2) 1 d PR A 2
H20A H -0.1521 0.6087 0.8493 0.015 Uiso 0.037(2) 1 calc PR A 2
C21A C -0.117(3) 0.773(2) 0.667(2) 0.013(3) Uiso 0.037(2) 1 d PR A 2
H21A H -0.1647 0.8623 0.6981 0.015 Uiso 0.037(2) 1 calc PR A 2
C22A C -0.057(3) 0.788(2) 0.536(2) 0.013(3) Uiso 0.037(2) 1 d PR A 2
H22A H -0.0661 0.8886 0.4766 0.015 Uiso 0.037(2) 1 calc PR A 2
C23A C 0.019(3) 0.659(2) 0.485(2) 0.013(3) Uiso 0.037(2) 1 d PR A 2
C24A C 0.083(3) 0.679(2) 0.351(2) 0.013(3) Uiso 0.037(2) 1 d PR A 2
H24A H 0.0790 0.7792 0.2909 0.015 Uiso 0.037(2) 1 calc PR A 2
C25A C 0.153(3) 0.545(2) 0.311(2) 0.013(3) Uiso 0.037(2) 1 d PR A 2
C26A C 0.223(3) 0.545(2) 0.169(2) 0.013(3) Uiso 0.037(2) 1 d PR A 2
H26A H 0.2161 0.6418 0.1032 0.015 Uiso 0.037(2) 1 calc PR A 2
C27A C 0.298(3) 0.415(2) 0.129(2) 0.013(3) Uiso 0.037(2) 1 d PR A 2
H27A H 0.3427 0.4211 0.0386 0.015 Uiso 0.037(2) 1 calc PR A 2
C28A C 0.306(3) 0.274(2) 0.224(2) 0.013(3) Uiso 0.037(2) 1 d PR A 2
H28A H 0.3594 0.1835 0.1966 0.015 Uiso 0.037(2) 1 calc PR A 2
C29A C 0.243(3) 0.257(2) 0.352(2) 0.013(3) Uiso 0.037(2) 1 d PR A 2
H29A H 0.2496 0.1569 0.4121 0.015 Uiso 0.037(2) 1 calc PR A 2
C30A C 0.165(3) 0.391(2) 0.400(2) 0.013(3) Uiso 0.037(2) 1 d PR A 2
C31A C 0.122(3) 0.222(2) 0.632(2) 0.013(3) Uiso 0.037(2) 1 d PR A 2
H31A H 0.1764 0.1453 0.5821 0.019 Uiso 0.037(2) 1 calc PR A 2
H31B H 0.0024 0.1936 0.6667 0.019 Uiso 0.037(2) 1 calc PR A 2
H31C H 0.1966 0.2218 0.7076 0.019 Uiso 0.037(2) 1 calc PR A 2
C1B C 0.7576(12) 0.2624(5) 0.3181(5) 0.0350(16) Uani 0.496(3) 1 d PDU B 1
C2B C 0.7053(8) 0.3820(5) 0.4022(5) 0.0331(13) Uani 0.496(3) 1 d PDU B 1
C3B C 0.6882(9) 0.5283(6) 0.3109(5) 0.0357(14) Uani 0.496(3) 1 d PDU B 1
C4B C 0.7304(14) 0.5020(5) 0.1715(5) 0.0383(17) Uani 0.496(3) 1 d PDU B 1
C5B C 0.4700(13) 0.5314(5) 0.7172(5) 0.0339(14) Uani 0.496(3) 1 d PDU B 1
C6B C 0.4647(10) 0.4976(6) 0.5783(5) 0.0345(10) Uani 0.496(3) 1 d PDU B 1
C7B C 0.4473(8) 0.6504(6) 0.4760(5) 0.0340(10) Uani 0.496(3) 1 d PDU B 1
C8B C 0.4476(12) 0.7710(5) 0.5607(5) 0.0356(14) Uani 0.496(3) 1 d PDU B 1
C9B C 0.7978(10) 0.2744(7) 0.0666(6) 0.0457(17) Uani 0.496(3) 1 d PDU B 1
H9B H 0.7802 0.3590 -0.0182 0.055 Uiso 0.496(3) 1 calc PR B 1
C10B C 0.9699(9) 0.1756(10) 0.0512(9) 0.052(2) Uani 0.496(3) 1 d PDU B 1
H10C H 1.0169 0.1101 0.1379 0.063 Uiso 0.496(3) 1 calc PR B 1
H10D H 1.0642 0.2334 -0.0045 0.063 Uiso 0.496(3) 1 calc PR B 1
C11B C 0.8620(11) 0.0902(9) -0.0267(8) 0.062(2) Uani 0.496(3) 1 d PDU B 1
H11C H 0.8958 -0.0236 -0.0081 0.075 Uiso 0.496(3) 1 calc PR B 1
H11D H 0.8575 0.1372 -0.1257 0.075 Uiso 0.496(3) 1 calc PR B 1
C12B C 0.6891(10) 0.1393(9) 0.0582(10) 0.0493(19) Uani 0.496(3) 1 d PDU B 1
H12C H 0.5788 0.1713 0.0054 0.059 Uiso 0.496(3) 1 calc PR B 1
H12D H 0.6674 0.0653 0.1463 0.059 Uiso 0.496(3) 1 calc PR B 1
C13B C 0.4188(9) 0.7657(7) 0.8106(6) 0.0404(16) Uani 0.496(3) 1 d PDU B 1
H13B H 0.4321 0.6831 0.8970 0.048 Uiso 0.496(3) 1 calc PR B 1
C14B C 0.5187(9) 0.9029(9) 0.8214(11) 0.0498(19) Uani 0.496(3) 1 d PDU B 1
H14C H 0.6177 0.8731 0.8860 0.060 Uiso 0.496(3) 1 calc PR B 1
H14D H 0.5608 0.9641 0.7323 0.060 Uiso 0.496(3) 1 calc PR B 1
C15B C 0.3527(11) 0.9794(8) 0.8780(8) 0.055(2) Uani 0.496(3) 1 d PDU B 1
H15C H 0.3282 1.0919 0.8354 0.066 Uiso 0.496(3) 1 calc PR B 1
H15D H 0.3475 0.9597 0.9784 0.066 Uiso 0.496(3) 1 calc PR B 1
C16B C 0.2425(8) 0.8749(9) 0.8216(9) 0.0480(19) Uani 0.496(3) 1 d PDU B 1
H16C H 0.1893 0.9262 0.7328 0.058 Uiso 0.496(3) 1 calc PR B 1
H16D H 0.1516 0.8248 0.8871 0.058 Uiso 0.496(3) 1 calc PR B 1
N1B N 0.7701(10) 0.3441(5) 0.1849(5) 0.0392(14) Uani 0.496(3) 1 d PDU B 1
N2B N 0.4463(9) 0.6934(5) 0.6971(5) 0.0354(15) Uani 0.496(3) 1 d PDU B 1
O1B O 0.7909(12) 0.1217(5) 0.3648(7) 0.054(2) Uani 0.496(3) 1 d PDU B 1
O2B O 0.7344(11) 0.6027(6) 0.0652(6) 0.0443(18) Uani 0.496(3) 1 d PDU B 1
O3B O 0.4907(11) 0.4378(6) 0.8229(5) 0.0430(19) Uani 0.496(3) 1 d PDU B 1
O4B O 0.4396(11) 0.9071(5) 0.5196(7) 0.045(2) Uani 0.496(3) 1 d PDU B 1
S1B S 0.6602(3) 0.3482(2) 0.5753(2) 0.0427(7) Uani 0.496(3) 1 d PU B 1
S2B S 0.6359(3) 0.7003(2) 0.3524(2) 0.0374(6) Uani 0.496(3) 1 d PU B 1
C17B C 0.2829(6) 0.4156(4) 0.5771(4) 0.0425(12) Uani 0.496(3) 1 d PDU B 1
C18B C 0.1328(6) 0.5303(5) 0.6073(5) 0.0474(16) Uani 0.496(3) 1 d PDU B 1
C19B C 0.0244(7) 0.5058(7) 0.7274(6) 0.0534(19) Uani 0.496(3) 1 d PDU B 1
H19B H 0.0387 0.4122 0.7966 0.064 Uiso 0.496(3) 1 calc PR B 1
C20B C -0.1007(12) 0.6237(9) 0.7375(8) 0.068(2) Uani 0.496(3) 1 d PDU B 1
H20B H -0.1825 0.6096 0.8134 0.081 Uiso 0.496(3) 1 calc PR B 1
C21B C -0.1149(11) 0.7669(9) 0.6399(8) 0.066(2) Uani 0.496(3) 1 d PDU B 1
H21B H -0.2030 0.8478 0.6524 0.080 Uiso 0.496(3) 1 calc PR B 1
C22B C -0.0006(7) 0.7909(6) 0.5248(7) 0.0507(19) Uani 0.496(3) 1 d PDU B 1
H22B H -0.0097 0.8874 0.4589 0.061 Uiso 0.496(3) 1 calc PR B 1
C23B C 0.1248(6) 0.6723(5) 0.5094(5) 0.0439(16) Uani 0.496(3) 1 d PDU B 1
C24B C 0.2669(6) 0.6835(5) 0.3985(5) 0.0414(12) Uani 0.496(3) 1 d PDU B 1
H24B H 0.2561 0.7848 0.3288 0.050 Uiso 0.496(3) 1 calc PR B 1
C25B C 0.2649(7) 0.5424(5) 0.3394(4) 0.0458(15) Uani 0.496(3) 1 d PDU B 1
C26B C 0.2593(10) 0.5368(7) 0.2068(5) 0.0593(19) Uani 0.496(3) 1 d PDU B 1
H26B H 0.2415 0.6324 0.1403 0.071 Uiso 0.496(3) 1 calc PR B 1
C27B C 0.2784(14) 0.3971(8) 0.1624(7) 0.068(2) Uani 0.496(3) 1 d PDU B 1
H27B H 0.2821 0.3982 0.0683 0.082 Uiso 0.496(3) 1 calc PR B 1
C28B C 0.2913(14) 0.2608(8) 0.2588(7) 0.067(2) Uani 0.496(3) 1 d PDU B 1
H28B H 0.3064 0.1652 0.2312 0.081 Uiso 0.496(3) 1 calc PR B 1
C29B C 0.2833(10) 0.2579(6) 0.3928(6) 0.0581(19) Uani 0.496(3) 1 d PDU B 1
H29B H 0.2838 0.1616 0.4587 0.070 Uiso 0.496(3) 1 calc PR B 1
C30B C 0.2742(7) 0.3982(4) 0.4335(4) 0.0467(14) Uani 0.496(3) 1 d PDU B 1
C31B C 0.2738(10) 0.2565(6) 0.6759(6) 0.0720(19) Uani 0.496(3) 1 d PDU B 1
H31D H 0.2834 0.2671 0.7693 0.108 Uiso 0.496(3) 1 calc PR B 1
H31E H 0.3726 0.1837 0.6549 0.108 Uiso 0.496(3) 1 calc PR B 1
H31F H 0.1595 0.2168 0.6670 0.108 Uiso 0.496(3) 1 calc PR B 1
C1C C 0.7563(2) 0.24449(19) 0.34305(18) 0.0481(18) Uani 0.467(3) 1 d PDU C 3
C2C C 0.7529(2) 0.36953(19) 0.42282(18) 0.0495(13) Uani 0.467(3) 1 d PRDU C 3
C3C C 0.7378(2) 0.51446(19) 0.32662(18) 0.0495(13) Uani 0.467(3) 1 d PRDU C 3
C4C C 0.7342(2) 0.47870(19) 0.18962(18) 0.0500(18) Uani 0.467(3) 1 d PRDU C 3
C5C C 0.4809(2) 0.51338(19) 0.73534(18) 0.057(2) Uani 0.467(3) 1 d PRDU C 3
C6C C 0.5036(2) 0.48550(19) 0.59382(18) 0.059(2) Uani 0.467(3) 1 d PRDU C 3
C7C C 0.5064(2) 0.63959(19) 0.49662(18) 0.0569(19) Uani 0.467(3) 1 d PRDU C 3
C8C C 0.4522(2) 0.75639(19) 0.58354(18) 0.056(2) Uani 0.467(3) 1 d PRDU C 3
C9C C 0.7786(2) 0.24125(19) 0.09411(18) 0.058(2) Uani 0.467(3) 1 d PRDU C 3
H9C H 0.7630 0.3203 0.0058 0.070 Uiso 0.467(3) 1 calc PR C 3
C10C C 0.9496(2) 0.13694(19) 0.08725(18) 0.065(3) Uani 0.467(3) 1 d PRDU C 3
H10E H 0.9944 0.0786 0.1771 0.078 Uiso 0.467(3) 1 calc PR C 3
H10F H 1.0459 0.1891 0.0290 0.078 Uiso 0.467(3) 1 calc PR C 3
C11C C 0.8415(2) 0.04362(19) 0.01720(18) 0.067(3) Uani 0.467(3) 1 d PRDU C 3
H11E H 0.8732 -0.0705 0.0440 0.080 Uiso 0.467(3) 1 calc PR C 3
H11F H 0.8389 0.0817 -0.0829 0.080 Uiso 0.467(3) 1 calc PR C 3
C12C C 0.6684(2) 0.10352(19) 0.09586(18) 0.064(3) Uani 0.467(3) 1 d PRDU C 3
H12E H 0.5590 0.1315 0.0417 0.077 Uiso 0.467(3) 1 calc PR C 3
H12F H 0.6447 0.0373 0.1874 0.077 Uiso 0.467(3) 1 calc PR C 3
C13C C 0.4279(2) 0.73960(19) 0.83618(18) 0.062(2) Uani 0.467(3) 1 d PRDU C 3
H13C H 0.4432 0.6507 0.9180 0.074 Uiso 0.467(3) 1 calc PR C 3
C14C C 0.5274(2) 0.86994(19) 0.86101(18) 0.066(3) Uani 0.467(3) 1 d PRDU C 3
H14E H 0.6280 0.8324 0.9234 0.079 Uiso 0.467(3) 1 calc PR C 3
H14F H 0.5672 0.9414 0.7763 0.079 Uiso 0.467(3) 1 calc PR C 3
C15C C 0.3624(2) 0.93561(19) 0.92752(18) 0.074(3) Uani 0.467(3) 1 d PRDU C 3
H15E H 0.3359 1.0499 0.8955 0.089 Uiso 0.467(3) 1 calc PR C 3
H15F H 0.3600 0.9034 1.0281 0.089 Uiso 0.467(3) 1 calc PR C 3
C16C C 0.2511(2) 0.84128(19) 0.86053(18) 0.065(3) Uani 0.467(3) 1 d PRDU C 3
H16E H 0.1942 0.9024 0.7758 0.079 Uiso 0.467(3) 1 calc PR C 3
H16F H 0.1631 0.7829 0.9233 0.079 Uiso 0.467(3) 1 calc PR C 3
N1C N 0.7525(2) 0.31964(19) 0.20751(18) 0.0512(19) Uani 0.467(3) 1 d PRDU C 3
N2C N 0.4531(2) 0.67533(19) 0.71873(18) 0.056(2) Uani 0.467(3) 1 d PRDU C 3
O1C O 0.7670(2) 0.10315(19) 0.39326(18) 0.056(3) Uani 0.467(3) 1 d PRDU C 3
O2C O 0.7130(2) 0.57356(19) 0.08008(18) 0.063(3) Uani 0.467(3) 1 d PRDU C 3
O3C O 0.4670(2) 0.41731(19) 0.83900(18) 0.084(4) Uani 0.467(3) 1 d PRDU C 3
O4C O 0.4261(2) 0.89273(19) 0.54478(18) 0.064(3) Uani 0.467(3) 1 d PRDU C 3
S1C S 0.5671(2) 0.31803(19) 0.55090(18) 0.0603(11) Uani 0.467(3) 1 d PRU C 3
S2C S 0.5429(2) 0.66842(19) 0.33143(18) 0.0577(10) Uani 0.467(3) 1 d PRU C 3
C17C C 0.9391(2) 0.34259(19) 0.50294(18) 0.0486(14) Uani 0.467(3) 1 d PRDU C 3
C18C C 0.9419(2) 0.47681(19) 0.56832(18) 0.0513(16) Uani 0.467(3) 1 d PRDU C 3
C19C C 0.9450(2) 0.46230(19) 0.70971(18) 0.065(2) Uani 0.467(3) 1 d PRDU C 3
H19C H 0.9471 0.3638 0.7727 0.078 Uiso 0.467(3) 1 calc PR C 3
C20C C 0.9448(2) 0.59545(19) 0.75083(18) 0.075(3) Uani 0.467(3) 1 d PRDU C 3
H20C H 0.9521 0.5908 0.8450 0.091 Uiso 0.467(3) 1 calc PR C 3
C21C C 0.9339(2) 0.74169(19) 0.65729(18) 0.078(3) Uani 0.467(3) 1 d PRDU C 3
H21C H 0.9328 0.8337 0.6896 0.093 Uiso 0.467(3) 1 calc PR C 3
C22C C 0.9248(2) 0.75364(19) 0.51761(18) 0.071(2) Uani 0.467(3) 1 d PRDU C 3
H22C H 0.9129 0.8529 0.4556 0.085 Uiso 0.467(3) 1 calc PR C 3
C23C C 0.9334(2) 0.62021(19) 0.47174(18) 0.0571(17) Uani 0.467(3) 1 d PRDU C 3
C24C C 0.9195(2) 0.61040(19) 0.32740(18) 0.0558(15) Uani 0.467(3) 1 d PRDU C 3
H24C H 0.9156 0.7137 0.2604 0.067 Uiso 0.467(3) 1 calc PR C 3
C25C C 1.0678(2) 0.49181(19) 0.29709(18) 0.0540(18) Uani 0.467(3) 1 d PRDU C 3
C26C C 1.1832(2) 0.49911(19) 0.18799(18) 0.064(3) Uani 0.467(3) 1 d PRDU C 3
H26C H 1.1866 0.5965 0.1240 0.077 Uiso 0.467(3) 1 calc PR C 3
C27C C 1.2981(2) 0.37159(19) 0.16378(18) 0.077(3) Uani 0.467(3) 1 d PRDU C 3
H27C H 1.3711 0.3814 0.0832 0.092 Uiso 0.467(3) 1 calc PR C 3
C28C C 1.3016(2) 0.23442(19) 0.25879(18) 0.079(3) Uani 0.467(3) 1 d PRDU C 3
H28C H 1.3774 0.1468 0.2442 0.095 Uiso 0.467(3) 1 calc PR C 3
C29C C 1.1988(2) 0.22109(19) 0.37366(18) 0.063(3) Uani 0.467(3) 1 d PRDU C 3
H29C H 1.2059 0.1260 0.4414 0.076 Uiso 0.467(3) 1 calc PR C 3
C30C C 1.0820(2) 0.34823(19) 0.39211(18) 0.0509(18) Uani 0.467(3) 1 d PRDU C 3
C31C C 0.9658(2) 0.18600(19) 0.60576(18) 0.0612(18) Uani 0.467(3) 1 d PRDU C 3
H31G H 0.9791 0.1018 0.5577 0.092 Uiso 0.467(3) 1 calc PR C 3
H31H H 0.8617 0.1735 0.6687 0.092 Uiso 0.467(3) 1 calc PR C 3
H31I H 1.0737 0.1821 0.6569 0.092 Uiso 0.467(3) 1 calc PR C 3
loop_
_atom_site_aniso_label
_atom_site_aniso_U_11
_atom_site_aniso_U_22
_atom_site_aniso_U_33
_atom_site_aniso_U_23
_atom_site_aniso_U_13
_atom_site_aniso_U_12
C1B 0.027(4) 0.025(2) 0.053(3) -0.012(2) 0.001(3) 0.004(3)
C2B 0.023(3) 0.028(2) 0.053(2) -0.0165(19) 0.004(3) -0.007(3)
C3B 0.032(3) 0.023(2) 0.049(2) -0.0080(17) 0.002(3) 0.005(3)
C4B 0.038(5) 0.025(2) 0.053(3) -0.0121(17) 0.006(4) -0.005(3)
C5B 0.026(4) 0.030(2) 0.044(2) -0.0048(17) -0.003(3) -0.001(3)
C6B 0.034(2) 0.026(2) 0.040(2) -0.0075(16) -0.001(2) 0.0069(16)
C7B 0.026(2) 0.027(2) 0.048(2) -0.0091(17) 0.0026(17) -0.0028(18)
C8B 0.032(4) 0.027(2) 0.046(3) -0.0079(19) 0.003(3) 0.000(3)
C9B 0.054(4) 0.036(3) 0.053(3) -0.023(3) 0.001(4) -0.008(3)
C10B 0.052(4) 0.049(4) 0.059(5) -0.021(4) 0.009(4) -0.006(3)
C11B 0.072(5) 0.047(4) 0.076(5) -0.036(4) 0.007(4) -0.002(4)
C12B 0.053(4) 0.036(4) 0.065(5) -0.023(3) -0.006(4) -0.004(3)
C13B 0.040(4) 0.035(3) 0.044(3) -0.010(3) -0.003(3) 0.007(3)
C14B 0.041(4) 0.058(4) 0.057(5) -0.023(4) -0.008(4) -0.006(3)
C15B 0.069(5) 0.055(4) 0.046(4) -0.027(3) -0.006(4) 0.010(4)
C16B 0.031(3) 0.065(4) 0.049(4) -0.024(4) 0.000(3) 0.010(3)
N1B 0.046(4) 0.026(2) 0.047(2) -0.0130(17) -0.001(3) -0.003(3)
N2B 0.032(4) 0.027(2) 0.044(2) -0.0079(18) 0.001(3) 0.004(3)
O1B 0.073(5) 0.026(2) 0.060(4) -0.011(2) 0.003(4) 0.010(3)
O2B 0.051(5) 0.032(3) 0.049(3) -0.008(2) 0.005(4) -0.006(3)
O3B 0.055(5) 0.032(3) 0.037(3) 0.003(2) 0.007(3) -0.017(3)
O4B 0.047(5) 0.021(2) 0.061(4) -0.005(2) 0.008(4) 0.010(3)
S1B 0.0429(15) 0.0350(13) 0.0466(13) -0.0065(10) -0.0089(13) 0.0091(12)
S2B 0.0374(13) 0.0213(9) 0.0535(15) -0.0106(9) 0.0081(12) -0.0044(10)
C17B 0.040(2) 0.030(2) 0.055(3) -0.002(2) -0.006(3) -0.0092(18)
C18B 0.033(3) 0.044(3) 0.064(4) -0.009(2) 0.002(3) -0.011(2)
C19B 0.030(4) 0.065(4) 0.069(4) -0.015(3) 0.003(3) -0.025(3)
C20B 0.030(4) 0.095(5) 0.083(5) -0.030(4) 0.008(4) -0.012(4)
C21B 0.018(3) 0.080(4) 0.106(6) -0.035(4) -0.001(3) 0.004(3)
C22B 0.015(3) 0.051(3) 0.088(5) -0.019(3) -0.015(3) -0.002(3)
C23B 0.027(2) 0.042(3) 0.062(4) -0.011(2) -0.007(3) -0.003(2)
C24B 0.034(2) 0.034(3) 0.052(3) 0.000(2) -0.0084(18) -0.004(2)
C25B 0.041(4) 0.045(3) 0.053(3) -0.009(2) -0.011(3) -0.007(3)
C26B 0.060(5) 0.064(4) 0.055(3) -0.010(3) -0.023(4) -0.008(4)
C27B 0.059(6) 0.088(5) 0.069(4) -0.036(3) -0.013(5) -0.020(5)
C28B 0.061(6) 0.065(4) 0.092(5) -0.044(4) -0.017(5) -0.017(5)
C29B 0.053(5) 0.046(3) 0.081(4) -0.022(3) -0.017(4) -0.007(4)
C30B 0.042(4) 0.040(3) 0.060(3) -0.011(2) -0.009(3) -0.011(3)
C31B 0.079(5) 0.044(3) 0.079(4) 0.015(3) 0.000(4) -0.011(3)
C1C 0.034(5) 0.044(3) 0.060(3) 0.003(2) -0.015(3) -0.006(4)
C2C 0.041(3) 0.039(3) 0.062(3) 0.004(2) -0.015(2) -0.002(2)
C3C 0.043(3) 0.040(3) 0.057(3) 0.0055(19) -0.020(2) 0.010(2)
C4C 0.031(5) 0.050(3) 0.059(3) 0.005(2) -0.018(4) 0.007(4)
C5C 0.046(5) 0.045(3) 0.073(3) -0.001(2) -0.014(5) 0.003(5)
C6C 0.049(5) 0.045(3) 0.070(3) 0.003(2) -0.019(3) 0.022(4)
C7C 0.044(4) 0.049(3) 0.074(3) -0.007(2) -0.015(4) 0.003(4)
C8C 0.047(5) 0.045(3) 0.068(3) -0.001(3) -0.025(4) 0.014(5)
C9C 0.052(4) 0.060(4) 0.061(4) -0.006(3) -0.016(4) -0.004(3)
C10C 0.052(4) 0.069(6) 0.074(6) -0.015(4) 0.000(5) -0.007(4)
C11C 0.074(6) 0.060(5) 0.064(6) -0.008(4) -0.002(5) -0.013(5)
C12C 0.058(5) 0.062(5) 0.073(6) -0.011(4) -0.010(4) -0.012(4)
C13C 0.054(5) 0.058(4) 0.068(4) -0.009(3) -0.027(4) 0.014(4)
C14C 0.060(4) 0.061(5) 0.073(6) -0.010(4) -0.033(4) 0.013(4)
C15C 0.077(5) 0.068(6) 0.076(6) -0.019(4) -0.024(5) 0.014(5)
C16C 0.055(4) 0.069(6) 0.065(6) -0.004(4) -0.028(4) 0.017(4)
N1C 0.040(4) 0.049(3) 0.060(3) -0.002(2) -0.011(4) -0.002(3)
N2C 0.047(5) 0.049(3) 0.064(3) 0.000(2) -0.026(4) 0.010(4)
O1C 0.035(4) 0.040(3) 0.085(6) -0.001(3) -0.003(4) -0.004(3)
O2C 0.062(6) 0.059(4) 0.055(4) 0.007(4) -0.020(5) 0.011(5)
O3C 0.096(9) 0.067(5) 0.074(4) 0.013(4) -0.005(6) -0.011(6)
O4C 0.066(8) 0.039(3) 0.079(6) 0.004(3) -0.027(5) 0.004(5)
S1C 0.055(2) 0.0458(16) 0.073(2) -0.0013(15) -0.0031(17) -0.0041(16)
S2C 0.0543(19) 0.0390(19) 0.0727(19) -0.0012(14) -0.0235(17) 0.0105(15)
C17C 0.046(2) 0.035(3) 0.057(3) 0.007(2) -0.021(2) 0.004(3)
C18C 0.040(4) 0.043(3) 0.067(3) -0.003(2) -0.014(3) -0.003(3)
C19C 0.057(5) 0.070(4) 0.068(3) -0.012(3) -0.010(5) -0.008(5)
C20C 0.054(6) 0.091(5) 0.090(5) -0.036(4) -0.010(5) -0.011(5)
C21C 0.054(6) 0.073(4) 0.119(5) -0.045(4) -0.016(6) -0.004(5)
C22C 0.061(6) 0.046(3) 0.110(5) -0.018(3) -0.014(6) -0.016(5)
C23C 0.049(4) 0.040(3) 0.080(3) -0.004(2) -0.017(3) -0.007(4)
C24C 0.050(3) 0.036(3) 0.071(3) 0.008(3) -0.017(3) -0.002(2)
C25C 0.043(3) 0.046(3) 0.067(4) 0.003(3) -0.016(3) -0.005(3)
C26C 0.044(5) 0.065(5) 0.076(5) 0.002(4) -0.009(4) -0.018(4)
C27C 0.050(6) 0.085(5) 0.093(6) -0.014(4) 0.008(5) -0.015(5)
C28C 0.051(6) 0.075(5) 0.103(6) -0.014(4) 0.002(5) 0.004(5)
C29C 0.045(5) 0.052(4) 0.086(6) -0.004(4) -0.013(4) 0.007(4)
C30C 0.042(3) 0.042(3) 0.064(4) -0.001(2) -0.017(3) -0.001(3)
C31C 0.070(4) 0.039(3) 0.064(4) 0.013(3) -0.023(3) -0.004(3)
loop_
_atom_type_symbol
_atom_type_description
_atom_type_scat_dispersion_real
_atom_type_scat_dispersion_imag
_atom_type_scat_source
C C 0.0033 0.0016 'International Tables Vol C Tables 4.2.6.8 and 6.1.1.4'
H H 0.0000 0.0000 'International Tables Vol C Tables 4.2.6.8 and 6.1.1.4'
N N 0.0061 0.0033 'International Tables Vol C Tables 4.2.6.8 and 6.1.1.4'
O O 0.0106 0.0060 'International Tables Vol C Tables 4.2.6.8 and 6.1.1.4'
S S 0.1246 0.1234 'International Tables Vol C Tables 4.2.6.8 and 6.1.1.4'
loop_
_geom_angle_atom_site_label_1
_geom_angle_atom_site_label_2
_geom_angle_atom_site_label_3
_geom_angle
O1A C1A N1A 129.0
O1A C1A C2A 124.6
N1A C1A C2A 106.4
C3A C2A C1A 107.6
C3A C2A S1A 131.5
C1A C2A S1A 120.8
C2A C3A C4A 105.4
C2A C3A S2A 132.9
C4A C3A S2A 121.7
O2A C4A N1A 123.0
O2A C4A C3A 125.7
N1A C4A C3A 111.3
O3A C5A N2A 129.1
O3A C5A C6A 128.6
N2A C5A C6A 102.2
C7A C6A C5A 111.9
C7A C6A S1A 131.3
C5A C6A S1A 116.7
C6A C7A C8A 108.5
C6A C7A S2A 132.9
C8A C7A S2A 118.6
O4A C8A N2A 123.9
O4A C8A C7A 128.5
N2A C8A C7A 107.5
N1A C9A C10A 120.7
N1A C9A C12A 119.4
C10A C9A C12A 89.1
N1A C9A H9A 108.7
C10A C9A H9A 108.7
C12A C9A H9A 108.7
C9A C10A C11A 87.4
C9A C10A H10A 114.1
C11A C10A H10A 114.1
C9A C10A H10B 114.1
C11A C10A H10B 114.1
H10A C10A H10B 111.3
C12A C11A C10A 89.5
C12A C11A H11A 113.7
C10A C11A H11A 113.7
C12A C11A H11B 113.7
C10A C11A H11B 113.7
H11A C11A H11B 111.0
C11A C12A C9A 87.1
C11A C12A H12A 114.1
C9A C12A H12A 114.1
C11A C12A H12B 114.1
C9A C12A H12B 114.1
H12A C12A H12B 111.3
N2A C13A C16A 122.0
N2A C13A C14A 119.3
C16A C13A C14A 89.3
N2A C13A H13A 108.2
C16A C13A H13A 108.2
C14A C13A H13A 108.2
C13A C14A C15A 87.3
C13A C14A H14A 114.1
C15A C14A H14A 114.1
C13A C14A H14B 114.1
C15A C14A H14B 114.1
H14A C14A H14B 111.3
C14A C15A C16A 86.9
C14A C15A H15A 114.2
C16A C15A H15A 114.2
C14A C15A H15B 114.2
C16A C15A H15B 114.2
H15A C15A H15B 111.3
C13A C16A C15A 87.7
C13A C16A H16A 114.0
C15A C16A H16A 114.0
C13A C16A H16B 114.0
C15A C16A H16B 114.0
H16A C16A H16B 111.2
C4A N1A C1A 109.4
C4A N1A C9A 124.6
C1A N1A C9A 125.1
C8A N2A C5A 109.8
C8A N2A C13A 127.4
C5A N2A C13A 122.5
C2A S1A C6A 95.8
C3A S2A C7A 95.7
C18A C17A C30A 124.6
C18A C17A C31A 119.6
C30A C17A C31A 115.8
C19A C18A C17A 121.8
C19A C18A C23A 123.2
C17A C18A C23A 115.0
C20A C19A C18A 120.6
C20A C19A H19A 119.7
C18A C19A H19A 119.7
C19A C20A C21A 119.8
C19A C20A H20A 120.1
C21A C20A H20A 120.1
C22A C21A C20A 119.3
C22A C21A H21A 120.4
C20A C21A H21A 120.4
C21A C22A C23A 122.9
C21A C22A H22A 118.6
C23A C22A H22A 118.6
C24A C23A C22A 121.3
C24A C23A C18A 124.6
C22A C23A C18A 114.1
C23A C24A C25A 116.7
C23A C24A H24A 121.6
C25A C24A H24A 121.6
C24A C25A C30A 123.6
C24A C25A C26A 123.8
C30A C25A C26A 112.6
C27A C26A C25A 124.1
C27A C26A H26A 117.9
C25A C26A H26A 117.9
C26A C27A C28A 118.3
C26A C27A H27A 120.9
C28A C27A H27A 120.9
C29A C28A C27A 123.4
C29A C28A H28A 118.3
C27A C28A H28A 118.3
C28A C29A C30A 120.6
C28A C29A H29A 119.7
C30A C29A H29A 119.7
C17A C30A C25A 115.4
C17A C30A C29A 123.5
C25A C30A C29A 121.0
C17A C31A H31A 109.5
C17A C31A H31B 109.5
H31A C31A H31B 109.5
C17A C31A H31C 109.5
H31A C31A H31C 109.5
H31B C31A H31C 109.5
O1B C1B N1B 128.1(5)
O1B C1B C2B 125.1(5)
N1B C1B C2B 106.7(3)
C3B C2B C1B 106.8(3)
C3B C2B S1B 125.1(3)
C1B C2B S1B 127.9(3)
C2B C3B C4B 107.0(3)
C2B C3B S2B 125.9(3)
C4B C3B S2B 127.1(3)
O2B C4B N1B 126.0(5)
O2B C4B C3B 126.3(4)
N1B C4B C3B 107.6(3)
O3B C5B N2B 126.9(5)
O3B C5B C6B 126.6(5)
N2B C5B C6B 106.4(3)
C7B C6B C5B 107.6(3)
C7B C6B C17B 107.6(5)
C5B C6B C17B 106.5(5)
C7B C6B S1B 122.1(4)
C5B C6B S1B 103.8(4)
C17B C6B S1B 108.2(3)
C6B C7B C8B 104.1(3)
C6B C7B C24B 113.6(5)
C8B C7B C24B 107.7(5)
C6B C7B S2B 118.5(4)
C8B C7B S2B 102.1(4)
C24B C7B S2B 109.4(3)
O4B C8B N2B 125.0(5)
O4B C8B C7B 126.6(5)
N2B C8B C7B 108.2(3)
N1B C9B C10B 119.3(5)
N1B C9B C12B 119.4(5)
C10B C9B C12B 90.4(4)
N1B C9B H9B 108.8
C10B C9B H9B 108.8
C12B C9B H9B 108.8
C9B C10B C11B 86.5(3)
C9B C10B H10C 114.2
C11B C10B H10C 114.2
C9B C10B H10D 114.2
C11B C10B H10D 114.2
H10C C10B H10D 111.4
C10B C11B C12B 87.5(3)
C10B C11B H11C 114.1
C12B C11B H11C 114.1
C10B C11B H11D 114.1
C12B C11B H11D 114.1
H11C C11B H11D 111.3
C9B C12B C11B 82.9(3)
C9B C12B H12C 114.8
C11B C12B H12C 114.8
C9B C12B H12D 114.8
C11B C12B H12D 114.8
H12C C12B H12D 111.9
N2B C13B C14B 122.4(5)
N2B C13B C16B 119.4(5)
C14B C13B C16B 86.2(3)
N2B C13B H13B 108.9
C14B C13B H13B 108.9
C16B C13B H13B 108.9
C15B C14B C13B 91.2(3)
C15B C14B H14C 113.4
C13B C14B H14C 113.4
C15B C14B H14D 113.4
C13B C14B H14D 113.4
H14C C14B H14D 110.7
C14B C15B C16B 88.3(3)
C14B C15B H15C 113.9
C16B C15B H15C 113.9
C14B C15B H15D 113.9
C16B C15B H15D 113.9
H15C C15B H15D 111.1
C15B C16B C13B 88.6(3)
C15B C16B H16C 113.9
C13B C16B H16C 113.9
C15B C16B H16D 113.9
C13B C16B H16D 113.9
H16C C16B H16D 111.1
C1B N1B C4B 111.9(3)
C1B N1B C9B 125.3(4)
C4B N1B C9B 122.3(4)
C8B N2B C5B 113.1(3)
C8B N2B C13B 125.8(4)
C5B N2B C13B 121.1(4)
C2B S1B C6B 100.1(2)
C3B S2B C7B 100.1(3)
C30B C17B C18B 110.6(4)
C30B C17B C31B 109.4(4)
C18B C17B C31B 110.7(4)
C30B C17B C6B 104.6(4)
C18B C17B C6B 105.6(4)
C31B C17B C6B 115.8(4)
C23B C18B C19B 123.1(4)
C23B C18B C17B 112.2(3)
C19B C18B C17B 124.3(4)
C20B C19B C18B 115.7(5)
C20B C19B H19B 122.2
C18B C19B H19B 122.2
C19B C20B C21B 122.5(5)
C19B C20B H20B 118.7
C21B C20B H20B 118.7
C22B C21B C20B 120.6(5)
C22B C21B H21B 119.7
C20B C21B H21B 119.7
C23B C22B C21B 118.4(5)
C23B C22B H22B 120.8
C21B C22B H22B 120.8
C22B C23B C18B 119.4(4)
C22B C23B C24B 125.1(4)
C18B C23B C24B 115.4(3)
C23B C24B C25B 107.3(3)
C23B C24B C7B 104.2(4)
C25B C24B C7B 103.3(4)
C23B C24B H24B 113.7
C25B C24B H24B 113.7
C7B C24B H24B 113.7
C26B C25B C30B 115.5(4)
C26B C25B C24B 128.7(4)
C30B C25B C24B 115.7(3)
C25B C26B C27B 123.7(5)
C25B C26B H26B 118.2
C27B C26B H26B 118.2
C28B C27B C26B 117.7(5)
C28B C27B H27B 121.2
C26B C27B H27B 121.2
C29B C28B C27B 121.6(5)
C29B C28B H28B 119.2
C27B C28B H28B 119.2
C28B C29B C30B 119.3(4)
C28B C29B H29B 120.4
C30B C29B H29B 120.4
C29B C30B C25B 121.9(4)
C29B C30B C17B 126.2(4)
C25B C30B C17B 111.8(3)
C17B C31B H31D 109.5
C17B C31B H31E 109.5
H31D C31B H31E 109.5
C17B C31B H31F 109.5
H31D C31B H31F 109.5
H31E C31B H31F 109.5
O1C C1C N1C 127.8
O1C C1C C2C 125.1
N1C C1C C2C 107.0
C3C C2C C1C 106.6
C3C C2C C17C 111.3
C1C C2C C17C 107.8
C3C C2C S1C 119.7
C1C C2C S1C 102.2
C17C C2C S1C 108.3
C2C C3C C4C 106.5
C2C C3C C24C 110.7
C4C C3C C24C 107.5
C2C C3C S2C 122.2
C4C C3C S2C 105.6
C24C C3C S2C 103.6
O2C C4C N1C 125.2
O2C C4C C3C 126.6
N1C C4C C3C 108.1
O3C C5C N2C 126.5
O3C C5C C6C 126.7
N2C C5C C6C 106.2
C7C C6C C5C 107.6
C7C C6C S1C 123.1
C5C C6C S1C 127.6
C6C C7C C8C 104.2
C6C C7C S2C 125.5
C8C C7C S2C 130.1
O4C C8C N2C 125.3
O4C C8C C7C 126.7
N2C C8C C7C 107.9
N1C C9C C10C 118.0
N1C C9C C12C 118.7
C10C C9C C12C 90.0
N1C C9C H9C 109.6
C10C C9C H9C 109.6
C12C C9C H9C 109.6
C9C C10C C11C 86.6
C9C C10C H10E 114.2
C11C C10C H10E 114.2
C9C C10C H10F 114.2
C11C C10C H10F 114.2
H10E C10C H10F 111.4
C10C C11C C12C 87.3
C10C C11C H11E 114.1
C12C C11C H11E 114.1
C10C C11C H11F 114.1
C12C C11C H11F 114.1
H11E C11C H11F 111.3
C9C C12C C11C 83.1
C9C C12C H12E 114.8
C11C C12C H12E 114.8
C9C C12C H12F 114.8
C11C C12C H12F 114.8
H12E C12C H12F 111.9
N2C C13C C14C 125.1
N2C C13C C16C 121.2
C14C C13C C16C 86.7
N2C C13C H13C 107.2
C14C C13C H13C 107.2
C16C C13C H13C 107.2
C15C C14C C13C 91.1
C15C C14C H14E 113.5
C13C C14C H14E 113.5
C15C C14C H14F 113.5
C13C C14C H14F 113.5
H14E C14C H14F 110.8
C14C C15C C16C 88.4
C14C C15C H15E 113.9
C16C C15C H15E 113.9
C14C C15C H15F 113.9
C16C C15C H15F 113.9
H15E C15C H15F 111.1
C15C C16C C13C 88.4
C15C C16C H16E 113.9
C13C C16C H16E 113.9
C15C C16C H16F 113.9
C13C C16C H16F 113.9
H16E C16C H16F 111.1
C4C N1C C1C 111.6
C4C N1C C9C 123.5
C1C N1C C9C 124.8
C8C N2C C5C 113.1
C8C N2C C13C 127.2
C5C N2C C13C 119.7
C6C S1C C2C 103.0
C7C S2C C3C 100.1
C18C C17C C30C 110.7
C18C C17C C31C 112.0
C30C C17C C31C 109.0
C18C C17C C2C 107.0
C30C C17C C2C 104.1
C31C C17C C2C 113.9
C23C C18C C19C 123.8
C23C C18C C17C 111.8
C19C C18C C17C 124.4
C20C C19C C18C 116.4
C20C C19C H19C 121.8
C18C C19C H19C 121.8
C19C C20C C21C 121.5
C19C C20C H20C 119.3
C21C C20C H20C 119.3
C22C C21C C20C 121.1
C22C C21C H21C 119.5
C20C C21C H21C 119.5
C23C C22C C21C 119.0
C23C C22C H22C 120.5
C21C C22C H22C 120.5
C22C C23C C18C 118.2
C22C C23C C24C 126.4
C18C C23C C24C 115.2
C23C C24C C25C 108.3
C23C C24C C3C 105.2
C25C C24C C3C 100.8
C23C C24C H24C 113.8
C25C C24C H24C 113.8
C3C C24C H24C 113.8
C26C C25C C30C 114.2
C26C C25C C24C 130.4
C30C C25C C24C 115.3
C25C C26C C27C 124.3
C25C C26C H26C 117.9
C27C C26C H26C 117.9
C28C C27C C26C 118.2
C28C C27C H27C 120.9
C26C C27C H27C 120.9
C29C C28C C27C 120.8
C29C C28C H28C 119.6
C27C C28C H28C 119.6
C28C C29C C30C 119.4
C28C C29C H29C 120.3
C30C C29C H29C 120.3
C29C C30C C25C 122.9
C29C C30C C17C 125.0
C25C C30C C17C 111.5
C17C C31C H31G 109.5
C17C C31C H31H 109.5
H31G C31C H31H 109.5
C17C C31C H31I 109.5
H31G C31C H31I 109.5
H31H C31C H31I 109.5
loop_
_geom_bond_atom_site_label_1
_geom_bond_atom_site_label_2
_geom_bond_distance
C1A O1A 1.1896
C1A N1A 1.3747
C1A C2A 1.5550
C2A C3A 1.3653
C2A S1A 1.7280
C3A C4A 1.4905
C3A S2A 1.7065
C4A O2A 1.2380
C4A N1A 1.3603
C5A O3A 1.1752
C5A N2A 1.4204
C5A C6A 1.5018
C6A C7A 1.3006
C6A S1A 1.7805
C7A C8A 1.4330
C7A S2A 1.7613
C8A O4A 1.2233
C8A N2A 1.4129
C9A N1A 1.4681
C9A C10A 1.5241
C9A C12A 1.5422
C9A H9A 1.0000
C10A C11A 1.5327
C10A H10A 0.9900
C10A H10B 0.9900
C11A C12A 1.5221
C11A H11A 0.9900
C11A H11B 0.9900
C12A H12A 0.9900
C12A H12B 0.9900
C13A N2A 1.4485
C13A C16A 1.5205
C13A C14A 1.5408
C13A H13A 1.0000
C14A C15A 1.5599
C14A H14A 0.9900
C14A H14B 0.9900
C15A C16A 1.5677
C15A H15A 0.9900
C15A H15B 0.9900
C16A H16A 0.9900
C16A H16B 0.9900
C17A C18A 1.3994
C17A C30A 1.4114
C17A C31A 1.5323
C18A C19A 1.3590
C18A C23A 1.4418
C19A C20A 1.3447
C19A H19A 0.9500
C20A C21A 1.4400
C20A H20A 0.9500
C21A C22A 1.3557
C21A H21A 0.9500
C22A C23A 1.4223
C22A H22A 0.9500
C23A C24A 1.3828
C24A C25A 1.3926
C24A H24A 0.9500
C25A C30A 1.4423
C25A C26A 1.5002
C26A C27A 1.3741
C26A H26A 0.9500
C27A C28A 1.3799
C27A H27A 0.9500
C28A C29A 1.3369
C28A H28A 0.9500
C29A C30A 1.4457
C29A H29A 0.9500
C31A H31A 0.9800
C31A H31B 0.9800
C31A H31C 0.9800
C1B O1B 1.229(4)
C1B N1B 1.374(4)
C1B C2B 1.522(4)
C2B C3B 1.400(4)
C2B S1B 1.728(5)
C3B C4B 1.498(4)
C3B S2B 1.682(5)
C4B O2B 1.225(4)
C4B N1B 1.377(4)
C5B O3B 1.194(4)
C5B N2B 1.397(4)
C5B C6B 1.512(4)
C6B C7B 1.494(4)
C6B C17B 1.619(9)
C6B S1B 1.875(6)
C7B C8B 1.526(4)
C7B C24B 1.570(8)
C7B S2B 1.856(6)
C8B O4B 1.176(4)
C8B N2B 1.389(4)
C9B N1B 1.472(4)
C9B C10B 1.505(4)
C9B C12B 1.545(4)
C9B H9B 1.0000
C10B C11B 1.532(5)
C10B H10C 0.9900
C10B H10D 0.9900
C11B C12B 1.598(5)
C11B H11C 0.9900
C11B H11D 0.9900
C12B H12C 0.9900
C12B H12D 0.9900
C13B N2B 1.442(4)
C13B C14B 1.528(4)
C13B C16B 1.571(4)
C13B H13B 1.0000
C14B C15B 1.507(5)
C14B H14C 0.9900
C14B H14D 0.9900
C15B C16B 1.533(5)
C15B H15C 0.9900
C15B H15D 0.9900
C16B H16C 0.9900
C16B H16D 0.9900
C17B C30B 1.506(4)
C17B C18B 1.506(4)
C17B C31B 1.529(3)
C18B C23B 1.402(4)
C18B C19B 1.412(4)
C19B C20B 1.350(4)
C19B H19B 0.9500
C20B C21B 1.408(4)
C20B H20B 0.9500
C21B C22B 1.397(4)
C21B H21B 0.9500
C22B C23B 1.368(4)
C22B H22B 0.9500
C23B C24B 1.500(4)
C24B C25B 1.515(4)
C24B H24B 1.0000
C25B C26B 1.360(4)
C25B C30B 1.398(4)
C26B C27B 1.410(4)
C26B H26B 0.9500
C27B C28B 1.358(4)
C27B H27B 0.9500
C28B C29B 1.350(4)
C28B H28B 0.9500
C29B C30B 1.398(4)
C29B H29B 0.9500
C31B H31D 0.9800
C31B H31E 0.9800
C31B H31F 0.9800
C1C O1C 1.2317
C1C N1C 1.3754
C1C C2C 1.5209
C2C C3C 1.4132
C2C C17C 1.6235
C2C S1C 1.8698
C3C C4C 1.4994
C3C C24C 1.6882
C3C S2C 1.8999
C4C O2C 1.2279
C4C N1C 1.3734
C5C O3C 1.1909
C5C N2C 1.4015
C5C C6C 1.5107
C6C C7C 1.4829
C6C S1C 1.6631
C7C C8C 1.5257
C7C S2C 1.6435
C8C O4C 1.1781
C8C N2C 1.3858
C9C N1C 1.4749
C9C C10C 1.5097
C9C C12C 1.5468
C9C H9C 1.0000
C10C C11C 1.5319
C10C H10E 0.9900
C10C H10F 0.9900
C11C C12C 1.5970
C11C H11E 0.9900
C11C H11F 0.9900
C12C H12E 0.9900
C12C H12F 0.9900
C13C N2C 1.4345
C13C C14C 1.5212
C13C C16C 1.5665
C13C H13C 1.0000
C14C C15C 1.5078
C14C H14E 0.9900
C14C H14F 0.9900
C15C C16C 1.5339
C15C H15E 0.9900
C15C H15F 0.9900
C16C H16E 0.9900
C16C H16F 0.9900
C17C C18C 1.4999
C17C C30C 1.5062
C17C C31C 1.5250
C18C C23C 1.4048
C18C C19C 1.4087
C19C C20C 1.3455
C19C H19C 0.9500
C20C C21C 1.4091
C20C H20C 0.9500
C21C C22C 1.3988
C21C H21C 0.9500
C22C C23C 1.3680
C22C H22C 0.9500
C23C C24C 1.4963
C24C C25C 1.5197
C24C H24C 1.0000
C25C C26C 1.3605
C25C C30C 1.3985
C26C C27C 1.4100
C26C H26C 0.9500
C27C C28C 1.3577
C27C H27C 0.9500
C28C C29C 1.3491
C28C H28C 0.9500
C29C C30C 1.3966
C29C H29C 0.9500
C31C H31G 0.9800
C31C H31H 0.9800
C31C H31I 0.9800
loop_
_geom_torsion_atom_site_label_1
_geom_torsion_atom_site_label_2
_geom_torsion_atom_site_label_3
_geom_torsion_atom_site_label_4
_geom_torsion
O1A C1A C2A C3A 177.7
N1A C1A C2A C3A 0.3
O1A C1A C2A S1A -5.3
N1A C1A C2A S1A 177.3
C1A C2A C3A C4A -0.7
S1A C2A C3A C4A -177.4
C1A C2A C3A S2A -179.8
S1A C2A C3A S2A 3.6
C2A C3A C4A O2A -177.1
S2A C3A C4A O2A 2.0
C2A C3A C4A N1A 1.0
S2A C3A C4A N1A -179.8
O3A C5A C6A C7A -178.1
N2A C5A C6A C7A 0.7
O3A C5A C6A S1A -1.1
N2A C5A C6A S1A 177.7
C5A C6A C7A C8A -2.5
S1A C6A C7A C8A -178.9
C5A C6A C7A S2A 177.5
S1A C6A C7A S2A 1.0
C6A C7A C8A O4A -179.4
S2A C7A C8A O4A 0.7
C6A C7A C8A N2A 3.2
S2A C7A C8A N2A -176.7
N1A C9A C10A C11A 143.8
C12A C9A C10A C11A 19.6
C9A C10A C11A C12A -19.9
C10A C11A C12A C9A 19.6
N1A C9A C12A C11A -145.0
C10A C9A C12A C11A -19.8
N2A C13A C14A C15A 149.4
C16A C13A C14A C15A 22.5
C13A C14A C15A C16A -21.8
N2A C13A C16A C15A -147.0
C14A C13A C16A C15A -22.4
C14A C15A C16A C13A 22.1
O2A C4A N1A C1A 177.3
C3A C4A N1A C1A -0.9
O2A C4A N1A C9A -13.5
C3A C4A N1A C9A 168.2
O1A C1A N1A C4A -176.9
C2A C1A N1A C4A 0.4
O1A C1A N1A C9A 14.1
C2A C1A N1A C9A -168.7
C10A C9A N1A C4A 125.0
C12A C9A N1A C4A -126.7
C10A C9A N1A C1A -67.6
C12A C9A N1A C1A 40.7
O4A C8A N2A C5A 179.7
C7A C8A N2A C5A -2.8
O4A C8A N2A C13A -7.6
C7A C8A N2A C13A 170.0
O3A C5A N2A C8A -179.8
C6A C5A N2A C8A 1.3
O3A C5A N2A C13A 7.0
C6A C5A N2A C13A -171.8
C16A C13A N2A C8A 60.8
C14A C13A N2A C8A -48.6
C16A C13A N2A C5A -127.3
C14A C13A N2A C5A 123.3
C3A C2A S1A C6A -1.3
C1A C2A S1A C6A -177.5
C7A C6A S1A C2A -0.9
C5A C6A S1A C2A -177.2
C2A C3A S2A C7A -2.8
C4A C3A S2A C7A 178.3
C6A C7A S2A C3A 0.6
C8A C7A S2A C3A -179.5
C30A C17A C18A C19A 175.9
C31A C17A C18A C19A -2.6
C30A C17A C18A C23A -1.2
C31A C17A C18A C23A -179.7
C17A C18A C19A C20A -179.9
C23A C18A C19A C20A -3.0
C18A C19A C20A C21A 0.6
C19A C20A C21A C22A 1.6
C20A C21A C22A C23A -1.4
C21A C22A C23A C24A -178.6
C21A C22A C23A C18A -0.8
C19A C18A C23A C24A -179.2
C17A C18A C23A C24A -2.2
C19A C18A C23A C22A 3.1
C17A C18A C23A C22A -179.8
C22A C23A C24A C25A -179.1
C18A C23A C24A C25A 3.4
C23A C24A C25A C30A -1.4
C23A C24A C25A C26A 178.7
C24A C25A C26A C27A 177.7
C30A C25A C26A C27A -2.3
C25A C26A C27A C28A 1.1
C26A C27A C28A C29A 1.0
C27A C28A C29A C30A -1.5
C18A C17A C30A C25A 3.0
C31A C17A C30A C25A -178.5
C18A C17A C30A C29A 179.6
C31A C17A C30A C29A -1.9
C24A C25A C30A C17A -1.6
C26A C25A C30A C17A 178.3
C24A C25A C30A C29A -178.3
C26A C25A C30A C29A 1.7
C28A C29A C30A C17A -176.3
C28A C29A C30A C25A 0.1
O1B C1B C2B C3B 177.1(9)
N1B C1B C2B C3B 0.7(8)
O1B C1B C2B S1B -6.8(12)
N1B C1B C2B S1B 176.8(6)
C1B C2B C3B C4B -0.4(8)
S1B C2B C3B C4B -176.7(6)
C1B C2B C3B S2B -178.8(6)
S1B C2B C3B S2B 4.9(8)
C2B C3B C4B O2B -177.9(10)
S2B C3B C4B O2B 0.5(15)
C2B C3B C4B N1B 0.0(9)
S2B C3B C4B N1B 178.4(6)
O3B C5B C6B C7B -176.6(9)
N2B C5B C6B C7B 3.3(8)
O3B C5B C6B C17B 68.3(11)
N2B C5B C6B C17B -111.8(6)
O3B C5B C6B S1B -45.9(11)
N2B C5B C6B S1B 134.1(6)
C5B C6B C7B C8B 1.3(7)
C17B C6B C7B C8B 115.7(5)
S1B C6B C7B C8B -118.4(5)
C5B C6B C7B C24B -115.5(6)
C17B C6B C7B C24B -1.1(4)
S1B C6B C7B C24B 124.8(5)
C5B C6B C7B S2B 113.9(6)
C17B C6B C7B S2B -131.8(4)
S1B C6B C7B S2B -5.8(6)
C6B C7B C8B O4B 178.5(9)
C24B C7B C8B O4B -60.6(11)
S2B C7B C8B O4B 54.6(10)
C6B C7B C8B N2B -5.6(8)
C24B C7B C8B N2B 115.3(7)
S2B C7B C8B N2B -129.5(6)
N1B C9B C10B C11B 152.0(6)
C12B C9B C10B C11B 27.5(6)
C9B C10B C11B C12B -26.6(5)
N1B C9B C12B C11B -150.8(6)
C10B C9B C12B C11B -26.5(5)
C10B C11B C12B C9B 26.0(5)
N2B C13B C14B C15B 140.6(6)
C16B C13B C14B C15B 17.9(6)
C13B C14B C15B C16B -18.4(6)
C14B C15B C16B C13B 17.8(6)
N2B C13B C16B C15B -143.0(6)
C14B C13B C16B C15B -17.6(6)
O1B C1B N1B C4B -176.9(9)
C2B C1B N1B C4B -0.7(10)
O1B C1B N1B C9B 10.9(15)
C2B C1B N1B C9B -172.8(6)
O2B C4B N1B C1B 178.4(10)
C3B C4B N1B C1B 0.4(11)
O2B C4B N1B C9B -9.2(15)
C3B C4B N1B C9B 172.8(6)
C10B C9B N1B C1B -64.4(10)
C12B C9B N1B C1B 44.5(11)
C10B C9B N1B C4B 124.3(9)
C12B C9B N1B C4B -126.8(8)
O4B C8B N2B C5B -175.8(9)
C7B C8B N2B C5B 8.3(10)
O4B C8B N2B C13B 6.0(15)
C7B C8B N2B C13B -170.0(6)
O3B C5B N2B C8B 172.6(10)
C6B C5B N2B C8B -7.3(10)
O3B C5B N2B C13B -9.0(14)
C6B C5B N2B C13B 171.1(6)
C14B C13B N2B C8B -47.9(11)
C16B C13B N2B C8B 57.6(10)
C14B C13B N2B C5B 133.9(8)
C16B C13B N2B C5B -120.6(8)
C3B C2B S1B C6B 35.8(6)
C1B C2B S1B C6B -139.7(6)
C7B C6B S1B C2B -32.6(5)
C5B C6B S1B C2B -154.1(4)
C17B C6B S1B C2B 93.0(4)
C2B C3B S2B C7B -45.3(6)
C4B C3B S2B C7B 136.6(7)
C6B C7B S2B C3B 42.8(4)
C8B C7B S2B C3B 156.4(4)
C24B C7B S2B C3B -89.7(4)
C7B C6B C17B C30B 59.7(4)
C5B C6B C17B C30B 174.8(4)
S1B C6B C17B C30B -74.2(4)
C7B C6B C17B C18B -57.0(4)
C5B C6B C17B C18B 58.1(4)
S1B C6B C17B C18B 169.1(3)
C7B C6B C17B C31B -179.9(4)
C5B C6B C17B C31B -64.8(5)
S1B C6B C17B C31B 46.3(5)
C30B C17B C18B C23B -51.9(6)
C31B C17B C18B C23B -173.3(5)
C6B C17B C18B C23B 60.6(5)
C30B C17B C18B C19B 134.7(6)
C31B C17B C18B C19B 13.3(7)
C6B C17B C18B C19B -112.8(6)
C23B C18B C19B C20B 5.8(10)
C17B C18B C19B C20B 178.5(7)
C18B C19B C20B C21B -4.5(14)
C19B C20B C21B C22B 1.8(16)
C20B C21B C22B C23B 0.1(13)
C21B C22B C23B C18B 1.1(10)
C21B C22B C23B C24B -174.7(7)
C19B C18B C23B C22B -4.3(8)
C17B C18B C23B C22B -177.8(5)
C19B C18B C23B C24B 172.0(5)
C17B C18B C23B C24B -1.6(6)
C22B C23B C24B C25B -132.1(6)
C18B C23B C24B C25B 51.9(6)
C22B C23B C24B C7B 118.7(6)
C18B C23B C24B C7B -57.3(5)
C6B C7B C24B C23B 56.8(4)
C8B C7B C24B C23B -58.0(4)
S2B C7B C24B C23B -168.3(3)
C6B C7B C24B C25B -55.3(4)
C8B C7B C24B C25B -170.1(4)
S2B C7B C24B C25B 79.7(4)
C23B C24B C25B C26B 130.1(6)
C7B C24B C25B C26B -120.1(7)
C23B C24B C25B C30B -51.5(6)
C7B C24B C25B C30B 58.2(5)
C30B C25B C26B C27B -5.8(11)
C24B C25B C26B C27B 172.5(7)
C25B C26B C27B C28B 4.5(14)
C26B C27B C28B C29B 1.1(15)
C27B C28B C29B C30B -4.6(14)
C28B C29B C30B C25B 3.0(10)
C28B C29B C30B C17B -173.5(7)
C26B C25B C30B C29B 2.1(8)
C24B C25B C30B C29B -176.5(5)
C26B C25B C30B C17B 179.1(5)
C24B C25B C30B C17B 0.5(6)
C18B C17B C30B C29B -131.0(6)
C31B C17B C30B C29B -8.8(7)
C6B C17B C30B C29B 115.8(6)
C18B C17B C30B C25B 52.2(6)
C31B C17B C30B C25B 174.3(5)
C6B C17B C30B C25B -61.0(5)
O1C C1C C2C C3C -179.4
N1C C1C C2C C3C 2.9
O1C C1C C2C C17C 61.0
N1C C1C C2C C17C -116.7
O1C C1C C2C S1C -53.0
N1C C1C C2C S1C 129.3
C1C C2C C3C C4C -0.6
C17C C2C C3C C4C 116.7
S1C C2C C3C C4C -115.8
C1C C2C C3C C24C -117.2
C17C C2C C3C C24C 0.2
S1C C2C C3C C24C 127.7
C1C C2C C3C S2C 120.5
C17C C2C C3C S2C -122.1
S1C C2C C3C S2C 5.4
C2C C3C C4C O2C 176.0
C24C C3C C4C O2C -65.3
S2C C3C C4C O2C 44.8
C2C C3C C4C N1C -1.9
C24C C3C C4C N1C 116.8
S2C C3C C4C N1C -133.1
O3C C5C C6C C7C 177.3
N2C C5C C6C C7C 5.8
O3C C5C C6C S1C -17.4
N2C C5C C6C S1C 171.1
C5C C6C C7C C8C -9.6
S1C C6C C7C C8C -175.6
C5C C6C C7C S2C 175.3
S1C C6C C7C S2C 9.3
C6C C7C C8C O4C -174.6
S2C C7C C8C O4C 0.2
C6C C7C C8C N2C 10.2
S2C C7C C8C N2C -175.0
N1C C9C C10C C11C 150.5
C12C C9C C10C C11C 27.6
C9C C10C C11C C12C -26.7
N1C C9C C12C C11C -148.9
C10C C9C C12C C11C -26.5
C10C C11C C12C C9C 26.2
N2C C13C C14C C15C 143.9
C16C C13C C14C C15C 17.5
C13C C14C C15C C16C -17.8
C14C C15C C16C C13C 17.3
N2C C13C C16C C15C -146.9
C14C C13C C16C C15C -17.2
O2C C4C N1C C1C -174.0
C3C C4C N1C C1C 3.9
O2C C4C N1C C9C 10.4
C3C C4C N1C C9C -171.7
O1C C1C N1C C4C 178.1
C2C C1C N1C C4C -4.3
O1C C1C N1C C9C -6.4
C2C C1C N1C C9C 171.2
C10C C9C N1C C4C 118.2
C12C C9C N1C C4C -134.9
C10C C9C N1C C1C -56.8
C12C C9C N1C C1C 50.0
O4C C8C N2C C5C 177.6
C7C C8C N2C C5C -7.1
O4C C8C N2C C13C -1.9
C7C C8C N2C C13C 173.4
O3C C5C N2C C8C -170.6
C6C C5C N2C C8C 0.9
O3C C5C N2C C13C 8.9
C6C C5C N2C C13C -179.6
C14C C13C N2C C8C -50.2
C16C C13C N2C C8C 60.0
C14C C13C N2C C5C 130.4
C16C C13C N2C C5C -119.5
C7C C6C S1C C2C 34.3
C5C C6C S1C C2C -128.8
C3C C2C S1C C6C -39.7
C1C C2C S1C C6C -157.1
C17C C2C S1C C6C 89.2
C6C C7C S2C C3C -43.5
C8C C7C S2C C3C 142.7
C2C C3C S2C C7C 34.3
C4C C3C S2C C7C 155.9
C24C C3C S2C C7C -91.3
C3C C2C C17C C18C 57.3
C1C C2C C17C C18C 173.9
S1C C2C C17C C18C -76.2
C3C C2C C17C C30C -59.9
C1C C2C C17C C30C 56.7
S1C C2C C17C C30C 166.6
C3C C2C C17C C31C -178.4
C1C C2C C17C C31C -61.9
S1C C2C C17C C31C 48.1
C30C C17C C18C C23C 52.8
C31C C17C C18C C23C 174.7
C2C C17C C18C C23C -60.0
C30C C17C C18C C19C -129.7
C31C C17C C18C C19C -7.9
C2C C17C C18C C19C 117.5
C23C C18C C19C C20C -1.9
C17C C18C C19C C20C -179.1
C18C C19C C20C C21C 2.7
C19C C20C C21C C22C -0.7
C20C C21C C22C C23C -2.5
C21C C22C C23C C18C 3.2
C21C C22C C23C C24C 177.7
C19C C18C C23C C22C -1.1
C17C C18C C23C C22C 176.4
C19C C18C C23C C24C -176.2
C17C C18C C23C C24C 1.3
C22C C23C C24C C25C 133.9
C18C C23C C24C C25C -51.5
C22C C23C C24C C3C -119.0
C18C C23C C24C C3C 55.7
C2C C3C C24C C23C -55.2
C4C C3C C24C C23C -171.1
S2C C3C C24C C23C 77.5
C2C C3C C24C C25C 57.4
C4C C3C C24C C25C -58.5
S2C C3C C24C C25C -170.0
C23C C24C C25C C26C -134.6
C3C C24C C25C C26C 115.2
C23C C24C C25C C30C 49.7
C3C C24C C25C C30C -60.5
C30C C25C C26C C27C 5.2
C24C C25C C26C C27C -170.5
C25C C26C C27C C28C -3.8
C26C C27C C28C C29C -0.5
C27C C28C C29C C30C 2.7
C28C C29C C30C C25C -1.0
C28C C29C C30C C17C 169.5
C26C C25C C30C C29C -2.8
C24C C25C C30C C29C 173.6
C26C C25C C30C C17C -174.4
C24C C25C C30C C17C 2.0
C18C C17C C30C C29C 134.2
C31C C17C C30C C29C 10.6
C2C C17C C30C C29C -111.2
C18C C17C C30C C25C -54.4
C31C C17C C30C C25C -177.9
C2C C17C C30C C25C 60.3
