#------------------------------------------------------------------------------
#$Date: 2019-11-24 23:54:12 +0200 (Sun, 24 Nov 2019) $
#$Revision: 239740 $
#$URL: file:///home/coder/svn-repositories/cod/cif/4/51/71/4517113.cif $
#------------------------------------------------------------------------------
#
# This file is available in the Crystallography Open Database (COD),
# http://www.crystallography.net/
#
# All data on this site have been placed in the public domain by the
# contributors.
#
data_4517113
loop_
_publ_author_name
'Behrnd, Norwid-Rasmus'
'Labat, Ga\"el'
'Venugopalan, Paloth'
'Hulliger, J\"urg'
'B\"urgi, Hans-Beat'
_publ_section_title
;
 Orientational Disorder of (trans)-4-Chloro-4&#x2032;-nitrostilbene: A
 Detailed Analysis by Single Crystal X-ray Diffraction
;
_journal_issue                   1
_journal_name_full               'Crystal Growth &amp; Design'
_journal_page_first              52
_journal_paper_doi               10.1021/cg801278j
_journal_volume                  10
_journal_year                    2010
_chemical_formula_moiety         'C14 H10 Cl N O2'
_chemical_formula_sum            'C14 H10 Cl N O2'
_chemical_formula_weight         259.68
_space_group_IT_number           4
_space_group_name_Hall           'P 2ybc'
_space_group_name_H-M_alt        'P 1 21 1 (a,b,c-1/4)'
_symmetry_cell_setting           monoclinic
_symmetry_space_group_name_Hall  'P 2ybc'
_symmetry_space_group_name_H-M   'P 1 21 1 (a,b,c-1/4)'
_atom_sites_solution_hydrogens   geom
_atom_sites_solution_primary     direct
_atom_sites_solution_secondary   difmap
_audit_creation_method           SHELXL-97
_cell_angle_alpha                90.00
_cell_angle_beta                 93.260(2)
_cell_angle_gamma                90.00
_cell_formula_units_Z            2
_cell_length_a                   3.92040(11)
_cell_length_b                   12.9598(3)
_cell_length_c                   12.2004(3)
_cell_measurement_reflns_used    2807
_cell_measurement_temperature    293(2)
_cell_measurement_theta_max      31.8564
_cell_measurement_theta_min      4.7119
_cell_volume                     618.87(3)
_computing_cell_refinement       'SAINT (Bruker, 2003)'
_computing_data_collection       'SMART (Bruker, 1997)'
_computing_data_reduction        'SHELXTL (Bruker, 2000)'
_computing_molecular_graphics    'PLATON  (Spek, 2003)'
_computing_publication_material  SHELXL-97
_computing_structure_refinement  'SHELXL-97 (Sheldrick, 1997)'
_computing_structure_solution    'SHELXS-97 (Sheldrick, 1990)'
_diffrn_ambient_temperature      293(2)
_diffrn_detector_area_resol_mean 8.2896
_diffrn_measured_fraction_theta_full 0.992
_diffrn_measured_fraction_theta_max 0.992
_diffrn_measurement_device_type  'Kuma 6-circle'
_diffrn_measurement_method       'omega scan method'
_diffrn_radiation_monochromator  synchrotron
_diffrn_radiation_source         synchrotron
_diffrn_radiation_type           synchrotron
_diffrn_radiation_wavelength     0.7100
_diffrn_reflns_av_R_equivalents  0.0267
_diffrn_reflns_av_sigmaI/netI    0.0332
_diffrn_reflns_limit_h_max       4
_diffrn_reflns_limit_h_min       -4
_diffrn_reflns_limit_k_max       16
_diffrn_reflns_limit_k_min       -16
_diffrn_reflns_limit_l_max       15
_diffrn_reflns_limit_l_min       -15
_diffrn_reflns_number            7461
_diffrn_reflns_theta_full        26.40
_diffrn_reflns_theta_max         26.40
_diffrn_reflns_theta_min         4.59
_diffrn_standards_decay_%        0
_diffrn_standards_interval_time  0
_exptl_absorpt_coefficient_mu    0.300
_exptl_absorpt_correction_T_max  1
_exptl_absorpt_correction_T_min  0.912857
_exptl_absorpt_correction_type   multi-scan
_exptl_absorpt_process_details   'SADABS (Bruker, 2004)'
_exptl_crystal_colour            yellow
_exptl_crystal_density_diffrn    1.394
_exptl_crystal_density_method    'not measured'
_exptl_crystal_description       'prismatic rod'
_exptl_crystal_F_000             268
_exptl_crystal_size_max          0.137
_exptl_crystal_size_mid          0.125
_exptl_crystal_size_min          0.081
_refine_diff_density_max         0.116
_refine_diff_density_min         -0.119
_refine_diff_density_rms         0.025
_refine_ls_abs_structure_details 'Flack H D (1983), Acta Cryst. A39, 876-881'
_refine_ls_abs_structure_Flack   0.31(16)
_refine_ls_extinction_method     none
_refine_ls_goodness_of_fit_ref   0.938
_refine_ls_hydrogen_treatment    constr
_refine_ls_matrix_type           full
_refine_ls_number_parameters     101
_refine_ls_number_reflns         2478
_refine_ls_number_restraints     1
_refine_ls_restrained_S_all      0.938
_refine_ls_R_factor_all          0.0513
_refine_ls_R_factor_gt           0.0431
_refine_ls_shift/su_max          0.000
_refine_ls_shift/su_mean         0.000
_refine_ls_structure_factor_coef Fsqd
_refine_ls_weighting_details
'calc w=1/[\s^2^(Fo^2^)+(0.0553P)^2^+0.0664P] where P=(Fo^2^+2Fc^2^)/3'
_refine_ls_weighting_scheme      calc
_refine_ls_wR_factor_gt          0.1152
_refine_ls_wR_factor_ref         0.1224
_reflns_number_gt                2057
_reflns_number_total             2478
_reflns_threshold_expression     I>2sigma(I)
_cod_data_source_file            cg801278j_si_003.cif
_cod_data_source_block           CNS-Slice2-small-P21
_cod_original_sg_symbol_Hall     P2yb
_cod_original_sg_symbol_H-M      P21
_cod_database_code               4517113
loop_
_symmetry_equiv_pos_as_xyz
'x, y, z'
'-x, y+1/2, -z+1/2'
loop_
_atom_site_label
_atom_site_type_symbol
_atom_site_fract_x
_atom_site_fract_y
_atom_site_fract_z
_atom_site_U_iso_or_equiv
_atom_site_adp_type
_atom_site_occupancy
_atom_site_symmetry_multiplicity
_atom_site_calc_flag
_atom_site_refinement_flags
Cl1 Cl 0.3682(8) -0.46128(18) -0.1747(3) 0.1126(5) Uani 0.4438(15) 1 d P
N11 N 0.3662(14) -0.4163(4) -0.1716(4) 0.0832(8) Uani 0.5562(15) 1 d P
O11 O 0.3083(13) -0.4988(3) -0.1247(4) 0.1330(11) Uani 0.5562(15) 1 d P
O12 O 0.5033(9) -0.4136(2) -0.2570(3) 0.1152(6) Uani 0.5562(15) 1 d P
C1 C 0.2607(5) -0.32974(16) -0.12292(16) 0.0762(3) Uani 1 1 d .
C2 C 0.3154(4) -0.23912(17) -0.17906(14) 0.0806(3) Uani 1 1 d .
H2A H 0.4136 -0.2405 -0.2467 0.097 Uiso 1 1 calc R
C3 C 0.2236(3) -0.14773(8) -0.13408(8) 0.0775(3) Uani 1 1 d .
H3A H 0.2588 -0.0867 -0.1720 0.093 Uiso 1 1 calc R
C4 C 0.0782(2) -0.14358(7) -0.03255(7) 0.0676(3) Uani 1 1 d .
C5 C 0.0274(2) -0.23623(8) 0.02115(8) 0.0742(3) Uani 1 1 d .
H5A H -0.0715 -0.2352 0.0886 0.089 Uiso 1 1 calc R
C6 C 0.1183(3) -0.32935(8) -0.02214(9) 0.0782(3) Uani 1 1 d .
H6A H 0.0846 -0.3906 0.0155 0.094 Uiso 1 1 calc R
C7 C -0.02478(16) -0.04679(5) 0.01864(6) 0.0725(3) Uani 1 1 d .
H7 H -0.1358 -0.0523 0.0838 0.087 Uiso 1 1 calc R
Cl11 Cl -0.36957(16) 0.46034(5) 0.17528(6) 0.1126(5) Uani 0.5562(15) 1 d PR
N1 N -0.36340(16) 0.41602(5) 0.17167(6) 0.0832(8) Uani 0.4438(15) 1 d PR
O1 O -0.31476(16) 0.49789(5) 0.12370(6) 0.1330(11) Uani 0.4438(15) 1 d PR
O2 O -0.50545(16) 0.41223(5) 0.25761(6) 0.1152(6) Uani 0.4438(15) 1 d PR
C11 C -0.26193(16) 0.32946(5) 0.12275(6) 0.0762(3) Uani 1 1 d R
C12 C -0.31675(16) 0.23955(5) 0.17896(6) 0.0806(3) Uani 1 1 d R
H12A H -0.4156 0.2411 0.2464 0.097 Uiso 1 1 calc R
C13 C -0.2236(3) 0.14773(8) 0.13408(8) 0.0775(3) Uani 1 1 d .
H13A H -0.2581 0.0868 0.1721 0.093 Uiso 1 1 calc R
C14 C -0.0782(2) 0.14358(7) 0.03255(7) 0.0676(3) Uani 1 1 d .
C15 C -0.0274(2) 0.23623(8) -0.02115(8) 0.0742(3) Uani 1 1 d .
H15A H 0.0715 0.2352 -0.0886 0.089 Uiso 1 1 calc R
C16 C -0.1183(3) 0.32935(8) 0.02214(9) 0.0782(3) Uani 1 1 d .
H16A H -0.0839 0.3906 -0.0153 0.094 Uiso 1 1 calc R
C17 C 0.02478(16) 0.04679(5) -0.01864(6) 0.0725(3) Uani 1 1 d .
H17 H 0.1358 0.0523 -0.0838 0.087 Uiso 1 1 calc R
loop_
_atom_site_aniso_label
_atom_site_aniso_U_11
_atom_site_aniso_U_22
_atom_site_aniso_U_33
_atom_site_aniso_U_23
_atom_site_aniso_U_13
_atom_site_aniso_U_12
Cl1 0.1112(6) 0.0921(8) 0.1344(9) -0.0444(8) 0.0073(6) 0.0205(7)
N11 0.0810(13) 0.0717(17) 0.0962(18) -0.0062(14) -0.0018(12) 0.0046(14)
O11 0.171(2) 0.0771(14) 0.155(2) 0.0078(13) 0.0453(16) 0.0147(13)
O12 0.1516(17) 0.0927(11) 0.1049(12) -0.0249(10) 0.0386(12) 0.0177(10)
C1 0.0618(5) 0.0886(7) 0.0776(6) -0.0150(5) 0.0002(4) 0.0061(4)
C2 0.0703(6) 0.1060(8) 0.0665(6) -0.0046(5) 0.0121(5) -0.0007(5)
C3 0.0730(6) 0.0857(7) 0.0745(6) 0.0065(5) 0.0091(4) -0.0036(5)
C4 0.0557(5) 0.0789(6) 0.0681(5) -0.0026(4) 0.0025(4) -0.0011(4)
C5 0.0713(6) 0.0851(6) 0.0669(5) 0.0009(4) 0.0114(4) 0.0007(5)
C6 0.0765(6) 0.0790(6) 0.0794(6) 0.0024(5) 0.0060(5) 0.0015(5)
C7 0.0641(5) 0.0840(6) 0.0700(6) 0.0009(4) 0.0085(4) -0.0025(4)
Cl11 0.1112(6) 0.0921(8) 0.1344(9) -0.0444(8) 0.0073(6) 0.0205(7)
N1 0.0810(13) 0.0717(17) 0.0962(18) -0.0062(14) -0.0018(12) 0.0046(14)
O1 0.171(2) 0.0771(14) 0.155(2) 0.0078(13) 0.0453(16) 0.0147(13)
O2 0.1516(17) 0.0927(11) 0.1049(12) -0.0249(10) 0.0386(12) 0.0177(10)
C11 0.0618(5) 0.0886(7) 0.0776(6) -0.0150(5) 0.0002(4) 0.0061(4)
C12 0.0703(6) 0.1060(8) 0.0665(6) -0.0046(5) 0.0121(5) -0.0007(5)
C13 0.0730(6) 0.0857(7) 0.0745(6) 0.0065(5) 0.0091(4) -0.0036(5)
C14 0.0557(5) 0.0789(6) 0.0681(5) -0.0026(4) 0.0025(4) -0.0011(4)
C15 0.0713(6) 0.0851(6) 0.0669(5) 0.0009(4) 0.0114(4) 0.0007(5)
C16 0.0765(6) 0.0790(6) 0.0794(6) 0.0024(5) 0.0060(5) 0.0015(5)
C17 0.0641(5) 0.0840(6) 0.0700(6) 0.0009(4) 0.0085(4) -0.0025(4)
loop_
_atom_type_symbol
_atom_type_description
_atom_type_scat_dispersion_real
_atom_type_scat_dispersion_imag
_atom_type_scat_source
C C 0.0033 0.0016 'International Tables Vol C Tables 4.2.6.8 and 6.1.1.4'
H H 0.0000 0.0000 'International Tables Vol C Tables 4.2.6.8 and 6.1.1.4'
N N 0.0061 0.0033 'International Tables Vol C Tables 4.2.6.8 and 6.1.1.4'
O O 0.0106 0.0060 'International Tables Vol C Tables 4.2.6.8 and 6.1.1.4'
Cl Cl 0.1484 0.1585 'International Tables Vol C Tables 4.2.6.8 and 6.1.1.4'
loop_
_geom_angle_atom_site_label_1
_geom_angle_atom_site_label_2
_geom_angle_atom_site_label_3
_geom_angle
N11 Cl1 O11 122.2(10)
N11 Cl1 O12 65.8(8)
O11 Cl1 O12 170.2(5)
N11 Cl1 C1 21.0(7)
O11 Cl1 C1 102.0(4)
O12 Cl1 C1 86.4(2)
Cl1 N11 O12 87.9(8)
Cl1 N11 O11 34.3(7)
O12 N11 O11 121.9(5)
Cl1 N11 C1 150.1(10)
O12 N11 C1 121.5(5)
O11 N11 C1 116.5(4)
Cl1 O11 N11 23.5(3)
N11 O12 Cl1 26.3(2)
N11 C1 C2 115.5(3)
N11 C1 C6 123.1(3)
C2 C1 C6 121.38(16)
N11 C1 Cl1 8.9(3)
C2 C1 Cl1 124.15(17)
C6 C1 Cl1 114.47(18)
C3 C2 C1 119.15(15)
C3 C2 H2A 120.4
C1 C2 H2A 120.4
C2 C3 C4 121.49(12)
C2 C3 H3A 119.3
C4 C3 H3A 119.3
C5 C4 C3 117.59(9)
C5 C4 C7 119.22(8)
C3 C4 C7 123.18(9)
C6 C5 C4 122.13(9)
C6 C5 H5A 118.9
C4 C5 H5A 118.9
C5 C6 C1 118.26(13)
C5 C6 H6A 120.9
C1 C6 H6A 120.9
C17 C7 C4 126.29(9)
C17 C7 H7 116.9
C4 C7 H7 116.9
N1 Cl11 O1 120.7
N1 Cl11 O2 66.9
O1 Cl11 O2 169.4
N1 Cl11 C11 19.8
O1 Cl11 C11 101.4
O2 Cl11 C11 86.6
Cl11 N1 O2 87.2
Cl11 N1 O1 35.6
O2 N1 O1 122.4
Cl11 N1 C11 151.8
O2 N1 C11 120.8
O1 N1 C11 116.8
Cl11 O1 N1 23.7
N1 O2 Cl11 25.9
N1 C11 C12 115.3
N1 C11 C16 122.9
C12 C11 C16 121.8
N1 C11 Cl11 8.4
C12 C11 Cl11 123.6
C16 C11 Cl11 114.7
C13 C12 C11 118.99(5)
C13 C12 H12A 120.5
C11 C12 H12A 120.5
C12 C13 C14 121.41(9)
C12 C13 H13A 119.3
C14 C13 H13A 119.3
C15 C14 C13 117.59(9)
C15 C14 C17 119.22(8)
C13 C14 C17 123.18(9)
C16 C15 C14 122.13(9)
C16 C15 H15A 118.9
C14 C15 H15A 118.9
C15 C16 C11 118.13(8)
C15 C16 H16A 120.9
C11 C16 H16A 120.9
C7 C17 C14 126.29(9)
C7 C17 H17 116.9
C14 C17 H17 116.9
loop_
_geom_bond_atom_site_label_1
_geom_bond_atom_site_label_2
_geom_bond_distance
Cl1 N11 0.584(4)
Cl1 O11 0.825(4)
Cl1 O12 1.315(4)
Cl1 C1 1.874(3)
N11 O12 1.200(6)
N11 O11 1.239(7)
N11 C1 1.345(5)
C1 C2 1.382(3)
C1 C6 1.379(2)
C2 C3 1.362(2)
C2 H2A 0.9300
C3 C4 1.3938(14)
C3 H3A 0.9300
C4 C5 1.3877(13)
C4 C7 1.4681(12)
C5 C6 1.3724(13)
C5 H5A 0.9300
C6 H6A 0.9300
C7 C17 1.3135(13)
C7 H7 0.9300
Cl11 N1 0.5767
Cl11 O1 0.8333
Cl11 O2 1.3199
Cl11 C11 1.8699
N1 O2 1.2158
N1 O1 1.2318
N1 C11 1.3417
C11 C12 1.3751
C11 C16 1.3794(12)
C12 C13 1.3682(12)
C12 H12A 0.9300
C13 C14 1.3938(14)
C13 H13A 0.9300
C14 C15 1.3877(13)
C14 C17 1.4681(12)
C15 C16 1.3724(13)
C15 H15A 0.9300
C16 H16A 0.9300
C17 H17 0.9300
loop_
_geom_torsion_atom_site_label_1
_geom_torsion_atom_site_label_2
_geom_torsion_atom_site_label_3
_geom_torsion_atom_site_label_4
_geom_torsion
O11 Cl1 N11 O12 173.6(7)
C1 Cl1 N11 O12 -170(2)
O12 Cl1 N11 O11 -173.6(7)
C1 Cl1 N11 O11 16(3)
O11 Cl1 N11 C1 -16(3)
O12 Cl1 N11 C1 170(2)
O12 Cl1 O11 N11 143(4)
C1 Cl1 O11 N11 -5.8(9)
O12 N11 O11 Cl1 -7.5(9)
C1 N11 O11 Cl1 171.1(14)
O11 N11 O12 Cl1 4.2(5)
C1 N11 O12 Cl1 -174.3(12)
O11 Cl1 O12 N11 -146(3)
C1 Cl1 O12 N11 3.5(7)
Cl1 N11 C1 C2 -167.3(19)
O12 N11 C1 C2 1.2(6)
O11 N11 C1 C2 -177.4(4)
Cl1 N11 C1 C6 15(2)
O12 N11 C1 C6 -176.6(4)
O11 N11 C1 C6 4.8(7)
O12 N11 C1 Cl1 169(2)
O11 N11 C1 Cl1 -10.1(16)
O11 Cl1 C1 N11 166(2)
O12 Cl1 C1 N11 -8.9(19)
N11 Cl1 C1 C2 14(2)
O11 Cl1 C1 C2 179.9(5)
O12 Cl1 C1 C2 4.9(3)
N11 Cl1 C1 C6 -166(2)
O11 Cl1 C1 C6 -0.3(5)
O12 Cl1 C1 C6 -175.2(2)
N11 C1 C2 C3 -178.4(3)
C6 C1 C2 C3 -0.6(3)
Cl1 C1 C2 C3 179.24(16)
C1 C2 C3 C4 0.4(2)
C2 C3 C4 C5 -0.47(17)
C2 C3 C4 C7 -179.89(12)
C3 C4 C5 C6 0.64(15)
C7 C4 C5 C6 -179.91(8)
C4 C5 C6 C1 -0.78(17)
N11 C1 C6 C5 178.4(3)
C2 C1 C6 C5 0.7(2)
Cl1 C1 C6 C5 -179.10(13)
C5 C4 C7 C17 175.71(9)
C3 C4 C7 C17 -4.88(15)
O1 Cl11 N1 O2 -171.8
C11 Cl11 N1 O2 173.8
O2 Cl11 N1 O1 171.8
C11 Cl11 N1 O1 -14.4
O1 Cl11 N1 C11 14.4
O2 Cl11 N1 C11 -173.8
O2 Cl11 O1 N1 -134.2
C11 Cl11 O1 N1 4.9
O2 N1 O1 Cl11 9.7
C11 N1 O1 Cl11 -172.4
O1 N1 O2 Cl11 -5.6
C11 N1 O2 Cl11 176.6
O1 Cl11 O2 N1 137.9
C11 Cl11 O2 N1 -2.1
Cl11 N1 C11 C12 170.0
O2 N1 C11 C12 -2.8
O1 N1 C11 C12 179.4
Cl11 N1 C11 C16 -11.14(6)
O2 N1 C11 C16 176.05(6)
O1 N1 C11 C16 -1.82(6)
O2 N1 C11 Cl11 -172.8
O1 N1 C11 Cl11 9.3
O1 Cl11 C11 N1 -167.4
O2 Cl11 C11 N1 5.7
N1 Cl11 C11 C12 -10.8
O1 Cl11 C11 C12 -178.2
O2 Cl11 C11 C12 -5.1
N1 Cl11 C11 C16 169.72(6)
O1 Cl11 C11 C16 2.31(6)
O2 Cl11 C11 C16 175.41(6)
N1 C11 C12 C13 179.34(6)
C16 C11 C12 C13 0.51(8)
Cl11 C11 C12 C13 -178.93(6)
C11 C12 C13 C14 -0.64(11)
C12 C13 C14 C15 0.70(14)
C12 C13 C14 C17 -179.88(6)
C13 C14 C15 C16 -0.64(15)
C17 C14 C15 C16 179.91(8)
C14 C15 C16 C11 0.53(14)
N1 C11 C16 C15 -179.19(6)
C12 C11 C16 C15 -0.45(11)
Cl11 C11 C16 C15 179.03(7)
C4 C7 C17 C14 180.0
C15 C14 C17 C7 -175.71(9)
C13 C14 C17 C7 4.88(15)
