#------------------------------------------------------------------------------
#$Date: 2020-02-29 00:32:55 +0200 (Sat, 29 Feb 2020) $
#$Revision: 248528 $
#$URL: file:///home/coder/svn-repositories/cod/cif/4/51/74/4517452.cif $
#------------------------------------------------------------------------------
#
# This file is available in the Crystallography Open Database (COD),
# http://www.crystallography.net/
#
# All data on this site have been placed in the public domain by the
# contributors.
#
data_4517452
loop_
_publ_author_name
'Barber, Greg D.'
'George, Christy'
'Hogg, Kathryn'
'Johnstone, Shae T.'
'Pacheco, Carlos N.'
'Yennawar, Hemant P.'
'Van Der Sluys, William G.'
_publ_section_title
;
 Hydrothermal Synthesis and Structure of a Dinuclear Molybdenum(III)
 Hydroxy Squarate with a Mo--Mo Bond
;
_journal_name_full               'ACS Omega'
_journal_paper_doi               10.1021/acsomega.0c00083
_journal_year                    2020
_chemical_formula_moiety         'C4 H3 Cr O7, H2 O'
_chemical_formula_sum            'C4 H5 Cr O8'
_chemical_formula_weight         233.08
_space_group_crystal_system      triclinic
_space_group_IT_number           2
_space_group_name_Hall           '-P 1'
_space_group_name_H-M_alt        'P -1'
_atom_sites_solution_hydrogens   geom
_atom_sites_solution_primary     direct
_atom_sites_solution_secondary   difmap
_audit_creation_date             2020-02-07
_audit_creation_method
;
Olex2 1.2
(compiled 2018.05.29 svn.r3508 for OlexSys, GUI svn.r5506)
;
_cell_angle_alpha                106.303(9)
_cell_angle_beta                 95.252(10)
_cell_angle_gamma                113.775(10)
_cell_formula_units_Z            2
_cell_length_a                   7.489(4)
_cell_length_b                   7.545(4)
_cell_length_c                   8.142(4)
_cell_measurement_reflns_used    1941
_cell_measurement_temperature    298(2)
_cell_measurement_theta_max      28.084
_cell_measurement_theta_min      2.679
_cell_volume                     393.0(4)
_computing_cell_refinement       'SAINT V6.36A (BRUKER, 2001)'
_computing_data_collection       'SMART V5.634 (Bruker Inc., 2001)'
_computing_data_reduction        'SAINT V6.36A (BRUKER, 2001)'
_computing_molecular_graphics    'Olex2 (Dolomanov et al., 2009)'
_computing_publication_material  'Olex2 (Dolomanov et al., 2009)'
_computing_structure_refinement  'XH (Sheldrick, 2008)'
_computing_structure_solution    'XS (Sheldrick, 2008)'
_diffrn_ambient_temperature      298(2)
_diffrn_detector_area_resol_mean 8.34
_diffrn_measured_fraction_theta_full 0.988
_diffrn_measured_fraction_theta_max 0.933
_diffrn_measurement_device_type  'CCD area detector'
_diffrn_measurement_method       'phi and omega scans'
_diffrn_radiation_monochromator  Parallel,graphite
_diffrn_radiation_type           MoK\a
_diffrn_radiation_wavelength     0.71073
_diffrn_reflns_av_R_equivalents  0.0592
_diffrn_reflns_av_unetI/netI     0.0473
_diffrn_reflns_limit_h_max       9
_diffrn_reflns_limit_h_min       -9
_diffrn_reflns_limit_k_max       9
_diffrn_reflns_limit_k_min       -10
_diffrn_reflns_limit_l_max       10
_diffrn_reflns_limit_l_min       -10
_diffrn_reflns_number            3648
_diffrn_reflns_theta_full        25.00
_diffrn_reflns_theta_max         28.39
_diffrn_reflns_theta_min         2.68
_diffrn_source                   'fine-focus sealed tube'
_diffrn_source_current           32.0
_diffrn_source_power             1.6
_diffrn_source_voltage           50.0
_exptl_absorpt_coefficient_mu    1.470
_exptl_absorpt_correction_T_max  0.9
_exptl_absorpt_correction_T_min  0.079947
_exptl_absorpt_correction_type   multi-scan
_exptl_absorpt_process_details
'SAD V2.05 (BRUKER, 2001) was used for absorption correction. R(int) was 0.0497 before and 0.0151 after correction. The Ratio of minimum to maximum transmission is 0.0799. The \l/2 correction factor is 0.0015.'
_exptl_crystal_colour            purple
_exptl_crystal_density_diffrn    1.970
_exptl_crystal_density_method    'not measured'
_exptl_crystal_description       plate
_exptl_crystal_F_000             234
_exptl_crystal_size_max          0.29
_exptl_crystal_size_mid          0.13
_exptl_crystal_size_min          0.04
_refine_diff_density_max         0.783
_refine_diff_density_min         -0.799
_refine_diff_density_rms         0.127
_refine_ls_extinction_method     none
_refine_ls_goodness_of_fit_ref   1.087
_refine_ls_hydrogen_treatment    mixed
_refine_ls_matrix_type           full
_refine_ls_number_parameters     127
_refine_ls_number_reflns         1828
_refine_ls_number_restraints     0
_refine_ls_restrained_S_all      1.087
_refine_ls_R_factor_all          0.0489
_refine_ls_R_factor_gt           0.0463
_refine_ls_shift/su_max          0.000
_refine_ls_shift/su_mean         0.000
_refine_ls_structure_factor_coef Fsqd
_refine_ls_weighting_details
'calc w=1/[\s^2^(Fo^2^)+(0.0716P)^2^+0.6740P] where P=(Fo^2^+2Fc^2^)/3'
_refine_ls_weighting_scheme      calc
_refine_ls_wR_factor_gt          0.1281
_refine_ls_wR_factor_ref         0.1316
_reflns_number_gt                1706
_reflns_number_total             1828
_reflns_threshold_expression     >2sigma(I)
_cod_data_source_file            ao0c00083_si_002.cif
_cod_data_source_block           wgv4s
_cod_database_code               4517452
_olex2_refinement_description
;
1. Fixed Uiso
 At 1.5 times of:
  All O(H) groups, All O(H,H) groups
2.a Free rotating group:
 O8(H8A,H8B)
2.b Rotating group:
 O2(H2), O3(H3)
;
_olex2_submission_special_instructions 'No special instructions were received'
loop_
_space_group_symop_id
_space_group_symop_operation_xyz
1 'x, y, z'
2 '-x, -y, -z'
loop_
_atom_site_label
_atom_site_type_symbol
_atom_site_fract_x
_atom_site_fract_y
_atom_site_fract_z
_atom_site_U_iso_or_equiv
_atom_site_adp_type
_atom_site_occupancy
_atom_site_calc_flag
_atom_site_disorder_assembly
_atom_site_disorder_group
_atom_site_refinement_flags_posn
Cr1 Cr 0.31345(6) 0.80576(6) -0.10419(5) 0.01658(18) Uani 1 d . . .
O1 O 0.1816(3) 0.8035(3) 0.0931(3) 0.0222(4) Uani 1 d . . .
O2 O 0.2367(4) 0.5088(3) -0.1483(3) 0.0257(5) Uani 1 d . . .
H2 H 0.2143 0.4803 -0.0541 0.039 Uiso 1 d . . GR
O3 O 0.0555(3) 0.7432(4) -0.2501(3) 0.0321(6) Uani 1 d . . .
H3 H 0.0742 0.8035 -0.3287 0.048 Uiso 1 d . . GR
O4 O 0.5799(3) 0.8936(3) 0.0418(3) 0.0186(4) Uani 1 d . . .
O5 O 0.5896(3) 1.2305(3) 0.3232(3) 0.0214(4) Uani 1 d . . .
O6 O 0.4194(3) 1.2254(3) 0.6701(3) 0.0237(5) Uani 1 d . . .
O7 O 0.0236(3) 0.7932(3) 0.4388(3) 0.0242(5) Uani 1 d . . .
C1 C 0.4266(4) 1.1149(4) 0.3514(3) 0.0178(5) Uani 1 d . . .
C2 C 0.2491(4) 0.9269(4) 0.2506(3) 0.0189(5) Uani 1 d . . .
C3 C 0.1725(4) 0.9194(4) 0.4082(4) 0.0191(5) Uani 1 d . . .
C4 C 0.3532(4) 1.1157(4) 0.5132(4) 0.0186(5) Uani 1 d . . .
O8 O 0.2780(3) 0.3864(4) 0.1391(3) 0.0290(5) Uani 1 d . . .
H8A H 0.3394 0.3132 0.1107 0.044 Uiso 1 d . . G
H8B H 0.3701 0.5062 0.2003 0.044 Uiso 1 d . . G
H4 H 0.579(8) 0.859(8) 0.128(7) 0.045(13) Uiso 1 d . . .
loop_
_atom_site_aniso_label
_atom_site_aniso_U_11
_atom_site_aniso_U_22
_atom_site_aniso_U_33
_atom_site_aniso_U_23
_atom_site_aniso_U_13
_atom_site_aniso_U_12
Cr1 0.0141(3) 0.0175(3) 0.0103(3) 0.00397(18) 0.00238(17) 0.00039(18)
O1 0.0195(10) 0.0252(10) 0.0098(9) 0.0024(8) 0.0031(7) 0.0011(8)
O2 0.0310(12) 0.0185(10) 0.0166(10) 0.0048(8) 0.0048(8) 0.0016(9)
O3 0.0184(10) 0.0537(15) 0.0192(11) 0.0193(10) 0.0034(8) 0.0073(10)
O4 0.0170(9) 0.0193(9) 0.0141(9) 0.0060(8) 0.0021(7) 0.0032(8)
O5 0.0162(9) 0.0231(10) 0.0137(9) 0.0033(8) 0.0046(7) 0.0002(8)
O6 0.0262(11) 0.0228(10) 0.0118(9) 0.0025(8) 0.0030(8) 0.0038(8)
O7 0.0189(10) 0.0267(11) 0.0160(9) 0.0072(8) 0.0049(8) -0.0002(8)
C1 0.0176(12) 0.0220(13) 0.0120(11) 0.0063(10) 0.0037(9) 0.0068(10)
C2 0.0180(13) 0.0220(13) 0.0141(12) 0.0073(10) 0.0045(10) 0.0058(11)
C3 0.0180(13) 0.0198(13) 0.0154(12) 0.0052(10) 0.0039(10) 0.0053(10)
C4 0.0176(13) 0.0203(13) 0.0142(12) 0.0054(10) 0.0034(10) 0.0056(10)
O8 0.0208(11) 0.0295(12) 0.0303(12) 0.0092(10) 0.0054(9) 0.0061(9)
loop_
_atom_type_symbol
_atom_type_description
_atom_type_scat_dispersion_real
_atom_type_scat_dispersion_imag
_atom_type_scat_source
C C 0.0033 0.0016 'International Tables Vol C Tables 4.2.6.8 and 6.1.1.4'
H H 0.0000 0.0000 'International Tables Vol C Tables 4.2.6.8 and 6.1.1.4'
Cr Cr 0.3209 0.6236 'International Tables Vol C Tables 4.2.6.8 and 6.1.1.4'
O O 0.0106 0.0060 'International Tables Vol C Tables 4.2.6.8 and 6.1.1.4'
loop_
_geom_angle_atom_site_label_1
_geom_angle_atom_site_label_2
_geom_angle_atom_site_label_3
_geom_angle
_geom_angle_site_symmetry_1
_geom_angle_site_symmetry_3
_geom_angle_publ_flag
O1 Cr1 O2 87.15(9) . . ?
O1 Cr1 O3 87.20(10) . . ?
O1 Cr1 O4 92.90(9) . 2_675 ?
O1 Cr1 O4 94.05(10) . . ?
O1 Cr1 O5 171.50(8) . 2_675 ?
O3 Cr1 O2 92.64(11) . . ?
O3 Cr1 O5 86.99(10) . 2_675 ?
O4 Cr1 O2 172.95(9) 2_675 . ?
O4 Cr1 O2 92.35(9) . . ?
O4 Cr1 O3 94.41(11) 2_675 . ?
O4 Cr1 O3 174.91(9) . . ?
O4 Cr1 O4 80.61(10) 2_675 . ?
O4 Cr1 O5 93.73(9) 2_675 2_675 ?
O4 Cr1 O5 92.28(9) . 2_675 ?
O5 Cr1 O2 86.92(9) 2_675 . ?
C2 O1 Cr1 128.58(19) . . ?
Cr1 O2 H2 110.3 . . ?
Cr1 O3 H3 111.2 . . ?
Cr1 O4 Cr1 99.39(10) 2_675 . ?
Cr1 O4 H4 115(4) . . ?
Cr1 O4 H4 112(3) 2_675 . ?
C1 O5 Cr1 128.78(18) . 2_675 ?
O5 C1 C2 136.8(2) . . ?
O5 C1 C4 132.4(2) . . ?
C2 C1 C4 90.7(2) . . ?
O1 C2 C1 137.2(3) . . ?
O1 C2 C3 131.5(3) . . ?
C1 C2 C3 91.2(2) . . ?
O7 C3 C2 134.0(3) . . ?
O7 C3 C4 136.5(3) . . ?
C2 C3 C4 89.4(2) . . ?
O6 C4 C1 135.4(3) . . ?
O6 C4 C3 135.7(3) . . ?
C1 C4 C3 88.8(2) . . ?
H8A O8 H8B 104.5 . . ?
loop_
_geom_bond_atom_site_label_1
_geom_bond_atom_site_label_2
_geom_bond_distance
_geom_bond_site_symmetry_2
_geom_bond_publ_flag
Cr1 O1 1.962(2) . ?
Cr1 O2 1.988(2) . ?
Cr1 O3 1.974(2) . ?
Cr1 O4 1.964(2) 2_675 ?
Cr1 O4 1.973(2) . ?
Cr1 O5 1.976(2) 2_675 ?
O1 C2 1.264(3) . ?
O2 H2 0.8658 . ?
O3 H3 0.8747 . ?
O4 Cr1 1.964(2) 2_675 ?
O4 H4 0.82(5) . ?
O5 Cr1 1.976(2) 2_675 ?
O5 C1 1.268(3) . ?
O6 C4 1.234(3) . ?
O7 C3 1.242(4) . ?
C1 C2 1.441(4) . ?
C1 C4 1.473(4) . ?
C2 C3 1.459(4) . ?
C3 C4 1.489(4) . ?
O8 H8A 0.8500 . ?
O8 H8B 0.8499 . ?
loop_
_geom_hbond_atom_site_label_D
_geom_hbond_atom_site_label_H
_geom_hbond_atom_site_label_A
_geom_hbond_distance_DH
_geom_hbond_distance_HA
_geom_hbond_distance_DA
_geom_hbond_angle_DHA
_geom_hbond_site_symmetry_A
O2 H2 O8 0.87 1.99 2.781(3) 151.2 .
O3 H3 O7 0.87 1.87 2.667(3) 150.7 1_554
O8 H8A O4 0.85 2.04 2.849(3) 159.5 2_665
O8 H8B O6 0.85 1.90 2.752(3) 177.9 2_676
loop_
_geom_torsion_atom_site_label_1
_geom_torsion_atom_site_label_2
_geom_torsion_atom_site_label_3
_geom_torsion_atom_site_label_4
_geom_torsion
_geom_torsion_site_symmetry_1
_geom_torsion_site_symmetry_2
_geom_torsion_site_symmetry_3
_geom_torsion_site_symmetry_4
_geom_torsion_publ_flag
Cr1 O1 C2 C1 4.7(5) . . . . ?
Cr1 O1 C2 C3 -170.4(2) . . . . ?
Cr1 O5 C1 C2 -2.4(5) 2_675 . . . ?
Cr1 O5 C1 C4 171.4(2) 2_675 . . . ?
O1 Cr1 O4 Cr1 -92.27(10) . . . 2_675 ?
O1 C2 C3 O7 1.2(6) . . . . ?
O1 C2 C3 C4 177.7(3) . . . . ?
O2 Cr1 O1 C2 129.9(3) . . . . ?
O2 Cr1 O4 Cr1 -179.58(9) . . . 2_675 ?
O3 Cr1 O1 C2 -137.3(3) . . . . ?
O3 Cr1 O4 Cr1 11.9(10) . . . 2_675 ?
O4 Cr1 O1 C2 -43.0(3) 2_675 . . . ?
O4 Cr1 O1 C2 37.8(3) . . . . ?
O4 Cr1 O4 Cr1 0.0 2_675 . . 2_675 ?
O5 Cr1 O1 C2 175.8(5) 2_675 . . . ?
O5 Cr1 O4 Cr1 93.41(10) 2_675 . . 2_675 ?
O5 C1 C2 O1 -1.9(6) . . . . ?
O5 C1 C2 C3 174.4(4) . . . . ?
O5 C1 C4 O6 1.4(6) . . . . ?
O5 C1 C4 C3 -174.7(3) . . . . ?
O7 C3 C4 O6 -0.8(6) . . . . ?
O7 C3 C4 C1 175.3(4) . . . . ?
C1 C2 C3 O7 -175.4(3) . . . . ?
C1 C2 C3 C4 1.0(2) . . . . ?
C2 C1 C4 O6 177.2(4) . . . . ?
C2 C1 C4 C3 1.0(2) . . . . ?
C2 C3 C4 O6 -177.1(4) . . . . ?
C2 C3 C4 C1 -1.0(2) . . . . ?
C4 C1 C2 O1 -177.3(4) . . . . ?
C4 C1 C2 C3 -1.0(2) . . . . ?
