#------------------------------------------------------------------------------
#$Date: 2019-11-24 23:54:12 +0200 (Sun, 24 Nov 2019) $
#$Revision: 239740 $
#$URL: file:///home/coder/svn-repositories/cod/cif/4/51/71/4517115.cif $
#------------------------------------------------------------------------------
#
# This file is available in the Crystallography Open Database (COD),
# http://www.crystallography.net/
#
# All data on this site have been placed in the public domain by the
# contributors.
#
data_4517115
loop_
_publ_author_name
'Behrnd, Norwid-Rasmus'
'Labat, Ga\"el'
'Venugopalan, Paloth'
'Hulliger, J\"urg'
'B\"urgi, Hans-Beat'
_publ_section_title
;
 Orientational Disorder of (trans)-4-Chloro-4&#x2032;-nitrostilbene: A
 Detailed Analysis by Single Crystal X-ray Diffraction
;
_journal_issue                   1
_journal_name_full               'Crystal Growth &amp; Design'
_journal_page_first              52
_journal_paper_doi               10.1021/cg801278j
_journal_volume                  10
_journal_year                    2010
_chemical_formula_moiety         'C14 H10 Cl N O2'
_chemical_formula_sum            'C14 H10 Cl N O2'
_chemical_formula_weight         259.68
_space_group_IT_number           4
_space_group_name_Hall           'P 2ybc'
_space_group_name_H-M_alt        'P 1 21 1 (a,b,c-1/4)'
_symmetry_cell_setting           monoclinic
_symmetry_space_group_name_Hall  'P 2ybc'
_symmetry_space_group_name_H-M   'P 1 21 1 (a,b,c-1/4)'
_atom_sites_solution_hydrogens   geom
_atom_sites_solution_primary     direct
_atom_sites_solution_secondary   difmap
_audit_creation_method           SHELXL-97
_cell_angle_alpha                90.00
_cell_angle_beta                 93.2666(12)
_cell_angle_gamma                90.00
_cell_formula_units_Z            2
_cell_length_a                   3.92123(5)
_cell_length_b                   12.96261(16)
_cell_length_c                   12.20574(17)
_cell_measurement_reflns_used    3606
_cell_measurement_temperature    293(2)
_cell_measurement_theta_max      31.9689
_cell_measurement_theta_min      4.7119
_cell_volume                     619.402(14)
_computing_cell_refinement       'SAINT (Bruker, 2003)'
_computing_data_collection       'SMART (Bruker, 1997)'
_computing_data_reduction        'SHELXTL (Bruker, 2000)'
_computing_molecular_graphics    'PLATON  (Spek, 2003)'
_computing_publication_material  SHELXL-97
_computing_structure_refinement  'SHELXL-97 (Sheldrick, 1997)'
_computing_structure_solution    'SHELXS-97 (Sheldrick, 1990)'
_diffrn_ambient_temperature      293(2)
_diffrn_detector_area_resol_mean 8.2896
_diffrn_measured_fraction_theta_full 0.992
_diffrn_measured_fraction_theta_max 0.992
_diffrn_measurement_device_type  'Kuma 6-circle'
_diffrn_measurement_method       'omega scan method'
_diffrn_radiation_monochromator  synchrotron
_diffrn_radiation_source         synchrotron
_diffrn_radiation_type           synchrotron
_diffrn_radiation_wavelength     0.71000
_diffrn_reflns_av_R_equivalents  0.0322
_diffrn_reflns_av_sigmaI/netI    0.0325
_diffrn_reflns_limit_h_max       4
_diffrn_reflns_limit_h_min       -4
_diffrn_reflns_limit_k_max       15
_diffrn_reflns_limit_k_min       -16
_diffrn_reflns_limit_l_max       13
_diffrn_reflns_limit_l_min       -15
_diffrn_reflns_number            7983
_diffrn_reflns_theta_full        26.38
_diffrn_reflns_theta_max         26.38
_diffrn_reflns_theta_min         3.56
_diffrn_standards_decay_%        0
_diffrn_standards_interval_time  0
_exptl_absorpt_coefficient_mu    0.300
_exptl_absorpt_correction_T_max  1
_exptl_absorpt_correction_T_min  0.887445
_exptl_absorpt_correction_type   multi-scan
_exptl_absorpt_process_details   'SADABS (Bruker, 2004)'
_exptl_crystal_colour            yellow
_exptl_crystal_density_diffrn    1.392
_exptl_crystal_density_method    'not measured'
_exptl_crystal_description       'prismatic rod'
_exptl_crystal_F_000             268
_exptl_crystal_size_max          0.188
_exptl_crystal_size_mid          0.156
_exptl_crystal_size_min          0.109
_refine_diff_density_max         0.196
_refine_diff_density_min         -0.145
_refine_diff_density_rms         0.027
_refine_ls_abs_structure_details 'Flack H D (1983), Acta Cryst. A39, 876-881'
_refine_ls_abs_structure_Flack   0.5(4)
_refine_ls_extinction_method     none
_refine_ls_goodness_of_fit_ref   1.246
_refine_ls_hydrogen_treatment    constr
_refine_ls_matrix_type           full
_refine_ls_number_parameters     101
_refine_ls_number_reflns         2497
_refine_ls_number_restraints     1
_refine_ls_restrained_S_all      1.246
_refine_ls_R_factor_all          0.0552
_refine_ls_R_factor_gt           0.0483
_refine_ls_shift/su_max          0.000
_refine_ls_shift/su_mean         0.000
_refine_ls_structure_factor_coef Fsqd
_refine_ls_weighting_details
'calc w=1/[\s^2^(Fo^2^)+(0.0542P)^2^+0.0707P] where P=(Fo^2^+2Fc^2^)/3'
_refine_ls_weighting_scheme      calc
_refine_ls_wR_factor_gt          0.1527
_refine_ls_wR_factor_ref         0.1580
_reflns_number_gt                2097
_reflns_number_total             2497
_reflns_threshold_expression     I>2sigma(I)
_cod_data_source_file            cg801278j_si_003.cif
_cod_data_source_block           CNS-Slice3-small-P21/c
_cod_original_sg_symbol_Hall     P2ybc
_cod_original_sg_symbol_H-M      P21/c
_cod_database_code               4517115
loop_
_symmetry_equiv_pos_as_xyz
'x, y, z'
'-x, y+1/2, -z+1/2'
loop_
_atom_site_label
_atom_site_type_symbol
_atom_site_fract_x
_atom_site_fract_y
_atom_site_fract_z
_atom_site_U_iso_or_equiv
_atom_site_adp_type
_atom_site_occupancy
_atom_site_symmetry_multiplicity
_atom_site_calc_flag
_atom_site_refinement_flags
Cl1 Cl 0.3692(5) -0.46043(8) -0.17537(19) 0.1097(7) Uani 0.50 1 d P
N11 N 0.3636(12) -0.4161(3) -0.1721(4) 0.0815(9) Uani 0.50 1 d P
O11 O 0.3143(11) -0.4982(3) -0.1244(3) 0.1261(13) Uani 0.50 1 d P
O12 O 0.5044(7) -0.41248(18) -0.2574(2) 0.1139(8) Uani 0.50 1 d P
C1 C 0.2614(3) -0.32976(10) -0.12277(11) 0.0739(4) Uani 1 1 d .
C2 C 0.3159(3) -0.23960(12) -0.17907(10) 0.0793(4) Uani 1 1 d .
H2A H 0.4138 -0.2413 -0.2467 0.095 Uiso 1 1 calc R
C3 C 0.2242(3) -0.14741(10) -0.13425(11) 0.0752(4) Uani 1 1 d .
H3A H 0.2596 -0.0864 -0.1721 0.090 Uiso 1 1 calc R
C4 C 0.0781(3) -0.14363(9) -0.03244(10) 0.0662(3) Uani 1 1 d .
C5 C 0.0278(3) -0.23640(10) 0.02114(10) 0.0718(4) Uani 1 1 d .
H5A H -0.0703 -0.2354 0.0887 0.086 Uiso 1 1 calc R
C6 C 0.1180(3) -0.32968(10) -0.02216(11) 0.0764(4) Uani 1 1 d .
H6A H 0.0833 -0.3910 0.0152 0.092 Uiso 1 1 calc R
C7 C -0.0252(3) -0.04663(9) 0.01909(10) 0.0711(4) Uani 1 1 d .
Cl11 Cl -0.3692(5) 0.46043(8) 0.17537(19) 0.1097(7) Uani 0.50 1 d P
N1 N -0.3636(12) 0.4161(3) 0.1721(4) 0.0815(9) Uani 0.50 1 d P
O1 O -0.3143(11) 0.4982(3) 0.1244(3) 0.1261(13) Uani 0.50 1 d P
O2 O -0.5044(7) 0.41248(18) 0.2574(2) 0.1139(8) Uani 0.50 1 d P
C11 C -0.2614(3) 0.32976(10) 0.12277(11) 0.0739(4) Uani 1 1 d .
C12 C -0.3159(3) 0.23960(12) 0.17907(10) 0.0793(4) Uani 1 1 d .
H12A H -0.4138 0.2413 0.2467 0.095 Uiso 1 1 calc R
C13 C -0.2242(3) 0.14741(10) 0.13425(11) 0.0752(4) Uani 1 1 d .
H13A H -0.2596 0.0864 0.1721 0.090 Uiso 1 1 calc R
C14 C -0.0781(3) 0.14363(9) 0.03244(10) 0.0662(3) Uani 1 1 d .
C15 C -0.0278(3) 0.23640(10) -0.02114(10) 0.0718(4) Uani 1 1 d .
H15A H 0.0703 0.2354 -0.0887 0.086 Uiso 1 1 calc R
C16 C -0.1180(3) 0.32968(10) 0.02216(11) 0.0764(4) Uani 1 1 d .
H16A H -0.0833 0.3910 -0.0152 0.092 Uiso 1 1 calc R
C17 C 0.0252(3) 0.04663(9) -0.01909(10) 0.0711(4) Uani 1 1 d .
H17 H 0.1356 0.0518 -0.0843 0.085 Uiso 1 1 calc R
loop_
_atom_site_aniso_label
_atom_site_aniso_U_11
_atom_site_aniso_U_22
_atom_site_aniso_U_33
_atom_site_aniso_U_23
_atom_site_aniso_U_13
_atom_site_aniso_U_12
Cl1 0.1101(8) 0.0900(13) 0.1288(12) -0.0416(12) 0.0065(8) 0.0212(10)
N11 0.0793(17) 0.070(2) 0.095(2) -0.006(2) -0.0001(15) 0.006(2)
O11 0.168(3) 0.0713(17) 0.143(3) 0.0047(16) 0.042(2) 0.0181(16)
O12 0.153(2) 0.0897(14) 0.1029(16) -0.0264(12) 0.0384(15) 0.0155(13)
C1 0.0608(7) 0.0857(8) 0.0749(8) -0.0150(6) 0.0009(5) 0.0057(6)
C2 0.0690(8) 0.1040(10) 0.0657(8) -0.0051(6) 0.0111(6) -0.0011(6)
C3 0.0717(7) 0.0824(8) 0.0721(8) 0.0059(6) 0.0101(6) -0.0033(6)
C4 0.0538(6) 0.0775(7) 0.0672(7) -0.0031(5) 0.0025(5) -0.0009(5)
C5 0.0695(7) 0.0813(8) 0.0654(7) 0.0001(5) 0.0114(5) 0.0004(6)
C6 0.0744(8) 0.0778(8) 0.0772(8) 0.0033(6) 0.0062(6) 0.0018(6)
C7 0.0623(7) 0.0808(8) 0.0706(7) 0.0009(5) 0.0062(5) -0.0028(6)
Cl11 0.1101(8) 0.0900(13) 0.1288(12) -0.0416(12) 0.0065(8) 0.0212(10)
N1 0.0793(17) 0.070(2) 0.095(2) -0.006(2) -0.0001(15) 0.006(2)
O1 0.168(3) 0.0713(17) 0.143(3) 0.0047(16) 0.042(2) 0.0181(16)
O2 0.153(2) 0.0897(14) 0.1029(16) -0.0264(12) 0.0384(15) 0.0155(13)
C11 0.0608(7) 0.0857(8) 0.0749(8) -0.0150(6) 0.0009(5) 0.0057(6)
C12 0.0690(8) 0.1040(10) 0.0657(8) -0.0051(6) 0.0111(6) -0.0011(6)
C13 0.0717(7) 0.0824(8) 0.0721(8) 0.0059(6) 0.0101(6) -0.0033(6)
C14 0.0538(6) 0.0775(7) 0.0672(7) -0.0031(5) 0.0025(5) -0.0009(5)
C15 0.0695(7) 0.0813(8) 0.0654(7) 0.0001(5) 0.0114(5) 0.0004(6)
C16 0.0744(8) 0.0778(8) 0.0772(8) 0.0033(6) 0.0062(6) 0.0018(6)
C17 0.0623(7) 0.0808(8) 0.0706(7) 0.0009(5) 0.0062(5) -0.0028(6)
loop_
_atom_type_symbol
_atom_type_description
_atom_type_scat_dispersion_real
_atom_type_scat_dispersion_imag
_atom_type_scat_source
C C 0.0033 0.0016 'International Tables Vol C Tables 4.2.6.8 and 6.1.1.4'
H H 0.0000 0.0000 'International Tables Vol C Tables 4.2.6.8 and 6.1.1.4'
N N 0.0061 0.0033 'International Tables Vol C Tables 4.2.6.8 and 6.1.1.4'
O O 0.0106 0.0060 'International Tables Vol C Tables 4.2.6.8 and 6.1.1.4'
Cl Cl 0.1484 0.1585 'International Tables Vol C Tables 4.2.6.8 and 6.1.1.4'
loop_
_geom_angle_atom_site_label_1
_geom_angle_atom_site_label_2
_geom_angle_atom_site_label_3
_geom_angle
N11 Cl1 O11 121.6(9)
N11 Cl1 O12 66.4(7)
O11 Cl1 O12 169.3(4)
N11 Cl1 C1 20.4(6)
O11 Cl1 C1 101.8(4)
O12 Cl1 C1 86.68(12)
Cl1 N11 O12 87.6(7)
Cl1 N11 O11 34.9(6)
O12 N11 O11 122.2(3)
Cl1 N11 C1 151.1(9)
O12 N11 C1 121.2(4)
O11 N11 C1 116.6(4)
Cl1 O11 N11 23.5(3)
N11 O12 Cl1 25.97(16)
N11 C1 C2 115.1(2)
N11 C1 C6 123.2(3)
C2 C1 C6 121.71(12)
N11 C1 Cl1 8.6(3)
C2 C1 Cl1 123.56(12)
C6 C1 Cl1 114.72(13)
C3 C2 C1 119.24(12)
C3 C2 H2A 120.4
C1 C2 H2A 120.4
C2 C3 C4 121.01(12)
C2 C3 H3A 119.5
C4 C3 H3A 119.5
C5 C4 C3 117.68(11)
C5 C4 C7 119.23(11)
C3 C4 C7 123.08(11)
C6 C5 C4 122.31(11)
C6 C5 H5A 118.8
C4 C5 H5A 118.8
C5 C6 C1 118.04(12)
C5 C6 H6A 121.0
C1 C6 H6A 121.0
C17 C7 C4 125.67(15)
N1 Cl11 O1 121.6(9)
N1 Cl11 O2 66.4(7)
O1 Cl11 O2 169.3(4)
N1 Cl11 C11 20.4(6)
O1 Cl11 C11 101.8(4)
O2 Cl11 C11 86.68(12)
Cl11 N1 O2 87.6(7)
Cl11 N1 O1 34.9(6)
O2 N1 O1 122.2(3)
Cl11 N1 C11 151.1(9)
O2 N1 C11 121.2(4)
O1 N1 C11 116.6(4)
Cl11 O1 N1 23.5(3)
N1 O2 Cl11 25.97(16)
N1 C11 C12 115.1(2)
N1 C11 C16 123.2(3)
C12 C11 C16 121.71(12)
N1 C11 Cl11 8.6(3)
C12 C11 Cl11 123.56(12)
C16 C11 Cl11 114.72(13)
C13 C12 C11 119.24(12)
C13 C12 H12A 120.4
C11 C12 H12A 120.4
C12 C13 C14 121.01(12)
C12 C13 H13A 119.5
C14 C13 H13A 119.5
C15 C14 C13 117.68(11)
C15 C14 C17 119.23(11)
C13 C14 C17 123.08(11)
C16 C15 C14 122.31(11)
C16 C15 H15A 118.8
C14 C15 H15A 118.8
C15 C16 C11 118.04(12)
C15 C16 H16A 121.0
C11 C16 H16A 121.0
C7 C17 C14 125.67(15)
C7 C17 H17 117.2
C14 C17 H17 117.2
loop_
_geom_bond_atom_site_label_1
_geom_bond_atom_site_label_2
_geom_bond_distance
Cl1 N11 0.577(3)
Cl1 O11 0.830(3)
Cl1 O12 1.316(3)
Cl1 C1 1.8683(17)
N11 O12 1.207(6)
N11 O11 1.234(6)
N11 C1 1.343(4)
C1 C2 1.3786(19)
C1 C6 1.3796(19)
C2 C3 1.3709(19)
C2 H2A 0.9300
C3 C4 1.3985(18)
C3 H3A 0.9300
C4 C5 1.3883(17)
C4 C7 1.4730(17)
C5 C6 1.3739(17)
C5 H5A 0.9300
C6 H6A 0.9300
C7 C17 1.315(2)
Cl11 N1 0.577(3)
Cl11 O1 0.830(3)
Cl11 O2 1.316(3)
Cl11 C11 1.8683(17)
N1 O2 1.207(6)
N1 O1 1.234(6)
N1 C11 1.343(4)
C11 C12 1.3786(19)
C11 C16 1.3796(19)
C12 C13 1.3709(19)
C12 H12A 0.9300
C13 C14 1.3985(18)
C13 H13A 0.9300
C14 C15 1.3883(17)
C14 C17 1.4730(17)
C15 C16 1.3739(17)
C15 H15A 0.9300
C16 H16A 0.9300
C17 H17 0.9300
loop_
_geom_torsion_atom_site_label_1
_geom_torsion_atom_site_label_2
_geom_torsion_atom_site_label_3
_geom_torsion_atom_site_label_4
_geom_torsion
O11 Cl1 N11 O12 172.0(5)
C1 Cl1 N11 O12 -173.9(18)
O12 Cl1 N11 O11 -172.0(5)
C1 Cl1 N11 O11 14(2)
O11 Cl1 N11 C1 -14(2)
O12 Cl1 N11 C1 173.9(18)
O12 Cl1 O11 N11 137(3)
C1 Cl1 O11 N11 -5.0(7)
O12 N11 O11 Cl1 -9.5(6)
C1 N11 O11 Cl1 172.4(11)
O11 N11 O12 Cl1 5.4(4)
C1 N11 O12 Cl1 -176.6(10)
O11 Cl1 O12 N11 -140(2)
C1 Cl1 O12 N11 2.1(6)
Cl1 N11 C1 C2 -170.1(16)
O12 N11 C1 C2 2.8(5)
O11 N11 C1 C2 -179.1(4)
Cl1 N11 C1 C6 11.1(18)
O12 N11 C1 C6 -176.0(3)
O11 N11 C1 C6 2.1(6)
O12 N11 C1 Cl1 173(2)
O11 N11 C1 Cl1 -9.0(13)
O11 Cl1 C1 N11 167.8(18)
O12 Cl1 C1 N11 -5.6(16)
N11 Cl1 C1 C2 10.7(17)
O11 Cl1 C1 C2 178.5(3)
O12 Cl1 C1 C2 5.1(2)
N11 Cl1 C1 C6 -169.8(17)
O11 Cl1 C1 C6 -2.0(4)
O12 Cl1 C1 C6 -175.40(16)
N11 C1 C2 C3 -179.1(2)
C6 C1 C2 C3 -0.2(2)
Cl1 C1 C2 C3 179.17(12)
C1 C2 C3 C4 0.3(2)
C2 C3 C4 C5 -0.34(19)
C2 C3 C4 C7 -179.91(11)
C3 C4 C5 C6 0.39(19)
C7 C4 C5 C6 179.97(11)
C4 C5 C6 C1 -0.4(2)
N11 C1 C6 C5 179.0(3)
C2 C1 C6 C5 0.3(2)
Cl1 C1 C6 C5 -179.18(12)
C5 C4 C7 C17 175.82(15)
C3 C4 C7 C17 -4.6(2)
O1 Cl11 N1 O2 -172.0(5)
C11 Cl11 N1 O2 173.9(18)
O2 Cl11 N1 O1 172.0(5)
C11 Cl11 N1 O1 -14(2)
O1 Cl11 N1 C11 14(2)
O2 Cl11 N1 C11 -173.9(18)
O2 Cl11 O1 N1 -137(3)
C11 Cl11 O1 N1 5.0(7)
O2 N1 O1 Cl11 9.5(6)
C11 N1 O1 Cl11 -172.4(11)
O1 N1 O2 Cl11 -5.4(4)
C11 N1 O2 Cl11 176.6(10)
O1 Cl11 O2 N1 140(2)
C11 Cl11 O2 N1 -2.1(6)
Cl11 N1 C11 C12 170.1(16)
O2 N1 C11 C12 -2.8(5)
O1 N1 C11 C12 179.1(4)
Cl11 N1 C11 C16 -11.1(18)
O2 N1 C11 C16 176.0(3)
O1 N1 C11 C16 -2.1(6)
O2 N1 C11 Cl11 -173(2)
O1 N1 C11 Cl11 9.0(13)
O1 Cl11 C11 N1 -167.8(18)
O2 Cl11 C11 N1 5.6(16)
N1 Cl11 C11 C12 -10.7(17)
O1 Cl11 C11 C12 -178.5(3)
O2 Cl11 C11 C12 -5.1(2)
N1 Cl11 C11 C16 169.8(17)
O1 Cl11 C11 C16 2.0(4)
O2 Cl11 C11 C16 175.40(16)
N1 C11 C12 C13 179.1(2)
C16 C11 C12 C13 0.2(2)
Cl11 C11 C12 C13 -179.17(12)
C11 C12 C13 C14 -0.3(2)
C12 C13 C14 C15 0.34(19)
C12 C13 C14 C17 179.91(11)
C13 C14 C15 C16 -0.39(19)
C17 C14 C15 C16 -179.97(11)
C14 C15 C16 C11 0.4(2)
N1 C11 C16 C15 -179.0(3)
C12 C11 C16 C15 -0.3(2)
Cl11 C11 C16 C15 179.18(12)
C4 C7 C17 C14 180.0
C15 C14 C17 C7 -175.82(15)
C13 C14 C17 C7 4.6(2)
