#------------------------------------------------------------------------------
#$Date: 2020-01-04 05:07:45 +0200 (Sat, 04 Jan 2020) $
#$Revision: 246540 $
#$URL: file:///home/coder/svn-repositories/cod/cif/4/51/71/4517133.cif $
#------------------------------------------------------------------------------
#
# This file is available in the Crystallography Open Database (COD),
# http://www.crystallography.net/
#
# All data on this site have been placed in the public domain by the
# contributors.
#
data_4517133
loop_
_publ_author_name
'Adhikary, Amit'
'Akhtar, Sohel'
'Pariyar, Anand'
'Batsanov, Andrei S.'
'Mondal, Raju'
_publ_section_title
;
 Correction to &#x201C;Temperature-Induced
 Single-Crystal-to-Single-Crystal Transformations with Consequential
 Changes in the Magnetic Properties of Fe(III) Complexes&#x201D;
;
_journal_issue                   23
_journal_name_full               'ACS Omega'
_journal_page_first              20423
_journal_paper_doi               10.1021/acsomega.9b03593
_journal_volume                  4
_journal_year                    2019
_chemical_formula_sum            'C14 H12 Fe2 N2 O12'
_chemical_formula_weight         511.91
_space_group_crystal_system      triclinic
_space_group_IT_number           2
_space_group_name_Hall           '-P 1'
_space_group_name_H-M_alt        'P -1'
_atom_sites_solution_hydrogens   mixed
_audit_creation_method           SHELXL-2016/6
_cell_angle_alpha                82.177(11)
_cell_angle_beta                 70.183(7)
_cell_angle_gamma                64.893(7)
_cell_formula_units_Z            1
_cell_length_a                   7.2508(19)
_cell_length_b                   8.010(3)
_cell_length_c                   8.795(2)
_cell_measurement_reflns_used    1248
_cell_measurement_temperature    293(2)
_cell_measurement_theta_max      23.20
_cell_measurement_theta_min      2.46
_cell_volume                     435.1(2)
_computing_structure_refinement  'SHELXL-2016/6 (Sheldrick, 2016)'
_diffrn_ambient_temperature      293(2)
_diffrn_measured_fraction_theta_full 0.997
_diffrn_measured_fraction_theta_max 0.990
_diffrn_measurement_device_type  'Bruker APEX-II CCD'
_diffrn_measurement_method       '\f and \w scans'
_diffrn_radiation_type           MoK\a
_diffrn_radiation_wavelength     0.71073
_diffrn_reflns_av_unetI/netI     0.1357
_diffrn_reflns_Laue_measured_fraction_full 0.997
_diffrn_reflns_Laue_measured_fraction_max 0.990
_diffrn_reflns_limit_h_max       9
_diffrn_reflns_limit_h_min       -9
_diffrn_reflns_limit_k_max       10
_diffrn_reflns_limit_k_min       -10
_diffrn_reflns_limit_l_max       11
_diffrn_reflns_limit_l_min       -11
_diffrn_reflns_number            2129
_diffrn_reflns_point_group_measured_fraction_full 0.997
_diffrn_reflns_point_group_measured_fraction_max 0.990
_diffrn_reflns_theta_full        25.242
_diffrn_reflns_theta_max         28.188
_diffrn_reflns_theta_min         2.808
_exptl_absorpt_coefficient_mu    1.741
_exptl_crystal_colour            Orange
_exptl_crystal_density_diffrn    1.931
_exptl_crystal_description       Block
_exptl_crystal_F_000             252
_refine_diff_density_max         1.554
_refine_diff_density_min         -1.352
_refine_diff_density_rms         0.260
_refine_ls_extinction_method     none
_refine_ls_goodness_of_fit_ref   1.089
_refine_ls_hydrogen_treatment    constr
_refine_ls_matrix_type           full
_refine_ls_number_parameters     138
_refine_ls_number_reflns         2129
_refine_ls_number_restraints     0
_refine_ls_restrained_S_all      1.089
_refine_ls_R_factor_all          0.1589
_refine_ls_R_factor_gt           0.0901
_refine_ls_shift/su_max          0.000
_refine_ls_shift/su_mean         0.000
_refine_ls_structure_factor_coef Fsqd
_refine_ls_weighting_details
'w=1/[\s^2^(Fo^2^)+(0.1389P)^2^+1.2167P] where P=(Fo^2^+2Fc^2^)/3'
_refine_ls_weighting_scheme      calc
_refine_ls_wR_factor_gt          0.2371
_refine_ls_wR_factor_ref         0.2811
_reflns_Friedel_coverage         0.000
_reflns_number_gt                1291
_reflns_number_total             2129
_reflns_threshold_expression     'I > 2\s(I)'
_cod_data_source_file            ao9b03593_si_002.cif
_cod_data_source_block           Complex_2
_cod_depositor_comments
'Adding full bibliography for 4517133--4517134.cif.'
_cod_database_code               4517133
_shelx_shelxl_version_number     2016/6
_shelx_space_group_comment
;
The symmetry employed for this shelxl refinement is uniquely defined
by the following loop, which should always be used as a source of
symmetry information in preference to the above space-group names.
They are only intended as comments.
;
_shelx_res_file
;
TITL AA11_b.res in P1 New: P-1
    platon_tw.res
    created by SHELXL-2016/6 at 19:28:27 on 08-Sep-2019
CELL 0.71073 7.2508 8.01 8.795 82.177 70.183 64.893
ZERR 1 0.0019 0.003 0.002 0.011 0.007 0.007
LATT 1
SFAC C  Fe N  O  H
UNIT 14  2  2  12  6
L.S. 70
ACTA
BOND $H
FMAP 2
PLAN 5
CONF
WGHT    0.138895    1.216727
BASF   0.38885
FVAR      12.23081
FE1   2    1.077198    0.362751    0.130026    11.00000    0.02088    0.01653 =
         0.02272   -0.00636   -0.00586   -0.00845
O1    4    0.878833    0.505207    0.341802    11.00000    0.02760    0.01463 =
         0.02499   -0.00586   -0.00207   -0.00810
O5    4    1.142481    0.547418   -0.013794    11.00000    0.02896    0.02225 =
         0.01859    0.00066   -0.00544   -0.01738
O4    4    1.288465   -0.175489   -0.008748    11.00000    0.02265    0.01754 =
         0.02490   -0.00956   -0.00429   -0.00577
O2    4    0.659070    0.495226    0.591364    11.00000    0.02203    0.03349 =
         0.03204   -0.01891   -0.00366   -0.00954
O6    4    1.322542    0.292883    0.217775    11.00000    0.01642    0.02094 =
         0.02171    0.00087   -0.00223   -0.00787
AFIX   7
H6A   5    1.437694    0.273517    0.139343    11.00000   -1.50000
H6B   5    1.344607    0.189255    0.265046    11.00000   -1.50000
AFIX   0
O3    4    1.247813    0.116558    0.002318    11.00000    0.02254    0.01951 =
         0.02139   -0.00533   -0.00160   -0.01164
N1    3    0.954431    0.186925    0.271460    11.00000    0.00803    0.03346 =
         0.01205   -0.01313   -0.00091    0.00088
C5    1    1.022949    0.013066    0.213519    11.00000    0.02502    0.01692 =
         0.03299   -0.00586   -0.01872   -0.00525
C6    1    0.775442    0.429433    0.454548    11.00000    0.01793    0.01802 =
         0.02261   -0.00928   -0.01154    0.00044
C2    1    0.707092    0.129867    0.506205    11.00000    0.02102    0.02680 =
         0.03118   -0.00485   -0.00540   -0.00973
AFIX  43
H2    5    0.601443    0.170535    0.605260    11.00000   -1.20000
AFIX   0
C1    1    0.804678    0.242744    0.412598    11.00000    0.01826    0.01295 =
         0.02187   -0.00442   -0.00500   -0.00255
C7    1    1.198054   -0.021473    0.058143    11.00000    0.02456    0.01188 =
         0.03061   -0.00707   -0.01016   -0.00449
C4    1    0.935249   -0.106203    0.298975    11.00000    0.02459    0.01579 =
         0.02797   -0.00337   -0.01137   -0.00835
AFIX  43
H4    5    0.982302   -0.224353    0.259946    11.00000   -1.20000
AFIX   0
C3    1    0.772250   -0.045010    0.447214    11.00000    0.03203    0.01600 =
         0.03231    0.00879   -0.01602   -0.01103
AFIX  43
H3    5    0.707634   -0.122238    0.506158    11.00000   -1.20000
AFIX   0
HKLF 5




REM  AA11_b.res in P1 New: P-1
REM R1 =  0.0901 for    1291 Fo > 4sig(Fo)  and  0.1589 for all    2129 data
REM    138 parameters refined using      0 restraints

END

WGHT      0.1199      1.4705

REM Highest difference peak  1.554,  deepest hole -1.352,  1-sigma level  0.260
Q1    1   1.2924  0.6343 -0.1444  11.00000  0.05    1.55
Q2    1   0.8441  0.1063  0.3974  11.00000  0.05    1.50
Q3    1   0.9773  0.2675  0.2557  11.00000  0.05    1.46
Q4    1   1.2124  0.6398 -0.0006  11.00000  0.05    1.12
Q5    1   1.1741  0.4763  0.0243  11.00000  0.05    1.11
;
_shelx_res_checksum              13344
_shelx_hkl_file
;
   1   0   0  540225   10086   1
   2   0   0   62027    1932   1
   3   0   0   30965    1611   1
   4   0   0       7    1051   1
   5   0   0   43436    2464   1
   6   0   0   19436    2778   1
   7   0   0   17984    3478   1
   8   0   0   21096    7199   1
  -7   1   0   -2997    3028   1
  -6   1   0    2479    1507   1
  -5   1   0   56606    2902   1
  -4   1   0  247999    6077   1
  -3   1   0   97479    3667   1
  -2   1   0     425     540   1
   1   1   2   19084    1745  -2
  -1   1   0   19084    1745   1
   0   1   0   27488     995   1
   1   1   0   28890     958   1
   2   1   0   80934    2087   1
   3   1   0   30860    1324   1
   4   1   0   20512    2221   1
   5   1   0    7944    1817   1
   6   1   0    -274    2156   1
   7   1   0   21002    3759   1
  -8  -7  -6   18906    4132  -2
   8   1   0   18906    4132   1
  -7   2   0   -2434    2434   1
  -6   2   0   -1617    1617   1
  -5   2   0   -1036    1743   1
  -4   2   0  115527    4487   1
  -3   2   0  286612   14652   1
   2   2   4   53167    2230  -2
  -2   2   0   53167    2230   1
  -1   2   0     518     886   1
   0   2   0   49366    1685   1
   1   2   0   79234    2348   1
   2   2   0     715     486   1
   3   2   0   30343    1846   1
   4   2   0  100150    5238   1
   5   2   0   21733    2797   1
  -6  -5  -3   -1111    1795  -2
   6   2   0   -1111    1795   1
  -7  -6  -4    8795    3160  -2
   7   2   0    8795    3160   1
   8   2   0    3420    3589   1
  -6   3   0   -2047    2047   1
  -5   3   0   13626    2733   1
  -4   3   0   10646    3101   1
  -3   3   0  104944    8713   1
  -2   3   0  140833    4044   1
  -1   3   0   61217    2487   1
   0   3   0    6838     836   1
   1   3   0   17672    1198   1
   2   3   0    1572     644   1
   3   3   0   31291    1856   1
   4   3   0   17463    1737   1
  -5  -4  -1   96983    4149  -2
   5   3   0   96983    4149   1
  -6  -5  -2   76005    8312  -2
   6   3   0   76005    8312   1
   7   3   0   17390    3709   1
   8   3   0    1830    3066   1
  -6   4   0   29318    6485   1
  -5   4   0   36391    7170   1
  -4   4   0   21077    3845   1
  -3   4   0     450    1550   1
  -2   4   0    2995    1521   1
  -1   4   0   17984    1760   1
   0   4   0   19596    1358   1
   1   4   0  318148    6778   1
   2   4   0   58070    2328   1
   3   4   0   19123    1571   1
  -4  -3   1   62076    2943  -2
   4   4   0   62076    2943   1
  -5  -4   0   24383    2744  -2
   5   4   0   24383    2744   1
   6   4   0   84579    4139   1
   7   4   0    8816    3034   1
   8   4   0    2820    4842   1
   9   4   0   11194   10183   1
  -5   5   0   21993    4349   1
  -4   5   0    2800    4314   1
  -3   5   0   24859    3942   1
  -2   5   0   18191    2316   1
  -1   5   0    -311    1202   1
   0   5   0    -934    1128   1
   1   5   0   98116    3409   1
   2   5   0  220458    5649   1
  -3  -2   3  125214    4072  -2
   3   5   0  125214    4072   1
  -4  -3   2   35532    2776  -2
   4   5   0   35532    2776   1
   5   5   0   19856    2745   1
   6   5   0     743    1730   1
   7   5   0   11142    3298   1
   8   5   0   27985   15539   1
   9   5   0    5470   10468   1
  -4   6   0   -3936    3936   1
  -3   6   0   29998    4462   1
  -2   6   0   33142    4287   1
  -1   6   0   18065    2180   1
   0   6   0   38418    2458   1
   1   6   0     781    1585   1
  -2  -1   5   42993    2821  -2
   2   6   0   42993    2821   1
   3   6   0   16566    3657   1
   4   6   0   38127    3194   1
   5   6   0   36426    5299   1
   6   6   0    3050    3842   1
   7   6   0     623    2111   1
   8   6   0   -2068    2113   1
  -2   7   0   17574    4005   1
  -1   7   0   29180    3405   1
   0   7   0   23868    4886   1
  -1   0   7    7233    2308  -2
   1   7   0    7233    2308   1
   2   7   0    5613    3356   1
   3   7   0    5099    1538   1
   4   7   0   51043    3624   1
   5   7   0   42015    8197   1
   6   7   0   24650    4971   1
   7   7   0   15659    3301   1
   8   7   0    1495    2981   1
  -2   8   0   -3971    3971   1
  -1   8   0    8518    3351   1
   0   8   0   46473    3157   1
   1   8   0   24813    3654   1
   2   8   0   24701    3107   1
   3   8   0    9722    2186   1
   4   8   0    1973    1810   1
   5   8   0   -1876    4471   1
   6   8   0    8657    2939   1
   7   8   0   24854    4296   1
  -8  -6   2    5897    3243  -2
   8   8   0    5897    3243   1
  -1   9   0    6738    2959   1
   0   9   0    1622    2961   1
   1   9   0    1162    4448   1
   2   9   0   19170    2922   1
   3   9   0   28353    3693   1
   4   9   0    7519    3654   1
   5   9   0    4036    7095   1
   6   9   0   -2485    4485   1
  -7  -5   4    1714    5171  -2
   7   9   0    1714    5171   1
   1  10   0    -657    4685   1
   2  10   0   10006    3115   1
   3  10   0   22660    4382   1
   4  10   0     752    3514   1
   5  10   0    5421    3271   1
   5   4  -7    8525    3917  -2
  -5 -10   1    8525    3917   1
  -4 -10   1   17215    7083   1
  -3 -10   1    3304    2885   1
  -2 -10   1    9740    3839   1
   6   5  -5    8570    5199  -2
  -6  -9   1    8570    5199   1
  -5  -9   1    6680    3343   1
  -4  -9   1   37296    4669   1
  -3  -9   1   16848    3652   1
  -2  -9   1    7342    4256   1
  -1  -9   1    3057    7399   1
   0  -9   1    2600    4542   1
   1  -9   1   14286    3966   1
   7   6  -3   11103    3884  -2
  -7  -8   1   11103    3884   1
  -6  -8   1    3043    4885   1
  -5  -8   1   37069    6856   1
  -4  -8   1   38594    7397   1
  -3  -8   1   13969    4656   1
  -2  -8   1   16001    4027   1
  -1  -8   1   11504    3977   1
   0  -8   1    3324    2611   1
   1  -8   1    1398    3228   1
   2  -8   1   -1859    3101   1
   8   7  -1   14932    4448  -2
  -8  -7   1   14932    4448   1
  -7  -7   1    7496    3148   1
  -6  -7   1    5611    2635   1
  -5  -7   1    1216    3671   1
  -4  -7   1    2458    2140   1
  -3  -7   1   19975    2574   1
  -2  -7   1     -46    1869   1
  -1  -7   1    8833    2198   1
   0  -7   1   24147    2353   1
   1  -7   1   61326    5154   1
   2  -7   1    1899    2714   1
   3  -7   1    7657    3745   1
  -8  -6   1   27507    6542   1
  -7  -6   1   13480    3138   1
  -6  -6   1   13730    5012   1
  -5  -6   1     857    1846   1
  -4  -6   1     721    1340   1
  -3  -6   1   51942    3579   1
  -2  -6   1    4110    2635   1
   1   1  -6  153408    5683  -2
  -1  -6   1  153408    5683   1
   0  -6   1   83433    3515   1
   1  -6   1   15577    2086   1
   2  -6   1   30619    4043   1
   3  -6   1   18303    4062   1
   4  -6   1     434    3889   1
  -8  -5   1     345    3453   1
  -7  -5   1    2542    4199   1
  -6  -5   1   17174    4641   1
  -5  -5   1   19942    3257   1
  -4  -5   1    5292    1848   1
  -3  -5   1  124832    4489   1
   2   2  -4  202917    5140  -2
  -2  -5   1  202917    5140   1
  -1  -5   1    1813    1183   1
   0  -5   1     196    1062   1
   1  -5   1   30234    2157   1
   2  -5   1   93932    5255   1
   3  -5   1   24747    3785   1
   4  -5   1    1458    3121   1
   5  -5   1   -3457    3457   1
  -8  -4   1    -769    4871   1
  -6  -4   1   52443    7856   1
  -5  -4   1    2249    1408   1
   4   4  -1   53461    3163  -2
  -4  -4   1   53461    3163   1
   3   3  -2   64016    3629  -2
  -3  -4   1   64016    3629   1
  -2  -4   1  114515    3880   1
  -1  -4   1   98063    2970   1
   0  -4   1   60240    2415   1
   1  -4   1    3620    1597   1
   2  -4   1   40379    3322   1
   3  -4   1   50353    4753   1
   4  -4   1   12806    3360   1
   5  -4   1     -21    3264   1
  -6  -5 -10    9208    4089  -2
   6  -4   1    9208    4089   1
  -8  -3   1    2985    3899   1
  -7  -3   1    8519    2982   1
  -6  -3   1    4971    3542   1
   5   5   1   51215    6942  -2
  -5  -3   1   51215    6942   1
   4   4   0   49637    2417  -2
  -4  -3   1   49637    2417   1
  -3  -3   1  111573    3552   1
  -2  -3   1  397860    8331   1
  -1  -3   1  214042    4497   1
   0  -3   1   48427    1619   1
   1  -3   1    6900     816   1
   2  -3   1    4701    1436   1
   3  -3   1   31817    3084   1
   4  -3   1   55653    6756   1
   5  -3   1   17081    3484   1
   6  -3   1   11646    4001   1
   7  -3   1   16899    4957   1
  -8  -2   1     587    8199   1
  -7  -2   1   38652    8697   1
  -6  -2   1   90775    6696   1
   5   5   2  183383   12312  -2
  -5  -2   1  183383   12312   1
  -4  -2   1   52851    4743   1
  -3  -2   1    2778     643   1
  -2  -2   1   10723    1197   1
  -1  -2   1   12053    1145   1
   0  -2   1  225121    3831   1
   1  -2   1   14989    1379   1
   2  -2   1   21997    2039   1
   3  -2   1  144299    5587   1
   4  -2   1    1678    1071   1
   5  -2   1    4549    1425   1
   6  -2   1     597    1496   1
   7  -2   1    3359    5042   1
  -8  -1   1   10400    3521   1
   7   7   5   16601    3706  -2
  -7  -1   1   16601    3706   1
  -6  -1   1   34467    7456   1
  -5  -1   1   30709    5123   1
  -4  -1   1   47616    3857   1
  -3  -1   1    7703    1616   1
  -2  -1   1   91716    4211   1
  -1  -1   1   91894    2496   1
   0  -1   1  188983    5798   1
   1  -1   1   74625    2342   1
  -2  -1  -3    2107     524  -2
   2  -1   1    2107     524   1
   3  -1   1  210688    4393   1
   4  -1   1  101296    3396   1
   5  -1   1   29873    2222   1
   6  -1   1   10128    1785   1
   7  -1   1    1211    2886   1
   8  -1   1    6297    6485   1
   8   8   7   12512    6199  -2
  -8   0   1   12512    6199   1
  -7   0   1    -167    2632   1
  -6   0   1   15190    3233   1
  -5   0   1   13172    2109   1
  -4   0   1   29640    2711   1
  -3   0   1    9571    1808   1
  -2   0   1     354     737   1
  -1   0   1  162718    5181   1
  -1   0  -1   52960    1820  -2
   1   0   1   52960    1820   1
   2   0   1   87316    4111   1
   3   0   1   23270    1500   1
   4   0   1   65050    2669   1
   5   0   1   27824    2089   1
   6   0   1   14221    1991   1
   7   0   1   -1744    1744   1
   8   0   1   -1980    2845   1
  -7   1   1     442    2924   1
  -6   1   1    9194    3714   1
  -5   1   1   31525    3694   1
  -4   1   1     744    1057   1
  -3   1   1    7966    1364   1
  -2   1   1   18779    1702   1
  -1   1   1  110000    5771   1
   0   1   1  409763   21077  -2
   0   1   1  409763   21077   1
   1   1   1  287862    9431   1
   2   1   1  213491    5371   1
   3   1   1     383     484   1
   4   1   1   74360    2474   1
   5   1   1   35583    2296   1
   6   1   1   12612    1747   1
   7   1   1   16233    3853   1
   8   1   1   19572    3940   1
  -7   2   1    3645    5842   1
  -6   2   1    3363    2635   1
  -5   2   1    8820    1945   1
  -4   2   1   51142    4249   1
  -3   2   1   77771    4549   1
  -2   2   1    8427    2485   1
   1   2   3   17329    1597  -2
  -1   2   1   17329    1597   1
   0   2   1   57104    2265   1
   1   2   1  254631    4941   1
   2   2   1  106263    2346   1
   3   2   1    8636    1097   1
   4   2   1   19117    1362   1
   5   2   1    -119     845   1
   6   2   1   16161    2536   1
  -7  -5  -4   33888    9099  -2
   7   2   1   33888    9099   1
  -8  -6  -5   42888    7312  -2
   8   2   1   42888    7312   1
   9   2   1   15674    4494   1
  -6   3   1    -848    1759   1
  -5   3   1   16515    2426   1
  -4   3   1   34906    3193   1
  -3   3   1  122415    5043   1
  -2   3   1  186205    5796   1
  -1   3   1  105343    4585   1
   0   3   1   85871    2865   1
   1   3   1   35711    2026   1
   2   3   1   48027    2020   1
   3   3   1   40699    1894   1
   4   3   1  326747    5997   1
   5   3   1  111736    3960   1
  -6  -4  -2   25770    2571  -2
   6   3   1   25770    2571   1
  -7  -5  -3   11802    3133  -2
   7   3   1   11802    3133   1
   8   3   1    2288    6185   1
   9   3   1   10380    3714   1
  -6   4   1   17709    4848   1
  -5   4   1    -696    1992   1
  -4   4   1   15516    2411   1
  -3   4   1   32443    2846   1
  -2   4   1   32542    2583   1
  -1   4   1   17735    2397   1
   0   4   1  105255    3074   1
   1   4   1   12705    1352   1
   2   4   1   50332    1988   1
   3   4   1     528     666   1
   4   4   1    5097    1343   1
  -5  -3   0  119194    4489  -2
   5   4   1  119194    4489   1
  -6  -4  -1   88997    4423  -2
   6   4   1   88997    4423   1
   7   4   1     322    2516   1
   8   4   1    5083    3342   1
   9   4   1    9137    3944   1
  -5   5   1    9690    2924   1
  -4   5   1   19750    5666   1
  -3   5   1   -1377    1377   1
  -2   5   1    9887    2057   1
  -1   5   1   10136    2345   1
   0   5   1   95907    4372   1
   1   5   1  136093    3527   1
   2   5   1   29177    1633   1
   3   5   1   16744    1888   1
  -4  -2   2    5533    1761  -2
   4   5   1    5533    1761   1
  -5  -3   1   61354    4579  -2
   5   5   1   61354    4579   1
   6   5   1   22183    3444   1
   7   5   1   12152    2398   1
   8   5   1   17807    3599   1
   9   5   1   -3500    4971   1
  -4   6   1   12262    3641   1
  -3   6   1   19500    2467   1
  -2   6   1    2737    2264   1
  -1   6   1    4479    1566   1
   0   6   1     955    1187   1
   1   6   1   19416    1706   1
   2   6   1  191770    6126   1
  -3  -1   4  209291    5199  -2
   3   6   1  209291    5199   1
   4   6   1   18023    4142   1
   5   6   1    2002    1878   1
   6   6   1    2751    1633   1
   7   6   1     908    2063   1
   8   6   1    5507    2745   1
   9   6   1   11171    3573   1
  -3   7   1     316    2347   1
  -2   7   1   31587    2981   1
  -1   7   1   45564    3001   1
   0   7   1    2165    1740   1
   1   7   1    6188    1726   1
  -2   0   6   33505    3129  -2
   2   7   1   33505    3129   1
   3   7   1    8462    1895   1
   4   7   1    5308    1638   1
   5   7   1   50729    6456   1
   6   7   1   21159    3292   1
   7   7   1   -2485    2485   1
   8   7   1    2560    3150   1
  -2   8   1     252    2519   1
  -1   8   1    3786    2066   1
   0   8   1    8163    1982   1
  -1   1   8   49844    6913  -2
   1   8   1   49844    6913   1
   2   8   1    5502    2171   1
   3   8   1   19695    3494   1
   4   8   1   -1581    1581   1
   5   8   1     863    2141   1
   6   8   1   66564    5159   1
   7   8   1   42184    7440   1
   8   8   1    4967    7127   1
  -1   9   1    9279    5755   1
   0   9   1    6878    8512   1
   1   9   1    2715    4756   1
   2   9   1   24090    3985   1
   3   9   1   14035    3547   1
   4   9   1   15696    3299   1
   5   9   1       0    3542   1
   6   9   1   11790    4669   1
   7   9   1    6339    3425   1
   1  10   1   -3828    3828   1
   2  10   1   12175    4869   1
   3  10   1   36280    7969   1
   4  10   1   33551    4814   1
   5  10   1   12178    3961   1
   6  10   1    -151    3416   1
   4   4  -8   -3742    4914  -2
  -4 -10   2   -3742    4914   1
  -3 -10   2    7032    3587   1
  -2 -10   2   -1171    4771   1
  -6  -9   2    4153    4799   1
   5   5  -6    9824    3515  -2
  -5  -9   2    9824    3515   1
  -4  -9   2    6798    4185   1
  -3  -9   2   -3228    3228   1
  -2  -9   2   10655    4628   1
  -1  -9   2    2914    4942   1
   0  -9   2   11170    6313   1
   1  -9   2   15711    4269   1
   7   7  -3    -192    6942  -2
  -7  -8   2    -192    6942   1
   6   6  -4    9648    3514  -2
  -6  -8   2    9648    3514   1
  -5  -8   2   20786    4031   1
  -4  -8   2   30818    4465   1
  -3  -8   2   16991    3727   1
  -2  -8   2    2742    5885   1
  -1  -8   2    -732    2492   1
   0  -8   2   14161    3209   1
   1  -8   2   31672    4652   1
   2  -8   2   15764    6426   1
   7   7  -2   12297    3405  -2
  -7  -7   2   12297    3405   1
  -6  -7   2    -151    2393   1
  -5  -7   2   15695    3481   1
  -4  -7   2   18414    3526   1
  -3  -7   2  100764    5382   1
  -2  -7   2   91119    5690   1
  -1  -7   2   -1976    1976   1
   0  -7   2     701    2750   1
   1  -7   2    2303    2655   1
   2  -7   2    9899    2983   1
   3  -7   2    5274    3696   1
   8   8   0   -4656    4656  -2
  -8  -6   2   -4656    4656   1
  -7  -6   2   25192    3435   1
  -6  -6   2   16009    3412   1
  -5  -6   2    -469    5842   1
  -4  -6   2     899    1879   1
  -3  -6   2   19108    2666   1
  -2  -6   2   37546    2994   1
  -1  -6   2    3079    1938   1
   0   1  -7   34212    3600  -2
   0  -6   2   34212    3600   1
   1  -6   2   13650    2782   1
   2  -6   2   -1574    2174   1
   3  -6   2   -2473    2473   1
   4  -6   2   -3214    3214   1
  -8  -5   2    3525    8242   1
  -7  -5   2   18394    5742   1
  -6  -5   2   67709    6785   1
  -5  -5   2    6479    2204   1
  -4  -5   2     670    1520   1
  -3  -5   2    1870    1346   1
  -2  -5   2    1738    1158   1
   1   2  -5   41046    2582  -2
  -1  -5   2   41046    2582   1
   0  -5   2   44166    2625   1
   1  -5   2   76045    3838   1
   2  -5   2   48753    4696   1
   3  -5   2    2697    2386   1
   4  -5   2    2094    2603   1
   5  -5   2   -3326    5371   1
  -8  -4   2   -1934    6556   1
  -7  -4   2   -1371    4085   1
  -6  -4   2   -1685    3257   1
  -5  -4   2   11610    2020   1
  -4  -4   2   55733    3827   1
  -3  -4   2   55719    4398   1
   2   3  -3  107046    3648  -2
  -2  -4   2  107046    3648   1
  -1  -4   2    2564     840   1
   0  -4   2    4615     828   1
   1  -4   2   67146    2423   1
   2  -4   2   39551    3281   1
   3  -4   2    5850    2421   1
   4  -4   2    6357    2720   1
   5  -4   2   -1083    6942   1
   6  -4   2    3810    4059   1
  -8  -3   2    9428    5398   1
  -7  -3   2   12025    3422   1
  -6  -3   2    6513    3628   1
  -5  -3   2    6713    3599   1
   4   5   0   26028    2328  -2
  -4  -3   2   26028    2328   1
   3   4  -1   50177    3845  -2
  -3  -3   2   50177    3845   1
  -2  -3   2  219818    5709   1
  -1  -3   2  262502    5481   1
   0  -3   2     648     561   1
   1  -3   2   11931    1045   1
   2  -3   2     635    1100   1
   3  -3   2  119589    5375   1
   4  -3   2   53552    5150   1
   5  -3   2   20193    4942   1
  -6  -4  -9   45006   12040  -2
   6  -3   2   45006   12040   1
   7  -3   2   18287   12582   1
  -8  -2   2   11844    8040   1
  -7  -2   2    2846    2874   1
  -6  -2   2     886    3257   1
  -5  -2   2   25965    5028   1
   4   5   1    3924    1470  -2
  -4  -2   2    3924    1470   1
  -3  -2   2    3184    1047   1
  -2  -2   2   72565    3892   1
  -1  -2   2  202958    4474   1
   0  -2   2   11247     908   1
   1  -2   2   19292    1180   1
   2  -2   2   86678    3820   1
   3  -2   2     192    1170   1
   4  -2   2    9938    2148   1
  -5  -3  -7   36735    3576  -2
   5  -2   2   36735    3576   1
   6  -2   2   31564    7856   1
   7  -2   2    4044    5356   1
  -7  -1   2    5577    9668   1
  -6  -1   2   36560    4766   1
  -5  -1   2  218286   14055   1
  -4  -1   2    4327    2000   1
  -3  -1   2   29695    4156   1
  -2  -1   2  175044    5412   1
  -1  -1   2   63037    1962   1
   0  -1   2  118122    2361   1
   1  -1   2   36272    1323   1
   2  -1   2   58140    1874   1
  -3  -1  -4  249629    6159  -2
   3  -1   2  249629    6159   1
  -4  -2  -5    6325    1137  -2
   4  -1   2    6325    1137   1
   5  -1   2    8833    1669   1
   6  -1   2   18822    2676   1
   7  -1   2   19574    2688   1
   8  -1   2    9076    4383   1
  -7   0   2   -2040    4071   1
  -6   0   2   24996    8256   1
  -5   0   2   33268    4372   1
  -4   0   2   67923    7712   1
  -3   0   2   15366    3371   1
  -2   0   2     365     918   1
  -1   0   2   37934    1278   1
   0   0   2   94492    1937   1
   1   0   2  358531    5401   1
  -2   0  -2 2832751   51639  -2
   2   0   2 2832751   51639   1
  -3  -1  -3  448545    9973  -2
   3   0   2  448545    9973   1
   4   0   2    8600    1379   1
   5   0   2   36306    2337   1
   6   0   2   12186    2058   1
   7   0   2    1266    2798   1
   8   0   2   14084    6228   1
  -7   1   2    9978    3683   1
  -6   1   2   22442    4072   1
  -5   1   2    6249    2457   1
  -4   1   2    2081    1651   1
  -3   1   2   54511    2496   1
  -2   1   2  294547    7231   1
  -1   1   2  360259   21010   1
   0   1   2   84913    3179   1
  -1   1   0   22769    1266  -2
   1   1   2   22769    1266   1
   2   1   2  124142    3945   1
   3   1   2    5044     835   1
   4   1   2  187860    4047   1
   5   1   2   28671    1927   1
   6   1   2   -1240    1240   1
   7   1   2    1014    1656   1
   8   1   2   -2785    2785   1
  -6   2   2   -1779    2842   1
  -5   2   2    3074    2465   1
  -4   2   2   35709    4579   1
  -3   2   2      89    1137   1
  -2   2   2   60887    2919   1
  -1   2   2  141171    5368   1
   0   2   2  523909   10876  -2
   0   2   2  523909   10876   1
   1   2   2   44419    1966   1
   2   2   2   43127    1661   1
   3   2   2    9199     999   1
   4   2   2     688     707   1
   5   2   2   58487    2513   1
   6   2   2   25132    1973   1
   7   2   2    9921    2063   1
  -8  -5  -5    7719    2881  -2
   8   2   2    7719    2881   1
  -9  -6  -6   17594    7427  -2
   9   2   2   17594    7427   1
  -6   3   2   -1665    3324   1
  -5   3   2   21735    2517   1
  -4   3   2   20020    2271   1
  -3   3   2    1835    1146   1
  -2   3   2     529     841   1
   1   3   4   38935    2250  -2
  -1   3   2   38935    2250   1
   0   3   2  223587    5835   1
   1   3   2  146387    3968   1
   2   3   2   53987    1831   1
   3   3   2   34830    1666   1
   4   3   2   45931    2315   1
   5   3   2    7693    1230   1
   6   3   2     386    1274   1
  -7  -4  -3    2098    2247  -2
   7   3   2    2098    2247   1
  -8  -5  -4   52724    3944  -2
   8   3   2   52724    3944   1
   9   3   2   15766    6056   1
  -5   4   2   -2037    2037   1
  -4   4   2   79939    4096   1
  -3   4   2  124032    4533   1
  -2   4   2    2207    1240   1
  -1   4   2    1736    1146   1
   0   4   2   48593    2111   1
   1   4   2   22208    1789   1
   2   4   2   17252    1582   1
   3   4   2   83899    2586   1
   4   4   2   88498    3296   1
   5   4   2   64894    2807   1
  -6  -3  -1   51706    2938  -2
   6   4   2   51706    2938   1
  -7  -4  -2    3779    1515  -2
   7   4   2    3779    1515   1
   8   4   2   15477    2930   1
   9   4   2   20251    6628   1
  -5   5   2     -86    5771   1
  -4   5   2   -3003    3003   1
  -3   5   2   81493    8884   1
  -2   5   2    7885    2330   1
  -1   5   2   28828    2672   1
   0   5   2   61615    2664   1
   1   5   2   28269    2241   1
   2   5   2   12854    1543   1
   3   5   2    5517    1288   1
   4   5   2   80142    3702   1
  -5  -2   1  175522    6118  -2
   5   5   2  175522    6118   1
  -6  -3   0   80709    5202  -2
   6   5   2   80709    5202   1
   7   5   2   34063    4028   1
   8   5   2   14947    4326   1
   9   5   2     786    3646   1
  -4   6   2     909    3327   1
  -3   6   2    7884    2075   1
  -2   6   2   -1288    1288   1
  -1   6   2   22643    3513   1
   0   6   2   30263    2202   1
   1   6   2  101270    4016   1
   2   6   2  128937    4437   1
   3   6   2   31550    2357   1
  -4  -1   3   17094    3234  -2
   4   6   2   17094    3234   1
   5   6   2   21637    5542   1
   6   6   2   64863    7683   1
   7   6   2   23417    4756   1
   8   6   2    -547    2724   1
   9   6   2   -3999    3999   1
  -3   7   2    8151    4506   1
  -2   7   2    8080    2514   1
  -1   7   2   -1761    1761   1
   0   7   2    3474    1399   1
   1   7   2   46262    3157   1
   2   7   2   69483    4379   1
  -3   0   5   15586    2442  -2
   3   7   2   15586    2442   1
   4   7   2   15805    2537   1
   5   7   2    4197    1817   1
   6   7   2   42580    4080   1
   7   7   2   23008    3542   1
   8   7   2    9536    3215   1
   9   7   2    8600    7497   1
  -2   8   2   23680    6205   1
  -1   8   2    4976    1992   1
   0   8   2    2479    2460   1
   1   8   2     379    2141   1
  -2   1   7   52567    4718  -2
   2   8   2   52567    4718   1
   3   8   2   49974    4706   1
   4   8   2   13815    3355   1
   5   8   2   20875    2448   1
   6   8   2    9662    2780   1
   7   8   2    6943    6385   1
   8   8   2    5028    5399   1
   0   9   2    1239    6685   1
  -1   2   9   13411    3376  -2
   1   9   2   13411    3376   1
   2   9   2     -15    2871   1
   3   9   2    2000    2382   1
   4   9   2   -2134    2134   1
   5   9   2   12170    5571   1
   6   9   2   11582    2566   1
   7   9   2   10970    3394   1
   8   9   2    3857    5856   1
   2  10   2    7500    3281   1
   3  10   2    -814    5099   1
   4  10   2    7094    6055   1
   5  10   2   -1286    4485   1
   6  10   2   -2628    4256   1
  -5  -9   3   -2801    2801   1
   4   5  -7    1935    3135  -2
  -4  -9   3    1935    3135   1
  -3  -9   3    -628    4085   1
  -2  -9   3   17652    5342   1
  -1  -9   3   11570    5942   1
   0  -9   3    8799    5113   1
  -6  -8   3    7714    3749   1
   5   6  -5    8544    5555  -2
  -5  -8   3    8544    5555   1
  -4  -8   3   12618    4469   1
  -3  -8   3    2043    2666   1
  -2  -8   3   12684    4085   1
  -1  -8   3   -1981    2800   1
   0  -8   3   24397    3492   1
   1  -8   3   38045    5899   1
   2  -8   3   -3412    3412   1
   7   8  -2   -4090    4090  -2
  -7  -7   3   -4090    4090   1
   6   7  -3   19812    6269  -2
  -6  -7   3   19812    6269   1
  -5  -7   3   12797    6055   1
  -4  -7   3   21747    4199   1
  -3  -7   3   36112    4591   1
  -2  -7   3     528    2328   1
  -1  -7   3    -760    1879   1
   0  -7   3    -804    1785   1
   1  -7   3   -2311    2311   1
   2  -7   3    7141    3213   1
  -3  -1 -11   21412    4331  -2
   3  -7   3   21412    4331   1
   7   8  -1    4571    5028  -2
  -7  -6   3    4571    5028   1
  -6  -6   3    9348    3857   1
  -5  -6   3    8417    2843   1
  -4  -6   3    9020    2896   1
  -3  -6   3   11998    2939   1
  -2  -6   3   16010    3157   1
  -1  -6   3   40905    3179   1
   0  -6   3   -1466    1477   1
   1  -6   3   49931    4814   1
   2  -6   3   44308    4689   1
   3  -6   3   -2667    2667   1
   4  -6   3    5682    3810   1
  -7  -5   3   11741    5456   1
  -6  -5   3    8570    4485   1
  -5  -5   3    4306    2085   1
  -4  -5   3     486    3314   1
  -3  -5   3   11465    2742   1
  -2  -5   3   25027    3110   1
  -1  -5   3   53395    3032   1
   0   2  -6  107813    3642  -2
   0  -5   3  107813    3642   1
   1  -5   3   89046    4647   1
   2  -5   3    3672    4042   1
   3  -5   3    1355    2271   1
   4  -5   3   10035    3631   1
   5  -5   3    9304    7754   1
  -7  -4   3     857    4314   1
  -6  -4   3    1200    3885   1
  -5  -4   3   44816    7342   1
  -4  -4   3   68298    8113   1
  -3  -4   3   20409    3118   1
  -2  -4   3    5352    1209   1
   1   3  -4   24632    1944  -2
  -1  -4   3   24632    1944   1
   0   2  -5   29461    2702  -2
   0  -4   3   29461    2702   1
   1  -4   3   90678    2702   1
   2  -4   3  119504    5614   1
   3  -4   3    7251    2676   1
   4  -4   3   -2278    2278   1
   5  -4   3    6652    3338   1
   6  -4   3   10452    4131   1
  -7  -3   3     714    4771   1
  -6  -3   3   -3514    3514   1
  -5  -3   3    2828    3542   1
  -4  -3   3    1628    2371   1
  -3  -3   3   94098    7034   1
   2   4  -2  120480    4187  -2
  -2  -3   3  120480    4187   1
  -1  -3   3   60778    2765   1
   0  -3   3  117324    3088   1
   1  -3   3   19835    1286   1
   2  -3   3   86697    3758   1
   3  -3   3   29830    4307   1
   4  -3   3    3136    2167   1
   5  -3   3    3780    2817   1
   6  -3   3    5256    6599   1
  -7  -4 -10    6586    4121  -2
   7  -3   3    6586    4121   1
  -7  -2   3   23584    4645   1
  -6  -2   3    3114    3428   1
  -5  -2   3   49187    7370   1
  -4  -2   3   89692    8627   1
   3   5   0  129449    5477  -2
  -3  -2   3  129449    5477   1
  -2  -2   3  206661    4754   1
  -1  -2   3   60524    2092   1
   0  -2   3   11031     966   1
   1  -2   3    3406     783   1
   2  -2   3   59469    1946   1
   3  -2   3   43282    2893   1
   4  -2   3    3673    1635   1
   5  -2   3   24774    4095   1
  -6  -3  -8   39739    6926  -2
   6  -2   3   39739    6926   1
   7  -2   3     671    3373   1
  -7  -1   3    3452    3810   1
  -6  -1   3   35363    7113   1
  -5  -1   3    2714    3057   1
   4   6   2   22908    4971  -2
  -4  -1   3   22908    4971   1
  -3  -1   3    2554    1100   1
  -2  -1   3   30335    1673   1
  -1  -1   3   88536    2560   1
   0  -1   3   41418    1574   1
   1  -1   3   12545    1043   1
   2  -1   3    7658    1138   1
   3  -1   3   13118    1228   1
  -4  -1  -5     774     872  -2
   4  -1   3     774     872   1
  -5  -2  -6    5859    1662  -2
   5  -1   3    5859    1662   1
   6  -1   3   51949    3795   1
   7  -1   3   34059    3883   1
   8  -1   3    1876    4585   1
  -7   0   3    6306    3830   1
  -6   0   3   17575    3866   1
  -5   0   3   40534    6685   1
  -4   0   3   38505    5913   1
  -3   0   3   15534    2591   1
  -2   0   3    1852     773   1
  -1   0   3    3401     642   1
   0   0   3    2016     530   1
   1   0   3    1719     564   1
   2   0   3  112252    3022   1
  -3   0  -3  455230    7682  -2
   3   0   3  455230    7682   1
  -4  -1  -4  137061    3940  -2
   4   0   3  137061    3940   1
   5   0   3    -621    1729   1
   6   0   3    2017    1822   1
   7   0   3   18547    4715   1
   8   0   3   20822    7370   1
  -6   1   3    1195    3050   1
  -5   1   3    4057    2652   1
  -4   1   3   16852    4085   1
  -3   1   3    7475    2571   1
  -2   1   3   14459    2784   1
  -1   1   3   87105    3104   1
   0   1   3     813     508   1
   1   1   3    3732     813   1
  -2   1  -1    3643     818  -2
   2   1   3    3643     818   1
  -3   0  -2  498936    9798  -2
   3   1   3  498936    9798   1
   4   1   3  263127    5747   1
   5   1   3    4320    1580   1
   6   1   3    4917    2493   1
   7   1   3   -2414    2414   1
   8   1   3    4199    5256   1
   9   1   3    9056    7342   1
  -6   2   3   -2112    3181   1
  -5   2   3    6250    3097   1
  -4   2   3   -1061    1849   1
  -3   2   3    -658    2000   1
  -2   2   3   31241    2684   1
  -1   2   3  337228   10390   1
   0   2   3  172982    4639   1
  -1   2   1   11382    1276  -2
   1   2   3   11382    1276   1
   2   2   3    2997     750   1
   3   2   3   96696    3124   1
   4   2   3  188756    4569   1
   5   2   3   14662    1704   1
   6   2   3   14527    1953   1
   7   2   3   16579    2627   1
   8   2   3    2875    4899   1
   9   2   3   13398    6170   1
  -5   3   3   47587    6032   1
  -4   3   3    4878    2715   1
  -3   3   3   24596    2305   1
  -2   3   3    6062    1362   1
  -1   3   3   88970    3642   1
   0   3   3  708948   17646  -2
   0   3   3  708948   17646   1
   1   3   3  232465    4169   1
   2   3   3   67509    2490   1
   3   3   3    2091     669   1
   4   3   3   46264    2655   1
   5   3   3   58556    2927   1
   6   3   3   68871    4477   1
   7   3   3   33627    3187   1
  -8  -4  -4   28671    3498  -2
   8   3   3   28671    3498   1
  -9  -5  -5    2657    6342  -2
   9   3   3    2657    6342   1
  -5   4   3   12252    3339   1
  -4   4   3   24363    2565   1
  -3   4   3   37872    2909   1
  -2   4   3   46353    3691   1
   1   4   5     928    1012  -2
  -1   4   3     928    1012   1
   0   4   3   50914    2518   1
   1   4   3   40189    2013   1
   2   4   3   28506    1582   1
   3   4   3   10699    1127   1
   4   4   3    -589     652   1
   5   4   3    8167    1406   1
   6   4   3    5303    2359   1
  -7  -3  -2    3619    1851  -2
   7   4   3    3619    1851   1
  -8  -4  -3   49626    8569  -2
   8   4   3   49626    8569   1
   9   4   3   15249    3734   1
  -4   5   3    3273    3200   1
  -3   5   3   67167    3642   1
  -2   5   3   19226    2131   1
  -1   5   3    1354    1208   1
   0   5   3     223    1026   1
   1   5   3    9522    1466   1
   2   5   3   42706    2468   1
   3   5   3   16704    2087   1
   4   5   3   56770    2944   1
   5   5   3   69899    3149   1
  -6  -2   0   -1364    1971  -2
   6   5   3   -1364    1971   1
  -7  -3  -1    5111    2397  -2
   7   5   3    5111    2397   1
   8   5   3    5835    3157   1
   9   5   3   12791    3739   1
  -3   6   3   14994    2453   1
  -2   6   3   31828    4952   1
  -1   6   3   10815    1804   1
   0   6   3    7673    1623   1
   1   6   3    8801    1741   1
   2   6   3    7759    1457   1
   3   6   3    2541    1360   1
   4   6   3   63940    4494   1
   5   6   3  220891    6877   1
   6   6   3  101001    7970   1
   7   6   3    -622    2374   1
   8   6   3   14957    3350   1
   9   6   3   -3109    3109   1
  -2   7   3    2301    2232   1
  -1   7   3   -1445    1445   1
   0   7   3   40293    4136   1
   1   7   3  148342    5969   1
   2   7   3   19266    2561   1
   3   7   3    2223    1711   1
  -4   0   4   46652    4167  -2
   4   7   3   46652    4167   1
   5   7   3    4959    1759   1
   6   7   3   32807    6628   1
   7   7   3   30748    4059   1
   8   7   3   16410    3819   1
   9   7   3     861    4005   1
  -1   8   3    1678    4206   1
   0   8   3   -1979    2197   1
   1   8   3      10    2070   1
   2   8   3   33070    5228   1
  -3   1   6   85380    5790  -2
   3   8   3   85380    5790   1
   4   8   3    8731    2928   1
   5   8   3   -1028    3171   1
   6   8   3    1281    2058   1
   7   8   3    -285    3198   1
   8   8   3   12900    4555   1
   0   9   3    1114    4314   1
   1   9   3   -2420    2420   1
  -2   2   8     495    2567  -2
   2   9   3     495    2567   1
   3   9   3    8785    2583   1
   4   9   3    9215    3020   1
   5   9   3   31964    6542   1
   6   9   3   26222    6370   1
   7   9   3   -2797    2797   1
   8   9   3   -3896    4771   1
   2  10   3   -3057    3828   1
   3  10   3   -2727    3085   1
   4  10   3    1067    2853   1
   5  10   3   29707    6542   1
   6  10   3   33078    7570   1
  -4  -9   4     576    8642   1
   3   5  -8    3931    4485  -2
  -3  -9   4    3931    4485   1
  -2  -9   4    -971    4485   1
  -1  -9   4   -2028    4485   1
  -5  -8   4    3311    3274   1
   4   6  -6     887    2835  -2
  -4  -8   4     887    2835   1
  -3  -8   4   11825    9197   1
  -2  -8   4   16385    4084   1
  -1  -8   4   11255    5228   1
   0  -8   4   15166    5856   1
   1  -8   4    3904    4671   1
   2  -8   4    3742    5371   1
  -6  -7   4   11816    9054   1
   5   7  -4   26614    4542  -2
  -5  -7   4   26614    4542   1
  -4  -7   4    5745    3312   1
  -3  -7   4    1039    2280   1
  -2  -7   4    3920    2912   1
  -1  -7   4   48341    5583   1
   0  -7   4   76728    5484   1
   1  -7   4    6033    2864   1
   2  -7   4    2797    9141   1
   3  -7   4    2772    3734   1
   6   8  -2    5339    4214  -2
  -6  -6   4    5339    4214   1
  -5  -6   4   24112    4999   1
  -4  -6   4   36235    8397   1
  -3  -6   4   23331    5056   1
  -2  -6   4     945    1952   1
  -1  -6   4    5702    1917   1
   0  -6   4    1202    1498   1
   1  -6   4   11257    4412   1
   2  -6   4   21905    6242   1
  -3   0 -10    4509    3693  -2
   3  -6   4    4509    3693   1
   4  -6   4   -3596    3596   1
   7   9   0    7542    5142  -2
  -7  -5   4    7542    5142   1
  -6  -5   4    2628    4028   1
  -5  -5   4   16637    3544   1
  -4  -5   4   27850    5913   1
  -3  -5   4   19299    4142   1
  -2  -5   4    3802    2070   1
  -1  -5   4    1951    2098   1
   0  -5   4    7469    1433   1
  -1   2  -7    2360    1802  -2
   1  -5   4    2360    1802   1
  -2   1  -8   10097    2999  -2
   2  -5   4   10097    2999   1
   3  -5   4   16166    3666   1
   4  -5   4    8412    8626   1
   5  -5   4    4898    3856   1
  -7  -4   4    9113    5142   1
  -6  -4   4   -1314    3771   1
  -5  -4   4    -400    2971   1
  -4  -4   4    5532    2103   1
  -3  -4   4   -1185    1185   1
  -2  -4   4   64070    5589   1
  -1  -4   4    3175    1335   1
   0   3  -5   48328    2549  -2
   0  -4   4   48328    2549   1
  -1   2  -6   84925    3775  -2
   1  -4   4   84925    3775   1
   2  -4   4    5454    3014   1
   3  -4   4    5949    5799   1
   4  -4   4    1763    3871   1
   5  -4   4     446    3227   1
   6  -4   4   20170    4898   1
  -7  -3   4   -2628    4656   1
  -6  -3   4   19880    5856   1
  -5  -3   4   16052    4828   1
  -4  -3   4   -2000    2200   1
  -3  -3   4    6438    4256   1
  -2  -3   4    1172     966   1
   1   4  -3   22995    1704  -2
  -1  -3   4   22995    1704   1
   0   3  -4  102651    3367  -2
   0  -3   4  102651    3367   1
   1  -3   4  214692    5042   1
   2  -3   4   75345    2837   1
   3  -3   4   15138    3054   1
   4  -3   4    2799    2257   1
   5  -3   4   15472    4019   1
   6  -3   4   27730    4754   1
   7  -3   4    4777    7699   1
  -7  -2   4   -4885    4885   1
  -6  -2   4    7942    4885   1
  -5  -2   4   -2685    2685   1
  -4  -2   4    4342    3257   1
  -3  -2   4  132997    6134   1
   2   5  -1  197424    4845  -2
  -2  -2   4  197424    4845   1
  -1  -2   4    2086     738   1
   0  -2   4    3409     768   1
   1  -2   4   38857    1800   1
   2  -2   4  101652    2997   1
   3  -2   4   46450    3036   1
   4  -2   4   25904    3873   1
   5  -2   4    9465    3016   1
   6  -2   4     587    2929   1
  -7  -3  -9   18128    6755  -2
   7  -2   4   18128    6755   1
  -7  -1   4   -4117    5728   1
  -6  -1   4   11055    4942   1
  -5  -1   4    7884    4085   1
  -4  -1   4   27850    5571   1
   3   6   1  216098    9012  -2
  -3  -1   4  216098    9012   1
  -2  -1   4   96712    4765   1
  -1  -1   4  154552    3612   1
   0  -1   4   85658    2480   1
   1  -1   4    7395     915   1
   2  -1   4   20825    1415   1
   3  -1   4    5251    1835   1
   4  -1   4   19075    1932   1
  -5  -1  -6   62533    5771  -2
   5  -1   4   62533    5771   1
  -6  -2  -7   24528    3069  -2
   6  -1   4   24528    3069   1
   7  -1   4    -852    2250   1
   8  -1   4   -3601    3601   1
  -6   0   4   19733    7597   1
  -5   0   4   19765    4914   1
   4   7   3   20051    4428  -2
  -4   0   4   20051    4428   1
  -3   0   4   20063    4299   1
  -2   0   4   55992    2059   1
  -1   0   4   50703    2120   1
   0   0   4    4699     733   1
   1   0   4   12172     997   1
   2   0   4  117595    3307   1
   3   0   4  129351    3757   1
  -4   0  -4  461951    8301  -2
   4   0   4  461951    8301   1
  -5  -1  -5   18000    1975  -2
   5   0   4   18000    1975   1
   6   0   4   10221    2764   1
   7   0   4   44795    4232   1
   8   0   4   16818    4448   1
  -6   1   4     167    3524   1
  -5   1   4   89478    9199   1
  -4   1   4   29421    5742   1
  -3   1   4    8770    3171   1
  -2   1   4   18588    5012   1
  -1   1   4   52803    2182   1
   0   1   4  289200    5558   1
   1   1   4   32702    1203   1
   2   1   4   46471    1874   1
  -3   1  -2  275046    5793  -2
   3   1   4  275046    5793   1
  -4   0  -3  140223    4001  -2
   4   1   4  140223    4001   1
   5   1   4    8943    1515   1
   6   1   4   14103    2504   1
   7   1   4   14126   10583   1
   8   1   4   -4228    4228   1
   9   1   4   -5199    5656   1
  -6   2   4    9570    5885   1
  -5   2   4   40149    8283   1
  -4   2   4    1775    2485   1
  -3   2   4    1688    1190   1
  -2   2   4   95294    7797   1
  -1   2   4   52673    2829   1
   0   2   4   14487    2361   1
   1   2   4    5143    1051   1
  -2   2   0   55868    1859  -2
   2   2   4   55868    1859   1
   3   2   4  214697    5549   1
   4   2   4    9057    1213   1
   5   2   4   23167    2192   1
   6   2   4   18165    2089   1
   7   2   4   16691    3280   1
   8   2   4   14709    6085   1
   9   2   4    1228    5056   1
  -5   3   4    9279    3062   1
  -4   3   4    5512    1589   1
  -3   3   4   13677    1839   1
  -2   3   4   10731    1781   1
  -1   3   4   27110    2253   1
   0   3   4   80121    2965   1
  -1   3   2   42165    2362  -2
   1   3   4   42165    2362   1
   2   3   4   21957    1835   1
   3   3   4   21665    1641   1
   4   3   4    8810    1727   1
   5   3   4   43961    2469   1
   6   3   4   27167    2868   1
   7   3   4    -611    2182   1
   8   3   4    1704    2811   1
   9   3   4    -828    6456   1
  -4   4   4    2763    2564   1
  -3   4   4    1889    1673   1
  -2   4   4   68075    3428   1
  -1   4   4   95666    3855   1
   0   4   4   45903    3214  -2
   0   4   4   45903    3214   1
   1   4   4   30373    4654   1
   2   4   4   82860    3622   1
   3   4   4   59774    2312   1
   4   4   4   20596    1806   1
   5   4   4   60429    3556   1
   6   4   4   16970    3282   1
   7   4   4   26964    4001   1
  -8  -3  -3   37662    4797  -2
   8   4   4   37662    4797   1
  -9  -4  -4     236    7256  -2
   9   4   4     236    7256   1
  -4   5   4   22321    3064   1
  -3   5   4    6395    2007   1
  -2   5   4    6419    1631   1
   1   5   6   72964    3357  -2
  -1   5   4   72964    3357   1
   0   5   4    4571    1914   1
   1   5   4   75746    3995   1
   2   5   4   25698    2095   1
   3   5   4   25968    2845   1
   4   5   4   65033    3025   1
   5   5   4    2389    1453   1
   6   5   4    9514    2704   1
  -7  -2  -1    9113    3399  -2
   7   5   4    9113    3399   1
  -8  -3  -2   48889    5157  -2
   8   5   4   48889    5157   1
   9   5   4   31710    4957   1
  -3   6   4    9552    2403   1
  -2   6   4   16407    2243   1
  -1   6   4   40286    2873   1
   0   6   4    8564    1740   1
   1   6   4   20463    2679   1
   2   6   4   11724    1754   1
   3   6   4   30495    4214   1
   4   6   4  142309    6663   1
   5   6   4   77636    3658   1
   6   6   4   36759    8526   1
  -7  -2   0   14771    3475  -2
   7   6   4   14771    3475   1
   8   6   4   15996    3611   1
   9   6   4   10140    4196   1
  -2   7   4   -2287    2287   1
  -1   7   4    4904    1943   1
   0   7   4   56600    4964   1
   1   7   4   27117    3585   1
   2   7   4    1838    1324   1
   3   7   4    3502    1356   1
   4   7   4   11295    3011   1
   5   7   4   31227    7585   1
   6   7   4   32601    4971   1
   7   7   4     792    5513   1
   8   7   4   -1127    2883   1
   9   7   4    2587    4868   1
  -1   8   4   15103    3802   1
   0   8   4   28335    4039   1
   1   8   4   18585    3237   1
   2   8   4   23014    2668   1
   3   8   4   10404    2318   1
  -4   1   5   14910    3869  -2
   4   8   4   14910    3869   1
   5   8   4   27479    7399   1
   6   8   4   26736    5913   1
   7   8   4    8523    8154   1
   8   8   4   14496    5141   1
   1   9   4    2616    2916   1
   2   9   4   18240    3771   1
  -3   2   7   33254    9027  -2
   3   9   4   33254    9027   1
   4   9   4   18537    5371   1
   5   9   4    9484    4199   1
   6   9   4     171    3571   1
   7   9   4    3571    3914   1
   8   9   4   -6228    8170   1
   3  10   4   13776    3238   1
   4  10   4    5428    4256   1
   5  10   4    5056    4599   1
   6  10   4    5628    4856   1
  -4  -8   5   16980    6826   1
   3   6  -7    2629    5442  -2
  -3  -8   5    2629    5442   1
   2   5  -8   -4406    5399  -2
  -2  -8   5   -4406    5399   1
  -1  -8   5    1196    3199   1
   0  -8   5    7570    4771   1
   1  -8   5   -3257    3257   1
  -5  -7   5    5142    5485   1
   4   7  -5    3060    2741  -2
  -4  -7   5    3060    2741   1
  -3  -7   5   12216    3669   1
  -2  -7   5   13258    6569   1
  -1  -7   5   34774    4476   1
   0  -7   5    9735    3819   1
   1  -7   5   -2762    5542   1
   2  -7   5    2544    3706   1
   3  -7   5   11484    5628   1
  -6  -6   5   21222    6828   1
   5   8  -3   15452    3358  -2
  -5  -6   5   15452    3358   1
  -4  -6   5    7141    3090   1
  -3  -6   5    -375    2626   1
  -2  -6   5    -214    2671   1
  -1  -6   5    2563    2582   1
   0  -6   5   23687    3129   1
   1  -6   5   52793    3973   1
   2  -6   5    2278    2979   1
   3  -6   5    8844    3675   1
  -4   0 -11     615    3863  -2
   4  -6   5     615    3863   1
   6   9  -1    8142    5313  -2
  -6  -5   5    8142    5313   1
  -5  -5   5   26310    3623   1
  -4  -5   5   46930    6742   1
  -3  -5   5   29581    4542   1
  -2  -5   5    -770    4885   1
  -1  -5   5    2613    2085   1
   0  -5   5    3616    2111   1
   1  -5   5   40031    3370   1
  -2   2  -8   30338    4392  -2
   2  -5   5   30338    4392   1
  -3   1  -9   28162    7699  -2
   3  -5   5   28162    7699   1
   4  -5   5   15522    3900   1
   5  -5   5   10676    6683   1
  -6  -4   5    3485    5171   1
  -5  -4   5    3971    4057   1
  -4  -4   5    6393    2467   1
  -3  -4   5   99798    5166   1
  -2  -4   5   72814    4754   1
  -1  -4   5    5282    1779   1
   0  -4   5    2598    1503   1
  -1   3  -6     787    1503  -2
   1  -4   5     787    1503   1
  -2   2  -7    8956    1693  -2
   2  -4   5    8956    1693   1
   3  -4   5   13659    3181   1
   4  -4   5   27326    7170   1
   5  -4   5   16463    4129   1
   6  -4   5   -2720    3851   1
  -6  -3   5    1400    4685   1
  -5  -3   5    5856    4057   1
  -4  -3   5    4742    3628   1
  -3  -3   5    -415    1717   1
  -2  -3   5    1492    1823   1
  -1  -3   5   32582    3418   1
   0   4  -4   52490    2611  -2
   0  -3   5   52490    2611   1
  -1   3  -5    3058    1232  -2
   1  -3   5    3058    1232   1
   2  -3   5    3703    1459   1
   3  -3   5   -1518    1977   1
   4  -3   5    1307    2224   1
   5  -3   5   14358    4155   1
   6  -3   5    2053    3758   1
   7  -3   5   -1200    4010   1
  -6  -2   5    9513    5428   1
  -5  -2   5   13655    4856   1
  -4  -2   5   12112    4399   1
  -3  -2   5    4547    1784   1
  -2  -2   5   26569    2555   1
   1   5  -2   41347    2095  -2
  -1  -2   5   41347    2095   1
   0   4  -3   37257    1967  -2
   0  -2   5   37257    1967   1
   1  -2   5  106524    3221   1
   2  -2   5  103610    3324   1
   3  -2   5    7693    1659   1
   4  -2   5     556    2066   1
   5  -2   5   -2340    2340   1
   6  -2   5    4118    3080   1
   7  -2   5    6990    5185   1
  -6  -1   5     114    4028   1
  -5  -1   5   16937    5571   1
  -4  -1   5   19166    4199   1
  -3  -1   5   26427    7485   1
   2   6   0   42929    2787  -2
  -2  -1   5   42929    2787   1
  -1  -1   5    5106    1010   1
   0  -1   5    2622     836   1
   1  -1   5   15164    1272   1
   2  -1   5  101707    3298   1
   3  -1   5   31206    2989   1
   4  -1   5    1846    2131   1
   5  -1   5    1988    1626   1
   6  -1   5    2890    2392   1
  -7  -2  -8    -762    6927  -2
   7  -1   5    -762    6927   1
   8  -1   5    1753    4571   1
  -5   0   5    4028    4171   1
  -4   0   5    9570    3714   1
   3   7   2   19280    4085  -2
  -3   0   5   19280    4085   1
  -2   0   5  168537    8825   1
  -1   0   5   74945    2928   1
   0   0   5    5843     896   1
   1   0   5   10371     987   1
   2   0   5    3593     881   1
   3   0   5   33177    2081   1
   4   0   5   33225    2561   1
  -5   0  -5  130615    5550  -2
   5   0   5  130615    5550   1
  -6  -1  -6  127177    7967  -2
   6   0   5  127177    7967   1
   7   0   5    1273    3050   1
   8   0   5    3479    3600   1
  -5   1   5    2371    4656   1
   4   8   4    6742    3971  -2
  -4   1   5    6742    3971   1
  -3   1   5    2055    1928   1
  -2   1   5   13306    1998   1
  -1   1   5   39473    2650   1
   0   1   5    9490    1134   1
   1   1   5   48337    1722   1
   2   1   5   54153    2181   1
   3   1   5    3096     914   1
  -4   1  -3    1619    1058  -2
   4   1   5    1619    1058   1
  -5   0  -4   23312    2425  -2
   5   1   5   23312    2425   1
   6   1   5  109149    5098   1
   7   1   5   15855    3092   1
   8   1   5     241    5028   1
   9   1   5     949    4287   1
  -5   2   5   28553    4855   1
  -4   2   5   12884    5228   1
  -3   2   5   14678    2336   1
  -2   2   5   17406    2627   1
  -1   2   5    1089     835   1
   0   2   5   18518    1400   1
   1   2   5   91931    3825   1
   2   2   5  158061    4549   1
   3   2   5  132464    3642   1
  -4   1  -2    9658    1925  -2
   4   2   5    9658    1925   1
   5   2   5    1275    1464   1
   6   2   5   12779    3437   1
   7   2   5   13168    3533   1
   8   2   5   11998    5885   1
   9   2   5    8684    6028   1
  -5   3   5    7576    4499   1
  -4   3   5   12389    2904   1
  -3   3   5   36753    3799   1
  -2   3   5   12604    2596   1
  -1   3   5     268    1067   1
   0   3   5    2031    1192   1
   1   3   5   20421    2494   1
   2   3   5  183595    7335   1
   3   3   5  337288    7612   1
   4   3   5  118278    4099   1
   5   3   5    5101    1546   1
   6   3   5    2598    2090   1
   7   3   5   12666    2951   1
   8   3   5   33131    4782   1
   9   3   5    5970    6056   1
  -4   4   5      85    2619   1
  -3   4   5   11857    2237   1
  -2   4   5   19936    5002   1
  -1   4   5  153360    5572   1
   0   4   5  140426    5290   1
  -1   4   3    -382    1068  -2
   1   4   5    -382    1068   1
   2   4   5    1929    1155   1
   3   4   5    4239     882   1
   4   4   5   55796    2559   1
   5   4   5   10002    2741   1
   6   4   5    5365    2290   1
   7   4   5   35837    4443   1
   8   4   5    5164    4514   1
   9   4   5    2141    4456   1
  -3   5   5   -1731    1810   1
  -2   5   5    4057    1575   1
  -1   5   5   44624    2832   1
   0   5   5   84334    3546  -2
   0   5   5   84334    3546   1
   2   5   5    4228    2657   1
   3   5   5    5172    1957   1
   4   5   5   14081    1692   1
   5   5   5    5758    1483   1
   6   5   5    7955    2629   1
   7   5   5   31582    5442   1
  -8  -2  -2   14260    3591  -2
   8   5   5   14260    3591   1
  -9  -3  -3    2767    5742  -2
   9   5   5    2767    5742   1
  -2   6   5   -1666    1666   1
   1   6   7    1255    1627  -2
  -1   6   5    1255    1627   1
   0   6   5   32648    2533   1
   1   6   5   13606    4141   1
   2   6   5    -971    2200   1
   3   6   5   25852    3106   1
   4   6   5   59067    4278   1
   5   6   5    7844    1668   1
   6   6   5    4834    2027   1
   7   6   5   23660    4685   1
  -8  -2  -1   54937    5747  -2
   8   6   5   54937    5747   1
   9   6   5    3808    4042   1
  -1   7   5    -979    2070   1
   0   7   5    6134    2277   1
   1   7   5    2902    2314   1
   2   7   5   21028    4584   1
   3   7   5   64945    4481   1
   4   7   5   31095    4956   1
   5   7   5   28707    6199   1
   6   7   5   57991    4264   1
  -7  -1   1   15979    7740  -2
   7   7   5   15979    7740   1
   8   7   5    5457    3104   1
   9   7   5   28872   14782   1
   0   8   5    8779    2564   1
   1   8   5   33419    3729   1
   2   8   5   19384    4169   1
   3   8   5    7995    2714   1
   4   8   5    9980    4684   1
   5   8   5  108702    6900   1
   6   8   5   15595    5313   1
   7   8   5   -2341    4399   1
   8   8   5    3762    3785   1
   1   9   5   31569    4030   1
   2   9   5   15966    3293   1
   3   9   5    5999    4342   1
   4   9   5    3447    3728   1
   5   9   5    5313    3942   1
   6   9   5   27650    6428   1
   7   9   5   24022    7542   1
   4  10   5   11455    5056   1
   5  10   5     -57    4971   1
  -3  -8   6    2657    4942   1
   2   6  -8    4552    8799  -2
  -2  -8   6    4552    8799   1
   1   5  -9   -3369    3369  -2
  -1  -8   6   -3369    3369   1
   0  -8   6    6713    5113   1
  -4  -7   6    7803    7340   1
   3   7  -6    8720    3631  -2
  -3  -7   6    8720    3631   1
   2   6  -7    4717    5085  -2
  -2  -7   6    4717    5085   1
  -1  -7   6   11294    3304   1
   0  -7   6   -1664    2899   1
   1  -7   6   11800    4055   1
   2  -7   6   22864    4857   1
  -5  -6   6      86    4942   1
   4   8  -4   -4314    4542  -2
  -4  -6   6   -4314    4542   1
  -3  -6   6   20105    6498   1
  -2  -6   6   23263    3825   1
  -1  -6   6   24958    3907   1
   0  -6   6   10253    3175   1
   1  -6   6     387    2268   1
   2  -6   6    6056    3575   1
   3  -6   6    2702    5213   1
   4  -6   6   12555    4888   1
   5   9  -2    9656    5913  -2
  -5  -5   6    9656    5913   1
  -4  -5   6   14150    4286   1
  -3  -5   6    1909    2982   1
  -2  -5   6   20229    3558   1
  -1  -5   6    2490    2282   1
   0  -5   6    8959    3262   1
   1  -5   6   11920    4640   1
   2  -5   6    3556    2121   1
  -3   2  -9    2499    3434  -2
   3  -5   6    2499    3434   1
  -4   1 -10    1075    3454  -2
   4  -5   6    1075    3454   1
   5  -5   6    1685    6542   1
  -5  -4   6    -343    4199   1
  -4  -4   6    8277    4228   1
  -3  -4   6   11906    3048   1
  -2  -4   6   14496    4612   1
  -1  -4   6    2054    1797   1
   0  -4   6   11620    2636   1
   1  -4   6    6864    1978   1
  -2   3  -7    9180    1927  -2
   2  -4   6    9180    1927   1
  -3   2  -8   15256    3697  -2
   3  -4   6   15256    3697   1
   4  -4   6    9800    3364   1
   5  -4   6   -3070    3162   1
   6  -4   6    -828    4028   1
  -6  -3   6   -4571    4571   1
  -5  -3   6    2342    4142   1
  -4  -3   6   12341    4542   1
  -3  -3   6   13904    4169   1
  -2  -3   6    1510    1642   1
  -1  -3   6    3633    1686   1
   0  -3   6   29027    5271   1
  -1   4  -5     276    1543  -2
   1  -3   6     276    1543   1
  -2   3  -6   60331    3905  -2
   2  -3   6   60331    3905   1
   3  -3   6   35509    3172   1
   4  -3   6   22322    4047   1
   5  -3   6   16487    7083   1
   6  -3   6    1722    3524   1
  -6  -2   6    5513    5799   1
  -5  -2   6    -429    3428   1
  -4  -2   6   -3114    3114   1
  -3  -2   6    3688    2118   1
  -2  -2   6   10368    2385   1
  -1  -2   6   84914    3857   1
   0   5  -3  116232    4551  -2
   0  -2   6  116232    4551   1
  -1   4  -4   88697    3897  -2
   1  -2   6   88697    3897   1
   2  -2   6   10754    1780   1
   3  -2   6    -119    1518   1
   4  -2   6    5190    1714   1
   5  -2   6   21125    4084   1
   6  -2   6   22514    6242   1
   7  -2   6    2606    3896   1
  -5  -1   6   -3914    3914   1
  -4  -1   6   27936    6828   1
  -3  -1   6   33576    7899   1
  -2  -1   6    7162    1849   1
   1   6  -1  139383    8791  -2
  -1  -1   6  139383    8791   1
   0  -1   6   35049    3896   1
   1  -1   6  165076    4312   1
   2  -1   6  139851    4692   1
   3  -1   6     355    1418   1
   4  -1   6    2288    2241   1
   5  -1   6   -1745    1745   1
   6  -1   6   14759    2613   1
   7  -1   6   14735    4569   1
  -8  -2  -9   -4614    4614  -2
   8  -1   6   -4614    4614   1
  -5   0   6    5485    4856   1
  -4   0   6   11313    4542   1
  -3   0   6   55100    8113   1
   2   7   1   29594    2654  -2
  -2   0   6   29594    2654   1
  -1   0   6    2313    1228   1
   0   0   6   11486    1201   1
   1   0   6    4653    1021   1
   2   0   6   22578    1521   1
   3   0   6   34585    2649   1
   4   0   6   12436    2314   1
   5   0   6   11881    1888   1
   6   0   6   51997    4475   1
  -7  -1  -7   -3718    5342  -2
   7   0   6   -3718    5342   1
   8   0   6    1653    3801   1
  -5   1   6   -3714    4999   1
  -4   1   6    9256    4656   1
   3   8   3  102359    8826  -2
  -3   1   6  102359    8826   1
  -2   1   6   86974    3378   1
  -1   1   6   18365    1800   1
   0   1   6    6823    1505   1
   1   1   6    6716     964   1
   2   1   6   92120    3116   1
   3   1   6   18528    1893   1
   4   1   6     489    1256   1
  -5   1  -4   81509    4522  -2
   5   1   6   81509    4522   1
  -6   0  -5  137060    5401  -2
   6   1   6  137060    5401   1
   7   1   6    4109    4519   1
   8   1   6    3028    5285   1
  -4   2   6    6428    4428   1
  -3   2   6    9899    4931   1
  -2   2   6    -754    1518   1
  -1   2   6    5718    1253   1
   0   2   6   49836    2224   1
   1   2   6   30616    2751   1
   2   2   6   20494    2307   1
   3   2   6    9369    1287   1
   4   2   6   11500    1705   1
  -5   1  -3    7470    3020  -2
   5   2   6    7470    3020   1
   6   2   6    9845    2215   1
   7   2   6   45369    3891   1
   8   2   6    6229    2887   1
   9   2   6   10343    4542   1
  -4   3   6   19055    3547   1
  -3   3   6   12330    2992   1
  -2   3   6    1013    1828   1
  -1   3   6    -296    1212   1
   0   3   6    -223    1100   1
   1   3   6    7259    1918   1
   2   3   6  109074    4732   1
   3   3   6  128595    4985   1
   4   3   6    1805    1217   1
   5   3   6    4338    1937   1
   6   3   6     956    2019   1
   7   3   6   52195    5120   1
   8   3   6   15855    3801   1
   9   3   6    3116    5213   1
  -3   4   6   -1110    2809   1
  -2   4   6   35446    3287   1
  -1   4   6   24531    2505   1
   0   4   6   33227    3187   1
   1   4   6   17355    2690   1
   2   4   6    1830    1578   1
   3   4   6  119350    5896   1
   4   4   6  132928    4188   1
   5   4   6   23292    2841   1
   6   4   6      72    2160   1
   7   4   6    7752    3113   1
   8   4   6    8879    3282   1
   9   4   6    3170    3625   1
  -3   5   6    2640    4230   1
  -2   5   6   12743    3029   1
  -1   5   6   43215    2800   1
   0   5   6   55291    3744   1
  -1   5   4   77088    4757  -2
   1   5   6   77088    4757   1
   2   5   6   16195    3857   1
   3   5   6   31735    4914   1
   4   5   6   38163    2780   1
   5   5   6   14973    1720   1
   6   5   6   25119    3037   1
   7   5   6     447    3357   1
   8   5   6    -323    3333   1
   9   5   6   -3581    7270   1
  -2   6   6   -2169    2169   1
  -1   6   6    9762    2061   1
   0   6   6   58477    3347  -2
   0   6   6   58477    3347   1
   1   6   6   51986    6685   1
   2   6   6   14766    4057   1
   3   6   6    -257    2571   1
   4   6   6    4342    3228   1
   5   6   6   13009    1791   1
   6   6   6   21473    2671   1
   7   6   6   36857    5228   1
   8   6   6   48028    5490   1
  -9  -2  -2    7385    7969  -2
   9   6   6    7385    7969   1
   1   7   8   -2492    3414  -2
  -1   7   6   -2492    3414   1
   0   7   6      94    3483   1
   1   7   6    3142    3657   1
   3   7   6   37734    9027   1
   4   7   6   16658    3133   1
   5   7   6    8827    4199   1
   6   7   6    -624    3085   1
   7   7   6     841    3971   1
  -8  -1   0   14519    6712  -2
   8   7   6   14519    6712   1
   9   7   6    1543    6285   1
   0   8   6    8427    4999   1
   1   8   6    6064    3071   1
   2   8   6    6428    4114   1
   3   8   6     686    3485   1
   4   8   6   37195    5512   1
   5   8   6   28879    3890   1
   6   8   6     327    3053   1
   7   8   6    2685    4485   1
   8   8   6    -538    4001   1
   2   9   6   -3428    3942   1
   4   9   6    7799    5513   1
   5   9   6   40077    8342   1
   6   9   6   16366    5571   1
   7   9   6    6856    5256   1
  -3  -7   7    3485    5742   1
   2   7  -7    3599    4828  -2
  -2  -7   7    3599    4828   1
   1   6  -8    4958    4899  -2
  -1  -7   7    4958    4899   1
   0  -7   7    1874    3579   1
   1  -7   7    5437    6056   1
  -4  -6   7    -828    4885   1
   3   8  -5    1952    3371  -2
  -3  -6   7    1952    3371   1
   2   7  -6    -859    3212  -2
  -2  -6   7    -859    3212   1
  -1  -6   7   12936    3584   1
   0  -6   7    4998    3368   1
   1  -6   7   -2641    2641   1
   2  -6   7   15492    4104   1
   3  -6   7   29786    5339   1
   4   9  -3   -4057    4057  -2
  -4  -5   7   -4057    4057   1
  -3  -5   7   16873    3931   1
  -2  -5   7   22125    4517   1
  -1  -5   7   26616    5026   1
   0  -5   7    9742    3605   1
   1  -5   7   -1848    2166   1
   2  -5   7    -708    2577   1
   3  -5   7   10511    3858   1
   4  -5   7   19081    4454   1
   5  10  -1   -4571    4571  -2
  -5  -4   7   -4571    4571   1
  -4  -4   7   -3914    3914   1
  -3  -4   7    -943    3799   1
  -2  -4   7    1258    2757   1
  -1  -4   7   61370    5389   1
   0  -4   7   63872    8199   1
   1  -4   7   12366    2526   1
   2  -4   7    -381    1908   1
  -3   3  -8   -1028    2471  -2
   3  -4   7   -1028    2471   1
  -4   2  -9     492    3234  -2
   4  -4   7     492    3234   1
   5  -4   7   -1332    3506   1
  -5  -3   7   14481    5428   1
  -4  -3   7   15423    6285   1
  -3  -3   7    7848    6098   1
  -2  -3   7     666    2342   1
  -1  -3   7    1535    2500   1
   0  -3   7    4288    2021   1
   1  -3   7   21825    2690   1
  -2   4  -6   12754    2540  -2
   2  -3   7   12754    2540   1
  -3   3  -7    -822    2376  -2
   3  -3   7    -822    2376   1
   4  -3   7    3199    1933   1
   5  -3   7    8668    3725   1
   6  -3   7    6913    4314   1
  -5  -2   7   -3914    4571   1
  -4  -2   7   -1800    3628   1
  -3  -2   7   32222    3702   1
  -2  -2   7    2226    2726   1
  -1  -2   7    7330    3289   1
   0  -2   7    3550    1711   1
  -1   5  -4    3834    1806  -2
   1  -2   7    3834    1806   1
  -2   4  -5    9518    3064  -2
   2  -2   7    9518    3064   1
   3  -2   7   19327    2523   1
   4  -2   7   36967    3482   1
   5  -2   7   20902    2247   1
   6  -2   7   -1140    3046   1
   7  -2   7    3290    6199   1
  -5  -1   7    4428    5713   1
  -4  -1   7    2800    4828   1
  -3  -1   7    2954    2272   1
  -2  -1   7   11168    4355   1
  -1  -1   7    5829    1935   1
   0   6  -2   47679    3141  -2
   0  -1   7   47679    3141   1
   1  -1   7  106000    4701   1
   2  -1   7   13035    1941   1
   3  -1   7    -802    1438   1
   4  -1   7    7488    2093   1
   5  -1   7   18194    2634   1
   6  -1   7   -1600    2042   1
   7  -1   7   -1314    5571   1
  -4   0   7    1200    3999   1
  -3   0   7    -171    3914   1
  -2   0   7   -1123    2574   1
   1   7   0    6948    1691  -2
  -1   0   7    6948    1691   1
   0   0   7   86128    5372   1
   1   0   7   92836    3636   1
   2   0   7   20172    1818   1
   3   0   7   12214    1925   1
   4   0   7    9130    2071   1
   5   0   7    3002    1831   1
   6   0   7   31075    7817   1
   7   0   7   40859    5406   1
  -8  -1  -8   17612    5208  -2
   8   0   7   17612    5208   1
  -4   1   7    4628    4428   1
  -3   1   7   14852    6256   1
   2   8   2   54377    3104  -2
  -2   1   7   54377    3104   1
  -1   1   7   15197    1935   1
   0   1   7   -1134    1134   1
   1   1   7    9373    1862   1
   2   1   7   45385    2604   1
   3   1   7   41691    3061   1
   4   1   7   12066    2190   1
   5   1   7   11378    2189   1
   6   1   7    7178    2391   1
  -7   0  -6   -2709    2709  -2
   7   1   7   -2709    2709   1
   8   1   7    4084    3863   1
  -4   2   7    1257    5571   1
   3   9   4   26694    3465  -2
  -3   2   7   26694    3465   1
  -2   2   7   40672    3347   1
  -1   2   7   28840    2412   1
   0   2   7   10199    2198   1
   1   2   7   11971    2456   1
   2   2   7    3137    1932   1
   3   2   7   51257    2845   1
   4   2   7   30890    2898   1
   5   2   7   26896    4286   1
  -6   1  -4   23835    3061  -2
   6   2   7   23835    3061   1
   7   2   7    2632    2461   1
   8   2   7    -814    3195   1
  -3   3   7    2731    2198   1
  -2   3   7   10652    1789   1
  -1   3   7   46573    3010   1
   0   3   7     717    2357   1
   1   3   7    -780    1622   1
   2   3   7   36245    3918   1
   3   3   7    3005    2251   1
   4   3   7   45040    4102   1
  -5   2  -2   46112    4320  -2
   5   3   7   46112    4320   1
   6   3   7   61283    4568   1
   7   3   7   18496    6588   1
   8   3   7    1828    2979   1
   9   3   7   -2004    3243   1
  -3   4   7    1938    4515   1
  -2   4   7    -523    2298   1
  -1   4   7   -2400    2400   1
   0   4   7   13498    2626   1
   1   4   7   78612    5359   1
   2   4   7  133833    6634   1
   3   4   7   30547    3720   1
   4   4   7    7214    2078   1
   5   4   7   12432    1870   1
   6   4   7   -1928    1928   1
   7   4   7    8360    3871   1
   8   4   7    9913    5428   1
   9   4   7   15509    4681   1
  -2   5   7   14358    2683   1
  -1   5   7   14571    5124   1
   0   5   7   -1182    1903   1
   1   5   7     543    2857   1
   2   5   7   15403    3727   1
   4   5   7   15294    4426   1
   5   5   7    2704    2433   1
   6   5   7    1978    1961   1
   7   5   7   -3342    3342   1
   8   5   7    3565    3262   1
   9   5   7    9704    3974   1
  -1   6   7     416    3088   1
   0   6   7    9767    2280   1
  -1   6   5     577    1898  -2
   1   6   7     577    1898   1
   2   6   7    4399    3085   1
   3   6   7    3857    3314   1
   4   6   7    6628    4171   1
   5   6   7   20937    4456   1
   6   6   7   24451    3346   1
   7   6   7   17330    4398   1
   9   6   7   -4256    5913   1
   0   7   7   43748    6756  -2
   0   7   7   43748    6756   1
   1   7   7    9827    4742   1
   2   7   7   10570    4542   1
   3   7   7   18366    5913   1
   4   7   7    5028    3857   1
   5   7   7   32278    7027   1
   6   7   7   -3157    3157   1
   7   7   7   19597    3666   1
   8   7   7   65578    6451   1
   1   8   7   -4171    4371   1
   2   8   7   -2942    3685   1
   3   8   7   62299   10313   1
   4   8   7   40162    8199   1
   5   8   7    7856    4885   1
   6   8   7    1000    3657   1
   7   8   7   17909    6542   1
   4   9   7   28478    8027   1
   5   9   7   14255    5428   1
   6   9   7   -3971    5371   1
   2   8  -6     286    5285  -2
  -2  -6   8     286    5285   1
   1   7  -7   -1374    6728  -2
  -1  -6   8   -1374    6728   1
   0  -6   8   10160    5183   1
   1  -6   8    2493    5471   1
   2  -6   8   -1048    4060   1
   3   9  -4   -4285    4285  -2
  -3  -5   8   -4285    4285   1
   2   8  -5    8029   10625  -2
  -2  -5   8    8029   10625   1
  -1  -5   8    1395    6770   1
   0  -5   8   -2985    3857   1
   1  -5   8   -2720    5285   1
   2  -5   8     -72    3337   1
   3  -5   8    8395    5542   1
   4  10  -2     628    4685  -2
  -4  -4   8     628    4685   1
  -3  -4   8    3971    5771   1
  -2  -4   8    3277    3006   1
  -1  -4   8   19823    3699   1
   0  -4   8   46527    6183   1
   1  -4   8    7121    3914   1
   2  -4   8    1498    2188   1
   3  -4   8   -2243    2243   1
   4  -4   8    1491    5913   1
  -5   2 -10   10209    9626  -2
   5  -4   8   10209    9626   1
  -4  -3   8     -86    5142   1
  -3  -3   8   -3771    3771   1
  -2  -3   8   12227    5056   1
  -1  -3   8    4894    2785   1
   0  -3   8     542    2276   1
   1  -3   8    8727    3040   1
   2  -3   8   10342    2445   1
  -3   4  -7    3795    3164  -2
   3  -3   8    3795    3164   1
  -4   3  -8    3719    2351  -2
   4  -3   8    3719    2351   1
   5  -3   8    7652    4150   1
   6  -3   8   -4199    5856   1
  -4  -2   8    9427    5771   1
  -3  -2   8    -800    3857   1
  -2  -2   8   -2714    3742   1
  -1  -2   8    4447    5970   1
   0  -2   8     993    2302   1
   1  -2   8   70105    8226   1
  -2   5  -5   36098    4893  -2
   2  -2   8   36098    4893   1
  -3   4  -6   16009    2723  -2
   3  -2   8   16009    2723   1
   4  -2   8   23790    3483   1
   5  -2   8    3439    2386   1
   6  -2   8   -2708    6870   1
  -4  -1   8    -914    5399   1
  -3  -1   8    8091    5883   1
  -2  -1   8   12171    4584   1
  -1  -1   8   18007    4184   1
   0  -1   8    4495    2150   1
   1  -1   8   25843    6942   1
  -2   5  -4   11693    2278  -2
   2  -1   8   11693    2278   1
   3  -1   8   25004    3070   1
   4  -1   8   39368    4216   1
   5  -1   8   11257    3696   1
   6  -1   8    5267    4663   1
   7  -1   8    7690    4038   1
  -4   0   8    4428    5428   1
  -3   0   8    1400    4171   1
  -2   0   8    5429    2868   1
  -1   0   8    4231    3302   1
   0   0   8   38567    4423   1
   1   0   8   23296    2670   1
   2   0   8    2538    1414   1
   3   0   8    2528    1668   1
   4   0   8      96    1458   1
   5   0   8   26539    3647   1
   6   0   8    8396    3464   1
   7   0   8    2580    3404   1
  -3   1   8   -4028    4628   1
  -2   1   8   -1652    2690   1
   1   8   1   39683    3414  -2
  -1   1   8   39683    3414   1
   0   1   8   20058    2412   1
   1   1   8   31548    2811   1
   2   1   8   38565    3905   1
   3   1   8    2501    1711   1
   4   1   8   13695    2415   1
   5   1   8    1461    2394   1
   6   1   8    4000    2527   1
   7   1   8   21054    5232   1
  -8   0  -7   22256    5389  -2
   8   1   8   22256    5389   1
  -3   2   8   21508    7027   1
   2   9   3    3299    2087  -2
  -2   2   8    3299    2087   1
  -1   2   8   -1534    1534   1
   0   2   8    3558    2914   1
   1   2   8     143    2057   1
   2   2   8   47905    5132   1
   3   2   8   24286    2229   1
   4   2   8    8127    1821   1
   5   2   8   18231    3331   1
   6   2   8    4006    2346   1
  -7   1  -5    5335    2509  -2
   7   2   8    5335    2509   1
   8   2   8   -3099    3099   1
  -2   3   8   32835    3275   1
  -1   3   8    9116    3083   1
   0   3   8    -430    2576   1
   1   3   8    5934    2457   1
   2   3   8      38    2260   1
   3   3   8    1365    3314   1
   4   3   8   19860    2151   1
   5   3   8   38408    3269   1
  -6   2  -3   38393    5090  -2
   6   3   8   38393    5090   1
   7   3   8    8975    2629   1
   8   3   8    4746    4551   1
  -2   4   8   -3383    5256   1
  -1   4   8   -2553    2553   1
   0   4   8   21024    5899   1
   1   4   8   18654    5946   1
   2   4   8    3285    2942   1
   3   4   8      86    2971   1
   4   4   8    8528    2976   1
   5   4   8   13839    1718   1
   6   4   8   80048    6910   1
   7   4   8   25395    3310   1
   8   4   8   -2901    2945   1
  -1   5   8   20451    5628   1
   0   5   8   -1210    2762   1
   1   5   8   15985    3726   1
   2   5   8   37848    6113   1
   3   5   8   84466    5699   1
   4   5   8   13141    3313   1
   5   5   8    5940    5256   1
   6   5   8    3946    1719   1
   7   5   8   10148    2646   1
   8   5   8    5519    3668   1
   0   6   8    1218    4314   1
   1   6   8    4876    2961   1
   2   6   8   13889    9326   1
   3   6   8   67441    8827   1
   4   6   8   11827    4685   1
   5   6   8    4199    3571   1
   6   6   8    2215    1566   1
   7   6   8    2844    2897   1
   8   6   8   11779    3896   1
  -1   7   6   -4714    4714  -2
   1   7   8   -4714    4714   1
   2   7   8    7256    4314   1
   3   7   8    8170    4714   1
   4   7   8   39505    7713   1
   5   7   8   10427    4342   1
   6   7   8   10627    5199   1
   7   7   8   13389    5512   1
   8   7   8   -1515    3535   1
   4   8   8   -3628    3628   1
   5   8   8    1200    4228   1
   6   8   8    5828    5913   1
   7   8   8   13055    6570   1
   1   8  -6    1762    3535  -2
  -1  -5   9    1762    3535   1
   0  -5   9    3257    5228   1
   1  -5   9    2636    7142   1
   2  -5   9    5590    3804   1
  -2  -4   9   -2057    5256   1
  -1  -4   9    8657   12225   1
   0  -4   9   -3004    3004   1
   1  -4   9   12943    3810   1
   2  -4   9    7948    3451   1
   3  -4   9    4520    4303   1
   4  -4   9    5976    6299   1
  -3  -3   9    1314    5942   1
  -2  -3   9    4514    5799   1
  -1  -3   9   20564    3661   1
   0  -3   9   25505    4537   1
   1  -3   9   11577    3884   1
   2  -3   9     835    2750   1
   3  -3   9     643    2531   1
   4  -3   9    4489    3110   1
  -5   3  -9   -1957    7913  -2
   5  -3   9   -1957    7913   1
  -3  -2   9    3799    5485   1
  -2  -2   9    6656    4571   1
  -1  -2   9    2400    4714   1
   0  -2   9    8099    3384   1
   1  -2   9   -2328    5313   1
   2  -2   9   -2271    2271   1
  -3   5  -6    7392    2506  -2
   3  -2   9    7392    2506   1
  -4   4  -7    -545    2355  -2
   4  -2   9    -545    2355   1
   5  -2   9    4799    3117   1
   6  -2   9    7627    4392   1
  -3  -1   9    3000    4599   1
  -2  -1   9   -3857    3857   1
  -1  -1   9   -3628    3628   1
   0  -1   9     400    3885   1
   1  -1   9   -1092    2235   1
   2  -1   9   21580    6355   1
  -3   5  -5   33563    5185  -2
   3  -1   9   33563    5185   1
   4  -1   9   21866    3605   1
   5  -1   9    1639    2684   1
   6  -1   9    -186    2749   1
  -3   0   9   10141    6056   1
  -2   0   9   -4142    4142   1
  -1   0   9    6878    3742   1
   0   0   9   19119    2751   1
   1   0   9   -1786    1786   1
   2   0   9   34690    3397   1
   3   0   9   14313    2353   1
   4   0   9    5696    2594   1
   5   0   9   20934    3305   1
   6   0   9   13204    3084   1
   7   0   9   -2891    2891   1
  -2   1   9    3571    5085   1
  -1   1   9    3296    2208   1
   0   1   9   41287    4055   1
   1   1   9   73807    4177   1
   2   1   9    6273    2050   1
   3   1   9    2559    1773   1
   4   1   9    7037    2804   1
   5   1   9   26110    3477   1
   6   1   9    9011    4205   1
   7   1   9    2119    3614   1
  -2   2   9   -1934    2814   1
   1   9   2   18028    3971  -2
  -1   2   9   18028    3971   1
   0   2   9   12481    4112   1
   1   2   9   33636    4677   1
   2   2   9   19735    3469   1
   3   2   9    2011    3228   1
   4   2   9    3007    2150   1
   5   2   9     287    3685   1
   6   2   9   16498    3243   1
   7   2   9    6106    2749   1
  -8   1  -6    1352    5399  -2
   8   2   9    1352    5399   1
  -1   3   9    3861    3033   1
   0   3   9    6228    4799   1
   1   3   9   13182    3698   1
   2   3   9    4922    2845   1
   3   3   9   -2571    2571   1
   4   3   9    4456    7342   1
   5   3   9    6578    2092   1
   6   3   9    2168    2117   1
  -7   2  -4    8282    2865  -2
   7   3   9    8282    2865   1
   8   3   9    4854    5890   1
  -1   4   9   -3017    3017   1
   0   4   9     -86    4485   1
   1   4   9    2801    7085   1
   2   4   9    4164    2727   1
   3   4   9   51558   12598   1
   4   4   9   30935    6856   1
   5   4   9   10149    3229   1
  -6   3  -2   34854    3368  -2
   6   4   9   34854    3368   1
   7   4   9   20520    3259   1
   8   4   9    2045    2936   1
   0   5   9   11313    5326   1
   1   5   9    9322    3355   1
   2   5   9   10849    3482   1
   3   5   9    3942    4656   1
   4   5   9    -837    6185   1
   5   5   9   27650    5799   1
   6   5   9   11230    6512   1
   7   5   9   17921    3557   1
   8   5   9    7461    3339   1
   1   6   9   -3828    3828   1
   2   6   9   14995    6199   1
   3   6   9   20051    6228   1
   4   6   9    -314    3628   1
   5   6   9   -1943    3885   1
   7   6   9   24305    3204   1
   3   7   9    8456    5713   1
   4   7   9    7227    4771   1
   5   7   9   15709    6056   1
   6   7   9   -3628    3628   1
   0  -4  10   -3620    4928   1
   1  -4  10     804    3634   1
   2  -4  10   18366    6713   1
  -1  -3  10    6313    5256   1
   0  -3  10     838    3617   1
   1  -3  10   -3672    3672   1
   2  -3  10   -3045    3045   1
   3  -3  10    9270    3273   1
   4  -3  10   10497   10683   1
  -1  -2  10   11598    6085   1
   0  -2  10   12713    3828   1
   1  -2  10    3158    4556   1
   2  -2  10    5501    3449   1
   3  -2  10    8254    3016   1
   4  -2  10    5780    2994   1
  -5   4  -8   12549    3571  -2
   5  -2  10   12549    3571   1
  -1  -1  10   -4628    4628   1
   0  -1  10   17880    6342   1
   1  -1  10   20026    9983   1
   2  -1  10    -972    2806   1
   3  -1  10    6890    4485   1
  -4   5  -6    2306    2557  -2
   4  -1  10    2306    2557   1
   5  -1  10   -2034    4389   1
  -1   0  10   -4942    4942   1
   0   0  10   -3628    3628   1
   1   0  10    2143    4514   1
   2   0  10    8453    3022   1
  -3   6  -4    3848    2335  -2
   3   0  10    3848    2335   1
   4   0  10   19293    3128   1
   5   0  10    8312    3012   1
   6   0  10    -641    3377   1
  -1   1  10    2914    4742   1
   0   1  10   11968    3756   1
   1   1  10    4695    2670   1
   2   1  10    -234    3642   1
   3   1  10    1669    2758   1
   4   1  10   16929    2707   1
   5   1  10    9999    2200   1
   6   1  10   -2508    3163   1
   7   1  10   -3714    5656   1
  -1   2  10    4708    3918   1
   0   2  10    1345    4542   1
   1   2  10    3618    8227   1
   2   2  10   18281    3441   1
   3   2  10    -879    3185   1
   4   2  10    8349    2658   1
   5   2  10   14635    3375   1
   6   2  10   10780    2921   1
   7   2  10     260    3285   1
   0   3  10   18816    7040   1
   1   3  10   25569    4787   1
   2   3  10    3054    4714   1
   3   3  10   15714   11997   1
   4   3  10    1971    4114   1
   5   3  10     177    1859   1
   6   3  10    5795    3574   1
   7   3  10    9295    3361   1
   1   4  10   -1027    4185   1
   2   4  10   19294    4316   1
   3   4  10    3503    3106   1
   4   4  10   -3114    4028   1
   5   4  10    6085    5199   1
   6   4  10   14034    2668   1
  -7   3  -3    -778    2724  -2
   7   4  10    -778    2724   1
   1   5  10   -4971    4971   1
   2   5  10   -3216    3857   1
   3   5  10   10370    5256   1
   4   5  10   11627    5456   1
   5   5  10   47073    9113   1
  -6   4  -1   17452    5742  -2
   6   5  10   17452    5742   1
   7   5  10    1187    2880   1
   3   6  10    2657    4856   1
   4   6  10   -1514    4314   1
   5   6  10   16195    6456   1
   6   6  10   23851    6542   1
   2  -2  11   -4742    4742   1
   1  -1  11   -1685    4999   1
   2  -1  11   -2334    3219   1
   3  -1  11    2657    4471   1
   4  -1  11   16083    4560   1
   1   0  11   12341    6199   1
   2   0  11    6041    3269   1
   3   0  11    5792    5856   1
  -4   6  -5    1728    3742  -2
   4   0  11    1728    3742   1
   5   0  11    8947    4038   1
   1   1  11    2261    3404   1
   2   1  11   18591    4523   1
  -3   7  -3   27202    3524  -2
   3   1  11   27202    3524   1
   4   1  11   20043    3550   1
   5   1  11     116    2721   1
   1   2  11    -429    5285   1
   2   2  11   11613    5812   1
   3   2  11    7988    4169   1
   4   2  11    2486    3541   1
   5   2  11   15635    2753   1
   6   2  11     334    8399   1
   2   3  11    -793    3323   1
   3   3  11    1054    3060   1
   4   3  11    1113    3405   1
   5   3  11    6370    4971   1
   6   3  11    4172    3868   1
   3   4  11     -99    6328   1
   4   4  11    6958    5299   1
   5   4  11    2571    5113   1
;
_shelx_hkl_checksum              63315
loop_
_space_group_symop_operation_xyz
'x, y, z'
'-x, -y, -z'
loop_
_atom_site_label
_atom_site_type_symbol
_atom_site_fract_x
_atom_site_fract_y
_atom_site_fract_z
_atom_site_U_iso_or_equiv
_atom_site_adp_type
_atom_site_occupancy
_atom_site_site_symmetry_order
_atom_site_calc_flag
_atom_site_refinement_flags_posn
_atom_site_refinement_flags_adp
Fe1 Fe 1.0772(2) 0.36275(17) 0.13003(16) 0.0193(4) Uani 1 1 d . .
O1 O 0.8788(11) 0.5052(8) 0.3418(8) 0.0237(15) Uani 1 1 d . .
O5 O 1.1425(11) 0.5474(9) -0.0138(7) 0.0213(14) Uani 1 1 d . .
O4 O 1.2885(10) -0.1755(8) -0.0087(8) 0.0224(14) Uani 1 1 d . .
O2 O 0.6591(11) 0.4952(10) 0.5914(8) 0.0291(16) Uani 1 1 d . .
O6 O 1.3225(10) 0.2929(9) 0.2178(7) 0.0207(13) Uani 1 1 d . .
H6A H 1.437694 0.273517 0.139343 0.031 Uiso 1 1 d R U
H6B H 1.344607 0.189255 0.265046 0.031 Uiso 1 1 d R U
O3 O 1.2478(10) 0.1166(9) 0.0023(7) 0.0209(14) Uani 1 1 d . .
N1 N 0.9544(11) 0.1869(11) 0.2715(8) 0.0204(17) Uani 1 1 d . .
C5 C 1.0229(15) 0.0131(12) 0.2135(12) 0.023(2) Uani 1 1 d . .
C6 C 0.7754(14) 0.4294(12) 0.4545(11) 0.020(2) Uani 1 1 d . .
C2 C 0.7071(16) 0.1299(14) 0.5062(12) 0.027(2) Uani 1 1 d . .
H2 H 0.601443 0.170535 0.605260 0.032 Uiso 1 1 calc R U
C1 C 0.8047(15) 0.2427(12) 0.4126(11) 0.0189(19) Uani 1 1 d . .
C7 C 1.1981(15) -0.0215(12) 0.0581(12) 0.022(2) Uani 1 1 d . .
C4 C 0.9352(15) -0.1062(12) 0.2990(11) 0.021(2) Uani 1 1 d . .
H4 H 0.982302 -0.224353 0.259946 0.026 Uiso 1 1 calc R U
C3 C 0.7722(16) -0.0450(13) 0.4472(12) 0.026(2) Uani 1 1 d . .
H3 H 0.707634 -0.122238 0.506158 0.031 Uiso 1 1 calc R U
loop_
_atom_site_aniso_label
_atom_site_aniso_U_11
_atom_site_aniso_U_22
_atom_site_aniso_U_33
_atom_site_aniso_U_23
_atom_site_aniso_U_13
_atom_site_aniso_U_12
Fe1 0.0209(7) 0.0165(7) 0.0227(8) -0.0064(5) -0.0059(5) -0.0084(5)
O1 0.028(4) 0.015(3) 0.025(4) -0.006(3) -0.002(3) -0.008(3)
O5 0.029(4) 0.022(3) 0.019(3) 0.001(3) -0.005(3) -0.017(3)
O4 0.023(3) 0.018(3) 0.025(3) -0.010(3) -0.004(3) -0.006(3)
O2 0.022(4) 0.033(4) 0.032(4) -0.019(3) -0.004(3) -0.010(3)
O6 0.016(3) 0.021(3) 0.022(3) 0.001(3) -0.002(3) -0.008(3)
O3 0.023(3) 0.020(3) 0.021(3) -0.005(3) -0.002(3) -0.012(3)
N1 0.008(3) 0.033(4) 0.012(4) -0.013(3) -0.001(3) 0.001(3)
C5 0.025(5) 0.017(4) 0.033(5) -0.006(4) -0.019(4) -0.005(4)
C6 0.018(5) 0.018(4) 0.023(5) -0.009(4) -0.012(4) 0.000(4)
C2 0.021(5) 0.027(5) 0.031(5) -0.005(4) -0.005(4) -0.010(4)
C1 0.018(4) 0.013(4) 0.022(5) -0.004(3) -0.005(4) -0.003(3)
C7 0.025(5) 0.012(4) 0.031(5) -0.007(4) -0.010(4) -0.004(4)
C4 0.025(5) 0.016(4) 0.028(5) -0.003(4) -0.011(4) -0.008(4)
C3 0.032(6) 0.016(4) 0.032(6) 0.009(4) -0.016(5) -0.011(4)
loop_
_atom_type_symbol
_atom_type_description
_atom_type_scat_dispersion_real
_atom_type_scat_dispersion_imag
_atom_type_scat_source
C C 0.0033 0.0016 'International Tables Vol C Tables 4.2.6.8 and 6.1.1.4'
Fe Fe 0.3463 0.8444 'International Tables Vol C Tables 4.2.6.8 and 6.1.1.4'
N N 0.0061 0.0033 'International Tables Vol C Tables 4.2.6.8 and 6.1.1.4'
O O 0.0106 0.0060 'International Tables Vol C Tables 4.2.6.8 and 6.1.1.4'
H H 0.0000 0.0000 'International Tables Vol C Tables 4.2.6.8 and 6.1.1.4'
loop_
_geom_angle_atom_site_label_1
_geom_angle_atom_site_label_2
_geom_angle_atom_site_label_3
_geom_angle
_geom_angle_site_symmetry_1
_geom_angle_site_symmetry_3
O5 Fe1 O5 75.9(3) . 2_765
O5 Fe1 O6 95.1(3) . .
O5 Fe1 O6 170.7(2) 2_765 .
O5 Fe1 N1 168.9(3) . .
O5 Fe1 N1 93.3(3) 2_765 .
O6 Fe1 N1 95.8(3) . .
O5 Fe1 O1 103.6(3) . .
O5 Fe1 O1 96.8(3) 2_765 .
O6 Fe1 O1 87.7(3) . .
N1 Fe1 O1 75.0(3) . .
O5 Fe1 O3 106.5(3) . .
O5 Fe1 O3 92.6(3) 2_765 .
O6 Fe1 O3 87.5(3) . .
N1 Fe1 O3 75.9(3) . .
O1 Fe1 O3 149.8(3) . .
C6 O1 Fe1 119.3(5) . .
Fe1 O5 Fe1 104.1(3) . 2_765
Fe1 O6 H6A 109.2 . .
Fe1 O6 H6B 109.8 . .
H6A O6 H6B 104.3 . .
C7 O3 Fe1 118.8(6) . .
C1 N1 C5 120.8(9) . .
C1 N1 Fe1 120.5(6) . .
C5 N1 Fe1 118.6(6) . .
C4 C5 N1 120.9(9) . .
C4 C5 C7 127.8(8) . .
N1 C5 C7 111.2(8) . .
O2 C6 O1 126.2(8) . .
O2 C6 C1 119.2(9) . .
O1 C6 C1 114.6(8) . .
C3 C2 C1 118.0(9) . .
C3 C2 H2 121.0 . .
C1 C2 H2 121.0 . .
N1 C1 C2 121.6(8) . .
N1 C1 C6 110.0(8) . .
C2 C1 C6 128.2(8) . .
O4 C7 O3 124.4(9) . .
O4 C7 C5 120.4(9) . .
O3 C7 C5 115.2(8) . .
C5 C4 C3 118.1(8) . .
C5 C4 H4 120.9 . .
C3 C4 H4 120.9 . .
C2 C3 C4 120.4(9) . .
C2 C3 H3 119.8 . .
C4 C3 H3 119.8 . .
loop_
_geom_bond_atom_site_label_1
_geom_bond_atom_site_label_2
_geom_bond_distance
_geom_bond_site_symmetry_2
Fe1 O5 1.921(6) .
Fe1 O5 2.008(6) 2_765
Fe1 O6 2.010(6) .
Fe1 N1 2.039(9) .
Fe1 O1 2.052(6) .
Fe1 O3 2.067(6) .
O1 C6 1.277(11) .
O4 C7 1.244(10) .
O2 C6 1.243(11) .
O6 H6A 0.8519 .
O6 H6B 0.8520 .
O3 C7 1.290(11) .
N1 C1 1.321(11) .
N1 C5 1.371(11) .
C5 C4 1.370(13) .
C5 C7 1.478(14) .
C6 C1 1.498(12) .
C2 C3 1.387(13) .
C2 C1 1.393(13) .
C2 H2 0.9300 .
C4 C3 1.405(14) .
C4 H4 0.9300 .
C3 H3 0.9300 .
loop_
_geom_torsion_atom_site_label_1
_geom_torsion_atom_site_label_2
_geom_torsion_atom_site_label_3
_geom_torsion_atom_site_label_4
_geom_torsion
C1 N1 C5 C4 1.2(12)
Fe1 N1 C5 C4 -175.6(6)
C1 N1 C5 C7 -177.1(8)
Fe1 N1 C5 C7 6.0(9)
Fe1 O1 C6 O2 176.0(7)
Fe1 O1 C6 C1 -3.2(10)
C5 N1 C1 C2 -1.5(13)
Fe1 N1 C1 C2 175.3(7)
C5 N1 C1 C6 174.4(7)
Fe1 N1 C1 C6 -8.8(9)
C3 C2 C1 N1 0.2(14)
C3 C2 C1 C6 -174.8(9)
O2 C6 C1 N1 -171.7(8)
O1 C6 C1 N1 7.5(11)
O2 C6 C1 C2 3.8(14)
O1 C6 C1 C2 -177.0(9)
Fe1 O3 C7 O4 179.5(7)
Fe1 O3 C7 C5 -1.4(10)
C4 C5 C7 O4 -2.0(15)
N1 C5 C7 O4 176.2(8)
C4 C5 C7 O3 178.9(9)
N1 C5 C7 O3 -2.9(11)
N1 C5 C4 C3 0.4(13)
C7 C5 C4 C3 178.4(8)
C1 C2 C3 C4 1.4(14)
C5 C4 C3 C2 -1.6(13)
