#------------------------------------------------------------------------------
#$Date: 2019-11-24 23:41:12 +0200 (Sun, 24 Nov 2019) $
#$Revision: 239726 $
#$URL: file:///home/coder/svn-repositories/cod/cif/4/51/70/4517069.cif $
#------------------------------------------------------------------------------
#
# This file is available in the Crystallography Open Database (COD),
# http://www.crystallography.net/
#
# All data on this site have been placed in the public domain by the
# contributors.
#
data_4517069
loop_
_publ_author_name
'Khorasani, Sanaz'
'Fernandes, Manuel A.'
_publ_section_title
;
 Cooperativity and Feedback Mechanisms in the
 Single-Crystal-to-Single-Crystal Solid-State Diels--Alder Reaction of
 9-Methylanthracene with Bis(N-cyclobutylimino)-1,4-dithiin
;
_journal_issue                   12
_journal_name_full               'Crystal Growth &amp; Design'
_journal_page_first              5499
_journal_paper_doi               10.1021/cg401474f
_journal_volume                  13
_journal_year                    2013
_chemical_absolute_configuration ad
_chemical_formula_moiety
;
0.88(C31 H26 N2 O4 S2),  0.12(C16 H14 N2 O4 S2),  0.12(C15 H12)
;
_chemical_formula_sum            'C31 H26 N2 O4 S2'
_chemical_formula_weight         554.66
_space_group_IT_number           1
_space_group_name_Hall           'P 1'
_space_group_name_H-M_alt        'P 1'
_symmetry_cell_setting           triclinic
_symmetry_space_group_name_Hall  'P 1'
_symmetry_space_group_name_H-M   'P 1'
_atom_sites_solution_hydrogens   geom
_atom_sites_solution_primary     direct
_atom_sites_solution_secondary   difmap
_audit_creation_method           SHELXL-97
_cell_angle_alpha                76.232(2)
_cell_angle_beta                 86.916(2)
_cell_angle_gamma                84.1210(10)
_cell_formula_units_Z            1
_cell_length_a                   7.4924(3)
_cell_length_b                   8.8522(4)
_cell_length_c                   10.1725(5)
_cell_measurement_reflns_used    9886
_cell_measurement_temperature    173(2)
_cell_measurement_theta_max      28.36
_cell_measurement_theta_min      2.73
_cell_volume                     651.55(5)
_computing_cell_refinement       'Bruker SAINT'
_computing_data_collection       'Bruker APEX2'
_computing_data_reduction        'Bruker SAINT'
_computing_molecular_graphics    'Bruker SHELXTL'
_computing_publication_material  'Bruker SHELXTL'
_computing_structure_refinement  'SHELXL-97 (Sheldrick, 1997)'
_computing_structure_solution    'SHELXS-97 (Sheldrick, 2008)'
_diffrn_ambient_temperature      173(2)
_diffrn_measured_fraction_theta_full 0.997
_diffrn_measured_fraction_theta_max 0.997
_diffrn_measurement_device_type  'Bruker APEX-II CCD'
_diffrn_measurement_method       '\f and \w scans'
_diffrn_radiation_monochromator  graphite
_diffrn_radiation_source         'fine-focus sealed tube'
_diffrn_radiation_type           MoK\a
_diffrn_radiation_wavelength     0.71073
_diffrn_reflns_av_R_equivalents  0.0551
_diffrn_reflns_av_sigmaI/netI    0.0366
_diffrn_reflns_limit_h_max       8
_diffrn_reflns_limit_h_min       -8
_diffrn_reflns_limit_k_max       10
_diffrn_reflns_limit_k_min       -10
_diffrn_reflns_limit_l_max       12
_diffrn_reflns_limit_l_min       -12
_diffrn_reflns_number            16048
_diffrn_reflns_theta_full        24.99
_diffrn_reflns_theta_max         24.99
_diffrn_reflns_theta_min         2.73
_diffrn_standards_number         0
_exptl_absorpt_coefficient_mu    0.246
_exptl_absorpt_correction_type   none
_exptl_crystal_colour            orange
_exptl_crystal_density_diffrn    1.414
_exptl_crystal_density_method    'not measured'
_exptl_crystal_description       needle
_exptl_crystal_F_000             290
_exptl_crystal_size_max          0.16
_exptl_crystal_size_mid          0.04
_exptl_crystal_size_min          0.03
_refine_diff_density_max         0.214
_refine_diff_density_min         -0.151
_refine_diff_density_rms         0.031
_refine_ls_abs_structure_details 'Flack H D (1983), Acta Cryst. A39, 876-881'
_refine_ls_abs_structure_Flack   0.28(15)
_refine_ls_extinction_method     none
_refine_ls_goodness_of_fit_ref   1.085
_refine_ls_hydrogen_treatment    constr
_refine_ls_matrix_type           full
_refine_ls_number_parameters     713
_refine_ls_number_reflns         4409
_refine_ls_number_restraints     889
_refine_ls_restrained_S_all      1.062
_refine_ls_R_factor_all          0.0815
_refine_ls_R_factor_gt           0.0601
_refine_ls_shift/su_max          0.003
_refine_ls_shift/su_mean         0.000
_refine_ls_structure_factor_coef Fsqd
_refine_ls_weighting_details
'calc w=1/[\s^2^(Fo^2^)+(0.0332P)^2^+0.2899P] where P=(Fo^2^+2Fc^2^)/3'
_refine_ls_weighting_scheme      calc
_refine_ls_wR_factor_gt          0.0916
_refine_ls_wR_factor_ref         0.1018
_reflns_number_gt                3772
_reflns_number_total             4409
_reflns_threshold_expression     >2sigma(I)
_iucr_refine_instructions_details
;
TITL mo_12skv_sk5d4ma40oilbath_0s in P1 #1
CELL  0.71073   7.4924   8.8522  10.1725   76.232   86.916   84.121
ZERR     1.00   0.0003   0.0004   0.0005    0.002    0.002    0.001
LATT  -1
SFAC  C    H    N    O    S
UNIT  31   26   2    4    2
MERG   2
OMIT    -2.00  50.00
OMIT     0   1  -1
OMIT     0  -1   0
OMIT    -1   0   0
OMIT    -1  -1   0
DFIX     1.530   0.005 C17B C31B
DFIX 1.65 0.005 C6B  C17B
SUMP 1.000 0.001 1 2 1 3 1 4
DELU     0.003   0.003 C1B > C31B
SIMU     0.010   0.020   1.700 C1B > C31B
DELU     0.003   0.003 C1C > C31C
SIMU     0.010   0.020   1.700 C1C > C31C
FMAP   2
PLAN    5
SIZE     0.03   0.04   0.16
ACTA
BOND   $H
CONF
L.S.  10
TEMP  -100.00
WGHT    0.033200    0.289900
FVAR       1.00858   0.12024   0.44352   0.43624   0.04648
MOLE    1
PART    2
C1A   1    0.720652    0.247169    0.335902    21.00000   51.00000
AFIX   3
C2A   1    0.652577    0.370388    0.417775    21.00000   51.00000
C3A   1    0.639083    0.512967    0.328460    21.00000   51.00000
C4A   1    0.699013    0.482703    0.193741    21.00000   51.00000
C5A   1    0.470742    0.520558    0.750472    21.00000   51.00000
C6A   1    0.526301    0.505378    0.609247    21.00000   51.00000
C7A   1    0.519523    0.640068    0.522552    21.00000   51.00000
C8A   1    0.452752    0.758022    0.592310    21.00000   51.00000
C9A   1    0.775034    0.256915    0.086252    21.00000   51.00000
AFIX  13
H9A   2    0.756135    0.340458    0.001391    21.00000   -1.20000
AFIX   3
C10A  1    0.949620    0.157545    0.070084    21.00000   51.00000
AFIX  23
H10A  2    1.006064    0.104087    0.156721    21.00000   -1.20000
H10B  2    1.037663    0.212806    0.004771    21.00000   -1.20000
AFIX   3
C11A  1    0.839557    0.054543    0.011870    21.00000   51.00000
AFIX  23
H11A  2    0.838448    0.081285   -0.088299    21.00000   -1.20000
H11B  2    0.870880   -0.058751    0.047473    21.00000   -1.20000
AFIX   3
C12A  1    0.671313    0.118924    0.078487    21.00000   51.00000
AFIX  23
H12A  2    0.638221    0.053105    0.167820    21.00000   -1.20000
H12B  2    0.566865    0.147893    0.019019    21.00000   -1.20000
AFIX   3
C13A  1    0.389908    0.757793    0.843727    21.00000   51.00000
AFIX  13
H13A  2    0.396262    0.674553    0.929655    21.00000   -1.20000
AFIX   3
C14A  1    0.502485    0.887462    0.858392    21.00000   51.00000
AFIX  23
H14A  2    0.542230    0.953753    0.771151    21.00000   -1.20000
H14B  2    0.603854    0.850888    0.920117    21.00000   -1.20000
AFIX   3
C15A  1    0.332416    0.959621    0.924828    21.00000   51.00000
AFIX  23
H15A  2    0.310459    1.074538    0.893736    21.00000   -1.20000
H15B  2    0.325491    0.925848    1.024853    21.00000   -1.20000
AFIX   3
C16A  1    0.221022    0.866760    0.851076    21.00000   51.00000
AFIX  23
H16A  2    0.122222    0.815940    0.907580    21.00000   -1.20000
H16B  2    0.178246    0.927036    0.761659    21.00000   -1.20000
AFIX   3
N1A   3    0.743004    0.327966    0.203129    21.00000   51.00000
N2A   3    0.428912    0.684033    0.731174    21.00000   51.00000
O1A   4    0.751806    0.111541    0.384539    21.00000   51.00000
O2A   4    0.713001    0.583033    0.086220    21.00000   51.00000
O3A   4    0.466280    0.422114    0.851234    21.00000   51.00000
O4A   4    0.425643    0.898741    0.546273    21.00000   51.00000
S1A   5    0.599039    0.314353    0.589471    21.00000   51.00000
S2A   5    0.574668    0.696851    0.347622    21.00000   51.00000
AFIX   0
MOLE    2
C17A  1    0.096468    0.361268    0.554135    21.00000   51.00000
AFIX   3
C18A  1    0.021332    0.489335    0.602883    21.00000   51.00000
C19A  1   -0.044050    0.473129    0.732762    21.00000   51.00000
AFIX  43
H19A  2   -0.038764    0.372473    0.792512    21.00000   -1.20000
AFIX   3
C20A  1   -0.115845    0.598091    0.777027    21.00000   51.00000
AFIX  43
H20A  2   -0.160156    0.586096    0.867844    21.00000   -1.20000
AFIX   3
C21A  1   -0.125186    0.750388    0.685862    21.00000   51.00000
AFIX  43
H21A  2   -0.172946    0.839880    0.716733    21.00000   -1.20000
AFIX   3
C22A  1   -0.065086    0.765114    0.555188    21.00000   51.00000
AFIX  43
H22A  2   -0.074553    0.865995    0.495779    21.00000   -1.20000
AFIX   3
C23A  1    0.011201    0.636392    0.503582    21.00000   51.00000
C24A  1    0.074590    0.656384    0.370388    21.00000   51.00000
AFIX  43
H24A  2    0.070525    0.756661    0.310083    21.00000   -1.20000
AFIX   3
C25A  1    0.144351    0.522558    0.329441    21.00000   51.00000
C26A  1    0.215122    0.522581    0.188080    21.00000   51.00000
AFIX  43
H26A  2    0.207686    0.619171    0.122444    21.00000   -1.20000
AFIX   3
C27A  1    0.289714    0.391880    0.148019    21.00000   51.00000
AFIX  43
H27A  2    0.334375    0.398214    0.057866    21.00000   -1.20000
AFIX   3
C28A  1    0.297888    0.250897    0.242707    21.00000   51.00000
AFIX  43
H28A  2    0.351115    0.160499    0.215683    21.00000   -1.20000
AFIX   3
C29A  1    0.234745    0.234652    0.370793    21.00000   51.00000
AFIX  43
H29A  2    0.241582    0.134065    0.430691    21.00000   -1.20000
AFIX   3
C30A  1    0.156482    0.368623    0.418477    21.00000   51.00000
C31A  1    0.113319    0.198805    0.650488    21.00000   51.00000
AFIX  33
H31A  2    0.168150    0.122108    0.601464    21.00000   -1.50000
H31B  2   -0.006130    0.170493    0.685621    21.00000   -1.50000
H31C  2    0.188710    0.199957    0.725975    21.00000   -1.50000
AFIX   0
MOLE    3
PART    1
C1B   1    0.736197    0.251085    0.327434    31.00000    0.02811    0.02195 =
         0.04531   -0.00334   -0.00065    0.00849
C2B   1    0.680018    0.370815    0.408318    31.00000    0.02982    0.02504 =
         0.04199   -0.00573    0.00150    0.00337
C3B   1    0.671683    0.520212    0.323020    31.00000    0.03904    0.01930 =
         0.03646    0.00541   -0.00582    0.01737
C4B   1    0.711387    0.492688    0.180500    31.00000    0.03623    0.02537 =
         0.03838   -0.00363   -0.00278    0.00194
C5B   1    0.453169    0.521854    0.724698    31.00000    0.02624    0.02289 =
         0.03995    0.00220   -0.00203    0.00031
C6B   1    0.449556    0.490640    0.588913    31.00000    0.03356    0.02120 =
         0.03828   -0.00385   -0.00416    0.01236
C7B   1    0.429376    0.641158    0.485649    31.00000    0.02929    0.02094 =
         0.04434   -0.00413   -0.00181   -0.00081
C8B   1    0.430501    0.761266    0.573242    31.00000    0.03072    0.02134 =
         0.04441   -0.00327    0.00350   -0.00428
C9B   1    0.768068    0.264922    0.077418    31.00000    0.04271    0.03377 =
         0.04477   -0.01405   -0.00788    0.00150
AFIX  13
H9B   2    0.749742    0.350959   -0.005819    31.00000   -1.20000
AFIX   0
C10B  1    0.943441    0.165884    0.055765    31.00000    0.04262    0.04748 =
         0.04999   -0.01325   -0.00612    0.00782
AFIX  23
H10C  2    1.037049    0.226646    0.001514    31.00000   -1.20000
H10D  2    0.992477    0.097279    0.140106    31.00000   -1.20000
AFIX   0
C11B  1    0.837125    0.083528   -0.024528    31.00000    0.07326    0.04905 =
         0.06374   -0.02911   -0.01233    0.01136
AFIX  23
H11C  2    0.870878   -0.030286   -0.008839    31.00000   -1.20000
H11D  2    0.832449    0.133540   -0.122448    31.00000   -1.20000
AFIX   0
C12B  1    0.666195    0.129265    0.061395    31.00000    0.04888    0.03735 =
         0.05877   -0.01695   -0.02085    0.00160
AFIX  23
H12C  2    0.555451    0.161629    0.009071    31.00000   -1.20000
H12D  2    0.644473    0.051553    0.146965    31.00000   -1.20000
AFIX   0
C13B  1    0.408130    0.756252    0.823027    31.00000    0.04903    0.03202 =
         0.04355   -0.00798    0.00128   -0.01044
AFIX  13
H13B  2    0.423857    0.673668    0.908840    31.00000   -1.20000
AFIX   0
C14B  1    0.514052    0.894780    0.828601    31.00000    0.05450    0.05182 =
         0.05377   -0.01956    0.00009   -0.02448
AFIX  23
H14C  2    0.616916    0.865895    0.889612    31.00000   -1.20000
H14D  2    0.551009    0.956286    0.738444    31.00000   -1.20000
AFIX   0
C15B  1    0.349619    0.967698    0.889916    31.00000    0.08105    0.05186 =
         0.05981   -0.03155    0.00802   -0.01585
AFIX  23
H15C  2    0.322918    1.080654    0.849759    31.00000   -1.20000
H15D  2    0.348719    0.946063    0.990006    31.00000   -1.20000
AFIX   0
C16B  1    0.234600    0.861430    0.834079    31.00000    0.04580    0.05645 =
         0.06322   -0.02899    0.01508   -0.01294
AFIX  23
H16C  2    0.144167    0.810835    0.900039    31.00000   -1.20000
H16D  2    0.180488    0.912223    0.745953    31.00000   -1.20000
AFIX   0
N1B   3    0.740008    0.333839    0.193908    31.00000    0.03718    0.02816 =
         0.03845   -0.00652   -0.01129    0.00139
N2B   3    0.432135    0.684450    0.707444    31.00000    0.03828    0.02031 =
         0.04394   -0.00535    0.00074   -0.00288
O1B   4    0.769853    0.111720    0.369639    31.00000    0.05288    0.02242 =
         0.05764   -0.00541    0.00273    0.00998
O2B   4    0.720510    0.593336    0.076401    31.00000    0.06542    0.03747 =
         0.04688    0.00926    0.01989   -0.01892
O3B   4    0.464263    0.428425    0.831529    31.00000    0.07649    0.03550 =
         0.03644    0.01409    0.00950   -0.01088
O4B   4    0.423483    0.899994    0.528969    31.00000    0.04480    0.01580 =
         0.06058   -0.00084    0.00577    0.00472
S1B   5    0.639323    0.335809    0.582805    31.00000    0.04481    0.03179 =
         0.03874    0.00303   -0.00470    0.01536
S2B   5    0.613433    0.690691    0.363433    31.00000    0.04888    0.01880 =
         0.04467   -0.00013    0.00931    0.00360
C17B  1    0.263860    0.405140    0.588215    31.00000    0.04296    0.02851 =
         0.04866    0.00052   -0.00598   -0.00740
C18B  1    0.112850    0.523235    0.617637    31.00000    0.03144    0.04149 =
         0.05348   -0.00830   -0.00516   -0.00878
C19B  1    0.001639    0.499462    0.732663    31.00000    0.02385    0.06064 =
         0.06470   -0.01341   -0.00195   -0.02680
AFIX  43
H19B  2    0.009136    0.403618    0.799241    31.00000   -1.20000
AFIX   0
C20B  1   -0.123615    0.626502    0.744882    31.00000    0.02286    0.08866 =
         0.07003   -0.02114    0.00653   -0.01449
AFIX  43
H20B  2   -0.201264    0.617730    0.822761    31.00000   -1.20000
AFIX   0
C21B  1   -0.134438    0.762946    0.645158    31.00000    0.02894    0.07631 =
         0.08190   -0.02334   -0.00383    0.00489
AFIX  43
H21B  2   -0.223275    0.845102    0.653328    31.00000   -1.20000
AFIX   0
C22B  1   -0.020412    0.781831    0.535628    31.00000    0.01909    0.05546 =
         0.07695   -0.00285   -0.01112    0.00409
AFIX  43
H22B  2   -0.025958    0.878518    0.470126    31.00000   -1.20000
AFIX   0
C23B  1    0.105711    0.658942    0.518808    31.00000    0.03042    0.04037 =
         0.05687   -0.00692   -0.01031   -0.00264
C24B  1    0.246910    0.674156    0.411162    31.00000    0.03990    0.03671 =
         0.04487    0.00181   -0.01305    0.00176
AFIX  13
H24B  2    0.234863    0.776557    0.343146    31.00000   -1.20000
AFIX   0
C25B  1    0.246600    0.535967    0.350291    31.00000    0.04148    0.04636 =
         0.04700   -0.00575   -0.01643   -0.00294
C26B  1    0.240164    0.530856    0.215670    31.00000    0.04920    0.07023 =
         0.04601   -0.00813   -0.01573   -0.00826
AFIX  43
H26B  2    0.221505    0.626786    0.150015    31.00000   -1.20000
AFIX   0
C27B  1    0.259006    0.396644    0.172520    31.00000    0.05403    0.09761 =
         0.06273   -0.03684   -0.00412   -0.02532
AFIX  43
H27B  2    0.263630    0.400776    0.078231    31.00000   -1.20000
AFIX   0
C28B  1    0.271616    0.253099    0.264935    31.00000    0.06023    0.07309 =
         0.08836   -0.04627   -0.01681   -0.02327
AFIX  43
H28B  2    0.286498    0.159008    0.234454    31.00000   -1.20000
AFIX   0
C29B  1    0.262226    0.248476    0.402705    31.00000    0.05766    0.04856 =
         0.07749   -0.02140   -0.01930   -0.01182
AFIX  43
H29B  2    0.260358    0.151906    0.467909    31.00000   -1.20000
AFIX   0
C30B  1    0.255763    0.385968    0.441943    31.00000    0.04559    0.04015 =
         0.05197   -0.00743   -0.01174   -0.00548
C31B  1    0.251366    0.245802    0.684612    31.00000    0.07629    0.04057 =
         0.06756    0.01486   -0.00075   -0.00724
AFIX  33
H31D  2    0.343399    0.170311    0.658830    31.00000   -1.50000
H31E  2    0.132292    0.211171    0.679738    31.00000   -1.50000
H31F  2    0.270367    0.253376    0.777308    31.00000   -1.50000
AFIX   0
PART    3
SAME 0.005 C1B > O4B
C1C   1    0.735808    0.235960    0.354165    41.00000    0.03612    0.04367 =
         0.05115   -0.00144   -0.01510    0.00380
C2C   1    0.735265    0.361733    0.430830    41.00000    0.03470    0.04187 =
         0.05479   -0.00393   -0.01118   -0.00451
C3C   1    0.723293    0.509025    0.339805    41.00000    0.04334    0.04229 =
         0.04958   -0.00046   -0.01872    0.00842
C4C   1    0.718346    0.471904    0.199960    41.00000    0.03896    0.04796 =
         0.05345   -0.00019   -0.01681    0.00844
C5C   1    0.458745    0.498957    0.743401    41.00000    0.04140    0.03780 =
         0.06926   -0.01151   -0.01020    0.00105
C6C   1    0.492794    0.475067    0.605647    41.00000    0.04712    0.04222 =
         0.06528   -0.00820   -0.01337    0.01277
C7C   1    0.483483    0.626957    0.506371    41.00000    0.03122    0.04440 =
         0.06849   -0.01781   -0.01780   -0.00687
C8C   1    0.425731    0.741762    0.596980    41.00000    0.03828    0.03921 =
         0.06626   -0.00783   -0.01342    0.00450
C9C   1    0.767836    0.234724    0.106866    41.00000    0.06740    0.05749 =
         0.05175   -0.01041   -0.01420    0.01348
AFIX  13
H9C   2    0.756276    0.314709    0.019153    41.00000   -1.20000
AFIX   0
C10C  1    0.938494    0.122830    0.099875    41.00000    0.06393    0.07436 =
         0.06732   -0.02642    0.00267    0.01131
AFIX  23
H10E  2    1.038166    0.172949    0.043959    41.00000   -1.20000
H10F  2    0.980203    0.061880    0.189385    41.00000   -1.20000
AFIX   0
C11C  1    0.829507    0.034127    0.027282    41.00000    0.08340    0.06584 =
         0.05558   -0.01820    0.00418    0.00489
AFIX  23
H11E  2    0.856115   -0.080745    0.053622    41.00000   -1.20000
H11F  2    0.830601    0.072983   -0.072391    41.00000   -1.20000
AFIX   0
C12C  1    0.658465    0.098432    0.102873    41.00000    0.06737    0.06161 =
         0.06216   -0.01841   -0.00828    0.00965
AFIX  23
H12E  2    0.550553    0.128643    0.047087    41.00000   -1.20000
H12F  2    0.630302    0.031640    0.192917    41.00000   -1.20000
AFIX   0
C13C  1    0.390476    0.724998    0.848414    41.00000    0.06373    0.05001 =
         0.06553   -0.01826   -0.00810    0.00520
AFIX  13
H13C  2    0.405213    0.637264    0.930777    41.00000   -1.20000
AFIX   0
C14C  1    0.494050    0.858710    0.867619    41.00000    0.05983    0.05506 =
         0.05995   -0.01412   -0.00137    0.00073
AFIX  23
H14E  2    0.594110    0.824132    0.930808    41.00000   -1.20000
H14F  2    0.534528    0.927004    0.781618    41.00000   -1.20000
AFIX   0
C15C  1    0.326409    0.925407    0.930205    41.00000    0.07449    0.05427 =
         0.06890   -0.02212    0.01349   -0.00247
AFIX  23
H15E  2    0.298958    1.039275    0.895048    41.00000   -1.20000
H15F  2    0.322706    0.897310    1.030447    41.00000   -1.20000
AFIX   0
C16C  1    0.215128    0.824082    0.865680    41.00000    0.05900    0.05890 =
         0.06508   -0.01471    0.00530    0.00068
AFIX  23
H16E  2    0.125986    0.767199    0.928733    41.00000   -1.20000
H16F  2    0.160202    0.880729    0.779283    41.00000   -1.20000
AFIX   0
N1C   3    0.741358    0.312477    0.218744    41.00000    0.05011    0.04763 =
         0.05165   -0.00732   -0.01203    0.01576
N2C   3    0.420012    0.660429    0.729531    41.00000    0.04500    0.04056 =
         0.05972   -0.00672   -0.01022    0.00859
O1C   4    0.745467    0.095944    0.400225    41.00000    0.04639    0.03921 =
         0.07448   -0.00553    0.00284   -0.00298
O2C   4    0.687891    0.567385    0.093961    41.00000    0.03429    0.04732 =
         0.04441   -0.00343   -0.00949    0.00059
O3C   4    0.454157    0.401065    0.847174    41.00000    0.07968    0.04296 =
         0.06101   -0.01001   -0.02424    0.00433
O4C   4    0.397669    0.880471    0.554675    41.00000    0.06628    0.03982 =
         0.06472   -0.00076   -0.00139    0.00768
S1C   5    0.547033    0.306336    0.560436    41.00000    0.04664    0.04308 =
         0.06886   -0.01440   -0.00174   -0.01066
S2C   5    0.522924    0.659475    0.341135    41.00000    0.04342    0.04359 =
         0.06790   -0.00858   -0.02360    0.00282
SAME 0.005 C17B > C31B
C17C  1    0.920627    0.332916    0.513390    41.00000    0.03806    0.03507 =
         0.05604    0.00097   -0.01529    0.00072
C18C  1    0.925719    0.471151    0.577617    41.00000    0.03892    0.04535 =
         0.06338   -0.00860   -0.01560   -0.00602
C19C  1    0.926908    0.459277    0.715557    41.00000    0.05852    0.07928 =
         0.06478   -0.01767   -0.01408   -0.00843
AFIX  43
H19C  2    0.926754    0.361402    0.779151    41.00000   -1.20000
AFIX   0
C20C  1    0.928363    0.600481    0.756700    41.00000    0.05040    0.10511 =
         0.08475   -0.04554   -0.01019   -0.01465
AFIX  43
H20C  2    0.938896    0.599065    0.849644    41.00000   -1.20000
AFIX   0
C21C  1    0.914390    0.740880    0.661141    41.00000    0.04996    0.08064 =
         0.11395   -0.05323   -0.01295   -0.00506
AFIX  43
H21C  2    0.911174    0.835625    0.690002    41.00000   -1.20000
AFIX   0
C22C  1    0.905138    0.746827    0.526997    41.00000    0.04478    0.04702 =
         0.10372   -0.02300   -0.01155   -0.01298
AFIX  43
H22C  2    0.889516    0.845085    0.464038    41.00000   -1.20000
AFIX   0
C23C  1    0.918524    0.608679    0.480891    41.00000    0.04679    0.04056 =
         0.07406   -0.00944   -0.01655   -0.00683
C24C  1    0.905035    0.601410    0.338896    41.00000    0.04796    0.03824 =
         0.06632    0.00339   -0.01448   -0.00257
AFIX  13
H24C  2    0.900975    0.705797    0.273630    41.00000   -1.20000
AFIX   0
C25C  1    1.054579    0.486991    0.308749    41.00000    0.04570    0.04725 =
         0.06701   -0.00115   -0.00665   -0.00670
C26C  1    1.164178    0.492085    0.193696    41.00000    0.04759    0.07268 =
         0.07417   -0.00385   -0.00317   -0.01554
AFIX  43
H26C  2    1.160403    0.587012    0.126044    41.00000   -1.20000
AFIX   0
C27C  1    1.276381    0.369461    0.172176    41.00000    0.04701    0.09787 =
         0.09673   -0.01559    0.01700   -0.01096
AFIX  43
H27C  2    1.349205    0.381595    0.091636    41.00000   -1.20000
AFIX   0
C28C  1    1.286710    0.226801    0.265541    41.00000    0.04439    0.08596 =
         0.10576   -0.01890    0.00781    0.01087
AFIX  43
H28C  2    1.362199    0.140203    0.248347    41.00000   -1.20000
AFIX   0
C29C  1    1.183973    0.213439    0.384959    41.00000    0.03772    0.05064 =
         0.08701   -0.01625   -0.00933    0.00029
AFIX  43
H29C  2    1.195702    0.120453    0.454698    41.00000   -1.20000
AFIX   0
C30C  1    1.066238    0.336293    0.399928    41.00000    0.03784    0.04425 =
         0.06712   -0.00536   -0.00866   -0.00060
C31C  1    0.948889    0.177060    0.615288    41.00000    0.06912    0.04094 =
         0.06525    0.00851   -0.02220   -0.00719
AFIX  33
H31G  2    0.962274    0.092391    0.567539    41.00000   -1.50000
H31H  2    0.845130    0.163682    0.678476    41.00000   -1.50000
H31I  2    1.057502    0.174522    0.665612    41.00000   -1.50000
HKLF    4
 
REM  mo_12skv_sk5d4ma40oilbath_0s in P1 #1
REM R1 =  0.0601 for   3772 Fo > 4sig(Fo)  and  0.0815 for all   4409 data
REM    713 parameters refined using    889 restraints
 
END
 
WGHT      0.0333      0.2894
REM Highest difference peak  0.214,  deepest hole -0.151,  1-sigma level  0.031
Q1    1   0.5015  0.5622  0.5577  11.00000  0.05    0.21
Q2    1   0.6730  0.4336  0.3774  11.00000  0.05    0.20
Q3    1   0.0716  0.6237  0.3401  11.00000  0.05    0.18
Q4    1   0.0959  0.3811  0.5871  11.00000  0.05    0.17
Q5    1   0.7781  0.5486  0.3439  11.00000  0.05    0.17
;
_cod_data_source_file            mo_12skv_sk5d4ma40oilbath_0s-88p-x7.cif
_cod_data_source_block           mo_12skv_sk5d4ma40oilbath_0s
_cod_depositor_comments
;
The following automatic conversions were performed:

data item '_symmetry_cell_setting' value 'Triclinic' was changed to
'triclinic' in accordance with the
/home/saulius/struct/COD-crude-data/automatic-downloads/DataCite-retrospective/ACS/depositions/lib/dictionaries/cif_core.dic
dictionary named 'cif_core.dic' version 2.4.2 last updated on
2011-04-26.

Automatic conversion script
Id: cif_fix_values 6909 2019-04-08 15:41:33Z antanas 
;
_cod_original_sg_symbol_H-M      P1
_cod_database_code               4517069
loop_
_symmetry_equiv_pos_as_xyz
'x, y, z'
loop_
_atom_site_label
_atom_site_type_symbol
_atom_site_fract_x
_atom_site_fract_y
_atom_site_fract_z
_atom_site_U_iso_or_equiv
_atom_site_adp_type
_atom_site_occupancy
_atom_site_symmetry_multiplicity
_atom_site_calc_flag
_atom_site_refinement_flags
_atom_site_disorder_assembly
_atom_site_disorder_group
C1A C 0.721(2) 0.247(2) 0.3359(17) 0.0465(18) Uiso 0.120(3) 1 d P A 2
C2A C 0.653(2) 0.370(2) 0.4178(17) 0.0465(18) Uiso 0.120(3) 1 d PR A 2
C3A C 0.639(2) 0.513(2) 0.3285(17) 0.0465(18) Uiso 0.120(3) 1 d PR A 2
C4A C 0.699(2) 0.483(2) 0.1937(17) 0.0465(18) Uiso 0.120(3) 1 d PR A 2
C5A C 0.471(2) 0.521(2) 0.7505(17) 0.0465(18) Uiso 0.120(3) 1 d PR A 2
C6A C 0.526(2) 0.505(2) 0.6092(17) 0.0465(18) Uiso 0.120(3) 1 d PR A 2
C7A C 0.520(2) 0.640(2) 0.5226(17) 0.0465(18) Uiso 0.120(3) 1 d PR A 2
C8A C 0.453(2) 0.758(2) 0.5923(17) 0.0465(18) Uiso 0.120(3) 1 d PR A 2
C9A C 0.775(2) 0.257(2) 0.0863(17) 0.0465(18) Uiso 0.120(3) 1 d PR A 2
H9A H 0.7561 0.3405 0.0014 0.056 Uiso 0.120(3) 1 calc PR A 2
C10A C 0.950(2) 0.158(2) 0.0701(17) 0.0465(18) Uiso 0.120(3) 1 d PR A 2
H10A H 1.0061 0.1041 0.1567 0.056 Uiso 0.120(3) 1 calc PR A 2
H10B H 1.0377 0.2128 0.0048 0.056 Uiso 0.120(3) 1 calc PR A 2
C11A C 0.840(2) 0.055(2) 0.0119(17) 0.0465(18) Uiso 0.120(3) 1 d PR A 2
H11A H 0.8384 0.0813 -0.0883 0.056 Uiso 0.120(3) 1 calc PR A 2
H11B H 0.8709 -0.0588 0.0475 0.056 Uiso 0.120(3) 1 calc PR A 2
C12A C 0.671(2) 0.119(2) 0.0785(17) 0.0465(18) Uiso 0.120(3) 1 d PR A 2
H12A H 0.6382 0.0531 0.1678 0.056 Uiso 0.120(3) 1 calc PR A 2
H12B H 0.5669 0.1479 0.0190 0.056 Uiso 0.120(3) 1 calc PR A 2
C13A C 0.390(2) 0.758(2) 0.8437(17) 0.0465(18) Uiso 0.120(3) 1 d PR A 2
H13A H 0.3963 0.6746 0.9297 0.056 Uiso 0.120(3) 1 calc PR A 2
C14A C 0.502(2) 0.887(2) 0.8584(17) 0.0465(18) Uiso 0.120(3) 1 d PR A 2
H14A H 0.5422 0.9538 0.7712 0.056 Uiso 0.120(3) 1 calc PR A 2
H14B H 0.6039 0.8509 0.9201 0.056 Uiso 0.120(3) 1 calc PR A 2
C15A C 0.332(2) 0.960(2) 0.9248(17) 0.0465(18) Uiso 0.120(3) 1 d PR A 2
H15A H 0.3105 1.0745 0.8937 0.056 Uiso 0.120(3) 1 calc PR A 2
H15B H 0.3255 0.9258 1.0249 0.056 Uiso 0.120(3) 1 calc PR A 2
C16A C 0.221(2) 0.867(2) 0.8511(17) 0.0465(18) Uiso 0.120(3) 1 d PR A 2
H16A H 0.1222 0.8159 0.9076 0.056 Uiso 0.120(3) 1 calc PR A 2
H16B H 0.1782 0.9270 0.7617 0.056 Uiso 0.120(3) 1 calc PR A 2
N1A N 0.743(2) 0.328(2) 0.2031(17) 0.0465(18) Uiso 0.120(3) 1 d PR A 2
N2A N 0.429(2) 0.684(2) 0.7312(17) 0.0465(18) Uiso 0.120(3) 1 d PR A 2
O1A O 0.752(2) 0.112(2) 0.3845(17) 0.0465(18) Uiso 0.120(3) 1 d PR A 2
O2A O 0.713(2) 0.583(2) 0.0862(17) 0.0465(18) Uiso 0.120(3) 1 d PR A 2
O3A O 0.466(2) 0.422(2) 0.8512(17) 0.0465(18) Uiso 0.120(3) 1 d PR A 2
O4A O 0.426(2) 0.899(2) 0.5463(17) 0.0465(18) Uiso 0.120(3) 1 d PR A 2
S1A S 0.599(2) 0.314(2) 0.5895(17) 0.0465(18) Uiso 0.120(3) 1 d PR A 2
S2A S 0.575(2) 0.697(2) 0.3476(17) 0.0465(18) Uiso 0.120(3) 1 d PR A 2
C17A C 0.096(2) 0.3613(17) 0.5541(15) 0.0465(18) Uiso 0.120(3) 1 d P A 2
C18A C 0.021(2) 0.4893(17) 0.6029(15) 0.0465(18) Uiso 0.120(3) 1 d PR A 2
C19A C -0.044(2) 0.4731(17) 0.7328(15) 0.0465(18) Uiso 0.120(3) 1 d PR A 2
H19A H -0.0388 0.3725 0.7925 0.056 Uiso 0.120(3) 1 calc PR A 2
C20A C -0.116(2) 0.5981(17) 0.7770(15) 0.0465(18) Uiso 0.120(3) 1 d PR A 2
H20A H -0.1602 0.5861 0.8678 0.056 Uiso 0.120(3) 1 calc PR A 2
C21A C -0.125(2) 0.7504(17) 0.6859(15) 0.0465(18) Uiso 0.120(3) 1 d PR A 2
H21A H -0.1729 0.8399 0.7167 0.056 Uiso 0.120(3) 1 calc PR A 2
C22A C -0.065(2) 0.7651(17) 0.5552(15) 0.0465(18) Uiso 0.120(3) 1 d PR A 2
H22A H -0.0746 0.8660 0.4958 0.056 Uiso 0.120(3) 1 calc PR A 2
C23A C 0.011(2) 0.6364(17) 0.5036(15) 0.0465(18) Uiso 0.120(3) 1 d PR A 2
C24A C 0.075(2) 0.6564(17) 0.3704(15) 0.0465(18) Uiso 0.120(3) 1 d PR A 2
H24A H 0.0705 0.7567 0.3101 0.056 Uiso 0.120(3) 1 calc PR A 2
C25A C 0.144(2) 0.5226(17) 0.3294(15) 0.0465(18) Uiso 0.120(3) 1 d PR A 2
C26A C 0.215(2) 0.5226(17) 0.1881(15) 0.0465(18) Uiso 0.120(3) 1 d PR A 2
H26A H 0.2077 0.6192 0.1224 0.056 Uiso 0.120(3) 1 calc PR A 2
C27A C 0.290(2) 0.3919(17) 0.1480(15) 0.0465(18) Uiso 0.120(3) 1 d PR A 2
H27A H 0.3344 0.3982 0.0579 0.056 Uiso 0.120(3) 1 calc PR A 2
C28A C 0.298(2) 0.2509(17) 0.2427(15) 0.0465(18) Uiso 0.120(3) 1 d PR A 2
H28A H 0.3511 0.1605 0.2157 0.056 Uiso 0.120(3) 1 calc PR A 2
C29A C 0.235(2) 0.2347(17) 0.3708(15) 0.0465(18) Uiso 0.120(3) 1 d PR A 2
H29A H 0.2416 0.1341 0.4307 0.056 Uiso 0.120(3) 1 calc PR A 2
C30A C 0.156(2) 0.3686(17) 0.4185(15) 0.0465(18) Uiso 0.120(3) 1 d PR A 2
C31A C 0.113(2) 0.1988(17) 0.6505(15) 0.0465(18) Uiso 0.120(3) 1 d PR A 2
H31A H 0.1682 0.1221 0.6015 0.070 Uiso 0.120(3) 1 calc PR A 2
H31B H -0.0061 0.1705 0.6856 0.070 Uiso 0.120(3) 1 calc PR A 2
H31C H 0.1887 0.2000 0.7260 0.070 Uiso 0.120(3) 1 calc PR A 2
C1B C 0.736(3) 0.2511(10) 0.3274(10) 0.0333(19) Uani 0.444(5) 1 d PDU B 1
C2B C 0.6800(13) 0.3708(10) 0.4083(8) 0.0332(17) Uani 0.444(5) 1 d PDU B 1
C3B C 0.6717(14) 0.5202(9) 0.3230(8) 0.0349(18) Uani 0.444(5) 1 d PDU B 1
C4B C 0.711(4) 0.4927(10) 0.1805(8) 0.034(2) Uani 0.444(5) 1 d PDU B 1
C5B C 0.453(4) 0.5219(10) 0.7247(8) 0.0315(17) Uani 0.444(5) 1 d PDU B 1
C6B C 0.4496(11) 0.4906(9) 0.5889(9) 0.0325(12) Uani 0.444(5) 1 d PDU B 1
C7B C 0.4294(15) 0.6412(10) 0.4856(8) 0.0322(12) Uani 0.444(5) 1 d PDU B 1
C8B C 0.431(3) 0.7613(10) 0.5732(9) 0.0329(17) Uani 0.444(5) 1 d PDU B 1
C9B C 0.7681(18) 0.2649(12) 0.0774(10) 0.0397(19) Uani 0.444(5) 1 d PDU B 1
H9B H 0.7497 0.3510 -0.0058 0.048 Uiso 0.444(5) 1 calc PR B 1
C10B C 0.9434(17) 0.1659(14) 0.0558(13) 0.047(2) Uani 0.444(5) 1 d PDU B 1
H10C H 1.0370 0.2266 0.0015 0.056 Uiso 0.444(5) 1 calc PR B 1
H10D H 0.9925 0.0973 0.1401 0.056 Uiso 0.444(5) 1 calc PR B 1
C11B C 0.837(2) 0.0835(14) -0.0245(13) 0.060(3) Uani 0.444(5) 1 d PDU B 1
H11C H 0.8709 -0.0303 -0.0088 0.072 Uiso 0.444(5) 1 calc PR B 1
H11D H 0.8324 0.1335 -0.1224 0.072 Uiso 0.444(5) 1 calc PR B 1
C12B C 0.6662(17) 0.1293(14) 0.0614(14) 0.047(2) Uani 0.444(5) 1 d PDU B 1
H12C H 0.5555 0.1616 0.0091 0.056 Uiso 0.444(5) 1 calc PR B 1
H12D H 0.6445 0.0516 0.1470 0.056 Uiso 0.444(5) 1 calc PR B 1
C13B C 0.408(2) 0.7563(12) 0.8230(10) 0.041(2) Uani 0.444(5) 1 d PDU B 1
H13B H 0.4239 0.6737 0.9088 0.050 Uiso 0.444(5) 1 calc PR B 1
C14B C 0.514(2) 0.8948(15) 0.8286(14) 0.051(3) Uani 0.444(5) 1 d PDU B 1
H14C H 0.6169 0.8659 0.8896 0.061 Uiso 0.444(5) 1 calc PR B 1
H14D H 0.5510 0.9563 0.7384 0.061 Uiso 0.444(5) 1 calc PR B 1
C15B C 0.350(2) 0.9677(15) 0.8899(15) 0.061(3) Uani 0.444(5) 1 d PDU B 1
H15C H 0.3229 1.0807 0.8498 0.073 Uiso 0.444(5) 1 calc PR B 1
H15D H 0.3487 0.9461 0.9900 0.073 Uiso 0.444(5) 1 calc PR B 1
C16B C 0.235(2) 0.8614(17) 0.8341(16) 0.053(3) Uani 0.444(5) 1 d PDU B 1
H16C H 0.1442 0.8108 0.9000 0.063 Uiso 0.444(5) 1 calc PR B 1
H16D H 0.1805 0.9122 0.7460 0.063 Uiso 0.444(5) 1 calc PR B 1
N1B N 0.740(2) 0.3338(10) 0.1939(8) 0.0347(17) Uani 0.444(5) 1 d PDU B 1
N2B N 0.432(3) 0.6845(10) 0.7074(8) 0.0346(18) Uani 0.444(5) 1 d PDU B 1
O1B O 0.770(3) 0.1117(9) 0.3696(12) 0.046(3) Uani 0.444(5) 1 d PDU B 1
O2B O 0.721(2) 0.5933(13) 0.0764(10) 0.053(3) Uani 0.444(5) 1 d PDU B 1
O3B O 0.464(4) 0.4284(13) 0.8315(9) 0.053(3) Uani 0.444(5) 1 d PDU B 1
O4B O 0.423(3) 0.9000(9) 0.5290(12) 0.043(3) Uani 0.444(5) 1 d PDU B 1
S1B S 0.6393(5) 0.3358(3) 0.5828(3) 0.0416(10) Uani 0.444(5) 1 d PU B 1
S2B S 0.6134(5) 0.6907(3) 0.3634(4) 0.0396(10) Uani 0.444(5) 1 d PU B 1
C17B C 0.2639(10) 0.4051(7) 0.5882(7) 0.0412(13) Uani 0.444(5) 1 d PDU B 1
C18B C 0.1128(12) 0.5232(9) 0.6176(9) 0.0421(15) Uani 0.444(5) 1 d PDU B 1
C19B C 0.0016(13) 0.4995(13) 0.7327(10) 0.0483(19) Uani 0.444(5) 1 d PDU B 1
H19B H 0.0091 0.4036 0.7992 0.058 Uiso 0.444(5) 1 calc PR B 1
C20B C -0.1236(19) 0.6265(14) 0.7449(12) 0.060(2) Uani 0.444(5) 1 d PDU B 1
H20B H -0.2013 0.6177 0.8228 0.072 Uiso 0.444(5) 1 calc PR B 1
C21B C -0.1344(19) 0.7629(14) 0.6452(12) 0.062(3) Uani 0.444(5) 1 d PDU B 1
H21B H -0.2233 0.8451 0.6533 0.075 Uiso 0.444(5) 1 calc PR B 1
C22B C -0.0204(14) 0.7818(14) 0.5356(12) 0.053(2) Uani 0.444(5) 1 d PDU B 1
H22B H -0.0260 0.8785 0.4701 0.063 Uiso 0.444(5) 1 calc PR B 1
C23B C 0.1057(12) 0.6589(9) 0.5188(9) 0.0430(16) Uani 0.444(5) 1 d PDU B 1
C24B C 0.2469(12) 0.6742(9) 0.4112(8) 0.0424(13) Uani 0.444(5) 1 d PDU B 1
H24B H 0.2349 0.7766 0.3431 0.051 Uiso 0.444(5) 1 calc PR B 1
C25B C 0.2466(14) 0.5360(9) 0.3503(8) 0.0453(16) Uani 0.444(5) 1 d PDU B 1
C26B C 0.2402(19) 0.5309(13) 0.2157(9) 0.055(2) Uani 0.444(5) 1 d PDU B 1
H26B H 0.2215 0.6268 0.1500 0.066 Uiso 0.444(5) 1 calc PR B 1
C27B C 0.259(3) 0.3966(15) 0.1725(11) 0.067(3) Uani 0.444(5) 1 d PDU B 1
H27B H 0.2636 0.4008 0.0782 0.080 Uiso 0.444(5) 1 calc PR B 1
C28B C 0.272(3) 0.2531(14) 0.2649(12) 0.068(3) Uani 0.444(5) 1 d PDU B 1
H28B H 0.2865 0.1590 0.2345 0.081 Uiso 0.444(5) 1 calc PR B 1
C29B C 0.262(2) 0.2485(11) 0.4027(12) 0.059(2) Uani 0.444(5) 1 d PDU B 1
H29B H 0.2604 0.1519 0.4679 0.071 Uiso 0.444(5) 1 calc PR B 1
C30B C 0.2558(14) 0.3860(9) 0.4419(9) 0.0460(16) Uani 0.444(5) 1 d PDU B 1
C31B C 0.2514(11) 0.2458(6) 0.6846(7) 0.066(2) Uani 0.444(5) 1 d PDU B 1
H31D H 0.3434 0.1703 0.6588 0.099 Uiso 0.444(5) 1 calc PR B 1
H31E H 0.1323 0.2112 0.6797 0.099 Uiso 0.444(5) 1 calc PR B 1
H31F H 0.2704 0.2534 0.7773 0.099 Uiso 0.444(5) 1 calc PR B 1
C1C C 0.736(4) 0.2360(11) 0.3542(10) 0.045(2) Uani 0.436(5) 1 d PDU C 3
C2C C 0.7353(16) 0.3617(12) 0.4308(9) 0.0446(14) Uani 0.436(5) 1 d PDU C 3
C3C C 0.7233(15) 0.5090(12) 0.3398(10) 0.0470(14) Uani 0.436(5) 1 d PDU C 3
C4C C 0.718(4) 0.4719(12) 0.2000(9) 0.049(2) Uani 0.436(5) 1 d PDU C 3
C5C C 0.459(5) 0.4990(12) 0.7434(10) 0.050(2) Uani 0.436(5) 1 d PDU C 3
C6C C 0.4928(18) 0.4751(11) 0.6056(11) 0.053(2) Uani 0.436(5) 1 d PDU C 3
C7C C 0.4835(14) 0.6270(12) 0.5064(10) 0.0464(18) Uani 0.436(5) 1 d PDU C 3
C8C C 0.426(4) 0.7418(12) 0.5970(11) 0.049(2) Uani 0.436(5) 1 d PDU C 3
C9C C 0.768(2) 0.2347(14) 0.1069(11) 0.060(3) Uani 0.436(5) 1 d PDU C 3
H9C H 0.7563 0.3147 0.0192 0.072 Uiso 0.436(5) 1 calc PR C 3
C10C C 0.938(2) 0.1228(17) 0.0999(16) 0.068(3) Uani 0.436(5) 1 d PDU C 3
H10E H 1.0382 0.1729 0.0440 0.082 Uiso 0.436(5) 1 calc PR C 3
H10F H 0.9802 0.0619 0.1894 0.082 Uiso 0.436(5) 1 calc PR C 3
C11C C 0.830(2) 0.0341(16) 0.0273(15) 0.069(3) Uani 0.436(5) 1 d PDU C 3
H11E H 0.8561 -0.0807 0.0536 0.082 Uiso 0.436(5) 1 calc PR C 3
H11F H 0.8306 0.0730 -0.0724 0.082 Uiso 0.436(5) 1 calc PR C 3
C12C C 0.658(2) 0.0984(17) 0.1029(16) 0.064(3) Uani 0.436(5) 1 d PDU C 3
H12E H 0.5506 0.1286 0.0471 0.077 Uiso 0.436(5) 1 calc PR C 3
H12F H 0.6303 0.0316 0.1929 0.077 Uiso 0.436(5) 1 calc PR C 3
C13C C 0.390(2) 0.7250(14) 0.8484(12) 0.059(3) Uani 0.436(5) 1 d PDU C 3
H13C H 0.4052 0.6373 0.9308 0.071 Uiso 0.436(5) 1 calc PR C 3
C14C C 0.494(2) 0.8587(17) 0.8676(16) 0.059(3) Uani 0.436(5) 1 d PDU C 3
H14E H 0.5941 0.8241 0.9308 0.070 Uiso 0.436(5) 1 calc PR C 3
H14F H 0.5345 0.9270 0.7816 0.070 Uiso 0.436(5) 1 calc PR C 3
C15C C 0.326(2) 0.9254(16) 0.9302(16) 0.065(3) Uani 0.436(5) 1 d PDU C 3
H15E H 0.2990 1.0393 0.8950 0.078 Uiso 0.436(5) 1 calc PR C 3
H15F H 0.3227 0.8973 1.0304 0.078 Uiso 0.436(5) 1 calc PR C 3
C16C C 0.215(2) 0.8241(19) 0.8657(17) 0.062(3) Uani 0.436(5) 1 d PDU C 3
H16E H 0.1260 0.7672 0.9287 0.074 Uiso 0.436(5) 1 calc PR C 3
H16F H 0.1602 0.8807 0.7793 0.074 Uiso 0.436(5) 1 calc PR C 3
N1C N 0.741(3) 0.3125(11) 0.2187(9) 0.052(2) Uani 0.436(5) 1 d PDU C 3
N2C N 0.420(3) 0.6604(11) 0.7295(9) 0.050(2) Uani 0.436(5) 1 d PDU C 3
O1C O 0.745(4) 0.0959(11) 0.4002(13) 0.055(3) Uani 0.436(5) 1 d PDU C 3
O2C O 0.688(2) 0.5674(12) 0.0940(9) 0.043(2) Uani 0.436(5) 1 d PDU C 3
O3C O 0.454(5) 0.4011(14) 0.8472(10) 0.061(4) Uani 0.436(5) 1 d PDU C 3
O4C O 0.398(4) 0.8805(11) 0.5547(14) 0.060(5) Uani 0.436(5) 1 d PDU C 3
S1C S 0.5470(6) 0.3063(4) 0.5604(4) 0.0522(9) Uani 0.436(5) 1 d PU C 3
S2C S 0.5229(5) 0.6595(4) 0.3411(3) 0.0521(9) Uani 0.436(5) 1 d PU C 3
C17C C 0.9206(12) 0.3329(8) 0.5134(8) 0.0448(14) Uani 0.436(5) 1 d PDU C 3
C18C C 0.9257(14) 0.4712(9) 0.5776(9) 0.0492(17) Uani 0.436(5) 1 d PDU C 3
C19C C 0.927(2) 0.4593(14) 0.7156(10) 0.067(2) Uani 0.436(5) 1 d PDU C 3
H19C H 0.9268 0.3614 0.7792 0.080 Uiso 0.436(5) 1 calc PR C 3
C20C C 0.928(2) 0.6005(16) 0.7567(11) 0.075(3) Uani 0.436(5) 1 d PDU C 3
H20C H 0.9389 0.5991 0.8496 0.090 Uiso 0.436(5) 1 calc PR C 3
C21C C 0.914(2) 0.7409(14) 0.6611(13) 0.076(3) Uani 0.436(5) 1 d PDU C 3
H21C H 0.9112 0.8356 0.6900 0.091 Uiso 0.436(5) 1 calc PR C 3
C22C C 0.905(2) 0.7468(12) 0.5270(13) 0.063(2) Uani 0.436(5) 1 d PDU C 3
H22C H 0.8895 0.8451 0.4640 0.076 Uiso 0.436(5) 1 calc PR C 3
C23C C 0.9185(15) 0.6087(9) 0.4809(9) 0.0537(18) Uani 0.436(5) 1 d PDU C 3
C24C C 0.9050(12) 0.6014(9) 0.3389(9) 0.0531(15) Uani 0.436(5) 1 d PDU C 3
H24C H 0.9010 0.7058 0.2736 0.064 Uiso 0.436(5) 1 calc PR C 3
C25C C 1.0546(14) 0.4870(10) 0.3087(10) 0.0550(19) Uani 0.436(5) 1 d PDU C 3
C26C C 1.1642(17) 0.4921(15) 0.1937(12) 0.066(3) Uani 0.436(5) 1 d PDU C 3
H26C H 1.1604 0.5870 0.1260 0.080 Uiso 0.436(5) 1 calc PR C 3
C27C C 1.276(3) 0.3695(16) 0.1722(14) 0.082(4) Uani 0.436(5) 1 d PDU C 3
H27C H 1.3492 0.3816 0.0916 0.099 Uiso 0.436(5) 1 calc PR C 3
C28C C 1.287(3) 0.2268(15) 0.2655(14) 0.081(4) Uani 0.436(5) 1 d PDU C 3
H28C H 1.3622 0.1402 0.2483 0.097 Uiso 0.436(5) 1 calc PR C 3
C29C C 1.1840(15) 0.2134(13) 0.3850(13) 0.058(2) Uani 0.436(5) 1 d PDU C 3
H29C H 1.1957 0.1205 0.4547 0.070 Uiso 0.436(5) 1 calc PR C 3
C30C C 1.0662(14) 0.3363(10) 0.3999(10) 0.0510(18) Uani 0.436(5) 1 d PDU C 3
C31C C 0.9489(11) 0.1771(7) 0.6153(7) 0.0611(19) Uani 0.436(5) 1 d PDU C 3
H31G H 0.9623 0.0924 0.5675 0.092 Uiso 0.436(5) 1 calc PR C 3
H31H H 0.8451 0.1637 0.6785 0.092 Uiso 0.436(5) 1 calc PR C 3
H31I H 1.0575 0.1745 0.6656 0.092 Uiso 0.436(5) 1 calc PR C 3
loop_
_atom_site_aniso_label
_atom_site_aniso_U_11
_atom_site_aniso_U_22
_atom_site_aniso_U_33
_atom_site_aniso_U_23
_atom_site_aniso_U_13
_atom_site_aniso_U_12
C1B 0.028(5) 0.022(2) 0.045(3) -0.003(2) -0.001(5) 0.008(4)
C2B 0.030(4) 0.025(2) 0.042(2) -0.006(2) 0.001(3) 0.003(3)
C3B 0.039(4) 0.019(2) 0.036(2) 0.0054(18) -0.006(3) 0.017(3)
C4B 0.036(5) 0.025(3) 0.038(3) -0.004(2) -0.003(5) 0.002(4)
C5B 0.026(5) 0.023(3) 0.040(3) 0.0022(19) -0.002(4) 0.000(4)
C6B 0.034(3) 0.021(2) 0.038(2) -0.0038(18) -0.004(2) 0.0124(18)
C7B 0.029(3) 0.021(2) 0.044(3) -0.0041(19) -0.002(2) -0.001(2)
C8B 0.031(5) 0.021(2) 0.044(3) -0.003(2) 0.004(3) -0.004(4)
C9B 0.043(4) 0.034(4) 0.045(3) -0.014(3) -0.008(4) 0.001(3)
C10B 0.043(4) 0.047(5) 0.050(5) -0.013(4) -0.006(4) 0.008(4)
C11B 0.073(5) 0.049(5) 0.064(5) -0.029(4) -0.012(5) 0.011(5)
C12B 0.049(4) 0.037(5) 0.059(6) -0.017(4) -0.021(4) 0.002(4)
C13B 0.049(4) 0.032(4) 0.044(4) -0.008(3) 0.001(4) -0.010(4)
C14B 0.054(4) 0.052(5) 0.054(6) -0.020(4) 0.000(5) -0.024(4)
C15B 0.081(6) 0.052(5) 0.060(6) -0.032(5) 0.008(5) -0.016(5)
C16B 0.046(4) 0.056(6) 0.063(6) -0.029(5) 0.015(5) -0.013(4)
N1B 0.037(4) 0.028(3) 0.038(3) -0.007(2) -0.011(3) 0.001(3)
N2B 0.038(4) 0.020(3) 0.044(3) -0.005(2) 0.001(4) -0.003(3)
O1B 0.053(9) 0.022(3) 0.058(5) -0.005(3) 0.003(6) 0.010(5)
O2B 0.065(9) 0.037(4) 0.047(3) 0.009(3) 0.020(4) -0.019(4)
O3B 0.076(7) 0.036(4) 0.036(3) 0.014(3) 0.010(4) -0.011(6)
O4B 0.045(6) 0.016(2) 0.061(6) -0.001(3) 0.006(6) 0.005(4)
S1B 0.045(2) 0.0318(16) 0.0387(12) 0.0030(10) -0.0047(14) 0.0154(14)
S2B 0.049(2) 0.0188(11) 0.0447(16) -0.0001(10) 0.0093(16) 0.0036(14)
C17B 0.043(2) 0.029(2) 0.049(3) 0.001(2) -0.006(3) -0.0074(19)
C18B 0.031(3) 0.041(3) 0.053(3) -0.008(2) -0.005(3) -0.009(2)
C19B 0.024(4) 0.061(4) 0.065(4) -0.013(3) -0.002(3) -0.027(3)
C20B 0.023(5) 0.089(5) 0.070(5) -0.021(4) 0.007(4) -0.014(4)
C21B 0.029(5) 0.076(5) 0.082(5) -0.023(4) -0.004(4) 0.005(4)
C22B 0.019(4) 0.055(4) 0.077(5) -0.003(4) -0.011(3) 0.004(3)
C23B 0.030(3) 0.040(3) 0.057(3) -0.007(2) -0.010(3) -0.003(3)
C24B 0.040(2) 0.037(3) 0.045(3) 0.002(2) -0.013(2) 0.002(3)
C25B 0.041(4) 0.046(3) 0.047(3) -0.006(2) -0.016(3) -0.003(3)
C26B 0.049(5) 0.070(4) 0.046(3) -0.008(3) -0.016(4) -0.008(5)
C27B 0.054(7) 0.098(6) 0.063(4) -0.037(3) -0.004(5) -0.025(6)
C28B 0.060(7) 0.073(5) 0.088(5) -0.046(4) -0.017(5) -0.023(5)
C29B 0.058(5) 0.049(3) 0.077(4) -0.021(3) -0.019(5) -0.012(5)
C30B 0.046(4) 0.040(3) 0.052(3) -0.007(2) -0.012(3) -0.005(3)
C31B 0.076(5) 0.041(3) 0.068(4) 0.015(3) -0.001(4) -0.007(3)
C1C 0.036(5) 0.044(3) 0.051(3) -0.001(3) -0.015(4) 0.004(5)
C2C 0.035(3) 0.042(3) 0.055(3) -0.004(2) -0.011(2) -0.005(2)
C3C 0.043(3) 0.042(3) 0.050(3) 0.000(2) -0.019(2) 0.008(2)
C4C 0.039(5) 0.048(4) 0.053(3) 0.000(2) -0.017(4) 0.008(4)
C5C 0.041(6) 0.038(4) 0.069(3) -0.012(2) -0.010(6) 0.001(5)
C6C 0.047(5) 0.042(3) 0.065(3) -0.008(2) -0.013(4) 0.013(4)
C7C 0.031(4) 0.044(3) 0.068(3) -0.018(2) -0.018(3) -0.007(4)
C8C 0.038(6) 0.039(3) 0.066(3) -0.008(3) -0.013(6) 0.005(5)
C9C 0.067(6) 0.057(5) 0.052(4) -0.010(4) -0.014(5) 0.013(4)
C10C 0.064(5) 0.074(7) 0.067(6) -0.026(5) 0.003(6) 0.011(5)
C11C 0.083(7) 0.066(6) 0.056(6) -0.018(5) 0.004(6) 0.005(6)
C12C 0.067(5) 0.062(6) 0.062(6) -0.018(5) -0.008(5) 0.010(5)
C13C 0.064(6) 0.050(5) 0.066(4) -0.018(4) -0.008(5) 0.005(5)
C14C 0.060(6) 0.055(6) 0.060(6) -0.014(5) -0.001(5) 0.001(5)
C15C 0.074(7) 0.054(6) 0.069(7) -0.022(5) 0.013(5) -0.002(5)
C16C 0.059(6) 0.059(6) 0.065(6) -0.015(5) 0.005(5) 0.001(5)
N1C 0.050(5) 0.048(4) 0.052(3) -0.007(3) -0.012(5) 0.016(4)
N2C 0.045(6) 0.041(4) 0.060(3) -0.007(3) -0.010(4) 0.009(4)
O1C 0.046(7) 0.039(3) 0.074(7) -0.006(3) 0.003(7) -0.003(5)
O2C 0.034(5) 0.047(5) 0.044(4) -0.003(3) -0.009(5) 0.001(5)
O3C 0.080(10) 0.043(5) 0.061(4) -0.010(3) -0.024(7) 0.004(7)
O4C 0.066(11) 0.040(4) 0.065(6) -0.001(3) -0.001(7) 0.008(6)
S1C 0.047(2) 0.0431(15) 0.069(2) -0.0144(13) -0.0017(15) -0.0107(14)
S2C 0.0434(18) 0.0436(17) 0.0679(16) -0.0086(13) -0.0236(15) 0.0028(14)
C17C 0.038(3) 0.035(3) 0.056(3) 0.001(2) -0.015(2) 0.001(3)
C18C 0.039(4) 0.045(3) 0.063(3) -0.009(2) -0.016(3) -0.006(3)
C19C 0.059(6) 0.079(5) 0.065(3) -0.018(3) -0.014(5) -0.008(5)
C20C 0.050(7) 0.105(6) 0.085(5) -0.046(4) -0.010(5) -0.015(6)
C21C 0.050(7) 0.081(5) 0.114(6) -0.053(4) -0.013(6) -0.005(5)
C22C 0.045(5) 0.047(3) 0.104(5) -0.023(3) -0.012(6) -0.013(4)
C23C 0.047(4) 0.041(3) 0.074(3) -0.009(2) -0.017(4) -0.007(4)
C24C 0.048(3) 0.038(3) 0.066(3) 0.003(3) -0.014(3) -0.003(2)
C25C 0.046(3) 0.047(3) 0.067(4) -0.001(3) -0.007(3) -0.007(3)
C26C 0.048(5) 0.073(5) 0.074(5) -0.004(4) -0.003(4) -0.016(4)
C27C 0.047(7) 0.098(6) 0.097(6) -0.016(5) 0.017(5) -0.011(5)
C28C 0.044(6) 0.086(6) 0.106(7) -0.019(5) 0.008(5) 0.011(5)
C29C 0.038(5) 0.051(4) 0.087(5) -0.016(4) -0.009(4) 0.000(3)
C30C 0.038(3) 0.044(3) 0.067(4) -0.005(3) -0.009(3) -0.001(3)
C31C 0.069(5) 0.041(3) 0.065(4) 0.009(3) -0.022(3) -0.007(3)
loop_
_atom_type_symbol
_atom_type_description
_atom_type_scat_dispersion_real
_atom_type_scat_dispersion_imag
_atom_type_scat_source
C C 0.0033 0.0016 'International Tables Vol C Tables 4.2.6.8 and 6.1.1.4'
H H 0.0000 0.0000 'International Tables Vol C Tables 4.2.6.8 and 6.1.1.4'
N N 0.0061 0.0033 'International Tables Vol C Tables 4.2.6.8 and 6.1.1.4'
O O 0.0106 0.0060 'International Tables Vol C Tables 4.2.6.8 and 6.1.1.4'
S S 0.1246 0.1234 'International Tables Vol C Tables 4.2.6.8 and 6.1.1.4'
loop_
_geom_angle_atom_site_label_1
_geom_angle_atom_site_label_2
_geom_angle_atom_site_label_3
_geom_angle
O1A C1A N1A 129.1
O1A C1A C2A 124.3
N1A C1A C2A 106.6
C3A C2A C1A 107.2
C3A C2A S1A 131.7
C1A C2A S1A 121.0
C2A C3A C4A 105.7
C2A C3A S2A 132.6
C4A C3A S2A 121.6
O2A C4A N1A 122.8
O2A C4A C3A 126.0
N1A C4A C3A 111.1
O3A C5A N2A 129.0
O3A C5A C6A 128.9
N2A C5A C6A 102.0
C7A C6A C5A 112.2
C7A C6A S1A 131.0
C5A C6A S1A 116.7
C6A C7A C8A 108.2
C6A C7A S2A 133.0
C8A C7A S2A 118.8
O4A C8A N2A 124.0
O4A C8A C7A 128.2
N2A C8A C7A 107.7
N1A C9A C10A 120.7
N1A C9A C12A 119.3
C10A C9A C12A 88.9
N1A C9A H9A 108.7
C10A C9A H9A 108.7
C12A C9A H9A 108.7
C9A C10A C11A 87.5
C9A C10A H10A 114.1
C11A C10A H10A 114.1
C9A C10A H10B 114.1
C11A C10A H10B 114.1
H10A C10A H10B 111.3
C12A C11A C10A 89.3
C12A C11A H11A 113.8
C10A C11A H11A 113.8
C12A C11A H11B 113.8
C10A C11A H11B 113.8
H11A C11A H11B 111.0
C11A C12A C9A 87.3
C11A C12A H12A 114.1
C9A C12A H12A 114.1
C11A C12A H12B 114.1
C9A C12A H12B 114.1
H12A C12A H12B 111.3
N2A C13A C16A 122.0
N2A C13A C14A 119.1
C16A C13A C14A 89.2
N2A C13A H13A 108.3
C16A C13A H13A 108.3
C14A C13A H13A 108.3
C13A C14A C15A 87.4
C13A C14A H14A 114.1
C15A C14A H14A 114.1
C13A C14A H14B 114.1
C15A C14A H14B 114.1
H14A C14A H14B 111.3
C14A C15A C16A 86.7
C14A C15A H15A 114.2
C16A C15A H15A 114.2
C14A C15A H15B 114.2
C16A C15A H15B 114.2
H15A C15A H15B 111.4
C13A C16A C15A 87.8
C13A C16A H16A 114.0
C15A C16A H16A 114.0
C13A C16A H16B 114.0
C15A C16A H16B 114.0
H16A C16A H16B 111.2
C4A N1A C1A 109.3
C4A N1A C9A 124.3
C1A N1A C9A 125.4
C5A N2A C8A 109.7
C5A N2A C13A 122.2
C8A N2A C13A 127.7
C2A S1A C6A 95.8
C3A S2A C7A 95.7
C18A C17A C30A 124.6
C18A C17A C31A 119.3
C30A C17A C31A 116.0
C19A C18A C17A 121.8
C19A C18A C23A 123.4
C17A C18A C23A 114.7
C20A C19A C18A 120.7
C20A C19A H19A 119.7
C18A C19A H19A 119.7
C19A C20A C21A 119.6
C19A C20A H20A 120.2
C21A C20A H20A 120.2
C22A C21A C20A 119.5
C22A C21A H21A 120.2
C20A C21A H21A 120.2
C21A C22A C23A 123.0
C21A C22A H22A 118.5
C23A C22A H22A 118.5
C24A C23A C22A 121.4
C24A C23A C18A 124.8
C22A C23A C18A 113.8
C23A C24A C25A 116.8
C23A C24A H24A 121.6
C25A C24A H24A 121.6
C24A C25A C30A 123.4
C24A C25A C26A 123.8
C30A C25A C26A 112.8
C27A C26A C25A 124.2
C27A C26A H26A 117.9
C25A C26A H26A 117.9
C26A C27A C28A 118.0
C26A C27A H27A 121.0
C28A C27A H27A 121.0
C29A C28A C27A 123.6
C29A C28A H28A 118.2
C27A C28A H28A 118.2
C28A C29A C30A 120.6
C28A C29A H29A 119.7
C30A C29A H29A 119.7
C17A C30A C25A 115.6
C17A C30A C29A 123.6
C25A C30A C29A 120.7
C17A C31A H31A 109.5
C17A C31A H31B 109.5
H31A C31A H31B 109.5
C17A C31A H31C 109.5
H31A C31A H31C 109.5
H31B C31A H31C 109.5
O1B C1B N1B 127.1(7)
O1B C1B C2B 127.6(7)
N1B C1B C2B 105.3(5)
C3B C2B C1B 109.7(6)
C3B C2B S1B 123.4(6)
C1B C2B S1B 126.9(6)
C2B C3B C4B 104.7(5)
C2B C3B S2B 128.1(6)
C4B C3B S2B 127.0(5)
O2B C4B N1B 126.8(8)
O2B C4B C3B 126.0(7)
N1B C4B C3B 107.2(5)
O3B C5B N2B 125.3(7)
O3B C5B C6B 127.7(7)
N2B C5B C6B 106.9(6)
C5B C6B C7B 109.5(5)
C5B C6B C17B 105.5(11)
C7B C6B C17B 106.6(7)
C5B C6B S1B 105.5(9)
C7B C6B S1B 122.9(6)
C17B C6B S1B 105.6(5)
C6B C7B C8B 101.9(6)
C6B C7B C24B 114.6(8)
C8B C7B C24B 107.4(11)
C6B C7B S2B 118.5(7)
C8B C7B S2B 103.1(9)
C24B C7B S2B 109.8(6)
O4B C8B N2B 126.4(8)
O4B C8B C7B 124.3(8)
N2B C8B C7B 109.2(5)
N1B C9B C12B 122.5(8)
N1B C9B C10B 121.4(7)
C12B C9B C10B 87.9(6)
N1B C9B H9B 107.7
C12B C9B H9B 107.7
C10B C9B H9B 107.7
C11B C10B C9B 87.7(6)
C11B C10B H10C 114.0
C9B C10B H10C 114.0
C11B C10B H10D 114.0
C9B C10B H10D 114.0
H10C C10B H10D 111.2
C10B C11B C12B 86.7(6)
C10B C11B H11C 114.2
C12B C11B H11C 114.2
C10B C11B H11D 114.2
C12B C11B H11D 114.2
H11C C11B H11D 111.4
C9B C12B C11B 85.6(6)
C9B C12B H12C 114.4
C11B C12B H12C 114.4
C9B C12B H12D 114.4
C11B C12B H12D 114.4
H12C C12B H12D 111.5
N2B C13B C16B 118.0(7)
N2B C13B C14B 120.3(8)
C16B C13B C14B 88.2(6)
N2B C13B H13B 109.5
C16B C13B H13B 109.5
C14B C13B H13B 109.5
C15B C14B C13B 89.0(7)
C15B C14B H14C 113.8
C13B C14B H14C 113.8
C15B C14B H14D 113.8
C13B C14B H14D 113.8
H14C C14B H14D 111.0
C14B C15B C16B 88.6(6)
C14B C15B H15C 113.9
C16B C15B H15C 113.9
C14B C15B H15D 113.9
C16B C15B H15D 113.9
H15C C15B H15D 111.1
C13B C16B C15B 87.4(6)
C13B C16B H16C 114.1
C15B C16B H16C 114.1
C13B C16B H16D 114.1
C15B C16B H16D 114.1
H16C C16B H16D 111.3
C4B N1B C1B 112.7(5)
C4B N1B C9B 122.1(6)
C1B N1B C9B 125.2(6)
C8B N2B C5B 112.1(5)
C8B N2B C13B 126.4(6)
C5B N2B C13B 121.5(6)
C2B S1B C6B 99.8(4)
C3B S2B C7B 101.4(4)
C31B C17B C18B 111.2(6)
C31B C17B C30B 108.4(6)
C18B C17B C30B 110.7(6)
C31B C17B C6B 117.2(6)
C18B C17B C6B 104.7(6)
C30B C17B C6B 104.4(6)
C23B C18B C19B 123.9(8)
C23B C18B C17B 111.5(7)
C19B C18B C17B 124.5(7)
C18B C19B C20B 115.9(9)
C18B C19B H19B 122.0
C20B C19B H19B 122.0
C21B C20B C19B 120.8(9)
C21B C20B H20B 119.6
C19B C20B H20B 119.6
C22B C21B C20B 121.1(9)
C22B C21B H21B 119.5
C20B C21B H21B 119.5
C21B C22B C23B 120.1(9)
C21B C22B H22B 119.9
C23B C22B H22B 119.9
C18B C23B C22B 118.0(8)
C18B C23B C24B 117.7(7)
C22B C23B C24B 123.8(8)
C23B C24B C25B 106.9(7)
C23B C24B C7B 105.8(7)
C25B C24B C7B 102.6(7)
C23B C24B H24B 113.6
C25B C24B H24B 113.6
C7B C24B H24B 113.6
C26B C25B C30B 113.8(7)
C26B C25B C24B 129.4(8)
C30B C25B C24B 116.7(7)
C27B C26B C25B 123.6(9)
C27B C26B H26B 118.2
C25B C26B H26B 118.2
C26B C27B C28B 120.5(9)
C26B C27B H27B 119.8
C28B C27B H27B 119.8
C27B C28B C29B 119.2(9)
C27B C28B H28B 120.4
C29B C28B H28B 120.4
C30B C29B C28B 118.4(9)
C30B C29B H29B 120.8
C28B C29B H29B 120.8
C29B C30B C25B 124.0(8)
C29B C30B C17B 126.4(7)
C25B C30B C17B 109.5(6)
C17B C31B H31D 109.5
C17B C31B H31E 109.5
H31D C31B H31E 109.5
C17B C31B H31F 109.5
H31D C31B H31F 109.5
H31E C31B H31F 109.5
O1C C1C N1C 126.8(8)
O1C C1C C2C 127.5(8)
N1C C1C C2C 105.4(6)
C3C C2C C1C 109.7(6)
C3C C2C C17C 110.6(9)
C1C C2C C17C 108.0(12)
C3C C2C S1C 120.1(8)
C1C C2C S1C 100.6(10)
C17C C2C S1C 107.0(6)
C2C C3C C4C 104.2(6)
C2C C3C C24C 112.1(9)
C4C C3C C24C 106.8(13)
C2C C3C S2C 122.3(8)
C4C C3C S2C 103.7(10)
C24C C3C S2C 106.5(6)
O2C C4C N1C 126.9(8)
O2C C4C C3C 125.5(7)
N1C C4C C3C 107.5(6)
O3C C5C N2C 125.9(9)
O3C C5C C6C 127.6(7)
N2C C5C C6C 106.4(6)
C5C C6C C7C 110.0(6)
C5C C6C S1C 127.6(7)
C7C C6C S1C 122.2(7)
C6C C7C C8C 101.9(6)
C6C C7C S2C 127.6(7)
C8C C7C S2C 130.5(7)
O4C C8C N2C 127.1(8)
O4C C8C C7C 123.8(8)
N2C C8C C7C 109.1(6)
N1C C9C C12C 120.3(8)
N1C C9C C10C 119.4(8)
C12C C9C C10C 87.4(6)
N1C C9C H9C 109.3
C12C C9C H9C 109.3
C10C C9C H9C 109.3
C11C C10C C9C 87.7(7)
C11C C10C H10E 114.0
C9C C10C H10E 114.0
C11C C10C H10F 114.0
C9C C10C H10F 114.0
H10E C10C H10F 111.2
C10C C11C C12C 86.7(6)
C10C C11C H11E 114.2
C12C C11C H11E 114.2
C10C C11C H11F 114.2
C12C C11C H11F 114.2
H11E C11C H11F 111.4
C9C C12C C11C 85.6(7)
C9C C12C H12E 114.4
C11C C12C H12E 114.4
C9C C12C H12F 114.4
C11C C12C H12F 114.4
H12E C12C H12F 111.5
N2C C13C C16C 119.6(8)
N2C C13C C14C 121.8(9)
C16C C13C C14C 88.8(6)
N2C C13C H13C 108.3
C16C C13C H13C 108.3
C14C C13C H13C 108.3
C15C C14C C13C 89.1(7)
C15C C14C H14E 113.8
C13C C14C H14E 113.8
C15C C14C H14F 113.8
C13C C14C H14F 113.8
H14E C14C H14F 111.0
C14C C15C C16C 88.8(6)
C14C C15C H15E 113.8
C16C C15C H15E 113.8
C14C C15C H15F 113.8
C16C C15C H15F 113.8
H15E C15C H15F 111.1
C13C C16C C15C 87.5(6)
C13C C16C H16E 114.1
C15C C16C H16E 114.1
C13C C16C H16F 114.1
C15C C16C H16F 114.1
H16E C16C H16F 111.2
C4C N1C C1C 112.4(6)
C4C N1C C9C 123.0(7)
C1C N1C C9C 124.6(6)
C8C N2C C5C 112.3(6)
C8C N2C C13C 127.1(6)
C5C N2C C13C 120.5(6)
C6C S1C C2C 101.0(5)
C7C S2C C3C 98.8(5)
C31C C17C C18C 112.5(6)
C31C C17C C30C 108.1(6)
C18C C17C C30C 110.8(7)
C31C C17C C2C 115.5(7)
C18C C17C C2C 106.8(7)
C30C C17C C2C 102.7(7)
C23C C18C C19C 124.8(8)
C23C C18C C17C 110.8(7)
C19C C18C C17C 124.3(8)
C18C C19C C20C 116.3(9)
C18C C19C H19C 121.8
C20C C19C H19C 121.8
C21C C20C C19C 119.7(9)
C21C C20C H20C 120.2
C19C C20C H20C 120.2
C22C C21C C20C 121.7(9)
C22C C21C H21C 119.2
C20C C21C H21C 119.2
C21C C22C C23C 120.4(9)
C21C C22C H22C 119.8
C23C C22C H22C 119.8
C18C C23C C22C 116.8(9)
C18C C23C C24C 117.9(7)
C22C C23C C24C 124.9(8)
C23C C24C C25C 107.5(7)
C23C C24C C3C 103.8(7)
C25C C24C C3C 103.3(8)
C23C C24C H24C 113.7
C25C C24C H24C 113.7
C3C C24C H24C 113.7
C26C C25C C30C 112.8(8)
C26C C25C C24C 130.3(8)
C30C C25C C24C 115.7(7)
C27C C26C C25C 123.8(9)
C27C C26C H26C 118.1
C25C C26C H26C 118.1
C26C C27C C28C 121.2(10)
C26C C27C H27C 119.4
C28C C27C H27C 119.4
C27C C28C C29C 118.4(9)
C27C C28C H28C 120.8
C29C C28C H28C 120.8
C30C C29C C28C 118.6(9)
C30C C29C H29C 120.7
C28C C29C H29C 120.7
C29C C30C C25C 124.7(8)
C29C C30C C17C 125.6(8)
C25C C30C C17C 109.7(6)
C17C C31C H31G 109.5
C17C C31C H31H 109.5
H31G C31C H31H 109.5
C17C C31C H31I 109.5
H31G C31C H31I 109.5
H31H C31C H31I 109.5
loop_
_geom_bond_atom_site_label_1
_geom_bond_atom_site_label_2
_geom_bond_distance
C1A O1A 1.1887
C1A N1A 1.3799
C1A C2A 1.5544
C2A C3A 1.3662
C2A S1A 1.7351
C3A C4A 1.4951
C3A S2A 1.7031
C4A O2A 1.2411
C4A N1A 1.3574
C5A O3A 1.1783
C5A N2A 1.4175
C5A C6A 1.5071
C6A C7A 1.3015
C6A S1A 1.7772
C7A C8A 1.4323
C7A S2A 1.7685
C8A O4A 1.2219
C8A N2A 1.4187
C9A N1A 1.4701
C9A C10A 1.5238
C9A C12A 1.5327
C9A H9A 1.0000
C10A C11A 1.5250
C10A H10A 0.9900
C10A H10B 0.9900
C11A C12A 1.5224
C11A H11A 0.9900
C11A H11B 0.9900
C12A H12A 0.9900
C12A H12B 0.9900
C13A N2A 1.4503
C13A C16A 1.5203
C13A C14A 1.5200
C13A H13A 1.0000
C14A C15A 1.5603
C14A H14A 0.9900
C14A H14B 0.9900
C15A C16A 1.5610
C15A H15A 0.9900
C15A H15B 0.9900
C16A H16A 0.9900
C16A H16B 0.9900
C17A C18A 1.3982
C17A C30A 1.4168
C17A C31A 1.5330
C18A C19A 1.3641
C18A C23A 1.4432
C19A C20A 1.3435
C19A H19A 0.9500
C20A C21A 1.4405
C20A H20A 0.9500
C21A C22A 1.3608
C21A H21A 0.9500
C22A C23A 1.4212
C22A H22A 0.9500
C23A C24A 1.3880
C24A C25A 1.3909
C24A H24A 0.9500
C25A C30A 1.4427
C25A C26A 1.5056
C26A C27A 1.3728
C26A H26A 0.9500
C27A C28A 1.3811
C27A H27A 0.9500
C28A C29A 1.3419
C28A H28A 0.9500
C29A C30A 1.4444
C29A H29A 0.9500
C31A H31A 0.9800
C31A H31B 0.9800
C31A H31C 0.9800
C1B O1B 1.211(8)
C1B N1B 1.382(9)
C1B C2B 1.505(8)
C2B C3B 1.396(8)
C2B S1B 1.743(8)
C3B C4B 1.535(9)
C3B S2B 1.667(8)
C4B O2B 1.215(9)
C4B N1B 1.375(8)
C5B O3B 1.200(9)
C5B N2B 1.401(8)
C5B C6B 1.474(10)
C6B C7B 1.487(9)
C6B C17B 1.652(5)
C6B S1B 1.880(9)
C7B C8B 1.542(9)
C7B C24B 1.566(14)
C7B S2B 1.822(10)
C8B O4B 1.200(8)
C8B N2B 1.373(9)
C9B N1B 1.453(8)
C9B C12B 1.532(11)
C9B C10B 1.539(10)
C9B H9B 1.0000
C10B C11B 1.518(11)
C10B H10C 0.9900
C10B H10D 0.9900
C11B C12B 1.584(12)
C11B H11C 0.9900
C11B H11D 0.9900
C12B H12C 0.9900
C12B H12D 0.9900
C13B N2B 1.459(8)
C13B C16B 1.535(10)
C13B C14B 1.541(10)
C13B H13B 1.0000
C14B C15B 1.507(12)
C14B H14C 0.9900
C14B H14D 0.9900
C15B C16B 1.557(11)
C15B H15C 0.9900
C15B H15D 0.9900
C16B H16C 0.9900
C16B H16D 0.9900
C17B C31B 1.523(4)
C17B C18B 1.527(10)
C17B C30B 1.542(11)
C18B C23B 1.369(11)
C18B C19B 1.386(12)
C19B C20B 1.414(13)
C19B H19B 0.9500
C20B C21B 1.378(14)
C20B H20B 0.9500
C21B C22B 1.356(13)
C21B H21B 0.9500
C22B C23B 1.402(11)
C22B H22B 0.9500
C23B C24B 1.473(11)
C24B C25B 1.497(11)
C24B H24B 1.0000
C25B C26B 1.384(12)
C25B C30B 1.427(10)
C26B C27B 1.353(14)
C26B H26B 0.9500
C27B C28B 1.387(13)
C27B H27B 0.9500
C28B C29B 1.390(12)
C28B H28B 0.9500
C29B C30B 1.364(11)
C29B H29B 0.9500
C31B H31D 0.9800
C31B H31E 0.9800
C31B H31F 0.9800
C1C O1C 1.212(8)
C1C N1C 1.383(9)
C1C C2C 1.503(9)
C2C C3C 1.406(9)
C2C C17C 1.628(14)
C2C S1C 1.898(11)
C3C C4C 1.537(10)
C3C C24C 1.657(12)
C3C S2C 1.904(11)
C4C O2C 1.217(9)
C4C N1C 1.372(8)
C5C O3C 1.197(10)
C5C N2C 1.404(8)
C5C C6C 1.471(10)
C6C C7C 1.475(9)
C6C S1C 1.670(10)
C7C C8C 1.544(9)
C7C S2C 1.652(10)
C8C O4C 1.201(8)
C8C N2C 1.370(9)
C9C N1C 1.459(8)
C9C C12C 1.536(11)
C9C C10C 1.544(10)
C9C H9C 1.0000
C10C C11C 1.517(11)
C10C H10E 0.9900
C10C H10F 0.9900
C11C C12C 1.584(13)
C11C H11E 0.9900
C11C H11F 0.9900
C12C H12E 0.9900
C12C H12F 0.9900
C13C N2C 1.453(8)
C13C C16C 1.529(10)
C13C C14C 1.535(11)
C13C H13C 1.0000
C14C C15C 1.507(13)
C14C H14E 0.9900
C14C H14F 0.9900
C15C C16C 1.557(11)
C15C H15E 0.9900
C15C H15F 0.9900
C16C H16E 0.9900
C16C H16F 0.9900
C17C C31C 1.519(6)
C17C C18C 1.523(10)
C17C C30C 1.542(11)
C18C C23C 1.369(11)
C18C C19C 1.382(12)
C19C C20C 1.411(13)
C19C H19C 0.9500
C20C C21C 1.382(14)
C20C H20C 0.9500
C21C C22C 1.358(13)
C21C H21C 0.9500
C22C C23C 1.403(11)
C22C H22C 0.9500
C23C C24C 1.470(11)
C24C C25C 1.501(11)
C24C H24C 1.0000
C25C C26C 1.388(12)
C25C C30C 1.429(11)
C26C C27C 1.356(14)
C26C H26C 0.9500
C27C C28C 1.386(13)
C27C H27C 0.9500
C28C C29C 1.390(13)
C28C H28C 0.9500
C29C C30C 1.361(11)
C29C H29C 0.9500
C31C H31G 0.9800
C31C H31H 0.9800
C31C H31I 0.9800
loop_
_geom_torsion_atom_site_label_1
_geom_torsion_atom_site_label_2
_geom_torsion_atom_site_label_3
_geom_torsion_atom_site_label_4
_geom_torsion
O1A C1A C2A C3A 177.7
N1A C1A C2A C3A 0.3
O1A C1A C2A S1A -5.2
N1A C1A C2A S1A 177.4
C1A C2A C3A C4A -0.7
S1A C2A C3A C4A -177.4
C1A C2A C3A S2A -179.8
S1A C2A C3A S2A 3.6
C2A C3A C4A O2A -177.1
S2A C3A C4A O2A 2.0
C2A C3A C4A N1A 1.0
S2A C3A C4A N1A -179.8
O3A C5A C6A C7A -178.1
N2A C5A C6A C7A 0.7
O3A C5A C6A S1A -1.1
N2A C5A C6A S1A 177.7
C5A C6A C7A C8A -2.4
S1A C6A C7A C8A -178.9
C5A C6A C7A S2A 177.5
S1A C6A C7A S2A 1.0
C6A C7A C8A O4A -179.4
S2A C7A C8A O4A 0.7
C6A C7A C8A N2A 3.2
S2A C7A C8A N2A -176.7
N1A C9A C10A C11A 143.7
C12A C9A C10A C11A 19.8
C9A C10A C11A C12A -20.0
C10A C11A C12A C9A 19.8
N1A C9A C12A C11A -145.0
C10A C9A C12A C11A -19.9
N2A C13A C14A C15A 149.3
C16A C13A C14A C15A 22.6
C13A C14A C15A C16A -22.0
N2A C13A C16A C15A -147.0
C14A C13A C16A C15A -22.6
C14A C15A C16A C13A 22.2
O2A C4A N1A C1A 177.4
C3A C4A N1A C1A -0.9
O2A C4A N1A C9A -13.4
C3A C4A N1A C9A 168.3
O1A C1A N1A C4A -176.9
C2A C1A N1A C4A 0.4
O1A C1A N1A C9A 14.0
C2A C1A N1A C9A -168.7
C10A C9A N1A C4A 125.3
C12A C9A N1A C4A -126.7
C10A C9A N1A C1A -67.2
C12A C9A N1A C1A 40.8
O3A C5A N2A C8A -179.8
C6A C5A N2A C8A 1.3
O3A C5A N2A C13A 6.9
C6A C5A N2A C13A -171.9
O4A C8A N2A C5A 179.7
C7A C8A N2A C5A -2.8
O4A C8A N2A C13A -7.5
C7A C8A N2A C13A 170.0
C16A C13A N2A C5A -127.6
C14A C13A N2A C5A 123.2
C16A C13A N2A C8A 60.4
C14A C13A N2A C8A -48.7
C3A C2A S1A C6A -1.3
C1A C2A S1A C6A -177.5
C7A C6A S1A C2A -0.9
C5A C6A S1A C2A -177.2
C2A C3A S2A C7A -2.8
C4A C3A S2A C7A 178.3
C6A C7A S2A C3A 0.6
C8A C7A S2A C3A -179.5
C30A C17A C18A C19A 175.9
C31A C17A C18A C19A -2.6
C30A C17A C18A C23A -1.2
C31A C17A C18A C23A -179.7
C17A C18A C19A C20A -179.9
C23A C18A C19A C20A -3.0
C18A C19A C20A C21A 0.6
C19A C20A C21A C22A 1.6
C20A C21A C22A C23A -1.4
C21A C22A C23A C24A -178.6
C21A C22A C23A C18A -0.8
C19A C18A C23A C24A -179.2
C17A C18A C23A C24A -2.2
C19A C18A C23A C22A 3.1
C17A C18A C23A C22A -179.8
C22A C23A C24A C25A -179.1
C18A C23A C24A C25A 3.4
C23A C24A C25A C30A -1.3
C23A C24A C25A C26A 178.7
C24A C25A C26A C27A 177.7
C30A C25A C26A C27A -2.3
C25A C26A C27A C28A 1.1
C26A C27A C28A C29A 1.0
C27A C28A C29A C30A -1.5
C18A C17A C30A C25A 3.0
C31A C17A C30A C25A -178.5
C18A C17A C30A C29A 179.6
C31A C17A C30A C29A -1.9
C24A C25A C30A C17A -1.6
C26A C25A C30A C17A 178.3
C24A C25A C30A C29A -178.3
C26A C25A C30A C29A 1.6
C28A C29A C30A C17A -176.4
C28A C29A C30A C25A 0.1
O1B C1B C2B C3B 174(2)
N1B C1B C2B C3B -6.4(18)
O1B C1B C2B S1B -3(3)
N1B C1B C2B S1B 176.2(11)
C1B C2B C3B C4B 4.1(17)
S1B C2B C3B C4B -178.4(13)
C1B C2B C3B S2B 179.0(12)
S1B C2B C3B S2B -3.5(15)
C2B C3B C4B O2B -178(2)
S2B C3B C4B O2B 6(3)
C2B C3B C4B N1B 0(2)
S2B C3B C4B N1B -175.4(12)
O3B C5B C6B C7B 178(3)
N2B C5B C6B C7B 1.2(19)
O3B C5B C6B C17B 64(3)
N2B C5B C6B C17B -113.2(15)
O3B C5B C6B S1B -48(3)
N2B C5B C6B S1B 135.3(14)
C5B C6B C7B C8B 2.5(16)
C17B C6B C7B C8B 116.2(12)
S1B C6B C7B C8B -121.9(11)
C5B C6B C7B C24B -113.1(12)
C17B C6B C7B C24B 0.6(8)
S1B C6B C7B C24B 122.5(8)
C5B C6B C7B S2B 114.7(12)
C17B C6B C7B S2B -131.7(7)
S1B C6B C7B S2B -9.8(9)
C6B C7B C8B O4B 177(2)
C24B C7B C8B O4B -62(3)
S2B C7B C8B O4B 54(3)
C6B C7B C8B N2B -5.6(18)
C24B C7B C8B N2B 115.2(15)
S2B C7B C8B N2B -128.9(14)
N1B C9B C10B C11B 153.9(9)
C12B C9B C10B C11B 26.5(8)
C9B C10B C11B C12B -25.6(8)
N1B C9B C12B C11B -151.9(9)
C10B C9B C12B C11B -25.4(8)
C10B C11B C12B C9B 25.8(8)
N2B C13B C14B C15B 141.4(9)
C16B C13B C14B C15B 19.7(9)
C13B C14B C15B C16B -19.4(9)
N2B C13B C16B C15B -142.8(9)
C14B C13B C16B C15B -19.1(9)
C14B C15B C16B C13B 19.5(9)
O2B C4B N1B C1B 174(3)
C3B C4B N1B C1B -4(2)
O2B C4B N1B C9B -7(3)
C3B C4B N1B C9B 175.3(12)
O1B C1B N1B C4B -174(3)
C2B C1B N1B C4B 6(2)
O1B C1B N1B C9B 7(3)
C2B C1B N1B C9B -172.9(12)
C12B C9B N1B C4B -131.3(17)
C10B C9B N1B C4B 119.0(18)
C12B C9B N1B C1B 47.8(18)
C10B C9B N1B C1B -61.9(18)
O4B C8B N2B C5B -176(3)
C7B C8B N2B C5B 7(2)
O4B C8B N2B C13B 6(3)
C7B C8B N2B C13B -170.7(13)
O3B C5B N2B C8B 178(3)
C6B C5B N2B C8B -5(2)
O3B C5B N2B C13B -5(4)
C6B C5B N2B C13B 172.6(12)
C16B C13B N2B C8B 57.7(19)
C14B C13B N2B C8B -47.9(19)
C16B C13B N2B C5B -119.7(17)
C14B C13B N2B C5B 134.7(17)
C3B C2B S1B C6B 38.3(10)
C1B C2B S1B C6B -144.7(13)
C5B C6B S1B C2B -155.8(9)
C7B C6B S1B C2B -29.6(7)
C17B C6B S1B C2B 92.7(6)
C2B C3B S2B C7B -39.0(11)
C4B C3B S2B C7B 134.9(15)
C6B C7B S2B C3B 42.7(8)
C8B C7B S2B C3B 154.2(9)
C24B C7B S2B C3B -91.7(6)
C5B C6B C17B C31B -64.6(9)
C7B C6B C17B C31B 179.1(6)
S1B C6B C17B C31B 46.8(8)
C5B C6B C17B C18B 59.2(8)
C7B C6B C17B C18B -57.2(7)
S1B C6B C17B C18B 170.6(5)
C5B C6B C17B C30B 175.6(7)
C7B C6B C17B C30B 59.2(7)
S1B C6B C17B C30B -73.0(6)
C31B C17B C18B C23B -170.3(8)
C30B C17B C18B C23B -49.8(10)
C6B C17B C18B C23B 62.1(9)
C31B C17B C18B C19B 12.3(12)
C30B C17B C18B C19B 132.8(10)
C6B C17B C18B C19B -115.2(10)
C23B C18B C19B C20B -0.5(16)
C17B C18B C19B C20B 176.5(11)
C18B C19B C20B C21B 1.6(18)
C19B C20B C21B C22B -3(2)
C20B C21B C22B C23B 3(2)
C19B C18B C23B C22B 0.7(16)
C17B C18B C23B C22B -176.7(10)
C19B C18B C23B C24B 172.5(10)
C17B C18B C23B C24B -4.8(13)
C21B C22B C23B C18B -2.0(18)
C21B C22B C23B C24B -173.3(12)
C18B C23B C24B C25B 54.9(11)
C22B C23B C24B C25B -133.8(11)
C18B C23B C24B C7B -53.9(11)
C22B C23B C24B C7B 117.4(11)
C6B C7B C24B C23B 53.9(8)
C8B C7B C24B C23B -58.5(9)
S2B C7B C24B C23B -169.8(5)
C6B C7B C24B C25B -58.0(9)
C8B C7B C24B C25B -170.4(7)
S2B C7B C24B C25B 78.3(7)
C23B C24B C25B C26B 129.2(12)
C7B C24B C25B C26B -119.8(13)
C23B C24B C25B C30B -51.4(11)
C7B C24B C25B C30B 59.6(11)
C30B C25B C26B C27B -6(2)
C24B C25B C26B C27B 173.0(15)
C25B C26B C27B C28B 5(3)
C26B C27B C28B C29B 1(3)
C27B C28B C29B C30B -5(3)
C28B C29B C30B C25B 4(2)
C28B C29B C30B C17B -173.5(13)
C26B C25B C30B C29B 1.5(17)
C24B C25B C30B C29B -177.9(11)
C26B C25B C30B C17B 179.6(10)
C24B C25B C30B C17B 0.1(13)
C31B C17B C30B C29B -8.6(14)
C18B C17B C30B C29B -130.8(12)
C6B C17B C30B C29B 117.0(12)
C31B C17B C30B C25B 173.4(8)
C18B C17B C30B C25B 51.3(10)
C6B C17B C30B C25B -60.9(9)
O1C C1C C2C C3C 180(3)
N1C C1C C2C C3C 6(2)
O1C C1C C2C C17C 59(3)
N1C C1C C2C C17C -115.0(16)
O1C C1C C2C S1C -53(3)
N1C C1C C2C S1C 133.0(16)
C1C C2C C3C C4C -0.6(19)
C17C C2C C3C C4C 118.4(13)
S1C C2C C3C C4C -116.3(14)
C1C C2C C3C C24C -115.7(14)
C17C C2C C3C C24C 3.3(9)
S1C C2C C3C C24C 128.6(8)
C1C C2C C3C S2C 116.0(13)
C17C C2C C3C S2C -124.9(9)
S1C C2C C3C S2C 0.3(11)
C2C C3C C4C O2C 171(3)
C24C C3C C4C O2C -70(3)
S2C C3C C4C O2C 42(3)
C2C C3C C4C N1C -5(2)
C24C C3C C4C N1C 114.2(18)
S2C C3C C4C N1C -133.6(17)
O3C C5C C6C C7C 179(3)
N2C C5C C6C C7C 3(3)
O3C C5C C6C S1C -4(5)
N2C C5C C6C S1C 179.5(14)
C5C C6C C7C C8C -4(2)
S1C C6C C7C C8C 178.9(14)
C5C C6C C7C S2C 176.5(16)
S1C C6C C7C S2C -0.3(16)
C6C C7C C8C O4C -178(3)
S2C C7C C8C O4C 1(4)
C6C C7C C8C N2C 4(2)
S2C C7C C8C N2C -176.5(13)
N1C C9C C10C C11C 150.7(10)
C12C C9C C10C C11C 27.0(10)
C9C C10C C11C C12C -26.1(9)
N1C C9C C12C C11C -148.8(10)
C10C C9C C12C C11C -25.8(9)
C10C C11C C12C C9C 26.4(9)
N2C C13C C14C C15C 142.8(10)
C16C C13C C14C C15C 18.2(10)
C13C C14C C15C C16C -17.9(10)
N2C C13C C16C C15C -144.1(10)
C14C C13C C16C C15C -17.6(10)
C14C C15C C16C C13C 18.0(10)
O2C C4C N1C C1C -167(3)
C3C C4C N1C C1C 9(3)
O2C C4C N1C C9C 13(4)
C3C C4C N1C C9C -171.6(14)
O1C C1C N1C C4C 177(3)
C2C C1C N1C C4C -9(3)
O1C C1C N1C C9C -3(4)
C2C C1C N1C C9C 171.4(13)
C12C C9C N1C C4C -132(2)
C10C C9C N1C C4C 122(2)
C12C C9C N1C C1C 48(2)
C10C C9C N1C C1C -58(2)
O4C C8C N2C C5C 180(3)
C7C C8C N2C C5C -3(3)
O4C C8C N2C C13C -4(4)
C7C C8C N2C C13C 173.1(14)
O3C C5C N2C C8C -176(3)
C6C C5C N2C C8C 0(3)
O3C C5C N2C C13C 8(4)
C6C C5C N2C C13C -176.2(15)
C16C C13C N2C C8C 61(2)
C14C C13C N2C C8C -48(2)
C16C C13C N2C C5C -124(2)
C14C C13C N2C C5C 127(2)
C5C C6C S1C C2C -135(2)
C7C C6C S1C C2C 40.9(12)
C3C C2C S1C C6C -39.2(9)
C1C C2C S1C C6C -159.5(10)
C17C C2C S1C C6C 87.7(8)
C6C C7C S2C C3C -39.6(11)
C8C C7C S2C C3C 141.5(17)
C2C C3C S2C C7C 37.4(9)
C4C C3C S2C C7C 154.3(10)
C24C C3C S2C C7C -93.3(7)
C3C C2C C17C C31C 180.0(7)
C1C C2C C17C C31C -60.0(10)
S1C C2C C17C C31C 47.6(8)
C3C C2C C17C C18C 54.0(9)
C1C C2C C17C C18C 174.1(8)
S1C C2C C17C C18C -78.3(7)
C3C C2C C17C C30C -62.7(8)
C1C C2C C17C C30C 57.4(9)
S1C C2C C17C C30C 165.0(6)
C31C C17C C18C C23C 173.7(9)
C30C C17C C18C C23C 52.6(11)
C2C C17C C18C C23C -58.6(11)
C31C C17C C18C C19C -9.8(15)
C30C C17C C18C C19C -130.9(12)
C2C C17C C18C C19C 118.0(13)
C23C C18C C19C C20C -3(2)
C17C C18C C19C C20C -178.8(12)
C18C C19C C20C C21C 5(2)
C19C C20C C21C C22C -2(3)
C20C C21C C22C C23C -3(2)
C19C C18C C23C C22C -2.3(19)
C17C C18C C23C C22C 174.2(10)
C19C C18C C23C C24C -175.6(12)
C17C C18C C23C C24C 0.9(14)
C21C C22C C23C C18C 5(2)
C21C C22C C23C C24C 178.1(14)
C18C C23C C24C C25C -52.8(12)
C22C C23C C24C C25C 134.4(12)
C18C C23C C24C C3C 56.2(12)
C22C C23C C24C C3C -116.5(12)
C2C C3C C24C C23C -57.0(9)
C4C C3C C24C C23C -170.5(8)
S2C C3C C24C C23C 79.2(7)
C2C C3C C24C C25C 55.2(9)
C4C C3C C24C C25C -58.3(9)
S2C C3C C24C C25C -168.6(6)
C23C C24C C25C C26C -140.6(14)
C3C C24C C25C C26C 110.0(15)
C23C C24C C25C C30C 52.8(12)
C3C C24C C25C C30C -56.6(12)
C30C C25C C26C C27C -3(2)
C24C C25C C26C C27C -169.6(18)
C25C C26C C27C C28C 1(3)
C26C C27C C28C C29C -2(3)
C27C C28C C29C C30C 6(3)
C28C C29C C30C C25C -8(2)
C28C C29C C30C C17C 169.2(15)
C26C C25C C30C C29C 6.3(18)
C24C C25C C30C C29C 175.3(12)
C26C C25C C30C C17C -171.3(10)
C24C C25C C30C C17C -2.4(14)
C31C C17C C30C C29C 7.8(14)
C18C C17C C30C C29C 131.5(12)
C2C C17C C30C C29C -114.7(12)
C31C C17C C30C C25C -174.5(8)
C18C C17C C30C C25C -50.8(11)
C2C C17C C30C C25C 63.0(10)
