#------------------------------------------------------------------------------
#$Date: 2019-11-24 23:40:56 +0200 (Sun, 24 Nov 2019) $
#$Revision: 239725 $
#$URL: file:///home/coder/svn-repositories/cod/cif/4/51/70/4517068.cif $
#------------------------------------------------------------------------------
#
# This file is available in the Crystallography Open Database (COD),
# http://www.crystallography.net/
#
# All data on this site have been placed in the public domain by the
# contributors.
#
data_4517068
loop_
_publ_author_name
'Khorasani, Sanaz'
'Fernandes, Manuel A.'
_publ_section_title
;
 Cooperativity and Feedback Mechanisms in the
 Single-Crystal-to-Single-Crystal Solid-State Diels--Alder Reaction of
 9-Methylanthracene with Bis(N-cyclobutylimino)-1,4-dithiin
;
_journal_issue                   12
_journal_name_full               'Crystal Growth &amp; Design'
_journal_page_first              5499
_journal_paper_doi               10.1021/cg401474f
_journal_volume                  13
_journal_year                    2013
_chemical_absolute_configuration ad
_chemical_formula_moiety
;
0.95(C31 H26 N2 O4 S2),  0.05(C16 H14 N2 O4 S2),  0.05(C15 H12)
;
_chemical_formula_sum            'C31 H26 N2 O4 S2'
_chemical_formula_weight         554.66
_space_group_IT_number           1
_space_group_name_Hall           'P 1'
_space_group_name_H-M_alt        'P 1'
_symmetry_cell_setting           triclinic
_symmetry_space_group_name_Hall  'P 1'
_symmetry_space_group_name_H-M   'P 1'
_atom_sites_solution_hydrogens   geom
_atom_sites_solution_primary     direct
_atom_sites_solution_secondary   difmap
_audit_creation_method           SHELXL-97
_cell_angle_alpha                76.016(2)
_cell_angle_beta                 86.818(3)
_cell_angle_gamma                83.775(2)
_cell_formula_units_Z            1
_cell_length_a                   7.5206(4)
_cell_length_b                   8.8938(4)
_cell_length_c                   10.1311(6)
_cell_measurement_reflns_used    1851
_cell_measurement_temperature    173(2)
_cell_measurement_theta_max      28.37
_cell_measurement_theta_min      2.37
_cell_volume                     653.37(6)
_computing_cell_refinement       'Bruker SAINT'
_computing_data_collection       'Bruker APEX2'
_computing_data_reduction        'Bruker SAINT'
_computing_molecular_graphics    'Bruker SHELXTL'
_computing_publication_material  'Bruker SHELXTL'
_computing_structure_refinement  'SHELXL-97 (Sheldrick, 1997)'
_computing_structure_solution    'SHELXS-97 (Sheldrick, 2008)'
_diffrn_ambient_temperature      173(2)
_diffrn_measured_fraction_theta_full 1.000
_diffrn_measured_fraction_theta_max 1.000
_diffrn_measurement_device_type  'Bruker APEX-II CCD'
_diffrn_measurement_method       '\f and \w scans'
_diffrn_radiation_monochromator  graphite
_diffrn_radiation_source         'fine-focus sealed tube'
_diffrn_radiation_type           MoK\a
_diffrn_radiation_wavelength     0.71073
_diffrn_reflns_av_R_equivalents  0.0480
_diffrn_reflns_av_sigmaI/netI    0.0893
_diffrn_reflns_limit_h_max       8
_diffrn_reflns_limit_h_min       -8
_diffrn_reflns_limit_k_max       10
_diffrn_reflns_limit_k_min       -10
_diffrn_reflns_limit_l_max       12
_diffrn_reflns_limit_l_min       -12
_diffrn_reflns_number            7768
_diffrn_reflns_theta_full        25.00
_diffrn_reflns_theta_max         25.00
_diffrn_reflns_theta_min         2.07
_diffrn_standards_number         0
_exptl_absorpt_coefficient_mu    0.246
_exptl_absorpt_correction_type   none
_exptl_crystal_colour            yellow
_exptl_crystal_density_diffrn    1.410
_exptl_crystal_density_method    'not measured'
_exptl_crystal_description       plate
_exptl_crystal_F_000             290
_exptl_crystal_size_max          0.38
_exptl_crystal_size_mid          0.17
_exptl_crystal_size_min          0.04
_refine_diff_density_max         0.195
_refine_diff_density_min         -0.139
_refine_diff_density_rms         0.033
_refine_ls_abs_structure_details 'Flack H D (1983), Acta Cryst. A39, 876-881'
_refine_ls_abs_structure_Flack   0.2(2)
_refine_ls_extinction_method     none
_refine_ls_goodness_of_fit_ref   1.003
_refine_ls_hydrogen_treatment    constr
_refine_ls_matrix_type           full
_refine_ls_number_parameters     713
_refine_ls_number_reflns         4581
_refine_ls_number_restraints     889
_refine_ls_restrained_S_all      0.955
_refine_ls_R_factor_all          0.1287
_refine_ls_R_factor_gt           0.0527
_refine_ls_shift/su_max          0.002
_refine_ls_shift/su_mean         0.000
_refine_ls_structure_factor_coef Fsqd
_refine_ls_weighting_details
'calc w=1/[\s^2^(Fo^2^)+(0.0479P)^2^+0.0000P] where P=(Fo^2^+2Fc^2^)/3'
_refine_ls_weighting_scheme      calc
_refine_ls_wR_factor_gt          0.0932
_refine_ls_wR_factor_ref         0.1167
_reflns_number_gt                2428
_reflns_number_total             4581
_reflns_threshold_expression     >2sigma(I)
_iucr_refine_instructions_details
;
TITL 12s_sk116_d4ma30oilbath_0s in P1
CELL  0.71073   7.5206   8.8938  10.1311   76.016   86.818   83.775
ZERR     1.00   0.0004   0.0004   0.0006    0.002    0.003    0.002
LATT  -1
SFAC  C    H    N    O    S
UNIT  31   26   2    4    2
MERG   2
OMIT    -2.00  50.00
DFIX     1.530   0.005 C17B C31B
SUMP 1.000 0.001 1 2 1 3 1 4
DELU     0.003   0.003 C1B > C31B
SIMU     0.010   0.020   1.700 C1B > C31B
DELU     0.003   0.003 C1C > C31C
SIMU     0.010   0.020   1.700 C1C > C31C
DFIX 1.65 0.005 C3C C24C
FMAP   2
PLAN    5
SIZE     0.04   0.17   0.38
ACTA
BOND   $H
CONF
L.S.  10
TEMP  -100.00
WGHT    0.047900
FVAR       0.58253   0.04560   0.47406   0.48034   0.03104
MOLE    1
PART    2
C1A   1    0.698740    0.240774    0.331019    21.00000   51.00000
AFIX   3
C2A   1    0.630664    0.363991    0.412890    21.00000   51.00000
C3A   1    0.617169    0.506571    0.323576    21.00000   51.00000
C4A   1    0.677098    0.476307    0.188857    21.00000   51.00000
C5A   1    0.448829    0.514161    0.745586    21.00000   51.00000
C6A   1    0.504388    0.498983    0.604362    21.00000   51.00000
C7A   1    0.497611    0.633671    0.517668    21.00000   51.00000
C8A   1    0.430839    0.751624    0.587426    21.00000   51.00000
C9A   1    0.753122    0.250518    0.081368    21.00000   51.00000
AFIX  13
H9A   2    0.734164    0.333865   -0.004089    21.00000   -1.20000
AFIX   3
C10A  1    0.927706    0.151149    0.065201    21.00000   51.00000
AFIX  23
H10A  2    0.984287    0.097784    0.152278    21.00000   -1.20000
H10B  2    1.015126    0.206069   -0.000721    21.00000   -1.20000
AFIX   3
C11A  1    0.817642    0.048148    0.006987    21.00000   51.00000
AFIX  23
H11A  2    0.816531    0.074689   -0.093680    21.00000   -1.20000
H11B  2    0.849317   -0.064809    0.043141    21.00000   -1.20000
AFIX   3
C12A  1    0.649400    0.112529    0.073603    21.00000   51.00000
AFIX  23
H12A  2    0.616344    0.046865    0.163401    21.00000   -1.20000
H12B  2    0.545436    0.141846    0.013659    21.00000   -1.20000
AFIX   3
C13A  1    0.367994    0.751396    0.838842    21.00000   51.00000
AFIX  13
H13A  2    0.374528    0.668406    0.925379    21.00000   -1.20000
AFIX   3
C14A  1    0.480572    0.881065    0.853506    21.00000   51.00000
AFIX  23
H14A  2    0.520188    0.947140    0.765784    21.00000   -1.20000
H14B  2    0.581526    0.844239    0.915694    21.00000   -1.20000
AFIX   3
C15A  1    0.310503    0.953225    0.919942    21.00000   51.00000
AFIX  23
H15A  2    0.288094    1.067777    0.888265    21.00000   -1.20000
H15B  2    0.303737    0.919745    1.020503    21.00000   -1.20000
AFIX   3
C16A  1    0.199109    0.860363    0.846190    21.00000   51.00000
AFIX  23
H16A  2    0.100988    0.809898    0.903350    21.00000   -1.20000
H16B  2    0.156012    0.920453    0.756294    21.00000   -1.20000
AFIX   3
N1A   3    0.721090    0.321570    0.198245    21.00000   51.00000
N2A   3    0.406998    0.677637    0.726288    21.00000   51.00000
O1A   4    0.729894    0.105146    0.379654    21.00000   51.00000
O2A   4    0.691088    0.576637    0.081336    21.00000   51.00000
O3A   4    0.444366    0.415717    0.846349    21.00000   51.00000
O4A   4    0.403730    0.892344    0.541389    21.00000   51.00000
S1A   5    0.577126    0.307957    0.584587    21.00000   51.00000
S2A   5    0.552755    0.690454    0.342738    21.00000   51.00000
AFIX   0
MOLE    2
C17A  1    0.084172    0.374480    0.545055    21.00000   51.00000
AFIX   3
C18A  1    0.009037    0.502547    0.593804    21.00000   51.00000
C19A  1   -0.056345    0.486341    0.723681    21.00000   51.00000
AFIX  43
H19A  2   -0.051346    0.385910    0.783795    21.00000   -1.20000
AFIX   3
C20A  1   -0.128141    0.611303    0.767947    21.00000   51.00000
AFIX  43
H20A  2   -0.172577    0.599072    0.859162    21.00000   -1.20000
AFIX   3
C21A  1   -0.137482    0.763600    0.676781    21.00000   51.00000
AFIX  43
H21A  2   -0.185219    0.852691    0.707890    21.00000   -1.20000
AFIX   3
C22A  1   -0.077381    0.778327    0.546109    21.00000   51.00000
AFIX  43
H22A  2   -0.086564    0.878994    0.486307    21.00000   -1.20000
AFIX   3
C23A  1   -0.001094    0.649606    0.494501    21.00000   51.00000
C24A  1    0.062293    0.669597    0.361307    21.00000   51.00000
AFIX  43
H24A  2    0.058497    0.769649    0.300642    21.00000   -1.20000
AFIX   3
C25A  1    0.132055    0.535771    0.320361    21.00000   51.00000
C26A  1    0.202826    0.535796    0.178999    21.00000   51.00000
AFIX  43
H26A  2    0.195681    0.632193    0.112942    21.00000   -1.20000
AFIX   3
C27A  1    0.277418    0.405092    0.138939    21.00000   51.00000
AFIX  43
H27A  2    0.322179    0.411699    0.048378    21.00000   -1.20000
AFIX   3
C28A  1    0.285593    0.264110    0.233627    21.00000   51.00000
AFIX  43
H28A  2    0.338786    0.174075    0.206385    21.00000   -1.20000
AFIX   3
C29A  1    0.222449    0.247864    0.361712    21.00000   51.00000
AFIX  43
H29A  2    0.229000    0.147491    0.421979    21.00000   -1.20000
AFIX   3
C30A  1    0.144186    0.381835    0.409397    21.00000   51.00000
C31A  1    0.101023    0.212017    0.641409    21.00000   51.00000
AFIX  33
H31A  2    0.155862    0.135931    0.591880    21.00000   -1.50000
H31B  2   -0.018058    0.184092    0.676519    21.00000   -1.50000
H31C  2    0.176039    0.212147    0.717439    21.00000   -1.50000
AFIX   0
MOLE    3
PART    1
C1B   1    0.734966    0.254539    0.325512    31.00000    0.01882    0.02274 =
         0.05043   -0.01137    0.00605    0.00538
C2B   1    0.686117    0.375031    0.410384    31.00000    0.02067    0.02227 =
         0.04592   -0.01237    0.00900   -0.01511
C3B   1    0.668426    0.517654    0.320563    31.00000    0.03555    0.02250 =
         0.04440   -0.00869    0.00548    0.00797
C4B   1    0.713914    0.491476    0.183094    31.00000    0.02550    0.02502 =
         0.04674   -0.01081    0.01163   -0.00166
C5B   1    0.455178    0.522397    0.729484    31.00000    0.03174    0.02310 =
         0.04301   -0.00181   -0.00182   -0.00088
C6B   1    0.449534    0.488135    0.588901    31.00000    0.03255    0.02739 =
         0.04224   -0.00934    0.00275    0.00390
C7B   1    0.427593    0.642818    0.485174    31.00000    0.02468    0.02871 =
         0.04197   -0.00814    0.00620   -0.00204
C8B   1    0.432577    0.763723    0.568322    31.00000    0.02199    0.02321 =
         0.04076   -0.00319    0.00494    0.00102
C9B   1    0.770359    0.265855    0.076529    31.00000    0.03537    0.03659 =
         0.05208   -0.02291    0.01222   -0.00792
AFIX  13
H9B   2    0.753336    0.350307   -0.008407    31.00000   -1.20000
AFIX   0
C10B  1    0.952303    0.163663    0.063609    31.00000    0.03192    0.04563 =
         0.06380   -0.02335    0.02848   -0.01124
AFIX  23
H10C  2    1.046090    0.221006    0.006778    31.00000   -1.20000
H10D  2    0.999334    0.100885    0.151406    31.00000   -1.20000
AFIX   0
C11B  1    0.845990    0.076358   -0.010609    31.00000    0.05388    0.04306 =
         0.07597   -0.03382    0.02669   -0.01006
AFIX  23
H11C  2    0.877514   -0.037749    0.012749    31.00000   -1.20000
H11D  2    0.845471    0.118393   -0.110441    31.00000   -1.20000
AFIX   0
C12B  1    0.675401    0.130258    0.065454    31.00000    0.03303    0.04146 =
         0.05834   -0.02313    0.01262   -0.01097
AFIX  23
H12C  2    0.568003    0.158972    0.009051    31.00000   -1.20000
H12D  2    0.649265    0.058529    0.153914    31.00000   -1.20000
AFIX   0
C13B  1    0.396137    0.758785    0.820487    31.00000    0.03975    0.02821 =
         0.04068   -0.00751    0.00239   -0.00628
AFIX  13
H13B  2    0.408678    0.677154    0.907628    31.00000   -1.20000
AFIX   0
C14B  1    0.506117    0.895280    0.828688    31.00000    0.03961    0.04055 =
         0.05226   -0.01799    0.00838   -0.01260
AFIX  23
H14C  2    0.607061    0.863909    0.891428    31.00000   -1.20000
H14D  2    0.544970    0.957524    0.738991    31.00000   -1.20000
AFIX   0
C15B  1    0.334421    0.969302    0.891138    31.00000    0.05440    0.03928 =
         0.04164   -0.01599    0.01314   -0.00815
AFIX  23
H15C  2    0.330224    0.945635    0.991833    31.00000   -1.20000
H15D  2    0.306762    1.082093    0.851516    31.00000   -1.20000
AFIX   0
C16B  1    0.227925    0.863936    0.830571    31.00000    0.03539    0.05231 =
         0.05196   -0.02255    0.01495   -0.00786
AFIX  23
H16C  2    0.135566    0.812885    0.894072    31.00000   -1.20000
H16D  2    0.176707    0.916416    0.741285    31.00000   -1.20000
AFIX   0
N1B   3    0.748052    0.334719    0.195296    31.00000    0.03130    0.02741 =
         0.04728   -0.01486    0.01014   -0.00091
N2B   3    0.431705    0.684249    0.708002    31.00000    0.03008    0.02161 =
         0.03903   -0.00408    0.00557   -0.00320
O1B   4    0.755073    0.110928    0.375244    31.00000    0.04490    0.02362 =
         0.05630   -0.01191   -0.00895    0.01526
O2B   4    0.721607    0.594039    0.075012    31.00000    0.03903    0.03053 =
         0.04692   -0.00960    0.01535   -0.01376
O3B   4    0.472437    0.429825    0.834207    31.00000    0.05037    0.02437 =
         0.03808    0.00218    0.01362   -0.01412
O4B   4    0.423486    0.897231    0.529743    31.00000    0.02938    0.01984 =
         0.05185    0.00050    0.00350    0.00235
S1B   5    0.641484    0.338657    0.585824    31.00000    0.04175    0.03788 =
         0.04177   -0.00669   -0.00931    0.00938
S2B   5    0.616616    0.691772    0.361727    31.00000    0.03609    0.02080 =
         0.05138   -0.01331    0.01068   -0.00479
C17B  1    0.262107    0.406361    0.588071    31.00000    0.04050    0.02868 =
         0.05365   -0.00541    0.00000   -0.00917
C18B  1    0.111871    0.520852    0.614565    31.00000    0.03134    0.03740 =
         0.06024   -0.01264    0.00646   -0.01564
C19B  1    0.008140    0.496044    0.733875    31.00000    0.02902    0.05437 =
         0.06478   -0.01883    0.00767   -0.02788
AFIX  43
H19B  2    0.025881    0.402047    0.802227    31.00000   -1.20000
AFIX   0
C20B  1   -0.119487    0.610811    0.749402    31.00000    0.02607    0.07928 =
         0.07663   -0.03679    0.00709   -0.01957
AFIX  43
H20B  2   -0.201229    0.594134    0.825240    31.00000   -1.20000
AFIX   0
C21B  1   -0.131225    0.760332    0.649295    31.00000    0.01477    0.07105 =
         0.09364   -0.03918   -0.00374   -0.00300
AFIX  43
H21B  2   -0.212523    0.844631    0.663986    31.00000   -1.20000
AFIX   0
C22B  1   -0.023643    0.777471    0.534068    31.00000    0.01246    0.04652 =
         0.08139   -0.02414   -0.01167   -0.00735
AFIX  43
H22B  2   -0.041364    0.869719    0.463772    31.00000   -1.20000
AFIX   0
C23B  1    0.109357    0.663986    0.518082    31.00000    0.02279    0.03504 =
         0.06101   -0.01250   -0.00273   -0.00849
C24B  1    0.249376    0.674588    0.409292    31.00000    0.03213    0.03032 =
         0.05119   -0.00352   -0.00348   -0.00619
AFIX  13
H24B  2    0.238484    0.776235    0.340040    31.00000   -1.20000
AFIX   0
C25B  1    0.246684    0.533409    0.347536    31.00000    0.04087    0.03953 =
         0.05371   -0.01063   -0.00497   -0.00884
C26B  1    0.243515    0.523412    0.212665    31.00000    0.05715    0.05441 =
         0.05655   -0.01272   -0.01159   -0.01510
AFIX  43
H26B  2    0.228108    0.616917    0.143500    31.00000   -1.20000
AFIX   0
C27B  1    0.262027    0.381871    0.175221    31.00000    0.06353    0.07227 =
         0.07161   -0.03501    0.00120   -0.01699
AFIX  43
H27B  2    0.252768    0.378251    0.082925    31.00000   -1.20000
AFIX   0
C28B  1    0.292954    0.251881    0.271548    31.00000    0.06523    0.05481 =
         0.09059   -0.04132   -0.00606   -0.01043
AFIX  43
H28B  2    0.340767    0.159310    0.246011    31.00000   -1.20000
AFIX   0
C29B  1    0.258731    0.247268    0.403905    31.00000    0.05075    0.04115 =
         0.08165   -0.02446   -0.01186   -0.00700
AFIX  43
H29B  2    0.237774    0.153442    0.468490    31.00000   -1.20000
AFIX   0
C30B  1    0.255871    0.390420    0.440939    31.00000    0.04030    0.03545 =
         0.05867   -0.01241   -0.00086   -0.00978
C31B  1    0.253250    0.247443    0.687077    31.00000    0.08094    0.03834 =
         0.07244    0.00909   -0.00356   -0.01185
AFIX  33
H31D  2    0.345373    0.172356    0.660997    31.00000   -1.50000
H31E  2    0.134960    0.211910    0.684206    31.00000   -1.50000
H31F  2    0.273738    0.256166    0.779509    31.00000   -1.50000
AFIX   0
PART    3
SAME 0.005 C1B > O4B
C1C   1    0.743138    0.237674    0.351096    41.00000    0.04494    0.04315 =
         0.06417   -0.00072   -0.02036   -0.00062
C2C   1    0.732857    0.365572    0.429745    41.00000    0.04231    0.03965 =
         0.06028    0.00166   -0.01953   -0.00107
C3C   1    0.719968    0.505503    0.334699    41.00000    0.04225    0.04082 =
         0.06119    0.00259   -0.02348    0.00687
C4C   1    0.714359    0.468478    0.199925    41.00000    0.03560    0.04959 =
         0.06170    0.00341   -0.02550    0.00936
C5C   1    0.455681    0.503264    0.744226    41.00000    0.06088    0.04355 =
         0.06885    0.00580   -0.02301    0.00169
C6C   1    0.482581    0.476451    0.600586    41.00000    0.05356    0.04560 =
         0.06952    0.00514   -0.01780    0.01694
C7C   1    0.488380    0.634221    0.502949    41.00000    0.04149    0.04820 =
         0.07077    0.00018   -0.01547    0.00145
C8C   1    0.429757    0.749736    0.589758    41.00000    0.05371    0.04314 =
         0.06500    0.00527   -0.02677    0.01022
C9C   1    0.746267    0.233247    0.104715    41.00000    0.05539    0.06161 =
         0.06657   -0.01052   -0.01396   -0.00487
AFIX  13
H9C   2    0.730430    0.313383    0.016938    41.00000   -1.20000
AFIX   0
C10C  1    0.922877    0.122433    0.095332    41.00000    0.05397    0.07086 =
         0.07366   -0.02015   -0.00659   -0.00801
AFIX  23
H10E  2    1.017927    0.172469    0.034110    41.00000   -1.20000
H10F  2    0.970315    0.064416    0.184495    41.00000   -1.20000
AFIX   0
C11C  1    0.807902    0.032069    0.030568    41.00000    0.06832    0.06560 =
         0.06712   -0.01472   -0.00681   -0.01385
AFIX  23
H11E  2    0.833774   -0.082349    0.060706    41.00000   -1.20000
H11F  2    0.805963    0.066239   -0.069916    41.00000   -1.20000
AFIX   0
C12C  1    0.642823    0.098893    0.103929    41.00000    0.05695    0.06520 =
         0.07649   -0.01533   -0.01250   -0.00900
AFIX  23
H12E  2    0.534599    0.127385    0.048422    41.00000   -1.20000
H12F  2    0.615487    0.034440    0.195577    41.00000   -1.20000
AFIX   0
C13C  1    0.391294    0.730195    0.844764    41.00000    0.08020    0.05475 =
         0.06168   -0.00050   -0.04010    0.00785
AFIX  13
H13C  2    0.406240    0.641676    0.926942    41.00000   -1.20000
AFIX   0
C14C  1    0.502875    0.859086    0.867050    41.00000    0.08725    0.06037 =
         0.06315   -0.00182   -0.03316    0.00030
AFIX  23
H14E  2    0.539169    0.931921    0.781924    41.00000   -1.20000
H14F  2    0.605829    0.819174    0.926764    41.00000   -1.20000
AFIX   0
C15C  1    0.333400    0.921715    0.940707    41.00000    0.10363    0.06766 =
         0.07438   -0.01365   -0.02121   -0.00155
AFIX  23
H15E  2    0.333040    0.884948    1.041076    41.00000   -1.20000
H15F  2    0.304533    1.035964    0.912389    41.00000   -1.20000
AFIX   0
C16C  1    0.223761    0.828345    0.869193    41.00000    0.08391    0.06318 =
         0.06422   -0.00190   -0.02470    0.00499
AFIX  23
H16E  2    0.134521    0.769390    0.930101    41.00000   -1.20000
H16F  2    0.168230    0.891486    0.784628    41.00000   -1.20000
AFIX   0
N1C   3    0.733463    0.310248    0.218622    41.00000    0.04841    0.05069 =
         0.06125   -0.00384   -0.01513   -0.00077
N2C   3    0.424374    0.664608    0.727564    41.00000    0.06641    0.04716 =
         0.06134    0.00429   -0.03495    0.00825
O1C   4    0.764924    0.095389    0.406708    41.00000    0.07455    0.04148 =
         0.07895   -0.00335   -0.02345    0.01056
O2C   4    0.686361    0.563570    0.088468    41.00000    0.04221    0.05858 =
         0.05713    0.00849   -0.01186   -0.00531
O3C   4    0.443695    0.406951    0.846316    41.00000    0.10068    0.06110 =
         0.06612    0.01507   -0.02957   -0.01917
O4C   4    0.402697    0.883323    0.555004    41.00000    0.07880    0.04026 =
         0.08155    0.01032   -0.02722    0.01477
S1C   5    0.548462    0.310060    0.560147    41.00000    0.05379    0.04775 =
         0.07626    0.00044   -0.00771    0.00004
S2C   5    0.523057    0.659083    0.340335    41.00000    0.05374    0.03867 =
         0.07301    0.00280   -0.02234    0.00845
SAME 0.005 C17B > C31B
C17C  1    0.921394    0.333964    0.512847    41.00000    0.04740    0.04202 =
         0.05658    0.00429   -0.02367    0.00334
C18C  1    0.924992    0.468564    0.575983    41.00000    0.04915    0.04895 =
         0.06560   -0.00259   -0.02733   -0.00008
C19C  1    0.931894    0.452493    0.714877    41.00000    0.05802    0.06501 =
         0.06892   -0.01229   -0.02265   -0.00318
AFIX  43
H19C  2    0.940194    0.352612    0.775953    41.00000   -1.20000
AFIX   0
C20C  1    0.926437    0.583730    0.760998    41.00000    0.05215    0.07993 =
         0.08785   -0.03076   -0.01518   -0.00718
AFIX  43
H20C  2    0.926680    0.577789    0.855883    41.00000   -1.20000
AFIX   0
C21C  1    0.920166    0.734704    0.663003    41.00000    0.05272    0.06877 =
         0.11120   -0.03406   -0.02304   -0.00978
AFIX  43
H21C  2    0.931664    0.826493    0.692814    41.00000   -1.20000
AFIX   0
C22C  1    0.897603    0.743294    0.527770    41.00000    0.05096    0.05138 =
         0.10486   -0.01555   -0.02572   -0.01440
AFIX  43
H22C  2    0.869939    0.842005    0.467473    41.00000   -1.20000
AFIX   0
C23C  1    0.914375    0.611378    0.478098    41.00000    0.04757    0.04622 =
         0.07798   -0.00222   -0.02434   -0.00602
C24C  1    0.897164    0.599630    0.336885    41.00000    0.05167    0.03872 =
         0.06841    0.01027   -0.02220   -0.00374
AFIX  13
H24C  2    0.891767    0.702911    0.269862    41.00000   -1.20000
AFIX   0
C25C  1    1.049983    0.483164    0.304437    41.00000    0.04354    0.05423 =
         0.06654    0.00685   -0.01918   -0.00305
C26C  1    1.165659    0.487702    0.191563    41.00000    0.04039    0.07642 =
         0.07818    0.00781   -0.01136   -0.01445
AFIX  43
H26C  2    1.170381    0.583693    0.125859    41.00000   -1.20000
AFIX   0
C27C  1    1.274506    0.358410    0.170527    41.00000    0.04131    0.09549 =
         0.09078   -0.01177   -0.00347   -0.01130
AFIX  43
H27C  2    1.349408    0.366033    0.091003    41.00000   -1.20000
AFIX   0
C28C  1    1.272608    0.224350    0.262691    41.00000    0.03419    0.08315 =
         0.10184   -0.01550   -0.00987    0.00397
AFIX  43
H28C  2    1.342777    0.135409    0.245191    41.00000   -1.20000
AFIX   0
C29C  1    1.175974    0.209021    0.379389    41.00000    0.03077    0.06162 =
         0.08432   -0.00451   -0.02395    0.00731
AFIX  43
H29C  2    1.179489    0.112627    0.445361    41.00000   -1.20000
AFIX   0
C30C  1    1.068875    0.341863    0.400209    41.00000    0.04397    0.05065 =
         0.06684    0.00461   -0.01772    0.00389
C31C  1    0.945544    0.177397    0.615675    41.00000    0.06128    0.04700 =
         0.06188    0.00988   -0.02577   -0.00148
AFIX  33
H31G  2    0.958842    0.093380    0.567559    41.00000   -1.50000
H31H  2    0.840570    0.165563    0.677719    41.00000   -1.50000
H31I  2    1.052752    0.172564    0.667873    41.00000   -1.50000
HKLF    4
 
REM  12s_sk116_d4ma30oilbath_0s in P1
REM R1 =  0.0527 for   2428 Fo > 4sig(Fo)  and  0.1287 for all   4581 data
REM    713 parameters refined using    889 restraints
 
END
 
WGHT      0.0479      0.0000
REM Highest difference peak  0.195,  deepest hole -0.139,  1-sigma level  0.033
Q1    1   0.4938  0.5753  0.5402  11.00000  0.05    0.19
Q2    1   0.6672  0.4302  0.3812  11.00000  0.05    0.16
Q3    1   0.4944  0.5002  0.6409  11.00000  0.05    0.15
Q4    1   0.6729  0.5001  0.2899  11.00000  0.05    0.15
Q5    1   0.2956  0.7612  0.8383  11.00000  0.05    0.14
;
_cod_data_source_file            12s_sk116_d4ma30oilbath_0s-95p-x4.cif
_cod_data_source_block           12s_sk116_d4ma30oilbath_0s
_cod_depositor_comments
;
The following automatic conversions were performed:

data item '_symmetry_cell_setting' value 'Triclinic' was changed to
'triclinic' in accordance with the
/home/saulius/struct/COD-crude-data/automatic-downloads/DataCite-retrospective/ACS/depositions/lib/dictionaries/cif_core.dic
dictionary named 'cif_core.dic' version 2.4.2 last updated on
2011-04-26.

Automatic conversion script
Id: cif_fix_values 6909 2019-04-08 15:41:33Z antanas 
;
_cod_original_sg_symbol_H-M      P1
_cod_database_code               4517068
loop_
_symmetry_equiv_pos_as_xyz
'x, y, z'
loop_
_atom_site_label
_atom_site_type_symbol
_atom_site_fract_x
_atom_site_fract_y
_atom_site_fract_z
_atom_site_U_iso_or_equiv
_atom_site_adp_type
_atom_site_occupancy
_atom_site_symmetry_multiplicity
_atom_site_calc_flag
_atom_site_refinement_flags
_atom_site_disorder_assembly
_atom_site_disorder_group
C1A C 0.699(7) 0.241(6) 0.331(6) 0.031(6) Uiso 0.046(3) 1 d P A 2
C2A C 0.631(7) 0.364(6) 0.413(6) 0.031(6) Uiso 0.046(3) 1 d PR A 2
C3A C 0.617(7) 0.507(6) 0.324(6) 0.031(6) Uiso 0.046(3) 1 d PR A 2
C4A C 0.677(7) 0.476(6) 0.189(6) 0.031(6) Uiso 0.046(3) 1 d PR A 2
C5A C 0.449(7) 0.514(6) 0.746(6) 0.031(6) Uiso 0.046(3) 1 d PR A 2
C6A C 0.504(7) 0.499(6) 0.604(6) 0.031(6) Uiso 0.046(3) 1 d PR A 2
C7A C 0.498(7) 0.634(6) 0.518(6) 0.031(6) Uiso 0.046(3) 1 d PR A 2
C8A C 0.431(7) 0.752(6) 0.587(6) 0.031(6) Uiso 0.046(3) 1 d PR A 2
C9A C 0.753(7) 0.251(6) 0.081(6) 0.031(6) Uiso 0.046(3) 1 d PR A 2
H9A H 0.7342 0.3339 -0.0041 0.037 Uiso 0.046(3) 1 calc PR A 2
C10A C 0.928(7) 0.151(6) 0.065(6) 0.031(6) Uiso 0.046(3) 1 d PR A 2
H10A H 0.9843 0.0978 0.1523 0.037 Uiso 0.046(3) 1 calc PR A 2
H10B H 1.0151 0.2061 -0.0007 0.037 Uiso 0.046(3) 1 calc PR A 2
C11A C 0.818(7) 0.048(6) 0.007(6) 0.031(6) Uiso 0.046(3) 1 d PR A 2
H11A H 0.8165 0.0747 -0.0937 0.037 Uiso 0.046(3) 1 calc PR A 2
H11B H 0.8493 -0.0648 0.0431 0.037 Uiso 0.046(3) 1 calc PR A 2
C12A C 0.649(7) 0.113(6) 0.074(6) 0.031(6) Uiso 0.046(3) 1 d PR A 2
H12A H 0.6163 0.0469 0.1634 0.037 Uiso 0.046(3) 1 calc PR A 2
H12B H 0.5454 0.1418 0.0137 0.037 Uiso 0.046(3) 1 calc PR A 2
C13A C 0.368(7) 0.751(6) 0.839(6) 0.031(6) Uiso 0.046(3) 1 d PR A 2
H13A H 0.3745 0.6684 0.9254 0.037 Uiso 0.046(3) 1 calc PR A 2
C14A C 0.481(7) 0.881(6) 0.854(6) 0.031(6) Uiso 0.046(3) 1 d PR A 2
H14A H 0.5202 0.9471 0.7658 0.037 Uiso 0.046(3) 1 calc PR A 2
H14B H 0.5815 0.8442 0.9157 0.037 Uiso 0.046(3) 1 calc PR A 2
C15A C 0.311(7) 0.953(6) 0.920(6) 0.031(6) Uiso 0.046(3) 1 d PR A 2
H15A H 0.2881 1.0678 0.8883 0.037 Uiso 0.046(3) 1 calc PR A 2
H15B H 0.3037 0.9197 1.0205 0.037 Uiso 0.046(3) 1 calc PR A 2
C16A C 0.199(7) 0.860(6) 0.846(6) 0.031(6) Uiso 0.046(3) 1 d PR A 2
H16A H 0.1010 0.8099 0.9034 0.037 Uiso 0.046(3) 1 calc PR A 2
H16B H 0.1560 0.9205 0.7563 0.037 Uiso 0.046(3) 1 calc PR A 2
N1A N 0.721(7) 0.322(6) 0.198(6) 0.031(6) Uiso 0.046(3) 1 d PR A 2
N2A N 0.407(7) 0.678(6) 0.726(6) 0.031(6) Uiso 0.046(3) 1 d PR A 2
O1A O 0.730(7) 0.105(6) 0.380(6) 0.031(6) Uiso 0.046(3) 1 d PR A 2
O2A O 0.691(7) 0.577(6) 0.081(6) 0.031(6) Uiso 0.046(3) 1 d PR A 2
O3A O 0.444(7) 0.416(6) 0.846(6) 0.031(6) Uiso 0.046(3) 1 d PR A 2
O4A O 0.404(7) 0.892(6) 0.541(6) 0.031(6) Uiso 0.046(3) 1 d PR A 2
S1A S 0.577(7) 0.308(6) 0.585(6) 0.031(6) Uiso 0.046(3) 1 d PR A 2
S2A S 0.553(7) 0.690(6) 0.343(6) 0.031(6) Uiso 0.046(3) 1 d PR A 2
C17A C 0.084(6) 0.374(4) 0.545(4) 0.031(6) Uiso 0.046(3) 1 d P A 2
C18A C 0.009(6) 0.503(4) 0.594(4) 0.031(6) Uiso 0.046(3) 1 d PR A 2
C19A C -0.056(6) 0.486(4) 0.724(4) 0.031(6) Uiso 0.046(3) 1 d PR A 2
H19A H -0.0513 0.3859 0.7838 0.037 Uiso 0.046(3) 1 calc PR A 2
C20A C -0.128(6) 0.611(4) 0.768(4) 0.031(6) Uiso 0.046(3) 1 d PR A 2
H20A H -0.1726 0.5991 0.8592 0.037 Uiso 0.046(3) 1 calc PR A 2
C21A C -0.137(6) 0.764(4) 0.677(4) 0.031(6) Uiso 0.046(3) 1 d PR A 2
H21A H -0.1852 0.8527 0.7079 0.037 Uiso 0.046(3) 1 calc PR A 2
C22A C -0.077(6) 0.778(4) 0.546(4) 0.031(6) Uiso 0.046(3) 1 d PR A 2
H22A H -0.0866 0.8790 0.4863 0.037 Uiso 0.046(3) 1 calc PR A 2
C23A C -0.001(6) 0.650(4) 0.495(4) 0.031(6) Uiso 0.046(3) 1 d PR A 2
C24A C 0.062(6) 0.670(4) 0.361(4) 0.031(6) Uiso 0.046(3) 1 d PR A 2
H24A H 0.0585 0.7696 0.3006 0.037 Uiso 0.046(3) 1 calc PR A 2
C25A C 0.132(6) 0.536(4) 0.320(4) 0.031(6) Uiso 0.046(3) 1 d PR A 2
C26A C 0.203(6) 0.536(4) 0.179(4) 0.031(6) Uiso 0.046(3) 1 d PR A 2
H26A H 0.1957 0.6322 0.1129 0.037 Uiso 0.046(3) 1 calc PR A 2
C27A C 0.277(6) 0.405(4) 0.139(4) 0.031(6) Uiso 0.046(3) 1 d PR A 2
H27A H 0.3222 0.4117 0.0484 0.037 Uiso 0.046(3) 1 calc PR A 2
C28A C 0.286(6) 0.264(4) 0.234(4) 0.031(6) Uiso 0.046(3) 1 d PR A 2
H28A H 0.3388 0.1741 0.2064 0.037 Uiso 0.046(3) 1 calc PR A 2
C29A C 0.222(6) 0.248(4) 0.362(4) 0.031(6) Uiso 0.046(3) 1 d PR A 2
H29A H 0.2290 0.1475 0.4220 0.037 Uiso 0.046(3) 1 calc PR A 2
C30A C 0.144(6) 0.382(4) 0.409(4) 0.031(6) Uiso 0.046(3) 1 d PR A 2
C31A C 0.101(6) 0.212(4) 0.641(4) 0.031(6) Uiso 0.046(3) 1 d PR A 2
H31A H 0.1559 0.1359 0.5919 0.047 Uiso 0.046(3) 1 calc PR A 2
H31B H -0.0181 0.1841 0.6765 0.047 Uiso 0.046(3) 1 calc PR A 2
H31C H 0.1760 0.2121 0.7174 0.047 Uiso 0.046(3) 1 calc PR A 2
C1B C 0.735(3) 0.2545(13) 0.3255(13) 0.031(2) Uani 0.474(5) 1 d PDU B 1
C2B C 0.6861(18) 0.3750(12) 0.4104(12) 0.028(2) Uani 0.474(5) 1 d PDU B 1
C3B C 0.668(2) 0.5177(13) 0.3206(13) 0.035(2) Uani 0.474(5) 1 d PDU B 1
C4B C 0.714(4) 0.4915(13) 0.1831(14) 0.033(2) Uani 0.474(5) 1 d PDU B 1
C5B C 0.455(4) 0.5224(13) 0.7295(14) 0.034(2) Uani 0.474(5) 1 d PDU B 1
C6B C 0.450(2) 0.4881(13) 0.5889(14) 0.0345(16) Uani 0.474(5) 1 d PDU B 1
C7B C 0.4276(19) 0.6428(13) 0.4852(12) 0.0322(15) Uani 0.474(5) 1 d PDU B 1
C8B C 0.433(4) 0.7637(13) 0.5683(13) 0.030(2) Uani 0.474(5) 1 d PDU B 1
C9B C 0.770(2) 0.2659(16) 0.0765(15) 0.039(3) Uani 0.474(5) 1 d PDU B 1
H9B H 0.7533 0.3503 -0.0084 0.047 Uiso 0.474(5) 1 calc PR B 1
C10B C 0.952(2) 0.164(2) 0.064(2) 0.046(3) Uani 0.474(5) 1 d PDU B 1
H10C H 1.0461 0.2210 0.0068 0.055 Uiso 0.474(5) 1 calc PR B 1
H10D H 0.9993 0.1009 0.1514 0.055 Uiso 0.474(5) 1 calc PR B 1
C11B C 0.846(3) 0.0764(19) -0.011(2) 0.055(3) Uani 0.474(5) 1 d PDU B 1
H11C H 0.8775 -0.0377 0.0127 0.066 Uiso 0.474(5) 1 calc PR B 1
H11D H 0.8455 0.1184 -0.1104 0.066 Uiso 0.474(5) 1 calc PR B 1
C12B C 0.675(2) 0.1303(19) 0.065(2) 0.042(3) Uani 0.474(5) 1 d PDU B 1
H12C H 0.5680 0.1590 0.0091 0.051 Uiso 0.474(5) 1 calc PR B 1
H12D H 0.6493 0.0585 0.1539 0.051 Uiso 0.474(5) 1 calc PR B 1
C13B C 0.396(2) 0.7588(15) 0.8205(14) 0.036(2) Uani 0.474(5) 1 d PDU B 1
H13B H 0.4087 0.6772 0.9076 0.043 Uiso 0.474(5) 1 calc PR B 1
C14B C 0.506(3) 0.8953(18) 0.8287(19) 0.043(3) Uani 0.474(5) 1 d PDU B 1
H14C H 0.6071 0.8639 0.8914 0.051 Uiso 0.474(5) 1 calc PR B 1
H14D H 0.5450 0.9575 0.7390 0.051 Uiso 0.474(5) 1 calc PR B 1
C15B C 0.334(3) 0.9693(17) 0.8911(17) 0.044(3) Uani 0.474(5) 1 d PDU B 1
H15C H 0.3302 0.9456 0.9918 0.053 Uiso 0.474(5) 1 calc PR B 1
H15D H 0.3068 1.0821 0.8515 0.053 Uiso 0.474(5) 1 calc PR B 1
C16B C 0.228(2) 0.864(2) 0.831(2) 0.045(3) Uani 0.474(5) 1 d PDU B 1
H16C H 0.1356 0.8129 0.8941 0.054 Uiso 0.474(5) 1 calc PR B 1
H16D H 0.1767 0.9164 0.7413 0.054 Uiso 0.474(5) 1 calc PR B 1
N1B N 0.748(3) 0.3347(12) 0.1953(12) 0.035(2) Uani 0.474(5) 1 d PDU B 1
N2B N 0.432(3) 0.6842(12) 0.7080(11) 0.031(2) Uani 0.474(5) 1 d PDU B 1
O1B O 0.755(5) 0.1109(11) 0.3752(15) 0.042(4) Uani 0.474(5) 1 d PDU B 1
O2B O 0.722(3) 0.5940(13) 0.0750(12) 0.039(3) Uani 0.474(5) 1 d PDU B 1
O3B O 0.472(3) 0.4298(13) 0.8342(12) 0.039(3) Uani 0.474(5) 1 d PDU B 1
O4B O 0.423(4) 0.8972(11) 0.5297(14) 0.036(3) Uani 0.474(5) 1 d PDU B 1
S1B S 0.6415(8) 0.3387(6) 0.5858(5) 0.0416(12) Uani 0.474(5) 1 d PU B 1
S2B S 0.6166(7) 0.6918(5) 0.3617(5) 0.0356(12) Uani 0.474(5) 1 d PU B 1
C17B C 0.2621(16) 0.4064(9) 0.5881(10) 0.0413(17) Uani 0.474(5) 1 d PDU B 1
C18B C 0.1119(19) 0.5209(13) 0.6146(14) 0.042(2) Uani 0.474(5) 1 d PDU B 1
C19B C 0.0081(18) 0.4960(16) 0.7339(14) 0.047(3) Uani 0.474(5) 1 d PDU B 1
H19B H 0.0259 0.4020 0.8022 0.057 Uiso 0.474(5) 1 calc PR B 1
C20B C -0.119(3) 0.6108(15) 0.7494(14) 0.057(3) Uani 0.474(5) 1 d PDU B 1
H20B H -0.2012 0.5941 0.8252 0.068 Uiso 0.474(5) 1 calc PR B 1
C21B C -0.131(2) 0.7603(17) 0.6493(17) 0.056(3) Uani 0.474(5) 1 d PDU B 1
H21B H -0.2125 0.8446 0.6640 0.068 Uiso 0.474(5) 1 calc PR B 1
C22B C -0.0236(17) 0.7775(15) 0.5341(16) 0.045(3) Uani 0.474(5) 1 d PDU B 1
H22B H -0.0414 0.8697 0.4638 0.053 Uiso 0.474(5) 1 calc PR B 1
C23B C 0.1094(17) 0.6640(12) 0.5181(13) 0.039(2) Uani 0.474(5) 1 d PDU B 1
C24B C 0.2494(17) 0.6746(11) 0.4093(11) 0.0386(17) Uani 0.474(5) 1 d PDU B 1
H24B H 0.2385 0.7762 0.3400 0.046 Uiso 0.474(5) 1 calc PR B 1
C25B C 0.247(2) 0.5334(13) 0.3475(13) 0.044(2) Uani 0.474(5) 1 d PDU B 1
C26B C 0.244(3) 0.5234(15) 0.2127(13) 0.055(3) Uani 0.474(5) 1 d PDU B 1
H26B H 0.2281 0.6169 0.1435 0.066 Uiso 0.474(5) 1 calc PR B 1
C27B C 0.262(5) 0.3819(16) 0.1752(16) 0.065(3) Uani 0.474(5) 1 d PDU B 1
H27B H 0.2528 0.3783 0.0829 0.078 Uiso 0.474(5) 1 calc PR B 1
C28B C 0.293(4) 0.2519(16) 0.2715(16) 0.066(3) Uani 0.474(5) 1 d PDU B 1
H28B H 0.3408 0.1593 0.2460 0.079 Uiso 0.474(5) 1 calc PR B 1
C29B C 0.259(3) 0.2473(13) 0.4039(15) 0.056(3) Uani 0.474(5) 1 d PDU B 1
H29B H 0.2378 0.1534 0.4685 0.067 Uiso 0.474(5) 1 calc PR B 1
C30B C 0.256(2) 0.3904(12) 0.4409(13) 0.044(2) Uani 0.474(5) 1 d PDU B 1
C31B C 0.2532(13) 0.2474(8) 0.6871(9) 0.067(3) Uani 0.474(5) 1 d PDU B 1
H31D H 0.3454 0.1724 0.6610 0.101 Uiso 0.474(5) 1 calc PR B 1
H31E H 0.1350 0.2119 0.6842 0.101 Uiso 0.474(5) 1 calc PR B 1
H31F H 0.2737 0.2562 0.7795 0.101 Uiso 0.474(5) 1 calc PR B 1
C1C C 0.743(4) 0.2377(15) 0.3511(15) 0.052(2) Uani 0.480(6) 1 d PDU C 3
C2C C 0.733(2) 0.3656(16) 0.4297(14) 0.0493(18) Uani 0.480(6) 1 d PDU C 3
C3C C 0.7200(17) 0.5055(14) 0.3347(14) 0.0506(17) Uani 0.480(6) 1 d PDU C 3
C4C C 0.714(4) 0.4685(15) 0.1999(14) 0.052(2) Uani 0.480(6) 1 d PDU C 3
C5C C 0.456(5) 0.5033(15) 0.7442(15) 0.061(3) Uani 0.480(6) 1 d PDU C 3
C6C C 0.483(3) 0.4765(15) 0.6006(15) 0.060(3) Uani 0.480(6) 1 d PDU C 3
C7C C 0.488(2) 0.6342(16) 0.5029(14) 0.056(3) Uani 0.480(6) 1 d PDU C 3
C8C C 0.430(5) 0.7497(15) 0.5898(14) 0.057(3) Uani 0.480(6) 1 d PDU C 3
C9C C 0.746(3) 0.2332(17) 0.1047(16) 0.062(3) Uani 0.480(6) 1 d PDU C 3
H9C H 0.7304 0.3134 0.0169 0.074 Uiso 0.480(6) 1 calc PR C 3
C10C C 0.923(2) 0.122(2) 0.095(2) 0.065(4) Uani 0.480(6) 1 d PDU C 3
H10E H 1.0179 0.1725 0.0341 0.078 Uiso 0.480(6) 1 calc PR C 3
H10F H 0.9703 0.0644 0.1845 0.078 Uiso 0.480(6) 1 calc PR C 3
C11C C 0.808(3) 0.032(2) 0.031(2) 0.066(4) Uani 0.480(6) 1 d PDU C 3
H11E H 0.8338 -0.0823 0.0607 0.080 Uiso 0.480(6) 1 calc PR C 3
H11F H 0.8060 0.0662 -0.0699 0.080 Uiso 0.480(6) 1 calc PR C 3
C12C C 0.643(3) 0.099(2) 0.104(2) 0.066(4) Uani 0.480(6) 1 d PDU C 3
H12E H 0.5346 0.1274 0.0484 0.079 Uiso 0.480(6) 1 calc PR C 3
H12F H 0.6155 0.0344 0.1956 0.079 Uiso 0.480(6) 1 calc PR C 3
C13C C 0.391(3) 0.7302(18) 0.8448(15) 0.067(3) Uani 0.480(6) 1 d PDU C 3
H13C H 0.4062 0.6417 0.9269 0.081 Uiso 0.480(6) 1 calc PR C 3
C14C C 0.503(3) 0.859(2) 0.867(2) 0.072(4) Uani 0.480(6) 1 d PDU C 3
H14E H 0.5392 0.9319 0.7819 0.086 Uiso 0.480(6) 1 calc PR C 3
H14F H 0.6058 0.8192 0.9268 0.086 Uiso 0.480(6) 1 calc PR C 3
C15C C 0.333(4) 0.922(2) 0.941(2) 0.082(4) Uani 0.480(6) 1 d PDU C 3
H15E H 0.3330 0.8849 1.0411 0.099 Uiso 0.480(6) 1 calc PR C 3
H15F H 0.3045 1.0360 0.9124 0.099 Uiso 0.480(6) 1 calc PR C 3
C16C C 0.224(3) 0.828(2) 0.869(2) 0.073(4) Uani 0.480(6) 1 d PDU C 3
H16E H 0.1345 0.7694 0.9301 0.087 Uiso 0.480(6) 1 calc PR C 3
H16F H 0.1682 0.8915 0.7846 0.087 Uiso 0.480(6) 1 calc PR C 3
N1C N 0.733(3) 0.3102(13) 0.2186(12) 0.055(3) Uani 0.480(6) 1 d PDU C 3
N2C N 0.424(3) 0.6646(14) 0.7276(12) 0.061(3) Uani 0.480(6) 1 d PDU C 3
O1C O 0.765(6) 0.0954(13) 0.4067(16) 0.067(5) Uani 0.480(6) 1 d PDU C 3
O2C O 0.686(3) 0.5636(15) 0.0885(13) 0.056(5) Uani 0.480(6) 1 d PDU C 3
O3C O 0.444(4) 0.4070(16) 0.8463(14) 0.079(6) Uani 0.480(6) 1 d PDU C 3
O4C O 0.403(5) 0.8833(13) 0.5550(15) 0.072(6) Uani 0.480(6) 1 d PDU C 3
S1C S 0.5485(9) 0.3101(7) 0.5601(7) 0.0620(18) Uani 0.480(6) 1 d PU C 3
S2C S 0.5231(9) 0.6591(6) 0.3403(7) 0.0581(17) Uani 0.480(6) 1 d PU C 3
C17C C 0.9214(18) 0.3340(10) 0.5128(11) 0.0512(19) Uani 0.480(6) 1 d PDU C 3
C18C C 0.925(2) 0.4686(14) 0.5760(14) 0.056(2) Uani 0.480(6) 1 d PDU C 3
C19C C 0.932(3) 0.4525(16) 0.7149(13) 0.064(3) Uani 0.480(6) 1 d PDU C 3
H19C H 0.9402 0.3526 0.7760 0.077 Uiso 0.480(6) 1 calc PR C 3
C20C C 0.926(3) 0.5837(16) 0.7610(13) 0.071(4) Uani 0.480(6) 1 d PDU C 3
H20C H 0.9267 0.5778 0.8559 0.085 Uiso 0.480(6) 1 calc PR C 3
C21C C 0.920(3) 0.7347(16) 0.6630(16) 0.074(4) Uani 0.480(6) 1 d PDU C 3
H21C H 0.9317 0.8265 0.6928 0.089 Uiso 0.480(6) 1 calc PR C 3
C22C C 0.898(3) 0.7433(15) 0.5278(16) 0.068(3) Uani 0.480(6) 1 d PDU C 3
H22C H 0.8699 0.8420 0.4675 0.082 Uiso 0.480(6) 1 calc PR C 3
C23C C 0.914(2) 0.6114(13) 0.4781(13) 0.058(2) Uani 0.480(6) 1 d PDU C 3
C24C C 0.8972(16) 0.5996(11) 0.3369(12) 0.056(2) Uani 0.480(6) 1 d PDU C 3
H24C H 0.8918 0.7029 0.2699 0.067 Uiso 0.480(6) 1 calc PR C 3
C25C C 1.050(2) 0.4832(14) 0.3044(14) 0.058(3) Uani 0.480(6) 1 d PDU C 3
C26C C 1.166(2) 0.4877(18) 0.1916(16) 0.068(3) Uani 0.480(6) 1 d PDU C 3
H26C H 1.1704 0.5837 0.1259 0.082 Uiso 0.480(6) 1 calc PR C 3
C27C C 1.275(5) 0.3584(18) 0.1705(15) 0.077(4) Uani 0.480(6) 1 d PDU C 3
H27C H 1.3494 0.3660 0.0910 0.093 Uiso 0.480(6) 1 calc PR C 3
C28C C 1.273(3) 0.2244(16) 0.2627(18) 0.075(4) Uani 0.480(6) 1 d PDU C 3
H28C H 1.3428 0.1354 0.2452 0.090 Uiso 0.480(6) 1 calc PR C 3
C29C C 1.1760(19) 0.2090(15) 0.3794(16) 0.061(3) Uani 0.480(6) 1 d PDU C 3
H29C H 1.1795 0.1126 0.4454 0.073 Uiso 0.480(6) 1 calc PR C 3
C30C C 1.069(2) 0.3419(14) 0.4002(14) 0.057(2) Uani 0.480(6) 1 d PDU C 3
C31C C 0.9455(12) 0.1774(8) 0.6157(8) 0.060(3) Uani 0.480(6) 1 d PDU C 3
H31G H 0.9588 0.0934 0.5676 0.090 Uiso 0.480(6) 1 calc PR C 3
H31H H 0.8406 0.1656 0.6777 0.090 Uiso 0.480(6) 1 calc PR C 3
H31I H 1.0528 0.1726 0.6679 0.090 Uiso 0.480(6) 1 calc PR C 3
loop_
_atom_site_aniso_label
_atom_site_aniso_U_11
_atom_site_aniso_U_22
_atom_site_aniso_U_33
_atom_site_aniso_U_23
_atom_site_aniso_U_13
_atom_site_aniso_U_12
C1B 0.019(6) 0.023(3) 0.050(4) -0.011(3) 0.006(6) 0.005(5)
C2B 0.021(5) 0.022(3) 0.046(3) -0.012(3) 0.009(4) -0.015(4)
C3B 0.036(5) 0.022(3) 0.044(3) -0.009(2) 0.005(4) 0.008(4)
C4B 0.026(6) 0.025(3) 0.047(4) -0.011(3) 0.012(5) -0.002(5)
C5B 0.032(6) 0.023(4) 0.043(4) -0.002(3) -0.002(5) -0.001(5)
C6B 0.033(3) 0.027(3) 0.042(3) -0.009(2) 0.003(3) 0.004(2)
C7B 0.025(3) 0.029(3) 0.042(3) -0.008(2) 0.006(2) -0.002(3)
C8B 0.022(5) 0.023(3) 0.041(4) -0.003(3) 0.005(4) 0.001(5)
C9B 0.035(6) 0.037(5) 0.052(4) -0.023(4) 0.012(5) -0.008(4)
C10B 0.032(5) 0.046(6) 0.064(7) -0.023(6) 0.028(5) -0.011(5)
C11B 0.054(7) 0.043(6) 0.076(8) -0.034(6) 0.027(6) -0.010(5)
C12B 0.033(5) 0.041(6) 0.058(7) -0.023(6) 0.013(6) -0.011(5)
C13B 0.040(6) 0.028(5) 0.041(4) -0.008(4) 0.002(5) -0.006(4)
C14B 0.040(6) 0.041(6) 0.052(7) -0.018(5) 0.008(6) -0.013(5)
C15B 0.054(7) 0.039(6) 0.042(6) -0.016(5) 0.013(6) -0.008(5)
C16B 0.035(5) 0.052(6) 0.052(7) -0.023(5) 0.015(6) -0.008(5)
N1B 0.031(6) 0.027(3) 0.047(4) -0.015(3) 0.010(5) -0.001(4)
N2B 0.030(5) 0.022(3) 0.039(4) -0.004(3) 0.006(5) -0.003(4)
O1B 0.045(9) 0.024(3) 0.056(7) -0.012(4) -0.009(8) 0.015(6)
O2B 0.039(9) 0.031(4) 0.047(4) -0.010(4) 0.015(5) -0.014(5)
O3B 0.050(9) 0.024(5) 0.038(4) 0.002(4) 0.014(6) -0.014(6)
O4B 0.029(7) 0.020(3) 0.052(7) 0.001(4) 0.004(7) 0.002(5)
S1B 0.042(3) 0.038(2) 0.042(2) -0.0067(19) -0.009(2) 0.009(2)
S2B 0.036(2) 0.0208(18) 0.051(3) -0.0133(17) 0.011(2) -0.005(2)
C17B 0.040(3) 0.029(3) 0.054(4) -0.005(3) 0.000(3) -0.009(3)
C18B 0.031(3) 0.037(4) 0.060(5) -0.013(3) 0.006(4) -0.016(3)
C19B 0.029(5) 0.054(5) 0.065(6) -0.019(4) 0.008(4) -0.028(4)
C20B 0.026(6) 0.079(6) 0.077(6) -0.037(5) 0.007(5) -0.020(5)
C21B 0.015(6) 0.071(6) 0.094(7) -0.039(5) -0.004(5) -0.003(5)
C22B 0.012(5) 0.047(4) 0.081(6) -0.024(4) -0.012(4) -0.007(3)
C23B 0.023(3) 0.035(4) 0.061(5) -0.013(3) -0.003(3) -0.008(3)
C24B 0.032(3) 0.030(3) 0.051(4) -0.004(3) -0.003(3) -0.006(3)
C25B 0.041(5) 0.040(3) 0.054(4) -0.011(3) -0.005(4) -0.009(4)
C26B 0.057(7) 0.054(5) 0.057(4) -0.013(3) -0.012(6) -0.015(6)
C27B 0.064(8) 0.072(6) 0.072(5) -0.035(4) 0.001(7) -0.017(7)
C28B 0.065(8) 0.055(5) 0.091(6) -0.041(5) -0.006(7) -0.010(6)
C29B 0.051(7) 0.041(4) 0.082(5) -0.024(4) -0.012(6) -0.007(5)
C30B 0.040(5) 0.035(3) 0.059(4) -0.012(3) -0.001(4) -0.010(4)
C31B 0.081(7) 0.038(4) 0.072(5) 0.009(4) -0.004(6) -0.012(3)
C1C 0.045(6) 0.043(4) 0.064(4) -0.001(3) -0.020(4) -0.001(6)
C2C 0.042(3) 0.040(3) 0.060(4) 0.002(3) -0.020(3) -0.001(3)
C3C 0.042(3) 0.041(4) 0.061(4) 0.003(2) -0.023(3) 0.007(3)
C4C 0.036(6) 0.050(4) 0.062(4) 0.003(3) -0.025(5) 0.009(5)
C5C 0.061(7) 0.044(4) 0.069(4) 0.006(3) -0.023(6) 0.002(6)
C6C 0.054(6) 0.046(3) 0.070(4) 0.005(3) -0.018(5) 0.017(5)
C7C 0.041(6) 0.048(3) 0.071(4) 0.000(3) -0.015(5) 0.001(5)
C8C 0.054(7) 0.043(4) 0.065(4) 0.005(3) -0.027(6) 0.010(6)
C9C 0.055(7) 0.062(6) 0.067(5) -0.011(5) -0.014(6) -0.005(5)
C10C 0.054(7) 0.071(8) 0.074(8) -0.020(6) -0.007(7) -0.008(5)
C11C 0.068(8) 0.066(7) 0.067(8) -0.015(6) -0.007(7) -0.014(6)
C12C 0.057(7) 0.065(7) 0.076(8) -0.015(6) -0.012(7) -0.009(6)
C13C 0.080(8) 0.055(6) 0.062(5) 0.000(4) -0.040(6) 0.008(5)
C14C 0.087(8) 0.060(7) 0.063(7) -0.002(6) -0.033(7) 0.000(6)
C15C 0.104(9) 0.068(8) 0.074(8) -0.014(6) -0.021(8) -0.002(7)
C16C 0.084(8) 0.063(8) 0.064(7) -0.002(6) -0.025(7) 0.005(6)
N1C 0.048(6) 0.051(4) 0.061(4) -0.004(3) -0.015(5) -0.001(5)
N2C 0.066(7) 0.047(4) 0.061(4) 0.004(3) -0.035(5) 0.008(5)
O1C 0.075(11) 0.041(4) 0.079(8) -0.003(4) -0.023(10) 0.011(7)
O2C 0.042(9) 0.059(6) 0.057(5) 0.008(5) -0.012(7) -0.005(7)
O3C 0.101(13) 0.061(6) 0.066(5) 0.015(5) -0.030(8) -0.019(8)
O4C 0.079(14) 0.040(4) 0.082(9) 0.010(4) -0.027(9) 0.015(7)
S1C 0.054(3) 0.048(2) 0.076(4) 0.000(2) -0.008(3) 0.000(3)
S2C 0.054(3) 0.039(3) 0.073(3) 0.003(2) -0.022(3) 0.008(2)
C17C 0.047(3) 0.042(3) 0.057(4) 0.004(3) -0.024(3) 0.003(4)
C18C 0.049(5) 0.049(3) 0.066(4) -0.003(3) -0.027(4) 0.000(5)
C19C 0.058(7) 0.065(5) 0.069(4) -0.012(4) -0.023(6) -0.003(6)
C20C 0.052(9) 0.080(6) 0.088(6) -0.031(4) -0.015(6) -0.007(7)
C21C 0.053(8) 0.069(5) 0.111(7) -0.034(5) -0.023(7) -0.010(6)
C22C 0.051(7) 0.051(4) 0.105(6) -0.016(4) -0.026(6) -0.014(6)
C23C 0.048(5) 0.046(3) 0.078(4) -0.002(3) -0.024(4) -0.006(4)
C24C 0.052(3) 0.039(4) 0.068(4) 0.010(3) -0.022(4) -0.004(3)
C25C 0.044(4) 0.054(4) 0.067(5) 0.007(4) -0.019(4) -0.003(4)
C26C 0.040(6) 0.076(6) 0.078(6) 0.008(5) -0.011(5) -0.014(5)
C27C 0.041(7) 0.095(7) 0.091(7) -0.012(6) -0.003(6) -0.011(6)
C28C 0.034(7) 0.083(6) 0.102(8) -0.015(6) -0.010(5) 0.004(6)
C29C 0.031(6) 0.062(5) 0.084(6) -0.005(5) -0.024(5) 0.007(5)
C30C 0.044(4) 0.051(4) 0.067(5) 0.005(3) -0.018(4) 0.004(4)
C31C 0.061(6) 0.047(3) 0.062(5) 0.010(3) -0.026(4) -0.001(4)
loop_
_atom_type_symbol
_atom_type_description
_atom_type_scat_dispersion_real
_atom_type_scat_dispersion_imag
_atom_type_scat_source
C C 0.0033 0.0016 'International Tables Vol C Tables 4.2.6.8 and 6.1.1.4'
H H 0.0000 0.0000 'International Tables Vol C Tables 4.2.6.8 and 6.1.1.4'
N N 0.0061 0.0033 'International Tables Vol C Tables 4.2.6.8 and 6.1.1.4'
O O 0.0106 0.0060 'International Tables Vol C Tables 4.2.6.8 and 6.1.1.4'
S S 0.1246 0.1234 'International Tables Vol C Tables 4.2.6.8 and 6.1.1.4'
loop_
_geom_angle_atom_site_label_1
_geom_angle_atom_site_label_2
_geom_angle_atom_site_label_3
_geom_angle
O1A C1A N1A 129.0
O1A C1A C2A 124.6
N1A C1A C2A 106.3
C3A C2A C1A 107.6
C3A C2A S1A 131.5
C1A C2A S1A 120.8
C2A C3A C4A 105.3
C2A C3A S2A 132.9
C4A C3A S2A 121.8
O2A C4A N1A 123.0
O2A C4A C3A 125.7
N1A C4A C3A 111.3
O3A C5A N2A 129.2
O3A C5A C6A 128.6
N2A C5A C6A 102.3
C7A C6A C5A 111.8
C7A C6A S1A 131.3
C5A C6A S1A 116.8
C6A C7A C8A 108.6
C6A C7A S2A 132.8
C8A C7A S2A 118.6
O4A C8A N2A 123.9
O4A C8A C7A 128.6
N2A C8A C7A 107.5
N1A C9A C10A 120.7
N1A C9A C12A 119.5
C10A C9A C12A 89.0
N1A C9A H9A 108.6
C10A C9A H9A 108.6
C12A C9A H9A 108.6
C9A C10A C11A 87.4
C9A C10A H10A 114.1
C11A C10A H10A 114.1
C9A C10A H10B 114.1
C11A C10A H10B 114.1
H10A C10A H10B 111.3
C12A C11A C10A 89.5
C12A C11A H11A 113.7
C10A C11A H11A 113.7
C12A C11A H11B 113.7
C10A C11A H11B 113.7
H11A C11A H11B 111.0
C11A C12A C9A 87.2
C11A C12A H12A 114.1
C9A C12A H12A 114.1
C11A C12A H12B 114.1
C9A C12A H12B 114.1
H12A C12A H12B 111.3
N2A C13A C16A 122.0
N2A C13A C14A 119.3
C16A C13A C14A 89.2
N2A C13A H13A 108.2
C16A C13A H13A 108.2
C14A C13A H13A 108.2
C13A C14A C15A 87.3
C13A C14A H14A 114.1
C15A C14A H14A 114.1
C13A C14A H14B 114.1
C15A C14A H14B 114.1
H14A C14A H14B 111.3
C14A C15A C16A 86.9
C14A C15A H15A 114.2
C16A C15A H15A 114.2
C14A C15A H15B 114.2
C16A C15A H15B 114.2
H15A C15A H15B 111.3
C13A C16A C15A 87.8
C13A C16A H16A 114.0
C15A C16A H16A 114.0
C13A C16A H16B 114.0
C15A C16A H16B 114.0
H16A C16A H16B 111.2
C4A N1A C1A 109.4
C4A N1A C9A 124.7
C1A N1A C9A 125.0
C8A N2A C5A 109.7
C8A N2A C13A 127.3
C5A N2A C13A 122.5
C2A S1A C6A 95.8
C3A S2A C7A 95.7
C18A C17A C30A 124.6
C18A C17A C31A 119.6
C30A C17A C31A 115.7
C19A C18A C17A 121.8
C19A C18A C23A 123.1
C17A C18A C23A 115.0
C20A C19A C18A 120.6
C20A C19A H19A 119.7
C18A C19A H19A 119.7
C19A C20A C21A 119.9
C19A C20A H20A 120.1
C21A C20A H20A 120.1
C22A C21A C20A 119.2
C22A C21A H21A 120.4
C20A C21A H21A 120.4
C21A C22A C23A 122.9
C21A C22A H22A 118.5
C23A C22A H22A 118.5
C24A C23A C22A 121.3
C24A C23A C18A 124.5
C22A C23A C18A 114.2
C23A C24A C25A 116.7
C23A C24A H24A 121.6
C25A C24A H24A 121.6
C24A C25A C30A 123.7
C24A C25A C26A 123.8
C30A C25A C26A 112.5
C27A C26A C25A 124.2
C27A C26A H26A 117.9
C25A C26A H26A 117.9
C26A C27A C28A 118.3
C26A C27A H27A 120.8
C28A C27A H27A 120.8
C29A C28A C27A 123.3
C29A C28A H28A 118.3
C27A C28A H28A 118.3
C28A C29A C30A 120.6
C28A C29A H29A 119.7
C30A C29A H29A 119.7
C17A C30A C25A 115.3
C17A C30A C29A 123.6
C25A C30A C29A 121.1
C17A C31A H31A 109.5
C17A C31A H31B 109.5
H31A C31A H31B 109.5
C17A C31A H31C 109.5
H31A C31A H31C 109.5
H31B C31A H31C 109.5
O1B C1B N1B 129.9(9)
O1B C1B C2B 123.6(10)
N1B C1B C2B 106.5(7)
C3B C2B C1B 106.6(8)
C3B C2B S1B 125.9(8)
C1B C2B S1B 127.2(7)
C2B C3B C4B 107.0(7)
C2B C3B S2B 125.9(9)
C4B C3B S2B 126.9(9)
O2B C4B N1B 125.7(10)
O2B C4B C3B 126.3(9)
N1B C4B C3B 108.0(8)
O3B C5B N2B 127.5(11)
O3B C5B C6B 126.5(9)
N2B C5B C6B 105.9(9)
C7B C6B C5B 107.6(7)
C7B C6B C17B 106.0(11)
C5B C6B C17B 106.2(14)
C7B C6B S1B 123.5(10)
C5B C6B S1B 104.1(12)
C17B C6B S1B 108.3(7)
C6B C7B C8B 104.3(8)
C6B C7B C24B 114.5(11)
C8B C7B C24B 108.7(13)
C6B C7B S2B 117.2(10)
C8B C7B S2B 101.0(11)
C24B C7B S2B 109.8(8)
O4B C8B N2B 124.2(10)
O4B C8B C7B 127.9(11)
N2B C8B C7B 107.6(7)
N1B C9B C12B 122.8(11)
N1B C9B C10B 116.3(9)
C12B C9B C10B 87.9(8)
N1B C9B H9B 109.3
C12B C9B H9B 109.3
C10B C9B H9B 109.3
C11B C10B C9B 85.5(8)
C11B C10B H10C 114.4
C9B C10B H10C 114.4
C11B C10B H10D 114.4
C9B C10B H10D 114.4
H10C C10B H10D 111.5
C10B C11B C12B 88.2(8)
C10B C11B H11C 113.9
C12B C11B H11C 113.9
C10B C11B H11D 113.9
C12B C11B H11D 113.9
H11C C11B H11D 111.1
C9B C12B C11B 87.0(9)
C9B C12B H12C 114.2
C11B C12B H12C 114.2
C9B C12B H12D 114.2
C11B C12B H12D 114.2
H12C C12B H12D 111.3
N2B C13B C16B 121.8(9)
N2B C13B C14B 119.1(10)
C16B C13B C14B 88.5(8)
N2B C13B H13B 108.6
C16B C13B H13B 108.6
C14B C13B H13B 108.6
C15B C14B C13B 87.5(9)
C15B C14B H14C 114.1
C13B C14B H14C 114.1
C15B C14B H14D 114.1
C13B C14B H14D 114.1
H14C C14B H14D 111.2
C16B C15B C14B 87.1(8)
C16B C15B H15C 114.1
C14B C15B H15C 114.1
C16B C15B H15D 114.1
C14B C15B H15D 114.1
H15C C15B H15D 111.3
C13B C16B C15B 90.0(9)
C13B C16B H16C 113.6
C15B C16B H16C 113.6
C13B C16B H16D 113.6
C15B C16B H16D 113.6
H16C C16B H16D 110.9
C1B N1B C4B 111.7(8)
C1B N1B C9B 125.3(9)
C4B N1B C9B 122.4(10)
C5B N2B C8B 113.7(8)
C5B N2B C13B 121.3(9)
C8B N2B C13B 124.8(8)
C2B S1B C6B 99.5(6)
C3B S2B C7B 99.9(6)
C18B C17B C31B 111.5(9)
C18B C17B C30B 109.4(9)
C31B C17B C30B 110.1(8)
C18B C17B C6B 106.8(8)
C31B C17B C6B 115.3(8)
C30B C17B C6B 103.3(9)
C19B C18B C23B 124.0(11)
C19B C18B C17B 122.6(10)
C23B C18B C17B 112.4(10)
C20B C19B C18B 117.5(11)
C20B C19B H19B 121.2
C18B C19B H19B 121.2
C19B C20B C21B 119.9(12)
C19B C20B H20B 120.0
C21B C20B H20B 120.0
C22B C21B C20B 119.2(11)
C22B C21B H21B 120.4
C20B C21B H21B 120.4
C21B C22B C23B 121.4(12)
C21B C22B H22B 119.3
C23B C22B H22B 119.3
C22B C23B C18B 116.8(12)
C22B C23B C24B 127.2(11)
C18B C23B C24B 115.9(10)
C23B C24B C25B 107.8(9)
C23B C24B C7B 104.6(10)
C25B C24B C7B 104.0(9)
C23B C24B H24B 113.2
C25B C24B H24B 113.2
C7B C24B H24B 113.2
C30B C25B C26B 114.0(10)
C30B C25B C24B 115.0(11)
C26B C25B C24B 131.0(11)
C27B C26B C25B 122.6(11)
C27B C26B H26B 118.7
C25B C26B H26B 118.7
C28B C27B C26B 118.4(16)
C28B C27B H27B 120.8
C26B C27B H27B 120.8
C27B C28B C29B 122.0(12)
C27B C28B H28B 119.0
C29B C28B H28B 119.0
C28B C29B C30B 115.8(12)
C28B C29B H29B 122.1
C30B C29B H29B 122.1
C25B C30B C29B 123.4(12)
C25B C30B C17B 112.4(10)
C29B C30B C17B 124.2(10)
C17B C31B H31D 109.5
C17B C31B H31E 109.5
H31D C31B H31E 109.5
C17B C31B H31F 109.5
H31D C31B H31F 109.5
H31E C31B H31F 109.5
O1C C1C N1C 129.9(10)
O1C C1C C2C 123.4(10)
N1C C1C C2C 106.5(8)
C3C C2C C1C 106.8(8)
C3C C2C C17C 112.4(13)
C1C C2C C17C 105.0(15)
C3C C2C S1C 121.6(12)
C1C C2C S1C 102.7(13)
C17C C2C S1C 106.8(9)
C2C C3C C4C 106.6(8)
C2C C3C C24C 110.7(12)
C4C C3C C24C 108.9(15)
C2C C3C S2C 121.0(11)
C4C C3C S2C 105.6(12)
C24C C3C S2C 103.6(8)
O2C C4C N1C 124.9(10)
O2C C4C C3C 126.6(9)
N1C C4C C3C 108.3(9)
O3C C5C N2C 127.1(12)
O3C C5C C6C 126.6(10)
N2C C5C C6C 105.8(8)
C7C C6C C5C 107.4(8)
C7C C6C S1C 124.0(10)
C5C C6C S1C 126.6(10)
C6C C7C C8C 104.3(8)
C6C C7C S2C 123.8(9)
C8C C7C S2C 131.3(9)
O4C C8C N2C 124.2(11)
O4C C8C C7C 128.2(11)
N2C C8C C7C 107.5(8)
N1C C9C C12C 122.5(11)
N1C C9C C10C 115.7(9)
C12C C9C C10C 87.8(8)
N1C C9C H9C 109.6
C12C C9C H9C 109.6
C10C C9C H9C 109.6
C11C C10C C9C 85.5(8)
C11C C10C H10E 114.4
C9C C10C H10E 114.4
C11C C10C H10F 114.4
C9C C10C H10F 114.4
H10E C10C H10F 111.5
C10C C11C C12C 88.3(8)
C10C C11C H11E 113.9
C12C C11C H11E 113.9
C10C C11C H11F 113.9
C12C C11C H11F 113.9
H11E C11C H11F 111.1
C9C C12C C11C 87.2(9)
C9C C12C H12E 114.1
C11C C12C H12E 114.1
C9C C12C H12F 114.1
C11C C12C H12F 114.1
H12E C12C H12F 111.3
N2C C13C C16C 124.1(10)
N2C C13C C14C 121.2(11)
C16C C13C C14C 89.2(9)
N2C C13C H13C 106.8
C16C C13C H13C 106.8
C14C C13C H13C 106.8
C13C C14C C15C 87.3(9)
C13C C14C H14E 114.1
C15C C14C H14E 114.1
C13C C14C H14F 114.1
C15C C14C H14F 114.1
H14E C14C H14F 111.3
C16C C15C C14C 87.2(8)
C16C C15C H15E 114.1
C14C C15C H15E 114.1
C16C C15C H15F 114.1
C14C C15C H15F 114.1
H15E C15C H15F 111.3
C13C C16C C15C 89.8(9)
C13C C16C H16E 113.7
C15C C16C H16E 113.7
C13C C16C H16F 113.7
C15C C16C H16F 113.7
H16E C16C H16F 110.9
C1C N1C C4C 111.7(8)
C1C N1C C9C 125.6(9)
C4C N1C C9C 122.7(10)
C5C N2C C8C 113.8(8)
C5C N2C C13C 120.2(9)
C8C N2C C13C 125.9(8)
C6C S1C C2C 102.2(7)
C7C S2C C3C 100.8(7)
C18C C17C C31C 112.8(9)
C18C C17C C30C 109.1(10)
C31C C17C C30C 109.8(8)
C18C C17C C2C 105.9(9)
C31C C17C C2C 114.5(9)
C30C C17C C2C 104.2(9)
C19C C18C C23C 125.0(11)
C19C C18C C17C 123.1(11)
C23C C18C C17C 111.9(11)
C20C C19C C18C 117.8(11)
C20C C19C H19C 121.1
C18C C19C H19C 121.1
C19C C20C C21C 119.2(12)
C19C C20C H20C 120.4
C21C C20C H20C 120.4
C22C C21C C20C 119.7(11)
C22C C21C H21C 120.1
C20C C21C H21C 120.1
C21C C22C C23C 121.1(12)
C21C C22C H22C 119.4
C23C C22C H22C 119.4
C22C C23C C18C 116.1(12)
C22C C23C C24C 128.2(11)
C18C C23C C24C 115.1(10)
C23C C24C C25C 108.2(10)
C23C C24C C3C 107.1(10)
C25C C24C C3C 101.7(10)
C23C C24C H24C 113.0
C25C C24C H24C 113.0
C3C C24C H24C 113.0
C30C C25C C26C 113.1(11)
C30C C25C C24C 114.6(12)
C26C C25C C24C 132.1(11)
C27C C26C C25C 123.1(11)
C27C C26C H26C 118.4
C25C C26C H26C 118.4
C28C C27C C26C 119.3(15)
C28C C27C H27C 120.4
C26C C27C H27C 120.4
C27C C28C C29C 122.8(12)
C27C C28C H28C 118.6
C29C C28C H28C 118.6
C28C C29C C30C 117.2(12)
C28C C29C H29C 121.4
C30C C29C H29C 121.4
C25C C30C C29C 124.1(13)
C25C C30C C17C 111.2(10)
C29C C30C C17C 122.7(10)
C17C C31C H31G 109.5
C17C C31C H31H 109.5
H31G C31C H31H 109.5
C17C C31C H31I 109.5
H31G C31C H31I 109.5
H31H C31C H31I 109.5
loop_
_geom_bond_atom_site_label_1
_geom_bond_atom_site_label_2
_geom_bond_distance
C1A O1A 1.1904
C1A N1A 1.3740
C1A C2A 1.5561
C2A C3A 1.3656
C2A S1A 1.7272
C3A C4A 1.4904
C3A S2A 1.7083
C4A O2A 1.2376
C4A N1A 1.3616
C5A O3A 1.1749
C5A N2A 1.4217
C5A C6A 1.5015
C6A C7A 1.3008
C6A S1A 1.7823
C7A C8A 1.4342
C7A S2A 1.7604
C8A O4A 1.2242
C8A N2A 1.4123
C9A N1A 1.4685
C9A C10A 1.5252
C9A C12A 1.5433
C9A H9A 1.0000
C10A C11A 1.5336
C10A H10A 0.9900
C10A H10B 0.9900
C11A C12A 1.5229
C11A H11A 0.9900
C11A H11B 0.9900
C12A H12A 0.9900
C12A H12B 0.9900
C13A N2A 1.4489
C13A C16A 1.5216
C13A C14A 1.5419
C13A H13A 1.0000
C14A C15A 1.5608
C14A H14A 0.9900
C14A H14B 0.9900
C15A C16A 1.5684
C15A H15A 0.9900
C15A H15B 0.9900
C16A H16A 0.9900
C16A H16B 0.9900
C17A C18A 1.4007
C17A C30A 1.4110
C17A C31A 1.5327
C18A C19A 1.3586
C18A C23A 1.4421
C19A C20A 1.3460
C19A H19A 0.9500
C20A C21A 1.4403
C20A H20A 0.9500
C21A C22A 1.3552
C21A H21A 0.9500
C22A C23A 1.4100
C22A H22A 0.9500
C23A C24A 1.3823
C24A C25A 1.3939
C24A H24A 0.9500
C25A C30A 1.4428
C25A C26A 1.4999
C26A C27A 1.3755
C26A H26A 0.9500
C27A C28A 1.3801
C27A H27A 0.9500
C28A C29A 1.3365
C28A H28A 0.9500
C29A C30A 1.4471
C29A H29A 0.9500
C31A H31A 0.9800
C31A H31B 0.9800
C31A H31C 0.9800
C1B O1B 1.250(10)
C1B N1B 1.343(12)
C1B C2B 1.532(11)
C2B C3B 1.369(12)
C2B S1B 1.748(12)
C3B C4B 1.482(13)
C3B S2B 1.699(10)
C4B O2B 1.247(11)
C4B N1B 1.367(11)
C5B O3B 1.179(12)
C5B N2B 1.396(11)
C5B C6B 1.530(14)
C6B C7B 1.515(12)
C6B C17B 1.656(15)
C6B S1B 1.858(14)
C7B C8B 1.522(13)
C7B C24B 1.547(19)
C7B S2B 1.857(13)
C8B O4B 1.153(10)
C8B N2B 1.421(12)
C9B N1B 1.471(11)
C9B C12B 1.496(14)
C9B C10B 1.576(13)
C9B H9B 1.0000
C10B C11B 1.514(15)
C10B H10C 0.9900
C10B H10D 0.9900
C11B C12B 1.551(16)
C11B H11C 0.9900
C11B H11D 0.9900
C12B H12C 0.9900
C12B H12D 0.9900
C13B N2B 1.450(11)
C13B C16B 1.504(13)
C13B C14B 1.562(14)
C13B H13B 1.0000
C14B C15B 1.558(16)
C14B H14C 0.9900
C14B H14D 0.9900
C15B C16B 1.546(14)
C15B H15C 0.9900
C15B H15D 0.9900
C16B H16C 0.9900
C16B H16D 0.9900
C17B C18B 1.495(15)
C17B C31B 1.528(5)
C17B C30B 1.535(16)
C18B C19B 1.386(16)
C18B C23B 1.404(15)
C19B C20B 1.355(14)
C19B H19B 0.9500
C20B C21B 1.462(15)
C20B H20B 0.9500
C21B C22B 1.370(16)
C21B H21B 0.9500
C22B C23B 1.374(15)
C22B H22B 0.9500
C23B C24B 1.475(15)
C24B C25B 1.535(16)
C24B H24B 1.0000
C25B C30B 1.387(15)
C25B C26B 1.392(17)
C26B C27B 1.391(16)
C26B H26B 0.9500
C27B C28B 1.328(15)
C27B H27B 0.9500
C28B C29B 1.343(15)
C28B H28B 0.9500
C29B C30B 1.409(15)
C29B H29B 0.9500
C31B H31D 0.9800
C31B H31E 0.9800
C31B H31F 0.9800
C1C O1C 1.252(10)
C1C N1C 1.344(12)
C1C C2C 1.532(12)
C2C C3C 1.375(12)
C2C C17C 1.65(2)
C2C S1C 1.882(18)
C3C C4C 1.484(13)
C3C C24C 1.653(5)
C3C S2C 1.911(14)
C4C O2C 1.249(11)
C4C N1C 1.366(11)
C5C O3C 1.179(13)
C5C N2C 1.399(11)
C5C C6C 1.530(14)
C6C C7C 1.512(12)
C6C S1C 1.648(13)
C7C C8C 1.523(13)
C7C S2C 1.619(14)
C8C O4C 1.153(10)
C8C N2C 1.419(12)
C9C N1C 1.471(12)
C9C C12C 1.497(14)
C9C C10C 1.579(13)
C9C H9C 1.0000
C10C C11C 1.514(15)
C10C H10E 0.9900
C10C H10F 0.9900
C11C C12C 1.549(16)
C11C H11E 0.9900
C11C H11F 0.9900
C12C H12E 0.9900
C12C H12F 0.9900
C13C N2C 1.443(11)
C13C C16C 1.497(13)
C13C C14C 1.557(14)
C13C H13C 1.0000
C14C C15C 1.560(16)
C14C H14E 0.9900
C14C H14F 0.9900
C15C C16C 1.549(14)
C15C H15E 0.9900
C15C H15F 0.9900
C16C H16E 0.9900
C16C H16F 0.9900
C17C C18C 1.491(15)
C17C C31C 1.524(6)
C17C C30C 1.541(16)
C18C C19C 1.383(16)
C18C C23C 1.408(16)
C19C C20C 1.354(14)
C19C H19C 0.9500
C20C C21C 1.462(15)
C20C H20C 0.9500
C21C C22C 1.373(16)
C21C H21C 0.9500
C22C C23C 1.375(15)
C22C H22C 0.9500
C23C C24C 1.473(15)
C24C C25C 1.538(16)
C24C H24C 1.0000
C25C C30C 1.389(16)
C25C C26C 1.393(17)
C26C C27C 1.390(15)
C26C H26C 0.9500
C27C C28C 1.326(15)
C27C H27C 0.9500
C28C C29C 1.339(15)
C28C H28C 0.9500
C29C C30C 1.409(15)
C29C H29C 0.9500
C31C H31G 0.9800
C31C H31H 0.9800
C31C H31I 0.9800
loop_
_geom_torsion_atom_site_label_1
_geom_torsion_atom_site_label_2
_geom_torsion_atom_site_label_3
_geom_torsion_atom_site_label_4
_geom_torsion
O1A C1A C2A C3A 177.7
N1A C1A C2A C3A 0.3
O1A C1A C2A S1A -5.3
N1A C1A C2A S1A 177.3
C1A C2A C3A C4A -0.7
S1A C2A C3A C4A -177.4
C1A C2A C3A S2A -179.8
S1A C2A C3A S2A 3.6
C2A C3A C4A O2A -177.1
S2A C3A C4A O2A 2.0
C2A C3A C4A N1A 1.0
S2A C3A C4A N1A -179.8
O3A C5A C6A C7A -178.1
N2A C5A C6A C7A 0.7
O3A C5A C6A S1A -1.1
N2A C5A C6A S1A 177.7
C5A C6A C7A C8A -2.5
S1A C6A C7A C8A -178.9
C5A C6A C7A S2A 177.5
S1A C6A C7A S2A 1.0
C6A C7A C8A O4A -179.4
S2A C7A C8A O4A 0.7
C6A C7A C8A N2A 3.3
S2A C7A C8A N2A -176.7
N1A C9A C10A C11A 143.8
C12A C9A C10A C11A 19.6
C9A C10A C11A C12A -19.9
C10A C11A C12A C9A 19.6
N1A C9A C12A C11A -145.0
C10A C9A C12A C11A -19.7
N2A C13A C14A C15A 149.4
C16A C13A C14A C15A 22.5
C13A C14A C15A C16A -21.8
N2A C13A C16A C15A -147.0
C14A C13A C16A C15A -22.4
C14A C15A C16A C13A 22.1
O2A C4A N1A C1A 177.3
C3A C4A N1A C1A -0.9
O2A C4A N1A C9A -13.5
C3A C4A N1A C9A 168.2
O1A C1A N1A C4A -176.9
C2A C1A N1A C4A 0.4
O1A C1A N1A C9A 14.1
C2A C1A N1A C9A -168.7
C10A C9A N1A C4A 125.0
C12A C9A N1A C4A -126.7
C10A C9A N1A C1A -67.6
C12A C9A N1A C1A 40.7
O4A C8A N2A C5A 179.7
C7A C8A N2A C5A -2.8
O4A C8A N2A C13A -7.6
C7A C8A N2A C13A 170.0
O3A C5A N2A C8A -179.8
C6A C5A N2A C8A 1.3
O3A C5A N2A C13A 7.0
C6A C5A N2A C13A -171.8
C16A C13A N2A C8A 60.8
C14A C13A N2A C8A -48.6
C16A C13A N2A C5A -127.3
C14A C13A N2A C5A 123.3
C3A C2A S1A C6A -1.3
C1A C2A S1A C6A -177.5
C7A C6A S1A C2A -0.9
C5A C6A S1A C2A -177.2
C2A C3A S2A C7A -2.8
C4A C3A S2A C7A 178.3
C6A C7A S2A C3A 0.6
C8A C7A S2A C3A -179.5
C30A C17A C18A C19A 175.9
C31A C17A C18A C19A -2.6
C30A C17A C18A C23A -1.2
C31A C17A C18A C23A -179.7
C17A C18A C19A C20A -179.9
C23A C18A C19A C20A -3.0
C18A C19A C20A C21A 0.6
C19A C20A C21A C22A 1.6
C20A C21A C22A C23A -1.4
C21A C22A C23A C24A -178.6
C21A C22A C23A C18A -0.8
C19A C18A C23A C24A -179.2
C17A C18A C23A C24A -2.2
C19A C18A C23A C22A 3.1
C17A C18A C23A C22A -179.8
C22A C23A C24A C25A -179.1
C18A C23A C24A C25A 3.4
C23A C24A C25A C30A -1.4
C23A C24A C25A C26A 178.7
C24A C25A C26A C27A 177.7
C30A C25A C26A C27A -2.3
C26A C27A C28A C29A 1.0
C27A C28A C29A C30A -1.5
C18A C17A C30A C25A 3.0
C31A C17A C30A C25A -178.5
C18A C17A C30A C29A 179.6
C31A C17A C30A C29A -1.9
C24A C25A C30A C17A -1.6
C26A C25A C30A C17A 178.3
C24A C25A C30A C29A -178.3
C26A C25A C30A C29A 1.7
C28A C29A C30A C17A -176.3
C28A C29A C30A C25A 0.1
O1B C1B C2B C3B -177(3)
N1B C1B C2B C3B 2(2)
O1B C1B C2B S1B -3(4)
N1B C1B C2B S1B 176.8(14)
C1B C2B C3B C4B -3(2)
S1B C2B C3B C4B -177.8(15)
C1B C2B C3B S2B -179.5(14)
S1B C2B C3B S2B 6(2)
C2B C3B C4B O2B -176(3)
S2B C3B C4B O2B 0(4)
C2B C3B C4B N1B 3(2)
S2B C3B C4B N1B 179.5(15)
O3B C5B C6B C7B -179(3)
N2B C5B C6B C7B 2(2)
O3B C5B C6B C17B 67(3)
N2B C5B C6B C17B -111.2(18)
O3B C5B C6B S1B -47(3)
N2B C5B C6B S1B 134.5(17)
C5B C6B C7B C8B 3(2)
C17B C6B C7B C8B 116.7(13)
S1B C6B C7B C8B -117.7(14)
C5B C6B C7B C24B -115.3(16)
C17B C6B C7B C24B -2.0(11)
S1B C6B C7B C24B 123.6(12)
C5B C6B C7B S2B 114.0(15)
C17B C6B C7B S2B -132.8(10)
S1B C6B C7B S2B -7.1(15)
C6B C7B C8B O4B 179(3)
C24B C7B C8B O4B -59(3)
S2B C7B C8B O4B 57(3)
C6B C7B C8B N2B -7(2)
C24B C7B C8B N2B 115.0(16)
S2B C7B C8B N2B -129.5(15)
N1B C9B C10B C11B 151.4(12)
C12B C9B C10B C11B 25.4(11)
C9B C10B C11B C12B -24.4(10)
N1B C9B C12B C11B -145.0(12)
C10B C9B C12B C11B -24.7(10)
C10B C11B C12B C9B 25.8(11)
N2B C13B C14B C15B 145.7(11)
C16B C13B C14B C15B 19.7(10)
C13B C14B C15B C16B -19.1(10)
N2B C13B C16B C15B -143.6(12)
C14B C13B C16B C15B -19.8(11)
C14B C15B C16B C13B 19.9(11)
O1B C1B N1B C4B 179(3)
C2B C1B N1B C4B 0(3)
O1B C1B N1B C9B 8(4)
C2B C1B N1B C9B -171.9(13)
O2B C4B N1B C1B 178(3)
C3B C4B N1B C1B -2(3)
O2B C4B N1B C9B -10(4)
C3B C4B N1B C9B 170.3(15)
C12B C9B N1B C1B 39(2)
C10B C9B N1B C1B -66(2)
C12B C9B N1B C4B -131(2)
C10B C9B N1B C4B 123(2)
O3B C5B N2B C8B 174(3)
C6B C5B N2B C8B -7(3)
O3B C5B N2B C13B -10(4)
C6B C5B N2B C13B 168.3(14)
O4B C8B N2B C5B -176(3)
C7B C8B N2B C5B 10(3)
O4B C8B N2B C13B 8(4)
C7B C8B N2B C13B -165.7(14)
C16B C13B N2B C5B -120(2)
C14B C13B N2B C5B 132(2)
C16B C13B N2B C8B 55(2)
C14B C13B N2B C8B -53(2)
C3B C2B S1B C6B 34.7(15)
C1B C2B S1B C6B -139.1(16)
C7B C6B S1B C2B -31.0(12)
C5B C6B S1B C2B -153.8(11)
C17B C6B S1B C2B 93.6(9)
C2B C3B S2B C7B -46.1(16)
C4B C3B S2B C7B 138.0(18)
C6B C7B S2B C3B 43.4(11)
C8B C7B S2B C3B 155.9(10)
C24B C7B S2B C3B -89.4(9)
C7B C6B C17B C18B -55.1(11)
C5B C6B C17B C18B 59.2(11)
S1B C6B C17B C18B 170.5(9)
C7B C6B C17B C31B -179.6(9)
C5B C6B C17B C31B -65.3(12)
S1B C6B C17B C31B 46.0(11)
C7B C6B C17B C30B 60.2(10)
C5B C6B C17B C30B 174.5(10)
S1B C6B C17B C30B -74.1(9)
C31B C17B C18B C19B 15.2(17)
C30B C17B C18B C19B 137.2(14)
C6B C17B C18B C19B -111.6(15)
C31B C17B C18B C23B -175.3(11)
C30B C17B C18B C23B -53.3(14)
C6B C17B C18B C23B 57.9(14)
C23B C18B C19B C20B 9(2)
C17B C18B C19B C20B 177.2(15)
C18B C19B C20B C21B -6(3)
C19B C20B C21B C22B 6(3)
C20B C21B C22B C23B -8(3)
C21B C22B C23B C18B 10(2)
C21B C22B C23B C24B -171.3(15)
C19B C18B C23B C22B -10(2)
C17B C18B C23B C22B -179.7(12)
C19B C18B C23B C24B 170.5(14)
C17B C18B C23B C24B 1.1(18)
C22B C23B C24B C25B -128.4(15)
C18B C23B C24B C25B 50.7(15)
C22B C23B C24B C7B 121.4(14)
C18B C23B C24B C7B -59.5(14)
C6B C7B C24B C23B 57.4(11)
C8B C7B C24B C23B -58.8(11)
S2B C7B C24B C23B -168.4(7)
C6B C7B C24B C25B -55.6(12)
C8B C7B C24B C25B -171.7(10)
S2B C7B C24B C25B 78.7(10)
C23B C24B C25B C30B -52.0(17)
C7B C24B C25B C30B 58.6(17)
C23B C24B C25B C26B 130.8(18)
C7B C24B C25B C26B -118.5(19)
C30B C25B C26B C27B -5(3)
C24B C25B C26B C27B 172(2)
C25B C26B C27B C28B -3(4)
C26B C27B C28B C29B 19(4)
C27B C28B C29B C30B -24(4)
C26B C25B C30B C29B -1(3)
C24B C25B C30B C29B -178.7(15)
C26B C25B C30B C17B 179.1(13)
C24B C25B C30B C17B 1(2)
C28B C29B C30B C25B 15(3)
C28B C29B C30B C17B -165.5(18)
C18B C17B C30B C25B 51.5(16)
C31B C17B C30B C25B 174.4(12)
C6B C17B C30B C25B -61.9(15)
C18B C17B C30B C29B -128.4(16)
C31B C17B C30B C29B -5.5(19)
C6B C17B C30B C29B 118.2(17)
O1C C1C C2C C3C 176(3)
N1C C1C C2C C3C -1(3)
O1C C1C C2C C17C 57(4)
N1C C1C C2C C17C -120(2)
O1C C1C C2C S1C -55(4)
N1C C1C C2C S1C 128(2)
C1C C2C C3C C4C 2(2)
C17C C2C C3C C4C 116.9(16)
S1C C2C C3C C4C -114.7(16)
C1C C2C C3C C24C -115.9(17)
C17C C2C C3C C24C -1.3(12)
S1C C2C C3C C24C 127.0(13)
C1C C2C C3C S2C 122.7(16)
C17C C2C C3C S2C -122.7(12)
S1C C2C C3C S2C 5.7(15)
C2C C3C C4C O2C 173(3)
C24C C3C C4C O2C -68(3)
S2C C3C C4C O2C 43(3)
C2C C3C C4C N1C -3(3)
C24C C3C C4C N1C 116(2)
S2C C3C C4C N1C -133.0(19)
O3C C5C C6C C7C 180(4)
N2C C5C C6C C7C 7(3)
O3C C5C C6C S1C -16(5)
N2C C5C C6C S1C 171.8(19)
C5C C6C C7C C8C -10(3)
S1C C6C C7C C8C -175.4(18)
C5C C6C C7C S2C 177(2)
S1C C6C C7C S2C 12(2)
C6C C7C C8C O4C -174(4)
S2C C7C C8C O4C -3(5)
C6C C7C C8C N2C 10(3)
S2C C7C C8C N2C -178.7(17)
N1C C9C C10C C11C 150.4(13)
C12C C9C C10C C11C 25.1(11)
C9C C10C C11C C12C -24.2(11)
N1C C9C C12C C11C -143.9(12)
C10C C9C C12C C11C -24.5(10)
C10C C11C C12C C9C 25.6(11)
N2C C13C C14C C15C 149.5(13)
C16C C13C C14C C15C 19.2(12)
C13C C14C C15C C16C -18.6(11)
N2C C13C C16C C15C -147.3(13)
C14C C13C C16C C15C -19.3(12)
C14C C15C C16C C13C 19.3(12)
O1C C1C N1C C4C -178(4)
C2C C1C N1C C4C -1(3)
O1C C1C N1C C9C 0(5)
C2C C1C N1C C9C 177.1(16)
O2C C4C N1C C1C -173(3)
C3C C4C N1C C1C 3(3)
O2C C4C N1C C9C 8(4)
C3C C4C N1C C9C -175.7(15)
C12C C9C N1C C1C 47(3)
C10C C9C N1C C1C -57(3)
C12C C9C N1C C4C -134(2)
C10C C9C N1C C4C 121(2)
O3C C5C N2C C8C -173(4)
C6C C5C N2C C8C -1(3)
O3C C5C N2C C13C 7(5)
C6C C5C N2C C13C 179.3(18)
O4C C8C N2C C5C 178(4)
C7C C8C N2C C5C -6(3)
O4C C8C N2C C13C -2(5)
C7C C8C N2C C13C 174.0(17)
C16C C13C N2C C5C -120(3)
C14C C13C N2C C5C 127(2)
C16C C13C N2C C8C 60(3)
C14C C13C N2C C8C -53(3)
C7C C6C S1C C2C 31.5(18)
C5C C6C S1C C2C -131(2)
C3C C2C S1C C6C -38.9(15)
C1C C2C S1C C6C -158.0(12)
C17C C2C S1C C6C 91.8(10)
C6C C7C S2C C3C -45.5(16)
C8C C7C S2C C3C 144(2)
C2C C3C S2C C7C 35.2(12)
C4C C3C S2C C7C 156.1(13)
C24C C3C S2C C7C -89.6(10)
C3C C2C C17C C18C 57.3(14)
C1C C2C C17C C18C 173.0(11)
S1C C2C C17C C18C -78.5(11)
C3C C2C C17C C31C -177.7(9)
C1C C2C C17C C31C -62.0(14)
S1C C2C C17C C31C 46.5(11)
C3C C2C C17C C30C -57.8(12)
C1C C2C C17C C30C 57.9(12)
S1C C2C C17C C30C 166.5(8)
C31C C17C C18C C19C -6(2)
C30C C17C C18C C19C -128.4(17)
C2C C17C C18C C19C 120.0(17)
C31C C17C C18C C23C 176.1(13)
C30C C17C C18C C23C 53.7(17)
C2C C17C C18C C23C -57.9(17)
C23C C18C C19C C20C 1(3)
C17C C18C C19C C20C -177.1(18)
C18C C19C C20C C21C -2(3)
C19C C20C C21C C22C 8(3)
C20C C21C C22C C23C -12(3)
C21C C22C C23C C18C 10(3)
C21C C22C C23C C24C -179.1(18)
C19C C18C C23C C22C -5(3)
C17C C18C C23C C22C 173.3(15)
C19C C18C C23C C24C -176.3(16)
C17C C18C C23C C24C 2(2)
C22C C23C C24C C25C 136.2(19)
C18C C23C C24C C25C -53.2(18)
C22C C23C C24C C3C -114.8(19)
C18C C23C C24C C3C 55.8(17)
C2C C3C C24C C23C -54.1(12)
C4C C3C C24C C23C -170.9(10)
S2C C3C C24C C23C 77.0(10)
C2C C3C C24C C25C 59.4(12)
C4C C3C C24C C25C -57.5(12)
S2C C3C C24C C25C -169.5(9)
C23C C24C C25C C30C 50.1(16)
C3C C24C C25C C30C -62.5(15)
C23C C24C C25C C26C -136(2)
C3C C24C C25C C26C 112(2)
C30C C25C C26C C27C 7(3)
C24C C25C C26C C27C -168(2)
C25C C26C C27C C28C -2(4)
C26C C27C C28C C29C -3(4)
C27C C28C C29C C30C 2(3)
C26C C25C C30C C29C -8(2)
C24C C25C C30C C29C 167.6(14)
C26C C25C C30C C17C -172.0(14)
C24C C25C C30C C17C 3.5(19)
C28C C29C C30C C25C 4(3)
C28C C29C C30C C17C 166.4(17)
C18C C17C C30C C25C -56.1(15)
C31C C17C C30C C25C 179.7(12)
C2C C17C C30C C25C 56.7(14)
C18C C17C C30C C29C 139.5(14)
C31C C17C C30C C29C 15.3(17)
C2C C17C C30C C29C -107.7(14)
