#------------------------------------------------------------------------------
#$Date: 2019-11-24 23:41:52 +0200 (Sun, 24 Nov 2019) $
#$Revision: 239729 $
#$URL: file:///home/coder/svn-repositories/cod/cif/4/51/70/4517072.cif $
#------------------------------------------------------------------------------
#
# This file is available in the Crystallography Open Database (COD),
# http://www.crystallography.net/
#
# All data on this site have been placed in the public domain by the
# contributors.
#
data_4517072
loop_
_publ_author_name
'Khorasani, Sanaz'
'Fernandes, Manuel A.'
_publ_section_title
;
 Cooperativity and Feedback Mechanisms in the
 Single-Crystal-to-Single-Crystal Solid-State Diels--Alder Reaction of
 9-Methylanthracene with Bis(N-cyclobutylimino)-1,4-dithiin
;
_journal_issue                   12
_journal_name_full               'Crystal Growth &amp; Design'
_journal_page_first              5499
_journal_paper_doi               10.1021/cg401474f
_journal_volume                  13
_journal_year                    2013
_chemical_absolute_configuration ad
_chemical_formula_moiety
;
0.88(C31 H26 N2 O4 S2),  0.12(C16 H14 N2 O4 S2),  0.12(C15 H12)
;
_chemical_formula_sum            'C31 H26 N2 O4 S2'
_chemical_formula_weight         554.66
_space_group_IT_number           1
_space_group_name_Hall           'P 1'
_space_group_name_H-M_alt        'P 1'
_symmetry_cell_setting           triclinic
_symmetry_space_group_name_Hall  'P 1'
_symmetry_space_group_name_H-M   'P 1'
_atom_sites_solution_hydrogens   geom
_atom_sites_solution_primary     direct
_atom_sites_solution_secondary   difmap
_audit_creation_method           SHELXL-97
_cell_angle_alpha                76.240(2)
_cell_angle_beta                 86.882(2)
_cell_angle_gamma                84.146(2)
_cell_formula_units_Z            1
_cell_length_a                   7.4994(4)
_cell_length_b                   8.8416(4)
_cell_length_c                   10.1705(5)
_cell_measurement_reflns_used    2082
_cell_measurement_temperature    173(2)
_cell_measurement_theta_max      28.05
_cell_measurement_theta_min      2.38
_cell_volume                     651.29(6)
_computing_cell_refinement       'Bruker SAINT'
_computing_data_collection       'Bruker APEX2'
_computing_data_reduction        'Bruker SAINT'
_computing_molecular_graphics    'Bruker SHELXTL'
_computing_publication_material  'Bruker SHELXTL'
_computing_structure_refinement  'SHELXL-97 (Sheldrick, 1997)'
_computing_structure_solution    'SHELXS-97 (Sheldrick, 2008)'
_diffrn_ambient_temperature      173(2)
_diffrn_measured_fraction_theta_full 1.000
_diffrn_measured_fraction_theta_max 1.000
_diffrn_measurement_device_type  'Bruker APEX-II CCD'
_diffrn_measurement_method       '\f and \w scans'
_diffrn_radiation_monochromator  graphite
_diffrn_radiation_source         'fine-focus sealed tube'
_diffrn_radiation_type           MoK\a
_diffrn_radiation_wavelength     0.71073
_diffrn_reflns_av_R_equivalents  0.0490
_diffrn_reflns_av_sigmaI/netI    0.0987
_diffrn_reflns_limit_h_max       9
_diffrn_reflns_limit_h_min       -9
_diffrn_reflns_limit_k_max       11
_diffrn_reflns_limit_k_min       -11
_diffrn_reflns_limit_l_max       13
_diffrn_reflns_limit_l_min       -13
_diffrn_reflns_number            10212
_diffrn_reflns_theta_full        28.00
_diffrn_reflns_theta_max         28.00
_diffrn_reflns_theta_min         2.06
_diffrn_standards_number         0
_exptl_absorpt_coefficient_mu    0.247
_exptl_absorpt_correction_type   none
_exptl_crystal_colour            orange
_exptl_crystal_density_diffrn    1.414
_exptl_crystal_density_method    'not measured'
_exptl_crystal_description       needle
_exptl_crystal_F_000             290
_exptl_crystal_size_max          0.43
_exptl_crystal_size_mid          0.13
_exptl_crystal_size_min          0.05
_refine_diff_density_max         0.165
_refine_diff_density_min         -0.147
_refine_diff_density_rms         0.031
_refine_ls_abs_structure_details 'Flack H D (1983), Acta Cryst. A39, 876-881'
_refine_ls_abs_structure_Flack   0.29(14)
_refine_ls_extinction_method     none
_refine_ls_goodness_of_fit_ref   0.934
_refine_ls_hydrogen_treatment    constr
_refine_ls_matrix_type           full
_refine_ls_number_parameters     713
_refine_ls_number_reflns         6267
_refine_ls_number_restraints     883
_refine_ls_restrained_S_all      0.915
_refine_ls_R_factor_all          0.1448
_refine_ls_R_factor_gt           0.0487
_refine_ls_shift/su_max          0.001
_refine_ls_shift/su_mean         0.000
_refine_ls_structure_factor_coef Fsqd
_refine_ls_weighting_details
'calc w=1/[\s^2^(Fo^2^)+(0.0316P)^2^+0.0000P] where P=(Fo^2^+2Fc^2^)/3'
_refine_ls_weighting_scheme      calc
_refine_ls_wR_factor_gt          0.0773
_refine_ls_wR_factor_ref         0.0984
_reflns_number_gt                2814
_reflns_number_total             6267
_reflns_threshold_expression     >2sigma(I)
_iucr_refine_instructions_details
;
TITL 12s_sk118_d4ma10oilb48h_0s in P1
CELL  0.71073   7.4994   8.8416  10.1705   76.240   86.882   84.146
ZERR     1.00   0.0004   0.0004   0.0005    0.002    0.002    0.002
LATT  -1
SFAC  C    H    N    O    S
UNIT  31   26   2    4    2
MERG   2
OMIT    -2.00  56.00
DFIX     1.530   0.005 C17B C31B
SUMP 1.000 0.001 1 2 1 3 1 4
DELU     0.003   0.003 C1B > C31B
SIMU     0.010   0.020   1.700 C1B > C31B
DELU     0.003   0.003 C1C > C31C
SIMU     0.010   0.020   1.700 C1C > C31C
DFIX 1.65 0.005 C6B C17B
FMAP   2
PLAN    5
SIZE     0.05   0.13   0.43
ACTA
BOND   $H
CONF
L.S.  10
TEMP  -100.00
WGHT    0.031600
FVAR       0.53298   0.12110   0.44249   0.43642   0.04271
MOLE    1
PART    2
C1A   1    0.726043    0.235143    0.324923    21.00000   51.00000
AFIX   3
C2A   1    0.657967    0.358360    0.406793    21.00000   51.00000
C3A   1    0.644473    0.500939    0.317480    21.00000   51.00000
C4A   1    0.704402    0.470676    0.182761    21.00000   51.00000
C5A   1    0.476133    0.508530    0.739489    21.00000   51.00000
C6A   1    0.531692    0.493352    0.598265    21.00000   51.00000
C7A   1    0.524913    0.628041    0.511571    21.00000   51.00000
C8A   1    0.458143    0.745995    0.581327    21.00000   51.00000
C9A   1    0.780425    0.244887    0.075272    21.00000   51.00000
AFIX  13
H9A   2    0.761635    0.328543   -0.009579    21.00000   -1.20000
AFIX   3
C10A  1    0.955010    0.145518    0.059105    21.00000   51.00000
AFIX  23
H10A  2    1.011311    0.091994    0.145749    21.00000   -1.20000
H10B  2    1.043012    0.200878   -0.006224    21.00000   -1.20000
AFIX   3
C11A  1    0.844946    0.042517    0.000891    21.00000   51.00000
AFIX  23
H11A  2    0.843951    0.069303   -0.099297    21.00000   -1.20000
H11B  2    0.876140   -0.070910    0.036454    21.00000   -1.20000
AFIX   3
C12A  1    0.676704    0.106898    0.067507    21.00000   51.00000
AFIX  23
H12A  2    0.643514    0.041006    0.156846    21.00000   -1.20000
H12B  2    0.572448    0.135909    0.008000    21.00000   -1.20000
AFIX   3
C13A  1    0.395299    0.745766    0.832745    21.00000   51.00000
AFIX  13
H13A  2    0.401565    0.662408    0.918663    21.00000   -1.20000
AFIX   3
C14A  1    0.507875    0.875437    0.847412    21.00000   51.00000
AFIX  23
H14A  2    0.547704    0.941806    0.760169    21.00000   -1.20000
H14B  2    0.609049    0.838806    0.909173    21.00000   -1.20000
AFIX   3
C15A  1    0.337807    0.947595    0.913848    21.00000   51.00000
AFIX  23
H15A  2    0.315950    1.062643    0.882804    21.00000   -1.20000
H15B  2    0.330784    0.913766    1.013890    21.00000   -1.20000
AFIX   3
C16A  1    0.226413    0.854733    0.840096    21.00000   51.00000
AFIX  23
H16A  2    0.127686    0.803800    0.896631    21.00000   -1.20000
H16B  2    0.183746    0.915080    0.750680    21.00000   -1.20000
AFIX   3
N1A   3    0.748395    0.315939    0.192149    21.00000   51.00000
N2A   3    0.434303    0.672007    0.720191    21.00000   51.00000
O1A   4    0.757199    0.099515    0.373558    21.00000   51.00000
O2A   4    0.718392    0.571007    0.075240    21.00000   51.00000
O3A   4    0.471671    0.410085    0.840252    21.00000   51.00000
O4A   4    0.431034    0.886713    0.535292    21.00000   51.00000
S1A   5    0.604430    0.302326    0.578491    21.00000   51.00000
S2A   5    0.580059    0.684824    0.336641    21.00000   51.00000
AFIX   0
MOLE    2
C17A  1    0.095005    0.364226    0.558112    21.00000   51.00000
AFIX   3
C18A  1    0.019870    0.492293    0.606861    21.00000   51.00000
C19A  1   -0.045512    0.476087    0.736739    21.00000   51.00000
AFIX  43
H19A  2   -0.040199    0.375330    0.796508    21.00000   -1.20000
AFIX   3
C20A  1   -0.117308    0.601050    0.781004    21.00000   51.00000
AFIX  43
H20A  2   -0.161631    0.589046    0.871846    21.00000   -1.20000
AFIX   3
C21A  1   -0.126648    0.753347    0.689839    21.00000   51.00000
AFIX  43
H21A  2   -0.174436    0.842939    0.720694    21.00000   -1.20000
AFIX   3
C22A  1   -0.066548    0.768073    0.559165    21.00000   51.00000
AFIX  43
H22A  2   -0.076045    0.869052    0.499740    21.00000   -1.20000
AFIX   3
C23A  1    0.009739    0.639352    0.507559    21.00000   51.00000
C24A  1    0.073126    0.659343    0.374365    21.00000   51.00000
AFIX  43
H24A  2    0.069032    0.759721    0.314040    21.00000   -1.20000
AFIX   3
C25A  1    0.142889    0.525518    0.333418    21.00000   51.00000
C26A  1    0.213660    0.525542    0.192057    21.00000   51.00000
AFIX  43
H26A  2    0.206196    0.622225    0.126404    21.00000   -1.20000
AFIX   3
C27A  1    0.288250    0.394838    0.151996    21.00000   51.00000
AFIX  43
H27A  2    0.332920    0.401171    0.061818    21.00000   -1.20000
AFIX   3
C28A  1    0.296425    0.253856    0.246684    21.00000   51.00000
AFIX  43
H28A  2    0.349681    0.163365    0.219679    21.00000   -1.20000
AFIX   3
C29A  1    0.233283    0.237610    0.374770    21.00000   51.00000
AFIX  43
H29A  2    0.240149    0.136923    0.434687    21.00000   -1.20000
AFIX   3
C30A  1    0.155019    0.371581    0.422454    21.00000   51.00000
C31A  1    0.111856    0.201763    0.654467    21.00000   51.00000
AFIX  33
H31A  2    0.166717    0.124967    0.605463    21.00000   -1.50000
H31B  2   -0.007480    0.173333    0.689645    21.00000   -1.50000
H31C  2    0.187111    0.203050    0.729937    21.00000   -1.50000
AFIX   0
MOLE    3
PART    1
C1B   1    0.736259    0.244557    0.331126    31.00000    0.03778    0.05114 =
         0.08873   -0.02809    0.00546    0.00891
C2B   1    0.677279    0.368621    0.409912    31.00000    0.03689    0.04665 =
         0.07580   -0.02555    0.00307   -0.00548
C3B   1    0.665640    0.515479    0.321892    31.00000    0.03708    0.04864 =
         0.06589   -0.02110   -0.00876    0.00406
C4B   1    0.720052    0.483649    0.187337    31.00000    0.03551    0.05952 =
         0.07380   -0.02329    0.00623    0.00712
C5B   1    0.450842    0.525701    0.725841    31.00000    0.02930    0.03074 =
         0.04642    0.00675   -0.00779    0.00103
C6B   1    0.448588    0.494649    0.584384    31.00000    0.03932    0.03712 =
         0.04855   -0.00455   -0.00869    0.00951
C7B   1    0.422332    0.644002    0.481192    31.00000    0.03316    0.03840 =
         0.04950    0.00013   -0.00350    0.00157
C8B   1    0.429193    0.764869    0.566715    31.00000    0.03368    0.03453 =
         0.04646    0.00609   -0.00719    0.00462
C9B   1    0.799029    0.250310    0.083539    31.00000    0.03137    0.08097 =
         0.09226   -0.05027    0.00169    0.00579
AFIX  13
H9B   2    0.789725    0.332298   -0.003148    31.00000   -1.20000
AFIX   0
C10B  1    0.963823    0.143952    0.079770    31.00000    0.02056    0.09718 =
         0.10670   -0.05900    0.00276    0.00666
AFIX  23
H10C  2    1.003832    0.084067    0.170072    31.00000   -1.20000
H10D  2    1.064004    0.194175    0.024603    31.00000   -1.20000
AFIX   0
C11B  1    0.856049    0.052993    0.006081    31.00000    0.03018    0.09103 =
         0.11525   -0.06348    0.00144    0.00931
AFIX  23
H11C  2    0.858739    0.091493   -0.093654    31.00000   -1.20000
H11D  2    0.884309   -0.061809    0.032648    31.00000   -1.20000
AFIX   0
C12B  1    0.687191    0.112704    0.076867    31.00000    0.02050    0.09004 =
         0.10312   -0.05821   -0.00869    0.00880
AFIX  23
H12C  2    0.656769    0.045028    0.166059    31.00000   -1.20000
H12D  2    0.581322    0.143594    0.019118    31.00000   -1.20000
AFIX   0
C13B  1    0.402909    0.759295    0.815805    31.00000    0.05030    0.03480 =
         0.04831   -0.00014   -0.00565    0.01333
AFIX  13
H13B  2    0.409384    0.675485    0.901422    31.00000   -1.20000
AFIX   0
C14B  1    0.509156    0.890335    0.833752    31.00000    0.05009    0.05489 =
         0.05413   -0.01250   -0.00516    0.00441
AFIX  23
H14C  2    0.557750    0.952579    0.747607    31.00000   -1.20000
H14D  2    0.604084    0.855230    0.901172    31.00000   -1.20000
AFIX   0
C15B  1    0.334795    0.972020    0.889373    31.00000    0.06442    0.04739 =
         0.05653   -0.01300   -0.00307    0.01286
AFIX  23
H15C  2    0.323475    0.949080    0.989443    31.00000   -1.20000
H15D  2    0.315137    1.085749    0.849356    31.00000   -1.20000
AFIX   0
C16B  1    0.225044    0.871495    0.824442    31.00000    0.04387    0.05978 =
         0.06400   -0.01620   -0.00469    0.01575
AFIX  23
H16C  2    0.177445    0.926704    0.735099    31.00000   -1.20000
H16D  2    0.129776    0.820609    0.885211    31.00000   -1.20000
AFIX   0
N1B   3    0.759561    0.323336    0.200421    31.00000    0.04196    0.05938 =
         0.08245   -0.03545    0.00568    0.00216
N2B   3    0.424844    0.686047    0.705269    31.00000    0.04084    0.02691 =
         0.04615    0.00296   -0.00608    0.01084
O1B   4    0.776216    0.103501    0.376594    31.00000    0.05055    0.04704 =
         0.11654   -0.02963   -0.00909    0.00522
O2B   4    0.712963    0.579507    0.073713    31.00000    0.06772    0.08368 =
         0.07473   -0.00958    0.02223    0.00554
O3B   4    0.474075    0.432242    0.827367    31.00000    0.06566    0.03475 =
         0.04308    0.01773   -0.00241   -0.01273
O4B   4    0.421018    0.900639    0.523244    31.00000    0.04650    0.02960 =
         0.06813    0.00817    0.00045    0.00076
S1B   5    0.641963    0.341854    0.584410    31.00000    0.04850    0.05070 =
         0.06951   -0.01403   -0.01884    0.01303
S2B   5    0.617154    0.691966    0.364033    31.00000    0.04252    0.04147 =
         0.07162   -0.01406    0.00677   -0.00723
C17B  1    0.263375    0.406283    0.589865    31.00000    0.04923    0.03674 =
         0.05691   -0.00324   -0.00633   -0.00239
C18B  1    0.107316    0.521555    0.612642    31.00000    0.04035    0.04605 =
         0.06398   -0.00403    0.00368   -0.00582
C19B  1    0.003204    0.496547    0.729153    31.00000    0.03054    0.06188 =
         0.07468   -0.00869    0.00468   -0.02349
AFIX  43
H19B  2    0.015789    0.400418    0.795308    31.00000   -1.20000
AFIX   0
C20B  1   -0.123531    0.619892    0.746529    31.00000    0.02516    0.08870 =
         0.08615   -0.02188    0.01489   -0.01637
AFIX  43
H20B  2   -0.199765    0.607647    0.825336    31.00000   -1.20000
AFIX   0
C21B  1   -0.137095    0.762137    0.646342    31.00000    0.01460    0.08178 =
         0.09628   -0.02274   -0.00490    0.00192
AFIX  43
H21B  2   -0.228783    0.841853    0.655245    31.00000   -1.20000
AFIX   0
C22B  1   -0.018778    0.786782    0.535635    31.00000    0.01820    0.05814 =
         0.08835   -0.00483   -0.00818    0.00299
AFIX  43
H22B  2   -0.019085    0.886994    0.475324    31.00000   -1.20000
AFIX   0
C23B  1    0.102182    0.661870    0.513169    31.00000    0.03459    0.04626 =
         0.07164   -0.00094   -0.00074    0.00033
C24B  1    0.242768    0.671847    0.407882    31.00000    0.03329    0.03911 =
         0.05817    0.00345   -0.00890    0.00038
AFIX  13
H24B  2    0.231004    0.772698    0.337739    31.00000   -1.20000
AFIX   0
C25B  1    0.242584    0.530459    0.348966    31.00000    0.03904    0.04589 =
         0.06053   -0.00172   -0.01380    0.00212
C26B  1    0.233190    0.515639    0.214145    31.00000    0.05848    0.05819 =
         0.06294    0.00038   -0.02601   -0.01061
AFIX  43
H26B  2    0.198474    0.605424    0.145205    31.00000   -1.20000
AFIX   0
C27B  1    0.271877    0.378914    0.182079    31.00000    0.06555    0.07626 =
         0.06824   -0.02248   -0.01510   -0.02521
AFIX  43
H27B  2    0.289952    0.375753    0.089556    31.00000   -1.20000
AFIX   0
C28B  1    0.285998    0.244748    0.277976    31.00000    0.06899    0.05881 =
         0.08342   -0.02834   -0.01917   -0.01372
AFIX  43
H28B  2    0.313416    0.148383    0.252104    31.00000   -1.20000
AFIX   0
C29B  1    0.262133    0.244638    0.409011    31.00000    0.05338    0.04627 =
         0.07485   -0.01278   -0.02174   -0.00170
AFIX  43
H29B  2    0.249627    0.150723    0.476023    31.00000   -1.20000
AFIX   0
C30B  1    0.256546    0.386060    0.442178    31.00000    0.04445    0.04256 =
         0.06042   -0.00572   -0.01457    0.00199
C31B  1    0.247587    0.244933    0.684251    31.00000    0.07817    0.04620 =
         0.07236    0.00715    0.00109   -0.00310
AFIX  33
H31D  2    0.339638    0.169483    0.658408    31.00000   -1.50000
H31E  2    0.128549    0.211625    0.676955    31.00000   -1.50000
H31F  2    0.264461    0.250353    0.777842    31.00000   -1.50000
AFIX   0
PART    3
SAME 0.005 C1B > O4B
C1C   1    0.734271    0.244527    0.343996    41.00000    0.02224    0.03176 =
         0.05083   -0.00476   -0.00720    0.00026
C2C   1    0.727696    0.368616    0.426017    41.00000    0.03350    0.02855 =
         0.05089   -0.00460   -0.00717   -0.00435
C3C   1    0.723620    0.515915    0.337419    41.00000    0.03393    0.02946 =
         0.03973    0.00009   -0.01098    0.00092
C4C   1    0.704234    0.483785    0.202030    41.00000    0.02808    0.03324 =
         0.04654   -0.00285   -0.00398   -0.00844
C5C   1    0.454267    0.498217    0.748430    41.00000    0.04363    0.02526 =
         0.04503    0.00024   -0.01045    0.00049
C6C   1    0.486545    0.475616    0.604337    41.00000    0.04561    0.02017 =
         0.04246    0.00568   -0.01498    0.01352
C7C   1    0.480456    0.627888    0.506266    41.00000    0.03250    0.02293 =
         0.04772   -0.00446   -0.00792   -0.00731
C8C   1    0.426917    0.742932    0.596260    41.00000    0.03444    0.02052 =
         0.04651    0.00016   -0.00723    0.00292
C9C   1    0.747253    0.251836    0.093099    41.00000    0.01999    0.05074 =
         0.05523   -0.01959   -0.01299    0.01076
AFIX  13
H9C   2    0.722517    0.334167    0.008253    41.00000   -1.20000
AFIX   0
C10C  1    0.913280    0.152862    0.073920    41.00000    0.02227    0.07531 =
         0.07236   -0.03190   -0.01136    0.01349
AFIX  23
H10E  2    0.969265    0.094412    0.159350    41.00000   -1.20000
H10F  2    1.002445    0.207793    0.009442    41.00000   -1.20000
AFIX   0
C11C  1    0.795565    0.057170    0.012149    41.00000    0.04208    0.06575 =
         0.08493   -0.04132   -0.00679    0.00921
AFIX  23
H11E  2    0.781781    0.095705   -0.086776    41.00000   -1.20000
H11F  2    0.830242   -0.056857    0.036442    41.00000   -1.20000
AFIX   0
C12C  1    0.637260    0.109923    0.097025    41.00000    0.03322    0.05798 =
         0.07975   -0.03376   -0.00431    0.00165
AFIX  23
H12E  2    0.621830    0.040539    0.188091    41.00000   -1.20000
H12F  2    0.522599    0.137153    0.049347    41.00000   -1.20000
AFIX   0
C13C  1    0.406480    0.723859    0.847498    41.00000    0.05558    0.03352 =
         0.04521   -0.00389   -0.00505   -0.00084
AFIX  13
H13C  2    0.422945    0.635163    0.929038    41.00000   -1.20000
AFIX   0
C14C  1    0.503526    0.856371    0.872631    41.00000    0.06205    0.04067 =
         0.04791   -0.00307   -0.01019   -0.00493
AFIX  23
H14E  2    0.536282    0.932757    0.788832    41.00000   -1.20000
H14F  2    0.608066    0.820695    0.931215    41.00000   -1.20000
AFIX   0
C15C  1    0.330229    0.912670    0.949049    41.00000    0.07741    0.03105 =
         0.06906   -0.00854    0.00152    0.00168
AFIX  23
H15E  2    0.329170    0.870546    1.048380    41.00000   -1.20000
H15F  2    0.299606    1.027287    0.925632    41.00000   -1.20000
AFIX   0
C16C  1    0.223427    0.822111    0.871412    41.00000    0.05609    0.04022 =
         0.04699    0.00365    0.00339    0.00051
AFIX  23
H16E  2    0.170410    0.887562    0.787250    41.00000   -1.20000
H16F  2    0.133408    0.759397    0.928408    41.00000   -1.20000
AFIX   0
N1C   3    0.724531    0.322893    0.212077    41.00000    0.01879    0.03334 =
         0.04843   -0.00776   -0.00603    0.00414
N2C   3    0.426319    0.658460    0.732793    41.00000    0.04655    0.02545 =
         0.04200    0.00309   -0.01019    0.00549
O1C   4    0.741264    0.101341    0.386880    41.00000    0.04344    0.02776 =
         0.06206   -0.00862    0.00145    0.01599
O2C   4    0.693973    0.581933    0.089755    41.00000    0.04233    0.03502 =
         0.03196   -0.01186   -0.00449    0.00614
O3C   4    0.441987    0.399170    0.846324    41.00000    0.08396    0.03944 =
         0.04851    0.00985   -0.00090   -0.02839
O4C   4    0.400456    0.879012    0.556701    41.00000    0.07355    0.02020 =
         0.04970    0.00718    0.00505    0.01516
S1C   5    0.550772    0.307006    0.559649    41.00000    0.05671    0.02348 =
         0.04836   -0.00223    0.00127   -0.00090
S2C   5    0.525238    0.664131    0.342540    41.00000    0.04066    0.02439 =
         0.04592    0.00344   -0.00972    0.00437
SAME 0.005 C17B > C31B
C17C  1    0.915320    0.331008    0.510360    41.00000    0.04573    0.03917 =
         0.04598   -0.00126   -0.01875    0.00089
C18C  1    0.923631    0.467179    0.575317    41.00000    0.04590    0.04845 =
         0.05612   -0.00978   -0.01738   -0.00350
C19C  1    0.922126    0.447119    0.712719    41.00000    0.04281    0.06443 =
         0.05870   -0.01719   -0.01073   -0.01686
AFIX  43
H19C  2    0.918900    0.346437    0.771807    41.00000   -1.20000
AFIX   0
C20C  1    0.925554    0.581825    0.763084    41.00000    0.04715    0.08164 =
         0.07476   -0.03746   -0.01296   -0.00183
AFIX  43
H20C  2    0.935340    0.573705    0.857296    41.00000   -1.20000
AFIX   0
C21C  1    0.914105    0.729923    0.670358    41.00000    0.05385    0.06951 =
         0.09782   -0.04171   -0.03252   -0.01417
AFIX  43
H21C  2    0.912902    0.821447    0.704057    41.00000   -1.20000
AFIX   0
C22C  1    0.904614    0.745234    0.532044    41.00000    0.05423    0.05087 =
         0.08960   -0.02172   -0.02017   -0.01976
AFIX  43
H22C  2    0.885780    0.845920    0.472980    41.00000   -1.20000
AFIX   0
C23C  1    0.923107    0.610357    0.479661    41.00000    0.05156    0.04474 =
         0.06736   -0.01021   -0.02357   -0.00926
C24C  1    0.904044    0.603482    0.339902    41.00000    0.04509    0.02915 =
         0.06085    0.00139   -0.01860   -0.00889
AFIX  13
H24C  2    0.901865    0.708270    0.275169    41.00000   -1.20000
AFIX   0
C25C  1    1.048425    0.485845    0.304472    41.00000    0.03503    0.04415 =
         0.06026   -0.00155   -0.01490   -0.01028
C26C  1    1.163126    0.489393    0.188759    41.00000    0.03692    0.07566 =
         0.06536   -0.00258   -0.01031   -0.01959
AFIX  43
H26C  2    1.170380    0.585542    0.123582    41.00000   -1.20000
AFIX   0
C27C  1    1.260604    0.363009    0.168470    41.00000    0.04889    0.09806 =
         0.08182   -0.02243    0.00757   -0.01365
AFIX  43
H27C  2    1.328554    0.368876    0.086098    41.00000   -1.20000
AFIX   0
C28C  1    1.265652    0.226678    0.261657    41.00000    0.04953    0.08254 =
         0.09368   -0.02780   -0.00201    0.00120
AFIX  43
H28C  2    1.327203    0.135502    0.240830    41.00000   -1.20000
AFIX   0
C29C  1    1.185059    0.217877    0.383332    41.00000    0.03923    0.05500 =
         0.07730   -0.01649   -0.01754    0.00270
AFIX  43
H29C  2    1.210993    0.131172    0.457290    41.00000   -1.20000
AFIX   0
C30C  1    1.063230    0.340209    0.395910    41.00000    0.03596    0.04032 =
         0.05574   -0.00586   -0.01788   -0.00435
C31C  1    0.950010    0.174097    0.611913    41.00000    0.07234    0.04422 =
         0.05522    0.00670   -0.01777   -0.00076
AFIX  33
H31G  2    0.963375    0.089660    0.563771    41.00000   -1.50000
H31H  2    0.848823    0.158418    0.677332    41.00000   -1.50000
H31I  2    1.060090    0.173540    0.659791    41.00000   -1.50000
HKLF    4
 
REM  12s_sk118_d4ma10oilb48h_0s in P1
REM R1 =  0.0487 for   2814 Fo > 4sig(Fo)  and  0.1448 for all   6267 data
REM    713 parameters refined using    883 restraints
 
END
 
WGHT      0.0316      0.0000
REM Highest difference peak  0.165,  deepest hole -0.147,  1-sigma level  0.031
Q1    1   0.3575  0.4414  0.5781  11.00000  0.05    0.16
Q2    1   0.4945  0.5815  0.5526  11.00000  0.05    0.16
Q3    1   0.8139  0.5695  0.3487  11.00000  0.05    0.16
Q4    1   0.5146  0.7026  0.4370  11.00000  0.05    0.15
Q5    1   0.5004  0.3994  0.5732  11.00000  0.05    0.15
;
_cod_data_source_file            12s_sk118_d4ma10oilb48h_0s-88p-x6.cif
_cod_data_source_block           12s_sk118_d4ma10oilb48h_0s
_cod_depositor_comments
;
The following automatic conversions were performed:

data item '_symmetry_cell_setting' value 'Triclinic' was changed to
'triclinic' in accordance with the
/home/saulius/struct/COD-crude-data/automatic-downloads/DataCite-retrospective/ACS/depositions/lib/dictionaries/cif_core.dic
dictionary named 'cif_core.dic' version 2.4.2 last updated on
2011-04-26.

Automatic conversion script
Id: cif_fix_values 6909 2019-04-08 15:41:33Z antanas 
;
_cod_original_sg_symbol_H-M      P1
_cod_database_code               4517072
loop_
_symmetry_equiv_pos_as_xyz
'x, y, z'
loop_
_atom_site_label
_atom_site_type_symbol
_atom_site_fract_x
_atom_site_fract_y
_atom_site_fract_z
_atom_site_U_iso_or_equiv
_atom_site_adp_type
_atom_site_occupancy
_atom_site_symmetry_multiplicity
_atom_site_calc_flag
_atom_site_refinement_flags
_atom_site_disorder_assembly
_atom_site_disorder_group
C1A C 0.726(3) 0.235(2) 0.325(2) 0.0427(19) Uiso 0.121(3) 1 d P A 2
C2A C 0.658(3) 0.358(2) 0.407(2) 0.0427(19) Uiso 0.121(3) 1 d PR A 2
C3A C 0.644(3) 0.501(2) 0.317(2) 0.0427(19) Uiso 0.121(3) 1 d PR A 2
C4A C 0.704(3) 0.471(2) 0.183(2) 0.0427(19) Uiso 0.121(3) 1 d PR A 2
C5A C 0.476(3) 0.509(2) 0.739(2) 0.0427(19) Uiso 0.121(3) 1 d PR A 2
C6A C 0.532(3) 0.493(2) 0.598(2) 0.0427(19) Uiso 0.121(3) 1 d PR A 2
C7A C 0.525(3) 0.628(2) 0.512(2) 0.0427(19) Uiso 0.121(3) 1 d PR A 2
C8A C 0.458(3) 0.746(2) 0.581(2) 0.0427(19) Uiso 0.121(3) 1 d PR A 2
C9A C 0.780(3) 0.245(2) 0.075(2) 0.0427(19) Uiso 0.121(3) 1 d PR A 2
H9A H 0.7616 0.3285 -0.0096 0.051 Uiso 0.121(3) 1 calc PR A 2
C10A C 0.955(3) 0.146(2) 0.059(2) 0.0427(19) Uiso 0.121(3) 1 d PR A 2
H10A H 1.0113 0.0920 0.1457 0.051 Uiso 0.121(3) 1 calc PR A 2
H10B H 1.0430 0.2009 -0.0062 0.051 Uiso 0.121(3) 1 calc PR A 2
C11A C 0.845(3) 0.043(2) 0.001(2) 0.0427(19) Uiso 0.121(3) 1 d PR A 2
H11A H 0.8440 0.0693 -0.0993 0.051 Uiso 0.121(3) 1 calc PR A 2
H11B H 0.8761 -0.0709 0.0365 0.051 Uiso 0.121(3) 1 calc PR A 2
C12A C 0.677(3) 0.107(2) 0.068(2) 0.0427(19) Uiso 0.121(3) 1 d PR A 2
H12A H 0.6435 0.0410 0.1568 0.051 Uiso 0.121(3) 1 calc PR A 2
H12B H 0.5724 0.1359 0.0080 0.051 Uiso 0.121(3) 1 calc PR A 2
C13A C 0.395(3) 0.746(2) 0.833(2) 0.0427(19) Uiso 0.121(3) 1 d PR A 2
H13A H 0.4016 0.6624 0.9187 0.051 Uiso 0.121(3) 1 calc PR A 2
C14A C 0.508(3) 0.875(2) 0.847(2) 0.0427(19) Uiso 0.121(3) 1 d PR A 2
H14A H 0.5477 0.9418 0.7602 0.051 Uiso 0.121(3) 1 calc PR A 2
H14B H 0.6090 0.8388 0.9092 0.051 Uiso 0.121(3) 1 calc PR A 2
C15A C 0.338(3) 0.948(2) 0.914(2) 0.0427(19) Uiso 0.121(3) 1 d PR A 2
H15A H 0.3160 1.0626 0.8828 0.051 Uiso 0.121(3) 1 calc PR A 2
H15B H 0.3308 0.9138 1.0139 0.051 Uiso 0.121(3) 1 calc PR A 2
C16A C 0.226(3) 0.855(2) 0.840(2) 0.0427(19) Uiso 0.121(3) 1 d PR A 2
H16A H 0.1277 0.8038 0.8966 0.051 Uiso 0.121(3) 1 calc PR A 2
H16B H 0.1837 0.9151 0.7507 0.051 Uiso 0.121(3) 1 calc PR A 2
N1A N 0.748(3) 0.316(2) 0.192(2) 0.0427(19) Uiso 0.121(3) 1 d PR A 2
N2A N 0.434(3) 0.672(2) 0.720(2) 0.0427(19) Uiso 0.121(3) 1 d PR A 2
O1A O 0.757(3) 0.100(2) 0.374(2) 0.0427(19) Uiso 0.121(3) 1 d PR A 2
O2A O 0.718(3) 0.571(2) 0.075(2) 0.0427(19) Uiso 0.121(3) 1 d PR A 2
O3A O 0.472(3) 0.410(2) 0.840(2) 0.0427(19) Uiso 0.121(3) 1 d PR A 2
O4A O 0.431(3) 0.887(2) 0.535(2) 0.0427(19) Uiso 0.121(3) 1 d PR A 2
S1A S 0.604(3) 0.302(2) 0.578(2) 0.0427(19) Uiso 0.121(3) 1 d PR A 2
S2A S 0.580(3) 0.685(2) 0.337(2) 0.0427(19) Uiso 0.121(3) 1 d PR A 2
C17A C 0.095(2) 0.3642(17) 0.5581(15) 0.0427(19) Uiso 0.121(3) 1 d P A 2
C18A C 0.020(2) 0.4923(17) 0.6069(15) 0.0427(19) Uiso 0.121(3) 1 d PR A 2
C19A C -0.046(2) 0.4761(17) 0.7367(15) 0.0427(19) Uiso 0.121(3) 1 d PR A 2
H19A H -0.0402 0.3753 0.7965 0.051 Uiso 0.121(3) 1 calc PR A 2
C20A C -0.117(2) 0.6010(17) 0.7810(15) 0.0427(19) Uiso 0.121(3) 1 d PR A 2
H20A H -0.1616 0.5890 0.8718 0.051 Uiso 0.121(3) 1 calc PR A 2
C21A C -0.127(2) 0.7533(17) 0.6898(15) 0.0427(19) Uiso 0.121(3) 1 d PR A 2
H21A H -0.1744 0.8429 0.7207 0.051 Uiso 0.121(3) 1 calc PR A 2
C22A C -0.067(2) 0.7681(17) 0.5592(15) 0.0427(19) Uiso 0.121(3) 1 d PR A 2
H22A H -0.0760 0.8691 0.4997 0.051 Uiso 0.121(3) 1 calc PR A 2
C23A C 0.010(2) 0.6394(17) 0.5076(15) 0.0427(19) Uiso 0.121(3) 1 d PR A 2
C24A C 0.073(2) 0.6593(17) 0.3744(15) 0.0427(19) Uiso 0.121(3) 1 d PR A 2
H24A H 0.0690 0.7597 0.3140 0.051 Uiso 0.121(3) 1 calc PR A 2
C25A C 0.143(2) 0.5255(17) 0.3334(15) 0.0427(19) Uiso 0.121(3) 1 d PR A 2
C26A C 0.214(2) 0.5255(17) 0.1921(15) 0.0427(19) Uiso 0.121(3) 1 d PR A 2
H26A H 0.2062 0.6222 0.1264 0.051 Uiso 0.121(3) 1 calc PR A 2
C27A C 0.288(2) 0.3948(17) 0.1520(15) 0.0427(19) Uiso 0.121(3) 1 d PR A 2
H27A H 0.3329 0.4012 0.0618 0.051 Uiso 0.121(3) 1 calc PR A 2
C28A C 0.296(2) 0.2539(17) 0.2467(15) 0.0427(19) Uiso 0.121(3) 1 d PR A 2
H28A H 0.3497 0.1634 0.2197 0.051 Uiso 0.121(3) 1 calc PR A 2
C29A C 0.233(2) 0.2376(17) 0.3748(15) 0.0427(19) Uiso 0.121(3) 1 d PR A 2
H29A H 0.2401 0.1369 0.4347 0.051 Uiso 0.121(3) 1 calc PR A 2
C30A C 0.155(2) 0.3716(17) 0.4225(15) 0.0427(19) Uiso 0.121(3) 1 d PR A 2
C31A C 0.112(2) 0.2018(17) 0.6545(15) 0.0427(19) Uiso 0.121(3) 1 d PR A 2
H31A H 0.1667 0.1250 0.6055 0.064 Uiso 0.121(3) 1 calc PR A 2
H31B H -0.0075 0.1733 0.6896 0.064 Uiso 0.121(3) 1 calc PR A 2
H31C H 0.1871 0.2031 0.7299 0.064 Uiso 0.121(3) 1 calc PR A 2
C1B C 0.736(5) 0.2446(15) 0.3311(14) 0.058(3) Uani 0.442(5) 1 d PDU B 1
C2B C 0.677(2) 0.3686(16) 0.4099(12) 0.051(2) Uani 0.442(5) 1 d PDU B 1
C3B C 0.6656(19) 0.5155(14) 0.3219(13) 0.050(2) Uani 0.442(5) 1 d PDU B 1
C4B C 0.720(4) 0.4836(15) 0.1873(12) 0.056(3) Uani 0.442(5) 1 d PDU B 1
C5B C 0.451(4) 0.5257(12) 0.7258(10) 0.038(2) Uani 0.442(5) 1 d PDU B 1
C6B C 0.4486(14) 0.4946(11) 0.5844(11) 0.0432(15) Uani 0.442(5) 1 d PDU B 1
C7B C 0.4223(16) 0.6440(11) 0.4812(10) 0.0424(15) Uani 0.442(5) 1 d PDU B 1
C8B C 0.429(4) 0.7649(11) 0.5667(11) 0.041(2) Uani 0.442(5) 1 d PDU B 1
C9B C 0.7990(18) 0.2503(17) 0.0835(14) 0.064(3) Uani 0.442(5) 1 d PDU B 1
H9B H 0.7897 0.3323 -0.0031 0.077 Uiso 0.442(5) 1 calc PR B 1
C10B C 0.9638(19) 0.144(2) 0.080(2) 0.070(4) Uani 0.442(5) 1 d PDU B 1
H10C H 1.0038 0.0841 0.1701 0.084 Uiso 0.442(5) 1 calc PR B 1
H10D H 1.0640 0.1942 0.0246 0.084 Uiso 0.442(5) 1 calc PR B 1
C11B C 0.856(2) 0.053(2) 0.006(2) 0.073(4) Uani 0.442(5) 1 d PDU B 1
H11C H 0.8587 0.0915 -0.0937 0.088 Uiso 0.442(5) 1 calc PR B 1
H11D H 0.8843 -0.0618 0.0326 0.088 Uiso 0.442(5) 1 calc PR B 1
C12B C 0.6872(19) 0.113(2) 0.077(2) 0.066(3) Uani 0.442(5) 1 d PDU B 1
H12C H 0.6568 0.0450 0.1661 0.079 Uiso 0.442(5) 1 calc PR B 1
H12D H 0.5813 0.1436 0.0191 0.079 Uiso 0.442(5) 1 calc PR B 1
C13B C 0.403(2) 0.7593(13) 0.8158(12) 0.047(2) Uani 0.442(5) 1 d PDU B 1
H13B H 0.4094 0.6755 0.9014 0.057 Uiso 0.442(5) 1 calc PR B 1
C14B C 0.509(2) 0.8903(17) 0.8338(17) 0.054(3) Uani 0.442(5) 1 d PDU B 1
H14C H 0.5577 0.9526 0.7476 0.064 Uiso 0.442(5) 1 calc PR B 1
H14D H 0.6041 0.8552 0.9012 0.064 Uiso 0.442(5) 1 calc PR B 1
C15B C 0.335(2) 0.9720(14) 0.8894(14) 0.057(3) Uani 0.442(5) 1 d PDU B 1
H15C H 0.3235 0.9491 0.9894 0.069 Uiso 0.442(5) 1 calc PR B 1
H15D H 0.3151 1.0857 0.8494 0.069 Uiso 0.442(5) 1 calc PR B 1
C16B C 0.225(2) 0.8715(16) 0.8244(15) 0.057(3) Uani 0.442(5) 1 d PDU B 1
H16C H 0.1774 0.9267 0.7351 0.068 Uiso 0.442(5) 1 calc PR B 1
H16D H 0.1298 0.8206 0.8852 0.068 Uiso 0.442(5) 1 calc PR B 1
N1B N 0.760(2) 0.3233(14) 0.2004(12) 0.059(3) Uani 0.442(5) 1 d PDU B 1
N2B N 0.425(3) 0.6860(10) 0.7053(9) 0.041(2) Uani 0.442(5) 1 d PDU B 1
O1B O 0.776(5) 0.1035(13) 0.3766(16) 0.070(5) Uani 0.442(5) 1 d PDU B 1
O2B O 0.713(4) 0.5795(17) 0.0737(13) 0.079(5) Uani 0.442(5) 1 d PDU B 1
O3B O 0.474(3) 0.4322(12) 0.8274(10) 0.052(4) Uani 0.442(5) 1 d PDU B 1
O4B O 0.421(4) 0.9006(10) 0.5232(13) 0.052(3) Uani 0.442(5) 1 d PDU B 1
S1B S 0.6420(7) 0.3419(5) 0.5844(5) 0.0568(13) Uani 0.442(5) 1 d PU B 1
S2B S 0.6172(7) 0.6920(5) 0.3640(5) 0.0518(14) Uani 0.442(5) 1 d PU B 1
C17B C 0.2634(14) 0.4063(8) 0.5899(9) 0.0489(16) Uani 0.442(5) 1 d PDU B 1
C18B C 0.1073(17) 0.5216(11) 0.6126(11) 0.052(2) Uani 0.442(5) 1 d PDU B 1
C19B C 0.0032(18) 0.4965(15) 0.7292(13) 0.056(3) Uani 0.442(5) 1 d PDU B 1
H19B H 0.0158 0.4004 0.7953 0.067 Uiso 0.442(5) 1 calc PR B 1
C20B C -0.124(2) 0.6199(14) 0.7465(14) 0.066(3) Uani 0.442(5) 1 d PDU B 1
H20B H -0.1998 0.6076 0.8253 0.080 Uiso 0.442(5) 1 calc PR B 1
C21B C -0.1371(19) 0.7621(15) 0.6463(15) 0.064(3) Uani 0.442(5) 1 d PDU B 1
H21B H -0.2288 0.8419 0.6552 0.077 Uiso 0.442(5) 1 calc PR B 1
C22B C -0.0188(17) 0.7868(14) 0.5356(13) 0.057(3) Uani 0.442(5) 1 d PDU B 1
H22B H -0.0191 0.8870 0.4753 0.069 Uiso 0.442(5) 1 calc PR B 1
C23B C 0.1022(18) 0.6619(12) 0.5132(11) 0.053(2) Uani 0.442(5) 1 d PDU B 1
C24B C 0.2428(14) 0.6718(10) 0.4079(10) 0.0460(16) Uani 0.442(5) 1 d PDU B 1
H24B H 0.2310 0.7727 0.3377 0.055 Uiso 0.442(5) 1 calc PR B 1
C25B C 0.243(2) 0.5305(11) 0.3490(11) 0.0503(19) Uani 0.442(5) 1 d PDU B 1
C26B C 0.233(2) 0.5156(13) 0.2141(10) 0.061(3) Uani 0.442(5) 1 d PDU B 1
H26B H 0.1985 0.6054 0.1452 0.073 Uiso 0.442(5) 1 calc PR B 1
C27B C 0.272(4) 0.3789(15) 0.1821(13) 0.067(3) Uani 0.442(5) 1 d PDU B 1
H27B H 0.2900 0.3758 0.0896 0.081 Uiso 0.442(5) 1 calc PR B 1
C28B C 0.286(4) 0.2447(14) 0.2780(13) 0.067(3) Uani 0.442(5) 1 d PDU B 1
H28B H 0.3134 0.1484 0.2521 0.081 Uiso 0.442(5) 1 calc PR B 1
C29B C 0.262(2) 0.2446(12) 0.4090(11) 0.058(2) Uani 0.442(5) 1 d PDU B 1
H29B H 0.2496 0.1507 0.4760 0.069 Uiso 0.442(5) 1 calc PR B 1
C30B C 0.2565(19) 0.3861(11) 0.4422(10) 0.0501(19) Uani 0.442(5) 1 d PDU B 1
C31B C 0.2476(11) 0.2449(7) 0.6843(7) 0.069(2) Uani 0.442(5) 1 d PDU B 1
H31D H 0.3396 0.1695 0.6584 0.104 Uiso 0.442(5) 1 calc PR B 1
H31E H 0.1285 0.2116 0.6770 0.104 Uiso 0.442(5) 1 calc PR B 1
H31F H 0.2645 0.2504 0.7778 0.104 Uiso 0.442(5) 1 calc PR B 1
C1C C 0.734(4) 0.2445(12) 0.3440(12) 0.0357(19) Uani 0.436(4) 1 d PDU C 3
C2C C 0.7277(19) 0.3686(13) 0.4260(11) 0.0381(14) Uani 0.436(4) 1 d PDU C 3
C3C C 0.7236(15) 0.5159(13) 0.3374(11) 0.0357(14) Uani 0.436(4) 1 d PDU C 3
C4C C 0.704(3) 0.4838(13) 0.2020(10) 0.0365(19) Uani 0.436(4) 1 d PDU C 3
C5C C 0.454(4) 0.4982(12) 0.7484(10) 0.039(2) Uani 0.436(4) 1 d PDU C 3
C6C C 0.487(2) 0.4756(10) 0.6043(10) 0.039(2) Uani 0.436(4) 1 d PDU C 3
C7C C 0.4805(18) 0.6279(12) 0.5063(11) 0.0344(19) Uani 0.436(4) 1 d PDU C 3
C8C C 0.427(4) 0.7429(11) 0.5963(11) 0.035(2) Uani 0.436(4) 1 d PDU C 3
C9C C 0.7473(18) 0.2518(15) 0.0931(13) 0.041(2) Uani 0.436(4) 1 d PDU C 3
H9C H 0.7225 0.3342 0.0083 0.050 Uiso 0.436(4) 1 calc PR C 3
C10C C 0.9133(18) 0.153(2) 0.074(2) 0.055(3) Uani 0.436(4) 1 d PDU C 3
H10E H 0.9693 0.0944 0.1594 0.066 Uiso 0.436(4) 1 calc PR C 3
H10F H 1.0024 0.2078 0.0094 0.066 Uiso 0.436(4) 1 calc PR C 3
C11C C 0.7956(19) 0.057(2) 0.012(2) 0.061(3) Uani 0.436(4) 1 d PDU C 3
H11E H 0.7818 0.0957 -0.0868 0.073 Uiso 0.436(4) 1 calc PR C 3
H11F H 0.8302 -0.0569 0.0364 0.073 Uiso 0.436(4) 1 calc PR C 3
C12C C 0.637(2) 0.110(2) 0.097(2) 0.054(3) Uani 0.436(4) 1 d PDU C 3
H12E H 0.6218 0.0405 0.1881 0.065 Uiso 0.436(4) 1 calc PR C 3
H12F H 0.5226 0.1372 0.0493 0.065 Uiso 0.436(4) 1 calc PR C 3
C13C C 0.406(2) 0.7239(13) 0.8475(12) 0.046(2) Uani 0.436(4) 1 d PDU C 3
H13C H 0.4229 0.6352 0.9290 0.055 Uiso 0.436(4) 1 calc PR C 3
C14C C 0.504(2) 0.8564(14) 0.8726(13) 0.051(3) Uani 0.436(4) 1 d PDU C 3
H14E H 0.5363 0.9328 0.7888 0.061 Uiso 0.436(4) 1 calc PR C 3
H14F H 0.6081 0.8207 0.9312 0.061 Uiso 0.436(4) 1 calc PR C 3
C15C C 0.330(2) 0.9127(13) 0.9490(12) 0.060(3) Uani 0.436(4) 1 d PDU C 3
H15E H 0.3292 0.8705 1.0484 0.072 Uiso 0.436(4) 1 calc PR C 3
H15F H 0.2996 1.0273 0.9256 0.072 Uiso 0.436(4) 1 calc PR C 3
C16C C 0.223(2) 0.8221(14) 0.8714(13) 0.051(2) Uani 0.436(4) 1 d PDU C 3
H16E H 0.1704 0.8876 0.7873 0.061 Uiso 0.436(4) 1 calc PR C 3
H16F H 0.1334 0.7594 0.9284 0.061 Uiso 0.436(4) 1 calc PR C 3
N1C N 0.725(2) 0.3229(11) 0.2121(10) 0.0341(18) Uani 0.436(4) 1 d PDU C 3
N2C N 0.426(3) 0.6585(10) 0.7328(9) 0.040(2) Uani 0.436(4) 1 d PDU C 3
O1C O 0.741(4) 0.1013(12) 0.3869(14) 0.046(4) Uani 0.436(4) 1 d PDU C 3
O2C O 0.694(3) 0.5819(12) 0.0898(9) 0.036(3) Uani 0.436(4) 1 d PDU C 3
O3C O 0.442(3) 0.3992(13) 0.8463(11) 0.059(4) Uani 0.436(4) 1 d PDU C 3
O4C O 0.400(4) 0.8790(10) 0.5567(12) 0.052(4) Uani 0.436(4) 1 d PDU C 3
S1C S 0.5508(7) 0.3070(4) 0.5596(5) 0.0442(12) Uani 0.436(4) 1 d PU C 3
S2C S 0.5252(6) 0.6641(4) 0.3425(4) 0.0392(10) Uani 0.436(4) 1 d PU C 3
C17C C 0.9153(15) 0.3310(9) 0.5104(9) 0.0448(15) Uani 0.436(4) 1 d PDU C 3
C18C C 0.924(2) 0.4672(11) 0.5753(11) 0.0500(19) Uani 0.436(4) 1 d PDU C 3
C19C C 0.9221(19) 0.4471(12) 0.7127(10) 0.054(2) Uani 0.436(4) 1 d PDU C 3
H19C H 0.9189 0.3464 0.7718 0.064 Uiso 0.436(4) 1 calc PR C 3
C20C C 0.926(2) 0.5818(13) 0.7631(11) 0.064(3) Uani 0.436(4) 1 d PDU C 3
H20C H 0.9353 0.5737 0.8573 0.077 Uiso 0.436(4) 1 calc PR C 3
C21C C 0.914(2) 0.7299(14) 0.6704(13) 0.068(3) Uani 0.436(4) 1 d PDU C 3
H21C H 0.9129 0.8214 0.7041 0.082 Uiso 0.436(4) 1 calc PR C 3
C22C C 0.905(2) 0.7452(12) 0.5320(12) 0.062(3) Uani 0.436(4) 1 d PDU C 3
H22C H 0.8858 0.8459 0.4730 0.075 Uiso 0.436(4) 1 calc PR C 3
C23C C 0.9231(19) 0.6104(12) 0.4797(11) 0.054(2) Uani 0.436(4) 1 d PDU C 3
C24C C 0.9040(14) 0.6035(9) 0.3399(9) 0.0460(16) Uani 0.436(4) 1 d PDU C 3
H24C H 0.9019 0.7083 0.2752 0.055 Uiso 0.436(4) 1 calc PR C 3
C25C C 1.0484(16) 0.4858(11) 0.3045(11) 0.0473(19) Uani 0.436(4) 1 d PDU C 3
C26C C 1.1631(19) 0.4894(15) 0.1888(12) 0.060(3) Uani 0.436(4) 1 d PDU C 3
H26C H 1.1704 0.5855 0.1236 0.072 Uiso 0.436(4) 1 calc PR C 3
C27C C 1.261(4) 0.3630(17) 0.1685(14) 0.076(4) Uani 0.436(4) 1 d PDU C 3
H27C H 1.3286 0.3689 0.0861 0.091 Uiso 0.436(4) 1 calc PR C 3
C28C C 1.266(4) 0.2267(15) 0.2617(15) 0.075(4) Uani 0.436(4) 1 d PDU C 3
H28C H 1.3272 0.1355 0.2408 0.089 Uiso 0.436(4) 1 calc PR C 3
C29C C 1.1851(17) 0.2179(13) 0.3833(13) 0.057(3) Uani 0.436(4) 1 d PDU C 3
H29C H 1.2110 0.1312 0.4573 0.068 Uiso 0.436(4) 1 calc PR C 3
C30C C 1.0632(17) 0.3402(11) 0.3959(10) 0.0442(18) Uani 0.436(4) 1 d PDU C 3
C31C C 0.9500(10) 0.1741(7) 0.6119(7) 0.060(2) Uani 0.436(4) 1 d PDU C 3
H31G H 0.9634 0.0897 0.5638 0.090 Uiso 0.436(4) 1 calc PR C 3
H31H H 0.8488 0.1584 0.6773 0.090 Uiso 0.436(4) 1 calc PR C 3
H31I H 1.0601 0.1735 0.6598 0.090 Uiso 0.436(4) 1 calc PR C 3
loop_
_atom_site_aniso_label
_atom_site_aniso_U_11
_atom_site_aniso_U_22
_atom_site_aniso_U_33
_atom_site_aniso_U_23
_atom_site_aniso_U_13
_atom_site_aniso_U_12
C1B 0.038(6) 0.051(4) 0.089(4) -0.028(3) 0.005(6) 0.009(6)
C2B 0.037(6) 0.047(3) 0.076(3) -0.026(3) 0.003(5) -0.005(5)
C3B 0.037(5) 0.049(3) 0.066(4) -0.021(3) -0.009(4) 0.004(5)
C4B 0.036(6) 0.060(4) 0.074(4) -0.023(3) 0.006(6) 0.007(6)
C5B 0.029(5) 0.031(3) 0.046(3) 0.007(2) -0.008(4) 0.001(4)
C6B 0.039(3) 0.037(3) 0.049(3) -0.005(2) -0.009(3) 0.010(2)
C7B 0.033(3) 0.038(3) 0.050(3) 0.000(2) -0.004(2) 0.002(2)
C8B 0.034(5) 0.035(3) 0.046(3) 0.006(3) -0.007(4) 0.005(5)
C9B 0.031(6) 0.081(6) 0.092(5) -0.050(5) 0.002(5) 0.006(4)
C10B 0.021(5) 0.097(8) 0.107(8) -0.059(6) 0.003(6) 0.007(5)
C11B 0.030(7) 0.091(7) 0.115(8) -0.063(6) 0.001(6) 0.009(6)
C12B 0.020(6) 0.090(7) 0.103(8) -0.058(6) -0.009(6) 0.009(5)
C13B 0.050(6) 0.035(4) 0.048(4) 0.000(3) -0.006(5) 0.013(4)
C14B 0.050(6) 0.055(6) 0.054(6) -0.012(5) -0.005(6) 0.004(5)
C15B 0.064(7) 0.047(5) 0.057(6) -0.013(4) -0.003(5) 0.013(5)
C16B 0.044(6) 0.060(6) 0.064(6) -0.016(4) -0.005(5) 0.016(5)
N1B 0.042(6) 0.059(4) 0.082(4) -0.035(3) 0.006(5) 0.002(4)
N2B 0.041(5) 0.027(3) 0.046(3) 0.003(2) -0.006(5) 0.011(4)
O1B 0.051(12) 0.047(4) 0.117(9) -0.030(4) -0.009(7) 0.005(5)
O2B 0.068(10) 0.084(7) 0.075(4) -0.010(5) 0.022(8) 0.006(8)
O3B 0.066(9) 0.035(5) 0.043(4) 0.018(3) -0.002(5) -0.013(6)
O4B 0.046(7) 0.030(3) 0.068(7) 0.008(3) 0.000(8) 0.001(5)
S1B 0.048(3) 0.051(2) 0.070(2) -0.0140(17) -0.019(2) 0.0130(19)
S2B 0.043(3) 0.0415(19) 0.072(3) -0.0141(19) 0.007(2) -0.007(2)
C17B 0.049(3) 0.037(3) 0.057(3) -0.003(3) -0.006(3) -0.002(2)
C18B 0.040(3) 0.046(4) 0.064(4) -0.004(3) 0.004(3) -0.006(3)
C19B 0.031(5) 0.062(5) 0.075(5) -0.009(4) 0.005(4) -0.023(4)
C20B 0.025(5) 0.089(6) 0.086(6) -0.022(4) 0.015(5) -0.016(4)
C21B 0.015(5) 0.082(5) 0.096(7) -0.023(5) -0.005(4) 0.002(4)
C22B 0.018(4) 0.058(4) 0.088(6) -0.005(4) -0.008(4) 0.003(4)
C23B 0.035(3) 0.046(4) 0.072(5) -0.001(3) -0.001(3) 0.000(3)
C24B 0.033(3) 0.039(3) 0.058(4) 0.003(3) -0.009(2) 0.000(3)
C25B 0.039(5) 0.046(3) 0.061(3) -0.002(2) -0.014(4) 0.002(4)
C26B 0.058(6) 0.058(4) 0.063(3) 0.000(3) -0.026(5) -0.011(5)
C27B 0.066(8) 0.076(5) 0.068(5) -0.022(3) -0.015(6) -0.025(6)
C28B 0.069(8) 0.059(4) 0.083(5) -0.028(4) -0.019(6) -0.014(6)
C29B 0.053(6) 0.046(3) 0.075(4) -0.013(3) -0.022(5) -0.002(5)
C30B 0.044(5) 0.043(3) 0.060(3) -0.006(2) -0.015(4) 0.002(4)
C31B 0.078(6) 0.046(3) 0.072(4) 0.007(3) 0.001(4) -0.003(3)
C1C 0.022(5) 0.032(3) 0.051(4) -0.005(3) -0.007(4) 0.000(5)
C2C 0.033(3) 0.029(3) 0.051(3) -0.005(2) -0.007(2) -0.004(2)
C3C 0.034(3) 0.029(3) 0.040(3) 0.000(2) -0.011(3) 0.001(2)
C4C 0.028(5) 0.033(3) 0.047(3) -0.003(2) -0.004(4) -0.008(4)
C5C 0.044(6) 0.025(3) 0.045(3) 0.000(2) -0.010(5) 0.000(5)
C6C 0.046(5) 0.020(2) 0.042(3) 0.006(2) -0.015(4) 0.014(4)
C7C 0.032(5) 0.023(2) 0.048(3) -0.004(2) -0.008(4) -0.007(4)
C8C 0.034(5) 0.021(3) 0.047(3) 0.000(3) -0.007(6) 0.003(4)
C9C 0.020(5) 0.051(5) 0.055(4) -0.020(4) -0.013(4) 0.011(4)
C10C 0.022(5) 0.075(7) 0.072(7) -0.032(5) -0.011(5) 0.013(4)
C11C 0.042(7) 0.066(6) 0.085(7) -0.041(5) -0.007(5) 0.009(5)
C12C 0.033(6) 0.058(6) 0.080(7) -0.034(5) -0.004(5) 0.002(5)
C13C 0.056(6) 0.034(4) 0.045(4) -0.004(3) -0.005(5) -0.001(4)
C14C 0.062(6) 0.041(5) 0.048(5) -0.003(4) -0.010(5) -0.005(4)
C15C 0.077(7) 0.031(5) 0.069(6) -0.009(3) 0.002(5) 0.002(5)
C16C 0.056(6) 0.040(5) 0.047(5) 0.004(3) 0.003(5) 0.001(4)
N1C 0.019(4) 0.033(3) 0.048(4) -0.008(2) -0.006(4) 0.004(3)
N2C 0.047(5) 0.025(3) 0.042(3) 0.003(2) -0.010(4) 0.005(4)
O1C 0.043(10) 0.028(3) 0.062(7) -0.009(3) 0.001(6) 0.016(5)
O2C 0.042(7) 0.035(4) 0.032(3) -0.012(3) -0.004(6) 0.006(5)
O3C 0.084(9) 0.039(4) 0.049(4) 0.010(4) -0.001(6) -0.028(5)
O4C 0.074(11) 0.020(3) 0.050(5) 0.007(3) 0.005(7) 0.015(6)
S1C 0.057(3) 0.0235(16) 0.048(2) -0.0022(14) 0.001(2) -0.001(2)
S2C 0.041(2) 0.0244(16) 0.0459(18) 0.0034(13) -0.0097(19) 0.0044(16)
C17C 0.046(3) 0.039(3) 0.046(3) -0.001(2) -0.019(2) 0.001(3)
C18C 0.046(5) 0.048(3) 0.056(3) -0.010(2) -0.017(4) -0.004(4)
C19C 0.043(5) 0.064(4) 0.059(3) -0.017(3) -0.011(4) -0.017(4)
C20C 0.047(7) 0.082(5) 0.075(5) -0.037(3) -0.013(5) -0.002(5)
C21C 0.054(7) 0.070(4) 0.098(5) -0.042(4) -0.033(6) -0.014(5)
C22C 0.054(6) 0.051(3) 0.090(5) -0.022(3) -0.020(6) -0.020(5)
C23C 0.052(5) 0.045(3) 0.067(3) -0.010(3) -0.024(4) -0.009(4)
C24C 0.045(3) 0.029(3) 0.061(3) 0.001(3) -0.019(3) -0.009(2)
C25C 0.035(3) 0.044(4) 0.060(4) -0.002(3) -0.015(3) -0.010(3)
C26C 0.037(6) 0.076(5) 0.065(5) -0.003(4) -0.010(4) -0.020(5)
C27C 0.049(7) 0.098(7) 0.082(6) -0.022(5) 0.008(6) -0.014(6)
C28C 0.050(7) 0.083(6) 0.094(6) -0.028(5) -0.002(6) 0.001(6)
C29C 0.039(6) 0.055(5) 0.077(6) -0.016(4) -0.018(4) 0.003(4)
C30C 0.036(3) 0.040(3) 0.056(4) -0.006(3) -0.018(3) -0.004(3)
C31C 0.072(5) 0.044(3) 0.055(4) 0.007(3) -0.018(3) -0.001(3)
loop_
_atom_type_symbol
_atom_type_description
_atom_type_scat_dispersion_real
_atom_type_scat_dispersion_imag
_atom_type_scat_source
C C 0.0033 0.0016 'International Tables Vol C Tables 4.2.6.8 and 6.1.1.4'
H H 0.0000 0.0000 'International Tables Vol C Tables 4.2.6.8 and 6.1.1.4'
N N 0.0061 0.0033 'International Tables Vol C Tables 4.2.6.8 and 6.1.1.4'
O O 0.0106 0.0060 'International Tables Vol C Tables 4.2.6.8 and 6.1.1.4'
S S 0.1246 0.1234 'International Tables Vol C Tables 4.2.6.8 and 6.1.1.4'
loop_
_geom_angle_atom_site_label_1
_geom_angle_atom_site_label_2
_geom_angle_atom_site_label_3
_geom_angle
O1A C1A N1A 129.1
O1A C1A C2A 124.2
N1A C1A C2A 106.6
C3A C2A C1A 107.2
C3A C2A S1A 131.7
C1A C2A S1A 121.0
C2A C3A C4A 105.8
C2A C3A S2A 132.6
C4A C3A S2A 121.6
O2A C4A N1A 122.8
O2A C4A C3A 126.1
N1A C4A C3A 111.1
O3A C5A N2A 129.0
O3A C5A C6A 128.9
N2A C5A C6A 102.0
C7A C6A C5A 112.3
C7A C6A S1A 131.0
C5A C6A S1A 116.7
C6A C7A C8A 108.2
C6A C7A S2A 133.0
C8A C7A S2A 118.8
O4A C8A N2A 124.0
O4A C8A C7A 128.2
N2A C8A C7A 107.7
N1A C9A C10A 120.7
N1A C9A C12A 119.2
C10A C9A C12A 89.0
N1A C9A H9A 108.7
C10A C9A H9A 108.7
C12A C9A H9A 108.7
C9A C10A C11A 87.4
C9A C10A H10A 114.1
C11A C10A H10A 114.1
C9A C10A H10B 114.1
C11A C10A H10B 114.1
H10A C10A H10B 111.3
C12A C11A C10A 89.4
C12A C11A H11A 113.8
C10A C11A H11A 113.8
C12A C11A H11B 113.8
C10A C11A H11B 113.8
H11A C11A H11B 111.0
C11A C12A C9A 87.2
C11A C12A H12A 114.1
C9A C12A H12A 114.1
C11A C12A H12B 114.1
C9A C12A H12B 114.1
H12A C12A H12B 111.3
N2A C13A C16A 121.9
N2A C13A C14A 119.1
C16A C13A C14A 89.3
N2A C13A H13A 108.3
C16A C13A H13A 108.3
C14A C13A H13A 108.3
C13A C14A C15A 87.3
C13A C14A H14A 114.1
C15A C14A H14A 114.1
C13A C14A H14B 114.1
C15A C14A H14B 114.1
H14A C14A H14B 111.3
C14A C15A C16A 86.8
C14A C15A H15A 114.2
C16A C15A H15A 114.2
C14A C15A H15B 114.2
C16A C15A H15B 114.2
H15A C15A H15B 111.4
C13A C16A C15A 87.7
C13A C16A H16A 114.0
C15A C16A H16A 114.0
C13A C16A H16B 114.0
C15A C16A H16B 114.0
H16A C16A H16B 111.2
C4A N1A C1A 109.3
C4A N1A C9A 124.3
C1A N1A C9A 125.4
C5A N2A C8A 109.7
C5A N2A C13A 122.2
C8A N2A C13A 127.7
C2A S1A C6A 95.8
C3A S2A C7A 95.7
C18A C17A C30A 124.7
C18A C17A C31A 119.3
C30A C17A C31A 116.0
C19A C18A C17A 121.9
C19A C18A C23A 123.4
C17A C18A C23A 114.7
C20A C19A C18A 120.7
C20A C19A H19A 119.7
C18A C19A H19A 119.7
C19A C20A C21A 119.5
C19A C20A H20A 120.2
C21A C20A H20A 120.2
C22A C21A C20A 119.5
C22A C21A H21A 120.2
C20A C21A H21A 120.2
C21A C22A C23A 123.0
C21A C22A H22A 118.5
C23A C22A H22A 118.5
C24A C23A C22A 121.4
C24A C23A C18A 124.8
C22A C23A C18A 113.8
C23A C24A C25A 116.8
C23A C24A H24A 121.6
C25A C24A H24A 121.6
C24A C25A C30A 123.3
C24A C25A C26A 123.8
C30A C25A C26A 112.9
C27A C26A C25A 124.2
C27A C26A H26A 117.9
C25A C26A H26A 117.9
C26A C27A C28A 118.0
C26A C27A H27A 121.0
C28A C27A H27A 121.0
C29A C28A C27A 123.6
C29A C28A H28A 118.2
C27A C28A H28A 118.2
C28A C29A C30A 120.7
C28A C29A H29A 119.7
C30A C29A H29A 119.7
C17A C30A C25A 115.6
C17A C30A C29A 123.6
C25A C30A C29A 120.7
C17A C31A H31A 109.5
C17A C31A H31B 109.5
H31A C31A H31B 109.5
C17A C31A H31C 109.5
H31A C31A H31C 109.5
H31B C31A H31C 109.5
O1B C1B N1B 125.7(11)
O1B C1B C2B 127.9(9)
N1B C1B C2B 105.9(7)
C3B C2B C1B 109.6(8)
C3B C2B S1B 122.6(8)
C1B C2B S1B 127.7(8)
C2B C3B C4B 104.1(7)
C2B C3B S2B 126.9(8)
C4B C3B S2B 128.8(8)
O2B C4B N1B 122.4(8)
O2B C4B C3B 127.3(9)
N1B C4B C3B 109.8(7)
O3B C5B N2B 128.6(9)
O3B C5B C6B 126.6(8)
N2B C5B C6B 104.8(7)
C7B C6B C5B 110.3(7)
C7B C6B C17B 106.5(8)
C5B C6B C17B 103.0(12)
C7B C6B S1B 124.9(8)
C5B C6B S1B 103.2(10)
C17B C6B S1B 106.8(6)
C6B C7B C8B 101.9(7)
C6B C7B C24B 115.3(9)
C8B C7B C24B 109.8(12)
C6B C7B S2B 115.0(8)
C8B C7B S2B 100.0(11)
C24B C7B S2B 112.9(7)
O4B C8B N2B 126.4(9)
O4B C8B C7B 124.7(9)
N2B C8B C7B 108.5(7)
C10B C9B N1B 120.0(9)
C10B C9B C12B 88.5(7)
N1B C9B C12B 116.7(9)
C10B C9B H9B 109.9
N1B C9B H9B 109.9
C12B C9B H9B 109.9
C9B C10B C11B 87.2(8)
C9B C10B H10C 114.1
C11B C10B H10C 114.1
C9B C10B H10D 114.1
C11B C10B H10D 114.1
H10C C10B H10D 111.3
C12B C11B C10B 87.7(7)
C12B C11B H11C 114.0
C10B C11B H11C 114.0
C12B C11B H11D 114.0
C10B C11B H11D 114.0
H11C C11B H11D 111.2
C11B C12B C9B 84.3(8)
C11B C12B H12C 114.6
C9B C12B H12C 114.6
C11B C12B H12D 114.6
C9B C12B H12D 114.6
H12C C12B H12D 111.7
N2B C13B C14B 125.1(10)
N2B C13B C16B 117.8(8)
C14B C13B C16B 88.0(7)
N2B C13B H13B 108.0
C14B C13B H13B 108.0
C16B C13B H13B 108.0
C13B C14B C15B 90.0(7)
C13B C14B H14C 113.6
C15B C14B H14C 113.6
C13B C14B H14D 113.6
C15B C14B H14D 113.6
H14C C14B H14D 110.9
C16B C15B C14B 87.8(6)
C16B C15B H15C 114.0
C14B C15B H15C 114.0
C16B C15B H15D 114.0
C14B C15B H15D 114.0
H15C C15B H15D 111.2
C15B C16B C13B 88.5(8)
C15B C16B H16C 113.9
C13B C16B H16C 113.9
C15B C16B H16D 113.9
C13B C16B H16D 113.9
H16C C16B H16D 111.1
C1B N1B C4B 110.6(7)
C1B N1B C9B 125.4(7)
C4B N1B C9B 123.6(8)
C5B N2B C8B 113.3(7)
C5B N2B C13B 121.3(8)
C8B N2B C13B 125.4(7)
C2B S1B C6B 98.7(5)
C3B S2B C7B 99.2(5)
C18B C17B C31B 111.3(7)
C18B C17B C30B 108.1(8)
C31B C17B C30B 107.0(7)
C18B C17B C6B 107.2(8)
C31B C17B C6B 120.2(7)
C30B C17B C6B 102.2(8)
C19B C18B C23B 124.9(10)
C19B C18B C17B 121.9(8)
C23B C18B C17B 112.4(9)
C18B C19B C20B 117.0(9)
C18B C19B H19B 121.5
C20B C19B H19B 121.5
C19B C20B C21B 119.9(10)
C19B C20B H20B 120.0
C21B C20B H20B 120.0
C22B C21B C20B 121.0(10)
C22B C21B H21B 119.5
C20B C21B H21B 119.5
C21B C22B C23B 119.4(10)
C21B C22B H22B 120.3
C23B C22B H22B 120.3
C18B C23B C22B 117.3(10)
C18B C23B C24B 116.0(9)
C22B C23B C24B 125.9(8)
C23B C24B C25B 107.7(9)
C23B C24B C7B 106.2(9)
C25B C24B C7B 103.5(8)
C23B C24B H24B 112.9
C25B C24B H24B 112.9
C7B C24B H24B 112.9
C30B C25B C26B 112.5(9)
C30B C25B C24B 115.6(9)
C26B C25B C24B 131.8(8)
C27B C26B C25B 121.3(9)
C27B C26B H26B 119.4
C25B C26B H26B 119.4
C26B C27B C28B 121.2(11)
C26B C27B H27B 119.4
C28B C27B H27B 119.4
C29B C28B C27B 121.1(10)
C29B C28B H28B 119.5
C27B C28B H28B 119.5
C28B C29B C30B 116.8(10)
C28B C29B H29B 121.6
C30B C29B H29B 121.6
C29B C30B C25B 124.6(10)
C29B C30B C17B 124.1(7)
C25B C30B C17B 111.3(9)
C17B C31B H31D 109.5
C17B C31B H31E 109.5
H31D C31B H31E 109.5
C17B C31B H31F 109.5
H31D C31B H31F 109.5
H31E C31B H31F 109.5
O1C C1C N1C 125.9(9)
O1C C1C C2C 127.8(9)
N1C C1C C2C 106.3(6)
C3C C2C C1C 109.0(8)
C3C C2C C17C 110.2(10)
C1C C2C C17C 105.2(13)
C3C C2C S1C 124.2(9)
C1C C2C S1C 102.9(12)
C17C C2C S1C 103.7(7)
C2C C3C C4C 104.0(7)
C2C C3C C24C 113.2(9)
C4C C3C C24C 110.7(12)
C2C C3C S2C 119.9(9)
C4C C3C S2C 100.8(10)
C24C C3C S2C 107.3(7)
O2C C4C N1C 122.4(8)
O2C C4C C3C 127.2(8)
N1C C4C C3C 109.8(7)
O3C C5C N2C 129.1(10)
O3C C5C C6C 126.0(8)
N2C C5C C6C 104.6(7)
C7C C6C C5C 110.4(7)
C7C C6C S1C 122.3(7)
C5C C6C S1C 126.7(7)
C6C C7C C8C 102.4(7)
C6C C7C S2C 128.4(7)
C8C C7C S2C 129.2(7)
O4C C8C N2C 126.6(9)
O4C C8C C7C 124.8(9)
N2C C8C C7C 108.5(7)
C10C C9C N1C 120.1(8)
C10C C9C C12C 89.0(7)
N1C C9C C12C 116.6(9)
C10C C9C H9C 109.8
N1C C9C H9C 109.8
C12C C9C H9C 109.8
C9C C10C C11C 86.8(8)
C9C C10C H10E 114.2
C11C C10C H10E 114.2
C9C C10C H10F 114.2
C11C C10C H10F 114.2
H10E C10C H10F 111.4
C12C C11C C10C 88.2(6)
C12C C11C H11E 113.9
C10C C11C H11E 113.9
C12C C11C H11F 113.9
C10C C11C H11F 113.9
H11E C11C H11F 111.1
C11C C12C C9C 84.1(7)
C11C C12C H12E 114.6
C9C C12C H12E 114.6
C11C C12C H12F 114.6
C9C C12C H12F 114.6
H12E C12C H12F 111.7
N2C C13C C14C 127.1(9)
N2C C13C C16C 118.8(9)
C14C C13C C16C 87.8(7)
N2C C13C H13C 106.9
C14C C13C H13C 106.9
C16C C13C H13C 106.9
C13C C14C C15C 89.5(7)
C13C C14C H14E 113.7
C15C C14C H14E 113.7
C13C C14C H14F 113.7
C15C C14C H14F 113.7
H14E C14C H14F 111.0
C16C C15C C14C 87.1(6)
C16C C15C H15E 114.1
C14C C15C H15E 114.1
C16C C15C H15F 114.1
C14C C15C H15F 114.1
H15E C15C H15F 111.3
C15C C16C C13C 87.9(7)
C15C C16C H16E 114.0
C13C C16C H16E 114.0
C15C C16C H16F 114.0
C13C C16C H16F 114.0
H16E C16C H16F 111.2
C1C N1C C4C 110.2(7)
C1C N1C C9C 126.0(7)
C4C N1C C9C 123.6(7)
C5C N2C C8C 113.6(7)
C5C N2C C13C 120.4(8)
C8C N2C C13C 125.9(7)
C6C S1C C2C 101.5(6)
C7C S2C C3C 100.2(5)
C18C C17C C31C 111.8(7)
C18C C17C C30C 108.6(8)
C31C C17C C30C 107.9(7)
C18C C17C C2C 105.6(8)
C31C C17C C2C 119.2(8)
C30C C17C C2C 103.1(8)
C19C C18C C23C 126.0(10)
C19C C18C C17C 121.6(8)
C23C C18C C17C 112.3(9)
C18C C19C C20C 117.2(8)
C18C C19C H19C 121.4
C20C C19C H19C 121.4
C19C C20C C21C 118.6(9)
C19C C20C H20C 120.7
C21C C20C H20C 120.7
C22C C21C C20C 122.0(10)
C22C C21C H21C 119.0
C20C C21C H21C 119.0
C21C C22C C23C 119.5(10)
C21C C22C H22C 120.2
C23C C22C H22C 120.2
C18C C23C C22C 116.0(10)
C18C C23C C24C 115.7(9)
C22C C23C C24C 127.0(9)
C23C C24C C25C 108.7(9)
C23C C24C C3C 106.3(8)
C25C C24C C3C 101.6(8)
C23C C24C H24C 113.2
C25C C24C H24C 113.2
C3C C24C H24C 113.2
C30C C25C C26C 112.3(9)
C30C C25C C24C 115.3(9)
C26C C25C C24C 132.1(8)
C27C C26C C25C 122.1(9)
C27C C26C H26C 119.0
C25C C26C H26C 119.0
C26C C27C C28C 121.5(11)
C26C C27C H27C 119.2
C28C C27C H27C 119.2
C29C C28C C27C 120.7(10)
C29C C28C H28C 119.6
C27C C28C H28C 119.6
C28C C29C C30C 116.5(10)
C28C C29C H29C 121.7
C30C C29C H29C 121.7
C29C C30C C25C 124.7(10)
C29C C30C C17C 124.0(8)
C25C C30C C17C 111.2(9)
C17C C31C H31G 109.5
C17C C31C H31H 109.5
H31G C31C H31H 109.5
C17C C31C H31I 109.5
H31G C31C H31I 109.5
H31H C31C H31I 109.5
loop_
_geom_bond_atom_site_label_1
_geom_bond_atom_site_label_2
_geom_bond_distance
C1A O1A 1.1877
C1A N1A 1.3794
C1A C2A 1.5533
C2A C3A 1.3652
C2A S1A 1.7346
C3A C4A 1.4946
C3A S2A 1.7015
C4A O2A 1.2405
C4A N1A 1.3561
C5A O3A 1.1776
C5A N2A 1.4161
C5A C6A 1.5066
C6A C7A 1.3005
C6A S1A 1.7755
C7A C8A 1.4313
C7A S2A 1.7680
C8A O4A 1.2207
C8A N2A 1.4182
C9A N1A 1.4693
C9A C10A 1.5244
C9A C12A 1.5316
C9A H9A 1.0000
C10A C11A 1.5245
C10A H10A 0.9900
C10A H10B 0.9900
C11A C12A 1.5228
C11A H11A 0.9900
C11A H11B 0.9900
C12A H12A 0.9900
C12A H12B 0.9900
C13A N2A 1.4600
C13A C16A 1.5209
C13A C14A 1.5304
C13A H13A 1.0000
C14A C15A 1.5606
C14A H14A 0.9900
C14A H14B 0.9900
C15A C16A 1.5607
C15A H15A 0.9900
C15A H15B 0.9900
C16A H16A 0.9900
C16A H16B 0.9900
C17A C18A 1.3971
C17A C30A 1.4164
C17A C31A 1.5318
C18A C19A 1.3637
C18A C23A 1.4422
C19A C20A 1.3425
C19A H19A 0.9500
C20A C21A 1.4393
C20A H20A 0.9500
C21A C22A 1.3605
C21A H21A 0.9500
C22A C23A 1.4201
C22A H22A 0.9500
C23A C24A 1.3876
C24A C25A 1.3898
C24A H24A 0.9500
C25A C30A 1.4416
C25A C26A 1.5052
C26A C27A 1.3718
C26A H26A 0.9500
C27A C28A 1.3801
C27A H27A 0.9500
C28A C29A 1.3415
C28A H28A 0.9500
C29A C30A 1.4434
C29A H29A 0.9500
C31A H31A 0.9800
C31A H31B 0.9800
C31A H31C 0.9800
C1B O1B 1.234(10)
C1B N1B 1.357(11)
C1B C2B 1.524(11)
C2B C3B 1.388(10)
C2B S1B 1.743(13)
C3B C4B 1.489(12)
C3B S2B 1.714(12)
C4B O2B 1.260(9)
C4B N1B 1.394(9)
C5B O3B 1.168(10)
C5B N2B 1.378(9)
C5B C6B 1.529(11)
C6B C7B 1.481(10)
C6B C17B 1.654(5)
C6B S1B 1.878(11)
C7B C8B 1.536(12)
C7B C24B 1.544(16)
C7B S2B 1.852(12)
C8B O4B 1.173(9)
C8B N2B 1.416(10)
C9B C10B 1.479(13)
C9B N1B 1.485(10)
C9B C12B 1.563(12)
C9B H9B 1.0000
C10B C11B 1.532(13)
C10B H10C 0.9900
C10B H10D 0.9900
C11B C12B 1.532(13)
C11B H11C 0.9900
C11B H11D 0.9900
C12B H12C 0.9900
C12B H12D 0.9900
C13B N2B 1.419(10)
C13B C14B 1.522(12)
C13B C16B 1.591(12)
C13B H13B 1.0000
C14B C15B 1.572(13)
C14B H14C 0.9900
C14B H14D 0.9900
C15B C16B 1.546(13)
C15B H15C 0.9900
C15B H15D 0.9900
C16B H16C 0.9900
C16B H16D 0.9900
C17B C18B 1.517(13)
C17B C31B 1.530(5)
C17B C30B 1.558(13)
C18B C19B 1.368(13)
C18B C23B 1.401(12)
C19B C20B 1.409(12)
C19B H19B 0.9500
C20B C21B 1.416(12)
C20B H20B 0.9500
C21B C22B 1.384(12)
C21B H21B 0.9500
C22B C23B 1.410(12)
C22B H22B 0.9500
C23B C24B 1.455(13)
C24B C25B 1.510(14)
C24B H24B 1.0000
C25B C30B 1.396(12)
C25B C26B 1.414(14)
C26B C27B 1.326(12)
C26B H26B 0.9500
C27B C28B 1.343(10)
C27B H27B 0.9500
C28B C29B 1.335(12)
C28B H28B 0.9500
C29B C30B 1.367(12)
C29B H29B 0.9500
C31B H31D 0.9800
C31B H31E 0.9800
C31B H31F 0.9800
C1C O1C 1.234(10)
C1C N1C 1.358(10)
C1C C2C 1.524(11)
C2C C3C 1.395(10)
C2C C17C 1.651(18)
C2C S1C 1.872(13)
C3C C4C 1.488(12)
C3C C24C 1.630(12)
C3C S2C 1.887(12)
C4C O2C 1.260(9)
C4C N1C 1.395(9)
C5C O3C 1.165(10)
C5C N2C 1.383(9)
C5C C6C 1.529(11)
C6C C7C 1.471(10)
C6C S1C 1.677(10)
C7C C8C 1.534(11)
C7C S2C 1.642(11)
C8C O4C 1.174(9)
C8C N2C 1.412(10)
C9C C10C 1.479(13)
C9C N1C 1.485(10)
C9C C12C 1.562(12)
C9C H9C 1.0000
C10C C11C 1.535(13)
C10C H10E 0.9900
C10C H10F 0.9900
C11C C12C 1.529(13)
C11C H11E 0.9900
C11C H11F 0.9900
C12C H12E 0.9900
C12C H12F 0.9900
C13C N2C 1.415(10)
C13C C14C 1.518(12)
C13C C16C 1.587(12)
C13C H13C 1.0000
C14C C15C 1.576(13)
C14C H14E 0.9900
C14C H14F 0.9900
C15C C16C 1.551(13)
C15C H15E 0.9900
C15C H15F 0.9900
C16C H16E 0.9900
C16C H16F 0.9900
C17C C18C 1.513(13)
C17C C31C 1.527(6)
C17C C30C 1.557(13)
C18C C19C 1.366(13)
C18C C23C 1.401(12)
C19C C20C 1.407(11)
C19C H19C 0.9500
C20C C21C 1.418(12)
C20C H20C 0.9500
C21C C22C 1.386(12)
C21C H21C 0.9500
C22C C23C 1.409(12)
C22C H22C 0.9500
C23C C24C 1.452(12)
C24C C25C 1.513(14)
C24C H24C 1.0000
C25C C30C 1.396(12)
C25C C26C 1.416(14)
C26C C27C 1.324(12)
C26C H26C 0.9500
C27C C28C 1.343(10)
C27C H27C 0.9500
C28C C29C 1.336(12)
C28C H28C 0.9500
C29C C30C 1.368(12)
C29C H29C 0.9500
C31C H31G 0.9800
C31C H31H 0.9800
C31C H31I 0.9800
loop_
_geom_torsion_atom_site_label_1
_geom_torsion_atom_site_label_2
_geom_torsion_atom_site_label_3
_geom_torsion_atom_site_label_4
_geom_torsion
O1A C1A C2A C3A 177.7
N1A C1A C2A C3A 0.3
O1A C1A C2A S1A -5.2
N1A C1A C2A S1A 177.3
C1A C2A C3A C4A -0.7
S1A C2A C3A C4A -177.4
C1A C2A C3A S2A -179.8
S1A C2A C3A S2A 3.6
C2A C3A C4A O2A -177.1
S2A C3A C4A O2A 2.0
C2A C3A C4A N1A 1.0
S2A C3A C4A N1A -179.8
O3A C5A C6A C7A -178.1
N2A C5A C6A C7A 0.7
O3A C5A C6A S1A -1.1
N2A C5A C6A S1A 177.7
C5A C6A C7A C8A -2.5
S1A C6A C7A C8A -178.9
C5A C6A C7A S2A 177.5
S1A C6A C7A S2A 1.0
C6A C7A C8A O4A -179.4
S2A C7A C8A O4A 0.7
C6A C7A C8A N2A 3.2
S2A C7A C8A N2A -176.7
N1A C9A C10A C11A 143.8
C12A C9A C10A C11A 19.8
C9A C10A C11A C12A -19.9
C10A C11A C12A C9A 19.8
N1A C9A C12A C11A -145.0
C10A C9A C12A C11A -19.8
N2A C13A C14A C15A 149.3
C16A C13A C14A C15A 22.6
C13A C14A C15A C16A -22.0
N2A C13A C16A C15A -147.0
C14A C13A C16A C15A -22.6
C14A C15A C16A C13A 22.2
O2A C4A N1A C1A 177.4
C3A C4A N1A C1A -0.9
O2A C4A N1A C9A -13.4
C3A C4A N1A C9A 168.3
O1A C1A N1A C4A -176.9
C2A C1A N1A C4A 0.4
O1A C1A N1A C9A 14.1
C2A C1A N1A C9A -168.7
C10A C9A N1A C4A 125.3
C12A C9A N1A C4A -126.6
C10A C9A N1A C1A -67.2
C12A C9A N1A C1A 40.9
O3A C5A N2A C8A -179.8
C6A C5A N2A C8A 1.3
O3A C5A N2A C13A 6.9
C6A C5A N2A C13A -171.9
O4A C8A N2A C5A 179.7
C7A C8A N2A C5A -2.8
O4A C8A N2A C13A -7.6
C7A C8A N2A C13A 170.0
C16A C13A N2A C5A -127.6
C14A C13A N2A C5A 123.1
C16A C13A N2A C8A 60.4
C14A C13A N2A C8A -48.8
C3A C2A S1A C6A -1.3
C1A C2A S1A C6A -177.5
C7A C6A S1A C2A -0.9
C5A C6A S1A C2A -177.2
C2A C3A S2A C7A -2.8
C4A C3A S2A C7A 178.3
C6A C7A S2A C3A 0.6
C8A C7A S2A C3A -179.5
C30A C17A C18A C19A 175.9
C31A C17A C18A C19A -2.6
C30A C17A C18A C23A -1.2
C31A C17A C18A C23A -179.7
C17A C18A C19A C20A -179.9
C23A C18A C19A C20A -3.0
C18A C19A C20A C21A 0.6
C19A C20A C21A C22A 1.6
C20A C21A C22A C23A -1.4
C21A C22A C23A C24A -178.6
C21A C22A C23A C18A -0.8
C19A C18A C23A C24A -179.2
C17A C18A C23A C24A -2.2
C19A C18A C23A C22A 3.1
C17A C18A C23A C22A -179.8
C22A C23A C24A C25A -179.1
C18A C23A C24A C25A 3.4
C23A C24A C25A C30A -1.3
C23A C24A C25A C26A 178.7
C24A C25A C26A C27A 177.7
C30A C25A C26A C27A -2.3
C25A C26A C27A C28A 1.1
C26A C27A C28A C29A 1.0
C27A C28A C29A C30A -1.5
C18A C17A C30A C25A 3.0
C31A C17A C30A C25A -178.5
C18A C17A C30A C29A 179.6
C31A C17A C30A C29A -1.9
C24A C25A C30A C17A -1.6
C26A C25A C30A C17A 178.3
C24A C25A C30A C29A -178.3
C26A C25A C30A C29A 1.6
C28A C29A C30A C17A -176.3
C28A C29A C30A C25A 0.1
O1B C1B C2B C3B 173(4)
N1B C1B C2B C3B 1(3)
O1B C1B C2B S1B -3(5)
N1B C1B C2B S1B -175.0(16)
C1B C2B C3B C4B -1(2)
S1B C2B C3B C4B 175.4(15)
C1B C2B C3B S2B -176.0(18)
S1B C2B C3B S2B 0(2)
C2B C3B C4B O2B 172(3)
S2B C3B C4B O2B -13(4)
C2B C3B C4B N1B 0(2)
S2B C3B C4B N1B 175.5(14)
O3B C5B C6B C7B -178(3)
N2B C5B C6B C7B 1(2)
O3B C5B C6B C17B 69(3)
N2B C5B C6B C17B -112.7(16)
O3B C5B C6B S1B -42(3)
N2B C5B C6B S1B 136.2(15)
C5B C6B C7B C8B 5.7(19)
C17B C6B C7B C8B 116.9(13)
S1B C6B C7B C8B -118.1(13)
C5B C6B C7B C24B -113.1(14)
C17B C6B C7B C24B -2.0(10)
S1B C6B C7B C24B 123.1(10)
C5B C6B C7B S2B 112.9(14)
C17B C6B C7B S2B -136.0(8)
S1B C6B C7B S2B -10.9(11)
C6B C7B C8B O4B 177(3)
C24B C7B C8B O4B -61(3)
S2B C7B C8B O4B 58(3)
C6B C7B C8B N2B -10(2)
C24B C7B C8B N2B 112.4(17)
S2B C7B C8B N2B -128.6(17)
N1B C9B C10B C11B 146.4(11)
C12B C9B C10B C11B 26.1(10)
C9B C10B C11B C12B -26.7(10)
C10B C11B C12B C9B 25.3(10)
C10B C9B C12B C11B -26.2(10)
N1B C9B C12B C11B -149.4(11)
N2B C13B C14B C15B 140.8(10)
C16B C13B C14B C15B 17.7(9)
C13B C14B C15B C16B -18.2(9)
C14B C15B C16B C13B 17.4(9)
N2B C13B C16B C15B -147.3(10)
C14B C13B C16B C15B -18.0(9)
O1B C1B N1B C4B -173(4)
C2B C1B N1B C4B -1(3)
O1B C1B N1B C9B 14(5)
C2B C1B N1B C9B -173.4(14)
O2B C4B N1B C1B -172(3)
C3B C4B N1B C1B 0(3)
O2B C4B N1B C9B 1(4)
C3B C4B N1B C9B 173.1(15)
C10B C9B N1B C1B -61(3)
C12B C9B N1B C1B 44(3)
C10B C9B N1B C4B 128(2)
C12B C9B N1B C4B -127(2)
O3B C5B N2B C8B 171(3)
C6B C5B N2B C8B -8(3)
O3B C5B N2B C13B -7(4)
C6B C5B N2B C13B 174.3(14)
O4B C8B N2B C5B -175(3)
C7B C8B N2B C5B 12(3)
O4B C8B N2B C13B 3(4)
C7B C8B N2B C13B -170.4(14)
C14B C13B N2B C5B 128.3(19)
C16B C13B N2B C5B -122.9(19)
C14B C13B N2B C8B -49(2)
C16B C13B N2B C8B 59(2)
C3B C2B S1B C6B 39.7(14)
C1B C2B S1B C6B -145(2)
C7B C6B S1B C2B -32.6(10)
C5B C6B S1B C2B -159.4(11)
C17B C6B S1B C2B 92.4(8)
C2B C3B S2B C7B -46.4(15)
C4B C3B S2B C7B 139.5(19)
C6B C7B S2B C3B 47.5(9)
C8B C7B S2B C3B 155.7(9)
C24B C7B S2B C3B -87.6(8)
C7B C6B C17B C18B -53.4(9)
C5B C6B C17B C18B 62.7(9)
S1B C6B C17B C18B 171.1(7)
C7B C6B C17B C31B 178.2(8)
C5B C6B C17B C31B -65.6(10)
S1B C6B C17B C31B 42.8(10)
C7B C6B C17B C30B 60.1(9)
C5B C6B C17B C30B 176.3(8)
S1B C6B C17B C30B -75.4(7)
C31B C17B C18B C19B 19.2(16)
C30B C17B C18B C19B 136.4(14)
C6B C17B C18B C19B -114.1(14)
C31B C17B C18B C23B -170.0(10)
C30B C17B C18B C23B -52.9(13)
C6B C17B C18B C23B 56.7(13)
C23B C18B C19B C20B 3(2)
C17B C18B C19B C20B 172.4(14)
C18B C19B C20B C21B -1(2)
C19B C20B C21B C22B -5(3)
C20B C21B C22B C23B 8(3)
C19B C18B C23B C22B 0(2)
C17B C18B C23B C22B -170.0(12)
C19B C18B C23B C24B 170.8(14)
C17B C18B C23B C24B 0.4(18)
C21B C22B C23B C18B -6(2)
C21B C22B C23B C24B -175.2(15)
C18B C23B C24B C25B 52.8(15)
C22B C23B C24B C25B -137.8(14)
C18B C23B C24B C7B -57.6(14)
C22B C23B C24B C7B 111.8(14)
C6B C7B C24B C23B 56.9(11)
C8B C7B C24B C23B -57.4(11)
S2B C7B C24B C23B -168.1(7)
C6B C7B C24B C25B -56.4(11)
C8B C7B C24B C25B -170.7(9)
S2B C7B C24B C25B 78.6(9)
C23B C24B C25B C30B -53.9(15)
C7B C24B C25B C30B 58.3(14)
C23B C24B C25B C26B 127.1(17)
C7B C24B C25B C26B -120.7(17)
C30B C25B C26B C27B -13(3)
C24B C25B C26B C27B 166(2)
C25B C26B C27B C28B 14(4)
C26B C27B C28B C29B 0(4)
C27B C28B C29B C30B -12(3)
C28B C29B C30B C25B 12(3)
C28B C29B C30B C17B -168.9(18)
C26B C25B C30B C29B 0(2)
C24B C25B C30B C29B -178.7(13)
C26B C25B C30B C17B -179.0(11)
C24B C25B C30B C17B 1.8(18)
C18B C17B C30B C29B -128.5(14)
C31B C17B C30B C29B -8.6(16)
C6B C17B C30B C29B 118.6(14)
C18B C17B C30B C25B 51.0(14)
C31B C17B C30B C25B 170.9(10)
C6B C17B C30B C25B -61.8(13)
O1C C1C C2C C3C 179(3)
N1C C1C C2C C3C -3(2)
O1C C1C C2C C17C 61(4)
N1C C1C C2C C17C -121.2(17)
O1C C1C C2C S1C -47(3)
N1C C1C C2C S1C 130.5(17)
C1C C2C C3C C4C 7.0(19)
C17C C2C C3C C4C 121.9(13)
S1C C2C C3C C4C -114.4(14)
C1C C2C C3C C24C -113.3(16)
C17C C2C C3C C24C 1.7(11)
S1C C2C C3C C24C 125.3(11)
C1C C2C C3C S2C 118.4(15)
C17C C2C C3C S2C -126.6(9)
S1C C2C C3C S2C -3.0(13)
C2C C3C C4C O2C 180(2)
C24C C3C C4C O2C -58(3)
S2C C3C C4C O2C 55(3)
C2C C3C C4C N1C -9(2)
C24C C3C C4C N1C 113.1(15)
S2C C3C C4C N1C -133.6(14)
O3C C5C C6C C7C 176(3)
N2C C5C C6C C7C 1(2)
O3C C5C C6C S1C -13(4)
N2C C5C C6C S1C 172.7(15)
C5C C6C C7C C8C -5(2)
S1C C6C C7C C8C -176.5(14)
C5C C6C C7C S2C 173.9(16)
S1C C6C C7C S2C 2(2)
C6C C7C C8C O4C -177(3)
S2C C7C C8C O4C 4(4)
C6C C7C C8C N2C 6(2)
S2C C7C C8C N2C -172.0(14)
N1C C9C C10C C11C 146.2(11)
C12C C9C C10C C11C 25.7(9)
C9C C10C C11C C12C -26.3(10)
C10C C11C C12C C9C 24.9(9)
C10C C9C C12C C11C -25.9(9)
N1C C9C C12C C11C -149.4(10)
N2C C13C C14C C15C 146.0(10)
C16C C13C C14C C15C 20.8(8)
C13C C14C C15C C16C -21.3(8)
C14C C15C C16C C13C 20.4(8)
N2C C13C C16C C15C -153.1(9)
C14C C13C C16C C15C -21.2(8)
O1C C1C N1C C4C 175(3)
C2C C1C N1C C4C -3(3)
O1C C1C N1C C9C -10(4)
C2C C1C N1C C9C 172.4(13)
O2C C4C N1C C1C 179(3)
C3C C4C N1C C1C 7(2)
O2C C4C N1C C9C 4(3)
C3C C4C N1C C9C -168.0(13)
C10C C9C N1C C1C -56(2)
C12C C9C N1C C1C 49(2)
C10C C9C N1C C4C 118.0(17)
C12C C9C N1C C4C -136.4(16)
O3C C5C N2C C8C -171(3)
C6C C5C N2C C8C 3(3)
O3C C5C N2C C13C 11(4)
C6C C5C N2C C13C -174.7(15)
O4C C8C N2C C5C 177(3)
C7C C8C N2C C5C -6(3)
O4C C8C N2C C13C -5(4)
C7C C8C N2C C13C 171.4(15)
C14C C13C N2C C5C 131(2)
C16C C13C N2C C5C -118(2)
C14C C13C N2C C8C -47(2)
C16C C13C N2C C8C 64(2)
C7C C6C S1C C2C 35.0(13)
C5C C6C S1C C2C -135.4(18)
C3C C2C S1C C6C -33.4(12)
C1C C2C S1C C6C -157.5(11)
C17C C2C S1C C6C 93.1(8)
C6C C7C S2C C3C -39.1(14)
C8C C7C S2C C3C 139.1(17)
C2C C3C S2C C7C 37.2(10)
C4C C3C S2C C7C 150.4(9)
C24C C3C S2C C7C -93.7(8)
C3C C2C C17C C18C 54.3(11)
C1C C2C C17C C18C 171.7(10)
S1C C2C C17C C18C -80.6(8)
C3C C2C C17C C31C -179.0(8)
C1C C2C C17C C31C -61.6(12)
S1C C2C C17C C31C 46.1(10)
C3C C2C C17C C30C -59.5(10)
C1C C2C C17C C30C 57.8(10)
S1C C2C C17C C30C 165.6(6)
C31C C17C C18C C19C -13.5(17)
C30C C17C C18C C19C -132.4(14)
C2C C17C C18C C19C 117.7(14)
C31C C17C C18C C23C 169.7(11)
C30C C17C C18C C23C 50.7(14)
C2C C17C C18C C23C -59.2(14)
C23C C18C C19C C20C -2(2)
C17C C18C C19C C20C -178.4(13)
C18C C19C C20C C21C 6(2)
C19C C20C C21C C22C -2(2)
C20C C21C C22C C23C -6(2)
C19C C18C C23C C22C -5(2)
C17C C18C C23C C22C 171.2(11)
C19C C18C C23C C24C -173.1(13)
C17C C18C C23C C24C 3.6(19)
C21C C22C C23C C18C 9(2)
C21C C22C C23C C24C 175.2(14)
C18C C23C C24C C25C -54.5(15)
C22C C23C C24C C25C 139.4(14)
C18C C23C C24C C3C 54.1(15)
C22C C23C C24C C3C -112.0(15)
C2C C3C C24C C23C -56.2(11)
C4C C3C C24C C23C -172.5(9)
S2C C3C C24C C23C 78.3(8)
C2C C3C C24C C25C 57.4(10)
C4C C3C C24C C25C -58.9(10)
S2C C3C C24C C25C -168.0(7)
C23C C24C C25C C30C 50.1(13)
C3C C24C C25C C30C -61.7(12)
C23C C24C C25C C26C -136.6(15)
C3C C24C C25C C26C 111.6(15)
C30C C25C C26C C27C 5(3)
C24C C25C C26C C27C -169(2)
C25C C26C C27C C28C -5(4)
C26C C27C C28C C29C -6(4)
C27C C28C C29C C30C 16(3)
C28C C29C C30C C25C -16(2)
C28C C29C C30C C17C 160.3(16)
C26C C25C C30C C29C 5.6(19)
C24C C25C C30C C29C -179.7(12)
C26C C25C C30C C17C -171.0(11)
C24C C25C C30C C17C 3.7(15)
C18C C17C C30C C29C 129.3(12)
C31C C17C C30C C29C 7.9(15)
C2C C17C C30C C29C -119.1(13)
C18C C17C C30C C25C -54.1(12)
C31C C17C C30C C25C -175.4(9)
C2C C17C C30C C25C 57.6(12)
