#------------------------------------------------------------------------------
#$Date: 2019-11-24 23:54:12 +0200 (Sun, 24 Nov 2019) $
#$Revision: 239740 $
#$URL: file:///home/coder/svn-repositories/cod/cif/4/51/71/4517100.cif $
#------------------------------------------------------------------------------
#
# This file is available in the Crystallography Open Database (COD),
# http://www.crystallography.net/
#
# All data on this site have been placed in the public domain by the
# contributors.
#
data_4517100
loop_
_publ_author_name
'Behrnd, Norwid-Rasmus'
'Labat, Ga\"el'
'Venugopalan, Paloth'
'Hulliger, J\"urg'
'B\"urgi, Hans-Beat'
_publ_section_title
;
 Orientational Disorder of (trans)-4-Chloro-4&#x2032;-nitrostilbene: A
 Detailed Analysis by Single Crystal X-ray Diffraction
;
_journal_issue                   1
_journal_name_full               'Crystal Growth &amp; Design'
_journal_page_first              52
_journal_paper_doi               10.1021/cg801278j
_journal_volume                  10
_journal_year                    2010
_chemical_formula_moiety         'C14 H10 Cl N O2'
_chemical_formula_sum            'C14 H10 Cl N O2'
_chemical_formula_weight         259.68
_space_group_IT_number           4
_space_group_name_Hall           'P 2ybc'
_space_group_name_H-M_alt        'P 1 21 1 (a,b,c-1/4)'
_symmetry_cell_setting           monoclinic
_symmetry_space_group_name_Hall  'P 2ybc'
_symmetry_space_group_name_H-M   'P 1 21 1 (a,b,c-1/4)'
_atom_sites_solution_hydrogens   geom
_atom_sites_solution_primary     direct
_atom_sites_solution_secondary   difmap
_audit_creation_method           SHELXL-97
_cell_angle_alpha                90.00
_cell_angle_beta                 93.232(2)
_cell_angle_gamma                90.00
_cell_formula_units_Z            2
_cell_length_a                   3.9264(2)
_cell_length_b                   12.9747(6)
_cell_length_c                   12.2334(6)
_cell_measurement_reflns_used    3485
_cell_measurement_temperature    293(2)
_cell_measurement_theta_max      24.14
_cell_measurement_theta_min      3.14
_cell_volume                     622.23(5)
_computing_cell_refinement       'SAINT (Bruker, 2003)'
_computing_data_collection       'SMART (Bruker, 1997)'
_computing_data_reduction        'SHELXTL (Bruker, 2000)'
_computing_molecular_graphics    'PLATON  (Spek, 2003)'
_computing_publication_material  SHELXL-97
_computing_structure_refinement  'SHELXL-97 (Sheldrick, 1997)'
_computing_structure_solution    'SHELXS-97 (Sheldrick, 1990)'
_diffrn_ambient_temperature      293(2)
_diffrn_measured_fraction_theta_full 0.926
_diffrn_measured_fraction_theta_max 0.926
_diffrn_measurement_device_type  'Bruker SMART 1K'
_diffrn_measurement_method       'omega scan method'
_diffrn_radiation_monochromator  graphite
_diffrn_radiation_source         'fine-focus sealed tube'
_diffrn_radiation_type           MoK\a
_diffrn_radiation_wavelength     0.71073
_diffrn_reflns_av_R_equivalents  0.0124
_diffrn_reflns_av_sigmaI/netI    0.0204
_diffrn_reflns_limit_h_max       5
_diffrn_reflns_limit_h_min       -5
_diffrn_reflns_limit_k_max       10
_diffrn_reflns_limit_k_min       -16
_diffrn_reflns_limit_l_max       15
_diffrn_reflns_limit_l_min       -14
_diffrn_reflns_number            3473
_diffrn_reflns_theta_full        27.62
_diffrn_reflns_theta_max         27.62
_diffrn_reflns_theta_min         2.29
_diffrn_standards_decay_%        0
_diffrn_standards_interval_time  0
_diffrn_standards_number         0
_exptl_absorpt_coefficient_mu    0.299
_exptl_absorpt_correction_T_max  1
_exptl_absorpt_correction_T_min  0.725294
_exptl_absorpt_correction_type   multi-scan
_exptl_absorpt_process_details   'SADABS (Bruker, 2004)'
_exptl_crystal_colour            yellow
_exptl_crystal_density_diffrn    1.386
_exptl_crystal_density_method    'not measured'
_exptl_crystal_description       'prismatic rod'
_exptl_crystal_F_000             268
_exptl_crystal_size_max          0.30
_exptl_crystal_size_mid          0.19
_exptl_crystal_size_min          0.16
_refine_diff_density_max         0.132
_refine_diff_density_min         -0.093
_refine_diff_density_rms         0.025
_refine_ls_abs_structure_details 'Flack H D (1983), Acta Cryst. A39, 876-881'
_refine_ls_abs_structure_Flack   0.2(3)
_refine_ls_extinction_method     none
_refine_ls_goodness_of_fit_ref   1.060
_refine_ls_hydrogen_treatment    constr
_refine_ls_matrix_type           full
_refine_ls_number_parameters     101
_refine_ls_number_reflns         1870
_refine_ls_number_restraints     1
_refine_ls_restrained_S_all      1.059
_refine_ls_R_factor_all          0.0917
_refine_ls_R_factor_gt           0.0452
_refine_ls_shift/su_max          0.000
_refine_ls_shift/su_mean         0.000
_refine_ls_structure_factor_coef Fsqd
_refine_ls_weighting_details
'calc w=1/[\s^2^(Fo^2^)+(0.0359P)^2^+0.1045P] where P=(Fo^2^+2Fc^2^)/3'
_refine_ls_weighting_scheme      calc
_refine_ls_wR_factor_gt          0.1032
_refine_ls_wR_factor_ref         0.1228
_reflns_number_gt                1067
_reflns_number_total             1870
_reflns_threshold_expression     I>2sigma(I)
_cod_data_source_file            cg801278j_si_003.cif
_cod_data_source_block           CNS-bzII-small-P21/c
_cod_original_sg_symbol_Hall     P2ybc
_cod_original_sg_symbol_H-M      P21/c
_cod_database_code               4517100
loop_
_symmetry_equiv_pos_as_xyz
'x, y, z'
'-x, y+1/2, -z+1/2'
loop_
_atom_site_label
_atom_site_type_symbol
_atom_site_fract_x
_atom_site_fract_y
_atom_site_fract_z
_atom_site_U_iso_or_equiv
_atom_site_adp_type
_atom_site_occupancy
_atom_site_symmetry_multiplicity
_atom_site_calc_flag
_atom_site_refinement_flags
Cl1 Cl 0.3799(19) -0.4572(6) -0.1815(5) 0.1296(13) Uani 0.50 1 d P
N11 N 0.343(3) -0.4293(10) -0.1590(8) 0.0788(18) Uani 0.50 1 d P
O11 O 0.302(3) -0.4900(8) -0.1204(7) 0.1316(19) Uani 0.50 1 d P
O12 O 0.5071(18) -0.4129(5) -0.2577(5) 0.1156(11) Uani 0.50 1 d P
C1 C 0.2596(8) -0.3293(3) -0.1226(3) 0.0755(5) Uani 1 1 d .
C2 C 0.3134(8) -0.2388(3) -0.1786(3) 0.0814(5) Uani 1 1 d .
H2A H 0.4104 -0.2403 -0.2462 0.098 Uiso 1 1 calc R
C3 C 0.2232(4) -0.14751(15) -0.13386(14) 0.0775(5) Uani 1 1 d .
H3A H 0.2589 -0.0866 -0.1717 0.093 Uiso 1 1 calc R
C4 C 0.0790(4) -0.14330(13) -0.03284(13) 0.0674(5) Uani 1 1 d .
C5 C 0.0286(4) -0.23622(14) 0.02064(14) 0.0743(5) Uani 1 1 d .
H5A H -0.0697 -0.2353 0.0880 0.089 Uiso 1 1 calc R
C6 C 0.1193(4) -0.32952(14) -0.02280(15) 0.0790(5) Uani 1 1 d .
H6A H 0.0861 -0.3908 0.0146 0.095 Uiso 1 1 calc R
C7 C -0.0247(3) -0.04650(8) 0.01876(10) 0.0740(5) Uani 1 1 d .
H7 H -0.1350 -0.0519 0.0838 0.089 Uiso 1 1 calc R
Cl11 Cl -0.3698(3) 0.46061(8) 0.17442(10) 0.1296(13) Uani 0.50 1 d PR
N1 N -0.3672(3) 0.41549(8) 0.17446(10) 0.0788(18) Uani 0.50 1 d PR
O1 O -0.3136(3) 0.49941(8) 0.12401(10) 0.1316(19) Uani 0.50 1 d PR
O2 O -0.5038(3) 0.41283(8) 0.25808(10) 0.1156(11) Uani 0.50 1 d PR
C11 C -0.2623(3) 0.32917(8) 0.12350(10) 0.0755(5) Uani 1 1 d R
C12 C -0.3167(3) 0.23902(8) 0.17930(10) 0.0814(5) Uani 1 1 d R
H12A H -0.4152 0.2402 0.2467 0.098 Uiso 1 1 calc R
C13 C -0.2232(4) 0.14751(15) 0.13386(14) 0.0775(5) Uani 1 1 d .
H13A H -0.2573 0.0865 0.1717 0.093 Uiso 1 1 calc R
C14 C -0.0790(4) 0.14330(13) 0.03284(13) 0.0674(5) Uani 1 1 d .
C15 C -0.0286(4) 0.23622(14) -0.02064(14) 0.0743(5) Uani 1 1 d .
H15A H 0.0697 0.2353 -0.0880 0.089 Uiso 1 1 calc R
C16 C -0.1193(4) 0.32952(14) 0.02280(15) 0.0790(5) Uani 1 1 d .
H16A H -0.0854 0.3908 -0.0144 0.095 Uiso 1 1 calc R
C17 C 0.0247(3) 0.04650(8) -0.01876(10) 0.0740(5) Uani 1 1 d .
H17 H 0.1350 0.0519 -0.0838 0.089 Uiso 1 1 calc R
loop_
_atom_site_aniso_label
_atom_site_aniso_U_11
_atom_site_aniso_U_22
_atom_site_aniso_U_33
_atom_site_aniso_U_23
_atom_site_aniso_U_13
_atom_site_aniso_U_12
Cl1 0.1137(15) 0.129(2) 0.146(2) -0.0687(19) 0.0076(14) 0.0290(15)
N11 0.069(3) 0.106(5) 0.062(3) 0.003(3) 0.010(2) 0.008(3)
O11 0.172(4) 0.078(3) 0.149(4) -0.010(3) 0.052(3) 0.018(2)
O12 0.150(3) 0.096(2) 0.105(2) -0.0276(19) 0.043(2) 0.0142(19)
C1 0.0600(10) 0.0872(14) 0.0790(12) -0.0163(11) 0.0001(9) 0.0062(9)
C2 0.0715(11) 0.1064(16) 0.0671(11) -0.0042(11) 0.0104(9) -0.0009(11)
C3 0.0739(11) 0.0827(13) 0.0763(12) 0.0066(10) 0.0084(9) -0.0034(9)
C4 0.0534(9) 0.0788(12) 0.0697(11) -0.0044(9) 0.0017(8) -0.0006(8)
C5 0.0711(10) 0.0845(13) 0.0680(10) 0.0019(10) 0.0101(8) -0.0004(9)
C6 0.0768(11) 0.0786(13) 0.0817(13) 0.0013(10) 0.0047(9) 0.0028(9)
C7 0.0632(9) 0.0855(13) 0.0736(11) 0.0033(10) 0.0072(8) -0.0013(10)
Cl11 0.1137(15) 0.129(2) 0.146(2) -0.0687(19) 0.0076(14) 0.0290(15)
N1 0.069(3) 0.106(5) 0.062(3) 0.003(3) 0.010(2) 0.008(3)
O1 0.172(4) 0.078(3) 0.149(4) -0.010(3) 0.052(3) 0.018(2)
O2 0.150(3) 0.096(2) 0.105(2) -0.0276(19) 0.043(2) 0.0142(19)
C11 0.0600(10) 0.0872(14) 0.0790(12) -0.0163(11) 0.0001(9) 0.0062(9)
C12 0.0715(11) 0.1064(16) 0.0671(11) -0.0042(11) 0.0104(9) -0.0009(11)
C13 0.0739(11) 0.0827(13) 0.0763(12) 0.0066(10) 0.0084(9) -0.0034(9)
C14 0.0534(9) 0.0788(12) 0.0697(11) -0.0044(9) 0.0017(8) -0.0006(8)
C15 0.0711(10) 0.0845(13) 0.0680(10) 0.0019(10) 0.0101(8) -0.0004(9)
C16 0.0768(11) 0.0786(13) 0.0817(13) 0.0013(10) 0.0047(9) 0.0028(9)
C17 0.0632(9) 0.0855(13) 0.0736(11) 0.0033(10) 0.0072(8) -0.0013(10)
loop_
_atom_type_symbol
_atom_type_description
_atom_type_scat_dispersion_real
_atom_type_scat_dispersion_imag
_atom_type_scat_source
C C 0.0033 0.0016 'International Tables Vol C Tables 4.2.6.8 and 6.1.1.4'
H H 0.0000 0.0000 'International Tables Vol C Tables 4.2.6.8 and 6.1.1.4'
N N 0.0061 0.0033 'International Tables Vol C Tables 4.2.6.8 and 6.1.1.4'
O O 0.0106 0.0060 'International Tables Vol C Tables 4.2.6.8 and 6.1.1.4'
Cl Cl 0.1484 0.1585 'International Tables Vol C Tables 4.2.6.8 and 6.1.1.4'
loop_
_geom_angle_atom_site_label_1
_geom_angle_atom_site_label_2
_geom_angle_atom_site_label_3
_geom_angle
N11 Cl1 O11 76(2)
N11 Cl1 O12 103(2)
O11 Cl1 O12 175.0(12)
N11 Cl1 C1 14(2)
O11 Cl1 C1 89.7(8)
O12 Cl1 C1 90.0(6)
Cl1 N11 O12 57(2)
Cl1 N11 O11 74(2)
O12 N11 O11 131.0(12)
Cl1 N11 C1 162(3)
O12 N11 C1 104.8(8)
O11 N11 C1 124.1(11)
Cl1 O11 N11 29.9(7)
N11 O12 Cl1 19.3(7)
N11 C1 C2 125.3(6)
N11 C1 C6 113.1(5)
C2 C1 C6 121.6(3)
N11 C1 Cl1 4.6(6)
C2 C1 Cl1 120.8(3)
C6 C1 Cl1 117.6(4)
C3 C2 C1 119.4(3)
C3 C2 H2A 120.3
C1 C2 H2A 120.3
C2 C3 C4 121.4(2)
C2 C3 H3A 119.3
C4 C3 H3A 119.3
C5 C4 C3 117.40(17)
C5 C4 C7 119.16(15)
C3 C4 C7 123.44(17)
C6 C5 C4 122.25(16)
C6 C5 H5A 118.9
C4 C5 H5A 118.9
C1 C6 C5 118.0(2)
C1 C6 H6A 121.0
C5 C6 H6A 121.0
C17 C7 C4 125.84(15)
C17 C7 H7 117.1
C4 C7 H7 117.1
N1 Cl11 O1 126.7
N1 Cl11 O2 62.7
O1 Cl11 O2 168.9
N1 Cl11 C11 23.8
O1 Cl11 C11 103.3
O2 Cl11 C11 86.4
Cl11 N1 O2 91.2
Cl11 N1 O1 31.7
O2 N1 O1 122.6
Cl11 N1 C11 146.1
O2 N1 C11 122.5
O1 N1 C11 114.8
Cl11 O1 N1 21.6
N1 O2 Cl11 26.1
N1 C11 C12 114.4
N1 C11 C16 123.76(8)
C12 C11 C16 121.78(8)
N1 C11 Cl11 10.0
C12 C11 Cl11 124.4
C16 C11 Cl11 113.84(8)
C13 C12 C11 118.85(9)
C13 C12 H12A 120.6
C11 C12 H12A 120.6
C12 C13 C14 121.81(17)
C12 C13 H13A 119.1
C14 C13 H13A 119.1
C15 C14 C13 117.40(17)
C15 C14 C17 119.16(15)
C13 C14 C17 123.44(17)
C16 C15 C14 122.25(16)
C16 C15 H15A 118.9
C14 C15 H15A 118.9
C11 C16 C15 117.91(15)
C11 C16 H16A 121.0
C15 C16 H16A 121.0
C7 C17 C14 125.84(15)
C7 C17 H17 117.1
C14 C17 H17 117.1
loop_
_geom_bond_atom_site_label_1
_geom_bond_atom_site_label_2
_geom_bond_distance
Cl1 N11 0.482(12)
Cl1 O11 0.928(10)
Cl1 O12 1.225(9)
Cl1 C1 1.880(6)
N11 O12 1.415(12)
N11 O11 0.938(14)
N11 C1 1.416(12)
C1 C2 1.382(5)
C1 C6 1.367(4)
C2 C3 1.360(4)
C2 H2A 0.9300
C3 C4 1.389(2)
C3 H3A 0.9300
C4 C5 1.391(2)
C4 C7 1.473(2)
C5 C6 1.377(2)
C5 H5A 0.9300
C6 H6A 0.9300
C7 C17 1.309(2)
C7 H7 0.9300
Cl11 N1 0.5854
Cl11 O1 0.8353
Cl11 O2 1.3302
Cl11 C11 1.8719
N1 O2 1.1819
N1 O1 1.2749
N1 C11 1.3571
C11 C12 1.3770
C11 C16 1.382(2)
C12 C13 1.370(2)
C12 H12A 0.9300
C13 C14 1.389(2)
C13 H13A 0.9300
C14 C15 1.391(2)
C14 C17 1.473(2)
C15 C16 1.377(2)
C15 H15A 0.9300
C16 H16A 0.9300
C17 H17 0.9300
loop_
_geom_torsion_atom_site_label_1
_geom_torsion_atom_site_label_2
_geom_torsion_atom_site_label_3
_geom_torsion_atom_site_label_4
_geom_torsion
O11 Cl1 N11 O12 174.9(12)
C1 Cl1 N11 O12 -12(10)
O12 Cl1 N11 O11 -174.9(12)
C1 Cl1 N11 O11 173(10)
O11 Cl1 N11 C1 -173(9)
O12 Cl1 N11 C1 12(10)
O12 Cl1 O11 N11 84(12)
C1 Cl1 O11 N11 -2(2)
O12 N11 O11 Cl1 -5.7(14)
C1 N11 O11 Cl1 178(4)
O11 N11 O12 Cl1 6.5(16)
C1 N11 O12 Cl1 -176(3)
O11 Cl1 O12 N11 -83(12)
C1 Cl1 O12 N11 3(2)
Cl1 N11 C1 C2 -7(10)
O12 N11 C1 C2 3.6(12)
O11 N11 C1 C2 -178.9(13)
Cl1 N11 C1 C6 174(9)
O12 N11 C1 C6 -175.6(6)
O11 N11 C1 C6 1.9(18)
O12 N11 C1 Cl1 10(9)
O11 N11 C1 Cl1 -172(11)
O11 Cl1 C1 N11 6(9)
O12 Cl1 C1 N11 -169(10)
N11 Cl1 C1 C2 174(10)
O11 Cl1 C1 C2 -179.8(9)
O12 Cl1 C1 C2 5.2(7)
N11 Cl1 C1 C6 -6(10)
O11 Cl1 C1 C6 0.4(11)
O12 Cl1 C1 C6 -174.6(4)
N11 C1 C2 C3 -179.5(7)
C6 C1 C2 C3 -0.3(4)
Cl1 C1 C2 C3 179.9(3)
C1 C2 C3 C4 0.2(4)
C2 C3 C4 C5 -0.3(3)
C2 C3 C4 C7 -179.7(2)
C3 C4 C5 C6 0.6(2)
C7 C4 C5 C6 179.99(13)
N11 C1 C6 C5 179.9(6)
C2 C1 C6 C5 0.6(4)
Cl1 C1 C6 C5 -179.6(3)
C4 C5 C6 C1 -0.8(3)
C5 C4 C7 C17 175.84(16)
C3 C4 C7 C17 -4.8(2)
O1 Cl11 N1 O2 -173.0
C11 Cl11 N1 O2 175.7
O2 Cl11 N1 O1 173.0
C11 Cl11 N1 O1 -11.3
O1 Cl11 N1 C11 11.3
O2 Cl11 N1 C11 -175.7
O2 Cl11 O1 N1 -145.9
C11 Cl11 O1 N1 4.7
O2 N1 O1 Cl11 8.3
C11 N1 O1 Cl11 -173.1
O1 N1 O2 Cl11 -4.3
C11 N1 O2 Cl11 177.2
O1 Cl11 O2 N1 149.6
C11 Cl11 O2 N1 -1.7
Cl11 N1 C11 C12 172.6
O2 N1 C11 C12 -2.3
O1 N1 C11 C12 179.1
Cl11 N1 C11 C16 -8.82(10)
O2 N1 C11 C16 176.27(10)
O1 N1 C11 C16 -2.32(10)
O2 N1 C11 Cl11 -174.9
O1 N1 C11 Cl11 6.5
O1 Cl11 C11 N1 -170.7
O2 Cl11 C11 N1 3.8
N1 Cl11 C11 C12 -8.2
O1 Cl11 C11 C12 -178.9
O2 Cl11 C11 C12 -4.3
N1 Cl11 C11 C16 171.99(9)
O1 Cl11 C11 C16 1.26(9)
O2 Cl11 C11 C16 175.81(9)
N1 C11 C12 C13 179.21(9)
C16 C11 C12 C13 0.60(11)
Cl11 C11 C12 C13 -179.23(9)
C11 C12 C13 C14 -0.70(18)
C12 C13 C14 C15 0.7(2)
C12 C13 C14 C17 -179.96(10)
C13 C14 C15 C16 -0.6(2)
C17 C14 C15 C16 -179.99(13)
N1 C11 C16 C15 -178.99(10)
C12 C11 C16 C15 -0.51(17)
Cl11 C11 C16 C15 179.33(11)
C14 C15 C16 C11 0.5(2)
C4 C7 C17 C14 180.0
C15 C14 C17 C7 -175.84(16)
C13 C14 C17 C7 4.8(2)
