#------------------------------------------------------------------------------
#$Date: 2021-02-04 05:29:16 +0200 (Thu, 04 Feb 2021) $
#$Revision: 261495 $
#$URL: file:///home/coder/svn-repositories/cod/cif/4/51/84/4518404.cif $
#------------------------------------------------------------------------------
#
# This file is available in the Crystallography Open Database (COD),
# http://www.crystallography.net/
#
# All data on this site have been placed in the public domain by the
# contributors.
#
data_4518404
loop_
_publ_author_name
'Xie, Guanying'
'Wang, Lei'
'Li, Peizhou'
'Song, Shuang'
'Yao, Changlin'
'Wang, Shanpeng'
'Liu, Yang'
'Wang, Zhen'
'Wang, Xinyuan'
'Tao, Xutang'
_publ_section_title
;
 Low-Dimensional Hybrid Lead Iodide Perovskites Single Crystals via
 Bifunctional Amino Acid Cross-Linkage: Structural Diversity and
 Properties Controllability.
;
_journal_issue                   2
_journal_name_full               'ACS applied materials &amp; interfaces'
_journal_page_first              3325
_journal_page_last               3335
_journal_paper_doi               10.1021/acsami.0c16402
_journal_volume                  13
_journal_year                    2021
_chemical_formula_sum            'C2 H2 I2 N O2 Pb'
_chemical_formula_weight         533.04
_space_group_crystal_system      trigonal
_space_group_IT_number           146
_space_group_name_Hall           'R 3'
_space_group_name_H-M_alt        'R 3 :H'
_atom_sites_solution_hydrogens   geom
_audit_creation_method           SHELXL-2018/3
_cell_angle_alpha                90
_cell_angle_beta                 90
_cell_angle_gamma                120
_cell_formula_units_Z            3
_cell_length_a                   4.5319(3)
_cell_length_b                   4.5319(3)
_cell_length_c                   29.629(2)
_cell_measurement_reflns_used    1646
_cell_measurement_temperature    193(2)
_cell_measurement_theta_max      63.20
_cell_measurement_theta_min      7.81
_cell_volume                     527.00(6)
_computing_structure_refinement  'SHELXL-2018/3 (Sheldrick, 2018)'
_computing_structure_solution    'SHELXT 2014/5 (Sheldrick, 2014)'
_diffrn_ambient_temperature      193(2)
_diffrn_measured_fraction_theta_full 0.876
_diffrn_measured_fraction_theta_max 0.898
_diffrn_measurement_device_type  'Bruker D8 VENTURE PHOTON II'
_diffrn_radiation_type           GaK\a
_diffrn_radiation_wavelength     1.34139
_diffrn_reflns_av_R_equivalents  0.0483
_diffrn_reflns_av_unetI/netI     0.0509
_diffrn_reflns_Laue_measured_fraction_full 0.876
_diffrn_reflns_Laue_measured_fraction_max 0.898
_diffrn_reflns_limit_h_max       5
_diffrn_reflns_limit_h_min       -6
_diffrn_reflns_limit_k_max       5
_diffrn_reflns_limit_k_min       -5
_diffrn_reflns_limit_l_max       39
_diffrn_reflns_limit_l_min       -39
_diffrn_reflns_number            1658
_diffrn_reflns_point_group_measured_fraction_full 0.853
_diffrn_reflns_point_group_measured_fraction_max 0.876
_diffrn_reflns_theta_full        53.594
_diffrn_reflns_theta_max         63.204
_diffrn_reflns_theta_min         7.806
_exptl_absorpt_coefficient_mu    78.396
_exptl_crystal_density_diffrn    5.039
_exptl_crystal_description       block
_exptl_crystal_F_000             675
_exptl_crystal_size_max          0.100
_exptl_crystal_size_mid          0.100
_exptl_crystal_size_min          0.100
_refine_diff_density_max         3.622
_refine_diff_density_min         -4.504
_refine_diff_density_rms         0.913
_refine_ls_abs_structure_details
;
 Refined as an inversion twin.
;
_refine_ls_abs_structure_Flack   0.5(3)
_refine_ls_extinction_method     none
_refine_ls_goodness_of_fit_ref   1.141
_refine_ls_hydrogen_treatment    constr
_refine_ls_matrix_type           full
_refine_ls_number_parameters     47
_refine_ls_number_reflns         515
_refine_ls_number_restraints     120
_refine_ls_restrained_S_all      1.027
_refine_ls_R_factor_all          0.0945
_refine_ls_R_factor_gt           0.0876
_refine_ls_shift/su_max          0.043
_refine_ls_shift/su_mean         0.010
_refine_ls_structure_factor_coef Fsqd
_refine_ls_weighting_details
'w=1/[\s^2^(Fo^2^)+(0.0800P)^2^+220.0000P] where P=(Fo^2^+2Fc^2^)/3'
_refine_ls_weighting_scheme      calc
_refine_ls_wR_factor_gt          0.2468
_refine_ls_wR_factor_ref         0.2754
_reflns_Friedel_coverage         0.951
_reflns_Friedel_fraction_full    0.831
_reflns_Friedel_fraction_max     0.854
_reflns_number_gt                503
_reflns_number_total             515
_reflns_threshold_expression     'I > 2\s(I)'
_cod_data_source_file            am0c16402_si_001.cif
_cod_data_source_block           znz5655_0m_b_sq
_cod_depositor_comments
'Adding full bibliography for 4518400--4518404.cif.'
_cod_original_cell_volume        527.00(8)
_cod_database_code               4518404
_shelx_shelxl_version_number     2018/3
_shelx_space_group_comment
;
The symmetry employed for this shelxl refinement is uniquely defined
by the following loop, which should always be used as a source of
symmetry information in preference to the above space-group names.
They are only intended as comments.
;
_shelx_estimated_absorpt_t_min   0.047
_shelx_estimated_absorpt_t_max   0.047
_shelx_res_file
;
TITL ZNZ5655_0m_b.res in R3
    znz5655_0m_b_sq.res
    created by SHELXL-2018/3 at 14:02:56 on 13-Dec-2020
REM Old TITL ZNZ5655_0m in R-3
REM SHELXT solution in R3
REM R1 0.107,  Rweak 0.003,  Alpha 0.001,  Orientation as input
REM Flack x =  0.456 ( 0.055 ) from Parsons' quotients
REM Formula found by SHELXT:  N O Pb3
CELL  1.34139   4.5319   4.5319  29.6290   90.000   90.000  120.000
ZERR    3.000   0.0003   0.0003   0.0023    0.000    0.000    0.000
LATT -3
SYMM -Y, X-Y, Z
SYMM -X+Y, -X, Z
SFAC  C  H  I  N  O  PB
UNIT 6 6 6 3 6 3
LIST 6 ! automatically inserted. Change 6 to 4 for CHECKCIF!!

DFIX_GLY 1.450 0.051 CA N
DFIX_GLY 1.530 0.030 C CA
DFIX_GLY 1.214 0.022 C O
DFIX_GLY 1.307 0.024 C OXT
DANG_GLY 2.385 0.066 C N
DANG_GLY 2.433 0.047 CA O
DANG_GLY 2.357 0.052 CA OXT
DANG_GLY 2.222 0.034 O OXT
FLAT_GLY C O OXT CA
SIMU_GLY 0.01 0.02 2.5 N > OXT
RIGU_GLY N > OXT
SAME_GLY N > OXT
ISOR_GLY 0.02 N > OXT
DELU_GLY 0.01 N > OXT
TEMP -80.140
L.S. 5 0    0
BOND $H
TWIN
size 0.1 0.1 0.1
ACTA
FMAP 2
PLAN 500
ABIN
WGHT    0.080000  220.000000
BASF   0.52815
FVAR       0.39255
PB1   6    2.000000    1.000000    0.784845    10.33333    0.05239    0.05239 =
         0.04664    0.00000    0.00000    0.02619
I1    3    1.666667    0.333333    0.719423    10.33333    0.03343    0.03343 =
         0.03166    0.00000    0.00000    0.01672
I2    3    1.333333    0.666667    0.846374    10.33333    0.03991    0.03991 =
         0.03876    0.00000    0.00000    0.01995
RESI GLY 1
PART -1  10.3333
N     4    1.289866    0.110441    0.667973    10.33330    0.04555    0.06379 =
         0.06415   -0.00215   -0.00059    0.02403
CA    1    1.367130    0.171484    0.619385    10.33330    0.04378    0.06408 =
         0.06466   -0.00195    0.00013    0.02340
AFIX  23
HAA   2    1.602236    0.361759    0.614606    10.33330   -1.20000
HAAB  2    1.206161    0.226935    0.604236    10.33330   -1.20000
AFIX   0
C     1    1.327230   -0.164183    0.601099    10.33330    0.04381    0.06414 =
         0.06561   -0.00244    0.00114    0.02339
AFIX   1
O     5    1.325132   -0.379543    0.625274    10.33330    0.02451    0.06495 =
         0.07422    0.00369    0.00641    0.01910
AFIX   0
OXT   5    1.296782   -0.187385    0.557251    10.33330    0.04212    0.06650 =
         0.06587   -0.00347    0.00304    0.01959
PART 0
RESI 0
HKLF 4




REM  ZNZ5655_0m_b.res in R3
REM wR2 = 0.275411, GooF = S = 1.14148, Restrained GooF = 1.02698 for all data
REM R1 = 0.087568 for 503 Fo > 4sig(Fo) and 0.094469 for all 515 data
REM 47 parameters refined using 120 restraints

END

WGHT      0.1600     60.2822

REM Highest difference peak  3.622,  deepest hole -4.504,  1-sigma level  0.913
Q1    1   1.6168  0.4003  0.7052  11.00000  0.05    3.62
Q2    1   1.2725  0.7108  0.8220  11.00000  0.05    3.29
Q3    1   1.0000  0.0000  0.7195  10.33333  0.05    2.76
Q4    1   2.0621  1.1850  0.8058  11.00000  0.05    2.75
Q5    1   1.4165  0.8081  0.8613  11.00000  0.05    2.74
Q6    1   1.3149 -0.2578  0.6886  11.00000  0.05    2.50
Q7    1   1.0000  0.0000  0.6050  10.33333  0.05    2.46
Q8    1   1.3333 -0.3333  0.5622  10.33333  0.05    2.44
Q9    1   1.8519  1.0493  0.7617  11.00000  0.05    2.26
Q10   1   1.0000  0.0000  0.6733  10.33333  0.05    2.15
Q11   1   1.3333 -0.3333  0.5145  10.33333  0.05    2.06
Q12   1   1.3333  0.6667  0.7775  10.33333  0.05    2.02
Q13   1   1.6667  0.3333  0.7901  10.33333  0.05    1.95
Q14   1   1.1255  0.1340  0.5889  11.00000  0.05    1.95
Q15   1   2.0963  1.2220  0.7618  11.00000  0.05    1.91
Q16   1   1.3333  0.6667  0.7302  10.33333  0.05    1.77
Q17   1   1.5804  0.4304  0.7489  11.00000  0.05    1.68
Q18   1   1.1121 -0.1087  0.5458  11.00000  0.05    1.68
Q19   1   1.4843  0.2297  0.5712  11.00000  0.05    1.61
Q20   1   1.2003  0.0533  0.6302  11.00000  0.05    1.54
Q21   1   1.1866 -0.5216  0.6448  11.00000  0.05    1.44
Q22   1   1.4205 -0.1389  0.7339  11.00000  0.05    1.38
Q23   1   2.4524  1.0685  0.7847  11.00000  0.05    1.31
Q24   1   1.0000  0.0000  0.5032  10.33333  0.05    1.29
Q25   1   2.0728  0.6259  0.7811  11.00000  0.05    1.26
Q26   1   1.5471  0.1123  0.6624  11.00000  0.05    1.22
Q27   1   1.4319  0.2602  0.6642  11.00000  0.05    1.17
Q28   1   1.4630  0.3219  0.6189  11.00000  0.05    1.03
Q29   1   1.5102 -0.0065  0.5249  11.00000  0.05    0.90
Q30   1   1.5275  0.4309  0.8332  11.00000  0.05    0.90
Q31   1   2.1778  1.4200  0.7738  11.00000  0.05    0.72
Q32   1   1.3382  0.2992  0.7092  11.00000  0.05    0.48
;
_shelx_res_checksum              22085
_shelx_hkl_file
;
  -5   1   0 1313.37  100.39
   5  -1   0 1251.57   84.19
  -4   5   0 1227.08   84.09
  -1  -4   0 1203.98   85.29
   1  -5   0 1266.97   83.19
  -5   4   0 1215.48   82.39
   4   1   0 1275.57   82.59
   1  -5   0 1211.28   82.19
  -4  -1   0 1103.09   94.59
  -4  -1   0 1269.07   85.29
  -6   3   0  762.92   59.99
  -3  -3   0  596.84   46.60
   1  -1  -1  374.26   24.00
   1  -1  -1  314.67   24.10
  -1   0  -1  380.86   24.40
   0   1  -1  362.36   23.70
  -1   0  -1  372.46   24.70
   0   1  -1  354.56   23.90
  -1   1   1  340.97   24.20
  -1   1   1  342.17   24.20
   1   0   1  331.27   24.00
   1   0   1  346.57   24.10
  -1   1   1  346.27   24.00
   3  -2  -1   85.79    6.90
  -1   3  -1   93.19    7.10
  -2  -1  -1   90.49    8.60
  -2  -1  -1   89.59    8.10
   3  -2  -1   95.39    7.60
  -2  -1  -1  113.09   22.90
  -1   3  -1   98.89    6.60
  -3   2   1   98.19    7.90
   1  -3   1   80.79    7.50
   2   1   1   89.19    6.70
  -3   2   1   94.79    7.60
  -3   2   1   87.99    7.60
   1  -3   1   99.39    6.60
   2   1   1  101.39    7.00
  -3   2   1  102.59    6.80
   1  -3   1   76.49   11.20
  -3   2   1   95.69    7.00
  -2   2  -1  168.68   11.00
   2   0  -1  175.98   11.40
   2   0  -1  149.59   10.90
   0  -2  -1  147.69   12.10
  -2   2  -1  149.59   11.20
  -2   2  -1  170.58   11.70
   0  -2  -1  150.28   11.20
   2   0  -1  151.98   11.40
   0  -2  -1  162.18   10.80
  -2   2  -1  163.98   11.60
   0   2   1  162.68   10.90
  -2   0   1  142.39   12.40
   2  -2   1  154.78   10.70
  -2   0   1  173.48   11.90
   2  -2   1  169.18   11.70
   0   2   1  133.19   10.80
   2  -2   1  138.59   11.00
   0   2   1  152.68   11.10
  -2   0   1  166.48   12.30
  -2   5  -1   24.10    2.30
   5  -3  -1   23.60    2.60
  -3  -2  -1   23.20    4.10
  -3  -2  -1   17.90    4.90
  -5   3   1   23.80    2.10
   3   2   1   23.50    1.90
   2  -5   1   21.80    1.90
   2  -5   1   20.70    2.60
  -3   1  -1   77.69    7.90
  -3   1  -1  103.89    7.80
   1   2  -1   84.89    6.40
   2  -3  -1   77.59    7.90
   2  -3  -1   90.79    6.40
  -3   1  -1   94.69    6.50
  -3   1  -1   86.29    6.50
  -1  -2   1   78.99    7.90
   3  -1   1  102.89    7.70
   3  -1   1   88.59    6.70
  -2   3   1   96.19    6.70
  -1  -2   1   84.89    7.60
  -1  -2   1   94.39    6.30
  -1  -2   1   88.29   16.00
  -2   3   1   87.89    6.90
  -2   3   1  100.59    6.60
  -1  -3  -1   47.70    5.50
  -1  -3  -1   48.10    3.70
   4  -1  -1   52.89    4.20
  -3   4  -1   54.09    3.90
  -1  -3  -1   42.60    7.70
  -4   1   1   54.89   14.70
   3  -4   1   40.30    4.70
  -4   1   1   53.59    5.10
   3  -4   1   47.40    3.60
  -4   0  -1   33.10   14.10
  -4   0  -1   30.20    4.00
   4  -4  -1   25.40    4.00
   0  -4   1   28.80    3.60
  -4   4   1   31.70    2.80
   4   0   1   34.20    2.80
   0  -4   1   32.60    2.50
   3   1  -1   54.19    3.90
   1  -4  -1   51.79    3.80
  -4   3  -1   45.70    4.70
  -4   3  -1   56.59    4.10
  -4   3  -1   50.29    4.80
   1  -4  -1   48.00    5.10
   4  -3   1   50.79    4.50
  -3  -1   1   52.09    6.20
  -1   4   1   43.00    4.00
  -3  -1   1   48.70    7.10
   3  -5  -1   22.50    1.90
  -5   2  -1   23.50    3.00
   3  -5  -1   20.90    2.90
  -5   2  -1   26.20   11.00
  -3   5   1   25.20    2.20
  -2  -3   1   20.50    5.10
  -2  -3   1   22.80    3.30
   5  -2   1   26.10    2.50
  -5   5  -1   12.30    1.30
   0  -5  -1   11.40    1.90
   5   0  -1   13.10    1.30
  -5   0   1   11.00    4.60
  -2   3  -2 2683.03  163.38
   1   2   2 2335.37  163.28
   1   2   2 2407.36  162.88
  -3   1   2 2287.27  163.08
  -3  -1  -2  842.72   79.09
  -3  -1  -2 1042.30   69.49
  -1   4  -2  894.61   66.09
  -3  -1  -2 1088.79   69.39
   4  -3  -2 1005.70   66.69
  -4   3   2 1070.59   67.19
   3   1   2  965.10   66.09
   1  -4   2  967.20   66.99
  -4   3   2  952.10   66.89
  -3   2  -2 3068.29  199.48
   2   1  -2 3054.49  199.18
   3  -2   2 2749.23  200.08
   3  -2   2 3005.10  200.18
   5  -2  -2  426.86   28.70
  -2  -3  -2  442.16   30.60
  -3   5  -2  394.76   28.40
  -5   2   2  433.36   41.90
   3  -5   2  393.66   28.20
   3  -5   2  412.66   29.10
  -4   1  -2 1112.89   73.79
   3  -4  -2 1076.09   72.19
  -4   1  -2 1145.59   91.49
  -4   1  -2 1143.49   74.89
   4  -1   2 1090.09   72.69
  -1  -3   2 1057.99   73.79
  -3   4   2 1104.59   72.49
  -1  -3   2  976.10   76.59
  -1  -3   2 1045.60   72.19
  -1  -3   2  984.20   81.49
   4   0  -2  659.43   43.90
  -4   4  -2  663.33   43.90
   0  -4  -2  688.73   45.40
  -4   4  -2  599.34   44.30
   0  -4  -2  674.53   43.60
  -4   0   2  639.94   45.60
  -4   0   2  594.54   61.79
   5  -5  -2  135.69   11.70
  -5   5   2  159.08   11.00
   5   0   2  165.08   11.00
   0  -5   2  166.48   11.50
   2  -5  -2  386.46   27.90
  -5   3  -2  375.66   27.90
  -5   3  -2  429.36   27.00
   2  -5  -2  416.36   26.80
   5  -3   2  390.56   27.50
  -2   5   2  412.66   27.30
  -3  -2   2  408.36   28.70
  -3  -2   2  341.67   34.20
  -2  -2  -3 1214.68   91.89
  -2  -2  -3 1308.07   92.89
  -2   4  -3 1419.36   90.19
   4  -2  -3 1445.16   90.49
  -4   2   3 1434.46   90.29
   2   2   3 1234.98   90.09
  -4   2   3 1421.26   91.59
   2  -4   3 1236.78   90.89
  -3   0  -3 2181.48  144.09
   0   3  -3 2145.19  140.59
  -3   0  -3 1860.41  157.88
   3  -3  -3 2021.80  140.89
   3  -3  -3 2095.39  139.99
  -3   3   3 2131.49  140.59
   0  -3   3 2071.39  150.48
  -3   3   3 2211.78  141.89
   3  -3   3 2140.09  146.99
   0   3   3 2245.88  146.79
  -3   0   3 2051.79  162.38
  -3   0   3 2287.57  148.59
  -3  -3  -3  152.78   12.90
  -6   3   3  190.58   20.30
   5  -4  -3  348.87   24.00
  -4  -1  -3  333.57   26.30
   5  -4  -3  281.17   24.10
  -4  -1  -3  302.27   27.10
   1  -5   3  354.96   22.70
   4   1   3  350.56   22.80
  -5   4   3  365.56   22.90
   1  -5   3  331.17   23.40
  -4   2  -3 1437.66   89.09
  -4   2  -3 1200.58   90.89
  -4   2  -3 1409.76   87.19
   2  -4  -3 1183.68   88.49
  -2  -2   3 1331.67   89.59
   4  -2   3 1357.16   87.49
  -2  -2   3 1130.99  101.39
  -2  -2   3 1295.57   88.59
   5  -1  -3  368.56   26.30
  -1  -4  -3  396.26   27.90
  -4   5  -3  368.26   26.20
  -5   1   3  407.66   40.40
  -5   1  -3  416.76   38.50
   5  -1   3  382.46   25.80
  -4   5   3  353.66   25.60
  -1  -4   3  352.06   26.40
   1  -5  -3  348.37   25.20
   1  -5  -3  356.96   23.90
  -5   4  -3  349.77   24.10
   4   1  -3  362.56   24.40
  -4  -1   3  343.07   33.60
  -3  -3   3  120.89    9.50
   0  -1   4 1170.78   80.19
   3  -2  -4  299.37   22.00
  -1   3  -4  300.97   21.40
   3  -2  -4  309.97   21.30
  -2  -1  -4  297.67   21.80
  -2  -1  -4  287.57   33.30
  -1   3  -4  318.37   21.20
  -2  -1  -4  314.27   24.10
  -2  -1  -4  309.57   22.60
  -3   2   4  323.27   22.00
  -3   2   4  339.87   21.10
  -3   2   4  310.27   21.80
  -3   2   4  305.07   21.90
   1  -3   4  334.77   20.90
   1  -3   4  292.77   21.80
  -3   2   4  316.27   22.10
   1  -3   4  320.07   21.00
   2   1   4  277.97   21.10
   1  -3   4  266.87   28.40
   2   0  -4  574.04   34.60
   0  -2  -4  488.15   35.70
   0  -2  -4  541.05   33.90
  -2   2  -4  524.15   34.30
   0  -2  -4  534.45   34.20
   0  -2  -4  438.86   37.30
  -2   2  -4  547.05   34.00
   2   0  -4  467.55   33.90
   2  -2   4  502.55   34.60
   0   2   4  500.85   34.30
  -2   0   4  457.95   43.40
   0   2   4  422.36   34.00
   0   2   4  511.85   34.20
   2  -2   4  529.05   33.80
  -2   0   4  547.45   35.40
  -2   0   4  564.94   35.10
  -2   0   4  456.75   35.00
   2  -2   4  417.96   34.00
  -3  -2  -4   45.30    6.30
  -2   5  -4   50.89    4.10
   5  -3  -4   51.09    4.50
  -5   3   4   55.39    4.10
   2  -5   4   55.69    3.90
   2  -5   4   49.70    4.40
   3   2   4   48.60    3.80
   2  -3  -4  250.97   22.20
   1   2  -4  305.77   20.30
  -3   1  -4  341.77   21.90
  -3   1  -4  289.87   20.20
  -3   1  -4  301.87   22.80
   2  -3  -4  301.77   20.20
  -1  -2   4  285.07   21.30
   3  -1   4  292.47   20.60
  -2   3   4  292.97   20.90
  -1  -2   4  324.47   20.20
  -1  -2   4  283.87   22.50
  -1  -3  -4  120.89   10.50
  -3   4  -4  116.99    8.10
  -1  -3  -4  104.29    7.90
   4  -1  -4  120.49    8.30
  -4   1   4  111.79    9.60
  -4   1   4  116.19   19.00
   3  -4   4  102.79    8.70
   1   3   4  106.09    8.20
   3  -4   4  115.29    7.90
   4  -4  -4   61.09    7.50
  -4   0  -4   64.39    6.90
  -4   0  -4   74.89   16.20
   0  -4   4   72.79    6.30
   0  -4   4   69.89   11.50
   4   0   4   80.89    6.10
  -4   4   4   83.19    5.80
   0  -4   4   77.59    5.40
  -4   3  -4  111.79    9.10
   1  -4  -4  120.79    8.00
   3   1  -4  113.89    8.10
   1  -4  -4  111.69    9.90
  -4   3  -4  117.89    8.20
  -4   3  -4  118.49    9.50
   4  -3   4  112.59    8.80
  -3  -1   4  101.89    9.60
  -1   4   4  106.89    8.40
  -3  -1   4  113.79   21.60
  -3  -1   4  115.49   10.20
  -5   2  -4   50.69    5.00
  -5   2  -4   53.49   13.60
   3  -5  -4   53.49    5.20
  -3   5   4   52.99    4.10
   5  -2   4   55.39    4.40
  -2  -3   4   45.30    9.10
  -2  -3   4   48.20    4.90
  -5   5  -4   24.90    2.20
   0  -5  -4   29.70    3.20
   5   0  -4   26.30    2.60
  -5   0   4   28.10    9.80
  -3  -1  -5 3278.07  210.98
  -3  -1  -5 2874.51  215.78
  -1   4  -5 3117.29  207.08
  -3   5  -5 1476.55  102.09
  -2  -3  -5 1531.25  104.49
   3  -5   5 1479.65  101.89
  -5   2   5 1624.04  115.39
   3  -5   5 1484.05  102.49
   3  -4  -5 2933.11  211.18
  -1  -3   5 3304.57  213.68
  -4   4  -5 2157.58  142.19
   0  -4  -5 2015.00  145.59
  -4   0   5 2234.08  143.59
  -4   0   5 2066.39  174.68
   4  -4   5 2058.29  142.19
   5  -5  -5  578.04   42.40
  -5   5   5  620.54   41.40
   5   0   5  655.33   41.40
   0  -5   5  589.64   41.20
   2  -5  -5 1511.35   99.79
  -5   3  -5 1504.25   99.29
  -3  -2   5 1292.47  108.29
  -3  -2   5 1399.66   99.39
  -2   5   5 1553.34   98.79
   5  -3   5 1504.35   98.99
   0   0  -6   39.30    4.90
   0   0  -6   34.30    4.80
   0   0   6   33.60    5.20
  -1  -1  -6   12.50    1.60
  -1   2  -6   10.20    2.10
  -1   2  -6    8.80    1.10
  -1  -1  -6    9.00    2.10
   2  -1  -6   11.90    1.40
  -1  -1  -6   10.80    1.00
  -1  -1  -6    8.30    1.50
   2  -1  -6    9.50    1.60
   2  -1  -6    9.00    1.50
  -1  -1  -6    7.70    2.90
   1  -2   6   11.60    1.40
   1  -2   6    8.80    6.60
  -2   1   6    9.20    1.60
   1  -2   6   10.50    1.20
  -2   1   6   11.30    2.00
   1  -2   6    8.80    1.20
   1   1   6   13.70    3.40
  -2   1   6   10.30    1.70
   1   1   6    6.20    2.00
  -2   1   6   10.90    1.40
  -2   1   6   11.70    2.10
  -2   1  -6    9.40    1.20
   1  -2  -6    8.50    3.00
   1  -2  -6    5.80    1.70
   1  -2  -6    9.50    1.10
   2  -1   6    9.60    1.50
  -1   2   6    8.20    1.30
  -1  -1   6   11.90    1.40
   2  -1   6   11.70    1.80
  -1  -1   6   13.60    2.10
  -1   2   6    8.50    1.50
   2  -1   6   10.80    1.80
  -1  -1   6   16.50   12.00
  -2  -2  -6    6.20    3.40
  -2  -2  -6    6.10    2.00
  -2   4  -6   11.10    1.20
   4  -2  -6   14.20    1.80
  -4   2   6   11.30    1.40
   2   2   6   10.00    1.50
  -4   2   6    8.30    1.80
   2  -4   6    8.60    1.90
   2  -4   6   10.50    1.30
  -3   0  -6    6.90    2.10
  -3   0  -6   10.90    3.90
   0   3  -6    7.90    1.30
   0  -3   6    9.50    9.20
   0  -3   6   13.70    2.10
   0  -3   6   12.70    1.30
  -3   3   6   11.70    1.70
   3   0  -6   11.60    1.40
   0  -3  -6    9.10    2.90
   0  -3  -6   10.60    1.30
  -3   3  -6   11.40    2.10
  -3   3  -6   10.30    1.60
  -3   0   6   11.60    3.30
   3  -3   6   10.20    1.10
   0   3   6   10.60    1.60
   3  -3   6   12.90    2.10
  -4  -1  -6    4.30    4.00
   5  -4  -6    6.80    2.80
   5  -4  -6    6.80    1.60
   1  -5   6    3.00    0.90
  -5   4   6    5.30    1.20
   1  -5   6    5.00    0.80
  -4   2  -6    9.70    2.50
  -4   2  -6    7.00    2.30
   2  -4  -6    9.80    1.20
  -4   2  -6   10.90    1.50
  -2   4   6   13.70    1.60
   4  -2   6    9.20    1.90
  -2  -2   6    9.00    2.10
  -2  -2   6   15.30   10.40
  -4   5  -6    5.40    1.00
   5  -1  -6    6.60    1.20
  -1  -4  -6    5.20    2.10
  -5   1   6    5.80    6.10
  -5   1  -6    3.90    4.20
   4  -5  -6    3.00    1.70
  -1  -4   6    3.10    4.80
  -1  -4   6    5.20    1.30
   5  -1   6    4.50    1.00
  -4   5   6    5.20    1.00
  -5   4  -6    4.10    1.30
   1  -5  -6    5.90    1.80
  -4  -1   6    9.30    6.40
  -1   5   6    3.70    0.90
  -1   3  -7 2279.07  145.09
  -2  -1  -7 1976.30  147.49
  -1   3  -7 2014.60  144.89
   1  -3   7 1981.00  156.98
  -3   2   7 2404.26  145.39
  -3   2   7 2252.27  145.09
   5  -3  -7  338.87   23.10
  -3  -2  -7  342.77   24.70
  -5   3   7  316.77   22.60
   2  -5   7  327.97   22.40
   2  -5   7  319.17   22.80
   3   2   7  329.17   22.50
   2  -3  -7 2082.69  154.98
   1   2  -7 2355.46  154.18
  -1  -2   7 2247.28  156.98
  -2   3   7 2301.67  154.78
  -1  -2   7 2498.35  172.28
  -1  -3  -7  738.13   54.19
  -3   4  -7  767.92   51.69
   4  -1  -7  757.42   51.79
  -3   4  -7  784.62   52.29
  -4   1   7  781.82   65.19
   1   3   7  754.42   52.29
   3  -4   7  805.22   51.49
  -4   1   7  785.42   53.39
   3  -4   7  700.83   51.99
  -4   0  -7  455.85   34.50
   4  -4  -7  536.35   35.30
  -4   0  -7  471.05   33.90
   0  -4   7  462.25   44.40
  -4   4   7  504.85   32.70
   0  -4   7  430.26   33.30
   0  -4   7  496.75   32.40
   4   0   7  470.95   32.80
   1  -4  -7  735.63   56.19
   1  -4  -7  831.82   54.19
   3   1  -7  793.92   54.19
  -4   3  -7  835.92   54.39
  -4   3  -7  774.92   55.89
  -4   3  -7  798.62   55.59
  -3  -1   7  908.51   70.89
  -1   4   7  742.13   54.79
   4  -3   7  816.22   55.09
  -3  -1   7  866.11   56.99
  -3  -1   7  738.23   55.49
   3  -5  -7  256.87   21.40
  -5   2  -7  311.97   21.50
   5  -2   7  306.67   20.70
  -3   5   7  331.67   20.40
  -2  -3   7  272.77   28.90
  -2  -3   7  272.37   20.80
  -5   5  -7  141.09   10.20
   0  -5  -7  136.39   11.10
  -5   0   7  159.58   23.20
  -1  -2  -8 2686.63  212.18
  -2   3  -8 3265.67  211.78
  -3   1   8 3493.65  211.28
   4  -3  -8 1412.06   88.89
  -3  -1  -8 1193.28   89.99
   1  -4   8 1374.16   87.99
   1  -4   8 1285.37   88.59
   3   1   8 1279.97   88.39
  -4   3   8 1304.17   88.19
  -3   2  -8 3397.86  224.98
  -1   3   8 3303.67  225.28
   5  -2  -8  591.94   38.10
  -2  -3  -8  626.54   40.00
   3  -5   8  529.65   37.50
  -5   2   8  527.75   47.50
   2   3   8  510.15   37.60
  -4   1  -8 1302.57   87.79
   3  -4  -8 1460.55   88.99
  -4   1  -8 1352.86   88.59
  -1  -3   8 1130.29  100.29
  -1  -3   8 1265.47   85.99
  -1  -3   8 1143.49   87.09
  -3   4   8 1350.76   86.39
   4  -1   8 1356.46   86.79
  -1  -3   8 1162.68   89.89
   0  -4  -8  707.43   55.09
  -4   4  -8  791.52   53.49
  -4   4  -8  755.82   54.19
   4   0  -8  798.82   53.49
   0   4   8  811.92   53.89
  -4   0   8  877.01   69.59
   5  -5  -8  218.78   18.20
  -5   5   8  257.67   16.80
  -5   3  -8  491.85   35.90
   2  -5  -8  536.55   36.50
  -5   3  -8  494.35   34.80
  -2   5   8  512.45   35.30
   5  -3   8  500.95   35.60
  -3  -2   8  563.74   45.40
  -3  -2   8  487.85   35.80
   0   0  -9 4267.47  267.67
   0   0  -9 3676.43  267.47
  -1  -1  -9 1015.60   71.89
   2  -1  -9 1058.49   70.59
  -1  -1  -9 1008.20   70.29
  -1   2  -9 1091.39   72.29
  -1  -1  -9 1017.80   72.09
  -1  -1  -9 1118.89   71.69
  -1  -1  -9 1163.78   70.99
   2  -1  -9 1052.89   71.09
  -1   2  -9 1029.00   70.79
   2  -1  -9  980.00   70.79
  -1  -1  -9 1043.90   70.39
  -1   2  -9  984.50   70.29
  -2   1   9 1060.99   70.39
   1  -2   9  997.20   70.59
  -2   1   9  983.30   71.09
   1  -2   9 1000.00   70.59
   1  -2   9 1125.39   70.89
   1   1   9  993.40   71.09
  -2   1   9  989.10   70.99
  -2   1   9 1183.48   71.49
   1  -2  -9 1047.70   69.49
   1  -2  -9  908.41   70.89
   1  -2  -9 1075.29   70.99
  -2   1  -9 1055.69   69.89
   1  -2  -9 1020.00   70.29
  -2   1  -9 1121.39   69.79
   2  -1   9 1015.60   70.49
  -1   2   9  929.11   70.39
   2  -1   9 1046.30   70.09
  -1  -1   9 1098.89   83.29
   2  -1   9 1039.00   69.49
  -1  -1   9  919.41   70.09
  -1  -1   9 1001.60   69.39
  -1  -1   9 1110.89   72.09
  -1   2   9 1116.99   70.19
   2  -1   9 1026.30   70.59
  -1   2   9 1048.80   69.79
   4  -2  -9  195.58   13.90
  -2  -2  -9  194.48   16.10
  -2   4  -9  189.78   13.40
  -4   2   9  188.08   13.60
   2  -4   9  221.98   13.50
   2  -4   9  184.28   13.80
   2   2   9  194.28   14.10
  -4   2   9  179.28   14.50
  -3   0  -9  381.36   33.50
   0   3  -9  324.47   23.60
   3  -3  -9  278.87   23.00
  -3   0  -9  297.77   24.30
   0   3  -9  321.87   24.00
  -3   0  -9  335.07   23.60
   0  -3   9  276.97   34.90
   0  -3   9  322.97   22.90
   0  -3   9  328.07   22.10
  -3   3   9  339.57   22.50
   3   0   9  364.26   23.00
   0  -3  -9  313.17   23.10
  -3   3  -9  330.57   21.20
  -3   3  -9  330.47   22.40
   0  -3  -9  310.07   20.90
  -3   0   9  326.97   23.10
   3  -3   9  281.37   21.40
  -3   0   9  282.07   22.80
   3  -3   9  317.77   20.80
   0   3   9  290.97   21.80
  -3   0   9  279.27   33.30
   5  -4  -9   64.09    7.30
   1  -5   9   52.09    4.40
  -5   4   9   59.99    4.50
   4   1   9   57.89    4.60
  -4   2  -9  213.48   14.20
   2  -4  -9  206.88   16.00
  -4   2  -9  220.68   16.50
  -4   2  -9  203.78   15.60
  -2   4   9  201.78   14.30
  -2  -2   9  172.48   14.90
   4  -2   9  190.78   14.70
  -2  -2   9  203.98   17.50
   5  -1  -9   58.59    5.40
  -1  -4  -9   69.29    6.90
  -5   1   9   64.29   14.00
  -5   1  -9   53.49    5.20
   4  -5  -9   55.79    5.80
  -1  -4   9   42.70    3.60
  -1  -4   9   51.19    4.20
  -1  -4   9   47.80    9.60
   1  -5  -9   64.39    6.20
  -5   4  -9   55.89    5.30
  -1   5   9   63.09    4.80
   5  -3 -10 1217.28   83.49
   3   2  10 1214.98   83.09
   2  -5  10 1251.27   82.89
  -5   3  10 1247.98   91.79
  -3   4 -10 3041.50  198.28
  -4   1  10 3051.49  199.18
  -4   1  10 2949.60  211.18
   1   3  10 2722.73  197.98
   4  -4 -10 1791.72  117.59
  -4   0 -10 1701.13  119.19
  -4   0 -10 1764.12  118.39
   0  -4  10 1608.24  129.49
   4   0  10 1942.91  117.39
   0  -4  10 1837.42  116.69
   0  -4  10 1515.55  117.29
  -4   3 -10 3020.80  192.68
  -1   4  10 2696.13  190.98
  -3  -1  10 2753.12  191.58
  -3  -1  10 3033.90  193.38
   4  -3  10 2682.13  191.18
  -5   2 -10 1180.98   85.09
   5  -2  10 1155.68   84.29
  -3   5  10 1273.27   83.99
  -2  -3  10 1359.96   94.09
  -5   5 -10  577.34   44.00
   0  -5 -10  676.43   44.80
  -5   0  10  696.83   49.60
   1   0 -11   82.09    7.40
   0  -1 -11   86.79    8.30
   0  -1 -11   96.79    7.30
  -1   1 -11   85.19    7.60
  -1   1 -11   87.29    7.00
   1   0 -11   94.19    8.30
   0  -1 -11   94.19    7.90
   0  -1 -11   85.09    7.10
  -1   1 -11  109.99    9.80
   1  -1  11   94.69    7.50
   1  -1  11   99.89    6.80
  -1   0  11   97.59    7.30
  -1   0  11   79.79    6.70
   1  -1  11   88.29    6.90
   0   1  11   80.69    7.30
   0   2 -11   21.50    2.20
  -2   0 -11   21.60    2.30
  -2   0 -11   27.70    3.40
   2  -2 -11   17.50    2.70
   0   2 -11   24.60    2.50
   2  -2 -11   19.60    3.00
   2   0  11   22.00    3.40
   0  -2  11   21.70    2.30
   0  -2  11   27.20    5.30
   2   0  11   18.70    3.00
  -2   2  11   25.60    2.60
   0  -2  11   25.00    9.00
   0  -2  11   24.00    2.00
  -2   2  11   24.70    2.40
  -2   2  11   21.30    2.60
  -1  -2 -11    7.10    2.40
  -2   3 -11    9.30    1.30
  -2   3 -11   11.40    2.50
   3  -1 -11    9.10    1.50
  -1  -2 -11    7.00    1.90
  -2   3 -11    5.30    1.30
   1   2  11    7.80    1.80
  -3   1  11   12.00    2.70
   2  -3  11    9.20    1.30
  -3  -1 -11    1.70    1.60
  -3  -1 -11    2.00    1.60
   4  -3 -11    2.80    1.40
  -4   3  11    1.70    0.80
   1  -4  11    2.30    0.70
   1  -4  11    1.30    0.80
   1  -3 -11   13.10    2.80
  -3   2 -11    9.10    2.60
   2   1 -11    9.00    1.10
  -1   3  11    8.00    1.80
  -2  -1  11    9.70    7.10
   3  -2  11    7.90    1.80
  -2  -1  11    8.00    2.00
  -2  -1  11    9.10    3.00
  -2  -3 -11    1.70    1.40
  -5   2  11    0.50    3.30
   3  -5  11    1.00    0.60
  -4   1 -11    2.70    1.60
   3  -4 -11    2.00    2.30
  -4   1 -11   -0.40    1.30
  -4   1 -11    2.60    4.50
  -1  -3  11    1.60    6.00
  -3   4  11    1.40    0.80
  -1  -3  11    2.40    1.20
   4  -1  11    1.60    1.10
  -1  -3  11    1.80    0.50
   0  -4 -11    2.00    1.50
   4   0 -11    2.50    0.80
  -4   4 -11    2.00    0.80
  -4   4 -11    2.00    1.30
  -4   0  11    1.80    4.60
  -4   0  11    1.20    1.40
   0   4  11    2.90    0.90
   5  -5 -11    2.50    1.10
   5   0  11    1.60    1.00
  -5   3 -11    2.80    0.70
  -5   3 -11    0.50    0.90
   2  -5 -11    1.80    1.60
  -3  -2  11    0.20    1.90
  -2   5  11    3.00    1.10
  -3  -2  11    0.60    3.40
   5  -3  11    0.20    1.30
  -1  -1 -12 3065.09  212.08
   2  -1 -12 3377.36  210.48
  -1  -1 -12 3064.79  209.88
  -1   2 -12 3414.16  213.38
  -2   1  12 2823.22  210.28
   1  -2  12 2998.20  210.28
   1   1 -12 3651.13  223.58
   1   1 -12 3346.47  223.58
   2  -1  12 3190.58  225.68
   2  -1  12 3300.77  223.48
  -1   2  12 3114.89  225.58
   2  -1  12 3375.06  224.78
   4  -2 -12  651.43   43.40
  -2   4 -12  627.54   42.90
  -4   2  12  665.33   53.59
  -4   2  12  558.14   44.00
   2  -4  12  662.23   42.80
   0   3 -12 1024.60   75.29
  -3   0 -12 1022.60   75.59
  -3   0 -12 1124.99   74.59
  -3   0 -12 1217.28   75.09
  -3   3  12 1161.28   73.19
   0  -3  12  895.31   73.29
   0  -3  12 1058.19   72.79
   0  -3  12 1218.88   87.39
   3   0  12 1017.80   73.89
  -3   3 -12 1090.39   73.39
   3   0 -12 1102.09   73.39
  -3   3 -12 1088.09   74.89
   0  -3 -12 1187.08   74.79
  -3   0  12 1153.98   75.69
  -3   0  12  936.21   85.79
   0   3  12 1035.40   73.89
   3  -3  12 1095.09   73.09
   5  -4 -12  143.89   11.60
   1  -5  12  160.88   11.20
  -5   4  12  163.78   16.40
  -5   4  12  161.68   11.40
   4   1  12  174.38   11.70
  -4   2 -12  650.23   44.80
  -4   2 -12  665.43   47.70
  -4   2 -12  730.93   47.00
  -2  -2  12  584.24   47.80
  -2   4  12  664.33   45.10
  -2  -2  12  725.33   55.69
   4  -2  12  618.14   45.60
  -2  -2  12  627.34   45.50
  -1  -4 -12  175.88   12.70
  -4   5 -12  164.38   12.00
   5  -1 -12  168.08   12.00
  -5   1  12  170.08   18.70
   5  -1  12  150.18   12.00
  -1  -4  12  179.78   17.90
  -4   5  12  159.78   11.60
  -5   4 -12  170.48   13.30
   1  -5 -12  201.38   14.20
  -4  -1  12  202.48   19.40
  -1   5  12  185.28   13.30
  -1   3 -13 3605.54  224.48
  -2  -1 -13 3080.29  223.38
  -1   3 -13 3253.67  222.58
  -2  -1 -13 3330.87  222.48
  -3   2  13 3234.88  222.58
   2   0 -13 4834.22  331.17
   2  -2  13 4544.65  330.87
   0   2  13 4760.52  331.47
   2  -2  13 5581.64  331.57
   5  -3 -13  481.75   38.70
  -3  -2 -13  586.14   39.00
  -5   3  13  626.74   47.90
   1   2 -13 3416.06  225.38
  -1  -2  13 3290.17  228.98
  -3   4 -13 1331.97   87.29
  -3   4 -13 1289.57   88.39
   4  -1 -13 1348.47   87.49
  -4   1  13 1214.08   88.89
   3  -4  13 1318.77   86.99
  -4   1  13 1208.28   99.39
   1   3  13 1339.57   87.69
   4  -4 -13  846.52   55.89
  -4   0 -13  723.83   56.79
   4   0  13  780.82   56.09
   0  -4  13  940.81   66.99
   0  -4  13  841.62   55.39
  -4   4  13  790.52   55.59
   3   1 -13 1324.57   87.39
  -4   3 -13 1296.67   87.49
  -4   3 -13 1341.27   89.39
  -4   3 -13 1205.78   90.19
  -3  -1  13 1332.87   90.59
  -3  -1  13 1387.26   98.59
   4  -3  13 1183.88   87.79
  -5   2 -13  501.95   37.40
  -3   5  13  486.85   36.00
  -2  -3  13  627.64   43.90
  -2  -3  13  489.75   36.20
  -1   1 -14 1094.79   88.59
   0  -1 -14 1290.27   87.29
   1   0 -14 1251.57   86.19
  -1   1 -14 1444.86   88.19
  -1   1 -14 1332.97   86.59
   0  -1 -14 1333.37   86.19
   0  -1 -14 1292.87   85.99
   0   1  14 1237.08   86.59
  -1   0  14 1223.28   86.99
   1  -1  14 1145.19   86.09
  -1   0  14 1434.26   85.79
  -1   0  14 1354.96   88.59
   1  -1  14 1138.99   86.89
   1  -1  14 1300.57   85.99
  -1   0  14 1217.18   93.89
   2  -2 -14  648.34   47.70
  -2   0 -14  755.02   48.10
  -2   0 -14  732.83   46.50
  -2   0 -14  713.23   47.00
   0   2 -14  572.34   46.30
   2  -2 -14  617.24   47.00
  -2   0 -14  716.63   46.60
   0   2 -14  691.93   47.00
  -2   2  14  773.32   46.60
  -2   2  14  687.53   47.20
   0  -2  14  747.13   46.20
   2   0  14  582.84   47.00
  -2   2  14  585.84   47.50
   0  -2  14  634.64   46.20
   0  -2  14  761.82   55.19
   3  -1 -14  455.65   31.00
  -1  -2 -14  378.36   32.10
  -2   3 -14  461.85   33.20
  -2   3 -14  513.55   31.40
  -3   1  14  423.16   40.60
  -3   1  14  442.56   32.40
   2  -3  14  468.25   30.60
   1   2  14  440.46   31.00
   4  -3 -14  194.18   14.80
  -3  -1 -14  180.58   13.00
  -4   3  14  165.08   12.60
   1  -4  14  141.79   12.00
  -3   2 -14  392.06   29.50
  -3   2 -14  423.06   28.90
   2   1 -14  412.16   28.70
   1  -3 -14  444.16   29.70
  -3   2 -14  464.65   31.30
  -1   3  14  420.76   29.40
  -2  -1  14  375.56   28.30
   3  -2  14  385.56   29.50
  -2  -1  14  467.15   32.20
   3  -2  14  418.36   28.40
  -2  -1  14  447.66   38.90
  -2  -1  14  394.26   29.40
  -3   5 -14   65.59    5.40
  -2  -3 -14   82.59    6.10
   5  -2 -14   86.09    7.10
   3  -5  14   74.29    5.50
   2   3  14   66.69    5.60
  -4   1 -14  175.18   13.30
  -4   1 -14  142.19   10.90
   3  -4 -14  189.58   14.30
  -1  -3  14  145.99   10.70
  -1  -3  14  132.69   11.20
  -4   4 -14  122.29    9.10
   4   0 -14  118.09    8.90
  -4   4 -14  107.39   10.10
   0  -4 -14  136.39    9.80
   0   4  14  125.09    9.00
  -4   0  14  125.69   16.50
  -5   3 -14   75.29    7.80
  -5   3 -14   75.79    6.00
   2  -5 -14   84.39    7.60
  -2   5  14   77.59    6.80
  -3  -2  14   78.69   12.40
   5  -3  14   89.79    6.40
   2  -1 -15 9999.00  614.84
   1  -2  15 8221.38  610.84
   1  -2 -15 7735.03  597.04
   2  -1  15 9593.94  596.94
   2  -1  15 9285.07  595.94
  -2   4 -15 2385.06  160.78
  -2   4 -15 2306.87  159.18
  -4   2  15 2317.37  169.38
   2  -4  15 2561.94  159.28
   2   2  15 2283.87  159.78
  -3   0  15 4378.26  297.17
   5  -4 -15  745.93   44.40
  -5   4  15  627.74   49.70
   4   1  15  567.74   44.00
   1  -5  15  644.14   43.70
  -4   2 -15 2541.75  165.18
  -4   2 -15 2511.25  162.58
  -4   2 -15 2600.44  166.68
  -2  -2  15 2199.08  165.78
  -2  -2  15 2205.08  162.88
  -2   4  15 2312.57  162.78
  -2  -2  15 2545.85  171.38
  -4   5 -15  612.84   44.20
  -1  -4 -15  652.23   44.50
   5  -1 -15  626.14   44.20
  -5   1  15  713.03   50.49
   4  -5 -15  705.73   44.40
   5  -1  15  556.14   44.10
  -4   5  15  615.14   44.00
  -1  -4  15  715.03   49.20
   1  -5 -15  840.92   53.29
  -5   4 -15  687.93   52.89
  -4  -1  15  813.22   57.79
  -1   0 -16   68.99    7.80
   0   1 -16   72.99    6.40
   0   1 -16   70.09    5.50
   1  -1 -16   72.09    6.20
  -1   1  16   67.89    7.60
   1   0  16   60.49    6.70
   0  -1  16   70.09    5.60
   0  -1  16   77.09    6.20
   1   0  16   74.79    5.80
   0  -1  16   67.89    9.10
  -1   1  16   67.49    9.30
  -2  -1 -16   14.70    2.40
  -2  -1 -16   13.80    3.30
  -1   3 -16   14.40    4.70
  -1   3 -16   14.20    1.70
   3  -2 -16   13.30    2.80
  -2  -1 -16   15.10    2.20
   1  -3  16   14.30    6.50
  -3   2  16   14.70    2.70
   2   1  16   14.30    2.50
   1  -3  16   21.30    2.10
  -3   2  16   14.60    2.50
  -2   2 -16   40.50    4.10
   2   0 -16   46.30    3.90
  -2   2 -16   33.50    4.30
   0  -2 -16   39.50    4.00
  -2   2 -16   43.50    6.80
   2  -2  16   42.30    3.70
  -2   0  16   39.10    5.60
   0   2  16   39.60    4.30
   5  -3 -16    1.30    0.80
  -3  -2 -16    0.90    0.90
   3   2  16    0.40    0.70
  -5   3  16    0.30    2.60
   2  -5  16    1.00    0.60
  -3   1 -16   17.90    4.00
   2  -3 -16   18.70    2.90
  -3   1 -16   15.40    2.20
   1   2 -16   12.20    2.30
  -1  -2  16   13.10    2.00
  -1  -2  16   24.60    5.10
   3  -1  16   13.40    2.90
  -1  -2  16   16.40    1.70
  -1  -2  16   13.20    6.20
  -2   3  16   14.50    2.60
  -3   4 -16    2.50    1.70
  -1  -3 -16    8.50    1.90
   4  -1 -16    4.80    1.30
  -3   4 -16    5.60    1.30
   3  -4  16    4.20    1.00
  -4   1  16    4.20    4.90
  -4   1  16    3.50    1.70
   4  -4 -16    4.60    1.50
  -4   0 -16    1.30    1.50
   4  -4 -16    0.60    1.20
  -4   4  16    1.80    0.90
   0  -4  16    4.10    4.20
   4   0  16    1.40    1.00
   0  -4  16    2.00    0.80
  -4   3 -16    3.30    1.20
   3   1 -16    3.40    0.90
  -4   3 -16    5.60    2.60
   1  -4 -16    3.20    1.20
  -1   4  16    5.50    1.50
  -3  -1  16    5.50    5.00
  -3  -1  16    5.60    2.60
  -5   2 -16    1.00    2.20
   5  -2  16    0.90    0.80
  -2  -3  16    1.20    2.70
  -3   5  16    1.90    0.80
   1   0 -17 2664.33  173.38
   0  -1 -17 2745.63  173.58
  -1   1 -17 2815.02  175.48
  -1   1 -17 2420.36  174.38
   0  -1 -17 2688.43  173.68
   0  -1 -17 2525.25  172.18
   1   0 -17 2158.28  172.38
  -1   0  17 2556.84  178.98
  -1   0  17 2516.65  175.08
  -1   0  17 2355.26  173.68
   0   1  17 2894.61  173.88
   1  -1  17 2554.24  172.28
   1  -1  17 2223.78  173.38
   1  -1  17 2739.53  172.28
  -2   0 -17 1419.56   95.69
   2  -2 -17 1255.77   93.99
  -2   0 -17 1423.36   93.79
   0   2 -17 1326.97   93.29
   0  -2  17 1399.46  100.59
   0  -2  17 1348.37   93.29
   2   0  17 1526.35   93.99
  -2   2  17 1296.37   98.49
  -2   2  17 1453.55   93.79
  -2   3 -17  864.31   55.99
   3  -1 -17  790.42   55.99
  -2   3 -17  836.52   59.59
  -1  -2 -17  821.02   56.09
   1   2  17  811.22   55.79
   2  -3  17  866.81   55.69
  -3   1  17  818.22   57.89
  -3   1  17  750.62   65.69
  -3  -1 -17  237.58   24.00
  -4   3  17  264.57   18.80
   3   1  17  258.17   19.10
  -4   3  17  269.17   24.90
   1  -4  17  298.77   18.60
   1  -3 -17  797.12   53.09
  -3   2 -17  838.32   53.19
  -3   2 -17  771.42   60.89
  -2  -1  17  746.13   55.99
   3  -2  17  806.72   53.09
  -1   3  17  669.73   53.09
   3  -2  17  751.92   52.99
  -2  -1  17  813.22   61.69
  -2  -3 -17  123.79    8.50
   5  -2 -17  103.59    8.40
   2   3  17  116.19    8.20
   3  -5  17  114.49    8.20
  -5   2  17  108.19   13.40
   3  -4 -17  321.67   20.80
  -4   1 -17  293.67   20.20
  -4   1 -17  249.68   22.90
   4  -1  17  268.07   20.70
  -3   4  17  302.07   20.50
  -1  -3  17  324.97   27.00
  -1  -3  17  257.97   19.80
   0  -4 -17  198.78   14.10
  -4   4 -17  206.78   14.20
  -4   4 -17  171.48   15.60
   4   0 -17  181.78   13.80
  -4   0  17  197.58   20.10
   0   4  17  207.28   13.70
   2  -5 -17  137.59    9.40
  -5   3 -17  108.49    9.10
  -3  -2  17  138.29   13.40
  -2   5  17  119.89    9.10
  -2   1  18 4303.47  295.87
  -2   1  18 4514.55  297.97
  -2   4 -18 1137.09   80.09
   4  -2 -18 1098.69   80.59
  -2  -2 -18 1306.27   80.69
  -2   4 -18 1119.09   84.29
   2   2  18 1258.97   80.49
  -4   2  18 1086.49   88.79
   2  -4  18 1307.07   80.29
  -3   0 -18 1708.73  136.29
  -3   0 -18 1940.31  135.49
   3  -3 -18 1967.50  133.89
   3  -3 -18 2107.59  134.19
   0   3 -18 2071.69  135.29
   3   0  18 1949.20  133.99
  -3   3  18 1853.61  196.08
  -3   3  18 2045.00  133.79
   0  -3  18 2031.30  133.39
   0  -3  18 2125.89  141.29
   3   0 -18 1997.30  141.99
  -3   3 -18 2166.98  145.69
  -3   3 -18 2126.79  142.29
  -3   0  18 2027.60  144.79
   0   3  18 2220.18  142.09
  -3   0  18 2092.39  152.68
   3  -3  18 2113.89  141.59
   5  -4 -18  351.56   22.70
   1  -5  18  301.67   22.30
   4   1  18  331.97   22.60
  -4   2 -18 1223.08   86.39
  -4   2 -18 1235.38   83.59
  -4   2 -18 1076.09   86.99
   2  -4 -18 1331.37   83.79
  -2  -2  18 1345.17   90.79
  -2  -2  18 1255.07   86.89
   4  -2  18 1329.77   83.69
  -2   4  18 1054.99   83.49
  -4   5 -18  310.17   22.80
  -5   1  18  348.17   26.50
   4  -5 -18  356.66   25.20
   5  -1  18  359.86   25.10
  -1  -4  18  385.66   28.60
   1  -5 -18  439.16   29.80
  -4  -1  18  423.26   33.20
  -1   0 -19  728.73   51.09
  -1   0 -19  757.12   52.59
   1  -1 -19  832.52   51.19
  -1   0 -19  731.83   52.89
   0   1 -19  705.23   50.49
   1  -1 -19  761.82   50.69
   0  -1  19  799.12   50.59
   1   0  19  748.93   52.29
   0  -1  19  659.13   54.49
  -1   1  19  727.73   50.89
   1   0  19  742.03   50.69
   3  -2 -19  231.18   18.80
  -1   3 -19  286.67   21.30
  -2  -1 -19  288.27   18.40
  -1   3 -19  258.97   18.20
  -2  -1 -19  250.57   20.60
   1  -3  19  273.97   18.30
   2   1  19  277.97   18.40
  -3   2  19  255.57   25.30
  -3   2  19  220.68   18.30
   1  -3  19  255.57   23.80
   0  -2 -19  434.36   30.50
   0  -2 -19  415.56   30.40
  -2   2 -19  437.66   34.50
  -2   2 -19  436.96   31.30
   0   2  19  496.35   30.90
   2  -2  19  465.75   30.70
  -2   0  19  428.46   33.20
  -2   0  19  398.76   30.10
  -2   0  19  464.35   45.00
   5  -3 -19   53.09    4.30
   2  -5  19   47.80    4.10
   3   2  19   59.89    4.30
   2  -3 -19  273.37   19.20
   2  -3 -19  290.27   19.70
  -3   1 -19  271.57   22.40
  -3   1 -19  255.47   19.70
   3  -1  19  299.67   19.80
  -1  -2  19  295.97   26.10
  -1  -2  19  254.87   19.00
  -2   3  19  257.37   19.80
   4  -1 -19  122.39    9.60
  -3   4 -19  122.69    9.50
  -1  -3 -19  141.39    9.70
  -3   4 -19  118.19   11.50
   3  -4  19  120.69    9.10
  -4   1  19  125.69   16.10
   1   3  19  132.79    9.20
   4  -4 -19   85.49    6.20
   0  -4  19   91.09   10.80
   0  -4  19   71.89    6.10
   4   0  19   86.19    6.70
   3   1 -19  133.29    9.60
   1  -4 -19  121.19    9.90
  -4   3 -19  120.79   12.40
  -4   3 -19  135.19   10.30
  -1   4  19  142.49   10.00
  -3  -1  19  144.19   15.90
   3  -5 -19   59.49    4.80
   5  -2  19   61.49    4.70
  -3   5  19   53.49    4.60
  -2  -3  19   63.49    7.50
   0  -1 -20 8348.56  558.44
   0   1  20 8274.97  558.24
  -2   3 -20 2949.90  199.68
  -2   3 -20 2962.40  196.08
   3  -1 -20 2751.82  196.08
   2  -3  20 3206.88  195.88
  -3   1  20 2967.10  201.78
  -3   1  20 2634.64  204.88
   4  -3 -20 1200.88   75.39
   3   1  20 1229.98   75.19
   1  -4  20 1121.69   74.89
  -4   3  20 1001.40   75.19
  -4   3  20  994.80   80.29
   2   1 -20 2864.61  187.08
  -3   2 -20 2526.15  190.78
   3  -2  20 2642.04  186.98
   3  -2  20 3138.99  187.18
  -2  -1  20 2742.53  190.68
   5  -2 -20  475.75   37.20
   3  -5  20  509.65   36.90
   2   3  20  606.84   37.00
  -5   2  20  590.54   45.00
  -4   1 -20  988.60   73.39
   3  -4 -20 1229.08   73.69
  -4   1 -20  938.61   74.99
  -3   4  20 1073.29   73.69
  -1  -3  20  999.20   72.99
  -1  -3  20 1279.87   79.59
   0  -4 -20  831.32   56.39
   4   0 -20  775.02   56.29
  -4   4 -20  708.73   56.49
  -4   0  20  902.01   61.99
   0   4  20  935.61   56.19
  -5   3 -20  585.84   41.00
   2  -5 -20  557.64   40.20
  -3  -2  20  616.74   43.80
  -2   5  20  603.04   40.10
   0   0 -21   62.99    5.00
   0   0  21   61.09    4.80
  -1   2 -21   42.10    4.10
  -1  -1 -21   43.10    5.00
  -1   2 -21   53.59    5.90
  -2   1  21   36.70    7.70
  -2   1  21   44.60    3.40
   1  -2  21   44.00    4.00
   1   1  21   39.50    3.80
  -2   1 -21   46.20    6.70
   1   1 -21   43.10    3.90
   1  -2 -21   45.50    3.90
  -1   2  21   44.00    4.50
   2  -1  21   46.90    3.70
   2  -1  21   40.50    3.80
  -1  -1  21   40.00    8.50
  -2   4 -21    7.30    2.40
  -4   2  21    7.80    4.70
   2  -4  21    9.90    1.60
   2   2  21    7.70    1.40
   3  -3 -21   10.50    2.40
   0   3 -21   13.20    2.50
  -3   0 -21   15.40    3.80
   3  -3 -21   13.20    2.20
  -3   0 -21   11.00    2.60
  -3   3  21   15.30    3.40
   3   0  21   12.50    2.20
   0  -3  21   10.00    1.80
   0  -3  21   13.80    5.30
   0  -3 -21   17.50    2.90
  -3   3 -21   16.20    3.10
   3   0 -21   10.00    2.60
  -3   3 -21   11.70    4.10
  -3   0  21   16.60    4.00
   3  -3  21   17.20    2.50
   0   3  21   15.00    2.20
  -3   0  21   15.30    7.70
  -4   2 -21    5.80    1.50
  -4   2 -21    7.10    3.10
   2  -4 -21    7.30    1.50
  -2   4  21   10.70    2.00
   4  -2  21    6.70    1.30
  -2  -2  21    7.70    4.00
   1  -1 -22  823.12   62.89
   0   1 -22  936.71   62.89
  -1   0 -22  974.30   65.09
   0  -1  22  832.72   66.59
   1   0  22  918.51   62.99
  -1   1  22  977.50   63.19
   0  -1  22 1055.89   63.59
  -1   3 -22  329.77   22.50
   3  -2 -22  303.27   21.00
  -1   3 -22  272.97   20.30
  -3   2  22  259.57   26.30
   2   1  22  318.77   20.40
   1  -3  22  269.77   20.40
   0  -2 -22  611.94   38.80
   0  -2 -22  585.54   38.10
  -2   2 -22  582.44   41.40
  -2   2 -22  553.34   39.00
   2   0 -22  502.25   38.40
  -2   0  22  579.94   37.90
   2  -2  22  555.64   38.20
  -2   0  22  510.25   40.80
  -2   0  22  533.65   44.40
   2  -3 -22  325.07   20.90
   1   2 -22  268.97   20.70
  -3   1 -22  278.37   23.20
   2  -3 -22  322.07   20.50
  -2   3  22  274.27   21.00
  -1  -2  22  266.37   20.30
   3  -1  22  336.97   20.70
   3  -1  22  280.87   20.20
  -3   4 -22  111.99    8.60
   4  -1 -22  101.69    8.60
  -1  -3 -22  119.59    8.60
  -3   4 -22  101.79   10.90
  -4   1  22  130.59   14.60
   3  -4  22  104.29    8.50
   1   3  22  134.49    8.50
   4  -4 -22   76.39    5.80
   0  -4  22   74.59    5.50
   4   0  22   75.89    5.60
  -4   3 -22  114.29   11.50
  -4   3 -22  114.09    9.70
  -1   4  22  141.89    9.40
  -3  -1  22  138.99   14.00
   1  -1  23    0.10    0.40
   0   2 -23 2902.71  196.48
  -2   0 -23 2871.71  197.08
  -2   0 -23 2982.80  198.98
  -2   2  23 2954.20  196.98
  -2   3 -23 1770.52  125.29
   3  -1 -23 1698.23  125.89
  -2   3 -23 2003.50  127.69
   2  -3  23 1969.30  124.99
  -3   1  23 1824.62  131.99
   4  -3 -23  751.42   52.39
   1  -4  23  771.32   52.09
   3   1  23  789.52   52.29
   2   1 -23 2012.10  137.19
  -3   2 -23 2009.40  138.49
   1  -3 -23 2103.89  137.59
  -3   2 -23 1969.80  140.29
   3  -2  23 1893.41  137.19
  -2  -1  23 2162.78  141.09
  -2  -1  23 2127.39  145.39
  -1   3  23 2044.90  137.79
   3  -4 -23  740.63   53.19
  -4   1 -23  738.13   54.29
  -1  -3  23  877.01   60.79
   4  -1  23  781.42   53.19
  -1  -3  23  785.32   52.89
  -4   4 -23  548.15   37.90
   0   4  23  569.64   37.70
  -4   0  23  551.34   41.30
   0   0 -24  420.86   29.00
   0   0 -24  456.85   30.60
   0   0  24  364.56   28.70
   0   0  24  447.96   28.80
   2  -1 -24  258.57   19.40
  -1   2 -24  265.27   19.10
  -1   2 -24  269.67   20.70
  -1  -1 -24  270.57   20.30
   1   1  24  272.47   19.10
   1  -2  24  298.47   19.10
  -2   1  24  275.77   18.70
  -2   1 -24  278.47   21.30
   1   1 -24  274.57   18.80
   1  -2 -24  269.47   18.90
   1  -2 -24  258.47   18.90
  -2   1 -24  286.47   19.50
   2  -1  24  248.58   18.70
  -1   2  24  264.67   19.20
  -1  -1  24  284.07   18.80
   2  -1  24  278.67   18.60
  -1  -1  24  265.37   23.70
  -2   4 -24   79.79    5.80
   4  -2 -24   79.49    6.10
  -4   2  24   65.99    9.40
   2   2  24   88.39    5.90
   2  -4  24   80.89    5.90
   3  -3 -24  113.59    8.60
  -3   0 -24  104.09    9.40
   0   3 -24  113.39    9.30
   3  -3 -24  123.99    8.50
  -3   0 -24  102.29    8.30
  -3   3  24  115.69    8.60
   0  -3  24  124.99   12.90
   0  -3  24  117.69    8.40
   3   0  24  116.09    8.40
   0  -3 -24  125.09    9.20
  -3   3 -24  120.69    9.60
  -3   3 -24  125.19   11.30
   3   0 -24  127.09    9.30
  -3   0  24  120.69   13.60
   0   3  24  141.89    9.40
   3  -3  24  119.59    9.10
   2  -4 -24   81.79    6.20
  -4   2 -24   75.09    7.80
  -2   4  24   86.19    6.30
   3  -2 -25 1828.32  114.19
   3  -2 -25 1625.44  113.99
  -1   3 -25 1527.65  116.19
  -1   3 -25 1711.93  113.69
   1  -3  25 1798.12  113.89
   2   1  25 1649.63  113.49
  -2   2 -25 2945.01  185.58
  -2   2 -25 2764.72  187.38
  -2   0  25 2710.13  184.98
   2  -2  25 2815.42  185.18
  -2   0  25 2547.55  189.98
   2  -3 -25 1723.03  112.19
  -3   1 -25 1630.94  114.49
  -3   1 -25 1573.44  112.19
   2  -3 -25 1690.43  111.89
  -1  -2  25 1801.72  111.89
  -1  -2  25 1766.62  117.59
   3  -1  25 1628.44  111.89
   3  -1  25 1451.95  111.79
  -2   3  25 1700.03  112.29
  -3   4 -25  731.33   50.29
   4  -1 -25  763.12   50.39
   3  -4  25  689.63   50.09
  -4   1  25  718.63   54.29
   1   3  25  817.22   50.29
   1  -4 -25  692.23   50.99
  -4   3 -25  803.72   50.99
  -3  -1  25  749.53   54.29
  -1   4  25  759.62   50.79
   1   0 -26   60.69    5.10
  -1   1 -26   55.59    5.00
  -1   1 -26   66.49    6.50
   0  -1 -26   62.29    5.10
   0  -1 -26   63.29    5.80
   0   1  26   59.49    5.00
   1  -1  26   66.19    4.70
  -1   0  26   62.89    4.70
   2  -2 -26   32.90    3.00
   2  -2 -26   36.10    3.40
   0   2 -26   32.30    2.90
   0   2 -26   44.50    4.70
  -2   0 -26   34.00    3.30
   2   0  26   34.50    3.20
   0  -2  26   35.10    6.10
   2   0  26   35.60    2.80
  -2   2  26   35.00    3.20
  -2   3 -26   21.60    2.30
   3  -1 -26   22.90    2.60
  -2   3 -26   24.20    3.50
   1   2  26   22.40    2.30
  -3   1  26   20.60    4.50
   2  -3  26   25.00    2.30
   4  -3 -26   10.10    1.20
   3   1  26    7.20    1.00
   1  -4  26    9.00    1.00
   2   1 -26   20.80    2.00
   1  -3 -26   24.00    2.80
  -3   2 -26   22.40    3.50
   3  -2  26   23.60    2.10
  -1   3  26   23.00    2.40
  -2  -1  26   23.20    5.00
   3  -4 -26    7.80    1.70
  -1  -3  26    8.10    2.90
  -3   4  26    8.90    1.20
   4  -1  26    9.70    1.20
   0   0 -27  349.47   23.30
   0   0 -27  327.77   24.80
   0   0  27  330.57   23.00
  -1   2 -27  193.28   15.60
  -1   2 -27  194.78   14.20
  -1  -1 -27  198.78   14.20
   2  -1 -27  205.28   14.40
   1  -2  27  208.58   14.10
   1   1  27  211.38   14.30
  -2   1  27  197.98   13.90
   1   1 -27  213.38   14.50
  -2   1 -27  214.18   14.80
  -2   1 -27  198.28   16.20
   1  -2 -27  219.38   14.70
   2  -1  27  210.78   14.40
  -1   2  27  208.38   14.70
  -1  -1  27  183.78   17.90
  -1  -1  27  212.68   14.40
   4  -2 -27   49.60    3.80
   2   2  27   53.29    3.80
   2  -4  27   42.60    3.50
   3  -3 -27   62.29    5.10
   0   3 -27   61.49    6.00
   3  -3 -27   70.79    5.60
   0  -3  27   76.79    5.10
  -3   3  27   65.89    4.80
   3   0  27   70.29    5.30
  -3   3  27   74.19    5.20
  -3   3 -27   82.99    6.40
   0   3  27   92.59    6.40
  -3   0  27   90.09    9.40
   3  -3  27   73.49    6.30
  -4   2 -27   49.20    3.70
  -2  -2  27   46.10    5.90
  -2   4  27   47.40    3.70
  -1   1  28 1214.28   81.79
   3  -2 -28 1210.48   82.09
  -1   3 -28 1239.58   81.99
  -1   3 -28 1167.98   83.09
   1  -3  28 1236.88   81.89
   2   1  28 1245.78   81.99
   2   1  28 1198.28   81.79
   0  -2 -28 1734.03  118.89
  -2   2 -28 1764.42  120.69
   2   0 -28 1855.51  119.09
  -2   2 -28 1844.02  119.19
  -2   0  28 1814.22  118.79
  -2   0  28 1499.65  124.79
   2  -2  28 1790.92  118.89
   0   2  28 1852.41  119.09
  -3   1 -28 1089.29   75.79
  -3   1 -28 1076.99   76.99
   2  -3 -28 1124.29   75.69
  -2   3  28 1209.88   75.89
  -1  -2  28 1206.78   75.59
   3  -1  28 1026.60   75.99
  -1  -2  28 1130.39   79.39
   4  -1 -28  546.65   36.50
   1   3  28  527.85   36.30
  -4   3 -28  503.85   33.30
  -1   4  28  481.25   33.30
   1   0 -29  169.28   11.50
   0  -1 -29  161.28   11.50
   0  -1 -29  154.58   12.20
  -1   1 -29  151.78   11.40
  -1   1 -29  158.58   12.70
   1  -1  29  163.88   11.20
   0   1  29  161.78   11.30
  -1   0  29  155.58   11.10
   0   2 -29  107.19    7.70
  -2   0 -29   96.39    8.50
   2  -2 -29  112.39    7.90
  -2   0 -29  107.39    7.80
   0   2 -29  108.69    9.10
  -2   2  29  100.89    7.70
   2   0  29  110.99    7.80
  -2   2  29  101.89    7.50
   0  -2  29  116.39    7.70
   2   0  29  110.19    7.50
  -2   3 -29   69.99    6.80
  -2   3 -29   86.69    6.10
   3  -1 -29   83.49    6.00
   1   2  29   82.09    5.90
   2  -3  29   75.79    5.70
  -3   2 -29   66.69    6.50
  -3   2 -29   76.49    5.60
   2   1 -29   79.89    5.40
   3  -2  29   71.09    5.30
  -2  -1  29   74.99    8.10
  -1   3  29   79.69    5.70
   0   0 -30 2320.27  157.18
  -1   2 -30 1477.55  101.09
   2  -1 -30 1524.15  101.19
  -1  -1 -30 1481.35  101.09
  -1   2 -30 1500.85  102.69
   1  -2  30 1467.45  100.99
  -2   1  30 1436.06  100.89
   1   1  30 1562.54  100.99
   1   1  30 1573.14  101.19
   1   1 -30 1548.95  102.39
  -2   1 -30 1463.65  103.89
  -2   1 -30 1442.46  102.49
   1  -2 -30 1658.73  102.59
  -1   2  30 1507.55  102.49
  -1  -1  30 1528.45  102.39
   2  -1  30 1514.05  102.39
   3  -3 -30  656.03   45.00
   3   0  30  696.83   45.10
   0  -3  30  641.04   44.80
  -3   3 -30  640.74   41.60
   3   0 -30  622.14   41.60
   3  -3  30  568.84   41.40
   0   3  30  631.14   41.60
   1  -1 -31   60.79    6.10
   1  -1 -31   58.49    4.80
   0   1 -31   66.29    4.80
   0   1 -31   60.49    6.00
  -1   0 -31   54.39    4.70
  -1   0 -31   60.79    6.00
   0  -1  31   64.59    4.60
  -1   1  31   64.59    4.60
   1   0  31   62.19    4.60
   3  -2 -31   20.00    1.90
   2   1  31   22.40    1.90
   2   1  31   18.50    1.70
  -2   2 -31   34.30    2.90
  -2   2 -31   37.00    3.90
   2   0 -31   33.40    2.90
   0   2  31   35.20    2.90
   2  -2  31   36.50    2.70
  -3   1 -31   26.10    2.10
  -2   3  31   24.60    2.20
  -1  -2  31   26.40    2.00
   0  -1 -32   50.99    6.10
  -1   1 -32   58.49    5.80
   1   0 -32   65.79    4.80
   1   0 -32   50.49    5.50
   0  -1 -32   68.69    4.80
   0   1  32   60.99    4.60
   0   1  32   63.29    4.50
  -1   0  32   64.09    4.50
   1  -1  32   61.49    4.50
   2  -2 -32   43.20    3.30
   0   2 -32   37.70    4.20
  -2   0 -32   41.10    3.40
   0   2 -32   42.50    3.10
   0  -2  32   38.50    3.10
  -2   2  32   41.80    3.10
   2   0  32   38.20    3.00
   2   0  32   38.50    3.10
   3  -1 -32   24.70    2.00
  -2   3 -32   23.80    1.90
   1   2  32   20.50    1.80
   1   2  32   24.30    2.00
   2  -3  32   21.90    1.80
  -3   2 -32   24.10    2.00
  -1   3  32   21.80    1.90
   0   0 -33 1696.23  115.19
  -1   2 -33 1142.49   74.89
   2  -1 -33 1001.60   74.29
  -1  -1 -33 1120.29   73.49
   2  -1 -33 1090.59   73.59
   1   1  33 1136.99   73.59
  -2   1  33 1088.49   73.39
   1   1  33 1124.39   73.49
   1  -2  33 1038.80   73.49
  -2   1 -33 1082.49   71.89
   1   1 -33 1148.19   71.99
  -2   1 -33  927.31   73.69
   1  -2 -33 1086.69   71.89
   1   1 -33 1010.80   72.99
  -1   2  33 1082.29   71.79
   2  -1  33 1080.79   71.89
  -1  -1  33 1122.09   71.79
  -1   2  33 1064.59   71.79
   1  -1 -34   72.09    5.10
   0   1 -34   74.79    5.10
  -1   0 -34   69.89    5.10
  -1   0 -34   62.29    6.20
   1  -1 -34   60.09    5.70
   0   1 -34   67.59    6.10
  -1   1  34   65.29    4.90
   1   0  34   67.09    4.90
   0  -1  34   69.09    4.90
   1  -3  34   35.50    2.60
   2   0 -34   47.70    3.70
  -2   2 -34   52.79    3.80
   0   2  34   49.70    3.70
   0   2  34   48.70    3.60
   2  -2  34   48.10    3.60
   0  -1 -35  920.11   57.19
  -1   1 -35  856.41   58.29
   1   0 -35  779.32   57.99
  -1   0  35  885.41   57.09
   1  -1  35  843.82   57.29
   0   1  35  804.62   57.19
   2  -2 -35  612.74   39.00
  -2   0 -35  597.54   39.10
   2   0  35  577.04   39.00
  -2   2  35  550.74   38.90
   0  -2  35  551.14   38.90
   0   0 -36   94.59    6.50
   0   0  36   76.89    6.20
   2  -1 -36   37.30    2.90
   1  -2  36   38.30    2.80
   1   1  36   39.20    2.80
  -2   1 -36   36.20    2.90
   1   1 -36   41.50    2.90
  -1   2  36   37.90    2.80
   2  -1  36   40.40    2.80
  -1  -1  36   36.70    2.80
  -1   0 -37   10.80    1.20
   0   1 -37   12.10    1.20
   1  -1 -37   11.70    1.10
   1   0  37    8.60    1.00
   0  -1  37   12.20    1.00
   1   0 -38  551.24   41.90
   0  -1 -38  684.33   41.80
  -1   0  38  588.34   41.50
   0   1  38  643.84   41.60
   0   0 -39   32.00    2.50
   0   0  39   31.60    2.30
   0   0   0    0.00    0.00

_computing_structure_solution     'SHELXT 2014/5 (Sheldrick, 2014)'
;
_shelx_hkl_checksum              88938
_shelx_fab_file
;
    0    0   39      0.00      0.00
    0    1   38      0.00      0.00
   -1    1   37      0.00      0.00
    0    0   36      0.00      0.00
   -1    2   36      0.00      0.00
    1    1   36      0.00      0.00
    0    1   35      0.00      0.00
   -2    2   35      0.00      0.00
   -1    1   34      0.00      0.00
    0    2   34      0.00      0.00
    0    0   33      0.00      0.00
   -1    2   33      0.00      0.00
    1    1   33      0.00      0.00
    0    1   32      0.00      0.00
   -1    3   32      0.00      0.00
   -2    2   32      0.00      0.00
    1    2   32      0.00      0.00
   -1    1   31      0.00      0.00
    0    2   31      0.00      0.00
   -2    3   31      0.00      0.00
   -3    2   31      0.00      0.00
    0    0   30      0.00      0.00
   -1    2   30      0.00      0.00
    1    1   30      0.00      0.00
    0    3   30      0.00      0.00
   -3    3   30      0.00      0.00
    0    1   29      0.00      0.00
   -1    3   29      0.00      0.00
   -2    2   29      0.00      0.00
    1    2   29      0.00      0.00
    0    2   28      0.00      0.00
   -2    3   28      0.00      0.00
   -1    4   28      0.00      0.00
   -3    2   28      0.00      0.00
    1    3   28      0.00      0.00
    0    0   27      0.00      0.00
   -1    2   27      0.00      0.00
    1    1   27      0.00      0.00
   -2    4   27      0.00      0.00
    0    3   27      0.00      0.00
   -3    3   27      0.00      0.00
    2    2   27      0.00      0.00
    0    1   26      0.00      0.00
   -1    3   26      0.00      0.00
   -2    2   26      0.00      0.00
    1    2   26      0.00      0.00
   -3    4   26      0.00      0.00
   -4    3   26      0.00      0.00
    0    2   25      0.00      0.00
   -2    3   25      0.00      0.00
   -1    4   25      0.00      0.00
   -3    2   25      0.00      0.00
    1    3   25      0.00      0.00
    0    0   24      0.00      0.00
   -1    2   24      0.00      0.00
    1    1   24      0.00      0.00
   -2    4   24      0.00      0.00
    0    3   24      0.00      0.00
   -3    3   24      0.00      0.00
    2    2   24      0.00      0.00
   -1    3   23      0.00      0.00
   -2    2   23      0.00      0.00
    1    2   23      0.00      0.00
   -3    4   23      0.00      0.00
    0    4   23      0.00      0.00
   -4    3   23      0.00      0.00
   -1    1   22      0.00      0.00
    0    2   22      0.00      0.00
   -2    3   22      0.00      0.00
   -1    4   22      0.00      0.00
   -3    2   22      0.00      0.00
    1    3   22      0.00      0.00
   -4    4   22      0.00      0.00
    0    0   21      0.00      0.00
   -1    2   21      0.00      0.00
    1    1   21      0.00      0.00
   -2    4   21      0.00      0.00
    0    3   21      0.00      0.00
   -3    3   21      0.00      0.00
    2    2   21      0.00      0.00
    0    1   20      0.00      0.00
   -1    3   20      0.00      0.00
   -2    5   20      0.00      0.00
    1    2   20      0.00      0.00
   -3    4   20      0.00      0.00
    0    4   20      0.00      0.00
   -4    3   20      0.00      0.00
    2    3   20      0.00      0.00
   -1    1   19      0.00      0.00
    0    2   19      0.00      0.00
   -2    3   19      0.00      0.00
   -1    4   19      0.00      0.00
   -3    2   19      0.00      0.00
   -3    5   19      0.00      0.00
    1    3   19      0.00      0.00
   -4    4   19      0.00      0.00
   -5    3   19      0.00      0.00
   -2    4   18      0.00      0.00
    0    3   18      0.00      0.00
   -3    3   18      0.00      0.00
   -1    5   18      0.00      0.00
    2    2   18      0.00      0.00
   -4    5   18      0.00      0.00
    1    4   18      0.00      0.00
   -5    4   18      0.00      0.00
    0    1   17      0.00      0.00
   -1    3   17      0.00      0.00
   -2    2   17      0.00      0.00
   -2    5   17      0.00      0.00
    1    2   17      0.00      0.00
   -3    4   17      0.00      0.00
    0    4   17      0.00      0.00
   -4    3   17      0.00      0.00
    2    3   17      0.00      0.00
   -1    1   16      0.00      0.00
    0    2   16      0.00      0.00
   -2    3   16      0.00      0.00
   -1    4   16      0.00      0.00
   -3    2   16      0.00      0.00
   -3    5   16      0.00      0.00
    1    3   16      0.00      0.00
   -4    4   16      0.00      0.00
   -5    3   16      0.00      0.00
   -1    2   15      0.00      0.00
    1    1   15      0.00      0.00
   -2    4   15      0.00      0.00
   -1    5   15      0.00      0.00
    2    2   15      0.00      0.00
   -4    5   15      0.00      0.00
    1    4   15      0.00      0.00
   -5    4   15      0.00      0.00
    0    1   14      0.00      0.00
   -1    3   14      0.00      0.00
   -2    2   14      0.00      0.00
   -2    5   14      0.00      0.00
    1    2   14      0.00      0.00
   -3    4   14      0.00      0.00
    0    4   14      0.00      0.00
   -4    3   14      0.00      0.00
    2    3   14      0.00      0.00
    0    2   13      0.00      0.00
   -2    3   13      0.00      0.00
   -1    4   13      0.00      0.00
   -3    2   13      0.00      0.00
   -3    5   13      0.00      0.00
    1    3   13      0.00      0.00
   -4    4   13      0.00      0.00
   -5    3   13      0.00      0.00
   -1    2   12      0.00      0.00
    1    1   12      0.00      0.00
   -2    4   12      0.00      0.00
    0    3   12      0.00      0.00
   -3    3   12      0.00      0.00
   -1    5   12      0.00      0.00
    2    2   12      0.00      0.00
    1    4   12      0.00      0.00
   -5    4   12      0.00      0.00
    0    1   11      0.00      0.00
   -1    3   11      0.00      0.00
   -2    2   11      0.00      0.00
   -2    5   11      0.00      0.00
    1    2   11      0.00      0.00
   -3    4   11      0.00      0.00
    0    4   11      0.00      0.00
   -4    3   11      0.00      0.00
    2    3   11      0.00      0.00
   -5    5   11      0.00      0.00
   -1    4   10      0.00      0.00
   -3    5   10      0.00      0.00
    1    3   10      0.00      0.00
   -4    4   10      0.00      0.00
    0    5   10      0.00      0.00
   -5    3   10      0.00      0.00
    0    0    9      0.00      0.00
   -1    2    9      0.00      0.00
    1    1    9      0.00      0.00
   -2    4    9      0.00      0.00
    0    3    9      0.00      0.00
   -3    3    9      0.00      0.00
   -1    5    9      0.00      0.00
    2    2    9      0.00      0.00
   -4    5    9      0.00      0.00
    1    4    9      0.00      0.00
   -5    4    9      0.00      0.00
   -1    3    8      0.00      0.00
   -2    5    8      0.00      0.00
    1    2    8      0.00      0.00
   -3    4    8      0.00      0.00
    0    4    8      0.00      0.00
   -4    3    8      0.00      0.00
    2    3    8      0.00      0.00
   -5    5    8      0.00      0.00
   -2    3    7      0.00      0.00
   -1    4    7      0.00      0.00
   -3    2    7      0.00      0.00
   -3    5    7      0.00      0.00
    1    3    7      0.00      0.00
   -4    4    7      0.00      0.00
    0    5    7      0.00      0.00
   -5    3    7      0.00      0.00
    0    0    6      0.00      0.00
   -1    2    6      0.00      0.00
    1    1    6      0.00      0.00
   -2    4    6      0.00      0.00
    0    3    6      0.00      0.00
   -3    3    6      0.00      0.00
   -1    5    6      0.00      0.00
    2    2    6      0.00      0.00
   -4    5    6      0.00      0.00
    1    4    6      0.00      0.00
   -5    4    6      0.00      0.00
   -2    5    5      0.00      0.00
   -3    4    5      0.00      0.00
    0    4    5      0.00      0.00
   -4    3    5      0.00      0.00
    2    3    5      0.00      0.00
   -5    5    5      0.00      0.00
    0    2    4      0.00      0.00
   -2    3    4      0.00      0.00
   -1    4    4      0.00      0.00
   -3    2    4      0.00      0.00
   -3    5    4      0.00      0.00
    1    3    4      0.00      0.00
   -4    4    4      0.00      0.00
    0    5    4      0.00      0.00
   -5    3    4      0.00      0.00
   -2    4    3      0.00      0.00
   -3    3    3      0.00      0.00
   -1    5    3      0.00      0.00
    2    2    3      0.00      0.00
   -4    5    3      0.00      0.00
    1    4    3      0.00      0.00
   -5    4    3      0.00      0.00
    3    3    3      0.00      0.00
   -1    3    2      0.00      0.00
   -2    5    2      0.00      0.00
    1    2    2      0.00      0.00
   -3    4    2      0.00      0.00
    0    4    2      0.00      0.00
   -4    3    2      0.00      0.00
    2    3    2      0.00      0.00
   -5    5    2      0.00      0.00
   -1    1    1      0.00      0.00
    0    2    1      0.00      0.00
   -2    3    1      0.00      0.00
   -1    4    1      0.00      0.00
   -3    2    1      0.00      0.00
   -3    5    1      0.00      0.00
    1    3    1      0.00      0.00
   -4    4    1      0.00      0.00
    0    5    1      0.00      0.00
   -5    3    1      0.00      0.00
   -3    6    0      0.00      0.00
   -1    5    0      0.00      0.00
   -4    5    0      0.00      0.00
    0    3    3      0.00      0.00
   -3    6    3      0.00      0.00
   -1    1    4      0.00      0.00
   -4    5   12      0.00      0.00
    0    3   15      0.00      0.00
    1    1   18      0.00      0.00
    0    1   23      0.00      0.00
   -1    1   28      0.00      0.00
   -3    2   34      0.00      0.00
    0    0    0      0.00      0.00
# SQUEEZE RESULTS (Version = 201118)
# Note: Data are Listed for all Voids in the P1 Unit Cell
# i.e. Centre of Gravity, Solvent Accessible Volume,
# Recovered number of Electrons in the Void and
# Details about the Squeezed Material
loop_
  _platon_squeeze_void_nr
  _platon_squeeze_void_average_x
  _platon_squeeze_void_average_y
  _platon_squeeze_void_average_z
  _platon_squeeze_void_volume
  _platon_squeeze_void_count_electrons
  _platon_squeeze_void_content
_platon_squeeze_void_probe_radius                  1.20
_platon_squeeze_details
)
TITL ZNZ5655_0m_b     R 3 :h       R = 0.09
CELL    4.5319    4.5319   29.6290     90.00     90.00    120.00
SPGR R3
# Solvent Accessible Volume =         0
# Electrons Found in S.A.V. =         0
# Note: Atoms in Void are Labelled as Cxxx and Qxxx for all Others
Q101 1.001 1.000 0.969 !       3.47 eA-3
Q102 0.748 0.247 0.141 !       2.92 eA-3
Q103 0.753 0.488 0.139 !       2.92 eA-3
Q104 0.999 1.016 0.594 !       2.87 eA-3
Q105 0.651 0.317 0.274 !       2.79 eA-3
Q106 0.624 0.164 0.093 !       2.77 eA-3
Q107 0.998 0.880 0.757 !       2.74 eA-3
Q108 0.885 0.078 0.804 !       2.49 eA-3
Q109 1.000 1.029 0.063 !       2.46 eA-3
Q110 0.999 1.012 0.719 !       2.37 eA-3
Q111 0.947 0.063 0.154 !       2.32 eA-3
Q112 1.001 1.017 0.625 !       2.31 eA-3
Q113 0.241 0.491 0.041 !       2.27 eA-3
Q114 0.999 1.019 0.500 !       2.23 eA-3
Q115 0.209 0.560 0.077 !       2.15 eA-3
Q116 0.071 0.099 0.195 !       2.09 eA-3
Q117 0.639 0.325 0.180 !       2.04 eA-3
Q118 1.002 0.953 0.851 !       2.04 eA-3
Q119 1.000 1.022 0.281 !       1.84 eA-3
Q120 0.248 0.571 0.688 !       1.68 eA-3
Q121 0.999 0.976 0.899 !       1.59 eA-3
Q122 0.443 0.811 0.211 !       1.56 eA-3
Q123 1.001 0.990 0.672 !       1.46 eA-3
Q124 0.764 0.850 0.071 !       1.32 eA-3
Q125 1.000 0.997 0.109 !       1.31 eA-3
Q126 0.455 0.256 0.618 !       1.23 eA-3
Q127 0.554 0.842 0.163 !       1.21 eA-3
Q128 0.878 0.413 0.666 !       1.08 eA-3
Q129 0.766 0.676 0.454 !       1.07 eA-3
Q130 0.435 0.199 0.572 !       1.06 eA-3
Q131 0.999 1.014 0.453 !       0.98 eA-3
Q132 0.547 0.931 0.783 !       0.92 eA-3
Q133 0.181 0.362 0.556 !       0.87 eA-3
Q134 0.065 0.372 0.906 !       0.77 eA-3
Q135 0.421 0.469 0.000 !       0.74 eA-3
Q136 0.067 0.512 0.343 !       0.69 eA-3
Q137 0.234 0.939 0.330 !       0.51 eA-3
)
;
_shelx_fab_checksum              91944
loop_
_space_group_symop_operation_xyz
'x, y, z'
'-y, x-y, z'
'-x+y, -x, z'
'x+2/3, y+1/3, z+1/3'
'-y+2/3, x-y+1/3, z+1/3'
'-x+y+2/3, -x+1/3, z+1/3'
'x+1/3, y+2/3, z+2/3'
'-y+1/3, x-y+2/3, z+2/3'
'-x+y+1/3, -x+2/3, z+2/3'
loop_
_atom_site_label
_atom_site_type_symbol
_atom_site_fract_x
_atom_site_fract_y
_atom_site_fract_z
_atom_site_U_iso_or_equiv
_atom_site_adp_type
_atom_site_occupancy
_atom_site_site_symmetry_order
_atom_site_calc_flag
_atom_site_refinement_flags_posn
_atom_site_refinement_flags_adp
_atom_site_refinement_flags_occupancy
_atom_site_disorder_assembly
_atom_site_disorder_group
Pb1 Pb 2.000000 1.000000 0.7848(2) 0.0505(15) Uani 1 3 d S T P A .
I1 I 1.666667 0.333333 0.7194(2) 0.033(2) Uani 1 3 d S T P . .
I2 I 1.333333 0.666667 0.84637(17) 0.040(3) Uani 1 3 d S T P . .
N_1 N 1.29(5) 0.11(4) 0.668(4) 0.059(11) Uani 0.3333 1 d D U P A -1
CA_1 C 1.37(5) 0.17(3) 0.619(4) 0.059(8) Uani 0.3333 1 d D U P A -1
HAA_1 H 1.602236 0.361759 0.614606 0.071 Uiso 0.3333 1 calc R U P A -1
HAAB_1 H 1.206161 0.226935 0.604236 0.071 Uiso 0.3333 1 calc R U P A -1
C_1 C 1.33(2) -0.164(16) 0.601(2) 0.059(8) Uani 0.3333 1 d D U P A -1
O_1 O 1.325132 -0.379543 0.625274 0.056 Uani 0.3333 1 d D U P A -1
OXT_1 O 1.30(4) -0.19(3) 0.557(2) 0.062(11) Uani 0.3333 1 d D U P A -1
loop_
_atom_site_aniso_label
_atom_site_aniso_U_11
_atom_site_aniso_U_22
_atom_site_aniso_U_33
_atom_site_aniso_U_23
_atom_site_aniso_U_13
_atom_site_aniso_U_12
Pb1 0.0524(17) 0.0524(17) 0.047(2) 0.000 0.000 0.0262(8)
I1 0.033(3) 0.033(3) 0.032(3) 0.000 0.000 0.0167(15)
I2 0.040(4) 0.040(4) 0.039(4) 0.000 0.000 0.020(2)
N_1 0.046(16) 0.064(14) 0.064(14) -0.002(12) -0.001(14) 0.024(13)
CA_1 0.044(15) 0.064(11) 0.065(13) -0.002(11) 0.000(13) 0.023(11)
C_1 0.044(15) 0.064(11) 0.066(12) -0.002(9) 0.001(12) 0.023(10)
O_1 0.025 0.065 0.074 0.004 0.006 0.019
OXT_1 0.042(18) 0.066(17) 0.066(12) -0.003(12) 0.003(15) 0.020(16)
loop_
_atom_type_symbol
_atom_type_description
_atom_type_scat_dispersion_real
_atom_type_scat_dispersion_imag
_atom_type_scat_source
C C 0.0137 0.0067 'International Tables Vol C Tables 4.2.6.8 and 6.1.1.4'
H H 0.0000 0.0000 'International Tables Vol C Tables 4.2.6.8 and 6.1.1.4'
I I 0.0030 5.4350 'International Tables Vol C Tables 4.2.6.8 and 6.1.1.4'
N N 0.0241 0.0134 'International Tables Vol C Tables 4.2.6.8 and 6.1.1.4'
O O 0.0389 0.0241 'International Tables Vol C Tables 4.2.6.8 and 6.1.1.4'
Pb Pb -4.4950 6.8412 'International Tables Vol C Tables 4.2.6.8 and 6.1.1.4'
loop_
_geom_angle_atom_site_label_1
_geom_angle_atom_site_label_2
_geom_angle_atom_site_label_3
_geom_angle
_geom_angle_site_symmetry_1
_geom_angle_site_symmetry_3
_geom_angle_publ_flag
I2 Pb1 I2 90.56(18) 1_665 1_655 ?
I2 Pb1 I2 90.56(18) 1_665 . ?
I2 Pb1 I2 90.56(18) 1_655 . ?
I2 Pb1 I1 178.3(2) 1_665 . ?
I2 Pb1 I1 90.61(9) 1_655 . ?
I2 Pb1 I1 90.61(9) . . ?
I2 Pb1 I1 90.61(9) 1_665 1_665 ?
I2 Pb1 I1 90.61(9) 1_655 1_665 ?
I2 Pb1 I1 178.3(2) . 1_665 ?
I1 Pb1 I1 88.2(2) . 1_665 ?
I2 Pb1 I1 90.61(9) 1_665 1_565 ?
I2 Pb1 I1 178.3(2) 1_655 1_565 ?
I2 Pb1 I1 90.61(9) . 1_565 ?
I1 Pb1 I1 88.2(2) . 1_565 ?
I1 Pb1 I1 88.2(2) 1_665 1_565 ?
N_1 I1 Pb1 139(4) . . ?
N_1 I1 Pb1 131(5) . 1_545 ?
Pb1 I1 Pb1 88.2(2) . 1_545 ?
N_1 I1 Pb1 82(4) . 1_445 ?
Pb1 I1 Pb1 88.2(2) . 1_445 ?
Pb1 I1 Pb1 88.2(2) 1_545 1_445 ?
Pb1 I2 Pb1 90.56(18) 1_445 1_455 ?
Pb1 I2 Pb1 90.56(18) 1_445 . ?
Pb1 I2 Pb1 90.56(18) 1_455 . ?
CA_1 N_1 I1 123(10) . . ?
N_1 CA_1 C_1 105(6) . . ?
N_1 CA_1 HAA_1 110.8 . . ?
C_1 CA_1 HAA_1 110.9 . . ?
N_1 CA_1 HAAB_1 110.6 . . ?
C_1 CA_1 HAAB_1 110.7 . . ?
HAA_1 CA_1 HAAB_1 108.8 . . ?
O_1 C_1 OXT_1 125(5) . . ?
O_1 C_1 CA_1 123(5) . . ?
OXT_1 C_1 CA_1 113(5) . . ?
loop_
_geom_bond_atom_site_label_1
_geom_bond_atom_site_label_2
_geom_bond_distance
_geom_bond_site_symmetry_2
_geom_bond_publ_flag
Pb1 I2 3.189(5) 1_665 ?
Pb1 I2 3.189(5) 1_655 ?
Pb1 I2 3.189(5) . ?
Pb1 I1 3.256(6) . ?
Pb1 I1 3.256(6) 1_665 ?
Pb1 I1 3.256(6) 1_565 ?
I1 N_1 2.13(18) . ?
N_1 CA_1 1.47(7) . ?
CA_1 C_1 1.54(4) . ?
CA_1 HAA_1 0.9900 . ?
CA_1 HAAB_1 0.9900 . ?
C_1 O_1 1.21(3) . ?
C_1 OXT_1 1.31(3) . ?
