#------------------------------------------------------------------------------
#$Date: 2021-06-04 03:58:57 +0300 (Fri, 04 Jun 2021) $
#$Revision: 265752 $
#$URL: file:///home/coder/svn-repositories/cod/cif/4/51/87/4518718.cif $
#------------------------------------------------------------------------------
#
# This file is available in the Crystallography Open Database (COD),
# http://www.crystallography.net/
#
# All data on this site have been placed in the public domain by the
# contributors.
#
data_4518718
loop_
_publ_author_name
'Sobczak, Szymon'
'Ratajczyk, Paulina'
'Katrusiak, Andrzej'
_publ_section_title
;
 Squeezing Out the Catalysts: A Sustainable Approach to Disulfide Bond
 Exchange in Aryl Disulfides
;
_journal_issue                   20
_journal_name_full               'ACS Sustainable Chemistry &amp; Engineering'
_journal_page_first              7171
_journal_page_last               7178
_journal_paper_doi               10.1021/acssuschemeng.1c02240
_journal_volume                  9
_journal_year                    2021
_chemical_formula_moiety         'C12 H8 Cl N O2 S2'
_chemical_formula_sum            'C12 H8 Cl N O2 S2'
_chemical_formula_weight         297.76
_space_group_crystal_system      triclinic
_space_group_IT_number           2
_space_group_name_Hall           '-P 1'
_space_group_name_H-M_alt        'P -1'
_atom_sites_solution_hydrogens   geom
_audit_creation_date             2020-09-22
_audit_creation_method
;
Olex2 1.3
(compiled 2020.07.31 svn.rc2a77460 for OlexSys, GUI svn.r6145)
;
_audit_update_record
;
2020-09-23 deposited with the CCDC.	2020-09-24 downloaded from the CCDC.
;
_cell_angle_alpha                77.313(7)
_cell_angle_beta                 81.768(8)
_cell_angle_gamma                74.085(9)
_cell_formula_units_Z            2
_cell_length_a                   7.4862(8)
_cell_length_b                   7.6173(7)
_cell_length_c                   12.2600(9)
_cell_measurement_reflns_used    629
_cell_measurement_temperature    299.8(2)
_cell_measurement_theta_max      42.1740
_cell_measurement_theta_min      6.1570
_cell_volume                     653.34(11)
_computing_cell_refinement       'CrysAlisPro 1.171.39.43a (Rigaku OD, 2018)'
_computing_data_collection       'CrysAlisPro 1.171.39.43a (Rigaku OD, 2018)'
_computing_data_reduction        'CrysAlisPro 1.171.39.43a (Rigaku OD, 2018)'
_computing_molecular_graphics    'Olex2 1.3 (Dolomanov et al., 2009)'
_computing_publication_material  'Olex2 1.3 (Dolomanov et al., 2009)'
_computing_structure_refinement  'SHELXL 2018/1 (Sheldrick, 2015)'
_computing_structure_solution    'SHELXT 2018/2 (Sheldrick, 2018)'
_diffrn_ambient_temperature      299.8(2)
_diffrn_detector                 'CCD plate'
_diffrn_detector_area_resol_mean 10.5357
_diffrn_detector_type            Atlas
_diffrn_measured_fraction_theta_full 0.862
_diffrn_measured_fraction_theta_max 0.862
_diffrn_measurement_details
;
List of Runs (angles in degrees, time in seconds):

  # Type    Start    End  Width  t~exp~   \w     \q     \k     \f   Frames
#--------------------------------------------------------------------------
  1  \w    -63.00  33.00   1.00    7.92    --  -41.84  37.00  30.00   96
  2  \w   -110.00 -16.00   1.00    7.92    --  -41.84 -57.00  90.00   94
  3  \w    -63.00  31.00   1.00    7.92    --  -41.84  57.00-120.00   94
  4  \w     34.00  60.00   1.00    7.92    --   41.84-125.00 -60.00   26
  5  \w     46.00  58.00   1.00    7.92    --   41.84-125.00  60.00   12
;
_diffrn_measurement_device       'four-circle diffractometer'
_diffrn_measurement_device_type
'SuperNova, Single source at offset/far, Atlas'
_diffrn_measurement_method       '\w scans'
_diffrn_orient_matrix_type
'CrysAlisPro convention (1999,Acta A55,543-557)'
_diffrn_orient_matrix_UB_11      0.1455985000
_diffrn_orient_matrix_UB_12      -0.1880874000
_diffrn_orient_matrix_UB_13      0.0032136000
_diffrn_orient_matrix_UB_21      -0.1568071000
_diffrn_orient_matrix_UB_22      -0.1020220000
_diffrn_orient_matrix_UB_23      0.0338527000
_diffrn_orient_matrix_UB_31      -0.0191118000
_diffrn_orient_matrix_UB_32      0.0095430000
_diffrn_orient_matrix_UB_33      -0.1247571000
_diffrn_radiation_monochromator  mirror
_diffrn_radiation_probe          x-ray
_diffrn_radiation_type           'Cu K\a'
_diffrn_radiation_wavelength     1.54184
_diffrn_reflns_av_R_equivalents  0.0038
_diffrn_reflns_av_unetI/netI     0.0112
_diffrn_reflns_Laue_measured_fraction_full 0.862
_diffrn_reflns_Laue_measured_fraction_max 0.862
_diffrn_reflns_limit_h_max       6
_diffrn_reflns_limit_h_min       -4
_diffrn_reflns_limit_k_max       6
_diffrn_reflns_limit_k_min       -6
_diffrn_reflns_limit_l_max       9
_diffrn_reflns_limit_l_min       -9
_diffrn_reflns_number            1021
_diffrn_reflns_point_group_measured_fraction_full 0.862
_diffrn_reflns_point_group_measured_fraction_max 0.862
_diffrn_reflns_theta_full        42.707
_diffrn_reflns_theta_max         42.707
_diffrn_reflns_theta_min         7.436
_diffrn_source                   'micro-focus sealed X-ray tube'
_diffrn_source_type              'SuperNova (Cu) X-ray Source'
_exptl_absorpt_coefficient_mu    5.524
_exptl_absorpt_correction_T_max  1.00000
_exptl_absorpt_correction_T_min  0.63733
_exptl_absorpt_correction_type   gaussian
_exptl_absorpt_process_details
;
CrysAlisPro 1.171.39.43a (Rigaku Oxford Diffraction, 2018)
Empirical absorption correction using spherical harmonics,
 implemented in SCALE3 ABSPACK scaling algorithm.
;
_exptl_crystal_colour            'clear colourless'
_exptl_crystal_colour_lustre     clear
_exptl_crystal_colour_primary    colourless
_exptl_crystal_density_diffrn    1.514
_exptl_crystal_description       block
_exptl_crystal_F_000             304
_exptl_crystal_size_max          0.1
_exptl_crystal_size_mid          0.08
_exptl_crystal_size_min          0.04
_refine_diff_density_max         0.133
_refine_diff_density_min         -0.126
_refine_diff_density_rms         0.031
_refine_ls_extinction_method     none
_refine_ls_goodness_of_fit_ref   1.078
_refine_ls_hydrogen_treatment    constr
_refine_ls_matrix_type           full
_refine_ls_number_parameters     188
_refine_ls_number_reflns         803
_refine_ls_number_restraints     107
_refine_ls_restrained_S_all      1.258
_refine_ls_R_factor_all          0.0433
_refine_ls_R_factor_gt           0.0393
_refine_ls_shift/su_max          0.000
_refine_ls_shift/su_mean         0.000
_refine_ls_structure_factor_coef Fsqd
_refine_ls_weighting_details
'w=1/[\s^2^(Fo^2^)+(0.0530P)^2^+0.5730P] where P=(Fo^2^+2Fc^2^)/3'
_refine_ls_weighting_scheme      calc
_refine_ls_wR_factor_gt          0.1005
_refine_ls_wR_factor_ref         0.1035
_reflns_Friedel_coverage         0.000
_reflns_number_gt                711
_reflns_number_total             803
_reflns_threshold_expression     'I > 2\s(I)'
_cod_data_source_file            sc1c02240_si_001.cif
_cod_data_source_block           4no2-ss_4cl
_cod_depositor_comments
'Adding full bibliography for 4518716--4518724.cif.'
_cod_database_code               4518718
_shelx_shelxl_version_number     2018/1
_chemical_oxdiff_formula         C12H8ClNO2S2
_shelx_space_group_comment
;
The symmetry employed for this shelxl refinement is uniquely defined
by the following loop, which should always be used as a source of
symmetry information in preference to the above space-group names.
They are only intended as comments.
;
_shelx_estimated_absorpt_t_max   0.809
_shelx_estimated_absorpt_t_min   0.608
_reflns_odcompleteness_completeness 32.81
_reflns_odcompleteness_iscentric 1
_reflns_odcompleteness_theta     69.95
_olex2_refinement_description
;
1. Fixed Uiso
 At 1.2 times of:
  All C(H) groups
2. Restrained distances
 O2'-O1'
 2.1 with sigma of 0.02
 N1'-O2'
 1.2 with sigma of 0.02
 N1'-O1'
 1.2 with sigma of 0.02
 O1'-N1' \\sim O2'-N1' \\sim O1-N1 \\sim O2-N1
 with sigma of 0.02
 N1'-C4' \\sim N1-C4
 with sigma of 0.02
3. Restrained planarity
 O2', N1', C4', O1', C3', C5'
 with sigma of 0.1
4. Rigid bond restraints
 O1', N1', O2'
 with sigma for 1-2 distances of 0.01 and sigma for 1-3 distances of 0.01
 C3', C2', C1', C6', C5', C4'
 with sigma for 1-2 distances of 0.01 and sigma for 1-3 distances of 0.01
5. Uiso/Uaniso restraints and constraints
O1' \\sim N1' \\sim O2': within 2A with sigma of 0.04 and sigma for terminal
atoms of 0.08 within 2A
C3' \\sim C4' \\sim C5' \\sim C6' \\sim C1' \\sim C2': within 2A with sigma of
0.04 and sigma for terminal atoms of 0.08 within 2A
Uanis(O2') \\sim Ueq, Uanis(N1') \\sim Ueq: with sigma of 0.1 and sigma for
terminal atoms of 0.2
Uanis(N1') \\sim Ueq, Uanis(O2') \\sim Ueq: with sigma of 0.01 and sigma for
terminal atoms of 0.02
Uanis(N1') \\sim Ueq: with sigma of 0.008 and sigma for terminal atoms of 0.016
6. Rigid body (RIGU) restrains
 O1, O2, N1, Cl1
 with sigma for 1-2 distances of 0.004 and sigma for 1-3 distances of 0.004
 N1', O1', O2', Cl1'
 with sigma for 1-2 distances of 0.004 and sigma for 1-3 distances of 0.004
 O2', N1', O1'
 with sigma for 1-2 distances of 0.004 and sigma for 1-3 distances of 0.004
 O1', N1', O2'
 with sigma for 1-2 distances of 0.004 and sigma for 1-3 distances of 0.004
7. Others
 1*[Sof(Cl1')+Sof(O1)+Sof(O2)+Sof(N1)+Sof(Cl1)+Sof(O2')+Sof(O1')+Sof(N1')]=1
 with esd of 0.01
 Sof(Cl1)=Sof(O2')=Sof(O1')=Sof(N1')=1-FVAR(1)
 Sof(Cl1')=Sof(O1)=Sof(O2)=Sof(N1)=FVAR(1)
8.a Aromatic/amide H refined with riding coordinates:
 C3'(H3'), C5'(H5'), C6'(H6'), C2'(H2'), C5(H5), C6(H6), C2(H2), C3(H3)
8.b Fitted hexagon refined as free rotating group:
 C4(C5,C6,C1,C2,C3)
;
_shelx_res_file
;
TITL kom29i_crys2_a.res in P-1
    4no2-ss_4cl.res
    created by SHELXL-2018/1 at 13:57:13 on 22-Sep-2020
REM Old TITL kom29i_crys2 in P-1
REM SHELXT solution in P-1: R1 0.191, Rweak 0.028, Alpha 0.070
REM <I/s> 0.000 for 0 systematic absences, Orientation as input
REM Formula found by SHELXT: C14 N S1' Cl
CELL 1.54184 7.4862 7.6173 12.26 77.313 81.768 74.085
ZERR 2 0.0008 0.0007 0.0009 0.007 0.008 0.009
LATT 1
SFAC C H Cl N O S
UNIT 24 16 2 2 4 4
DFIX 2.1 O2' O1'
SADI O1' N1' O2' N1' O1 N1 O2 N1
DFIX 1.2 N1' O2'
SADI N1' C4' N1 C4
RIGU O1 O2 N1 Cl1
DFIX 1.2 N1' O1'
RIGU N1' O1' O2' Cl1'
FLAT O2' N1' C4' O1' C3' C5'
RIGU O2' N1' O1'
ISOR O2' N1'
ISOR 0.01 0.02 N1' O2'
ISOR 0.008 0.016 N1'
RIGU O1' N1' O2'
SIMU O1' N1' O2'
DELU O1' N1' O2'
DELU C3' C2' C1' C6' C5' C4'
SIMU C3' C4' C5' C6' C1' C2'
SUMP 1 0.01 1 2

L.S. 44
PLAN  1
SIZE 0.08 0.1 0.04
TEMP 26.7(2)
CONF
FREE O1' O2'
FREE O1 O2
list 4
MORE -1
BOND $H
fmap 2 53
acta
OMIT 0 -1 1
OMIT 1 1 1
OMIT 0 0 1
OMIT 1 0 1
OMIT 1 0 0
OMIT 0 2 0
OMIT 0 1 1
OMIT 0 1 0
REM <olex2.extras>
REM <HklSrc "%.\\4NO2-SS_4Cl.hkl">
REM </olex2.extras>

WGHT    0.053000    0.573000
FVAR       0.94039   0.80889
PART 1
CL1'  3    0.278352    0.919407   -0.122282    21.00000    0.14269    0.11958 =
         0.21032    0.00218   -0.00961   -0.03630
PART 0
S1'   6    0.190580    0.167094    0.194882    11.00000    0.12908    0.08338 =
         0.15860   -0.03185   -0.03165   -0.03055
S1    6    0.038868    0.224623    0.338644    11.00000    0.09866    0.12315 =
         0.16257   -0.01385   -0.01426   -0.04624
PART 1
O1    5    0.480061    0.293952    0.742862    21.00000    0.20162    0.17133 =
         0.12707   -0.06408   -0.02493   -0.03262
O2    5    0.692994    0.265904    0.630784    21.00000    0.13151    0.16412 =
         0.15118   -0.03076   -0.03852   -0.04553
N1    4    0.537081    0.272018    0.654201    21.00000    0.12880    0.09372 =
         0.11362   -0.03601   -0.03524   -0.02058
PART 0
C3'   1    0.191822    0.707315    0.079503    11.00000    0.10336    0.07961 =
         0.11438   -0.03736   -0.02003   -0.01745
AFIX  43
H3'   2    0.169269    0.816426    0.107177    11.00000   -1.20000
AFIX   0
C5'   1    0.280990    0.547806   -0.072035    11.00000    0.09883    0.11070 =
         0.10900   -0.04165   -0.02362   -0.01058
AFIX  43
H5'   2    0.318669    0.547778   -0.147685    11.00000   -1.20000
AFIX   0
C6'   1    0.261655    0.385804   -0.001382    11.00000    0.09963    0.09006 =
         0.13471   -0.05932   -0.02899   -0.00782
AFIX  43
H6'   2    0.286170    0.276800   -0.029411    11.00000   -1.20000
AFIX   0
C2'   1    0.170882    0.547033    0.151339    11.00000    0.10455    0.08666 =
         0.10074   -0.03440   -0.01172   -0.02046
AFIX  43
H2'   2    0.133181    0.548117    0.226890    11.00000   -1.20000
AFIX  66
C4    1    0.427470    0.263067    0.579357    11.00000    0.10410    0.06523 =
         0.08922   -0.00870   -0.01027   -0.01195
C5    1    0.500047    0.247519    0.470017    11.00000    0.08824    0.09107 =
         0.10348   -0.00881   -0.00577   -0.02114
AFIX  43
H5    2    0.624448    0.246451    0.448043    11.00000   -1.20000
AFIX  65
C6    1    0.386695    0.233568    0.393520    11.00000    0.08682    0.09685 =
         0.10121   -0.01413    0.00665   -0.02682
AFIX  43
H6    2    0.435255    0.223166    0.320364    11.00000   -1.20000
AFIX  65
C1    1    0.200764    0.235165    0.426363    11.00000    0.09648    0.07682 =
         0.10177   -0.00148    0.00693   -0.02554
C2    1    0.128184    0.250712    0.535703    11.00000    0.08472    0.11194 =
         0.13396   -0.00462    0.00506   -0.02540
AFIX  43
H2    2    0.003783    0.251780    0.557676    11.00000   -1.20000
AFIX  65
C3    1    0.241534    0.264663    0.612201    11.00000    0.09533    0.09903 =
         0.12220   -0.00508    0.01596   -0.00552
AFIX  43
H3    2    0.192973    0.275065    0.685357    11.00000   -1.20000
AFIX   0
C4'   1    0.245243    0.709193   -0.031969    11.00000    0.07908    0.09369 =
         0.10596   -0.03987   -0.01910   -0.01181
C1'   1    0.206026    0.384185    0.110967    11.00000    0.07956    0.07930 =
         0.12458   -0.03993   -0.02624   -0.01294
PART 2
CL1   3    0.586410    0.294417    0.679814   -21.00000    0.07385    0.07261 =
         0.03933   -0.01531   -0.00608   -0.00975
O2'   5    0.287744    0.835914   -0.204102   -21.00000    0.10225    0.08729 =
         0.06686   -0.04684   -0.00505   -0.03771
O1'   5    0.218133    1.003968   -0.071501   -21.00000    0.19694    0.06565 =
         0.06958   -0.02610    0.00816   -0.03270
N1'   4    0.254899    0.863318   -0.108327   -21.00000    0.04633    0.06658 =
         0.05100   -0.02266   -0.01968   -0.01439
HKLF 4




REM  kom29i_crys2_a.res in P-1
REM R1 =  0.0393 for     711 Fo > 4sig(Fo)  and  0.0433 for all     803 data
REM    188 parameters refined using    107 restraints

END

WGHT      0.0522      0.5724

REM Highest difference peak  0.133,  deepest hole -0.126,  1-sigma level  0.031
Q1    1   0.2647  0.8376 -0.2459  11.00000  0.05    0.13
;
_shelx_res_checksum              79362
_shelx_hkl_file
;
   0   0  -1    0.31    0.12
   0   0  -1    0.26    0.09
   0   0  -1    0.20    0.13
   0   0  -2  140.11    1.16
   0   0  -2  140.24    1.27
   0   0  -2  140.59    1.37
   0   0  -3   41.31    0.79
   0   0  -3   39.18    0.98
   0   0  -3   40.04    0.90
   0   0  -4 1276.62    6.02
   0   0  -4 1274.92    4.82
   0   0  -4 1272.50    5.65
   0   0  -5   28.44    1.04
   0   0  -5   25.43    0.83
   0   0  -5   27.37    1.15
   0   0  -6   21.83    1.03
   0   0  -7   25.13    1.18
   0   1  -8    9.48    1.14
   0   1  -7   25.74    1.52
   0   1  -7   22.84    1.45
   0   1  -6   15.06    1.12
   0   1  -6   15.12    1.19
   0   1  -5   25.34    1.25
   0   1  -5   27.38    1.33
   0   1  -4  259.19    3.07
   0   1  -4  261.39    3.26
   0   1  -3  192.86    2.46
   0   1  -2  109.81    1.60
   0   1  -1  267.92    2.06
   0   1   0   11.66    0.43
   0   1   1 1251.06    3.01
   0  -1  -2 2045.03    5.44
   0   1   2 2061.28    3.06
   0  -1  -3  366.77    2.59
   0   1   3  366.83    1.51
   0   1   4   31.88    0.59
   0  -1  -4   32.97    1.17
   0  -1  -4   31.96    0.88
   0  -1  -4   31.83    0.66
   0  -1  -5   87.78    1.53
   0  -1  -5   84.38    1.24
   0   1   5   85.08    1.06
   0  -1  -6   22.25    0.89
   0  -1  -7  167.53    2.42
   0   2  -8    5.26    1.30
   0   2  -8    6.56    1.17
   0   2  -7   38.97    2.07
   0   2  -7   39.72    2.00
   0   2  -6    6.77    0.95
   0   2  -6    7.07    1.11
   0   2  -5  370.26    4.62
   0   2  -5  367.46    4.91
   0   2  -4   25.85    1.37
   0   2  -3  700.15    5.40
   0   2  -2   16.76    0.90
   0   2  -1 9999.00   16.28
   0   2   0 7767.97   12.80
   0   2   1  296.20    2.23
   0   2   2   51.98    0.98
   0   2   2   53.27    0.84
   0  -2  -2   52.15    1.25
   0  -2  -3  540.79    3.92
   0   2   3  541.61    2.60
   0   2   3  540.75    1.92
   0  -2  -4  376.36    3.50
   0   2   4  376.72    1.69
   0  -2  -5   18.67    0.93
   0  -2  -6   65.90    1.71
   0  -2  -6   62.73    2.13
   0  -2  -7   11.73    0.82
   0   3  -8    1.34    1.18
   0   3  -8    2.94    0.78
   0   3  -7   11.19    1.49
   0   3  -7    9.74    1.15
   0   3  -6   51.43    2.40
   0   3  -6   44.40    1.99
   0   3  -5   45.66    1.84
   0   3  -5   49.79    2.14
   0   3  -4   27.05    1.57
   0   3  -3  655.74    6.17
   0   3  -2  891.78    6.60
   0   3  -1  191.95    2.82
   0   3   0   73.19    1.68
   0   3   1  115.97    1.90
   0   3   2   16.41    0.76
   0   3   3   80.28    1.28
   0  -3  -3   77.96    1.85
   0  -3  -4    6.43    0.76
   0  -3  -5  149.80    2.78
   0  -3  -6    2.12    0.60
   0  -3  -7  244.57    4.79
   0  -3  -7  242.42    3.91
   0  -3  -8   85.15    3.13
   0   4  -6   24.40    1.90
   0   4  -6   22.95    1.51
   0   4  -5   -0.42    0.94
   0   4  -5    0.86    0.58
   0   4  -4   21.27    1.61
   0   4  -3  185.34    3.94
   0   4  -2  291.28    4.59
   0   4  -1 1690.84   10.03
   0   4   0  495.20    5.17
   0   4   1   69.22    1.91
   0  -4  -2    8.32    0.92
   0   4   2    8.31    0.82
   0  -4  -3  158.44    3.04
   0  -4  -4   48.02    1.77
   0  -4  -5    0.99    0.63
   0  -4  -6   35.29    1.70
   0  -4  -7    0.56    0.60
   0  -4  -8   90.87    3.64
   0   5  -4   41.50    2.47
   0   5  -3    7.21    1.20
   0   5  -2   19.69    1.64
   0   5  -1   51.33    2.24
   0   5   0    0.40    0.73
   0  -5  -1   29.33    1.68
   0   5   1   29.91    1.60
   0  -5  -2    7.24    1.00
   0  -5  -3   50.15    2.06
   0  -5  -4   56.43    2.21
   0  -5  -5    9.91    1.15
   0  -5  -6   58.83    2.37
   0  -5  -7    1.09    0.69
   0  -6   1  146.09    3.83
   0   6  -1  135.33    3.91
   0  -6   0   38.74    2.15
   0  -6  -1    4.38    1.08
   0  -6  -2    8.88    1.25
   0  -6  -3   65.65    2.64
   0  -6  -4   17.99    1.54
   0  -6  -5   67.31    2.77
   1  -6  -2   24.52    1.79
   1  -6  -1   53.94    2.47
   1  -5  -7    1.51    0.75
   1  -5  -6    2.93    0.90
   1  -5  -5    1.00    0.77
   1  -5  -4   86.67    2.81
   1  -5  -3  114.84    3.16
   1  -5  -2   98.89    2.92
   1  -5  -1   67.64    2.48
   1  -5   0    1.28    0.73
   1  -5   1  272.03    4.78
  -1   5  -1  272.12    5.18
  -1   5  -2   63.63    2.75
   1  -5   2   61.96    2.26
  -1   5  -3   19.79    1.73
   1  -5   3   20.98    1.37
  -1   5  -4   17.87    1.74
   1  -4  -8    0.51    0.99
   1  -4  -8    0.20    0.55
   1  -4  -7    1.56    0.71
   1  -4  -6    0.00    0.57
   1  -4  -5  120.22    3.06
   1  -4  -4    4.42    0.82
   1  -4  -3   29.61    1.51
   1  -4  -2    3.36    0.76
  -1   4   1    6.85    0.96
   1  -4  -1    7.29    0.93
  -1   4   0  397.41    5.17
   1  -4   0  396.72    5.07
   1  -4   1   13.78    1.18
  -1   4  -1    9.87    1.15
  -1   4  -2    6.84    1.05
  -1   4  -3    9.11    1.29
  -1   4  -4    0.56    0.84
  -1   4  -5    0.03    0.99
  -1   4  -6   -0.18    1.18
   1  -3  -8    4.27    1.00
   1  -3  -8    4.93    0.88
   1  -3  -7   37.09    1.75
   1  -3  -6   13.50    1.12
   1  -3  -5  105.27    2.57
   1  -3  -4 1136.66    7.87
   1  -3  -3  177.45    3.04
  -1   3   2    4.38    0.58
   1  -3  -2    1.60    0.70
  -1   3   1  415.57    4.07
   1  -3  -1  424.02    4.35
   1  -3   0 1058.77    7.04
  -1   3   0 1067.88    6.75
  -1   3  -1   56.05    1.79
  -1   3  -2  411.28    4.87
  -1   3  -3   12.95    1.26
  -1   3  -3   11.91    0.84
  -1   3  -4   39.76    1.45
  -1   3  -4   39.80    1.97
  -1   3  -5   34.27    1.52
  -1   3  -5   44.45    2.16
  -1   3  -6    6.61    1.28
  -1   3  -6    5.30    0.81
  -1   3  -7    0.40    0.94
   1  -2  -8    0.10    0.59
   1  -2  -7   19.12    1.50
   1  -2  -7   19.86    1.24
   1  -2  -6   76.92    2.12
   1  -2  -5  364.89    4.18
   1  -2  -4   25.09    1.15
   1  -2  -3  192.93    2.73
   1  -2  -2  403.96    3.72
  -1   2   2  401.39    2.66
   1  -2  -1 1592.83    7.11
  -1   2   1 1592.59    6.10
  -1   2   0   78.45    1.62
   1  -2   0   82.15    1.68
  -1   2  -1   10.75    0.87
  -1   2  -2    4.80    0.81
  -1   2  -3    8.10    1.00
  -1   2  -3    8.80    0.70
  -1   2  -4  128.25    2.36
  -1   2  -4  131.69    3.02
  -1   2  -5   27.04    1.32
  -1   2  -5   26.61    1.69
  -1   2  -6   14.25    1.43
  -1   2  -6   13.70    1.10
  -1   2  -7    0.50    0.86
  -1   2  -8   68.33    3.00
  -1   2  -9   42.90    2.58
   1  -1  -8    1.50    0.50
   1  -1  -7   20.31    1.13
   1  -1  -6   35.45    1.33
   1  -1  -5 1927.05    9.68
   1  -1  -5 1925.46    8.52
   1  -1  -4   96.84    1.82
   1  -1  -3    6.13    0.59
   1  -1  -2    5.81    0.58
   1  -1  -2    4.93    0.18
   1  -1  -1 7439.58   12.46
  -1   1   1 7459.85   10.02
  -1   1   0  804.68    3.89
   1  -1   0  801.57    3.84
  -1   1  -1   87.94    0.89
  -1   1  -1   87.06    1.57
  -1   1  -2  236.91    2.78
  -1   1  -2  234.82    1.96
  -1   1  -3    0.13    0.43
  -1   1  -3    0.24    0.68
  -1   1  -4  736.00    5.99
  -1   1  -4  737.65    5.06
  -1   1  -5    7.88    1.00
  -1   1  -5    8.69    0.87
  -1   1  -6   16.10    1.32
  -1   1  -7    0.94    0.84
  -1   1  -8   49.98    2.31
   1   0  -7    0.82    0.48
   1   0  -6  208.50    2.95
   1   0  -6  207.47    3.22
   1   0  -5  269.60    3.04
   1   0  -5  264.97    2.66
   1   0  -5  263.51    3.27
   1   0  -4  394.32    2.87
   1   0  -4  393.27    3.45
   1   0  -4  393.14    3.35
   1   0  -3  360.71    2.81
   1   0  -3  359.09    2.37
   1   0  -3  359.05    2.90
   1   0  -3  356.75    2.94
   1   0  -2  466.55    2.10
   1   0  -2  467.19    2.95
   1   0  -1 1703.14    4.87
   1   0  -1 1708.99    3.52
   1   0   0    5.20    0.29
   1   0   0    4.65    0.30
   1   0   1  114.48    0.82
  -1   0  -1  113.59    1.43
  -1   0  -2   20.43    0.82
  -1   0  -3  172.95    2.18
  -1   0  -4   76.20    1.66
  -1   0  -5  263.13    3.29
  -1   0  -6    6.06    0.76
  -1   0  -7   65.53    2.02
  -1   0  -8   -0.31    0.62
   1   1  -8    0.62    0.72
   1   1  -7   10.15    1.05
   1   1  -7   11.07    1.08
   1   1  -6  308.09    4.24
   1   1  -6  305.45    4.12
   1   1  -5  477.42    4.61
   1   1  -5  479.00    4.74
   1   1  -4  104.81    1.95
   1   1  -3   86.55    1.56
   1   1  -2 1981.56    6.63
   1   1  -1 3223.06    7.07
   1   1   0  395.70    2.21
   1   1   1    5.17    0.37
   1   1   2 2616.29    6.04
  -1  -1  -2 2647.17    6.71
  -1  -1  -3 2458.74    4.61
   1   1   3 2467.57    6.31
  -1  -1  -3 2471.08    7.89
  -1  -1  -4  305.78    1.74
   1   1   4  305.56    2.46
  -1  -1  -4  306.69    2.81
  -1  -1  -5  228.38    1.66
  -1  -1  -5  234.36    2.71
   1   1   5  232.91    2.33
  -1  -1  -6  440.39    4.00
   1   1   6  443.00    3.52
   1   1   7  332.41    3.35
   1   2  -8   84.23    3.11
   1   2  -7  109.45    3.25
   1   2  -7  110.99    3.31
   1   2  -6   40.45    1.88
   1   2  -6   39.27    1.83
   1   2  -5    6.81    0.91
   1   2  -4  143.34    2.63
   1   2  -3  206.66    2.87
   1   2  -2  144.07    2.21
   1   2  -1  424.39    3.65
   1   2   0    9.39    0.64
   1   2   1  506.68    3.26
   1   2   2  412.25    2.78
   1   2   3  211.74    1.94
   1   2   4  138.78    1.64
  -1  -2  -4  143.13    1.87
  -1  -2  -5  141.14    1.96
   1   2   5  143.96    1.70
  -1  -2  -5  139.16    2.76
  -1  -2  -6   92.27    1.58
   1   3  -8   -0.28    0.85
   1   3  -8    1.31    0.97
   1   3  -7    0.40    0.87
   1   3  -7    1.42    1.08
   1   3  -6  172.73    4.02
   1   3  -6  169.52    4.13
   1   3  -5   76.29    2.48
   1   3  -4   68.06    2.14
   1   3  -3   88.56    2.30
   1   3  -2  369.53    4.26
   1   3  -1 1446.44    7.71
   1   3   0    6.57    0.70
   1   3   0    5.98    0.84
   1   3   1  871.96    5.78
   1   3   2    8.56    0.69
   1   3   3 1041.26    5.38
   1   3   4  334.28    2.91
  -1  -3  -4  334.27    3.56
   1   3   5  269.58    2.53
  -1  -3  -5  270.74    3.35
  -1  -3  -6    0.08    0.44
  -1  -3  -6    1.01    0.70
  -1  -3  -7  202.91    4.10
   1   4  -6    3.85    1.01
   1   4  -6    2.33    1.07
   1   4  -5    9.34    1.21
   1   4  -4    3.03    0.93
   1   4  -3    6.71    1.08
   1   4  -2  113.22    2.89
   1   4  -1   80.20    2.31
   1   4   0  262.34    3.75
   1   4   1  130.75    2.47
   1   4   2   38.05    1.32
   1   4   3    2.37    0.55
   1   4   3    2.36    0.69
   1   4   4   39.47    1.42
  -1  -4  -4   40.48    1.58
  -1  -4  -5   21.00    1.21
  -1  -4  -6  148.43    3.08
  -1  -4  -7    2.20    0.87
  -1  -4  -8   15.93    1.51
   1   5  -5   28.89    2.14
   1   5  -5   23.56    1.69
   1   5  -4    5.23    1.35
   1   5  -3    0.63    1.02
   1   5  -2  147.39    3.74
   1   5  -1  287.39    4.82
   1   5   0  323.19    4.75
   1   5   1    3.09    0.78
   1   5   2   60.73    1.91
  -1  -5  -3   33.87    1.75
  -1  -5  -4   23.78    1.47
  -1  -5  -5   18.35    1.34
  -1  -5  -6   36.23    1.82
  -1  -5  -8    4.15    1.14
   1   6  -2   18.57    1.77
   1   6  -1    7.02    1.25
   1   6   0   20.51    1.68
  -1  -6  -2  121.72    3.66
  -1  -6  -3   22.29    1.66
  -1  -6  -4   41.37    2.16
  -1  -6  -5   40.76    2.16
  -1  -6  -6    9.23    1.19
   2  -5  -5   26.08    1.77
   2  -5  -4    0.25    0.74
   2  -5  -3   30.11    1.87
   2  -5  -2    7.10    1.12
   2  -5  -1    7.66    1.14
   2  -5   0    3.32    0.96
   2  -5   1    0.78    0.73
  -2   5  -2   18.84    1.73
   2  -4  -7   10.58    1.27
   2  -4  -6    3.48    0.84
   2  -4  -5   27.47    1.73
   2  -4  -4   13.50    1.25
   2  -4  -3    7.32    1.04
   2  -4  -2   60.80    2.28
   2  -4  -1    6.07    0.95
   2  -4   0   57.51    2.13
  -2   4   0   56.30    2.22
  -2   4  -1    0.52    0.78
   2  -4   1    0.20    0.61
  -2   4  -2    5.77    1.12
   2  -4   2    6.08    0.82
  -2   4  -3    0.63    0.89
  -2   4  -4   49.70    2.57
  -2   4  -5    6.06    1.43
   2  -3  -8   21.72    1.67
   2  -3  -8   17.92    1.76
   2  -3  -7   54.16    2.25
   2  -3  -6  145.13    3.44
   2  -3  -5    3.27    0.83
   2  -3  -4   72.60    2.31
   2  -3  -3    0.56    0.72
   2  -3  -2   37.11    1.64
   2  -3  -1   48.75    1.82
  -2   3   1   48.93    1.72
  -2   3   0    0.85    0.79
   2  -3   0    0.30    0.68
  -2   3  -1   50.80    1.98
   2  -3   1   52.20    1.74
  -2   3  -2   86.76    2.63
   2  -3   2   83.63    2.07
  -2   3  -3  609.83    7.06
   2  -3   3  610.83    5.23
  -2   3  -4   56.96    2.44
  -2   3  -5   35.03    2.13
  -2   3  -6    3.02    1.26
  -2   3  -7   28.97    2.17
   2  -2  -8   -0.93    0.71
   2  -2  -7    0.71    0.66
   2  -2  -7   -0.41    0.54
   2  -2  -6   19.41    1.29
   2  -2  -5  111.84    2.70
   2  -2  -4   24.97    1.31
   2  -2  -3   78.64    2.07
   2  -2  -2  105.70    2.31
   2  -2  -1  405.40    4.17
  -2   2   1  405.17    3.89
   2  -2   0   12.67    0.90
  -2   2   0   11.60    0.99
  -2   2  -1    9.19    0.98
   2  -2   1    8.34    0.76
  -2   2  -2  152.83    3.01
   2  -2   2  151.02    2.28
  -2   2  -3  210.28    3.79
   2  -2   3  217.34    2.60
  -2   2  -4  200.53    3.99
  -2   2  -5  577.15    7.22
  -2   2  -6    1.68    1.12
  -2   2  -7    0.34    1.07
  -2   2  -8    2.01    1.01
   2  -1  -8    2.16    0.76
   2  -1  -7    6.84    0.85
   2  -1  -6  136.84    2.93
   2  -1  -6  147.72    3.00
   2  -1  -5   28.93    1.34
   2  -1  -4  130.69    2.55
   2  -1  -3    1.29    0.60
   2  -1  -2  655.94    4.86
   2  -1  -2  657.47    3.06
   2  -1  -1   37.46    1.20
   2  -1  -1   37.10    0.86
  -2   1   0  639.58    4.54
   2  -1   0  639.77    4.21
   2  -1   1  360.06    2.94
  -2   1  -1  360.01    3.70
   2  -1   2  530.77    3.29
  -2   1  -2  531.31    4.90
  -2   1  -3  499.13    5.12
   2  -1   3  498.28    2.96
  -2   1  -4  180.15    3.42
  -2   1  -5   76.64    2.49
  -2   1  -6  118.72    3.27
  -2   1  -7   34.76    2.02
  -2   1  -8   19.79    1.75
  -2   1  -9   31.60    2.22
   2   0  -7    4.28    0.73
   2   0  -6   52.60    1.72
   2   0  -6   50.24    1.72
   2   0  -5  117.58    2.26
   2   0  -5  113.93    2.33
   2   0  -4   26.39    1.16
   2   0  -4   23.51    0.85
   2   0  -4   26.09    1.02
   2   0  -3  584.56    3.83
   2   0  -3  586.74    3.48
   2   0  -3  586.11    4.56
   2   0  -2  141.15    1.52
   2   0  -2  142.66    2.14
   2   0  -1 1302.15    5.66
   2   0  -1 1299.69    4.81
   2   0   0 2426.98    6.98
   2   0   0 2423.57    6.86
   2   0   1 8738.48   11.64
   2   0   1 8728.16   13.65
  -2   0  -2 3158.88   10.43
   2   0   2 3155.66    5.83
  -2   0  -3  461.03    4.31
  -2   0  -4  456.95    4.60
  -2   0  -5  173.64    3.10
  -2   0  -6   77.35    2.27
  -2   0  -7    2.83    0.87
  -2   0  -8    1.91    0.85
   2   1  -8    2.11    0.82
   2   1  -7   31.67    1.61
   2   1  -6   36.50    1.56
   2   1  -6   32.72    1.45
   2   1  -5   44.92    1.57
   2   1  -5   45.34    1.57
   2   1  -4  197.90    2.80
   2   1  -4  200.57    2.88
   2   1  -3  227.80    2.82
   2   1  -3  223.38    2.87
   2   1  -2  138.85    1.89
   2   1  -2  141.95    2.08
   2   1  -1   32.89    0.90
   2   1  -1   32.24    0.97
   2   1   0 1096.43    4.65
   2   1   0 1097.71    4.73
   2   1   1  643.70    3.65
   2   1   2 5428.51   11.25
   2   1   3  314.17    2.89
   2   1   4   27.10    1.00
   2   1   5  254.35    3.01
   2   1   6  270.77    3.35
   2   1   7   21.95    1.16
   2   1   8  117.30    2.55
   2   2  -8   -0.03    0.79
   2   2  -7    3.91    0.96
   2   2  -6   75.28    2.51
   2   2  -6   76.99    2.55
   2   2  -5   74.91    2.26
   2   2  -4  289.81    3.86
   2   2  -3   55.45    1.58
   2   2  -3   57.86    1.78
   2   2  -2   37.97    1.33
   2   2  -1   79.91    1.66
   2   2   0 1445.01    6.34
   2   2   1  130.24    1.85
  -2  -2  -2 1647.26    5.86
   2   2   2 1645.99    6.44
   2   2   3    7.16    0.58
  -2  -2  -3    6.39    0.60
  -2  -2  -4  368.62    2.60
   2   2   4  369.56    3.22
   2   2   5  231.41    2.69
   2   2   6   18.43    0.92
   2   2   7    9.63    0.74
   2   3  -7    8.70    1.37
   2   3  -7    8.41    1.41
   2   3  -6   34.58    2.12
   2   3  -6   35.89    2.08
   2   3  -5  175.22    3.75
   2   3  -4    0.42    0.67
   2   3  -3  240.78    3.76
   2   3  -2  504.01    4.96
   2   3  -2  501.47    5.48
   2   3  -1 1863.82    9.66
   2   3   0   85.91    2.02
   2   3   1  377.63    3.86
   2   3   2  234.86    2.93
   2   3   3   13.36    0.83
   2   3   4   88.65    1.77
  -2  -3  -5  122.85    2.80
   2   3   5  124.80    2.08
  -2  -3  -5  121.79    2.07
   2   3   6  214.04    2.75
   2   4  -6   41.81    2.39
   2   4  -6   38.80    2.26
   2   4  -5   17.96    1.58
   2   4  -4    8.31    1.10
   2   4  -3   21.46    1.47
   2   4  -2   25.15    1.54
   2   4  -1   46.76    1.86
   2   4   0  498.77    5.23
   2   4   0  494.02    5.88
   2   4   1   91.33    2.45
   2   4   2  196.04    3.32
   2   4   3   12.68    1.00
   2   4   4  113.23    2.38
   2   4   5   34.08    1.36
  -2  -4  -5   35.13    1.43
  -2  -4  -6    1.59    0.75
  -2  -4  -7   27.09    1.66
   2   5  -4   11.09    1.45
   2   5  -3   39.55    2.23
   2   5  -2   34.65    1.98
   2   5  -1  200.32    4.22
   2   5   0   20.30    1.47
   2   5   1   71.37    2.30
   2   5   2    1.37    0.65
   2   5   3    9.17    1.05
   2   5   3    9.81    0.93
   2   5   4    0.36    0.60
  -2  -5  -5  136.66    3.19
  -2  -5  -6   31.91    1.85
  -2  -5  -7   66.22    2.76
   2   6  -2    1.75    1.03
   2   6  -1   27.82    1.96
   2   6   0   34.58    2.04
   2   6   1   14.21    1.41
  -2  -6  -4    1.03    0.83
  -2  -6  -5    6.83    1.07
  -2  -6  -6   61.13    2.75
   3  -4  -5    2.16    0.84
   3  -4  -4   25.58    1.74
   3  -4  -3    3.76    0.96
   3  -4  -2   59.10    2.43
   3  -4  -1   50.16    2.17
   3  -4   0    4.21    0.84
   3  -4   1   31.52    1.61
  -3   4  -2    6.41    1.24
  -3   4  -3    4.45    1.13
  -3   4  -4   38.41    2.36
   3  -3  -7    7.24    1.19
   3  -3  -6   24.84    1.67
   3  -3  -5    0.31    0.65
   3  -3  -4    1.29    0.80
   3  -3  -3  234.32    4.33
   3  -3  -2  150.38    3.41
   3  -3  -1   44.98    1.90
   3  -3   0    4.74    0.77
  -3   3   0    8.34    1.08
   3  -3   1    0.61    0.56
  -3   3  -1    0.45    0.74
   3  -3   2    3.84    0.64
  -3   3  -2    3.38    1.01
  -3   3  -3   39.67    2.14
  -3   3  -4   15.33    1.59
  -3   3  -5   11.34    1.57
  -3   3  -6    1.11    1.23
   3  -2  -8    0.18    0.64
   3  -2  -7    3.69    0.89
   3  -2  -6    6.81    1.01
   3  -2  -5   23.33    1.48
   3  -2  -4  133.00    3.13
   3  -2  -3   72.06    2.27
   3  -2  -2  487.69    5.43
   3  -2  -1   27.78    1.39
   3  -2  -1   25.13    0.96
   3  -2   0  265.45    3.70
  -3   2   0  267.66    4.01
   3  -2   1    8.16    0.81
  -3   2  -1    7.01    1.04
   3  -2   2   67.16    1.74
  -3   2  -2   66.32    2.38
  -3   2  -3   27.30    1.74
  -3   2  -4  217.98    4.56
  -3   2  -5  192.84    4.55
  -3   2  -6    6.01    1.37
  -3   2  -7    2.06    1.11
   3  -1  -8   11.97    1.25
   3  -1  -7    0.27    0.64
   3  -1  -6   25.56    1.55
   3  -1  -5   36.00    1.49
   3  -1  -5   45.76    1.87
   3  -1  -4  458.91    5.33
   3  -1  -3    3.38    0.82
   3  -1  -2  259.37    3.62
   3  -1  -2  259.53    2.47
   3  -1  -1    6.66    0.75
   3  -1  -1    6.00    0.55
   3  -1   0  309.27    3.44
   3  -1   0  308.36    3.23
   3  -1   1    3.79    0.56
  -3   1  -1    4.10    0.88
   3  -1   2   63.30    1.40
  -3   1  -2   61.18    2.09
  -3   1  -3    0.25    0.87
  -3   1  -4   12.66    1.40
  -3   1  -5   69.25    2.62
  -3   1  -6    0.74    1.06
  -3   1  -7   14.70    1.70
  -3   1  -8   14.51    1.71
   3   0  -7    0.14    0.69
   3   0  -6   28.38    1.38
   3   0  -6   31.37    1.59
   3   0  -5  125.81    2.44
   3   0  -5  121.95    2.83
   3   0  -4   72.86    1.70
   3   0  -4   78.71    2.20
   3   0  -3  928.41    5.05
   3   0  -3  924.05    5.21
   3   0  -3  921.18    6.87
   3   0  -2   24.80    0.86
   3   0  -2   23.54    1.15
   3   0  -1  181.29    2.62
   3   0  -1  180.18    2.25
   3   0   0  324.60    3.23
   3   0   0  331.17    3.12
   3   0   1  402.13    3.70
   3   0   1  397.59    3.29
   3   0   2   35.12    1.25
   3   0   2   34.61    0.90
   3   0   3  307.40    3.54
  -3   0  -4 1182.10    8.53
  -3   0  -5   60.37    2.15
  -3   0  -6    0.70    0.78
  -3   0  -7   12.60    1.32
   3   0   7   10.98    1.07
   3   0   8   27.16    1.66
   3   0   9   -0.15    0.83
   3   1  -8    0.44    0.47
   3   1  -7    0.79    0.71
   3   1  -6    8.15    0.89
   3   1  -5   74.90    2.06
   3   1  -5   77.62    2.22
   3   1  -4  132.55    2.76
   3   1  -4  137.46    2.76
   3   1  -3   11.42    0.85
   3   1  -3   12.10    0.98
   3   1  -2   59.88    1.47
   3   1  -2   56.85    1.63
   3   1  -1  357.71    3.29
   3   1  -1  352.81    3.53
   3   1   0  121.38    1.96
   3   1   0  119.49    1.92
   3   1   1   66.73    1.33
   3   1   1   68.87    1.51
   3   1   2   18.03    0.93
   3   1   3  349.70    3.70
   3   1   4  563.11    4.95
   3   1   5   42.60    1.55
   3   1   6  242.51    3.62
   3   1   7  193.65    3.50
   3   1   8   24.70    1.43
   3   2  -7   12.58    1.28
   3   2  -6  164.99    3.62
   3   2  -5   89.50    2.70
   3   2  -4  119.62    2.80
   3   2  -3   37.71    1.59
   3   2  -2  395.82    4.39
   3   2  -1  115.98    2.18
   3   2   0    3.93    0.61
   3   2   1  128.66    2.11
   3   2   2   50.69    1.39
   3   2   3 1433.44    7.17
   3   2   4  670.62    5.16
   3   2   5   22.09    1.11
   3   2   6    0.29    0.56
   3   2   7   35.27    1.46
   3   2   8   73.33    2.12
   3   3  -7    3.44    1.05
   3   3  -6    2.81    0.91
   3   3  -6    2.41    1.08
   3   3  -5  102.87    3.18
   3   3  -4    6.44    1.05
   3   3  -3    3.99    0.86
   3   3  -3    3.29    0.91
   3   3  -2   90.86    2.52
   3   3  -1   60.03    1.95
   3   3   0   68.43    1.93
   3   3   1    1.34    0.62
   3   3   2  198.43    2.96
   3   3   3    6.54    0.76
   3   3   4  568.81    4.89
   3   3   5  278.71    3.56
   3   3   6   47.72    1.55
   3   3   7   28.56    1.25
   3   4  -5    4.94    1.06
   3   4  -4    5.89    1.13
   3   4  -3  108.51    3.09
   3   4  -2   52.62    2.10
   3   4  -1    9.39    1.13
   3   4   0    6.66    0.96
   3   4   1  385.54    5.04
   3   4   2  283.12    4.17
   3   4   3  358.57    4.53
   3   4   4  135.70    2.79
  -3  -4  -4  128.08    2.68
   3   4   5    0.56    0.53
   3   4   6    5.61    0.72
   3   5  -4    8.26    1.28
   3   5  -3   26.79    1.86
   3   5  -2    2.19    1.05
   3   5  -1    9.44    1.23
   3   5   0  109.84    3.09
   3   5   1  211.20    4.01
   3   5   1  198.42    4.40
   3   5   2    1.14    0.75
   3   5   3  135.27    3.37
   3   5   4   13.98    1.26
   3   5   5    0.65    0.60
   3   6  -1   11.49    1.44
   3   6   0   20.65    1.74
   3   6   1   41.14    2.19
   3   6   2  316.89    5.39
   4  -4  -1    8.77    1.12
   4  -3  -5  104.86    3.39
   4  -3  -4    4.21    0.99
   4  -3  -3   29.57    1.84
   4  -3  -2   10.74    1.18
   4  -3  -1    3.12    0.84
   4  -3   0    6.17    0.83
  -4   3  -3    1.26    1.01
  -4   3  -4   72.72    3.06
   4  -2  -6    5.36    1.06
   4  -2  -5   -0.10    0.68
   4  -2  -4    3.90    0.90
   4  -2  -3    3.08    0.84
   4  -2  -2   44.82    1.96
   4  -2  -1   34.71    1.69
   4  -2   0  106.62    2.61
   4  -2   0  105.15    2.34
   4  -2   1    9.89    0.89
   4  -2   1   11.53    0.98
   4  -2   2    3.50    0.77
  -4   2  -3   16.72    1.59
  -4   2  -4   -0.21    1.07
  -4   2  -5   60.62    2.81
  -4   2  -6   36.73    2.40
   4  -1  -7   40.81    2.13
   4  -1  -6   83.24    2.85
   4  -1  -5  105.12    3.08
   4  -1  -4    3.15    0.78
   4  -1  -3   56.72    2.14
   4  -1  -2   61.36    2.08
   4  -1  -1   29.66    1.42
   4  -1  -1   29.29    1.11
   4  -1   0   29.16    1.32
   4  -1   0   32.97    1.28
   4  -1   1   19.09    1.05
   4  -1   1   20.35    1.16
   4  -1   2    0.22    0.54
   4  -1   3   93.55    2.49
   4  -1   4   50.66    1.95
   4  -1   5   82.83    2.57
   4  -1   6   14.25    1.36
   4  -1   7   14.38    1.51
   4   0  -7    2.88    0.90
   4   0  -6    6.14    0.99
   4   0  -5    2.85    0.84
   4   0  -4    4.23    0.84
   4   0  -3    5.28    0.90
   4   0  -2  327.71    3.45
   4   0  -2  330.16    4.40
   4   0  -1    2.79    0.55
   4   0  -1    2.85    0.74
   4   0   0  542.38    4.90
   4   0   0  542.82    4.71
   4   0   1  459.58    4.29
   4   0   1  452.56    4.56
   4   0   2  922.85    6.90
   4   0   3  109.05    2.58
   4   0   4   73.32    2.22
   4   0   5    4.24    0.80
   4   0   6    1.12    0.70
   4   0   7   -0.70    0.88
   4   0   8    2.66    1.01
   4   1  -5   42.57    1.70
   4   1  -4   12.46    0.94
   4   1  -4   10.21    1.06
   4   1  -3  147.21    2.80
   4   1  -3  145.91    3.07
   4   1  -2    1.09    0.70
   4   1  -2    1.14    0.54
   4   1  -1   16.05    0.93
   4   1  -1   14.63    1.02
   4   1   0  101.73    2.15
   4   1   0  103.31    2.14
   4   1   1   42.49    1.32
   4   1   1   41.35    1.41
   4   1   2   93.53    2.16
   4   1   3 1465.66    8.69
   4   1   4  246.29    3.78
   4   1   5   95.39    2.48
   4   1   6    0.33    0.59
   4   1   7   16.15    1.28
   4   1   8   13.23    1.24
   4   1   9    7.91    1.13
   4   2  -6    3.48    0.88
   4   2  -5   14.23    1.19
   4   2  -4   18.09    1.34
   4   2  -3  211.58    3.91
   4   2  -2   27.25    1.39
   4   2  -1   75.15    2.03
   4   2   0    3.86    0.65
   4   2   1  119.25    2.36
   4   2   2  106.31    2.30
   4   2   3  125.31    2.54
   4   2   4   53.30    1.78
   4   2   5    8.89    0.94
   4   2   6    0.99    0.56
   4   2   7   -0.38    0.64
   4   2   8    4.55    0.86
   4   3  -5   42.10    2.22
   4   3  -4  118.51    3.38
   4   3  -3   23.79    1.68
   4   3  -2  135.91    3.36
   4   3  -1  307.32    4.62
   4   3   0   71.61    2.16
   4   3   1    2.87    0.69
   4   3   2  295.91    3.96
   4   3   3   83.89    2.15
   4   3   4  138.27    2.78
   4   3   5   64.09    1.96
   4   3   6   12.88    1.05
   4   3   7   11.74    1.02
   4   3   8    1.96    0.67
   4   4  -4    5.95    1.23
   4   4  -3   59.09    2.50
   4   4  -2    4.40    0.98
   4   4  -2    3.60    1.03
   4   4  -1    0.35    0.68
   4   4   0    2.47    0.81
   4   4   1  210.34    3.96
   4   4   2    4.75    0.86
   4   4   3   59.19    2.03
   4   4   4    6.44    0.87
   4   4   5    5.28    0.79
   4   4   6    0.47    0.55
   4   4   7    0.57    0.62
   4   5  -2   12.04    1.47
   4   5  -1    1.51    0.90
   4   5   0   19.45    1.67
   4   5   1   52.50    2.42
   4   5   2   99.21    3.13
   4   5   3    0.63    0.76
   4   5   4   65.59    2.43
   4   5   5    0.88    0.65
   4   5   6   -0.02    0.60
   4   6   1   29.07    1.89
   4   6   2    6.70    1.20
   4   6   2    6.43    1.19
   4   6   3   49.60    2.22
   4   6   3   49.13    2.52
   4   6   4   17.18    1.68
   5  -2  -3    4.34    0.91
   5  -2  -2    8.72    1.03
   5  -2  -1   50.33    2.07
   5  -2   2    1.55    0.78
   5  -2   3    0.28    0.67
   5  -1  -4    9.35    1.21
   5  -1  -3   37.75    1.95
   5  -1  -2    0.77    0.69
   5  -1  -1   82.99    2.49
   5  -1   0    3.59    0.71
   5  -1   1    0.10    0.53
   5  -1   2   12.44    1.13
   5  -1   3   21.84    1.46
   5  -1   4    9.25    1.12
   5  -1   5    0.85    0.80
   5   0  -5    0.15    0.62
   5   0  -4    0.68    0.69
   5   0  -3    3.67    0.83
   5   0  -2  164.07    3.46
   5   0  -1    3.15    0.68
   5   0   0   52.94    1.84
   5   0   0   53.15    1.71
   5   0   1    0.64    0.50
   5   0   2   40.74    1.73
   5   0   3   13.51    1.16
   5   0   4   77.38    2.55
   5   0   5   71.15    2.53
   5   0   6    7.14    1.05
   5   1  -3   19.74    1.37
   5   1  -2   11.87    1.07
   5   1  -1   75.57    2.12
   5   1  -1   80.48    2.29
   5   1   0   16.52    1.06
   5   1   1    7.40    0.83
   5   1   2   60.83    2.02
   5   1   3   16.21    1.21
   5   1   4  110.79    2.88
   5   1   5   48.13    2.02
   5   1   6   55.32    2.18
   5   1   7   17.79    1.42
   5   2  -2    6.07    0.89
   5   2  -1   -0.09    0.54
   5   2   0   24.97    1.35
   5   2   1   36.31    1.54
   5   2   2    2.71    0.68
   5   2   3   17.54    1.23
   5   2   4  178.00    3.52
   5   2   5   50.76    2.01
   5   2   6   55.33    2.14
   5   2   7    1.89    0.85
   5   2   8    5.62    0.90
   5   3  -4   32.08    1.99
   5   3  -3    0.56    0.84
   5   3  -2   28.09    1.75
   5   3  -1   42.25    1.99
   5   3   0    2.53    0.77
   5   3   1   10.77    1.07
   5   3   2   37.74    1.70
   5   3   3  104.16    2.72
   5   3   4   19.51    1.32
   5   3   5  195.30    3.81
   5   3   6    6.78    0.99
   5   3   7    4.11    0.89
   5   4  -3    9.97    1.29
   5   4  -2    7.06    1.29
   5   4  -1    7.14    1.15
   5   4   0   33.25    1.93
   5   4   1    0.74    0.72
   5   4   2   38.65    1.88
   5   4   3  110.61    3.02
   5   4   4   92.83    2.79
   5   4   5   -0.15    0.66
   5   4   6   36.00    1.85
   5   4   7   11.05    1.15
   5   5   0    1.80    1.05
   5   5   1    0.69    0.94
   5   5   2   81.41    2.99
   5   5   3   39.26    2.10
   5   5   4   46.24    2.18
   5   5   5    3.26    1.01
   6   0  -2    1.83    0.82
   6   0   1  103.89    2.75
   6   0   2   16.11    1.27
   6   0   3   76.32    2.60
   6   1   0   74.28    2.31
   6   1   1    1.43    0.68
   6   1   2   73.68    2.44
   6   1   3    3.33    0.82
   6   1   4  217.48    4.33
   6   1   5   10.45    1.20
   6   2   0   32.11    1.67
   6   2   1   13.80    1.22
   6   2   2   16.32    1.27
   6   2   3   24.53    1.55
   6   2   4    1.15    0.75
   6   2   5   10.50    1.17
   6   3  -1  136.69    3.69
   6   3   0    1.41    0.76
   6   3   1    0.06    0.71
   6   3   2   10.63    1.17
   6   3   3   78.40    2.65
   6   3   4   43.81    2.02
   6   3   5    9.71    1.13
   6   4   1    1.77    0.86
   6   4   2   59.79    2.51
   6   4   3    1.26    0.75
   0   0   0    0.00    0.00


TITL kom29i_crys2 in P-1
REM P-1 (#2 in standard setting)
CELL 1.54184   7.486178   7.617311  12.260044  77.3127  81.7683  74.0845
ZERR    2.00   0.000788   0.000709   0.000894   0.0074   0.0077   0.0086
LATT  1
SFAC C H N O S Cl
UNIT 24.00 16.00 2.00 4.00 4.00 2.00
TREF
HKLF 4
END
_computing_structure_solution     'SHELXT 2018/2 (Sheldrick, 2018)'
;
_shelx_hkl_checksum              22539
_olex2_submission_special_instructions 'No special instructions were received'
_oxdiff_exptl_absorpt_empirical_details
;
Empirical correction (ABSPACK) includes:
- Absorption correction using spherical harmonics
- Frame scaling
;
_oxdiff_exptl_absorpt_empirical_full_max 1.488
_oxdiff_exptl_absorpt_empirical_full_min 0.770
loop_
_space_group_symop_operation_xyz
'x, y, z'
'-x, -y, -z'
loop_
_atom_site_label
_atom_site_type_symbol
_atom_site_fract_x
_atom_site_fract_y
_atom_site_fract_z
_atom_site_U_iso_or_equiv
_atom_site_adp_type
_atom_site_occupancy
_atom_site_site_symmetry_order
_atom_site_calc_flag
_atom_site_refinement_flags_posn
_atom_site_refinement_flags_adp
_atom_site_refinement_flags_occupancy
_atom_site_disorder_assembly
_atom_site_disorder_group
Cl1' Cl 0.2784(6) 0.9194(5) -0.1223(4) 0.163(2) Uani 0.809(8) 1 d . . P A 1
S1' S 0.1906(2) 0.1671(2) 0.19488(16) 0.1195(8) Uani 1 1 d . . . . .
S1 S 0.0389(2) 0.2246(2) 0.33864(17) 0.1262(8) Uani 1 1 d . . . . .
O1 O 0.4801(17) 0.2940(13) 0.7429(8) 0.163(4) Uani 0.809(8) 1 d D . P A 1
O2 O 0.6930(13) 0.2659(13) 0.6308(9) 0.144(3) Uani 0.809(8) 1 d D . P A 1
N1 N 0.537(2) 0.272(3) 0.6542(13) 0.108(5) Uani 0.809(8) 1 d D . P A 1
C3' C 0.1918(8) 0.7073(9) 0.0795(7) 0.0961(19) Uani 1 1 d . U . . .
H3' H 0.169269 0.816426 0.107177 0.115 Uiso 1 1 calc R U . . .
C5' C 0.2810(8) 0.5478(10) -0.0720(6) 0.1046(19) Uani 1 1 d . U . . .
H5' H 0.318669 0.547778 -0.147685 0.125 Uiso 1 1 calc R U . . .
C6' C 0.2617(8) 0.3858(9) -0.0014(7) 0.103(2) Uani 1 1 d . U . . .
H6' H 0.286170 0.276800 -0.029411 0.124 Uiso 1 1 calc R U . . .
C2' C 0.1709(8) 0.5470(9) 0.1513(5) 0.0951(18) Uani 1 1 d . U . . .
H2' H 0.133181 0.548117 0.226890 0.114 Uiso 1 1 calc R U . . .
C4 C 0.4275(11) 0.2631(5) 0.5794(6) 0.089(2) Uani 1 1 d DG . . . .
C5 C 0.5000(5) 0.2475(5) 0.4700(7) 0.0964(19) Uani 1 1 d G . . A .
H5 H 0.624448 0.246451 0.448043 0.116 Uiso 1 1 calc R U . . .
C6 C 0.3867(11) 0.2336(5) 0.3935(4) 0.0965(19) Uani 1 1 d G . . A .
H6 H 0.435255 0.223166 0.320364 0.116 Uiso 1 1 calc R U . . .
C1 C 0.2008(10) 0.2352(5) 0.4264(7) 0.0950(19) Uani 1 1 d G . . A .
C2 C 0.1282(6) 0.2507(5) 0.5357(8) 0.115(2) Uani 1 1 d G . . A .
H2 H 0.003783 0.251780 0.557676 0.137 Uiso 1 1 calc R U . . .
C3 C 0.2415(13) 0.2647(5) 0.6122(4) 0.114(2) Uani 1 1 d G . . A .
H3 H 0.192973 0.275065 0.685357 0.137 Uiso 1 1 calc R U . . .
C4' C 0.2452(8) 0.7092(10) -0.0320(7) 0.0905(18) Uani 1 1 d D U . . .
C1' C 0.2060(7) 0.3842(8) 0.1110(6) 0.0908(18) Uani 1 1 d . U . . .
Cl1 Cl 0.586(2) 0.294(3) 0.6798(12) 0.063(6) Uani 0.191(8) 1 d . . P A 2
O2' O 0.288(3) 0.836(3) -0.2041(15) 0.078(7) Uani 0.191(8) 1 d D U P A 2
O1' O 0.218(5) 1.004(3) -0.072(2) 0.111(10) Uani 0.191(8) 1 d D U P A 2
N1' N 0.255(3) 0.863(3) -0.1083(18) 0.051(8) Uani 0.191(8) 1 d D U P A 2
loop_
_atom_site_aniso_label
_atom_site_aniso_U_11
_atom_site_aniso_U_22
_atom_site_aniso_U_33
_atom_site_aniso_U_23
_atom_site_aniso_U_13
_atom_site_aniso_U_12
Cl1' 0.143(3) 0.120(3) 0.210(6) 0.002(2) -0.010(3) -0.036(2)
S1' 0.1291(15) 0.0834(12) 0.1586(18) -0.0318(11) -0.0317(12) -0.0306(10)
S1 0.0987(13) 0.1232(15) 0.1626(19) -0.0139(12) -0.0143(12) -0.0462(10)
O1 0.202(9) 0.171(7) 0.127(9) -0.064(6) -0.025(6) -0.033(6)
O2 0.132(7) 0.164(7) 0.151(8) -0.031(5) -0.039(6) -0.046(6)
N1 0.129(10) 0.094(7) 0.114(11) -0.036(8) -0.035(9) -0.021(7)
C3' 0.103(4) 0.080(4) 0.114(6) -0.037(4) -0.020(4) -0.017(3)
C5' 0.099(4) 0.111(5) 0.109(5) -0.042(4) -0.024(4) -0.011(4)
C6' 0.100(5) 0.090(4) 0.135(6) -0.059(4) -0.029(4) -0.008(4)
C2' 0.105(4) 0.087(5) 0.101(5) -0.034(4) -0.012(4) -0.020(4)
C4 0.104(8) 0.065(4) 0.089(8) -0.009(4) -0.010(5) -0.012(4)
C5 0.088(5) 0.091(4) 0.103(7) -0.009(4) -0.006(6) -0.021(3)
C6 0.087(6) 0.097(4) 0.101(6) -0.014(4) 0.007(6) -0.027(4)
C1 0.096(7) 0.077(4) 0.102(7) -0.001(3) 0.007(4) -0.026(3)
C2 0.085(5) 0.112(5) 0.134(8) -0.005(5) 0.005(7) -0.025(4)
C3 0.095(7) 0.099(5) 0.122(7) -0.005(4) 0.016(7) -0.006(4)
C4' 0.079(4) 0.094(5) 0.106(5) -0.040(5) -0.019(4) -0.012(3)
C1' 0.080(4) 0.079(4) 0.125(6) -0.040(4) -0.026(4) -0.013(3)
Cl1 0.074(11) 0.073(8) 0.039(10) -0.015(6) -0.006(7) -0.010(7)
O2' 0.102(12) 0.087(12) 0.067(11) -0.047(9) -0.005(9) -0.038(9)
O1' 0.20(3) 0.066(13) 0.070(15) -0.026(10) 0.008(15) -0.033(14)
N1' 0.046(11) 0.067(11) 0.051(10) -0.023(8) -0.020(7) -0.014(7)
loop_
_atom_type_symbol
_atom_type_description
_atom_type_scat_dispersion_real
_atom_type_scat_dispersion_imag
_atom_type_scat_source
C C 0.0181 0.0091 'International Tables Vol C Tables 4.2.6.8 and 6.1.1.4'
H H 0.0000 0.0000 'International Tables Vol C Tables 4.2.6.8 and 6.1.1.4'
Cl Cl 0.3639 0.7018 'International Tables Vol C Tables 4.2.6.8 and 6.1.1.4'
N N 0.0311 0.0180 'International Tables Vol C Tables 4.2.6.8 and 6.1.1.4'
O O 0.0492 0.0322 'International Tables Vol C Tables 4.2.6.8 and 6.1.1.4'
S S 0.3331 0.5567 'International Tables Vol C Tables 4.2.6.8 and 6.1.1.4'
loop_
_geom_angle_atom_site_label_1
_geom_angle_atom_site_label_2
_geom_angle_atom_site_label_3
_geom_angle
_geom_angle_site_symmetry_1
_geom_angle_site_symmetry_3
_geom_angle_publ_flag
C1' S1' S1 106.0(3) . . ?
C1 S1 S1' 105.3(3) . . ?
O1 N1 O2 116.3(18) . . ?
O1 N1 C4 122.0(14) . . ?
O2 N1 C4 121.6(13) . . ?
C2' C3' H3' 119.5 . . ?
C4' C3' H3' 119.5 . . ?
C4' C3' C2' 121.1(6) . . ?
C6' C5' H5' 119.7 . . ?
C4' C5' H5' 119.7 . . ?
C4' C5' C6' 120.5(7) . . ?
C5' C6' H6' 119.9 . . ?
C5' C6' C1' 120.2(6) . . ?
C1' C6' H6' 119.9 . . ?
C3' C2' H2' 120.1 . . ?
C3' C2' C1' 119.7(6) . . ?
C1' C2' H2' 120.1 . . ?
N1 C4 C5 120.3(9) . . ?
N1 C4 C3 119.7(9) . . ?
C5 C4 C3 120.0 . . ?
C5 C4 Cl1 118.4(7) . . ?
C3 C4 Cl1 121.5(7) . . ?
C4 C5 H5 120.0 . . ?
C6 C5 C4 120.0 . . ?
C6 C5 H5 120.0 . . ?
C5 C6 H6 120.0 . . ?
C5 C6 C1 120.0 . . ?
C1 C6 H6 120.0 . . ?
C6 C1 S1 125.3(6) . . ?
C6 C1 C2 120.0 . . ?
C2 C1 S1 114.7(6) . . ?
C1 C2 H2 120.0 . . ?
C3 C2 C1 120.0 . . ?
C3 C2 H2 120.0 . . ?
C4 C3 H3 120.0 . . ?
C2 C3 C4 120.0 . . ?
C2 C3 H3 120.0 . . ?
C3' C4' Cl1' 119.8(5) . . ?
C3' C4' C5' 119.3(7) . . ?
C5' C4' Cl1' 120.9(7) . . ?
N1' C4' C3' 124.2(10) . . ?
N1' C4' C5' 116.4(11) . . ?
C6' C1' S1' 116.5(5) . . ?
C6' C1' C2' 119.2(6) . . ?
C2' C1' S1' 124.3(6) . . ?
O2' N1' C4' 113.1(17) . . ?
O1' N1' C4' 115.1(19) . . ?
O1' N1' O2' 132(2) . . ?
loop_
_geom_bond_atom_site_label_1
_geom_bond_atom_site_label_2
_geom_bond_distance
_geom_bond_site_symmetry_2
_geom_bond_publ_flag
Cl1' C4' 1.792(8) . ?
S1' S1 2.020(3) . ?
S1' C1' 1.769(6) . ?
S1 C1 1.760(5) . ?
O1 N1 1.140(13) . ?
O2 N1 1.152(14) . ?
N1 C4 1.339(14) . ?
C3' H3' 0.9300 . ?
C3' C2' 1.373(8) . ?
C3' C4' 1.366(8) . ?
C5' H5' 0.9300 . ?
C5' C6' 1.374(8) . ?
C5' C4' 1.368(8) . ?
C6' H6' 0.9300 . ?
C6' C1' 1.379(8) . ?
C2' H2' 0.9300 . ?
C2' C1' 1.381(8) . ?
C4 C5 1.3900 . ?
C4 C3 1.3900 . ?
C4 Cl1 1.922(16) . ?
C5 H5 0.9300 . ?
C5 C6 1.3900 . ?
C6 H6 0.9300 . ?
C6 C1 1.3900 . ?
C1 C2 1.3900 . ?
C2 H2 0.9300 . ?
C2 C3 1.3900 . ?
C3 H3 0.9300 . ?
C4' N1' 1.34(2) . ?
O2' N1' 1.216(13) . ?
O1' N1' 1.201(14) . ?
loop_
_geom_torsion_atom_site_label_1
_geom_torsion_atom_site_label_2
_geom_torsion_atom_site_label_3
_geom_torsion_atom_site_label_4
_geom_torsion
_geom_torsion_site_symmetry_1
_geom_torsion_site_symmetry_2
_geom_torsion_site_symmetry_3
_geom_torsion_site_symmetry_4
_geom_torsion_publ_flag
S1' S1 C1 C6 9.2(3) . . . . ?
S1' S1 C1 C2 -172.36(16) . . . . ?
S1 S1' C1' C6' -164.1(4) . . . . ?
S1 S1' C1' C2' 17.6(5) . . . . ?
S1 C1 C2 C3 -178.5(3) . . . . ?
O1 N1 C4 C5 176.1(17) . . . . ?
O1 N1 C4 C3 -6(3) . . . . ?
O2 N1 C4 C5 -1(3) . . . . ?
O2 N1 C4 C3 177.8(16) . . . . ?
N1 C4 C5 C6 178.4(11) . . . . ?
N1 C4 C3 C2 -178.4(11) . . . . ?
C3' C2' C1' S1' 178.2(4) . . . . ?
C3' C2' C1' C6' 0.0(8) . . . . ?
C3' C4' N1' O2' -173.2(11) . . . . ?
C3' C4' N1' O1' 2(3) . . . . ?
C5' C6' C1' S1' -178.7(4) . . . . ?
C5' C6' C1' C2' -0.3(9) . . . . ?
C5' C4' N1' O2' 2.7(18) . . . . ?
C5' C4' N1' O1' 178.1(19) . . . . ?
C6' C5' C4' Cl1' 177.7(5) . . . . ?
C6' C5' C4' C3' 0.7(9) . . . . ?
C6' C5' C4' N1' -175.4(11) . . . . ?
C2' C3' C4' Cl1' -178.0(5) . . . . ?
C2' C3' C4' C5' -1.0(9) . . . . ?
C2' C3' C4' N1' 174.8(12) . . . . ?
C4 C5 C6 C1 0.0 . . . . ?
C5 C4 C3 C2 0.0 . . . . ?
C5 C6 C1 S1 178.3(3) . . . . ?
C5 C6 C1 C2 0.0 . . . . ?
C6 C1 C2 C3 0.0 . . . . ?
C1 C2 C3 C4 0.0 . . . . ?
C3 C4 C5 C6 0.0 . . . . ?
C4' C3' C2' C1' 0.7(9) . . . . ?
C4' C5' C6' C1' -0.1(9) . . . . ?
Cl1 C4 C5 C6 -176.9(8) . . . . ?
Cl1 C4 C3 C2 176.9(8) . . . . ?
