#------------------------------------------------------------------------------
#$Date: 2020-11-04 03:16:39 +0200 (Wed, 04 Nov 2020) $
#$Revision: 258699 $
#$URL: file:///home/coder/svn-repositories/cod/cif/4/51/81/4518166.cif $
#------------------------------------------------------------------------------
#
# This file is available in the Crystallography Open Database (COD),
# http://www.crystallography.net/
#
# All data on this site have been placed in the public domain by the
# contributors.
#
data_4518166
loop_
_publ_author_name
'Yahia, Hamdi Ben'
'Sabri, Souhir'
'Essehli, Rachid'
'Kasak, Peter'
'Drogosz-Stachowicz, Joanna'
'Janecka, Anna'
'El Bali, Brahim'
_publ_section_title
;
 Crystal Growth, Single Crystal Structure, and Biological Activity of
 Thiazolo-Pyridine Dicarboxylic Acid Derivatives
;
_journal_issue                   43
_journal_name_full               'ACS Omega'
_journal_page_first              27756
_journal_page_last               27765
_journal_paper_doi               10.1021/acsomega.0c01769
_journal_volume                  5
_journal_year                    2020
_chemical_formula_moiety         'C9 H5 N O5 S, H2 O, 2(H4 N)'
_chemical_formula_sum            'C9 H15 N3 O6 S'
_chemical_formula_weight         293.3
_space_group_IT_number           2
_space_group_name_Hall           '-P 1'
_space_group_name_H-M_alt        'P -1'
_symmetry_cell_setting           triclinic
_symmetry_Int_Tables_number      2
_symmetry_space_group_name_Hall  '-P 1'
_symmetry_space_group_name_H-M   'P -1'
_cell_angle_alpha                67.751(2)
_cell_angle_beta                 80.440(2)
_cell_angle_gamma                83.967(2)
_cell_formula_units_Z            2
_cell_length_a                   5.6564(3)
_cell_length_b                   10.7717(6)
_cell_length_c                   11.2333(6)
_cell_measurement_reflns_used    9883
_cell_measurement_temperature    293
_cell_measurement_theta_max      28.31
_cell_measurement_theta_min      2.26
_cell_volume                     624.01(6)
_computing_cell_refinement       'SAINT V8.38A (Bruker AXS Inc., 2016)'
_computing_data_collection       'Apex 3'
_computing_data_reduction        'SAINT V8.38A (Bruker AXS Inc., 2017)'
_computing_molecular_graphics    Diamond
_computing_structure_refinement  Jana2006
_computing_structure_solution    'Direct method'
_diffrn_ambient_temperature      293
_diffrn_measured_fraction_theta_full 1
_diffrn_measured_fraction_theta_max 1
_diffrn_measurement_device       'four circle diffractometer'
_diffrn_measurement_device_type  'D8 Venture'
_diffrn_measurement_method       multi-scan
_diffrn_radiation_probe          x-ray
_diffrn_radiation_source         'X-ray tube'
_diffrn_radiation_type           'Mo K\a'
_diffrn_radiation_wavelength     0.71073
_diffrn_reflns_av_R_equivalents  0.0334
_diffrn_reflns_av_unetI/netI     0.0418
_diffrn_reflns_limit_h_max       7
_diffrn_reflns_limit_h_min       -7
_diffrn_reflns_limit_k_max       14
_diffrn_reflns_limit_k_min       -13
_diffrn_reflns_limit_l_max       14
_diffrn_reflns_limit_l_min       -14
_diffrn_reflns_number            9883
_diffrn_reflns_theta_full        28.31
_diffrn_reflns_theta_max         28.31
_diffrn_reflns_theta_min         2.26
_exptl_absorpt_coefficient_mu    0.288
_exptl_absorpt_correction_T_max  0.98
_exptl_absorpt_correction_T_min  0.92
_exptl_absorpt_correction_type   multi-scan
_exptl_absorpt_process_details   sadabs
_exptl_crystal_colour            colorless
_exptl_crystal_density_diffrn    1.561
_exptl_crystal_description       needle
_exptl_crystal_F_000             308
_exptl_crystal_size_max          0.220
_exptl_crystal_size_mid          0.080
_exptl_crystal_size_min          0.050
_refine_diff_density_max         0.30
_refine_diff_density_min         -0.19
_refine_ls_extinction_coef       5300(1000)
_refine_ls_extinction_method
'B-C type 1 Gaussian isotropic (Becker & Coppens, 1974)'
_refine_ls_goodness_of_fit_gt    1.20
_refine_ls_goodness_of_fit_ref   1.12
_refine_ls_hydrogen_treatment    mixed
_refine_ls_number_constraints    48
_refine_ls_number_parameters     185
_refine_ls_number_reflns         3089
_refine_ls_number_restraints     5
_refine_ls_R_factor_all          0.0626
_refine_ls_R_factor_gt           0.0354
_refine_ls_shift/su_max          0.0053
_refine_ls_shift/su_mean         0.0001
_refine_ls_structure_factor_coef Fsqd
_refine_ls_weighting_details     w=1/(\s^2^(I)+0.0035999999I^2^)
_refine_ls_weighting_scheme      sigma
_refine_ls_wR_factor_gt          0.0985
_refine_ls_wR_factor_ref         0.1116
_reflns_number_gt                2144
_reflns_number_total             3089
_reflns_threshold_expression     I>3\s(I)
_cod_data_source_file            ao0c01769_si_005.cif
_cod_data_source_block           (4)
_cod_depositor_comments
;
The following automatic conversions were performed:

data item '_diffrn_radiation_probe' value 'X-ray' was changed to
'x-ray' in accordance with the
/home/data/users/saulius/crontab/automatic-downloads/rss-feeds/ACS/lib/dictionaries/cif_core.dic
dictionary named 'cif_core.dic' version 2.4.2 last updated on
2011-04-26.

Automatic conversion script
Id: cif_fix_values 7556 2019-12-06 15:28:31Z antanas 

 Adding full bibliography for 4518166--4518169.cif.
;
_cod_original_formula_sum        'C9 H15 N3 O6 S1'
_cod_database_code               4518166
loop_
_space_group_symop_id
_space_group_symop_operation_xyz
1 x,y,z
2 -x,-y,-z
loop_
_atom_site_label
_atom_site_type_symbol
_atom_site_fract_x
_atom_site_fract_y
_atom_site_fract_z
_atom_site_adp_type
_atom_site_U_iso_or_equiv
_atom_site_site_symmetry_multiplicity
_atom_site_occupancy
_atom_site_calc_flag
_atom_site_refinement_flags
_atom_site_disorder_assembly
_atom_site_disorder_group
S1 S 0.49810(9) 0.18604(5) 1.04691(4) Uani 0.03142(18) 2 1 d . . .
N1 N 0.3687(2) 0.34983(13) 0.82931(12) Uani 0.0185(5) 2 1 d . . .
O1 O 0.2313(2) 0.45441(12) 0.63444(12) Uani 0.0301(5) 2 1 d . . .
C1 C 0.2147(3) 0.15737(18) 1.00826(17) Uani 0.0297(7) 2 1 d . . .
O5 O 0.5478(3) 0.14917(15) 0.74543(15) Uani 0.0456(6) 2 1 d . . .
C5 C 0.6795(3) 0.54760(16) 0.77539(16) Uani 0.0206(6) 2 1 d . . .
O2 O 0.9981(2) 0.64499(13) 0.81862(13) Uani 0.0335(5) 2 1 d . . .
N2 N 0.9159(3) 0.30990(15) 0.56994(15) Uani 0.0303(6) 2 1 d . . .
C2 C 0.2221(3) 0.23365(15) 0.86175(15) Uani 0.0194(6) 2 1 d . . .
O4 O 0.1833(2) 0.07612(13) 0.76854(14) Uani 0.0391(6) 2 1 d . . .
O3 O 0.8151(2) 0.76459(12) 0.64639(12) Uani 0.0317(5) 2 1 d . . .
N3 N 0.7037(3) 0.13049(15) 0.32850(15) Uani 0.0275(6) 2 1 d . . .
C3 C 0.3694(3) 0.45441(16) 0.71194(15) Uani 0.0205(6) 2 1 d . . .
C4 C 0.5323(3) 0.55578(16) 0.68749(16) Uani 0.0225(6) 2 1 d . . .
C9 C 0.3270(3) 0.14634(16) 0.78282(15) Uani 0.0222(6) 2 1 d . . .
C8 C 0.8464(3) 0.66080(17) 0.74578(17) Uani 0.0227(6) 2 1 d . . .
C6 C 0.6770(3) 0.43624(16) 0.89294(16) Uani 0.0220(6) 2 1 d . . .
O6 O 0.7939(3) 0.03548(13) 0.58466(12) Uani 0.0352(5) 2 1 d . . .
C7 C 0.5220(3) 0.33834(16) 0.91607(15) Uani 0.0197(6) 2 1 d . . .
H1c1 H 0.203253 0.063184 1.027934 Uiso 0.0356 2 1 d . . .
H2c1 H 0.085107 0.194175 1.053619 Uiso 0.0356 2 1 d . . .
H1c2 H 0.062702 0.260583 0.840036 Uiso 0.0233 2 1 d . . .
H1c4 H 0.539174 0.631907 0.607254 Uiso 0.027 2 1 d . . .
H1c6 H 0.781006 0.429426 0.954765 Uiso 0.0264 2 1 d . . .
H1n3 H 0.7166(15) 0.0660(7) 0.2988(10) Uiso 0.0329 2 1 d . . .
H2n3 H 0.741087 0.099131 0.406961 Uiso 0.0329 2 1 d . . .
H3n3 H 0.800455 0.193093 0.27875 Uiso 0.0329 2 1 d . . .
H4n3 H 0.556798 0.163785 0.32951 Uiso 0.0329 2 1 d . . .
H1n2 H 0.9881(13) 0.2557(8) 0.5330(9) Uiso 0.0364 2 1 d . . .
H2n2 H 0.84876 0.377805 0.512952 Uiso 0.0364 2 1 d . . .
H3n2 H 0.806709 0.26745 0.632546 Uiso 0.0364 2 1 d . . .
H4n2 H 1.020134 0.338631 0.601269 Uiso 0.0364 2 1 d . . .
H1o6 H 0.816(3) -0.0598(5) 0.6158(15) Uiso 0.0423 2 1 d . . .
H2o6 H 0.688(3) 0.0532(16) 0.6524(12) Uiso 0.0423 2 1 d . . .
loop_
_atom_site_aniso_label
_atom_site_aniso_type_symbol
_atom_site_aniso_U_11
_atom_site_aniso_U_22
_atom_site_aniso_U_33
_atom_site_aniso_U_12
_atom_site_aniso_U_13
_atom_site_aniso_U_23
S1 S 0.0412(3) 0.0260(3) 0.0219(2) -0.0056(2) -0.00834(19) -0.00041(17)
N1 N 0.0208(7) 0.0148(6) 0.0209(7) -0.0021(5) -0.0030(6) -0.0072(5)
O1 O 0.0375(7) 0.0257(6) 0.0291(7) -0.0080(5) -0.0163(6) -0.0058(5)
C1 C 0.0362(10) 0.0285(9) 0.0225(9) -0.0117(8) 0.0043(8) -0.0081(7)
O5 O 0.0367(9) 0.0465(9) 0.0614(10) -0.0123(7) 0.0203(7) -0.0370(8)
C5 C 0.0192(8) 0.0189(8) 0.0258(8) -0.0003(7) -0.0007(7) -0.0115(7)
O2 O 0.0288(7) 0.0339(7) 0.0417(8) -0.0100(6) -0.0095(6) -0.0139(6)
N2 N 0.0355(9) 0.0271(8) 0.0310(8) -0.0053(7) -0.0077(7) -0.0113(7)
C2 C 0.0188(8) 0.0161(7) 0.0235(8) -0.0039(6) -0.0006(6) -0.0077(6)
O4 O 0.0403(8) 0.0352(8) 0.0561(9) -0.0027(6) -0.0141(7) -0.0296(7)
O3 O 0.0356(8) 0.0221(6) 0.0350(7) -0.0086(6) -0.0041(6) -0.0063(5)
N3 N 0.0272(9) 0.0270(8) 0.0318(8) -0.0042(6) -0.0069(7) -0.0129(6)
C3 C 0.0244(9) 0.0166(8) 0.0211(8) 0.0003(7) -0.0046(7) -0.0076(6)
C4 C 0.0283(9) 0.0164(8) 0.0217(8) -0.0032(7) -0.0044(7) -0.0048(6)
C9 C 0.0291(9) 0.0172(8) 0.0189(8) -0.0006(7) -0.0037(7) -0.0053(6)
C8 C 0.0208(8) 0.0206(8) 0.0293(9) -0.0026(7) 0.0014(7) -0.0135(7)
C6 C 0.0232(9) 0.0216(8) 0.0233(8) -0.0001(7) -0.0068(7) -0.0094(7)
O6 O 0.0479(9) 0.0272(7) 0.0302(7) -0.0028(6) 0.0036(6) -0.0135(6)
C7 C 0.0220(8) 0.0194(8) 0.0179(7) 0.0013(7) -0.0030(7) -0.0074(6)
loop_
_atom_type_symbol
_atom_type_scat_dispersion_real
_atom_type_scat_dispersion_imag
_atom_type_scat_source
C 0.0033 0.0016 'International Tables Vol C tables 4.2.6.8 and 6.1.1.1'
H 0.0000 0.0000 'International Tables Vol C tables 4.2.6.8 and 6.1.1.1'
N 0.0061 0.0033 'International Tables Vol C tables 4.2.6.8 and 6.1.1.1'
O 0.0106 0.0060 'International Tables Vol C tables 4.2.6.8 and 6.1.1.1'
S 0.1246 0.1234 'International Tables Vol C tables 4.2.6.8 and 6.1.1.1'
loop_
_diffrn_standard_refln_index_h
_diffrn_standard_refln_index_k
_diffrn_standard_refln_index_l
? ? ?
loop_
_exptl_crystal_face_index_h
_exptl_crystal_face_index_k
_exptl_crystal_face_index_l
_exptl_crystal_face_perp_dist
? ? ? ?
loop_
_geom_angle_atom_site_label_1
_geom_angle_atom_site_label_2
_geom_angle_atom_site_label_3
_geom_angle_site_symmetry_1
_geom_angle_site_symmetry_2
_geom_angle_site_symmetry_3
_geom_angle
_geom_angle_publ_flag
C1 S1 C7 . . . 91.49(8) ?
C2 N1 C3 . . . 120.74(15) ?
C2 N1 C7 . . . 115.64(12) ?
C3 N1 C7 . . . 123.18(14) ?
S1 C1 C2 . . . 105.56(12) ?
S1 C1 H1c1 . . . 109.47 ?
S1 C1 H2c1 . . . 109.47 ?
C2 C1 H1c1 . . . 109.47 ?
C2 C1 H2c1 . . . 109.47 ?
H1c1 C1 H2c1 . . . 113.11 ?
C9 O5 H2o6 . . . 121.1(6) ?
C4 C5 C8 . . . 119.47(13) ?
C4 C5 C6 . . . 120.67(16) ?
C8 C5 C6 . . . 119.85(17) ?
H1n2 N2 H2n2 . . . 109.47 ?
H1n2 N2 H3n2 . . . 109.47 ?
H1n2 N2 H4n2 . . . 109.47 ?
H2n2 N2 H3n2 . . . 109.47 ?
H2n2 N2 H4n2 . . . 109.47 ?
H3n2 N2 H4n2 . . . 109.47 ?
N1 C2 C1 . . . 105.94(16) ?
N1 C2 C9 . . . 111.14(12) ?
N1 C2 H1c2 . . . 111.81 ?
C1 C2 C9 . . . 112.49(13) ?
C1 C2 H1c2 . . . 110.43 ?
C9 C2 H1c2 . . . 105.16 ?
C8 O3 H1o6 . . 1_565 132.3(6) ?
H1n3 N3 H2n3 . . . 109.47 ?
H1n3 N3 H3n3 . . . 109.47 ?
H1n3 N3 H4n3 . . . 109.47 ?
H2n3 N3 H3n3 . . . 109.47 ?
H2n3 N3 H4n3 . . . 109.47 ?
H3n3 N3 H4n3 . . . 109.47 ?
N1 C3 O1 . . . 119.45(15) ?
N1 C3 C4 . . . 115.58(16) ?
O1 C3 C4 . . . 124.97(13) ?
C5 C4 C3 . . . 121.60(13) ?
C5 C4 H1c4 . . . 119.2 ?
C3 C4 H1c4 . . . 119.2 ?
O5 C9 C2 . . . 117.17(18) ?
O5 C9 O4 . . . 127.13(19) ?
C2 C9 O4 . . . 115.61(15) ?
C5 C8 O2 . . . 118.65(13) ?
C5 C8 O3 . . . 115.59(17) ?
O2 C8 O3 . . . 125.77(17) ?
C5 C6 C7 . . . 117.76(17) ?
C5 C6 H1c6 . . . 121.12 ?
C7 C6 H1c6 . . . 121.12 ?
H1o6 O6 H2o6 . . . 104.5(13) ?
S1 C7 N1 . . . 111.79(12) ?
S1 C7 C6 . . . 127.03(14) ?
N1 C7 C6 . . . 121.11(13) ?
loop_
_geom_bond_atom_site_label_1
_geom_bond_atom_site_label_2
_geom_bond_site_symmetry_1
_geom_bond_site_symmetry_2
_geom_bond_distance
_geom_bond_publ_flag
S1 C1 . . 1.814(2) ?
S1 C7 . . 1.7391(14) ?
N1 C2 . . 1.469(2) ?
N1 C3 . . 1.3717(18) ?
N1 C7 . . 1.372(2) ?
O1 C3 . . 1.263(2) ?
C1 C2 . . 1.531(2) ?
C1 H1c1 . . 0.96 ?
C1 H2c1 . . 0.96 ?
O5 C9 . . 1.250(2) ?
C5 C4 . . 1.367(3) ?
C5 C8 . . 1.523(3) ?
C5 C6 . . 1.407(2) ?
O2 C8 . . 1.238(2) ?
N2 H1n2 . . 0.870(10) ?
N2 H2n2 . . 0.87 ?
N2 H3n2 . . 0.87 ?
N2 H4n2 . . 0.87 ?
C2 C9 . . 1.537(3) ?
C2 H1c2 . . 0.96 ?
O4 C9 . . 1.234(3) ?
O3 C8 . . 1.2676(18) ?
N3 H1n3 . . 0.870(11) ?
N3 H2n3 . . 0.87 ?
N3 H3n3 . . 0.87 ?
N3 H4n3 . . 0.87 ?
C3 C4 . . 1.420(3) ?
C4 H1c4 . . 0.96 ?
C6 C7 . . 1.364(3) ?
C6 H1c6 . . 0.96 ?
O6 H1o6 . . 0.953(6) ?
O6 H2o6 . . 0.953(15) ?
loop_
_geom_hbond_atom_site_label_D
_geom_hbond_atom_site_label_H
_geom_hbond_atom_site_label_A
_geom_hbond_site_symmetry_D
_geom_hbond_site_symmetry_H
_geom_hbond_site_symmetry_A
_geom_hbond_distance_DH
_geom_hbond_distance_HA
_geom_hbond_distance_DA
_geom_hbond_angle_DHA
_geom_hbond_publ_flag
N3 H1n3 O4 . . 2_656 0.870(11) 1.946(10) 2.803(3) 168.1(8) ?
N3 H2n3 O6 . . . 0.87 1.91 2.781(2) 174.69 ?
N3 H3n3 O2 . . 2_766 0.87 2.02 2.8860(19) 170.84 ?
N3 H4n3 O3 . . 2_666 0.87 2.17 3.039(2) 174.06 ?
N2 H1n2 O3 . . 2_766 0.870(10) 2.210(10) 2.976(2) 146.7(7) ?
N2 H2n2 O1 . . 2_666 0.87 2.01 2.8612(18) 167.36 ?
N2 H3n2 O5 . . . 0.87 1.98 2.833(2) 165.90 ?
N2 H4n2 O1 . . 1_655 0.87 1.98 2.828(2) 163.39 ?
O6 H1o6 O3 . . 1_545 0.953(6) 1.790(7) 2.7261(19) 166.7(18) ?
O6 H2o6 O5 . . . 0.953(15) 1.778(17) 2.680(2) 156.8(14) ?
loop_
_refln_index_h
_refln_index_k
_refln_index_l
_refln_F_squared_calc
_refln_F_squared_meas
_refln_F_squared_sigma
_refln_observed_status
1 0 0 1403.36 1382.91 17.67 o
2 0 0 231.63 220.92 3.94 o
3 0 0 665.19 670.30 10.16 o
4 0 0 439.77 489.42 8.58 o
5 0 0 1.89 3.01 2.02 <
6 0 0 254.08 258.82 12.70 o
7 0 0 70.76 58.87 8.70 o
-7 1 0 0.36 0.41 5.07 <
-6 1 0 54.46 52.36 4.33 o
-5 1 0 61.28 62.07 6.44 o
-4 1 0 9.09 9.85 1.87 o
-3 1 0 1242.06 1330.47 15.85 o
-2 1 0 19.64 16.67 1.27 o
-1 1 0 1634.67 1645.00 18.10 o
1 1 0 1299.47 1334.94 21.04 o
2 1 0 680.27 688.67 9.86 o
3 1 0 164.53 168.98 4.47 o
4 1 0 315.81 338.78 10.80 o
5 1 0 79.76 85.60 4.56 o
6 1 0 120.53 115.14 12.04 o
7 1 0 0.03 11.91 7.30 <
-7 2 0 12.87 19.33 7.53 <
-6 2 0 0.00 -3.79 3.07 <
-5 2 0 10.78 16.76 2.76 o
-4 2 0 29.84 29.84 2.19 o
-3 2 0 142.32 141.93 4.00 o
-2 2 0 60.39 70.51 2.16 o
-1 2 0 239.25 209.69 2.88 o
0 2 0 333.43 307.54 4.33 o
1 2 0 27.56 35.03 0.81 o
2 2 0 3448.43 3487.20 44.48 o
3 2 0 510.48 546.72 8.87 o
4 2 0 72.52 79.92 3.37 o
5 2 0 16.56 17.18 2.99 o
6 2 0 19.69 14.42 6.13 <
7 2 0 1.33 5.69 5.13 <
-7 3 0 7.57 8.23 5.23 <
-6 3 0 3.61 7.32 3.27 <
-5 3 0 64.32 64.61 3.72 o
-4 3 0 137.77 130.41 6.14 o
-3 3 0 270.26 273.35 4.31 o
-2 3 0 8.83 8.45 0.74 o
-1 3 0 2704.39 2625.99 33.39 o
0 3 0 853.11 836.09 15.48 o
1 3 0 3199.86 3245.38 41.04 o
2 3 0 132.84 165.04 2.87 o
3 3 0 3.96 5.20 1.05 o
4 3 0 243.89 252.66 5.34 o
5 3 0 187.14 182.87 10.21 o
6 3 0 12.71 17.78 4.30 o
7 3 0 25.46 24.44 5.44 o
-6 4 0 32.18 27.05 5.48 o
-5 4 0 6.20 9.27 2.47 o
-4 4 0 0.29 -0.55 1.30 <
-3 4 0 42.21 42.56 2.13 o
-2 4 0 287.02 296.49 4.40 o
-1 4 0 26.23 31.67 1.51 o
0 4 0 485.79 433.70 15.49 o
1 4 0 1155.59 1207.97 13.92 o
2 4 0 309.43 327.30 4.28 o
3 4 0 299.18 331.43 10.14 o
4 4 0 0.38 -1.40 2.16 <
5 4 0 164.69 170.52 5.45 o
6 4 0 8.91 4.80 4.08 <
7 4 0 22.49 11.56 6.95 <
-6 5 0 1.06 4.50 4.27 <
-5 5 0 51.27 52.60 4.06 o
-4 5 0 7.87 11.22 1.55 o
-3 5 0 109.77 105.22 3.69 o
-2 5 0 108.76 90.59 5.59 o
-1 5 0 28.44 27.41 1.58 o
0 5 0 86.69 105.25 2.70 o
1 5 0 925.23 991.60 12.30 o
2 5 0 113.39 103.61 2.94 o
3 5 0 161.73 165.22 4.50 o
4 5 0 434.10 435.38 10.88 o
5 5 0 132.16 123.34 3.86 o
6 5 0 73.94 73.75 3.69 o
7 5 0 38.45 31.18 10.80 <
-6 6 0 5.89 5.93 4.08 <
-5 6 0 35.67 38.32 3.02 o
-4 6 0 33.49 29.68 2.74 o
-3 6 0 1.85 4.07 1.95 <
-2 6 0 785.29 792.17 12.05 o
-1 6 0 318.68 325.74 5.83 o
0 6 0 431.35 448.24 6.72 o
1 6 0 165.69 186.60 3.42 o
2 6 0 498.04 477.90 14.08 o
3 6 0 88.35 87.56 3.88 o
4 6 0 18.62 22.36 6.23 o
5 6 0 51.29 51.80 5.45 o
6 6 0 41.96 50.01 6.74 o
-6 7 0 9.33 19.12 7.05 <
-5 7 0 115.95 104.28 9.41 o
-4 7 0 5.44 8.31 3.18 <
-3 7 0 117.63 116.53 4.65 o
-2 7 0 297.46 314.58 7.93 o
-1 7 0 55.30 58.16 3.13 o
0 7 0 7.36 5.63 1.25 o
1 7 0 171.31 180.90 3.60 o
2 7 0 19.89 21.87 1.69 o
3 7 0 122.74 129.62 5.27 o
4 7 0 41.52 35.82 4.47 o
5 7 0 32.52 35.36 7.68 o
6 7 0 8.10 13.95 6.21 <
-5 8 0 96.07 102.64 6.57 o
-4 8 0 2.35 4.03 5.08 <
-3 8 0 100.40 97.50 4.97 o
-2 8 0 119.82 112.59 6.53 o
-1 8 0 32.80 32.52 3.45 o
0 8 0 369.88 378.13 6.08 o
1 8 0 1163.85 1136.27 12.75 o
2 8 0 76.61 75.88 3.65 o
3 8 0 136.86 139.21 5.30 o
4 8 0 138.54 135.41 7.40 o
5 8 0 52.21 52.67 8.70 o
6 8 0 0.54 11.21 10.27 <
-5 9 0 13.15 -3.39 13.19 <
-4 9 0 3.73 4.05 3.67 <
-3 9 0 31.27 32.52 3.47 o
-2 9 0 61.12 61.42 3.85 o
-1 9 0 41.51 40.89 3.06 o
0 9 0 227.97 229.44 5.40 o
1 9 0 67.69 62.86 2.68 o
2 9 0 23.47 21.05 2.81 o
3 9 0 16.66 20.59 3.33 o
4 9 0 50.08 54.77 8.47 o
5 9 0 23.70 22.77 8.17 <
-4 10 0 0.82 -1.28 5.68 <
-3 10 0 25.89 28.10 5.27 o
-2 10 0 141.77 140.07 5.59 o
-1 10 0 2.33 3.72 2.45 <
0 10 0 577.33 588.48 15.59 o
1 10 0 57.94 62.08 3.29 o
2 10 0 75.68 76.18 4.16 o
3 10 0 34.99 32.29 7.07 o
4 10 0 13.76 10.68 7.59 <
5 10 0 34.11 27.74 9.81 <
-3 11 0 2.03 -3.17 5.23 <
-2 11 0 22.29 24.29 3.80 o
-1 11 0 382.90 384.03 9.26 o
0 11 0 55.25 49.97 3.95 o
1 11 0 0.01 -3.05 3.02 <
2 11 0 237.96 245.03 6.95 o
3 11 0 5.67 -1.81 5.21 <
4 11 0 0.41 3.50 8.47 <
-2 12 0 0.10 -5.66 9.40 <
-1 12 0 3.05 13.87 5.23 <
0 12 0 0.40 5.30 4.23 <
1 12 0 21.31 17.09 4.29 o
2 12 0 36.97 48.99 4.26 o
3 12 0 211.19 260.46 16.31 o
-1 13 0 17.93 12.73 6.25 <
0 13 0 0.51 3.15 5.20 <
1 13 0 29.37 34.62 5.80 o
-2 -12 1 13.05 16.52 8.58 <
-1 -12 1 1.32 -3.59 4.17 <
0 -12 1 136.36 140.18 5.83 o
1 -12 1 42.78 60.49 6.43 o
2 -12 1 5.22 14.51 6.11 <
-4 -11 1 36.56 34.10 10.80 o
-3 -11 1 19.95 4.85 7.24 <
-2 -11 1 3.01 4.05 4.33 <
-1 -11 1 133.86 144.22 5.53 o
0 -11 1 128.17 135.37 12.73 o
1 -11 1 43.63 43.81 3.87 o
2 -11 1 47.73 47.53 7.15 o
3 -11 1 11.88 17.78 6.51 <
-4 -10 1 14.54 9.98 7.82 <
-3 -10 1 73.07 75.52 8.33 o
-2 -10 1 41.57 49.21 3.68 o
-1 -10 1 2.99 5.12 2.25 <
0 -10 1 3.93 5.84 2.79 <
1 -10 1 6.89 6.05 3.76 <
2 -10 1 17.12 7.63 4.23 <
3 -10 1 66.23 65.96 6.50 o
4 -10 1 3.87 6.45 6.25 <
-5 -9 1 1.21 -1.69 11.85 <
-4 -9 1 9.48 12.14 6.89 <
-2 -9 1 11.05 9.35 2.96 o
-1 -9 1 98.16 106.32 4.54 o
0 -9 1 49.23 52.89 3.10 o
1 -9 1 182.53 190.26 8.75 o
2 -9 1 70.91 72.72 5.51 o
3 -9 1 0.02 0.12 2.81 <
4 -9 1 2.67 3.87 6.99 <
5 -9 1 0.14 10.86 9.11 <
-5 -8 1 31.25 30.10 7.09 o
-4 -8 1 84.96 89.83 9.40 o
-3 -8 1 119.65 124.69 5.38 o
-2 -8 1 64.44 57.38 2.77 o
-1 -8 1 2.97 2.06 1.48 <
0 -8 1 165.49 166.83 4.69 o
1 -8 1 348.79 339.32 6.82 o
2 -8 1 118.08 116.76 4.60 o
3 -8 1 18.27 13.49 2.70 o
4 -8 1 9.42 14.32 3.22 o
5 -8 1 98.69 84.49 7.65 o
-6 -7 1 1.30 3.27 6.53 <
-5 -7 1 8.42 9.02 5.23 <
-4 -7 1 19.04 27.12 4.21 o
-3 -7 1 1.77 0.89 2.49 <
-2 -7 1 147.12 132.51 3.46 o
-1 -7 1 1.59 1.12 1.75 <
0 -7 1 215.61 234.21 4.45 o
1 -7 1 23.96 23.94 1.77 o
2 -7 1 26.98 25.65 2.12 o
3 -7 1 4.47 4.95 2.21 <
4 -7 1 0.62 -0.88 2.74 <
5 -7 1 17.03 17.87 8.17 <
6 -7 1 3.56 10.07 17.78 <
-6 -6 1 9.99 9.90 8.90 <
-5 -6 1 22.14 15.47 4.47 o
-4 -6 1 36.43 43.65 4.29 o
-3 -6 1 48.83 41.99 2.96 o
-2 -6 1 991.71 979.83 29.79 o
-1 -6 1 250.97 252.59 7.86 o
0 -6 1 618.10 598.26 9.67 o
1 -6 1 22.35 18.45 1.45 o
2 -6 1 20.30 15.40 1.67 o
3 -6 1 199.64 191.47 6.17 o
4 -6 1 110.99 113.50 4.91 o
5 -6 1 6.62 8.52 4.50 <
6 -6 1 56.80 47.42 7.06 o
-6 -5 1 15.73 10.33 3.68 <
-5 -5 1 318.48 300.56 11.19 o
-4 -5 1 7.10 6.19 2.04 o
-3 -5 1 111.87 106.79 3.10 o
-2 -5 1 358.64 338.30 5.28 o
-1 -5 1 81.01 81.59 2.12 o
0 -5 1 133.20 142.49 2.77 o
1 -5 1 2643.27 2725.17 30.64 o
2 -5 1 736.27 776.29 15.91 o
3 -5 1 0.57 -0.08 1.86 <
4 -5 1 0.05 0.01 1.35 <
5 -5 1 94.28 101.68 7.27 o
6 -5 1 2.62 4.47 4.58 <
-7 -4 1 52.82 64.70 7.12 o
-6 -4 1 37.30 34.89 5.36 o
-5 -4 1 25.10 30.48 3.64 o
-4 -4 1 0.06 2.42 1.52 <
-3 -4 1 123.78 113.54 3.09 o
-2 -4 1 131.03 135.12 2.60 o
-1 -4 1 1.00 0.81 0.61 <
0 -4 1 925.86 968.63 13.36 o
1 -4 1 48.76 53.04 1.79 o
2 -4 1 9.96 13.15 1.35 o
3 -4 1 413.28 428.43 6.98 o
4 -4 1 70.44 70.62 2.79 o
5 -4 1 19.19 20.10 2.42 o
6 -4 1 7.05 8.35 3.08 <
-7 -3 1 31.65 37.25 9.87 o
-6 -3 1 14.20 17.52 3.97 o
-5 -3 1 1.77 0.42 2.04 <
-4 -3 1 27.55 32.35 2.28 o
-3 -3 1 413.40 393.29 5.47 o
-2 -3 1 283.81 332.36 5.50 o
-1 -3 1 453.60 411.77 6.17 o
0 -3 1 1796.00 1744.24 22.59 o
1 -3 1 116.01 119.37 2.23 o
2 -3 1 0.15 2.91 0.57 o
3 -3 1 878.06 877.18 17.83 o
4 -3 1 31.07 29.95 2.14 o
5 -3 1 3.32 5.07 2.65 <
6 -3 1 12.08 9.08 2.80 o
7 -3 1 53.07 45.93 4.67 o
-7 -2 1 3.33 -1.49 5.60 <
-6 -2 1 44.93 51.97 4.92 o
-5 -2 1 53.81 59.69 5.19 o
-4 -2 1 18.03 19.53 2.03 o
-3 -2 1 991.24 1061.68 13.16 o
-2 -2 1 675.87 719.38 10.18 o
-1 -2 1 428.57 463.44 5.65 o
0 -2 1 1911.49 2024.62 22.30 o
1 -2 1 1618.65 1565.43 38.76 o
2 -2 1 14.25 9.97 0.88 o
3 -2 1 184.86 199.86 5.09 o
4 -2 1 900.69 972.47 12.63 o
5 -2 1 3.70 7.05 1.98 o
6 -2 1 30.19 32.73 3.57 o
7 -2 1 1.60 -3.85 4.80 <
-7 -1 1 1.92 -4.38 5.62 <
-6 -1 1 56.05 75.98 8.35 o
-5 -1 1 1.80 3.18 3.05 <
-4 -1 1 2.20 4.16 1.79 <
-3 -1 1 159.80 143.13 5.16 o
-2 -1 1 35.19 34.04 1.68 o
0 -1 1 55.37 65.03 1.39 o
1 -1 1 2486.05 2296.54 50.47 o
2 -1 1 567.33 527.39 7.52 o
3 -1 1 353.67 394.22 5.67 o
4 -1 1 446.60 466.39 7.06 o
5 -1 1 20.88 16.03 2.22 o
6 -1 1 3.40 5.97 3.86 <
7 -1 1 59.49 41.87 8.24 o
-7 0 1 6.22 19.38 9.05 <
-6 0 1 0.47 -0.70 3.63 <
-5 0 1 9.49 11.64 2.75 o
-4 0 1 7.61 5.97 3.21 <
-3 0 1 109.32 117.90 4.12 o
-2 0 1 1765.36 1739.31 22.95 o
-1 0 1 3250.20 3053.15 33.28 o
1 0 1 826.47 769.45 7.10 o
2 0 1 229.85 263.55 3.76 o
3 0 1 368.49 373.68 5.78 o
4 0 1 404.88 409.58 6.47 o
5 0 1 122.42 131.28 5.04 o
6 0 1 363.96 372.31 8.27 o
7 0 1 128.48 125.38 12.98 o
-7 1 1 254.45 241.82 11.46 o
-6 1 1 9.13 13.08 3.89 o
-5 1 1 25.41 25.32 2.67 o
-4 1 1 25.56 24.70 2.03 o
-3 1 1 18.74 19.76 2.06 o
-2 1 1 72.97 67.32 2.48 o
-1 1 1 268.15 334.70 8.49 o
1 1 1 915.56 919.63 9.24 o
2 1 1 8.32 5.28 0.70 o
3 1 1 166.94 176.90 4.03 o
4 1 1 0.14 1.42 1.56 <
5 1 1 31.88 29.35 4.12 o
6 1 1 333.02 329.03 8.50 o
7 1 1 1.92 -2.08 3.79 <
-7 2 1 167.39 165.99 10.47 o
-6 2 1 1.10 7.98 8.02 <
-5 2 1 88.77 93.57 5.12 o
-4 2 1 63.36 55.80 2.77 o
-3 2 1 53.57 69.50 3.73 o
-2 2 1 202.68 204.31 3.88 o
-1 2 1 3715.97 3576.09 45.34 o
0 2 1 419.64 359.05 4.25 o
1 2 1 474.91 482.77 5.22 o
2 2 1 945.92 965.65 13.31 o
3 2 1 574.56 602.97 9.45 o
4 2 1 293.16 292.33 5.39 o
5 2 1 0.83 0.93 3.75 <
6 2 1 45.01 48.41 4.09 o
7 2 1 30.02 32.63 4.44 o
-7 3 1 1.56 -9.69 5.48 <
-6 3 1 1.62 -0.66 3.25 <
-5 3 1 41.17 49.72 3.66 o
-4 3 1 133.70 129.91 3.70 o
-3 3 1 49.28 50.83 2.38 o
-2 3 1 2.47 0.99 0.92 <
-1 3 1 317.52 325.76 4.38 o
1 3 1 479.53 375.90 6.34 o
2 3 1 1490.72 1589.93 21.15 o
3 3 1 356.09 358.77 8.03 o
4 3 1 152.32 145.77 4.47 o
5 3 1 361.66 349.77 7.01 o
6 3 1 0.42 -0.50 3.25 <
7 3 1 3.82 2.78 4.96 <
-6 4 1 3.43 0.89 4.35 <
-5 4 1 216.83 208.59 5.55 o
-4 4 1 96.16 105.42 3.41 o
-3 4 1 155.35 154.82 3.80 o
-2 4 1 23.28 21.26 1.31 o
-1 4 1 681.75 709.35 10.38 o
0 4 1 168.74 183.08 2.73 o
1 4 1 2200.77 2237.68 22.73 o
2 4 1 50.09 69.66 2.27 o
3 4 1 0.76 5.30 1.42 o
4 4 1 107.22 98.27 2.55 o
5 4 1 4.05 6.48 2.03 o
6 4 1 8.82 6.07 2.36 <
7 4 1 6.35 -3.59 8.26 <
-6 5 1 0.03 2.35 3.63 <
-5 5 1 0.76 -0.01 4.21 <
-4 5 1 36.96 33.91 2.14 o
-3 5 1 74.95 69.88 2.32 o
-2 5 1 3.34 2.56 1.33 <
-1 5 1 180.02 206.58 3.31 o
0 5 1 1062.56 1006.36 14.99 o
1 5 1 464.60 495.96 6.38 o
2 5 1 24.19 35.29 1.94 o
3 5 1 0.56 -1.17 2.01 <
4 5 1 353.60 347.63 9.59 o
5 5 1 2.42 9.81 3.56 <
6 5 1 10.76 8.87 2.49 o
7 5 1 14.00 11.44 9.81 <
-6 6 1 31.48 37.70 4.04 o
-5 6 1 0.53 1.78 2.21 <
-4 6 1 17.16 18.74 2.52 o
-3 6 1 168.29 171.15 3.37 o
-2 6 1 182.90 196.49 4.80 o
-1 6 1 69.22 76.12 2.63 o
0 6 1 70.21 79.39 2.38 o
1 6 1 883.73 954.39 11.54 o
2 6 1 46.04 52.50 2.41 o
3 6 1 53.84 52.92 2.93 o
4 6 1 501.97 466.70 13.45 o
5 6 1 105.75 84.54 11.92 o
6 6 1 10.33 8.67 5.10 <
-6 7 1 0.59 0.12 4.82 <
-5 7 1 21.97 26.43 3.15 o
-4 7 1 102.90 106.81 4.35 o
-3 7 1 131.53 133.72 8.30 o
-2 7 1 144.98 152.09 4.38 o
-1 7 1 110.34 104.44 3.29 o
0 7 1 15.78 14.16 1.78 o
1 7 1 0.33 -0.41 0.96 <
2 7 1 489.01 501.97 7.08 o
3 7 1 0.34 1.65 1.84 <
4 7 1 4.34 1.38 2.53 <
5 7 1 24.87 16.58 4.17 o
6 7 1 38.25 45.13 10.22 o
-5 8 1 22.29 22.01 5.20 o
-4 8 1 195.27 197.76 7.76 o
-3 8 1 6.62 5.84 2.66 <
-2 8 1 41.82 42.98 3.30 o
-1 8 1 494.78 494.89 8.66 o
0 8 1 10.78 10.36 1.47 o
1 8 1 176.59 181.02 3.80 o
2 8 1 194.53 182.11 3.91 o
3 8 1 142.26 168.51 5.44 o
4 8 1 76.95 70.59 5.22 o
5 8 1 10.14 9.60 5.82 <
6 8 1 58.56 75.39 10.69 o
-5 9 1 6.38 3.68 7.65 <
-4 9 1 1.78 2.31 3.92 <
-3 9 1 1.36 -1.40 2.92 <
-2 9 1 0.21 -4.50 2.10 <
-1 9 1 35.13 37.92 2.60 o
0 9 1 3.50 7.22 1.88 o
1 9 1 282.10 275.21 6.61 o
2 9 1 1.93 -0.89 1.95 <
3 9 1 48.67 47.94 3.85 o
4 9 1 14.07 13.08 4.09 o
5 9 1 18.76 27.21 8.17 o
-4 10 1 96.98 92.34 6.07 o
-3 10 1 32.78 36.14 5.84 o
-2 10 1 12.38 14.67 3.05 o
-1 10 1 23.66 23.60 2.87 o
0 10 1 0.55 1.06 2.04 <
1 10 1 120.90 116.42 5.76 o
2 10 1 105.68 99.64 3.83 o
3 10 1 7.80 6.89 3.43 <
4 10 1 1.12 0.88 7.01 <
5 10 1 9.81 14.65 8.58 <
-4 11 1 37.52 37.11 20.12 <
-3 11 1 52.72 51.25 4.82 o
-2 11 1 13.04 15.96 3.46 o
-1 11 1 5.63 4.92 3.57 <
0 11 1 33.52 33.20 3.19 o
1 11 1 11.18 15.36 2.37 o
2 11 1 142.82 145.27 5.28 o
3 11 1 40.49 41.16 5.59 o
4 11 1 13.98 20.61 8.52 <
-3 12 1 1.51 2.51 6.00 <
-2 12 1 22.15 26.80 5.85 o
-1 12 1 8.83 11.91 4.67 <
0 12 1 6.08 5.55 3.83 <
1 12 1 0.06 -3.21 2.56 <
2 12 1 51.50 52.07 4.24 o
3 12 1 0.66 8.17 7.71 <
-1 13 1 7.73 13.84 6.14 <
0 13 1 50.82 50.89 6.05 o
1 13 1 59.90 57.52 5.96 o
2 13 1 15.83 20.14 6.77 <
-2 -12 2 4.58 12.58 5.02 <
-1 -12 2 33.20 37.60 5.56 o
0 -12 2 45.88 41.44 4.77 o
1 -12 2 1.92 6.28 5.57 <
-3 -11 2 176.85 218.38 17.12 o
-2 -11 2 70.27 76.48 5.86 o
-1 -11 2 31.18 27.44 3.57 o
0 -11 2 102.74 106.43 5.25 o
1 -11 2 139.01 153.66 10.35 o
2 -11 2 1.68 -0.68 3.94 <
3 -11 2 8.41 4.88 12.29 <
-4 -10 2 121.23 127.82 11.86 o
-3 -10 2 25.55 32.63 8.29 o
-2 -10 2 57.17 62.49 4.28 o
-1 -10 2 0.48 1.01 5.45 <
0 -10 2 21.99 18.06 2.75 o
1 -10 2 9.35 13.97 2.95 o
2 -10 2 4.61 2.18 3.70 <
3 -10 2 6.98 10.53 3.84 <
4 -10 2 0.91 1.96 6.18 <
-5 -9 2 0.15 0.93 6.88 <
-4 -9 2 18.03 21.98 14.28 <
-3 -9 2 25.97 13.78 6.13 <
-2 -9 2 96.36 94.85 4.66 o
-1 -9 2 206.34 210.09 5.95 o
0 -9 2 354.72 365.44 7.45 o
1 -9 2 22.14 27.01 2.83 o
2 -9 2 17.49 12.94 2.65 o
3 -9 2 44.06 51.44 8.85 o
4 -9 2 25.94 29.63 6.08 o
-5 -8 2 81.03 82.76 7.87 o
-4 -8 2 0.72 -2.83 5.58 <
-3 -8 2 5.43 4.19 3.12 <
-2 -8 2 56.50 58.77 3.03 o
-1 -8 2 176.86 167.61 4.71 o
0 -8 2 10.35 11.19 1.99 o
1 -8 2 290.80 275.06 6.73 o
2 -8 2 137.18 126.93 9.09 o
3 -8 2 27.88 26.90 3.03 o
4 -8 2 104.87 117.30 8.09 o
5 -8 2 5.35 13.05 6.15 <
-6 -7 2 2.41 -4.73 9.17 <
-5 -7 2 14.37 25.60 6.80 o
-4 -7 2 47.01 47.71 4.09 o
-3 -7 2 125.41 119.11 5.09 o
-2 -7 2 407.57 389.86 7.16 o
-1 -7 2 1450.96 1439.87 24.82 o
0 -7 2 395.37 392.48 6.25 o
1 -7 2 0.92 1.69 1.82 <
2 -7 2 37.55 34.60 2.41 o
3 -7 2 28.31 29.77 5.11 o
4 -7 2 3.09 0.78 3.90 <
5 -7 2 200.79 202.36 15.96 o
-6 -6 2 32.31 40.93 8.17 o
-5 -6 2 4.69 10.13 3.88 <
-4 -6 2 0.46 -4.32 2.21 <
-3 -6 2 369.07 359.77 6.35 o
-2 -6 2 571.30 552.13 7.00 o
-1 -6 2 112.85 119.43 3.43 o
0 -6 2 138.63 135.25 3.14 o
1 -6 2 132.57 117.78 3.24 o
2 -6 2 1.25 4.29 1.42 o
3 -6 2 36.92 41.04 2.91 o
4 -6 2 703.96 728.16 25.62 o
5 -6 2 190.34 203.70 12.38 o
6 -6 2 22.57 38.04 11.01 o
-6 -5 2 5.58 0.41 5.86 <
-5 -5 2 0.21 -1.27 4.30 <
-4 -5 2 0.47 1.49 2.17 <
-3 -5 2 1.92 2.71 1.96 <
-2 -5 2 133.18 124.61 8.64 o
-1 -5 2 193.33 202.88 3.67 o
0 -5 2 349.15 341.33 6.14 o
1 -5 2 856.98 895.26 13.32 o
2 -5 2 46.41 39.59 2.04 o
3 -5 2 37.87 41.52 2.39 o
4 -5 2 1.83 3.95 2.52 <
5 -5 2 28.61 28.03 4.69 o
6 -5 2 6.99 10.12 4.49 <
-6 -4 2 3.68 -6.36 7.12 <
-5 -4 2 2.23 0.00 2.57 <
-4 -4 2 78.34 72.73 3.39 o
-3 -4 2 454.64 457.17 7.08 o
-2 -4 2 13.97 7.14 1.65 o
-1 -4 2 189.64 187.34 3.28 o
0 -4 2 200.12 197.22 4.04 o
1 -4 2 615.64 671.19 10.14 o
2 -4 2 113.46 114.75 2.75 o
3 -4 2 13.51 10.51 1.54 o
4 -4 2 1.17 -0.27 1.79 <
5 -4 2 15.47 20.65 4.24 o
6 -4 2 0.68 0.25 2.62 <
-6 -3 2 77.10 74.58 7.89 o
-5 -3 2 41.96 41.78 3.22 o
-4 -3 2 67.16 65.86 3.07 o
-3 -3 2 30.62 34.56 1.93 o
-2 -3 2 726.89 768.36 9.81 o
-1 -3 2 1.55 4.63 0.86 o
0 -3 2 63.13 89.21 2.01 o
1 -3 2 392.57 361.24 7.86 o
2 -3 2 545.45 534.45 6.19 o
3 -3 2 6.35 7.91 1.72 o
4 -3 2 6.89 4.55 1.63 <
5 -3 2 128.99 128.85 5.20 o
6 -3 2 24.68 34.50 3.12 o
7 -3 2 33.77 28.61 4.74 o
-7 -2 2 6.84 1.23 8.99 <
-6 -2 2 59.73 69.58 5.57 o
-5 -2 2 6.00 5.80 2.73 <
-4 -2 2 0.07 -1.56 1.44 <
-3 -2 2 529.39 540.99 7.83 o
-2 -2 2 169.92 181.78 6.16 o
-1 -2 2 111.44 100.61 1.78 o
0 -2 2 688.37 601.10 10.57 o
1 -2 2 555.22 615.79 23.23 o
2 -2 2 91.76 88.96 1.65 o
3 -2 2 42.02 47.54 1.78 o
4 -2 2 84.78 102.83 2.70 o
5 -2 2 41.41 38.73 2.63 o
6 -2 2 46.99 42.01 3.39 o
7 -2 2 3.75 -0.30 4.29 <
-7 -1 2 3.05 5.12 4.95 <
-6 -1 2 2.64 7.74 3.86 <
-5 -1 2 76.53 69.66 5.36 o
-4 -1 2 201.00 176.85 6.39 o
-3 -1 2 291.95 315.58 5.16 o
-2 -1 2 1120.48 1157.92 13.73 o
-1 -1 2 0.26 3.72 0.51 o
0 -1 2 13.73 18.78 0.66 o
1 -1 2 248.83 252.90 4.30 o
2 -1 2 975.05 992.66 10.83 o
3 -1 2 219.16 211.75 3.27 o
4 -1 2 6.41 3.02 1.14 <
5 -1 2 16.40 14.62 1.90 o
6 -1 2 19.57 28.71 2.95 o
7 -1 2 2.96 1.05 3.88 <
-7 0 2 20.31 23.62 6.40 o
-6 0 2 109.41 104.33 7.48 o
-5 0 2 29.41 33.80 4.13 o
-4 0 2 589.88 592.16 36.35 o
-3 0 2 614.30 588.11 14.72 o
-2 0 2 32.38 39.25 1.87 o
-1 0 2 72.03 88.95 1.74 o
0 0 2 1840.86 1805.99 19.77 o
1 0 2 258.28 229.81 2.27 o
2 0 2 1892.63 1814.89 20.34 o
3 0 2 179.92 178.15 2.85 o
4 0 2 2.81 2.55 1.51 <
5 0 2 126.06 120.93 3.59 o
6 0 2 4.71 7.47 2.58 <
7 0 2 51.95 62.76 5.02 o
-7 1 2 35.27 39.41 6.66 o
-6 1 2 0.21 2.82 3.69 <
-5 1 2 177.10 174.89 5.84 o
-4 1 2 10.39 12.12 2.60 o
-3 1 2 96.67 117.91 3.65 o
-2 1 2 1195.27 1212.81 20.32 o
-1 1 2 4728.98 4757.28 72.93 o
0 1 2 1489.03 1442.15 15.83 o
1 1 2 727.63 798.01 6.80 o
2 1 2 133.91 155.07 3.76 o
3 1 2 65.56 59.58 1.75 o
4 1 2 28.71 28.67 1.68 o
5 1 2 10.84 8.59 1.87 o
6 1 2 88.57 99.81 8.56 o
7 1 2 0.00 -3.25 4.03 <
-7 2 2 59.18 42.25 21.00 <
-6 2 2 23.62 27.54 4.32 o
-5 2 2 126.91 129.98 5.72 o
-4 2 2 15.59 15.58 1.98 o
-3 2 2 498.83 521.00 8.69 o
-2 2 2 1268.08 1306.32 17.76 o
0 2 2 532.29 547.03 6.37 o
1 2 2 1.54 4.55 0.34 o
2 2 2 657.11 631.85 6.98 o
3 2 2 268.21 294.32 4.50 o
4 2 2 14.61 18.01 2.11 o
5 2 2 141.04 135.51 4.50 o
6 2 2 80.07 78.67 3.74 o
7 2 2 79.53 88.17 5.67 o
-7 3 2 2.85 0.06 9.63 <
-6 3 2 27.78 27.33 4.19 o
-5 3 2 41.31 45.42 3.22 o
-4 3 2 128.27 130.71 3.90 o
-3 3 2 384.60 395.70 7.16 o
-2 3 2 195.24 252.46 4.68 o
-1 3 2 6332.84 6605.62 82.56 o
1 3 2 302.21 255.67 7.88 o
2 3 2 8.87 15.08 0.88 o
3 3 2 248.99 251.65 3.80 o
4 3 2 92.56 73.60 2.78 o
5 3 2 578.63 601.37 8.28 o
6 3 2 3.92 0.82 3.85 <
7 3 2 10.29 11.93 5.41 <
-6 4 2 12.84 16.81 4.24 o
-5 4 2 67.44 66.39 3.29 o
-4 4 2 305.91 316.25 6.72 o
-3 4 2 6.15 5.60 1.39 o
-2 4 2 417.00 409.35 8.18 o
-1 4 2 2273.09 2330.57 26.04 o
0 4 2 462.82 470.51 5.91 o
1 4 2 20.40 21.99 0.99 o
2 4 2 2372.43 2515.21 28.24 o
3 4 2 89.17 99.72 2.48 o
4 4 2 175.16 166.27 3.77 o
5 4 2 19.44 16.98 2.44 o
6 4 2 22.10 25.85 3.36 o
7 4 2 8.94 8.12 8.47 <
-6 5 2 20.83 17.05 4.00 o
-5 5 2 50.06 53.31 3.33 o
-4 5 2 363.86 365.17 6.25 o
-3 5 2 26.08 23.03 2.01 o
-2 5 2 327.29 332.73 5.25 o
-1 5 2 580.42 585.39 7.48 o
0 5 2 391.91 374.87 5.07 o
1 5 2 858.45 952.80 11.68 o
2 5 2 108.57 88.48 2.32 o
3 5 2 1037.19 1113.84 17.14 o
4 5 2 2.74 1.73 2.10 <
5 5 2 23.45 26.07 4.03 o
6 5 2 136.85 137.50 4.55 o
7 5 2 7.44 7.76 8.76 <
-6 6 2 21.50 22.50 4.15 o
-5 6 2 21.68 23.43 3.77 o
-4 6 2 0.73 0.18 1.93 <
-3 6 2 196.26 200.66 4.49 o
-2 6 2 32.22 44.55 2.15 o
-1 6 2 10.72 11.04 1.32 o
0 6 2 57.22 51.41 1.76 o
1 6 2 0.17 -0.03 0.96 <
2 6 2 162.37 178.33 3.57 o
3 6 2 428.38 422.39 10.56 o
4 6 2 14.04 10.67 2.30 o
5 6 2 2.81 1.96 6.16 <
6 6 2 19.75 20.35 5.31 o
7 6 2 174.59 214.64 12.62 o
-6 7 2 14.22 21.05 5.40 o
-5 7 2 28.51 29.27 3.29 o
-4 7 2 114.14 106.50 4.86 o
-3 7 2 14.29 13.93 1.87 o
-2 7 2 1.22 2.44 2.25 <
-1 7 2 591.37 607.71 9.18 o
0 7 2 799.61 788.40 12.94 o
1 7 2 116.07 120.29 3.15 o
2 7 2 0.27 1.91 1.02 <
3 7 2 388.90 387.23 7.45 o
4 7 2 41.91 31.51 5.61 o
5 7 2 93.40 90.39 6.29 o
6 7 2 31.07 43.70 9.02 o
-5 8 2 11.18 8.98 2.88 o
-4 8 2 104.26 98.90 6.57 o
-3 8 2 352.03 352.59 9.23 o
-2 8 2 34.58 32.85 2.87 o
-1 8 2 186.16 200.01 5.80 o
0 8 2 375.46 371.27 6.88 o
1 8 2 51.84 47.44 2.52 o
2 8 2 92.25 87.13 3.13 o
3 8 2 55.74 50.40 7.56 o
4 8 2 9.80 9.17 3.25 <
5 8 2 9.38 9.02 4.11 <
6 8 2 1.55 2.80 8.47 <
-5 9 2 1.70 -2.16 7.30 <
-4 9 2 4.40 4.38 4.23 <
-3 9 2 11.01 9.60 3.16 o
-2 9 2 38.74 42.36 6.75 o
-1 9 2 7.24 5.68 2.10 <
0 9 2 41.99 43.93 2.86 o
1 9 2 48.65 50.81 2.53 o
2 9 2 24.30 22.04 2.00 o
3 9 2 0.06 0.76 2.35 <
4 9 2 16.32 22.54 3.61 o
5 9 2 119.69 107.70 7.30 o
6 9 2 0.67 14.07 9.98 <
-4 10 2 0.03 3.56 4.86 <
-3 10 2 0.02 -3.18 3.59 <
-2 10 2 13.70 15.85 3.08 o
-1 10 2 248.90 250.61 6.60 o
0 10 2 1029.41 1059.65 14.11 o
1 10 2 233.08 226.10 4.98 o
2 10 2 83.20 78.70 4.05 o
3 10 2 0.51 -0.82 6.61 <
4 10 2 75.99 76.31 8.45 o
5 10 2 13.00 8.23 8.29 <
-4 11 2 5.03 7.76 7.71 <
-3 11 2 17.20 8.61 13.17 <
-2 11 2 46.04 42.83 4.89 o
-1 11 2 125.48 133.84 5.56 o
0 11 2 144.71 127.64 9.39 o
1 11 2 213.93 205.41 5.20 o
2 11 2 2.33 -0.05 3.53 <
3 11 2 0.61 -8.87 9.98 <
4 11 2 61.05 80.36 10.22 o
5 11 2 0.78 3.97 9.28 <
-3 12 2 69.14 62.55 7.48 o
-2 12 2 48.86 52.49 8.06 o
-1 12 2 152.98 150.58 8.03 o
0 12 2 7.44 7.72 3.14 <
1 12 2 0.06 -0.19 2.98 <
2 12 2 2.22 5.21 2.83 <
3 12 2 56.52 60.56 9.29 o
4 12 2 32.91 18.39 9.05 <
-2 13 2 57.49 58.60 10.54 o
-1 13 2 135.10 126.20 10.69 o
0 13 2 91.54 107.53 18.81 o
1 13 2 138.12 145.77 8.12 o
2 13 2 12.65 10.94 4.98 <
3 13 2 4.27 -2.39 8.82 <
-2 -11 3 52.89 54.66 5.73 o
-1 -11 3 128.17 126.07 7.89 o
0 -11 3 40.22 43.32 5.45 o
1 -11 3 43.29 40.97 4.42 o
2 -11 3 32.87 34.65 6.62 o
-3 -10 3 95.75 106.22 8.48 o
-2 -10 3 14.09 15.71 3.70 o
-1 -10 3 13.27 13.50 3.24 o
0 -10 3 105.18 112.32 5.06 o
1 -10 3 0.26 -0.51 2.98 <
2 -10 3 2.65 3.56 7.01 <
3 -10 3 132.63 138.49 14.51 o
-4 -9 3 5.46 10.86 6.07 <
-3 -9 3 156.60 152.98 6.60 o
-2 -9 3 147.96 164.07 6.56 o
-1 -9 3 4.42 5.68 2.66 <
0 -9 3 56.35 56.96 4.92 o
1 -9 3 37.64 42.99 3.45 o
2 -9 3 23.73 23.43 3.14 o
3 -9 3 7.79 12.67 3.35 o
4 -9 3 156.04 160.60 16.33 o
-5 -8 3 19.31 10.98 6.76 <
-4 -8 3 9.79 6.54 5.08 <
-3 -8 3 3.81 2.66 4.23 <
-2 -8 3 44.27 43.91 3.00 o
-1 -8 3 1.06 3.60 2.00 <
0 -8 3 9.53 4.75 2.00 <
1 -8 3 33.93 28.07 2.44 o
2 -8 3 25.21 22.13 2.83 o
3 -8 3 44.35 52.20 8.64 o
4 -8 3 6.20 11.79 8.12 <
5 -8 3 15.31 15.47 6.53 <
-5 -7 3 21.92 23.36 6.24 o
-4 -7 3 187.17 175.49 6.85 o
-3 -7 3 9.66 4.52 2.35 <
-2 -7 3 93.11 92.07 3.96 o
-1 -7 3 184.02 198.39 6.00 o
0 -7 3 20.09 23.86 1.75 o
1 -7 3 40.17 40.60 2.43 o
2 -7 3 85.94 77.45 3.80 o
3 -7 3 0.00 -0.85 3.15 <
4 -7 3 4.79 3.62 4.08 <
5 -7 3 100.01 82.63 8.97 o
-6 -6 3 29.83 37.14 10.86 o
-5 -6 3 20.83 21.95 3.88 o
-4 -6 3 85.30 74.44 5.79 o
-3 -6 3 87.39 94.84 4.47 o
-2 -6 3 0.41 -0.38 1.40 <
-1 -6 3 70.01 67.52 2.80 o
0 -6 3 53.04 51.16 5.41 o
1 -6 3 101.60 99.75 4.41 o
2 -6 3 98.26 85.90 3.06 o
3 -6 3 166.80 177.08 5.88 o
4 -6 3 109.82 99.49 6.41 o
5 -6 3 262.59 261.27 24.21 o
6 -6 3 2.99 10.10 6.28 <
-6 -5 3 8.68 1.17 9.22 <
-5 -5 3 6.94 3.53 3.67 <
-4 -5 3 46.99 47.92 3.62 o
-3 -5 3 336.17 342.85 6.24 o
-2 -5 3 450.51 461.39 6.25 o
-1 -5 3 16.08 13.31 1.41 o
0 -5 3 26.48 21.51 1.96 o
1 -5 3 338.67 371.34 11.49 o
2 -5 3 51.26 47.45 1.76 o
3 -5 3 51.69 53.36 4.13 o
4 -5 3 1.10 1.94 2.81 <
5 -5 3 0.11 -1.96 3.88 <
6 -5 3 5.06 10.30 5.86 <
-6 -4 3 13.67 16.14 5.63 <
-5 -4 3 85.74 99.97 7.02 o
-4 -4 3 370.67 367.10 10.62 o
-3 -4 3 385.04 370.91 6.34 o
-2 -4 3 201.62 189.26 4.91 o
-1 -4 3 701.87 725.29 9.28 o
0 -4 3 122.35 102.44 2.50 o
1 -4 3 0.15 1.34 1.18 <
2 -4 3 398.73 384.36 6.07 o
3 -4 3 160.27 159.08 4.58 o
4 -4 3 1.26 2.18 2.30 <
5 -4 3 112.80 113.63 7.32 o
6 -4 3 4.06 -0.37 3.58 <
-6 -3 3 91.22 90.41 6.83 o
-5 -3 3 50.40 57.20 5.17 o
-4 -3 3 261.21 273.02 5.69 o
-3 -3 3 66.70 59.22 2.62 o
-2 -3 3 19.23 19.39 1.27 o
-1 -3 3 539.30 607.28 8.11 o
0 -3 3 2622.07 2792.58 41.49 o
1 -3 3 54.77 59.86 1.70 o
2 -3 3 165.02 175.81 3.31 o
3 -3 3 8.65 14.98 2.24 o
4 -3 3 193.34 192.69 3.65 o
5 -3 3 0.17 1.46 2.15 <
6 -3 3 21.09 24.98 2.96 o
7 -3 3 0.16 -4.36 4.15 <
-6 -2 3 0.59 -3.36 4.30 <
-5 -2 3 20.78 23.37 3.33 o
-4 -2 3 15.55 16.40 2.28 o
-3 -2 3 92.11 104.44 3.34 o
-2 -2 3 73.47 78.03 2.29 o
-1 -2 3 40.87 34.57 1.48 o
0 -2 3 3760.80 3809.81 42.83 o
1 -2 3 761.37 777.83 8.42 o
2 -2 3 145.58 135.30 2.69 o
3 -2 3 22.91 25.62 1.17 o
4 -2 3 90.95 96.17 2.61 o
5 -2 3 4.97 6.25 1.71 o
6 -2 3 18.40 15.32 3.14 o
7 -2 3 15.10 12.58 3.89 o
-6 -1 3 51.48 50.60 5.61 o
-5 -1 3 60.77 66.99 4.79 o
-4 -1 3 79.71 78.01 3.88 o
-3 -1 3 184.29 180.02 9.89 o
-2 -1 3 180.81 192.72 3.48 o
-1 -1 3 1.07 0.61 0.55 <
0 -1 3 275.82 273.28 3.69 o
1 -1 3 3089.50 2982.51 46.94 o
2 -1 3 215.67 215.79 4.74 o
3 -1 3 256.96 298.74 3.46 o
4 -1 3 24.01 18.48 1.66 o
5 -1 3 7.01 7.96 1.73 o
6 -1 3 40.70 43.57 3.07 o
7 -1 3 2.57 0.97 3.89 <
-7 0 3 0.34 -0.50 6.50 <
-6 0 3 20.05 21.05 4.85 o
-5 0 3 80.08 78.16 8.06 o
-4 0 3 193.62 216.80 7.14 o
-3 0 3 804.85 830.47 12.52 o
-2 0 3 0.70 -0.15 0.83 <
-1 0 3 0.93 1.95 0.62 o
0 0 3 862.50 826.32 8.51 o
1 0 3 3252.72 3183.74 61.96 o
2 0 3 278.90 256.29 2.82 o
3 0 3 1117.44 1260.69 12.14 o
4 0 3 129.58 125.60 3.53 o
5 0 3 5.63 4.08 1.61 <
6 0 3 12.47 10.82 2.81 o
7 0 3 19.01 21.11 4.76 o
-7 1 3 22.68 22.28 6.92 o
-6 1 3 4.67 15.85 4.79 o
-5 1 3 3.57 3.21 4.38 <
-4 1 3 216.46 227.64 9.27 o
-3 1 3 8.44 6.79 1.65 o
-2 1 3 624.29 618.33 9.45 o
-1 1 3 3114.45 3168.18 40.23 o
0 1 3 216.38 180.86 3.06 o
1 1 3 172.47 115.78 2.72 o
2 1 3 2016.01 1983.90 21.38 o
3 1 3 1508.12 1609.47 19.95 o
4 1 3 167.49 182.58 3.42 o
5 1 3 0.67 -3.12 1.65 <
6 1 3 2.36 2.48 2.46 <
7 1 3 0.13 2.78 3.74 <
-6 2 3 17.37 15.36 5.72 <
-5 2 3 55.64 54.17 4.82 o
-4 2 3 289.71 283.28 10.58 o
-3 2 3 513.81 527.58 8.91 o
-2 2 3 141.61 145.58 4.16 o
-1 2 3 322.12 381.16 7.18 o
1 2 3 587.90 580.51 6.86 o
2 2 3 491.08 470.15 5.42 o
3 2 3 887.12 875.00 9.75 o
4 2 3 5.70 3.67 1.10 o
5 2 3 435.23 451.66 9.53 o
6 2 3 603.57 603.73 10.05 o
7 2 3 9.65 4.89 3.79 <
-6 3 3 1.10 1.85 4.15 <
-5 3 3 60.00 62.02 4.93 o
-4 3 3 132.28 127.52 5.34 o
-3 3 3 61.45 55.92 5.16 o
-2 3 3 155.24 169.89 3.83 o
-1 3 3 31.02 38.73 1.58 o
0 3 3 2469.87 2435.02 26.75 o
1 3 3 39.94 52.87 0.95 o
2 3 3 223.29 217.19 2.66 o
3 3 3 15.40 18.04 1.26 o
4 3 3 26.46 25.57 1.85 o
5 3 3 597.98 589.47 8.98 o
6 3 3 0.31 0.71 2.56 <
7 3 3 30.96 26.57 4.32 o
-6 4 3 6.92 6.11 5.60 <
-5 4 3 0.42 -0.99 2.76 <
-4 4 3 0.55 1.62 2.08 <
-3 4 3 44.71 56.90 2.87 o
-2 4 3 1640.79 1719.77 23.14 o
-1 4 3 474.93 473.69 6.36 o
0 4 3 1668.53 1616.44 36.65 o
1 4 3 156.45 165.89 2.30 o
2 4 3 982.75 1032.50 10.88 o
3 4 3 400.80 395.76 5.21 o
4 4 3 0.06 1.05 1.33 <
5 4 3 3.49 4.22 2.03 <
6 4 3 128.11 130.28 5.38 o
7 4 3 7.61 10.82 4.01 <
-6 5 3 2.50 3.40 11.07 <
-5 5 3 103.92 102.23 4.56 o
-4 5 3 112.94 120.82 4.60 o
-3 5 3 49.86 45.55 2.68 o
-2 5 3 149.92 173.92 5.04 o
-1 5 3 136.40 121.14 2.76 o
0 5 3 904.50 963.33 11.40 o
1 5 3 2201.30 2178.56 24.33 o
2 5 3 641.65 693.38 8.86 o
3 5 3 100.74 103.42 2.93 o
4 5 3 165.43 161.33 4.73 o
5 5 3 18.72 15.30 2.63 o
6 5 3 18.34 23.27 2.65 o
7 5 3 67.60 73.35 11.21 o
-6 6 3 35.05 33.75 4.74 o
-5 6 3 46.23 44.77 3.53 o
-4 6 3 144.60 150.72 5.20 o
-3 6 3 84.31 88.35 3.52 o
-2 6 3 51.52 59.54 2.52 o
-1 6 3 159.01 153.06 6.29 o
0 6 3 51.14 56.30 1.85 o
1 6 3 48.53 57.22 1.83 o
2 6 3 5.60 5.78 0.90 o
3 6 3 32.44 40.20 2.40 o
4 6 3 91.07 83.16 8.42 o
5 6 3 2.55 -0.51 2.84 <
6 6 3 5.51 7.71 6.77 <
7 6 3 2.52 7.24 7.88 <
-6 7 3 2.07 8.73 13.11 <
-5 7 3 17.98 17.33 3.21 o
-4 7 3 41.77 43.33 3.55 o
-3 7 3 2.47 3.27 1.90 <
-2 7 3 190.99 194.38 11.69 o
-1 7 3 477.34 477.85 8.18 o
0 7 3 691.22 733.19 10.70 o
1 7 3 92.15 74.45 2.22 o
2 7 3 232.44 227.70 3.17 o
3 7 3 104.86 95.89 4.86 o
4 7 3 72.49 77.96 4.08 o
5 7 3 93.22 102.22 6.11 o
6 7 3 16.54 14.60 5.10 <
-5 8 3 6.84 -0.22 3.53 <
-4 8 3 54.87 54.47 3.27 o
-3 8 3 10.39 11.91 4.27 <
-2 8 3 389.90 402.90 6.61 o
-1 8 3 119.81 127.43 4.93 o
0 8 3 385.89 401.17 6.10 o
1 8 3 536.03 542.98 7.78 o
2 8 3 278.23 273.25 3.77 o
3 8 3 109.45 101.67 4.35 o
4 8 3 197.28 167.15 6.58 o
5 8 3 30.68 29.61 4.61 o
6 8 3 33.73 42.59 6.27 o
-5 9 3 7.03 11.53 16.43 <
-4 9 3 3.85 13.72 4.82 <
-3 9 3 52.05 53.96 4.61 o
-2 9 3 0.98 -1.16 2.17 <
-1 9 3 69.86 65.89 5.96 o
0 9 3 53.91 51.92 2.54 o
1 9 3 71.65 66.43 3.19 o
2 9 3 22.42 22.35 1.86 o
3 9 3 322.68 262.53 6.44 o
4 9 3 168.87 148.57 5.78 o
5 9 3 0.44 9.55 4.36 <
6 9 3 5.56 -3.50 8.70 <
-4 10 3 0.01 10.45 6.60 <
-3 10 3 4.96 1.11 7.94 <
-2 10 3 137.99 139.04 6.04 o
-1 10 3 61.03 60.17 3.81 o
0 10 3 349.60 341.72 7.38 o
1 10 3 22.09 24.86 2.17 o
2 10 3 5.21 7.34 2.56 <
3 10 3 65.27 71.27 4.47 o
4 10 3 52.43 53.23 5.40 o
5 10 3 33.27 24.90 12.00 <
-4 11 3 0.02 -7.06 7.12 <
-3 11 3 1.46 -0.29 5.78 <
-2 11 3 8.74 2.42 4.82 <
-1 11 3 44.55 40.11 9.23 o
0 11 3 3.97 9.98 4.05 <
1 11 3 0.60 1.20 2.09 <
2 11 3 19.00 17.17 3.42 o
3 11 3 151.59 151.70 7.95 o
4 11 3 14.93 16.46 6.71 <
5 11 3 8.49 6.89 9.17 <
-3 12 3 2.16 8.06 6.17 <
-2 12 3 49.52 42.45 5.45 o
-1 12 3 10.96 4.09 5.14 <
0 12 3 0.17 1.42 2.87 <
1 12 3 7.83 3.97 3.36 <
2 12 3 1.93 2.63 2.71 <
3 12 3 22.02 40.55 5.93 o
4 12 3 13.86 30.88 8.76 o
-2 13 3 1.98 4.17 6.00 <
-1 13 3 23.22 28.20 5.58 o
0 13 3 0.08 -5.02 4.40 <
1 13 3 6.23 1.31 3.82 <
2 13 3 38.55 39.00 4.85 o
3 13 3 0.45 -10.86 8.06 <
0 14 3 29.20 16.23 5.65 <
1 14 3 22.73 20.40 7.36 <
-1 -11 4 0.04 3.72 4.27 <
0 -11 4 35.22 52.40 6.69 o
1 -11 4 10.15 9.87 4.42 <
-3 -10 4 7.44 14.26 4.72 o
-2 -10 4 14.48 9.08 6.04 <
-1 -10 4 21.81 20.55 3.40 o
0 -10 4 3.02 4.65 3.04 <
1 -10 4 38.88 40.15 2.98 o
2 -10 4 66.30 56.12 4.91 o
3 -10 4 22.87 24.46 6.36 o
-4 -9 4 299.99 304.75 41.52 o
-3 -9 4 103.68 87.27 11.27 o
-2 -9 4 56.87 55.87 4.32 o
-1 -9 4 47.22 40.63 3.33 o
0 -9 4 181.73 193.29 5.96 o
1 -9 4 16.54 4.61 3.98 <
2 -9 4 142.65 152.99 6.47 o
3 -9 4 57.45 48.18 6.32 o
4 -9 4 9.42 10.01 6.19 <
-4 -8 4 20.33 15.44 6.01 <
-3 -8 4 193.45 198.07 6.90 o
-2 -8 4 0.07 0.25 2.48 <
-1 -8 4 2.49 2.41 2.74 <
0 -8 4 0.00 -1.30 2.10 <
1 -8 4 21.71 18.48 3.23 o
2 -8 4 0.56 1.23 2.01 <
3 -8 4 0.03 -0.82 7.18 <
4 -8 4 0.16 -4.76 4.61 <
-5 -7 4 7.01 13.25 6.57 <
-4 -7 4 68.51 69.98 5.10 o
-3 -7 4 77.19 76.09 4.66 o
-2 -7 4 74.14 70.56 4.36 o
-1 -7 4 482.77 502.58 9.27 o
0 -7 4 136.77 142.29 4.75 o
1 -7 4 12.90 11.43 3.31 o
2 -7 4 148.28 155.13 3.83 o
3 -7 4 41.85 34.72 6.52 o
4 -7 4 13.51 16.87 4.78 o
5 -7 4 27.00 23.88 6.09 o
-5 -6 4 11.89 16.93 5.79 <
-4 -6 4 89.41 92.20 6.92 o
-3 -6 4 133.98 130.49 5.90 o
-2 -6 4 359.02 370.79 6.51 o
-1 -6 4 71.53 71.72 2.82 o
0 -6 4 438.02 414.80 6.69 o
1 -6 4 206.52 195.08 4.65 o
2 -6 4 44.97 40.99 1.68 o
3 -6 4 198.17 182.51 8.73 o
4 -6 4 20.73 23.68 4.12 o
5 -6 4 46.86 47.24 5.99 o
-6 -5 4 0.08 -1.23 9.75 <
-5 -5 4 21.89 25.92 7.02 o
-4 -5 4 74.43 72.64 4.81 o
-3 -5 4 289.79 287.15 5.93 o
-2 -5 4 635.11 619.16 8.03 o
-1 -5 4 258.73 250.86 4.68 o
0 -5 4 38.12 43.81 2.03 o
1 -5 4 13.41 12.19 2.10 o
2 -5 4 10.62 9.24 1.26 o
3 -5 4 35.43 32.58 3.06 o
4 -5 4 177.30 174.76 14.85 o
5 -5 4 10.92 8.80 3.84 <
6 -5 4 1.75 6.83 9.63 <
-6 -4 4 41.65 34.16 10.34 o
-5 -4 4 0.10 4.70 3.82 <
-4 -4 4 46.49 46.35 3.72 o
-3 -4 4 624.42 594.72 8.99 o
-2 -4 4 394.17 383.80 5.14 o
-1 -4 4 10.28 8.70 1.14 o
0 -4 4 544.70 513.48 6.58 o
1 -4 4 553.88 535.89 6.78 o
2 -4 4 1.98 2.10 1.17 <
3 -4 4 668.18 656.31 34.93 o
4 -4 4 914.78 929.74 15.17 o
5 -4 4 19.17 18.78 3.53 o
6 -4 4 6.08 5.63 6.45 <
-6 -3 4 28.43 15.15 7.09 <
-5 -3 4 14.39 13.75 4.09 o
-4 -3 4 11.55 12.76 2.33 o
-3 -3 4 33.84 31.99 2.25 o
-2 -3 4 961.56 911.24 18.16 o
-1 -3 4 18.89 21.22 1.30 o
0 -3 4 690.22 725.24 8.25 o
1 -3 4 1175.32 1264.92 13.53 o
2 -3 4 31.80 27.19 2.19 o
3 -3 4 34.12 40.57 4.49 o
4 -3 4 43.38 39.18 2.57 o
5 -3 4 3.34 1.11 5.10 <
6 -3 4 10.79 13.17 5.24 <
-6 -2 4 1.24 0.82 5.00 <
-5 -2 4 2.08 1.96 3.36 <
-4 -2 4 124.59 119.11 6.07 o
-3 -2 4 214.93 217.78 4.57 o
-2 -2 4 8.24 8.01 1.07 o
-1 -2 4 585.06 608.32 7.07 o
0 -2 4 1165.29 1215.85 14.53 o
1 -2 4 398.38 435.93 5.70 o
2 -2 4 0.16 1.35 0.81 <
3 -2 4 257.17 251.98 4.44 o
4 -2 4 26.00 27.17 1.45 o
5 -2 4 3.22 5.04 1.68 o
6 -2 4 289.56 293.30 5.96 o
7 -2 4 7.95 2.64 3.86 <
-6 -1 4 34.45 33.87 5.65 o
-5 -1 4 13.21 19.15 3.85 o
-4 -1 4 30.09 27.00 2.89 o
-3 -1 4 198.74 186.87 5.88 o
-2 -1 4 15.16 11.80 1.38 o
-1 -1 4 598.38 595.69 6.27 o
0 -1 4 3446.88 3352.20 34.85 o
1 -1 4 228.64 232.65 5.26 o
2 -1 4 19.30 30.37 1.33 o
3 -1 4 481.42 477.46 5.10 o
4 -1 4 148.31 137.14 2.92 o
5 -1 4 73.50 77.58 3.17 o
6 -1 4 14.97 15.74 3.01 o
7 -1 4 13.74 10.04 5.07 <
-6 0 4 11.30 5.60 5.00 <
-5 0 4 16.86 16.99 3.39 o
-4 0 4 144.13 154.31 4.99 o
-3 0 4 4.60 3.40 1.73 <
-2 0 4 99.11 98.46 2.63 o
-1 0 4 202.45 201.19 2.99 o
0 0 4 0.50 0.34 0.65 <
1 0 4 185.41 207.47 2.90 o
2 0 4 576.91 598.92 5.59 o
3 0 4 118.69 131.62 2.50 o
4 0 4 17.78 16.54 1.30 o
5 0 4 13.07 10.43 1.70 o
6 0 4 40.67 45.16 3.01 o
7 0 4 4.28 11.25 4.97 <
-6 1 4 5.03 15.12 5.81 <
-5 1 4 4.95 2.59 3.13 <
-4 1 4 212.91 207.73 5.67 o
-3 1 4 41.96 39.41 2.48 o
-2 1 4 50.56 56.46 2.09 o
-1 1 4 46.86 40.16 1.44 o
0 1 4 496.72 402.76 11.11 o
1 1 4 24.29 27.63 0.74 o
3 1 4 41.82 40.95 1.54 o
4 1 4 14.50 14.29 1.80 o
5 1 4 330.18 355.40 5.62 o
6 1 4 2.41 3.91 2.31 <
7 1 4 3.96 2.22 3.63 <
-6 2 4 34.35 43.35 5.86 o
-5 2 4 92.86 94.08 6.65 o
-4 2 4 162.62 160.08 5.33 o
-3 2 4 1.44 3.95 1.59 <
-2 2 4 14.44 18.31 2.05 o
-1 2 4 108.97 82.72 2.31 o
0 2 4 2059.97 2007.16 22.32 o
1 2 4 557.58 535.03 5.80 o
2 2 4 235.84 259.84 2.80 o
3 2 4 102.37 106.90 2.02 o
4 2 4 815.12 842.14 8.96 o
5 2 4 22.57 21.98 2.73 o
6 2 4 122.15 125.09 4.49 o
7 2 4 1.26 1.98 3.57 <
-6 3 4 4.18 5.75 4.97 <
-5 3 4 42.16 33.66 4.48 o
-4 3 4 4.54 1.69 2.11 <
-3 3 4 9.53 11.25 1.87 o
-2 3 4 411.36 422.94 7.32 o
-1 3 4 2858.24 2998.35 43.16 o
0 3 4 214.00 223.33 4.05 o
1 3 4 1.59 3.40 0.54 o
2 3 4 21.41 18.21 0.96 o
3 3 4 114.38 113.00 2.40 o
4 3 4 5.68 4.34 1.35 o
5 3 4 193.21 182.08 4.18 o
6 3 4 13.71 13.59 2.92 o
7 3 4 5.54 5.00 3.68 <
-6 4 4 3.77 7.94 8.00 <
-5 4 4 20.30 23.97 7.79 o
-4 4 4 0.17 0.64 2.25 <
-3 4 4 22.16 26.22 2.37 o
-2 4 4 3867.84 3976.22 62.71 o
-1 4 4 473.65 514.21 7.95 o
0 4 4 711.78 813.38 8.74 o
1 4 4 1470.26 1418.11 14.30 o
2 4 4 331.85 327.57 3.73 o
3 4 4 177.72 183.70 3.03 o
4 4 4 1144.48 1151.67 15.03 o
5 4 4 635.81 653.36 9.64 o
6 4 4 88.58 92.22 4.35 o
7 4 4 4.90 3.46 3.82 <
-6 5 4 2.90 6.95 4.79 <
-5 5 4 121.94 123.04 6.88 o
-4 5 4 5.91 8.45 2.64 o
-3 5 4 694.14 714.41 11.68 o
-2 5 4 188.99 197.84 5.04 o
-1 5 4 732.90 780.35 9.93 o
0 5 4 0.09 2.73 0.81 o
1 5 4 569.28 570.49 6.45 o
2 5 4 376.40 394.26 4.92 o
3 5 4 1.73 1.07 0.96 <
4 5 4 355.33 376.98 4.93 o
5 5 4 184.84 186.45 4.66 o
6 5 4 8.53 11.97 5.90 <
7 5 4 33.74 30.24 4.39 o
-6 6 4 3.66 7.53 4.87 <
-5 6 4 0.38 -3.74 3.50 <
-4 6 4 6.57 2.84 2.62 <
-3 6 4 12.94 12.16 2.06 o
-2 6 4 0.49 1.20 1.82 <
-1 6 4 13.09 11.95 1.38 o
0 6 4 46.17 45.65 2.35 o
1 6 4 423.91 456.69 6.18 o
2 6 4 45.74 52.62 3.00 o
3 6 4 0.77 1.87 1.17 <
4 6 4 143.77 134.00 3.95 o
5 6 4 54.98 56.65 4.37 o
6 6 4 0.27 -1.28 5.84 <
7 6 4 66.98 76.01 8.01 o
-5 7 4 8.31 10.09 4.29 <
-4 7 4 15.76 19.79 3.12 o
-3 7 4 111.42 104.72 4.30 o
-2 7 4 21.01 18.19 1.91 o
-1 7 4 1.18 2.11 1.22 <
0 7 4 16.51 14.20 1.70 o
1 7 4 11.62 14.68 1.25 o
2 7 4 129.16 128.11 2.63 o
3 7 4 271.35 256.10 4.93 o
4 7 4 8.58 7.85 3.08 <
5 7 4 131.26 125.69 6.11 o
6 7 4 1.83 8.64 4.33 <
-5 8 4 0.13 0.99 3.51 <
-4 8 4 6.71 7.61 3.25 <
-3 8 4 12.94 8.47 2.33 o
-2 8 4 20.72 16.83 2.01 o
-1 8 4 87.14 85.36 2.94 o
0 8 4 393.62 431.11 6.63 o
1 8 4 137.48 136.75 3.88 o
2 8 4 49.46 45.79 2.10 o
3 8 4 142.86 126.31 3.74 o
4 8 4 91.03 68.49 4.65 o
5 8 4 0.44 -0.70 5.90 <
6 8 4 345.79 390.45 11.97 o
-5 9 4 10.56 6.28 4.97 <
-4 9 4 5.52 1.31 3.50 <
-3 9 4 2.07 3.91 2.32 <
-2 9 4 245.50 227.18 5.33 o
-1 9 4 1.27 -1.04 1.52 <
0 9 4 59.40 63.92 2.76 o
1 9 4 38.49 48.54 2.81 o
2 9 4 678.06 699.13 8.59 o
3 9 4 5.48 5.84 2.83 <
4 9 4 1.78 3.05 3.21 <
5 9 4 32.26 29.77 6.07 o
6 9 4 40.19 33.98 6.44 o
-4 10 4 105.20 101.09 18.26 o
-3 10 4 87.94 94.65 5.04 o
-2 10 4 18.11 13.79 2.76 o
-1 10 4 96.38 88.75 5.93 o
0 10 4 0.14 0.35 1.75 <
1 10 4 11.07 13.47 2.30 o
2 10 4 106.42 106.69 2.79 o
3 10 4 60.53 58.26 5.64 o
4 10 4 7.95 10.07 5.17 <
5 10 4 0.54 -0.38 4.87 <
-4 11 4 13.53 17.92 8.35 <
-3 11 4 0.40 -1.81 5.08 <
-2 11 4 18.19 17.17 5.43 o
-1 11 4 16.25 15.94 4.83 o
0 11 4 17.28 12.86 2.95 o
1 11 4 5.71 2.60 3.41 <
2 11 4 38.59 39.14 2.42 o
3 11 4 51.67 47.01 5.10 o
4 11 4 14.13 9.46 4.92 <
5 11 4 7.14 5.37 8.87 <
-3 12 4 0.00 11.38 7.41 <
-2 12 4 105.78 89.25 9.06 o
-1 12 4 550.47 538.46 18.58 o
0 12 4 13.35 10.57 4.79 <
1 12 4 7.68 6.29 3.54 <
2 12 4 110.96 115.29 8.02 o
3 12 4 20.50 16.67 11.24 <
4 12 4 5.84 16.76 8.64 <
-2 13 4 38.11 29.42 8.29 o
-1 13 4 48.30 42.80 7.71 o
0 13 4 1.21 8.49 4.53 <
1 13 4 16.31 14.71 4.82 o
2 13 4 68.40 73.24 4.40 o
3 13 4 113.64 111.11 11.68 o
0 14 4 5.28 -0.26 5.43 <
1 14 4 21.11 16.47 5.00 o
2 14 4 3.85 6.01 8.87 <
-2 -10 5 19.94 17.97 4.72 o
-1 -10 5 0.26 1.11 5.52 <
0 -10 5 55.91 57.44 7.98 o
1 -10 5 23.73 25.11 4.12 o
2 -10 5 14.81 12.47 5.99 <
-3 -9 5 24.92 27.95 4.76 o
-2 -9 5 30.89 35.54 4.02 o
-1 -9 5 214.85 241.75 6.54 o
0 -9 5 182.47 189.60 5.52 o
1 -9 5 96.41 101.49 5.02 o
2 -9 5 81.81 81.96 4.73 o
3 -9 5 70.18 70.11 7.25 o
-4 -8 5 0.00 6.74 6.40 <
-3 -8 5 0.65 9.77 3.72 <
-2 -8 5 32.87 35.60 3.75 o
-1 -8 5 15.86 13.31 3.03 o
0 -8 5 10.69 14.17 5.87 <
1 -8 5 4.13 4.45 2.65 <
2 -8 5 99.49 90.84 4.01 o
3 -8 5 0.92 4.55 7.71 <
4 -8 5 4.41 10.68 5.69 <
-4 -7 5 11.92 16.10 4.45 o
-3 -7 5 78.34 85.84 4.28 o
-2 -7 5 11.44 10.60 2.95 o
-1 -7 5 30.07 32.24 2.65 o
0 -7 5 75.64 86.47 3.94 o
1 -7 5 58.52 82.97 8.52 o
2 -7 5 30.04 24.34 1.99 o
3 -7 5 101.46 102.58 6.95 o
4 -7 5 41.02 33.22 5.74 o
5 -7 5 33.74 32.00 6.80 o
-5 -6 5 30.29 16.12 6.50 <
-4 -6 5 0.64 -1.34 7.24 <
-3 -6 5 7.13 4.51 3.02 <
-2 -6 5 126.21 124.83 5.80 o
-1 -6 5 6.50 3.60 3.42 <
0 -6 5 271.36 266.51 5.37 o
1 -6 5 608.96 602.36 9.03 o
2 -6 5 37.41 34.46 2.07 o
3 -6 5 41.41 26.55 10.84 <
4 -6 5 2.23 7.34 3.96 <
5 -6 5 5.21 5.75 5.17 <
-5 -5 5 0.54 1.54 8.03 <
-4 -5 5 0.03 8.58 3.46 <
-3 -5 5 64.40 60.84 4.83 o
-2 -5 5 62.66 71.14 3.28 o
-1 -5 5 22.24 22.90 1.75 o
0 -5 5 2.05 2.51 1.32 <
1 -5 5 27.76 27.99 1.91 o
2 -5 5 10.43 10.01 1.69 o
3 -5 5 73.45 82.68 5.01 o
4 -5 5 181.35 154.08 6.45 o
5 -5 5 12.86 10.68 3.79 <
6 -5 5 27.40 36.49 10.98 o
-5 -4 5 6.76 -0.99 5.02 <
-4 -4 5 13.90 10.25 3.00 o
-3 -4 5 54.39 60.12 3.67 o
-2 -4 5 7.66 8.96 1.49 o
-1 -4 5 76.85 77.68 2.64 o
0 -4 5 582.51 576.54 7.43 o
1 -4 5 0.94 0.92 1.37 <
2 -4 5 239.14 250.38 4.66 o
3 -4 5 288.53 299.17 5.58 o
4 -4 5 378.48 393.96 8.71 o
5 -4 5 0.57 -0.37 3.27 <
6 -4 5 25.80 26.89 6.56 o
-6 -3 5 1.99 10.04 8.93 <
-5 -3 5 0.32 -5.84 4.23 <
-4 -3 5 148.95 150.33 5.76 o
-3 -3 5 378.76 359.42 7.83 o
-2 -3 5 4.69 4.46 1.49 <
-1 -3 5 35.32 38.06 2.39 o
0 -3 5 0.31 2.20 0.93 <
1 -3 5 445.96 435.95 7.30 o
2 -3 5 61.39 69.10 3.84 o
3 -3 5 0.13 0.50 1.31 <
4 -3 5 13.87 14.70 1.83 o
5 -3 5 79.01 81.67 6.54 o
6 -3 5 20.79 25.80 4.50 o
-6 -2 5 0.04 -4.35 8.90 <
-5 -2 5 21.02 30.74 6.22 o
-4 -2 5 181.77 178.68 12.54 o
-3 -2 5 358.27 367.62 6.47 o
-2 -2 5 132.65 130.91 3.84 o
-1 -2 5 0.46 0.34 1.09 <
0 -2 5 65.75 84.45 3.25 o
1 -2 5 14.41 15.37 1.15 o
2 -2 5 264.44 260.99 4.54 o
3 -2 5 36.46 37.69 1.78 o
4 -2 5 260.78 257.11 4.53 o
5 -2 5 4.17 9.09 4.12 <
6 -2 5 2.47 3.27 3.98 <
-6 -1 5 12.74 14.07 7.41 <
-5 -1 5 12.84 10.48 6.10 <
-4 -1 5 2.16 6.25 2.89 <
-3 -1 5 117.66 109.64 4.09 o
-2 -1 5 1.34 -0.38 2.54 <
-1 -1 5 1948.28 2054.79 24.16 o
0 -1 5 247.70 282.67 3.51 o
1 -1 5 4.20 5.65 0.66 o
2 -1 5 1.22 2.82 1.03 <
3 -1 5 695.89 715.39 9.36 o
4 -1 5 23.39 24.29 1.78 o
5 -1 5 80.74 89.34 4.36 o
6 -1 5 54.89 67.26 3.28 o
7 -1 5 19.83 18.92 4.07 o
-6 0 5 2.21 3.85 7.59 <
-5 0 5 135.37 127.67 8.59 o
-4 0 5 0.22 1.01 2.83 <
-3 0 5 7.65 9.41 2.12 o
-2 0 5 182.26 208.68 5.85 o
-1 0 5 1676.06 1786.32 18.40 o
0 0 5 413.45 425.54 5.10 o
1 0 5 13.50 10.23 0.78 o
2 0 5 56.91 51.37 1.21 o
3 0 5 0.05 0.36 0.67 <
4 0 5 0.37 0.93 0.99 <
5 0 5 4.12 5.59 1.47 o
6 0 5 2.53 3.41 2.35 <
7 0 5 1.13 5.00 3.64 <
-6 1 5 5.35 -1.46 6.77 <
-5 1 5 38.81 41.89 5.87 o
-4 1 5 22.53 25.12 3.35 o
-3 1 5 5.57 7.68 1.65 o
-2 1 5 470.45 475.21 12.49 o
-1 1 5 56.69 49.14 1.61 o
0 1 5 284.47 290.07 3.73 o
1 1 5 23.14 16.79 0.92 o
2 1 5 55.95 78.09 1.51 o
3 1 5 4.81 7.41 0.90 o
4 1 5 101.51 114.04 2.69 o
5 1 5 13.17 19.66 1.75 o
6 1 5 16.79 15.85 2.97 o
7 1 5 1.51 3.60 3.64 <
-6 2 5 0.01 -0.47 5.23 <
-5 2 5 17.39 19.33 4.28 o
-4 2 5 36.35 30.20 2.82 o
-3 2 5 126.28 125.82 3.65 o
-2 2 5 791.00 846.38 10.96 o
-1 2 5 187.64 184.34 3.87 o
0 2 5 126.04 154.97 2.74 o
2 2 5 2743.41 2898.45 28.71 o
3 2 5 101.09 111.05 2.08 o
4 2 5 27.92 25.81 1.65 o
5 2 5 103.80 105.83 3.26 o
6 2 5 8.53 8.82 4.70 <
7 2 5 12.16 9.97 3.82 <
-6 3 5 0.28 5.72 11.15 <
-5 3 5 24.54 20.13 4.13 o
-4 3 5 105.42 107.91 4.51 o
-3 3 5 0.68 -0.20 2.24 <
-2 3 5 270.90 268.41 5.88 o
-1 3 5 221.95 227.35 4.42 o
0 3 5 705.55 709.80 10.06 o
1 3 5 376.60 403.68 5.22 o
2 3 5 103.53 137.66 2.16 o
3 3 5 0.59 1.36 0.65 <
4 3 5 9.82 7.22 1.15 o
5 3 5 181.58 159.82 4.10 o
6 3 5 0.68 -1.37 2.31 <
7 3 5 1.61 4.28 3.99 <
-6 4 5 18.85 23.24 5.93 o
-5 4 5 42.58 48.91 5.10 o
-4 4 5 138.91 137.34 5.63 o
-3 4 5 230.52 218.45 6.71 o
-2 4 5 1.18 -0.22 1.69 <
-1 4 5 507.44 525.94 7.19 o
0 4 5 460.96 474.33 6.26 o
1 4 5 222.74 233.46 3.13 o
2 4 5 0.57 1.45 0.59 <
3 4 5 693.74 681.06 7.16 o
4 4 5 537.39 533.40 10.56 o
5 4 5 287.98 312.55 4.90 o
6 4 5 3.09 -1.44 2.84 <
7 4 5 7.35 7.37 3.74 <
-6 5 5 10.72 3.09 6.54 <
-5 5 5 5.84 7.01 5.46 <
-4 5 5 3.19 6.00 2.76 <
-3 5 5 322.52 318.77 7.01 o
-2 5 5 48.88 50.75 4.32 o
-1 5 5 155.51 161.11 4.35 o
0 5 5 17.40 15.12 1.79 o
1 5 5 76.74 78.92 1.68 o
2 5 5 34.19 35.25 1.41 o
3 5 5 89.84 73.09 1.84 o
4 5 5 39.42 39.96 2.32 o
5 5 5 45.17 47.14 3.08 o
6 5 5 34.00 39.76 3.56 o
7 5 5 1.96 3.60 3.57 <
-6 6 5 0.06 -2.48 13.98 <
-5 6 5 24.85 34.04 5.61 o
-4 6 5 119.75 114.28 6.15 o
-3 6 5 732.76 720.87 17.52 o
-2 6 5 115.45 116.77 5.30 o
-1 6 5 484.55 469.63 21.56 o
0 6 5 0.48 1.88 0.90 <
1 6 5 268.70 280.94 3.84 o
2 6 5 531.59 569.57 8.02 o
3 6 5 60.06 54.42 2.02 o
4 6 5 179.48 157.73 4.55 o
5 6 5 240.71 249.16 8.69 o
6 6 5 0.14 -4.70 3.42 <
7 6 5 0.15 10.93 5.87 <
-5 7 5 30.77 29.66 4.88 o
-4 7 5 3.06 4.99 3.40 <
-3 7 5 8.19 11.66 2.49 o
-2 7 5 10.67 10.84 1.97 o
-1 7 5 176.02 174.90 3.78 o
0 7 5 614.59 623.49 8.40 o
1 7 5 14.99 16.91 1.17 o
2 7 5 55.25 58.92 1.85 o
3 7 5 153.25 152.00 3.60 o
4 7 5 23.40 21.93 2.39 o
5 7 5 9.41 10.10 4.96 <
6 7 5 115.88 119.99 8.50 o
-5 8 5 0.08 -7.27 4.47 <
-4 8 5 9.16 10.20 3.70 <
-3 8 5 17.28 19.81 2.86 o
-2 8 5 55.31 49.58 3.05 o
-1 8 5 161.39 171.87 3.98 o
0 8 5 124.22 127.93 3.37 o
1 8 5 91.23 90.66 2.38 o
2 8 5 93.76 100.45 2.72 o
3 8 5 61.69 62.31 3.65 o
4 8 5 26.12 23.04 5.34 o
5 8 5 0.09 2.36 3.22 <
6 8 5 3.64 8.38 5.75 <
-5 9 5 17.57 0.41 8.64 <
-4 9 5 87.44 95.82 6.61 o
-3 9 5 0.14 6.31 5.43 <
-2 9 5 55.62 56.06 3.20 o
-1 9 5 10.13 8.93 1.90 o
0 9 5 3.37 2.45 1.49 <
1 9 5 234.43 229.81 5.24 o
2 9 5 276.69 271.17 4.05 o
3 9 5 7.48 6.29 1.94 o
4 9 5 0.29 1.44 2.85 <
5 9 5 21.35 18.45 4.23 o
6 9 5 28.95 28.32 6.23 o
-4 10 5 106.28 125.82 10.98 o
-3 10 5 11.72 9.88 3.30 <
-2 10 5 55.71 51.66 4.12 o
-1 10 5 483.61 479.92 7.95 o
0 10 5 38.91 42.44 2.61 o
1 10 5 19.00 23.31 2.19 o
2 10 5 326.03 322.51 4.84 o
3 10 5 191.72 175.45 5.79 o
4 10 5 25.72 25.52 4.28 o
5 10 5 100.16 119.75 7.92 o
-4 11 5 0.00 -5.90 8.00 <
-3 11 5 13.25 9.69 4.03 <
-2 11 5 41.14 41.77 3.42 o
-1 11 5 6.21 9.83 3.21 o
0 11 5 2.18 2.06 2.78 <
1 11 5 218.17 210.57 5.37 o
2 11 5 40.06 34.16 2.88 o
3 11 5 56.75 56.04 4.60 o
4 11 5 2.62 1.46 4.56 <
5 11 5 6.04 4.73 5.87 <
-3 12 5 69.91 68.97 9.70 o
-2 12 5 20.42 17.75 6.54 <
-1 12 5 3.79 6.45 2.92 <
0 12 5 170.45 180.09 6.75 o
1 12 5 133.60 136.55 6.36 o
2 12 5 3.63 6.60 2.93 <
3 12 5 0.33 0.53 6.31 <
4 12 5 16.28 13.05 6.17 <
-2 13 5 10.33 4.03 7.12 <
-1 13 5 15.44 8.52 6.19 <
1 13 5 91.35 92.61 6.68 o
2 13 5 56.81 48.66 3.62 o
3 13 5 1.06 18.62 8.00 <
0 14 5 21.46 13.14 5.47 <
1 14 5 0.17 -3.59 8.44 <
2 14 5 65.62 74.87 10.98 o
0 -10 6 33.98 38.94 8.35 o
-2 -9 6 39.20 37.39 8.88 o
-1 -9 6 25.79 24.18 4.54 o
0 -9 6 18.89 22.74 3.32 o
1 -9 6 41.59 43.22 4.76 o
2 -9 6 12.27 19.85 6.71 <
-3 -8 6 9.65 8.75 4.74 <
-2 -8 6 0.89 -1.65 3.37 <
-1 -8 6 9.26 13.35 3.44 o
0 -8 6 37.80 39.12 3.66 o
1 -8 6 0.97 5.51 4.55 <
2 -8 6 0.64 15.70 7.24 <
3 -8 6 8.01 6.36 5.24 <
-4 -7 6 22.56 17.98 6.56 <
-3 -7 6 51.76 46.36 5.36 o
-2 -7 6 96.05 108.41 7.05 o
-1 -7 6 285.60 284.06 6.61 o
0 -7 6 36.07 40.58 3.53 o
1 -7 6 22.18 25.08 2.93 o
2 -7 6 68.48 78.03 9.70 o
3 -7 6 85.59 79.96 6.62 o
4 -7 6 22.47 26.33 9.75 <
-4 -6 6 27.32 20.13 5.86 o
-3 -6 6 16.14 12.20 3.94 o
-2 -6 6 3.27 -1.33 2.70 <
-1 -6 6 95.26 98.92 7.30 o
0 -6 6 21.14 24.66 3.18 o
1 -6 6 21.36 13.42 3.38 o
2 -6 6 4.26 3.72 6.27 <
3 -6 6 18.45 23.71 2.92 o
4 -6 6 82.35 85.57 7.10 o
5 -6 6 2.40 5.58 6.70 <
-5 -5 6 19.08 8.06 9.52 <
-4 -5 6 114.57 131.38 7.16 o
-3 -5 6 146.14 154.82 6.36 o
-2 -5 6 132.48 126.38 4.35 o
-1 -5 6 15.44 16.86 2.25 o
0 -5 6 7.77 3.16 2.18 <
1 -5 6 50.31 57.30 2.60 o
2 -5 6 72.48 63.22 3.59 o
3 -5 6 13.74 11.06 2.31 o
4 -5 6 93.54 93.95 6.37 o
5 -5 6 1.29 7.32 3.99 <
-5 -4 6 0.28 -11.24 5.56 <
-4 -4 6 67.85 67.38 4.91 o
-3 -4 6 49.28 48.03 3.43 o
-2 -4 6 0.54 0.42 1.60 <
-1 -4 6 404.92 401.42 8.42 o
0 -4 6 247.68 229.18 4.14 o
1 -4 6 10.47 8.80 1.45 o
2 -4 6 47.24 43.39 2.84 o
3 -4 6 0.50 1.88 2.29 <
4 -4 6 11.89 12.16 3.00 o
5 -4 6 51.64 48.51 4.74 o
6 -4 6 63.28 68.83 10.37 o
-5 -3 6 2.07 -1.05 5.37 <
-4 -3 6 48.42 41.46 4.23 o
-3 -3 6 370.29 373.06 7.00 o
-2 -3 6 153.64 167.11 3.81 o
-1 -3 6 13.23 11.53 1.83 o
0 -3 6 396.04 408.52 5.65 o
1 -3 6 76.66 77.42 2.55 o
2 -3 6 45.32 41.46 2.62 o
3 -3 6 977.34 1025.60 13.33 o
4 -3 6 153.58 161.33 3.92 o
5 -3 6 1.46 0.22 2.86 <
6 -3 6 13.57 11.15 4.64 <
-6 -2 6 11.07 -5.90 9.63 <
-5 -2 6 130.17 137.30 9.07 o
-4 -2 6 512.26 524.29 16.61 o
-3 -2 6 89.72 94.54 4.46 o
-2 -2 6 68.91 72.07 2.91 o
-1 -2 6 397.86 379.98 5.66 o
0 -2 6 17.81 22.69 1.97 o
1 -2 6 164.82 167.33 3.42 o
2 -2 6 1569.82 1521.77 16.36 o
3 -2 6 1056.87 1024.74 11.49 o
4 -2 6 6.19 6.12 2.34 <
5 -2 6 22.28 16.96 4.20 o
6 -2 6 0.07 -3.12 5.34 <
-6 -1 6 0.24 9.34 8.76 <
-5 -1 6 58.54 64.33 7.10 o
-4 -1 6 73.42 74.27 5.21 o
-3 -1 6 131.60 135.49 5.30 o
-2 -1 6 136.07 148.42 4.19 o
-1 -1 6 173.73 191.75 3.77 o
0 -1 6 204.61 211.82 3.47 o
1 -1 6 2.91 2.85 1.00 <
2 -1 6 41.19 37.28 1.29 o
3 -1 6 6.47 9.46 1.15 o
4 -1 6 22.14 22.73 2.53 o
5 -1 6 166.46 163.99 5.48 o
6 -1 6 93.76 92.99 5.23 o
-6 0 6 0.48 11.68 8.17 <
-5 0 6 34.31 43.21 5.85 o
-4 0 6 0.07 2.84 4.05 <
-3 0 6 70.63 65.53 3.34 o
-2 0 6 38.29 39.84 2.25 o
-1 0 6 50.40 48.03 3.39 o
0 0 6 47.64 53.12 1.72 o
1 0 6 41.70 37.78 1.56 o
2 0 6 36.13 35.61 1.50 o
3 0 6 201.76 195.65 2.74 o
4 0 6 39.74 45.33 1.67 o
5 0 6 105.45 93.81 3.26 o
6 0 6 37.34 35.16 2.76 o
7 0 6 5.76 1.87 4.67 <
-6 1 6 0.13 -8.58 7.24 <
-5 1 6 31.66 25.14 4.90 o
-4 1 6 391.76 387.67 10.15 o
-3 1 6 287.84 278.34 5.65 o
-2 1 6 127.22 134.63 7.02 o
-1 1 6 349.29 360.04 4.96 o
0 1 6 1204.57 1219.61 12.85 o
1 1 6 52.09 60.00 1.58 o
2 1 6 661.42 633.14 7.30 o
3 1 6 393.36 355.71 4.30 o
4 1 6 43.85 40.40 1.91 o
5 1 6 262.73 249.76 4.19 o
6 1 6 53.79 51.12 3.44 o
7 1 6 53.86 54.46 4.46 o
-6 2 6 0.39 -0.79 8.09 <
-5 2 6 59.52 49.73 5.45 o
-4 2 6 75.61 81.19 5.49 o
-3 2 6 349.77 338.88 6.30 o
-2 2 6 63.23 62.17 3.60 o
-1 2 6 88.71 74.31 3.39 o
0 2 6 141.07 144.80 2.87 o
1 2 6 495.19 533.84 6.98 o
2 2 6 81.83 86.05 1.93 o
3 2 6 148.06 146.64 2.60 o
4 2 6 149.35 138.34 3.02 o
5 2 6 0.15 -0.33 1.52 <
6 2 6 1.13 4.41 3.92 <
7 2 6 45.94 53.33 4.44 o
-6 3 6 5.50 -0.44 7.62 <
-5 3 6 28.85 14.22 6.52 <
-4 3 6 6.97 8.00 3.23 <
-3 3 6 0.57 8.35 1.90 o
-2 3 6 3.83 3.72 1.84 <
-1 3 6 324.17 300.45 5.67 o
0 3 6 84.68 84.41 2.76 o
1 3 6 0.04 0.78 0.64 <
2 3 6 577.14 586.76 6.82 o
3 3 6 0.02 3.46 0.93 o
4 3 6 77.23 77.38 2.19 o
5 3 6 1.50 0.76 2.91 <
6 3 6 21.39 20.33 2.67 o
7 3 6 6.99 7.06 3.63 <
-6 4 6 71.15 76.04 7.70 o
-5 4 6 51.78 55.68 6.68 o
-4 4 6 66.63 73.47 7.24 o
-3 4 6 232.48 234.25 5.34 o
-2 4 6 21.80 17.62 1.72 o
-1 4 6 214.97 200.31 3.83 o
0 4 6 375.03 381.07 5.46 o
1 4 6 1048.19 1099.25 11.61 o
2 4 6 281.93 292.41 4.01 o
3 4 6 1029.93 1080.60 11.93 o
4 4 6 52.13 56.40 2.17 o
5 4 6 11.89 12.91 1.71 o
6 4 6 55.65 56.60 4.35 o
7 4 6 26.78 25.96 3.97 o
-6 5 6 2.61 3.27 5.95 <
-5 5 6 0.02 -4.00 4.05 <
-4 5 6 24.57 22.83 3.83 o
-3 5 6 645.92 672.19 11.79 o
-2 5 6 866.69 862.15 13.42 o
-1 5 6 432.49 448.50 6.68 o
0 5 6 49.66 40.58 2.57 o
1 5 6 36.09 36.81 1.75 o
2 5 6 4.58 5.55 1.30 o
3 5 6 98.83 98.58 2.47 o
4 5 6 263.30 266.39 4.14 o
5 5 6 7.84 9.00 1.55 o
6 5 6 5.37 4.73 3.57 <
7 5 6 5.29 4.50 3.61 <
-5 6 6 3.05 4.64 7.97 <
-4 6 6 108.00 106.31 11.37 o
-3 6 6 268.12 286.80 7.04 o
-2 6 6 262.28 281.09 6.16 o
-1 6 6 155.84 161.27 4.08 o
0 6 6 406.03 381.92 7.30 o
1 6 6 41.83 41.59 1.54 o
2 6 6 86.50 79.82 2.00 o
3 6 6 1396.41 1405.30 15.23 o
4 6 6 419.08 424.07 6.56 o
5 6 6 113.15 107.18 4.23 o
6 6 6 2.40 8.48 2.76 o
7 6 6 0.95 1.17 8.47 <
-5 7 6 32.98 48.81 9.87 o
-4 7 6 0.81 3.37 3.56 <
-3 7 6 76.56 66.22 4.01 o
-2 7 6 194.37 205.25 6.55 o
-1 7 6 212.89 229.05 5.84 o
0 7 6 148.27 152.94 3.06 o
1 7 6 132.09 135.73 2.68 o
2 7 6 553.27 552.81 6.18 o
3 7 6 234.88 233.18 4.00 o
4 7 6 28.61 24.80 2.67 o
5 7 6 19.19 19.44 2.90 o
6 7 6 60.19 73.41 9.29 o
-5 8 6 1.46 -1.43 4.92 <
-4 8 6 79.34 83.41 7.01 o
-3 8 6 14.98 10.68 3.25 o
-2 8 6 30.43 36.82 2.93 o
-1 8 6 196.31 187.10 4.68 o
0 8 6 489.11 494.06 7.34 o
1 8 6 35.91 39.86 1.82 o
2 8 6 491.02 515.17 6.53 o
3 8 6 236.16 229.33 4.10 o
4 8 6 47.86 44.65 3.36 o
5 8 6 14.25 16.60 3.85 o
6 8 6 51.85 58.95 5.62 o
-4 9 6 11.93 3.80 10.74 <
-3 9 6 9.69 22.83 3.75 o
-2 9 6 27.40 34.85 3.47 o
-1 9 6 4.78 5.90 1.89 o
0 9 6 69.04 65.74 2.86 o
1 9 6 432.05 429.69 7.33 o
2 9 6 42.02 46.77 2.76 o
3 9 6 9.27 10.24 1.72 o
4 9 6 364.40 374.15 12.26 o
5 9 6 12.82 6.25 4.73 <
6 9 6 59.95 70.60 10.86 o
-4 10 6 4.56 3.56 7.71 <
-3 10 6 8.81 11.09 3.44 o
-2 10 6 75.05 81.09 4.64 o
-1 10 6 67.67 77.46 5.22 o
0 10 6 4.23 1.01 2.34 <
1 10 6 320.30 319.77 5.85 o
2 10 6 86.49 86.98 3.35 o
3 10 6 12.38 9.52 2.68 o
4 10 6 43.11 49.44 5.88 o
5 10 6 182.73 187.72 8.65 o
-3 11 6 12.09 15.06 4.12 o
-2 11 6 20.59 18.54 3.68 o
-1 11 6 0.06 0.18 2.77 <
0 11 6 0.38 0.51 2.32 <
1 11 6 60.30 67.47 4.47 o
2 11 6 1.17 1.20 1.87 <
3 11 6 1.13 5.69 4.30 <
4 11 6 52.40 54.95 10.98 o
5 11 6 143.19 161.20 10.72 o
-3 12 6 2.80 0.53 7.47 <
-2 12 6 61.33 70.90 5.62 o
-1 12 6 46.55 55.56 4.47 o
0 12 6 56.32 63.99 4.65 o
1 12 6 85.58 82.24 4.22 o
2 12 6 34.30 32.67 3.42 o
3 12 6 11.70 16.03 5.13 o
4 12 6 13.13 11.03 5.86 <
-2 13 6 35.89 31.12 7.94 o
-1 13 6 36.65 42.86 4.79 o
0 13 6 4.03 11.50 4.55 <
1 13 6 0.02 1.46 3.10 <
2 13 6 14.60 20.51 4.88 o
3 13 6 0.26 14.16 6.74 <
0 14 6 0.96 -1.11 6.60 <
1 14 6 9.14 0.70 6.36 <
2 14 6 0.53 4.17 4.97 <
0 -9 7 15.93 14.99 6.48 <
1 -9 7 43.47 49.59 5.13 o
-2 -8 7 17.12 15.92 6.51 <
-1 -8 7 24.26 28.80 4.07 o
0 -8 7 18.35 23.00 6.48 o
1 -8 7 36.17 35.35 5.32 o
2 -8 7 3.09 8.82 4.71 <
3 -8 7 20.01 20.11 6.45 o
-3 -7 7 166.14 177.37 15.31 o
-2 -7 7 208.92 214.86 7.11 o
-1 -7 7 39.08 34.01 3.81 o
0 -7 7 99.87 100.70 7.36 o
1 -7 7 113.14 104.47 8.27 o
2 -7 7 117.66 110.41 4.82 o
3 -7 7 157.35 170.27 11.75 o
4 -7 7 83.72 110.18 14.57 o
-4 -6 7 0.00 -1.98 6.04 <
-3 -6 7 29.71 26.72 8.53 o
-2 -6 7 0.22 -2.09 2.88 <
-1 -6 7 11.96 12.84 4.62 <
0 -6 7 0.13 5.01 3.53 <
1 -6 7 164.28 143.32 9.62 o
2 -6 7 0.38 -1.18 2.81 <
3 -6 7 14.87 11.78 4.00 <
4 -6 7 0.62 -1.28 4.69 <
-4 -5 7 99.78 99.68 10.84 o
-3 -5 7 10.08 8.51 3.94 <
-2 -5 7 88.78 102.22 6.89 o
-1 -5 7 108.98 118.27 5.58 o
0 -5 7 10.14 13.32 4.61 <
1 -5 7 8.06 4.73 2.06 <
2 -5 7 374.21 349.34 6.41 o
3 -5 7 33.53 26.79 5.26 o
4 -5 7 3.22 -0.86 4.39 <
5 -5 7 18.39 12.55 5.37 <
-5 -4 7 17.09 19.91 10.10 <
-4 -4 7 24.84 20.35 5.79 o
-3 -4 7 161.84 169.25 6.67 o
-2 -4 7 31.67 26.51 2.73 o
-1 -4 7 270.89 250.52 5.69 o
0 -4 7 170.91 148.68 4.09 o
1 -4 7 47.24 47.18 2.64 o
2 -4 7 51.18 49.26 2.82 o
3 -4 7 32.08 26.34 2.49 o
4 -4 7 4.22 6.42 3.14 <
5 -4 7 25.71 27.42 4.22 o
-5 -3 7 0.18 -1.46 16.52 <
-4 -3 7 25.18 19.74 7.53 <
-3 -3 7 12.37 11.43 5.17 <
-2 -3 7 40.18 41.56 2.39 o
-1 -3 7 2.49 -0.09 1.51 <
0 -3 7 279.81 284.30 4.67 o
1 -3 7 2.39 2.63 1.34 <
2 -3 7 17.73 17.24 2.01 o
3 -3 7 143.95 133.39 3.37 o
4 -3 7 9.15 9.79 2.95 o
5 -3 7 42.21 51.62 7.59 o
6 -3 7 9.12 8.17 5.30 <
-5 -2 7 11.81 17.72 13.40 <
-4 -2 7 29.81 30.46 4.32 o
-3 -2 7 29.68 23.77 3.19 o
-2 -2 7 1.48 -0.18 1.68 <
-1 -2 7 356.31 344.77 5.26 o
0 -2 7 357.32 359.00 5.98 o
1 -2 7 430.14 426.85 5.68 o
2 -2 7 113.15 108.11 4.28 o
3 -2 7 415.96 413.73 5.55 o
4 -2 7 29.79 29.03 2.47 o
5 -2 7 8.20 5.13 2.28 <
6 -2 7 67.01 71.13 9.31 o
-5 -1 7 111.52 90.40 7.50 o
-4 -1 7 561.28 547.41 14.13 o
-3 -1 7 59.93 50.11 3.67 o
-2 -1 7 34.55 38.88 3.08 o
-1 -1 7 4.38 2.91 1.24 <
0 -1 7 514.65 485.18 11.86 o
1 -1 7 200.63 194.14 5.40 o
2 -1 7 0.02 1.46 1.27 <
3 -1 7 218.28 210.01 4.01 o
4 -1 7 300.89 279.70 4.69 o
5 -1 7 24.40 25.66 3.21 o
6 -1 7 4.69 3.60 3.73 <
-5 0 7 114.95 124.67 12.39 o
-4 0 7 50.31 54.78 4.98 o
-3 0 7 1.55 0.96 2.26 <
-2 0 7 45.86 47.26 3.12 o
-1 0 7 0.07 2.16 1.44 <
0 0 7 74.36 74.09 2.06 o
1 0 7 362.09 372.78 4.99 o
2 0 7 138.60 141.57 2.89 o
3 0 7 79.81 78.78 2.21 o
4 0 7 3.86 4.22 1.07 o
5 0 7 0.39 0.98 1.31 <
6 0 7 119.87 117.65 4.44 o
-5 1 7 4.31 9.05 6.42 <
-4 1 7 51.40 52.67 4.98 o
-3 1 7 12.63 11.44 2.57 o
-2 1 7 628.35 634.20 9.21 o
-1 1 7 247.38 236.28 4.37 o
0 1 7 567.38 571.42 9.10 o
1 1 7 397.91 388.92 5.05 o
2 1 7 256.08 260.50 4.34 o
3 1 7 42.55 38.39 2.09 o
4 1 7 101.78 94.11 2.92 o
5 1 7 193.19 191.27 3.50 o
6 1 7 128.29 125.81 4.75 o
7 1 7 4.78 6.56 3.61 <
-5 2 7 27.71 25.11 6.83 o
-4 2 7 0.32 -0.18 9.11 <
-3 2 7 18.03 13.25 2.54 o
-2 2 7 196.77 213.32 4.63 o
-1 2 7 0.74 -1.48 1.35 <
0 2 7 372.15 383.05 10.28 o
1 2 7 79.81 75.62 2.23 o
2 2 7 57.06 64.85 1.92 o
3 2 7 74.64 81.92 4.50 o
4 2 7 8.24 7.31 1.24 o
5 2 7 10.87 13.84 2.43 o
6 2 7 15.22 18.09 2.55 o
7 2 7 40.26 34.94 5.51 o
-5 3 7 6.27 5.05 4.97 <
-4 3 7 2.91 -3.49 3.46 <
-3 3 7 56.11 56.75 3.57 o
-2 3 7 37.32 35.62 2.28 o
-1 3 7 192.16 192.82 4.51 o
0 3 7 10.62 6.66 1.29 o
1 3 7 129.59 164.21 3.54 o
2 3 7 72.72 61.04 2.07 o
3 3 7 159.41 163.33 3.13 o
4 3 7 113.82 98.25 3.42 o
5 3 7 44.70 53.70 2.71 o
6 3 7 24.43 23.79 2.58 o
7 3 7 18.87 17.32 3.77 o
-5 4 7 44.51 45.57 6.63 o
-4 4 7 29.72 31.87 3.47 o
-3 4 7 7.81 7.88 3.78 <
-2 4 7 7.58 5.72 1.69 o
-1 4 7 358.06 340.83 5.64 o
0 4 7 594.72 595.54 9.46 o
1 4 7 922.92 946.18 20.89 o
2 4 7 854.59 897.33 10.58 o
3 4 7 33.78 28.37 1.82 o
4 4 7 19.42 16.41 1.77 o
5 4 7 169.49 167.50 4.47 o
6 4 7 125.31 132.42 6.91 o
7 4 7 52.40 60.77 4.45 o
-5 5 7 0.01 -1.98 4.34 <
-4 5 7 178.26 174.24 7.80 o
-3 5 7 100.12 82.29 11.05 o
-2 5 7 12.13 10.38 2.27 o
-1 5 7 246.20 269.55 4.93 o
0 5 7 0.29 1.66 1.48 <
1 5 7 168.77 173.65 7.47 o
2 5 7 287.29 290.75 4.23 o
3 5 7 26.42 25.06 2.42 o
4 5 7 9.90 11.20 2.20 o
5 5 7 0.79 3.62 2.20 <
6 5 7 21.07 16.05 2.85 o
7 5 7 39.80 45.03 4.29 o
-5 6 7 11.78 13.90 5.06 <
-4 6 7 15.52 15.53 4.00 o
-3 6 7 2.38 5.78 2.91 <
-2 6 7 246.96 264.43 5.47 o
-1 6 7 0.76 1.90 2.28 <
0 6 7 16.85 21.17 1.58 o
1 6 7 218.58 212.79 3.93 o
2 6 7 323.27 320.17 5.20 o
3 6 7 53.15 51.91 1.96 o
4 6 7 834.04 821.80 11.06 o
5 6 7 5.28 3.42 1.44 <
6 6 7 20.78 23.25 2.81 o
-5 7 7 0.15 -1.14 6.92 <
-4 7 7 113.95 103.58 7.89 o
-3 7 7 31.89 28.26 3.82 o
-2 7 7 24.78 29.60 3.53 o
-1 7 7 3.19 4.35 1.61 <
0 7 7 35.69 32.94 2.67 o
1 7 7 603.64 598.05 9.40 o
2 7 7 5.37 2.95 1.22 <
3 7 7 88.04 91.64 2.45 o
4 7 7 12.81 14.21 2.27 o
5 7 7 137.76 132.68 6.28 o
6 7 7 11.55 16.81 2.93 o
-5 8 7 13.05 8.52 5.79 <
-4 8 7 140.38 129.33 10.02 o
-3 8 7 56.85 61.48 4.53 o
-2 8 7 79.56 78.30 4.91 o
-1 8 7 1.86 0.45 2.53 <
0 8 7 27.37 25.92 1.94 o
1 8 7 12.04 10.75 1.32 o
2 8 7 5.42 5.04 1.42 o
3 8 7 3.40 2.81 1.44 <
4 8 7 175.03 167.86 4.72 o
5 8 7 20.91 17.30 3.88 o
6 8 7 0.01 -2.43 4.69 <
-4 9 7 79.34 65.27 6.30 o
-3 9 7 6.43 2.95 3.54 <
-2 9 7 73.42 76.43 6.92 o
-1 9 7 177.58 179.35 6.14 o
0 9 7 0.08 -1.02 1.61 <
1 9 7 18.40 19.11 1.88 o
2 9 7 23.45 19.85 3.18 o
3 9 7 98.07 93.89 3.86 o
4 9 7 11.68 10.59 2.73 o
5 9 7 167.83 175.22 10.57 o
6 9 7 5.68 14.07 8.17 <
-4 10 7 0.31 4.20 5.14 <
-3 10 7 0.05 -0.03 3.62 <
-2 10 7 4.56 1.72 3.94 <
-1 10 7 96.74 90.54 7.29 o
0 10 7 6.09 6.51 2.12 o
1 10 7 5.39 5.93 1.85 o
2 10 7 79.13 78.89 4.91 o
3 10 7 29.91 24.51 3.62 o
4 10 7 5.54 1.96 4.13 <
5 10 7 0.06 -6.81 4.86 <
-3 11 7 9.68 6.39 4.27 <
-2 11 7 16.13 12.61 3.67 o
-1 11 7 12.73 7.28 4.93 <
0 11 7 12.67 6.86 2.53 <
1 11 7 18.73 18.80 2.48 o
2 11 7 7.47 9.17 2.28 o
3 11 7 68.16 67.54 3.52 o
4 11 7 0.90 4.63 4.33 <
5 11 7 1.68 5.49 8.29 <
-3 12 7 29.14 25.49 5.39 o
-2 12 7 94.61 105.19 10.87 o
-1 12 7 45.26 48.03 5.11 o
0 12 7 21.06 21.91 4.22 o
1 12 7 0.29 0.03 4.13 <
2 12 7 147.26 148.05 8.84 o
3 12 7 15.09 18.49 5.22 o
4 12 7 86.73 87.82 7.97 o
-2 13 7 29.72 33.10 5.29 o
-1 13 7 35.07 37.45 4.78 o
0 13 7 12.33 9.95 4.11 <
1 13 7 91.66 86.42 5.11 o
2 13 7 18.97 10.50 4.71 <
3 13 7 26.38 15.24 17.34 <
0 14 7 18.11 21.57 5.02 o
1 14 7 0.21 4.64 5.16 <
2 14 7 4.94 9.52 8.47 <
-1 -8 8 29.17 22.64 4.88 o
0 -8 8 66.10 74.99 5.01 o
1 -8 8 78.01 83.38 5.09 o
-2 -7 8 3.12 3.40 5.35 <
-1 -7 8 19.50 22.89 5.25 o
0 -7 8 57.57 63.07 4.65 o
1 -7 8 74.38 76.49 7.35 o
2 -7 8 104.25 108.65 5.63 o
3 -7 8 26.79 4.44 9.34 <
-3 -6 8 13.67 17.43 5.62 o
-2 -6 8 24.44 18.03 4.36 o
-1 -6 8 15.74 13.15 3.17 o
0 -6 8 32.83 28.64 6.92 o
1 -6 8 50.01 62.42 3.97 o
2 -6 8 5.74 4.54 4.05 <
3 -6 8 12.52 15.24 5.31 <
4 -6 8 40.85 38.83 10.74 o
-4 -5 8 27.78 31.58 10.34 o
-3 -5 8 127.79 118.87 7.80 o
-2 -5 8 45.86 52.45 4.05 o
-1 -5 8 28.11 30.28 3.32 o
0 -5 8 184.37 177.70 9.37 o
1 -5 8 209.68 226.54 5.58 o
2 -5 8 32.96 42.78 3.23 o
3 -5 8 29.07 34.19 3.25 o
4 -5 8 51.58 56.26 3.92 o
-4 -4 8 4.23 18.07 15.62 <
-3 -4 8 13.31 14.30 8.70 <
-2 -4 8 19.33 17.21 4.30 o
-1 -4 8 0.66 1.00 2.27 <
0 -4 8 3.85 7.66 1.94 o
1 -4 8 126.68 134.25 4.63 o
2 -4 8 22.27 19.71 2.32 o
3 -4 8 123.00 121.69 4.60 o
4 -4 8 0.06 -2.39 4.36 <
5 -4 8 7.09 6.35 10.12 <
-4 -3 8 0.33 -11.82 9.78 <
-3 -3 8 21.50 22.87 7.23 o
-2 -3 8 12.10 15.03 2.76 o
-1 -3 8 5.10 3.22 2.08 <
0 -3 8 2.63 0.32 1.63 <
1 -3 8 5.14 5.88 1.66 o
2 -3 8 2.04 6.40 2.27 <
3 -3 8 182.89 199.99 4.67 o
4 -3 8 6.37 6.06 2.08 <
5 -3 8 3.69 1.63 3.04 <
-5 -2 8 3.74 8.41 9.11 <
-4 -2 8 76.59 64.95 17.35 o
-3 -2 8 9.25 3.68 3.33 <
-2 -2 8 354.59 374.59 6.94 o
-1 -2 8 92.19 82.46 4.07 o
0 -2 8 130.12 135.63 3.87 o
1 -2 8 94.54 114.18 7.26 o
2 -2 8 19.22 17.91 2.14 o
3 -2 8 6.71 1.23 2.17 <
4 -2 8 98.61 105.87 3.41 o
5 -2 8 129.20 124.23 8.46 o
6 -2 8 10.13 7.77 5.14 <
-5 -1 8 28.60 22.42 8.70 <
-4 -1 8 75.02 62.29 8.73 o
-3 -1 8 0.01 1.03 4.15 <
-2 -1 8 0.01 0.22 2.24 <
-1 -1 8 20.53 17.90 1.86 o
0 -1 8 20.97 19.58 1.87 o
1 -1 8 137.59 155.93 3.86 o
2 -1 8 1381.75 1439.88 17.90 o
3 -1 8 132.03 134.47 5.98 o
4 -1 8 0.42 2.55 1.68 <
5 -1 8 14.17 14.20 2.49 o
6 -1 8 29.50 38.30 3.87 o
-5 0 8 76.10 94.90 10.69 o
-4 0 8 23.67 24.09 4.52 o
-3 0 8 43.43 38.87 6.09 o
-2 0 8 143.31 140.07 5.97 o
-1 0 8 99.36 97.14 3.07 o
0 0 8 46.84 46.34 2.37 o
1 0 8 99.43 92.55 2.57 o
2 0 8 1186.19 1195.74 13.29 o
3 0 8 5.45 4.99 1.49 o
4 0 8 14.26 16.44 1.92 o
5 0 8 32.89 45.15 3.92 o
6 0 8 5.44 10.56 3.02 o
-5 1 8 17.19 19.03 7.59 <
-4 1 8 29.54 27.91 4.92 o
-3 1 8 1.19 4.51 3.65 <
-2 1 8 0.89 1.37 1.94 <
-1 1 8 1097.24 1139.67 12.92 o
0 1 8 22.07 20.80 1.62 o
1 1 8 246.69 248.02 3.96 o
2 1 8 31.44 35.93 2.34 o
3 1 8 190.48 195.88 3.79 o
4 1 8 134.74 137.68 4.22 o
5 1 8 240.45 247.63 5.01 o
6 1 8 50.23 50.42 2.93 o
-5 2 8 9.48 4.20 6.48 <
-4 2 8 4.63 6.80 4.57 <
-3 2 8 70.48 66.31 6.75 o
-2 2 8 111.94 116.15 7.46 o
-1 2 8 169.56 169.93 3.99 o
0 2 8 6.74 6.49 1.13 o
1 2 8 62.91 58.13 1.97 o
2 2 8 5.82 5.77 1.14 o
3 2 8 184.42 189.53 4.29 o
4 2 8 328.17 306.64 5.84 o
5 2 8 40.62 32.80 2.08 o
6 2 8 48.68 46.32 3.04 o
-5 3 8 89.68 90.56 7.67 o
-4 3 8 1.60 -2.89 4.58 <
-3 3 8 60.08 64.32 5.91 o
-2 3 8 331.01 332.48 6.24 o
-1 3 8 205.30 217.12 6.27 o
0 3 8 130.20 127.34 3.88 o
1 3 8 485.02 486.51 8.14 o
2 3 8 7.99 5.41 1.05 o
3 3 8 12.68 13.53 1.73 o
4 3 8 1.68 3.35 1.71 <
5 3 8 143.74 149.15 5.06 o
6 3 8 6.49 8.24 2.28 o
-5 4 8 0.01 8.82 5.30 <
-4 4 8 3.86 3.39 3.87 <
-3 4 8 187.15 180.16 5.88 o
-2 4 8 7.38 7.14 2.41 <
-1 4 8 57.02 60.61 3.91 o
0 4 8 114.98 112.44 3.47 o
1 4 8 19.58 18.80 1.19 o
2 4 8 0.36 0.54 1.07 <
3 4 8 101.07 104.06 4.90 o
4 4 8 176.19 179.33 4.12 o
5 4 8 27.46 34.52 2.82 o
6 4 8 42.52 49.22 6.19 o
-5 5 8 10.79 18.97 5.97 o
-4 5 8 12.22 11.50 4.19 <
-3 5 8 0.97 6.26 2.70 <
-2 5 8 75.76 73.66 4.56 o
-1 5 8 7.21 8.05 2.13 o
0 5 8 87.31 97.50 2.89 o
1 5 8 21.00 22.23 1.93 o
2 5 8 8.14 7.09 1.17 o
3 5 8 41.04 39.22 1.98 o
4 5 8 10.82 8.65 1.96 o
5 5 8 8.38 8.27 2.71 o
6 5 8 35.13 25.69 4.71 o
-5 6 8 32.56 23.06 10.16 <
-3 6 8 16.95 10.41 3.30 o
-2 6 8 122.16 127.45 5.69 o
-1 6 8 174.57 168.43 4.10 o
0 6 8 268.96 278.24 5.22 o
1 6 8 6.77 8.82 1.34 o
2 6 8 188.88 195.07 4.05 o
3 6 8 0.69 -0.34 1.37 <
4 6 8 15.40 15.11 1.92 o
5 6 8 109.82 130.30 6.41 o
6 6 8 34.94 33.73 3.96 o
-5 7 8 14.64 11.59 6.24 <
-4 7 8 18.95 13.46 4.58 <
-3 7 8 95.05 99.07 6.27 o
-2 7 8 27.23 24.96 4.29 o
-1 7 8 32.27 29.60 2.55 o
0 7 8 1.16 2.57 1.95 <
1 7 8 60.45 56.95 2.47 o
2 7 8 3.67 7.75 1.59 o
3 7 8 408.28 405.04 6.75 o
4 7 8 34.95 32.14 2.65 o
5 7 8 5.53 8.76 3.89 <
6 7 8 4.26 3.62 6.12 <
-4 8 8 290.61 286.54 10.98 o
-3 8 8 257.18 260.67 19.91 o
-2 8 8 1.13 -0.95 2.37 <
-1 8 8 41.08 38.61 3.03 o
0 8 8 18.87 25.87 2.49 o
1 8 8 0.33 1.39 1.42 <
2 8 8 1110.28 1122.51 14.02 o
3 8 8 585.04 592.88 8.95 o
4 8 8 17.97 15.82 2.38 o
5 8 8 2.87 2.51 3.98 <
6 8 8 0.68 -6.54 8.11 <
-4 9 8 0.02 -0.58 5.66 <
-3 9 8 116.70 124.08 7.21 o
-2 9 8 2.76 -0.90 3.12 <
-1 9 8 77.96 66.79 4.70 o
0 9 8 202.11 199.17 5.40 o
1 9 8 16.67 11.58 2.04 o
2 9 8 251.51 249.41 4.42 o
3 9 8 0.16 -1.31 1.89 <
4 9 8 6.68 8.82 2.14 o
5 9 8 26.13 31.18 6.66 o
6 9 8 59.42 64.06 10.34 o
-4 10 8 8.30 1.28 5.60 <
-3 10 8 7.64 11.41 4.61 <
-2 10 8 4.99 5.52 3.42 <
-1 10 8 44.90 45.08 4.02 o
0 10 8 7.60 5.20 2.29 <
1 10 8 11.97 15.30 2.70 o
2 10 8 9.72 11.09 1.93 o
3 10 8 24.02 21.02 2.69 o
4 10 8 0.72 -1.98 3.43 <
5 10 8 57.14 65.25 5.10 o
-3 11 8 16.53 27.09 5.13 o
-2 11 8 62.28 60.94 5.12 o
-1 11 8 0.45 -2.83 8.26 <
0 11 8 0.05 -0.48 2.64 <
1 11 8 207.82 221.18 6.55 o
2 11 8 209.57 211.65 5.33 o
3 11 8 7.54 11.34 3.23 o
4 11 8 0.06 6.36 6.83 <
5 11 8 64.01 84.94 14.45 o
-2 12 8 58.53 60.18 5.78 o
-1 12 8 2.16 2.25 9.72 <
0 12 8 4.74 2.59 3.84 <
1 12 8 83.75 91.87 5.63 o
2 12 8 33.68 36.89 3.33 o
3 12 8 2.63 -0.48 2.99 <
4 12 8 71.69 89.06 7.85 o
-1 13 8 0.10 0.55 4.28 <
0 13 8 53.59 56.55 5.35 o
1 13 8 2.48 8.83 4.78 <
2 13 8 3.87 5.55 4.13 <
3 13 8 80.60 79.27 6.43 o
0 14 8 45.84 30.89 7.71 o
1 14 8 72.39 73.53 6.79 o
-1 -7 9 31.91 35.11 4.74 o
0 -7 9 228.98 252.07 7.93 o
1 -7 9 50.13 56.17 4.21 o
2 -7 9 13.30 22.54 10.04 <
-2 -6 9 32.37 32.96 5.96 o
-1 -6 9 10.71 12.47 4.26 <
0 -6 9 2.65 6.33 4.20 <
1 -6 9 0.04 -0.62 2.66 <
2 -6 9 6.60 9.67 3.12 o
3 -6 9 3.70 1.05 6.60 <
-3 -5 9 77.47 94.49 11.45 o
-2 -5 9 42.56 43.19 7.22 o
-1 -5 9 70.92 71.91 4.27 o
0 -5 9 182.31 172.30 5.56 o
1 -5 9 101.44 95.47 5.68 o
2 -5 9 65.62 76.68 4.09 o
3 -5 9 129.07 153.15 8.94 o
4 -5 9 98.96 111.15 13.26 o
-3 -4 9 1.34 -8.99 7.30 <
-2 -4 9 3.60 -3.36 3.87 <
-1 -4 9 0.15 -6.13 3.86 <
0 -4 9 4.41 0.76 2.20 <
1 -4 9 42.25 47.45 2.97 o
2 -4 9 0.72 -3.99 3.57 <
3 -4 9 56.09 49.64 5.01 o
4 -4 9 1.27 4.64 2.60 <
-4 -3 9 7.91 22.24 8.99 <
-3 -3 9 53.78 61.61 9.05 o
-2 -3 9 30.94 22.31 6.06 o
-1 -3 9 18.51 22.60 4.67 o
0 -3 9 24.88 23.88 2.95 o
1 -3 9 23.94 20.14 2.73 o
2 -3 9 100.31 88.79 4.70 o
3 -3 9 22.46 18.76 3.21 o
4 -3 9 2.46 -1.87 4.68 <
5 -3 9 0.12 9.21 3.85 <
-4 -2 9 134.06 129.24 12.21 o
-3 -2 9 3.35 -3.53 4.09 <
-2 -2 9 22.19 23.60 2.97 o
-1 -2 9 371.65 382.04 8.46 o
0 -2 9 59.76 60.96 4.20 o
1 -2 9 17.47 15.79 2.52 o
2 -2 9 94.40 91.23 4.49 o
3 -2 9 36.99 37.23 3.30 o
4 -2 9 38.66 41.86 3.82 o
5 -2 9 58.44 65.02 3.93 o
-4 -1 9 2.16 5.60 6.77 <
-3 -1 9 3.27 3.97 3.82 <
-2 -1 9 50.82 50.68 3.73 o
-1 -1 9 0.22 -0.15 2.08 <
0 -1 9 98.98 99.95 6.20 o
1 -1 9 0.15 0.64 2.11 <
2 -1 9 8.81 14.11 3.15 o
3 -1 9 56.37 59.89 4.54 o
4 -1 9 67.87 75.14 7.39 o
5 -1 9 11.43 18.44 2.86 o
6 -1 9 27.49 43.42 4.69 o
-4 0 9 1.99 3.27 6.42 <
-3 0 9 85.36 87.96 8.04 o
-2 0 9 334.59 337.57 8.82 o
-1 0 9 45.13 46.28 2.92 o
0 0 9 2.18 0.64 1.54 <
1 0 9 134.49 131.52 3.95 o
2 0 9 238.01 210.49 4.16 o
3 0 9 24.85 25.25 2.07 o
4 0 9 66.92 60.56 7.10 o
5 0 9 36.76 30.26 3.35 o
6 0 9 0.73 4.07 3.86 <
-5 1 9 161.08 170.04 14.20 o
-4 1 9 14.91 18.22 6.42 <
-3 1 9 36.21 44.82 5.57 o
-2 1 9 66.01 72.45 3.79 o
-1 1 9 61.58 61.53 2.68 o
0 1 9 26.89 31.24 2.24 o
1 1 9 79.06 74.85 2.88 o
2 1 9 132.45 125.35 3.24 o
3 1 9 305.55 299.68 6.50 o
4 1 9 7.67 4.71 2.28 <
5 1 9 55.20 55.36 3.24 o
6 1 9 11.84 6.48 5.37 <
-5 2 9 55.16 62.19 9.69 o
-4 2 9 4.94 7.06 5.37 <
-3 2 9 3.16 4.86 3.10 <
-2 2 9 3.28 8.13 2.37 o
-1 2 9 69.17 73.77 3.13 o
0 2 9 57.85 62.52 2.38 o
1 2 9 147.21 145.10 3.71 o
2 2 9 125.64 114.43 2.96 o
3 2 9 95.61 93.97 3.62 o
4 2 9 67.98 61.35 5.02 o
5 2 9 14.22 11.69 2.86 o
6 2 9 0.14 -3.49 2.78 <
-5 3 9 39.41 31.94 6.80 o
-4 3 9 31.93 25.58 6.19 o
-3 3 9 254.01 260.11 14.18 o
-2 3 9 500.72 517.82 8.66 o
-1 3 9 126.91 122.77 4.26 o
0 3 9 8.95 4.33 2.01 <
1 3 9 6.82 6.18 1.66 o
2 3 9 127.03 118.41 4.02 o
3 3 9 387.40 369.04 6.42 o
4 3 9 175.92 167.30 4.89 o
5 3 9 37.84 34.94 3.89 o
6 3 9 0.01 2.08 3.29 <
-5 4 9 0.87 3.15 5.80 <
-4 4 9 0.11 -4.03 4.96 <
-3 4 9 31.00 16.15 11.42 <
-2 4 9 44.25 46.29 4.61 o
-1 4 9 89.07 90.23 4.86 o
0 4 9 53.26 60.22 3.30 o
1 4 9 64.41 67.55 2.36 o
2 4 9 140.60 143.91 3.15 o
3 4 9 17.43 17.46 2.60 o
4 4 9 0.61 0.20 1.67 <
5 4 9 36.06 31.37 3.15 o
6 4 9 41.53 45.50 4.18 o
-5 5 9 0.21 7.65 18.45 <
-4 5 9 0.14 0.82 9.40 <
-3 5 9 3.18 4.09 6.13 <
-2 5 9 9.36 2.13 2.70 <
-1 5 9 5.20 7.89 2.22 o
0 5 9 41.53 39.11 2.34 o
1 5 9 0.62 2.39 1.38 <
2 5 9 181.99 184.61 3.60 o
3 5 9 41.44 39.94 2.40 o
4 5 9 0.08 -0.09 1.65 <
5 5 9 5.45 3.62 2.14 <
6 5 9 10.33 10.02 3.95 <
-4 6 9 52.45 45.78 5.89 o
-3 6 9 110.36 121.60 7.57 o
-2 6 9 14.69 17.22 3.56 o
-1 6 9 369.18 366.92 7.88 o
0 6 9 456.46 485.58 7.49 o
1 6 9 50.05 51.57 3.06 o
2 6 9 64.42 66.08 2.52 o
3 6 9 449.47 428.84 6.22 o
4 6 9 70.62 74.73 4.04 o
5 6 9 3.79 5.95 2.41 <
6 6 9 78.25 78.98 4.46 o
-4 7 9 1.69 -4.23 13.52 <
-3 7 9 43.93 44.03 8.82 o
-2 7 9 29.22 29.51 5.62 o
-1 7 9 11.27 16.68 2.49 o
0 7 9 7.57 7.01 1.56 o
1 7 9 6.34 2.95 2.58 <
2 7 9 15.13 14.67 1.89 o
3 7 9 376.66 370.45 6.55 o
4 7 9 0.59 0.91 1.87 <
5 7 9 28.37 32.23 3.15 o
6 7 9 18.84 21.72 4.77 o
-4 8 9 5.02 -4.82 7.33 <
-3 8 9 6.69 2.31 4.16 <
-2 8 9 46.16 41.81 6.13 o
-1 8 9 30.40 35.47 3.67 o
0 8 9 1.83 -0.39 2.04 <
1 8 9 594.98 597.00 8.68 o
2 8 9 197.95 194.54 5.56 o
3 8 9 125.65 128.45 4.99 o
4 8 9 2.67 1.02 2.43 <
5 8 9 92.55 91.03 7.13 o
6 8 9 3.28 -2.54 5.63 <
-4 9 9 75.32 60.30 11.54 o
-3 9 9 0.05 5.98 6.28 <
-2 9 9 148.86 147.37 7.36 o
-1 9 9 43.09 42.86 4.56 o
0 9 9 22.50 37.77 3.00 o
1 9 9 27.21 31.47 2.38 o
2 9 9 54.56 50.94 2.82 o
3 9 9 3.56 6.14 3.33 <
4 9 9 37.33 38.46 3.86 o
5 9 9 24.40 26.10 8.12 o
-3 10 9 0.62 -0.44 4.65 <
-2 10 9 17.75 23.53 4.16 o
-1 10 9 31.91 20.64 3.68 o
0 10 9 63.95 70.14 5.10 o
1 10 9 51.32 50.79 3.34 o
2 10 9 43.48 48.45 3.33 o
3 10 9 74.02 83.96 6.23 o
4 10 9 1.80 -1.54 4.64 <
5 10 9 3.16 6.31 8.12 <
-3 11 9 0.34 -9.17 11.27 <
-2 11 9 37.81 32.81 5.78 o
-1 11 9 4.38 3.07 3.61 <
0 11 9 110.49 111.40 6.12 o
1 11 9 50.05 60.87 4.56 o
2 11 9 10.73 9.59 3.14 o
3 11 9 10.26 8.34 2.85 <
4 11 9 131.28 120.94 7.51 o
5 11 9 16.42 19.88 6.60 o
-2 12 9 39.80 36.26 5.29 o
-1 12 9 16.58 19.50 4.32 o
0 12 9 15.31 21.56 4.99 o
1 12 9 96.32 107.67 5.71 o
2 12 9 69.35 70.20 3.99 o
3 12 9 2.46 2.17 3.32 <
4 12 9 0.31 1.28 5.98 <
-1 13 9 2.68 0.82 9.98 <
0 13 9 14.19 11.27 4.55 <
1 13 9 0.17 4.92 4.66 <
2 13 9 10.17 6.60 4.18 <
3 13 9 1.97 9.08 6.01 <
0 -6 10 50.89 55.57 4.37 o
1 -6 10 2.02 -0.41 4.50 <
-2 -5 10 10.96 7.44 5.58 <
-1 -5 10 171.25 167.66 8.77 o
0 -5 10 35.32 33.69 4.79 o
1 -5 10 8.34 14.57 3.94 o
2 -5 10 36.42 29.17 8.73 o
3 -5 10 255.50 257.10 11.13 o
-2 -4 10 0.34 11.68 6.95 <
-1 -4 10 1.18 -2.10 5.20 <
0 -4 10 91.96 88.78 7.24 o
1 -4 10 42.38 37.58 3.81 o
2 -4 10 20.05 21.12 3.79 o
3 -4 10 5.07 -0.99 4.43 <
4 -4 10 16.74 17.98 5.63 o
-3 -3 10 29.51 31.47 8.47 o
-2 -3 10 35.90 41.75 5.02 o
-1 -3 10 79.44 84.34 6.07 o
0 -3 10 111.72 106.03 5.11 o
1 -3 10 112.11 119.21 5.75 o
2 -3 10 56.61 51.62 7.30 o
3 -3 10 62.55 57.48 4.54 o
4 -3 10 15.99 20.51 4.38 o
-3 -2 10 56.31 36.49 8.12 o
-2 -2 10 12.92 16.90 4.01 o
-1 -2 10 2.87 -0.45 2.62 <
0 -2 10 92.46 95.29 4.67 o
1 -2 10 16.07 14.44 2.55 o
2 -2 10 84.54 79.61 4.50 o
3 -2 10 13.02 9.46 3.98 <
4 -2 10 58.02 59.08 4.70 o
5 -2 10 42.80 39.44 6.08 o
-4 -1 10 41.21 35.73 8.99 o
-3 -1 10 10.49 1.17 5.96 <
-2 -1 10 15.67 7.77 3.40 <
-1 -1 10 21.00 17.91 3.53 o
0 -1 10 13.33 12.12 2.57 o
1 -1 10 15.72 12.67 2.14 o
2 -1 10 243.49 244.41 8.71 o
3 -1 10 0.22 0.35 2.45 <
4 -1 10 43.10 51.21 8.12 o
5 -1 10 0.32 5.05 4.92 <
-4 0 10 2.96 9.98 7.59 <
-2 0 10 50.06 55.38 4.48 o
-1 0 10 64.74 71.24 3.31 o
0 0 10 79.22 83.30 3.27 o
1 0 10 0.23 1.66 1.59 <
2 0 10 10.20 9.15 2.19 o
3 0 10 141.82 139.34 4.23 o
4 0 10 60.14 53.39 3.74 o
5 0 10 7.51 -2.80 4.38 <
-4 1 10 23.77 22.95 8.00 <
-3 1 10 3.33 7.36 6.95 <
-2 1 10 54.90 51.36 4.21 o
-1 1 10 43.26 35.33 3.63 o
0 1 10 56.06 53.09 3.70 o
1 1 10 1186.52 1183.63 22.60 o
2 1 10 209.79 187.70 4.25 o
3 1 10 0.01 2.28 1.90 <
4 1 10 13.28 11.68 2.63 o
5 1 10 17.33 18.01 4.79 o
6 1 10 15.04 20.64 7.39 <
-4 2 10 8.13 4.73 6.36 <
-3 2 10 74.68 77.97 8.12 o
-2 2 10 23.04 21.75 3.17 o
-1 2 10 0.39 3.16 2.25 <
0 2 10 401.65 410.49 6.60 o
1 2 10 790.95 797.43 9.74 o
2 2 10 33.64 33.47 2.45 o
3 2 10 10.93 12.11 2.53 o
4 2 10 0.02 -2.39 2.27 <
5 2 10 0.88 0.88 3.20 <
6 2 10 50.03 48.61 8.67 o
-4 3 10 57.22 41.69 7.53 o
-3 3 10 46.35 50.80 6.83 o
-2 3 10 106.15 106.96 7.68 o
-1 3 10 1.57 5.16 2.41 <
0 3 10 7.09 5.13 2.27 <
1 3 10 90.54 91.00 2.97 o
2 3 10 259.30 261.81 4.63 o
3 3 10 252.02 266.51 5.78 o
4 3 10 117.30 102.69 6.16 o
5 3 10 2.47 0.89 3.06 <
6 3 10 17.97 12.00 5.30 <
-4 4 10 22.10 22.28 9.31 <
-3 4 10 31.46 26.74 6.31 o
-2 4 10 1.43 4.16 2.82 <
-1 4 10 0.40 2.55 3.30 <
0 4 10 111.35 121.13 4.60 o
1 4 10 13.13 13.99 2.15 o
2 4 10 8.26 9.10 1.61 o
3 4 10 0.65 0.99 3.10 <
4 4 10 61.35 58.58 4.13 o
5 4 10 9.42 8.02 3.00 <
6 4 10 12.52 0.64 4.92 <
-4 5 10 2.68 -2.19 5.02 <
-3 5 10 2.57 1.93 4.72 <
-2 5 10 134.66 138.65 5.41 o
-1 5 10 1.16 1.68 3.89 <
0 5 10 8.78 10.85 2.37 o
1 5 10 157.25 167.57 3.76 o
2 5 10 66.95 69.28 2.70 o
3 5 10 29.24 27.57 2.09 o
4 5 10 41.48 47.52 2.73 o
5 5 10 66.72 81.06 5.58 o
6 5 10 0.34 0.53 3.70 <
-4 6 10 39.03 31.06 6.04 o
-3 6 10 2.65 3.12 4.35 <
-2 6 10 82.26 76.66 5.47 o
-1 6 10 32.60 32.52 3.26 o
0 6 10 42.18 38.79 2.69 o
1 6 10 197.21 193.48 4.46 o
2 6 10 601.01 606.48 8.01 o
3 6 10 36.96 35.80 2.56 o
4 6 10 37.35 32.80 2.51 o
5 6 10 187.34 182.76 5.42 o
6 6 10 49.70 35.03 6.62 o
-4 7 10 38.38 48.49 8.85 o
-3 7 10 0.58 -6.83 3.94 <
-2 7 10 5.59 2.83 3.33 <
-1 7 10 102.21 98.00 5.33 o
0 7 10 7.23 6.16 2.11 <
1 7 10 3.85 5.62 1.89 <
2 7 10 154.75 160.30 4.33 o
3 7 10 1.55 2.35 2.62 <
4 7 10 2.89 2.91 2.31 <
5 7 10 21.19 15.15 2.97 o
6 7 10 0.67 0.48 3.92 <
-4 8 10 47.06 46.86 7.21 o
-3 8 10 0.14 0.67 6.74 <
-2 8 10 79.17 81.92 6.22 o
-1 8 10 85.75 80.53 4.60 o
0 8 10 45.70 45.18 3.32 o
1 8 10 85.21 83.19 3.51 o
2 8 10 0.01 -1.06 1.80 <
3 8 10 7.68 8.73 2.42 o
4 8 10 163.15 164.68 6.43 o
5 8 10 33.42 41.10 5.71 o
-3 9 10 15.16 23.47 5.30 o
-2 9 10 0.01 -6.13 3.64 <
-1 9 10 19.64 22.65 3.64 o
0 9 10 11.11 10.83 2.95 o
1 9 10 131.72 135.11 5.27 o
2 9 10 660.11 678.98 14.23 o
3 9 10 9.02 5.43 2.86 <
4 9 10 2.96 2.90 4.76 <
5 9 10 1.03 2.89 6.33 <
-3 10 10 0.39 -5.81 5.01 <
-2 10 10 5.74 10.70 4.89 <
-1 10 10 8.15 4.52 3.53 <
0 10 10 9.39 9.32 3.03 o
1 10 10 239.72 231.26 9.12 o
2 10 10 117.85 111.22 5.06 o
3 10 10 22.24 22.01 3.55 o
4 10 10 59.12 71.30 6.66 o
5 10 10 3.07 -4.17 8.61 <
-2 11 10 15.25 17.46 4.85 o
-1 11 10 51.54 56.41 5.27 o
0 11 10 2.38 3.36 7.33 <
1 11 10 100.14 101.84 6.15 o
2 11 10 56.37 64.35 7.53 o
3 11 10 24.38 26.45 3.95 o
4 11 10 61.20 69.96 8.04 o
-1 12 10 13.77 12.14 4.57 <
0 12 10 115.30 112.89 7.25 o
1 12 10 125.41 139.34 7.33 o
2 12 10 0.31 -6.57 3.64 <
3 12 10 28.12 28.20 6.04 o
4 12 10 18.91 28.90 6.66 o
0 13 10 8.07 8.09 4.53 <
1 13 10 2.42 3.19 4.26 <
2 13 10 0.19 2.38 3.84 <
1 -5 11 40.01 46.07 9.75 o
-1 -4 11 22.94 21.49 5.06 o
0 -4 11 8.05 5.75 4.13 <
1 -4 11 0.47 -7.18 6.83 <
2 -4 11 27.68 28.09 5.33 o
3 -4 11 22.05 29.11 5.99 o
-2 -3 11 19.10 27.50 7.53 o
-1 -3 11 143.79 148.99 7.86 o
0 -3 11 86.57 74.15 5.60 o
1 -3 11 58.92 67.22 6.09 o
2 -3 11 301.02 336.84 21.93 o
3 -3 11 101.91 117.35 8.35 o
-3 -2 11 0.24 0.35 8.11 <
-2 -2 11 2.43 8.03 4.78 <
-1 -2 11 1.16 2.77 5.93 <
0 -2 11 1.07 -1.08 3.70 <
1 -2 11 15.67 12.14 3.42 o
2 -2 11 2.48 5.49 3.00 <
3 -2 11 27.70 22.03 7.57 <
4 -2 11 7.63 17.89 5.32 o
-3 -1 11 0.86 -3.91 6.95 <
-2 -1 11 15.00 12.17 4.03 o
-1 -1 11 0.01 0.10 4.55 <
0 -1 11 103.56 99.95 5.71 o
1 -1 11 14.36 17.83 2.63 o
2 -1 11 10.14 10.16 2.76 o
3 -1 11 0.13 3.19 2.98 <
4 -1 11 3.07 2.84 3.60 <
5 -1 11 6.31 -2.04 9.05 <
-3 0 11 1.03 1.98 6.54 <
-2 0 11 33.75 41.69 4.32 o
-1 0 11 45.90 48.06 4.27 o
0 0 11 51.33 53.83 5.88 o
1 0 11 129.01 135.05 4.22 o
2 0 11 0.73 1.18 2.00 <
3 0 11 117.58 135.37 10.31 o
4 0 11 61.44 76.29 4.70 o
5 0 11 86.88 108.22 7.73 o
-3 1 11 2.23 -0.64 5.72 <
-2 1 11 5.95 5.63 6.04 <
-1 1 11 11.64 12.60 2.79 o
0 1 11 132.30 136.22 5.57 o
1 1 11 0.28 4.70 1.94 <
2 1 11 48.29 47.94 3.14 o
3 1 11 10.23 10.95 2.20 o
4 1 11 8.66 6.38 2.96 <
5 1 11 0.30 -2.83 4.65 <
-4 2 11 4.44 -1.81 7.18 <
-3 2 11 2.97 5.08 5.72 <
-2 2 11 50.11 55.56 4.73 o
-1 2 11 26.95 36.08 3.71 o
0 2 11 2.97 1.97 1.96 <
1 2 11 74.98 69.55 4.89 o
2 2 11 19.20 19.76 2.34 o
3 2 11 0.07 -0.19 3.42 <
4 2 11 18.95 18.88 3.14 o
5 2 11 91.18 90.41 5.78 o
-4 3 11 0.00 0.35 6.83 <
-3 3 11 11.95 12.52 5.38 <
-2 3 11 15.28 10.60 3.52 o
-1 3 11 125.78 132.14 7.39 o
0 3 11 166.44 169.52 6.39 o
1 3 11 149.09 149.32 4.00 o
2 3 11 355.57 371.56 6.36 o
3 3 11 55.56 52.50 4.12 o
4 3 11 28.61 31.93 3.92 o
5 3 11 161.44 165.14 8.82 o
-4 4 11 0.40 4.17 6.16 <
-3 4 11 1.09 0.90 5.03 <
-2 4 11 16.87 22.27 4.64 o
-1 4 11 0.11 5.72 3.40 <
0 4 11 130.15 128.22 4.63 o
1 4 11 15.50 16.99 3.06 o
2 4 11 1.70 4.38 3.47 <
3 4 11 73.96 76.90 7.53 o
4 4 11 22.65 19.56 3.05 o
5 4 11 0.02 0.39 5.90 <
-4 5 11 29.53 30.54 6.95 o
-3 5 11 93.25 110.63 9.93 o
-2 5 11 2.32 5.94 3.31 <
-1 5 11 1.92 7.98 3.18 <
0 5 11 6.22 10.06 3.62 <
1 5 11 38.46 40.70 2.56 o
2 5 11 100.07 100.38 7.56 o
3 5 11 65.90 61.52 5.13 o
4 5 11 77.74 83.60 7.10 o
5 5 11 21.40 23.92 4.16 o
-3 6 11 40.04 40.55 5.87 o
-2 6 11 0.08 7.82 6.13 <
-1 6 11 18.34 29.37 4.55 o
0 6 11 0.13 -3.01 3.32 <
1 6 11 107.01 110.18 7.88 o
2 6 11 46.04 41.03 3.97 o
3 6 11 45.59 41.77 2.71 o
4 6 11 0.03 -2.51 2.81 <
5 6 11 106.75 109.99 6.04 o
-3 7 11 82.81 98.85 11.19 o
-2 7 11 13.97 13.46 4.15 o
-1 7 11 20.14 19.06 3.77 o
0 7 11 23.19 25.46 2.83 o
1 7 11 30.37 36.65 3.30 o
2 7 11 117.99 117.00 5.59 o
3 7 11 1.60 3.85 4.22 <
4 7 11 13.97 15.99 2.71 o
5 7 11 3.50 2.52 3.39 <
-3 8 11 7.49 2.04 7.24 <
-2 8 11 144.45 140.09 7.55 o
-1 8 11 15.26 16.17 3.65 o
0 8 11 17.27 13.39 3.07 o
1 8 11 105.17 102.23 8.12 o
2 8 11 54.13 57.07 5.52 o
3 8 11 16.16 17.78 6.10 <
4 8 11 36.53 50.87 5.15 o
5 8 11 83.63 102.33 15.54 o
-3 9 11 3.79 -1.37 7.27 <
-2 9 11 3.76 2.98 5.08 <
-1 9 11 41.99 37.93 3.63 o
0 9 11 37.91 40.35 4.05 o
1 9 11 9.96 13.72 4.26 o
2 9 11 11.42 11.08 3.61 o
3 9 11 0.43 -1.78 3.91 <
4 9 11 1.13 2.08 3.82 <
5 9 11 0.01 -1.58 5.44 <
-2 10 11 32.28 34.56 6.05 o
-1 10 11 26.73 29.81 4.40 o
0 10 11 18.20 12.09 3.65 o
1 10 11 0.35 -5.46 4.48 <
2 10 11 167.73 176.61 6.24 o
3 10 11 34.24 32.62 5.23 o
4 10 11 0.06 -0.64 5.02 <
-2 11 11 9.70 11.56 6.32 <
-1 11 11 31.54 35.47 8.20 o
0 11 11 0.01 6.04 3.84 <
1 11 11 10.60 14.93 3.71 o
2 11 11 41.33 45.66 4.61 o
3 11 11 35.91 45.72 4.79 o
4 11 11 5.61 2.19 6.20 <
-1 12 11 1.33 -7.41 6.54 <
0 12 11 34.43 27.47 4.82 o
1 12 11 15.81 20.79 6.72 o
2 12 11 8.21 17.22 7.76 <
3 12 11 0.25 -1.11 5.58 <
1 13 11 0.00 -0.99 5.14 <
0 -3 12 65.24 60.21 5.69 o
1 -3 12 46.86 54.62 7.62 o
2 -3 12 91.22 101.39 7.70 o
-1 -2 12 24.82 29.08 4.89 o
0 -2 12 21.99 22.51 4.40 o
1 -2 12 1.22 4.50 6.40 <
2 -2 12 5.60 8.83 3.99 <
3 -2 12 18.47 28.17 5.47 o
-2 -1 12 185.42 190.11 12.45 o
-1 -1 12 130.70 134.11 7.48 o
0 -1 12 0.03 6.70 3.54 <
1 -1 12 5.67 3.79 2.92 <
2 -1 12 92.49 88.82 5.15 o
3 -1 12 21.38 11.50 4.62 <
4 -1 12 0.05 1.23 5.38 <
-2 0 12 0.23 7.18 6.25 <
-1 0 12 118.43 118.30 7.27 o
0 0 12 1.19 1.16 3.08 <
1 0 12 7.31 5.56 2.62 <
2 0 12 60.21 69.34 6.02 o
3 0 12 15.89 12.03 4.52 <
4 0 12 29.64 28.96 5.89 o
-3 1 12 1.39 14.48 7.36 <
-2 1 12 0.89 -2.13 9.43 <
-1 1 12 0.53 3.02 4.05 <
0 1 12 2.26 2.98 3.27 <
1 1 12 38.98 37.66 2.98 o
2 1 12 9.50 7.26 3.80 <
3 1 12 14.06 20.86 2.66 o
4 1 12 10.98 3.85 4.83 <
-3 2 12 26.12 12.03 7.07 <
-2 2 12 55.25 58.63 6.31 o
-1 2 12 92.96 100.99 5.19 o
0 2 12 22.57 27.87 5.42 o
1 2 12 48.84 50.88 3.15 o
2 2 12 85.45 87.39 4.97 o
3 2 12 63.19 66.01 4.75 o
4 2 12 71.95 72.62 5.94 o
5 2 12 13.58 11.15 5.59 <
-3 3 12 0.02 -1.87 6.36 <
-2 3 12 16.66 19.68 4.48 o
-1 3 12 178.10 160.26 28.34 o
0 3 12 469.68 447.14 7.77 o
1 3 12 46.09 43.25 7.17 o
2 3 12 5.76 4.70 2.69 <
3 3 12 64.98 66.95 5.48 o
4 3 12 25.82 27.01 4.41 o
5 3 12 30.68 31.74 8.44 o
-3 4 12 6.49 8.06 6.36 <
-2 4 12 15.27 12.23 4.27 <
-1 4 12 93.96 96.52 5.56 o
0 4 12 265.16 252.13 9.53 o
1 4 12 41.73 34.97 3.90 o
2 4 12 0.35 2.97 2.22 <
3 4 12 0.59 1.23 2.89 <
4 4 12 14.01 19.54 4.74 o
5 4 12 11.68 2.34 8.29 <
-3 5 12 74.16 68.74 7.94 o
-2 5 12 79.49 77.33 5.58 o
-1 5 12 5.59 8.92 2.93 o
0 5 12 14.65 12.86 2.60 o
1 5 12 124.75 123.95 4.67 o
2 5 12 7.81 5.08 6.25 <
3 5 12 181.36 165.30 6.14 o
4 5 12 52.79 44.24 4.19 o
5 5 12 7.75 10.61 4.29 <
-3 6 12 5.37 11.85 11.38 <
-2 6 12 34.41 36.14 5.31 o
-1 6 12 6.28 10.22 5.31 <
0 6 12 6.75 3.04 2.87 <
1 6 12 2.15 2.63 3.37 <
2 6 12 36.22 37.73 5.27 o
3 6 12 22.55 20.49 3.95 o
4 6 12 119.28 119.71 4.74 o
5 6 12 9.03 9.75 4.96 <
-3 7 12 20.51 39.44 15.91 <
-2 7 12 0.03 3.65 4.22 <
-1 7 12 28.55 30.57 4.88 o
0 7 12 55.40 66.98 4.81 o
1 7 12 0.02 -3.25 4.80 <
2 7 12 18.44 15.17 3.61 o
3 7 12 59.68 61.99 3.66 o
4 7 12 0.15 -2.19 3.26 <
5 7 12 1.19 5.74 4.30 <
-2 8 12 4.61 -5.23 4.34 <
-1 8 12 14.67 12.06 4.03 <
0 8 12 54.84 58.43 5.52 o
1 8 12 11.70 11.74 3.23 o
2 8 12 54.27 62.02 5.74 o
3 8 12 0.25 1.61 3.53 <
4 8 12 91.60 89.19 7.71 o
5 8 12 47.94 51.09 6.79 o
-2 9 12 58.05 53.84 7.42 o
-1 9 12 61.59 60.69 4.94 o
0 9 12 6.36 7.44 3.82 <
1 9 12 1.49 3.06 4.82 <
2 9 12 3.88 6.60 5.16 <
3 9 12 32.74 30.13 4.92 o
4 9 12 10.85 19.50 7.68 <
-1 10 12 0.62 6.13 4.51 <
0 10 12 28.59 23.65 4.74 o
1 10 12 75.29 94.61 10.22 o
2 10 12 21.07 21.14 4.19 o
3 10 12 22.15 23.41 8.00 <
4 10 12 32.43 25.46 6.95 o
-1 11 12 1.25 -4.58 4.65 <
0 11 12 27.91 13.34 4.57 <
1 11 12 371.45 362.98 10.49 o
2 11 12 7.75 20.10 4.92 o
3 11 12 0.01 0.82 5.06 <
0 12 12 115.65 96.68 8.59 o
1 12 12 224.61 239.70 19.67 o
2 12 12 4.74 9.14 5.73 <
0 -1 13 9.91 5.40 4.40 <
1 -1 13 216.14 228.96 9.13 o
2 -1 13 118.66 125.33 8.76 o
-1 0 13 19.49 18.10 5.11 o
0 0 13 10.35 5.10 4.01 <
1 0 13 27.30 29.27 3.82 o
2 0 13 16.39 10.54 4.70 <
3 0 13 28.79 18.80 8.17 <
-2 1 13 7.86 9.17 6.54 <
0 1 13 8.54 9.57 4.57 <
1 1 13 8.30 11.76 3.21 o
2 1 13 8.80 9.08 3.14 <
3 1 13 0.64 2.42 4.57 <
4 1 13 24.65 16.17 5.86 <
-2 2 13 87.37 119.91 11.74 o
0 2 13 28.83 24.99 3.49 o
1 2 13 28.03 28.29 3.33 o
2 2 13 115.72 115.11 4.84 o
3 2 13 105.75 111.06 9.22 o
4 2 13 72.45 88.92 7.37 o
-2 3 13 45.47 33.46 6.66 o
-1 3 13 13.51 16.23 6.25 <
0 3 13 3.46 8.64 6.66 <
1 3 13 68.76 59.79 3.77 o
2 3 13 8.21 10.21 2.81 o
3 3 13 4.48 7.51 5.34 <
4 3 13 15.34 13.17 5.33 <
-2 4 13 0.06 1.58 5.84 <
-1 4 13 0.18 5.40 3.59 <
0 4 13 4.76 5.17 2.60 <
1 4 13 0.01 2.63 3.88 <
2 4 13 58.38 63.73 3.11 o
3 4 13 51.15 46.87 9.58 o
4 4 13 0.09 3.23 3.89 <
-2 5 13 58.35 43.21 7.42 o
-1 5 13 218.74 226.52 10.06 o
0 5 13 39.95 38.30 3.26 o
1 5 13 67.20 65.65 2.90 o
2 5 13 36.09 40.44 4.37 o
3 5 13 103.97 120.93 9.03 o
4 5 13 48.07 46.74 6.20 o
-2 6 13 0.03 1.72 6.14 <
-1 6 13 28.38 19.29 5.38 o
0 6 13 30.53 30.09 3.21 o
1 6 13 4.49 10.98 4.32 <
2 6 13 122.47 107.79 5.62 o
3 6 13 19.20 17.67 4.16 o
4 6 13 12.56 11.27 4.80 <
-2 7 13 6.54 6.19 6.01 <
-1 7 13 3.16 5.43 4.20 <
0 7 13 11.37 15.21 3.80 o
1 7 13 158.01 178.26 6.98 o
2 7 13 92.11 95.00 6.10 o
3 7 13 9.81 19.19 4.43 o
4 7 13 33.30 35.79 4.22 o
-2 8 13 23.60 27.44 8.17 o
-1 8 13 0.30 -1.31 6.80 <
0 8 13 14.12 7.47 4.08 <
1 8 13 1.91 5.49 3.50 <
2 8 13 0.59 3.50 6.19 <
3 8 13 23.89 23.59 7.94 <
4 8 13 28.43 48.37 17.43 <
-1 9 13 6.65 0.97 4.23 <
0 9 13 4.56 4.58 4.12 <
1 9 13 35.95 35.01 6.04 o
2 9 13 66.91 67.71 10.31 o
3 9 13 1.32 0.90 4.57 <
4 9 13 0.06 -9.63 8.87 <
0 10 13 49.08 47.65 5.54 o
1 10 13 129.12 125.37 9.82 o
2 10 13 0.83 -7.39 4.23 <
3 10 13 8.40 9.02 5.25 <
1 11 13 57.31 61.52 7.91 o
2 11 13 56.21 56.58 6.49 o
0 1 14 41.85 44.46 5.90 o
1 1 14 54.10 64.08 7.66 o
2 1 14 33.47 36.26 10.22 o
0 2 14 1.79 1.90 5.40 <
1 2 14 52.69 61.72 5.72 o
2 2 14 40.27 40.49 6.08 o
3 2 14 27.47 26.25 17.43 <
-1 3 14 6.79 15.82 6.13 <
0 3 14 7.35 -5.37 8.47 <
1 3 14 0.40 0.58 6.25 <
2 3 14 45.97 42.88 8.76 o
3 3 14 19.92 19.18 9.02 <
-1 4 14 44.83 36.26 7.12 o
0 4 14 26.35 22.95 5.78 o
1 4 14 171.79 190.90 8.52 o
2 4 14 20.19 24.33 5.40 o
3 4 14 1.45 3.60 4.92 <
-1 5 14 111.23 120.83 7.66 o
0 5 14 89.40 82.91 6.14 o
1 5 14 12.91 12.55 4.01 o
2 5 14 92.20 95.76 7.06 o
3 5 14 1.61 3.43 4.80 <
-1 6 14 84.40 71.31 6.40 o
0 6 14 0.15 10.13 4.03 <
1 6 14 2.56 5.20 4.55 <
2 6 14 9.08 15.59 4.94 o
3 6 14 0.08 4.17 5.39 <
-1 7 14 0.01 -1.37 6.98 <
0 7 14 21.07 31.91 5.05 o
1 7 14 20.64 12.44 6.83 <
2 7 14 113.76 111.05 10.98 o
3 7 14 0.16 5.60 7.53 <
0 8 14 17.15 20.67 6.07 o
1 8 14 26.43 26.42 4.35 o
2 8 14 4.24 2.31 4.12 <
3 8 14 1.48 0.53 4.85 <
0 9 14 8.80 14.45 4.83 <
1 9 14 21.46 25.54 4.49 o
2 9 14 0.40 -2.80 4.51 <
loop_
_restr_angle_atom_site_label_1
_restr_angle_site_symmetry_1
_restr_angle_atom_site_label_2
_restr_angle_site_symmetry_2
_restr_angle_atom_site_label_3
_restr_angle_site_symmetry_3
_restr_angle_target
_restr_angle_target_weight_param
H1o6 . O6 . H2o6 . 104.45 0.05
loop_
_restr_distance_atom_site_label_1
_restr_distance_site_symmetry_1
_restr_distance_atom_site_label_2
_restr_distance_site_symmetry_2
_restr_distance_target
_restr_distance_target_weight_param
N3 . H1n3 . 0.87 0.0015
N2 . H1n2 . 0.87 0.001
O6 . H1o6 . 0.96 0.005
O6 . H2o6 . 0.96 0.005
loop_
_twin_individual_id
_twin_individual_mass_fraction_refined
_twin_individual_twin_matrix_11
_twin_individual_twin_matrix_12
_twin_individual_twin_matrix_13
_twin_individual_twin_matrix_21
_twin_individual_twin_matrix_22
_twin_individual_twin_matrix_23
_twin_individual_twin_matrix_31
_twin_individual_twin_matrix_32
_twin_individual_twin_matrix_33
? ? ? ? ? ? ? ? ? ? ?
loop_
_twin_refln_datum_id
_twin_refln_individual_id
_twin_refln_index_h
_twin_refln_index_k
_twin_refln_index_l
_twin_refln_F_squared_calc
_twin_refln_F_squared_meas
_twin_refln_F_squared_sigma
_twin_refln_include_status
? ? ? ? ? ? ? ? ?
