#------------------------------------------------------------------------------
#$Date: 2021-05-01 00:27:29 +0300 (Sat, 01 May 2021) $
#$Revision: 264731 $
#$URL: file:///home/coder/svn-repositories/cod/cif/4/51/86/4518648.cif $
#------------------------------------------------------------------------------
#
# This file is available in the Crystallography Open Database (COD),
# http://www.crystallography.net/
#
# All data on this site have been placed in the public domain by the
# contributors.
#
data_4518648
loop_
_publ_author_name
'Yang, Feng'
'Xu, Yuangang'
'Wang, Pengcheng'
'Lin, Qiuhan'
'Lu, Ming'
_publ_section_title
;
 Oxygen-Enriched Metal--Organic Frameworks Based on
 1-(Trinitromethyl)-1H-1,2,4-Triazole-3-Carboxylic Acid and Their Thermal
 Decomposition and Effects on the Decomposition of Ammonium Perchlorate
;
_journal_name_full               'ACS Applied Materials &amp; Interfaces'
_journal_paper_doi               10.1021/acsami.1c03110
_journal_year                    2021
_chemical_formula_moiety         'C4 H2 N6 O8, H2 O'
_chemical_formula_sum            'C4 H4 N6 O9'
_chemical_formula_weight         280.13
_space_group_crystal_system      triclinic
_space_group_IT_number           2
_space_group_name_Hall           '-P 1'
_space_group_name_H-M_alt        'P -1'
_atom_sites_solution_hydrogens   mixed
_audit_creation_method           SHELXL-2018/3
_cell_angle_alpha                83.128(5)
_cell_angle_beta                 83.253(5)
_cell_angle_gamma                80.482(5)
_cell_formula_units_Z            2
_cell_length_a                   6.6459(14)
_cell_length_b                   7.8446(15)
_cell_length_c                   10.325(2)
_cell_measurement_reflns_used    2468
_cell_measurement_temperature    296(2)
_cell_measurement_theta_max      24.25
_cell_measurement_theta_min      2.65
_cell_volume                     524.43(18)
_computing_cell_refinement       'Bruker SAINT'
_computing_data_collection       'Bruker APEX3'
_computing_data_reduction        'Bruker SAINT'
_computing_molecular_graphics    'Bruker SHELXTL'
_computing_publication_material  'Bruker SHELXTL'
_computing_structure_refinement  'SHELXL-2018/3 (Sheldrick, 2018)'
_computing_structure_solution    'SHELXT 2014/5 (Sheldrick, 2014)'
_diffrn_ambient_temperature      296(2)
_diffrn_detector_area_resol_mean 10.42
_diffrn_measured_fraction_theta_full 0.988
_diffrn_measured_fraction_theta_max 0.980
_diffrn_measurement_device_type  'Bruker D8 QUEST PHOTON 100'
_diffrn_measurement_method       '\f and \w scans'
_diffrn_radiation_type           MoK\a
_diffrn_radiation_wavelength     0.71073
_diffrn_reflns_av_R_equivalents  0.0701
_diffrn_reflns_av_unetI/netI     0.1380
_diffrn_reflns_Laue_measured_fraction_full 0.988
_diffrn_reflns_Laue_measured_fraction_max 0.980
_diffrn_reflns_limit_h_max       8
_diffrn_reflns_limit_h_min       -8
_diffrn_reflns_limit_k_max       10
_diffrn_reflns_limit_k_min       -10
_diffrn_reflns_limit_l_max       13
_diffrn_reflns_limit_l_min       0
_diffrn_reflns_number            2403
_diffrn_reflns_point_group_measured_fraction_full 0.988
_diffrn_reflns_point_group_measured_fraction_max 0.980
_diffrn_reflns_theta_full        25.242
_diffrn_reflns_theta_max         27.668
_diffrn_reflns_theta_min         3.149
_diffrn_source.source            'Ius 2.0'
_diffrn_source.type              microfocus
_exptl_absorpt_coefficient_mu    0.175
_exptl_absorpt_correction_T_max  0.7456
_exptl_absorpt_correction_T_min  0.6259
_exptl_absorpt_correction_type   multi-scan
_exptl_absorpt_process_details   twinabs
_exptl_crystal_colour            colourless
_exptl_crystal_density_diffrn    1.774
_exptl_crystal_description       block
_exptl_crystal_F_000             284
_exptl_crystal_size_max          0.120
_exptl_crystal_size_mid          0.100
_exptl_crystal_size_min          0.050
_refine_diff_density_max         0.330
_refine_diff_density_min         -0.512
_refine_diff_density_rms         0.073
_refine_ls_extinction_method     none
_refine_ls_goodness_of_fit_ref   1.084
_refine_ls_hydrogen_treatment    constr
_refine_ls_matrix_type           full
_refine_ls_number_parameters     192
_refine_ls_number_reflns         2403
_refine_ls_number_restraints     62
_refine_ls_restrained_S_all      1.187
_refine_ls_R_factor_all          0.2120
_refine_ls_R_factor_gt           0.0935
_refine_ls_shift/su_max          0.000
_refine_ls_shift/su_mean         0.000
_refine_ls_structure_factor_coef Fsqd
_refine_ls_weighting_details
'w=1/[\s^2^(Fo^2^)+(0.0846P)^2^+0.5681P] where P=(Fo^2^+2Fc^2^)/3'
_refine_ls_weighting_scheme      calc
_refine_ls_wR_factor_gt          0.2013
_refine_ls_wR_factor_ref         0.2339
_reflns_Friedel_coverage         0.000
_reflns_number_gt                1119
_reflns_number_total             2403
_reflns_threshold_expression     'I > 2\s(I)'
_cod_data_source_file            am1c03110_si_001.cif
_cod_data_source_block           YF030_a
_cod_original_cell_volume        524.41(18)
_cod_database_code               4518648
_shelx_shelxl_version_number     2018/3
_shelx_space_group_comment
;
The symmetry employed for this shelxl refinement is uniquely defined
by the following loop, which should always be used as a source of
symmetry information in preference to the above space-group names.
They are only intended as comments.
;
_shelx_estimated_absorpt_t_min   0.979
_shelx_estimated_absorpt_t_max   0.991
_shelx_res_file
;
TITL YF030_a.res in P-1
    YF030_a.res
    created by SHELXL-2018/3 at 22:24:18 on 22-Sep-2020
CELL 0.71073 6.6459 7.8446 10.3246 83.128 83.253 80.482
ZERR 2.00 0.0014 0.0015 0.0020 0.005 0.005 0.005
LATT 1
SFAC C  H  N  O
UNIT 8  8  12  18
omit  0   0   1
omit  0 1 0
omit 1   0   0
L.S. 10
ACTA
BOND $H
FMAP 2
HTAB O2 O9
EQIV $1 x+1, y, z
HTAB O9 N2_$1
EQIV $2 x+1, y+1, z
HTAB O9 O5A_$2
HTAB O9 O1_$1
EQIV $3 -x+1, -y+2, -z+2
HTAB O9 O1_$3
PLAN -10
dang 1.85 0.01 o5a o6a o5b o6b
size 0.12 0.10 0.05
FREE C4   O6A
DFIX 1.18 N5 O5A N5 O6A N5 O5B N5 O6B
FLAT C4 N5 O5A O6A
FLAT C4 N5 O5B O6B
DELU 0.005  N5 O5A O6A O5B O6B
SIMU 0.005   N5 O5A O6A O5B O6B
TEMP 23.000
WGHT    0.084600    0.568100
FVAR       1.71343   0.08274
C1    1    0.030831    0.466478    0.785586    11.00000    0.03773    0.06497 =
         0.05234   -0.01399    0.00045   -0.00150
AFIX  43
H1    2   -0.097613    0.442640    0.773057    11.00000   -1.20000
AFIX   0
C2    1    0.270145    0.573936    0.839448    11.00000    0.04410    0.03506 =
         0.03425   -0.00498   -0.00297    0.00222
C3    1    0.374396    0.691110    0.904262    11.00000    0.05552    0.03052 =
         0.04631   -0.00308   -0.00658   -0.00082
C4    1    0.254652    0.247759    0.652674    11.00000    0.04769    0.04385 =
         0.04537   -0.00874   -0.00478   -0.00833
N1    3    0.212710    0.378292    0.737628    11.00000    0.03547    0.04495 =
         0.04092   -0.01269   -0.00408   -0.00434
N2    3    0.062379    0.587253    0.850579    11.00000    0.04344    0.06137 =
         0.04659   -0.01828   -0.00702    0.00692
N3    3    0.370088    0.449864    0.771021    11.00000    0.04216    0.03769 =
         0.04842   -0.01272   -0.00041   -0.00729
N4    3    0.481217    0.162911    0.652193    11.00000    0.05371    0.05689 =
         0.07090   -0.03075    0.00187   -0.00111
N5    3    0.120017    0.099255    0.686106    11.00000    0.09390    0.05024 =
         0.07598   -0.02766    0.02777   -0.02762
PART 1  21.00
O5A   4    0.027863   -0.019432    0.730985    21.00000    0.10602    0.06942 =
         0.11157   -0.01835    0.01641   -0.03790
O6A   4    0.014516    0.174339    0.609376    21.00000    0.09809    0.06916 =
         0.10777   -0.01990    0.01067   -0.03483
PART 2  -21.00
O5B   4    0.212419   -0.041915    0.673973   -21.00000    0.13162    0.07040 =
         0.11081   -0.01718    0.00618   -0.02892
O6B   4   -0.022478    0.129453    0.741366   -21.00000    0.09730    0.08572 =
         0.13701   -0.02323    0.00478   -0.04499
PART 0
O1    4    0.271981    0.800689    0.967421    11.00000    0.06470    0.04952 =
         0.08179   -0.03373   -0.00083    0.00108
O2    4    0.571387    0.661001    0.884409    11.00000    0.04930    0.05157 =
         0.07813   -0.02750   -0.00603   -0.00916
AFIX 147
H2    2    0.619644    0.739710    0.909228    11.00000   -1.50000
AFIX   0
O3    4    0.530189    0.081471    0.750590    11.00000    0.08827    0.08596 =
         0.09786   -0.00485   -0.02109    0.02700
O4    4    0.587508    0.196957    0.552410    11.00000    0.08096    0.10646 =
         0.12356   -0.02701    0.04028   -0.00588
N6    3    0.219814    0.317822    0.511418    11.00000    0.11736    0.06379 =
         0.04851   -0.01104   -0.01825    0.00050
O7    4    0.177091    0.214706    0.444459    11.00000    0.28439    0.08964 =
         0.08502   -0.03401   -0.08383   -0.00262
O8    4    0.226572    0.469800    0.481924    11.00000    0.13021    0.06989 =
         0.05743    0.00761   -0.00683   -0.01751
O9    4    0.777698    0.843876    0.991363    11.00000    0.04894    0.04293 =
         0.07062   -0.01883    0.00061   -0.00693
AFIX   3
H9A   2    0.900731    0.825526    0.952072    11.00000   -1.50000
H9B   2    0.764329    0.957628    0.982869    11.00000   -1.50000
AFIX   0
HKLF 4 1 1 0 0 0 1 0 0 0 1




REM  YF030_a.res in P-1
REM wR2 = 0.2339, GooF = S = 1.084, Restrained GooF = 1.187 for all data
REM R1 = 0.0935 for 1119 Fo > 4sig(Fo) and 0.2120 for all 2403 data
REM 192 parameters refined using 62 restraints

END

WGHT      0.1097      0.4609

REM Highest difference peak  0.330,  deepest hole -0.512,  1-sigma level  0.073
Q1    1   0.3835 -0.0378  0.6675  11.00000  0.05    0.32
Q2    1   0.4120  0.2307  0.4324  11.00000  0.05    0.30
Q3    1  -0.0735  0.2106  0.7538  11.00000  0.05    0.29
Q4    1  -0.0794  0.1059  0.7995  11.00000  0.05    0.23
Q5    1   0.2034  0.1619  0.6843  11.00000  0.05    0.23
Q6    1  -0.0046  0.1151  0.8951  11.00000  0.05    0.22
Q7    1   0.4401  0.0479  0.7023  11.00000  0.05    0.22
Q8    1  -0.0945  0.2595  0.6588  11.00000  0.05    0.22
Q9    1   0.2293  0.5033  0.5601  11.00000  0.05    0.22
Q10   1   0.6933  0.7888  1.0168  11.00000  0.05    0.21
;
_shelx_res_checksum              15106
_shelx_hkl_file
;
   1   0   0  182.58    2.90
   2   0   0 1202.18   15.20
   3   0   0  289.57   13.30
   4   0   0 1136.79   16.70
   5   0   0  248.88   11.80
   6   0   0  138.49   13.10
   7   0   0   54.59   17.50
   8   0   0    0.00   32.00
  -8   1   0   43.70   32.30
  -7   1   0   15.00   12.40
  -6   1   0   64.49    9.70
  -5   1   0   13.00   11.60
  -4   1   0  340.77    8.00
  -3   1   0 3057.29   67.29
  -2   1   0 3033.00   42.30
  -1   1   0 1421.26   16.70
   0   1   0  361.46    8.10
   1   1   0 4195.08   47.20
   2   1   0  275.47    4.90
   3   1   0   80.99    6.30
   4   1   0 1175.88   16.10
   5   1   0  164.68   10.10
   6   1   0   27.20   21.70
   7   1   0    8.30   13.70
   8   1   0   32.70   34.80
  -8   2   0    0.10   35.70
  -7   2   0   12.00   13.10
  -6   2   0   10.00   11.00
  -5   2   0   45.90   12.60
  -4   2   0  288.87    7.80
  -3   2   0   10.30    5.80
  -2   2   0 2571.84   32.00
  -1   2   0  240.08    3.70
   0   2   0  438.56   10.60
   1   2   0 3148.49   34.20
   2   2   0  616.94   10.20
   3   2   0   60.89    6.60
   4   2   0  472.95    9.20
   5   2   0   52.49   10.10
   6   2   0  124.19   10.90
   7   2   0    5.90   14.50
   8   2   0    5.50   37.50
  -7   3   0   14.20   14.20
  -6   3   0   10.80   12.50
  -5   3   0   42.40   14.50
  -4   3   0  329.47    8.40
  -3   3   0   18.40    8.10
  -2   3   0  219.38    4.50
  -1   3   0  129.99    2.80
   0   3   0 3088.09   63.09
   1   3   0  546.55    7.50
   2   3   0   95.79    3.70
   3   3   0  330.97    8.40
   4   3   0   74.09    4.90
   5   3   0  294.87   13.30
   6   3   0   58.29   11.60
   7   3   0    6.80   14.00
   8   3   0    6.80   37.60
  -7   4   0   18.70   15.30
  -6   4   0   27.30   13.70
  -5   4   0  106.49   19.00
  -4   4   0   15.70    4.80
  -3   4   0  120.39    7.40
  -2   4   0  173.48    5.10
  -1   4   0   31.60    2.20
   0   4   0  432.36   11.90
   1   4   0   11.70    2.10
   2   4   0  633.74    9.50
   3   4   0   36.30    6.70
   4   4   0  118.89    6.10
   5   4   0  125.39   11.90
   6   4   0   43.10   16.20
   7   4   0   19.70   14.20
   8   4   0    0.00   37.10
  -6   5   0   15.10   16.70
  -5   5   0  160.88   40.90
  -4   5   0  284.87   10.70
  -3   5   0    0.00   10.80
  -2   5   0  291.77    6.50
  -1   5   0   39.80    3.10
   0   5   0   40.70    4.70
   1   5   0   92.79    3.90
   2   5   0   94.59    4.60
   3   5   0   54.99    6.70
   4   5   0   73.19    5.90
   5   5   0   59.39   19.40
   6   5   0   38.30   13.60
   7   5   0   15.60   16.90
   8   5   0   28.40   31.10
  -6   6   0   21.30   24.70
  -5   6   0    0.00   41.10
  -4   6   0   10.80    7.80
  -3   6   0   36.00   17.60
  -2   6   0    1.40    4.00
  -1   6   0  395.06    8.60
   0   6   0   15.20    6.30
   1   6   0   15.20    3.10
   2   6   0    5.00    4.30
   3   6   0   78.49   10.90
   4   6   0   11.60    7.00
   5   6   0   71.19   57.59
   6   6   0   10.10   11.80
   7   6   0   25.60   15.90
  -5   7   0   66.49   52.89
  -4   7   0   15.60   15.20
  -3   7   0   60.59   25.80
  -2   7   0   22.10   20.70
  -1   7   0    2.20   11.00
   0   7   0    3.80   11.70
   1   7   0   26.50    5.30
   2   7   0    1.20    8.90
   3   7   0    0.00   17.40
   4   7   0   14.30    8.50
   5   7   0    5.80   28.40
   6   7   0   12.40   14.60
   7   7   0   35.10   18.60
  -4   8   0    5.30   18.90
  -3   8   0   54.29   25.90
  -2   8   0   21.30   22.60
  -1   8   0   25.40   14.40
   0   8   0  103.99   25.20
   1   8   0  174.38    9.80
   2   8   0   28.50   12.80
   3   8   0   12.30   17.00
   4   8   0   34.20   12.80
   5   8   0    0.00   25.50
   6   8   0    5.50   15.80
  -2   9   0    7.60   39.00
  -1   9   0   50.09   19.00
   0   9   0    0.00   40.60
   1   9   0  114.59   11.10
   2   9   0   32.10   18.70
   3   9   0   65.99   15.40
   4   9   0   33.20   12.80
   5   9   0   69.19   43.00
   1  10   0   29.50   17.60
   2  10   0   48.20   40.40
  -1 -10   1   23.30   35.00
  -4  -9   1   40.10   13.70
  -3  -9   1   32.10   18.40
  -2  -9   1   18.20   20.20
  -1  -9   1   85.49   11.00
   1  -9   1   10.40   20.10
   2  -9   1   19.90   49.10
  -6  -8   1   12.20   15.30
  -5  -8   1   43.60   27.70
  -4  -8   1    5.50   10.30
  -3  -8   1  124.99   28.20
  -2  -8   1   40.00   12.20
  -1  -8   1    5.80    6.50
   0  -8   1   30.20   18.80
   1  -8   1   64.59    9.70
   2  -8   1  121.69   15.40
   3  -8   1   82.89   28.30
   4  -8   1   38.10   20.70
  -6  -7   1   15.70   15.60
  -5  -7   1   39.40   44.80
  -4  -7   1   11.00    9.10
  -3  -7   1   55.59   18.80
  -2  -7   1   28.20    9.80
  -1  -7   1   14.00    6.10
   0  -7   1  175.78   15.20
   1  -7   1   35.70    6.10
   2  -7   1  203.38   11.30
   3  -7   1    6.30   20.40
   4  -7   1   10.20   13.40
   5  -7   1   73.89   55.69
  -7  -6   1    3.70   16.50
  -6  -6   1    0.00   13.20
  -5  -6   1    0.00  385.16
  -4  -6   1   12.90    7.00
  -3  -6   1    5.60   10.90
  -2  -6   1   72.49    6.50
  -1  -6   1  134.09    5.70
   0  -6   1  227.38   10.50
   1  -6   1   36.00    4.60
   2  -6   1   19.50    5.50
   3  -6   1   92.29   15.70
   4  -6   1   83.69    8.70
   5  -6   1    0.60   34.90
   6  -6   1   14.60   24.60
  -7  -5   1    9.80   16.40
  -6  -5   1    2.40   11.40
  -5  -5   1   33.30   15.50
  -4  -5   1  322.77   11.00
  -3  -5   1   51.59    6.90
  -2  -5   1  329.87    7.80
  -1  -5   1 1150.58   15.70
   0  -5   1   56.59    4.70
   1  -5   1  207.48    5.20
   2  -5   1  456.65    8.40
   3  -5   1   25.50   10.60
   4  -5   1  200.98   10.00
   5  -5   1    0.00   37.30
   6  -5   1   17.60   16.80
  -8  -4   1    0.00   45.50
  -7  -4   1   36.90   14.70
  -6  -4   1  121.39   13.40
  -5  -4   1   28.20   11.60
  -4  -4   1  320.97    8.60
  -3  -4   1  407.96    9.80
  -2  -4   1 1125.89   15.90
  -1  -4   1  465.55    7.30
   0  -4   1  178.58    6.60
   1  -4   1   84.49    3.20
   2  -4   1   77.59    3.70
   3  -4   1   82.99    7.00
   4  -4   1   26.50    5.40
   5  -4   1  162.78   29.00
   6  -4   1    0.00   16.10
   7  -4   1    3.20   14.90
  -8  -3   1    0.00   34.20
  -7  -3   1   38.00   16.90
  -6  -3   1  187.18   16.30
  -5  -3   1    5.70   10.60
  -4  -3   1    2.40    3.60
  -3  -3   1  979.10   18.30
  -2  -3   1    0.00    2.40
  -1  -3   1 2189.98   26.00
   0  -3   1  308.47    7.80
   1  -3   1   17.90    1.80
   2  -3   1  420.16    6.70
   3  -3   1  326.07    8.60
   4  -3   1  160.68    6.50
   5  -3   1  104.49   16.60
   6  -3   1   10.30   11.90
   7  -3   1    6.80   14.00
  -8  -2   1   23.20   36.90
  -7  -2   1   33.70   17.20
  -6  -2   1  166.78   21.50
  -5  -2   1   63.29   12.40
  -4  -2   1   18.10    3.80
  -3  -2   1   50.99    7.50
  -2  -2   1 2155.98   26.30
  -1  -2   1 1989.90   23.40
   0  -2   1 3513.35   88.59
   1  -2   1 5231.28   55.79
   2  -2   1  431.06    6.80
   3  -2   1    3.60    5.80
   4  -2   1    7.40    3.50
   5  -2   1  118.69   16.60
   6  -2   1  262.57   22.60
   7  -2   1   25.40   12.10
   8  -2   1    0.00   44.50
  -8  -1   1    0.00   42.10
  -7  -1   1    9.00   17.00
  -6  -1   1   47.20   27.50
  -5  -1   1  112.89   12.50
  -4  -1   1  920.11   14.60
  -3  -1   1  176.38    7.40
  -2  -1   1 3461.35   41.80
  -1  -1   1 5202.38   58.39
   0  -1   1 3749.82   86.09
   1  -1   1 4216.08   47.40
   2  -1   1 4561.24   52.19
   3  -1   1  250.27    7.30
   4  -1   1  716.23   11.40
   5  -1   1   36.60   10.10
   6  -1   1  105.59   11.30
   7  -1   1    6.00   11.70
   8  -1   1   24.60   38.70
  -8   0   1    0.00   51.89
  -7   0   1    7.20   16.90
  -6   0   1  170.88   12.60
  -5   0   1   36.40   12.40
  -4   0   1  148.19    6.60
  -3   0   1 2627.34   42.70
  -2   0   1  306.57    6.10
  -1   0   1 8382.86  103.19
   0   0   1   97.19    4.40
   1   0   1 6322.37   68.79
   2   0   1  704.13    8.70
   3   0   1  128.89    6.00
   4   0   1  184.18    6.00
   5   0   1   48.40   12.10
   6   0   1   23.80   11.60
   7   0   1   22.00   10.40
   8   0   1   17.30   37.50
  -8   1   1   68.29   33.50
  -7   1   1    7.10   14.10
  -6   1   1  241.78   16.00
  -5   1   1  114.39   14.00
  -4   1   1  272.47    7.30
  -3   1   1  141.19    6.70
  -2   1   1 3934.31   51.69
  -1   1   1   59.89    1.70
   0   1   1  633.44   17.20
   1   1   1 1729.53   20.00
   2   1   1   78.39    3.30
   3   1   1 2954.40   47.40
   4   1   1  927.81   13.00
   5   1   1   25.90    8.60
   6   1   1   83.09   14.20
   7   1   1   76.69   12.60
   8   1   1    0.00   35.60
  -8   2   1  203.68   62.29
  -7   2   1   15.30   13.00
  -6   2   1   10.50    9.70
  -5   2   1   93.39   12.30
  -4   2   1   34.90    4.40
  -3   2   1 1065.99   35.10
  -2   2   1 6127.89   78.69
  -1   2   1    3.70    1.70
   0   2   1 3815.42  112.09
   1   2   1  189.98    4.10
   2   2   1 6766.62   81.49
   3   2   1 1228.98   51.19
   4   2   1   69.39    4.60
   5   2   1  255.67   12.70
   6   2   1   23.30   12.30
   7   2   1   59.19   13.60
   8   2   1   26.50   40.00
  -7   3   1    1.10   14.20
  -6   3   1   12.70   16.40
  -5   3   1   96.59   15.70
  -4   3   1  382.96    8.50
  -3   3   1  101.99    7.50
  -2   3   1 1644.84   21.70
  -1   3   1  804.72   10.80
   0   3   1 1988.30   45.80
   1   3   1 1556.84   19.90
   2   3   1 7905.51   89.09
   3   3   1   45.20    6.10
   4   3   1  547.25   10.20
   5   3   1   28.90    9.40
   6   3   1  138.89   13.00
   7   3   1   22.10   13.30
   8   3   1  108.19   34.80
  -7   4   1   26.70   17.40
  -6   4   1   29.70   14.00
  -5   4   1  102.59   22.10
  -4   4   1   64.99    5.40
  -3   4   1  177.98    9.30
  -2   4   1  497.45    9.80
  -1   4   1  653.33    9.70
   0   4   1 1912.61   40.00
   1   4   1   13.40    2.10
   2   4   1  199.68    5.00
   3   4   1  118.59    7.60
   4   4   1    4.70    4.30
   5   4   1  501.55   16.80
   6   4   1  150.68   20.50
   7   4   1   12.60   14.70
   8   4   1   30.60   41.60
  -6   5   1   18.40   19.80
  -5   5   1  285.77   29.00
  -4   5   1   52.49    7.10
  -3   5   1   68.29   32.60
  -2   5   1   71.29    5.00
  -1   5   1  332.07    7.30
   0   5   1   43.70    5.70
   1   5   1  587.64   10.00
   2   5   1  114.29    4.70
   3   5   1   52.89    7.40
   4   5   1   62.29    5.80
   5   5   1  126.09   16.80
   6   5   1   19.10   13.80
   7   5   1   16.30   15.10
   8   5   1    0.00   48.30
  -6   6   1   14.80   24.00
  -5   6   1    0.00   49.99
  -4   6   1    8.70   16.40
  -3   6   1    1.80  164.98
  -2   6   1  166.28   14.50
  -1   6   1   21.40    5.60
   0   6   1   38.20   10.20
   1   6   1  523.35    9.40
   2   6   1  185.58    7.00
   3   6   1  201.08   11.50
   4   6   1    4.40    6.90
   5   6   1   37.00   23.20
   6   6   1   51.99   13.80
   7   6   1   28.50   16.90
  -5   7   1   42.50   43.80
  -4   7   1    9.50   15.00
  -3   7   1    0.00   20.40
  -2   7   1  158.78   25.30
  -1   7   1    6.60    8.00
   1   7   1   28.90    5.40
   2   7   1   51.19    7.60
   3   7   1    0.00   16.10
   4   7   1   18.10    8.00
   5   7   1   46.20   33.40
   6   7   1    8.80   14.70
   7   7   1   32.70   17.40
  -4   8   1    9.70   20.80
  -3   8   1   95.29   25.80
  -2   8   1   37.50   25.90
  -1   8   1   18.50    9.70
   1   8   1  129.69   10.50
   2   8   1   30.20   20.20
   3   8   1    0.00   17.90
   4   8   1    1.40   10.60
   5   8   1   20.10   25.20
   6   8   1    7.20   17.30
  -2   9   1   38.20   42.40
  -1   9   1   11.30   24.20
   0   9   1   70.29   42.30
   1   9   1   89.29   15.30
   2   9   1   39.50   18.30
   3   9   1   51.19   14.10
   4   9   1   70.09   16.20
   5   9   1    0.00   42.90
   1  10   1   16.60   16.40
   2  10   1   27.30   34.30
   3  10   1   17.60   30.50
  -4  -9   2   13.20   14.50
  -3  -9   2   22.70   18.70
  -2  -9   2   28.70   32.50
  -1  -9   2   12.20   11.60
   0  -9   2   58.49   28.60
   1  -9   2   14.00   24.60
   2  -9   2   35.20   28.80
  -5  -8   2  182.28   70.59
  -4  -8   2    4.60   10.80
  -3  -8   2    9.70   30.10
  -2  -8   2   17.30   17.70
  -1  -8   2    0.30    7.80
   0  -8   2   56.29   32.50
   1  -8   2   16.90   10.80
   2  -8   2   53.19   16.40
   3  -8   2   33.20   41.80
  -6  -7   2   22.70   15.80
  -5  -7   2    0.10   24.40
  -4  -7   2   21.90   10.20
  -3  -7   2   18.90  328.87
  -2  -7   2    0.00   11.30
  -1  -7   2  356.26   12.60
   0  -7   2   12.90   14.40
   1  -7   2   12.50    6.20
   2  -7   2   74.79    9.30
   3  -7   2  120.09   27.20
   4  -7   2    6.90   13.20
   5  -7   2   45.40   55.89
  -7  -6   2   14.20   18.90
  -6  -6   2   19.20   13.80
  -5  -6   2  158.08   25.80
  -4  -6   2    0.00    7.40
  -3  -6   2   79.89   13.50
  -2  -6   2   27.80    6.80
  -1  -6   2   26.60    4.40
   0  -6   2  344.87   16.00
   1  -6   2   80.19    6.00
   2  -6   2   57.29    7.00
   3  -6   2   91.69   18.20
   4  -6   2   80.39   12.40
   5  -6   2   50.79   35.30
  -7  -5   2   38.30   15.60
  -6  -5   2   35.70   12.90
  -5  -5   2  154.88   20.00
  -4  -5   2   10.10    5.50
  -3  -5   2  131.59    8.20
  -2  -5   2   47.40    5.30
  -1  -5   2    1.50    2.60
   0  -5   2   78.99    6.10
   1  -5   2  196.68    5.50
   2  -5   2   89.19    6.00
   3  -5   2    5.50   10.60
   4  -5   2   15.70    7.70
   5  -5   2   50.49   36.00
   6  -5   2   47.50   18.30
  -8  -4   2   26.20   41.70
  -7  -4   2   12.40   16.40
  -6  -4   2    0.90   15.40
  -5  -4   2   12.70   12.60
  -4  -4   2    5.80    4.30
  -3  -4   2  333.27    9.50
  -2  -4   2  834.42   12.80
  -1  -4   2   27.90    2.60
   0  -4   2  273.87    8.80
   1  -4   2   53.79    3.00
   2  -4   2  182.68    5.70
   3  -4   2   45.90    7.30
   4  -4   2  303.57   10.50
   5  -4   2   49.00   34.20
   6  -4   2    5.90   12.40
   7  -4   2   27.60   16.00
  -8  -3   2    0.00   51.19
  -7  -3   2    7.60   15.90
  -6  -3   2  101.29   15.10
  -5  -3   2  160.78   14.60
  -4  -3   2  387.86    8.50
  -3  -3   2  507.75   11.10
  -2  -3   2 2445.46   33.20
  -1  -3   2 1328.07   15.90
   0  -3   2  219.98    7.00
   1  -3   2   75.49    2.80
   2  -3   2 1385.36   18.20
   3  -3   2    0.00    9.20
   4  -3   2   16.10    4.20
   5  -3   2    0.00   18.20
   6  -3   2    6.00   12.90
   7  -3   2    4.60   13.80
  -8  -2   2   51.29   38.50
  -7  -2   2   20.80   16.50
  -6  -2   2   11.40   11.70
  -5  -2   2  478.95   17.80
  -4  -2   2   27.60    4.50
  -3  -2   2   46.70    5.40
  -2  -2   2   57.99    2.90
  -1  -2   2   12.80    1.70
   0  -2   2 9347.26  210.18
   1  -2   2  281.27    5.00
   2  -2   2   76.29    3.20
   3  -2   2  224.78   14.10
   4  -2   2    9.30    3.50
   5  -2   2    0.00   13.60
   6  -2   2  187.38   17.30
   7  -2   2    6.60   12.40
   8  -2   2   60.69   44.50
  -8  -1   2    0.00   35.30
  -7  -1   2   42.70   16.00
  -6  -1   2  142.79   32.40
  -5  -1   2   63.69   15.70
  -4  -1   2  165.08    6.40
  -3  -1   2  832.52   21.30
  -2  -1   2  174.58    5.60
  -1  -1   2    5.20    1.40
   0  -1   2 9999.00  310.67
   1  -1   2 3184.08   38.30
   2  -1   2   43.00    2.30
   3  -1   2  318.07    8.80
   4  -1   2  240.38    6.40
   5  -1   2   68.39   14.20
   6  -1   2  123.09   11.90
   7  -1   2   14.50   11.50
   8  -1   2    0.00   49.50
  -8   0   2   69.39   44.10
  -7   0   2   27.20   18.00
  -6   0   2  214.08   50.29
  -5   0   2   43.60   15.70
  -4   0   2  402.16    9.90
  -3   0   2  207.08    8.50
  -2   0   2 3702.73   51.49
  -1   0   2  783.62   11.60
   0   0   2  188.48    5.40
   1   0   2   93.29    2.50
   2   0   2 7366.26   80.99
   3   0   2   52.09    5.40
   4   0   2  623.04   10.90
   5   0   2    1.30   10.80
   6   0   2    4.70    9.00
   7   0   2   22.30   11.30
   8   0   2    0.00   36.40
  -7   1   2    4.40   13.70
  -6   1   2   69.89   16.30
  -5   1   2  158.38   20.50
  -4   1   2    7.30    4.60
  -3   1   2  148.99    8.00
  -2   1   2  420.66    8.80
  -1   1   2 7225.18   80.39
   0   1   2 9471.45  281.47
   1   1   2    2.50    0.90
   2   1   2 7374.36   85.79
   3   1   2  766.42   23.70
   4   1   2  330.77    8.00
   5   1   2    0.00    8.80
   6   1   2    0.00   14.20
   7   1   2   61.49   15.20
   8   1   2    0.00   50.99
  -7   2   2   29.90   16.30
  -6   2   2   30.10   10.70
  -5   2   2   66.09   13.00
  -4   2   2  176.58    6.80
  -3   2   2    0.80    6.40
  -2   2   2   26.90    2.30
  -1   2   2  520.75    9.10
   0   2   2 5964.20  226.28
   1   2   2   61.79    2.40
   2   2   2  208.18    4.80
   3   2   2   28.20    5.90
   4   2   2  230.08    6.70
   5   2   2   64.29   10.60
   6   2   2  342.87   17.40
   7   2   2   25.60   13.20
   8   2   2   56.59   35.70
  -7   3   2    7.20   15.40
  -6   3   2   10.10   16.20
  -5   3   2  349.07   15.80
  -4   3   2  157.58    6.50
  -3   3   2  130.69    7.30
  -2   3   2  137.89    5.00
  -1   3   2  124.39    3.80
   0   3   2  764.12   21.40
   1   3   2 2654.63   32.30
   2   3   2 3142.39   36.90
   3   3   2 1551.94   34.10
   4   3   2    3.80    4.00
   5   3   2  297.17   12.30
   6   3   2  120.59   13.40
   7   3   2   22.00   14.10
   8   3   2   14.70   36.00
  -7   4   2    2.60   17.30
  -6   4   2    6.90   14.30
  -5   4   2   35.30   17.70
  -4   4   2  294.67    8.60
  -3   4   2  211.28   12.90
  -2   4   2  391.36    8.40
  -1   4   2  168.88    5.40
   0   4   2 1224.08   33.50
   1   4   2   58.29    3.20
   2   4   2  365.66    7.30
   3   4   2    1.90    7.00
   4   4   2  233.68    7.70
   5   4   2  161.18   13.00
   6   4   2   16.80   13.00
   7   4   2   22.90   15.00
   8   4   2    0.00   44.20
  -6   5   2    2.20   22.20
  -5   5   2   10.90   26.40
  -4   5   2   53.79   11.10
  -3   5   2   65.19   17.90
  -2   5   2  271.17    8.40
  -1   5   2  699.83   12.60
   0   5   2 1030.80   29.60
   1   5   2    6.70    3.20
   2   5   2  674.13   12.30
   3   5   2   36.50    8.90
   4   5   2   32.50    5.40
   5   5   2   52.59   15.20
   6   5   2    0.00   16.40
   7   5   2   11.80   15.90
   8   5   2   35.30   53.39
  -5   6   2    0.00   50.59
  -4   6   2   30.40   12.50
  -3   6   2  135.69   26.00
  -2   6   2  270.47   14.70
  -1   6   2   91.39    7.90
   0   6   2  923.61   41.40
   1   6   2   88.59    5.70
   2   6   2  138.19    7.20
   3   6   2 1024.90   35.00
   4   6   2    5.00    6.50
   5   6   2   16.50   20.50
   6   6   2    3.50   12.90
   7   6   2   27.90   17.00
  -5   7   2    0.00   77.99
  -4   7   2   26.00   14.50
  -3   7   2  149.99   25.40
  -2   7   2   51.19   20.30
  -1   7   2  155.68   14.70
   1   7   2   91.79   16.00
   2   7   2  538.55   21.00
   3   7   2   13.30   99.09
   4   7   2  135.59   12.00
   5   7   2    0.00   34.80
   6   7   2    4.00   14.30
   7   7   2   23.90   16.50
  -4   8   2   10.70   23.70
  -3   8   2   54.79   43.10
  -2   8   2   81.49   72.49
  -1   8   2   60.69   10.90
   0   8   2   61.49   18.90
   1   8   2  214.88   18.00
   2   8   2    4.50   18.20
   3   8   2    0.00   11.40
   4   8   2  156.78   13.80
   5   8   2   29.90   33.50
   6   8   2   34.60   19.30
  -2   9   2    0.00   37.90
  -1   9   2   20.90   17.50
   0   9   2   36.20   24.10
   1   9   2    8.70   10.90
   2   9   2   16.90   23.80
   3   9   2   40.00   13.30
   4   9   2    4.90   13.00
   5   9   2    9.10   41.20
   1  10   2   21.50   17.30
   2  10   2   28.80   39.00
   3  10   2   20.20   30.10
  -3  -9   3   71.99   20.40
  -2  -9   3   45.10   26.20
  -1  -9   3    7.90   15.40
   0  -9   3   99.79   57.29
   1  -9   3   22.60   21.60
  -5  -8   3    0.00   33.80
  -4  -8   3   12.00   11.80
  -3  -8   3   20.70   14.60
  -2  -8   3    9.80   18.40
  -1  -8   3    6.50    9.00
   0  -8   3   37.60   39.90
   1  -8   3    8.80   11.70
   2  -8   3   41.10   21.90
   3  -8   3   48.60   38.50
  -6  -7   3    2.30   15.60
  -5  -7   3   42.10   21.60
  -4  -7   3    1.40    9.60
  -2  -7   3   52.39   34.60
  -1  -7   3    5.10    6.60
   0  -7   3   23.10   17.10
   1  -7   3  118.99   12.40
   2  -7   3    3.00   12.10
   3  -7   3   26.30   29.10
   4  -7   3   11.40   18.40
  -7  -6   3    0.00   72.59
  -6  -6   3   23.40   13.30
  -5  -6   3    6.00   16.80
  -4  -6   3   48.50   16.70
  -3  -6   3  109.19   16.40
  -2  -6   3   13.20    8.50
  -1  -6   3    8.50    4.70
   0  -6   3   15.20    9.90
   1  -6   3    3.60    5.10
   2  -6   3    7.50    7.00
   3  -6   3   18.10  197.58
   4  -6   3   78.79   12.30
   5  -6   3   48.20   38.10
  -7  -5   3    3.30   16.80
  -6  -5   3  179.18   17.80
  -5  -5   3    0.00   17.90
  -4  -5   3   34.70    6.60
  -3  -5   3    3.20   10.30
  -2  -5   3   39.20    5.20
  -1  -5   3    7.30    3.10
   0  -5   3   45.50    6.30
   1  -5   3  329.27    7.20
   2  -5   3    5.30    4.80
   3  -5   3    0.00   12.20
   4  -5   3  172.38   16.60
   5  -5   3   20.90   75.29
   6  -5   3    4.90   20.50
  -7  -4   3   40.80   14.50
  -6  -4   3    5.40   10.00
  -5  -4   3   38.90   14.70
  -4  -4   3   17.30    4.70
  -3  -4   3   45.30    8.00
  -2  -4   3  111.69    5.90
  -1  -4   3  355.46    6.60
   0  -4   3  118.89    6.20
   1  -4   3  856.41   11.70
   2  -4   3  176.38    5.70
   3  -4   3   15.60    7.50
   4  -4   3   15.10    6.20
   5  -4   3  137.39  231.48
   6  -4   3   28.50   15.60
   7  -4   3   14.20   24.10
  -8  -3   3    0.00  116.19
  -7  -3   3   21.50   15.60
  -6  -3   3    5.50   17.90
  -5  -3   3  137.99   20.00
  -4  -3   3  126.59    6.50
  -3  -3   3   10.00    6.00
  -2  -3   3    0.00    3.90
  -1  -3   3   24.50    2.20
   0  -3   3  369.96   10.70
   1  -3   3  424.36    6.70
   2  -3   3  444.06    8.90
   3  -3   3  137.59    9.00
   4  -3   3   83.89    5.90
   5  -3   3   32.10   15.40
   6  -3   3   31.60   15.00
   7  -3   3   14.30   14.90
  -8  -2   3   28.60   62.79
  -7  -2   3    6.40   15.70
  -6  -2   3  112.79   16.20
  -5  -2   3   58.09   14.00
  -4  -2   3  262.77    8.10
  -3  -2   3  773.92   16.70
  -2  -2   3  244.68    6.00
  -1  -2   3  188.98    4.00
   0  -2   3 2225.58   57.39
   1  -2   3  169.48    3.90
   2  -2   3  389.66    8.00
   3  -2   3    1.10    9.10
   4  -2   3  908.01   13.50
   5  -2   3   41.30   12.50
   6  -2   3    2.50   10.00
   7  -2   3   19.00   14.90
   8  -2   3   93.59   70.79
  -8  -1   3    0.00   54.89
  -7  -1   3   33.50   14.50
  -6  -1   3  119.29   16.90
  -5  -1   3   61.89   21.60
  -4  -1   3  304.27   10.80
  -3  -1   3  100.59   10.00
  -2  -1   3  309.77    7.90
  -1  -1   3    5.50    1.90
   1  -1   3 2037.00   28.50
   2  -1   3 1091.69   13.30
   3  -1   3   25.30    4.70
   4  -1   3  127.59    5.40
   5  -1   3  311.77   12.50
   6  -1   3    9.50   10.10
   7  -1   3   16.80   11.30
   8  -1   3    2.90   47.00
  -8   0   3   81.19   44.10
  -7   0   3   42.60   15.30
  -6   0   3   70.49   18.60
  -5   0   3   99.69   18.00
  -4   0   3   31.90    5.90
  -3   0   3  212.08   10.70
  -2   0   3  781.42   13.20
  -1   0   3 1146.19   17.70
   0   0   3   93.69    4.60
   1   0   3 1614.44   21.50
   2   0   3  555.54    9.30
   3   0   3  622.24   18.30
   4   0   3  996.80   15.40
   5   0   3   22.00   17.70
   6   0   3   20.60   10.30
   7   0   3   12.10   11.40
   8   0   3    0.00   46.10
  -7   1   3   17.20   16.60
  -6   1   3   33.00   17.30
  -5   1   3   19.20   16.30
  -4   1   3  168.08    7.30
  -3   1   3   17.80    6.90
  -2   1   3   38.00    3.50
  -1   1   3    4.10    1.60
   0   1   3 1783.42   40.70
   1   1   3  825.72   11.10
   2   1   3 1546.05   21.20
   3   1   3    8.00    6.40
   4   1   3   24.40    4.00
   5   1   3    0.00   12.40
   6   1   3    2.20   21.10
   7   1   3   23.40   16.00
   8   1   3   21.70   44.10
  -7   2   3    4.00   14.20
  -6   2   3   20.00    9.60
  -5   2   3  141.39   13.60
  -4   2   3  969.10   13.80
  -3   2   3    0.00   18.40
  -2   2   3   32.40    2.70
  -1   2   3   15.90    2.00
   0   2   3   97.29    7.60
   1   2   3 3429.56   39.00
   2   2   3  407.66    6.90
   3   2   3  122.99    7.40
   4   2   3  496.05   11.00
   5   2   3  361.86   15.10
   6   2   3   47.20   12.60
   7   2   3   13.90   14.60
   8   2   3    0.00   35.90
  -7   3   3   51.09   15.90
  -6   3   3   28.10   15.60
  -5   3   3   44.40   13.20
  -4   3   3   44.20    4.70
  -3   3   3   25.20    7.30
  -2   3   3  118.29    5.30
  -1   3   3  467.55    8.70
   0   3   3 5091.09  130.09
   1   3   3  145.79    3.60
   2   3   3 2006.60   27.60
   3   3   3   82.69    7.10
   4   3   3  319.67    8.10
   5   3   3  280.67   13.70
   6   3   3  121.09   14.80
   7   3   3    6.40   17.40
   8   3   3   28.80   39.50
  -6   4   3    4.80   15.50
  -5   4   3  119.79   23.30
  -4   4   3  276.27   10.30
  -3   4   3  551.44   22.60
  -2   4   3  505.85   10.20
  -1   4   3   37.00    3.60
   0   4   3   45.40    5.30
   1   4   3 1598.84   22.80
   2   4   3  671.53   10.80
   3   4   3   34.70    7.00
   4   4   3  155.78    6.40
   5   4   3   47.60   12.20
   6   4   3   10.30   11.80
   7   4   3   19.30   15.80
   8   4   3    0.00   41.10
  -6   5   3    3.70   19.70
  -5   5   3    7.50   22.40
  -4   5   3   37.30   10.80
  -3   5   3    0.00   17.80
  -2   5   3  507.55   12.60
  -1   5   3   72.59    5.20
   0   5   3   21.20    5.80
   1   5   3   61.79    4.60
   2   5   3   31.20    3.70
   3   5   3  128.69   10.80
   4   5   3  249.68    8.60
   5   5   3   47.00   16.40
   6   5   3   20.50   19.80
   7   5   3   24.40   16.10
   8   5   3   68.09   47.20
  -5   6   3   34.30   53.29
  -4   6   3    8.90   12.40
  -3   6   3  211.68   24.10
  -2   6   3   51.49   17.60
  -1   6   3  100.39    8.40
   0   6   3   82.09   11.40
   1   6   3   32.90    5.40
   2   6   3  369.06    9.40
   3   6   3   44.30   13.50
   4   6   3   21.70    6.70
   5   6   3    9.40   23.60
   6   6   3    7.30   15.40
   7   6   3   41.80   17.20
  -4   7   3    0.00   14.30
  -3   7   3  132.59   30.30
  -2   7   3    0.00   18.00
  -1   7   3  217.58   17.70
   1   7   3  444.16   25.60
   2   7   3  163.48   11.20
   3   7   3   55.99   19.40
   4   7   3    9.10    9.50
   5   7   3    0.00   30.90
   6   7   3   29.90   17.10
   7   7   3    8.50   17.70
  -3   8   3    0.00   55.99
  -2   8   3    4.80   18.10
  -1   8   3   65.99   11.30
   0   8   3  213.18   22.10
   1   8   3  179.68   15.50
   2   8   3    8.90   17.90
   3   8   3   48.00   14.30
   4   8   3   15.10   10.70
   5   8   3    0.00   43.70
   6   8   3   15.30   19.80
  -2   9   3   14.30   41.40
  -1   9   3   15.70   12.90
   0   9   3   35.10   24.50
   1   9   3    5.90   11.30
   2   9   3    0.00   28.20
   3   9   3    0.00   33.60
   4   9   3   12.10   12.70
   5   9   3    0.00   31.20
   1  10   3   27.30   15.90
   2  10   3   47.90   29.60
  -3  -9   4    0.00   20.90
  -2  -9   4   42.30   37.20
  -1  -9   4   37.60   30.10
   0  -9   4   22.70   39.30
   1  -9   4   54.59   31.80
  -4  -8   4    6.50   12.80
  -3  -8   4    0.90   33.90
  -2  -8   4    3.00   28.80
  -1  -8   4    0.10   12.30
   0  -8   4    0.00   47.40
   1  -8   4   18.70   23.00
   2  -8   4   19.50   21.20
   3  -8   4   95.79   38.60
  -5  -7   4   78.59   24.80
  -4  -7   4   10.50   10.50
  -3  -7   4   14.00  151.08
  -2  -7   4    0.00   20.60
  -1  -7   4   19.30   13.70
   0  -7   4   46.10   37.30
   1  -7   4   10.30    9.70
   2  -7   4   17.10   29.80
   3  -7   4    8.80   33.70
   4  -7   4   50.39   17.00
  -6  -6   4   10.40   26.10
  -5  -6   4    0.00   17.40
  -4  -6   4   56.09    9.30
  -3  -6   4    0.00  328.07
  -2  -6   4  252.47   20.50
  -1  -6   4  311.17   15.80
   0  -6   4   30.10   15.60
   1  -6   4   14.10    8.20
   2  -6   4  180.28   16.90
   4  -6   4   41.40   16.60
   5  -6   4    0.00   53.29
  -7  -5   4   83.49   44.80
  -6  -5   4   16.80   11.70
  -5  -5   4    0.00   14.50
  -4  -5   4   30.90    7.10
  -3  -5   4   36.20   10.50
  -2  -5   4  106.49    7.70
  -1  -5   4   27.00    3.80
   0  -5   4   36.60    7.50
   1  -5   4   18.10    4.30
   2  -5   4   30.80    6.10
   3  -5   4   46.00   16.60
   4  -5   4   19.10   13.80
   5  -5   4    1.80   41.00
   6  -5   4    6.70   22.00
  -7  -4   4   26.30   24.90
  -6  -4   4   19.70   10.40
  -5  -4   4   16.90   20.00
  -4  -4   4    5.10    5.50
  -3  -4   4  101.39    8.20
  -2  -4   4   18.90    4.60
  -1  -4   4   65.99    3.80
   0  -4   4   30.30    5.40
   1  -4   4    6.50    2.80
   2  -4   4   11.70    3.80
   3  -4   4   98.19   10.20
   4  -4   4    8.20    7.30
   5  -4   4   31.90   27.20
   6  -4   4   15.90   16.10
   7  -4   4    6.80   57.99
  -7  -3   4   28.20   24.10
  -6  -3   4   32.30   18.70
  -5  -3   4   36.90   14.10
  -4  -3   4   18.90    9.40
  -3  -3   4    8.80    4.80
  -2  -3   4   11.00    3.70
  -1  -3   4  530.25    8.90
   0  -3   4 1666.23   40.00
   1  -3   4  407.56    6.90
   2  -3   4   18.00    3.50
   3  -3   4  428.86   10.60
   4  -3   4  165.58    9.10
   5  -3   4    0.00   21.30
   6  -3   4  223.38   23.70
   7  -3   4   21.70   16.10
  -7  -2   4   20.00   20.10
  -6  -2   4   13.70   16.30
  -4  -2   4  315.77   13.00
  -3  -2   4  187.28   11.60
  -2  -2   4  377.46    8.80
  -1  -2   4  483.45    8.30
   0  -2   4  403.46   13.50
   1  -2   4 3523.95   45.90
   2  -2   4   49.70    3.50
   3  -2   4    9.80    6.10
   4  -2   4   24.10    4.20
   5  -2   4   63.49   14.00
   6  -2   4   96.29   29.00
   7  -2   4   16.40   17.10
  -7  -1   4   34.30   19.90
  -6  -1   4  218.78   25.00
  -5  -1   4   39.50  268.97
  -4  -1   4   62.39    7.20
  -3  -1   4  321.37   11.60
  -2  -1   4    7.00    4.20
  -1  -1   4 5190.78   71.69
   0  -1   4    1.90    3.80
   1  -1   4  359.66    7.00
   2  -1   4 1985.10   28.10
   3  -1   4   42.70    9.60
   4  -1   4    9.50    4.10
   5  -1   4   55.39   13.40
   6  -1   4   30.10   16.80
   7  -1   4   21.30   19.50
   8  -1   4   20.60   45.60
  -7   0   4    3.30   16.80
  -6   0   4   44.70   16.40
  -5   0   4  155.78   32.90
  -4   0   4  566.44   14.00
  -3   0   4   28.00    8.30
  -2   0   4  854.81   14.60
  -1   0   4  465.75    7.80
   0   0   4 3361.96  102.19
   1   0   4 4109.39   50.19
   2   0   4  660.03   11.60
   3   0   4  340.17   10.60
   4   0   4    3.80    3.80
   5   0   4  133.19   23.80
   6   0   4    4.20   13.80
   7   0   4   59.49   17.90
   8   0   4   36.00   41.30
  -7   1   4   28.10   19.20
  -5   1   4  483.25   31.80
  -4   1   4   16.30    5.90
  -3   1   4 1349.27   43.40
  -2   1   4 1244.38   20.50
  -1   1   4   94.69    3.60
   0   1   4   36.00    3.60
   1   1   4  734.63   10.00
   2   1   4   40.80    3.10
   3   1   4  205.48   10.60
   4   1   4  232.08    7.30
   5   1   4   12.30   26.40
   6   1   4  262.07   38.10
   7   1   4   68.69   17.40
   8   1   4    0.00   39.70
  -7   2   4   32.30   16.20
  -6   2   4   56.69   13.90
  -5   2   4   17.30   14.40
  -4   2   4  175.98    7.00
  -3   2   4    0.00    6.80
  -2   2   4  291.27    6.90
  -1   2   4  787.32   11.20
   0   2   4  471.15   16.50
   1   2   4  345.27    6.10
   2   2   4 3283.87   42.50
   3   2   4   19.70    7.20
   4   2   4  189.08    7.20
   5   2   4   34.90   26.40
   6   2   4  147.69   84.69
   7   2   4   16.40   16.30
   8   2   4   14.00   40.10
  -7   3   4   46.60   19.20
  -6   3   4   42.50   17.70
  -5   3   4    1.20   11.70
  -4   3   4   12.10    4.40
  -3   3   4  450.05   13.50
  -2   3   4    7.20    3.70
  -1   3   4 1979.80   27.70
   0   3   4  881.01   28.60
   1   3   4 1821.52   22.00
   2   3   4    6.20    2.40
   3   3   4   44.50   12.50
   4   3   4    5.80    4.50
   5   3   4  659.63   25.70
   6   3   4   55.59   18.80
   7   3   4   18.70   19.50
   8   3   4    0.00   39.70
  -6   4   4   24.30   19.90
  -5   4   4   11.70   25.70
  -4   4   4   68.59    7.80
  -3   4   4  100.39   14.50
  -2   4   4  442.36   10.00
  -1   4   4  530.15   10.60
   0   4   4  144.49    8.20
   1   4   4  162.08    5.70
   2   4   4  355.26    7.40
   3   4   4  185.08    8.10
   4   4   4  364.46    9.00
   5   4   4    0.00   13.50
   6   4   4    8.00   12.00
   7   4   4   18.30   16.40
   8   4   4    0.00   36.30
  -6   5   4   24.90   22.40
  -5   5   4    0.00   43.20
  -4   5   4   25.30   10.70
  -3   5   4  365.96   21.50
  -2   5   4  396.26   11.20
  -1   5   4  117.79    6.60
   0   5   4    4.90    6.50
   1   5   4    2.90    4.20
   2   5   4  209.98    6.60
   3   5   4  811.92   21.50
   4   5   4  192.98    8.20
   5   5   4   36.40   16.20
   6   5   4   31.10   12.50
   7   5   4   38.30   17.40
   8   5   4    7.20   33.90
  -4   6   4   15.50   13.50
  -3   6   4   25.80   57.09
  -2   6   4    0.00   15.40
  -1   6   4   77.99    8.10
   0   6   4    8.70   10.10
   1   6   4  794.42   17.10
   2   6   4 1029.10   22.60
   3   6   4   15.80   15.40
   4   6   4   83.19    9.10
   5   6   4   29.80   19.00
   6   6   4    5.00   13.90
   7   6   4   37.40   18.00
  -4   7   4    0.60   17.90
  -3   7   4   33.90   45.80
  -2   7   4    0.00   58.99
  -1   7   4  228.18   21.60
   1   7   4  505.35   20.70
   2   7   4   19.70   12.00
   3   7   4    0.00   16.60
   4   7   4    8.10   11.00
   5   7   4    0.00   30.30
   6   7   4    1.90   18.70
   7   7   4   11.50   20.50
  -3   8   4   22.90   53.89
  -2   8   4   14.20   19.20
  -1   8   4   10.60   10.40
   0   8   4    7.50   28.30
   1   8   4   60.09   10.20
   2   8   4   92.09   13.50
   3   8   4    0.00   20.90
   4   8   4   50.29   11.80
   5   8   4   32.60   44.50
   6   8   4    1.40   18.70
  -2   9   4    2.70   18.90
  -1   9   4   16.60   13.60
   0   9   4    0.00   24.00
   1   9   4   42.10   12.40
   2   9   4   22.30   20.80
   3   9   4    0.00   56.29
   4   9   4   12.10   16.70
   5   9   4   64.99   86.59
   1  10   4   19.50   19.40
  -4  -8   5   14.80   15.00
  -3  -8   5   52.69   34.80
  -2  -8   5   41.30   23.30
  -1  -8   5   81.29   15.80
   0  -8   5   65.59   33.70
   1  -8   5    7.40   15.00
   2  -8   5   35.30   22.90
  -5  -7   5   64.09   92.89
  -4  -7   5    4.40   11.50
  -3  -7   5  228.38   81.39
  -2  -7   5   20.70   19.00
  -1  -7   5   38.90   25.10
   0  -7   5   30.80   44.90
   1  -7   5   25.20   21.60
   2  -7   5   64.79   40.60
   3  -7   5    0.00   40.80
   4  -7   5   17.40   18.50
  -6  -6   5    4.20   30.40
  -5  -6   5   37.20   18.80
  -4  -6   5    9.50    9.10
  -3  -6   5  129.79   34.30
  -2  -6   5   30.80   17.70
  -1  -6   5    3.50   16.10
   1  -6   5  131.79   14.40
   2  -6   5   28.50   13.70
   3  -6   5   28.10  257.67
   4  -6   5   26.20   15.20
   5  -6   5   66.29   42.00
  -6  -5   5    5.00   24.30
  -5  -5   5    2.50   22.10
  -4  -5   5    4.60    6.60
  -3  -5   5   31.00   12.30
  -2  -5   5   45.30    9.10
  -1  -5   5   18.50    6.10
   0  -5   5   99.99   12.50
   1  -5   5    3.50    6.60
   2  -5   5  210.28   14.30
   3  -5   5    0.00  197.18
   4  -5   5   12.40   14.60
   5  -5   5    0.00   28.60
   6  -5   5    9.10   23.50
  -7  -4   5    1.10   69.09
  -6  -4   5    4.00   23.90
  -5  -4   5   60.79   59.19
  -4  -4   5  417.46   18.20
  -3  -4   5   67.09    9.70
  -2  -4   5  218.58    9.40
  -1  -4   5  205.48    6.90
   0  -4   5    8.00    6.60
   1  -4   5    0.20    3.30
   2  -4   5   21.60    5.60
   3  -4   5  340.87   14.90
   4  -4   5    7.00    9.20
   5  -4   5    0.00   22.70
   6  -4   5   13.20   18.70
  -7  -3   5    4.60   46.30
  -6  -3   5    0.30   20.30
  -5  -3   5   97.39  171.48
  -4  -3   5   20.80    9.90
  -3  -3   5   52.89   11.50
  -2  -3   5  227.48    8.80
  -1  -3   5   10.90    3.10
   0  -3   5 4776.22  109.89
   1  -3   5  162.78    5.20
   2  -3   5   89.89    5.90
   3  -3   5    8.50    8.40
   4  -3   5  270.07   11.10
   5  -3   5    3.00   21.40
   6  -3   5   31.50   16.70
   7  -3   5   19.80   18.00
  -7  -2   5   15.40   22.30
  -6  -2   5   39.20   17.60
  -5  -2   5    4.00  135.59
  -4  -2   5  125.39   11.90
  -3  -2   5  130.89    9.90
  -2  -2   5   41.20    5.10
  -1  -2   5  145.09    4.90
   0  -2   5 1025.30   28.30
   1  -2   5  156.08    5.00
   2  -2   5    0.30    3.30
   3  -2   5    3.20    5.30
   4  -2   5  124.99    8.70
   5  -2   5   57.09   18.50
   6  -2   5    0.60   12.90
   7  -2   5   34.30   15.90
  -7  -1   5    6.70   19.20
  -6  -1   5   22.30   15.50
  -5  -1   5    0.00  407.66
  -4  -1   5   10.50    6.80
  -3  -1   5    9.10    8.90
  -2  -1   5 1062.69   20.80
  -1  -1   5   61.29    4.00
   0  -1   5    7.90    4.50
   1  -1   5  743.83   11.70
   2  -1   5  871.61   15.80
   3  -1   5  385.96   13.20
   4  -1   5  640.74   13.20
   5  -1   5   49.60   33.70
   6  -1   5   14.20   14.10
   7  -1   5   15.00   15.60
  -7   0   5    9.10   18.40
  -6   0   5   21.70   15.10
  -5   0   5   84.39  142.69
  -4   0   5   78.79    8.50
  -3   0   5  444.46   13.80
  -2   0   5  159.28    7.10
  -1   0   5  856.81   14.00
   0   0   5  597.64   17.70
   1   0   5  338.87    7.10
   2   0   5  205.88    6.30
   3   0   5    0.00   10.70
   4   0   5   34.50    5.30
   5   0   5  276.27   23.60
   6   0   5   71.29   15.20
   7   0   5    3.90   15.40
   8   0   5   93.29   51.19
  -7   1   5    3.70   17.40
  -6   1   5   10.90   15.60
  -5   1   5   38.80  125.09
  -4   1   5  114.99    8.80
  -3   1   5   51.69   10.50
  -2   1   5   77.79    4.70
  -1   1   5   91.99    3.80
   0   1   5   57.89    5.00
   1   1   5  352.86    6.50
   2   1   5  177.18    5.50
   3   1   5  149.49    8.50
   4   1   5  143.09    7.20
   5   1   5  344.77   27.20
   6   1   5  226.78   25.70
   7   1   5   12.00   16.10
   8   1   5   45.10   42.20
  -7   2   5   15.70   16.80
  -6   2   5    0.00   14.80
  -5   2   5  180.08   24.80
  -4   2   5  293.97   14.40
  -3   2   5  102.09   12.60
  -2   2   5 1497.05   23.10
  -1   2   5   28.10    2.90
   0   2   5 1568.44   37.20
   1   2   5 1183.48   16.40
   2   2   5  807.12   12.90
   3   2   5 1778.42   43.60
   4   2   5    8.20    4.70
   5   2   5  111.39   30.30
   6   2   5   56.99   25.40
   7   2   5   12.40   16.50
   8   2   5   52.29   38.40
  -6   3   5   10.50   14.00
  -5   3   5  131.19   18.50
  -4   3   5  316.97   10.20
  -3   3   5   44.80   11.30
  -2   3   5   51.59    5.40
  -1   3   5    5.90    2.90
   0   3   5  127.19    8.00
   1   3   5 1109.49   14.70
   2   3   5  106.99    4.30
   3   3   5  105.29    7.40
   4   3   5   41.50    5.00
   5   3   5   61.09   27.40
   6   3   5   11.00   23.60
   7   3   5   19.00   16.10
   8   3   5   66.89   40.80
  -6   4   5   11.10   26.60
  -5   4   5   46.40   40.30
  -4   4   5    4.90    7.60
  -3   4   5  562.74   22.20
  -2   4   5    4.30    4.00
  -1   4   5   14.50    3.90
   0   4   5  424.26   17.20
   1   4   5  240.48    7.20
   2   4   5   35.80    4.00
   3   4   5   56.69   10.50
   4   4   5  144.09    7.10
   5   4   5   24.70   16.90
   6   4   5   19.30   16.90
   7   4   5   44.50   16.90
  -5   5   5   58.09   54.49
  -4   5   5    7.50   11.20
  -3   5   5  283.97   23.00
  -2   5   5   30.40    6.10
  -1   5   5   67.59    5.90
   0   5   5  705.83   22.90
   1   5   5  130.49    6.60
   2   5   5   29.30    3.80
   3   5   5  304.07   12.90
   4   5   5    5.50    5.60
   5   5   5   56.59   15.40
   6   5   5   23.50   16.70
   7   5   5   26.80   20.00
  -4   6   5    9.10   13.60
  -3   6   5  117.99   35.70
  -2   6   5    0.00    9.20
  -1   6   5   20.00    7.80
   0   6   5   27.40   11.60
   1   6   5  511.05   14.90
   2   6   5  135.59    8.90
   3   6   5   98.79   16.40
   4   6   5   45.10    8.40
   5   6   5   99.89   25.80
   6   6   5    4.70   18.40
   7   6   5   22.70   20.50
  -4   7   5   20.10   18.20
  -3   7   5    0.00  326.87
  -2   7   5   16.70   23.70
  -1   7   5   78.39   13.20
   1   7   5   81.39   11.80
   2   7   5   43.60   14.70
   3   7   5    1.70   33.90
   4   7   5   64.09   10.40
   5   7   5   20.90   26.70
   6   7   5   44.00   20.30
  -3   8   5    0.00  439.56
  -2   8   5    9.90   19.70
  -1   8   5  122.49   13.90
   0   8   5   13.50   18.80
   1   8   5   10.50    9.10
   2   8   5   26.00   19.00
   3   8   5   71.39   39.50
   4   8   5    0.00   13.30
   5   8   5    0.00   47.70
   6   8   5    6.70   22.80
  -1   9   5    1.40   14.40
   0   9   5   21.90   25.00
   1   9   5   18.10   13.30
   2   9   5   51.29   21.90
   3   9   5   32.70   47.30
   4   9   5   11.70   17.00
  -3  -8   6   45.40   32.10
  -2  -8   6   40.00   36.40
  -1  -8   6   25.20   18.40
   0  -8   6   80.89   56.69
   1  -8   6   38.20   30.00
  -4  -7   6   42.40   21.70
  -3  -7   6   19.20   47.50
  -2  -7   6   28.10   29.50
  -1  -7   6   34.10   33.40
   0  -7   6    9.10   41.20
   1  -7   6   11.20   14.20
   2  -7   6   18.70   18.10
   3  -7   6    0.00   38.60
  -5  -6   6   15.00   91.99
  -4  -6   6    9.70   10.40
  -3  -6   6  108.29   32.50
  -2  -6   6    4.00   18.20
  -1  -6   6   88.69   45.30
   0  -6   6   11.70   53.59
   1  -6   6   94.29   24.60
   2  -6   6    5.60   14.20
   3  -6   6    0.00   61.29
   4  -6   6   31.30   16.20
  -6  -5   6    0.30   27.80
  -5  -5   6    5.90   35.90
  -4  -5   6   11.50    8.10
  -3  -5   6    6.00   15.80
  -2  -5   6   69.09   13.60
  -1  -5   6   79.59   17.30
   0  -5   6  107.39   46.90
   1  -5   6   82.59   12.60
   2  -5   6  134.89   16.60
   3  -5   6    0.00   38.00
   4  -5   6   11.60   12.90
   5  -5   6    0.00   34.60
  -6  -4   6    0.00   23.60
  -5  -4   6    0.00   31.20
  -4  -4   6   24.40   45.20
  -3  -4   6   65.39   38.20
  -2  -4   6   34.70   10.10
  -1  -4   6   77.39    6.50
   0  -4   6   60.89   10.50
   1  -4   6  488.65   12.10
   2  -4   6    6.60    8.00
   3  -4   6   14.20   14.50
   4  -4   6   59.39   10.40
   5  -4   6   25.90   23.00
   6  -4   6   11.60   20.40
  -7  -3   6   24.30   27.20
  -6  -3   6   48.20   21.20
  -5  -3   6    0.00   40.70
  -4  -3   6   12.60   12.00
  -3  -3   6   67.39   19.60
  -2  -3   6   23.70    7.60
  -1  -3   6  905.81   14.00
   0  -3   6  294.17   11.10
   1  -3   6  237.18    6.60
   2  -3   6    3.20    6.40
   3  -3   6   16.50   10.40
   4  -3   6  108.39   11.50
   5  -3   6   30.20   19.10
   6  -3   6   28.90   16.60
   7  -3   6    0.00   39.50
  -7  -2   6   19.00   21.70
  -6  -2   6  152.98   24.00
  -5  -2   6    0.60   39.40
  -4  -2   6   81.19   12.60
  -3  -2   6    0.00   17.50
  -2  -2   6   10.70    5.90
  -1  -2   6   17.70    3.70
   0  -2   6  560.24   17.40
   1  -2   6  110.99    5.10
   2  -2   6    4.30    3.90
   3  -2   6  229.18   13.00
   4  -2   6   57.49    7.60
   5  -2   6   28.80   33.70
   6  -2   6   10.80   14.10
   7  -2   6   20.90   20.40
  -7  -1   6    4.30   21.20
  -6  -1   6    0.00   80.19
  -5  -1   6   34.70   30.40
  -4  -1   6   10.80    9.30
  -3  -1   6    0.20    9.30
  -2  -1   6  135.59    8.60
  -1  -1   6    5.90    3.10
   0  -1   6   12.10    6.00
   1  -1   6   14.40    3.20
   2  -1   6  225.08    7.80
   3  -1   6   42.90    8.70
   4  -1   6   45.00    9.50
   5  -1   6   88.69   23.70
   6  -1   6    0.00   12.80
   7  -1   6   22.80   17.00
  -7   0   6   43.20   41.10
  -6   0   6   16.50   16.30
  -5   0   6  107.29  460.85
  -4   0   6  313.37   14.20
  -3   0   6  207.48   12.00
  -2   0   6   46.70    5.60
  -1   0   6   32.20    3.60
   0   0   6  412.76   14.60
   1   0   6  984.60   14.80
   2   0   6 2012.50   31.80
   3   0   6   21.20    8.10
   4   0   6  219.88   12.00
   6   0   6   54.89   14.20
   7   0   6   30.30   15.60
  -7   1   6    9.20   18.00
  -6   1   6   23.40   15.70
  -5   1   6    0.00   29.10
  -4   1   6  100.09    9.80
  -3   1   6    0.00   10.80
  -2   1   6    4.90    5.10
  -1   1   6   26.80    3.50
   0   1   6  104.49    6.00
   1   1   6  518.85    8.80
   2   1   6  142.19    5.90
   3   1   6   43.20   12.20
   4   1   6   11.00    6.10
   5   1   6   87.49  458.55
   6   1   6   41.30   27.40
   7   1   6    7.20   16.00
   8   1   6   53.29  105.79
  -6   2   6    1.30   13.20
  -5   2   6   93.29   31.00
  -4   2   6   17.40    7.60
  -3   2   6    2.50   12.30
  -2   2   6    7.70    3.30
  -1   2   6 1069.09   15.50
   0   2   6  629.74   16.90
   1   2   6  312.77    6.40
   2   2   6  257.37    6.90
   3   2   6  237.38   10.90
   4   2   6   15.80    5.60
   5   2   6  250.47   55.39
   6   2   6   98.49   26.30
   7   2   6   11.50   15.80
   8   2   6    0.00   92.39
  -6   3   6    1.20   16.50
  -5   3   6    0.00   53.69
  -4   3   6   25.40    7.80
  -3   3   6  241.48   21.60
  -2   3   6   93.29    7.30
  -1   3   6   76.09    4.70
   0   3   6   56.39    7.60
   1   3   6    4.60    2.60
   2   3   6   22.60    3.40
   3   3   6  316.17   12.90
   4   3   6    9.50    5.80
   5   3   6   37.50   53.49
   7   3   6   24.10   16.80
  -6   4   6   45.40   32.50
  -5   4   6   65.09   55.79
  -4   4   6   31.20    9.40
  -3   4   6   33.80   11.20
  -2   4   6  336.47    9.90
  -1   4   6  350.06    9.70
   0   4   6   18.30    8.10
   1   4   6   82.29    5.70
   2   4   6   27.80    4.00
   3   4   6  105.49   10.90
   4   4   6   21.70    7.30
   5   4   6   96.29   21.40
   6   4   6   18.00   18.70
   7   4   6   19.80   18.30
  -4   5   6   19.30   19.30
  -3   5   6   54.09   22.50
  -2   5   6   11.70    7.00
  -1   5   6  188.18    9.10
   0   5   6  289.57   15.80
   1   5   6  496.25   13.10
   2   5   6   12.10    4.20
   3   5   6  199.08   16.30
   4   5   6   56.79    6.80
   5   5   6   29.10   16.80
   6   5   6    0.00   18.90
   7   5   6   18.00   19.40
  -4   6   6   10.40   15.60
  -3   6   6  188.78   36.20
  -2   6   6   17.80    9.20
  -1   6   6  220.98   14.10
   0   6   6  100.29   14.70
   1   6   6  157.38   12.00
   2   6   6   72.79    8.20
   3   6   6  156.38   17.90
   4   6   6   10.10    7.40
   5   6   6  165.18   36.10
   6   6   6   47.40   21.00
   7   6   6    1.30   24.90
  -4   7   6    3.30   23.40
  -3   7   6   65.79   53.19
  -2   7   6   35.70   19.00
  -1   7   6   37.90   10.80
   1   7   6  139.39   16.70
   2   7   6   13.60   13.20
   3   7   6    0.00   21.20
   4   7   6   22.40   12.40
   5   7   6   48.50   36.50
   6   7   6   15.20   19.00
  -2   8   6    4.80   21.90
  -1   8   6    5.00   11.80
   0   8   6   30.00   20.80
   1   8   6   34.30   10.90
   2   8   6   62.39   18.70
   3   8   6    0.00  557.44
   4   8   6    9.90   14.80
   5   8   6  191.08   46.00
  -1   9   6    4.90   20.30
   0   9   6    5.20   42.60
   1   9   6   39.10   14.00
   2   9   6   23.40   23.80
   3   9   6    0.00  264.17
   4   9   6   22.80   20.00
  -1  -8   7    7.10   23.00
   0  -8   7   27.50   65.99
  -3  -7   7   42.30   46.00
  -2  -7   7  131.99   51.79
  -1  -7   7   39.50   18.20
   0  -7   7   24.10   39.50
   1  -7   7   33.40   25.80
   2  -7   7   32.20   22.00
   3  -7   7   47.50   85.89
  -5  -6   7    0.00   83.19
  -4  -6   7   63.89   37.00
  -3  -6   7   34.90   38.80
  -2  -6   7   18.80   23.70
  -1  -6   7   12.30   14.60
   0  -6   7    7.10   30.00
   1  -6   7   16.80   21.10
   2  -6   7    3.30   17.00
   3  -6   7    1.00   55.09
   4  -6   7   15.90   19.00
  -5  -5   7   46.60   39.30
  -4  -5   7   25.90   17.70
  -3  -5   7   25.20   29.70
  -2  -5   7    5.30   12.50
  -1  -5   7    9.40   11.60
   1  -5   7  118.69   25.30
   2  -5   7   38.80   14.70
   3  -5   7    0.00   31.50
   4  -5   7   18.10   14.30
   5  -5   7    0.00   86.19
  -6  -4   7    0.00   25.60
  -5  -4   7    0.00   34.90
  -4  -4   7    3.10   14.20
  -3  -4   7    7.30   42.40
  -2  -4   7  271.27   20.50
  -1  -4   7   74.69    8.60
   0  -4   7  582.64   42.90
   1  -4   7   19.40   10.10
   2  -4   7   72.49   13.00
   3  -4   7   28.10   22.20
   4  -4   7   12.10   11.30
   5  -4   7    1.00   28.10
   6  -4   7   38.10   50.29
  -6  -3   7    5.20   22.60
  -5  -3   7    5.30   31.40
  -4  -3   7  215.58   21.20
  -3  -3   7   66.19   24.40
  -2  -3   7    4.40   11.20
  -1  -3   7   33.00    6.00
   0  -3   7  197.18   12.60
   1  -3   7   20.60    5.30
   2  -3   7   31.20    8.60
   3  -3   7    0.30   15.20
   4  -3   7    4.30    9.90
   5  -3   7   59.69   30.50
   6  -3   7  116.19   36.70
  -6  -2   7    0.30   19.00
  -5  -2   7    0.00   28.80
  -4  -2   7    2.80   11.50
  -3  -2   7    0.00   25.40
  -2  -2   7   15.10   12.10
  -1  -2   7  186.38    8.00
   0  -2   7    0.00    8.00
   1  -2   7   11.90    4.20
   2  -2   7  155.98    9.90
   3  -2   7   15.90   18.90
   4  -2   7   54.59   31.80
   5  -2   7    0.00   54.49
   6  -2   7   37.00   34.30
   7  -2   7   19.30   39.50
  -6  -1   7   18.70   18.30
  -5  -1   7  106.29   31.30
  -4  -1   7   92.69   14.20
  -3  -1   7    0.00   16.70
  -2  -1   7  302.07   12.50
  -1  -1   7    3.90    3.90
   0  -1   7  143.99    9.40
   1  -1   7  363.46    8.60
   2  -1   7   83.19    5.60
   3  -1   7   13.20   15.60
   4  -1   7   43.80   15.90
   5  -1   7   83.59  292.37
   6  -1   7   38.30   26.70
   7  -1   7   38.60   25.20
  -6   0   7    0.00   16.20
  -5   0   7   43.00   28.90
  -4   0   7   53.69   11.80
  -3   0   7    0.00   15.00
  -2   0   7   46.50    9.20
  -1   0   7   12.60    3.70
   0   0   7    3.10    6.70
   1   0   7  115.19    5.30
   2   0   7   16.50    4.70
   3   0   7   17.40   10.20
   4   0   7    0.80    8.90
   5   0   7   11.00  231.18
   6   0   7  132.69   21.60
   7   0   7    4.90   22.50
  -6   1   7    0.00  125.59
  -5   1   7    0.00  517.45
  -4   1   7  132.19   11.70
  -3   1   7    9.90   14.20
  -2   1   7   45.80    7.60
  -1   1   7  527.05   10.70
   0   1   7   26.60    5.80
   1   1   7   24.00    3.40
   2   1   7   15.70    4.00
   3   1   7    0.00   10.80
   4   1   7   72.59    9.60
   5   1   7  151.38  244.98
   6   1   7   34.90   22.40
   7   1   7    7.00   19.60
  -6   2   7    0.00   15.80
  -5   2   7    0.00   32.80
  -4   2   7   61.69    9.70
  -3   2   7  225.88   14.50
  -2   2   7    6.70    5.70
  -1   2   7  465.75    9.60
   0   2   7  101.59    7.20
   1   2   7  133.39    5.10
   2   2   7   98.59    5.90
   3   2   7   87.19   10.70
   4   2   7    6.90    7.80
   5   2   7  235.48  243.38
   6   2   7   74.79   24.00
   7   2   7   11.70   18.80
  -6   3   7  145.69  150.08
  -5   3   7    0.00   29.80
  -4   3   7   15.70   13.50
  -3   3   7  108.39   13.20
  -2   3   7  323.07   13.80
  -1   3   7    8.30    6.30
   0   3   7  261.67    9.10
   1   3   7   85.39    4.60
   2   3   7  309.77    7.50
   3   3   7  162.58   12.40
   4   3   7   52.79    9.10
   5   3   7   31.60  213.38
   6   3   7   34.70   22.90
   7   3   7   25.30   19.60
  -5   4   7   31.20   63.99
  -4   4   7    7.20   15.70
  -3   4   7  365.56   66.79
  -2   4   7  108.89    9.00
  -1   4   7    3.10    5.10
   0   4   7   49.40    9.90
   1   4   7  116.99    7.30
   2   4   7   40.90    4.80
   3   4   7  562.74   18.10
   4   4   7  168.98   14.60
   5   4   7   16.10   41.80
   6   4   7   63.19   58.29
   7   4   7    0.00   20.70
  -4   5   7   32.20   19.10
  -3   5   7  149.59   37.60
  -2   5   7    4.60    9.00
  -1   5   7    4.20    6.20
   0   5   7    5.00   11.70
   1   5   7  673.33   15.90
   2   5   7  338.57   10.50
   3   5   7   23.20   10.60
   4   5   7  193.78   16.30
   5   5   7   48.00   26.10
   6   5   7   21.50   19.70
   7   5   7   34.40   22.00
  -4   6   7   23.30   23.10
  -3   6   7   17.10   51.09
  -2   6   7   30.40    9.70
  -1   6   7   22.20   10.00
   0   6   7  153.08   23.90
   1   6   7  211.28   12.60
   2   6   7   12.10   12.60
   3   6   7  108.69   17.80
   4   6   7   10.20    9.50
   5   6   7    0.00   32.20
   6   6   7    4.70   22.80
  -3   7   7    0.00   48.00
  -2   7   7   16.00   19.00
  -1   7   7   11.40   11.90
   0   7   7   13.00   30.90
   1   7   7    0.00   18.40
   2   7   7   65.49   13.20
   3   7   7    0.00   27.40
   4   7   7   21.80   16.80
   5   7   7    0.00   50.99
   6   7   7    1.10   23.20
  -2   8   7    2.90   19.60
  -1   8   7   10.80   12.70
   0   8   7    2.20   38.00
   1   8   7   72.69   12.60
   2   8   7    0.00   19.20
   3   8   7  112.29   47.10
   4   8   7   14.10   20.90
   0   9   7   21.00   29.90
   1   9   7   14.90   14.10
   2   9   7    9.20   24.10
   3   9   7    0.50   17.60
  -2  -7   8   60.09   39.70
  -1  -7   8   25.20   21.40
   0  -7   8   70.59   49.20
   1  -7   8   18.10   33.10
  -4  -6   8   39.90   24.60
  -3  -6   8  112.19   46.00
  -2  -6   8    0.00   26.20
  -1  -6   8    9.60   18.60
   0  -6   8  131.49   92.79
   1  -6   8    0.00   32.10
   2  -6   8   28.00   23.20
   3  -6   8   20.60   43.10
  -5  -5   8    3.10   54.39
  -4  -5   8   50.19   20.20
  -3  -5   8   74.49   39.40
  -2  -5   8   46.60   22.60
  -1  -5   8   46.20   46.20
   0  -5   8   24.10   30.00
   1  -5   8    9.00   24.30
   2  -5   8   53.79   40.40
   3  -5   8   25.60   37.50
   4  -5   8   24.50   20.40
  -5  -4   8    0.00   39.00
  -4  -4   8   23.80   16.50
  -3  -4   8   26.30   31.80
  -2  -4   8    8.90   15.20
  -1  -4   8   65.09   11.90
   0  -4   8  234.68   26.20
   1  -4   8    9.00   14.80
   2  -4   8    1.70   11.70
   3  -4   8   16.00   25.90
   4  -4   8    5.60   16.60
   5  -4   8   16.80   91.79
  -5  -3   8    0.00   39.40
  -4  -3   8   17.40   13.30
  -3  -3   8   29.50   48.50
  -2  -3   8   76.99   12.70
  -1  -3   8    3.60    6.00
   0  -3   8   44.30   18.00
   1  -3   8    3.10    7.70
   2  -3   8   49.30   13.90
   3  -3   8    0.00   28.70
   4  -3   8   32.60   15.50
   5  -3   8    0.00   41.70
   6  -3   8    0.00   81.39
  -6  -2   8   19.00  166.08
  -5  -2   8    0.00   36.10
  -4  -2   8   75.99   29.80
  -3  -2   8   76.09   23.80
  -2  -2   8    9.40   10.60
  -1  -2   8   71.69    8.00
   0  -2   8   10.90    9.70
   1  -2   8  108.69    8.60
   2  -2   8    6.90    9.20
   3  -2   8   78.79   24.50
   4  -2   8    0.00   22.60
   5  -2   8   39.40   36.30
   6  -2   8   26.90   33.60
  -6  -1   8    4.20   19.10
  -5  -1   8    0.00   29.60
  -4  -1   8  269.27   18.70
  -3  -1   8    0.00   52.79
  -2  -1   8  131.59   11.80
  -1  -1   8    4.10    5.80
   0  -1   8    3.00    9.80
   1  -1   8    6.30    5.80
   2  -1   8   54.19    8.00
   3  -1   8   17.30   28.80
   4  -1   8  103.19   22.50
   5  -1   8  138.59   68.49
   6  -1   8    0.00   28.40
   7  -1   8    8.20   56.29
  -6   0   8    2.10   17.50
  -5   0   8    0.00   28.80
  -4   0   8   11.30   31.90
  -3   0   8   59.39   29.30
  -2   0   8   59.49   13.10
  -1   0   8   47.70    5.40
   0   0   8  230.38   11.40
   1   0   8   15.40    4.50
   2   0   8   45.00    8.80
   3   0   8   39.40   16.60
   4   0   8   58.49   17.00
   5   0   8   76.99   66.39
   6   0   8   77.29   28.90
   7   0   8   23.00   30.60
  -6   1   8    1.10   16.30
  -5   1   8   36.70   30.80
  -4   1   8  126.39   14.40
  -3   1   8   47.60   19.60
  -2   1   8   76.29    9.70
  -1   1   8  190.18    8.40
   0   1   8  667.73   25.40
   1   1   8  355.36    8.80
   2   1   8  114.69    8.30
   3   1   8  204.18   16.90
   4   1   8    7.90   14.20
   5   1   8   75.39   37.60
   6   1   8   23.60   29.60
   7   1   8   17.10   23.50
  -5   2   8    0.00  613.84
  -4   2   8    5.20    8.20
  -3   2   8  135.79   17.40
  -2   2   8    6.40    7.20
  -1   2   8   33.70    4.90
   0   2   8   15.60    8.40
   1   2   8  526.05   10.10
   2   2   8   24.40    4.90
   3   2   8    0.00   15.90
   4   2   8  178.58   15.60
   5   2   8   74.89  276.97
   6   2   8   11.90   24.10
   7   2   8   19.00   20.00
  -5   3   8    0.00   68.09
  -4   3   8    0.30    7.80
  -3   3   8  321.07   21.30
  -2   3   8  102.09    7.60
  -1   3   8   15.80    4.40
   0   3   8   11.20    8.20
   1   3   8  291.07    7.80
   2   3   8  100.49    6.40
   3   3   8    0.00   14.10
   4   3   8   39.40   10.80
   5   3   8   97.89   35.80
   6   3   8    0.00   24.70
   7   3   8   48.90   23.90
  -5   4   8    0.00  115.79
  -4   4   8    0.00   20.50
  -3   4   8   62.19   43.80
  -2   4   8   30.40   11.30
  -1   4   8    6.30    5.70
   0   4   8  173.78   14.80
   1   4   8   92.89    5.50
   2   4   8    7.30    5.30
   3   4   8  122.59   12.90
   4   4   8   13.70   13.00
   5   4   8   77.29   38.20
   6   4   8   14.00   25.60
   7   4   8   20.70   22.50
  -4   5   8   15.80   22.80
  -3   5   8   48.40   35.20
  -2   5   8    6.30   13.80
  -1   5   8   91.49   10.10
   0   5   8  106.79   15.50
   1   5   8  395.56   14.30
   2   5   8   13.40    5.80
   3   5   8  191.38   39.60
   4   5   8    0.00   22.10
   5   5   8   66.29   50.99
   6   5   8    2.30   25.00
   7   5   8   25.50   29.00
  -3   6   8   28.40   57.59
  -2   6   8    1.70   15.50
  -1   6   8   27.60    9.30
   0   6   8  135.69   25.80
   1   6   8    0.00    8.70
   2   6   8   32.10   12.40
   3   6   8   70.79   29.40
   4   6   8    0.00   14.70
   5   6   8   14.30   52.19
   6   6   8   25.00   49.20
  -2   7   8   72.99   23.60
  -1   7   8   95.59   18.10
   1   7   8   26.10   11.00
   2   7   8   13.80   11.50
   3   7   8    0.00   46.10
   4   7   8   22.00   16.90
  -1   8   8   38.30   15.70
   0   8   8   26.80   25.70
   1   8   8    3.80   12.70
   2   8   8   62.79   22.50
   3   8   8  100.39   39.30
   4   8   8    0.10   23.60
  -2  -6   9   49.10   30.90
  -1  -6   9   73.99   23.60
   0  -6   9   62.49  108.89
   1  -6   9   77.69   41.20
   2  -6   9    1.30   26.30
  -4  -5   9    8.10   30.10
  -3  -5   9   91.79   45.60
  -2  -5   9    9.40   28.10
  -1  -5   9   96.59   20.10
   0  -5   9   54.09   39.50
   1  -5   9   68.89   26.20
   2  -5   9   34.30   53.59
   3  -5   9    0.00   42.60
  -4  -4   9    0.00   18.40
  -3  -4   9   72.29   38.50
  -2  -4   9   31.60   22.60
  -1  -4   9  119.89   18.00
   1  -4   9   61.59   21.40
   2  -4   9   21.60   39.70
   3  -4   9    0.00   36.40
   4  -4   9   10.30   20.70
  -5  -3   9   61.29   55.99
  -4  -3   9   15.40   16.40
  -3  -3   9   68.99   42.10
  -2  -3   9   18.40   16.90
  -1  -3   9    7.80   10.40
   0  -3   9   48.00   31.10
   1  -3   9   25.40   10.00
   2  -3   9    0.00   15.90
   3  -3   9   34.70   29.30
   4  -3   9    6.40   21.00
   5  -3   9    0.00   47.10
  -5  -2   9    0.00   75.39
  -4  -2   9   14.30   13.50
  -3  -2   9   59.19   32.10
  -2  -2   9   30.80   11.50
  -1  -2   9   37.30    9.20
   0  -2   9   10.40   15.00
   1  -2   9    9.00   14.40
   2  -2   9   17.30   13.40
   3  -2   9   22.50   81.59
   4  -2   9   19.40   15.30
   5  -2   9    0.00   41.10
  -5  -1   9    0.00   38.20
  -4  -1   9    4.60   12.00
  -3  -1   9   18.20   29.40
  -2  -1   9   25.10   11.50
  -1  -1   9   47.50    8.40
   0  -1   9   13.90   13.30
   1  -1   9   59.09    9.20
   2  -1   9  117.49   11.70
   3  -1   9    5.60   22.00
   4  -1   9   40.20   14.20
   5  -1   9   25.00   36.40
   6  -1   9   11.70   30.80
  -5   0   9    0.00   37.50
  -4   0   9   25.70   11.10
  -3   0   9   17.60   57.39
  -2   0   9   41.80   16.30
  -1   0   9  107.49    9.00
   0   0   9  124.79   15.90
   1   0   9   12.30    7.00
   2   0   9   41.80   10.60
   3   0   9    0.00   42.40
   4   0   9   17.00   14.20
   5   0   9  119.79   34.40
   6   0   9   38.20   30.90
  -5   1   9   51.79   36.20
  -4   1   9   39.60   28.50
  -3   1   9   81.39   38.90
  -2   1   9    8.50   11.30
  -1   1   9   38.90    6.70
   0   1   9  128.69   10.50
   1   1   9  113.49    7.50
   2   1   9  224.08   15.20
   3   1   9   85.19   33.60
   4   1   9  119.09   23.40
   5   1   9    6.60   41.20
   6   1   9   16.10   29.10
   7   1   9    0.00   47.10
  -5   2   9   11.20  765.12
  -4   2   9   18.70    9.90
  -3   2   9   94.09  132.79
  -2   2   9  365.46   15.30
  -1   2   9  136.19    7.80
   0   2   9   51.09   11.10
   1   2   9   80.79    6.00
   2   2   9   53.79    6.40
   3   2   9  505.55   23.30
   4   2   9   71.59   15.30
   5   2   9    0.00   38.60
   6   2   9    0.00   32.60
   7   2   9   31.30   34.50
  -5   3   9   47.00   31.40
  -4   3   9   15.00   10.20
  -3   3   9  125.49   24.00
  -2   3   9   67.79   10.10
  -1   3   9   68.49    6.60
   0   3   9  191.28   10.40
   1   3   9   74.69    6.00
   2   3   9  285.57    9.90
   3   3   9   32.00   19.70
   4   3   9  103.49   16.40
   5   3   9    0.00  310.87
   6   3   9   12.70   31.60
   7   3   9    7.10   30.00
  -4   4   9   36.50   26.50
  -3   4   9   36.40  458.45
  -2   4   9   16.50   18.10
  -1   4   9   20.10   10.10
   0   4   9  173.78   10.90
   1   4   9  422.66   12.10
   2   4   9  136.79    8.90
   3   4   9    0.00   27.30
   4   4   9   37.70   11.90
   5   4   9   29.50   41.40
   6   4   9    0.00   28.10
  -4   5   9   28.80   32.40
  -3   5   9    1.90   61.39
  -2   5   9    5.80   19.50
  -1   5   9   71.39   10.30
   0   5   9   85.29   55.29
   1   5   9   13.90   11.30
   2   5   9   33.50    7.20
   3   5   9    0.00   36.30
   4   5   9   34.10   16.10
   5   5   9   39.10   39.30
   6   5   9    0.00   35.40
  -3   6   9   97.59   65.59
  -2   6   9   88.89   29.50
  -1   6   9    4.50   12.70
   0   6   9   48.80   28.90
   1   6   9   13.70   11.40
   2   6   9    7.10   20.70
   3   6   9    0.00   24.90
   4   6   9    2.30   17.10
   5   6   9    0.00   59.59
  -2   7   9   17.00   20.20
  -1   7   9    9.60   19.10
   0   7   9    0.00   41.30
   1   7   9   10.80   12.10
   2   7   9   55.79   18.80
   3   7   9    0.40   52.59
   4   7   9    0.00   24.10
   0   8   9    8.70   30.80
   1   8   9   22.60   15.50
   2   8   9   13.90   25.60
   3   8   9   10.10   18.80
  -2  -5  10   44.00   42.00
  -1  -5  10   19.60   24.30
   0  -5  10  178.78   49.00
   1  -5  10    3.40   31.10
   2  -5  10    8.90   23.30
  -3  -4  10   24.00   75.99
  -2  -4  10   11.20   25.10
  -1  -4  10   48.00   21.70
   0  -4  10   17.50   30.10
   1  -4  10   35.20   31.10
   2  -4  10    6.70   20.90
   3  -4  10    0.00   43.00
   4  -4  10    0.00   51.89
  -4  -3  10   23.30   19.50
  -3  -3  10    0.00   39.10
  -2  -3  10    6.30   23.80
  -1  -3  10   86.99   44.30
   0  -3  10   11.40   28.30
   1  -3  10    0.00   23.20
   2  -3  10    9.00   18.90
   3  -3  10    0.00   35.50
   4  -3  10   25.80   21.40
  -4  -2  10   40.70   23.10
  -3  -2  10   27.30   38.50
  -2  -2  10   22.90   19.50
  -1  -2  10   20.50   15.50
   0  -2  10   11.10   21.20
   1  -2  10   63.59   11.40
   2  -2  10   24.90   14.70
   3  -2  10    0.00   41.70
   4  -2  10   25.40   23.30
   5  -2  10   55.79   46.50
  -4  -1  10    8.40   14.10
  -3  -1  10   20.20   65.49
  -2  -1  10   76.69   20.10
  -1  -1  10   22.70   10.00
   0  -1  10   24.40   18.00
   1  -1  10   28.30   12.70
   2  -1  10   24.70   11.50
   3  -1  10    0.00   33.90
   4  -1  10   16.60   17.30
   5  -1  10  104.49   54.49
   6  -1  10    0.00   55.49
  -5   0  10   17.70   16.70
  -4   0  10   72.09   14.60
  -3   0  10    0.00   32.60
  -2   0  10   18.30   33.50
  -1   0  10    8.30   12.90
   0   0  10   31.60   48.40
   1   0  10    7.90   12.40
   2   0  10   11.70   12.80
   3   0  10    0.00   33.10
   4   0  10    6.00   14.70
   5   0  10   29.20   41.90
   6   0  10   10.20   45.30
  -4   1  10   29.80   12.30
  -3   1  10   23.30   65.09
  -2   1  10   27.50   19.00
  -1   1  10   22.90   15.50
   0   1  10   17.00   20.20
   1   1  10   21.20    8.90
   2   1  10    4.40   12.40
   3   1  10   26.00   45.80
   4   1  10   26.50   14.40
   5   1  10   31.90   35.30
   6   1  10   36.30   33.20
  -4   2  10   11.40   12.70
  -3   2  10  137.59   33.30
  -2   2  10   34.00   17.00
  -1   2  10    7.10    8.70
   0   2  10   33.50   28.30
   1   2  10   39.40    8.00
   2   2  10   10.00    8.70
   3   2  10   41.50   65.39
   4   2  10    5.90   13.20
   5   2  10   49.70   34.40
   6   2  10   14.90   51.59
  -4   3  10   21.40   25.90
  -3   3  10   59.09   62.99
  -2   3  10   22.40   24.10
  -1   3  10   23.90    7.40
   0   3  10  143.29   15.30
   1   3  10  381.96   11.50
   2   3  10    5.50    9.20
   3   3  10    0.00  226.38
   4   3  10   12.60   13.70
   5   3  10   80.49   35.30
   6   3  10   10.00   32.70
  -3   4  10    0.10   64.69
  -2   4  10    5.10   24.00
  -1   4  10   20.50   15.20
   0   4  10   35.40   17.10
   1   4  10  110.49    8.30
   2   4  10    7.20    7.80
   3   4  10    0.00   30.50
   4   4  10   17.20   15.10
   5   4  10   26.80  368.86
   6   4  10    2.00   21.60
  -3   5  10   23.20   69.49
  -2   5  10    3.00   29.60
  -1   5  10   22.10   10.60
   0   5  10    0.00   27.70
   1   5  10    1.20   12.50
   2   5  10    5.20   13.30
   3   5  10    0.00  275.57
   4   5  10    0.40   17.50
   5   5  10   82.09   64.99
  -2   6  10   17.20   21.90
  -1   6  10   16.30   19.40
   0   6  10   36.30   51.89
   1   6  10   68.99   24.10
   2   6  10   15.10   15.90
   3   6  10    0.00   54.79
   4   6  10    0.00   26.60
   5   6  10    0.00   68.69
   0   7  10    4.90   58.09
   1   7  10   23.90   15.80
   2   7  10   31.50   26.10
   3   7  10    0.00   60.09
   4   7  10   35.80   31.70
  -2  -4  11   69.29   66.49
  -1  -4  11    5.10   24.70
   0  -4  11    0.00   49.60
   1  -4  11   85.49   37.30
   2  -4  11   81.69   30.70
  -3  -3  11   20.90   90.69
  -2  -3  11   46.90   40.50
  -1  -3  11    9.60   22.30
   0  -3  11   17.70   41.90
   1  -3  11   18.00   29.00
   2  -3  11   15.40   32.30
   3  -3  11    0.00   51.79
  -3  -2  11   53.09   74.39
  -2  -2  11   60.79   30.40
  -1  -2  11    4.30   18.50
   0  -2  11   44.50   48.00
   1  -2  11    2.20   24.60
   2  -2  11   32.40   20.90
   3  -2  11   36.20   36.40
   4  -2  11   33.00   31.20
  -4  -1  11   31.60   17.70
  -3  -1  11  215.68   68.19
  -2  -1  11   34.90   27.60
  -1  -1  11   80.39   15.80
   0  -1  11    4.20   31.90
   1  -1  11   28.30   20.30
   2  -1  11   46.30   17.30
   3  -1  11    0.00   41.20
   4  -1  11   27.80   20.60
   5  -1  11   77.29   71.79
  -4   0  11   11.00   16.30
  -3   0  11   30.80   39.20
  -2   0  11   32.30   27.70
  -1   0  11   10.50   12.70
   0   0  11    0.00   28.90
   1   0  11   62.29   15.10
   2   0  11   16.40   14.00
   3   0  11    0.00   54.29
   4   0  11    9.80   20.40
   5   0  11  136.19   60.69
  -4   1  11   10.20   14.60
  -3   1  11   63.59   37.80
  -2   1  11   93.19   29.80
  -1   1  11   24.00   12.80
   1   1  11   72.29   20.00
   2   1  11    0.70   13.00
   3   1  11   18.70   37.50
   4   1  11   28.20   17.60
   5   1  11   60.39   52.19
  -3   2  11   10.60   90.89
  -2   2  11    0.00   49.80
  -1   2  11   44.20   13.30
   0   2  11  103.59   25.20
   1   2  11   81.09   10.80
   2   2  11   12.60   12.40
   3   2  11    0.00   52.49
   4   2  11    2.50   16.10
   5   2  11   15.10   50.19
  -3   3  11    0.00  687.13
  -2   3  11   88.69   42.70
  -1   3  11    9.90   10.80
   0   3  11   56.29   34.00
   1   3  11    2.00   13.90
   2   3  11    8.00   11.70
   3   3  11   43.90   38.70
   4   3  11   12.50   15.40
   5   3  11    0.00   41.70
  -2   4  11   71.69   50.39
  -1   4  11   35.50   18.60
   0   4  11   47.70   39.40
   1   4  11   38.80   10.80
   2   4  11    5.90   24.90
   3   4  11    0.00   56.89
   4   4  11   21.90   16.80
   5   4  11   46.30  459.75
  -2   5  11    0.00   27.60
  -1   5  11   39.80   23.00
   0   5  11   69.59   55.89
   1   5  11    2.70   15.10
   2   5  11    1.90   16.40
   3   5  11    0.00   56.89
   4   5  11    1.70   20.60
  -1   6  11   18.60   25.00
   0   6  11    0.00   63.89
   1   6  11   23.00   29.90
   2   6  11   25.60   28.80
   3   6  11    0.00   62.69
  -1  -3  12   37.30   30.50
   0  -3  12    0.00   70.99
   1  -3  12   64.49   51.39
   2  -3  12   40.50   91.49
  -2  -2  12   90.39   51.59
  -1  -2  12   23.40   22.60
   0  -2  12    7.00   47.40
   1  -2  12   13.50   36.80
   2  -2  12   22.00   30.70
   3  -2  12  214.98  152.68
  -2  -1  12   91.49   37.30
  -1  -1  12    0.00   21.00
   0  -1  12   10.60   41.50
   1  -1  12   14.80   25.30
   2  -1  12   27.40   21.20
   3  -1  12    0.00   49.90
   4  -1  12   79.39   28.00
  -2   0  12   64.79   47.90
  -1   0  12    9.00   16.80
   0   0  12   49.80   48.30
   1   0  12   34.70   20.20
   2   0  12   82.09   19.70
   3   0  12    0.00   47.50
   4   0  12   14.20   22.20
  -2   1  12   29.70   39.40
  -1   1  12   77.89   36.40
   0   1  12   24.00   44.10
   1   1  12   22.30   17.10
   2   1  12   16.50   19.80
   3   1  12  109.09   45.60
   4   1  12  105.89   23.50
  -2   2  12   32.70   61.39
  -1   2  12   43.40   15.60
   0   2  12    0.70   46.00
   1   2  12   64.69   13.00
   2   2  12   88.19   20.90
   3   2  12    0.00   44.10
   4   2  12   62.49   20.00
  -2   3  12   40.90   35.60
  -1   3  12    4.00   15.70
   1   3  12   68.49   14.10
   2   3  12    0.00   21.70
   3   3  12   12.20   53.89
   4   3  12   28.10   19.40
  -1   4  12    0.00   42.10
   0   4  12   11.50   66.89
   1   4  12   12.20   15.60
   2   4  12   37.30   26.30
   3   4  12  141.79  413.06
   4   4  12   10.60   22.90
   0   5  12    0.00   73.49
   1   5  12   30.70   33.60
   2   5  12    1.70   29.80
   3   5  12    3.80   32.10
   0  -1  13    0.00  102.99
   1  -1  13    9.90   24.90
   2  -1  13    0.00  128.79
  -1   0  13    0.00   24.90
   0   0  13   27.00   48.40
   1   0  13   43.50   37.60
   2   0  13    6.60   27.90
  -1   1  13    2.40   22.30
   0   1  13  134.39   71.29
   1   1  13   45.40   41.90
   2   1  13  168.18  100.29
   3   1  13   37.60   22.30
  -1   2  13   43.90   23.30
   0   2  13   54.49   41.80
   1   2  13  117.29   24.60
   2   2  13    2.10   27.10
   3   2  13   11.30   22.40
   0   3  13   15.80   82.49
   1   3  13   37.50   22.90
   2   3  13   46.10   27.40
   0   0   0    0.00    0.00


_computing_structure_solution     'SHELXT 2014/5 (Sheldrick, 2014)'
_computing_structure_solution     'SHELXT 2014/5 (Sheldrick, 2014)'
;
_shelx_hkl_checksum              52555
loop_
_space_group_symop_operation_xyz
'x, y, z'
'-x, -y, -z'
loop_
_atom_site_label
_atom_site_type_symbol
_atom_site_fract_x
_atom_site_fract_y
_atom_site_fract_z
_atom_site_U_iso_or_equiv
_atom_site_adp_type
_atom_site_occupancy
_atom_site_site_symmetry_order
_atom_site_calc_flag
_atom_site_refinement_flags_posn
_atom_site_refinement_flags_adp
_atom_site_refinement_flags_occupancy
_atom_site_disorder_assembly
_atom_site_disorder_group
C1 C 0.0308(7) 0.4665(6) 0.7856(5) 0.0522(12) Uani 1 1 d . . . . .
H1 H -0.097613 0.442640 0.773057 0.063 Uiso 1 1 calc R U . . .
C2 C 0.2701(7) 0.5739(5) 0.8394(4) 0.0387(11) Uani 1 1 d . . . . .
C3 C 0.3744(8) 0.6911(5) 0.9043(4) 0.0447(12) Uani 1 1 d . . . . .
C4 C 0.2547(7) 0.2478(6) 0.6527(4) 0.0451(11) Uani 1 1 d . . . . .
N1 N 0.2127(5) 0.3783(4) 0.7376(3) 0.0400(9) Uani 1 1 d . . . . .
N2 N 0.0624(6) 0.5873(5) 0.8506(4) 0.0509(10) Uani 1 1 d . . . . .
N3 N 0.3701(5) 0.4499(4) 0.7710(3) 0.0423(10) Uani 1 1 d . . . . .
N4 N 0.4812(7) 0.1629(6) 0.6522(5) 0.0600(12) Uani 1 1 d . . . . .
N5 N 0.1200(9) 0.0993(6) 0.6861(5) 0.0727(14) Uani 1 1 d D U . . .
O5A O 0.028(7) -0.019(4) 0.731(4) 0.094(3) Uani 0.083(6) 1 d D U P A 1
O6A O 0.015(6) 0.174(5) 0.609(4) 0.090(4) Uani 0.083(6) 1 d D U P A 1
O5B O 0.2124(8) -0.0419(6) 0.6740(5) 0.1036(17) Uani 0.917(6) 1 d D U P A 2
O6B O -0.0225(8) 0.1295(6) 0.7414(6) 0.1035(17) Uani 0.917(6) 1 d D U P A 2
O1 O 0.2720(5) 0.8007(4) 0.9674(3) 0.0648(10) Uani 1 1 d . . . . .
O2 O 0.5714(5) 0.6610(4) 0.8844(3) 0.0578(9) Uani 1 1 d . . . . .
H2 H 0.619644 0.739710 0.909228 0.087 Uiso 1 1 calc R U . . .
O3 O 0.5302(7) 0.0815(6) 0.7506(5) 0.0947(15) Uani 1 1 d . . . . .
O4 O 0.5875(7) 0.1970(6) 0.5524(5) 0.1075(17) Uani 1 1 d . . . . .
N6 N 0.2198(8) 0.3178(7) 0.5114(4) 0.0770(15) Uani 1 1 d . . . . .
O7 O 0.1771(12) 0.2147(7) 0.4445(5) 0.149(3) Uani 1 1 d . . . . .
O8 O 0.2266(7) 0.4698(6) 0.4819(4) 0.0870(13) Uani 1 1 d . . . . .
O9 O 0.7777(5) 0.8439(4) 0.9914(3) 0.0536(9) Uani 1 1 d . . . . .
H9A H 0.900731 0.825526 0.952072 0.080 Uiso 1 1 d R U . . .
H9B H 0.764329 0.957628 0.982869 0.080 Uiso 1 1 d R U . . .
loop_
_atom_site_aniso_label
_atom_site_aniso_U_11
_atom_site_aniso_U_22
_atom_site_aniso_U_33
_atom_site_aniso_U_23
_atom_site_aniso_U_13
_atom_site_aniso_U_12
C1 0.038(3) 0.065(3) 0.052(3) -0.014(3) 0.000(2) -0.002(2)
C2 0.044(3) 0.035(2) 0.034(2) -0.0050(19) -0.003(2) 0.002(2)
C3 0.056(3) 0.031(2) 0.046(3) -0.003(2) -0.007(2) -0.001(2)
C4 0.048(3) 0.044(2) 0.045(3) -0.009(2) -0.005(2) -0.008(2)
N1 0.035(2) 0.045(2) 0.041(2) -0.0127(17) -0.0041(17) -0.0043(17)
N2 0.043(3) 0.061(3) 0.047(2) -0.018(2) -0.0070(19) 0.0069(19)
N3 0.042(2) 0.0377(19) 0.048(2) -0.0127(17) -0.0004(18) -0.0073(17)
N4 0.054(3) 0.057(3) 0.071(3) -0.031(3) 0.002(3) -0.001(2)
N5 0.094(4) 0.050(2) 0.076(3) -0.028(2) 0.028(3) -0.028(3)
O5A 0.106(6) 0.069(5) 0.112(6) -0.018(5) 0.016(6) -0.038(5)
O6A 0.098(7) 0.069(6) 0.108(6) -0.020(6) 0.011(5) -0.035(6)
O5B 0.132(4) 0.070(3) 0.111(4) -0.017(3) 0.006(3) -0.029(3)
O6B 0.097(4) 0.086(3) 0.137(4) -0.023(3) 0.005(3) -0.045(3)
O1 0.065(2) 0.0495(19) 0.082(2) -0.0337(18) -0.0008(19) 0.0011(17)
O2 0.049(2) 0.052(2) 0.078(2) -0.0275(18) -0.0060(18) -0.0092(16)
O3 0.088(3) 0.086(3) 0.098(3) -0.005(3) -0.021(3) 0.027(2)
O4 0.081(3) 0.106(3) 0.124(4) -0.027(3) 0.040(3) -0.006(3)
N6 0.117(4) 0.064(3) 0.049(3) -0.011(3) -0.018(3) 0.000(3)
O7 0.284(8) 0.090(3) 0.085(3) -0.034(3) -0.084(4) -0.003(4)
O8 0.130(4) 0.070(3) 0.057(2) 0.008(2) -0.007(2) -0.018(2)
O9 0.049(2) 0.0429(17) 0.071(2) -0.0188(15) 0.0006(16) -0.0069(14)
loop_
_atom_type_symbol
_atom_type_description
_atom_type_scat_dispersion_real
_atom_type_scat_dispersion_imag
_atom_type_scat_source
C C 0.0033 0.0016 'International Tables Vol C Tables 4.2.6.8 and 6.1.1.4'
H H 0.0000 0.0000 'International Tables Vol C Tables 4.2.6.8 and 6.1.1.4'
N N 0.0061 0.0033 'International Tables Vol C Tables 4.2.6.8 and 6.1.1.4'
O O 0.0106 0.0060 'International Tables Vol C Tables 4.2.6.8 and 6.1.1.4'
loop_
_geom_angle_atom_site_label_1
_geom_angle_atom_site_label_2
_geom_angle_atom_site_label_3
_geom_angle
_geom_angle_site_symmetry_1
_geom_angle_site_symmetry_3
_geom_angle_publ_flag
N2 C1 N1 110.0(4) . . ?
N2 C1 H1 125.0 . . ?
N1 C1 H1 125.0 . . ?
N3 C2 N2 115.3(4) . . ?
N3 C2 C3 123.3(4) . . ?
N2 C2 C3 121.4(4) . . ?
O1 C3 O2 127.0(4) . . ?
O1 C3 C2 119.4(4) . . ?
O2 C3 C2 113.5(4) . . ?
N1 C4 N6 112.4(4) . . ?
N1 C4 N4 109.9(3) . . ?
N6 C4 N4 107.0(4) . . ?
N1 C4 N5 114.9(4) . . ?
N6 C4 N5 104.6(4) . . ?
N4 C4 N5 107.6(4) . . ?
C1 N1 N3 109.7(3) . . ?
C1 N1 C4 130.5(4) . . ?
N3 N1 C4 119.4(3) . . ?
C1 N2 C2 103.6(4) . . ?
C2 N3 N1 101.3(3) . . ?
O3 N4 O4 128.6(5) . . ?
O3 N4 C4 116.5(5) . . ?
O4 N4 C4 114.7(5) . . ?
O6B N5 O5B 126.4(6) . . ?
O6A N5 O5A 102.2(17) . . ?
O6B N5 C4 116.9(5) . . ?
O6A N5 C4 87(2) . . ?
O5B N5 C4 113.9(5) . . ?
O5A N5 C4 170(2) . . ?
C3 O2 H2 109.5 . . ?
O8 N6 O7 127.7(5) . . ?
O8 N6 C4 116.6(4) . . ?
O7 N6 C4 115.6(5) . . ?
H9A O9 H9B 96.7 . . ?
loop_
_geom_bond_atom_site_label_1
_geom_bond_atom_site_label_2
_geom_bond_distance
_geom_bond_site_symmetry_2
_geom_bond_publ_flag
C1 N2 1.282(6) . ?
C1 N1 1.360(5) . ?
C1 H1 0.9300 . ?
C2 N3 1.315(5) . ?
C2 N2 1.360(6) . ?
C2 C3 1.496(6) . ?
C3 O1 1.210(5) . ?
C3 O2 1.288(5) . ?
C4 N1 1.400(5) . ?
C4 N6 1.526(6) . ?
C4 N4 1.542(6) . ?
C4 N5 1.566(6) . ?
N1 N3 1.361(5) . ?
N4 O3 1.183(6) . ?
N4 O4 1.207(6) . ?
N5 O6B 1.053(5) . ?
N5 O6A 1.161(19) . ?
N5 O5B 1.187(6) . ?
N5 O5A 1.215(19) . ?
O2 H2 0.8200 . ?
N6 O8 1.202(5) . ?
N6 O7 1.212(6) . ?
O9 H9A 0.8666 . ?
O9 H9B 0.8768 . ?
loop_
_geom_hbond_atom_site_label_D
_geom_hbond_atom_site_label_H
_geom_hbond_atom_site_label_A
_geom_hbond_distance_DH
_geom_hbond_distance_HA
_geom_hbond_distance_DA
_geom_hbond_angle_DHA
_geom_hbond_site_symmetry_A
_geom_hbond_publ_flag
O2 H2 O9 0.82 1.77 2.558(4) 159.2 . yes
O9 H9A N2 0.87 2.30 2.922(5) 128.9 1_655 yes
O9 H9A O5A^a 0.87 2.57 3.16(3) 125.9 1_665 yes
O9 H9A O1 0.87 2.46 3.229(5) 147.4 1_655 yes
O9 H9B O1 0.88 1.99 2.830(4) 159.6 2_677 yes
