#------------------------------------------------------------------------------
#$Date: 2021-06-04 03:58:57 +0300 (Fri, 04 Jun 2021) $
#$Revision: 265752 $
#$URL: file:///home/coder/svn-repositories/cod/cif/4/51/87/4518717.cif $
#------------------------------------------------------------------------------
#
# This file is available in the Crystallography Open Database (COD),
# http://www.crystallography.net/
#
# All data on this site have been placed in the public domain by the
# contributors.
#
data_4518717
loop_
_publ_author_name
'Sobczak, Szymon'
'Ratajczyk, Paulina'
'Katrusiak, Andrzej'
_publ_section_title
;
 Squeezing Out the Catalysts: A Sustainable Approach to Disulfide Bond
 Exchange in Aryl Disulfides
;
_journal_issue                   20
_journal_name_full               'ACS Sustainable Chemistry &amp; Engineering'
_journal_page_first              7171
_journal_page_last               7178
_journal_paper_doi               10.1021/acssuschemeng.1c02240
_journal_volume                  9
_journal_year                    2021
_chemical_formula_moiety         'C12 H8 Br N O2 S2'
_chemical_formula_sum            'C12 H8 Br N O2 S2'
_chemical_formula_weight         342.22
_space_group_crystal_system      triclinic
_space_group_IT_number           2
_space_group_name_Hall           '-P 1'
_space_group_name_H-M_alt        'P -1'
_atom_sites_solution_hydrogens   geom
_audit_creation_date             2020-09-22
_audit_creation_method
;
Olex2 1.3
(compiled 2020.07.31 svn.rc2a77460 for OlexSys, GUI svn.r6145)
;
_audit_update_record
;
2020-09-23 deposited with the CCDC.	2020-09-24 downloaded from the CCDC.
;
_cell_angle_alpha                77.306(15)
_cell_angle_beta                 82.115(15)
_cell_angle_gamma                74.588(15)
_cell_formula_units_Z            2
_cell_length_a                   7.5012(13)
_cell_length_b                   7.6684(14)
_cell_length_c                   12.370(2)
_cell_measurement_reflns_used    228
_cell_measurement_temperature    299.5(2)
_cell_measurement_theta_max      40.8820
_cell_measurement_theta_min      3.6380
_cell_volume                     666.8(2)
_computing_cell_refinement       'CrysAlisPro 1.171.40.53 (Rigaku OD, 2019)'
_computing_data_collection       'CrysAlisPro 1.171.40.53 (Rigaku OD, 2019)'
_computing_data_reduction        'CrysAlisPro 1.171.40.53 (Rigaku OD, 2019)'
_computing_molecular_graphics    'Olex2 1.3 (Dolomanov et al., 2009)'
_computing_publication_material  'Olex2 1.3 (Dolomanov et al., 2009)'
_computing_structure_refinement  'SHELXL 2018/1 (Sheldrick, 2015)'
_computing_structure_solution    'SHELXT 2014/5 (Sheldrick, 2014)'
_diffrn_ambient_temperature      299.5(2)
_diffrn_detector                 'CCD plate'
_diffrn_detector_area_resol_mean 10.5357
_diffrn_detector_type            Atlas
_diffrn_measured_fraction_theta_full 0.587
_diffrn_measured_fraction_theta_max 0.587
_diffrn_measurement_details
;
List of Runs (angles in degrees, time in seconds):

  # Type    Start    End  Width  t~exp~   \w     \q     \k     \f   Frames
#--------------------------------------------------------------------------
  1  \w    -98.00  -2.00   1.00    6.00    --  -41.73 125.00-180.00   96
  2  \w    -98.00  -2.00   1.00    6.00    --  -41.73 125.00  90.00   96
  3  \w    -30.00  -5.00   1.00    6.00    --   41.73 -57.00 -30.00   25
;
_diffrn_measurement_device       'four-circle diffractometer'
_diffrn_measurement_device_type
'SuperNova, Single source at offset/far, Atlas'
_diffrn_measurement_method       '\w scans'
_diffrn_orient_matrix_type
'CrysAlisPro convention (1999,Acta A55,543-557)'
_diffrn_orient_matrix_UB_11      -0.0141278000
_diffrn_orient_matrix_UB_12      0.0540098000
_diffrn_orient_matrix_UB_13      -0.1266275000
_diffrn_orient_matrix_UB_21      0.1308328000
_diffrn_orient_matrix_UB_22      0.1280169000
_diffrn_orient_matrix_UB_23      -0.0089985000
_diffrn_orient_matrix_UB_31      0.1684907000
_diffrn_orient_matrix_UB_32      -0.1605693000
_diffrn_orient_matrix_UB_33      -0.0172488000
_diffrn_radiation_monochromator  mirror
_diffrn_radiation_probe          x-ray
_diffrn_radiation_type           CuK\a
_diffrn_radiation_wavelength     1.54184
_diffrn_reflns_av_R_equivalents  0.0069
_diffrn_reflns_av_unetI/netI     0.0211
_diffrn_reflns_Laue_measured_fraction_full 0.587
_diffrn_reflns_Laue_measured_fraction_max 0.587
_diffrn_reflns_limit_h_max       6
_diffrn_reflns_limit_h_min       -4
_diffrn_reflns_limit_k_max       4
_diffrn_reflns_limit_k_min       -6
_diffrn_reflns_limit_l_max       10
_diffrn_reflns_limit_l_min       -10
_diffrn_reflns_number            724
_diffrn_reflns_point_group_measured_fraction_full 0.587
_diffrn_reflns_point_group_measured_fraction_max 0.587
_diffrn_reflns_theta_full        42.433
_diffrn_reflns_theta_max         42.433
_diffrn_reflns_theta_min         3.676
_diffrn_source                   'micro-focus sealed X-ray tube'
_diffrn_source_type              'SuperNova (Cu) X-ray Source'
_exptl_absorpt_coefficient_mu    7.080
_exptl_absorpt_correction_T_max  1.00000
_exptl_absorpt_correction_T_min  0.55188
_exptl_absorpt_correction_type   gaussian
_exptl_absorpt_process_details
;
CrysAlisPro 1.171.40.53 (Rigaku Oxford Diffraction, 2019)
Empirical absorption correction using spherical harmonics,
 implemented in SCALE3 ABSPACK scaling algorithm.
;
_exptl_crystal_colour            'clear colourless'
_exptl_crystal_colour_lustre     clear
_exptl_crystal_colour_primary    colourless
_exptl_crystal_density_diffrn    1.704
_exptl_crystal_description       block
_exptl_crystal_F_000             340
_exptl_crystal_size_max          0.07
_exptl_crystal_size_mid          0.07
_exptl_crystal_size_min          0.06
_refine_diff_density_max         0.160
_refine_diff_density_min         -0.173
_refine_diff_density_rms         0.037
_refine_ls_extinction_method     none
_refine_ls_goodness_of_fit_ref   1.145
_refine_ls_hydrogen_treatment    constr
_refine_ls_matrix_type           full
_refine_ls_number_parameters     200
_refine_ls_number_reflns         550
_refine_ls_number_restraints     209
_refine_ls_restrained_S_all      0.973
_refine_ls_R_factor_all          0.0651
_refine_ls_R_factor_gt           0.0473
_refine_ls_shift/su_max          0.000
_refine_ls_shift/su_mean         0.000
_refine_ls_structure_factor_coef Fsqd
_refine_ls_weighting_details
'w=1/[\s^2^(Fo^2^)+(0.0439P)^2^+2.4183P] where P=(Fo^2^+2Fc^2^)/3'
_refine_ls_weighting_scheme      calc
_refine_ls_wR_factor_gt          0.1050
_refine_ls_wR_factor_ref         0.1169
_reflns_Friedel_coverage         0.000
_reflns_number_gt                441
_reflns_number_total             550
_reflns_threshold_expression     'I > 2\s(I)'
_cod_data_source_file            sc1c02240_si_001.cif
_cod_data_source_block           4no2-ss-4br
_cod_depositor_comments
'Adding full bibliography for 4518716--4518724.cif.'
_cod_database_code               4518717
_shelx_shelxl_version_number     2018/1
_chemical_oxdiff_formula         C12BrNO2S2
_chemical_oxdiff_usercomment     01_10
_shelx_space_group_comment
;
The symmetry employed for this shelxl refinement is uniquely defined
by the following loop, which should always be used as a source of
symmetry information in preference to the above space-group names.
They are only intended as comments.
;
_shelx_estimated_absorpt_t_max   0.676
_shelx_estimated_absorpt_t_min   0.637
_reflns_odcompleteness_completeness 21.73
_reflns_odcompleteness_iscentric 1
_reflns_odcompleteness_theta     69.95
_olex2_refinement_description
;
1. Fixed Uiso
 At 1.2 times of:
  All C(H) groups
2. Restrained distances
 O2-O1
 2.2 with sigma of 0.02
 C4'-N1'
 1.35 with sigma of 0.02
 C3'-N1'
 2.3 with sigma of 0.02
 O2'-O1'
 2.2 with sigma of 0.02
 O2'-N1' \\sim O1'-N1' \\sim O2-N1 \\sim O1-N1
 with sigma of 0.02
 N1'-C4' \\sim N1-C4
 with sigma of 0.02
 O2-C5 \\sim O1-C3 \\sim O1'-C3' \\sim O2'-C5'
 with sigma of 0.02
 C5'-N1' \\sim N1'-C3'
 with sigma of 0.02
3. Restrained planarity
 Br1', C5', C2', C1', C6', C3', C4', N1', O1', O2'
 with sigma of 0.1
4. Rigid bond restraints
 O1', N1', O2'
 with sigma for 1-2 distances of 0.01 and sigma for 1-3 distances of 0.01
5. Uiso/Uaniso restraints and constraints
Br1 \\sim N1' \\sim O1' \\sim O2': within 2A with sigma of 0.04 and sigma for
terminal atoms of 0.08 within 2A
O2' \\sim N1' \\sim O1': within 2A with sigma of 0.04 and sigma for terminal
atoms of 0.08 within 2A
Uanis(N1') \\sim Ueq: with sigma of 0.01 and sigma for terminal atoms of 0.02
Uanis(Br1) \\sim Ueq: with sigma of 0.01 and sigma for terminal atoms of 0.02
Uanis(O1') \\sim Ueq: with sigma of 0.01 and sigma for terminal atoms of 0.02
6. Rigid body (RIGU) restrains
 Br1', C4', C5', C3', N1', C6', C2', O1', O2', C1', S1', S1, C1, C2, C6, C3,
 C5, C4, Br1, N1, O2, O1
 with sigma for 1-2 distances of 0.004 and sigma for 1-3 distances of 0.004
7. Others
 Sof(Br1)=Sof(N1')=Sof(O1')=Sof(O2')=1-FVAR(1)
 Sof(Br1')=Sof(N1)=Sof(O2)=Sof(O1)=FVAR(1)
8.a Aromatic/amide H refined with riding coordinates:
 C5'(H5'), C2'(H2'), C3(H3), C2(H2), C6'(H6'), C6(H6), C3'(H3'), C5(H5)
;
_shelx_res_file
;
TITL kom_28_a.res in P-1
    4no2-ss-4br.res
    created by SHELXL-2018/1 at 13:57:12 on 22-Sep-2020
REM Old TITL kom_28 in P1
REM SHELXT solution in P-1
REM R1 0.318, Rweak 0.151, Alpha 0.090, Orientation as input
REM Formula found by SHELXT: C10 S4
CELL 1.54184 7.5012 7.6684 12.3698 77.306 82.115 74.588
ZERR 2 0.0013 0.0014 0.0023 0.015 0.015 0.015
LATT 1
SFAC C H Br N O S
UNIT 24 16 2 2 4 4
DFIX 2.2 O2 O1
DFIX 1.35 C4' N1'
DFIX 2.3 C3' N1'
SADI O2' N1' O1' N1' O2 N1 O1 N1
SADI N1' C4' N1 C4
DFIX 2.2 O2' O1'
SADI O2 C5 O1 C3 O1' C3' O2' C5'
SADI C5' N1' N1' C3'
FLAT Br1' C5' C2' C1' C6' C3' C4' N1' O1' O2'
RIGU Br1' C4' C5' C3' N1' C6' C2' O1' O2' C1' S1' S1 C1 C2 C6 C3 C5 C4 Br1 =
 N1 O2 O1
DELU O1' N1' O2'
SIMU Br1 N1' O1' O2'
SIMU O2' N1' O1'
ISOR 0.01 0.02 N1'
ISOR 0.01 0.02 Br1
ISOR 0.01 0.02 O1'

L.S. 44
PLAN  2
SIZE 0.07 0.06 0.07
TEMP 26.4(2)
CONF
FREE N1' C2'
FREE N1' C3'
FREE N1' C1'
FREE N1' C6'
FREE O2 C5
FREE O1' C3'
FREE O1 C3
FREE O2' C4'
FREE O2' C5'
FREE Br1 O2
FREE Br1 O1
list 4
MORE -1
BOND $H
fmap 2 53
ACTA
OMIT 1 0 0
OMIT 2 -3 6
REM <olex2.extras>
REM <HklSrc "%.\\4NO2-SS-4Br.hkl">
REM </olex2.extras>

WGHT    0.043900    2.418300
FVAR       0.74165   0.61099
PART 2
BR1'  3    0.283533    0.929657   -0.122566    21.00000    0.12453    0.09818 =
         0.12682   -0.01059   -0.00288   -0.02783
PART 0
S1'   6    0.182323    0.167889    0.196202    11.00000    0.11815    0.08710 =
         0.12354   -0.02109   -0.02705   -0.03714
S1    6    0.032561    0.225691    0.337442    11.00000    0.08458    0.12858 =
         0.13197   -0.00542   -0.00598   -0.04974
PART 1
BR1   3    0.574249    0.289938    0.683933   -21.00000    0.17630    0.10978 =
         0.12863   -0.01455   -0.05499   -0.02272
PART 0
C5'   1    0.279768    0.541054   -0.067158    11.00000    0.11120    0.09287 =
         0.07760   -0.02637   -0.02470   -0.02625
AFIX  43
H5'   2    0.317137    0.538739   -0.141798    11.00000   -1.20000
AFIX   0
C2'   1    0.168963    0.542889    0.155020    11.00000    0.09729    0.10393 =
         0.07415   -0.02031   -0.00715   -0.03827
AFIX  43
H2'   2    0.132849    0.545429    0.229761    11.00000   -1.20000
AFIX   0
C1    1    0.194622    0.235020    0.425762    11.00000    0.06657    0.07051 =
         0.09599   -0.01664    0.01570   -0.01659
C1'   1    0.199951    0.379702    0.114093    11.00000    0.07866    0.09166 =
         0.09686   -0.01738   -0.03017   -0.01863
C4    1    0.414202    0.263421    0.574896    11.00000    0.07873    0.07221 =
         0.07847   -0.02329    0.01033   -0.01874
C3    1    0.235095    0.263743    0.608124    11.00000    0.08193    0.11768 =
         0.07629   -0.00497    0.01531   -0.01966
AFIX  43
H3    2    0.187338    0.271282    0.680873    11.00000   -1.20000
AFIX   0
C2    1    0.126755    0.252628    0.531263    11.00000    0.06848    0.12484 =
         0.09974   -0.02285    0.01818   -0.01879
AFIX  43
H2    2    0.001844    0.257279    0.551873    11.00000   -1.20000
AFIX   0
C6'   1    0.254590    0.386090    0.004979    11.00000    0.09522    0.08132 =
         0.10187   -0.02197   -0.03328   -0.02206
AFIX  43
H6'   2    0.276323    0.278112   -0.022535    11.00000   -1.20000
AFIX   0
C6    1    0.377306    0.231931    0.393767    11.00000    0.07463    0.11345 =
         0.06950   -0.01778    0.01578   -0.03513
AFIX  43
H6    2    0.425103    0.220928    0.321454    11.00000   -1.20000
AFIX   0
C3'   1    0.194161    0.702429    0.079628    11.00000    0.08033    0.08655 =
         0.08180   -0.02973   -0.00841   -0.01201
AFIX  43
H3'   2    0.172205    0.812524    0.104842    11.00000   -1.20000
AFIX   0
C4'   1    0.249037    0.699266   -0.027593    11.00000    0.09048    0.08345 =
         0.07893   -0.02060   -0.00417   -0.02027
C5    1    0.490911    0.245270    0.469593    11.00000    0.06597    0.09699 =
         0.08483   -0.03292    0.01676   -0.02183
AFIX  43
H5    2    0.615698    0.241988    0.449530    11.00000   -1.20000
AFIX   0
PART 1
N1'   4    0.276119    0.847867   -0.098204   -21.00000    0.06185    0.08362 =
         0.08007   -0.01316   -0.00552   -0.00616
PART 2
N1    4    0.524089    0.274146    0.648182    21.00000    0.08707    0.10822 =
         0.10051   -0.05083    0.00387   -0.01453
O2    5    0.700315    0.254186    0.622279    21.00000    0.07970    0.17532 =
         0.10866   -0.06372    0.00077   -0.01337
PART 1
O1'   5    0.246601    0.998640   -0.063349   -21.00000    0.19664    0.10868 =
         0.13074   -0.04255    0.01203   -0.05527
PART 2
O1    5    0.457166    0.297835    0.746794    21.00000    0.12090    0.20585 =
         0.11615   -0.08574    0.02410   -0.03199
PART 1
O2'   5    0.322608    0.847215   -0.201746   -21.00000    0.14811    0.15199 =
         0.08989   -0.03433    0.02761   -0.05115
HKLF 4




REM  kom_28_a.res in P-1
REM R1 =  0.0473 for     441 Fo > 4sig(Fo)  and  0.0651 for all     550 data
REM    200 parameters refined using    209 restraints

END

WGHT      0.0442      2.4124

REM Highest difference peak  0.160,  deepest hole -0.173,  1-sigma level  0.037
Q1    1   0.2643  0.8782 -0.2322  11.00000  0.05    0.16
Q2    1   0.1378  0.9785 -0.0482  11.00000  0.05    0.14
;
_shelx_res_checksum              10577
_shelx_hkl_file
;
  -4  -5  -7   11.95    3.54
  -4  -5   0    4.69    3.61
  -4  -5   1   19.69    3.62
  -4  -5   2   35.75    3.70
  -4  -5   3   14.41    4.08
  -4  -4  -8   37.05    5.32
  -4  -3  -9   40.85    4.58
  -4  -3  -8   15.07    4.78
  -4  -2  -9   15.02    3.71
  -4  -2  -8    8.02    4.17
  -4  -1  -8   29.08    3.98
  -3  -6   0   51.39    3.50
  -3  -6   1   25.17    3.90
  -3  -5  -8    2.45    3.88
  -3  -5  -7    1.57    4.28
  -3  -5  -6    7.32    4.24
  -3  -5  -1  216.02    4.79
  -3  -5   0  124.35    4.55
  -3  -5   1   -0.09    2.51
  -3  -5   2   -4.30    3.49
  -3  -5   3   57.34    4.18
  -3  -5   4    3.69    3.91
  -3  -4  -9  -10.86    4.12
  -3  -4  -8    7.64    4.52
  -3  -4  -7   80.53    4.94
  -3  -4  -2  317.99    4.25
  -3  -4  -1  481.21    5.62
  -3  -4   6   13.46    5.32
  -3  -3  -9    2.12    3.63
  -3  -3  -8   35.16    5.52
  -3  -2 -10   -0.40    2.87
  -3  -2  -9   48.70    5.86
  -3  -2  -8   55.61    6.08
  -3  -1  -9    7.75    3.25
  -3  -1  -8   18.89    4.36
  -3   0  -7   -0.68    2.32
  -2  -6  -1    4.22    1.84
  -2  -6   0   11.20    2.64
  -2  -6   1   12.20    3.43
  -2  -6   2   -3.56    3.43
  -2  -5  -8   28.30    4.11
  -2  -5  -7  110.43    4.12
  -2  -5  -6   65.83    3.76
  -2  -5  -5   70.24    3.59
  -2  -5  -4   -0.73    2.44
  -2  -5  -2   47.72    2.98
  -2  -5  -1    4.10    2.93
  -2  -5   0    5.65    3.34
  -2  -5   1   74.74    4.69
  -2  -5   2   62.61    4.37
  -2  -5   3   95.35    5.71
  -2  -5   4    0.96    4.98
  -2  -4  -9  129.71    5.43
  -2  -4  -8   12.23    4.42
  -2  -4  -7   40.43    4.28
  -2  -4  -6   19.70    4.48
  -2  -4  -5   53.09    4.54
  -2  -4  -3   -0.26    1.46
  -2  -4  -2   49.55    2.74
  -2  -4  -1  182.17    4.50
  -2  -4   0  177.34    4.70
  -2  -4   1  194.65    5.24
  -2  -4   2   45.67    4.85
  -2  -4   3   16.52    4.92
  -2  -4   4    8.68    5.39
  -2  -4   5   83.30    6.84
  -2  -4   6   80.65    5.91
  -2  -3  -9    2.23    4.18
  -2  -3  -8  343.07    7.84
  -2  -3  -7    4.45    5.62
  -2  -3  -6  146.12    6.63
  -2  -3  -3   78.25    1.93
  -2  -3  -2   88.91    2.58
  -2  -3   7   14.69    5.60
  -2  -2  -9  130.78    5.28
  -2  -2  -8    5.18    5.37
  -2  -2  -7    7.02    5.16
  -2  -2  -3   55.55    1.03
  -2  -1  -9   96.23    4.58
  -2  -1  -8   75.58    4.17
  -2  -1  -7   10.44    4.90
  -2   0  -8   29.24    3.33
  -2   0  -7   -0.89    2.97
  -2   0  -6  142.80    4.54
  -2   1  -5    2.39    1.95
  -1  -6  -2   90.03    3.62
  -1  -6  -1   32.92    2.57
  -1  -6   0    7.54    3.21
  -1  -6   1   27.97    4.55
  -1  -6   2   29.58    4.09
  -1  -5  -3   35.24    2.94
  -1  -5  -2   80.81    3.69
  -1  -5  -1   17.65    3.55
  -1  -5   0  484.24    6.88
  -1  -5   1  261.48    6.32
  -1  -5   2  114.80    5.24
  -1  -5   3   -3.06    4.21
  -1  -5   4    9.27    4.59
  -1  -5   5   31.57    5.36
  -1  -4  -7    3.74    3.84
  -1  -4  -6  116.91    4.74
  -1  -4  -5    0.02    3.06
  -1  -4  -4  180.82    4.43
  -1  -4  -4  178.05    3.09
  -1  -4  -3    2.15    2.25
  -1  -4  -3    1.51    2.70
  -1  -4  -2   94.33    2.94
  -1  -4  -2   99.76    3.69
  -1  -4  -1  142.23    4.21
  -1  -4   0  335.13    5.78
  -1  -4   1  158.55    5.65
  -1  -4   2  146.21    6.26
  -1  -4   3   14.63    4.95
  -1  -4   4   15.56    4.65
  -1  -4   5   21.64    5.50
  -1  -4   6   -4.36    4.69
  -1  -4   7    3.31    6.27
  -1  -3  -7  140.50    5.86
  -1  -3  -6   48.08    4.85
  -1  -3  -5  317.54    6.55
  -1  -3  -4  374.22    2.91
  -1  -3  -4  371.10    6.25
  -1  -3  -3 1092.84    5.82
  -1  -3  -2   88.55    3.15
  -1  -3  -1 1250.06    7.64
  -1  -3   0   29.57    4.16
  -1  -3   1  777.87    7.69
  -1  -3   2  272.00    6.45
  -1  -3   3  246.70    7.12
  -1  -3   4  161.90    6.96
  -1  -3   5   82.32    6.13
  -1  -3   6  160.11    6.48
  -1  -3   7  -17.25    5.70
  -1  -3   8   27.12    5.43
  -1  -2  -8   58.00    5.19
  -1  -2  -7   66.12    5.24
  -1  -2  -6  201.92    6.59
  -1  -2  -5  393.79    7.44
  -1  -2  -3  256.03    1.89
  -1  -2  -2  366.30    3.02
  -1  -2  -1  967.06    5.13
  -1  -2   8  121.05    6.64
  -1  -1  -7  412.26    6.97
  -1  -1  -6  386.92    6.74
  -1  -1  -5  419.65    6.95
  -1   0  -6   15.20    3.46
  -1   0  -5  233.36    4.91
  -1   0  -4   78.28    3.72
  -1   1  -5   12.07    2.07
  -1   1  -4 1166.93    5.84
  -1   1  -3   38.58    2.07
   0  -6  -3   30.32    3.42
   0  -6  -2    2.59    2.99
   0  -6  -1   21.16    3.62
   0  -6   0   31.15    4.62
   0  -6   1   94.62    5.30
   0  -5  -4   22.26    2.83
   0  -5  -3   87.70    4.18
   0  -5  -2   -0.43    3.63
   0  -5  -1   -0.14    3.60
   0  -5   0   19.03    4.48
   0  -5   1   12.02    4.03
   0  -5   2    4.07    3.55
   0  -5   3   23.18    4.08
   0  -5   4   45.32    5.08
   0  -5   5   17.04    4.58
   0  -4  -5    3.22    1.67
   0  -4  -4   15.27    2.39
   0  -4  -3   33.39    3.38
   0  -4  -2  131.81    4.36
   0  -4  -1   83.12    4.68
   0  -4   0  387.42    6.67
   0  -4   1 1063.76    9.93
   0  -4   2  383.66    7.56
   0  -4   3  287.43    6.92
   0  -4   4   28.56    5.46
   0  -4   5    5.29    4.61
   0  -4   6   30.90    3.93
   0  -4   7   35.01    6.56
   0  -3  -5   91.76    2.48
   0  -3  -4   72.59    2.64
   0  -3  -3    9.55    2.47
   0  -3  -3   17.04    2.86
   0  -3  -2   23.93    3.30
   0  -3  -2   23.47    1.94
   0  -3  -1  241.77    3.62
   0  -3  -1  238.46    4.95
   0  -3   0    2.54    4.51
   0  -3   0    0.95    2.07
   0  -3   1  453.97    7.06
   0  -3   1  446.01    3.71
   0  -3   2  846.04    9.03
   0  -3   2  846.10    4.55
   0  -3   3  740.69    9.01
   0  -3   4   25.97    5.41
   0  -3   5  154.39    6.07
   0  -3   6  110.71    5.79
   0  -3   7   -2.73    4.12
   0  -2  -5    3.62    4.56
   0  -2  -4   50.71    2.04
   0  -2  -4   49.59    4.04
   0  -2  -3  925.15    4.90
   0  -2  -3  925.00    6.50
   0  -2  -2   46.25    2.55
   0  -2  -2   40.39    2.66
   0  -2  -1  194.30    3.75
   0  -2  -1  197.57    2.46
   0  -2  -1  195.97    3.06
   0  -2   0 4866.65    9.38
   0  -2   0 4869.18    5.61
   0  -2   0 4869.92   12.42
   0  -2   1 9988.47   19.56
   0  -2   1 9999.00   12.16
   0  -2   2  176.84    5.15
   0  -2   2  168.72    1.91
   0  -2   3  692.43    7.25
   0  -2   3  691.62    3.33
   0  -2   4   59.86    4.80
   0  -2   4   63.19    1.42
   0  -2   5  407.78    6.98
   0  -2   6   89.10    5.54
   0  -2   7   32.46    4.78
   0  -1  -5   17.18    4.46
   0  -1  -4    2.21    3.57
   0  -1  -3  778.16    5.92
   0  -1  -2 1981.52    4.71
   0  -1  -2 1978.19    7.18
   0  -1  -1  254.59    2.21
   0  -1  -1  255.35    2.30
   0  -1  -1  253.82    2.13
   0  -1   0   60.18    2.06
   0  -1   0   58.75    1.19
   0  -1   1  396.62    1.90
   0  -1   2  364.66    2.09
   0  -1   3  220.64    2.11
   0  -1   6   12.46    1.53
   0  -1   7    7.18    4.07
   0   0  -3   19.66    2.75
   0   0  -2   27.59    1.89
   0   0  -1   53.80    0.90
   1  -6  -3    4.80    3.48
   1  -6  -2   22.74    3.02
   1  -6  -1   56.17    3.25
   1  -5  -4   35.24    3.96
   1  -5  -3  167.34    5.58
   1  -5  -2   98.45    4.54
   1  -5  -1   62.43    4.71
   1  -5   0   -2.71    3.37
   1  -5   1  250.96    6.57
   1  -5   2  126.07    5.43
   1  -5   3   27.53    3.69
   1  -5   4   40.99    5.30
   1  -4  -5   32.04    2.81
   1  -4  -4   16.72    3.40
   1  -4  -3   61.61    3.94
   1  -4  -2   15.17    4.16
   1  -4  -2    7.48    3.13
   1  -4  -1   26.55    3.10
   1  -4  -1   32.71    4.55
   1  -4   0  519.68    7.68
   1  -4   0  502.37    5.76
   1  -4   1   34.08    2.34
   1  -4   1   29.86    4.98
   1  -4   2    0.39    4.69
   1  -4   2   -0.06    1.46
   1  -4   3    9.19    4.58
   1  -4   4   10.66    4.27
   1  -4   5   19.45    4.87
   1  -4   6    2.05    3.36
   1  -3  -5   29.97    2.80
   1  -3  -4 1293.89    8.86
   1  -3  -3  179.25    5.07
   1  -3  -3  181.56    4.61
   1  -3  -2   15.10    3.92
   1  -3  -2   10.50    4.30
   1  -3  -1  221.47    5.55
   1  -3  -1  235.59    4.58
   1  -3   0 1230.50    9.60
   1  -3   0 1247.62    7.64
   1  -3   1    7.64    5.46
   1  -3   1    8.49    2.38
   1  -3   2  414.17    7.51
   1  -3   2  410.00    4.30
   1  -3   3   54.73    2.30
   1  -3   3   55.87    5.54
   1  -3   4   20.75    4.99
   1  -3   5   99.90    5.06
   1  -3   6   13.18    3.66
   1  -3   7    2.51    3.59
   1  -2  -4  127.97    3.70
   1  -2  -3   28.75    3.71
   1  -2  -3   26.31    3.33
   1  -2  -2  576.26    5.43
   1  -2  -2  574.16    5.69
   1  -2  -1 1756.39    8.65
   1  -2  -1 1738.11    7.80
   1  -2   0    8.63    2.93
   1  -2   0    7.05    4.08
   1  -2   1    9.57    4.17
   1  -2   1    8.77    2.53
   1  -2   2   -1.23    4.25
   1  -2   2   -0.01    2.13
   1  -2   3  222.97    3.21
   1  -2   3  222.07    5.37
   1  -2   4  241.00    5.43
   1  -2   4  250.83    3.31
   1  -2   5   23.68    1.72
   1  -2   5   24.74    3.99
   1  -2   6   24.99    3.77
   1  -2   7   -1.21    2.61
   1  -1  -3   18.11    2.93
   1  -1  -2   50.23    2.89
   1  -1  -2   53.53    2.91
   1  -1  -1 7663.75   12.94
   1  -1  -1 7666.65   12.08
   1  -1   0  170.30    2.70
   1  -1   0  164.50    3.34
   1  -1   1  275.75    3.81
   1  -1   1  270.07    3.20
   1  -1   2   38.92    2.25
   1  -1   2   38.66    3.03
   1  -1   3   32.55    3.01
   1  -1   3   28.90    2.31
   1  -1   4 1095.83    5.99
   1  -1   4 1096.29    6.93
   1  -1   5   14.59    2.30
   1  -1   5   13.05    3.03
   1  -1   6  129.49    3.14
   1  -1   6  128.87    3.74
   1  -1   7    4.58    1.31
   1   0  -2  795.40    3.60
   1   0  -1  679.12    2.95
   1   0   0  102.45    1.79
   1   0   0  100.72    1.66
   1   0   1    9.52    1.25
   1   0   1    7.89    1.51
   1   0   2  454.37    2.61
   1   0   3  237.56    2.38
   1   0   4   75.16    2.13
   1   0   5  259.70    3.20
   1   0   6   23.52    1.99
   2  -5  -5   42.41    3.82
   2  -5  -4    5.76    2.87
   2  -5  -3    2.16    3.64
   2  -5  -2   21.39    3.58
   2  -5  -1   -0.52    3.77
   2  -5  -1    4.30    2.86
   2  -5   0    9.73    4.03
   2  -5   0    7.82    2.47
   2  -5   1   -2.16    3.73
   2  -5   2   19.30    3.13
   2  -4  -5   99.27    5.22
   2  -4  -4    5.51    3.95
   2  -4  -3   24.07    3.16
   2  -4  -3   19.88    4.60
   2  -4  -2   12.89    4.17
   2  -4  -2   17.98    3.14
   2  -4  -1    4.94    4.76
   2  -4  -1    7.45    3.22
   2  -4   0   85.50    5.71
   2  -4   0   92.55    4.12
   2  -4   1    3.54    2.65
   2  -4   1    4.47    4.71
   2  -4   2    0.55    1.67
   2  -4   2    2.96    3.75
   2  -4   3   -0.94    4.56
   2  -4   4   62.64    5.01
   2  -4   5   -0.87    3.20
   2  -3  -4   20.99    4.27
   2  -3  -4   23.00    4.20
   2  -3  -3   26.03    4.20
   2  -3  -3   20.98    4.33
   2  -3  -2    4.54    4.64
   2  -3  -2    5.96    4.05
   2  -3  -1   47.36    5.29
   2  -3  -1   47.19    4.02
   2  -3   0    3.58    3.40
   2  -3   0    7.25    5.50
   2  -3   1   20.68    3.14
   2  -3   1   18.97    5.53
   2  -3   2  198.31    6.18
   2  -3   2  180.44    4.16
   2  -3   3  678.39    8.44
   2  -3   3  684.96    6.53
   2  -3   4   38.92    3.97
   2  -3   4   42.02    2.41
   2  -3   5   29.06    3.57
   2  -3   6    8.86    1.52
   2  -2  -4    3.81    3.86
   2  -2  -4    5.76    3.85
   2  -2  -3   18.11    4.18
   2  -2  -3   25.01    4.58
   2  -2  -2  241.81    5.74
   2  -2  -2  248.02    5.19
   2  -2  -1  463.79    6.72
   2  -2  -1  451.25    5.72
   2  -2   0   67.04    5.22
   2  -2   0   70.69    4.13
   2  -2   1    7.31    3.47
   2  -2   1   10.74    4.41
   2  -2   2  152.66    4.95
   2  -2   2  156.57    4.09
   2  -2   3  407.47    6.30
   2  -2   3  406.51    5.02
   2  -2   4  105.41    4.59
   2  -2   4  103.15    3.45
   2  -2   5  781.33    7.57
   2  -2   5  776.10    6.79
   2  -2   6    1.64    1.58
   2  -2   6   -0.38    2.49
   2  -1  -4    5.08    3.00
   2  -1  -3   54.87    3.52
   2  -1  -2  533.45    6.25
   2  -1  -2  532.26    5.27
   2  -1  -1  107.49    4.40
   2  -1  -1  102.26    3.85
   2  -1   0  312.33    4.72
   2  -1   0  317.57    4.41
   2  -1   1  705.63    6.01
   2  -1   1  701.11    5.69
   2  -1   2  615.09    5.63
   2  -1   2  625.33    5.40
   2  -1   3  357.39    4.52
   2  -1   3  359.28    4.82
   2  -1   4  164.09    3.50
   2  -1   4  165.82    3.89
   2  -1   5   -0.10    2.95
   2  -1   5    4.37    2.47
   2  -1   6  252.31    4.52
   2  -1   7   32.73    2.42
   2   0  -3  905.83    5.23
   2   0  -2  228.09    3.05
   2   0  -1 1244.76    5.72
   2   0   0 1907.05    7.49
   2   0   0 1907.16    7.08
   2   0   1 7080.94   12.66
   2   0   1 7082.35   13.25
   2   0   2 3603.17    8.68
   2   0   2 3600.38   10.40
   2   0   3  445.77    3.52
   2   0   3  449.97    5.00
   2   0   4  942.03    4.70
   2   0   4  931.84    6.98
   2   0   5  107.31    2.16
   2   0   5  117.52    4.22
   2   0   6  145.49    4.37
   2   0   7    1.62    3.26
   2   0   8   37.00    3.81
   2   0   9    8.25    3.67
   2   1  -2   12.28    1.19
   2   1  -1   14.38    1.65
   2   1   0 1878.69    6.14
   2   1   1  164.43    3.00
   2   1  10    3.18    2.84
   2   2  -1  131.24    1.11
   3  -4  -4    6.83    4.20
   3  -4  -3   22.15    3.87
   3  -4  -3   24.59    4.35
   3  -4  -2   40.26    5.34
   3  -4  -2   53.63    4.50
   3  -4  -1   16.35    3.77
   3  -4  -1   13.40    4.87
   3  -4   0   -0.57    4.44
   3  -4   0    0.54    3.06
   3  -4   1   70.40    4.81
   3  -4   1   63.16    3.89
   3  -4   2   39.99    4.28
   3  -4   2   32.45    3.43
   3  -4   3    8.02    4.68
   3  -4   3    4.95    2.75
   3  -4   4   47.26    3.87
   3  -3  -4    9.51    3.89
   3  -3  -4    1.30    3.62
   3  -3  -3  236.63    5.66
   3  -3  -3  227.99    6.41
   3  -3  -2  191.80    6.26
   3  -3  -2  213.30    5.36
   3  -3  -1   63.79    5.20
   3  -3  -1   63.22    4.52
   3  -3   0    3.48    3.52
   3  -3   0    5.01    4.95
   3  -3   1    8.33    4.41
   3  -3   1    8.51    3.15
   3  -3   2    5.34    4.37
   3  -3   2    0.91    3.23
   3  -3   3   22.56    3.79
   3  -3   3   19.59    2.81
   3  -3   4   65.40    3.78
   3  -3   4   57.10    3.82
   3  -3   5    7.90    1.94
   3  -3   5    2.10    3.14
   3  -2  -4  217.57    5.26
   3  -2  -3   92.13    5.25
   3  -2  -3   94.57    4.74
   3  -2  -2  255.63    6.71
   3  -2  -2  255.00    5.80
   3  -2  -1   43.78    5.65
   3  -2  -1   41.36    4.42
   3  -2   0  419.71    7.23
   3  -2   0  424.25    6.48
   3  -2   1   54.60    5.14
   3  -2   1   57.76    4.55
   3  -2   2   70.74    5.27
   3  -2   2   75.79    3.91
   3  -2   3   61.31    4.54
   3  -2   3   64.88    3.87
   3  -2   4   85.96    3.67
   3  -2   4   85.12    3.63
   3  -2   5  233.64    4.79
   3  -2   5  233.96    5.19
   3  -2   6   17.41    2.43
   3  -1  -4  624.72    6.72
   3  -1  -3   13.66    3.65
   3  -1  -2  394.08    5.62
   3  -1  -1   19.58    5.29
   3  -1  -1   15.88    4.03
   3  -1   0  430.76    6.35
   3  -1   0  414.17    5.87
   3  -1   1   58.41    4.18
   3  -1   1   61.37    4.72
   3  -1   2   78.52    3.99
   3  -1   2   86.24    4.55
   3  -1   3  104.70    3.55
   3  -1   3   94.14    4.52
   3  -1   4    6.03    3.59
   3  -1   4    5.52    2.90
   3  -1   5   75.95    3.01
   3  -1   5   77.21    3.44
   3  -1   6    1.65    3.00
   3  -1   7   37.84    3.45
   3  -1   8   36.56    3.09
   3   0  -4   16.46    2.25
   3   0  -3  597.29    5.34
   3   0  -2    6.39    2.76
   3   0  -1  435.57    5.17
   3   0   0   87.78    3.85
   3   0   1  375.32    5.09
   3   0   1  380.13    5.45
   3   0   2    4.75    3.93
   3   0   2    3.02    2.82
   3   0   3   89.61    2.67
   3   0   3   83.91    4.92
   3   0   4 1236.93    6.61
   3   0   4 1242.45    9.10
   3   0   5   53.41    4.59
   3   0   6   16.50    4.14
   3   0   7    0.54    3.77
   3   0   8   45.61    3.63
   3   0   9   -4.43    2.82
   3   1  -3   97.33    2.13
   3   1  -2   13.58    1.77
   3   1  -1  619.48    4.76
   3   1   0    9.49    2.85
   3   1   1  161.97    3.96
   3   1   2  176.88    4.57
   3   1   3  237.65    5.23
   3   1   4  782.12    8.06
   3   1   5   34.18    5.22
   3   1   6  388.98    7.04
   3   1   7  316.77    6.73
   3   1   8   30.03    4.38
   3   1   9    7.33    3.57
   3   1  10   -0.46    4.45
   3   2  -1   31.52    1.51
   3   2   0   23.67    2.30
   3   2   1   40.95    2.96
   3   2  10    4.51    4.78
   3   3   1   32.06    2.28
   4  -3  -4    9.19    3.19
   4  -3  -3   22.20    3.67
   4  -3  -2    8.26    4.10
   4  -3  -2    3.95    4.96
   4  -3  -1   20.37    3.74
   4  -3  -1   15.68    3.93
   4  -3   0   18.34    3.53
   4  -3   0   12.17    4.09
   4  -3   1    8.72    3.81
   4  -3   1    2.98    2.29
   4  -3   2   24.39    2.94
   4  -3   2   31.01    4.42
   4  -3   3    8.74    2.54
   4  -3   3    7.89    2.15
   4  -3   4   74.51    4.33
   4  -3   4   78.47    4.62
   4  -2  -4   -1.55    3.42
   4  -2  -3   19.02    3.28
   4  -2  -2    3.21    3.14
   4  -2  -1   39.99    4.21
   4  -2  -1   36.00    4.92
   4  -2   0   89.74    4.98
   4  -2   0  102.87    4.54
   4  -2   1    6.52    3.18
   4  -2   1    4.01    4.15
   4  -2   2   43.21    4.46
   4  -2   2   46.62    3.63
   4  -2   3   30.26    3.48
   4  -2   3   29.58    3.94
   4  -2   4    0.18    3.20
   4  -2   4    6.64    3.90
   4  -2   5   45.13    3.61
   4  -2   6   35.99    4.16
   4  -1  -4   12.32    2.79
   4  -1  -3   15.63    3.45
   4  -1  -2  104.87    4.60
   4  -1  -1   60.16    4.91
   4  -1   0   17.57    4.81
   4  -1   0   14.01    5.07
   4  -1   1   39.97    4.58
   4  -1   1   40.13    4.96
   4  -1   2    5.04    4.22
   4  -1   2    5.87    3.92
   4  -1   3  171.52    4.35
   4  -1   3  164.90    5.36
   4  -1   4   32.08    4.03
   4  -1   4   22.27    2.78
   4  -1   5  188.55    5.52
   4  -1   6    2.06    3.17
   4  -1   7    1.32    2.85
   4   0  -3   -1.37    2.73
   4   0  -2  355.92    5.89
   4   0  -1   32.63    4.12
   4   0   0  419.39    6.36
   4   0   1  640.39    7.62
   4   0   2  796.61    8.39
   4   0   3  158.56    3.78
   4   0   3  152.16    5.49
   4   0   4   63.96    4.75
   4   0   5   42.33    4.65
   4   0   6    6.28    3.61
   4   0   7   -2.94    2.64
   4   0   8    5.37    3.52
   4   1  -2   17.71    2.45
   4   1  -1   14.91    3.02
   4   1   0  187.97    4.45
   4   1   1    3.87    3.76
   4   1   2    2.31    4.27
   4   1   3 1085.89    9.28
   4   1   4  436.94    7.58
   4   1   5   32.60    4.94
   4   1   6    9.25    4.66
   4   1   7   30.90    4.66
   4   1   8   39.16    4.40
   4   1   9    9.05    3.01
   4   2   0  118.50    3.79
   4   2   1  174.59    4.36
   4   2   2   38.39    4.28
   4   2   3  182.63    5.65
   4   2   4    3.69    4.73
   4   2   5    3.56    4.83
   4   2   6    4.80    4.76
   4   2   7    4.83    3.83
   4   2   8    7.19    4.42
   4   2   9   30.45    4.74
   4   3   2  406.44    5.68
   4   3   3    5.54    4.05
   4   3   4   67.26    4.90
   4   3   9   54.86    4.48
   4   4   3    0.50    2.79
   5  -2  -4    5.85    4.42
   5  -2  -3   16.74    4.62
   5  -2  -2   28.35    3.06
   5  -2  -1   34.95    4.46
   5  -2   0   93.29    4.58
   5  -2   1    1.50    5.38
   5  -2   1    3.08    3.52
   5  -2   2   23.45    3.92
   5  -2   2    5.02    2.51
   5  -2   3    5.04    1.91
   5  -1  -3   48.11    4.43
   5  -1  -2   -0.70    4.15
   5  -1  -1   99.66    4.73
   5  -1   0   23.58    3.30
   5  -1   1    0.82    4.27
   5  -1   2    8.02    4.03
   5  -1   3   18.73    3.60
   5  -1   4   -2.27    3.78
   5  -1   5    9.66    2.62
   5   0  -2  202.63    5.33
   5   0  -1   32.97    3.89
   5   0   0   17.84    3.62
   5   0   1    1.74    4.00
   5   0   2   36.04    3.82
   5   0   3   76.07    4.41
   5   0   4   45.37    4.62
   5   0   5   47.41    4.55
   5   0   6   18.09    4.27
   5   0   7   23.08    3.75
   5   1  -1    3.66    2.53
   5   1   0   26.81    3.89
   5   1   1   10.98    3.60
   5   1   2   68.18    4.14
   5   1   3    1.92    3.78
   5   1   4   91.75    5.51
   5   1   5   64.89    4.85
   5   1   6   47.09    4.86
   5   1   7   17.61    4.23
   5   2   1   55.79    4.15
   5   2   2   22.26    4.12
   5   2   3   12.45    3.93
   5   2   4  244.96    6.67
   5   2   5   17.19    3.74
   5   2   6  119.54    6.26
   5   2   7   -0.72    4.06
   5   3   3  108.66    4.52
   5   3   4    2.24    3.71
   5   3   5  217.38    6.62
   5   3   6   33.21    4.92
   5   3   7   23.03    4.01
   5   4   5   18.41    3.96
   5   4   6   12.08    4.11
   5   4   7   15.91    4.05
   6   0  -1   46.97    4.61
   6   0   0   -2.87    4.40
   6   0   1   94.03    5.51
   6   0   2   37.92    4.86
   6   0   3   56.49    4.57
   6   1   1   17.37    3.55
   6   1   2   42.13    3.94
   6   1   3   -1.19    4.63
   6   1   4  202.60    6.18
   6   1   5   23.83    5.60
   6   2   2   17.24    4.61
   6   2   3   15.89    4.42
   6   2   4   20.48    4.93
   6   2   5    3.22    5.09
   6   3   4    9.24    3.61
   6   3   5   12.98    4.03
   0   0   0    0.00    0.00


TITL kom_28 in P1
REM P1 (#1 in standard setting)
CELL 1.54184   7.501155   7.668424  12.369781  77.3057  82.1147  74.5877
ZERR    2.00   0.001332   0.001358   0.002267   0.0155   0.0151   0.0154
LATT -1
SFAC C N O S Br
UNIT 24.00 2.00 4.00 4.00 2.00
TREF
HKLF 4
END
_computing_structure_solution     'SHELXT 2014/5 (Sheldrick, 2014)'
;
_shelx_hkl_checksum              26356
_olex2_submission_special_instructions 'No special instructions were received'
_oxdiff_exptl_absorpt_empirical_details
;
Empirical correction (ABSPACK) includes:
- Absorption correction using spherical harmonics
- Frame scaling
;
_oxdiff_exptl_absorpt_empirical_full_max 1.487
_oxdiff_exptl_absorpt_empirical_full_min 0.822
loop_
_space_group_symop_operation_xyz
'x, y, z'
'-x, -y, -z'
loop_
_atom_site_label
_atom_site_type_symbol
_atom_site_fract_x
_atom_site_fract_y
_atom_site_fract_z
_atom_site_U_iso_or_equiv
_atom_site_adp_type
_atom_site_occupancy
_atom_site_site_symmetry_order
_atom_site_calc_flag
_atom_site_refinement_flags_posn
_atom_site_refinement_flags_adp
_atom_site_refinement_flags_occupancy
_atom_site_disorder_assembly
_atom_site_disorder_group
Br1' Br 0.2835(5) 0.9297(5) -0.1226(4) 0.119(3) Uani 0.611(8) 1 d . . P A 2
S1' S 0.1823(7) 0.1679(5) 0.1962(5) 0.1054(19) Uani 1 1 d . . . . .
S1 S 0.0326(6) 0.2257(6) 0.3374(5) 0.114(2) Uani 1 1 d . . . . .
Br1 Br 0.5742(14) 0.2899(16) 0.6839(9) 0.138(6) Uani 0.389(8) 1 d . U P A 1
C5' C 0.2798(15) 0.5411(18) -0.0672(15) 0.090(5) Uani 1 1 d D . . . .
H5' H 0.317137 0.538739 -0.141798 0.108 Uiso 1 1 calc R U . . .
C2' C 0.1690(16) 0.5429(19) 0.1550(16) 0.089(5) Uani 1 1 d . . . . .
H2' H 0.132849 0.545429 0.229761 0.106 Uiso 1 1 calc R U . . .
C1 C 0.195(2) 0.2350(18) 0.4258(17) 0.080(6) Uani 1 1 d . . . . .
C1' C 0.2000(18) 0.380(2) 0.1141(17) 0.087(6) Uani 1 1 d . . . . .
C4 C 0.414(2) 0.2634(18) 0.5749(17) 0.077(6) Uani 1 1 d D . . . .
C3 C 0.235(2) 0.264(2) 0.6081(16) 0.097(6) Uani 1 1 d D . . . .
H3 H 0.187338 0.271282 0.680873 0.117 Uiso 1 1 calc R U . . .
C2 C 0.127(2) 0.253(2) 0.5313(17) 0.101(7) Uani 1 1 d . . . . .
H2 H 0.001844 0.257279 0.551873 0.121 Uiso 1 1 calc R U . . .
C6' C 0.2546(18) 0.386(2) 0.0050(16) 0.090(6) Uani 1 1 d . . . . .
H6' H 0.276323 0.278112 -0.022535 0.107 Uiso 1 1 calc R U . . .
C6 C 0.377(2) 0.2319(19) 0.3938(15) 0.086(5) Uani 1 1 d . . . . .
H6 H 0.425103 0.220928 0.321454 0.103 Uiso 1 1 calc R U . . .
C3' C 0.1942(16) 0.7024(19) 0.0796(14) 0.082(5) Uani 1 1 d D . . . .
H3' H 0.172205 0.812524 0.104842 0.099 Uiso 1 1 calc R U . . .
C4' C 0.2490(17) 0.699(2) -0.0276(16) 0.084(5) Uani 1 1 d D . . . .
C5 C 0.491(2) 0.2453(19) 0.4696(16) 0.082(6) Uani 1 1 d D . . . .
H5 H 0.615698 0.241988 0.449530 0.098 Uiso 1 1 calc R U . . .
N1' N 0.276(2) 0.848(3) -0.0982(17) 0.078(10) Uani 0.389(8) 1 d D U P A 1
N1 N 0.524(3) 0.274(6) 0.648(2) 0.097(10) Uani 0.611(8) 1 d D . P A 2
O2 O 0.700(2) 0.254(4) 0.622(2) 0.120(11) Uani 0.611(8) 1 d D . P A 2
O1' O 0.247(2) 0.999(3) -0.063(2) 0.141(14) Uani 0.389(8) 1 d D U P A 1
O1 O 0.457(3) 0.298(4) 0.747(2) 0.144(13) Uani 0.611(8) 1 d D . P A 2
O2' O 0.323(2) 0.847(3) -0.202(2) 0.129(12) Uani 0.389(8) 1 d D U P A 1
loop_
_atom_site_aniso_label
_atom_site_aniso_U_11
_atom_site_aniso_U_22
_atom_site_aniso_U_33
_atom_site_aniso_U_23
_atom_site_aniso_U_13
_atom_site_aniso_U_12
Br1' 0.125(3) 0.098(3) 0.127(5) -0.011(3) -0.003(3) -0.028(2)
S1' 0.118(3) 0.087(3) 0.124(5) -0.021(3) -0.027(4) -0.037(3)
S1 0.085(3) 0.129(3) 0.132(6) -0.005(3) -0.006(4) -0.050(3)
Br1 0.176(11) 0.110(6) 0.129(11) -0.015(6) -0.055(9) -0.023(7)
C5' 0.111(12) 0.093(9) 0.078(13) -0.026(8) -0.025(10) -0.026(10)
C2' 0.097(12) 0.104(10) 0.074(13) -0.020(8) -0.007(10) -0.038(11)
C1 0.067(9) 0.071(8) 0.096(15) -0.017(11) 0.016(11) -0.017(9)
C1' 0.079(11) 0.092(9) 0.097(13) -0.017(11) -0.030(12) -0.019(9)
C4 0.079(10) 0.072(9) 0.078(14) -0.023(11) 0.010(10) -0.019(10)
C3 0.082(10) 0.118(12) 0.076(14) -0.005(11) 0.015(11) -0.020(11)
C2 0.068(12) 0.125(12) 0.100(16) -0.023(14) 0.018(10) -0.019(11)
C6' 0.095(12) 0.081(9) 0.102(13) -0.022(10) -0.033(13) -0.022(9)
C6 0.075(9) 0.113(11) 0.069(14) -0.018(10) 0.016(10) -0.035(11)
C3' 0.080(11) 0.087(9) 0.082(12) -0.030(9) -0.008(12) -0.012(9)
C4' 0.090(12) 0.083(8) 0.079(12) -0.021(9) -0.004(11) -0.020(9)
C5 0.066(10) 0.097(10) 0.085(14) -0.033(12) 0.017(10) -0.022(9)
N1' 0.062(15) 0.084(11) 0.080(13) -0.013(9) -0.006(10) -0.006(10)
N1 0.087(13) 0.11(2) 0.10(2) -0.05(2) 0.004(14) -0.015(16)
O2 0.080(11) 0.18(2) 0.11(3) -0.064(16) 0.001(14) -0.013(13)
O1' 0.20(3) 0.109(14) 0.13(2) -0.043(14) 0.012(18) -0.055(15)
O1 0.12(2) 0.21(2) 0.12(2) -0.09(2) 0.024(15) -0.032(18)
O2' 0.15(3) 0.15(2) 0.090(14) -0.034(14) 0.028(17) -0.05(2)
loop_
_atom_type_symbol
_atom_type_description
_atom_type_scat_dispersion_real
_atom_type_scat_dispersion_imag
_atom_type_scat_source
C C 0.0181 0.0091 'International Tables Vol C Tables 4.2.6.8 and 6.1.1.4'
H H 0.0000 0.0000 'International Tables Vol C Tables 4.2.6.8 and 6.1.1.4'
Br Br -0.6763 1.2805 'International Tables Vol C Tables 4.2.6.8 and 6.1.1.4'
N N 0.0311 0.0180 'International Tables Vol C Tables 4.2.6.8 and 6.1.1.4'
O O 0.0492 0.0322 'International Tables Vol C Tables 4.2.6.8 and 6.1.1.4'
S S 0.3331 0.5567 'International Tables Vol C Tables 4.2.6.8 and 6.1.1.4'
loop_
_geom_angle_atom_site_label_1
_geom_angle_atom_site_label_2
_geom_angle_atom_site_label_3
_geom_angle
_geom_angle_site_symmetry_1
_geom_angle_site_symmetry_3
_geom_angle_publ_flag
C1' S1' S1 105.9(7) . . ?
C1 S1 S1' 105.6(7) . . ?
C6' C5' H5' 120.8 . . ?
C4' C5' H5' 120.8 . . ?
C4' C5' C6' 118.4(18) . . ?
C1' C2' H2' 121.0 . . ?
C1' C2' C3' 118.0(18) . . ?
C3' C2' H2' 121.0 . . ?
C2 C1 S1 115.9(14) . . ?
C2 C1 C6 119(2) . . ?
C6 C1 S1 124.7(17) . . ?
C2' C1' S1' 124.2(16) . . ?
C6' C1' S1' 118.1(15) . . ?
C6' C1' C2' 117.6(18) . . ?
C3 C4 Br1 118.6(17) . . ?
C3 C4 C5 122.7(19) . . ?
C5 C4 Br1 118.7(14) . . ?
N1 C4 C3 119(2) . . ?
N1 C4 C5 118.1(19) . . ?
C4 C3 H3 121.2 . . ?
C4 C3 C2 118(2) . . ?
C2 C3 H3 121.2 . . ?
C1 C2 C3 122.3(19) . . ?
C1 C2 H2 118.8 . . ?
C3 C2 H2 118.8 . . ?
C5' C6' H6' 118.0 . . ?
C1' C6' C5' 123.9(18) . . ?
C1' C6' H6' 118.0 . . ?
C1 C6 H6 120.1 . . ?
C1 C6 C5 119.8(19) . . ?
C5 C6 H6 120.1 . . ?
C2' C3' H3' 119.3 . . ?
C4' C3' C2' 121.4(17) . . ?
C4' C3' H3' 119.3 . . ?
C5' C4' Br1' 122.2(14) . . ?
C3' C4' Br1' 117.1(12) . . ?
C3' C4' C5' 120.6(16) . . ?
N1' C4' C5' 117.8(18) . . ?
N1' C4' C3' 121.6(16) . . ?
C4 C5 C6 118.2(17) . . ?
C4 C5 H5 120.9 . . ?
C6 C5 H5 120.9 . . ?
O1' N1' C4' 119.0(16) . . ?
O1' N1' O2' 119(2) . . ?
O2' N1' C4' 122(2) . . ?
O2 N1 C4 120(2) . . ?
O1 N1 C4 120(2) . . ?
O1 N1 O2 119(2) . . ?
loop_
_geom_bond_atom_site_label_1
_geom_bond_atom_site_label_2
_geom_bond_distance
_geom_bond_site_symmetry_2
_geom_bond_publ_flag
Br1' C4' 1.953(17) . ?
S1' S1 2.012(7) . ?
S1' C1' 1.743(18) . ?
S1 C1 1.767(18) . ?
Br1 C4 2.00(2) . ?
C5' H5' 0.9300 . ?
C5' C6' 1.361(19) . ?
C5' C4' 1.359(19) . ?
C2' H2' 0.9300 . ?
C2' C1' 1.403(19) . ?
C2' C3' 1.405(19) . ?
C1 C2 1.36(2) . ?
C1 C6 1.37(2) . ?
C1' C6' 1.35(2) . ?
C4 C3 1.35(2) . ?
C4 C5 1.37(2) . ?
C4 N1 1.33(2) . ?
C3 H3 0.9300 . ?
C3 C2 1.36(2) . ?
C2 H2 0.9300 . ?
C6' H6' 0.9300 . ?
C6 H6 0.9300 . ?
C6 C5 1.39(2) . ?
C3' H3' 0.9300 . ?
C3' C4' 1.34(2) . ?
C4' N1' 1.319(18) . ?
C5 H5 0.9300 . ?
N1' O1' 1.28(2) . ?
N1' O2' 1.281(19) . ?
N1 O2 1.29(2) . ?
N1 O1 1.29(2) . ?
loop_
_geom_torsion_atom_site_label_1
_geom_torsion_atom_site_label_2
_geom_torsion_atom_site_label_3
_geom_torsion_atom_site_label_4
_geom_torsion
_geom_torsion_site_symmetry_1
_geom_torsion_site_symmetry_2
_geom_torsion_site_symmetry_3
_geom_torsion_site_symmetry_4
_geom_torsion_publ_flag
S1' S1 C1 C2 -173.1(11) . . . . ?
S1' S1 C1 C6 9.2(14) . . . . ?
S1' C1' C6' C5' -177.7(7) . . . . ?
S1 S1' C1' C2' 18.5(10) . . . . ?
S1 S1' C1' C6' -164.4(9) . . . . ?
S1 C1 C2 C3 -179.2(12) . . . . ?
S1 C1 C6 C5 178.2(11) . . . . ?
Br1 C4 C3 C2 177.5(12) . . . . ?
Br1 C4 C5 C6 -178.3(11) . . . . ?
C5' C4' N1' O1' 179.4(12) . . . . ?
C5' C4' N1' O2' 3(2) . . . . ?
C2' C1' C6' C5' -0.5(17) . . . . ?
C2' C3' C4' Br1' -178.8(7) . . . . ?
C2' C3' C4' C5' 0.9(17) . . . . ?
C2' C3' C4' N1' -178.7(11) . . . . ?
C1 C6 C5 C4 -1(2) . . . . ?
C1' C2' C3' C4' -1.1(15) . . . . ?
C4 C3 C2 C1 2(3) . . . . ?
C3 C4 C5 C6 2(2) . . . . ?
C3 C4 N1 O2 173(3) . . . . ?
C3 C4 N1 O1 -5(5) . . . . ?
C2 C1 C6 C5 1(2) . . . . ?
C6' C5' C4' Br1' 179.2(7) . . . . ?
C6' C5' C4' C3' -0.4(15) . . . . ?
C6' C5' C4' N1' 179.2(11) . . . . ?
C6 C1 C2 C3 -1(3) . . . . ?
C3' C2' C1' S1' 177.9(8) . . . . ?
C3' C2' C1' C6' 0.9(14) . . . . ?
C3' C4' N1' O1' -1(2) . . . . ?
C3' C4' N1' O2' -177.6(13) . . . . ?
C4' C5' C6' C1' 0.3(15) . . . . ?
C5 C4 C3 C2 -3(2) . . . . ?
C5 C4 N1 O2 -5(5) . . . . ?
C5 C4 N1 O1 178(3) . . . . ?
N1 C4 C3 C2 180(3) . . . . ?
N1 C4 C5 C6 179(2) . . . . ?
