#------------------------------------------------------------------------------
#$Date: 2022-03-03 21:53:44 +0200 (Thu, 03 Mar 2022) $
#$Revision: 273231 $
#$URL: file:///home/coder/svn-repositories/cod/cif/4/51/93/4519321.cif $
#------------------------------------------------------------------------------
#
# This file is available in the Crystallography Open Database (COD),
# http://www.crystallography.net/
#
# All data on this site have been placed in the public domain by the
# contributors.
#
data_4519321
loop_
_publ_author_name
'Zhang, Guojie'
'Yi, Zhenxin'
'Cheng, Guangbin'
'Yang, Wei'
'Yang, Hongwei'
_publ_section_title
;
 Polynitro-Functionalized Azopyrazole with High Performance and Low
 Sensitivity as Novel Energetic Materials.
;
_journal_issue                   8
_journal_name_full               'ACS applied materials &amp; interfaces'
_journal_page_first              10594
_journal_page_last               10604
_journal_paper_doi               10.1021/acsami.2c00154
_journal_volume                  14
_journal_year                    2022
_chemical_formula_moiety         'C6 H2 N10 O8, 2(H2 O)'
_chemical_formula_sum            'C6 H6 N10 O10'
_chemical_formula_weight         378.21
_space_group_crystal_system      monoclinic
_space_group_IT_number           14
_space_group_name_Hall           '-P 2ybc'
_space_group_name_H-M_alt        'P 1 21/c 1'
_atom_sites_solution_hydrogens   difmap
_atom_sites_solution_primary     dual
_audit_creation_date             2019-07-11
_audit_creation_method
;
Olex2 1.2
(compiled 2018.05.29 svn.r3508 for OlexSys, GUI svn.r5506)
;
_cell_angle_alpha                90
_cell_angle_beta                 97.847(18)
_cell_angle_gamma                90
_cell_formula_units_Z            2
_cell_length_a                   9.314(5)
_cell_length_b                   5.943(3)
_cell_length_c                   13.344(8)
_cell_measurement_reflns_used    655
_cell_measurement_temperature    298
_cell_measurement_theta_max      21.809
_cell_measurement_theta_min      3.083
_cell_volume                     731.7(7)
_computing_cell_refinement       'SAINT V8.38A (?, 2016)'
_computing_data_reduction        'SAINT V8.38A (?, 2016)'
_computing_molecular_graphics    'Olex2 (Dolomanov et al., 2009)'
_computing_publication_material  'Olex2 (Dolomanov et al., 2009)'
_computing_structure_refinement  'ShelXL (Sheldrick, 2015)'
_computing_structure_solution    'ShelXT (Sheldrick, 2015)'
_diffrn_ambient_temperature      298
_diffrn_measured_fraction_theta_full 0.983
_diffrn_measured_fraction_theta_max 0.979
_diffrn_measurement_device_type  'Bruker APEX-II CCD'
_diffrn_measurement_method       '\f and \w scans'
_diffrn_radiation_type           MoK\a
_diffrn_radiation_wavelength     0.71073
_diffrn_reflns_av_R_equivalents  0.0615
_diffrn_reflns_av_unetI/netI     0.0843
_diffrn_reflns_Laue_measured_fraction_full 0.983
_diffrn_reflns_Laue_measured_fraction_max 0.979
_diffrn_reflns_limit_h_max       10
_diffrn_reflns_limit_h_min       -11
_diffrn_reflns_limit_k_max       7
_diffrn_reflns_limit_k_min       -6
_diffrn_reflns_limit_l_max       17
_diffrn_reflns_limit_l_min       -16
_diffrn_reflns_number            3892
_diffrn_reflns_point_group_measured_fraction_full 0.983
_diffrn_reflns_point_group_measured_fraction_max 0.979
_diffrn_reflns_theta_full        25.242
_diffrn_reflns_theta_max         27.093
_diffrn_reflns_theta_min         3.082
_diffrn_standards_number         0
_exptl_absorpt_coefficient_mu    0.162
_exptl_absorpt_correction_T_max  0.7455
_exptl_absorpt_correction_T_min  0.5969
_exptl_absorpt_correction_type   multi-scan
_exptl_absorpt_process_details
'SADABS-2016/2 (Bruker,2016/2) was used for absorption correction. wR2(int) was 0.0825 before and 0.0563 after correction. The Ratio of minimum to maximum transmission is 0.8007. The \l/2 correction factor is Not present.'
_exptl_crystal_colour            colourless
_exptl_crystal_colour_primary    colourless
_exptl_crystal_density_diffrn    1.717
_exptl_crystal_description       needle
_exptl_crystal_F_000             384
_exptl_crystal_size_max          0.08
_exptl_crystal_size_mid          0.05
_exptl_crystal_size_min          0.02
_refine_diff_density_max         0.311
_refine_diff_density_min         -0.249
_refine_diff_density_rms         0.067
_refine_ls_extinction_method     none
_refine_ls_goodness_of_fit_ref   1.035
_refine_ls_hydrogen_treatment    refall
_refine_ls_matrix_type           full
_refine_ls_number_parameters     130
_refine_ls_number_reflns         1577
_refine_ls_number_restraints     3
_refine_ls_restrained_S_all      1.034
_refine_ls_R_factor_all          0.1555
_refine_ls_R_factor_gt           0.0714
_refine_ls_shift/su_max          0.000
_refine_ls_shift/su_mean         0.000
_refine_ls_structure_factor_coef Fsqd
_refine_ls_weighting_details
'w=1/[\s^2^(Fo^2^)+(0.0873P)^2^+0.6592P] where P=(Fo^2^+2Fc^2^)/3'
_refine_ls_weighting_scheme      calc
_refine_ls_wR_factor_gt          0.1764
_refine_ls_wR_factor_ref         0.2201
_reflns_Friedel_coverage         0.000
_reflns_number_gt                784
_reflns_number_total             1577
_reflns_threshold_expression     'I > 2\s(I)'
_iucr_refine_instructions_details
;
TITL 22019773zhgj10704_0m_a.res in P2(1)/c
    22019773zhgj10704_0m.res
    created by SHELXL-2018/3 at 08:36:52 on 11-Jul-2019
REM Old TITL 22019773ZHGJ10704_0m in P2(1)/c
REM SHELXT solution in P2(1)/c
REM R1 0.223, Rweak 0.033, Alpha 0.063, Orientation as input
REM Formula found by SHELXT: C10 N O2
CELL 0.71073 9.3141 5.9425 13.3445 90 97.847 90
ZERR 2 0.0051 0.0033 0.0077 0 0.018 0
LATT 1
SYMM -X,0.5+Y,0.5-Z
SFAC C H N O
UNIT 12 12 20 20
DFIX 0.84 O3 H3b O3 H3a
DFIX 0.86 N4 H4

L.S. 4
PLAN  20
SIZE 0.08 0.05 0.02
TEMP 24.85
BOND $H
list 4
fmap 2
acta
OMIT -4 0 4
REM <olex2.extras>
REM <HklSrc "%.\\22019773ZHGJ10704_0m.hkl">
REM </olex2.extras>

WGHT    0.087300    0.659200
FVAR       0.27379
O5    4    0.586557    0.514022    0.371121    11.00000    0.05761    0.06684 =
         0.06374    0.00018    0.01059   -0.01270
N5    3    0.507863    0.082247    0.471345    11.00000    0.04519    0.04336 =
         0.03762    0.00271    0.01010   -0.00633
N4    3    0.250313    0.149491    0.470351    11.00000    0.04819    0.04557 =
         0.04698    0.00466    0.00943   -0.00608
O4    4    0.427742    0.530112    0.236330    11.00000    0.08149    0.08332 =
         0.04312    0.02016    0.01292    0.00222
O3    4    0.159566    0.791125    0.564093    11.00000    0.05162    0.08058 =
         0.08955    0.03041    0.01031   -0.01214
N3    3    0.144761    0.293404    0.432530    11.00000    0.05337    0.04980 =
         0.05535    0.00261    0.00828    0.00242
O1    4    0.206301    0.784465    0.308622    11.00000    0.08837    0.05494 =
         0.08225    0.01720    0.01322    0.00780
N1    3    0.464694    0.484135    0.325503    11.00000    0.06016    0.04094 =
         0.04368    0.00254    0.00998   -0.00536
O2    4    0.000707    0.625950    0.327991    11.00000    0.05225    0.09396 =
         0.11493    0.00957   -0.00942    0.01695
N2    3    0.132139    0.627825    0.332899    11.00000    0.07372    0.05123 =
         0.05651    0.00119    0.00704    0.01028
C3    1    0.379541    0.198698    0.441907    11.00000    0.05065    0.04570 =
         0.03442   -0.00047    0.00641   -0.00382
C2    1    0.357345    0.383460    0.379472    11.00000    0.05375    0.04092 =
         0.03411   -0.00058    0.01212   -0.00449
C1    1    0.212606    0.434603    0.376463    11.00000    0.05306    0.04279 =
         0.04480    0.00027    0.00110    0.00219
H3A   2    0.082166    0.733506    0.575446    11.00000    0.11036
H3B   2    0.217603    0.715993    0.605083    11.00000    0.16996
H4    2    0.230488    0.032542    0.503096    11.00000    0.10267
HKLF 4




REM  22019773zhgj10704_0m_a.res in P2(1)/c
REM wR2 = 0.2201, GooF = S = 1.035, Restrained GooF = 1.034 for all data
REM R1 = 0.0714 for 784 Fo > 4sig(Fo) and 0.1555 for all 1577 data
REM 130 parameters refined using 3 restraints

END  
     
WGHT      0.0873      0.6541 

REM Highest difference peak  0.311,  deepest hole -0.249,  1-sigma level  0.067
Q1    1   0.3126 -0.1451  0.5396  11.00000  0.05    0.31
Q2    1   0.0609  0.1516  0.4684  11.00000  0.05    0.26
Q3    1   0.0417  0.1949  0.4400  11.00000  0.05    0.26
Q4    1  -0.0113  0.4727  0.3875  11.00000  0.05    0.25
Q5    1  -0.1398  0.4952  0.3432  11.00000  0.05    0.25
Q6    1   0.4190  0.7110  0.3113  11.00000  0.05    0.25
Q7    1   0.4077  0.3219  0.1906  11.00000  0.05    0.25
Q8    1   0.2856  0.7244  0.5689  11.00000  0.05    0.24
Q9    1   0.3643  0.7809  0.5724  11.00000  0.05    0.24
Q10   1   0.1398  0.9194  0.6160  11.00000  0.05    0.23
Q11   1   0.3629  0.6253  0.3437  11.00000  0.05    0.20
Q12   1  -0.1817  0.7534  0.3339  11.00000  0.05    0.20
Q13   1   0.2163  1.0028  0.2515  11.00000  0.05    0.19
Q14   1   0.6653  0.4614  0.3375  11.00000  0.05    0.18
Q15   1   0.6937  0.4922  0.4678  11.00000  0.05    0.17
Q16   1   0.0958  0.9183  0.5369  11.00000  0.05    0.17
Q17   1   0.6155  0.4978  0.2206  11.00000  0.05    0.17
Q18   1   0.1007  0.4756  0.4976  11.00000  0.05    0.17
Q19   1   0.0054  0.4531  0.2135  11.00000  0.05    0.17
Q20   1   0.2026  0.7633  0.5598  11.00000  0.05    0.17

  REM The information below was added by Olex2.
  REM
  REM R1 = 0.0714 for 784 Fo > 4sig(Fo) and 0.1555 for all 4122 data
  REM n/a parameters refined using n/a restraints
  REM Highest difference peak 0.31, deepest hole -0.25
  REM Mean Shift 0, Max Shift 0.000.

  REM +++ Tabular Listing of Refinement Information +++
  REM R1_all = 0.1555
  REM R1_gt = 0.0714
  REM wR_ref = 0.2201
  REM GOOF = 1.035
  REM Shift_max = 0.000
  REM Shift_mean = 0
  REM Reflections_all = 4122
  REM Reflections_gt = 784
  REM Parameters = n/a
  REM Hole = -0.25
  REM Peak = 0.31
  REM Flack = n/a

  
;
_cod_data_source_file            am2c00154_si_003.cif
_cod_data_source_block           22019773zhgj10704_0m
_cod_database_code               4519321
_shelx_shelxl_version_number     2018/3
_shelx_space_group_comment
;
The symmetry employed for this shelxl refinement is uniquely defined
by the following loop, which should always be used as a source of
symmetry information in preference to the above space-group names.
They are only intended as comments.
;
_shelx_estimated_absorpt_t_max   0.997
_shelx_estimated_absorpt_t_min   0.987
_olex2_refinement_description
;
1. Restrained distances
 O3-H3B = O3-H3A
 0.84 with sigma of 0.02
 N4-H4
 0.86 with sigma of 0.02
;
_olex2_submission_special_instructions 'No special instructions were received'
loop_
_space_group_symop_operation_xyz
'x, y, z'
'-x, y+1/2, -z+1/2'
'-x, -y, -z'
'x, -y-1/2, z-1/2'
loop_
_atom_site_label
_atom_site_type_symbol
_atom_site_fract_x
_atom_site_fract_y
_atom_site_fract_z
_atom_site_U_iso_or_equiv
_atom_site_adp_type
_atom_site_occupancy
_atom_site_site_symmetry_order
_atom_site_calc_flag
_atom_site_refinement_flags_posn
_atom_site_refinement_flags_adp
_atom_site_refinement_flags_occupancy
_atom_site_disorder_assembly
_atom_site_disorder_group
O5 O 0.5866(4) 0.5140(6) 0.3711(3) 0.0625(10) Uani 1 1 d . . . . .
N5 N 0.5079(4) 0.0822(6) 0.4713(3) 0.0416(9) Uani 1 1 d . . . . .
N4 N 0.2503(4) 0.1495(7) 0.4704(3) 0.0466(10) Uani 1 1 d D . . . .
O4 O 0.4277(4) 0.5301(7) 0.2363(3) 0.0689(11) Uani 1 1 d . . . . .
O3 O 0.1596(5) 0.7911(7) 0.5641(4) 0.0739(13) Uani 1 1 d D . . . .
N3 N 0.1448(4) 0.2934(7) 0.4325(3) 0.0528(11) Uani 1 1 d . . . . .
O1 O 0.2063(5) 0.7845(7) 0.3086(3) 0.0750(12) Uani 1 1 d . . . . .
N1 N 0.4647(5) 0.4841(6) 0.3255(3) 0.0480(10) Uani 1 1 d . . . . .
O2 O 0.0007(4) 0.6260(8) 0.3280(4) 0.0890(15) Uani 1 1 d . . . . .
N2 N 0.1321(6) 0.6278(7) 0.3329(3) 0.0607(12) Uani 1 1 d . . . . .
C3 C 0.3795(5) 0.1987(8) 0.4419(3) 0.0435(11) Uani 1 1 d . . . . .
C2 C 0.3573(5) 0.3835(7) 0.3795(3) 0.0424(11) Uani 1 1 d . . . . .
C1 C 0.2126(5) 0.4346(8) 0.3765(3) 0.0474(12) Uani 1 1 d . . . . .
H3A H 0.082(4) 0.734(12) 0.575(5) 0.11(3) Uiso 1 1 d D . . . .
H3B H 0.218(8) 0.716(14) 0.605(6) 0.17(4) Uiso 1 1 d D . . . .
H4 H 0.230(7) 0.033(7) 0.503(4) 0.10(2) Uiso 1 1 d D . . . .
loop_
_atom_site_aniso_label
_atom_site_aniso_U_11
_atom_site_aniso_U_22
_atom_site_aniso_U_33
_atom_site_aniso_U_23
_atom_site_aniso_U_13
_atom_site_aniso_U_12
O5 0.058(2) 0.067(2) 0.064(2) 0.0002(19) 0.0106(18) -0.0127(18)
N5 0.045(2) 0.043(2) 0.038(2) 0.0027(16) 0.0101(17) -0.0063(18)
N4 0.048(2) 0.046(2) 0.047(2) 0.005(2) 0.0094(18) -0.0061(19)
O4 0.081(3) 0.083(3) 0.0431(19) 0.020(2) 0.0129(18) 0.002(2)
O3 0.052(2) 0.081(3) 0.090(3) 0.030(2) 0.010(2) -0.012(2)
N3 0.053(3) 0.050(2) 0.055(3) 0.003(2) 0.008(2) 0.002(2)
O1 0.088(3) 0.055(2) 0.082(3) 0.017(2) 0.013(2) 0.008(2)
N1 0.060(3) 0.041(2) 0.044(2) 0.0025(19) 0.010(2) -0.0054(19)
O2 0.052(3) 0.094(3) 0.115(4) 0.010(3) -0.009(2) 0.017(2)
N2 0.074(3) 0.051(3) 0.057(3) 0.001(2) 0.007(2) 0.010(2)
C3 0.051(3) 0.046(3) 0.034(2) 0.000(2) 0.006(2) -0.004(2)
C2 0.054(3) 0.041(2) 0.034(2) -0.001(2) 0.012(2) -0.004(2)
C1 0.053(3) 0.043(3) 0.045(3) 0.000(2) 0.001(2) 0.002(2)
loop_
_atom_type_symbol
_atom_type_description
_atom_type_scat_dispersion_real
_atom_type_scat_dispersion_imag
_atom_type_scat_source
C C 0.0033 0.0016 'International Tables Vol C Tables 4.2.6.8 and 6.1.1.4'
H H 0.0000 0.0000 'International Tables Vol C Tables 4.2.6.8 and 6.1.1.4'
N N 0.0061 0.0033 'International Tables Vol C Tables 4.2.6.8 and 6.1.1.4'
O O 0.0106 0.0060 'International Tables Vol C Tables 4.2.6.8 and 6.1.1.4'
loop_
_geom_angle_atom_site_label_1
_geom_angle_atom_site_label_2
_geom_angle_atom_site_label_3
_geom_angle
_geom_angle_site_symmetry_1
_geom_angle_site_symmetry_3
_geom_angle_publ_flag
N5 N5 C3 113.0(4) 3_656 . ?
N3 N4 H4 121(5) . . ?
C3 N4 N3 113.1(4) . . ?
C3 N4 H4 126(5) . . ?
H3A O3 H3B 99(7) . . ?
C1 N3 N4 103.4(4) . . ?
O5 N1 C2 118.1(4) . . ?
O4 N1 O5 124.7(4) . . ?
O4 N1 C2 117.2(4) . . ?
O1 N2 C1 115.3(5) . . ?
O2 N2 O1 126.2(5) . . ?
O2 N2 C1 118.4(5) . . ?
N4 C3 N5 125.5(4) . . ?
N4 C3 C2 106.2(4) . . ?
C2 C3 N5 128.3(4) . . ?
C3 C2 N1 125.2(4) . . ?
C3 C2 C1 105.0(4) . . ?
C1 C2 N1 129.6(4) . . ?
N3 C1 N2 117.6(4) . . ?
N3 C1 C2 112.3(4) . . ?
C2 C1 N2 129.6(5) . . ?
loop_
_geom_bond_atom_site_label_1
_geom_bond_atom_site_label_2
_geom_bond_distance
_geom_bond_site_symmetry_2
_geom_bond_publ_flag
O5 N1 1.225(5) . ?
N5 N5 1.262(7) 3_656 ?
N5 C3 1.391(6) . ?
N4 N3 1.348(5) . ?
N4 C3 1.343(6) . ?
N4 H4 0.85(2) . ?
O4 N1 1.224(5) . ?
O3 H3A 0.83(2) . ?
O3 H3B 0.84(2) . ?
N3 C1 1.339(6) . ?
O1 N2 1.229(6) . ?
N1 C2 1.440(6) . ?
O2 N2 1.217(5) . ?
N2 C1 1.449(6) . ?
C3 C2 1.377(6) . ?
C2 C1 1.377(7) . ?
loop_
_refln_index_h
_refln_index_k
_refln_index_l
_refln_F_squared_meas
_refln_F_squared_sigma
2 0 0 8.93 0.65
-2 0 0 8.37 0.62
3 0 0 339.77 9.85
-3 0 0 351.53 9.89
4 0 0 1.03 0.48
-4 0 0 1.13 0.46
5 0 0 132.01 4.5
-5 0 0 123.15 4.43
6 0 0 12.63 1.21
-6 0 0 11.99 1.14
-7 0 0 6.32 1.09
7 0 0 7.65 1.24
-8 0 0 17.41 1.67
8 0 0 13.6 1.52
-9 0 0 1.67 1.07
-10 0 0 0.66 0.84
-11 0 0 1.23 1.07
0 1 0 -0.01 0.19
-1 -1 0 0.27 0.31
1 -1 0 0.45 0.34
1 1 0 -0.25 0.28
-1 1 0 0.39 0.27
1 1 0 0.61 0.2
-2 -1 0 190.78 5.5
2 -1 0 193.91 5.74
-2 1 0 191.16 5.75
2 1 0 189.5 5.48
3 -1 0 0.08 0.35
-3 -1 0 0.51 0.29
3 1 0 0.26 0.26
-3 1 0 0.38 0.36
-4 -1 0 25.13 1.26
4 -1 0 24.48 1.47
4 1 0 23.02 1.27
-4 1 0 21.8 1.38
5 -1 0 0.59 0.48
-5 1 0 0.65 0.47
5 1 0 1.2 0.46
-6 -1 0 2.96 0.74
6 -1 0 2.5 0.76
-6 1 0 2.14 0.68
6 1 0 3.59 0.73
7 -1 0 11.42 1.68
-7 -1 0 13.25 1.27
-7 1 0 11.72 1.33
7 1 0 11.98 1.2
-8 -1 0 0.26 0.64
8 -1 0 0.47 0.73
8 1 0 0.44 0.56
-8 1 0 -0.95 0.59
-9 -1 0 2.08 0.97
-9 1 0 3.23 1.11
-10 -1 0 -0.56 0.73
-10 1 0 0.24 0.9
-11 -1 0 -0.33 0.88
-11 1 0 -0.2 0.89
0 2 0 2.74 0.52
-1 -2 0 393.36 11.18
-1 2 0 376.95 11
1 2 0 389.27 11.11
2 -2 0 246.47 7.53
-2 -2 0 248.4 7.6
-2 2 0 253.49 7.47
2 2 0 242.34 7.09
3 -2 0 3.68 0.76
-3 -2 0 3.05 0.48
-3 -2 0 3.16 0.72
3 2 0 2.54 0.45
-3 2 0 3.14 0.69
4 -2 0 27.52 1.66
-4 -2 0 28.32 1.35
-4 -2 0 25.04 1.7
4 2 0 26.95 1.36
-4 2 0 25.98 1.62
-5 -2 0 1.65 0.52
5 -2 0 2.4 0.7
-5 2 0 1.46 0.61
5 2 0 2 0.55
6 -2 0 17.43 1.55
-6 -2 0 17.71 1.31
-6 2 0 17.4 1.45
6 2 0 17.19 1.24
7 -2 0 -0.91 0.46
-7 -2 0 -0.25 0.47
7 2 0 0.49 0.5
-7 2 0 0.1 0.58
-8 2 0 2.33 0.93
-9 -2 0 3.29 0.96
9 2 0 3.9 1.13
-9 2 0 1.88 1.03
-10 -2 0 1.52 0.85
-10 2 0 -0.65 0.72
-11 -2 0 0.82 0.7
-11 2 0 -0.98 0.88
0 3 0 -0.13 0.31
0 3 0 -0.05 0.27
-1 -3 0 35.91 1.95
1 3 0 34.3 1.79
-1 3 0 35.71 1.77
-1 3 0 34.59 1.83
-2 -3 0 0.65 0.53
2 3 0 0.96 0.33
2 3 0 0.51 0.47
-2 3 0 2.56 0.73
3 -3 0 34.02 2.02
-3 -3 0 35.86 2.05
-3 3 0 33.98 1.9
3 3 0 33.56 1.53
-4 -3 0 5.41 1.1
4 -3 0 3.28 0.84
4 3 0 4.2 0.7
-4 3 0 4.77 0.93
-5 -3 0 2.36 0.83
5 -3 0 2.69 0.83
-5 3 0 1.67 0.71
5 3 0 2.93 0.61
-6 -3 0 9.82 0.98
-6 -3 0 10.85 1.92
6 -3 0 12.68 1.48
-6 3 0 13.86 1.46
6 3 0 9.12 1.03
-7 -3 0 1.34 0.58
7 3 0 0.52 0.48
-8 -3 0 2.61 0.74
-8 3 0 0.43 0.7
-9 -3 0 0.24 0.56
-9 3 0 0.01 0.66
9 3 0 1.2 0.73
-10 -3 0 0.06 0.58
-10 3 0 -0.91 0.68
0 4 0 2.39 0.66
-1 4 0 18.13 1.35
-1 4 0 19.12 1.4
1 4 0 17.94 1.39
-2 -4 0 1.06 0.7
-2 4 0 2.72 0.68
2 4 0 0.81 0.52
-3 -4 0 16.25 1.56
-3 4 0 17.83 1.46
3 4 0 16.52 1.06
-4 -4 0 4.7 1.09
4 4 0 3.92 0.67
-4 4 0 3.98 0.98
-5 -4 0 4.96 1.17
5 -4 0 4.84 1.11
-5 4 0 3.18 0.96
5 4 0 5.06 0.77
-6 -4 0 1.55 0.85
6 4 0 2.98 0.66
-6 4 0 1.31 0.73
7 4 0 0.37 0.47
-7 4 0 0.83 0.78
8 4 0 5.27 0.97
-8 4 0 8.65 1.57
-9 4 0 0.29 0.66
-10 4 0 -0.59 0.68
0 5 0 0.15 0.52
0 5 0 -0.04 0.43
-1 5 0 1.19 0.64
1 5 0 0.63 0.6
-1 5 0 1.07 0.66
1 5 0 1.16 0.65
2 5 0 3.32 0.85
-2 5 0 2.96 0.86
-2 5 0 2.05 0.8
-3 -5 0 1.68 0.84
-3 5 0 0.46 0.57
3 5 0 1.6 0.46
4 5 0 -0.28 0.3
-4 5 0 0.47 0.58
-5 -5 0 -0.14 0.7
5 5 0 -0.01 0.37
-5 5 0 0.51 0.74
6 5 0 0.86 0.5
-6 5 0 0.96 0.8
-7 5 0 -0.48 0.68
7 5 0 -0.41 0.46
-8 5 0 -0.8 0.71
8 5 0 -0.06 0.56
0 6 0 -0.18 0.5
0 6 0 0.52 0.58
-1 6 0 1.37 0.75
1 6 0 0.58 0.58
1 6 0 0.51 0.63
-1 6 0 1.09 0.67
-2 6 0 -0.44 0.53
-2 6 0 -0.14 0.54
2 6 0 -0.03 0.42
2 6 0 0.61 0.56
-3 6 0 0.43 0.64
3 6 0 0.47 0.4
-3 6 0 0.97 0.75
3 6 0 0.35 0.57
-4 -6 0 1.78 0.95
-4 6 0 0.58 0.79
-4 6 0 -0.49 0.49
4 6 0 0.63 0.44
5 6 0 0.31 0.32
-5 6 0 -0.89 0.6
6 6 0 1.98 0.68
-6 6 0 -0.08 0.77
-7 6 0 0.72 0.88
0 7 0 0.22 0.61
0 7 0 -0.57 0.45
-1 7 0 0.64 0.66
1 7 0 -0.03 0.57
-1 7 0 0.69 0.63
-2 7 0 -0.15 0.61
2 7 0 0.7 0.58
2 7 0 -0.12 0.51
-2 7 0 -0.49 0.63
-3 7 0 -1.29 0.68
-3 7 0 0 0.68
3 7 0 -0.12 0.54
4 7 0 -0.8 0.61
-4 7 0 1.14 0.86
-4 7 0 1.38 0.8
4 7 0 -0.07 0.46
-11 0 1 0.48 0.81
-10 0 1 -0.68 0.67
-9 0 1 -0.63 0.74
8 0 -1 5.13 1.05
-8 0 1 6.9 1.2
-7 0 1 -0.61 0.46
7 0 -1 0.17 0.5
-6 0 1 0.35 0.54
6 0 -1 0.22 0.41
-5 0 1 -1 0.39
5 0 -1 0.27 0.39
-4 0 1 -0.3 0.3
4 0 -1 -0.04 0.32
3 0 -1 0.86 0.38
2 0 -1 -0.06 0.3
-2 0 1 0.27 0.32
1 0 -1 0.02 0.14
-1 0 1 0.12 0.14
-1 0 -1 0.02 0.16
1 0 1 -0.07 0.16
-2 0 -1 -0.32 0.33
2 0 1 0.26 0.4
-3 0 -1 -0.14 0.28
3 0 1 0.2 0.34
4 0 1 0.03 0.4
-4 0 -1 -0.02 0.35
5 0 1 0.14 0.44
-5 0 -1 1 0.61
6 0 1 -0.14 0.38
-6 0 -1 -0.11 0.41
7 0 1 1.44 0.68
-7 0 -1 0.26 0.66
-8 0 -1 0.15 0.78
8 0 1 0.99 0.66
-9 0 -1 0.91 1.41
-10 0 -1 0.18 0.88
-11 0 -1 -1.49 0.86
-11 -1 1 -1.38 0.72
-11 1 1 -0.54 0.9
-10 -1 1 -0.79 0.62
-10 1 1 -0.59 0.69
-9 -1 1 0.04 0.82
-9 1 1 -0.12 0.74
-8 -1 1 -0.06 0.58
8 1 -1 -0.23 0.48
-8 1 1 0.15 0.7
7 -1 -1 0.29 0.65
-7 -1 1 -0.21 0.59
7 1 -1 0.3 0.53
-7 1 1 -0.28 0.53
-6 -1 1 7.09 1.06
6 -1 -1 7.3 1.17
-6 1 1 6.41 1.1
6 1 -1 5.88 0.94
5 -1 -1 18.69 1.4
5 1 -1 20.3 1.3
-5 1 1 21.6 1.46
-4 -1 1 1.07 0.44
4 -1 -1 0.52 0.47
-4 1 1 0.37 0.48
4 1 -1 0.19 0.4
-3 -1 1 4.15 0.59
3 -1 -1 3.87 0.66
3 1 -1 4.36 0.51
-3 1 1 3.61 0.6
-2 -1 1 4.12 0.5
2 -1 -1 5.78 0.62
-2 1 1 5.55 0.59
2 1 -1 3.78 0.46
1 -1 -1 33.83 1.29
-1 1 1 33.36 1.26
0 -1 -1 42.58 1.3
0 1 -1 38.53 1.25
0 1 1 39.01 1.26
0 1 1 42.85 1.62
-1 -1 -1 108.34 3.6
1 -1 1 111.81 3.48
1 1 1 111.9 3.09
-1 1 -1 108.18 3.48
1 1 1 112.06 3.6
-2 -1 -1 7.79 0.8
-2 -1 -1 7.88 0.49
2 -1 1 8.77 0.76
-2 1 -1 9.15 0.74
2 1 1 7.98 0.52
3 -1 1 71.31 2.65
-3 -1 -1 68.14 2.3
-3 1 -1 66.01 2.61
3 1 1 65.96 2.29
-4 -1 -1 91.52 3.08
4 -1 1 93.02 3.44
-4 1 -1 85.24 3.34
4 1 1 89.72 3.1
5 -1 1 27.88 1.7
-5 -1 -1 24.96 1.39
-5 1 -1 25.67 1.58
5 1 1 25.78 1.43
-6 -1 -1 8.87 1.11
6 -1 1 9.44 1.07
-6 1 -1 8.8 1.06
6 1 1 9.95 0.94
7 -1 1 15.97 1.65
-7 1 -1 13.87 1.43
7 1 1 11.58 1.25
-8 -1 -1 9.27 1.33
8 1 1 9.64 1.57
-8 1 -1 10.57 1.62
-9 -1 -1 7.15 1.29
-9 1 -1 9.57 1.55
-10 -1 -1 0.38 0.82
-10 1 -1 2.2 1.06
-11 -1 -1 0.99 1.02
-11 1 -1 1.06 1.09
-11 -2 1 -1 0.58
-11 2 1 1.03 1.06
-10 -2 1 1.49 0.88
-10 2 1 -1.39 0.61
-9 -2 1 0.37 0.49
-9 2 1 -0.69 0.7
-8 -2 1 3.95 0.95
-8 2 1 3.11 0.99
8 2 -1 5.45 1
-7 -2 1 1.24 0.61
7 -2 -1 2.04 0.71
7 2 -1 1.39 0.6
-7 2 1 1.3 0.75
-6 -2 1 0.76 0.53
6 -2 -1 0.35 0.47
6 2 -1 0.78 0.48
-6 2 1 0.3 0.53
-5 -2 1 12.35 1.02
5 -2 -1 12.45 1.21
5 2 -1 12.55 1.02
-5 2 1 13.44 1.17
4 -2 -1 11.96 1.08
-4 -2 1 11.81 0.91
-4 2 1 11.84 1.05
4 2 -1 11.21 1.02
3 -2 -1 3.39 0.71
-3 -2 1 4.05 0.77
3 2 -1 4.11 0.61
-3 2 1 3.91 0.73
2 -2 -1 47.48 1.99
-2 -2 1 43.44 1.95
2 2 -1 48.96 1.82
-2 2 1 47.94 2
1 -2 -1 12.05 0.85
-1 -2 1 12.08 0.84
1 2 -1 11.85 0.78
-1 2 1 11.21 0.74
0 2 -1 44.86 1.7
0 2 1 46.65 1.68
0 2 1 46.26 2
-1 -2 -1 38.74 1.9
-1 2 -1 40.62 1.79
1 2 1 37.63 1.86
2 -2 1 77.31 3.08
-2 -2 -1 85.52 3.29
2 2 1 82.88 3.24
2 2 1 86.06 2.61
-2 2 -1 83.52 3.06
-3 -2 -1 16.81 0.87
-3 -2 -1 15.83 1.3
3 -2 1 16.74 1.26
-3 2 -1 15.85 1.22
3 2 1 18.3 0.9
-4 -2 -1 6.41 0.64
-4 -2 -1 7.91 0.99
4 -2 1 7.85 0.96
4 2 1 9.07 0.75
-4 2 -1 8.21 0.98
5 -2 1 7.09 1.16
-5 -2 -1 4.87 1.06
-5 -2 -1 6.58 0.76
-5 2 -1 7.12 1.12
6 -2 1 0.74 0.55
-6 -2 -1 0.72 0.58
-6 -2 -1 0.61 0.48
-6 2 -1 0.64 0.54
6 2 1 1.11 0.44
7 -2 1 39.27 2.53
-7 -2 -1 41.25 2.13
-7 -2 -1 40.48 2.74
7 2 1 41.01 2.13
-7 2 -1 41.07 2.47
-8 -2 -1 -0.36 0.55
8 2 1 0.33 0.55
-8 2 -1 0.33 0.63
-9 -2 -1 0.46 0.54
-9 2 -1 0.08 0.65
9 2 1 0.67 0.67
-10 -2 -1 -0.12 0.61
-10 2 -1 0.29 0.94
-11 -2 -1 1.13 0.87
-11 2 -1 0.3 0.88
-10 -3 1 0.88 0.64
-10 3 1 -0.73 0.69
-9 -3 1 -0.13 0.48
-9 3 1 1.16 0.93
-8 -3 1 4.47 0.9
-8 3 1 6.93 1.3
8 3 -1 3.61 0.86
-7 -3 1 2.18 0.68
-7 -3 1 2.34 0.92
7 3 -1 3.92 0.82
-6 -3 1 8.81 0.98
-6 -3 1 9.75 1.49
6 3 -1 8.06 0.94
-6 3 1 7.24 1.24
5 -3 -1 6.01 1.08
-5 -3 1 7.13 1.22
5 3 -1 5.63 0.82
-5 3 1 5.26 0.99
-4 -3 1 15.43 1.34
4 -3 -1 15.31 1.39
-4 3 1 15.29 1.34
4 3 -1 15.4 1.08
3 -3 -1 1.47 0.61
-3 -3 1 2.85 0.7
-3 3 1 1.17 0.54
2 -3 -1 0.45 0.43
-2 -3 1 0.8 0.48
-2 3 1 0.94 0.46
-1 -3 1 31.25 1.67
-1 3 1 32.35 1.85
-1 3 1 30.05 1.53
1 3 -1 31.63 1.57
0 3 1 46.87 1.94
0 3 1 46.18 2.27
0 3 -1 47.85 1.99
-1 -3 -1 26.65 1.75
1 3 1 25.9 1.65
-1 3 -1 24.63 1.55
-1 3 -1 26.03 1.44
-2 -3 -1 26.27 1.79
2 3 1 26.27 1.72
2 3 1 26.45 1.17
-2 3 -1 28.55 1.64
-3 -3 -1 9.31 1.13
3 -3 1 9.06 1.04
3 3 1 10.08 0.7
-3 3 -1 9.53 1.03
4 -3 1 0.6 0.6
-4 -3 -1 -0.26 0.45
4 3 1 0.58 0.34
-4 3 -1 0.21 0.54
-5 -3 -1 38.63 2.57
5 -3 1 46.68 3.9
-5 3 -1 38.9 2.35
5 3 1 36.62 1.77
-6 -3 -1 6.04 0.83
-6 -3 -1 6.5 1.37
6 -3 1 8.36 1.42
-6 3 -1 8.07 1.3
6 3 1 6.53 0.89
-7 -3 -1 0.55 0.47
-7 3 -1 -0.34 0.54
7 3 1 0.47 0.42
-8 -3 -1 3.56 0.78
8 3 1 6.87 1.04
-8 3 -1 2.22 0.87
-9 -3 -1 0.85 0.57
-9 3 -1 0.17 0.75
9 3 1 1.47 0.69
-10 -3 -1 0.23 0.58
-10 4 1 -0.43 0.95
-9 4 1 0.59 0.87
8 4 -1 0.69 0.61
-8 4 1 -0.47 0.73
7 4 -1 1.15 0.66
-7 4 1 2.32 0.86
-6 -4 1 5.76 1.29
6 4 -1 5.37 0.87
-5 -4 1 7.65 1.36
5 -4 -1 10.21 1.6
5 4 -1 7.52 0.82
-5 4 1 7.13 1.21
4 -4 -1 -0.18 0.57
-4 -4 1 0.18 0.57
-4 4 1 0.33 0.59
4 4 -1 1.67 0.53
-3 -4 1 -0.13 0.43
3 -4 -1 1.21 0.57
3 4 -1 1.18 0.39
-3 4 1 0.67 0.52
-2 -4 1 27.6 1.82
-2 4 1 30.28 1.78
-1 4 1 2.11 0.71
-1 4 1 2.91 0.65
1 4 -1 1.63 0.56
0 4 1 0.43 0.38
0 4 -1 0.59 0.46
0 4 1 1.26 0.64
0 4 -1 1.16 0.48
1 4 1 0.16 0.35
1 4 1 -0.01 0.49
-1 4 -1 0.43 0.44
-1 4 -1 0.47 0.5
-2 -4 -1 14.56 1.5
2 4 1 14.37 0.92
2 4 1 15.43 1.38
-2 4 -1 14.49 1.29
-3 -4 -1 0.77 0.67
-3 4 -1 0.38 0.61
3 4 1 0.15 0.27
-4 -4 -1 1.07 0.69
4 4 1 -0.03 0.44
-4 4 -1 -0.06 0.55
-5 -4 -1 9.32 1.6
5 -4 1 8.16 1.38
-5 4 -1 8.36 1.42
5 4 1 8.05 0.81
-6 4 -1 -0.55 0.5
6 4 1 -0.02 0.44
7 4 1 0.54 0.5
-7 4 -1 -0.07 0.64
8 4 1 2.54 0.73
-8 4 -1 3.13 1.08
9 4 1 0.51 0.65
-9 4 -1 -0.12 0.73
-8 5 1 -0.69 0.6
-7 5 1 0.04 0.66
7 5 -1 0.38 0.53
-6 5 1 2.82 0.97
6 5 -1 3.59 0.74
-5 -5 1 10.82 1.68
-5 5 1 10.93 1.33
5 5 -1 8.98 0.92
-4 -5 1 3.61 1.04
4 5 -1 3.13 0.63
-4 5 1 1.79 0.79
-3 -5 1 8.36 1.38
3 5 -1 7.08 0.79
-3 5 1 6.28 1.31
-3 5 1 7.06 1.21
-2 5 1 4.93 0.98
-2 5 1 4.43 1.07
1 5 -1 0.08 0.54
-1 5 1 -0.05 0.46
1 5 -1 0.03 0.45
-1 5 1 -0.32 0.62
0 5 1 0.11 0.65
0 5 -1 0.87 0.62
0 5 -1 0.58 0.57
0 5 1 0.85 0.58
1 5 1 14.04 1.22
-1 5 -1 14.09 1.42
1 5 1 12.87 1.43
2 5 1 6.17 1.25
2 5 1 8.53 0.77
-2 5 -1 7.86 1.2
-2 5 -1 7.48 1.26
-3 -5 -1 1.59 0.83
3 5 1 1.84 0.47
-4 -5 -1 1.53 0.95
-4 5 -1 2.07 0.99
4 5 1 2.01 0.48
5 5 1 1.41 0.44
-5 5 -1 0.93 0.7
-6 5 -1 5.11 1.29
6 5 1 3.26 0.67
-7 5 -1 1.71 0.91
7 5 1 3.29 0.69
8 5 1 0.08 0.54
6 6 -1 0.09 0.55
-6 6 1 1.67 0.94
5 6 -1 -0.56 0.44
-5 6 1 -0.56 0.5
-4 -6 1 -1.13 0.71
-4 6 1 0.31 0.52
-4 6 1 -0.15 0.69
3 6 -1 4.74 0.93
-3 6 1 4.03 0.98
-3 6 1 4.48 1.11
2 6 -1 4.96 0.98
-2 6 1 3.45 0.88
-2 6 1 3.22 0.93
-1 6 1 14.39 1.36
1 6 -1 12.1 1.29
1 6 -1 11.5 1.35
-1 6 1 12.71 1.48
0 6 -1 2.24 0.76
0 6 1 2.58 0.88
0 6 -1 3.41 0.9
0 6 1 2.72 0.76
1 6 1 -0.18 0.44
-1 6 -1 1.28 0.68
1 6 1 0.11 0.59
-1 6 -1 -0.23 0.52
2 6 1 9.08 0.9
2 6 1 13.46 1.19
-2 6 -1 7.53 1.26
2 6 1 9.13 1.5
-3 6 -1 0.28 0.7
3 6 1 0.95 0.54
3 6 1 0.41 0.35
-3 6 -1 1.07 0.68
4 6 1 5.89 0.97
-4 6 -1 6.35 1.29
-4 6 -1 8.36 1.47
4 6 1 4.21 0.69
5 6 1 0.6 0.4
-5 6 -1 0.57 0.7
6 6 1 4.09 0.71
-6 6 -1 2.78 1.15
-7 6 -1 1.2 0.89
-4 7 1 -1.37 0.53
4 7 -1 2.27 0.78
-4 7 1 0.44 0.74
3 7 -1 -0.63 0.49
-3 7 1 1.69 0.9
-2 7 1 2.23 0.88
2 7 -1 2.98 0.97
-2 7 1 1.94 1.01
-1 7 1 0.52 0.71
-1 7 1 1.89 0.89
0 7 -1 0.81 0.69
0 7 1 0.4 0.61
0 7 1 1.56 0.86
0 7 -1 0.82 0.62
1 7 1 1.56 0.63
1 7 1 1.05 0.76
-1 7 -1 0.47 0.6
-1 7 -1 0.77 0.77
-2 7 -1 2.46 0.94
2 7 1 0.03 0.56
-2 7 -1 1.22 0.79
2 7 1 0.89 0.6
-3 7 -1 -0.55 0.65
3 7 1 -0.21 0.37
3 7 1 1.16 0.63
-3 7 -1 -0.94 0.57
-4 7 -1 -0.94 0.84
4 7 1 0.58 0.55
-11 0 2 3.37 1.16
-10 0 2 1.04 0.83
-9 0 2 40.97 2.68
8 0 -2 47.2 2.75
-8 0 2 51.31 2.79
-7 0 2 5.82 1.1
7 0 -2 6.11 1.06
6 0 -2 -0.19 0.36
-6 0 2 0.88 0.54
-5 0 2 30.66 1.71
5 0 -2 29.36 1.67
4 0 -2 1.67 0.61
-4 0 2 1.64 0.51
3 0 -2 -0.34 0.28
-3 0 2 -0.05 0.29
2 0 -2 239.42 6.85
-2 0 2 235.73 6.83
1 0 -2 312.86 8.74
-1 0 2 317.31 8.75
0 0 -2 12.26 0.72
0 0 2 12.85 0.7
-1 0 -2 258.94 7.53
1 0 2 270.79 7.69
-1 0 -2 278.68 7.73
2 0 2 15.58 0.92
-2 0 -2 17.2 0.91
3 0 2 74.35 2.61
-3 0 -2 69.69 2.56
4 0 2 4.88 0.75
-4 0 -2 3.91 0.69
-5 0 -2 57.52 2.7
5 0 2 51.78 2.4
6 0 2 12.68 1.17
-6 0 -2 9.45 1.09
-7 0 -2 6.45 1.12
7 0 2 5.03 1.03
8 0 2 0.82 0.62
-8 0 -2 -0.06 0.67
-10 0 -2 1.88 1.09
-11 0 -2 1.25 1.16
-11 -1 2 0.08 0.83
-11 1 2 -0.17 0.79
-10 -1 2 0.24 0.69
-10 1 2 0.68 0.97
-9 -1 2 1.11 0.88
-9 1 2 1.15 0.91
-8 -1 2 0.45 0.72
-8 1 2 1.33 0.82
8 1 -2 -0.42 0.61
7 -1 -2 14.22 1.5
-7 -1 2 13.97 1.38
7 1 -2 13.95 1.32
-7 1 2 15.72 1.57
-6 -1 2 9.29 1.02
6 -1 -2 10.7 1.17
6 1 -2 8.68 1.03
-6 1 2 9.88 1.12
5 -1 -2 0.16 0.44
-5 -1 2 1.6 0.63
5 1 -2 0 0.36
-5 1 2 0.65 0.52
-4 -1 2 70.34 2.68
4 -1 -2 73.2 2.79
-4 1 2 62.49 2.77
4 1 -2 63.62 2.86
3 -1 -2 30.72 1.48
-3 -1 2 29.54 1.43
-3 1 2 28.87 1.46
3 1 -2 31.57 1.42
2 -1 -2 31.35 1.33
-2 -1 2 29.81 1.33
2 1 -2 30.82 1.33
-2 1 2 28.59 1.31
1 -1 -2 36.85 1.33
-1 1 2 36.03 1.33
0 -1 -2 107.09 2.96
0 1 2 106.42 3.52
0 1 2 101.36 2.93
-1 -1 -2 316.5 9.42
1 1 2 318.3 9.43
-1 1 -2 329.41 9.22
-2 -1 -2 27.94 1.55
2 -1 2 30.33 1.45
-2 -1 -2 26.14 1
2 1 2 26.96 1.04
-2 1 -2 29.28 1.4
-3 -1 -2 4.39 0.82
3 -1 2 3.45 0.67
-3 1 -2 3.49 0.65
3 1 2 4.83 0.53
4 -1 2 17.92 1.27
-4 -1 -2 16.9 1.36
-4 1 -2 15.4 1.92
4 1 2 14.93 1
5 -1 2 8.8 1
-5 -1 -2 7.48 0.83
-5 1 -2 9.17 1.02
5 1 2 8.29 0.84
-6 -1 -2 1.95 0.68
6 -1 2 0.68 0.53
6 1 2 0.61 0.43
-6 1 -2 0.79 0.54
-7 -1 -2 -0.16 0.66
7 -1 2 0.73 0.62
-7 1 -2 0.79 0.63
7 1 2 0.97 0.57
-8 -1 -2 -0.8 0.68
-8 1 -2 0.67 0.77
-9 -1 -2 7.77 1.36
-9 1 -2 6.09 1.41
9 1 2 4.33 1.23
-10 -1 -2 2.57 1.05
-10 1 -2 2.37 1.17
-11 -1 -2 -1.11 0.86
-11 1 -2 0.57 1
-11 -2 2 1.51 0.91
-11 2 2 0.48 0.94
-10 -2 2 4.05 1.08
-10 2 2 5.49 1.45
-9 2 2 -0.74 0.71
-8 -2 2 6.08 1.12
8 2 -2 3.49 0.92
-8 2 2 5.5 1.19
-7 -2 2 32.93 2.03
7 -2 -2 28.34 2.11
7 2 -2 32.45 2.03
-7 2 2 30.56 2.18
-6 -2 2 6.34 0.99
6 -2 -2 5.76 1.08
6 2 -2 6.2 0.97
-6 2 2 5.63 1.05
-5 -2 2 4.27 0.76
5 -2 -2 4.41 0.91
5 2 -2 4.53 0.73
-5 2 2 5.07 0.9
4 -2 -2 13.07 1.13
-4 -2 2 14.47 1.04
-4 2 2 13.91 1.14
4 2 -2 14.31 1
3 -2 -2 29.22 1.82
-3 2 2 32.44 1.61
3 2 -2 34.54 1.6
2 -2 -2 56.66 2.21
-2 -2 2 55.62 2.16
2 2 -2 59.13 2.2
-2 2 2 55.73 2.18
-1 -2 2 63.6 2.1
1 -2 -2 55.49 2.11
-1 2 2 59.14 2.11
0 2 2 124.11 4.46
0 2 2 132.08 3.88
0 2 -2 137.86 3.83
-1 -2 -2 0.03 0.45
1 2 2 -0.93 0.36
-1 2 -2 -0.15 0.36
1 2 2 0.01 0.17
-2 -2 -2 0.78 0.63
2 2 2 1.98 0.65
-2 2 -2 1.87 0.56
2 2 2 1.61 0.23
-3 -2 -2 11.8 1.18
-3 -2 -2 11.13 0.62
3 -2 2 10.57 1.1
-3 2 -2 8.19 0.94
-4 -2 -2 33.79 1.48
-4 -2 -2 37.19 2.23
4 -2 2 36.3 2.09
4 2 2 38.24 1.51
-4 2 -2 34.97 2
-5 -2 -2 1.92 0.76
-5 -2 -2 1.58 0.48
5 -2 2 1.77 0.71
5 2 2 1.46 0.43
-5 2 -2 1.19 0.61
-6 -2 -2 0.07 0.46
-6 -2 -2 1.74 0.77
-6 2 -2 0.2 0.52
6 2 2 0.34 0.39
-7 -2 -2 1.2 0.56
-7 -2 -2 1.78 0.95
7 -2 2 0.74 0.72
-7 2 -2 1.54 0.69
7 2 2 1.13 0.55
-8 -2 -2 3.55 0.91
-8 2 -2 3.83 1.05
8 2 2 4.26 0.88
-9 -2 -2 0 0.54
9 2 2 0.79 0.66
-9 2 -2 0.18 0.64
-10 -2 -2 0.67 0.61
-10 2 -2 -0.37 0.68
-11 -2 -2 -0.57 0.71
-11 2 -2 2.35 1.14
-10 -3 2 0.82 0.7
-10 3 2 0.84 0.91
-9 -3 2 -0.54 0.52
-9 3 2 0.33 0.86
-8 -3 2 0.45 0.48
8 3 -2 3.5 0.88
-8 3 2 1.15 0.93
-7 -3 2 20.6 1.94
-7 -3 2 17.86 1.5
7 3 -2 22.16 1.88
-7 3 2 20.61 2.06
-6 -3 2 1.91 0.74
6 -3 -2 1.56 0.78
-6 3 2 2.3 0.83
6 3 -2 2.8 0.73
5 -3 -2 -0.08 0.46
-5 -3 2 0.33 0.53
-5 3 2 0.48 0.51
5 3 -2 0.45 0.37
-4 -3 2 15.81 1.31
4 -3 -2 15.84 1.31
4 3 -2 16.24 1.16
-4 3 2 16.68 1.34
3 -3 -2 0.34 0.43
-3 -3 2 0.44 0.41
-3 3 2 0.82 0.43
3 3 -2 0.41 0.32
2 -3 -2 13.55 1.23
-2 -3 2 11.36 0.96
-2 3 2 8.89 0.85
-1 -3 2 28.62 1.46
-1 3 2 28.96 1.84
-1 3 2 28.1 1.41
0 3 2 0.06 0.48
0 3 -2 -0.22 0.24
0 3 2 -0.23 0.22
-1 -3 -2 28.53 1.92
1 3 2 26.14 1.76
1 3 2 29.22 1.23
-1 3 -2 25.47 1.64
-1 3 -2 27.8 1.37
-2 -3 -2 10.57 1.23
-2 3 -2 12.31 1.16
2 3 2 12.94 1.29
2 3 2 12.95 0.67
-3 3 -2 1.02 0.54
-4 -3 -2 9.85 1.5
4 -3 2 6.87 1.15
4 3 2 7.89 0.68
-4 3 -2 9.37 1.31
5 -3 2 2.28 0.79
-5 -3 -2 1.18 0.76
5 3 2 3.31 0.58
-5 3 -2 0.81 0.6
-6 -3 -2 0.33 0.68
6 -3 2 -1.07 0.45
-6 3 -2 -0.11 0.6
6 3 2 -0.34 0.32
-7 -3 -2 8.35 0.91
7 3 2 10.86 1.02
-7 3 -2 11.07 1.64
-8 -3 -2 1.77 0.6
8 3 2 2.35 0.71
-8 3 -2 3.47 0.98
-9 -3 -2 0.62 0.58
9 3 2 0.68 0.68
-9 3 -2 1.37 0.95
-10 3 -2 0.8 0.87
-10 4 2 1.47 0.99
-9 4 2 -0.93 0.64
-8 4 2 0.36 0.74
-7 4 2 -0.69 0.61
7 4 -2 0.07 0.46
-6 -4 2 7.52 1.4
6 4 -2 6.47 1.03
-6 4 2 7.09 1.22
-5 -4 2 1.66 0.78
5 -4 -2 0.94 0.7
5 4 -2 0.99 0.51
-5 4 2 1.29 0.74
-4 -4 2 8.56 1.29
4 -4 -2 8.02 1.27
4 4 -2 9.11 0.92
-4 4 2 9.68 1.16
3 -4 -2 13.61 1.32
-3 -4 2 11.23 1.19
3 4 -2 11.22 0.98
-3 4 2 11.86 1.16
-2 -4 2 1.85 0.64
-2 4 2 4.53 1.01
-2 4 2 2.11 0.62
-1 4 2 67.08 2.7
-1 4 2 64.68 3.18
0 4 -2 6.29 1
0 4 -2 6.96 0.75
0 4 2 8.86 1.3
0 4 2 7.29 0.73
-1 4 -2 4.72 0.98
-1 4 -2 5.47 0.8
1 4 2 6.57 1.15
1 4 2 6.04 0.67
-2 -4 -2 2.04 0.86
2 4 2 2.04 0.48
2 4 2 2.33 0.84
-2 4 -2 1.58 0.66
2 4 2 1.19 0.34
-3 -4 -2 1.2 0.69
3 4 2 -0.31 0.2
-3 4 -2 0.23 0.53
3 4 2 0.3 0.57
-4 -4 -2 8.14 1.8
-4 4 -2 11.3 1.34
4 4 2 9.99 0.76
-5 -4 -2 4.45 1.2
5 4 2 3.87 0.66
-5 4 -2 3.5 1.04
6 4 2 0.39 0.42
-6 4 -2 0.41 0.76
7 4 2 5.32 0.8
-7 4 -2 6.05 1.27
-8 4 -2 0.3 0.69
8 4 2 -0.36 0.5
9 4 2 -0.41 0.62
-9 4 -2 -2.62 0.9
-9 5 2 -0.68 0.82
-8 5 2 1.21 0.83
7 5 -2 0.9 0.57
-7 5 2 -0.01 0.64
-6 -5 2 2.89 1.15
-6 5 2 2.34 0.84
6 5 -2 1.67 0.63
-5 -5 2 1.52 1.02
5 5 -2 1.2 0.6
-4 -5 2 0.34 0.7
-4 5 2 -0.45 0.48
4 5 -2 0.15 0.41
-3 -5 2 0.22 0.71
-3 5 2 0.38 0.71
-3 5 2 0.97 0.62
3 5 -2 0.31 0.4
-2 5 2 0.37 0.5
-2 5 2 -0.01 0.63
-1 5 2 -0.62 0.63
-1 5 2 0.42 0.5
0 5 -2 2.08 0.57
0 5 -2 2.26 0.79
0 5 2 2.03 0.63
0 5 2 4.79 1.17
1 5 2 4.56 1.12
-1 5 -2 5.43 1.14
1 5 2 4.55 0.77
-1 5 -2 7.15 0.89
-2 5 -2 1.94 0.63
2 5 2 1.57 0.48
2 5 2 2.02 0.76
-2 5 -2 2.87 0.82
-3 -5 -2 4.92 1.2
-3 5 -2 3.62 1.05
3 5 2 4.22 0.7
3 5 2 4.91 0.58
-4 -5 -2 0.69 0.7
-4 5 -2 0.62 0.68
4 5 2 1.04 0.34
-5 5 -2 0.91 0.78
-6 5 -2 0.56 0.81
6 5 2 -0.46 0.34
7 5 2 0.28 0.41
-7 5 -2 0.42 0.69
8 5 2 0.3 0.52
-8 5 -2 0.6 0.86
-7 6 2 0.35 0.77
-6 6 2 0.6 0.7
-5 -6 2 0.42 0.94
5 6 -2 -1 0.46
-5 6 2 0.33 0.65
-4 -6 2 0.05 0.91
-4 6 2 0.39 0.84
4 6 -2 0.65 0.51
-4 6 2 0.7 0.6
-3 6 2 1.19 0.64
-3 6 2 0.86 0.74
3 6 -2 0.16 0.45
2 6 -2 3.2 0.97
-2 6 2 5.66 1.03
-2 6 2 4.7 1.2
-1 6 2 3.65 0.83
-1 6 2 3.48 1.06
1 6 -2 2.91 0.93
0 6 2 -0.29 0.46
0 6 -2 0.97 0.67
0 6 2 -0.22 0.6
1 6 2 1 0.76
-1 6 -2 0.38 0.86
1 6 2 0.42 0.48
-1 6 -2 0.26 0.64
-2 6 -2 3.33 1
2 6 2 3.57 0.98
2 6 2 2.18 0.59
-2 6 -2 2.57 0.74
3 6 2 1.63 0.46
-3 6 -2 0.75 0.71
-3 6 -2 2.93 0.83
4 6 2 1.4 0.39
-4 6 -2 0.15 0.61
-4 6 -2 0 0.65
4 6 2 -0.61 0.38
5 6 2 0.33 0.41
5 6 2 1.15 0.58
-5 6 -2 1.08 0.96
6 6 2 1.72 0.47
-6 6 -2 1.4 1
-4 7 2 -0.07 0.69
-4 7 2 -0.15 0.81
-3 7 2 0.53 0.61
3 7 -2 0.01 0.58
-3 7 2 1.16 0.88
2 7 -2 1 0.71
-2 7 2 0.99 0.66
-2 7 2 -0.9 0.71
1 7 -2 1.14 0.75
-1 7 2 0.24 0.58
-1 7 2 0.07 0.84
0 7 2 1.21 0.85
0 7 2 -0.24 0.45
0 7 -2 1.06 0.83
-1 7 -2 0.75 0.77
1 7 2 -0.98 0.52
1 7 2 -0.24 0.43
-1 7 -2 0.1 0.53
-2 7 -2 0.04 0.6
2 7 2 0.33 0.37
2 7 2 0.66 0.53
-2 7 -2 0.22 0.75
3 7 2 0.3 0.47
3 7 2 1.42 0.46
-3 7 -2 7.68 1.62
-3 7 -2 -0.16 0.63
-4 7 -2 0.24 1
-4 7 -2 -0.83 0.64
-11 0 3 0.41 0.95
-10 0 3 -0.56 0.65
-9 0 3 0.14 0.78
8 0 -3 1.62 0.75
-8 0 3 1.36 0.77
-7 0 3 0.72 0.65
6 0 -3 0.23 0.41
-6 0 3 -0.23 0.43
-5 0 3 1.98 0.67
5 0 -3 -0.16 0.35
-4 0 3 -0.43 0.37
4 0 -3 -0.46 0.35
3 0 -3 0.75 0.37
-3 0 3 -0.16 0.28
2 0 -3 0.49 0.3
-2 0 3 -0.3 0.31
1 0 -3 -0.02 0.32
-1 0 3 0.13 0.29
0 0 3 0.4 0.42
1 0 3 0.87 0.47
-1 0 -3 0.58 0.49
-2 0 -3 -0.06 0.36
2 0 3 -0.09 0.27
-2 0 -3 0.03 0.28
3 0 3 0.1 0.36
-3 0 -3 0.44 0.37
4 0 3 0.31 0.37
-4 0 -3 -0.41 0.27
5 0 3 0.63 0.44
-5 0 -3 0.24 0.37
-6 0 -3 0.02 0.46
6 0 3 0.26 0.46
-7 0 -3 -0.63 0.55
7 0 3 0.27 0.53
8 0 3 0.76 0.61
-8 0 -3 0.55 0.75
-9 0 -3 -0.62 0.58
-10 0 -3 -0.42 0.76
-11 0 -3 0.95 1.17
-11 -1 3 -0.95 0.64
-11 1 3 -1.6 0.75
-10 -1 3 -0.13 0.59
-10 1 3 -0.11 0.88
-9 -1 3 3.11 1.02
-9 1 3 2.45 0.96
-8 -1 3 1.22 0.83
8 1 -3 0.73 0.68
-8 1 3 0.31 0.9
-7 -1 3 4.47 1.03
7 -1 -3 5.3 1.09
7 1 -3 3.93 0.94
-7 1 3 4.81 1.05
6 -1 -3 7.73 1.16
-6 -1 3 8.97 1.04
-6 1 3 8.56 1.22
6 1 -3 8.85 1.22
5 -1 -3 22.55 1.5
-5 -1 3 24.51 1.56
-5 1 3 24.48 1.58
5 1 -3 25.63 1.53
-4 -1 3 65.12 2.69
4 -1 -3 67.74 2.7
-4 1 3 66.04 3.05
4 1 -3 68.09 2.65
-3 -1 3 123.31 4.07
3 -1 -3 122.29 4.07
-3 1 3 124.77 4.08
3 1 -3 121.9 4.07
-2 -1 3 327.23 9.33
2 -1 -3 318.7 9.21
-2 1 3 326.35 9.23
2 1 -3 320.69 9.31
1 -1 -3 40.71 1.48
-1 1 3 41.13 1.46
0 -1 3 838.22 22.5
-1 -1 -3 43.06 2.04
-1 -1 -3 42.52 1.26
-1 1 -3 41.78 1.51
1 1 3 41.27 1.99
-2 -1 -3 4.29 0.35
-2 -1 -3 5.14 0.92
-2 1 -3 5.52 0.8
2 1 3 3.89 0.39
2 1 3 3.59 0.78
-3 -1 -3 13.75 1.26
-3 -1 -3 15.75 0.82
3 1 3 16.41 0.87
-3 1 -3 16.37 1.13
4 -1 3 1.64 0.66
-4 -1 -3 1.12 0.51
-4 -1 -3 1.46 0.47
-4 1 -3 1.76 0.65
4 1 3 1.64 0.45
-5 -1 -3 34.37 1.65
5 -1 3 32.08 1.97
-5 -1 -3 36.03 2.23
-5 1 -3 31.8 1.9
6 -1 3 -0.82 0.49
-6 -1 -3 -0.72 0.44
-6 -1 -3 -0.11 0.4
6 1 3 0.3 0.42
-6 1 -3 0.41 0.49
7 -1 3 1.54 0.73
-7 -1 -3 1.43 0.73
-7 -1 -3 1.68 0.79
7 1 3 2.53 0.67
-7 1 -3 1.36 0.72
-8 -1 -3 15.1 1.52
8 1 3 12.17 1.78
-8 1 -3 12.87 1.53
-9 -1 -3 -0.25 0.67
-9 1 -3 1 0.79
9 1 3 0.17 0.52
-10 -1 -3 1.31 0.93
-10 1 -3 -0.54 0.83
-11 -1 -3 -0.62 0.87
-11 1 -3 0.58 0.95
-11 -2 3 0.35 0.69
-11 2 3 -0.26 0.8
-10 -2 3 0.08 0.57
-10 2 3 0.59 0.93
-9 -2 3 0.85 0.73
-9 2 3 -0.25 0.68
-8 -2 3 0.04 0.51
8 2 -3 0.73 0.61
-8 2 3 2.52 0.98
7 -2 -3 0.41 0.64
-7 -2 3 1.65 0.74
-7 2 3 2.03 0.81
6 -2 -3 10.68 1.26
-6 -2 3 12.27 1.14
-6 2 3 10.31 1.2
6 2 -3 10.68 1.14
-5 -2 3 5.39 0.91
5 -2 -3 6.3 1.08
5 2 -3 7.83 1.06
-5 2 3 6.67 1.08
-4 -2 3 1.64 0.52
4 -2 -3 2.07 0.67
-4 2 3 3.16 0.75
4 2 -3 2.41 0.58
3 -2 -3 54.77 2.72
3 2 -3 55.74 2.38
-3 2 3 61.86 2.42
2 -2 -3 36.95 1.67
-2 2 3 36.76 1.58
2 2 -3 33.73 1.67
-1 -2 3 18.78 0.8
1 -2 -3 17.34 0.94
-1 2 3 18.82 0.91
0 -2 -3 0.69 0.25
0 2 3 0.46 0.53
0 2 3 0.51 0.18
-1 -2 -3 45.61 2.65
1 2 3 47.04 2.39
-2 -2 -3 32.78 2
-2 2 -3 30.78 1.77
2 2 3 33.79 1.99
-3 -2 -3 6.29 0.42
-3 -2 -3 5.89 1.09
-3 2 -3 6.97 1.02
3 2 3 6.12 0.47
4 -2 3 8.03 1.21
-4 -2 -3 9.54 1.21
-4 -2 -3 9.26 0.66
-4 2 -3 9.08 1.05
4 2 3 9.49 0.69
5 -2 3 16.33 1.54
-5 -2 -3 15.64 1.59
-5 -2 -3 15.91 0.99
-5 2 -3 16.47 1.5
5 2 3 16.08 1.05
6 -2 3 13.07 1.47
-6 -2 -3 11.79 1.47
-6 -2 -3 17.58 1.17
-6 2 -3 14.53 1.47
6 2 3 13.21 1.09
-7 -2 -3 0.34 0.52
-7 2 -3 0.54 0.64
7 2 3 0.3 0.44
-8 -2 -3 3.56 0.87
8 2 3 3.1 0.73
-8 2 -3 3.92 1.06
-9 -2 -3 1.31 0.71
-9 2 -3 0.21 0.71
9 2 3 1.08 0.64
-10 -2 -3 -0.69 0.52
-10 2 -3 -0.07 0.74
-10 -3 3 0.25 0.63
-10 3 3 -0.29 0.83
-9 -3 3 0.1 0.56
-9 3 3 -0.47 0.69
-8 -3 3 13.04 1.39
-8 3 3 12.16 1.77
-7 -3 3 3.78 0.88
-7 3 3 3.12 1.16
7 3 -3 6.05 1.07
6 -3 -3 0.48 0.69
6 3 -3 1.12 0.61
-6 3 3 0.29 0.77
5 -3 -3 8.08 1.21
-5 3 3 9.93 1.12
5 3 -3 8.91 0.97
-4 -3 3 19.41 1.46
4 -3 -3 21.06 1.55
4 3 -3 20.74 1.42
-4 3 3 23.14 1.52
3 -3 -3 82.54 3.28
-3 -3 3 84.01 3.21
3 3 -3 85.08 3.23
-3 3 3 82.75 3.19
-2 -3 3 1.33 0.46
2 -3 -3 1.75 0.53
-2 3 3 1.36 0.44
1 -3 -3 76.32 2.76
-1 3 3 72.01 2.63
-1 3 3 76.97 3.49
0 3 3 0.86 0.62
0 3 3 1.63 0.36
0 3 -3 1.32 0.27
-1 -3 -3 3.03 0.88
1 3 3 3.96 0.93
-1 3 -3 3.49 0.79
-1 3 -3 3.54 0.5
1 3 3 3.1 0.35
-2 -3 -3 4.01 0.92
2 3 3 4.84 0.36
2 3 3 4.57 0.3
2 3 3 5.09 1.05
-2 3 -3 9.17 1.11
-3 -3 -3 1.01 0.7
-3 3 -3 -0.28 0.42
3 3 3 0.1 0.54
3 3 3 0.4 0.19
-4 -3 -3 9.63 1.62
-4 3 -3 8.93 1.28
4 3 3 8.38 0.58
-5 -3 -3 1.88 0.9
5 -3 3 2.21 0.83
5 3 3 2.58 0.47
-5 3 -3 2.58 0.85
-6 -3 -3 4.83 0.68
-6 -3 -3 5.73 1.6
-6 3 -3 4.2 1.16
-7 -3 -3 -0.14 0.31
7 3 3 0.72 0.43
-7 3 -3 -0.81 0.48
-8 -3 -3 0.52 0.44
-8 3 -3 0.15 0.61
8 3 3 1.95 0.68
-9 -3 -3 -0.52 0.43
-9 3 -3 -0.58 0.63
-10 -3 -3 0.38 0.57
-10 3 -3 1.03 0.78
-10 4 3 0.05 0.72
-9 4 3 -0.53 0.74
-8 4 3 1.6 0.92
-7 -4 3 2.59 1.02
-7 4 3 3.03 1.02
7 4 -3 2.35 0.73
-6 -4 3 -0.19 0.59
6 4 -3 -0.3 0.38
-6 4 3 0.63 0.68
5 -4 -3 10.67 1.32
-5 -4 3 10.93 1.33
5 4 -3 11.43 1.16
-5 4 3 12.27 1.39
4 -4 -3 0.31 0.61
-4 -4 3 -0.05 0.54
-4 4 3 0.57 0.53
4 4 -3 0.01 0.35
3 -4 -3 0.91 0.58
3 4 -3 0.6 0.48
-3 4 3 0.48 0.48
2 -4 -3 9.36 0.98
-2 -4 3 8.61 0.93
-2 4 3 10.72 1
-2 4 3 10.28 1.59
-1 4 3 -0.03 0.5
-1 4 3 0.27 0.34
0 4 -3 13.56 0.85
0 4 3 15.05 0.97
0 4 3 12.29 1.38
-1 4 -3 0.42 0.32
-1 4 -3 0.75 0.6
1 4 3 0.48 0.31
1 4 3 0.48 0.57
-2 -4 -3 2.73 0.94
-2 4 -3 1.77 0.76
2 4 3 2.85 0.35
2 4 3 3.71 1.01
2 4 3 3.83 0.44
-3 -4 -3 4.19 1.09
-3 4 -3 5.99 1.11
3 4 3 4.8 0.5
3 4 3 5.64 0.44
3 4 3 5.69 1.28
-4 -4 -3 2.31 0.94
-4 4 -3 1.06 0.73
4 4 3 1.23 0.33
5 4 3 5.2 0.53
-6 4 -3 2.69 0.96
6 4 3 2.44 0.49
-7 4 -3 0.06 0.69
7 4 3 0.18 0.38
8 4 3 0.5 0.48
-8 4 -3 -0.09 0.7
-9 4 -3 0.49 0.83
9 4 3 -0.59 0.44
-8 5 3 -0.06 0.78
-7 5 3 2.14 0.92
-6 -5 3 6.65 1.43
-6 5 3 6.22 1.25
6 5 -3 5.87 1.03
-5 -5 3 0.98 0.77
5 5 -3 0.54 0.48
-5 5 3 -0.21 0.45
4 -5 -3 1.14 0.64
-4 -5 3 -0.16 0.61
-4 5 3 0.48 0.59
4 5 -3 0.46 0.46
-3 -5 3 1.96 0.78
-3 5 3 0.82 0.86
-3 5 3 1.82 0.7
-2 5 3 30.8 2.32
-2 5 3 25.78 1.72
-1 5 3 7.53 0.9
-1 5 3 5.15 1.21
0 5 3 4.58 1.2
0 5 -3 5.47 0.69
0 5 -3 3.4 0.88
0 5 3 6.74 0.89
1 5 3 3.08 0.57
-1 5 -3 2.26 0.58
1 5 3 3.08 0.95
-1 5 -3 4.36 1.1
2 5 3 9.57 0.66
-2 5 -3 10.49 0.98
2 5 3 8.54 0.73
-2 5 -3 12.68 1.45
2 5 3 10.84 1.69
-3 -5 -3 2.59 1.05
3 5 3 4.33 0.52
-3 5 -3 4.58 0.88
3 5 3 3.03 1.22
3 5 3 3.84 0.42
4 5 3 0.72 0.3
4 5 3 1.4 0.38
-4 5 -3 0.45 0.65
5 5 3 1.02 0.32
-5 5 -3 0.32 0.85
6 5 3 0.1 0.29
-6 5 -3 0.15 0.74
-7 5 -3 0.72 0.8
-8 5 -3 0.92 0.99
-7 6 3 -1.95 0.68
-6 6 3 -0.55 0.68
-5 -6 3 -0.72 0.77
-5 6 3 0.91 0.63
-4 -6 3 2.71 1.03
-4 6 3 3.86 1.22
-4 6 3 2.92 0.86
-3 6 3 0.92 0.88
-3 6 3 0.61 0.51
-2 6 3 0.36 0.82
-2 6 3 0.6 0.52
1 6 -3 -0.54 0.49
-1 6 3 -0.02 0.41
-1 6 3 -0.44 0.65
0 6 3 -0.14 0.4
0 6 3 0.86 0.81
-1 6 -3 2.79 0.61
1 6 3 2.8 1.01
-1 6 -3 2.05 0.95
2 6 3 -0.51 0.3
-2 6 -3 0.81 0.49
-2 6 -3 -0.18 0.63
3 6 3 -0.22 0.28
-3 6 -3 1.65 0.92
3 6 3 0.54 0.29
-4 6 -3 0.93 0.76
4 6 3 0.38 0.29
-4 6 -3 0.37 0.61
4 6 3 0.06 0.27
5 6 3 -0.38 0.23
-5 6 -3 -0.13 0.74
5 6 3 -0.32 0.2
-6 6 -3 -1.32 0.77
6 6 3 -0.09 0.23
6 6 3 -0.01 0.25
-4 7 3 0.53 0.65
-4 7 3 0.17 0.94
3 7 -3 0.02 0.67
-3 7 3 0.53 0.81
-3 7 3 -0.31 0.47
2 7 -3 1.4 0.89
-2 7 3 1.48 0.91
-2 7 3 1.22 0.65
-1 7 3 0.31 0.47
-1 7 3 0.2 0.86
1 7 -3 0.47 0.78
0 7 3 1.71 1.05
0 7 -3 0.54 0.65
0 7 3 1.57 0.6
1 7 3 2.53 0.6
1 7 3 0.85 0.9
-1 7 -3 2.07 0.94
2 7 3 0.79 0.75
-2 7 -3 1.08 0.71
2 7 3 0.15 0.34
-2 7 -3 0.72 0.83
-3 7 -3 0.04 0.68
-3 7 -3 -0.43 0.65
3 7 3 0.63 0.35
-11 0 4 0.09 0.85
-10 0 4 1.19 0.93
-9 0 4 3.21 1.13
-8 0 4 2.43 0.96
-7 0 4 21.43 1.77
7 0 -4 19.19 1.63
6 0 -4 15.55 1.34
-6 0 4 17.15 1.4
-5 0 4 27.31 1.68
5 0 -4 30.94 1.75
4 0 -4 29.2 1.63
3 0 -4 18.95 1.16
-3 0 4 18.99 1.18
2 0 -4 162.79 5.07
-2 0 4 167.98 5.11
1 0 -4 4.81 0.59
0 0 4 58.28 2.26
1 0 4 69.55 2.63
-1 0 -4 68.16 2.64
-2 0 -4 72.08 2.57
3 0 4 7.03 0.74
-3 0 -4 6.75 0.72
4 0 4 104.62 4.17
-4 0 -4 102.63 4.14
-4 0 -4 110.36 3.8
5 0 4 23.66 1.55
-5 0 -4 23.25 1.45
-6 0 -4 0.46 0.52
6 0 4 0.84 0.6
7 0 4 14.68 1.46
-7 0 -4 18.02 1.46
8 0 4 0.72 0.7
-8 0 -4 0.38 0.71
-9 0 -4 -0.38 0.62
-10 0 -4 -0.32 0.82
-11 0 -4 -0.77 0.87
-11 -1 4 0.95 0.86
-11 1 4 -0.37 0.86
-10 -1 4 -0.34 0.72
-10 1 4 0.31 0.84
-9 -1 4 1.13 0.86
-9 1 4 0.77 0.86
-8 -1 4 13.25 1.53
-8 1 4 12.84 1.55
-7 -1 4 0.52 0.66
7 -1 -4 0.49 0.56
-7 1 4 1.09 0.73
7 1 -4 0.49 0.55
6 -1 -4 9.38 1.08
-6 -1 4 9.44 1.1
6 1 -4 9.53 1.09
-6 1 4 10.32 1.15
5 -1 -4 35.31 1.9
-5 -1 4 35.26 1.94
-5 1 4 34.08 1.89
5 1 -4 32.38 1.82
-4 -1 4 3.43 0.72
4 -1 -4 3.22 0.71
4 1 -4 2.95 0.64
-4 1 4 2.77 0.7
3 -1 -4 126.08 4.15
-3 -1 4 121.84 4.16
-3 1 4 122.97 4.09
3 1 -4 121.66 4.18
2 -1 -4 4.49 0.62
-2 1 4 3.29 0.51
2 1 -4 4.26 0.64
1 -1 -4 62.33 2.12
-1 1 4 62.61 2.13
0 -1 -4 1000 26.57
0 -1 4 969.77 26.68
0 1 4 992.1 27.41
-1 -1 -4 72.4 2.98
-1 1 -4 69.19 2.44
1 1 4 73.13 3.01
-2 -1 -4 63.47 2.04
-2 1 -4 65.88 2.45
2 1 4 63.29 2.81
-2 1 -4 60.61 2.58
-3 -1 -4 20.24 1.57
-3 -1 -4 22.14 1
3 1 4 18.59 1.03
-3 1 -4 22 1.35
-4 -1 -4 12.18 0.83
-4 -1 -4 11.47 1.27
4 -1 4 13.17 1.22
4 1 4 12.05 0.91
-4 1 -4 12.62 1.12
-5 -1 -4 10 1.24
-5 -1 -4 7.11 0.82
5 -1 4 9.51 1.1
-5 1 -4 9.75 1.09
6 -1 4 18.62 1.68
-6 -1 -4 18.03 1.75
-6 -1 -4 17.78 1.32
-6 1 -4 19.08 1.53
6 1 4 19.13 1.34
7 -1 4 6.7 1.25
-7 1 -4 7.08 1.19
7 1 4 5.95 1.01
-8 -1 -4 5.36 1.06
-8 1 -4 2.18 0.92
8 1 4 3.38 0.98
-9 -1 -4 1.08 0.79
9 1 4 1.61 0.73
-9 1 -4 1.56 0.83
-10 -1 -4 1.46 0.86
-10 1 -4 -0.29 0.85
-11 -1 -4 0.21 0.92
-11 -2 4 0.22 0.72
-11 2 4 0.38 1.03
-10 -2 4 0.87 0.7
-10 2 4 1.09 0.92
-9 -2 4 1.64 0.79
-9 2 4 0.62 0.78
-8 -2 4 0.14 0.59
-8 2 4 3.25 0.99
7 -2 -4 3.91 0.95
-7 -2 4 -0.17 0.55
7 2 -4 0.98 0.64
-7 2 4 1.01 0.69
6 -2 -4 1.25 0.7
-6 -2 4 0.56 0.51
-6 2 4 0.8 0.62
6 2 -4 0.06 0.43
-5 -2 4 3.7 0.8
5 -2 -4 4.16 0.87
-5 2 4 4.93 0.99
5 2 -4 5.48 0.87
4 -2 -4 3.84 0.78
4 2 -4 5.55 0.84
-4 2 4 5.96 0.95
3 -2 -4 11.18 0.97
3 2 -4 11.63 0.97
-3 2 4 9.13 0.89
2 -2 -4 2.42 0.52
1 -2 -4 5.06 0.55
-1 2 4 4.62 0.49
-1 2 4 5.08 1
0 -2 -4 10.25 0.54
0 2 4 10.76 0.5
0 2 4 10.67 1.16
-1 -2 -4 6.44 1.2
-1 2 -4 6.44 0.42
1 2 4 6.12 1.17
-2 -2 -4 50.09 2.68
2 2 4 46.81 2.59
-2 2 -4 50.57 2.45
-3 -2 -4 13.97 0.59
-3 -2 -4 13.61 1.43
3 2 4 13.03 0.64
-3 2 -4 14.35 1.26
3 2 4 14.79 1.45
-4 -2 -4 0.81 0.28
-4 -2 -4 1.36 0.65
-4 2 -4 0.65 0.55
4 2 4 0.59 0.29
-5 -2 -4 6.84 0.66
5 -2 4 5.55 1.05
-5 -2 -4 6.66 1.32
5 2 4 5.88 0.65
-5 2 -4 5.95 1.1
-6 -2 -4 8.94 1.56
-6 -2 -4 7.15 0.83
6 -2 4 11.48 1.41
6 2 4 11.28 0.95
-6 2 -4 10.07 1.49
-7 -2 -4 1.13 0.66
-7 2 -4 0.91 0.76
7 2 4 1.33 0.54
-8 -2 -4 0.4 0.57
-8 2 -4 2.09 0.83
8 2 4 3.64 0.76
-9 -2 -4 3.96 0.89
9 2 4 4.39 0.9
-9 2 -4 2.43 0.99
-10 -2 -4 1.61 1.52
-10 -3 4 0.41 0.72
-10 3 4 1.08 1.19
-9 -3 4 0.23 0.55
-9 3 4 1.73 0.98
-8 -3 4 7.79 1.97
-8 3 4 6.57 1.43
-7 3 4 1.23 1.26
7 3 -4 0.65 0.58
6 -3 -4 2.34 0.81
-6 3 4 3.01 0.98
5 -3 -4 14.69 1.34
-5 3 4 11.94 1.34
5 3 -4 10.69 1.11
4 -3 -4 28.94 1.75
-4 3 4 29.4 1.8
4 3 -4 25.76 1.68
-3 -3 4 2.56 0.56
3 -3 -4 1.81 0.57
-3 3 4 1.81 0.54
3 3 -4 2.4 0.64
2 -3 -4 70.62 2.74
-2 -3 4 72.39 2.56
-2 3 4 73.62 2.71
1 -3 -4 7.8 0.73
-1 3 4 8.57 0.66
-1 3 4 10.01 1.49
0 3 4 10.91 1.51
0 3 4 6.9 0.51
-1 -3 -4 4.34 1.07
-1 3 -4 3.37 0.28
1 3 4 4.35 1.05
-2 -3 -4 0.72 0.66
2 3 4 -0.24 0.53
-2 3 -4 1.29 0.64
-3 -3 -4 20.33 1.82
3 3 4 18.49 1.75
-3 3 -4 18.78 1.6
-4 -3 -4 1.25 0.8
-4 3 -4 2.06 0.79
4 3 4 2.72 0.31
-5 -3 -4 1.46 0.98
-5 3 -4 0.14 0.56
5 3 4 0.68 0.32
-6 -3 -4 1.4 0.41
6 3 4 1.1 0.44
7 3 4 0.28 0.36
-7 3 -4 0.52 0.78
-8 -3 -4 -0.28 0.35
8 3 4 -0.11 0.41
-8 3 -4 0.58 0.8
-9 -3 -4 0.72 0.48
9 3 4 0.59 0.57
-9 3 -4 1.6 0.93
-10 -3 -4 -0.05 0.57
10 3 4 -0.08 0.8
-10 3 -4 -0.58 0.61
-10 4 4 2.45 1.14
-9 4 4 0.28 0.85
-8 4 4 2.06 0.94
-7 -4 4 -0.41 0.67
-7 4 4 -0.48 0.62
-6 -4 4 3.5 1.01
6 4 -4 4.52 0.95
-6 4 4 4.41 1.08
5 -4 -4 7.32 1.29
-5 -4 4 7.67 1.24
-5 4 4 6.61 1.21
5 4 -4 6.5 1.05
-4 -4 4 12.5 1.24
4 -4 -4 10.44 1.18
-4 4 4 10.8 1.19
4 4 -4 10.52 1.09
3 -4 -4 2.2 0.69
-3 -4 4 1.8 0.58
3 4 -4 1.45 0.63
-3 4 4 2.22 0.61
-2 -4 4 0.82 0.46
2 -4 -4 2.07 0.65
-2 4 4 2.15 0.9
-1 4 4 10.51 1.54
-1 4 4 9.68 0.79
0 4 4 1.03 0.78
0 4 4 0.31 0.25
-1 4 -4 0.12 0.52
1 4 4 0.25 0.19
1 4 4 0.66 0.71
-1 4 -4 0.35 0.2
-2 -4 -4 1.1 0.81
2 4 4 -0.22 0.74
-2 4 -4 -0.12 0.47
-3 -4 -4 9.67 1.63
-3 4 -4 9.72 1.48
3 4 4 10.54 1.74
-4 -4 -4 0.57 0.77
-4 4 -4 0.69 0.68
5 4 4 2.16 0.31
-5 4 -4 1.42 0.83
6 4 4 0.85 0.33
-6 4 -4 0.25 0.69
7 4 4 0.59 0.39
-7 4 -4 1.16 0.87
8 4 4 -0.2 0.39
-8 4 -4 0.65 0.78
-9 4 -4 -0.76 0.8
-8 5 4 -0.22 0.8
-7 5 4 0.26 0.79
-6 -5 4 1.72 1.03
-6 5 4 2.13 0.85
-5 -5 4 2.84 0.93
-5 5 4 2.05 0.77
-4 -5 4 3.64 0.96
4 -5 -4 3.02 0.91
4 5 -4 2.46 0.73
-4 5 4 4.07 0.94
-3 5 4 0.31 0.47
3 5 -4 0.71 0.54
-3 5 4 -0.12 0.68
-2 5 4 2.08 0.6
-2 5 4 1.51 0.86
-1 5 4 6.19 1.41
-1 5 4 6.42 1.31
0 5 4 0.58 0.34
0 5 4 1.72 0.87
0 5 -4 0.66 0.64
-1 5 -4 7.41 1.38
1 5 4 6.32 1.39
1 5 4 5.37 0.54
-1 5 -4 4.75 0.49
2 5 4 0.34 0.18
-2 5 -4 0.31 0.7
2 5 4 0.11 0.19
-2 5 -4 0.17 0.34
2 5 4 0.31 0.81
-3 5 -4 1.16 0.55
-3 5 -4 1.36 0.78
3 5 4 0.49 0.77
-4 5 -4 4.24 1.15
-5 5 -4 1.43 0.87
-6 5 -4 0 0.78
-7 5 -4 -0.85 0.65
-8 5 -4 -0.36 0.82
-7 6 4 -0.63 0.79
-6 -6 4 -0.01 1.17
-6 6 4 1.66 0.76
-5 -6 4 1.27 0.9
-5 6 4 2.03 0.79
-4 6 4 -0.11 0.79
-4 6 4 -0.48 0.68
-3 6 4 1.2 0.58
-3 6 4 0.93 0.98
-2 6 4 3.29 0.71
-2 6 4 1.47 1.04
-1 6 4 0 0.38
1 6 -4 -0.54 0.61
-1 6 4 1.02 0.97
0 6 4 0.55 0.75
0 6 -4 -0.51 0.57
0 6 4 0.23 0.53
1 6 4 1.94 0.99
-1 6 -4 1.78 0.82
1 6 4 2.29 0.45
-2 6 -4 1.22 0.4
2 6 4 2.75 0.38
-2 6 -4 1.85 0.93
2 6 4 3.38 1.1
2 6 4 2.83 0.38
-3 6 -4 0.22 0.43
-3 6 -4 0.88 0.86
3 6 4 1.47 0.97
-4 6 -4 -0.12 0.78
-5 6 -4 -0.83 0.7
-6 6 -4 -0.76 0.83
-4 7 4 -0.22 0.51
-3 7 4 0.78 0.85
-3 7 4 -0.36 0.47
2 7 -4 -0.42 0.71
-2 7 4 0.83 0.9
-2 7 4 -0.2 0.43
-1 7 4 0.58 0.89
-1 7 4 0.07 0.43
1 7 -4 3.15 0.97
0 7 4 0.14 0.37
0 7 -4 0.56 0.85
0 7 4 -0.37 0.86
1 7 4 -0.47 0.29
-1 7 -4 0.19 0.77
1 7 4 -0.93 0.84
2 7 4 0.11 0.96
2 7 4 -0.34 0.21
-2 7 -4 0.87 0.82
-3 7 -4 -0.15 0.43
-11 0 5 -0.55 0.72
-10 0 5 -0.35 0.63
-9 0 5 -0.59 0.59
-8 0 5 -0.84 0.59
7 0 -5 -0.51 0.48
-6 0 5 -0.04 0.45
6 0 -5 0.08 0.44
5 0 -5 0.14 0.45
-5 0 5 0.56 0.48
-4 0 5 -0.34 0.36
4 0 -5 -0.23 0.47
3 0 -5 0.07 0.36
-3 0 5 -0.19 0.36
-2 0 5 0.23 0.32
2 0 -5 0.43 0.32
1 0 -5 -0.25 0.25
0 0 5 0 0.44
-1 0 -5 0.12 0.43
-2 0 -5 0.52 0.53
-2 0 -5 -0.26 0.33
2 0 5 0.32 0.46
-3 0 -5 0.46 0.53
-3 0 -5 -0.13 0.34
-4 0 -5 -0.23 0.4
-4 0 -5 -0.4 0.35
5 0 5 0 0.42
-5 0 -5 -0.58 0.42
-5 0 -5 0.16 0.44
6 0 5 -0.23 0.44
-6 0 -5 0.28 0.51
-7 0 -5 -0.97 0.5
-7 0 -5 -0.33 0.47
7 0 5 -0.29 0.45
-8 0 -5 1.68 0.81
8 0 5 -0.47 0.53
-9 0 -5 1.72 0.99
-10 0 -5 0.07 0.89
-11 -1 5 0.89 0.84
-10 -1 5 0.67 0.78
-10 1 5 2.41 1.1
-9 -1 5 6.39 1.38
-9 1 5 3.85 1.08
-8 -1 5 7.29 1.36
-8 1 5 6.71 1.47
-7 -1 5 2.49 0.86
7 -1 -5 4.07 1.03
7 1 -5 2.49 0.91
-7 1 5 2.68 0.88
6 -1 -5 11.29 1.15
-6 -1 5 11.02 1.21
6 1 -5 11.01 1.42
-6 1 5 10.87 1.19
5 -1 -5 20.28 1.43
-5 -1 5 21.61 1.5
-5 1 5 19.2 1.39
5 1 -5 18.89 1.38
-4 -1 5 13.26 1.1
4 -1 -5 14.59 1.15
4 1 -5 12.04 1.04
-4 1 5 14.17 1.12
3 -1 -5 38.2 1.75
3 1 -5 29.66 1.64
-3 1 5 28.48 1.53
2 -1 -5 70.08 2.47
-2 1 5 64 2.43
2 1 -5 63.91 2.55
1 -1 -5 84.97 2.79
-1 1 5 85.83 2.8
0 -1 5 65.99 2.29
0 -1 -5 62.48 2.09
0 1 5 63.84 2.79
-1 1 -5 20.81 1.14
1 1 5 18.21 1.47
-2 -1 -5 0.08 0.22
-2 -1 -5 0.11 0.47
-2 1 -5 -0.1 0.35
2 1 5 -0.21 0.38
-2 1 -5 -0.13 0.43
-3 -1 -5 36.8 1.49
-3 -1 -5 36.76 2.24
-3 1 -5 36.39 1.88
-3 1 -5 31.39 2.13
-4 -1 -5 6.85 0.66
-4 -1 -5 9.27 1.45
-4 1 -5 8.46 1.15
4 1 5 7.71 0.74
-4 1 -5 9.32 1.24
-5 -1 -5 4.2 1.07
-5 -1 -5 3.42 0.62
5 -1 5 2.48 0.71
-5 1 -5 3.01 0.81
5 1 5 2.03 0.59
-6 -1 -5 0.43 0.73
-6 -1 -5 0.44 0.53
6 -1 5 1.33 0.64
6 1 5 0.97 0.55
-6 1 -5 1.98 0.78
-7 -1 -5 3.02 0.86
7 -1 5 5.06 1.23
-7 1 -5 3.65 0.91
7 1 5 3.41 0.78
-8 -1 -5 2.62 0.96
8 1 5 3.62 0.95
-8 1 -5 2.93 1.02
-9 -1 -5 2 0.99
-9 1 -5 1.57 0.82
9 1 5 -1.73 0.6
-10 -1 -5 0.31 0.88
-10 1 -5 0.1 0.87
-11 -2 5 0.49 0.82
-11 2 5 2.34 1.18
-10 -2 5 -0.48 0.63
-10 2 5 -0.13 0.83
-9 -2 5 0.07 0.68
-9 2 5 0.25 0.66
-8 -2 5 1.09 0.9
-8 2 5 0.35 0.79
7 -2 -5 18.23 1.75
-7 -2 5 18.37 1.61
7 2 -5 19.75 1.63
-7 2 5 21.29 1.8
-6 -2 5 1.79 0.7
-6 2 5 1.45 0.71
5 -2 -5 4.23 0.85
-5 -2 5 4.59 0.91
-5 2 5 6.1 1.05
5 2 -5 5.48 0.95
4 -2 -5 6.01 0.92
4 2 -5 6.39 0.97
-4 2 5 5.85 0.92
3 -2 -5 3.3 0.63
3 2 -5 2.64 0.61
-3 2 5 2.52 0.57
2 -2 -5 1.93 0.46
-2 2 5 2.61 0.49
1 -2 -5 9.36 0.69
-1 2 5 11.91 0.71
-1 2 5 9.25 1.38
0 -2 -5 41.55 1.44
0 2 5 43.57 1.42
0 2 5 44.45 2.45
-1 -2 -5 207.26 7.48
-1 2 -5 230.84 6.07
1 2 5 202.92 7.38
-2 -2 -5 20.56 1.76
-2 2 -5 22.79 1.16
-2 2 -5 22.06 1.62
2 2 5 23.32 1.84
-3 -2 -5 3.47 0.93
-3 2 -5 2.7 0.72
3 2 5 1.97 0.78
-4 -2 -5 4.15 1.05
-4 -2 -5 4.48 0.46
-4 2 -5 5.04 1.02
-5 -2 -5 6.18 1.34
-5 -2 -5 4.63 0.62
5 2 5 4.04 0.63
-5 2 -5 4.75 1.1
-6 -2 -5 3.87 0.66
-6 2 -5 1.8 0.81
6 2 5 1.17 0.55
-7 -2 -5 6.02 0.96
7 2 5 5.63 0.9
-7 2 -5 4.72 1.29
-8 -2 -5 -0.15 0.48
8 2 5 -0.03 0.42
-8 2 -5 0.54 0.63
-9 -2 -5 2.03 0.8
-9 2 -5 2.1 0.92
9 2 5 1.49 0.7
-10 2 -5 -0.39 0.72
-10 -3 5 0.63 0.73
-10 3 5 1.39 1.63
-9 -3 5 -0.39 0.57
-9 3 5 -0.48 0.8
-8 3 5 -0.66 0.53
6 -3 -5 1.37 0.76
6 3 -5 1.3 0.63
-6 3 5 4.1 1.05
5 -3 -5 10.13 1.43
5 3 -5 9.31 1.11
-5 3 5 10.16 1.17
4 -3 -5 3.85 0.82
4 3 -5 4.28 0.85
-4 3 5 5.71 0.94
-3 -3 5 15.59 1.04
3 -3 -5 15.28 1.18
3 3 -5 15.26 1.23
-3 3 5 15.24 1.15
-2 -3 5 10.62 0.69
2 -3 -5 9.77 0.84
-2 3 5 10.14 0.81
1 -3 -5 11.73 0.81
-1 3 5 12.51 0.78
-1 3 5 11.91 1.42
0 3 5 -0.04 0.58
0 3 5 -0.16 0.12
-1 -3 -5 4.1 1.12
1 3 5 3.62 1.04
-2 -3 -5 52.19 3.11
-2 3 -5 60.86 3.01
2 3 5 58.85 3.23
-3 -3 -5 2.54 0.94
3 3 5 3.61 1.07
-3 3 -5 3.82 0.98
-4 -3 -5 4.96 1.26
-4 3 -5 3.88 1
-5 -3 -5 0.68 0.81
-5 3 -5 0.57 0.72
-6 -3 -5 1.56 0.38
6 3 5 1.32 0.42
-6 3 -5 0.48 0.67
-7 -3 -5 12.28 0.87
-7 3 -5 12.83 1.9
7 3 5 10.27 1.25
-8 -3 -5 0.81 0.43
8 3 5 0.29 0.45
-8 3 -5 2.45 0.95
-9 -3 -5 -0.17 0.42
-9 3 -5 0.31 0.73
9 3 5 0.03 0.51
-9 4 5 0.72 0.86
-8 4 5 0.85 0.89
-7 -4 5 0.59 0.61
-7 4 5 0.55 0.71
-6 -4 5 11.41 1.58
-6 4 5 9.64 1.43
5 -4 -5 2.1 0.78
-5 -4 5 3.02 0.82
-5 4 5 2.58 0.82
5 4 -5 1.99 0.7
-4 -4 5 0.49 0.52
4 -4 -5 0.97 0.65
4 4 -5 0.74 0.52
-4 4 5 3.64 0.88
3 -4 -5 14.56 1.27
-3 -4 5 13.95 1.08
-3 4 5 11.92 1.14
2 -4 -5 3.03 0.73
-2 4 5 2.29 0.61
-2 4 5 2.92 1.14
-1 4 5 -0.41 0.26
-1 4 5 -0.19 0.62
0 4 5 1.23 0.88
0 4 5 1.41 0.32
-1 4 -5 3.2 0.95
1 4 5 3.4 1.08
-2 -4 -5 6.38 1.48
2 4 5 8.59 1.59
-2 4 -5 4.52 0.41
-2 4 -5 5.91 1.24
-3 -4 -5 2.32 0.89
-3 4 -5 0.59 0.71
3 4 5 1.24 0.88
-5 4 -5 1.71 0.82
-6 4 -5 0.08 0.75
-7 4 -5 -0.61 0.61
7 4 5 0 0.28
-8 4 -5 0.01 0.8
-8 5 5 0.69 0.8
-7 -5 5 1.7 1.01
-7 5 5 0.91 0.76
-6 -5 5 1.16 0.89
-6 5 5 2.1 0.85
-5 -5 5 1.05 0.72
-5 5 5 -0.21 0.49
-4 -5 5 1.55 0.69
4 -5 -5 1.81 0.8
-4 5 5 2.54 0.76
3 -5 -5 0.75 0.65
-3 5 5 -0.28 0.45
-3 5 5 0.2 0.82
-2 5 5 1.81 0.58
-2 5 5 1.18 1
-1 5 5 17.66 1.13
-1 5 5 15.07 1.9
0 5 5 0.42 0.73
0 5 5 -0.01 0.29
1 5 5 0.46 0.2
1 5 5 0.18 0.16
1 5 5 1.28 0.94
-1 5 -5 -1.35 0.65
2 5 5 7.46 1.87
-2 5 -5 8.24 1.6
-3 5 -5 -0.5 0.54
3 5 5 -0.38 0.8
-3 5 -5 -0.05 0.34
-4 5 -5 -0.24 0.67
-5 5 -5 6.01 1.35
-6 5 -5 -0.23 0.69
-7 5 -5 2.36 1.13
-6 -6 5 0.39 1.22
-6 6 5 0.88 0.86
-5 -6 5 -2.11 0.85
-5 6 5 0.51 0.64
-5 6 5 -1.05 0.8
-4 6 5 -0.22 0.51
-4 6 5 0.46 0.9
-3 6 5 2.7 1.09
-2 6 5 1.79 0.58
-2 6 5 2.56 1.04
-1 6 5 0.72 0.79
1 6 -5 0.88 0.68
-1 6 5 1.39 0.51
0 6 -5 2.86 1.04
0 6 5 1.5 0.42
0 6 5 1.34 1.06
1 6 5 0.62 0.25
-1 6 -5 0.44 0.79
1 6 5 0.32 0.22
1 6 5 -0.97 0.77
2 6 5 0.43 0.88
-2 6 -5 0.25 0.78
3 6 5 0.86 0.88
-3 6 -5 1.1 0.83
-4 6 -5 -0.44 0.78
-4 6 -5 -0.28 0.41
-5 6 -5 -0.2 0.76
-3 7 5 0.62 0.64
-3 7 5 0.93 0.92
-2 7 5 0.52 0.53
-2 7 5 -0.46 0.94
2 7 -5 0.27 0.9
1 7 -5 -0.59 0.82
-1 7 5 0.96 0.47
-1 7 5 0.55 0.91
0 7 5 -0.41 0.89
0 7 -5 0.19 0.68
-1 7 -5 -0.12 0.77
1 7 5 0.11 0.22
1 7 5 -0.3 0.96
2 7 5 0.88 0.99
-10 0 6 0.4 0.88
-9 0 6 1.71 0.92
-8 0 6 0.81 0.64
-7 0 6 3.45 1.02
7 0 -6 2.17 0.82
-6 0 6 1.81 0.72
6 0 -6 1.44 0.66
5 0 -6 31.49 1.85
-5 0 6 28.77 1.83
4 0 -6 139.95 4.92
-4 0 6 146.48 5.04
-3 0 6 0.31 0.43
3 0 -6 0.91 0.49
-2 0 6 24.85 1.37
1 0 -6 2.92 0.53
0 0 6 22 1.48
-1 0 -6 31.5 1.78
1 0 6 26.86 1.68
-2 0 -6 6.63 0.88
2 0 6 6.68 1.03
-2 0 -6 6.87 1.2
-3 0 -6 0.43 0.4
-3 0 -6 0.55 0.51
-4 0 -6 39.52 2.38
-5 0 -6 0.63 0.61
-5 0 -6 0.33 0.5
-6 0 -6 0.81 0.57
-6 0 -6 1.32 0.8
-7 0 -6 9.45 1.31
-8 0 -6 7.57 1.26
8 0 6 4.7 1.09
-9 0 -6 3.33 1.08
-10 0 -6 0.76 0.88
-11 1 6 1.28 0.94
-10 -1 6 1.57 1
-10 1 6 0.26 0.85
-9 -1 6 8.03 1.55
-9 1 6 9.41 1.66
-8 -1 6 3.31 1.03
-8 1 6 7.59 1.33
-7 -1 6 5.26 1.08
7 -1 -6 8.25 1.33
7 1 -6 5.82 1.19
-7 1 6 6.42 1.18
-6 -1 6 -0.49 0.45
6 -1 -6 0.45 0.57
-6 1 6 -0.07 0.47
-5 -1 6 2.18 0.72
5 -1 -6 1.96 0.69
5 1 -6 2.86 0.72
-5 1 6 3.36 0.81
4 -1 -6 0.82 0.5
-4 -1 6 0.4 0.49
-4 1 6 -0.3 0.35
4 1 -6 0.63 0.48
3 -1 -6 27.37 1.58
3 1 -6 29.69 1.68
-3 1 6 26.63 1.52
-2 1 6 0.12 0.35
2 1 -6 0.37 0.35
-1 1 6 21.26 1.63
-1 1 6 21.4 1.1
0 -1 6 21.74 1.25
0 -1 -6 24.08 1.08
0 1 6 23.49 1.66
-1 -1 -6 1.96 0.78
1 -1 6 1.03 0.44
1 1 6 1.1 0.72
-1 1 -6 1.71 0.49
-2 -1 -6 10.04 1.22
-2 -1 -6 10.37 0.73
2 1 6 12.43 1.3
-2 1 -6 9.59 0.95
-3 -1 -6 0.58 0.33
-3 -1 -6 0.11 0.52
-3 1 -6 -0.07 0.42
3 1 6 0.35 0.56
-3 1 -6 -0.06 0.45
-4 -1 -6 0.93 0.72
-4 -1 -6 1.33 0.44
-4 1 -6 2.54 0.72
-4 1 -6 2.87 0.81
-5 -1 -6 13.69 1
-5 1 -6 13.74 1.4
-5 1 -6 13.81 1.34
-6 -1 -6 3.38 0.73
-6 -1 -6 1.52 0.73
-6 1 -6 0.29 0.62
-6 1 -6 0.28 0.56
-7 -1 -6 -0.03 0.62
-7 1 -6 -0.24 0.52
7 1 6 0.48 0.5
-7 1 -6 1.01 0.73
-8 -1 -6 0.79 0.66
-8 1 -6 1.32 0.72
-9 -1 -6 0.34 0.78
-9 1 -6 0.13 0.56
-10 -1 -6 -1.03 0.81
-10 1 -6 -0.48 0.74
-11 -2 6 1.25 0.84
-11 2 6 -0.2 0.83
-10 -2 6 0 0.72
-10 2 6 0.43 0.71
-9 -2 6 0.17 0.61
-9 2 6 -0.01 0.67
-8 -2 6 1.11 0.67
-8 2 6 -0.66 0.55
-7 -2 6 0.12 0.55
-7 2 6 -0.25 0.57
-6 -2 6 20.82 1.69
6 -2 -6 22.62 1.71
-6 2 6 20.15 1.64
6 2 -6 21.62 1.65
5 -2 -6 4.71 0.93
-5 2 6 3.98 0.86
5 2 -6 4.2 0.9
4 -2 -6 6.48 0.95
4 2 -6 5.76 0.97
-4 2 6 6.93 0.98
3 -2 -6 40.66 1.89
3 2 -6 43.21 2.16
-3 2 6 41.33 1.93
2 -2 -6 10.74 0.85
2 2 -6 12.78 1.11
-2 2 6 11.2 0.86
1 -2 -6 14.68 0.86
-1 -2 6 15.98 0.77
-1 2 6 14.74 0.87
-1 2 6 13.58 1.47
0 -2 -6 18.54 0.81
0 2 6 18.44 1.64
-1 -2 -6 16.12 1.59
1 2 6 14.79 1.58
-2 -2 -6 -0.19 0.52
-2 2 -6 0.67 0.36
-2 2 -6 1 0.57
2 2 6 0.61 0.69
-3 -2 -6 -0.17 0.51
-3 -2 -6 -0.25 0.13
-3 2 -6 -0.52 0.3
-3 2 -6 -0.62 0.39
3 2 6 -0.32 0.56
-4 -2 -6 1.07 0.32
-4 -2 -6 0.21 0.55
-4 2 -6 -0.11 0.57
-4 2 -6 1.25 0.61
-5 -2 -6 4.55 0.62
-5 -2 -6 4.48 1.29
-5 2 -6 4.9 1.05
-5 2 -6 6.99 1.08
-6 -2 -6 -0.41 0.42
-6 2 -6 0.97 0.72
-7 -2 -6 0.03 0.49
7 2 6 -0.22 0.45
-7 2 -6 0.52 0.69
-8 -2 -6 2.95 0.75
-8 2 -6 3.88 1.05
8 2 6 4.15 0.9
-9 -2 -6 1.17 0.73
-9 2 -6 2.32 1.01
9 2 6 0.07 0.67
-10 -2 -6 1.2 0.84
-10 2 -6 0.45 0.91
-10 -3 6 0.08 0.66
-10 3 6 1.97 1.19
-9 3 6 0.08 0.66
-8 3 6 -1.05 0.44
-7 3 6 -0.6 0.57
6 -3 -6 0.09 0.57
-6 3 6 0.62 0.7
6 3 -6 -0.13 0.46
5 -3 -6 1.81 0.73
5 3 -6 1.01 0.52
-5 3 6 0.05 0.51
4 -3 -6 7.34 1.12
4 3 -6 7.64 1.2
-4 3 6 6.98 1.03
3 -3 -6 3.51 0.75
-3 3 6 2.12 0.58
3 3 -6 3.56 0.85
-2 -3 6 1.19 0.28
-2 3 6 2.27 0.9
1 -3 -6 3.54 0.56
-1 3 6 3.3 1.01
-1 3 6 3.46 0.48
0 -3 -6 2.13 0.33
0 3 6 1.52 0.25
0 3 6 0.95 0.75
1 3 6 13.25 1.62
-2 -3 -6 14.06 1.7
2 3 6 13.78 1.65
-2 3 -6 17.36 1.59
-2 3 -6 16.23 0.82
-3 -3 -6 4.64 1.22
-3 3 -6 6.49 1.27
-3 3 -6 5.48 0.66
3 3 6 5.44 1.32
-4 -3 -6 15.97 1.84
-4 3 -6 14.76 1.55
-5 3 -6 8.92 1.79
-6 -3 -6 1.56 0.32
-6 3 -6 1.61 0.88
-7 -3 -6 0.41 0.31
-7 3 -6 0.21 0.65
-8 -3 -6 0.48 0.58
-8 3 -6 0.77 0.82
-9 -3 -6 1.4 0.5
9 3 6 0.2 0.51
-9 4 6 1.88 1
-8 4 6 0.24 0.8
-7 -4 6 0.19 0.87
-7 4 6 1.25 0.78
-6 -4 6 2.53 0.86
-6 4 6 1.56 0.8
-5 -4 6 1.37 0.63
5 -4 -6 1.51 0.67
-5 4 6 0.66 0.59
4 -4 -6 2.28 0.73
-4 -4 6 2.3 0.72
4 4 -6 3.08 0.84
-4 4 6 1.4 0.71
3 -4 -6 2.7 0.75
-3 -4 6 3.53 0.64
-3 4 6 4.47 0.82
3 4 -6 3.51 0.84
2 -4 -6 5.1 0.8
-2 4 6 3.14 1.16
-2 4 6 4.04 0.71
-1 4 6 13.07 1.92
-1 4 6 12.08 0.81
0 4 6 9.87 1.68
0 4 6 7.34 0.48
-1 4 -6 3.05 0.92
1 4 6 2.22 1.09
-2 -4 -6 4.7 1.34
2 4 6 3.98 1.26
-2 4 -6 5.78 1.27
-3 4 -6 3.68 0.54
-3 4 -6 1.89 1.02
3 4 6 4.53 1.29
4 4 6 -0.27 0.73
-4 4 -6 0.47 0.69
-5 4 -6 1.01 0.9
-6 4 -6 -1.49 0.56
-7 4 -6 -0.77 0.86
-8 4 -6 2.05 1.09
-8 5 6 0.11 0.72
-7 -5 6 1.1 0.94
-7 5 6 0.19 0.71
-6 -5 6 0.14 0.75
-6 5 6 0.78 0.68
-5 -5 6 1.94 0.78
-5 5 6 0.14 0.56
4 -5 -6 4.88 1.09
-4 -5 6 4.53 1.23
-4 5 6 2.41 1.27
-4 5 6 2.88 0.8
3 -5 -6 2.31 0.69
-3 5 6 0.72 1.14
-3 5 6 2.73 0.74
-2 5 6 4.77 0.77
-1 5 6 0.84 0.4
0 5 6 -0.3 0.18
1 5 6 3.08 1.27
-1 5 -6 3.29 1.09
-2 5 -6 6.85 1.4
2 5 6 5.61 1.44
-3 5 -6 2.79 1.01
3 5 6 1.61 1.01
-4 5 -6 0.69 0.8
-5 5 -6 -0.83 0.74
-6 5 -6 1.51 1.01
-7 5 -6 1.06 1.15
-6 -6 6 0.73 1.29
-6 6 6 0.17 0.65
-5 -6 6 2.62 1.16
-5 6 6 0.28 0.6
-5 6 6 0.86 1.11
-4 6 6 -0.31 0.98
-4 6 6 1.51 0.65
-3 6 6 0.83 0.87
-3 6 6 0.14 0.46
-2 6 6 1.48 0.59
-2 6 6 0 0.9
-1 6 6 2.67 1.28
0 6 -6 0.29 0.63
0 6 6 -0.14 0.87
0 6 6 0.63 0.25
-1 6 -6 1.32 0.92
1 6 6 0.74 0.93
-2 6 -6 0.69 0.82
2 6 6 -0.14 0.75
3 6 6 0.04 0.94
-3 6 -6 0.08 0.72
-4 6 -6 -0.55 0.77
-5 6 -6 0.02 0.92
-5 6 -6 0.03 0.43
2 7 -6 -0.12 0.67
-2 7 6 2.36 1.12
-2 7 6 0.02 0.42
-1 7 6 0.46 1.14
1 7 -6 -0.26 0.82
-1 7 6 -0.16 0.3
0 7 -6 0.83 0.92
0 7 6 -0.45 1.11
0 7 6 1.03 0.28
1 7 6 1.24 1.16
-1 7 -6 1.17 1.11
-11 0 7 -0.21 0.77
-10 0 7 -0.69 0.72
-9 0 7 -0.73 0.54
-8 0 7 -0.42 0.53
-7 0 7 0.76 0.73
6 0 -7 0.14 0.56
-6 0 7 0.79 0.6
5 0 -7 1.25 0.66
-5 0 7 0.36 0.47
4 0 -7 0.23 0.42
-4 0 7 -0.24 0.34
-3 0 7 -0.19 0.36
3 0 -7 0.09 0.43
2 0 -7 -0.07 0.38
-1 0 7 -0.53 0.37
0 0 7 -0.14 0.43
-1 0 -7 -0.39 0.44
1 0 7 0.24 0.48
-2 0 -7 0.02 0.38
-2 0 -7 -0.32 0.45
-3 0 -7 1.54 0.68
-3 0 -7 0.2 0.4
-4 0 -7 0.66 0.61
-4 0 -7 -0.03 0.42
-5 0 -7 0.21 0.67
-5 0 -7 0.22 0.48
-6 0 -7 -0.07 0.6
-6 0 -7 -0.18 0.47
-7 0 -7 -0.69 0.46
-8 0 -7 -0.7 0.48
-9 0 -7 0.29 0.72
-10 0 -7 0.44 0.94
-11 -1 7 0.42 0.76
-11 1 7 0.13 0.88
-10 -1 7 0.77 0.78
-10 1 7 -0.23 0.75
-9 -1 7 0.29 0.71
-9 1 7 0.27 0.67
-8 -1 7 -0.05 0.57
-8 1 7 0.45 0.73
-7 -1 7 -0.4 0.43
-7 1 7 -0.49 0.51
-6 -1 7 5.04 1.01
6 -1 -7 3.8 0.86
-6 1 7 5.56 1.11
6 1 -7 5.46 0.99
5 -1 -7 11.31 1.19
-5 -1 7 13.81 1.32
5 1 -7 12.03 1.16
-5 1 7 14.03 1.28
-4 -1 7 6.61 1.03
4 -1 -7 6.2 0.95
4 1 -7 7.03 1.06
-4 1 7 5.56 0.95
3 -1 -7 13.79 1.13
-3 1 7 15.77 1.18
3 1 -7 13.11 1.18
2 -1 -7 0.9 0.49
-2 1 7 -0.38 0.27
2 1 -7 -0.05 0.29
1 -1 -7 0.79 0.38
-1 -1 7 -0.23 0.38
-1 1 7 -0.17 0.47
1 1 -7 -0.02 0.31
0 -1 -7 76.32 2.63
0 -1 7 75.83 2.96
0 1 7 79.82 3.53
1 -1 7 41.51 1.91
-1 -1 -7 41.05 2.48
-1 -1 -7 40.7 1.59
-1 1 -7 39.03 1.98
1 1 7 42.32 2.46
-2 -1 -7 7.16 0.7
-2 -1 -7 8.22 1.34
2 1 7 6.31 1.17
-2 1 -7 6.81 1.01
-3 -1 -7 11.26 1.39
-3 -1 -7 11.15 0.84
3 1 7 11.75 1.37
-3 1 -7 10.87 1.2
-3 1 -7 9.25 1.11
-4 -1 -7 7.94 1.56
-4 -1 -7 7.45 0.77
-4 1 -7 6.76 1.15
-4 1 -7 7.26 1.2
-5 -1 -7 7.8 0.85
-5 -1 -7 9.52 1.69
-5 1 -7 9.39 1.18
-5 1 -7 8.64 1.29
-6 -1 -7 11.45 1.08
-6 1 -7 14.8 1.64
-6 1 -7 13.22 1.52
-7 -1 -7 1.94 0.77
-7 1 -7 2.54 0.88
-8 -1 -7 2.07 0.72
-8 1 -7 -0.43 0.52
-9 -1 -7 -0.51 0.72
-9 1 -7 0.94 0.79
-10 -1 -7 -0.83 0.79
-10 1 -7 -0.49 0.8
-11 -2 7 0.57 0.78
-11 2 7 -0.42 0.78
-10 -2 7 0.51 0.76
-10 2 7 -0.53 0.66
-9 -2 7 -0.84 0.6
-9 2 7 1.16 0.84
-8 -2 7 18.48 1.78
-8 2 7 17.29 1.71
-7 -2 7 2.39 0.96
-7 2 7 1.83 0.79
6 -2 -7 0.93 0.62
6 2 -7 0.53 0.53
-6 2 7 0.4 0.56
5 -2 -7 3.12 0.77
5 2 -7 2.39 0.75
-5 2 7 2.52 0.71
4 -2 -7 -0.01 0.44
4 2 -7 -0.41 0.45
-4 2 7 1.07 0.56
3 -2 -7 0.02 0.37
-3 2 7 0.49 0.41
3 2 -7 0.54 0.42
2 -2 -7 20.81 1.23
-2 2 7 22.55 1.26
2 2 -7 23.35 1.54
-1 -2 7 3.76 0.51
1 -2 -7 3.67 0.54
-1 2 7 3.79 1.01
-1 2 7 3.36 0.5
0 -2 -7 78.85 2.56
0 2 7 83.24 3.88
-1 -2 -7 0.84 0.7
1 2 7 0.53 0.74
-2 -2 -7 16.68 1.7
-2 2 -7 17.14 1.14
2 2 7 19.44 1.84
-2 2 -7 19.16 1.62
-3 -2 -7 2.08 0.87
-3 2 -7 1.36 0.75
3 2 7 1.92 0.93
-3 2 -7 1.34 0.54
-4 -2 -7 3.77 1.17
-4 -2 -7 5.42 0.51
-4 2 -7 4.92 1.09
-4 2 -7 4.73 0.93
-5 -2 -7 0.69 0.39
-5 2 -7 -0.23 0.57
-5 2 -7 0.01 0.52
-6 -2 -7 7.83 0.9
-6 2 -7 10.09 1.82
-6 2 -7 8.35 1.33
-7 -2 -7 0.23 0.45
-7 2 -7 -0.45 0.68
-7 2 -7 0.68 0.75
-8 -2 -7 3.03 0.81
-8 2 -7 2.76 1.07
-9 -2 -7 0.7 0.68
-9 2 -7 1.38 0.82
-10 3 7 0.18 0.77
-9 3 7 0.55 0.69
-8 3 7 -0.06 0.54
-7 3 7 2.62 0.88
6 -3 -7 10.06 1.51
-6 3 7 9.62 1.38
5 -3 -7 2.56 0.8
-5 3 7 3.2 0.84
5 3 -7 2.61 0.83
4 -3 -7 3.84 0.82
4 3 -7 3.44 0.89
-4 3 7 2.59 0.74
3 -3 -7 1.04 0.49
-3 3 7 0.16 0.38
3 3 -7 0.05 0.5
-2 -3 7 13.71 0.65
2 -3 -7 22.16 1.81
-2 3 7 17.17 1.84
1 -3 -7 22.86 1.12
-1 3 7 18.6 1.82
-1 3 7 21.9 1.09
0 -3 -7 1.16 0.26
0 3 7 1.77 0.9
1 3 7 0.05 0.76
-2 -3 -7 2.85 1.03
-2 3 -7 3.48 0.43
-2 3 -7 4.23 1.02
2 3 7 2 1
-3 -3 -7 2.91 1.11
-3 3 -7 2.78 0.59
-3 3 -7 2.35 0.92
3 3 7 3.77 1.2
-4 3 -7 1 0.79
-4 3 -7 0.3 0.61
4 3 7 0.46 0.8
-5 3 -7 2.39 0.94
-5 3 -7 2.11 0.72
-6 3 -7 -0.56 0.52
-6 3 -7 0.11 0.7
-7 -3 -7 0.05 0.27
-7 3 -7 0.01 0.75
-7 3 -7 0.96 0.69
-8 -3 -7 1.4 0.4
-8 3 -7 0.94 0.89
-9 -3 -7 -0.04 0.44
-9 3 -7 1.26 0.94
-9 4 7 0.39 0.79
-8 4 7 0.86 0.79
-7 -4 7 4.86 1.19
-7 4 7 6.25 1.33
-6 -4 7 5.03 1.02
-6 4 7 4.16 1.16
5 -4 -7 -0.25 0.43
-5 -4 7 -0.56 0.41
-5 4 7 0.22 0.54
4 -4 -7 7.98 1.14
-4 -4 7 8.3 0.93
-4 4 7 8.49 0.99
-3 -4 7 0.65 0.34
3 -4 -7 0 0.47
-3 4 7 0.73 0.94
-3 4 7 0.12 0.41
3 4 -7 0.81 0.94
2 -4 -7 14.19 1.1
-2 4 7 13.41 0.99
-2 4 7 13.95 2.15
1 -4 -7 1.59 0.48
-1 4 7 0.63 0.82
-1 4 7 1.62 0.38
0 4 7 0.35 0.82
1 4 7 11.3 1.9
2 4 7 3.34 1.33
-3 4 -7 4.16 0.44
-3 4 -7 4.1 1.12
3 4 7 2.65 1.16
-4 4 -7 1.49 0.49
-4 4 -7 0.32 0.64
4 4 7 -0.36 0.77
-5 4 -7 0.43 0.76
-5 4 -7 0.56 0.5
-6 4 -7 -0.31 0.61
-6 4 -7 0.75 0.86
-7 4 -7 -0.82 0.72
-7 4 -7 0.22 0.8
-8 4 -7 -0.66 0.83
-8 5 7 1.04 0.71
-7 -5 7 0.13 0.95
-7 5 7 0.33 0.73
-6 -5 7 0.83 0.86
-6 5 7 -0.35 0.51
-5 -5 7 1 0.81
-5 5 7 1.29 0.69
-4 -5 7 0.05 0.48
4 -5 -7 -0.51 0.57
-4 5 7 0.21 0.91
-4 5 7 -0.11 0.38
3 -5 -7 0.62 0.58
-3 5 7 0.26 0.43
-3 5 7 -0.11 0.9
-2 5 7 3.9 1.29
-2 5 7 4.5 0.69
-1 5 7 3.42 1.24
-1 5 7 3.73 0.52
0 5 7 0.17 0.93
1 5 7 2.64 1.16
-1 5 -7 1.93 0.97
-2 5 -7 1.26 0.88
2 5 7 -0.64 0.66
3 5 7 0.44 0.91
-3 5 -7 -0.92 0.68
-4 5 -7 -0.39 0.69
4 5 7 1.43 1.14
-4 5 -7 0.62 0.28
-5 5 -7 2.06 1.13
-6 5 -7 0.13 0.9
-6 5 -7 1.72 0.67
-6 6 7 0.89 0.75
-6 6 7 0.97 1.26
-5 6 7 1.14 1.27
-5 6 7 0.98 0.61
-4 6 7 -0.26 0.99
-4 6 7 -0.85 0.41
-3 6 7 -0.34 0.77
-3 6 7 -0.5 0.34
-2 6 7 -0.3 0.3
-2 6 7 0.22 0.89
-1 6 7 -0.5 0.86
-1 6 7 0.68 0.35
0 6 7 4.91 1.55
0 6 -7 3.53 1.22
1 6 7 0.02 1.01
-1 6 -7 -0.64 0.65
2 6 7 1.17 1.13
-2 6 -7 0.28 0.71
3 6 7 -0.71 0.89
-4 6 -7 0.49 0.94
-11 0 8 -0.93 0.67
-10 0 8 -1.15 0.56
-9 0 8 1 0.83
-8 0 8 3.68 1.05
-6 0 8 6.98 1.2
6 0 -8 10.7 1.46
-5 0 8 0.47 0.52
5 0 -8 1.21 0.7
-4 0 8 5.66 0.94
4 0 -8 8.44 1.16
-3 0 8 13.7 1.19
3 0 -8 17.05 1.22
2 0 -8 1.28 0.47
-1 0 8 126.89 4.78
1 0 -8 126.72 4.3
0 0 -8 14.89 1.05
0 0 8 14.2 1.32
-1 0 -8 14.03 1.4
-2 0 -8 -0.42 0.4
2 0 8 0.54 0.55
-2 0 -8 -0.1 0.38
-3 0 -8 16.1 1.61
-3 0 -8 16.2 1.34
-4 0 -8 0.17 0.53
-4 0 -8 -0.08 0.45
-5 0 -8 3.57 0.88
-5 0 -8 4.4 1.15
-6 0 -8 19.3 2.43
-6 0 -8 18.43 1.59
-7 0 -8 6.35 1.17
-8 0 -8 1.43 0.85
-9 0 -8 2.89 1.07
-11 -1 8 1.11 0.96
-11 1 8 0.05 0.87
-10 -1 8 0.13 0.66
-10 1 8 0.69 0.9
-9 -1 8 1.3 0.8
-9 1 8 1.75 0.97
-8 -1 8 0.32 0.6
-8 1 8 0.95 0.82
-7 -1 8 0.47 0.65
-7 1 8 -0.84 0.62
6 -1 -8 -0.51 0.55
-6 -1 8 -0.55 0.45
6 1 -8 -0.09 0.52
-6 1 8 -0.45 0.44
-5 -1 8 2.39 0.75
5 -1 -8 1.89 0.8
-5 1 8 2.58 0.78
5 1 -8 1.68 0.66
4 -1 -8 4.91 1.01
4 1 -8 4.55 0.9
-4 1 8 3.74 0.81
3 -1 -8 14.31 1.12
-3 1 8 14.49 1.15
3 1 -8 14.42 1.23
2 -1 -8 4.13 0.68
-2 1 8 1.92 0.53
2 1 -8 3.12 0.71
1 -1 -8 -0.2 0.29
-1 -1 8 0.28 0.44
1 1 -8 -0.36 0.36
-1 1 8 -0.18 0.59
0 -1 8 0.4 0.45
0 -1 -8 0.77 0.34
0 1 8 0.86 0.74
1 -1 8 40.36 1.98
-1 -1 -8 39.61 1.63
-1 -1 -8 37.61 2.51
1 1 8 41.3 2.55
-2 -1 -8 13.07 0.99
-2 -1 -8 12.82 1.45
2 1 8 16 1.61
-2 1 -8 15.32 1.27
-3 -1 -8 4.99 0.73
-3 -1 -8 3.75 1.12
-3 1 -8 3.48 0.89
3 1 8 2.94 0.95
-3 1 -8 4.4 1.01
-4 -1 -8 16.84 2.08
-4 -1 -8 10.01 0.98
-4 1 -8 11.85 1.67
-4 1 -8 10.27 1.42
-5 -1 -8 0.54 0.77
-5 -1 -8 -0.28 0.43
-5 1 -8 0.53 0.69
-5 1 -8 0.47 0.57
-6 -1 -8 3.14 0.69
-6 1 -8 3.42 1.04
-6 1 -8 4.12 1.06
-7 -1 -8 4.97 0.9
-8 -1 -8 0.37 0.7
-8 1 -8 -0.15 0.68
-9 -1 -8 -0.05 0.82
-9 1 -8 0.4 0.8
-10 -2 8 -0.12 0.75
-9 -2 8 0.76 0.74
-9 2 8 -0.8 0.69
-8 -2 8 0.02 0.67
-8 2 8 1.15 0.8
-7 -2 8 -0.33 0.58
-7 2 8 1.63 0.87
6 -2 -8 0.59 0.67
-6 2 8 0.08 0.62
5 -2 -8 20.65 1.61
-5 2 8 18.7 1.52
5 2 -8 18.79 1.6
4 -2 -8 5.57 0.94
-4 2 8 4.32 0.84
4 2 -8 4.73 0.95
3 -2 -8 17.75 1.27
-3 2 8 19.71 1.31
3 2 -8 17.39 1.42
2 -2 -8 7.35 0.87
-2 2 8 6.29 0.72
-2 2 8 8.03 1.55
2 2 -8 6.73 1.04
-1 -2 8 0.3 0.34
1 -2 -8 0.23 0.39
-1 2 8 0.32 0.64
0 -2 -8 101.19 3.23
0 2 8 104.27 4.66
-1 -2 -8 0.45 0.26
1 2 8 0.16 0.7
-2 -2 -8 6.56 0.45
-2 -2 -8 7.78 1.59
-2 -2 -8 6.78 0.43
-2 2 -8 6.78 0.8
2 2 8 5.19 1.31
-2 2 -8 7.27 1.25
-3 -2 -8 0.84 0.85
-3 2 -8 1.83 0.78
3 2 8 0.77 0.8
-4 -2 -8 16.3 1.92
-4 -2 -8 19.74 0.9
-4 2 -8 16.73 1.47
-4 2 -8 15.76 1.67
-5 -2 -8 18.07 0.99
-5 2 -8 15.42 1.52
-5 2 -8 14.67 1.58
-6 -2 -8 0.23 0.46
-6 2 -8 1.02 0.73
-7 -2 -8 1.11 0.55
-7 2 -8 0.43 0.87
-8 -2 -8 -0.22 0.45
-9 -2 -8 0.36 0.67
-9 2 -8 1.24 0.86
-10 3 8 1.27 0.93
-9 3 8 -1.4 0.68
-8 3 8 0.48 0.68
-7 3 8 3.26 0.93
6 -3 -8 3.63 1.08
-6 3 8 2.12 0.7
-5 3 8 13.96 1.31
4 -3 -8 14.18 1.27
-4 3 8 11.83 1.15
4 3 -8 12.22 1.41
3 -3 -8 0.94 0.5
-3 3 8 0.58 0.46
3 3 -8 0.05 0.45
2 -3 -8 0.59 0.4
2 3 -8 -0.26 0.49
-2 3 8 -0.02 0.35
-2 3 8 -0.16 0.64
1 -3 -8 1.32 0.43
-1 3 8 1.35 0.37
-1 3 8 0.38 0.76
0 -3 -8 0.44 0.22
0 3 8 -0.07 0.62
1 3 8 13.57 1.72
-2 -3 -8 2.81 1.03
2 3 8 1.81 1.04
-2 3 -8 2.55 0.95
-3 3 -8 1.72 0.89
-3 3 -8 3.02 0.61
3 3 8 2.06 0.95
-4 3 -8 0.2 0.65
4 3 8 0.77 0.99
-4 3 -8 1.01 0.59
-5 3 -8 -0.83 0.53
-5 3 -8 -0.65 0.54
-6 3 -8 0.31 0.72
-6 3 -8 -0.84 0.57
-7 3 -8 0.47 0.77
-7 3 -8 -0.45 0.71
-8 -3 -8 0.97 0.37
-8 3 -8 -0.54 0.95
-8 4 8 -0.83 0.51
-7 4 8 -0.16 0.64
5 -4 -8 0.67 0.58
-5 -4 8 0.69 0.56
-5 4 8 0.46 0.52
-4 -4 8 0.1 0.42
4 -4 -8 -0.27 0.43
-4 4 8 0.36 0.44
3 -4 -8 0.48 0.44
-3 4 8 0.49 0.42
-3 4 8 0.67 0.97
2 -4 -8 11.68 0.97
-2 4 8 13.13 0.98
1 -4 -8 5.47 0.7
-1 4 8 4.8 0.53
-1 4 8 2.53 1.34
1 4 8 0.62 0.93
-2 4 -8 0.5 0.71
2 4 8 -1.12 0.63
3 4 8 4.45 1.3
-3 4 -8 3.11 1.13
-4 4 -8 0.27 0.76
-4 4 -8 0.01 0.38
4 4 8 0.27 0.87
-5 4 -8 1.34 0.79
-5 4 -8 -0.12 0.51
-6 4 -8 0.82 0.71
-6 4 -8 0.17 0.84
-7 4 -8 2.93 1.06
-7 4 -8 0.73 0.98
-7 5 8 0.37 0.73
-6 -5 8 2.84 1.11
-6 5 8 6.23 1.11
-5 5 8 0.98 0.64
-4 5 8 2.99 1.41
3 -5 -8 3.88 0.85
-3 5 8 4.65 0.78
-3 5 8 2.69 1.27
-2 5 8 3.05 1.31
-1 5 8 0.88 1.03
-1 5 8 0.11 0.26
0 5 8 0.36 0.99
1 5 8 -1.56 0.66
-1 5 -8 0.03 0.72
2 5 8 0.85 0.97
-2 5 -8 0.66 0.88
3 5 8 0.4 0.96
-3 5 -8 -0.22 0.8
4 5 8 0.79 1
-4 5 -8 -1.16 0.59
-5 5 -8 -0.65 0.39
-6 5 -8 -0.67 0.95
-5 6 8 1.12 1.29
-5 6 8 -0.1 0.47
-4 6 8 0.14 0.46
-4 6 8 0.2 1.08
-3 6 8 0.44 0.44
-2 6 8 0.55 0.39
-2 6 8 0.86 1.12
-1 6 8 -0.4 0.95
-1 6 8 0.34 0.26
0 6 8 0.04 1.07
0 6 -8 -0.48 0.78
1 6 8 0.47 1.14
-1 6 -8 1.38 1.01
2 6 8 -0.09 0.92
-3 6 -8 0.72 0.9
3 6 8 0.37 1.21
-10 0 9 -0.43 1.06
-9 0 9 -0.77 0.54
-8 0 9 0.86 0.75
-7 0 9 3.06 1.02
-6 0 9 0.26 0.59
6 0 -9 -0.71 0.63
-5 0 9 0.1 0.47
5 0 -9 0.2 0.54
4 0 -9 -0.54 0.33
-4 0 9 0.37 0.47
3 0 -9 -0.29 0.42
2 0 -9 0.39 0.38
1 0 -9 -0.2 0.35
-1 0 9 -0.04 0.52
0 0 -9 0.04 0.35
0 0 9 0.36 0.53
1 0 9 -0.49 0.44
2 0 9 -0.27 0.54
-2 0 -9 0.4 0.66
-3 0 -9 -0.36 0.51
-4 0 -9 -0.31 0.57
-4 0 -9 -0.43 0.42
-5 0 -9 0.51 0.56
-5 0 -9 1.4 0.9
-6 0 -9 -0.75 0.54
-7 0 -9 -0.23 0.55
-8 0 -9 -0.45 0.58
-9 0 -9 0.09 0.75
-9 -1 9 0.34 0.66
-9 1 9 -0.37 0.66
-8 -1 9 1 0.79
-8 1 9 4.07 1.19
-7 -1 9 8.63 1.41
-7 1 9 10.41 1.59
6 -1 -9 1.03 0.75
-6 -1 9 1.16 0.71
-6 1 9 1.83 0.83
5 -1 -9 5.98 1.32
5 1 -9 6.8 1.12
-5 1 9 4.63 0.93
4 -1 -9 -0.64 0.6
4 1 -9 1.5 0.78
-4 1 9 1.76 0.62
3 -1 -9 5.84 0.93
3 1 -9 6.29 1
-3 1 9 6.19 0.96
2 -1 -9 12.66 1.03
-2 1 9 11.72 1.49
1 -1 -9 0.15 0.36
-1 -1 9 -0.05 0.46
1 1 -9 -0.46 0.31
-1 1 9 0.5 0.62
0 -1 9 3.15 0.77
0 1 9 3.27 0.99
1 -1 9 0.74 0.52
-1 -1 -9 0.5 0.32
1 1 9 -0.02 0.65
-2 -1 -9 14.46 1.1
-2 -1 -9 11.51 1.84
-2 1 -9 13.46 1.38
2 1 9 14.8 1.61
-3 -1 -9 2.84 0.64
-3 1 -9 3.7 1.01
3 1 9 1.5 0.9
-3 1 -9 2.68 0.88
-4 -1 -9 1.74 0.58
-4 -1 -9 1.38 0.83
-4 1 -9 1.83 0.78
-4 1 -9 0.04 0.61
-5 -1 -9 0.55 0.5
-5 1 -9 1.13 0.92
-5 1 -9 0.65 0.69
-6 -1 -9 -0.8 0.36
-6 1 -9 0.69 0.76
-6 1 -9 -0.26 0.71
-7 -1 -9 1.44 0.67
-7 1 -9 0.33 0.75
-8 -1 -9 0.63 0.72
-8 1 -9 1.13 0.82
-9 1 -9 -0.38 0.73
-10 -2 9 -1.67 0.66
-10 2 9 -0.41 0.71
-9 -2 9 1.14 0.94
-9 2 9 0.39 0.83
-8 2 9 2.62 0.96
-7 2 9 0.9 0.68
6 -2 -9 5.84 1.18
-6 2 9 7.7 1.35
5 -2 -9 -0.27 0.64
-5 2 9 0.11 0.56
4 -2 -9 7.33 1.1
-4 2 9 8.41 1.04
4 2 -9 8.66 1.33
3 -2 -9 17.4 1.35
3 2 -9 16.16 1.42
-3 2 9 16.15 1.23
2 -2 -9 6.02 0.88
-2 -2 9 6.07 0.91
-2 2 9 6.25 1.42
1 -2 -9 23.47 1.29
-1 -2 9 23.29 1.36
-1 2 9 27.97 2.2
0 -2 9 10.58 0.82
0 -2 -9 9.37 0.79
0 2 9 11.82 1.83
-1 -2 -9 -0.14 0.27
1 2 9 0.25 0.79
-2 -2 -9 1.08 0.31
-2 -2 -9 1.13 0.81
-2 -2 -9 0.45 0.29
-2 2 -9 0.77 0.48
2 2 9 0.39 0.77
-3 -2 -9 2.24 1.03
-3 -2 -9 1.47 0.28
-3 -2 -9 1.26 0.27
-3 2 -9 1.16 0.75
-3 2 -9 1.67 0.62
3 2 9 1.19 0.86
-4 -2 -9 3.59 0.45
-4 2 -9 4.31 1.2
-4 2 -9 4.74 1.07
-5 -2 -9 6.47 0.68
-5 2 -9 4.29 1.28
-5 2 -9 4.46 1.18
-6 -2 -9 0.18 0.39
-6 2 -9 -0.04 0.69
-6 2 -9 0.78 0.68
-7 -2 -9 -0.41 0.45
-7 2 -9 -1.15 0.6
-8 -2 -9 1.11 0.65
-8 2 -9 0.43 0.84
-9 3 9 -0.1 0.73
-8 3 9 0.56 0.72
-7 3 9 3.49 1.01
-6 3 9 1.53 0.83
5 -3 -9 2.07 0.8
-5 3 9 1.36 0.65
4 -3 -9 0.34 0.5
-4 3 9 -0.41 0.4
3 -3 -9 1.31 0.53
-3 3 9 1.76 1.12
-3 3 9 1.73 0.62
-2 -3 9 4.57 0.36
2 -3 -9 6.32 0.76
-2 3 9 5.62 1.48
2 3 -9 6.81 1.2
-2 3 9 6.69 0.74
1 -3 -9 8 0.69
-1 3 9 7.73 1.59
0 -3 -9 5.74 0.47
0 3 9 3.45 1.17
1 3 9 15.94 1.91
-2 3 -9 0.79 0.8
2 3 9 1.52 1.16
-3 3 -9 3.92 1.17
3 3 9 2.29 1.05
-3 3 -9 1.92 0.56
-4 3 -9 0.68 0.86
4 3 9 -0.21 0.83
-4 3 -9 0.3 0.51
-5 3 -9 -0.61 0.58
-5 3 -9 0.51 0.71
-6 3 -9 -0.49 0.62
-6 3 -9 -0.07 0.62
-7 3 -9 -0.28 0.72
-7 3 -9 0.99 0.88
-8 3 -9 1.21 0.98
-8 4 9 -1.36 0.6
-7 4 9 0.07 0.53
-6 4 9 0.94 0.61
5 -4 -9 0.46 0.63
-5 -4 9 0.55 0.57
-5 4 9 0.13 0.48
-4 -4 9 0.72 0.47
4 -4 -9 0.89 0.54
-4 4 9 2.84 1.35
-4 4 9 0.24 0.49
3 -4 -9 0.02 0.41
-3 4 9 0.7 0.47
-3 4 9 0.39 0.93
2 -4 -9 3.54 0.65
-2 4 9 1.37 1.03
-2 4 9 1.49 0.48
1 -4 -9 16.26 0.96
-1 4 9 12.62 2.08
0 4 9 -0.11 0.77
1 4 9 -0.63 0.82
-2 4 -9 17.57 1.96
2 4 9 20.85 2.3
-3 4 -9 0.61 0.83
3 4 9 0.26 0.78
-4 4 -9 0.08 0.87
4 4 9 1.85 1.23
-4 4 -9 1.16 0.42
-5 4 -9 1.68 0.66
-5 4 -9 0.66 0.87
-6 4 -9 0.21 0.64
-6 4 -9 -0.14 0.81
-7 4 -9 1.34 1.05
-7 5 9 -1.08 0.55
-6 -5 9 2.15 1.01
-6 5 9 0.15 0.5
-5 -5 9 -0.61 0.54
-5 5 9 -1.42 0.98
-5 5 9 0.36 0.52
4 -5 -9 1.83 1.24
-4 5 9 0.25 1.06
-4 5 9 1.32 0.62
3 -5 -9 2.76 0.79
-3 5 9 1.69 1.22
-3 5 9 2.03 0.59
-2 5 9 0.38 1.02
-2 5 9 1.02 0.42
-1 5 9 4.33 1.5
0 5 9 0.59 1
-1 5 -9 0.95 0.9
1 5 9 0.03 0.89
-2 5 -9 -0.11 0.97
2 5 9 -0.79 0.87
3 5 9 -0.51 0.91
-3 5 -9 -0.7 0.64
4 5 9 0.27 1.05
-5 5 -9 -1.22 0.88
-4 6 9 -0.18 0.47
-4 6 9 -0.92 0.99
-3 6 9 0.03 0.39
-2 6 9 -0.25 1.02
-2 6 9 3.38 0.68
-1 6 9 -0.22 1
0 6 9 1.36 1.28
-1 6 -9 0.45 1.12
2 6 9 0.98 1.13
-2 6 -9 0.47 0.81
-10 0 10 2.5 1.06
-9 0 10 0.14 0.67
-7 0 10 2.15 0.82
5 0 -10 0.73 0.74
-5 0 10 0.29 0.57
4 0 -10 2.59 0.93
3 0 -10 65.18 2.96
2 0 -10 14.27 1.19
-2 0 10 13.63 1.56
1 0 -10 3.86 0.77
-1 0 10 5.62 1.14
0 0 10 27.14 2.08
0 0 -10 24.52 1.53
1 0 10 2.3 0.87
2 0 10 -0.16 0.57
-2 0 -10 0.09 0.64
-3 0 -10 19.09 1.59
-3 0 -10 18.93 1.88
-4 0 -10 23.25 2.18
-4 0 -10 20.02 1.58
-5 0 -10 3.92 0.95
-6 0 -10 6.05 1.17
-7 0 -10 1.68 0.74
-8 0 -10 2.37 0.89
-10 -1 10 0.21 0.73
-10 1 10 -0.13 0.86
-9 -1 10 0.35 0.7
-9 1 10 0.2 0.79
-8 -1 10 0.91 0.8
-8 1 10 1 0.84
-7 -1 10 0.08 0.76
-7 1 10 0.8 0.62
-6 1 10 3.64 1.01
5 -1 -10 -0.8 0.66
-5 1 10 -0.01 0.45
4 -1 -10 11.64 1.42
4 1 -10 12.9 1.35
-4 1 10 12.89 1.29
3 -1 -10 3.21 0.79
3 1 -10 2.38 0.77
-2 -1 10 0.01 0.65
2 -1 -10 -0.52 0.39
-2 1 10 0.33 0.7
2 1 -10 0.13 0.44
1 -1 -10 3.36 0.71
-1 -1 10 4.16 0.92
-1 1 10 3.59 1.08
1 1 -10 3.67 0.81
0 -1 -10 8.89 0.85
0 -1 10 7.54 1.15
0 1 10 8.12 1.52
1 -1 10 0.43 0.57
-1 -1 -10 0.58 0.37
1 1 10 0.74 0.81
-2 -1 -10 1.41 0.47
-2 -1 -10 1.47 0.56
2 1 10 1.56 1.01
-2 1 -10 1.37 0.7
-3 -1 -10 0.17 0.69
-3 -1 -10 0.49 0.47
-3 1 -10 -0.39 0.55
3 1 10 -0.68 0.64
-3 1 -10 0.22 0.53
-4 -1 -10 4.7 0.82
-4 1 -10 4.46 1.14
-4 1 -10 6.56 1.25
-5 -1 -10 0.64 0.48
-5 1 -10 0.66 0.79
-5 1 -10 -0.59 0.57
-6 -1 -10 0.11 0.45
-7 -1 -10 0.68 0.58
-7 1 -10 0.64 0.79
-8 -1 -10 -0.33 0.69
-8 1 -10 0.35 0.79
-10 2 10 -0.22 0.76
-9 2 10 -0.25 0.63
-8 2 10 2.35 0.99
-7 2 10 0.12 0.7
-6 2 10 0.63 0.6
5 -2 -10 10.44 1.25
-5 2 10 8.93 1.32
4 -2 -10 10.31 1.24
-4 2 10 13.18 1.25
-3 2 10 12.29 1.11
3 2 -10 12.29 1.32
2 -2 -10 12.9 1.13
-2 -2 10 12.35 1.14
-2 2 10 14.55 2.08
2 2 -10 14.17 1.41
-1 -2 10 1.73 0.57
1 -2 -10 1.96 0.62
-1 2 10 0.31 0.74
0 -2 -10 -0.74 0.37
0 -2 10 -0.29 0.34
0 2 10 -0.27 0.71
-1 -2 -10 1.59 0.43
1 2 10 1.06 0.91
-2 -2 -10 4.33 0.52
-2 -2 -10 3.32 1.26
-2 -2 -10 4.75 0.59
2 2 10 3.54 1.2
-3 -2 -10 3.26 0.43
-3 -2 -10 3.47 0.48
-3 2 -10 4.16 0.93
-3 2 -10 2.76 1.01
3 2 10 2.19 1.67
-4 -2 -10 -0.15 0.25
-4 -2 -10 0.12 0.25
-4 2 -10 -0.37 0.58
-5 -2 -10 3.15 0.51
-5 2 -10 3.18 1
-5 2 -10 3.41 1.01
-6 -2 -10 4.22 0.65
-6 2 -10 3.68 1.03
-6 2 -10 3.87 1.2
-7 2 -10 0.18 0.82
-8 -2 -10 -0.62 0.56
-8 2 -10 0.73 0.96
-9 3 10 0.55 1.34
-8 3 10 0.88 0.82
-7 3 10 2.91 0.96
5 -3 -10 0.98 0.58
-5 3 10 0.07 0.52
4 -3 -10 -0.13 0.48
-4 3 10 1 0.59
3 -3 -10 -0.22 0.36
-3 -3 10 0.14 0.43
-3 3 10 0.43 0.91
-3 3 10 0.42 0.43
2 -3 -10 0.68 0.41
-2 -3 10 0.96 0.24
1 -3 -10 1.06 0.39
0 -3 -10 26.79 1.11
1 3 10 2.99 1.22
2 3 10 0.48 0.88
-2 3 -10 -0.38 0.67
3 3 10 2.56 1.14
-3 3 -10 2.52 1
-4 3 -10 0.88 0.81
4 3 10 0.35 0.89
-4 3 -10 1.37 0.6
-5 3 -10 0.58 0.75
-5 3 -10 -0.18 0.66
-6 3 -10 0.89 0.9
-6 3 -10 2.97 1.17
-7 3 -10 1.97 1.68
-8 4 10 -0.29 0.69
-7 4 10 0.37 0.62
-6 4 10 0.68 0.57
5 -4 -10 -0.18 0.65
-5 4 10 0.31 0.56
-4 -4 10 -0.49 0.32
4 -4 -10 -0.17 0.55
-4 4 10 0.24 0.51
-4 4 10 -0.68 0.94
3 -4 -10 0.63 0.45
-3 4 10 0.96 0.49
-3 4 10 0.57 1.07
2 -4 -10 9.64 0.89
-2 4 10 10.17 0.88
-2 4 10 6 1.66
1 -4 -10 7.75 0.68
-1 4 10 6.72 1.58
0 4 10 0.04 0.77
1 4 10 2.17 1.25
2 4 10 2.04 1.15
-2 4 -10 3.97 1.25
-3 4 -10 0.53 0.86
3 4 10 1.46 1.13
-4 4 -10 1.18 0.98
4 4 10 -0.01 1.02
-5 4 -10 0.87 0.99
-6 4 -10 -0.11 0.88
-6 5 10 -0.02 0.62
-5 5 10 -0.16 0.52
4 -5 -10 2.07 0.77
-4 5 10 -0.01 0.48
-4 5 10 -0.32 1.21
3 -5 -10 0.47 0.57
-3 5 10 -0.02 0.42
-3 5 10 -0.45 0.97
-2 5 10 0.08 0.32
-2 5 10 -0.8 0.74
-1 5 10 0.48 0.82
0 5 10 4.3 1.57
-1 5 -10 -0.4 0.86
1 5 10 0.78 0.94
2 5 10 -0.14 0.94
-2 5 -10 1 0.86
4 5 10 -0.66 0.89
-4 5 -10 -0.15 0.9
-3 6 10 -0.18 1.16
-3 6 10 0.95 0.55
-2 6 10 0.71 0.98
-1 6 10 0.18 1.03
0 6 10 -0.3 0.91
0 6 -10 -0.1 0.94
-1 6 -10 -0.57 0.92
1 6 10 -1 1.12
-10 0 11 0.15 0.85
-9 0 11 0.4 0.59
-8 0 11 0.29 0.73
-7 0 11 -0.11 0.69
-6 0 11 -0.7 0.5
4 0 -11 -1.07 0.38
2 0 -11 0.47 0.52
-2 0 11 -0.19 0.65
1 0 -11 -0.46 0.36
-1 0 11 0.07 0.69
0 0 11 -0.07 0.66
0 0 -11 -0.36 0.38
1 0 11 -0.63 0.61
-1 0 -11 0.6 0.47
2 0 11 -0.67 0.58
-3 0 -11 -0.46 0.48
-3 0 -11 -0.93 0.67
-4 0 -11 -1.06 0.64
-4 0 -11 0.63 0.62
-5 0 -11 0.37 0.58
-6 0 -11 0.25 0.67
-8 0 -11 0.42 0.71
-9 1 11 0.02 0.67
-8 -1 11 2.11 0.98
-8 1 11 2.61 0.98
-7 1 11 1.21 0.78
-6 1 11 1.54 0.74
5 -1 -11 0.29 0.68
-5 1 11 -0.44 0.51
4 -1 -11 -0.65 0.63
3 -1 -11 0.01 0.58
3 1 -11 -0.07 0.52
-3 1 11 -0.37 0.69
-2 -1 11 9.84 1.26
2 -1 -11 11.73 1.12
2 1 -11 9.95 1.21
-2 1 11 9.93 1.73
-1 -1 11 -0.17 0.55
1 -1 -11 0.78 0.53
-1 1 11 1.32 0.83
1 1 -11 0.27 0.59
0 -1 11 3.69 0.94
0 -1 -11 3.68 0.74
0 1 11 4.43 1.16
-1 -1 -11 4.58 0.74
1 -1 11 3.92 0.96
1 1 11 2.75 1.13
-2 -1 -11 3.76 0.7
-2 -1 -11 4.61 0.88
2 1 11 3.01 1.12
-3 -1 -11 4.69 0.83
3 1 11 4.85 1.26
-3 1 -11 4.66 1.07
-3 1 -11 3.54 1.01
-4 -1 -11 3.01 0.71
-4 1 -11 4.75 1.43
-4 1 -11 3.27 1.07
-5 -1 -11 2.76 0.74
-5 1 -11 4.46 1.23
-5 1 -11 3.34 1.17
-6 -1 -11 3.8 0.79
-6 1 -11 3.68 1.09
-7 -1 -11 1.33 0.72
-7 1 -11 0.37 0.77
-8 2 11 0.14 0.73
-7 2 11 0.42 0.65
-6 2 11 0 0.55
5 -2 -11 8.54 1.29
-5 2 11 6.46 1.13
-4 2 11 9.29 1.11
3 -2 -11 1.24 0.69
-3 -2 11 -0.23 0.63
-3 2 11 2.13 1.11
-2 -2 11 0.04 0.49
2 -2 -11 -0.45 0.56
-2 2 11 0.03 0.73
1 -2 -11 -0.02 0.54
-1 -2 11 0.49 0.53
1 2 -11 -0.13 0.61
-1 2 11 0.18 0.77
0 -2 11 2.92 0.65
0 2 11 1.99 1.01
-1 -2 -11 1.96 0.52
1 2 11 0.82 0.91
-2 -2 -11 -0.14 0.31
-2 -2 -11 -0.82 0.35
2 2 11 0.14 0.9
-2 2 -11 0.02 0.6
-3 -2 -11 3.48 0.5
-3 -2 -11 3.14 0.52
3 2 11 3.34 1.27
-3 2 -11 4.68 0.95
-3 2 -11 2.22 1.2
-4 -2 -11 5.74 0.53
-4 -2 -11 5.65 0.56
-4 2 -11 4.8 1.12
-4 2 -11 5.34 1.34
-5 -2 -11 2.29 0.46
-5 2 -11 0.43 0.83
-6 -2 -11 -0.31 0.36
-6 2 -11 0.75 1.09
-6 2 -11 0.76 0.81
-7 2 -11 -0.68 0.69
-8 3 11 -0.34 0.62
-7 3 11 -0.99 0.57
-6 3 11 2.98 0.89
5 -3 -11 0.53 0.72
-5 3 11 -0.23 0.47
4 -3 -11 1.18 0.7
-4 3 11 1.14 1.15
-4 3 11 0.44 0.5
3 -3 -11 0.86 0.51
-3 -3 11 1.51 0.51
-3 3 11 1.89 1.09
-3 3 11 0.81 0.53
-2 -3 11 8.25 0.53
2 -3 -11 8.16 0.98
-2 3 11 5.07 1.44
1 -3 -11 4.55 0.66
-1 3 11 4.42 1.36
0 -3 -11 -0.29 0.22
0 3 11 -1.32 0.69
1 3 11 -0.31 0.89
2 3 11 14.51 2.31
-2 3 -11 15.78 1.84
3 3 11 5.09 1.56
-3 3 -11 6 1.42
4 3 11 -0.4 0.82
-4 3 -11 2.89 1.1
-4 3 -11 0.13 0.6
-5 3 -11 0.8 0.71
-5 3 -11 0.04 0.68
-6 3 -11 1.01 0.92
-7 4 11 1.1 0.81
-6 4 11 3.83 1.05
-5 4 11 -0.01 1.08
-5 4 11 0.89 0.59
-4 4 11 -0.52 1.14
-4 4 11 0.49 0.47
3 -4 -11 -0.06 0.42
-3 4 11 0.76 0.97
-3 4 11 -0.4 0.4
2 -4 -11 1.14 0.45
-2 4 11 0.69 0.97
1 -4 -11 0.49 0.35
-1 4 11 0.37 0.99
0 4 11 0.21 0.92
1 4 11 4.55 1.54
-2 4 -11 3.35 1.22
2 4 11 1.22 1.24
3 4 11 0.15 0.94
-3 4 -11 0.84 0.94
4 4 11 -0.13 1.02
-4 4 -11 0.43 0.77
-5 4 -11 1.07 1.04
-5 5 11 1.38 1.36
4 -5 -11 3.04 0.91
-4 5 11 1.08 1.31
-4 5 11 0.96 0.54
3 -5 -11 1.87 0.69
-3 5 11 2.99 1.64
-3 5 11 0.56 0.45
-2 5 11 -0.42 0.97
-1 5 11 -0.92 0.86
0 5 11 0.4 1.16
1 5 11 3 1.38
2 5 11 -0.71 1.08
-2 5 -11 0.87 1
3 5 11 0.87 0.97
-3 5 -11 1.19 1.05
-9 0 12 0.67 0.8
-8 0 12 0.08 0.63
-7 0 12 2.25 0.9
-3 0 12 0.39 0.78
3 0 -12 0.61 0.73
-2 0 12 6.58 1.33
2 0 -12 7.76 1.22
-1 0 12 0.3 0.73
1 0 -12 0.04 0.51
0 0 12 1.4 0.95
0 0 -12 3.13 0.77
1 0 12 10.29 1.64
-1 0 -12 12.62 1.22
-2 0 -12 2.68 0.87
2 0 12 2.95 1.04
-3 0 -12 1.9 0.82
-3 0 -12 2 1.11
-4 0 -12 2.33 0.84
-5 0 -12 -0.3 0.56
-6 0 -12 -0.92 0.6
-7 0 -12 2.73 0.99
-9 1 12 -0.14 0.85
-8 1 12 -0.76 0.59
-7 1 12 0.5 0.7
-6 1 12 2.01 0.89
4 -1 -12 6.66 1.19
3 -1 -12 -0.84 0.73
-3 -1 12 0.83 0.76
-3 1 12 1.8 1.07
-2 -1 12 3.41 1
2 -1 -12 2.63 0.86
-2 1 12 3.41 1.02
2 1 -12 3.81 0.95
1 -1 -12 8.08 1.13
-1 -1 12 8.65 1.38
-1 1 12 9.8 1.74
1 1 -12 8.65 1.33
0 -1 -12 4.12 0.8
0 -1 12 3.81 1.02
0 1 12 4.56 1.44
0 1 -12 2.4 0.74
-1 -1 -12 -0.25 0.4
1 -1 12 0.52 0.64
1 1 12 0.48 0.92
-2 -1 -12 0.05 0.39
-2 -1 -12 -0.22 0.44
2 1 12 -0.87 0.69
-3 -1 -12 0.72 0.58
-3 -1 -12 0.98 0.5
-3 1 -12 0.65 0.81
3 1 12 1.52 0.98
-3 1 -12 1.51 0.74
-4 -1 -12 1.23 0.63
-4 1 -12 3.82 1.12
-4 1 -12 3.69 1.27
-5 -1 -12 2.8 0.75
-5 1 -12 1.73 0.85
-6 -1 -12 -0.47 0.49
-6 1 -12 0.61 0.76
-7 -1 -12 0.41 0.66
-7 1 -12 1.16 0.96
-8 2 12 -0.43 0.78
-7 2 12 1.5 0.82
-6 2 12 0.13 0.61
-5 2 12 0.53 0.56
4 -2 -12 2.97 0.84
-4 2 12 -0.24 0.97
3 -2 -12 9.88 1.32
-3 -2 12 7.77 1.22
-3 2 12 8.33 1.9
2 -2 -12 6.38 1.04
-2 -2 12 7.29 1.12
-2 2 12 5.01 1.42
-1 -2 12 0.52 0.55
1 -2 -12 0.43 0.66
-1 2 12 1.42 1.02
0 -2 -12 -0.11 0.46
0 2 12 0.04 0.7
-1 -2 -12 -0.69 0.67
1 2 12 -0.46 0.77
-2 -2 -12 0.98 0.4
-2 -2 -12 1.43 0.46
2 2 12 2.24 1.18
-2 2 -12 1.77 0.93
-3 -2 -12 2.67 0.53
-3 -2 -12 3.71 0.53
3 2 12 4.43 1.31
-3 2 -12 4.66 1.26
-4 -2 -12 -0.13 0.32
-4 -2 -12 0.21 0.29
-4 2 -12 0.59 0.77
-4 2 -12 0.49 0.69
-5 -2 -12 0.47 0.37
-5 -2 -12 -0.25 0.31
-5 2 -12 -0.6 0.73
-5 2 -12 0.13 0.89
-6 -2 -12 -0.44 0.44
-6 2 -12 0.75 0.9
-8 3 12 -0.65 0.75
-7 3 12 2.54 0.9
-6 3 12 -0.1 0.6
-5 3 12 -0.57 0.44
-4 -3 12 0.58 0.63
4 -3 -12 1.4 0.63
-4 3 12 0.58 0.57
-4 3 12 1.38 1.2
-3 -3 12 3.01 0.65
3 -3 -12 3.59 0.8
-3 3 12 3.77 1.45
2 -3 -12 -0.1 0.4
-2 3 12 1.57 1.02
1 -3 -12 7.14 0.97
-1 3 12 5.61 1.54
0 -3 -12 7.48 0.61
0 3 12 7.93 1.81
1 3 12 1.1 1.11
-2 3 -12 -0.12 0.67
2 3 12 1.26 1.08
3 3 12 0.49 0.95
-3 3 -12 1.45 1.09
-4 3 -12 1.01 0.92
4 3 12 0.73 1.07
-5 3 -12 0.12 0.73
-5 3 -12 1.14 0.84
-6 4 12 -0.18 0.56
-5 4 12 1.72 0.85
4 -4 -12 1.92 0.74
-4 4 12 2.7 0.74
-4 4 12 5.32 1.82
3 -4 -12 0.7 0.62
-3 4 12 0.04 1.06
2 -4 -12 1.16 0.46
-2 4 12 0.67 0.98
-1 4 12 3.5 1.27
0 4 12 -0.36 0.95
1 4 12 -0.28 0.96
-2 4 -12 0.73 0.99
2 4 12 0.89 1.14
-3 4 -12 -0.65 0.71
-4 4 -12 -1.09 0.69
4 4 12 -1.69 0.93
-4 5 12 -0.41 0.46
-4 5 12 -0.05 1.17
3 -5 -12 1.13 0.99
-3 5 12 1.31 1.24
-2 5 12 0.34 1.09
-1 5 12 0.26 1.05
0 5 12 -1.56 0.86
-1 5 -12 1.41 1.09
1 5 12 0.93 1.15
2 5 12 0.32 1.07
-2 5 -12 1.22 1.08
-8 0 13 -0.31 0.67
-3 0 13 0.15 0.93
-2 0 13 -0.26 0.76
2 0 -13 -0.5 0.5
-1 0 13 -0.35 0.7
1 0 -13 -0.28 0.47
0 0 13 -1.42 0.61
0 0 -13 -0.62 0.42
-1 0 -13 0.43 0.57
1 0 13 0.54 0.91
2 0 13 0.09 0.72
-2 0 -13 0.68 0.56
-2 0 -13 -0.2 0.59
-3 0 -13 -0.51 0.58
-4 0 -13 -0.53 0.55
-5 0 -13 0.28 0.68
-6 0 -13 0.33 0.73
-8 1 13 0.76 0.74
-7 1 13 1.05 0.85
-4 1 13 7.02 1.7
3 -1 -13 11.14 1.33
-3 -1 13 11.21 1.72
-2 -1 13 0.65 0.82
-2 1 13 1.3 0.88
1 -1 -13 1.11 0.64
-1 -1 13 0.42 0.8
-1 1 13 2.38 1.1
0 -1 13 0.61 0.7
0 -1 -13 1.18 0.57
0 1 13 1.53 0.91
-1 -1 -13 1.88 0.56
1 -1 13 1.89 0.87
-2 -1 -13 0.96 0.57
-2 -1 -13 2.23 0.75
-2 1 -13 0.98 0.8
2 1 13 1.52 0.96
-3 -1 -13 2.09 0.67
-3 -1 -13 1.8 0.72
3 1 13 1.48 1.13
-3 1 -13 1.53 0.97
-4 -1 -13 -0.26 0.56
-4 1 -13 -1.4 0.83
-4 1 -13 0.77 0.88
-5 -1 -13 0.56 0.61
-5 1 -13 0.01 0.7
-6 -1 -13 0.63 0.61
-6 1 -13 -0.84 0.74
-8 2 13 0.02 0.71
-7 2 13 -0.76 0.56
-6 2 13 1.08 0.7
-5 2 13 1.91 0.78
4 -2 -13 0.64 0.64
-4 -2 13 -0.16 0.66
-4 2 13 0.87 1.02
-3 -2 13 0.75 0.69
3 -2 -13 0.88 0.76
-3 2 13 -0.14 1
-2 -2 13 -0.71 0.54
2 -2 -13 0.02 0.6
-2 2 13 0.69 0.99
1 -2 -13 1.53 0.64
-1 2 13 -0.01 0.93
0 -2 -13 5.79 0.83
0 2 13 4.72 1.42
-1 -2 -13 -0.37 0.39
1 2 13 0.07 0.87
-2 -2 -13 -0.7 0.36
2 2 13 1.56 1.09
-2 2 -13 -0.03 0.68
-3 -2 -13 0.22 0.4
-3 -2 -13 1.87 0.51
-3 2 -13 1.32 0.92
3 2 13 1.54 1.16
-4 -2 -13 0.68 0.34
-4 -2 -13 -0.14 0.38
-4 2 -13 -1.37 0.52
-5 -2 -13 -0.26 0.36
-5 -2 -13 0.29 0.44
-5 2 -13 -0.08 0.74
-5 2 -13 -1.38 0.85
-7 3 13 1.63 0.8
-6 3 13 3.01 0.89
-5 3 13 2.88 0.81
-5 3 13 3.52 1.58
-4 -3 13 1.14 0.85
4 -3 -13 -0.2 0.57
-4 3 13 1.6 1.11
-3 -3 13 0.67 0.51
3 -3 -13 -0.34 0.52
-3 3 13 -0.71 0.81
2 -3 -13 0.8 0.52
-2 3 13 -0.32 0.82
1 -3 -13 0.12 0.38
-1 3 13 -0.16 0.83
0 -3 -13 2.89 0.47
0 3 13 3.19 1.4
1 3 13 1.31 1.11
-2 3 -13 -1.62 0.66
2 3 13 -0.68 0.95
3 3 13 1.01 1.05
-3 3 -13 0.64 0.88
-4 3 -13 2.04 1.16
-5 -4 13 0.55 0.55
-5 4 13 -0.06 1.18
-5 4 13 0.6 0.57
4 -4 -13 1.66 0.75
-4 4 13 -0.22 1.18
3 -4 -13 -0.03 0.59
2 -4 -13 0.03 0.45
-2 4 13 0.74 1.02
1 -4 -13 0.16 0.33
-1 4 13 -1.83 0.71
0 4 13 -0.58 0.95
-2 4 -13 -0.11 0.83
2 4 13 -0.41 1.05
-3 4 -13 -0.46 0.94
3 4 13 1.04 1.15
-3 0 14 0.47 0.95
-2 0 14 7.19 1.49
-1 0 14 8.72 1.67
1 0 -14 8.92 1.57
0 0 14 4.86 1.29
0 0 -14 4.51 1.02
1 0 14 -0.53 0.64
-1 0 -14 0.57 0.61
-2 0 -14 0.99 0.73
-2 0 -14 -0.84 0.54
-3 0 -14 0.36 0.8
-4 0 -14 0.52 0.78
-5 0 -14 1.81 0.86
-4 -1 14 2.72 1.21
-4 1 14 6.38 1.72
-3 -1 14 0.13 0.77
-3 1 14 -0.97 0.81
2 -1 -14 0.36 0.57
-2 -1 14 3.44 1.09
-2 1 14 -0.04 0.81
1 -1 -14 -0.21 0.59
-1 -1 14 1.43 0.83
-1 1 14 -0.43 0.71
0 -1 -14 1.05 0.65
0 -1 14 2.76 0.93
0 1 14 0.82 0.93
1 -1 14 0.32 0.73
-1 -1 -14 1.07 0.59
1 1 14 0.29 0.81
-2 -1 -14 0.53 0.65
-2 -1 -14 0.45 0.5
-2 1 -14 0.06 0.72
2 1 14 -0.56 0.67
-3 -1 -14 0.34 0.65
-3 -1 -14 2.33 0.73
-3 1 -14 0.08 0.76
-4 -1 -14 2.66 0.81
-4 -1 -14 2.04 0.71
-4 1 -14 2.44 1.01
-5 -1 -14 1.18 0.7
-5 1 -14 -1.34 0.77
-7 2 14 1.57 0.88
-5 2 14 2.81 1.43
-4 -2 14 0 0.76
-4 2 14 0.27 0.95
-3 -2 14 0.72 0.78
3 -2 -14 1.41 0.86
-3 2 14 1.21 1.04
2 -2 -14 1.98 0.81
-2 -2 14 -0.43 0.6
-2 2 14 0.27 0.91
1 -2 -14 0.87 0.72
-1 -2 14 1.94 0.76
-1 2 14 1.13 0.98
0 -2 -14 4.66 0.84
0 2 14 0.82 1.13
-1 -2 -14 0.76 0.58
-1 -2 -14 -0.14 0.51
1 2 14 -1.33 0.83
-2 -2 -14 2.33 0.65
-2 -2 -14 1.91 0.71
2 2 14 3.15 1.17
-2 2 -14 2.86 1.06
-3 -2 -14 1.21 0.5
3 2 14 2.31 1.44
-3 2 -14 1.71 0.99
-4 -2 -14 -0.31 0.34
-4 2 -14 -0.32 0.91
-6 3 14 -0.61 0.56
-6 3 14 -2.18 0.9
-5 -3 14 1.46 0.87
-5 3 14 -0.63 1.24
-4 3 14 0.36 1.15
-3 -3 14 0.11 0.46
3 -3 -14 0.57 0.82
-3 3 14 1.8 1.19
2 -3 -14 2.39 0.62
-2 3 14 0.67 1.22
1 -3 -14 0.13 0.47
-1 3 14 1.81 1.23
0 -3 -14 -0.03 0.31
0 3 14 -0.05 0.93
1 3 14 -0.02 1.18
-2 3 -14 0.65 1.07
2 3 14 -1.48 0.76
-3 3 -14 1.74 1.79
3 3 14 0.54 1.11
-4 4 14 0.75 1.35
-3 4 14 2.09 1.4
-2 4 14 -0.33 0.94
-1 4 14 0.37 1.18
0 4 14 -1.47 0.94
-1 4 -14 0.53 0.82
1 4 14 -1.76 1.04
-5 0 15 -0.25 0.85
-4 0 15 -0.07 0.94
-3 0 15 -0.38 0.92
-2 0 15 -0.13 1
1 0 15 -0.94 0.67
-3 0 -15 0.47 0.9
-4 0 -15 0.67 0.73
-5 -1 15 -0.23 0.88
-5 1 15 1.05 1.06
-4 -1 15 -0.71 0.74
-4 1 15 -0.33 0.95
-3 -1 15 0.46 0.81
-3 1 15 0.21 0.96
-2 -1 15 -0.31 0.78
-2 1 15 0.22 0.83
-1 -1 15 0.08 0.82
1 -1 -15 -0.35 0.62
-1 1 15 0.49 1.05
0 -1 -15 4.25 0.93
0 -1 15 3.08 1.06
0 1 15 2.05 1.16
-1 -1 -15 3.29 0.94
1 1 15 3.15 1.28
-2 -1 -15 -0.61 0.54
-2 1 -15 1 0.81
2 1 15 -0.74 0.95
-3 -1 -15 0.72 0.66
-3 -1 -15 -0.3 1.21
-3 1 -15 -0.18 0.83
-4 -1 -15 -0.84 0.67
-4 1 -15 -0.56 0.87
-6 2 15 1.28 1.39
-5 -2 15 0.18 0.98
-5 2 15 -0.32 1.26
-4 -2 15 -0.13 0.79
-4 2 15 0.06 0.97
-3 -2 15 -0.52 0.71
-3 2 15 2.63 1.33
-2 -2 15 3.95 0.97
2 -2 -15 1.41 0.8
-2 2 15 1.72 1.3
-1 -2 15 1.1 0.73
1 -2 -15 2.53 0.77
-1 2 15 3.3 1.46
0 -2 -15 -0.82 0.6
0 2 15 1.77 1.2
-1 -2 -15 0.67 0.6
1 2 15 1.46 1.09
-2 -2 -15 0.04 0.64
-2 2 -15 -1.29 0.84
2 2 15 -1.07 0.88
-3 -2 -15 1.06 0.61
-3 2 -15 1.06 1.07
-4 3 15 3.87 1.68
3 -3 -15 0.58 0.75
-3 -3 15 0.72 0.56
-3 3 15 -0.93 0.93
2 -3 -15 0.1 0.65
1 -3 -15 2.73 0.71
0 3 15 -0.84 1.89
1 3 15 -0.55 0.87
-5 0 16 3.6 1.54
-4 0 16 2.74 1.29
-3 0 16 0.9 0.87
-2 0 16 -2.13 0.81
-1 0 16 -0.37 1.01
0 0 16 2.26 1.17
1 0 16 2.19 1.04
-2 0 -16 -1.63 0.67
-5 -1 16 2.29 1.38
-5 1 16 1.07 1.33
-4 -1 16 -0.39 0.92
-4 1 16 1.63 1.31
-3 -1 16 0.67 1.09
-3 1 16 1.73 1.12
-2 -1 16 -1.12 0.9
-2 1 16 0.54 1.02
-1 -1 16 0.35 0.89
-1 1 16 0.95 1.07
0 -1 16 0.93 0.84
0 -1 -16 0.86 1.17
0 1 16 0.73 1.12
-1 -1 -16 0.53 0.91
1 1 16 -1.22 0.96
-2 -1 -16 0.39 0.73
2 1 16 -0.41 1.07
-2 1 -16 2.37 1.07
-4 -2 16 0.19 0.95
-3 -2 16 2.34 1.05
-3 2 16 -0.27 0.97
2 -2 -16 -0.24 1.07
-2 -2 16 0.71 0.8
-2 2 16 -0.53 0.91
-1 -2 16 0.73 0.76
1 -2 -16 0.86 0.95
-1 2 16 -0.18 0.9
0 -2 -16 1.71 1.48
0 2 16 0.52 1.06
-1 -2 -16 -0.55 0.62
-3 0 17 -1.46 1
-2 0 17 -1.08 0.99
-1 0 17 -0.08 1.02
