#------------------------------------------------------------------------------
#$Date: 2022-03-03 21:54:49 +0200 (Thu, 03 Mar 2022) $
#$Revision: 273234 $
#$URL: file:///home/coder/svn-repositories/cod/cif/4/51/93/4519324.cif $
#------------------------------------------------------------------------------
#
# This file is available in the Crystallography Open Database (COD),
# http://www.crystallography.net/
#
# All data on this site have been placed in the public domain by the
# contributors.
#
data_4519324
loop_
_publ_author_name
'Zhang, Guojie'
'Yi, Zhenxin'
'Cheng, Guangbin'
'Yang, Wei'
'Yang, Hongwei'
_publ_section_title
;
 Polynitro-Functionalized Azopyrazole with High Performance and Low
 Sensitivity as Novel Energetic Materials.
;
_journal_issue                   8
_journal_name_full               'ACS applied materials &amp; interfaces'
_journal_page_first              10594
_journal_page_last               10604
_journal_paper_doi               10.1021/acsami.2c00154
_journal_volume                  14
_journal_year                    2022
_chemical_formula_moiety         'C6 N10 O8, 2(H2 O), 2(H4 N)'
_chemical_formula_sum            'C6 H12 N12 O10'
_chemical_formula_weight         412.28
_space_group_crystal_system      triclinic
_space_group_IT_number           2
_space_group_name_Hall           '-P 1'
_space_group_name_H-M_alt        'P -1'
_atom_sites_solution_hydrogens   difmap
_atom_sites_solution_primary     dual
_audit_creation_date             2019-07-19
_audit_creation_method
;
Olex2 1.2
(compiled 2018.05.29 svn.r3508 for OlexSys, GUI svn.r5506)
;
_cell_angle_alpha                101.457(3)
_cell_angle_beta                 92.636(3)
_cell_angle_gamma                99.304(3)
_cell_formula_units_Z            2
_cell_length_a                   7.1996(7)
_cell_length_b                   10.1924(10)
_cell_length_c                   11.2601(11)
_cell_measurement_reflns_used    1029
_cell_measurement_temperature    173(2)
_cell_measurement_theta_max      26.288
_cell_measurement_theta_min      2.473
_cell_volume                     796.55(14)
_computing_cell_refinement       'SAINT V8.38A (?, 2016)'
_computing_data_reduction        'SAINT V8.38A (?, 2016)'
_computing_molecular_graphics    'Olex2 (Dolomanov et al., 2009)'
_computing_publication_material  'Olex2 (Dolomanov et al., 2009)'
_computing_structure_refinement  'ShelXL (Sheldrick, 2015)'
_computing_structure_solution    'ShelXT (Sheldrick, 2015)'
_diffrn_ambient_temperature      173.0
_diffrn_measured_fraction_theta_full 0.988
_diffrn_measured_fraction_theta_max 0.974
_diffrn_measurement_device_type  'Bruker APEX-II CCD'
_diffrn_measurement_method       '\f and \w scans'
_diffrn_radiation_type           MoK\a
_diffrn_radiation_wavelength     0.71073
_diffrn_reflns_av_R_equivalents  0
_diffrn_reflns_av_unetI/netI     0.2106
_diffrn_reflns_Laue_measured_fraction_full 0.988
_diffrn_reflns_Laue_measured_fraction_max 0.974
_diffrn_reflns_number            3573
_diffrn_reflns_point_group_measured_fraction_full 0.988
_diffrn_reflns_point_group_measured_fraction_max 0.974
_diffrn_reflns_theta_full        25.242
_diffrn_reflns_theta_max         27.500
_diffrn_reflns_theta_min         2.472
_diffrn_standards_number         0
_exptl_absorpt_coefficient_mu    0.160
_exptl_absorpt_correction_T_max  0.745553
_exptl_absorpt_correction_T_min  0.627631
_exptl_absorpt_correction_type   multi-scan
_exptl_absorpt_process_details
;
 TWINABS-2012/1 (Bruker,2012) was used for absorption correction.

Final HKLF 4 output contains 12124 reflections, Rint = 0.0712
 (4627 with I > 3sig(I), Rint = 0.0444)
;
_exptl_crystal_colour            colourless
_exptl_crystal_colour_primary    colourless
_exptl_crystal_density_diffrn    1.719
_exptl_crystal_description       needle
_exptl_crystal_F_000             424
_exptl_crystal_size_max          0.08
_exptl_crystal_size_mid          0.05
_exptl_crystal_size_min          0.02
_refine_diff_density_max         0.356
_refine_diff_density_min         -0.390
_refine_diff_density_rms         0.088
_refine_ls_extinction_method     none
_refine_ls_goodness_of_fit_ref   1.059
_refine_ls_hydrogen_treatment    mixed
_refine_ls_matrix_type           full
_refine_ls_number_parameters     285
_refine_ls_number_reflns         3573
_refine_ls_number_restraints     14
_refine_ls_restrained_S_all      1.057
_refine_ls_R_factor_all          0.1825
_refine_ls_R_factor_gt           0.0862
_refine_ls_shift/su_max          0.000
_refine_ls_shift/su_mean         0.000
_refine_ls_structure_factor_coef Fsqd
_refine_ls_weighting_details
'w=1/[\s^2^(Fo^2^)+(0.0828P)^2^+0.3720P] where P=(Fo^2^+2Fc^2^)/3'
_refine_ls_weighting_scheme      calc
_refine_ls_wR_factor_gt          0.1728
_refine_ls_wR_factor_ref         0.2015
_reflns_Friedel_coverage         0.000
_reflns_number_gt                1869
_reflns_number_total             3573
_reflns_threshold_expression     'I > 2\s(I)'
_iucr_refine_instructions_details
;
TITL 22019795_0m_4_a.res in P-1
    22019795_0m_4.res
    created by SHELXL-2018/3 at 08:54:14 on 19-Jul-2019
REM Old TITL 22019795_0m_4 in P-1
REM SHELXT solution in P-1
REM R1 0.229, Rweak 0.040, Alpha 0.063, Orientation as input
REM Formula found by SHELXT: C19 N11 O4
CELL 0.71073 7.1996 10.1924 11.2601 101.457 92.636 99.304
ZERR 2 0.0007 0.001 0.0011 0.003 0.003 0.003
LATT 1
SFAC C H N O
UNIT 12 24 24 20
DFIX 0.84 O10 H10b
DFIX 1.46 H10b H10a
SADI N12 H12a N12 H12b N12 H12c N12 H12d
SADI N11 H11c N11 H11d N11 H11b N11 H11a

L.S. 30
PLAN  20
SIZE 0.08 0.05 0.02
TEMP -100.15
HTAB O9 N7
HTAB N11 O9
HTAB N12 O9
BOND $H
list 4
fmap 2
acta
REM <olex2.extras>
REM <HklSrc "%.\\22019795_0m_4.hkl">
REM </olex2.extras>

WGHT    0.082800    0.372000
FVAR       0.50783
O2    4    0.305665    0.516780    0.920553    11.00000    0.04612    0.03804 =
         0.02173    0.00700   -0.00483    0.01642
AFIX   6
O9    4    0.292029    0.649711    0.181736    11.00000    0.04779    0.03380 =
         0.02686    0.00950    0.00271    0.01409
H9A   2    0.307551    0.569834    0.192467    11.00000   -1.50000
H9B   2    0.203194    0.632914    0.122952    11.00000   -1.50000
AFIX   0
O7    4    0.452162    0.015309    0.303986    11.00000    0.05121    0.02949 =
         0.05121    0.01722    0.02072    0.01725
O1    4    0.175924    0.364567    0.763938    11.00000    0.06113    0.02648 =
         0.03545    0.00861   -0.00140    0.00694
O3    4    0.025373    0.677906    0.988188    11.00000    0.04696    0.05259 =
         0.02851    0.01807    0.01339    0.02380
O8    4    0.456199    0.045794    0.118991    11.00000    0.07389    0.03853 =
         0.02763   -0.00100    0.01126    0.02853
N3    3    0.123559    0.786533    0.722811    11.00000    0.02914    0.02333 =
         0.02370    0.00343    0.00374    0.00578
N6    3    0.244553    0.504850    0.445151    11.00000    0.02590    0.02865 =
         0.02474    0.00541    0.00499    0.00912
N4    3    0.161382    0.711038    0.617186    11.00000    0.02985    0.02448 =
         0.01975    0.00472    0.00562    0.01025
N1    3    0.221363    0.483425    0.819482    11.00000    0.03485    0.02169 =
         0.02503    0.00630    0.00706    0.00994
N5    3    0.243622    0.484228    0.551713    11.00000    0.02669    0.02433 =
         0.02012    0.00048    0.00159    0.00764

AFIX   6
O10   4    0.026698    0.060033    0.777273    11.00000    0.06346    0.03975 =
         0.04642    0.01100    0.00329    0.01858
H10A  2    0.113810    0.062563    0.726308    11.00000   -1.50000
AFIX   0

O5    4    0.183829    0.130228    0.493125    11.00000    0.04126    0.04964 =
         0.04415    0.01698    0.01218   -0.00052
AFIX   6
N11   3    0.164309    0.808437    0.389800    11.00000    0.03825    0.02981 =
         0.02504    0.01249    0.00789    0.01488
H11A  2    0.061416    0.830893    0.362702    11.00000   -1.50000
H11B  2    0.195552    0.751807    0.328529    11.00000   -1.50000
AFIX   0

O4    4    0.091225    0.884700    0.963045    11.00000    0.08663    0.04153 =
         0.03167   -0.00084    0.01481    0.02726
O6    4    0.459424    0.240947    0.561947    11.00000    0.04172    0.06494 =
         0.05154    0.02834   -0.00724    0.00705
N10   3    0.429242    0.081250    0.225155    11.00000    0.03155    0.02716 =
         0.03205    0.00275    0.00551    0.00757
N8    3    0.361335    0.293043    0.185886    11.00000    0.03278    0.02651 =
         0.02732    0.00233    0.00719    0.01078
N9    3    0.326636    0.209697    0.486197    11.00000    0.02633    0.03113 =
         0.02771    0.00458    0.00624    0.01014
N2    3    0.081368    0.761782    0.927591    11.00000    0.03711    0.03530 =
         0.02506    0.00398    0.00569    0.01697
N7    3    0.313839    0.406398    0.248803    11.00000    0.03186    0.02609 =
         0.02405    0.00265    0.00797    0.00961
AFIX   6
N12   3    0.608786    0.783699    0.083402    11.00000    0.04109    0.03131 =
         0.03343    0.00600    0.00442    0.01168
H12A  2    0.723277    0.803259    0.117958    11.00000   -1.50000
H12B  2    0.611875    0.755165    0.005496    11.00000   -1.50000
AFIX   0

C3    1    0.193499    0.589981    0.637133    11.00000    0.01829    0.02063 =
         0.01953    0.00182    0.00259    0.00481
C2    1    0.176436    0.586556    0.758823    11.00000    0.02557    0.02263 =
         0.01958    0.00337    0.00294    0.00636
C1    1    0.134290    0.712679    0.808632    11.00000    0.02415    0.02705 =
         0.01662    0.00333    0.00420    0.00636
C5    1    0.334967    0.269960    0.379304    11.00000    0.02028    0.02611 =
         0.02167    0.00447    0.00083    0.00346
C4    1    0.296778    0.395245    0.365622    11.00000    0.02127    0.02534 =
         0.02150   -0.00017    0.00314    0.00752
C6    1    0.375080    0.210786    0.264958    11.00000    0.02402    0.02261 =
         0.02764    0.00338    0.00396    0.00635
H12C  2    0.571761    0.861591    0.084254    11.00000    0.04638
H12D  2    0.522894    0.731985    0.115565    11.00000    0.06074
H11C  2    0.159990    0.773712    0.453913    11.00000    0.06061
H11D  2    0.242054    0.884092    0.402754    11.00000    0.06870
H10B  2    0.023794   -0.000671    0.818714    11.00000    0.41740
HKLF 4




REM  22019795_0m_4_a.res in P-1
REM wR2 = 0.2015, GooF = S = 1.059, Restrained GooF = 1.057 for all data
REM R1 = 0.0862 for 1869 Fo > 4sig(Fo) and 0.1825 for all 3573 data
REM 285 parameters refined using 14 restraints

END  
     
WGHT      0.0818      0.3955 

REM Highest difference peak  0.356,  deepest hole -0.390,  1-sigma level  0.088
Q1    1   0.3996  0.8743  0.4693  11.00000  0.05    0.36
Q2    1   0.1425  0.0835  0.6991  11.00000  0.05    0.36
Q3    1   0.3193  0.4332  0.1256  11.00000  0.05    0.34
Q4    1   0.2236  0.6356  0.4825  11.00000  0.05    0.33
Q5    1   0.0368 -0.0565  0.7284  11.00000  0.05    0.33
Q6    1   0.2184  0.0459  0.6092  11.00000  0.05    0.33
Q7    1   0.2230  0.9519  1.0974  11.00000  0.05    0.31
Q8    1   0.1512  0.0514  0.5454  11.00000  0.05    0.30
Q9    1   0.4211  0.6330  0.9864  11.00000  0.05    0.30
Q10   1   0.3149  0.4110  0.5781  11.00000  0.05    0.30
Q11   1  -0.1729  0.6799  1.0475  11.00000  0.05    0.29
Q12   1   0.1054  0.6252  0.4009  11.00000  0.05    0.29
Q13   1   0.3182  0.7778  0.9661  11.00000  0.05    0.29
Q14   1   0.4455  0.4464  0.3228  11.00000  0.05    0.29
Q15   1   0.2241  0.5648  0.4056  11.00000  0.05    0.28
Q16   1  -0.0095  0.4265  0.8054  11.00000  0.05    0.28
Q17   1   0.1596  0.7566  0.1852  11.00000  0.05    0.28
Q18   1   0.4778  0.4344  0.2047  11.00000  0.05    0.27
Q19   1   0.1257  0.7809  1.0836  11.00000  0.05    0.27
Q20   1   0.3735  0.6164  0.0908  11.00000  0.05    0.27

  REM The information below was added by Olex2.
  REM
  REM R1 = 0.0862 for 1869 Fo > 4sig(Fo) and 0.1825 for all 3573 data
  REM n/a parameters refined using n/a restraints
  REM Highest difference peak 0.36, deepest hole -0.39
  REM Mean Shift 0, Max Shift 0.000.

  REM +++ Tabular Listing of Refinement Information +++
  REM R1_all = 0.1825
  REM R1_gt = 0.0862
  REM wR_ref = 0.2015
  REM GOOF = 1.059
  REM Shift_max = 0.000
  REM Shift_mean = 0
  REM Reflections_all = 3573
  REM Reflections_gt = 1869
  REM Parameters = n/a
  REM Hole = -0.39
  REM Peak = 0.36
  REM Flack = n/a

  
;
_cod_data_source_file            am2c00154_si_005.cif
_cod_data_source_block           22019795_0m_4
_cod_database_code               4519324
_shelx_shelxl_version_number     2018/3
_shelx_space_group_comment
;
The symmetry employed for this shelxl refinement is uniquely defined
by the following loop, which should always be used as a source of
symmetry information in preference to the above space-group names.
They are only intended as comments.
;
_shelx_estimated_absorpt_t_max   0.997
_shelx_estimated_absorpt_t_min   0.987
_olex2_refinement_description
;
1. Fixed Uiso
 At 1.5 times of:
  All N(H,H) groups, All O(H) groups, All O(H,H) groups
2. Restrained distances
 O10-H10B
 0.84 with sigma of 0.02
 H10B-H10A
 1.46 with sigma of 0.02
 N12-H12A \\sim N12-H12B \\sim N12-H12C \\sim N12-H12D
 with sigma of 0.02
 N11-H11C \\sim N11-H11D \\sim N11-H11B \\sim N11-H11A
 with sigma of 0.02
3.a Free rotating group:
 O9(H9A,H9B), O10(H10A), N11(H11A,H11B), N12(H12A,H12B)
;
_olex2_submission_special_instructions 'No special instructions were received'
loop_
_space_group_symop_operation_xyz
'x, y, z'
'-x, -y, -z'
loop_
_atom_site_label
_atom_site_type_symbol
_atom_site_fract_x
_atom_site_fract_y
_atom_site_fract_z
_atom_site_U_iso_or_equiv
_atom_site_adp_type
_atom_site_occupancy
_atom_site_site_symmetry_order
_atom_site_calc_flag
_atom_site_refinement_flags_posn
_atom_site_refinement_flags_adp
_atom_site_refinement_flags_occupancy
_atom_site_disorder_assembly
_atom_site_disorder_group
O2 O 0.3057(4) 0.5168(3) 0.9206(3) 0.0344(8) Uani 1 1 d . . . . .
O9 O 0.2920(5) 0.6497(3) 0.1817(3) 0.0349(8) Uani 1 1 d . . . . .
H9A H 0.307551 0.569834 0.192467 0.052 Uiso 1 1 d G . . . .
H9B H 0.203194 0.632914 0.122952 0.052 Uiso 1 1 d G . . . .
O7 O 0.4522(5) 0.0153(3) 0.3040(3) 0.0410(9) Uani 1 1 d . . . . .
O1 O 0.1759(5) 0.3646(3) 0.7639(3) 0.0410(9) Uani 1 1 d . . . . .
O3 O 0.0254(4) 0.6779(3) 0.9882(3) 0.0393(9) Uani 1 1 d . . . . .
O8 O 0.4562(5) 0.0458(3) 0.1190(3) 0.0454(9) Uani 1 1 d . . . . .
N3 N 0.1236(5) 0.7865(3) 0.7228(3) 0.0254(8) Uani 1 1 d . . . . .
N6 N 0.2446(5) 0.5049(3) 0.4452(3) 0.0259(8) Uani 1 1 d . . . . .
N4 N 0.1614(5) 0.7110(3) 0.6172(3) 0.0239(8) Uani 1 1 d . . . . .
N1 N 0.2214(5) 0.4834(3) 0.8195(3) 0.0263(8) Uani 1 1 d . . . . .
N5 N 0.2436(5) 0.4842(3) 0.5517(3) 0.0239(8) Uani 1 1 d . . . . .
O10 O 0.0267(5) 0.0600(4) 0.7773(3) 0.0485(9) Uani 1 1 d D . . . .
H10A H 0.113810 0.062563 0.726308 0.073 Uiso 1 1 d DG . . . .
O5 O 0.1838(5) 0.1302(3) 0.4931(3) 0.0447(9) Uani 1 1 d . . . . .
N11 N 0.1643(6) 0.8084(4) 0.3898(3) 0.0289(9) Uani 1 1 d D . . . .
H11A H 0.061416 0.830893 0.362702 0.043 Uiso 1 1 d DG . . . .
H11B H 0.195552 0.751807 0.328529 0.043 Uiso 1 1 d DG . . . .
O4 O 0.0912(6) 0.8847(4) 0.9630(3) 0.0523(10) Uani 1 1 d . . . . .
O6 O 0.4594(5) 0.2409(4) 0.5619(3) 0.0511(10) Uani 1 1 d . . . . .
N10 N 0.4292(5) 0.0813(4) 0.2252(4) 0.0304(9) Uani 1 1 d . . . . .
N8 N 0.3613(5) 0.2930(3) 0.1859(3) 0.0285(8) Uani 1 1 d . . . . .
N9 N 0.3266(5) 0.2097(4) 0.4862(3) 0.0279(8) Uani 1 1 d . . . . .
N2 N 0.0814(5) 0.7618(4) 0.9276(3) 0.0315(9) Uani 1 1 d . . . . .
N7 N 0.3138(5) 0.4064(3) 0.2488(3) 0.0270(8) Uani 1 1 d . . . . .
N12 N 0.6088(6) 0.7837(4) 0.0834(4) 0.0347(9) Uani 1 1 d D . . . .
H12A H 0.723277 0.803259 0.117958 0.052 Uiso 1 1 d DG . . . .
H12B H 0.611875 0.755165 0.005496 0.052 Uiso 1 1 d DG . . . .
C3 C 0.1935(5) 0.5900(4) 0.6371(3) 0.0196(9) Uani 1 1 d . . . . .
C2 C 0.1764(5) 0.5866(4) 0.7588(4) 0.0225(9) Uani 1 1 d . . . . .
C1 C 0.1343(5) 0.7127(4) 0.8086(3) 0.0225(9) Uani 1 1 d . . . . .
C5 C 0.3350(5) 0.2700(4) 0.3793(4) 0.0229(9) Uani 1 1 d . . . . .
C4 C 0.2968(5) 0.3952(4) 0.3656(4) 0.0230(9) Uani 1 1 d . . . . .
C6 C 0.3751(5) 0.2108(4) 0.2650(4) 0.0247(9) Uani 1 1 d . . . . .
H12C H 0.572(7) 0.862(3) 0.084(4) 0.046(15) Uiso 1 1 d D . . . .
H12D H 0.523(6) 0.732(5) 0.116(5) 0.061(18) Uiso 1 1 d D . . . .
H11C H 0.160(7) 0.774(5) 0.454(3) 0.061(17) Uiso 1 1 d D . . . .
H11D H 0.242(6) 0.884(3) 0.403(5) 0.07(2) Uiso 1 1 d D . . . .
H10B H 0.024(18) -0.001(12) 0.819(12) 0.42(11) Uiso 1 1 d D . . . .
loop_
_atom_site_aniso_label
_atom_site_aniso_U_11
_atom_site_aniso_U_22
_atom_site_aniso_U_33
_atom_site_aniso_U_23
_atom_site_aniso_U_13
_atom_site_aniso_U_12
O2 0.046(2) 0.0380(19) 0.0217(18) 0.0070(15) -0.0048(15) 0.0164(16)
O9 0.048(2) 0.0338(18) 0.0269(18) 0.0095(14) 0.0027(14) 0.0141(15)
O7 0.051(2) 0.0295(18) 0.051(2) 0.0172(17) 0.0207(17) 0.0172(15)
O1 0.061(2) 0.0265(19) 0.0355(19) 0.0086(16) -0.0014(16) 0.0069(17)
O3 0.047(2) 0.053(2) 0.0285(18) 0.0181(17) 0.0134(15) 0.0238(17)
O8 0.074(3) 0.039(2) 0.028(2) -0.0010(15) 0.0113(17) 0.0285(18)
N3 0.029(2) 0.0233(19) 0.024(2) 0.0034(16) 0.0037(15) 0.0058(16)
N6 0.0259(19) 0.0286(19) 0.025(2) 0.0054(16) 0.0050(15) 0.0091(16)
N4 0.0299(19) 0.0245(19) 0.0198(19) 0.0047(15) 0.0056(15) 0.0102(16)
N1 0.035(2) 0.022(2) 0.025(2) 0.0063(17) 0.0071(17) 0.0099(16)
N5 0.0267(19) 0.0243(19) 0.0201(19) 0.0005(15) 0.0016(15) 0.0076(15)
O10 0.063(3) 0.040(2) 0.046(2) 0.0110(18) 0.0033(18) 0.0186(19)
O5 0.041(2) 0.050(2) 0.044(2) 0.0170(18) 0.0122(16) -0.0005(17)
N11 0.038(2) 0.030(2) 0.025(2) 0.0125(18) 0.0079(17) 0.0149(19)
O4 0.087(3) 0.042(2) 0.032(2) -0.0008(17) 0.0148(19) 0.027(2)
O6 0.042(2) 0.065(3) 0.052(2) 0.028(2) -0.0072(19) 0.0070(19)
N10 0.032(2) 0.027(2) 0.032(2) 0.0028(18) 0.0055(17) 0.0076(17)
N8 0.033(2) 0.0265(19) 0.027(2) 0.0023(16) 0.0072(16) 0.0108(16)
N9 0.026(2) 0.031(2) 0.028(2) 0.0046(17) 0.0062(17) 0.0101(17)
N2 0.037(2) 0.035(2) 0.025(2) 0.0040(18) 0.0057(17) 0.0170(18)
N7 0.032(2) 0.026(2) 0.024(2) 0.0027(16) 0.0080(16) 0.0096(16)
N12 0.041(2) 0.031(2) 0.033(2) 0.006(2) 0.0044(19) 0.012(2)
C3 0.018(2) 0.021(2) 0.020(2) 0.0018(17) 0.0026(16) 0.0048(17)
C2 0.026(2) 0.023(2) 0.020(2) 0.0034(18) 0.0029(17) 0.0064(18)
C1 0.024(2) 0.027(2) 0.017(2) 0.0033(18) 0.0042(17) 0.0064(18)
C5 0.020(2) 0.026(2) 0.022(2) 0.0045(19) 0.0008(17) 0.0035(18)
C4 0.021(2) 0.025(2) 0.021(2) -0.0002(18) 0.0031(17) 0.0075(18)
C6 0.024(2) 0.023(2) 0.028(2) 0.0034(19) 0.0040(18) 0.0063(18)
loop_
_atom_type_symbol
_atom_type_description
_atom_type_scat_dispersion_real
_atom_type_scat_dispersion_imag
_atom_type_scat_source
C C 0.0033 0.0016 'International Tables Vol C Tables 4.2.6.8 and 6.1.1.4'
H H 0.0000 0.0000 'International Tables Vol C Tables 4.2.6.8 and 6.1.1.4'
N N 0.0061 0.0033 'International Tables Vol C Tables 4.2.6.8 and 6.1.1.4'
O O 0.0106 0.0060 'International Tables Vol C Tables 4.2.6.8 and 6.1.1.4'
loop_
_geom_angle_atom_site_label_1
_geom_angle_atom_site_label_2
_geom_angle_atom_site_label_3
_geom_angle
_geom_angle_site_symmetry_1
_geom_angle_site_symmetry_3
_geom_angle_publ_flag
H9A O9 H9B 104.5 . . ?
C1 N3 N4 107.5(3) . . ?
N5 N6 C4 110.7(3) . . ?
N3 N4 C3 108.6(3) . . ?
O2 N1 O1 123.6(3) . . ?
O2 N1 C2 119.3(3) . . ?
O1 N1 C2 117.0(4) . . ?
N6 N5 C3 114.2(3) . . ?
H10A O10 H10B 115.9 . . ?
H11A N11 H11B 104.5 . . ?
H11A N11 H11C 117.7 . . ?
H11A N11 H11D 102.2 . . ?
H11B N11 H11C 110.6 . . ?
H11B N11 H11D 110.1 . . ?
H11C N11 H11D 111(5) . . ?
O7 N10 C6 116.6(4) . . ?
O8 N10 O7 124.6(4) . . ?
O8 N10 C6 118.7(3) . . ?
N7 N8 C6 106.5(3) . . ?
O5 N9 C5 117.0(4) . . ?
O6 N9 O5 124.2(4) . . ?
O6 N9 C5 118.9(4) . . ?
O3 N2 C1 117.8(4) . . ?
O4 N2 O3 123.6(4) . . ?
O4 N2 C1 118.6(4) . . ?
N8 N7 C4 109.4(3) . . ?
H12A N12 H12B 109.5 . . ?
H12A N12 H12C 106.2 . . ?
H12A N12 H12D 117.9 . . ?
H12B N12 H12C 100.0 . . ?
H12B N12 H12D 113.1 . . ?
H12C N12 H12D 108(5) . . ?
N4 C3 N5 126.6(3) . . ?
N4 C3 C2 109.4(3) . . ?
C2 C3 N5 123.9(3) . . ?
C3 C2 N1 126.7(3) . . ?
C1 C2 N1 128.8(4) . . ?
C1 C2 C3 103.9(3) . . ?
N3 C1 N2 119.8(3) . . ?
N3 C1 C2 110.6(3) . . ?
C2 C1 N2 129.1(3) . . ?
C4 C5 N9 129.3(4) . . ?
C6 C5 N9 127.1(3) . . ?
C6 C5 C4 103.5(3) . . ?
N7 C4 N6 117.3(3) . . ?
N7 C4 C5 109.2(3) . . ?
C5 C4 N6 133.5(4) . . ?
N8 C6 N10 120.0(4) . . ?
N8 C6 C5 111.4(3) . . ?
C5 C6 N10 128.5(4) . . ?
loop_
_geom_bond_atom_site_label_1
_geom_bond_atom_site_label_2
_geom_bond_distance
_geom_bond_site_symmetry_2
_geom_bond_publ_flag
O2 N1 1.223(4) . ?
O9 H9A 0.8701 . ?
O9 H9B 0.8701 . ?
O7 N10 1.235(4) . ?
O1 N1 1.232(5) . ?
O3 N2 1.227(4) . ?
O8 N10 1.212(4) . ?
N3 N4 1.347(5) . ?
N3 C1 1.344(5) . ?
N6 N5 1.259(4) . ?
N6 C4 1.400(5) . ?
N4 C3 1.351(5) . ?
N1 C2 1.432(5) . ?
N5 C3 1.401(5) . ?
O10 H10A 0.8701 . ?
O10 H10B 0.84(2) . ?
O5 N9 1.218(4) . ?
N11 H11A 0.8695 . ?
N11 H11B 0.8705 . ?
N11 H11C 0.865(17) . ?
N11 H11D 0.859(17) . ?
O4 N2 1.226(5) . ?
O6 N9 1.209(5) . ?
N10 C6 1.430(5) . ?
N8 N7 1.334(5) . ?
N8 C6 1.349(5) . ?
N9 C5 1.455(5) . ?
N2 C1 1.426(5) . ?
N7 C4 1.352(5) . ?
N12 H12A 0.8701 . ?
N12 H12B 0.8701 . ?
N12 H12C 0.876(17) . ?
N12 H12D 0.885(17) . ?
C3 C2 1.388(5) . ?
C2 C1 1.384(5) . ?
C5 C4 1.385(5) . ?
C5 C6 1.374(6) . ?
loop_
_geom_hbond_atom_site_label_D
_geom_hbond_atom_site_label_H
_geom_hbond_atom_site_label_A
_geom_hbond_distance_DH
_geom_hbond_distance_HA
_geom_hbond_distance_DA
_geom_hbond_angle_DHA
_geom_hbond_site_symmetry_A
_geom_hbond_publ_flag
O9 H9A N7 0.87 1.90 2.758(4) 166.9 . yes
N11 H11B O9 0.87 1.99 2.850(5) 170.5 . yes
N12 H12D O9 0.885(17) 1.98(2) 2.849(5) 166(5) . yes
loop_
_refln_index_h
_refln_index_k
_refln_index_l
_refln_F_squared_meas
_refln_F_squared_sigma
1 0 0 0.6 0.6
2 0 0 544.25 7.8
3 0 0 37.2 3.1
4 0 0 12.8 2.9
5 0 0 11.9 4.2
6 0 0 56.79 5.7
7 0 0 6.7 1.7
8 0 0 10.4 3
9 0 0 0 45.6
-9 1 0 1.7 4
-8 1 0 8.8 1.8
-7 1 0 14.5 2.4
-6 1 0 0.4 2.9
-5 1 0 0.7 3.6
-4 1 0 137.39 6.5
-3 1 0 63.49 3.8
-2 1 0 11.4 1.8
-1 1 0 10 1.6
1 1 0 171.48 2.4
2 1 0 9999 28.1
3 1 0 80.59 3.6
4 1 0 46.8 8.8
5 1 0 4.4 4
6 1 0 28.3 3.3
7 1 0 0.2 2.1
8 1 0 0.3 6.2
9 1 0 1.2 7.3
-9 2 0 11.8 5.1
-8 2 0 0.1 2.4
-7 2 0 16.8 2.5
-6 2 0 16.1 2
-5 2 0 43.6 1.9
-4 2 0 251.27 6
-3 2 0 1 1.1
-2 2 0 241.18 4.5
-1 2 0 4.1 1.8
0 2 0 155.08 2.7
1 2 0 183.78 2.9
2 2 0 4.9 0.9
3 2 0 40.4 3.1
4 2 0 970.6 13.5
5 2 0 0.7 1.5
6 2 0 88.59 4.6
7 2 0 3.8 2.3
8 2 0 10.3 6.5
-9 3 0 0 4.1
-8 3 0 0 9
-7 3 0 31.9 4.2
-6 3 0 1.4 2.6
-5 3 0 17.4 2.5
-4 3 0 6.6 1.5
-3 3 0 51.59 3.2
-2 3 0 2008.9 16.5
-1 3 0 4.3 0.9
0 3 0 22.9 1.7
1 3 0 54.69 2
2 3 0 1.7 0.9
3 3 0 4.3 1.4
4 3 0 12.4 2.6
5 3 0 17.1 2.2
6 3 0 106.99 5.4
7 3 0 0 4.9
8 3 0 15.2 4.7
-9 4 0 40.9 16.4
-8 4 0 3.7 7.4
-7 4 0 14.5 4
-6 4 0 21.2 2.9
-5 4 0 2 1.3
-4 4 0 114.89 4.2
-3 4 0 88.29 3.7
-2 4 0 132.89 4.6
-1 4 0 308.17 4.5
0 4 0 355.66 5.6
1 4 0 184.48 3.7
2 4 0 3.2 1.8
3 4 0 19.9 6.9
4 4 0 50.39 2.7
5 4 0 5.9 2.1
6 4 0 35.4 6.5
7 4 0 5 4
8 4 0 24.9 10.4
-9 5 0 11.6 9
-8 5 0 33 8.1
-7 5 0 8.3 2.6
-6 5 0 15 3
-5 5 0 47.1 3.5
-4 5 0 20.6 3.1
-3 5 0 20.7 3.9
-2 5 0 325.87 5.5
-1 5 0 34.5 2.3
0 5 0 3.1 1
1 5 0 123.69 5.6
2 5 0 285.87 6.6
3 5 0 34.5 2.6
4 5 0 49 3.4
5 5 0 53.09 3.2
6 5 0 12.4 8.4
7 5 0 0 6.9
-8 6 0 37.8 6
-7 6 0 8.4 2.9
-6 6 0 27.3 3.3
-5 6 0 11 3.3
-4 6 0 116.69 4.9
-3 6 0 96.39 4.1
-2 6 0 191.78 4.4
-1 6 0 38.5 2.6
0 6 0 10.4 2.5
1 6 0 6.5 2.2
2 6 0 3.5 2
3 6 0 30.4 2.6
4 6 0 22 2.9
5 6 0 0 4.1
6 6 0 0 9.2
7 6 0 4.5 69.89
-8 7 0 29.7 5.2
-7 7 0 19.6 3.2
-6 7 0 81.99 9.9
-5 7 0 20.2 3.3
-4 7 0 86.89 4.5
-3 7 0 1.7 1
-2 7 0 63.69 3.1
-1 7 0 1.5 2.1
0 7 0 145.69 6.1
1 7 0 0 4.5
2 7 0 4.4 1.5
3 7 0 31.2 2.7
4 7 0 0.9 1.5
5 7 0 7.9 48.4
-8 8 0 6.5 3.5
-7 8 0 2.3 2.7
-6 8 0 187.18 12.5
-5 8 0 5.1 1.8
-4 8 0 225.18 5.5
-3 8 0 2.6 1.2
-2 8 0 146.19 4.7
-1 8 0 31.9 5.2
0 8 0 16.8 4.7
1 8 0 1.6 1.1
2 8 0 2.1 1.3
3 8 0 4.4 1.3
4 8 0 9.2 8.6
5 8 0 1.6 8.4
6 8 0 0 7.2
-7 9 0 2 59.09
-6 9 0 0 4.9
-5 9 0 1.6 1.4
-4 9 0 304.77 7
-3 9 0 1 1.4
-2 9 0 300.37 10.6
-1 9 0 0 3.7
0 9 0 8.3 3
1 9 0 6.4 1.9
2 9 0 11.4 1.9
3 9 0 0.7 7.7
4 9 0 38.8 78.09
-7 10 0 0 5.2
-6 10 0 0 8.4
-5 10 0 3.1 1.5
-4 10 0 17.2 2.5
-3 10 0 6.3 7.3
-2 10 0 135.99 6.9
-1 10 0 0 4.2
0 10 0 78.79 6
1 10 0 0.7 2
2 10 0 0.9 3.8
3 10 0 1.1 5
-6 11 0 15.6 3.9
-5 11 0 1.1 1.8
-4 11 0 1.2 3.1
-3 11 0 16.2 7.6
-2 11 0 1.7 7.7
-1 11 0 6.3 2.4
0 11 0 26.7 4
1 11 0 2 4.9
2 11 0 42.1 4.1
-5 12 0 3.3 3.4
-4 12 0 41.2 10.1
-3 12 0 10.8 6.5
-2 12 0 0 7.2
-1 12 0 5.8 3.3
0 12 0 0.9 2.7
1 12 0 0 109.89
2 12 0 5.7 23.8
1 -13 1 0.8 3.6
2 -13 1 12 6.3
-2 -12 1 0 9.7
-1 -12 1 0 3.2
0 -12 1 0.1 2.6
1 -12 1 0.8 2.8
2 -12 1 0 8.8
3 -12 1 0 5.7
4 -12 1 8 3.7
5 -12 1 6.3 4.4
-3 -11 1 4.1 91.79
-2 -11 1 0 9.8
-1 -11 1 4.3 2
0 -11 1 16 3.3
1 -11 1 3.6 5.5
2 -11 1 0.1 2.9
3 -11 1 15.1 5.3
4 -11 1 8.6 2.6
5 -11 1 19.8 2.7
6 -11 1 0 19
-3 -10 1 0 7.7
-2 -10 1 0.7 3.1
-1 -10 1 6.5 1.9
0 -10 1 5.5 4.2
1 -10 1 7.9 3.9
2 -10 1 4 5.3
3 -10 1 34.6 3.5
4 -10 1 4.3 2
5 -10 1 3.1 2.1
6 -10 1 2.8 7.8
7 -10 1 23.5 8
-5 -9 1 0 50.29
-4 -9 1 0 8.4
-3 -9 1 4.4 4.8
-2 -9 1 44.3 6.6
-1 -9 1 57.49 3.3
0 -9 1 30.4 5.4
1 -9 1 9.7 3.7
2 -9 1 2.2 1.5
3 -9 1 18.4 2.5
4 -9 1 39.6 4.5
5 -9 1 1.2 3
6 -9 1 1.3 11
7 -9 1 2.1 3.6
-6 -8 1 0 10.4
-5 -8 1 0 5.7
-4 -8 1 0 9.5
-3 -8 1 3.4 3.5
-2 -8 1 43.7 5.1
-1 -8 1 4.1 2.7
0 -8 1 87.09 6.8
1 -8 1 59.99 3.8
2 -8 1 67.09 3.8
3 -8 1 4.2 1.4
4 -8 1 19.9 4
5 -8 1 4.1 1.9
6 -8 1 21.2 7
7 -8 1 0.8 2.4
8 -8 1 29.6 5.3
-6 -7 1 0 8.8
-5 -7 1 9.6 8.6
-4 -7 1 14.6 4.1
-3 -7 1 8.6 2.8
-2 -7 1 2.4 1
-1 -7 1 26.2 2.5
0 -7 1 96.39 4.3
1 -7 1 9.6 1.7
2 -7 1 117.79 4.1
3 -7 1 3.1 1.3
4 -7 1 19.5 2.1
5 -7 1 4.6 9.9
6 -7 1 32.6 3.9
7 -7 1 4.9 2.8
8 -7 1 49.4 8.2
-6 -6 1 38.7 8.5
-5 -6 1 7.6 3.7
-4 -6 1 7.9 3.1
-3 -6 1 14.2 3
-2 -6 1 14.8 3.3
-1 -6 1 149.49 4.7
0 -6 1 18.5 1.9
1 -6 1 33.1 2.3
2 -6 1 1.1 0.8
3 -6 1 10.9 2.2
4 -6 1 31.3 3.3
5 -6 1 6.2 1.9
6 -6 1 1.5 1.9
7 -6 1 2 3
8 -6 1 9.3 6.6
-7 -5 1 0 8.5
-6 -5 1 24.8 3.2
-5 -5 1 4 1.5
-4 -5 1 8.2 1.5
-3 -5 1 89.39 8.8
-2 -5 1 153.58 5
-1 -5 1 18.6 1.6
0 -5 1 49.5 2.4
1 -5 1 123.89 3.5
2 -5 1 36.6 3.2
3 -5 1 46.7 3.2
4 -5 1 140.49 4.8
5 -5 1 0 1.1
6 -5 1 13.3 4.4
7 -5 1 0 5.9
8 -5 1 2.7 5.9
9 -5 1 10.4 9.2
-8 -4 1 0 6.7
-7 -4 1 0 5.6
-6 -4 1 32.5 3.3
-5 -4 1 2.9 1.3
-4 -4 1 164.78 4.5
-3 -4 1 2.6 1.5
-2 -4 1 89.89 4.7
-1 -4 1 269.77 4.1
0 -4 1 39.9 1.9
1 -4 1 16.4 1.4
2 -4 1 24.3 3.9
3 -4 1 189.48 4.8
4 -4 1 6.1 1.5
5 -4 1 55.09 3.9
6 -4 1 103.89 6.9
7 -4 1 0 3.5
8 -4 1 0 7.6
9 -4 1 2.4 4.4
-8 -3 1 7.7 6.2
-7 -3 1 2.5 2.5
-6 -3 1 3.9 1.8
-5 -3 1 23.7 2.6
-4 -3 1 185.88 5.7
-3 -3 1 116.09 4.1
-2 -3 1 190.38 2.6
-1 -3 1 3.1 1.1
0 -3 1 237.88 3.1
1 -3 1 974.4 10.7
2 -3 1 85.19 2.8
3 -3 1 8.4 1.3
4 -3 1 83.49 3.7
5 -3 1 8.1 1.9
6 -3 1 16 4.2
7 -3 1 31.6 7.2
8 -3 1 27.5 6
9 -3 1 10.9 4.6
-8 -2 1 6.7 3.2
-7 -2 1 1.6 1.8
-6 -2 1 8.4 2.2
-5 -2 1 7.6 7.1
-4 -2 1 193.08 5.5
-3 -2 1 19.4 1.6
-2 -2 1 369.26 4.1
-1 -2 1 479.45 5.6
0 -2 1 0 0.7
1 -2 1 301.27 4.2
2 -2 1 135.39 2.1
3 -2 1 691.73 6.3
4 -2 1 91.29 2.8
5 -2 1 31.5 2.7
6 -2 1 114.69 5.4
7 -2 1 7.9 1.3
8 -2 1 2.4 3
9 -2 1 5.7 3.8
-9 -1 1 13.1 9.9
-8 -1 1 7.6 3.4
-7 -1 1 12 2.6
-6 -1 1 21.3 4.3
-5 -1 1 6.6 3.4
-4 -1 1 309.77 6.6
-3 -1 1 28 2.1
-2 -1 1 22.6 1.4
-1 -1 1 346.77 3.2
0 -1 1 856.91 13.4
1 -1 1 529.25 3.4
2 -1 1 19.7 1.4
3 -1 1 59.49 2.6
4 -1 1 0.4 1
5 -1 1 68.99 4
6 -1 1 1.7 4.4
7 -1 1 35.6 3.8
8 -1 1 38.3 5.7
9 -1 1 0 10
-9 0 1 4.3 2.7
-8 0 1 0.9 1.6
-7 0 1 5.3 3.4
-6 0 1 68.09 6.9
-5 0 1 4.9 3.5
-4 0 1 16.8 1.9
-3 0 1 350.96 5.4
-2 0 1 529.55 7.1
-1 0 1 34 1.5
1 0 1 129.79 2.2
2 0 1 5694.33 25
3 0 1 257.87 6.7
4 0 1 131.09 12.6
5 0 1 26.1 4.9
6 0 1 0.9 1.3
7 0 1 1.3 1.6
8 0 1 8.8 3.6
9 0 1 0 7.6
-9 1 1 2.5 2.1
-8 1 1 4.4 1.6
-7 1 1 5.5 3
-6 1 1 28.2 2.8
-5 1 1 1.7 0.8
-4 1 1 315.67 5.9
-3 1 1 30.2 1.8
-2 1 1 50.19 2.6
-1 1 1 7.6 0.7
0 1 1 293.17 5.2
1 1 1 3.1 0.9
2 1 1 8.4 1.4
3 1 1 33 4.3
4 1 1 2030.6 24.1
5 1 1 19.7 2.8
6 1 1 109.59 5.8
7 1 1 2 2.3
8 1 1 0 7.4
-9 2 1 0.2 3.7
-8 2 1 2.4 7.3
-7 2 1 2 2.9
-6 2 1 5 1.3
-5 2 1 19.9 1.5
-4 2 1 82.69 3.5
-3 2 1 226.58 3.7
-2 2 1 249.28 10.1
-1 2 1 75.59 1.9
0 2 1 61.19 2.3
1 2 1 27 1.5
2 2 1 5.5 2.1
3 2 1 93.69 5.4
4 2 1 3 2.2
5 2 1 81.29 4.6
6 2 1 474.55 11.1
7 2 1 2.6 6.3
8 2 1 54.49 8.9
-9 3 1 13.9 139.59
-8 3 1 0 10
-7 3 1 0 5.6
-6 3 1 8 1.9
-5 3 1 201.88 6
-4 3 1 46 3.2
-3 3 1 77.89 5.2
-2 3 1 825.32 7.6
-1 3 1 733.23 5.9
0 3 1 280.07 5
1 3 1 373.96 5.6
2 3 1 190.88 6.1
3 3 1 4.9 2.8
4 3 1 19 2.3
5 3 1 21.6 2.6
6 3 1 24.8 4.8
7 3 1 9.7 4.5
8 3 1 146.69 178.78
-9 4 1 12 16.1
-8 4 1 31 6.3
-7 4 1 4.4 2.2
-6 4 1 28.8 3.3
-5 4 1 7.7 1.8
-4 4 1 97.99 6.3
-3 4 1 148.69 3.7
-2 4 1 231.58 3.3
-1 4 1 54.99 2.3
0 4 1 24 2.3
1 4 1 298.17 16.8
2 4 1 0 2
3 4 1 19.2 1.9
4 4 1 5.4 1.5
5 4 1 4 1.7
6 4 1 5.5 4.4
7 4 1 4.8 4.7
8 4 1 0.5 7.5
-9 5 1 0 8
-8 5 1 77.09 6.2
-7 5 1 2.4 2.2
-6 5 1 70.19 5
-5 5 1 87.99 5.8
-4 5 1 64.49 3.2
-3 5 1 9.3 1.2
-2 5 1 5.5 1.1
-1 5 1 101.89 3
0 5 1 619.94 12.9
1 5 1 2.9 3
2 5 1 0.4 1.3
3 5 1 5.6 1.6
4 5 1 21.6 2.9
5 5 1 8.5 7.7
6 5 1 11.6 4.8
7 5 1 0.1 83.39
-8 6 1 2.7 3.4
-7 6 1 8.3 3.1
-6 6 1 134.79 7.4
-5 6 1 14.6 4.7
-4 6 1 66.09 3.4
-3 6 1 191.38 4.2
-2 6 1 95.69 3.2
-1 6 1 59.99 5.1
0 6 1 33.7 6.3
1 6 1 0 4.7
2 6 1 125.59 4.5
3 6 1 3.1 1.5
4 6 1 0 7.3
5 6 1 0 6.7
6 6 1 21.7 8.4
7 6 1 12.2 8.6
-8 7 1 12 3.6
-7 7 1 1.1 2.3
-6 7 1 0 3.4
-5 7 1 0 3.3
-4 7 1 18.5 1.8
-3 7 1 89.99 3.2
-2 7 1 28.3 2.3
-1 7 1 117.49 5.1
0 7 1 0 3.2
1 7 1 2.3 1.9
2 7 1 40.4 3.2
3 7 1 0.7 1.9
4 7 1 0.1 4.1
5 7 1 4.6 8.9
6 7 1 0 12.6
-8 8 1 4.6 3.2
-7 8 1 7.9 5.2
-6 8 1 31.6 4.5
-5 8 1 5.7 1.6
-4 8 1 6.9 1.4
-3 8 1 2.9 1.1
-2 8 1 59.59 4.2
-1 8 1 47.5 3.8
0 8 1 186.18 6.4
1 8 1 8.5 2.3
2 8 1 18.8 3.7
3 8 1 6 7.1
4 8 1 39.6 6.6
5 8 1 5.2 3.1
6 8 1 5.2 4.9
-7 9 1 0 6.8
-6 9 1 0 9.5
-5 9 1 15.1 2.3
-4 9 1 3.4 1.7
-3 9 1 1.4 4.4
-2 9 1 37.4 6
-1 9 1 0 3.9
0 9 1 146.59 6.2
1 9 1 41 3.7
2 9 1 52.69 6.3
3 9 1 1.6 3
4 9 1 3.1 2.6
5 9 1 8.3 7.8
-6 10 1 2.1 2.8
-5 10 1 1.7 1.9
-4 10 1 3.2 2.1
-3 10 1 17.3 4.6
-2 10 1 25.1 6.1
-1 10 1 12.3 2.6
0 10 1 62.89 6.1
1 10 1 1.5 3
2 10 1 96.09 13.4
3 10 1 11.4 4.7
4 10 1 3.6 10
-6 11 1 4.8 3.6
-5 11 1 5 2.6
-4 11 1 0 7.5
-3 11 1 4.8 4.7
-2 11 1 16.1 8.6
-1 11 1 4.8 2.6
0 11 1 18.2 3.9
1 11 1 0 4.6
2 11 1 16.7 59.89
3 11 1 3 10.7
-4 12 1 2.7 7.2
-3 12 1 3.6 9.5
-2 12 1 1.8 3.1
-1 12 1 11.8 4.1
0 12 1 0 6.8
1 12 1 0.3 5.3
0 -13 2 7 3.4
1 -13 2 4.7 7.8
2 -13 2 0 119.09
3 -13 2 3.3 3.4
-2 -12 2 0 64.39
-1 -12 2 1.6 4.8
0 -12 2 1 2.3
1 -12 2 20 6.8
2 -12 2 0 3.6
3 -12 2 0 9.4
4 -12 2 11.3 2.8
5 -12 2 11.7 3.3
-2 -11 2 20.6 7.2
-1 -11 2 4.8 1.5
0 -11 2 13.6 4.9
1 -11 2 6 6.1
2 -11 2 0 4.7
3 -11 2 22.9 3.8
4 -11 2 11.1 2.5
5 -11 2 6.8 2.3
6 -11 2 10.9 9.7
-4 -10 2 55.89 132.29
-3 -10 2 20.3 6.1
-2 -10 2 0.1 2.2
-1 -10 2 3.9 1.3
0 -10 2 15.8 6.5
1 -10 2 116.19 9.4
2 -10 2 5.8 2.3
3 -10 2 2.8 2
4 -10 2 3.3 2
5 -10 2 0 5.9
6 -10 2 7.4 6.7
7 -10 2 8.8 3.7
-5 -9 2 0 89.59
-4 -9 2 0 8.4
-3 -9 2 10.8 4.1
-2 -9 2 37 6
-1 -9 2 24.1 5.4
0 -9 2 31.4 6.3
1 -9 2 4.6 4.6
2 -9 2 2 1.4
3 -9 2 75.89 4.5
4 -9 2 9.8 4.7
5 -9 2 6.6 2.5
6 -9 2 18.1 6.3
7 -9 2 7.6 3.5
-6 -8 2 10.2 60.69
-5 -8 2 21.4 9.1
-4 -8 2 2.3 3.3
-3 -8 2 3.9 4
-2 -8 2 25.9 8
-1 -8 2 31.4 5.7
0 -8 2 24.9 5.4
1 -8 2 14.5 2
2 -8 2 48.7 3.1
3 -8 2 11.8 2.5
4 -8 2 34.8 3.3
5 -8 2 0 2.7
6 -8 2 1.9 2.8
7 -8 2 3.8 3
8 -8 2 12 5.7
-7 -7 2 10.1 66.89
-6 -7 2 43.6 85.99
-5 -7 2 0 4
-4 -7 2 40.3 5.6
-3 -7 2 9.6 2.9
-2 -7 2 0.9 4.9
-1 -7 2 74.59 4.9
0 -7 2 22.5 2.1
1 -7 2 0.9 1
2 -7 2 21.2 2.2
3 -7 2 0.7 1.9
4 -7 2 24.3 2.8
5 -7 2 32 3.5
6 -7 2 25.9 4.1
7 -7 2 1.7 2.9
8 -7 2 4.7 8.9
-7 -6 2 0 93.89
-6 -6 2 10.5 7
-5 -6 2 3.5 3
-4 -6 2 14.7 3.6
-3 -6 2 21.9 5.2
-2 -6 2 9.7 3
-1 -6 2 11.2 1.4
0 -6 2 6.9 1.3
1 -6 2 75.39 2.8
2 -6 2 12.1 3.1
3 -6 2 18.5 2.3
4 -6 2 2.2 1.1
5 -6 2 48.8 4
6 -6 2 4.3 2
7 -6 2 24.2 6.6
8 -6 2 34.1 16.2
-7 -5 2 0 4.2
-6 -5 2 0.7 1.4
-5 -5 2 1.3 1
-4 -5 2 0 9.5
-3 -5 2 23 7
-2 -5 2 33.1 3.3
-1 -5 2 155.68 3.2
0 -5 2 111.09 3.7
1 -5 2 182.08 4.9
2 -5 2 57.49 3.4
3 -5 2 67.39 2.9
4 -5 2 39.6 2
5 -5 2 83.69 4.6
6 -5 2 21.8 4.1
7 -5 2 0 3.6
8 -5 2 14.3 16.5
9 -5 2 3.5 3.8
-8 -4 2 0 6.8
-7 -4 2 1.3 2.4
-6 -4 2 4.4 1.9
-5 -4 2 0.1 1.1
-4 -4 2 6.1 3.2
-3 -4 2 211.08 9.5
-2 -4 2 0.8 1
-1 -4 2 341.97 6.2
0 -4 2 126.19 2.7
1 -4 2 202.68 5.8
2 -4 2 257.57 6.2
3 -4 2 44.3 2.2
4 -4 2 103.29 4.3
5 -4 2 8.7 1.9
6 -4 2 12.2 3.5
7 -4 2 4.9 5.9
8 -4 2 9 3.6
9 -4 2 2.3 3.7
-8 -3 2 3.7 3
-7 -3 2 0 1.8
-6 -3 2 29.8 3.7
-5 -3 2 13.8 3.9
-4 -3 2 13.5 2.7
-3 -3 2 95.89 3
-2 -3 2 90.79 3.3
-1 -3 2 643.64 7.4
0 -3 2 1311.37 9.2
1 -3 2 1020.7 7.6
2 -3 2 506.55 5.7
3 -3 2 0.5 0.5
4 -3 2 47.1 2.3
5 -3 2 11.6 1.9
6 -3 2 14.1 3.9
7 -3 2 0.6 2.5
8 -3 2 4.6 3.8
9 -3 2 3.7 4.4
-8 -2 2 8 2.6
-7 -2 2 6 3.4
-6 -2 2 9.5 4.1
-5 -2 2 12.3 2.9
-4 -2 2 5.9 3
-3 -2 2 29.4 2.1
-2 -2 2 562.94 5.6
-1 -2 2 16 1.1
0 -2 2 45.1 1.8
1 -2 2 147.29 2.3
2 -2 2 1012.5 6.8
3 -2 2 458.55 5.2
4 -2 2 6.7 1.5
5 -2 2 46.5 2.9
6 -2 2 7.1 3.2
7 -2 2 17.6 2.6
8 -2 2 4.8 1.7
9 -2 2 0 91.69
-9 -1 2 1.8 2.6
-8 -1 2 1.9 2.3
-7 -1 2 15.6 3.3
-6 -1 2 32.8 3.8
-5 -1 2 0.6 3.2
-4 -1 2 1.5 0.9
-3 -1 2 146.89 4
-2 -1 2 117.49 2.7
-1 -1 2 112.99 4.5
0 -1 2 7.4 0.9
1 -1 2 168.98 2
2 -1 2 23.4 1.4
3 -1 2 340.17 5.6
4 -1 2 224.68 7.1
5 -1 2 42.7 3.7
6 -1 2 1.9 1.6
7 -1 2 1 2
8 -1 2 11.1 3.2
9 -1 2 0 8.1
-9 0 2 4.5 2.5
-8 0 2 0.9 2
-7 0 2 0 5.3
-6 0 2 7.3 3.5
-5 0 2 0.8 1.5
-4 0 2 3.1 1.3
-3 0 2 9.7 1.7
-2 0 2 3 1.7
-1 0 2 86.69 2
0 0 2 123.89 1.8
1 0 2 482.45 4.7
2 0 2 20.3 1.8
3 0 2 28.7 5.4
4 0 2 226.78 21.6
5 0 2 13.2 2.2
6 0 2 3.4 1.6
7 0 2 7.4 2.6
8 0 2 0 8.1
9 0 2 3.7 6.9
-9 1 2 3.2 1.9
-8 1 2 31.2 9.3
-7 1 2 0 3.2
-6 1 2 1.2 1.4
-5 1 2 1.5 1.1
-4 1 2 140.99 4.8
-3 1 2 117.29 5.1
-2 1 2 1458.55 13
-1 1 2 19.1 1.3
0 1 2 23 1.6
1 1 2 24.4 1.6
2 1 2 445.16 7.7
3 1 2 65.79 4
4 1 2 24.3 4.4
5 1 2 1.6 1.4
6 1 2 211.18 6.6
7 1 2 6.6 48.9
8 1 2 3.6 3.9
-9 2 2 3 71.19
-8 2 2 68.59 10.9
-7 2 2 4.8 3.5
-6 2 2 0.3 0.8
-5 2 2 57.79 2.9
-4 2 2 43.8 2
-3 2 2 56.29 2.8
-2 2 2 86.99 2.5
-1 2 2 25.4 1
0 2 2 865.91 9
1 2 2 10.8 1.3
2 2 2 103.09 4.6
3 2 2 13.1 4.4
4 2 2 31.2 3.3
5 2 2 23.9 2.8
6 2 2 51.69 7
7 2 2 15.6 4.5
8 2 2 68.29 12.2
-9 3 2 12.7 7.5
-8 3 2 1.6 8.3
-7 3 2 3.5 2.2
-6 3 2 55.19 3.3
-5 3 2 1.2 1.3
-4 3 2 17 6.6
-3 3 2 103.49 3.5
-2 3 2 190.68 3.3
-1 3 2 540.15 5.1
0 3 2 647.64 8.9
1 3 2 17.3 60.59
2 3 2 67.69 5.1
3 3 2 67.09 3.6
4 3 2 23.6 3.6
5 3 2 21.7 3
6 3 2 46.8 6.1
7 3 2 5.9 4.5
8 3 2 2.8 3.6
-9 4 2 14.7 112.89
-8 4 2 3.5 3.7
-7 4 2 0.6 1.8
-6 4 2 0.2 1.3
-5 4 2 63.49 7.2
-4 4 2 56.19 2.8
-3 4 2 4.1 0.9
-2 4 2 222.08 4.2
-1 4 2 202.68 4
0 4 2 52.29 5
1 4 2 178.18 5.9
2 4 2 142.89 5
3 4 2 42.5 3.2
4 4 2 18.6 2.9
5 4 2 6.4 4.4
6 4 2 14.3 3.7
7 4 2 4.5 5.8
-9 5 2 10.5 76.89
-8 5 2 2.3 2.4
-7 5 2 6 2
-6 5 2 6.9 3.2
-5 5 2 47.6 6.5
-4 5 2 34.5 3.3
-3 5 2 0.8 0.8
-2 5 2 186.48 4.3
-1 5 2 16.6 1.8
0 5 2 329.37 9.3
1 5 2 0 3.6
2 5 2 4.4 1.5
3 5 2 35.8 3.3
4 5 2 4.7 4.8
5 5 2 5.8 3
6 5 2 2.5 7.3
7 5 2 0 8.9
-8 6 2 4.4 2.3
-7 6 2 6.5 3
-6 6 2 0 3.1
-5 6 2 3 1.7
-4 6 2 268.77 5.4
-3 6 2 243.48 5.3
-2 6 2 120.29 3.3
-1 6 2 12.9 6.7
0 6 2 133.39 7.7
1 6 2 16.6 2.3
2 6 2 0.5 1.3
3 6 2 33.6 3.3
4 6 2 74.99 7.3
5 6 2 0 6.2
6 6 2 0.5 4
7 6 2 14.6 7.1
-8 7 2 8 3
-7 7 2 10.8 4.2
-6 7 2 0 2.9
-5 7 2 3.1 1.3
-4 7 2 3.2 1.2
-3 7 2 29.1 2.5
-2 7 2 124.19 7.5
-1 7 2 158.28 6.8
0 7 2 21.6 4.4
1 7 2 6.2 1.9
2 7 2 27.7 3.2
3 7 2 0 37.1
4 7 2 8.9 6.4
5 7 2 25.7 8.3
6 7 2 9.6 5.2
-8 8 2 1.7 4
-7 8 2 4 4.3
-6 8 2 0 5.2
-5 8 2 8.3 1.9
-4 8 2 17.3 2.3
-3 8 2 0 3.3
-2 8 2 35.8 5.5
-1 8 2 0 3.4
0 8 2 54.39 5.5
1 8 2 37 4.2
2 8 2 11.3 8.3
3 8 2 6.4 3.6
4 8 2 35.7 9.9
5 8 2 5 5.3
-7 9 2 0 10.9
-6 9 2 7.6 3.1
-5 9 2 6.3 2.4
-4 9 2 12.2 2.7
-3 9 2 0.6 4.9
-2 9 2 15.2 6.8
-1 9 2 6.3 2.1
0 9 2 5.3 2.2
1 9 2 0 2.7
2 9 2 19.9 8.4
3 9 2 26.7 9
4 9 2 21.3 6.6
5 9 2 0 7.3
-6 10 2 16.1 4
-5 10 2 11.6 2.5
-4 10 2 0.4 4.1
-3 10 2 0 4.4
-2 10 2 3.4 3.8
-1 10 2 3.2 2.1
0 10 2 1.7 2.7
1 10 2 0 6
2 10 2 7.3 4.9
3 10 2 3.9 3.3
4 10 2 20.5 7
-5 11 2 0 106.29
-4 11 2 2.6 3.1
-3 11 2 6 5.3
-2 11 2 4.3 2.9
-1 11 2 0 2.5
0 11 2 2.9 5.7
1 11 2 0.1 6.3
2 11 2 4.3 9.6
-3 12 2 0.7 2.9
-2 12 2 0 3
-1 12 2 0 11.4
0 12 2 0 7.7
0 -13 3 7 4.4
1 -13 3 0 10.3
2 -13 3 15.9 14.6
3 -13 3 23 4.2
-2 -12 3 5.9 4.2
-1 -12 3 28.1 7.8
0 -12 3 3.3 4.7
1 -12 3 2.5 6.7
2 -12 3 0 8.2
3 -12 3 3.2 2.3
4 -12 3 9.7 3
5 -12 3 19.9 4.2
-3 -11 3 23.3 7.3
-2 -11 3 1.7 3.8
-1 -11 3 7 3.4
0 -11 3 28.6 8.6
1 -11 3 74.29 6.5
2 -11 3 6.8 2.8
3 -11 3 0.8 2
4 -11 3 3.2 2
5 -11 3 19.6 5.9
6 -11 3 14.4 10.3
-4 -10 3 6.8 11.1
-3 -10 3 6 4.2
-2 -10 3 33.7 5.6
-1 -10 3 2.4 3.2
0 -10 3 18 7.6
1 -10 3 8.4 5
2 -10 3 6.3 2.3
3 -10 3 6.5 2.1
4 -10 3 4.8 3.7
5 -10 3 0 3.7
6 -10 3 0 8
7 -10 3 2.8 3.8
-5 -9 3 0 56.69
-4 -9 3 19.3 5.6
-3 -9 3 33.3 5.8
-2 -9 3 57.69 69.19
-1 -9 3 0 5.3
0 -9 3 154.08 9.6
1 -9 3 40.8 3.6
2 -9 3 6.2 1.8
3 -9 3 18.5 3.4
4 -9 3 7.2 5.1
5 -9 3 9.7 3.5
6 -9 3 1.2 2.3
7 -9 3 2.1 3.5
-6 -8 3 0 11.3
-5 -8 3 8.3 6.4
-4 -8 3 31.8 6.7
-3 -8 3 3 3.3
-2 -8 3 11.2 6
-1 -8 3 89.29 4.3
0 -8 3 1.1 1.2
1 -8 3 24.4 2.7
2 -8 3 133.09 4.7
3 -8 3 67.29 4.1
4 -8 3 10 3.5
5 -8 3 12.4 1.9
6 -8 3 56.49 7
7 -8 3 6 3.7
8 -8 3 0 8
-7 -7 3 0 5.3
-6 -7 3 2 6.8
-5 -7 3 4 2.9
-4 -7 3 102.29 8.5
-3 -7 3 8.5 5.8
-2 -7 3 117.19 8.9
-1 -7 3 61.89 2.7
0 -7 3 91.49 3.4
1 -7 3 99.39 3.5
2 -7 3 172.38 7
3 -7 3 24.2 2.4
4 -7 3 22.7 2.9
5 -7 3 0.8 1
6 -7 3 0.7 2.3
7 -7 3 4.9 9.3
8 -7 3 30 6.9
-6 -6 3 6.1 3.9
-5 -6 3 3.6 2.7
-4 -6 3 2.7 6.3
-3 -6 3 48.9 6.2
-2 -6 3 216.88 7.5
-1 -6 3 7.2 1.1
0 -6 3 92.89 2.9
1 -6 3 14 2.2
2 -6 3 221.38 5.7
3 -6 3 58.19 3.2
4 -6 3 116.69 3.9
5 -6 3 4.1 1.8
6 -6 3 4.2 4.3
7 -6 3 0 5.1
8 -6 3 17.4 17.7
-7 -5 3 0 1.4
-6 -5 3 19 2.2
-5 -5 3 10.5 4.8
-4 -5 3 11.6 7.7
-3 -5 3 8.4 3.9
-2 -5 3 1.7 1.1
-1 -5 3 73.69 2.3
0 -5 3 68.39 2.3
1 -5 3 81.99 3.4
2 -5 3 113.79 3.9
3 -5 3 5.4 1.2
4 -5 3 8.6 1.3
5 -5 3 2.8 1.9
6 -5 3 4.9 5.1
7 -5 3 20.3 7.4
8 -5 3 5.1 3.2
-8 -4 3 1.7 2.7
-7 -4 3 0.6 3
-6 -4 3 43.4 4
-5 -4 3 9.5 3.9
-4 -4 3 0 1.9
-3 -4 3 4.3 1.4
-2 -4 3 2.9 1.3
-1 -4 3 111.69 2.2
0 -4 3 369.66 6.1
1 -4 3 279.67 5.3
2 -4 3 19.6 1.7
3 -4 3 101.39 3.1
4 -4 3 139.19 3.9
5 -4 3 0 3.7
6 -4 3 9.1 6.8
7 -4 3 8.8 4
8 -4 3 0.6 3.1
9 -4 3 14.2 4.6
-8 -3 3 5.2 2.4
-7 -3 3 1.3 2
-6 -3 3 0 8.8
-5 -3 3 42.9 4.4
-4 -3 3 28.4 4.7
-3 -3 3 3 1
-2 -3 3 17.1 1
-1 -3 3 15.6 1.7
0 -3 3 442.46 6.4
1 -3 3 29.9 1.8
2 -3 3 23.4 1.7
3 -3 3 93.79 2.7
4 -3 3 105.89 3.4
5 -3 3 14.4 2.5
6 -3 3 10.7 3.5
7 -3 3 2 1.4
8 -3 3 13 3.5
9 -3 3 0.6 19.6
-8 -2 3 2.4 2.3
-7 -2 3 3.6 2.8
-6 -2 3 4.6 3.4
-5 -2 3 11.2 2.9
-4 -2 3 11.7 1.6
-3 -2 3 201.98 4.4
-2 -2 3 54.19 2.5
-1 -2 3 7.9 6.3
0 -2 3 291.17 7.2
1 -2 3 447.86 4.9
2 -2 3 74.39 2.1
3 -2 3 2.4 0.8
4 -2 3 0 4.6
5 -2 3 183.38 7.4
6 -2 3 8.2 1.7
7 -2 3 0.4 1.7
8 -2 3 0.1 3.7
9 -2 3 7.9 14.5
-9 -1 3 1.8 2.7
-8 -1 3 0 3
-7 -1 3 14.4 4
-6 -1 3 0 2.4
-5 -1 3 60.99 3.7
-4 -1 3 111.79 4.3
-3 -1 3 13 1.4
-2 -1 3 30.3 3.1
-1 -1 3 1045.2 10.7
0 -1 3 2.6 0.7
1 -1 3 1 0.6
2 -1 3 325.47 4.3
3 -1 3 0 3
4 -1 3 0 10.5
5 -1 3 11.8 2.5
6 -1 3 26.5 2.9
7 -1 3 49.3 4.8
8 -1 3 13 6.5
-9 0 3 3.1 2.5
-8 0 3 24.7 5.5
-7 0 3 7.8 2.9
-6 0 3 3.4 2.7
-5 0 3 49.99 3.4
-4 0 3 105.89 4
-3 0 3 95.79 3.9
-2 0 3 1671.23 17.5
-1 0 3 74.09 1.8
0 0 3 197.18 2.8
1 0 3 374.26 4.6
2 0 3 89.89 3.1
3 0 3 83.79 5.8
4 0 3 3.8 2.1
5 0 3 12.6 2
6 0 3 3.7 1.8
7 0 3 16 98.39
8 0 3 5.2 4
-9 1 3 0 2.1
-8 1 3 56.79 5.5
-7 1 3 0 3.1
-6 1 3 126.69 5
-5 1 3 0.9 1.6
-4 1 3 87.59 4.1
-3 1 3 357.06 5.8
-2 1 3 346.27 7
-1 1 3 783.72 5
0 1 3 132.49 3.8
1 1 3 79.19 2.8
2 1 3 43 4
3 1 3 21.3 3.8
4 1 3 234.68 6.1
5 1 3 0.5 1.3
6 1 3 3.4 4.3
8 1 3 9.9 6.4
-9 2 3 0 8.1
-8 2 3 10.7 3.7
-7 2 3 2.4 1.3
-6 2 3 192.48 5.5
-5 2 3 13.7 2.1
-4 2 3 253.97 7.5
-3 2 3 28.2 3.7
-2 2 3 30.1 1.6
-1 2 3 1063.19 7.1
0 2 3 0.4 1
1 2 3 4.8 3.5
3 2 3 81.89 3.8
4 2 3 0.3 1.1
5 2 3 24.9 3
6 2 3 53.59 8.1
7 2 3 10.9 14.7
8 2 3 4.4 7.3
-9 3 3 7.1 57.59
-8 3 3 9.8 4.4
-7 3 3 1.6 2.1
-6 3 3 6.5 2
-5 3 3 5.5 1.8
-4 3 3 388.16 7
-3 3 3 6.3 0.8
-2 3 3 561.74 4.4
-1 3 3 15.5 1.6
0 3 3 25.8 3.1
1 3 3 0 5.3
2 3 3 8.5 1.8
3 3 3 0.6 1
4 3 3 0.6 1.1
5 3 3 0.4 4
6 3 3 0 5.4
7 3 3 0 117.59
8 3 3 7.5 4.5
-9 4 3 19.2 14
-8 4 3 41 6.4
-7 4 3 0.4 2.2
-6 4 3 36.9 4.6
-5 4 3 32.9 3.2
-4 4 3 5.6 1.3
-3 4 3 55.19 2.4
-2 4 3 50.19 2.1
-1 4 3 61.69 3.3
0 4 3 458.15 15.2
1 4 3 46.5 11.8
2 4 3 5.3 1.4
3 4 3 32.3 2.6
4 4 3 9.9 4.6
5 4 3 0 2.9
6 4 3 2 7.6
7 4 3 2.7 3.5
-8 5 3 30.7 3.8
-7 5 3 17.7 3
-6 5 3 26.9 4.6
-5 5 3 10.7 2.6
-4 5 3 16.3 1.9
-3 5 3 80.79 2.7
-2 5 3 24.6 2
-1 5 3 27.4 3.3
0 5 3 190.38 11.9
1 5 3 65.39 3.4
2 5 3 315.77 7
3 5 3 83.19 4.7
4 5 3 7.1 5.4
5 5 3 86.99 9.1
6 5 3 1.8 2.9
7 5 3 3 3
-8 6 3 3.7 2.8
-7 6 3 0 5
-6 6 3 67.99 5
-5 6 3 24.6 2.4
-4 6 3 123.09 4.3
-3 6 3 1.5 1
-2 6 3 155.18 5.4
-1 6 3 12.8 6.5
0 6 3 0.2 1.6
1 6 3 48.6 3.8
2 6 3 66.89 4.2
3 6 3 0 6.1
4 6 3 1.4 5.6
5 6 3 11.9 10.1
6 6 3 2.1 5.3
-8 7 3 16 80.09
-7 7 3 36.8 4.6
-6 7 3 0 8.8
-5 7 3 2 1.6
-4 7 3 12.3 1.8
-3 7 3 0 3.1
-2 7 3 120.59 6.3
-1 7 3 0.6 9.8
0 7 3 49.9 3.9
1 7 3 15.7 2.4
2 7 3 0 6.9
3 7 3 6.1 4.2
4 7 3 7.6 10
5 7 3 0 3.5
6 7 3 0.3 5.7
-7 8 3 1.1 88.69
-6 8 3 1.8 2
-5 8 3 69.69 5.2
-4 8 3 3.3 1.6
-3 8 3 13.2 3.3
-2 8 3 0.5 3.4
-1 8 3 1.9 1.8
0 8 3 7 2.6
1 8 3 2.2 2.4
2 8 3 12.6 6.5
3 8 3 15 9.4
4 8 3 10.8 11.6
5 8 3 11.5 5.1
-7 9 3 0 4.6
-6 9 3 39.9 5
-5 9 3 5.6 2.2
-4 9 3 43.1 5
-3 9 3 22.2 3.9
-2 9 3 17.9 2.5
-1 9 3 0 1.7
0 9 3 15.8 4
2 9 3 19.3 8.9
3 9 3 0 10.9
4 9 3 6.9 5.8
-6 10 3 14 6.4
-5 10 3 11.2 7.6
-4 10 3 9.5 3.2
-3 10 3 11.2 4.9
-2 10 3 2.8 2.2
-1 10 3 7.2 2.6
0 10 3 25.7 6.6
1 10 3 0 5.3
2 10 3 5.8 62.99
3 10 3 13.7 6.2
-5 11 3 12.5 9.7
-4 11 3 17.8 6.3
-3 11 3 1.4 2.6
-2 11 3 1 2.6
-1 11 3 6 11.1
0 11 3 1.7 38.2
1 11 3 0 5.9
2 11 3 1.5 6.5
-3 12 3 2.2 3.3
-2 12 3 2.9 3.5
-1 12 3 0 9.1
0 -13 4 17.2 6.4
1 -13 4 20.5 6.9
2 -13 4 17.6 11.3
3 -13 4 3.5 6
-2 -12 4 5.4 4.4
-1 -12 4 0 10.7
0 -12 4 2.5 47.3
1 -12 4 12.7 5.6
2 -12 4 39.7 5
3 -12 4 7.4 3
4 -12 4 8.4 3.2
-3 -11 4 0 3.4
-2 -11 4 8.5 3.6
-1 -11 4 0 7.6
0 -11 4 3.2 6.3
1 -11 4 0 5.5
2 -11 4 6.6 2.6
3 -11 4 47.8 5.7
4 -11 4 8.2 4.4
5 -11 4 12 4.7
6 -11 4 16.7 4.4
-4 -10 4 22 6.8
-3 -10 4 2.8 3.3
-2 -10 4 57.39 13.1
-1 -10 4 8.3 7.3
0 -10 4 1.7 4.4
1 -10 4 18.5 2.8
2 -10 4 6.2 2
3 -10 4 0.7 2.2
4 -10 4 17.7 3.2
5 -10 4 32.4 8.1
6 -10 4 2.4 2.6
-5 -9 4 2.3 5.5
-4 -9 4 4 3.4
-3 -9 4 2.6 4.3
-2 -9 4 89.19 76.19
-1 -9 4 29.4 49.7
0 -9 4 307.17 8.8
1 -9 4 3.5 1.8
2 -9 4 32 3.1
3 -9 4 0.8 3
4 -9 4 0 6
5 -9 4 5.2 2
6 -9 4 3.3 2.4
7 -9 4 4.6 3.8
-6 -8 4 6.4 10.1
-5 -8 4 9.3 4.4
-4 -8 4 8 3.4
-3 -8 4 32 8.2
-2 -8 4 36.5 8.7
-1 -8 4 3.6 1.5
0 -8 4 60.99 3.4
1 -8 4 44.3 2.7
2 -8 4 147.09 5
3 -8 4 105.09 6
4 -8 4 28.6 8.1
5 -8 4 16.2 2.2
6 -8 4 4.3 2.9
7 -8 4 2.6 115.99
-6 -7 4 6.6 3.8
-5 -7 4 6.2 3.9
-4 -7 4 14 11.5
-3 -7 4 0 3.4
-2 -7 4 0 8.7
-1 -7 4 0.4 0.8
0 -7 4 10.1 1.4
1 -7 4 44.2 3
2 -7 4 3.2 2
3 -7 4 10.6 3.2
4 -7 4 60.29 3
5 -7 4 2.6 1.3
6 -7 4 16.7 5.6
7 -7 4 0 4.3
8 -7 4 16.6 8.9
-6 -6 4 0.5 3.2
-5 -6 4 9.3 4.4
-4 -6 4 72.59 8.5
-3 -6 4 0 3.3
-2 -6 4 54.69 3.8
-1 -6 4 0.3 0.5
0 -6 4 48.9 2.2
1 -6 4 28.2 3
2 -6 4 6.4 3.9
3 -6 4 44.5 2.6
4 -6 4 65.09 3.1
5 -6 4 2.7 1.4
6 -6 4 17.7 5.4
7 -6 4 4.7 7.1
8 -6 4 3.1 4
-7 -5 4 2.5 1.4
-6 -5 4 9.6 3.5
-5 -5 4 16.8 13.3
-4 -5 4 13.1 5.7
-3 -5 4 1.2 1.4
-2 -5 4 46.9 3.5
-1 -5 4 1.9 0.6
0 -5 4 25.4 4.8
1 -5 4 139.09 4
2 -5 4 60.19 2.5
3 -5 4 2.4 0.9
4 -5 4 10.1 1.5
5 -5 4 0 3.9
6 -5 4 35.1 7.3
7 -5 4 24.1 4.9
8 -5 4 3.4 3.3
-8 -4 4 2.8 2.4
-7 -4 4 11.1 3.9
-6 -4 4 1.7 4.3
-5 -4 4 6.3 1.9
-4 -4 4 0 5
-3 -4 4 76.89 2
-2 -4 4 4.4 0.9
-1 -4 4 11.5 2.1
0 -4 4 446.36 8.2
1 -4 4 102.39 3.4
2 -4 4 180.18 3.5
3 -4 4 101.09 2.9
4 -4 4 122.29 4.2
5 -4 4 42.8 3.7
6 -4 4 17.1 8.7
7 -4 4 7.3 3.2
8 -4 4 10.1 4.5
-8 -3 4 6.6 2.7
-7 -3 4 2.5 2.2
-6 -3 4 0 5.1
-5 -3 4 16 3
-4 -3 4 2.6 1
-3 -3 4 262.57 5
-2 -3 4 11.3 1.3
-1 -3 4 94.09 5.3
0 -3 4 70.49 5.2
1 -3 4 101.99 2.2
2 -3 4 96.59 3.1
3 -3 4 2 0.7
4 -3 4 20.8 2.6
5 -3 4 44.6 3.6
6 -3 4 62.89 4.9
7 -3 4 5.2 1.9
8 -3 4 7.5 3
-8 -2 4 2.2 2.5
-7 -2 4 0 4.9
-6 -2 4 14.3 3.3
-5 -2 4 3.4 1.4
-4 -2 4 26.3 2.1
-3 -2 4 10.7 1.4
-2 -2 4 65.59 5.7
-1 -2 4 296.87 5.8
0 -2 4 1.6 0.6
1 -2 4 28 1.7
2 -2 4 15 1.5
3 -2 4 100.99 4.1
4 -2 4 47.1 5.6
5 -2 4 1.5 1.3
6 -2 4 5.9 2
7 -2 4 6.2 3.1
8 -2 4 23.6 6
-8 -1 4 9.3 8.3
-7 -1 4 2.3 2.7
-6 -1 4 49.2 4.7
-5 -1 4 3.6 1.5
-4 -1 4 294.07 7.3
-3 -1 4 14.1 4.3
-2 -1 4 160.48 4
-1 -1 4 3.5 0.8
0 -1 4 345.67 4.1
1 -1 4 594.24 5.5
2 -1 4 333.57 4.7
3 -1 4 5 1.5
4 -1 4 53.49 3.4
5 -1 4 111.19 4.8
6 -1 4 7.3 2.1
7 -1 4 2.8 5
8 -1 4 0 5.7
-9 0 4 4 6.1
-8 0 4 0 4.5
-7 0 4 4.4 3.8
-6 0 4 0.2 1.6
-5 0 4 70.49 4
-4 0 4 231.28 5.9
-3 0 4 2.2 2.9
-2 0 4 117.29 4
-1 0 4 1.1 0.6
0 0 4 239.08 3.5
1 0 4 711.13 7.1
2 0 4 0 5.4
3 0 4 28.7 2.9
4 0 4 133.19 4.9
5 0 4 2 1.5
6 0 4 0 8.2
7 0 4 0 4.1
8 0 4 0 10.9
-9 1 4 0 6.3
-8 1 4 0 5.7
-7 1 4 27.4 3.7
-6 1 4 2.9 1.5
-5 1 4 3.2 1.5
-4 1 4 113.79 5.6
-3 1 4 0 3.1
-2 1 4 160.88 2.6
-1 1 4 37.9 1.6
0 1 4 49.3 2.3
1 1 4 252.77 121.89
2 1 4 1 4.1
3 1 4 86.19 4
4 1 4 23 2.6
5 1 4 33.9 3.3
6 1 4 0 7.5
7 1 4 14.1 7.4
8 1 4 2.1 4.4
-9 2 4 11.2 7.9
-8 2 4 6.8 1.7
-7 2 4 12.3 1.8
-6 2 4 36.6 2.7
-5 2 4 30.5 4.4
-4 2 4 28.3 2.6
-3 2 4 35.2 2.3
-2 2 4 226.48 4.6
-1 2 4 22.1 1.5
0 2 4 12 2.4
1 2 4 97.99 5.3
2 2 4 48.7 3.1
3 2 4 11 1.9
4 2 4 3.7 1.5
5 2 4 1.4 6.2
6 2 4 23.7 4.3
7 2 4 22.9 9.5
8 2 4 7.1 10.7
-9 3 4 0 154.58
-8 3 4 0.6 2
-7 3 4 8.5 1.5
-6 3 4 11.3 4
-5 3 4 3.1 2.8
-4 3 4 2.2 0.9
-3 3 4 17.6 1.7
-2 3 4 261.97 7.1
-1 3 4 164.68 3.8
0 3 4 151.88 6.1
1 3 4 2.7 2.7
2 3 4 44.8 3
3 3 4 59.39 3.5
4 3 4 14.4 5.4
5 3 4 13.6 4.4
6 3 4 0 40.3
7 3 4 3.6 3.8
-8 4 4 30.8 3.6
-7 4 4 3.2 3.5
-6 4 4 39 12.1
-5 4 4 14.8 4
-4 4 4 168.88 3.3
-3 4 4 4 2.9
-2 4 4 3.3 0.9
-1 4 4 25.8 3.9
0 4 4 40 6.7
1 4 4 0.8 1.1
2 4 4 78.89 4.1
3 4 4 0.2 1.5
4 4 4 53.19 8.2
6 4 4 3.7 2.9
7 4 4 1 3
-8 5 4 4 2.1
-7 5 4 0 7.5
-6 5 4 60.19 6.2
-5 5 4 3.9 1.2
-4 5 4 1.3 1
-3 5 4 91.59 6.1
-2 5 4 335.77 8.4
-1 5 4 61.09 4.3
0 5 4 7.6 1.5
1 5 4 1.4 1.3
2 5 4 6.6 1.9
3 5 4 0 4.3
4 5 4 74.29 12.6
5 5 4 8.2 65.69
6 5 4 16.7 3.7
7 5 4 2.9 3.4
-8 6 4 23 7.8
-7 6 4 3.3 9.3
-6 6 4 0 5
-5 6 4 3.8 1.3
-4 6 4 57.79 3.1
-3 6 4 66.19 3.8
-2 6 4 2.9 2.2
-1 6 4 3.5 3
0 6 4 25.3 2.9
1 6 4 2.3 1.4
2 6 4 7 6.9
3 6 4 2.6 4.2
4 6 4 2.7 8.9
5 6 4 6 3.5
6 6 4 11.6 5.1
-8 7 4 0 116.69
-7 7 4 0.1 125.69
-6 7 4 84.09 3.6
-5 7 4 54.79 3.3
-4 7 4 3.4 2.8
-3 7 4 13.9 6.7
-2 7 4 5.7 4.1
-1 7 4 28.6 3
0 7 4 51.79 3.8
1 7 4 5.6 3.5
2 7 4 11 7.1
3 7 4 1.9 7.8
4 7 4 1.9 3.9
5 7 4 0 3.8
-7 8 4 0.7 4.8
-6 8 4 1 2.5
-5 8 4 5.9 1.9
-4 8 4 33.6 6.9
-3 8 4 67.79 5.1
-2 8 4 18.2 3
-1 8 4 6 2.1
0 8 4 47 5
1 8 4 0 9.9
2 8 4 158.78 186.08
3 8 4 18.3 65.49
4 8 4 7 5.1
5 8 4 0 5.2
-6 9 4 39.8 4
-5 9 4 0.2 64.09
-4 9 4 8.2 3.6
-3 9 4 0 7.6
-2 9 4 0 1.7
-1 9 4 6 3.2
0 9 4 6.8 5
1 9 4 14 7.3
2 9 4 18.1 12
3 9 4 0 4.2
4 9 4 9.9 7.9
-6 10 4 7.7 4.9
-5 10 4 0.7 8.5
-4 10 4 39.4 8.1
-3 10 4 0 2.2
-2 10 4 28.1 5
-1 10 4 4.1 5.7
0 10 4 7.2 84.89
1 10 4 0 9.3
2 10 4 2 5.2
-4 11 4 6.4 6.8
-3 11 4 2.9 3
-2 11 4 12.5 3.9
-1 11 4 0 61.29
0 11 4 3.8 8.1
1 11 4 14.6 79.19
1 -13 5 5.8 3.7
2 -13 5 5 3.2
-2 -12 5 3.7 4
0 -12 5 4.8 4.5
1 -12 5 27.2 7.7
2 -12 5 0.4 2.2
3 -12 5 0.9 2.8
4 -12 5 7.4 11.4
-3 -11 5 19.6 5.5
-2 -11 5 1.2 106.99
-1 -11 5 18 7.8
0 -11 5 14.2 6.8
1 -11 5 1.3 1.8
2 -11 5 2.2 2.1
3 -11 5 71.39 9.2
4 -11 5 2.3 4
5 -11 5 33.3 6.5
-4 -10 5 1.2 4.2
-3 -10 5 2.6 3.7
-2 -10 5 55.79 8.9
-1 -10 5 135.59 13.1
0 -10 5 31.9 3.2
1 -10 5 1.9 2
2 -10 5 13 2.7
3 -10 5 21.3 3.9
4 -10 5 0 4
5 -10 5 2.6 2.1
6 -10 5 2.5 1.9
-5 -9 5 2.9 6.2
-4 -9 5 18.4 5.5
-3 -9 5 11.6 7.7
-2 -9 5 18.6 50.99
-1 -9 5 6.8 3.3
0 -9 5 143.49 5.2
1 -9 5 42.3 3.1
2 -9 5 95.39 6.6
3 -9 5 0 3
4 -9 5 13.4 3.7
5 -9 5 14.8 2.8
6 -9 5 2.9 1.5
7 -9 5 2.3 8.3
-6 -8 5 2 3
-5 -8 5 3.3 3.4
-4 -8 5 20 7.7
-3 -8 5 22.3 8.6
-2 -8 5 40.9 13.5
-1 -8 5 19.9 1.8
0 -8 5 140.79 3.9
1 -8 5 0.4 2
2 -8 5 133.89 5.6
3 -8 5 8.5 3.7
4 -8 5 114.49 5.1
5 -8 5 7.4 1.9
6 -8 5 10.5 7.4
7 -8 5 6.5 7
-6 -7 5 2.9 3.1
-5 -7 5 0 5.5
-4 -7 5 40.9 9.5
-3 -7 5 47.6 15.5
-2 -7 5 2.7 1.7
-1 -7 5 7.1 1.1
0 -7 5 6.8 1.3
1 -7 5 68.99 5
2 -7 5 55.89 4
3 -7 5 1 1
4 -7 5 43.1 3.5
5 -7 5 12.6 2.2
6 -7 5 116.99 10.9
7 -7 5 21.5 9.1
8 -7 5 2.7 3.3
-7 -6 5 3.3 3.6
-6 -6 5 2.9 3.5
-5 -6 5 0 6.2
-4 -6 5 11 54.69
-3 -6 5 17.4 2.8
-2 -6 5 271.17 7.6
-1 -6 5 44.4 2.1
0 -6 5 6.7 2.2
1 -6 5 20 3
2 -6 5 45.5 2.5
3 -6 5 2 1.1
4 -6 5 19.8 1.9
5 -6 5 6.1 4.8
6 -6 5 0 6.9
7 -6 5 2.3 2.7
8 -6 5 53.69 6.6
-7 -5 5 0 1.3
-6 -5 5 0 7.5
-5 -5 5 22.5 93.69
-4 -5 5 1.6 6.2
-3 -5 5 12.7 2.3
-2 -5 5 298.67 5.1
-1 -5 5 13.8 3.2
0 -5 5 476.35 8.5
1 -5 5 176.58 4.9
2 -5 5 5.1 1.1
3 -5 5 26 2
4 -5 5 9.2 3.9
5 -5 5 0 2
6 -5 5 15.7 6.4
7 -5 5 0.1 4.1
8 -5 5 6.6 3.8
-8 -4 5 4.6 2.4
-7 -4 5 13.7 5.5
-6 -4 5 23.2 5.6
-5 -4 5 46.9 4.2
-4 -4 5 26.1 1.7
-3 -4 5 88.79 2.6
-2 -4 5 124.49 3.4
-1 -4 5 0 2.8
0 -4 5 393.36 5.7
1 -4 5 1.9 0.8
2 -4 5 291.57 5.4
3 -4 5 0.6 0.7
4 -4 5 11.2 2.7
5 -4 5 22.1 6.1
6 -4 5 4.3 2.1
7 -4 5 0.8 1.9
8 -4 5 4 4.9
-8 -3 5 11.6 3.5
-7 -3 5 12.9 5.1
-6 -3 5 7.3 3.4
-5 -3 5 1.9 1.2
-4 -3 5 41.1 2.8
-3 -3 5 209.88 4.5
-2 -3 5 1.3 3.5
-1 -3 5 34.6 2.9
0 -3 5 428.06 5.2
1 -3 5 7.3 1
2 -3 5 117.59 3.4
3 -3 5 52.39 5.8
4 -3 5 50.89 4.2
5 -3 5 5.7 1.9
6 -3 5 75.59 5.5
7 -3 5 13.1 3.4
8 -3 5 0 7.9
-8 -2 5 11.6 8.9
-7 -2 5 7.7 3.9
-6 -2 5 16.6 3.4
-5 -2 5 3.7 1.5
-4 -2 5 85.99 3.4
-3 -2 5 0 2.6
-2 -2 5 63.49 3.5
-1 -2 5 469.25 6.3
0 -2 5 0.4 0.6
1 -2 5 0.9 0.7
2 -2 5 9.5 2.6
3 -2 5 31.8 2
4 -2 5 1.2 2.5
5 -2 5 18.9 2.3
6 -2 5 43.4 4.1
7 -2 5 32.1 5.5
8 -2 5 21.9 4.7
-8 -1 5 21.4 8.1
-7 -1 5 6.2 4.4
-6 -1 5 12.8 2.4
-5 -1 5 94.19 4.6
-4 -1 5 88.69 4.4
-3 -1 5 49.8 3.8
-2 -1 5 18.4 2.8
-1 -1 5 738.03 6.9
0 -1 5 221.78 3.7
1 -1 5 2.2 0.8
2 -1 5 9.8 1.6
3 -1 5 292.57 7.9
4 -1 5 0.7 1.1
5 -1 5 4.5 2.2
6 -1 5 4 5.9
7 -1 5 0 4
8 -1 5 18 91.19
-8 0 5 0 4.8
-7 0 5 2.1 1.7
-6 0 5 47.7 4
-5 0 5 4.5 1.4
-4 0 5 10 3.1
-3 0 5 43.7 3.7
-2 0 5 170.38 3.4
-1 0 5 21.2 1.4
0 0 5 158.88 3.5
1 0 5 663.73 12.7
2 0 5 4 2.1
3 0 5 59.89 2.8
4 0 5 33.4 3.1
5 0 5 41.1 3.4
6 0 5 0 6.6
7 0 5 15.3 4.7
8 0 5 1.5 3.7
-8 1 5 0 1.9
-7 1 5 0.3 1.9
-6 1 5 0.7 1.3
-5 1 5 2.6 5
-4 1 5 18.9 3.1
-3 1 5 0.4 0.5
-2 1 5 48 1.5
-1 1 5 133.59 3.4
0 1 5 364.16 8.3
1 1 5 17 4.8
2 1 5 146.29 4.7
3 1 5 13.6 2.1
4 1 5 3.9 1.6
5 1 5 1.7 4.3
6 1 5 20.7 6.1
7 1 5 14.2 59.99
8 1 5 10.6 5
-8 2 5 0.8 2.2
-7 2 5 14.7 2
-6 2 5 22.6 3.1
-5 2 5 35.3 4.1
-4 2 5 65.89 3.3
-3 2 5 168.78 4.4
-2 2 5 22.4 2.2
-1 2 5 1.8 0.9
0 2 5 209.68 12.4
1 2 5 14.4 5.9
2 2 5 2.6 1.3
3 2 5 12.9 2.2
4 2 5 13.1 3.7
5 2 5 6.2 3.6
6 2 5 7.8 81.09
7 2 5 0.7 3.6
-8 3 5 29.9 3.6
-7 3 5 1.9 2.8
-6 3 5 0 2.5
-5 3 5 0.9 2.1
-4 3 5 2.3 1.1
-3 3 5 145.29 4.6
-2 3 5 4.3 1.4
-1 3 5 65.69 4
0 3 5 121.89 9.1
1 3 5 150.88 6.1
2 3 5 40.8 3.9
3 3 5 34.2 3.9
4 3 5 7.1 6.9
5 3 5 8.4 7.4
6 3 5 5 3.8
7 3 5 1.7 3.7
-8 4 5 7.5 2.2
-7 4 5 16.7 5.4
-6 4 5 196.28 5.4
-5 4 5 6.2 1.7
-4 4 5 26.9 3.4
-3 4 5 66.49 4.6
-2 4 5 39.9 7.6
-1 4 5 62.39 4.7
0 4 5 0.7 1.1
1 4 5 6.2 1.9
2 4 5 6.4 2.2
3 4 5 5.1 6.7
4 4 5 5.3 10.5
6 4 5 0 2.9
7 4 5 3.5 3.9
-7 5 5 10.3 2
-6 5 5 22.1 11.8
-5 5 5 1.6 2
-4 5 5 449.56 11
-3 5 5 0.7 62.39
-2 5 5 26.5 2.3
-1 5 5 23 4.7
0 5 5 82.19 4.4
1 5 5 11.1 2.7
2 5 5 5.8 5.1
3 5 5 0 5.5
4 5 5 7.3 10
5 5 5 1.4 3.7
6 5 5 0 8.6
-8 6 5 18.9 109.39
-7 6 5 10.7 11.1
-6 6 5 5.3 2.4
-5 6 5 3.6 2.1
-4 6 5 25.8 5.4
-3 6 5 0 5.7
-2 6 5 334.27 13.6
-1 6 5 7.4 2.2
0 6 5 2.8 1.6
1 6 5 51.59 5.2
2 6 5 72.79 85.29
4 6 5 6.7 4.5
5 6 5 34.4 11
6 6 5 0 82.89
-7 7 5 0 4.3
-6 7 5 1.1 2.5
-5 7 5 39.1 4.4
-4 7 5 69.09 12.2
-3 7 5 0 3.5
-2 7 5 46.3 3.8
-1 7 5 7 1.8
0 7 5 27 3.7
1 7 5 0 6.4
2 7 5 31.1 9.5
3 7 5 0 10.2
4 7 5 13.9 5
5 7 5 13.5 14.2
-7 8 5 3.4 6.3
-6 8 5 9.1 3.8
-5 8 5 38.6 11
-4 8 5 0.3 3.7
-3 8 5 5.2 4.2
-2 8 5 50.69 4.7
-1 8 5 43 3.9
0 8 5 4.7 81.99
1 8 5 2.1 4.3
2 8 5 6.7 61.39
3 8 5 2.5 3.8
4 8 5 25.6 9
-6 9 5 5.3 9.6
-5 9 5 13.5 8.7
-4 9 5 13.2 10.4
-3 9 5 10.1 2.6
-2 9 5 0.8 1.9
-1 9 5 0 39.7
0 9 5 4.3 37.1
2 9 5 10.4 67.19
3 9 5 7.9 6.6
-5 10 5 2.7 60.49
-4 10 5 0.3 2.6
-3 10 5 20.5 3.6
-2 10 5 20 4.3
-1 10 5 4.8 41.1
0 10 5 0 102.29
1 10 5 0 70.99
2 10 5 3 5.7
-3 11 5 0.6 3.6
-2 11 5 8.3 87.29
-1 11 5 14.6 10.1
0 11 5 0.4 67.59
-2 -12 6 0 79.79
-1 -12 6 0.7 48.9
0 -12 6 0 7.1
1 -12 6 1.7 2.9
2 -12 6 11.1 3.2
3 -12 6 0 9.3
4 -12 6 12.2 7.4
-3 -11 6 4.4 3.8
-2 -11 6 16.3 127.89
-1 -11 6 1 4.9
0 -11 6 1.9 2.1
1 -11 6 2.7 2.1
2 -11 6 4.6 2.3
3 -11 6 10.9 4.5
4 -11 6 0 5.3
5 -11 6 10.1 3.4
-4 -10 6 14.6 4.6
-3 -10 6 5.1 8
-2 -10 6 0 5.6
-1 -10 6 0.3 4.2
0 -10 6 13.7 2.4
1 -10 6 36.3 3.4
2 -10 6 65.89 5.8
3 -10 6 0.8 3.9
4 -10 6 0 6.7
5 -10 6 3.3 2.2
6 -10 6 4.5 2.9
-5 -9 6 5.1 3
-4 -9 6 6 19
-3 -9 6 3.1 4
-2 -9 6 17.8 6.6
-1 -9 6 8.1 2.6
0 -9 6 2.1 1.4
1 -9 6 6.2 3.7
2 -9 6 49.7 4.2
3 -9 6 45 5.3
4 -9 6 98.79 5.1
5 -9 6 1.9 2
6 -9 6 13.2 4.8
7 -9 6 5.5 6.3
-6 -8 6 4.7 3.2
-5 -8 6 3.1 3.6
-4 -8 6 8.8 4.9
-3 -8 6 18.8 5.7
-2 -8 6 46.1 4.7
-1 -8 6 0 0.9
0 -8 6 19.3 2.1
1 -8 6 23.6 2.8
2 -8 6 54.09 6.4
3 -8 6 0.6 1.3
4 -8 6 155.08 5.2
5 -8 6 4.6 2
6 -8 6 76.29 5.8
7 -8 6 0 7.1
-6 -7 6 4.3 3.6
-5 -7 6 19.6 5.7
-4 -7 6 11.1 5.2
-3 -7 6 3.2 3
-2 -7 6 3.4 1.9
-1 -7 6 4.5 1
0 -7 6 0 3
1 -7 6 58.49 4.4
2 -7 6 4 1.3
3 -7 6 0.9 0.9
4 -7 6 112.59 3.7
5 -7 6 1 4.3
6 -7 6 70.99 5.6
7 -7 6 0 3.8
-7 -6 6 1.3 3.3
-6 -6 6 0 7.3
-5 -6 6 1.9 3.7
-4 -6 6 0 10.3
-3 -6 6 3 1.7
-2 -6 6 31.5 2.2
-1 -6 6 21.9 4
0 -6 6 62.39 4
1 -6 6 66.29 4.1
2 -6 6 6.5 1.3
3 -6 6 40.3 3.1
4 -6 6 64.49 6
5 -6 6 10.2 47.8
6 -6 6 69.49 5.9
7 -6 6 2.5 3.3
8 -6 6 12.4 6.7
-7 -5 6 7.7 1.7
-6 -5 6 11.6 3
-5 -5 6 18.9 2.4
-4 -5 6 1.6 0.8
-3 -5 6 1.4 0.8
-2 -5 6 3 1.2
-1 -5 6 56.39 2.8
0 -5 6 32.8 2.6
1 -5 6 31.4 2.1
2 -5 6 298.17 5.8
3 -5 6 1.5 1
4 -5 6 55.49 3.7
5 -5 6 16.3 6.7
6 -5 6 4.3 1.9
7 -5 6 7.4 3
8 -5 6 26.8 5.4
-7 -4 6 20 7
-6 -4 6 10.5 7
-5 -4 6 2.6 1.6
-4 -4 6 68.09 2.8
-3 -4 6 4.4 1.2
-2 -4 6 123.39 4.2
-1 -4 6 49.5 3.1
0 -4 6 16.8 1.5
1 -4 6 4.2 0.9
2 -4 6 237.78 5.2
3 -4 6 29.4 2.9
4 -4 6 111.29 5.6
5 -4 6 14.4 2.4
6 -4 6 14.4 2.7
7 -4 6 7.6 3
8 -4 6 0 8.5
-8 -3 6 0 6.4
-7 -3 6 3.8 3
-6 -3 6 14.9 3.4
-5 -3 6 5.6 1.9
-4 -3 6 132.69 4.6
-3 -3 6 5 3.4
-2 -3 6 110.59 5.5
-1 -3 6 3.9 1.5
0 -3 6 55.39 2.1
1 -3 6 9.1 1.2
2 -3 6 2 1.8
3 -3 6 128.59 4.9
4 -3 6 237.18 6.8
5 -3 6 4.7 1.7
6 -3 6 18.6 3.2
7 -3 6 18.5 5.7
8 -3 6 36.7 8.7
-8 -2 6 0.7 4.3
-7 -2 6 52.09 7.3
-6 -2 6 27.4 3.7
-5 -2 6 1.1 1.4
-4 -2 6 6.8 1.7
-3 -2 6 25.6 2.7
-2 -2 6 39.6 3.3
-1 -2 6 265.67 4.6
0 -2 6 184.68 3.8
1 -2 6 112.19 3
2 -2 6 111.89 4.9
3 -2 6 136.19 4.4
4 -2 6 19.6 2
5 -2 6 3 1.8
6 -2 6 54.69 6.7
7 -2 6 10.5 4.4
8 -2 6 4 20.6
-8 -1 6 0 4.5
-7 -1 6 4.8 2.3
-6 -1 6 41.9 4
-5 -1 6 6.4 1.7
-4 -1 6 50.09 4.2
-3 -1 6 14.4 2.1
-2 -1 6 53.79 2.3
-1 -1 6 0.7 0.7
0 -1 6 131.09 3.2
1 -1 6 15.3 3.9
2 -1 6 35.6 5.2
3 -1 6 3.1 1.1
4 -1 6 26 2.4
5 -1 6 8.3 2.3
6 -1 6 0 5.7
7 -1 6 1.3 6.5
8 -1 6 24.2 19
-8 0 6 5.1 2.5
-7 0 6 9.8 2.6
-6 0 6 2.8 1.6
-5 0 6 0 2.8
-4 0 6 107.89 5.3
-3 0 6 5.2 1.2
-2 0 6 174.88 3.8
-1 0 6 1 0.6
0 0 6 89.19 8.1
1 0 6 60.89 2.9
2 0 6 94.69 3.5
3 0 6 28.8 2.7
4 0 6 1.9 1.3
5 0 6 0 5.3
6 0 6 21.4 4.5
7 0 6 6.6 7.5
8 0 6 17.1 7.5
-8 1 6 4.7 2.2
-7 1 6 0.5 1.5
-6 1 6 21.3 5.1
-5 1 6 83.49 4.3
-4 1 6 17.1 3.1
-3 1 6 78.19 2.4
-2 1 6 16.4 1.5
-1 1 6 3 1
0 1 6 36.6 5.9
1 1 6 2.1 2.5
2 1 6 438.46 7.8
3 1 6 8.3 1.7
4 1 6 11 3.9
5 1 6 9.9 3.4
6 1 6 0 15.1
7 1 6 0.4 3.7
-8 2 6 6.4 2.2
-7 2 6 4.2 3.4
-6 2 6 4.9 2.6
-5 2 6 0 1.5
-4 2 6 3.1 1.4
-3 2 6 290.57 6.3
-2 2 6 144.69 4.9
-1 2 6 5.5 2.3
0 2 6 44.1 11.5
1 2 6 3.4 1.2
2 2 6 22.7 2.6
3 2 6 4.4 1.9
4 2 6 35 6.9
6 2 6 0 3.8
7 2 6 1.3 3.4
-8 3 6 6.7 1.9
-7 3 6 9.1 7.4
-6 3 6 20.5 2.7
-5 3 6 6.1 1.9
-4 3 6 21.2 2.4
-3 3 6 1.4 1.1
-2 3 6 7.1 10.5
-1 3 6 55.89 3.5
0 3 6 102.99 4.5
1 3 6 5.7 1.8
2 3 6 135.09 6.1
3 3 6 99.29 9.4
4 3 6 2.7 5.3
6 3 6 1.7 3.1
7 3 6 0 4.2
-8 4 6 27 6.3
-7 4 6 37.8 10.1
-6 4 6 56.99 8.4
-5 4 6 8.4 2.3
-4 4 6 62.09 4.6
-3 4 6 0 31.8
-2 4 6 0 2.7
-1 4 6 80.89 5.1
0 4 6 81.09 4.1
1 4 6 2.2 1.6
2 4 6 10.3 7.7
3 4 6 5.5 4.9
5 4 6 17.7 5.2
6 4 6 5.3 4.4
-8 5 6 2.5 55.79
-7 5 6 1.1 11.1
-6 5 6 30.7 5.1
-5 5 6 18.6 3.2
-4 5 6 178.88 9.2
-3 5 6 2.9 4.7
-2 5 6 349.57 23.1
-1 5 6 3.8 1.8
0 5 6 70.79 5.1
1 5 6 51.79 4.2
2 5 6 31.1 5.4
3 5 6 25.4 10.8
4 5 6 0 56.79
5 5 6 2.4 4.1
-6 6 6 6.3 3.1
-5 6 6 6.5 2.5
-4 6 6 0 6.8
-3 6 6 5.2 35.6
-2 6 6 198.48 6.4
-1 6 6 10 2
0 6 6 375.26 12.2
1 6 6 20 9.2
2 6 6 11.9 7.3
3 6 6 7.8 60.99
4 6 6 23.6 9
-7 7 6 3 4.8
-6 7 6 0.2 3
-5 7 6 1.4 6.2
-4 7 6 0 3.6
-3 7 6 46.6 64.89
-2 7 6 13.6 2.2
-1 7 6 5.6 2.8
0 7 6 174.98 11.4
1 7 6 1 8.3
3 7 6 3.9 4.8
4 7 6 20.9 8.8
-6 8 6 4.7 7.8
-5 8 6 2 59.19
-4 8 6 6.1 9.3
-2 8 6 0 1.9
-1 8 6 1.1 6.1
0 8 6 16.2 5.5
1 8 6 7.7 50.69
2 8 6 0 73.59
3 8 6 0 5.4
4 8 6 13.2 12.1
-5 9 6 11.4 12.4
-4 9 6 2 4.4
-3 9 6 0 1.7
-2 9 6 2 2.9
-1 9 6 0 5.7
0 9 6 9 45.7
1 9 6 0 149.49
2 9 6 20.4 8.7
-4 10 6 3.8 5.4
-3 10 6 0.1 2.5
-2 10 6 6.3 8.8
-1 10 6 21.4 6.3
0 10 6 14.3 137.39
1 10 6 10.2 6.4
-1 -12 7 6.4 9.3
0 -12 7 18.2 3.4
1 -12 7 8.3 2.7
2 -12 7 10.4 3.1
3 -12 7 8.6 5.9
-3 -11 7 3.1 8.5
-2 -11 7 0 6.2
-1 -11 7 4.5 18.7
0 -11 7 2.5 2.4
1 -11 7 3.8 2.2
2 -11 7 9.4 5.2
3 -11 7 1.1 3.8
4 -11 7 29.3 6.4
5 -11 7 2.2 2.7
-4 -10 7 1.8 14
-3 -10 7 5.8 13.1
-2 -10 7 12.9 5.8
-1 -10 7 0.6 2.1
0 -10 7 4.3 2.2
1 -10 7 8.5 2.9
2 -10 7 0 3.7
3 -10 7 3.8 5.8
4 -10 7 9.4 2.3
5 -10 7 8.7 2.7
6 -10 7 11.5 8.5
-5 -9 7 3.7 4.9
-4 -9 7 0 9.2
-3 -9 7 32.5 6.4
-2 -9 7 12 3.7
-1 -9 7 9 2.8
0 -9 7 5.2 1.6
1 -9 7 5.6 2.8
2 -9 7 0 3.1
3 -9 7 8.6 2.1
4 -9 7 1.6 1.5
5 -9 7 17.4 3.3
6 -9 7 20.9 18.4
-5 -8 7 10.4 16.3
-4 -8 7 19 5.6
-3 -8 7 6.7 3.1
-2 -8 7 1.4 2
-1 -8 7 22.8 2.8
0 -8 7 19 5.3
1 -8 7 14.9 4.7
2 -8 7 10.8 2.4
3 -8 7 5.1 1.6
4 -8 7 1.9 1.7
5 -8 7 0 4.8
6 -8 7 5.9 5.2
7 -8 7 0.6 4.2
-6 -7 7 18.4 11.6
-5 -7 7 3.3 3.4
-4 -7 7 35.3 7
-3 -7 7 89.09 6.5
-2 -7 7 76.99 3.7
-1 -7 7 29 3.8
0 -7 7 1.1 1.7
1 -7 7 12.3 3.3
2 -7 7 1.7 1.1
3 -7 7 4.6 1.8
4 -7 7 49.2 9.4
5 -7 7 8.4 3
6 -7 7 19.5 9.4
7 -7 7 4.4 3.3
-6 -6 7 35.3 6.2
-5 -6 7 14.2 5.3
-4 -6 7 90.49 6.5
-3 -6 7 1.6 1.1
-2 -6 7 73.09 3.7
-1 -6 7 78.69 6
0 -6 7 56.79 3.4
1 -6 7 1.6 0.9
2 -6 7 7.2 1.6
3 -6 7 1.6 1.3
4 -6 7 4.3 27.9
5 -6 7 60.79 6.5
6 -6 7 31.1 4.3
7 -6 7 0 3.8
-7 -5 7 3.6 4.4
-6 -5 7 0 3.2
-5 -5 7 2.1 1.1
-4 -5 7 6.9 1.4
-3 -5 7 7.6 1.5
-2 -5 7 38.3 3.8
-1 -5 7 67.69 4.5
0 -5 7 69.59 2.8
1 -5 7 0.6 0.7
2 -5 7 13.5 2
3 -5 7 2.7 2.4
4 -5 7 19.6 5.9
5 -5 7 24.2 4
6 -5 7 2.1 3.4
7 -5 7 18.4 4
-7 -4 7 2 3.5
-6 -4 7 2.1 3.3
-5 -4 7 44.2 2.9
-4 -4 7 66.99 3.5
-3 -4 7 2.4 3.1
-2 -4 7 23.3 2.6
-1 -4 7 1.4 1.5
0 -4 7 141.69 3.5
1 -4 7 5.6 1.1
2 -4 7 4.4 4.9
3 -4 7 112.59 4.7
4 -4 7 6.4 5
5 -4 7 2 1.9
6 -4 7 11.1 3.1
7 -4 7 25.3 5.8
-7 -3 7 1.5 59.09
-6 -3 7 0.6 2.1
-5 -3 7 14.8 2.2
-4 -3 7 24.4 3.4
-3 -3 7 5.8 2.5
-2 -3 7 233.18 6.5
-1 -3 7 100.89 3.2
0 -3 7 13.3 1.5
1 -3 7 25.2 1.9
2 -3 7 11.3 2.1
3 -3 7 0 3.4
4 -3 7 14.7 2.1
5 -3 7 12 2.6
6 -3 7 1.2 2.3
7 -3 7 9.5 8.1
-8 -2 7 0 5.8
-7 -2 7 6.7 3.9
-6 -2 7 4.8 2.1
-5 -2 7 33.5 3.5
-4 -2 7 26.2 3.7
-3 -2 7 5.7 2.7
-2 -2 7 66.19 2.8
-1 -2 7 0.9 0.7
0 -2 7 139.49 3.6
1 -2 7 7.9 4.1
2 -2 7 245.78 4.9
3 -2 7 2.4 1.2
4 -2 7 4.4 1.5
5 -2 7 0.5 2.2
6 -2 7 1 7.6
7 -2 7 32.8 8.7
-8 -1 7 10.5 4.5
-7 -1 7 3.6 2
-6 -1 7 19.5 2.9
-5 -1 7 0.6 5
-4 -1 7 3.2 2.4
-3 -1 7 45.3 2.8
-2 -1 7 23.2 1.9
-1 -1 7 6.2 1.1
0 -1 7 0 2.5
1 -1 7 0 1.4
2 -1 7 24.5 2.4
3 -1 7 1.2 1.2
4 -1 7 82.09 3.9
5 -1 7 0 6.7
6 -1 7 4.4 4.1
7 -1 7 5 167.68
-8 0 7 44.5 4.7
-7 0 7 1.7 2
-6 0 7 15.9 4.9
-5 0 7 15 2.9
-4 0 7 6.9 3.8
-3 0 7 44.1 2.3
-2 0 7 88.59 2.8
-1 0 7 6.2 2.1
0 0 7 167.58 6.6
1 0 7 25.6 3.6
2 0 7 67.09 3.2
3 0 7 1.6 1.4
4 0 7 40.2 5.6
5 0 7 0 3.5
6 0 7 22.1 8.5
7 0 7 3.7 3.6
-8 1 7 42.8 4
-7 1 7 3.8 2.2
-6 1 7 6.9 2.9
-5 1 7 0.6 2.3
-4 1 7 1.3 0.8
-3 1 7 19.2 2.7
-2 1 7 22.5 1.9
-1 1 7 294.17 6.9
0 1 7 8.7 5.3
1 1 7 17.6 2.2
2 1 7 46.8 3.3
3 1 7 3.3 1.6
4 1 7 0 4.3
5 1 7 28.2 10.2
6 1 7 8.3 4.5
7 1 7 1.8 4.1
-8 2 7 11.6 2.6
-7 2 7 0 3.1
-6 2 7 30.8 2
-5 2 7 13 2.4
-4 2 7 5.8 1.6
-3 2 7 4.3 1.5
-2 2 7 24.7 6.3
-1 2 7 161.48 5.5
0 2 7 30 2.7
1 2 7 4.2 1.4
2 2 7 17.2 2.3
3 2 7 15.2 4.6
4 2 7 103.79 25
5 2 7 13.1 132.09
6 2 7 5.6 3.7
7 2 7 0 3.8
-8 3 7 40.7 160.98
-7 3 7 0 4.3
-6 3 7 47.4 6.8
-5 3 7 10.2 2
-4 3 7 3.7 1.7
-3 3 7 0 4.2
-2 3 7 3.4 2.3
-1 3 7 5.2 2.7
0 3 7 22.8 4
1 3 7 142.19 5.5
2 3 7 5.3 6.1
3 3 7 78.19 8.2
4 3 7 31.9 19.8
5 3 7 3.1 4
6 3 7 0 3.5
-8 4 7 0.1 59.49
-7 4 7 0.2 64.09
-6 4 7 59.59 4.3
-5 4 7 0.3 1.8
-4 4 7 36.8 7.4
-3 4 7 40.2 6.7
-2 4 7 68.39 27.1
-1 4 7 48.5 2.5
0 4 7 3.4 1.7
1 4 7 3.9 2.4
2 4 7 6.7 6
3 4 7 69.39 21.5
4 4 7 0 114.29
-7 5 7 1.9 6.5
-6 5 7 2.5 2.5
-5 5 7 29.5 4.4
-4 5 7 96.99 9
-3 5 7 9.1 71.59
-2 5 7 110.69 6.1
-1 5 7 5 1.7
0 5 7 42 4.3
1 5 7 29.4 9
2 5 7 5.1 7.8
4 5 7 0 5.1
5 5 7 0 5.2
-7 6 7 2.6 11.1
-6 6 7 15.1 4.1
-5 6 7 3.8 11
-4 6 7 0 5.2
-3 6 7 19.1 8.9
-2 6 7 9.9 4
-1 6 7 0.2 1.9
0 6 7 28.5 11.5
1 6 7 2.4 32
2 6 7 55.59 13.7
3 6 7 3.1 6.2
4 6 7 8.1 6.2
5 6 7 0 87.59
-6 7 7 19.7 6.7
-5 7 7 0 6.4
-4 7 7 19.8 60.09
-2 7 7 1.9 1.4
-1 7 7 0 60.29
0 7 7 1.6 5.6
1 7 7 19 8.4
2 7 7 27 7.9
3 7 7 3.7 5.8
-4 8 7 53.19 12.3
-2 8 7 13 2.6
-1 8 7 0 5.4
0 8 7 0 5.8
1 8 7 0 9.2
2 8 7 10.2 6.3
3 8 7 11.1 7.3
-4 9 7 0 5.1
-3 9 7 20.4 7.6
-1 9 7 0 5
0 9 7 0 8.8
1 9 7 3.4 4.4
-1 10 7 0 53.59
0 -12 8 0 4.6
1 -12 8 1.9 2.6
2 -12 8 16 68.79
-2 -11 8 0 9.2
-1 -11 8 2.8 3.5
0 -11 8 1.7 2.2
1 -11 8 6.8 5.8
2 -11 8 2.4 5.8
3 -11 8 6.5 7.4
4 -11 8 2.5 2.5
-3 -10 8 0 8.4
-2 -10 8 5.2 2.9
-1 -10 8 6 2.8
0 -10 8 11 2
1 -10 8 0 3.6
2 -10 8 1.2 4.4
3 -10 8 0.8 2.2
4 -10 8 6 2.6
5 -10 8 3.4 3
-4 -9 8 9.6 16.7
-3 -9 8 3.1 3.7
-2 -9 8 90.29 7.1
-1 -9 8 4.5 1.9
0 -9 8 1.3 3.4
1 -9 8 32.3 3.9
2 -9 8 19.8 2.8
3 -9 8 2.3 2.1
4 -9 8 1 2.1
5 -9 8 8.2 8.6
6 -9 8 11.8 9.1
-5 -8 8 9.9 9.2
-4 -8 8 1.8 6.6
-3 -8 8 8.1 3.2
-2 -8 8 3.3 1.5
-1 -8 8 2.7 4.7
0 -8 8 101.49 5.6
1 -8 8 3.5 4.4
2 -8 8 1.3 1.5
3 -8 8 3 2.3
4 -8 8 10.9 6.3
5 -8 8 0.6 2.6
6 -8 8 35.7 10.2
-6 -7 8 16.5 18.1
-5 -7 8 0.9 6.2
-4 -7 8 33.9 4.7
-3 -7 8 1.5 2.6
-2 -7 8 21.7 2.8
-1 -7 8 27.8 5.3
0 -7 8 8.4 6.2
1 -7 8 0.8 1.2
2 -7 8 60.09 4.4
3 -7 8 1.7 1.8
4 -7 8 17.4 4.8
5 -7 8 0 5.1
6 -7 8 3.4 2.7
7 -7 8 7.3 5.4
-6 -6 8 15.5 9.3
-5 -6 8 1.8 3.2
-4 -6 8 46 2.4
-3 -6 8 1 1.3
-2 -6 8 108.09 7.8
-1 -6 8 6.1 2.7
0 -6 8 43.2 3
1 -6 8 32.1 2.3
2 -6 8 107.59 5
3 -6 8 15.8 7.8
4 -6 8 16.3 9
5 -6 8 14.5 3.7
6 -6 8 18.4 3.2
7 -6 8 0 4.7
-7 -5 8 0 5.1
-6 -5 8 19.2 4.2
-5 -5 8 3.4 3.3
-4 -5 8 129.49 5.1
-3 -5 8 0 4.7
-2 -5 8 85.29 6
-1 -5 8 43.4 3.6
0 -5 8 102.89 3.4
1 -5 8 39.4 2.5
2 -5 8 271.77 8
3 -5 8 4.1 2.4
4 -5 8 144.99 10.1
5 -5 8 2.1 2.1
6 -5 8 9.4 3.3
-7 -4 8 0 5.8
-6 -4 8 29.4 3
-5 -4 8 1.4 1.2
-4 -4 8 52.09 5.2
-3 -4 8 133.19 5.9
-2 -4 8 17.7 4.6
-1 -4 8 28.6 2.6
0 -4 8 134.79 4
1 -4 8 32.3 2.4
2 -4 8 110.19 7.4
3 -4 8 8.9 4.6
4 -4 8 104.89 5.9
5 -4 8 3.6 2.3
6 -4 8 24.8 6.7
7 -4 8 0 47.9
-7 -3 8 4.1 3
-6 -3 8 2 2
-5 -3 8 2.7 1.6
-4 -3 8 50.69 4.2
-3 -3 8 0 3.1
-2 -3 8 64.09 3
-1 -3 8 53.49 2.8
0 -3 8 2.4 1
1 -3 8 127.19 5.5
2 -3 8 56.19 4.7
3 -3 8 3.9 1.7
4 -3 8 51.79 5
5 -3 8 3.5 2.6
6 -3 8 5.7 6.5
-7 -2 8 0.2 2
-6 -2 8 67.29 5.3
-5 -2 8 24.4 3.1
-4 -2 8 14.6 3.2
-3 -2 8 17.1 2.6
-2 -2 8 47 2.9
-1 -2 8 2.2 1
0 -2 8 11.4 3.3
1 -2 8 6.1 2.1
2 -2 8 94.49 4
3 -2 8 26.3 2.9
4 -2 8 112.79 4.8
5 -2 8 9 4.9
6 -2 8 44.8 9.5
7 -2 8 6.7 140.59
-7 -1 8 6.4 2.4
-6 -1 8 0 4.2
-5 -1 8 19.1 2.5
-4 -1 8 21.9 5
-3 -1 8 7.9 1.4
-2 -1 8 1.4 0.8
-1 -1 8 87.69 3.8
0 -1 8 79.69 5.4
1 -1 8 120.49 6.1
2 -1 8 4.9 1.5
3 -1 8 1.4 1.2
4 -1 8 54.09 8.9
5 -1 8 1.7 6.4
6 -1 8 50.29 10.7
7 -1 8 4.6 9
-8 0 8 15.9 4
-7 0 8 1.2 2.7
-6 0 8 135.39 14.6
-5 0 8 0.7 2.4
-4 0 8 21.8 2.1
-3 0 8 12.8 1.6
-2 0 8 8.9 1.3
-1 0 8 39.7 4.3
0 0 8 19.6 2.9
1 0 8 1.1 1.1
2 0 8 1.6 1.2
3 0 8 1.5 1.5
4 0 8 4.5 7.8
5 0 8 32 7.7
6 0 8 10.8 5.2
7 0 8 10.2 13.9
-8 1 8 0 2
-7 1 8 0 4.6
-6 1 8 20.1 3.2
-5 1 8 0.9 1
-4 1 8 186.48 7.1
-3 1 8 9.2 2.1
-2 1 8 116.29 5.9
-1 1 8 14.8 5.5
0 1 8 0 3.8
1 1 8 20.9 2.4
2 1 8 11.5 1.9
3 1 8 2.1 12.1
4 1 8 0.1 11.1
5 1 8 6.6 20
6 1 8 2.3 4.3
-7 2 8 22.1 4.9
-6 2 8 19.5 5.6
-5 2 8 1.4 1.8
-4 2 8 35.9 3.5
-3 2 8 14 4.8
-2 2 8 187.88 8.7
-1 2 8 16 4.9
0 2 8 37.4 3.1
1 2 8 13 2
2 2 8 8.1 13.6
3 2 8 20.8 5.4
4 2 8 10.4 17.6
5 2 8 0.9 3.3
6 2 8 5.3 4
-7 3 8 24.8 45.2
-6 3 8 28 5
-5 3 8 16.4 3.6
-4 3 8 31.8 5.9
-3 3 8 0 5.3
-2 3 8 33.9 6.1
-1 3 8 1 1.1
0 3 8 67.69 3.6
1 3 8 16.3 4.7
2 3 8 111.39 171.48
4 3 8 5.1 3.8
5 3 8 1 3.3
-7 4 8 3.6 6.4
-6 4 8 13.6 3.3
-5 4 8 1.4 1.9
-4 4 8 75.89 24.3
-3 4 8 49.9 5.7
-2 4 8 53.79 5.3
-1 4 8 13.4 1.9
0 4 8 163.78 7.5
1 4 8 65.39 18.3
2 4 8 22.3 14.4
3 4 8 14.5 122.69
4 4 8 0.7 7.8
5 4 8 14.2 11.3
-7 5 8 0 4.8
-6 5 8 6.7 4.5
-5 5 8 0 6.3
-4 5 8 7.1 3.7
-3 5 8 52.49 130.49
-2 5 8 79.09 6.3
-1 5 8 1.4 1.4
0 5 8 141.69 12.3
1 5 8 5.2 64.29
2 5 8 45.1 13.7
3 5 8 22.2 6.9
4 5 8 2.9 5
-6 6 8 5.6 5.8
-5 6 8 4.9 5.2
-4 6 8 5.3 120.79
-1 6 8 58.69 8.3
0 6 8 48.7 9.1
1 6 8 4.5 8.4
2 6 8 71.59 21.4
3 6 8 5.3 4.9
4 6 8 9.4 14.7
-1 7 8 4.5 70.49
0 7 8 0 6.7
1 7 8 0.7 10.9
2 7 8 25.8 7.1
3 7 8 2.4 5.4
-4 8 8 9.4 7.1
-2 8 8 3.4 21.4
-1 8 8 5.4 47.4
0 8 8 5.7 19.1
1 8 8 11.7 7.9
2 8 8 1.3 5.4
-1 9 8 11.6 53.69
0 9 8 10.3 7.5
-1 -11 9 0.1 2.7
0 -11 9 5.9 2.9
1 -11 9 0 6.2
2 -11 9 0.1 5.3
3 -11 9 0.8 2.6
-3 -10 9 0 2.6
-2 -10 9 11.6 4.5
-1 -10 9 18 3.6
0 -10 9 6.2 4.6
1 -10 9 0.9 3.6
2 -10 9 2.3 3.7
3 -10 9 27.1 4.5
4 -10 9 0.7 2.5
-4 -9 9 19.8 134.99
-3 -9 9 8.4 4.3
-2 -9 9 10.5 3.1
-1 -9 9 0 6.5
0 -9 9 63.19 4.7
1 -9 9 12.3 4.4
2 -9 9 1.3 1.8
3 -9 9 7.1 2.6
4 -9 9 11.5 8.3
5 -9 9 4.9 4.6
-5 -8 9 0.7 4.8
-4 -8 9 2.7 2.5
-3 -8 9 13.9 3.6
-2 -8 9 26.6 3.2
-1 -8 9 17.1 3.9
0 -8 9 3.5 3.5
1 -8 9 12.2 2.1
2 -8 9 56.59 5
3 -8 9 10.4 3.5
4 -8 9 0 5.4
5 -8 9 6 8.2
6 -8 9 3 3.3
-5 -7 9 5 5.1
-4 -7 9 1.8 2.5
-3 -7 9 1 1.5
-2 -7 9 17.9 3.4
-1 -7 9 0 2.8
0 -7 9 63.49 3.7
1 -7 9 44 3.7
2 -7 9 1.5 1.5
3 -7 9 9.7 4.9
4 -7 9 7.4 5.1
5 -7 9 9.2 3.4
6 -7 9 1.7 2.8
-6 -6 9 0 9.4
-5 -6 9 13.5 1.6
-4 -6 9 4.6 1.7
-3 -6 9 2.1 5
-2 -6 9 5.2 3.8
-1 -6 9 25 4.7
0 -6 9 5.7 1.6
1 -6 9 5.6 1.6
2 -6 9 28.3 6.8
3 -6 9 112.69 6.4
4 -6 9 0 6
5 -6 9 0.2 2.4
6 -6 9 5 3.1
-6 -5 9 19.3 2.7
-5 -5 9 2.2 1.5
-4 -5 9 26.1 4.2
-3 -5 9 35.6 3.2
-2 -5 9 72.39 6.3
-1 -5 9 4.8 1.6
0 -5 9 22.5 2.3
1 -5 9 9.7 1.9
2 -5 9 15.2 4.4
3 -5 9 16.2 6.3
4 -5 9 99.39 6.3
5 -5 9 43.8 5.2
6 -5 9 1.5 4.3
-7 -4 9 2 2.3
-6 -4 9 3.4 1.6
-5 -4 9 10 2.3
-4 -4 9 127.79 6.2
-3 -4 9 0.4 3
-2 -4 9 68.69 3.5
-1 -4 9 29.7 2.6
0 -4 9 32.3 2.6
1 -4 9 32.6 5
2 -4 9 5.5 3
3 -4 9 0.7 2.2
4 -4 9 45.6 5
5 -4 9 4.3 2.9
6 -4 9 44.8 172.78
7 -4 9 13.3 134.39
-7 -3 9 4.9 2.4
-6 -3 9 1.7 1.8
-5 -3 9 0 3
-4 -3 9 23 4.4
-3 -3 9 26.8 3.1
-2 -3 9 150.38 4.7
-1 -3 9 2.5 1.1
0 -3 9 120.89 5
1 -3 9 241.68 7
2 -3 9 75.99 5.6
3 -3 9 11.7 3
4 -3 9 2.6 2.2
5 -3 9 0 8.4
6 -3 9 26.7 9.3
7 -3 9 0 4.4
-7 -2 9 4.3 3.2
-6 -2 9 0 3.8
-5 -2 9 2.1 2.5
-4 -2 9 28.9 4.6
-3 -2 9 165.18 4.8
-2 -2 9 4.3 1.3
-1 -2 9 1.7 1.8
0 -2 9 110.79 6.5
1 -2 9 8.7 2.9
2 -2 9 1.6 1.1
3 -2 9 55.89 5.2
4 -2 9 60.69 9.7
5 -2 9 8.9 97.39
7 -2 9 2.2 4.7
-7 -1 9 5.7 2.4
-6 -1 9 126.89 8.1
-5 -1 9 19.5 5.9
-4 -1 9 0.9 1.1
-3 -1 9 12 1.8
-2 -1 9 2.1 1.1
-1 -1 9 115.09 5.7
0 -1 9 50.49 3.9
1 -1 9 9.1 1.6
2 -1 9 40 3.7
3 -1 9 54.09 5.1
4 -1 9 6.1 5.1
5 -1 9 5.1 8.6
6 -1 9 12 5.8
-7 0 9 0.2 30.1
-6 0 9 51.49 4.5
-5 0 9 3.6 1.5
-4 0 9 221.28 5.7
-3 0 9 1 0.9
-2 0 9 0.6 3.6
-1 0 9 0 3.5
0 0 9 10.2 3.7
1 0 9 35.5 3.2
2 0 9 161.48 7.4
3 0 9 0 74.49
4 0 9 19.6 12.7
5 0 9 15.6 9.3
6 0 9 0 8.7
-7 1 9 20 7.8
-6 1 9 0 9.7
-5 1 9 3.5 2.1
-4 1 9 78.59 4.9
-3 1 9 19.2 4.5
-2 1 9 244.28 6
-1 1 9 2.3 3.6
0 1 9 69.79 4.4
1 1 9 8.1 2.4
2 1 9 2.6 13.7
3 1 9 17.1 4.4
4 1 9 38.3 19.9
5 1 9 14.1 4.8
6 1 9 4.1 8.8
-7 2 9 37.1 12.4
-6 2 9 2.4 2.8
-5 2 9 6.5 2.7
-4 2 9 16 3.2
-3 2 9 3.7 3.7
-2 2 9 58.09 3.3
-1 2 9 1.1 1.2
0 2 9 161.18 6.7
1 2 9 8.7 4.9
2 2 9 27.8 14.1
3 2 9 5.4 15.5
4 2 9 0 3
5 2 9 11.3 5
6 2 9 0 166.78
-7 3 9 6 4.2
-6 3 9 5.4 2.5
-5 3 9 31.1 3.7
-4 3 9 27.9 7.8
-3 3 9 16.4 7.1
-2 3 9 8.7 2.8
-1 3 9 26.8 2.9
0 3 9 5.5 2.4
1 3 9 0 12.6
2 3 9 54.09 18.9
3 3 9 11.2 20.3
4 3 9 20 13.1
5 3 9 2.6 4.5
-7 4 9 1.6 4.2
-6 4 9 1.3 3
-5 4 9 13.5 21.7
-4 4 9 0 4.6
-3 4 9 8.5 8.3
-2 4 9 11.2 3.3
-1 4 9 12.5 1.9
0 4 9 41.1 8.3
1 4 9 57.29 8.9
3 4 9 0 8.3
4 4 9 0 9.4
5 4 9 0 176.08
-6 5 9 6.7 5.7
-5 5 9 3.1 118.89
-4 5 9 3.7 18.4
-3 5 9 44.5 9.2
-2 5 9 10.4 4.3
-1 5 9 0 30.7
0 5 9 4.5 6
1 5 9 4.8 8.6
2 5 9 6.1 10.9
3 5 9 4.1 5.3
4 5 9 0 14.7
-4 6 9 10.3 11
-2 6 9 20.3 4.2
-1 6 9 20 36
0 6 9 23.4 7
1 6 9 36.8 11.6
2 6 9 14.5 5.9
3 6 9 5.6 6.1
0 7 9 7 9.1
1 7 9 3.5 4.1
2 7 9 3 5.6
-1 8 9 4.9 76.89
0 8 9 0 4.1
0 -11 10 0 8.3
1 -11 10 0 6.3
2 -11 10 5.7 3
-2 -10 10 2.2 2.9
-1 -10 10 20.8 128.69
0 -10 10 6.9 4.6
1 -10 10 1 65.59
2 -10 10 7.3 3.2
3 -10 10 3.8 3.8
4 -10 10 10 68.79
-3 -9 10 4.2 3.7
-2 -9 10 14.6 3.7
-1 -9 10 23.3 3.8
0 -9 10 0 6.2
1 -9 10 0.7 1.9
2 -9 10 5.3 2.7
3 -9 10 1 2.5
4 -9 10 0 8.4
-4 -8 10 13.4 3.7
-3 -8 10 1.2 1.7
-2 -8 10 12.9 4.9
-1 -8 10 4.8 4.1
0 -8 10 41.3 3.8
1 -8 10 1.3 1.7
2 -8 10 4.9 2.3
3 -8 10 0 5.6
4 -8 10 63.19 7.9
5 -8 10 2.2 3.3
-5 -7 10 5.9 3.9
-4 -7 10 1.7 1.9
-3 -7 10 26.5 4.8
-2 -7 10 36.5 3.9
-1 -7 10 7.9 3.5
0 -7 10 42.7 3.6
1 -7 10 1.7 1.6
2 -7 10 33.6 6.7
3 -7 10 7.6 3.5
4 -7 10 14 9.5
5 -7 10 11.2 4.2
-5 -6 10 0.1 1.6
-4 -6 10 4.2 3.8
-3 -6 10 17.6 3.5
-2 -6 10 0 5.9
-1 -6 10 1.8 1.8
0 -6 10 31.9 3.1
1 -6 10 43.1 4.3
2 -6 10 30.8 102.49
3 -6 10 18.5 8.3
4 -6 10 3.1 3.2
5 -6 10 2.5 2.8
6 -6 10 8.5 5.7
-6 -5 10 8.7 2.8
-5 -5 10 4.6 2
-4 -5 10 9.8 4.6
-3 -5 10 0 3.6
-2 -5 10 4.3 1.5
-1 -5 10 77.09 4.3
0 -5 10 68.49 4.1
1 -5 10 6.8 99.89
2 -5 10 37.9 153.18
3 -5 10 83.89 7.5
4 -5 10 1.4 2.7
5 -5 10 3 3
6 -5 10 43.9 11.7
-6 -4 10 1.1 2
-5 -4 10 14.5 5
-4 -4 10 0 2.8
-3 -4 10 4.7 2.5
-2 -4 10 117.89 5.6
-1 -4 10 20.4 3.3
0 -4 10 30.5 8.4
1 -4 10 97.09 8.1
2 -4 10 44.5 139.09
3 -4 10 4.9 3.8
4 -4 10 5.1 2.9
5 -4 10 0 8.2
6 -4 10 19.8 121.99
-6 -3 10 24.3 5.3
-5 -3 10 20.6 3.4
-4 -3 10 0 3.5
-3 -3 10 1.1 1.2
-2 -3 10 0.3 1.5
-1 -3 10 72.39 5.6
0 -3 10 110.49 7.3
1 -3 10 7.7 6.4
2 -3 10 52.59 7
3 -3 10 0.5 2.7
4 -3 10 17.9 9.5
5 -3 10 1.6 4.1
6 -3 10 11.7 9.9
-6 -2 10 0 4.4
-5 -2 10 7.9 4.1
-4 -2 10 20.3 2.8
-3 -2 10 54.69 3.4
-2 -2 10 10.7 2.1
-1 -2 10 32.2 4.4
0 -2 10 4.8 5.6
1 -2 10 45.9 4.2
2 -2 10 164.68 5.7
3 -2 10 2.5 2.1
4 -2 10 18.4 8.2
5 -2 10 0 8.1
6 -2 10 4.2 4.4
-7 -1 10 0 4.8
-6 -1 10 62.59 5.2
-5 -1 10 12.5 3.7
-4 -1 10 25.4 3.1
-3 -1 10 0.8 1.3
-2 -1 10 4.9 8.5
-1 -1 10 18.4 4.6
0 -1 10 0 2.5
1 -1 10 4.1 2.3
2 -1 10 2.2 1.7
3 -1 10 32.4 14
4 -1 10 51.89 8.9
5 -1 10 7.5 6.1
6 -1 10 0 4.5
-7 0 10 0.2 4.9
-6 0 10 3.2 6.8
-5 0 10 11.5 2
-4 0 10 77.29 3.8
-3 0 10 15.8 5
-2 0 10 70.39 12
-1 0 10 1.4 4.7
0 0 10 1.6 1.9
1 0 10 3.4 2.6
2 0 10 24.2 9
3 0 10 0 3.2
4 0 10 0 19.7
5 0 10 0.9 3.8
6 0 10 0.5 4.9
-7 1 10 2.1 3.2
-6 1 10 8.6 3.6
-5 1 10 5.3 4.2
-4 1 10 5.8 4.6
-3 1 10 10.8 9.6
-2 1 10 131.39 7.3
-1 1 10 7.8 1.9
0 1 10 151.28 7.3
1 1 10 3.2 3
2 1 10 0 6.7
3 1 10 30.4 18.6
4 1 10 4.1 3.9
5 1 10 3.1 4.4
-6 2 10 5.3 3.6
-5 2 10 10.4 3.5
-4 2 10 37.7 10
-3 2 10 0 5.4
-2 2 10 5.3 1.3
-1 2 10 42.9 4.1
0 2 10 67.39 5.5
1 2 10 102.49 10.4
2 2 10 114.59 94.89
3 2 10 2.1 131.79
4 2 10 0 9.3
5 2 10 0 4.6
-6 3 10 9.5 4
-5 3 10 14.6 128.89
-4 3 10 24.5 5.3
-3 3 10 76.99 10.5
-2 3 10 52.89 6.6
-1 3 10 1.6 1.8
0 3 10 6 41.8
1 3 10 21.5 4.7
2 3 10 24.8 123.39
4 3 10 94.99 21
-6 4 10 16.8 8
-5 4 10 24.4 17.3
-4 4 10 9.1 20.6
-3 4 10 0.6 2.7
-2 4 10 0 4.1
-1 4 10 52.59 4.8
0 4 10 1.7 4.7
1 4 10 25.1 101.99
2 4 10 0 147.99
3 4 10 0 11.1
-5 5 10 28.6 24.7
-4 5 10 7.5 5.2
-3 5 10 38.8 9
-2 5 10 6.8 4.7
-1 5 10 20.6 5.2
0 5 10 7.2 5.1
1 5 10 37.3 8.3
2 5 10 1.8 4.8
3 5 10 7.1 5.4
-4 6 10 0 9.5
-2 6 10 6.7 43.1
-1 6 10 5.3 24.2
0 6 10 0.1 9.6
1 6 10 16.4 4.4
2 6 10 10 5.7
-1 7 10 1.9 39.2
0 7 10 3 4.5
1 7 10 38.1 19.8
-1 -10 11 3.1 5.7
0 -10 11 4.3 7.1
1 -10 11 8.3 5.2
2 -10 11 1.7 2.6
-2 -9 11 18.3 7.6
-1 -9 11 9.6 12.2
0 -9 11 1.8 1.7
1 -9 11 1.1 2.5
2 -9 11 17.3 4.2
3 -9 11 13 7
4 -9 11 2 3.7
-3 -8 11 11 8
-2 -8 11 0 4.2
-1 -8 11 5.6 4.8
0 -8 11 3.6 1.8
1 -8 11 6.7 2.6
2 -8 11 0 4.7
3 -8 11 3.7 6.6
4 -8 11 24 13.2
-4 -7 11 0.6 9.1
-3 -7 11 7.4 3.9
-2 -7 11 0 4.5
-1 -7 11 3.2 1.8
0 -7 11 6.8 2
1 -7 11 15.4 3.6
2 -7 11 51.99 6.3
3 -7 11 0 8.2
4 -7 11 22.4 4.7
5 -7 11 1.2 3.1
-5 -6 11 1.7 2.1
-4 -6 11 37.8 7.2
-3 -6 11 0 4
-2 -6 11 1.1 2
-1 -6 11 3.5 2
0 -6 11 1 1.9
1 -6 11 56.19 10
2 -6 11 0 6.5
3 -6 11 25.8 4
4 -6 11 12.4 3.8
5 -6 11 1 3.6
-5 -5 11 6.7 5.6
-4 -5 11 9.4 4.6
-3 -5 11 0 11.1
-2 -5 11 77.39 5
-1 -5 11 21.4 3
0 -5 11 4.1 5.9
1 -5 11 21.5 7.9
2 -5 11 35.1 12.5
3 -5 11 36.5 5.3
4 -5 11 0 3.5
5 -5 11 0 113.99
-5 -4 11 42.5 5.9
-4 -4 11 2 4.2
-3 -4 11 3.9 1.7
-2 -4 11 51.49 4
-1 -4 11 34 4.9
0 -4 11 203.38 9.7
1 -4 11 0 5
2 -4 11 3.8 2.3
3 -4 11 57.09 6.9
4 -4 11 20.8 7.4
5 -4 11 0 45.7
-6 -3 11 8 5.2
-5 -3 11 7.7 5.4
-4 -3 11 17.1 3
-3 -3 11 6.3 2
-2 -3 11 12.2 2.9
-1 -3 11 4.2 7
0 -3 11 17.9 5.6
1 -3 11 15.4 2.4
2 -3 11 99.99 7.7
3 -3 11 4.5 3
4 -3 11 9.2 7.8
5 -3 11 0 101.09
-6 -2 11 10.3 4.9
-5 -2 11 3.5 2
-4 -2 11 2 1.6
-3 -2 11 0.5 1.6
-2 -2 11 54.49 4.9
-1 -2 11 4.4 4.1
0 -2 11 14.6 3.8
1 -2 11 1.8 1.8
2 -2 11 46.1 3.9
3 -2 11 10.3 7.7
4 -2 11 62.49 157.08
-6 -1 11 0 9.6
-5 -1 11 2.4 2.3
-4 -1 11 50.49 4.8
-3 -1 11 0 8.3
-2 -1 11 56.89 5.9
-1 -1 11 3.1 4.3
0 -1 11 34.8 4.2
1 -1 11 7.4 2.6
2 -1 11 0 8.2
3 -1 11 2.2 3.2
4 -1 11 3.2 6.5
5 -1 11 6.9 5.4
-6 0 11 0 3
-5 0 11 0.9 2.7
-4 0 11 6.5 3.3
-3 0 11 10.7 4.3
-2 0 11 80.49 9.3
-1 0 11 8 2.3
0 0 11 54.79 5
1 0 11 14.4 4.6
2 0 11 40.9 16.6
3 0 11 19.7 17.8
4 0 11 2 4
5 0 11 5.4 3.6
-6 1 11 0 4.1
-5 1 11 3.2 3.2
-4 1 11 19.3 5.9
-3 1 11 12.5 5.7
-2 1 11 13.3 2.9
-1 1 11 1.6 1.8
0 1 11 198.48 8.5
2 1 11 41.8 17.6
3 1 11 3.8 21.7
4 1 11 19 8.6
-6 2 11 1.6 4.1
-5 2 11 2.3 8.3
-4 2 11 2.7 4.6
-3 2 11 0 6.8
-2 2 11 9.6 4
-1 2 11 8.7 2.5
0 2 11 6.5 6.4
1 2 11 0 7.2
2 2 11 51.89 23.8
3 2 11 0 7.5
4 2 11 41.7 13.3
-5 3 11 5 7.9
-4 3 11 0 8.5
-3 3 11 12.7 4.2
-2 3 11 4.3 3.2
-1 3 11 0 79.89
0 3 11 6 74.59
2 3 11 26.5 135.09
3 3 11 18.6 14
-5 4 11 5.2 121.69
-4 4 11 25 7.1
-3 4 11 1.8 3.2
-2 4 11 14.4 5.1
-1 4 11 0 5.4
0 4 11 4.2 91.89
1 4 11 0 76.19
2 4 11 10.2 11.7
3 4 11 0 12.3
-4 5 11 22.9 6.9
-3 5 11 0.7 11.2
-1 5 11 41.7 3.8
0 5 11 7.8 7.7
1 5 11 4.4 3.7
2 5 11 1.3 5.3
-1 6 11 24.3 108.09
0 6 11 13.2 5.8
-1 -9 12 0 2.8
0 -9 12 5.3 5.3
1 -9 12 5.8 3.5
2 -9 12 2.6 9.7
-2 -8 12 2.6 138.39
-1 -8 12 3.1 2.7
0 -8 12 10.3 3.6
1 -8 12 0 9.4
2 -8 12 5.3 5.3
3 -8 12 0 9.5
-3 -7 12 0 7.8
-2 -7 12 7.6 2.7
-1 -7 12 6.7 2.7
0 -7 12 3.2 2.7
1 -7 12 4 4.7
2 -7 12 34.5 65.19
3 -7 12 9.6 3.3
4 -7 12 0.9 2.9
-4 -6 12 0 5.8
-3 -6 12 13.5 7.6
-2 -6 12 2.1 2.1
-1 -6 12 7.9 2.9
0 -6 12 17 7.1
1 -6 12 0 6.7
2 -6 12 6 54.59
3 -6 12 7.2 2.8
4 -6 12 8.6 4
-4 -5 12 32.1 9.6
-3 -5 12 14.5 3.5
-2 -5 12 3.3 1.9
-1 -5 12 5.8 6.8
0 -5 12 0 5.8
1 -5 12 3.8 7.4
2 -5 12 4.6 2.6
3 -5 12 2.6 2.7
4 -5 12 9.4 5.7
-4 -4 12 2.3 2.6
-3 -4 12 63.49 5.3
-2 -4 12 0.6 3.5
-1 -4 12 0 5.9
0 -4 12 0 8.2
1 -4 12 4.5 2.4
2 -4 12 29.5 5.2
3 -4 12 3.2 3.5
4 -4 12 0.3 67.39
-5 -3 12 15.7 3.4
-4 -3 12 4.5 2.3
-3 -3 12 4.7 2.3
-2 -3 12 8.5 4.6
-1 -3 12 73.29 7.1
0 -3 12 7.6 3.2
1 -3 12 0.6 2.7
2 -3 12 0.4 2.7
3 -3 12 6.2 8.5
-5 -2 12 8.5 2.6
-4 -2 12 1.8 1.9
-3 -2 12 0 4.7
-2 -2 12 7.5 2.7
-1 -2 12 0 6.8
0 -2 12 1.4 2.2
1 -2 12 5.6 3.4
2 -2 12 36.1 6.5
3 -2 12 0.3 3.6
-5 -1 12 48.1 3.8
-4 -1 12 2.9 2.5
-3 -1 12 16 6.1
-2 -1 12 4.2 6
-1 -1 12 3.4 2.3
0 -1 12 4 2.4
1 -1 12 60.19 6.9
2 -1 12 5.2 12
3 -1 12 5.9 9.3
4 -1 12 8.2 4.4
-5 0 12 0 3.7
-4 0 12 0 8
-3 0 12 0 4.3
-2 0 12 19.5 4.9
-1 0 12 0.2 2.2
0 0 12 0.6 2.1
1 0 12 0 5.3
2 0 12 2.4 9.8
3 0 12 9.3 6.1
4 0 12 11.4 5.8
-5 1 12 0 54.19
-4 1 12 0 4.3
-3 1 12 0 7.3
-2 1 12 0.1 1.9
-1 1 12 4.3 2.4
0 1 12 15.8 7.8
1 1 12 6.8 4.8
2 1 12 11.7 126.59
3 1 12 3 8.3
-5 2 12 0 8.1
-4 2 12 0 7.1
-3 2 12 0 3.1
-2 2 12 1.4 3.2
-1 2 12 7 5.2
0 2 12 3.9 43.3
1 2 12 15.9 10.4
2 2 12 3.8 13.1
3 2 12 6.3 12.8
-4 3 12 0.7 4.9
-3 3 12 6 3.9
-2 3 12 1.9 6.9
-1 3 12 18.9 82.69
0 3 12 0 52.19
1 3 12 0 142.79
2 3 12 0 10.7
-4 4 12 8.8 6
-3 4 12 6 5.4
-2 4 12 7 17.5
-1 4 12 6 5.6
0 4 12 5.6 70.09
1 4 12 7 6.6
-1 5 12 3.2 107.79
0 5 12 8.2 4.8
0 -8 13 1 2.9
1 -8 13 0 9.3
-2 -7 13 4.9 2.9
-1 -7 13 5.5 3
0 -7 13 12.1 8.3
1 -7 13 1.2 98.29
2 -7 13 0 160.38
-3 -6 13 1.4 3.2
-2 -6 13 2.1 2.8
-1 -6 13 20.5 9
0 -6 13 0 5.6
2 -6 13 3.8 3.4
3 -6 13 2.7 3.2
-3 -5 13 5.5 2.8
-2 -5 13 0.5 2.5
-1 -5 13 0 6.6
0 -5 13 2.1 95.09
1 -5 13 7.8 3.9
2 -5 13 2.4 3.1
3 -5 13 0.3 3.7
-4 -4 13 4.8 3.2
-3 -4 13 11.4 4.4
-2 -4 13 0 16.2
-1 -4 13 0 13.2
0 -4 13 1.7 2.7
1 -4 13 41 5.7
2 -4 13 4.8 3.3
-4 -3 13 2.7 2.8
-3 -3 13 28.9 8.7
-2 -3 13 7.6 3.4
-1 -3 13 14 8.4
0 -3 13 1.2 3.5
1 -3 13 15.8 3.5
2 -3 13 24.7 10.8
3 -3 13 1.4 46.8
-4 -2 13 1.6 2.7
-3 -2 13 0.1 8.1
-2 -2 13 12.2 9.2
-1 -2 13 10.2 3.9
0 -2 13 9.8 4.3
1 -2 13 4.5 4.1
2 -2 13 4 6.3
-4 -1 13 9.2 20.1
-3 -1 13 10.5 8.6
-2 -1 13 14.7 5.5
-1 -1 13 3.1 2.8
0 -1 13 8.6 3.3
1 -1 13 7.3 6.7
2 -1 13 19.5 120.49
3 -1 13 6.8 8
-4 0 13 4.2 14.3
-3 0 13 0 18.9
-2 0 13 4.5 3.6
-1 0 13 8.6 3.5
0 0 13 7.2 11.4
1 0 13 0.4 12.5
2 0 13 5.9 19.1
3 0 13 3.4 3.9
-3 1 13 6.5 4.8
-2 1 13 8.3 2.9
-1 1 13 0 10.2
0 1 13 8.8 76.69
1 1 13 3.8 11.8
2 1 13 0.4 5.3
-3 2 13 15.1 5.9
-2 2 13 3.7 5.2
-1 2 13 0 123.29
0 2 13 3.8 16.1
1 2 13 18 159.28
-2 3 13 16.2 175.58
-1 3 13 0 8.7
0 3 13 0 135.89
0 -6 14 23.3 4.7
1 -6 14 1.3 4.3
-2 -5 14 0 9.4
-1 -5 14 3.9 7.9
0 -5 14 1.2 4.6
1 -5 14 0.8 3.1
-2 -4 14 8.8 7.3
-1 -4 14 8.5 10.1
0 -4 14 14.3 4
1 -4 14 6.1 4.3
2 -4 14 0 129.39
-2 -3 14 6.1 60.69
-1 -3 14 0 4.3
0 -3 14 2.3 3.5
1 -3 14 1.2 3.9
2 -3 14 22.2 10.7
-3 -2 14 4 4
-2 -2 14 9.6 5.7
-1 -2 14 3.3 3.4
0 -2 14 12.4 4.7
1 -2 14 0 55.99
2 -2 14 0 8.5
-3 -1 14 2.7 4.2
-2 -1 14 0 4.1
-1 -1 14 2.7 3.6
0 -1 14 0.3 8.9
1 -1 14 0.6 6
-2 0 14 9.1 5.4
-1 0 14 10.3 11.4
0 0 14 7.7 8
1 0 14 7 5.1
-1 1 14 1.5 18.1
0 1 14 3.9 4.8
