#------------------------------------------------------------------------------
#$Date: 2016-03-25 09:05:18 +0200 (Fri, 25 Mar 2016) $
#$Revision: 179714 $
#$URL: svn://www.crystallography.net/cod/cif/7/00/16/7001651.cif $
#------------------------------------------------------------------------------
#
# This file is available in the Crystallography Open Database (COD),
# http://www.crystallography.net/
#
# All data on this site have been placed in the public domain by the
# contributors.
#
data_7001651
loop_
_publ_author_name
'Gronde, Ingo'
'Neumann, Beate'
'Willner, Alexander'
'Pape, Tania'
'Mitzel, Norbert W.'
_publ_section_title
;
 Syntheses and structures of
 (N&#x2032;,N&#x2032;-dimethylhydrazido)silanes
;
_journal_issue                   27
_journal_name_full               'Dalton Transactions'
_journal_page_first              5300
_journal_page_last               5309
_journal_paper_doi               10.1039/b900293f
_journal_year                    2009
_chemical_formula_moiety         'C6 H20 N4 Si'
_chemical_formula_sum            'C6 H20 N4 Si'
_chemical_formula_weight         176.35
_chemical_name_systematic
;
?
;
_space_group_IT_number           2
_symmetry_cell_setting           triclinic
_symmetry_space_group_name_Hall  '-P 1'
_symmetry_space_group_name_H-M   'P -1'
_atom_sites_solution_hydrogens   geom
_atom_sites_solution_primary     direct
_atom_sites_solution_secondary   difmap
_audit_creation_method           SHELXL-97
_cell_angle_alpha                117.443(15)
_cell_angle_beta                 97.648(17)
_cell_angle_gamma                92.130(18)
_cell_formula_units_Z            2
_cell_length_a                   8.239(8)
_cell_length_b                   8.702(9)
_cell_length_c                   8.730(9)
_cell_measurement_reflns_used    900
_cell_measurement_temperature    153(2)
_cell_measurement_theta_max      22.5
_cell_measurement_theta_min      1
_cell_volume                     547.1(10)
_computing_cell_refinement       'SAINT (Bruker AXS, 2000)'
_computing_data_collection       'SMART (Bruker AXS, 2000)'
_computing_data_reduction        'SAINT,SADABS (Bruker AXS, 2000)'
_computing_molecular_graphics
;
ORTEP3,L.J. Farrugia, J. Appl. Cryst. (1997) 30, 565
;
_computing_structure_refinement  'SHELXL-97 (Sheldrick, 1997)'
_computing_structure_solution    'SHELXS-97 (Sheldrick, 1990)'
_diffrn_ambient_temperature      153(2)
_diffrn_detector_area_resol_mean 80
_diffrn_measured_fraction_theta_full 0.937
_diffrn_measured_fraction_theta_max 0.937
_diffrn_measurement_device_type  'CCD area detector'
_diffrn_measurement_method       'Omega and Phi scans'
_diffrn_radiation_monochromator  graphite
_diffrn_radiation_source         'rotating anode'
_diffrn_radiation_type           MoK\a
_diffrn_radiation_wavelength     0.71073
_diffrn_reflns_av_R_equivalents  0.0405
_diffrn_reflns_av_sigmaI/netI    0.0745
_diffrn_reflns_limit_h_max       9
_diffrn_reflns_limit_h_min       -9
_diffrn_reflns_limit_k_max       9
_diffrn_reflns_limit_k_min       -9
_diffrn_reflns_limit_l_max       9
_diffrn_reflns_limit_l_min       -9
_diffrn_reflns_number            2368
_diffrn_reflns_theta_full        24.00
_diffrn_reflns_theta_max         24.00
_diffrn_reflns_theta_min         2.51
_exptl_absorpt_coefficient_mu    0.172
_exptl_absorpt_correction_T_max  0.9830
_exptl_absorpt_correction_T_min  0.9206
_exptl_absorpt_correction_type   multi-scan
_exptl_absorpt_process_details
;
Corrections were done with the SADABS program, utilizing the none merged
raw data obtained from the integration process. Integration and final cell
refinement were done with SAINT.

SADABS reports ratio of Tmin/Tmax = 0.426167

;
_exptl_crystal_colour            colourless
_exptl_crystal_density_diffrn    1.071
_exptl_crystal_density_method    'not measured'
_exptl_crystal_description       'transparent prism'
_exptl_crystal_F_000             196
_exptl_crystal_size_max          0.49
_exptl_crystal_size_mid          0.15
_exptl_crystal_size_min          0.10
_refine_diff_density_max         0.566
_refine_diff_density_min         -0.384
_refine_diff_density_rms         0.065
_refine_ls_extinction_method     none
_refine_ls_goodness_of_fit_ref   1.013
_refine_ls_hydrogen_treatment    noref
_refine_ls_matrix_type           full
_refine_ls_number_parameters     114
_refine_ls_number_reflns         1600
_refine_ls_number_restraints     0
_refine_ls_restrained_S_all      1.013
_refine_ls_R_factor_all          0.0845
_refine_ls_R_factor_gt           0.0591
_refine_ls_shift/su_max          0.000
_refine_ls_shift/su_mean         0.000
_refine_ls_structure_factor_coef Fsqd
_refine_ls_weighting_details
'calc w=1/[\s^2^(Fo^2^)+(0.0923P)^2^+0.0000P] where P=(Fo^2^+2Fc^2^)/3'
_refine_ls_weighting_scheme      calc
_refine_ls_wR_factor_gt          0.1416
_refine_ls_wR_factor_ref         0.1551
_reflns_number_gt                1192
_reflns_number_total             1600
_reflns_threshold_expression     >2sigma(I)
_cod_data_source_file            b900293f.txt
_cod_data_source_block           comp_2
_cod_original_sg_symbol_H-M      P-1
_cod_database_code               7001651
loop_
_symmetry_equiv_pos_as_xyz
'x, y, z'
'-x, -y, -z'
loop_
_atom_site_label
_atom_site_type_symbol
_atom_site_fract_x
_atom_site_fract_y
_atom_site_fract_z
_atom_site_U_iso_or_equiv
_atom_site_adp_type
_atom_site_occupancy
_atom_site_symmetry_multiplicity
_atom_site_calc_flag
_atom_site_refinement_flags
_atom_site_disorder_assembly
_atom_site_disorder_group
Si1 Si 0.40519(12) 0.80892(12) 0.63588(12) 0.0231(3) Uani 1 1 d . . .
N1 N 0.6095(4) 0.7858(4) 0.6667(4) 0.0304(8) Uani 1 1 d . . .
H1N H 0.640(4) 0.699(4) 0.677(4) 0.018(9) Uiso 1 1 d . . .
N2 N 0.7317(3) 0.9068(4) 0.6678(4) 0.0283(7) Uani 1 1 d . . .
N3 N 0.3133(4) 0.7572(4) 0.4288(4) 0.0295(8) Uani 1 1 d . . .
H3N H 0.298(4) 0.822(4) 0.395(4) 0.007(9) Uiso 1 1 d . . .
N4 N 0.2816(3) 0.5804(4) 0.2971(4) 0.0260(7) Uani 1 1 d . . .
C1 C 0.3735(5) 1.0400(5) 0.7700(5) 0.0345(9) Uani 1 1 d . . .
H1A H 0.4215 1.1109 0.7233 0.052 Uiso 1 1 calc R . .
H1B H 0.4270 1.0808 0.8914 0.052 Uiso 1 1 calc R . .
H1C H 0.2552 1.0505 0.7662 0.052 Uiso 1 1 calc R . .
C2 C 0.3069(5) 0.6614(5) 0.7030(5) 0.0324(9) Uani 1 1 d . . .
H2A H 0.1880 0.6696 0.6929 0.049 Uiso 1 1 calc R . .
H2B H 0.3536 0.6948 0.8248 0.049 Uiso 1 1 calc R . .
H2C H 0.3269 0.5414 0.6271 0.049 Uiso 1 1 calc R . .
C3 C 0.8324(5) 0.9971(5) 0.8404(5) 0.0440(11) Uani 1 1 d . . .
H3A H 0.7628 1.0603 0.9272 0.066 Uiso 1 1 calc R . .
H3B H 0.9172 1.0798 0.8416 0.066 Uiso 1 1 calc R . .
H3C H 0.8851 0.9123 0.8690 0.066 Uiso 1 1 calc R . .
C4 C 0.8343(5) 0.8159(5) 0.5383(5) 0.0361(10) Uani 1 1 d . . .
H4A H 0.8893 0.7316 0.5659 0.054 Uiso 1 1 calc R . .
H4B H 0.9173 0.9001 0.5393 0.054 Uiso 1 1 calc R . .
H4C H 0.7656 0.7546 0.4220 0.054 Uiso 1 1 calc R . .
C5 C 0.3653(5) 0.5508(5) 0.1515(5) 0.0362(10) Uani 1 1 d . . .
H5A H 0.3228 0.6208 0.0969 0.054 Uiso 1 1 calc R . .
H5B H 0.3458 0.4270 0.0650 0.054 Uiso 1 1 calc R . .
H5C H 0.4839 0.5844 0.1941 0.054 Uiso 1 1 calc R . .
C6 C 0.1061(4) 0.5348(5) 0.2381(5) 0.0412(10) Uani 1 1 d . . .
H6A H 0.0522 0.5484 0.3364 0.062 Uiso 1 1 calc R . .
H6B H 0.0841 0.4136 0.1455 0.062 Uiso 1 1 calc R . .
H6C H 0.0628 0.6116 0.1922 0.062 Uiso 1 1 calc R . .
loop_
_atom_site_aniso_label
_atom_site_aniso_U_11
_atom_site_aniso_U_22
_atom_site_aniso_U_33
_atom_site_aniso_U_23
_atom_site_aniso_U_13
_atom_site_aniso_U_12
Si1 0.0252(6) 0.0254(6) 0.0216(5) 0.0136(4) 0.0052(4) -0.0025(4)
N1 0.0314(19) 0.0258(19) 0.043(2) 0.0247(16) 0.0066(14) -0.0027(14)
N2 0.0251(17) 0.0301(17) 0.0301(17) 0.0158(14) 0.0016(13) -0.0045(12)
N3 0.041(2) 0.029(2) 0.0258(18) 0.0208(16) 0.0007(13) 0.0005(14)
N4 0.0262(17) 0.0284(18) 0.0231(16) 0.0123(13) 0.0050(12) -0.0045(12)
C1 0.039(2) 0.031(2) 0.036(2) 0.0171(18) 0.0082(17) 0.0005(16)
C2 0.035(2) 0.037(2) 0.031(2) 0.0208(18) 0.0081(16) -0.0042(16)
C3 0.042(3) 0.043(3) 0.040(2) 0.017(2) -0.0028(19) -0.0069(19)
C4 0.034(2) 0.038(2) 0.042(2) 0.0231(19) 0.0110(18) -0.0016(17)
C5 0.042(2) 0.041(2) 0.031(2) 0.0195(19) 0.0155(18) 0.0027(17)
C6 0.033(2) 0.044(3) 0.040(2) 0.015(2) 0.0047(18) -0.0068(17)
loop_
_atom_type_symbol
_atom_type_description
_atom_type_scat_dispersion_real
_atom_type_scat_dispersion_imag
_atom_type_scat_source
C C 0.0033 0.0016 'International Tables Vol C Tables 4.2.6.8 and 6.1.1.4'
H H 0.0000 0.0000 'International Tables Vol C Tables 4.2.6.8 and 6.1.1.4'
N N 0.0061 0.0033 'International Tables Vol C Tables 4.2.6.8 and 6.1.1.4'
Si Si 0.0817 0.0704 'International Tables Vol C Tables 4.2.6.8 and 6.1.1.4'
loop_
_geom_angle_atom_site_label_1
_geom_angle_atom_site_label_2
_geom_angle_atom_site_label_3
_geom_angle
_geom_angle_site_symmetry_1
_geom_angle_site_symmetry_3
_geom_angle_publ_flag
N1 Si1 N3 117.21(16) . . ?
N1 Si1 C2 104.07(18) . . ?
N3 Si1 C2 108.62(17) . . ?
N1 Si1 C1 109.44(17) . . ?
N3 Si1 C1 104.65(18) . . ?
C2 Si1 C1 113.12(18) . . ?
N2 N1 Si1 121.3(3) . . ?
N2 N1 H1N 118(2) . . ?
Si1 N1 H1N 120(2) . . ?
N1 N2 C4 110.0(3) . . ?
N1 N2 C3 109.1(3) . . ?
C4 N2 C3 109.8(3) . . ?
N1 N2 H3N 130.7(7) . 2_676 ?
C4 N2 H3N 97.1(7) . 2_676 ?
C3 N2 H3N 98.5(7) . 2_676 ?
N4 N3 Si1 120.3(3) . . ?
N4 N3 H3N 114(2) . . ?
Si1 N3 H3N 125(2) . . ?
N3 N4 C6 109.3(3) . . ?
N3 N4 C5 111.0(3) . . ?
C6 N4 C5 110.5(3) . . ?
N3 N4 H1N 127.9(7) . 2_666 ?
C6 N4 H1N 99.9(7) . 2_666 ?
C5 N4 H1N 96.9(7) . 2_666 ?
Si1 C1 H1A 109.5 . . ?
Si1 C1 H1B 109.5 . . ?
H1A C1 H1B 109.5 . . ?
Si1 C1 H1C 109.5 . . ?
H1A C1 H1C 109.5 . . ?
H1B C1 H1C 109.5 . . ?
Si1 C2 H2A 109.5 . . ?
Si1 C2 H2B 109.5 . . ?
H2A C2 H2B 109.5 . . ?
Si1 C2 H2C 109.5 . . ?
H2A C2 H2C 109.5 . . ?
H2B C2 H2C 109.5 . . ?
N2 C3 H3A 109.5 . . ?
N2 C3 H3B 109.5 . . ?
H3A C3 H3B 109.5 . . ?
N2 C3 H3C 109.5 . . ?
H3A C3 H3C 109.5 . . ?
H3B C3 H3C 109.5 . . ?
N2 C4 H4A 109.5 . . ?
N2 C4 H4B 109.5 . . ?
H4A C4 H4B 109.5 . . ?
N2 C4 H4C 109.5 . . ?
H4A C4 H4C 109.5 . . ?
H4B C4 H4C 109.5 . . ?
N4 C5 H5A 109.5 . . ?
N4 C5 H5B 109.5 . . ?
H5A C5 H5B 109.5 . . ?
N4 C5 H5C 109.5 . . ?
H5A C5 H5C 109.5 . . ?
H5B C5 H5C 109.5 . . ?
N4 C6 H6A 109.5 . . ?
N4 C6 H6B 109.5 . . ?
H6A C6 H6B 109.5 . . ?
N4 C6 H6C 109.5 . . ?
H6A C6 H6C 109.5 . . ?
H6B C6 H6C 109.5 . . ?
loop_
_geom_bond_atom_site_label_1
_geom_bond_atom_site_label_2
_geom_bond_distance
_geom_bond_site_symmetry_2
_geom_bond_publ_flag
Si1 N1 1.703(4) . ?
Si1 N3 1.704(4) . ?
Si1 C2 1.841(4) . ?
Si1 C1 1.853(4) . ?
N1 N2 1.425(4) . ?
N1 H1N 0.84(4) . ?
N2 C4 1.448(5) . ?
N2 C3 1.450(5) . ?
N2 H3N 2.67(3) 2_676 ?
N3 N4 1.420(4) . ?
N3 H3N 0.75(3) . ?
N4 C6 1.444(5) . ?
N4 C5 1.450(4) . ?
N4 H1N 2.64(4) 2_666 ?
C1 H1A 0.9800 . ?
C1 H1B 0.9800 . ?
C1 H1C 0.9800 . ?
C2 H2A 0.9800 . ?
C2 H2B 0.9800 . ?
C2 H2C 0.9800 . ?
C3 H3A 0.9800 . ?
C3 H3B 0.9800 . ?
C3 H3C 0.9800 . ?
C4 H4A 0.9800 . ?
C4 H4B 0.9800 . ?
C4 H4C 0.9800 . ?
C5 H5A 0.9800 . ?
C5 H5B 0.9800 . ?
C5 H5C 0.9800 . ?
C6 H6A 0.9800 . ?
C6 H6B 0.9800 . ?
C6 H6C 0.9800 . ?
loop_
_geom_hbond_atom_site_label_D
_geom_hbond_atom_site_label_H
_geom_hbond_atom_site_label_A
_geom_hbond_distance_DH
_geom_hbond_distance_HA
_geom_hbond_distance_DA
_geom_hbond_angle_DHA
_geom_hbond_site_symmetry_A
N1 H1N N4 0.84(4) 2.64(4) 3.483(6) 176.65 2_666
N3 H3N N2 0.76(3) 2.67(3) 3.416(6) 169.94 2_676
