#------------------------------------------------------------------------------
#$Date: 2016-03-25 10:24:34 +0200 (Fri, 25 Mar 2016) $
#$Revision: 179749 $
#$URL: svn://www.crystallography.net/cod/cif/7/00/45/7004549.cif $
#------------------------------------------------------------------------------
#
# This file is available in the Crystallography Open Database (COD),
# http://www.crystallography.net/
#
# All data on this site have been placed in the public domain by the
# contributors.
#
data_7004549
loop_
_publ_author_name
'Lin, Jiao-Min'
'Guan, Yang-Fan'
'Wang, Dong-Yao'
'Dong, Wen'
'Wang, Xiu-Teng'
'Gao, Song'
_publ_section_title
;
 Syntheses, structures and properties of seven isomorphous 1D
 Ln3+complexes Ln(BTA)(HCOO)(H2O)3 (H2BTA = bis(tetrazoly)amine, Ln =
 Pr, Gd, Eu, Tb, Dy, Er, Yb) and two 3D Ln3+ complexes Ln(HCOO)3 (Ln =
 Pr, Nd)
;
_journal_issue                   44
_journal_name_full               'Dalton Transactions'
_journal_page_first              6165
_journal_page_last               6169
_journal_paper_doi               10.1039/b808394k
_journal_year                    2008
_chemical_formula_sum            'C3 H2 Dy N9 O5'
_chemical_formula_weight         406.64
_chemical_name_systematic
;
?
;
_space_group_IT_number           42
_symmetry_cell_setting           orthorhombic
_symmetry_space_group_name_Hall  'F 2 -2'
_symmetry_space_group_name_H-M   'F m m 2'
_atom_sites_solution_hydrogens   geom
_atom_sites_solution_primary     direct
_atom_sites_solution_secondary   difmap
_audit_creation_method           SHELXL-97
_cell_angle_alpha                90.00
_cell_angle_beta                 90.00
_cell_angle_gamma                90.00
_cell_formula_units_Z            4
_cell_length_a                   6.6654(4)
_cell_length_b                   11.2803(6)
_cell_length_c                   14.2135(7)
_cell_measurement_temperature    296(2)
_cell_measurement_theta_max      27.460
_cell_volume                     1068.68(10)
_computing_cell_refinement       'SAINT (Bruker, 2001-2005)'
_computing_data_collection       'SMART (Bruker, 2001-2005)'
_computing_data_reduction        SAINT
_computing_molecular_graphics    'SHELXTL (Bruker, 2001-2005)'
_computing_publication_material  SHELXTL
_computing_structure_refinement  'SHELXL-97 (Sheldrick, 1997)'
_computing_structure_solution    'SHELXS-97 (Sheldrick, 1997)'
_diffrn_ambient_temperature      296(2)
_diffrn_measured_fraction_theta_full 1.000
_diffrn_measured_fraction_theta_max 1.000
_diffrn_measurement_device_type  'Bruker SMART APEX CCD area detector'
_diffrn_measurement_method       '\f and \w scans'
_diffrn_radiation_monochromator  graphite
_diffrn_radiation_source         'fine-focus sealed tube'
_diffrn_radiation_type           MoK\a
_diffrn_radiation_wavelength     0.71073
_diffrn_reflns_av_R_equivalents  0.0303
_diffrn_reflns_av_sigmaI/netI    0.0213
_diffrn_reflns_limit_h_max       8
_diffrn_reflns_limit_h_min       -8
_diffrn_reflns_limit_k_max       14
_diffrn_reflns_limit_k_min       -14
_diffrn_reflns_limit_l_max       18
_diffrn_reflns_limit_l_min       -18
_diffrn_reflns_number            4036
_diffrn_reflns_theta_full        27.46
_diffrn_reflns_theta_max         27.46
_diffrn_reflns_theta_min         2.87
_exptl_absorpt_coefficient_mu    7.027
_exptl_absorpt_correction_T_max  0.396
_exptl_absorpt_correction_T_min  0.299
_exptl_absorpt_correction_type   multi-scan
_exptl_absorpt_process_details   'SADABS (Sheldrick, 1996)'
_exptl_crystal_colour            colourless
_exptl_crystal_density_diffrn    2.527
_exptl_crystal_density_meas      ?
_exptl_crystal_density_method    .
_exptl_crystal_description       needle
_exptl_crystal_F_000             756
_exptl_crystal_size_max          0.224
_exptl_crystal_size_mid          0.148
_exptl_crystal_size_min          0.132
_refine_diff_density_max         0.833
_refine_diff_density_min         -1.169
_refine_diff_density_rms         0.266
_refine_ls_abs_structure_details 'Flack H D (1983), Acta Cryst. A39, 876-881'
_refine_ls_abs_structure_Flack   0.47(3)
_refine_ls_extinction_coef       0.0033(3)
_refine_ls_extinction_expression Fc^*^=kFc[1+0.001xFc^2^\l^3^/sin(2\q)]^-1/4^
_refine_ls_extinction_method     SHELXL
_refine_ls_goodness_of_fit_ref   1.184
_refine_ls_hydrogen_treatment    constr
_refine_ls_matrix_type           full
_refine_ls_number_parameters     60
_refine_ls_number_reflns         701
_refine_ls_number_restraints     1
_refine_ls_restrained_S_all      1.183
_refine_ls_R_factor_all          0.0194
_refine_ls_R_factor_gt           0.0194
_refine_ls_shift/su_max          0.000
_refine_ls_shift/su_mean         0.000
_refine_ls_structure_factor_coef Fsqd
_refine_ls_weighting_details
'calc w=1/[\s^2^(Fo^2^)+(0.0343P)^2^+0.0000P] where P=(Fo^2^+2Fc^2^)/3'
_refine_ls_weighting_scheme      calc
_refine_ls_wR_factor_gt          0.0483
_refine_ls_wR_factor_ref         0.0483
_reflns_number_gt                701
_reflns_number_total             701
_reflns_threshold_expression     >2sigma(I)
_cod_data_source_file            b808394k.txt
_cod_data_source_block           ba
_cod_original_sg_symbol_H-M      Fmm2
_cod_database_code               7004549
loop_
_symmetry_equiv_pos_as_xyz
'x, y, z'
'-x, -y, z'
'x, -y, z'
'-x, y, z'
'x, y+1/2, z+1/2'
'-x, -y+1/2, z+1/2'
'x, -y+1/2, z+1/2'
'-x, y+1/2, z+1/2'
'x+1/2, y, z+1/2'
'-x+1/2, -y, z+1/2'
'x+1/2, -y, z+1/2'
'-x+1/2, y, z+1/2'
'x+1/2, y+1/2, z'
'-x+1/2, -y+1/2, z'
'x+1/2, -y+1/2, z'
'-x+1/2, y+1/2, z'
loop_
_atom_site_label
_atom_site_type_symbol
_atom_site_fract_x
_atom_site_fract_y
_atom_site_fract_z
_atom_site_U_iso_or_equiv
_atom_site_adp_type
_atom_site_occupancy
_atom_site_symmetry_multiplicity
_atom_site_calc_flag
_atom_site_refinement_flags
_atom_site_disorder_assembly
_atom_site_disorder_group
Dy1 Dy 1.0000 0.5000 0.44060(4) 0.01351(16) Uani 1 4 d S . .
N5 N 1.0000 0.5000 0.7224(6) 0.0241(19) Uani 1 4 d S . .
H5 H 1.0000 0.5000 0.7829 0.029 Uiso 1 4 calc SR . .
N1 N 1.0000 0.6260(5) 0.5860(4) 0.0224(12) Uani 1 2 d S . .
C1 C 1.0000 0.6070(6) 0.6773(5) 0.0203(13) Uani 1 2 d S . .
O1 O 0.6625(7) 0.5000 0.444(2) 0.0425(16) Uani 1 2 d S . .
C2 C 0.5000 0.5000 0.4056(8) 0.026(2) Uani 1 4 d S . .
H2 H 0.5000 0.5000 0.3402 0.031 Uiso 1 4 calc SR . .
N3 N 1.0000 0.7986(17) 0.6570(10) 0.027(4) Uani 1 2 d S . .
N4 N 1.0000 0.7131(15) 0.7218(10) 0.025(4) Uani 1 2 d S . .
N2 N 1.0000 0.7467(5) 0.5765(5) 0.0281(13) Uani 1 2 d S . .
O2 O 1.0000 0.3053(5) 0.3958(4) 0.0410(16) Uani 1 2 d S . .
O3 O 1.0000 0.5000 0.2757(6) 0.043(3) Uani 1 4 d S . .
loop_
_atom_site_aniso_label
_atom_site_aniso_U_11
_atom_site_aniso_U_22
_atom_site_aniso_U_33
_atom_site_aniso_U_23
_atom_site_aniso_U_13
_atom_site_aniso_U_12
Dy1 0.0153(2) 0.01443(19) 0.01080(19) 0.000 0.000 0.000
N5 0.049(6) 0.014(4) 0.009(3) 0.000 0.000 0.000
N1 0.034(3) 0.014(3) 0.018(3) 0.000(2) 0.000 0.000
C1 0.029(3) 0.017(3) 0.014(3) -0.001(2) 0.000 0.000
O1 0.015(2) 0.052(3) 0.061(4) 0.000 0.008(8) 0.000
C2 0.032(6) 0.028(5) 0.018(4) 0.000 0.000 0.000
N3 0.052(9) 0.020(6) 0.010(6) 0.006(4) 0.000 0.000
N4 0.048(9) 0.006(4) 0.022(7) -0.011(4) 0.000 0.000
N2 0.042(4) 0.013(3) 0.029(3) -0.003(2) 0.000 0.000
O2 0.085(5) 0.021(3) 0.017(3) -0.001(2) 0.000 0.000
O3 0.098(9) 0.015(4) 0.017(4) 0.000 0.000 0.000
loop_
_atom_type_symbol
_atom_type_description
_atom_type_scat_dispersion_real
_atom_type_scat_dispersion_imag
_atom_type_scat_source
C C 0.0033 0.0016 'International Tables Vol C Tables 4.2.6.8 and 6.1.1.4'
H H 0.0000 0.0000 'International Tables Vol C Tables 4.2.6.8 and 6.1.1.4'
N N 0.0061 0.0033 'International Tables Vol C Tables 4.2.6.8 and 6.1.1.4'
O O 0.0106 0.0060 'International Tables Vol C Tables 4.2.6.8 and 6.1.1.4'
Dy Dy -0.1892 4.4098 'International Tables Vol C Tables 4.2.6.8 and 6.1.1.4'
loop_
_geom_angle_atom_site_label_1
_geom_angle_atom_site_label_2
_geom_angle_atom_site_label_3
_geom_angle
_geom_angle_site_symmetry_1
_geom_angle_site_symmetry_3
_geom_angle_publ_flag
O1 Dy1 O1 177.6(16) 2_765 . ?
O1 Dy1 O2 90.3(2) 2_765 . ?
O1 Dy1 O2 90.3(2) . . ?
O1 Dy1 O2 90.3(2) 2_765 2_765 ?
O1 Dy1 O2 90.3(2) . 2_765 ?
O2 Dy1 O2 147.7(3) . 2_765 ?
O1 Dy1 O3 91.2(8) 2_765 . ?
O1 Dy1 O3 91.2(8) . . ?
O2 Dy1 O3 73.84(15) . . ?
O2 Dy1 O3 73.84(15) 2_765 . ?
O1 Dy1 N1 89.0(6) 2_765 . ?
O1 Dy1 N1 89.0(6) . . ?
O2 Dy1 N1 140.7(2) . . ?
O2 Dy1 N1 71.6(2) 2_765 . ?
O3 Dy1 N1 145.48(14) . . ?
O1 Dy1 N1 89.0(6) 2_765 2_765 ?
O1 Dy1 N1 89.0(6) . 2_765 ?
O2 Dy1 N1 71.6(2) . 2_765 ?
O2 Dy1 N1 140.7(2) 2_765 2_765 ?
O3 Dy1 N1 145.48(14) . 2_765 ?
N1 Dy1 N1 69.0(3) . 2_765 ?
C1 N5 C1 124.1(8) 2_765 . ?
C1 N5 H5 117.9 2_765 . ?
C1 N5 H5 117.9 . . ?
C1 N1 N2 105.1(6) . . ?
C1 N1 Dy1 136.1(5) . . ?
N2 N1 Dy1 118.8(5) . . ?
N1 C1 N4 108.4(9) . . ?
N1 C1 N5 127.3(7) . . ?
N4 C1 N5 124.2(9) . . ?
C2 O1 Dy1 152(2) . . ?
O1 C2 O1 127(3) . 2_665 ?
O1 C2 H2 116.6 . . ?
O1 C2 H2 116.6 2_665 . ?
N2 N3 N4 106.6(10) . . ?
N3 N4 C1 108.5(8) . . ?
N3 N2 N1 111.4(9) . . ?
loop_
_geom_bond_atom_site_label_1
_geom_bond_atom_site_label_2
_geom_bond_distance
_geom_bond_site_symmetry_2
_geom_bond_publ_flag
Dy1 O1 2.250(4) 2_765 ?
Dy1 O1 2.250(4) . ?
Dy1 O2 2.287(6) . ?
Dy1 O2 2.287(6) 2_765 ?
Dy1 O3 2.344(8) . ?
Dy1 N1 2.509(6) . ?
Dy1 N1 2.509(6) 2_765 ?
N5 C1 1.366(8) 2_765 ?
N5 C1 1.366(8) . ?
N5 H5 0.8600 . ?
N1 C1 1.315(9) . ?
N1 N2 1.368(8) . ?
C1 N4 1.354(17) . ?
O1 C2 1.212(16) . ?
C2 O1 1.212(16) 2_665 ?
C2 H2 0.9300 . ?
N3 N2 1.286(17) . ?
N3 N4 1.334(10) . ?
