#------------------------------------------------------------------------------
#$Date: 2016-03-25 10:24:34 +0200 (Fri, 25 Mar 2016) $
#$Revision: 179749 $
#$URL: svn://www.crystallography.net/cod/cif/7/00/45/7004546.cif $
#------------------------------------------------------------------------------
#
# This file is available in the Crystallography Open Database (COD),
# http://www.crystallography.net/
#
# All data on this site have been placed in the public domain by the
# contributors.
#
data_7004546
loop_
_publ_author_name
'Lin, Jiao-Min'
'Guan, Yang-Fan'
'Wang, Dong-Yao'
'Dong, Wen'
'Wang, Xiu-Teng'
'Gao, Song'
_publ_section_title
;
 Syntheses, structures and properties of seven isomorphous 1D
 Ln3+complexes Ln(BTA)(HCOO)(H2O)3 (H2BTA = bis(tetrazoly)amine, Ln =
 Pr, Gd, Eu, Tb, Dy, Er, Yb) and two 3D Ln3+ complexes Ln(HCOO)3 (Ln =
 Pr, Nd)
;
_journal_issue                   44
_journal_name_full               'Dalton Transactions'
_journal_page_first              6165
_journal_page_last               6169
_journal_paper_doi               10.1039/b808394k
_journal_year                    2008
_chemical_formula_sum            'C3 H2 N9 O5 Yb'
_chemical_formula_weight         417.18
_chemical_name_systematic
;
?
;
_space_group_IT_number           42
_symmetry_cell_setting           orthorhombic
_symmetry_space_group_name_Hall  'F 2 -2'
_symmetry_space_group_name_H-M   'F m m 2'
_atom_sites_solution_hydrogens   geom
_atom_sites_solution_primary     direct
_atom_sites_solution_secondary   difmap
_audit_creation_method           SHELXL-97
_cell_angle_alpha                90.00
_cell_angle_beta                 90.00
_cell_angle_gamma                90.00
_cell_formula_units_Z            4
_cell_length_a                   6.5671(7)
_cell_length_b                   11.2158(13)
_cell_length_c                   14.1583(16)
_cell_measurement_reflns_used    699
_cell_measurement_temperature    296(2)
_cell_measurement_theta_max      27.560
_cell_measurement_theta_min      2.88
_cell_volume                     1042.8(2)
_computing_cell_refinement       'SAINT (Bruker, 2001-2005)'
_computing_data_collection       'SMART (Bruker, 2001-2005)'
_computing_data_reduction        SAINT
_computing_molecular_graphics    'SHELXTL (Bruker, 2001-2005)'
_computing_publication_material  SHELXTL
_computing_structure_refinement  'SHELXL-97 (Sheldrick, 1997)'
_computing_structure_solution    'SHELXS-97 (Sheldrick, 1997)'
_diffrn_ambient_temperature      296(2)
_diffrn_measured_fraction_theta_full 1.000
_diffrn_measured_fraction_theta_max 1.000
_diffrn_measurement_device_type  'Bruker SMART APEX CCD area detector'
_diffrn_measurement_method       '\f and \w scans'
_diffrn_radiation_monochromator  graphite
_diffrn_radiation_source         'fine-focus sealed tube'
_diffrn_radiation_type           MoK\a
_diffrn_radiation_wavelength     0.71073
_diffrn_reflns_av_R_equivalents  0.0223
_diffrn_reflns_av_sigmaI/netI    0.0152
_diffrn_reflns_limit_h_max       8
_diffrn_reflns_limit_h_min       -8
_diffrn_reflns_limit_k_max       14
_diffrn_reflns_limit_k_min       -14
_diffrn_reflns_limit_l_max       18
_diffrn_reflns_limit_l_min       -18
_diffrn_reflns_number            4113
_diffrn_reflns_theta_full        27.56
_diffrn_reflns_theta_max         27.56
_diffrn_reflns_theta_min         2.88
_exptl_absorpt_coefficient_mu    9.004
_exptl_absorpt_correction_T_max  0.310
_exptl_absorpt_correction_T_min  0.183
_exptl_absorpt_correction_type   multi-scan
_exptl_absorpt_process_details   'SADABS (Sheldrick, 1996)'
_exptl_crystal_colour            colourless
_exptl_crystal_density_diffrn    2.657
_exptl_crystal_density_meas      ?
_exptl_crystal_density_method    .
_exptl_crystal_description       needle
_exptl_crystal_F_000             772.0
_exptl_crystal_size_max          0.240
_exptl_crystal_size_mid          0.165
_exptl_crystal_size_min          0.130
_refine_diff_density_max         0.538
_refine_diff_density_min         -0.429
_refine_diff_density_rms         0.109
_refine_ls_abs_structure_details 'Flack H D (1983), Acta Cryst. A39, 876-881'
_refine_ls_abs_structure_Flack   0.49(3)
_refine_ls_extinction_coef       0.0043(3)
_refine_ls_extinction_expression Fc^*^=kFc[1+0.001xFc^2^\l^3^/sin(2\q)]^-1/4^
_refine_ls_extinction_method     SHELXL
_refine_ls_goodness_of_fit_ref   1.134
_refine_ls_hydrogen_treatment    refall
_refine_ls_matrix_type           full
_refine_ls_number_parameters     60
_refine_ls_number_reflns         699
_refine_ls_number_restraints     1
_refine_ls_restrained_S_all      1.133
_refine_ls_R_factor_all          0.0156
_refine_ls_R_factor_gt           0.0156
_refine_ls_shift/su_max          0.001
_refine_ls_shift/su_mean         0.000
_refine_ls_structure_factor_coef Fsqd
_refine_ls_weighting_details
'calc w=1/[\s^2^(Fo^2^)+(0.0302P)^2^+1.6054P] where P=(Fo^2^+2Fc^2^)/3'
_refine_ls_weighting_scheme      calc
_refine_ls_wR_factor_gt          0.0397
_refine_ls_wR_factor_ref         0.0397
_reflns_number_gt                699
_reflns_number_total             699
_reflns_threshold_expression     >2sigma(I)
_cod_data_source_file            b808394k.txt
_cod_data_source_block           yb3
_cod_original_sg_symbol_H-M      Fmm2
_cod_database_code               7004546
loop_
_symmetry_equiv_pos_as_xyz
'x, y, z'
'-x, -y, z'
'x, -y, z'
'-x, y, z'
'x, y+1/2, z+1/2'
'-x, -y+1/2, z+1/2'
'x, -y+1/2, z+1/2'
'-x, y+1/2, z+1/2'
'x+1/2, y, z+1/2'
'-x+1/2, -y, z+1/2'
'x+1/2, -y, z+1/2'
'-x+1/2, y, z+1/2'
'x+1/2, y+1/2, z'
'-x+1/2, -y+1/2, z'
'x+1/2, -y+1/2, z'
'-x+1/2, y+1/2, z'
loop_
_atom_site_label
_atom_site_type_symbol
_atom_site_fract_x
_atom_site_fract_y
_atom_site_fract_z
_atom_site_U_iso_or_equiv
_atom_site_adp_type
_atom_site_occupancy
_atom_site_symmetry_multiplicity
_atom_site_calc_flag
_atom_site_refinement_flags
_atom_site_disorder_assembly
_atom_site_disorder_group
Yb2 Yb 1.0000 0.5000 0.35120(4) 0.01230(13) Uani 1 4 d S . .
N3 N 1.0000 0.3744(5) 0.2081(4) 0.0204(10) Uani 1 2 d S . .
O3 O 1.0000 0.5000 0.5141(5) 0.045(2) Uani 1 4 d S . .
N5 N 1.0000 0.2025(15) 0.1362(9) 0.024(3) Uani 1 2 d S . .
N6 N 1.0000 0.2881(14) 0.0701(10) 0.024(3) Uani 1 2 d S . .
N4 N 1.0000 0.2528(5) 0.2176(4) 0.0254(12) Uani 1 2 d S . .
C4 C 1.0000 0.3924(6) 0.1149(4) 0.0197(12) Uani 1 2 d S . .
O1 O 0.6648(5) 0.5000 0.350(2) 0.0391(10) Uani 1 2 d S . .
N8 N 1.0000 0.5000 0.0700(5) 0.0238(17) Uani 1 4 d S . .
H8 H 1.0000 0.5000 0.0093 0.029 Uiso 1 4 calc SR . .
O2 O 1.0000 0.3082(5) 0.3960(4) 0.0384(14) Uani 1 2 d S . .
C3 C 0.5000 0.5000 0.3847(7) 0.0198(16) Uani 1 4 d S . .
H3 H 0.5000 0.5000 0.4503 0.024 Uiso 1 4 calc SR . .
loop_
_atom_site_aniso_label
_atom_site_aniso_U_11
_atom_site_aniso_U_22
_atom_site_aniso_U_33
_atom_site_aniso_U_23
_atom_site_aniso_U_13
_atom_site_aniso_U_12
Yb2 0.01351(16) 0.01280(16) 0.01058(16) 0.000 0.000 0.000
N3 0.031(3) 0.016(2) 0.015(2) -0.0004(18) 0.000 0.000
O3 0.099(8) 0.019(4) 0.016(3) 0.000 0.000 0.000
N5 0.045(8) 0.016(5) 0.012(5) 0.005(3) 0.000 0.000
N6 0.041(8) 0.011(5) 0.019(6) -0.005(3) 0.000 0.000
N4 0.042(3) 0.012(2) 0.022(2) -0.003(2) 0.000 0.000
C4 0.026(3) 0.018(3) 0.015(3) 0.001(2) 0.000 0.000
O1 0.0125(17) 0.046(2) 0.059(3) 0.000 0.000(9) 0.000
N8 0.051(5) 0.010(3) 0.011(3) 0.000 0.000 0.000
O2 0.079(4) 0.019(2) 0.018(2) 0.0022(19) 0.000 0.000
C3 0.025(4) 0.017(4) 0.018(3) 0.000 0.000 0.000
loop_
_atom_type_symbol
_atom_type_description
_atom_type_scat_dispersion_real
_atom_type_scat_dispersion_imag
_atom_type_scat_source
C C 0.0033 0.0016 'International Tables Vol C Tables 4.2.6.8 and 6.1.1.4'
H H 0.0000 0.0000 'International Tables Vol C Tables 4.2.6.8 and 6.1.1.4'
N N 0.0061 0.0033 'International Tables Vol C Tables 4.2.6.8 and 6.1.1.4'
O O 0.0106 0.0060 'International Tables Vol C Tables 4.2.6.8 and 6.1.1.4'
Yb Yb -0.3850 5.5486 'International Tables Vol C Tables 4.2.6.8 and 6.1.1.4'
loop_
_geom_angle_atom_site_label_1
_geom_angle_atom_site_label_2
_geom_angle_atom_site_label_3
_geom_angle
_geom_angle_site_symmetry_1
_geom_angle_site_symmetry_3
_geom_angle_publ_flag
O1 Yb2 O1 179.5(15) . 2_765 ?
O1 Yb2 O2 90.1(2) . 2_765 ?
O1 Yb2 O2 90.1(2) 2_765 2_765 ?
O1 Yb2 O2 90.1(2) . . ?
O1 Yb2 O2 90.1(2) 2_765 . ?
O2 Yb2 O2 147.2(3) 2_765 . ?
O1 Yb2 O3 90.3(7) . . ?
O1 Yb2 O3 90.3(7) 2_765 . ?
O2 Yb2 O3 73.59(14) 2_765 . ?
O2 Yb2 O3 73.59(13) . . ?
O1 Yb2 N3 89.8(6) . 2_765 ?
O1 Yb2 N3 89.8(6) 2_765 2_765 ?
O2 Yb2 N3 71.61(19) 2_765 2_765 ?
O2 Yb2 N3 141.20(18) . 2_765 ?
O3 Yb2 N3 145.20(13) . 2_765 ?
O1 Yb2 N3 89.8(6) . . ?
O1 Yb2 N3 89.8(6) 2_765 . ?
O2 Yb2 N3 141.20(18) 2_765 . ?
O2 Yb2 N3 71.61(19) . . ?
O3 Yb2 N3 145.20(13) . . ?
N3 Yb2 N3 69.6(3) 2_765 . ?
C4 N3 N4 104.3(5) . . ?
C4 N3 Yb2 136.5(4) . . ?
N4 N3 Yb2 119.1(4) . . ?
N4 N5 N6 108.2(9) . . ?
C4 N6 N5 107.2(7) . . ?
N5 N4 N3 110.4(8) . . ?
N6 C4 N3 109.8(8) . . ?
N6 C4 N8 123.8(8) . . ?
N3 C4 N8 126.4(6) . . ?
C3 O1 Yb2 156(2) . . ?
C4 N8 C4 124.5(8) 2_765 . ?
O1 C3 O1 132(3) 2_665 . ?
loop_
_geom_bond_atom_site_label_1
_geom_bond_atom_site_label_2
_geom_bond_distance
_geom_bond_site_symmetry_2
_geom_bond_publ_flag
Yb2 O1 2.201(4) . ?
Yb2 O1 2.201(4) 2_765 ?
Yb2 O2 2.243(5) 2_765 ?
Yb2 O2 2.243(5) . ?
Yb2 O3 2.306(8) . ?
Yb2 N3 2.468(5) 2_765 ?
Yb2 N3 2.468(5) . ?
N3 C4 1.334(8) . ?
N3 N4 1.371(7) . ?
N5 N4 1.282(16) . ?
N5 N6 1.341(8) . ?
N6 C4 1.330(16) . ?
C4 N8 1.364(7) . ?
O1 C3 1.186(13) . ?
N8 C4 1.364(7) 2_765 ?
C3 O1 1.186(13) 2_665 ?
