#------------------------------------------------------------------------------
#$Date: 2016-03-25 11:17:38 +0200 (Fri, 25 Mar 2016) $
#$Revision: 179783 $
#$URL: svn://www.crystallography.net/cod/cif/7/00/79/7007946.cif $
#------------------------------------------------------------------------------
#
# This file is available in the Crystallography Open Database (COD),
# http://www.crystallography.net/
#
# All data on this site have been placed in the public domain by the
# contributors.
#
data_7007946
loop_
_publ_author_name
'Colis, Julie Clarissa F.'
'Larochelle, Christie'
'Staples, Richard'
'Herbst-Irmer, Regine'
'Patterson, Howard'
_publ_section_title
;
 Structural studies of lanthanide ion complexes of pure gold, pure
 silver and mixed metal (gold-silver) dicyanides.
;
_journal_issue                   4
_journal_name_full
'Dalton transactions (Cambridge, England : 2003)'
_journal_page_first              675
_journal_page_last               679
_journal_paper_doi               10.1039/b413967d
_journal_year                    2005
_chemical_formula_sum            'C6 H6 Ag3 La N6 O3'
_chemical_formula_weight         672.69
_space_group_IT_number           193
_symmetry_cell_setting           trigonal
_symmetry_Int_Tables_number      193
_symmetry_space_group_name_Hall  '-P 6c 2'
_symmetry_space_group_name_H-M   'P 63/m c m'
_atom_sites_solution_hydrogens   geom
_atom_sites_solution_primary     direct
_atom_sites_solution_secondary   difmap
_audit_creation_method           SHELXL-97
_cell_angle_alpha                90.00
_cell_angle_beta                 90.00
_cell_angle_gamma                120.00
_cell_formula_units_Z            2
_cell_length_a                   6.717(2)
_cell_length_b                   6.717(2)
_cell_length_c                   18.951(2)
_cell_measurement_reflns_used    4362
_cell_measurement_temperature    213(2)
_cell_measurement_theta_max      23.27
_cell_measurement_theta_min      3.50
_cell_volume                     740.5(3)
_computing_cell_refinement       'SMART (BRUKER, V5.054, 1998)'
_computing_data_collection       'ASTRO (BRUKER, V5.007, 1997)'
_computing_data_reduction        'SAINT (BRUKER, V6.01, 1999)'
_computing_molecular_graphics    'SHELXTL (BRUKER, 1998, V5.1)'
_computing_publication_material  'XCIF (Sheldrick and BRUKER, 1997, V5.1)'
_computing_structure_refinement  'SHELXL-97 (Sheldrick, 1997)'
_computing_structure_solution    'SHELXS-97 (Sheldrick, 1990)'
_diffrn_ambient_temperature      213(2)
_diffrn_detector_area_resol_mean 836.6
_diffrn_measured_fraction_theta_full 1.000
_diffrn_measured_fraction_theta_max 1.000
_diffrn_measurement_device_type  'Bruker CCD'
_diffrn_measurement_method       '\w, 0.3 deg'
_diffrn_radiation_monochromator  graphite
_diffrn_radiation_probe          x-ray
_diffrn_radiation_type           MoK\a
_diffrn_radiation_wavelength     0.71073
_diffrn_reflns_av_R_equivalents  0.0229
_diffrn_reflns_av_sigmaI/netI    0.0072
_diffrn_reflns_limit_h_max       8
_diffrn_reflns_limit_h_min       -8
_diffrn_reflns_limit_k_max       8
_diffrn_reflns_limit_k_min       -8
_diffrn_reflns_limit_l_max       25
_diffrn_reflns_limit_l_min       -25
_diffrn_reflns_number            13376
_diffrn_reflns_theta_full        28.29
_diffrn_reflns_theta_max         28.29
_diffrn_reflns_theta_min         2.15
_diffrn_source                   'normal-focus sealed tube'
_diffrn_standards_decay_%        0
_diffrn_standards_interval_count 0
_diffrn_standards_number         0
_exptl_absorpt_coefficient_mu    6.744
_exptl_absorpt_correction_T_max  0.914451
_exptl_absorpt_correction_T_min  0.559403
_exptl_absorpt_correction_type   empirical
_exptl_absorpt_process_details   SADABS
_exptl_crystal_colour            colorless
_exptl_crystal_density_diffrn    3.017
_exptl_crystal_density_method    'not measured'
_exptl_crystal_description       block_cube
_exptl_crystal_F_000             612
_exptl_crystal_size_max          0.10
_exptl_crystal_size_mid          0.10
_exptl_crystal_size_min          0.10
_refine_diff_density_max         0.466
_refine_diff_density_min         -0.356
_refine_diff_density_rms         0.088
_refine_ls_extinction_method     none
_refine_ls_goodness_of_fit_ref   1.297
_refine_ls_hydrogen_treatment    constr
_refine_ls_matrix_type           full
_refine_ls_number_parameters     23
_refine_ls_number_reflns         364
_refine_ls_number_restraints     0
_refine_ls_restrained_S_all      1.297
_refine_ls_R_factor_all          0.0177
_refine_ls_R_factor_gt           0.0173
_refine_ls_shift/su_max          0.000
_refine_ls_shift/su_mean         0.000
_refine_ls_structure_factor_coef Fsqd
_refine_ls_weighting_details
'calc w=1/[\s^2^(Fo^2^)+(0.0140P)^2^+1.6378P] where P=(Fo^2^+2Fc^2^)/3'
_refine_ls_weighting_scheme      calc
_refine_ls_wR_factor_gt          0.0415
_refine_ls_wR_factor_ref         0.0417
_reflns_number_gt                361
_reflns_number_total             364
_reflns_threshold_expression     >2sigma(I)
_cod_data_source_file            b413967d.txt
_cod_data_source_block           hp3r
_cod_depositor_comments
;
The following automatic conversions were performed:
'_exptl_absorpt_correction_type' value 'Empirical' changed to 'empirical'
according to '/home/saulius/struct/CIF-dictionaries/cif_core.dic'
dictionary named 'cif_core.dic' version 2.4.1 from 2010-06-29.

Automatic conversion script
Id: cif_fix_enum 1527 2010-12-29 10:47:43Z saulius 
;
_cod_database_code               7007946
loop_
_symmetry_equiv_pos_as_xyz
'x, y, z'
'-y, x-y, z'
'-x+y, -x, z'
'-x, -y, z+1/2'
'y, -x+y, z+1/2'
'x-y, x, z+1/2'
'y, x, -z+1/2'
'x-y, -y, -z+1/2'
'-x, -x+y, -z+1/2'
'-y, -x, -z'
'-x+y, y, -z'
'x, x-y, -z'
'-x, -y, -z'
'y, -x+y, -z'
'x-y, x, -z'
'x, y, -z-1/2'
'-y, x-y, -z-1/2'
'-x+y, -x, -z-1/2'
'-y, -x, z-1/2'
'-x+y, y, z-1/2'
'x, x-y, z-1/2'
'y, x, z'
'x-y, -y, z'
'-x, -x+y, z'
loop_
_atom_site_label
_atom_site_type_symbol
_atom_site_fract_x
_atom_site_fract_y
_atom_site_fract_z
_atom_site_U_iso_or_equiv
_atom_site_adp_type
_atom_site_occupancy
_atom_site_symmetry_multiplicity
_atom_site_calc_flag
_atom_site_refinement_flags
_atom_site_disorder_assembly
_atom_site_disorder_group
La1 La 0.0000 0.0000 0.2500 0.01233(13) Uani 1 12 d S . .
Ag1 Ag 0.5000 0.5000 0.0000 0.03120(14) Uani 1 4 d S . .
N1 N 0.2708(5) 0.2708(5) 0.14807(15) 0.0259(6) Uani 1 2 d S . .
C1 C 0.3515(6) 0.3515(6) 0.09501(17) 0.0240(7) Uani 1 2 d S . .
O1 O 0.3765(6) 0.0000 0.2500 0.0403(11) Uani 1 4 d S . .
H1 H 0.4177 0.0000 0.2087 0.048 Uiso 1 2 calc SR . .
loop_
_atom_site_aniso_label
_atom_site_aniso_U_11
_atom_site_aniso_U_22
_atom_site_aniso_U_33
_atom_site_aniso_U_23
_atom_site_aniso_U_13
_atom_site_aniso_U_12
La1 0.01451(15) 0.01451(15) 0.00795(19) 0.000 0.000 0.00726(8)
Ag1 0.0368(2) 0.0368(2) 0.01995(19) 0.01278(14) 0.01278(14) 0.01843(19)
N1 0.0256(11) 0.0256(11) 0.0220(13) 0.0044(10) 0.0044(10) 0.0094(14)
C1 0.0233(12) 0.0233(12) 0.0222(14) 0.0028(12) 0.0028(12) 0.0092(14)
O1 0.0329(15) 0.088(4) 0.0183(15) 0.000 0.000 0.0441(18)
loop_
_atom_type_symbol
_atom_type_description
_atom_type_scat_dispersion_real
_atom_type_scat_dispersion_imag
_atom_type_scat_source
C C 0.0033 0.0016 'International Tables Vol C Tables 4.2.6.8 and 6.1.1.4'
H H 0.0000 0.0000 'International Tables Vol C Tables 4.2.6.8 and 6.1.1.4'
N N 0.0061 0.0033 'International Tables Vol C Tables 4.2.6.8 and 6.1.1.4'
O O 0.0106 0.0060 'International Tables Vol C Tables 4.2.6.8 and 6.1.1.4'
Ag Ag -0.8971 1.1015 'International Tables Vol C Tables 4.2.6.8 and 6.1.1.4'
La La -0.2871 2.4523 'International Tables Vol C Tables 4.2.6.8 and 6.1.1.4'
loop_
_geom_angle_atom_site_label_1
_geom_angle_atom_site_label_2
_geom_angle_atom_site_label_3
_geom_angle
_geom_angle_site_symmetry_1
_geom_angle_site_symmetry_3
_geom_angle_publ_flag
O1 La1 O1 120.0 3 2 ?
O1 La1 O1 120.0 3 . ?
O1 La1 O1 120.000(1) 2 . ?
O1 La1 N1 133.28(7) 3 16_556 ?
O1 La1 N1 69.95(3) 2 16_556 ?
O1 La1 N1 69.95(3) . 16_556 ?
O1 La1 N1 69.95(3) 3 2 ?
O1 La1 N1 69.95(3) 2 2 ?
O1 La1 N1 133.28(7) . 2 ?
N1 La1 N1 139.91(5) 16_556 2 ?
O1 La1 N1 69.95(3) 3 3 ?
O1 La1 N1 133.28(7) 2 3 ?
O1 La1 N1 69.95(3) . 3 ?
N1 La1 N1 139.91(5) 16_556 3 ?
N1 La1 N1 72.84(10) 2 3 ?
O1 La1 N1 69.95(3) 3 17_556 ?
O1 La1 N1 69.95(3) 2 17_556 ?
O1 La1 N1 133.28(7) . 17_556 ?
N1 La1 N1 72.84(10) 16_556 17_556 ?
N1 La1 N1 93.45(13) 2 17_556 ?
N1 La1 N1 139.91(5) 3 17_556 ?
O1 La1 N1 69.95(3) 3 18_556 ?
O1 La1 N1 133.28(7) 2 18_556 ?
O1 La1 N1 69.95(3) . 18_556 ?
N1 La1 N1 72.84(10) 16_556 18_556 ?
N1 La1 N1 139.91(5) 2 18_556 ?
N1 La1 N1 93.45(13) 3 18_556 ?
N1 La1 N1 72.84(10) 17_556 18_556 ?
O1 La1 N1 133.28(7) 3 . ?
O1 La1 N1 69.95(3) 2 . ?
O1 La1 N1 69.95(3) . . ?
N1 La1 N1 93.45(13) 16_556 . ?
N1 La1 N1 72.84(10) 2 . ?
N1 La1 N1 72.84(10) 3 . ?
N1 La1 N1 139.91(5) 17_556 . ?
N1 La1 N1 139.91(5) 18_556 . ?
C1 Ag1 C1 180.0(2) . 13_665 ?
C1 Ag1 Ag1 75.98(5) . 2_655 ?
C1 Ag1 Ag1 104.02(5) 13_665 2_655 ?
C1 Ag1 Ag1 104.02(5) . 2_665 ?
C1 Ag1 Ag1 75.98(5) 13_665 2_665 ?
Ag1 Ag1 Ag1 180.0 2_655 2_665 ?
C1 Ag1 Ag1 75.98(5) . 3_565 ?
C1 Ag1 Ag1 104.02(5) 13_665 3_565 ?
Ag1 Ag1 Ag1 120.0 2_655 3_565 ?
Ag1 Ag1 Ag1 60.0 2_665 3_565 ?
C1 Ag1 Ag1 104.02(5) . 3_665 ?
C1 Ag1 Ag1 75.98(5) 13_665 3_665 ?
Ag1 Ag1 Ag1 60.0 2_655 3_665 ?
Ag1 Ag1 Ag1 120.0 2_665 3_665 ?
Ag1 Ag1 Ag1 180.0 3_565 3_665 ?
C1 N1 La1 165.1(3) . . ?
N1 C1 Ag1 179.3(4) . . ?
La1 O1 H1 109.5 . . ?
loop_
_geom_bond_atom_site_label_1
_geom_bond_atom_site_label_2
_geom_bond_distance
_geom_bond_site_symmetry_2
_geom_bond_publ_flag
La1 O1 2.529(4) 3 ?
La1 O1 2.529(4) 2 ?
La1 O1 2.529(4) . ?
La1 N1 2.653(3) 16_556 ?
La1 N1 2.653(3) 2 ?
La1 N1 2.653(3) 3 ?
La1 N1 2.653(3) 17_556 ?
La1 N1 2.653(3) 18_556 ?
La1 N1 2.653(3) . ?
Ag1 C1 2.058(3) . ?
Ag1 C1 2.058(3) 13_665 ?
Ag1 Ag1 3.3585(10) 2_655 ?
Ag1 Ag1 3.3585(10) 2_665 ?
Ag1 Ag1 3.3585(10) 3_565 ?
Ag1 Ag1 3.3585(10) 3_665 ?
N1 C1 1.142(4) . ?
O1 H1 0.8300 . ?
loop_
_geom_torsion_atom_site_label_1
_geom_torsion_atom_site_label_2
_geom_torsion_atom_site_label_3
_geom_torsion_atom_site_label_4
_geom_torsion
_geom_torsion_site_symmetry_1
_geom_torsion_site_symmetry_2
_geom_torsion_site_symmetry_3
_geom_torsion_site_symmetry_4
_geom_torsion_publ_flag
O1 La1 N1 C1 0.000(1) 3 . . . ?
O1 La1 N1 C1 -112.80(2) 2 . . . ?
O1 La1 N1 C1 112.80(2) . . . . ?
N1 La1 N1 C1 180.000(1) 16_556 . . . ?
N1 La1 N1 C1 -38.41(3) 2 . . . ?
N1 La1 N1 C1 38.42(3) 3 . . . ?
N1 La1 N1 C1 -112.80(2) 17_556 . . . ?
N1 La1 N1 C1 112.80(2) 18_556 . . . ?
La1 N1 C1 Ag1 180(4) . . . . ?
C1 Ag1 C1 N1 0(100) 13_665 . . . ?
Ag1 Ag1 C1 N1 116.79(4) 2_655 . . . ?
Ag1 Ag1 C1 N1 -63.21(4) 2_665 . . . ?
Ag1 Ag1 C1 N1 -116.80(2) 3_565 . . . ?
Ag1 Ag1 C1 N1 63.20(2) 3_665 . . . ?
