#------------------------------------------------------------------------------
#$Date: 2016-03-25 12:49:53 +0200 (Fri, 25 Mar 2016) $
#$Revision: 179817 $
#$URL: svn://www.crystallography.net/cod/cif/7/01/13/7011318.cif $
#------------------------------------------------------------------------------
#
# This file is available in the Crystallography Open Database (COD),
# http://www.crystallography.net/
#
# All data on this site have been placed in the public domain by the
# contributors.
#
data_7011318
loop_
_publ_author_name
'Somer Bekiroglu'
'Olof Kristiansson'
_publ_section_title
;
 Hydrogen-bonded neutral and anionic lamellar networks: Crystal
 structures of bis(O,O',O&#x2033;-hydroorotato)disilver(I) dihydrate,
 potassium hydroorotate and rubidium hydroorotate. Ab initio
 calculations on orotic acid and the hydroorotate anion
;
_journal_issue                   7
_journal_name_full               'J. Chem. Soc., Dalton Trans.'
_journal_page_first              1330
_journal_page_last               1335
_journal_paper_doi               10.1039/b110386p
_journal_year                    2002
_chemical_formula_sum            'C5 H3 K N2 O4'
_chemical_formula_weight         194.19
_chemical_name_systematic
; 
potassium hydroorotate 
;
_space_group_IT_number           67
_symmetry_cell_setting           orthorhombic
_symmetry_space_group_name_Hall  '-C 2a 2'
_symmetry_space_group_name_H-M   'C m m a'
_atom_sites_solution_hydrogens   geom
_atom_sites_solution_primary     direct
_atom_sites_solution_secondary   difmap
_audit_creation_method           SHELXL-97
_cell_angle_alpha                90.00
_cell_angle_beta                 90.00
_cell_angle_gamma                90.00
_cell_formula_units_Z            4
_cell_length_a                   6.834(3)
_cell_length_b                   12.565(6)
_cell_length_c                   7.668(4)
_cell_measurement_reflns_used    370
_cell_measurement_temperature    295(2)
_cell_measurement_theta_max      25.96
_cell_measurement_theta_min      2.66
_cell_volume                     658.4(5)
_computing_cell_refinement       'Bruker SMART and SAINT (1998)'
_computing_data_collection       'Bruker SMART (1998)'
_computing_data_reduction        'Bruker SAINT (1998)'
_computing_molecular_graphics    'Bruker SHELXTL (1998)'
_computing_publication_material  'Bruker SHELXTL (1998)'
_computing_structure_refinement  'Bruker SHELXTL (1998)'
_computing_structure_solution    'Bruker SHELXTL (1998)'
_diffrn_ambient_temperature      295(2)
_diffrn_measured_fraction_theta_full 0.995
_diffrn_measured_fraction_theta_max 0.995
_diffrn_measurement_device_type  'Bruker SMART CCD diffractometer'
_diffrn_measurement_method       'Omega scans'
_diffrn_radiation_monochromator  graphite
_diffrn_radiation_source         'fine-focus sealed tube'
_diffrn_radiation_type           MoK\a
_diffrn_radiation_wavelength     0.71073
_diffrn_reflns_av_R_equivalents  0.0304
_diffrn_reflns_av_sigmaI/netI    0.0226
_diffrn_reflns_limit_h_max       8
_diffrn_reflns_limit_h_min       -8
_diffrn_reflns_limit_k_max       15
_diffrn_reflns_limit_k_min       -12
_diffrn_reflns_limit_l_max       9
_diffrn_reflns_limit_l_min       -4
_diffrn_reflns_number            1541
_diffrn_reflns_theta_full        25.96
_diffrn_reflns_theta_max         25.96
_diffrn_reflns_theta_min         2.66
_diffrn_standards_decay_%
;
Neglible as determined from a repetition of the first
50 frames at the end of the experiment
;
_exptl_absorpt_coefficient_mu    0.777
_exptl_absorpt_correction_type   none
_exptl_crystal_colour            colourless
_exptl_crystal_density_diffrn    1.959
_exptl_crystal_density_method    'not measured'
_exptl_crystal_description       prism
_exptl_crystal_F_000             392
_exptl_crystal_size_max          0.25
_exptl_crystal_size_mid          0.20
_exptl_crystal_size_min          0.18
_refine_diff_density_max         0.968
_refine_diff_density_min         -0.805
_refine_diff_density_rms         0.166
_refine_ls_extinction_coef       0.08(2)
_refine_ls_extinction_expression Fc^*^=kFc[1+0.001xFc^2^\l^3^/sin(2\q)]^-1/4^
_refine_ls_extinction_method     SHELXL
_refine_ls_goodness_of_fit_ref   1.276
_refine_ls_hydrogen_treatment    mixed
_refine_ls_matrix_type           full
_refine_ls_number_parameters     53
_refine_ls_number_reflns         370
_refine_ls_number_restraints     1
_refine_ls_restrained_S_all      1.274
_refine_ls_R_factor_all          0.1222
_refine_ls_R_factor_gt           0.0794
_refine_ls_shift/su_max          0.000
_refine_ls_shift/su_mean         0.000
_refine_ls_structure_factor_coef Fsqd
_refine_ls_weighting_details
'calc w=1/[\s^2^(Fo^2^)+(0.1223P)^2^+4.0418P] where P=(Fo^2^+2Fc^2^)/3'
_refine_ls_weighting_scheme      calc
_refine_ls_wR_factor_gt          0.2167
_refine_ls_wR_factor_ref         0.2616
_reflns_number_gt                251
_reflns_number_total             370
_reflns_threshold_expression     >2sigma(I)
_cod_data_source_file            b110386p.txt
_cod_data_source_block           potassiumhydroorotate
_cod_depositor_comments
;
The following automatic conversions were performed:
'_symmetry_cell_setting' value 'Orthorhombic' changed to 'orthorhombic'
according to '/home/saulius/struct/CIF-dictionaries/cif_core.dic'
dictionary named 'cif_core.dic' version 2.4.1 from 2010-06-29.

Automatic conversion script
Id: cif_fix_enum 1527 2010-12-29 10:47:43Z saulius 
;
_cod_original_sg_symbol_H-M      Cmma
_cod_database_code               7011318
loop_
_symmetry_equiv_pos_as_xyz
'x, y, z'
'-x, -y+1/2, z'
'-x, y+1/2, -z'
'x, -y, -z'
'x+1/2, y+1/2, z'
'-x+1/2, -y+1, z'
'-x+1/2, y+1, -z'
'x+1/2, -y+1/2, -z'
'-x, -y, -z'
'x, y-1/2, -z'
'x, -y-1/2, z'
'-x, y, z'
'-x+1/2, -y+1/2, -z'
'x+1/2, y, -z'
'x+1/2, -y, z'
'-x+1/2, y+1/2, z'
loop_
_atom_site_label
_atom_site_type_symbol
_atom_site_fract_x
_atom_site_fract_y
_atom_site_fract_z
_atom_site_U_iso_or_equiv
_atom_site_adp_type
_atom_site_occupancy
_atom_site_symmetry_multiplicity
_atom_site_calc_flag
_atom_site_refinement_flags
_atom_site_disorder_assembly
_atom_site_disorder_group
K1 K 0.2500 0.5000 0.0000 0.0582(13) Uani 1 4 d S . .
O2 O 0.0000 0.6615(6) 0.1004(9) 0.077(2) Uani 1 2 d S . .
O3 O 0.0000 0.5686(5) 0.7210(7) 0.065(2) Uani 1 2 d S . .
N1 N 0.0000 0.6555(6) 0.4552(10) 0.052(2) Uani 0.50 2 d SP . .
C5 C 0.0000 0.6555(6) 0.4552(10) 0.052(2) Uani 0.50 2 d SP . .
N3 N 0.0000 0.7500 0.7188(13) 0.051(3) Uani 1 4 d SD . .
C2 C 0.0000 0.6519(7) 0.6376(11) 0.051(2) Uani 1 2 d S . .
C6 C 0.0000 0.7500 0.3670(13) 0.043(3) Uani 1 4 d S . .
C7 C 0.0000 0.7500 0.1681(15) 0.055(3) Uani 1 4 d S . .
H1 H 0.0000 0.582(5) 0.388(9) 0.021(13) Uiso 1 2 d S . .
H3 H 0.0000 0.7500 0.8268(19) 0.021(13) Uiso 1 4 d SD . .
loop_
_atom_site_aniso_label
_atom_site_aniso_U_11
_atom_site_aniso_U_22
_atom_site_aniso_U_33
_atom_site_aniso_U_23
_atom_site_aniso_U_13
_atom_site_aniso_U_12
K1 0.070(2) 0.0551(19) 0.0491(18) 0.000 0.000 0.000
O2 0.099(6) 0.083(5) 0.049(4) -0.026(4) 0.000 0.000
O3 0.099(5) 0.055(4) 0.039(3) 0.011(3) 0.000 0.000
N1 0.058(5) 0.044(5) 0.052(5) 0.003(3) 0.000 0.000
C5 0.058(5) 0.044(5) 0.052(5) 0.003(3) 0.000 0.000
N3 0.066(7) 0.056(6) 0.030(4) 0.000 0.000 0.000
C2 0.059(5) 0.052(5) 0.042(5) 0.007(4) 0.000 0.000
C6 0.056(7) 0.049(6) 0.024(5) 0.000 0.000 0.000
C7 0.059(8) 0.073(9) 0.033(6) 0.000 0.000 0.000
loop_
_atom_type_symbol
_atom_type_description
_atom_type_scat_dispersion_real
_atom_type_scat_dispersion_imag
_atom_type_scat_source
C C 0.0033 0.0016 'International Tables Vol C Tables 4.2.6.8 and 6.1.1.4'
H H 0.0000 0.0000 'International Tables Vol C Tables 4.2.6.8 and 6.1.1.4'
N N 0.0061 0.0033 'International Tables Vol C Tables 4.2.6.8 and 6.1.1.4'
O O 0.0106 0.0060 'International Tables Vol C Tables 4.2.6.8 and 6.1.1.4'
K K 0.2009 0.2494 'International Tables Vol C Tables 4.2.6.8 and 6.1.1.4'
loop_
_geom_angle_atom_site_label_1
_geom_angle_atom_site_label_2
_geom_angle_atom_site_label_3
_geom_angle
_geom_angle_site_symmetry_1
_geom_angle_site_symmetry_3
_geom_angle_publ_flag
O2 K1 O2 147.6(3) 9_565 14 ?
O2 K1 O2 103.59(19) 9_565 . ?
O2 K1 O2 85.4(3) 14 . ?
O2 K1 O2 85.4(3) 9_565 6 ?
O2 K1 O2 103.59(19) 14 6 ?
O2 K1 O2 147.6(3) . 6 ?
O2 K1 O3 142.8(2) 9_565 14_556 ?
O2 K1 O3 67.60(18) 14 14_556 ?
O2 K1 O3 86.55(14) . 14_556 ?
O2 K1 O3 69.2(2) 6 14_556 ?
O2 K1 O3 69.2(2) 9_565 1_554 ?
O2 K1 O3 86.55(14) 14 1_554 ?
O2 K1 O3 67.60(18) . 1_554 ?
O2 K1 O3 142.8(2) 6 1_554 ?
O3 K1 O3 145.0(2) 14_556 1_554 ?
O2 K1 O3 86.55(14) 9_565 6_554 ?
O2 K1 O3 69.2(2) 14 6_554 ?
O2 K1 O3 142.8(2) . 6_554 ?
O2 K1 O3 67.60(18) 6 6_554 ?
O3 K1 O3 106.94(14) 14_556 6_554 ?
O3 K1 O3 83.63(19) 1_554 6_554 ?
O2 K1 O3 67.60(18) 9_565 9_566 ?
O2 K1 O3 142.8(2) 14 9_566 ?
O2 K1 O3 69.2(2) . 9_566 ?
O2 K1 O3 86.55(14) 6 9_566 ?
O3 K1 O3 83.63(19) 14_556 9_566 ?
O3 K1 O3 106.94(14) 1_554 9_566 ?
O3 K1 O3 145.0(2) 6_554 9_566 ?
C7 O2 K1 141.59(10) . 9_565 ?
C7 O2 K1 141.59(10) . . ?
K1 O2 K1 76.41(19) 9_565 . ?
C2 O3 K1 130.2(4) . 1_556 ?
C2 O3 K1 130.2(4) . 9_566 ?
K1 O3 K1 73.06(14) 1_556 9_566 ?
C6 N1 C2 121.5(8) . . ?
C6 C5 C2 121.5(8) . . ?
C2 N3 C2 126.4(10) . 2_565 ?
O3 C2 N3 121.7(8) . . ?
O3 C2 N1 123.3(8) . . ?
N3 C2 N1 115.0(7) . . ?
O3 C2 C5 123.3(8) . . ?
N3 C2 C5 115.0(7) . . ?
N1 C2 C5 0.00(2) . . ?
C5 C6 N1 0.0(6) 2_565 2_565 ?
C5 C6 N1 120.7(10) 2_565 . ?
N1 C6 N1 120.7(10) 2_565 . ?
C5 C6 C5 120.7(10) 2_565 . ?
N1 C6 C5 120.7(10) 2_565 . ?
N1 C6 C5 0.0(3) . . ?
C5 C6 C7 119.7(5) 2_565 . ?
N1 C6 C7 119.7(5) 2_565 . ?
N1 C6 C7 119.7(5) . . ?
C5 C6 C7 119.7(5) . . ?
O2 C7 O2 130.0(12) . 2_565 ?
O2 C7 C6 115.0(6) . . ?
O2 C7 C6 115.0(6) 2_565 . ?
loop_
_geom_bond_atom_site_label_1
_geom_bond_atom_site_label_2
_geom_bond_distance
_geom_bond_site_symmetry_2
_geom_bond_publ_flag
K1 O2 2.762(6) 9_565 ?
K1 O2 2.762(6) 14 ?
K1 O2 2.762(6) . ?
K1 O2 2.762(6) 6 ?
K1 O3 2.870(5) 14_556 ?
K1 O3 2.870(5) 1_554 ?
K1 O3 2.870(5) 6_554 ?
K1 O3 2.870(5) 9_566 ?
O2 C7 1.227(8) . ?
O2 K1 2.762(6) 9_565 ?
O3 C2 1.227(10) . ?
O3 K1 2.870(5) 1_556 ?
O3 K1 2.870(5) 9_566 ?
N1 C6 1.366(9) . ?
N1 C2 1.399(12) . ?
C5 C6 1.366(9) . ?
C5 C2 1.399(12) . ?
N3 C2 1.381(10) . ?
N3 C2 1.381(10) 2_565 ?
C6 C5 1.366(9) 2_565 ?
C6 N1 1.366(9) 2_565 ?
C6 C7 1.525(15) . ?
C7 O2 1.227(8) 2_565 ?
loop_
_geom_hbond_atom_site_label_D
_geom_hbond_atom_site_label_H
_geom_hbond_atom_site_label_A
_geom_hbond_distance_DH
_geom_hbond_distance_HA
_geom_hbond_distance_DA
_geom_hbond_angle_DHA
_geom_hbond_site_symmetry_A
N3 H3 O2 0.828(11) 2.375(16) 3.130(12) 152.1(2) 1_556
N1 H1 O3 1.06(7) 2.07(7) 3.124(10) 174(5) 9_566
N3 H3 O2 0.828(11) 2.375(16) 3.130(12) 152.1(2) 2_566
