#------------------------------------------------------------------------------
#$Date: 2017-07-11 15:10:40 +0300 (Tue, 11 Jul 2017) $
#$Revision: 198633 $
#$URL: file:///home/coder/svn-repositories/cod/cif/7/01/55/7015523.cif $
#------------------------------------------------------------------------------
#
# This file is available in the Crystallography Open Database (COD),
# http://www.crystallography.net/
#
# All data on this site have been placed in the public domain by the
# contributors.
#
data_7015523
loop_
_publ_author_name
'Duan, Zhiming'
'Wang, Zheming'
'Gao, Song'
_publ_section_title
;
 Irreversible transformation of chiral to achiral polymorph of
 K[Co(HCOO)3]: synthesis, structures, and magnetic properties.
;
_journal_issue                   17
_journal_name_full
'Dalton transactions (Cambridge, England : 2003)'
_journal_page_first              4465
_journal_page_last               4473
_journal_paper_doi               10.1039/c0dt01701a
_journal_volume                  40
_journal_year                    2011
_chemical_formula_sum            'C3 H3 Co K O6'
_chemical_formula_weight         233.08
_chemical_name_systematic
;
?
;
_space_group_IT_number           182
_symmetry_cell_setting           hexagonal
_symmetry_space_group_name_Hall  'P 6c 2c'
_symmetry_space_group_name_H-M   'P 63 2 2'
_atom_sites_solution_hydrogens   geom
_atom_sites_solution_primary     direct
_atom_sites_solution_secondary   difmap
_audit_creation_method           SHELXL-97
_cell_angle_alpha                90.00
_cell_angle_beta                 90.00
_cell_angle_gamma                120.00
_cell_formula_units_Z            2
_cell_length_a                   7.0124(14)
_cell_length_b                   7.0124(14)
_cell_length_c                   8.4270(18)
_cell_measurement_reflns_used    2919
_cell_measurement_temperature    293(2)
_cell_measurement_theta_max      27.4835
_cell_measurement_theta_min      3.3561
_cell_volume                     358.87(13)
_computing_cell_refinement       'CrystalClear (Rigaku Corp., 2000)'
_computing_data_collection       'CrystalClear (Rigaku Corp., 2000)'
_computing_data_reduction        'CrystalClear (Rigaku Corp., 2000)'
_computing_molecular_graphics    'Bruker SHELXTL V5.1 (Sheldrick, 1998)'
_computing_publication_material  'SHELXL-97 (Sheldrick, 1997)'
_computing_structure_refinement  'SHELXL-97 (Sheldrick, 1997)'
_computing_structure_solution    'SHELXS-97 (Sheldrick, 1997)'
_diffrn_ambient_temperature      293(2)
_diffrn_detector_area_resol_mean 15
_diffrn_measured_fraction_theta_full 0.995
_diffrn_measured_fraction_theta_max 0.995
_diffrn_measurement_device_type  'Rigaku Mercury CCD (AFC7)'
_diffrn_measurement_method       CCD
_diffrn_radiation_detector       CCD
_diffrn_radiation_monochromator  'Graphite Monochromator'
_diffrn_radiation_source         'Rotating Anode'
_diffrn_radiation_type           MoK\a
_diffrn_radiation_wavelength     0.71073
_diffrn_reflns_av_R_equivalents  0.0331
_diffrn_reflns_av_sigmaI/netI    0.0102
_diffrn_reflns_limit_h_max       9
_diffrn_reflns_limit_h_min       -9
_diffrn_reflns_limit_k_max       9
_diffrn_reflns_limit_k_min       -9
_diffrn_reflns_limit_l_max       10
_diffrn_reflns_limit_l_min       -10
_diffrn_reflns_number            6113
_diffrn_reflns_theta_full        27.43
_diffrn_reflns_theta_max         27.43
_diffrn_reflns_theta_min         3.35
_diffrn_source_current           100.0000
_diffrn_source_power             '5.4 kW'
_diffrn_source_voltage           50.0000
_diffrn_standards_decay_%        none
_exptl_absorpt_coefficient_mu    2.949
_exptl_absorpt_correction_T_max  1.0000
_exptl_absorpt_correction_T_min  0.8759
_exptl_absorpt_correction_type   multi-scan
_exptl_absorpt_process_details   'Jacobson, R. (1998) Private Communication'
_exptl_crystal_colour            pink
_exptl_crystal_density_diffrn    2.157
_exptl_crystal_density_method    'not measured'
_exptl_crystal_description       'hexagonal bipyramid'
_exptl_crystal_F_000             230
_exptl_crystal_size_max          0.12
_exptl_crystal_size_mid          0.10
_exptl_crystal_size_min          0.10
_refine_diff_density_max         0.225
_refine_diff_density_min         -0.301
_refine_diff_density_rms         0.059
_refine_ls_abs_structure_details 'Flack H D (1983), Acta Cryst. A39, 876-881'
_refine_ls_abs_structure_Flack   -0.02(4)
_refine_ls_extinction_coef       0.077(10)
_refine_ls_extinction_expression Fc^*^=kFc[1+0.001xFc^2^\l^3^/sin(2\q)]^-1/4^
_refine_ls_extinction_method     SHELXL
_refine_ls_goodness_of_fit_ref   1.194
_refine_ls_hydrogen_treatment    constr
_refine_ls_matrix_type           full
_refine_ls_number_parameters     20
_refine_ls_number_reflns         283
_refine_ls_number_restraints     0
_refine_ls_restrained_S_all      1.194
_refine_ls_R_factor_all          0.0239
_refine_ls_R_factor_gt           0.0206
_refine_ls_shift/su_max          0.000
_refine_ls_shift/su_mean         0.000
_refine_ls_structure_factor_coef Fsqd
_refine_ls_weighting_details
'calc w=1/[\s^2^(Fo^2^)+(0.0348P)^2^+0.0137P] where P=(Fo^2^+2Fc^2^)/3'
_refine_ls_weighting_scheme      calc
_refine_ls_wR_factor_gt          0.0532
_refine_ls_wR_factor_ref         0.0541
_reflns_number_gt                254
_reflns_number_total             283
_reflns_threshold_expression     >2sigma(I)
_cod_data_source_file            c0dt01701a.txt
_cod_data_source_block           1-at-293K
_cod_depositor_comments
;
The following automatic conversions were performed:
'_symmetry_cell_setting' value 'Hexagonal' changed to 'hexagonal'
according to '/home/saulius/struct/CIF-dictionaries/cif_core.dic'
dictionary named 'cif_core.dic' version 2.4.1 from
2010-06-29.

'_exptl_absorpt_correction_type' value 'Multi-scan' changed
to 'multi-scan' according to
'/home/saulius/struct/CIF-dictionaries/cif_core.dic' dictionary named
'cif_core.dic' version 2.4.1 from 2010-06-29.

Automatic conversion script
Id: cif_fix_enum 1555 2011-01-17 13:19:09Z saulius 

The following automatic conversions were performed:

'_refine_ls_hydrogen_treatment' value 'constr.' was replaced with the
value 'constr' as specified in the replacement file
'src/cod-tools/trunk/data/replacement-values/replacement_values.lst'.

Automatic conversion script
Id: cif_fix_values 5376 2017-05-30 11:51:03Z andrius 
;
_cod_original_sg_symbol_H-M      'P 6(3)22'
_cod_database_code               7015523
loop_
_symmetry_equiv_pos_as_xyz
'x, y, z'
'-y, x-y, z'
'-x+y, -x, z'
'-x, -y, z+1/2'
'y, -x+y, z+1/2'
'x-y, x, z+1/2'
'y, x, -z'
'x-y, -y, -z'
'-x, -x+y, -z'
'-y, -x, -z+1/2'
'-x+y, y, -z+1/2'
'x, x-y, -z+1/2'
loop_
_atom_site_label
_atom_site_type_symbol
_atom_site_fract_x
_atom_site_fract_y
_atom_site_fract_z
_atom_site_U_iso_or_equiv
_atom_site_adp_type
_atom_site_occupancy
_atom_site_symmetry_multiplicity
_atom_site_calc_flag
_atom_site_refinement_flags
_atom_site_disorder_assembly
_atom_site_disorder_group
Co1 Co 0.6667 0.3333 0.2500 0.0177(2) Uani 1 6 d S . .
K1 K 0.0000 0.0000 0.2500 0.0319(3) Uani 1 6 d S . .
O1 O 0.4051(2) 0.1010(2) 0.10933(15) 0.0292(3) Uani 1 1 d . . .
C1 C 0.4334(4) 0.0000 0.0000 0.0365(8) Uani 1 2 d S . .
H1 H 0.5660 0.0000 0.0000 0.044 Uiso 1 2 calc SR . .
loop_
_atom_site_aniso_label
_atom_site_aniso_U_11
_atom_site_aniso_U_22
_atom_site_aniso_U_33
_atom_site_aniso_U_23
_atom_site_aniso_U_13
_atom_site_aniso_U_12
Co1 0.0207(3) 0.0207(3) 0.0118(3) 0.000 0.000 0.01035(13)
K1 0.0291(4) 0.0291(4) 0.0377(6) 0.000 0.000 0.01453(19)
O1 0.0286(7) 0.0322(7) 0.0240(6) -0.0106(7) -0.0025(5) 0.0131(6)
C1 0.0293(11) 0.0451(19) 0.0402(16) -0.0241(14) -0.0121(7) 0.0226(10)
loop_
_atom_type_symbol
_atom_type_description
_atom_type_scat_dispersion_real
_atom_type_scat_dispersion_imag
_atom_type_scat_source
C C 0.0033 0.0016 'International Tables Vol C Tables 4.2.6.8 and 6.1.1.4'
H H 0.0000 0.0000 'International Tables Vol C Tables 4.2.6.8 and 6.1.1.4'
O O 0.0106 0.0060 'International Tables Vol C Tables 4.2.6.8 and 6.1.1.4'
K K 0.2009 0.2494 'International Tables Vol C Tables 4.2.6.8 and 6.1.1.4'
Co Co 0.3494 0.9721 'International Tables Vol C Tables 4.2.6.8 and 6.1.1.4'
loop_
_geom_angle_atom_site_label_1
_geom_angle_atom_site_label_2
_geom_angle_atom_site_label_3
_geom_angle
_geom_angle_site_symmetry_1
_geom_angle_site_symmetry_3
_geom_angle_publ_flag
O1 Co1 O1 82.07(7) 11_655 2_655 ?
O1 Co1 O1 91.42(5) 11_655 10_665 ?
O1 Co1 O1 95.89(7) 2_655 10_665 ?
O1 Co1 O1 95.89(7) 11_655 . ?
O1 Co1 O1 91.42(5) 2_655 . ?
O1 Co1 O1 170.31(7) 10_665 . ?
O1 Co1 O1 91.42(5) 11_655 12 ?
O1 Co1 O1 170.31(7) 2_655 12 ?
O1 Co1 O1 91.42(5) 10_665 12 ?
O1 Co1 O1 82.07(7) . 12 ?
O1 Co1 O1 170.31(7) 11_655 3_665 ?
O1 Co1 O1 91.42(5) 2_655 3_665 ?
O1 Co1 O1 82.07(7) 10_665 3_665 ?
O1 Co1 O1 91.42(5) . 3_665 ?
O1 Co1 O1 95.89(7) 12 3_665 ?
O1 K1 O1 154.88(5) 12 3 ?
O1 K1 O1 58.68(5) 12 . ?
O1 K1 O1 103.61(3) 3 . ?
O1 K1 O1 103.61(3) 12 10 ?
O1 K1 O1 58.68(5) 3 10 ?
O1 K1 O1 98.27(5) . 10 ?
O1 K1 O1 103.61(3) 12 11 ?
O1 K1 O1 98.27(5) 3 11 ?
O1 K1 O1 154.88(5) . 11 ?
O1 K1 O1 103.61(3) 10 11 ?
O1 K1 O1 98.27(5) 12 2 ?
O1 K1 O1 103.61(3) 3 2 ?
O1 K1 O1 103.61(3) . 2 ?
O1 K1 O1 154.88(5) 10 2 ?
O1 K1 O1 58.68(5) 11 2 ?
O1 K1 K1 65.16(3) 12 4 ?
O1 K1 K1 114.84(3) 3 4 ?
O1 K1 K1 114.84(3) . 4 ?
O1 K1 K1 65.16(3) 10 4 ?
O1 K1 K1 65.16(3) 11 4 ?
O1 K1 K1 114.84(3) 2 4 ?
O1 K1 K1 114.84(3) 12 4_554 ?
O1 K1 K1 65.16(3) 3 4_554 ?
O1 K1 K1 65.16(3) . 4_554 ?
O1 K1 K1 114.84(3) 10 4_554 ?
O1 K1 K1 114.84(3) 11 4_554 ?
O1 K1 K1 65.16(3) 2 4_554 ?
K1 K1 K1 180.0 4 4_554 ?
C1 O1 Co1 122.35(14) . . ?
C1 O1 K1 126.77(13) . . ?
Co1 O1 K1 109.62(5) . . ?
O1 C1 O1 126.9(3) 8 . ?
O1 C1 H1 116.5 8 . ?
O1 C1 H1 116.5 . . ?
loop_
_geom_bond_atom_site_label_1
_geom_bond_atom_site_label_2
_geom_bond_distance
_geom_bond_site_symmetry_2
_geom_bond_publ_flag
Co1 O1 2.1061(13) 11_655 ?
Co1 O1 2.1061(13) 2_655 ?
Co1 O1 2.1061(13) 10_665 ?
Co1 O1 2.1061(13) . ?
Co1 O1 2.1061(13) 12 ?
Co1 O1 2.1061(13) 3_665 ?
K1 O1 2.8220(13) 12 ?
K1 O1 2.8220(13) 3 ?
K1 O1 2.8220(13) . ?
K1 O1 2.8220(13) 10 ?
K1 O1 2.8220(13) 11 ?
K1 O1 2.8220(13) 2 ?
K1 K1 4.2135(9) 4 ?
K1 K1 4.2135(9) 4_554 ?
O1 C1 1.2372(18) . ?
C1 O1 1.2372(18) 8 ?
C1 H1 0.9300 . ?
