#------------------------------------------------------------------------------
#$Date: 2017-07-11 15:10:40 +0300 (Tue, 11 Jul 2017) $
#$Revision: 198633 $
#$URL: file:///home/coder/svn-repositories/cod/cif/7/01/84/7018438.cif $
#------------------------------------------------------------------------------
#
# This file is available in the Crystallography Open Database (COD),
# http://www.crystallography.net/
#
# All data on this site have been placed in the public domain by the
# contributors.
#
data_7018438
loop_
_publ_author_name
'Andrews, Michael B.'
'Cahill, Christopher L.'
_publ_section_title
;
 Utilizing hydrogen bonds and halogen-halogen interactions in the design
 of uranyl hybrid materials.
;
_journal_issue                   14
_journal_name_full
'Dalton transactions (Cambridge, England : 2003)'
_journal_page_first              3911
_journal_page_last               3914
_journal_paper_doi               10.1039/c2dt11985d
_journal_volume                  41
_journal_year                    2012
_chemical_formula_sum            'C10 H10 Br6 N2 O2 U'
_chemical_formula_weight         907.69
_chemical_name_systematic
;
?
;
_space_group_IT_number           2
_symmetry_cell_setting           triclinic
_symmetry_space_group_name_Hall  '-P 1'
_symmetry_space_group_name_H-M   'P -1'
_atom_sites_solution_hydrogens   geom
_atom_sites_solution_primary     direct
_atom_sites_solution_secondary   difmap
_audit_creation_method           SHELXL-97
_cell_angle_alpha                90.438(2)
_cell_angle_beta                 104.966(2)
_cell_angle_gamma                106.959(2)
_cell_formula_units_Z            1
_cell_length_a                   7.2570(4)
_cell_length_b                   7.9855(5)
_cell_length_c                   9.4950(6)
_cell_measurement_reflns_used    3491
_cell_measurement_temperature    293(2)
_cell_measurement_theta_max      29.79
_cell_measurement_theta_min      2.68
_cell_volume                     506.41(5)
_computing_cell_refinement       'SAINTPLUS (Bruker AXS, 2005)'
_computing_data_collection       'APEX II (Bruker AXS, 2005)'
_computing_data_reduction        'SAINTPLUS (Bruker AXS, 2005)'
_computing_molecular_graphics    'Crystal Maker (Palmer 2009)'
_computing_publication_material  'WINGX (Farrugia, 1998)'
_computing_structure_refinement  'SHELXL-97 (Sheldrick, 2008)'
_computing_structure_solution    'SIR92 (Gualardi, 1993)'
_diffrn_ambient_temperature      293(2)
_diffrn_measured_fraction_theta_full 0.992
_diffrn_measured_fraction_theta_max 0.791
_diffrn_measurement_device_type  'Bruker APEX II CCD'
_diffrn_measurement_method       'phi and omega scans'
_diffrn_radiation_monochromator  graphite
_diffrn_radiation_source         'fine-focus sealed tube'
_diffrn_radiation_type           MoK\a
_diffrn_radiation_wavelength     0.71073
_diffrn_reflns_av_R_equivalents  0.0595
_diffrn_reflns_av_sigmaI/netI    0.0803
_diffrn_reflns_limit_h_max       10
_diffrn_reflns_limit_h_min       -9
_diffrn_reflns_limit_k_max       10
_diffrn_reflns_limit_k_min       -10
_diffrn_reflns_limit_l_max       11
_diffrn_reflns_limit_l_min       -13
_diffrn_reflns_number            5963
_diffrn_reflns_theta_full        25.00
_diffrn_reflns_theta_max         31.83
_diffrn_reflns_theta_min         2.23
_exptl_absorpt_coefficient_mu    19.851
_exptl_absorpt_correction_T_max  0.7463
_exptl_absorpt_correction_T_min  0.2741
_exptl_absorpt_correction_type   empirical
_exptl_absorpt_process_details   'SADABS, Sheldrick (2008)'
_exptl_crystal_colour            Yellow
_exptl_crystal_density_diffrn    2.976
_exptl_crystal_density_method    'not measured'
_exptl_crystal_description       Rod
_exptl_crystal_F_000             402
_exptl_crystal_size_max          0.112
_exptl_crystal_size_mid          0.038
_exptl_crystal_size_min          0.031
_refine_diff_density_max         1.654
_refine_diff_density_min         -1.597
_refine_diff_density_rms         0.310
_refine_ls_extinction_coef       0.0354(19)
_refine_ls_extinction_expression Fc^*^=kFc[1+0.001xFc^2^\l^3^/sin(2\q)]^-1/4^
_refine_ls_extinction_method     SHELXL
_refine_ls_goodness_of_fit_ref   0.995
_refine_ls_hydrogen_treatment    constr
_refine_ls_matrix_type           full
_refine_ls_number_parameters     98
_refine_ls_number_reflns         2752
_refine_ls_number_restraints     0
_refine_ls_restrained_S_all      0.995
_refine_ls_R_factor_all          0.0528
_refine_ls_R_factor_gt           0.0438
_refine_ls_shift/su_max          0.000
_refine_ls_shift/su_mean         0.000
_refine_ls_structure_factor_coef Fsqd
_refine_ls_weighting_details
'calc w=1/[\s^2^(Fo^2^)+(0.0509P)^2^+0.0000P] where P=(Fo^2^+2Fc^2^)/3'
_refine_ls_weighting_scheme      calc
_refine_ls_wR_factor_gt          0.1084
_refine_ls_wR_factor_ref         0.1139
_reflns_number_gt                2356
_reflns_number_total             2752
_reflns_threshold_expression     >2\s(I)
_cod_data_source_file            c2dt11985d.txt
_cod_data_source_block           Compound5
_cod_depositor_comments
;
The following automatic conversions were performed:

'_symmetry_cell_setting' value 'Triclinic' changed to 'triclinic'
according to /home/saulius/struct/CIF-dictionaries/cif_core.dic
dictionary named 'cif_core.dic' version 2.4.1 from 2010-06-29.

Automatic conversion script
Id: cif_fix_values 1715 2011-07-08 13:25:40Z adriana 

The following automatic conversions were performed:

'_refine_ls_hydrogen_treatment' value 'constr.' was replaced with the
value 'constr' as specified in the replacement file
'src/cod-tools/trunk/data/replacement-values/replacement_values.lst'.

Automatic conversion script
Id: cif_fix_values 5376 2017-05-30 11:51:03Z andrius 
;
_cod_original_sg_symbol_H-M      P-1
_cod_database_code               7018438
loop_
_symmetry_equiv_pos_as_xyz
'x, y, z'
'-x, -y, -z'
loop_
_atom_site_label
_atom_site_type_symbol
_atom_site_fract_x
_atom_site_fract_y
_atom_site_fract_z
_atom_site_U_iso_or_equiv
_atom_site_adp_type
_atom_site_occupancy
_atom_site_symmetry_multiplicity
_atom_site_calc_flag
_atom_site_refinement_flags
U1 U 0.5000 0.5000 0.0000 0.03166(16) Uani 1 2 d S
Br1 Br 0.72112(12) 0.48274(11) 0.28678(9) 0.0484(2) Uani 1 1 d .
Br2 Br 0.71886(14) 0.31560(13) -0.11247(10) 0.0564(3) Uani 1 1 d .
O1 O 0.6792(8) 0.6990(7) -0.0092(7) 0.0464(12) Uani 1 1 d .
Br4 Br 0.75247(10) 0.14289(11) -0.50916(10) 0.0476(2) Uani 1 1 d .
C3 C 0.8320(10) -0.0207(10) -0.3858(9) 0.0389(16) Uani 1 1 d .
C1 C 1.0426(12) -0.0785(12) -0.1717(11) 0.053(2) Uani 1 1 d .
H2 H 1.1428 -0.0411 -0.0842 0.063 Uiso 1 1 calc R
C2 C 0.9815(11) 0.0427(11) -0.2556(9) 0.0440(17) Uani 1 1 d .
H3 H 1.0370 0.1625 -0.2274 0.053 Uiso 1 1 calc R
N1 N 0.9615(10) -0.2496(9) -0.2125(9) 0.0494(17) Uani 1 1 d .
H1 H 1.0040 -0.3227 -0.1570 0.059 Uiso 1 1 calc R
C4 C 0.7500(10) -0.1969(11) -0.4260(10) 0.0462(18) Uani 1 1 d .
H4 H 0.6501 -0.2381 -0.5131 0.055 Uiso 1 1 calc R
C5 C 0.8179(12) -0.3119(11) -0.3355(11) 0.050(2) Uani 1 1 d .
H5 H 0.7635 -0.4325 -0.3601 0.061 Uiso 1 1 calc R
loop_
_atom_site_aniso_label
_atom_site_aniso_U_11
_atom_site_aniso_U_22
_atom_site_aniso_U_33
_atom_site_aniso_U_23
_atom_site_aniso_U_13
_atom_site_aniso_U_12
U1 0.0371(2) 0.0284(2) 0.0313(2) 0.00730(14) 0.01118(15) 0.01094(13)
Br1 0.0632(4) 0.0467(5) 0.0349(4) 0.0098(3) 0.0058(3) 0.0226(4)
Br2 0.0791(6) 0.0622(6) 0.0510(6) 0.0151(4) 0.0286(4) 0.0463(5)
O1 0.052(3) 0.038(3) 0.047(3) 0.006(2) 0.015(2) 0.008(2)
Br4 0.0451(4) 0.0516(5) 0.0558(5) 0.0236(4) 0.0193(3) 0.0239(3)
C3 0.040(3) 0.041(4) 0.046(4) 0.014(3) 0.022(3) 0.017(3)
C1 0.054(4) 0.053(5) 0.048(5) 0.007(4) 0.004(4) 0.020(4)
C2 0.053(4) 0.035(4) 0.045(5) 0.006(3) 0.012(3) 0.016(3)
N1 0.061(4) 0.046(4) 0.057(5) 0.022(3) 0.026(3) 0.030(3)
C4 0.043(4) 0.043(4) 0.055(5) 0.013(4) 0.016(3) 0.014(3)
C5 0.056(4) 0.036(4) 0.064(6) 0.010(4) 0.025(4) 0.015(3)
loop_
_atom_type_symbol
_atom_type_description
_atom_type_scat_dispersion_real
_atom_type_scat_dispersion_imag
_atom_type_scat_source
C C 0.0033 0.0016 'International Tables Vol C Tables 4.2.6.8 and 6.1.1.4'
Br Br -0.2901 2.4595 'International Tables Vol C Tables 4.2.6.8 and 6.1.1.4'
N N 0.0061 0.0033 'International Tables Vol C Tables 4.2.6.8 and 6.1.1.4'
O O 0.0106 0.0060 'International Tables Vol C Tables 4.2.6.8 and 6.1.1.4'
U U -9.6767 9.6646 'International Tables Vol C Tables 4.2.6.8 and 6.1.1.4'
H H 0.0000 0.0000 'International Tables Vol C Tables 4.2.6.8 and 6.1.1.4'
loop_
_geom_angle_atom_site_label_1
_geom_angle_atom_site_label_2
_geom_angle_atom_site_label_3
_geom_angle
_geom_angle_site_symmetry_1
_geom_angle_site_symmetry_3
O1 U1 O1 180.000(1) . 2_665
O1 U1 Br1 90.32(19) . 2_665
O1 U1 Br1 89.68(19) 2_665 2_665
O1 U1 Br1 89.68(19) . .
O1 U1 Br1 90.32(19) 2_665 .
Br1 U1 Br1 180.0 2_665 .
O1 U1 Br2 90.53(19) . 2_665
O1 U1 Br2 89.47(19) 2_665 2_665
Br1 U1 Br2 90.34(3) 2_665 2_665
Br1 U1 Br2 89.66(3) . 2_665
O1 U1 Br2 89.47(19) . .
O1 U1 Br2 90.53(19) 2_665 .
Br1 U1 Br2 89.66(3) 2_665 .
Br1 U1 Br2 90.34(3) . .
Br2 U1 Br2 180.0 2_665 .
C4 C3 C2 121.2(8) . .
C4 C3 Br4 120.5(7) . .
C2 C3 Br4 118.2(6) . .
N1 C1 C2 121.1(9) . .
C1 C2 C3 116.9(8) . .
C5 N1 C1 122.6(7) . .
C3 C4 C5 118.7(8) . .
N1 C5 C4 119.4(8) . .
loop_
_geom_bond_atom_site_label_1
_geom_bond_atom_site_label_2
_geom_bond_distance
_geom_bond_site_symmetry_2
U1 O1 1.755(5) .
U1 O1 1.755(5) 2_665
U1 Br1 2.8083(8) 2_665
U1 Br1 2.8083(8) .
U1 Br2 2.8368(8) 2_665
U1 Br2 2.8368(8) .
Br4 C3 1.878(7) .
C3 C4 1.366(11) .
C3 C2 1.392(11) .
C1 N1 1.330(11) .
C1 C2 1.359(12) .
N1 C5 1.325(12) .
C4 C5 1.372(12) .
