#------------------------------------------------------------------------------
#$Date: 2016-03-25 14:55:39 +0200 (Fri, 25 Mar 2016) $
#$Revision: 179906 $
#$URL: svn://www.crystallography.net/cod/cif/7/02/02/7020205.cif $
#------------------------------------------------------------------------------
#
# This file is available in the Crystallography Open Database (COD),
# http://www.crystallography.net/
#
# All data on this site have been placed in the public domain by the
# contributors.
#
data_7020205
loop_
_publ_author_name
'Hector, Andrew L.'
'Jolleys, Andrew'
'Levason, William'
'Reid, Gillian'
_publ_section_title
;
 TeX4 (X = F, Cl, Br) as Lewis acids--complexes with soft thio- and
 seleno-ether ligands.
;
_journal_issue                   36
_journal_name_full
'Dalton transactions (Cambridge, England : 2003)'
_journal_page_first              10988
_journal_page_last               10999
_journal_paper_doi               10.1039/c2dt30968h
_journal_volume                  41
_journal_year                    2012
_chemical_absolute_configuration ad
_chemical_formula_moiety         'C3 H9 F4 O P Te'
_chemical_formula_sum            'C3 H9 F4 O P Te'
_chemical_formula_weight         295.67
_chemical_name_systematic
;
tetrafluoro(trimethylphosphine oxide-O)tellurium(IV)
;
_space_group_IT_number           19
_space_group_name_Hall           'P 2ac 2ab'
_symmetry_cell_setting           orthorhombic
_symmetry_space_group_name_Hall  'P 2ac 2ab'
_symmetry_space_group_name_H-M   'P 21 21 21'
_atom_sites_solution_hydrogens   geom
_atom_sites_solution_primary     direct
_atom_sites_solution_secondary   difmap
_audit_creation_date             2011-12-26
_audit_creation_method           'SHELXL-97 + hand edit'
_cell_angle_alpha                90.00
_cell_angle_beta                 90.00
_cell_angle_gamma                90.00
_cell_formula_units_Z            4
_cell_length_a                   6.500(4)
_cell_length_b                   10.790(5)
_cell_length_c                   12.442(8)
_cell_measurement_reflns_used    2325
_cell_measurement_temperature    100(2)
_cell_measurement_theta_max      27.5
_cell_measurement_theta_min      3.3
_cell_volume                     872.6(9)
_computing_cell_refinement
'CrystalClear-SM Expert 2.0 r7 (Rigaku, 2011)'
_computing_data_collection
'CrystalClear-SM Expert 2.0 r7 (Rigaku, 2011)'
_computing_data_reduction
'CrystalClear-SM Expert 2.0 r7 (Rigaku, 2011)'
_computing_structure_refinement  'SHELXL-97 (Sheldrick, 1997)'
_computing_structure_solution    'SHELXS-97 (Sheldrick, 1997)'
_diffrn_ambient_temperature      100(2)
_diffrn_detector                 'CCD plate'
_diffrn_detector_type            'Rigaku HG Saturn724+ (2x2 bin mode)'
_diffrn_measured_fraction_theta_full 0.979
_diffrn_measured_fraction_theta_max 0.979
_diffrn_measurement_device       'Four-circle \k diffractometer'
_diffrn_measurement_device_type  'Rigaku AFC12 '
_diffrn_measurement_method       'Profile data from \w-scans'
_diffrn_radiation_collimation    'Confocal mirrors, HF VariMax '
_diffrn_radiation_type           MoK\a
_diffrn_radiation_wavelength     0.71073
_diffrn_reflns_av_R_equivalents  0.0192
_diffrn_reflns_av_sigmaI/netI    0.0306
_diffrn_reflns_limit_h_max       8
_diffrn_reflns_limit_h_min       -2
_diffrn_reflns_limit_k_max       13
_diffrn_reflns_limit_k_min       -8
_diffrn_reflns_limit_l_max       16
_diffrn_reflns_limit_l_min       -10
_diffrn_reflns_number            2336
_diffrn_reflns_theta_full        27.37
_diffrn_reflns_theta_max         27.37
_diffrn_reflns_theta_min         3.27
_diffrn_source                   'Rotating anode X-ray tube'
_diffrn_source_type              'Rigaku FR-E+ SuperBright'
_diffrn_standards_number         0
_exptl_absorpt_coefficient_mu    3.598
_exptl_absorpt_correction_T_max  1.000
_exptl_absorpt_correction_T_min  0.824
_exptl_absorpt_correction_type   multi-scan
_exptl_absorpt_process_details
;Jacobson, R.A. (1998). REQAB. Private communication to the
Rigaku Corporation, Tokyo, Japan.
;
_exptl_crystal_colour            orange
_exptl_crystal_density_diffrn    2.251
_exptl_crystal_density_method    'not measured'
_exptl_crystal_description       block
_exptl_crystal_F_000             552
_exptl_crystal_size_max          0.20
_exptl_crystal_size_mid          0.20
_exptl_crystal_size_min          0.20
_refine_diff_density_max         0.278
_refine_diff_density_min         -0.375
_refine_diff_density_rms         0.072
_refine_ls_abs_structure_details 'Flack H D (1983), Acta Cryst. A39, 876-881'
_refine_ls_abs_structure_Flack   -0.029(18)
_refine_ls_extinction_method     none
_refine_ls_goodness_of_fit_ref   1.018
_refine_ls_hydrogen_treatment    constr
_refine_ls_matrix_type           full
_refine_ls_number_parameters     94
_refine_ls_number_reflns         1815
_refine_ls_number_restraints     0
_refine_ls_restrained_S_all      1.018
_refine_ls_R_factor_all          0.0143
_refine_ls_R_factor_gt           0.0138
_refine_ls_shift/su_max          0.001
_refine_ls_shift/su_mean         0.000
_refine_ls_structure_factor_coef Fsqd
_refine_ls_weighting_details
'w=1/[\s^2^(Fo^2^)+(0.0040P)^2^+0.0000P] where P=(Fo^2^+2Fc^2^)/3'
_refine_ls_weighting_scheme      calc
_refine_ls_wR_factor_gt          0.0335
_refine_ls_wR_factor_ref         0.0336
_reflns_number_gt                1758
_reflns_number_total             1815
_reflns_threshold_expression     I>2sigma(I)
_cod_data_source_file            c2dt30968h.txt
_cod_data_source_block           11aj002c
_cod_database_code               7020205
loop_
_symmetry_equiv_pos_as_xyz
'x, y, z'
'-x+1/2, -y, z+1/2'
'x+1/2, -y+1/2, -z'
'-x, y+1/2, -z+1/2'
loop_
_atom_site_label
_atom_site_type_symbol
_atom_site_fract_x
_atom_site_fract_y
_atom_site_fract_z
_atom_site_U_iso_or_equiv
_atom_site_adp_type
_atom_site_occupancy
_atom_site_symmetry_multiplicity
_atom_site_calc_flag
_atom_site_refinement_flags
Te1 Te 0.35430(2) 0.104368(14) 0.420574(13) 0.01380(5) Uani 1 1 d .
F1 F 0.5960(2) 0.00591(14) 0.41669(14) 0.0259(4) Uani 1 1 d .
F2 F 0.5577(3) 0.22154(15) 0.47949(14) 0.0294(4) Uani 1 1 d .
F3 F 0.3318(3) 0.03282(14) 0.56163(12) 0.0262(4) Uani 1 1 d .
F4 F 0.2327(3) -0.04946(15) 0.36545(14) 0.0292(4) Uani 1 1 d .
P1 P 0.63950(10) 0.11070(6) 0.18902(5) 0.01437(12) Uani 1 1 d .
O1 O 0.4566(3) 0.14780(16) 0.26307(15) 0.0177(4) Uani 1 1 d .
C1 C 0.8800(4) 0.1706(3) 0.2387(2) 0.0257(7) Uani 1 1 d .
H1A H 0.8763 0.2614 0.2377 0.039 Uiso 1 1 calc R
H1B H 0.9927 0.1413 0.1930 0.039 Uiso 1 1 calc R
H1C H 0.9018 0.1418 0.3125 0.039 Uiso 1 1 calc R
C2 C 0.5906(4) 0.1747(2) 0.0599(2) 0.0194(6) Uani 1 1 d .
H2A H 0.4586 0.1437 0.0330 0.029 Uiso 1 1 calc R
H2B H 0.7007 0.1503 0.0104 0.029 Uiso 1 1 calc R
H2C H 0.5856 0.2652 0.0652 0.029 Uiso 1 1 calc R
C3 C 0.6619(5) -0.0535(2) 0.1760(2) 0.0237(6) Uani 1 1 d .
H3A H 0.7007 -0.0894 0.2454 0.036 Uiso 1 1 calc R
H3B H 0.7675 -0.0731 0.1224 0.036 Uiso 1 1 calc R
H3C H 0.5296 -0.0881 0.1529 0.036 Uiso 1 1 calc R
loop_
_atom_site_aniso_label
_atom_site_aniso_U_11
_atom_site_aniso_U_22
_atom_site_aniso_U_33
_atom_site_aniso_U_23
_atom_site_aniso_U_13
_atom_site_aniso_U_12
Te1 0.01523(7) 0.01209(8) 0.01409(8) -0.00022(7) -0.00150(7) 0.00061(7)
F1 0.0241(8) 0.0287(8) 0.0248(9) 0.0068(8) -0.0005(8) 0.0137(6)
F2 0.0346(9) 0.0271(10) 0.0266(10) -0.0005(8) -0.0108(8) -0.0109(8)
F3 0.0313(9) 0.0308(9) 0.0167(8) 0.0084(7) -0.0001(8) 0.0012(8)
F4 0.0403(10) 0.0174(8) 0.0298(10) -0.0003(8) -0.0065(9) -0.0081(7)
P1 0.0144(2) 0.0120(3) 0.0167(3) 0.0004(3) 0.0008(3) 0.0008(3)
O1 0.0209(9) 0.0165(9) 0.0157(10) 0.0013(8) 0.0010(9) 0.0047(8)
C1 0.0180(13) 0.0268(15) 0.0323(17) 0.0036(13) -0.0065(13) -0.0019(11)
C2 0.0223(13) 0.0166(13) 0.0192(15) -0.0002(11) 0.0008(10) -0.0014(10)
C3 0.0304(14) 0.0152(12) 0.0255(15) 0.0000(11) 0.0070(14) 0.0042(12)
loop_
_atom_type_symbol
_atom_type_description
_atom_type_scat_dispersion_real
_atom_type_scat_dispersion_imag
_atom_type_scat_source
C C 0.0033 0.0016 'International Tables Vol C Tables 4.2.6.8 and 6.1.1.4'
H H 0.0000 0.0000 'International Tables Vol C Tables 4.2.6.8 and 6.1.1.4'
O O 0.0106 0.0060 'International Tables Vol C Tables 4.2.6.8 and 6.1.1.4'
F F 0.0171 0.0103 'International Tables Vol C Tables 4.2.6.8 and 6.1.1.4'
P P 0.1023 0.0942 'International Tables Vol C Tables 4.2.6.8 and 6.1.1.4'
Te Te -0.5308 1.6751 'International Tables Vol C Tables 4.2.6.8 and 6.1.1.4'
loop_
_geom_angle_atom_site_label_1
_geom_angle_atom_site_label_2
_geom_angle_atom_site_label_3
_geom_angle
F1 Te1 F3 82.04(7)
F1 Te1 F4 81.43(9)
F3 Te1 F4 87.06(8)
F1 Te1 F2 79.23(8)
F3 Te1 F2 88.23(8)
F4 Te1 F2 160.56(8)
F1 Te1 O1 80.83(7)
F3 Te1 O1 162.84(7)
F4 Te1 O1 89.44(8)
F2 Te1 O1 89.52(8)
O1 P1 C2 107.38(12)
O1 P1 C3 111.80(12)
C2 P1 C3 108.53(13)
O1 P1 C1 111.55(12)
C2 P1 C1 109.02(13)
C3 P1 C1 108.48(15)
P1 O1 Te1 136.83(11)
P1 C1 H1A 109.5
P1 C1 H1B 109.5
H1A C1 H1B 109.5
P1 C1 H1C 109.5
H1A C1 H1C 109.5
H1B C1 H1C 109.5
P1 C2 H2A 109.5
P1 C2 H2B 109.5
H2A C2 H2B 109.5
P1 C2 H2C 109.5
H2A C2 H2C 109.5
H2B C2 H2C 109.5
P1 C3 H3A 109.5
P1 C3 H3B 109.5
H3A C3 H3B 109.5
P1 C3 H3C 109.5
H3A C3 H3C 109.5
H3B C3 H3C 109.5
loop_
_geom_bond_atom_site_label_1
_geom_bond_atom_site_label_2
_geom_bond_distance
Te1 F1 1.8973(17)
Te1 F3 1.9229(18)
Te1 F4 1.9623(18)
Te1 F2 1.9707(18)
Te1 O1 2.122(2)
P1 O1 1.556(2)
P1 C2 1.777(3)
P1 C3 1.785(3)
P1 C1 1.801(3)
C1 H1A 0.9800
C1 H1B 0.9800
C1 H1C 0.9800
C2 H2A 0.9800
C2 H2B 0.9800
C2 H2C 0.9800
C3 H3A 0.9800
C3 H3B 0.9800
C3 H3C 0.9800
loop_
_geom_contact_atom_site_label_1
_geom_contact_atom_site_label_2
_geom_contact_distance
_geom_contact_site_symmetry_2
Te1 F2 2.965(2) 3_456
loop_
_geom_torsion_atom_site_label_1
_geom_torsion_atom_site_label_2
_geom_torsion_atom_site_label_3
_geom_torsion_atom_site_label_4
_geom_torsion
C2 P1 O1 Te1 172.14(15)
C3 P1 O1 Te1 53.2(2)
C1 P1 O1 Te1 -68.46(19)
F1 Te1 O1 P1 0.64(16)
F3 Te1 O1 P1 -2.6(4)
F4 Te1 O1 P1 -80.77(18)
F2 Te1 O1 P1 79.81(17)
