#------------------------------------------------------------------------------
#$Date: 2016-03-25 15:39:16 +0200 (Fri, 25 Mar 2016) $
#$Revision: 179929 $
#$URL: svn://www.crystallography.net/cod/cif/7/02/24/7022444.cif $
#------------------------------------------------------------------------------
#
# This file is available in the Crystallography Open Database (COD),
# http://www.crystallography.net/
#
# All data on this site have been placed in the public domain by the
# contributors.
#
data_7022444
loop_
_publ_author_name
'Jolleys, Andrew'
'Levason, William'
'Reid, Gillian'
_publ_section_title
;
 Thioether coordination to divalent selenium halide acceptors--synthesis,
 properties and structures.
;
_journal_issue                   8
_journal_name_full
'Dalton transactions (Cambridge, England : 2003)'
_journal_page_first              2963
_journal_page_last               2972
_journal_paper_doi               10.1039/c2dt32665e
_journal_volume                  42
_journal_year                    2013
_chemical_absolute_configuration ad
_chemical_formula_moiety         'C2 H6 Cl2 S Se'
_chemical_formula_sum            'C2 H6 Cl2 S Se'
_chemical_formula_weight         211.99
_chemical_name_systematic
;
Dichloro(methylsulfanylmethane)selenium(II)
;
_space_group_IT_number           4
_space_group_name_Hall           'P 2yb'
_symmetry_cell_setting           monoclinic
_symmetry_space_group_name_Hall  'P 2yb'
_symmetry_space_group_name_H-M   'P 1 21 1'
_atom_sites_solution_hydrogens   geom
_atom_sites_solution_primary     direct
_atom_sites_solution_secondary   difmap
_audit_creation_date             2012-11-02
_audit_creation_method           'SHELXL-97 + hand edit'
_cell_angle_alpha                90.00
_cell_angle_beta                 97.946(7)
_cell_angle_gamma                90.00
_cell_formula_units_Z            2
_cell_length_a                   6.338(4)
_cell_length_b                   6.697(4)
_cell_length_c                   7.977(5)
_cell_measurement_reflns_used    1719
_cell_measurement_temperature    100(2)
_cell_measurement_theta_max      27.5
_cell_measurement_theta_min      3.0
_cell_volume                     335.3(4)
_computing_cell_refinement
'CrystalClear-SM Expert 2.0 r7 (Rigaku, 2011)'
_computing_data_collection
'CrystalClear-SM Expert 2.0 r7 (Rigaku, 2011)'
_computing_data_reduction
'CrystalClear-SM Expert 2.0 r7 (Rigaku, 2011)'
_computing_structure_refinement  'SHELXL-97 (Sheldrick, 2008)'
_computing_structure_solution    'SHELXS-97 (Sheldrick, 1997)'
_diffrn_ambient_temperature      100(2)
_diffrn_detector                 'CCD plate'
_diffrn_detector_type            'Rigaku HG Saturn724+ (2x2 bin mode)'
_diffrn_measured_fraction_theta_full 0.993
_diffrn_measured_fraction_theta_max 0.993
_diffrn_measurement_device       'Four-circle \k diffractometer'
_diffrn_measurement_device_type  'Rigaku AFC12 '
_diffrn_measurement_method       'Profile data from \w-scans'
_diffrn_radiation_collimation    'Confocal mirrors, VHF VariMax '
_diffrn_radiation_type           MoK\a
_diffrn_radiation_wavelength     0.71073
_diffrn_reflns_av_R_equivalents  0.0288
_diffrn_reflns_av_sigmaI/netI    0.0618
_diffrn_reflns_limit_h_max       8
_diffrn_reflns_limit_h_min       -7
_diffrn_reflns_limit_k_max       8
_diffrn_reflns_limit_k_min       -7
_diffrn_reflns_limit_l_max       10
_diffrn_reflns_limit_l_min       -6
_diffrn_reflns_number            1733
_diffrn_reflns_theta_full        27.48
_diffrn_reflns_theta_max         27.48
_diffrn_reflns_theta_min         3.25
_diffrn_source                   'Rotating anode X-ray tube'
_diffrn_source_type              'Rigaku FR-E+ Superbright'
_diffrn_standards_number         0
_exptl_absorpt_coefficient_mu    6.575
_exptl_absorpt_correction_T_max  1.000
_exptl_absorpt_correction_T_min  0.759
_exptl_absorpt_correction_type   multi-scan
_exptl_absorpt_process_details
;Jacobson, R.A. (1998). REQAB. Private communication to the
Rigaku Corporation, Tokyo, Japan.
;
_exptl_crystal_colour            yellow
_exptl_crystal_density_diffrn    2.099
_exptl_crystal_density_method    'not measured'
_exptl_crystal_description       plate
_exptl_crystal_F_000             204
_exptl_crystal_size_max          0.10
_exptl_crystal_size_mid          0.05
_exptl_crystal_size_min          0.01
_refine_diff_density_max         0.468
_refine_diff_density_min         -0.361
_refine_diff_density_rms         0.104
_refine_ls_abs_structure_details 'Flack H D (1983), Acta Cryst. A39, 876-881'
_refine_ls_abs_structure_Flack   -0.001(8)
_refine_ls_extinction_method     none
_refine_ls_goodness_of_fit_ref   0.734
_refine_ls_hydrogen_treatment    constr
_refine_ls_matrix_type           full
_refine_ls_number_parameters     57
_refine_ls_number_reflns         1214
_refine_ls_number_restraints     1
_refine_ls_restrained_S_all      0.734
_refine_ls_R_factor_all          0.0207
_refine_ls_R_factor_gt           0.0198
_refine_ls_shift/su_max          0.000
_refine_ls_shift/su_mean         0.000
_refine_ls_structure_factor_coef Fsqd
_refine_ls_weighting_details
'w=1/[\s^2^(Fo^2^)+(0.0000P)^2^+0.0000P] where P=(Fo^2^+2Fc^2^)/3'
_refine_ls_weighting_scheme      calc
_refine_ls_wR_factor_gt          0.0452
_refine_ls_wR_factor_ref         0.0457
_reflns_number_gt                1161
_reflns_number_total             1214
_reflns_threshold_expression     I>2\s(I)
_cod_data_source_file            c2dt32665e.txt
_cod_data_source_block           12aj010ra
_cod_original_cell_volume        335.3(3)
_cod_original_sg_symbol_H-M      'P 21'
_cod_database_code               7022444
loop_
_symmetry_equiv_pos_as_xyz
'x, y, z'
'-x, y+1/2, -z'
loop_
_atom_site_label
_atom_site_type_symbol
_atom_site_fract_x
_atom_site_fract_y
_atom_site_fract_z
_atom_site_U_iso_or_equiv
_atom_site_adp_type
_atom_site_occupancy
_atom_site_symmetry_multiplicity
_atom_site_calc_flag
_atom_site_refinement_flags
Se1 Se 0.66858(4) 0.34499(4) 0.34624(3) 0.01200(8) Uani 1 1 d .
Cl1 Cl 0.72422(13) 0.23746(12) 0.08012(10) 0.01818(17) Uani 1 1 d .
Cl2 Cl 0.62048(13) 0.47720(12) 0.63555(10) 0.01889(17) Uani 1 1 d .
S1 S 0.89125(12) 0.60477(12) 0.33990(10) 0.01439(16) Uani 1 1 d .
C1 C 0.8076(5) 0.7310(5) 0.1448(4) 0.0210(8) Uani 1 1 d .
H1A H 0.9118 0.8344 0.1273 0.032 Uiso 1 1 calc R
H1B H 0.6682 0.7930 0.1486 0.032 Uiso 1 1 calc R
H1C H 0.7968 0.6350 0.0513 0.032 Uiso 1 1 calc R
C2 C 1.1371(5) 0.4951(5) 0.3003(4) 0.0160(7) Uani 1 1 d .
H2A H 1.1105 0.4058 0.2023 0.024 Uiso 1 1 calc R
H2B H 1.1992 0.4188 0.3999 0.024 Uiso 1 1 calc R
H2C H 1.2361 0.6007 0.2771 0.024 Uiso 1 1 calc R
loop_
_atom_site_aniso_label
_atom_site_aniso_U_11
_atom_site_aniso_U_22
_atom_site_aniso_U_33
_atom_site_aniso_U_23
_atom_site_aniso_U_13
_atom_site_aniso_U_12
Se1 0.00844(13) 0.01419(14) 0.01341(14) 0.00098(14) 0.00161(9) 0.00054(13)
Cl1 0.0196(4) 0.0204(4) 0.0146(4) -0.0032(3) 0.0026(3) -0.0027(3)
Cl2 0.0211(4) 0.0203(4) 0.0164(4) 0.0015(3) 0.0066(3) 0.0043(3)
S1 0.0123(4) 0.0144(4) 0.0168(4) -0.0012(3) 0.0033(3) -0.0012(3)
C1 0.0154(17) 0.0192(18) 0.028(2) 0.0090(15) 0.0020(15) 0.0023(14)
C2 0.0089(15) 0.0187(15) 0.0202(17) 0.0043(14) 0.0021(12) 0.0046(13)
loop_
_atom_type_symbol
_atom_type_description
_atom_type_scat_dispersion_real
_atom_type_scat_dispersion_imag
_atom_type_scat_source
C C 0.0033 0.0016 'International Tables Vol C Tables 4.2.6.8 and 6.1.1.4'
H H 0.0000 0.0000 'International Tables Vol C Tables 4.2.6.8 and 6.1.1.4'
S S 0.1246 0.1234 'International Tables Vol C Tables 4.2.6.8 and 6.1.1.4'
Cl Cl 0.1484 0.1585 'International Tables Vol C Tables 4.2.6.8 and 6.1.1.4'
Se Se -0.0929 2.2259 'International Tables Vol C Tables 4.2.6.8 and 6.1.1.4'
loop_
_geom_angle_atom_site_label_1
_geom_angle_atom_site_label_2
_geom_angle_atom_site_label_3
_geom_angle
S1 Se1 Cl1 92.55(3)
S1 Se1 Cl2 84.53(3)
Cl1 Se1 Cl2 177.08(3)
C1 S1 C2 101.62(15)
C1 S1 Se1 105.94(12)
C2 S1 Se1 104.55(13)
S1 C1 H1A 109.5
S1 C1 H1B 109.5
H1A C1 H1B 109.5
S1 C1 H1C 109.5
H1A C1 H1C 109.5
H1B C1 H1C 109.5
S1 C2 H2A 109.5
S1 C2 H2B 109.5
H2A C2 H2B 109.5
S1 C2 H2C 109.5
H2A C2 H2C 109.5
H2B C2 H2C 109.5
loop_
_geom_bond_atom_site_label_1
_geom_bond_atom_site_label_2
_geom_bond_distance
Se1 S1 2.2453(12)
Se1 Cl1 2.3143(13)
Se1 Cl2 2.5292(14)
S1 C1 1.786(3)
S1 C2 1.790(3)
C1 H1A 0.9800
C1 H1B 0.9800
C1 H1C 0.9800
C2 H2A 0.9800
C2 H2B 0.9800
C2 H2C 0.9800
loop_
_geom_contact_atom_site_label_1
_geom_contact_atom_site_label_2
_geom_contact_distance
_geom_contact_site_symmetry_2
Se1 Cl2 3.085(2) 2_646
