#------------------------------------------------------------------------------
#$Date: 2016-03-25 15:37:48 +0200 (Fri, 25 Mar 2016) $
#$Revision: 179928 $
#$URL: svn://www.crystallography.net/cod/cif/7/02/23/7022312.cif $
#------------------------------------------------------------------------------
#
# This file is available in the Crystallography Open Database (COD),
# http://www.crystallography.net/
#
# All data on this site have been placed in the public domain by the
# contributors.
#
data_7022312
loop_
_publ_author_name
'Basu Baul, Tushar S.'
'Kundu, Sajal'
'Mitra, Sivaprasad'
'H\"opfl, Herbert'
'Tiekink, Edward R. T.'
'Linden, Anthony'
_publ_section_title
;
 The influence of counter ion and ligand methyl substitution on the
 solid-state structures and photophysical properties of mercury(II)
 complexes with (E)-N-(pyridin-2-ylmethylidene)arylamines.
;
_journal_issue                   5
_journal_name_full
'Dalton transactions (Cambridge, England : 2003)'
_journal_page_first              1905
_journal_page_last               1920
_journal_paper_doi               10.1039/c2dt32283h
_journal_volume                  42
_journal_year                    2013
_chemical_formula_moiety         'C13 H12 Hg I2 N2'
_chemical_formula_sum            'C13 H12 Hg I2 N2'
_chemical_formula_weight         650.56
_chemical_name_systematic
;
?
;
_space_group_IT_number           2
_symmetry_cell_setting           triclinic
_symmetry_Int_Tables_number      2
_symmetry_space_group_name_Hall  '-P 1'
_symmetry_space_group_name_H-M   'P -1'
_atom_sites_solution_hydrogens   geom
_atom_sites_solution_primary     heavy
_atom_sites_solution_secondary   difmap
_audit_creation_date             10-09-09
_audit_creation_method           SHELXL-97
_cell_angle_alpha                76.8887(10)
_cell_angle_beta                 83.9298(10)
_cell_angle_gamma                76.6521(10)
_cell_formula_units_Z            2
_cell_length_a                   7.7545(1)
_cell_length_b                   9.9076(2)
_cell_length_c                   10.9202(2)
_cell_measurement_reflns_used    21886
_cell_measurement_temperature    160(1)
_cell_measurement_theta_max      27.5
_cell_measurement_theta_min      1.0
_cell_volume                     793.78(2)
_computing_cell_refinement       'DENZO-SMN (Otwinowski & Minor, 1997)'
_computing_data_collection       'COLLECT (Nonius, 2000)'
_computing_data_reduction
'DENZO-SMN and SCALEPACK (Otwinowski & Minor, 1997)'
_computing_molecular_graphics    'ORTEPII (Johnson, 1976)'
_computing_publication_material  'SHELXL97 and PLATON (Spek, 2006)'
_computing_structure_refinement  'SHELXL97 (Sheldrick, 2008)'
_computing_structure_solution    'DIRDIF94 (Beurskens et al., 1994)'
_diffrn_ambient_temperature      160(1)
_diffrn_detector                 '65 mm CCD camera on \k goniostat'
_diffrn_detector_area_resol_mean 9
_diffrn_measured_fraction_theta_full 0.990
_diffrn_measured_fraction_theta_max 0.990
_diffrn_measurement_device_type
'Nonius KappaCCD area-detector diffractometer'
_diffrn_measurement_method       '\f and \w scans with \k offsets'
_diffrn_radiation_monochromator  'horizontally mounted graphite crystal'
_diffrn_radiation_source         'Nonius FR590 sealed tube generator'
_diffrn_radiation_type           'Mo K\a'
_diffrn_radiation_wavelength     0.71073
_diffrn_reflns_av_R_equivalents  0.0752
_diffrn_reflns_av_sigmaI/netI    0.0354
_diffrn_reflns_limit_h_max       10
_diffrn_reflns_limit_h_min       -9
_diffrn_reflns_limit_k_max       12
_diffrn_reflns_limit_k_min       -12
_diffrn_reflns_limit_l_max       14
_diffrn_reflns_limit_l_min       -14
_diffrn_reflns_number            17262
_diffrn_reflns_theta_full        27.49
_diffrn_reflns_theta_max         27.49
_diffrn_reflns_theta_min         1.92
_diffrn_standards_decay_%        0
_diffrn_standards_number         0
_exptl_absorpt_coefficient_mu    13.593
_exptl_absorpt_correction_T_max  0.072
_exptl_absorpt_correction_T_min  0.033
_exptl_absorpt_correction_type   multi-scan
_exptl_absorpt_process_details   '(Blessing, 1995)'
_exptl_crystal_colour            pale-yellow
_exptl_crystal_density_diffrn    2.722
_exptl_crystal_density_method    'not measured'
_exptl_crystal_description       prism
_exptl_crystal_F_000             580
_exptl_crystal_size_max          0.25
_exptl_crystal_size_mid          0.25
_exptl_crystal_size_min          0.22
_refine_diff_density_max         1.231
_refine_diff_density_min         -4.185
_refine_diff_density_rms         0.366
_refine_ls_extinction_method     none
_refine_ls_goodness_of_fit_ref   1.069
_refine_ls_hydrogen_treatment    constr
_refine_ls_matrix_type           full
_refine_ls_number_parameters     164
_refine_ls_number_reflns         3607
_refine_ls_number_restraints     0
_refine_ls_restrained_S_all      1.069
_refine_ls_R_factor_all          0.0443
_refine_ls_R_factor_gt           0.0397
_refine_ls_shift/su_max          0.001
_refine_ls_shift/su_mean         0.000
_refine_ls_structure_factor_coef Fsqd
_refine_ls_weighting_details
'w=1/[\s^2^(Fo^2^)+(0.0662P)^2^+1.7003P] where P=(Fo^2^+2Fc^2^)/3'
_refine_ls_weighting_scheme      calc
_refine_ls_wR_factor_gt          0.1006
_refine_ls_wR_factor_ref         0.1045
_reflns_number_gt                3330
_reflns_number_total             3607
_reflns_threshold_expression     'I > 2\s(I)'
_iucr_refine_instructions_details
;
TITL TSBB-294 (L1018)
CELL 0.71073 7.7545 9.9076 10.9202 76.8887 83.9298 76.6521
ZERR 2 0.0001 0.0002 0.0002 0.0010 0.0010 0.0010
LATT 1
SFAC C H HG I N
UNIT 26 24 2 4 4
MERG 2
TEMP -113
L.S. 4
BOND $H
CONF
ACTA
FMAP 2
PLAN 40
WGHT 0.066200 1.700300
FVAR 1.26034
C1 1 0.828754 -0.084600 1.051675 11.00000 0.02679 0.03325 =
0.03494 -0.00705 0.00142 -0.01036
C2 1 0.847411 -0.068135 1.172776 11.00000 0.03368 0.03738 =
0.03338 -0.00983 0.00063 -0.01301
AFIX 43
H2 2 0.784746 0.014893 1.200575 11.00000 -1.20000
AFIX 0
C3 1 0.958396 -0.174225 1.252218 11.00000 0.04233 0.05372 =
0.03349 -0.00688 -0.00149 -0.02125
AFIX 43
H3 2 0.973664 -0.164759 1.334817 11.00000 -1.20000
AFIX 0
C4 1 1.045743 -0.293186 1.209086 11.00000 0.03862 0.04086 =
0.04410 0.00446 -0.01128 -0.00969
AFIX 43
H4 2 1.121417 -0.367708 1.262099 11.00000 -1.20000
AFIX 0
C5 1 1.022944 -0.303818 1.088350 11.00000 0.03829 0.03662 =
0.04433 -0.00644 -0.00716 -0.00247
AFIX 43
H5 2 1.084115 -0.386383 1.059202 11.00000 -1.20000
AFIX 0
C6 1 0.714822 0.028812 0.965700 11.00000 0.02796 0.02931 =
0.03540 -0.00965 0.00184 -0.00527
AFIX 43
H6 2 0.654367 0.112418 0.993472 11.00000 -1.20000
AFIX 0
C7 1 0.589011 0.124770 0.769791 11.00000 0.02331 0.02776 =
0.03032 -0.00584 -0.00142 -0.00294
C8 1 0.501886 0.257794 0.792474 11.00000 0.03362 0.03168 =
0.03661 -0.01124 -0.00253 -0.00201
AFIX 43
H8 2 0.512457 0.280553 0.870923 11.00000 -1.20000
AFIX 0
C9 1 0.402209 0.355161 0.703994 11.00000 0.03854 0.03240 =
0.04075 -0.01383 -0.00386 -0.00443
AFIX 43
H9 2 0.346247 0.445182 0.721640 11.00000 -1.20000
AFIX 0
C10 1 0.379947 0.326243 0.587759 11.00000 0.02952 0.03559 =
0.03045 -0.00554 -0.00172 -0.00323
C11 1 0.467621 0.196184 0.562554 11.00000 0.04214 0.03865 =
0.03035 -0.01167 0.00031 -0.00188
AFIX 43
H11 2 0.456749 0.174696 0.483613 11.00000 -1.20000
AFIX 0
C12 1 0.571917 0.096279 0.652150 11.00000 0.03660 0.02995 =
0.03166 -0.01205 -0.00120 0.00002
AFIX 43
H12 2 0.632108 0.007804 0.633137 11.00000 -1.20000
AFIX 0
C13 1 0.266830 0.432813 0.492237 11.00000 0.04457 0.03463 =
0.04012 -0.00420 -0.01138 0.00407
AFIX 137
H13A 2 0.336297 0.449947 0.412073 11.00000 -1.20000
H13B 2 0.226241 0.521826 0.521784 11.00000 -1.20000
H13C 2 0.163859 0.396467 0.480286 11.00000 -1.20000
AFIX 0
HG1 3 0.837181 -0.213520 0.807040 11.00000 0.03760 0.03217 =
0.03529 -0.00931 -0.00194 -0.00172
I1 4 0.569620 -0.349287 0.856996 11.00000 0.04596 0.03937 =
0.04335 -0.01681 0.00511 -0.01307
I2 4 1.098004 -0.206788 0.631609 11.00000 0.04002 0.04837 =
0.04223 -0.02032 0.00475 -0.00576
N1 5 0.916265 -0.200352 1.010384 11.00000 0.03686 0.03119 =
0.03239 -0.00431 -0.00682 -0.00521
N2 5 0.696204 0.016612 0.855369 11.00000 0.03158 0.02885 =
0.02582 -0.00556 -0.00043 -0.00737
HKLF 4

REM TSBB-294 (L1018)
REM R1 = 0.0397 for 3330 Fo > 4sig(Fo) and 0.0443 for all 3607 data
REM 164 parameters refined using 0 restraints

END

WGHT 0.0662 1.7003
REM Highest difference peak 1.231, deepest hole -4.185, 1-sigma level 0.366
Q1 1 0.7740 -0.1599 0.7217 11.00000 0.05 1.23
Q2 1 0.9953 -0.0767 1.4720 11.00000 0.05 0.85
Q3 1 0.4222 0.2240 1.0179 11.00000 0.05 0.83
Q4 1 1.1182 -0.2342 0.7074 11.00000 0.05 0.81
Q5 1 0.5327 0.4759 0.8151 11.00000 0.05 0.80
Q6 1 1.1044 -0.2429 0.5391 11.00000 0.05 0.80
Q7 1 0.5909 -0.3689 0.9376 11.00000 0.05 0.78
Q8 1 0.9036 -0.1658 0.8170 11.00000 0.05 0.75
Q9 1 0.8314 -0.1803 0.8963 11.00000 0.05 0.74
Q10 1 0.9126 -0.0443 1.4118 11.00000 0.05 0.74
Q11 1 0.9360 -0.1217 1.3359 11.00000 0.05 0.74
Q12 1 0.6298 0.0607 0.4136 11.00000 0.05 0.72
Q13 1 0.8450 -0.0211 0.4743 11.00000 0.05 0.72
Q14 1 0.5846 -0.4720 0.9370 11.00000 0.05 0.72
Q15 1 0.9954 -0.1371 1.3171 11.00000 0.05 0.70
Q16 1 0.5550 -0.4371 0.7996 11.00000 0.05 0.70
Q17 1 1.1320 -0.0969 0.5386 11.00000 0.05 0.69
Q18 1 0.5247 -0.3210 0.9553 11.00000 0.05 0.68
Q19 1 0.5505 0.4118 0.7618 11.00000 0.05 0.68
Q20 1 0.8826 -0.1408 1.4378 11.00000 0.05 0.68
;
_cod_data_source_file            c2dt32283h.txt
_cod_data_source_block           8
_cod_original_sg_symbol_H-M      'P -1 '
_cod_database_code               7022312
loop_
_symmetry_equiv_pos_as_xyz
'x, y, z'
'-x, -y, -z'
loop_
_atom_site_label
_atom_site_type_symbol
_atom_site_fract_x
_atom_site_fract_y
_atom_site_fract_z
_atom_site_U_iso_or_equiv
_atom_site_adp_type
_atom_site_occupancy
_atom_site_symmetry_multiplicity
_atom_site_calc_flag
_atom_site_refinement_flags
C1 C 0.8288(8) -0.0846(7) 1.0517(6) 0.0313(12) Uani 1 1 d .
C2 C 0.8474(9) -0.0681(7) 1.1728(6) 0.0337(13) Uani 1 1 d .
H2 H 0.7847 0.0149 1.2006 0.040 Uiso 1 1 calc R
C3 C 0.9584(10) -0.1742(8) 1.2522(7) 0.0418(16) Uani 1 1 d .
H3 H 0.9737 -0.1648 1.3348 0.050 Uiso 1 1 calc R
C4 C 1.0457(10) -0.2932(8) 1.2091(7) 0.0425(16) Uani 1 1 d .
H4 H 1.1214 -0.3677 1.2621 0.051 Uiso 1 1 calc R
C5 C 1.0229(9) -0.3038(8) 1.0883(7) 0.0406(15) Uani 1 1 d .
H5 H 1.0841 -0.3864 1.0592 0.049 Uiso 1 1 calc R
C6 C 0.7148(8) 0.0288(7) 0.9657(6) 0.0308(12) Uani 1 1 d .
H6 H 0.6544 0.1124 0.9935 0.037 Uiso 1 1 calc R
C7 C 0.5890(7) 0.1248(6) 0.7698(6) 0.0276(11) Uani 1 1 d .
C8 C 0.5019(8) 0.2578(7) 0.7925(6) 0.0341(13) Uani 1 1 d .
H8 H 0.5125 0.2806 0.8709 0.041 Uiso 1 1 calc R
C9 C 0.4022(9) 0.3552(7) 0.7040(7) 0.0366(14) Uani 1 1 d .
H9 H 0.3462 0.4452 0.7216 0.044 Uiso 1 1 calc R
C10 C 0.3799(8) 0.3262(7) 0.5878(6) 0.0327(13) Uani 1 1 d .
C11 C 0.4676(9) 0.1962(7) 0.5626(6) 0.0376(14) Uani 1 1 d .
H11 H 0.4567 0.1747 0.4836 0.045 Uiso 1 1 calc R
C12 C 0.5719(8) 0.0963(7) 0.6522(6) 0.0331(13) Uani 1 1 d .
H12 H 0.6321 0.0078 0.6331 0.040 Uiso 1 1 calc R
C13 C 0.2668(10) 0.4328(7) 0.4922(7) 0.0418(15) Uani 1 1 d .
H13A H 0.3363 0.4499 0.4121 0.050 Uiso 1 1 calc R
H13B H 0.2262 0.5218 0.5218 0.050 Uiso 1 1 calc R
H13C H 0.1639 0.3965 0.4803 0.050 Uiso 1 1 calc R
Hg1 Hg 0.83718(3) -0.21352(2) 0.80704(2) 0.03561(11) Uani 1 1 d .
I1 I 0.56962(6) -0.34929(5) 0.85700(4) 0.04147(14) Uani 1 1 d .
I2 I 1.09800(6) -0.20679(5) 0.63161(4) 0.04291(14) Uani 1 1 d .
N1 N 0.9163(7) -0.2004(6) 1.0104(5) 0.0338(11) Uani 1 1 d .
N2 N 0.6962(7) 0.0166(5) 0.8554(5) 0.0287(10) Uani 1 1 d .
loop_
_atom_site_aniso_label
_atom_site_aniso_U_11
_atom_site_aniso_U_22
_atom_site_aniso_U_33
_atom_site_aniso_U_23
_atom_site_aniso_U_13
_atom_site_aniso_U_12
C1 0.027(3) 0.033(3) 0.035(3) -0.007(2) 0.001(2) -0.010(2)
C2 0.034(3) 0.037(3) 0.033(3) -0.010(3) 0.001(2) -0.013(3)
C3 0.042(4) 0.054(4) 0.033(3) -0.007(3) -0.001(3) -0.021(3)
C4 0.039(3) 0.041(4) 0.044(4) 0.004(3) -0.011(3) -0.010(3)
C5 0.038(3) 0.037(3) 0.044(4) -0.006(3) -0.007(3) -0.002(3)
C6 0.028(3) 0.029(3) 0.035(3) -0.010(2) 0.002(2) -0.005(2)
C7 0.023(3) 0.028(3) 0.030(3) -0.006(2) -0.001(2) -0.003(2)
C8 0.034(3) 0.032(3) 0.037(3) -0.011(3) -0.003(2) -0.002(2)
C9 0.039(3) 0.032(3) 0.041(4) -0.014(3) -0.004(3) -0.004(3)
C10 0.030(3) 0.036(3) 0.030(3) -0.006(2) -0.002(2) -0.003(2)
C11 0.042(4) 0.039(3) 0.030(3) -0.012(3) 0.000(3) -0.002(3)
C12 0.037(3) 0.030(3) 0.032(3) -0.012(2) -0.001(2) 0.000(2)
C13 0.045(4) 0.035(3) 0.040(4) -0.004(3) -0.011(3) 0.004(3)
Hg1 0.03760(16) 0.03217(15) 0.03529(17) -0.00931(11) -0.00194(10) -0.00172(10)
I1 0.0460(3) 0.0394(3) 0.0433(3) -0.01681(19) 0.00511(19) -0.01307(19)
I2 0.0400(2) 0.0484(3) 0.0422(3) -0.0203(2) 0.00475(19) -0.0058(2)
N1 0.037(3) 0.031(3) 0.032(3) -0.004(2) -0.007(2) -0.005(2)
N2 0.032(2) 0.029(2) 0.026(2) -0.0056(19) -0.0004(19) -0.007(2)
loop_
_atom_type_symbol
_atom_type_description
_atom_type_number_in_cell
_atom_type_scat_dispersion_real
_atom_type_scat_dispersion_imag
_atom_type_scat_source
C C 26 0.0033 0.0016
; International Tables for Crystallography (1992).
Vol. C, Tables 4.2.6.8 and 6.1.1.4
;
H H 24 0.0000 0.0000
; International Tables for Crystallography (1992).
Vol. C, Tables 4.2.6.8 and 6.1.1.4
;
Hg Hg 2 -2.3894 9.2266
; International Tables for Crystallography (1992).
Vol. C, Tables 4.2.6.8 and 6.1.1.4
;
I I 4 -0.4742 1.8119
; International Tables for Crystallography (1992).
Vol. C, Tables 4.2.6.8 and 6.1.1.4
;
N N 4 0.0061 0.0033
; International Tables for Crystallography (1992).
Vol. C, Tables 4.2.6.8 and 6.1.1.4
;
loop_
_geom_angle_atom_site_label_1
_geom_angle_atom_site_label_2
_geom_angle_atom_site_label_3
_geom_angle
N1 C1 C2 121.3(6)
N1 C1 C6 118.9(6)
C2 C1 C6 119.7(6)
C3 C2 C1 119.3(6)
C3 C2 H2 120.3
C1 C2 H2 120.3
C4 C3 C2 118.7(7)
C4 C3 H3 120.7
C2 C3 H3 120.7
C3 C4 C5 119.6(7)
C3 C4 H4 120.2
C5 C4 H4 120.2
N1 C5 C4 121.9(7)
N1 C5 H5 119.0
C4 C5 H5 119.0
N2 C6 C1 120.9(6)
N2 C6 H6 119.5
C1 C6 H6 119.5
C8 C7 C12 117.6(6)
C8 C7 N2 125.4(6)
C12 C7 N2 117.0(5)
C9 C8 C7 121.1(6)
C9 C8 H8 119.5
C7 C8 H8 119.5
C8 C9 C10 121.8(6)
C8 C9 H9 119.1
C10 C9 H9 119.1
C11 C10 C9 118.0(6)
C11 C10 C13 120.6(6)
C9 C10 C13 121.4(6)
C10 C11 C12 120.6(6)
C10 C11 H11 119.7
C12 C11 H11 119.7
C11 C12 C7 120.9(6)
C11 C12 H12 119.6
C7 C12 H12 119.6
C10 C13 H13A 109.5
C10 C13 H13B 109.5
H13A C13 H13B 109.5
C10 C13 H13C 109.5
H13A C13 H13C 109.5
H13B C13 H13C 109.5
N1 Hg1 N2 69.73(18)
N1 Hg1 I2 114.29(14)
N2 Hg1 I2 114.55(12)
N1 Hg1 I1 104.46(13)
N2 Hg1 I1 101.71(12)
I2 Hg1 I1 133.685(17)
C1 N1 C5 119.1(6)
C1 N1 Hg1 114.6(4)
C5 N1 Hg1 125.9(5)
C6 N2 C7 122.3(5)
C6 N2 Hg1 115.1(4)
C7 N2 Hg1 122.5(4)
loop_
_geom_bond_atom_site_label_1
_geom_bond_atom_site_label_2
_geom_bond_distance
C1 N1 1.338(8)
C1 C2 1.395(9)
C1 C6 1.471(9)
C2 C3 1.387(10)
C2 H2 0.9500
C3 C4 1.373(12)
C3 H3 0.9500
C4 C5 1.379(11)
C4 H4 0.9500
C5 N1 1.350(9)
C5 H5 0.9500
C6 N2 1.264(8)
C6 H6 0.9500
C7 C8 1.399(9)
C7 C12 1.402(9)
C7 N2 1.418(7)
C8 C9 1.361(9)
C8 H8 0.9500
C9 C10 1.399(9)
C9 H9 0.9500
C10 C11 1.384(9)
C10 C13 1.496(9)
C11 C12 1.396(9)
C11 H11 0.9500
C12 H12 0.9500
C13 H13A 0.9800
C13 H13B 0.9800
C13 H13C 0.9800
Hg1 N1 2.404(5)
Hg1 N2 2.438(5)
Hg1 I2 2.6363(5)
Hg1 I1 2.6698(5)
loop_
_geom_torsion_atom_site_label_1
_geom_torsion_atom_site_label_2
_geom_torsion_atom_site_label_3
_geom_torsion_atom_site_label_4
_geom_torsion
N1 C1 C2 C3 -0.3(9)
C6 C1 C2 C3 -178.5(6)
C1 C2 C3 C4 -0.5(10)
C2 C3 C4 C5 0.7(10)
C3 C4 C5 N1 -0.2(11)
N1 C1 C6 N2 1.5(9)
C2 C1 C6 N2 179.8(6)
C12 C7 C8 C9 0.9(10)
N2 C7 C8 C9 179.7(6)
C7 C8 C9 C10 1.0(10)
C8 C9 C10 C11 -2.1(10)
C8 C9 C10 C13 178.6(7)
C9 C10 C11 C12 1.3(10)
C13 C10 C11 C12 -179.4(6)
C10 C11 C12 C7 0.6(10)
C8 C7 C12 C11 -1.7(9)
N2 C7 C12 C11 179.4(6)
C2 C1 N1 C5 0.8(9)
C6 C1 N1 C5 179.1(6)
C2 C1 N1 Hg1 173.8(5)
C6 C1 N1 Hg1 -7.9(7)
C4 C5 N1 C1 -0.6(10)
C4 C5 N1 Hg1 -172.7(5)
N2 Hg1 N1 C1 7.5(4)
I2 Hg1 N1 C1 116.2(4)
I1 Hg1 N1 C1 -89.8(4)
N2 Hg1 N1 C5 180.0(6)
I2 Hg1 N1 C5 -71.4(6)
I1 Hg1 N1 C5 82.6(6)
C1 C6 N2 C7 -179.2(5)
C1 C6 N2 Hg1 5.7(7)
C8 C7 N2 C6 4.1(9)
C12 C7 N2 C6 -177.1(6)
C8 C7 N2 Hg1 178.8(5)
C12 C7 N2 Hg1 -2.4(7)
N1 Hg1 N2 C6 -6.9(4)
I2 Hg1 N2 C6 -115.2(4)
I1 Hg1 N2 C6 94.3(4)
N1 Hg1 N2 C7 178.0(5)
I2 Hg1 N2 C7 69.8(4)
I1 Hg1 N2 C7 -80.7(4)
