#------------------------------------------------------------------------------
#$Date: 2016-03-25 15:49:44 +0200 (Fri, 25 Mar 2016) $
#$Revision: 179938 $
#$URL: svn://www.crystallography.net/cod/cif/7/02/33/7023307.cif $
#------------------------------------------------------------------------------
#
# This file is available in the Crystallography Open Database (COD),
# http://www.crystallography.net/
#
# All data on this site have been placed in the public domain by the
# contributors.
#
data_7023307
loop_
_publ_author_name
'Bousrez, Guillaume'
'Jaroschik, Florian'
'Martinez, Agathe'
'Harakat, Dominique'
'Nicolas, Emmanuel'
'Le Goff, Xavier F.'
'Szymoniak, Jan'
_publ_section_title
;
 Reactivity differences between 2,4- and 2,5-disubstituted
 zirconacyclopentadienes: a highly selective and general approach to
 2,4-disubstituted phospholes.
;
_journal_issue                   30
_journal_name_full
'Dalton transactions (Cambridge, England : 2003)'
_journal_page_first              10997
_journal_page_last               11004
_journal_paper_doi               10.1039/c3dt51158h
_journal_volume                  42
_journal_year                    2013
_chemical_formula_moiety         'C22 H17 P'
_chemical_formula_sum            'C22 H17 P'
_chemical_formula_weight         312.33
_chemical_name_systematic
;
?
;
_space_group_IT_number           4
_symmetry_cell_setting           monoclinic
_symmetry_space_group_name_Hall  'P 2yb'
_symmetry_space_group_name_H-M   'P 1 21 1'
_atom_sites_solution_hydrogens   geom
_atom_sites_solution_primary     direct
_atom_sites_solution_secondary   difmap
_audit_creation_method           SHELXL-97
_cell_angle_alpha                90.00
_cell_angle_beta                 115.528(1)
_cell_angle_gamma                90.00
_cell_formula_units_Z            2
_cell_length_a                   12.079(1)
_cell_length_b                   5.832(1)
_cell_length_c                   12.562(1)
_cell_measurement_reflns_used    2080
_cell_measurement_temperature    150.0(1)
_cell_measurement_theta_max      30.034
_cell_measurement_theta_min      0.998
_cell_volume                     798.54(16)
_computing_cell_refinement       'DENZO (Otwinowski & Minor, 1997) & COLLECT'
_computing_data_collection       'COLLECT (Hooft, R.W.W., 1998)'
_computing_data_reduction        'DENZO & COLLECT'
_computing_molecular_graphics    'PLATON (Spek, 2009)'
_computing_publication_material  'PLATON (Spek, 2009)'
_computing_structure_refinement  'SHELXL-97 (Sheldrick, 1997)'
_computing_structure_solution    'SIR97 (Altomare et al., 1999)'
_diffrn_ambient_temperature      150.0(1)
_diffrn_measured_fraction_theta_full 0.976
_diffrn_measured_fraction_theta_max 0.976
_diffrn_measurement_device_type  KappaCCD
_diffrn_measurement_method       'phi and omega scans'
_diffrn_radiation_monochromator  graphite
_diffrn_radiation_source         'fine-focus sealed tube'
_diffrn_radiation_type           MoK\a
_diffrn_radiation_wavelength     0.71069
_diffrn_reflns_av_R_equivalents  0.0256
_diffrn_reflns_av_sigmaI/netI    0.0378
_diffrn_reflns_limit_h_max       16
_diffrn_reflns_limit_h_min       -10
_diffrn_reflns_limit_k_max       7
_diffrn_reflns_limit_k_min       -8
_diffrn_reflns_limit_l_max       17
_diffrn_reflns_limit_l_min       -17
_diffrn_reflns_number            5707
_diffrn_reflns_theta_full        30.03
_diffrn_reflns_theta_max         30.03
_diffrn_reflns_theta_min         3.10
_exptl_absorpt_coefficient_mu    0.169
_exptl_absorpt_correction_T_max  0.9833
_exptl_absorpt_correction_T_min  0.9638
_exptl_absorpt_correction_type   multi-scan
_exptl_absorpt_process_details   'DENZO/SCALEPACK (Otwinowski & Minor, 1996)'
_exptl_crystal_colour            Yellow
_exptl_crystal_density_diffrn    1.299
_exptl_crystal_density_method    'not measured'
_exptl_crystal_description       Block
_exptl_crystal_F_000             328
_exptl_crystal_size_max          0.22
_exptl_crystal_size_mid          0.18
_exptl_crystal_size_min          0.10
_refine_diff_density_max         0.219
_refine_diff_density_min         -0.188
_refine_diff_density_rms         0.041
_refine_ls_abs_structure_details 'Flack H D (1983), Acta Cryst. A39, 876-881'
_refine_ls_abs_structure_Flack   0.17(8)
_refine_ls_extinction_method     none
_refine_ls_goodness_of_fit_ref   1.064
_refine_ls_hydrogen_treatment    constr
_refine_ls_matrix_type           full
_refine_ls_number_parameters     209
_refine_ls_number_reflns         3917
_refine_ls_number_restraints     1
_refine_ls_restrained_S_all      1.064
_refine_ls_R_factor_all          0.0378
_refine_ls_R_factor_gt           0.0359
_refine_ls_shift/su_max          0.000
_refine_ls_shift/su_mean         0.000
_refine_ls_structure_factor_coef Fsqd
_refine_ls_weighting_details
'calc w=1/[\s^2^(Fo^2^)+(0.0000P)^2^+0.3882P] where P=(Fo^2^+2Fc^2^)/3'
_refine_ls_weighting_scheme      calc
_refine_ls_wR_factor_gt          0.0788
_refine_ls_wR_factor_ref         0.0806
_reflns_number_gt                3796
_reflns_number_total             3917
_reflns_threshold_expression     >2sigma(I)
_cod_data_source_file            c3dt51158h.txt
_cod_data_source_block           fj_triphenylphosphol
_cod_depositor_comments
;
The following automatic conversions were performed:

'_symmetry_cell_setting' value 'Monoclinic' changed to 'monoclinic'
according to /home/saulius/struct/CIF-dictionaries/cif_core.dic
dictionary named 'cif_core.dic' version 2.4.2 from 2011-04-26.

Automatic conversion script
Id: cif_fix_values 1891 2012-01-12 08:04:46Z andrius 
;
_cod_original_sg_symbol_H-M      'P21 '
_cod_database_code               7023307
loop_
_symmetry_equiv_pos_as_xyz
'x, y, z'
'-x, y+1/2, -z'
loop_
_atom_site_label
_atom_site_type_symbol
_atom_site_fract_x
_atom_site_fract_y
_atom_site_fract_z
_atom_site_U_iso_or_equiv
_atom_site_adp_type
_atom_site_occupancy
_atom_site_symmetry_multiplicity
_atom_site_calc_flag
_atom_site_refinement_flags
P1 P 0.62735(3) 0.76527(7) 0.91318(3) 0.01881(9) Uani 1 1 d .
C1 C 0.52610(14) 0.5623(3) 0.80446(14) 0.0193(3) Uani 1 1 d .
C2 C 0.51908(14) 0.3691(3) 0.86151(14) 0.0215(3) Uani 1 1 d .
H2 H 0.4654 0.2464 0.8220 0.026 Uiso 1 1 calc R
C3 C 0.59845(14) 0.3627(3) 0.98591(14) 0.0205(3) Uani 1 1 d .
H3 H 0.6005 0.2357 1.0340 0.025 Uiso 1 1 calc R
C4 C 0.67025(14) 0.5509(3) 1.02986(14) 0.0191(3) Uani 1 1 d .
C5 C 0.45363(14) 0.6142(3) 0.67891(15) 0.0211(3) Uani 1 1 d .
C6 C 0.46895(15) 0.8194(3) 0.62900(14) 0.0245(4) Uani 1 1 d .
H6 H 0.5269 0.9291 0.6774 0.029 Uiso 1 1 calc R
C7 C 0.40050(17) 0.8649(4) 0.50959(16) 0.0299(4) Uani 1 1 d .
H7 H 0.4127 1.0041 0.4768 0.036 Uiso 1 1 calc R
C8 C 0.31413(17) 0.7065(4) 0.43807(16) 0.0321(4) Uani 1 1 d .
H8 H 0.2670 0.7376 0.3566 0.039 Uiso 1 1 calc R
C9 C 0.29746(18) 0.5031(4) 0.48664(16) 0.0334(4) Uani 1 1 d .
H9 H 0.2387 0.3947 0.4381 0.040 Uiso 1 1 calc R
C10 C 0.36597(16) 0.4571(3) 0.60534(15) 0.0272(4) Uani 1 1 d .
H10 H 0.3535 0.3173 0.6375 0.033 Uiso 1 1 calc R
C11 C 0.75077(14) 0.5924(3) 1.15461(14) 0.0203(3) Uani 1 1 d .
C12 C 0.75902(15) 0.4329(3) 1.24196(15) 0.0242(3) Uani 1 1 d .
H12 H 0.7136 0.2942 1.2192 0.029 Uiso 1 1 calc R
C13 C 0.83213(16) 0.4745(4) 1.36041(16) 0.0290(4) Uani 1 1 d .
H13 H 0.8355 0.3654 1.4179 0.035 Uiso 1 1 calc R
C14 C 0.90061(17) 0.6752(4) 1.39550(16) 0.0314(4) Uani 1 1 d .
H14 H 0.9514 0.7031 1.4766 0.038 Uiso 1 1 calc R
C15 C 0.89389(17) 0.8342(3) 1.31083(16) 0.0302(4) Uani 1 1 d .
H15 H 0.9405 0.9715 1.3343 0.036 Uiso 1 1 calc R
C16 C 0.81964(14) 0.7948(3) 1.19192(14) 0.0245(3) Uani 1 1 d .
H16 H 0.8155 0.9064 1.1352 0.029 Uiso 1 1 calc R
C17 C 0.76013(12) 0.7899(3) 0.87907(13) 0.0198(3) Uani 1 1 d .
C18 C 0.79232(15) 0.6151(3) 0.82219(16) 0.0253(3) Uani 1 1 d .
H18 H 0.7457 0.4775 0.8013 0.030 Uiso 1 1 calc R
C19 C 0.89211(17) 0.6406(4) 0.79583(18) 0.0308(4) Uani 1 1 d .
H19 H 0.9131 0.5214 0.7563 0.037 Uiso 1 1 calc R
C20 C 0.96118(16) 0.8405(4) 0.82720(16) 0.0308(4) Uani 1 1 d .
H20 H 1.0295 0.8577 0.8092 0.037 Uiso 1 1 calc R
C21 C 0.93088(16) 1.0149(4) 0.88470(16) 0.0292(4) Uani 1 1 d .
H21 H 0.9789 1.1507 0.9070 0.035 Uiso 1 1 calc R
C22 C 0.82980(16) 0.9903(3) 0.90966(15) 0.0254(3) Uani 1 1 d .
H22 H 0.8082 1.1110 0.9479 0.030 Uiso 1 1 calc R
loop_
_atom_site_aniso_label
_atom_site_aniso_U_11
_atom_site_aniso_U_22
_atom_site_aniso_U_33
_atom_site_aniso_U_23
_atom_site_aniso_U_13
_atom_site_aniso_U_12
P1 0.02144(16) 0.01604(18) 0.02046(17) -0.00004(17) 0.01046(13) -0.00078(16)
C1 0.0199(7) 0.0182(8) 0.0214(7) -0.0036(6) 0.0103(6) -0.0018(5)
C2 0.0234(7) 0.0182(8) 0.0255(7) -0.0020(7) 0.0128(6) -0.0015(6)
C3 0.0251(7) 0.0163(7) 0.0242(7) 0.0013(6) 0.0146(6) 0.0005(6)
C4 0.0224(7) 0.0174(8) 0.0210(7) 0.0008(6) 0.0127(6) 0.0026(5)
C5 0.0224(7) 0.0203(8) 0.0235(8) -0.0006(6) 0.0126(6) 0.0006(6)
C6 0.0271(7) 0.0227(10) 0.0243(8) 0.0021(7) 0.0118(6) -0.0004(6)
C7 0.0351(9) 0.0300(10) 0.0269(8) 0.0059(8) 0.0156(7) 0.0039(8)
C8 0.0356(9) 0.0369(12) 0.0221(8) 0.0043(7) 0.0107(7) 0.0048(7)
C9 0.0334(9) 0.0333(11) 0.0258(9) -0.0019(8) 0.0056(7) -0.0035(8)
C10 0.0301(8) 0.0235(9) 0.0259(8) -0.0008(7) 0.0102(7) -0.0050(7)
C11 0.0198(7) 0.0206(8) 0.0221(8) 0.0002(6) 0.0105(6) 0.0025(6)
C12 0.0250(8) 0.0225(9) 0.0260(8) 0.0039(7) 0.0119(6) 0.0017(6)
C13 0.0289(8) 0.0321(10) 0.0257(8) 0.0081(8) 0.0115(7) 0.0035(7)
C14 0.0287(8) 0.0402(11) 0.0224(8) 0.0004(8) 0.0084(7) 0.0009(8)
C15 0.0317(8) 0.0313(11) 0.0261(8) -0.0040(7) 0.0112(7) -0.0074(7)
C16 0.0289(7) 0.0227(9) 0.0230(7) 0.0001(7) 0.0123(6) -0.0035(7)
C17 0.0203(6) 0.0194(8) 0.0198(6) 0.0010(7) 0.0087(5) -0.0013(6)
C18 0.0258(8) 0.0218(8) 0.0307(9) -0.0024(7) 0.0146(7) -0.0028(6)
C19 0.0294(9) 0.0332(11) 0.0361(10) -0.0025(8) 0.0202(8) -0.0005(7)
C20 0.0242(8) 0.0396(11) 0.0320(9) 0.0043(8) 0.0153(7) -0.0018(7)
C21 0.0263(8) 0.0302(10) 0.0300(9) 0.0027(8) 0.0112(7) -0.0086(7)
C22 0.0281(8) 0.0222(9) 0.0270(8) -0.0008(7) 0.0130(7) -0.0047(6)
loop_
_atom_type_symbol
_atom_type_description
_atom_type_scat_dispersion_real
_atom_type_scat_dispersion_imag
_atom_type_scat_source
C C 0.0033 0.0016 'International Tables Vol C Tables 4.2.6.8 and 6.1.1.4'
H H 0.0000 0.0000 'International Tables Vol C Tables 4.2.6.8 and 6.1.1.4'
P P 0.1023 0.0942 'International Tables Vol C Tables 4.2.6.8 and 6.1.1.4'
loop_
_geom_angle_atom_site_label_1
_geom_angle_atom_site_label_2
_geom_angle_atom_site_label_3
_geom_angle
C1 P1 C4 91.34(8)
C1 P1 C17 104.33(7)
C4 P1 C17 105.49(7)
C2 C1 C5 126.47(15)
C2 C1 P1 108.53(12)
C5 C1 P1 124.60(12)
C1 C2 C3 115.52(15)
C1 C2 H2 122.2
C3 C2 H2 122.2
C4 C3 C2 115.47(15)
C4 C3 H3 122.3
C2 C3 H3 122.3
C3 C4 C11 125.52(15)
C3 C4 P1 108.45(12)
C11 C4 P1 125.04(13)
C6 C5 C10 118.08(16)
C6 C5 C1 121.65(15)
C10 C5 C1 120.27(15)
C7 C6 C5 120.96(17)
C7 C6 H6 119.5
C5 C6 H6 119.5
C6 C7 C8 120.04(18)
C6 C7 H7 120.0
C8 C7 H7 120.0
C9 C8 C7 119.57(17)
C9 C8 H8 120.2
C7 C8 H8 120.2
C10 C9 C8 120.43(18)
C10 C9 H9 119.8
C8 C9 H9 119.8
C9 C10 C5 120.92(18)
C9 C10 H10 119.5
C5 C10 H10 119.5
C16 C11 C12 117.54(15)
C16 C11 C4 121.39(15)
C12 C11 C4 121.04(16)
C13 C12 C11 121.30(17)
C13 C12 H12 119.3
C11 C12 H12 119.3
C12 C13 C14 120.28(17)
C12 C13 H13 119.9
C14 C13 H13 119.9
C15 C14 C13 119.30(17)
C15 C14 H14 120.4
C13 C14 H14 120.4
C14 C15 C16 120.73(18)
C14 C15 H15 119.6
C16 C15 H15 119.6
C15 C16 C11 120.85(16)
C15 C16 H16 119.6
C11 C16 H16 119.6
C18 C17 C22 119.09(14)
C18 C17 P1 121.84(13)
C22 C17 P1 119.06(13)
C19 C18 C17 120.43(17)
C19 C18 H18 119.8
C17 C18 H18 119.8
C20 C19 C18 119.98(18)
C20 C19 H19 120.0
C18 C19 H19 120.0
C21 C20 C19 120.21(16)
C21 C20 H20 119.9
C19 C20 H20 119.9
C20 C21 C22 119.75(17)
C20 C21 H21 120.1
C22 C21 H21 120.1
C21 C22 C17 120.53(17)
C21 C22 H22 119.7
C17 C22 H22 119.7
loop_
_geom_bond_atom_site_label_1
_geom_bond_atom_site_label_2
_geom_bond_distance
P1 C1 1.8229(17)
P1 C4 1.8237(17)
P1 C17 1.8355(15)
C1 C2 1.357(2)
C1 C5 1.468(2)
C2 C3 1.439(2)
C2 H2 0.9500
C3 C4 1.359(2)
C3 H3 0.9500
C4 C11 1.465(2)
C5 C6 1.400(2)
C5 C10 1.404(2)
C6 C7 1.391(2)
C6 H6 0.9500
C7 C8 1.393(3)
C7 H7 0.9500
C8 C9 1.388(3)
C8 H8 0.9500
C9 C10 1.384(3)
C9 H9 0.9500
C10 H10 0.9500
C11 C16 1.403(2)
C11 C12 1.409(2)
C12 C13 1.386(2)
C12 H12 0.9500
C13 C14 1.391(3)
C13 H13 0.9500
C14 C15 1.387(3)
C14 H14 0.9500
C15 C16 1.391(2)
C15 H15 0.9500
C16 H16 0.9500
C17 C18 1.393(2)
C17 C22 1.394(2)
C18 C19 1.389(2)
C18 H18 0.9500
C19 C20 1.388(3)
C19 H19 0.9500
C20 C21 1.385(3)
C20 H20 0.9500
C21 C22 1.393(2)
C21 H21 0.9500
C22 H22 0.9500
