#------------------------------------------------------------------------------
#$Date: 2016-03-25 15:58:18 +0200 (Fri, 25 Mar 2016) $
#$Revision: 179945 $
#$URL: svn://www.crystallography.net/cod/cif/7/02/40/7024009.cif $
#------------------------------------------------------------------------------
#
# This file is available in the Crystallography Open Database (COD),
# http://www.crystallography.net/
#
# All data on this site have been placed in the public domain by the
# contributors.
#
data_7024009
loop_
_publ_author_name
'Be\,sli, Serap'
'Mutlu, Ceylan'
'Yuksel, Fatma'
_publ_section_title
;
 Nucleophilic substitution reactions of 10- and 11-membered fluorodioxy
 ansa cyclotriphosphazene derivatives.
;
_journal_issue                   48
_journal_name_full
'Dalton transactions (Cambridge, England : 2003)'
_journal_page_first              16709
_journal_page_last               16722
_journal_paper_doi               10.1039/c3dt52461b
_journal_volume                  42
_journal_year                    2013
_chemical_formula_sum            'C7 H10 Cl2 F6 N3 O4 P3'
_chemical_formula_weight         477.99
_chemical_name_common            cyclophosphazene
_space_group_crystal_system      triclinic
_space_group_IT_number           2
_space_group_name_Hall           '-P 1'
_space_group_name_H-M_alt        'P -1'
_symmetry_space_group_name_Hall  '-P 1'
_symmetry_space_group_name_H-M   'P -1'
_atom_sites_solution_hydrogens   geom
_atom_sites_solution_primary     direct
_atom_sites_solution_secondary   difmap
_cell_angle_alpha                76.146(6)
_cell_angle_beta                 78.797(5)
_cell_angle_gamma                89.580(5)
_cell_formula_units_Z            2
_cell_length_a                   6.5257(8)
_cell_length_b                   8.4635(10)
_cell_length_c                   15.8000(19)
_cell_measurement_reflns_used    9880
_cell_measurement_temperature    120.(2)
_cell_measurement_theta_max      28.3362
_cell_measurement_theta_min      2.4807
_cell_volume                     830.40(18)
_computing_cell_refinement       'SAINT V7.66A (Bruker AXS, 2009)'
_computing_data_reduction        'SAINT V7.66A (Bruker AXS, 2009)'
_computing_structure_refinement  'SHELXL-97 (Sheldrick, 2008)'
_computing_structure_solution    'SHELXS-97 (Sheldrick, 2008)'
_diffrn_ambient_temperature      120.(2)
_diffrn_detector_area_resol_mean 8.3333
_diffrn_measured_fraction_theta_full 0.993
_diffrn_measured_fraction_theta_max 0.993
_diffrn_radiation_monochromator  multilayer
_diffrn_radiation_type           MoK\a
_diffrn_radiation_wavelength     0.71073
_diffrn_reflns_av_R_equivalents  0.0390
_diffrn_reflns_av_sigmaI/netI    0.0179
_diffrn_reflns_limit_h_max       8
_diffrn_reflns_limit_h_min       -8
_diffrn_reflns_limit_k_max       11
_diffrn_reflns_limit_k_min       -11
_diffrn_reflns_limit_l_max       21
_diffrn_reflns_limit_l_min       -21
_diffrn_reflns_number            30234
_diffrn_reflns_theta_full        28.34
_diffrn_reflns_theta_max         28.34
_diffrn_reflns_theta_min         1.35
_diffrn_source                   ImuS
_exptl_absorpt_coefficient_mu    0.764
_exptl_absorpt_correction_T_max  0.89
_exptl_absorpt_correction_T_min  0.79
_exptl_absorpt_correction_type   multi-scan
_exptl_absorpt_process_details   'SADABS V2008/1 (Bruker AXS)'
_exptl_crystal_colour            colourless
_exptl_crystal_density_diffrn    1.912
_exptl_crystal_density_method    'not measured'
_exptl_crystal_description       block
_exptl_crystal_F_000             476
_exptl_crystal_size_max          0.500
_exptl_crystal_size_mid          0.170
_exptl_crystal_size_min          0.160
_refine_diff_density_max         1.547
_refine_diff_density_min         -0.665
_refine_ls_extinction_method     none
_refine_ls_goodness_of_fit_ref   1.050
_refine_ls_hydrogen_treatment    constr
_refine_ls_matrix_type           full
_refine_ls_number_parameters     228
_refine_ls_number_reflns         4125
_refine_ls_number_restraints     0
_refine_ls_restrained_S_all      1.050
_refine_ls_R_factor_all          0.0368
_refine_ls_R_factor_gt           0.0350
_refine_ls_shift/su_max          0.000
_refine_ls_shift/su_mean         0.000
_refine_ls_structure_factor_coef Fsqd
_refine_ls_weighting_details
'calc w=1/[\s^2^(Fo^2^)+(0.0363P)^2^+1.3778P] where P=(Fo^2^+2Fc^2^)/3'
_refine_ls_weighting_scheme      calc
_refine_ls_wR_factor_gt          0.0901
_refine_ls_wR_factor_ref         0.0918
_reflns_number_gt                3918
_reflns_number_total             4125
_reflns_threshold_expression     >2sigma(I)
_iucr_refine_instructions_details
;
TITL 12gyte107_T066_02_3_0m in P-1
CELL 0.71073 6.5257 8.4635 15.8000 76.146 78.797 89.580
ZERR 2.00 0.0008 0.0010 0.0019 0.006 0.005 0.005
LATT 1
SFAC C H N O F P Cl
UNIT 14 20 6 8 12 6 4
L.S. 10
OMIT 0 -3 4
ACTA
HTAB
BOND $H
FMAP 2
PLAN 2
SIZE 0.159 0.171 0.498
CONF
TEMP -153.150
WGHT 0.036300 1.377800
FVAR 0.22755
P1 6 0.394505 -0.178331 0.355717 11.00000 0.02295 0.01472 =
0.01497 -0.00207 -0.00284 0.00382
P2 6 0.224625 0.120913 0.319824 11.00000 0.01914 0.01547 =
0.01335 -0.00458 -0.00268 0.00354
P3 6 0.326381 -0.043274 0.187653 11.00000 0.01796 0.01378 =
0.01402 -0.00474 -0.00219 -0.00117
N1 3 0.316989 -0.018690 0.385526 11.00000 0.03256 0.01878 =
0.01455 -0.00486 -0.00683 0.00668
N2 3 0.205273 0.095687 0.226025 11.00000 0.01848 0.01605 =
0.01514 -0.00445 -0.00377 0.00191
N3 3 0.412303 -0.183871 0.255894 11.00000 0.03065 0.01520 =
0.01682 -0.00494 -0.00293 0.00482
O1 4 0.606423 -0.228119 0.383455 11.00000 0.03127 0.03627 =
0.02968 -0.01353 -0.01322 0.01539
O2 4 0.358110 0.282433 0.308495 11.00000 0.03532 0.01761 =
0.01843 -0.00398 -0.01007 -0.00282
O3 4 0.520401 0.033119 0.111872 11.00000 0.02148 0.01763 =
0.01796 -0.00279 0.00068 0.00053
O4 4 0.188901 -0.115139 0.132201 11.00000 0.03584 0.03044 =
0.02177 -0.01611 -0.01031 0.00672
CL1 7 0.197233 -0.365575 0.430469 11.00000 0.04738 0.02237 =
0.03005 0.00131 0.00840 -0.00572
CL2 7 -0.056863 0.169327 0.381671 11.00000 0.02864 0.04933 =
0.02686 -0.01539 -0.00155 0.01194
F1 5 0.697392 0.487682 0.252815 11.00000 0.03982 0.02547 =
0.03476 -0.00780 -0.02161 -0.00551
F2 5 0.611430 0.593655 0.124434 11.00000 0.03860 0.01564 =
0.03240 0.00362 -0.01216 -0.00477
F3 5 0.726114 0.188335 0.211928 11.00000 0.02747 0.01960 =
0.02405 -0.00037 -0.01125 0.00255
F4 5 0.939851 0.392403 0.133728 11.00000 0.01917 0.03615 =
0.04616 -0.00435 -0.01004 -0.00856
F5 5 0.883228 0.207255 0.037278 11.00000 0.01965 0.04275 =
0.03306 -0.01012 0.00269 0.00187
F6 5 0.723727 0.432752 -0.001642 11.00000 0.03511 0.02838 =
0.02276 0.00807 -0.00246 -0.01050
C1 1 0.632815 -0.231232 0.473448 11.00000 0.05262 0.05323 =
0.03860 -0.02132 -0.02928 0.02675
AFIX 137
H1A 2 0.601248 -0.124697 0.485881 11.00000 -1.50000
H1B 2 0.777414 -0.256031 0.478683 11.00000 -1.50000
H1C 2 0.537509 -0.315061 0.516219 11.00000 -1.50000
AFIX 0
C2 1 0.373680 0.413391 0.230843 11.00000 0.02944 0.01379 =
0.02305 -0.00382 -0.00916 0.00177
AFIX 23
H2A 2 0.306104 0.509987 0.247101 11.00000 -1.20000
H2B 2 0.301305 0.381160 0.187628 11.00000 -1.20000
AFIX 0
C3 1 0.602095 0.454446 0.189526 11.00000 0.03054 0.01473 =
0.02493 -0.00132 -0.01431 -0.00389
C4 1 0.740919 0.330397 0.149525 11.00000 0.01812 0.02037 =
0.02675 0.00040 -0.00799 -0.00425
C5 1 0.712845 0.290296 0.061202 11.00000 0.01963 0.02310 =
0.01954 0.00094 0.00003 -0.00154
C6 1 0.519072 0.194753 0.057962 11.00000 0.02141 0.01981 =
0.01536 -0.00139 -0.00349 -0.00065
AFIX 23
H6A 2 0.391743 0.248597 0.080291 11.00000 -1.20000
H6B 2 0.518378 0.191143 -0.004149 11.00000 -1.20000
AFIX 0
C7 1 -0.012671 -0.180857 0.173797 11.00000 0.04442 0.03596 =
0.03839 -0.01634 -0.00921 -0.00453
AFIX 137
H7A 2 -0.002779 -0.277510 0.221285 11.00000 -1.50000
H7B 2 -0.081972 -0.211416 0.129959 11.00000 -1.50000
H7C 2 -0.093956 -0.099515 0.199182 11.00000 -1.50000
HKLF 4

REM 12gyte107_T066_02_3_0m in P-1
REM R1 = 0.0350 for 3918 Fo > 4sig(Fo) and 0.0368 for all 4125 data
REM 228 parameters refined using 0 restraints

END

WGHT 0.0363 1.3778
REM Highest difference peak 1.547, deepest hole -0.665, 1-sigma level 0.076
Q1 1 0.0989 -0.1630 0.1541 11.00000 0.05 1.55
Q2 1 0.0597 0.2107 0.3581 11.00000 0.05 0.92
;
_cod_data_source_file            c3dt52461b.txt
_cod_data_source_block           SB5a
_cod_original_cell_volume        830.40(17)
_cod_database_code               7024009
loop_
_space_group_symop_operation_xyz
'x, y, z'
'-x, -y, -z'
loop_
_atom_site_type_symbol
_atom_site_label
_atom_site_fract_x
_atom_site_fract_y
_atom_site_fract_z
_atom_site_U_iso_or_equiv
_atom_site_adp_type
_atom_site_calc_flag
_atom_site_refinement_flags
_atom_site_occupancy
P P1 0.39450(8) -0.17833(6) 0.35572(3) 0.01795(11) Uani d . 1
P P2 0.22462(8) 0.12091(6) 0.31982(3) 0.01589(11) Uani d . 1
P P3 0.32638(7) -0.04327(6) 0.18765(3) 0.01515(11) Uani d . 1
N N1 0.3170(3) -0.0187(2) 0.38553(11) 0.0215(3) Uani d . 1
N N2 0.2053(3) 0.09569(19) 0.22602(10) 0.0164(3) Uani d . 1
N N3 0.4123(3) -0.1839(2) 0.25589(11) 0.0210(3) Uani d . 1
O O1 0.6064(3) -0.2281(2) 0.38345(11) 0.0305(4) Uani d . 1
O O2 0.3581(3) 0.28243(17) 0.30849(9) 0.0232(3) Uani d . 1
O O3 0.5204(2) 0.03312(17) 0.11187(9) 0.0199(3) Uani d . 1
O O4 0.1889(3) -0.11514(19) 0.13220(10) 0.0270(3) Uani d . 1
Cl Cl1 0.19723(11) -0.36558(7) 0.43047(4) 0.03679(15) Uani d . 1
Cl Cl2 -0.05686(9) 0.16933(8) 0.38167(4) 0.03448(14) Uani d . 1
F F1 0.6974(2) 0.48768(16) 0.25282(9) 0.0313(3) Uani d . 1
F F2 0.6114(2) 0.59366(15) 0.12443(9) 0.0298(3) Uani d . 1
F F3 0.7261(2) 0.18834(14) 0.21193(8) 0.0237(3) Uani d . 1
F F4 0.9399(2) 0.39240(18) 0.13373(10) 0.0343(3) Uani d . 1
F F5 0.8832(2) 0.20725(18) 0.03728(9) 0.0328(3) Uani d . 1
F F6 0.7237(2) 0.43275(17) -0.00164(9) 0.0316(3) Uani d . 1
C C1 0.6328(5) -0.2312(4) 0.47345(19) 0.0437(7) Uani d . 1
H H1A 0.6012 -0.1247 0.4859 0.066 Uiso calc R 1
H H1B 0.7774 -0.256 0.4787 0.066 Uiso calc R 1
H H1C 0.5375 -0.3151 0.5162 0.066 Uiso calc R 1
C C2 0.3737(3) 0.4134(2) 0.23084(14) 0.0217(4) Uani d . 1
H H2A 0.3061 0.51 0.2471 0.026 Uiso calc R 1
H H2B 0.3013 0.3812 0.1876 0.026 Uiso calc R 1
C C3 0.6021(3) 0.4544(2) 0.18953(14) 0.0228(4) Uani d . 1
C C4 0.7409(3) 0.3304(2) 0.14952(14) 0.0223(4) Uani d . 1
C C5 0.7128(3) 0.2903(3) 0.06120(13) 0.0223(4) Uani d . 1
C C6 0.5191(3) 0.1948(2) 0.05796(12) 0.0194(4) Uani d . 1
H H6A 0.3917 0.2486 0.0803 0.023 Uiso calc R 1
H H6B 0.5184 0.1911 -0.0041 0.023 Uiso calc R 1
C C7 -0.0127(4) -0.1809(3) 0.17380(18) 0.0382(6) Uani d . 1
H H7A -0.0028 -0.2775 0.2213 0.057 Uiso calc R 1
H H7B -0.082 -0.2114 0.13 0.057 Uiso calc R 1
H H7C -0.094 -0.0995 0.1992 0.057 Uiso calc R 1
loop_
_atom_site_aniso_label
_atom_site_aniso_U_11
_atom_site_aniso_U_22
_atom_site_aniso_U_33
_atom_site_aniso_U_12
_atom_site_aniso_U_13
_atom_site_aniso_U_23
P1 0.0229(2) 0.0147(2) 0.0150(2) 0.00382(17) -0.00284(18) -0.00207(17)
P2 0.0191(2) 0.0155(2) 0.0133(2) 0.00354(17) -0.00268(17) -0.00458(16)
P3 0.0180(2) 0.0138(2) 0.0140(2) -0.00117(16) -0.00219(17) -0.00474(16)
N1 0.0326(9) 0.0188(8) 0.0145(7) 0.0067(7) -0.0068(7) -0.0049(6)
N2 0.0185(7) 0.0161(7) 0.0151(7) 0.0019(6) -0.0038(6) -0.0045(6)
N3 0.0307(9) 0.0152(7) 0.0168(7) 0.0048(6) -0.0029(6) -0.0049(6)
O1 0.0313(8) 0.0363(9) 0.0297(8) 0.0154(7) -0.0132(7) -0.0135(7)
O2 0.0353(8) 0.0176(6) 0.0184(7) -0.0028(6) -0.0101(6) -0.0040(5)
O3 0.0215(7) 0.0176(6) 0.0180(6) 0.0005(5) 0.0007(5) -0.0028(5)
O4 0.0358(8) 0.0304(8) 0.0218(7) 0.0067(6) -0.0103(6) -0.0161(6)
Cl1 0.0474(3) 0.0224(3) 0.0301(3) -0.0057(2) 0.0084(2) 0.0013(2)
Cl2 0.0286(3) 0.0493(3) 0.0269(3) 0.0119(2) -0.0016(2) -0.0154(2)
F1 0.0398(8) 0.0255(6) 0.0348(7) -0.0055(5) -0.0216(6) -0.0078(5)
F2 0.0386(7) 0.0156(6) 0.0324(7) -0.0048(5) -0.0122(6) 0.0036(5)
F3 0.0275(6) 0.0196(6) 0.0241(6) 0.0026(5) -0.0112(5) -0.0004(5)
F4 0.0192(6) 0.0361(7) 0.0462(8) -0.0086(5) -0.0100(6) -0.0044(6)
F5 0.0197(6) 0.0428(8) 0.0331(7) 0.0019(5) 0.0027(5) -0.0101(6)
F6 0.0351(7) 0.0284(7) 0.0228(6) -0.0105(5) -0.0025(5) 0.0081(5)
C1 0.0526(16) 0.0532(16) 0.0386(14) 0.0267(13) -0.0293(13) -0.0213(12)
C2 0.0294(10) 0.0138(8) 0.0231(9) 0.0018(7) -0.0092(8) -0.0038(7)
C3 0.0305(10) 0.0147(8) 0.0249(10) -0.0039(7) -0.0143(8) -0.0013(7)
C4 0.0181(9) 0.0204(9) 0.0267(10) -0.0042(7) -0.0080(7) 0.0004(8)
C5 0.0196(9) 0.0231(9) 0.0195(9) -0.0015(7) 0.0000(7) 0.0009(7)
C6 0.0214(9) 0.0198(9) 0.0154(8) -0.0006(7) -0.0035(7) -0.0014(7)
C7 0.0444(14) 0.0360(13) 0.0384(13) -0.0045(11) -0.0092(11) -0.0163(11)
loop_
_atom_type_symbol
_atom_type_description
_atom_type_scat_dispersion_real
_atom_type_scat_dispersion_imag
_atom_type_scat_source
C C 0.0033 0.0016 'International Tables Vol C Tables 4.2.6.8 and 6.1.1.4'
H H 0.0000 0.0000 'International Tables Vol C Tables 4.2.6.8 and 6.1.1.4'
N N 0.0061 0.0033 'International Tables Vol C Tables 4.2.6.8 and 6.1.1.4'
O O 0.0106 0.0060 'International Tables Vol C Tables 4.2.6.8 and 6.1.1.4'
F F 0.0171 0.0103 'International Tables Vol C Tables 4.2.6.8 and 6.1.1.4'
P P 0.1023 0.0942 'International Tables Vol C Tables 4.2.6.8 and 6.1.1.4'
Cl Cl 0.1484 0.1585 'International Tables Vol C Tables 4.2.6.8 and 6.1.1.4'
loop_
_geom_angle_atom_site_label_1
_geom_angle_atom_site_label_2
_geom_angle_atom_site_label_3
_geom_angle
O1 P1 N3 108.40(9)
O1 P1 N1 110.67(9)
N3 P1 N1 119.21(9)
O1 P1 Cl1 102.54(7)
N3 P1 Cl1 107.04(7)
N1 P1 Cl1 107.62(7)
N1 P2 N2 118.78(9)
N1 P2 O2 107.10(9)
N2 P2 O2 110.24(8)
N1 P2 Cl2 108.36(7)
N2 P2 Cl2 108.39(7)
O2 P2 Cl2 102.81(7)
N3 P3 O3 106.61(9)
N3 P3 O4 111.27(9)
O3 P3 O4 100.52(8)
N3 P3 N2 117.16(9)
O3 P3 N2 110.25(8)
O4 P3 N2 109.71(9)
P2 N1 P1 119.98(11)
P2 N2 P3 120.94(10)
P1 N3 P3 121.30(10)
C1 O1 P1 119.62(16)
C2 O2 P2 121.19(12)
C6 O3 P3 121.27(12)
C7 O4 P3 119.11(15)
O1 C1 H1A 109.5
O1 C1 H1B 109.5
H1A C1 H1B 109.5
O1 C1 H1C 109.5
H1A C1 H1C 109.5
H1B C1 H1C 109.5
O2 C2 C3 109.05(16)
O2 C2 H2A 109.9
C3 C2 H2A 109.9
O2 C2 H2B 109.9
C3 C2 H2B 109.9
H2A C2 H2B 108.3
F1 C3 F2 107.45(15)
F1 C3 C2 107.75(18)
F2 C3 C2 107.24(17)
F1 C3 C4 105.46(16)
F2 C3 C4 107.48(17)
C2 C3 C4 120.84(16)
F3 C4 F4 107.95(16)
F3 C4 C3 108.48(17)
F4 C4 C3 105.32(16)
F3 C4 C5 107.60(16)
F4 C4 C5 105.63(17)
C3 C4 C5 121.21(17)
F5 C5 F6 107.29(16)
F5 C5 C6 108.57(17)
F6 C5 C6 107.01(16)
F5 C5 C4 104.82(17)
F6 C5 C4 108.06(17)
C6 C5 C4 120.46(16)
O3 C6 C5 108.97(16)
O3 C6 H6A 109.9
C5 C6 H6A 109.9
O3 C6 H6B 109.9
C5 C6 H6B 109.9
H6A C6 H6B 108.3
O4 C7 H7A 109.5
O4 C7 H7B 109.5
H7A C7 H7B 109.5
O4 C7 H7C 109.5
H7A C7 H7C 109.5
H7B C7 H7C 109.5
loop_
_geom_bond_atom_site_label_1
_geom_bond_atom_site_label_2
_geom_bond_distance
P1 O1 1.5558(16)
P1 N3 1.5708(17)
P1 N1 1.5828(17)
P1 Cl1 2.0264(8)
P2 N1 1.5755(17)
P2 N2 1.5756(16)
P2 O2 1.5809(15)
P2 Cl2 1.9951(7)
P3 N3 1.5823(17)
P3 O3 1.5833(14)
P3 O4 1.5846(16)
P3 N2 1.5865(16)
O1 C1 1.459(3)
O2 C2 1.430(2)
O3 C6 1.429(2)
O4 C7 1.404(3)
F1 C3 1.358(2)
F2 C3 1.359(2)
F3 C4 1.351(2)
F4 C4 1.358(2)
F5 C5 1.351(2)
F6 C5 1.358(2)
C1 H1A 0.98
C1 H1B 0.98
C1 H1C 0.98
C2 C3 1.513(3)
C2 H2A 0.99
C2 H2B 0.99
C3 C4 1.550(3)
C4 C5 1.557(3)
C5 C6 1.522(3)
C6 H6A 0.99
C6 H6B 0.99
C7 H7A 0.98
C7 H7B 0.98
C7 H7C 0.98
loop_
_geom_torsion_atom_site_label_1
_geom_torsion_atom_site_label_2
_geom_torsion_atom_site_label_3
_geom_torsion_atom_site_label_4
_geom_torsion
N2 P2 N1 P1 1.81(18)
O2 P2 N1 P1 -123.77(13)
Cl2 P2 N1 P1 125.96(11)
O1 P1 N1 P2 136.53(13)
N3 P1 N1 P2 9.83(18)
Cl1 P1 N1 P2 -112.16(12)
N1 P2 N2 P3 -15.49(16)
O2 P2 N2 P3 108.56(12)
Cl2 P2 N2 P3 -139.63(9)
N3 P3 N2 P2 16.90(16)
O3 P3 N2 P2 -105.21(12)
O4 P3 N2 P2 144.98(11)
O1 P1 N3 P3 -136.00(13)
N1 P1 N3 P3 -8.24(18)
Cl1 P1 N3 P3 114.05(11)
O3 P3 N3 P1 119.10(13)
O4 P3 N3 P1 -132.21(12)
N2 P3 N3 P1 -4.88(17)
N3 P1 O1 C1 179.32(19)
N1 P1 O1 C1 46.8(2)
Cl1 P1 O1 C1 -67.7(2)
N1 P2 O2 C2 155.40(15)
N2 P2 O2 C2 24.84(18)
Cl2 P2 O2 C2 -90.54(15)
N3 P3 O3 C6 -157.33(14)
O4 P3 O3 C6 86.55(15)
N2 P3 O3 C6 -29.18(16)
N3 P3 O4 C7 73.98(19)
O3 P3 O4 C7 -173.43(17)
N2 P3 O4 C7 -57.30(19)
P2 O2 C2 C3 -125.10(16)
O2 C2 C3 F1 -55.7(2)
O2 C2 C3 F2 -171.10(15)
O2 C2 C3 C4 65.4(2)
F1 C3 C4 F3 68.45(19)
F2 C3 C4 F3 -177.14(15)
C2 C3 C4 F3 -53.8(2)
F1 C3 C4 F4 -46.9(2)
F2 C3 C4 F4 67.49(19)
C2 C3 C4 F4 -169.16(17)
F1 C3 C4 C5 -166.43(16)
F2 C3 C4 C5 -52.0(2)
C2 C3 C4 C5 71.3(2)
F3 C4 C5 F5 -66.90(19)
F4 C4 C5 F5 48.2(2)
C3 C4 C5 F5 167.58(17)
F3 C4 C5 F6 178.92(15)
F4 C4 C5 F6 -66.0(2)
C3 C4 C5 F6 53.4(2)
F3 C4 C5 C6 55.6(2)
F4 C4 C5 C6 170.75(17)
C3 C4 C5 C6 -69.9(2)
P3 O3 C6 C5 126.71(15)
F5 C5 C6 O3 54.6(2)
F6 C5 C6 O3 170.14(15)
C4 C5 C6 O3 -66.1(2)
