#------------------------------------------------------------------------------
#$Date: 2016-03-25 15:58:18 +0200 (Fri, 25 Mar 2016) $
#$Revision: 179945 $
#$URL: svn://www.crystallography.net/cod/cif/7/02/40/7024008.cif $
#------------------------------------------------------------------------------
#
# This file is available in the Crystallography Open Database (COD),
# http://www.crystallography.net/
#
# All data on this site have been placed in the public domain by the
# contributors.
#
data_7024008
loop_
_publ_author_name
'Be\,sli, Serap'
'Mutlu, Ceylan'
'Yuksel, Fatma'
_publ_section_title
;
 Nucleophilic substitution reactions of 10- and 11-membered fluorodioxy
 ansa cyclotriphosphazene derivatives.
;
_journal_issue                   48
_journal_name_full
'Dalton transactions (Cambridge, England : 2003)'
_journal_page_first              16709
_journal_page_last               16722
_journal_paper_doi               10.1039/c3dt52461b
_journal_volume                  42
_journal_year                    2013
_chemical_formula_sum            'C7 H10 Cl2 F6 N3 O4 P3'
_chemical_formula_weight         477.99
_chemical_name_common            fosfazen
_space_group_crystal_system      monoclinic
_space_group_IT_number           4
_space_group_name_Hall           'P 2yb'
_space_group_name_H-M_alt        'P 1 21 1'
_symmetry_space_group_name_Hall  'P 2yb'
_symmetry_space_group_name_H-M   'P 1 21 1'
_atom_sites_solution_hydrogens   geom
_atom_sites_solution_primary     direct
_atom_sites_solution_secondary   difmap
_cell_angle_alpha                90
_cell_angle_beta                 111.409(6)
_cell_angle_gamma                90
_cell_formula_units_Z            2
_cell_length_a                   7.8562(11)
_cell_length_b                   12.7286(18)
_cell_length_c                   8.6574(12)
_cell_measurement_reflns_used    9887
_cell_measurement_temperature    130.(2)
_cell_measurement_theta_max      28.3410
_cell_measurement_theta_min      2.5270
_cell_volume                     806.0(2)
_computing_cell_refinement       'SAINT V7.66A (Bruker AXS, 2009)'
_computing_data_reduction        'SAINT V7.66A (Bruker AXS, 2009)'
_computing_structure_refinement  'SHELXL-97 (Sheldrick, 2008)'
_computing_structure_solution    'SHELXS-97 (Sheldrick, 2008)'
_diffrn_ambient_temperature      130.(2)
_diffrn_detector_area_resol_mean 8.3333
_diffrn_measured_fraction_theta_full 1.000
_diffrn_measured_fraction_theta_max 1.000
_diffrn_radiation_monochromator  multilayer
_diffrn_radiation_type           MoK\a
_diffrn_radiation_wavelength     0.71073
_diffrn_reflns_av_R_equivalents  0.0322
_diffrn_reflns_av_sigmaI/netI    0.0285
_diffrn_reflns_limit_h_max       10
_diffrn_reflns_limit_h_min       -10
_diffrn_reflns_limit_k_max       17
_diffrn_reflns_limit_k_min       -17
_diffrn_reflns_limit_l_max       11
_diffrn_reflns_limit_l_min       -11
_diffrn_reflns_number            14404
_diffrn_reflns_theta_full        28.36
_diffrn_reflns_theta_max         28.36
_diffrn_reflns_theta_min         2.53
_diffrn_source                   ImuS
_exptl_absorpt_coefficient_mu    0.787
_exptl_absorpt_correction_T_max  0.91
_exptl_absorpt_correction_T_min  0.78
_exptl_absorpt_correction_type   multi-scan
_exptl_absorpt_process_details   'SADABS V2008/1 (Bruker AXS)'
_exptl_crystal_colour            colourless
_exptl_crystal_density_diffrn    1.970
_exptl_crystal_density_method    'not measured'
_exptl_crystal_description       block
_exptl_crystal_F_000             476
_exptl_crystal_size_max          0.200
_exptl_crystal_size_mid          0.170
_exptl_crystal_size_min          0.120
_refine_diff_density_max         0.341
_refine_diff_density_min         -0.295
_refine_ls_abs_structure_details 'Flack H D (1983), Acta Cryst. A39, 876-881'
_refine_ls_abs_structure_Flack   -0.03(4)
_refine_ls_extinction_method     none
_refine_ls_goodness_of_fit_ref   1.030
_refine_ls_hydrogen_treatment    constr
_refine_ls_matrix_type           full
_refine_ls_number_parameters     228
_refine_ls_number_reflns         4018
_refine_ls_number_restraints     1
_refine_ls_restrained_S_all      1.030
_refine_ls_R_factor_all          0.0209
_refine_ls_R_factor_gt           0.0203
_refine_ls_shift/su_max          0.001
_refine_ls_shift/su_mean         0.000
_refine_ls_structure_factor_coef Fsqd
_refine_ls_weighting_details
'calc w=1/[\s^2^(Fo^2^)+(0.0298P)^2^+0.1367P] where P=(Fo^2^+2Fc^2^)/3'
_refine_ls_weighting_scheme      calc
_refine_ls_wR_factor_gt          0.0536
_refine_ls_wR_factor_ref         0.0539
_reflns_number_gt                3936
_reflns_number_total             4018
_reflns_threshold_expression     >2sigma(I)
_iucr_refine_instructions_details
;
TITL 12gyte167_112t066_02_4a_0m in P2(1)
CELL 0.71073 7.8562 12.7286 8.6574 90.000 111.409 90.000
ZERR 2.00 0.0011 0.0018 0.0012 0.000 0.006 0.000
LATT -1
SYMM -X, 0.5+Y, -Z
SFAC C H N O F P Cl
UNIT 14 20 6 8 12 6 4
L.S. 10
ACTA
HTAB
BOND $H
FMAP 2
PLAN 2
CONF
SIZE 0.123 0.168 0.204
TEMP -143.160
WGHT 0.029800 0.136700
FVAR 0.22351
MOLE 1
P1 6 0.787731 0.140511 0.368361 11.00000 0.01401 0.01201 =
0.01697 -0.00107 0.00462 -0.00051
P2 6 0.781808 0.352154 0.431745 11.00000 0.01174 0.01191 =
0.01418 0.00038 0.00434 0.00136
P3 6 1.103273 0.245837 0.550455 11.00000 0.01101 0.01290 =
0.01510 -0.00031 0.00483 0.00080
N1 3 0.678226 0.246987 0.359622 11.00000 0.01194 0.01473 =
0.02385 -0.00159 0.00450 0.00039
N2 3 0.997983 0.354065 0.498508 11.00000 0.01300 0.01350 =
0.01833 0.00035 0.00518 -0.00014
N3 3 0.998927 0.140598 0.481806 11.00000 0.01309 0.01347 =
0.02280 -0.00106 0.00456 0.00035
O1 4 0.773216 0.103582 0.190375 11.00000 0.02174 0.02017 =
0.01568 -0.00233 0.00457 0.00194
O2 4 0.688294 0.047960 0.420153 11.00000 0.02034 0.01615 =
0.02033 -0.00021 0.00537 -0.00519
O3 4 0.710930 0.390418 0.572069 11.00000 0.01526 0.02225 =
0.01655 -0.00244 0.00691 -0.00219
O4 4 1.187643 0.237589 0.747041 11.00000 0.02461 0.01536 =
0.01558 -0.00053 0.00620 0.00195
CL1 7 0.693547 0.465340 0.261261 11.00000 0.02231 0.01902 =
0.01769 0.00585 0.00400 0.00353
CL2 7 1.326687 0.252743 0.492031 11.00000 0.01628 0.02441 =
0.03272 0.00067 0.01447 0.00150
F1 5 1.214820 0.234483 1.068782 11.00000 0.03321 0.02991 =
0.02135 0.01054 0.00737 0.00920
F2 5 1.225586 0.405843 1.086635 11.00000 0.02919 0.03293 =
0.02181 -0.01408 0.00490 -0.00714
F3 5 0.872245 0.244157 0.832446 11.00000 0.02438 0.01605 =
0.03054 -0.00412 0.00885 -0.00433
F4 5 0.919750 0.304021 1.081112 11.00000 0.03651 0.03533 =
0.02194 0.00908 0.01778 0.00232
F5 5 0.660839 0.402761 0.865797 11.00000 0.02232 0.03836 =
0.02789 0.00415 0.01667 0.00299
F6 5 0.899362 0.504182 0.974100 11.00000 0.03977 0.02210 =
0.02240 -0.00798 0.01179 0.00133
C1 1 0.607599 0.119617 0.048392 11.00000 0.02470 0.03628 =
0.02074 -0.00519 0.00140 -0.00045
AFIX 137
H1A 2 0.510073 0.075514 0.058755 11.00000 -1.50000
H1B 2 0.628652 0.100604 -0.052875 11.00000 -1.50000
H1C 2 0.571479 0.193633 0.042770 11.00000 -1.50000
AFIX 0
C2 1 0.706210 0.038591 0.592226 11.00000 0.02921 0.02391 =
0.02542 0.00154 0.01373 -0.00407
AFIX 137
H2A 2 0.834988 0.027612 0.661651 11.00000 -1.50000
H2B 2 0.633714 -0.021266 0.604513 11.00000 -1.50000
H2C 2 0.662042 0.103090 0.626876 11.00000 -1.50000
AFIX 0
C3 1 1.235279 0.330398 0.846805 11.00000 0.01701 0.01775 =
0.01853 -0.00247 0.00470 -0.00146
AFIX 23
H3A 2 1.186988 0.393129 0.776904 11.00000 -1.20000
H3B 2 1.369951 0.336902 0.897754 11.00000 -1.20000
AFIX 0
C4 1 1.154748 0.323837 0.981455 11.00000 0.02313 0.01861 =
0.01395 -0.00166 0.00305 -0.00054
C5 1 0.944785 0.324859 0.936993 11.00000 0.02564 0.01666 =
0.01647 -0.00002 0.01083 -0.00241
C6 1 0.830137 0.424927 0.864847 11.00000 0.02194 0.01698 =
0.01943 -0.00147 0.01100 0.00019
C7 1 0.808431 0.465900 0.694250 11.00000 0.02026 0.01579 =
0.01729 -0.00129 0.00855 -0.00015
AFIX 23
H7A 2 0.740714 0.533238 0.673163 11.00000 -1.20000
H7B 2 0.930237 0.478614 0.688366 11.00000 -1.20000
HKLF 4

REM 12gyte167_112t066_02_4a_0m in P2(1)
REM R1 = 0.0203 for 3936 Fo > 4sig(Fo) and 0.0209 for all 4018 data
REM 228 parameters refined using 1 restraints

END

WGHT 0.0298 0.1367
REM Highest difference peak 0.341, deepest hole -0.295, 1-sigma level 0.055
Q1 1 1.0462 0.3250 0.9499 11.00000 0.05 0.34
Q2 1 0.9035 0.3510 0.4604 11.00000 0.05 0.32
;
_cod_data_source_file            c3dt52461b.txt
_cod_data_source_block           SB4a
_cod_database_code               7024008
loop_
_space_group_symop_operation_xyz
'x, y, z'
'-x, y+1/2, -z'
loop_
_atom_site_type_symbol
_atom_site_label
_atom_site_fract_x
_atom_site_fract_y
_atom_site_fract_z
_atom_site_U_iso_or_equiv
_atom_site_adp_type
_atom_site_calc_flag
_atom_site_refinement_flags
_atom_site_occupancy
P P1 0.78773(6) 0.14051(3) 0.36836(5) 0.01462(8) Uani d . 1
P P2 0.78181(5) 0.35215(3) 0.43175(5) 0.01272(8) Uani d . 1
P P3 1.10327(5) 0.24584(3) 0.55045(5) 0.01298(8) Uani d . 1
N N1 0.67823(17) 0.24699(12) 0.35962(18) 0.0174(3) Uani d . 1
N N2 0.99798(18) 0.35407(11) 0.49851(17) 0.0151(2) Uani d . 1
N N3 0.99893(19) 0.14060(11) 0.48181(18) 0.0170(3) Uani d . 1
O O1 0.77322(17) 0.10358(10) 0.19037(15) 0.0198(2) Uani d . 1
O O2 0.68829(17) 0.04796(9) 0.42015(14) 0.0195(2) Uani d . 1
O O3 0.71093(16) 0.39042(10) 0.57207(14) 0.0177(2) Uani d . 1
O O4 1.18764(16) 0.23759(10) 0.74704(14) 0.0188(2) Uani d . 1
Cl Cl1 0.69355(5) 0.46534(3) 0.26126(5) 0.02060(9) Uani d . 1
Cl Cl2 1.32669(5) 0.25274(3) 0.49203(6) 0.02292(9) Uani d . 1
F F1 1.21482(15) 0.23448(10) 1.06878(13) 0.0289(2) Uani d . 1
F F2 1.22559(15) 0.40584(10) 1.08663(13) 0.0292(2) Uani d . 1
F F3 0.87224(13) 0.24416(9) 0.83245(13) 0.0240(2) Uani d . 1
F F4 0.91975(17) 0.30402(9) 1.08111(13) 0.0293(3) Uani d . 1
F F5 0.66084(14) 0.40276(10) 0.86580(14) 0.0274(2) Uani d . 1
F F6 0.89936(16) 0.50418(8) 0.97410(13) 0.0280(2) Uani d . 1
C C1 0.6076(3) 0.11962(17) 0.0484(2) 0.0292(4) Uani d . 1
H H1A 0.5101 0.0755 0.0588 0.044 Uiso calc R 1
H H1B 0.6287 0.1006 -0.0529 0.044 Uiso calc R 1
H H1C 0.5715 0.1936 0.0428 0.044 Uiso calc R 1
C C2 0.7062(3) 0.03859(16) 0.5922(2) 0.0251(4) Uani d . 1
H H2A 0.835 0.0276 0.6617 0.038 Uiso calc R 1
H H2B 0.6337 -0.0213 0.6045 0.038 Uiso calc R 1
H H2C 0.662 0.1031 0.6269 0.038 Uiso calc R 1
C C3 1.2353(2) 0.33040(13) 0.8468(2) 0.0183(3) Uani d . 1
H H3A 1.187 0.3931 0.7769 0.022 Uiso calc R 1
H H3B 1.37 0.3369 0.8978 0.022 Uiso calc R 1
C C4 1.1547(2) 0.32384(13) 0.9815(2) 0.0196(3) Uani d . 1
C C5 0.9448(2) 0.32486(13) 0.9370(2) 0.0187(3) Uani d . 1
C C6 0.8301(2) 0.42493(13) 0.8648(2) 0.0185(3) Uani d . 1
C C7 0.8084(2) 0.46590(13) 0.69425(19) 0.0173(3) Uani d . 1
H H7A 0.7407 0.5332 0.6732 0.021 Uiso calc R 1
H H7B 0.9302 0.4786 0.6884 0.021 Uiso calc R 1
loop_
_atom_site_aniso_label
_atom_site_aniso_U_11
_atom_site_aniso_U_22
_atom_site_aniso_U_33
_atom_site_aniso_U_12
_atom_site_aniso_U_13
_atom_site_aniso_U_23
P1 0.01401(18) 0.01201(17) 0.01697(19) -0.00051(14) 0.00462(15) -0.00107(15)
P2 0.01174(17) 0.01191(17) 0.01418(18) 0.00136(14) 0.00434(14) 0.00038(15)
P3 0.01101(16) 0.01290(16) 0.01510(19) 0.00080(14) 0.00483(14) -0.00031(14)
N1 0.0119(6) 0.0147(6) 0.0238(7) 0.0004(5) 0.0045(5) -0.0016(6)
N2 0.0130(6) 0.0135(6) 0.0183(6) -0.0001(5) 0.0052(5) 0.0004(5)
N3 0.0131(6) 0.0135(6) 0.0228(7) 0.0004(5) 0.0046(5) -0.0011(5)
O1 0.0217(6) 0.0202(6) 0.0157(6) 0.0019(4) 0.0046(5) -0.0023(5)
O2 0.0203(6) 0.0162(5) 0.0203(6) -0.0052(4) 0.0054(5) -0.0002(5)
O3 0.0153(5) 0.0223(6) 0.0166(6) -0.0022(4) 0.0069(5) -0.0024(4)
O4 0.0246(6) 0.0154(5) 0.0156(5) 0.0020(4) 0.0062(5) -0.0005(4)
Cl1 0.02231(19) 0.01902(18) 0.01769(18) 0.00353(15) 0.00400(15) 0.00585(15)
Cl2 0.01628(17) 0.02441(19) 0.0327(2) 0.00150(16) 0.01447(17) 0.00067(17)
F1 0.0332(6) 0.0299(6) 0.0213(5) 0.0092(5) 0.0074(5) 0.0105(5)
F2 0.0292(6) 0.0329(6) 0.0218(5) -0.0071(5) 0.0049(5) -0.0141(5)
F3 0.0244(5) 0.0160(4) 0.0305(6) -0.0043(4) 0.0088(4) -0.0041(4)
F4 0.0365(7) 0.0353(6) 0.0219(5) 0.0023(5) 0.0178(5) 0.0091(4)
F5 0.0223(5) 0.0384(6) 0.0279(6) 0.0030(5) 0.0167(5) 0.0041(5)
F6 0.0398(7) 0.0221(5) 0.0224(5) 0.0013(5) 0.0118(5) -0.0080(4)
C1 0.0247(10) 0.0363(10) 0.0207(9) -0.0004(8) 0.0014(8) -0.0052(7)
C2 0.0292(9) 0.0239(9) 0.0254(9) -0.0041(7) 0.0137(8) 0.0015(7)
C3 0.0170(8) 0.0178(8) 0.0185(7) -0.0015(6) 0.0047(6) -0.0025(6)
C4 0.0231(8) 0.0186(8) 0.0139(7) -0.0005(7) 0.0030(6) -0.0017(6)
C5 0.0256(9) 0.0167(7) 0.0165(7) -0.0024(6) 0.0108(7) 0.0000(6)
C6 0.0219(8) 0.0170(7) 0.0194(8) 0.0002(6) 0.0110(7) -0.0015(6)
C7 0.0203(7) 0.0158(7) 0.0173(7) -0.0002(6) 0.0085(6) -0.0013(6)
loop_
_atom_type_symbol
_atom_type_description
_atom_type_scat_dispersion_real
_atom_type_scat_dispersion_imag
_atom_type_scat_source
C C 0.0033 0.0016 'International Tables Vol C Tables 4.2.6.8 and 6.1.1.4'
H H 0.0000 0.0000 'International Tables Vol C Tables 4.2.6.8 and 6.1.1.4'
N N 0.0061 0.0033 'International Tables Vol C Tables 4.2.6.8 and 6.1.1.4'
O O 0.0106 0.0060 'International Tables Vol C Tables 4.2.6.8 and 6.1.1.4'
F F 0.0171 0.0103 'International Tables Vol C Tables 4.2.6.8 and 6.1.1.4'
P P 0.1023 0.0942 'International Tables Vol C Tables 4.2.6.8 and 6.1.1.4'
Cl Cl 0.1484 0.1585 'International Tables Vol C Tables 4.2.6.8 and 6.1.1.4'
loop_
_geom_angle_atom_site_label_1
_geom_angle_atom_site_label_2
_geom_angle_atom_site_label_3
_geom_angle
O2 P1 O1 100.95(7)
O2 P1 N3 109.92(7)
O1 P1 N3 106.93(7)
O2 P1 N1 109.66(7)
O1 P1 N1 111.26(7)
N3 P1 N1 116.92(8)
N1 P2 N2 119.28(7)
N1 P2 O3 106.86(7)
N2 P2 O3 110.22(7)
N1 P2 Cl1 109.32(6)
N2 P2 Cl1 107.21(5)
O3 P2 Cl1 102.72(5)
N3 P3 N2 119.20(7)
N3 P3 O4 107.77(7)
N2 P3 O4 109.38(7)
N3 P3 Cl2 109.11(6)
N2 P3 Cl2 107.79(5)
O4 P3 Cl2 102.27(5)
P2 N1 P1 120.89(8)
P2 N2 P3 118.02(9)
P3 N3 P1 121.16(9)
C1 O1 P1 120.83(11)
C2 O2 P1 118.98(11)
C7 O3 P2 122.05(10)
C3 O4 P3 120.48(11)
O1 C1 H1A 109.5
O1 C1 H1B 109.5
H1A C1 H1B 109.5
O1 C1 H1C 109.5
H1A C1 H1C 109.5
H1B C1 H1C 109.5
O2 C2 H2A 109.5
O2 C2 H2B 109.5
H2A C2 H2B 109.5
O2 C2 H2C 109.5
H2A C2 H2C 109.5
H2B C2 H2C 109.5
O4 C3 C4 109.13(13)
O4 C3 H3A 109.9
C4 C3 H3A 109.9
O4 C3 H3B 109.9
C4 C3 H3B 109.9
H3A C3 H3B 108.3
F1 C4 F2 107.25(13)
F1 C4 C3 108.51(14)
F2 C4 C3 106.73(14)
F1 C4 C5 105.57(14)
F2 C4 C5 107.29(13)
C3 C4 C5 120.83(14)
F3 C5 F4 107.46(14)
F3 C5 C4 108.09(13)
F4 C5 C4 105.54(13)
F3 C5 C6 108.27(14)
F4 C5 C6 105.80(13)
C4 C5 C6 120.98(14)
F6 C6 F5 107.11(13)
F6 C6 C7 107.34(14)
F5 C6 C7 108.31(14)
F6 C6 C5 107.70(14)
F5 C6 C5 104.58(13)
C7 C6 C5 121.08(13)
O3 C7 C6 109.24(14)
O3 C7 H7A 109.8
C6 C7 H7A 109.8
O3 C7 H7B 109.8
C6 C7 H7B 109.8
H7A C7 H7B 108.3
loop_
_geom_bond_atom_site_label_1
_geom_bond_atom_site_label_2
_geom_bond_distance
P1 O2 1.5668(12)
P1 O1 1.5748(13)
P1 N3 1.5899(15)
P1 N1 1.5922(15)
P2 N1 1.5726(15)
P2 N2 1.5819(14)
P2 O3 1.5865(12)
P2 Cl1 1.9969(6)
P3 N3 1.5697(15)
P3 N2 1.5851(14)
P3 O4 1.5885(12)
P3 Cl2 1.9981(6)
O1 C1 1.441(2)
O2 C2 1.449(2)
O3 C7 1.427(2)
O4 C3 1.430(2)
F1 C4 1.352(2)
F2 C4 1.363(2)
F3 C5 1.350(2)
F4 C5 1.3583(18)
F5 C6 1.3626(19)
F6 C6 1.354(2)
C1 H1A 0.98
C1 H1B 0.98
C1 H1C 0.98
C2 H2A 0.98
C2 H2B 0.98
C2 H2C 0.98
C3 C4 1.518(2)
C3 H3A 0.99
C3 H3B 0.99
C4 C5 1.551(2)
C5 C6 1.553(2)
C6 C7 1.516(2)
C7 H7A 0.99
C7 H7B 0.99
loop_
_geom_torsion_atom_site_label_1
_geom_torsion_atom_site_label_2
_geom_torsion_atom_site_label_3
_geom_torsion_atom_site_label_4
_geom_torsion
N2 P2 N1 P1 5.73(14)
O3 P2 N1 P1 -120.00(10)
Cl1 P2 N1 P1 129.51(9)
O2 P1 N1 P2 137.26(9)
O1 P1 N1 P2 -111.92(10)
N3 P1 N1 P2 11.31(14)
N1 P2 N2 P3 -21.57(12)
O3 P2 N2 P3 102.54(9)
Cl1 P2 N2 P3 -146.38(7)
N3 P3 N2 P2 20.17(12)
O4 P3 N2 P2 -104.39(9)
Cl2 P3 N2 P2 145.15(7)
N2 P3 N3 P1 -2.90(14)
O4 P3 N3 P1 122.44(10)
Cl2 P3 N3 P1 -127.24(9)
O2 P1 N3 P3 -138.55(10)
O1 P1 N3 P3 112.69(10)
N1 P1 N3 P3 -12.73(14)
O2 P1 O1 C1 80.71(14)
N3 P1 O1 C1 -164.35(13)
N1 P1 O1 C1 -35.58(15)
O1 P1 O2 C2 166.29(13)
N3 P1 O2 C2 53.61(14)
N1 P1 O2 C2 -76.23(14)
N1 P2 O3 C7 162.43(12)
N2 P2 O3 C7 31.42(14)
Cl1 P2 O3 C7 -82.55(12)
N3 P3 O4 C3 -158.59(12)
N2 P3 O4 C3 -27.60(13)
Cl2 P3 O4 C3 86.48(11)
P3 O4 C3 C4 130.82(12)
O4 C3 C4 F1 56.05(17)
O4 C3 C4 F2 171.34(12)
O4 C3 C4 C5 -65.91(19)
F1 C4 C5 F3 -65.98(15)
F2 C4 C5 F3 179.87(13)
C3 C4 C5 F3 57.4(2)
F1 C4 C5 F4 48.76(16)
F2 C4 C5 F4 -65.40(17)
C3 C4 C5 F4 172.13(14)
F1 C4 C5 C6 168.53(13)
F2 C4 C5 C6 54.38(18)
C3 C4 C5 C6 -68.1(2)
F3 C5 C6 F6 177.46(12)
F4 C5 C6 F6 62.51(16)
C4 C5 C6 F6 -57.14(18)
F3 C5 C6 F5 63.75(16)
F4 C5 C6 F5 -51.20(16)
C4 C5 C6 F5 -170.84(13)
F3 C5 C6 C7 -58.7(2)
F4 C5 C6 C7 -173.60(14)
C4 C5 C6 C7 66.8(2)
P2 O3 C7 C6 -130.47(12)
F6 C6 C7 O3 -171.47(12)
F5 C6 C7 O3 -56.14(17)
C5 C6 C7 O3 64.47(19)
