#------------------------------------------------------------------------------
#$Date: 2016-02-14 06:40:26 +0200 (Sun, 14 Feb 2016) $
#$Revision: 176432 $
#$URL: svn://www.crystallography.net/cod/cif/7/02/42/7024216.cif $
#------------------------------------------------------------------------------
#
# This file is available in the Crystallography Open Database (COD),
# http://www.crystallography.net/
#
# All data on this site have been placed in the public domain by the
# contributors.
#
data_7024216
loop_
_publ_author_name
'Di Nicola, Corrado'
Effendy,
'Marchetti, Fabio'
'Nervi, Carlo'
'Pettinari, Claudio'
'Robinson, Ward T.'
'Sobolev, Alexandre N.'
'White, Allan H.'
_publ_section_title
;
 Syntheses, structures and spectroscopy of uni- and bi-dentate nitrogen
 base complexes of silver(I) trifluoromethanesulfonate.
;
_journal_issue                   3
_journal_name_full
'Dalton transactions (Cambridge, England : 2003)'
_journal_page_first              908
_journal_page_last               922
_journal_paper_doi               10.1039/b913173f
_journal_volume                  39
_journal_year                    2010
_chemical_formula_sum            'C26 H28 Ag2 F6 N4 O6 S2'
_chemical_formula_weight         886.39
_space_group_IT_number           2
_symmetry_cell_setting           triclinic
_symmetry_space_group_name_Hall  '-P 1'
_symmetry_space_group_name_H-M   'P -1'
_cell_angle_alpha                118.772(5)
_cell_angle_beta                 95.782(6)
_cell_angle_gamma                105.174(6)
_cell_formula_units_Z            1
_cell_length_a                   9.849(3)
_cell_length_b                   9.933(3)
_cell_length_c                   10.000(3)
_cell_measurement_reflns_used    2787
_cell_measurement_temperature    150
_cell_volume                     797.3(4)
_computing_cell_refinement       'Siemens SAINT (Siemens, 1995)'
_computing_data_collection       'Siemens SMART (Siemens, 1995)'
_computing_data_reduction        'xtal ADDREF SORTRF'
_computing_molecular_graphics    xtal
_computing_publication_material  'xtal BONDLA CIFIO'
_computing_structure_refinement  'xtal CRYLSQ'
_computing_structure_solution    xtal
_diffrn_ambient_temperature      150
_diffrn_measurement_device_type
;
Bruker SMART CCD diffractometer
;
_diffrn_measurement_method       '\w scans'
_diffrn_radiation_detector       'CCD area detector'
_diffrn_radiation_monochromator  graphite
_diffrn_radiation_source         'sealed tube'
_diffrn_radiation_type           'Mo K\a'
_diffrn_radiation_wavelength     .71073
_diffrn_reflns_av_R_equivalents  .027
_diffrn_reflns_av_sigmaI/netI    .149
_diffrn_reflns_limit_h_max       15
_diffrn_reflns_limit_h_min       -15
_diffrn_reflns_limit_k_max       13
_diffrn_reflns_limit_k_min       -15
_diffrn_reflns_limit_l_max       15
_diffrn_reflns_limit_l_min       0
_diffrn_reflns_number            12975
_diffrn_reflns_theta_max         34.28
_diffrn_reflns_theta_min         2.22
_diffrn_standards_decay_%        0
_exptl_absorpt_coefficient_mu    1.44
_exptl_absorpt_correction_T_max  1.00
_exptl_absorpt_correction_T_min  .773
_exptl_absorpt_correction_type   multi-scan
_exptl_absorpt_process_details
;
SADABS; Sheldrick, 1996
;
_exptl_crystal_colour            colourless
_exptl_crystal_density_diffrn    1.846
_exptl_crystal_density_method    'not measured'
_exptl_crystal_description       prism
_exptl_crystal_F_000             440
_exptl_crystal_size_max          .15
_exptl_crystal_size_mid          .08
_exptl_crystal_size_min          .07
_refine_diff_density_max         1.175
_refine_diff_density_min         -1.172
_refine_ls_goodness_of_fit_all   1.095
_refine_ls_goodness_of_fit_ref   1.256
_refine_ls_hydrogen_treatment    noref
_refine_ls_matrix_type           full
_refine_ls_number_constraints    0
_refine_ls_number_parameters     208
_refine_ls_number_reflns         3918
_refine_ls_number_restraints     0
_refine_ls_R_factor_all          .101
_refine_ls_R_factor_gt           .046
_refine_ls_shift/su_max          .0003
_refine_ls_shift/su_mean         .00002
_refine_ls_structure_factor_coef F
_refine_ls_weighting_scheme      calc
_refine_ls_wR_factor_all         .05
_refine_ls_wR_factor_ref         .044
_reflns_d_resolution_high        .631
_reflns_d_resolution_low         9.141
_reflns_Friedel_coverage         0
_reflns_limit_h_max              15
_reflns_limit_h_min              0
_reflns_limit_k_max              15
_reflns_limit_k_min              -15
_reflns_limit_l_max              15
_reflns_limit_l_min              -15
_reflns_number_gt                3918
_reflns_number_total             6411
_reflns_threshold_expression     'F > 4.00 sig(F )'
_cod_data_source_file            b913173f.txt
_cod_data_source_block           cmpnd02
_cod_original_sg_symbol_Hall     -p_1
_cod_original_sg_symbol_H-M      P_-1
_cod_database_code               7024216
loop_
_symmetry_equiv_pos_as_xyz
+x,+y,+z
-x,-y,-z
loop_
_atom_site_label
_atom_site_fract_x
_atom_site_fract_y
_atom_site_fract_z
_atom_site_U_iso_or_equiv
_atom_site_adp_type
_atom_site_occupancy
Ag .20724(3) .01651(4) .25779(4) .02670(11) Uani 1.00000
S .17304(10) -.01271(11) -.10985(11) .0237(3) Uani 1.00000
O1 .2222(4) .1009(4) .0584(3) .0478(14) Uani 1.00000
O2 .0650(3) .0146(4) -.1917(4) .0468(14) Uani 1.00000
O3 .1501(3) -.1805(3) -.1616(4) .0375(12) Uani 1.00000
C0 .3309(4) .0497(5) -.1736(5) .0292(15) Uani 1.00000
F1 .3695(3) .2063(3) -.1321(3) .0448(11) Uani 1.00000
F2 .4472(3) .0331(4) -.1122(4) .0624(14) Uani 1.00000
F3 .3072(4) -.0418(4) -.3301(4) .0606(14) Uani 1.00000
N11 .1825(3) -.2359(4) .1826(4) .0236(11) Uani 1.00000
C12 .0995(4) -.3134(5) .2410(5) .0264(13) Uani 1.00000
C121 .0219(5) -.2227(6) .3549(6) .042(2) Uani 1.00000
C13 .0854(5) -.4739(5) .1947(5) .0349(16) Uani 1.00000
C14 .1567(5) -.5544(5) .0887(6) .0395(16) Uani 1.00000
C15 .2409(5) -.4748(5) .0285(5) .0378(16) Uani 1.00000
C16 .2511(4) -.3162(5) .0766(5) .0268(14) Uani 1.00000
N21 .2886(3) .2774(4) .4460(4) .0226(11) Uani 1.00000
C22 .4096(4) .3439(5) .5643(4) .0256(13) Uani 1.00000
C221 .4918(5) .2353(5) .5587(5) .0339(16) Uani 1.00000
C23 .4560(5) .5085(5) .6862(5) .0323(15) Uani 1.00000
C24 .3762(5) .6031(5) .6867(5) .0377(17) Uani 1.00000
C25 .2530(5) .5353(5) .5650(5) .0330(16) Uani 1.00000
C26 .2123(4) .3730(5) .4457(5) .0285(14) Uani 1.00000
H121a -.03961 -.19028 .30531 .06500 Uiso 1.00000
H121b .09128 -.12766 .44632 .06500 Uiso 1.00000
H121c -.03529 -.29252 .38293 .06500 Uiso 1.00000
H13 .02642 -.52790 .23651 .04400 Uiso 1.00000
H14 .14802 -.66370 .05767 .04900 Uiso 1.00000
H15 .29079 -.52852 -.04535 .04800 Uiso 1.00000
H16 .30883 -.26126 .03478 .03400 Uiso 1.00000
H221a .44649 .17098 .59911 .05200 Uiso 1.00000
H221b .58956 .30070 .62126 .05200 Uiso 1.00000
H221c .49125 .16445 .45237 .05200 Uiso 1.00000
H23 .54275 .55483 .76816 .04000 Uiso 1.00000
H24 .40623 .71496 .77007 .04600 Uiso 1.00000
H25 .19678 .59957 .56396 .04200 Uiso 1.00000
H26 .12773 .32612 .36058 .03500 Uiso 1.00000
loop_
_atom_site_aniso_label
_atom_site_aniso_U_11
_atom_site_aniso_U_22
_atom_site_aniso_U_33
_atom_site_aniso_U_12
_atom_site_aniso_U_13
_atom_site_aniso_U_23
Ag .02718(15) .01571(12) .02953(16) .00470(10) .00180(11) .00895(11)
S .0242(5) .0207(4) .0256(5) .0075(4) .0075(4) .0119(4)
O1 .083(3) .0300(16) .0218(15) .0111(16) .0179(16) .0108(13)
O2 .0257(15) .051(2) .070(2) .0186(15) .0091(15) .0353(19)
O3 .0373(17) .0224(14) .050(2) .0066(12) .0144(14) .0189(14)
C0 .026(2) .028(2) .032(2) .0104(16) .0078(17) .0138(18)
F1 .0476(16) .0285(13) .0669(19) .0111(12) .0261(14) .0306(13)
F2 .0208(13) .0553(18) .114(3) .0132(13) .0077(15) .049(2)
F3 .071(2) .057(2) .0465(18) .0198(16) .0360(16) .0201(15)
N11 .0225(15) .0193(14) .0225(16) .0030(12) -.0027(12) .0101(13)
C12 .0232(18) .0247(18) .031(2) .0056(15) -.0000(16) .0176(17)
C121 .050(3) .044(3) .044(3) .019(2) .019(2) .029(2)
C13 .033(2) .026(2) .044(3) .0016(17) -.0058(19) .024(2)
C14 .037(2) .0175(18) .046(3) .0058(17) -.014(2) .0105(19)
C15 .033(2) .028(2) .035(2) .0129(18) -.0038(19) .0055(19)
C16 .0210(18) .0223(18) .031(2) .0070(15) .0026(16) .0109(16)
N21 .0241(16) .0189(14) .0224(16) .0064(12) .0053(13) .0100(13)
C22 .029(2) .0238(18) .0211(19) .0061(15) .0051(15) .0120(15)
C221 .033(2) .033(2) .033(2) .0121(18) .0023(18) .0161(19)
C23 .036(2) .025(2) .020(2) .0016(17) -.0008(17) .0069(16)
C24 .053(3) .0191(18) .026(2) .0070(18) .009(2) .0042(16)
C25 .043(2) .025(2) .038(2) .0177(18) .017(2) .0176(19)
C26 .027(2) .025(2) .035(2) .0079(16) .0058(17) .0171(18)
loop_
_atom_type_symbol
_atom_type_oxidation_number
_atom_type_number_in_cell
_atom_type_scat_dispersion_real
_atom_type_scat_dispersion_imag
_atom_type_scat_source
C 0 26 .002 .002 'Int Tables Vol IV Tables 2.2B and 2.3.1'
H 0 28 0 0 'Int Tables Vol IV Tables 2.2B and 2.3.1'
Ag 0 2 -1.085 1.101 'Int Tables Vol IV Tables 2.2B and 2.3.1'
F 0 6 .014 .01 'Int Tables Vol IV Tables 2.2B and 2.3.1'
N 0 4 .004 .003 'Int Tables Vol IV Tables 2.2B and 2.3.1'
O 0 6 .008 .006 'Int Tables Vol IV Tables 2.2B and 2.3.1'
S 0 2 .11 .124 'Int Tables Vol IV Tables 2.2B and 2.3.1'
loop_
_geom_angle_atom_site_label_1
_geom_angle_atom_site_label_2
_geom_angle_atom_site_label_3
_geom_angle_site_symmetry_3
_geom_angle
O1 Ag N11 . 118.76(12)
O1 Ag N21 . 88.74(13)
O1 Ag O2 2 83.80(14)
N11 Ag N21 . 149.13(14)
N11 Ag O2 2 100.00(12)
N21 Ag O2 2 96.50(11)
O1 S O2 . 114.7(2)
O1 S O3 . 115.6(2)
O1 S C0 . 102.1(2)
O2 S O3 . 115.98(18)
O2 S C0 . 101.4(3)
O3 S C0 . 104.1(2)
Ag O1 S . 123.9(2)
S O2 Ag 2 145.8(3)
S C0 F1 . 112.1(3)
S C0 F2 . 112.2(4)
S C0 F3 . 111.8(2)
F1 C0 F2 . 106.9(3)
F1 C0 F3 . 107.8(5)
F2 C0 F3 . 105.6(4)
Ag N11 C12 . 120.6(3)
Ag N11 C16 . 120.2(3)
C12 N11 C16 . 119.2(4)
N11 C12 C121 . 117.9(4)
N11 C12 C13 . 120.5(4)
C121 C12 C13 . 121.6(5)
C12 C121 H121a . 109.1
C12 C121 H121b . 109.5
C12 C121 H121c . 109.1
H121a C121 H121b . 109.3
H121a C121 H121c . 109.7
H121b C121 H121c . 110.2
C12 C13 C14 . 120.1(5)
C12 C13 H13 . 120.0
C14 C13 H13 . 119.9
C13 C14 C15 . 119.1(5)
C13 C14 H14 . 120.3
C15 C14 H14 . 120.6
C14 C15 C16 . 118.9(4)
C14 C15 H15 . 120.5
C16 C15 H15 . 120.6
N11 C16 C15 . 122.0(5)
N11 C16 H16 . 118.9
C15 C16 H16 . 119.0
Ag N21 C22 . 121.7(3)
Ag N21 C26 . 119.1(2)
C22 N21 C26 . 119.1(3)
N21 C22 C221 . 117.4(3)
N21 C22 C23 . 120.7(4)
C221 C22 C23 . 121.9(4)
C22 C221 H221a . 109.4
C22 C221 H221b . 109.6
C22 C221 H221c . 109.7
H221a C221 H221b . 109.4
H221a C221 H221c . 109.3
H221b C221 H221c . 109.5
C22 C23 C24 . 119.7(4)
C22 C23 H23 . 120.0
C24 C23 H23 . 120.3
C23 C24 C25 . 119.5(3)
C23 C24 H24 . 120.2
C25 C24 H24 . 120.2
C24 C25 C26 . 118.9(5)
C24 C25 H25 . 120.3
C26 C25 H25 . 120.8
N21 C26 C25 . 122.0(4)
N21 C26 H26 . 118.9
C25 C26 H26 . 119.1
loop_
_geom_bond_atom_site_label_1
_geom_bond_atom_site_label_2
_geom_bond_site_symmetry_2
_geom_bond_distance
Ag O1 . 2.511(4)
Ag N11 . 2.177(4)
Ag N21 . 2.194(3)
Ag O2 2 2.595(3)
S O1 . 1.435(3)
S O2 . 1.437(4)
S O3 . 1.431(3)
S C0 . 1.812(5)
C0 F1 . 1.332(6)
C0 F2 . 1.331(6)
C0 F3 . 1.332(5)
N11 C12 . 1.342(6)
N11 C16 . 1.353(5)
C12 C121 . 1.497(7)
C12 C13 . 1.391(7)
C121 H121a . .954
C121 H121b . .949
C121 H121c . .945
C13 C14 . 1.373(7)
C13 H13 . .950
C14 C15 . 1.375(8)
C14 H14 . .951
C15 C16 . 1.378(7)
C15 H15 . .951
C16 H16 . .949
N21 C22 . 1.344(5)
N21 C26 . 1.357(7)
C22 C221 . 1.492(8)
C22 C23 . 1.396(5)
C221 H221a . .952
C221 H221b . .949
C221 H221c . .950
C23 C24 . 1.373(8)
C23 H23 . .950
C24 C25 . 1.375(6)
C24 H24 . .950
C25 C26 . 1.377(5)
C25 H25 . .951
C26 H26 . .953
