#------------------------------------------------------------------------------
#$Date: 2016-03-25 16:37:18 +0200 (Fri, 25 Mar 2016) $
#$Revision: 179980 $
#$URL: svn://www.crystallography.net/cod/cif/7/02/74/7027472.cif $
#------------------------------------------------------------------------------
#
# This file is available in the Crystallography Open Database (COD),
# http://www.crystallography.net/. The original data for this entry
# were provided the Crystal Eye server at
# http://wwmm.ch.cam.ac.uk/crystaleye/, created by Nick Day at the
# Peter Murray-Rust laboratory.
#
# The file may be used within the scientific community so long as
# proper attribution is given to the journal article from which the
# data were obtained.
#
data_7027472
loop_
_publ_author_name
'Bricklebank, Neil'
'Skabara, Peter J.'
'Hibbs, David E.'
'Hursthouse, Michael B.'
'Abdul Malik, K. M.'
_publ_section_title
;
 Reaction of thiones with dihalogens; comparison of the solid state
 structures of 4,5-bis(methylsulfanyl)-1,3-dithiole-2-thione--diiodine,
 --dibromine and --iodine monobromide
;
_journal_issue                   17
_journal_name_full
'Journal of the Chemical Society, Dalton Transactions'
_journal_page_first              3007
_journal_paper_doi               10.1039/a903068i
_journal_year                    1999
_chemical_formula_moiety         C5H6S5.IBr
_chemical_formula_sum            'C5 H6 Br I S5'
_chemical_formula_weight         433.21
_chemical_name_systematic
; 
4,5,-bis(methylthio)-1,3-dithiole-2-thione iodine monobromide
;
_space_group_IT_number           2
_symmetry_cell_setting           triclinic
_symmetry_space_group_name_Hall  '-P 1'
_symmetry_space_group_name_H-M   'P -1'
_atom_sites_solution_hydrogens   geom
_atom_sites_solution_primary     direct
_atom_sites_solution_secondary   difmap
_audit_creation_method           SHELXL-93
_cell_angle_alpha                110.710(8)
_cell_angle_beta                 91.227(9)
_cell_angle_gamma                111.989(13)
_cell_formula_units_Z            2
_cell_length_a                   7.5933(12)
_cell_length_b                   8.601(2)
_cell_length_c                   10.8848(14)
_cell_measurement_reflns_used    250
_cell_measurement_temperature    150(2)
_cell_measurement_theta_max      25.05
_cell_measurement_theta_min      2.03
_cell_volume                     606.8(2)
_computing_cell_refinement       'REFINE in MADNES'
_computing_data_collection       MADNES
_computing_data_reduction        'ABSMAD (Karaulov, 1991)'
_computing_molecular_graphics    'SNOOPI (Davies, 1983)'
_computing_publication_material  SHELXL-93
_computing_structure_refinement  'SHELXL-92 (Sheldrick, 1993)'
_computing_structure_solution    'SHELXS-86 (Sheldrick, 1990)'
_diffrn_ambient_temperature      150(2)
_diffrn_measurement_device       'FAST area detector'
_diffrn_measurement_method       'Darr, Drake, Hursthouse & Malik, 1993'
_diffrn_radiation_monochromator  graphite
_diffrn_radiation_source         'rotating anode generator'
_diffrn_radiation_type           MoK\a
_diffrn_radiation_wavelength     0.71069
_diffrn_reflns_av_R_equivalents  0.0674
_diffrn_reflns_av_sigmaI/netI    0.0601
_diffrn_reflns_limit_h_max       8
_diffrn_reflns_limit_h_min       -8
_diffrn_reflns_limit_k_max       9
_diffrn_reflns_limit_k_min       -6
_diffrn_reflns_limit_l_max       11
_diffrn_reflns_limit_l_min       -12
_diffrn_reflns_number            2681
_diffrn_reflns_theta_max         25.05
_diffrn_reflns_theta_min         2.03
_exptl_absorpt_coefficient_mu    6.741
_exptl_absorpt_correction_T_max  1.019
_exptl_absorpt_correction_T_min  0.866
_exptl_absorpt_correction_type   'DIFABS (Walker & Stuart, 1983)'
_exptl_crystal_colour            orange-brown
_exptl_crystal_density_diffrn    2.371
_exptl_crystal_description       prism
_exptl_crystal_F_000             408
_exptl_crystal_size_max          0.18
_exptl_crystal_size_mid          0.16
_exptl_crystal_size_min          0.10
_refine_diff_density_max         1.225
_refine_diff_density_min         -1.202
_refine_diff_density_rms         0.266
_refine_ls_extinction_method     none
_refine_ls_goodness_of_fit_all   1.071
_refine_ls_goodness_of_fit_obs   1.137
_refine_ls_hydrogen_treatment    'calculated positions (riding model)'
_refine_ls_matrix_type           full
_refine_ls_number_parameters     111
_refine_ls_number_reflns         1694
_refine_ls_number_restraints     0
_refine_ls_restrained_S_all      1.071
_refine_ls_restrained_S_obs      1.137
_refine_ls_R_factor_all          0.0418
_refine_ls_R_factor_obs          0.0382
_refine_ls_shift/esd_max         -0.000
_refine_ls_shift/esd_mean        0.000
_refine_ls_structure_factor_coef Fsqd
_refine_ls_weighting_details
'w=1/[\s^2^(Fo^2^)+(0.0569P)^2^+0.0000P] where P=(Fo^2^+2Fc^2^)/3'
_refine_ls_weighting_scheme      calc
_refine_ls_wR_factor_all         0.1042
_refine_ls_wR_factor_obs         0.1031
_reflns_number_observed          1482
_reflns_number_total             1694
_reflns_observed_criterion       >2sigma(I)
_cod_data_source_file            903068isup1.cif
_cod_data_source_block           1.IBr
_cod_depositor_comments
;
The following automatic conversions were performed:

'_symmetry_cell_setting' value 'Triclinic' changed to 'triclinic'
according to /home/saulius/struct/CIF-dictionaries/cif_core.dic
dictionary named 'cif_core.dic' version 2.4.2 from 2011-04-26.

Automatic conversion script
Id: cif_fix_values 1891 2012-01-12 08:04:46Z andrius 

The following automatic conversions were performed:

'_refine_ls_weighting_scheme' value 'calc
w=1/[\s^2^(Fo^2^)+(0.0569P)^2^+0.0000P] where P=(Fo^2^+2Fc^2^)/3' was
changed to 'calc'. New tag '_refine_ls_weighting_details' was
created. The value of the new tag was set to
'w=1/[\s^2^(Fo^2^)+(0.0569P)^2^+0.0000P] where P=(Fo^2^+2Fc^2^)/3'.

Automatic conversion script
Id: cif_fix_values 3143 2015-03-26 13:38:13Z robertas 
;
_cod_original_sg_symbol_H-M      'P-1 (no. 2)'
_cod_database_code               7027472
loop_
_symmetry_equiv_pos_as_xyz
'x, y, z'
'-x, -y, -z'
loop_
_atom_site_aniso_label
_atom_site_aniso_U_11
_atom_site_aniso_U_22
_atom_site_aniso_U_33
_atom_site_aniso_U_23
_atom_site_aniso_U_13
_atom_site_aniso_U_12
I1 0.0138(3) 0.0168(3) 0.0199(3) 0.0095(2) 0.0031(2) 0.0061(2)
Br1 0.0267(5) 0.0156(4) 0.0231(5) 0.0079(4) 0.0029(4) 0.0104(3)
S1 0.0198(11) 0.0167(10) 0.0212(12) 0.0091(9) 0.0071(9) 0.0095(8)
S2 0.0205(11) 0.0178(10) 0.0172(11) 0.0091(9) 0.0040(8) 0.0097(8)
S3 0.0222(12) 0.0195(11) 0.0206(12) 0.0040(9) 0.0067(9) 0.0066(9)
S4 0.0378(14) 0.0235(12) 0.0192(12) 0.0110(10) 0.0018(10) 0.0118(10)
S5 0.0229(11) 0.0156(10) 0.0202(12) 0.0094(9) 0.0034(9) 0.0092(8)
C1 0.008(4) 0.018(4) 0.025(5) 0.009(4) 0.006(3) 0.004(3)
C2 0.017(4) 0.017(4) 0.018(4) 0.012(3) 0.006(3) 0.005(3)
C3 0.010(4) 0.024(5) 0.019(5) 0.014(4) 0.005(3) 0.003(3)
C4 0.019(5) 0.024(4) 0.024(5) 0.004(4) 0.002(4) 0.003(4)
C5 0.016(4) 0.034(5) 0.031(5) 0.019(4) 0.007(4) 0.015(4)
loop_
_atom_site_label
_atom_site_type_symbol
_atom_site_fract_x
_atom_site_fract_y
_atom_site_fract_z
_atom_site_U_iso_or_equiv
_atom_site_thermal_displace_type
_atom_site_occupancy
_atom_site_calc_flag
_atom_site_refinement_flags
I1 I 0.22978(6) 0.35167(6) 0.34970(5) 0.0162(2) Uani 1 d .
Br1 Br 0.22004(11) 0.63686(10) 0.30075(8) 0.0212(3) Uani 1 d .
S1 S 0.2434(3) 0.3003(3) 0.6603(2) 0.0181(5) Uani 1 d .
S2 S 0.2919(3) -0.0310(3) 0.6035(2) 0.0172(5) Uani 1 d .
S3 S 0.2592(3) 0.3908(3) 0.9541(2) 0.0225(5) Uani 1 d .
S4 S 0.3357(3) 0.0148(3) 0.8920(2) 0.0263(5) Uani 1 d .
S5 S 0.2408(3) 0.0685(3) 0.3774(2) 0.0184(5) Uani 1 d .
C1 C 0.2578(10) 0.1159(9) 0.5427(8) 0.017(2) Uani 1 d .
C2 C 0.2725(11) 0.2483(10) 0.7969(8) 0.016(2) Uani 1 d .
C3 C 0.2968(10) 0.0928(10) 0.7691(8) 0.017(2) Uani 1 d .
C4 C 0.0117(11) 0.2652(11) 0.9635(9) 0.026(2) Uani 1 d .
H4A H -0.0136(24) 0.3219(43) 1.0504(18) 0.039 Uiso 1 calc R
H4B H -0.0088(23) 0.1422(23) 0.9481(53) 0.039 Uiso 1 calc R
H4C H -0.0737(11) 0.2648(60) 0.8970(34) 0.039 Uiso 1 calc R
C5 C 0.3228(11) -0.2081(11) 0.7952(9) 0.024(2) Uani 1 d .
H5A H 0.3269(77) -0.2691(29) 0.8533(11) 0.036 Uiso 1 calc R
H5B H 0.4302(43) -0.1975(11) 0.7489(41) 0.036 Uiso 1 calc R
H5C H 0.2045(36) -0.2770(26) 0.7317(37) 0.036 Uiso 1 calc R
loop_
_atom_type_symbol
_atom_type_description
_atom_type_scat_dispersion_real
_atom_type_scat_dispersion_imag
_atom_type_scat_source
C C 0.0033 0.0016 'International Tables Vol C Tables 4.2.6.8 and 6.1.1.4'
H H 0.0000 0.0000 'International Tables Vol C Tables 4.2.6.8 and 6.1.1.4'
S S 0.1246 0.1234 'International Tables Vol C Tables 4.2.6.8 and 6.1.1.4'
Br Br -0.2901 2.4595 'International Tables Vol C Tables 4.2.6.8 and 6.1.1.4'
I I -0.4742 1.8119 'International Tables Vol C Tables 4.2.6.8 and 6.1.1.4'
loop_
_geom_angle_atom_site_label_1
_geom_angle_atom_site_label_2
_geom_angle_atom_site_label_3
_geom_angle
S5 I1 Br1 175.63(5)
C1 S1 C2 97.6(4)
C1 S2 C3 96.2(4)
C2 S3 C4 99.8(4)
C3 S4 C5 102.9(4)
C1 S5 I1 105.5(3)
S5 C1 S1 126.1(5)
S5 C1 S2 119.6(4)
S1 C1 S2 114.3(5)
C3 C2 S1 114.9(6)
C3 C2 S3 125.8(6)
S1 C2 S3 119.3(4)
C2 C3 S2 117.0(6)
C2 C3 S4 123.3(6)
S2 C3 S4 119.8(4)
loop_
_geom_bond_atom_site_label_1
_geom_bond_atom_site_label_2
_geom_bond_distance
I1 S5 2.589(2)
I1 Br1 2.7138(11)
S1 C1 1.693(7)
S1 C2 1.728(8)
S2 C1 1.712(8)
S2 C3 1.730(8)
S3 C2 1.749(8)
S3 C4 1.810(8)
S4 C3 1.759(8)
S4 C5 1.795(8)
S5 C1 1.688(8)
C2 C3 1.348(11)
loop_
_geom_torsion_atom_site_label_1
_geom_torsion_atom_site_label_2
_geom_torsion_atom_site_label_3
_geom_torsion_atom_site_label_4
_geom_torsion
Br1 I1 S5 C1 172.9(6)
I1 S5 C1 S1 6.5(5)
I1 S5 C1 S2 -173.8(3)
C2 S1 C1 S5 179.8(5)
C2 S1 C1 S2 0.1(5)
C3 S2 C1 S5 179.8(5)
C3 S2 C1 S1 -0.4(5)
C1 S1 C2 C3 0.5(6)
C1 S1 C2 S3 -177.1(5)
C4 S3 C2 C3 -79.3(7)
C4 S3 C2 S1 98.0(5)
S1 C2 C3 S2 -0.9(8)
S3 C2 C3 S2 176.5(4)
S1 C2 C3 S4 178.2(4)
S3 C2 C3 S4 -4.4(10)
C1 S2 C3 C2 0.8(7)
C1 S2 C3 S4 -178.3(5)
C5 S4 C3 C2 172.1(6)
C5 S4 C3 S2 -8.8(6)
