#------------------------------------------------------------------------------
#$Date: 2016-03-25 16:37:18 +0200 (Fri, 25 Mar 2016) $
#$Revision: 179980 $
#$URL: svn://www.crystallography.net/cod/cif/7/02/74/7027470.cif $
#------------------------------------------------------------------------------
#
# This file is available in the Crystallography Open Database (COD),
# http://www.crystallography.net/. The original data for this entry
# were provided the Crystal Eye server at
# http://wwmm.ch.cam.ac.uk/crystaleye/, created by Nick Day at the
# Peter Murray-Rust laboratory.
#
# The file may be used within the scientific community so long as
# proper attribution is given to the journal article from which the
# data were obtained.
#
data_7027470
loop_
_publ_author_name
'Bricklebank, Neil'
'Skabara, Peter J.'
'Hibbs, David E.'
'Hursthouse, Michael B.'
'Abdul Malik, K. M.'
_publ_section_title
;
 Reaction of thiones with dihalogens; comparison of the solid state
 structures of 4,5-bis(methylsulfanyl)-1,3-dithiole-2-thione--diiodine,
 --dibromine and --iodine monobromide
;
_journal_issue                   17
_journal_name_full
'Journal of the Chemical Society, Dalton Transactions'
_journal_page_first              3007
_journal_paper_doi               10.1039/a903068i
_journal_year                    1999
_chemical_formula_moiety         C5H6S5.Br2
_chemical_formula_sum            'C5 H6 Br2 S5'
_chemical_formula_weight         386.22
_chemical_name_systematic
; 
4,5-Bis(methylthio)-1,3-dithiole-2-thione dibromine
;
_space_group_IT_number           2
_symmetry_cell_setting           triclinic
_symmetry_space_group_name_Hall  '-P 1'
_symmetry_space_group_name_H-M   'P -1'
_atom_sites_solution_hydrogens   geom
_atom_sites_solution_primary     direct
_atom_sites_solution_secondary   difmap
_audit_creation_method           SHELXL-93
_cell_angle_alpha                69.042(13)
_cell_angle_beta                 87.146(11)
_cell_angle_gamma                87.880(8)
_cell_formula_units_Z            2
_cell_length_a                   6.9403(9)
_cell_length_b                   8.3128(14)
_cell_length_c                   10.554(4)
_cell_measurement_reflns_used    250
_cell_measurement_temperature    150(2)
_cell_measurement_theta_max      24.87
_cell_measurement_theta_min      2.62
_cell_volume                     567.8(3)
_computing_cell_refinement       'REFINE in MADNES'
_computing_data_collection       MADNES
_computing_data_reduction        'ABSMAD (Karaulov, 1991)'
_computing_molecular_graphics    'SNOOPI (Davies, 1983)'
_computing_publication_material  SHELXL-93
_computing_structure_refinement  'SHELXL-93 (Sheldrick, 1993)'
_computing_structure_solution    'SHELXS-86 (Sheldrick, 1990)'
_diffrn_ambient_temperature      150(2)
_diffrn_measurement_device       'FAST area detector diffractometer'
_diffrn_measurement_method       'Darr, Drake, Hursthouse & Malik, 1993)'
_diffrn_radiation_monochromator  graphite
_diffrn_radiation_source         'rotating anode generator'
_diffrn_radiation_type           MoK\a
_diffrn_radiation_wavelength     0.71069
_diffrn_reflns_av_R_equivalents  0.0778
_diffrn_reflns_av_sigmaI/netI    0.1124
_diffrn_reflns_limit_h_max       8
_diffrn_reflns_limit_h_min       -8
_diffrn_reflns_limit_k_max       4
_diffrn_reflns_limit_k_min       -9
_diffrn_reflns_limit_l_max       9
_diffrn_reflns_limit_l_min       -12
_diffrn_reflns_number            1581
_diffrn_reflns_theta_max         24.87
_diffrn_reflns_theta_min         2.62
_exptl_absorpt_coefficient_mu    8.003
_exptl_absorpt_correction_T_max  0.998
_exptl_absorpt_correction_T_min  0.818
_exptl_absorpt_correction_type   DIFABS
_exptl_crystal_colour            orange-brown
_exptl_crystal_density_diffrn    2.259
_exptl_crystal_description       prism
_exptl_crystal_F_000             372
_exptl_crystal_size_max          0.20
_exptl_crystal_size_mid          0.12
_exptl_crystal_size_min          0.10
_refine_diff_density_max         1.009
_refine_diff_density_min         -0.900
_refine_diff_density_rms         0.245
_refine_ls_extinction_method     none
_refine_ls_goodness_of_fit_all   0.975
_refine_ls_goodness_of_fit_obs   1.125
_refine_ls_hydrogen_treatment    'Calculated positions (riding model)'
_refine_ls_matrix_type           full
_refine_ls_number_parameters     105
_refine_ls_number_reflns         1181
_refine_ls_number_restraints     30
_refine_ls_restrained_S_all      0.965
_refine_ls_restrained_S_obs      1.108
_refine_ls_R_factor_all          0.0590
_refine_ls_R_factor_obs          0.0492
_refine_ls_shift/esd_max         -0.001
_refine_ls_shift/esd_mean        0.000
_refine_ls_structure_factor_coef Fsqd
_refine_ls_weighting_details
'w=1/[\s^2^(Fo^2^)+(0.0607P)^2^+0.0000P] where P=(Fo^2^+2Fc^2^)/3'
_refine_ls_weighting_scheme      calc
_refine_ls_wR_factor_all         0.1346
_refine_ls_wR_factor_obs         0.1325
_reflns_number_observed          882
_reflns_number_total             1181
_reflns_observed_criterion       >2sigma(I)
_cod_data_source_file            903068isup1.cif
_cod_data_source_block           1BR2
_cod_depositor_comments
;
The following automatic conversions were performed:

'_symmetry_cell_setting' value 'Triclinic' changed to 'triclinic'
according to /home/saulius/struct/CIF-dictionaries/cif_core.dic
dictionary named 'cif_core.dic' version 2.4.2 from 2011-04-26.

Automatic conversion script
Id: cif_fix_values 1891 2012-01-12 08:04:46Z andrius 

The following automatic conversions were performed:

'_refine_ls_weighting_scheme' value 'calc
w=1/[\s^2^(Fo^2^)+(0.0607P)^2^+0.0000P] where P=(Fo^2^+2Fc^2^)/3' was
changed to 'calc'. New tag '_refine_ls_weighting_details' was
created. The value of the new tag was set to
'w=1/[\s^2^(Fo^2^)+(0.0607P)^2^+0.0000P] where P=(Fo^2^+2Fc^2^)/3'.

Automatic conversion script
Id: cif_fix_values 3143 2015-03-26 13:38:13Z robertas 
;
_cod_original_cell_volume        567.8(2)
_cod_original_sg_symbol_H-M      'P-1 (no. 2)'
_cod_database_code               7027470
loop_
_symmetry_equiv_pos_as_xyz
'x, y, z'
'-x, -y, -z'
loop_
_atom_site_aniso_label
_atom_site_aniso_U_11
_atom_site_aniso_U_22
_atom_site_aniso_U_33
_atom_site_aniso_U_23
_atom_site_aniso_U_13
_atom_site_aniso_U_12
Br1 0.0196(7) 0.0103(8) 0.0130(11) 0.0025(8) -0.0018(6) 0.0007(6)
Br2 0.0171(7) 0.0144(9) 0.0160(11) -0.0112(8) -0.0022(6) -0.0013(6)
S1 0.0125(15) 0.005(2) 0.009(2) -0.005(2) -0.0026(14) -0.0031(13)
S2 0.011(2) 0.005(2) 0.011(2) -0.002(2) -0.001(2) 0.0011(14)
S3 0.025(2) 0.008(2) 0.008(2) 0.003(2) -0.002(2) -0.006(2)
S4 0.032(2) 0.010(2) 0.013(3) -0.007(2) 0.003(2) -0.001(2)
S5 0.011(2) 0.012(2) 0.007(2) -0.003(2) -0.0022(15) 0.0013(14)
C1 0.0125(15) 0.005(2) 0.009(2) -0.005(2) -0.0026(14) -0.0031(13)
C2 0.008(5) 0.011(5) 0.007(6) -0.003(5) -0.003(4) -0.001(4)
C3 0.010(5) 0.009(5) 0.009(6) -0.005(5) 0.002(4) -0.002(4)
C4 0.023(5) 0.022(6) 0.016(6) -0.010(5) -0.006(4) -0.009(4)
C5 0.018(5) 0.015(6) 0.016(6) -0.005(5) 0.005(4) -0.001(4)
loop_
_atom_site_label
_atom_site_type_symbol
_atom_site_fract_x
_atom_site_fract_y
_atom_site_fract_z
_atom_site_U_iso_or_equiv
_atom_site_thermal_displace_type
_atom_site_occupancy
_atom_site_calc_flag
_atom_site_refinement_flags
Br1 Br 0.2509(2) 0.1652(2) 0.2399(2) 0.0161(5) Uani 1 d .
Br2 Br 0.2041(2) 0.7942(2) 0.1171(2) 0.0142(5) Uani 1 d .
S1 S 0.2462(4) 0.7061(4) -0.1365(4) 0.0081(8) Uani 1 d .
S2 S 0.2762(4) 0.3391(4) -0.0638(4) 0.0093(9) Uani 1 d .
S3 S 0.3045(5) 0.7906(5) -0.4326(4) 0.0147(9) Uani 1 d .
S4 S 0.3476(5) 0.3639(5) -0.3554(4) 0.0176(10) Uani 1 d .
S5 S 0.2273(4) 0.4861(5) 0.1600(4) 0.0103(9) Uani 1 d .
C1 C 0.2516(16) 0.5069(18) -0.0105(16) 0.0081(8) Uani 1 d U
C2 C 0.2818(16) 0.6340(18) -0.2715(16) 0.009(3) Uani 1 d U
C3 C 0.2973(17) 0.4623(18) -0.2369(16) 0.009(3) Uani 1 d U
C4 C 0.0852(18) 0.7605(20) -0.5103(16) 0.019(4) Uani 1 d U
H4A H 0.0982(55) 0.8164(98) -0.6071(18) 0.028 Uiso 1 calc R
H4B H -0.0234(26) 0.8096(106) -0.4761(72) 0.028 Uiso 1 calc R
H4C H 0.0660(73) 0.6396(20) -0.4884(76) 0.028 Uiso 1 calc R
C5 C 0.3202(18) 0.1321(19) -0.2540(17) 0.017(3) Uani 1 d U
H5A H 0.3649(103) 0.0649(19) -0.3074(30) 0.025 Uiso 1 calc R
H5B H 0.1866(25) 0.1091(26) -0.2277(70) 0.025 Uiso 1 calc R
H5C H 0.3947(92) 0.1020(30) -0.1743(42) 0.025 Uiso 1 calc R
loop_
_atom_type_symbol
_atom_type_description
_atom_type_scat_dispersion_real
_atom_type_scat_dispersion_imag
_atom_type_scat_source
C C 0.0033 0.0016 'International Tables Vol C Tables 4.2.6.8 and 6.1.1.4'
H H 0.0000 0.0000 'International Tables Vol C Tables 4.2.6.8 and 6.1.1.4'
S S 0.1246 0.1234 'International Tables Vol C Tables 4.2.6.8 and 6.1.1.4'
Br Br -0.2901 2.4595 'International Tables Vol C Tables 4.2.6.8 and 6.1.1.4'
loop_
_geom_angle_atom_site_label_1
_geom_angle_atom_site_label_2
_geom_angle_atom_site_label_3
_geom_angle
C1 S1 C2 96.5(7)
C1 S2 C3 96.1(7)
C2 S3 C4 101.7(7)
C3 S4 C5 103.1(7)
C1 S5 Br2 95.7(5)
C1 S5 Br1 92.7(5)
Br2 S5 Br1 171.6(2)
S2 C1 S1 115.4(8)
S2 C1 S5 123.9(9)
S1 C1 S5 120.7(7)
C3 C2 S1 115.2(13)
C3 C2 S3 127.9(12)
S1 C2 S3 116.8(8)
C2 C3 S4 122.6(13)
C2 C3 S2 116.8(11)
S4 C3 S2 120.5(8)
loop_
_geom_bond_atom_site_label_1
_geom_bond_atom_site_label_2
_geom_bond_distance
Br1 S5 2.496(4)
Br2 S5 2.437(4)
S1 C1 1.71(2)
S1 C2 1.736(14)
S2 C1 1.680(12)
S2 C3 1.75(2)
S3 C2 1.74(2)
S3 C4 1.830(12)
S4 C3 1.738(13)
S4 C5 1.85(2)
S5 C1 1.745(15)
C2 C3 1.34(2)
loop_
_geom_torsion_atom_site_label_1
_geom_torsion_atom_site_label_2
_geom_torsion_atom_site_label_3
_geom_torsion_atom_site_label_4
_geom_torsion
C3 S2 C1 S1 2.8(7)
C3 S2 C1 S5 -178.5(8)
C2 S1 C1 S2 -2.5(8)
C2 S1 C1 S5 178.8(7)
Br2 S5 C1 S2 179.9(7)
Br1 S5 C1 S2 0.7(7)
Br2 S5 C1 S1 -1.5(7)
Br1 S5 C1 S1 179.3(6)
C1 S1 C2 C3 0.9(11)
C1 S1 C2 S3 -176.0(7)
C4 S3 C2 C3 70.5(12)
C4 S3 C2 S1 -113.0(7)
S1 C2 C3 S4 -176.1(6)
S3 C2 C3 S4 0.5(17)
S1 C2 C3 S2 0.9(13)
S3 C2 C3 S2 177.5(7)
C5 S4 C3 C2 -173.0(10)
C5 S4 C3 S2 10.2(9)
C1 S2 C3 C2 -2.2(10)
C1 S2 C3 S4 174.8(8)
