#------------------------------------------------------------------------------
#$Date: 2018-08-08 12:57:43 +0300 (Wed, 08 Aug 2018) $
#$Revision: 209478 $
#$URL: file:///home/coder/svn-repositories/cod/cif/7/02/78/7027885.cif $
#------------------------------------------------------------------------------
#
# This file is available in the Crystallography Open Database (COD),
# http://www.crystallography.net/. The original data for this entry
# were provided the Crystal Eye server at
# http://wwmm.ch.cam.ac.uk/crystaleye/, created by Nick Day at the
# Peter Murray-Rust laboratory.
#
# The file may be used within the scientific community so long as
# proper attribution is given to the journal article from which the
# data were obtained.
#
data_7027885
loop_
_publ_author_name
'Heaton, Brian T.'
'Jacob, Chacko'
'Sampanthar, Jeyagowry T.'
_publ_section_title
;
 Rhodium carbonyl complexes containing pyridine; crystal structure of an
 unusual octahedral rhodium(I) complex [Rh2(\m-CO)3Cl2(py)4]
;
_journal_issue                   8
_journal_name_full
'Journal of the Chemical Society, Dalton Transactions'
_journal_page_first              1403
_journal_paper_doi               10.1039/a707435b
_journal_year                    1998
_chemical_formula_sum            'C7 H5 Cl N O2 Rh'
_chemical_formula_weight         273.48
_space_group_IT_number           2
_symmetry_cell_setting           triclinic
_symmetry_Int_Tables_number      2
_symmetry_space_group_name_Hall  '-P 1'
_symmetry_space_group_name_H-M   'P -1'
_audit_creation_date             1998-01-05
_audit_creation_method           'by teXsan v1.7'
_audit_update_record             ?
_cell_angle_alpha                103.73(5)
_cell_angle_beta                 93.45(6)
_cell_angle_gamma                108.42(7)
_cell_formula_units_Z            4
_cell_length_a                   9.784(6)
_cell_length_b                   13.59(1)
_cell_length_c                   7.446(5)
_cell_measurement_reflns_used    18
_cell_measurement_temperature    296.2
_cell_measurement_theta_max      9.4
_cell_measurement_theta_min      3.6
_cell_volume                     902.6(12)
_computing_cell_refinement       'MSC/AFC Diffractometer Control'
_computing_data_collection       'MSC/AFC Diffractometer Control'
_computing_data_reduction        'teXsan (MSC, 1995)'
_computing_publication_material  'teXsan (MSC, 1995)'
_computing_structure_refinement  'teXsan (MSC, 1995)'
_diffrn_ambient_temperature      296.2
_diffrn_measurement_device       'Rigaku AFC6S'
_diffrn_measurement_method       \w-2\q
_diffrn_orient_matrix_UB_11      0.01406
_diffrn_orient_matrix_UB_12      -0.07089
_diffrn_orient_matrix_UB_13      -0.04751
_diffrn_orient_matrix_UB_21      -0.10677
_diffrn_orient_matrix_UB_22      -0.03800
_diffrn_orient_matrix_UB_23      -0.00729
_diffrn_orient_matrix_UB_31      -0.01617
_diffrn_orient_matrix_UB_32      0.00455
_diffrn_orient_matrix_UB_33      -0.13123
_diffrn_radiation_detector       'scintillation counter'
_diffrn_radiation_monochromator  graphite
_diffrn_radiation_source         'X-ray tube'
_diffrn_radiation_type           'Mo K\a'
_diffrn_radiation_wavelength     0.7107
_diffrn_reflns_av_R_equivalents  0.03715
_diffrn_reflns_limit_h_max       12
_diffrn_reflns_limit_h_min       0
_diffrn_reflns_limit_k_max       16
_diffrn_reflns_limit_k_min       -16
_diffrn_reflns_limit_l_max       9
_diffrn_reflns_limit_l_min       -9
_diffrn_reflns_number            3386
_diffrn_reflns_reduction_process 'Lp corrections applied'
_diffrn_reflns_theta_max         25.00
_diffrn_reflns_theta_min         0.00
_diffrn_standards_decay_%        -4.60
_diffrn_standards_interval_count 150
_diffrn_standards_number         3
_exptl_absorpt_coefficient_mu    2.118
_exptl_absorpt_correction_T_max  1.000
_exptl_absorpt_correction_T_min  0.742
_exptl_absorpt_correction_type
;
\y scans (North,Phillips & Matthews, 1968)
;
_exptl_crystal_colour            red
_exptl_crystal_density_diffrn    2.012
_exptl_crystal_density_meas      ?
_exptl_crystal_description       plate
_exptl_crystal_F_000             528.00
_exptl_crystal_size_max          0.25
_exptl_crystal_size_mid          0.20
_exptl_crystal_size_min          0.05
_refine_diff_density_max         0.52
_refine_diff_density_min         -0.54
_refine_ls_extinction_method     none
_refine_ls_goodness_of_fit_obs   1.168
_refine_ls_hydrogen_treatment    noref
_refine_ls_matrix_type           full
_refine_ls_number_constraints    0
_refine_ls_number_parameters     157
_refine_ls_number_reflns         1768
_refine_ls_number_restraints     0
_refine_ls_R_factor_obs          0.0394
_refine_ls_shift/esd_max         0.0188
_refine_ls_shift/esd_mean        0.0000
_refine_ls_structure_factor_coef F
_refine_ls_weighting_details     'w = 1/[\s^2^(Fo) + 0.00022|Fo|^2^]'
_refine_ls_weighting_scheme      calc
_refine_ls_wR_factor_obs         0.0393
_reflns_number_observed          1768
_reflns_number_total             3182
_reflns_observed_criterion       >3.00\s(I)
_cod_data_source_file            b707435sup1.cif
_cod_data_source_block           JNRHCO2_JN/BTH_19/12/94
_cod_depositor_comments
;
 Renaming the _geom_torsion_site_symmetry_4 data item to _geom_torsion.
 The initial data name misassignment was cause by the incorrect data name
 order in the loop and the removal of data items containing only unknown
 ('?') or inapplicable ('.') values.

 Antanas Vaitkus,
 2018-08-08

The following automatic conversions were performed:

'_exptl_crystal_density_meas' value 'not measured' was changed to '?'
- the value is perceived as not measured.

Automatic conversion script
Id: cif_fix_values 3008 2015-01-20 13:52:24Z robertas 

The following automatic conversions were performed:

'_refine_ls_weighting_scheme' value 'w = 1/[\s^2^(Fo) +
0.00022|Fo|^2^]' was changed to 'calc'. New tag
'_refine_ls_weighting_details' was created. The value of the new tag
was set to 'w = 1/[\s^2^(Fo) + 0.00022|Fo|^2^]'.

Automatic conversion script
Id: cif_fix_values 3143 2015-03-26 13:38:13Z robertas 
;
_cod_original_cell_volume        902(1)
_cod_original_sg_symbol_H-M      'P -1       '
_cod_original_formula_sum        'C7 H5 Cl N O2 Rh '
_cod_database_code               7027885
loop_
_symmetry_equiv_pos_as_xyz
'   +x,   +y,   +z'
'   -x,   -y,   -z'
loop_
_atom_site_aniso_label
_atom_site_aniso_U_11
_atom_site_aniso_U_22
_atom_site_aniso_U_33
_atom_site_aniso_U_12
_atom_site_aniso_U_13
_atom_site_aniso_U_23
Rh(1) 0.0503(5) 0.0420(5) 0.0552(6) 0.0251(4) 0.0090(4) 0.0140(5)
Cl(1) 0.102(2) 0.051(2) 0.077(2) 0.048(2) 0.026(2) 0.019(2)
O(1) 0.061(5) 0.051(5) 0.079(5) 0.019(4) 0.007(4) -0.006(4)
O(2) 0.058(6) 0.123(8) 0.18(1) 0.043(6) -0.007(6) 0.005(7)
C(1) 0.049(6) 0.046(6) 0.064(7) 0.017(5) 0.004(5) 0.012(6)
C(2) 0.056(7) 0.086(9) 0.094(9) 0.044(7) 0.008(7) 0.017(7)
Rh(2) 0.0493(5) 0.0440(5) 0.0649(6) 0.0246(4) 0.0134(4) 0.0208(5)
Cl(2) 0.060(2) 0.044(2) 0.081(2) 0.020(1) 0.006(1) 0.016(1)
O(3) 0.123(7) 0.094(7) 0.100(7) 0.077(6) 0.036(6) 0.017(5)
O(4) 0.051(6) 0.126(9) 0.28(2) 0.031(6) -0.001(8) 0.014(9)
C(8) 0.075(8) 0.068(8) 0.078(8) 0.042(7) 0.025(6) 0.026(7)
C(9) 0.070(9) 0.076(9) 0.15(1) 0.042(8) 0.015(9) 0.024(9)
loop_
_atom_site_label
_atom_site_fract_x
_atom_site_fract_y
_atom_site_fract_z
_atom_site_U_iso_or_equiv
_atom_site_occupancy
_atom_site_thermal_displace_type
_atom_site_calc_flag
Rh(1) 0.34260(8) 0.22689(6) 0.9786(1) 0.0467(3) 1.000 Uani d
Cl(1) 0.3425(3) 0.3969(2) 1.1444(4) 0.0703(10) 1.000 Uani d
O(1) 0.3219(7) 0.0069(6) 0.767(1) 0.068(2) 1.000 Uani d
O(2) 0.0272(9) 0.1691(8) 0.861(1) 0.124(4) 1.000 Uani d
N(1) 0.5727(7) 0.2772(6) 1.0410(9) 0.043(2) 1.000 Uiso d
C(1) 0.334(1) 0.0913(8) 0.846(1) 0.053(3) 1.000 Uani d
C(2) 0.148(1) 0.1903(9) 0.913(2) 0.075(4) 1.000 Uani d
C(3) 0.6535(10) 0.3769(7) 1.034(1) 0.051(2) 1.000 Uiso d
C(4) 0.803(1) 0.4133(8) 1.066(1) 0.059(3) 1.000 Uiso d
C(5) 0.871(1) 0.3450(8) 1.106(1) 0.058(3) 1.000 Uiso d
C(6) 0.7906(9) 0.2419(7) 1.109(1) 0.047(2) 1.000 Uiso d
C(7) 0.6416(9) 0.2121(7) 1.079(1) 0.045(2) 1.000 Uiso d
H(1) 0.5993 0.4406 1.0322 0.060 1.000 Uiso c
H(2) 0.8810 0.4834 1.0406 0.073 1.000 Uiso c
H(3) 0.9776 0.3596 1.0902 0.070 1.000 Uiso c
H(4) 0.8504 0.1986 1.1309 0.058 1.000 Uiso c
H(5) 0.5724 0.1403 1.0836 0.054 1.000 Uiso c
Rh(2) 1.67889(8) 0.81168(6) 1.5770(1) 0.0493(3) 1.000 Uani d
Cl(2) 1.6565(3) 0.9755(2) 1.7358(4) 0.0618(9) 1.000 Uani d
O(3) 1.7345(10) 0.6137(7) 1.381(1) 0.097(3) 1.000 Uani d
O(4) 1.9966(9) 0.9130(8) 1.698(2) 0.159(5) 1.000 Uani d
N(2) 1.4511(7) 0.7443(6) 1.4930(10) 0.043(2) 1.000 Uiso d
C(8) 1.708(1) 0.6872(9) 1.455(2) 0.068(4) 1.000 Uani d
C(9) 1.875(1) 0.875(1) 1.651(2) 0.095(5) 1.000 Uani d
C(10) 1.3763(10) 0.8045(7) 1.446(1) 0.047(2) 1.000 Uiso d
C(11) 1.230(1) 0.7671(8) 1.395(1) 0.057(3) 1.000 Uiso d
C(12) 1.153(1) 0.6631(8) 1.397(1) 0.060(3) 1.000 Uiso d
C(13) 1.228(1) 0.5991(8) 1.443(1) 0.059(3) 1.000 Uiso d
C(14) 1.3744(10) 0.6419(7) 1.490(1) 0.051(2) 1.000 Uiso d
H(6) 1.4310 0.8792 1.4484 0.057 1.000 Uiso c
H(7) 1.1803 0.8124 1.3585 0.068 1.000 Uiso c
H(8) 1.0472 0.6353 1.3668 0.071 1.000 Uiso c
H(9) 1.1749 0.5248 1.4410 0.071 1.000 Uiso c
H(10) 1.4270 0.5971 1.5239 0.062 1.000 Uiso c
loop_
_atom_type_symbol
_atom_type_oxidation_number
_atom_type_number_in_cell
_atom_type_scat_dispersion_real
_atom_type_scat_dispersion_imag
_atom_type_scat_source
C 0 28 0.003 0.002
;International Tables for Crystallography
(1992, Vol. C, Tables 4.2.6.8 and 6.1.1.1)
;
H 0 20 0.000 0.000
;International Tables for Crystallography
(1992, Vol. C, Table 6.1.1.2)
;
N 0 4 0.006 0.003
;International Tables for Crystallography
(1992, Vol. C, Tables 4.2.6.8 and 6.1.1.1)
;
O 0 8 0.011 0.006
;International Tables for Crystallography
(1992, Vol. C, Tables 4.2.6.8 and 6.1.1.1)
;
Cl 0 4 0.148 0.159
;International Tables for Crystallography
(1992, Vol. C, Tables 4.2.6.8 and 6.1.1.1)
;
Rh 0 4 -1.118 0.919
;International Tables for Crystallography
(1992, Vol. C, Tables 4.2.6.8 and 6.1.1.1)
;
loop_
_geom_angle_atom_site_label_1
_geom_angle_atom_site_label_2
_geom_angle_atom_site_label_3
_geom_angle
_geom_angle_publ_flag
Cl(1) Rh(1) N(1) 91.3(2) yes
Cl(1) Rh(1) C(1) 177.5(3) yes
Cl(1) Rh(1) C(2) 87.4(4) yes
N(1) Rh(1) C(1) 91.2(4) yes
N(1) Rh(1) C(2) 175.7(5) yes
C(1) Rh(1) C(2) 90.1(5) yes
Rh(1) N(1) C(3) 119.0(7) yes
Rh(1) N(1) C(7) 122.5(5) yes
C(3) N(1) C(7) 118.5(8) yes
Rh(1) C(1) O(1) 176.7(9) yes
Rh(1) C(2) O(2) 175(1) yes
N(1) C(3) C(4) 122(1) yes
N(1) C(3) H(1) 120.0 no
C(4) C(3) H(1) 116.6 no
C(3) C(4) C(5) 118.4(9) yes
C(3) C(4) H(2) 130.1 no
C(5) C(4) H(2) 110.3 no
C(4) C(5) C(6) 120.3(9) yes
C(4) C(5) H(3) 119.6 no
C(6) C(5) H(3) 117.1 no
C(5) C(6) C(7) 117(1) yes
C(5) C(6) H(4) 113.6 no
C(7) C(6) H(4) 128.5 no
N(1) C(7) C(6) 122.8(8) yes
N(1) C(7) H(5) 112.6 no
C(6) C(7) H(5) 124.6 no
Cl(2) Rh(2) N(2) 90.6(2) yes
Cl(2) Rh(2) C(8) 176.6(3) yes
Cl(2) Rh(2) C(9) 87.2(5) yes
N(2) Rh(2) C(8) 92.8(4) yes
N(2) Rh(2) C(9) 177.7(5) yes
C(8) Rh(2) C(9) 89.4(6) yes
Rh(2) N(2) C(10) 120.3(5) yes
Rh(2) N(2) C(14) 122.1(7) yes
C(10) N(2) C(14) 117.5(7) yes
Rh(2) C(8) O(3) 176.1(9) yes
Rh(2) C(9) O(4) 178(1) yes
N(2) C(10) C(11) 123.3(9) yes
N(2) C(10) H(6) 118.1 no
C(11) C(10) H(6) 118.6 no
C(10) C(11) C(12) 118(1) yes
C(10) C(11) H(7) 120.9 no
C(12) C(11) H(7) 120.3 no
C(11) C(12) C(13) 118.9(9) yes
C(11) C(12) H(8) 120.6 no
C(13) C(12) H(8) 120.5 no
C(12) C(13) C(14) 118.9(9) yes
C(12) C(13) H(9) 120.0 no
C(14) C(13) H(9) 121.1 no
N(2) C(14) C(13) 122(1) yes
N(2) C(14) H(10) 118.5 no
C(13) C(14) H(10) 118.9 no
loop_
_geom_bond_atom_site_label_1
_geom_bond_atom_site_label_2
_geom_bond_distance
_geom_bond_publ_flag
Rh(1) Cl(1) 2.347(3) yes
Rh(1) N(1) 2.122(7) yes
Rh(1) C(1) 1.84(1) yes
Rh(1) C(2) 1.81(1) yes
O(1) C(1) 1.12(1) yes
O(2) C(2) 1.14(1) yes
N(1) C(3) 1.35(1) yes
N(1) C(7) 1.34(1) yes
C(3) C(4) 1.37(1) yes
C(3) H(1) 1.15 no
C(4) C(5) 1.38(2) yes
C(4) H(2) 1.08 no
C(5) C(6) 1.38(1) yes
C(5) H(3) 1.01 no
C(6) C(7) 1.37(1) yes
C(6) H(4) 0.98 no
C(7) H(5) 1.01 no
Rh(2) Cl(2) 2.344(3) yes
Rh(2) N(2) 2.114(7) yes
Rh(2) C(8) 1.84(1) yes
Rh(2) C(9) 1.83(1) yes
O(3) C(8) 1.13(2) yes
O(4) C(9) 1.13(2) yes
N(2) C(10) 1.35(1) yes
N(2) C(14) 1.35(1) yes
C(10) C(11) 1.35(1) yes
C(10) H(6) 0.98 no
C(11) C(12) 1.38(1) yes
C(11) H(7) 0.97 no
C(12) C(13) 1.39(2) yes
C(12) H(8) 0.97 no
C(13) C(14) 1.36(1) yes
C(13) H(9) 0.97 no
C(14) H(10) 0.98 no
loop_
_geom_torsion_atom_site_label_1
_geom_torsion_atom_site_label_2
_geom_torsion_atom_site_label_3
_geom_torsion_atom_site_label_4
_geom_torsion
_geom_torsion_publ_flag
Rh(1) N(1) C(3) C(4) -177.8(7) no
Rh(1) N(1) C(7) C(6) 176.1(6) no
Cl(1) Rh(1) N(1) C(3) -41.0(6) no
Cl(1) Rh(1) N(1) C(7) 142.2(6) no
Cl(1) Rh(1) C(1) O(1) -26(25) no
Cl(1) Rh(1) C(2) O(2) 95(13) no
O(1) C(1) Rh(1) N(1) 153(18) no
O(1) C(1) Rh(1) C(2) -30(18) no
O(2) C(2) Rh(1) N(1) 23(18) no
O(2) C(2) Rh(1) C(1) -84(13) no
N(1) C(3) C(4) C(5) 0(1) no
N(1) C(7) C(6) C(5) 2(1) no
C(1) Rh(1) N(1) C(3) 139.0(7) no
C(1) Rh(1) N(1) C(7) -37.8(7) no
C(2) Rh(1) N(1) C(3) 31(5) no
C(2) Rh(1) N(1) C(7) -145(5) no
C(3) N(1) C(7) C(6) 0(1) no
C(3) C(4) C(5) C(6) 1(1) no
C(4) C(3) N(1) C(7) 0(1) no
C(4) C(5) C(6) C(7) -2(1) no
Rh(2) N(2) C(10) C(11) -178.5(7) no
Rh(2) N(2) C(14) C(13) 177.6(7) no
Cl(2) Rh(2) N(2) C(10) 37.5(6) no
Cl(2) Rh(2) N(2) C(14) -140.0(7) no
Cl(2) Rh(2) C(8) O(3) -9(22) no
Cl(2) Rh(2) C(9) O(4) 134(59) no
O(3) C(8) Rh(2) N(2) 162(16) no
O(3) C(8) Rh(2) C(9) -16(16) no
O(4) C(9) Rh(2) N(2) 154(50) no
O(4) C(9) Rh(2) C(8) -45(59) no
N(2) C(10) C(11) C(12) 2(1) no
N(2) C(14) C(13) C(12) 0(1) no
C(8) Rh(2) N(2) C(10) -142.1(7) no
C(8) Rh(2) N(2) C(14) 40.4(8) no
C(9) Rh(2) N(2) C(10) 18(13) no
C(9) Rh(2) N(2) C(14) -159(13) no
C(10) N(2) C(14) C(13) 0(1) no
C(10) C(11) C(12) C(13) -2(1) no
C(11) C(10) N(2) C(14) 0(1) no
C(11) C(12) C(13) C(14) 1(1) no
