#------------------------------------------------------------------------------
#$Date: 2016-03-25 16:49:18 +0200 (Fri, 25 Mar 2016) $
#$Revision: 179991 $
#$URL: svn://www.crystallography.net/cod/cif/7/02/85/7028553.cif $
#------------------------------------------------------------------------------
#
# This file is available in the Crystallography Open Database (COD),
# http://www.crystallography.net/
#
# All data on this site have been placed in the public domain by the
# contributors.
#
data_7028553
loop_
_publ_author_name
'Basu Baul, Tushar S.'
'Kundu, Sajal'
'Linden, Anthony'
'Raviprakash, Nune'
'Manna, Sunil K.'
'Guedes da Silva, M F\'atima C'
_publ_section_title
;
 Synthesis and characterization of some water soluble Zn(II) complexes
 with (E)-N-(pyridin-2-ylmethylene)arylamines that regulate tumour cell
 death by interacting with DNA.
;
_journal_issue                   3
_journal_name_full
'Dalton transactions (Cambridge, England : 2003)'
_journal_page_first              1191
_journal_page_last               1202
_journal_paper_doi               10.1039/c3dt52062e
_journal_volume                  43
_journal_year                    2014
_chemical_formula_moiety         'C12 H10 Br2 N2 Zn'
_chemical_formula_sum            'C12 H10 Br2 N2 Zn'
_chemical_formula_weight         407.41
_chemical_name_systematic
; 
 ? 
;
_space_group_IT_number           2
_symmetry_cell_setting           triclinic
_symmetry_Int_Tables_number      2
_symmetry_space_group_name_Hall  '-P 1'
_symmetry_space_group_name_H-M   'P -1'
_atom_sites_solution_hydrogens   geom
_atom_sites_solution_primary     direct
_atom_sites_solution_secondary   difmap
_audit_creation_date             1-Dec-2011
_audit_creation_method           SHELXL-97
_cell_angle_alpha                102.598(3)
_cell_angle_beta                 100.816(3)
_cell_angle_gamma                96.996(3)
_cell_formula_units_Z            2
_cell_length_a                   7.8621(3)
_cell_length_b                   8.8368(3)
_cell_length_c                   10.0742(3)
_cell_measurement_reflns_used    7002
_cell_measurement_temperature    160(1)
_cell_measurement_theta_max      29.3558
_cell_measurement_theta_min      2.1197
_cell_volume                     661.19(4)
_computing_cell_refinement
'CrysAlisPro, Version 1.171.35.19 (Agilent Technologies, 2011)'
_computing_data_collection
'CrysAlisPro, Version 1.171.35.19 (Agilent Technologies, 2011)'
_computing_data_reduction
'CrysAlisPro, Version 1.171.35.19 (Agilent Technologies, 2011)'
_computing_molecular_graphics    'ORTEPII (Johnson, 1976)'
_computing_publication_material  'SHELXL97 and PLATON (Spek, 2009)'
_computing_structure_refinement  'SHELXL97 (Sheldrick, 2008)'
_computing_structure_solution    'SHELXS97 (Sheldrick, 2008)'
_diffrn_ambient_temperature      160(1)
_diffrn_detector                 'Atlas CCD camera on \k goniostat'
_diffrn_detector_area_resol_mean 10.3801
_diffrn_measured_fraction_theta_full 1.000
_diffrn_measured_fraction_theta_max 0.903
_diffrn_measurement_device_type
'Oxford Diffraction SuperNova, dual radiation diffractometer'
_diffrn_measurement_method       '\w scans'
_diffrn_radiation_monochromator  mirror
_diffrn_radiation_source         'SuperNova (Mo) X-ray Source'
_diffrn_radiation_type           'Mo K\a'
_diffrn_radiation_wavelength     0.71073
_diffrn_reflns_av_R_equivalents  0.0405
_diffrn_reflns_av_sigmaI/netI    0.0350
_diffrn_reflns_limit_h_max       10
_diffrn_reflns_limit_h_min       -10
_diffrn_reflns_limit_k_max       11
_diffrn_reflns_limit_k_min       -12
_diffrn_reflns_limit_l_max       13
_diffrn_reflns_limit_l_min       -13
_diffrn_reflns_number            14700
_diffrn_reflns_theta_full        26.32
_diffrn_reflns_theta_max         29.42
_diffrn_reflns_theta_min         2.12
_diffrn_standards_decay_%        0
_diffrn_standards_number         0
_exptl_absorpt_coefficient_mu    7.897
_exptl_absorpt_correction_T_max  1.00000
_exptl_absorpt_correction_T_min  0.53402
_exptl_absorpt_correction_type   multi-scan
_exptl_absorpt_process_details
;
Empirical absorption correction using spherical harmonics,
 implemented in SCALE3 ABSPACK scaling algorithm.
CrysAlisPro, Version 1.171.35.19 (Agilent Technologies, 2011)
;
_exptl_crystal_colour            yellow
_exptl_crystal_density_diffrn    2.046
_exptl_crystal_density_method    'not measured'
_exptl_crystal_description       tablet
_exptl_crystal_F_000             392
_exptl_crystal_size_max          0.20
_exptl_crystal_size_mid          0.17
_exptl_crystal_size_min          0.05
_refine_diff_density_max         2.864
_refine_diff_density_min         -1.053
_refine_diff_density_rms         0.113
_refine_ls_extinction_method     none
_refine_ls_goodness_of_fit_ref   1.039
_refine_ls_hydrogen_treatment    constr
_refine_ls_matrix_type           full
_refine_ls_number_parameters     154
_refine_ls_number_reflns         3307
_refine_ls_number_restraints     0
_refine_ls_restrained_S_all      1.039
_refine_ls_R_factor_all          0.0446
_refine_ls_R_factor_gt           0.0346
_refine_ls_shift/su_max          0.001
_refine_ls_shift/su_mean         0.000
_refine_ls_structure_factor_coef Fsqd
_refine_ls_weighting_details
'w=1/[\s^2^(Fo^2^)+(0.0272P)^2^+1.4799P] where P=(Fo^2^+2Fc^2^)/3'
_refine_ls_weighting_scheme      calc
_refine_ls_wR_factor_gt          0.0732
_refine_ls_wR_factor_ref         0.0777
_reflns_number_gt                2810
_reflns_number_total             3307
_reflns_threshold_expression     'I > 2\s(I)'
_iucr_refine_instructions_details
;
TITL L1111_Mo in P-1
CELL 0.71073 7.86206 8.83676 10.07423 102.5978 100.816 96.9959
ZERR 2 0.0003 0.00029 0.00033 0.0028 0.0029 0.0029
LATT 1
SFAC C H Br N Zn
UNIT 24 20 4 4 2
L.S. 5
PLAN  10
TEMP -113
BOND $H
CONF
fmap 2
acta
WGHT    0.027200    1.479900
FVAR       4.77475
BR1   3    1.059601    0.313293    0.327712    11.00000    0.02812    0.02967 =
         0.03469    0.01746    0.00510    0.00118
BR2   3    0.549626    0.244131    0.168975    11.00000    0.03110    0.02840 =
         0.03024    0.01122    0.00509    0.01256
ZN1   5    0.785145    0.149380    0.281979    11.00000    0.02760    0.02058 =
         0.02435    0.01005    0.00870    0.00767
N1    4    0.815887   -0.078964    0.202769    11.00000    0.02042    0.01920 =
         0.02351    0.00379    0.00659    0.00561
N2    4    0.749987    0.055968    0.449994    11.00000    0.01795    0.02137 =
         0.02142    0.00527    0.00666    0.00247
C1    1    0.812840   -0.165121    0.297457    11.00000    0.01938    0.01909 =
         0.02373    0.00473    0.00357    0.00394
C2    1    0.842092   -0.317838    0.271367    11.00000    0.03157    0.02437 =
         0.02365    0.00745    0.00509    0.01013
AFIX  43
H2    2    0.843375   -0.374602    0.341404    11.00000   -1.20000
AFIX   0
C3    1    0.869641   -0.388153    0.142285    11.00000    0.03077    0.02178 =
         0.03157    0.00350    0.00700    0.01089
AFIX  43
H3    2    0.888436   -0.494149    0.121988    11.00000   -1.20000
AFIX   0
C4    1    0.869415   -0.301995    0.043372    11.00000    0.03128    0.03252 =
         0.02179    0.00082    0.00705    0.00942
AFIX  43
H4    2    0.886443   -0.347898   -0.046605    11.00000   -1.20000
AFIX   0
C5    1    0.843762   -0.146646    0.078071    11.00000    0.02760    0.03467 =
         0.02337    0.01182    0.00581    0.00756
AFIX  43
H5    2    0.846097   -0.086339    0.010859    11.00000   -1.20000
AFIX   0
C6    1    0.772235   -0.087120    0.429810    11.00000    0.02237    0.02342 =
         0.02314    0.01015    0.00495    0.00564
AFIX  43
H6    2    0.762701   -0.142846    0.499494    11.00000   -1.20000
AFIX   0
C7    1    0.706296    0.136070    0.574862    11.00000    0.01896    0.02394 =
         0.01875    0.00038    0.00738    0.00213
C8    1    0.700417    0.072792    0.689239    11.00000    0.02667    0.02604 =
         0.02265    0.00546    0.00768    0.00696
AFIX  43
H8    2    0.727324   -0.029371    0.687985    11.00000   -1.20000
AFIX   0
C9    1    0.654831    0.160652    0.804958    11.00000    0.03075    0.03485 =
         0.02181    0.00384    0.00843    0.00245
AFIX  43
H9    2    0.651262    0.118094    0.883423    11.00000   -1.20000
AFIX   0
C10   1    0.614739    0.308138    0.808162    11.00000    0.02489    0.03327 =
         0.02787   -0.00539    0.00934   -0.00193
AFIX  43
H10   2    0.582658    0.366325    0.888017    11.00000   -1.20000
AFIX   0
C11   1    0.621031    0.371686    0.695667    11.00000    0.03643    0.02118 =
         0.04323    0.00231    0.01550    0.00538
AFIX  43
H11   2    0.593981    0.473977    0.697922    11.00000   -1.20000
AFIX   0
C12   1    0.667075    0.285769    0.578750    11.00000    0.03699    0.02340 =
         0.02952    0.00893    0.01325    0.00303
AFIX  43
H12   2    0.671733    0.329662    0.501149    11.00000   -1.20000
HKLF 4
 
REM  L1111_Mo in P-1
REM R1 =  0.0346 for   2810 Fo > 4sig(Fo)  and  0.0446 for all   3307 data
REM    154 parameters refined using      0 restraints
 
END  
     
WGHT      0.0272      1.4800 
REM Highest difference peak  2.864,  deepest hole -1.053,  1-sigma level  0.113
Q1    1   0.7669  0.2256  0.3505  11.00000  0.05    2.86
Q2    1   0.5200  0.2615  0.2397  11.00000  0.05    0.74
Q3    1   1.0524  0.3581  0.3936  11.00000  0.05    0.47
Q4    1   0.7101  0.2180  0.5366  11.00000  0.05    0.41
Q5    1   0.8141 -0.1248  0.2449  11.00000  0.05    0.38
Q6    1   0.8179  0.1312  0.1802  11.00000  0.05    0.38
Q7    1   0.9207 -0.2102  0.5136  11.00000  0.05    0.38
Q8    1   0.6626  0.1113  0.7375  11.00000  0.05    0.37
Q9    1   0.5869  0.3245  0.7401  11.00000  0.05    0.36
Q10   1   0.5992  0.2211  0.7813  11.00000  0.05    0.36
;
_cod_data_source_file            c3dt52062e.txt
_cod_data_source_block           L1111
_cod_database_code               7028553
loop_
_symmetry_equiv_pos_as_xyz
'x, y, z'
'-x, -y, -z'
loop_
_atom_site_label
_atom_site_type_symbol
_atom_site_fract_x
_atom_site_fract_y
_atom_site_fract_z
_atom_site_U_iso_or_equiv
_atom_site_adp_type
_atom_site_occupancy
_atom_site_symmetry_multiplicity
_atom_site_calc_flag
_atom_site_refinement_flags
Br1 Br 1.05960(5) 0.31329(4) 0.32771(4) 0.02989(11) Uani 1 1 d .
Br2 Br 0.54963(5) 0.24413(4) 0.16898(4) 0.02886(11) Uani 1 1 d .
Zn1 Zn 0.78515(5) 0.14938(5) 0.28198(4) 0.02275(11) Uani 1 1 d .
N1 N 0.8159(4) -0.0790(3) 0.2028(3) 0.0209(6) Uani 1 1 d .
N2 N 0.7500(4) 0.0560(3) 0.4500(3) 0.0200(6) Uani 1 1 d .
C1 C 0.8128(4) -0.1651(4) 0.2975(3) 0.0209(7) Uani 1 1 d .
C2 C 0.8421(5) -0.3178(4) 0.2714(4) 0.0260(7) Uani 1 1 d .
H2 H 0.8434 -0.3746 0.3414 0.031 Uiso 1 1 calc R
C3 C 0.8696(5) -0.3882(4) 0.1423(4) 0.0280(8) Uani 1 1 d .
H3 H 0.8884 -0.4941 0.1220 0.034 Uiso 1 1 calc R
C4 C 0.8694(5) -0.3020(4) 0.0434(4) 0.0290(8) Uani 1 1 d .
H4 H 0.8864 -0.3479 -0.0466 0.035 Uiso 1 1 calc R
C5 C 0.8438(5) -0.1466(4) 0.0781(4) 0.0276(8) Uani 1 1 d .
H5 H 0.8461 -0.0863 0.0109 0.033 Uiso 1 1 calc R
C6 C 0.7722(4) -0.0871(4) 0.4298(3) 0.0221(7) Uani 1 1 d .
H6 H 0.7627 -0.1428 0.4995 0.027 Uiso 1 1 calc R
C7 C 0.7063(4) 0.1361(4) 0.5749(3) 0.0210(7) Uani 1 1 d .
C8 C 0.7004(5) 0.0728(4) 0.6892(3) 0.0247(7) Uani 1 1 d .
H8 H 0.7273 -0.0294 0.6880 0.030 Uiso 1 1 calc R
C9 C 0.6548(5) 0.1607(5) 0.8050(4) 0.0296(8) Uani 1 1 d .
H9 H 0.6513 0.1181 0.8834 0.035 Uiso 1 1 calc R
C10 C 0.6147(5) 0.3081(5) 0.8082(4) 0.0309(8) Uani 1 1 d .
H10 H 0.5827 0.3663 0.8880 0.037 Uiso 1 1 calc R
C11 C 0.6210(5) 0.3717(4) 0.6957(4) 0.0336(9) Uani 1 1 d .
H11 H 0.5940 0.4740 0.6979 0.040 Uiso 1 1 calc R
C12 C 0.6671(5) 0.2858(4) 0.5787(4) 0.0290(8) Uani 1 1 d .
H12 H 0.6717 0.3297 0.5011 0.035 Uiso 1 1 calc R
loop_
_atom_site_aniso_label
_atom_site_aniso_U_11
_atom_site_aniso_U_22
_atom_site_aniso_U_33
_atom_site_aniso_U_23
_atom_site_aniso_U_13
_atom_site_aniso_U_12
Br1 0.0281(2) 0.0297(2) 0.0347(2) 0.01746(16) 0.00510(15) 0.00118(15)
Br2 0.0311(2) 0.0284(2) 0.0302(2) 0.01122(15) 0.00509(15) 0.01256(15)
Zn1 0.0276(2) 0.0206(2) 0.0243(2) 0.01005(16) 0.00870(16) 0.00767(16)
N1 0.0204(14) 0.0192(14) 0.0235(14) 0.0038(11) 0.0066(11) 0.0056(11)
N2 0.0179(14) 0.0214(14) 0.0214(14) 0.0053(11) 0.0067(11) 0.0025(11)
C1 0.0194(16) 0.0191(16) 0.0237(17) 0.0047(13) 0.0036(13) 0.0039(13)
C2 0.032(2) 0.0244(18) 0.0236(17) 0.0074(14) 0.0051(15) 0.0101(15)
C3 0.031(2) 0.0218(18) 0.0316(19) 0.0035(15) 0.0070(16) 0.0109(15)
C4 0.031(2) 0.033(2) 0.0218(17) 0.0008(15) 0.0071(15) 0.0094(16)
C5 0.0276(19) 0.035(2) 0.0234(17) 0.0118(15) 0.0058(14) 0.0076(15)
C6 0.0224(17) 0.0234(17) 0.0231(17) 0.0102(13) 0.0049(13) 0.0056(14)
C7 0.0190(16) 0.0239(17) 0.0188(16) 0.0004(13) 0.0074(13) 0.0021(13)
C8 0.0267(18) 0.0260(18) 0.0227(17) 0.0055(14) 0.0077(14) 0.0070(14)
C9 0.031(2) 0.035(2) 0.0218(17) 0.0038(15) 0.0084(15) 0.0025(16)
C10 0.0249(19) 0.033(2) 0.0279(19) -0.0054(15) 0.0093(15) -0.0019(16)
C11 0.036(2) 0.0212(18) 0.043(2) 0.0023(16) 0.0155(18) 0.0054(16)
C12 0.037(2) 0.0234(18) 0.0295(19) 0.0089(15) 0.0133(16) 0.0030(16)
loop_
_atom_type_symbol
_atom_type_description
_atom_type_number_in_cell
_atom_type_scat_dispersion_real
_atom_type_scat_dispersion_imag
_atom_type_scat_source
C C 24 0.0033 0.0016
; International Tables for Crystallography (1992). 
Vol. C, Tables 4.2.6.8 and 6.1.1.4
;
H H 20 0.0000 0.0000
; International Tables for Crystallography (1992). 
Vol. C, Tables 4.2.6.8 and 6.1.1.4
;
Br Br 4 -0.2901 2.4595
; International Tables for Crystallography (1992). 
Vol. C, Tables 4.2.6.8 and 6.1.1.4
;
N N 4 0.0061 0.0033
; International Tables for Crystallography (1992). 
Vol. C, Tables 4.2.6.8 and 6.1.1.4
;
Zn Zn 2 0.2839 1.4301
; International Tables for Crystallography (1992). 
Vol. C, Tables 4.2.6.8 and 6.1.1.4
;
loop_
_geom_angle_atom_site_label_1
_geom_angle_atom_site_label_2
_geom_angle_atom_site_label_3
_geom_angle
N1 Zn1 N2 80.81(11)
N1 Zn1 Br2 118.44(8)
N2 Zn1 Br2 117.56(8)
N1 Zn1 Br1 108.29(8)
N2 Zn1 Br1 112.25(8)
Br2 Zn1 Br1 114.84(2)
C5 N1 C1 118.5(3)
C5 N1 Zn1 129.8(2)
C1 N1 Zn1 111.7(2)
C6 N2 C7 121.7(3)
C6 N2 Zn1 111.9(2)
C7 N2 Zn1 126.5(2)
N1 C1 C2 122.1(3)
N1 C1 C6 116.0(3)
C2 C1 C6 121.9(3)
C1 C2 C3 119.4(3)
C1 C2 H2 120.3
C3 C2 H2 120.3
C4 C3 C2 119.0(3)
C4 C3 H3 120.5
C2 C3 H3 120.5
C3 C4 C5 118.6(3)
C3 C4 H4 120.7
C5 C4 H4 120.7
N1 C5 C4 122.4(3)
N1 C5 H5 118.8
C4 C5 H5 118.8
N2 C6 C1 119.3(3)
N2 C6 H6 120.3
C1 C6 H6 120.3
C12 C7 C8 119.6(3)
C12 C7 N2 116.4(3)
C8 C7 N2 124.0(3)
C9 C8 C7 119.2(3)
C9 C8 H8 120.4
C7 C8 H8 120.4
C10 C9 C8 121.1(3)
C10 C9 H9 119.4
C8 C9 H9 119.4
C9 C10 C11 120.0(3)
C9 C10 H10 120.0
C11 C10 H10 120.0
C10 C11 C12 119.8(4)
C10 C11 H11 120.1
C12 C11 H11 120.1
C7 C12 C11 120.3(3)
C7 C12 H12 119.9
C11 C12 H12 119.9
loop_
_geom_bond_atom_site_label_1
_geom_bond_atom_site_label_2
_geom_bond_distance
Br1 Zn1 2.3539(5)
Br2 Zn1 2.3298(5)
Zn1 N1 2.063(3)
Zn1 N2 2.086(3)
N1 C5 1.338(4)
N1 C1 1.346(4)
N2 C6 1.275(4)
N2 C7 1.426(4)
C1 C2 1.374(5)
C1 C6 1.472(5)
C2 C3 1.382(5)
C2 H2 0.9500
C3 C4 1.380(5)
C3 H3 0.9500
C4 C5 1.390(5)
C4 H4 0.9500
C5 H5 0.9500
C6 H6 0.9500
C7 C12 1.388(5)
C7 C8 1.392(5)
C8 C9 1.386(5)
C8 H8 0.9500
C9 C10 1.373(6)
C9 H9 0.9500
C10 C11 1.376(6)
C10 H10 0.9500
C11 C12 1.390(5)
C11 H11 0.9500
C12 H12 0.9500
loop_
_geom_torsion_atom_site_label_1
_geom_torsion_atom_site_label_2
_geom_torsion_atom_site_label_3
_geom_torsion_atom_site_label_4
_geom_torsion
N2 Zn1 N1 C5 177.9(3)
Br2 Zn1 N1 C5 61.4(3)
Br1 Zn1 N1 C5 -71.6(3)
N2 Zn1 N1 C1 -4.9(2)
Br2 Zn1 N1 C1 -121.4(2)
Br1 Zn1 N1 C1 105.6(2)
N1 Zn1 N2 C6 3.4(2)
Br2 Zn1 N2 C6 120.8(2)
Br1 Zn1 N2 C6 -102.7(2)
N1 Zn1 N2 C7 -176.5(3)
Br2 Zn1 N2 C7 -59.1(3)
Br1 Zn1 N2 C7 77.4(3)
C5 N1 C1 C2 1.8(5)
Zn1 N1 C1 C2 -175.7(3)
C5 N1 C1 C6 -176.8(3)
Zn1 N1 C1 C6 5.6(4)
N1 C1 C2 C3 -2.3(5)
C6 C1 C2 C3 176.3(3)
C1 C2 C3 C4 0.9(6)
C2 C3 C4 C5 0.9(6)
C1 N1 C5 C4 0.0(5)
Zn1 N1 C5 C4 177.1(3)
C3 C4 C5 N1 -1.4(6)
C7 N2 C6 C1 178.5(3)
Zn1 N2 C6 C1 -1.5(4)
N1 C1 C6 N2 -2.9(5)
C2 C1 C6 N2 178.5(3)
C6 N2 C7 C12 -173.4(3)
Zn1 N2 C7 C12 6.6(4)
C6 N2 C7 C8 6.3(5)
Zn1 N2 C7 C8 -173.8(3)
C12 C7 C8 C9 0.2(5)
N2 C7 C8 C9 -179.5(3)
C7 C8 C9 C10 0.3(5)
C8 C9 C10 C11 -0.6(6)
C9 C10 C11 C12 0.4(6)
C8 C7 C12 C11 -0.4(5)
N2 C7 C12 C11 179.2(3)
C10 C11 C12 C7 0.2(6)
