#------------------------------------------------------------------------------
#$Date: 2017-03-02 19:20:33 +0200 (Thu, 02 Mar 2017) $
#$Revision: 192782 $
#$URL: file:///home/coder/svn-repositories/cod/cif/7/02/80/7028073.cif $
#------------------------------------------------------------------------------
#
# This file is available in the Crystallography Open Database (COD),
# http://www.crystallography.net/. The original data for this entry
# were provided the Crystal Eye server at
# http://wwmm.ch.cam.ac.uk/crystaleye/, created by Nick Day at the
# Peter Murray-Rust laboratory.
#
# The file may be used within the scientific community so long as
# proper attribution is given to the journal article from which the
# data were obtained.
#
data_7028073
loop_
_publ_author_name
'Svensson, Per H.'
'Bengtsson-Kloo, Lars'
'Persson, Per'
_publ_contact_author
;
Lars Bengtsson-Kloo

Chemical Center

University of Lund

P.O. 124

S - 22100 Lund

Sweden
;
_publ_section_title
;
 Metal iodides in polyiodide networks. The structural chemistry of CdI2
 with an excess of iodine&#x200A;*
;
_journal_issue                   9
_journal_name_full
'Journal of the Chemical Society, Dalton Transactions'
_journal_page_first              1425
_journal_paper_doi               10.1039/a708792f
_journal_year                    1998
_chemical_formula_sum            'C3 H9 Cd I3 S'
_chemical_formula_weight         570.29
_space_group_IT_number           14
_symmetry_cell_setting           monoclinic
_symmetry_Int_Tables_number      14
_symmetry_space_group_name_Hall  '-P 2ybc'
_symmetry_space_group_name_H-M   'P 1 21/c 1'
_audit_creation_date             'Thu Sep 18 16:34:46 1997'
_audit_creation_method           'from TEXRAY.INF file'
_cell_angle_alpha                90
_cell_angle_beta                 102.54(1)
_cell_angle_gamma                90
_cell_formula_units_Z            8
_cell_length_a                   8.393(1)
_cell_length_b                   16.714(2)
_cell_length_c                   17.537(2)
_cell_measurement_reflns_used    20
_cell_measurement_temperature    150
_cell_measurement_theta_max      20.1
_cell_measurement_theta_min      10.4
_cell_volume                     2401.4(5)
_computing_cell_refinement       'MSC/AFC Diffractometer Control'
_computing_data_collection       'MSC/AFC Diffractometer Control'
_computing_data_reduction        teXsan
_computing_publication_material  teXsan
_computing_structure_refinement  teXsan
_computing_structure_solution    SIR92
_diffrn_ambient_temperature      150
_diffrn_measurement_device       CAD4
_diffrn_measurement_method       '\w-2\q scans'
_diffrn_orient_matrix_UB_11      -0.02801
_diffrn_orient_matrix_UB_12      -0.05755
_diffrn_orient_matrix_UB_13      -0.01153
_diffrn_orient_matrix_UB_21      0.02619
_diffrn_orient_matrix_UB_22      0.00604
_diffrn_orient_matrix_UB_23      -0.05265
_diffrn_orient_matrix_UB_31      0.11588
_diffrn_orient_matrix_UB_32      -0.01527
_diffrn_orient_matrix_UB_33      0.02253
_diffrn_radiation_detector       scintillation
_diffrn_radiation_monochromator  graphite
_diffrn_radiation_source         'X-ray tube'
_diffrn_radiation_type           MoKalpha
_diffrn_radiation_wavelength     0.7107
_diffrn_reflns_av_R_equivalents  3.19
_diffrn_reflns_limit_h_max       9
_diffrn_reflns_limit_h_min       0
_diffrn_reflns_limit_k_max       0
_diffrn_reflns_limit_k_min       -19
_diffrn_reflns_limit_l_max       20
_diffrn_reflns_limit_l_min       -20
_diffrn_reflns_number            4682
_diffrn_reflns_theta_max         24.97
_diffrn_reflns_theta_min         2.07
_diffrn_standards_decay_%        -1.82
_diffrn_standards_interval_count '120 min'
_diffrn_standards_number         3
_exptl_absorpt_coefficient_mu    9.648
_exptl_absorpt_correction_T_max  1.000
_exptl_absorpt_correction_T_min  0.545
_exptl_absorpt_correction_type   empirical
_exptl_absorpt_process_details   psi-scan
_exptl_crystal_colour            Transparent
_exptl_crystal_density_diffrn    3.155
_exptl_crystal_density_meas      0.000
_exptl_crystal_description       Rectangular
_exptl_crystal_F_000             2000.00
_exptl_crystal_size_max          0.25
_exptl_crystal_size_mid          0.2
_exptl_crystal_size_min          0.09
_refine_diff_density_max         1.67
_refine_diff_density_min         -1.17
_refine_ls_extinction_coef       1.21055E-7
_refine_ls_extinction_method     Zachariasen_type_2_Gaussian_isotropic
_refine_ls_goodness_of_fit_obs   1.792
_refine_ls_hydrogen_treatment    'H-atoms not found'
_refine_ls_matrix_type           full
_refine_ls_number_parameters     146
_refine_ls_number_reflns         3325
_refine_ls_number_restraints     0
_refine_ls_R_factor_obs          0.0352
_refine_ls_shift/esd_max         0.0010
_refine_ls_structure_factor_coef F
_refine_ls_weighting_scheme      sigma
_refine_ls_wR_factor_obs         0.0426
_reflns_number_observed          3325
_reflns_number_total             4422
_reflns_observed_criterion       3.00
_cod_data_source_file            f708792sup1.cif
_cod_data_source_block           (4)
_cod_depositor_comments
;
The following automatic conversions were performed:
data name '_public_contact_author' replaced with
'_publ_contact_author' as specified in the replacement file
'/home/antanas/src/cod-tools/trunk/data/replacement-values/replacement_tags.lst'.

Automatic conversion script
Id: cif_correct_tags 4998 2017-03-02 13:24:31Z antanas 
;
_cod_original_sg_symbol_H-M      'P 21/c     '
_cod_original_formula_sum        'C3 H9 Cd I3 S '
_cod_database_code               7028073
loop_
_symmetry_equiv_pos_as_xyz
'   +x,   +y,   +z'
'   -x,1/2+y,1/2-z'
'   -x,   -y,   -z'
'   +x,1/2-y,1/2+z'
loop_
_atom_site_aniso_label
_atom_site_aniso_U_11
_atom_site_aniso_U_22
_atom_site_aniso_U_33
_atom_site_aniso_U_12
_atom_site_aniso_U_13
_atom_site_aniso_U_23
I(1) 0.0174(3) 0.0255(3) 0.0255(4) -0.0029(3) 0.0034(3) -0.0007(3)
I(2) 0.0257(4) 0.0280(4) 0.0280(4) 0.0034(3) 0.0003(3) 0.0025(3)
I(3) 0.0259(4) 0.0221(3) 0.0374(4) -0.0019(3) 0.0056(3) -0.0036(3)
I(4) 0.0185(4) 0.0438(4) 0.0271(4) 0.0059(3) 0.0048(3) -0.0001(3)
I(5) 0.0297(4) 0.0229(3) 0.0354(4) -0.0016(3) 0.0091(3) -0.0001(3)
I(6) 0.0262(4) 0.0251(4) 0.0350(4) 0.0006(3) 0.0039(3) -0.0038(3)
Cd(1) 0.0231(4) 0.0242(4) 0.0258(4) 0.0006(3) 0.0019(3) -0.0002(3)
Cd(2) 0.0237(4) 0.0243(4) 0.0293(4) 0.0004(3) 0.0041(3) 0.0004(3)
S(1) 0.052(2) 0.025(1) 0.027(2) -0.007(1) 0.010(1) -0.001(1)
S(2) 0.022(1) 0.026(1) 0.025(1) 0.003(1) 0.000(1) 0.001(1)
C(1) 0.055(8) 0.050(7) 0.018(6) 0.004(6) 0.008(6) 0.009(5)
C(2) 0.016(6) 0.033(6) 0.059(8) 0.001(5) 0.011(6) 0.004(6)
C(3) 0.023(7) 0.053(8) 0.066(9) 0.007(6) 0.001(6) 0.021(7)
C(4) 0.021(6) 0.033(6) 0.027(6) 0.009(5) -0.001(5) 0.002(5)
C(5) 0.035(7) 0.015(5) 0.062(9) 0.000(5) 0.012(6) -0.002(5)
C(6) 0.015(5) 0.037(6) 0.037(7) -0.001(5) 0.008(5) 0.005(5)
loop_
_atom_site_label
_atom_site_fract_x
_atom_site_fract_y
_atom_site_fract_z
_atom_site_U_iso_or_equiv
_atom_site_thermal_displace_type
I(1) 0.91050(8) 0.19797(4) 0.74393(4) 0 Uij
I(2) 1.27580(9) 0.20029(4) 0.97965(4) 0 Uij
I(3) 1.14884(9) 0.44269(4) 0.84541(4) 0 Uij
I(4) 1.40585(8) 0.25728(4) 0.74419(4) 0 Uij
I(5) 1.66919(9) 0.04031(4) 0.88507(4) 0 Uij
I(6) 1.78714(9) 0.31008(4) 0.96178(4) 0 Uij
Cd(1) 1.17414(10) 0.27901(4) 0.84336(5) 0 Uij
Cd(2) 1.68853(9) 0.19843(4) 0.84913(5) 0 Uij
S(1) 1.3457(4) 0.0275(2) 0.5785(2) 0 Uij
S(2) 1.1592(3) -0.0952(1) 0.8431(2) 0 Uij
C(1) 1.383(2) -0.0085(7) 0.6780(6) 0 Uij
C(2) 1.496(1) 0.1039(6) 0.5817(7) 0 Uij
C(3) 1.166(1) 0.0868(8) 0.5749(8) 0 Uij
C(4) 1.344(1) -0.1337(6) 0.9028(6) 0 Uij
C(5) 1.171(1) 0.0098(6) 0.8690(8) 0 Uij
C(6) 1.008(1) -0.1285(6) 0.8942(6) 0 Uij
loop_
_atom_type_symbol
_atom_type_oxidation_number
_atom_type_number_in_cell
_atom_type_scat_dispersion_real
_atom_type_scat_dispersion_imag
_atom_type_scat_source
Cd 0 8 -0.807 1.202 'International Tables'
I 0 24 -0.474 1.812 'International Tables'
C 0 24 0.003 0.002 'International Tables'
S 0 8 0.125 0.123 'International Tables'
H 0 72 0.000 0.000 'International Tables'
loop_
_diffrn_standard_refln_index_h
_diffrn_standard_refln_index_k
_diffrn_standard_refln_index_l
3 -5 -5
-2 -5 -4
-1 4 -7
loop_
_geom_angle_atom_site_label_1
_geom_angle_atom_site_label_2
_geom_angle_atom_site_label_3
_geom_angle
_geom_angle_publ_flag
Cd(1) I(1) Cd(2) 97.51(3) yes
Cd(1) I(4) Cd(2) 103.24(3) yes
I(1) Cd(1) I(2) 111.40(3) yes
I(1) Cd(1) I(3) 115.49(3) yes
I(1) Cd(1) I(4) 96.11(3) yes
I(2) Cd(1) I(3) 118.99(4) yes
I(2) Cd(1) I(4) 110.23(3) yes
I(3) Cd(1) I(4) 101.33(3) yes
I(1) Cd(2) I(4) 98.66(3) yes
I(1) Cd(2) I(5) 102.91(3) yes
I(1) Cd(2) I(6) 109.23(3) yes
I(4) Cd(2) I(5) 113.65(3) yes
I(4) Cd(2) I(6) 108.25(3) yes
I(5) Cd(2) I(6) 121.45(4) yes
C(1) S(1) C(2) 103.7(6) yes
C(1) S(1) C(3) 100.7(6) yes
C(2) S(1) C(3) 100.9(5) yes
C(4) S(2) C(5) 102.0(5) yes
C(4) S(2) C(6) 102.3(5) yes
C(5) S(2) C(6) 100.5(5) yes
S(1) C(1) C(2) 37.9(4) yes
S(1) C(1) C(3) 39.5(4) yes
C(2) C(1) C(3) 59.1(4) yes
S(1) C(2) C(1) 38.4(4) yes
S(1) C(2) C(3) 39.7(4) yes
C(1) C(2) C(3) 59.5(4) yes
S(1) C(3) C(1) 39.8(4) yes
S(1) C(3) C(2) 39.4(3) yes
C(1) C(3) C(2) 61.4(4) yes
S(2) C(4) C(5) 39.2(3) yes
S(2) C(4) C(6) 38.8(3) yes
C(5) C(4) C(6) 59.4(4) yes
S(2) C(5) C(4) 38.8(3) yes
S(2) C(5) C(6) 39.5(3) yes
C(4) C(5) C(6) 60.2(4) yes
S(2) C(6) C(4) 38.8(3) yes
S(2) C(6) C(5) 39.9(3) yes
C(4) C(6) C(5) 60.4(4) yes
loop_
_geom_bond_atom_site_label_1
_geom_bond_atom_site_label_2
_geom_bond_distance
_geom_bond_publ_flag
I(1) Cd(1) 2.845(1) yes
I(1) Cd(2) 2.892(1) yes
I(2) Cd(1) 2.699(1) yes
I(3) Cd(1) 2.745(1) yes
I(4) Cd(1) 2.899(1) yes
I(4) Cd(2) 2.844(1) yes
I(5) Cd(2) 2.730(1) yes
I(6) Cd(2) 2.713(1) yes
S(1) C(1) 1.81(1) yes
S(1) C(2) 1.79(1) yes
S(1) C(3) 1.80(1) yes
S(2) C(4) 1.79(1) yes
S(2) C(5) 1.81(1) yes
S(2) C(6) 1.79(1) yes
C(1) C(2) 2.83(2) yes
C(1) C(3) 2.77(2) yes
C(2) C(3) 2.76(2) yes
C(4) C(5) 2.80(1) yes
C(4) C(6) 2.79(1) yes
C(5) C(6) 2.77(1) yes
I(2) S(1) 4.858(3) yes
