#------------------------------------------------------------------------------
#$Date: 2016-03-25 17:03:15 +0200 (Fri, 25 Mar 2016) $
#$Revision: 180001 $
#$URL: svn://www.crystallography.net/cod/cif/7/02/95/7029593.cif $
#------------------------------------------------------------------------------
#
# This file is available in the Crystallography Open Database (COD),
# http://www.crystallography.net/
#
# All data on this site have been placed in the public domain by the
# contributors.
#
data_7029593
loop_
_publ_author_name
'Kociok-K\"ohn, Gabriele'
'Mahon, Mary F.'
'Molloy, Kieran C.'
'Price, Gareth J.'
'Prior, Timothy J.'
'Smith, Douglas R. G.'
_publ_section_title
;
 Biomimetic polyorganosiloxanes: model compounds for new materials.
;
_journal_issue                   21
_journal_name_full
'Dalton transactions (Cambridge, England : 2003)'
_journal_page_first              7734
_journal_page_last               7746
_journal_paper_doi               10.1039/c4dt00554f
_journal_volume                  43
_journal_year                    2014
_chemical_formula_moiety         'C4 H8 N6 Ni S4, 2(C5 H6 N2 O2)'
_chemical_formula_sum            'C14 H20 N10 Ni O4 S4'
_chemical_formula_weight         579.35
_chemical_name_systematic
;
 ?
;
_space_group_crystal_system      triclinic
_space_group_IT_number           2
_space_group_name_Hall           '-P 1'
_space_group_name_H-M_alt        'P -1'
_symmetry_space_group_name_Hall  '-P 1'
_symmetry_space_group_name_H-M   'P -1'
_atom_sites_solution_hydrogens   mixed
_audit_creation_method           SHELXL-2013
_cell_angle_alpha                104.418(3)
_cell_angle_beta                 98.826(3)
_cell_angle_gamma                95.465(3)
_cell_formula_units_Z            1
_cell_length_a                   7.5968(5)
_cell_length_b                   8.2841(5)
_cell_length_c                   9.0845(6)
_cell_measurement_reflns_used    14302
_cell_measurement_temperature    150(2)
_cell_measurement_theta_max      27.485
_cell_measurement_theta_min      2.910
_cell_volume                     541.80(6)
_computing_cell_refinement       'HKL Scalepack (Otwinowski & Minor, 1997)'
_computing_data_collection       'Collect (Nonius BV, 1997-2000)'
_computing_data_reduction
;
 DENZO-SCALEPACK Z. Otwinowski and W. Minor, " 
 Processing of X-ray Diffraction Data Collected in Oscillation Mode ", 
 Methods in Enzymology, Volume 276: Macromolecular Crystallography, 
 part A, p.307-326, 1997,C.W. Carter, Jr. & R. M. Sweet, Eds., Academic Press.
;
_computing_molecular_graphics
'ORTEP3 for Windows - Farrugia, L. J. J. Appl. Crystallogr. 1997, 30, 565'
_computing_publication_material
;
 'WinGX publication routines, Farrugia, 
 L. J., J. Appl. Crystallogr., 1999, 32, 837-838
;
_computing_structure_refinement
;
 SHELXL-2012 (Sheldrick, 2012)
 Sheldrick GM (2008) Acta Crystallogr A64:112--122 and 
 C. B. H\"ubschle, G. M. Sheldrick and B. Dittrich
 ShelXle: a Qt graphical user interface for SHELXL
 J. Appl. Cryst., 44, (2011) 1281-1284.
;
_computing_structure_solution
; 
 SIR97- Altomare A., Burla M.C., Camalli M., Cascarano G.L., Giacovazzo C. , 
 Guagliardi A., Moliterni A.G.G., Polidori G.,Spagna R. 
 (1999) J. Appl. Cryst. 32, 115-119
;
_diffrn_ambient_temperature      150(2)
_diffrn_measured_fraction_theta_full 0.968
_diffrn_measured_fraction_theta_max 0.971
_diffrn_measurement_device_type  'Nonius Kappa CCD'
_diffrn_measurement_method       '176 2.0 degree images with \w scans'
_diffrn_radiation_monochromator  graphite
_diffrn_radiation_source         'fine-focus sealed tube'
_diffrn_radiation_type           MoK\a
_diffrn_radiation_wavelength     0.71073
_diffrn_reflns_av_R_equivalents  0.0581
_diffrn_reflns_av_unetI/netI     0.0559
_diffrn_reflns_Laue_measured_fraction_full 0.968
_diffrn_reflns_Laue_measured_fraction_max 0.971
_diffrn_reflns_limit_h_max       9
_diffrn_reflns_limit_h_min       -9
_diffrn_reflns_limit_k_max       10
_diffrn_reflns_limit_k_min       -10
_diffrn_reflns_limit_l_max       11
_diffrn_reflns_limit_l_min       -11
_diffrn_reflns_number            7488
_diffrn_reflns_point_group_measured_fraction_full 0.968
_diffrn_reflns_point_group_measured_fraction_max 0.971
_diffrn_reflns_theta_full        25.242
_diffrn_reflns_theta_max         27.535
_diffrn_reflns_theta_min         7.434
_exptl_absorpt_coefficient_mu    1.328
_exptl_absorpt_correction_T_max  0.941
_exptl_absorpt_correction_T_min  0.791
_exptl_absorpt_correction_type   multi-scan
_exptl_absorpt_process_details
;
multi-scan from symmetry-related measurements 
 Sortav (Blessing 1995)
;
_exptl_crystal_colour            colourless
_exptl_crystal_density_diffrn    1.776
_exptl_crystal_description       block
_exptl_crystal_F_000             298
_exptl_crystal_size_max          0.300
_exptl_crystal_size_mid          0.300
_exptl_crystal_size_min          0.050
_refine_diff_density_max         0.495
_refine_diff_density_min         -0.755
_refine_diff_density_rms         0.091
_refine_ls_extinction_method     none
_refine_ls_goodness_of_fit_ref   1.093
_refine_ls_hydrogen_treatment    mixed
_refine_ls_matrix_type           full
_refine_ls_number_parameters     176
_refine_ls_number_reflns         2425
_refine_ls_number_restraints     0
_refine_ls_restrained_S_all      1.093
_refine_ls_R_factor_all          0.0594
_refine_ls_R_factor_gt           0.0450
_refine_ls_shift/su_max          0.000
_refine_ls_shift/su_mean         0.000
_refine_ls_structure_factor_coef Fsqd
_refine_ls_weighting_details
'w=1/[\s^2^(Fo^2^)+(0.0424P)^2^+0.7622P] where P=(Fo^2^+2Fc^2^)/3'
_refine_ls_weighting_scheme      calc
_refine_ls_wR_factor_gt          0.1099
_refine_ls_wR_factor_ref         0.1186
_reflns_Friedel_coverage         0.000
_reflns_number_gt                1994
_reflns_number_total             2425
_reflns_threshold_expression     'I > 2\s(I)'
_cod_data_source_file            c4dt00554f1.cif
_cod_data_source_block           Compound-9a-h06kcm16
_cod_depositor_comments
'Adding full bibliography for 7029587--7029593.cif.'
_cod_database_code               7029593
#BEGIN Tags that were not found in dictionaries:
_shelx_space_group_comment
;
The symmetry employed for this shelxl refinement is uniquely defined
by the following loop, which should always be used as a source of
symmetry information in preference to the above space-group names.
They are only intended as comments.
;
_shelx_estimated_absorpt_t_min   0.691
_shelx_estimated_absorpt_t_max   0.937
_shelxl_version_number           2013-3
_shelx_res_file
;
TITL h06kcm16
CELL  0.71073   7.5968   8.2841   9.0845  104.418   98.826   95.465
ZERR  1.00   0.0005   0.0005   0.0006    0.003    0.003    0.003
LATT   1
SFAC  C    H    N    O    S    NI
UNIT 14 20 10 4 4 1
LIST 6 ! automatically inserted. Change 6 to 4 for CHECKCIF!!
OMIT     1   1   3
OMIT    -3  -3   3
OMIT    -2  -2   6
ACTA
FMAP   2
PLAN  -10
TEMP -123
BOND $H
EQIV $1 -x+1, -y+2, -z+1
HTAB N1 S1_$1
HTAB N1 O1
EQIV $2 x, y-1, z
HTAB N3 O1_$2
HTAB N3 O2
HTAB N4 N2
EQIV $3 -x+2, -y+2, -z+3
HTAB N5 O2_$3
SIZE 0.3 0.3 0.05
L.S.   4
WGHT    0.042400    0.762200
FVAR       1.45216
NI    6    0.500000    0.500000    0.500000    10.50000    0.03072    0.01854 =
         0.02310    0.00711    0.00036    0.00202
S1    5    0.470636    0.764749    0.554073    11.00000    0.04470    0.01984 =
         0.02472    0.00667   -0.00346    0.00531
S2    5    0.515491    0.484874    0.734849    11.00000    0.03995    0.02064 =
         0.02397    0.00816    0.00214    0.00119
N1    3    0.575542    1.045980    0.761908    11.00000    0.05604    0.02105 =
         0.03100    0.00867   -0.00689    0.00348
H1A   2    0.554394    1.089409    0.676886    11.00000    0.03949
H1B   2    0.634063    1.120629    0.853769    11.00000    0.05325
C1    1    0.566774    0.880396    0.741577    11.00000    0.03349    0.02369 =
         0.02574    0.00674    0.00226    0.00385
N2    3    0.632815    0.831136    0.865424    11.00000    0.03731    0.01930 =
         0.02685    0.00700   -0.00021    0.00292
C2    1    0.618474    0.668877    0.870006    11.00000    0.03465    0.02152 =
         0.02611    0.00784    0.00457    0.00231
N3    3    0.691331    0.643833    1.003743    11.00000    0.05333    0.02226 =
         0.02367    0.00874   -0.00108    0.00442
H3A   2    0.698672    0.541692    1.005282    11.00000    0.03962
H3B   2    0.729737    0.726317    1.083977    11.00000    0.04168
O1    4    0.777702    1.291836    1.027634    11.00000    0.04505    0.02476 =
         0.02843    0.00974   -0.00238    0.00328
C3    1    0.859243    1.260534    1.143942    11.00000    0.03758    0.02275 =
         0.02612    0.00817    0.00121    0.00523
N4    3    0.834861    1.097108    1.160108    11.00000    0.04404    0.02141 =
         0.02814    0.00876   -0.00281    0.00186
H4    2    0.767022    1.024570    1.083523    11.00000    0.04047
C4    1    0.903711    1.048326    1.288520    11.00000    0.03889    0.02640 =
         0.03025    0.01051    0.00417    0.00584
O2    4    0.860735    0.904738    1.301013    11.00000    0.05335    0.02531 =
         0.03636    0.01314   -0.00465    0.00211
N5    3    1.021922    1.167579    1.399534    11.00000    0.04121    0.02686 =
         0.03014    0.01162   -0.00050    0.00602
H5    2    1.060893    1.135824    1.487152    11.00000    0.07323
C5    1    1.060378    1.328992    1.387891    11.00000    0.03243    0.02784 =
         0.02992    0.00808    0.00304    0.00385
AFIX  43
H5A   2    1.143529    1.407315    1.468832    11.00000   -1.20000
AFIX   0
C6    1    0.985036    1.380849    1.266403    11.00000    0.03239    0.02668 =
         0.02926    0.00824    0.00395    0.00514
C7    1    1.020763    1.557198    1.254703    11.00000    0.03945    0.03068 =
         0.03443    0.01262    0.00364    0.00520
AFIX 137
H7A   2    1.114715    1.621964    1.341267    11.00000   -1.50000
H7B   2    0.910305    1.609133    1.258210    11.00000   -1.50000
H7C   2    1.060717    1.556232    1.156952    11.00000   -1.50000
AFIX   0
HKLF    4

REM  h06kcm16
REM R1 =  0.0450 for    1994 Fo > 4sig(Fo)  and  0.0594 for all    2425 data
REM    176 parameters refined using      0 restraints

END

WGHT      0.0424      0.7622

REM Highest difference peak  0.495,  deepest hole -0.755,  1-sigma level  0.091
Q1    1   0.9308  1.2800  1.0867  11.00000  0.05    0.50
Q2    1   0.3507  0.5193  0.5490  11.00000  0.05    0.39
Q3    1   0.5028  0.3608  0.3142  11.00000  0.05    0.34
Q4    1   0.4813  0.6044  0.5903  11.00000  0.05    0.34
Q5    1   0.5137  0.8571  0.4410  11.00000  0.05    0.31
Q6    1   0.4003  0.3295  0.3695  11.00000  0.05    0.31
Q7    1   0.4431  0.5552  0.3705  11.00000  0.05    0.30
Q8    1   0.4125  0.2422  0.4931  11.00000  0.05    0.30
Q9    1   0.3223  0.4883  0.3804  11.00000  0.05    0.30
Q10   1   0.3554  0.3802  0.5233  11.00000  0.05    0.29
;
_shelx_res_checksum              26218
#END Tags that were not found in dictionaries
loop_
_space_group_symop_operation_xyz
'x, y, z'
'-x, -y, -z'
loop_
_atom_site_label
_atom_site_type_symbol
_atom_site_fract_x
_atom_site_fract_y
_atom_site_fract_z
_atom_site_U_iso_or_equiv
_atom_site_adp_type
_atom_site_occupancy
_atom_site_site_symmetry_order
_atom_site_calc_flag
_atom_site_refinement_flags_posn
_atom_site_refinement_flags_adp
_atom_site_refinement_flags_occupancy
Ni Ni 0.5000 0.5000 0.5000 0.02445(18) Uani 1 2 d S . P
S1 S 0.47064(12) 0.76475(10) 0.55407(9) 0.0307(2) Uani 1 1 d . . .
S2 S 0.51549(12) 0.48487(10) 0.73485(9) 0.0284(2) Uani 1 1 d . . .
N1 N 0.5755(5) 1.0460(4) 0.7619(4) 0.0375(7) Uani 1 1 d . . .
H1A H 0.554(6) 1.089(6) 0.677(5) 0.039(11) Uiso 1 1 d . . .
H1B H 0.634(7) 1.121(7) 0.854(7) 0.053(13) Uiso 1 1 d . . .
C1 C 0.5668(5) 0.8804(4) 0.7416(4) 0.0280(6) Uani 1 1 d . . .
N2 N 0.6328(4) 0.8311(3) 0.8654(3) 0.0284(6) Uani 1 1 d . . .
C2 C 0.6185(5) 0.6689(4) 0.8700(4) 0.0274(6) Uani 1 1 d . . .
N3 N 0.6913(5) 0.6438(4) 1.0037(3) 0.0336(7) Uani 1 1 d . . .
H3A H 0.699(6) 0.542(6) 1.005(5) 0.040(11) Uiso 1 1 d . . .
H3B H 0.730(6) 0.726(6) 1.084(6) 0.042(12) Uiso 1 1 d . . .
O1 O 0.7777(4) 1.2918(3) 1.0276(3) 0.0334(5) Uani 1 1 d . . .
C3 C 0.8592(5) 1.2605(4) 1.1439(4) 0.0290(7) Uani 1 1 d . . .
N4 N 0.8349(4) 1.0971(4) 1.1601(4) 0.0320(6) Uani 1 1 d . . .
H4 H 0.767(6) 1.025(6) 1.084(6) 0.040(12) Uiso 1 1 d . . .
C4 C 0.9037(5) 1.0483(4) 1.2885(4) 0.0315(7) Uani 1 1 d . . .
O2 O 0.8607(4) 0.9047(3) 1.3010(3) 0.0391(6) Uani 1 1 d . . .
N5 N 1.0219(4) 1.1676(4) 1.3995(4) 0.0327(6) Uani 1 1 d . . .
H5 H 1.061(9) 1.136(8) 1.487(8) 0.073(17) Uiso 1 1 d . . .
C5 C 1.0604(5) 1.3290(4) 1.3879(4) 0.0303(7) Uani 1 1 d . . .
H5A H 1.1435 1.4073 1.4688 0.036 Uiso 1 1 calc R U .
C6 C 0.9850(5) 1.3808(4) 1.2664(4) 0.0294(7) Uani 1 1 d . . .
C7 C 1.0208(5) 1.5572(4) 1.2547(4) 0.0345(7) Uani 1 1 d . . .
H7A H 1.1147 1.6220 1.3413 0.052 Uiso 1 1 calc R U .
H7B H 0.9103 1.6091 1.2582 0.052 Uiso 1 1 calc R U .
H7C H 1.0607 1.5562 1.1570 0.052 Uiso 1 1 calc R U .
loop_
_atom_site_aniso_label
_atom_site_aniso_U_11
_atom_site_aniso_U_22
_atom_site_aniso_U_33
_atom_site_aniso_U_23
_atom_site_aniso_U_13
_atom_site_aniso_U_12
Ni 0.0307(3) 0.0185(3) 0.0231(3) 0.0071(2) 0.0004(2) 0.0020(2)
S1 0.0447(5) 0.0198(4) 0.0247(4) 0.0067(3) -0.0035(3) 0.0053(3)
S2 0.0400(5) 0.0206(4) 0.0240(4) 0.0082(3) 0.0021(3) 0.0012(3)
N1 0.056(2) 0.0211(14) 0.0310(15) 0.0087(12) -0.0069(14) 0.0035(13)
C1 0.0335(17) 0.0237(15) 0.0257(15) 0.0067(12) 0.0023(13) 0.0038(12)
N2 0.0373(15) 0.0193(13) 0.0268(13) 0.0070(10) -0.0002(11) 0.0029(11)
C2 0.0347(17) 0.0215(14) 0.0261(15) 0.0078(12) 0.0046(13) 0.0023(12)
N3 0.0533(19) 0.0223(14) 0.0237(14) 0.0087(12) -0.0011(13) 0.0044(13)
O1 0.0451(14) 0.0248(11) 0.0284(12) 0.0097(9) -0.0024(10) 0.0033(10)
C3 0.0376(18) 0.0227(15) 0.0261(15) 0.0082(12) 0.0012(13) 0.0052(13)
N4 0.0440(17) 0.0214(13) 0.0281(14) 0.0088(12) -0.0028(13) 0.0019(12)
C4 0.0389(18) 0.0264(16) 0.0302(16) 0.0105(13) 0.0042(14) 0.0058(14)
O2 0.0534(16) 0.0253(12) 0.0364(13) 0.0131(10) -0.0047(11) 0.0021(11)
N5 0.0412(16) 0.0269(14) 0.0301(14) 0.0116(12) -0.0005(12) 0.0060(12)
C5 0.0324(17) 0.0278(16) 0.0299(16) 0.0081(13) 0.0030(13) 0.0038(13)
C6 0.0324(17) 0.0267(16) 0.0293(16) 0.0082(13) 0.0039(13) 0.0051(13)
C7 0.0394(19) 0.0307(17) 0.0344(18) 0.0126(14) 0.0036(14) 0.0052(14)
loop_
_atom_type_symbol
_atom_type_description
_atom_type_scat_dispersion_real
_atom_type_scat_dispersion_imag
_atom_type_scat_source
C C 0.0033 0.0016 'International Tables Vol C Tables 4.2.6.8 and 6.1.1.4'
H H 0.0000 0.0000 'International Tables Vol C Tables 4.2.6.8 and 6.1.1.4'
N N 0.0061 0.0033 'International Tables Vol C Tables 4.2.6.8 and 6.1.1.4'
O O 0.0106 0.0060 'International Tables Vol C Tables 4.2.6.8 and 6.1.1.4'
S S 0.1246 0.1234 'International Tables Vol C Tables 4.2.6.8 and 6.1.1.4'
Ni Ni 0.3393 1.1124 'International Tables Vol C Tables 4.2.6.8 and 6.1.1.4'
loop_
_geom_angle_atom_site_label_1
_geom_angle_atom_site_label_2
_geom_angle_atom_site_label_3
_geom_angle
_geom_angle_site_symmetry_1
_geom_angle_site_symmetry_3
S2 Ni S2 180.0 . 2_666
S2 Ni S1 85.50(3) . 2_666
S2 Ni S1 94.50(3) 2_666 2_666
S2 Ni S1 94.50(3) . .
S2 Ni S1 85.50(3) 2_666 .
S1 Ni S1 180.0 2_666 .
C1 S1 Ni 115.11(11) . .
C2 S2 Ni 113.13(11) . .
C1 N1 H1A 120(3) . .
C1 N1 H1B 121(3) . .
H1A N1 H1B 116(4) . .
N1 C1 N2 115.8(3) . .
N1 C1 S1 113.2(2) . .
N2 C1 S1 131.0(2) . .
C1 N2 C2 123.6(3) . .
N3 C2 N2 115.2(3) . .
N3 C2 S2 112.9(2) . .
N2 C2 S2 131.8(2) . .
C2 N3 H3A 117(3) . .
C2 N3 H3B 121(3) . .
H3A N3 H3B 122(4) . .
O1 C3 N4 119.4(3) . .
O1 C3 C6 124.9(3) . .
N4 C3 C6 115.7(3) . .
C4 N4 C3 125.4(3) . .
C4 N4 H4 119(3) . .
C3 N4 H4 115(3) . .
O2 C4 N5 122.8(3) . .
O2 C4 N4 121.7(3) . .
N5 C4 N4 115.5(3) . .
C4 N5 C5 122.1(3) . .
C4 N5 H5 115(4) . .
C5 N5 H5 123(4) . .
C6 C5 N5 122.8(3) . .
C6 C5 H5A 118.6 . .
N5 C5 H5A 118.6 . .
C5 C6 C3 118.1(3) . .
C5 C6 C7 123.4(3) . .
C3 C6 C7 118.5(3) . .
C6 C7 H7A 109.5 . .
C6 C7 H7B 109.5 . .
H7A C7 H7B 109.5 . .
C6 C7 H7C 109.5 . .
H7A C7 H7C 109.5 . .
H7B C7 H7C 109.5 . .
loop_
_geom_bond_atom_site_label_1
_geom_bond_atom_site_label_2
_geom_bond_distance
_geom_bond_site_symmetry_2
Ni S2 2.1541(8) .
Ni S2 2.1541(8) 2_666
Ni S1 2.1660(8) 2_666
Ni S1 2.1660(8) .
S1 C1 1.739(3) .
S2 C2 1.729(3) .
N1 C1 1.331(4) .
N1 H1A 0.93(5) .
N1 H1B 0.92(6) .
C1 N2 1.334(4) .
N2 C2 1.350(4) .
C2 N3 1.329(4) .
N3 H3A 0.86(5) .
N3 H3B 0.86(5) .
O1 C3 1.238(4) .
C3 N4 1.396(4) .
C3 C6 1.444(5) .
N4 C4 1.373(4) .
N4 H4 0.86(5) .
C4 O2 1.241(4) .
C4 N5 1.363(5) .
N5 C5 1.375(4) .
N5 H5 0.91(7) .
C5 C6 1.349(5) .
C5 H5A 0.9500 .
C6 C7 1.493(5) .
C7 H7A 0.9800 .
C7 H7B 0.9800 .
C7 H7C 0.9800 .
loop_
_geom_hbond_atom_site_label_D
_geom_hbond_atom_site_label_H
_geom_hbond_atom_site_label_A
_geom_hbond_distance_DH
_geom_hbond_distance_HA
_geom_hbond_distance_DA
_geom_hbond_angle_DHA
_geom_hbond_site_symmetry_A
N1 H1A S1 0.93(5) 2.66(5) 3.586(3) 174(4) 2_676
N1 H1B O1 0.92(6) 1.94(6) 2.855(4) 171(5) .
N3 H3A O1 0.86(5) 2.26(5) 3.101(4) 168(4) 1_545
N3 H3B O2 0.86(5) 2.17(5) 3.020(4) 169(4) .
N4 H4 N2 0.86(5) 2.24(5) 3.088(4) 170(4) .
N5 H5 O2 0.91(7) 2.04(7) 2.954(4) 172(6) 2_778
