#------------------------------------------------------------------------------
#$Date: 2023-12-22 17:07:40 +0200 (Fri, 22 Dec 2023) $
#$Revision: 288505 $
#$URL: file:///home/coder/svn-repositories/cod/cif/7/02/91/7029106.cif $
#------------------------------------------------------------------------------
#
# This file is available in the Crystallography Open Database (COD),
# http://www.crystallography.net/
#
# All data on this site have been placed in the public domain by the
# contributors.
#
data_7029106
loop_
_publ_author_name
'George, Kathryn'
'Jura, Marek'
'Levason, William'
'Light, Mark E.'
'Reid, Gillian'
_publ_section_title
;
 Thio-, seleno- and telluro-ether complexes of aluminium(iii) halides:
 synthesis, structures and properties.
;
_journal_issue                   9
_journal_name_full
'Dalton transactions (Cambridge, England : 2003)'
_journal_page_first              3637
_journal_page_last               3648
_journal_paper_doi               10.1039/c3dt52991f
_journal_volume                  43
_journal_year                    2014
_chemical_formula_moiety         'C2 H6 Al Cl3 Se'
_chemical_formula_sum            'C2 H6 Al Cl3 Se'
_chemical_formula_weight         242.36
_chemical_name_systematic
; 
 trichloro(dimethylselenide)aluminium 
;
_space_group_IT_number           57
_space_group_name_Hall           '-P 2c 2b'
_symmetry_cell_setting           orthorhombic
_symmetry_space_group_name_Hall  '-P 2c 2b'
_symmetry_space_group_name_H-M   'P b c m'
_atom_sites_solution_hydrogens   geom
_atom_sites_solution_primary     direct
_atom_sites_solution_secondary   difmap
_audit_creation_date             2013-05-18
_audit_creation_method           'SHELXL-97 + hand edit'
_cell_angle_alpha                90.00
_cell_angle_beta                 90.00
_cell_angle_gamma                90.00
_cell_formula_units_Z            4
_cell_length_a                   6.205(4)
_cell_length_b                   12.603(8)
_cell_length_c                   10.479(6)
_cell_measurement_reflns_used    2496
_cell_measurement_temperature    100(2)
_cell_measurement_theta_max      31.4
_cell_measurement_theta_min      3.2
_cell_volume                     819.5(9)
_computing_cell_refinement       'CrystalClear-SM Expert 2.0 r7 (Rigaku, 2011)'
_computing_data_collection       'CrystalClear-SM Expert 2.0 r7 (Rigaku, 2011)'
_computing_data_reduction        'CrystalClear-SM Expert 2.0 r7 (Rigaku, 2011)'
_computing_structure_refinement  'SHELXL-97 (Sheldrick, 2008)'
_computing_structure_solution    'SHELXS-97 (Sheldrick, 1997)'
_diffrn_ambient_temperature      100(2)
_diffrn_detector                 'CCD plate'
_diffrn_detector_type            'Rigaku HG Saturn724+ (2x2 bin mode)'
_diffrn_measured_fraction_theta_full 0.992
_diffrn_measured_fraction_theta_max 0.992
_diffrn_measurement_device       'Four-circle \k diffractometer'
_diffrn_measurement_device_type  'Rigaku AFC12 '
_diffrn_measurement_method       'Profile data from \w-scans'
_diffrn_radiation_collimation    'Confocal mirrors, HF VariMax '
_diffrn_radiation_type           MoK\a
_diffrn_radiation_wavelength     0.71073
_diffrn_reflns_av_R_equivalents  0.1015
_diffrn_reflns_av_sigmaI/netI    0.0576
_diffrn_reflns_limit_h_max       8
_diffrn_reflns_limit_h_min       -7
_diffrn_reflns_limit_k_max       13
_diffrn_reflns_limit_k_min       -16
_diffrn_reflns_limit_l_max       13
_diffrn_reflns_limit_l_min       -12
_diffrn_reflns_number            4140
_diffrn_reflns_theta_full        27.49
_diffrn_reflns_theta_max         27.49
_diffrn_reflns_theta_min         3.23
_diffrn_source                   'Rotating anode X-ray tube'
_diffrn_source_type              'Rigaku FR-E+ SuperBright'
_diffrn_standards_number         0
_exptl_absorpt_coefficient_mu    5.564
_exptl_absorpt_correction_T_max  1.000
_exptl_absorpt_correction_T_min  0.739
_exptl_absorpt_correction_type   multi-scan
_exptl_absorpt_process_details
;
 Jacobson, R.A. (1998). REQAB. Private communication to the 
 Rigaku Corporation, Tokyo, Japan.
;
_exptl_crystal_colour            colourless
_exptl_crystal_density_diffrn    1.964
_exptl_crystal_density_method    'not measured'
_exptl_crystal_description       block
_exptl_crystal_F_000             464
_exptl_crystal_size_max          0.14
_exptl_crystal_size_mid          0.12
_exptl_crystal_size_min          0.05
_refine_diff_density_max         0.637
_refine_diff_density_min         -0.885
_refine_diff_density_rms         0.144
_refine_ls_extinction_method     none
_refine_ls_goodness_of_fit_ref   1.128
_refine_ls_hydrogen_treatment    constr
_refine_ls_matrix_type           full
_refine_ls_number_parameters     38
_refine_ls_number_reflns         984
_refine_ls_number_restraints     0
_refine_ls_restrained_S_all      1.128
_refine_ls_R_factor_all          0.0426
_refine_ls_R_factor_gt           0.0387
_refine_ls_shift/su_max          0.001
_refine_ls_shift/su_mean         0.000
_refine_ls_structure_factor_coef Fsqd
_refine_ls_weighting_details
'w=1/[\s^2^(Fo^2^)+(0.0405P)^2^+0.0977P] where P=(Fo^2^+2Fc^2^)/3'
_refine_ls_weighting_scheme      calc
_refine_ls_wR_factor_gt          0.0927
_refine_ls_wR_factor_ref         0.0956
_reflns_number_gt                914
_reflns_number_total             984
_reflns_threshold_expression     'I > 2\s(I)'
_iucr_refine_instructions_details
;
 Add final .res file here for Acta Cryst publications or if required.
;
_cod_data_source_file            c3dt52991f.txt
_cod_data_source_block           13kg01ka
_cod_depositor_comments
;
The following automatic conversions were performed:

data name '_iucr_refine_instruction_details' was replaced with
'_iucr_refine_instructions_details' as specified in the replacement
file 'data/replacement-values/replacement_tags.lst'.

Automatic conversion script
Id: cif_correct_tags 9268 2022-04-12 08:56:07Z antanas 
;
_cod_original_cell_volume        819.6(8)
_cod_database_code               7029106
loop_
_symmetry_equiv_pos_as_xyz
'x, y, z'
'-x, -y, z+1/2'
'-x, y+1/2, -z+1/2'
'x, -y+1/2, -z'
'-x, -y, -z'
'x, y, -z-1/2'
'x, -y-1/2, z-1/2'
'-x, y-1/2, z'
loop_
_atom_site_label
_atom_site_type_symbol
_atom_site_fract_x
_atom_site_fract_y
_atom_site_fract_z
_atom_site_U_iso_or_equiv
_atom_site_adp_type
_atom_site_occupancy
_atom_site_symmetry_multiplicity
_atom_site_calc_flag
_atom_site_refinement_flags
Se1 Se 0.36460(8) 0.86829(4) 0.7500 0.01973(19) Uani 1 2 d S
Cl1 Cl 0.78567(17) 1.07244(9) 0.7500 0.0217(3) Uani 1 2 d S
Cl2 Cl 0.31244(16) 1.12338(7) 0.57966(8) 0.0262(2) Uani 1 1 d .
Al1 Al 0.4446(2) 1.06161(11) 0.7500 0.0171(3) Uani 1 2 d S
C1 C 0.1561(6) 0.8588(3) 0.8887(3) 0.0255(8) Uani 1 1 d .
H1A H 0.0504 0.9162 0.8805 0.038 Uiso 1 1 calc R
H1B H 0.2311 0.8653 0.9706 0.038 Uiso 1 1 calc R
H1C H 0.0821 0.7902 0.8847 0.038 Uiso 1 1 calc R
loop_
_atom_site_aniso_label
_atom_site_aniso_U_11
_atom_site_aniso_U_22
_atom_site_aniso_U_33
_atom_site_aniso_U_23
_atom_site_aniso_U_13
_atom_site_aniso_U_12
Se1 0.0221(3) 0.0142(3) 0.0229(3) 0.000 0.000 0.00016(17)
Cl1 0.0183(6) 0.0218(6) 0.0252(6) 0.000 0.000 -0.0005(4)
Cl2 0.0279(5) 0.0250(5) 0.0258(5) 0.0083(3) -0.0063(4) -0.0010(3)
Al1 0.0193(7) 0.0157(7) 0.0163(7) 0.000 0.000 0.0007(5)
C1 0.037(2) 0.0238(19) 0.0157(18) 0.0032(13) 0.0033(15) -0.0067(14)
loop_
_atom_type_symbol
_atom_type_description
_atom_type_scat_dispersion_real
_atom_type_scat_dispersion_imag
_atom_type_scat_source
C C 0.0033 0.0016 'International Tables Vol C Tables 4.2.6.8 and 6.1.1.4'
H H 0.0000 0.0000 'International Tables Vol C Tables 4.2.6.8 and 6.1.1.4'
Al Al 0.0645 0.0514 'International Tables Vol C Tables 4.2.6.8 and 6.1.1.4'
Cl Cl 0.1484 0.1585 'International Tables Vol C Tables 4.2.6.8 and 6.1.1.4'
Se Se -0.0929 2.2259 'International Tables Vol C Tables 4.2.6.8 and 6.1.1.4'
loop_
_geom_angle_atom_site_label_1
_geom_angle_atom_site_label_2
_geom_angle_atom_site_label_3
_geom_angle
_geom_angle_site_symmetry_1
C1 Se1 C1 96.4(2) 6_557
C1 Se1 Al1 101.10(11) 6_557
C1 Se1 Al1 101.10(11) .
Cl2 Al1 Cl2 115.30(9) 6_557
Cl2 Al1 Cl1 111.32(5) 6_557
Cl2 Al1 Cl1 111.32(5) .
Cl2 Al1 Se1 106.47(5) 6_557
Cl2 Al1 Se1 106.47(5) .
Cl1 Al1 Se1 105.20(6) .
Se1 C1 H1A 109.5 .
Se1 C1 H1B 109.5 .
H1A C1 H1B 109.5 .
Se1 C1 H1C 109.5 .
H1A C1 H1C 109.5 .
H1B C1 H1C 109.5 .
loop_
_geom_bond_atom_site_label_1
_geom_bond_atom_site_label_2
_geom_bond_distance
_geom_bond_site_symmetry_2
Se1 C1 1.950(4) 6_557
Se1 C1 1.950(4) .
Se1 Al1 2.486(2) .
Cl1 Al1 2.121(2) .
Cl2 Al1 2.1130(14) .
Al1 Cl2 2.1130(14) 6_557
C1 H1A 0.9800 .
C1 H1B 0.9800 .
C1 H1C 0.9800 .
