#------------------------------------------------------------------------------
#$Date: 2016-03-25 22:21:48 +0200 (Fri, 25 Mar 2016) $
#$Revision: 180009 $
#$URL: svn://www.crystallography.net/cod/cif/7/03/03/7030359.cif $
#------------------------------------------------------------------------------
#
# This file is available in the Crystallography Open Database (COD),
# http://www.crystallography.net/
#
# All data on this site have been placed in the public domain by the
# contributors.
#
data_7030359
loop_
_publ_author_name
'Kanat, Zeliha'
'Din\,cer, Hatice'
_publ_section_title
;
 The synthesis and characterization of nonperipherally tetra terminal
 alkynyl substituted phthalocyanines and glycoconjugation via the click
 reaction.
;
_journal_issue                   23
_journal_name_full
'Dalton transactions (Cambridge, England : 2003)'
_journal_page_first              8654
_journal_page_last               8663
_journal_paper_doi               10.1039/c4dt00238e
_journal_volume                  43
_journal_year                    2014
_chemical_formula_sum            'C13 H10 N2 O'
_chemical_formula_weight         210.23
_chemical_name_systematic
;
 ?
;
_space_group_crystal_system      triclinic
_space_group_IT_number           2
_space_group_name_Hall           '-P 1'
_space_group_name_H-M_alt        'P -1'
_symmetry_space_group_name_Hall  '-P 1'
_symmetry_space_group_name_H-M   'P -1'
_atom_sites_solution_hydrogens   geom
_audit_creation_method           SHELXL-2013
_cell_angle_alpha                77.679(4)
_cell_angle_beta                 84.616(5)
_cell_angle_gamma                74.348(4)
_cell_formula_units_Z            2
_cell_length_a                   4.4256(6)
_cell_length_b                   7.6883(10)
_cell_length_c                   17.242(2)
_cell_measurement_temperature    100(2)
_cell_volume                     551.49(12)
_computing_structure_refinement  'SHELXL-2013 (Sheldrick, 2013)'
_diffrn_ambient_temperature      100(2)
_diffrn_measured_fraction_theta_full 0.993
_diffrn_measured_fraction_theta_max 0.993
_diffrn_radiation_type           MoK\a
_diffrn_radiation_wavelength     0.71073
_diffrn_reflns_av_R_equivalents  0.0604
_diffrn_reflns_av_unetI/netI     0.0374
_diffrn_reflns_Laue_measured_fraction_full 0.993
_diffrn_reflns_Laue_measured_fraction_max 0.993
_diffrn_reflns_limit_h_max       5
_diffrn_reflns_limit_h_min       -5
_diffrn_reflns_limit_k_max       10
_diffrn_reflns_limit_k_min       -10
_diffrn_reflns_limit_l_max       22
_diffrn_reflns_limit_l_min       -22
_diffrn_reflns_number            19276
_diffrn_reflns_point_group_measured_fraction_full 0.993
_diffrn_reflns_point_group_measured_fraction_max 0.993
_diffrn_reflns_theta_full        25.242
_diffrn_reflns_theta_max         28.364
_diffrn_reflns_theta_min         2.420
_exptl_absorpt_coefficient_mu    0.082
_exptl_crystal_density_diffrn    1.266
_exptl_crystal_F_000             220
_refine_diff_density_max         0.405
_refine_diff_density_min         -0.330
_refine_diff_density_rms         0.079
_refine_ls_extinction_method     none
_refine_ls_goodness_of_fit_ref   1.086
_refine_ls_hydrogen_treatment    constr
_refine_ls_matrix_type           full
_refine_ls_number_parameters     145
_refine_ls_number_reflns         2739
_refine_ls_number_restraints     0
_refine_ls_restrained_S_all      1.086
_refine_ls_R_factor_all          0.0854
_refine_ls_R_factor_gt           0.0702
_refine_ls_shift/su_max          0.000
_refine_ls_shift/su_mean         0.000
_refine_ls_structure_factor_coef Fsqd
_refine_ls_weighting_details
'w=1/[\s^2^(Fo^2^)+(0.0657P)^2^+0.9035P] where P=(Fo^2^+2Fc^2^)/3'
_refine_ls_weighting_scheme      calc
_refine_ls_wR_factor_gt          0.1792
_refine_ls_wR_factor_ref         0.1878
_reflns_Friedel_coverage         0.000
_reflns_number_gt                2266
_reflns_number_total             2739
_reflns_threshold_expression     'I > 2\s(I)'
_cod_data_source_file            c4dt00238e1.cif
_cod_data_source_block           H2
_cod_depositor_comments          'Adding full bibliography for 7030359.cif.'
_cod_original_cell_volume        551.49(13)
_cod_database_code               7030359
#BEGIN Tags that were not found in dictionaries:
_shelx_space_group_comment
;
The symmetry employed for this shelxl refinement is uniquely defined
by the following loop, which should always be used as a source of
symmetry information in preference to the above space-group names.
They are only intended as comments.
;
_shelxl_version_number           2013-3
_shelx_res_file
;
TITL H2 in P-1
CELL 0.71073 4.4256 7.6883 17.2421 77.679 84.616 74.348
ZERR 2.00 0.0006 0.0010 0.0023 0.004 0.005 0.004
LATT 1
SFAC C  H  N  O
UNIT 26  20  4  2
L.S. 20
ACTA
BOND $H
FMAP 2
PLAN 50
HTAB C10 N1_$2
HTAB C5 N1_$1
HTAB C10 N1_$2
EQIV $2 x-1, y+1, z
HTAB C5 N1_$1
EQIV $1 x, y+1, z
CONF
HTAB
TEMP -173.150
WGHT    0.065700    0.903500
FVAR       0.35934
O1    4    1.003657    0.262801    0.283406    11.00000    0.02809    0.01341 =
         0.02080   -0.00664   -0.00426   -0.00344
N1    3    1.279140   -0.177082    0.251153    11.00000    0.03420    0.01648 =
         0.02630   -0.00853   -0.00764   -0.00002
N2    3    0.811599   -0.170536    0.064229    11.00000    0.04212    0.01937 =
         0.02176   -0.00519   -0.00669   -0.00762
C1    1    1.360579    0.167781    0.586027    11.00000    0.03426    0.04075 =
         0.02689   -0.01065   -0.00508   -0.00744
AFIX 163
H1    2    1.480490    0.137613    0.632171    11.00000   -1.20000
AFIX   0
C2    1    1.211163    0.205371    0.528528    11.00000    0.02690    0.03110 =
         0.02277   -0.00996    0.00182   -0.00943
C3    1    1.028264    0.256332    0.456520    11.00000    0.02409    0.03210 =
         0.02168   -0.00597   -0.00157   -0.01092
AFIX  23
H10   2    0.814854    0.330717    0.468006    11.00000   -1.20000
H3    2    1.007124    0.143084    0.441407    11.00000   -1.20000
AFIX   0
C4    1    1.181409    0.366219    0.386941    11.00000    0.02179    0.02298 =
         0.02354   -0.00985    0.00082   -0.00859
AFIX  23
H4    2    1.212090    0.476288    0.402989    11.00000   -1.20000
H9    2    1.390716    0.289515    0.373793    11.00000   -1.20000
AFIX   0
C5    1    0.986122    0.426695    0.313934    11.00000    0.02486    0.01486 =
         0.02228   -0.00868    0.00162   -0.00710
AFIX  23
H7    2    0.765567    0.485659    0.327916    11.00000   -1.20000
H8    2    1.069709    0.516309    0.273590    11.00000   -1.20000
AFIX   0
C6    1    0.838970    0.280510    0.218947    11.00000    0.02088    0.01425 =
         0.01898   -0.00368    0.00148   -0.00560
C7    1    0.881979    0.120494    0.188482    11.00000    0.02004    0.01617 =
         0.01643   -0.00401    0.00133   -0.00502
C8    1    0.717956    0.125062    0.121703    11.00000    0.02451    0.01654 =
         0.01616   -0.00598    0.00217   -0.00823
C9    1    0.512856    0.286459    0.085942    11.00000    0.02618    0.02153 =
         0.01587   -0.00241   -0.00194   -0.00618
AFIX  43
H2    2    0.399329    0.289227    0.041396    11.00000   -1.20000
AFIX   0
C10   1    0.637585    0.444656    0.181261    11.00000    0.02581    0.01372 =
         0.02093   -0.00503    0.00217   -0.00275
AFIX  43
H6    2    0.612030    0.555419    0.200090    11.00000   -1.20000
AFIX   0
C11   1    0.476433    0.444262    0.116516    11.00000    0.02666    0.01383 =
         0.02092   -0.00149   -0.00071   -0.00007
AFIX  43
H5    2    0.336204    0.555497    0.092124    11.00000   -1.20000
AFIX   0
C12   1    1.100500   -0.045034    0.224206    11.00000    0.02509    0.01555 =
         0.01907   -0.00830   -0.00041   -0.00603
C13   1    0.768692   -0.039787    0.089840    11.00000    0.02631    0.01860 =
         0.01731   -0.00281   -0.00348   -0.00679
HKLF 4 1 1 0 0 0 1 0 0 0 1

REM  H2 in P-1
REM R1 =  0.0702 for    2266 Fo > 4sig(Fo)  and  0.0854 for all    2739 data
REM    145 parameters refined using      0 restraints

END

WGHT      0.0745      0.7223

REM Instructions for potential hydrogen bonds
HTAB C5 N1_$1
HTAB C10 N1_$2

REM Highest difference peak  0.405,  deepest hole -0.330,  1-sigma level  0.079
Q1    1   0.3744  0.1245  0.1876  11.00000  0.05    0.41
Q2    1   1.3197  0.2756  0.2173  11.00000  0.05    0.37
Q3    1   1.0469 -0.1939  0.2604  11.00000  0.05    0.37
Q4    1   0.2597  0.4142  0.1877  11.00000  0.05    0.36
Q5    1   0.4888  0.1350  0.1243  11.00000  0.05    0.35
Q6    1   0.7473  0.2621  0.0862  11.00000  0.05    0.34
Q7    1   1.4298  0.2029  0.5303  11.00000  0.05    0.32
Q8    1   1.3139 -0.0461  0.2255  11.00000  0.05    0.30
Q9    1   0.7960  0.2461  0.2843  11.00000  0.05    0.29
Q10   1   1.2384  0.2604  0.2785  11.00000  0.05    0.29
Q11   1   0.8494  0.5005  0.1116  11.00000  0.05    0.28
Q12   1   0.8270  0.2850  0.0308  11.00000  0.05    0.28
Q13   1   1.5639  0.3764  0.3813  11.00000  0.05    0.27
Q14   1   1.0674  0.4034  0.3527  11.00000  0.05    0.27
Q15   1   0.7738  0.1131  0.1620  11.00000  0.05    0.27
Q16   1   0.6797  0.4568  0.1242  11.00000  0.05    0.26
Q17   1   1.1493  0.1403  0.5919  11.00000  0.05    0.26
Q18   1   0.4400 -0.0067  0.1565  11.00000  0.05    0.26
Q19   1   1.0680  0.2840  0.2319  11.00000  0.05    0.25
Q20   1   0.5855 -0.1812  0.0663  11.00000  0.05    0.25
Q21   1   1.0026 -0.1391  0.0688  11.00000  0.05    0.23
Q22   1   1.5005 -0.1875  0.1926  11.00000  0.05    0.23
Q23   1   1.0426  0.0238  0.6466  11.00000  0.05    0.23
Q24   1   1.5809  0.1976  0.5793  11.00000  0.05    0.23
Q25   1   1.5166 -0.1592  0.2306  11.00000  0.05    0.22
Q26   1   0.7423  0.4284  0.3170  11.00000  0.05    0.22
Q27   1   0.8384  0.1723  0.4478  11.00000  0.05    0.22
Q28   1   0.8193  0.2438  0.4535  11.00000  0.05    0.22
Q29   1   1.1020 -0.1553 -0.0007  11.00000  0.05    0.22
Q30   1   0.6677  0.1307  0.4636  11.00000  0.05    0.21
Q31   1   0.6676  0.3376  0.2115  11.00000  0.05    0.21
Q32   1   1.0442 -0.0204  0.0297  11.00000  0.05    0.21
Q33   1   0.5312 -0.0360  0.0969  11.00000  0.05    0.21
Q34   1   1.1282  0.5786  0.2263  11.00000  0.05    0.20
Q35   1   0.3822  0.7750  0.1009  11.00000  0.05    0.20
Q36   1   0.4601  0.1850  0.2305  11.00000  0.05    0.20
Q37   1   0.6172  0.2235  0.2831  11.00000  0.05    0.20
Q38   1   0.7879  0.3837  0.3822  11.00000  0.05    0.20
Q39   1   0.7386  0.0464  0.1052  11.00000  0.05    0.20
Q40   1   1.1871  0.2009  0.3211  11.00000  0.05    0.19
Q41   1   1.2344  0.1228  0.2399  11.00000  0.05    0.19
Q42   1   1.1267  0.4937  0.3035  11.00000  0.05    0.19
Q43   1   1.7868  0.1709  0.5715  11.00000  0.05    0.19
Q44   1   1.2255  0.4306  0.3193  11.00000  0.05    0.19
Q45   1   0.5314  0.4323  0.4371  11.00000  0.05    0.18
Q46   1   0.6391  0.3088  0.4322  11.00000  0.05    0.18
Q47   1   1.3634 -0.2209  0.2920  11.00000  0.05    0.18
Q48   1   0.5428  0.3794  0.0945  11.00000  0.05    0.18
Q49   1   0.9952  0.7042  0.2494  11.00000  0.05    0.17
Q50   1   1.4176  0.4511  0.3366  11.00000  0.05    0.17
;
_shelx_res_checksum              4384
#END Tags that were not found in dictionaries
loop_
_space_group_symop_operation_xyz
'x, y, z'
'-x, -y, -z'
loop_
_atom_site_label
_atom_site_type_symbol
_atom_site_fract_x
_atom_site_fract_y
_atom_site_fract_z
_atom_site_U_iso_or_equiv
_atom_site_adp_type
_atom_site_occupancy
_atom_site_site_symmetry_order
_atom_site_calc_flag
_atom_site_refinement_flags_posn
_atom_site_refinement_flags_adp
O1 O 1.0037(4) 0.2628(2) 0.28341(9) 0.0204(4) Uani 1 1 d . .
N1 N 1.2791(5) -0.1771(3) 0.25115(12) 0.0258(5) Uani 1 1 d . .
N2 N 0.8116(5) -0.1705(3) 0.06423(12) 0.0273(5) Uani 1 1 d . .
C1 C 1.3606(7) 0.1678(4) 0.58603(16) 0.0335(6) Uani 1 1 d . .
H1 H 1.4805 0.1376 0.6322 0.040 Uiso 1 1 calc R U
C2 C 1.2112(6) 0.2054(3) 0.52853(14) 0.0260(5) Uani 1 1 d . .
C3 C 1.0283(6) 0.2563(4) 0.45652(14) 0.0251(5) Uani 1 1 d . .
H10 H 0.8149 0.3307 0.4680 0.030 Uiso 1 1 calc R U
H3 H 1.0071 0.1431 0.4414 0.030 Uiso 1 1 calc R U
C4 C 1.1814(5) 0.3662(3) 0.38694(13) 0.0215(5) Uani 1 1 d . .
H4 H 1.2121 0.4763 0.4030 0.026 Uiso 1 1 calc R U
H9 H 1.3907 0.2895 0.3738 0.026 Uiso 1 1 calc R U
C5 C 0.9861(5) 0.4267(3) 0.31393(13) 0.0197(5) Uani 1 1 d . .
H7 H 0.7656 0.4857 0.3279 0.024 Uiso 1 1 calc R U
H8 H 1.0697 0.5163 0.2736 0.024 Uiso 1 1 calc R U
C6 C 0.8390(5) 0.2805(3) 0.21895(13) 0.0179(4) Uani 1 1 d . .
C7 C 0.8820(5) 0.1205(3) 0.18848(12) 0.0175(4) Uani 1 1 d . .
C8 C 0.7180(5) 0.1251(3) 0.12170(12) 0.0183(4) Uani 1 1 d . .
C9 C 0.5129(6) 0.2865(3) 0.08594(13) 0.0213(5) Uani 1 1 d . .
H2 H 0.3993 0.2892 0.0414 0.026 Uiso 1 1 calc R U
C10 C 0.6376(5) 0.4447(3) 0.18126(13) 0.0206(5) Uani 1 1 d . .
H6 H 0.6120 0.5554 0.2001 0.025 Uiso 1 1 calc R U
C11 C 0.4764(6) 0.4443(3) 0.11652(13) 0.0218(5) Uani 1 1 d . .
H5 H 0.3362 0.5555 0.0921 0.026 Uiso 1 1 calc R U
C12 C 1.1005(5) -0.0450(3) 0.22421(13) 0.0190(5) Uani 1 1 d . .
C13 C 0.7687(5) -0.0398(3) 0.08984(13) 0.0205(5) Uani 1 1 d . .
loop_
_atom_site_aniso_label
_atom_site_aniso_U_11
_atom_site_aniso_U_22
_atom_site_aniso_U_33
_atom_site_aniso_U_23
_atom_site_aniso_U_13
_atom_site_aniso_U_12
O1 0.0281(9) 0.0134(7) 0.0208(8) -0.0066(6) -0.0043(6) -0.0034(6)
N1 0.0342(11) 0.0165(9) 0.0263(10) -0.0085(8) -0.0076(8) 0.0000(8)
N2 0.0421(13) 0.0194(9) 0.0218(10) -0.0052(8) -0.0067(9) -0.0076(9)
C1 0.0343(14) 0.0408(15) 0.0269(13) -0.0107(11) -0.0051(11) -0.0074(12)
C2 0.0269(12) 0.0311(12) 0.0228(12) -0.0100(9) 0.0018(9) -0.0094(10)
C3 0.0241(12) 0.0321(12) 0.0217(11) -0.0060(9) -0.0016(9) -0.0109(10)
C4 0.0218(11) 0.0230(11) 0.0235(11) -0.0099(9) 0.0008(8) -0.0086(9)
C5 0.0249(11) 0.0149(9) 0.0223(11) -0.0087(8) 0.0016(8) -0.0071(8)
C6 0.0209(11) 0.0143(9) 0.0190(10) -0.0037(8) 0.0015(8) -0.0056(8)
C7 0.0200(10) 0.0162(9) 0.0164(10) -0.0040(8) 0.0013(8) -0.0050(8)
C8 0.0245(11) 0.0165(10) 0.0162(10) -0.0060(8) 0.0022(8) -0.0082(8)
C9 0.0262(12) 0.0215(11) 0.0159(10) -0.0024(8) -0.0019(8) -0.0062(9)
C10 0.0258(11) 0.0137(9) 0.0209(11) -0.0050(8) 0.0022(9) -0.0028(8)
C11 0.0267(12) 0.0138(9) 0.0209(11) -0.0015(8) -0.0007(9) -0.0001(8)
C12 0.0251(11) 0.0156(10) 0.0191(10) -0.0083(8) -0.0004(8) -0.0060(8)
C13 0.0263(12) 0.0186(10) 0.0173(10) -0.0028(8) -0.0035(8) -0.0068(9)
loop_
_atom_type_symbol
_atom_type_description
_atom_type_scat_dispersion_real
_atom_type_scat_dispersion_imag
_atom_type_scat_source
C C 0.0033 0.0016 'International Tables Vol C Tables 4.2.6.8 and 6.1.1.4'
H H 0.0000 0.0000 'International Tables Vol C Tables 4.2.6.8 and 6.1.1.4'
N N 0.0061 0.0033 'International Tables Vol C Tables 4.2.6.8 and 6.1.1.4'
O O 0.0106 0.0060 'International Tables Vol C Tables 4.2.6.8 and 6.1.1.4'
loop_
_geom_angle_atom_site_label_1
_geom_angle_atom_site_label_2
_geom_angle_atom_site_label_3
_geom_angle
C6 O1 C5 118.10(16)
C2 C1 H1 180.0
C1 C2 C3 178.6(3)
C2 C3 C4 112.2(2)
C2 C3 H10 109.2
C4 C3 H10 109.2
C2 C3 H3 109.2
C4 C3 H3 109.2
H10 C3 H3 107.9
C5 C4 C3 112.29(19)
C5 C4 H4 109.1
C3 C4 H4 109.1
C5 C4 H9 109.1
C3 C4 H9 109.1
H4 C4 H9 107.9
O1 C5 C4 106.82(17)
O1 C5 H7 110.4
C4 C5 H7 110.4
O1 C5 H8 110.4
C4 C5 H8 110.4
H7 C5 H8 108.6
O1 C6 C10 124.95(19)
O1 C6 C7 115.73(18)
C10 C6 C7 119.3(2)
C6 C7 C8 119.86(19)
C6 C7 C12 119.45(19)
C8 C7 C12 120.66(19)
C9 C8 C7 120.61(19)
C9 C8 C13 120.0(2)
C7 C8 C13 119.40(19)
C11 C9 C8 118.6(2)
C11 C9 H2 120.7
C8 C9 H2 120.7
C11 C10 C6 119.5(2)
C11 C10 H6 120.3
C6 C10 H6 120.3
C10 C11 C9 122.1(2)
C10 C11 H5 119.0
C9 C11 H5 119.0
N1 C12 C7 178.4(3)
N2 C13 C8 179.4(3)
loop_
_geom_bond_atom_site_label_1
_geom_bond_atom_site_label_2
_geom_bond_distance
O1 C6 1.349(3)
O1 C5 1.447(2)
N1 C12 1.143(3)
N2 C13 1.146(3)
C1 C2 1.184(4)
C1 H1 0.9500
C2 C3 1.470(3)
C3 C4 1.528(3)
C3 H10 0.9900
C3 H3 0.9900
C4 C5 1.512(3)
C4 H4 0.9900
C4 H9 0.9900
C5 H7 0.9900
C5 H8 0.9900
C6 C10 1.400(3)
C6 C7 1.399(3)
C7 C8 1.407(3)
C7 C12 1.431(3)
C8 C9 1.384(3)
C8 C13 1.442(3)
C9 C11 1.388(3)
C9 H2 0.9500
C10 C11 1.381(3)
C10 H6 0.9500
C11 H5 0.9500
loop_
_geom_hbond_atom_site_label_D
_geom_hbond_atom_site_label_H
_geom_hbond_atom_site_label_A
_geom_hbond_distance_DH
_geom_hbond_distance_HA
_geom_hbond_distance_DA
_geom_hbond_angle_DHA
_geom_hbond_site_symmetry_A
C10 H6 N1 0.95 2.46 3.328(3) 151.2 1_465
C5 H8 N1 0.99 2.70 3.549(3) 144.0 1_565
C10 H6 N1 0.95 2.46 3.328(3) 151.2 1_465
C5 H8 N1 0.99 2.70 3.549(3) 144.0 1_565
loop_
_geom_torsion_atom_site_label_1
_geom_torsion_atom_site_label_2
_geom_torsion_atom_site_label_3
_geom_torsion_atom_site_label_4
_geom_torsion
C2 C3 C4 C5 -177.26(19)
C6 O1 C5 C4 178.08(18)
C3 C4 C5 O1 -70.6(2)
C5 O1 C6 C10 -3.5(3)
C5 O1 C6 C7 175.55(18)
O1 C6 C7 C8 179.45(19)
C10 C6 C7 C8 -1.4(3)
O1 C6 C7 C12 -2.5(3)
C10 C6 C7 C12 176.6(2)
C6 C7 C8 C9 -0.3(3)
C12 C7 C8 C9 -178.3(2)
C6 C7 C8 C13 178.8(2)
C12 C7 C8 C13 0.8(3)
C7 C8 C9 C11 1.1(3)
C13 C8 C9 C11 -178.0(2)
O1 C6 C10 C11 -178.6(2)
C7 C6 C10 C11 2.3(3)
C6 C10 C11 C9 -1.6(3)
C8 C9 C11 C10 -0.1(4)
