#------------------------------------------------------------------------------
#$Date: 2016-03-25 23:19:50 +0200 (Fri, 25 Mar 2016) $
#$Revision: 180034 $
#$URL: svn://www.crystallography.net/cod/cif/7/03/28/7032848.cif $
#------------------------------------------------------------------------------
#
# This file is available in the Crystallography Open Database (COD),
# http://www.crystallography.net/
#
# All data on this site have been placed in the public domain by the
# contributors.
#
data_7032848
loop_
_publ_author_name
'Karmakar, Anirban'
'Hazra, Susanta'
'Guedes da Silva, M F\'atima C'
'Pombeiro, Armando J. L.'
_publ_section_title
;
 Synthesis, structure and catalytic application of lead(II) complexes in
 cyanosilylation reactions.
;
_journal_issue                   1
_journal_name_full
'Dalton transactions (Cambridge, England : 2003)'
_journal_page_first              268
_journal_page_last               280
_journal_paper_doi               10.1039/c4dt02316a
_journal_volume                  44
_journal_year                    2015
_chemical_formula_sum            'C14 H16 N8 O10 Pb2'
_chemical_formula_weight         870.73
_chemical_name_systematic
;
 ?
;
_space_group_crystal_system      triclinic
_space_group_IT_number           2
_space_group_name_Hall           '-P 1'
_space_group_name_H-M_alt        'P -1'
_symmetry_space_group_name_Hall  '-P 1'
_symmetry_space_group_name_H-M   'P -1'
_atom_sites_solution_hydrogens   geom
_audit_creation_method           SHELXL-2014
_cell_angle_alpha                102.495(2)
_cell_angle_beta                 99.181(2)
_cell_angle_gamma                112.272(3)
_cell_formula_units_Z            1
_cell_length_a                   7.6846(4)
_cell_length_b                   8.0250(4)
_cell_length_c                   10.1201(5)
_cell_measurement_reflns_used    9207
_cell_measurement_temperature    296(2)
_cell_measurement_theta_max      26.41
_cell_measurement_theta_min      2.88
_cell_volume                     543.33(5)
_computing_publication_material  'WinGX publication routines (Farrugia, 1999)'
_computing_structure_refinement  'SHELXL-2014 (Sheldrick, 2014)'
_computing_structure_solution    'SIR97 (Giacovazzo et al, 1997)'
_diffrn_ambient_temperature      296(2)
_diffrn_measured_fraction_theta_full 0.999
_diffrn_measured_fraction_theta_max 0.999
_diffrn_measurement_device_type  'Bruker APEX-II CCD'
_diffrn_measurement_method       '\f and \w scans'
_diffrn_radiation_source         'fine-focus sealed tube'
_diffrn_radiation_type           MoK\a
_diffrn_radiation_wavelength     0.71073
_diffrn_reflns_av_R_equivalents  0.0228
_diffrn_reflns_av_unetI/netI     0.0169
_diffrn_reflns_Laue_measured_fraction_full 0.999
_diffrn_reflns_Laue_measured_fraction_max 0.999
_diffrn_reflns_limit_h_max       9
_diffrn_reflns_limit_h_min       -9
_diffrn_reflns_limit_k_max       10
_diffrn_reflns_limit_k_min       -10
_diffrn_reflns_limit_l_max       12
_diffrn_reflns_limit_l_min       -12
_diffrn_reflns_number            10973
_diffrn_reflns_point_group_measured_fraction_full 0.999
_diffrn_reflns_point_group_measured_fraction_max 0.999
_diffrn_reflns_theta_full        25.242
_diffrn_reflns_theta_max         26.407
_diffrn_reflns_theta_min         2.878
_exptl_absorpt_coefficient_mu    15.544
_exptl_absorpt_correction_T_max  0.065
_exptl_absorpt_correction_T_min  0.018
_exptl_absorpt_correction_type   multi-scan
_exptl_absorpt_process_details   SADABS
_exptl_crystal_colour            Colourless
_exptl_crystal_density_diffrn    2.661
_exptl_crystal_description       Block
_exptl_crystal_F_000             400
_exptl_crystal_size_max          0.290
_exptl_crystal_size_mid          0.210
_exptl_crystal_size_min          0.170
_refine_diff_density_max         1.756
_refine_diff_density_min         -0.637
_refine_diff_density_rms         0.146
_refine_ls_extinction_method     none
_refine_ls_goodness_of_fit_ref   1.190
_refine_ls_hydrogen_treatment    constr
_refine_ls_matrix_type           full
_refine_ls_number_parameters     154
_refine_ls_number_reflns         2225
_refine_ls_number_restraints     0
_refine_ls_restrained_S_all      1.190
_refine_ls_R_factor_all          0.0192
_refine_ls_R_factor_gt           0.0187
_refine_ls_shift/su_max          0.000
_refine_ls_shift/su_mean         0.000
_refine_ls_structure_factor_coef Fsqd
_refine_ls_weighting_details
'w=1/[\s^2^(Fo^2^)+(0.0258P)^2^+0.6103P] where P=(Fo^2^+2Fc^2^)/3'
_refine_ls_weighting_scheme      calc
_refine_ls_wR_factor_gt          0.0458
_refine_ls_wR_factor_ref         0.0462
_reflns_Friedel_coverage         0.000
_reflns_number_gt                2167
_reflns_number_total             2225
_reflns_threshold_expression     'I > 2\s(I)'
_cod_data_source_file            c4dt02316a2.cif
_cod_data_source_block           2
_cod_depositor_comments
'Adding full bibliography for 7032845--7032850.cif.'
_cod_database_code               7032848
#BEGIN Tags that were not found in dictionaries:
_shelx_space_group_comment
;
The symmetry employed for this shelxl refinement is uniquely defined
by the following loop, which should always be used as a source of
symmetry information in preference to the above space-group names.
They are only intended as comments.
;
_shelx_estimated_absorpt_t_min   0.093
_shelx_estimated_absorpt_t_max   0.178
_shelxl_version_number           2014-1
_shelx_res_file
;
TITL AK476-P1 in P-1
CELL  0.71073    7.6846    8.0250   10.1201   102.495    99.181   112.272
ZERR  1           0.0004    0.0004    0.0005     0.002     0.002     0.002
LATT 1
SFAC C  H  N  O  Pb
UNIT 14  16  8  10  2
L.S. 10
ACTA
BOND $H
FMAP 2
PLAN 20
CONF
EQIV $1 -x+1, -y+1, -z+1
HTAB N4 O3_$1
EQIV $2 x, y+1, z+1
HTAB N4 O2_$2
EQIV $3 -x, -y+1, -z+1
HTAB N4 O4_$3
EQIV $4 -x+2, -y+1, -z
HTAB N3 N2_$4
HTAB N3 O2
HTAB C3 O5
HTAB
SIZE 0.29 0.21 0.17
FREE Pb1  O4
WGHT    0.025800    0.610300
FVAR       0.15326
PB1   5    0.103887    0.254797    0.161146    11.00000    0.02570    0.02965 =
         0.02949    0.00357    0.00846    0.01146
O2    4    0.367993    0.004437   -0.147262    11.00000    0.03019    0.03795 =
         0.03799   -0.00753    0.01172    0.00834
O3    4    0.244428    0.109579    0.292362    11.00000    0.04170    0.04975 =
         0.04137    0.01391    0.01198    0.02257
O4    4    0.033365    0.158915    0.402133    11.00000    0.05438    0.08153 =
         0.06339    0.03136    0.03054    0.03380
O1    4    0.169480    0.074830   -0.032803    11.00000    0.02202    0.03014 =
         0.03462   -0.00170    0.01047    0.00341
O5    4    0.300555    0.560471    0.387834    11.00000    0.08089    0.06529 =
         0.06068   -0.02205    0.03458    0.00596
N4    3    0.318948    0.763512    0.583984    11.00000    0.04876    0.06029 =
         0.05230   -0.01006    0.00692    0.02938
AFIX  93
H4A   2    0.438652    0.793638    0.624189    11.00000   -1.20000
H4B   2    0.254239    0.814010    0.626194    11.00000   -1.20000
AFIX   0
N1    3    0.464686    0.388545    0.145221    11.00000    0.02387    0.02743 =
         0.02764    0.00336    0.00761    0.00716
N2    3    0.836396    0.523995    0.107011    11.00000    0.02119    0.03279 =
         0.04142    0.00617    0.00850    0.00565
N3    3    0.742381    0.269154   -0.086463    11.00000    0.02483    0.04021 =
         0.04329    0.00220    0.01633    0.00767
AFIX  93
H3A   2    0.859052    0.316798   -0.095463    11.00000   -1.20000
H3B   2    0.656531    0.163599   -0.145217    11.00000   -1.20000
AFIX   0
C2    1    0.503348    0.290395    0.039644    11.00000    0.02085    0.02505 =
         0.02513    0.00593    0.00689    0.00760
C1    1    0.337338    0.108895   -0.054963    11.00000    0.02336    0.02720 =
         0.02518    0.00415    0.00742    0.00667
C4    1    0.791506    0.615829    0.212013    11.00000    0.02471    0.02936 =
         0.04046    0.00042    0.00457    0.00234
AFIX  43
H4    2    0.888706    0.728558    0.274369    11.00000   -1.20000
AFIX   0
C3    1    0.607544    0.551849    0.232889    11.00000    0.02791    0.03207 =
         0.03364   -0.00096    0.00723    0.00707
AFIX  43
H3    2    0.582348    0.621479    0.307421    11.00000   -1.20000
AFIX   0
C6    1    0.162258    0.107357    0.392353    11.00000    0.04294    0.04450 =
         0.03878    0.01608    0.00720    0.01250
AFIX  43
H6    2    0.203792    0.063063    0.463157    11.00000   -1.20000
AFIX   0
C5    1    0.694575    0.358980    0.018631    11.00000    0.02176    0.02924 =
         0.03134    0.00961    0.00820    0.00950
C7    1    0.238516    0.645595    0.463450    11.00000    0.05868    0.09765 =
         0.03449    0.01126    0.01771    0.03867
AFIX  43
H7    2    0.109067    0.620804    0.427428    11.00000   -1.20000
AFIX   0
HKLF 4

REM  AK476-P1 in P-1
REM R1 =  0.0187 for    2167 Fo > 4sig(Fo)  and  0.0192 for all    2225 data
REM    154 parameters refined using      0 restraints

END

WGHT      0.0257      0.6121

REM Instructions for potential hydrogen bonds
HTAB N4 O3_$1
HTAB N4 O2_$2
HTAB N4 O4_$3
HTAB N3 N2_$4
HTAB N3 O2
HTAB C3 O5

REM Highest difference peak  1.756,  deepest hole -0.637,  1-sigma level  0.146
Q1    1   0.3187  0.7775  0.4841  11.00000  0.05    1.76
Q2    1   0.1156  0.2377  0.2346  11.00000  0.05    0.79
Q3    1   0.1864  0.5578  0.3583  11.00000  0.05    0.54
Q4    1   0.3341  0.6206  0.4788  11.00000  0.05    0.48
Q5    1   0.9165  0.1224 -0.0982  11.00000  0.05    0.35
Q6    1   0.8306  0.5057 -0.1190  11.00000  0.05    0.33
Q7    1   0.9929  0.4085  0.0370  11.00000  0.05    0.32
Q8    1   0.7700  0.5375 -0.0811  11.00000  0.05    0.30
Q9    1   0.0042  0.6854  0.4178  11.00000  0.05    0.30
Q10   1   0.0530  0.5844  0.3117  11.00000  0.05    0.29
Q11   1   0.4563  0.6170  0.6113  11.00000  0.05    0.28
Q12   1   0.9232  0.1955 -0.1119  11.00000  0.05    0.28
Q13   1   0.6488  0.2254 -0.3184  11.00000  0.05    0.27
Q14   1   0.5577  0.1522 -0.3254  11.00000  0.05    0.27
Q15   1   0.7110  0.5891  0.2226  11.00000  0.05    0.26
Q16   1   0.4471  0.0793  0.1042  11.00000  0.05    0.26
Q17   1   0.1867 -0.1889 -0.0820  11.00000  0.05    0.26
Q18   1   0.3934  0.1546  0.1623  11.00000  0.05    0.26
Q19   1   0.2838  0.9690  0.6269  11.00000  0.05    0.26
Q20   1   0.2292  0.2200 -0.1183  11.00000  0.05    0.26
;
_shelx_res_checksum              12092
#END Tags that were not found in dictionaries
loop_
_space_group_symop_operation_xyz
'x, y, z'
'-x, -y, -z'
loop_
_atom_site_label
_atom_site_type_symbol
_atom_site_fract_x
_atom_site_fract_y
_atom_site_fract_z
_atom_site_U_iso_or_equiv
_atom_site_adp_type
_atom_site_occupancy
_atom_site_site_symmetry_order
_atom_site_calc_flag
_atom_site_refinement_flags_posn
_atom_site_refinement_flags_adp
Pb1 Pb 0.10389(2) 0.25480(2) 0.16115(2) 0.02922(6) Uani 1 1 d . .
O2 O 0.3680(4) 0.0044(4) -0.1473(3) 0.0404(7) Uani 1 1 d . .
O3 O 0.2444(5) 0.1096(4) 0.2924(3) 0.0432(7) Uani 1 1 d . .
O4 O 0.0334(6) 0.1589(6) 0.4021(4) 0.0614(9) Uani 1 1 d . .
O1 O 0.1695(4) 0.0748(4) -0.0328(3) 0.0331(6) Uani 1 1 d . .
O5 O 0.3006(7) 0.5605(6) 0.3878(4) 0.0823(14) Uani 1 1 d . .
N4 N 0.3189(6) 0.7635(6) 0.5840(5) 0.0574(11) Uani 1 1 d . .
H4A H 0.4387 0.7936 0.6242 0.069 Uiso 1 1 calc R U
H4B H 0.2542 0.8140 0.6262 0.069 Uiso 1 1 calc R U
N1 N 0.4647(4) 0.3885(4) 0.1452(3) 0.0283(6) Uani 1 1 d . .
N2 N 0.8364(4) 0.5240(5) 0.1070(4) 0.0346(7) Uani 1 1 d . .
N3 N 0.7424(5) 0.2692(5) -0.0865(4) 0.0390(8) Uani 1 1 d . .
H3A H 0.8591 0.3168 -0.0955 0.047 Uiso 1 1 calc R U
H3B H 0.6565 0.1636 -0.1452 0.047 Uiso 1 1 calc R U
C2 C 0.5033(5) 0.2904(5) 0.0396(3) 0.0246(6) Uani 1 1 d . .
C1 C 0.3373(5) 0.1089(5) -0.0550(4) 0.0271(7) Uani 1 1 d . .
C4 C 0.7915(5) 0.6158(5) 0.2120(4) 0.0368(8) Uani 1 1 d . .
H4 H 0.8887 0.7286 0.2744 0.044 Uiso 1 1 calc R U
C3 C 0.6075(6) 0.5518(6) 0.2329(4) 0.0351(8) Uani 1 1 d . .
H3 H 0.5823 0.6215 0.3074 0.042 Uiso 1 1 calc R U
C6 C 0.1623(7) 0.1074(6) 0.3924(5) 0.0440(10) Uani 1 1 d . .
H6 H 0.2038 0.0631 0.4632 0.053 Uiso 1 1 calc R U
C5 C 0.6946(5) 0.3590(5) 0.0186(4) 0.0277(7) Uani 1 1 d . .
C7 C 0.2385(9) 0.6456(10) 0.4634(5) 0.0628(14) Uani 1 1 d . .
H7 H 0.1091 0.6208 0.4274 0.075 Uiso 1 1 calc R U
loop_
_atom_site_aniso_label
_atom_site_aniso_U_11
_atom_site_aniso_U_22
_atom_site_aniso_U_33
_atom_site_aniso_U_23
_atom_site_aniso_U_13
_atom_site_aniso_U_12
Pb1 0.02570(9) 0.02965(9) 0.02949(9) 0.00357(6) 0.00846(6) 0.01146(6)
O2 0.0302(14) 0.0380(15) 0.0380(15) -0.0075(12) 0.0117(12) 0.0083(12)
O3 0.0417(16) 0.0497(17) 0.0414(16) 0.0139(13) 0.0120(13) 0.0226(14)
O4 0.054(2) 0.082(3) 0.063(2) 0.031(2) 0.0305(18) 0.034(2)
O1 0.0220(12) 0.0301(13) 0.0346(13) -0.0017(10) 0.0105(10) 0.0034(10)
O5 0.081(3) 0.065(2) 0.061(2) -0.0221(19) 0.035(2) 0.006(2)
N4 0.049(2) 0.060(3) 0.052(2) -0.0101(19) 0.0069(19) 0.029(2)
N1 0.0239(14) 0.0274(14) 0.0276(14) 0.0034(12) 0.0076(12) 0.0072(12)
N2 0.0212(14) 0.0328(15) 0.0414(18) 0.0062(13) 0.0085(13) 0.0057(12)
N3 0.0248(15) 0.0402(17) 0.0433(18) 0.0022(14) 0.0163(14) 0.0077(14)
C2 0.0209(15) 0.0250(15) 0.0251(15) 0.0059(13) 0.0069(12) 0.0076(13)
C1 0.0234(16) 0.0272(16) 0.0252(16) 0.0041(13) 0.0074(13) 0.0067(13)
C4 0.0247(17) 0.0294(18) 0.040(2) 0.0004(15) 0.0046(15) 0.0023(14)
C3 0.0279(18) 0.0321(18) 0.0336(19) -0.0010(15) 0.0072(15) 0.0071(15)
C6 0.043(2) 0.044(2) 0.039(2) 0.0161(18) 0.0072(18) 0.0125(19)
C5 0.0218(16) 0.0292(16) 0.0313(17) 0.0096(14) 0.0082(13) 0.0095(13)
C7 0.059(3) 0.098(4) 0.034(2) 0.011(3) 0.018(2) 0.039(3)
loop_
_atom_type_symbol
_atom_type_description
_atom_type_scat_dispersion_real
_atom_type_scat_dispersion_imag
_atom_type_scat_source
C C 0.0033 0.0016 'International Tables Vol C Tables 4.2.6.8 and 6.1.1.4'
H H 0.0000 0.0000 'International Tables Vol C Tables 4.2.6.8 and 6.1.1.4'
N N 0.0061 0.0033 'International Tables Vol C Tables 4.2.6.8 and 6.1.1.4'
O O 0.0106 0.0060 'International Tables Vol C Tables 4.2.6.8 and 6.1.1.4'
Pb Pb -3.3944 10.1111 'International Tables Vol C Tables 4.2.6.8 and 6.1.1.4'
loop_
_geom_angle_atom_site_label_1
_geom_angle_atom_site_label_2
_geom_angle_atom_site_label_3
_geom_angle
_geom_angle_site_symmetry_1
_geom_angle_site_symmetry_3
O3 Pb1 O1 84.03(10) . .
O3 Pb1 O1 86.68(10) . 2
O1 Pb1 O1 65.25(9) . 2
O3 Pb1 N1 76.68(10) . .
O1 Pb1 N1 64.03(9) . .
O1 Pb1 N1 127.78(8) 2 .
O3 Pb1 O5 84.13(15) . .
O1 Pb1 O5 138.76(11) . .
O1 Pb1 O5 152.58(11) 2 .
N1 Pb1 O5 74.82(11) . .
C6 O3 Pb1 102.2(3) . .
C1 O1 Pb1 126.0(2) . .
C1 O1 Pb1 117.1(2) . 2
Pb1 O1 Pb1 114.75(9) . 2
C7 O5 Pb1 128.9(4) . .
C7 N4 H4A 120.0 . .
C7 N4 H4B 120.0 . .
H4A N4 H4B 120.0 . .
C2 N1 C3 119.3(3) . .
C2 N1 Pb1 116.7(2) . .
C3 N1 Pb1 123.9(2) . .
C4 N2 C5 117.8(3) . .
C5 N3 H3A 120.0 . .
C5 N3 H3B 120.0 . .
H3A N3 H3B 120.0 . .
N1 C2 C5 120.3(3) . .
N1 C2 C1 116.8(3) . .
C5 C2 C1 122.9(3) . .
O2 C1 O1 124.2(3) . .
O2 C1 C2 119.7(3) . .
O1 C1 C2 116.1(3) . .
N2 C4 C3 123.0(3) . .
N2 C4 H4 118.5 . .
C3 C4 H4 118.5 . .
N1 C3 C4 119.8(4) . .
N1 C3 H3 120.1 . .
C4 C3 H3 120.1 . .
O4 C6 O3 124.9(4) . .
O4 C6 H6 117.5 . .
O3 C6 H6 117.5 . .
N3 C5 N2 116.9(3) . .
N3 C5 C2 123.4(3) . .
N2 C5 C2 119.7(3) . .
O5 C7 N4 130.7(6) . .
O5 C7 H7 114.6 . .
N4 C7 H7 114.6 . .
loop_
_geom_bond_atom_site_label_1
_geom_bond_atom_site_label_2
_geom_bond_distance
_geom_bond_site_symmetry_2
Pb1 O3 2.335(3) .
Pb1 O1 2.415(2) .
Pb1 O1 2.555(2) 2
Pb1 N1 2.613(3) .
Pb1 O5 2.686(4) .
O2 C1 1.230(4) .
O3 C6 1.275(5) .
O4 C6 1.219(6) .
O1 C1 1.281(4) .
O1 Pb1 2.555(2) 2
O5 C7 1.190(6) .
N4 C7 1.258(7) .
N4 H4A 0.8600 .
N4 H4B 0.8600 .
N1 C2 1.328(4) .
N1 C3 1.344(5) .
N2 C4 1.327(5) .
N2 C5 1.350(5) .
N3 C5 1.334(5) .
N3 H3A 0.8600 .
N3 H3B 0.8600 .
C2 C5 1.430(5) .
C2 C1 1.505(4) .
C4 C3 1.378(5) .
C4 H4 0.9300 .
C3 H3 0.9300 .
C6 H6 0.9300 .
C7 H7 0.9300 .
loop_
_geom_hbond_atom_site_label_D
_geom_hbond_atom_site_label_H
_geom_hbond_atom_site_label_A
_geom_hbond_distance_DH
_geom_hbond_distance_HA
_geom_hbond_distance_DA
_geom_hbond_angle_DHA
_geom_hbond_site_symmetry_A
N4 H4A O3 0.86 2.21 3.063(5) 172.7 2_666
N4 H4B O2 0.86 2.28 2.850(5) 124.1 1_566
N4 H4B O4 0.86 2.28 3.016(6) 143.6 2_566
N3 H3A N2 0.86 2.24 3.093(4) 172.9 2_765
N3 H3B O2 0.86 2.09 2.721(4) 129.5 .
C3 H3 O5 0.93 2.35 3.047(6) 131.5 .
loop_
_geom_torsion_atom_site_label_1
_geom_torsion_atom_site_label_2
_geom_torsion_atom_site_label_3
_geom_torsion_atom_site_label_4
_geom_torsion
_geom_torsion_site_symmetry_1
C3 N1 C2 C5 -0.7(5) .
Pb1 N1 C2 C5 176.6(2) .
C3 N1 C2 C1 -179.9(3) .
Pb1 N1 C2 C1 -2.7(4) .
Pb1 O1 C1 O2 172.9(3) .
Pb1 O1 C1 O2 10.6(5) 2
Pb1 O1 C1 C2 -7.5(4) .
Pb1 O1 C1 C2 -169.8(2) 2
N1 C2 C1 O2 -174.0(3) .
C5 C2 C1 O2 6.7(5) .
N1 C2 C1 O1 6.4(5) .
C5 C2 C1 O1 -172.8(3) .
C5 N2 C4 C3 -1.0(6) .
C2 N1 C3 C4 0.3(6) .
Pb1 N1 C3 C4 -176.7(3) .
N2 C4 C3 N1 0.6(7) .
Pb1 O3 C6 O4 4.6(5) .
C4 N2 C5 N3 179.8(4) .
C4 N2 C5 C2 0.6(5) .
N1 C2 C5 N3 -178.9(4) .
C1 C2 C5 N3 0.3(6) .
N1 C2 C5 N2 0.2(5) .
C1 C2 C5 N2 179.4(3) .
Pb1 O5 C7 N4 164.1(6) .
