#------------------------------------------------------------------------------
#$Date: 2016-03-25 23:27:44 +0200 (Fri, 25 Mar 2016) $
#$Revision: 180040 $
#$URL: svn://www.crystallography.net/cod/cif/7/03/34/7033483.cif $
#------------------------------------------------------------------------------
#
# This file is available in the Crystallography Open Database (COD),
# http://www.crystallography.net/
#
# All data on this site have been placed in the public domain by the
# contributors.
#
data_7033483
loop_
_publ_author_name
'Dong, Yu-Wei'
'Fan, Rui-Qing'
'Wang, Ping'
'Wei, Li-Guo'
'Wang, Xin-Ming'
'Zhang, Hui-Jie'
'Gao, Song'
'Yang, Yu-Lin'
'Wang, Yu-Lei'
_publ_section_title
;
 Synthesis and characterization of substituted Schiff-base ligands and
 their d(10) metal complexes: structure-induced luminescence tuning
 behaviors and applications in co-sensitized solar cells.
;
_journal_issue                   12
_journal_name_full
'Dalton transactions (Cambridge, England : 2003)'
_journal_page_first              5306
_journal_page_last               5322
_journal_paper_doi               10.1039/c4dt03602f
_journal_volume                  44
_journal_year                    2015
_chemical_formula_sum            'C14 H14 Cd Cl2 N2 O'
_chemical_formula_weight         409.58
_chemical_name_systematic
; 
 ? 
;
_space_group_IT_number           2
_symmetry_cell_setting           triclinic
_symmetry_space_group_name_Hall  '-P 1'
_symmetry_space_group_name_H-M   'P -1'
_atom_sites_solution_hydrogens   geom
_atom_sites_solution_primary     direct
_atom_sites_solution_secondary   difmap
_audit_creation_method           SHELXL-97
_audit_update_record
;
2014-09-24 deposited with the CCDC.
2014-12-23 downloaded from the CCDC.
;
_cell_angle_alpha                94.409(4)
_cell_angle_beta                 93.636(4)
_cell_angle_gamma                92.850(4)
_cell_formula_units_Z            2
_cell_length_a                   8.0765(5)
_cell_length_b                   9.3574(5)
_cell_length_c                   10.5442(5)
_cell_measurement_reflns_used    3661
_cell_measurement_temperature    293(2)
_cell_measurement_theta_max      29.25
_cell_measurement_theta_min      3.04
_cell_volume                     791.73(8)
_computing_cell_refinement       'Bruker SMART'
_computing_data_collection       'Bruker SMART'
_computing_data_reduction        'Bruker SAINT'
_computing_molecular_graphics    SHELXP-97
_computing_publication_material  SHELXTL
_computing_structure_refinement  'SHELXL-97 (Sheldrick, 1997)'
_computing_structure_solution    'SHELXS-97 (Sheldrick, 1990)'
_diffrn_ambient_temperature      293(2)
_diffrn_measured_fraction_theta_full 0.997
_diffrn_measured_fraction_theta_max 0.849
_diffrn_measurement_device_type  'Bruker Smart APEX CCD area detector'
_diffrn_measurement_method       'phi and omega scans'
_diffrn_radiation_monochromator  graphite
_diffrn_radiation_source         'fine-focus sealed tube'
_diffrn_radiation_type           MoK\a
_diffrn_radiation_wavelength     0.71073
_diffrn_reflns_av_R_equivalents  0.0343
_diffrn_reflns_av_sigmaI/netI    0.0481
_diffrn_reflns_limit_h_max       10
_diffrn_reflns_limit_h_min       -11
_diffrn_reflns_limit_k_max       11
_diffrn_reflns_limit_k_min       -12
_diffrn_reflns_limit_l_max       14
_diffrn_reflns_limit_l_min       -11
_diffrn_reflns_number            7044
_diffrn_reflns_theta_full        25.00
_diffrn_reflns_theta_max         29.25
_diffrn_reflns_theta_min         3.04
_exptl_absorpt_coefficient_mu    1.712
_exptl_absorpt_correction_T_max  0.7291
_exptl_absorpt_correction_T_min  0.7003
_exptl_absorpt_correction_type   multi-scan
_exptl_crystal_colour            colorless
_exptl_crystal_density_diffrn    1.718
_exptl_crystal_density_method    'not measured'
_exptl_crystal_description       block
_exptl_crystal_F_000             404
_exptl_crystal_size_max          0.22
_exptl_crystal_size_mid          0.22
_exptl_crystal_size_min          0.20
_refine_diff_density_max         0.491
_refine_diff_density_min         -0.752
_refine_diff_density_rms         0.076
_refine_ls_extinction_coef       0.0320(16)
_refine_ls_extinction_expression Fc^*^=kFc[1+0.001xFc^2^\l^3^/sin(2\q)]^-1/4^
_refine_ls_extinction_method     SHELXL
_refine_ls_goodness_of_fit_ref   1.037
_refine_ls_hydrogen_treatment    mixed
_refine_ls_matrix_type           full
_refine_ls_number_parameters     182
_refine_ls_number_reflns         3661
_refine_ls_number_restraints     0
_refine_ls_restrained_S_all      1.037
_refine_ls_R_factor_all          0.0431
_refine_ls_R_factor_gt           0.0337
_refine_ls_shift/su_max          0.002
_refine_ls_shift/su_mean         0.000
_refine_ls_structure_factor_coef Fsqd
_refine_ls_weighting_details
'calc w=1/[\s^2^(Fo^2^)+(0.0321P)^2^+0.0000P] where P=(Fo^2^+2Fc^2^)/3'
_refine_ls_weighting_scheme      calc
_refine_ls_wR_factor_gt          0.0710
_refine_ls_wR_factor_ref         0.0783
_reflns_number_gt                3117
_reflns_number_total             3661
_reflns_threshold_expression     >2sigma(I)
_cod_data_source_file            c4dt03602f2.cif
_cod_data_source_block           5
_cod_depositor_comments
;
The following automatic conversions were performed:

'_symmetry_cell_setting' value 'Triclinic' changed to 'triclinic'
according to
/usr/data/users/saulius/crontab/automatic-downloads/rss-feeds/RSC/lib/dictionaries/cif_core.dic
dictionary named 'cif_core.dic' version 2.4.2 from 2011-04-26.

Automatic conversion script
Id: cif_fix_values 2935 2014-11-11 08:27:57Z andrius 

 Adding full bibliography for 7033479--7033487.cif.
;
_cod_original_cell_volume        791.73(7)
_cod_original_sg_symbol_H-M      'P-1   '
_cod_database_code               7033483
loop_
_symmetry_equiv_pos_as_xyz
'x, y, z'
'-x, -y, -z'
loop_
_atom_site_label
_atom_site_type_symbol
_atom_site_fract_x
_atom_site_fract_y
_atom_site_fract_z
_atom_site_U_iso_or_equiv
_atom_site_adp_type
_atom_site_occupancy
_atom_site_symmetry_multiplicity
_atom_site_calc_flag
_atom_site_refinement_flags
Cd1 Cd 0.71949(3) 0.13849(2) 0.68671(2) 0.04276(12) Uani 1 1 d .
Cl1 Cl 0.48491(11) 0.27368(9) 0.72553(9) 0.0587(2) Uani 1 1 d .
Cl2 Cl 0.97595(11) 0.26105(9) 0.77280(10) 0.0610(3) Uani 1 1 d .
O1 O 0.6801(3) -0.0955(3) 0.8859(2) 0.0634(7) Uani 1 1 d .
N1 N 0.7368(3) -0.1006(2) 0.6828(2) 0.0421(6) Uani 1 1 d .
N2 N 0.7558(3) 0.0563(2) 0.4767(2) 0.0401(6) Uani 1 1 d .
C1 C 0.7811(4) -0.1647(3) 0.5721(3) 0.0456(7) Uani 1 1 d .
C3 C 0.8033(5) -0.3855(4) 0.6665(4) 0.0694(11) Uani 1 1 d .
H3A H 0.8272 -0.4819 0.6609 0.083 Uiso 1 1 calc R
C4 C 0.7566(5) -0.3215(4) 0.7799(4) 0.0631(10) Uani 1 1 d .
H4A H 0.7467 -0.3733 0.8511 0.076 Uiso 1 1 calc R
C5 C 0.7248(4) -0.1754(3) 0.7840(3) 0.0496(8) Uani 1 1 d .
C6 C 0.7868(4) -0.0763(3) 0.4644(3) 0.0438(7) Uani 1 1 d .
H6A H 0.8136 -0.1170 0.3855 0.053 Uiso 1 1 calc R
C7 C 0.6490(6) -0.1634(4) 1.0004(4) 0.0737(11) Uani 1 1 d .
H7A H 0.6142 -0.0936 1.0633 0.111 Uiso 1 1 calc R
H7B H 0.7489 -0.2037 1.0323 0.111 Uiso 1 1 calc R
H7C H 0.5633 -0.2382 0.9820 0.111 Uiso 1 1 calc R
C8 C 0.7580(4) 0.1438(3) 0.3719(3) 0.0385(6) Uani 1 1 d .
C9 C 0.8209(4) 0.1033(3) 0.2552(3) 0.0490(8) Uani 1 1 d .
H9A H 0.8656 0.0141 0.2420 0.059 Uiso 1 1 calc R
C10 C 0.8169(4) 0.1950(3) 0.1596(3) 0.0515(8) Uani 1 1 d .
H10A H 0.8575 0.1656 0.0818 0.062 Uiso 1 1 calc R
C11 C 0.7542(4) 0.3303(3) 0.1755(3) 0.0459(7) Uani 1 1 d .
C12 C 0.6924(5) 0.3681(3) 0.2907(3) 0.0541(9) Uani 1 1 d .
H12A H 0.6479 0.4575 0.3036 0.065 Uiso 1 1 calc R
C13 C 0.6941(4) 0.2778(3) 0.3878(3) 0.0485(8) Uani 1 1 d .
H13A H 0.6519 0.3074 0.4649 0.058 Uiso 1 1 calc R
C14 C 0.7543(5) 0.4302(4) 0.0699(3) 0.0623(10) Uani 1 1 d .
H14A H 0.7047 0.5175 0.0972 0.093 Uiso 1 1 calc R
H14B H 0.6918 0.3851 -0.0042 0.093 Uiso 1 1 calc R
H14C H 0.8666 0.4517 0.0495 0.093 Uiso 1 1 calc R
C2 C 0.8145(5) -0.3086(3) 0.5623(4) 0.0608(10) Uani 1 1 d .
H2A H 0.8444 -0.3524 0.4856 0.073 Uiso 1 1 calc R
loop_
_atom_site_aniso_label
_atom_site_aniso_U_11
_atom_site_aniso_U_22
_atom_site_aniso_U_33
_atom_site_aniso_U_23
_atom_site_aniso_U_13
_atom_site_aniso_U_12
Cd1 0.05228(17) 0.03317(15) 0.04340(17) 0.00442(10) 0.00151(11) 0.00823(10)
Cl1 0.0579(5) 0.0572(5) 0.0639(6) 0.0087(4) 0.0080(4) 0.0216(4)
Cl2 0.0544(5) 0.0516(5) 0.0733(6) -0.0135(4) -0.0061(4) 0.0063(4)
O1 0.0917(19) 0.0526(14) 0.0486(14) 0.0195(11) 0.0058(14) 0.0054(13)
N1 0.0473(14) 0.0334(12) 0.0457(15) 0.0091(11) -0.0051(12) 0.0029(11)
N2 0.0456(13) 0.0327(12) 0.0416(14) 0.0014(10) -0.0027(12) 0.0074(11)
C1 0.0479(17) 0.0312(15) 0.057(2) 0.0047(14) -0.0045(16) 0.0044(13)
C3 0.087(3) 0.0310(17) 0.090(3) 0.0115(19) -0.005(2) 0.0071(18)
C4 0.077(2) 0.0396(18) 0.073(3) 0.0240(17) -0.012(2) 0.0005(17)
C5 0.0535(19) 0.0406(16) 0.054(2) 0.0160(15) -0.0092(17) -0.0019(15)
C6 0.0516(18) 0.0357(15) 0.0434(17) 0.0002(13) -0.0022(15) 0.0055(13)
C7 0.092(3) 0.073(3) 0.056(2) 0.0267(19) -0.010(2) -0.013(2)
C8 0.0447(16) 0.0331(14) 0.0371(16) 0.0027(12) -0.0038(13) 0.0043(12)
C9 0.065(2) 0.0389(16) 0.0439(18) -0.0013(14) 0.0031(16) 0.0143(15)
C10 0.069(2) 0.0478(18) 0.0382(17) 0.0015(14) 0.0072(16) 0.0063(16)
C11 0.0542(18) 0.0422(16) 0.0400(17) 0.0052(13) -0.0051(15) -0.0023(14)
C12 0.077(2) 0.0347(16) 0.053(2) 0.0074(14) 0.0054(18) 0.0150(16)
C13 0.067(2) 0.0398(16) 0.0410(18) 0.0053(14) 0.0078(16) 0.0144(15)
C14 0.087(3) 0.050(2) 0.050(2) 0.0143(16) 0.001(2) -0.0041(19)
C2 0.077(2) 0.0344(17) 0.070(2) 0.0021(16) -0.005(2) 0.0112(17)
loop_
_atom_type_symbol
_atom_type_description
_atom_type_scat_dispersion_real
_atom_type_scat_dispersion_imag
_atom_type_scat_source
C C 0.0033 0.0016 'International Tables Vol C Tables 4.2.6.8 and 6.1.1.4'
H H 0.0000 0.0000 'International Tables Vol C Tables 4.2.6.8 and 6.1.1.4'
Cd Cd -0.8075 1.2024 'International Tables Vol C Tables 4.2.6.8 and 6.1.1.4'
Cl Cl 0.1484 0.1585 'International Tables Vol C Tables 4.2.6.8 and 6.1.1.4'
N N 0.0061 0.0033 'International Tables Vol C Tables 4.2.6.8 and 6.1.1.4'
O O 0.0106 0.0060 'International Tables Vol C Tables 4.2.6.8 and 6.1.1.4'
loop_
_geom_angle_atom_site_label_1
_geom_angle_atom_site_label_2
_geom_angle_atom_site_label_3
_geom_angle
N1 Cd1 N2 73.01(9)
N1 Cd1 Cl1 127.86(7)
N2 Cd1 Cl1 117.64(6)
N1 Cd1 Cl2 110.95(7)
N2 Cd1 Cl2 107.65(7)
Cl1 Cd1 Cl2 112.61(3)
C5 O1 C7 119.1(3)
C5 N1 C1 120.0(3)
C5 N1 Cd1 124.2(2)
C1 N1 Cd1 115.3(2)
C6 N2 C8 121.7(2)
C6 N2 Cd1 113.0(2)
C8 N2 Cd1 125.10(17)
N1 C1 C2 120.8(3)
N1 C1 C6 116.7(2)
C2 C1 C6 122.5(3)
C2 C3 C4 120.5(3)
C2 C3 H3A 119.8
C4 C3 H3A 119.8
C3 C4 C5 117.6(4)
C3 C4 H4A 121.2
C5 C4 H4A 121.2
N1 C5 O1 112.4(3)
N1 C5 C4 121.8(3)
O1 C5 C4 125.8(3)
N2 C6 C1 120.9(3)
N2 C6 H6A 119.5
C1 C6 H6A 119.5
O1 C7 H7A 109.5
O1 C7 H7B 109.5
H7A C7 H7B 109.5
O1 C7 H7C 109.5
H7A C7 H7C 109.5
H7B C7 H7C 109.5
C13 C8 C9 118.1(3)
C13 C8 N2 117.6(3)
C9 C8 N2 124.4(3)
C10 C9 C8 120.1(3)
C10 C9 H9A 120.0
C8 C9 H9A 120.0
C9 C10 C11 122.0(3)
C9 C10 H10A 119.0
C11 C10 H10A 119.0
C12 C11 C10 117.1(3)
C12 C11 C14 121.9(3)
C10 C11 C14 121.0(3)
C11 C12 C13 121.9(3)
C11 C12 H12A 119.0
C13 C12 H12A 119.0
C12 C13 C8 120.8(3)
C12 C13 H13A 119.6
C8 C13 H13A 119.6
C11 C14 H14A 109.5
C11 C14 H14B 109.5
H14A C14 H14B 109.5
C11 C14 H14C 109.5
H14A C14 H14C 109.5
H14B C14 H14C 109.5
C3 C2 C1 119.3(3)
C3 C2 H2A 120.3
C1 C2 H2A 120.3
loop_
_geom_bond_atom_site_label_1
_geom_bond_atom_site_label_2
_geom_bond_distance
Cd1 N1 2.246(2)
Cd1 N2 2.329(2)
Cd1 Cl1 2.3695(8)
Cd1 Cl2 2.4073(9)
O1 C5 1.340(4)
O1 C7 1.437(4)
N1 C5 1.327(4)
N1 C1 1.348(4)
N2 C6 1.276(4)
N2 C8 1.425(4)
C1 C2 1.383(4)
C1 C6 1.458(5)
C3 C2 1.364(5)
C3 C4 1.379(6)
C3 H3A 0.9300
C4 C5 1.401(4)
C4 H4A 0.9300
C6 H6A 0.9300
C7 H7A 0.9600
C7 H7B 0.9600
C7 H7C 0.9600
C8 C13 1.383(4)
C8 C9 1.394(4)
C9 C10 1.373(5)
C9 H9A 0.9300
C10 C11 1.389(4)
C10 H10A 0.9300
C11 C12 1.370(5)
C11 C14 1.508(5)
C12 C13 1.376(5)
C12 H12A 0.9300
C13 H13A 0.9300
C14 H14A 0.9600
C14 H14B 0.9600
C14 H14C 0.9600
C2 H2A 0.9300
