#------------------------------------------------------------------------------
#$Date: 2016-03-25 23:34:43 +0200 (Fri, 25 Mar 2016) $
#$Revision: 180045 $
#$URL: svn://www.crystallography.net/cod/cif/7/03/39/7033949.cif $
#------------------------------------------------------------------------------
#
# This file is available in the Crystallography Open Database (COD),
# http://www.crystallography.net/
#
# All data on this site have been placed in the public domain by the
# contributors.
#
data_7033949
loop_
_publ_author_name
'von Wachenfeldt, Henrik'
'Polukeev, Alexey V.'
'Loganathan, Nagarajan'
'Paulsen, Filip'
'R\"ose, Philipp'
'Garreau, Marion'
'Wendt, Ola F.'
'Strand, Daniel'
_publ_section_title
;
 Cyclometallated gold(iii) aryl-pyridine complexes as efficient catalysts
 for three-component synthesis of substituted oxazoles.
;
_journal_issue                   12
_journal_name_full
'Dalton transactions (Cambridge, England : 2003)'
_journal_page_first              5347
_journal_page_last               5353
_journal_paper_doi               10.1039/c4dt03806a
_journal_volume                  44
_journal_year                    2015
_chemical_formula_moiety         'C12 H11 Au Cl3 N'
_chemical_formula_sum            'C12 H11 Au Cl3 N'
_chemical_formula_weight         472.53
_chemical_name_systematic
; 
 ? 
;
_space_group_IT_number           2
_symmetry_cell_setting           triclinic
_symmetry_Int_Tables_number      2
_symmetry_space_group_name_Hall  '-P 1'
_symmetry_space_group_name_H-M   'P -1'
_atom_sites_solution_hydrogens   geom
_atom_sites_solution_primary     direct
_atom_sites_solution_secondary   difmap
_audit_creation_method
;
CrysAlisPro, Oxford Diffraction Ltd.,
Version 1.171.35.8 (release 07-03-2011 CrysAlis171 .NET)
(compiled Mar  7 2011,18:06:32)
;
_audit_update_record
;
2014-09-02 deposited with the CCDC.
2015-02-09 downloaded from the CCDC.
;
_cell_angle_alpha                85.425(5)
_cell_angle_beta                 72.501(5)
_cell_angle_gamma                71.714(5)
_cell_formula_units_Z            2
_cell_length_a                   7.816(5)
_cell_length_b                   8.605(5)
_cell_length_c                   11.558(5)
_cell_measurement_reflns_used    3297
_cell_measurement_temperature    293(2)
_cell_measurement_theta_max      26.3140
_cell_measurement_theta_min      2.4899
_cell_volume                     703.8(7)
_computing_cell_refinement
;
CrysAlisPro, Agilent Technologies,
Version 1.171.35.8 (release 07-03-2011 CrysAlis171 .NET)
(compiled Mar  7 2011,18:06:32)
;
_computing_data_collection
;
CrysAlisPro, Agilent Technologies,
Version 1.171.35.8 (release 07-03-2011 CrysAlis171 .NET)
(compiled Mar  7 2011,18:06:32)
;
_computing_data_reduction
;
CrysAlisPro, Agilent Technologies,
Version 1.171.35.8 (release 07-03-2011 CrysAlis171 .NET)
(compiled Mar  7 2011,18:06:32)
;
_computing_molecular_graphics    'BRUKER SHELXTL'
_computing_publication_material  'BRUKER SHELXTL'
_computing_structure_refinement  'BRUKER SHELXTL'
_computing_structure_solution    'BRUKER SHELXTL'
_diffrn_ambient_temperature      293(2)
_diffrn_detector_area_resol_mean 16.1829
_diffrn_measured_fraction_theta_full 0.972
_diffrn_measured_fraction_theta_max 0.972
_diffrn_measurement_device_type  'Xcalibur, Sapphire3'
_diffrn_measurement_method       'omega scans'
_diffrn_radiation_monochromator  graphite
_diffrn_radiation_source         'Enhance (Mo) X-ray Source'
_diffrn_radiation_type           MoK\a
_diffrn_radiation_wavelength     0.71069
_diffrn_reflns_av_R_equivalents  0.0137
_diffrn_reflns_av_sigmaI/netI    0.0181
_diffrn_reflns_limit_h_max       9
_diffrn_reflns_limit_h_min       -9
_diffrn_reflns_limit_k_max       10
_diffrn_reflns_limit_k_min       -10
_diffrn_reflns_limit_l_max       12
_diffrn_reflns_limit_l_min       -14
_diffrn_reflns_number            5281
_diffrn_reflns_theta_full        27.00
_diffrn_reflns_theta_max         27.00
_diffrn_reflns_theta_min         2.49
_exptl_absorpt_coefficient_mu    10.996
_exptl_absorpt_correction_T_max  0.3290
_exptl_absorpt_correction_T_min  0.1865
_exptl_absorpt_correction_type   multi-scan
_exptl_absorpt_process_details
;
CrysAlisPro, Agilent Technologies,
Version 1.171.35.8 (release 07-03-2011 CrysAlis171 .NET)
(compiled Mar  7 2011,18:06:32)
Empirical absorption correction using spherical harmonics,
 implemented in SCALE3 ABSPACK scaling algorithm.
;
_exptl_crystal_colour            yellow
_exptl_crystal_density_diffrn    2.230
_exptl_crystal_density_method    'not measured'
_exptl_crystal_description       block
_exptl_crystal_F_000             440
_exptl_crystal_size_max          0.23
_exptl_crystal_size_mid          0.18
_exptl_crystal_size_min          0.13
_refine_diff_density_max         1.029
_refine_diff_density_min         -0.619
_refine_diff_density_rms         0.089
_refine_ls_extinction_method     none
_refine_ls_goodness_of_fit_ref   1.020
_refine_ls_hydrogen_treatment    constr
_refine_ls_matrix_type           full
_refine_ls_number_parameters     154
_refine_ls_number_reflns         2969
_refine_ls_number_restraints     0
_refine_ls_restrained_S_all      1.020
_refine_ls_R_factor_all          0.0195
_refine_ls_R_factor_gt           0.0170
_refine_ls_shift/su_max          0.002
_refine_ls_shift/su_mean         0.000
_refine_ls_structure_factor_coef Fsqd
_refine_ls_weighting_details
'calc w=1/[\s^2^(Fo^2^)+(0.0273P)^2^+0.0000P] where P=(Fo^2^+2Fc^2^)/3'
_refine_ls_weighting_scheme      calc
_refine_ls_wR_factor_gt          0.0414
_refine_ls_wR_factor_ref         0.0418
_reflns_number_gt                2722
_reflns_number_total             2969
_reflns_threshold_expression     >2sigma(I)
_cod_data_source_file            c4dt03806a2.cif
_cod_data_source_block           run20
_cod_depositor_comments
'Adding full bibliography for 7033948--7033951.cif.'
_cod_original_sg_symbol_H-M      P-1
_cod_database_code               7033949
loop_
_symmetry_equiv_pos_as_xyz
'x, y, z'
'-x, -y, -z'
loop_
_atom_site_label
_atom_site_type_symbol
_atom_site_fract_x
_atom_site_fract_y
_atom_site_fract_z
_atom_site_U_iso_or_equiv
_atom_site_adp_type
_atom_site_occupancy
_atom_site_symmetry_multiplicity
_atom_site_calc_flag
_atom_site_refinement_flags
Au1 Au 0.938990(15) 0.082458(13) 0.319819(10) 0.03664(5) Uani 1 1 d .
Cl2 Cl 1.06721(14) -0.17857(11) 0.24883(9) 0.0577(2) Uani 1 1 d .
Cl1 Cl 1.20906(13) 0.07189(12) 0.36083(10) 0.0574(2) Uani 1 1 d .
Cl3 Cl 0.65905(13) 0.08850(13) 0.29460(11) 0.0632(3) Uani 1 1 d .
N1 N 0.8263(4) 0.3222(3) 0.3761(2) 0.0376(5) Uani 1 1 d .
C1 C 0.7865(5) 0.3555(4) 0.4953(3) 0.0504(8) Uani 1 1 d .
H1 H 0.8071 0.2696 0.5487 0.061 Uiso 1 1 calc R
C2 C 0.7172(5) 0.5121(5) 0.5389(4) 0.0620(10) Uani 1 1 d .
H2 H 0.6921 0.5336 0.6209 0.074 Uiso 1 1 calc R
C3 C 0.6847(6) 0.6388(5) 0.4590(4) 0.0632(11) Uani 1 1 d .
H3 H 0.6372 0.7469 0.4866 0.076 Uiso 1 1 calc R
C4 C 0.7229(5) 0.6033(5) 0.3398(4) 0.0579(10) Uani 1 1 d .
H4 H 0.7005 0.6884 0.2861 0.069 Uiso 1 1 calc R
C5 C 0.7942(4) 0.4437(4) 0.2965(3) 0.0417(7) Uani 1 1 d .
C6 C 0.8483(5) 0.4026(4) 0.1645(3) 0.0500(8) Uani 1 1 d .
H6A H 0.7953 0.4993 0.1224 0.060 Uiso 1 1 calc R
H6B H 0.7937 0.3193 0.1547 0.060 Uiso 1 1 calc R
C7 C 1.0576(5) 0.3418(4) 0.1066(3) 0.0431(7) Uani 1 1 d .
C8 C 1.1764(5) 0.4094(4) 0.1362(3) 0.0488(8) Uani 1 1 d .
H8 H 1.1268 0.4916 0.1954 0.059 Uiso 1 1 calc R
C9 C 1.3689(6) 0.3580(6) 0.0797(4) 0.0720(12) Uani 1 1 d .
H9 H 1.4471 0.4045 0.1020 0.086 Uiso 1 1 calc R
C10 C 1.4432(8) 0.2396(7) -0.0082(5) 0.0895(17) Uani 1 1 d .
H10 H 1.5719 0.2063 -0.0474 0.107 Uiso 1 1 calc R
C11 C 1.3269(9) 0.1695(6) -0.0388(4) 0.0849(16) Uani 1 1 d .
H11 H 1.3778 0.0876 -0.0983 0.102 Uiso 1 1 calc R
C12 C 1.1357(7) 0.2191(4) 0.0176(3) 0.0640(12) Uani 1 1 d .
H12 H 1.0586 0.1704 -0.0038 0.077 Uiso 1 1 calc R
loop_
_atom_site_aniso_label
_atom_site_aniso_U_11
_atom_site_aniso_U_22
_atom_site_aniso_U_33
_atom_site_aniso_U_23
_atom_site_aniso_U_13
_atom_site_aniso_U_12
Au1 0.03429(8) 0.03876(7) 0.03930(8) 0.00133(5) -0.01275(5) -0.01272(5)
Cl2 0.0640(6) 0.0434(4) 0.0636(6) -0.0081(4) -0.0193(5) -0.0109(4)
Cl1 0.0431(5) 0.0599(5) 0.0790(6) 0.0058(4) -0.0309(5) -0.0178(4)
Cl3 0.0423(5) 0.0687(6) 0.0882(7) -0.0137(5) -0.0257(5) -0.0198(4)
N1 0.0368(14) 0.0416(13) 0.0361(13) 0.0011(10) -0.0129(11) -0.0123(11)
C1 0.048(2) 0.060(2) 0.0450(19) -0.0016(15) -0.0154(15) -0.0163(17)
C2 0.051(2) 0.076(3) 0.055(2) -0.025(2) -0.0075(17) -0.016(2)
C3 0.056(2) 0.049(2) 0.079(3) -0.014(2) -0.006(2) -0.0167(18)
C4 0.050(2) 0.0466(19) 0.072(3) 0.0068(18) -0.0111(19) -0.0156(17)
C5 0.0323(16) 0.0423(16) 0.0487(18) 0.0076(14) -0.0109(14) -0.0115(13)
C6 0.052(2) 0.059(2) 0.0471(19) 0.0147(15) -0.0239(16) -0.0223(17)
C7 0.057(2) 0.0332(15) 0.0368(16) 0.0085(12) -0.0174(15) -0.0098(14)
C8 0.048(2) 0.0485(18) 0.0462(19) -0.0014(15) -0.0105(16) -0.0126(15)
C9 0.052(2) 0.091(3) 0.068(3) 0.016(2) -0.016(2) -0.020(2)
C10 0.065(3) 0.089(4) 0.069(3) 0.012(3) -0.001(2) 0.019(3)
C11 0.110(4) 0.053(2) 0.051(2) -0.0080(19) -0.010(3) 0.019(3)
C12 0.105(4) 0.0422(19) 0.044(2) 0.0011(15) -0.032(2) -0.012(2)
loop_
_atom_type_symbol
_atom_type_description
_atom_type_scat_dispersion_real
_atom_type_scat_dispersion_imag
_atom_type_scat_source
C C 0.0033 0.0016 'International Tables Vol C Tables 4.2.6.8 and 6.1.1.4'
H H 0.0000 0.0000 'International Tables Vol C Tables 4.2.6.8 and 6.1.1.4'
N N 0.0061 0.0033 'International Tables Vol C Tables 4.2.6.8 and 6.1.1.4'
Cl Cl 0.1484 0.1585 'International Tables Vol C Tables 4.2.6.8 and 6.1.1.4'
Au Au -2.0133 8.8022 'International Tables Vol C Tables 4.2.6.8 and 6.1.1.4'
loop_
_geom_angle_atom_site_label_1
_geom_angle_atom_site_label_2
_geom_angle_atom_site_label_3
_geom_angle
N1 Au1 Cl2 177.38(7)
N1 Au1 Cl1 89.85(8)
Cl2 Au1 Cl1 90.47(4)
N1 Au1 Cl3 89.76(8)
Cl2 Au1 Cl3 90.12(4)
Cl1 Au1 Cl3 175.42(4)
C5 N1 C1 120.9(3)
C5 N1 Au1 121.1(2)
C1 N1 Au1 118.0(2)
N1 C1 C2 121.4(3)
N1 C1 H1 119.3
C2 C1 H1 119.3
C1 C2 C3 118.8(4)
C1 C2 H2 120.6
C3 C2 H2 120.6
C4 C3 C2 119.2(4)
C4 C3 H3 120.4
C2 C3 H3 120.4
C3 C4 C5 121.5(4)
C3 C4 H4 119.2
C5 C4 H4 119.2
N1 C5 C4 118.2(3)
N1 C5 C6 119.4(3)
C4 C5 C6 122.3(3)
C5 C6 C7 113.4(3)
C5 C6 H6A 108.9
C7 C6 H6A 108.9
C5 C6 H6B 108.9
C7 C6 H6B 108.9
H6A C6 H6B 107.7
C8 C7 C12 118.1(4)
C8 C7 C6 121.2(3)
C12 C7 C6 120.7(4)
C7 C8 C9 121.4(4)
C7 C8 H8 119.3
C9 C8 H8 119.3
C10 C9 C8 120.0(5)
C10 C9 H9 120.0
C8 C9 H9 120.0
C9 C10 C11 119.5(5)
C9 C10 H10 120.2
C11 C10 H10 120.2
C10 C11 C12 120.8(4)
C10 C11 H11 119.6
C12 C11 H11 119.6
C11 C12 C7 120.2(4)
C11 C12 H12 119.9
C7 C12 H12 119.9
loop_
_geom_bond_atom_site_label_1
_geom_bond_atom_site_label_2
_geom_bond_distance
Au1 N1 2.045(3)
Au1 Cl2 2.2605(14)
Au1 Cl1 2.2723(16)
Au1 Cl3 2.2770(17)
N1 C5 1.351(4)
N1 C1 1.352(4)
C1 C2 1.359(5)
C1 H1 0.9300
C2 C3 1.383(6)
C2 H2 0.9300
C3 C4 1.357(6)
C3 H3 0.9300
C4 C5 1.382(5)
C4 H4 0.9300
C5 C6 1.495(5)
C6 C7 1.503(5)
C6 H6A 0.9700
C6 H6B 0.9700
C7 C8 1.371(5)
C7 C12 1.391(5)
C8 C9 1.387(6)
C8 H8 0.9300
C9 C10 1.359(7)
C9 H9 0.9300
C10 C11 1.374(8)
C10 H10 0.9300
C11 C12 1.378(7)
C11 H11 0.9300
C12 H12 0.9300
