#------------------------------------------------------------------------------
#$Date: 2016-03-25 23:26:29 +0200 (Fri, 25 Mar 2016) $
#$Revision: 180039 $
#$URL: svn://www.crystallography.net/cod/cif/7/03/33/7033328.cif $
#------------------------------------------------------------------------------
#
# This file is available in the Crystallography Open Database (COD),
# http://www.crystallography.net/
#
# All data on this site have been placed in the public domain by the
# contributors.
#
data_7033328
loop_
_publ_author_name
'Agarwal, Jay'
'Stanton Iii, Charles J.'
'Shaw, Travis W.'
'Vandezande, Jonathon E.'
'Majetich, George F.'
'Bocarsly, Andrew B.'
'Schaefer Iii, Henry F.'
_publ_section_title
;
 Exploring the effect of axial ligand substitution (X = Br, NCS, CN) on
 the photodecomposition and electrochemical activity of [MnX(N-C)(CO)3]
 complexes.
;
_journal_issue                   5
_journal_name_full
'Dalton transactions (Cambridge, England : 2003)'
_journal_page_first              2122
_journal_page_last               2131
_journal_paper_doi               10.1039/c4dt03079f
_journal_volume                  44
_journal_year                    2015
_chemical_formula_sum            'C17 H13 Br Mn N3 O3'
_chemical_formula_weight         442.15
_chemical_name_systematic
;
 ?
;
_space_group_crystal_system      triclinic
_space_group_IT_number           2
_space_group_name_Hall           '-P 1'
_space_group_name_H-M_alt        'P -1'
_symmetry_space_group_name_Hall  '-P 1'
_symmetry_space_group_name_H-M   'P -1'
_atom_sites_solution_hydrogens   geom
_audit_creation_method           SHELXL-2013
_audit_update_record
;
2014-06-14 deposited with the CCDC.
2014-12-04 downloaded from the CCDC.
;
_cell_angle_alpha                83.171(2)
_cell_angle_beta                 84.768(2)
_cell_angle_gamma                79.192(2)
_cell_formula_units_Z            2
_cell_length_a                   7.9754(9)
_cell_length_b                   8.7199(10)
_cell_length_c                   12.8037(15)
_cell_measurement_reflns_used    6954
_cell_measurement_temperature    296(2)
_cell_measurement_theta_max      30.99
_cell_measurement_theta_min      2.39
_cell_volume                     866.26(17)
_computing_cell_refinement       'Bruker SAINT'
_computing_data_collection       'Bruker APEX2'
_computing_data_reduction        'Bruker SAINT'
_computing_molecular_graphics    'Bruker SHELXTL'
_computing_publication_material  'Bruker SHELXTL'
_computing_structure_refinement  'SHELXL-2013 (Sheldrick, 2013)'
_computing_structure_solution    'SHELXS-97 (Sheldrick 2008)'
_diffrn_ambient_temperature      296(2)
_diffrn_measured_fraction_theta_full 0.999
_diffrn_measured_fraction_theta_max 0.996
_diffrn_measurement_device_type  'Bruker SMART APEX-II CCD'
_diffrn_measurement_method       'OMEGA SCAN'
_diffrn_radiation_type           MoK\a
_diffrn_radiation_wavelength     0.71073
_diffrn_reflns_av_R_equivalents  0.0208
_diffrn_reflns_av_unetI/netI     0.0225
_diffrn_reflns_Laue_measured_fraction_full 0.999
_diffrn_reflns_Laue_measured_fraction_max 0.996
_diffrn_reflns_limit_h_max       11
_diffrn_reflns_limit_h_min       -11
_diffrn_reflns_limit_k_max       12
_diffrn_reflns_limit_k_min       -12
_diffrn_reflns_limit_l_max       18
_diffrn_reflns_limit_l_min       -18
_diffrn_reflns_number            13441
_diffrn_reflns_point_group_measured_fraction_full 0.999
_diffrn_reflns_point_group_measured_fraction_max 0.996
_diffrn_reflns_theta_full        25.242
_diffrn_reflns_theta_max         29.999
_diffrn_reflns_theta_min         2.391
_exptl_absorpt_coefficient_mu    3.089
_exptl_absorpt_correction_T_max  0.7465
_exptl_absorpt_correction_T_min  0.5549
_exptl_absorpt_correction_type   multi-scan
_exptl_absorpt_process_details   'BRUKER SADABS'
_exptl_crystal_colour            orange
_exptl_crystal_density_diffrn    1.695
_exptl_crystal_description       plate
_exptl_crystal_F_000             440
_exptl_crystal_size_max          0.370
_exptl_crystal_size_mid          0.340
_exptl_crystal_size_min          0.230
_refine_diff_density_max         0.848
_refine_diff_density_min         -0.409
_refine_diff_density_rms         0.058
_refine_ls_extinction_method     none
_refine_ls_goodness_of_fit_ref   1.052
_refine_ls_hydrogen_treatment    constr
_refine_ls_matrix_type           full
_refine_ls_number_parameters     226
_refine_ls_number_reflns         5022
_refine_ls_number_restraints     0
_refine_ls_restrained_S_all      1.052
_refine_ls_R_factor_all          0.0353
_refine_ls_R_factor_gt           0.0292
_refine_ls_shift/su_max          0.001
_refine_ls_shift/su_mean         0.000
_refine_ls_structure_factor_coef Fsqd
_refine_ls_weighting_details
'w=1/[\s^2^(Fo^2^)+(0.0338P)^2^+0.3932P] where P=(Fo^2^+2Fc^2^)/3'
_refine_ls_weighting_scheme      calc
_refine_ls_wR_factor_gt          0.0723
_refine_ls_wR_factor_ref         0.0746
_reflns_Friedel_coverage         0.000
_reflns_number_gt                4374
_reflns_number_total             5022
_reflns_threshold_expression     'I > 2\s(I)'
_cod_data_source_file            c4dt03079f2.cif
_cod_data_source_block           j4
_cod_depositor_comments
'Adding full bibliography for 7033325--7033329.cif.'
_cod_database_code               7033328
#BEGIN Tags that were not found in dictionaries:
_shelx_space_group_comment
;
The symmetry employed for this shelxl refinement is uniquely defined
by the following loop, which should always be used as a source of
symmetry information in preference to the above space-group names.
They are only intended as comments.
;
_shelx_estimated_absorpt_t_min   0.394
_shelx_estimated_absorpt_t_max   0.537
_shelxl_version_number           2013-3
_shelx_res_file
;
TITL j4 in P-1 C17H13N3O3MnBr
CELL 0.71073 7.9754 8.7199 12.8037 83.171 84.768 79.192
ZERR 2.00 0.0009 0.0010 0.0015 0.002 0.002 0.002
LATT 1
SFAC C H N O MN BR
UNIT 34 26 6 6 2 2
TEMP 23.000
OMIT -3 60
ACTA
L.S. 14
FMAP 2
PLAN 20
BOND
SIZE 0.37 0.34 0.23
WGHT    0.033800    0.393200
FVAR       0.19394
MN1   5    0.630274    0.284026    0.839531    11.00000    0.03342    0.03022 =
         0.02821   -0.00538   -0.00368   -0.00586
BR1   6    0.755443    0.390347    0.662334    11.00000    0.04018    0.04200 =
         0.03478    0.00108   -0.00345   -0.00771
N1    3    0.345513    0.191898    0.718834    11.00000    0.03238    0.03155 =
         0.03843   -0.00604   -0.00366   -0.00639
N2    3    0.583341    0.026015    0.732443    11.00000    0.03531    0.02776 =
         0.03346   -0.00416   -0.00282   -0.00377
N3    3    0.797818    0.075273    0.822731    11.00000    0.03527    0.03546 =
         0.02984    0.00151   -0.00499   -0.00237
C1    1    0.497231    0.170194    0.760065    11.00000    0.03155    0.02660 =
         0.03153   -0.00317    0.00058   -0.00371
C2    1    0.333166    0.068856    0.660868    11.00000    0.03902    0.03341 =
         0.03574   -0.00416   -0.00263   -0.01280
C3    1    0.203826    0.048310    0.601516    11.00000    0.04402    0.05385 =
         0.05031   -0.00779   -0.00905   -0.01840
AFIX  43
H3A   2    0.102127    0.120446    0.597390    11.00000   -1.20000
AFIX   0
C4    1    0.233144   -0.084310    0.548823    11.00000    0.06250    0.06214 =
         0.05289   -0.01284   -0.01351   -0.03062
AFIX  43
H4A   2    0.149515   -0.102148    0.507946    11.00000   -1.20000
AFIX   0
C5    1    0.384742   -0.191409    0.555628    11.00000    0.07882    0.04360 =
         0.04748   -0.01261   -0.00281   -0.02935
AFIX  43
H5A   2    0.400623   -0.278701    0.518180    11.00000   -1.20000
AFIX   0
C6    1    0.512720   -0.173280    0.615822    11.00000    0.06126    0.03173 =
         0.04265   -0.00799   -0.00061   -0.01207
AFIX  43
H6A   2    0.613028   -0.247110    0.620797    11.00000   -1.20000
AFIX   0
C7    1    0.485270   -0.039431    0.668939    11.00000    0.04307    0.02954 =
         0.03293   -0.00354   -0.00134   -0.01249
C8    1    0.744707   -0.029352    0.770039    11.00000    0.03659    0.03124 =
         0.03177   -0.00011    0.00001   -0.00069
C9    1    0.838311   -0.178186    0.758282    11.00000    0.05284    0.03747 =
         0.05498   -0.01079   -0.00604    0.00562
AFIX  43
H9A   2    0.796478   -0.248701    0.722933    11.00000   -1.20000
AFIX   0
C10   1    0.995484   -0.218052    0.800779    11.00000    0.05572    0.04997 =
         0.06316   -0.00663   -0.00756    0.01854
AFIX  43
H10A  2    1.061264   -0.317049    0.794779    11.00000   -1.20000
AFIX   0
C11   1    0.535073    0.210370    0.964723    11.00000    0.06259    0.04685 =
         0.03985   -0.01460   -0.00169   -0.01456
O1    4    0.474539    0.168477    1.040589    11.00000    0.12374    0.07982 =
         0.05602   -0.00871    0.02383   -0.04743
C12   1    0.779785    0.375679    0.901783    11.00000    0.04854    0.04409 =
         0.04040   -0.00479   -0.00950   -0.01132
O2    4    0.868992    0.437433    0.939262    11.00000    0.08045    0.08483 =
         0.07699   -0.01777   -0.02864   -0.03773
C13   1    0.481652    0.466893    0.841519    11.00000    0.04275    0.04116 =
         0.04536   -0.01506   -0.00568   -0.00621
O3    4    0.391255    0.585271    0.844596    11.00000    0.06023    0.04805 =
         0.09297   -0.03018   -0.01210    0.01313
C14   1    1.054714   -0.110774    0.852135    11.00000    0.04433    0.05873 =
         0.05105    0.00285   -0.01218    0.01019
AFIX  43
H14A  2    1.161703   -0.135531    0.879499    11.00000   -1.20000
AFIX   0
C15   1    0.953555    0.032990    0.862283    11.00000    0.04203    0.05006 =
         0.03769    0.00206   -0.01082   -0.00148
AFIX  43
H15A  2    0.993548    0.104428    0.897799    11.00000   -1.20000
AFIX   0
C16   1    0.211255    0.331803    0.722808    11.00000    0.02927    0.04006 =
         0.05175   -0.00997   -0.00547   -0.00074
AFIX  23
H16A  2    0.218514    0.381034    0.785917    11.00000   -1.20000
H16B  2    0.100020    0.300861    0.726646    11.00000   -1.20000
AFIX   0
C17   1    0.227968    0.447940    0.627598    11.00000    0.05999    0.04335 =
         0.06940    0.00546   -0.00721    0.00073
AFIX  33
H17A  2    0.138558    0.537902    0.632516    11.00000   -1.50000
H17B  2    0.218827    0.400018    0.565112    11.00000   -1.50000
H17C  2    0.337199    0.480115    0.624325    11.00000   -1.50000

AFIX   0
HKLF 4 1 1 0 0 0 1 0 0 0 1

REM  j4 in P-1 C17H13N3O3MnBr
REM R1 =  0.0292 for    4374 Fo > 4sig(Fo)  and  0.0353 for all    5022 data
REM    226 parameters refined using      0 restraints

END

WGHT      0.0332      0.4009

REM Highest difference peak  0.848,  deepest hole -0.409,  1-sigma level  0.058
Q1    1   0.7211  0.2378  0.8423  11.00000  0.05    0.85
Q2    1   0.8195  0.3173  0.6630  11.00000  0.05    0.57
Q3    1   0.7651  0.4109  0.7176  11.00000  0.05    0.56
Q4    1   0.7912  0.4107  0.6057  11.00000  0.05    0.38
Q5    1   0.7339  0.3914  0.5862  11.00000  0.05    0.37
Q6    1   0.4770  0.1694  0.9798  11.00000  0.05    0.31
Q7    1   0.4986  0.3425  0.8417  11.00000  0.05    0.31
Q8    1   0.4095  0.0154  0.6519  11.00000  0.05    0.30
Q9    1   0.6117  0.2992  0.7739  11.00000  0.05    0.30
Q10   1   0.6455  0.2767  0.9086  11.00000  0.05    0.30
Q11   1   0.5779  0.3273  0.7697  11.00000  0.05    0.29
Q12   1   0.6696  0.3826  0.7331  11.00000  0.05    0.29
Q13   1   0.6360  0.3704  0.8312  11.00000  0.05    0.26
Q14   1   0.6065  0.1752  0.9541  11.00000  0.05    0.26
Q15   1   0.6684  0.4094  0.6654  11.00000  0.05    0.26
Q16   1   0.3366  0.1423  0.6797  11.00000  0.05    0.25
Q17   1   0.2071 -0.0333  0.5983  11.00000  0.05    0.25
Q18   1   0.5543  0.1052  0.7422  11.00000  0.05    0.25
Q19   1   0.5520  0.2207  0.9057  11.00000  0.05    0.25
Q20   1   0.5486  0.2463  0.9801  11.00000  0.05    0.25
;
_shelx_res_checksum              41973
#END Tags that were not found in dictionaries
loop_
_space_group_symop_operation_xyz
'x, y, z'
'-x, -y, -z'
loop_
_atom_site_label
_atom_site_type_symbol
_atom_site_fract_x
_atom_site_fract_y
_atom_site_fract_z
_atom_site_U_iso_or_equiv
_atom_site_adp_type
_atom_site_occupancy
_atom_site_site_symmetry_order
_atom_site_calc_flag
_atom_site_refinement_flags_posn
_atom_site_refinement_flags_adp
Mn1 Mn 0.63027(3) 0.28403(3) 0.83953(2) 0.03031(7) Uani 1 1 d . .
Br1 Br 0.75544(2) 0.39035(2) 0.66233(2) 0.03930(7) Uani 1 1 d . .
N1 N 0.3455(2) 0.19190(18) 0.71883(13) 0.0338(3) Uani 1 1 d . .
N2 N 0.5833(2) 0.02602(17) 0.73244(12) 0.0323(3) Uani 1 1 d . .
N3 N 0.7978(2) 0.07527(19) 0.82273(12) 0.0343(3) Uani 1 1 d . .
C1 C 0.4972(2) 0.1702(2) 0.76007(14) 0.0302(3) Uani 1 1 d . .
C2 C 0.3332(2) 0.0689(2) 0.66087(15) 0.0352(4) Uani 1 1 d . .
C3 C 0.2038(3) 0.0483(3) 0.60152(18) 0.0476(5) Uani 1 1 d . .
H3A H 0.1021 0.1204 0.5974 0.057 Uiso 1 1 calc R U
C4 C 0.2331(3) -0.0843(3) 0.5488(2) 0.0555(6) Uani 1 1 d . .
H4A H 0.1495 -0.1021 0.5079 0.067 Uiso 1 1 calc R U
C5 C 0.3847(4) -0.1914(3) 0.55563(19) 0.0537(6) Uani 1 1 d . .
H5A H 0.4006 -0.2787 0.5182 0.064 Uiso 1 1 calc R U
C6 C 0.5127(3) -0.1733(2) 0.61582(17) 0.0446(5) Uani 1 1 d . .
H6A H 0.6130 -0.2471 0.6208 0.053 Uiso 1 1 calc R U
C7 C 0.4853(3) -0.0394(2) 0.66894(15) 0.0345(4) Uani 1 1 d . .
C8 C 0.7447(2) -0.0294(2) 0.77004(14) 0.0343(4) Uani 1 1 d . .
C9 C 0.8383(3) -0.1782(3) 0.75828(19) 0.0496(5) Uani 1 1 d . .
H9A H 0.7965 -0.2487 0.7229 0.060 Uiso 1 1 calc R U
C10 C 0.9955(3) -0.2181(3) 0.8008(2) 0.0597(6) Uani 1 1 d . .
H10A H 1.0613 -0.3170 0.7948 0.072 Uiso 1 1 calc R U
C11 C 0.5351(3) 0.2104(3) 0.96472(18) 0.0484(5) Uani 1 1 d . .
O1 O 0.4745(4) 0.1685(3) 1.04059(17) 0.0845(7) Uani 1 1 d . .
C12 C 0.7798(3) 0.3757(3) 0.90178(17) 0.0435(4) Uani 1 1 d . .
O2 O 0.8690(3) 0.4374(3) 0.93926(17) 0.0755(6) Uani 1 1 d . .
C13 C 0.4817(3) 0.4669(2) 0.84152(17) 0.0422(4) Uani 1 1 d . .
O3 O 0.3913(2) 0.5853(2) 0.84460(18) 0.0678(5) Uani 1 1 d . .
C14 C 1.0547(3) -0.1108(3) 0.8521(2) 0.0541(6) Uani 1 1 d . .
H14A H 1.1617 -0.1355 0.8795 0.065 Uiso 1 1 calc R U
C15 C 0.9536(3) 0.0330(3) 0.86228(17) 0.0442(5) Uani 1 1 d . .
H15A H 0.9935 0.1044 0.8978 0.053 Uiso 1 1 calc R U
C16 C 0.2113(2) 0.3318(2) 0.72281(18) 0.0405(4) Uani 1 1 d . .
H16A H 0.2185 0.3810 0.7859 0.049 Uiso 1 1 calc R U
H16B H 0.1000 0.3009 0.7266 0.049 Uiso 1 1 calc R U
C17 C 0.2280(4) 0.4479(3) 0.6276(2) 0.0596(6) Uani 1 1 d . .
H17A H 0.1386 0.5379 0.6325 0.089 Uiso 1 1 calc R U
H17B H 0.2188 0.4000 0.5651 0.089 Uiso 1 1 calc R U
H17C H 0.3372 0.4801 0.6243 0.089 Uiso 1 1 calc R U
loop_
_atom_site_aniso_label
_atom_site_aniso_U_11
_atom_site_aniso_U_22
_atom_site_aniso_U_33
_atom_site_aniso_U_23
_atom_site_aniso_U_13
_atom_site_aniso_U_12
Mn1 0.03342(14) 0.03022(13) 0.02821(13) -0.00538(10) -0.00368(10) -0.00586(10)
Br1 0.04018(11) 0.04200(11) 0.03478(10) 0.00108(7) -0.00345(7) -0.00771(8)
N1 0.0324(7) 0.0316(7) 0.0384(8) -0.0060(6) -0.0037(6) -0.0064(6)
N2 0.0353(8) 0.0278(7) 0.0335(8) -0.0042(6) -0.0028(6) -0.0038(6)
N3 0.0353(8) 0.0355(8) 0.0298(7) 0.0015(6) -0.0050(6) -0.0024(6)
C1 0.0316(8) 0.0266(8) 0.0315(8) -0.0032(6) 0.0006(6) -0.0037(6)
C2 0.0390(9) 0.0334(9) 0.0357(9) -0.0042(7) -0.0026(7) -0.0128(7)
C3 0.0440(11) 0.0539(13) 0.0503(12) -0.0078(10) -0.0091(9) -0.0184(10)
C4 0.0625(15) 0.0621(15) 0.0529(13) -0.0128(11) -0.0135(11) -0.0306(12)
C5 0.0788(17) 0.0436(12) 0.0475(12) -0.0126(10) -0.0028(11) -0.0293(12)
C6 0.0613(13) 0.0317(9) 0.0427(11) -0.0080(8) -0.0006(9) -0.0121(9)
C7 0.0431(10) 0.0295(8) 0.0329(9) -0.0035(7) -0.0013(7) -0.0125(7)
C8 0.0366(9) 0.0312(9) 0.0318(9) -0.0001(7) 0.0000(7) -0.0007(7)
C9 0.0528(13) 0.0375(11) 0.0550(13) -0.0108(9) -0.0060(10) 0.0056(9)
C10 0.0557(14) 0.0500(13) 0.0632(15) -0.0066(11) -0.0076(12) 0.0185(11)
C11 0.0626(14) 0.0469(12) 0.0399(11) -0.0146(9) -0.0017(10) -0.0146(10)
O1 0.124(2) 0.0798(15) 0.0560(12) -0.0087(10) 0.0238(12) -0.0474(14)
C12 0.0485(11) 0.0441(11) 0.0404(10) -0.0048(8) -0.0095(9) -0.0113(9)
O2 0.0804(14) 0.0848(14) 0.0770(14) -0.0178(11) -0.0286(11) -0.0377(12)
C13 0.0428(10) 0.0412(10) 0.0454(11) -0.0151(9) -0.0057(8) -0.0062(8)
O3 0.0602(11) 0.0481(10) 0.0930(15) -0.0302(10) -0.0121(10) 0.0131(8)
C14 0.0443(12) 0.0587(14) 0.0510(13) 0.0028(11) -0.0122(10) 0.0102(10)
C15 0.0420(11) 0.0501(12) 0.0377(10) 0.0021(9) -0.0108(8) -0.0015(9)
C16 0.0293(9) 0.0401(10) 0.0518(11) -0.0100(8) -0.0055(8) -0.0007(7)
C17 0.0600(15) 0.0434(12) 0.0694(17) 0.0055(11) -0.0072(12) 0.0007(11)
loop_
_atom_type_symbol
_atom_type_description
_atom_type_scat_dispersion_real
_atom_type_scat_dispersion_imag
_atom_type_scat_source
C C 0.0033 0.0016 'International Tables Vol C Tables 4.2.6.8 and 6.1.1.4'
H H 0.0000 0.0000 'International Tables Vol C Tables 4.2.6.8 and 6.1.1.4'
N N 0.0061 0.0033 'International Tables Vol C Tables 4.2.6.8 and 6.1.1.4'
O O 0.0106 0.0060 'International Tables Vol C Tables 4.2.6.8 and 6.1.1.4'
Mn Mn 0.3368 0.7283 'International Tables Vol C Tables 4.2.6.8 and 6.1.1.4'
Br Br -0.2901 2.4595 'International Tables Vol C Tables 4.2.6.8 and 6.1.1.4'
loop_
_geom_angle_atom_site_label_1
_geom_angle_atom_site_label_2
_geom_angle_atom_site_label_3
_geom_angle
C13 Mn1 C11 90.72(11)
C13 Mn1 C12 87.74(10)
C11 Mn1 C12 93.24(10)
C13 Mn1 C1 98.58(8)
C11 Mn1 C1 91.82(9)
C12 Mn1 C1 171.85(9)
C13 Mn1 N3 174.77(8)
C11 Mn1 N3 93.25(9)
C12 Mn1 N3 95.42(8)
C1 Mn1 N3 77.91(7)
C13 Mn1 Br1 88.12(7)
C11 Mn1 Br1 178.40(8)
C12 Mn1 Br1 87.81(7)
C1 Mn1 Br1 87.27(5)
N3 Mn1 Br1 87.85(4)
C1 N1 C2 111.52(15)
C1 N1 C16 126.11(15)
C2 N1 C16 122.12(16)
C1 N2 C8 117.52(15)
C1 N2 C7 110.96(15)
C8 N2 C7 131.52(16)
C8 N3 C15 117.31(17)
C8 N3 Mn1 116.73(12)
C15 N3 Mn1 125.93(14)
N1 C1 N2 105.55(15)
N1 C1 Mn1 139.40(13)
N2 C1 Mn1 114.98(12)
C3 C2 C7 122.22(19)
C3 C2 N1 130.53(19)
C7 C2 N1 107.23(16)
C4 C3 C2 116.8(2)
C3 C4 C5 121.3(2)
C6 C5 C4 122.4(2)
C5 C6 C7 117.0(2)
C6 C7 C2 120.39(19)
C6 C7 N2 134.89(19)
C2 C7 N2 104.67(15)
N3 C8 C9 123.29(19)
N3 C8 N2 112.64(15)
C9 C8 N2 124.03(19)
C10 C9 C8 117.8(2)
C14 C10 C9 119.8(2)
O1 C11 Mn1 178.5(3)
O2 C12 Mn1 177.6(2)
O3 C13 Mn1 177.5(2)
C15 C14 C10 119.0(2)
N3 C15 C14 122.7(2)
N1 C16 C17 111.47(18)
loop_
_geom_bond_atom_site_label_1
_geom_bond_atom_site_label_2
_geom_bond_distance
Mn1 C13 1.801(2)
Mn1 C11 1.810(2)
Mn1 C12 1.838(2)
Mn1 C1 1.9946(18)
Mn1 N3 2.0673(16)
Mn1 Br1 2.5372(4)
N1 C1 1.336(2)
N1 C2 1.398(2)
N1 C16 1.467(2)
N2 C1 1.384(2)
N2 C8 1.395(2)
N2 C7 1.411(2)
N3 C8 1.345(3)
N3 C15 1.354(3)
C2 C3 1.385(3)
C2 C7 1.394(3)
C3 C4 1.379(3)
C4 C5 1.385(4)
C5 C6 1.376(3)
C6 C7 1.392(3)
C8 C9 1.388(3)
C9 C10 1.380(3)
C10 C14 1.378(4)
C11 O1 1.098(3)
C12 O2 1.137(3)
C13 O3 1.146(3)
C14 C15 1.371(3)
C16 C17 1.502(3)
