#------------------------------------------------------------------------------
#$Date: 2016-03-25 23:26:29 +0200 (Fri, 25 Mar 2016) $
#$Revision: 180039 $
#$URL: svn://www.crystallography.net/cod/cif/7/03/33/7033351.cif $
#------------------------------------------------------------------------------
#
# This file is available in the Crystallography Open Database (COD),
# http://www.crystallography.net/
#
# All data on this site have been placed in the public domain by the
# contributors.
#
data_7033351
loop_
_publ_author_name
'Basu Baul, Tushar S.'
'Kundu, Sajal'
'Singh, Palwinder'
'Shaveta, ?'
'Guedes da Silva, M F\'atima C'
_publ_section_title
;
 Insight into inhibition of the human amyloid beta protein precursor (APP:
 PDB ID ) using (E)-N-(pyridin-2-ylmethylene)arylamine (LR) models:
 structure elucidation of a family of ZnX2-LR complexes.
;
_journal_issue                   5
_journal_name_full
'Dalton transactions (Cambridge, England : 2003)'
_journal_page_first              2359
_journal_page_last               2369
_journal_paper_doi               10.1039/c4dt03151b
_journal_volume                  44
_journal_year                    2015
_chemical_formula_moiety         'C13 H12 Br2 N2 Zn'
_chemical_formula_sum            'C13 H12 Br2 N2 Zn'
_chemical_formula_weight         421.44
_chemical_melting_point          543
_chemical_name_systematic
; 
 ? 
;
_space_group_IT_number           2
_symmetry_cell_setting           triclinic
_symmetry_Int_Tables_number      2
_symmetry_space_group_name_Hall  '-P 1'
_symmetry_space_group_name_H-M   'P -1'
_atom_sites_solution_hydrogens   geom
_atom_sites_solution_primary     direct
_atom_sites_solution_secondary   difmap
_audit_creation_date             6-Dec-2011
_audit_creation_method           SHELXL-97
_audit_update_record
;
2014-09-12 deposited with the CCDC.
2014-12-05 downloaded from the CCDC.
;
_cell_angle_alpha                85.182(2)
_cell_angle_beta                 89.651(2)
_cell_angle_gamma                63.742(3)
_cell_formula_units_Z            2
_cell_length_a                   7.51887(19)
_cell_length_b                   7.57304(18)
_cell_length_c                   14.0522(4)
_cell_measurement_reflns_used    9717
_cell_measurement_temperature    160(1)
_cell_measurement_theta_max      30.4112
_cell_measurement_theta_min      2.9053
_cell_volume                     714.61(4)
_computing_cell_refinement
'CrysAlisPro, Version 1.171.35.19 (Agilent Technologies, 2011)'
_computing_data_collection
'CrysAlisPro, Version 1.171.35.19 (Agilent Technologies, 2011)'
_computing_data_reduction
'CrysAlisPro, Version 1.171.35.19 (Agilent Technologies, 2011)'
_computing_molecular_graphics    'ORTEPII (Johnson, 1976)'
_computing_publication_material  'SHELXL97 and PLATON (Spek, 2009)'
_computing_structure_refinement  'SHELXL97 (Sheldrick, 2008)'
_computing_structure_solution    'SHELXS97 (Sheldrick, 2008)'
_diffrn_ambient_temperature      160(1)
_diffrn_detector                 'Atlas CCD camera on \k goniostat'
_diffrn_detector_area_resol_mean 10.3801
_diffrn_measured_fraction_theta_full 1.000
_diffrn_measured_fraction_theta_max 0.916
_diffrn_measurement_device_type
'Oxford Diffraction SuperNova, dual radiation diffractometer'
_diffrn_measurement_method       '\w scans'
_diffrn_radiation_monochromator  mirror
_diffrn_radiation_source         'SuperNova (Mo) X-ray Source'
_diffrn_radiation_type           'Mo K\a'
_diffrn_radiation_wavelength     0.71073
_diffrn_reflns_av_R_equivalents  0.0327
_diffrn_reflns_av_sigmaI/netI    0.0281
_diffrn_reflns_limit_h_max       9
_diffrn_reflns_limit_h_min       -10
_diffrn_reflns_limit_k_max       10
_diffrn_reflns_limit_k_min       -10
_diffrn_reflns_limit_l_max       19
_diffrn_reflns_limit_l_min       -19
_diffrn_reflns_number            17815
_diffrn_reflns_theta_full        27.50
_diffrn_reflns_theta_max         30.48
_diffrn_reflns_theta_min         2.91
_diffrn_standards_decay_%        0
_diffrn_standards_number         0
_exptl_absorpt_coefficient_mu    7.310
_exptl_absorpt_correction_T_max  1.00000
_exptl_absorpt_correction_T_min  0.59889
_exptl_absorpt_correction_type   multi-scan
_exptl_absorpt_process_details
;
Empirical absorption correction using spherical harmonics,
 implemented in SCALE3 ABSPACK scaling algorithm.
CrysAlisPro, Version 1.171.35.19 (Agilent Technologies, 2011)
;
_exptl_crystal_colour            yellow
_exptl_crystal_density_diffrn    1.958
_exptl_crystal_density_method    'not measured'
_exptl_crystal_description       prism
_exptl_crystal_F_000             408
_exptl_crystal_recrystallization_method
'Re-crystallisation from solvent: MeCN'
_exptl_crystal_size_max          0.26
_exptl_crystal_size_mid          0.20
_exptl_crystal_size_min          0.08
_refine_diff_density_max         0.555
_refine_diff_density_min         -0.567
_refine_diff_density_rms         0.085
_refine_ls_extinction_method     none
_refine_ls_goodness_of_fit_ref   1.037
_refine_ls_hydrogen_treatment    constr
_refine_ls_matrix_type           full
_refine_ls_number_parameters     164
_refine_ls_number_reflns         3985
_refine_ls_number_restraints     0
_refine_ls_restrained_S_all      1.037
_refine_ls_R_factor_all          0.0335
_refine_ls_R_factor_gt           0.0253
_refine_ls_shift/su_max          0.001
_refine_ls_shift/su_mean         0.000
_refine_ls_structure_factor_coef Fsqd
_refine_ls_weighting_details
'w=1/[\s^2^(Fo^2^)+(0.0210P)^2^+0.3650P] where P=(Fo^2^+2Fc^2^)/3'
_refine_ls_weighting_scheme      calc
_refine_ls_wR_factor_gt          0.0516
_refine_ls_wR_factor_ref         0.0549
_reflns_number_gt                3432
_reflns_number_total             3985
_reflns_threshold_expression     'I > 2\s(I)'
_iucr_refine_instructions_details
;
TITL L1115_Mo in P-1
CELL 0.71073 7.51887 7.57304 14.05223 85.1818 89.6509 63.7422
ZERR 2 0.00019 0.00018 0.00037 0.0021 0.0021 0.0025
LATT 1
SFAC C H Br N Zn
UNIT 26 24 4 4 2
L.S. 5
PLAN  15
TEMP -113
BOND $H
CONF
fmap 2
acta
WGHT    0.021000    0.365000
FVAR       6.42820
BR1   3    0.225088    0.390711    0.242510    11.00000    0.02213    0.02483 =
         0.02889   -0.00083    0.00044   -0.00670
BR2   3    0.617240    0.584794    0.313858    11.00000    0.04435    0.02619 =
         0.03580   -0.00898    0.00396   -0.01887
ZN1   5    0.554133    0.317013    0.282001    11.00000    0.02286    0.01665 =
         0.02324   -0.00186    0.00062   -0.00555
N1    4    0.683567    0.106627    0.396241    11.00000    0.02398    0.02073 =
         0.02091   -0.00108   -0.00061   -0.00913
N2    4    0.743056    0.079002    0.207806    11.00000    0.01962    0.02027 =
         0.02275   -0.00243    0.00290   -0.00814
C1    1    0.823450   -0.064555    0.368375    11.00000    0.02461    0.01901 =
         0.02531   -0.00061   -0.00248   -0.01043
C2    1    0.939048   -0.221110    0.433661    11.00000    0.03045    0.02113 =
         0.03192    0.00226   -0.00405   -0.01026
AFIX  43
H2    2    1.037562   -0.340269    0.412487    11.00000   -1.20000
AFIX   0
C3    1    0.908950   -0.201376    0.529955    11.00000    0.03699    0.02941 =
         0.03088    0.00903   -0.00914   -0.01967
AFIX  43
H3    2    0.986307   -0.306810    0.576069    11.00000   -1.20000
AFIX   0
C4    1    0.764247   -0.025516    0.558329    11.00000    0.03972    0.03591 =
         0.02292    0.00033    0.00013   -0.02350
AFIX  43
H4    2    0.740045   -0.008799    0.624174    11.00000   -1.20000
AFIX   0
C5    1    0.655673    0.125196    0.489328    11.00000    0.03309    0.02736 =
         0.02573   -0.00307    0.00263   -0.01487
AFIX  43
H5    2    0.557661    0.246357    0.508924    11.00000   -1.20000
AFIX   0
C6    1    0.843192   -0.074589    0.264918    11.00000    0.02146    0.02016 =
         0.02598   -0.00442    0.00170   -0.00688
AFIX  43
H6    2    0.930247   -0.194993    0.240230    11.00000   -1.20000
AFIX   0
C7    1    0.747580    0.058109    0.107248    11.00000    0.01517    0.02460 =
         0.02377   -0.00187    0.00135   -0.00426
C8    1    0.745614   -0.110553    0.074755    11.00000    0.02886    0.02963 =
         0.02562   -0.00250    0.00279   -0.01532
AFIX  43
H8    2    0.744163   -0.211724    0.119095    11.00000   -1.20000
AFIX   0
C9    1    0.745796   -0.129241   -0.022259    11.00000    0.03795    0.03593 =
         0.03147   -0.00807    0.00322   -0.01993
AFIX  43
H9    2    0.744237   -0.243234   -0.044968    11.00000   -1.20000
AFIX   0
C10   1    0.748253    0.018527   -0.085915    11.00000    0.02770    0.03747 =
         0.02586   -0.00134    0.00281   -0.01191
AFIX  43
H10   2    0.748586    0.005474   -0.152574    11.00000   -1.20000
AFIX   0
C11   1    0.750224    0.184379   -0.054114    11.00000    0.02402    0.02856 =
         0.03027    0.00362    0.00400   -0.00678
AFIX  43
H11   2    0.752711    0.284102   -0.099102    11.00000   -1.20000
AFIX   0
C12   1    0.748620    0.208512    0.043620    11.00000    0.02121    0.02333 =
         0.03052   -0.00070    0.00346   -0.00507
C13   1    0.756194    0.387207    0.076714    11.00000    0.05437    0.02312 =
         0.03806   -0.00112    0.01150   -0.01228
AFIX 137
H131  2    0.626334    0.474810    0.100040    11.00000   -1.50000
H132  2    0.790305    0.457291    0.023382    11.00000   -1.50000
H133  2    0.856918    0.346920    0.128461    11.00000   -1.50000
HKLF 4
 
REM  L1115_Mo in P-1
REM R1 =  0.0253 for   3432 Fo > 4sig(Fo)  and  0.0335 for all   3985 data
REM    164 parameters refined using      0 restraints
 
END  
     
WGHT      0.0210      0.3650 
REM Highest difference peak  0.555,  deepest hole -0.567,  1-sigma level  0.085
Q1    1   0.4998  0.6527  0.2887  11.00000  0.05    0.55
Q2    1   0.7399  0.2983  0.0640  11.00000  0.05    0.51
Q3    1   0.5143  0.5774  0.3205  11.00000  0.05    0.46
Q4    1   0.5608  0.2204  0.3285  11.00000  0.05    0.43
Q5    1   0.2232  0.5002  0.1964  11.00000  0.05    0.42
Q6    1   0.6734  0.2525  0.3212  11.00000  0.05    0.40
Q7    1   0.7834  0.0654 -0.0465  11.00000  0.05    0.39
Q8    1   0.8432 -0.1622  0.4030  11.00000  0.05    0.39
Q9    1   0.2814  0.3981  0.2920  11.00000  0.05    0.38
Q10   1   0.8614 -0.0601  0.3173  11.00000  0.05    0.38
Q11   1   0.7838  0.0240  0.3867  11.00000  0.05    0.37
Q12   1   0.1205  0.4455  0.2131  11.00000  0.05    0.37
Q13   1   0.9329 -0.1848  0.4794  11.00000  0.05    0.36
Q14   1   0.7056  0.1469  0.4395  11.00000  0.05    0.36
Q15   1   0.6541  0.5547  0.2965  11.00000  0.05    0.35
;
_cod_data_source_file            c4dt03151b2.cif
_cod_data_source_block           1
_cod_depositor_comments
'Adding full bibliography for 7033351--7033355.cif.'
_cod_original_cell_volume        714.61(3)
_cod_database_code               7033351
loop_
_symmetry_equiv_pos_as_xyz
'x, y, z'
'-x, -y, -z'
loop_
_atom_site_label
_atom_site_type_symbol
_atom_site_fract_x
_atom_site_fract_y
_atom_site_fract_z
_atom_site_U_iso_or_equiv
_atom_site_adp_type
_atom_site_occupancy
_atom_site_symmetry_multiplicity
_atom_site_calc_flag
_atom_site_refinement_flags
Br1 Br 0.22509(3) 0.39071(3) 0.242510(16) 0.02675(6) Uani 1 1 d .
Br2 Br 0.61724(4) 0.58479(3) 0.313858(18) 0.03388(7) Uani 1 1 d .
Zn1 Zn 0.55413(3) 0.31701(3) 0.282001(17) 0.02210(7) Uani 1 1 d .
N1 N 0.6836(2) 0.1066(2) 0.39624(12) 0.0222(4) Uani 1 1 d .
N2 N 0.7431(2) 0.0790(2) 0.20781(12) 0.0211(4) Uani 1 1 d .
C1 C 0.8235(3) -0.0646(3) 0.36837(15) 0.0228(4) Uani 1 1 d .
C2 C 0.9390(3) -0.2211(3) 0.43366(17) 0.0285(5) Uani 1 1 d .
H2 H 1.0376 -0.3403 0.4125 0.034 Uiso 1 1 calc R
C3 C 0.9090(4) -0.2014(3) 0.52995(17) 0.0313(5) Uani 1 1 d .
H3 H 0.9863 -0.3068 0.5761 0.038 Uiso 1 1 calc R
C4 C 0.7642(3) -0.0255(3) 0.55833(17) 0.0306(5) Uani 1 1 d .
H4 H 0.7400 -0.0088 0.6242 0.037 Uiso 1 1 calc R
C5 C 0.6557(3) 0.1252(3) 0.48933(16) 0.0282(5) Uani 1 1 d .
H5 H 0.5577 0.2464 0.5089 0.034 Uiso 1 1 calc R
C6 C 0.8432(3) -0.0746(3) 0.26492(15) 0.0233(4) Uani 1 1 d .
H6 H 0.9302 -0.1950 0.2402 0.028 Uiso 1 1 calc R
C7 C 0.7476(3) 0.0581(3) 0.10725(15) 0.0229(4) Uani 1 1 d .
C8 C 0.7456(3) -0.1106(3) 0.07475(16) 0.0272(5) Uani 1 1 d .
H8 H 0.7442 -0.2117 0.1191 0.033 Uiso 1 1 calc R
C9 C 0.7458(4) -0.1292(4) -0.02226(17) 0.0335(5) Uani 1 1 d .
H9 H 0.7442 -0.2432 -0.0450 0.040 Uiso 1 1 calc R
C10 C 0.7483(3) 0.0185(3) -0.08591(17) 0.0314(5) Uani 1 1 d .
H10 H 0.7486 0.0055 -0.1526 0.038 Uiso 1 1 calc R
C11 C 0.7502(3) 0.1844(3) -0.05411(17) 0.0298(5) Uani 1 1 d .
H11 H 0.7527 0.2841 -0.0991 0.036 Uiso 1 1 calc R
C12 C 0.7486(3) 0.2085(3) 0.04362(17) 0.0269(5) Uani 1 1 d .
C13 C 0.7562(4) 0.3872(3) 0.07671(19) 0.0405(6) Uani 1 1 d .
H131 H 0.6263 0.4748 0.1000 0.061 Uiso 1 1 calc R
H132 H 0.7903 0.4573 0.0234 0.061 Uiso 1 1 calc R
H133 H 0.8569 0.3469 0.1285 0.061 Uiso 1 1 calc R
loop_
_atom_site_aniso_label
_atom_site_aniso_U_11
_atom_site_aniso_U_22
_atom_site_aniso_U_33
_atom_site_aniso_U_23
_atom_site_aniso_U_13
_atom_site_aniso_U_12
Br1 0.02213(11) 0.02483(11) 0.02889(12) -0.00083(9) 0.00044(8) -0.00670(8)
Br2 0.04435(14) 0.02619(12) 0.03580(14) -0.00898(10) 0.00396(10) -0.01887(10)
Zn1 0.02286(12) 0.01665(12) 0.02324(13) -0.00186(9) 0.00062(9) -0.00555(9)
N1 0.0240(9) 0.0207(9) 0.0209(9) -0.0011(7) -0.0006(7) -0.0091(7)
N2 0.0196(8) 0.0203(8) 0.0228(9) -0.0024(7) 0.0029(7) -0.0081(7)
C1 0.0246(10) 0.0190(10) 0.0253(11) -0.0006(8) -0.0025(8) -0.0104(8)
C2 0.0304(11) 0.0211(10) 0.0319(12) 0.0023(9) -0.0041(9) -0.0103(9)
C3 0.0370(12) 0.0294(12) 0.0309(13) 0.0090(10) -0.0091(10) -0.0197(10)
C4 0.0397(13) 0.0359(13) 0.0229(11) 0.0003(9) 0.0001(9) -0.0235(11)
C5 0.0331(12) 0.0274(11) 0.0257(12) -0.0031(9) 0.0026(9) -0.0149(9)
C6 0.0215(10) 0.0202(10) 0.0260(11) -0.0044(8) 0.0017(8) -0.0069(8)
C7 0.0152(9) 0.0246(10) 0.0238(11) -0.0019(8) 0.0013(8) -0.0043(8)
C8 0.0289(11) 0.0296(11) 0.0256(11) -0.0025(9) 0.0028(9) -0.0153(9)
C9 0.0380(13) 0.0359(13) 0.0315(13) -0.0081(10) 0.0032(10) -0.0199(11)
C10 0.0277(11) 0.0375(13) 0.0259(12) -0.0013(10) 0.0028(9) -0.0119(10)
C11 0.0240(11) 0.0286(12) 0.0303(12) 0.0036(9) 0.0040(9) -0.0068(9)
C12 0.0212(10) 0.0233(10) 0.0305(12) -0.0007(9) 0.0035(9) -0.0051(8)
C13 0.0544(16) 0.0231(12) 0.0381(15) -0.0011(10) 0.0115(12) -0.0123(11)
loop_
_atom_type_symbol
_atom_type_description
_atom_type_number_in_cell
_atom_type_scat_dispersion_real
_atom_type_scat_dispersion_imag
_atom_type_scat_source
C C 26 0.0033 0.0016
; International Tables for Crystallography (1992). 
Vol. C, Tables 4.2.6.8 and 6.1.1.4
;
H H 24 0.0000 0.0000
; International Tables for Crystallography (1992). 
Vol. C, Tables 4.2.6.8 and 6.1.1.4
;
Br Br 4 -0.2901 2.4595
; International Tables for Crystallography (1992). 
Vol. C, Tables 4.2.6.8 and 6.1.1.4
;
N N 4 0.0061 0.0033
; International Tables for Crystallography (1992). 
Vol. C, Tables 4.2.6.8 and 6.1.1.4
;
Zn Zn 2 0.2839 1.4301
; International Tables for Crystallography (1992). 
Vol. C, Tables 4.2.6.8 and 6.1.1.4
;
loop_
_geom_angle_atom_site_label_1
_geom_angle_atom_site_label_2
_geom_angle_atom_site_label_3
_geom_angle
N1 Zn1 N2 80.60(7)
N1 Zn1 Br1 115.45(5)
N2 Zn1 Br1 108.70(5)
N1 Zn1 Br2 105.37(5)
N2 Zn1 Br2 124.55(5)
Br1 Zn1 Br2 116.670(12)
C5 N1 C1 118.90(18)
C5 N1 Zn1 128.85(14)
C1 N1 Zn1 112.06(14)
C6 N2 C7 118.42(17)
C6 N2 Zn1 111.45(14)
C7 N2 Zn1 129.15(13)
N1 C1 C2 121.9(2)
N1 C1 C6 115.66(18)
C2 C1 C6 122.48(19)
C3 C2 C1 119.0(2)
C3 C2 H2 120.5
C1 C2 H2 120.5
C2 C3 C4 119.0(2)
C2 C3 H3 120.5
C4 C3 H3 120.5
C5 C4 C3 118.9(2)
C5 C4 H4 120.5
C3 C4 H4 120.5
N1 C5 C4 122.3(2)
N1 C5 H5 118.8
C4 C5 H5 118.8
N2 C6 C1 119.97(18)
N2 C6 H6 120.0
C1 C6 H6 120.0
C12 C7 C8 121.2(2)
C12 C7 N2 119.33(19)
C8 C7 N2 119.48(19)
C9 C8 C7 119.6(2)
C9 C8 H8 120.2
C7 C8 H8 120.2
C10 C9 C8 119.6(2)
C10 C9 H9 120.2
C8 C9 H9 120.2
C11 C10 C9 120.8(2)
C11 C10 H10 119.6
C9 C10 H10 119.6
C10 C11 C12 121.0(2)
C10 C11 H11 119.5
C12 C11 H11 119.5
C7 C12 C11 117.8(2)
C7 C12 C13 122.1(2)
C11 C12 C13 120.1(2)
C12 C13 H131 109.5
C12 C13 H132 109.5
H131 C13 H132 109.5
C12 C13 H133 109.5
H131 C13 H133 109.5
H132 C13 H133 109.5
loop_
_geom_bond_atom_site_label_1
_geom_bond_atom_site_label_2
_geom_bond_distance
Br1 Zn1 2.3416(3)
Br2 Zn1 2.3547(3)
Zn1 N1 2.0688(17)
Zn1 N2 2.0942(16)
N1 C5 1.333(3)
N1 C1 1.347(3)
N2 C6 1.280(3)
N2 C7 1.434(3)
C1 C2 1.385(3)
C1 C6 1.465(3)
C2 C3 1.380(3)
C2 H2 0.9500
C3 C4 1.385(3)
C3 H3 0.9500
C4 C5 1.382(3)
C4 H4 0.9500
C5 H5 0.9500
C6 H6 0.9500
C7 C12 1.391(3)
C7 C8 1.398(3)
C8 C9 1.382(3)
C8 H8 0.9500
C9 C10 1.379(3)
C9 H9 0.9500
C10 C11 1.374(3)
C10 H10 0.9500
C11 C12 1.400(3)
C11 H11 0.9500
C12 C13 1.492(3)
C13 H131 0.9800
C13 H132 0.9800
C13 H133 0.9800
loop_
_geom_torsion_atom_site_label_1
_geom_torsion_atom_site_label_2
_geom_torsion_atom_site_label_3
_geom_torsion_atom_site_label_4
_geom_torsion
N2 Zn1 N1 C5 178.0(2)
Br1 Zn1 N1 C5 -75.68(19)
Br2 Zn1 N1 C5 54.58(19)
N2 Zn1 N1 C1 3.07(14)
Br1 Zn1 N1 C1 109.39(13)
Br2 Zn1 N1 C1 -120.34(13)
N1 Zn1 N2 C6 -0.05(14)
Br1 Zn1 N2 C6 -113.87(14)
Br2 Zn1 N2 C6 102.20(14)
N1 Zn1 N2 C7 168.23(18)
Br1 Zn1 N2 C7 54.41(18)
Br2 Zn1 N2 C7 -89.52(17)
C5 N1 C1 C2 -0.2(3)
Zn1 N1 C1 C2 175.32(17)
C5 N1 C1 C6 179.14(19)
Zn1 N1 C1 C6 -5.4(2)
N1 C1 C2 C3 0.4(3)
C6 C1 C2 C3 -178.8(2)
C1 C2 C3 C4 -0.1(3)
C2 C3 C4 C5 -0.5(3)
C1 N1 C5 C4 -0.5(3)
Zn1 N1 C5 C4 -175.10(16)
C3 C4 C5 N1 0.8(3)
C7 N2 C6 C1 -172.60(18)
Zn1 N2 C6 C1 -2.9(2)
N1 C1 C6 N2 5.8(3)
C2 C1 C6 N2 -174.9(2)
C6 N2 C7 C12 -142.7(2)
Zn1 N2 C7 C12 49.7(3)
C6 N2 C7 C8 39.0(3)
Zn1 N2 C7 C8 -128.62(18)
C12 C7 C8 C9 0.4(3)
N2 C7 C8 C9 178.66(19)
C7 C8 C9 C10 0.1(3)
C8 C9 C10 C11 -0.1(4)
C9 C10 C11 C12 -0.4(3)
C8 C7 C12 C11 -0.8(3)
N2 C7 C12 C11 -179.11(18)
C8 C7 C12 C13 -178.3(2)
N2 C7 C12 C13 3.4(3)
C10 C11 C12 C7 0.8(3)
C10 C11 C12 C13 178.4(2)
