#------------------------------------------------------------------------------
#$Date: 2016-02-16 03:10:39 +0200 (Tue, 16 Feb 2016) $
#$Revision: 176453 $
#$URL: svn://www.crystallography.net/cod/cif/7/03/45/7034571.cif $
#------------------------------------------------------------------------------
#
# This file is available in the Crystallography Open Database (COD),
# http://www.crystallography.net/
#
# All data on this site have been placed in the public domain by the
# contributors.
#
data_7034571
loop_
_publ_author_name
'Suresh, Paladugu'
'Naga Babu, Chatla'
'Sampath, Natarajan'
'Prabusankar, Ganesan'
_publ_section_title
;
 Photoluminescent calcium azolium carboxylates with diversified calcium
 coordination geometry and thermal stability.
;
_journal_issue                   16
_journal_name_full
'Dalton transactions (Cambridge, England : 2003)'
_journal_page_first              7338
_journal_page_last               7346
_journal_paper_doi               10.1039/c5dt00480b
_journal_volume                  44
_journal_year                    2015
_chemical_formula_sum            'C13 H13 Br0.5 Ca0.5 N2 O3'
_chemical_formula_weight         305.25
_chemical_name_systematic        4
_space_group_crystal_system      triclinic
_space_group_IT_number           2
_space_group_name_Hall           '-P 1'
_space_group_name_H-M_alt        'P -1'
_symmetry_space_group_name_Hall  '-P 1'
_symmetry_space_group_name_H-M   'P -1'
_atom_sites_solution_hydrogens   mixed
_audit_creation_method           SHELXL-2014/7
_audit_update_record
;
2015-02-23 deposited with the CCDC.
2015-03-04 downloaded from the CCDC.
;
_cell_angle_alpha                76.891(18)
_cell_angle_beta                 84.108(19)
_cell_angle_gamma                85.173(19)
_cell_formula_units_Z            2
_cell_length_a                   4.6746(12)
_cell_length_b                   11.632(3)
_cell_length_c                   13.537(3)
_cell_measurement_reflns_used    4503
_cell_measurement_temperature    150
_cell_measurement_theta_max      71.07
_cell_measurement_theta_min      3.36
_cell_volume                     711.7(3)
_computing_cell_refinement
;
CrysAlisPro, Oxford Diffraction Ltd.,
Version 1.171.33.55
;
_computing_data_collection
;
CrysAlisPro, Oxford Diffraction Ltd.,
Version 1.171.33.55
;
_computing_data_reduction
;
CrysAlisPro, Oxford Diffraction Ltd.,
Version 1.171.33.55
;
_computing_molecular_graphics    'Olex2 (Dolomanov et al., 2009)'
_computing_publication_material  'Olex2 (Dolomanov et al., 2009)'
_computing_structure_refinement  'olex2.refine (Bourhis et al., 2015)'
_computing_structure_solution    'SHELXS-97 (Sheldrick, 1990)'
_diffrn_ambient_temperature      150
_diffrn_measured_fraction_theta_full 0.961
_diffrn_measured_fraction_theta_max 0.933
_diffrn_measurement_device_type
;
Goniometer Xcalibur, detector: Ruby
Oxford Diffraction (2007). Oxford Diffraction Ltd.,
Xcalibur CCD system
;
_diffrn_measurement_method       'w\ scan'
_diffrn_radiation_type           CuK\a
_diffrn_radiation_wavelength     1.54184
_diffrn_reflns_av_R_equivalents  0
_diffrn_reflns_av_unetI/netI     0.1155
_diffrn_reflns_Laue_measured_fraction_full 0.961
_diffrn_reflns_Laue_measured_fraction_max 0.933
_diffrn_reflns_limit_h_max       5
_diffrn_reflns_limit_h_min       -4
_diffrn_reflns_limit_k_max       14
_diffrn_reflns_limit_k_min       -14
_diffrn_reflns_limit_l_max       16
_diffrn_reflns_limit_l_min       -15
_diffrn_reflns_number            2562
_diffrn_reflns_point_group_measured_fraction_full 0.961
_diffrn_reflns_point_group_measured_fraction_max 0.933
_diffrn_reflns_theta_full        67.700
_diffrn_reflns_theta_max         71.067
_diffrn_reflns_theta_min         3.365
_diffrn_source                   'fine-focus sealed tube'
_exptl_absorpt_coefficient_mu    3.930
_exptl_absorpt_correction_T_max  0.2366
_exptl_absorpt_correction_T_min  0.0357
_exptl_absorpt_correction_type   refdelf
_exptl_absorpt_process_details
;
Parkin S,Moezzi B & Hope H, (1995) 
J. Appl. Cryst. 28, 53-56.
;
_exptl_crystal_colour            Yellow
_exptl_crystal_density_diffrn    1.424
_exptl_crystal_description       Rectangle
_exptl_crystal_F_000             313
_exptl_crystal_size_max          0.28
_exptl_crystal_size_mid          0.20
_exptl_crystal_size_min          0.16
_refine_diff_density_max         1.018
_refine_diff_density_min         -0.974
_refine_diff_density_rms         0.133
_refine_ls_extinction_method     none
_refine_ls_goodness_of_fit_ref   1.027
_refine_ls_hydrogen_treatment    constr
_refine_ls_matrix_type           full
_refine_ls_number_parameters     176
_refine_ls_number_reflns         2562
_refine_ls_number_restraints     0
_refine_ls_restrained_S_all      1.027
_refine_ls_R_factor_all          0.0954
_refine_ls_R_factor_gt           0.0787
_refine_ls_shift/su_max          0.000
_refine_ls_shift/su_mean         0.000
_refine_ls_structure_factor_coef Fsqd
_refine_ls_weighting_details
'w=1/[\s^2^(Fo^2^)+(0.1223P)^2^] where P=(Fo^2^+2Fc^2^)/3'
_refine_ls_weighting_scheme      calc
_refine_ls_wR_factor_gt          0.1897
_refine_ls_wR_factor_ref         0.2054
_reflns_Friedel_coverage         0.000
_reflns_number_gt                1964
_reflns_number_total             2562
_reflns_threshold_expression     'I > 2\s(I)'
_cod_data_source_file            c5dt00480b2.cif
_cod_data_source_block           exp_4
_cod_depositor_comments
'Adding full bibliography for 7034568--7034573.cif.'
_cod_original_formula_sum        'C13 H13 Br0.50 Ca0.50 N2 O3'
_cod_database_code               7034571
#BEGIN Tags that were not found in dictionaries:
_shelx_shelxl_version_number     2014/7
_shelx_space_group_comment
;
The symmetry employed for this shelxl refinement is uniquely defined
by the following loop, which should always be used as a source of
symmetry information in preference to the above space-group names.
They are only intended as comments.
;
_shelx_res_file
;

    exp_1701.res created by SHELXL-2014/7

TITL CF solution in P-1
CELL 1.54184 4.6746 11.6317 13.5372 76.891 84.108 85.173
ZERR 2 0.0012 0.0025 0.0028 0.018 0.019 0.019
LATT 1
SFAC C H Br Ca N O
UNIT 26 26 1 1 4 6

L.S. 20
PLAN  10
BOND $H
BOND
MORE -1
CONF
fmap 2
acta 135.4
MERG 2
OMIT 5 4 8
OMIT -1 0 5
OMIT 4 2 12
OMIT 5 5 7
OMIT -3 -4 11
OMIT -4 1 10
OMIT 4 2 11
OMIT 4 2 10
OMIT 5 6 6
OMIT 5 5 8
OMIT 4 4 9
OMIT 0 -2 2
OMIT 0 1 0
OMIT -2 6 9
OMIT -3 2 7
OMIT 1 3 4
OMIT 4 0 10
OMIT -1 3 2
OMIT -1 -12 4
OMIT 1 2 4
OMIT 0 0 10
OMIT -1 13 8
OMIT 0 2 3
OMIT 0 8 14
OMIT -4 -2 9
OMIT -2 11 10
OMIT -3 7 1
OMIT -2 5 1
OMIT -1 -13 2
OMIT -1 9 3
OMIT 0 -7 1
OMIT -4 -5 7
OMIT 2 -1 14
OMIT 1 -1 6
OMIT 3 -10 3
OMIT 0 5 10
OMIT 1 -4 3
OMIT 2 0 11
OMIT 5 4 6
OMIT -1 -1 1
OMIT 1 5 16
OMIT -1 9 6
OMIT 0 1 14
OMIT 0 10 12
OMIT 1 8 14
OMIT -2 7 1
OMIT -2 12 8
OMIT 1 -4 5
OMIT -1 3 3
OMIT 0 4 5
OMIT 1 0 0
OMIT -2 -5 12
OMIT 5 2 6
OMIT 4 4 8
OMIT 4 1 8
OMIT 4 2 8
OMIT -1 -1 2
OMIT 4 5 8
OMIT 1 0 1
OMIT -1 2 0
OMIT 4 0 9
OMIT 4 3 8
OMIT -2 -6 11
OMIT 5 2 9
OMIT 0 2 0
OMIT 4 3 9
OMIT 0 -2 1
OMIT 5 4 7
OMIT -1 1 0
OMIT 5 7 6
OMIT 1 -1 1
OMIT 0 -1 9
OMIT 4 5 12
OMIT 2 -9 2
OMIT 0 3 0
OMIT -1 -2 1
OMIT 4 4 10
OMIT 4 3 10
OMIT 0 8 4
OMIT 0 2 2
OMIT 0 -2 13
OMIT 5 3 6
OMIT 0 -1 1
OMIT 0 2 1
OMIT 5 3 7
OMIT -2 4 2
OMIT -1 13 7
OMIT 4 6 12
OMIT 1 8 3
OMIT 4 4 12
OMIT 4 5 10
OMIT 0 -13 3
OMIT 0 6 3
OMIT 0 -1 3
OMIT 5 7 5
OMIT 0 -1 14
OMIT 1 6 14
OMIT 2 0 14
OMIT 0 0 2
OMIT -2 4 13
REM <olex2.extras>
REM <HklSrc "%.\\exp_1701.hkl">
REM </olex2.extras>

WGHT    0.122300
FVAR      11.05694
BR1   3    0.500000    0.500000    0.500000    10.50000    0.07341    0.03451 =
         0.03346   -0.00482   -0.01764    0.00125
CA1   4    0.500000    0.500000    0.000000    10.50000    0.08494    0.06067 =
         0.04208   -0.03028   -0.02659    0.01637
O1    6    0.200164    0.561226    0.127405    11.00000    0.06959    0.09920 =
         0.04892   -0.02719   -0.00687   -0.00610
O2    6    0.838075    0.450933    0.120786    11.00000    0.08275    0.06520 =
         0.04442   -0.03108   -0.02520    0.01324
O3    6    0.339105    0.312816    0.036000    11.00000    0.15120    0.12050 =
         0.07697    0.01575   -0.04433   -0.06516
AFIX   7
H3A   2    0.160841    0.295083    0.048771    11.00000   -1.50000
H3B   2    0.448639    0.248528    0.038769    11.00000   -1.50000
AFIX   0
N4    5    1.135356    0.785618    0.329150    11.00000    0.06506    0.03612 =
         0.03156   -0.01311   -0.01724    0.00395
N6    5    0.890094    0.683771    0.255430    11.00000    0.06252    0.04814 =
         0.02634   -0.01047   -0.01024    0.00004
C1    1    0.952059    0.527796    0.153016    11.00000    0.06385    0.06549 =
         0.03096   -0.01711   -0.01286    0.00998
C2    1    0.763535    0.583316    0.230865    11.00000    0.06450    0.06097 =
         0.04081   -0.02324   -0.01315   -0.00541
AFIX  23
H2A   2    0.578193    0.609901    0.204606    11.00000   -1.20000
H2B   2    0.730263    0.523409    0.292896    11.00000   -1.20000
AFIX   0
C3    1    0.890191    0.797876    0.195723    11.00000    0.08130    0.04966 =
         0.02051   -0.00160   -0.01868    0.00301
AFIX  43
H3    2    0.803376    0.825600    0.135268    11.00000   -1.20000
AFIX   0
C4    1    1.040195    0.860356    0.242372    11.00000    0.07866    0.04239 =
         0.03663   -0.00666   -0.01989    0.00301
AFIX  43
H4    2    1.074210    0.940117    0.220156    11.00000   -1.20000
AFIX   0
C5    1    1.042065    0.678772    0.334197    11.00000    0.05993    0.04165 =
         0.02600   -0.01263   -0.01412   -0.00277
AFIX  43
H5    2    1.077797    0.611657    0.384753    11.00000   -1.20000
AFIX   0
C6    1    1.305949    0.817405    0.404518    11.00000    0.05433    0.03902 =
         0.03461   -0.01609   -0.01638    0.00760
AFIX  23
H6A   2    1.488735    0.845144    0.370945    11.00000   -1.20000
H6B   2    1.345974    0.747493    0.457016    11.00000   -1.20000
AFIX   0
C7    1    1.150470    0.911658    0.452901    11.00000    0.05881    0.02762 =
         0.02936   -0.00781   -0.01969    0.00746
C8    1    0.941301    0.878738    0.536115    11.00000    0.06879    0.02895 =
         0.03096   -0.00640   -0.01908    0.00165
C9    1    0.870681    0.758368    0.574680    11.00000    0.08019    0.03069 =
         0.03819   -0.01221   -0.02016    0.00058
AFIX  43
H9    2    0.962975    0.700117    0.543613    11.00000   -1.20000
AFIX   0
C10   1    0.673077    0.726653    0.655225    11.00000    0.08728    0.03537 =
         0.03113   -0.00218   -0.01505   -0.00770
AFIX  43
H10   2    0.635696    0.647422    0.679172    11.00000   -1.20000
AFIX   0
C11   1    0.523938    0.813036    0.702895    11.00000    0.07083    0.04972 =
         0.04068   -0.00656   -0.01268   -0.01004
AFIX  43
H11   2    0.385742    0.790867    0.756964    11.00000   -1.20000
AFIX   0
C12   1    0.583121    0.929313    0.669399    11.00000    0.06464    0.04525 =
         0.03919   -0.01533   -0.01053    0.00238
AFIX  43
H12   2    0.487579    0.985109    0.702594    11.00000   -1.20000
AFIX   0
C13   1    1.212252    1.032731    0.415196    11.00000    0.06254    0.03796 =
         0.02542   -0.01022   -0.02042    0.00320
HKLF 4

REM  CF solution in P-1
REM R1 =  0.0787 for    1964 Fo > 4sig(Fo)  and  0.0954 for all    2562 data
REM    176 parameters refined using      0 restraints

END

WGHT      0.1223      0.0000

REM Highest difference peak  1.018,  deepest hole -0.974,  1-sigma level  0.133
Q1    1   0.5059  0.4649  0.4398  11.00000  0.05    0.85
Q2    1   0.3746  0.4849  0.4397  11.00000  0.05    0.74
Q3    1   0.4680  0.5411  0.0647  11.00000  0.05    0.60
Q4    1   0.8045  0.4412  0.3763  11.00000  0.05    0.53
Q5    1   0.2630  0.4954  0.5150  11.00000  0.05    0.51
Q6    1   0.3039  0.5307  0.0570  11.00000  0.05    0.51
Q7    1   1.2003  0.5889  0.4258  11.00000  0.05    0.45
Q8    1   1.0055  0.3354  0.1608  11.00000  0.05    0.42
Q9    1   1.6891  0.6837  0.4630  11.00000  0.05    0.41
Q10   1   1.1927  0.8198  0.4028  11.00000  0.05    0.40
;
_shelx_res_checksum              29159
#END Tags that were not found in dictionaries
loop_
_space_group_symop_operation_xyz
'x, y, z'
'-x, -y, -z'
loop_
_atom_site_label
_atom_site_type_symbol
_atom_site_fract_x
_atom_site_fract_y
_atom_site_fract_z
_atom_site_U_iso_or_equiv
_atom_site_adp_type
_atom_site_occupancy
_atom_site_site_symmetry_order
_atom_site_calc_flag
_atom_site_refinement_flags_posn
_atom_site_refinement_flags_adp
_atom_site_refinement_flags_occupancy
Br1 Br 0.5000 0.5000 0.5000 0.0469(3) Uani 1 2 d S . P
Ca1 Ca 0.5000 0.5000 0.0000 0.0592(5) Uani 1 2 d S . P
O1 O 0.2002(10) 0.5612(5) 0.1274(3) 0.0707(12) Uani 1 1 d . . .
O2 O 0.8381(9) 0.4509(4) 0.1208(3) 0.0607(10) Uani 1 1 d . . .
O3 O 0.3391(16) 0.3128(7) 0.0360(4) 0.116(3) Uani 1 1 d . . .
H3A H 0.1608 0.2951 0.0488 0.175 Uiso 1 1 d R U .
H3B H 0.4486 0.2485 0.0388 0.175 Uiso 1 1 d R U .
N4 N 1.1354(9) 0.7856(3) 0.3291(3) 0.0428(9) Uani 1 1 d . . .
N6 N 0.8901(10) 0.6838(4) 0.2554(3) 0.0451(9) Uani 1 1 d . . .
C1 C 0.9521(13) 0.5278(5) 0.1530(4) 0.0526(13) Uani 1 1 d . . .
C2 C 0.7635(13) 0.5833(5) 0.2309(4) 0.0528(13) Uani 1 1 d . . .
H2A H 0.5782 0.6099 0.2046 0.063 Uiso 1 1 calc R U .
H2B H 0.7303 0.5234 0.2929 0.063 Uiso 1 1 calc R U .
C3 C 0.8902(13) 0.7979(5) 0.1957(4) 0.0509(13) Uani 1 1 d . . .
H3 H 0.8034 0.8256 0.1353 0.061 Uiso 1 1 calc R U .
C4 C 1.0402(13) 0.8604(5) 0.2424(4) 0.0522(13) Uani 1 1 d . . .
H4 H 1.0742 0.9401 0.2202 0.063 Uiso 1 1 calc R U .
C5 C 1.0421(11) 0.6788(4) 0.3342(3) 0.0410(10) Uani 1 1 d . . .
H5 H 1.0778 0.6117 0.3848 0.049 Uiso 1 1 calc R U .
C6 C 1.3059(11) 0.8174(4) 0.4045(4) 0.0411(10) Uani 1 1 d . . .
H6A H 1.4887 0.8451 0.3709 0.049 Uiso 1 1 calc R U .
H6B H 1.3460 0.7475 0.4570 0.049 Uiso 1 1 calc R U .
C7 C 1.1505(11) 0.9117(4) 0.4529(3) 0.0378(10) Uani 1 1 d . . .
C8 C 0.9413(12) 0.8787(4) 0.5361(4) 0.0422(11) Uani 1 1 d . . .
C9 C 0.8707(13) 0.7584(4) 0.5747(4) 0.0481(12) Uani 1 1 d . . .
H9 H 0.9630 0.7001 0.5436 0.058 Uiso 1 1 calc R U .
C10 C 0.6731(13) 0.7267(4) 0.6552(4) 0.0512(13) Uani 1 1 d . . .
H10 H 0.6357 0.6474 0.6792 0.061 Uiso 1 1 calc R U .
C11 C 0.5239(13) 0.8130(5) 0.7029(4) 0.0534(13) Uani 1 1 d . . .
H11 H 0.3857 0.7909 0.7570 0.064 Uiso 1 1 calc R U .
C12 C 0.5831(12) 0.9293(5) 0.6694(4) 0.0486(12) Uani 1 1 d . . .
H12 H 0.4876 0.9851 0.7026 0.058 Uiso 1 1 calc R U .
C13 C 1.2123(11) 1.0327(4) 0.4152(3) 0.0406(10) Uani 1 1 d . . .
loop_
_atom_site_aniso_label
_atom_site_aniso_U_11
_atom_site_aniso_U_22
_atom_site_aniso_U_33
_atom_site_aniso_U_23
_atom_site_aniso_U_13
_atom_site_aniso_U_12
Br1 0.0734(6) 0.0345(4) 0.0335(5) -0.0048(3) -0.0176(3) 0.0012(3)
Ca1 0.0849(12) 0.0607(9) 0.0421(9) -0.0303(7) -0.0266(8) 0.0164(8)
O1 0.070(3) 0.099(4) 0.049(2) -0.027(2) -0.007(2) -0.006(2)
O2 0.083(3) 0.065(2) 0.044(2) -0.0311(19) -0.0252(19) 0.013(2)
O3 0.151(6) 0.120(5) 0.077(4) 0.016(4) -0.044(4) -0.065(4)
N4 0.065(3) 0.0361(19) 0.032(2) -0.0131(16) -0.0172(18) 0.0040(17)
N6 0.063(2) 0.048(2) 0.026(2) -0.0105(17) -0.0102(17) 0.0000(18)
C1 0.064(3) 0.065(3) 0.031(3) -0.017(2) -0.013(2) 0.010(3)
C2 0.065(3) 0.061(3) 0.041(3) -0.023(2) -0.013(2) -0.005(2)
C3 0.081(4) 0.050(3) 0.021(2) -0.002(2) -0.019(2) 0.003(2)
C4 0.079(4) 0.042(3) 0.037(3) -0.007(2) -0.020(2) 0.003(2)
C5 0.060(3) 0.042(2) 0.026(2) -0.0126(18) -0.0141(19) -0.003(2)
C6 0.054(3) 0.039(2) 0.035(2) -0.0161(19) -0.0164(19) 0.0076(19)
C7 0.059(3) 0.0276(19) 0.029(2) -0.0078(16) -0.0197(18) 0.0075(17)
C8 0.069(3) 0.0290(19) 0.031(2) -0.0064(17) -0.019(2) 0.0016(19)
C9 0.080(3) 0.031(2) 0.038(3) -0.0122(19) -0.020(2) 0.001(2)
C10 0.087(4) 0.035(2) 0.031(3) -0.0022(19) -0.015(2) -0.008(2)
C11 0.071(3) 0.050(3) 0.041(3) -0.007(2) -0.013(2) -0.010(2)
C12 0.065(3) 0.045(3) 0.039(3) -0.015(2) -0.011(2) 0.002(2)
C13 0.063(3) 0.038(2) 0.025(2) -0.0102(18) -0.0204(19) 0.0032(19)
loop_
_atom_type_symbol
_atom_type_description
_atom_type_scat_dispersion_real
_atom_type_scat_dispersion_imag
_atom_type_scat_source
C C 0.0181 0.0091 'International Tables Vol C Tables 4.2.6.8 and 6.1.1.4'
H H 0.0000 0.0000 'International Tables Vol C Tables 4.2.6.8 and 6.1.1.4'
Br Br -0.6763 1.2805 'International Tables Vol C Tables 4.2.6.8 and 6.1.1.4'
Ca Ca 0.3641 1.2855 'International Tables Vol C Tables 4.2.6.8 and 6.1.1.4'
N N 0.0311 0.0180 'International Tables Vol C Tables 4.2.6.8 and 6.1.1.4'
O O 0.0492 0.0322 'International Tables Vol C Tables 4.2.6.8 and 6.1.1.4'
loop_
_geom_angle_atom_site_label_1
_geom_angle_atom_site_label_2
_geom_angle_atom_site_label_3
_geom_angle
_geom_angle_site_symmetry_1
_geom_angle_site_symmetry_3
O3 Ca1 O3 180.0 2_665 .
O3 Ca1 O1 85.5(3) 2_665 .
O3 Ca1 O1 94.5(3) . .
O3 Ca1 O1 94.5(3) 2_665 2_665
O3 Ca1 O1 85.5(3) . 2_665
O1 Ca1 O1 180.0 . 2_665
O3 Ca1 O2 93.43(19) 2_665 2_665
O3 Ca1 O2 86.57(19) . 2_665
O1 Ca1 O2 94.74(15) . 2_665
O1 Ca1 O2 85.26(15) 2_665 2_665
O3 Ca1 O2 86.57(19) 2_665 .
O3 Ca1 O2 93.43(19) . .
O1 Ca1 O2 85.26(15) . .
O1 Ca1 O2 94.74(15) 2_665 .
O2 Ca1 O2 180.0 2_665 .
O3 Ca1 C1 78.8(2) 2_665 2_765
O3 Ca1 C1 101.2(2) . 2_765
O1 Ca1 C1 160.79(15) . 2_765
O1 Ca1 C1 19.21(15) 2_665 2_765
O2 Ca1 C1 97.16(14) 2_665 2_765
O2 Ca1 C1 82.84(15) . 2_765
O3 Ca1 C1 101.2(2) 2_665 1_455
O3 Ca1 C1 78.8(2) . 1_455
O1 Ca1 C1 19.21(15) . 1_455
O1 Ca1 C1 160.79(15) 2_665 1_455
O2 Ca1 C1 82.84(15) 2_665 1_455
O2 Ca1 C1 97.16(15) . 1_455
C1 Ca1 C1 180.0 2_765 1_455
O3 Ca1 C1 68.08(18) 2_665 .
O3 Ca1 C1 111.93(18) . .
O1 Ca1 C1 78.52(14) . .
O1 Ca1 C1 101.48(14) 2_665 .
O2 Ca1 C1 160.59(15) 2_665 .
O2 Ca1 C1 19.41(15) . .
C1 Ca1 C1 85.34(14) 2_765 .
C1 Ca1 C1 94.66(13) 1_455 .
O3 Ca1 C1 111.92(18) 2_665 2_665
O3 Ca1 C1 68.07(18) . 2_665
O1 Ca1 C1 101.48(14) . 2_665
O1 Ca1 C1 78.52(14) 2_665 2_665
O2 Ca1 C1 19.41(15) 2_665 2_665
O2 Ca1 C1 160.59(15) . 2_665
C1 Ca1 C1 94.66(13) 2_765 2_665
C1 Ca1 C1 85.34(14) 1_455 2_665
C1 Ca1 C1 180.0 . 2_665
C1 O1 Ca1 123.1(4) 1_455 .
C1 O2 Ca1 122.4(4) . .
Ca1 O3 H3A 125.8 . .
Ca1 O3 H3B 124.9 . .
H3A O3 H3B 109.3 . .
C5 N4 C4 107.6(4) . .
C5 N4 C6 125.7(4) . .
C4 N4 C6 126.7(4) . .
C5 N6 C3 108.5(4) . .
C5 N6 C2 125.8(5) . .
C3 N6 C2 125.5(4) . .
O1 C1 O2 126.1(5) 1_655 .
O1 C1 C2 118.4(5) 1_655 .
O2 C1 C2 115.5(5) . .
O1 C1 Ca1 37.7(3) 1_655 1_655
O2 C1 Ca1 88.6(3) . 1_655
C2 C1 Ca1 155.7(4) . 1_655
O1 C1 Ca1 125.2(4) 1_655 .
O2 C1 Ca1 38.1(3) . .
C2 C1 Ca1 102.4(3) . .
Ca1 C1 Ca1 94.66(13) 1_655 .
N6 C2 C1 113.4(5) . .
N6 C2 H2A 108.9 . .
C1 C2 H2A 108.9 . .
N6 C2 H2B 108.9 . .
C1 C2 H2B 108.9 . .
H2A C2 H2B 107.7 . .
C4 C3 N6 106.6(4) . .
C4 C3 H3 126.7 . .
N6 C3 H3 126.7 . .
C3 C4 N4 108.2(5) . .
C3 C4 H4 125.9 . .
N4 C4 H4 125.9 . .
N6 C5 N4 109.1(4) . .
N6 C5 H5 125.4 . .
N4 C5 H5 125.4 . .
N4 C6 C7 111.9(4) . .
N4 C6 H6A 109.2 . .
C7 C6 H6A 109.2 . .
N4 C6 H6B 109.2 . .
C7 C6 H6B 109.2 . .
H6A C6 H6B 107.9 . .
C8 C7 C13 120.7(4) . .
C8 C7 C6 119.1(4) . .
C13 C7 C6 120.3(4) . .
C7 C8 C9 122.1(4) . .
C7 C8 C13 120.6(4) . 2_776
C9 C8 C13 117.3(5) . 2_776
C10 C9 C8 122.1(5) . .
C10 C9 H9 119.0 . .
C8 C9 H9 119.0 . .
C9 C10 C11 120.5(5) . .
C9 C10 H10 119.7 . .
C11 C10 H10 119.7 . .
C12 C11 C10 119.9(5) . .
C12 C11 H11 120.1 . .
C10 C11 H11 120.1 . .
C11 C12 C13 121.7(5) . 2_776
C11 C12 H12 119.1 . .
C13 C12 H12 119.1 2_776 .
C12 C13 C7 122.8(4) 2_776 .
C12 C13 C8 118.4(4) 2_776 2_776
C7 C13 C8 118.8(5) . 2_776
loop_
_geom_bond_atom_site_label_1
_geom_bond_atom_site_label_2
_geom_bond_distance
_geom_bond_site_symmetry_2
Ca1 O3 2.294(6) 2_665
Ca1 O3 2.294(6) .
Ca1 O1 2.311(4) .
Ca1 O1 2.311(4) 2_665
Ca1 O2 2.335(4) 2_665
Ca1 O2 2.335(4) .
Ca1 C1 3.167(6) 2_765
Ca1 C1 3.167(6) 1_455
Ca1 C1 3.190(6) .
Ca1 C1 3.190(6) 2_665
O1 C1 1.244(7) 1_455
O2 C1 1.256(7) .
O3 H3A 0.8660 .
O3 H3B 0.8658 .
N4 C5 1.336(6) .
N4 C4 1.383(6) .
N4 C6 1.484(6) .
N6 C5 1.329(6) .
N6 C3 1.389(7) .
N6 C2 1.469(7) .
C1 O1 1.244(7) 1_655
C1 C2 1.525(8) .
C1 Ca1 3.167(6) 1_655
C2 H2A 0.9700 .
C2 H2B 0.9700 .
C3 C4 1.343(8) .
C3 H3 0.9300 .
C4 H4 0.9300 .
C5 H5 0.9300 .
C6 C7 1.501(7) .
C6 H6A 0.9700 .
C6 H6B 0.9700 .
C7 C8 1.419(7) .
C7 C13 1.428(6) .
C8 C9 1.433(6) .
C8 C13 1.448(7) 2_776
C9 C10 1.359(8) .
C9 H9 0.9300 .
C10 C11 1.413(9) .
C10 H10 0.9300 .
C11 C12 1.368(8) .
C11 H11 0.9300 .
C12 C13 1.428(8) 2_776
C12 H12 0.9300 .
C13 C12 1.428(8) 2_776
C13 C8 1.448(7) 2_776
loop_
_geom_torsion_atom_site_label_1
_geom_torsion_atom_site_label_2
_geom_torsion_atom_site_label_3
_geom_torsion_atom_site_label_4
_geom_torsion
_geom_torsion_site_symmetry_1
_geom_torsion_site_symmetry_4
Ca1 O2 C1 O1 -103.1(6) . 1_655
Ca1 O2 C1 C2 77.1(6) . .
Ca1 O2 C1 Ca1 -99.4(3) . 1_655
C5 N6 C2 C1 -95.9(6) . .
C3 N6 C2 C1 78.7(7) . .
O1 C1 C2 N6 8.2(8) 1_655 .
O2 C1 C2 N6 -171.9(5) . .
Ca1 C1 C2 N6 -0.5(12) 1_655 .
Ca1 C1 C2 N6 -133.9(4) . .
C5 N6 C3 C4 -1.3(6) . .
C2 N6 C3 C4 -176.7(5) . .
N6 C3 C4 N4 0.8(6) . .
C5 N4 C4 C3 0.0(6) . .
C6 N4 C4 C3 -179.1(5) . .
C3 N6 C5 N4 1.3(6) . .
C2 N6 C5 N4 176.7(5) . .
C4 N4 C5 N6 -0.8(6) . .
C6 N4 C5 N6 178.3(4) . .
C5 N4 C6 C7 -118.9(5) . .
C4 N4 C6 C7 60.0(7) . .
N4 C6 C7 C8 82.8(5) . .
N4 C6 C7 C13 -97.0(5) . .
C13 C7 C8 C9 178.9(4) . .
C6 C7 C8 C9 -0.9(7) . .
C13 C7 C8 C13 -0.4(8) . 2_776
C6 C7 C8 C13 179.8(4) . 2_776
C7 C8 C9 C10 179.1(5) . .
C13 C8 C9 C10 -1.6(8) 2_776 .
C8 C9 C10 C11 1.4(9) . .
C9 C10 C11 C12 -1.5(9) . .
C10 C11 C12 C13 1.8(9) . 2_776
C8 C7 C13 C12 -178.9(4) . 2_776
C6 C7 C13 C12 0.9(7) . 2_776
C8 C7 C13 C8 0.4(8) . 2_776
C6 C7 C13 C8 -179.8(4) . 2_776
