#------------------------------------------------------------------------------
#$Date: 2016-03-25 23:42:20 +0200 (Fri, 25 Mar 2016) $
#$Revision: 180050 $
#$URL: svn://www.crystallography.net/cod/cif/7/03/44/7034430.cif $
#------------------------------------------------------------------------------
#
# This file is available in the Crystallography Open Database (COD),
# http://www.crystallography.net/
#
# All data on this site have been placed in the public domain by the
# contributors.
#
data_7034430
loop_
_publ_author_name
'Ciupa, Aneta'
'M\;aczka, Miros\/law'
'G\;agor, Anna'
'Sieradzki, Adam'
'Trzmiel, Justyna'
'Pikul, Adam'
'Ptak, Maciej'
_publ_section_title
;
 Temperature-dependent studies of [(CH3)2NH2][Fe(III)M(II)(HCOO)6]
 frameworks (M(II) = Fe and Mg): structural, magnetic, dielectric and
 phonon properties.
;
_journal_issue                   19
_journal_name_full
'Dalton transactions (Cambridge, England : 2003)'
_journal_page_first              8846
_journal_page_last               8854
_journal_paper_doi               10.1039/c5dt00512d
_journal_volume                  44
_journal_year                    2015
_chemical_formula_sum            'C8 H14 Fe Mg N O12'
_chemical_formula_weight         396.36
_space_group_crystal_system      trigonal
_space_group_IT_number           163
_space_group_name_Hall           '-P 3 2c'
_space_group_name_H-M_alt        'P -3 1 c'
_symmetry_space_group_name_Hall  '-P 3 2c'
_symmetry_space_group_name_H-M   'P -3 1 c'
_atom_sites_solution_hydrogens   geom
_audit_creation_method           SHELXL-2014/7
_audit_update_record
;
2015-03-10 deposited with the CCDC.
2015-03-12 downloaded from the CCDC.
;
_cell_angle_alpha                90
_cell_angle_beta                 90
_cell_angle_gamma                120
_cell_formula_units_Z            2
_cell_length_a                   8.2067(2)
_cell_length_b                   8.2067(2)
_cell_length_c                   13.8818(6)
_cell_measurement_reflns_used    4448
_cell_measurement_temperature    190(2)
_cell_measurement_theta_max      28.1861
_cell_measurement_theta_min      2.8596
_cell_volume                     809.68(4)
_computing_cell_refinement
;
CrysAlisPro, Oxford Diffraction Ltd.,
Version 1.171.33.42 (release 29-05-2009 CrysAlis171 .NET)
(compiled May 29 2009,17:40:42)
;
_computing_data_collection
;
CrysAlisPro, Oxford Diffraction Ltd.,
Version 1.171.33.42 (release 29-05-2009 CrysAlis171 .NET)
(compiled May 29 2009,17:40:42)
;
_computing_data_reduction
;
CrysAlisPro, Oxford Diffraction Ltd.,
Version 1.171.33.42 (release 29-05-2009 CrysAlis171 .NET)
(compiled May 29 2009,17:40:42)
;
_computing_molecular_graphics
'Diamond Version 3.2k Crystal Impact GbR, Bonn, Germany'
_computing_structure_refinement  'SHELXL-2014/7 (Sheldrick, 2014)'
_computing_structure_solution    'SHELXL-2014/7 (Sheldrick, 2014)'
_diffrn_ambient_temperature      190(2)
_diffrn_detector_area_resol_mean 8.4350
_diffrn_measured_fraction_theta_full 0.996
_diffrn_measured_fraction_theta_max 0.996
_diffrn_measurement_device_type  'Xcalibur, Sapphire1, long nozzle'
_diffrn_radiation_monochromator  graphite
_diffrn_radiation_source         'Enhance (Mo) X-ray Source'
_diffrn_radiation_type           MoK\a
_diffrn_radiation_wavelength     0.71073
_diffrn_reflns_av_R_equivalents  0.0257
_diffrn_reflns_av_unetI/netI     0.0125
_diffrn_reflns_Laue_measured_fraction_full 0.996
_diffrn_reflns_Laue_measured_fraction_max 0.996
_diffrn_reflns_limit_h_max       10
_diffrn_reflns_limit_h_min       -10
_diffrn_reflns_limit_k_max       10
_diffrn_reflns_limit_k_min       -10
_diffrn_reflns_limit_l_max       16
_diffrn_reflns_limit_l_min       -14
_diffrn_reflns_number            7770
_diffrn_reflns_point_group_measured_fraction_full 0.996
_diffrn_reflns_point_group_measured_fraction_max 0.996
_diffrn_reflns_theta_full        25.659
_diffrn_reflns_theta_max         25.659
_diffrn_reflns_theta_min         3.220
_exptl_absorpt_coefficient_mu    1.029
_exptl_absorpt_correction_T_max  1.00000
_exptl_absorpt_correction_T_min  0.92713
_exptl_absorpt_correction_type   multi-scan
_exptl_absorpt_process_details
;
CrysAlisPro, Oxford Diffraction Ltd.,
Version 1.171.33.42 (release 29-05-2009 CrysAlis171 .NET)
(compiled May 29 2009,17:40:42)
Empirical absorption correction using spherical harmonics,
 implemented in SCALE3 ABSPACK scaling algorithm.
;
_exptl_crystal_colour            grey
_exptl_crystal_density_diffrn    1.626
_exptl_crystal_description       'rectangular prism'
_exptl_crystal_F_000             406
_exptl_crystal_size_max          0.22
_exptl_crystal_size_mid          0.11
_exptl_crystal_size_min          0.10
_refine_diff_density_max         0.435
_refine_diff_density_min         -0.257
_refine_diff_density_rms         0.067
_refine_ls_extinction_method     none
_refine_ls_goodness_of_fit_ref   1.025
_refine_ls_hydrogen_treatment    constr
_refine_ls_matrix_type           full
_refine_ls_number_parameters     46
_refine_ls_number_reflns         517
_refine_ls_number_restraints     17
_refine_ls_restrained_S_all      1.064
_refine_ls_R_factor_all          0.0303
_refine_ls_R_factor_gt           0.0240
_refine_ls_shift/su_max          0.005
_refine_ls_shift/su_mean         0.000
_refine_ls_structure_factor_coef Fsqd
_refine_ls_weighting_details
'w=1/[\s^2^(Fo^2^)+(0.0420P)^2^+0.4600P] where P=(Fo^2^+2Fc^2^)/3'
_refine_ls_weighting_scheme      calc
_refine_ls_wR_factor_gt          0.0649
_refine_ls_wR_factor_ref         0.0677
_reflns_Friedel_coverage         0.000
_reflns_number_gt                451
_reflns_number_total             517
_reflns_threshold_expression     'I > 2\s(I)'
_cod_data_source_file            c5dt00512d2.cif
_cod_data_source_block           190
_cod_depositor_comments
'Adding full bibliography for 7034429--7034431.cif.'
_cod_original_cell_volume        809.68(5)
_cod_database_code               7034430
#BEGIN Tags that were not found in dictionaries:
_shelx_shelxl_version_number     2014/7
_shelx_space_group_comment
;
The symmetry employed for this shelxl refinement is uniquely defined
by the following loop, which should always be used as a source of
symmetry information in preference to the above space-group names.
They are only intended as comments.
;
_shelx_res_file
;

    190.res created by SHELXL-2014/7

TITL dma in P-31c
CELL 0.71073   8.2067   8.2067  13.8818  90.000  90.000 120.000
ZERR    2.00   0.0002   0.0002   0.0006   0.000   0.000   0.000
LATT  1
SYMM -Y, X-Y, Z
SYMM -X+Y, -X, Z
SYMM -Y, -X, 0.5-Z
SYMM -X+Y, Y, 0.5-Z
SYMM X, X-Y, 0.5-Z
SFAC C H O MG FE N
UNIT 16 28 24 2 2 2

L.S. 8

BOND
FMAP 2
PLAN 20
shel 10 0.82
htab
bond $h
eqiv $1   -y+1, x-y+1, z
eqiv $2   -x+y, -x+1, z
eqiv $3   -y+1, -x+1, -z+1/2
eqiv $4   -x+y, y, -z+1/2
eqiv $5   x, x-y+1, -z+1/2
eqiv $6   -x, -y+2, -z
eqiv $7   -y+1, x-y+2, z
eqiv $8   y-1, -x+y, -z
eqiv $9   -x+y-1, -x+1, z
eqiv $10  x-y+1, x+1, -z
eqiv $11  -y+1, -x+1, -z+3/2
eqiv $12  -x+y, y, -z+3/2
eqiv $13  x, x-y+1, -z+3/2
eqiv $14 x-y+1, -y+1, z+1/2
eqiv $15 y, -x+y, -z+1
eqiv $16 -x, -y+1, -z+1
EQIV $17 x-y+1, x+1, -z+1
acta 56

htab N1 O1_$14
htab N1  O1_$15
htab N1 O1_$16
HTAB C2 O2_$17

free C2 N1_$2
free C2 N1_$1
free C21 N1_$11
free C2 c21_$11
free C21 C2_$11
free C21 N1_$2
free C21 N1_$1
free C21 N1_$12
free C21 N1_$11
free C21 N1_$13
free C21 C21_$11

free N1 N1_$12
free N1 N1_$1
free N1 N1_$2
free N1 N1_$11
free N1 C21_$11
free N1 N1_$13
eadp fe1 mg1
exyz fe1 mg1
eadp fe2 mg2
exyz fe2 mg2
omit 0 1 0

dfix 1.44 0.01 n1 c2
dfix 1.44 0.01 n1 c21

sump 1 0.001 1 2 1 3
sump 1 0.001 1 4 1 5
sump 5 0.001 3 2 2 3 3 4 2 5
WGHT    0.042000    0.460000
FVAR       1.94636   0.31493   0.68475   0.68664   0.31303
MOLE   1
FE1   5    0.333333    0.666667    0.250000    20.16667    0.00846    0.00846 =
         0.01063    0.00000    0.00000    0.00423
MG1   4    0.333333    0.666667    0.250000    30.16667    0.00846    0.00846 =
         0.01063    0.00000    0.00000    0.00423
FE2   5    0.000000    1.000000    0.000000    40.16667    0.00678    0.00678 =
         0.00847    0.00000    0.00000    0.00339
MG2   4    0.000000    1.000000    0.000000    50.16667    0.00678    0.00678 =
         0.00847    0.00000    0.00000    0.00339

O1    3    0.121503    0.661416    0.168457    11.00000    0.02207    0.01967 =
         0.02869    0.00748   -0.00539    0.01053
O2    3   -0.009849    0.792073    0.082246    11.00000    0.01762    0.01844 =
         0.02407    0.00487   -0.00225    0.00945
C1    1    0.128645    0.790741    0.119215    11.00000    0.01715    0.01950 =
         0.02795    0.00602    0.00037    0.00868
AFIX  43
H1    2    0.246633    0.895495    0.108854    11.00000   -1.20000
AFIX   0

isor 0.008 c2 c21
C2    1    0.333333    0.666667    0.868086    10.16667    0.04140    0.04140 =
         0.14468    0.00000    0.00000    0.02070
AFIX 133
H2A   2    0.464138    0.761158    0.869433    10.16667   -1.50000
H2B   2    0.305455    0.582841    0.921674    10.16667   -1.50000
H2C   2    0.257967    0.725810    0.872193    10.16667   -1.50000
AFIX   0
C21   1    0.333333    0.666667    0.690569    10.16667    0.06804    0.06804 =
         0.13431    0.00000    0.00000    0.03402
AFIX 133
H21A  2    0.322412    0.776420    0.701144    10.16667   -1.50000
H21B  2    0.246361    0.590334    0.641349    10.16667   -1.50000
H21C  2    0.459259    0.704250    0.670551    10.16667   -1.50000
AFIX   0
N1    6    0.291418    0.560495    0.778287    10.16667    0.05298
AFIX  23
H1A   2    0.355132    0.498992    0.778088    10.16667   -1.20000
H1B   2    0.169537    0.474663    0.778088    10.16667   -1.20000
MOLE   2
MOLE   3
AFIX   0
HKLF 4

REM  dma in P-31c
REM R1 =  0.0240 for     451 Fo > 4sig(Fo)  and  0.0303 for all     517 data
REM     46 parameters refined using     17 restraints

END

WGHT      0.0332      0.5103

REM Instructions for potential hydrogen bonds
HTAB C1 O1_$2
HTAB C2 O2_$15
HTAB C2 O2_$17
HTAB N1 O1_$15
HTAB N1 O1_$14
HTAB N1 O1_$16

REM Highest difference peak  0.435,  deepest hole -0.257,  1-sigma level  0.067
Q1    1   0.3333  0.6667  0.9196  10.33333  0.05    0.38
Q2    1   0.3333  0.6667  0.7500  10.16667  0.05    0.38
Q3    1   0.1565  0.4048  0.8060  11.00000  0.05    0.15
Q4    1   0.4639  0.5701  0.8177  11.00000  0.05    0.14
Q5    1   0.4186  0.5814  0.7500  10.50000  0.05    0.14
Q6    1   0.1244  0.4540  0.8141  11.00000  0.05    0.14
Q7    1   0.3549  0.5591  0.9090  11.00000  0.05    0.14
Q8    1   0.0054  0.8797  0.0610  11.00000  0.05    0.13
Q9    1   0.3474  0.5428  0.9571  11.00000  0.05    0.11
Q10   1   0.1851  0.7832  0.9236  11.00000  0.05    0.11
Q11   1  -0.0144  0.5306  0.1833  11.00000  0.05    0.11
Q12   1   0.3782  0.4723  0.7458  11.00000  0.05    0.11
Q13   1   0.0931  0.4925  0.9322  11.00000  0.05    0.10
Q14   1  -0.1086  0.6632  0.1365  11.00000  0.05    0.10
Q15   1   0.2292  0.3137  0.8291  11.00000  0.05    0.09
Q16   1   0.0556  0.3101  0.7413  11.00000  0.05    0.09
Q17   1   0.1458  0.2917  0.7500  10.50000  0.05    0.09
Q18   1  -0.0059  0.7981 -0.0005  11.00000  0.05    0.08
Q19   1   0.2611  0.9766  0.1476  11.00000  0.05    0.08
Q20   1   0.2463  0.8563  0.0617  11.00000  0.05    0.08
;
_shelx_res_checksum              44274
#END Tags that were not found in dictionaries
loop_
_space_group_symop_operation_xyz
'x, y, z'
'-y, x-y, z'
'-x+y, -x, z'
'-y, -x, -z+1/2'
'-x+y, y, -z+1/2'
'x, x-y, -z+1/2'
'-x, -y, -z'
'y, -x+y, -z'
'x-y, x, -z'
'y, x, z-1/2'
'x-y, -y, z-1/2'
'-x, -x+y, z-1/2'
loop_
_atom_site_label
_atom_site_type_symbol
_atom_site_fract_x
_atom_site_fract_y
_atom_site_fract_z
_atom_site_U_iso_or_equiv
_atom_site_adp_type
_atom_site_occupancy
_atom_site_site_symmetry_order
_atom_site_calc_flag
_atom_site_refinement_flags_posn
_atom_site_refinement_flags_adp
_atom_site_refinement_flags_occupancy
Fe1 Fe 0.3333 0.6667 0.2500 0.0092(3) Uani 0.315(4) 6 d S T P
Mg1 Mg 0.3333 0.6667 0.2500 0.0092(3) Uani 0.685(4) 6 d S T P
Fe2 Fe 0.0000 1.0000 0.0000 0.0073(2) Uani 0.687(4) 6 d S T P
Mg2 Mg 0.0000 1.0000 0.0000 0.0073(2) Uani 0.313(4) 6 d S T P
O1 O 0.12150(18) 0.66142(19) 0.16846(9) 0.0234(3) Uani 1 1 d . . .
O2 O -0.00985(18) 0.79207(17) 0.08225(9) 0.0198(3) Uani 1 1 d . . .
C1 C 0.1286(3) 0.7907(3) 0.11922(12) 0.0217(4) Uani 1 1 d . . .
H1 H 0.2466 0.8955 0.1089 0.026 Uiso 1 1 calc R U .
C2 C 0.3333 0.6667 0.8681(9) 0.076(4) Uani 0.5 3 d DS TU P
H2A H 0.4641 0.7612 0.8694 0.114 Uiso 0.1667 1 calc R U P
H2B H 0.3055 0.5828 0.9217 0.114 Uiso 0.1667 1 calc R U P
H2C H 0.2580 0.7258 0.8722 0.114 Uiso 0.1667 1 calc R U P
C21 C 0.3333 0.6667 0.6906(11) 0.090(5) Uani 0.5 3 d DS TU P
H21A H 0.3224 0.7764 0.7011 0.135 Uiso 0.1667 1 calc R U P
H21B H 0.2464 0.5903 0.6413 0.135 Uiso 0.1667 1 calc R U P
H21C H 0.4593 0.7043 0.6706 0.135 Uiso 0.1667 1 calc R U P
N1 N 0.291(2) 0.5605(19) 0.7783(7) 0.053(4) Uiso 0.1667 1 d D . P
H1A H 0.3551 0.4990 0.7781 0.064 Uiso 0.1667 1 calc R U P
H1B H 0.1695 0.4747 0.7781 0.064 Uiso 0.1667 1 calc R U P
loop_
_atom_site_aniso_label
_atom_site_aniso_U_11
_atom_site_aniso_U_22
_atom_site_aniso_U_33
_atom_site_aniso_U_23
_atom_site_aniso_U_13
_atom_site_aniso_U_12
Fe1 0.0085(4) 0.0085(4) 0.0106(5) 0.000 0.000 0.00423(18)
Mg1 0.0085(4) 0.0085(4) 0.0106(5) 0.000 0.000 0.00423(18)
Fe2 0.0068(3) 0.0068(3) 0.0085(4) 0.000 0.000 0.00339(14)
Mg2 0.0068(3) 0.0068(3) 0.0085(4) 0.000 0.000 0.00339(14)
O1 0.0221(8) 0.0197(7) 0.0287(7) 0.0075(6) -0.0054(5) 0.0105(6)
O2 0.0176(6) 0.0184(7) 0.0241(6) 0.0049(5) -0.0023(6) 0.0095(6)
C1 0.0171(9) 0.0195(10) 0.0280(10) 0.0060(7) 0.0004(8) 0.0087(8)
C2 0.041(4) 0.041(4) 0.145(12) 0.000 0.000 0.0207(18)
C21 0.068(5) 0.068(5) 0.134(11) 0.000 0.000 0.034(3)
loop_
_atom_type_symbol
_atom_type_description
_atom_type_scat_dispersion_real
_atom_type_scat_dispersion_imag
_atom_type_scat_source
C C 0.0033 0.0016 'International Tables Vol C Tables 4.2.6.8 and 6.1.1.4'
H H 0.0000 0.0000 'International Tables Vol C Tables 4.2.6.8 and 6.1.1.4'
O O 0.0106 0.0060 'International Tables Vol C Tables 4.2.6.8 and 6.1.1.4'
Mg Mg 0.0486 0.0363 'International Tables Vol C Tables 4.2.6.8 and 6.1.1.4'
Fe Fe 0.3463 0.8444 'International Tables Vol C Tables 4.2.6.8 and 6.1.1.4'
N N 0.0061 0.0033 'International Tables Vol C Tables 4.2.6.8 and 6.1.1.4'
loop_
_geom_angle_atom_site_label_1
_geom_angle_atom_site_label_2
_geom_angle_atom_site_label_3
_geom_angle
_geom_angle_site_symmetry_1
_geom_angle_site_symmetry_3
O1 Fe1 O1 88.91(8) . 4_665
O1 Fe1 O1 85.90(7) . 6_565
O1 Fe1 O1 92.62(5) 4_665 6_565
O1 Fe1 O1 92.62(5) . 3_565
O1 Fe1 O1 85.90(7) 4_665 3_565
O1 Fe1 O1 177.92(8) 6_565 3_565
O1 Fe1 O1 92.62(5) . 2_665
O1 Fe1 O1 177.92(8) 4_665 2_665
O1 Fe1 O1 88.91(8) 6_565 2_665
O1 Fe1 O1 92.62(5) 3_565 2_665
O1 Fe1 O1 177.92(8) . 5
O1 Fe1 O1 92.62(5) 4_665 5
O1 Fe1 O1 92.62(5) 6_565 5
O1 Fe1 O1 88.91(8) 3_565 5
O1 Fe1 O1 85.90(7) 2_665 5
O2 Fe2 O2 91.22(5) 7_575 8_455
O2 Fe2 O2 88.78(5) 7_575 2_675
O2 Fe2 O2 180.00(6) 8_455 2_675
O2 Fe2 O2 180.0 7_575 .
O2 Fe2 O2 88.78(5) 8_455 .
O2 Fe2 O2 91.22(5) 2_675 .
O2 Fe2 O2 91.22(5) 7_575 9_665
O2 Fe2 O2 91.22(5) 8_455 9_665
O2 Fe2 O2 88.78(5) 2_675 9_665
O2 Fe2 O2 88.78(5) . 9_665
O2 Fe2 O2 88.78(5) 7_575 3_465
O2 Fe2 O2 88.78(5) 8_455 3_465
O2 Fe2 O2 91.22(5) 2_675 3_465
O2 Fe2 O2 91.22(5) . 3_465
O2 Fe2 O2 180.0 9_665 3_465
C1 O1 Fe1 127.46(12) . .
C1 O2 Fe2 125.85(12) . .
O1 C1 O2 125.40(17) . .
O1 C1 H1 117.3 . .
O2 C1 H1 117.3 . .
N1 C2 H2A 109.5 . .
N1 C2 H2B 109.5 . .
H2A C2 H2B 109.5 . .
N1 C2 H2C 109.5 . .
H2A C2 H2C 109.5 . .
H2B C2 H2C 109.5 . .
N1 C21 H21A 109.5 . .
N1 C21 H21B 109.5 . .
H21A C21 H21B 109.5 . .
N1 C21 H21C 109.5 . .
H21A C21 H21C 109.5 . .
H21B C21 H21C 109.5 . .
C21 N1 C2 116.7(13) . .
C21 N1 H1A 108.1 . .
C2 N1 H1A 108.1 . .
C21 N1 H1B 108.1 . .
C2 N1 H1B 108.1 . .
H1A N1 H1B 107.3 . .
loop_
_geom_bond_atom_site_label_1
_geom_bond_atom_site_label_2
_geom_bond_distance
_geom_bond_site_symmetry_2
Fe1 O1 2.0568(12) .
Fe1 O1 2.0568(12) 4_665
Fe1 O1 2.0568(12) 6_565
Fe1 O1 2.0568(12) 3_565
Fe1 O1 2.0568(12) 2_665
Fe1 O1 2.0568(12) 5
Fe2 O2 2.0208(12) 7_575
Fe2 O2 2.0208(12) 8_455
Fe2 O2 2.0208(12) 2_675
Fe2 O2 2.0209(12) .
Fe2 O2 2.0209(12) 9_665
Fe2 O2 2.0209(12) 3_465
O1 C1 1.239(2) .
O2 C1 1.252(2) .
C1 H1 0.9300 .
C2 N1 1.460(9) .
C2 H2A 0.9600 .
C2 H2B 0.9600 .
C2 H2C 0.9600 .
C21 N1 1.435(9) .
C21 H21A 0.9600 .
C21 H21B 0.9600 .
C21 H21C 0.9600 .
N1 H1A 0.8900 .
N1 H1B 0.8900 .
loop_
_geom_hbond_atom_site_label_D
_geom_hbond_atom_site_label_H
_geom_hbond_atom_site_label_A
_geom_hbond_distance_DH
_geom_hbond_distance_HA
_geom_hbond_distance_DA
_geom_hbond_angle_DHA
_geom_hbond_site_symmetry_A
N1 H1A O1 0.89 2.43 3.175(15) 140.9 11_666
N1 H1A O1 0.89 2.48 3.211(17) 140.0 8_556
N1 H1B O1 0.89 2.20 3.029(17) 155.0 7_566
C2 H2C O2 0.96 2.53 3.421(3) 153.9 9_666
