#------------------------------------------------------------------------------
#$Date: 2016-03-25 23:42:20 +0200 (Fri, 25 Mar 2016) $
#$Revision: 180050 $
#$URL: svn://www.crystallography.net/cod/cif/7/03/44/7034429.cif $
#------------------------------------------------------------------------------
#
# This file is available in the Crystallography Open Database (COD),
# http://www.crystallography.net/
#
# All data on this site have been placed in the public domain by the
# contributors.
#
data_7034429
loop_
_publ_author_name
'Ciupa, Aneta'
'M\;aczka, Miros\/law'
'G\;agor, Anna'
'Sieradzki, Adam'
'Trzmiel, Justyna'
'Pikul, Adam'
'Ptak, Maciej'
_publ_section_title
;
 Temperature-dependent studies of [(CH3)2NH2][Fe(III)M(II)(HCOO)6]
 frameworks (M(II) = Fe and Mg): structural, magnetic, dielectric and
 phonon properties.
;
_journal_issue                   19
_journal_name_full
'Dalton transactions (Cambridge, England : 2003)'
_journal_page_first              8846
_journal_page_last               8854
_journal_paper_doi               10.1039/c5dt00512d
_journal_volume                  44
_journal_year                    2015
_chemical_formula_sum            'C8 H14 Fe Mg N O12'
_chemical_formula_weight         396.36
_space_group_crystal_system      trigonal
_space_group_IT_number           163
_space_group_name_Hall           '-P 3 2c'
_space_group_name_H-M_alt        'P -3 1 c'
_symmetry_space_group_name_Hall  '-P 3 2c'
_symmetry_space_group_name_H-M   'P -3 1 c'
_atom_sites_solution_hydrogens   geom
_audit_creation_method           SHELXL-2014/7
_audit_update_record
;
2015-03-10 deposited with the CCDC.
2015-03-12 downloaded from the CCDC.
;
_cell_angle_alpha                90
_cell_angle_beta                 90
_cell_angle_gamma                120
_cell_formula_units_Z            2
_cell_length_a                   8.2008(2)
_cell_length_b                   8.2008(2)
_cell_length_c                   13.8667(6)
_cell_measurement_reflns_used    4102
_cell_measurement_temperature    100(2)
_cell_measurement_theta_max      28.3004
_cell_measurement_theta_min      2.8660
_cell_volume                     807.64(4)
_computing_cell_refinement
;
CrysAlisPro, Oxford Diffraction Ltd.,
Version 1.171.33.42 (release 29-05-2009 CrysAlis171 .NET)
(compiled May 29 2009,17:40:42)
;
_computing_data_collection
;
CrysAlisPro, Oxford Diffraction Ltd.,
Version 1.171.33.42 (release 29-05-2009 CrysAlis171 .NET)
(compiled May 29 2009,17:40:42)
;
_computing_data_reduction
;
CrysAlisPro, Oxford Diffraction Ltd.,
Version 1.171.33.42 (release 29-05-2009 CrysAlis171 .NET)
(compiled May 29 2009,17:40:42)
;
_computing_molecular_graphics
'Diamond Version 3.2k Crystal Impact GbR, Bonn, Germany'
_computing_structure_refinement  'SHELXL-2014/7 (Sheldrick, 2014)'
_computing_structure_solution    'SHELXL-2014/7 (Sheldrick, 2014)'
_diffrn_ambient_temperature      100(2)
_diffrn_detector_area_resol_mean 8.4350
_diffrn_measured_fraction_theta_full 0.996
_diffrn_measured_fraction_theta_max 0.996
_diffrn_measurement_device_type  'Xcalibur, Sapphire1, long nozzle'
_diffrn_radiation_monochromator  graphite
_diffrn_radiation_source         'Enhance (Mo) X-ray Source'
_diffrn_radiation_type           MoK\a
_diffrn_radiation_wavelength     0.71073
_diffrn_reflns_av_R_equivalents  0.0358
_diffrn_reflns_av_unetI/netI     0.0168
_diffrn_reflns_Laue_measured_fraction_full 0.996
_diffrn_reflns_Laue_measured_fraction_max 0.996
_diffrn_reflns_limit_h_max       10
_diffrn_reflns_limit_h_min       -10
_diffrn_reflns_limit_k_max       10
_diffrn_reflns_limit_k_min       -10
_diffrn_reflns_limit_l_max       16
_diffrn_reflns_limit_l_min       -14
_diffrn_reflns_number            7668
_diffrn_reflns_point_group_measured_fraction_full 0.996
_diffrn_reflns_point_group_measured_fraction_max 0.996
_diffrn_reflns_theta_full        25.679
_diffrn_reflns_theta_max         25.679
_diffrn_reflns_theta_min         3.223
_exptl_absorpt_coefficient_mu    1.031
_exptl_absorpt_correction_T_max  1.00000
_exptl_absorpt_correction_T_min  0.92713
_exptl_absorpt_correction_type   multi-scan
_exptl_absorpt_process_details
;
CrysAlisPro, Oxford Diffraction Ltd.,
Version 1.171.33.42 (release 29-05-2009 CrysAlis171 .NET)
(compiled May 29 2009,17:40:42)
Empirical absorption correction using spherical harmonics,
 implemented in SCALE3 ABSPACK scaling algorithm.
;
_exptl_crystal_colour            grey
_exptl_crystal_density_diffrn    1.630
_exptl_crystal_description       'rectangular prism'
_exptl_crystal_F_000             406
_exptl_crystal_size_max          0.22
_exptl_crystal_size_mid          0.11
_exptl_crystal_size_min          0.10
_refine_diff_density_max         0.578
_refine_diff_density_min         -0.327
_refine_diff_density_rms         0.056
_refine_ls_extinction_method     none
_refine_ls_goodness_of_fit_ref   0.950
_refine_ls_hydrogen_treatment    constr
_refine_ls_matrix_type           full
_refine_ls_number_parameters     44
_refine_ls_number_reflns         516
_refine_ls_number_restraints     17
_refine_ls_restrained_S_all      0.972
_refine_ls_R_factor_all          0.0337
_refine_ls_R_factor_gt           0.0271
_refine_ls_shift/su_max          0.000
_refine_ls_shift/su_mean         0.000
_refine_ls_structure_factor_coef Fsqd
_refine_ls_weighting_details
'w=1/[\s^2^(Fo^2^)+(0.0700P)^2^+0.3300P] where P=(Fo^2^+2Fc^2^)/3'
_refine_ls_weighting_scheme      calc
_refine_ls_wR_factor_gt          0.0859
_refine_ls_wR_factor_ref         0.0887
_reflns_Friedel_coverage         0.000
_reflns_number_gt                429
_reflns_number_total             516
_reflns_threshold_expression     'I > 2\s(I)'
_cod_data_source_file            c5dt00512d2.cif
_cod_data_source_block           100
_cod_depositor_comments
'Adding full bibliography for 7034429--7034431.cif.'
_cod_original_cell_volume        807.64(5)
_cod_database_code               7034429
#BEGIN Tags that were not found in dictionaries:
_shelx_shelxl_version_number     2014/7
_shelx_space_group_comment
;
The symmetry employed for this shelxl refinement is uniquely defined
by the following loop, which should always be used as a source of
symmetry information in preference to the above space-group names.
They are only intended as comments.
;
_shelx_res_file
;

    100.res created by SHELXL-2014/7


TITL dma in P-31c
CELL 0.71073   8.20083   8.2008  13.86670  90.000  90.000 120.000
ZERR    2.00   0.0002   0.0002   0.0006   0.000   0.000   0.000
LATT  1
SYMM -Y, X-Y, Z
SYMM -X+Y, -X, Z
SYMM -Y, -X, 0.5-Z
SYMM -X+Y, Y, 0.5-Z
SYMM X, X-Y, 0.5-Z
SFAC C H O MG FE N
UNIT 16 28 24 2 2 2
L.S. 20
BOND
FMAP 2
PLAN 20
shel 10 0.82
htab
omit 0 1 0
bond $h

eqiv $1   -y+1, x-y+1, z
eqiv $2   -x+y, -x+1, z
eqiv $3   -y+1, -x+1, -z+1/2
eqiv $4   -x+y, y, -z+1/2
eqiv $5   x, x-y+1, -z+1/2
eqiv $6   -x, -y+2, -z
eqiv $7   -y+1, x-y+2, z
eqiv $8   y-1, -x+y, -z
eqiv $9   -x+y-1, -x+1, z
eqiv $10  x-y+1, x+1, -z
eqiv $11  -y+1, -x+1, -z+3/2
eqiv $12  -x+y, y, -z+3/2
eqiv $13  x, x-y+1, -z+3/2
eqiv $14 x-y+1, -y+1, z+1/2
eqiv $15 y, -x+y, -z+1
eqiv $16 -x, -y+1, -z+1
EQIV $17 x-y+1, x+1, -z+1

free C2 N1_$2
free C2 N1_$1
free C21 N1_$11
free C2 c21_$11
free C21 C2_$11
free C21 N1_$2
free C21 N1_$1
free C21 N1_$12
free C21 N1_$11
free C21 N1_$13
free C21 C21_$11

free N1 N1_$12
free N1 N1_$1
free N1 N1_$2
free N1 N1_$11
free N1 C21_$11
free N1 N1_$13
acta 56
htab N1 O1_$14
htab N1  O1_$15
htab N1 O1_$16
HTAB C2 O2_$17

eadp fe1 mg1
exyz fe1 mg1
eadp fe2 mg2
exyz fe2 mg2

dfix 1.44 0.01 n1 c2
dfix 1.44 0.01 n1 c21
eadp c2 c21
sump 1 0.001 1 2 1 3
sump 1 0.001 1 4 1 5

sump 5 0.001 3 2 2 3 3 4 2 5

WGHT    0.070000    0.330000
FVAR       1.90659   0.31999   0.67976   0.68125   0.31848
MOLE   1
FE1   5    0.333333    0.666667    0.250000    20.16667    0.00611    0.00611 =
         0.00780    0.00000    0.00000    0.00306
MG1   4    0.333333    0.666667    0.250000    30.16667    0.00611    0.00611 =
         0.00780    0.00000    0.00000    0.00306
FE2   5    0.000000    1.000000    0.000000    40.16667    0.00422    0.00422 =
         0.00546    0.00000    0.00000    0.00211
MG2   4    0.000000    1.000000    0.000000    50.16667    0.00422    0.00422 =
         0.00546    0.00000    0.00000    0.00211

O1    3    0.121256    0.660690    0.168424    11.00000    0.01690    0.01442 =
         0.02078    0.00580   -0.00362    0.00763
O2    3   -0.010905    0.791562    0.082351    11.00000    0.01372    0.01418 =
         0.01711    0.00287   -0.00172    0.00755
C1    1    0.128832    0.790849    0.119127    11.00000    0.01373    0.01491 =
         0.01860    0.00303    0.00105    0.00760
AFIX  43
H1    2    0.246847    0.895690    0.108646    11.00000   -1.20000
AFIX   0

MOLE   2

delu c2 c21
isor 0.0045 c2 c21
N1    6    0.286720    0.558787    0.774234    10.16667    0.04233
AFIX  23
H1A   2    0.345837    0.492656    0.774024    10.16667   -1.20000
H1B   2    0.163633    0.476872    0.774024    10.16667   -1.20000
AFIX   0

C2    1    0.333333    0.666667    0.864978    10.16667    0.03915    0.03915 =
         0.09133    0.00000    0.00000    0.01958
AFIX 133
H2A   2    0.461252    0.768227    0.862525    10.16667   -1.50000
H2B   2    0.318589    0.585344    0.918112    10.16667   -1.50000
H2C   2    0.250509    0.716669    0.873381    10.16667   -1.50000
AFIX   0

C21   1    0.333333    0.666667    0.685706    10.16667    0.03915    0.03915 =
         0.09133    0.00000    0.00000    0.01958
AFIX 133
H21A  2    0.300670    0.763464    0.691768    10.16667   -1.50000
H21B  2    0.264317    0.584887    0.633153    10.16667   -1.50000
H21C  2    0.465911    0.723155    0.673517    10.16667   -1.50000

AFIX   0
HKLF 4

REM  dma in P-31c
REM R1 =  0.0256 for     429 Fo > 4sig(Fo)  and  0.0320 for all     516 data
REM     44 parameters refined using     17 restraints

END

WGHT      0.0373      0.4721

REM Instructions for potential hydrogen bonds
HTAB C1 O1_$2
HTAB N1 O1_$15
HTAB N1 O1_$14
HTAB N1 O1_$16
HTAB C2 O2_$17

REM Highest difference peak  0.578,  deepest hole -0.327,  1-sigma level  0.056
Q1    1   0.3333  0.6667  0.7500  10.16667  0.05    0.58
Q2    1   0.3333  0.6667  0.9205  10.33333  0.05    0.58
Q3    1   0.0299  0.8966  0.0439  11.00000  0.05    0.19
Q4    1   0.2667  0.5239  0.9115  11.00000  0.05    0.15
Q5    1   0.3506  0.5641  0.9604  11.00000  0.05    0.12
Q6    1   0.1199  0.4166  0.8223  11.00000  0.05    0.12
Q7    1   0.2797  0.8957  0.0635  11.00000  0.05    0.12
Q8    1  -0.0054  0.5565  0.1841  11.00000  0.05    0.12
Q9    1  -0.1429  0.6467  0.0535  11.00000  0.05    0.12
Q10   1   0.3889  0.5801  0.9088  11.00000  0.05    0.12
Q11   1   0.3601  0.4405  0.7492  11.00000  0.05    0.11
Q12   1   0.5132  0.8190  0.6678  11.00000  0.05    0.10
Q13   1   0.2431  0.9358  0.1611  11.00000  0.05    0.10
Q14   1   0.4521  0.5674  0.8170  11.00000  0.05    0.10
Q15   1  -0.0382  0.7687  0.0078  11.00000  0.05    0.09
Q16   1   0.4009  0.3880  0.7492  11.00000  0.05    0.09
Q17   1   0.2365  0.8530  0.8759  11.00000  0.05    0.08
Q18   1   0.0860  0.1720  0.7500  10.50000  0.05    0.08
Q19   1   0.2602  0.3142  0.7643  11.00000  0.05    0.08
Q20   1  -0.1466  0.7207  0.1676  11.00000  0.05    0.08
;
_shelx_res_checksum              73353
#END Tags that were not found in dictionaries
loop_
_space_group_symop_operation_xyz
'x, y, z'
'-y, x-y, z'
'-x+y, -x, z'
'-y, -x, -z+1/2'
'-x+y, y, -z+1/2'
'x, x-y, -z+1/2'
'-x, -y, -z'
'y, -x+y, -z'
'x-y, x, -z'
'y, x, z-1/2'
'x-y, -y, z-1/2'
'-x, -x+y, z-1/2'
loop_
_atom_site_label
_atom_site_type_symbol
_atom_site_fract_x
_atom_site_fract_y
_atom_site_fract_z
_atom_site_U_iso_or_equiv
_atom_site_adp_type
_atom_site_occupancy
_atom_site_site_symmetry_order
_atom_site_calc_flag
_atom_site_refinement_flags_posn
_atom_site_refinement_flags_adp
_atom_site_refinement_flags_occupancy
Fe1 Fe 0.3333 0.6667 0.2500 0.0067(4) Uani 0.320(4) 6 d S T P
Mg1 Mg 0.3333 0.6667 0.2500 0.0067(4) Uani 0.680(4) 6 d S T P
Fe2 Fe 0.0000 1.0000 0.0000 0.0046(3) Uani 0.681(4) 6 d S T P
Mg2 Mg 0.0000 1.0000 0.0000 0.0046(3) Uani 0.318(4) 6 d S T P
O1 O 0.12126(19) 0.66069(19) 0.16842(9) 0.0175(4) Uani 1 1 d . . .
O2 O -0.01090(18) 0.79156(19) 0.08235(9) 0.0147(4) Uani 1 1 d . . .
C1 C 0.1288(3) 0.7908(3) 0.11913(12) 0.0156(5) Uani 1 1 d . . .
H1 H 0.2468 0.8957 0.1086 0.019 Uiso 1 1 calc R U .
N1 N 0.287(2) 0.5588(17) 0.7742(6) 0.042(4) Uiso 0.1667 1 d D . P
H1A H 0.3458 0.4927 0.7740 0.051 Uiso 0.1667 1 calc R U P
H1B H 0.1636 0.4769 0.7740 0.051 Uiso 0.1667 1 calc R U P
C2 C 0.3333 0.6667 0.8650(8) 0.057(2) Uani 0.5 3 d DS TU P
H2A H 0.4613 0.7682 0.8625 0.085 Uiso 0.1667 1 calc R U P
H2B H 0.3186 0.5853 0.9181 0.085 Uiso 0.1667 1 calc R U P
H2C H 0.2505 0.7167 0.8734 0.085 Uiso 0.1667 1 calc R U P
C21 C 0.3333 0.6667 0.6857(8) 0.057(2) Uani 0.5 3 d DS TU P
H21A H 0.3007 0.7635 0.6918 0.085 Uiso 0.1667 1 calc R U P
H21B H 0.2643 0.5849 0.6332 0.085 Uiso 0.1667 1 calc R U P
H21C H 0.4659 0.7232 0.6735 0.085 Uiso 0.1667 1 calc R U P
loop_
_atom_site_aniso_label
_atom_site_aniso_U_11
_atom_site_aniso_U_22
_atom_site_aniso_U_33
_atom_site_aniso_U_23
_atom_site_aniso_U_13
_atom_site_aniso_U_12
Fe1 0.0061(4) 0.0061(4) 0.0078(6) 0.000 0.000 0.0031(2)
Mg1 0.0061(4) 0.0061(4) 0.0078(6) 0.000 0.000 0.0031(2)
Fe2 0.0042(3) 0.0042(3) 0.0055(4) 0.000 0.000 0.00211(16)
Mg2 0.0042(3) 0.0042(3) 0.0055(4) 0.000 0.000 0.00211(16)
O1 0.0169(8) 0.0144(7) 0.0208(8) 0.0058(6) -0.0036(6) 0.0076(6)
O2 0.0137(7) 0.0142(7) 0.0171(7) 0.0029(5) -0.0017(6) 0.0076(6)
C1 0.0137(10) 0.0149(10) 0.0186(10) 0.0030(8) 0.0010(8) 0.0076(8)
C2 0.0392(19) 0.0392(19) 0.091(6) 0.000 0.000 0.0196(9)
C21 0.0392(19) 0.0392(19) 0.091(6) 0.000 0.000 0.0196(9)
loop_
_atom_type_symbol
_atom_type_description
_atom_type_scat_dispersion_real
_atom_type_scat_dispersion_imag
_atom_type_scat_source
C C 0.0033 0.0016 'International Tables Vol C Tables 4.2.6.8 and 6.1.1.4'
H H 0.0000 0.0000 'International Tables Vol C Tables 4.2.6.8 and 6.1.1.4'
O O 0.0106 0.0060 'International Tables Vol C Tables 4.2.6.8 and 6.1.1.4'
Mg Mg 0.0486 0.0363 'International Tables Vol C Tables 4.2.6.8 and 6.1.1.4'
Fe Fe 0.3463 0.8444 'International Tables Vol C Tables 4.2.6.8 and 6.1.1.4'
N N 0.0061 0.0033 'International Tables Vol C Tables 4.2.6.8 and 6.1.1.4'
loop_
_geom_angle_atom_site_label_1
_geom_angle_atom_site_label_2
_geom_angle_atom_site_label_3
_geom_angle
_geom_angle_site_symmetry_1
_geom_angle_site_symmetry_3
O1 Fe1 O1 89.14(8) . 4_665
O1 Fe1 O1 92.60(5) . 3_565
O1 Fe1 O1 85.71(7) 4_665 3_565
O1 Fe1 O1 85.71(7) . 6_565
O1 Fe1 O1 92.60(5) 4_665 6_565
O1 Fe1 O1 177.63(8) 3_565 6_565
O1 Fe1 O1 92.60(5) . 2_665
O1 Fe1 O1 177.63(8) 4_665 2_665
O1 Fe1 O1 92.60(5) 3_565 2_665
O1 Fe1 O1 89.14(8) 6_565 2_665
O1 Fe1 O1 177.63(8) . 5
O1 Fe1 O1 92.60(5) 4_665 5
O1 Fe1 O1 89.14(8) 3_565 5
O1 Fe1 O1 92.60(5) 6_565 5
O1 Fe1 O1 85.71(7) 2_665 5
O2 Fe2 O2 91.19(5) 7_575 8_455
O2 Fe2 O2 88.81(5) 7_575 2_675
O2 Fe2 O2 180.00(6) 8_455 2_675
O2 Fe2 O2 91.19(5) 7_575 9_665
O2 Fe2 O2 91.19(5) 8_455 9_665
O2 Fe2 O2 88.81(5) 2_675 9_665
O2 Fe2 O2 88.81(5) 7_575 3_465
O2 Fe2 O2 88.81(5) 8_455 3_465
O2 Fe2 O2 91.19(5) 2_675 3_465
O2 Fe2 O2 180.0 9_665 3_465
O2 Fe2 O2 180.0 7_575 .
O2 Fe2 O2 88.81(5) 8_455 .
O2 Fe2 O2 91.19(5) 2_675 .
O2 Fe2 O2 88.81(5) 9_665 .
O2 Fe2 O2 91.19(5) 3_465 .
C1 O1 Fe1 127.17(13) . .
C1 O2 Fe2 125.35(13) . .
O1 C1 O2 124.96(18) . .
O1 C1 H1 117.5 . .
O2 C1 H1 117.5 . .
C21 N1 C2 116.5(10) . .
C21 N1 H1A 108.2 . .
C2 N1 H1A 108.2 . .
C21 N1 H1B 108.2 . .
C2 N1 H1B 108.2 . .
H1A N1 H1B 107.3 . .
N1 C2 H2A 109.5 . .
N1 C2 H2B 109.5 . .
H2A C2 H2B 109.5 . .
N1 C2 H2C 109.5 . .
H2A C2 H2C 109.5 . .
H2B C2 H2C 109.5 . .
N1 C21 H21A 109.5 . .
N1 C21 H21B 109.5 . .
H21A C21 H21B 109.5 . .
N1 C21 H21C 109.5 . .
H21A C21 H21C 109.5 . .
H21B C21 H21C 109.5 . .
loop_
_geom_bond_atom_site_label_1
_geom_bond_atom_site_label_2
_geom_bond_distance
_geom_bond_site_symmetry_2
Fe1 O1 2.0546(13) .
Fe1 O1 2.0547(13) 4_665
Fe1 O1 2.0547(13) 3_565
Fe1 O1 2.0547(13) 6_565
Fe1 O1 2.0547(13) 2_665
Fe1 O1 2.0547(13) 5
Fe2 O2 2.0202(13) 7_575
Fe2 O2 2.0202(13) 8_455
Fe2 O2 2.0202(13) 2_675
Fe2 O2 2.0202(13) 9_665
Fe2 O2 2.0202(13) 3_465
Fe2 O2 2.0202(13) .
O1 C1 1.243(2) .
O2 C1 1.257(2) .
C1 H1 0.9300 .
N1 C21 1.448(9) .
N1 C2 1.474(8) .
N1 H1A 0.8900 .
N1 H1B 0.8900 .
C2 H2A 0.9600 .
C2 H2B 0.9600 .
C2 H2C 0.9600 .
C21 H21A 0.9600 .
C21 H21B 0.9600 .
C21 H21C 0.9600 .
loop_
_geom_hbond_atom_site_label_D
_geom_hbond_atom_site_label_H
_geom_hbond_atom_site_label_A
_geom_hbond_distance_DH
_geom_hbond_distance_HA
_geom_hbond_distance_DA
_geom_hbond_angle_DHA
_geom_hbond_site_symmetry_A
N1 H1A O1 0.89 2.41 3.161(15) 142.6 11_666
N1 H1A O1 0.89 2.54 3.248(18) 136.8 8_556
N1 H1B O1 0.89 2.18 3.007(17) 155.4 7_566
C2 H2C O2 0.96 2.55 3.422(3) 150.3 9_666
