#------------------------------------------------------------------------------
#$Date: 2015-08-08 05:25:30 +0300 (Sat, 08 Aug 2015) $
#$Revision: 153198 $
#$URL: svn://www.crystallography.net/cod/cif/7/03/54/7035406.cif $
#------------------------------------------------------------------------------
#
# This file is available in the Crystallography Open Database (COD),
# http://www.crystallography.net/
#
# All data on this site have been placed in the public domain by the
# contributors.
#
data_7035406
loop_
_publ_author_name
'Ciupa, Aneta'
'M\;aczka, Miros\/law'
'G\;agor, Anna'
'Pikul, Adam'
'Ptak, Maciej'
_publ_section_title
;
 Synthesis and characterization of novel niccolites
 [(CH3)2NH2][Fe(III)M(II)(HCOO)6] (M(II) = Zn, Ni, Cu).
;
_journal_issue                   29
_journal_name_full
'Dalton transactions (Cambridge, England : 2003)'
_journal_page_first              13234
_journal_page_last               13241
_journal_paper_doi               10.1039/c5dt01608h
_journal_volume                  44
_journal_year                    2015
_chemical_formula_sum            'C8 H14 Fe N Ni O12'
_chemical_formula_weight         430.76
_space_group_crystal_system      trigonal
_space_group_IT_number           163
_space_group_name_Hall           '-P 3 2c'
_space_group_name_H-M_alt        'P -3 1 c'
_symmetry_space_group_name_Hall  '-P 3 2c'
_symmetry_space_group_name_H-M   'P -3 1 c'
_atom_sites_solution_hydrogens   mixed
_audit_creation_method           SHELXL-2014/7
_audit_update_record
;
2015-04-24 deposited with the CCDC.
2015-06-12 downloaded from the CCDC.
;
_cell_angle_alpha                90
_cell_angle_beta                 90
_cell_angle_gamma                120
_cell_formula_units_Z            2
_cell_length_a                   8.1856(7)
_cell_length_b                   8.1856(7)
_cell_length_c                   13.6517(17)
_cell_measurement_reflns_used    1320
_cell_measurement_temperature    298(2)
_cell_measurement_theta_max      27.5969
_cell_measurement_theta_min      2.8676
_cell_volume                     792.17(14)
_computing_structure_refinement  'SHELXL-2014/7 (Sheldrick, 2014)'
_computing_structure_solution    'SHELXL-2014/7 (Sheldrick, 2014)'
_diffrn_ambient_temperature      298(2)
_diffrn_detector_area_resol_mean 8.4350
_diffrn_measured_fraction_theta_full 0.998
_diffrn_measured_fraction_theta_max 0.998
_diffrn_measurement_device_type  'Xcalibur, Sapphire1, long nozzle'
_diffrn_radiation_monochromator  graphite
_diffrn_radiation_source         'Enhance (Mo) X-ray Source'
_diffrn_radiation_type           MoK\a
_diffrn_radiation_wavelength     0.71073
_diffrn_reflns_av_R_equivalents  0.0777
_diffrn_reflns_av_unetI/netI     0.0505
_diffrn_reflns_laue_measured_fraction_full 0.998
_diffrn_reflns_laue_measured_fraction_max 0.998
_diffrn_reflns_limit_h_max       9
_diffrn_reflns_limit_h_min       -9
_diffrn_reflns_limit_k_max       9
_diffrn_reflns_limit_k_min       -9
_diffrn_reflns_limit_l_max       16
_diffrn_reflns_limit_l_min       -16
_diffrn_reflns_number            5333
_diffrn_reflns_point_group_measured_fraction_full 0.998
_diffrn_reflns_point_group_measured_fraction_max 0.998
_diffrn_reflns_theta_full        25.593
_diffrn_reflns_theta_max         25.593
_diffrn_reflns_theta_min         2.873
_exptl_absorpt_coefficient_mu    2.164
_exptl_absorpt_correction_T_max  1.00000
_exptl_absorpt_correction_T_min  0.93344
_exptl_absorpt_correction_type   multi-scan
_exptl_absorpt_process_details
;
CrysAlisPro, Oxford Diffraction Ltd.,
Version 1.171.34.44 (release 25-10-2010 CrysAlis171 .NET)
(compiled Oct 25 2010,18:11:34)
Empirical absorption correction using spherical harmonics,
 implemented in SCALE3 ABSPACK scaling algorithm.
;
_exptl_crystal_colour            blue
_exptl_crystal_density_diffrn    1.806
_exptl_crystal_description       needle
_exptl_crystal_F_000             438
_exptl_crystal_size_max          0.15
_exptl_crystal_size_mid          0.05
_exptl_crystal_size_min          0.04
_refine_diff_density_max         0.415
_refine_diff_density_min         -0.422
_refine_diff_density_rms         0.081
_refine_ls_extinction_method     none
_refine_ls_goodness_of_fit_ref   1.099
_refine_ls_hydrogen_treatment    constr
_refine_ls_matrix_type           full
_refine_ls_number_parameters     42
_refine_ls_number_reflns         507
_refine_ls_number_restraints     14
_refine_ls_restrained_S_all      1.086
_refine_ls_R_factor_all          0.0602
_refine_ls_R_factor_gt           0.0411
_refine_ls_shift/su_max          0.043
_refine_ls_shift/su_mean         0.008
_refine_ls_structure_factor_coef Fsqd
_refine_ls_weighting_details
'w=1/[\s^2^(Fo^2^)+(0.0055P)^2^+2.2800P] where P=(Fo^2^+2Fc^2^)/3'
_refine_ls_weighting_scheme      calc
_refine_ls_wR_factor_gt          0.0751
_refine_ls_wR_factor_ref         0.0804
_reflns_Friedel_coverage         0.000
_reflns_number_gt                391
_reflns_number_total             507
_reflns_threshold_expression     'I > 2\s(I)'
_cod_data_source_file            c5dt01608h2.cif
_cod_data_source_block           nife
_cod_depositor_comments
'Adding full bibliography for 7035405--7035406.cif.'
_cod_original_cell_volume        792.17(17)
_cod_database_code               7035406
_shelx_shelxl_version_number     2014/7
_shelx_space_group_comment
;
The symmetry employed for this shelxl refinement is uniquely defined
by the following loop, which should always be used as a source of
symmetry information in preference to the above space-group names.
They are only intended as comments.
;
_shelx_res_file
;

    nife.res created by SHELXL-2014/7


TITL DMFeNi in P-31c
CELL 0.71073   8.185582   8.185582  13.651729  90.0000  90.0000 120.0000
ZERR    3.00   0.000735   0.000735   0.001668   0.0000   0.0000   0.0000
LATT  1
SYMM -Y, X-Y, Z
SYMM -X+Y, -X, Z
SYMM -Y, -X, 0.5-Z
SYMM -X+Y, Y, 0.5-Z
SYMM X, X-Y, 0.5-Z
SFAC C H O Ni FE N
UNIT 16 28 24 2 2 2

L.S. 12
BOND
FMAP 2
PLAN 20
shel 10 0.82
htab
eqiv $1   -y+1, x-y+1, z
eqiv $2   -x+y, -x+1, z
eqiv $3   -y+1, -x+1, -z+1/2
eqiv $4   -x+y, y, -z+1/2
eqiv $5   x, x-y+1, -z+1/2
eqiv $6   -x, -y+2, -z
eqiv $7   -y+1, x-y+2, z
eqiv $8   y-1, -x+y, -z
eqiv $9   -x+y-1, -x+1, z
eqiv $10  x-y+1, x+1, -z
eqiv $11  -y+1, -x+1, -z+3/2
eqiv $12  -x+y, y, -z+3/2
eqiv $13  x, x-y+1, -z+3/2
eqiv $14 x-y+1, -y+1, z+1/2
eqiv $15 y, -x+y, -z+1
eqiv $16 -x, -y+1, -z+1
EQIV $17 x-y+1, x+1, -z+1
eadp c2 c21
htab N1 O1_$14
htab N1  O1_$15
htab N1 O1_$16
HTAB C2 O2_$17

free C2 N1_$2
free C2 N1_$1
free C21 N1_$11
free C2 c21_$11
free C21 C2_$11
free C21 N1_$2
free C21 N1_$1
free C21 N1_$12
free C21 N1_$11
free C21 N1_$13
free C21 C21_$11

free N1 N1_$12
free N1 N1_$1
free N1 N1_$2
free N1 N1_$11
free N1 C21_$11
free N1 N1_$13
omit 1 2 3
dfix 1.43 0.01 n1 c2
dfix 1.43 0.01 n1 c21
acta 56
eadp fe1 ni1
exyz fe1 ni1
eadp fe2 ni2
exyz fe2 ni2
sump 1 0.001 1 2 1 3
sump 1 0.001 1 4 1 5
sump 5 0.001 3 2 2 3 3 4 2 5
WGHT    0.017000    2.100000
FVAR       0.55678   0.49299   0.50654   0.50914   0.49028
MOLE   1
FE1   5    0.333333    0.666667    0.250000    20.16667    0.01336    0.01336 =
         0.01742    0.00000    0.00000    0.00668
NI1   4    0.333333    0.666667    0.250000    30.16667    0.01336    0.01336 =
         0.01742    0.00000    0.00000    0.00668
FE2   5    0.000000    1.000000    0.000000    40.16667    0.01230    0.01230 =
         0.01693    0.00000    0.00000    0.00615
NI2   4    0.000000    1.000000    0.000000    50.16667    0.01230    0.01230 =
         0.01693    0.00000    0.00000    0.00615

O1    3    0.122397    0.659412    0.168594    11.00000    0.02510    0.02063 =
         0.03670    0.00935   -0.00539    0.01093
O2    3   -0.009362    0.791127    0.083314    11.00000    0.02146    0.02535 =
         0.03041    0.00416   -0.00427    0.01320
C1    1    0.128673    0.789723    0.120549    11.00000    0.02314    0.02647 =
         0.03180    0.00595    0.00074    0.01235
AFIX  43
H1    2    0.246546    0.896094    0.111307    11.00000   -1.20000
AFIX   0
isor 0.008 c2 c21
C2    1    0.333333    0.666667    0.875170    10.16667    0.08438    0.08438 =
         0.11175    0.00000    0.00000    0.04219
AFIX 133
H2A   2    0.459906    0.771602    0.873911    10.16667   -1.50000
H2B   2    0.321668    0.581675    0.926702    10.16667   -1.50000
H2C   2    0.246777    0.711552    0.886590    10.16667   -1.50000
AFIX   0

C21   1    0.333333    0.666667    0.690263    10.16667    0.08438    0.08438 =
         0.11175    0.00000    0.00000    0.04219
AFIX 133
H21A  2    0.463193    0.712361    0.673987    10.16667   -1.50000
H21B  2    0.311290    0.771083    0.695066    10.16667   -1.50000
H21C  2    0.254020    0.581734    0.640145    10.16667   -1.50000
AFIX   0
N1    6    0.290697    0.569172    0.782393    10.16667    0.05061
AFIX   1
H1A   2    0.354280    0.495013    0.779050    10.16667   -1.20000
H1B   2    0.167060    0.470550    0.779050    10.16667   -1.20000
AFIX   0
HKLF 4

REM  DMFeNi in P-31c
REM R1 =  0.0411 for     391 Fo > 4sig(Fo)  and  0.0602 for all     507 data
REM     44 parameters refined using     17 restraints

END

WGHT      0.0196      1.9658

REM Instructions for potential hydrogen bonds
HTAB C1 O1_$2
HTAB C2 O2_$17
HTAB N1 O1_$15
HTAB N1 O1_$14
HTAB N1 O1_$16
HTAB N1 O2_$16

REM Highest difference peak  0.415,  deepest hole -0.422,  1-sigma level  0.081
Q1    1   0.3333  0.6667  0.7500  10.16667  0.05    0.31
Q2    1   0.1402  0.4658  0.8349  11.00000  0.05    0.29
Q3    1   0.1468  0.6148  0.1940  11.00000  0.05    0.27
Q4    1   0.1434  0.6119  0.1181  11.00000  0.05    0.27
Q5    1   0.1888  0.6961  0.1948  11.00000  0.05    0.25
Q6    1   0.1687  0.7364  0.1921  11.00000  0.05    0.25
Q7    1   0.0626  0.5794  0.1922  11.00000  0.05    0.23
Q8    1   0.1094  0.6888  0.9145  11.00000  0.05    0.22
Q9    1   0.3333  0.6667  0.9816  10.33333  0.05    0.22
Q10   1   0.0134  0.8185  0.0175  11.00000  0.05    0.22
Q11   1   0.3234  0.5661  0.9806  11.00000  0.05    0.21
Q12   1   0.0799  0.6899  0.1996  11.00000  0.05    0.21
Q13   1   0.0000  1.0000  0.0811  10.33333  0.05    0.20
Q14   1   0.2230  0.5478  0.9289  11.00000  0.05    0.20
Q15   1  -0.0064  0.5772  0.0289  11.00000  0.05    0.20
Q16   1   0.2626  0.5252  0.2500  10.50000  0.05    0.20
Q17   1   0.1565  0.5199  0.1627  11.00000  0.05    0.20
Q18   1  -0.0550  0.8810  0.0689  11.00000  0.05    0.19
Q19   1  -0.1565  0.6542  0.0859  11.00000  0.05    0.19
Q20   1   0.1398  0.6953  0.0608  11.00000  0.05    0.19
;
_shelx_res_checksum              46426
loop_
_space_group_symop_operation_xyz
'x, y, z'
'-y, x-y, z'
'-x+y, -x, z'
'-y, -x, -z+1/2'
'-x+y, y, -z+1/2'
'x, x-y, -z+1/2'
'-x, -y, -z'
'y, -x+y, -z'
'x-y, x, -z'
'y, x, z-1/2'
'x-y, -y, z-1/2'
'-x, -x+y, z-1/2'
loop_
_atom_site_label
_atom_site_type_symbol
_atom_site_fract_x
_atom_site_fract_y
_atom_site_fract_z
_atom_site_U_iso_or_equiv
_atom_site_adp_type
_atom_site_occupancy
_atom_site_site_symmetry_order
_atom_site_calc_flag
_atom_site_refinement_flags_posn
_atom_site_refinement_flags_adp
_atom_site_refinement_flags_occupancy
Fe1 Fe 0.3333 0.6667 0.2500 0.0147(4) Uani 0.493(7) 6 d S T P
Ni1 Ni 0.3333 0.6667 0.2500 0.0147(4) Uani 0.507(7) 6 d S T P
Fe2 Fe 0.0000 1.0000 0.0000 0.0138(4) Uani 0.509(7) 6 d S T P
Ni2 Ni 0.0000 1.0000 0.0000 0.0138(4) Uani 0.490(7) 6 d S T P
O1 O 0.1224(4) 0.6594(4) 0.1686(2) 0.0277(7) Uani 1 1 d . . .
O2 O -0.0094(4) 0.7911(4) 0.0833(2) 0.0251(7) Uani 1 1 d . . .
C1 C 0.1287(6) 0.7897(6) 0.1205(3) 0.0272(10) Uani 1 1 d . . .
H1 H 0.2465 0.8961 0.1113 0.033 Uiso 1 1 calc R U .
C2 C 0.3333 0.6667 0.8752(15) 0.094(7) Uani 0.5 3 d DS TU P
H2A H 0.4599 0.7716 0.8739 0.140 Uiso 0.1667 1 calc R U P
H2B H 0.3217 0.5817 0.9267 0.140 Uiso 0.1667 1 calc R U P
H2C H 0.2468 0.7116 0.8866 0.140 Uiso 0.1667 1 calc R U P
C21 C 0.3333 0.6667 0.690(2) 0.094(7) Uani 0.5 3 d DS TU P
H21A H 0.4632 0.7124 0.6740 0.140 Uiso 0.1667 1 calc R U P
H21B H 0.3113 0.7711 0.6951 0.140 Uiso 0.1667 1 calc R U P
H21C H 0.2540 0.5817 0.6401 0.140 Uiso 0.1667 1 calc R U P
N1 N 0.291(5) 0.569(4) 0.7824(14) 0.051(9) Uiso 0.1667 1 d D . P
H1A H 0.3543 0.4950 0.7790 0.061 Uiso 0.1667 1 d . U P
H1B H 0.1671 0.4706 0.7790 0.061 Uiso 0.1667 1 d . U P
loop_
_atom_site_aniso_label
_atom_site_aniso_U_11
_atom_site_aniso_U_22
_atom_site_aniso_U_33
_atom_site_aniso_U_23
_atom_site_aniso_U_13
_atom_site_aniso_U_12
Fe1 0.0134(5) 0.0134(5) 0.0174(8) 0.000 0.000 0.0067(2)
Ni1 0.0134(5) 0.0134(5) 0.0174(8) 0.000 0.000 0.0067(2)
Fe2 0.0123(5) 0.0123(5) 0.0169(8) 0.000 0.000 0.0061(2)
Ni2 0.0123(5) 0.0123(5) 0.0169(8) 0.000 0.000 0.0061(2)
O1 0.0251(18) 0.0206(16) 0.0367(18) 0.0093(16) -0.0054(14) 0.0109(15)
O2 0.0215(16) 0.0254(17) 0.0304(17) 0.0042(14) -0.0043(15) 0.0132(15)
C1 0.023(3) 0.026(3) 0.032(3) 0.006(2) 0.001(2) 0.012(2)
C2 0.084(6) 0.084(6) 0.112(12) 0.000 0.000 0.042(3)
C21 0.084(6) 0.084(6) 0.112(12) 0.000 0.000 0.042(3)
loop_
_atom_type_symbol
_atom_type_description
_atom_type_scat_dispersion_real
_atom_type_scat_dispersion_imag
_atom_type_scat_source
C C 0.0033 0.0016 'International Tables Vol C Tables 4.2.6.8 and 6.1.1.4'
H H 0.0000 0.0000 'International Tables Vol C Tables 4.2.6.8 and 6.1.1.4'
O O 0.0106 0.0060 'International Tables Vol C Tables 4.2.6.8 and 6.1.1.4'
Ni Ni 0.3393 1.1124 'International Tables Vol C Tables 4.2.6.8 and 6.1.1.4'
Fe Fe 0.3463 0.8444 'International Tables Vol C Tables 4.2.6.8 and 6.1.1.4'
N N 0.0061 0.0033 'International Tables Vol C Tables 4.2.6.8 and 6.1.1.4'
loop_
_geom_angle_atom_site_label_1
_geom_angle_atom_site_label_2
_geom_angle_atom_site_label_3
_geom_angle
_geom_angle_site_symmetry_1
_geom_angle_site_symmetry_3
O1 Fe1 O1 92.87(12) 4_665 6_565
O1 Fe1 O1 85.06(17) 4_665 3_565
O1 Fe1 O1 177.09(18) 6_565 3_565
O1 Fe1 O1 177.09(18) 4_665 2_665
O1 Fe1 O1 89.27(18) 6_565 2_665
O1 Fe1 O1 92.87(12) 3_565 2_665
O1 Fe1 O1 92.87(12) 4_665 5
O1 Fe1 O1 92.87(12) 6_565 5
O1 Fe1 O1 89.27(18) 3_565 5
O1 Fe1 O1 85.06(17) 2_665 5
O1 Fe1 O1 89.27(18) 4_665 .
O1 Fe1 O1 85.06(17) 6_565 .
O1 Fe1 O1 92.87(12) 3_565 .
O1 Fe1 O1 92.87(12) 2_665 .
O1 Fe1 O1 177.09(18) 5 .
O2 Fe2 O2 180.00(14) 8_455 2_675
O2 Fe2 O2 91.47(12) 8_455 9_665
O2 Fe2 O2 88.53(12) 2_675 9_665
O2 Fe2 O2 91.47(12) 8_455 7_575
O2 Fe2 O2 88.53(12) 2_675 7_575
O2 Fe2 O2 91.47(12) 9_665 7_575
O2 Fe2 O2 88.53(12) 8_455 3_465
O2 Fe2 O2 91.47(12) 2_675 3_465
O2 Fe2 O2 180.0 9_665 3_465
O2 Fe2 O2 88.53(12) 7_575 3_465
O2 Fe2 O2 88.52(12) 8_455 .
O2 Fe2 O2 91.48(12) 2_675 .
O2 Fe2 O2 88.52(12) 9_665 .
O2 Fe2 O2 180.0 7_575 .
O2 Fe2 O2 91.48(12) 3_465 .
C1 O1 Fe1 126.9(3) . .
C1 O2 Fe2 125.9(3) . .
O1 C1 O2 125.5(4) . .
C21 N1 C2 122(2) . .
loop_
_geom_bond_atom_site_label_1
_geom_bond_atom_site_label_2
_geom_bond_distance
_geom_bond_site_symmetry_2
Fe1 O1 2.029(3) 4_665
Fe1 O1 2.029(3) 6_565
Fe1 O1 2.029(3) 3_565
Fe1 O1 2.029(3) 2_665
Fe1 O1 2.029(3) 5
Fe1 O1 2.029(3) .
Fe2 O2 2.023(3) 8_455
Fe2 O2 2.023(3) 2_675
Fe2 O2 2.023(3) 9_665
Fe2 O2 2.023(3) 7_575
Fe2 O2 2.023(3) 3_465
Fe2 O2 2.023(3) .
O1 C1 1.231(5) .
O2 C1 1.244(5) .
C2 N1 1.444(10) .
C21 N1 1.436(10) .
loop_
_geom_hbond_atom_site_label_D
_geom_hbond_atom_site_label_H
_geom_hbond_atom_site_label_A
_geom_hbond_distance_DH
_geom_hbond_distance_HA
_geom_hbond_distance_DA
_geom_hbond_angle_DHA
_geom_hbond_site_symmetry_A
N1 H1A O1 0.98 2.41 3.25(3) 143.7 11_666
N1 H1A O1 0.98 2.45 3.23(3) 136.1 8_556
N1 H1B O1 0.93 2.18 3.01(3) 148.9 7_566
C2 H2C O2 0.96 2.53 3.385(5) 147.8 9_666
