#------------------------------------------------------------------------------
#$Date: 2015-07-11 00:21:58 +0300 (Sat, 11 Jul 2015) $
#$Revision: 143510 $
#$URL: svn://www.crystallography.net/cod/cif/7/03/52/7035258.cif $
#------------------------------------------------------------------------------
#
# This file is available in the Crystallography Open Database (COD),
# http://www.crystallography.net/
#
# All data on this site have been placed in the public domain by the
# contributors.
#
data_7035258
loop_
_publ_author_name
'Kireenko, Marina M.'
'Kuchuk, Ekaterina A.'
'Zaitsev, Kirill V.'
'Tafeenko, Viktor A.'
'Oprunenko, Yuri F.'
'Churakov, Andrei V.'
'Lermontova, Elmira Kh'
'Zaitseva, Galina S.'
'Karlov, Sergey S.'
_publ_section_title
;
 Aluminum complexes based on pyridine substituted alcohols: synthesis,
 structure, and catalytic application in ROP.
;
_journal_issue                   26
_journal_name_full
'Dalton transactions (Cambridge, England : 2003)'
_journal_page_first              11963
_journal_page_last               11976
_journal_paper_doi               10.1039/c5dt01001b
_journal_volume                  44
_journal_year                    2015
_chemical_formula_moiety         'C34 H31 N O2'
_chemical_formula_sum            'C34 H31 N O2'
_chemical_formula_weight         485.60
_chemical_name_systematic
; 
 ? 
;
_space_group_IT_number           1
_symmetry_cell_setting           triclinic
_symmetry_space_group_name_Hall  'P 1'
_symmetry_space_group_name_H-M   'P 1'
_atom_sites_solution_hydrogens   mixed
_atom_sites_solution_primary     direct
_atom_sites_solution_secondary   difmap
_audit_creation_method           SHELXL-97
_audit_update_record
;
2015-02-01 deposited with the CCDC.
2015-05-22 downloaded from the CCDC.
;
_cell_angle_alpha                103.040(3)
_cell_angle_beta                 92.480(3)
_cell_angle_gamma                99.805(3)
_cell_formula_units_Z            1
_cell_length_a                   5.8707(13)
_cell_length_b                   9.289(2)
_cell_length_c                   11.820(3)
_cell_measurement_reflns_used    1612
_cell_measurement_temperature    120(2)
_cell_measurement_theta_max      29.86
_cell_measurement_theta_min      2.54
_cell_volume                     616.5(2)
_computing_cell_refinement       'SAINT (Bruker, 2008)'
_computing_data_collection       '<i>APEX2</i> (Bruker, 2008)'
_computing_data_reduction        'SAINT (Bruker, 2008)'
_computing_molecular_graphics    'SHELXTL (Sheldrick, 2008)'
_computing_publication_material  'SHELXTL (Sheldrick, 2008)'
_computing_structure_refinement  'SHELXTL (Sheldrick, 2008)'
_computing_structure_solution    'SHELXTL (Sheldrick, 2008)'
_diffrn_ambient_temperature      120(2)
_diffrn_measured_fraction_theta_full 0.991
_diffrn_measured_fraction_theta_max 0.991
_diffrn_measurement_device_type  'Bruker SMART APEX II'
_diffrn_measurement_method       \w
_diffrn_radiation_monochromator  graphite
_diffrn_radiation_source         'fine-focus sealed tube'
_diffrn_radiation_type           MoK\a
_diffrn_radiation_wavelength     0.71073
_diffrn_reflns_av_R_equivalents  0.0507
_diffrn_reflns_av_sigmaI/netI    0.0708
_diffrn_reflns_limit_h_max       7
_diffrn_reflns_limit_h_min       -7
_diffrn_reflns_limit_k_max       11
_diffrn_reflns_limit_k_min       -11
_diffrn_reflns_limit_l_max       15
_diffrn_reflns_limit_l_min       -15
_diffrn_reflns_number            5649
_diffrn_reflns_theta_full        27.00
_diffrn_reflns_theta_max         27.00
_diffrn_reflns_theta_min         2.29
_diffrn_standards_decay_%        0
_diffrn_standards_interval_time  0
_diffrn_standards_number         0
_exptl_absorpt_coefficient_mu    0.080
_exptl_absorpt_correction_T_max  0.9912
_exptl_absorpt_correction_T_min  0.9833
_exptl_absorpt_correction_type   multi-scan
_exptl_absorpt_process_details   'SADABS (Bruker, 2008)'
_exptl_crystal_colour            colourless
_exptl_crystal_density_diffrn    1.308
_exptl_crystal_density_method    'not measured'
_exptl_crystal_description       prizm
_exptl_crystal_F_000             258
_exptl_crystal_size_max          0.21
_exptl_crystal_size_mid          0.20
_exptl_crystal_size_min          0.11
_refine_diff_density_max         0.224
_refine_diff_density_min         -0.286
_refine_diff_density_rms         0.055
_refine_ls_extinction_method     none
_refine_ls_goodness_of_fit_ref   1.051
_refine_ls_hydrogen_treatment    mixed
_refine_ls_matrix_type           full
_refine_ls_number_parameters     340
_refine_ls_number_reflns         2673
_refine_ls_number_restraints     3
_refine_ls_restrained_S_all      1.050
_refine_ls_R_factor_all          0.0759
_refine_ls_R_factor_gt           0.0483
_refine_ls_shift/su_max          0.000
_refine_ls_shift/su_mean         0.000
_refine_ls_structure_factor_coef Fsqd
_refine_ls_weighting_details
'calc w=1/[\s^2^(Fo^2^)+(0.0433P)^2^+0.1603P] where P=(Fo^2^+2Fc^2^)/3'
_refine_ls_weighting_scheme      calc
_refine_ls_wR_factor_gt          0.0962
_refine_ls_wR_factor_ref         0.1068
_reflns_number_gt                2041
_reflns_number_total             2673
_reflns_threshold_expression     I>2\s(I)
_iucr_refine_instructions_details
;
TITL k in P1
CELL 0.71073   5.8707   9.2888  11.8203 103.040  92.480  99.805
ZERR    1.00   0.0013   0.0021   0.0026   0.003   0.003   0.003
LATT -1
SFAC C H N O
UNIT 34 31 1 2
TEMP -153.000
 
L.S. 20
BOND $H
FMAP 2
PLAN 5
MERG 3
OMIT -2 54
OMIT 0 0 1
OMIT 0 0 -1
SIZE 0.21 0.20 0.11
HTAB O2 N1
HTAB O1 C42
ACTA
 
WGHT    0.043300    0.160300
FVAR       0.41732
N1    3    0.768537    0.719481    1.086503    11.00000    0.02264    0.01807 =
         0.01094    0.00327   -0.00146    0.00296
O1    4    0.557791    0.653701    0.817226    11.00000    0.01619    0.01685 =
         0.01913   -0.00293    0.00303    0.00539
H1    2    0.605235    0.745784    0.860463    11.00000   -1.50000
O2    4    1.104627    0.966068    1.168364    11.00000    0.01735    0.01596 =
         0.02028   -0.00055   -0.00412    0.00659
H2    2    1.040407    0.878390    1.130666    11.00000   -1.50000
C1    1    0.755543    0.602988    0.765269    11.00000    0.01861    0.01612 =
         0.01181   -0.00061    0.00120    0.00400
C2    1    0.941020    0.603816    0.859726    11.00000    0.01569    0.01685 =
         0.01692   -0.00119   -0.00019    0.00290
AFIX  23
H2A   2    0.997345    0.708865    0.904007    11.00000   -1.20000
H2B   2    1.073844    0.566434    0.821980    11.00000   -1.20000
AFIX   0
C3    1    0.858752    0.508616    0.945261    11.00000    0.02486    0.01784 =
         0.01741    0.00077   -0.00478    0.00378
AFIX  23
H3A   2    0.775257    0.409163    0.899980    11.00000   -1.20000
H3B   2    0.996925    0.491886    0.987986    11.00000   -1.20000
AFIX   0
C4    1    0.704779    0.573082    1.031939    11.00000    0.02382    0.02030 =
         0.01305    0.00223   -0.00664    0.00226
C5    1    0.507199    0.486703    1.058738    11.00000    0.02852    0.01468 =
         0.01785    0.00101   -0.00550   -0.00422
AFIX  43
H5A   2    0.465114    0.383203    1.020584    11.00000   -1.20000
AFIX   0
C6    1    0.372094    0.551060    1.140678    11.00000    0.01856    0.03098 =
         0.01750    0.00835   -0.00246   -0.00322
AFIX  43
H6A   2    0.238344    0.492099    1.160901    11.00000   -1.20000
AFIX   0
C7    1    0.432893    0.701486    1.192851    11.00000    0.02464    0.03044 =
         0.01508    0.00721    0.00281    0.00448
AFIX  43
H7A   2    0.339318    0.748861    1.247870    11.00000   -1.20000
AFIX   0
C8    1    0.633840    0.783546    1.163878    11.00000    0.01996    0.02088 =
         0.01380    0.00448   -0.00239    0.00294
C9    1    0.709465    0.948180    1.220742    11.00000    0.02124    0.02398 =
         0.01587    0.00403    0.00259    0.00371
AFIX  23
H9A   2    0.760880    0.957855    1.303431    11.00000   -1.20000
H9B   2    0.572550    0.997202    1.219602    11.00000   -1.20000
AFIX   0
C10   1    0.903701    1.034976    1.166616    11.00000    0.01755    0.01691 =
         0.01544    0.00090    0.00263    0.00751
C11   1    0.666268    0.444010    0.691847    11.00000    0.01962    0.01264 =
         0.01249    0.00342   -0.00055    0.00443
C12   1    0.445403    0.366859    0.695071    11.00000    0.02144    0.02172 =
         0.01654    0.00376    0.00132    0.00395
AFIX  43
H12A  2    0.345990    0.409924    0.748916    11.00000   -1.20000
AFIX   0
C13   1    0.367119    0.227758    0.620942    11.00000    0.02008    0.02038 =
         0.02202    0.00502    0.00134    0.00129
AFIX  43
H13A  2    0.213364    0.176657    0.623159    11.00000   -1.20000
AFIX   0
C14   1    0.509965    0.162291    0.543719    11.00000    0.02897    0.01537 =
         0.01180   -0.00170   -0.00265    0.00138
AFIX  43
H14A  2    0.454772    0.067042    0.492013    11.00000   -1.20000
AFIX   0
C15   1    0.734113    0.236371    0.542147    11.00000    0.02610    0.01628 =
         0.01409    0.00208    0.00291    0.00697
AFIX  43
H15A  2    0.834929    0.191436    0.490121    11.00000   -1.20000
AFIX   0
C16   1    0.811794    0.376165    0.616441    11.00000    0.01809    0.01738 =
         0.01664    0.00165    0.00415    0.00291
AFIX  43
H16A  2    0.966795    0.426188    0.615709    11.00000   -1.20000
AFIX   0
C21   1    0.971967    1.194446    1.243098    11.00000    0.02157    0.01693 =
         0.01163    0.00442    0.00233    0.00515
C22   1    1.178827    1.241275    1.313266    11.00000    0.02554    0.01996 =
         0.01449    0.00276    0.00217    0.00502
AFIX  43
H22A  2    1.283561    1.173713    1.312961    11.00000   -1.20000
AFIX   0
C23   1    1.234410    1.385015    1.383609    11.00000    0.02961    0.02424 =
         0.01721    0.00253    0.00186    0.00148
AFIX  43
H23A  2    1.376531    1.415282    1.431450    11.00000   -1.20000
AFIX   0
C24   1    1.085139    1.484863    1.384889    11.00000    0.02964    0.01524 =
         0.01742   -0.00464    0.00505    0.00054
AFIX  43
H24A  2    1.123357    1.583636    1.433427    11.00000   -1.20000
AFIX   0
C25   1    0.879669    1.439599    1.314844    11.00000    0.03355    0.01848 =
         0.01920   -0.00033    0.00361    0.00849
AFIX  43
H25A  2    0.776702    1.508198    1.314891    11.00000   -1.20000
AFIX   0
C26   1    0.822042    1.297299    1.245296    11.00000    0.01847    0.02946 =
         0.01817    0.00600    0.00210    0.00813
AFIX  43
H26A  2    0.679165    1.267902    1.198063    11.00000   -1.20000
AFIX   0
C31   1    0.840717    0.699331    0.681316    11.00000    0.01987    0.00706 =
         0.01671   -0.00257   -0.00119    0.00288
C32   1    0.682648    0.717555    0.597265    11.00000    0.01922    0.01888 =
         0.02191    0.00243   -0.00143   -0.00068
AFIX  43
H32A  2    0.524475    0.671434    0.594522    11.00000   -1.20000
AFIX   0
C33   1    0.749998    0.801055    0.517693    11.00000    0.02997    0.01946 =
         0.02025    0.00363   -0.00064    0.00788
AFIX  43
H33A  2    0.638679    0.811858    0.460905    11.00000   -1.20000
AFIX   0
C34   1    0.978749    0.868919    0.520426    11.00000    0.02456    0.01645 =
         0.02652    0.00443    0.00537    0.00253
AFIX  43
H34A  2    1.026280    0.926898    0.465999    11.00000   -1.20000
AFIX   0
C35   1    1.137146    0.851389    0.603186    11.00000    0.01854    0.01414 =
         0.02887    0.00367    0.00301    0.00046
AFIX  43
H35A  2    1.295142    0.897534    0.605279    11.00000   -1.20000
AFIX   0
C36   1    1.070513    0.767500    0.683771    11.00000    0.01926    0.01448 =
         0.01828   -0.00189   -0.00209    0.00351
AFIX  43
H36A  2    1.182304    0.756918    0.740427    11.00000   -1.20000
AFIX   0
C41   1    0.837784    1.045156    1.042862    11.00000    0.01784    0.01483 =
         0.01254   -0.00110    0.00007    0.00483
C42   1    0.615107    1.011194    0.991700    11.00000    0.02169    0.01739 =
         0.01665   -0.00152   -0.00076    0.00247
AFIX  43
H42A  2    0.491457    0.974320    1.032892    11.00000   -1.20000
AFIX   0
C43   1    0.568139    1.030119    0.880118    11.00000    0.02387    0.02178 =
         0.02022   -0.00262   -0.00760    0.00437
AFIX  43
H43A  2    0.413021    1.006491    0.845706    11.00000   -1.20000
AFIX   0
C44   1    0.746499    1.083144    0.819388    11.00000    0.04206    0.02375 =
         0.01248    0.00118    0.00109    0.01645
AFIX  43
H44A  2    0.715023    1.096033    0.743145    11.00000   -1.20000
AFIX   0
C45   1    0.969277    1.117022    0.869990    11.00000    0.02904    0.03066 =
         0.02085    0.00948    0.00831    0.01216
AFIX  43
H45A  2    1.092542    1.153450    0.828385    11.00000   -1.20000
AFIX   0
C46   1    1.016682    1.098891    0.980500    11.00000    0.02071    0.02306 =
         0.02308    0.00537    0.00289    0.00536
AFIX  43
H46A  2    1.172101    1.123095    1.014541    11.00000   -1.20000
 
HKLF 4
 
REM  k in P1
REM R1 =  0.0483 for   2041 Fo > 4sig(Fo)  and  0.0759 for all   2673 data
REM    340 parameters refined using      3 restraints
 
END  
     
WGHT      0.0432      0.1602 
REM Highest difference peak  0.224,  deepest hole -0.286,  1-sigma level  0.055
Q1    1   0.9637  1.1136  1.2101  11.00000  0.05    0.22
Q2    1   1.1982  0.6338  0.8049  11.00000  0.05    0.22
Q3    1   0.7708  1.3711  1.1549  11.00000  0.05    0.21
Q4    1   0.6153  0.8889  1.1192  11.00000  0.05    0.20
Q5    1   1.0420  1.3057  1.1798  11.00000  0.05    0.20

;
_cod_data_source_file            c5dt01001b2.cif
_cod_data_source_block           k
_cod_depositor_comments
'Adding full bibliography for 7035257--7035260.cif.'
_cod_database_code               7035258
loop_
_symmetry_equiv_pos_as_xyz
'x, y, z'
loop_
_atom_site_label
_atom_site_type_symbol
_atom_site_fract_x
_atom_site_fract_y
_atom_site_fract_z
_atom_site_U_iso_or_equiv
_atom_site_adp_type
_atom_site_occupancy
_atom_site_symmetry_multiplicity
_atom_site_calc_flag
_atom_site_refinement_flags
N1 N 0.7685(6) 0.7195(3) 1.0865(3) 0.0174(7) Uani 1 1 d .
O1 O 0.5578(4) 0.6537(3) 0.8172(2) 0.0182(6) Uani 1 1 d .
H1 H 0.605(8) 0.746(5) 0.860(4) 0.027 Uiso 1 1 d .
O2 O 1.1046(5) 0.9661(3) 1.1684(2) 0.0184(6) Uani 1 1 d .
H2 H 1.040(8) 0.878(5) 1.131(4) 0.028 Uiso 1 1 d .
C1 C 0.7555(7) 0.6030(4) 0.7653(3) 0.0161(8) Uani 1 1 d .
C2 C 0.9410(7) 0.6038(4) 0.8597(3) 0.0174(8) Uani 1 1 d .
H2A H 0.9973 0.7089 0.9040 0.021 Uiso 1 1 calc R
H2B H 1.0738 0.5664 0.8220 0.021 Uiso 1 1 calc R
C3 C 0.8588(7) 0.5086(4) 0.9453(3) 0.0208(8) Uani 1 1 d .
H3A H 0.7753 0.4092 0.9000 0.025 Uiso 1 1 calc R
H3B H 0.9969 0.4919 0.9880 0.025 Uiso 1 1 calc R
C4 C 0.7048(7) 0.5731(4) 1.0319(3) 0.0198(9) Uani 1 1 d .
C5 C 0.5072(7) 0.4867(4) 1.0587(3) 0.0220(9) Uani 1 1 d .
H5A H 0.4651 0.3832 1.0206 0.026 Uiso 1 1 calc R
C6 C 0.3721(7) 0.5511(5) 1.1407(3) 0.0230(9) Uani 1 1 d .
H6A H 0.2383 0.4921 1.1609 0.028 Uiso 1 1 calc R
C7 C 0.4329(7) 0.7015(4) 1.1929(3) 0.0231(9) Uani 1 1 d .
H7A H 0.3393 0.7489 1.2479 0.028 Uiso 1 1 calc R
C8 C 0.6338(7) 0.7835(4) 1.1639(3) 0.0184(8) Uani 1 1 d .
C9 C 0.7095(7) 0.9482(4) 1.2207(3) 0.0205(9) Uani 1 1 d .
H9A H 0.7609 0.9579 1.3034 0.025 Uiso 1 1 calc R
H9B H 0.5725 0.9972 1.2196 0.025 Uiso 1 1 calc R
C10 C 0.9037(6) 1.0350(4) 1.1666(3) 0.0165(8) Uani 1 1 d .
C11 C 0.6663(6) 0.4440(4) 0.6918(3) 0.0147(8) Uani 1 1 d .
C12 C 0.4454(7) 0.3669(4) 0.6951(3) 0.0200(8) Uani 1 1 d .
H12A H 0.3460 0.4099 0.7489 0.024 Uiso 1 1 calc R
C13 C 0.3671(7) 0.2278(4) 0.6209(3) 0.0211(9) Uani 1 1 d .
H13A H 0.2134 0.1767 0.6232 0.025 Uiso 1 1 calc R
C14 C 0.5100(7) 0.1623(4) 0.5437(3) 0.0200(8) Uani 1 1 d .
H14A H 0.4548 0.0670 0.4920 0.024 Uiso 1 1 calc R
C15 C 0.7341(7) 0.2364(4) 0.5421(3) 0.0187(8) Uani 1 1 d .
H15A H 0.8349 0.1914 0.4901 0.022 Uiso 1 1 calc R
C16 C 0.8118(7) 0.3762(4) 0.6164(3) 0.0177(8) Uani 1 1 d .
H16A H 0.9668 0.4262 0.6157 0.021 Uiso 1 1 calc R
C21 C 0.9720(6) 1.1944(4) 1.2431(3) 0.0163(8) Uani 1 1 d .
C22 C 1.1788(7) 1.2413(4) 1.3133(3) 0.0201(9) Uani 1 1 d .
H22A H 1.2836 1.1737 1.3130 0.024 Uiso 1 1 calc R
C23 C 1.2344(7) 1.3850(5) 1.3836(3) 0.0245(9) Uani 1 1 d .
H23A H 1.3765 1.4153 1.4315 0.029 Uiso 1 1 calc R
C24 C 1.0851(7) 1.4849(4) 1.3849(3) 0.0225(9) Uani 1 1 d .
H24A H 1.1234 1.5836 1.4334 0.027 Uiso 1 1 calc R
C25 C 0.8797(7) 1.4396(4) 1.3148(3) 0.0240(9) Uani 1 1 d .
H25A H 0.7767 1.5082 1.3149 0.029 Uiso 1 1 calc R
C26 C 0.8220(7) 1.2973(4) 1.2453(3) 0.0215(9) Uani 1 1 d .
H26A H 0.6792 1.2679 1.1981 0.026 Uiso 1 1 calc R
C31 C 0.8407(6) 0.6993(4) 0.6813(3) 0.0155(8) Uani 1 1 d .
C32 C 0.6826(7) 0.7176(4) 0.5973(3) 0.0210(9) Uani 1 1 d .
H32A H 0.5245 0.6714 0.5945 0.025 Uiso 1 1 calc R
C33 C 0.7500(7) 0.8011(4) 0.5177(3) 0.0231(9) Uani 1 1 d .
H33A H 0.6387 0.8119 0.4609 0.028 Uiso 1 1 calc R
C34 C 0.9787(7) 0.8689(4) 0.5204(3) 0.0227(9) Uani 1 1 d .
H34A H 1.0263 0.9269 0.4660 0.027 Uiso 1 1 calc R
C35 C 1.1371(7) 0.8514(4) 0.6032(3) 0.0210(9) Uani 1 1 d .
H35A H 1.2951 0.8975 0.6053 0.025 Uiso 1 1 calc R
C36 C 1.0705(7) 0.7675(4) 0.6838(3) 0.0183(8) Uani 1 1 d .
H36A H 1.1823 0.7569 0.7404 0.022 Uiso 1 1 calc R
C41 C 0.8378(6) 1.0452(4) 1.0429(3) 0.0156(8) Uani 1 1 d .
C42 C 0.6151(7) 1.0112(4) 0.9917(3) 0.0197(8) Uani 1 1 d .
H42A H 0.4915 0.9743 1.0329 0.024 Uiso 1 1 calc R
C43 C 0.5681(7) 1.0301(4) 0.8801(3) 0.0235(9) Uani 1 1 d .
H43A H 0.4130 1.0065 0.8457 0.028 Uiso 1 1 calc R
C44 C 0.7465(8) 1.0831(4) 0.8194(3) 0.0254(10) Uani 1 1 d .
H44A H 0.7150 1.0960 0.7431 0.030 Uiso 1 1 calc R
C45 C 0.9693(8) 1.1170(5) 0.8700(3) 0.0253(9) Uani 1 1 d .
H45A H 1.0925 1.1534 0.8284 0.030 Uiso 1 1 calc R
C46 C 1.0167(7) 1.0989(4) 0.9805(3) 0.0221(9) Uani 1 1 d .
H46A H 1.1721 1.1231 1.0145 0.027 Uiso 1 1 calc R
loop_
_atom_site_aniso_label
_atom_site_aniso_U_11
_atom_site_aniso_U_22
_atom_site_aniso_U_33
_atom_site_aniso_U_23
_atom_site_aniso_U_13
_atom_site_aniso_U_12
N1 0.0226(19) 0.0181(17) 0.0109(14) 0.0033(12) -0.0015(13) 0.0030(14)
O1 0.0162(15) 0.0169(14) 0.0191(13) -0.0029(11) 0.0030(11) 0.0054(11)
O2 0.0173(15) 0.0160(14) 0.0203(14) -0.0005(11) -0.0041(11) 0.0066(11)
C1 0.019(2) 0.0161(19) 0.0118(17) -0.0006(15) 0.0012(15) 0.0040(16)
C2 0.016(2) 0.0168(19) 0.0169(18) -0.0012(14) -0.0002(14) 0.0029(15)
C3 0.025(2) 0.0178(19) 0.0174(18) 0.0008(15) -0.0048(16) 0.0038(17)
C4 0.024(2) 0.020(2) 0.0130(18) 0.0022(16) -0.0066(16) 0.0023(18)
C5 0.029(2) 0.0147(19) 0.0178(19) 0.0010(16) -0.0055(17) -0.0042(17)
C6 0.019(2) 0.031(2) 0.0175(19) 0.0084(17) -0.0025(16) -0.0032(18)
C7 0.025(2) 0.030(2) 0.0151(18) 0.0072(17) 0.0028(16) 0.0045(19)
C8 0.020(2) 0.021(2) 0.0138(17) 0.0045(15) -0.0024(15) 0.0029(16)
C9 0.021(2) 0.024(2) 0.0159(18) 0.0040(16) 0.0026(16) 0.0037(17)
C10 0.018(2) 0.0169(19) 0.0154(18) 0.0009(15) 0.0026(15) 0.0075(16)
C11 0.020(2) 0.0126(18) 0.0125(17) 0.0034(14) -0.0005(15) 0.0044(16)
C12 0.021(2) 0.022(2) 0.0165(18) 0.0038(16) 0.0013(16) 0.0040(17)
C13 0.020(2) 0.020(2) 0.022(2) 0.0050(16) 0.0013(17) 0.0013(17)
C14 0.029(2) 0.0154(19) 0.0118(17) -0.0017(14) -0.0027(16) 0.0014(17)
C15 0.026(2) 0.0163(19) 0.0141(17) 0.0021(15) 0.0029(15) 0.0070(17)
C16 0.018(2) 0.0174(19) 0.0166(18) 0.0017(15) 0.0041(15) 0.0029(16)
C21 0.022(2) 0.0169(18) 0.0116(17) 0.0044(14) 0.0023(15) 0.0051(16)
C22 0.026(2) 0.020(2) 0.0145(18) 0.0028(15) 0.0022(16) 0.0050(17)
C23 0.030(2) 0.024(2) 0.0172(19) 0.0025(17) 0.0019(17) 0.0015(19)
C24 0.030(2) 0.015(2) 0.0174(19) -0.0046(16) 0.0050(17) 0.0005(17)
C25 0.034(3) 0.018(2) 0.019(2) -0.0003(16) 0.0036(18) 0.0085(18)
C26 0.018(2) 0.029(2) 0.0182(19) 0.0060(17) 0.0021(16) 0.0081(18)
C31 0.020(2) 0.0071(17) 0.0167(18) -0.0026(14) -0.0012(15) 0.0029(15)
C32 0.019(2) 0.019(2) 0.022(2) 0.0024(16) -0.0014(16) -0.0007(17)
C33 0.030(3) 0.019(2) 0.020(2) 0.0036(16) -0.0006(17) 0.0079(18)
C34 0.025(2) 0.016(2) 0.027(2) 0.0044(17) 0.0054(18) 0.0025(17)
C35 0.019(2) 0.014(2) 0.029(2) 0.0037(17) 0.0030(17) 0.0005(17)
C36 0.019(2) 0.014(2) 0.0183(18) -0.0019(15) -0.0021(15) 0.0035(16)
C41 0.018(2) 0.0148(18) 0.0125(17) -0.0011(14) 0.0001(14) 0.0048(15)
C42 0.022(2) 0.017(2) 0.0167(18) -0.0015(15) -0.0008(15) 0.0025(16)
C43 0.024(2) 0.022(2) 0.020(2) -0.0026(16) -0.0076(17) 0.0044(18)
C44 0.042(3) 0.024(2) 0.0125(18) 0.0012(16) 0.0011(18) 0.016(2)
C45 0.029(3) 0.031(2) 0.021(2) 0.0095(18) 0.0083(18) 0.012(2)
C46 0.021(2) 0.023(2) 0.023(2) 0.0054(17) 0.0029(17) 0.0054(17)
loop_
_atom_type_symbol
_atom_type_description
_atom_type_scat_dispersion_real
_atom_type_scat_dispersion_imag
_atom_type_scat_source
C C 0.0033 0.0016 'International Tables Vol C Tables 4.2.6.8 and 6.1.1.4'
H H 0.0000 0.0000 'International Tables Vol C Tables 4.2.6.8 and 6.1.1.4'
N N 0.0061 0.0033 'International Tables Vol C Tables 4.2.6.8 and 6.1.1.4'
O O 0.0106 0.0060 'International Tables Vol C Tables 4.2.6.8 and 6.1.1.4'
loop_
_geom_angle_atom_site_label_1
_geom_angle_atom_site_label_2
_geom_angle_atom_site_label_3
_geom_angle
C8 N1 C4 119.5(3)
C1 O1 H1 108(3)
C10 O2 H2 97(3)
O1 C1 C2 110.1(3)
O1 C1 C31 109.0(3)
C2 C1 C31 113.4(3)
O1 C1 C11 106.0(3)
C2 C1 C11 111.1(3)
C31 C1 C11 106.9(3)
C1 C2 C3 114.3(3)
C1 C2 H2A 108.7
C3 C2 H2A 108.7
C1 C2 H2B 108.7
C3 C2 H2B 108.7
H2A C2 H2B 107.6
C4 C3 C2 115.7(3)
C4 C3 H3A 108.4
C2 C3 H3A 108.4
C4 C3 H3B 108.4
C2 C3 H3B 108.4
H3A C3 H3B 107.4
N1 C4 C5 120.8(4)
N1 C4 C3 117.2(4)
C5 C4 C3 122.1(3)
C6 C5 C4 119.9(4)
C6 C5 H5A 120.1
C4 C5 H5A 120.1
C7 C6 C5 119.2(4)
C7 C6 H6A 120.4
C5 C6 H6A 120.4
C6 C7 C8 118.9(4)
C6 C7 H7A 120.5
C8 C7 H7A 120.5
N1 C8 C7 121.7(4)
N1 C8 C9 117.6(3)
C7 C8 C9 120.7(3)
C8 C9 C10 116.5(3)
C8 C9 H9A 108.2
C10 C9 H9A 108.2
C8 C9 H9B 108.2
C10 C9 H9B 108.2
H9A C9 H9B 107.3
O2 C10 C41 109.9(3)
O2 C10 C21 106.8(3)
C41 C10 C21 108.4(3)
O2 C10 C9 108.9(3)
C41 C10 C9 113.9(3)
C21 C10 C9 108.6(3)
C12 C11 C16 118.7(3)
C12 C11 C1 122.8(3)
C16 C11 C1 118.5(3)
C11 C12 C13 120.7(4)
C11 C12 H12A 119.7
C13 C12 H12A 119.7
C14 C13 C12 120.5(4)
C14 C13 H13A 119.7
C12 C13 H13A 119.7
C13 C14 C15 119.4(4)
C13 C14 H14A 120.3
C15 C14 H14A 120.3
C14 C15 C16 119.9(4)
C14 C15 H15A 120.0
C16 C15 H15A 120.0
C15 C16 C11 120.8(4)
C15 C16 H16A 119.6
C11 C16 H16A 119.6
C22 C21 C26 118.1(3)
C22 C21 C10 121.8(3)
C26 C21 C10 120.1(3)
C23 C22 C21 120.8(4)
C23 C22 H22A 119.6
C21 C22 H22A 119.6
C24 C23 C22 120.5(4)
C24 C23 H23A 119.8
C22 C23 H23A 119.8
C23 C24 C25 119.2(4)
C23 C24 H24A 120.4
C25 C24 H24A 120.4
C26 C25 C24 120.9(4)
C26 C25 H25A 119.5
C24 C25 H25A 119.5
C25 C26 C21 120.6(4)
C25 C26 H26A 119.7
C21 C26 H26A 119.7
C36 C31 C32 118.3(3)
C36 C31 C1 122.8(3)
C32 C31 C1 118.8(3)
C33 C32 C31 121.5(4)
C33 C32 H32A 119.3
C31 C32 H32A 119.3
C32 C33 C34 120.1(4)
C32 C33 H33A 120.0
C34 C33 H33A 120.0
C35 C34 C33 119.0(4)
C35 C34 H34A 120.5
C33 C34 H34A 120.5
C34 C35 C36 121.3(4)
C34 C35 H35A 119.4
C36 C35 H35A 119.4
C31 C36 C35 119.9(4)
C31 C36 H36A 120.1
C35 C36 H36A 120.1
C42 C41 C46 118.6(3)
C42 C41 C10 124.3(3)
C46 C41 C10 117.1(3)
C41 C42 C43 120.7(4)
C41 C42 H42A 119.6
C43 C42 H42A 119.6
C44 C43 C42 120.1(4)
C44 C43 H43A 120.0
C42 C43 H43A 120.0
C45 C44 C43 119.4(4)
C45 C44 H44A 120.3
C43 C44 H44A 120.3
C44 C45 C46 120.7(4)
C44 C45 H45A 119.6
C46 C45 H45A 119.6
C45 C46 C41 120.4(4)
C45 C46 H46A 119.8
C41 C46 H46A 119.8
loop_
_geom_bond_atom_site_label_1
_geom_bond_atom_site_label_2
_geom_bond_distance
N1 C8 1.339(5)
N1 C4 1.347(5)
O1 C1 1.437(4)
O1 H1 0.88(5)
O2 C10 1.436(4)
O2 H2 0.85(5)
C1 C2 1.523(5)
C1 C31 1.525(5)
C1 C11 1.526(5)
C2 C3 1.529(5)
C2 H2A 0.9900
C2 H2B 0.9900
C3 C4 1.488(5)
C3 H3A 0.9900
C3 H3B 0.9900
C4 C5 1.385(6)
C5 C6 1.375(6)
C5 H5A 0.9500
C6 C7 1.372(6)
C6 H6A 0.9500
C7 C8 1.392(5)
C7 H7A 0.9500
C8 C9 1.506(5)
C9 C10 1.530(5)
C9 H9A 0.9900
C9 H9B 0.9900
C10 C41 1.525(5)
C10 C21 1.528(5)
C11 C12 1.377(5)
C11 C16 1.385(5)
C12 C13 1.379(5)
C12 H12A 0.9500
C13 C14 1.377(5)
C13 H13A 0.9500
C14 C15 1.380(5)
C14 H14A 0.9500
C15 C16 1.384(5)
C15 H15A 0.9500
C16 H16A 0.9500
C21 C22 1.386(5)
C21 C26 1.402(5)
C22 C23 1.381(5)
C22 H22A 0.9500
C23 C24 1.378(6)
C23 H23A 0.9500
C24 C25 1.379(6)
C24 H24A 0.9500
C25 C26 1.368(6)
C25 H25A 0.9500
C26 H26A 0.9500
C31 C36 1.385(5)
C31 C32 1.388(5)
C32 C33 1.378(5)
C32 H32A 0.9500
C33 C34 1.379(6)
C33 H33A 0.9500
C34 C35 1.376(6)
C34 H34A 0.9500
C35 C36 1.390(5)
C35 H35A 0.9500
C36 H36A 0.9500
C41 C42 1.371(5)
C41 C46 1.396(5)
C42 C43 1.391(5)
C42 H42A 0.9500
C43 C44 1.380(6)
C43 H43A 0.9500
C44 C45 1.369(6)
C44 H44A 0.9500
C45 C46 1.377(5)
C45 H45A 0.9500
C46 H46A 0.9500
loop_
_geom_hbond_atom_site_label_D
_geom_hbond_atom_site_label_H
_geom_hbond_atom_site_label_A
_geom_hbond_distance_DH
_geom_hbond_distance_HA
_geom_hbond_distance_DA
_geom_hbond_angle_DHA
O2 H2 N1 0.85(5) 1.94(5) 2.715(4) 151(4)
O1 H1 C42 0.88(5) 2.59(5) 3.444(5) 163(4)
