#------------------------------------------------------------------------------
#$Date: 2016-02-13 14:50:18 +0200 (Sat, 13 Feb 2016) $
#$Revision: 176428 $
#$URL: svn://www.crystallography.net/cod/cif/7/03/68/7036890.cif $
#------------------------------------------------------------------------------
#
# This file is available in the Crystallography Open Database (COD),
# http://www.crystallography.net/
#
# All data on this site have been placed in the public domain by the
# contributors.
#
data_7036890
loop_
_publ_author_name
'Xu, Wei-Jian'
'Chen, Shao-Li'
'Hu, Zhi-Tao'
'Lin, Rui-Biao'
'Su, Yu-Jun'
'Zhang, Wei-Xiong'
'Chen, Xiao-Ming'
_publ_section_title
;
 Cation-dependent structural phase transition and dielectric response in a
 family of cyano-bridged perovskite-like coordination polymers
;
_journal_name_full               'Dalton Trans.'
_journal_paper_doi               10.1039/C5DT03481G
_journal_year                    2015
_chemical_formula_sum            'C10 H16 Fe K N8'
_chemical_formula_weight         343.26
_chemical_name_systematic
; 
 ? 
;
_space_group_IT_number           128
_symmetry_cell_setting           tetragonal
_symmetry_space_group_name_Hall  '-P 4 2n'
_symmetry_space_group_name_H-M   'P 4/m n c'
_atom_sites_solution_hydrogens   geom
_atom_sites_solution_primary     direct
_atom_sites_solution_secondary   difmap
_audit_creation_method           SHELXL-97
_audit_update_record
;
2015-10-08 deposited with the CCDC.
2015-10-20 downloaded from the CCDC.
;
_cell_angle_alpha                90.00
_cell_angle_beta                 90.00
_cell_angle_gamma                90.00
_cell_formula_units_Z            2
_cell_length_a                   8.2769(4)
_cell_length_b                   8.2769(4)
_cell_length_c                   11.6742(8)
_cell_measurement_reflns_used    4450
_cell_measurement_temperature    165(2)
_cell_measurement_theta_max      27.5
_cell_measurement_theta_min      3
_cell_volume                     799.77(8)
_computing_cell_refinement       'RAPID AUTO'
_computing_data_collection       'RAPID AUTO'
_computing_data_reduction        'RAPID AUTO'
_computing_molecular_graphics    'SHELXTL-V (Sheldrick, 1997)'
_computing_publication_material  'SHELXL-97 (Sheldrick, 1997)'
_computing_structure_refinement  'SHELXL-97 (Sheldrick, 1997)'
_computing_structure_solution    'SHELXS-97 (Sheldrick, 1990)'
_diffrn_ambient_temperature      165(2)
_diffrn_measured_fraction_theta_full 1.000
_diffrn_measured_fraction_theta_max 1.000
_diffrn_measurement_device_type  'R-AXIS SPIDER'
_diffrn_measurement_method       'phi and omega scans'
_diffrn_radiation_monochromator  graphite
_diffrn_radiation_source         'fine-focus sealed tube'
_diffrn_radiation_type           MoK\a
_diffrn_radiation_wavelength     0.71073
_diffrn_reflns_av_R_equivalents  0.0395
_diffrn_reflns_av_unetI/netI     0.0251
_diffrn_reflns_limit_h_max       10
_diffrn_reflns_limit_h_min       -10
_diffrn_reflns_limit_k_max       10
_diffrn_reflns_limit_k_min       -10
_diffrn_reflns_limit_l_max       13
_diffrn_reflns_limit_l_min       -14
_diffrn_reflns_number            4156
_diffrn_reflns_theta_full        25.99
_diffrn_reflns_theta_max         25.99
_diffrn_reflns_theta_min         3.02
_exptl_absorpt_coefficient_mu    1.206
_exptl_absorpt_correction_T_max  0.7137
_exptl_absorpt_correction_T_min  0.7137
_exptl_absorpt_correction_type   multi-scan
_exptl_absorpt_process_details   '(ABSCOR; Higashi, 1995)'
_exptl_crystal_colour            red
_exptl_crystal_density_diffrn    1.425
_exptl_crystal_density_method    'not measured'
_exptl_crystal_description       block
_exptl_crystal_F_000             354
_exptl_crystal_size_max          0.30
_exptl_crystal_size_mid          0.30
_exptl_crystal_size_min          0.30
_refine_diff_density_max         0.669
_refine_diff_density_min         -0.681
_refine_diff_density_rms         0.164
_refine_ls_extinction_coef       0.038(8)
_refine_ls_extinction_expression Fc^*^=kFc[1+0.001xFc^2^\l^3^/sin(2\q)]^-1/4^
_refine_ls_extinction_method     SHELXL
_refine_ls_goodness_of_fit_ref   1.048
_refine_ls_hydrogen_treatment    mixed
_refine_ls_matrix_type           full
_refine_ls_number_parameters     34
_refine_ls_number_reflns         419
_refine_ls_number_restraints     1
_refine_ls_restrained_S_all      1.067
_refine_ls_R_factor_all          0.0700
_refine_ls_R_factor_gt           0.0678
_refine_ls_shift/su_max          0.000
_refine_ls_shift/su_mean         0.000
_refine_ls_structure_factor_coef Fsqd
_refine_ls_weighting_details
'calc w=1/[\s^2^(Fo^2^)+(0.0800P)^2^+6.0000P] where P=(Fo^2^+2Fc^2^)/3'
_refine_ls_weighting_scheme      calc
_refine_ls_wR_factor_gt          0.1761
_refine_ls_wR_factor_ref         0.1776
_reflns_number_gt                397
_reflns_number_total             419
_reflns_threshold_expression     >2sigma(I)
_cod_data_source_file            c5dt03481g2.cif
_cod_data_source_block           2_165_K
_cod_depositor_comments
;
The following automatic conversions were performed:

'_symmetry_cell_setting' value 'Tetragonal' changed to 'tetragonal'
according to
/usr/data/users/saulius/crontab/automatic-downloads/rss-feeds/RSC/lib/dictionaries/cif_core.dic
dictionary named 'cif_core.dic' version 2.4.2 from 2011-04-26.

Automatic conversion script
Id: cif_fix_values 3271 2015-04-21 07:52:19Z andrius 
;
_cod_original_sg_symbol_H-M      P4/mnc
_cod_database_code               7036890
loop_
_symmetry_equiv_pos_as_xyz
'x, y, z'
'-y, x, z'
'-x, -y, z'
'y, -x, z'
'x+1/2, -y+1/2, -z+1/2'
'-x+1/2, y+1/2, -z+1/2'
'y+1/2, x+1/2, -z+1/2'
'-y+1/2, -x+1/2, -z+1/2'
'-x, -y, -z'
'y, -x, -z'
'x, y, -z'
'-y, x, -z'
'-x-1/2, y-1/2, z-1/2'
'x-1/2, -y-1/2, z-1/2'
'-y-1/2, -x-1/2, z-1/2'
'y-1/2, x-1/2, z-1/2'
loop_
_atom_site_label
_atom_site_type_symbol
_atom_site_fract_x
_atom_site_fract_y
_atom_site_fract_z
_atom_site_U_iso_or_equiv
_atom_site_adp_type
_atom_site_occupancy
_atom_site_symmetry_multiplicity
_atom_site_calc_flag
_atom_site_refinement_flags
_atom_site_disorder_assembly
_atom_site_disorder_group
C1 C 0.7966(9) 0.1240(8) 0.0000 0.0267(15) Uani 1 2 d S . .
C2 C 1.0000 0.0000 0.1659(9) 0.032(2) Uani 1 4 d S . .
N1 N 0.6797(9) 0.1933(9) 0.0000 0.054(2) Uani 1 2 d S . .
N2 N 1.0000 0.0000 0.2636(8) 0.050(3) Uani 1 4 d S . .
K1 K 0.5000 0.5000 0.0000 0.0265(9) Uani 1 8 d S . .
Fe1 Fe 1.0000 0.0000 0.0000 0.0216(8) Uani 1 8 d S . .
C3 C 0.3940(8) 0.1060(8) 0.2500 0.066(3) Uani 1 2 d SD . .
H3A H 0.3817 0.2221 0.2500 0.099 Uiso 0.50 1 d PR A -1
H3B H 0.3437 0.0625 0.1829 0.099 Uiso 0.50 1 d PR A -1
H3C H 0.3437 0.0625 0.3171 0.099 Uiso 0.50 1 d PR A -1
N3 N 0.5656(11) 0.0656(11) 0.2500 0.054(4) Uani 0.50 2 d SPD . .
H3D H 0.6112 0.1113 0.3121 0.065 Uiso 0.25 1 d PR B -1
H3E H 0.6112 0.1113 0.1879 0.065 Uiso 0.25 1 d PR B -1
loop_
_atom_site_aniso_label
_atom_site_aniso_U_11
_atom_site_aniso_U_22
_atom_site_aniso_U_33
_atom_site_aniso_U_23
_atom_site_aniso_U_13
_atom_site_aniso_U_12
C1 0.025(4) 0.023(3) 0.032(3) 0.000 0.000 0.002(3)
C2 0.034(3) 0.034(3) 0.028(6) 0.000 0.000 0.000
N1 0.036(4) 0.032(4) 0.094(6) 0.000 0.000 0.006(3)
N2 0.062(5) 0.062(5) 0.027(5) 0.000 0.000 0.000
K1 0.0286(11) 0.0286(11) 0.0224(14) 0.000 0.000 0.000
Fe1 0.0225(9) 0.0225(9) 0.0198(11) 0.000 0.000 0.000
C3 0.068(4) 0.068(4) 0.062(6) -0.001(4) -0.001(4) 0.013(6)
N3 0.069(7) 0.069(7) 0.024(6) -0.009(5) 0.009(5) -0.042(9)
loop_
_atom_type_symbol
_atom_type_description
_atom_type_scat_dispersion_real
_atom_type_scat_dispersion_imag
_atom_type_scat_source
C C 0.0033 0.0016 'International Tables Vol C Tables 4.2.6.8 and 6.1.1.4'
H H 0.0000 0.0000 'International Tables Vol C Tables 4.2.6.8 and 6.1.1.4'
Fe Fe 0.3463 0.8444 'International Tables Vol C Tables 4.2.6.8 and 6.1.1.4'
K K 0.2009 0.2494 'International Tables Vol C Tables 4.2.6.8 and 6.1.1.4'
N N 0.0061 0.0033 'International Tables Vol C Tables 4.2.6.8 and 6.1.1.4'
loop_
_geom_angle_atom_site_label_1
_geom_angle_atom_site_label_2
_geom_angle_atom_site_label_3
_geom_angle
_geom_angle_site_symmetry_1
_geom_angle_site_symmetry_3
N1 C1 Fe1 179.3(7) . .
N2 C2 Fe1 180.0 . .
C1 N1 K1 151.0(6) . .
C2 N2 K1 180.0 . 5
N2 K1 N2 180.0 13_765 5_455
N2 K1 N1 90.0 13_765 10_565
N2 K1 N1 90.0 5_455 10_565
N2 K1 N1 90.0 13_765 2_655
N2 K1 N1 90.0 5_455 2_655
N1 K1 N1 180.0 10_565 2_655
N2 K1 N1 90.0 13_765 .
N2 K1 N1 90.0 5_455 .
N1 K1 N1 90.0 10_565 .
N1 K1 N1 90.0 2_655 .
N2 K1 N1 90.0 13_765 9_665
N2 K1 N1 90.0 5_455 9_665
N1 K1 N1 90.0 10_565 9_665
N1 K1 N1 90.0 2_655 9_665
N1 K1 N1 180.000(1) . 9_665
C2 Fe1 C2 180.0 9_755 .
C2 Fe1 C1 90.0 9_755 2_645
C2 Fe1 C1 90.0 . 2_645
C2 Fe1 C1 90.0 9_755 10_665
C2 Fe1 C1 90.0 . 10_665
C1 Fe1 C1 180.0(2) 2_645 10_665
C2 Fe1 C1 90.0 9_755 .
C2 Fe1 C1 90.0 . .
C1 Fe1 C1 90.0 2_645 .
C1 Fe1 C1 90.0 10_665 .
C2 Fe1 C1 90.0 9_755 9_755
C2 Fe1 C1 90.0 . 9_755
C1 Fe1 C1 90.0 2_645 9_755
C1 Fe1 C1 90.0 10_665 9_755
C1 Fe1 C1 180.0(4) . 9_755
N3 C3 N3 63.5(11) . 3_655
C3 N3 C3 116.5(11) 3_655 .
C3 N3 N3 58.2(5) 3_655 3_655
C3 N3 N3 58.2(5) . 3_655
loop_
_geom_bond_atom_site_label_1
_geom_bond_atom_site_label_2
_geom_bond_distance
_geom_bond_site_symmetry_2
C1 N1 1.125(10) .
C1 Fe1 1.971(7) .
C2 N2 1.141(14) .
C2 Fe1 1.937(10) .
N1 K1 2.942(7) .
N2 K1 2.759(10) 5
K1 N2 2.759(10) 13_765
K1 N2 2.759(10) 5_455
K1 N1 2.942(7) 10_565
K1 N1 2.942(7) 2_655
K1 N1 2.942(7) 9_665
Fe1 C2 1.937(10) 9_755
Fe1 C1 1.971(7) 2_645
Fe1 C1 1.971(7) 10_665
Fe1 C1 1.971(7) 9_755
C3 N3 1.459(8) .
C3 N3 1.459(8) 3_655
N3 C3 1.459(8) 3_655
N3 N3 1.54(3) 3_655
loop_
_geom_torsion_atom_site_label_1
_geom_torsion_atom_site_label_2
_geom_torsion_atom_site_label_3
_geom_torsion_atom_site_label_4
_geom_torsion
_geom_torsion_site_symmetry_1
_geom_torsion_site_symmetry_4
Fe1 C1 N1 K1 180.0 . .
Fe1 C2 N2 K1 0.0 . 5
C1 N1 K1 N2 90.0 . 13_765
C1 N1 K1 N2 -90.0 . 5_455
C1 N1 K1 N1 180.0 . 10_565
C1 N1 K1 N1 0.0 . 2_655
C1 N1 K1 N1 180.0 . 9_665
N2 C2 Fe1 C2 0.0 . 9_755
N2 C2 Fe1 C1 121(100) . 2_645
N2 C2 Fe1 C1 -59(100) . 10_665
N2 C2 Fe1 C1 -149(100) . .
N2 C2 Fe1 C1 31(100) . 9_755
N1 C1 Fe1 C2 90.0 . 9_755
N1 C1 Fe1 C2 -90.0 . .
N1 C1 Fe1 C1 0.0 . 2_645
N1 C1 Fe1 C1 180.0 . 10_665
N1 C1 Fe1 C1 0(100) . 9_755
N3 C3 N3 C3 0.0 3_655 3_655
