#------------------------------------------------------------------------------
#$Date: 2018-10-05 15:19:55 +0300 (Fri, 05 Oct 2018) $
#$Revision: 211332 $
#$URL: file:///home/coder/svn-repositories/cod/cif/7/03/69/7036974.cif $
#------------------------------------------------------------------------------
#
# This file is available in the Crystallography Open Database (COD),
# http://www.crystallography.net/
#
# All data on this site have been placed in the public domain by the
# contributors.
#
data_7036974
loop_
_publ_author_name
'Xu, Feng'
'Wang, Hao'
'Teat, Simon J.'
'Liu, Wei'
'Xia, Qibin'
'Li, Zhong'
'Li, Jing'
_publ_section_title
;
 Synthesis, structure and enhanced photoluminescence properties of two
 robust, water stable calcium and magnesium coordination networks.
;
_journal_issue                   47
_journal_name_full
'Dalton transactions (Cambridge, England : 2003)'
_journal_page_first              20459
_journal_page_last               20463
_journal_paper_doi               10.1039/c5dt03705k
_journal_volume                  44
_journal_year                    2015
_chemical_formula_sum            'C10 H10 Mg O6'
_chemical_formula_weight         250.49
_space_group_crystal_system      monoclinic
_space_group_IT_number           14
_space_group_name_Hall           '-P 2ybc'
_space_group_name_H-M_alt        'P 1 21/c 1'
_symmetry_space_group_name_Hall  '-P 2ybc'
_symmetry_space_group_name_H-M   'P 1 21/c 1'
_atom_sites_solution_hydrogens   mixed
_atom_sites_solution_primary     'Intrinsic phasing'
_atom_sites_solution_secondary   difmap
_audit_creation_method           SHELXL-2014/7
_audit_update_record
;
2015-09-22 deposited with the CCDC.
2015-10-29 downloaded from the CCDC.
;
_cell_angle_alpha                90
_cell_angle_beta                 102.313(3)
_cell_angle_gamma                90
_cell_formula_units_Z            2
_cell_length_a                   11.3400(6)
_cell_length_b                   6.6324(3)
_cell_length_c                   7.1986(3)
_cell_measurement_reflns_used    6120
_cell_measurement_temperature    100(2)
_cell_measurement_theta_max      40.31
_cell_measurement_theta_min      3.36
_cell_volume                     528.96(4)
_computing_cell_refinement       'Bruker SAINT v8.34a'
_computing_data_collection       'Bruker APEX 2'
_computing_data_reduction        'Bruker SAINT v8.34a'
_computing_molecular_graphics    'Bruker SHELXTL'
_computing_publication_material  'Bruker SHELXTL & local programs'
_computing_structure_refinement  'SHELXL-2014/7 (Sheldrick, 2014)'
_computing_structure_solution    'Bruker SHELXT 2014/4'
_diffrn_ambient_temperature      100(2)
_diffrn_detector_area_resol_mean 10.42
_diffrn_measured_fraction_theta_full 0.999
_diffrn_measured_fraction_theta_max 0.995
_diffrn_measurement_device_type  'Bruker D8 with PHOTON 100 detector'
_diffrn_measurement_method       '\w/\q shutterless scans'
_diffrn_radiation_type           synchrotron
_diffrn_radiation_wavelength     0.7749
_diffrn_reflns_av_R_equivalents  0.0360
_diffrn_reflns_av_unetI/netI     0.0341
_diffrn_reflns_Laue_measured_fraction_full 0.999
_diffrn_reflns_Laue_measured_fraction_max 0.995
_diffrn_reflns_limit_h_max       18
_diffrn_reflns_limit_h_min       -18
_diffrn_reflns_limit_k_max       11
_diffrn_reflns_limit_k_min       -11
_diffrn_reflns_limit_l_max       12
_diffrn_reflns_limit_l_min       -11
_diffrn_reflns_number            9473
_diffrn_reflns_point_group_measured_fraction_full 0.999
_diffrn_reflns_point_group_measured_fraction_max 0.995
_diffrn_reflns_theta_full        27.706
_diffrn_reflns_theta_max         40.307
_diffrn_reflns_theta_min         3.904
_diffrn_source                   'Advanced Light Source station 11.3.1'
_exptl_absorpt_coefficient_mu    0.224
_exptl_absorpt_correction_T_max  0.993
_exptl_absorpt_correction_T_min  0.880
_exptl_absorpt_correction_type   multi-scan
_exptl_absorpt_process_details   'SADABS 2014/4 Bruker AXS Madison WI USA'
_exptl_crystal_colour            colourless
_exptl_crystal_density_diffrn    1.573
_exptl_crystal_description       block
_exptl_crystal_F_000             260
_exptl_crystal_size_max          0.200
_exptl_crystal_size_mid          0.060
_exptl_crystal_size_min          0.030
_refine_diff_density_max         0.538
_refine_diff_density_min         -0.387
_refine_diff_density_rms         0.075
_refine_ls_extinction_method     none
_refine_ls_goodness_of_fit_ref   1.223
_refine_ls_hydrogen_treatment    mixed
_refine_ls_matrix_type           full
_refine_ls_number_parameters     108
_refine_ls_number_reflns         2553
_refine_ls_number_restraints     6
_refine_ls_restrained_S_all      1.234
_refine_ls_R_factor_all          0.0574
_refine_ls_R_factor_gt           0.0495
_refine_ls_shift/su_max          0.000
_refine_ls_shift/su_mean         0.000
_refine_ls_structure_factor_coef Fsqd
_refine_ls_weighting_details
'w=1/[\s^2^(Fo^2^)+(0.0289P)^2^+0.4274P] where P=(Fo^2^+2Fc^2^)/3'
_refine_ls_weighting_scheme      calc
_refine_ls_wR_factor_gt          0.1133
_refine_ls_wR_factor_ref         0.1167
_reflns_Friedel_coverage         0.000
_reflns_number_gt                2247
_reflns_number_total             2553
_reflns_threshold_expression     'I > 2\s(I)'
_cod_data_source_file            c5dt03705k2.cif
_cod_data_source_block           fx3-47e_a
_cod_depositor_comments
'Adding full bibliography for 7036974--7036975.cif.'
_cod_database_code               7036974
_shelx_shelxl_version_number     2014/7
_shelx_space_group_comment
;
The symmetry employed for this shelxl refinement is uniquely defined
by the following loop, which should always be used as a source of
symmetry information in preference to the above space-group names.
They are only intended as comments.
;
_shelx_estimated_absorpt_t_min   0.957
_shelx_estimated_absorpt_t_max   0.993
_shelx_res_file
;

    fx3-47e_a.res created by SHELXL-2014/7


TITL fx3_47e_a.res in P2(1)/c
CELL  0.77490  11.3400   6.6324   7.1986   90.000  102.313   90.000
ZERR    2.000   0.0006   0.0003   0.0003    0.000    0.003    0.000
LATT  1
SYMM -X, 1/2+Y, 1/2-Z
SFAC C H O MG
DISP    C     0.00399    0.00197        13.60
DISP    H     0.00000    0.00000         0.67
DISP    O     0.01323    0.00737        40.17
DISP    Mg    0.05854    0.04399       208.74
UNIT 20 20 12 2

ACTA

TEMP -173
SIZE 0.200 0.060 0.030

REM Colourless block
REM Structure solved by SHELXT 2014/4
REM Cell refinement by SAINT v8.34a
REM 6120 input reflections Min.2Th 6.721  Max.2Th 80.614

L.S. 10
BOND $H
FMAP 2
PLAN 20

SADI 0.01 C8 C6 C8 C4
EADP C7 C8

EQIV $1 -x+1, -y+1, -z+1

REM Instructions for potential hydrogen bonds
HTAB O1W O2
HTAB O1W O2_$1

WGHT    0.028900    0.427400
FVAR       1.19676
MG1   4    0.500000    0.000000    0.500000    10.50000    0.00709    0.00665 =
         0.00792    0.00003    0.00027    0.00051
O1W   3    0.587739    0.276594    0.517885    11.00000    0.01380    0.00805 =
         0.01015   -0.00001    0.00038   -0.00022
H1WA  2    0.552735    0.344750    0.426552    11.00000    0.03189
H1WB  2    0.595645    0.350693    0.609678    11.00000    0.03837
O1    3    0.360233    0.113328    0.295727    11.00000    0.00935    0.00945 =
         0.01218    0.00256   -0.00013    0.00005
O2    3    0.414093    0.419507    0.215935    11.00000    0.00815    0.01006 =
         0.00924    0.00148    0.00112   -0.00083
C1    1    0.334777    0.283585    0.223433    11.00000    0.00667    0.00917 =
         0.00852    0.00053    0.00101    0.00068
SAME C2 C7 < C3
C2    1    0.205329    0.332410    0.146732    11.00000    0.00663    0.01703 =
         0.01852   -0.00116   -0.00025    0.00159
PART 2
AFIX  43
H2A   2    0.149441    0.225421    0.145292    10.50000   -1.20000
AFIX   0
PART  -1
C3    1    0.114217    0.200246    0.132464    10.50000    0.00715    0.01289 =
         0.02145    0.00847    0.00149   -0.00057
AFIX  43
H3A   2    0.131919    0.065475    0.173846    10.50000   -1.20000
AFIX   0
C4    1   -0.004851    0.253631    0.059411    10.50000    0.00760    0.01529 =
         0.02425    0.00916    0.00035   -0.00082
AFIX  43
H4A   2   -0.067107    0.157216    0.057053    10.50000   -1.20000
AFIX   0
C5    1   -0.034510    0.449567   -0.011433    10.50000    0.00669    0.01701 =
         0.02314    0.01017    0.00239    0.00251
C6    1    0.057576    0.588201   -0.006013    10.50000    0.00738    0.01537 =
         0.03211    0.01141    0.00088    0.00066
AFIX  43
H6A   2    0.038849    0.720851   -0.052907    10.50000   -1.20000
AFIX   0
C7    1    0.178340    0.534747    0.068074    10.50000    0.00420    0.01722 =
         0.02505    0.00621    0.00129   -0.00001
AFIX  43
H7A   2    0.241519    0.628548    0.067117    10.50000   -1.20000
AFIX   0
PART   0
C8    1   -0.161332    0.498972   -0.083062    10.50000    0.00420    0.01722 =
         0.02505    0.00621    0.00129   -0.00001
AFIX  43
H8A   2   -0.217470    0.392886   -0.081978    10.50000   -1.20000

AFIX   0
HKLF 4

REM  fx3_47e_a.res in P2(1)/c
REM R1 =  0.0495 for    2247 Fo > 4sig(Fo)  and  0.0574 for all    2553 data
REM    108 parameters refined using      6 restraints

END

WGHT      0.0289      0.4274

REM Highest difference peak  0.538,  deepest hole -0.387,  1-sigma level  0.075
Q1    1   0.3783  0.3498  0.2346  11.00000  0.05    0.54
Q2    1   0.2768  0.3350  0.1913  11.00000  0.05    0.43
Q3    1  -0.1950  0.5731 -0.0996  11.00000  0.05    0.38
Q4    1   0.1729  0.2605  0.1751  11.00000  0.05    0.34
Q5    1   0.1119  0.5553  0.0294  11.00000  0.05    0.34
Q6    1   0.4531  0.3596  0.2275  11.00000  0.05    0.33
Q7    1   0.3657  0.2214  0.2910  11.00000  0.05    0.32
Q8    1   0.3799  0.5037  0.2063  11.00000  0.05    0.30
Q9    1   0.3267  0.1940  0.2695  11.00000  0.05    0.30
Q10   1   0.5498  0.2089  0.4839  11.00000  0.05    0.29
Q11   1   0.3195  0.0342  0.2864  11.00000  0.05    0.27
Q12   1  -0.0156  0.2946 -0.0240  11.00000  0.05    0.27
Q13   1   0.4179  0.1229  0.3584  11.00000  0.05    0.24
Q14   1   0.4613  0.0804  0.4702  11.00000  0.05    0.24
Q15   1   0.4409  0.3983  0.1440  11.00000  0.05    0.22
Q16   1  -0.2535  0.2463 -0.2670  11.00000  0.05    0.22
Q17   1   0.4414  0.4860  0.1726  11.00000  0.05    0.21
Q18   1   0.0481  0.2469  0.1151  11.00000  0.05    0.21
Q19   1   0.3829  0.6084  0.1305  11.00000  0.05    0.21
Q20   1   0.6360  0.3549  0.5271  11.00000  0.05    0.21
;
_shelx_res_checksum              90106
loop_
_space_group_symop_operation_xyz
'x, y, z'
'-x, y+1/2, -z+1/2'
'-x, -y, -z'
'x, -y-1/2, z-1/2'
loop_
_atom_site_label
_atom_site_type_symbol
_atom_site_fract_x
_atom_site_fract_y
_atom_site_fract_z
_atom_site_U_iso_or_equiv
_atom_site_adp_type
_atom_site_occupancy
_atom_site_site_symmetry_order
_atom_site_calc_flag
_atom_site_refinement_flags_posn
_atom_site_refinement_flags_adp
_atom_site_refinement_flags_occupancy
_atom_site_disorder_assembly
_atom_site_disorder_group
Mg1 Mg 0.5000 0.0000 0.5000 0.00742(11) Uani 1 2 d S . P . .
O1W O 0.58774(8) 0.27659(13) 0.51789(12) 0.01099(15) Uani 1 1 d . . . . .
H1WA H 0.553(2) 0.345(4) 0.427(4) 0.032(6) Uiso 1 1 d . . . . .
H1WB H 0.596(2) 0.351(4) 0.610(4) 0.038(7) Uiso 1 1 d . . . . .
O1 O 0.36023(7) 0.11333(13) 0.29573(12) 0.01069(15) Uani 1 1 d . . . . .
O2 O 0.41409(7) 0.41951(12) 0.21593(11) 0.00926(15) Uani 1 1 d . . . . .
C1 C 0.33478(9) 0.28358(16) 0.22343(14) 0.00821(17) Uani 1 1 d . . . . .
C2 C 0.20533(10) 0.33241(19) 0.14673(18) 0.0145(2) Uani 1 1 d D . . . .
H2A H 0.1494 0.2254 0.1453 0.017 Uiso 0.5 1 calc R U P A 2
C3 C 0.1142(2) 0.2002(4) 0.1325(4) 0.0141(4) Uani 0.5 1 d D . P B -1
H3A H 0.1319 0.0655 0.1738 0.017 Uiso 0.5 1 calc R U P B -1
C4 C -0.0049(2) 0.2536(4) 0.0594(4) 0.0162(4) Uani 0.5 1 d D . P B -1
H4A H -0.0671 0.1572 0.0571 0.019 Uiso 0.5 1 calc R U P B -1
C5 C -0.0345(4) 0.4496(7) -0.0114(7) 0.0157(6) Uani 0.5 1 d D . P B -1
C6 C 0.0576(3) 0.5882(7) -0.0060(8) 0.0188(7) Uani 0.5 1 d D . P B -1
H6A H 0.0388 0.7209 -0.0529 0.023 Uiso 0.5 1 calc R U P B -1
C7 C 0.1783(6) 0.5347(10) 0.0681(14) 0.0158(6) Uani 0.5 1 d D . P B -1
H7A H 0.2415 0.6285 0.0671 0.019 Uiso 0.5 1 calc R U P B -1
C8 C -0.1613(6) 0.4990(10) -0.0831(13) 0.0158(6) Uani 0.5 1 d D . P . .
H8A H -0.2175 0.3929 -0.0820 0.019 Uiso 0.5 1 calc R U P B .
loop_
_atom_site_aniso_label
_atom_site_aniso_U_11
_atom_site_aniso_U_22
_atom_site_aniso_U_33
_atom_site_aniso_U_23
_atom_site_aniso_U_13
_atom_site_aniso_U_12
Mg1 0.0071(2) 0.0066(2) 0.0079(2) 0.00003(16) 0.00027(16) 0.00051(17)
O1W 0.0138(4) 0.0081(3) 0.0102(3) 0.0000(3) 0.0004(3) -0.0002(3)
O1 0.0094(3) 0.0094(3) 0.0122(3) 0.0026(3) -0.0001(3) 0.0000(3)
O2 0.0081(3) 0.0101(3) 0.0092(3) 0.0015(2) 0.0011(2) -0.0008(2)
C1 0.0067(4) 0.0092(4) 0.0085(4) 0.0005(3) 0.0010(3) 0.0007(3)
C2 0.0066(4) 0.0170(5) 0.0185(5) -0.0012(4) -0.0003(4) 0.0016(4)
C3 0.0072(8) 0.0129(9) 0.0215(10) 0.0085(8) 0.0015(7) -0.0006(7)
C4 0.0076(8) 0.0153(10) 0.0242(11) 0.0092(8) 0.0003(8) -0.0008(7)
C5 0.0067(13) 0.0170(18) 0.0231(14) 0.0102(12) 0.0024(11) 0.0025(10)
C6 0.0074(16) 0.0154(17) 0.0321(18) 0.0114(13) 0.0009(13) 0.0007(11)
C7 0.0042(16) 0.017(2) 0.0250(14) 0.0062(13) 0.0013(12) 0.0000(12)
C8 0.0042(16) 0.017(2) 0.0250(14) 0.0062(13) 0.0013(12) 0.0000(12)
loop_
_atom_type_symbol
_atom_type_description
_atom_type_scat_dispersion_real
_atom_type_scat_dispersion_imag
_atom_type_scat_source
C C 0.0040 0.0020
'XDISP Program in WinGX L.Kissel & R.H.Pratt Acta Cryst A46 170 1990'
H H 0.0000 0.0000
'XDISP Program in WinGX L.Kissel & R.H.Pratt Acta Cryst A46 170 1990'
O O 0.0132 0.0074
'XDISP Program in WinGX L.Kissel & R.H.Pratt Acta Cryst A46 170 1990'
Mg Mg 0.0585 0.0440
'XDISP Program in WinGX L.Kissel & R.H.Pratt Acta Cryst A46 170 1990'
loop_
_geom_angle_atom_site_label_1
_geom_angle_atom_site_label_2
_geom_angle_atom_site_label_3
_geom_angle
_geom_angle_site_symmetry_1
_geom_angle_site_symmetry_3
O1 Mg1 O1 180.0 . 3_656
O1 Mg1 O2 91.62(3) . 4_566
O1 Mg1 O2 88.38(3) 3_656 4_566
O1 Mg1 O2 88.38(3) . 2_645
O1 Mg1 O2 91.62(3) 3_656 2_645
O2 Mg1 O2 180.0 4_566 2_645
O1 Mg1 O1W 90.43(3) . .
O1 Mg1 O1W 89.57(3) 3_656 .
O2 Mg1 O1W 91.24(3) 4_566 .
O2 Mg1 O1W 88.76(3) 2_645 .
O1 Mg1 O1W 89.57(3) . 3_656
O1 Mg1 O1W 90.43(3) 3_656 3_656
O2 Mg1 O1W 88.76(3) 4_566 3_656
O2 Mg1 O1W 91.24(3) 2_645 3_656
O1W Mg1 O1W 180.0 . 3_656
Mg1 O1W H1WA 106.9(16) . .
Mg1 O1W H1WB 123.5(18) . .
H1WA O1W H1WB 105(2) . .
C1 O1 Mg1 134.45(7) . .
C1 O2 Mg1 131.19(7) . 2_655
O1 C1 O2 123.38(10) . .
O1 C1 C2 118.17(10) . .
O2 C1 C2 118.43(10) . .
C8 C2 C3 108.1(3) 3_565 .
C8 C2 C7 11.2(4) 3_565 .
C3 C2 C7 118.4(3) . .
C8 C2 C1 127.3(3) 3_565 .
C3 C2 C1 124.62(14) . .
C7 C2 C1 116.8(3) . .
C8 C2 H2A 116.4 3_565 .
C1 C2 H2A 116.4 . .
C2 C3 C4 122.3(2) . .
C2 C3 H3A 118.9 . .
C4 C3 H3A 118.9 . .
C3 C4 C5 120.7(3) . .
C3 C4 H4A 119.7 . .
C5 C4 H4A 119.7 . .
C6 C5 C4 118.8(2) . .
C6 C5 C8 122.8(3) . .
C4 C5 C8 118.4(3) . .
C5 C6 C7 120.7(3) . .
C5 C6 H6A 119.6 . .
C7 C6 H6A 119.6 . .
C6 C7 C2 119.0(4) . .
C6 C7 H7A 120.5 . .
C2 C7 H7A 120.5 . .
C2 C8 C5 127.4(4) 3_565 .
C2 C8 H8A 116.3 3_565 .
C5 C8 H8A 116.3 . .
loop_
_geom_bond_atom_site_label_1
_geom_bond_atom_site_label_2
_geom_bond_distance
_geom_bond_site_symmetry_2
Mg1 O1 2.0604(8) .
Mg1 O1 2.0604(8) 3_656
Mg1 O2 2.0727(8) 4_566
Mg1 O2 2.0727(8) 2_645
Mg1 O1W 2.0778(8) .
Mg1 O1W 2.0778(8) 3_656
O1W H1WA 0.83(2) .
O1W H1WB 0.81(3) .
O1 C1 1.2511(13) .
O2 C1 1.2827(13) .
O2 Mg1 2.0727(8) 2_655
C1 C2 1.4896(15) .
C2 C8 1.270(7) 3_565
C2 C3 1.342(3) .
C2 C7 1.463(6) .
C2 H2A 0.9500 .
C3 C4 1.386(3) .
C3 H3A 0.9500 .
C4 C5 1.410(5) .
C4 H4A 0.9500 .
C5 C6 1.386(5) .
C5 C8 1.458(8) .
C6 C7 1.405(8) .
C6 H6A 0.9500 .
C7 H7A 0.9500 .
C8 C2 1.270(7) 3_565
C8 H8A 0.9500 .
loop_
_geom_hbond_atom_site_label_D
_geom_hbond_atom_site_label_H
_geom_hbond_atom_site_label_A
_geom_hbond_distance_DH
_geom_hbond_distance_HA
_geom_hbond_distance_DA
_geom_hbond_angle_DHA
_geom_hbond_site_symmetry_A
O1W H1WA O2 0.83(2) 2.00(2) 2.7704(12) 155(2) .
O1W H1WB O2 0.81(3) 1.99(3) 2.7842(12) 164(2) 3_666
