#------------------------------------------------------------------------------
#$Date: 2016-02-13 21:28:24 +0200 (Sat, 13 Feb 2016) $
#$Revision: 176429 $
#$URL: svn://www.crystallography.net/cod/cif/7/03/62/7036227.cif $
#------------------------------------------------------------------------------
#
# This file is available in the Crystallography Open Database (COD),
# http://www.crystallography.net/
#
# All data on this site have been placed in the public domain by the
# contributors.
#
data_7036227
loop_
_publ_author_name
'Nayak, Dipak Kumar'
'Baishya, Rinku'
'Natarajan, Ramalingam'
'Sen, Tuhinadri'
'Debnath, Mita Chatterjee'
_publ_section_title
;
 Tricarbonyl (99m)Tc(i) and Re(i)-thiosemicarbazone complexes: synthesis,
 characterization and biological evaluation for targeting bacterial
 infection.
;
_journal_issue                   36
_journal_name_full
'Dalton transactions (Cambridge, England : 2003)'
_journal_page_first              16136
_journal_page_last               16148
_journal_paper_doi               10.1039/c5dt02264a
_journal_volume                  44
_journal_year                    2015
_chemical_formula_moiety         'C10 H8 Br N4 O6 Re S, 0.5(C7 H8)'
_chemical_formula_sum            'C13.5 H12 Br N4 O6 Re S'
_chemical_formula_weight         624.44
_space_group_crystal_system      triclinic
_space_group_IT_number           2
_space_group_name_Hall           '-P 1'
_space_group_name_H-M_alt        'P -1'
_symmetry_space_group_name_Hall  '-P 1'
_symmetry_space_group_name_H-M   'P -1'
_atom_sites_solution_hydrogens   geom
_atom_sites_solution_primary     direct
_audit_creation_date             2015-04-06
_audit_creation_method
;
Olex2 1.2
(compiled 2014.07.22 svn.r2960 for OlexSys, GUI svn.r4862)
;
_audit_update_record
;
2015-05-25 deposited with the CCDC.
2015-08-05 downloaded from the CCDC.
;
_cell_angle_alpha                94.519(5)
_cell_angle_beta                 97.975(5)
_cell_angle_gamma                90.201(4)
_cell_formula_units_Z            2
_cell_length_a                   7.5512(7)
_cell_length_b                   10.6017(9)
_cell_length_c                   12.8522(12)
_cell_measurement_reflns_used    9633
_cell_measurement_temperature    100
_cell_measurement_theta_max      27.056
_cell_measurement_theta_min      2.409
_cell_volume                     1015.66(16)
_computing_cell_refinement       'SAINT v8.34A (Bruker, 2013)'
_computing_data_reduction        'SAINT v8.34A (Bruker, 2013)'
_computing_molecular_graphics    'Olex2 (Dolomanov et al., 2009)'
_computing_publication_material  'Olex2 (Dolomanov et al., 2009)'
_computing_structure_refinement  'ShelXL (Sheldrick, 2008)'
_computing_structure_solution    'ShelXT (Sheldrick, 2008)'
_diffrn_ambient_temperature      100
_diffrn_measured_fraction_theta_full 0.999
_diffrn_measured_fraction_theta_max 0.985
_diffrn_measurement_device_type  'Bruker APEX-II CCD'
_diffrn_measurement_method       '\f and \w scans'
_diffrn_radiation_type           MoK\a
_diffrn_radiation_wavelength     0.71073
_diffrn_reflns_av_R_equivalents  0.0750
_diffrn_reflns_av_unetI/netI     0.0653
_diffrn_reflns_Laue_measured_fraction_full 0.999
_diffrn_reflns_Laue_measured_fraction_max 0.985
_diffrn_reflns_limit_h_max       9
_diffrn_reflns_limit_h_min       -9
_diffrn_reflns_limit_k_max       13
_diffrn_reflns_limit_k_min       -13
_diffrn_reflns_limit_l_max       16
_diffrn_reflns_limit_l_min       -16
_diffrn_reflns_number            18391
_diffrn_reflns_point_group_measured_fraction_full 0.999
_diffrn_reflns_point_group_measured_fraction_max 0.985
_diffrn_reflns_theta_full        26.000
_diffrn_reflns_theta_max         27.255
_diffrn_reflns_theta_min         1.927
_diffrn_standards_number         0
_exptl_absorpt_coefficient_mu    8.087
_exptl_absorpt_correction_T_max  0.7455
_exptl_absorpt_correction_T_min  0.3478
_exptl_absorpt_correction_type   multi-scan
_exptl_absorpt_process_details
;
SADABS-2014/4 (Bruker,2014) was used for absorption correction.
wR2(int) was 0.1506 before and 0.0903 after correction.
The Ratio of minimum to maximum transmission is 0.4665.
The \l/2 correction factor is 0.00150.
;
_exptl_crystal_colour            red
_exptl_crystal_colour_primary    red
_exptl_crystal_density_diffrn    2.042
_exptl_crystal_description       block
_exptl_crystal_F_000             590
_exptl_crystal_size_max          0.38
_exptl_crystal_size_mid          0.36
_exptl_crystal_size_min          0.31
_refine_diff_density_max         1.973
_refine_diff_density_min         -1.786
_refine_diff_density_rms         0.244
_refine_ls_extinction_method     none
_refine_ls_goodness_of_fit_ref   1.111
_refine_ls_hydrogen_treatment    constr
_refine_ls_matrix_type           full
_refine_ls_number_parameters     254
_refine_ls_number_reflns         4491
_refine_ls_number_restraints     103
_refine_ls_restrained_S_all      1.101
_refine_ls_R_factor_all          0.0519
_refine_ls_R_factor_gt           0.0448
_refine_ls_shift/su_max          0.001
_refine_ls_shift/su_mean         0.000
_refine_ls_structure_factor_coef Fsqd
_refine_ls_weighting_details
'w=1/[\s^2^(Fo^2^)+(0.0689P)^2^] where P=(Fo^2^+2Fc^2^)/3'
_refine_ls_weighting_scheme      calc
_refine_ls_wR_factor_gt          0.1189
_refine_ls_wR_factor_ref         0.1228
_reflns_Friedel_coverage         0.000
_reflns_number_gt                3956
_reflns_number_total             4491
_reflns_threshold_expression     'I > 2\s(I)'
_cod_data_source_file            c5dt02264a2.cif
_cod_data_source_block           mcd_msc2_020315_0m_a
_cod_depositor_comments
'Adding full bibliography for 7036222--7036227.cif.'
_cod_original_formula_sum        'C13.50 H12 Br N4 O6 Re S'
_cod_database_code               7036227
#BEGIN Tags that were not found in dictionaries:
_shelx_space_group_comment
;
The symmetry employed for this shelxl refinement is uniquely defined
by the following loop, which should always be used as a source of
symmetry information in preference to the above space-group names.
They are only intended as comments.
;
_olex2_refinement_description
;
1. Fixed Uiso
 At 1.2 times of:
  All C(H) groups, All N(H) groups
 At 1.5 times of:
  All C(H,H,H) groups
2. Restrained distances
 C17-C11 \\sim C17-C13
 with sigma of 0.02
3. Rigid bond restraints
 C17, C11, C12, C16, C13, C15, C14
 with sigma for 1-2 distances of 0.01 and sigma for 1-3 distances of 0.01
4. Uiso/Uaniso restraints and constraints
C11 \\sim C12 \\sim C16 \\sim C13 \\sim C17 \\sim C15 \\sim C14: within 1.7A
with sigma of 0.04 and sigma for terminal atoms of 0.08
Uanis(O5) = Uanis(O6)
5. Rigid body (RIGU) restrains
 C17, C11, C12, C16, C13, C15, C14
 with sigma for 1-2 distances of 0.004 and sigma for 1-3 distances of 0.004
6. Others
 Fixed Sof: C11(0.5) H11(0.5) C12(0.5) C13(0.5) H13(0.5) C14(0.5) H14(0.5)
 C15(0.5) H15(0.5) C16(0.5) H16(0.5) C17(0.5) H17A(0.5) H17B(0.5) H17C(0.5)
7.a Me refined with riding coordinates:
 C17(H17A,H17B,H17C)
7.b Aromatic/amide H refined with riding coordinates:
 N2(H2), N3(H3), C5(H5), C7(H7), C8(H8), C11(H11), C13(H13), C14(H14),
 C15(H15), C16(H16)
7.c Fitted hexagon refined as free rotating group:
 C11(C12,C13,C14,C15,C16)
7.d Idealised Me refined as rotating group:
 C10(H10A,H10B,H10C)
;
_shelx_res_file
;
    mcd_msc2_020315_0m_a.res created by SHELXL-2014/7

TITL MCD_MSC2_020315_0m_a.res in P-1
CELL 0.71073 7.5512 10.6017 12.8522 94.519 97.975 90.201
ZERR 2 0.0007 0.0009 0.0012 0.005 0.005 0.004
LATT 1

SFAC C H Br N O Re S
UNIT 27 24 2 8 12 2 2
SADI C17 C11 C17 C13
DELU C17 C11 C12 C16 C13 C15 C14
SIMU 0.04 0.08 1.7 C11 C12 C16 C13 C17 C15 C14
RIGU C17 C11 C12 C16 C13 C15 C14
EADP O5 O6

L.S. 20
PLAN  50
TEMP -178
LIST 6
MORE -1
CONF
BOND $H
fmap 2
acta 52
OMIT -1 0 1
OMIT 1 0 0
REM <HKL>E:/X-ray-out/MCD/MCD_MSC2_020315/work/MCD_MSC2_020315_0m_a.hkl</HKL>

WGHT    0.068900
FVAR       0.37159
RE1   6    0.754532    0.286106    0.442614    11.00000    0.02027    0.01977 =
         0.02119    0.00354    0.00330   -0.00209
BR1   3    0.816308    0.042322    0.393924    11.00000    0.02527    0.02199 =
         0.04213    0.00476    0.01102   -0.00068
S1    7    0.495856    0.255905    0.302565    11.00000    0.02595    0.02912 =
         0.01993    0.00501    0.00199   -0.00233
O1    5    1.007390    0.380506    0.295632    11.00000    0.04711    0.03469 =
         0.04755    0.00284    0.02141   -0.00575
O2    5    0.686673    0.567110    0.495756    11.00000    0.03689    0.01762 =
         0.04802   -0.00349    0.01228   -0.00432
O3    5    1.075800    0.285929    0.620978    11.00000    0.03175    0.04917 =
         0.04172    0.01049   -0.00919   -0.00477
O4    5    0.738659    0.206359    0.796879    11.00000    0.04734    0.02540 =
         0.02515   -0.00027   -0.00788   -0.00716
O5    5    0.982303    0.333828    1.030113    11.00000    0.14677    0.04424 =
         0.04810    0.00044   -0.05135   -0.00659
O6    5    0.913709    0.141602    0.975102    11.00000    0.14677    0.04424 =
         0.04810    0.00044   -0.05135   -0.00659
N1    4    0.551598    0.207975    0.531411    11.00000    0.02479    0.01728 =
         0.02256    0.00520    0.00241   -0.00166
N2    4    0.411219    0.142929    0.468798    11.00000    0.02116    0.02458 =
         0.02247    0.00200    0.00131   -0.00393
AFIX  43
H2    2    0.349509    0.086888    0.496507    11.00000   -1.20000
AFIX   0
N3    4    0.219042    0.104510    0.316707    11.00000    0.02348    0.03078 =
         0.02133    0.00539   -0.00197   -0.00044
AFIX  43
H3    2    0.155123    0.060511    0.353751    11.00000   -1.20000
AFIX   0
N4    4    0.912315    0.255362    0.964206    11.00000    0.08943    0.03668 =
         0.03382   -0.00495   -0.01579   -0.00795
C1    1    0.711617    0.459164    0.476676    11.00000    0.01588    0.02668 =
         0.02438    0.00261    0.00561    0.00095
C2    1    0.913796    0.345269    0.350559    11.00000    0.02469    0.02144 =
         0.03471    0.00143    0.00871    0.00012
C3    1    0.953987    0.288227    0.554747    11.00000    0.03562    0.02729 =
         0.02692    0.00926    0.00394   -0.00724
C4    1    0.366461    0.163802    0.365099    11.00000    0.02326    0.02650 =
         0.01936    0.00178    0.00255    0.00087
C5    1    0.555699    0.198554    0.631083    11.00000    0.03241    0.02125 =
         0.02091    0.00545    0.00632   -0.00496
AFIX  43
H5    2    0.476566    0.139166    0.652782    11.00000   -1.20000
AFIX   0
C6    1    0.671814    0.271802    0.711301    11.00000    0.02902    0.03088 =
         0.01755    0.00631   -0.00065   -0.00036
C7    1    0.718677    0.396211    0.730410    11.00000    0.05394    0.03699 =
         0.01366   -0.00024    0.00368   -0.01341
AFIX  43
H7    2    0.687153    0.460934    0.684444    11.00000   -1.20000
AFIX   0
C8    1    0.823300    0.412143    0.831484    11.00000    0.04525    0.02865 =
         0.02062   -0.00773    0.00111   -0.01295
AFIX  43
H8    2    0.877829    0.487833    0.866161    11.00000   -1.20000
AFIX   0
C9    1    0.827733    0.298470    0.866316    11.00000    0.04107    0.03874 =
         0.01238   -0.00206   -0.00709   -0.00540
C10   1    0.158695    0.109855    0.202930    11.00000    0.03257    0.03796 =
         0.02542   -0.00086   -0.00880   -0.00058
AFIX 137
H10A  2    0.251498    0.075585    0.162883    11.00000   -1.50000
H10B  2    0.136161    0.197919    0.187573    11.00000   -1.50000
H10C  2    0.048347    0.059613    0.182771    11.00000   -1.50000
AFIX  66

PART -1
C11   1    0.473506    0.314994    0.996959    10.50000    0.06734    0.14495 =
         0.09054    0.01481    0.05119   -0.00128
AFIX  43
H11   2    0.511743    0.395009    1.031393    10.50000   -1.20000
AFIX  65
C12   1    0.350090    0.308316    0.905708    10.50000    0.06834    0.12716 =
         0.08869    0.00964    0.05336    0.00872
C13   1    0.294143    0.191242    0.855325    10.50000    0.06292    0.12865 =
         0.07451    0.01909    0.03962    0.01273
AFIX  43
H13   2    0.209794    0.186679    0.792960    10.50000   -1.20000
AFIX  65
C14   1    0.361612    0.080844    0.896193    10.50000    0.06194    0.12322 =
         0.06859    0.01256    0.04159    0.00696
AFIX  43
H14   2    0.323375    0.000829    0.861758    10.50000   -1.20000
AFIX  65
C15   1    0.485029    0.087519    0.987443    10.50000    0.06923    0.13983 =
         0.05949    0.01942    0.04382    0.01084
AFIX  43
H15   2    0.531140    0.012067    1.015373    10.50000   -1.20000
AFIX  65
C16   1    0.540977    0.204593    1.037827    10.50000    0.08966    0.14833 =
         0.07921    0.00678    0.03754    0.00020
AFIX  43
H16   2    0.625326    0.209156    1.100192    10.50000   -1.20000
AFIX   0
C17   1    0.322049    0.422008    0.853136    10.50000    0.08101    0.13424 =
         0.10372    0.01633    0.05315    0.01436
AFIX  33
H17A  2    0.370147    0.494422    0.900927    10.50000   -1.50000
H17B  2    0.383138    0.416512    0.790486    10.50000   -1.50000
H17C  2    0.193642    0.433010    0.831965    10.50000   -1.50000
AFIX   0
HKLF 4

REM  MCD_MSC2_020315_0m_a.res in P-1
REM R1 =  0.0448 for    3956 Fo > 4sig(Fo)  and  0.0519 for all    4491 data
REM    254 parameters refined using    103 restraints

END

WGHT      0.0713      0.2641

REM Highest difference peak  1.973,  deepest hole -1.786,  1-sigma level  0.244
Q1    1   0.7847  0.2590  0.5063  11.00000  0.05    1.97
Q2    1   0.6987  0.3085  0.3745  11.00000  0.05    1.81
Q3    1   0.5542  0.4536  1.0671  11.00000  0.05    1.55
Q4    1   0.8320  0.3587  0.4519  11.00000  0.05    1.48
Q5    1   0.8852  0.2791  0.4238  11.00000  0.05    1.42
Q6    1   0.7229  0.2310  0.3659  11.00000  0.05    1.26
Q7    1   0.5992  0.0167  1.0618  11.00000  0.05    1.23
Q8    1   0.7819  0.3360  0.5288  11.00000  0.05    1.16
Q9    1   0.6909  0.2264  0.4227  11.00000  0.05    1.11
Q10   1   0.6105  0.2988  0.4603  11.00000  0.05    1.10
Q11   1   0.4710  0.4485  0.9778  11.00000  0.05    1.04
Q12   1   0.8844  0.0232  0.4646  11.00000  0.05    1.01
Q13   1   0.3296  0.3956  0.9016  11.00000  0.05    0.99
Q14   1   0.4399  0.4030  0.9596  11.00000  0.05    0.99
Q15   1   0.2937  0.1541  0.8478  11.00000  0.05    0.96
Q16   1   0.4327  0.3141  0.9549  11.00000  0.05    0.94
Q17   1   0.8512  0.0756  0.3220  11.00000  0.05    0.90
Q18   1   0.8253  0.1204  0.9797  11.00000  0.05    0.90
Q19   1   0.6834  0.0529  0.4015  11.00000  0.05    0.88
Q20   1   0.3552  0.5197  0.8604  11.00000  0.05    0.87
Q21   1   0.7144  0.0572  0.3171  11.00000  0.05    0.84
Q22   1   0.7130  0.3612  0.4953  11.00000  0.05    0.83
Q23   1   0.3507  0.5725  0.8049  11.00000  0.05    0.83
Q24   1   0.7251  0.3173  0.3014  11.00000  0.05    0.76
Q25   1   0.3790  0.0549  0.9126  11.00000  0.05    0.76
Q26   1   0.4629  0.3122  1.0545  11.00000  0.05    0.75
Q27   1   0.4475  0.2731  0.2382  11.00000  0.05    0.72
Q28   1   0.3135  0.3389  0.9495  11.00000  0.05    0.72
Q29   1   0.5856  0.3842  0.6401  11.00000  0.05    0.71
Q30   1   0.8512  0.0936  0.4537  11.00000  0.05    0.70
Q31   1   0.8020 -0.0167  0.3057  11.00000  0.05    0.68
Q32   1   0.7298 -0.0429  0.3662  11.00000  0.05    0.68
Q33   1   0.5000  0.0000  0.5000  10.50000  0.05    0.67
Q34   1   0.7999  0.4923  0.4804  11.00000  0.05    0.66
Q35   1   0.3055  0.3094  0.8630  11.00000  0.05    0.66
Q36   1   0.9136  0.0166  0.9401  11.00000  0.05    0.66
Q37   1   0.6504  0.3840  0.4219  11.00000  0.05    0.66
Q38   1   0.3107  0.2600  0.2062  11.00000  0.05    0.65
Q39   1   0.3938  0.1861  0.4203  11.00000  0.05    0.65
Q40   1   0.7372  0.4032  0.3507  11.00000  0.05    0.64
Q41   1   1.0772  0.4380  0.2380  11.00000  0.05    0.63
Q42   1   0.9106  0.1996  0.4544  11.00000  0.05    0.63
Q43   1   0.9500  0.0400  0.3810  11.00000  0.05    0.62
Q44   1   0.7435  0.5196  0.8428  11.00000  0.05    0.61
Q45   1   0.7153  0.3976  0.4224  11.00000  0.05    0.61
Q46   1   0.3306  0.2462  0.9408  11.00000  0.05    0.60
Q47   1   0.5610  0.2876  0.5318  11.00000  0.05    0.60
Q48   1   0.6732  0.4344  0.7969  11.00000  0.05    0.60
Q49   1   0.4221  0.1978  0.3416  11.00000  0.05    0.60
Q50   1   0.4585  0.3572  0.7763  11.00000  0.05    0.60
;
_shelx_res_checksum              11258
_shelx_shelxl_version_number     2014/7
_olex2_submission_special_instructions 'No special instructions were received'
#END Tags that were not found in dictionaries
loop_
_space_group_symop_operation_xyz
'x, y, z'
'-x, -y, -z'
loop_
_atom_site_label
_atom_site_type_symbol
_atom_site_fract_x
_atom_site_fract_y
_atom_site_fract_z
_atom_site_U_iso_or_equiv
_atom_site_adp_type
_atom_site_occupancy
_atom_site_site_symmetry_order
_atom_site_calc_flag
_atom_site_refinement_flags_posn
_atom_site_refinement_flags_adp
_atom_site_refinement_flags_occupancy
_atom_site_disorder_assembly
_atom_site_disorder_group
Re1 Re 0.75453(3) 0.28611(2) 0.44261(2) 0.02027(12) Uani 1 1 d . . . . .
Br1 Br 0.81631(9) 0.04232(7) 0.39392(6) 0.02908(18) Uani 1 1 d . . . . .
S1 S 0.4959(2) 0.25591(17) 0.30257(14) 0.0250(4) Uani 1 1 d . . . . .
O1 O 1.0074(7) 0.3805(5) 0.2956(5) 0.0418(14) Uani 1 1 d . . . . .
O2 O 0.6867(7) 0.5671(5) 0.4958(5) 0.0339(13) Uani 1 1 d . . . . .
O3 O 1.0758(7) 0.2859(6) 0.6210(5) 0.0419(14) Uani 1 1 d . . . . .
O4 O 0.7387(7) 0.2064(5) 0.7969(4) 0.0340(12) Uani 1 1 d . . . . .
O5 O 0.9823(12) 0.3338(7) 1.0301(6) 0.086(2) Uani 1 1 d . . . . .
O6 O 0.9137(12) 0.1416(7) 0.9751(6) 0.086(2) Uani 1 1 d . . . . .
N1 N 0.5516(7) 0.2080(5) 0.5314(5) 0.0214(12) Uani 1 1 d . . . . .
N2 N 0.4112(7) 0.1429(6) 0.4688(5) 0.0229(12) Uani 1 1 d . . . . .
H2 H 0.3495 0.0869 0.4965 0.027 Uiso 1 1 calc R . . . .
N3 N 0.2190(7) 0.1045(6) 0.3167(5) 0.0255(13) Uani 1 1 d . . . . .
H3 H 0.1551 0.0605 0.3538 0.031 Uiso 1 1 calc R . . . .
N4 N 0.9123(12) 0.2554(7) 0.9642(6) 0.056(2) Uani 1 1 d . . . . .
C1 C 0.7116(8) 0.4592(6) 0.4767(5) 0.0220(14) Uani 1 1 d . . . . .
C2 C 0.9138(9) 0.3453(6) 0.3506(6) 0.0266(15) Uani 1 1 d . . . . .
C3 C 0.9540(10) 0.2882(7) 0.5547(6) 0.0296(16) Uani 1 1 d . . . . .
C4 C 0.3665(8) 0.1638(6) 0.3651(5) 0.0231(14) Uani 1 1 d . . . . .
C5 C 0.5557(9) 0.1986(6) 0.6311(5) 0.0244(15) Uani 1 1 d . . . . .
H5 H 0.4766 0.1392 0.6528 0.029 Uiso 1 1 calc R . . . .
C6 C 0.6718(9) 0.2718(7) 0.7113(5) 0.0260(15) Uani 1 1 d . . . . .
C7 C 0.7187(11) 0.3962(8) 0.7304(6) 0.0351(19) Uani 1 1 d . . . . .
H7 H 0.6872 0.4609 0.6844 0.042 Uiso 1 1 calc R . . . .
C8 C 0.8233(10) 0.4121(7) 0.8315(6) 0.0324(17) Uani 1 1 d . . . . .
H8 H 0.8778 0.4878 0.8662 0.039 Uiso 1 1 calc R . . . .
C9 C 0.8277(10) 0.2985(7) 0.8663(5) 0.0320(17) Uani 1 1 d . . . . .
C10 C 0.1587(10) 0.1099(7) 0.2029(6) 0.0334(17) Uani 1 1 d . . . . .
H10A H 0.2515 0.0756 0.1629 0.050 Uiso 1 1 calc GR . . . .
H10B H 0.1362 0.1979 0.1876 0.050 Uiso 1 1 calc GR . . . .
H10C H 0.0483 0.0596 0.1828 0.050 Uiso 1 1 calc GR . . . .
C11 C 0.474(2) 0.3150(15) 0.9970(12) 0.097(5) Uani 0.5 1 d . U P A -1
H11 H 0.5117 0.3950 1.0314 0.116 Uiso 0.5 1 calc R . P A -1
C12 C 0.350(2) 0.3083(14) 0.9057(13) 0.091(5) Uani 0.5 1 d G U P A -1
C13 C 0.2941(18) 0.1912(16) 0.8553(11) 0.085(5) Uani 0.5 1 d G U P A -1
H13 H 0.2098 0.1867 0.7930 0.102 Uiso 0.5 1 calc R . P A -1
C14 C 0.362(2) 0.0808(14) 0.8962(13) 0.081(5) Uani 0.5 1 d G U P A -1
H14 H 0.3234 0.0008 0.8618 0.097 Uiso 0.5 1 calc R . P A -1
C15 C 0.485(2) 0.0875(15) 0.9874(13) 0.086(5) Uani 0.5 1 d G U P A -1
H15 H 0.5311 0.0121 1.0154 0.103 Uiso 0.5 1 calc R . P A -1
C16 C 0.5410(19) 0.2046(18) 1.0378(11) 0.103(6) Uani 0.5 1 d G U P A -1
H16 H 0.6253 0.2092 1.1002 0.124 Uiso 0.5 1 calc R . P A -1
C17 C 0.322(3) 0.422(3) 0.853(2) 0.102(7) Uani 0.5 1 d . U P A -1
H17A H 0.3701 0.4944 0.9009 0.153 Uiso 0.5 1 calc R . P A -1
H17B H 0.3831 0.4165 0.7905 0.153 Uiso 0.5 1 calc R . P A -1
H17C H 0.1936 0.4330 0.8320 0.153 Uiso 0.5 1 calc R . P A -1
loop_
_atom_site_aniso_label
_atom_site_aniso_U_11
_atom_site_aniso_U_22
_atom_site_aniso_U_33
_atom_site_aniso_U_23
_atom_site_aniso_U_13
_atom_site_aniso_U_12
Re1 0.02027(17) 0.01977(18) 0.02119(18) 0.00354(11) 0.00330(11) -0.00209(11)
Br1 0.0253(4) 0.0220(4) 0.0421(5) 0.0048(3) 0.0110(3) -0.0007(3)
S1 0.0260(8) 0.0291(9) 0.0199(9) 0.0050(7) 0.0020(7) -0.0023(7)
O1 0.047(3) 0.035(3) 0.048(4) 0.003(3) 0.021(3) -0.006(3)
O2 0.037(3) 0.018(3) 0.048(4) -0.003(2) 0.012(2) -0.004(2)
O3 0.032(3) 0.049(4) 0.042(4) 0.010(3) -0.009(3) -0.005(2)
O4 0.047(3) 0.025(3) 0.025(3) 0.000(2) -0.008(2) -0.007(2)
O5 0.147(5) 0.044(3) 0.048(3) 0.000(2) -0.051(3) -0.007(3)
O6 0.147(5) 0.044(3) 0.048(3) 0.000(2) -0.051(3) -0.007(3)
N1 0.025(3) 0.017(3) 0.023(3) 0.005(2) 0.002(2) -0.002(2)
N2 0.021(3) 0.025(3) 0.022(3) 0.002(2) 0.001(2) -0.004(2)
N3 0.023(3) 0.031(3) 0.021(3) 0.005(2) -0.002(2) 0.000(2)
N4 0.089(6) 0.037(4) 0.034(4) -0.005(3) -0.016(4) -0.008(4)
C1 0.016(3) 0.027(4) 0.024(4) 0.003(3) 0.006(3) 0.001(3)
C2 0.025(3) 0.021(4) 0.035(4) 0.001(3) 0.009(3) 0.000(3)
C3 0.036(4) 0.027(4) 0.027(4) 0.009(3) 0.004(3) -0.007(3)
C4 0.023(3) 0.026(4) 0.019(4) 0.002(3) 0.003(3) 0.001(3)
C5 0.032(4) 0.021(3) 0.021(4) 0.005(3) 0.006(3) -0.005(3)
C6 0.029(3) 0.031(4) 0.018(4) 0.006(3) -0.001(3) 0.000(3)
C7 0.054(5) 0.037(5) 0.014(4) 0.000(3) 0.004(3) -0.013(4)
C8 0.045(4) 0.029(4) 0.021(4) -0.008(3) 0.001(3) -0.013(3)
C9 0.041(4) 0.039(4) 0.012(4) -0.002(3) -0.007(3) -0.005(3)
C10 0.033(4) 0.038(4) 0.025(4) -0.001(3) -0.009(3) -0.001(3)
C11 0.067(11) 0.145(13) 0.091(12) 0.015(9) 0.051(8) -0.001(9)
C12 0.068(10) 0.127(12) 0.089(12) 0.010(8) 0.053(8) 0.009(8)
C13 0.063(10) 0.129(12) 0.075(11) 0.019(8) 0.040(8) 0.013(8)
C14 0.062(10) 0.123(12) 0.069(11) 0.013(8) 0.042(8) 0.007(8)
C15 0.069(10) 0.140(13) 0.059(11) 0.019(9) 0.044(7) 0.011(9)
C16 0.090(12) 0.148(13) 0.079(12) 0.007(9) 0.038(9) 0.000(10)
C17 0.081(14) 0.134(13) 0.104(15) 0.016(10) 0.053(11) 0.014(10)
loop_
_atom_type_symbol
_atom_type_description
_atom_type_scat_dispersion_real
_atom_type_scat_dispersion_imag
_atom_type_scat_source
C C 0.0033 0.0016 'International Tables Vol C Tables 4.2.6.8 and 6.1.1.4'
H H 0.0000 0.0000 'International Tables Vol C Tables 4.2.6.8 and 6.1.1.4'
Br Br -0.2901 2.4595 'International Tables Vol C Tables 4.2.6.8 and 6.1.1.4'
N N 0.0061 0.0033 'International Tables Vol C Tables 4.2.6.8 and 6.1.1.4'
O O 0.0106 0.0060 'International Tables Vol C Tables 4.2.6.8 and 6.1.1.4'
Re Re -1.0185 7.2310 'International Tables Vol C Tables 4.2.6.8 and 6.1.1.4'
S S 0.1246 0.1234 'International Tables Vol C Tables 4.2.6.8 and 6.1.1.4'
loop_
_geom_angle_atom_site_label_1
_geom_angle_atom_site_label_2
_geom_angle_atom_site_label_3
_geom_angle
S1 Re1 Br1 84.86(5)
N1 Re1 Br1 83.39(15)
N1 Re1 S1 79.15(15)
C1 Re1 Br1 179.7(2)
C1 Re1 S1 95.2(2)
C1 Re1 N1 96.9(2)
C1 Re1 C2 85.9(3)
C1 Re1 C3 91.0(3)
C2 Re1 Br1 93.8(2)
C2 Re1 S1 94.5(2)
C2 Re1 N1 173.2(2)
C3 Re1 Br1 89.0(2)
C3 Re1 S1 173.0(2)
C3 Re1 N1 96.9(3)
C3 Re1 C2 89.2(3)
C4 S1 Re1 98.5(2)
C9 O4 C6 103.4(6)
N2 N1 Re1 114.4(4)
C5 N1 Re1 130.3(4)
C5 N1 N2 114.5(5)
N1 N2 H2 119.3
C4 N2 N1 121.5(5)
C4 N2 H2 119.3
C4 N3 H3 118.9
C4 N3 C10 122.3(6)
C10 N3 H3 118.9
O5 N4 O6 123.6(8)
O5 N4 C9 117.6(8)
O6 N4 C9 118.7(7)
O2 C1 Re1 178.4(6)
O1 C2 Re1 179.6(7)
O3 C3 Re1 177.9(7)
N2 C4 S1 121.7(5)
N3 C4 S1 123.0(5)
N3 C4 N2 115.4(6)
N1 C5 H5 117.9
N1 C5 C6 124.3(6)
C6 C5 H5 117.9
O4 C6 C5 114.5(6)
C7 C6 O4 109.9(6)
C7 C6 C5 135.1(7)
C6 C7 H7 126.1
C6 C7 C8 107.7(7)
C8 C7 H7 126.1
C7 C8 H8 127.7
C9 C8 C7 104.5(6)
C9 C8 H8 127.7
O4 C9 N4 115.2(7)
C8 C9 O4 114.4(6)
C8 C9 N4 130.4(7)
N3 C10 H10A 109.5
N3 C10 H10B 109.5
N3 C10 H10C 109.5
H10A C10 H10B 109.5
H10A C10 H10C 109.5
H10B C10 H10C 109.5
C12 C11 H11 120.0
C12 C11 C16 120.0
C16 C11 H11 120.0
C11 C12 C17 116.7(8)
C13 C12 C11 120.0
C13 C12 C17 121.3(8)
C12 C13 H13 120.0
C12 C13 C14 120.0
C14 C13 H13 120.0
C13 C14 H14 120.0
C15 C14 C13 120.0
C15 C14 H14 120.0
C14 C15 H15 120.0
C14 C15 C16 120.0
C16 C15 H15 120.0
C11 C16 H16 120.0
C15 C16 C11 120.0
C15 C16 H16 120.0
C12 C17 H17A 109.5
C12 C17 H17B 109.5
C12 C17 H17C 109.5
H17A C17 H17B 109.5
H17A C17 H17C 109.5
H17B C17 H17C 109.5
loop_
_geom_bond_atom_site_label_1
_geom_bond_atom_site_label_2
_geom_bond_distance
Re1 Br1 2.6690(8)
Re1 S1 2.4672(17)
Re1 N1 2.228(5)
Re1 C1 1.892(7)
Re1 C2 1.935(7)
Re1 C3 1.933(7)
S1 C4 1.700(7)
O1 C2 1.147(8)
O2 C1 1.173(8)
O3 C3 1.165(9)
O4 C6 1.384(8)
O4 C9 1.376(8)
O5 N4 1.204(9)
O6 N4 1.225(10)
N1 N2 1.385(7)
N1 C5 1.289(9)
N2 H2 0.8800
N2 C4 1.364(8)
N3 H3 0.8800
N3 C4 1.328(8)
N3 C10 1.476(9)
N4 C9 1.439(10)
C5 H5 0.9500
C5 C6 1.433(9)
C6 C7 1.359(10)
C7 H7 0.9500
C7 C8 1.421(10)
C8 H8 0.9500
C8 C9 1.317(10)
C10 H10A 0.9800
C10 H10B 0.9800
C10 H10C 0.9800
C11 H11 0.9500
C11 C12 1.3900
C11 C16 1.3900
C12 C13 1.3900
C12 C17 1.43(3)
C13 H13 0.9500
C13 C14 1.3900
C14 H14 0.9500
C14 C15 1.3900
C15 H15 0.9500
C15 C16 1.3900
C16 H16 0.9500
C17 H17A 0.9800
C17 H17B 0.9800
C17 H17C 0.9800
loop_
_geom_torsion_atom_site_label_1
_geom_torsion_atom_site_label_2
_geom_torsion_atom_site_label_3
_geom_torsion_atom_site_label_4
_geom_torsion
Re1 S1 C4 N2 8.3(6)
Re1 S1 C4 N3 -169.6(6)
Re1 N1 N2 C4 -22.6(7)
Re1 N1 C5 C6 20.2(10)
O4 C6 C7 C8 1.2(9)
O5 N4 C9 O4 -175.4(9)
O5 N4 C9 C8 5.5(15)
O6 N4 C9 O4 6.5(13)
O6 N4 C9 C8 -172.6(10)
N1 N2 C4 S1 8.1(9)
N1 N2 C4 N3 -173.7(6)
N1 C5 C6 O4 -142.4(7)
N1 C5 C6 C7 46.7(13)
N2 N1 C5 C6 -170.5(6)
C5 N1 N2 C4 166.4(6)
C5 C6 C7 C8 172.5(8)
C6 O4 C9 N4 -179.8(7)
C6 O4 C9 C8 -0.6(9)
C6 C7 C8 C9 -1.5(9)
C7 C8 C9 O4 1.3(9)
C7 C8 C9 N4 -179.6(8)
C9 O4 C6 C5 -173.6(6)
C9 O4 C6 C7 -0.4(8)
C10 N3 C4 S1 2.4(10)
C10 N3 C4 N2 -175.7(6)
C11 C12 C13 C14 0.0
C12 C11 C16 C15 0.0
C12 C13 C14 C15 0.0
C13 C14 C15 C16 0.0
C14 C15 C16 C11 0.0
C16 C11 C12 C13 0.0
C16 C11 C12 C17 -164.1(16)
C17 C12 C13 C14 163.4(17)
