#------------------------------------------------------------------------------
#$Date: 2015-12-07 22:23:08 +0200 (Mon, 07 Dec 2015) $
#$Revision: 170875 $
#$URL: svn://www.crystallography.net/cod/cif/7/03/75/7037576.cif $
#------------------------------------------------------------------------------
#
# This file is available in the Crystallography Open Database (COD),
# http://www.crystallography.net/
#
# All data on this site have been placed in the public domain by the
# contributors.
#
data_7037576
loop_
_publ_author_name
'Wang, Zhong-Xia'
'Liao, Wei-Qiang'
'Ye, Heng-Yun'
'Zhang, Yi'
_publ_section_title
;
 Sequential structural transitions with distinct dielectric responses in a
 layered perovskite organic-inorganic hybrid material: [C4H9N]2[PbBr4].
;
_journal_issue                   47
_journal_name_full
'Dalton transactions (Cambridge, England : 2003)'
_journal_page_first              20406
_journal_page_last               20412
_journal_paper_doi               10.1039/c5dt03277f
_journal_volume                  44
_journal_year                    2015
_chemical_formula_moiety         'Br4 Pb, 2(C2 H6 N), 4(C H3)'
_chemical_formula_sum            'C8 H24 Br4 N2 Pb'
_chemical_formula_weight         675.09
_space_group_crystal_system      monoclinic
_space_group_IT_number           14
_space_group_name_Hall           '-P 2ybc'
_space_group_name_H-M_alt        'P 1 21/c 1'
_symmetry_space_group_name_Hall  '-P 2ybc'
_symmetry_space_group_name_H-M   'P 1 21/c 1'
_atom_sites_solution_hydrogens   mixed
_audit_creation_method           SHELXL-2014/7
_audit_update_record
;
2015-10-13 deposited with the CCDC.
2015-10-15 downloaded from the CCDC.
;
_cell_angle_alpha                90
_cell_angle_beta                 105.32(3)
_cell_angle_gamma                90
_cell_formula_units_Z            2
_cell_length_a                   14.196(3)
_cell_length_b                   8.3416(17)
_cell_length_c                   8.2422(16)
_cell_measurement_reflns_used    0
_cell_measurement_temperature    293(2)
_cell_measurement_theta_max      -1.#IN
_cell_measurement_theta_min      -1.#IN
_cell_volume                     941.3(4)
_computing_structure_refinement  'SHELXL-2014/7 (Sheldrick, 2014)'
_diffrn_ambient_temperature      293(2)
_diffrn_measured_fraction_theta_full 0.998
_diffrn_measured_fraction_theta_max 0.997
_diffrn_measurement_device_type  'Rigaku Mercury CCD'
_diffrn_measurement_method       \w
_diffrn_radiation_type           MoK\a
_diffrn_radiation_wavelength     0.71073
_diffrn_reflns_av_R_equivalents  0.1100
_diffrn_reflns_av_unetI/netI     0.1375
_diffrn_reflns_laue_measured_fraction_full 0.998
_diffrn_reflns_laue_measured_fraction_max 0.997
_diffrn_reflns_limit_h_max       11
_diffrn_reflns_limit_h_min       -18
_diffrn_reflns_limit_k_max       10
_diffrn_reflns_limit_k_min       -8
_diffrn_reflns_limit_l_max       10
_diffrn_reflns_limit_l_min       -10
_diffrn_reflns_number            6231
_diffrn_reflns_point_group_measured_fraction_full 0.998
_diffrn_reflns_point_group_measured_fraction_max 0.997
_diffrn_reflns_theta_full        25.242
_diffrn_reflns_theta_max         27.477
_diffrn_reflns_theta_min         3.540
_diffrn_source                   'fine-focus sealed tube'
_exptl_absorpt_coefficient_mu    17.433
_exptl_absorpt_correction_T_max  0.031
_exptl_absorpt_correction_T_min  0.021
_exptl_absorpt_correction_type   multi-scan
_exptl_absorpt_process_details   'CrystalClear (Rigaku, 2005)'
_exptl_crystal_colour            pale-yellow
_exptl_crystal_density_diffrn    2.382
_exptl_crystal_density_method    'not measured'
_exptl_crystal_description       plate
_exptl_crystal_F_000             616.0
_exptl_crystal_size_max          0.3
_exptl_crystal_size_mid          0.2
_exptl_crystal_size_min          0.2
_refine_diff_density_max         2.477
_refine_diff_density_min         -3.812
_refine_diff_density_rms         0.304
_refine_ls_extinction_method     none
_refine_ls_goodness_of_fit_ref   1.000
_refine_ls_hydrogen_treatment    mixed
_refine_ls_matrix_type           full
_refine_ls_number_parameters     115
_refine_ls_number_reflns         2155
_refine_ls_number_restraints     103
_refine_ls_restrained_S_all      0.990
_refine_ls_R_factor_all          0.1144
_refine_ls_R_factor_gt           0.0668
_refine_ls_shift/su_max          0.005
_refine_ls_shift/su_mean         0.000
_refine_ls_structure_factor_coef Fsqd
_refine_ls_weighting_details
'w=1/[\s^2^(Fo^2^)+(0.0423P)^2^] where P=(Fo^2^+2Fc^2^)/3'
_refine_ls_weighting_scheme      calc
_refine_ls_wR_factor_gt          0.1288
_refine_ls_wR_factor_ref         0.1431
_reflns_Friedel_coverage         0.000
_reflns_number_gt                1300
_reflns_number_total             2155
_reflns_threshold_expression     'I > 2\s(I)'
_cod_data_source_file            c5dt03277f2.cif
_cod_data_source_block           2
_cod_depositor_comments
;
The following automatic conversions were performed:

'_exptl_absorpt_correction_type' value 'Multi-scan' changed to
'multi-scan' according to
/usr/data/users/saulius/crontab/automatic-downloads/current/RSC/lib/dictionaries/cif_core.dic
dictionary named 'cif_core.dic' version 2.4.2 from 2011-04-26.

Automatic conversion script
Id: cif_fix_values 4268 2015-11-12 08:31:59Z antanas 
;
_cod_database_code               7037576
_shelx_shelxl_version_number     2014/7
_shelx_space_group_comment
;
The symmetry employed for this shelxl refinement is uniquely defined
by the following loop, which should always be used as a source of
symmetry information in preference to the above space-group names.
They are only intended as comments.
;
_shelx_res_file
;

    2.res created by SHELXL-2014/7


TITL 2 in P2(1)/c
CELL 0.71073  14.1958   8.3416   8.2422  90.000 105.325  90.000
ZERR    9.00   0.0028   0.0017   0.0016   0.000   0.030   0.000
LATT 1
SYMM -X, 0.5+Y, 0.5-Z
SFAC C  H  N  Br Pb
UNIT 9 9 9 9 9
L.S. 90
ACTA
BOND
FMAP 2
PLAN 20
HTAB N1 Br2_$1
HTAB N1 Br2_$3
HTAB N1 Br1_$2
HTAB N1 Br1_$1
eqiv $3 x, y+1, z
eqiv $2 -x, y+1/2, -z+1/2
eqiv $1 x, -y+3/2, z+1/2
DFIX 2 H1D H4B H1D H4B'
DFIX 2 H1F H4B H1F H4B'
DFIX 0.98 C4 H4A' C4 H4A C4 H4B C4 H4B'
dfix 1.5 c3 c1' c3 c2 c3 c4 c3 c2'
dfix 1.5 c3' c1 c3' c2' c3' c4  c3' c2
dfix 1.47 c4 n1
dfix 2.5 c1 c2'
dfix 2.5 c1' c2
simu 0.01 c1 c2 c3 c4 n1 c1' c2' c3'
damp 1000
HTAB
CONF
WGHT    0.042300
FVAR       0.22186   0.45845
PART 1
C1    1    0.405099    1.129886    0.682658    21.00000    0.11282    0.13303 =
         0.12603    0.01393   -0.00087    0.02148
AFIX 137
H1A   2    0.368370    1.211628    0.611167    21.00000   -1.50000
H1B   2    0.456693    1.092906    0.636713    21.00000   -1.50000
H1C   2    0.432553    1.173113    0.792995    21.00000   -1.50000
AFIX   0
C3    1    0.343098    1.000976    0.693059    10.50000    0.11839    0.13250 =
         0.10889    0.01704   -0.00578    0.01837
AFIX  13
H3    2    0.336408    1.038238    0.802227    10.50000   -1.20000
AFIX   0
C2'   1    0.396123    0.845768    0.773209   -21.00000    0.13047    0.14539 =
         0.13272    0.00622   -0.02289    0.01655
AFIX 137
H2'1  2    0.458707    0.873049    0.846379   -21.00000   -1.50000
H2'2  2    0.404881    0.775637    0.685999   -21.00000   -1.50000
H2'3  2    0.357527    0.792764    0.836746   -21.00000   -1.50000
AFIX   0
H4A   2    0.189514    0.876489    0.612577    21.00000   -1.50000
H4B   2    0.223954    1.028680    0.726173    21.00000   -1.50000
PART 2
C1'   1    0.397414    1.018618    0.565202   -21.00000    0.11443    0.14337 =
         0.11648    0.01280   -0.00288    0.02136
AFIX 137
H1'1  2    0.377133    0.951182    0.467804   -21.00000   -1.50000
H1'2  2    0.465418    1.000897    0.618168   -21.00000   -1.50000
H1'3  2    0.387356    1.128918    0.531885   -21.00000   -1.50000
AFIX   0
C3'   1    0.345124    0.983715    0.673142    10.50000    0.11894    0.13262 =
         0.10841    0.01697   -0.00594    0.01804
AFIX  13
H3'   2    0.342979    1.095710    0.707902    10.50000   -1.20000
AFIX   0
C2    1    0.397042    0.927326    0.853447    21.00000    0.12780    0.14927 =
         0.11819    0.00286   -0.01177    0.02428
AFIX 137
H2A   2    0.383776    0.815646    0.864887    21.00000   -1.50000
H2B   2    0.373371    0.988282    0.933306    21.00000   -1.50000
H2C   2    0.466191    0.943064    0.874020    21.00000   -1.50000
AFIX   0
H4A'  2    0.188831    0.877430    0.612749   -21.00000   -1.50000
H4B'  2    0.223923    1.028754    0.726156   -21.00000   -1.50000
PART 0
C4    1    0.236767    0.965003    0.634132    11.00000    0.11271    0.12173 =
         0.08910    0.01638    0.00166    0.01279
N1    3    0.182831    1.075321    0.508902    11.00000    0.08354    0.07569 =
         0.08490   -0.00863    0.04375    0.00160
AFIX 137
H1D   2    0.121317    1.080770    0.515376    11.00000   -1.50000
H1E   2    0.183829    1.041228    0.407050    11.00000   -1.50000
H1F   2    0.210070    1.172033    0.527012    11.00000   -1.50000
AFIX   0
PB1   5    0.000000    0.000000    0.000000    10.50000    0.06810    0.03256 =
         0.03269   -0.00075    0.01969   -0.00172
BR1   4   -0.003343    0.309076    0.188820    11.00000    0.08088    0.04592 =
         0.04551   -0.01305    0.02072    0.00708
BR2   4    0.217561    0.026547    0.114409    11.00000    0.07214    0.07496 =
         0.06703    0.00440    0.02407    0.00621
HKLF 4

REM  2 in P2(1)/c
REM R1 =  0.0668 for    1300 Fo > 4sig(Fo)  and  0.1144 for all    2155 data
REM    115 parameters refined using    103 restraints

END

WGHT      0.0462      0.0000

REM Instructions for potential hydrogen bonds
HTAB N1 Br1_$1
HTAB N1 Br2_$3
HTAB N1 Br2_$1

REM Highest difference peak  2.477,  deepest hole -3.812,  1-sigma level  0.304
Q1    1  -0.0005  0.0641  0.0736  11.00000  0.05    2.48
Q2    1  -0.0018 -0.0479  0.0647  11.00000  0.05    2.32
Q3    1   0.2214 -0.0064  0.0456  11.00000  0.05    1.65
Q4    1   0.1209  0.0142  0.0286  11.00000  0.05    1.23
Q5    1   0.2193 -0.0518  0.1803  11.00000  0.05    1.16
Q6    1  -0.0033  0.3936  0.1015  11.00000  0.05    1.02
Q7    1  -0.0017  0.1969  0.3653  11.00000  0.05    0.90
Q8    1   0.1437  0.0040 -0.0999  11.00000  0.05    0.77
Q9    1  -0.0122  0.2429  0.2817  11.00000  0.05    0.76
Q10   1   0.0048  0.3850  0.2907  11.00000  0.05    0.76
Q11   1   0.3622  1.1798  0.5765  11.00000  0.05    0.74
Q12   1   0.2409  1.0233  0.3966  11.00000  0.05    0.73
Q13   1   0.1604  0.6883  0.7043  11.00000  0.05    0.73
Q14   1   0.4863  1.2165  0.4941  11.00000  0.05    0.70
Q15   1   0.1565  0.9253  0.7019  11.00000  0.05    0.70
Q16   1   0.1751  0.9982  0.8506  11.00000  0.05    0.67
Q17   1  -0.0917  0.2060  0.0663  11.00000  0.05    0.66
Q18   1   0.4174  1.0556  1.1110  11.00000  0.05    0.65
Q19   1   0.2223  1.0000  0.3371  11.00000  0.05    0.64
Q20   1   0.1636  1.0680  0.7100  11.00000  0.05    0.62
;
_shelx_res_checksum              51852
loop_
_space_group_symop_operation_xyz
'x, y, z'
'-x, y+1/2, -z+1/2'
'-x, -y, -z'
'x, -y-1/2, z-1/2'
loop_
_atom_site_label
_atom_site_type_symbol
_atom_site_fract_x
_atom_site_fract_y
_atom_site_fract_z
_atom_site_U_iso_or_equiv
_atom_site_adp_type
_atom_site_occupancy
_atom_site_site_symmetry_order
_atom_site_calc_flag
_atom_site_refinement_flags_posn
_atom_site_refinement_flags_adp
_atom_site_refinement_flags_occupancy
_atom_site_disorder_assembly
_atom_site_disorder_group
C1 C 0.4051(14) 1.1299(14) 0.683(3) 0.130(5) Uani 0.458(11) 1 d D U P A 1
H1A H 0.3684 1.2116 0.6112 0.195 Uiso 0.458(11) 1 calc R U P A 1
H1B H 0.4567 1.0929 0.6367 0.195 Uiso 0.458(11) 1 calc R U P A 1
H1C H 0.4326 1.1731 0.7930 0.195 Uiso 0.458(11) 1 calc R U P A 1
C3 C 0.3431(8) 1.0010(16) 0.6931(15) 0.127(3) Uani 0.5 1 d D U P A 1
H3 H 0.3364 1.0382 0.8022 0.152 Uiso 0.5 1 calc R U P A 1
C2' C 0.3961(15) 0.8458(12) 0.773(2) 0.147(5) Uani 0.542(11) 1 d D U P A 1
H2'1 H 0.4587 0.8730 0.8464 0.221 Uiso 0.542(11) 1 calc R U P A 1
H2'2 H 0.4049 0.7756 0.6860 0.221 Uiso 0.542(11) 1 calc R U P A 1
H2'3 H 0.3575 0.7928 0.8367 0.221 Uiso 0.542(11) 1 calc R U P A 1
H4A H 0.1895(19) 0.876(3) 0.61(4) 0.221 Uiso 0.458(11) 1 d D U P A 1
H4B H 0.2240(17) 1.029(2) 0.7262(14) 0.221 Uiso 0.458(11) 1 d D U P A 1
C1' C 0.3974(13) 1.019(2) 0.5652(14) 0.131(5) Uani 0.542(11) 1 d D U P A 2
H1'1 H 0.3771 0.9512 0.4678 0.197 Uiso 0.542(11) 1 calc R U P A 2
H1'2 H 0.4654 1.0009 0.6182 0.197 Uiso 0.542(11) 1 calc R U P A 2
H1'3 H 0.3874 1.1289 0.5319 0.197 Uiso 0.542(11) 1 calc R U P A 2
C3' C 0.3451(9) 0.9837(15) 0.6731(17) 0.127(3) Uani 0.5 1 d D U P A 2
H3' H 0.3430 1.0957 0.7079 0.152 Uiso 0.5 1 calc R U P A 2
C2 C 0.3970(17) 0.927(3) 0.8534(13) 0.140(5) Uani 0.458(11) 1 d D U P A 2
H2A H 0.3838 0.8156 0.8649 0.210 Uiso 0.458(11) 1 calc R U P A 2
H2B H 0.3734 0.9883 0.9333 0.210 Uiso 0.458(11) 1 calc R U P A 2
H2C H 0.4662 0.9431 0.8740 0.210 Uiso 0.458(11) 1 calc R U P A 2
H4A' H 0.1888(18) 0.877(3) 0.61(3) 0.210 Uiso 0.542(11) 1 d D U P A 2
H4B' H 0.2239(17) 1.029(2) 0.7262(14) 0.210 Uiso 0.542(11) 1 d D U P A 2
C4 C 0.2368(6) 0.9650(10) 0.6341(11) 0.113(3) Uani 1 1 d D U . . .
N1 N 0.1828(5) 1.0753(9) 0.5089(7) 0.077(2) Uani 1 1 d D U . . .
H1D H 0.1213 1.0808 0.5154 0.116 Uiso 1 1 calc DR U . . .
H1E H 0.1838 1.0412 0.4070 0.116 Uiso 1 1 calc R U . . .
H1F H 0.2101 1.1720 0.5270 0.116 Uiso 1 1 calc DR U . . .
Pb1 Pb 0.0000 0.0000 0.0000 0.04325(13) Uani 1 2 d S . P . .
Br1 Br -0.00334(7) 0.30908(10) 0.18882(8) 0.0567(3) Uani 1 1 d . . . . .
Br2 Br 0.21756(8) 0.02655(12) 0.11441(11) 0.0703(3) Uani 1 1 d . . . . .
loop_
_atom_site_aniso_label
_atom_site_aniso_U_11
_atom_site_aniso_U_22
_atom_site_aniso_U_33
_atom_site_aniso_U_23
_atom_site_aniso_U_13
_atom_site_aniso_U_12
C1 0.113(8) 0.133(8) 0.126(8) 0.014(8) -0.001(8) 0.021(8)
C3 0.118(4) 0.133(4) 0.109(4) 0.017(4) -0.006(4) 0.018(4)
C2' 0.130(8) 0.145(8) 0.133(8) 0.006(8) -0.023(8) 0.017(8)
C1' 0.114(8) 0.143(8) 0.116(8) 0.013(7) -0.003(8) 0.021(8)
C3' 0.119(4) 0.133(4) 0.108(4) 0.017(4) -0.006(4) 0.018(4)
C2 0.128(8) 0.149(8) 0.118(8) 0.003(8) -0.012(8) 0.024(8)
C4 0.113(5) 0.122(5) 0.089(4) 0.016(4) 0.002(4) 0.013(4)
N1 0.084(5) 0.076(5) 0.085(4) -0.009(4) 0.044(3) 0.002(5)
Pb1 0.0681(3) 0.0326(2) 0.03269(15) -0.00075(14) 0.01969(15) -0.0017(2)
Br1 0.0809(6) 0.0459(5) 0.0455(3) -0.0130(3) 0.0207(3) 0.0071(4)
Br2 0.0721(7) 0.0750(7) 0.0670(5) 0.0044(4) 0.0241(4) 0.0062(5)
loop_
_atom_type_symbol
_atom_type_description
_atom_type_scat_dispersion_real
_atom_type_scat_dispersion_imag
_atom_type_scat_source
C C 0.0033 0.0016 'International Tables Vol C Tables 4.2.6.8 and 6.1.1.4'
H H 0.0000 0.0000 'International Tables Vol C Tables 4.2.6.8 and 6.1.1.4'
N N 0.0061 0.0033 'International Tables Vol C Tables 4.2.6.8 and 6.1.1.4'
Br Br -0.2901 2.4595 'International Tables Vol C Tables 4.2.6.8 and 6.1.1.4'
Pb Pb -3.3944 10.1111 'International Tables Vol C Tables 4.2.6.8 and 6.1.1.4'
loop_
_geom_angle_atom_site_label_1
_geom_angle_atom_site_label_2
_geom_angle_atom_site_label_3
_geom_angle
_geom_angle_site_symmetry_1
_geom_angle_site_symmetry_3
C1 C3 C4 137.0(12) . .
C1 C3 C2' 115.0(12) . .
C4 C3 C2' 107.8(12) . .
C1' C3' C4 127.0(11) . .
C1' C3' C2 120.0(13) . .
C4 C3' C2 112.1(13) . .
N1 C4 C3 113.9(8) . .
N1 C4 C3' 114.1(8) . .
Br2 Pb1 Br2 180.0 3 .
Br2 Pb1 Br1 89.32(4) 3 4_565
Br2 Pb1 Br1 90.68(4) . 4_565
Br2 Pb1 Br1 90.68(4) 3 2_545
Br2 Pb1 Br1 89.32(4) . 2_545
Br1 Pb1 Br1 180.00(4) 4_565 2_545
Br2 Pb1 Br1 85.97(3) 3 3
Br2 Pb1 Br1 94.03(3) . 3
Br1 Pb1 Br1 90.657(16) 4_565 3
Br1 Pb1 Br1 89.343(16) 2_545 3
Br2 Pb1 Br1 94.03(3) 3 .
Br2 Pb1 Br1 85.97(3) . .
Br1 Pb1 Br1 89.343(16) 4_565 .
Br1 Pb1 Br1 90.657(16) 2_545 .
Br1 Pb1 Br1 180.0 3 .
Pb1 Br1 Pb1 153.23(3) 2 .
loop_
_geom_bond_atom_site_label_1
_geom_bond_atom_site_label_2
_geom_bond_distance
_geom_bond_site_symmetry_2
C1 C3 1.406(19) .
C3 C4 1.489(12) .
C3 C2' 1.554(14) .
C1' C3' 1.33(2) .
C3' C4 1.494(13) .
C3' C2 1.547(14) .
C4 N1 1.442(9) .
Pb1 Br2 2.9895(14) 3
Pb1 Br2 2.9895(14) .
Pb1 Br1 3.0088(8) 4_565
Pb1 Br1 3.0088(8) 2_545
Pb1 Br1 3.0183(9) 3
Pb1 Br1 3.0183(9) .
Br1 Pb1 3.0087(8) 2
loop_
_geom_hbond_atom_site_label_D
_geom_hbond_atom_site_label_H
_geom_hbond_atom_site_label_A
_geom_hbond_distance_DH
_geom_hbond_distance_HA
_geom_hbond_distance_DA
_geom_hbond_angle_DHA
_geom_hbond_site_symmetry_A
N1 H1F Br2 0.89 2.61 3.435(7) 154.7 4_576
N1 H1E Br2 0.89 2.58 3.439(6) 161.6 1_565
N1 H1D Br1 0.89 3.05 3.448(7) 109.5 2
N1 H1D Br1 0.89 2.71 3.491(7) 146.7 4_576
loop_
_geom_torsion_atom_site_label_1
_geom_torsion_atom_site_label_2
_geom_torsion_atom_site_label_3
_geom_torsion_atom_site_label_4
_geom_torsion
C1 C3 C4 N1 14(2)
C2' C3 C4 N1 -159.9(11)
C1' C3' C4 N1 -37.3(19)
C2 C3' C4 N1 153.3(11)
