#------------------------------------------------------------------------------
#$Date: 2016-02-05 01:10:22 +0200 (Fri, 05 Feb 2016) $
#$Revision: 176014 $
#$URL: svn://www.crystallography.net/cod/cif/7/03/78/7037879.cif $
#------------------------------------------------------------------------------
#
# This file is available in the Crystallography Open Database (COD),
# http://www.crystallography.net/
#
# All data on this site have been placed in the public domain by the
# contributors.
#
data_7037879
loop_
_publ_author_name
'Abrahams, Brendan F.'
'Dharma, A. David'
'Dyett, Brendan'
'Hudson, Timothy A.'
'Maynard-Casely, Helen'
'Kingsbury, Christopher J.'
'McCormick, Laura J.'
'Robson, Richard'
'Sutton, Ashley L.'
'White, Keith F.'
_publ_section_title
;
 An indirect generation of 1D M(II)-2,5-dihydroxybenzoquinone coordination
 polymers, their structural rearrangements and generation of materials
 with a high affinity for H2, CO2 and CH4.
;
_journal_issue                   4
_journal_name_full
'Dalton transactions (Cambridge, England : 2003)'
_journal_page_first              1339
_journal_page_last               1344
_journal_paper_doi               10.1039/c5dt04095g
_journal_volume                  45
_journal_year                    2016
_chemical_formula_sum            'C6 H6 O6 Zn'
_chemical_formula_weight         239.48
_space_group_crystal_system      monoclinic
_space_group_IT_number           12
_space_group_name_Hall           '-C 2y'
_space_group_name_H-M_alt        'C 1 2/m 1'
_symmetry_space_group_name_Hall  '-C 2y'
_symmetry_space_group_name_H-M   'C 1 2/m 1'
_atom_sites_solution_hydrogens   mixed
_audit_creation_method           SHELXL-2014/7
_audit_update_record
;
2015-10-18 deposited with the CCDC.
2015-12-22 downloaded from the CCDC.
;
_cell_angle_alpha                90
_cell_angle_beta                 113.45(3)
_cell_angle_gamma                90
_cell_formula_units_Z            2
_cell_length_a                   6.7149(17)
_cell_length_b                   7.7544(13)
_cell_length_c                   7.8421(17)
_cell_measurement_reflns_used    387
_cell_measurement_temperature    130(1)
_cell_measurement_theta_max      72.374
_cell_measurement_theta_min      6.145
_cell_volume                     374.61(16)
_computing_cell_refinement
;
CrysAlisPro, Agilent Technologies,
Version 1.171.37.34 (release 22-05-2014 CrysAlis171 .NET)
(compiled May 22 2014,16:03:01)
;
_computing_data_collection
;
CrysAlisPro, Agilent Technologies,
Version 1.171.37.34 (release 22-05-2014 CrysAlis171 .NET)
(compiled May 22 2014,16:03:01)
;
_computing_data_reduction
;
CrysAlisPro, Agilent Technologies,
Version 1.171.37.34 (release 22-05-2014 CrysAlis171 .NET)
(compiled May 22 2014,16:03:01)
;
_computing_structure_refinement  'SHELXL-2014/7 (Sheldrick, 2014)'
_computing_structure_solution    'SHELXT-2014/7 (Sheldrick, 2014)'
_diffrn_ambient_temperature      130(2)
_diffrn_detector_area_resol_mean 10.2273
_diffrn_measured_fraction_theta_full 1.000
_diffrn_measured_fraction_theta_max 0.997
_diffrn_measurement_device_type  'SuperNova (Cu) X-ray Source'
_diffrn_measurement_method       '\w scans'
_diffrn_radiation_type           CuK\a
_diffrn_radiation_wavelength     1.54184
_diffrn_reflns_av_R_equivalents  0.0257
_diffrn_reflns_av_unetI/netI     0.0385
_diffrn_reflns_laue_measured_fraction_full 1.000
_diffrn_reflns_laue_measured_fraction_max 0.997
_diffrn_reflns_limit_h_max       8
_diffrn_reflns_limit_h_min       -8
_diffrn_reflns_limit_k_max       8
_diffrn_reflns_limit_k_min       -9
_diffrn_reflns_limit_l_max       6
_diffrn_reflns_limit_l_min       -9
_diffrn_reflns_number            757
_diffrn_reflns_point_group_measured_fraction_full 1.000
_diffrn_reflns_point_group_measured_fraction_max 0.997
_diffrn_reflns_theta_full        67.684
_diffrn_reflns_theta_max         69.511
_diffrn_reflns_theta_min         6.152
_diffrn_source                   'sealed X-ray tube'
_exptl_absorpt_coefficient_mu    4.622
_exptl_absorpt_correction_T_max  0.943
_exptl_absorpt_correction_T_min  0.914
_exptl_absorpt_correction_type   gaussian
_exptl_absorpt_process_details
;
CrysAlisPro, Agilent Technologies,
Version 1.171.37.34 (release 22-05-2014 CrysAlis171 .NET)
(compiled May 22 2014,16:03:01)
Numerical absorption correction based on gaussian integration over
            a multifaceted crystal model
Empirical absorption correction using spherical harmonics,
 implemented in SCALE3 ABSPACK scaling algorithm.
;
_exptl_crystal_colour            red
_exptl_crystal_density_diffrn    2.123
_exptl_crystal_description       block
_exptl_crystal_F_000             240
_exptl_crystal_size_max          0.032
_exptl_crystal_size_mid          0.022
_exptl_crystal_size_min          0.020
_refine_diff_density_max         0.478
_refine_diff_density_min         -0.334
_refine_diff_density_rms         0.092
_refine_ls_extinction_method     none
_refine_ls_goodness_of_fit_ref   1.128
_refine_ls_hydrogen_treatment    mixed
_refine_ls_matrix_type           full
_refine_ls_number_parameters     38
_refine_ls_number_reflns         381
_refine_ls_number_restraints     1
_refine_ls_restrained_S_all      1.130
_refine_ls_R_factor_all          0.0378
_refine_ls_R_factor_gt           0.0340
_refine_ls_shift/su_max          0.000
_refine_ls_shift/su_mean         0.000
_refine_ls_structure_factor_coef Fsqd
_refine_ls_weighting_details
'w=1/[\s^2^(Fo^2^)+(0.0372P)^2^+0.7189P] where P=(Fo^2^+2Fc^2^)/3'
_refine_ls_weighting_scheme      calc
_refine_ls_wR_factor_gt          0.0851
_refine_ls_wR_factor_ref         0.0893
_reflns_Friedel_coverage         0.000
_reflns_number_gt                360
_reflns_number_total             381
_reflns_threshold_expression     'I > 2\s(I)'
_cod_data_source_file            c5dt04095g2.cif
_cod_data_source_block           transZndhbqH2O2
_cod_depositor_comments
'Adding full bibliography for 7037876--7037879.cif.'
_cod_original_cell_volume        374.60(16)
_cod_database_code               7037879
_shelx_shelxl_version_number     2014/7
_shelx_space_group_comment
;
The symmetry employed for this shelxl refinement is uniquely defined
by the following loop, which should always be used as a source of
symmetry information in preference to the above space-group names.
They are only intended as comments.
;
_shelx_res_file
;

    shelx.res created by SHELXL-2014/7


TITL shelxt_a.res in C2/m
CELL  1.54184   6.7149   7.7544   7.8421   90.000  113.453   90.000
ZERR     2.00   0.0017   0.0013   0.0017    0.000    0.028    0.000
LATT   7
SYMM  - X,   Y, - Z
SFAC  C    H    O    ZN
UNIT  12 12 12 2
MERG   2
DFIX     0.830   0.020 H1W O1W
FMAP   2
PLAN   20
BOND   $H
OMIT  0  140
ACTA
TEMP -143
LIST   6
L.S.  10
WGHT    0.037200    0.718900
FVAR       6.27390
ZN1   4    0.500000    0.500000    0.500000    10.25000    0.03869    0.02019 =
         0.02759    0.00000    0.01165    0.00000
O1    3    0.502635    0.328485    0.299345    11.00000    0.04480    0.01981 =
         0.02718    0.00160    0.01480    0.00121
O1W   3    0.843027    0.500000    0.620984    10.50000    0.03560    0.01796 =
         0.08609    0.00000    0.00413    0.00000
C1    1    0.501072    0.400481    0.153907    11.00000    0.02868    0.02212 =
         0.03146    0.00092    0.00893    0.00000
C2    1    0.500000    0.311022    0.000000    10.50000    0.03469    0.01936 =
         0.03230    0.00000    0.01407    0.00000
AFIX  43
H1    2    0.499997    0.188511   -0.000002    10.50000   -1.20000
AFIX   0
H1W   2    0.914961    0.586165    0.647664    11.00000    0.04258
HKLF    4

REM  shelxt_a.res in C2/m
REM R1 =  0.0340 for     360 Fo > 4sig(Fo)  and  0.0378 for all     381 data
REM     38 parameters refined using      1 restraints

END

WGHT      0.0364      0.7318

REM Highest difference peak  0.478,  deepest hole -0.334,  1-sigma level  0.092
Q1    1   0.5049  0.5000  0.1562  10.50000  0.05    0.48
Q2    1   0.4813  0.4114  0.3382  11.00000  0.05    0.33
Q3    1   0.6392  0.5776  0.5600  11.00000  0.05    0.33
Q4    1   0.9250  0.5000  0.5911  10.50000  0.05    0.31
Q5    1   0.5106  0.2260  0.3349  11.00000  0.05    0.30
Q6    1   0.8286  0.5500  0.6783  11.00000  0.05    0.29
Q7    1   0.5000  0.6607  0.5000  10.50000  0.05    0.25
Q8    1   0.9831  0.5000  0.8350  10.50000  0.05    0.25
Q9    1   0.8822  0.7299  0.4670  11.00000  0.05    0.24
Q10   1   0.6978  0.5000  0.5942  10.50000  0.05    0.24
Q11   1   0.4390  0.3486  0.0278  11.00000  0.05    0.22
Q12   1   0.6419  0.5000  0.1267  10.50000  0.05    0.21
Q13   1   0.3345  0.1990 -0.1314  11.00000  0.05    0.21
Q14   1   1.1619  0.5000  0.6747  10.50000  0.05    0.20
Q15   1   0.9945  0.6505  0.7880  11.00000  0.05    0.20
Q16   1   0.3055  0.3787  0.1822  11.00000  0.05    0.19
Q17   1   0.4393  0.3516 -0.0955  11.00000  0.05    0.19
Q18   1   1.0000  0.6344  0.5000  10.50000  0.05    0.17
Q19   1   0.4092  0.0562 -0.0604  11.00000  0.05    0.17
Q20   1   1.1146  0.5000  0.8019  10.50000  0.05    0.16
;
_shelx_res_checksum              69458
_shelx_hkl_file
;
   0   0  -1 87519.6 1331.22   3
   0   0  -2 7088.22 496.557   4
   0   0  -2 7033.87 601.437   3
   0   0  -3 79.8462 275.485   3
   0   0  -3 342.338 246.215   4
   0   0  -4 30936.0 1781.52   3
   0   0  -5 50480.7 2672.11   3
   0   0  -6 59497.2 2415.76   9
   0   0  -6 64558.2 2544.10   7
   0   0  -7-12.5768 483.171   7
   0   0  -7-122.352 347.738   9
   0   0  -8 3676.49 564.334   9
   0   0  -8 3296.29 549.958  11
   0  -2   0 84848.1 1364.08   3
   0  -2  -1 172841. 2503.76   3
   0   2  -1 170670. 1306.26   2
   0  -2  -2 90179.6 2309.30   3
   0   2  -2 92411.2 2344.84   1
   0  -2  -3 138252. 3435.54   3
   0   2  -3 136870. 3216.57   1
   0  -2  -4 533.532 329.790   3
   0  -2  -5 6900.54 818.224   9
   0  -2  -5 7043.19 1113.42   3
   0  -2  -5 7099.61 792.582   7
   0  -2  -6 10936.1 1081.86   9
   0   2  -6 10332.4 1064.91   9
   0  -2  -6 8873.68 960.583  11
   0  -2  -6 9878.38 1072.93   7
   0   2  -7 18868.6 1309.66   9
   0  -2  -7 17489.4 1413.16   9
   0  -2  -7 17867.6 1411.77   7
   0  -2  -8 6450.01 863.651   7
   0   2  -8 6905.24 638.858   9
   0   4   0 18006.7 1019.96   2
   0  -4  -1 109631. 2518.32   3
   0   4  -1 112470. 3481.43   1
   0   4  -2 92263.5 3265.18   1
   0  -4  -2 91946.2 2727.79   3
   0  -4  -3 14118.8 1276.07   3
   0   4  -3 14392.4 1392.11   1
   0   4  -4 21610.1 1677.32  13
   0  -4  -4 22125.4 1359.04   7
   0  -4  -4 20504.6 1731.25   3
   0   4  -5 5611.30 942.089  13
   0  -4  -5 4685.58 766.620   7
   0  -4  -6 2563.79 575.758   7
   0  -4  -7 17176.1 1255.96   7
   0   4  -7 16235.9 996.941   9
   0   6   0 98548.6 4015.56   1
   0   6   1 50646.1 2823.30   1
   0   6  -1 54537.6 2672.79  13
   0   6  -1 54345.2 3100.69   1
   0   6  -2 12809.9 1595.15   1
   0   6   2 9353.23 1167.34   2
   0   6  -2 12586.1 1392.29  13
   0   6  -3 1336.36 516.413  13
   0  -6  -4 27593.2 1532.20   8
   0   6  -4 28932.9 2137.39  13
   0  -6  -5 17948.4 1151.08   7
   0   6  -5 18271.0 1591.90  13
   0  -6   5 20139.0 1299.67  12
   0  -6   6 5853.11 559.449  12
   0  -6  -6 4888.25 579.749   7
   0  -8   0 6130.86 789.966   8
   0  -8  -1 16689.7 1302.68   8
   0  -8   1 17364.6 1160.48  12
   0  -8   1 17630.8 1188.24   8
   0  -8  -2 10319.2 979.852   8
   0  -8   2 10585.6 927.930  12
   0  -8  -3 21099.1 1255.81   8
   0  -8   3 22398.2 1310.88  12
   0  -8   4 412.503 223.043  12
   1   1  -9 5871.13 593.327  11
   1  -1  -8 5250.20 696.197   7
   1   1  -8 4871.51 610.198   9
   1  -1  -8 5037.72 803.984  11
   1  -1  -7 270.565 381.094   9
   1  -1  -7 639.807 398.391  11
   1  -1  -7 11.6784 351.540   7
   1   1  -7 545.281 279.329   9
   1  -1  -6 37941.6 1824.84   9
   1   1  -6 34874.1 1686.22   6
   1  -1  -6 38313.0 1886.06   7
   1  -1  -6 37838.9 1925.91   6
   1   1  -6 38051.6 1750.44   9
   1   1  -5 52185.3 2249.15   4
   1  -1  -5 52157.7 2637.13   3
   1  -1  -4 61571.1 2423.51   3
   1  -1  -4 60574.2 2336.43   4
   1   1  -3 161779. 2511.62   1
   1  -1  -3 163296. 3263.87   4
  -1  -1   3 161344. 2011.71   2
   1  -1  -3 166537. 3267.95   3
  -1  -1   2 82014.5 1112.23   2
   1  -1  -2 80376.1 1843.11   3
  -1   1   1 60045.2 1362.51   2
   1  -1  -1 59471.9 1236.90   4
  -1  -1   1 61232.0 1040.91   2
  -1   1   0 358502. 3024.04   2
  -1   1   0 355934. 1941.01   3
  -1   1  -1 911.989 205.967   3
  -1  -1  -1 1326.92 384.001   3
  -1   1  -1 1158.95 236.024   2
  -1  -1  -2 694.770 296.349   3
  -1   1  -2 646.968 262.852   3
  -1  -1  -3 43411.9 2121.68   3
  -1   1  -3 41560.1 1822.43   3
  -1   1  -4 36552.4 2026.80   3
  -1  -1  -4 38604.6 2293.85   3
  -1  -1  -5 41262.1 2053.75   7
  -1  -1  -5 43306.4 2225.02   5
  -1   1  -5 38706.2 1850.90   7
  -1   1  -5 44662.0 2248.16   5
  -1   1  -5 41336.4 1947.01   9
  -1  -1  -5 44558.4 2816.87   3
  -1  -1  -5 41171.0 1988.96   9
  -1   1  -5 43172.0 2574.63   3
  -1   1  -6 33361.0 1885.48   9
  -1  -1  -6 31913.4 1921.21   7
  -1  -1  -6 34021.9 1935.79   9
  -1   1  -7 887.971 390.119   9
  -1  -1  -7 472.284 334.614   9
  -1   1  -8 3210.96 433.655   9
   1  -3  -8 9431.14 922.039   7
   1  -3  -7 33206.3 1861.50   7
   1  -3  -6 2589.62 594.975   7
   1  -3  -6 2180.14 669.986  11
   1  -3  -5 4095.49 621.306   7
   1  -3  -5 4120.34 855.742   3
   1  -3  -5 4000.30 640.098   6
   1  -3  -5 3163.03 627.156  11
   1  -3  -4 23310.6 1615.84   3
   1   3  -4 23304.8 1566.90   1
   1   3  -3 234679. 4777.11   1
   1  -3  -3 236907. 4292.61   3
   1  -3  -2 241590. 3435.69   3
  -1   3   2 241005. 3259.85   1
   1  -3  -1 83055.1 1327.94   3
  -1   3   1 85868.9 2297.68   2
  -1   3   1 84784.6 2174.69   1
  -1   3   0 36380.4 1323.29   2
  -1   3   0 35367.7 1585.45   1
  -1  -3   0 36484.0 1532.72   3
  -1  -3  -1 16382.6 1125.81   3
  -1   3  -1 16697.3 780.442   2
  -1   3  -1 17288.8 1220.87   1
  -1   3  -2 67008.4 2636.32   1
  -1  -3  -2 66675.9 2607.19   3
  -1  -3  -3 99290.4 3579.96   3
  -1  -3  -4 13661.4 1547.91   3
  -1  -3  -4 16210.0 1197.08   7
  -1  -3  -4 15453.4 1178.16   9
  -1   3  -4 15526.3 1354.75  13
  -1  -3  -5 6986.23 896.725   9
  -1  -3  -5 7268.22 1016.10   7
  -1  -3  -5 7148.65 849.465   5
  -1  -3  -6 4162.71 824.994   7
  -1   3  -6 3730.80 639.957   9
  -1   3  -7 23415.1 1296.57   9
  -1  -3  -7 21364.9 1424.54   7
   1  -5  -8 1446.68 305.962   7
   1  -5  -7 2582.17 492.664   7
  -1  -5   6 6788.08 690.250  12
   1  -5  -6 5171.45 732.352   7
   1  -5  -5 23813.9 1560.15   7
  -1  -5   5 23201.7 1496.29  12
   1  -5  -4 75544.5 2594.75   7
  -1   5   4 76676.4 3704.58   2
   1   5  -4 65934.2 3158.47  13
   1   5  -4 74436.5 3594.93   1
   1   5  -3 1436.75 484.008   1
   1   5  -3 772.636 420.496  13
  -1   5   3 1867.94 624.192   2
  -1   5   2 48490.9 2432.10   2
   1   5  -2 50684.0 2795.69   1
  -1   5   1 55235.2 2545.23   1
  -1   5   1 56352.3 2368.34   2
  -1   5   0 34547.8 2099.87   1
  -1   5  -1 23199.2 1866.84   1
  -1   5  -2 12330.8 1449.93   1
  -1   5  -2 14092.4 1327.09  13
  -1  -5  -2 10650.2 1212.76   3
  -1  -5  -2 12731.2 1010.61   8
  -1  -5  -3 498.726 331.077   3
  -1  -5  -3 124.718 273.320   8
  -1   5  -3 936.704 446.231  13
  -1  -5  -4 51026.0 2112.66   7
  -1   5  -4 50975.9 2828.81  13
  -1   5  -5 23223.9 1778.90  13
  -1  -5  -5 20295.0 1368.56   7
  -1   5  -6 6186.38 650.342   9
  -1  -5  -6 6242.54 772.006   7
  -1  -7   6 2095.79 307.154  12
  -1  -7   5 14905.2 1049.85  12
  -1  -7   4 15085.2 1203.86  12
   1  -7  -4 14934.2 1122.43   8
  -1  -7   3 13948.8 1169.72  12
  -1  -7   2 15483.3 1155.76   8
  -1  -7   2 15173.4 1204.70  12
  -1  -7   1 26167.1 1613.06   8
  -1  -7   1 23785.8 1516.51  12
  -1  -7   0 9993.71 1022.77   8
  -1  -7   0 9728.17 921.869  12
  -1  -7  -1 11721.4 1169.61   8
  -1   7  -1 11517.2 1307.20  13
  -1  -7  -2 3023.58 680.310   8
  -1   7  -2 3492.07 791.193  13
  -1  -7  -3 4383.96 633.814   8
  -1   7  -3 4101.29 851.122  13
  -1   7  -4 10266.3 1131.73  13
  -1  -7  -4 9463.13 762.419  10
   1  -7   5 12399.6 770.239  12
   1  -9  -3 28386.0 1063.61   8
  -1  -9   3 30732.0 1087.88  12
  -1  -9   2 15095.3 803.170  12
   1  -9  -2 15217.5 925.766   8
   1  -9  -1 3291.72 440.400   8
   1  -9   0 801.294 242.682   8
  -1  -9   0 830.946 291.799   8
  -1  -9  -1 119.557 185.607   8
   1  -9   2 4963.88 424.871  12
  -1  -9  -2 4396.28 436.754  10
   2   0  -9 7851.95 788.678  11
   2   0  -8 4406.99 748.877  11
   2   0  -7 293.597 219.771   7
   2   0  -7 372.209 235.373   6
   2   0  -6 101671. 3867.04   4
   2   0  -6 100341. 2988.43   6
   2   0  -5 113426. 3626.97   4
  -2   0   4 93517.2 2430.65   2
  -2   0   3 1625.63 357.467   2
  -2   0   2 5386.47 535.705   2
  -2   0   1 1309.98 372.534   2
  -2   0   0 708700. 6198.40   2
  -2   0  -1 44760.6 1712.41   3
  -2   0  -2 33767.0 1721.54   3
  -2   0  -3 27173.4 1777.45   3
  -2   0  -4 32388.6 2194.60   3
  -2   0  -4 29249.1 1824.30   7
  -2   0  -4 32349.9 1898.29   5
  -2   0  -4 31384.3 1645.84   9
  -2   0  -5 22685.7 1719.90   5
  -2   0  -5 20854.8 1518.47   9
  -2   0  -6 29644.4 1767.13   9
  -2   0  -7 1121.85 361.815   9
   2  -2  -9 6289.98 622.153   7
   2   2  -9 5561.47 619.815  11
   2  -2  -8 9848.91 947.440   7
   2  -2  -8 9070.45 1128.08  11
   2  -2  -7 24627.3 1575.70   7
   2  -2  -7 26053.3 1711.44   6
   2  -2  -7 23338.1 1731.68  11
   2  -2  -6 20040.3 1412.60   7
  -2   2   6 17710.0 1626.69   2
   2  -2  -6 20916.7 1451.84   6
   2  -2  -6 20602.1 1520.22  11
  -2   2   5 24721.3 1738.46   2
   2   2  -4 11564.0 922.250   1
   2  -2  -4 11674.6 1150.33   4
  -2   2   4 11426.8 1076.65   2
  -2   2   3 156116. 3559.12   2
   2  -2  -3 154382. 3641.45   4
   2  -2  -2 26963.7 1269.71   4
  -2   2   2 28755.9 1415.94   2
  -2   2   1 17570.4 1076.13   2
  -2   2   0 2277.04 389.921   2
  -2  -2  -1 73361.8 2597.53   3
  -2   2  -1 70287.8 2107.63   2
  -2  -2  -2 95433.5 3311.19   3
  -2  -2  -3 139220. 4511.25   3
  -2  -2  -4 7935.16 860.304   9
  -2  -2  -4 8714.24 1260.69   3
  -2  -2  -4 8913.92 1030.04   7
  -2  -2  -4 8366.04 964.154   5
  -2   2  -4 9297.03 1018.52   5
  -2  -2  -5 5640.64 844.800   9
  -2   2  -5 6577.37 937.659   5
  -2  -2  -5 5537.49 980.790   5
  -2  -2  -5 6681.48 1059.72   7
  -2  -2  -6 4976.72 747.476   9
  -2   2  -6 4013.93 684.218   9
  -2   2  -7 6136.29 610.696   9
   2  -4  -8 7595.64 744.001   7
   2  -4  -7 21049.4 1460.07   7
   2  -4  -6 6234.96 847.776   6
   2  -4  -6 7129.51 942.141   7
   2  -4  -5 15182.7 1269.52   7
  -2   4   5 15843.2 1650.42   2
   2  -4  -5 14072.3 1137.12   6
  -2  -4   5 15210.5 1119.73  12
   2   4  -4 40713.8 2410.63   1
  -2   4   4 43209.0 2526.75   2
  -2  -4   4 38789.0 1746.80  12
  -2   4   3 18943.8 1556.20   2
  -2   4   2 43930.9 2141.47   2
  -2   4   1 26459.5 1612.62   2
  -2  -4   0-52.4767 270.565   3
  -2   4   0 269.980 220.877   2
  -2  -4  -1 52702.1 2601.79   3
  -2   4  -2 81521.6 3107.51  13
  -2  -4  -2 75238.4 3401.68   3
  -2   4  -3 27519.6 1986.60  13
  -2  -4  -3 27024.4 2218.56   3
  -2   4  -4 24920.3 1908.22  13
  -2  -4  -4 27155.6 1701.53   7
  -2  -4  -5 4109.15 893.739   7
  -2   4  -5 4808.26 807.084  13
  -2   4  -6 710.177 312.550   9
   2  -6  -7 1745.06 335.398   7
   2  -6  -6 6479.22 715.618   7
  -2  -6   6 8810.96 786.546  12
   2  -6  -5 31154.9 1647.72   7
  -2  -6   5 31925.5 1686.25  12
   2  -6  -4 44406.0 1978.29   7
  -2  -6   4 44208.8 2156.12  12
  -2  -6   3 587.680 256.780  12
  -2  -6   2 3544.33 570.319   8
  -2  -6   2 2840.71 590.759  12
  -2  -6   1 17158.7 1289.39   8
  -2  -6   1 14913.4 1217.69  12
  -2  -6   0 36927.8 1920.69   8
  -2   6   0 37605.0 2201.91  13
  -2  -6   0 35284.5 1725.54  12
  -2  -6  -1 31846.7 1826.80   8
  -2   6  -1 34403.1 2238.43  13
  -2  -6  -2 15910.4 1319.73   8
  -2   6  -2 17282.6 1712.34  13
  -2   6  -3 182.538 411.796  13
  -2   6  -4 29383.9 1938.62  13
  -2   6  -5 11936.9 1024.10  13
  -2  -8   5 4562.09 459.442  12
   2  -8  -4 1382.49 333.667   8
  -2  -8   4 1510.46 341.336  12
  -2  -8   3 22307.8 1290.27  12
  -2  -8   2 5036.94 670.636  12
  -2  -8   1 4643.51 615.639   8
  -2  -8   1 4074.41 537.208  12
  -2  -8   0 789.512 302.291   8
   2  -8   0 716.012 288.984  12
  -2   8  -1 9314.11 996.403  13
   2  -8   1 10496.6 812.897  12
  -2   8  -2 11410.8 1041.85  13
   2  -8   2 12438.6 889.727  12
  -2  -8  -2 12609.8 906.003  10
   2  -8   3 25171.9 1069.51  12
  -2  -8  -3 21638.5 924.932  10
   3  -1  -9 8118.32 946.922  11
   3   1  -9 7083.73 755.133  11
   3  -1  -8 5979.39 678.035   7
   3   1  -8 6005.75 697.424   6
   3  -1  -8 6604.86 827.098   6
   3  -1  -8 6254.22 925.055  11
   3   1  -8 5650.77 874.265  11
   3  -1  -7 1550.17 389.764   7
   3   1  -7 1331.56 331.967   6
   3  -1  -7 967.055 522.216  11
   3  -1  -7 1161.96 397.354   6
   3  -1  -6 42851.9 1923.48   7
   3  -1  -6 42508.7 2690.80   4
   3   1  -6 46440.0 2691.22   4
   3   1  -6 43342.5 1940.20   6
   3  -1  -6 41591.9 2169.00  11
   3  -1  -6 42012.6 2035.98   6
   3  -1  -5 33385.3 2134.48   4
  -3   1   5 30014.8 1816.21   2
  -3  -1   4 10070.0 851.772   2
   3  -1  -4 11552.9 1158.86   4
  -3   1   4 12223.2 1109.84   2
  -3  -1   3 36036.0 1557.67   2
  -3   1   3 34034.8 1742.28   2
  -3  -1   2 26119.7 1382.44   2
  -3   1   2 23542.9 1417.31   2
  -3   1   1 70425.1 2401.77   2
  -3  -1   1 69771.8 2375.31   2
  -3   1   0 293453. 5115.60   2
  -3   1   0 297107. 4253.34   3
  -3  -1   0 299867. 5287.05   3
  -3  -1  -1 40174.2 2108.80   3
  -3   1  -1 39070.7 1677.18   3
  -3  -1  -2 6657.52 976.029   3
  -3   1  -2 6554.74 793.955   3
  -3  -1  -3 11667.2 1189.96   5
  -3  -1  -3 9099.44 1261.76   3
  -3  -1  -3 10831.3 931.404   9
  -3   1  -3 10932.3 1119.23   5
  -3  -1  -4 4900.74 768.631   9
  -3   1  -4 4610.00 697.010   9
  -3   1  -4 3856.32 775.610   5
  -3  -1  -4 4629.52 837.942   5
  -3  -1  -5 8305.70 882.055   9
  -3   1  -5 8818.20 1087.75   5
  -3  -1  -5 7356.48 994.754   5
  -3   1  -5 9160.87 973.604   9
  -3  -1  -6 12727.1 954.257   9
  -3   1  -6 14323.8 1048.46   9
   3  -3  -9 2090.78 348.937   7
   3   3  -9 2112.82 360.608  11
   3  -3  -8 10314.7 904.774   7
   3  -3  -7 43003.8 2085.49   7
   3  -3  -7 40539.0 2054.06   6
   3  -3  -6 3421.43 643.739   7
   3  -3  -6 3326.85 632.174   6
  -3   3   5 1197.05 478.638   2
   3  -3  -5 899.365 343.704   6
  -3   3   4 3293.39 672.742   2
  -3   3   3 84194.0 3163.91   2
  -3   3   2 104853. 3369.37   2
  -3   3   1 78790.4 2773.11   2
  -3   3   0 1369.74 406.452   2
  -3  -3   0 1862.65 587.522   3
  -3   3  -1 42922.9 2091.52   2
  -3  -3  -1 43847.6 2563.25   3
  -3  -3  -2 40578.4 2656.27   3
  -3  -3  -2 38799.6 1768.45  10
  -3  -3  -3 24909.5 1629.51   5
  -3   3  -4 1539.85 467.958   5
  -3  -3  -4 1571.73 409.105   5
  -3   3  -4 2292.18 657.379  13
  -3  -3  -5 371.245 263.712   5
  -3   3  -5 794.373 342.726   9
  -3   3  -6 887.881 270.464   9
   3  -5  -8 2046.53 361.497   7
   3  -5  -7 4022.96 619.346   7
   3  -5  -6 6870.15 845.130   7
  -3  -5   6 6438.74 733.868  12
   3  -5  -5 16662.9 1329.04   7
  -3  -5   5 16827.6 1247.65  12
  -3  -5   4 38670.0 1898.93  12
  -3  -5   3 529.642 274.014  12
  -3   5   3 996.313 1046.24   2
  -3  -5   2 23747.1 1402.37   8
  -3  -5   2 21318.4 1816.36   3
  -3  -5   2 23695.3 1458.97  12
  -3   5   2 22497.5 1874.87   2
  -3  -5   1 47709.2 2068.81   8
  -3  -5   1 47785.6 2042.25  12
  -3  -5   1 48041.0 2783.72   3
  -3   5   1 45395.1 2284.08  13
  -3  -5   0 47784.0 2153.96   8
  -3   5   0 50323.3 2562.83  13
  -3  -5   0 46398.3 2791.94   3
  -3  -5   0 43195.9 1989.37  12
  -3   5  -1 33653.6 2227.92  13
  -3   5  -2 15295.5 1564.56  13
  -3  -5  -2 16570.0 1292.10  10
  -3   5  -3 1308.00 588.129  13
  -3  -5  -3 529.525 318.036  10
  -3   5  -4 15552.6 1385.10  13
  -3   5  -5 5597.82 564.886   9
  -3   5  -5 4528.90 569.995  13
  -3  -7   6 2251.57 333.802  12
   3  -7  -5 6705.78 601.155   7
  -3  -7   5 10179.7 844.152  12
  -3  -7   4 5686.29 726.275  12
  -3  -7   3 2828.33 533.158  12
  -3  -7   2 7145.45 822.614  12
  -3  -7   2 7535.42 805.180  10
  -3  -7   1 26468.9 1547.07  12
  -3   7   0 16632.6 1427.50  13
  -3   7  -1 20278.5 1592.67  13
  -3  -7  -1 22045.6 1422.16  10
  -3   7  -2 4402.12 769.842  13
  -3  -7  -2 3703.62 557.200  10
  -3   7  -3 1500.27 459.488  13
  -3  -7  -3 1333.13 252.703  10
   3  -9  -2 7554.39 510.834   8
   4   0  -9 9497.52 954.414  11
   4   0  -8 4003.67 599.333   6
   4   0  -8 4091.76 710.925  11
   4   0  -7 1899.45 484.104   6
   4   0  -7 2277.45 558.215  11
   4   0  -6 52760.9 3014.10   4
   4   0  -6 52595.5 2342.05   6
   4   0  -6 52733.4 2348.00  11
   4   0  -5 48532.9 2744.09   4
   4   0  -5 50253.0 2139.65   6
  -4   0   4 56445.6 2509.74   2
  -4   0   3 26526.7 1727.50   2
  -4   0   2 12993.8 1211.39   2
  -4   0   1 7129.43 958.116   2
  -4   0   0 156369. 4201.89   3
  -4   0  -1 1484.26 447.659   3
  -4   0  -1 1756.09 527.368   5
  -4   0  -2 1170.56 379.878   5
  -4   0  -3 5311.50 673.892   9
  -4   0  -3 4646.89 881.177   5
  -4   0  -4 10865.5 1237.11   5
  -4   0  -4 10782.2 944.133   9
  -4   0  -5 9301.73 985.880   5
  -4   0  -5 10358.0 798.716   9
   4   2  -9 4991.14 545.708  11
   4  -2  -8 7958.29 789.603   7
   4  -2  -8 7499.06 844.949   6
   4   2  -8 7445.07 823.266  11
   4  -2  -7 16974.7 1276.86   7
   4  -2  -7 16580.4 1321.18   6
   4   2  -7 16389.4 1259.31  11
   4   2  -7 15960.8 1148.91   6
   4  -2  -6 9466.29 1042.92   7
   4   2  -6 8204.88 861.683   6
   4  -2  -6 8445.75 979.470   6
   4  -2  -6 7493.87 1071.58  11
   4  -2  -5 11113.7 1359.57   4
   4  -2  -5 11415.8 1093.08   6
   4   2  -5 11164.7 989.185   6
  -4   2   5 10367.7 1271.56   2
   4  -2  -4 10185.3 1168.16   4
  -4   2   4 10266.7 1228.58   2
   4  -2  -3 116449. 3423.14   4
  -4   2   3 112282. 3793.52   2
  -4   2   2 53091.0 2589.64   2
  -4   2   1 25952.1 1828.88   2
  -4  -2   0 1414.02 451.607   3
  -4   2   0 1373.62 478.738   2
  -4  -2  -1 6176.86 1065.18   3
  -4   2  -1 5916.12 791.264   5
  -4  -2  -1 5921.06 838.263   5
  -4  -2  -1 6920.59 793.237  12
  -4  -2  -1 6008.00 754.749  10
  -4   2  -2 8844.67 1015.83   5
  -4  -2  -2 8766.57 1330.68   3
  -4  -2  -2 7520.41 1045.25   5
  -4   2  -3 28673.5 1844.78   5
  -4  -2  -3 27627.9 1891.83   5
  -4   2  -4 3851.13 561.809   9
  -4   2  -4 3884.89 662.170   5
  -4  -2  -4 3531.42 655.219   5
  -4   2  -5 4937.69 547.709   9
  -4  -2  -5 4082.72 586.286   5
   4  -4  -8 5112.59 578.885   7
   4  -4  -7 15430.9 1195.17   7
   4  -4  -7 15690.8 1133.93   6
   4  -4  -6 2468.95 580.672   7
   4  -4  -6 2900.67 579.536   6
   4  -4  -5 7401.22 829.551   6
  -4  -4   5 5793.68 745.776  12
  -4  -4   4 28978.5 1651.18  12
  -4   4   4 30755.6 2391.23   2
  -4  -4   3 21548.1 1456.35  12
  -4   4   3 24729.5 2082.12   2
  -4  -4   2 48148.8 2202.88  12
  -4  -4   2 52478.9 2118.49  10
  -4   4   2 48377.2 2689.19   2
  -4   4   1 24364.2 1887.62   2
  -4  -4   1 26028.5 1583.86  12
  -4  -4   1 26184.4 2218.39   3
  -4  -4   1 26678.9 1598.21  10
  -4  -4   0 641.513 430.545   3
  -4  -4   0 212.100 275.264  12
  -4  -4   0 1088.70 399.672  10
  -4  -4  -1 6566.46 775.811  12
  -4  -4  -1 7695.87 905.324  10
  -4   4  -2 13428.3 1494.08  13
  -4  -4  -2 11207.4 1057.98  10
  -4   4  -3 4061.98 801.504  13
  -4   4  -4 11136.5 844.503   9
  -4   4  -4 8340.12 897.275  13
  -4   4  -5 3166.35 318.008   9
   4  -6  -7 776.684 209.304   7
   4  -6  -6 3313.83 513.346   7
  -4  -6   6 4064.77 528.987  12
   4  -6  -5 14411.4 1102.76   7
  -4  -6   5 17982.2 1211.66  12
  -4  -6   4 36329.7 1858.06  12
  -4  -6   3 87.1394 289.627  12
  -4  -6   2 10913.0 1044.39  12
  -4  -6   2 10615.8 996.117  10
  -4   6   1 15026.1 1357.52  13
  -4  -6   1 15055.6 1253.00  12
  -4  -6   1 17054.2 1319.82  10
  -4   6   0 12893.5 1343.65  13
  -4  -6   0 11168.5 991.967  12
  -4  -6   0 13990.4 1191.36  10
  -4   6  -1 8035.10 1094.17  13
  -4  -6  -1 7971.95 894.472  10
  -4   6  -2 2113.45 569.145  13
  -4  -6  -2 2540.89 435.427  10
  -4   6  -3 42.0143 270.344  13
  -4  -8   4 1307.85 279.056  12
  -4  -8   3 21959.9 1049.45  12
  -4  -8   2 7404.26 595.478  12
  -4  -8   2 5818.67 477.430  10
  -4  -8   1 3807.77 428.765  10
  -4  -8   0 386.539 166.033  10
   5  -1  -9 6674.18 596.631   6
   5  -1  -8 4558.04 661.775   6
   5   1  -8 3724.99 512.846   6
   5  -1  -7 115.498 305.366   6
   5   1  -7 638.321 361.400   6
   5  -1  -6 27391.9 1743.73   6
   5   1  -6 27855.0 1703.56   6
  -5   1   5 22033.3 1896.45   2
   5  -1  -5 21990.6 1891.73   4
   5  -1  -5 23702.0 1609.92   6
   5   1  -5 23217.6 1585.27   6
  -5   1   4 12774.8 1444.59   2
   5  -1  -4 9997.89 1200.45   4
  -5  -1   4 10417.5 974.608  12
   5  -1  -4 11625.5 1079.08   6
  -5   1   3 13375.0 1493.14   2
  -5  -1   3 12502.7 1099.68  12
  -5   1   2 1822.87 672.740   2
  -5   1   2 1635.91 430.195  12
  -5  -1   2 1764.25 495.173  12
  -5  -1   1 2684.09 763.453   3
  -5   1   1 2989.26 591.336  12
  -5  -1   1 3243.20 596.832  12
  -5   1   0 42985.0 2094.01  12
  -5  -1   0 44800.7 2156.98  12
  -5  -1   0 43054.8 2696.59   3
  -5   1  -1 10855.9 1215.60   5
  -5  -1  -1 10031.4 1188.22   5
  -5  -1  -1 10105.4 1042.12  12
  -5   1  -2 7913.86 1021.60   5
  -5  -1  -2 8290.84 1058.69   5
  -5   1  -3 9886.45 1060.78   5
  -5  -1  -3 9935.44 1063.20   5
  -5   1  -4 2704.40 495.097   5
  -5  -1  -4 2174.69 488.509   5
   5  -3  -8 4693.85 544.340   7
   5  -3  -8 6012.00 631.843   6
   5  -3  -7 23224.1 1433.53   7
   5  -3  -7 26041.8 1503.11   6
   5  -3  -6 2965.31 583.204   6
  -5  -3   5 3896.25 579.960  12
   5  -3  -5 4640.42 677.809   6
   5   3  -5 3719.51 562.762   6
  -5  -3   4 4587.59 750.673  12
   5  -3  -4 4748.82 670.223   6
   5   3  -4 5015.05 707.359   6
  -5   3   3 29927.6 2317.58   2
  -5  -3   3 26944.1 1665.26  12
  -5   3   2 15793.9 1667.96   2
  -5  -3   2 15685.2 1327.58  12
  -5  -3   2 18112.6 1951.28   3
  -5  -3   2 15423.9 1225.34  10
  -5  -3   1 9029.77 1009.75  12
  -5  -3   1 10021.5 1064.00  10
  -5  -3   0 103.073 298.901   5
  -5  -3   0 822.135 362.924  12
  -5  -3   0 161.963 276.777  10
  -5  -3  -1 11584.0 1201.51   5
  -5  -3  -1 11136.1 1055.84  12
  -5  -3  -2 16897.1 1325.96   5
  -5   3  -3 13767.8 1175.50  13
  -5  -3  -3 14544.4 1054.52   5
   5  -5  -7 2050.26 380.148   7
   5  -5  -6 4422.81 627.285   7
  -5  -5   6 4723.98 565.768  12
  -5  -5   5 12953.7 1052.03  12
  -5  -5   4 31307.1 1747.86  12
  -5  -5   3 1453.77 454.321  12
  -5  -5   3 45.9681 309.136  10
  -5  -5   2 5679.46 740.389  12
  -5  -5   2 3966.72 667.038  10
  -5   5   1 6128.21 904.182  13
  -5  -5   1 7264.40 859.631  12
  -5  -5   1 7193.75 876.433  10
  -5   5   0 6837.20 953.793  13
  -5  -5   0 5644.46 717.059  12
  -5  -5   0 8530.94 940.869  10
  -5   5  -1 12256.8 1263.24  13
  -5  -5  -1 11718.2 995.317  10
  -5   5  -2 10363.9 1039.35  13
  -5   5  -3 522.079 215.691  13
  -5  -7   5 7993.51 566.209  12
   5  -7  -4 957.085 221.557   7
  -5  -7   4 5180.60 536.894  12
  -5  -7   3 1940.51 372.848  12
  -5  -7   2 118.706 216.715  12
  -5  -7   1 3455.73 414.838  12
  -5  -7   1 3441.24 446.540  10
   6   0  -8 2736.13 449.187   6
   6   0  -7 598.777 342.588   6
   6   0  -6 23474.2 1581.82   6
   6   0  -5 10730.0 1113.94   6
   6   0  -4 8470.36 1026.29   6
  -6   0   4 6290.28 803.661  12
  -6   0   3 2903.96 652.640  12
  -6   0   2 3551.73 720.306  12
  -6   0   1 5368.69 841.714  12
  -6   0   0 58680.3 2861.37   5
  -6   0   0 62124.4 2558.40  12
  -6   0  -1 3842.50 758.444   5
  -6   0  -2 754.808 355.439   5
  -6   0  -3 504.692 266.467   5
   6  -2  -8 3311.05 452.275   6
   6  -2  -7 8372.17 848.649   6
   6   2  -7 7847.66 709.796   6
   6  -2  -6 4455.76 676.529   6
   6   2  -6 4251.89 613.985   6
  -6  -2   5 2059.16 475.389  12
   6  -2  -5 3114.21 643.194   6
   6   2  -5 3008.87 606.643   6
  -6  -2   4 157.291 267.133  12
   6  -2  -4 766.739 332.112   6
   6   2  -4 781.750 382.566   6
  -6  -2   3 21770.9 1567.76  12
   6  -2  -3 21149.5 1412.96   6
  -6  -2   2 11774.9 1157.26  12
   6  -2  -2 11288.2 985.811   6
  -6   2   1 13033.4 1218.60   5
  -6  -2   1 13629.5 1217.13  12
  -6   2   0 5353.62 778.388   5
  -6  -2   0 5655.63 860.689   5
  -6  -2   0 5799.74 792.857  12
  -6   2  -1 5757.58 720.184   5
  -6  -2  -1 6050.64 845.242   5
  -6   2  -2 2534.49 444.835   5
  -6  -2  -2 1880.83 411.406   5
  -6  -2  -3 4137.01 437.354   5
   6  -4  -7 3685.36 481.914   7
   6  -4  -6 740.230 352.532   7
  -6  -4   5 1693.57 428.865  12
  -6  -4   4 5603.85 754.381  12
  -6  -4   3 1718.03 451.194  12
  -6  -4   2 13734.6 1204.99  12
  -6  -4   1 10586.3 950.754   5
  -6  -4   1 13608.3 1104.84  12
  -6  -4   0 1729.36 359.887   5
  -6  -4   0 1975.02 375.172  12
  -6   4  -1 5271.89 739.120  13
  -6   4  -2 3152.75 454.572  13
   6  -6  -5 1289.23 252.720   7
  -6  -6   5 4490.82 439.482  12
  -6  -6   4 9344.43 708.318  12
  -6  -6   3-31.8991 197.433  12
  -6  -6   2 2916.87 421.781  12
  -6  -6   1 6123.94 498.850  12
   7  -1  -8 1231.08 237.483   6
   7  -1  -7-157.757 227.941   6
   7   1  -7-139.644 204.356   6
   7  -1  -6 8511.22 812.189   6
   7   1  -6 8479.68 819.422   6
   7  -1  -5 5861.17 714.377   6
   7   1  -5 5571.47 742.228   6
  -7  -1   4 5031.13 666.932  12
   7  -1  -4 4734.72 687.216   6
   7   1  -4 6029.53 774.758   6
  -7  -1   3 8086.12 886.804  12
   7  -1  -3 9409.11 928.756   6
  -7   1   2 3211.17 663.049   5
  -7  -1   2 3708.81 652.517  12
   7  -1  -2 2875.31 482.730   6
  -7   1   1 1533.47 430.921   5
  -7  -1   1 1872.06 482.845   5
  -7  -1   1 970.223 376.500  12
  -7   1   0 7686.57 748.493   5
  -7  -1   0 7966.30 855.004   5
  -7   1  -1 643.803 250.359   5
  -7  -1  -1-99.2028 260.057   5
   7  -3  -6 234.916 204.599   7
   7  -3  -6 288.816 152.351   6
   7   3  -6 225.160 162.213   6
  -7  -3   5 1494.19 337.029  12
   7  -3  -5 2180.49 345.174   6
   7   3  -5 1143.21 264.479   6
  -7  -3   4 2477.42 456.081  12
   7   3  -4 2516.32 452.773   6
  -7  -3   3 11586.8 997.111  12
   7   3  -3 11516.3 925.455   6
  -7  -3   2 8087.57 831.374   5
  -7  -3   2 8387.62 814.446  12
  -7  -3   1 3881.44 569.318   5
  -7  -3   1 3044.76 493.739  12
  -7  -3   0-93.3993 142.501   5
  -7   3   0-98.9516 260.519  13
  -7  -5   4 10403.2 651.535  12
  -7  -5   3 4.51483 129.965  12
  -7  -5   2 2608.25 323.608  12
   8   0  -6 7196.53 531.834   6
   8   0  -5 3808.08 440.742   6
   8   0  -4 2039.75 357.337   6
  -8   0   3 1056.99 318.638   5
   8   0  -3 994.458 251.363   6
  -8   0   2 270.844 164.099   5
   8   0  -2-270.763 193.453   6
   8   2  -5 1265.04 238.899   6
  -8  -2   4 22.3947 163.909   5
   8   2  -4 204.034 159.780   6
  -8  -2   3 3609.62 441.155   5
   8   2  -3 3927.14 414.179   6
  -8  -2   2 728.399 227.969   5
   8   2  -2 752.885 204.241   6
   0   0   0    0.00    0.00   0
TITL KW_Zndhbqstrips in C2/m
REM C2/m (#12 in standard setting)
CELL 1.54184   6.714894   7.754365   7.842105  90.0000 113.4527  90.0000
ZERR    2.00   0.001686   0.001299   0.001689   0.0000   0.0277   0.0000
LATT  7
SYMM -x, y,-z
SFAC C H O Zn
UNIT 12.00 12.00 12.00 2.00
TREF
HKLF 4
END
;
_shelx_hkl_checksum              57500
loop_
_space_group_symop_operation_xyz
'x, y, z'
'-x, y, -z'
'x+1/2, y+1/2, z'
'-x+1/2, y+1/2, -z'
'-x, -y, -z'
'x, -y, z'
'-x+1/2, -y+1/2, -z'
'x+1/2, -y+1/2, z'
loop_
_atom_site_label
_atom_site_type_symbol
_atom_site_fract_x
_atom_site_fract_y
_atom_site_fract_z
_atom_site_U_iso_or_equiv
_atom_site_adp_type
_atom_site_occupancy
_atom_site_site_symmetry_order
_atom_site_calc_flag
_atom_site_refinement_flags_posn
_atom_site_refinement_flags_adp
_atom_site_refinement_flags_occupancy
Zn1 Zn 0.5000 0.5000 0.5000 0.0293(3) Uani 1 4 d S T P
O1 O 0.5026(4) 0.3285(3) 0.2993(3) 0.0304(6) Uani 1 1 d . . .
O1W O 0.8430(7) 0.5000 0.6210(7) 0.0529(12) Uani 1 2 d DS T P
C1 C 0.5011(5) 0.4005(4) 0.1539(4) 0.0284(8) Uani 1 1 d . . .
C2 C 0.5000 0.3110(6) 0.0000 0.0286(10) Uani 1 2 d S T P
H1 H 0.5000 0.1885 0.0000 0.034 Uiso 1 2 calc R U P
H1W H 0.915(6) 0.586(4) 0.648(5) 0.043(12) Uiso 1 1 d D . .
loop_
_atom_site_aniso_label
_atom_site_aniso_U_11
_atom_site_aniso_U_22
_atom_site_aniso_U_33
_atom_site_aniso_U_23
_atom_site_aniso_U_13
_atom_site_aniso_U_12
Zn1 0.0387(6) 0.0202(5) 0.0276(5) 0.000 0.0117(4) 0.000
O1 0.0448(13) 0.0198(11) 0.0272(11) 0.0016(9) 0.0148(10) 0.0012(10)
O1W 0.036(2) 0.0180(19) 0.086(3) 0.000 0.004(2) 0.000
C1 0.0287(16) 0.0221(18) 0.0315(17) 0.0009(13) 0.0089(14) 0.0000(13)
C2 0.035(2) 0.019(2) 0.032(2) 0.000 0.0141(19) 0.000
loop_
_atom_type_symbol
_atom_type_description
_atom_type_scat_dispersion_real
_atom_type_scat_dispersion_imag
_atom_type_scat_source
C C 0.0181 0.0091 'International Tables Vol C Tables 4.2.6.8 and 6.1.1.4'
H H 0.0000 0.0000 'International Tables Vol C Tables 4.2.6.8 and 6.1.1.4'
O O 0.0492 0.0322 'International Tables Vol C Tables 4.2.6.8 and 6.1.1.4'
Zn Zn -1.5491 0.6778 'International Tables Vol C Tables 4.2.6.8 and 6.1.1.4'
loop_
_geom_angle_atom_site_label_1
_geom_angle_atom_site_label_2
_geom_angle_atom_site_label_3
_geom_angle
_geom_angle_site_symmetry_1
_geom_angle_site_symmetry_3
O1 Zn1 O1 99.84(12) 5_666 6_565
O1 Zn1 O1 80.16(12) 5_666 2_656
O1 Zn1 O1 180.0 6_565 2_656
O1 Zn1 O1 180.0 5_666 .
O1 Zn1 O1 80.16(12) 6_565 .
O1 Zn1 O1 99.84(12) 2_656 .
O1 Zn1 O1W 89.79(13) 5_666 .
O1 Zn1 O1W 90.21(13) 6_565 .
O1 Zn1 O1W 89.79(13) 2_656 .
O1 Zn1 O1W 90.21(13) . .
O1 Zn1 O1W 90.21(13) 5_666 5_666
O1 Zn1 O1W 89.79(13) 6_565 5_666
O1 Zn1 O1W 90.21(13) 2_656 5_666
O1 Zn1 O1W 89.79(13) . 5_666
O1W Zn1 O1W 180.0 . 5_666
C1 O1 Zn1 113.8(2) . .
Zn1 O1W H1W 124(3) . .
O1 C1 C2 123.9(3) . .
O1 C1 C1 116.16(18) . 6_565
C2 C1 C1 119.9(2) . 6_565
C1 C2 C1 120.1(4) . 2_655
C1 C2 H1 119.9 . .
C1 C2 H1 119.9 2_655 .
loop_
_geom_bond_atom_site_label_1
_geom_bond_atom_site_label_2
_geom_bond_distance
_geom_bond_site_symmetry_2
Zn1 O1 2.066(2) 5_666
Zn1 O1 2.066(2) 6_565
Zn1 O1 2.066(2) 2_656
Zn1 O1 2.066(2) .
Zn1 O1W 2.113(4) .
Zn1 O1W 2.113(4) 5_666
O1 C1 1.266(4) .
O1W H1W 0.802(19) .
C1 C2 1.390(4) .
C1 C1 1.543(7) 6_565
C2 C1 1.390(4) 2_655
C2 H1 0.9500 .
