#------------------------------------------------------------------------------
#$Date: 2016-04-05 21:09:50 +0300 (Tue, 05 Apr 2016) $
#$Revision: 181744 $
#$URL: svn://www.crystallography.net/cod/cif/7/03/73/7037341.cif $
#------------------------------------------------------------------------------
#
# This file is available in the Crystallography Open Database (COD),
# http://www.crystallography.net/
#
# All data on this site have been placed in the public domain by the
# contributors.
#
data_7037341
loop_
_publ_author_name
'Dauer, David-R'
'Fl\"ugge, Melchior'
'Herbst-Irmer, Regine'
'Stalke, Dietmar'
_publ_section_title
;
 Group 13 metal complexes containing the
 bis-(4-methylbenzoxazol-2-yl)-methanide ligand.
;
_journal_issue                   14
_journal_name_full
'Dalton transactions (Cambridge, England : 2003)'
_journal_page_first              6149
_journal_page_last               6158
_journal_paper_doi               10.1039/c5dt03913d
_journal_volume                  45
_journal_year                    2016
_chemical_formula_moiety         'C10 H10 N2 O2'
_chemical_formula_sum            'C10 H10 N2 O2'
_chemical_formula_weight         190.20
_chemical_name_systematic        '4-Methylbenzoxazol-2-yl-carboxamide '
_space_group_crystal_system      triclinic
_space_group_IT_number           2
_space_group_name_Hall           '-P 1'
_space_group_name_H-M_alt        'P -1'
_symmetry_space_group_name_Hall  '-P 1'
_symmetry_space_group_name_H-M   'P -1'
_atom_sites_solution_hydrogens   mixed
_audit_creation_method           SHELXL-2013
_audit_update_record
;
2015-10-04 deposited with the CCDC.
2015-11-19 downloaded from the CCDC.
;
_cell_angle_alpha                93.24(2)
_cell_angle_beta                 115.09(3)
_cell_angle_gamma                99.95(2)
_cell_formula_units_Z            2
_cell_length_a                   7.790(2)
_cell_length_b                   7.974(2)
_cell_length_c                   8.279(3)
_cell_measurement_reflns_used    2385
_cell_measurement_temperature    100(2)
_cell_measurement_theta_max      25.094
_cell_measurement_theta_min      2.746
_cell_volume                     453.9(3)
_computing_cell_refinement       'SAINT V8.34A'
_computing_data_collection       'APEX2 v2012.2'
_computing_data_reduction        'SAINT V8.34A'
_computing_molecular_graphics    'XP Version 5.1'
_computing_publication_material  'XP Version 5.1'
_computing_structure_refinement  'SHELXL-2013 (Sheldrick, 2013)'
_computing_structure_solution    'SHELXT (Sheldrick,Acta Cryst.(2015)A71,3-8)'
_diffrn_ambient_temperature      100(2)
_diffrn_measured_fraction_theta_full 0.999
_diffrn_measured_fraction_theta_max 0.996
_diffrn_measurement_device_type  'Bruker Smart APEX II Quazar'
_diffrn_measurement_method       'omega scans'
_diffrn_radiation_type           MoK\a
_diffrn_radiation_wavelength     0.71073
_diffrn_reflns_av_R_equivalents  0.0406
_diffrn_reflns_av_unetI/netI     0.0346
_diffrn_reflns_Laue_measured_fraction_full 0.999
_diffrn_reflns_Laue_measured_fraction_max 0.996
_diffrn_reflns_limit_h_max       9
_diffrn_reflns_limit_h_min       -9
_diffrn_reflns_limit_k_max       9
_diffrn_reflns_limit_k_min       -9
_diffrn_reflns_limit_l_max       10
_diffrn_reflns_limit_l_min       -10
_diffrn_reflns_number            7223
_diffrn_reflns_point_group_measured_fraction_full 0.999
_diffrn_reflns_point_group_measured_fraction_max 0.996
_diffrn_reflns_theta_full        25.242
_diffrn_reflns_theta_max         25.503
_diffrn_reflns_theta_min         2.621
_diffrn_source                   'INCOATEC Microsource'
_exptl_absorpt_coefficient_mu    0.099
_exptl_absorpt_correction_T_max  0.7452
_exptl_absorpt_correction_T_min  0.6823
_exptl_absorpt_correction_type   multi-scan
_exptl_absorpt_process_details   SADABS-2014/4
_exptl_crystal_colour            colorless
_exptl_crystal_density_diffrn    1.392
_exptl_crystal_description       block
_exptl_crystal_F_000             200
_exptl_crystal_recrystallization_method
'Re-crystallisation from solvent: toluene'
_exptl_crystal_size_max          0.100
_exptl_crystal_size_mid          0.050
_exptl_crystal_size_min          0.050
_refine_diff_density_max         0.408
_refine_diff_density_min         -0.228
_refine_diff_density_rms         0.052
_refine_ls_extinction_method     none
_refine_ls_goodness_of_fit_ref   1.088
_refine_ls_hydrogen_treatment    mixed
_refine_ls_matrix_type           full
_refine_ls_number_parameters     137
_refine_ls_number_reflns         1691
_refine_ls_number_restraints     198
_refine_ls_restrained_S_all      1.033
_refine_ls_R_factor_all          0.0614
_refine_ls_R_factor_gt           0.0496
_refine_ls_shift/su_max          0.000
_refine_ls_shift/su_mean         0.000
_refine_ls_structure_factor_coef Fsqd
_refine_ls_weighting_details
'w=1/[\s^2^(Fo^2^)+(0.0606P)^2^+0.2790P] where P=(Fo^2^+2Fc^2^)/3'
_refine_ls_weighting_scheme      calc
_refine_ls_wR_factor_gt          0.1251
_refine_ls_wR_factor_ref         0.1345
_reflns_Friedel_coverage         0.000
_reflns_number_gt                1389
_reflns_number_total             1691
_reflns_threshold_expression     'I > 2\s(I)'
_cod_data_source_file            c5dt03913d2.cif
_cod_data_source_block           3lambda
_cod_depositor_comments
'Adding full bibliography for 7037336--7037343.cif.'
_cod_database_code               7037341
_shelx_space_group_comment
;
The symmetry employed for this shelxl refinement is uniquely defined
by the following loop, which should always be used as a source of
symmetry information in preference to the above space-group names.
They are only intended as comments.
;
_shelx_estimated_absorpt_t_min   0.990
_shelx_estimated_absorpt_t_max   0.995
_shelxl_version_number           2013-4
_shelx_res_file
;

TITL p-1_a.res in P-1
REM Old TITL p-1 in P-1

REM SHELXT solution in P-1
REM R1 0.118,  Rweak 0.006,  Alpha 0.030,  Orientation as input
REM Formula found by SHELXT:  C10 N2 O2

CELL  0.71073   7.790   7.974   8.279   93.24  115.09   99.95
ZERR    2.000   0.002   0.002   0.003    0.02    0.03    0.02
Latt 1
SFAC C H N O
UNIT 20 20 4 4
TEMP -173.000
L.S. 20
HTAB
SIZE 0.10 0.05 0.05
EQIV $2 -x+2, -y+1, -z+1
HTAB N2 O2_$2
EQIV $3 -x+1, -y+1, -z
HTAB N2 N1_$3
EQIV $4 -x+1, -y+1, -z+1
HTAB C1' O2_$4
HTAB N2 N1_$3
HTAB N2 O2_$2
CONF
BIND n2 h1n
BIND n2 h2n
HTAB
LIST 4
SIMU
RIGU
ACTA
FMAP 2
PLAN 40

WGHT    0.060600    0.279000
FVAR       1.27931   0.93497
C1'   1    0.494571    0.500480    0.267634    11.00000    0.02421    0.02906 =
         0.02847    0.00809    0.01036    0.00891
AFIX  23
H1'A  2    0.441216    0.545389    0.346323    11.00000   -1.20000
H1'B  2    0.470271    0.569849    0.167801    11.00000   -1.20000
AFIX   0
H1N   2    0.772025    0.648308    0.211201    11.00000    0.04515
C1    1    0.396851    0.315630    0.193202    11.00000    0.01769    0.03070 =
         0.02703    0.01227    0.00988    0.00916
O1    4    0.371146    0.213352    0.312676    11.00000    0.02418    0.03228 =
         0.02724    0.00473    0.00980    0.00499
C2    1    0.290448    0.050526    0.211251    11.00000    0.01793    0.02715 =
         0.02864    0.00316    0.00833    0.00623
H2N   2    0.955848    0.594516    0.369208    11.00000    0.04710
C3    1    0.236741   -0.103696    0.264181    11.00000    0.02451    0.03640 =
         0.02743    0.01152    0.01306    0.00815
AFIX  43
H3    2    0.252155   -0.112274    0.383351    11.00000   -1.20000
AFIX   0
C4    1    0.158805   -0.244396    0.129693    11.00000    0.02434    0.02727 =
         0.03920    0.01288    0.01485    0.00838
AFIX  43
H4    2    0.117710   -0.354048    0.156617    11.00000   -1.20000
AFIX   0
C5    1    0.138831   -0.229740   -0.044708    11.00000    0.02421    0.02981 =
         0.03355    0.00304    0.01044    0.00944
AFIX  43
H5    2    0.083304   -0.329971   -0.132511    11.00000   -1.20000
AFIX   0
C6    1    0.196748   -0.074969   -0.094583    11.00000    0.02390    0.03804 =
         0.02886    0.00885    0.01123    0.01326
C7    1    0.272018    0.067111    0.039176    11.00000    0.01712    0.02860 =
         0.03098    0.01150    0.01076    0.00803
C9    1    0.182003   -0.061230   -0.280292    11.00000    0.04751    0.04120 =
         0.03074    0.00754    0.01779    0.01501
AFIX 137
H9A   2    0.152602   -0.176804   -0.345688    11.00000   -1.50000
H9B   2    0.305597    0.003950   -0.270602    11.00000   -1.50000
H9C   2    0.078203   -0.001884   -0.345575    11.00000   -1.50000
AFIX   0
N1    3    0.343265    0.240777    0.033491    11.00000    0.02134    0.03037 =
         0.02935    0.00981    0.01082    0.00876

C8    1    0.713520    0.514722    0.376208    11.00000    0.02517    0.02332 =
         0.02670    0.00553    0.00958    0.00875
O2    4    0.775770    0.445745    0.513859    11.00000    0.02310    0.03623 =
         0.03191    0.01143    0.01198    0.00641
N2    3    0.825364    0.599373    0.311684    11.00000    0.02339    0.03291 =
         0.03114    0.01202    0.00828    0.00703
HKLF 4

REM  p-1_a.res in P-1
REM R1 =  0.0496 for    1389 Fo > 4sig(Fo)  and  0.0614 for all    1691 data
REM    137 parameters refined using    198 restraints

END

WGHT      0.0606      0.2790

REM Instructions for potential hydrogen bonds
HTAB C1' O2_$4
HTAB N2 N1_$3
HTAB N2 O2_$2

REM Highest difference peak  0.408,  deepest hole -0.228,  1-sigma level  0.052
Q1    1   0.3647  0.1663  0.4191  11.00000  0.05    0.41
Q2    1   0.5038  0.4984  0.4010  11.00000  0.05    0.30
Q3    1   0.2697 -0.0057 -0.0204  11.00000  0.05    0.29
Q4    1   0.4542  0.6244  0.2727  11.00000  0.05    0.28
Q5    1   0.8265  0.4580  0.6368  11.00000  0.05    0.27
Q6    1   0.7506  0.5366  0.5012  11.00000  0.05    0.23
Q7    1   0.2642  0.0472 -0.2030  11.00000  0.05    0.22
Q8    1   0.3958  0.3136  0.3018  11.00000  0.05    0.22
Q9    1   0.3430  0.0454  0.1391  11.00000  0.05    0.20
Q10   1   0.8393  0.4049  0.4631  11.00000  0.05    0.19
Q11   1   0.2409  0.0654  0.1142  11.00000  0.05    0.19
Q12   1   0.2294 -0.1551 -0.0409  11.00000  0.05    0.19
Q13   1   0.7922  0.6159  0.3934  11.00000  0.05    0.18
Q14   1   0.3148  0.1385  0.0172  11.00000  0.05    0.17
Q15   1   0.2604 -0.1138 -0.3170  11.00000  0.05    0.17
Q16   1   0.2104 -0.0201  0.2367  11.00000  0.05    0.17
Q17   1   0.8511  0.5325  0.1970  11.00000  0.05    0.16
Q18   1   0.1232 -0.2093  0.0450  11.00000  0.05    0.16
Q19   1   0.2604 -0.1649  0.2059  11.00000  0.05    0.16
Q20   1   0.0556 -0.1349 -0.3867  11.00000  0.05    0.16
Q21   1   0.2242 -0.0831 -0.1527  11.00000  0.05    0.14
Q22   1   0.7899  0.5768  0.1789  11.00000  0.05    0.14
Q23   1   0.6073  0.5159  0.3218  11.00000  0.05    0.14
Q24   1   0.3457  0.1413 -0.2582  11.00000  0.05    0.14
Q25   1   0.1403 -0.1645  0.1810  11.00000  0.05    0.14
Q26   1   0.3611  0.3057 -0.0594  11.00000  0.05    0.13
Q27   1   0.1365 -0.1354 -0.0828  11.00000  0.05    0.13
Q28   1   0.4207  0.4227  0.4578  11.00000  0.05    0.13
Q29   1   0.6805  0.3217  0.3963  11.00000  0.05    0.13
Q30   1   0.3761  0.2412  0.5443  11.00000  0.05    0.12
Q31   1   0.4986  0.0646  0.2170  11.00000  0.05    0.11
Q32   1   0.3206  0.1067  0.4915  11.00000  0.05    0.11
Q33   1   0.4635  0.2850  0.1401  11.00000  0.05    0.11
Q34   1   0.4437  0.4001  0.2125  11.00000  0.05    0.11
Q35   1  -0.1586 -0.3970 -0.2303  11.00000  0.05    0.11
Q36   1  -0.0220 -0.2405 -0.4752  11.00000  0.05    0.11
Q37   1   0.9262  0.7597  0.3578  11.00000  0.05    0.11
Q38   1   0.8154  0.3165  0.5004  11.00000  0.05    0.10
Q39   1   0.7914  0.5424  0.0395  11.00000  0.05    0.10
Q40   1   0.4991  0.2060  0.5693  11.00000  0.05    0.10
;
_shelx_res_checksum              67616
loop_
_space_group_symop_operation_xyz
'x, y, z'
'-x, -y, -z'
loop_
_atom_site_label
_atom_site_type_symbol
_atom_site_fract_x
_atom_site_fract_y
_atom_site_fract_z
_atom_site_U_iso_or_equiv
_atom_site_adp_type
_atom_site_occupancy
_atom_site_site_symmetry_order
_atom_site_calc_flag
_atom_site_refinement_flags_posn
_atom_site_refinement_flags_adp
C1' C 0.4946(3) 0.5005(3) 0.2676(3) 0.0271(5) Uani 1 1 d . U
H1'A H 0.4412 0.5454 0.3463 0.033 Uiso 1 1 calc R U
H1'B H 0.4703 0.5698 0.1678 0.033 Uiso 1 1 calc R U
H1N H 0.772(4) 0.648(3) 0.211(4) 0.045(7) Uiso 1 1 d . .
C1 C 0.3969(3) 0.3156(3) 0.1932(3) 0.0243(5) Uani 1 1 d . U
O1 O 0.3711(2) 0.21335(19) 0.31268(19) 0.0286(4) Uani 1 1 d . U
C2 C 0.2904(3) 0.0505(3) 0.2113(3) 0.0251(5) Uani 1 1 d . U
H2N H 0.956(4) 0.595(3) 0.369(4) 0.047(8) Uiso 1 1 d . .
C3 C 0.2367(3) -0.1037(3) 0.2642(3) 0.0284(5) Uani 1 1 d . U
H3 H 0.2522 -0.1123 0.3834 0.034 Uiso 1 1 calc R U
C4 C 0.1588(3) -0.2444(3) 0.1297(3) 0.0293(5) Uani 1 1 d . U
H4 H 0.1177 -0.3540 0.1566 0.035 Uiso 1 1 calc R U
C5 C 0.1388(3) -0.2297(3) -0.0447(3) 0.0296(5) Uani 1 1 d . U
H5 H 0.0833 -0.3300 -0.1325 0.036 Uiso 1 1 calc R U
C6 C 0.1967(3) -0.0750(3) -0.0946(3) 0.0294(5) Uani 1 1 d . U
C7 C 0.2720(3) 0.0671(3) 0.0392(3) 0.0248(5) Uani 1 1 d . U
C9 C 0.1820(4) -0.0612(3) -0.2803(3) 0.0388(6) Uani 1 1 d . U
H9A H 0.1526 -0.1768 -0.3457 0.058 Uiso 1 1 calc R U
H9B H 0.3056 0.0039 -0.2706 0.058 Uiso 1 1 calc R U
H9C H 0.0782 -0.0019 -0.3456 0.058 Uiso 1 1 calc R U
N1 N 0.3433(2) 0.2408(2) 0.0335(2) 0.0265(4) Uani 1 1 d . U
C8 C 0.7135(3) 0.5147(3) 0.3762(3) 0.0252(5) Uani 1 1 d . U
O2 O 0.7758(2) 0.4457(2) 0.5139(2) 0.0302(4) Uani 1 1 d . U
N2 N 0.8254(3) 0.5994(2) 0.3117(3) 0.0300(5) Uani 1 1 d . U
loop_
_atom_site_aniso_label
_atom_site_aniso_U_11
_atom_site_aniso_U_22
_atom_site_aniso_U_33
_atom_site_aniso_U_23
_atom_site_aniso_U_13
_atom_site_aniso_U_12
C1' 0.0242(11) 0.0291(12) 0.0285(11) 0.0081(9) 0.0104(9) 0.0089(9)
C1 0.0177(10) 0.0307(11) 0.0270(11) 0.0123(9) 0.0099(8) 0.0092(8)
O1 0.0242(8) 0.0323(9) 0.0272(8) 0.0047(6) 0.0098(6) 0.0050(7)
C2 0.0179(10) 0.0272(11) 0.0286(11) 0.0032(8) 0.0083(9) 0.0062(8)
C3 0.0245(11) 0.0364(12) 0.0274(11) 0.0115(9) 0.0131(9) 0.0082(9)
C4 0.0243(11) 0.0273(11) 0.0392(13) 0.0129(9) 0.0148(10) 0.0084(9)
C5 0.0242(11) 0.0298(12) 0.0336(12) 0.0030(9) 0.0104(9) 0.0094(9)
C6 0.0239(11) 0.0380(13) 0.0289(11) 0.0088(9) 0.0112(9) 0.0133(9)
C7 0.0171(10) 0.0286(11) 0.0310(11) 0.0115(9) 0.0108(9) 0.0080(8)
C9 0.0475(15) 0.0412(14) 0.0307(13) 0.0075(10) 0.0178(11) 0.0150(12)
N1 0.0213(9) 0.0304(10) 0.0293(10) 0.0098(8) 0.0108(8) 0.0088(8)
C8 0.0252(11) 0.0233(11) 0.0267(11) 0.0055(9) 0.0096(9) 0.0088(9)
O2 0.0231(8) 0.0362(9) 0.0319(9) 0.0114(7) 0.0120(7) 0.0064(7)
N2 0.0234(10) 0.0329(11) 0.0311(11) 0.0120(9) 0.0083(8) 0.0070(8)
loop_
_atom_type_symbol
_atom_type_description
_atom_type_scat_dispersion_real
_atom_type_scat_dispersion_imag
_atom_type_scat_source
C C 0.0033 0.0016 'International Tables Vol C Tables 4.2.6.8 and 6.1.1.4'
H H 0.0000 0.0000 'International Tables Vol C Tables 4.2.6.8 and 6.1.1.4'
N N 0.0061 0.0033 'International Tables Vol C Tables 4.2.6.8 and 6.1.1.4'
O O 0.0106 0.0060 'International Tables Vol C Tables 4.2.6.8 and 6.1.1.4'
loop_
_geom_angle_atom_site_label_1
_geom_angle_atom_site_label_2
_geom_angle_atom_site_label_3
_geom_angle
C1 C1' C8 109.21(17)
N1 C1 O1 116.43(19)
N1 C1 C1' 127.30(19)
O1 C1 C1' 116.18(18)
C1 O1 C2 103.54(16)
C3 C2 C7 124.1(2)
C3 C2 O1 128.78(19)
C7 C2 O1 107.13(18)
C4 C3 C2 114.7(2)
C3 C4 C5 121.9(2)
C6 C5 C4 122.7(2)
C5 C6 C7 115.6(2)
C5 C6 C9 122.4(2)
C7 C6 C9 122.0(2)
C2 C7 C6 121.0(2)
C2 C7 N1 108.98(19)
C6 C7 N1 129.99(19)
C1 N1 C7 103.92(17)
O2 C8 N2 123.7(2)
O2 C8 C1' 120.16(19)
N2 C8 C1' 116.16(18)
H1N N2 H2N 124(2)
H1N N2 C8 119.9(17)
H2N N2 C8 115.5(16)
loop_
_geom_bond_atom_site_label_1
_geom_bond_atom_site_label_2
_geom_bond_distance
C1' C1 1.498(3)
C1' C8 1.533(3)
C1 N1 1.279(3)
C1 O1 1.373(2)
O1 C2 1.390(3)
C2 C3 1.385(3)
C2 C7 1.386(3)
C3 C4 1.385(3)
C4 C5 1.399(3)
C5 C6 1.386(3)
C6 C7 1.390(3)
C6 C9 1.504(3)
C7 N1 1.411(3)
C8 O2 1.237(3)
C8 N2 1.316(3)
N2 H1N 0.90(3)
N2 H2N 0.93(3)
loop_
_geom_hbond_atom_site_label_D
_geom_hbond_atom_site_label_H
_geom_hbond_atom_site_label_A
_geom_hbond_distance_DH
_geom_hbond_distance_HA
_geom_hbond_distance_DA
_geom_hbond_angle_DHA
_geom_hbond_site_symmetry_A
N2 H2N O2 0.93(3) 1.99(3) 2.917(3) 173(2) 2_766
N2 H1N N1 0.90(3) 2.15(3) 3.053(3) 177(2) 2_665
C1' H1'A O2 0.99 2.43 3.368(3) 158.5 2_666
N2 H1N N1 0.90(3) 2.15(3) 3.053(3) 177(2) 2_665
N2 H2N O2 0.93(3) 1.99(3) 2.917(3) 173(2) 2_766
loop_
_geom_torsion_atom_site_label_1
_geom_torsion_atom_site_label_2
_geom_torsion_atom_site_label_3
_geom_torsion_atom_site_label_4
_geom_torsion
C8 C1' C1 N1 -99.3(2)
C8 C1' C1 O1 77.0(2)
N1 C1 O1 C2 0.4(2)
C1' C1 O1 C2 -176.37(16)
C1 O1 C2 C3 179.1(2)
C1 O1 C2 C7 -0.6(2)
C7 C2 C3 C4 -0.8(3)
O1 C2 C3 C4 179.65(18)
C2 C3 C4 C5 0.6(3)
C3 C4 C5 C6 0.6(3)
C4 C5 C6 C7 -1.6(3)
C4 C5 C6 C9 177.6(2)
C3 C2 C7 C6 -0.3(3)
O1 C2 C7 C6 179.38(18)
C3 C2 C7 N1 -179.08(18)
O1 C2 C7 N1 0.6(2)
C5 C6 C7 C2 1.4(3)
C9 C6 C7 C2 -177.8(2)
C5 C6 C7 N1 179.97(19)
C9 C6 C7 N1 0.8(3)
O1 C1 N1 C7 0.0(2)
C1' C1 N1 C7 176.30(19)
C2 C7 N1 C1 -0.3(2)
C6 C7 N1 C1 -179.0(2)
C1 C1' C8 O2 -63.8(3)
C1 C1' C8 N2 114.7(2)
O2 C8 N2 H1N -179.3(19)
C1' C8 N2 H1N 2(2)
O2 C8 N2 H2N 6.6(19)
C1' C8 N2 H2N -171.9(19)
