#------------------------------------------------------------------------------
#$Date: 2016-02-05 01:10:22 +0200 (Fri, 05 Feb 2016) $
#$Revision: 176014 $
#$URL: svn://www.crystallography.net/cod/cif/7/03/78/7037878.cif $
#------------------------------------------------------------------------------
#
# This file is available in the Crystallography Open Database (COD),
# http://www.crystallography.net/
#
# All data on this site have been placed in the public domain by the
# contributors.
#
data_7037878
loop_
_publ_author_name
'Abrahams, Brendan F.'
'Dharma, A. David'
'Dyett, Brendan'
'Hudson, Timothy A.'
'Maynard-Casely, Helen'
'Kingsbury, Christopher J.'
'McCormick, Laura J.'
'Robson, Richard'
'Sutton, Ashley L.'
'White, Keith F.'
_publ_section_title
;
 An indirect generation of 1D M(II)-2,5-dihydroxybenzoquinone coordination
 polymers, their structural rearrangements and generation of materials
 with a high affinity for H2, CO2 and CH4.
;
_journal_issue                   4
_journal_name_full
'Dalton transactions (Cambridge, England : 2003)'
_journal_page_first              1339
_journal_page_last               1344
_journal_paper_doi               10.1039/c5dt04095g
_journal_volume                  45
_journal_year                    2016
_chemical_formula_sum            'C6 H6 Mg O6'
_chemical_formula_weight         198.42
_space_group_crystal_system      monoclinic
_space_group_IT_number           12
_space_group_name_Hall           '-C 2y'
_space_group_name_H-M_alt        'C 1 2/m 1'
_symmetry_space_group_name_Hall  '-C 2y'
_symmetry_space_group_name_H-M   'C 1 2/m 1'
_atom_sites_solution_hydrogens   mixed
_audit_creation_method           SHELXL-2014/7
_audit_update_record
;
2015-10-18 deposited with the CCDC.
2015-12-22 downloaded from the CCDC.
;
_cell_angle_alpha                90
_cell_angle_beta                 112.777(12)
_cell_angle_gamma                90
_cell_formula_units_Z            2
_cell_length_a                   6.8276(7)
_cell_length_b                   7.6461(7)
_cell_length_c                   7.8635(7)
_cell_measurement_reflns_used    376
_cell_measurement_temperature    130(1)
_cell_measurement_theta_max      74.656
_cell_measurement_theta_min      6.099
_cell_volume                     378.50(7)
_computing_cell_refinement
;
CrysAlisPro, Oxford Diffraction Ltd.,
Version 1.171.36.20 (release 27-06-2012 CrysAlis171 .NET)
(compiled Jul 11 2012,15:38:31)
;
_computing_data_collection
;
CrysAlisPro, Oxford Diffraction Ltd.,
Version 1.171.36.20 (release 27-06-2012 CrysAlis171 .NET)
(compiled Jul 11 2012,15:38:31)
;
_computing_data_reduction
;
CrysAlisPro, Oxford Diffraction Ltd.,
Version 1.171.36.20 (release 27-06-2012 CrysAlis171 .NET)
(compiled Jul 11 2012,15:38:31)
;
_computing_structure_refinement  'SHELXL-2014/7 (Sheldrick, 2014)'
_computing_structure_solution    'SHELXT-2014/7 (Sheldrick, 2014)'
_diffrn_ambient_temperature      130(1)
_diffrn_detector_area_resol_mean 10.2273
_diffrn_measured_fraction_theta_full 1.000
_diffrn_measured_fraction_theta_max 1.000
_diffrn_measurement_device_type  mirror
_diffrn_measurement_method       '\w scans'
_diffrn_radiation_type           CuK\a
_diffrn_radiation_wavelength     1.54184
_diffrn_reflns_av_R_equivalents  0.0303
_diffrn_reflns_av_unetI/netI     0.0381
_diffrn_reflns_laue_measured_fraction_full 1.000
_diffrn_reflns_laue_measured_fraction_max 1.000
_diffrn_reflns_limit_h_max       8
_diffrn_reflns_limit_h_min       -8
_diffrn_reflns_limit_k_max       9
_diffrn_reflns_limit_k_min       -7
_diffrn_reflns_limit_l_max       9
_diffrn_reflns_limit_l_min       -8
_diffrn_reflns_number            745
_diffrn_reflns_point_group_measured_fraction_full 1.000
_diffrn_reflns_point_group_measured_fraction_max 1.000
_diffrn_reflns_theta_full        67.684
_diffrn_reflns_theta_max         68.342
_diffrn_reflns_theta_min         6.104
_diffrn_source                   'SuperNova (Cu) X-ray Source'
_exptl_absorpt_coefficient_mu    2.102
_exptl_absorpt_correction_T_max  1.000
_exptl_absorpt_correction_T_min  0.6037
_exptl_absorpt_correction_type   multi-scan
_exptl_absorpt_process_details
;
CrysAlisPro, Agilent Technologies,
Version 1.171.36.20 (release 27-06-2012 CrysAlis171 .NET)
(compiled Jul 11 2012,15:38:31)
Empirical absorption correction using spherical harmonics,
 implemented in SCALE3 ABSPACK scaling algorithm.
;
_exptl_crystal_colour            red
_exptl_crystal_density_diffrn    1.741
_exptl_crystal_description       plate
_exptl_crystal_F_000             204
_exptl_crystal_size_max          0.051
_exptl_crystal_size_mid          0.039
_exptl_crystal_size_min          0.033
_refine_diff_density_max         0.315
_refine_diff_density_min         -0.377
_refine_diff_density_rms         0.076
_refine_ls_extinction_method     none
_refine_ls_goodness_of_fit_ref   1.090
_refine_ls_hydrogen_treatment    mixed
_refine_ls_matrix_type           full
_refine_ls_number_parameters     38
_refine_ls_number_reflns         379
_refine_ls_number_restraints     0
_refine_ls_restrained_S_all      1.090
_refine_ls_R_factor_all          0.0489
_refine_ls_R_factor_gt           0.0424
_refine_ls_shift/su_max          0.000
_refine_ls_shift/su_mean         0.000
_refine_ls_structure_factor_coef Fsqd
_refine_ls_weighting_details
'w=1/[\s^2^(Fo^2^)+(0.0725P)^2^] where P=(Fo^2^+2Fc^2^)/3'
_refine_ls_weighting_scheme      calc
_refine_ls_wR_factor_gt          0.1131
_refine_ls_wR_factor_ref         0.1169
_reflns_Friedel_coverage         0.000
_reflns_number_gt                335
_reflns_number_total             379
_reflns_threshold_expression     'I > 2\s(I)'
_cod_data_source_file            c5dt04095g2.cif
_cod_data_source_block           transMgdhbqH2O2
_cod_depositor_comments
'Adding full bibliography for 7037876--7037879.cif.'
_cod_database_code               7037878
_shelx_shelxl_version_number     2014/7
_shelx_space_group_comment
;
The symmetry employed for this shelxl refinement is uniquely defined
by the following loop, which should always be used as a source of
symmetry information in preference to the above space-group names.
They are only intended as comments.
;
_shelx_res_file
;

    shelx.res created by SHELXL-2014/7


TITL shelxt_a.res in C2/m
CELL  1.54184   6.8276   7.6461   7.8635   90.000  112.777   90.000
ZERR     2.00   0.0007   0.0007   0.0007    0.000    0.012    0.000
LATT   7
SYMM  - X,   Y, - Z
SFAC  C    H    O    MG
UNIT  12 12 12 2
MERG   2
OMIT     0.00 137.00
FMAP   2
PLAN   20
ACTA
BOND   $H
LIST   6
L.S.  10
TEMP  -143.00
WGHT    0.072500
FVAR       7.01445
MG1   4    0.500000    0.500000    0.500000    10.25000    0.03528    0.01673 =
         0.01242    0.00000    0.01130    0.00000
O2    3    0.499170    0.672144    0.701076    11.00000    0.03929    0.01722 =
         0.01365    0.00048    0.01314    0.00020
O1    3    0.173469    0.500000    0.388515    10.50000    0.03302    0.01714 =
         0.03623    0.00000    0.00967    0.00000
C1    1    0.499348    0.600090    0.846623    11.00000    0.02789    0.01674 =
         0.01656    0.00179    0.00928    0.00042
C2    1    0.500000    0.691354    1.000000    10.50000    0.03539    0.01304 =
         0.01755    0.00000    0.01240    0.00000
AFIX  43
H005  2    0.500000    0.815600    1.000001    10.50000   -1.20000
AFIX   0
H1    2    0.092515    0.409883    0.355757    11.00000    0.03938
HKLF    4

REM  shelxt_a.res in C2/m
REM R1 =  0.0424 for     335 Fo > 4sig(Fo)  and  0.0489 for all     379 data
REM     38 parameters refined using      0 restraints

END

WGHT      0.0723      0.0000

REM Highest difference peak  0.315,  deepest hole -0.377,  1-sigma level  0.076
Q1    1   0.5480  0.6557  0.9442  11.00000  0.05    0.31
Q2    1   0.5845  0.6674  0.4994  11.00000  0.05    0.26
Q3    1   0.5777  0.5000  0.7263  10.50000  0.05    0.25
Q4    1   0.3883  0.5000  0.6846  10.50000  0.05    0.25
Q5    1   0.5797  0.6600  1.0806  11.00000  0.05    0.24
Q6    1   0.4498  0.6055  0.6251  11.00000  0.05    0.22
Q7    1   0.1084  0.3179  0.3526  11.00000  0.05    0.20
Q8    1   0.2647  0.5000  0.8681  10.50000  0.05    0.18
Q9    1   0.2590  0.5000  0.5980  10.50000  0.05    0.17
Q10   1   0.7294  0.5000  0.8473  10.50000  0.05    0.16
Q11   1   0.5727  1.0000  0.9430  10.50000  0.05    0.15
Q12   1   0.0872  0.5000  0.1833  10.50000  0.05    0.15
Q13   1  -0.0009  0.5000  0.4344  10.50000  0.05    0.15
Q14   1   0.2744  0.3181  0.3690  11.00000  0.05    0.15
Q15   1   0.2468  0.4352  0.4651  11.00000  0.05    0.14
Q16   1   0.5752  0.5910  0.6191  11.00000  0.05    0.13
Q17   1   0.5875  1.0000  1.0975  10.50000  0.05    0.13
Q18   1   0.5501  0.5000  0.8821  10.50000  0.05    0.12
Q19   1   0.6002  0.7654  0.7603  11.00000  0.05    0.11
Q20   1   0.1970  0.4521  0.3156  11.00000  0.05    0.11
;
_shelx_res_checksum              47225
_shelx_hkl_file
;
   0   0   1 14191.4 216.920   4
   0   0   2 7792.03 626.270   1
   0   0   2 7041.72 207.760   4
   0   0   3 27643.2 1465.40   2
   0   0   3 28994.8 1507.01   1
   0   0   3 27819.6 500.334   4
   0   0   4 1396.60 408.549   1
   0   0   5 15464.4 1542.72   1
   0   0   6 44033.7 1476.94  10
   0   0   6 45074.9 2831.97   1
   0   0   6 39943.1 1316.87  11
   0   0   7 13663.6 884.402   9
   0   0   7 14021.8 836.409  10
   0   0   8 1629.10 276.135   9
   0   2   0 9414.60 387.568   4
   0   2   1 72688.0 1019.48   4
   0   2   1 73718.6 1775.64   3
   0   2   2 32187.0 1451.66   1
   0   2   2 32123.0 742.393   4
   0   2   3 75247.0 1310.03   4
   0   2   3 73700.2 2625.67   1
   0   2   4 14968.8 1439.94   2
   0   2   4 16273.7 720.573   4
   0   2   4 13604.0 1310.39   1
   0   2   5 1398.84 244.340  11
   0   2   5 1508.07 287.988  10
   0   2   5 1082.80 463.757   2
   0   2   5 1494.28 524.620   1
   0   2   6 538.507 238.940  11
   0   2   6 219.272 369.324   1
   0   2   6 299.674 175.126  10
   0   2   7 12655.0 814.949  10
   0  -2   8 5852.96 505.037   9
   0   4   0 280.169 200.726   3
   0   4   0 103.726 130.203   4
   0   4   1 50498.7 2137.25   3
   0   4   1 44823.3 1312.87   4
   0   4   2 40623.1 1262.37   4
   0   4   2 43429.7 2156.30   1
   0   4   3 220.140 137.842   4
   0   4   3 527.273 329.028   1
   0   4   4 4467.08 849.234   2
   0   4   4 3916.14 806.687   1
   0   4   4 3054.50 431.231   4
   0   4  -4 4292.86 435.464  12
   0   4   5 672.738 477.535   2
   0   4   5 936.726 283.107  11
   0   4   5 156.752 124.803  10
   0   4   5 525.486 212.452   1
   0   4  -5 648.283 187.116  12
   0   4   6 330.966 159.843  10
   0  -4   7 14699.5 783.690   6
   0  -4   7 13751.0 777.185   9
   0  -4   8 4824.57 318.904   9
   0   6   0 66208.0 2115.47  12
   0   6   1 28117.4 1978.90   1
   0   6  -1 29493.5 1373.27  12
   0   6   1 30295.9 1393.23  12
   0   6   2 1825.99 583.721   1
   0   6  -2 1289.56 289.256  12
   0   6  -3 20513.8 1199.58  12
   0   6  -4 14405.2 992.269  12
   0   6  -5 8846.60 707.455  12
   0  -6   5 9870.03 768.124   6
   0  -6   6 810.847 221.289   6
   0  -6   7 26.8638 58.8390   6
   0   8   0 10.8462 133.162  12
   0   8  -1 5868.05 632.237  12
   0   8   1 5768.94 552.767  12
   0   8  -2 4007.78 541.580  12
   0   8  -3 16503.6 1017.96  12
   0   8  -4 2802.11 386.667  12
  -1  -1   9 5376.72 385.412   9
  -1   1   8-0.42688 102.946  10
  -1   1   8 352.269 144.153   9
  -1  -1   7 7749.14 583.200  10
  -1   1   7 6671.93 601.486  10
  -1   1   6 19444.8 966.953  10
  -1   1   6 19665.9 1737.25   1
  -1  -1   6 20157.5 907.586  10
  -1   1   5 25462.2 1787.36   1
  -1   1   5 27667.5 842.622   4
  -1  -1   5 27783.0 1741.40   1
  -1   1   4 22937.8 1469.81   1
  -1  -1   4 24554.3 672.401   4
  -1  -1   4 24198.0 1356.65   1
  -1   1   4 23569.3 744.294   4
  -1   1   3 78141.8 1173.32   4
  -1   1   3 76221.1 2248.96   1
  -1  -1   3 75608.2 1833.36   1
  -1   1   3 76145.8 2228.52   2
  -1  -1   2 12909.2 488.092   1
  -1   1   2 12771.1 685.285   2
  -1   1   1 4252.26 213.080   4
  -1   1   1 4318.46 250.278   2
   1   1   0 221012. 2098.24   1
  -1   1   0 220727. 1201.73   4
   1   1   1 26821.2 1087.87   1
   1   1   1 27041.5 508.844   5
   1   1   2 31390.4 552.058   5
   1   1   2 34049.8 1568.78   1
   1   1   2 32183.0 745.582   4
   1   1   3 2815.88 587.430   1
   1   1   3 2812.96 532.037   2
   1   1   4 6694.76 1015.71   2
   1   1   4 5892.20 961.882   1
   1   1   5 27969.6 2266.75   1
   1   1   5 26975.4 1120.33   9
   1   1   5 27830.8 1195.24  10
   1  -1   5 25712.3 946.707  11
   1   1   5 27891.0 1061.19  11
   1  -1   6 32881.6 1476.86   9
   1  -1   6 33441.5 1147.54  11
   1   1   6 34573.5 1394.18   9
   1   1   6 32986.1 1265.86  11
   1   1   6 31450.1 1341.08  10
   1  -1   7 423.748 213.979   9
   1   1   7 291.462 155.714   9
   1  -1   8 856.114 187.741   9
  -1  -3   9 473.268 116.600   9
  -1  -3   8 4451.38 369.224   6
  -1   3   8 3331.79 356.658  10
  -1   3   7 23638.4 1095.52  10
  -1   3   6 1534.29 282.421  10
  -1   3   6 1559.79 527.452   1
  -1   3   5 1006.50 418.409   1
  -1   3   5 819.609 195.209  10
  -1   3   5 954.958 415.724   2
  -1   3   5 719.740 211.573   4
  -1   3   4 4935.79 441.639   4
  -1   3   4 4556.84 802.541   2
  -1   3   4 4643.20 820.777   1
  -1   3   3 155635. 2126.43   4
  -1   3   3 158964. 3786.09   2
  -1   3   2 135503. 1775.02   4
  -1   3   1 23896.2 702.754   4
  -1   3   0 158769. 2450.96   3
  -1   3   0 157564. 1795.71   4
   1   3   1 312.517 221.765   3
   1   3   1 454.725 219.272   1
   1   3   2 19606.7 535.468   5
   1   3   2 19089.4 1363.31   1
   1   3   2 16648.5 788.000   4
   1   3   3 40545.0 2272.78   1
   1   3   4 437.665 273.872   1
   1   3   4 322.026 140.931  10
   1   3   4 337.601 131.307  11
   1   3   4 654.391 408.807   2
   1   3   5 185.614 140.338  11
   1   3   5 310.103 319.086   1
   1   3   5 76.1897 224.225   2
   1   3   5 227.901 157.145  10
   1   3   6 638.612 242.323  11
   1  -3   6 686.085 216.066   6
   1  -3   6 315.136 143.800   9
   1  -3   7 27794.8 889.407   6
   1  -3   7 28294.9 1136.89   9
   1  -3   8 4111.72 296.056   9
  -1  -5   8-19.1162 50.6013   6
  -1  -5   7-132.354 115.579   9
  -1   5   7 96.3191 96.9942  10
  -1   5   6 542.745 154.770  10
   1   5  -6 498.937 198.749  12
   1   5  -5 14479.8 929.554  12
  -1   5   4 61705.0 3283.86   1
  -1   5   4 63060.3 2000.82   4
   1   5  -4 67500.6 1968.87  12
   1   5  -3 5229.39 520.441  12
  -1   5   3 5303.09 902.578   1
  -1   5   3 4593.97 501.848   4
  -1   5   2 17484.9 940.782   4
   1   5  -2 18962.9 907.448  12
  -1   5   1 23021.5 1090.99   4
   1   5  -1 22030.8 1684.18   3
   1   5   0 10451.5 1216.20   3
   1   5   0 9973.94 942.383   1
   1   5   1 2743.82 553.393   1
   1   5   2 9.79867 160.367   1
  -1   5  -2-11.8150 125.770  12
  -1   5  -3 25336.5 1214.68  12
   1   5   3 25819.1 2002.99   1
  -1   5  -4 35201.2 1431.35  12
   1   5   5 19976.9 821.994  11
   1  -5   5 15773.8 974.346   6
   1  -5   6 4160.38 359.654   9
   1  -5   6 4263.72 442.488   6
   1  -5   7 1283.17 167.011   6
   1   7  -6-5.48944 81.4826  12
  -1  -7   6-164.704 107.572   6
   1   7  -5 9354.86 715.135  12
  -1  -7   5 10570.9 665.163   6
   1   7  -4 7746.90 727.712  12
   1   7  -3 5695.02 625.205  12
   1   7  -2 3682.88 502.200  12
  -1   7   2 3777.63 585.948  12
   1   7  -1 11922.9 863.544  12
  -1   7   1 12227.2 1058.20  12
  -1   7   0 1401.28 372.820  12
   1   7   0 856.805 216.406  12
  -1   7  -1 2480.06 481.668  12
   1  -7   2 734.937 205.160   6
  -1   7  -2 770.636 309.416  12
   1  -7   3 152.102 142.890   6
  -1   7  -3-144.773 200.200  12
  -1   7  -4 2781.17 422.282  12
   1  -7   4 2673.97 353.451   6
   1  -7   5 9642.92 558.183   6
   1   9  -3 23071.7 785.544  12
   1   9  -2 7554.02 472.071  12
  -1   9   1-2.70511 103.038  12
   1   9  -1-3.80400 88.3874  12
  -1   9   0-83.9457 140.416  12
  -1   9  -1 1024.52 245.305  12
  -1   9  -2 825.076 213.131  12
  -2   0   9 5943.35 403.370   9
  -2   0   8 627.145 198.698  10
  -2   0   7 16375.8 902.782  10
  -2   0   6 107752. 3879.08   8
  -2   0   6 105562. 2086.85  10
  -2   0   5 89858.0 2891.20   1
  -2   0   5 92270.4 1774.04   4
  -2   0   4 40018.8 1623.23   1
  -2   0   4 36962.8 1033.21   4
  -2   0   3 22128.6 963.210   1
   2   0  -3 20118.6 494.724   5
   2   0  -2 83038.6 1071.25   5
   2   0  -1 62373.8 978.051   5
   2   0   0 526924. 3806.72   3
   2   0   0 528420. 2929.08   5
   2   0   1 684.033 136.918   5
   2   0   2 1336.16 422.388   1
   2   0   2 1691.90 375.820   2
   2   0   3 5406.23 795.286   2
   2   0   3 5000.60 867.754   1
   2   0   4 19554.6 975.019   9
   2   0   4 20399.4 816.750  11
   2   0   5 16005.1 1008.55   9
   2   0   5 16286.3 839.073  11
   2   0   6 24260.7 1225.71   9
   2   0   6 23190.4 997.926  11
   2   0   7 12325.9 713.073   9
  -2  -2   9 3332.18 347.991   9
  -2   2   9 3047.73 302.069  10
  -2   2   8 5171.94 503.786  10
  -2   2   7 25045.4 1941.73   8
  -2   2   7 24104.1 1137.47  10
  -2   2   6 9455.73 1203.75   1
  -2   2   6 9860.98 634.348   4
  -2   2   6 10205.0 695.266  10
  -2   2   5 8419.78 1068.55   1
  -2   2   5 7834.84 546.723   4
  -2   2   4 468.162 289.918   1
  -2   2   4 158.753 100.801   4
  -2   2   3 75594.8 1395.87   4
  -2   2   2 177.894 86.0985   4
  -2   2   1 1729.90 180.575   4
   2   2   0 23972.7 1017.87   1
  -2   2   0 25088.1 575.514   4
   2   2   0 24864.8 1417.50   3
   2   2   1 12711.5 1088.39   3
   2   2   1 13442.5 527.618   5
   2   2   1 13423.5 984.570   1
   2   2   2 39515.9 2021.37   1
   2   2   2 37268.5 865.793   5
   2   2   3 94544.0 3673.07   1
   2  -2   4 1445.30 269.892   6
   2  -2   4 1053.90 265.300   9
   2   2   4 1443.92 249.942   9
   2   2   4 1215.87 249.367  11
   2   2   4 1677.31 566.740   1
   2   2   4 1035.01 482.178   2
   2  -2   5 1372.93 276.313   6
   2   2   5 1120.63 266.384   9
   2  -2   5 1039.78 304.824   9
   2   2   5 1099.48 233.256  11
   2   2   6 255.730 153.723   9
   2  -2   6 327.932 214.335   9
   2   2   6 383.465 196.282  11
   2  -2   7 2442.80 320.291   9
  -2   4   8 4468.81 377.034  10
   2   4  -7 22283.2 947.182  12
  -2   4   7 22134.5 1003.78  10
  -2   4   6 1737.95 294.889  10
  -2   4   5 4784.91 959.285   1
  -2   4   5 4894.56 529.786   4
  -2   4   5 4552.74 455.659  10
  -2   4   4 20195.4 1847.81   1
  -2   4   4 20785.5 986.091   4
  -2   4   3 373.614 133.007   4
  -2   4   2 11000.2 616.782   4
  -2   4   1 1386.46 223.227   4
   2   4   0 19606.8 1602.28   3
  -2   4   0 23760.4 863.795   4
   2   4   1 12605.0 597.243   5
   2   4   1 11598.9 1282.49   3
   2   4   1 12979.0 1084.09   1
   2   4   2 45153.6 2379.66   1
   2  -4   2 47934.2 1529.84   6
   2   4   3 9569.65 1227.61   1
   2   4   3 9768.56 575.825  11
   2  -4   3 11022.5 796.661   6
   2  -4   4 20362.8 1005.00   9
   2   4   4 20774.3 935.176  11
   2  -4   4 20986.3 1146.73   6
   2  -4   5 812.019 229.543   6
   2  -4   5 835.464 233.976   9
   2   4   5 1072.53 230.488  11
   2  -4   6 254.958 136.816   9
   2  -4   6 399.965 145.005   6
   2   6  -7 265.165 108.097  12
   2   6  -6 6117.67 552.888  12
   2   6  -5 29142.3 1350.27  12
   2   6  -4 34284.3 1477.31  12
   2   6  -3 18271.7 1029.23  12
  -2   6   3 16511.3 1330.44  12
  -2   6   2 994.195 287.793   4
   2   6  -2 1000.82 437.785   3
   2   6  -2 953.871 233.043  12
  -2   6   2 1064.12 419.090  12
  -2   6   1 2555.96 425.672   4
   2   6  -1 2554.94 338.177  12
   2   6  -1 1966.08 567.469   3
  -2   6   1 2538.19 508.208  12
   2   6   0 11041.6 1354.48   3
  -2   6   0 14197.5 1135.36  12
  -2   6  -1 11386.3 1005.26  12
   2  -6   1 12049.5 819.052   6
   2  -6   2 3523.18 474.321   6
  -2   6  -2 2718.92 482.384  12
  -2   6  -3 2357.16 422.716  12
   2  -6   3 3023.23 438.354   6
   2  -6   4 25140.4 1162.85   6
   2  -6   5 10507.1 631.135   6
   2   8  -5 1107.60 207.122  12
   2   8  -4 385.107 171.579  12
   2   8  -3 15258.8 823.105  12
  -2   8   3 13982.7 916.133  12
  -2   8   2 288.765 220.442  12
   2   8  -2 204.679 142.680  12
  -2   8   1 253.613 219.302  12
  -2   8   0 1407.56 361.194  12
  -2   8  -1 2123.50 439.352  12
  -2   8  -2 4409.79 527.716  12
  -2   8  -3 19470.0 859.094  12
  -3   1   9 12993.0 660.175  10
  -3  -1   8 4110.75 391.328  10
  -3   1   8 4539.44 494.455  10
  -3  -1   7 1455.87 270.541  10
  -3   1   7 1406.37 288.355  10
  -3   1   7 1484.99 557.512   8
  -3  -1   6 24455.5 2138.89   8
  -3   1   6 20974.9 1859.94   8
  -3  -1   6 23885.4 1021.82   4
  -3   1   6 21545.5 960.610   4
  -3  -1   6 21798.2 901.110  10
  -3   1   6 21817.1 1016.38  10
  -3   1   5 5861.77 505.716   4
  -3   1   4 1108.35 235.801   4
   3   1  -4 942.957 163.124   5
  -3   1   4 979.408 285.334   1
   3   1  -3 1969.63 235.233   5
   3  -1  -3 1643.36 172.640   5
   3   1  -2-46.3494 99.8179   5
   3  -1  -2 125.440 84.6718   5
   3   1  -1 18999.4 739.753   5
   3  -1  -1 17500.8 655.068   5
   3   1   0 220752. 3842.45   3
   3  -1   0 217704. 2457.38   5
   3   1   0 217636. 2472.34   5
   3   1   1 13207.5 606.566   5
   3   1   2 127.283 106.960   5
   3  -1   3 2292.30 364.093   9
   3   1   3 1927.49 297.693   9
   3  -1   3 2223.02 251.423  11
   3   1   3 2365.67 314.341  11
   3   1   3 2237.88 559.546   2
   3   1   4 98.3924 156.203   9
   3  -1   4 251.289 204.925   9
   3  -1   4-62.6323 90.3993  11
   3   1   4-5.14949 99.8803  11
   3   1   5 1176.12 283.996   9
   3  -1   5 1282.12 330.992   9
   3  -1   5 1388.84 234.285  11
   3   1   5 1274.70 266.136  11
   3  -1   6 7040.91 610.027   9
   3   1   6 7599.35 520.133  11
  -3   3   9 2304.83 244.216  10
  -3   3   8 13034.8 1268.94   8
  -3   3   8 13244.3 761.727  10
  -3   3   7 39332.3 2562.66   8
  -3   3   7 40723.6 1455.33  10
  -3   3   6 989.259 250.215  10
  -3   3   6 797.956 401.215   1
  -3   3   6 984.845 239.480   4
  -3   3   5 7994.65 1174.38   1
  -3   3   5 7230.95 577.673   4
  -3   3   5 7096.86 551.250  10
  -3   3   4 3858.53 392.590   4
  -3   3   3 35724.4 1120.85   4
  -3   3   2 48073.0 1190.91   4
   3   3  -1 31213.3 1038.07   5
  -3   3   1 31154.2 899.876   4
   3   3   0 7461.21 507.047   5
   3   3   0 6263.30 900.164   3
   3   3   1 23238.1 1492.32   1
   3   3   1 21921.5 847.774   5
   3   3   2 30226.2 2000.01   1
   3   3   2 29906.2 1017.94  11
   3  -3   2 30957.8 1279.11   6
   3   3   3 19881.5 1815.92   1
   3  -3   3 19412.9 1018.96   9
   3   3   3 18991.6 892.533  11
   3  -3   3 19354.6 1081.25   6
   3  -3   4 498.378 185.423   9
   3   3   4 444.135 149.175  11
   3  -3   4 814.654 243.919   6
   3  -3   5 1374.83 309.067   9
   3   3   5 1618.83 282.521  11
   3  -3   5 1523.94 280.952   6
   3  -3   6 763.102 193.783   9
   3   3   6 1443.30 216.327  11
  -3   5   8 1038.75 134.227  10
   3   5  -8 1379.86 162.719  12
  -3   5   7 976.648 190.037  10
   3   5  -7 1237.20 243.878  12
  -3   5   6 1205.09 236.453  10
  -3   5   5 4136.95 692.637  12
  -3   5   5 4428.61 428.286  10
  -3   5   4 17538.4 1482.21  12
  -3   5   4 22670.3 1111.94   4
  -3   5   3 22698.5 1602.51  12
  -3   5   3 26853.4 1183.08   4
  -3   5   2 3881.90 651.364  12
  -3   5   2 5173.65 520.732   4
   3   5  -1 20267.5 1855.92   3
  -3   5   1 21160.7 1420.56  12
   3  -5  -1 19960.6 1017.87   6
   3   5   0 25759.7 1041.08   5
   3   5   0 25085.2 2033.78   3
  -3   5   0 24772.5 1448.26  12
   3  -5   0 27720.4 1286.28   6
  -3   5  -1 19524.7 1253.09  12
   3  -5   1 21379.3 1179.70   6
  -3   5  -2 6164.72 676.054  12
   3  -5   2 6731.97 686.400   6
   3   5   3 10828.5 574.960  11
   3  -5   3 11053.5 845.668   6
   3   5   4 10241.1 531.245  11
   3  -5   4 9050.48 709.106   6
   3   5   5 7180.21 375.895  11
   3  -5   5 835.332 179.246   6
   3   7  -6 102.993 111.185  12
   3   7  -5 3481.56 395.430  12
  -3   7   4 448.108 284.996  12
   3   7  -4 290.282 149.122  12
   3   7  -3 5.43346 91.8000  12
  -3   7   3 355.938 336.186  12
  -3   7   2 309.503 328.035  12
   3   7  -2 190.117 108.735  12
  -3   7   1 13306.4 1235.74  12
  -3   7   0 5669.00 754.722  12
  -3   7  -1 11381.3 968.288  12
   3  -7   1 11302.1 712.256   6
  -3   7  -2 490.238 236.702  12
   3  -7   2 761.455 217.725   6
   3  -7   3-88.3907 94.4584   6
  -4   0   9 6856.84 422.933  10
  -4   0   8 131.004 100.068  10
  -4   0   7 32964.1 2685.31   8
  -4   0   7 35558.7 1347.55  10
  -4   0   6 41792.0 2815.19   8
  -4   0   6 42370.4 1561.81   4
  -4   0   6 38369.3 1383.91  10
  -4   0   5 31661.8 2173.11   8
  -4   0   5 31275.0 1314.77   4
   4   0  -4 28823.4 912.472   5
   4   0  -3 6001.43 444.106   5
   4   0  -2 851.204 209.126   5
   4   0  -1 395.027 165.201   5
   4   0   0 134098. 2272.92   5
   4   0   1 2247.11 300.973   5
   4   0   2 4287.91 514.857   9
   4   0   3 28.8369 174.034   9
   4   0   3 182.058 159.879  11
   4   0   4 3273.95 507.246   9
   4   0   4 3155.29 366.433  11
   4   0   5 7391.40 485.145  11
  -4   2   9 3680.73 351.222  10
  -4   2   8 1994.92 326.869  10
  -4   2   8 2704.70 715.081   8
  -4   2   7 6129.50 1160.08   8
  -4   2   7 7249.03 648.239  10
  -4   2   6 96.4199 128.825  10
  -4   2   6 422.587 185.291   4
  -4   2   5 968.681 232.190   4
  -4   2   5 876.244 471.725  12
  -4   2   4 647.644 185.153   4
   4   2  -4 828.874 217.170   5
  -4   2   4 627.340 319.450  12
   4   2  -3 96632.1 2007.54   5
  -4   2   3 100811. 2110.68   4
   4   2  -2 30290.4 1125.30   5
  -4   2   2 33876.5 1149.63   4
   4   2  -1 9841.87 646.650   5
  -4   2   1 11036.0 583.430   4
   4   2  -1 9632.54 1000.91   3
   4   2   0 1903.23 297.477   5
   4  -2   1 87.4281 205.988   9
   4   2   1-67.9644 108.697   5
   4  -2   1 150.411 113.608   6
   4  -2   2 251.126 173.689   9
   4   2   2 152.889 134.327  11
   4  -2   2 344.417 158.804   6
   4  -2   3 12401.0 907.798   9
   4   2   3 12752.9 768.117  11
   4  -2   3 11034.0 772.142   6
   4   2   4-166.798 171.677  11
   4  -2   4 70.4204 99.7727   6
   4   2   5 1177.30 211.373  11
  -4   4   8 1955.31 452.944   8
   4   4  -8 2106.07 262.952  12
  -4   4   8 2151.72 270.474  10
  -4   4   7 5930.89 1060.87   8
  -4   4   7 8605.28 616.021  10
  -4   4   6 350.091 138.630  10
  -4   4   6 198.688 261.485  12
  -4   4   5 215.645 139.212  10
  -4   4   5 393.180 312.603  12
   4   4  -4 19370.8 996.863   5
  -4   4   4 18406.1 933.525   4
   4   4  -3 9100.16 695.844   5
  -4   4   3 9443.26 646.015   4
   4   4  -2 38790.7 1418.90   5
   4   4  -2 36256.4 2405.98   3
  -4   4   2 41653.7 1304.52   4
   4   4  -1 14612.6 867.079   5
   4   4  -1 13177.1 1453.26   3
  -4   4   1 12196.2 1093.68  12
   4  -4  -1 12334.8 907.021   6
   4   4   0 3898.05 439.240   5
  -4   4   0 3320.22 532.903  12
   4  -4   0 3410.43 503.082   6
   4   4   1 659.334 170.713  11
   4  -4   1 660.934 275.527   6
   4   4   2 2879.45 329.063  11
   4  -4   2 2972.30 470.598   6
   4   4   3-200.331 136.407  11
   4  -4   3 368.915 221.157   6
   4   4   4 4640.25 371.951  11
   4  -4   4 3508.76 411.133   6
   4   4   5 954.016 138.330  11
  -4   6   7 604.267 265.741   8
   4   6  -7 384.748 124.639  12
   4   6  -6 295.730 147.667  12
  -4   6   5 9368.64 1012.16  12
   4   6  -5 13176.9 767.297  12
  -4   6   4 25429.4 1866.28  12
   4   6  -4 24577.0 1021.97  12
   4   6  -3 2209.59 304.791  12
  -4   6   3 2658.55 647.762  12
  -4   6   2 3016.32 701.460  12
  -4   6   1 8988.02 1072.09  12
  -4   6   0 5880.53 819.306  12
   4  -6   0 6473.80 643.700   6
  -4   6  -1 1159.13 327.311  12
   4  -6   1 1643.00 331.329   6
   4  -6   2 132.950 146.409   6
   4  -6   3 6667.64 389.999   7
   4  -6   3 6383.40 494.234   6
  -4   8   3 17231.1 1011.84  12
  -4   8   2 3727.74 512.067  12
  -4   8   1 2007.95 388.958  12
  -4   8   0 917.580 239.117  12
  -5   1   9 4472.00 338.067  10
  -5   1   8 1353.51 254.938  10
  -5   1   8 825.796 435.215   8
  -5  -1   7 352.261 139.489  10
  -5   1   7 614.181 230.468  10
  -5   1   7 932.635 635.362   8
  -5   1   6 31611.2 2439.14   8
  -5  -1   6 31196.2 1176.79  10
  -5   1   6 31027.2 1354.99  10
  -5  -1   5 15893.5 1639.99   8
  -5   1   5 18112.2 1708.03   8
   5   1  -5 20799.4 994.720   7
  -5   1   5 22481.1 1200.47   4
   5   1  -4 3665.13 418.758   5
  -5  -1   4 2690.56 698.400   8
   5   1  -4 3731.70 451.764   7
  -5   1   4 3953.78 485.492   4
   5  -1  -4 3347.06 431.761   7
  -5   1   4 2133.20 544.100  12
  -5   1   4 2499.07 613.591   8
   5   1  -3 2615.22 379.261   5
   5  -1  -3 2834.57 345.402   5
   5   1  -3 2871.43 384.648   7
  -5   1   3 2939.87 412.398   4
   5  -1  -3 2884.19 401.678   7
  -5   1   3 1874.04 439.915  12
   5   1  -2 2599.38 398.921   5
   5  -1  -2 2160.11 333.384   5
  -5   1   2 2746.51 365.371   4
   5   1  -2 2138.22 332.509   7
   5  -1  -2 1742.57 295.683   7
   5   1  -1 987.633 259.953   5
   5   1  -1 635.790 215.640   7
   5  -1  -1 785.884 196.672   7
   5   1   0 21460.2 1009.63   5
   5   1   0 19231.9 913.938   7
   5  -1   0 19422.4 970.820   7
   5   1   1 712.539 179.954   5
   5  -1   1 503.320 169.833   7
   5  -1   2 915.118 207.299  11
   5   1   2 1074.19 261.818  11
   5  -1   3 6171.49 441.830  11
   5   1   3 6898.18 538.830  11
   5   1   4 1586.73 230.334  11
  -5   3   9 78.0188 61.8564  10
  -5   3   8 5725.51 889.751   8
  -5   3   8 5605.53 463.115  10
  -5   3   7 31134.8 2331.47   8
  -5   3   7 33568.9 1293.47  10
  -5   3   6 326.202 128.889  10
  -5   3   5 673.376 484.245  12
  -5   3   4 757.464 207.915   4
   5   3  -4 693.036 207.716   5
   5  -3  -4 953.987 265.901   7
   5   3  -3 18997.0 1032.54   5
  -5   3   3 19777.7 937.790   4
   5   3  -2 7352.84 653.830   5
   5   3  -2 6165.23 907.219   3
   5   3  -2 7336.12 619.303   7
   5   3  -1 76.6119 105.650   5
  -5   3   1-57.8447 236.438  12
   5   3  -1 322.044 103.670   7
   5   3   0 13332.1 787.813   5
   5  -3   0 12526.1 937.393   6
   5  -3   1 3137.26 441.530   7
   5   3   1 2815.19 354.209  11
   5  -3   1 2171.36 400.835   6
   5  -3   2 10995.7 730.555   7
   5   3   2 11341.0 659.701  11
   5  -3   2 9180.10 766.637   6
   5   3   3 15550.0 702.334  11
   5   3   4 800.600 140.694  11
  -5   5   7 913.234 459.118   8
   5   5  -7 1044.41 200.932  12
  -5   5   7 1293.95 175.436  10
  -5   5   6 2761.40 292.173  10
  -5   5   5 7158.31 993.855  12
  -5   5   5 9885.23 580.899  10
  -5   5   4 21708.4 1839.55  12
  -5   5   4 22703.7 883.983  10
  -5   5   3 6882.19 1029.25  12
   5  -5  -3 8858.75 725.213   7
  -5   5   2 309.379 296.777  12
  -5   5   1 723.557 358.830  12
  -5   5   0 422.174 235.350  12
   5  -5   0 469.525 219.375   6
   5   5   1 3238.54 275.179  11
   5  -5   1 2587.83 442.969   6
   5  -5   2 4273.51 395.809   7
   5   5   2 4149.99 280.973  11
   5  -5   2 3229.92 406.519   6
  -5   7   4 1505.98 388.292  12
  -5   7   3 388.098 295.321  12
  -5   7   2 254.379 225.402  12
   5  -7  -2 93.0238 108.865   7
  -5   7   1 773.868 278.425  12
   5  -7  -1 803.528 185.365   7
  -5   7   0 39.9154 107.889  12
   5  -7   0 31.0677 95.7609   7
  -6   0   8 1822.38 233.987  10
  -6   0   7 9287.28 619.534  10
  -6   0   6 13522.3 1587.25   8
  -6   0   6 20404.2 1001.54  10
  -6   0   5 3279.23 637.384   8
   6   0  -5 4382.65 494.479   7
   6   0  -4 802.167 257.963   7
   6   0  -3 68.3896 107.794   5
   6   0  -3 162.943 157.843   7
   6   0  -2 452.439 216.692   7
   6   0  -1 647.248 219.350   7
   6   0   0 49198.7 1589.95   7
   6   0   1 1437.58 250.550  11
   6   0   2-101.445 91.5266  11
   6   0   3 58.0653 58.7874  11
  -6   2   8 2792.77 649.669   8
  -6   2   8 4114.69 373.151  10
  -6   2   7 10246.3 1292.17   8
  -6   2   7 7885.52 613.438  10
  -6   2   6 282.924 197.319  10
  -6   2   6 67.0078 345.336   8
  -6   2   5-59.0236 382.824   8
   6  -2  -5 23.6201 151.926   7
  -6   2   4 1227.95 454.971  12
   6   2  -4 2132.40 376.809   7
   6  -2  -4 2301.53 391.233   7
   6   2  -3 9535.50 751.372   7
   6  -2  -3 9191.75 743.586   7
   6   2  -2 2429.98 374.411   7
   6  -2  -2 2382.64 402.969   7
   6   2  -1 4004.83 453.914   7
   6  -2  -1 4000.21 503.053   7
   6   2   0 1023.71 221.779   7
   6  -2   0 698.767 223.745   7
   6  -2   1 3948.93 435.657   7
   6   2   1 4049.95 399.090  11
   6   2   2 1977.84 244.696  11
   6   2   3 4041.40 280.646  11
  -6   4   7 11366.2 1160.17   8
  -6   4   7 8961.36 509.760  10
  -6   4   6 149.904 115.316  10
  -6   4   6 137.167 296.943   8
  -6   4   5 228.903 143.257  10
  -6   4   5 685.637 437.872  12
  -6   4   4 792.553 476.060  12
   6  -4  -4 1268.78 269.607   7
  -6   4   3 132.652 266.246  12
   6  -4  -3 223.277 173.115   7
  -6   4   2 3222.20 653.923  12
   6  -4  -2 5750.69 605.630   7
   6  -4  -1 5875.97 606.044   7
   6  -4   0 85.4356 161.596   7
   6   4   0 219.918 115.331  11
   6  -4   1 4585.22 429.902   7
   6   4   1 5288.65 354.809  11
   6   4   2 4487.17 274.949  11
  -6   6   5 2562.95 418.898   8
  -6   6   4 3718.95 576.731  12
  -6   6   3 4743.60 636.989  12
   6  -6  -3 6358.50 419.447   7
  -6   6   2 90.7737 148.029  12
   6  -6  -2 125.067 111.409   7
   6  -6  -1 4630.53 388.316   7
   6  -6   0 5784.50 364.750   7
  -7   1   7 2562.11 290.888  10
  -7   1   6 4339.36 440.328  10
   7  -1  -5 2940.05 364.713   7
   7   1  -4 1532.55 294.558   7
   7  -1  -4 1400.15 284.453   7
   7   1  -3 4820.91 519.826   7
   7  -1  -3 5194.47 526.443   7
   7   1  -2 778.585 207.333   7
   7  -1  -2 912.096 247.844   7
   7   1  -1 487.631 146.178   7
   7  -1  -1 497.161 198.645   7
   7   1   0 7240.43 453.452   7
   7  -1   0 7267.58 511.451   7
   7  -1   0 7190.21 403.874  11
   7   1   0 7820.09 491.256  11
   7   1   1 208.114 89.2725  11
  -7   3   7 6914.61 415.369  10
  -7   3   6 347.054 129.850  10
  -7   3   6 1271.16 384.117   8
  -7   3   5 244.956 150.792  10
   7  -3  -5 14.7224 80.3578   7
   7  -3  -4 387.850 172.568   7
   7  -3  -3 10782.3 722.408   7
   7  -3  -2 7614.82 609.238   7
   7  -3  -1 2872.54 355.652   7
   7   3  -1 2951.53 294.827  11
   7  -3   0 2524.88 285.447   7
   7   3   0 2606.36 245.046  11
   7   3   1 118.053 64.5838  11
   7  -5  -3 747.249 152.192   7
   7  -5  -2 3048.03 277.180   7
   7  -5  -1 2282.79 213.779   7
  -8   0   5 3341.94 274.460  10
   8   0  -4 1366.89 208.677   7
   8   0  -3 246.476 115.758   7
   8   0  -2 419.856 121.679   7
   8   0  -1 630.289 100.869  11
  -8   2   6 701.417 121.751  10
  -8   2   5 617.949 141.424  10
   8  -2  -5 793.098 131.364   7
   8  -2  -4 151.318 101.756   7
   8  -2  -3 3757.22 320.054   7
   8  -2  -2 178.332 98.3839   7
   8   2  -2-6.06219 67.2289  11
   8   2  -1 48.7710 43.4914  11
   0   0   0    0.00    0.00   0
TITL KW_E111a in C2/m
REM C2/m (#12 in standard setting)
CELL 1.54184   6.827568   7.646132   7.863517  90.0000 112.7770  90.0000
ZERR    4.00   0.000693   0.000653   0.000697   0.0000   0.0115   0.0000
LATT  7
SYMM -x, y,-z
SFAC C H O Mg
UNIT 24.00 40.00 24.00 4.00
TREF
HKLF 4
END
;
_shelx_hkl_checksum              97206
loop_
_space_group_symop_operation_xyz
'x, y, z'
'-x, y, -z'
'x+1/2, y+1/2, z'
'-x+1/2, y+1/2, -z'
'-x, -y, -z'
'x, -y, z'
'-x+1/2, -y+1/2, -z'
'x+1/2, -y+1/2, z'
loop_
_atom_site_label
_atom_site_type_symbol
_atom_site_fract_x
_atom_site_fract_y
_atom_site_fract_z
_atom_site_U_iso_or_equiv
_atom_site_adp_type
_atom_site_occupancy
_atom_site_site_symmetry_order
_atom_site_calc_flag
_atom_site_refinement_flags_posn
_atom_site_refinement_flags_adp
_atom_site_refinement_flags_occupancy
Mg1 Mg 0.5000 0.5000 0.5000 0.0208(5) Uani 1 4 d S T P
O2 O 0.4992(2) 0.6721(2) 0.70108(18) 0.0225(5) Uani 1 1 d . . .
O1 O 0.1735(4) 0.5000 0.3885(3) 0.0299(7) Uani 1 2 d S T P
C1 C 0.4993(3) 0.6001(3) 0.8466(3) 0.0202(6) Uani 1 1 d . . .
C2 C 0.5000 0.6914(4) 1.0000 0.0213(7) Uani 1 2 d S T P
H005 H 0.5000 0.8156 1.0000 0.026 Uiso 1 2 calc R U P
H1 H 0.093(4) 0.410(4) 0.356(4) 0.039(8) Uiso 1 1 d . . .
loop_
_atom_site_aniso_label
_atom_site_aniso_U_11
_atom_site_aniso_U_22
_atom_site_aniso_U_33
_atom_site_aniso_U_23
_atom_site_aniso_U_13
_atom_site_aniso_U_12
Mg1 0.0353(8) 0.0167(8) 0.0124(7) 0.000 0.0113(6) 0.000
O2 0.0393(9) 0.0172(9) 0.0137(8) 0.0005(6) 0.0131(6) 0.0002(6)
O1 0.0330(12) 0.0171(13) 0.0362(14) 0.000 0.0097(10) 0.000
C1 0.0279(11) 0.0167(14) 0.0166(10) 0.0018(8) 0.0093(8) 0.0004(8)
C2 0.0354(15) 0.0130(15) 0.0175(14) 0.000 0.0124(12) 0.000
loop_
_atom_type_symbol
_atom_type_description
_atom_type_scat_dispersion_real
_atom_type_scat_dispersion_imag
_atom_type_scat_source
C C 0.0181 0.0091 'International Tables Vol C Tables 4.2.6.8 and 6.1.1.4'
H H 0.0000 0.0000 'International Tables Vol C Tables 4.2.6.8 and 6.1.1.4'
O O 0.0492 0.0322 'International Tables Vol C Tables 4.2.6.8 and 6.1.1.4'
Mg Mg 0.1719 0.1771 'International Tables Vol C Tables 4.2.6.8 and 6.1.1.4'
loop_
_geom_angle_atom_site_label_1
_geom_angle_atom_site_label_2
_geom_angle_atom_site_label_3
_geom_angle
_geom_angle_site_symmetry_1
_geom_angle_site_symmetry_3
O1 Mg1 O1 180.0 5_666 .
O1 Mg1 O2 90.15(7) 5_666 5_666
O1 Mg1 O2 89.85(7) . 5_666
O1 Mg1 O2 89.85(7) 5_666 .
O1 Mg1 O2 90.15(7) . .
O2 Mg1 O2 180.0 5_666 .
O1 Mg1 O2 89.85(7) 5_666 6_565
O1 Mg1 O2 90.15(7) . 6_565
O2 Mg1 O2 100.53(8) 5_666 6_565
O2 Mg1 O2 79.47(8) . 6_565
O1 Mg1 O2 90.15(7) 5_666 2_656
O1 Mg1 O2 89.85(7) . 2_656
O2 Mg1 O2 79.47(8) 5_666 2_656
O2 Mg1 O2 100.53(8) . 2_656
O2 Mg1 O2 180.0 6_565 2_656
O1 Mg1 C1 89.72(8) 5_666 .
O1 Mg1 C1 90.28(7) . .
O2 Mg1 C1 155.94(7) 5_666 .
O2 Mg1 C1 24.06(7) . .
O2 Mg1 C1 55.41(6) 6_565 .
O2 Mg1 C1 124.59(6) 2_656 .
O1 Mg1 C1 90.28(8) 5_666 5_666
O1 Mg1 C1 89.72(8) . 5_666
O2 Mg1 C1 24.06(7) 5_666 5_666
O2 Mg1 C1 155.94(7) . 5_666
O2 Mg1 C1 124.59(6) 6_565 5_666
O2 Mg1 C1 55.41(6) 2_656 5_666
C1 Mg1 C1 180.0 . 5_666
O1 Mg1 C1 89.72(8) 5_666 6_565
O1 Mg1 C1 90.28(8) . 6_565
O2 Mg1 C1 124.59(6) 5_666 6_565
O2 Mg1 C1 55.41(6) . 6_565
O2 Mg1 C1 24.06(7) 6_565 6_565
O2 Mg1 C1 155.94(7) 2_656 6_565
C1 Mg1 C1 31.35(9) . 6_565
C1 Mg1 C1 148.65(9) 5_666 6_565
O1 Mg1 C1 90.28(8) 5_666 2_656
O1 Mg1 C1 89.72(7) . 2_656
O2 Mg1 C1 55.41(6) 5_666 2_656
O2 Mg1 C1 124.59(6) . 2_656
O2 Mg1 C1 155.94(7) 6_565 2_656
O2 Mg1 C1 24.06(7) 2_656 2_656
C1 Mg1 C1 148.65(10) . 2_656
C1 Mg1 C1 31.35(9) 5_666 2_656
C1 Mg1 C1 180.0 6_565 2_656
C1 O2 Mg1 114.55(14) . .
Mg1 O1 H1 126.5(19) . .
O2 C1 C2 124.2(2) . .
O2 C1 C1 115.71(12) . 6_565
C2 C1 C1 120.09(15) . 6_565
O2 C1 Mg1 41.39(9) . .
C2 C1 Mg1 165.58(18) . .
C1 C1 Mg1 74.33(5) 6_565 .
C1 C2 C1 119.8(3) 2_657 .
C1 C2 H005 120.1 2_657 .
C1 C2 H005 120.1 . .
loop_
_geom_bond_atom_site_label_1
_geom_bond_atom_site_label_2
_geom_bond_distance
_geom_bond_site_symmetry_2
Mg1 O1 2.056(2) 5_666
Mg1 O1 2.056(2) .
Mg1 O2 2.0590(14) 5_666
Mg1 O2 2.0590(14) .
Mg1 O2 2.0590(14) 6_565
Mg1 O2 2.0590(14) 2_656
Mg1 C1 2.833(2) .
Mg1 C1 2.833(2) 5_666
Mg1 C1 2.833(2) 6_565
Mg1 C1 2.833(2) 2_656
O2 C1 1.270(3) .
O1 H1 0.86(3) .
C1 C2 1.392(3) .
C1 C1 1.531(5) 6_565
C2 C1 1.392(3) 2_657
C2 H005 0.9500 .
