#------------------------------------------------------------------------------
#$Date: 2016-08-07 12:05:20 +0300 (Sun, 07 Aug 2016) $
#$Revision: 185431 $
#$URL: file:///home/coder/svn-repositories/cod/cif/7/03/90/7039066.cif $
#------------------------------------------------------------------------------
#
# This file is available in the Crystallography Open Database (COD),
# http://www.crystallography.net/
#
# All data on this site have been placed in the public domain by the
# contributors.
#
data_7039066
loop_
_publ_author_name
'Haiges, Ralf'
'Baxter, Amanda F.'
'Goetz, Nadine R.'
'Axhausen, Joachim A.'
'Soltner, Theresa'
'Kornath, Andreas'
'Christe, Karl O.'
_publ_section_title
;
 Protonation of nitriles: isolation and characterization of alkyl- and
 arylnitrilium ions.
;
_journal_issue                   20
_journal_name_full
'Dalton transactions (Cambridge, England : 2003)'
_journal_page_first              8494
_journal_page_last               8499
_journal_paper_doi               10.1039/c6dt01301e
_journal_volume                  45
_journal_year                    2016
_chemical_formula_sum            'C2 H4 As F6 N'
_chemical_formula_weight         230.98
_space_group_crystal_system      monoclinic
_space_group_IT_number           4
_space_group_name_Hall           'P 2yb'
_space_group_name_H-M_alt        'P 1 21 1'
_symmetry_space_group_name_Hall  'P 2yb'
_symmetry_space_group_name_H-M   'P 1 21 1'
_atom_sites_solution_hydrogens   mixed
_audit_update_record
;
2016-03-21 deposited with the CCDC.
2016-04-18 downloaded from the CCDC.
;
_cell_angle_alpha                90
_cell_angle_beta                 92.267(2)
_cell_angle_gamma                90
_cell_formula_units_Z            2
_cell_length_a                   5.2169(6)
_cell_length_b                   6.5905(7)
_cell_length_c                   9.3342(10)
_cell_measurement_reflns_used    213
_cell_measurement_temperature    100.(2)
_cell_measurement_theta_max      30.6447
_cell_measurement_theta_min      4.9821
_cell_volume                     320.68(6)
_computing_cell_refinement       'APEX2 v2014.11-0 (Bruker AXS, 2014)'
_computing_data_collection
'Bruker Instrument Service v2012.12.0.3 (Bruker AXS, 2012)'
_computing_data_reduction        'SAINT V8.34A (Bruker AXS, 2013)'
_computing_molecular_graphics    'shelXle (C.B. Huebschle, rev 740)'
_computing_publication_material  'SHELXTL XT 2014/4 (Bruker AXS, 2014)'
_computing_structure_refinement  'SHELXTL XL 2014/7 (Bruker AXS, 2014)'
_computing_structure_solution    'SHELXTL XT 2014/4 (Bruker AXS, 2014)'
_diffrn_ambient_temperature      100.(2)
_diffrn_measured_fraction_theta_full 0.992
_diffrn_measured_fraction_theta_max 0.992
_diffrn_measurement_device_type  'Bruker APEX II CCD'
_diffrn_measurement_method       'omega- and phi-scans'
_diffrn_radiation_monochromator  'TRIUMPH curved-crystal'
_diffrn_radiation_type           'MoK\a '
_diffrn_radiation_wavelength     0.71073
_diffrn_reflns_av_R_equivalents  0.0268
_diffrn_reflns_av_unetI/netI     0.0230
_diffrn_reflns_limit_h_max       7
_diffrn_reflns_limit_h_min       -7
_diffrn_reflns_limit_k_max       9
_diffrn_reflns_limit_k_min       -9
_diffrn_reflns_limit_l_max       13
_diffrn_reflns_limit_l_min       -13
_diffrn_reflns_number            6612
_diffrn_reflns_theta_full        30.52
_diffrn_reflns_theta_max         30.52
_diffrn_reflns_theta_min         2.18
_diffrn_source                   'fine-focus tube'
_exptl_absorpt_coefficient_mu    5.347
_exptl_absorpt_correction_T_max  0.746
_exptl_absorpt_correction_T_min  0.338
_exptl_absorpt_correction_type   multi-scan
_exptl_absorpt_process_details   'SADABS 2014/5 (Bruker AXS, 2014)'
_exptl_crystal_colour            'clear colourless'
_exptl_crystal_density_diffrn    2.392
_exptl_crystal_density_method    'not measured'
_exptl_crystal_description       prism
_exptl_crystal_F_000             220
_exptl_crystal_recrystallization_method 'Re-crystallisation from solvent'
_exptl_crystal_size_max          0.230
_exptl_crystal_size_mid          0.130
_exptl_crystal_size_min          0.110
_refine_diff_density_max         0.243
_refine_diff_density_min         -1.040
_refine_ls_abs_structure_details
;

Refined as a perfect inversion twin.
;
_refine_ls_abs_structure_Flack   0.500000
_refine_ls_extinction_method     none
_refine_ls_goodness_of_fit_ref   1.122
_refine_ls_hydrogen_treatment    mixed
_refine_ls_matrix_type           full
_refine_ls_number_parameters     95
_refine_ls_number_reflns         1927
_refine_ls_number_restraints     1
_refine_ls_restrained_S_all      1.121
_refine_ls_R_factor_all          0.0173
_refine_ls_R_factor_gt           0.0169
_refine_ls_shift/su_max          0.001
_refine_ls_shift/su_mean         0.000
_refine_ls_structure_factor_coef Fsqd
_refine_ls_weighting_details
'w=1/[\s^2^(Fo^2^)+(0.0234P)^2^+0.0179P] where P=(Fo^2^+2Fc^2^)/3'
_refine_ls_weighting_scheme      calc
_refine_ls_wR_factor_gt          0.0426
_refine_ls_wR_factor_ref         0.0427
_reflns_number_gt                1908
_reflns_number_total             1927
_reflns_threshold_expression     'I > 2\s(I)'
_cod_data_source_file            c6dt01301e2.cif
_cod_data_source_block           MeCNHAsF6
_cod_depositor_comments
'Adding full bibliography for 7039066--7039073.cif.'
_cod_database_code               7039066
_shelx_res_file
;


    mo_MeCF2NH3AsF6_0m_c.res created by SHELXL-2014/7


TITL mo_MeCF2NH3AsF6_0m_c.res in P2(1)
CELL  0.71073   5.2169   6.5905   9.3342   90.000   92.267   90.000
ZERR    2.000   0.0006   0.0007   0.0010    0.000    0.002    0.000
LATT -1
SYMM -X, 1/2+Y, -Z
SFAC C H N F AS
UNIT 4 8 2 12 2
TEMP -173.160
L.S. 10
ACTA 55
CONF
BOND $H
LIST 4
FMAP 2
PLAN 20
TWIN
WGHT    0.023400    0.017900
FVAR       1.02470
MOLE 1
C1    1   -0.018493    0.479238    0.718725    11.00000    0.01538    0.01221 =
         0.01644    0.00262    0.00190    0.00081
C2    1    0.101964    0.507876    0.859873    11.00000    0.01978    0.01797 =
         0.01297    0.00175   -0.00317   -0.00188
AFIX 137
H2A   2    0.260048    0.427664    0.867993    11.00000   -1.50000
H2B   2   -0.015614    0.463548    0.932982    11.00000   -1.50000
H2C   2    0.142904    0.651778    0.874079    11.00000   -1.50000
AFIX   0
N1    3   -0.112885    0.457033    0.610174    11.00000    0.01960    0.01683 =
         0.01392   -0.00002   -0.00110   -0.00075
H1    2   -0.185847    0.432041    0.535992    11.00000   -1.20000
MOLE 2
F1    4    0.653364    0.332788    0.367899    11.00000    0.02203    0.01959 =
         0.01439    0.00262   -0.00396    0.00401
F2    4    0.312076    0.668523    0.145057    11.00000    0.02386    0.01970 =
         0.01511    0.00036   -0.00415    0.00671
F3    4    0.608270    0.698581    0.354435    11.00000    0.02364    0.01740 =
         0.01772   -0.00649   -0.00208   -0.00339
F4    4    0.733991    0.505846    0.144665    11.00000    0.01924    0.02565 =
         0.01788    0.00290    0.00759   -0.00264
F5    4    0.357260    0.295937    0.161217    11.00000    0.02394    0.01649 =
         0.02024   -0.00465   -0.00680   -0.00337
F6    4    0.227501    0.485811    0.368018    11.00000    0.01653    0.02748 =
         0.02045    0.00295    0.00722    0.00024
AS1   5    0.477924    0.500558    0.254711    11.00000    0.01088    0.01240 =
         0.00799   -0.00047   -0.00059   -0.00077
HKLF 4

REM  mo_MeCF2NH3AsF6_0m_c.res in P2(1)
REM R1 =  0.0169 for    1908 Fo > 4sig(Fo)  and  0.0173 for all    1927 data
REM     95 parameters refined using      1 restraints

END

WGHT      0.0234      0.0179

REM Highest difference peak  0.243,  deepest hole -1.040,  1-sigma level  0.112
Q1    1  -0.0067  0.2574  0.8816  11.00000  0.05    0.24
Q2    1  -0.0154  0.2555  0.9833  11.00000  0.05    0.24
Q3    1   0.0143  0.2763  0.5986  11.00000  0.05    0.24
Q4    1  -0.0331  0.7429  0.9614  11.00000  0.05    0.24
Q5    1  -0.0355  0.6596  0.4277  11.00000  0.05    0.24
Q6    1  -0.0633  0.6716  1.0449  11.00000  0.05    0.23
Q7    1   0.9695  0.2210  0.3868  11.00000  0.05    0.23
Q8    1   0.8477  0.5875  0.3149  11.00000  0.05    0.22
Q9    1   0.9194  0.6939  0.3534  11.00000  0.05    0.22
Q10   1   0.0739  0.8179  0.9509  11.00000  0.05    0.22
Q11   1   0.8383  0.4039  0.3055  11.00000  0.05    0.22
Q12   1  -0.0021  0.7455  0.8889  11.00000  0.05    0.21
Q13   1  -0.0701  0.2214  0.4917  11.00000  0.05    0.21
Q14   1   0.1127  0.3326  0.0777  11.00000  0.05    0.21
Q15   1   0.1227  0.2544  0.4210  11.00000  0.05    0.20
Q16   1   0.9331  0.3197  0.3561  11.00000  0.05    0.20
Q17   1   0.0658  0.2256  0.4808  11.00000  0.05    0.19
Q18   1  -0.0446  0.6192  0.8898  11.00000  0.05    0.19
Q19   1   0.3706  0.7543  0.8382  11.00000  0.05    0.19
Q20   1   0.2659  0.2467  0.8176  11.00000  0.05    0.19
;
_shelx_res_checksum              2819
_solvent_exptl_crystal_recrystallization_method HF
loop_
_space_group_symop_operation_xyz
'x, y, z'
'-x, y+1/2, -z'
loop_
_atom_site_type_symbol
_atom_site_label
_atom_site_fract_x
_atom_site_fract_y
_atom_site_fract_z
_atom_site_U_iso_or_equiv
_atom_site_adp_type
_atom_site_calc_flag
_atom_site_refinement_flags_adp
_atom_site_refinement_flags_posn
_atom_site_occupancy
C C1 -0.0185(4) 0.4792(5) 0.7187(3) 0.0146(5) Uani d . . 1
C C2 0.1020(4) 0.5079(7) 0.8599(2) 0.0170(4) Uani d . . 1
H H2A 0.26 0.4277 0.868 0.026 Uiso calc U R 1
H H2B -0.0156 0.4635 0.933 0.026 Uiso calc U R 1
H H2C 0.1429 0.6518 0.8741 0.026 Uiso calc U R 1
N N1 -0.1129(4) 0.4570(4) 0.6102(2) 0.0168(5) Uani d . . 1
H H1 -0.186(6) 0.432(5) 0.536(3) 0.02 Uiso d U . 1
F F1 0.6534(6) 0.3328(4) 0.3679(4) 0.0188(6) Uani d . . 1
F F2 0.3121(5) 0.6685(4) 0.1451(4) 0.0197(5) Uani d . . 1
F F3 0.6083(6) 0.6986(4) 0.3544(4) 0.0197(5) Uani d . . 1
F F4 0.7340(2) 0.5058(8) 0.14466(14) 0.0207(3) Uani d . . 1
F F5 0.3573(6) 0.2959(4) 0.1612(4) 0.0204(6) Uani d . . 1
F F6 0.2275(3) 0.4858(8) 0.36802(16) 0.0213(5) Uani d . . 1
As As1 0.47792(3) 0.50056(15) 0.25471(2) 0.01045(7) Uani d . . 1
loop_
_atom_site_aniso_label
_atom_site_aniso_U_11
_atom_site_aniso_U_22
_atom_site_aniso_U_33
_atom_site_aniso_U_12
_atom_site_aniso_U_13
_atom_site_aniso_U_23
C1 0.0154(8) 0.0122(16) 0.0164(9) 0.0008(10) 0.0019(7) 0.0026(12)
C2 0.0198(8) 0.0180(10) 0.0130(9) -0.0019(18) -0.0032(7) 0.0018(15)
N1 0.0196(9) 0.0168(15) 0.0139(9) -0.0008(7) -0.0011(7) 0.0000(7)
F1 0.0220(11) 0.0196(11) 0.0144(11) 0.0040(8) -0.0040(8) 0.0026(8)
F2 0.0239(12) 0.0197(11) 0.0151(9) 0.0067(9) -0.0042(9) 0.0004(8)
F3 0.0236(12) 0.0174(10) 0.0177(10) -0.0034(8) -0.0021(9) -0.0065(8)
F4 0.0192(5) 0.0256(8) 0.0179(6) -0.0026(15) 0.0076(5) 0.0029(15)
F5 0.0239(11) 0.0165(11) 0.0202(13) -0.0034(8) -0.0068(8) -0.0046(9)
F6 0.0165(5) 0.0275(14) 0.0205(6) 0.0002(11) 0.0072(5) 0.0030(12)
As1 0.01088(10) 0.01240(10) 0.00799(11) -0.0008(2) -0.00059(6) -0.00047(13)
loop_
_atom_type_symbol
_atom_type_description
_atom_type_scat_dispersion_real
_atom_type_scat_dispersion_imag
_atom_type_scat_source
C C 0.0033 0.0016 'International Tables Vol C Tables 4.2.6.8 and 6.1.1.4'
H H 0.0000 0.0000 'International Tables Vol C Tables 4.2.6.8 and 6.1.1.4'
N N 0.0061 0.0033 'International Tables Vol C Tables 4.2.6.8 and 6.1.1.4'
F F 0.0171 0.0103 'International Tables Vol C Tables 4.2.6.8 and 6.1.1.4'
As As 0.0499 2.0058 'International Tables Vol C Tables 4.2.6.8 and 6.1.1.4'
loop_
_geom_angle_atom_site_label_1
_geom_angle_atom_site_label_2
_geom_angle_atom_site_label_3
_geom_angle
N1 C1 C2 179.6(2)
C1 C2 H2A 109.5
C1 C2 H2B 109.5
H2A C2 H2B 109.5
C1 C2 H2C 109.5
H2A C2 H2C 109.5
H2B C2 H2C 109.5
C1 N1 H1 175.(2)
F5 As1 F6 89.77(18)
F5 As1 F4 89.43(18)
F6 As1 F4 177.5(3)
F5 As1 F2 92.15(9)
F6 As1 F2 91.49(16)
F4 As1 F2 90.91(15)
F5 As1 F3 177.14(19)
F6 As1 F3 90.21(18)
F4 As1 F3 90.46(18)
F2 As1 F3 90.72(19)
F5 As1 F1 89.03(17)
F6 As1 F1 89.14(16)
F4 As1 F1 88.48(17)
F2 As1 F1 178.66(17)
F3 As1 F1 88.10(9)
loop_
_geom_bond_atom_site_label_1
_geom_bond_atom_site_label_2
_geom_bond_distance
C1 N1 1.119(3)
C1 C2 1.449(3)
C2 H2A 0.98
C2 H2B 0.98
C2 H2C 0.98
N1 H1 0.79(3)
F1 As1 1.761(3)
F2 As1 1.718(3)
F3 As1 1.727(3)
F4 As1 1.7174(12)
F5 As1 1.713(3)
F6 As1 1.7158(13)
