#------------------------------------------------------------------------------
#$Date: 2016-08-07 12:09:04 +0300 (Sun, 07 Aug 2016) $
#$Revision: 185451 $
#$URL: file:///home/coder/svn-repositories/cod/cif/7/03/91/7039127.cif $
#------------------------------------------------------------------------------
#
# This file is available in the Crystallography Open Database (COD),
# http://www.crystallography.net/
#
# All data on this site have been placed in the public domain by the
# contributors.
#
data_7039127
loop_
_publ_author_name
'Marshall, Kayleigh L.'
'Wang, Qianlong'
'Sullivan, Hannah S. I.'
'Weller, Mark T.'
_publ_section_title
;
 Synthesis and structural characterisation of transition metal fluoride
 sulfates.
;
_journal_issue                   21
_journal_name_full
'Dalton transactions (Cambridge, England : 2003)'
_journal_page_first              8854
_journal_page_last               8861
_journal_paper_doi               10.1039/c6dt00582a
_journal_volume                  45
_journal_year                    2016
_chemical_formula_sum            'C10 H10 F4 N2 O4 S Ti'
_chemical_formula_weight         378.16
_chemical_name_systematic
;
 ?
;
_space_group_crystal_system      triclinic
_space_group_IT_number           2
_space_group_name_Hall           '-P 1'
_space_group_name_H-M_alt        'P -1'
_symmetry_space_group_name_Hall  '-P 1'
_symmetry_space_group_name_H-M   'P -1'
_atom_sites_solution_hydrogens   difmap
_audit_creation_method           SHELXL-2013
_audit_update_record
;
2016-02-08 deposited with the CCDC.
2016-04-22 downloaded from the CCDC.
;
_cell_angle_alpha                68.56(2)
_cell_angle_beta                 84.30(2)
_cell_angle_gamma                81.59(2)
_cell_formula_units_Z            2
_cell_length_a                   8.691(2)
_cell_length_b                   9.208(2)
_cell_length_c                   9.288(2)
_cell_measurement_reflns_used    1482
_cell_measurement_temperature    150(2)
_cell_measurement_theta_max      27.1310
_cell_measurement_theta_min      3.8520
_cell_volume                     683.6(3)
_computing_cell_refinement
;
CrysAlisPro, Agilent Technologies,
Version 1.171.37.33 (release 27-03-2014 CrysAlis171 .NET)
(compiled Mar 27 2014,17:12:48)
;
_computing_data_collection
;
CrysAlisPro, Agilent Technologies,
Version 1.171.37.33 (release 27-03-2014 CrysAlis171 .NET)
(compiled Mar 27 2014,17:12:48)
;
_computing_data_reduction
;
CrysAlisPro, Agilent Technologies,
Version 1.171.37.33 (release 27-03-2014 CrysAlis171 .NET)
(compiled Mar 27 2014,17:12:48)
;
_computing_structure_refinement  'SHELXL-2013 (Sheldrick, 2013)'
_computing_structure_solution    'SHELXS-2013 (Sheldrick, 2013)'
_diffrn_ambient_temperature      150(2)
_diffrn_detector_area_resol_mean 16.1468
_diffrn_measured_fraction_theta_full 0.998
_diffrn_measured_fraction_theta_max 0.838
_diffrn_measurement_device_type  'New Xcalibur , EosS2'
_diffrn_measurement_method       '\w scans'
_diffrn_radiation_type           MoK\a
_diffrn_radiation_wavelength     0.71073
_diffrn_reflns_av_R_equivalents  0.0541
_diffrn_reflns_av_unetI/netI     0.1188
_diffrn_reflns_Laue_measured_fraction_full 0.998
_diffrn_reflns_Laue_measured_fraction_max 0.838
_diffrn_reflns_limit_h_max       11
_diffrn_reflns_limit_h_min       -11
_diffrn_reflns_limit_k_max       12
_diffrn_reflns_limit_k_min       -10
_diffrn_reflns_limit_l_max       11
_diffrn_reflns_limit_l_min       -9
_diffrn_reflns_number            5816
_diffrn_reflns_point_group_measured_fraction_full 0.998
_diffrn_reflns_point_group_measured_fraction_max 0.838
_diffrn_reflns_theta_full        25.242
_diffrn_reflns_theta_max         29.303
_diffrn_reflns_theta_min         3.315
_diffrn_source                   'Enhance (Mo) X-ray Source'
_exptl_absorpt_coefficient_mu    0.845
_exptl_absorpt_correction_T_max  1.00000
_exptl_absorpt_correction_T_min  0.91585
_exptl_absorpt_correction_type   multi-scan
_exptl_absorpt_process_details
;
CrysAlisPro, Agilent Technologies,
Version 1.171.37.33 (release 27-03-2014 CrysAlis171 .NET)
(compiled Mar 27 2014,17:12:48)
Empirical absorption correction using spherical harmonics,
 implemented in SCALE3 ABSPACK scaling algorithm.
;
_exptl_crystal_colour            Colourless
_exptl_crystal_density_diffrn    1.837
_exptl_crystal_description       Prism
_exptl_crystal_F_000             380
_exptl_crystal_size_max          0.06
_exptl_crystal_size_mid          0.04
_exptl_crystal_size_min          0.03
_refine_diff_density_max         0.614
_refine_diff_density_min         -0.914
_refine_diff_density_rms         0.133
_refine_ls_extinction_method     none
_refine_ls_goodness_of_fit_ref   1.045
_refine_ls_hydrogen_treatment    refall
_refine_ls_matrix_type           full
_refine_ls_number_parameters     239
_refine_ls_number_reflns         3133
_refine_ls_number_restraints     0
_refine_ls_restrained_S_all      1.045
_refine_ls_R_factor_all          0.1027
_refine_ls_R_factor_gt           0.0581
_refine_ls_shift/su_max          0.026
_refine_ls_shift/su_mean         0.004
_refine_ls_structure_factor_coef Fsqd
_refine_ls_weighting_details
'w=1/[\s^2^(Fo^2^)+(0.0368P)^2^] where P=(Fo^2^+2Fc^2^)/3'
_refine_ls_weighting_scheme      calc
_refine_ls_wR_factor_gt          0.1043
_refine_ls_wR_factor_ref         0.1282
_reflns_Friedel_coverage         0.000
_reflns_number_gt                2094
_reflns_number_total             3133
_reflns_threshold_expression     'I > 2\s(I)'
_cod_data_source_file            c6dt00582a2.cif
_cod_data_source_block           shelx
_cod_depositor_comments
'Adding full bibliography for 7039123--7039127.cif.'
_cod_database_code               7039127
_shelx_space_group_comment
;
The symmetry employed for this shelxl refinement is uniquely defined
by the following loop, which should always be used as a source of
symmetry information in preference to the above space-group names.
They are only intended as comments.
;
_shelxl_version_number           2013-4
_shelx_res_file
;
TITL e14mtw43 in P-1
CELL  0.71073   8.6907   9.2083   9.2885   68.560   84.302   81.588
ZERR     2.00   0.0022   0.0021   0.0024    0.023    0.022    0.021
LATT   1
SFAC  C    H    N    O    F    S    TI
UNIT  20   20   4    8    8    2    2
MERG   2
FMAP   2
PLAN   20
BOND
ACTA
L.S.   4
WGHT    0.036800
FVAR       2.24114
C1    1    0.515924    0.278724    0.007619    11.00000    0.01234    0.01598 =
         0.01424   -0.00721   -0.00053   -0.00220
C2    1    0.410137    0.177193    0.124660    11.00000    0.01685    0.01817 =
         0.01215   -0.00623    0.00418   -0.00707
C3    1    0.249999    0.202665    0.112332    11.00000    0.01741    0.01581 =
         0.01643   -0.00102   -0.00325   -0.00307
C4    1    0.157332    0.105484    0.221918    11.00000    0.01456    0.02165 =
         0.02113   -0.00470    0.00053   -0.00322
C5    1    0.374169   -0.043438    0.357692    11.00000    0.01709    0.01795 =
         0.02263   -0.00170   -0.00236    0.00031
C6    1    0.470900    0.052527    0.251946    11.00000    0.01322    0.02547 =
         0.02296   -0.00577    0.00343   -0.00412
C7    1    0.657346    0.303535    0.047440    11.00000    0.01529    0.02442 =
         0.01419   -0.00435   -0.00159   -0.00613
C8    1    0.476646    0.349562   -0.145080    11.00000    0.01748    0.02592 =
         0.01637   -0.00588    0.00003   -0.01098
C9    1    0.575212    0.441545   -0.254171    11.00000    0.01983    0.02784 =
         0.01156   -0.00244   -0.00158   -0.00724
C10   1    0.753841    0.395189   -0.064496    11.00000    0.01329    0.02702 =
         0.02122   -0.01053    0.00238   -0.00801
N1    3    0.221218   -0.014183    0.340254    11.00000    0.01914    0.01560 =
         0.01680    0.00017    0.00673   -0.00525
N2    3    0.710905    0.461370   -0.210155    11.00000    0.01930    0.01949 =
         0.01571   -0.00689    0.00858   -0.00914
O1    4    0.186891    0.463951    0.603318    11.00000    0.01167    0.01654 =
         0.01819   -0.00770   -0.00098   -0.00427
O5    4   -0.055213    0.632887    0.602234    11.00000    0.00430    0.01607 =
         0.01240   -0.00232   -0.00171    0.00122
O7    4    0.086528    0.521454    0.832021    11.00000    0.02024    0.02131 =
         0.00991   -0.00078   -0.00384   -0.00354
O8    4    0.191459    0.721768    0.608175    11.00000    0.01952    0.01594 =
         0.01781   -0.00446   -0.00158   -0.00813
F1    5    0.330088    0.250515    0.499560    11.00000    0.01270    0.02080 =
         0.01991   -0.00540    0.00283    0.00011
F2    5    0.229250    0.156690    0.798978    11.00000    0.02742    0.02503 =
         0.01240   -0.00201   -0.00630   -0.00268
F3    5    0.107067    0.064183    0.601500    11.00000    0.02352    0.01497 =
         0.02347   -0.00661    0.00123   -0.00344
F4    5   -0.051870    0.279610    0.696097    11.00000    0.01431    0.02107 =
         0.02031   -0.00701    0.00243   -0.00293
S1    6    0.105568    0.586748    0.664922    11.00000    0.01531    0.01289 =
         0.01006   -0.00280   -0.00092   -0.00506
TI1   7    0.142557    0.249490    0.613237    11.00000    0.01327    0.01299 =
         0.01168   -0.00315   -0.00002   -0.00303
H1    2    0.844565    0.415546   -0.033081    11.00000    0.02980
H2    2    0.684679    0.261383    0.150150    11.00000    0.01879
H3    2    0.565849    0.037848    0.253799    11.00000    0.01181
H4    2    0.414006   -0.135394    0.450959    11.00000    0.03677
H5    2    0.163938   -0.071539    0.412067    11.00000    0.00767
H6    2    0.048118    0.124610    0.224730    11.00000    0.00950
H7    2    0.211533    0.284020    0.034258    11.00000    0.00000
H8    2    0.388503    0.338047   -0.175143    11.00000    0.01612
H9    2    0.555435    0.505650   -0.372117    11.00000    0.01132
H10   2    0.777534    0.500237   -0.267286    11.00000    0.04137
HKLF    4

REM  e14mtw43 in P-1
REM R1 =  0.0581 for    2094 Fo > 4sig(Fo)  and  0.1027 for all    3133 data
REM    239 parameters refined using      0 restraints

END

WGHT      0.0399      0.0000

REM Highest difference peak  0.614,  deepest hole -0.914,  1-sigma level  0.133
Q1    1   0.1312  0.1380  0.6197  11.00000  0.05    0.61
Q2    1   0.1060  0.2848  0.5190  11.00000  0.05    0.59
Q3    1   0.0842  0.3106  0.6676  11.00000  0.05    0.55
Q4    1   0.1783  0.2022  0.7224  11.00000  0.05    0.54
Q5    1   0.1349  0.5533  0.7638  11.00000  0.05    0.54
Q6    1   0.1301  0.6988  0.5586  11.00000  0.05    0.52
Q7    1   0.1237  0.7049  0.6698  11.00000  0.05    0.52
Q8    1   0.1780  0.5475  0.6094  11.00000  0.05    0.50
Q9    1  -0.1003  0.7734  0.6204  11.00000  0.05    0.49
Q10   1  -0.1558  0.6644  0.5198  11.00000  0.05    0.48
Q11   1   0.0270  0.2129  0.6938  11.00000  0.05    0.48
Q12   1   0.1748  0.1409  0.5324  11.00000  0.05    0.47
Q13   1   0.1521  0.3706  0.6712  11.00000  0.05    0.46
Q14   1   0.5050  0.4965 -0.0955  11.00000  0.05    0.46
Q15   1   0.5655  0.3654  0.1233  11.00000  0.05    0.46
Q16   1   0.2288  0.6838  0.6931  11.00000  0.05    0.45
Q17   1   0.5000  0.5000  0.0000  10.50000  0.05    0.45
Q18   1   0.3006  0.1775  0.1927  11.00000  0.05    0.45
Q19   1  -0.1666  0.7178  0.7273  11.00000  0.05    0.44
Q20   1   0.0427  0.1010  0.5438  11.00000  0.05    0.44
;
_shelx_res_checksum              72402
loop_
_space_group_symop_operation_xyz
'x, y, z'
'-x, -y, -z'
loop_
_atom_site_label
_atom_site_type_symbol
_atom_site_fract_x
_atom_site_fract_y
_atom_site_fract_z
_atom_site_U_iso_or_equiv
_atom_site_adp_type
_atom_site_occupancy
_atom_site_site_symmetry_order
_atom_site_calc_flag
C1 C 0.5159(4) 0.2787(5) 0.0076(5) 0.0136(9) Uani 1 1 d
C2 C 0.4101(5) 0.1772(5) 0.1247(5) 0.0153(10) Uani 1 1 d
C3 C 0.2500(5) 0.2027(5) 0.1123(6) 0.0176(10) Uani 1 1 d
C4 C 0.1573(5) 0.1055(5) 0.2219(6) 0.0199(11) Uani 1 1 d
C5 C 0.3742(5) -0.0434(5) 0.3577(6) 0.0209(11) Uani 1 1 d
C6 C 0.4709(6) 0.0525(5) 0.2519(6) 0.0215(11) Uani 1 1 d
C7 C 0.6573(5) 0.3035(5) 0.0474(6) 0.0182(10) Uani 1 1 d
C8 C 0.4766(5) 0.3496(5) -0.1451(6) 0.0196(11) Uani 1 1 d
C9 C 0.5752(5) 0.4415(5) -0.2542(6) 0.0205(11) Uani 1 1 d
C10 C 0.7538(5) 0.3952(5) -0.0645(6) 0.0196(10) Uani 1 1 d
N1 N 0.2212(4) -0.0142(4) 0.3403(5) 0.0191(9) Uani 1 1 d
N2 N 0.7109(4) 0.4614(4) -0.2102(5) 0.0179(9) Uani 1 1 d
O1 O 0.1869(3) 0.4640(3) 0.6033(3) 0.0147(7) Uani 1 1 d
O5 O -0.0552(3) 0.6329(3) 0.6022(3) 0.0119(6) Uani 1 1 d
O7 O 0.0865(3) 0.5215(3) 0.8320(3) 0.0182(7) Uani 1 1 d
O8 O 0.1915(3) 0.7218(3) 0.6082(4) 0.0175(7) Uani 1 1 d
F1 F 0.3301(3) 0.2505(3) 0.4996(3) 0.0188(6) Uani 1 1 d
F2 F 0.2292(3) 0.1567(3) 0.7990(3) 0.0226(6) Uani 1 1 d
F3 F 0.1071(3) 0.0642(3) 0.6015(3) 0.0208(6) Uani 1 1 d
F4 F -0.0519(3) 0.2796(3) 0.6961(3) 0.0188(6) Uani 1 1 d
S1 S 0.10557(12) 0.58675(12) 0.66492(13) 0.0127(3) Uani 1 1 d
Ti1 Ti 0.14256(8) 0.24949(9) 0.61324(9) 0.0129(2) Uani 1 1 d
H1 H 0.845(5) 0.416(5) -0.033(6) 0.030(14) Uiso 1 1 d
H2 H 0.685(5) 0.261(5) 0.150(5) 0.019(12) Uiso 1 1 d
H3 H 0.566(5) 0.038(5) 0.254(5) 0.012(12) Uiso 1 1 d
H4 H 0.414(5) -0.135(6) 0.451(6) 0.037(15) Uiso 1 1 d
H5 H 0.164(4) -0.072(5) 0.412(5) 0.008(11) Uiso 1 1 d
H6 H 0.048(5) 0.125(4) 0.225(5) 0.010(11) Uiso 1 1 d
H7 H 0.212(4) 0.284(4) 0.034(5) 0.000(10) Uiso 1 1 d
H8 H 0.389(5) 0.338(5) -0.175(5) 0.016(12) Uiso 1 1 d
H9 H 0.555(4) 0.506(4) -0.372(5) 0.011(11) Uiso 1 1 d
H10 H 0.778(6) 0.500(6) -0.267(7) 0.041(18) Uiso 1 1 d
loop_
_atom_site_aniso_label
_atom_site_aniso_U_11
_atom_site_aniso_U_22
_atom_site_aniso_U_33
_atom_site_aniso_U_23
_atom_site_aniso_U_13
_atom_site_aniso_U_12
C1 0.012(2) 0.016(2) 0.014(3) -0.0072(19) -0.0005(18) -0.0022(17)
C2 0.017(2) 0.018(2) 0.012(3) -0.0062(19) 0.0042(19) -0.0071(18)
C3 0.017(2) 0.016(2) 0.016(3) -0.001(2) -0.003(2) -0.0031(19)
C4 0.015(2) 0.022(3) 0.021(3) -0.005(2) 0.001(2) -0.0032(19)
C5 0.017(3) 0.018(3) 0.023(3) -0.002(2) -0.002(2) 0.0003(19)
C6 0.013(3) 0.025(3) 0.023(3) -0.006(2) 0.003(2) -0.004(2)
C7 0.015(2) 0.024(3) 0.014(3) -0.004(2) -0.002(2) -0.0061(19)
C8 0.017(2) 0.026(3) 0.016(3) -0.006(2) 0.000(2) -0.011(2)
C9 0.020(3) 0.028(3) 0.012(3) -0.002(2) -0.002(2) -0.007(2)
C10 0.013(2) 0.027(3) 0.021(3) -0.011(2) 0.002(2) -0.008(2)
N1 0.019(2) 0.016(2) 0.017(2) 0.0002(17) 0.0067(17) -0.0053(16)
N2 0.019(2) 0.019(2) 0.016(2) -0.0069(17) 0.0086(18) -0.0091(17)
O1 0.0117(15) 0.0165(16) 0.0182(19) -0.0077(13) -0.0010(13) -0.0043(12)
O5 0.0043(14) 0.0161(15) 0.0124(17) -0.0023(13) -0.0017(12) 0.0012(11)
O7 0.0202(17) 0.0213(17) 0.0099(18) -0.0008(13) -0.0038(13) -0.0035(13)
O8 0.0195(16) 0.0159(16) 0.0178(19) -0.0045(13) -0.0016(14) -0.0081(13)
F1 0.0127(13) 0.0208(14) 0.0199(16) -0.0054(11) 0.0028(11) 0.0001(10)
F2 0.0274(15) 0.0250(15) 0.0124(15) -0.0020(12) -0.0063(12) -0.0027(11)
F3 0.0235(14) 0.0150(13) 0.0235(17) -0.0066(11) 0.0012(12) -0.0034(11)
F4 0.0143(13) 0.0211(14) 0.0203(16) -0.0070(12) 0.0024(11) -0.0029(10)
S1 0.0153(6) 0.0129(6) 0.0101(6) -0.0028(4) -0.0009(4) -0.0051(4)
Ti1 0.0133(4) 0.0130(4) 0.0117(5) -0.0032(3) 0.0000(3) -0.0030(3)
loop_
_atom_type_symbol
_atom_type_description
_atom_type_scat_dispersion_real
_atom_type_scat_dispersion_imag
_atom_type_scat_source
C C 0.0033 0.0016 'International Tables Vol C Tables 4.2.6.8 and 6.1.1.4'
H H 0.0000 0.0000 'International Tables Vol C Tables 4.2.6.8 and 6.1.1.4'
N N 0.0061 0.0033 'International Tables Vol C Tables 4.2.6.8 and 6.1.1.4'
O O 0.0106 0.0060 'International Tables Vol C Tables 4.2.6.8 and 6.1.1.4'
F F 0.0171 0.0103 'International Tables Vol C Tables 4.2.6.8 and 6.1.1.4'
S S 0.1246 0.1234 'International Tables Vol C Tables 4.2.6.8 and 6.1.1.4'
Ti Ti 0.2776 0.4457 'International Tables Vol C Tables 4.2.6.8 and 6.1.1.4'
loop_
_geom_angle_atom_site_label_1
_geom_angle_atom_site_label_2
_geom_angle_atom_site_label_3
_geom_angle
_geom_angle_site_symmetry_3
C8 C1 C7 118.1(4) .
C8 C1 C2 120.5(4) .
C7 C1 C2 121.4(4) .
C3 C2 C6 118.0(4) .
C3 C2 C1 121.8(4) .
C6 C2 C1 120.2(4) .
C4 C3 C2 119.8(4) .
N1 C4 C3 120.0(4) .
N1 C5 C6 119.3(4) .
C5 C6 C2 120.3(4) .
C10 C7 C1 119.8(4) .
C9 C8 C1 120.7(4) .
N2 C9 C8 119.0(4) .
N2 C10 C7 120.0(4) .
C4 N1 C5 122.5(4) .
C10 N2 C9 122.5(4) .
S1 O1 Ti1 135.16(17) .
S1 O5 Ti1 135.05(17) 2_566
O7 S1 O8 113.64(18) .
O7 S1 O1 110.36(17) .
O8 S1 O1 108.56(17) .
O7 S1 O5 107.37(17) .
O8 S1 O5 109.58(16) .
O1 S1 O5 107.14(16) .
F2 Ti1 F4 94.16(12) .
F2 Ti1 F3 93.74(12) .
F4 Ti1 F3 92.14(11) .
F2 Ti1 F1 94.60(12) .
F4 Ti1 F1 169.87(12) .
F3 Ti1 F1 92.35(11) .
F2 Ti1 O1 90.83(12) .
F4 Ti1 O1 90.86(11) .
F3 Ti1 O1 174.33(13) .
F1 Ti1 O1 83.94(11) .
F2 Ti1 O5 175.80(11) 2_566
F4 Ti1 O5 88.10(11) 2_566
F3 Ti1 O5 89.70(12) 2_566
F1 Ti1 O5 82.84(11) 2_566
O1 Ti1 O5 85.59(12) 2_566
loop_
_geom_bond_atom_site_label_1
_geom_bond_atom_site_label_2
_geom_bond_distance
_geom_bond_site_symmetry_2
C1 C8 1.381(6) .
C1 C7 1.391(6) .
C1 C2 1.487(6) .
C2 C3 1.386(6) .
C2 C6 1.396(6) .
C3 C4 1.367(6) .
C4 N1 1.337(6) .
C5 N1 1.331(5) .
C5 C6 1.368(6) .
C7 C10 1.374(6) .
C8 C9 1.375(6) .
C9 N2 1.343(6) .
C10 N2 1.331(6) .
O1 S1 1.505(3) .
O1 Ti1 2.035(3) .
O5 S1 1.510(3) .
O5 Ti1 2.057(3) 2_566
O7 S1 1.447(3) .
O8 S1 1.447(3) .
F1 Ti1 1.851(2) .
F2 Ti1 1.807(3) .
F3 Ti1 1.821(2) .
F4 Ti1 1.812(2) .
Ti1 O5 2.057(3) 2_566
