#------------------------------------------------------------------------------
#$Date: 2016-10-08 01:19:51 +0300 (Sat, 08 Oct 2016) $
#$Revision: 187128 $
#$URL: file:///home/coder/svn-repositories/cod/cif/7/04/03/7040309.cif $
#------------------------------------------------------------------------------
#
# This file is available in the Crystallography Open Database (COD),
# http://www.crystallography.net/
#
# All data on this site have been placed in the public domain by the
# contributors.
#
data_7040309
loop_
_publ_author_name
'Chanawanno, Kullapa'
'Holstrom, Cole'
'Crandall, Laura A.'
'Dodge, Henry'
'Nemykin, Victor N.'
'Herrick, Richard S.'
'Ziegler, Christopher J.'
_publ_section_title
;
 The synthesis and structures of 1,1'-bis(sulfonyl)ferrocene derivatives.
;
_journal_issue                   36
_journal_name_full
'Dalton transactions (Cambridge, England : 2003)'
_journal_page_first              14320
_journal_page_last               14326
_journal_paper_doi               10.1039/c6dt02669a
_journal_volume                  45
_journal_year                    2016
_chemical_formula_sum            'C13 H14 Cl Fe N O4 S2'
_chemical_formula_weight         403.67
_space_group_crystal_system      triclinic
_space_group_IT_number           2
_space_group_name_Hall           '-P 1'
_space_group_name_H-M_alt        'P -1'
_symmetry_space_group_name_Hall  '-P 1'
_symmetry_space_group_name_H-M   'P -1'
_atom_sites_solution_hydrogens   geom
_audit_creation_method           SHELXL-2014/7
_audit_update_record
;
2016-06-24 deposited with the CCDC.
2016-08-15 downloaded from the CCDC.
;
_cell_angle_alpha                87.392(2)
_cell_angle_beta                 86.354(2)
_cell_angle_gamma                65.8810(10)
_cell_formula_units_Z            2
_cell_length_a                   7.4865(3)
_cell_length_b                   7.5363(3)
_cell_length_c                   14.9763(6)
_cell_measurement_reflns_used    6228
_cell_measurement_temperature    100(2)
_cell_measurement_theta_max      65.93
_cell_measurement_theta_min      6.49
_cell_volume                     769.47(5)
_computing_cell_refinement       'Bruker SAINT'
_computing_data_collection       'Bruker APEX2'
_computing_data_reduction        'Bruker SAINT'
_computing_molecular_graphics    'Bruker SHELXTL'
_computing_publication_material  'Bruker SHELXTL'
_computing_structure_refinement  'SHELXL-2014/7 (Sheldrick, 2014)'
_computing_structure_solution    'SHELXL-2014/7 (Sheldrick, 2014)'
_diffrn_ambient_temperature      100(2)
_diffrn_measured_fraction_theta_full 0.957
_diffrn_measured_fraction_theta_max 0.957
_diffrn_measurement_device_type  'Bruker APEX-II CCD'
_diffrn_measurement_method       '\f and \w scans'
_diffrn_radiation_type           CuK\a
_diffrn_radiation_wavelength     1.54178
_diffrn_reflns_av_R_equivalents  0.0296
_diffrn_reflns_av_unetI/netI     0.0289
_diffrn_reflns_Laue_measured_fraction_full 0.957
_diffrn_reflns_Laue_measured_fraction_max 0.957
_diffrn_reflns_limit_h_max       8
_diffrn_reflns_limit_h_min       -8
_diffrn_reflns_limit_k_max       8
_diffrn_reflns_limit_k_min       -8
_diffrn_reflns_limit_l_max       16
_diffrn_reflns_limit_l_min       -17
_diffrn_reflns_number            8179
_diffrn_reflns_point_group_measured_fraction_full 0.957
_diffrn_reflns_point_group_measured_fraction_max 0.957
_diffrn_reflns_theta_full        61.977
_diffrn_reflns_theta_max         61.977
_diffrn_reflns_theta_min         2.957
_diffrn_source                   'fine-focus sealed tube'
_exptl_absorpt_coefficient_mu    12.150
_exptl_absorpt_correction_T_max  0.7528
_exptl_absorpt_correction_T_min  0.3639
_exptl_absorpt_correction_type   multi-scan
_exptl_absorpt_process_details   SADABS
_exptl_crystal_colour            yellow
_exptl_crystal_density_diffrn    1.742
_exptl_crystal_density_meas      ?
_exptl_crystal_density_method    'not measured'
_exptl_crystal_description       plate
_exptl_crystal_F_000             412
_exptl_crystal_size_max          0.461
_exptl_crystal_size_mid          0.269
_exptl_crystal_size_min          0.163
_refine_diff_density_max         0.537
_refine_diff_density_min         -0.731
_refine_diff_density_rms         0.079
_refine_ls_extinction_method     none
_refine_ls_goodness_of_fit_ref   1.069
_refine_ls_hydrogen_treatment    constr
_refine_ls_matrix_type           full
_refine_ls_number_parameters     208
_refine_ls_number_reflns         2329
_refine_ls_number_restraints     0
_refine_ls_restrained_S_all      1.069
_refine_ls_R_factor_all          0.0335
_refine_ls_R_factor_gt           0.0328
_refine_ls_shift/su_max          0.001
_refine_ls_shift/su_mean         0.000
_refine_ls_structure_factor_coef Fsqd
_refine_ls_weighting_details
'w=1/[\s^2^(Fo^2^)+(0.0639P)^2^+0.3318P] where P=(Fo^2^+2Fc^2^)/3'
_refine_ls_weighting_scheme      calc
_refine_ls_wR_factor_gt          0.0913
_refine_ls_wR_factor_ref         0.0921
_reflns_Friedel_coverage         0.000
_reflns_number_gt                2287
_reflns_number_total             2329
_reflns_threshold_expression     'I > 2\s(I)'
_cod_data_source_file            c6dt02669a2.cif
_cod_data_source_block           6
_cod_depositor_comments
;
The following automatic conversions were performed:

'_exptl_crystal_density_meas' value 'not measured' was changed to '?'
- the value is perceived as not measured.

Automatic conversion script
Id: cif_fix_values 4268 2015-11-12 08:31:59Z antanas 

 Adding full bibliography for 7040307--7040318.cif.
;
_cod_database_code               7040309
_shelx_shelxl_version_number     2014/7
_shelx_space_group_comment
;
The symmetry employed for this shelxl refinement is uniquely defined
by the following loop, which should always be used as a source of
symmetry information in preference to the above space-group names.
They are only intended as comments.
;
_shelx_estimated_absorpt_t_min   0.071
_shelx_estimated_absorpt_t_max   0.242
_shelx_res_file
;

    p1bar.res created by SHELXL-2014/7

TITL p1bar in P-1
CELL 1.54178 7.4865 7.5363 14.9763 87.392 86.354 65.881
ZERR 2.00 0.0003 0.0003 0.0006 0.002 0.002 0.001
LATT 1
SFAC C  H  N  O  S  Cl Fe
UNIT 26  28  2  8  4  2  2
OMIT -3 124
L.S. 20
ACTA
BOND
FMAP 2
PLAN 0
SIZE 0.163 0.269 0.461
FREE Cl1  Cl2
TEMP -173.130
WGHT    0.063900    0.331800
FVAR       0.17007
MOLE 1
C1    1    0.596246    0.637631    0.321840    11.00000    0.01246    0.01624 =
         0.01968    0.00257   -0.00336   -0.00540
C2    1    0.464688    0.818031    0.359392    11.00000    0.01449    0.02318 =
         0.02013   -0.00136   -0.00444   -0.00744
AFIX  13
H2    2    0.373721    0.835900    0.413354    11.00000   -1.20000
AFIX   0
C3    1    0.488686    0.967146    0.305115    11.00000    0.01539    0.01810 =
         0.02616    0.00060   -0.00769   -0.00796
AFIX  13
H3    2    0.413787    1.110075    0.313456    11.00000   -1.20000
AFIX   0
C4    1    0.632306    0.880135    0.235777    11.00000    0.01639    0.02157 =
         0.02709    0.00676   -0.00584   -0.01104
AFIX  13
H4    2    0.675678    0.951648    0.187320    11.00000   -1.20000
AFIX   0
C5    1    0.702138    0.674341    0.245416    11.00000    0.01179    0.02207 =
         0.02186    0.00322   -0.00192   -0.00548
AFIX  13
H5    2    0.804967    0.575198    0.206681    11.00000   -1.20000
AFIX   0
C6    1    0.213455    0.949065    0.139433    11.00000    0.01696    0.01628 =
         0.01965    0.00339   -0.00607   -0.00707
C7    1    0.110061    0.897807    0.212069    11.00000    0.01179    0.02205 =
         0.02220    0.00165   -0.00448   -0.00668
AFIX  13
H7    2    0.001915    0.988735    0.251710    11.00000   -1.20000
AFIX   0
C8    1    0.191173    0.691474    0.216495    11.00000    0.01929    0.02189 =
         0.02463    0.00369   -0.00652   -0.01282
AFIX  13
H8    2    0.152987    0.610726    0.262202    11.00000   -1.20000
AFIX   0
C9    1    0.340387    0.618388    0.147835    11.00000    0.02041    0.02043 =
         0.02509    0.00033   -0.00720   -0.00941
AFIX  13
H9    2    0.423548    0.477873    0.136867    11.00000   -1.20000
AFIX   0
C10   1    0.356451    0.778132    0.098821    11.00000    0.02243    0.02385 =
         0.01727   -0.00330   -0.00138   -0.01054
AFIX  13
H10   2    0.446956    0.771799    0.045821    11.00000   -1.20000
AFIX   0
C11   1    0.988452    0.314242    0.410322    11.00000    0.01524    0.02026 =
         0.02153    0.00306    0.00101   -0.00581
AFIX  23
H11A  2    0.992214    0.440189    0.391160    11.00000   -1.20000
H11B  2    1.033203    0.227011    0.358500    11.00000   -1.20000
AFIX   0
C12   1    1.124660    0.226658    0.484649    11.00000    0.01618    0.02082 =
         0.02406   -0.00212   -0.00040   -0.00813
AFIX  43
H12   2    1.253315    0.221902    0.475818    11.00000   -1.20000
AFIX   0
C13   1    1.082607    0.155693    0.561048    11.00000    0.01866    0.03059 =
         0.02647    0.00561   -0.00867   -0.01131
AFIX  93
H13A  2    0.955779    0.157299    0.572880    11.00000   -1.20000
H13B  2    1.179065    0.102836    0.604391    11.00000   -1.20000
PART 1
AFIX   0
CL1   6   -0.048008    1.274140    0.030220    10.50000    0.06116    0.02654 =
         0.04784    0.01203   -0.03963   -0.01289
PART 2
CL2   6   -0.002300    1.252088    0.010737    10.50000    0.09600    0.03038 =
         0.05896    0.02257   -0.05766   -0.03312
PART 0
FE1   7    0.405956    0.794383    0.229565    11.00000    0.01183    0.01498 =
         0.01739    0.00221   -0.00214   -0.00563
N1    3    0.787034    0.345234    0.437755    11.00000    0.01420    0.02065 =
         0.01614    0.00409   -0.00026   -0.00575
AFIX  43
H1    2    0.754101    0.331007    0.494227    11.00000   -1.20000
AFIX   0
O1    4    0.444512    0.423955    0.407838    11.00000    0.01672    0.02205 =
         0.02273    0.00169    0.00049   -0.00892
O2    4    0.704965    0.273691    0.290243    11.00000    0.01788    0.01766 =
         0.02211    0.00036   -0.00131   -0.00628
O3    4    0.355550    1.184086    0.064319    11.00000    0.05238    0.02668 =
         0.03661   -0.00131    0.01716   -0.02042
O4    4    0.101273    1.308256    0.185068    11.00000    0.02215    0.01931 =
         0.03360   -0.00104    0.00186   -0.00613
S1    5    0.625533    0.406351    0.362030    11.00000    0.01372    0.01562 =
         0.01829    0.00246   -0.00144   -0.00579
S3    5    0.184907    1.184009    0.111183    11.00000    0.02551    0.01734 =
         0.02087    0.00382   -0.00554   -0.00979
HKLF 4 1 1 0 0 0 1 0 0 0 1

REM  p1bar in P-1
REM R1 =  0.0328 for    2287 Fo > 4sig(Fo)  and  0.0335 for all    2329 data
REM    208 parameters refined using      0 restraints

END

WGHT      0.0640      0.3292

REM Highest difference peak  0.537,  deepest hole -0.731,  1-sigma level  0.079
Q1    1   0.7395  0.4276  0.4849  11.00000  0.05    0.54
Q2    1   0.4953  0.7599  0.0853  11.00000  0.05    0.32
Q3    1   0.1747  1.0598  0.1275  11.00000  0.05    0.31
Q4    1   0.3584  0.7294  0.3178  11.00000  0.05    0.31
Q5    1   0.6528  0.5249  0.3412  11.00000  0.05    0.29
Q6    1   0.2979  0.8398  0.3744  11.00000  0.05    0.28
Q7    1   0.7850  0.3389  0.1994  11.00000  0.05    0.27
Q8    1   0.2829  1.1965  0.0257  11.00000  0.05    0.27
Q9    1  -0.1109  1.2016  0.1156  11.00000  0.05    0.26
Q10   1   0.7835  0.3013  0.3018  11.00000  0.05    0.26
Q11   1   0.5602  0.6845  0.0490  11.00000  0.05    0.25
Q12   1   0.2439  0.6500  0.1653  11.00000  0.05    0.23
Q13   1   0.7101  0.7842  0.2397  11.00000  0.05    0.23
Q14   1   0.2646  0.9361  0.1606  11.00000  0.05    0.23
Q15   1   0.2241  0.8828  0.1156  11.00000  0.05    0.23
Q16   1   0.7277  0.6220  0.2966  11.00000  0.05    0.22
Q17   1   0.3837  0.4420  0.3953  11.00000  0.05    0.22
Q18   1   0.2670  0.7854  0.2092  11.00000  0.05    0.22
Q19   1   0.1458  1.2955  0.1923  11.00000  0.05    0.22
Q20   1   0.5914  0.7089  0.3457  11.00000  0.05    0.22
;
_shelx_res_checksum              78820
loop_
_space_group_symop_operation_xyz
'x, y, z'
'-x, -y, -z'
loop_
_atom_site_label
_atom_site_type_symbol
_atom_site_fract_x
_atom_site_fract_y
_atom_site_fract_z
_atom_site_U_iso_or_equiv
_atom_site_adp_type
_atom_site_occupancy
_atom_site_site_symmetry_order
_atom_site_calc_flag
_atom_site_refinement_flags_posn
_atom_site_refinement_flags_adp
_atom_site_refinement_flags_occupancy
_atom_site_disorder_assembly
_atom_site_disorder_group
C1 C 0.5962(3) 0.6376(3) 0.32184(16) 0.0162(5) Uani 1 1 d . . . . .
C2 C 0.4647(3) 0.8180(4) 0.35939(17) 0.0191(5) Uani 1 1 d . . . . .
H2 H 0.3737 0.8359 0.4134 0.023 Uiso 1 1 calc R U . . .
C3 C 0.4887(3) 0.9671(3) 0.30512(16) 0.0192(5) Uani 1 1 d . . . . .
H3 H 0.4138 1.1101 0.3135 0.023 Uiso 1 1 calc R U . . .
C4 C 0.6323(4) 0.8801(4) 0.23578(17) 0.0206(5) Uani 1 1 d . . . . .
H4 H 0.6757 0.9516 0.1873 0.025 Uiso 1 1 calc R U . . .
C5 C 0.7021(3) 0.6743(4) 0.24542(17) 0.0191(5) Uani 1 1 d . . . . .
H5 H 0.8050 0.5752 0.2067 0.023 Uiso 1 1 calc R U . . .
C6 C 0.2135(4) 0.9491(3) 0.13943(16) 0.0174(5) Uani 1 1 d . . . . .
C7 C 0.1101(3) 0.8978(4) 0.21207(16) 0.0186(5) Uani 1 1 d . . . . .
H7 H 0.0019 0.9887 0.2517 0.022 Uiso 1 1 calc R U . . .
C8 C 0.1912(4) 0.6915(4) 0.21649(17) 0.0204(5) Uani 1 1 d . . . . .
H8 H 0.1530 0.6107 0.2622 0.024 Uiso 1 1 calc R U . . .
C9 C 0.3404(4) 0.6184(4) 0.14783(17) 0.0214(5) Uani 1 1 d . . . . .
H9 H 0.4235 0.4779 0.1369 0.026 Uiso 1 1 calc R U . . .
C10 C 0.3565(4) 0.7781(4) 0.09882(17) 0.0207(5) Uani 1 1 d . . . . .
H10 H 0.4470 0.7718 0.0458 0.025 Uiso 1 1 calc R U . . .
C11 C 0.9885(3) 0.3142(4) 0.41032(16) 0.0197(5) Uani 1 1 d . . . . .
H11A H 0.9922 0.4402 0.3912 0.024 Uiso 1 1 calc R U . . .
H11B H 1.0332 0.2270 0.3585 0.024 Uiso 1 1 calc R U . . .
C12 C 1.1247(3) 0.2267(3) 0.48465(16) 0.0201(5) Uani 1 1 d . . . . .
H12 H 1.2533 0.2219 0.4758 0.024 Uiso 1 1 calc R U . . .
C13 C 1.0826(4) 0.1557(4) 0.56105(17) 0.0247(6) Uani 1 1 d . . . . .
H13A H 0.9558 0.1573 0.5729 0.030 Uiso 1 1 calc R U . . .
H13B H 1.1791 0.1028 0.6044 0.030 Uiso 1 1 calc R U . . .
Cl1 Cl -0.0480(14) 1.2741(15) 0.0302(7) 0.0455(14) Uani 0.5 1 d . . P A 1
Cl2 Cl -0.0023(14) 1.2521(14) 0.0107(7) 0.058(2) Uani 0.5 1 d . . P A 2
Fe1 Fe 0.40596(5) 0.79438(5) 0.22956(2) 0.01469(16) Uani 1 1 d . . . . .
N1 N 0.7870(3) 0.3452(3) 0.43775(13) 0.0176(4) Uani 1 1 d . . . . .
H1 H 0.7541 0.3310 0.4942 0.021 Uiso 1 1 calc R U . . .
O1 O 0.4445(2) 0.4240(2) 0.40784(11) 0.0203(4) Uani 1 1 d . . . . .
O2 O 0.7050(2) 0.2737(2) 0.29024(11) 0.0195(4) Uani 1 1 d . . . . .
O3 O 0.3555(3) 1.1841(3) 0.06432(14) 0.0380(5) Uani 1 1 d . . . . .
O4 O 0.1013(3) 1.3083(2) 0.18507(12) 0.0259(4) Uani 1 1 d . . . . .
S1 S 0.62553(8) 0.40635(8) 0.36203(4) 0.01600(18) Uani 1 1 d . . . . .
S3 S 0.18491(9) 1.18401(9) 0.11118(4) 0.02083(19) Uani 1 1 d . . . . .
loop_
_atom_site_aniso_label
_atom_site_aniso_U_11
_atom_site_aniso_U_22
_atom_site_aniso_U_33
_atom_site_aniso_U_23
_atom_site_aniso_U_13
_atom_site_aniso_U_12
C1 0.0125(11) 0.0162(12) 0.0197(13) 0.0026(9) -0.0034(10) -0.0054(9)
C2 0.0145(12) 0.0232(13) 0.0201(13) -0.0014(10) -0.0044(10) -0.0074(10)
C3 0.0154(12) 0.0181(12) 0.0262(14) 0.0006(10) -0.0077(10) -0.0080(10)
C4 0.0164(12) 0.0216(13) 0.0271(14) 0.0068(10) -0.0058(10) -0.0110(10)
C5 0.0118(12) 0.0221(13) 0.0219(13) 0.0032(10) -0.0019(10) -0.0055(10)
C6 0.0170(12) 0.0163(12) 0.0196(13) 0.0034(9) -0.0061(10) -0.0071(10)
C7 0.0118(12) 0.0220(13) 0.0222(13) 0.0016(10) -0.0045(10) -0.0067(10)
C8 0.0193(12) 0.0219(13) 0.0246(14) 0.0037(10) -0.0065(10) -0.0128(10)
C9 0.0204(13) 0.0204(12) 0.0251(13) 0.0003(10) -0.0072(11) -0.0094(10)
C10 0.0224(13) 0.0238(13) 0.0173(13) -0.0033(10) -0.0014(10) -0.0105(11)
C11 0.0152(12) 0.0203(12) 0.0215(13) 0.0031(10) 0.0010(10) -0.0058(10)
C12 0.0162(12) 0.0208(12) 0.0241(14) -0.0021(10) -0.0004(10) -0.0081(10)
C13 0.0187(13) 0.0306(14) 0.0265(14) 0.0056(11) -0.0087(11) -0.0113(11)
Cl1 0.061(2) 0.0265(15) 0.048(3) 0.0120(16) -0.040(2) -0.0129(15)
Cl2 0.096(5) 0.030(3) 0.059(4) 0.023(2) -0.058(3) -0.033(3)
Fe1 0.0118(2) 0.0150(2) 0.0174(3) 0.00221(16) -0.00214(17) -0.00563(18)
N1 0.0142(10) 0.0206(11) 0.0161(11) 0.0041(8) -0.0003(8) -0.0057(8)
O1 0.0167(8) 0.0221(9) 0.0227(9) 0.0017(7) 0.0005(7) -0.0089(7)
O2 0.0179(9) 0.0177(9) 0.0221(9) 0.0004(7) -0.0013(7) -0.0063(7)
O3 0.0524(13) 0.0267(11) 0.0366(12) -0.0013(9) 0.0172(10) -0.0204(10)
O4 0.0221(9) 0.0193(9) 0.0336(11) -0.0010(7) 0.0019(8) -0.0061(7)
S1 0.0137(3) 0.0156(3) 0.0183(3) 0.0025(2) -0.0014(2) -0.0058(2)
S3 0.0255(4) 0.0173(3) 0.0209(4) 0.0038(2) -0.0055(3) -0.0098(3)
loop_
_atom_type_symbol
_atom_type_description
_atom_type_scat_dispersion_real
_atom_type_scat_dispersion_imag
_atom_type_scat_source
C C 0.0181 0.0091 'International Tables Vol C Tables 4.2.6.8 and 6.1.1.4'
H H 0.0000 0.0000 'International Tables Vol C Tables 4.2.6.8 and 6.1.1.4'
N N 0.0311 0.0180 'International Tables Vol C Tables 4.2.6.8 and 6.1.1.4'
O O 0.0492 0.0322 'International Tables Vol C Tables 4.2.6.8 and 6.1.1.4'
S S 0.3331 0.5567 'International Tables Vol C Tables 4.2.6.8 and 6.1.1.4'
Cl Cl 0.3639 0.7018 'International Tables Vol C Tables 4.2.6.8 and 6.1.1.4'
Fe Fe -1.1336 3.1974 'International Tables Vol C Tables 4.2.6.8 and 6.1.1.4'
loop_
_geom_angle_atom_site_label_1
_geom_angle_atom_site_label_2
_geom_angle_atom_site_label_3
_geom_angle
C2 C1 C5 109.5(2)
C2 C1 S1 125.81(19)
C5 C1 S1 124.68(18)
C2 C1 Fe1 70.82(13)
C5 C1 Fe1 70.65(13)
S1 C1 Fe1 124.87(13)
C3 C2 C1 106.5(2)
C3 C2 Fe1 70.07(14)
C1 C2 Fe1 68.08(13)
C4 C3 C2 108.8(2)
C4 C3 Fe1 69.64(13)
C2 C3 Fe1 69.49(13)
C3 C4 C5 108.9(2)
C3 C4 Fe1 70.06(13)
C5 C4 Fe1 69.53(13)
C4 C5 C1 106.3(2)
C4 C5 Fe1 69.88(13)
C1 C5 Fe1 68.11(13)
C7 C6 C10 110.2(2)
C7 C6 S3 124.71(19)
C10 C6 S3 124.82(19)
C7 C6 Fe1 71.65(13)
C10 C6 Fe1 70.66(14)
S3 C6 Fe1 119.94(12)
C8 C7 C6 106.1(2)
C8 C7 Fe1 70.55(13)
C6 C7 Fe1 67.22(13)
C9 C8 C7 109.0(2)
C9 C8 Fe1 69.55(14)
C7 C8 Fe1 69.24(13)
C8 C9 C10 108.8(2)
C8 C9 Fe1 70.35(14)
C10 C9 Fe1 68.58(13)
C9 C10 C6 105.9(2)
C9 C10 Fe1 70.73(14)
C6 C10 Fe1 67.89(13)
N1 C11 C12 111.7(2)
C13 C12 C11 126.0(2)
C6 Fe1 C1 178.96(9)
C6 Fe1 C10 41.45(10)
C1 Fe1 C10 139.01(10)
C6 Fe1 C5 139.79(10)
C1 Fe1 C5 41.24(10)
C10 Fe1 C5 108.93(10)
C6 Fe1 C2 138.51(10)
C1 Fe1 C2 41.10(10)
C10 Fe1 C2 177.10(9)
C5 Fe1 C2 69.44(10)
C6 Fe1 C4 112.60(10)
C1 Fe1 C4 68.30(10)
C10 Fe1 C4 108.76(10)
C5 Fe1 C4 40.60(10)
C2 Fe1 C4 68.41(10)
C6 Fe1 C7 41.14(10)
C1 Fe1 C7 137.83(10)
C10 Fe1 C7 69.78(10)
C5 Fe1 C7 176.44(9)
C2 Fe1 C7 112.00(10)
C4 Fe1 C7 142.84(10)
C6 Fe1 C3 112.15(10)
C1 Fe1 C3 68.15(10)
C10 Fe1 C3 136.90(10)
C5 Fe1 C3 68.43(10)
C2 Fe1 C3 40.44(10)
C4 Fe1 C3 40.30(10)
C7 Fe1 C3 114.86(10)
C6 Fe1 C9 68.18(10)
C1 Fe1 C9 111.61(10)
C10 Fe1 C9 40.69(10)
C5 Fe1 C9 108.53(10)
C2 Fe1 C9 141.85(10)
C4 Fe1 C9 135.61(10)
C7 Fe1 C9 68.25(10)
C3 Fe1 C9 175.90(9)
C6 Fe1 C8 67.85(10)
C1 Fe1 C8 111.30(10)
C10 Fe1 C8 68.48(10)
C5 Fe1 C8 136.28(10)
C2 Fe1 C8 114.39(10)
C4 Fe1 C8 175.58(9)
C7 Fe1 C8 40.21(10)
C3 Fe1 C8 143.99(10)
C9 Fe1 C8 40.11(10)
C11 N1 S1 118.70(16)
O2 S1 O1 119.44(10)
O2 S1 N1 107.96(10)
O1 S1 N1 106.27(10)
O2 S1 C1 108.16(11)
O1 S1 C1 107.80(11)
N1 S1 C1 106.54(10)
O3 S3 O4 119.72(11)
O3 S3 C6 110.71(12)
O4 S3 C6 110.51(11)
O3 S3 Cl2 100.9(3)
O4 S3 Cl2 111.4(2)
C6 S3 Cl2 101.7(3)
O3 S3 Cl1 111.5(3)
O4 S3 Cl1 100.8(2)
C6 S3 Cl1 101.7(3)
loop_
_geom_bond_atom_site_label_1
_geom_bond_atom_site_label_2
_geom_bond_distance
C1 C2 1.428(3)
C1 C5 1.432(4)
C1 S1 1.749(2)
C1 Fe1 2.015(2)
C2 C3 1.421(3)
C2 Fe1 2.052(2)
C3 C4 1.417(4)
C3 Fe1 2.059(2)
C4 C5 1.423(3)
C4 Fe1 2.054(2)
C5 Fe1 2.049(2)
C6 C7 1.425(4)
C6 C10 1.427(4)
C6 S3 1.730(2)
C6 Fe1 1.997(2)
C7 C8 1.420(3)
C7 Fe1 2.056(2)
C8 C9 1.418(4)
C8 Fe1 2.073(2)
C9 C10 1.425(4)
C9 Fe1 2.063(2)
C10 Fe1 2.034(2)
C11 N1 1.463(3)
C11 C12 1.497(3)
C12 C13 1.315(4)
Cl1 S3 2.049(11)
Cl2 S3 2.025(11)
N1 S1 1.622(2)
O1 S1 1.4380(17)
O2 S1 1.4282(18)
O3 S3 1.418(2)
O4 S3 1.4213(19)
