#------------------------------------------------------------------------------
#$Date: 2017-02-01 06:54:13 +0200 (Wed, 01 Feb 2017) $
#$Revision: 191173 $
#$URL: file:///home/coder/svn-repositories/cod/cif/7/04/19/7041909.cif $
#------------------------------------------------------------------------------
#
# This file is available in the Crystallography Open Database (COD),
# http://www.crystallography.net/
#
# All data on this site have been placed in the public domain by the
# contributors.
#
data_7041909
loop_
_publ_author_name
'Dulani Dhanapala, B.'
'Mannino, Natalie A.'
'Mendoza, Laura M.'
'Tauni Dissanayake, K.'
'Martin, Philip D.'
'Suescun, Leopoldo'
'Rabuffetti, Federico A.'
_publ_section_title
;
 Synthesis of bimetallic trifluoroacetates through a crystallochemical
 investigation of their monometallic counterparts: the case of (A,
 A')(CF3COO)2&#x00B7;nH2O (A, A' = Mg, Ca, Sr, Ba, Mn).
;
_journal_issue                   5
_journal_name_full
'Dalton transactions (Cambridge, England : 2003)'
_journal_page_first              1420
_journal_page_last               1430
_journal_paper_doi               10.1039/c6dt04152c
_journal_volume                  46
_journal_year                    2017
_chemical_formula_sum            'C4 H8 F6 Mg O8'
_chemical_formula_weight         322.41
_space_group_crystal_system      triclinic
_space_group_IT_number           2
_space_group_name_Hall           '-P 1'
_space_group_name_H-M_alt        'P -1'
_symmetry_space_group_name_Hall  '-P 1'
_symmetry_space_group_name_H-M   'P -1'
_atom_sites_solution_hydrogens   difmap
_audit_creation_method           SHELXL-2014/7
_audit_update_record
;
2016-09-21 deposited with the CCDC.
2017-01-17 downloaded from the CCDC.
;
_cell_angle_alpha                88.102(3)
_cell_angle_beta                 65.910(2)
_cell_angle_gamma                70.795(2)
_cell_formula_units_Z            2
_cell_length_a                   8.1395(4)
_cell_length_b                   9.0727(5)
_cell_length_c                   9.3369(5)
_cell_measurement_reflns_used    9967
_cell_measurement_temperature    143(2)
_cell_measurement_theta_max      27.46
_cell_measurement_theta_min      2.394
_cell_volume                     590.32(6)
_computing_structure_refinement  'SHELXL-2014/7 (Sheldrick, 2014)'
_diffrn_ambient_temperature      143(2)
_diffrn_detector_area_resol_mean 8.3333
_diffrn_measured_fraction_theta_full 0.999
_diffrn_measured_fraction_theta_max 0.994
_diffrn_measurement_device_type  'Bruker X8 Apex'
_diffrn_measurement_method       '\w and \j scans'
_diffrn_radiation_type           MoK\a
_diffrn_radiation_wavelength     0.71073
_diffrn_reflns_av_unetI/netI     0.0390
_diffrn_reflns_Laue_measured_fraction_full 0.999
_diffrn_reflns_Laue_measured_fraction_max 0.994
_diffrn_reflns_limit_h_max       10
_diffrn_reflns_limit_h_min       -10
_diffrn_reflns_limit_k_max       12
_diffrn_reflns_limit_k_min       -12
_diffrn_reflns_limit_l_max       12
_diffrn_reflns_limit_l_min       -12
_diffrn_reflns_number            9250
_diffrn_reflns_point_group_measured_fraction_full 0.999
_diffrn_reflns_point_group_measured_fraction_max 0.994
_diffrn_reflns_theta_full        25.242
_diffrn_reflns_theta_max         28.378
_diffrn_reflns_theta_min         2.394
_diffrn_source                   'sealed X-ray tube'
_exptl_absorpt_coefficient_mu    0.266
_exptl_absorpt_correction_T_max  0.967
_exptl_absorpt_correction_T_min  0.885
_exptl_absorpt_correction_type   multi-scan
_exptl_absorpt_process_details   'TWINABS (Bruker, 2012)'
_exptl_crystal_colour            colourless
_exptl_crystal_density_diffrn    1.814
_exptl_crystal_description       block
_exptl_crystal_F_000             324
_exptl_crystal_size_max          0.420
_exptl_crystal_size_mid          0.150
_exptl_crystal_size_min          0.130
_refine_diff_density_max         0.729
_refine_diff_density_min         -0.411
_refine_diff_density_rms         0.107
_refine_ls_extinction_method     none
_refine_ls_goodness_of_fit_ref   1.045
_refine_ls_hydrogen_treatment    constr
_refine_ls_matrix_type           full
_refine_ls_number_parameters     173
_refine_ls_number_reflns         9250
_refine_ls_number_restraints     0
_refine_ls_restrained_S_all      1.045
_refine_ls_R_factor_all          0.0791
_refine_ls_R_factor_gt           0.0603
_refine_ls_shift/su_max          0.000
_refine_ls_shift/su_mean         0.000
_refine_ls_structure_factor_coef Fsqd
_refine_ls_weighting_details
'w=1/[\s^2^(Fo^2^)+(0.1059P)^2^+0.2653P] where P=(Fo^2^+2Fc^2^)/3'
_refine_ls_weighting_scheme      calc
_refine_ls_wR_factor_gt          0.1581
_refine_ls_wR_factor_ref         0.1773
_reflns_Friedel_coverage         0.000
_reflns_number_gt                7136
_reflns_number_total             9250
_reflns_threshold_expression     'I > 2\s(I)'
_cod_data_source_file            c6dt04152c2.cif
_cod_data_source_block           MgTFA2_143k
_cod_original_cell_volume        590.32(5)
_cod_database_code               7041909
_shelx_space_group_comment
;
The symmetry employed for this shelxl refinement is uniquely defined
by the following loop, which should always be used as a source of
symmetry information in preference to the above space-group names.
They are only intended as comments.
;
_shelx_estimated_absorpt_t_min   0.896
_shelx_estimated_absorpt_t_max   0.966
_shelx_res_file
;

    MgTFA2_143k_twin5.res created by SHELXL-2014/7


TITL nam01_66_143k_collect_0m_4_a.res in P-1
REM Old TITL nam01_66_143k_collect_0m_4 in P-1

REM SHELXT solution in P-1
REM R1 0.171,  Rweak 0.016,  Alpha 0.056,  Orientation as input
REM Formula found by SHELXT:  C4 O8 F6 Mg

CELL  0.71073   8.1395   9.0727   9.3369   88.102   65.910   70.795
ZERR    2.000   0.0004   0.0005   0.0005    0.003    0.002    0.002
LATT  1
SFAC C H O F MG
UNIT 8 16 16 12 2
TEMP -130
SIZE 0.13 0.15 0.42
L.S. 10
BOND $H
LIST 4
HTAB
ACTA
CONF
FMAP 2
PLAN 5
WGHT    0.105900    0.265300
BASF   0.52580
FVAR       0.97911
MG1   5    0.264875    0.598749    0.391741    11.00000    0.02034    0.02048 =
         0.02256    0.00049   -0.00993   -0.00576
REM DFIX 0.83 0.01 O1W H1 O1W H1' O2W H2A O2W H2B O3W H3 O3W H3' O2W' H2A'
REM O2W' H2B' DANG 1.33 0.01 H1 H1' H2A H2B H3 H3' H2A' H2B'
O1W   3    0.296767    0.746424    0.223335    11.00000    0.04376    0.02553 =
         0.02930    0.00393   -0.02021   -0.01279
AFIX   3
H1    2    0.262227    0.841816    0.248462    11.00000   -1.50000
H1'   2    0.267076    0.731134    0.153319    11.00000   -1.50000
AFIX   0
O2W   3   -0.032364    0.710086    0.506305    11.00000    0.02336    0.02063 =
         0.02669    0.00102   -0.01072   -0.00577
AFIX   3
H2B   2   -0.082225    0.806152    0.511195    11.00000   -1.50000
H2A   2   -0.082354    0.682349    0.593921    11.00000   -1.50000
AFIX   0
O2W'  3    0.559091    0.479705    0.290362    11.00000    0.02217    0.02377 =
         0.02262    0.00025   -0.00933   -0.00468
AFIX   3
H2A'  2    0.594115    0.392156    0.317404    11.00000   -1.50000
H2B'  2    0.609181    0.469595    0.191540    11.00000   -1.50000
AFIX   0
O3W   3    0.244119    0.444471    0.557096    11.00000    0.02805    0.02675 =
         0.02742    0.00550   -0.01619   -0.01179
AFIX   3
H3    2    0.298874    0.434215    0.615246    11.00000   -1.50000
H3'   2    0.188465    0.382142    0.569899    11.00000   -1.50000
AFIX   0
O1    3    0.304438    0.744270    0.535394    11.00000    0.02563    0.02029 =
         0.02705   -0.00043   -0.01241   -0.00681
O2    3    0.213471    0.978297    0.450133    11.00000    0.03838    0.02038 =
         0.03694   -0.00005   -0.02084   -0.00561
C1    1    0.261437    0.890307    0.540468    11.00000    0.01869    0.02316 =
         0.02842   -0.00175   -0.00854   -0.00560
C2    1    0.264465    0.970989    0.682259    11.00000    0.04058    0.02494 =
         0.03888   -0.00236   -0.02174   -0.00454
F1    4    0.317239    1.095960    0.645218    11.00000    0.07723    0.03748 =
         0.06309   -0.00094   -0.04228   -0.02715
F2    4    0.089137    1.022176    0.798836    11.00000    0.05978    0.09664 =
         0.04203   -0.03086   -0.00291   -0.02464
F3    4    0.380964    0.877343    0.736648    11.00000    0.11880    0.03273 =
         0.09243   -0.00075   -0.08894   -0.00897
O1'   3    0.217791    0.449443    0.256894    11.00000    0.02483    0.02745 =
         0.02409   -0.00056   -0.01125   -0.00847
O2'   3    0.267694    0.550775    0.027634    11.00000    0.04013    0.03230 =
         0.02457    0.00091   -0.01519   -0.01303
C1'   1    0.235090    0.452248    0.117061    11.00000    0.01599    0.02734 =
         0.02604   -0.00519   -0.00845   -0.00167
C2'   1    0.209331    0.308393    0.053558    11.00000    0.03632    0.03725 =
         0.02733   -0.00448   -0.00934   -0.01474
F1'   4    0.219563    0.317664   -0.090490    11.00000    0.09971    0.07865 =
         0.02901    0.00065   -0.02546   -0.05996
F2'   4    0.342707    0.176708    0.050861    11.00000    0.07785    0.03091 =
         0.09913   -0.01505   -0.04512   -0.00386
F3'   4    0.039172    0.298225    0.145464    11.00000    0.05395    0.07448 =
         0.04523   -0.01242   -0.00606   -0.04414
HKLF 5

REM  nam01_66_143k_collect_0m_4_a.res in P-1
REM R1 =  0.0603 for    7136 Fo > 4sig(Fo)  and  0.0791 for all    9250 data
REM    173 parameters refined using      0 restraints

END

WGHT      0.1059      0.2653

REM Instructions for potential hydrogen bonds
HTAB O1W O2
HTAB O1W O2'
EQIV $1 -x, -y+2, -z+1
HTAB O2W O2_$1
EQIV $2 -x, -y+1, -z+1
HTAB O2W O1'_$2
HTAB O2W F3'_$2
EQIV $3 -x+1, -y+1, -z+1
HTAB O2W' O1_$3
HTAB O2W' F3_$3
EQIV $4 -x+1, -y+1, -z
HTAB O2W' O2'_$4
HTAB O3W O2W'_$3
HTAB O3W O2W_$2

REM Highest difference peak  0.729,  deepest hole -0.411,  1-sigma level  0.107
Q1    1   0.2735  0.6833  0.3248  11.00000  0.05    0.73
Q2    1   0.2532  0.5206  0.4714  11.00000  0.05    0.72
Q3    1   0.2602  0.9181  0.6109  11.00000  0.05    0.54
Q4    1   0.2222  0.3797  0.0940  11.00000  0.05    0.54
Q5    1   0.2523  0.1822  0.1325  11.00000  0.05    0.44
;
_shelx_res_checksum              93637
loop_
_space_group_symop_operation_xyz
'x, y, z'
'-x, -y, -z'
loop_
_atom_site_label
_atom_site_type_symbol
_atom_site_fract_x
_atom_site_fract_y
_atom_site_fract_z
_atom_site_U_iso_or_equiv
_atom_site_adp_type
_atom_site_occupancy
_atom_site_site_symmetry_order
_atom_site_calc_flag
_atom_site_refinement_flags_posn
_atom_site_refinement_flags_adp
Mg1 Mg 0.26488(12) 0.59875(10) 0.39174(11) 0.0211(2) Uani 1 1 d . .
O1W O 0.2968(3) 0.7464(2) 0.2233(3) 0.0310(5) Uani 1 1 d . .
H1 H 0.2622 0.8418 0.2485 0.046 Uiso 1 1 d R U
H1' H 0.2671 0.7311 0.1533 0.046 Uiso 1 1 d R U
O2W O -0.0324(3) 0.7101(2) 0.5063(2) 0.0239(4) Uani 1 1 d . .
H2B H -0.0822 0.8062 0.5112 0.036 Uiso 1 1 d R U
H2A H -0.0824 0.6823 0.5939 0.036 Uiso 1 1 d R U
O2W' O 0.5591(3) 0.4797(2) 0.2904(2) 0.0237(4) Uani 1 1 d . .
H2A' H 0.5941 0.3922 0.3174 0.036 Uiso 1 1 d R U
H2B' H 0.6092 0.4696 0.1915 0.036 Uiso 1 1 d R U
O3W O 0.2441(3) 0.4445(2) 0.5571(2) 0.0253(4) Uani 1 1 d . .
H3 H 0.2989 0.4342 0.6152 0.038 Uiso 1 1 d R U
H3' H 0.1885 0.3821 0.5699 0.038 Uiso 1 1 d R U
O1 O 0.3044(3) 0.7443(2) 0.5354(2) 0.0241(4) Uani 1 1 d . .
O2 O 0.2135(3) 0.9783(2) 0.4501(3) 0.0313(5) Uani 1 1 d . .
C1 C 0.2614(4) 0.8903(3) 0.5405(3) 0.0242(6) Uani 1 1 d . .
C2 C 0.2645(5) 0.9710(4) 0.6823(4) 0.0347(7) Uani 1 1 d . .
F1 F 0.3172(4) 1.0960(3) 0.6452(3) 0.0526(6) Uani 1 1 d . .
F2 F 0.0891(4) 1.0222(4) 0.7988(3) 0.0723(8) Uani 1 1 d . .
F3 F 0.3810(5) 0.8773(3) 0.7366(4) 0.0702(9) Uani 1 1 d . .
O1' O 0.2178(3) 0.4494(2) 0.2569(2) 0.0252(5) Uani 1 1 d . .
O2' O 0.2677(3) 0.5508(2) 0.0276(3) 0.0316(5) Uani 1 1 d . .
C1' C 0.2351(4) 0.4522(3) 0.1171(3) 0.0246(6) Uani 1 1 d . .
C2' C 0.2093(5) 0.3084(4) 0.0536(4) 0.0343(7) Uani 1 1 d . .
F1' F 0.2196(4) 0.3177(3) -0.0905(3) 0.0616(7) Uani 1 1 d . .
F2' F 0.3427(4) 0.1767(3) 0.0509(4) 0.0700(8) Uani 1 1 d . .
F3' F 0.0392(3) 0.2982(3) 0.1455(3) 0.0566(7) Uani 1 1 d . .
loop_
_atom_site_aniso_label
_atom_site_aniso_U_11
_atom_site_aniso_U_22
_atom_site_aniso_U_33
_atom_site_aniso_U_23
_atom_site_aniso_U_13
_atom_site_aniso_U_12
Mg1 0.0203(5) 0.0205(5) 0.0226(5) 0.0005(3) -0.0099(3) -0.0058(3)
O1W 0.0438(12) 0.0255(11) 0.0293(12) 0.0039(8) -0.0202(9) -0.0128(9)
O2W 0.0234(10) 0.0206(10) 0.0267(11) 0.0010(8) -0.0107(8) -0.0058(7)
O2W' 0.0222(9) 0.0238(10) 0.0226(10) 0.0002(8) -0.0093(7) -0.0047(7)
O3W 0.0281(10) 0.0268(11) 0.0274(11) 0.0055(8) -0.0162(8) -0.0118(8)
O1 0.0256(10) 0.0203(10) 0.0271(11) -0.0004(8) -0.0124(8) -0.0068(7)
O2 0.0384(12) 0.0204(10) 0.0369(13) 0.0000(9) -0.0208(9) -0.0056(8)
C1 0.0187(13) 0.0232(14) 0.0284(15) -0.0018(11) -0.0085(10) -0.0056(10)
C2 0.0406(18) 0.0249(16) 0.0389(18) -0.0024(13) -0.0217(14) -0.0045(12)
F1 0.0772(16) 0.0375(12) 0.0631(15) -0.0009(10) -0.0423(13) -0.0272(11)
F2 0.0598(16) 0.097(2) 0.0420(15) -0.0309(14) -0.0029(11) -0.0246(14)
F3 0.119(2) 0.0327(12) 0.092(2) -0.0007(12) -0.0889(19) -0.0090(12)
O1' 0.0248(10) 0.0275(11) 0.0241(11) -0.0006(8) -0.0112(8) -0.0085(8)
O2' 0.0401(12) 0.0323(12) 0.0246(11) 0.0009(9) -0.0152(9) -0.0130(9)
C1' 0.0160(13) 0.0273(14) 0.0260(15) -0.0052(11) -0.0084(10) -0.0017(10)
C2' 0.0363(17) 0.0372(18) 0.0273(16) -0.0045(13) -0.0093(12) -0.0147(13)
F1' 0.0997(19) 0.0787(18) 0.0290(12) 0.0006(11) -0.0255(12) -0.0600(15)
F2' 0.0779(18) 0.0309(12) 0.099(2) -0.0151(12) -0.0451(16) -0.0039(11)
F3' 0.0539(13) 0.0745(17) 0.0452(13) -0.0124(11) -0.0061(10) -0.0441(12)
loop_
_atom_type_symbol
_atom_type_description
_atom_type_scat_dispersion_real
_atom_type_scat_dispersion_imag
_atom_type_scat_source
C C 0.0033 0.0016 'International Tables Vol C Tables 4.2.6.8 and 6.1.1.4'
H H 0.0000 0.0000 'International Tables Vol C Tables 4.2.6.8 and 6.1.1.4'
O O 0.0106 0.0060 'International Tables Vol C Tables 4.2.6.8 and 6.1.1.4'
F F 0.0171 0.0103 'International Tables Vol C Tables 4.2.6.8 and 6.1.1.4'
Mg Mg 0.0486 0.0363 'International Tables Vol C Tables 4.2.6.8 and 6.1.1.4'
loop_
_citation_id
_citation_doi
_citation_year
1 10.1039/C6DT04152C 2017
loop_
_geom_angle_atom_site_label_1
_geom_angle_atom_site_label_2
_geom_angle_atom_site_label_3
_geom_angle
O1W Mg1 O3W 177.70(9)
O1W Mg1 O2W' 89.96(9)
O3W Mg1 O2W' 87.75(8)
O1W Mg1 O2W 93.74(9)
O3W Mg1 O2W 88.55(8)
O2W' Mg1 O2W 176.25(9)
O1W Mg1 O1 91.02(9)
O3W Mg1 O1 89.16(9)
O2W' Mg1 O1 88.70(8)
O2W Mg1 O1 90.61(8)
O1W Mg1 O1' 91.24(9)
O3W Mg1 O1' 88.62(8)
O2W' Mg1 O1' 92.48(8)
O2W Mg1 O1' 88.06(8)
O1 Mg1 O1' 177.45(8)
Mg1 O1W H1 120.1
Mg1 O1W H1' 116.1
H1 O1W H1' 110.0
Mg1 O2W H2B 121.2
Mg1 O2W H2A 114.1
H2B O2W H2A 108.8
Mg1 O2W' H2A' 115.3
Mg1 O2W' H2B' 114.1
H2A' O2W' H2B' 107.0
Mg1 O3W H3 122.9
Mg1 O3W H3' 125.6
H3 O3W H3' 111.4
C1 O1 Mg1 126.60(19)
O2 C1 O1 128.9(3)
O2 C1 C2 115.9(3)
O1 C1 C2 115.1(3)
F3 C2 F1 107.2(3)
F3 C2 F2 108.4(3)
F1 C2 F2 106.5(3)
F3 C2 C1 112.9(3)
F1 C2 C1 111.9(3)
F2 C2 C1 109.7(3)
C1' O1' Mg1 129.5(2)
O2' C1' O1' 129.0(3)
O2' C1' C2' 117.4(3)
O1' C1' C2' 113.6(3)
F1' C2' F2' 107.6(3)
F1' C2' F3' 107.4(3)
F2' C2' F3' 108.1(3)
F1' C2' C1' 112.4(3)
F2' C2' C1' 110.7(3)
F3' C2' C1' 110.6(3)
loop_
_geom_bond_atom_site_label_1
_geom_bond_atom_site_label_2
_geom_bond_distance
Mg1 O1W 2.023(2)
Mg1 O3W 2.042(2)
Mg1 O2W' 2.077(2)
Mg1 O2W 2.090(2)
Mg1 O1 2.097(2)
Mg1 O1' 2.101(2)
O1W H1 0.8262
O1W H1' 0.8137
O2W H2B 0.8254
O2W H2A 0.8247
O2W' H2A' 0.8200
O2W' H2B' 0.8366
O3W H3 0.8179
O3W H3' 0.8119
O1 C1 1.251(3)
O2 C1 1.233(4)
C1 C2 1.547(4)
C2 F3 1.309(4)
C2 F1 1.328(4)
C2 F2 1.329(4)
O1' C1' 1.255(4)
O2' C1' 1.222(4)
C1' C2' 1.559(4)
C2' F1' 1.315(4)
C2' F2' 1.316(4)
C2' F3' 1.331(4)
loop_
_geom_torsion_atom_site_label_1
_geom_torsion_atom_site_label_2
_geom_torsion_atom_site_label_3
_geom_torsion_atom_site_label_4
_geom_torsion
Mg1 O1 C1 O2 -11.4(4)
Mg1 O1 C1 C2 166.92(19)
O2 C1 C2 F3 -155.3(3)
O1 C1 C2 F3 26.2(4)
O2 C1 C2 F1 -34.2(4)
O1 C1 C2 F1 147.2(3)
O2 C1 C2 F2 83.8(4)
O1 C1 C2 F2 -94.8(3)
Mg1 O1' C1' O2' -7.1(4)
Mg1 O1' C1' C2' 173.24(17)
O2' C1' C2' F1' -2.5(4)
O1' C1' C2' F1' 177.1(3)
O2' C1' C2' F2' 117.8(3)
O1' C1' C2' F2' -62.5(3)
O2' C1' C2' F3' -122.5(3)
O1' C1' C2' F3' 57.2(4)
