#------------------------------------------------------------------------------
#$Date: 2017-02-01 06:54:13 +0200 (Wed, 01 Feb 2017) $
#$Revision: 191173 $
#$URL: file:///home/coder/svn-repositories/cod/cif/7/04/19/7041904.cif $
#------------------------------------------------------------------------------
#
# This file is available in the Crystallography Open Database (COD),
# http://www.crystallography.net/
#
# All data on this site have been placed in the public domain by the
# contributors.
#
data_7041904
loop_
_publ_author_name
'Dulani Dhanapala, B.'
'Mannino, Natalie A.'
'Mendoza, Laura M.'
'Tauni Dissanayake, K.'
'Martin, Philip D.'
'Suescun, Leopoldo'
'Rabuffetti, Federico A.'
_publ_section_title
;
 Synthesis of bimetallic trifluoroacetates through a crystallochemical
 investigation of their monometallic counterparts: the case of (A,
 A')(CF3COO)2&#x00B7;nH2O (A, A' = Mg, Ca, Sr, Ba, Mn).
;
_journal_issue                   5
_journal_name_full
'Dalton transactions (Cambridge, England : 2003)'
_journal_page_first              1420
_journal_page_last               1430
_journal_paper_doi               10.1039/c6dt04152c
_journal_volume                  46
_journal_year                    2017
_chemical_formula_sum            'C4 H8 F6 Mg O8'
_chemical_formula_weight         322.41
_space_group_crystal_system      triclinic
_space_group_IT_number           2
_space_group_name_Hall           '-P 1'
_space_group_name_H-M_alt        'P -1'
_symmetry_space_group_name_Hall  '-P 1'
_symmetry_space_group_name_H-M   'P -1'
_atom_sites_solution_hydrogens   difmap
_audit_creation_method           SHELXL-2014/7
_audit_update_record
;
2016-09-21 deposited with the CCDC.
2017-01-17 downloaded from the CCDC.
;
_cell_angle_alpha                88.324(6)
_cell_angle_beta                 65.021(5)
_cell_angle_gamma                71.131(6)
_cell_formula_units_Z            2
_cell_length_a                   8.0985(9)
_cell_length_b                   9.0458(11)
_cell_length_c                   9.3604(11)
_cell_measurement_reflns_used    9923
_cell_measurement_temperature    100(2)
_cell_measurement_theta_max      24.9688
_cell_measurement_theta_min      3.1871
_cell_volume                     583.55(12)
_computing_structure_refinement  'SHELXL-2014/7 (Sheldrick, 2014)'
_diffrn_ambient_temperature      100(2)
_diffrn_detector_area_resol_mean 8.3333
_diffrn_measured_fraction_theta_full 0.990
_diffrn_measured_fraction_theta_max 0.989
_diffrn_measurement_device_type  'Bruker X8 Apex'
_diffrn_measurement_method       '\w and \j scans'
_diffrn_radiation_type           MoK\a
_diffrn_radiation_wavelength     0.71073
_diffrn_reflns_av_unetI/netI     0.0403
_diffrn_reflns_Laue_measured_fraction_full 0.990
_diffrn_reflns_Laue_measured_fraction_max 0.989
_diffrn_reflns_limit_h_max       9
_diffrn_reflns_limit_h_min       -9
_diffrn_reflns_limit_k_max       10
_diffrn_reflns_limit_k_min       -10
_diffrn_reflns_limit_l_max       11
_diffrn_reflns_limit_l_min       -11
_diffrn_reflns_number            34199
_diffrn_reflns_point_group_measured_fraction_full 0.990
_diffrn_reflns_point_group_measured_fraction_max 0.989
_diffrn_reflns_theta_full        25.242
_diffrn_reflns_theta_max         25.251
_diffrn_reflns_theta_min         2.398
_diffrn_source                   'sealed X-ray tube'
_exptl_absorpt_coefficient_mu    0.269
_exptl_absorpt_correction_T_max  0.7451
_exptl_absorpt_correction_T_min  0.6908
_exptl_absorpt_correction_type   multi-scan
_exptl_absorpt_process_details   'TWINABS (Bruker, 2012)'
_exptl_crystal_colour            colourless
_exptl_crystal_density_diffrn    1.835
_exptl_crystal_description       block
_exptl_crystal_F_000             324
_exptl_crystal_size_max          0.200
_exptl_crystal_size_mid          0.200
_exptl_crystal_size_min          0.100
_refine_diff_density_max         0.263
_refine_diff_density_min         -0.270
_refine_diff_density_rms         0.044
_refine_ls_extinction_method     none
_refine_ls_goodness_of_fit_ref   1.036
_refine_ls_hydrogen_treatment    refxyz
_refine_ls_matrix_type           full
_refine_ls_number_parameters     197
_refine_ls_number_reflns         34199
_refine_ls_number_restraints     12
_refine_ls_restrained_S_all      1.037
_refine_ls_R_factor_all          0.0376
_refine_ls_R_factor_gt           0.0307
_refine_ls_shift/su_max          0.000
_refine_ls_shift/su_mean         0.000
_refine_ls_structure_factor_coef Fsqd
_refine_ls_weighting_details
'w=1/[\s^2^(Fo^2^)+(0.0299P)^2^+0.1114P] where P=(Fo^2^+2Fc^2^)/3'
_refine_ls_weighting_scheme      calc
_refine_ls_wR_factor_gt          0.0737
_refine_ls_wR_factor_ref         0.0775
_reflns_Friedel_coverage         0.000
_reflns_number_gt                29303
_reflns_number_total             34199
_reflns_threshold_expression     'I > 2\s(I)'
_cod_data_source_file            c6dt04152c2.cif
_cod_data_source_block           MgTFA2_100k
_cod_database_code               7041904
_shelx_space_group_comment
;
The symmetry employed for this shelxl refinement is uniquely defined
by the following loop, which should always be used as a source of
symmetry information in preference to the above space-group names.
They are only intended as comments.
;
_shelx_estimated_absorpt_t_min   0.948
_shelx_estimated_absorpt_t_max   0.974
_shelx_res_file
;

    MgTFA2_100k_twin5.res created by SHELXL-2014/7


REM Solution 1  R1  0.142  Rweak  0.020,  Alpha = 0.0483  in P-1
REM Formula:  C4 O14 Mg
TITL 9923    3.1871   24.9688 Tmin/max 0.690800  0.745138
CELL  0.71073  8.0985    9.0458    9.3604   88.3244   65.0214   71.1305
ZERR    2.00   0.0009    0.0011    0.0011    0.0063    0.0053    0.0056
LATT  1
SFAC C H O F MG
UNIT 8 16 16 12 2
TEMP -173.050
L.S. 20
BOND $H
LIST 4
SIZE 0.1 0.2 0.2
ACTA
CONF
FMAP 2
PLAN 5
WGHT    0.029900    0.111400
BASF   0.49636
FVAR       1.04268
MG1   5    0.268440    0.597185    0.390206    11.00000    0.01554    0.01102 =
         0.01228    0.00212   -0.00811   -0.00542
DFIX 0.83 0.01 O1W H1 O1W H1' O2W H2A O2W H2B O3W H3 O3W H3' O2W' H2A' O2W' H2B'
DANG 1.33 0.01 H1 H1' H2A H2B H3 H3' H2A' H2B'
O1W   3    0.308248    0.741476    0.218440    11.00000    0.02916    0.01376 =
         0.01753    0.00406   -0.01479   -0.00963
REM  AFIX   3
H1    2    0.274816    0.835039    0.247070    11.00000   -1.50000
H1'   2    0.279522    0.725769    0.150692    11.00000   -1.50000
REM AFIX   0
O2W   3   -0.030669    0.710667    0.505274    11.00000    0.01774    0.00938 =
         0.01545    0.00391   -0.00782   -0.00476
REM AFIX   3
H2B   2   -0.083385    0.807547    0.512442    11.00000   -1.50000
H2A   2   -0.084331    0.676989    0.588794    11.00000   -1.50000
REM AFIX   0
O2W'  3    0.564109    0.477035    0.289143    11.00000    0.01789    0.01340 =
         0.01119    0.00366   -0.00746   -0.00456
REM AFIX   3
H2A'  2    0.602921    0.392298    0.317861    11.00000   -1.50000
H2B'  2    0.626838    0.470412    0.190246    11.00000   -1.50000
REM AFIX   0
O3W   3    0.242251    0.445523    0.557584    11.00000    0.02151    0.01680 =
         0.01828    0.00653   -0.01480   -0.01180
REM AFIX   3
H3    2    0.293849    0.437627    0.613203    11.00000   -1.50000
H3'   2    0.186834    0.385114    0.567179    11.00000   -1.50000
REM AFIX   0
O1    3    0.306987    0.744456    0.533105    11.00000    0.01756    0.00872 =
         0.01643    0.00207   -0.00981   -0.00484
O2    3    0.213792    0.977130    0.447338    11.00000    0.02719    0.01105 =
         0.02207    0.00283   -0.01627   -0.00467
C1    1    0.261917    0.891399    0.538152    11.00000    0.00848    0.01608 =
         0.01751    0.00006   -0.00491   -0.00458
C2    1    0.261155    0.974405    0.679483    11.00000    0.02772    0.01225 =
         0.02570    0.00191   -0.01613   -0.00478
F1    4    0.319373    1.098652    0.640145    11.00000    0.04708    0.01911 =
         0.03727    0.00214   -0.02662   -0.01758
F2    4    0.081837    1.029270    0.795959    11.00000    0.04037    0.05041 =
         0.02307   -0.01437   -0.00279   -0.01576
F3    4    0.373391    0.881748    0.738936    11.00000    0.07541    0.01830 =
         0.05188    0.00333   -0.05512   -0.00817
O1'   3    0.221915    0.446307    0.256272    11.00000    0.01792    0.01519 =
         0.01126    0.00158   -0.00808   -0.00685
O2'   3    0.261082    0.552608    0.029794    11.00000    0.02737    0.01651 =
         0.01340    0.00358   -0.01067   -0.00931
C1'   1    0.233867    0.450506    0.117415    11.00000    0.00778    0.01522 =
         0.01543   -0.00265   -0.00456   -0.00164
C2'   1    0.208209    0.306711    0.055612    11.00000    0.02325    0.02286 =
         0.01375    0.00052   -0.00674   -0.01053
F1'   4    0.221326    0.313836   -0.090428    11.00000    0.06046    0.04742 =
         0.01496    0.00281   -0.01710   -0.03697
F2'   4    0.340175    0.173481    0.053671    11.00000    0.04707    0.01653 =
         0.05403   -0.00616   -0.02570   -0.00571
F3'   4    0.035088    0.297296    0.148295    11.00000    0.03356    0.04606 =
         0.02362   -0.00415   -0.00420   -0.02976
MERG 0
HKLF 5

REM  9923    3.1871   24.9688 Tmin/max 0.690800  0.745138
REM R1 =  0.0307 for   29303 Fo > 4sig(Fo)  and  0.0376 for all   34199 data
REM    197 parameters refined using     12 restraints

END

WGHT      0.0299      0.1114

REM Highest difference peak  0.263,  deepest hole -0.270,  1-sigma level  0.044
Q1    1   0.2714  0.9244  0.6063  11.00000  0.05    0.26
Q2    1   0.2362  0.3800  0.0884  11.00000  0.05    0.22
Q3    1   0.3109  0.8041  0.5189  11.00000  0.05    0.22
Q4    1   0.4200  0.1627  0.0573  11.00000  0.05    0.20
Q5    1   0.2344  0.4409  0.1957  11.00000  0.05    0.19
;
_shelx_res_checksum              20244
loop_
_space_group_symop_operation_xyz
'x, y, z'
'-x, -y, -z'
loop_
_atom_site_label
_atom_site_type_symbol
_atom_site_fract_x
_atom_site_fract_y
_atom_site_fract_z
_atom_site_U_iso_or_equiv
_atom_site_adp_type
_atom_site_occupancy
_atom_site_site_symmetry_order
_atom_site_calc_flag
_atom_site_refinement_flags_posn
_atom_site_refinement_flags_adp
Mg1 Mg 0.26844(11) 0.59719(9) 0.39021(9) 0.0120(2) Uani 1 1 d . .
O1W O 0.3082(3) 0.7415(2) 0.2184(2) 0.0179(4) Uani 1 1 d D .
H1 H 0.275(4) 0.835(3) 0.247(3) 0.027 Uiso 1 1 d D U
H1' H 0.280(4) 0.726(3) 0.151(3) 0.027 Uiso 1 1 d D U
O2W O -0.0307(2) 0.7107(2) 0.50527(19) 0.0140(4) Uani 1 1 d D .
H2B H -0.083(3) 0.808(3) 0.512(3) 0.021 Uiso 1 1 d D U
H2A H -0.084(4) 0.677(3) 0.589(3) 0.021 Uiso 1 1 d D U
O2W' O 0.5641(2) 0.47703(19) 0.2891(2) 0.0140(4) Uani 1 1 d D .
H2A' H 0.603(4) 0.392(3) 0.318(3) 0.021 Uiso 1 1 d D U
H2B' H 0.627(3) 0.470(3) 0.190(3) 0.021 Uiso 1 1 d D U
O3W O 0.2423(3) 0.4455(2) 0.5576(2) 0.0153(4) Uani 1 1 d D .
H3 H 0.294(4) 0.438(3) 0.613(3) 0.023 Uiso 1 1 d D U
H3' H 0.187(4) 0.385(3) 0.567(3) 0.023 Uiso 1 1 d D U
O1 O 0.3070(2) 0.74446(18) 0.53310(18) 0.0133(4) Uani 1 1 d . .
O2 O 0.2138(2) 0.97713(18) 0.44734(19) 0.0186(4) Uani 1 1 d . .
C1 C 0.2619(3) 0.8914(3) 0.5382(3) 0.0142(6) Uani 1 1 d . .
C2 C 0.2612(4) 0.9744(3) 0.6795(3) 0.0208(6) Uani 1 1 d . .
F1 F 0.3194(2) 1.09865(16) 0.64015(18) 0.0298(4) Uani 1 1 d . .
F2 F 0.0818(2) 1.02927(19) 0.79596(18) 0.0415(5) Uani 1 1 d . .
F3 F 0.3734(3) 0.88175(17) 0.7389(2) 0.0406(5) Uani 1 1 d . .
O1' O 0.2219(2) 0.44631(18) 0.25627(18) 0.0138(4) Uani 1 1 d . .
O2' O 0.2611(2) 0.55261(19) 0.02979(19) 0.0180(4) Uani 1 1 d . .
C1' C 0.2339(3) 0.4505(3) 0.1174(3) 0.0135(6) Uani 1 1 d . .
C2' C 0.2082(4) 0.3067(3) 0.0556(3) 0.0197(6) Uani 1 1 d . .
F1' F 0.2213(2) 0.31384(19) -0.09043(16) 0.0357(4) Uani 1 1 d . .
F2' F 0.3402(2) 0.17348(17) 0.0537(2) 0.0390(5) Uani 1 1 d . .
F3' F 0.0351(2) 0.29730(18) 0.14829(17) 0.0329(4) Uani 1 1 d . .
loop_
_atom_site_aniso_label
_atom_site_aniso_U_11
_atom_site_aniso_U_22
_atom_site_aniso_U_33
_atom_site_aniso_U_23
_atom_site_aniso_U_13
_atom_site_aniso_U_12
Mg1 0.0155(5) 0.0110(4) 0.0123(4) 0.0021(3) -0.0081(4) -0.0054(3)
O1W 0.0292(11) 0.0138(9) 0.0175(10) 0.0041(8) -0.0148(9) -0.0096(8)
O2W 0.0177(10) 0.0094(9) 0.0155(10) 0.0039(8) -0.0078(8) -0.0048(8)
O2W' 0.0179(10) 0.0134(10) 0.0112(9) 0.0037(8) -0.0075(8) -0.0046(8)
O3W 0.0215(11) 0.0168(10) 0.0183(10) 0.0065(7) -0.0148(8) -0.0118(8)
O1 0.0176(10) 0.0087(9) 0.0164(9) 0.0021(7) -0.0098(8) -0.0048(7)
O2 0.0272(11) 0.0110(9) 0.0221(10) 0.0028(8) -0.0163(8) -0.0047(8)
C1 0.0085(14) 0.0161(15) 0.0175(14) 0.0001(11) -0.0049(11) -0.0046(11)
C2 0.0277(17) 0.0123(14) 0.0257(16) 0.0019(12) -0.0161(14) -0.0048(12)
F1 0.0471(10) 0.0191(9) 0.0373(10) 0.0021(7) -0.0266(8) -0.0176(7)
F2 0.0404(11) 0.0504(12) 0.0231(9) -0.0144(8) -0.0028(8) -0.0158(9)
F3 0.0754(13) 0.0183(9) 0.0519(11) 0.0033(8) -0.0551(10) -0.0082(8)
O1' 0.0179(10) 0.0152(9) 0.0113(9) 0.0016(7) -0.0081(7) -0.0069(7)
O2' 0.0274(11) 0.0165(10) 0.0134(9) 0.0036(8) -0.0107(8) -0.0093(8)
C1' 0.0078(14) 0.0152(14) 0.0154(14) -0.0026(11) -0.0046(11) -0.0016(11)
C2' 0.0232(16) 0.0229(16) 0.0138(14) 0.0005(11) -0.0067(12) -0.0105(13)
F1' 0.0605(11) 0.0474(11) 0.0150(9) 0.0028(7) -0.0171(8) -0.0370(9)
F2' 0.0471(11) 0.0165(9) 0.0540(12) -0.0062(8) -0.0257(9) -0.0057(8)
F3' 0.0336(10) 0.0461(11) 0.0236(9) -0.0042(7) -0.0042(8) -0.0298(8)
loop_
_atom_type_symbol
_atom_type_description
_atom_type_scat_dispersion_real
_atom_type_scat_dispersion_imag
_atom_type_scat_source
C C 0.0033 0.0016 'International Tables Vol C Tables 4.2.6.8 and 6.1.1.4'
H H 0.0000 0.0000 'International Tables Vol C Tables 4.2.6.8 and 6.1.1.4'
O O 0.0106 0.0060 'International Tables Vol C Tables 4.2.6.8 and 6.1.1.4'
F F 0.0171 0.0103 'International Tables Vol C Tables 4.2.6.8 and 6.1.1.4'
Mg Mg 0.0486 0.0363 'International Tables Vol C Tables 4.2.6.8 and 6.1.1.4'
loop_
_citation_id
_citation_doi
_citation_year
1 10.1039/C6DT04152C 2017
loop_
_geom_angle_atom_site_label_1
_geom_angle_atom_site_label_2
_geom_angle_atom_site_label_3
_geom_angle
O1W Mg1 O3W 177.23(8)
O1W Mg1 O2W' 89.56(8)
O3W Mg1 O2W' 87.69(8)
O1W Mg1 O2W 94.14(8)
O3W Mg1 O2W 88.62(8)
O2W' Mg1 O2W 176.20(8)
O1W Mg1 O1 91.11(7)
O3W Mg1 O1 89.11(7)
O2W' Mg1 O1 88.62(7)
O2W Mg1 O1 90.42(7)
O1W Mg1 O1' 91.17(7)
O3W Mg1 O1' 88.67(7)
O2W' Mg1 O1' 92.60(7)
O2W Mg1 O1' 88.22(7)
O1 Mg1 O1' 177.42(7)
Mg1 O1W H1 117.0(19)
Mg1 O1W H1' 115.9(19)
H1 O1W H1' 113(3)
Mg1 O2W H2B 123.1(17)
Mg1 O2W H2A 113.8(18)
H2B O2W H2A 111(2)
Mg1 O2W' H2A' 117.9(18)
Mg1 O2W' H2B' 118.4(17)
H2A' O2W' H2B' 109(2)
Mg1 O3W H3 122.2(19)
Mg1 O3W H3' 123.3(19)
H3 O3W H3' 114(3)
C1 O1 Mg1 126.12(15)
O2 C1 O1 128.5(2)
O2 C1 C2 116.3(2)
O1 C1 C2 115.1(2)
F3 C2 F2 107.6(2)
F3 C2 F1 107.1(2)
F2 C2 F1 106.53(19)
F3 C2 C1 113.5(2)
F2 C2 C1 110.0(2)
F1 C2 C1 111.8(2)
C1' O1' Mg1 129.90(15)
O2' C1' O1' 128.4(2)
O2' C1' C2' 118.1(2)
O1' C1' C2' 113.5(2)
F2' C2' F1' 107.52(19)
F2' C2' F3' 107.3(2)
F1' C2' F3' 107.10(19)
F2' C2' C1' 111.51(19)
F1' C2' C1' 112.4(2)
F3' C2' C1' 110.80(19)
loop_
_geom_bond_atom_site_label_1
_geom_bond_atom_site_label_2
_geom_bond_distance
Mg1 O1W 2.0259(18)
Mg1 O3W 2.0405(18)
Mg1 O2W' 2.0672(18)
Mg1 O2W 2.0819(18)
Mg1 O1 2.0946(16)
Mg1 O1' 2.0995(16)
O1W H1 0.82(2)
O1W H1' 0.79(2)
O2W H2B 0.83(2)
O2W H2A 0.82(2)
O2W' H2A' 0.81(2)
O2W' H2B' 0.84(2)
O3W H3 0.78(2)
O3W H3' 0.79(2)
O1 C1 1.256(3)
O2 C1 1.234(3)
C1 C2 1.537(3)
C2 F3 1.321(3)
C2 F2 1.331(3)
C2 F1 1.339(3)
O1' C1' 1.262(3)
O2' C1' 1.228(3)
C1' C2' 1.546(3)
C2' F2' 1.322(3)
C2' F1' 1.327(3)
C2' F3' 1.331(3)
loop_
_geom_torsion_atom_site_label_1
_geom_torsion_atom_site_label_2
_geom_torsion_atom_site_label_3
_geom_torsion_atom_site_label_4
_geom_torsion
Mg1 O1 C1 O2 -11.7(4)
Mg1 O1 C1 C2 166.26(15)
O2 C1 C2 F3 -157.8(2)
O1 C1 C2 F3 24.0(3)
O2 C1 C2 F2 81.7(3)
O1 C1 C2 F2 -96.5(2)
O2 C1 C2 F1 -36.5(3)
O1 C1 C2 F1 145.3(2)
Mg1 O1' C1' O2' -6.5(4)
Mg1 O1' C1' C2' 174.10(14)
O2' C1' C2' F2' 121.3(2)
O1' C1' C2' F2' -59.2(3)
O2' C1' C2' F1' 0.5(3)
O1' C1' C2' F1' 180.0(2)
O2' C1' C2' F3' -119.3(2)
O1' C1' C2' F3' 60.2(3)
