#------------------------------------------------------------------------------
#$Date: 2017-02-04 15:54:00 +0200 (Sat, 04 Feb 2017) $
#$Revision: 191616 $
#$URL: file:///home/coder/svn-repositories/cod/cif/7/04/15/7041588.cif $
#------------------------------------------------------------------------------
#
# This file is available in the Crystallography Open Database (COD),
# http://www.crystallography.net/
#
# All data on this site have been placed in the public domain by the
# contributors.
#
data_7041588
loop_
_publ_author_name
'Aulakh, Jaspreet K.'
'Lobana, Tarlok S.'
'Sood, Henna'
'Arora, Daljit S.'
'Garcia-Santos, Isabel'
'Hundal, Geeta'
'Kaur, Manpreet'
'Smolenski, Victoria A.'
'Jasinski, Jerry P.'
_publ_section_title
;
 Variable coordination and C-S bond cleavage activity of N-substituted
 imidazolidine-2-thiones towards copper: synthesis, spectroscopy,
 structures, ESI-mass and antimicrobial studies.
;
_journal_issue                   4
_journal_name_full
'Dalton transactions (Cambridge, England : 2003)'
_journal_page_first              1324
_journal_page_last               1339
_journal_paper_doi               10.1039/c6dt04103e
_journal_volume                  46
_journal_year                    2017
_chemical_formula_moiety         'C20 H36 Cu5 I6 N8 S2'
_chemical_formula_sum            'C20 H36 Cu5 I6 N8 S2'
_chemical_formula_weight         1531.79
_space_group_crystal_system      triclinic
_space_group_IT_number           2
_space_group_name_Hall           '-P 1'
_space_group_name_H-M_alt        'P -1'
_symmetry_space_group_name_Hall  '-P 1'
_symmetry_space_group_name_H-M   'P -1'
_atom_sites_solution_hydrogens   geom
_atom_sites_solution_primary     direct
_audit_creation_date             2016-07-13
_audit_creation_method
;
Olex2 1.2
(compiled 2016.02.19 svn.r3266 for OlexSys, GUI svn.r5155)
;
_audit_update_record
;
2016-09-29 deposited with the CCDC.
2016-12-26 downloaded from the CCDC.
;
_cell_angle_alpha                99.126(5)
_cell_angle_beta                 102.165(5)
_cell_angle_gamma                111.425(5)
_cell_formula_units_Z            1
_cell_length_a                   8.0690(4)
_cell_length_b                   9.9078(6)
_cell_length_c                   13.1167(8)
_cell_measurement_reflns_used    3786
_cell_measurement_temperature    173(2)
_cell_measurement_theta_max      32.2280
_cell_measurement_theta_min      3.1450
_cell_volume                     921.71(11)
_computing_cell_refinement
'CrysAlis PRO (Rigaku OxfordDiffraction, 2015)'
_computing_data_collection
'CrysAlis PRO (Rigaku OxfordDiffraction, 2015)'
_computing_data_reduction
'CrysAlis RED (Rigaku OxfordDiffraction, 2015)'
_computing_molecular_graphics    'Olex2 (Dolomanov et al., 2009)'
_computing_publication_material  'Olex2 (Dolomanov et al., 2009)'
_computing_structure_refinement  'ShelXL (Sheldrick, 2015)'
_computing_structure_solution    'ShelXT (Sheldrick, 2015)'
_diffrn_ambient_temperature      173(2)
_diffrn_detector_area_resol_mean 16.0416
_diffrn_measured_fraction_theta_full 0.990
_diffrn_measured_fraction_theta_max 0.897
_diffrn_measurement_device_type  Rigaku-OxfordDiffracti0on
_diffrn_measurement_method       '\w scans'
_diffrn_radiation_type           MoK\a
_diffrn_radiation_wavelength     0.71073
_diffrn_reflns_av_R_equivalents  0.0343
_diffrn_reflns_av_unetI/netI     0.0566
_diffrn_reflns_Laue_measured_fraction_full 0.990
_diffrn_reflns_Laue_measured_fraction_max 0.897
_diffrn_reflns_limit_h_max       12
_diffrn_reflns_limit_h_min       -9
_diffrn_reflns_limit_k_max       14
_diffrn_reflns_limit_k_min       -14
_diffrn_reflns_limit_l_max       18
_diffrn_reflns_limit_l_min       -18
_diffrn_reflns_number            6080
_diffrn_reflns_point_group_measured_fraction_full 0.990
_diffrn_reflns_point_group_measured_fraction_max 0.897
_diffrn_reflns_theta_full        25.500
_diffrn_reflns_theta_max         32.706
_diffrn_reflns_theta_min         3.290
_diffrn_source                   'Enhance (Mo) X-ray Source'
_exptl_absorpt_coefficient_mu    8.002
_exptl_absorpt_correction_T_max  1.00000
_exptl_absorpt_correction_T_min  0.36790
_exptl_absorpt_correction_type   multi-scan
_exptl_absorpt_process_details
;
CrysAlisPro, Agilent Technologies,
Version 1.171.37.34 (release 22-05-2014 CrysAlis171 .NET)
(compiled May 22 2014,16:03:01)
Empirical absorption correction using spherical harmonics,
 implemented in SCALE3 ABSPACK scaling algorithm.
;
_exptl_crystal_colour            black
_exptl_crystal_colour_primary    black
_exptl_crystal_density_diffrn    2.760
_exptl_crystal_description       prism
_exptl_crystal_F_000             707
_exptl_crystal_size_max          0.22
_exptl_crystal_size_mid          0.18
_exptl_crystal_size_min          0.08
_refine_diff_density_max         3.114
_refine_diff_density_min         -2.036
_refine_diff_density_rms         0.248
_refine_ls_extinction_method     none
_refine_ls_goodness_of_fit_ref   1.073
_refine_ls_hydrogen_treatment    constr
_refine_ls_matrix_type           full
_refine_ls_number_parameters     189
_refine_ls_number_reflns         6080
_refine_ls_number_restraints     0
_refine_ls_restrained_S_all      1.073
_refine_ls_R_factor_all          0.0616
_refine_ls_R_factor_gt           0.0463
_refine_ls_shift/su_max          0.000
_refine_ls_shift/su_mean         0.000
_refine_ls_structure_factor_coef Fsqd
_refine_ls_weighting_details
'w=1/[\s^2^(Fo^2^)+(0.0482P)^2^+2.1039P] where P=(Fo^2^+2Fc^2^)/3'
_refine_ls_weighting_scheme      calc
_refine_ls_wR_factor_gt          0.1075
_refine_ls_wR_factor_ref         0.1201
_reflns_Friedel_coverage         0.000
_reflns_number_gt                4853
_reflns_number_total             6080
_reflns_threshold_expression     'I > 2\s(I)'
_cod_data_source_file            c6dt04103e2.cif
_cod_data_source_block           tsl-432
_cod_depositor_comments
'Adding full bibliography for 7041581--7041593.cif.'
_cod_original_cell_volume        921.71(10)
_cod_database_code               7041588
_shelxl_version_number           2014/6
_shelx_space_group_comment
;
The symmetry employed for this shelxl refinement is uniquely defined
by the following loop, which should always be used as a source of
symmetry information in preference to the above space-group names.
They are only intended as comments.
;
_olex2_refinement_description
;
1. Fixed Uiso
 At 1.2 times of:
  All C(H,H) groups
 At 1.5 times of:
  All C(H,H,H) groups
2.a Secondary CH2 refined with riding coordinates:
 C1(H1A,H1B), C2(H2A,H2B), C3(H3A,H3B), C6(H6A,H6B), C7(H7A,H7B), C9(H9A,H9B)
2.b Idealised Me refined as rotating group:
 C4(H4A,H4B,H4C), C10(H10A,H10B,H10C)
;
_shelx_res_file
;
TITL shelxt_a.res in P-1
CELL 0.71073 8.069 9.9078 13.1167 99.126 102.165 111.425
ZERR 1 0.0004 0.0006 0.0008 0.005 0.005 0.005
LATT 1
SFAC C H Cu I N S
UNIT 20 36 5 6 8 2
EQIV $1 2-X,1-Y,1-Z
EQIV $2 1-X,1-Y,1-Z
EQIV $3 1-X,1-Y,-Z
EQIV $4 1+X,+Y,+Z
EQIV $5 1-X,-Y,-Z

L.S. 25
PLAN  20
TEMP -100(2)
HTAB C1 S1_$1
HTAB C1 I1_$2
HTAB C3 I3_$3
HTAB C6 I2_$4
HTAB C7 I3_$4
HTAB C10 I3_$5
CONF
BOND $H
HTAB
MORE -1
fmap 2 53
acta 51
OMIT -5 5 0
OMIT 1 -6 2
OMIT -5 2 1
OMIT 4 -5 1
OMIT -3 6 0
OMIT 2 -5 2
OMIT 2 -3 1
OMIT 2 -6 1
OMIT -6 4 0
OMIT 3 -10 3
OMIT 6 -11 2
OMIT -4 4 0
OMIT 3 -7 1
OMIT -8 5 4
OMIT -1 1 1
OMIT 3 -5 2
OMIT 3 -6 2
OMIT 2 -9 3
OMIT -4 6 0
OMIT -2 -8 5
OMIT -9 9 1
OMIT -3 -7 4
OMIT 1 -10 4
OMIT -4 5 1
OMIT -5 4 0
OMIT 0 2 4
OMIT -2 0 7
REM <olex2.extras>
REM <HklSrc "%.\\tsl-432.hkl">
REM </olex2.extras>

WGHT    0.048200    2.103900
FVAR       1.00606
I1    4    0.241580    0.350743    0.379889    11.00000    0.01501    0.02352 =
         0.02362    0.00388    0.00604    0.00540
I2    4    0.605367    0.751056    0.300135    11.00000    0.02450    0.02153 =
         0.02901    0.00742    0.00531    0.00747
I3    4    0.314690    0.321757    0.041040    11.00000    0.02652    0.02721 =
         0.02706    0.00489    0.00582    0.01172
CU1   3    1.000000    0.500000    0.500000    10.50000    0.01953    0.01315 =
         0.01534    0.00605    0.00301    0.00195
CU2   3    0.582404    0.550414    0.408053    11.00000    0.02592    0.02832 =
         0.03563    0.01083    0.00745    0.00921
CU3   3    0.547811    0.599353    0.111808    11.00000    0.02913    0.03266 =
         0.03269    0.00671    0.00658    0.01496
S1    6    0.725280    0.389625    0.351196    11.00000    0.01466    0.01614 =
         0.02006    0.00685    0.00670    0.00437
N1    5    1.082013    0.678911    0.445977    11.00000    0.02023    0.01287 =
         0.01663    0.00438    0.00470    0.00291
N2    5    1.131608    0.831071    0.334113    11.00000    0.02149    0.01490 =
         0.02033    0.00827    0.00666    0.00216
N3    5    0.961033    0.569794    0.255704    11.00000    0.01562    0.01277 =
         0.01847    0.00470    0.00581    0.00085
N4    5    0.796772    0.334060    0.162567    11.00000    0.01585    0.01787 =
         0.02084    0.00426    0.00533    0.00556
C1    1    1.188388    0.834232    0.516269    11.00000    0.04518    0.01479 =
         0.02220    0.00342    0.00019   -0.00213
AFIX  23
H1A   2    1.310084    0.845653    0.561404    11.00000   -1.20000
H1B   2    1.118015    0.858687    0.564256    11.00000   -1.20000
AFIX   0
C2    1    1.215496    0.935266    0.441035    11.00000    0.05028    0.01789 =
         0.01822    0.00600    0.00217    0.00331
AFIX  23
H2A   2    1.151913    1.002853    0.450968    11.00000   -1.20000
H2B   2    1.349386    0.996602    0.452920    11.00000   -1.20000
AFIX   0
C3    1    1.073668    0.884690    0.241122    11.00000    0.02497    0.01936 =
         0.02791    0.01349    0.00738    0.00846
AFIX  23
H3A   2    1.021082    0.957058    0.262302    11.00000   -1.20000
H3B   2    0.974900    0.798972    0.183132    11.00000   -1.20000
AFIX   0
C4    1    1.236383    0.960319    0.198369    11.00000    0.03364    0.03406 =
         0.03265    0.01993    0.01524    0.00700
AFIX 137
H4A   2    1.193398    0.996025    0.136774    11.00000   -1.50000
H4B   2    1.286277    0.887989    0.175319    11.00000   -1.50000
H4C   2    1.334061    1.045554    0.255534    11.00000   -1.50000
AFIX   0
C5    1    1.052681    0.689257    0.346616    11.00000    0.01040    0.01328 =
         0.02010    0.00493    0.00356    0.00402
C6    1    1.042935    0.551589    0.165881    11.00000    0.02093    0.02777 =
         0.01898    0.00569    0.01050    0.00233
AFIX  23
H6A   2    1.166001    0.549244    0.192028    11.00000   -1.20000
H6B   2    1.056575    0.633602    0.129488    11.00000   -1.20000
AFIX   0
C7    1    0.900541    0.400910    0.090634    11.00000    0.03056    0.02571 =
         0.02101    0.00774    0.01178    0.01333
AFIX  23
H7A   2    0.818524    0.414262    0.029074    11.00000   -1.20000
H7B   2    0.961905    0.339109    0.062805    11.00000   -1.20000
AFIX   0
C8    1    0.831508    0.431436    0.253595    11.00000    0.00866    0.01588 =
         0.01861    0.00422    0.00080    0.00442
C9    1    0.668352    0.174809    0.129903    11.00000    0.02017    0.01937 =
         0.02416   -0.00048    0.00193    0.00411
AFIX  23
H9A   2    0.591965    0.148587    0.054039    11.00000   -1.20000
H9B   2    0.583376    0.156588    0.175649    11.00000   -1.20000
AFIX   0
C10   1    0.772229    0.076217    0.140363    11.00000    0.04680    0.01969 =
         0.05575    0.00641   -0.00329    0.01478
AFIX 137
H10A  2    0.685191   -0.029016    0.107697    11.00000   -1.50000
H10B  2    0.830643    0.089652    0.216915    11.00000   -1.50000
H10C  2    0.868452    0.103853    0.103286    11.00000   -1.50000
AFIX   0
HKLF 4

REM  shelxt_a.res in P-1
REM R1 =  0.0463 for    4853 Fo > 4sig(Fo)  and  0.0616 for all    6080 data
REM    189 parameters refined using      0 restraints

END

WGHT      0.0482      2.1257

REM Instructions for potential hydrogen bonds
HTAB C1 S1_$1
HTAB C1 I1_$2
HTAB C3 I3_$3
HTAB C6 I2_$4
HTAB C7 I3_$4
HTAB C10 I3_$5

REM Highest difference peak  3.114,  deepest hole -2.036,  1-sigma level  0.248
Q1    1   0.6186  0.7875  0.3588  11.00000  0.05    3.11
Q2    1   0.3955  0.4723  0.2421  11.00000  0.05    2.09
Q3    1   0.2862  0.3164  0.3745  11.00000  0.05    1.77
Q4    1   0.5456  0.5943  0.4426  11.00000  0.05    1.74
Q5    1   0.2830  0.3987  0.4660  11.00000  0.05    1.32
Q6    1   0.2014  0.3089  0.3165  11.00000  0.05    1.23
Q7    1   0.5652  0.7046  0.2174  11.00000  0.05    1.12
Q8    1   0.5237  0.6785  0.1374  11.00000  0.05    1.10
Q9    1   0.2246  0.4393  0.3924  11.00000  0.05    1.09
Q10   1   0.2809  0.2796 -0.0463  11.00000  0.05    1.07
Q11   1   0.1843  0.2995  0.3970  11.00000  0.05    1.04
Q12   1   0.8763  0.5225  0.2490  11.00000  0.05    0.98
Q13   1   0.5956  0.6635  0.2041  11.00000  0.05    0.98
Q14   1   0.6898  0.5789  0.4463  11.00000  0.05    0.97
Q15   1   0.6414  0.6860  0.2750  11.00000  0.05    0.97
Q16   1   0.5699  0.6793  0.3219  11.00000  0.05    0.96
Q17   1   0.1870  0.2835  0.2560  11.00000  0.05    0.95
Q18   1   0.3890  0.3798  0.2170  11.00000  0.05    0.93
Q19   1   0.1655  0.2622  0.1999  11.00000  0.05    0.92
Q20   1   0.3570  0.2594  0.0354  11.00000  0.05    0.90
;
_shelx_res_checksum              37301
_olex2_exptl_crystal_mounting_method 'Nylon Loop'
_olex2_submission_original_sample_id TSL-432
_olex2_submission_special_instructions 'No special instructions were received'
loop_
_space_group_symop_operation_xyz
'x, y, z'
'-x, -y, -z'
loop_
_atom_site_label
_atom_site_type_symbol
_atom_site_fract_x
_atom_site_fract_y
_atom_site_fract_z
_atom_site_U_iso_or_equiv
_atom_site_adp_type
_atom_site_occupancy
_atom_site_site_symmetry_order
_atom_site_calc_flag
_atom_site_refinement_flags_posn
_atom_site_refinement_flags_adp
_atom_site_refinement_flags_occupancy
I1 I 0.24158(5) 0.35074(4) 0.37989(3) 0.02170(9) Uani 1 1 d . . .
I2 I 0.60537(6) 0.75106(4) 0.30014(3) 0.02594(10) Uani 1 1 d . . .
I3 I 0.31469(6) 0.32176(4) 0.04104(3) 0.02734(10) Uani 1 1 d . . .
Cu1 Cu 1.0000 0.5000 0.5000 0.01752(18) Uani 1 2 d S T P
Cu2 Cu 0.58240(11) 0.55041(9) 0.40805(7) 0.03050(18) Uani 1 1 d . . .
Cu3 Cu 0.54781(12) 0.59935(9) 0.11181(7) 0.03146(18) Uani 1 1 d . . .
S1 S 0.72528(18) 0.38962(14) 0.35120(11) 0.0170(2) Uani 1 1 d . . .
N1 N 1.0820(7) 0.6789(5) 0.4460(4) 0.0178(9) Uani 1 1 d . . .
N2 N 1.1316(7) 0.8311(5) 0.3341(4) 0.0200(9) Uani 1 1 d . . .
N3 N 0.9610(6) 0.5698(5) 0.2557(4) 0.0169(8) Uani 1 1 d . . .
N4 N 0.7968(6) 0.3341(5) 0.1626(4) 0.0187(9) Uani 1 1 d . . .
C1 C 1.1884(11) 0.8342(6) 0.5163(5) 0.0336(15) Uani 1 1 d . . .
H1A H 1.3101 0.8457 0.5614 0.040 Uiso 1 1 calc R . .
H1B H 1.1180 0.8587 0.5643 0.040 Uiso 1 1 calc R . .
C2 C 1.2155(11) 0.9353(7) 0.4410(5) 0.0332(15) Uani 1 1 d . . .
H2A H 1.1519 1.0029 0.4510 0.040 Uiso 1 1 calc R . .
H2B H 1.3494 0.9966 0.4529 0.040 Uiso 1 1 calc R . .
C3 C 1.0737(8) 0.8847(6) 0.2411(5) 0.0234(11) Uani 1 1 d . . .
H3A H 1.0211 0.9571 0.2623 0.028 Uiso 1 1 calc R . .
H3B H 0.9749 0.7990 0.1831 0.028 Uiso 1 1 calc R . .
C4 C 1.2364(10) 0.9603(8) 0.1984(6) 0.0332(14) Uani 1 1 d . . .
H4A H 1.1934 0.9960 0.1368 0.050 Uiso 1 1 calc GR . .
H4B H 1.2863 0.8880 0.1753 0.050 Uiso 1 1 calc GR . .
H4C H 1.3341 1.0456 0.2555 0.050 Uiso 1 1 calc GR . .
C5 C 1.0527(7) 0.6893(5) 0.3466(4) 0.0149(9) Uani 1 1 d . . .
C6 C 1.0429(8) 0.5516(7) 0.1659(5) 0.0242(11) Uani 1 1 d . . .
H6A H 1.1660 0.5492 0.1920 0.029 Uiso 1 1 calc R . .
H6B H 1.0566 0.6336 0.1295 0.029 Uiso 1 1 calc R . .
C7 C 0.9005(9) 0.4009(7) 0.0906(5) 0.0243(11) Uani 1 1 d . . .
H7A H 0.8185 0.4143 0.0291 0.029 Uiso 1 1 calc R . .
H7B H 0.9619 0.3391 0.0628 0.029 Uiso 1 1 calc R . .
C8 C 0.8315(7) 0.4314(6) 0.2536(4) 0.0151(9) Uani 1 1 d . . .
C9 C 0.6684(8) 0.1748(6) 0.1299(5) 0.0240(11) Uani 1 1 d . . .
H9A H 0.5920 0.1486 0.0540 0.029 Uiso 1 1 calc R . .
H9B H 0.5834 0.1566 0.1756 0.029 Uiso 1 1 calc R . .
C10 C 0.7722(11) 0.0762(8) 0.1404(7) 0.0439(19) Uani 1 1 d . . .
H10A H 0.6852 -0.0290 0.1077 0.066 Uiso 1 1 calc GR . .
H10B H 0.8306 0.0897 0.2169 0.066 Uiso 1 1 calc GR . .
H10C H 0.8685 0.1039 0.1033 0.066 Uiso 1 1 calc GR . .
loop_
_atom_site_aniso_label
_atom_site_aniso_U_11
_atom_site_aniso_U_22
_atom_site_aniso_U_33
_atom_site_aniso_U_23
_atom_site_aniso_U_13
_atom_site_aniso_U_12
I1 0.01501(17) 0.02352(18) 0.02362(19) 0.00388(13) 0.00604(13) 0.00540(13)
I2 0.0245(2) 0.02153(18) 0.0290(2) 0.00742(14) 0.00531(15) 0.00747(14)
I3 0.0265(2) 0.0272(2) 0.0271(2) 0.00489(15) 0.00582(16) 0.01172(16)
Cu1 0.0195(5) 0.0132(4) 0.0153(4) 0.0061(3) 0.0030(3) 0.0020(3)
Cu2 0.0259(4) 0.0283(4) 0.0356(4) 0.0108(3) 0.0074(3) 0.0092(3)
Cu3 0.0291(4) 0.0327(4) 0.0327(4) 0.0067(3) 0.0066(3) 0.0150(3)
S1 0.0147(6) 0.0161(5) 0.0201(6) 0.0068(4) 0.0067(5) 0.0044(4)
N1 0.020(2) 0.0129(19) 0.017(2) 0.0044(15) 0.0047(17) 0.0029(16)
N2 0.021(2) 0.015(2) 0.020(2) 0.0083(16) 0.0067(18) 0.0022(17)
N3 0.016(2) 0.0128(18) 0.018(2) 0.0047(15) 0.0058(17) 0.0009(16)
N4 0.016(2) 0.018(2) 0.021(2) 0.0043(16) 0.0053(17) 0.0056(17)
C1 0.045(4) 0.015(3) 0.022(3) 0.003(2) 0.000(3) -0.002(2)
C2 0.050(4) 0.018(3) 0.018(3) 0.006(2) 0.002(3) 0.003(3)
C3 0.025(3) 0.019(2) 0.028(3) 0.013(2) 0.007(2) 0.008(2)
C4 0.034(4) 0.034(3) 0.033(3) 0.020(3) 0.015(3) 0.007(3)
C5 0.010(2) 0.013(2) 0.020(2) 0.0049(17) 0.0036(18) 0.0040(17)
C6 0.021(3) 0.028(3) 0.019(3) 0.006(2) 0.010(2) 0.002(2)
C7 0.031(3) 0.026(3) 0.021(3) 0.008(2) 0.012(2) 0.013(2)
C8 0.009(2) 0.016(2) 0.019(2) 0.0042(17) 0.0008(18) 0.0044(17)
C9 0.020(3) 0.019(2) 0.024(3) 0.000(2) 0.002(2) 0.004(2)
C10 0.047(5) 0.020(3) 0.056(5) 0.006(3) -0.003(4) 0.015(3)
loop_
_atom_type_symbol
_atom_type_description
_atom_type_scat_dispersion_real
_atom_type_scat_dispersion_imag
_atom_type_scat_source
C C 0.0033 0.0016 'International Tables Vol C Tables 4.2.6.8 and 6.1.1.4'
H H 0.0000 0.0000 'International Tables Vol C Tables 4.2.6.8 and 6.1.1.4'
Cu Cu 0.3201 1.2651 'International Tables Vol C Tables 4.2.6.8 and 6.1.1.4'
I I -0.4742 1.8119 'International Tables Vol C Tables 4.2.6.8 and 6.1.1.4'
N N 0.0061 0.0033 'International Tables Vol C Tables 4.2.6.8 and 6.1.1.4'
S S 0.1246 0.1234 'International Tables Vol C Tables 4.2.6.8 and 6.1.1.4'
loop_
_geom_angle_atom_site_label_1
_geom_angle_atom_site_label_2
_geom_angle_atom_site_label_3
_geom_angle
_geom_angle_site_symmetry_1
_geom_angle_site_symmetry_3
Cu2 I1 Cu2 71.81(3) . 2_666
Cu3 I2 Cu2 101.08(3) . .
Cu3 I3 Cu3 71.95(3) . 2_665
S1 Cu1 S1 180.0 . 2_766
N1 Cu1 S1 90.55(14) . 2_766
N1 Cu1 S1 89.45(14) 2_766 2_766
N1 Cu1 S1 90.55(14) 2_766 .
N1 Cu1 S1 89.45(14) . .
N1 Cu1 N1 180.0 2_766 .
I1 Cu2 I1 108.19(3) . 2_666
I2 Cu2 I1 117.14(3) . 2_666
I2 Cu2 I1 115.25(3) . .
S1 Cu2 I1 100.93(4) . 2_666
S1 Cu2 I1 100.74(4) . .
S1 Cu2 I2 112.47(5) . .
I2 Cu3 I3 130.17(4) . 2_665
I2 Cu3 I3 121.76(4) . .
I2 Cu3 Cu3 175.66(5) . 2_665
I3 Cu3 I3 108.05(3) . 2_665
I3 Cu3 Cu3 54.10(3) . 2_665
I3 Cu3 Cu3 53.96(3) 2_665 2_665
Cu1 S1 Cu2 96.89(5) . .
C8 S1 Cu1 96.85(17) . .
C8 S1 Cu2 115.74(18) . .
C1 N1 Cu1 124.1(4) . .
C5 N1 Cu1 129.0(4) . .
C5 N1 C1 106.9(4) . .
C2 N2 C3 119.3(5) . .
C5 N2 C2 107.9(4) . .
C5 N2 C3 126.8(5) . .
C5 N3 C6 122.2(4) . .
C8 N3 C5 124.3(4) . .
C8 N3 C6 108.8(4) . .
C8 N4 C7 112.9(4) . .
C8 N4 C9 126.5(5) . .
C9 N4 C7 120.6(5) . .
N1 C1 H1A 110.6 . .
N1 C1 H1B 110.6 . .
N1 C1 C2 105.9(5) . .
H1A C1 H1B 108.7 . .
C2 C1 H1A 110.6 . .
C2 C1 H1B 110.6 . .
N2 C2 C1 103.6(5) . .
N2 C2 H2A 111.0 . .
N2 C2 H2B 111.0 . .
C1 C2 H2A 111.0 . .
C1 C2 H2B 111.0 . .
H2A C2 H2B 109.0 . .
N2 C3 H3A 109.3 . .
N2 C3 H3B 109.3 . .
N2 C3 C4 111.5(5) . .
H3A C3 H3B 108.0 . .
C4 C3 H3A 109.3 . .
C4 C3 H3B 109.3 . .
C3 C4 H4A 109.5 . .
C3 C4 H4B 109.5 . .
C3 C4 H4C 109.5 . .
H4A C4 H4B 109.5 . .
H4A C4 H4C 109.5 . .
H4B C4 H4C 109.5 . .
N1 C5 N2 115.4(5) . .
N1 C5 N3 125.5(4) . .
N2 C5 N3 118.9(5) . .
N3 C6 H6A 111.2 . .
N3 C6 H6B 111.2 . .
N3 C6 C7 102.8(4) . .
H6A C6 H6B 109.1 . .
C7 C6 H6A 111.2 . .
C7 C6 H6B 111.2 . .
N4 C7 C6 101.8(4) . .
N4 C7 H7A 111.4 . .
N4 C7 H7B 111.4 . .
C6 C7 H7A 111.4 . .
C6 C7 H7B 111.4 . .
H7A C7 H7B 109.3 . .
N3 C8 S1 126.3(4) . .
N4 C8 S1 124.0(4) . .
N4 C8 N3 109.7(5) . .
N4 C9 H9A 109.4 . .
N4 C9 H9B 109.4 . .
N4 C9 C10 111.3(5) . .
H9A C9 H9B 108.0 . .
C10 C9 H9A 109.4 . .
C10 C9 H9B 109.4 . .
C9 C10 H10A 109.5 . .
C9 C10 H10B 109.5 . .
C9 C10 H10C 109.5 . .
H10A C10 H10B 109.5 . .
H10A C10 H10C 109.5 . .
H10B C10 H10C 109.5 . .
loop_
_geom_bond_atom_site_label_1
_geom_bond_atom_site_label_2
_geom_bond_distance
_geom_bond_site_symmetry_2
I1 Cu2 2.6417(9) .
I1 Cu2 2.6773(10) 2_666
I2 Cu2 2.5931(9) .
I2 Cu3 2.5309(10) .
I3 Cu3 2.5811(10) 2_665
I3 Cu3 2.5766(10) .
Cu1 S1 2.3765(14) .
Cu1 S1 2.3765(14) 2_766
Cu1 N1 1.955(4) 2_766
Cu1 N1 1.955(4) .
Cu2 I1 2.6773(9) 2_666
Cu2 S1 2.3980(16) .
Cu3 I3 2.5811(10) 2_665
Cu3 Cu3 3.0297(17) 2_665
S1 C8 1.708(5) .
N1 C1 1.485(7) .
N1 C5 1.302(7) .
N2 C2 1.456(8) .
N2 C3 1.461(7) .
N2 C5 1.368(6) .
N3 C5 1.382(7) .
N3 C6 1.485(7) .
N3 C8 1.379(6) .
N4 C7 1.468(7) .
N4 C8 1.316(7) .
N4 C9 1.467(7) .
C1 H1A 0.9900 .
C1 H1B 0.9900 .
C1 C2 1.506(8) .
C2 H2A 0.9900 .
C2 H2B 0.9900 .
C3 H3A 0.9900 .
C3 H3B 0.9900 .
C3 C4 1.525(8) .
C4 H4A 0.9800 .
C4 H4B 0.9800 .
C4 H4C 0.9800 .
C6 H6A 0.9900 .
C6 H6B 0.9900 .
C6 C7 1.525(8) .
C7 H7A 0.9900 .
C7 H7B 0.9900 .
C9 H9A 0.9900 .
C9 H9B 0.9900 .
C9 C10 1.506(9) .
C10 H10A 0.9800 .
C10 H10B 0.9800 .
C10 H10C 0.9800 .
loop_
_geom_hbond_atom_site_label_D
_geom_hbond_atom_site_label_H
_geom_hbond_atom_site_label_A
_geom_hbond_distance_DH
_geom_hbond_distance_HA
_geom_hbond_distance_DA
_geom_hbond_angle_DHA
_geom_hbond_site_symmetry_A
C1 H1A S1 0.99 2.71 3.204(7) 111.4 2_766
C1 H1B I1 0.99 3.20 3.923(7) 131.1 2_666
C3 H3B I3 0.99 3.08 3.966(6) 149.7 2_665
C6 H6A I2 0.99 3.22 4.072(6) 144.9 1_655
C7 H7B I3 0.99 2.98 3.857(6) 147.8 1_655
C10 H10A I3 0.98 3.23 4.000(7) 136.8 2_655
loop_
_geom_torsion_atom_site_label_1
_geom_torsion_atom_site_label_2
_geom_torsion_atom_site_label_3
_geom_torsion_atom_site_label_4
_geom_torsion
Cu1 S1 C8 N3 -49.5(5)
Cu1 S1 C8 N4 132.1(4)
Cu1 N1 C1 C2 -178.2(5)
Cu1 N1 C5 N2 -178.8(4)
Cu1 N1 C5 N3 -3.3(8)
Cu2 S1 C8 N3 51.6(5)
Cu2 S1 C8 N4 -126.8(4)
N1 C1 C2 N2 -2.7(8)
N3 C6 C7 N4 -18.3(6)
C1 N1 C5 N2 3.2(7)
C1 N1 C5 N3 178.7(6)
C2 N2 C3 C4 83.3(7)
C2 N2 C5 N1 -5.1(7)
C2 N2 C5 N3 179.0(5)
C3 N2 C2 C1 159.2(6)
C3 N2 C5 N1 -157.3(5)
C3 N2 C5 N3 26.8(8)
C5 N1 C1 C2 -0.1(7)
C5 N2 C2 C1 4.5(7)
C5 N2 C3 C4 -127.3(6)
C5 N3 C6 C7 175.7(5)
C5 N3 C8 S1 13.6(8)
C5 N3 C8 N4 -167.8(5)
C6 N3 C5 N1 -128.4(6)
C6 N3 C5 N2 47.0(7)
C6 N3 C8 S1 169.8(4)
C6 N3 C8 N4 -11.7(6)
C7 N4 C8 S1 177.2(4)
C7 N4 C8 N3 -1.4(6)
C7 N4 C9 C10 76.6(7)
C8 N3 C5 N1 24.8(8)
C8 N3 C5 N2 -159.8(5)
C8 N3 C6 C7 19.0(6)
C8 N4 C7 C6 13.0(6)
C8 N4 C9 C10 -104.3(7)
C9 N4 C7 C6 -167.7(5)
C9 N4 C8 S1 -1.9(8)
C9 N4 C8 N3 179.5(5)
