#------------------------------------------------------------------------------
#$Date: 2017-06-03 05:19:29 +0300 (Sat, 03 Jun 2017) $
#$Revision: 197192 $
#$URL: file:///home/coder/svn-repositories/cod/cif/7/04/32/7043213.cif $
#------------------------------------------------------------------------------
#
# This file is available in the Crystallography Open Database (COD),
# http://www.crystallography.net/
#
# All data on this site have been placed in the public domain by the
# contributors.
#
data_7043213
loop_
_publ_author_name
'Mehring, Michael'
'Preda, Ana Maria'
'Schneider, Wolfgang B.'
'Rainer, Martin'
'Rueffer, Tobias'
'Schaarschmidt, Dieter'
'Lang, Heinrich'
_publ_section_title
;
 Heteroaryl Bismuthines: A Novel Synthetic Concept and
 Metal&#x00B7;&#x00B7;&#x00B7;\p Heteroarene Interaction
;
_journal_name_full               'Dalton Trans.'
_journal_paper_doi               10.1039/C7DT01437F
_journal_year                    2017
_chemical_formula_moiety         'C12 H9 Bi S3'
_chemical_formula_sum            'C12 H9 Bi S3'
_chemical_formula_weight         458.35
_space_group_crystal_system      triclinic
_space_group_IT_number           2
_space_group_name_Hall           '-P 1'
_space_group_name_H-M_alt        'P -1'
_symmetry_space_group_name_Hall  '-P 1'
_symmetry_space_group_name_H-M   'P -1'
_atom_sites_solution_hydrogens   geom
_audit_creation_method           SHELXL-2014/6
_audit_update_record
;
2017-03-31 deposited with the CCDC.
2017-06-02 downloaded from the CCDC.
;
_cell_angle_alpha                64.493(9)
_cell_angle_beta                 71.427(9)
_cell_angle_gamma                66.556(8)
_cell_formula_units_Z            2
_cell_length_a                   8.9848(8)
_cell_length_b                   9.3411(7)
_cell_length_c                   9.6115(11)
_cell_measurement_reflns_used    6511
_cell_measurement_temperature    100
_cell_measurement_theta_max      25.9984
_cell_measurement_theta_min      2.8540
_cell_volume                     657.31(12)
_computing_cell_refinement
;
CrysAlis RED, Oxford Diffraction Ltd.,
Version 1.171.31.7 (release 18-10-2006 CrysAlis171 .NET)
(compiled Oct 18 2006,16:28:17)
;
_computing_data_collection
;
CrysAlis CCD, Oxford Diffraction Ltd.,
Version 1.171.31.7 (release 18-10-2006 CrysAlis171 .NET)
(compiled Oct 18 2006,16:28:17)
;
_computing_data_reduction
;
CrysAlis RED, Oxford Diffraction Ltd.,
Version 1.171.31.7 (release 18-10-2006 CrysAlis171 .NET)
(compiled Oct 18 2006,16:28:17)
;
_computing_structure_refinement  'SHELXL-2014/6 (Sheldrick, 2014)'
_computing_structure_solution    'SHELXS-2013 (Sheldrick, 2008)'
_diffrn_ambient_temperature      100
_diffrn_measured_fraction_theta_full 0.986
_diffrn_measured_fraction_theta_max 0.984
_diffrn_measurement_device_type  'Oxford Gemini S'
_diffrn_measurement_method       '\w scans'
_diffrn_radiation_type           MoK\a
_diffrn_radiation_wavelength     0.71073
_diffrn_reflns_av_R_equivalents  0.0403
_diffrn_reflns_av_unetI/netI     0.0400
_diffrn_reflns_Laue_measured_fraction_full 0.986
_diffrn_reflns_Laue_measured_fraction_max 0.984
_diffrn_reflns_limit_h_max       11
_diffrn_reflns_limit_h_min       -11
_diffrn_reflns_limit_k_max       11
_diffrn_reflns_limit_k_min       -11
_diffrn_reflns_limit_l_max       11
_diffrn_reflns_limit_l_min       -11
_diffrn_reflns_number            6252
_diffrn_reflns_point_group_measured_fraction_full 0.986
_diffrn_reflns_point_group_measured_fraction_max 0.984
_diffrn_reflns_theta_full        25.242
_diffrn_reflns_theta_max         26.101
_diffrn_reflns_theta_min         2.862
_diffrn_standards_decay_%        0
_diffrn_standards_interval_count 50
_diffrn_standards_interval_time  10
_diffrn_standards_number         2
_exptl_absorpt_coefficient_mu    13.856
_exptl_absorpt_correction_T_max  1.00000
_exptl_absorpt_correction_T_min  0.73176
_exptl_absorpt_correction_type   multi-scan
_exptl_absorpt_process_details
;
CrysAlis RED, Oxford Diffraction Ltd.,
Version 1.171.31.7 (release 18-10-2006 CrysAlis171 .NET)
(compiled Oct 18 2006,16:28:17)
Empirical absorption correction using spherical harmonics,
 implemented in SCALE3 ABSPACK scaling algorithm.
;
_exptl_crystal_colour            colorless
_exptl_crystal_density_diffrn    2.316
_exptl_crystal_description       needle
_exptl_crystal_F_000             424
_exptl_crystal_size_max          0.10
_exptl_crystal_size_mid          0.01
_exptl_crystal_size_min          0.01
_refine_diff_density_max         1.236
_refine_diff_density_min         -0.799
_refine_diff_density_rms         0.135
_refine_ls_extinction_method     none
_refine_ls_goodness_of_fit_ref   1.067
_refine_ls_hydrogen_treatment    constr
_refine_ls_matrix_type           full
_refine_ls_number_parameters     183
_refine_ls_number_reflns         2572
_refine_ls_number_restraints     138
_refine_ls_restrained_S_all      1.056
_refine_ls_R_factor_all          0.0233
_refine_ls_R_factor_gt           0.0200
_refine_ls_shift/su_max          0.001
_refine_ls_shift/su_mean         0.000
_refine_ls_structure_factor_coef Fsqd
_refine_ls_weighting_details
'w=1/[\s^2^(Fo^2^)+(0.0237P)^2^] where P=(Fo^2^+2Fc^2^)/3'
_refine_ls_weighting_scheme      calc
_refine_ls_wR_factor_gt          0.0461
_refine_ls_wR_factor_ref         0.0473
_reflns_Friedel_coverage         0.000
_reflns_number_gt                2356
_reflns_number_total             2572
_reflns_threshold_expression     'I > 2\s(I)'
_cod_data_source_file            c7dt01437f2.cif
_cod_data_source_block           4
_cod_original_cell_volume        657.31(13)
_cod_database_code               7043213
_shelx_space_group_comment
;
The symmetry employed for this shelxl refinement is uniquely defined
by the following loop, which should always be used as a source of
symmetry information in preference to the above space-group names.
They are only intended as comments.
;
_shelxl_version_number           2014/6
_shelx_res_file
;
TITL WOLFGANG1 in P-1
CELL  0.71073   8.9848   9.3411   9.6115   64.493   71.427   66.556
ZERR     2.00   0.0008   0.0007   0.0011    0.009    0.009    0.008
LATT   1
SFAC  C    H    S    BI
UNIT  24   18   6    2
MERG   2
OMIT     2   0   0
SADI C5 S2  C5 S2'
SADI C5 C6  C5 C6'
SADI C7 C6  C8 C6'
SADI C9 S3  C9 S3'
SADI C9 C10  C9 C10'
SADI C11 C10  C12 C10'
RIGU S2 C6 S2' C6' C5 C9 S3 C10 S3' C10' C7 C11 C8 C12 C1 C2 C3 C4 S1
FMAP   2
PLAN   40
ACTA
BOND   $H
CONF
L.S.   4
WGHT    0.023700
FVAR       3.52752   0.69880   0.60289
BI1   4    0.645406    0.645473    0.529283    11.00000    0.01968    0.02287 =
         0.02205   -0.01089    0.00141   -0.01100
PART    1
S2    3    0.750579    0.906410    0.626020    21.00000    0.02691    0.03182 =
         0.04043   -0.02203    0.00736   -0.01738
C6    1    0.474568    0.857496    0.768358    21.00000    0.02618    0.02691 =
         0.02897   -0.01293   -0.00094   -0.00996
AFIX  43
H6    2    0.383340    0.819349    0.803775    21.00000   -1.20000
AFIX   0
PART    2
S2'   3    0.434396    0.856323    0.787081   -21.00000    0.02674    0.03050 =
         0.03079   -0.01738    0.00527   -0.01271
C6'   1    0.698575    0.913532    0.636906   -21.00000    0.02540    0.02810 =
         0.02997   -0.01019   -0.00029   -0.01111
AFIX  43
H6'   2    0.790505    0.924199    0.558438   -21.00000   -1.20000
AFIX   0
PART    0
C1    1    0.803356    0.432699    0.697189    11.00000    0.01553    0.01866 =
         0.03036   -0.01111   -0.00135   -0.00510
C5    1    0.608950    0.811297    0.657854    11.00000    0.02239    0.01977 =
         0.02298   -0.00518   -0.00185   -0.00951
S1    3    0.956630    0.271142    0.648993    11.00000    0.02932    0.03168 =
         0.04468   -0.01694    0.00622   -0.01042
C2    1    0.794527    0.408731    0.857341    11.00000    0.00974    0.01624 =
         0.01995   -0.00329    0.00038   -0.00945
AFIX  43
H2    2    0.721207    0.481649    0.908512    11.00000   -1.20000
AFIX   0
C9    1    0.418924    0.570735    0.679798    11.00000    0.02156    0.02750 =
         0.02483   -0.01456    0.00143   -0.01275
C3    1    0.912820    0.258935    0.925976    11.00000    0.03244    0.03773 =
         0.03938   -0.00613   -0.00432   -0.02321
AFIX  43
H3    2    0.924270    0.221854    1.029752    11.00000   -1.20000
AFIX   0
PART    1
S3    3    0.227549    0.683882    0.637381    31.00000    0.02544    0.02905 =
         0.03033   -0.01102   -0.00103   -0.01490
C10   1    0.413560    0.423593    0.810094    31.00000    0.02655    0.03491 =
         0.02793   -0.01586    0.00062   -0.01451
AFIX  43
H10   2    0.504536    0.343116    0.853411    31.00000   -1.20000
AFIX   0
PART    2
S3'   3    0.436071    0.391004    0.831280   -31.00000    0.02602    0.02795 =
         0.02357   -0.01168    0.00347   -0.01608
C10'  1    0.251311    0.648314    0.664119   -31.00000    0.02990    0.03894 =
         0.03916   -0.02215   -0.00113   -0.00667
AFIX  43
H10'  2    0.213380    0.750993    0.588101   -31.00000   -1.20000
AFIX   0
PART    0
C7    1    0.493154    0.974041    0.823114    11.00000    0.03522    0.02643 =
         0.03563   -0.01745   -0.00580   -0.00416
AFIX  43
H7    2    0.417132    1.018707    0.897040    11.00000   -1.20000
AFIX   0
C11   1    0.241201    0.415703    0.868284    11.00000    0.03528    0.04076 =
         0.03266   -0.01949    0.00426   -0.02147
AFIX  43
H11   2    0.208247    0.329954    0.952892    11.00000   -1.20000
AFIX   0
C8    1    0.636672    1.005000    0.749419    11.00000    0.03688    0.02559 =
         0.04308   -0.01544   -0.00617   -0.01203
AFIX  43
H8    2    0.670116    1.077421    0.766611    11.00000   -1.20000
AFIX   0
C4    1    1.006701    0.174924    0.830442    11.00000    0.02269    0.02264 =
         0.05550   -0.00131   -0.00466   -0.00911
AFIX  43
H4    2    1.090185    0.074938    0.859760    11.00000   -1.20000
AFIX   0
C12   1    0.142242    0.550143    0.780470    11.00000    0.02994    0.04916 =
         0.04640   -0.02819   -0.00130   -0.01461
AFIX  43
H12   2    0.029389    0.567268    0.799690    11.00000   -1.20000
AFIX   0
HKLF    4

REM  WOLFGANG1 in P-1
REM R1 =  0.0200 for    2356 Fo > 4sig(Fo)  and  0.0233 for all    2572 data
REM    183 parameters refined using    138 restraints

END

WGHT      0.0237      0.0000

REM Highest difference peak  1.236,  deepest hole -0.799,  1-sigma level  0.135
Q1    1   0.6804  0.6258  0.4242  11.00000  0.05    1.24
Q2    1   0.6080  0.6768  0.6228  11.00000  0.05    1.20
Q3    1   0.6568  0.7466  0.5221  11.00000  0.05    0.94
Q4    1   0.6357  0.5405  0.5377  11.00000  0.05    0.83
Q5    1   0.8217  0.4413  0.8620  11.00000  0.05    0.75
Q6    1   0.7400  0.5396  0.6122  11.00000  0.05    0.64
Q7    1   0.8051  0.3995  0.7992  11.00000  0.05    0.62
Q8    1   0.7278  0.6588  0.5053  11.00000  0.05    0.58
Q9    1   0.7714  0.5930  0.6263  11.00000  0.05    0.58
Q10   1   0.5062  0.6991  0.4200  11.00000  0.05    0.57
Q11   1   0.6655  0.8554  0.6360  11.00000  0.05    0.52
Q12   1   1.0187  0.1806  0.7558  11.00000  0.05    0.48
Q13   1   0.5203  0.8337  0.5468  11.00000  0.05    0.42
Q14   1   0.5525  0.7324  0.4446  11.00000  0.05    0.40
Q15   1   0.5467  0.8424  0.7018  11.00000  0.05    0.39
Q16   1   0.6860  0.9790  0.6857  11.00000  0.05    0.39
Q17   1   0.5877  0.7964  0.7113  11.00000  0.05    0.38
Q18   1   0.9368  0.1988  0.8849  11.00000  0.05    0.36
Q19   1   0.4976  0.8971  0.8321  11.00000  0.05    0.36
Q20   1   0.6077  1.2427  0.6394  11.00000  0.05    0.35
Q21   1   1.1736  0.2770  0.7382  11.00000  0.05    0.34
Q22   1   0.4380  0.6749  0.5553  11.00000  0.05    0.34
Q23   1   0.7567  0.4558  0.5134  11.00000  0.05    0.34
Q24   1   1.0569  0.3343  0.4626  11.00000  0.05    0.33
Q25   1   0.2001  0.7688  0.5341  11.00000  0.05    0.33
Q26   1  -0.0133  0.7806  0.6418  11.00000  0.05    0.33
Q27   1   0.5640  1.0169  0.8164  11.00000  0.05    0.32
Q28   1   0.4310  0.6190  0.6829  11.00000  0.05    0.32
Q29   1   0.1634  0.7236  0.5012  11.00000  0.05    0.31
Q30   1   0.9774 -0.0005  0.7252  11.00000  0.05    0.31
Q31   1   0.8876  0.2066  0.6285  11.00000  0.05    0.31
Q32   1   0.8647  0.6043  0.5369  11.00000  0.05    0.31
Q33   1   0.7436  0.7716  0.4346  11.00000  0.05    0.30
Q34   1   0.4502  0.3577  0.7193  11.00000  0.05    0.30
Q35   1   0.3419  0.3812  0.8439  11.00000  0.05    0.30
Q36   1   0.3468  0.5773  0.6642  11.00000  0.05    0.29
Q37   1   0.0738  0.6485  0.8632  11.00000  0.05    0.29
Q38   1   0.0703  0.9401  0.5086  11.00000  0.05    0.29
Q39   1   0.8218  0.3866  0.6431  11.00000  0.05    0.29
Q40   1   0.9601  0.2662  0.5405  11.00000  0.05    0.29
;
_shelx_res_checksum              77492
loop_
_space_group_symop_operation_xyz
'x, y, z'
'-x, -y, -z'
loop_
_atom_site_label
_atom_site_type_symbol
_atom_site_fract_x
_atom_site_fract_y
_atom_site_fract_z
_atom_site_U_iso_or_equiv
_atom_site_adp_type
_atom_site_occupancy
_atom_site_site_symmetry_order
_atom_site_calc_flag
_atom_site_refinement_flags_posn
_atom_site_refinement_flags_adp
_atom_site_refinement_flags_occupancy
_atom_site_disorder_assembly
_atom_site_disorder_group
Bi1 Bi 0.64541(2) 0.64547(2) 0.52928(2) 0.02021(7) Uani 1 1 d . . . . .
S2 S 0.7506(3) 0.9064(4) 0.6260(4) 0.0302(7) Uani 0.699(6) 1 d D U P A 1
C6 C 0.4746(19) 0.857(2) 0.768(2) 0.027(3) Uani 0.699(6) 1 d D U P A 1
H6 H 0.3833 0.8193 0.8038 0.032 Uiso 0.699(6) 1 calc R U P A 1
S2' S 0.4344(12) 0.8563(16) 0.7871(14) 0.0282(19) Uani 0.301(6) 1 d D U P A 2
C6' C 0.699(3) 0.914(4) 0.637(3) 0.028(5) Uani 0.301(6) 1 d D U P A 2
H6' H 0.7905 0.9242 0.5584 0.034 Uiso 0.301(6) 1 calc R U P A 2
C1 C 0.8034(6) 0.4327(5) 0.6972(5) 0.0213(9) Uani 1 1 d . U . . .
C5 C 0.6089(6) 0.8113(5) 0.6579(5) 0.0221(9) Uani 1 1 d D U . . .
S1 S 0.95663(18) 0.27114(17) 0.64899(16) 0.0369(3) Uani 1 1 d . U . . .
C2 C 0.7945(5) 0.4087(5) 0.8573(4) 0.0154(8) Uani 1 1 d . U . . .
H2 H 0.7212 0.4816 0.9085 0.018 Uiso 1 1 calc R U . . .
C9 C 0.4189(6) 0.5707(5) 0.6798(5) 0.0223(9) Uani 1 1 d D U . . .
C3 C 0.9128(7) 0.2589(6) 0.9260(6) 0.0355(11) Uani 1 1 d . U . . .
H3 H 0.9243 0.2219 1.0298 0.043 Uiso 1 1 calc R U . . .
S3 S 0.2275(4) 0.6839(4) 0.6374(5) 0.0268(8) Uani 0.603(5) 1 d D U P B 1
C10 C 0.414(3) 0.424(2) 0.810(2) 0.028(4) Uani 0.603(5) 1 d D U P B 1
H10 H 0.5045 0.3431 0.8534 0.033 Uiso 0.603(5) 1 calc R U P B 1
S3' S 0.4361(9) 0.3910(9) 0.8313(9) 0.0242(13) Uani 0.397(5) 1 d D U P B 2
C10' C 0.251(3) 0.648(3) 0.664(3) 0.035(5) Uani 0.397(5) 1 d D U P B 2
H10' H 0.2134 0.7510 0.5881 0.043 Uiso 0.397(5) 1 calc R U P B 2
C7 C 0.4932(7) 0.9740(6) 0.8231(6) 0.0319(11) Uani 1 1 d D U . . .
H7 H 0.4171 1.0187 0.8970 0.038 Uiso 1 1 calc R U . A 1
C11 C 0.2412(7) 0.4157(7) 0.8683(6) 0.0331(11) Uani 1 1 d D U . . .
H11 H 0.2082 0.3300 0.9529 0.040 Uiso 1 1 calc R U . B 1
C8 C 0.6367(7) 1.0050(6) 0.7494(6) 0.0333(12) Uani 1 1 d D U . . .
H8 H 0.6701 1.0774 0.7666 0.040 Uiso 1 1 calc R U . A 1
C4 C 1.0067(7) 0.1749(6) 0.8304(6) 0.0381(12) Uani 1 1 d . U . . .
H4 H 1.0902 0.0749 0.8598 0.046 Uiso 1 1 calc R U . . .
C12 C 0.1422(7) 0.5501(7) 0.7805(6) 0.0381(12) Uani 1 1 d D U . . .
H12 H 0.0294 0.5673 0.7997 0.046 Uiso 1 1 calc R U . B 1
loop_
_atom_site_aniso_label
_atom_site_aniso_U_11
_atom_site_aniso_U_22
_atom_site_aniso_U_33
_atom_site_aniso_U_23
_atom_site_aniso_U_13
_atom_site_aniso_U_12
Bi1 0.01968(11) 0.02287(10) 0.02205(10) -0.01089(7) 0.00141(7) -0.01100(8)
S2 0.0269(15) 0.0318(12) 0.0404(13) -0.0220(10) 0.0074(12) -0.0174(12)
C6 0.026(6) 0.027(5) 0.029(6) -0.013(4) -0.001(4) -0.010(5)
S2' 0.027(4) 0.031(3) 0.031(3) -0.017(2) 0.005(3) -0.013(3)
C6' 0.025(9) 0.028(9) 0.030(8) -0.010(7) 0.000(7) -0.011(8)
C1 0.016(2) 0.019(2) 0.030(2) -0.0111(17) -0.0014(18) -0.0051(18)
C5 0.022(2) 0.020(2) 0.023(2) -0.0052(17) -0.0019(19) -0.0095(19)
S1 0.0293(8) 0.0317(7) 0.0447(7) -0.0169(6) 0.0062(6) -0.0104(6)
C2 0.010(2) 0.0162(19) 0.0200(18) -0.0033(15) 0.0004(16) -0.0095(17)
C9 0.022(2) 0.028(2) 0.025(2) -0.0146(18) 0.0014(19) -0.013(2)
C3 0.032(3) 0.038(3) 0.039(3) -0.006(2) -0.004(2) -0.023(2)
S3 0.0254(15) 0.0291(16) 0.0303(15) -0.0110(12) -0.0010(11) -0.0149(13)
C10 0.027(6) 0.035(7) 0.028(6) -0.016(4) 0.001(4) -0.015(5)
S3' 0.026(3) 0.028(2) 0.024(2) -0.0117(18) 0.0035(18) -0.016(2)
C10' 0.030(6) 0.039(7) 0.039(8) -0.022(5) -0.001(5) -0.007(5)
C7 0.035(3) 0.026(3) 0.036(2) -0.017(2) -0.006(2) -0.004(2)
C11 0.035(3) 0.041(3) 0.033(2) -0.019(2) 0.004(2) -0.021(2)
C8 0.037(3) 0.026(2) 0.043(3) -0.015(2) -0.006(2) -0.012(2)
C4 0.023(3) 0.023(2) 0.055(3) -0.001(2) -0.005(2) -0.009(2)
C12 0.030(3) 0.049(3) 0.046(3) -0.028(2) -0.001(2) -0.015(2)
loop_
_atom_type_symbol
_atom_type_description
_atom_type_scat_dispersion_real
_atom_type_scat_dispersion_imag
_atom_type_scat_source
C C 0.0033 0.0016 'International Tables Vol C Tables 4.2.6.8 and 6.1.1.4'
H H 0.0000 0.0000 'International Tables Vol C Tables 4.2.6.8 and 6.1.1.4'
S S 0.1246 0.1234 'International Tables Vol C Tables 4.2.6.8 and 6.1.1.4'
Bi Bi -4.1077 10.2566 'International Tables Vol C Tables 4.2.6.8 and 6.1.1.4'
loop_
_geom_angle_atom_site_label_1
_geom_angle_atom_site_label_2
_geom_angle_atom_site_label_3
_geom_angle
C1 Bi1 C5 90.08(15)
C1 Bi1 C9 90.75(16)
C5 Bi1 C9 91.68(14)
C8 S2 C5 93.5(2)
C5 C6 C7 112.4(10)
C5 C6 H6 123.8
C7 C6 H6 123.8
C7 S2' C5 93.3(5)
C5 C6' C8 115.4(15)
C5 C6' H6' 122.3
C8 C6' H6' 122.3
C2 C1 S1 109.7(3)
C2 C1 Bi1 126.9(3)
S1 C1 Bi1 123.4(2)
C6' C5 S2' 106.7(8)
C6 C5 S2 109.4(7)
C6 C5 Bi1 128.2(7)
C6' C5 Bi1 131.0(9)
S2' C5 Bi1 121.6(4)
S2 C5 Bi1 122.4(2)
C4 S1 C1 93.0(3)
C3 C2 C1 110.4(4)
C3 C2 H2 124.8
C1 C2 H2 124.8
C10' C9 S3' 108.8(9)
C10 C9 S3 110.3(8)
C10 C9 Bi1 127.2(9)
C10' C9 Bi1 130.5(9)
S3' C9 Bi1 120.6(4)
S3 C9 Bi1 122.3(2)
C4 C3 C2 114.7(5)
C4 C3 H3 122.7
C2 C3 H3 122.7
C12 S3 C9 93.3(3)
C9 C10 C11 110.2(12)
C9 C10 H10 124.9
C11 C10 H10 124.9
C11 S3' C9 92.9(4)
C9 C10' C12 113.4(15)
C9 C10' H10' 123.3
C12 C10' H10' 123.3
C8 C7 C6 109.1(6)
C8 C7 S2' 121.6(5)
C8 C7 H7 125.4
C6 C7 H7 125.4
C12 C11 C10 109.3(8)
C12 C11 S3' 120.0(5)
C12 C11 H11 125.4
C10 C11 H11 125.4
C7 C8 C6' 102.1(8)
C7 C8 S2 115.6(3)
C7 C8 H8 122.2
S2 C8 H8 122.2
C3 C4 S1 112.3(4)
C3 C4 H4 123.9
S1 C4 H4 123.9
C11 C12 C10' 104.9(9)
C11 C12 S3 116.9(5)
C11 C12 H12 121.6
S3 C12 H12 121.6
loop_
_geom_bond_atom_site_label_1
_geom_bond_atom_site_label_2
_geom_bond_distance
Bi1 C1 2.241(5)
Bi1 C5 2.241(4)
Bi1 C9 2.260(4)
S2 C8 1.649(5)
S2 C5 1.709(4)
C6 C5 1.391(14)
C6 C7 1.478(16)
C6 H6 0.9300
S2' C7 1.586(11)
S2' C5 1.692(9)
C6' C5 1.394(19)
C6' C8 1.50(2)
C6' H6' 0.9300
C1 C2 1.437(6)
C1 S1 1.712(5)
S1 C4 1.697(6)
C2 C3 1.411(7)
C2 H2 0.9300
C9 C10 1.411(17)
C9 C10' 1.41(2)
C9 S3' 1.672(7)
C9 S3 1.694(6)
C3 C4 1.331(8)
C3 H3 0.9300
S3 C12 1.628(6)
C10 C11 1.49(2)
C10 H10 0.9300
S3' C11 1.612(10)
C10' C12 1.48(2)
C10' H10' 0.9300
C7 C8 1.337(7)
C7 H7 0.9300
C11 C12 1.325(8)
C11 H11 0.9300
C8 H8 0.9300
C4 H4 0.9300
C12 H12 0.9300
loop_
_geom_torsion_atom_site_label_1
_geom_torsion_atom_site_label_2
_geom_torsion_atom_site_label_3
_geom_torsion_atom_site_label_4
_geom_torsion
C7 C6 C5 S2 0.5(16)
C7 C6 C5 Bi1 -177.9(6)
C8 C6' C5 S2' 11(3)
C8 C6' C5 Bi1 -179.1(9)
C7 S2' C5 C6' -7.3(17)
C7 S2' C5 Bi1 -178.6(4)
C8 S2 C5 C6 -1.0(10)
C8 S2 C5 Bi1 177.5(3)
C2 C1 S1 C4 0.4(3)
Bi1 C1 S1 C4 -179.7(2)
S1 C1 C2 C3 -0.8(4)
Bi1 C1 C2 C3 179.3(3)
C1 C2 C3 C4 1.0(5)
C10 C9 S3 C12 0.3(12)
Bi1 C9 S3 C12 175.7(3)
S3 C9 C10 C11 -0.1(19)
Bi1 C9 C10 C11 -175.2(7)
C10' C9 S3' C11 0.6(15)
Bi1 C9 S3' C11 -175.7(3)
S3' C9 C10' C12 -1(2)
Bi1 C9 C10' C12 174.6(8)
C5 C6 C7 C8 0.4(17)
C5 S2' C7 C8 2.3(10)
C9 C10 C11 C12 -0.1(19)
C9 S3' C11 C12 0.2(7)
S2' C7 C8 C6' 3.1(15)
C6 C7 C8 S2 -1.2(10)
C5 C6' C8 C7 -9(2)
C5 S2 C8 C7 1.3(5)
C2 C3 C4 S1 -0.7(5)
C1 S1 C4 C3 0.1(4)
S3' C11 C12 C10' -0.8(14)
C10 C11 C12 S3 0.3(12)
C9 C10' C12 C11 1(2)
C9 S3 C12 C11 -0.4(5)
