#------------------------------------------------------------------------------
#$Date: 2017-07-18 05:24:03 +0300 (Tue, 18 Jul 2017) $
#$Revision: 198776 $
#$URL: file:///home/coder/svn-repositories/cod/cif/7/04/36/7043670.cif $
#------------------------------------------------------------------------------
#
# This file is available in the Crystallography Open Database (COD),
# http://www.crystallography.net/
#
# All data on this site have been placed in the public domain by the
# contributors.
#
data_7043670
loop_
_publ_author_name
'Liu, Hongjun'
'Battiato, Sergio'
'Pellegrino, Anna Lucia'
'Paoli, Paola'
'Jim\'enez, Carmen'
'Rossi, Patrizia'
'Malandrino, Graziella'
'Mu\~noz-Rojas, David'
_publ_section_title
;
 Deposition of metallic silver coatings by Aerosol Assisted MOCVD using
 two new silver \b-Diketonate adduct metalorganic precursors
;
_journal_name_full               'Dalton Trans.'
_journal_paper_doi               10.1039/C7DT01647F
_journal_year                    2017
_chemical_formula_sum            'C17 H9 Ag F6 N2 O2'
_chemical_formula_weight         495.13
_chemical_name_systematic
;
 ?
;
_space_group_crystal_system      triclinic
_space_group_IT_number           2
_space_group_name_Hall           '-P 1'
_space_group_name_H-M_alt        'P -1'
_symmetry_space_group_name_Hall  '-P 1'
_symmetry_space_group_name_H-M   'P -1'
_atom_sites_solution_hydrogens   difmap
_audit_creation_method           SHELXL-2014
_audit_update_record
;
2017-06-12 deposited with the CCDC.
2017-07-17 downloaded from the CCDC.
;
_cell_angle_alpha                102.579(4)
_cell_angle_beta                 105.172(4)
_cell_angle_gamma                103.608(4)
_cell_formula_units_Z            2
_cell_length_a                   7.4309(3)
_cell_length_b                   9.2288(4)
_cell_length_c                   13.1426(6)
_cell_measurement_reflns_used    5861
_cell_measurement_temperature    100
_cell_measurement_theta_max      71.8270
_cell_measurement_theta_min      5.1440
_cell_volume                     807.10(7)
_computing_cell_refinement
;
CrysAlisPro, Agilent Technologies,
Version 1.171.37.35g (release 09-12-2014 CrysAlis171 .NET)
(compiled Dec  9 2014,15:38:47)
;
_computing_data_collection
;
CrysAlisPro, Agilent Technologies,
Version 1.171.37.35g (release 09-12-2014 CrysAlis171 .NET)
(compiled Dec  9 2014,15:38:47)
;
_computing_data_reduction
;
CrysAlisPro, Agilent Technologies,
Version 1.171.37.35g (release 09-12-2014 CrysAlis171 .NET)
(compiled Dec  9 2014,15:38:47)
;
_computing_molecular_graphics    'ORTEP-3 (Farruggia, 1997)'
_computing_publication_material  'PARST97 (Nardelli, 1995)'
_computing_structure_refinement  'SHELXL-2013 (Sheldrick, 2014)'
_computing_structure_solution    'Sir2004 (Burla, 2004)'
_diffrn_ambient_temperature      100
_diffrn_detector_area_resol_mean 8.1241
_diffrn_measured_fraction_theta_full 0.996
_diffrn_measured_fraction_theta_max 0.954
_diffrn_measurement_device_type  'Xcalibur, Onyx'
_diffrn_radiation_type           CuK\a
_diffrn_radiation_wavelength     1.54184
_diffrn_reflns_av_R_equivalents  0.0617
_diffrn_reflns_av_unetI/netI     0.0569
_diffrn_reflns_Laue_measured_fraction_full 0.996
_diffrn_reflns_Laue_measured_fraction_max 0.954
_diffrn_reflns_limit_h_max       8
_diffrn_reflns_limit_h_min       -9
_diffrn_reflns_limit_k_max       9
_diffrn_reflns_limit_k_min       -11
_diffrn_reflns_limit_l_max       16
_diffrn_reflns_limit_l_min       -15
_diffrn_reflns_number            8748
_diffrn_reflns_point_group_measured_fraction_full 0.996
_diffrn_reflns_point_group_measured_fraction_max 0.954
_diffrn_reflns_theta_full        67.684
_diffrn_reflns_theta_max         72.336
_diffrn_reflns_theta_min         5.165
_exptl_absorpt_coefficient_mu    10.823
_exptl_absorpt_correction_T_max  1.00000
_exptl_absorpt_correction_T_min  0.09227
_exptl_absorpt_correction_type   multi-scan
_exptl_absorpt_process_details
;
CrysAlisPro, Agilent Technologies,
Version 1.171.37.35g (release 09-12-2014 CrysAlis171 .NET)
(compiled Dec  9 2014,15:38:47)
Empirical absorption correction using spherical harmonics,
 implemented in SCALE3 ABSPACK scaling algorithm.
;
_exptl_crystal_colour            yellow
_exptl_crystal_density_diffrn    2.037
_exptl_crystal_description       prism
_exptl_crystal_F_000             484
_exptl_crystal_size_max          0.30
_exptl_crystal_size_mid          0.27
_exptl_crystal_size_min          0.20
_refine_diff_density_max         1.081
_refine_diff_density_min         -1.261
_refine_diff_density_rms         0.206
_refine_ls_extinction_method     none
_refine_ls_goodness_of_fit_ref   1.115
_refine_ls_hydrogen_treatment    refxyz
_refine_ls_matrix_type           full
_refine_ls_number_parameters     295
_refine_ls_number_reflns         3045
_refine_ls_number_restraints     46
_refine_ls_restrained_S_all      1.110
_refine_ls_R_factor_all          0.0565
_refine_ls_R_factor_gt           0.0407
_refine_ls_shift/su_max          0.002
_refine_ls_shift/su_mean         0.000
_refine_ls_structure_factor_coef Fsqd
_refine_ls_weighting_details
'w=1/[\s^2^(Fo^2^)+(0.0452P)^2^+4.2951P] where P=(Fo^2^+2Fc^2^)/3'
_refine_ls_weighting_scheme      calc
_refine_ls_wR_factor_gt          0.0934
_refine_ls_wR_factor_ref         0.1169
_reflns_Friedel_coverage         0.000
_reflns_number_gt                2573
_reflns_number_total             3045
_reflns_threshold_expression     'I > 2\s(I)'
_cod_data_source_file            c7dt01647f2.cif
_cod_data_source_block           AgP
_cod_original_cell_volume        807.10(6)
_cod_database_code               7043670
_shelx_space_group_comment
;
The symmetry employed for this shelxl refinement is uniquely defined
by the following loop, which should always be used as a source of
symmetry information in preference to the above space-group names.
They are only intended as comments.
;
_shelxl_version_number           2014-1
_shelx_res_file
;
TITL test structure:Ag_hfa_phen P-1
CELL  1.54184   7.4309   9.2289  13.1426  102.579  105.172  103.608
ZERR     2.00   0.0003   0.0004   0.0006    0.004    0.004    0.004
LATT   1
SFAC  C    H    N    O    F    AG
UNIT  34   18   4    4   12    2
MERG   2
acta
L.S.  600
DFIX 1.33 F5a C5 F5b C5 F5c C5 F5d C5 F5e c5 f5f c5 f5g c5 f5h c5 f5i c5
SADI F5a C5 F5b C5 F5c C5 F5d C5 F5e c5 f5f c5     f5g c5 f5h c5 f5i c5
EADP F5a F5d f5g
EADP F5b F5e f5h
EADP F5c F5f f5i
eadp c16 c17
SUMP 1.0 0.0001 1.0 2 1.0 3 1.0 4
WGHT    0.045200    4.295100
FVAR       5.97856   0.43723   0.40865   0.15412
AG1   6    0.398572   -0.050493    1.080688    11.00000    0.02688    0.02332 =
         0.01024    0.00676   -0.00087    0.00754
O1    4    0.524214   -0.196424    1.181944    11.00000    0.03693    0.02519 =
         0.00905    0.00548   -0.00008    0.01576
O2    4    0.576113    0.146996    1.257944    11.00000    0.02698    0.02382 =
         0.01170    0.00713    0.00159    0.00635
N2    3    0.181383   -0.165836    0.901044    11.00000    0.02467    0.01260 =
         0.00797    0.00239    0.00235    0.00236
N1    3    0.273593    0.140698    1.019813    11.00000    0.02027    0.01756 =
         0.01179    0.00461   -0.00085    0.00441
C1    1    0.609471   -0.159266    1.284318    11.00000    0.02409    0.02465 =
         0.01768    0.01235    0.00706    0.01151
C2    1    0.674574   -0.017492    1.365679    11.00000    0.02046    0.01327 =
         0.00758   -0.00216   -0.00200   -0.00272
H2    2    0.730780   -0.009773    1.442079    11.00000   -1.20000
C3    1    0.647240    0.121671    1.345248    11.00000    0.01709    0.01715 =
         0.00901    0.00106    0.00054    0.00024
C4    1    0.639157   -0.301158    1.321450    11.00000    0.03021    0.02651 =
         0.01115    0.00485    0.00363    0.01136
F4A   5    0.736102   -0.374688    1.265733    11.00000    0.04541    0.02841 =
         0.03237    0.01161    0.01782    0.02117
F4B   5    0.736762   -0.267986    1.428833    11.00000    0.05681    0.02879 =
         0.01157    0.00770   -0.00485    0.01664
F4C   5    0.464504   -0.406580    1.300945    11.00000    0.03882    0.02231 =
         0.02489    0.00946    0.00989    0.00216
C5    1    0.712611    0.263287    1.451482    11.00000    0.02567    0.02301 =
         0.01195    0.00346    0.00221    0.00614
PART    1
F5A   5    0.900575    0.290557    1.509334    21.00000    0.03449    0.03032 =
         0.01772   -0.00170   -0.00145   -0.00169
F5B   5    0.607404    0.230030    1.514815    21.00000    0.01564    0.05733 =
         0.01755   -0.02279    0.00536   -0.01634
F5C   5    0.699140    0.391656    1.422830    21.00000    0.06476    0.02121 =
         0.02832    0.00171    0.00491    0.02142
PART    2
F5D   5    0.692955    0.228011    1.542550    31.00000    0.03449    0.03032 =
         0.01772   -0.00170   -0.00145   -0.00169
F5E   5    0.896762    0.349997    1.479724    31.00000    0.01564    0.05733 =
         0.01755   -0.02279    0.00536   -0.01634
F5F   5    0.605199    0.361175    1.438950    31.00000    0.06476    0.02121 =
         0.02832    0.00171    0.00491    0.02142
part 3
F5G   5    0.820941    0.247034    1.545489    41.00000    0.03449    0.03032 =
         0.01772   -0.00170   -0.00145   -0.00169
F5H   5    0.554733    0.294577    1.466981    41.00000    0.01564    0.05733 =
         0.01755   -0.02279    0.00536   -0.01634
F5I   5    0.814200    0.393137    1.438706    41.00000    0.06476    0.02121 =
         0.02832    0.00171    0.00491    0.02142
part 0
C6    1    0.323230    0.291279    1.075920    11.00000    0.02753    0.01756 =
         0.01254    0.00067    0.00230    0.00267
H6    2    0.432662    0.328879    1.147213    11.00000   -1.20000
C7    1    0.235642    0.395360    1.035216    11.00000    0.03435    0.00911 =
         0.02072    0.00228    0.00968    0.00381
H7    2    0.280799    0.502434    1.076313    11.00000   -1.20000
C8    1    0.092254    0.342103    0.935467    11.00000    0.02988    0.01176 =
         0.01936    0.00704    0.01030    0.00356
H8    2    0.024656    0.416121    0.905102    11.00000   -1.20000
C9    1    0.033901    0.183153    0.873968    11.00000    0.02055    0.02702 =
         0.01257    0.00640    0.00818    0.00993
C10   1   -0.111224    0.118420    0.765486    11.00000    0.02530    0.02699 =
         0.02056    0.01293    0.00534    0.00992
H10   2   -0.174377    0.177856    0.743782    11.00000   -1.20000
C11   1   -0.157623   -0.032411    0.707135    11.00000    0.01848    0.03206 =
         0.01335    0.01186    0.00324    0.00687
H11   2   -0.256130   -0.067985    0.637108    11.00000   -1.20000
C12   1   -0.061866   -0.133425    0.751536    11.00000    0.01799    0.02207 =
         0.01667    0.00940    0.00639    0.00339
C13   1   -0.107153   -0.292651    0.693169    11.00000    0.02080    0.02253 =
         0.01471    0.00348    0.00035   -0.00244
H13   2   -0.211093   -0.336237    0.615312    11.00000   -1.20000
C14   1   -0.005069   -0.380618    0.738345    11.00000    0.02987    0.01836 =
         0.01507    0.00009    0.00623    0.00274
H14   2   -0.024208   -0.478022    0.699042    11.00000   -1.20000
C15   1    0.138720   -0.314413    0.842417    11.00000    0.02546    0.01292 =
         0.01372    0.00370    0.00732    0.00010
H15   2    0.219671   -0.382013    0.878384    11.00000   -1.20000
C16   1    0.082406   -0.076385    0.857506    11.00000    0.01864    0.01807 =
         0.00433    0.00233    0.00181    0.00476
C17   1    0.131578    0.087057    0.919110    11.00000    0.01864    0.01807 =
         0.00433    0.00233    0.00181    0.00476
HKLF    4

REM  test structure:Ag_hfa_phen P-1
REM R1 =  0.0407 for    2580 Fo > 4sig(Fo)  and  0.0565 for all    3045 data
REM    295 parameters refined using     46 restraints

END

WGHT      0.0452      4.2973

REM Highest difference peak  1.081,  deepest hole -1.261,  1-sigma level  0.206
Q1    1   0.5130 -0.0260  1.0561  11.00000  0.05    1.08
Q2    1   0.4264  0.0818  1.0409  11.00000  0.05    0.94
Q3    1   0.2804 -0.0810  1.1031  11.00000  0.05    0.90
Q4    1   0.4534  0.0962  1.0661  11.00000  0.05    0.85
Q5    1   0.3750 -0.1828  1.1243  11.00000  0.05    0.77
Q6    1   0.2829 -0.2066  1.0570  11.00000  0.05    0.73
Q7    1   0.3465 -0.1731  0.9052  11.00000  0.05    0.69
Q8    1   0.0041  0.2770  0.9386  11.00000  0.05    0.69
Q9    1  -0.2929  0.1478  0.8032  11.00000  0.05    0.68
Q10   1   0.7009 -0.4048  1.1402  11.00000  0.05    0.66
Q11   1   0.3220  0.4233  0.9357  11.00000  0.05    0.65
Q12   1  -0.1546  0.2991  0.9655  11.00000  0.05    0.65
Q13   1  -0.0976  0.0967  0.9646  11.00000  0.05    0.64
Q14   1   0.4303  0.1485  1.0002  11.00000  0.05    0.63
Q15   1   0.5623  0.3248  1.1340  11.00000  0.05    0.62
Q16   1  -0.0321  0.3866  0.9908  11.00000  0.05    0.60
Q17   1   0.6900  0.3162  1.3021  11.00000  0.05    0.60
Q18   1   0.3974 -0.2040  1.2091  11.00000  0.05    0.59
Q19   1   0.9227 -0.1980  1.3391  11.00000  0.05    0.59
Q20   1   0.4173 -0.2764  0.9376  11.00000  0.05    0.59
;
_shelx_res_checksum              42299
loop_
_space_group_symop_operation_xyz
'x, y, z'
'-x, -y, -z'
loop_
_atom_site_label
_atom_site_type_symbol
_atom_site_fract_x
_atom_site_fract_y
_atom_site_fract_z
_atom_site_U_iso_or_equiv
_atom_site_adp_type
_atom_site_occupancy
_atom_site_site_symmetry_order
_atom_site_calc_flag
_atom_site_refinement_flags_posn
_atom_site_refinement_flags_adp
_atom_site_refinement_flags_occupancy
_atom_site_disorder_assembly
_atom_site_disorder_group
Ag1 Ag 0.39857(7) -0.05049(5) 1.08069(3) 0.02134(16) Uani 1 1 d . . . . .
O1 O 0.5242(6) -0.1964(5) 1.1819(3) 0.0241(9) Uani 1 1 d . . . . .
O2 O 0.5761(6) 0.1470(5) 1.2579(3) 0.0218(9) Uani 1 1 d . . . . .
N2 N 0.1814(7) -0.1658(5) 0.9010(4) 0.0165(10) Uani 1 1 d . . . . .
N1 N 0.2736(7) 0.1407(5) 1.0198(4) 0.0180(10) Uani 1 1 d . . . . .
C1 C 0.6095(9) -0.1593(7) 1.2843(5) 0.0203(12) Uani 1 1 d . . . . .
C2 C 0.6746(8) -0.0175(6) 1.3657(4) 0.0175(12) Uani 1 1 d . . . . .
H2 H 0.731(9) -0.010(7) 1.442(6) 0.021 Uiso 1 1 d . U . . .
C3 C 0.6472(8) 0.1217(6) 1.3452(4) 0.0166(11) Uani 1 1 d . . . . .
C4 C 0.6392(9) -0.3012(7) 1.3215(5) 0.0229(13) Uani 1 1 d . . . . .
F4A F 0.7361(6) -0.3747(4) 1.2657(3) 0.0321(9) Uani 1 1 d . . . . .
F4B F 0.7368(6) -0.2680(4) 1.4288(3) 0.0348(9) Uani 1 1 d . . . . .
F4C F 0.4645(5) -0.4066(4) 1.3009(3) 0.0297(8) Uani 1 1 d . . . . .
C5 C 0.7126(7) 0.2633(6) 1.4515(4) 0.0216(12) Uani 1 1 d D . . . .
F5A_a F 0.9006(13) 0.2906(12) 1.5093(8) 0.0333(18) Uani 0.437(3) 1 d D . P A 1
F5B_a F 0.6074(16) 0.2300(14) 1.5148(9) 0.041(2) Uani 0.437(3) 1 d D . P A 1
F5C_a F 0.699(2) 0.3917(11) 1.4228(9) 0.040(3) Uani 0.437(3) 1 d D . P A 1
F5D_b F 0.693(2) 0.2280(12) 1.5425(7) 0.0333(18) Uani 0.409(3) 1 d D . P A 2
F5E_b F 0.8968(14) 0.3500(17) 1.4797(9) 0.041(2) Uani 0.409(3) 1 d D . P A 2
F5F_b F 0.605(2) 0.3612(14) 1.4389(11) 0.040(3) Uani 0.409(3) 1 d D . P A 2
F5G_c F 0.821(4) 0.247(3) 1.5455(14) 0.0333(18) Uani 0.154(3) 1 d D . P A 3
F5H_c F 0.555(2) 0.295(4) 1.467(3) 0.041(2) Uani 0.154(3) 1 d D . P A 3
F5I_c F 0.814(5) 0.393(2) 1.439(3) 0.040(3) Uani 0.154(3) 1 d D . P A 3
C6 C 0.3232(9) 0.2913(7) 1.0759(5) 0.0215(12) Uani 1 1 d . . . . .
H6 H 0.433(10) 0.329(8) 1.147(6) 0.026 Uiso 1 1 d . U . . .
C7 C 0.2356(9) 0.3954(7) 1.0352(5) 0.0222(13) Uani 1 1 d . . . . .
H7 H 0.281(10) 0.502(8) 1.076(6) 0.027 Uiso 1 1 d . U . . .
C8 C 0.0923(9) 0.3421(6) 0.9355(5) 0.0200(12) Uani 1 1 d . . . . .
H8 H 0.025(9) 0.416(8) 0.905(5) 0.024 Uiso 1 1 d . U . . .
C9 C 0.0339(8) 0.1832(7) 0.8740(5) 0.0189(12) Uani 1 1 d . . . . .
C10 C -0.1112(9) 0.1184(7) 0.7655(5) 0.0234(13) Uani 1 1 d . . . . .
H10 H -0.174(10) 0.178(8) 0.744(6) 0.028 Uiso 1 1 d . U . . .
C11 C -0.1576(9) -0.0324(7) 0.7071(5) 0.0210(12) Uani 1 1 d . . . . .
H11 H -0.256(10) -0.068(8) 0.637(6) 0.025 Uiso 1 1 d . U . . .
C12 C -0.0619(8) -0.1334(7) 0.7515(5) 0.0187(12) Uani 1 1 d . . . . .
C13 C -0.1072(9) -0.2927(7) 0.6932(5) 0.0225(13) Uani 1 1 d . . . . .
H13 H -0.211(10) -0.336(8) 0.615(6) 0.027 Uiso 1 1 d . U . . .
C14 C -0.0051(9) -0.3806(7) 0.7383(5) 0.0231(13) Uani 1 1 d . . . . .
H14 H -0.024(10) -0.478(9) 0.699(6) 0.028 Uiso 1 1 d . U . . .
C15 C 0.1387(9) -0.3144(6) 0.8424(5) 0.0183(12) Uani 1 1 d . . . . .
H15 H 0.220(9) -0.382(8) 0.878(5) 0.022 Uiso 1 1 d . U . . .
C16 C 0.0824(8) -0.0764(6) 0.8575(4) 0.0144(8) Uani 1 1 d . . . . .
C17 C 0.1316(8) 0.0871(6) 0.9191(4) 0.0144(8) Uani 1 1 d . . . . .
loop_
_atom_site_aniso_label
_atom_site_aniso_U_11
_atom_site_aniso_U_22
_atom_site_aniso_U_33
_atom_site_aniso_U_23
_atom_site_aniso_U_13
_atom_site_aniso_U_12
Ag1 0.0269(3) 0.0233(2) 0.0102(2) 0.00676(15) -0.00087(16) 0.00754(17)
O1 0.037(2) 0.025(2) 0.0091(19) 0.0055(16) -0.0001(17) 0.0158(19)
O2 0.027(2) 0.024(2) 0.0117(19) 0.0071(16) 0.0016(17) 0.0063(17)
N2 0.025(3) 0.013(2) 0.008(2) 0.0024(17) 0.0023(19) 0.0024(19)
N1 0.020(2) 0.018(2) 0.012(2) 0.0046(18) -0.0008(19) 0.004(2)
C1 0.024(3) 0.025(3) 0.018(3) 0.012(2) 0.007(2) 0.012(3)
C2 0.020(3) 0.013(3) 0.008(3) -0.002(2) -0.002(2) -0.003(2)
C3 0.017(3) 0.017(3) 0.009(3) 0.001(2) 0.001(2) 0.000(2)
C4 0.030(3) 0.027(3) 0.011(3) 0.005(2) 0.004(2) 0.011(3)
F4A 0.045(2) 0.0284(19) 0.032(2) 0.0116(16) 0.0178(18) 0.0212(18)
F4B 0.057(3) 0.0288(19) 0.0116(17) 0.0077(15) -0.0049(16) 0.0166(18)
F4C 0.039(2) 0.0223(18) 0.0249(19) 0.0095(15) 0.0099(16) 0.0022(16)
C5 0.026(3) 0.023(3) 0.012(3) 0.003(2) 0.002(2) 0.006(2)
F5A_a 0.034(4) 0.030(3) 0.018(4) -0.002(3) -0.001(3) -0.002(4)
F5B_a 0.016(3) 0.057(5) 0.018(4) -0.023(3) 0.005(3) -0.016(4)
F5C_a 0.065(10) 0.021(4) 0.028(4) 0.002(3) 0.005(5) 0.021(6)
F5D_b 0.034(4) 0.030(3) 0.018(4) -0.002(3) -0.001(3) -0.002(4)
F5E_b 0.016(3) 0.057(5) 0.018(4) -0.023(3) 0.005(3) -0.016(4)
F5F_b 0.065(10) 0.021(4) 0.028(4) 0.002(3) 0.005(5) 0.021(6)
F5G_c 0.034(4) 0.030(3) 0.018(4) -0.002(3) -0.001(3) -0.002(4)
F5H_c 0.016(3) 0.057(5) 0.018(4) -0.023(3) 0.005(3) -0.016(4)
F5I_c 0.065(10) 0.021(4) 0.028(4) 0.002(3) 0.005(5) 0.021(6)
C6 0.028(3) 0.018(3) 0.013(3) 0.001(2) 0.002(2) 0.003(2)
C7 0.034(3) 0.009(2) 0.021(3) 0.002(2) 0.010(3) 0.004(2)
C8 0.030(3) 0.012(3) 0.019(3) 0.007(2) 0.010(3) 0.004(2)
C9 0.021(3) 0.027(3) 0.013(3) 0.006(2) 0.008(2) 0.010(2)
C10 0.025(3) 0.027(3) 0.021(3) 0.013(3) 0.005(3) 0.010(3)
C11 0.018(3) 0.032(3) 0.013(3) 0.012(2) 0.003(2) 0.007(3)
C12 0.018(3) 0.022(3) 0.017(3) 0.009(2) 0.006(2) 0.003(2)
C13 0.021(3) 0.023(3) 0.015(3) 0.003(2) 0.000(2) -0.002(2)
C14 0.030(3) 0.018(3) 0.015(3) 0.000(2) 0.006(3) 0.003(3)
C15 0.025(3) 0.013(3) 0.014(3) 0.004(2) 0.007(2) 0.000(2)
C16 0.019(2) 0.018(2) 0.0043(17) 0.0023(14) 0.0018(15) 0.0048(16)
C17 0.019(2) 0.018(2) 0.0043(17) 0.0023(14) 0.0018(15) 0.0048(16)
loop_
_atom_type_symbol
_atom_type_description
_atom_type_scat_dispersion_real
_atom_type_scat_dispersion_imag
_atom_type_scat_source
C C 0.0181 0.0091 'International Tables Vol C Tables 4.2.6.8 and 6.1.1.4'
H H 0.0000 0.0000 'International Tables Vol C Tables 4.2.6.8 and 6.1.1.4'
N N 0.0311 0.0180 'International Tables Vol C Tables 4.2.6.8 and 6.1.1.4'
O O 0.0492 0.0322 'International Tables Vol C Tables 4.2.6.8 and 6.1.1.4'
F F 0.0727 0.0534 'International Tables Vol C Tables 4.2.6.8 and 6.1.1.4'
Ag Ag 0.1306 4.2820 'International Tables Vol C Tables 4.2.6.8 and 6.1.1.4'
loop_
_geom_angle_atom_site_label_1
_geom_angle_atom_site_label_2
_geom_angle_atom_site_label_3
_geom_angle
_geom_angle_site_symmetry_3
O1 Ag1 N2 121.13(15) .
O1 Ag1 N1 165.39(15) .
N2 Ag1 N1 71.42(16) .
O1 Ag1 O2 79.35(14) .
N2 Ag1 O2 158.83(15) .
N1 Ag1 O2 87.59(15) .
O1 Ag1 Ag1 118.01(11) 2_657
N2 Ag1 Ag1 70.99(12) 2_657
N1 Ag1 Ag1 71.68(12) 2_657
O2 Ag1 Ag1 105.54(10) 2_657
C1 O1 Ag1 128.8(4) .
C3 O2 Ag1 125.6(4) .
C15 N2 C16 118.6(5) .
C15 N2 Ag1 125.1(4) .
C16 N2 Ag1 116.2(3) .
C6 N1 C17 118.1(5) .
C6 N1 Ag1 126.6(4) .
C17 N1 Ag1 115.3(3) .
O1 C1 C2 131.4(5) .
O1 C1 C4 111.7(5) .
C2 C1 C4 116.9(5) .
C1 C2 C3 123.4(5) .
O2 C3 C2 130.2(5) .
O2 C3 C5 115.4(5) .
C2 C3 C5 114.4(4) .
F4B C4 F4A 107.0(5) .
F4B C4 F4C 106.6(5) .
F4A C4 F4C 106.5(5) .
F4B C4 C1 114.5(5) .
F4A C4 C1 111.6(5) .
F4C C4 C1 110.2(5) .
F5H_c C5 F5I_c 104(2) .
F5B_a C5 F5C_a 112.8(9) .
F5B_a C5 F5A_a 107.6(8) .
F5C_a C5 F5A_a 107.2(8) .
F5E_b C5 F5D_b 105.8(9) .
F5H_c C5 F5G_c 108(2) .
F5I_c C5 F5G_c 107(2) .
F5E_b C5 F5F_b 105.6(10) .
F5D_b C5 F5F_b 103.1(9) .
F5B_a C5 C3 109.6(6) .
F5E_b C5 C3 113.4(6) .
F5H_c C5 C3 109.0(11) .
F5I_c C5 C3 111.4(13) .
F5C_a C5 C3 109.6(6) .
F5A_a C5 C3 109.9(6) .
F5D_b C5 C3 115.9(6) .
F5G_c C5 C3 116.3(11) .
F5F_b C5 C3 112.0(7) .
N1 C6 C7 122.8(5) .
C8 C7 C6 119.4(5) .
C7 C8 C9 119.6(5) .
C17 C9 C8 117.7(5) .
C17 C9 C10 119.0(5) .
C8 C9 C10 123.2(5) .
C11 C10 C9 121.6(6) .
C10 C11 C12 120.5(5) .
C16 C12 C13 117.3(5) .
C16 C12 C11 120.4(5) .
C13 C12 C11 122.2(5) .
C14 C13 C12 119.2(5) .
C13 C14 C15 119.9(6) .
N2 C15 C14 122.5(5) .
N2 C16 C12 122.5(5) .
N2 C16 C17 119.1(5) .
C12 C16 C17 118.3(5) .
N1 C17 C9 122.4(5) .
N1 C17 C16 117.5(5) .
C9 C17 C16 120.0(5) .
loop_
_geom_bond_atom_site_label_1
_geom_bond_atom_site_label_2
_geom_bond_distance
_geom_bond_site_symmetry_2
Ag1 O1 2.276(4) .
Ag1 N2 2.327(4) .
Ag1 N1 2.369(5) .
Ag1 O2 2.429(4) .
Ag1 Ag1 3.0842(9) 2_657
O1 C1 1.257(7) .
O2 C3 1.228(7) .
N2 C15 1.335(7) .
N2 C16 1.349(7) .
N1 C6 1.335(7) .
N1 C17 1.359(7) .
C1 C2 1.383(8) .
C1 C4 1.536(8) .
C2 C3 1.417(8) .
C3 C5 1.564(7) .
C4 F4B 1.335(6) .
C4 F4A 1.344(7) .
C4 F4C 1.346(7) .
C5 F5B_a 1.318(9) .
C5 F5E_b 1.319(9) .
C5 F5H_c 1.327(12) .
C5 F5I_c 1.328(12) .
C5 F5C_a 1.336(9) .
C5 F5A_a 1.337(9) .
C5 F5D_b 1.341(9) .
C5 F5G_c 1.347(12) .
C5 F5F_b 1.347(9) .
C6 C7 1.403(9) .
C7 C8 1.355(9) .
C8 C9 1.412(8) .
C9 C17 1.404(8) .
C9 C10 1.440(8) .
C10 C11 1.347(9) .
C11 C12 1.431(8) .
C12 C16 1.414(7) .
C12 C13 1.415(8) .
C13 C14 1.361(9) .
C14 C15 1.396(8) .
C16 C17 1.455(7) .
