#------------------------------------------------------------------------------
#$Date: 2017-06-27 05:02:38 +0300 (Tue, 27 Jun 2017) $
#$Revision: 198156 $
#$URL: file:///home/coder/svn-repositories/cod/cif/7/04/34/7043447.cif $
#------------------------------------------------------------------------------
#
# This file is available in the Crystallography Open Database (COD),
# http://www.crystallography.net/
#
# All data on this site have been placed in the public domain by the
# contributors.
#
data_7043447
loop_
_publ_author_name
'Czerwi\'nska, Katarzyna Anna'
'Machura, Barbara'
'Kula, S\/lawomir'
'Krompiec, Stanislaw'
'Erfurt, Karol'
'Rodrigues, Catarina'
'Fernandes, Alexandra'
'Shul'pina, Lidia S.'
'Ikonnikov, Nikolay S.'
'Shul'pin, Georgiy B.'
_publ_section_title
;
 Copper(II) complexes of functionalized
 2,2&#x2032;:6&#x2032;,2&#x2032;&#x2032;-terpyridines and
 2,6-di(thiazol-2-yl)pyridine. Structure, spectroscopy, cytotoxicity and
 catalytic activity
;
_journal_name_full               'Dalton Trans.'
_journal_paper_doi               10.1039/C7DT01244F
_journal_year                    2017
_chemical_formula_moiety         'C15 H9 Cl2 Cu N3 S3'
_chemical_formula_sum            'C15 H9 Cl2 Cu N3 S3'
_chemical_formula_weight         461.87
_space_group_crystal_system      triclinic
_space_group_IT_number           2
_space_group_name_Hall           '-P 1'
_space_group_name_H-M_alt        'P -1'
_symmetry_space_group_name_Hall  '-P 1'
_symmetry_space_group_name_H-M   'P -1'
_atom_sites_solution_hydrogens   geom
_audit_creation_method           SHELXL-2014/6
_audit_update_record
;
2017-03-24 deposited with the CCDC.
2017-06-23 downloaded from the CCDC.
;
_cell_angle_alpha                118.351(7)
_cell_angle_beta                 92.578(5)
_cell_angle_gamma                91.767(6)
_cell_formula_units_Z            2
_cell_length_a                   7.8330(4)
_cell_length_b                   10.9863(8)
_cell_length_c                   11.2152(8)
_cell_measurement_reflns_used    2214
_cell_measurement_temperature    295(2)
_cell_measurement_theta_max      28.5260
_cell_measurement_theta_min      3.6920
_cell_volume                     847.01(11)
_computing_cell_refinement       'CrysAlis CCD v. 1.163 (UNIL IC & KUMA 2000)'
_computing_data_collection       'CrysAlis CCD v. 1.163 (UNIL IC & KUMA 2000)'
_computing_data_reduction        'CrysAlis CCD v. 1.163 (UNIL IC & KUMA 2000)'
_computing_molecular_graphics
'Mercury (Macrae, J.Appl.Cryst. 41 (2008) 466-470'
_computing_publication_material  'Olex2 (Dolomanov et al., 2009)'
_computing_structure_refinement  'SHELXL-2014/6 (Sheldrick, 2014)'
_computing_structure_solution    'SHELXS-97 (Sheldrick, 1990)'
_diffrn_ambient_temperature      295(2)
_diffrn_measured_fraction_theta_full 0.975
_diffrn_measured_fraction_theta_max 0.998
_diffrn_measurement_device_type  'Oxford Diffraction Gemini A Ultra'
_diffrn_radiation_type           MoK\a
_diffrn_radiation_wavelength     0.71073
_diffrn_reflns_av_R_equivalents  0.0335
_diffrn_reflns_av_unetI/netI     0.0515
_diffrn_reflns_Laue_measured_fraction_full 0.975
_diffrn_reflns_Laue_measured_fraction_max 0.998
_diffrn_reflns_limit_h_max       9
_diffrn_reflns_limit_h_min       -9
_diffrn_reflns_limit_k_max       12
_diffrn_reflns_limit_k_min       -13
_diffrn_reflns_limit_l_max       12
_diffrn_reflns_limit_l_min       -13
_diffrn_reflns_number            6680
_diffrn_reflns_point_group_measured_fraction_full 0.975
_diffrn_reflns_point_group_measured_fraction_max 0.998
_diffrn_reflns_theta_full        25.242
_diffrn_reflns_theta_max         25.044
_diffrn_reflns_theta_min         3.361
_exptl_absorpt_coefficient_mu    1.976
_exptl_absorpt_correction_T_max  1.00000
_exptl_absorpt_correction_T_min  0.75222
_exptl_absorpt_correction_type   multi-scan
_exptl_absorpt_process_details   'Blessing, Acta Cryst. A51 (1995) 33-38'
_exptl_crystal_colour            green
_exptl_crystal_density_diffrn    1.811
_exptl_crystal_description       needle
_exptl_crystal_F_000             462
_exptl_crystal_size_max          0.50
_exptl_crystal_size_mid          0.05
_exptl_crystal_size_min          0.03
_refine_diff_density_max         0.475
_refine_diff_density_min         -0.518
_refine_diff_density_rms         0.082
_refine_ls_extinction_method     none
_refine_ls_goodness_of_fit_ref   1.025
_refine_ls_hydrogen_treatment    constr
_refine_ls_matrix_type           full
_refine_ls_number_parameters     217
_refine_ls_number_reflns         2993
_refine_ls_number_restraints     0
_refine_ls_restrained_S_all      1.025
_refine_ls_R_factor_all          0.0513
_refine_ls_R_factor_gt           0.0359
_refine_ls_shift/su_max          0.000
_refine_ls_shift/su_mean         0.000
_refine_ls_structure_factor_coef Fsqd
_refine_ls_weighting_details
'w=1/[\s^2^(Fo^2^)+(0.0404P)^2^] where P=(Fo^2^+2Fc^2^)/3'
_refine_ls_weighting_scheme      calc
_refine_ls_wR_factor_gt          0.0812
_refine_ls_wR_factor_ref         0.0878
_reflns_Friedel_coverage         0.000
_reflns_number_gt                2409
_reflns_number_total             2993
_reflns_threshold_expression     'I > 2\s(I)'
_cod_data_source_file            c7dt01244f2.cif
_cod_data_source_block           Cu165
_cod_database_code               7043447
_shelx_space_group_comment
;
The symmetry employed for this shelxl refinement is uniquely defined
by the following loop, which should always be used as a source of
symmetry information in preference to the above space-group names.
They are only intended as comments.
;
_shelxl_version_number           2014/6
_shelx_res_file
;
TITL Cu165 in P-1
CELL 0.71073 7.83298 10.986299 11.215167 118.3511 92.5776 91.7671
ZERR 2 0.000446 0.000827 0.000795 0.0074 0.0053 0.0055
LATT 1

SFAC C H N S Cl Cu
UNIT 30 18 6 6 4 2

L.S. 20
PLAN  20
fmap 2
acta
OMIT 0 50.1
HTAB C2 Cl2_$1
HTAB C5 Cl2_$2
HTAB C7 S3
HTAB C13 Cl2_$2
HTAB C14 Cl2_$3
EQIV $1 -x,-1-y,-z
EQIV $2 1+x,y,z
EQIV $3 1-x,-y,1-z

WGHT    0.040400
FVAR       3.45520
C1    1    0.101288   -0.402256   -0.051360    11.00000    0.03081    0.02562 =
         0.03566    0.00793   -0.00062    0.00225
AFIX  43
H1    2    0.006588   -0.452580   -0.108869    11.00000   -1.20000
AFIX   0
C2    1    0.252775   -0.458876   -0.052630    11.00000    0.04037    0.02270 =
         0.04608    0.00723    0.00246    0.00391
AFIX  43
H2    2    0.274688   -0.550754   -0.109678    11.00000   -1.20000
AFIX   0
C3    1    0.247758   -0.217701    0.111933    11.00000    0.02019    0.02043 =
         0.03561    0.01079    0.00235    0.00706
C4    1    0.264858   -0.071107    0.216224    11.00000    0.02378    0.02483 =
         0.03542    0.01752    0.00267    0.00615
C5    1    0.404337    0.000264    0.305589    11.00000    0.02240    0.02788 =
         0.03708    0.01497   -0.00130    0.00489
AFIX  43
H5    2    0.504121   -0.044168    0.303716    11.00000   -1.20000
AFIX   0
C6    1    0.392874    0.140316    0.398798    11.00000    0.02477    0.02671 =
         0.02942    0.01359    0.00044    0.00402
C7    1    0.240398    0.202800    0.393657    11.00000    0.02972    0.02330 =
         0.03329    0.00678   -0.00034    0.00567
AFIX  43
H7    2    0.228638    0.295944    0.453433    11.00000   -1.20000
AFIX   0
C8    1    0.108831    0.125169    0.299602    11.00000    0.02281    0.02715 =
         0.03605    0.01588    0.00348    0.00513
C9    1   -0.056102    0.170740    0.271669    11.00000    0.02356    0.02834 =
         0.03619    0.01648    0.00461    0.00636
C10   1   -0.309615    0.271495    0.237145    11.00000    0.03278    0.04022 =
         0.04760    0.02366    0.00483    0.01448
AFIX  43
H10   2   -0.398290    0.325401    0.236040    11.00000   -1.20000
AFIX   0
C11   1   -0.309735    0.133567    0.160392    11.00000    0.02265    0.03878 =
         0.04283    0.01763   -0.00272    0.00716
AFIX  43
H11   2   -0.400963    0.081639    0.099326    11.00000   -1.20000
AFIX   0
C12   1    0.536074    0.219227    0.495339    11.00000    0.03131    0.02622 =
         0.02829    0.01011   -0.00004    0.00612
C13   1    0.690292    0.172903    0.516524    11.00000    0.03062    0.02830 =
         0.03393    0.01356   -0.00275    0.00257
AFIX  43
H13   2    0.718402    0.080910    0.470433    11.00000   -1.20000
AFIX   0
C14   1    0.800700    0.280853    0.616063    11.00000    0.03294    0.05469 =
         0.03914    0.02150   -0.01237   -0.00089
AFIX  43
H14   2    0.909435    0.267436    0.642946    11.00000   -1.20000
AFIX   0
C15   1    0.732314    0.404960    0.667888    11.00000    0.04679    0.03902 =
         0.03865    0.00999   -0.01381   -0.00294
AFIX  43
H15   2    0.788853    0.486884    0.733519    11.00000   -1.20000
AFIX   0
N1    3    0.099001   -0.265352    0.041193    11.00000    0.02169    0.02625 =
         0.03555    0.01206    0.00101    0.00243
N2    3    0.120073   -0.009640    0.215864    11.00000    0.01720    0.02424 =
         0.03647    0.01084    0.00022    0.00524
N3    3   -0.165278    0.074260    0.178374    11.00000    0.02340    0.02784 =
         0.03622    0.01233   -0.00159    0.00498
S1    4    0.397681   -0.337683    0.065306    11.00000    0.02648    0.02818 =
         0.05147    0.01147   -0.00172    0.00887
S2    4   -0.123199    0.334171    0.337352    11.00000    0.03557    0.02701 =
         0.04587    0.01355    0.00030    0.00978
S3    4    0.530672    0.395352    0.599932    11.00000    0.04396    0.02935 =
         0.04441    0.00413   -0.01158    0.00650
CL1   5   -0.266889   -0.224097   -0.082336    11.00000    0.03119    0.04433 =
         0.03807    0.01285   -0.00785    0.00006
CL2   5   -0.202997   -0.179604    0.269925    11.00000    0.03334    0.03068 =
         0.03955    0.01452    0.00380    0.00615
CU1   6   -0.083662   -0.122457    0.101740    11.00000    0.02019    0.02479 =
         0.03619    0.00985   -0.00250    0.00303
HKLF 4

REM  Cu165 in P-1
REM R1 =  0.0359 for    2409 Fo > 4sig(Fo)  and  0.0513 for all    2993 data
REM    217 parameters refined using      0 restraints

END

WGHT      0.0404      0.0000

REM Highest difference peak  0.475,  deepest hole -0.518,  1-sigma level  0.082
Q1    1  -0.0013 -0.1971  0.0125  11.00000  0.05    0.47
Q2    1   0.3188 -0.2598  0.1424  11.00000  0.05    0.41
Q3    1  -0.1567 -0.0509  0.1943  11.00000  0.05    0.38
Q4    1  -0.1179 -0.1811  0.1744  11.00000  0.05    0.31
Q5    1   0.0386  0.1607  0.2790  11.00000  0.05    0.30
Q6    1  -0.2326 -0.1461  0.0972  11.00000  0.05    0.29
Q7    1   0.8996  0.2972  0.5989  11.00000  0.05    0.28
Q8    1  -0.3518 -0.1536  0.0059  11.00000  0.05    0.28
Q9    1   0.5962  0.1828  0.5206  11.00000  0.05    0.28
Q10   1  -0.0698 -0.0708  0.2466  11.00000  0.05    0.28
Q11   1   0.4217 -0.6811 -0.2565  11.00000  0.05    0.28
Q12   1  -0.2429 -0.1033  0.3643  11.00000  0.05    0.27
Q13   1   0.1889  0.3584  0.3196  11.00000  0.05    0.27
Q14   1  -0.2491 -0.2723 -0.0453  11.00000  0.05    0.27
Q15   1  -0.1528 -0.4793 -0.0804  11.00000  0.05    0.27
Q16   1   0.3949 -0.3805  0.1374  11.00000  0.05    0.26
Q17   1  -0.1781  0.2755  0.4045  11.00000  0.05    0.26
Q18   1   0.5729  0.3214  0.5206  11.00000  0.05    0.26
Q19   1  -0.2101 -0.2430  0.0806  11.00000  0.05    0.26
Q20   1   0.1451  0.3009  0.5415  11.00000  0.05    0.26
;
_shelx_res_checksum              57506
loop_
_space_group_symop_operation_xyz
'x, y, z'
'-x, -y, -z'
loop_
_atom_site_label
_atom_site_type_symbol
_atom_site_fract_x
_atom_site_fract_y
_atom_site_fract_z
_atom_site_U_iso_or_equiv
_atom_site_adp_type
_atom_site_occupancy
_atom_site_site_symmetry_order
_atom_site_calc_flag
_atom_site_refinement_flags_posn
_atom_site_refinement_flags_adp
C1 C 0.1013(4) -0.4023(4) -0.0514(3) 0.0335(8) Uani 1 1 d . .
H1 H 0.0066 -0.4526 -0.1089 0.040 Uiso 1 1 calc R U
C2 C 0.2528(5) -0.4589(4) -0.0526(4) 0.0401(9) Uani 1 1 d . .
H2 H 0.2747 -0.5508 -0.1097 0.048 Uiso 1 1 calc R U
C3 C 0.2478(4) -0.2177(3) 0.1119(3) 0.0263(7) Uani 1 1 d . .
C4 C 0.2649(4) -0.0711(3) 0.2162(3) 0.0266(7) Uani 1 1 d . .
C5 C 0.4043(4) 0.0003(4) 0.3056(3) 0.0294(8) Uani 1 1 d . .
H5 H 0.5041 -0.0442 0.3037 0.035 Uiso 1 1 calc R U
C6 C 0.3929(4) 0.1403(4) 0.3988(3) 0.0269(7) Uani 1 1 d . .
C7 C 0.2404(4) 0.2028(4) 0.3937(3) 0.0315(8) Uani 1 1 d . .
H7 H 0.2286 0.2959 0.4534 0.038 Uiso 1 1 calc R U
C8 C 0.1088(4) 0.1252(4) 0.2996(3) 0.0282(8) Uani 1 1 d . .
C9 C -0.0561(4) 0.1707(4) 0.2717(3) 0.0287(8) Uani 1 1 d . .
C10 C -0.3096(4) 0.2715(4) 0.2371(3) 0.0387(9) Uani 1 1 d . .
H10 H -0.3983 0.3254 0.2360 0.046 Uiso 1 1 calc R U
C11 C -0.3097(4) 0.1336(4) 0.1604(3) 0.0355(9) Uani 1 1 d . .
H11 H -0.4010 0.0816 0.0993 0.043 Uiso 1 1 calc R U
C12 C 0.5361(4) 0.2192(3) 0.4953(3) 0.0298(8) Uani 1 1 d . .
C13 C 0.6903(4) 0.1729(4) 0.5165(3) 0.0316(8) Uani 1 1 d . .
H13 H 0.7184 0.0809 0.4704 0.038 Uiso 1 1 calc R U
C14 C 0.8007(5) 0.2809(4) 0.6161(3) 0.0432(10) Uani 1 1 d . .
H14 H 0.9094 0.2674 0.6429 0.052 Uiso 1 1 calc R U
C15 C 0.7323(5) 0.4050(4) 0.6679(4) 0.0457(10) Uani 1 1 d . .
H15 H 0.7889 0.4869 0.7335 0.055 Uiso 1 1 calc R U
N1 N 0.0990(3) -0.2654(3) 0.0412(3) 0.0289(7) Uani 1 1 d . .
N2 N 0.1201(3) -0.0096(3) 0.2159(3) 0.0274(6) Uani 1 1 d . .
N3 N -0.1653(3) 0.0743(3) 0.1784(3) 0.0304(7) Uani 1 1 d . .
S1 S 0.39768(11) -0.33768(10) 0.06531(9) 0.0384(3) Uani 1 1 d . .
S2 S -0.12320(11) 0.33417(10) 0.33735(9) 0.0376(2) Uani 1 1 d . .
S3 S 0.53067(12) 0.39535(10) 0.59993(9) 0.0452(3) Uani 1 1 d . .
Cl1 Cl -0.26689(11) -0.22410(10) -0.08234(8) 0.0411(3) Uani 1 1 d . .
Cl2 Cl -0.20300(11) -0.17960(9) 0.26993(8) 0.0353(2) Uani 1 1 d . .
Cu1 Cu -0.08366(5) -0.12246(4) 0.10174(4) 0.02909(15) Uani 1 1 d . .
loop_
_atom_site_aniso_label
_atom_site_aniso_U_11
_atom_site_aniso_U_22
_atom_site_aniso_U_33
_atom_site_aniso_U_23
_atom_site_aniso_U_13
_atom_site_aniso_U_12
C1 0.0308(19) 0.026(2) 0.0357(18) 0.0079(16) -0.0006(14) 0.0022(15)
C2 0.040(2) 0.023(2) 0.046(2) 0.0072(17) 0.0025(16) 0.0039(17)
C3 0.0202(17) 0.0204(19) 0.0356(18) 0.0108(15) 0.0024(13) 0.0071(14)
C4 0.0238(17) 0.0248(19) 0.0354(17) 0.0175(16) 0.0027(13) 0.0061(14)
C5 0.0224(17) 0.028(2) 0.0371(18) 0.0150(16) -0.0013(14) 0.0049(15)
C6 0.0248(17) 0.027(2) 0.0294(17) 0.0136(15) 0.0004(13) 0.0040(14)
C7 0.0297(19) 0.023(2) 0.0333(18) 0.0068(16) -0.0003(14) 0.0057(15)
C8 0.0228(18) 0.027(2) 0.0361(18) 0.0159(16) 0.0035(14) 0.0051(15)
C9 0.0236(18) 0.028(2) 0.0362(18) 0.0165(16) 0.0046(14) 0.0064(15)
C10 0.033(2) 0.040(3) 0.048(2) 0.024(2) 0.0048(16) 0.0145(17)
C11 0.0226(18) 0.039(2) 0.043(2) 0.0176(19) -0.0027(15) 0.0072(16)
C12 0.0313(19) 0.026(2) 0.0283(17) 0.0101(16) 0.0000(14) 0.0061(15)
C13 0.0306(19) 0.028(2) 0.0339(18) 0.0136(16) -0.0027(14) 0.0026(15)
C14 0.033(2) 0.055(3) 0.039(2) 0.022(2) -0.0124(16) -0.0009(19)
C15 0.047(2) 0.039(3) 0.039(2) 0.0100(19) -0.0138(17) -0.003(2)
N1 0.0217(15) 0.0263(17) 0.0356(15) 0.0121(13) 0.0010(11) 0.0024(12)
N2 0.0172(14) 0.0242(17) 0.0365(15) 0.0108(13) 0.0002(11) 0.0052(12)
N3 0.0234(15) 0.0278(17) 0.0362(15) 0.0123(14) -0.0016(12) 0.0050(12)
S1 0.0265(5) 0.0282(5) 0.0515(5) 0.0115(4) -0.0017(4) 0.0089(4)
S2 0.0356(5) 0.0270(5) 0.0459(5) 0.0136(4) 0.0003(4) 0.0098(4)
S3 0.0440(6) 0.0293(6) 0.0444(5) 0.0041(5) -0.0116(4) 0.0065(4)
Cl1 0.0312(5) 0.0443(6) 0.0381(5) 0.0129(4) -0.0078(4) 0.0001(4)
Cl2 0.0333(5) 0.0307(5) 0.0396(5) 0.0145(4) 0.0038(4) 0.0061(4)
Cu1 0.0202(2) 0.0248(3) 0.0362(2) 0.00985(19) -0.00250(17) 0.00303(17)
loop_
_atom_type_symbol
_atom_type_description
_atom_type_scat_dispersion_real
_atom_type_scat_dispersion_imag
_atom_type_scat_source
C C 0.0033 0.0016 'International Tables Vol C Tables 4.2.6.8 and 6.1.1.4'
H H 0.0000 0.0000 'International Tables Vol C Tables 4.2.6.8 and 6.1.1.4'
N N 0.0061 0.0033 'International Tables Vol C Tables 4.2.6.8 and 6.1.1.4'
S S 0.1246 0.1234 'International Tables Vol C Tables 4.2.6.8 and 6.1.1.4'
Cl Cl 0.1484 0.1585 'International Tables Vol C Tables 4.2.6.8 and 6.1.1.4'
Cu Cu 0.3201 1.2651 'International Tables Vol C Tables 4.2.6.8 and 6.1.1.4'
loop_
_geom_angle_atom_site_label_1
_geom_angle_atom_site_label_2
_geom_angle_atom_site_label_3
_geom_angle
C2 C1 N1 114.5(3)
C1 C2 S1 110.3(3)
N1 C3 C4 117.7(3)
N1 C3 S1 113.7(2)
C4 C3 S1 128.5(2)
N2 C4 C5 121.8(3)
N2 C4 C3 110.0(3)
C5 C4 C3 128.2(3)
C4 C5 C6 119.0(3)
C5 C6 C7 117.8(3)
C5 C6 C12 120.8(3)
C7 C6 C12 121.3(3)
C8 C7 C6 119.6(3)
N2 C8 C7 121.4(3)
N2 C8 C9 110.0(3)
C7 C8 C9 128.6(3)
N3 C9 C8 117.1(3)
N3 C9 S2 114.3(2)
C8 C9 S2 128.4(3)
C11 C10 S2 110.3(3)
C10 C11 N3 115.3(3)
C13 C12 C6 128.5(3)
C13 C12 S3 110.4(2)
C6 C12 S3 121.1(2)
C12 C13 C14 112.4(3)
C15 C14 C13 113.0(3)
C14 C15 S3 112.4(3)
C3 N1 C1 111.4(3)
C3 N1 Cu1 113.7(2)
C1 N1 Cu1 134.8(2)
C8 N2 C4 120.3(3)
C8 N2 Cu1 119.9(2)
C4 N2 Cu1 119.7(2)
C9 N3 C11 110.2(3)
C9 N3 Cu1 113.9(2)
C11 N3 Cu1 136.0(2)
C3 S1 C2 90.01(16)
C9 S2 C10 89.88(17)
C15 S3 C12 91.88(18)
N2 Cu1 N1 78.43(10)
N2 Cu1 N3 78.13(10)
N1 Cu1 N3 153.72(11)
N2 Cu1 Cl1 157.24(9)
N1 Cu1 Cl1 99.16(7)
N3 Cu1 Cl1 97.85(7)
N2 Cu1 Cl2 97.06(8)
N1 Cu1 Cl2 96.79(8)
N3 Cu1 Cl2 97.72(8)
Cl1 Cu1 Cl2 105.68(4)
loop_
_geom_bond_atom_site_label_1
_geom_bond_atom_site_label_2
_geom_bond_distance
C1 C2 1.354(5)
C1 N1 1.364(4)
C2 S1 1.706(4)
C3 N1 1.321(4)
C3 C4 1.471(5)
C3 S1 1.699(3)
C4 N2 1.339(4)
C4 C5 1.384(4)
C5 C6 1.399(5)
C6 C7 1.408(4)
C6 C12 1.456(4)
C7 C8 1.377(4)
C8 N2 1.333(4)
C8 C9 1.473(4)
C9 N3 1.327(4)
C9 S2 1.697(3)
C10 C11 1.341(5)
C10 S2 1.710(4)
C11 N3 1.377(4)
C12 C13 1.379(4)
C12 S3 1.725(3)
C13 C14 1.412(5)
C14 C15 1.343(6)
C15 S3 1.701(4)
N1 Cu1 2.046(3)
N2 Cu1 1.977(2)
N3 Cu1 2.047(3)
Cl1 Cu1 2.2392(9)
Cl2 Cu1 2.4643(10)
loop_
_geom_hbond_atom_site_label_D
_geom_hbond_atom_site_label_H
_geom_hbond_atom_site_label_A
_geom_hbond_distance_DH
_geom_hbond_distance_HA
_geom_hbond_distance_DA
_geom_hbond_angle_DHA
_geom_hbond_site_symmetry_A
C2 H2 Cl2 0.93 2.66 3.534(4) 157.1 2_545
C5 H5 Cl2 0.93 2.72 3.641(3) 173.8 1_655
C7 H7 S3 0.93 2.70 3.095(3) 106.7 .
C13 H13 Cl2 0.93 2.78 3.685(4) 163.6 1_655
C14 H14 Cl2 0.93 2.83 3.743(4) 167.5 2_656
