#------------------------------------------------------------------------------
#$Date: 2017-10-04 23:15:08 +0300 (Wed, 04 Oct 2017) $
#$Revision: 201678 $
#$URL: file:///home/coder/svn-repositories/cod/cif/7/04/44/7044418.cif $
#------------------------------------------------------------------------------
#
# This file is available in the Crystallography Open Database (COD),
# http://www.crystallography.net/
#
# All data on this site have been placed in the public domain by the
# contributors.
#
data_7044418
loop_
_publ_author_name
'Das, Debasis'
'Mandal, Arnab'
'Dasgupta, Sanchari'
'Ganguly, Sumi'
'Bauza, Antonio'
'Frontera, Antonio'
_publ_section_title
;
 Cooperative Influence of Pseudohalides and Ligand Backbone of
 Schiff-bases on Nuclearity and Stereochemistry of Cobalt(III) Complexes:
 Experimental and Theoretical Investigation
;
_journal_name_full               'Dalton Trans.'
_journal_paper_doi               10.1039/C7DT03040A
_journal_year                    2017
_chemical_formula_moiety         'C12 H17 Co N8 O2'
_chemical_formula_sum            'C12 H17 Co N8 O2'
_chemical_formula_weight         364.27
_space_group_crystal_system      triclinic
_space_group_IT_number           2
_space_group_name_Hall           '-P 1'
_space_group_name_H-M_alt        'P -1'
_symmetry_space_group_name_Hall  '-P 1'
_symmetry_space_group_name_H-M   'P -1'
_atom_sites_solution_hydrogens   mixed
_audit_creation_method           SHELXL-2016/6
_audit_update_record
;
2017-09-05 deposited with the CCDC.
2017-09-26 downloaded from the CCDC.
;
_cell_angle_alpha                71.366(7)
_cell_angle_beta                 67.949(7)
_cell_angle_gamma                87.576(7)
_cell_formula_units_Z            2
_cell_length_a                   8.345(4)
_cell_length_b                   9.546(5)
_cell_length_c                   10.597(5)
_cell_measurement_reflns_used    625
_cell_measurement_temperature    296(2)
_cell_measurement_theta_max      0.7453
_cell_measurement_theta_min      0.6235
_cell_volume                     738.5(6)
_computing_cell_refinement       'Bruker Apex II'
_computing_data_collection       'Bruker Apex II'
_computing_data_reduction        SAINT
_computing_molecular_graphics    'Mercury 3.8'
_computing_publication_material  'Shelxl 2016/6'
_computing_structure_refinement  'SHELXL-2016/6 (Sheldrick, 2016)'
_computing_structure_solution    'SHELXT 2014/5 (Sheldrick, 2014)'
_diffrn_ambient_temperature      296(2)
_diffrn_measured_fraction_theta_full 0.988
_diffrn_measured_fraction_theta_max 0.954
_diffrn_measurement_device_type  'Bruker Apex II'
_diffrn_measurement_method       'Omega scan'
_diffrn_radiation_type           MoK\a
_diffrn_radiation_wavelength     0.71073
_diffrn_reflns_av_R_equivalents  0.0544
_diffrn_reflns_av_unetI/netI     0.1038
_diffrn_reflns_Laue_measured_fraction_full 0.988
_diffrn_reflns_Laue_measured_fraction_max 0.954
_diffrn_reflns_limit_h_max       10
_diffrn_reflns_limit_h_min       -10
_diffrn_reflns_limit_k_max       11
_diffrn_reflns_limit_k_min       -11
_diffrn_reflns_limit_l_max       13
_diffrn_reflns_limit_l_min       -13
_diffrn_reflns_number            5570
_diffrn_reflns_point_group_measured_fraction_full 0.988
_diffrn_reflns_point_group_measured_fraction_max 0.954
_diffrn_reflns_theta_full        25.242
_diffrn_reflns_theta_max         26.033
_diffrn_reflns_theta_min         2.195
_diffrn_source                   'fine-focus sealed tube'
_exptl_absorpt_coefficient_mu    1.186
_exptl_absorpt_correction_type   multi-scan
_exptl_absorpt_process_details   '(North et al., 1968)'
_exptl_crystal_colour            pink
_exptl_crystal_density_diffrn    1.638
_exptl_crystal_density_method    'not measured'
_exptl_crystal_description       BLOCK
_exptl_crystal_F_000             376
_exptl_crystal_size_max          0.34
_exptl_crystal_size_mid          0.22
_exptl_crystal_size_min          0.13
_exptl_transmission_factor_max   0.7453
_exptl_transmission_factor_min   0.6235
_refine_diff_density_max         0.376
_refine_diff_density_min         -0.395
_refine_diff_density_rms         0.076
_refine_ls_extinction_method     none
_refine_ls_goodness_of_fit_ref   0.956
_refine_ls_hydrogen_treatment    mixed
_refine_ls_matrix_type           full
_refine_ls_number_parameters     211
_refine_ls_number_reflns         2780
_refine_ls_number_restraints     3
_refine_ls_restrained_S_all      0.959
_refine_ls_R_factor_all          0.1134
_refine_ls_R_factor_gt           0.0538
_refine_ls_shift/su_max          0.000
_refine_ls_shift/su_mean         0.000
_refine_ls_structure_factor_coef Fsqd
_refine_ls_weighting_details
'w=1/[\s^2^(Fo^2^)+(0.0330P)^2^] where P=(Fo^2^+2Fc^2^)/3'
_refine_ls_weighting_scheme      calc
_refine_ls_wR_factor_gt          0.0891
_refine_ls_wR_factor_ref         0.1066
_reflns_Friedel_coverage         0.000
_reflns_number_gt                1471
_reflns_number_total             2780
_reflns_threshold_expression     'I > 2\s(I)'
_cod_data_source_file            c7dt03040a2.cif
_cod_data_source_block           4
_cod_database_code               7044418
_shelx_shelxl_version_number     2016/6
_shelx_space_group_comment
;
The symmetry employed for this shelxl refinement is uniquely defined
by the following loop, which should always be used as a source of
symmetry information in preference to the above space-group names.
They are only intended as comments.
;
_exptl_absorpt_special_details   SADABS
_shelx_res_file
;
TITL
    4.res
    created by SHELXL-2016/6 at 00:55:53 on 03-Sep-2017
CELL 0.71073 8.345 9.5462 10.5971 71.366 67.949 87.576
ZERR 2 0.0042 0.0047 0.0052 0.007 0.007 0.007
LATT 1
SFAC C  H  Co N  O
UNIT 24  34  2  16  4
L.S. 10
ACTA
BOND $H
FMAP 2
PLAN 20
DANG 2.648382 0.02 Co1 H2
DANG 1.917456 0.02 C12 H2
HTAB
EQIV $1 -x+1, -y+1, -z+2
HTAB O2 O1_$1
EQIV $2 -x+1, -y, -z+2
HTAB C10 N6_$2
HTAB C10 N7_$2
EQIV $3 x-1, y, z
HTAB C11 N8_$3
DFIX 0.85 0.01 O2 H2
TEMP 23
WGHT    0.033000
FVAR       1.03768
CO1   3    0.463420    0.383267    0.832668    11.00000    0.05587    0.03498 =
         0.05751   -0.00817   -0.03416   -0.00052
O1    5    0.609491    0.545240    0.802057    11.00000    0.06410    0.03821 =
         0.04107   -0.00446   -0.02553   -0.00901
O2    5    0.299808    0.435640    0.993238    11.00000    0.05415    0.04875 =
         0.05126   -0.01075   -0.02538   -0.00303
H2    2    0.316419    0.448911    1.065264    11.00000   -1.50000
N1    4    0.625811    0.335028    0.675600    11.00000    0.05891    0.03829 =
         0.05870   -0.01555   -0.03839    0.01028
N2    4    0.282777    0.227496    0.882169    11.00000    0.06219    0.03823 =
         0.07457   -0.00459   -0.04183   -0.00078
AFIX  13
H2A   2    0.211784    0.273255    0.826870    11.00000   -1.20000
AFIX   0
N3    4    0.353217    0.506495    0.709516    11.00000    0.07488    0.04167 =
         0.06273   -0.01416   -0.04202    0.00684
N4    4    0.320400    0.629738    0.714619    11.00000    0.05129    0.04604 =
         0.05224   -0.00235   -0.02385   -0.00207
N5    4    0.283250    0.748041    0.712865    11.00000    0.08955    0.05091 =
         0.10702   -0.02072   -0.03996    0.02336
N6    4    0.556305    0.248675    0.963943    11.00000    0.05502    0.03968 =
         0.06656    0.00133   -0.03405   -0.00516
N7    4    0.709545    0.259827    0.935707    11.00000    0.06405    0.04675 =
         0.04736   -0.00574   -0.03026   -0.00062
N8    4    0.854040    0.264305    0.914467    11.00000    0.05750    0.09424 =
         0.07135   -0.00940   -0.03310   -0.00214
C1    1    0.700147    0.635500    0.670263    11.00000    0.04658    0.04258 =
         0.04923   -0.00621   -0.03172   -0.00141
C2    1    0.731606    0.786638    0.646883    11.00000    0.06317    0.04143 =
         0.06084   -0.01245   -0.02881   -0.00518
AFIX  43
H2B   2    0.683556    0.824684    0.722358    11.00000   -1.20000
AFIX   0
C3    1    0.833831    0.878121    0.511807    11.00000    0.06130    0.04221 =
         0.07703   -0.00639   -0.03226   -0.00540
AFIX  43
H3    2    0.851032    0.978598    0.497257    11.00000   -1.20000
AFIX   0
C4    1    0.911495    0.827428    0.397634    11.00000    0.04830    0.06219 =
         0.06603   -0.00064   -0.02359   -0.00695
AFIX  43
H4    2    0.983323    0.891163    0.308074    11.00000   -1.20000
AFIX   0
C5    1    0.880275    0.679829    0.419182    11.00000    0.04954    0.06803 =
         0.04607   -0.01417   -0.02156    0.00770
AFIX  43
H5    2    0.932727    0.643289    0.343114    11.00000   -1.20000
AFIX   0
C6    1    0.771322    0.583329    0.553034    11.00000    0.05035    0.04335 =
         0.04967   -0.01269   -0.02734    0.00390
C7    1    0.740676    0.429835    0.568922    11.00000    0.06098    0.05787 =
         0.05316   -0.02417   -0.03560    0.02015
AFIX  43
H7    2    0.811472    0.397066    0.494228    11.00000   -1.20000
AFIX   0
C8    1    0.628249    0.182095    0.672153    11.00000    0.07730    0.04316 =
         0.09935   -0.03155   -0.05221    0.02225
AFIX  23
H8A   2    0.668980    0.120446    0.744555    11.00000   -1.20000
H8B   2    0.709426    0.181124    0.578728    11.00000   -1.20000
AFIX   0
C9    1    0.451841    0.117059    0.699466    11.00000    0.08959    0.04699 =
         0.12030   -0.03800   -0.06874    0.01169
AFIX  23
H9A   2    0.404664    0.184942    0.634864    11.00000   -1.20000
H9B   2    0.464279    0.024614    0.678324    11.00000   -1.20000
AFIX   0
C10   1    0.327186    0.088338    0.852400    11.00000    0.08739    0.03263 =
         0.12073   -0.01449   -0.06797    0.00260
AFIX  23
H10A  2    0.222348    0.032761    0.869146    11.00000   -1.20000
H10B  2    0.379056    0.028868    0.917651    11.00000   -1.20000
AFIX   0
C11   1    0.168357    0.199311    1.035064    11.00000    0.06233    0.05061 =
         0.08219    0.00247   -0.04163   -0.01242
AFIX  23
H11A  2    0.224003    0.140019    1.097355    11.00000   -1.20000
H11B  2    0.059964    0.145430    1.057169    11.00000   -1.20000
AFIX   0
C12   1    0.134239    0.345384    1.059205    11.00000    0.04880    0.07854 =
         0.07273   -0.00616   -0.03294   -0.00708
AFIX  23
H12A  2    0.054370    0.394446    1.015832    11.00000   -1.20000
H12B  2    0.082950    0.330942    1.161633    11.00000   -1.20000
AFIX   0
HKLF 4




REM
REM R1 =  0.0538 for    1471 Fo > 4sig(Fo)  and  0.1134 for all    2780 data
REM    211 parameters refined using      3 restraints

END

WGHT      0.0324      0.0000

REM Instructions for potential hydrogen bonds
HTAB O2 O1_$1
HTAB C10 N6_$2
HTAB C10 N7_$2
HTAB C11 N8_$3

REM Highest difference peak  0.376,  deepest hole -0.395,  1-sigma level  0.076
Q1    1   0.4662  0.2250  0.8939  11.00000  0.05    0.38
Q2    1   0.4384  0.5313  0.7770  11.00000  0.05    0.36
Q3    1   0.3225  0.4232  0.8010  11.00000  0.05    0.34
Q4    1   0.6449  0.4185  0.7047  11.00000  0.05    0.30
Q5    1   0.5070  0.4669  0.6839  11.00000  0.05    0.28
Q6    1   0.3422  0.4140  0.6565  11.00000  0.05    0.27
Q7    1   0.4289  0.0132  0.7433  11.00000  0.05    0.27
Q8    1   0.5983  0.1722  0.9394  11.00000  0.05    0.27
Q9    1   0.4930  0.4110  0.9552  11.00000  0.05    0.27
Q10   1   0.6255  0.3022  0.7997  11.00000  0.05    0.26
Q11   1   0.6414  0.4009  0.8588  11.00000  0.05    0.26
Q12   1   0.5975  0.6476  0.5445  11.00000  0.05    0.26
Q13   1   0.4032  0.3544  0.7397  11.00000  0.05    0.26
Q14   1   0.2831  0.3623  0.9647  11.00000  0.05    0.25
Q15   1   0.0087  0.1082  1.0255  11.00000  0.05    0.25
Q16   1   0.8099  1.0305  0.4626  11.00000  0.05    0.25
Q17   1   1.0773  0.7826  0.3909  11.00000  0.05    0.25
Q18   1   0.7024  0.3995  0.8883  11.00000  0.05    0.24
Q19   1   0.6264  0.8028  0.7226  11.00000  0.05    0.24
Q20   1   0.4028  0.1664  0.4816  11.00000  0.05    0.24
;
_shelx_res_checksum              35751
loop_
_space_group_symop_operation_xyz
'x, y, z'
'-x, -y, -z'
loop_
_atom_site_label
_atom_site_type_symbol
_atom_site_fract_x
_atom_site_fract_y
_atom_site_fract_z
_atom_site_U_iso_or_equiv
_atom_site_adp_type
_atom_site_occupancy
_atom_site_site_symmetry_order
_atom_site_calc_flag
_atom_site_refinement_flags_posn
_atom_site_refinement_flags_adp
Co1 Co 0.46342(8) 0.38327(7) 0.83267(7) 0.0472(2) Uani 1 1 d D .
O1 O 0.6095(4) 0.5452(3) 0.8021(3) 0.0479(8) Uani 1 1 d . .
O2 O 0.2998(4) 0.4356(3) 0.9932(3) 0.0510(9) Uani 1 1 d D .
H2 H 0.316(3) 0.449(4) 1.065(2) 0.076 Uiso 1 1 d D U
N1 N 0.6258(5) 0.3350(4) 0.6756(4) 0.0473(11) Uani 1 1 d . .
N2 N 0.2828(5) 0.2275(4) 0.8822(5) 0.0569(12) Uani 1 1 d . .
H2A H 0.211784 0.273255 0.826870 0.068 Uiso 1 1 calc R U
N3 N 0.3532(5) 0.5065(5) 0.7095(4) 0.0557(12) Uani 1 1 d . .
N4 N 0.3204(5) 0.6297(5) 0.7146(4) 0.0519(11) Uani 1 1 d . .
N5 N 0.2832(6) 0.7480(5) 0.7129(5) 0.0836(16) Uani 1 1 d . .
N6 N 0.5563(5) 0.2487(4) 0.9639(4) 0.0549(12) Uani 1 1 d . .
N7 N 0.7095(6) 0.2598(4) 0.9357(4) 0.0523(11) Uani 1 1 d . .
N8 N 0.8540(6) 0.2643(5) 0.9145(5) 0.0760(15) Uani 1 1 d . .
C1 C 0.7001(6) 0.6355(5) 0.6703(6) 0.0441(12) Uani 1 1 d . .
C2 C 0.7316(6) 0.7866(5) 0.6469(6) 0.0544(14) Uani 1 1 d . .
H2B H 0.683556 0.824684 0.722358 0.065 Uiso 1 1 calc R U
C3 C 0.8338(7) 0.8781(6) 0.5118(7) 0.0614(15) Uani 1 1 d . .
H3 H 0.851032 0.978598 0.497257 0.074 Uiso 1 1 calc R U
C4 C 0.9115(6) 0.8274(6) 0.3976(6) 0.0632(16) Uani 1 1 d . .
H4 H 0.983323 0.891163 0.308074 0.076 Uiso 1 1 calc R U
C5 C 0.8803(6) 0.6798(6) 0.4192(5) 0.0548(14) Uani 1 1 d . .
H5 H 0.932727 0.643289 0.343114 0.066 Uiso 1 1 calc R U
C6 C 0.7713(6) 0.5833(5) 0.5530(6) 0.0459(12) Uani 1 1 d . .
C7 C 0.7407(7) 0.4298(6) 0.5689(6) 0.0520(13) Uani 1 1 d . .
H7 H 0.811472 0.397066 0.494228 0.062 Uiso 1 1 calc R U
C8 C 0.6282(7) 0.1821(5) 0.6722(6) 0.0660(16) Uani 1 1 d . .
H8A H 0.668980 0.120446 0.744555 0.079 Uiso 1 1 calc R U
H8B H 0.709426 0.181124 0.578728 0.079 Uiso 1 1 calc R U
C9 C 0.4518(7) 0.1171(6) 0.6995(7) 0.0742(18) Uani 1 1 d . .
H9A H 0.404664 0.184942 0.634864 0.089 Uiso 1 1 calc R U
H9B H 0.464279 0.024614 0.678324 0.089 Uiso 1 1 calc R U
C10 C 0.3272(8) 0.0883(5) 0.8524(7) 0.0742(18) Uani 1 1 d . .
H10A H 0.222348 0.032761 0.869146 0.089 Uiso 1 1 calc R U
H10B H 0.379056 0.028868 0.917651 0.089 Uiso 1 1 calc R U
C11 C 0.1684(7) 0.1993(6) 1.0351(6) 0.0664(16) Uani 1 1 d . .
H11A H 0.224003 0.140019 1.097355 0.080 Uiso 1 1 calc R U
H11B H 0.059964 0.145430 1.057169 0.080 Uiso 1 1 calc R U
C12 C 0.1342(6) 0.3454(6) 1.0592(6) 0.0681(16) Uani 1 1 d D .
H12A H 0.054370 0.394446 1.015832 0.082 Uiso 1 1 calc R U
H12B H 0.082950 0.330942 1.161633 0.082 Uiso 1 1 calc R U
loop_
_atom_site_aniso_label
_atom_site_aniso_U_11
_atom_site_aniso_U_22
_atom_site_aniso_U_33
_atom_site_aniso_U_23
_atom_site_aniso_U_13
_atom_site_aniso_U_12
Co1 0.0559(4) 0.0350(4) 0.0575(5) -0.0082(3) -0.0342(4) -0.0005(3)
O1 0.064(2) 0.038(2) 0.041(2) -0.0045(17) -0.0255(18) -0.0090(16)
O2 0.054(2) 0.049(2) 0.051(2) -0.0107(18) -0.0254(18) -0.0030(16)
N1 0.059(3) 0.038(3) 0.059(3) -0.016(2) -0.038(2) 0.010(2)
N2 0.062(3) 0.038(3) 0.075(3) -0.005(2) -0.042(3) -0.001(2)
N3 0.075(3) 0.042(3) 0.063(3) -0.014(2) -0.042(3) 0.007(2)
N4 0.051(3) 0.046(3) 0.052(3) -0.002(3) -0.024(2) -0.002(2)
N5 0.090(4) 0.051(3) 0.107(4) -0.021(3) -0.040(3) 0.023(3)
N6 0.055(3) 0.040(2) 0.067(3) 0.001(2) -0.034(2) -0.005(2)
N7 0.064(3) 0.047(3) 0.047(3) -0.006(2) -0.030(3) -0.001(2)
N8 0.058(3) 0.094(4) 0.071(4) -0.009(3) -0.033(3) -0.002(3)
C1 0.047(3) 0.043(3) 0.049(4) -0.006(3) -0.032(3) -0.001(2)
C2 0.063(3) 0.041(3) 0.061(4) -0.012(3) -0.029(3) -0.005(3)
C3 0.061(4) 0.042(3) 0.077(5) -0.006(3) -0.032(3) -0.005(3)
C4 0.048(3) 0.062(4) 0.066(4) -0.001(3) -0.024(3) -0.007(3)
C5 0.050(3) 0.068(4) 0.046(4) -0.014(3) -0.022(3) 0.008(3)
C6 0.050(3) 0.043(3) 0.050(4) -0.013(3) -0.027(3) 0.004(2)
C7 0.061(4) 0.058(4) 0.053(4) -0.024(3) -0.036(3) 0.020(3)
C8 0.077(4) 0.043(3) 0.099(5) -0.032(3) -0.052(4) 0.022(3)
C9 0.090(4) 0.047(4) 0.120(6) -0.038(4) -0.069(4) 0.012(3)
C10 0.087(4) 0.033(3) 0.121(6) -0.014(4) -0.068(4) 0.003(3)
C11 0.062(4) 0.051(4) 0.082(5) 0.002(3) -0.042(4) -0.012(3)
C12 0.049(3) 0.079(4) 0.073(4) -0.006(3) -0.033(3) -0.007(3)
loop_
_atom_type_symbol
_atom_type_description
_atom_type_scat_dispersion_real
_atom_type_scat_dispersion_imag
_atom_type_scat_source
C C 0.0033 0.0016 'International Tables Vol C Tables 4.2.6.8 and 6.1.1.4'
H H 0.0000 0.0000 'International Tables Vol C Tables 4.2.6.8 and 6.1.1.4'
Co Co 0.3494 0.9721 'International Tables Vol C Tables 4.2.6.8 and 6.1.1.4'
N N 0.0061 0.0033 'International Tables Vol C Tables 4.2.6.8 and 6.1.1.4'
O O 0.0106 0.0060 'International Tables Vol C Tables 4.2.6.8 and 6.1.1.4'
loop_
_geom_angle_atom_site_label_1
_geom_angle_atom_site_label_2
_geom_angle_atom_site_label_3
_geom_angle
O1 Co1 N1 92.53(16)
O1 Co1 O2 86.42(13)
N1 Co1 O2 178.95(16)
O1 Co1 N3 92.05(15)
N1 Co1 N3 90.83(17)
O2 Co1 N3 89.26(16)
O1 Co1 N6 92.29(15)
N1 Co1 N6 90.94(17)
O2 Co1 N6 89.04(16)
N3 Co1 N6 175.23(17)
O1 Co1 N2 171.44(17)
N1 Co1 N2 95.64(18)
O2 Co1 N2 85.40(16)
N3 Co1 N2 85.33(17)
N6 Co1 N2 90.09(16)
C1 O1 Co1 121.2(3)
C12 O2 Co1 112.2(3)
C12 O2 H2 104.6(16)
Co1 O2 H2 128.7(18)
C7 N1 C8 116.1(4)
C7 N1 Co1 123.0(4)
C8 N1 Co1 120.9(3)
C10 N2 C11 111.1(4)
C10 N2 Co1 121.3(3)
C11 N2 Co1 106.9(3)
C10 N2 H2A 105.4
C11 N2 H2A 105.4
Co1 N2 H2A 105.4
N4 N3 Co1 119.4(3)
N5 N4 N3 175.1(5)
N7 N6 Co1 118.8(3)
N8 N7 N6 176.7(5)
O1 C1 C6 121.7(4)
O1 C1 C2 119.8(5)
C6 C1 C2 118.4(5)
C3 C2 C1 119.6(5)
C3 C2 H2B 120.2
C1 C2 H2B 120.2
C4 C3 C2 122.7(5)
C4 C3 H3 118.7
C2 C3 H3 118.7
C3 C4 C5 118.1(5)
C3 C4 H4 120.9
C5 C4 H4 120.9
C4 C5 C6 121.4(5)
C4 C5 H5 119.3
C6 C5 H5 119.3
C5 C6 C1 119.6(5)
C5 C6 C7 119.1(5)
C1 C6 C7 121.3(5)
N1 C7 C6 126.1(5)
N1 C7 H7 116.9
C6 C7 H7 116.9
N1 C8 C9 112.5(4)
N1 C8 H8A 109.1
C9 C8 H8A 109.1
N1 C8 H8B 109.1
C9 C8 H8B 109.1
H8A C8 H8B 107.8
C10 C9 C8 112.3(5)
C10 C9 H9A 109.2
C8 C9 H9A 109.2
C10 C9 H9B 109.2
C8 C9 H9B 109.2
H9A C9 H9B 107.9
N2 C10 C9 111.1(4)
N2 C10 H10A 109.4
C9 C10 H10A 109.4
N2 C10 H10B 109.4
C9 C10 H10B 109.4
H10A C10 H10B 108.0
N2 C11 C12 108.3(4)
N2 C11 H11A 110.0
C12 C11 H11A 110.0
N2 C11 H11B 110.0
C12 C11 H11B 110.0
H11A C11 H11B 108.4
O2 C12 C11 107.8(4)
O2 C12 H12A 110.1
C11 C12 H12A 110.1
O2 C12 H12B 110.1
C11 C12 H12B 110.1
H12A C12 H12B 108.5
loop_
_geom_bond_atom_site_label_1
_geom_bond_atom_site_label_2
_geom_bond_distance
Co1 O1 1.877(3)
Co1 N1 1.887(4)
Co1 O2 1.937(3)
Co1 N3 1.939(4)
Co1 N6 1.942(4)
Co1 N2 1.964(4)
O1 C1 1.326(5)
O2 C12 1.460(5)
O2 H2 0.872(9)
N1 C7 1.274(6)
N1 C8 1.471(5)
N2 C10 1.463(6)
N2 C11 1.480(6)
N2 H2A 0.9800
N3 N4 1.210(5)
N4 N5 1.155(5)
N6 N7 1.200(5)
N7 N8 1.141(5)
C1 C6 1.400(6)
C1 C2 1.402(6)
C2 C3 1.374(6)
C2 H2B 0.9300
C3 C4 1.370(6)
C3 H3 0.9300
C4 C5 1.373(6)
C4 H4 0.9300
C5 C6 1.398(6)
C5 H5 0.9300
C6 C7 1.443(6)
C7 H7 0.9300
C8 C9 1.510(6)
C8 H8A 0.9700
C8 H8B 0.9700
C9 C10 1.503(7)
C9 H9A 0.9700
C9 H9B 0.9700
C10 H10A 0.9700
C10 H10B 0.9700
C11 C12 1.494(6)
C11 H11A 0.9700
C11 H11B 0.9700
C12 H12A 0.9700
C12 H12B 0.9700
loop_
_geom_hbond_atom_site_label_D
_geom_hbond_atom_site_label_H
_geom_hbond_atom_site_label_A
_geom_hbond_distance_DH
_geom_hbond_distance_HA
_geom_hbond_distance_DA
_geom_hbond_angle_DHA
_geom_hbond_site_symmetry_A
O2 H2 O1 0.872(9) 1.752(14) 2.610(4) 167(3) 2_667
C10 H10B N6 0.97 2.67 3.498(6) 143.1 2_657
C10 H10B N7 0.97 2.67 3.314(6) 124.2 2_657
C11 H11B N8 0.97 2.69 3.282(7) 120.1 1_455
