#------------------------------------------------------------------------------
#$Date: 2017-09-22 05:36:54 +0300 (Fri, 22 Sep 2017) $
#$Revision: 201163 $
#$URL: file:///home/coder/svn-repositories/cod/cif/7/04/43/7044306.cif $
#------------------------------------------------------------------------------
#
# This file is available in the Crystallography Open Database (COD),
# http://www.crystallography.net/
#
# All data on this site have been placed in the public domain by the
# contributors.
#
data_7044306
loop_
_publ_author_name
'Yan, Chao'
'Wang, Kangcai'
'Liu, Tianlin'
'Yang, Hongwei'
'cheng, guangbing'
'Zhang, Qinghua'
_publ_section_title
;
 Exploiting the Energetic Potential of 1,2,4-Oxadiazole Derivatives:
 Combining the Benefits of 1,2,4-Oxadiazole Framework with Various
 Energetic Functionalities
;
_journal_name_full               'Dalton Trans.'
_journal_paper_doi               10.1039/C7DT03320F
_journal_year                    2017
_chemical_formula_moiety         'C3 H N4 O5, H4 N O'
_chemical_formula_sum            'C3 H5 N5 O6'
_chemical_formula_weight         207.12
_space_group_crystal_system      triclinic
_space_group_IT_number           2
_space_group_name_Hall           '-P 1'
_space_group_name_H-M_alt        'P -1'
_symmetry_space_group_name_Hall  '-P 1'
_symmetry_space_group_name_H-M   'P -1'
_atom_sites_solution_hydrogens   mixed
_atom_sites_solution_primary     dual
_audit_creation_date             2017-03-16
_audit_creation_method
;
Olex2 1.2-beta
(compiled 2017.03.02 svn.r3394 for OlexSys, GUI svn.r5324)
;
_audit_update_record
;
2017-09-03 deposited with the CCDC.
2017-09-21 downloaded from the CCDC.
;
_cell_angle_alpha                62.402(2)
_cell_angle_beta                 83.171(2)
_cell_angle_gamma                65.905(2)
_cell_formula_units_Z            2
_cell_length_a                   6.7360(7)
_cell_length_b                   8.1254(9)
_cell_length_c                   8.4748(9)
_cell_measurement_reflns_used    2555
_cell_measurement_temperature    173
_cell_measurement_theta_max      27.48
_cell_measurement_theta_min      3.04
_cell_volume                     373.84(7)
_computing_cell_refinement       'SAINT v7.68A (Bruker, 2009)'
_computing_data_reduction        'SAINT v7.68A (Bruker, 2009)'
_computing_molecular_graphics    'Olex2 (Dolomanov et al., 2009)'
_computing_publication_material  'Olex2 (Dolomanov et al., 2009)'
_computing_structure_refinement  'ShelXL (Sheldrick, 2015)'
_computing_structure_solution    'ShelXT (Sheldrick, 2015)'
_diffrn_ambient_temperature      173
_diffrn_measured_fraction_theta_full 0.994
_diffrn_measured_fraction_theta_max 0.987
_diffrn_measurement_device_type  'Bruker APEX-II CCD'
_diffrn_measurement_method       '\f and \w scans'
_diffrn_radiation_monochromator  graphite
_diffrn_radiation_type           MoK\a
_diffrn_radiation_wavelength     0.71073
_diffrn_reflns_av_R_equivalents  0.0186
_diffrn_reflns_av_unetI/netI     0.0229
_diffrn_reflns_Laue_measured_fraction_full 0.994
_diffrn_reflns_Laue_measured_fraction_max 0.987
_diffrn_reflns_limit_h_max       8
_diffrn_reflns_limit_h_min       -8
_diffrn_reflns_limit_k_max       9
_diffrn_reflns_limit_k_min       -10
_diffrn_reflns_limit_l_max       11
_diffrn_reflns_limit_l_min       -9
_diffrn_reflns_number            4266
_diffrn_reflns_point_group_measured_fraction_full 0.994
_diffrn_reflns_point_group_measured_fraction_max 0.987
_diffrn_reflns_theta_full        25.242
_diffrn_reflns_theta_max         27.504
_diffrn_reflns_theta_min         2.722
_diffrn_standards_number         0
_exptl_absorpt_coefficient_mu    0.177
_exptl_absorpt_correction_T_max  0.7456
_exptl_absorpt_correction_T_min  0.6738
_exptl_absorpt_correction_type   multi-scan
_exptl_absorpt_process_details
'SADABS-2008/1 (Bruker,2008) was used for absorption correction. wR2(int) was 0.0472 before and 0.0358 after correction. The Ratio of minimum to maximum transmission is 0.9037. The \l/2 correction factor is 0.0015.'
_exptl_crystal_colour            'clear whiteish colourless'
_exptl_crystal_colour_lustre     clear
_exptl_crystal_colour_modifier   whiteish
_exptl_crystal_colour_primary    colourless
_exptl_crystal_density_diffrn    1.840
_exptl_crystal_description       block
_exptl_crystal_F_000             212
_exptl_crystal_size_max          0.24
_exptl_crystal_size_mid          0.2
_exptl_crystal_size_min          0.18
_refine_diff_density_max         0.301
_refine_diff_density_min         -0.266
_refine_diff_density_rms         0.056
_refine_ls_extinction_method     none
_refine_ls_goodness_of_fit_ref   1.071
_refine_ls_hydrogen_treatment    mixed
_refine_ls_matrix_type           full
_refine_ls_number_parameters     133
_refine_ls_number_reflns         1699
_refine_ls_number_restraints     0
_refine_ls_restrained_S_all      1.071
_refine_ls_R_factor_all          0.0367
_refine_ls_R_factor_gt           0.0333
_refine_ls_shift/su_max          0.000
_refine_ls_shift/su_mean         0.000
_refine_ls_structure_factor_coef Fsqd
_refine_ls_weighting_details
'w=1/[\s^2^(Fo^2^)+(0.0612P)^2^+0.0749P] where P=(Fo^2^+2Fc^2^)/3'
_refine_ls_weighting_scheme      calc
_refine_ls_wR_factor_gt          0.0961
_refine_ls_wR_factor_ref         0.0995
_reflns_Friedel_coverage         0.000
_reflns_number_gt                1529
_reflns_number_total             1699
_reflns_threshold_expression     'I > 2\s(I)'
_iucr_refine_instructions_details
;

    mo_2017143_0m.res created by SHELXL-2014/7

TITL mo_2017143_0m_a.res in P-1
REM Old TITL mo_2017143_0m in P-1
REM SHELXT solution in P-1
REM R1 0.122, Rweak 0.007, Alpha 0.030, Orientation as input
REM Formula found by SHELXT: C9 N3 O2
CELL 0.71073 6.736 8.1254 8.4748 62.402 83.171 65.905
ZERR 2 0.0007 0.0009 0.0009 0.002 0.002 0.002
LATT 1
SFAC C H N O
UNIT 6 10 10 12
 
L.S. 10
PLAN  20
TEMP -103.15
BOND $H
list 4
fmap 2
acta
REM <olex2.extras>
REM <HklSrc "%.\\mo_2017143_0m.hkl">
REM </olex2.extras>
 
WGHT    0.061200    0.074900
FVAR       1.30211
O5    4    0.803694    0.682644    0.358393    11.00000    0.02945    0.03019 =
         0.02514   -0.01437    0.00964   -0.01534
O3    4    0.857819    0.228985    0.851087    11.00000    0.01724    0.02541 =
         0.03164   -0.01205    0.00073   -0.00361
O1    4    0.244444    0.794321    0.654194    11.00000    0.02865    0.01715 =
         0.03097   -0.00614    0.00250   -0.00241
O2    4    0.225278    0.538724    0.894780    11.00000    0.02458    0.02421 =
         0.02993   -0.01201    0.01066   -0.00852
O4    4    0.576077    0.202202    0.995916    11.00000    0.02771    0.02177 =
         0.02836   -0.00460    0.00556   -0.00914
O6    4    0.706818    0.990067    0.739876    11.00000    0.04669    0.02357 =
         0.02590   -0.01108   -0.00698   -0.00637
AFIX   7
H6    2    0.703834    0.930099    0.679443    11.00000   -1.20000
AFIX   0
 
N2    3    0.658793    0.306698    0.873042    11.00000    0.01986    0.01933 =
         0.02106   -0.00996    0.00094   -0.00692
N1    3    0.330729    0.615011    0.770507    11.00000    0.02172    0.01843 =
         0.02127   -0.01061    0.00238   -0.00706
N5    3    0.817168    0.845880    0.908407    11.00000    0.02316    0.01920 =
         0.02674   -0.00908    0.00055   -0.00626
AFIX   7
H5A   2    0.735964    0.785082    0.972743    11.00000   -1.20000
H5B   2    0.937172    0.758467    0.897502    11.00000   -1.20000
AFIX   0
 
N3    3    0.690837    0.563906    0.470649    11.00000    0.02557    0.03002 =
         0.02455   -0.01468    0.00795   -0.01557
N4    3    0.732309    0.747024    0.588310    11.00000    0.03283    0.02376 =
         0.03004   -0.01567    0.00924   -0.01571
C1    1    0.545897    0.507556    0.756036    11.00000    0.02031    0.01844 =
         0.01893   -0.00905    0.00209   -0.00720
C2    1    0.654094    0.607868    0.603590    11.00000    0.01822    0.01784 =
         0.02114   -0.00913    0.00047   -0.00552
C3    1    0.820612    0.783677    0.437973    11.00000    0.03286    0.02335 =
         0.03269   -0.01473    0.01025   -0.01455
AFIX  43
H3    2    0.891133    0.874873    0.389300    11.00000   -1.20000
AFIX   0
 
H5C   2    0.846846    0.918399    0.956206    11.00000    0.04383
HKLF 4
 
REM  mo_2017143_0m_a.res in P-1
REM R1 =  0.0333 for    1529 Fo > 4sig(Fo)  and  0.0367 for all    1699 data
REM    133 parameters refined using      0 restraints
 
END  
     
WGHT      0.0614      0.0754 

REM Highest difference peak  0.301,  deepest hole -0.266,  1-sigma level  0.056
Q1    1   0.5932  0.5646  0.6857  11.00000  0.05    0.30
Q2    1   0.4560  0.5478  0.7590  11.00000  0.05    0.24
Q3    1   0.5848  0.4111  0.7911  11.00000  0.05    0.24
Q4    1   0.6161  0.6208  0.5305  11.00000  0.05    0.21
Q5    1   0.7540  0.7819  0.6563  11.00000  0.05    0.19
Q6    1   0.8628  0.8985  0.3049  11.00000  0.05    0.17
Q7    1   0.6876  0.6822  0.6086  11.00000  0.05    0.16
Q8    1   0.7211  0.8141  0.4732  11.00000  0.05    0.15
Q9    1   0.6441  0.7233  0.5611  11.00000  0.05    0.15
Q10   1   0.5770  0.6016  0.3984  11.00000  0.05    0.15
Q11   1   0.5083  0.2490  1.0403  11.00000  0.05    0.15
Q12   1   0.4456  0.2375  0.9660  11.00000  0.05    0.15
Q13   1   0.2766  0.3962  0.9741  11.00000  0.05    0.14
Q14   1   0.5208  0.5151  0.9388  11.00000  0.05    0.13
Q15   1   0.9240  0.1378  0.9005  11.00000  0.05    0.13
Q16   1   0.1083  0.5829  0.7977  11.00000  0.05    0.12
Q17   1   0.9185  0.5450  0.6751  11.00000  0.05    0.12
Q18   1   0.7543  0.8869  0.9888  11.00000  0.05    0.12
Q19   1   0.5170  1.0760  0.6812  11.00000  0.05    0.12
Q20   1   0.8382  0.7190  0.4159  11.00000  0.05    0.12

  REM The information below was added by Olex2.
  REM
  REM R1 = 0.0333 for 1529 Fo > 4sig(Fo) and 0.0367 for all 4266 data
  REM n/a parameters refined using n/a restraints
  REM Highest difference peak 0.30, deepest hole -0.27
  REM Mean Shift 0, Max Shift 0.000.

  REM +++ Tabular Listing of Refinement Information +++
  REM R1_all = 0.0367
  REM R1_gt = 0.0333
  REM wR_ref = 0.0995
  REM GOOF = 1.071
  REM Shift_max = 0.000
  REM Shift_mean = 0
  REM Reflections_all = 4266
  REM Reflections_gt = 1529
  REM Parameters = n/a
  REM Hole = -0.27
  REM Peak = 0.30
  REM Flack = n/a

  
;
_cod_data_source_file            c7dt03320f2.cif
_cod_data_source_block           mo_2017143_0m
_cod_database_code               7044306
_shelx_shelxl_version_number     2014/7
_shelx_space_group_comment
;
The symmetry employed for this shelxl refinement is uniquely defined
by the following loop, which should always be used as a source of
symmetry information in preference to the above space-group names.
They are only intended as comments.
;
_olex2_refinement_description
;
1. Fixed Uiso
 At 1.2 times of:
  All C(H) groups, All N(H,H) groups, All O(H) groups
2.a Rotating group:
 O6(H6), N5(H5A,H5B)
2.b Aromatic/amide H refined with riding coordinates:
 C3(H3)
;
_olex2_submission_special_instructions 'No special instructions were received'
loop_
_space_group_symop_operation_xyz
'x, y, z'
'-x, -y, -z'
loop_
_atom_site_label
_atom_site_type_symbol
_atom_site_fract_x
_atom_site_fract_y
_atom_site_fract_z
_atom_site_U_iso_or_equiv
_atom_site_adp_type
_atom_site_occupancy
_atom_site_site_symmetry_order
_atom_site_calc_flag
_atom_site_refinement_flags_posn
O5 O 0.80369(15) 0.68264(14) 0.35839(12) 0.0270(2) Uani 1 1 d .
O3 O 0.85782(14) 0.22899(14) 0.85109(13) 0.0269(2) Uani 1 1 d .
O1 O 0.24444(16) 0.79432(13) 0.65419(13) 0.0302(2) Uani 1 1 d .
O2 O 0.22528(15) 0.53872(14) 0.89478(13) 0.0277(2) Uani 1 1 d .
O4 O 0.57608(15) 0.20220(14) 0.99592(13) 0.0295(2) Uani 1 1 d .
O6 O 0.70682(18) 0.99007(14) 0.73988(13) 0.0340(3) Uani 1 1 d .
H6 H 0.7038 0.9301 0.6794 0.041 Uiso 1 1 d GR
N2 N 0.65879(16) 0.30670(15) 0.87304(13) 0.0200(2) Uani 1 1 d .
N1 N 0.33073(16) 0.61501(15) 0.77051(13) 0.0202(2) Uani 1 1 d .
N5 N 0.81717(17) 0.84588(16) 0.90841(14) 0.0243(2) Uani 1 1 d .
H5A H 0.7360 0.7851 0.9727 0.029 Uiso 1 1 d GR
H5B H 0.9372 0.7585 0.8975 0.029 Uiso 1 1 d GR
N3 N 0.69084(17) 0.56391(17) 0.47065(14) 0.0247(2) Uani 1 1 d .
N4 N 0.73231(19) 0.74702(16) 0.58831(15) 0.0265(3) Uani 1 1 d .
C1 C 0.54590(18) 0.50756(17) 0.75604(15) 0.0193(3) Uani 1 1 d .
C2 C 0.65409(18) 0.60787(17) 0.60359(15) 0.0195(3) Uani 1 1 d .
C3 C 0.8206(2) 0.7837(2) 0.43797(19) 0.0283(3) Uani 1 1 d .
H3 H 0.8911 0.8749 0.3893 0.034 Uiso 1 1 calc R
H5C H 0.847(3) 0.918(3) 0.956(3) 0.044(5) Uiso 1 1 d .
loop_
_atom_site_aniso_label
_atom_site_aniso_U_11
_atom_site_aniso_U_22
_atom_site_aniso_U_33
_atom_site_aniso_U_23
_atom_site_aniso_U_13
_atom_site_aniso_U_12
O5 0.0294(5) 0.0302(5) 0.0251(5) -0.0144(4) 0.0096(4) -0.0153(4)
O3 0.0172(4) 0.0254(5) 0.0316(5) -0.0120(4) 0.0007(3) -0.0036(3)
O1 0.0286(5) 0.0172(4) 0.0310(5) -0.0061(4) 0.0025(4) -0.0024(4)
O2 0.0246(4) 0.0242(5) 0.0299(5) -0.0120(4) 0.0107(4) -0.0085(4)
O4 0.0277(5) 0.0218(4) 0.0284(5) -0.0046(4) 0.0056(4) -0.0091(4)
O6 0.0467(6) 0.0236(5) 0.0259(5) -0.0111(4) -0.0070(4) -0.0064(4)
N2 0.0199(5) 0.0193(5) 0.0211(5) -0.0100(4) 0.0009(4) -0.0069(4)
N1 0.0217(5) 0.0184(5) 0.0213(5) -0.0106(4) 0.0024(4) -0.0071(4)
N5 0.0232(5) 0.0192(5) 0.0267(5) -0.0091(4) 0.0005(4) -0.0063(4)
N3 0.0256(5) 0.0300(6) 0.0245(5) -0.0147(5) 0.0079(4) -0.0156(4)
N4 0.0328(6) 0.0238(5) 0.0300(6) -0.0157(5) 0.0092(4) -0.0157(5)
C1 0.0203(5) 0.0184(5) 0.0189(5) -0.0090(5) 0.0021(4) -0.0072(4)
C2 0.0182(5) 0.0178(5) 0.0211(5) -0.0091(4) 0.0005(4) -0.0055(4)
C3 0.0329(7) 0.0234(6) 0.0327(7) -0.0147(5) 0.0103(5) -0.0146(5)
loop_
_atom_type_symbol
_atom_type_description
_atom_type_scat_dispersion_real
_atom_type_scat_dispersion_imag
_atom_type_scat_source
C C 0.0033 0.0016 'International Tables Vol C Tables 4.2.6.8 and 6.1.1.4'
H H 0.0000 0.0000 'International Tables Vol C Tables 4.2.6.8 and 6.1.1.4'
N N 0.0061 0.0033 'International Tables Vol C Tables 4.2.6.8 and 6.1.1.4'
O O 0.0106 0.0060 'International Tables Vol C Tables 4.2.6.8 and 6.1.1.4'
loop_
_geom_angle_atom_site_label_1
_geom_angle_atom_site_label_2
_geom_angle_atom_site_label_3
_geom_angle
C3 O5 N3 106.32(9)
N5 O6 H6 109.7
O3 N2 C1 116.30(10)
O4 N2 O3 119.81(10)
O4 N2 C1 123.90(10)
O1 N1 O2 120.82(10)
O1 N1 C1 116.67(10)
O2 N1 C1 122.51(10)
O6 N5 H5A 109.2
O6 N5 H5B 109.8
O6 N5 H5C 105.8(12)
H5A N5 H5B 109.4
H5A N5 H5C 112.4
H5B N5 H5C 110.2
C2 N3 O5 103.42(10)
C3 N4 C2 102.25(11)
N2 C1 N1 122.54(11)
N2 C1 C2 118.73(10)
N1 C1 C2 118.62(10)
N3 C2 N4 114.09(11)
N3 C2 C1 120.69(11)
N4 C2 C1 125.18(11)
O5 C3 H3 123.0
N4 C3 O5 113.92(12)
N4 C3 H3 123.0
loop_
_geom_bond_atom_site_label_1
_geom_bond_atom_site_label_2
_geom_bond_distance
O5 N3 1.4108(14)
O5 C3 1.3227(17)
O3 N2 1.2606(13)
O1 N1 1.2435(14)
O2 N1 1.2549(14)
O4 N2 1.2429(13)
O6 H6 0.8613
O6 N5 1.3986(14)
N2 C1 1.3754(15)
N1 C1 1.3790(15)
N5 H5A 0.8606
N5 H5B 0.8606
N5 H5C 0.94(2)
N3 C2 1.3010(15)
N4 C2 1.3811(16)
N4 C3 1.2956(17)
C1 C2 1.4663(16)
C3 H3 0.9500
