#------------------------------------------------------------------------------
#$Date: 2017-11-03 06:00:57 +0200 (Fri, 03 Nov 2017) $
#$Revision: 202536 $
#$URL: file:///home/coder/svn-repositories/cod/cif/7/04/46/7044635.cif $
#------------------------------------------------------------------------------
#
# This file is available in the Crystallography Open Database (COD),
# http://www.crystallography.net/
#
# All data on this site have been placed in the public domain by the
# contributors.
#
data_7044635
loop_
_publ_author_name
'Mangin, Lo\"ic P'
'Zargarian, Davit'
_publ_section_title
;
 C&#x2212;H Nickellation of Phenol-Derived Phosphinites: Regioselectivity
 and Structures of Cyclonickellated Complexes
;
_journal_name_full               'Dalton Transactions'
_journal_paper_doi               10.1039/C7DT03403B
_journal_year                    2017
_chemical_formula_moiety         'C14 H21 Br N Ni O P'
_chemical_formula_sum            'C14 H21 Br N Ni O P'
_chemical_formula_weight         388.91
_space_group_crystal_system      triclinic
_space_group_IT_number           2
_space_group_name_Hall           '-P 1'
_space_group_name_H-M_alt        'P -1'
_symmetry_space_group_name_Hall  '-P 1'
_symmetry_space_group_name_H-M   'P -1'
_atom_sites_solution_hydrogens   geom
_atom_sites_solution_primary     dual
_audit_creation_date             2017-03-28
_audit_creation_method
;
Olex2 1.2
(compiled 2017.03.02 svn.r3394 for OlexSys, GUI svn.r5324)
;
_audit_update_record
;
2017-10-24 deposited with the CCDC.
2017-11-02 downloaded from the CCDC.
;
_cell_angle_alpha                97.074(2)
_cell_angle_beta                 101.279(2)
_cell_angle_gamma                111.252(2)
_cell_formula_units_Z            2
_cell_length_a                   7.4137(4)
_cell_length_b                   9.6993(5)
_cell_length_c                   12.7577(7)
_cell_measurement_reflns_used    9081
_cell_measurement_temperature    150
_cell_measurement_theta_max      60.611
_cell_measurement_theta_min      3.146
_cell_volume                     819.36(8)
_computing_cell_refinement       'SAINT v8.34A (Bruker, 2013)'
_computing_data_reduction        'SAINT v8.34A (Bruker, 2013)'
_computing_molecular_graphics    'Olex2 (Dolomanov et al., 2009)'
_computing_publication_material  'Olex2 (Dolomanov et al., 2009)'
_computing_structure_refinement  'XL (Sheldrick, 2008)'
_computing_structure_solution    'XT (Sheldrick, 2015)'
_diffrn_ambient_temperature      150
_diffrn_measured_fraction_theta_full 0.999
_diffrn_measured_fraction_theta_max 0.998
_diffrn_measurement_device_type  'Bruker Venture Metaljet'
_diffrn_radiation_type           GaK\a
_diffrn_radiation_wavelength     1.34139
_diffrn_reflns_av_R_equivalents  0.0502
_diffrn_reflns_av_unetI/netI     0.0311
_diffrn_reflns_Laue_measured_fraction_full 0.999
_diffrn_reflns_Laue_measured_fraction_max 0.998
_diffrn_reflns_limit_h_max       9
_diffrn_reflns_limit_h_min       -9
_diffrn_reflns_limit_k_max       12
_diffrn_reflns_limit_k_min       -12
_diffrn_reflns_limit_l_max       16
_diffrn_reflns_limit_l_min       -16
_diffrn_reflns_number            19653
_diffrn_reflns_point_group_measured_fraction_full 0.999
_diffrn_reflns_point_group_measured_fraction_max 0.998
_diffrn_reflns_theta_full        53.594
_diffrn_reflns_theta_max         60.638
_diffrn_reflns_theta_min         3.145
_exptl_absorpt_coefficient_mu    9.146
_exptl_absorpt_correction_T_max  0.7519
_exptl_absorpt_correction_T_min  0.5839
_exptl_absorpt_correction_type   multi-scan
_exptl_absorpt_process_details
'SADABS-2014/5 (Bruker,2014/5) was used for absorption correction. wR2(int) was 0.1288 before and 0.0726 after correction. The Ratio of minimum to maximum transmission is 0.7766. The \l/2 correction factor is 0.00150.'
_exptl_crystal_colour            yellow
_exptl_crystal_colour_primary    yellow
_exptl_crystal_density_diffrn    1.576
_exptl_crystal_description       needle
_exptl_crystal_F_000             396
_exptl_crystal_preparation       'Slow evap Et2O'
_exptl_crystal_size_max          0.08
_exptl_crystal_size_mid          0.08
_exptl_crystal_size_min          0.04
_refine_diff_density_max         0.630
_refine_diff_density_min         -1.540
_refine_diff_density_rms         0.283
_refine_ls_extinction_method     none
_refine_ls_goodness_of_fit_ref   1.251
_refine_ls_hydrogen_treatment    constr
_refine_ls_matrix_type           full
_refine_ls_number_parameters     177
_refine_ls_number_reflns         3772
_refine_ls_number_restraints     0
_refine_ls_restrained_S_all      1.251
_refine_ls_R_factor_all          0.0389
_refine_ls_R_factor_gt           0.0384
_refine_ls_shift/su_max          0.000
_refine_ls_shift/su_mean         0.000
_refine_ls_structure_factor_coef Fsqd
_refine_ls_weighting_details
'w=1/[\s^2^(Fo^2^)+(0.0682P)^2^+0.1205P] where P=(Fo^2^+2Fc^2^)/3'
_refine_ls_weighting_scheme      calc
_refine_ls_wR_factor_gt          0.1080
_refine_ls_wR_factor_ref         0.1087
_reflns_Friedel_coverage         0.000
_reflns_number_gt                3695
_reflns_number_total             3772
_reflns_threshold_expression     'I > 2\s(I)'
_cod_data_source_file            c7dt03403b2.cif
_cod_data_source_block           loic94
_cod_database_code               7044635
_shelx_shelxl_version_number     2014/7
_shelx_space_group_comment
;
The symmetry employed for this shelxl refinement is uniquely defined
by the following loop, which should always be used as a source of
symmetry information in preference to the above space-group names.
They are only intended as comments.
;
_shelx_estimated_absorpt_t_max   0.711
_shelx_estimated_absorpt_t_min   0.528
_olex2_refinement_description
;
1. Fixed Uiso
 At 1.2 times of:
  All C(H) groups
 At 1.5 times of:
  All C(H,H,H) groups
2.a Ternary CH refined with riding coordinates:
 C7(H7), C10(H10)
2.b Aromatic/amide H refined with riding coordinates:
 C3(H3), C4(H4), C5(H5), C6(H6)
2.c Idealised Me refined as rotating group:
 C8(H8A,H8B,H8C), C9(H9A,H9B,H9C), C11(H11A,H11B,H11C), C12(H12A,H12B,H12C),
 C14(H14A,H14B,H14C)
;
_shelx_res_file
;
    loic94_0m.res created by SHELXL-2014/7

TITL loic94_0m_a.res in P-1
REM Old TITL loic94_0m in P-1
REM SHELXT solution in P-1
REM R1 0.135, Rweak 0.015, Alpha 0.053, Orientation as input
REM Formula found by SHELXT: C14 N O P Ni Br
CELL 1.34139 7.4137 9.6993 12.7577 97.074 101.279 111.252
ZERR 2 0.0004 0.0005 0.0007 0.002 0.002 0.002
LATT 1
SFAC C H Br N Ni O P
DISP Br -0.95 1.041 8191.512
DISP C 0.015 0.007 57.748
DISP H -0 0 0.648
DISP N 0.025 0.014 110.512
DISP Ni -1.341 3.29 25626.389
DISP O 0.041 0.025 193.954
DISP P 0.26 0.335 2524.188
UNIT 28 42 2 2 2 2 2

L.S. 10
PLAN  5
SIZE 0.04 0.08 0.08
TEMP -123.15
BOND $H
CONF
ACTA
LIST 6
fmap 2
REM <olex2.extras>
REM <HklSrc "%.\\loic94_0m.hkl">
REM </olex2.extras>

WGHT    0.068200    0.120500
FVAR       0.85497
BR1   3   -0.030087    0.055901    0.225652    11.00000    0.04485    0.02132 =
         0.03651    0.01096    0.01988    0.00615
NI1   5    0.165703    0.315385    0.296698    11.00000    0.02779    0.02249 =
         0.02127    0.00608    0.01095    0.01034
P1    7    0.264564    0.335369    0.153549    11.00000    0.02421    0.01528 =
         0.02431    0.00257    0.01172    0.00381
O1    6    0.359962    0.516932    0.152748    11.00000    0.03862    0.01556 =
         0.03153    0.00186    0.01779    0.00252
N1    4    0.091608    0.300725    0.431634    11.00000    0.03718    0.03802 =
         0.02570    0.00984    0.01274    0.01726
C1    1    0.394037    0.605026    0.255755    11.00000    0.02469    0.02102 =
         0.03187   -0.00042    0.00901    0.00761
C2    1    0.323341    0.529053    0.335385    11.00000    0.02710    0.02323 =
         0.02825    0.00097    0.00647    0.01168
C3    1    0.376838    0.620571    0.440346    11.00000    0.04258    0.03307 =
         0.02898   -0.00075    0.00487    0.01786
AFIX  43
H3    2    0.337325    0.575341    0.498582    11.00000   -1.20000
AFIX   0
C4    1    0.487073    0.776827    0.460404    11.00000    0.04258    0.03498 =
         0.03748   -0.01188    0.00031    0.01565
AFIX  43
H4    2    0.523163    0.835911    0.532192    11.00000   -1.20000
AFIX   0
C5    1    0.544298    0.846525    0.376885    11.00000    0.03216    0.02555 =
         0.05340   -0.00919    0.00617    0.00785
AFIX  43
H5    2    0.615166    0.953229    0.390986    11.00000   -1.20000
AFIX   0
C6    1    0.497761    0.759859    0.271964    11.00000    0.02750    0.01965 =
         0.04658   -0.00008    0.01135    0.00483
AFIX  43
H6    2    0.536015    0.805649    0.213707    11.00000   -1.20000
AFIX   0
C7    1    0.087126    0.259796    0.018720    11.00000    0.03226    0.01849 =
         0.02433    0.00559    0.01067    0.00570
AFIX  13
H7    2    0.045604    0.147534    0.001976    11.00000   -1.20000
AFIX   0
C8    1   -0.100009    0.291377    0.020965    11.00000    0.03496    0.03182 =
         0.03999    0.01405    0.00908    0.01302
AFIX 137
H8A   2   -0.168137    0.236678    0.071052    11.00000   -1.50000
H8B   2   -0.190743    0.257419   -0.052719    11.00000   -1.50000
H8C   2   -0.061011    0.400261    0.045998    11.00000   -1.50000
AFIX   0
C9    1    0.182807    0.323085   -0.070380    11.00000    0.05608    0.02985 =
         0.02833    0.00901    0.02171    0.01243
AFIX 137
H9A   2    0.231838    0.433760   -0.053502    11.00000   -1.50000
H9B   2    0.082774    0.282588   -0.141228    11.00000   -1.50000
H9C   2    0.295058    0.293422   -0.073446    11.00000   -1.50000
AFIX   0
C10   1    0.473704    0.279010    0.145854    11.00000    0.02614    0.02624 =
         0.03581   -0.00025    0.01308    0.00806
AFIX  13
H10   2    0.534588    0.325747    0.088822    11.00000   -1.20000
AFIX   0
C11   1    0.634652    0.344368    0.254161    11.00000    0.03784    0.07204 =
         0.04981   -0.01227    0.00025    0.03037
AFIX 137
H11A  2    0.665661    0.452509    0.276576    11.00000   -1.50000
H11B  2    0.755955    0.330846    0.245292    11.00000   -1.50000
H11C  2    0.585765    0.291746    0.310213    11.00000   -1.50000
AFIX   0
C12   1    0.405733    0.107470    0.110428    11.00000    0.03447    0.02725 =
         0.06580    0.00504    0.02073    0.01388
AFIX 137
H12A  2    0.332989    0.057104    0.160607    11.00000   -1.50000
H12B  2    0.523189    0.082899    0.111955    11.00000   -1.50000
H12C  2    0.317516    0.072614    0.036048    11.00000   -1.50000
AFIX   0
C13   1    0.051053    0.273339    0.510239    11.00000    0.03119    0.04295 =
         0.02878    0.01133    0.01075    0.01746
C14   1    0.001514    0.234478    0.610801    11.00000    0.04184    0.06627 =
         0.03147    0.02362    0.01669    0.02235
AFIX 137
H14A  2   -0.096144    0.129442    0.595042    11.00000   -1.50000
H14B  2   -0.055876    0.302057    0.640716    11.00000   -1.50000
H14C  2    0.123265    0.245816    0.664234    11.00000   -1.50000
AFIX   0
HKLF 4

REM  loic94_0m_a.res in P-1
REM R1 =  0.0384 for    3695 Fo > 4sig(Fo)  and  0.0389 for all    3772 data
REM    177 parameters refined using      0 restraints

END

WGHT      0.0682      0.1205

REM Highest difference peak  0.630,  deepest hole -1.540,  1-sigma level  0.283
Q1    1   0.9397  0.4512  0.1963  11.00000  0.05    0.63
Q2    1   0.2193  0.0976 -0.0350  11.00000  0.05    0.62
Q3    1   0.4503  0.4409  0.0747  11.00000  0.05    0.61
Q4    1  -0.1594  0.1745  0.7394  11.00000  0.05    0.58
Q5    1   0.0544  0.4442 -0.1716  11.00000  0.05    0.56
;
_shelx_res_checksum              12856
_olex2_submission_special_instructions 'No special instructions were received'
loop_
_space_group_symop_operation_xyz
'x, y, z'
'-x, -y, -z'
loop_
_atom_site_label
_atom_site_type_symbol
_atom_site_fract_x
_atom_site_fract_y
_atom_site_fract_z
_atom_site_U_iso_or_equiv
_atom_site_adp_type
_atom_site_occupancy
_atom_site_site_symmetry_order
_atom_site_calc_flag
_atom_site_refinement_flags_posn
Br1 Br -0.03009(4) 0.05590(3) 0.22565(2) 0.03443(11) Uani 1 1 d .
Ni1 Ni 0.16570(4) 0.31538(3) 0.29670(2) 0.02292(11) Uani 1 1 d .
P1 P 0.26456(8) 0.33537(6) 0.15355(4) 0.02179(14) Uani 1 1 d .
O1 O 0.3600(3) 0.51693(18) 0.15275(14) 0.0300(3) Uani 1 1 d .
N1 N 0.0916(3) 0.3007(3) 0.43163(17) 0.0320(4) Uani 1 1 d .
C1 C 0.3940(3) 0.6050(3) 0.25576(19) 0.0266(4) Uani 1 1 d .
C2 C 0.3233(3) 0.5291(3) 0.33538(19) 0.0262(4) Uani 1 1 d .
C3 C 0.3768(4) 0.6206(3) 0.4403(2) 0.0354(5) Uani 1 1 d .
H3 H 0.3373 0.5753 0.4986 0.042 Uiso 1 1 calc R
C4 C 0.4871(4) 0.7768(3) 0.4604(2) 0.0416(6) Uani 1 1 d .
H4 H 0.5232 0.8359 0.5322 0.050 Uiso 1 1 calc R
C5 C 0.5443(4) 0.8465(3) 0.3769(3) 0.0405(6) Uani 1 1 d .
H5 H 0.6152 0.9532 0.3910 0.049 Uiso 1 1 calc R
C6 C 0.4978(3) 0.7599(3) 0.2720(2) 0.0330(5) Uani 1 1 d .
H6 H 0.5360 0.8056 0.2137 0.040 Uiso 1 1 calc R
C7 C 0.0871(3) 0.2598(2) 0.01872(18) 0.0257(4) Uani 1 1 d .
H7 H 0.0456 0.1475 0.0020 0.031 Uiso 1 1 calc R
C8 C -0.1000(4) 0.2914(3) 0.0210(2) 0.0352(5) Uani 1 1 d .
H8A H -0.1681 0.2367 0.0711 0.053 Uiso 1 1 calc GR
H8B H -0.1907 0.2574 -0.0527 0.053 Uiso 1 1 calc GR
H8C H -0.0610 0.4003 0.0460 0.053 Uiso 1 1 calc GR
C9 C 0.1828(4) 0.3231(3) -0.0704(2) 0.0376(6) Uani 1 1 d .
H9A H 0.2318 0.4338 -0.0535 0.056 Uiso 1 1 calc GR
H9B H 0.0828 0.2826 -0.1412 0.056 Uiso 1 1 calc GR
H9C H 0.2951 0.2934 -0.0734 0.056 Uiso 1 1 calc GR
C10 C 0.4737(3) 0.2790(3) 0.1459(2) 0.0300(5) Uani 1 1 d .
H10 H 0.5346 0.3257 0.0888 0.036 Uiso 1 1 calc R
C11 C 0.6347(4) 0.3444(4) 0.2542(3) 0.0548(9) Uani 1 1 d .
H11A H 0.6657 0.4525 0.2766 0.082 Uiso 1 1 calc GR
H11B H 0.7560 0.3308 0.2453 0.082 Uiso 1 1 calc GR
H11C H 0.5858 0.2917 0.3102 0.082 Uiso 1 1 calc GR
C12 C 0.4057(4) 0.1075(3) 0.1104(3) 0.0413(6) Uani 1 1 d .
H12A H 0.3330 0.0571 0.1606 0.062 Uiso 1 1 calc GR
H12B H 0.5232 0.0829 0.1120 0.062 Uiso 1 1 calc GR
H12C H 0.3175 0.0726 0.0360 0.062 Uiso 1 1 calc GR
C13 C 0.0511(4) 0.2733(3) 0.5102(2) 0.0327(5) Uani 1 1 d .
C14 C 0.0015(4) 0.2345(4) 0.6108(2) 0.0439(7) Uani 1 1 d .
H14A H -0.0961 0.1294 0.5950 0.066 Uiso 1 1 calc GR
H14B H -0.0559 0.3021 0.6407 0.066 Uiso 1 1 calc GR
H14C H 0.1233 0.2458 0.6642 0.066 Uiso 1 1 calc GR
loop_
_atom_site_aniso_label
_atom_site_aniso_U_11
_atom_site_aniso_U_22
_atom_site_aniso_U_33
_atom_site_aniso_U_23
_atom_site_aniso_U_13
_atom_site_aniso_U_12
Br1 0.04485(18) 0.02132(16) 0.03651(17) 0.01096(11) 0.01988(12) 0.00615(12)
Ni1 0.02779(18) 0.02249(19) 0.02127(18) 0.00608(13) 0.01095(13) 0.01034(14)
P1 0.0242(2) 0.0153(2) 0.0243(3) 0.00257(19) 0.0117(2) 0.00381(19)
O1 0.0386(8) 0.0156(7) 0.0315(8) 0.0019(6) 0.0178(7) 0.0025(6)
N1 0.0372(10) 0.0380(11) 0.0257(9) 0.0098(8) 0.0127(8) 0.0173(9)
C1 0.0247(9) 0.0210(10) 0.0319(11) -0.0004(8) 0.0090(8) 0.0076(8)
C2 0.0271(10) 0.0232(10) 0.0282(11) 0.0010(8) 0.0065(8) 0.0117(8)
C3 0.0426(13) 0.0331(13) 0.0290(11) -0.0007(10) 0.0049(10) 0.0179(11)
C4 0.0426(14) 0.0350(14) 0.0375(13) -0.0119(11) 0.0003(11) 0.0157(12)
C5 0.0322(12) 0.0256(12) 0.0534(16) -0.0092(11) 0.0062(11) 0.0079(10)
C6 0.0275(10) 0.0196(11) 0.0466(14) -0.0001(10) 0.0113(10) 0.0048(9)
C7 0.0323(10) 0.0185(9) 0.0243(10) 0.0056(8) 0.0107(8) 0.0057(8)
C8 0.0350(12) 0.0318(12) 0.0400(13) 0.0141(10) 0.0091(10) 0.0130(10)
C9 0.0561(15) 0.0299(12) 0.0283(11) 0.0090(9) 0.0217(11) 0.0124(11)
C10 0.0261(10) 0.0262(11) 0.0358(12) -0.0003(9) 0.0131(9) 0.0081(9)
C11 0.0378(14) 0.072(2) 0.0498(17) -0.0123(16) 0.0003(13) 0.0304(15)
C12 0.0345(12) 0.0272(12) 0.0658(18) 0.0050(12) 0.0207(12) 0.0139(10)
C13 0.0312(11) 0.0429(14) 0.0288(11) 0.0113(10) 0.0107(9) 0.0175(10)
C14 0.0418(14) 0.066(2) 0.0315(13) 0.0236(13) 0.0167(11) 0.0224(14)
loop_
_atom_type_symbol
_atom_type_description
_atom_type_scat_dispersion_real
_atom_type_scat_dispersion_imag
_atom_type_scat_source
C C 0.0150 0.0070 'International Tables Vol C Tables 4.2.6.8 and 6.1.1.4'
H H 0.0000 0.0000 'International Tables Vol C Tables 4.2.6.8 and 6.1.1.4'
Br Br -0.9500 1.0410 'International Tables Vol C Tables 4.2.6.8 and 6.1.1.4'
N N 0.0250 0.0140 'International Tables Vol C Tables 4.2.6.8 and 6.1.1.4'
Ni Ni -1.3410 3.2900 'International Tables Vol C Tables 4.2.6.8 and 6.1.1.4'
O O 0.0410 0.0250 'International Tables Vol C Tables 4.2.6.8 and 6.1.1.4'
P P 0.2600 0.3350 'International Tables Vol C Tables 4.2.6.8 and 6.1.1.4'
loop_
_geom_angle_atom_site_label_1
_geom_angle_atom_site_label_2
_geom_angle_atom_site_label_3
_geom_angle
P1 Ni1 Br1 90.681(19)
N1 Ni1 Br1 90.92(7)
N1 Ni1 P1 176.66(6)
N1 Ni1 C2 96.03(10)
C2 Ni1 Br1 172.62(7)
C2 Ni1 P1 82.51(7)
O1 P1 Ni1 107.01(6)
O1 P1 C7 100.92(9)
O1 P1 C10 102.96(10)
C7 P1 Ni1 120.99(7)
C7 P1 C10 106.41(11)
C10 P1 Ni1 116.02(8)
C1 O1 P1 110.99(14)
C13 N1 Ni1 170.4(2)
O1 C1 C2 117.32(19)
C6 C1 O1 117.7(2)
C6 C1 C2 124.9(2)
C1 C2 Ni1 119.67(17)
C1 C2 C3 115.3(2)
C3 C2 Ni1 125.07(19)
C2 C3 H3 119.4
C4 C3 C2 121.2(3)
C4 C3 H3 119.4
C3 C4 H4 119.6
C5 C4 C3 120.8(2)
C5 C4 H4 119.6
C4 C5 H5 120.0
C4 C5 C6 120.0(2)
C6 C5 H5 120.0
C1 C6 C5 117.7(2)
C1 C6 H6 121.1
C5 C6 H6 121.1
P1 C7 H7 107.9
C8 C7 P1 109.60(16)
C8 C7 H7 107.9
C8 C7 C9 111.8(2)
C9 C7 P1 111.56(17)
C9 C7 H7 107.9
C7 C8 H8A 109.5
C7 C8 H8B 109.5
C7 C8 H8C 109.5
H8A C8 H8B 109.5
H8A C8 H8C 109.5
H8B C8 H8C 109.5
C7 C9 H9A 109.5
C7 C9 H9B 109.5
C7 C9 H9C 109.5
H9A C9 H9B 109.5
H9A C9 H9C 109.5
H9B C9 H9C 109.5
P1 C10 H10 107.2
C11 C10 P1 109.88(17)
C11 C10 H10 107.2
C11 C10 C12 112.3(3)
C12 C10 P1 112.69(16)
C12 C10 H10 107.2
C10 C11 H11A 109.5
C10 C11 H11B 109.5
C10 C11 H11C 109.5
H11A C11 H11B 109.5
H11A C11 H11C 109.5
H11B C11 H11C 109.5
C10 C12 H12A 109.5
C10 C12 H12B 109.5
C10 C12 H12C 109.5
H12A C12 H12B 109.5
H12A C12 H12C 109.5
H12B C12 H12C 109.5
N1 C13 C14 178.2(3)
C13 C14 H14A 109.5
C13 C14 H14B 109.5
C13 C14 H14C 109.5
H14A C14 H14B 109.5
H14A C14 H14C 109.5
H14B C14 H14C 109.5
loop_
_geom_bond_atom_site_label_1
_geom_bond_atom_site_label_2
_geom_bond_distance
Br1 Ni1 2.3533(4)
Ni1 P1 2.1018(6)
Ni1 N1 1.913(2)
Ni1 C2 1.916(2)
P1 O1 1.6450(16)
P1 C7 1.825(2)
P1 C10 1.837(2)
O1 C1 1.399(3)
N1 C13 1.137(3)
C1 C2 1.401(3)
C1 C6 1.383(3)
C2 C3 1.408(3)
C3 H3 0.9500
C3 C4 1.398(4)
C4 H4 0.9500
C4 C5 1.385(5)
C5 H5 0.9500
C5 C6 1.396(4)
C6 H6 0.9500
C7 H7 1.0000
C7 C8 1.530(3)
C7 C9 1.531(3)
C8 H8A 0.9800
C8 H8B 0.9800
C8 H8C 0.9800
C9 H9A 0.9800
C9 H9B 0.9800
C9 H9C 0.9800
C10 H10 1.0000
C10 C11 1.525(4)
C10 C12 1.531(3)
C11 H11A 0.9800
C11 H11B 0.9800
C11 H11C 0.9800
C12 H12A 0.9800
C12 H12B 0.9800
C12 H12C 0.9800
C13 C14 1.458(3)
C14 H14A 0.9800
C14 H14B 0.9800
C14 H14C 0.9800
loop_
_geom_torsion_atom_site_label_1
_geom_torsion_atom_site_label_2
_geom_torsion_atom_site_label_3
_geom_torsion_atom_site_label_4
_geom_torsion
Ni1 P1 O1 C1 14.74(16)
Ni1 P1 C7 C8 40.31(18)
Ni1 P1 C7 C9 164.70(14)
Ni1 P1 C10 C11 -44.9(2)
Ni1 P1 C10 C12 81.1(2)
Ni1 C2 C3 C4 -177.9(2)
P1 O1 C1 C2 -7.1(2)
P1 O1 C1 C6 171.81(17)
O1 P1 C7 C8 -77.29(16)
O1 P1 C7 C9 47.10(19)
O1 P1 C10 C11 71.6(2)
O1 P1 C10 C12 -162.38(19)
O1 C1 C2 Ni1 -5.6(3)
O1 C1 C2 C3 174.5(2)
O1 C1 C6 C5 -175.5(2)
C1 C2 C3 C4 2.1(3)
C2 C1 C6 C5 3.3(4)
C2 C3 C4 C5 1.0(4)
C3 C4 C5 C6 -2.2(4)
C4 C5 C6 C1 0.1(4)
C6 C1 C2 Ni1 175.62(18)
C6 C1 C2 C3 -4.3(3)
C7 P1 O1 C1 142.14(15)
C7 P1 C10 C11 177.3(2)
C7 P1 C10 C12 -56.7(2)
C10 P1 O1 C1 -108.01(16)
C10 P1 C7 C8 175.56(16)
C10 P1 C7 C9 -60.04(19)
