#------------------------------------------------------------------------------
#$Date: 2019-11-17 10:36:16 +0200 (Sun, 17 Nov 2019) $
#$Revision: 229377 $
#$URL: file:///home/coder/svn-repositories/cod/cif/7/04/47/7044773.cif $
#------------------------------------------------------------------------------
#
# This file is available in the Crystallography Open Database (COD),
# http://www.crystallography.net/
#
# All data on this site have been placed in the public domain by the
# contributors.
#
data_7044773
loop_
_publ_author_name
'Liu, Yu-Ling'
'Zhang, Wen'
_publ_section_title
;
 Dielectric transitions and relaxations in Ca(ii)Co(iii)-based
 cyanometallate frameworks with a rare (6,6)-connected nia topology.
;
_journal_issue                   1
_journal_name_full
'Dalton transactions (Cambridge, England : 2003)'
_journal_page_first              45
_journal_page_last               48
_journal_paper_doi               10.1039/c7dt03855k
_journal_volume                  47
_journal_year                    2017
_chemical_formula_moiety         'C6 Ca Co N6, H2 N2, 2(C0.50 O0.50), 3(H)'
_chemical_formula_sum            'C7 H5 Ca Co N8 O'
_chemical_formula_weight         316.21
_space_group_crystal_system      hexagonal
_space_group_IT_number           194
_space_group_name_Hall           '-P 6c 2c'
_space_group_name_H-M_alt        'P 63/m m c'
_symmetry_space_group_name_Hall  '-P 6c 2c'
_symmetry_space_group_name_H-M   'P 63/m m c'
_audit_creation_method           SHELXL-2014/7
_audit_update_record
;
2017-04-24 deposited with the CCDC.
2017-11-14 downloaded from the CCDC.
;
_cell_angle_alpha                90
_cell_angle_beta                 90
_cell_angle_gamma                120
_cell_formula_units_Z            2
_cell_length_a                   7.5487(11)
_cell_length_b                   7.5487(11)
_cell_length_c                   13.313(3)
_cell_measurement_reflns_used    450
_cell_measurement_temperature    298(2)
_cell_measurement_theta_max      27.4754
_cell_measurement_theta_min      1.8945
_cell_volume                     657.0(2)
_computing_structure_refinement  'SHELXL-2014/7 (Sheldrick, 2014)'
_diffrn_ambient_temperature      298(2)
_diffrn_measured_fraction_theta_full 1.000
_diffrn_measured_fraction_theta_max 1.000
_diffrn_measurement_device_type  'Saturn724+ (4x4 bin mode)'
_diffrn_measurement_method       CCD_Profile_fitting
_diffrn_radiation_type           MoK\a
_diffrn_radiation_wavelength     0.71073
_diffrn_reflns_av_R_equivalents  0.0419
_diffrn_reflns_av_unetI/netI     0.0189
_diffrn_reflns_Laue_measured_fraction_full 1.000
_diffrn_reflns_Laue_measured_fraction_max 1.000
_diffrn_reflns_limit_h_max       9
_diffrn_reflns_limit_h_min       -9
_diffrn_reflns_limit_k_max       9
_diffrn_reflns_limit_k_min       -9
_diffrn_reflns_limit_l_max       16
_diffrn_reflns_limit_l_min       -17
_diffrn_reflns_number            4303
_diffrn_reflns_point_group_measured_fraction_full 1.000
_diffrn_reflns_point_group_measured_fraction_max 1.000
_diffrn_reflns_theta_full        25.242
_diffrn_reflns_theta_max         27.416
_diffrn_reflns_theta_min         3.060
_exptl_absorpt_coefficient_mu    1.696
_exptl_crystal_colour            pale-yellow
_exptl_crystal_density_diffrn    1.598
_exptl_crystal_description       block
_exptl_crystal_F_000             430
_refine_diff_density_max         1.778
_refine_diff_density_min         -2.700
_refine_diff_density_rms         0.284
_refine_ls_extinction_method     none
_refine_ls_goodness_of_fit_ref   1.244
_refine_ls_hydrogen_treatment    undef
_refine_ls_matrix_type           full
_refine_ls_number_parameters     27
_refine_ls_number_reflns         322
_refine_ls_number_restraints     26
_refine_ls_restrained_S_all      1.213
_refine_ls_R_factor_all          0.0831
_refine_ls_R_factor_gt           0.0828
_refine_ls_shift/su_max          0.000
_refine_ls_shift/su_mean         0.000
_refine_ls_structure_factor_coef Fsqd
_refine_ls_weighting_details
'w=1/[\s^2^(Fo^2^)+(0.1287P)^2^+7.8612P] where P=(Fo^2^+2Fc^2^)/3'
_refine_ls_weighting_scheme      calc
_refine_ls_wR_factor_gt          0.2428
_refine_ls_wR_factor_ref         0.2429
_reflns_Friedel_coverage         0.000
_reflns_number_gt                319
_reflns_number_total             322
_reflns_threshold_expression     'I > 2\s(I)'
_cod_data_source_file            c7dt03855k2.cif
_cod_data_source_block           2-298K
_cod_depositor_comments
'Adding full bibliography for 7044772--7044777.cif.'
_cod_database_code               7044773
_shelx_shelxl_version_number     2014/7
_shelx_space_group_comment
;
The symmetry employed for this shelxl refinement is uniquely defined
by the following loop, which should always be used as a source of
symmetry information in preference to the above space-group names.
They are only intended as comments.
;
_shelx_res_file
;

    1.res created by SHELXL-2014/7

TITL 1 in P6(3)/mmc
CELL 0.71073   7.5487   7.5487  13.3131  90.000  90.000 120.000
ZERR    5.00   0.0011   0.0011   0.0027   0.000   0.000   0.000
LATT 1
SYMM -Y, X-Y, Z
SYMM -X+Y, -X, Z
SYMM -X, -Y, 0.5+Z
SYMM Y, -X+Y, 0.5+Z
SYMM X-Y, X, 0.5+Z
SYMM Y, X, -Z
SYMM X-Y, -Y, -Z
SYMM -X, -X+Y, -Z
SYMM -Y, -X, 0.5-Z
SYMM -X+Y, Y, 0.5-Z
SYMM X, X-Y, 0.5-Z
SFAC C  H  N  O  Cl Ca Co
UNIT 5 5 5 5 5 5 5
L.S. 200
ACTA
BOND
FMAP 2
PLAN 10
isor 0.01 c2 n2
simu 0.01 o1 n2 c2
dfix 0.9 0.01 n2 h1
dfix 1.26 0.005 c2 o1
dfix 1.33 0.01 c2 n2
conf
FREE Ca1  N2
WGHT    0.128700    7.861200
FVAR       0.66901
C1    1    0.118531    0.881469    0.081133    10.50000    0.01978    0.01978 =
         0.01321    0.00076   -0.00076    0.01169
C2    1    0.666667    0.333333    0.182338    10.08333    0.08554    0.08554 =
         0.07763    0.00000    0.00000    0.04277
CA1   6    0.333333    0.666667    0.250000    10.08333    0.01013    0.01013 =
         0.00586    0.00000    0.00000    0.00506
CO1   7    0.000000    1.000000    0.000000    10.08333    0.00713    0.00713 =
         0.00517    0.00000    0.00000    0.00356
N1    3    0.190604    0.809396    0.129828    10.50000    0.03994    0.03994 =
         0.03229    0.00610   -0.00610    0.03195
N2    3    0.589893    0.410107    0.250000    10.16670    0.09199    0.09199 =
         0.08516    0.00000    0.00000    0.04856
O1    4    0.666667    0.333333    0.087448    10.08333    0.06901    0.06901 =
         0.04273    0.00000    0.00000    0.03451
HKLF 4

REM  1 in P6(3)/mmc
REM R1 =  0.0828 for     319 Fo > 4sig(Fo)  and  0.0831 for all     322 data
REM     27 parameters refined using     26 restraints

END

WGHT      0.1287      7.8728

REM Highest difference peak  1.861,  deepest hole -3.448,  1-sigma level  0.284
Q1    1   0.7586  0.5172  0.2500  10.25000  0.05    1.30
Q2    1   0.0234  0.7708  0.2500  10.50000  0.05    0.66
Q3    1   0.1758  0.6340  0.0559  11.00000  0.05    0.54
Q4    1   0.1833  0.8167  0.2244  10.50000  0.05    0.53
Q5    1   0.4818  0.3977  0.2500  10.50000  0.05    0.49
Q6    1   0.1210  0.8790  0.2500  10.25000  0.05    0.42
Q7    1  -0.0756  0.6393  0.0653  11.00000  0.05    0.41
Q8    1   0.0347  0.6411  0.0873  11.00000  0.05    0.33
Q9    1   0.7150  0.5591  0.0750  11.00000  0.05    0.29
Q10   1   0.3857  0.3465  0.1987  11.00000  0.05    0.23
;
_shelx_res_checksum              26589
loop_
_space_group_symop_operation_xyz
'x, y, z'
'-y, x-y, z'
'-x+y, -x, z'
'-x, -y, z+1/2'
'y, -x+y, z+1/2'
'x-y, x, z+1/2'
'y, x, -z'
'x-y, -y, -z'
'-x, -x+y, -z'
'-y, -x, -z+1/2'
'-x+y, y, -z+1/2'
'x, x-y, -z+1/2'
'-x, -y, -z'
'y, -x+y, -z'
'x-y, x, -z'
'x, y, -z-1/2'
'-y, x-y, -z-1/2'
'-x+y, -x, -z-1/2'
'-y, -x, z'
'-x+y, y, z'
'x, x-y, z'
'y, x, z-1/2'
'x-y, -y, z-1/2'
'-x, -x+y, z-1/2'
loop_
_atom_site_label
_atom_site_type_symbol
_atom_site_fract_x
_atom_site_fract_y
_atom_site_fract_z
_atom_site_U_iso_or_equiv
_atom_site_adp_type
_atom_site_occupancy
_atom_site_site_symmetry_order
_atom_site_calc_flag
_atom_site_refinement_flags_posn
_atom_site_refinement_flags_adp
_atom_site_refinement_flags_occupancy
C1 C 0.1185(6) 0.8815(6) 0.0811(5) 0.0168(16) Uani 1 2 d S T P
C2 C 0.6667 0.3333 0.182(2) 0.083(7) Uani 0.5 6 d DS TU P
Ca1 Ca 0.3333 0.6667 0.2500 0.0087(9) Uani 1 12 d S T P
Co1 Co 0.0000 1.0000 0.0000 0.0065(8) Uani 1 12 d S T P
N1 N 0.1906(6) 0.8094(6) 0.1298(6) 0.032(2) Uani 1 2 d S T P
N2 N 0.5899(19) 0.4101(19) 0.2500 0.089(7) Uani 0.6668 4 d DS TU P
O1 O 0.6667 0.3333 0.087(2) 0.060(8) Uani 0.5 6 d DS TU P
loop_
_atom_site_aniso_label
_atom_site_aniso_U_11
_atom_site_aniso_U_22
_atom_site_aniso_U_33
_atom_site_aniso_U_23
_atom_site_aniso_U_13
_atom_site_aniso_U_12
C1 0.020(3) 0.020(3) 0.013(3) 0.0008(15) -0.0008(15) 0.012(3)
C2 0.086(7) 0.086(7) 0.078(10) 0.000 0.000 0.043(4)
Ca1 0.0101(12) 0.0101(12) 0.0059(15) 0.000 0.000 0.0051(6)
Co1 0.0071(10) 0.0071(10) 0.0052(12) 0.000 0.000 0.0036(5)
N1 0.040(4) 0.040(4) 0.032(4) 0.0061(16) -0.0061(16) 0.032(4)
N2 0.092(7) 0.092(7) 0.085(10) 0.000 0.000 0.049(7)
O1 0.069(11) 0.069(11) 0.043(13) 0.000 0.000 0.035(5)
loop_
_atom_type_symbol
_atom_type_description
_atom_type_scat_dispersion_real
_atom_type_scat_dispersion_imag
_atom_type_scat_source
C C 0.0033 0.0016 'International Tables Vol C Tables 4.2.6.8 and 6.1.1.4'
H H 0.0000 0.0000 'International Tables Vol C Tables 4.2.6.8 and 6.1.1.4'
N N 0.0061 0.0033 'International Tables Vol C Tables 4.2.6.8 and 6.1.1.4'
O O 0.0106 0.0060 'International Tables Vol C Tables 4.2.6.8 and 6.1.1.4'
Cl Cl 0.1484 0.1585 'International Tables Vol C Tables 4.2.6.8 and 6.1.1.4'
Ca Ca 0.2262 0.3064 'International Tables Vol C Tables 4.2.6.8 and 6.1.1.4'
Co Co 0.3494 0.9721 'International Tables Vol C Tables 4.2.6.8 and 6.1.1.4'
loop_
_geom_angle_atom_site_label_1
_geom_angle_atom_site_label_2
_geom_angle_atom_site_label_3
_geom_angle
_geom_angle_site_symmetry_1
_geom_angle_site_symmetry_3
N1 C1 Co1 179.7(7) . .
O1 C2 N2 131.9(15) . 3_665
O1 C2 N2 131.9(15) . 2_655
N2 C2 N2 80(2) 3_665 2_655
O1 C2 N2 131.9(15) . .
N2 C2 N2 80(2) 3_665 .
N2 C2 N2 80(2) 2_655 .
O1 C2 C2 180.0 . 16_556
N2 C2 C2 48.1(15) 3_665 16_556
N2 C2 C2 48.1(15) 2_655 16_556
N2 C2 C2 48.1(15) . 16_556
N1 Ca1 N1 81.2(4) 16_556 .
N1 Ca1 N1 135.38(13) 16_556 2_665
N1 Ca1 N1 82.2(3) . 2_665
N1 Ca1 N1 82.2(3) 16_556 18_566
N1 Ca1 N1 135.38(13) . 18_566
N1 Ca1 N1 135.38(13) 2_665 18_566
N1 Ca1 N1 82.2(3) 16_556 17_666
N1 Ca1 N1 135.38(13) . 17_666
N1 Ca1 N1 81.2(4) 2_665 17_666
N1 Ca1 N1 82.2(3) 18_566 17_666
N1 Ca1 N1 135.38(13) 16_556 3_565
N1 Ca1 N1 82.2(3) . 3_565
N1 Ca1 N1 82.2(3) 2_665 3_565
N1 Ca1 N1 81.2(4) 18_566 3_565
N1 Ca1 N1 135.38(13) 17_666 3_565
C1 Co1 C1 180.0(3) 14_455 2_675
C1 Co1 C1 90.6(3) 14_455 13_575
C1 Co1 C1 89.4(3) 2_675 13_575
C1 Co1 C1 90.6(3) 14_455 15_665
C1 Co1 C1 89.4(3) 2_675 15_665
C1 Co1 C1 90.6(3) 13_575 15_665
C1 Co1 C1 89.4(3) 14_455 3_465
C1 Co1 C1 90.6(3) 2_675 3_465
C1 Co1 C1 89.4(3) 13_575 3_465
C1 Co1 C1 180.0(3) 15_665 3_465
C1 Co1 C1 89.5(3) 14_455 .
C1 Co1 C1 90.5(3) 2_675 .
C1 Co1 C1 180.0 13_575 .
C1 Co1 C1 89.4(3) 15_665 .
C1 Co1 C1 90.6(3) 3_465 .
C1 N1 Ca1 173.9(7) . .
C2 N2 C2 84(3) 16_556 .
C2 N2 N2 49.9(11) 16_556 3_665
C2 N2 N2 49.9(11) . 3_665
C2 N2 N2 49.9(11) 16_556 2_655
C2 N2 N2 49.9(11) . 2_655
N2 N2 N2 59.999(4) 3_665 2_655
loop_
_geom_bond_atom_site_label_1
_geom_bond_atom_site_label_2
_geom_bond_distance
_geom_bond_site_symmetry_2
C1 N1 1.144(11) .
C1 Co1 1.889(8) .
C2 O1 1.263(5) .
C2 N2 1.349(10) 3_665
C2 N2 1.349(10) 2_655
C2 N2 1.349(10) .
C2 C2 1.80(5) 16_556
Ca1 N1 2.458(7) 16_556
Ca1 N1 2.458(7) .
Ca1 N1 2.458(7) 2_665
Ca1 N1 2.458(7) 18_566
Ca1 N1 2.458(7) 17_666
Ca1 N1 2.458(7) 3_565
Co1 C1 1.889(8) 14_455
Co1 C1 1.889(8) 2_675
Co1 C1 1.889(8) 13_575
Co1 C1 1.889(8) 15_665
Co1 C1 1.889(8) 3_465
N2 C2 1.349(10) 16_556
N2 N2 1.74(4) 3_665
N2 N2 1.74(4) 2_655
loop_
_geom_torsion_atom_site_label_1
_geom_torsion_atom_site_label_2
_geom_torsion_atom_site_label_3
_geom_torsion_atom_site_label_4
_geom_torsion
_geom_torsion_site_symmetry_1
_geom_torsion_site_symmetry_4
O1 C2 N2 C2 180.000(5) . 16_556
N2 C2 N2 C2 -40.8(8) 3_665 16_556
N2 C2 N2 C2 40.8(8) 2_655 16_556
O1 C2 N2 N2 -139.2(8) . 3_665
N2 C2 N2 N2 81.7(16) 2_655 3_665
C2 C2 N2 N2 40.8(8) 16_556 3_665
O1 C2 N2 N2 139.2(8) . 2_655
N2 C2 N2 N2 -81.7(16) 3_665 2_655
C2 C2 N2 N2 -40.8(8) 16_556 2_655
