#------------------------------------------------------------------------------
#$Date: 2019-11-17 10:55:37 +0200 (Sun, 17 Nov 2019) $
#$Revision: 229453 $
#$URL: file:///home/coder/svn-repositories/cod/cif/7/04/51/7045165.cif $
#------------------------------------------------------------------------------
#
# This file is available in the Crystallography Open Database (COD),
# http://www.crystallography.net/
#
# All data on this site have been placed in the public domain by the
# contributors.
#
data_7045165
loop_
_publ_author_name
'Kobayashi, Atsushi'
'Yamamoto, Naotaka'
'Shigeta, Yasuhiro'
'Yoshida, Masaki'
'Kato, Masako'
_publ_section_title
;
 Two-way vapochromism of a luminescent platinum(ii) complex with
 phosphonic-acid-functionalized bipyridine ligand.
;
_journal_issue                   5
_journal_name_full
'Dalton transactions (Cambridge, England : 2003)'
_journal_page_first              1548
_journal_page_last               1556
_journal_paper_doi               10.1039/c7dt04324d
_journal_volume                  47
_journal_year                    2018
_chemical_formula_moiety         'C12 H20 N4 O11 P2 Pt'
_chemical_formula_sum            'C12 H20 N4 O11 P2 Pt'
_chemical_formula_weight         653.35
_space_group_crystal_system      triclinic
_space_group_IT_number           2
_space_group_name_Hall           '-P 1'
_space_group_name_H-M_alt        'P -1'
_symmetry_space_group_name_Hall  '-P 1'
_symmetry_space_group_name_H-M   'P -1'
_atom_sites_solution_hydrogens   geom
_atom_sites_solution_primary     direct
_atom_sites_solution_secondary   difmap
_audit_update_record
;
2017-12-20 deposited with the CCDC.
2017-12-27 downloaded from the CCDC.
;
_cell_angle_alpha                76.903(11)
_cell_angle_beta                 81.117(14)
_cell_angle_gamma                78.114(12)
_cell_formula_units_Z            2
_cell_length_a                   6.7177(17)
_cell_length_b                   11.773(3)
_cell_length_c                   13.485(4)
_cell_measurement_reflns_used    1558
_cell_measurement_temperature    200
_cell_measurement_theta_max      27.71
_cell_measurement_theta_min      3.02
_cell_volume                     1010.0(5)
_computing_cell_refinement       CrystalClear
_computing_data_collection       'CrystalClear (Rigaku/MSC Inc., 2005)'
_computing_data_reduction        CrystalClear
_computing_molecular_graphics    'CrystalStructure 4.2'
_computing_publication_material  'CrystalStructure 4.2 (Rigaku, 2017)'
_computing_structure_refinement  'SHELXL Version 2014/3 (Sheldrick, 2008)'
_computing_structure_solution    'SIR2014 (Burla, et al., 2014)'
_diffrn_ambient_temperature      200
_diffrn_detector_area_resol_mean 7.314
_diffrn_measured_fraction_theta_full 0.996
_diffrn_measured_fraction_theta_max 0.993
_diffrn_measurement_device_type  'Rigaku Mercury70'
_diffrn_measurement_method       \w
_diffrn_radiation_type           synchrotron
_diffrn_radiation_wavelength     0.68890
_diffrn_reflns_av_R_equivalents  0.0466
_diffrn_reflns_Laue_measured_fraction_full 0.996
_diffrn_reflns_Laue_measured_fraction_max 0.993
_diffrn_reflns_limit_h_max       9
_diffrn_reflns_limit_h_min       -9
_diffrn_reflns_limit_k_max       15
_diffrn_reflns_limit_k_min       -15
_diffrn_reflns_limit_l_max       18
_diffrn_reflns_limit_l_min       -18
_diffrn_reflns_number            15735
_diffrn_reflns_point_group_measured_fraction_full 0.996
_diffrn_reflns_point_group_measured_fraction_max 0.993
_diffrn_reflns_theta_full        24.415
_diffrn_reflns_theta_max         27.721
_diffrn_reflns_theta_min         1.513
_diffrn_standards_number         0
_exptl_absorpt_coefficient_mu    0.000
_exptl_absorpt_correction_T_max  1.000
_exptl_absorpt_correction_T_min  0.326
_exptl_absorpt_correction_type   multi-scan
_exptl_absorpt_process_details   'REQAB (Rigaku, 1998)'
_exptl_crystal_colour            orange
_exptl_crystal_density_diffrn    2.148
_exptl_crystal_density_method    'not measured'
_exptl_crystal_description       platelet
_exptl_crystal_F_000             632.00
_exptl_crystal_preparation       Luminescent
_exptl_crystal_recrystallization_method
'Re-crystallisation from solvent: H2O and acetone'
_exptl_crystal_size_max          0.150
_exptl_crystal_size_mid          0.050
_exptl_crystal_size_min          0.030
_refine_diff_density_max         2.22
_refine_diff_density_min         -3.67
_refine_ls_extinction_method     none
_refine_ls_goodness_of_fit_ref   1.209
_refine_ls_hydrogen_treatment    constr
_refine_ls_number_parameters     275
_refine_ls_number_reflns         5160
_refine_ls_number_restraints     0
_refine_ls_R_factor_all          0.0367
_refine_ls_R_factor_gt           0.0326
_refine_ls_shift/su_max          0.001
_refine_ls_structure_factor_coef Fsqd
_refine_ls_weighting_details
'w = 1/[\s^2^(Fo^2^)+(0.0705P)^2^] where P=(Fo^2^+2Fc^2^)/3'
_refine_ls_weighting_scheme      calc
_refine_ls_wR_factor_gt          0.0920
_refine_ls_wR_factor_ref         0.1087
_reflns_Friedel_coverage         0.000
_reflns_number_gt                4920
_reflns_number_total             5160
_reflns_threshold_expression     F^2^>2.0\s(F^2^)
_cod_data_source_file            c7dt04324d2.cif
_cod_data_source_block           1P5H2O-200K
_cod_depositor_comments
'Adding full bibliography for 7045164--7045166.cif.'
_cod_database_code               7045165
_shelxl_version_number           2014-3
_shelx_res_file
;
TITL Pt(CN)2(4,4'-dpabpy)-200K
CELL  0.68890 6.71770 11.77320 13.48460 76.90300 81.11720 78.11410
ZERR  2 0.00170 0.00300 0.00390 0.01140 0.01400 0.01200
LATT 1
SFAC C H N O P PT
UNIT 24 40 8 22 4 2
L.S. 15
FMAP 2
PLAN 25
WPDB -2
HTAB
BOND $H
CONF
LIST 4
TEMP -72.8
ACTA
SIZE 0.150 0.050 0.030
WGHT    0.070500
FVAR       0.64934
PT1   6    0.246732    0.999572    1.011956    11.00000    0.02177    0.02114 =
         0.01831   -0.00653   -0.00121   -0.00437
P1    5    0.393342    1.217482    0.513686    11.00000    0.05676    0.03280 =
         0.01942   -0.00090   -0.00028   -0.01290
P2    5    0.414802    0.548465    0.770946    11.00000    0.04331    0.01711 =
         0.02732   -0.00748   -0.00141   -0.00601
O1    4    0.435990    1.343826    0.500261    11.00000    0.10186    0.03096 =
         0.03802   -0.00843    0.01720   -0.02233
AFIX 147
H1A   2    0.443618    1.357714    0.557845    11.00000   -1.20000
AFIX   0
O2    4    0.581914    1.133923    0.473300    11.00000    0.06016    0.04255 =
         0.02862   -0.01026    0.00469   -0.01059
AFIX 147
H2A   2    0.688562    1.148549    0.489375    11.00000   -1.20000
AFIX   0
O3    4    0.213328    1.211477    0.463977    11.00000    0.06379    0.09148 =
         0.03295   -0.00103   -0.01650   -0.01669
O4    4    0.284052    0.459275    0.837884    11.00000    0.05877    0.01656 =
         0.03835   -0.00652    0.00426   -0.01143
AFIX 147
H4A   2    0.160780    0.492490    0.843997    11.00000   -1.20000
AFIX   0
O5    4    0.339037    0.597294    0.666747    11.00000    0.06898    0.03361 =
         0.02880   -0.00572   -0.00615   -0.01769
AFIX 147
H5    2    0.437888    0.613400    0.622959    11.00000   -1.20000
AFIX   0
O6    4    0.637493    0.494076    0.767857    11.00000    0.04353    0.04188 =
         0.06065   -0.02786    0.00145   -0.00089
O7    4   -0.090449    0.536833    0.874036    11.00000    0.04729    0.03893 =
         0.05766   -0.01769   -0.00260   -0.01254
O8    4    0.065361    0.591501    0.554018    11.00000    0.09606    0.10674 =
         0.07866   -0.00926   -0.03315   -0.00232
O9    4    0.820482    1.367970    0.634200    11.00000    0.15678    0.07855 =
         0.06037   -0.00953    0.00386    0.00569
O10   4   -0.105008    1.102122    0.559041    11.00000    0.07042    0.13299 =
         0.05753   -0.03031   -0.00378   -0.02309
O11   4    0.092209    1.110366    0.340133    11.00000    0.24769    0.26301 =
         0.55200    0.01370   -0.14074   -0.07948
N1    3    0.284659    1.079920    0.859641    11.00000    0.02417    0.01877 =
         0.01820   -0.00508    0.00010   -0.00598
N2    3    0.168554    1.231869    1.095240    11.00000    0.04094    0.04085 =
         0.04089   -0.02354   -0.00264   -0.00396
N3    3    0.302895    0.853536    0.945970    11.00000    0.02459    0.01860 =
         0.01788   -0.00405   -0.00168   -0.00404
N4    3    0.190847    0.857205    1.233983    11.00000    0.04549    0.07047 =
         0.02828    0.00531   -0.00305   -0.01605
C1    1    0.272030    1.196235    0.823050    11.00000    0.03645    0.01766 =
         0.02447   -0.00711   -0.00310   -0.00603
AFIX  43
H1    2    0.242527    1.248612    0.869716    11.00000   -1.20000
AFIX   0
C2    1    0.300637    1.242324    0.719437    11.00000    0.04603    0.01784 =
         0.02378   -0.00127   -0.00401   -0.01081
AFIX  43
H2    2    0.288241    1.325499    0.695180    11.00000   -1.20000
AFIX   0
C3    1    0.347890    1.165952    0.650531    11.00000    0.03679    0.02052 =
         0.01841   -0.00167   -0.00125   -0.01050
C4    1    0.359112    1.045006    0.689079    11.00000    0.04091    0.01951 =
         0.01689   -0.00493   -0.00148   -0.00856
AFIX  43
H4    2    0.389123    0.991003    0.643815    11.00000   -1.20000
AFIX   0
C5    1    0.326401    1.004084    0.793359    11.00000    0.02622    0.01604 =
         0.01930   -0.00419   -0.00028   -0.00652
C6    1    0.196288    1.145378    1.065474    11.00000    0.02618    0.02951 =
         0.02315   -0.01118   -0.00121   -0.00691
C7    1    0.333915    0.877178    0.841546    11.00000    0.02317    0.01883 =
         0.01772   -0.00413    0.00157   -0.00499
C8    1    0.367767    0.788262    0.786308    11.00000    0.03257    0.02214 =
         0.01930   -0.00699    0.00008   -0.00599
AFIX  43
H8    2    0.388478    0.806673    0.713562    11.00000   -1.20000
AFIX   0
C9    1    0.371335    0.670250    0.838604    11.00000    0.03453    0.01511 =
         0.02424   -0.00642   -0.00190   -0.00607
C10   1    0.341257    0.648288    0.945387    11.00000    0.03669    0.01799 =
         0.02850   -0.00314   -0.00013   -0.00522
AFIX  43
H10   2    0.342193    0.569457    0.982826    11.00000   -1.20000
AFIX   0
C11   1    0.310060    0.740409    0.997239    11.00000    0.03268    0.02149 =
         0.01915   -0.00293   -0.00005   -0.00534
AFIX  43
H11   2    0.293430    0.723771    1.070037    11.00000   -1.20000
AFIX   0
C12   1    0.212487    0.911707    1.154137    11.00000    0.02860    0.03419 =
         0.02074   -0.00477    0.00012   -0.00863
HKLF 4

REM  Pt(CN)2(4,4'-dpabpy)-200K
REM R1 =  0.0326 for    4920 Fo > 4sig(Fo)  and  0.0367 for all    5160 data
REM    275 parameters refined using      0 restraints

END

WGHT      0.0705      0.0000

REM Instructions for potential hydrogen bonds
EQIV $1 x+1, y, z
HTAB O2 O10_$1
HTAB O4 O7
EQIV $2 -x+1, -y+2, -z+1
HTAB O5 O1_$2
EQIV $3 x, y+1, z
HTAB C1 O4_$3
HTAB C4 O2_$2
HTAB C8 O2_$2
EQIV $4 -x, -y+1, -z+2
HTAB C10 O7_$4

REM Highest difference peak  2.217,  deepest hole -3.672,  1-sigma level  0.474
Q1    1  -0.0811  0.5449  0.7631  11.00000  0.05    1.22
Q2    1  -0.0988  0.5483  0.7926  11.00000  0.05    1.19
Q3    1   0.6732  0.5150  0.7576  11.00000  0.05    1.06
Q4    1  -0.2150  0.5229  0.8242  11.00000  0.05    1.00
Q5    1   0.3803  0.6170  0.8114  11.00000  0.05    0.96
Q6    1  -0.2281  0.4934  0.8547  11.00000  0.05    0.96
Q7    1  -0.1266  1.2162  0.5450  11.00000  0.05    0.93
Q8    1   0.2706  1.2582  0.5204  11.00000  0.05    0.92
Q9    1   0.1438  0.5005  0.7803  11.00000  0.05    0.87
Q10   1  -0.1193  0.6217  0.8695  11.00000  0.05    0.85
Q11   1   0.5244  0.4257  0.7820  11.00000  0.05    0.85
Q12   1  -0.0748  0.5081  0.5983  11.00000  0.05    0.85
Q13   1   0.8137  0.4984  0.7219  11.00000  0.05    0.85
Q14   1   0.7657  1.4152  0.6964  11.00000  0.05    0.84
Q15   1   0.9103  1.4499  0.6251  11.00000  0.05    0.82
Q16   1   0.8022  0.4424  0.8213  11.00000  0.05    0.82
Q17   1   0.2693  0.4964  0.8943  11.00000  0.05    0.77
Q18   1   0.5940  0.6021  0.7440  11.00000  0.05    0.75
Q19   1  -0.0714  0.3779  0.8222  11.00000  0.05    0.75
Q20   1   0.2371  0.5205  0.7842  11.00000  0.05    0.75
Q21   1  -0.0770  1.0624  0.4994  11.00000  0.05    0.74
Q22   1   0.3451  1.1320  0.6612  11.00000  0.05    0.72
Q23   1   0.3156  1.2266  0.7661  11.00000  0.05    0.71
Q24   1   0.0549  0.4880  0.8461  11.00000  0.05    0.71
Q25   1   0.8238  1.2872  0.6766  11.00000  0.05    0.70
;
_shelx_res_checksum              77143
loop_
_space_group_symop_id
_space_group_symop_operation_xyz
1 +X,+Y,+Z
2 -X,-Y,-Z
loop_
_atom_site_label
_atom_site_type_symbol
_atom_site_fract_x
_atom_site_fract_y
_atom_site_fract_z
_atom_site_U_iso_or_equiv
_atom_site_adp_type
_atom_site_occupancy
_atom_site_site_symmetry_order
_atom_site_calc_flag
_atom_site_refinement_flags_posn
_atom_site_refinement_flags_adp
Pt1 Pt 0.24673(2) 0.99957(2) 1.01196(2) 0.02002(8) Uani 1 1 d . .
P1 P 0.3933(3) 1.21748(13) 0.51369(11) 0.0367(3) Uani 1 1 d . .
P2 P 0.4148(2) 0.54847(11) 0.77095(11) 0.0289(3) Uani 1 1 d . .
O1 O 0.4360(11) 1.3438(4) 0.5003(4) 0.0579(15) Uani 1 1 d . .
H1A H 0.4436 1.3577 0.5578 0.069 Uiso 1 1 calc R U
O2 O 0.5819(8) 1.1339(4) 0.4733(4) 0.0441(10) Uani 1 1 d . .
H2A H 0.6886 1.1485 0.4894 0.053 Uiso 1 1 calc R U
O3 O 0.2133(9) 1.2115(6) 0.4640(4) 0.0630(15) Uani 1 1 d . .
O4 O 0.2841(7) 0.4593(3) 0.8379(4) 0.0381(10) Uani 1 1 d . .
H4A H 0.1608 0.4925 0.8440 0.046 Uiso 1 1 calc R U
O5 O 0.3390(8) 0.5973(4) 0.6667(4) 0.0426(10) Uani 1 1 d . .
H5 H 0.4379 0.6134 0.6230 0.051 Uiso 1 1 calc R U
O6 O 0.6375(7) 0.4941(4) 0.7679(5) 0.0476(12) Uani 1 1 d . .
O7 O -0.0904(7) 0.5368(4) 0.8740(4) 0.0463(11) Uani 1 1 d . .
O8 O 0.0654(13) 0.5915(7) 0.5540(7) 0.095(2) Uani 1 1 d . .
O9 O 0.8205(14) 1.3680(6) 0.6342(7) 0.105(3) Uani 1 1 d . .
O10 O -0.1050(10) 1.1021(7) 0.5590(6) 0.085(2) Uani 1 1 d . .
O11 O 0.092(3) 1.1104(19) 0.340(2) 0.354(16) Uani 1 1 d . .
N1 N 0.2847(7) 1.0799(4) 0.8596(3) 0.0201(8) Uani 1 1 d . .
N2 N 0.1686(8) 1.2319(4) 1.0952(4) 0.0391(11) Uani 1 1 d . .
N3 N 0.3029(7) 0.8535(4) 0.9460(3) 0.0203(8) Uani 1 1 d . .
N4 N 0.1908(9) 0.8572(6) 1.2340(5) 0.0498(14) Uani 1 1 d . .
C1 C 0.2720(8) 1.1962(4) 0.8231(4) 0.0256(10) Uani 1 1 d . .
H1 H 0.2425 1.2486 0.8697 0.031 Uiso 1 1 calc R U
C2 C 0.3006(9) 1.2423(4) 0.7194(4) 0.0289(10) Uani 1 1 d . .
H2 H 0.2882 1.3255 0.6952 0.035 Uiso 1 1 calc R U
C3 C 0.3479(8) 1.1660(4) 0.6505(4) 0.0250(9) Uani 1 1 d . .
C4 C 0.3591(8) 1.0450(4) 0.6891(4) 0.0253(9) Uani 1 1 d . .
H4 H 0.3891 0.9910 0.6438 0.030 Uiso 1 1 calc R U
C5 C 0.3264(7) 1.0041(4) 0.7934(4) 0.0203(8) Uani 1 1 d . .
C6 C 0.1963(9) 1.1454(5) 1.0655(4) 0.0252(10) Uani 1 1 d . .
C7 C 0.3339(7) 0.8772(4) 0.8415(4) 0.0201(8) Uani 1 1 d . .
C8 C 0.3678(8) 0.7883(4) 0.7863(4) 0.0244(9) Uani 1 1 d . .
H8 H 0.3885 0.8067 0.7136 0.029 Uiso 1 1 calc R U
C9 C 0.3713(8) 0.6702(4) 0.8386(4) 0.0241(9) Uani 1 1 d . .
C10 C 0.3413(8) 0.6483(4) 0.9454(4) 0.0283(10) Uani 1 1 d . .
H10 H 0.3422 0.5695 0.9828 0.034 Uiso 1 1 calc R U
C11 C 0.3101(8) 0.7404(4) 0.9972(4) 0.0249(9) Uani 1 1 d . .
H11 H 0.2934 0.7238 1.0700 0.030 Uiso 1 1 calc R U
C12 C 0.2125(9) 0.9117(5) 1.1541(4) 0.0278(11) Uani 1 1 d . .
loop_
_atom_site_aniso_label
_atom_site_aniso_U_11
_atom_site_aniso_U_22
_atom_site_aniso_U_33
_atom_site_aniso_U_23
_atom_site_aniso_U_13
_atom_site_aniso_U_12
Pt1 0.02177(12) 0.02114(12) 0.01831(12) -0.00653(7) -0.00121(7) -0.00437(8)
P1 0.0568(9) 0.0328(7) 0.0194(6) -0.0009(5) -0.0003(6) -0.0129(6)
P2 0.0433(8) 0.0171(5) 0.0273(7) -0.0075(5) -0.0014(6) -0.0060(5)
O1 0.102(4) 0.031(2) 0.038(3) -0.008(2) 0.017(3) -0.022(2)
O2 0.060(3) 0.043(2) 0.029(2) -0.0103(19) 0.005(2) -0.011(2)
O3 0.064(3) 0.091(4) 0.033(3) -0.001(3) -0.016(2) -0.017(3)
O4 0.059(3) 0.0166(15) 0.038(2) -0.0065(16) 0.004(2) -0.0114(16)
O5 0.069(3) 0.034(2) 0.029(2) -0.0057(17) -0.006(2) -0.018(2)
O6 0.044(2) 0.042(2) 0.061(3) -0.028(2) 0.001(2) -0.0009(19)
O7 0.047(2) 0.039(2) 0.058(3) -0.018(2) -0.003(2) -0.0125(19)
O8 0.096(5) 0.107(6) 0.079(6) -0.009(5) -0.033(5) -0.002(5)
O9 0.157(8) 0.079(4) 0.060(5) -0.010(4) 0.004(5) 0.006(5)
O10 0.070(4) 0.133(6) 0.058(4) -0.030(4) -0.004(3) -0.023(4)
O11 0.248(19) 0.26(2) 0.55(5) 0.01(3) -0.14(3) -0.079(16)
N1 0.024(2) 0.0188(19) 0.0182(18) -0.0051(14) 0.0001(14) -0.0060(15)
N2 0.041(3) 0.041(3) 0.041(3) -0.024(2) -0.003(2) -0.004(2)
N3 0.025(2) 0.0186(19) 0.0179(18) -0.0041(15) -0.0017(15) -0.0040(15)
N4 0.045(3) 0.070(4) 0.028(3) 0.005(3) -0.003(2) -0.016(3)
C1 0.036(3) 0.018(2) 0.024(2) -0.0071(18) -0.0031(19) -0.0060(18)
C2 0.046(3) 0.018(2) 0.024(2) -0.0013(18) -0.004(2) -0.0108(19)
C3 0.037(3) 0.021(2) 0.018(2) -0.0017(17) -0.0013(18) -0.0105(18)
C4 0.041(3) 0.020(2) 0.017(2) -0.0049(17) -0.0015(19) -0.0086(18)
C5 0.026(2) 0.0160(18) 0.019(2) -0.0042(16) -0.0003(16) -0.0065(16)
C6 0.026(2) 0.030(3) 0.023(2) -0.0112(19) -0.0012(18) -0.007(2)
C7 0.023(2) 0.0188(19) 0.018(2) -0.0041(16) 0.0016(16) -0.0050(15)
C8 0.033(2) 0.022(2) 0.019(2) -0.0070(17) 0.0001(18) -0.0060(18)
C9 0.035(2) 0.0151(19) 0.024(2) -0.0064(17) -0.0019(19) -0.0061(17)
C10 0.037(3) 0.018(2) 0.028(3) -0.0031(18) 0.000(2) -0.0052(18)
C11 0.033(2) 0.021(2) 0.019(2) -0.0029(18) -0.0001(18) -0.0053(18)
C12 0.029(3) 0.034(3) 0.021(2) -0.005(2) 0.0001(19) -0.009(2)
loop_
_atom_type_symbol
_atom_type_description
_atom_type_scat_dispersion_real
_atom_type_scat_dispersion_imag
_atom_type_scat_source
C C 0.0000 0.0000
;
International Tables for Crystallography
(Vol. C, Tables 4.2.6.8 and 6.1.1.4)
;
H H 0.0000 0.0000
;
International Tables for Crystallography
(Vol. C, Table 6.1.1.4)
;
N N 0.0000 0.0000
;
International Tables for Crystallography
(Vol. C, Tables 4.2.6.8 and 6.1.1.4)
;
O O 0.0000 0.0000
;
International Tables for Crystallography
(Vol. C, Tables 4.2.6.8 and 6.1.1.4)
;
P P 0.0000 0.0000
;
International Tables for Crystallography
(Vol. C, Tables 4.2.6.8 and 6.1.1.4)
;
Pt Pt 0.0000 0.0000
;
International Tables for Crystallography
(Vol. C, Tables 4.2.6.8 and 6.1.1.4)
;
loop_
_geom_angle_atom_site_label_1
_geom_angle_atom_site_label_2
_geom_angle_atom_site_label_3
_geom_angle
C6 Pt1 C12 88.1(2)
C6 Pt1 N3 176.08(17)
C12 Pt1 N3 95.8(2)
C6 Pt1 N1 96.1(2)
C12 Pt1 N1 175.77(16)
N3 Pt1 N1 79.97(17)
O3 P1 O1 113.8(4)
O3 P1 O2 108.8(3)
O1 P1 O2 111.6(3)
O3 P1 C3 110.0(3)
O1 P1 C3 104.9(3)
O2 P1 C3 107.6(3)
O6 P2 O5 114.7(3)
O6 P2 O4 110.0(3)
O5 P2 O4 111.2(3)
O6 P2 C9 108.1(3)
O5 P2 C9 107.7(2)
O4 P2 C9 104.6(2)
P1 O1 H1A 109.5
P1 O2 H2A 109.5
P2 O4 H4A 109.5
P2 O5 H5 109.5
C1 N1 C5 119.6(4)
C1 N1 Pt1 125.8(4)
C5 N1 Pt1 114.7(3)
C11 N3 C7 119.6(4)
C11 N3 Pt1 125.4(3)
C7 N3 Pt1 115.0(3)
N1 C1 C2 121.8(5)
N1 C1 H1 119.1
C2 C1 H1 119.1
C1 C2 C3 119.5(4)
C1 C2 H2 120.3
C3 C2 H2 120.3
C4 C3 C2 118.4(5)
C4 C3 P1 118.8(4)
C2 C3 P1 122.8(4)
C5 C4 C3 119.6(4)
C5 C4 H4 120.2
C3 C4 H4 120.2
N1 C5 C4 121.2(4)
N1 C5 C7 115.3(4)
C4 C5 C7 123.5(4)
N2 C6 Pt1 178.8(5)
N3 C7 C8 121.6(4)
N3 C7 C5 115.0(4)
C8 C7 C5 123.4(4)
C7 C8 C9 119.4(4)
C7 C8 H8 120.3
C9 C8 H8 120.3
C10 C9 C8 117.8(4)
C10 C9 P2 120.3(3)
C8 C9 P2 121.9(4)
C11 C10 C9 120.5(4)
C11 C10 H10 119.7
C9 C10 H10 119.7
N3 C11 C10 121.0(5)
N3 C11 H11 119.5
C10 C11 H11 119.5
N4 C12 Pt1 176.8(6)
loop_
_geom_bond_atom_site_label_1
_geom_bond_atom_site_label_2
_geom_bond_distance
Pt1 C6 1.957(6)
Pt1 C12 1.965(6)
Pt1 N3 2.052(4)
Pt1 N1 2.058(4)
P1 O3 1.491(6)
P1 O1 1.538(5)
P1 O2 1.544(5)
P1 C3 1.806(5)
P2 O6 1.499(5)
P2 O5 1.516(5)
P2 O4 1.547(4)
P2 C9 1.820(5)
O1 H1A 0.8400
O2 H2A 0.8400
O4 H4A 0.8400
O5 H5 0.8400
N1 C1 1.336(6)
N1 C5 1.362(6)
N2 C6 1.147(7)
N3 C11 1.349(6)
N3 C7 1.364(6)
N4 C12 1.127(8)
C1 C2 1.378(7)
C1 H1 0.9500
C2 C3 1.394(7)
C2 H2 0.9500
C3 C4 1.391(6)
C4 C5 1.378(6)
C4 H4 0.9500
C5 C7 1.482(6)
C7 C8 1.380(6)
C8 C9 1.406(6)
C8 H8 0.9500
C9 C10 1.394(7)
C10 C11 1.383(7)
C10 H10 0.9500
C11 H11 0.9500
loop_
_geom_hbond_atom_site_label_D
_geom_hbond_atom_site_label_H
_geom_hbond_atom_site_label_A
_geom_hbond_site_symmetry_A
_geom_hbond_distance_DA
_geom_hbond_distance_DH
_geom_hbond_distance_HA
_geom_hbond_angle_DHA
_geom_hbond_publ_flag
O2 H2A O10 1_655 2.476(10) 0.840 1.721 148.4 no
O4 H4A O7 . 2.505(6) 0.840 1.675 169.2 no
O5 H5 O1 2_676 2.551(7) 0.840 1.759 156.5 no
loop_
_geom_torsion_atom_site_label_1
_geom_torsion_atom_site_label_2
_geom_torsion_atom_site_label_3
_geom_torsion_atom_site_label_4
_geom_torsion
C5 N1 C1 C2 -0.2(8)
Pt1 N1 C1 C2 179.7(4)
N1 C1 C2 C3 -1.2(8)
C1 C2 C3 C4 1.7(8)
C1 C2 C3 P1 -178.7(4)
O3 P1 C3 C4 74.4(5)
O1 P1 C3 C4 -162.9(5)
O2 P1 C3 C4 -43.9(5)
O3 P1 C3 C2 -105.2(5)
O1 P1 C3 C2 17.6(6)
O2 P1 C3 C2 136.5(5)
C2 C3 C4 C5 -0.9(8)
P1 C3 C4 C5 179.5(4)
C1 N1 C5 C4 1.0(7)
Pt1 N1 C5 C4 -178.9(4)
C1 N1 C5 C7 -179.1(4)
Pt1 N1 C5 C7 1.0(5)
C3 C4 C5 N1 -0.5(8)
C3 C4 C5 C7 179.6(5)
C11 N3 C7 C8 1.6(7)
Pt1 N3 C7 C8 -178.2(4)
C11 N3 C7 C5 -178.9(4)
Pt1 N3 C7 C5 1.3(5)
N1 C5 C7 N3 -1.5(6)
C4 C5 C7 N3 178.3(5)
N1 C5 C7 C8 177.9(4)
C4 C5 C7 C8 -2.2(8)
N3 C7 C8 C9 -0.3(7)
C5 C7 C8 C9 -179.7(4)
C7 C8 C9 C10 -0.4(7)
C7 C8 C9 P2 179.9(4)
O6 P2 C9 C10 -83.2(5)
O5 P2 C9 C10 152.4(4)
O4 P2 C9 C10 34.0(5)
O6 P2 C9 C8 96.5(5)
O5 P2 C9 C8 -27.9(5)
O4 P2 C9 C8 -146.3(4)
C8 C9 C10 C11 -0.3(8)
P2 C9 C10 C11 179.4(4)
C7 N3 C11 C10 -2.3(8)
Pt1 N3 C11 C10 177.5(4)
C9 C10 C11 N3 1.7(8)
