#------------------------------------------------------------------------------
#$Date: 2019-11-17 13:07:42 +0200 (Sun, 17 Nov 2019) $
#$Revision: 230052 $
#$URL: file:///home/coder/svn-repositories/cod/cif/7/04/55/7045568.cif $
#------------------------------------------------------------------------------
#
# This file is available in the Crystallography Open Database (COD),
# http://www.crystallography.net/
#
# All data on this site have been placed in the public domain by the
# contributors.
#
data_7045568
loop_
_publ_author_name
'Lu, Taotao'
'Liu, Zhiming'
'Steren, Carlos A.'
'Fei, Fan'
'Cook, Tabitha M.'
'Chen, Xue-Tai'
'Xue, Zi-Ling'
_publ_section_title
;
 Synthesis, structural characterization and NMR studies of group 10 metal
 complexes with macrocyclic amine N-heterocyclic carbene ligands.
;
_journal_issue                   12
_journal_name_full
'Dalton transactions (Cambridge, England : 2003)'
_journal_page_first              4282
_journal_page_last               4292
_journal_paper_doi               10.1039/c7dt04666a
_journal_volume                  47
_journal_year                    2018
_chemical_formula_moiety         'C22 H26 N6 Pt, 2(P F6)'
_chemical_formula_sum            'C22 H26 F12 N6 P2 Pt'
_chemical_formula_weight         859.52
_space_group_crystal_system      triclinic
_space_group_IT_number           2
_space_group_name_Hall           '-P 1'
_space_group_name_H-M_alt        'P -1'
_symmetry_space_group_name_Hall  '-P 1'
_symmetry_space_group_name_H-M   'P -1'
_atom_sites_solution_hydrogens   mixed
_audit_creation_method           SHELXL-2014/7
_audit_update_record
;
2018-01-19 deposited with the CCDC.
2018-02-02 downloaded from the CCDC.
;
_cell_angle_alpha                82.780(4)
_cell_angle_beta                 64.264(4)
_cell_angle_gamma                74.900(4)
_cell_formula_units_Z            1
_cell_length_a                   8.878(2)
_cell_length_b                   9.179(2)
_cell_length_c                   9.616(2)
_cell_measurement_reflns_used    3259
_cell_measurement_temperature    293(2)
_cell_measurement_theta_max      27.67
_cell_measurement_theta_min      2.30
_cell_volume                     681.4(3)
_computing_cell_refinement       'Bruker SAINT'
_computing_data_collection       'Bruker APEX2'
_computing_data_reduction        'Bruker SAINT'
_computing_molecular_graphics    'Bruker SHELXTL'
_computing_publication_material  'Bruker SHELXTL'
_computing_structure_refinement  'SHELXL-2014/7 (Sheldrick, 2014)'
_computing_structure_solution    'SHELXS-97 (Sheldrick 2008)'
_diffrn_ambient_temperature      293(2)
_diffrn_measured_fraction_theta_full 0.991
_diffrn_measured_fraction_theta_max 0.983
_diffrn_measurement_device_type  'CCD area detector'
_diffrn_measurement_method       'phi and omega scans'
_diffrn_radiation_type           MoK\a
_diffrn_radiation_wavelength     0.71073
_diffrn_reflns_av_R_equivalents  0.0225
_diffrn_reflns_av_unetI/netI     0.0421
_diffrn_reflns_Laue_measured_fraction_full 0.991
_diffrn_reflns_Laue_measured_fraction_max 0.983
_diffrn_reflns_limit_h_max       11
_diffrn_reflns_limit_h_min       -11
_diffrn_reflns_limit_k_max       11
_diffrn_reflns_limit_k_min       -12
_diffrn_reflns_limit_l_max       12
_diffrn_reflns_limit_l_min       -8
_diffrn_reflns_number            4729
_diffrn_reflns_point_group_measured_fraction_full 0.991
_diffrn_reflns_point_group_measured_fraction_max 0.983
_diffrn_reflns_theta_full        25.242
_diffrn_reflns_theta_max         27.848
_diffrn_reflns_theta_min         2.298
_diffrn_source                   'sealed tube'
_exptl_absorpt_coefficient_mu    5.375
_exptl_absorpt_correction_T_max  0.7456
_exptl_absorpt_correction_T_min  0.4578
_exptl_absorpt_correction_type   multi-scan
_exptl_absorpt_process_details   'SADABS (Bruker, 2014)'
_exptl_crystal_colour            brown
_exptl_crystal_density_diffrn    2.095
_exptl_crystal_description       block
_exptl_crystal_F_000             416
_exptl_crystal_size_max          0.230
_exptl_crystal_size_mid          0.220
_exptl_crystal_size_min          0.190
_refine_diff_density_max         1.300
_refine_diff_density_min         -1.452
_refine_diff_density_rms         0.114
_refine_ls_extinction_method     none
_refine_ls_goodness_of_fit_ref   1.050
_refine_ls_hydrogen_treatment    mixed
_refine_ls_matrix_type           full
_refine_ls_number_parameters     276
_refine_ls_number_reflns         3188
_refine_ls_number_restraints     1022
_refine_ls_restrained_S_all      1.085
_refine_ls_R_factor_all          0.0298
_refine_ls_R_factor_gt           0.0296
_refine_ls_shift/su_max          0.000
_refine_ls_shift/su_mean         0.000
_refine_ls_structure_factor_coef Fsqd
_refine_ls_weighting_details
'w=1/[\s^2^(Fo^2^)+(0.0360P)^2^+0.4852P] where P=(Fo^2^+2Fc^2^)/3'
_refine_ls_weighting_scheme      calc
_refine_ls_wR_factor_gt          0.0713
_refine_ls_wR_factor_ref         0.0714
_reflns_Friedel_coverage         0.000
_reflns_number_gt                3170
_reflns_number_total             3188
_reflns_threshold_expression     'I > 2\s(I)'
_cod_data_source_file            c7dt04666a2.cif
_cod_data_source_block           6a
_cod_depositor_comments
'Adding full bibliography for 7045565--7045570.cif.'
_cod_database_code               7045568
_shelx_shelxl_version_number     2014/7
_shelx_space_group_comment
;
The symmetry employed for this shelxl refinement is uniquely defined
by the following loop, which should always be used as a source of
symmetry information in preference to the above space-group names.
They are only intended as comments.
;
_shelx_estimated_absorpt_t_min   0.371
_shelx_estimated_absorpt_t_max   0.428
_shelx_res_file
;

    6a.res created by SHELXL-2014/7


TITL 6a in  P-1
CELL  0.71073   8.8776    9.1790    9.6157   82.780   64.264   74.900
ZERR  1         0.0021    0.0022    0.0023   0.0044   0.0036   0.0035
LATT 1
SFAC C  H  F  N  Pt P
UNIT 22 26 12 6 1 2
L.S. 20
ACTA
omit    1  -4   2
omit    0   2   2
omit   -5  -1   1
omit    0   3   6
omit    6   4   6
BOND $H
FMAP 2
PLAN 20
size .23 .22 .19
simu .02 .03 3 p1 > c11'
sadi c9 c10 c9' c10'
eqiv $1 1-x,1-y,1-z
sadi c9 n2 c10 n1_$1 c9' n2 c10' n1_$1
sadi n3 c8 n3 c11 n3' c8' n3' c11'
dfix 1.53 c8 c9 c10 c11 c8' c9' c10' c11'
sadi .02 n3 c9 n3 c10 n3' c9' n3' c10'
eadp c11 c11'
exyz c11 c11'
eadp c8 c8'
exyz c8 c8'
sadi .02 p1' f1' p1 f1 p1 f2 p1 f3 p1 f4 p1 f5 p1 f6
sadi f1' f3' f1 f3 f1 f4 f1 f5 f1 f6 f2 f3 f2 f4 f2 f5 f2 f6
sadi f1' f3' f3 f4 f4 f5 f5 f6 f6 f3
sadi .02 p1' f1' p1' f2' p1' f3' p1' f4' p1' f5' p1' f6'
sadi f1' f3' f1' f4' f1' f5' f1' f6' f2' f3' f2' f4' f2' f5' f2' f6'
sadi f1' f3' f3' f4' f4' f5' f5' f6' f6' f3'
WGHT    0.036000    0.485200
FVAR       0.16284   0.43392   0.85944
C1    1    0.539246    0.570844    0.279460    11.00000    0.03216    0.04040 =
         0.04640   -0.01133   -0.01723   -0.00440
C2    1    0.516863    0.710359    0.074981    11.00000    0.03977    0.04502 =
         0.04723   -0.00477   -0.02120   -0.01122
C3    1    0.648611    0.584086    0.019303    11.00000    0.03518    0.04326 =
         0.04624   -0.00386   -0.01513   -0.01273
C4    1    0.742930    0.559047   -0.139225    11.00000    0.04099    0.05742 =
         0.04737   -0.00342   -0.01051   -0.01671
AFIX  43
H4A   2    0.831901    0.474078   -0.176874    11.00000   -1.20000
AFIX   0
C5    1    0.698247    0.665332   -0.236335    11.00000    0.05237    0.07522 =
         0.04665   -0.00001   -0.01416   -0.02139
AFIX  43
H5A   2    0.757431    0.651481   -0.342406    11.00000   -1.20000
AFIX   0
C6    1    0.566635    0.793590   -0.180657    11.00000    0.06494    0.06515 =
         0.05732    0.01164   -0.03287   -0.02058
AFIX  43
H6A   2    0.541532    0.864099   -0.250482    11.00000   -1.20000
AFIX   0
C7    1    0.471657    0.819028   -0.023221    11.00000    0.05821    0.05137 =
         0.05968    0.00069   -0.03146   -0.01065
AFIX  43
H7A   2    0.382779    0.904091    0.014266    11.00000   -1.20000
AFIX   0
N1    4    0.660081    0.501781    0.146528    11.00000    0.03226    0.03843 =
         0.04529   -0.00602   -0.01307   -0.00376
N2    4    0.451653    0.696545    0.235129    11.00000    0.03502    0.03821 =
         0.04501   -0.00699   -0.01884   -0.00307
PT1   5    0.500000    0.500000    0.500000    10.50000    0.02306    0.03824 =
         0.04329   -0.00548   -0.01339   -0.00040
PART   1
P1    6    0.172692    0.143041    0.699270    21.00000    0.05101    0.05026 =
         0.06796   -0.01911   -0.02707    0.00517
F1    3   -0.010687    0.121340    0.814669    21.00000    0.06641    0.10201 =
         0.10078   -0.01028   -0.00281   -0.02043
F2    3    0.356432    0.169979    0.579546    21.00000    0.05633    0.10024 =
         0.08526   -0.00128   -0.02355   -0.03096
F3    3    0.143428    0.105528    0.556717    21.00000    0.07697    0.08424 =
         0.08279   -0.00669   -0.05346   -0.00003
F4    3    0.092970    0.316820    0.678347    21.00000    0.10289    0.06578 =
         0.09668   -0.01898   -0.00631    0.01791
F5    3    0.207039    0.179910    0.836060    21.00000    0.09783    0.09311 =
         0.08811   -0.03335   -0.05240   -0.01021
F6    3    0.253564   -0.029176    0.715042    21.00000    0.09335    0.05005 =
         0.07711   -0.00653   -0.03193    0.00659
PART   2
P1'   6    0.166199    0.154010    0.705694   -21.00000    0.03378    0.04397 =
         0.05347   -0.00873   -0.01745   -0.00852
F1'   3   -0.032867    0.171217    0.809666   -21.00000    0.04793    0.07516 =
         0.08927   -0.01493   -0.02054   -0.01821
F2'   3    0.362680    0.143661    0.599773   -21.00000    0.05186    0.10693 =
         0.10998   -0.02450   -0.00964   -0.00074
F3'   3    0.152141    0.070938    0.577922   -21.00000    0.09965    0.08674 =
         0.09838   -0.04904   -0.04193   -0.01054
F4'   3    0.118451    0.313933    0.625023   -21.00000    0.09484    0.06471 =
         0.05300   -0.00110   -0.01479    0.00640
F5'   3    0.172161    0.248904    0.829714   -21.00000    0.07591    0.11004 =
         0.07721   -0.03362   -0.03139   -0.02552
F6'   3    0.212220   -0.000648    0.781684   -21.00000    0.10800    0.09087 =
         0.10422    0.02257   -0.03075    0.02027
PART   3
C8    1    0.312745    0.809013    0.338841    31.00000    0.05112    0.04762 =
         0.05730   -0.01330   -0.02836    0.01026
AFIX  23
H8A   2    0.245109    0.867575    0.285623    31.00000   -1.20000
H8B   2    0.360598    0.877343    0.368187    31.00000   -1.20000
AFIX   0
C9    1    0.199032    0.737821    0.480642    31.00000    0.03211    0.06256 =
         0.05767   -0.01259   -0.02293    0.01367
AFIX  23
H9A   2    0.171373    0.653954    0.451824    31.00000   -1.20000
H9B   2    0.092536    0.810969    0.533555    31.00000   -1.20000
AFIX   0
N3    4    0.286172    0.682269    0.587173    31.00000    0.02800    0.03767 =
         0.04943   -0.01159   -0.01757    0.00033
H3    2    0.317275    0.760160    0.608826    31.00000   -1.20000
C10   1    0.151145    0.655000    0.739713    31.00000    0.02759    0.05156 =
         0.05761   -0.00975   -0.01107    0.00391
AFIX  23
H10A  2    0.116000    0.564728    0.735274    31.00000   -1.20000
H10B  2    0.051743    0.739070    0.763422    31.00000   -1.20000
AFIX   0
C11   1    0.210534    0.636487    0.865692    31.00000    0.04064    0.04666 =
         0.04821   -0.00943   -0.00907    0.00793
AFIX  23
H11A  2    0.257385    0.721820    0.862676    31.00000   -1.20000
H11B  2    0.112629    0.636806    0.964549    31.00000   -1.20000
AFIX   0
PART   4
C8'   1    0.312745    0.809013    0.338841   -31.00000    0.05112    0.04762 =
         0.05730   -0.01330   -0.02836    0.01026
AFIX  23
H8'A  2    0.247893    0.869350    0.283963   -31.00000   -1.20000
H8'B  2    0.361357    0.875712    0.369444   -31.00000   -1.20000
AFIX   0
C9'   1    0.192942    0.741993    0.480711   -31.00000    0.04767
AFIX  23
H9'A  2    0.109678    0.825437    0.544801   -31.00000   -1.20000
H9'B  2    0.130259    0.691947    0.448019   -31.00000   -1.20000
AFIX   0
N3'   4    0.256544    0.634284    0.581550   -31.00000    0.04551
AFIX  13
H3'   2    0.177887    0.566327    0.626324   -31.00000   -1.20000
AFIX   0
C10'  1    0.241801    0.714649    0.710341   -31.00000    0.04732
AFIX  23
H10C  2    0.149121    0.803933    0.727330   -31.00000   -1.20000
H10D  2    0.346735    0.749351    0.676696   -31.00000   -1.20000
AFIX   0
C11'  1    0.210534    0.636487    0.865692   -31.00000    0.04064    0.04666 =
         0.04821   -0.00943   -0.00907    0.00793
AFIX  23
H11C  2    0.210777    0.704288    0.935225   -31.00000   -1.20000
H11D  2    0.098149    0.613355    0.909425   -31.00000   -1.20000
PART   0

AFIX   0
HKLF 4

REM  6a in  P-1
REM R1 =  0.0296 for    3170 Fo > 4sig(Fo)  and  0.0298 for all    3188 data
REM    276 parameters refined using   1022 restraints

END

WGHT      0.0454      0.0000

REM Highest difference peak  1.300,  deepest hole -1.452,  1-sigma level  0.114
Q1    1   0.3898  0.5061  0.5327  11.00000  0.05    1.30
Q2    1   0.4631  0.5751  0.5652  11.00000  0.05    1.27
Q3    1   0.4640  0.4279  0.4839  11.00000  0.05    0.87
Q4    1   0.4827  0.4376  0.5806  11.00000  0.05    0.54
Q5    1   0.2469  0.5956  0.6066  11.00000  0.05    0.48
Q6    1   0.1436  0.2170  0.5794  11.00000  0.05    0.43
Q7    1   0.1141  0.0413  0.8511  11.00000  0.05    0.43
Q8    1   0.2602  0.7568  0.4149  11.00000  0.05    0.40
Q9    1   0.5672  0.5218  0.3508  11.00000  0.05    0.39
Q10   1   0.0445  0.0189  0.8290  11.00000  0.05    0.38
Q11   1   0.2791  0.4778  0.5502  11.00000  0.05    0.36
Q12   1   0.1484  0.8392  0.3392  11.00000  0.05    0.35
Q13   1   0.1290  0.3205  0.7821  11.00000  0.05    0.33
Q14   1   0.0039  0.2638  0.7187  11.00000  0.05    0.33
Q15   1   0.6741  0.7621 -0.2118  11.00000  0.05    0.33
Q16   1  -0.0061  0.2591  0.7901  11.00000  0.05    0.33
Q17   1   0.2449  0.6621  0.2735  11.00000  0.05    0.33
Q18   1   0.5836  0.5238  0.2114  11.00000  0.05    0.33
Q19   1   0.5886  0.3902  0.1226  11.00000  0.05    0.31
Q20   1   0.3356 -0.0411  0.6414  11.00000  0.05    0.31
;
_shelx_res_checksum              67771
loop_
_space_group_symop_operation_xyz
'x, y, z'
'-x, -y, -z'
loop_
_atom_site_label
_atom_site_type_symbol
_atom_site_fract_x
_atom_site_fract_y
_atom_site_fract_z
_atom_site_U_iso_or_equiv
_atom_site_adp_type
_atom_site_occupancy
_atom_site_site_symmetry_order
_atom_site_calc_flag
_atom_site_refinement_flags_posn
_atom_site_refinement_flags_adp
_atom_site_refinement_flags_occupancy
_atom_site_disorder_assembly
_atom_site_disorder_group
C1 C 0.5392(5) 0.5708(5) 0.2795(5) 0.0392(9) Uani 1 1 d . . . . .
C2 C 0.5169(6) 0.7104(5) 0.0750(5) 0.0422(9) Uani 1 1 d . . . . .
C3 C 0.6486(5) 0.5841(5) 0.0193(5) 0.0412(9) Uani 1 1 d . . . . .
C4 C 0.7429(6) 0.5590(6) -0.1392(6) 0.0502(11) Uani 1 1 d . . . . .
H4A H 0.8319 0.4741 -0.1769 0.060 Uiso 1 1 calc R U . . .
C5 C 0.6982(7) 0.6653(7) -0.2363(6) 0.0592(13) Uani 1 1 d . . . . .
H5A H 0.7574 0.6515 -0.3424 0.071 Uiso 1 1 calc R U . . .
C6 C 0.5666(8) 0.7936(7) -0.1807(7) 0.0599(13) Uani 1 1 d . . . . .
H6A H 0.5415 0.8641 -0.2505 0.072 Uiso 1 1 calc R U . . .
C7 C 0.4717(7) 0.8190(6) -0.0232(6) 0.0545(11) Uani 1 1 d . . . . .
H7A H 0.3828 0.9041 0.0143 0.065 Uiso 1 1 calc R U . . .
N1 N 0.6601(4) 0.5018(4) 0.1465(4) 0.0402(7) Uani 1 1 d . . . . .
N2 N 0.4517(4) 0.6965(4) 0.2351(4) 0.0391(7) Uani 1 1 d D . . . .
Pt1 Pt 0.5000 0.5000 0.5000 0.03595(9) Uani 1 2 d S . P . .
P1 P 0.1727(14) 0.1430(12) 0.6993(12) 0.057(3) Uani 0.43(2) 1 d D U P A 1
F1 F -0.0107(15) 0.121(2) 0.8147(17) 0.100(4) Uani 0.43(2) 1 d D U P A 1
F2 F 0.3564(14) 0.1700(18) 0.5795(15) 0.080(3) Uani 0.43(2) 1 d D U P A 1
F3 F 0.143(2) 0.1055(16) 0.5567(15) 0.077(3) Uani 0.43(2) 1 d D U P A 1
F4 F 0.0930(19) 0.3168(12) 0.678(2) 0.107(5) Uani 0.43(2) 1 d D U P A 1
F5 F 0.2070(19) 0.1799(18) 0.8361(14) 0.087(3) Uani 0.43(2) 1 d D U P A 1
F6 F 0.2536(17) -0.0292(10) 0.7150(17) 0.079(3) Uani 0.43(2) 1 d D U P A 1
P1' P 0.1662(8) 0.1540(8) 0.7057(8) 0.0434(15) Uani 0.57(2) 1 d D U P A 2
F1' F -0.0329(10) 0.1712(12) 0.8097(11) 0.072(2) Uani 0.57(2) 1 d D U P A 2
F2' F 0.3627(12) 0.1437(14) 0.5998(16) 0.100(4) Uani 0.57(2) 1 d D U P A 2
F3' F 0.1521(17) 0.0709(14) 0.5779(14) 0.092(3) Uani 0.57(2) 1 d D U P A 2
F4' F 0.1185(14) 0.3139(10) 0.6250(12) 0.082(3) Uani 0.57(2) 1 d D U P A 2
F5' F 0.1722(13) 0.2489(16) 0.8297(10) 0.084(3) Uani 0.57(2) 1 d D U P A 2
F6' F 0.2122(15) -0.0006(12) 0.7817(19) 0.117(4) Uani 0.57(2) 1 d D U P A 2
C8 C 0.3127(6) 0.8090(5) 0.3388(6) 0.0532(11) Uani 0.859(10) 1 d D U P B 3
H8A H 0.2451 0.8676 0.2856 0.064 Uiso 0.859(10) 1 calc R U P B 3
H8B H 0.3606 0.8773 0.3682 0.064 Uiso 0.859(10) 1 calc R U P B 3
C9 C 0.1990(7) 0.7378(10) 0.4806(6) 0.0532(15) Uani 0.859(10) 1 d D U P B 3
H9A H 0.1714 0.6540 0.4518 0.064 Uiso 0.859(10) 1 calc R U P B 3
H9B H 0.0925 0.8110 0.5336 0.064 Uiso 0.859(10) 1 calc R U P B 3
N3 N 0.2862(5) 0.6823(5) 0.5872(5) 0.0384(10) Uani 0.859(10) 1 d D U P B 3
H3 H 0.317(8) 0.760(7) 0.609(7) 0.046 Uiso 0.859(10) 1 d . U P B 3
C10 C 0.1511(6) 0.6550(7) 0.7397(6) 0.0499(14) Uani 0.859(10) 1 d D U P B 3
H10A H 0.1160 0.5647 0.7353 0.060 Uiso 0.859(10) 1 calc R U P B 3
H10B H 0.0517 0.7391 0.7634 0.060 Uiso 0.859(10) 1 calc R U P B 3
C11 C 0.2105(6) 0.6365(5) 0.8657(5) 0.0515(11) Uani 0.859(10) 1 d D U P B 3
H11A H 0.2574 0.7218 0.8627 0.062 Uiso 0.859(10) 1 calc R U P B 3
H11B H 0.1126 0.6368 0.9645 0.062 Uiso 0.859(10) 1 calc R U P B 3
C8' C 0.3127(6) 0.8090(5) 0.3388(6) 0.0532(11) Uani 0.141(10) 1 d D U P B 4
H8'A H 0.2479 0.8693 0.2840 0.064 Uiso 0.141(10) 1 calc R U P B 4
H8'B H 0.3614 0.8757 0.3694 0.064 Uiso 0.141(10) 1 calc R U P B 4
C9' C 0.193(2) 0.742(4) 0.4807(18) 0.048(5) Uiso 0.141(10) 1 d D U P B 4
H9'A H 0.1097 0.8254 0.5448 0.057 Uiso 0.141(10) 1 calc R U P B 4
H9'B H 0.1303 0.6919 0.4480 0.057 Uiso 0.141(10) 1 calc R U P B 4
N3' N 0.257(4) 0.634(3) 0.5815(16) 0.046(4) Uiso 0.141(10) 1 d D U P B 4
H3' H 0.1779 0.5663 0.6263 0.055 Uiso 0.141(10) 1 calc R U P B 4
C10' C 0.242(4) 0.715(2) 0.710(2) 0.047(4) Uiso 0.141(10) 1 d D U P B 4
H10C H 0.1491 0.8039 0.7273 0.057 Uiso 0.141(10) 1 calc R U P B 4
H10D H 0.3467 0.7494 0.6767 0.057 Uiso 0.141(10) 1 calc R U P B 4
C11' C 0.2105(6) 0.6365(5) 0.8657(5) 0.0515(11) Uani 0.141(10) 1 d D U P B 4
H11C H 0.2108 0.7043 0.9352 0.062 Uiso 0.141(10) 1 calc R U P B 4
H11D H 0.0981 0.6134 0.9094 0.062 Uiso 0.141(10) 1 calc R U P B 4
loop_
_atom_site_aniso_label
_atom_site_aniso_U_11
_atom_site_aniso_U_22
_atom_site_aniso_U_33
_atom_site_aniso_U_23
_atom_site_aniso_U_13
_atom_site_aniso_U_12
C1 0.0322(19) 0.040(2) 0.046(2) -0.0113(17) -0.0172(17) -0.0044(16)
C2 0.040(2) 0.045(2) 0.047(2) -0.0048(18) -0.0212(19) -0.0112(18)
C3 0.035(2) 0.043(2) 0.046(2) -0.0039(17) -0.0151(18) -0.0127(17)
C4 0.041(2) 0.057(3) 0.047(3) -0.003(2) -0.011(2) -0.017(2)
C5 0.052(3) 0.075(4) 0.047(3) 0.000(2) -0.014(2) -0.021(3)
C6 0.065(3) 0.065(3) 0.057(3) 0.012(2) -0.033(3) -0.021(3)
C7 0.058(3) 0.051(3) 0.060(3) 0.001(2) -0.031(2) -0.011(2)
N1 0.0323(17) 0.0384(17) 0.045(2) -0.0060(14) -0.0131(15) -0.0038(14)
N2 0.0350(17) 0.0382(17) 0.045(2) -0.0070(14) -0.0188(15) -0.0031(14)
Pt1 0.02306(11) 0.03824(13) 0.04329(14) -0.00548(8) -0.01339(9) -0.00040(8)
P1 0.051(4) 0.050(4) 0.068(5) -0.019(3) -0.027(3) 0.005(3)
F1 0.066(6) 0.102(8) 0.101(6) -0.010(6) -0.003(5) -0.020(5)
F2 0.056(6) 0.100(6) 0.085(6) -0.001(5) -0.024(5) -0.031(5)
F3 0.077(5) 0.084(6) 0.083(5) -0.007(5) -0.053(4) 0.000(5)
F4 0.103(7) 0.066(5) 0.097(8) -0.019(5) -0.006(6) 0.018(5)
F5 0.098(6) 0.093(7) 0.088(5) -0.033(5) -0.052(5) -0.010(5)
F6 0.093(6) 0.050(4) 0.077(6) -0.007(4) -0.032(5) 0.007(4)
P1' 0.034(2) 0.044(2) 0.053(3) -0.009(2) -0.017(2) -0.0085(19)
F1' 0.048(3) 0.075(5) 0.089(4) -0.015(4) -0.021(3) -0.018(3)
F2' 0.052(5) 0.107(6) 0.110(6) -0.024(5) -0.010(5) -0.001(4)
F3' 0.100(6) 0.087(5) 0.098(6) -0.049(5) -0.042(4) -0.011(5)
F4' 0.095(5) 0.065(4) 0.053(4) -0.001(3) -0.015(4) 0.006(4)
F5' 0.076(5) 0.110(6) 0.077(4) -0.034(4) -0.031(3) -0.026(4)
F6' 0.108(6) 0.091(5) 0.104(7) 0.023(5) -0.031(5) 0.020(5)
C8 0.051(2) 0.048(2) 0.057(3) -0.013(2) -0.028(2) 0.0103(19)
C9 0.032(2) 0.063(3) 0.058(3) -0.013(2) -0.023(2) 0.014(2)
N3 0.0280(19) 0.038(2) 0.049(2) -0.0116(17) -0.0176(16) 0.0003(16)
C10 0.028(2) 0.052(3) 0.058(3) -0.010(2) -0.011(2) 0.004(2)
C11 0.041(2) 0.047(2) 0.048(2) -0.0094(19) -0.0091(18) 0.0079(18)
C8' 0.051(2) 0.048(2) 0.057(3) -0.013(2) -0.028(2) 0.0103(19)
C11' 0.041(2) 0.047(2) 0.048(2) -0.0094(19) -0.0091(18) 0.0079(18)
loop_
_atom_type_symbol
_atom_type_description
_atom_type_scat_dispersion_real
_atom_type_scat_dispersion_imag
_atom_type_scat_source
C C 0.0033 0.0016 'International Tables Vol C Tables 4.2.6.8 and 6.1.1.4'
H H 0.0000 0.0000 'International Tables Vol C Tables 4.2.6.8 and 6.1.1.4'
F F 0.0171 0.0103 'International Tables Vol C Tables 4.2.6.8 and 6.1.1.4'
N N 0.0061 0.0033 'International Tables Vol C Tables 4.2.6.8 and 6.1.1.4'
Pt Pt -1.7033 8.3905 'International Tables Vol C Tables 4.2.6.8 and 6.1.1.4'
P P 0.1023 0.0942 'International Tables Vol C Tables 4.2.6.8 and 6.1.1.4'
loop_
_geom_angle_atom_site_label_1
_geom_angle_atom_site_label_2
_geom_angle_atom_site_label_3
_geom_angle
_geom_angle_site_symmetry_1
_geom_angle_site_symmetry_3
N2 C1 N1 105.5(4) . .
N2 C1 Pt1 127.3(3) . .
N1 C1 Pt1 127.3(3) . .
C3 C2 C7 121.8(4) . .
C3 C2 N2 105.6(4) . .
C7 C2 N2 132.6(4) . .
C2 C3 N1 106.7(4) . .
C2 C3 C4 121.5(4) . .
N1 C3 C4 131.8(4) . .
C5 C4 C3 116.9(5) . .
C5 C4 H4A 121.5 . .
C3 C4 H4A 121.5 . .
C4 C5 C6 121.8(5) . .
C4 C5 H5A 119.1 . .
C6 C5 H5A 119.1 . .
C5 C6 C7 121.7(5) . .
C5 C6 H6A 119.2 . .
C7 C6 H6A 119.2 . .
C2 C7 C6 116.3(5) . .
C2 C7 H7A 121.8 . .
C6 C7 H7A 121.8 . .
C1 N1 C3 110.8(4) . .
C1 N1 C11' 126.2(4) . 2_666
C3 N1 C11' 123.0(4) . 2_666
C1 N1 C11 126.2(4) . 2_666
C3 N1 C11 123.0(4) . 2_666
C1 N2 C2 111.4(3) . .
C1 N2 C8' 125.1(4) . .
C2 N2 C8' 123.4(4) . .
C1 N2 C8 125.1(4) . .
C2 N2 C8 123.4(4) . .
C1 Pt1 C1 180.0 2_666 .
C1 Pt1 N3' 89.7(3) 2_666 .
C1 Pt1 N3' 90.3(3) . .
C1 Pt1 N3' 90.3(3) 2_666 2_666
C1 Pt1 N3' 89.7(3) . 2_666
N3' Pt1 N3' 180.0 . 2_666
C1 Pt1 N3 90.31(16) 2_666 2_666
C1 Pt1 N3 89.69(16) . 2_666
C1 Pt1 N3 89.69(16) 2_666 .
C1 Pt1 N3 90.31(16) . .
N3 Pt1 N3 180.0(2) 2_666 .
F5 P1 F1 90.8(7) . .
F5 P1 F6 90.1(6) . .
F1 P1 F6 90.9(7) . .
F5 P1 F3 178.3(8) . .
F1 P1 F3 90.9(7) . .
F6 P1 F3 89.7(6) . .
F5 P1 F4 91.2(7) . .
F1 P1 F4 90.0(7) . .
F6 P1 F4 178.4(8) . .
F3 P1 F4 89.0(7) . .
F5 P1 F2 90.0(7) . .
F1 P1 F2 178.1(9) . .
F6 P1 F2 90.9(7) . .
F3 P1 F2 88.4(7) . .
F4 P1 F2 88.2(7) . .
F6' P1' F2' 90.1(6) . .
F6' P1' F1' 92.2(5) . .
F2' P1' F1' 177.7(7) . .
F6' P1' F5' 94.1(6) . .
F2' P1' F5' 91.3(5) . .
F1' P1' F5' 88.2(5) . .
F6' P1' F3' 90.2(6) . .
F2' P1' F3' 90.0(6) . .
F1' P1' F3' 90.3(5) . .
F5' P1' F3' 175.5(7) . .
F6' P1' F4' 179.3(7) . .
F2' P1' F4' 89.8(5) . .
F1' P1' F4' 87.9(5) . .
F5' P1' F4' 86.6(5) . .
F3' P1' F4' 89.1(5) . .
N2 C8 C9 111.5(5) . .
N2 C8 H8A 109.3 . .
C9 C8 H8A 109.3 . .
N2 C8 H8B 109.3 . .
C9 C8 H8B 109.3 . .
H8A C8 H8B 108.0 . .
C8 C9 N3 110.6(5) . .
C8 C9 H9A 109.5 . .
N3 C9 H9A 109.5 . .
C8 C9 H9B 109.5 . .
N3 C9 H9B 109.5 . .
H9A C9 H9B 108.1 . .
C10 N3 C9 106.9(4) . .
C10 N3 Pt1 115.2(3) . .
C9 N3 Pt1 113.8(4) . .
C10 N3 H3 101(4) . .
C9 N3 H3 109(4) . .
Pt1 N3 H3 110(4) . .
N3 C10 C11 112.4(4) . .
N3 C10 H10A 109.1 . .
C11 C10 H10A 109.1 . .
N3 C10 H10B 109.1 . .
C11 C10 H10B 109.1 . .
H10A C10 H10B 107.9 . .
N1 C11 C10 112.8(4) 2_666 .
N1 C11 H11A 109.0 2_666 .
C10 C11 H11A 109.0 . .
N1 C11 H11B 109.0 2_666 .
C10 C11 H11B 109.0 . .
H11A C11 H11B 107.8 . .
N2 C8' C9' 113.2(13) . .
N2 C8' H8'A 108.9 . .
C9' C8' H8'A 108.9 . .
N2 C8' H8'B 108.9 . .
C9' C8' H8'B 108.9 . .
H8'A C8' H8'B 107.7 . .
N3' C9' C8' 121.5(15) . .
N3' C9' H9'A 106.9 . .
C8' C9' H9'A 106.9 . .
N3' C9' H9'B 106.9 . .
C8' C9' H9'B 106.9 . .
H9'A C9' H9'B 106.7 . .
C10' N3' C9' 109.6(17) . .
C10' N3' Pt1 104.8(19) . .
C9' N3' Pt1 122.1(13) . .
C10' N3' H3' 106.5 . .
C9' N3' H3' 106.5 . .
Pt1 N3' H3' 106.5 . .
N3' C10' C11' 120.4(14) . .
N3' C10' H10C 107.2 . .
C11' C10' H10C 107.2 . .
N3' C10' H10D 107.2 . .
C11' C10' H10D 107.2 . .
H10C C10' H10D 106.9 . .
N1 C11' C10' 112.0(10) 2_666 .
N1 C11' H11C 109.2 2_666 .
C10' C11' H11C 109.2 . .
N1 C11' H11D 109.2 2_666 .
C10' C11' H11D 109.2 . .
H11C C11' H11D 107.9 . .
loop_
_geom_bond_atom_site_label_1
_geom_bond_atom_site_label_2
_geom_bond_distance
_geom_bond_site_symmetry_2
C1 N2 1.347(6) .
C1 N1 1.358(5) .
C1 Pt1 2.042(4) .
C2 C3 1.380(6) .
C2 C7 1.390(7) .
C2 N2 1.392(6) .
C3 N1 1.383(6) .
C3 C4 1.399(7) .
C4 C5 1.368(8) .
C4 H4A 0.9300 .
C5 C6 1.392(8) .
C5 H5A 0.9300 .
C6 C7 1.391(8) .
C6 H6A 0.9300 .
C7 H7A 0.9300 .
N1 C11' 1.451(5) 2_666
N1 C11 1.451(5) 2_666
N2 C8' 1.452(6) .
N2 C8 1.452(6) .
Pt1 C1 2.042(4) 2_666
Pt1 N3' 2.05(3) .
Pt1 N3' 2.05(3) 2_666
Pt1 N3 2.103(4) 2_666
Pt1 N3 2.103(4) .
P1 F5 1.566(10) .
P1 F1 1.570(10) .
P1 F6 1.575(10) .
P1 F3 1.594(10) .
P1 F4 1.594(11) .
P1 F2 1.598(10) .
P1' F6' 1.553(8) .
P1' F2' 1.576(8) .
P1' F1' 1.583(7) .
P1' F5' 1.589(8) .
P1' F3' 1.589(8) .
P1' F4' 1.616(8) .
C8 C9 1.493(9) .
C8 H8A 0.9700 .
C8 H8B 0.9700 .
C9 N3 1.503(6) .
C9 H9A 0.9700 .
C9 H9B 0.9700 .
N3 C10 1.479(6) .
N3 H3 0.91(6) .
C10 C11 1.493(7) .
C10 H10A 0.9700 .
C10 H10B 0.9700 .
C11 N1 1.451(5) 2_666
C11 H11A 0.9700 .
C11 H11B 0.9700 .
C8' C9' 1.497(18) .
C8' H8'A 0.9700 .
C8' H8'B 0.9700 .
C9' N3' 1.477(16) .
C9' H9'A 0.9700 .
C9' H9'B 0.9700 .
N3' C10' 1.461(16) .
N3' H3' 0.9800 .
C10' C11' 1.516(15) .
C10' H10C 0.9700 .
C10' H10D 0.9700 .
C11' N1 1.451(5) 2_666
C11' H11C 0.9700 .
C11' H11D 0.9700 .
