#------------------------------------------------------------------------------
#$Date: 2019-11-17 10:55:37 +0200 (Sun, 17 Nov 2019) $
#$Revision: 229453 $
#$URL: file:///home/coder/svn-repositories/cod/cif/7/04/51/7045166.cif $
#------------------------------------------------------------------------------
#
# This file is available in the Crystallography Open Database (COD),
# http://www.crystallography.net/
#
# All data on this site have been placed in the public domain by the
# contributors.
#
data_7045166
loop_
_publ_author_name
'Kobayashi, Atsushi'
'Yamamoto, Naotaka'
'Shigeta, Yasuhiro'
'Yoshida, Masaki'
'Kato, Masako'
_publ_section_title
;
 Two-way vapochromism of a luminescent platinum(ii) complex with
 phosphonic-acid-functionalized bipyridine ligand.
;
_journal_issue                   5
_journal_name_full
'Dalton transactions (Cambridge, England : 2003)'
_journal_page_first              1548
_journal_page_last               1556
_journal_paper_doi               10.1039/c7dt04324d
_journal_volume                  47
_journal_year                    2018
_chemical_formula_moiety         'C12 H20 N4 O11 P2 Pt'
_chemical_formula_sum            'C12 H20 N4 O11 P2 Pt'
_chemical_formula_weight         653.35
_space_group_crystal_system      triclinic
_space_group_IT_number           2
_space_group_name_Hall           '-P 1'
_space_group_name_H-M_alt        'P -1'
_symmetry_space_group_name_Hall  '-P 1'
_symmetry_space_group_name_H-M   'P -1'
_atom_sites_solution_hydrogens   geom
_atom_sites_solution_primary     direct
_atom_sites_solution_secondary   difmap
_audit_update_record
;
2017-12-20 deposited with the CCDC.
2017-12-27 downloaded from the CCDC.
;
_cell_angle_alpha                77.029(9)
_cell_angle_beta                 81.160(11)
_cell_angle_gamma                78.250(10)
_cell_formula_units_Z            2
_cell_length_a                   6.6588(14)
_cell_length_b                   11.753(2)
_cell_length_c                   13.471(3)
_cell_measurement_reflns_used    1720
_cell_measurement_temperature    83
_cell_measurement_theta_max      30.71
_cell_measurement_theta_min      3.24
_cell_volume                     999.4(4)
_computing_cell_refinement       CrystalClear
_computing_data_collection       'CrystalClear (Rigaku/MSC Inc., 2005)'
_computing_data_reduction        CrystalClear
_computing_molecular_graphics    'CrystalStructure 4.2'
_computing_publication_material  'CrystalStructure 4.2 (Rigaku, 2017)'
_computing_structure_refinement  'SHELXL Version 2014/3 (Sheldrick, 2008)'
_computing_structure_solution    'SIR2014 (Burla, et al., 2014)'
_diffrn_ambient_temperature      83
_diffrn_detector_area_resol_mean 7.314
_diffrn_measured_fraction_theta_full 0.998
_diffrn_measured_fraction_theta_max 0.991
_diffrn_measurement_device_type  'Rigaku Mercury70'
_diffrn_measurement_method       \w
_diffrn_radiation_type           synchrotron
_diffrn_radiation_wavelength     0.68890
_diffrn_reflns_av_R_equivalents  0.0346
_diffrn_reflns_Laue_measured_fraction_full 0.998
_diffrn_reflns_Laue_measured_fraction_max 0.991
_diffrn_reflns_limit_h_max       9
_diffrn_reflns_limit_h_min       -9
_diffrn_reflns_limit_k_max       16
_diffrn_reflns_limit_k_min       -16
_diffrn_reflns_limit_l_max       18
_diffrn_reflns_limit_l_min       -18
_diffrn_reflns_number            16901
_diffrn_reflns_point_group_measured_fraction_full 0.998
_diffrn_reflns_point_group_measured_fraction_max 0.991
_diffrn_reflns_theta_full        24.415
_diffrn_reflns_theta_max         28.580
_diffrn_reflns_theta_min         1.513
_diffrn_standards_number         0
_exptl_absorpt_coefficient_mu    0.000
_exptl_absorpt_correction_T_max  1.000
_exptl_absorpt_correction_T_min  0.451
_exptl_absorpt_correction_type   multi-scan
_exptl_absorpt_process_details   'REQAB (Rigaku, 1998)'
_exptl_crystal_colour            orange
_exptl_crystal_density_diffrn    2.171
_exptl_crystal_density_method    'not measured'
_exptl_crystal_description       platelet
_exptl_crystal_F_000             632.00
_exptl_crystal_preparation       Luminescent
_exptl_crystal_recrystallization_method
'Re-crystallisation from solvent: water and acetone'
_exptl_crystal_size_max          0.150
_exptl_crystal_size_mid          0.050
_exptl_crystal_size_min          0.030
_refine_diff_density_max         2.81
_refine_diff_density_min         -3.20
_refine_ls_extinction_method     none
_refine_ls_goodness_of_fit_ref   1.253
_refine_ls_hydrogen_treatment    constr
_refine_ls_number_parameters     275
_refine_ls_number_reflns         5542
_refine_ls_number_restraints     0
_refine_ls_R_factor_all          0.0327
_refine_ls_R_factor_gt           0.0288
_refine_ls_shift/su_max          0.000
_refine_ls_structure_factor_coef Fsqd
_refine_ls_weighting_details
'w = 1/[\s^2^(Fo^2^)+(0.0586P)^2^+1.4648P] where P=(Fo^2^+2Fc^2^)/3'
_refine_ls_weighting_scheme      calc
_refine_ls_wR_factor_gt          0.0806
_refine_ls_wR_factor_ref         0.0996
_reflns_Friedel_coverage         0.000
_reflns_number_gt                5263
_reflns_number_total             5542
_reflns_threshold_expression     F^2^>2.0\s(F^2^)
_cod_data_source_file            c7dt04324d2.cif
_cod_data_source_block           1P5H2O_83K
_cod_depositor_comments
'Adding full bibliography for 7045164--7045166.cif.'
_cod_database_code               7045166
_shelxl_version_number           2014-3
_shelx_res_file
;
TITL Pt(CN)2(4,4'-dpabpy)
CELL  0.68890 6.65880 11.75320 13.47100 77.02860 81.15960 78.25040
ZERR  2 0.00140 0.00240 0.00310 0.00940 0.01130 0.00960
LATT 1
SFAC C H N O P PT
UNIT 24 40 8 22 4 2
L.S. 15
FMAP 2
PLAN 25
WPDB -2
HTAB
BOND $H
CONF
LIST 4
TEMP -189.8
ACTA
SIZE 0.150 0.050 0.030
WGHT    0.058600    1.464800
FVAR       0.55559
PT1   6    0.253334    0.000194   -0.011958    11.00000    0.01102    0.01227 =
         0.01096   -0.00353   -0.00039   -0.00268
P1    5    0.104631   -0.218078    0.486337    11.00000    0.04182    0.02455 =
         0.01183   -0.00005    0.00044   -0.01032
P2    5    0.083850    0.452407    0.229446    11.00000    0.02929    0.01018 =
         0.01783   -0.00506    0.00081   -0.00351
O1    4    0.057679   -0.343260    0.498314    11.00000    0.08109    0.01987 =
         0.02552   -0.00647    0.01573   -0.01740
AFIX 147
H1A   2    0.102041   -0.368488    0.444010    11.00000   -1.20000
AFIX   0
O2    4   -0.084317   -0.133932    0.526170    11.00000    0.04770    0.03106 =
         0.01931   -0.00832    0.00330   -0.00962
AFIX 147
H2A   2   -0.191335   -0.145598    0.506996    11.00000   -1.20000
AFIX   0
O3    4    0.287107   -0.213686    0.536434    11.00000    0.04869    0.08387 =
         0.02080    0.00274   -0.01246   -0.01709
O4    4    0.214003    0.542381    0.161537    11.00000    0.03832    0.01142 =
         0.02387   -0.00488    0.00267   -0.00834
AFIX 147
H4A   2    0.335991    0.507791    0.149619    11.00000   -1.20000
AFIX   0
O5    4    0.163257    0.403807    0.333370    11.00000    0.05773    0.02240 =
         0.01894   -0.00381   -0.00450   -0.01545
AFIX 147
H5    2    0.063352    0.392607    0.378553    11.00000   -1.20000
AFIX   0
O6    4   -0.141219    0.505573    0.235095    11.00000    0.03166    0.02505 =
         0.04344   -0.01926    0.00514   -0.00218
O7    4    0.590681    0.465365    0.124025    11.00000    0.03152    0.01946 =
         0.03510   -0.01001    0.00196   -0.00885
O8    4    0.440761    0.409932    0.444842    11.00000    0.08315    0.09905 =
         0.06002   -0.02394   -0.02724    0.00203
O9    4    0.327512    0.364557    0.633077    11.00000    0.13676    0.05794 =
         0.04664   -0.01270    0.01299    0.01147
O10   4    0.603068   -0.104272    0.441127    11.00000    0.05535    0.09038 =
         0.03895   -0.01906   -0.00061   -0.01434
O11   4    0.585467    0.110004    0.334237    11.00000    0.19581    0.17216 =
         0.29701   -0.03448   -0.08179   -0.01654
N1    3    0.216519   -0.079867    0.140212    11.00000    0.01384    0.00894 =
         0.01018   -0.00309   -0.00054   -0.00307
N2    3    0.334133   -0.232809   -0.096120    11.00000    0.02059    0.02909 =
         0.02412   -0.01496    0.00099   -0.00425
N3    3    0.194967    0.147225    0.053777    11.00000    0.01148    0.01166 =
         0.01263   -0.00374    0.00006   -0.00236
N4    3    0.308345    0.142647   -0.235418    11.00000    0.02656    0.05259 =
         0.02097    0.00752   -0.00188   -0.01670
C1    1    0.229043   -0.196379    0.176624    11.00000    0.01942    0.01086 =
         0.01617   -0.00333   -0.00340   -0.00307
AFIX  43
H1    2    0.258851   -0.248762    0.129796    11.00000   -1.20000
AFIX   0
C2    1    0.199772   -0.242823    0.280705    11.00000    0.02863    0.01143 =
         0.01445   -0.00063   -0.00268   -0.00819
AFIX  43
H2    2    0.211869   -0.326067    0.304812    11.00000   -1.20000
AFIX   0
C3    1    0.152542   -0.166593    0.349592    11.00000    0.02477    0.01039 =
         0.01389    0.00029   -0.00188   -0.00649
C4    1    0.139161   -0.045029    0.311244    11.00000    0.02763    0.01203 =
         0.01065   -0.00329   -0.00181   -0.00646
AFIX  43
H4    2    0.106328    0.008996    0.356684    11.00000   -1.20000
AFIX   0
C5    1    0.174059   -0.003625    0.206490    11.00000    0.01346    0.01005 =
         0.01192   -0.00268   -0.00189   -0.00327
C6    1    0.305116   -0.146032   -0.065649    11.00000    0.01509    0.02062 =
         0.01403   -0.00765   -0.00193   -0.00345
C7    1    0.165433    0.122951    0.158321    11.00000    0.01378    0.00898 =
         0.01293   -0.00202    0.00064   -0.00329
C8    1    0.131940    0.212764    0.213772    11.00000    0.01931    0.01167 =
         0.01208   -0.00370    0.00078   -0.00436
AFIX  43
H8    2    0.111975    0.194410    0.286568    11.00000   -1.20000
AFIX   0
C9    1    0.127757    0.330182    0.161989    11.00000    0.01984    0.00694 =
         0.01910   -0.00453   -0.00081   -0.00051
C10   1    0.157808    0.352035    0.054766    11.00000    0.02010    0.01271 =
         0.01835   -0.00163   -0.00124   -0.00170
AFIX  43
H10   2    0.156913    0.430866    0.017231    11.00000   -1.20000
AFIX   0
C11   1    0.188652    0.260001    0.003373    11.00000    0.01569    0.01639 =
         0.01261   -0.00036    0.00018   -0.00277
AFIX  43
H11   2    0.205874    0.276665   -0.069463    11.00000   -1.20000
AFIX   0
C12   1    0.286917    0.088080   -0.153637    11.00000    0.01412    0.02449 =
         0.01436   -0.00133   -0.00090   -0.00646
HKLF 4

REM  Pt(CN)2(4,4'-dpabpy)
REM R1 =  0.0288 for    5263 Fo > 4sig(Fo)  and  0.0327 for all    5542 data
REM    275 parameters refined using      0 restraints

END

WGHT      0.0586      1.4648

REM Instructions for potential hydrogen bonds
EQIV $1 x-1, y, z
HTAB O2 O10_$1
HTAB O4 O7
EQIV $2 -x, -y, -z+1
HTAB O5 O1_$2
EQIV $3 x, y-1, z
HTAB C1 O4_$3
HTAB C4 O2_$2
HTAB C8 O2_$2
EQIV $4 -x+1, -y+1, -z
HTAB C10 O7_$4

REM Highest difference peak  2.812,  deepest hole -3.196,  1-sigma level  0.446
Q1    1   0.5612  0.5015  0.4045  11.00000  0.05    1.73
Q2    1   0.2216 -0.2557  0.4856  11.00000  0.05    1.59
Q3    1   0.5428 -0.0739  0.5012  11.00000  0.05    1.32
Q4    1   0.6274 -0.2220  0.4437  11.00000  0.05    1.09
Q5    1   0.4979 -0.1378  0.4972  11.00000  0.05    1.07
Q6    1   0.5954 -0.2156  0.4922  11.00000  0.05    1.02
Q7    1   0.6691  0.4707  0.1561  11.00000  0.05    1.02
Q8    1   0.4152 -0.1318  0.5392  11.00000  0.05    1.00
Q9    1   0.6201  0.4003  0.1020  11.00000  0.05    0.99
Q10   1   0.5878  0.4565  0.2124  11.00000  0.05    0.97
Q11   1   0.1632 -0.1454  0.5582  11.00000  0.05    0.93
Q12   1   0.2063 -0.1222  0.5387  11.00000  0.05    0.91
Q13   1   0.4094  0.5093  0.0467  11.00000  0.05    0.89
Q14   1  -0.2763  0.5448  0.1611  11.00000  0.05    0.88
Q15   1   0.1583  0.4720  0.1732  11.00000  0.05    0.87
Q16   1   0.6508  0.0392  0.4615  11.00000  0.05    0.85
Q17   1   0.5638  0.0024  0.4454  11.00000  0.05    0.85
Q18   1  -0.0377  0.0058  0.4636  11.00000  0.05    0.84
Q19   1   0.0427 -0.1459  0.5334  11.00000  0.05    0.83
Q20   1   0.0493  0.5403  0.0133  11.00000  0.05    0.82
Q21   1   0.7076  0.0216  0.4406  11.00000  0.05    0.82
Q22   1   0.3559 -0.3383  0.5000  11.00000  0.05    0.82
Q23   1   0.5145  0.4649  0.0586  11.00000  0.05    0.81
Q24   1   0.4829  0.4860  0.1370  11.00000  0.05    0.81
Q25   1  -0.0689  0.0188  0.4905  11.00000  0.05    0.80
;
_shelx_res_checksum              23023
loop_
_space_group_symop_id
_space_group_symop_operation_xyz
1 +X,+Y,+Z
2 -X,-Y,-Z
loop_
_atom_site_label
_atom_site_type_symbol
_atom_site_fract_x
_atom_site_fract_y
_atom_site_fract_z
_atom_site_U_iso_or_equiv
_atom_site_adp_type
_atom_site_occupancy
_atom_site_site_symmetry_order
_atom_site_calc_flag
_atom_site_refinement_flags_posn
_atom_site_refinement_flags_adp
Pt1 Pt 0.25333(2) 0.00019(2) -0.01196(2) 0.01122(7) Uani 1 1 d . .
P1 P 0.1046(3) -0.21808(13) 0.48634(10) 0.0264(3) Uani 1 1 d . .
P2 P 0.0838(2) 0.45241(11) 0.22945(10) 0.0191(2) Uani 1 1 d . .
O1 O 0.0577(10) -0.3433(4) 0.4983(4) 0.0430(13) Uani 1 1 d . .
H1A H 0.1020 -0.3685 0.4440 0.052 Uiso 1 1 calc R U
O2 O -0.0843(8) -0.1339(4) 0.5262(3) 0.0325(9) Uani 1 1 d . .
H2A H -0.1913 -0.1456 0.5070 0.039 Uiso 1 1 calc R U
O3 O 0.2871(9) -0.2137(6) 0.5364(4) 0.0515(14) Uani 1 1 d . .
O4 O 0.2140(7) 0.5424(3) 0.1615(3) 0.0244(8) Uani 1 1 d . .
H4A H 0.3360 0.5078 0.1496 0.029 Uiso 1 1 calc R U
O5 O 0.1633(8) 0.4038(4) 0.3334(3) 0.0318(9) Uani 1 1 d . .
H5 H 0.0634 0.3926 0.3786 0.038 Uiso 1 1 calc R U
O6 O -0.1412(7) 0.5056(4) 0.2351(4) 0.0328(10) Uani 1 1 d . .
O7 O 0.5907(6) 0.4654(3) 0.1240(3) 0.0279(8) Uani 1 1 d . .
O8 O 0.4408(13) 0.4099(8) 0.4448(6) 0.080(2) Uani 1 1 d . .
O9 O 0.3275(15) 0.3646(6) 0.6331(6) 0.087(3) Uani 1 1 d . .
O10 O 0.6031(10) -0.1043(6) 0.4411(5) 0.0609(16) Uani 1 1 d . .
O11 O 0.585(3) 0.1100(15) 0.3342(17) 0.220(9) Uani 1 1 d . .
N1 N 0.2165(6) -0.0799(3) 0.1402(3) 0.0107(7) Uani 1 1 d . .
N2 N 0.3341(7) -0.2328(4) -0.0961(4) 0.0234(9) Uani 1 1 d . .
N3 N 0.1950(6) 0.1472(4) 0.0538(3) 0.0118(7) Uani 1 1 d . .
N4 N 0.3083(8) 0.1426(5) -0.2354(4) 0.0344(12) Uani 1 1 d . .
C1 C 0.2290(7) -0.1964(4) 0.1766(4) 0.0152(8) Uani 1 1 d . .
H1 H 0.2589 -0.2488 0.1298 0.018 Uiso 1 1 calc R U
C2 C 0.1998(8) -0.2428(4) 0.2807(4) 0.0178(9) Uani 1 1 d . .
H2 H 0.2119 -0.3261 0.3048 0.021 Uiso 1 1 calc R U
C3 C 0.1525(8) -0.1666(4) 0.3496(4) 0.0163(8) Uani 1 1 d . .
C4 C 0.1392(8) -0.0450(4) 0.3112(3) 0.0162(8) Uani 1 1 d . .
H4 H 0.1063 0.0090 0.3567 0.019 Uiso 1 1 calc R U
C5 C 0.1741(7) -0.0036(4) 0.2065(3) 0.0115(7) Uani 1 1 d . .
C6 C 0.3051(8) -0.1460(5) -0.0656(4) 0.0158(8) Uani 1 1 d . .
C7 C 0.1654(7) 0.1230(4) 0.1583(3) 0.0120(7) Uani 1 1 d . .
C8 C 0.1319(7) 0.2128(4) 0.2138(3) 0.0142(8) Uani 1 1 d . .
H8 H 0.1120 0.1944 0.2866 0.017 Uiso 1 1 calc R U
C9 C 0.1278(7) 0.3302(4) 0.1620(4) 0.0154(8) Uani 1 1 d . .
C10 C 0.1578(7) 0.3520(4) 0.0548(4) 0.0176(9) Uani 1 1 d . .
H10 H 0.1569 0.4309 0.0172 0.021 Uiso 1 1 calc R U
C11 C 0.1887(7) 0.2600(4) 0.0034(4) 0.0155(8) Uani 1 1 d . .
H11 H 0.2059 0.2767 -0.0695 0.019 Uiso 1 1 calc R U
C12 C 0.2869(8) 0.0881(5) -0.1536(4) 0.0177(9) Uani 1 1 d . .
loop_
_atom_site_aniso_label
_atom_site_aniso_U_11
_atom_site_aniso_U_22
_atom_site_aniso_U_33
_atom_site_aniso_U_23
_atom_site_aniso_U_13
_atom_site_aniso_U_12
Pt1 0.01102(10) 0.01227(10) 0.01096(10) -0.00353(6) -0.00039(6) -0.00268(6)
P1 0.0418(8) 0.0245(7) 0.0118(5) -0.0001(5) 0.0004(5) -0.0103(6)
P2 0.0293(6) 0.0102(5) 0.0178(6) -0.0051(4) 0.0008(5) -0.0035(5)
O1 0.081(4) 0.020(2) 0.026(2) -0.0065(17) 0.016(2) -0.017(2)
O2 0.048(3) 0.031(2) 0.0193(18) -0.0083(16) 0.0033(18) -0.0096(19)
O3 0.049(3) 0.084(4) 0.021(2) 0.003(2) -0.012(2) -0.017(3)
O4 0.038(2) 0.0114(15) 0.0239(18) -0.0049(14) 0.0027(16) -0.0083(14)
O5 0.058(3) 0.0224(19) 0.0189(18) -0.0038(15) -0.0045(18) -0.0154(19)
O6 0.032(2) 0.025(2) 0.043(3) -0.0193(19) 0.0051(19) -0.0022(17)
O7 0.032(2) 0.0195(18) 0.035(2) -0.0100(16) 0.0020(17) -0.0089(15)
O8 0.083(5) 0.099(6) 0.060(5) -0.024(4) -0.027(4) 0.002(4)
O9 0.137(7) 0.058(4) 0.047(4) -0.013(3) 0.013(4) 0.011(4)
O10 0.055(4) 0.090(5) 0.039(3) -0.019(3) -0.001(3) -0.014(3)
O11 0.196(15) 0.172(14) 0.30(3) -0.034(15) -0.082(17) -0.017(12)
N1 0.0138(17) 0.0089(16) 0.0102(15) -0.0031(12) -0.0005(13) -0.0031(13)
N2 0.021(2) 0.029(2) 0.024(2) -0.0150(18) 0.0010(17) -0.0043(17)
N3 0.0115(16) 0.0117(17) 0.0126(16) -0.0037(13) 0.0001(13) -0.0024(13)
N4 0.027(2) 0.053(3) 0.021(2) 0.008(2) -0.0019(19) -0.017(2)
C1 0.019(2) 0.0109(19) 0.016(2) -0.0033(15) -0.0034(16) -0.0031(16)
C2 0.029(2) 0.0114(19) 0.014(2) -0.0006(16) -0.0027(17) -0.0082(17)
C3 0.025(2) 0.0104(19) 0.0139(19) 0.0003(15) -0.0019(17) -0.0065(16)
C4 0.028(2) 0.0120(19) 0.0106(18) -0.0033(15) -0.0018(17) -0.0065(17)
C5 0.0135(18) 0.0100(17) 0.0119(18) -0.0027(14) -0.0019(14) -0.0033(14)
C6 0.015(2) 0.021(2) 0.0140(19) -0.0077(17) -0.0019(16) -0.0035(17)
C7 0.0138(18) 0.0090(17) 0.0129(18) -0.0020(14) 0.0006(15) -0.0033(14)
C8 0.019(2) 0.0117(19) 0.0121(18) -0.0037(15) 0.0008(15) -0.0044(16)
C9 0.020(2) 0.0069(17) 0.019(2) -0.0045(15) -0.0008(16) -0.0005(15)
C10 0.020(2) 0.0127(19) 0.018(2) -0.0016(16) -0.0012(17) -0.0017(16)
C11 0.0157(19) 0.016(2) 0.0126(19) -0.0004(16) 0.0002(15) -0.0028(16)
C12 0.014(2) 0.024(2) 0.014(2) -0.0013(17) -0.0009(16) -0.0065(18)
loop_
_atom_type_symbol
_atom_type_description
_atom_type_scat_dispersion_real
_atom_type_scat_dispersion_imag
_atom_type_scat_source
C C 0.0000 0.0000
;
International Tables for Crystallography
(Vol. C, Tables 4.2.6.8 and 6.1.1.4)
;
H H 0.0000 0.0000
;
International Tables for Crystallography
(Vol. C, Table 6.1.1.4)
;
N N 0.0000 0.0000
;
International Tables for Crystallography
(Vol. C, Tables 4.2.6.8 and 6.1.1.4)
;
O O 0.0000 0.0000
;
International Tables for Crystallography
(Vol. C, Tables 4.2.6.8 and 6.1.1.4)
;
P P 0.0000 0.0000
;
International Tables for Crystallography
(Vol. C, Tables 4.2.6.8 and 6.1.1.4)
;
Pt Pt 0.0000 0.0000
;
International Tables for Crystallography
(Vol. C, Tables 4.2.6.8 and 6.1.1.4)
;
loop_
_geom_angle_atom_site_label_1
_geom_angle_atom_site_label_2
_geom_angle_atom_site_label_3
_geom_angle
C6 Pt1 C12 88.2(2)
C6 Pt1 N1 96.17(18)
C12 Pt1 N1 175.59(16)
C6 Pt1 N3 176.27(16)
C12 Pt1 N3 95.49(19)
N1 Pt1 N3 80.12(15)
O3 P1 O1 114.2(4)
O3 P1 O2 109.3(3)
O1 P1 O2 111.3(3)
O3 P1 C3 109.8(3)
O1 P1 C3 104.5(2)
O2 P1 C3 107.5(2)
O6 P2 O5 114.1(3)
O6 P2 O4 110.4(2)
O5 P2 O4 111.2(2)
O6 P2 C9 108.6(2)
O5 P2 C9 107.5(2)
O4 P2 C9 104.5(2)
P1 O1 H1A 109.5
P1 O2 H2A 109.5
P2 O4 H4A 109.5
P2 O5 H5 109.5
C1 N1 C5 119.7(4)
C1 N1 Pt1 125.6(3)
C5 N1 Pt1 114.6(3)
C11 N3 C7 119.5(4)
C11 N3 Pt1 126.0(3)
C7 N3 Pt1 114.5(3)
N1 C1 C2 121.8(4)
N1 C1 H1 119.1
C2 C1 H1 119.1
C1 C2 C3 119.4(4)
C1 C2 H2 120.3
C3 C2 H2 120.3
C2 C3 C4 118.6(4)
C2 C3 P1 122.8(3)
C4 C3 P1 118.7(4)
C5 C4 C3 119.6(4)
C5 C4 H4 120.2
C3 C4 H4 120.2
N1 C5 C4 120.8(4)
N1 C5 C7 115.3(4)
C4 C5 C7 123.8(4)
N2 C6 Pt1 179.1(5)
N3 C7 C8 121.2(4)
N3 C7 C5 115.4(4)
C8 C7 C5 123.4(4)
C7 C8 C9 119.7(4)
C7 C8 H8 120.2
C9 C8 H8 120.2
C8 C9 C10 117.7(4)
C8 C9 P2 122.1(4)
C10 C9 P2 120.2(3)
C11 C10 C9 120.4(4)
C11 C10 H10 119.8
C9 C10 H10 119.8
N3 C11 C10 121.5(4)
N3 C11 H11 119.2
C10 C11 H11 119.2
N4 C12 Pt1 177.6(5)
loop_
_geom_bond_atom_site_label_1
_geom_bond_atom_site_label_2
_geom_bond_distance
Pt1 C6 1.958(5)
Pt1 C12 1.959(5)
Pt1 N1 2.055(4)
Pt1 N3 2.056(4)
P1 O3 1.493(5)
P1 O1 1.534(5)
P1 O2 1.540(5)
P1 C3 1.805(5)
P2 O6 1.499(4)
P2 O5 1.520(4)
P2 O4 1.550(4)
P2 C9 1.819(5)
O1 H1A 0.8400
O2 H2A 0.8400
O4 H4A 0.8400
O5 H5 0.8400
N1 C1 1.337(6)
N1 C5 1.363(5)
N2 C6 1.153(7)
N3 C11 1.342(6)
N3 C7 1.364(6)
N4 C12 1.148(7)
C1 C2 1.385(6)
C1 H1 0.9500
C2 C3 1.390(6)
C2 H2 0.9500
C3 C4 1.395(6)
C4 C5 1.385(6)
C4 H4 0.9500
C5 C7 1.477(6)
C7 C8 1.389(6)
C8 C9 1.396(6)
C8 H8 0.9500
C9 C10 1.399(7)
C10 C11 1.376(7)
C10 H10 0.9500
C11 H11 0.9500
loop_
_geom_hbond_atom_site_label_D
_geom_hbond_atom_site_label_H
_geom_hbond_atom_site_label_A
_geom_hbond_site_symmetry_A
_geom_hbond_distance_DA
_geom_hbond_distance_DH
_geom_hbond_distance_HA
_geom_hbond_angle_DHA
_geom_hbond_publ_flag
O2 H2A O10 1_455 2.455(9) 0.840 1.675 153.2 no
O4 H4A O7 . 2.501(6) 0.840 1.672 168.7 no
O5 H5 O1 2_556 2.547(7) 0.840 1.756 156.1 no
loop_
_geom_torsion_atom_site_label_1
_geom_torsion_atom_site_label_2
_geom_torsion_atom_site_label_3
_geom_torsion_atom_site_label_4
_geom_torsion
C5 N1 C1 C2 0.1(7)
Pt1 N1 C1 C2 -179.3(4)
N1 C1 C2 C3 1.1(7)
C1 C2 C3 C4 -0.9(7)
C1 C2 C3 P1 178.3(4)
O3 P1 C3 C2 104.7(5)
O1 P1 C3 C2 -18.2(5)
O2 P1 C3 C2 -136.6(4)
O3 P1 C3 C4 -76.1(5)
O1 P1 C3 C4 161.0(4)
O2 P1 C3 C4 42.6(5)
C2 C3 C4 C5 -0.4(7)
P1 C3 C4 C5 -179.6(4)
C1 N1 C5 C4 -1.4(7)
Pt1 N1 C5 C4 178.0(3)
C1 N1 C5 C7 179.5(4)
Pt1 N1 C5 C7 -1.1(5)
C3 C4 C5 N1 1.6(7)
C3 C4 C5 C7 -179.5(4)
C11 N3 C7 C8 -1.0(7)
Pt1 N3 C7 C8 177.6(3)
C11 N3 C7 C5 179.6(4)
Pt1 N3 C7 C5 -1.7(5)
N1 C5 C7 N3 1.9(6)
C4 C5 C7 N3 -177.2(4)
N1 C5 C7 C8 -177.5(4)
C4 C5 C7 C8 3.5(7)
N3 C7 C8 C9 0.2(7)
C5 C7 C8 C9 179.5(4)
C7 C8 C9 C10 0.1(7)
C7 C8 C9 P2 179.8(3)
O6 P2 C9 C8 -95.4(4)
O5 P2 C9 C8 28.5(5)
O4 P2 C9 C8 146.8(4)
O6 P2 C9 C10 84.3(4)
O5 P2 C9 C10 -151.8(4)
O4 P2 C9 C10 -33.5(5)
C8 C9 C10 C11 0.5(7)
P2 C9 C10 C11 -179.2(4)
C7 N3 C11 C10 1.6(7)
Pt1 N3 C11 C10 -176.9(3)
C9 C10 C11 N3 -1.3(7)
