#------------------------------------------------------------------------------
#$Date: 2019-11-17 12:07:58 +0200 (Sun, 17 Nov 2019) $
#$Revision: 229785 $
#$URL: file:///home/coder/svn-repositories/cod/cif/7/04/54/7045436.cif $
#------------------------------------------------------------------------------
#
# This file is available in the Crystallography Open Database (COD),
# http://www.crystallography.net/
#
# All data on this site have been placed in the public domain by the
# contributors.
#
data_7045436
loop_
_publ_author_name
'Chang, Yao-Pang'
'Hector, Andrew L.'
'Levason, William'
'Reid, Gillian'
'Whittam, Joshua'
_publ_section_title
;
 Synthesis and properties of MoCl<sub>4</sub> complexes with thio- and
 seleno-ethers and their use for chemical vapour deposition of
 MoSe<sub>2</sub> and MoS<sub>2</sub> films.
;
_journal_issue                   7
_journal_name_full
'Dalton transactions (Cambridge, England : 2003)'
_journal_page_first              2406
_journal_page_last               2414
_journal_paper_doi               10.1039/c7dt04352j
_journal_volume                  47
_journal_year                    2018
_chemical_formula_moiety         'C4 H10 Cl4 Mo S2'
_chemical_formula_sum            'C4 H10 Cl4 Mo S2'
_chemical_formula_weight         359.98
_chemical_properties_physical
', Air-sensitive,Moisture-sensitive,Oxygen-sensitive'
_space_group_crystal_system      monoclinic
_space_group_IT_number           4
_space_group_name_Hall           'P 2yb'
_space_group_name_H-M_alt        'P 1 21 1'
_symmetry_space_group_name_Hall  'P 2yb'
_symmetry_space_group_name_H-M   'P 1 21 1'
_atom_sites_solution_hydrogens   geom
_audit_creation_method           SHELXL-2014/7
_audit_update_record
;
2017-06-20 deposited with the CCDC.
2017-12-18 downloaded from the CCDC.
;
_cell_angle_alpha                90
_cell_angle_beta                 115.913(11)
_cell_angle_gamma                90
_cell_formula_units_Z            2
_cell_length_a                   7.1386(6)
_cell_length_b                   11.1622(6)
_cell_length_c                   7.8033(7)
_cell_measurement_reflns_used    3685
_cell_measurement_temperature    100(2)
_cell_measurement_theta_max      32.3640
_cell_measurement_theta_min      2.8700
_cell_volume                     559.27(9)
_computing_cell_refinement       'Bruker FRAMBO'
_computing_data_collection       'Bruker FRAMBO'
_computing_data_reduction        'Bruker SAINT'
_computing_molecular_graphics    'Bruker SHELXTL'
_computing_publication_material  'Bruker SHELXTL'
_computing_structure_refinement  'SHELXL-2014/7 (Sheldrick, 2014)'
_computing_structure_solution    'Bruker SHELXTL'
_diffrn_ambient_temperature      100(2)
_diffrn_detector_area_resol_mean 28.5714
_diffrn_measured_fraction_theta_full 1.000
_diffrn_measured_fraction_theta_max 1.000
_diffrn_measurement_device_type  'Rigaku AFC12 (Right)'
_diffrn_measurement_method       'profile data from \w-scans'
_diffrn_radiation_type           MoK\a
_diffrn_radiation_wavelength     0.71073
_diffrn_reflns_av_R_equivalents  0.0603
_diffrn_reflns_av_unetI/netI     0.0557
_diffrn_reflns_Laue_measured_fraction_full 1.000
_diffrn_reflns_Laue_measured_fraction_max 1.000
_diffrn_reflns_limit_h_max       8
_diffrn_reflns_limit_h_min       -8
_diffrn_reflns_limit_k_max       13
_diffrn_reflns_limit_k_min       -13
_diffrn_reflns_limit_l_max       9
_diffrn_reflns_limit_l_min       -9
_diffrn_reflns_number            5766
_diffrn_reflns_point_group_measured_fraction_full 1.000
_diffrn_reflns_point_group_measured_fraction_max 1.000
_diffrn_reflns_theta_full        25.242
_diffrn_reflns_theta_max         25.998
_diffrn_reflns_theta_min         2.902
_diffrn_source                   'Rotating Anode'
_exptl_absorpt_coefficient_mu    2.442
_exptl_absorpt_correction_T_max  1.00000
_exptl_absorpt_correction_T_min  0.42069
_exptl_absorpt_correction_type   multi-scan
_exptl_absorpt_process_details
; 
CrysAlisPro 1.171.38.41 (Rigaku Oxford Diffraction, 2015) 
Empirical absorption correction using spherical harmonics, 
 implemented in SCALE3 ABSPACK scaling algorithm. 
;
_exptl_crystal_colour            orange
_exptl_crystal_density_diffrn    2.138
_exptl_crystal_description       plate
_exptl_crystal_F_000             352
_exptl_crystal_recrystallization_method
'Re-crystallisation from solvent: CH2Cl2'
_exptl_crystal_size_max          0.041
_exptl_crystal_size_mid          0.035
_exptl_crystal_size_min          0.031
_refine_diff_density_max         1.171
_refine_diff_density_min         -1.198
_refine_diff_density_rms         0.163
_refine_ls_abs_structure_details
; 
 Refined as an inversion twin. 
;
_refine_ls_abs_structure_Flack   -0.13(16)
_refine_ls_extinction_method     none
_refine_ls_goodness_of_fit_ref   1.022
_refine_ls_hydrogen_treatment    constr
_refine_ls_matrix_type           full
_refine_ls_number_parameters     103
_refine_ls_number_reflns         2142
_refine_ls_number_restraints     1
_refine_ls_restrained_S_all      1.022
_refine_ls_R_factor_all          0.0556
_refine_ls_R_factor_gt           0.0471
_refine_ls_shift/su_max          0.000
_refine_ls_shift/su_mean         0.000
_refine_ls_structure_factor_coef Fsqd
_refine_ls_weighting_details
'w=1/[\s^2^(Fo^2^)+(0.0858P)^2^] where P=(Fo^2^+2Fc^2^)/3'
_refine_ls_weighting_scheme      calc
_refine_ls_wR_factor_gt          0.1177
_refine_ls_wR_factor_ref         0.1223
_reflns_Friedel_coverage         0.898
_reflns_Friedel_fraction_full    1.000
_reflns_Friedel_fraction_max     1.000
_reflns_number_gt                1903
_reflns_number_total             2142
_reflns_threshold_expression     'I > 2\s(I)'
_cod_data_source_file            c7dt04352j2.cif
_cod_data_source_block           2016_1709r4
_cod_depositor_comments
'Adding full bibliography for 7045431--7045436.cif.'
_cod_database_code               7045436
_shelx_shelxl_version_number     2014/7
_shelx_space_group_comment
; 
The symmetry employed for this shelxl refinement is uniquely defined 
by the following loop, which should always be used as a source of 
symmetry information in preference to the above space-group names. 
They are only intended as comments. 
;
_shelx_res_file
; 
  
    2016_1709r4.res created by SHELXL-2014/7 
  
  
TITL 2016_1709r4 in P2(1) 
CELL 0.71073   7.1386  11.1622   7.8033  90.000 115.913  90.000 
ZERR    2.00   0.0006   0.0006   0.0007   0.000   0.011   0.000 
LATT -1 
SYMM -X, 0.5+Y, -Z 
SFAC C  H  S  Cl Mo 
UNIT 8 20 4 8 2 
OMIT  -4.00  52.00 
L.S. 4 
ACTA 
BOND $H 
FMAP 2 
PLAN 10 
TWIN 
TEMP -173 
WGHT    0.085800 
BASF  -0.12563 
FVAR       3.17694 
MO1   5    0.693336    0.073418    0.250659    11.00000    0.01765    0.01979 = 
         0.03329    0.00310    0.01439   -0.00001 
CL1   4    0.425347    0.172971    0.008172    11.00000    0.02188    0.02282 = 
         0.03476    0.00503    0.01622    0.00480 
CL2   4    0.986095   -0.040980    0.417205    11.00000    0.02047    0.02827 = 
         0.04714    0.01137    0.01247    0.00459 
CL3   4    0.703684    0.185881    0.493424    11.00000    0.03651    0.03005 = 
         0.03802   -0.00359    0.02170   -0.00340 
CL4   4    0.469385   -0.074343    0.267207    11.00000    0.02351    0.02054 = 
         0.03647   -0.00025    0.01910   -0.00394 
S1    3    0.908608    0.232733    0.192081    11.00000    0.02097    0.01755 = 
         0.03484   -0.00121    0.01814   -0.00163 
S2    3    0.738969   -0.038459   -0.019544    11.00000    0.02092    0.01743 = 
         0.03295   -0.00012    0.01624    0.00022 
C1    1    1.179766    0.212512    0.350763    11.00000    0.02370    0.02834 = 
         0.03914   -0.00089    0.01517   -0.01007 
AFIX 137 
H1A   2    1.217294    0.128026    0.351156    11.00000   -1.50000 
H1B   2    1.205192    0.236610    0.479866    11.00000   -1.50000 
H1C   2    1.264530    0.261885    0.307710    11.00000   -1.50000 
AFIX   0 
C2    1    0.896768    0.185407   -0.035083    11.00000    0.02086    0.02992 = 
         0.03082    0.00102    0.02000    0.00296 
AFIX  23 
H2A   2    0.758204    0.206473   -0.137257    11.00000   -1.20000 
H2B   2    1.002424    0.230564   -0.058913    11.00000   -1.20000 
AFIX   0 
C3    1    0.932870    0.054023   -0.046921    11.00000    0.01809    0.03475 = 
         0.03406    0.00026    0.01312   -0.00334 
AFIX  23 
H3A   2    1.072334    0.032809    0.053622    11.00000   -1.20000 
H3B   2    0.931763    0.036559   -0.171745    11.00000   -1.20000 
AFIX   0 
C4    1    0.514035   -0.019247   -0.244317    11.00000    0.02450    0.02957 = 
         0.03287   -0.00425    0.01706   -0.00057 
AFIX 137 
H4A   2    0.491732    0.066299   -0.274707    11.00000   -1.50000 
H4B   2    0.391339   -0.052853   -0.236195    11.00000   -1.50000 
H4C   2    0.536554   -0.060727   -0.344439    11.00000   -1.50000 
AFIX   0 
HKLF 4 
  
REM  2016_1709r4 in P2(1) 
REM R1 =  0.0471 for    1903 Fo > 4sig(Fo)  and  0.0556 for all    2142 data 
REM    103 parameters refined using      1 restraints 
  
END 
  
WGHT      0.0858      0.0000 
  
REM Highest difference peak  1.171,  deepest hole -1.198,  1-sigma level  0.163 
Q1    1   0.6352  0.1293  0.1576  11.00000  0.05    1.17 
Q2    1   0.7384  0.0132  0.3407  11.00000  0.05    1.14 
Q3    1   0.7343  0.1287  0.3438  11.00000  0.05    1.12 
Q4    1   0.6372  0.0182  0.1572  11.00000  0.05    1.11 
Q5    1   0.6666 -0.0082 -0.1382  11.00000  0.05    0.62 
Q6    1   0.7482  0.2552  0.5659  11.00000  0.05    0.60 
Q7    1   0.3873  0.2326 -0.0808  11.00000  0.05    0.59 
Q8    1   0.5001  0.2237  0.0865  11.00000  0.05    0.59 
Q9    1   0.8590  0.3006  0.1257  11.00000  0.05    0.59 
Q10   1   0.5314 -0.1424  0.3552  11.00000  0.05    0.58 
;
_shelx_res_checksum              24247
loop_
_space_group_symop_operation_xyz
'x, y, z'
'-x, y+1/2, -z'
loop_
_atom_site_label
_atom_site_type_symbol
_atom_site_fract_x
_atom_site_fract_y
_atom_site_fract_z
_atom_site_U_iso_or_equiv
_atom_site_adp_type
_atom_site_occupancy
_atom_site_site_symmetry_order
_atom_site_calc_flag
_atom_site_refinement_flags_posn
_atom_site_refinement_flags_adp
Mo1 Mo 0.69334(14) 0.07342(8) 0.25066(13) 0.0224(3) Uani 1 1 d . .
Cl1 Cl 0.4253(4) 0.1730(2) 0.0082(4) 0.0251(6) Uani 1 1 d . .
Cl2 Cl 0.9861(4) -0.0410(3) 0.4172(5) 0.0328(7) Uani 1 1 d . .
Cl3 Cl 0.7037(5) 0.1859(3) 0.4934(5) 0.0329(7) Uani 1 1 d . .
Cl4 Cl 0.4694(4) -0.0743(2) 0.2672(4) 0.0247(6) Uani 1 1 d . .
S1 S 0.9086(4) 0.2327(2) 0.1921(4) 0.0223(6) Uani 1 1 d . .
S2 S 0.7390(4) -0.0385(2) -0.0195(4) 0.0222(6) Uani 1 1 d . .
C1 C 1.1798(18) 0.2125(10) 0.3508(19) 0.030(3) Uani 1 1 d . .
H1A H 1.2173 0.1280 0.3512 0.045 Uiso 1 1 calc R U
H1B H 1.2052 0.2366 0.4799 0.045 Uiso 1 1 calc R U
H1C H 1.2645 0.2619 0.3077 0.045 Uiso 1 1 calc R U
C2 C 0.8968(18) 0.1854(10) -0.0351(17) 0.024(2) Uani 1 1 d . .
H2A H 0.7582 0.2065 -0.1373 0.029 Uiso 1 1 calc R U
H2B H 1.0024 0.2306 -0.0589 0.029 Uiso 1 1 calc R U
C3 C 0.9329(17) 0.0540(10) -0.0469(17) 0.028(3) Uani 1 1 d . .
H3A H 1.0723 0.0328 0.0536 0.034 Uiso 1 1 calc R U
H3B H 0.9318 0.0366 -0.1717 0.034 Uiso 1 1 calc R U
C4 C 0.5140(17) -0.0192(10) -0.2443(17) 0.027(3) Uani 1 1 d . .
H4A H 0.4917 0.0663 -0.2747 0.041 Uiso 1 1 calc R U
H4B H 0.3913 -0.0529 -0.2362 0.041 Uiso 1 1 calc R U
H4C H 0.5366 -0.0607 -0.3444 0.041 Uiso 1 1 calc R U
loop_
_atom_site_aniso_label
_atom_site_aniso_U_11
_atom_site_aniso_U_22
_atom_site_aniso_U_33
_atom_site_aniso_U_23
_atom_site_aniso_U_13
_atom_site_aniso_U_12
Mo1 0.0176(4) 0.0198(4) 0.0333(5) 0.0031(4) 0.0144(4) 0.0000(4)
Cl1 0.0219(13) 0.0228(12) 0.0348(16) 0.0050(11) 0.0162(12) 0.0048(10)
Cl2 0.0205(13) 0.0283(13) 0.0471(18) 0.0114(13) 0.0125(12) 0.0046(11)
Cl3 0.0365(16) 0.0300(14) 0.0380(16) -0.0036(13) 0.0217(13) -0.0034(12)
Cl4 0.0235(13) 0.0205(11) 0.0365(16) -0.0003(10) 0.0191(12) -0.0039(10)
S1 0.0210(13) 0.0175(11) 0.0348(16) -0.0012(11) 0.0181(11) -0.0016(10)
S2 0.0209(13) 0.0174(11) 0.0330(15) -0.0001(11) 0.0162(11) 0.0002(10)
C1 0.024(6) 0.028(6) 0.039(7) -0.001(5) 0.015(5) -0.010(5)
C2 0.021(6) 0.030(5) 0.031(6) 0.001(5) 0.020(5) 0.003(4)
C3 0.018(5) 0.035(7) 0.034(6) 0.000(5) 0.013(5) -0.003(5)
C4 0.025(6) 0.030(6) 0.033(7) -0.004(5) 0.017(5) -0.001(5)
loop_
_atom_type_symbol
_atom_type_description
_atom_type_scat_dispersion_real
_atom_type_scat_dispersion_imag
_atom_type_scat_source
C C 0.0033 0.0016 'International Tables Vol C Tables 4.2.6.8 and 6.1.1.4'
H H 0.0000 0.0000 'International Tables Vol C Tables 4.2.6.8 and 6.1.1.4'
S S 0.1246 0.1234 'International Tables Vol C Tables 4.2.6.8 and 6.1.1.4'
Cl Cl 0.1484 0.1585 'International Tables Vol C Tables 4.2.6.8 and 6.1.1.4'
Mo Mo -1.6832 0.6857 'International Tables Vol C Tables 4.2.6.8 and 6.1.1.4'
loop_
_geom_angle_atom_site_label_1
_geom_angle_atom_site_label_2
_geom_angle_atom_site_label_3
_geom_angle
Cl3 Mo1 Cl1 97.61(12)
Cl3 Mo1 Cl2 98.42(13)
Cl1 Mo1 Cl2 162.33(12)
Cl3 Mo1 Cl4 96.83(11)
Cl1 Mo1 Cl4 92.47(10)
Cl2 Mo1 Cl4 92.95(10)
Cl3 Mo1 S1 87.75(11)
Cl1 Mo1 S1 82.18(10)
Cl2 Mo1 S1 91.07(10)
Cl4 Mo1 S1 173.41(10)
Cl3 Mo1 S2 170.43(11)
Cl1 Mo1 S2 85.34(10)
Cl2 Mo1 S2 77.66(11)
Cl4 Mo1 S2 92.13(10)
S1 Mo1 S2 83.62(9)
C1 S1 C2 102.3(6)
C1 S1 Mo1 110.2(4)
C2 S1 Mo1 101.5(4)
C4 S2 C3 102.7(5)
C4 S2 Mo1 111.1(4)
C3 S2 Mo1 101.3(4)
S1 C1 H1A 109.5
S1 C1 H1B 109.5
H1A C1 H1B 109.5
S1 C1 H1C 109.5
H1A C1 H1C 109.5
H1B C1 H1C 109.5
C3 C2 S1 114.1(8)
C3 C2 H2A 108.7
S1 C2 H2A 108.7
C3 C2 H2B 108.7
S1 C2 H2B 108.7
H2A C2 H2B 107.6
C2 C3 S2 112.9(8)
C2 C3 H3A 109.0
S2 C3 H3A 109.0
C2 C3 H3B 109.0
S2 C3 H3B 109.0
H3A C3 H3B 107.8
S2 C4 H4A 109.5
S2 C4 H4B 109.5
H4A C4 H4B 109.5
S2 C4 H4C 109.5
H4A C4 H4C 109.5
H4B C4 H4C 109.5
loop_
_geom_bond_atom_site_label_1
_geom_bond_atom_site_label_2
_geom_bond_distance
Mo1 Cl3 2.247(3)
Mo1 Cl1 2.305(3)
Mo1 Cl2 2.305(3)
Mo1 Cl4 2.339(3)
Mo1 S1 2.519(3)
Mo1 S2 2.591(3)
S1 C1 1.799(12)
S1 C2 1.816(12)
S2 C4 1.800(11)
S2 C3 1.813(12)
C1 H1A 0.9800
C1 H1B 0.9800
C1 H1C 0.9800
C2 C3 1.499(15)
C2 H2A 0.9900
C2 H2B 0.9900
C3 H3A 0.9900
C3 H3B 0.9900
C4 H4A 0.9800
C4 H4B 0.9800
C4 H4C 0.9800
