#------------------------------------------------------------------------------
#$Date: 2019-11-17 11:50:22 +0200 (Sun, 17 Nov 2019) $
#$Revision: 229702 $
#$URL: file:///home/coder/svn-repositories/cod/cif/7/04/61/7046126.cif $
#------------------------------------------------------------------------------
#
# This file is available in the Crystallography Open Database (COD),
# http://www.crystallography.net/
#
# All data on this site have been placed in the public domain by the
# contributors.
#
data_7046126
loop_
_publ_author_name
'Sun, Ai-Huan'
'Wei, Qi'
'Fu, Ai-Ping'
'Han, Song-De'
'Li, Jin-Hua'
'Wang, Guo-Ming'
_publ_section_title
;
 Syntheses, structures and efficient visible light-driven photocatalytic
 properties of layered cuprous halides based on two types of building
 units.
;
_journal_issue                   20
_journal_name_full
'Dalton transactions (Cambridge, England : 2003)'
_journal_page_first              6965
_journal_page_last               6972
_journal_paper_doi               10.1039/c7dt04733a
_journal_volume                  47
_journal_year                    2018
_chemical_formula_moiety         'C9 H4.91 F1.54 O2'
_chemical_formula_sum            'C9 H4.91 F1.54 O2'
_chemical_formula_weight         174.25
_space_group_crystal_system      monoclinic
_space_group_IT_number           14
_space_group_name_Hall           '-P 2ybc'
_space_group_name_H-M_alt        'P 1 21/c 1'
_symmetry_space_group_name_Hall  '-P 2ybc'
_symmetry_space_group_name_H-M   'P 1 21/c 1'
_atom_sites_solution_hydrogens   geom
_audit_creation_method           SHELXL-2014/7
_audit_update_record
;
2018-03-01 deposited with the CCDC.
2018-04-09 downloaded from the CCDC.
;
_cell_angle_alpha                90
_cell_angle_beta                 90.178(15)
_cell_angle_gamma                90
_cell_formula_units_Z            4
_cell_length_a                   6.578(2)
_cell_length_b                   3.7325(10)
_cell_length_c                   31.302(11)
_cell_measurement_reflns_used    1095
_cell_measurement_temperature    373(2)
_cell_measurement_theta_max      27.5
_cell_measurement_theta_min      3.1
_cell_volume                     768.5(4)
_computing_structure_refinement  'SHELXL-2014/7 (Sheldrick, 2014)'
_diffrn_ambient_temperature      373(2)
_diffrn_measured_fraction_theta_full 0.994
_diffrn_measured_fraction_theta_max 0.993
_diffrn_measurement_device_type  CCD
_diffrn_radiation_type           MoK\a
_diffrn_radiation_wavelength     0.71073
_diffrn_reflns_av_R_equivalents  0.1247
_diffrn_reflns_av_unetI/netI     0.0918
_diffrn_reflns_Laue_measured_fraction_full 0.994
_diffrn_reflns_Laue_measured_fraction_max 0.993
_diffrn_reflns_limit_h_max       8
_diffrn_reflns_limit_h_min       -8
_diffrn_reflns_limit_k_max       4
_diffrn_reflns_limit_k_min       -4
_diffrn_reflns_limit_l_max       40
_diffrn_reflns_limit_l_min       -40
_diffrn_reflns_number            6386
_diffrn_reflns_point_group_measured_fraction_full 0.994
_diffrn_reflns_point_group_measured_fraction_max 0.993
_diffrn_reflns_theta_full        25.242
_diffrn_reflns_theta_max         27.498
_diffrn_reflns_theta_min         2.603
_exptl_absorpt_coefficient_mu    0.131
_exptl_crystal_colour            colourless
_exptl_crystal_density_diffrn    1.506
_exptl_crystal_description       plate
_exptl_crystal_F_000             408
_exptl_crystal_size_max          0.7
_exptl_crystal_size_mid          0.6
_exptl_crystal_size_min          0.2
_refine_diff_density_max         0.256
_refine_diff_density_min         -0.363
_refine_diff_density_rms         0.080
_refine_ls_extinction_method     none
_refine_ls_goodness_of_fit_ref   1.067
_refine_ls_hydrogen_treatment    constr
_refine_ls_matrix_type           full
_refine_ls_number_parameters     128
_refine_ls_number_reflns         1743
_refine_ls_number_restraints     0
_refine_ls_restrained_S_all      1.067
_refine_ls_R_factor_all          0.1030
_refine_ls_R_factor_gt           0.0735
_refine_ls_shift/su_max          0.000
_refine_ls_shift/su_mean         0.000
_refine_ls_structure_factor_coef Fsqd
_refine_ls_weighting_details
'w=1/[\s^2^(Fo^2^)+(0.1105P)^2^] where P=(Fo^2^+2Fc^2^)/3'
_refine_ls_weighting_scheme      calc
_refine_ls_wR_factor_gt          0.1881
_refine_ls_wR_factor_ref         0.2144
_reflns_Friedel_coverage         0.000
_reflns_number_gt                1206
_reflns_number_total             1743
_reflns_threshold_expression     'I > 2\s(I)'
_cod_data_source_file            c7dt04733a2.cif
_cod_data_source_block           20
_cod_depositor_comments
'Adding full bibliography for 7046123--7046152.cif.'
_cod_database_code               7046126
_shelx_shelxl_version_number     2014/7
_shelx_space_group_comment
;
The symmetry employed for this shelxl refinement is uniquely defined
by the following loop, which should always be used as a source of
symmetry information in preference to the above space-group names.
They are only intended as comments.
;
_shelx_res_file
;

    shelx.res created by SHELXL-2014/7

TITL SIR2004 run in space group P 1 21/c 1
CELL  0.71073   6.5775   3.7325  31.3025   90.000   90.178   90.000
ZERR     4.00   0.0023   0.0010   0.0113    0.000    0.015    0.000
LATT   1
SYMM  - X, 1/2 + Y, 1/2 - Z
SFAC  C    H    O    F
UNIT  17 17 17 17
MERG   2
OMIT    -2.00  55.00
OMIT    -1   1   7
OMIT     0   0   8
OMIT     0   0  10
OMIT     1   2   5
OMIT    -1   1  11
OMIT     0   1   4
OMIT     0   1   5
OMIT    -1   1   5
OMIT     0   0   2
OMIT     8   1   7
EQIV $1 -x+1, -y-1, -z
HTAB  C2 O2_$1
EQIV $2 -x, -y, -z
HTAB O2 O1_$2
HTAB  C2 O2_$1
HTAB O2 O1_$2
FMAP   2
PLAN   25
ACTA
BOND   $H
CONF
L.S.  50
TEMP   100.10
WGHT    0.110500
FVAR       0.49822
C1    1    0.225692   -0.141269    0.035092    11.00000    0.04618    0.02574 =
         0.03566    0.00085    0.01328   -0.00082
C2    1    0.400469   -0.249588    0.060706    11.00000    0.03928    0.02728 =
         0.04131    0.00023    0.01399    0.00181
AFIX  43
H2    2    0.507588   -0.371099    0.047887    11.00000   -1.20000
AFIX   0
C3    1    0.408186   -0.176686    0.102026    11.00000    0.03437    0.02585 =
         0.04123    0.00034    0.01251    0.00011
AFIX  43
H3    2    0.297624   -0.053247    0.113194    11.00000   -1.20000
AFIX   0
C4    1    0.569784   -0.267285    0.132093    11.00000    0.03401    0.02300 =
         0.04826   -0.00081    0.00923   -0.00244
C5    1    0.755926   -0.413056    0.118657    11.00000    0.03631    0.02816 =
         0.07345   -0.00152    0.01336   -0.00178
AFIX  43
H5    2    0.778178   -0.457031    0.089804     0.91290   -1.20000
AFIX   0
C9    1    0.540259   -0.204021    0.175350    11.00000    0.03986    0.03356 =
         0.04692    0.00116    0.00137   -0.00231
AFIX  43
H9    2    0.417887   -0.109568    0.184999    11.00000   -1.20000
AFIX   0
O2    3    0.233713   -0.235911   -0.005162    11.00000    0.05204    0.04860 =
         0.03343   -0.00276    0.01093    0.00880
AFIX  83
H2A    2    0.131187   -0.165653   -0.017555    11.00000   -1.50000
AFIX   0
O1    3    0.078863    0.028125    0.050028    11.00000    0.04739    0.04129 =
         0.03775   -0.00178    0.01109    0.00932
C6    1    0.904674   -0.490524    0.147963    11.00000    0.03968    0.02960 =
         0.11628    0.00272   -0.01138   -0.00445
PART    2
F1A   4    1.073194   -0.625881    0.146246    10.35534    0.01976    0.03753 =
         0.05858   -0.00904    0.01183    0.00608
PART    0
C8    1    0.693897   -0.282488    0.203803    11.00000    0.06451    0.04635 =
         0.05793    0.01008   -0.02090   -0.01339
PART    2
F1B   4    0.686884   -0.232534    0.242781    10.64466    0.06028    0.08346 =
         0.03987    0.00191    0.00140    0.00105
PART    0
C7    1    0.876125   -0.425141    0.190562    11.00000    0.04721    0.03505 =
         0.11774    0.01478   -0.03050   -0.00657
PART    2
F2    4    1.024157   -0.499043    0.212903    10.53756    0.08023    0.08065 =
         0.10633    0.01917   -0.04732   -0.00855
HKLF    4

REM  SIR2004 run in space group P 1 21/c 1
REM R1 =  0.0735 for    1206 Fo > 4sig(Fo)  and  0.1030 for all    1743 data
REM    128 parameters refined using      0 restraints

END

WGHT      0.1105      0.0000

REM Highest difference peak  0.256,  deepest hole -0.363,  1-sigma level  0.080
Q1    1   0.1869  0.3096  0.0600  11.00000  0.05    0.26
Q2    1   0.3016 -0.5376  0.0490  11.00000  0.05    0.23
Q3    1   0.4486 -0.6554  0.0818  11.00000  0.05    0.21
Q4    1   0.0677  0.3168  0.0267  11.00000  0.05    0.21
Q5    1   0.8279 -0.8758  0.1760  11.00000  0.05    0.21
Q6    1   0.6766 -0.6848  0.1780  11.00000  0.05    0.21
Q7    1   0.2546  0.2209  0.0427  11.00000  0.05    0.20
Q8    1   0.3012 -0.5763  0.0827  11.00000  0.05    0.20
Q9    1   0.6265 -0.4782  0.1905  11.00000  0.05    0.20
Q10   1   1.0722 -0.5632  0.1269  11.00000  0.05    0.19
Q11   1   0.4728 -0.4990  0.0378  11.00000  0.05    0.19
Q12   1   0.6669  0.2007  0.2195  11.00000  0.05    0.18
Q13   1   0.8569 -0.8524  0.1250  11.00000  0.05    0.18
Q14   1   0.7373 -0.6306  0.2184  11.00000  0.05    0.17
Q15   1   0.5861  0.0667  0.2299  11.00000  0.05    0.17
Q16   1   0.7799  0.1840  0.2268  11.00000  0.05    0.17
Q17   1   0.7800 -0.4511  0.1978  11.00000  0.05    0.17
Q18   1   0.7748  0.0114  0.1086  11.00000  0.05    0.17
Q19   1   0.9018  0.0266  0.1731  11.00000  0.05    0.16
Q20   1   0.8860 -0.5462  0.2218  11.00000  0.05    0.16
Q21   1   1.0385 -0.8574  0.1377  11.00000  0.05    0.16
Q22   1   0.0144 -0.3787  0.0092  11.00000  0.05    0.16
Q23   1   0.9335 -0.8312  0.2133  11.00000  0.05    0.16
Q24   1   0.3987 -0.0957 -0.0134  11.00000  0.05    0.16
Q25   1   1.1422 -0.7156  0.1467  11.00000  0.05    0.15
;
_shelx_res_checksum              77860
loop_
_space_group_symop_operation_xyz
'x, y, z'
'-x, y+1/2, -z+1/2'
'-x, -y, -z'
'x, -y-1/2, z-1/2'
loop_
_atom_site_label
_atom_site_type_symbol
_atom_site_fract_x
_atom_site_fract_y
_atom_site_fract_z
_atom_site_U_iso_or_equiv
_atom_site_adp_type
_atom_site_occupancy
_atom_site_site_symmetry_order
_atom_site_calc_flag
_atom_site_refinement_flags_posn
_atom_site_refinement_flags_adp
_atom_site_refinement_flags_occupancy
_atom_site_disorder_assembly
_atom_site_disorder_group
C1 C 0.2257(3) -0.1413(6) 0.03509(7) 0.0358(6) Uani 1 1 d . . . . .
C2 C 0.4005(3) -0.2496(5) 0.06071(7) 0.0359(6) Uani 1 1 d . . . . .
H2 H 0.5076 -0.3711 0.0479 0.043 Uiso 1 1 calc R U . . .
C3 C 0.4082(3) -0.1767(6) 0.10203(7) 0.0338(6) Uani 1 1 d . . . . .
H3 H 0.2976 -0.0532 0.1132 0.041 Uiso 1 1 calc R U . . .
C4 C 0.5698(3) -0.2673(5) 0.13209(8) 0.0351(6) Uani 1 1 d . . . . .
C5 C 0.7559(3) -0.4131(6) 0.11866(10) 0.0459(7) Uani 1 1 d . . . . .
H5 H 0.7782 -0.4570 0.0898 0.055 Uiso 0.91(5) 1 calc R U . . .
C9 C 0.5403(4) -0.2040(6) 0.17535(8) 0.0401(6) Uani 1 1 d . . . . .
H9 H 0.4179 -0.1096 0.1850 0.048 Uiso 1 1 calc R U . . .
O2 O 0.2337(3) -0.2359(4) -0.00516(5) 0.0447(5) Uani 1 1 d . . . . .
H2A H 0.1312 -0.1657 -0.0176 0.067 Uiso 1 1 calc R U . . .
O1 O 0.0789(2) 0.0281(4) 0.05003(5) 0.0421(5) Uani 1 1 d . . . . .
C6 C 0.9047(4) -0.4905(7) 0.14796(14) 0.0619(9) Uani 1 1 d . . . . .
F1A F 1.0732(5) -0.6259(9) 0.14625(13) 0.0386(9) Uani 0.3553 1 d . . P A 2
C8 C 0.6939(5) -0.2825(7) 0.20380(10) 0.0563(8) Uani 1 1 d . . . . .
F1B F 0.6869(4) -0.2325(8) 0.24278(8) 0.0612(7) Uani 0.6447 1 d . . P B 2
C7 C 0.8761(4) -0.4251(7) 0.19056(14) 0.0667(10) Uani 1 1 d . . . . .
F2 F 1.0242(6) -0.4990(10) 0.21290(15) 0.0892(13) Uani 0.5376 1 d . . P C 2
loop_
_atom_site_aniso_label
_atom_site_aniso_U_11
_atom_site_aniso_U_22
_atom_site_aniso_U_33
_atom_site_aniso_U_23
_atom_site_aniso_U_13
_atom_site_aniso_U_12
C1 0.0462(13) 0.0257(10) 0.0357(12) 0.0008(9) 0.0133(10) -0.0008(10)
C2 0.0393(13) 0.0273(10) 0.0413(14) 0.0002(9) 0.0140(10) 0.0018(9)
C3 0.0344(11) 0.0258(10) 0.0412(13) 0.0003(9) 0.0125(10) 0.0001(9)
C4 0.0340(12) 0.0230(10) 0.0483(14) -0.0008(9) 0.0092(10) -0.0024(8)
C5 0.0363(13) 0.0282(11) 0.0735(19) -0.0015(11) 0.0134(12) -0.0018(10)
C9 0.0399(13) 0.0336(12) 0.0469(14) 0.0012(10) 0.0014(10) -0.0023(10)
O2 0.0520(11) 0.0486(10) 0.0334(9) -0.0028(7) 0.0109(8) 0.0088(8)
O1 0.0474(10) 0.0413(10) 0.0377(9) -0.0018(7) 0.0111(7) 0.0093(7)
C6 0.0397(15) 0.0296(13) 0.116(3) 0.0027(15) -0.0114(16) -0.0044(11)
F1A 0.0198(16) 0.0375(18) 0.059(2) -0.0090(18) 0.0118(15) 0.0061(14)
C8 0.0645(19) 0.0463(14) 0.0579(18) 0.0101(13) -0.0209(14) -0.0134(13)
F1B 0.0603(16) 0.0835(18) 0.0399(13) 0.0019(12) 0.0014(11) 0.0010(13)
C7 0.0472(16) 0.0351(14) 0.118(3) 0.0148(16) -0.0305(18) -0.0066(12)
F2 0.080(2) 0.081(2) 0.106(3) 0.019(2) -0.047(2) -0.0085(19)
loop_
_atom_type_symbol
_atom_type_description
_atom_type_scat_dispersion_real
_atom_type_scat_dispersion_imag
_atom_type_scat_source
C C 0.0033 0.0016 'International Tables Vol C Tables 4.2.6.8 and 6.1.1.4'
H H 0.0000 0.0000 'International Tables Vol C Tables 4.2.6.8 and 6.1.1.4'
O O 0.0106 0.0060 'International Tables Vol C Tables 4.2.6.8 and 6.1.1.4'
F F 0.0171 0.0103 'International Tables Vol C Tables 4.2.6.8 and 6.1.1.4'
loop_
_geom_angle_atom_site_label_1
_geom_angle_atom_site_label_2
_geom_angle_atom_site_label_3
_geom_angle
O1 C1 O2 122.1(2)
O1 C1 C2 123.0(2)
O2 C1 C2 114.87(19)
C3 C2 C1 120.6(2)
C3 C2 H2 119.7
C1 C2 H2 119.7
C2 C3 C4 127.6(2)
C2 C3 H3 116.2
C4 C3 H3 116.2
C9 C4 C5 118.8(2)
C9 C4 C3 119.1(2)
C5 C4 C3 122.1(2)
C6 C5 C4 120.2(3)
C6 C5 H5 119.9
C4 C5 H5 119.9
C8 C9 C4 119.3(2)
C8 C9 H9 120.3
C4 C9 H9 120.3
C1 O2 H2A 109.5
F1A C6 C7 104.1(4)
F1A C6 C5 134.9(4)
C7 C6 C5 121.0(3)
F1B C8 C7 113.0(3)
F1B C8 C9 125.3(3)
C7 C8 C9 121.7(3)
F2 C7 C6 113.8(4)
F2 C7 C8 127.2(5)
C6 C7 C8 119.0(3)
loop_
_geom_bond_atom_site_label_1
_geom_bond_atom_site_label_2
_geom_bond_distance
C1 O1 1.247(3)
C1 O2 1.310(3)
C1 C2 1.457(3)
C2 C3 1.323(3)
C2 H2 0.9300
C3 C4 1.457(3)
C3 H3 0.9300
C4 C9 1.389(3)
C4 C5 1.405(3)
C5 C6 1.370(4)
C5 H5 0.9300
C9 C8 1.376(4)
C9 H9 0.9300
O2 H2A 0.8200
C6 F1A 1.219(4)
C6 C7 1.369(5)
C8 F1B 1.235(4)
C8 C7 1.377(5)
C7 F2 1.228(4)
loop_
_geom_hbond_atom_site_label_D
_geom_hbond_atom_site_label_H
_geom_hbond_atom_site_label_A
_geom_hbond_distance_DH
_geom_hbond_distance_HA
_geom_hbond_distance_DA
_geom_hbond_angle_DHA
_geom_hbond_site_symmetry_A
C2 H2 O2 0.93 2.62 3.539(3) 171.3 3_645
O2 H2A O1 0.82 1.79 2.604(3) 173.5 3
C2 H2 O2 0.93 2.62 3.539(3) 171.3 3_645
O2 H2A O1 0.82 1.79 2.604(3) 173.5 3
loop_
_geom_torsion_atom_site_label_1
_geom_torsion_atom_site_label_2
_geom_torsion_atom_site_label_3
_geom_torsion_atom_site_label_4
_geom_torsion
O1 C1 C2 C3 1.4(3)
O2 C1 C2 C3 -178.49(19)
C1 C2 C3 C4 179.55(18)
C2 C3 C4 C9 -172.7(2)
C2 C3 C4 C5 8.1(3)
C9 C4 C5 C6 0.0(3)
C3 C4 C5 C6 179.2(2)
C5 C4 C9 C8 0.5(3)
C3 C4 C9 C8 -178.7(2)
C4 C5 C6 F1A 176.9(3)
C4 C5 C6 C7 -0.6(4)
C4 C9 C8 F1B 178.7(3)
C4 C9 C8 C7 -0.5(4)
F1A C6 C7 F2 3.6(4)
C5 C6 C7 F2 -178.2(3)
F1A C6 C7 C8 -177.6(3)
C5 C6 C7 C8 0.6(4)
F1B C8 C7 F2 -0.8(5)
C9 C8 C7 F2 178.6(3)
F1B C8 C7 C6 -179.4(3)
C9 C8 C7 C6 0.0(4)
