#------------------------------------------------------------------------------
#$Date: 2019-11-17 11:50:22 +0200 (Sun, 17 Nov 2019) $
#$Revision: 229702 $
#$URL: file:///home/coder/svn-repositories/cod/cif/7/04/61/7046133.cif $
#------------------------------------------------------------------------------
#
# This file is available in the Crystallography Open Database (COD),
# http://www.crystallography.net/
#
# All data on this site have been placed in the public domain by the
# contributors.
#
data_7046133
loop_
_publ_author_name
'Sun, Ai-Huan'
'Wei, Qi'
'Fu, Ai-Ping'
'Han, Song-De'
'Li, Jin-Hua'
'Wang, Guo-Ming'
_publ_section_title
;
 Syntheses, structures and efficient visible light-driven photocatalytic
 properties of layered cuprous halides based on two types of building
 units.
;
_journal_issue                   20
_journal_name_full
'Dalton transactions (Cambridge, England : 2003)'
_journal_page_first              6965
_journal_page_last               6972
_journal_paper_doi               10.1039/c7dt04733a
_journal_volume                  47
_journal_year                    2018
_chemical_formula_moiety         'C9 H6.30 F1.70 O2'
_chemical_formula_sum            'C9 H6.3 F1.7 O2'
_chemical_formula_weight         178.79
_space_group_crystal_system      monoclinic
_space_group_IT_number           14
_space_group_name_Hall           '-P 2yn'
_space_group_name_H-M_alt        'P 1 21/n 1'
_symmetry_space_group_name_Hall  '-P 2yn'
_symmetry_space_group_name_H-M   'P 1 21/n 1'
_atom_sites_solution_hydrogens   geom
_audit_creation_method           SHELXL-2014/7
_audit_update_record
;
2018-03-28 deposited with the CCDC.
2018-04-09 downloaded from the CCDC.
;
_cell_angle_alpha                90
_cell_angle_beta                 92.23(3)
_cell_angle_gamma                90
_cell_formula_units_Z            4
_cell_length_a                   3.749(8)
_cell_length_b                   6.347(14)
_cell_length_c                   32.46(7)
_cell_measurement_reflns_used    1037
_cell_measurement_temperature    100(2)
_cell_measurement_theta_max      27.4
_cell_measurement_theta_min      2.5
_cell_volume                     772(3)
_computing_structure_refinement  'SHELXL-2014/7 (Sheldrick, 2014)'
_diffrn_ambient_temperature      100(2)
_diffrn_measured_fraction_theta_full 0.748
_diffrn_measured_fraction_theta_max 0.772
_diffrn_measurement_device_type  CCD
_diffrn_radiation_type           MoK\a
_diffrn_radiation_wavelength     0.71073
_diffrn_reflns_av_R_equivalents  0.1328
_diffrn_reflns_av_unetI/netI     0.1209
_diffrn_reflns_Laue_measured_fraction_full 0.748
_diffrn_reflns_Laue_measured_fraction_max 0.772
_diffrn_reflns_limit_h_max       4
_diffrn_reflns_limit_h_min       -4
_diffrn_reflns_limit_k_max       8
_diffrn_reflns_limit_k_min       -8
_diffrn_reflns_limit_l_max       41
_diffrn_reflns_limit_l_min       -42
_diffrn_reflns_number            3186
_diffrn_reflns_point_group_measured_fraction_full 0.748
_diffrn_reflns_point_group_measured_fraction_max 0.772
_diffrn_reflns_theta_full        25.242
_diffrn_reflns_theta_max         27.488
_diffrn_reflns_theta_min         1.256
_exptl_absorpt_coefficient_mu    0.135
_exptl_crystal_density_diffrn    1.538
_exptl_crystal_density_meas      colourless
_exptl_crystal_description       plate
_exptl_crystal_F_000             366.5
_exptl_crystal_size_max          0.8
_exptl_crystal_size_mid          0.6
_exptl_crystal_size_min          0.4
_refine_diff_density_max         0.330
_refine_diff_density_min         -0.473
_refine_diff_density_rms         0.091
_refine_ls_extinction_method     none
_refine_ls_goodness_of_fit_ref   1.043
_refine_ls_hydrogen_treatment    constr
_refine_ls_matrix_type           full
_refine_ls_number_parameters     120
_refine_ls_number_reflns         1367
_refine_ls_number_restraints     0
_refine_ls_restrained_S_all      1.043
_refine_ls_R_factor_all          0.1140
_refine_ls_R_factor_gt           0.0897
_refine_ls_shift/su_max          0.000
_refine_ls_shift/su_mean         0.000
_refine_ls_structure_factor_coef Fsqd
_refine_ls_weighting_details
'w=1/[\s^2^(Fo^2^)+(0.1532P)^2^+0.0573P] where P=(Fo^2^+2Fc^2^)/3'
_refine_ls_weighting_scheme      calc
_refine_ls_wR_factor_gt          0.2500
_refine_ls_wR_factor_ref         0.2822
_reflns_Friedel_coverage         0.000
_reflns_number_gt                889
_reflns_number_total             1367
_reflns_threshold_expression     'I > 2\s(I)'
_cod_data_source_file            c7dt04733a2.cif
_cod_data_source_block           13
_cod_depositor_comments
'Adding full bibliography for 7046123--7046152.cif.'
_cod_original_formula_sum        'C9 H6.30 F1.70 O2'
_cod_database_code               7046133
_shelx_shelxl_version_number     2014/7
_shelx_space_group_comment
;
The symmetry employed for this shelxl refinement is uniquely defined
by the following loop, which should always be used as a source of
symmetry information in preference to the above space-group names.
They are only intended as comments.
;
_shelx_res_file
;

    shelx.res created by SHELXL-2014/7

TITL datam in P2(1)/n
CELL  0.71073   3.7487   6.3469  32.4605   90.000   92.228   90.000
ZERR    18.00   0.0078   0.0139   0.0685    0.000    0.026    0.000
LATT   1
SYMM  1/2 - X, 1/2 + Y, 1/2 - Z
SFAC  C    H    O    F
UNIT  18 18 18 18
MERG   2
OMIT    -2.00  55.00
EQIV $1 -x+1, -y, -z
HTAB C2 O2_$1
EQIV $2 -x+3/2, y-1/2, -z+1/2
HTAB C7 F2_$2
EQIV $3 -x, -y+1, -z
HTAB O2 O1_$3
OMIT     0   0   4
OMIT     3   4   0
FMAP   2
PLAN   20
ACTA
HTAB    2.00000
BOND
BOND   $H
CONF
L.S.  50
TEMP  -173.00
WGHT    0.153200    0.057300
FVAR       7.49080   0.29726
MOLE    1
C1    1    0.160332    0.273143    0.035072    11.00000    0.02678    0.03315 =
         0.03550   -0.00640   -0.00077    0.00421
C2    1    0.286879    0.096190    0.060816    11.00000    0.02567    0.02837 =
         0.03664   -0.00330   -0.00122    0.00514
AFIX  43
H2    2    0.402496   -0.019865    0.048545    11.00000   -1.20000
AFIX   0
C3    1    0.240234    0.097417    0.101542    11.00000    0.02178    0.02679 =
         0.04098   -0.00648    0.00069    0.00498
AFIX  43
H3    2    0.119527    0.215428    0.112405    11.00000   -1.20000
AFIX   0
C4    1    0.357287   -0.065281    0.130732    11.00000    0.02090    0.02464 =
         0.03936   -0.00107   -0.00141   -0.00071
C5    1    0.316172   -0.032247    0.172584    11.00000    0.03288    0.02432 =
         0.03871   -0.00094    0.00058    0.00122
C6    1    0.422278   -0.183945    0.201836    11.00000    0.03988    0.04053 =
         0.03933    0.00601   -0.00344   -0.00653
PART    1
AFIX  43
H6    2    0.394259   -0.156393    0.230294    21.00000   -1.20000
AFIX   0
PART    2
F2    4    0.380309   -0.140574    0.239235   -21.00000    0.09667    0.06344 =
         0.03735    0.00210    0.00042   -0.00754
PART    0
C7    1    0.565065   -0.370396    0.190018    11.00000    0.02937    0.03079 =
         0.06155    0.01384   -0.00544   -0.00333
AFIX  43
H7    2    0.636338   -0.473021    0.209991    11.00000   -1.20000
AFIX   0
C8    1    0.605190   -0.408592    0.148261    11.00000    0.02836    0.02210 =
         0.06621    0.00024    0.00387    0.00330
AFIX  43
H8    2    0.702346   -0.538817    0.139615    11.00000   -1.20000
AFIX   0
C9    1    0.504624   -0.258309    0.119262    11.00000    0.02608    0.02498 =
         0.05205   -0.00537    0.00409    0.00020
AFIX  43
H9    2    0.536189   -0.286628    0.090898    11.00000   -1.20000
AFIX   0
O1    3   -0.001966    0.426631    0.049526    11.00000    0.04152    0.03066 =
         0.03547   -0.00200    0.00389    0.01348
O2    3    0.232908    0.258992   -0.003842    11.00000    0.04677    0.03807 =
         0.03069   -0.00227    0.00430    0.01497
AFIX 147
H2A   2    0.174608    0.371562   -0.015932    11.00000   -1.50000
AFIX   0
F1    4    0.172134    0.149440    0.185550    11.00000    0.05525    0.03016 =
         0.03917   -0.00647    0.00360    0.00233
HKLF    4

REM  datam in P2(1)/n
REM R1 =  0.0897 for     889 Fo > 4sig(Fo)  and  0.1140 for all    1367 data
REM    120 parameters refined using      0 restraints

END

WGHT      0.1422      0.0124

REM Instructions for potential hydrogen bonds
HTAB C2 O2_$1
HTAB C7 F2_$2
HTAB O2 O1_$3

REM Highest difference peak  0.330,  deepest hole -0.473,  1-sigma level  0.091
Q1    1  -0.0835  0.1404  0.1799  11.00000  0.05    0.33
Q2    1   0.1065  0.4514 -0.0307  11.00000  0.05    0.29
Q3    1  -0.2704  0.1047  0.1902  11.00000  0.05    0.27
Q4    1  -0.1384  0.0997  0.0836  11.00000  0.05    0.26
Q5    1  -0.3078  0.1504  0.2038  11.00000  0.05    0.26
Q6    1   0.3761 -0.6341  0.1928  11.00000  0.05    0.26
Q7    1  -0.3107  0.4033  0.0439  11.00000  0.05    0.26
Q8    1   0.7463 -0.5669  0.1616  11.00000  0.05    0.25
Q9    1   0.0751 -0.1520  0.1901  11.00000  0.05    0.25
Q10   1   1.0571 -0.3722  0.1837  11.00000  0.05    0.25
Q11   1  -0.0109 -0.0822  0.0349  11.00000  0.05    0.24
Q12   1   0.2971 -0.1035  0.1817  11.00000  0.05    0.24
Q13   1  -0.1455 -0.0055  0.1472  11.00000  0.05    0.23
Q14   1  -0.0683 -0.1310  0.2139  11.00000  0.05    0.23
Q15   1  -0.2459  0.2526  0.0207  11.00000  0.05    0.23
Q16   1   0.3149 -0.3998  0.1745  11.00000  0.05    0.23
Q17   1   0.2760 -0.5740  0.1432  11.00000  0.05    0.22
Q18   1   0.9366 -0.7204  0.1552  11.00000  0.05    0.22
Q19   1   0.6634 -0.2757  0.2713  11.00000  0.05    0.22
Q20   1  -0.1368  0.1762  0.2156  11.00000  0.05    0.22
;
_shelx_res_checksum              69721
loop_
_space_group_symop_operation_xyz
'x, y, z'
'-x+1/2, y+1/2, -z+1/2'
'-x, -y, -z'
'x-1/2, -y-1/2, z-1/2'
loop_
_atom_site_label
_atom_site_type_symbol
_atom_site_fract_x
_atom_site_fract_y
_atom_site_fract_z
_atom_site_U_iso_or_equiv
_atom_site_adp_type
_atom_site_occupancy
_atom_site_site_symmetry_order
_atom_site_calc_flag
_atom_site_refinement_flags_posn
_atom_site_refinement_flags_adp
_atom_site_refinement_flags_occupancy
_atom_site_disorder_assembly
_atom_site_disorder_group
C1 C 0.1603(9) 0.2731(7) 0.03507(10) 0.0319(9) Uani 1 1 d . . . . .
C2 C 0.2869(9) 0.0962(6) 0.06082(10) 0.0303(8) Uani 1 1 d . . . . .
H2 H 0.4025 -0.0199 0.0485 0.036 Uiso 1 1 calc R U . . .
C3 C 0.2402(8) 0.0974(6) 0.10154(10) 0.0299(8) Uani 1 1 d . . . . .
H3 H 0.1195 0.2154 0.1124 0.036 Uiso 1 1 calc R U . . .
C4 C 0.3573(8) -0.0653(6) 0.13073(10) 0.0284(8) Uani 1 1 d . . . . .
C5 C 0.3162(10) -0.0322(7) 0.17258(10) 0.0320(8) Uani 1 1 d . . . . .
C6 C 0.4223(10) -0.1839(8) 0.20184(11) 0.0400(10) Uani 1 1 d . . . . .
H6 H 0.3943 -0.1564 0.2303 0.048 Uiso 0.297(4) 1 calc R U P A 1
F2 F 0.3803(12) -0.1406(8) 0.23924(11) 0.0659(14) Uani 0.703(4) 1 d . . P A 2
C7 C 0.5651(10) -0.3704(8) 0.19002(13) 0.0408(10) Uani 1 1 d . . . . .
H7 H 0.6363 -0.4730 0.2100 0.049 Uiso 1 1 calc R U . . .
C8 C 0.6052(9) -0.4086(7) 0.14826(13) 0.0388(10) Uani 1 1 d . . . . .
H8 H 0.7023 -0.5388 0.1396 0.047 Uiso 1 1 calc R U . . .
C9 C 0.5046(9) -0.2583(7) 0.11926(12) 0.0343(9) Uani 1 1 d . . . . .
H9 H 0.5362 -0.2866 0.0909 0.041 Uiso 1 1 calc R U . . .
O1 O -0.0020(7) 0.4266(5) 0.04953(7) 0.0358(7) Uani 1 1 d . . . . .
O2 O 0.2329(8) 0.2590(5) -0.00384(7) 0.0384(8) Uani 1 1 d . . . . .
H2A H 0.1746 0.3716 -0.0159 0.058 Uiso 1 1 calc R U . . .
F1 F 0.1721(6) 0.1494(5) 0.18555(6) 0.0415(7) Uani 1 1 d . . . . .
loop_
_atom_site_aniso_label
_atom_site_aniso_U_11
_atom_site_aniso_U_22
_atom_site_aniso_U_33
_atom_site_aniso_U_23
_atom_site_aniso_U_13
_atom_site_aniso_U_12
C1 0.0268(16) 0.033(2) 0.0355(16) -0.0064(14) -0.0008(13) 0.0042(15)
C2 0.0257(15) 0.028(2) 0.0366(16) -0.0033(13) -0.0012(12) 0.0051(14)
C3 0.0218(15) 0.027(2) 0.0410(17) -0.0065(13) 0.0007(12) 0.0050(13)
C4 0.0209(14) 0.025(2) 0.0394(16) -0.0011(13) -0.0014(12) -0.0007(13)
C5 0.0329(16) 0.024(2) 0.0387(17) -0.0009(14) 0.0006(13) 0.0012(15)
C6 0.0399(19) 0.041(3) 0.0393(18) 0.0060(16) -0.0034(15) -0.0065(19)
F2 0.097(3) 0.063(3) 0.0373(18) 0.0021(17) 0.0004(18) -0.008(3)
C7 0.0294(17) 0.031(3) 0.062(2) 0.0138(17) -0.0054(15) -0.0033(16)
C8 0.0284(17) 0.022(2) 0.066(2) 0.0002(17) 0.0039(16) 0.0033(15)
C9 0.0261(15) 0.025(2) 0.052(2) -0.0054(15) 0.0041(14) 0.0002(14)
O1 0.0415(14) 0.0307(17) 0.0355(12) -0.0020(10) 0.0039(10) 0.0135(13)
O2 0.0468(15) 0.0381(19) 0.0307(12) -0.0023(10) 0.0043(11) 0.0150(13)
F1 0.0553(14) 0.0302(17) 0.0392(11) -0.0065(9) 0.0036(10) 0.0023(11)
loop_
_atom_type_symbol
_atom_type_description
_atom_type_scat_dispersion_real
_atom_type_scat_dispersion_imag
_atom_type_scat_source
C C 0.0033 0.0016 'International Tables Vol C Tables 4.2.6.8 and 6.1.1.4'
H H 0.0000 0.0000 'International Tables Vol C Tables 4.2.6.8 and 6.1.1.4'
O O 0.0106 0.0060 'International Tables Vol C Tables 4.2.6.8 and 6.1.1.4'
F F 0.0171 0.0103 'International Tables Vol C Tables 4.2.6.8 and 6.1.1.4'
loop_
_geom_angle_atom_site_label_1
_geom_angle_atom_site_label_2
_geom_angle_atom_site_label_3
_geom_angle
O1 C1 O2 122.7(4)
O1 C1 C2 122.3(3)
O2 C1 C2 115.0(3)
C3 C2 C1 120.4(3)
C3 C2 H2 119.8
C1 C2 H2 119.8
C2 C3 C4 126.1(3)
C2 C3 H3 116.9
C4 C3 H3 116.9
C5 C4 C9 116.9(3)
C5 C4 C3 119.1(3)
C9 C4 C3 124.0(3)
F1 C5 C4 119.7(3)
F1 C5 C6 118.9(4)
C4 C5 C6 121.4(4)
F2 C6 C7 121.8(4)
F2 C6 C5 117.4(5)
C7 C6 C5 120.8(4)
C7 C6 H6 119.6
C5 C6 H6 119.6
C6 C7 C8 119.0(4)
C6 C7 H7 120.5
C8 C7 H7 120.5
C9 C8 C7 120.4(4)
C9 C8 H8 119.8
C7 C8 H8 119.8
C8 C9 C4 121.5(4)
C8 C9 H9 119.2
C4 C9 H9 119.2
C1 O2 H2A 109.5
loop_
_geom_bond_atom_site_label_1
_geom_bond_atom_site_label_2
_geom_bond_distance
C1 O1 1.250(4)
C1 O2 1.306(5)
C1 C2 1.468(5)
C2 C3 1.340(5)
C2 H2 0.9500
C3 C4 1.458(5)
C3 H3 0.9500
C4 C5 1.389(5)
C4 C9 1.400(6)
C5 F1 1.348(5)
C5 C6 1.399(5)
C6 F2 1.261(6)
C6 C7 1.360(7)
C6 H6 0.9500
C7 C8 1.391(6)
C7 H7 0.9500
C8 C9 1.382(6)
C8 H8 0.9500
C9 H9 0.9500
O2 H2A 0.8400
loop_
_geom_hbond_atom_site_label_D
_geom_hbond_atom_site_label_H
_geom_hbond_atom_site_label_A
_geom_hbond_distance_DH
_geom_hbond_distance_HA
_geom_hbond_distance_DA
_geom_hbond_angle_DHA
_geom_hbond_site_symmetry_A
C2 H2 O2 0.95 2.54 3.464(6) 165.6 3_655
C7 H7 F2 0.95 2.63 3.488(8) 151.0 2_645
O2 H2A O1 0.84 1.79 2.613(5) 167.5 3_565
loop_
_geom_torsion_atom_site_label_1
_geom_torsion_atom_site_label_2
_geom_torsion_atom_site_label_3
_geom_torsion_atom_site_label_4
_geom_torsion
O1 C1 C2 C3 -2.0(5)
O2 C1 C2 C3 177.4(3)
C1 C2 C3 C4 -178.9(3)
C2 C3 C4 C5 174.4(3)
C2 C3 C4 C9 -6.9(6)
C9 C4 C5 F1 -179.2(3)
C3 C4 C5 F1 -0.5(5)
C9 C4 C5 C6 0.9(5)
C3 C4 C5 C6 179.6(3)
F1 C5 C6 F2 -0.8(6)
C4 C5 C6 F2 179.0(4)
F1 C5 C6 C7 179.2(3)
C4 C5 C6 C7 -0.9(6)
F2 C6 C7 C8 -179.8(4)
C5 C6 C7 C8 0.1(6)
C6 C7 C8 C9 0.6(6)
C7 C8 C9 C4 -0.6(6)
C5 C4 C9 C8 -0.2(5)
C3 C4 C9 C8 -178.8(3)
