#------------------------------------------------------------------------------
#$Date: 2019-11-17 11:50:22 +0200 (Sun, 17 Nov 2019) $
#$Revision: 229702 $
#$URL: file:///home/coder/svn-repositories/cod/cif/7/04/61/7046148.cif $
#------------------------------------------------------------------------------
#
# This file is available in the Crystallography Open Database (COD),
# http://www.crystallography.net/
#
# All data on this site have been placed in the public domain by the
# contributors.
#
data_7046148
loop_
_publ_author_name
'Sun, Ai-Huan'
'Wei, Qi'
'Fu, Ai-Ping'
'Han, Song-De'
'Li, Jin-Hua'
'Wang, Guo-Ming'
_publ_section_title
;
 Syntheses, structures and efficient visible light-driven photocatalytic
 properties of layered cuprous halides based on two types of building
 units.
;
_journal_issue                   20
_journal_name_full
'Dalton transactions (Cambridge, England : 2003)'
_journal_page_first              6965
_journal_page_last               6972
_journal_paper_doi               10.1039/c7dt04733a
_journal_volume                  47
_journal_year                    2018
_chemical_formula_moiety         'C9 H6.24 F1.76 O2'
_chemical_formula_sum            'C9 H6.24 F1.76 O2'
_chemical_formula_weight         179.82
_space_group_crystal_system      monoclinic
_space_group_IT_number           14
_space_group_name_Hall           '-P 2yn'
_space_group_name_H-M_alt        'P 1 21/n 1'
_symmetry_space_group_name_Hall  '-P 2yn'
_symmetry_space_group_name_H-M   'P 1 21/n 1'
_atom_sites_solution_hydrogens   geom
_audit_creation_method           SHELXL-2014/7
_audit_update_record
;
2018-03-28 deposited with the CCDC.
2018-04-09 downloaded from the CCDC.
;
_cell_angle_alpha                90
_cell_angle_beta                 91.121(15)
_cell_angle_gamma                90
_cell_formula_units_Z            4
_cell_length_a                   3.7674(11)
_cell_length_b                   6.5778(19)
_cell_length_c                   31.345(9)
_cell_measurement_reflns_used    1593
_cell_measurement_temperature    293(2)
_cell_measurement_theta_max      27.4
_cell_measurement_theta_min      1.9
_cell_volume                     776.6(4)
_computing_structure_refinement  'SHELXL-2014/7 (Sheldrick, 2014)'
_diffrn_ambient_temperature      293(2)
_diffrn_measured_fraction_theta_full 0.926
_diffrn_measured_fraction_theta_max 0.932
_diffrn_measurement_device_type  CCD
_diffrn_radiation_type           MoK\a
_diffrn_radiation_wavelength     0.71073
_diffrn_reflns_av_R_equivalents  0.0993
_diffrn_reflns_av_unetI/netI     0.0966
_diffrn_reflns_Laue_measured_fraction_full 0.926
_diffrn_reflns_Laue_measured_fraction_max 0.932
_diffrn_reflns_limit_h_max       4
_diffrn_reflns_limit_h_min       -4
_diffrn_reflns_limit_k_max       8
_diffrn_reflns_limit_k_min       -8
_diffrn_reflns_limit_l_max       40
_diffrn_reflns_limit_l_min       -40
_diffrn_reflns_number            3976
_diffrn_reflns_point_group_measured_fraction_full 0.926
_diffrn_reflns_point_group_measured_fraction_max 0.932
_diffrn_reflns_theta_full        25.242
_diffrn_reflns_theta_max         27.487
_diffrn_reflns_theta_min         1.300
_exptl_absorpt_coefficient_mu    0.135
_exptl_crystal_colour            colourless
_exptl_crystal_density_diffrn    1.538
_exptl_crystal_description       plate
_exptl_crystal_F_000             368.3
_refine_diff_density_max         0.310
_refine_diff_density_min         -0.367
_refine_diff_density_rms         0.097
_refine_ls_extinction_method     none
_refine_ls_goodness_of_fit_ref   1.096
_refine_ls_hydrogen_treatment    constr
_refine_ls_matrix_type           full
_refine_ls_number_parameters     120
_refine_ls_number_reflns         1652
_refine_ls_number_restraints     0
_refine_ls_restrained_S_all      1.096
_refine_ls_R_factor_all          0.0997
_refine_ls_R_factor_gt           0.0807
_refine_ls_shift/su_max          0.000
_refine_ls_shift/su_mean         0.000
_refine_ls_structure_factor_coef Fsqd
_refine_ls_weighting_details
'w=1/[\s^2^(Fo^2^)+(0.1132P)^2^+0.6047P] where P=(Fo^2^+2Fc^2^)/3'
_refine_ls_weighting_scheme      calc
_refine_ls_wR_factor_gt          0.2350
_refine_ls_wR_factor_ref         0.2528
_reflns_Friedel_coverage         0.000
_reflns_number_gt                1204
_reflns_number_total             1652
_reflns_threshold_expression     'I > 2\s(I)'
_cod_data_source_file            c7dt04733a2.cif
_cod_data_source_block           4
_cod_depositor_comments
'Adding full bibliography for 7046123--7046152.cif.'
_cod_database_code               7046148
_shelx_shelxl_version_number     2014/7
_shelx_space_group_comment
;
The symmetry employed for this shelxl refinement is uniquely defined
by the following loop, which should always be used as a source of
symmetry information in preference to the above space-group names.
They are only intended as comments.
;
_shelx_res_file
;

    shelx.res created by SHELXL-2014/7

TITL datam in P2(1)/n
CELL  0.71073   3.7674   6.5778  31.3448   90.000   91.121   90.000
ZERR    18.00   0.0011   0.0019   0.0086    0.000    0.015    0.000
LATT   1
SYMM  1/2 - X, 1/2 + Y, 1/2 - Z
SFAC  C    H    O    F
UNIT  18 18 18 18
MERG   2
OMIT    -2.00  55.00
EQIV $1 -x+2, -y+1, -z
HTAB C2 O2_$1
EQIV $2 -x+5/2, y-1/2, -z+1/2
HTAB C6 F2_$2
EQIV $3 -x+1, -y, -z
HTAB O2 O1_$3
OMIT    -1   1   1
OMIT    -1   2  18
FMAP   2
PLAN   20
ACTA
HTAB    2.00000
BOND
BOND   $H
CONF
L.S.  50
WGHT    0.113200    0.604700
FVAR       0.85879   0.23962
MOLE    1
C1    1    0.657662    0.224748    0.034654    11.00000    0.02814    0.02573 =
         0.02319    0.00270    0.00121   -0.00179
C2    1    0.774700    0.398883    0.059980    11.00000    0.03101    0.02325 =
         0.02711    0.00034    0.00152   -0.00536
AFIX  43
H2    2    0.883660    0.507667    0.046535    11.00000   -1.20000
AFIX   0
C3    1    0.728303    0.405621    0.102537    11.00000    0.02667    0.02049 =
         0.02322    0.00261    0.00146   -0.00212
AFIX  43
H3    2    0.615894    0.294656    0.114746    11.00000   -1.20000
AFIX   0
C4    1    0.837109    0.570000    0.131402    11.00000    0.02166    0.02051 =
         0.02646    0.00202    0.00143   -0.00025
C5    1    0.796031    0.548680    0.175246    11.00000    0.02767    0.02252 =
         0.02698    0.00285    0.00266   -0.00014
C6    1    0.891616    0.697233    0.204980    11.00000    0.03717    0.03105 =
         0.02100   -0.00188    0.00061    0.00349
AFIX  43
H6    2    0.860120    0.678732    0.234076    11.00000   -1.20000
AFIX   0
C7    1    1.036468    0.874371    0.188749    11.00000    0.02921    0.02729 =
         0.03497   -0.00799   -0.00394   -0.00031
PART    1
AFIX  43
H7    2    1.105065    0.976275    0.207752    21.00000   -1.20000
AFIX   0
PART    2
F2    4    1.140732    1.019803    0.216117   -21.00000    0.05078    0.03615 =
         0.04141   -0.01502    0.00053   -0.00613
PART    0
C8    1    1.083276    0.906226    0.145898    11.00000    0.02746    0.01980 =
         0.04197    0.00161    0.00437   -0.00138
AFIX  43
H8    2    1.180624    1.027367    0.136268    11.00000   -1.20000
AFIX   0
C9    1    0.982988    0.754689    0.117101    11.00000    0.02772    0.02291 =
         0.02650    0.00453    0.00342   -0.00177
AFIX  43
H9    2    1.012592    0.775532    0.088041    11.00000   -1.20000
AFIX   0
O1    3    0.491384    0.078148    0.051450    11.00000    0.04270    0.02606 =
         0.02697    0.00198    0.00480   -0.01152
O2    3    0.730534    0.230426   -0.005342    11.00000    0.05252    0.03428 =
         0.02160   -0.00240    0.00528   -0.01611
AFIX 147
H2A   2    0.611554    0.144950   -0.018200    11.00000   -1.50000
AFIX   0
F1    4    0.649379    0.374079    0.189925    11.00000    0.06005    0.02815 =
         0.02593    0.00635    0.00838   -0.00662
HKLF    4

REM  datam in P2(1)/n
REM R1 =  0.0807 for    1204 Fo > 4sig(Fo)  and  0.0997 for all    1652 data
REM    120 parameters refined using      0 restraints

END

WGHT      0.1031      0.5951

REM Instructions for potential hydrogen bonds
HTAB C2 O2_$1
HTAB C6 F2_$2
HTAB O2 O1_$3

REM Highest difference peak  0.310,  deepest hole -0.367,  1-sigma level  0.097
Q1    1   1.0807  0.0746 -0.0075  11.00000  0.05    0.31
Q2    1   0.9781  1.0826  0.0831  11.00000  0.05    0.30
Q3    1   0.8548  0.4797  0.2400  11.00000  0.05    0.29
Q4    1   1.4906  0.9797  0.2133  11.00000  0.05    0.28
Q5    1   0.2619  0.0830  0.0403  11.00000  0.05    0.27
Q6    1   1.1600  1.1596  0.2598  11.00000  0.05    0.24
Q7    1   1.0329  0.2647  0.0107  11.00000  0.05    0.24
Q8    1   1.3357  0.8969  0.0889  11.00000  0.05    0.23
Q9    1   1.0408  0.3349  0.2213  11.00000  0.05    0.23
Q10   1   0.3320  0.4460  0.0741  11.00000  0.05    0.23
Q11   1   1.4339  1.0132  0.1660  11.00000  0.05    0.23
Q12   1   0.4786  0.2683 -0.0171  11.00000  0.05    0.23
Q13   1   0.2517  0.1200  0.0772  11.00000  0.05    0.23
Q14   1   0.3629  0.2223  0.0908  11.00000  0.05    0.22
Q15   1   1.0177  0.6597  0.2577  11.00000  0.05    0.22
Q16   1   0.8677  0.0564  0.0280  11.00000  0.05    0.22
Q17   1   1.4686  0.8638  0.1513  11.00000  0.05    0.21
Q18   1   1.0932  0.2338  0.0902  11.00000  0.05    0.21
Q19   1   0.5134  0.3998  0.0093  11.00000  0.05    0.21
Q20   1   0.4782  0.6415  0.0903  11.00000  0.05    0.21
;
_shelx_res_checksum              25958
loop_
_space_group_symop_operation_xyz
'x, y, z'
'-x+1/2, y+1/2, -z+1/2'
'-x, -y, -z'
'x-1/2, -y-1/2, z-1/2'
loop_
_atom_site_label
_atom_site_type_symbol
_atom_site_fract_x
_atom_site_fract_y
_atom_site_fract_z
_atom_site_U_iso_or_equiv
_atom_site_adp_type
_atom_site_occupancy
_atom_site_site_symmetry_order
_atom_site_calc_flag
_atom_site_refinement_flags_posn
_atom_site_refinement_flags_adp
_atom_site_refinement_flags_occupancy
_atom_site_disorder_assembly
_atom_site_disorder_group
C1 C 0.6577(9) 0.2247(5) 0.03465(10) 0.0257(7) Uani 1 1 d . . . . .
C2 C 0.7747(9) 0.3989(5) 0.05998(11) 0.0271(8) Uani 1 1 d . . . . .
H2 H 0.8837 0.5077 0.0465 0.033 Uiso 1 1 calc R U . . .
C3 C 0.7283(9) 0.4056(5) 0.10254(10) 0.0234(7) Uani 1 1 d . . . . .
H3 H 0.6159 0.2947 0.1147 0.028 Uiso 1 1 calc R U . . .
C4 C 0.8371(8) 0.5700(5) 0.13140(10) 0.0229(7) Uani 1 1 d . . . . .
C5 C 0.7960(9) 0.5487(5) 0.17525(11) 0.0257(8) Uani 1 1 d . . . . .
C6 C 0.8916(10) 0.6972(6) 0.20498(10) 0.0297(8) Uani 1 1 d . . . . .
H6 H 0.8601 0.6787 0.2341 0.036 Uiso 1 1 calc R U . . .
C7 C 1.0365(10) 0.8744(6) 0.18875(12) 0.0305(8) Uani 1 1 d . . . . .
H7 H 1.1051 0.9763 0.2078 0.037 Uiso 0.240(7) 1 calc R U P A 1
F2 F 1.1407(8) 1.0198(5) 0.21612(10) 0.0428(10) Uani 0.760(7) 1 d . . P A 2
C8 C 1.0833(9) 0.9062(5) 0.14590(12) 0.0297(8) Uani 1 1 d . . . . .
H8 H 1.1806 1.0274 0.1363 0.036 Uiso 1 1 calc R U . . .
C9 C 0.9830(9) 0.7547(5) 0.11710(11) 0.0257(7) Uani 1 1 d . . . . .
H9 H 1.0126 0.7755 0.0880 0.031 Uiso 1 1 calc R U . . .
O1 O 0.4914(7) 0.0781(4) 0.05145(7) 0.0319(7) Uani 1 1 d . . . . .
O2 O 0.7305(8) 0.2304(4) -0.00534(8) 0.0361(7) Uani 1 1 d . . . . .
H2A H 0.6116 0.1449 -0.0182 0.054 Uiso 1 1 calc R U . . .
F1 F 0.6494(6) 0.3741(3) 0.18993(6) 0.0379(6) Uani 1 1 d . . . . .
loop_
_atom_site_aniso_label
_atom_site_aniso_U_11
_atom_site_aniso_U_22
_atom_site_aniso_U_33
_atom_site_aniso_U_23
_atom_site_aniso_U_13
_atom_site_aniso_U_12
C1 0.0281(16) 0.0257(17) 0.0232(15) 0.0027(12) 0.0012(12) -0.0018(14)
C2 0.0310(17) 0.0233(17) 0.0271(16) 0.0003(12) 0.0015(13) -0.0054(14)
C3 0.0267(16) 0.0205(16) 0.0232(15) 0.0026(12) 0.0015(12) -0.0021(13)
C4 0.0217(15) 0.0205(17) 0.0265(16) 0.0020(12) 0.0014(12) -0.0003(12)
C5 0.0277(17) 0.0225(18) 0.0270(16) 0.0028(12) 0.0027(13) -0.0001(13)
C6 0.0372(19) 0.0311(19) 0.0210(15) -0.0019(13) 0.0006(14) 0.0035(15)
C7 0.0292(17) 0.0273(18) 0.0350(18) -0.0080(13) -0.0039(14) -0.0003(14)
F2 0.051(2) 0.0361(19) 0.0414(18) -0.0150(13) 0.0005(14) -0.0061(14)
C8 0.0275(17) 0.0198(16) 0.0420(19) 0.0016(14) 0.0044(15) -0.0014(13)
C9 0.0277(17) 0.0229(17) 0.0265(15) 0.0045(12) 0.0034(12) -0.0018(13)
O1 0.0427(15) 0.0261(13) 0.0270(13) 0.0020(9) 0.0048(11) -0.0115(11)
O2 0.0525(17) 0.0343(15) 0.0216(12) -0.0024(10) 0.0053(11) -0.0161(13)
F1 0.0600(15) 0.0281(12) 0.0259(11) 0.0063(8) 0.0084(10) -0.0066(10)
loop_
_atom_type_symbol
_atom_type_description
_atom_type_scat_dispersion_real
_atom_type_scat_dispersion_imag
_atom_type_scat_source
C C 0.0033 0.0016 'International Tables Vol C Tables 4.2.6.8 and 6.1.1.4'
H H 0.0000 0.0000 'International Tables Vol C Tables 4.2.6.8 and 6.1.1.4'
O O 0.0106 0.0060 'International Tables Vol C Tables 4.2.6.8 and 6.1.1.4'
F F 0.0171 0.0103 'International Tables Vol C Tables 4.2.6.8 and 6.1.1.4'
loop_
_geom_angle_atom_site_label_1
_geom_angle_atom_site_label_2
_geom_angle_atom_site_label_3
_geom_angle
O1 C1 O2 122.8(3)
O1 C1 C2 121.2(3)
O2 C1 C2 116.0(3)
C3 C2 C1 121.4(3)
C3 C2 H2 119.3
C1 C2 H2 119.3
C2 C3 C4 126.5(3)
C2 C3 H3 116.7
C4 C3 H3 116.7
C5 C4 C9 116.9(3)
C5 C4 C3 120.0(3)
C9 C4 C3 123.1(3)
F1 C5 C4 118.2(3)
F1 C5 C6 117.9(3)
C4 C5 C6 123.9(3)
C7 C6 C5 116.2(3)
C7 C6 H6 121.9
C5 C6 H6 121.9
F2 C7 C8 118.4(4)
F2 C7 C6 118.5(3)
C8 C7 C6 123.0(3)
C8 C7 H7 118.5
C6 C7 H7 118.5
C7 C8 C9 119.1(3)
C7 C8 H8 120.5
C9 C8 H8 120.5
C8 C9 C4 120.9(3)
C8 C9 H9 119.6
C4 C9 H9 119.6
C1 O2 H2A 109.5
loop_
_geom_bond_atom_site_label_1
_geom_bond_atom_site_label_2
_geom_bond_distance
C1 O1 1.270(4)
C1 O2 1.289(4)
C1 C2 1.457(5)
C2 C3 1.349(5)
C2 H2 0.9300
C3 C4 1.463(4)
C3 H3 0.9300
C4 C5 1.393(4)
C4 C9 1.410(4)
C5 F1 1.359(4)
C5 C6 1.393(5)
C6 C7 1.387(5)
C6 H6 0.9300
C7 F2 1.339(4)
C7 C8 1.374(5)
C7 H7 0.9300
C8 C9 1.392(5)
C8 H8 0.9300
C9 H9 0.9300
O2 H2A 0.8200
loop_
_geom_hbond_atom_site_label_D
_geom_hbond_atom_site_label_H
_geom_hbond_atom_site_label_A
_geom_hbond_distance_DH
_geom_hbond_distance_HA
_geom_hbond_distance_DA
_geom_hbond_angle_DHA
_geom_hbond_site_symmetry_A
C2 H2 O2 0.93 2.61 3.532(4) 170.5 3_765
C6 H6 F2 0.93 2.64 3.227(5) 122.0 2_745
O2 H2A O1 0.82 1.84 2.619(4) 159.1 3_655
loop_
_geom_torsion_atom_site_label_1
_geom_torsion_atom_site_label_2
_geom_torsion_atom_site_label_3
_geom_torsion_atom_site_label_4
_geom_torsion
O1 C1 C2 C3 3.7(5)
O2 C1 C2 C3 -176.8(3)
C1 C2 C3 C4 179.3(3)
C2 C3 C4 C5 -175.0(3)
C2 C3 C4 C9 5.5(6)
C9 C4 C5 F1 178.7(3)
C3 C4 C5 F1 -0.9(5)
C9 C4 C5 C6 -0.3(5)
C3 C4 C5 C6 -179.9(3)
F1 C5 C6 C7 -179.2(3)
C4 C5 C6 C7 -0.2(5)
C5 C6 C7 F2 -178.4(3)
C5 C6 C7 C8 0.5(6)
F2 C7 C8 C9 178.7(3)
C6 C7 C8 C9 -0.2(6)
C7 C8 C9 C4 -0.4(5)
C5 C4 C9 C8 0.6(5)
C3 C4 C9 C8 -179.8(3)
