#------------------------------------------------------------------------------
#$Date: 2019-11-17 11:13:51 +0200 (Sun, 17 Nov 2019) $
#$Revision: 229521 $
#$URL: file:///home/coder/svn-repositories/cod/cif/7/04/65/7046595.cif $
#------------------------------------------------------------------------------
#
# This file is available in the Crystallography Open Database (COD),
# http://www.crystallography.net/
#
# All data on this site have been placed in the public domain by the
# contributors.
#
data_7046595
loop_
_publ_author_name
'Spirkl, S.'
'Grzywa, M.'
'Volkmer, D.'
_publ_section_title
;
 Synthesis and characterization of a flexible metal organic framework
 generated from Mn<sup>III</sup> and the 4,4'-bipyrazolate-ligand.
;
_journal_issue                   26
_journal_name_full
'Dalton transactions (Cambridge, England : 2003)'
_journal_page_first              8779
_journal_page_last               8786
_journal_paper_doi               10.1039/c8dt01185k
_journal_volume                  47
_journal_year                    2018
_chemical_formula_moiety         'C6 H5 Mn N4 O, (C4 H9 N O)'
_chemical_formula_sum            'C10 H14 Mn N5 O2'
_chemical_formula_weight         291.20
_space_group_crystal_system      monoclinic
_space_group_IT_number           12
_space_group_name_Hall           '-C 2y'
_space_group_name_H-M_alt        'C 1 2/m 1'
_symmetry_space_group_name_Hall  '-C 2y'
_symmetry_space_group_name_H-M   'C 1 2/m 1'
_atom_sites_solution_hydrogens   geom
_audit_creation_method           SHELXL-2016/6
_audit_update_record
;
2018-03-08 deposited with the CCDC.
2018-06-04 downloaded from the CCDC.
;
_cell_angle_alpha                90
_cell_angle_beta                 115.41(3)
_cell_angle_gamma                90
_cell_formula_units_Z            4
_cell_length_a                   12.911(3)
_cell_length_b                   14.712(3)
_cell_length_c                   6.6415(13)
_cell_measurement_reflns_used    381
_cell_measurement_temperature    100(2)
_cell_measurement_theta_max      20.0
_cell_measurement_theta_min      3.67
_cell_volume                     1139.5(5)
_computing_cell_refinement       'Bruker SAINT'
_computing_data_collection       'Bruker APEX3'
_computing_data_reduction        'Bruker SAINT'
_computing_molecular_graphics    'Diamond 4.4'
_computing_publication_material  Word
_computing_structure_refinement  'SHELXL-2016/6 (Sheldrick, 2016)'
_computing_structure_solution    'SHELXT 2014/5 (Sheldrick, 2014)'
_diffrn_ambient_temperature      100(2)
_diffrn_measured_fraction_theta_full 0.901
_diffrn_measured_fraction_theta_max 0.901
_diffrn_measurement_device_type  'Bruker APEX-II CCD'
_diffrn_measurement_method       '\f and \w scans'
_diffrn_radiation_type           MoK\a
_diffrn_radiation_wavelength     0.71073
_diffrn_reflns_av_R_equivalents  0.1606
_diffrn_reflns_av_unetI/netI     0.1609
_diffrn_reflns_Laue_measured_fraction_full 0.901
_diffrn_reflns_Laue_measured_fraction_max 0.901
_diffrn_reflns_limit_h_max       12
_diffrn_reflns_limit_h_min       -12
_diffrn_reflns_limit_k_max       14
_diffrn_reflns_limit_k_min       -14
_diffrn_reflns_limit_l_max       6
_diffrn_reflns_limit_l_min       0
_diffrn_reflns_number            1808
_diffrn_reflns_point_group_measured_fraction_full 0.901
_diffrn_reflns_point_group_measured_fraction_max 0.901
_diffrn_reflns_theta_full        19.983
_diffrn_reflns_theta_max         19.983
_diffrn_reflns_theta_min         2.769
_diffrn_source                   'fine-focus sealed tube'
_exptl_absorpt_coefficient_mu    1.161
_exptl_absorpt_correction_T_max  0.745159
_exptl_absorpt_correction_T_min  0.548498
_exptl_absorpt_correction_type   multi-scan
_exptl_absorpt_process_details   'SADABS V2012/1 (Bruker AXS Inc.)'
_exptl_crystal_colour            brown
_exptl_crystal_density_diffrn    1.697
_exptl_crystal_description       'block crystal'
_exptl_crystal_F_000             600
_exptl_crystal_size_max          0.03
_exptl_crystal_size_mid          0.02
_exptl_crystal_size_min          0.02
_refine_diff_density_max         1.674
_refine_diff_density_min         -0.719
_refine_diff_density_rms         0.176
_refine_ls_extinction_method     none
_refine_ls_goodness_of_fit_ref   1.114
_refine_ls_hydrogen_treatment    constr
_refine_ls_matrix_type           full
_refine_ls_number_parameters     60
_refine_ls_number_reflns         510
_refine_ls_number_restraints     29
_refine_ls_restrained_S_all      1.085
_refine_ls_R_factor_all          0.1899
_refine_ls_R_factor_gt           0.1269
_refine_ls_shift/su_max          0.000
_refine_ls_shift/su_mean         0.000
_refine_ls_structure_factor_coef Fsqd
_refine_ls_weighting_details
'w=1/[\s^2^(Fo^2^)+(0.2000P)^2^] where P=(Fo^2^+2Fc^2^)/3'
_refine_ls_weighting_scheme      calc
_refine_ls_wR_factor_gt          0.3122
_refine_ls_wR_factor_ref         0.3406
_reflns_Friedel_coverage         0.000
_reflns_number_gt                264
_reflns_number_total             510
_reflns_threshold_expression     'I > 2\s(I)'
_cod_data_source_file            c8dt01185k2.cif
_cod_data_source_block           Mn-CFA-6
_cod_depositor_comments          'Adding full bibliography for 7046595.cif.'
_cod_database_code               7046595
_shelx_shelxl_version_number     2016/6
_shelx_space_group_comment
;
The symmetry employed for this shelxl refinement is uniquely defined
by the following loop, which should always be used as a source of
symmetry information in preference to the above space-group names.
They are only intended as comments.
;
_shelx_res_file
;

TITL Mn-CFA-6 in C2/m
    Mn-CFA-6.res
    created by SHELXL-2016/6 at 20:46:52 on 18-Sep-2017
CELL 0.71073 12.9109 14.7116 6.6415 90.000 115.409 90.000
ZERR 4.00 0.0026 0.0029 0.0013 0.000 0.030 0.000
LATT 7
SYMM -x, y, -z
SFAC C H N O MN
UNIT 40 56 20 8 4
LIST 6 ! automatically inserted. Change 6 to 4 for CHECKCIF!!
TEMP -173.140
L.S. 10
BOND
DELU 0.005 C2 C3 C1 N1 N2
SIMU 0.01 C2 C3 C1 N1 N2
SIMU
ACTA
FMAP 2
PLAN 20
ABIN
WGHT    0.200000
FVAR       0.16883
MN1   5    0.000000    0.000000    0.000000    10.25000    0.04753    0.07487 =
         0.04681    0.00000    0.02437    0.00000
MN2   5    0.000000    0.000000    0.500000    10.25000    0.04429    0.04384 =
         0.07767    0.00000    0.01695    0.00000
O1    4    0.104054    0.000000    0.372800    10.50000    0.02493    0.07782 =
         0.08003    0.00000    0.00571    0.00000
AFIX  43
H1O   2    0.185321    0.000000    0.450464    10.50000   -1.20000
AFIX   0
N1    3    0.093714    0.097519   -0.057723    11.00000    0.05801    0.06822 =
         0.07605    0.00210    0.03568   -0.00499
N2    3    0.095056    0.098077    0.749869    11.00000    0.05630    0.06754 =
         0.03096   -0.01298    0.02306    0.00528
C1    1    0.169077    0.166372   -0.249611    11.00000    0.06038    0.06566 =
         0.05797    0.00771    0.04011   -0.00558
AFIX  43
H1    2    0.189534    0.181116   -0.367097    11.00000   -1.20000
AFIX   0
C3    1    0.207496    0.209041   -0.043666    11.00000    0.06203    0.06937 =
         0.05901    0.00659    0.04194   -0.00493
C2    1    0.161876    0.164341    0.071151    11.00000    0.05639    0.06641 =
         0.06172    0.00629    0.04163   -0.00737
AFIX  43
H2    2    0.174898    0.177121    0.220346    11.00000   -1.20000

AFIX   0
HKLF 4




REM  Mn-CFA-6 in C2/m
REM R1 =  0.1269 for     264 Fo > 4sig(Fo)  and  0.1899 for all     510 data
REM     60 parameters refined using     29 restraints

END

WGHT      0.2000      0.0000

REM Highest difference peak  1.674,  deepest hole -0.719,  1-sigma level  0.176
Q1    1   0.0021  0.0000  0.2468  10.50000  0.05    1.67
Q2    1   0.0779  0.0000  0.6881  10.50000  0.05    0.84
Q3    1   0.0955  0.0000 -0.0534  10.50000  0.05    0.66
Q4    1   0.0967  0.0991 -0.5012  11.00000  0.05    0.64
Q5    1   0.1785  0.0000  0.7050  10.50000  0.05    0.55
Q6    1   0.0986  0.0918  0.1319  11.00000  0.05    0.54
Q7    1   0.1745  0.0000  0.2049  10.50000  0.05    0.50
Q8    1   0.0046  0.0960  0.7414  11.00000  0.05    0.50
Q9    1   0.2869  0.0000  0.5233  10.50000  0.05    0.49
Q10   1   0.1878  0.1905 -0.5094  11.00000  0.05    0.45
Q11   1   0.2868  0.1513  0.0641  11.00000  0.05    0.44
Q12   1   0.1951  0.0883 -0.4183  11.00000  0.05    0.42
Q13   1   0.1905  0.2697  0.1139  11.00000  0.05    0.41
Q14   1   0.0000  0.1132  0.0000  10.50000  0.05    0.41
Q15   1   0.0020  0.1699  0.6101  11.00000  0.05    0.39
Q16   1   0.2500  0.2500 -0.5000  10.50000  0.05    0.35
Q17   1  -0.0219  0.1542 -0.0769  11.00000  0.05    0.32
Q18   1   0.1922  0.1882  0.0068  11.00000  0.05    0.28
Q19   1   0.1950  0.0822  0.9109  11.00000  0.05    0.27
Q20   1   0.5356  0.0000  0.7779  10.50000  0.05    0.27
;
_shelx_res_checksum              97019
_shelx_fab_file
;
    2    0    0     58.26      0.00
    4    0    0     -9.23      0.00
    6    0    0     16.13      0.00
    8    0    0     -5.23      0.00
   10    0    0     -0.97      0.00
    3    1    0     15.74      0.00
    5    1    0     -9.84      0.00
    7    1    0     -5.22      0.00
    9    1    0      1.17      0.00
   11    1    0     -0.13      0.00
    0    2    0     75.69      0.00
    2    2    0     -5.40      0.00
    4    2    0    -13.73      0.00
    6    2    0      9.82      0.00
    8    2    0      2.04      0.00
   10    2    0      7.59      0.00
    1    3    0     -4.04      0.00
    3    3    0     29.84      0.00
    5    3    0      2.33      0.00
    7    3    0     -6.68      0.00
    9    3    0     -3.61      0.00
    0    4    0     17.10      0.00
    2    4    0    -16.87      0.00
    4    4    0    -16.06      0.00
    6    4    0      4.83      0.00
    8    4    0      4.28      0.00
   10    4    0      3.45      0.00
    1    5    0    -13.98      0.00
    3    5    0     13.01      0.00
    5    5    0      1.45      0.00
    7    5    0     -9.42      0.00
    9    5    0      0.25      0.00
    0    6    0     26.69      0.00
    2    6    0      4.80      0.00
    4    6    0     -1.25      0.00
    6    6    0      6.51      0.00
    8    6    0      2.03      0.00
   10    6    0      2.92      0.00
    1    7    0    -19.75      0.00
    3    7    0     -4.67      0.00
    5    7    0      0.85      0.00
    7    7    0     -4.72      0.00
    9    7    0      2.98      0.00
    0    8    0     17.01      0.00
    2    8    0      8.88      0.00
    4    8    0     -3.33      0.00
    6    8    0     -2.11      0.00
    8    8    0      0.93      0.00
    1    9    0     -3.54      0.00
    3    9    0     -0.35      0.00
    5    9    0     12.53      0.00
    7    9    0     -1.04      0.00
    0   10    0     -5.47      0.00
    2   10    0     -1.04      0.00
    4   10    0    -10.50      0.00
    6   10    0    -14.02      0.00
    1   11    0      6.11      0.00
    3   11    0      4.53      0.00
    5   11    0     21.47      0.00
    7   11    0      7.74      0.00
    0   12    0     -4.34      0.00
    2   12    0     -4.45      0.00
    4   12    0    -10.44      0.00
    1   13    0      1.93      0.00
    3   13    0      0.84      0.00
    0   14    0      0.87      0.00
   10    0    1      2.45      0.00
    8    0    1      4.22      0.00
    6    0    1    -14.11      0.00
    4    0    1    -11.32      0.00
    2    0    1    -14.59      0.00
    0    0    1    -18.27      0.00
   -2    0    1     22.36      0.00
   -4    0    1      8.20      0.00
   -6    0    1     -1.49      0.00
   -8    0    1     17.33      0.00
  -10    0    1     -3.79      0.00
    9    1    1     -4.45      0.00
    7    1    1      0.60      0.00
    5    1    1     15.96      0.00
    3    1    1      1.40      0.00
    1    1    1     12.40      0.00
   -1    1    1     -1.90      0.00
   -3    1    1    -17.08      0.00
   -5    1    1      6.74      0.00
   -7    1    1    -14.00      0.00
   -9    1    1     -3.08      0.00
  -11    1    1      0.36      0.00
   10    2    1     -0.57      0.00
    8    2    1      6.66      0.00
    6    2    1     -8.74      0.00
    4    2    1     -2.77      0.00
    2    2    1      7.00      0.00
    0    2    1      2.72      0.00
   -2    2    1      4.52      0.00
   -4    2    1      0.30      0.00
   -6    2    1      1.12      0.00
   -8    2    1      8.28      0.00
  -10    2    1     -2.73      0.00
    9    3    1     -2.74      0.00
    7    3    1     -0.44      0.00
    5    3    1      7.46      0.00
    3    3    1     -7.65      0.00
    1    3    1     -6.43      0.00
   -1    3    1     -4.74      0.00
   -3    3    1     -3.83      0.00
   -5    3    1      3.01      0.00
   -7    3    1     -2.33      0.00
   -9    3    1      2.68      0.00
  -11    3    1     -2.49      0.00
    8    4    1      2.92      0.00
    6    4    1     -5.94      0.00
    4    4    1      4.81      0.00
    2    4    1      4.72      0.00
    0    4    1      3.98      0.00
   -2    4    1      6.37      0.00
   -4    4    1     -0.16      0.00
   -6    4    1     -7.81      0.00
   -8    4    1     -0.63      0.00
  -10    4    1     -2.57      0.00
    9    5    1     -0.69      0.00
    7    5    1      0.37      0.00
    5    5    1      4.01      0.00
    3    5    1     -9.60      0.00
    1    5    1     -2.67      0.00
   -1    5    1     -3.69      0.00
   -3    5    1     -1.40      0.00
   -5    5    1     10.67      0.00
   -7    5    1     -1.57      0.00
   -9    5    1      1.09      0.00
  -11    5    1      2.80      0.00
    8    6    1      2.41      0.00
    6    6    1     -5.66      0.00
    4    6    1     -1.71      0.00
    2    6    1      4.44      0.00
    0    6    1      1.04      0.00
   -2    6    1     -0.88      0.00
   -4    6    1     -3.11      0.00
   -6    6    1      0.82      0.00
   -8    6    1      8.32      0.00
  -10    6    1     -6.26      0.00
    7    7    1     -2.42      0.00
    5    7    1      6.05      0.00
    3    7    1      2.35      0.00
    1    7    1      2.38      0.00
   -1    7    1      2.44      0.00
   -3    7    1     -3.52      0.00
   -5    7    1     -2.41      0.00
   -7    7    1     -8.10      0.00
   -9    7    1      2.72      0.00
    8    8    1      0.79      0.00
    6    8    1      3.28      0.00
    4    8    1      0.53      0.00
    2    8    1     -4.17      0.00
    0    8    1     -1.29      0.00
   -2    8    1      1.04      0.00
   -4    8    1      5.23      0.00
   -6    8    1     -0.76      0.00
   -8    8    1     -0.74      0.00
    7    9    1     -0.84      0.00
    5    9    1     -4.35      0.00
    3    9    1     -1.00      0.00
    1    9    1     -1.13      0.00
   -1    9    1     -2.18      0.00
   -3    9    1      0.46      0.00
   -5    9    1      2.79      0.00
   -7    9    1      2.10      0.00
   -9    9    1      1.40      0.00
    6   10    1     -1.28      0.00
    4   10    1      1.15      0.00
    2   10    1     -0.68      0.00
    0   10    1      6.76      0.00
   -2   10    1     -2.99      0.00
   -4   10    1     -2.39      0.00
   -6   10    1     -1.02      0.00
   -8   10    1      2.97      0.00
    5   11    1      0.50      0.00
    3   11    1      1.22      0.00
    1   11    1     -1.46      0.00
   -1   11    1     -1.39      0.00
   -3   11    1      1.80      0.00
   -5   11    1     -0.20      0.00
   -7   11    1     -1.51      0.00
    4   12    1      2.15      0.00
    2   12    1     -0.66      0.00
    0   12    1     -0.02      0.00
   -2   12    1     -0.21      0.00
   -4   12    1      2.05      0.00
   -6   12    1     -2.82      0.00
    3   13    1     -1.55      0.00
    1   13    1      0.80      0.00
   -1   13    1      0.94      0.00
   -3   13    1     -3.30      0.00
    8    0    2      1.06      0.00
    6    0    2      3.13      0.00
    4    0    2     -4.51      0.00
    2    0    2      5.05      0.00
   -2    0    2    -47.78      0.00
   -4    0    2    -14.51      0.00
   -6    0    2      7.60      0.00
   -8    0    2     -6.63      0.00
  -10    0    2     -1.68      0.00
  -12    0    2     -1.77      0.00
    7    1    2     -0.99      0.00
    5    1    2      1.03      0.00
    3    1    2      4.97      0.00
    1    1    2     -8.63      0.00
   -1    1    2     20.24      0.00
   -3    1    2     32.77      0.00
   -5    1    2     -4.93      0.00
   -7    1    2      3.03      0.00
   -9    1    2      4.41      0.00
  -11    1    2     -0.24      0.00
    8    2    2     -5.71      0.00
    6    2    2      2.99      0.00
    4    2    2     -7.95      0.00
    2    2    2      1.23      0.00
    0    2    2      7.51      0.00
   -2    2    2    -20.66      0.00
   -4    2    2     -6.22      0.00
   -6    2    2      2.28      0.00
   -8    2    2     -6.40      0.00
  -10    2    2      0.68      0.00
  -12    2    2      0.94      0.00
    7    3    2     -0.10      0.00
    5    3    2      0.21      0.00
    3    3    2      5.00      0.00
    1    3    2    -11.27      0.00
   -1    3    2      5.16      0.00
   -3    3    2     13.58      0.00
   -5    3    2     -6.30      0.00
   -7    3    2      1.34      0.00
   -9    3    2      3.22      0.00
  -11    3    2     -2.75      0.00
    8    4    2     -3.89      0.00
    6    4    2      2.93      0.00
    4    4    2     -4.50      0.00
    2    4    2      8.01      0.00
    0    4    2      5.38      0.00
   -2    4    2    -14.54      0.00
   -4    4    2      1.05      0.00
   -6    4    2      7.45      0.00
   -8    4    2     -3.61      0.00
  -10    4    2     -1.16      0.00
    7    5    2      0.54      0.00
    5    5    2      1.61      0.00
    3    5    2      0.48      0.00
    1    5    2     -8.02      0.00
   -1    5    2      4.08      0.00
   -3    5    2      6.92      0.00
   -5    5    2     -5.75      0.00
   -7    5    2     -0.18      0.00
   -9    5    2      4.54      0.00
  -11    5    2     -1.52      0.00
    6    6    2      1.36      0.00
    4    6    2     -2.72      0.00
    2    6    2      1.47      0.00
    0    6    2     -0.29      0.00
   -2    6    2     -6.77      0.00
   -4    6    2     -4.19      0.00
   -6    6    2      2.23      0.00
   -8    6    2     -3.43      0.00
  -10    6    2     -1.05      0.00
    7    7    2     -1.01      0.00
    5    7    2      0.01      0.00
    3    7    2     -2.40      0.00
    1    7    2     -0.58      0.00
   -1    7    2      5.87      0.00
   -3    7    2      9.65      0.00
   -5    7    2     -0.70      0.00
   -7    7    2     -2.80      0.00
   -9    7    2      3.81      0.00
    6    8    2      0.31      0.00
    4    8    2      1.04      0.00
    2    8    2      8.32      0.00
    0    8    2     -1.15      0.00
   -2    8    2     -5.94      0.00
   -4    8    2     -2.26      0.00
   -6    8    2      6.33      0.00
   -8    8    2     -0.77      0.00
  -10    8    2     -1.46      0.00
    5    9    2     -0.24      0.00
    3    9    2     -4.94      0.00
    1    9    2     -3.36      0.00
   -1    9    2      1.05      0.00
   -3    9    2     -0.18      0.00
   -5    9    2     -0.76      0.00
   -7    9    2     -2.50      0.00
   -9    9    2     -0.56      0.00
    4   10    2      2.23      0.00
    2   10    2      0.87      0.00
    0   10    2     -4.15      0.00
   -2   10    2      1.66      0.00
   -4   10    2     -2.25      0.00
   -6   10    2     -1.54      0.00
   -8   10    2      5.69      0.00
    3   11    2     -2.56      0.00
    1   11    2      3.72      0.00
   -1   11    2      2.10      0.00
   -3   11    2      0.89      0.00
   -5   11    2      3.83      0.00
   -7   11    2     -4.56      0.00
    2   12    2      1.96      0.00
    0   12    2     -0.12      0.00
   -2   12    2      0.62      0.00
   -4   12    2     -2.48      0.00
   -6   12    2     -0.12      0.00
    1   13    2     -0.96      0.00
   -1   13    2     -3.32      0.00
   -3   13    2      0.36      0.00
    6    0    3      7.66      0.00
    4    0    3      1.41      0.00
    2    0    3      8.76      0.00
   -2    0    3    -16.42      0.00
   -4    0    3    -13.79      0.00
   -6    0    3    -10.68      0.00
   -8    0    3      1.97      0.00
  -10    0    3      2.21      0.00
  -12    0    3      1.42      0.00
    7    1    3     -4.64      0.00
    5    1    3      0.14      0.00
    3    1    3     -1.95      0.00
    1    1    3     -2.51      0.00
   -3    1    3     13.94      0.00
   -5    1    3      3.23      0.00
   -7    1    3      3.23      0.00
   -9    1    3     -2.10      0.00
  -11    1    3      0.40      0.00
    6    2    3     -4.97      0.00
    4    2    3     -2.28      0.00
    2    2    3     -1.32      0.00
   -2    2    3    -12.16      0.00
   -4    2    3      2.36      0.00
   -6    2    3      2.60      0.00
   -8    2    3     -0.95      0.00
  -10    2    3     -6.05      0.00
  -12    2    3      4.15      0.00
    7    3    3      4.59      0.00
    5    3    3      3.69      0.00
    3    3    3     -3.49      0.00
    1    3    3      7.17      0.00
   -1    3    3      8.13      0.00
   -3    3    3      3.10      0.00
   -5    3    3     -1.27      0.00
   -7    3    3      2.16      0.00
   -9    3    3      8.35      0.00
  -11    3    3      1.60      0.00
    6    4    3     -2.45      0.00
    4    4    3      1.60      0.00
    2    4    3      4.85      0.00
    0    4    3     -1.42      0.00
   -2    4    3     -0.15      0.00
   -4    4    3     -5.38      0.00
   -6    4    3     -4.37      0.00
   -8    4    3     -6.31      0.00
  -10    4    3     -6.71      0.00
    5    5    3      4.65      0.00
    3    5    3     -7.06      0.00
    1    5    3     -3.93      0.00
   -1    5    3     -1.69      0.00
   -3    5    3      2.49      0.00
   -5    5    3      0.30      0.00
   -7    5    3      2.84      0.00
   -9    5    3      5.42      0.00
  -11    5    3     -1.01      0.00
    6    6    3     -6.28      0.00
    4    6    3     -0.01      0.00
    2    6    3     11.85      0.00
    0    6    3      0.24      0.00
   -2    6    3     -1.23      0.00
   -4    6    3      1.16      0.00
   -6    6    3      2.82      0.00
   -8    6    3     -1.63      0.00
  -10    6    3     -1.13      0.00
    5    7    3      5.38      0.00
    3    7    3     -9.82      0.00
    1    7    3     -5.55      0.00
   -1    7    3      0.55      0.00
   -3    7    3      4.90      0.00
   -5    7    3      2.46      0.00
   -7    7    3     -0.33      0.00
   -9    7    3      0.44      0.00
    4    8    3      0.90      0.00
    2    8    3      6.57      0.00
    0    8    3     -0.63      0.00
   -2    8    3     -2.48      0.00
   -4    8    3    -12.76      0.00
   -6    8    3     -3.67      0.00
   -8    8    3      1.75      0.00
  -10    8    3     -2.07      0.00
    3    9    3     -6.58      0.00
    1    9    3      0.95      0.00
   -1    9    3      0.99      0.00
   -3    9    3      9.70      0.00
   -5    9    3      7.61      0.00
   -7    9    3     -3.75      0.00
   -9    9    3      1.05      0.00
    2   10    3      9.37      0.00
    0   10    3     -3.09      0.00
   -2   10    3     -3.67      0.00
   -4   10    3     -7.44      0.00
   -6   10    3      4.73      0.00
   -8   10    3      4.49      0.00
    1   11    3     -4.47      0.00
   -1   11    3      1.99      0.00
   -3   11    3      5.02      0.00
   -5   11    3     -2.25      0.00
   -7   11    3     -8.43      0.00
    0   12    3      1.00      0.00
   -2   12    3     -0.23      0.00
   -4   12    3      0.92      0.00
    4    0    4     -7.14      0.00
    2    0    4     -8.48      0.00
   -6    0    4      8.40      0.00
   -8    0    4     -4.35      0.00
  -10    0    4     -3.24      0.00
  -12    0    4     -1.60      0.00
    5    1    4      0.27      0.00
    3    1    4      6.38      0.00
    1    1    4      1.14      0.00
   -3    1    4     -4.16      0.00
   -5    1    4    -17.80      0.00
   -7    1    4      2.69      0.00
   -9    1    4      2.28      0.00
  -11    1    4      2.42      0.00
    4    2    4     -0.65      0.00
    2    2    4      1.96      0.00
    0    2    4      5.69      0.00
   -2    2    4    -17.43      0.00
   -4    2    4     -2.08      0.00
   -6    2    4      2.80      0.00
   -8    2    4     -2.96      0.00
  -10    2    4     -1.47      0.00
    5    3    4     -2.20      0.00
    3    3    4     -1.45      0.00
    1    3    4     -7.91      0.00
   -1    3    4      5.22      0.00
   -3    3    4     22.58      0.00
   -7    3    4      5.05      0.00
   -9    3    4      1.86      0.00
    4    4    4     -0.22      0.00
    2    4    4      3.83      0.00
    0    4    4      3.92      0.00
   -2    4    4    -15.15      0.00
   -4    4    4    -11.20      0.00
   -6    4    4     -2.35      0.00
   -8    4    4     -3.32      0.00
  -10    4    4      1.74      0.00
    3    5    4     -0.45      0.00
    1    5    4     -2.62      0.00
   -1    5    4      1.52      0.00
   -3    5    4     19.87      0.00
   -5    5    4      8.47      0.00
   -7    5    4     -1.31      0.00
   -9    5    4     -1.05      0.00
  -11    5    4     -5.89      0.00
    4    6    4     -9.42      0.00
    2    6    4     -0.01      0.00
    0    6    4      2.83      0.00
   -2    6    4    -11.27      0.00
   -4    6    4    -20.35      0.00
   -6    6    4     -0.19      0.00
   -8    6    4      6.77      0.00
  -10    6    4     -0.50      0.00
    3    7    4      7.39      0.00
    1    7    4     -0.02      0.00
   -1    7    4     -0.52      0.00
   -3    7    4     16.32      0.00
   -5    7    4      6.70      0.00
   -7    7    4     -5.76      0.00
   -9    7    4     -0.20      0.00
    2    8    4     -1.34      0.00
    0    8    4      5.49      0.00
   -2    8    4     -3.26      0.00
   -4    8    4     -8.28      0.00
   -6    8    4     -0.30      0.00
   -8    8    4     -0.13      0.00
    1    9    4    -11.61      0.00
   -1    9    4    -13.86      0.00
   -3    9    4      7.89      0.00
   -5    9    4      4.21      0.00
   -7    9    4      4.76      0.00
    0   10    4     29.13      0.00
   -2   10    4      4.62      0.00
   -6   10    4     -5.51      0.00
   -8    0    5      7.42      0.00
  -10    0    5      4.83      0.00
   -7    1    5     -2.49      0.00
   -9    1    5     -5.26      0.00
  -11    1    5     -4.26      0.00
    2    2    5     -7.08      0.00
   -6    2    5     -4.55      0.00
   -8    2    5      6.10      0.00
  -10    2    5     -4.31      0.00
    1    3    5     14.91      0.00
   -7    3    5     -4.31      0.00
   -9    3    5      3.17      0.00
    2    4    5     -1.44      0.00
    0    4    5    -10.77      0.00
   -6    4    5      1.05      0.00
   -8    4    5      2.02      0.00
  -10    4    5    -12.77      0.00
   -9    5    5      5.09      0.00
   -6    6    5     -7.75      0.00
   -8    6    5     -7.52      0.00
   -7    7    5      8.80      0.00
   -8    0    6      2.69      0.00
   -7    1    6     15.47      0.00
   -7    3    6     15.94      0.00
   -6    4    6     14.47      0.00
   12    0    0     -8.47      0.00
    1    1    0   -126.02      0.00
   12    2    0     -0.43      0.00
   11    3    0     -5.91      0.00
   12    4    0      1.23      0.00
   11    5    0     -6.21      0.00
   12    6    0      3.84      0.00
   11    7    0     -3.55      0.00
   10    8    0     -2.08      0.00
   12    8    0     -0.44      0.00
    9    9    0      2.91      0.00
   11    9    0     -0.27      0.00
    8   10    0     -0.62      0.00
   10   10    0     -1.42      0.00
   12   10    0      0.18      0.00
    9   11    0      0.85      0.00
   11   11    0      0.05      0.00
    6   12    0    -15.22      0.00
    8   12    0      0.31      0.00
   10   12    0     -0.59      0.00
    5   13    0      7.24      0.00
    7   13    0      2.09      0.00
    9   13    0     -0.93      0.00
   11   13    0      1.13      0.00
    2   14    0     -0.44      0.00
    4   14    0      2.43      0.00
    6   14    0     -2.55      0.00
    8   14    0      1.66      0.00
   10   14    0     -0.44      0.00
  -12    0    1      2.27      0.00
   12    0    1      0.00      0.00
   11    1    1      0.78      0.00
  -12    2    1      4.65      0.00
   12    2    1     -3.32      0.00
   11    3    1      4.60      0.00
  -12    4    1      2.12      0.00
   10    4    1     -2.16      0.00
   12    4    1     -2.44      0.00
   11    5    1      2.96      0.00
  -12    6    1     -2.28      0.00
   10    6    1     -1.51      0.00
   12    6    1     -0.95      0.00
  -11    7    1      6.35      0.00
    9    7    1      0.71      0.00
   11    7    1      0.23      0.00
  -12    8    1     -2.88      0.00
  -10    8    1     -6.16      0.00
   10    8    1     -1.32      0.00
   12    8    1     -0.29      0.00
  -11    9    1      2.04      0.00
    9    9    1      1.98      0.00
   11    9    1      1.25      0.00
  -12   10    1     -1.39      0.00
  -10   10    1      1.99      0.00
    8   10    1     -2.63      0.00
   10   10    1      0.86      0.00
   12   10    1     -0.78      0.00
  -11   11    1     -0.53      0.00
   -9   11    1     -3.16      0.00
    7   11    1      2.22      0.00
    9   11    1     -1.21      0.00
   11   11    1     -2.54      0.00
  -12   12    1     -1.21      0.00
  -10   12    1      1.00      0.00
   -8   12    1      0.24      0.00
    6   12    1     -0.31      0.00
    8   12    1     -0.55      0.00
   10   12    1      3.10      0.00
  -11   13    1      0.67      0.00
   -9   13    1     -0.19      0.00
   -7   13    1      1.53      0.00
   -5   13    1      2.01      0.00
    5   13    1      1.23      0.00
    7   13    1      2.11      0.00
    9   13    1      0.57      0.00
  -10   14    1     -1.09      0.00
   -8   14    1      1.20      0.00
   -6   14    1     -1.78      0.00
   -4   14    1      1.75      0.00
   -2   14    1      1.10      0.00
    0   14    1      0.06      0.00
    2   14    1     -0.24      0.00
    4   14    1     -1.98      0.00
    6   14    1     -3.35      0.00
    8   14    1     -2.05      0.00
    0    0    2     -4.35      0.00
   10    0    2      1.46      0.00
   12    0    2     -0.26      0.00
    9    1    2      1.64      0.00
   11    1    2     -0.55      0.00
   10    2    2     -1.65      0.00
   12    2    2      1.17      0.00
    9    3    2      5.13      0.00
   11    3    2     -1.43      0.00
  -12    4    2      2.25      0.00
   10    4    2      0.38      0.00
   12    4    2     -0.13      0.00
    9    5    2      1.33      0.00
   11    5    2     -1.70      0.00
  -12    6    2      1.51      0.00
    8    6    2     -0.91      0.00
   10    6    2      2.97      0.00
   12    6    2      1.55      0.00
  -11    7    2     -1.57      0.00
    9    7    2     -0.75      0.00
   11    7    2     -2.71      0.00
  -12    8    2      1.07      0.00
    8    8    2     -2.30      0.00
   10    8    2     -0.68      0.00
  -11    9    2     -2.04      0.00
    7    9    2     -0.27      0.00
    9    9    2      4.50      0.00
   11    9    2     -0.22      0.00
  -12   10    2      1.56      0.00
  -10   10    2      4.24      0.00
    6   10    2      5.31      0.00
    8   10    2     -1.37      0.00
   10   10    2     -1.11      0.00
  -11   11    2     -1.48      0.00
   -9   11    2     -5.30      0.00
    5   11    2     -5.70      0.00
    7   11    2     -2.40      0.00
    9   11    2      0.75      0.00
  -12   12    2      0.01      0.00
  -10   12    2     -1.85      0.00
   -8   12    2      0.97      0.00
    4   12    2      3.82      0.00
    6   12    2      1.79      0.00
    8   12    2     -1.14      0.00
  -11   13    2      1.37      0.00
   -9   13    2      5.04      0.00
   -7   13    2      4.44      0.00
   -5   13    2      2.54      0.00
    3   13    2     -1.07      0.00
    5   13    2     -1.13      0.00
    7   13    2      0.95      0.00
    9   13    2     -0.15      0.00
  -10   14    2     -1.14      0.00
   -8   14    2     -4.59      0.00
   -6   14    2     -3.23      0.00
   -4   14    2     -1.29      0.00
   -2   14    2      2.44      0.00
    0   14    2      0.84      0.00
    2   14    2     -1.98      0.00
    4   14    2     -0.08      0.00
    6   14    2      0.74      0.00
    8   14    2      0.11      0.00
    0    0    3      5.37      0.00
    8    0    3      9.71      0.00
   10    0    3      2.50      0.00
   -1    1    3     10.36      0.00
    9    1    3     -5.64      0.00
   11    1    3      1.08      0.00
    0    2    3    -13.70      0.00
    8    2    3     -0.32      0.00
   10    2    3      0.47      0.00
    9    3    3      2.10      0.00
   11    3    3      1.52      0.00
  -12    4    3      4.54      0.00
    8    4    3     -2.03      0.00
   10    4    3     -2.33      0.00
    7    5    3      1.44      0.00
    9    5    3      0.18      0.00
   11    5    3      0.31      0.00
  -12    6    3      2.63      0.00
    8    6    3      0.82      0.00
   10    6    3      0.98      0.00
  -11    7    3     -1.04      0.00
    7    7    3      1.17      0.00
    9    7    3     -2.70      0.00
  -12    8    3      1.62      0.00
    6    8    3     -1.74      0.00
    8    8    3      3.20      0.00
   10    8    3      1.56      0.00
  -11    9    3      0.94      0.00
    5    9    3      0.99      0.00
    7    9    3     -2.42      0.00
    9    9    3     -2.39      0.00
  -12   10    3      0.78      0.00
  -10   10    3     -1.37      0.00
    4   10    3      5.17      0.00
    6   10    3     -0.62      0.00
    8   10    3      1.97      0.00
  -11   11    3      0.71      0.00
   -9   11    3     -2.99      0.00
    3   11    3    -11.64      0.00
    5   11    3      1.52      0.00
    7   11    3      0.26      0.00
  -12   12    3     -2.19      0.00
  -10   12    3     -1.32      0.00
   -8   12    3      6.15      0.00
   -6   12    3      8.36      0.00
    2   12    3      8.26      0.00
    4   12    3      1.67      0.00
    6   12    3     -2.37      0.00
    8   12    3      0.38      0.00
  -11   13    3      4.07      0.00
   -9   13    3      0.85      0.00
   -7   13    3     -5.69      0.00
   -5   13    3     -7.63      0.00
   -3   13    3     -2.76      0.00
   -1   13    3     -2.11      0.00
    1   13    3     -3.04      0.00
    3   13    3     -3.72      0.00
    5   13    3      0.53      0.00
    7   13    3      0.41      0.00
  -10   14    3     -3.40      0.00
   -8   14    3      0.05      0.00
   -6   14    3      3.51      0.00
   -4   14    3      4.63      0.00
   -2   14    3      1.80      0.00
    0   14    3      0.79      0.00
    2   14    3      2.17      0.00
    4   14    3      1.32      0.00
    6   14    3      0.50      0.00
   -4    0    4     27.33      0.00
   -2    0    4      5.82      0.00
    0    0    4     -2.02      0.00
    6    0    4     -2.23      0.00
    8    0    4     -8.30      0.00
   10    0    4     -2.15      0.00
   -1    1    4      1.28      0.00
    7    1    4      1.54      0.00
    9    1    4      4.44      0.00
  -12    2    4     -2.30      0.00
    6    2    4      5.88      0.00
    8    2    4     -0.26      0.00
   10    2    4     -0.72      0.00
  -11    3    4     -2.08      0.00
   -5    3    4     -1.14      0.00
    7    3    4     -2.12      0.00
    9    3    4     -0.01      0.00
  -12    4    4      6.91      0.00
    6    4    4     -0.88      0.00
    8    4    4      0.06      0.00
    5    5    4      4.77      0.00
    7    5    4     -1.28      0.00
    9    5    4     -0.63      0.00
  -12    6    4      4.39      0.00
    6    6    4     -1.43      0.00
    8    6    4      2.29      0.00
  -11    7    4     -0.62      0.00
    5    7    4      8.93      0.00
    7    7    4     -3.92      0.00
    9    7    4      1.54      0.00
  -12    8    4      1.19      0.00
  -10    8    4     -1.95      0.00
    4    8    4     -6.86      0.00
    6    8    4      2.05      0.00
    8    8    4      2.31      0.00
  -11    9    4      0.99      0.00
   -9    9    4      3.67      0.00
    3    9    4      0.71      0.00
    5    9    4     -1.30      0.00
    7    9    4     -4.68      0.00
  -12   10    4     -1.00      0.00
  -10   10    4     -5.53      0.00
   -8   10    4     -6.04      0.00
   -4   10    4    -10.10      0.00
    2   10    4      7.74      0.00
    4   10    4     -1.76      0.00
    6   10    4      4.16      0.00
  -11   11    4      3.40      0.00
   -9   11    4      5.60      0.00
   -7   11    4      3.69      0.00
   -5   11    4      4.90      0.00
   -3   11    4     10.18      0.00
   -1   11    4    -20.11      0.00
    1   11    4    -18.76      0.00
    3   11    4      3.76      0.00
    5   11    4      0.15      0.00
    7   11    4     -1.76      0.00
  -12   12    4      0.96      0.00
  -10   12    4     -3.09      0.00
   -8   12    4      1.44      0.00
   -6   12    4      0.68      0.00
   -4   12    4     -7.56      0.00
   -2   12    4     -3.47      0.00
    0   12    4     12.06      0.00
    2   12    4     -1.12      0.00
    4   12    4     -4.47      0.00
    6   12    4      1.25      0.00
  -11   13    4      0.20      0.00
   -9   13    4     -3.22      0.00
   -7   13    4     -4.97      0.00
   -5   13    4      0.43      0.00
   -3   13    4      8.07      0.00
   -1   13    4      1.85      0.00
    1   13    4      2.28      0.00
    3   13    4      3.86      0.00
    5   13    4      1.60      0.00
  -10   14    4      0.61      0.00
   -8   14    4      4.64      0.00
   -6   14    4      1.26      0.00
   -4   14    4     -2.13      0.00
   -2   14    4     -3.70      0.00
    0   14    4     -2.34      0.00
    2   14    4     -1.92      0.00
    4   14    4     -0.88      0.00
  -12    0    5      7.11      0.00
   -6    0    5      0.14      0.00
   -4    0    5     -5.59      0.00
   -2    0    5     -7.91      0.00
    0    0    5    -10.78      0.00
    2    0    5     -3.74      0.00
    4    0    5      4.48      0.00
    6    0    5      2.52      0.00
    8    0    5      1.88      0.00
   -5    1    5      3.70      0.00
   -3    1    5      1.96      0.00
   -1    1    5      5.26      0.00
    1    1    5     12.07      0.00
    3    1    5     -2.50      0.00
    5    1    5     -3.07      0.00
    7    1    5     -0.43      0.00
  -12    2    5      3.28      0.00
   -4    2    5      2.26      0.00
   -2    2    5      7.79      0.00
    0    2    5    -13.49      0.00
    4    2    5      2.80      0.00
    6    2    5     -0.69      0.00
    8    2    5     -1.70      0.00
  -11    3    5      9.25      0.00
   -5    3    5      0.45      0.00
   -3    3    5    -10.92      0.00
   -1    3    5      3.48      0.00
    3    3    5      0.38      0.00
    5    3    5      2.27      0.00
    7    3    5      1.63      0.00
  -12    4    5     -2.01      0.00
   -4    4    5      6.50      0.00
   -2    4    5      2.22      0.00
    4    4    5     -1.21      0.00
    6    4    5     -2.75      0.00
  -11    5    5      3.10      0.00
   -7    5    5      5.41      0.00
   -5    5    5     -2.05      0.00
   -3    5    5     -3.40      0.00
   -1    5    5      3.20      0.00
    1    5    5      1.75      0.00
    3    5    5     -5.43      0.00
    5    5    5      0.75      0.00
    7    5    5      1.77      0.00
  -12    6    5      3.41      0.00
  -10    6    5      0.14      0.00
   -4    6    5      4.38      0.00
   -2    6    5      0.38      0.00
    0    6    5     -1.42      0.00
    2    6    5      3.83      0.00
    4    6    5      6.57      0.00
    6    6    5     -0.41      0.00
  -11    7    5     -1.45      0.00
   -9    7    5      1.42      0.00
   -5    7    5     -2.78      0.00
   -3    7    5     -1.26      0.00
   -1    7    5      0.96      0.00
    1    7    5      0.84      0.00
    3    7    5     -5.96      0.00
    5    7    5     -4.31      0.00
  -12    8    5     -0.81      0.00
  -10    8    5     -2.13      0.00
   -8    8    5     -3.22      0.00
   -6    8    5      0.28      0.00
   -4    8    5      5.44      0.00
   -2    8    5     -3.14      0.00
    0    8    5     -1.83      0.00
    2    8    5      2.53      0.00
    4    8    5      3.43      0.00
    6    8    5      1.23      0.00
  -11    9    5      2.53      0.00
   -9    9    5      2.39      0.00
   -7    9    5      2.26      0.00
   -5    9    5     -5.19      0.00
   -3    9    5     -1.11      0.00
   -1    9    5      4.06      0.00
    1    9    5      0.85      0.00
    3    9    5     -1.59      0.00
    5    9    5      0.52      0.00
  -12   10    5     -0.59      0.00
  -10   10    5     -2.83      0.00
   -8   10    5     -0.81      0.00
   -6   10    5     -0.62      0.00
   -4   10    5      4.31      0.00
   -2   10    5     -0.65      0.00
    0   10    5     -4.61      0.00
    2   10    5     -0.87      0.00
    4   10    5     -1.92      0.00
  -11   11    5      2.56      0.00
   -9   11    5      0.45      0.00
   -7   11    5     -0.44      0.00
   -5   11    5     -2.11      0.00
   -3   11    5     -1.46      0.00
   -1   11    5      0.82      0.00
    1   11    5      2.35      0.00
    3   11    5      0.88      0.00
  -12   12    5     -0.99      0.00
  -10   12    5     -2.35      0.00
   -8   12    5      0.72      0.00
   -6   12    5      2.63      0.00
   -4   12    5      1.25      0.00
   -2   12    5     -0.77      0.00
    0   12    5      1.91      0.00
    2   12    5      0.72      0.00
  -11   13    5      0.39      0.00
   -9   13    5      1.50      0.00
   -7   13    5     -0.17      0.00
   -5   13    5     -3.90      0.00
   -3   13    5      2.52      0.00
   -1   13    5     -0.66      0.00
    1   13    5     -2.15      0.00
   -8   14    5     -1.40      0.00
   -6   14    5      1.45      0.00
   -4   14    5      1.37      0.00
   -2   14    5     -2.72      0.00
    0   14    5      0.45      0.00
  -12    0    6      0.29      0.00
  -10    0    6     13.43      0.00
   -6    0    6    -11.30      0.00
   -4    0    6      7.55      0.00
   -2    0    6     -2.97      0.00
    0    0    6     -0.63      0.00
    2    0    6      2.92      0.00
    4    0    6     -0.77      0.00
    6    0    6      4.02      0.00
  -11    1    6     -3.54      0.00
   -9    1    6     -6.09      0.00
   -5    1    6     -2.69      0.00
   -3    1    6     -4.93      0.00
   -1    1    6      6.83      0.00
    1    1    6     -5.03      0.00
    3    1    6      1.08      0.00
    5    1    6     -1.61      0.00
  -12    2    6     -0.01      0.00
  -10    2    6      1.73      0.00
   -8    2    6    -19.15      0.00
   -6    2    6     -7.78      0.00
   -4    2    6     14.38      0.00
   -2    2    6     -6.89      0.00
    0    2    6     -0.86      0.00
    2    2    6      4.81      0.00
    4    2    6     -2.14      0.00
  -11    3    6     -4.77      0.00
   -9    3    6      8.33      0.00
   -5    3    6    -16.71      0.00
   -3    3    6     -3.34      0.00
   -1    3    6      7.68      0.00
    1    3    6     -5.14      0.00
    3    3    6     -0.66      0.00
    5    3    6     -0.08      0.00
  -12    4    6      3.56      0.00
  -10    4    6      5.39      0.00
   -8    4    6     -6.37      0.00
   -4    4    6     15.12      0.00
   -2    4    6     -6.00      0.00
    0    4    6     -0.57      0.00
    2    4    6      3.25      0.00
    4    4    6     -0.43      0.00
  -11    5    6     -4.85      0.00
   -9    5    6     -1.27      0.00
   -7    5    6    -13.25      0.00
   -5    5    6    -22.91      0.00
   -3    5    6     -0.67      0.00
   -1    5    6      4.36      0.00
    1    5    6     -2.41      0.00
    3    5    6     -0.35      0.00
    5    5    6      0.53      0.00
  -12    6    6      2.03      0.00
  -10    6    6     -0.46      0.00
   -8    6    6      3.98      0.00
   -6    6    6     20.15      0.00
   -4    6    6      7.02      0.00
   -2    6    6     -3.44      0.00
    0    6    6     -1.58      0.00
    2    6    6      2.91      0.00
    4    6    6     -1.74      0.00
  -11    7    6     -1.61      0.00
   -9    7    6      3.54      0.00
   -7    7    6     -5.91      0.00
   -5    7    6     -6.39      0.00
   -3    7    6      1.07      0.00
   -1    7    6      0.73      0.00
    1    7    6      0.47      0.00
    3    7    6      0.05      0.00
  -12    8    6      3.24      0.00
  -10    8    6     -0.03      0.00
   -8    8    6     -3.85      0.00
   -6    8    6      2.66      0.00
   -4    8    6     -2.68      0.00
   -2    8    6      3.11      0.00
    0    8    6     -0.71      0.00
    2    8    6     -2.16      0.00
    4    8    6     -1.59      0.00
  -11    9    6     -4.88      0.00
   -9    9    6      2.72      0.00
   -7    9    6     -1.05      0.00
   -5    9    6     -1.15      0.00
   -3    9    6      1.74      0.00
   -1    9    6     -3.77      0.00
    1    9    6      2.23      0.00
    3    9    6      1.56      0.00
  -12   10    6      4.50      0.00
  -10   10    6      3.40      0.00
   -8   10    6     -0.03      0.00
   -6   10    6      7.16      0.00
   -4   10    6     -2.53      0.00
   -2   10    6     -0.86      0.00
    0   10    6      1.14      0.00
    2   10    6     -0.25      0.00
  -11   11    6     -4.96      0.00
   -9   11    6     -2.38      0.00
   -7   11    6     -5.08      0.00
   -5   11    6     -2.92      0.00
   -3   11    6      4.50      0.00
   -1   11    6     -0.36      0.00
    1   11    6     -0.66      0.00
  -10   12    6      2.81      0.00
   -8   12    6      2.38      0.00
   -6   12    6      3.50      0.00
   -4   12    6     -1.80      0.00
   -2   12    6      0.15      0.00
    0   12    6      0.76      0.00
   -7   13    6     -1.89      0.00
   -5   13    6     -0.41      0.00
   -3   13    6     -0.49      0.00
    0    0    0      0.00      0.00
# SQUEEZE RESULTS (Version = 160117)
# Note: Data are Listed for all Voids in the P1 Unit Cell
# i.e. Centre of Gravity, Solvent Accessible Volume,
# Recovered number of Electrons in the Void and
# Details about the Squeezed Material
loop_
  _platon_squeeze_void_nr
  _platon_squeeze_void_average_x
  _platon_squeeze_void_average_y
  _platon_squeeze_void_average_z
  _platon_squeeze_void_volume
  _platon_squeeze_void_count_electrons
  _platon_squeeze_void_content
   1  0.000  0.500 -0.035       259        98 ' '
   2  0.500  0.000  0.123       259        98 ' '
# Missing Reflections Below sin(th)/lambda = 0.25
loop_
  _platon_missing_refln_index_h
  _platon_missing_refln_index_k
  _platon_missing_refln_index_l
  _platon_missing_refln_theta
    1    1    0     2.228
    0    0    2     6.804
   -1    1    3     9.710
_platon_squeeze_void_probe_radius                  1.20
_platon_squeeze_details
Positions of the disordered solvent molecules 
were impossible to resolve and to refine from the electron density 
distribution. The SQUEEZE procedure implemented in the program PLATON 
was used and an electron count of 192 per unit cell 
(rest of the electron density) was calculated. This value corresponds 
to 4 DMAc molecules in the unit cell of Mn-CFA-6.


TITL Mn-CFA-6 in C2/m
CELL   12.9110   14.7120    6.6415     90.00    115.41     90.00
SPGR C2/m
# Solvent Accessible Volume =       516
# Electrons Found in S.A.V. =       192
# Note: Atoms in Void as Cxxx and Qxxx all others
Q101 0.175 0.509 0.469 !       4.12 eA-3
C102 0.872 0.504 0.063 !       4.01 eA-3
C103 0.125 0.490 0.281 !       3.32 eA-3
C104 0.450 0.113 0.717 !       2.36 eA-3
C105 0.034 0.344 0.362 !       2.15 eA-3
C106 0.500 0.031 0.160 !       2.05 eA-3
C107 0.879 0.503 0.250 !       1.97 eA-3
C108 0.450 0.107 0.491 !       1.91 eA-3
C109 0.028 0.441 0.284 !       1.86 eA-3
Q110 0.501 0.499 0.188 !       1.72 eA-3
Q111 0.409 0.501 0.312 !       1.67 eA-3
Q112 0.498 0.500 0.281 !       1.66 eA-3
Q113 0.329 0.046 0.378 !       1.57 eA-3
C114 0.013 0.498 0.344 !       1.56 eA-3
Q115 0.135 0.263 0.371 !       1.51 eA-3
Q116 0.271 0.501 0.062 !       1.49 eA-3
C117 0.928 0.399 0.186 !       1.48 eA-3
C118 0.557 0.143 0.131 !       1.48 eA-3
C119 0.982 0.361 0.196 !       1.42 eA-3
C120 0.092 0.441 0.128 !       1.39 eA-3
C121 0.559 0.193 0.247 !       1.34 eA-3
Q122 0.373 0.506 0.031 !       1.33 eA-3
C123 0.121 0.454 0.097 !       1.33 eA-3
Q124 0.207 0.353 0.610 !       1.20 eA-3
Q125 0.561 0.502 0.406 !       1.19 eA-3
Q126 0.438 0.183 0.246 !       1.18 eA-3
Q127 0.127 0.393 0.040 !       1.17 eA-3
Q128 0.067 0.235 0.270 !       1.08 eA-3
C129 0.500 0.031 0.516 !       1.03 eA-3
C130 1.000 0.313 0.007 !       1.03 eA-3
Q131 0.157 0.352 0.384 !       1.01 eA-3
Q132 0.751 0.496 0.219 !       1.01 eA-3
Q133 0.392 0.167 0.044 !       1.00 eA-3
Q134 0.699 0.505 0.719 !       1.00 eA-3
Q135 0.099 0.089 0.511 !       0.92 eA-3
Q136 0.486 0.410 0.244 !       0.90 eA-3
Q137 0.471 0.199 0.463 !       0.89 eA-3
Q138 0.691 0.314 0.465 !       0.83 eA-3
Q139 0.124 0.406 0.237 !       0.82 eA-3
Q140 0.627 0.508 0.187 !       0.81 eA-3
Q141 0.859 0.359 0.137 !       0.80 eA-3
Q142 0.346 0.432 0.364 !       0.79 eA-3
Q143 0.027 0.188 0.351 !       0.78 eA-3
Q144 0.785 0.081 0.448 !       0.75 eA-3
Q145 0.451 0.222 0.103 !       0.73 eA-3
Q146 1.000 0.094 0.022 !       0.73 eA-3
Q147 0.360 0.222 0.878 !       0.72 eA-3
Q148 0.294 0.142 0.053 !       0.71 eA-3
Q149 0.188 0.143 0.286 !       0.71 eA-3
Q150 0.116 0.123 0.239 !       0.65 eA-3
Q151 0.109 0.080 0.121 !       0.62 eA-3
Q152 0.166 0.330 0.218 !       0.60 eA-3
Q153 1.000 0.031 0.493 !       0.59 eA-3
Q154 0.374 0.116 0.307 !       0.59 eA-3
Q155 0.337 0.314 0.222 !       0.57 eA-3
Q156 0.564 0.232 0.057 !       0.56 eA-3
Q157 1.000 0.141 0.495 !       0.54 eA-3
Q158 0.796 0.386 0.260 !       0.53 eA-3
Q159 0.922 0.158 0.148 !       0.51 eA-3
Q160 0.675 0.323 0.062 !       0.50 eA-3
)
;
_shelx_fab_checksum              19572
loop_
_space_group_symop_operation_xyz
'x, y, z'
'-x, y, -z'
'x+1/2, y+1/2, z'
'-x+1/2, y+1/2, -z'
'-x, -y, -z'
'x, -y, z'
'-x+1/2, -y+1/2, -z'
'x+1/2, -y+1/2, z'
loop_
_atom_site_label
_atom_site_type_symbol
_atom_site_fract_x
_atom_site_fract_y
_atom_site_fract_z
_atom_site_U_iso_or_equiv
_atom_site_adp_type
_atom_site_occupancy
_atom_site_site_symmetry_order
_atom_site_calc_flag
_atom_site_refinement_flags_posn
_atom_site_refinement_flags_adp
_atom_site_refinement_flags_occupancy
Mn1 Mn 0.000000 0.000000 0.000000 0.055(3) Uani 1 4 d S T P
Mn2 Mn 0.000000 0.000000 0.500000 0.058(3) Uani 1 4 d S TU P
O1 O 0.1041(14) 0.000000 0.373(4) 0.067(7) Uani 1 2 d S TU P
H1O H 0.185321 0.000000 0.450464 0.080 Uiso 1 2 calc R U P
N1 N 0.0937(14) 0.0975(12) -0.058(4) 0.065(5) Uani 1 1 d . U .
N2 N 0.0951(14) 0.0981(11) 0.750(3) 0.050(5) Uani 1 1 d . . .
C1 C 0.1691(16) 0.1664(13) -0.250(4) 0.056(5) Uani 1 1 d . U .
H1 H 0.189534 0.181116 -0.367097 0.067 Uiso 1 1 calc R U .
C3 C 0.2075(16) 0.2090(13) -0.044(4) 0.058(5) Uani 1 1 d . U .
C2 C 0.1619(16) 0.1643(13) 0.071(4) 0.056(4) Uani 1 1 d . U .
H2 H 0.174898 0.177121 0.220346 0.067 Uiso 1 1 calc R U .
loop_
_atom_site_aniso_label
_atom_site_aniso_U_11
_atom_site_aniso_U_22
_atom_site_aniso_U_33
_atom_site_aniso_U_23
_atom_site_aniso_U_13
_atom_site_aniso_U_12
Mn1 0.048(4) 0.075(5) 0.047(6) 0.000 0.024(4) 0.000
Mn2 0.044(4) 0.044(4) 0.078(7) 0.000 0.017(4) 0.000
O1 0.025(9) 0.078(13) 0.080(17) 0.000 0.006(10) 0.000
N1 0.058(9) 0.068(10) 0.076(13) 0.002(9) 0.036(9) -0.005(6)
N2 0.056(10) 0.068(12) 0.031(15) -0.013(10) 0.023(9) 0.005(9)
C1 0.060(9) 0.066(11) 0.058(12) 0.008(9) 0.040(9) -0.006(9)
C3 0.062(8) 0.069(10) 0.059(12) 0.007(8) 0.042(8) -0.005(7)
C2 0.056(8) 0.066(9) 0.062(12) 0.006(8) 0.042(8) -0.007(6)
loop_
_atom_type_symbol
_atom_type_description
_atom_type_scat_dispersion_real
_atom_type_scat_dispersion_imag
_atom_type_scat_source
C C 0.0033 0.0016 'International Tables Vol C Tables 4.2.6.8 and 6.1.1.4'
H H 0.0000 0.0000 'International Tables Vol C Tables 4.2.6.8 and 6.1.1.4'
N N 0.0061 0.0033 'International Tables Vol C Tables 4.2.6.8 and 6.1.1.4'
O O 0.0106 0.0060 'International Tables Vol C Tables 4.2.6.8 and 6.1.1.4'
Mn Mn 0.3368 0.7283 'International Tables Vol C Tables 4.2.6.8 and 6.1.1.4'
loop_
_geom_angle_atom_site_label_1
_geom_angle_atom_site_label_2
_geom_angle_atom_site_label_3
_geom_angle
_geom_angle_site_symmetry_1
_geom_angle_site_symmetry_3
N1 Mn1 N1 89.3(10) 5 6
N1 Mn1 N1 90.7(10) 5 2
N1 Mn1 N1 180.0(15) 6 2
N1 Mn1 N1 180.0 5 .
N1 Mn1 N1 90.7(10) 6 .
N1 Mn1 N1 89.3(10) 2 .
N1 Mn1 O1 85.1(8) 5 .
N1 Mn1 O1 94.9(8) 6 .
N1 Mn1 O1 85.1(8) 2 .
N1 Mn1 O1 94.9(8) . .
N1 Mn1 O1 94.9(8) 5 5
N1 Mn1 O1 85.1(8) 6 5
N1 Mn1 O1 94.9(8) 2 5
N1 Mn1 O1 85.1(8) . 5
O1 Mn1 O1 180.0 . 5
O1 Mn2 O1 180.0 . 5_556
O1 Mn2 N2 86.2(7) . 5_556
O1 Mn2 N2 93.8(7) 5_556 5_556
O1 Mn2 N2 93.8(7) . 6
O1 Mn2 N2 86.2(7) 5_556 6
N2 Mn2 N2 95.4(10) 5_556 6
O1 Mn2 N2 86.2(7) . 2_556
O1 Mn2 N2 93.8(7) 5_556 2_556
N2 Mn2 N2 84.6(10) 5_556 2_556
N2 Mn2 N2 180.0 6 2_556
O1 Mn2 N2 93.8(7) . .
O1 Mn2 N2 86.2(7) 5_556 .
N2 Mn2 N2 180.0 5_556 .
N2 Mn2 N2 84.6(10) 6 .
N2 Mn2 N2 95.4(10) 2_556 .
Mn2 O1 Mn1 106.9(7) . .
N2 N1 C2 110.0(19) 1_554 .
N2 N1 Mn1 117.3(15) 1_554 .
C2 N1 Mn1 133(2) . .
N1 N2 C1 107.8(18) 1_556 1_556
N1 N2 Mn2 121.2(14) 1_556 .
C1 N2 Mn2 130.9(17) 1_556 .
N2 C1 C3 106.5(19) 1_554 .
C2 C3 C1 107(2) . .
C2 C3 C3 126(3) . 7
C1 C3 C3 128(2) . 7
C3 C2 N1 109(2) . .
loop_
_geom_bond_atom_site_label_1
_geom_bond_atom_site_label_2
_geom_bond_distance
_geom_bond_site_symmetry_2
Mn1 N1 2.017(19) 5
Mn1 N1 2.017(19) 6
Mn1 N1 2.017(19) 2
Mn1 N1 2.017(19) .
Mn1 O1 2.25(2) .
Mn1 O1 2.25(2) 5
Mn2 O1 1.87(2) .
Mn2 O1 1.87(2) 5_556
Mn2 N2 2.143(17) 5_556
Mn2 N2 2.143(17) 6
Mn2 N2 2.143(17) 2_556
Mn2 N2 2.143(17) .
N1 N2 1.29(2) 1_554
N1 C2 1.35(3) .
N2 C1 1.39(2) 1_556
C1 C3 1.39(3) .
C3 C2 1.32(3) .
C3 C3 1.56(4) 7
