#------------------------------------------------------------------------------
#$Date: 2019-11-17 11:50:22 +0200 (Sun, 17 Nov 2019) $
#$Revision: 229702 $
#$URL: file:///home/coder/svn-repositories/cod/cif/7/04/61/7046143.cif $
#------------------------------------------------------------------------------
#
# This file is available in the Crystallography Open Database (COD),
# http://www.crystallography.net/
#
# All data on this site have been placed in the public domain by the
# contributors.
#
data_7046143
loop_
_publ_author_name
'Sun, Ai-Huan'
'Wei, Qi'
'Fu, Ai-Ping'
'Han, Song-De'
'Li, Jin-Hua'
'Wang, Guo-Ming'
_publ_section_title
;
 Syntheses, structures and efficient visible light-driven photocatalytic
 properties of layered cuprous halides based on two types of building
 units.
;
_journal_issue                   20
_journal_name_full
'Dalton transactions (Cambridge, England : 2003)'
_journal_page_first              6965
_journal_page_last               6972
_journal_paper_doi               10.1039/c7dt04733a
_journal_volume                  47
_journal_year                    2018
_chemical_formula_moiety         'C9 H4 F1.38 O2'
_chemical_formula_sum            'C9 H4 F1.38 O2'
_chemical_formula_weight         170.38
_space_group_crystal_system      monoclinic
_space_group_IT_number           14
_space_group_name_Hall           '-P 2ybc'
_space_group_name_H-M_alt        'P 1 21/c 1'
_symmetry_space_group_name_Hall  '-P 2ybc'
_symmetry_space_group_name_H-M   'P 1 21/c 1'
_atom_sites_solution_hydrogens   geom
_audit_creation_method           SHELXL-2014/7
_audit_update_record
;
2018-03-01 deposited with the CCDC.
2018-04-09 downloaded from the CCDC.
;
_cell_angle_alpha                90
_cell_angle_beta                 90.221(15)
_cell_angle_gamma                90
_cell_formula_units_Z            4
_cell_length_a                   6.3904(19)
_cell_length_b                   3.7571(13)
_cell_length_c                   31.744(10)
_cell_measurement_reflns_used    1307
_cell_measurement_temperature    293(2)
_cell_measurement_theta_max      27.5
_cell_measurement_theta_min      3.2
_cell_volume                     762.1(4)
_computing_structure_refinement  'SHELXL-2014/7 (Sheldrick, 2014)'
_diffrn_ambient_temperature      293(2)
_diffrn_measured_fraction_theta_full 0.972
_diffrn_measured_fraction_theta_max 0.965
_diffrn_measurement_device_type  CCD
_diffrn_radiation_type           MoK\a
_diffrn_radiation_wavelength     0.71073
_diffrn_reflns_av_R_equivalents  0.1665
_diffrn_reflns_av_unetI/netI     0.1536
_diffrn_reflns_Laue_measured_fraction_full 0.972
_diffrn_reflns_Laue_measured_fraction_max 0.965
_diffrn_reflns_limit_h_max       8
_diffrn_reflns_limit_h_min       -8
_diffrn_reflns_limit_k_max       4
_diffrn_reflns_limit_k_min       -4
_diffrn_reflns_limit_l_max       40
_diffrn_reflns_limit_l_min       -40
_diffrn_reflns_number            5190
_diffrn_reflns_point_group_measured_fraction_full 0.972
_diffrn_reflns_point_group_measured_fraction_max 0.965
_diffrn_reflns_theta_full        25.242
_diffrn_reflns_theta_max         27.365
_diffrn_reflns_theta_min         3.188
_exptl_absorpt_coefficient_mu    0.127
_exptl_crystal_colour            colourless
_exptl_crystal_density_diffrn    1.485
_exptl_crystal_description       plate
_exptl_crystal_F_000             345.7
_exptl_crystal_size_max          0.7
_exptl_crystal_size_mid          0.4
_exptl_crystal_size_min          0.2
_refine_diff_density_max         0.272
_refine_diff_density_min         -0.296
_refine_diff_density_rms         0.068
_refine_ls_extinction_method     none
_refine_ls_goodness_of_fit_ref   0.995
_refine_ls_hydrogen_treatment    constr
_refine_ls_matrix_type           full
_refine_ls_number_parameters     136
_refine_ls_number_reflns         1668
_refine_ls_number_restraints     0
_refine_ls_restrained_S_all      0.995
_refine_ls_R_factor_all          0.1178
_refine_ls_R_factor_gt           0.0785
_refine_ls_shift/su_max          0.000
_refine_ls_shift/su_mean         0.000
_refine_ls_structure_factor_coef Fsqd
_refine_ls_weighting_details
'w=1/[\s^2^(Fo^2^)+(0.0392P)^2^] where P=(Fo^2^+2Fc^2^)/3'
_refine_ls_weighting_scheme      calc
_refine_ls_wR_factor_gt          0.1455
_refine_ls_wR_factor_ref         0.1647
_reflns_Friedel_coverage         0.000
_reflns_number_gt                1010
_reflns_number_total             1668
_reflns_threshold_expression     'I > 2\s(I)'
_cod_data_source_file            c7dt04733a2.cif
_cod_data_source_block           25
_cod_depositor_comments
'Adding full bibliography for 7046123--7046152.cif.'
_cod_database_code               7046143
_shelx_shelxl_version_number     2014/7
_shelx_space_group_comment
;
The symmetry employed for this shelxl refinement is uniquely defined
by the following loop, which should always be used as a source of
symmetry information in preference to the above space-group names.
They are only intended as comments.
;
_shelx_res_file
;

    shelx.res created by SHELXL-2014/7

TITL datam in P2(1)/c
CELL  0.71073   6.3904   3.7571  31.7437   90.000   90.221   90.000
ZERR    17.00   0.0019   0.0013   0.0101    0.000    0.015    0.000
LATT   1
SYMM  - X, 1/2 + Y, 1/2 - Z
SFAC  C    H    O    F
UNIT  17 17 17 17
MERG   2
OMIT    -2.00  55.00
OMIT     0   0   2
OMIT     0   0   4
OMIT    -2   1  19
OMIT     1   0  14
OMIT    -3   1   5
OMIT     0   2  24
OMIT     3   1   5
OMIT    -2   2   5
OMIT    -1   0   4
OMIT     0   1   2
OMIT    -2   1   3
EQIV $1 -x, -y+1, -z+1
HTAB C2 O2_$1
EQIV $2 -x+1, -y, -z+1
HTAB O2 O1_$2
HTAB C2 O2_$1
HTAB O2 O1_$2
FMAP   2
PLAN   20
ACTA
BOND
BOND   $H
CONF
L.S.  50
WGHT    0.039200
FVAR       0.62201
MOLE    1
C1    1    0.271580    0.148843    0.464618    11.00000    0.03443    0.02982 =
         0.02982   -0.00322    0.00302    0.00189
C2    1    0.097259    0.264093    0.438356    11.00000    0.03347    0.03165 =
         0.03321   -0.00237    0.00122    0.00674
AFIX  43
H2    2   -0.014071    0.384196    0.450677    11.00000   -1.20000
AFIX   0
C3    1    0.093537    0.201843    0.397306    11.00000    0.02953    0.02699 =
         0.03343   -0.00124    0.00094    0.00277
AFIX  43
H3    2    0.207708    0.080216    0.386311    11.00000   -1.20000
AFIX   0
C4    1   -0.070991    0.303698    0.367236    11.00000    0.02835    0.02279 =
         0.03733   -0.00024   -0.00159   -0.00136
C9    1   -0.262790    0.451752    0.379645    11.00000    0.03298    0.03082 =
         0.04583    0.00134    0.00066   -0.00117
AFIX  43
H9    2   -0.289276    0.490990    0.408056    11.00000   -1.20000
AFIX   0
O1    3    0.422959   -0.020526    0.449569    11.00000    0.04256    0.04559 =
         0.03280   -0.00486    0.00042    0.01208
O2    3    0.261592    0.233395    0.504152    11.00000    0.04341    0.05578 =
         0.03010   -0.00581   -0.00156    0.01556
AFIX  83
H2A   2    0.365490    0.157656    0.516458    11.00000   -1.50000
AFIX   0
C5    1   -0.041323    0.247240    0.324742    11.00000    0.03383    0.03408 =
         0.03743    0.00115   -0.00091   -0.00182
F1    4    0.136195    0.106421    0.310945    10.63426    0.03173    0.05777 =
         0.03037   -0.00784    0.00125    0.00502
C7    1   -0.378310    0.479577    0.307521    11.00000    0.03976    0.03832 =
         0.06096    0.01129   -0.01595   -0.00554
F3    4   -0.514383    0.561946    0.281539    10.36574    0.06001    0.06898 =
         0.10156    0.01499   -0.05502   -0.00013
C6    1   -0.189938    0.331759    0.294451    11.00000    0.04558    0.04188 =
         0.04275    0.00402   -0.01127   -0.00787
PART    2
F2A   4   -0.170487    0.278551    0.258792    10.24876    0.04031    0.08368 =
         0.02988    0.00532    0.00253    0.00583
PART    0
C8    1   -0.413373    0.540049    0.349691    11.00000    0.03410    0.03218 =
         0.06725    0.00441   -0.00943    0.00068
PART    2
F2B   4   -0.575065    0.663792    0.354775    10.13299    0.02386    0.03632 =
         0.03357   -0.01312    0.00722    0.01031
HKLF    4

REM  datam in P2(1)/c
REM R1 =  0.0785 for    1010 Fo > 4sig(Fo)  and  0.1178 for all    1668 data
REM    136 parameters refined using      0 restraints

END

WGHT      0.0427      0.0000

REM Highest difference peak  0.272,  deepest hole -0.296,  1-sigma level  0.068
Q1    1   0.6108  0.2213  0.4395  11.00000  0.05    0.22
Q2    1   0.2554 -0.2919  0.4870  11.00000  0.05    0.22
Q3    1   0.1211  0.2779  0.3096  11.00000  0.05    0.20
Q4    1   0.3217  0.5134  0.4835  11.00000  0.05    0.20
Q5    1  -0.0069  0.6782  0.3498  11.00000  0.05    0.20
Q6    1  -0.3515  0.2211  0.3975  11.00000  0.05    0.19
Q7    1  -0.1359 -0.0439  0.3490  11.00000  0.05    0.19
Q8    1  -0.2035  0.1835  0.4557  11.00000  0.05    0.19
Q9    1  -0.3166  0.0946  0.3075  11.00000  0.05    0.19
Q10   1  -0.1724 -0.0301  0.3106  11.00000  0.05    0.19
Q11   1  -0.4397  0.1170  0.3220  11.00000  0.05    0.19
Q12   1   0.4555  0.3116  0.4466  11.00000  0.05    0.18
Q13   1  -0.1843  0.4936  0.2594  11.00000  0.05    0.18
Q14   1   0.4538  0.1385  0.4068  11.00000  0.05    0.18
Q15   1   0.5397  0.4709  0.5299  11.00000  0.05    0.18
Q16   1   0.0798 -0.0442  0.3322  11.00000  0.05    0.17
Q17   1  -0.2878  0.5481  0.4367  11.00000  0.05    0.17
Q18   1   0.4658  0.2125  0.3808  11.00000  0.05    0.17
Q19   1   0.2932  0.1040  0.3821  11.00000  0.05    0.17
Q20   1   0.1398  0.2356  0.2718  11.00000  0.05    0.16
;
_shelx_res_checksum              94521
loop_
_space_group_symop_operation_xyz
'x, y, z'
'-x, y+1/2, -z+1/2'
'-x, -y, -z'
'x, -y-1/2, z-1/2'
loop_
_atom_site_label
_atom_site_type_symbol
_atom_site_fract_x
_atom_site_fract_y
_atom_site_fract_z
_atom_site_U_iso_or_equiv
_atom_site_adp_type
_atom_site_occupancy
_atom_site_site_symmetry_order
_atom_site_calc_flag
_atom_site_refinement_flags_posn
_atom_site_refinement_flags_adp
_atom_site_refinement_flags_occupancy
_atom_site_disorder_assembly
_atom_site_disorder_group
C1 C 0.2716(4) 0.1488(6) 0.46462(8) 0.0313(6) Uani 1 1 d . . . . .
C2 C 0.0973(4) 0.2641(6) 0.43836(8) 0.0328(6) Uani 1 1 d . . . . .
H2 H -0.0141 0.3842 0.4507 0.039 Uiso 1 1 calc R U . . .
C3 C 0.0935(4) 0.2018(6) 0.39731(8) 0.0300(6) Uani 1 1 d . . . . .
H3 H 0.2077 0.0802 0.3863 0.036 Uiso 1 1 calc R U . . .
C4 C -0.0710(4) 0.3037(6) 0.36724(8) 0.0295(6) Uani 1 1 d . . . . .
C9 C -0.2628(4) 0.4518(6) 0.37965(9) 0.0365(6) Uani 1 1 d . . . . .
H9 H -0.2893 0.4910 0.4081 0.044 Uiso 1 1 calc R U . . .
O1 O 0.4230(3) -0.0205(5) 0.44957(6) 0.0403(5) Uani 1 1 d . . . . .
O2 O 0.2616(3) 0.2334(5) 0.50415(5) 0.0431(5) Uani 1 1 d . . . . .
H2A H 0.3655 0.1577 0.5165 0.065 Uiso 1 1 calc R U . . .
C5 C -0.0413(4) 0.2472(7) 0.32474(8) 0.0351(6) Uani 1 1 d . . . . .
F1 F 0.1362(3) 0.1064(6) 0.31095(7) 0.0400(6) Uani 0.6343 1 d . . P . .
C7 C -0.3783(5) 0.4796(7) 0.30752(11) 0.0464(8) Uani 1 1 d . . . . .
F3 F -0.5144(8) 0.5619(13) 0.2815(2) 0.0770(18) Uani 0.3657 1 d . . P . .
C6 C -0.1899(4) 0.3318(7) 0.29445(9) 0.0434(7) Uani 1 1 d . . . . .
F2A F -0.1705(9) 0.2786(19) 0.25879(19) 0.0513(16) Uani 0.2488 1 d . . P A 2
C8 C -0.4134(4) 0.5400(7) 0.34969(10) 0.0445(8) Uani 1 1 d . . . . .
F2B F -0.5751(14) 0.664(3) 0.3548(3) 0.031(2) Uani 0.133 1 d . . P B 2
loop_
_atom_site_aniso_label
_atom_site_aniso_U_11
_atom_site_aniso_U_22
_atom_site_aniso_U_33
_atom_site_aniso_U_23
_atom_site_aniso_U_13
_atom_site_aniso_U_12
C1 0.0344(14) 0.0298(12) 0.0298(13) -0.0032(11) 0.0030(11) 0.0019(11)
C2 0.0335(14) 0.0317(13) 0.0332(14) -0.0024(11) 0.0012(11) 0.0067(11)
C3 0.0295(13) 0.0270(11) 0.0334(14) -0.0012(11) 0.0009(11) 0.0028(10)
C4 0.0284(13) 0.0228(11) 0.0373(14) -0.0002(11) -0.0016(10) -0.0014(10)
C9 0.0330(14) 0.0308(13) 0.0458(16) 0.0013(12) 0.0007(12) -0.0012(11)
O1 0.0426(11) 0.0456(11) 0.0328(10) -0.0049(8) 0.0004(8) 0.0121(9)
O2 0.0434(11) 0.0558(12) 0.0301(10) -0.0058(9) -0.0016(8) 0.0156(9)
C5 0.0338(15) 0.0341(13) 0.0374(14) 0.0012(12) -0.0009(11) -0.0018(11)
F1 0.0317(13) 0.0578(14) 0.0304(12) -0.0078(11) 0.0013(10) 0.0050(11)
C7 0.0398(16) 0.0383(15) 0.061(2) 0.0113(14) -0.0160(14) -0.0055(13)
F3 0.060(3) 0.069(3) 0.102(5) 0.015(3) -0.055(3) 0.000(3)
C6 0.0456(18) 0.0419(15) 0.0428(18) 0.0040(14) -0.0113(13) -0.0079(13)
F2A 0.040(4) 0.084(5) 0.030(3) 0.005(4) 0.003(3) 0.006(3)
C8 0.0341(16) 0.0322(14) 0.067(2) 0.0044(14) -0.0094(15) 0.0007(12)
F2B 0.024(5) 0.036(5) 0.034(6) -0.013(5) 0.007(4) 0.010(4)
loop_
_atom_type_symbol
_atom_type_description
_atom_type_scat_dispersion_real
_atom_type_scat_dispersion_imag
_atom_type_scat_source
C C 0.0033 0.0016 'International Tables Vol C Tables 4.2.6.8 and 6.1.1.4'
H H 0.0000 0.0000 'International Tables Vol C Tables 4.2.6.8 and 6.1.1.4'
O O 0.0106 0.0060 'International Tables Vol C Tables 4.2.6.8 and 6.1.1.4'
F F 0.0171 0.0103 'International Tables Vol C Tables 4.2.6.8 and 6.1.1.4'
loop_
_geom_angle_atom_site_label_1
_geom_angle_atom_site_label_2
_geom_angle_atom_site_label_3
_geom_angle
O1 C1 O2 122.3(2)
O1 C1 C2 121.5(2)
O2 C1 C2 116.2(2)
C3 C2 C1 121.5(2)
C3 C2 H2 119.3
C1 C2 H2 119.3
C2 C3 C4 127.2(2)
C2 C3 H3 116.4
C4 C3 H3 116.4
C5 C4 C9 117.3(2)
C5 C4 C3 119.7(2)
C9 C4 C3 123.0(2)
C8 C9 C4 120.4(3)
C8 C9 H9 119.8
C4 C9 H9 119.8
C1 O2 H2A 109.5
F1 C5 C4 120.3(2)
F1 C5 C6 116.5(3)
C4 C5 C6 123.2(2)
F3 C7 C8 119.4(4)
F3 C7 C6 120.6(4)
C8 C7 C6 120.0(3)
F2A C6 C5 124.3(4)
F2A C6 C7 117.2(4)
C5 C6 C7 118.4(3)
F2B C8 C7 110.8(5)
F2B C8 C9 128.5(6)
C7 C8 C9 120.7(3)
loop_
_geom_bond_atom_site_label_1
_geom_bond_atom_site_label_2
_geom_bond_distance
C1 O1 1.254(3)
C1 O2 1.296(3)
C1 C2 1.455(3)
C2 C3 1.324(3)
C2 H2 0.9300
C3 C4 1.468(3)
C3 H3 0.9300
C4 C5 1.379(4)
C4 C9 1.404(3)
C9 C8 1.390(4)
C9 H9 0.9300
O2 H2A 0.8200
C5 F1 1.328(3)
C5 C6 1.386(3)
C7 F3 1.236(5)
C7 C8 1.377(4)
C7 C6 1.390(4)
C6 F2A 1.157(6)
C8 F2B 1.145(9)
loop_
_geom_hbond_atom_site_label_D
_geom_hbond_atom_site_label_H
_geom_hbond_atom_site_label_A
_geom_hbond_distance_DH
_geom_hbond_distance_HA
_geom_hbond_distance_DA
_geom_hbond_angle_DHA
_geom_hbond_site_symmetry_A
C2 H2 O2 0.93 2.58 3.491(3) 167.6 3_566
O2 H2A O1 0.82 1.80 2.615(2) 171.4 3_656
C2 H2 O2 0.93 2.58 3.491(3) 167.6 3_566
O2 H2A O1 0.82 1.80 2.615(2) 171.4 3_656
loop_
_geom_torsion_atom_site_label_1
_geom_torsion_atom_site_label_2
_geom_torsion_atom_site_label_3
_geom_torsion_atom_site_label_4
_geom_torsion
O1 C1 C2 C3 -1.5(4)
O2 C1 C2 C3 178.0(2)
C1 C2 C3 C4 -179.8(2)
C2 C3 C4 C5 174.0(2)
C2 C3 C4 C9 -7.4(4)
C5 C4 C9 C8 -0.8(3)
C3 C4 C9 C8 -179.4(2)
C9 C4 C5 F1 -179.7(2)
C3 C4 C5 F1 -1.0(4)
C9 C4 C5 C6 0.5(4)
C3 C4 C5 C6 179.2(2)
F1 C5 C6 F2A 2.2(6)
C4 C5 C6 F2A -178.0(5)
F1 C5 C6 C7 179.9(2)
C4 C5 C6 C7 -0.2(4)
F3 C7 C6 F2A -2.7(6)
C8 C7 C6 F2A 178.2(5)
F3 C7 C6 C5 179.3(3)
C8 C7 C6 C5 0.3(4)
F3 C7 C8 F2B 0.6(7)
C6 C7 C8 F2B 179.6(6)
F3 C7 C8 C9 -179.7(3)
C6 C7 C8 C9 -0.6(4)
C4 C9 C8 F2B -179.4(7)
C4 C9 C8 C7 0.9(4)
