#------------------------------------------------------------------------------
#$Date: 2019-11-17 11:50:22 +0200 (Sun, 17 Nov 2019) $
#$Revision: 229702 $
#$URL: file:///home/coder/svn-repositories/cod/cif/7/04/61/7046132.cif $
#------------------------------------------------------------------------------
#
# This file is available in the Crystallography Open Database (COD),
# http://www.crystallography.net/
#
# All data on this site have been placed in the public domain by the
# contributors.
#
data_7046132
loop_
_publ_author_name
'Sun, Ai-Huan'
'Wei, Qi'
'Fu, Ai-Ping'
'Han, Song-De'
'Li, Jin-Hua'
'Wang, Guo-Ming'
_publ_section_title
;
 Syntheses, structures and efficient visible light-driven photocatalytic
 properties of layered cuprous halides based on two types of building
 units.
;
_journal_issue                   20
_journal_name_full
'Dalton transactions (Cambridge, England : 2003)'
_journal_page_first              6965
_journal_page_last               6972
_journal_paper_doi               10.1039/c7dt04733a
_journal_volume                  47
_journal_year                    2018
_chemical_formula_moiety         'C9 H6.44 F1.56 O2'
_chemical_formula_sum            'C9 H6.44 F1.56 O2'
_chemical_formula_weight         176.28
_space_group_crystal_system      monoclinic
_space_group_IT_number           14
_space_group_name_Hall           '-P 2yn'
_space_group_name_H-M_alt        'P 1 21/n 1'
_symmetry_space_group_name_Hall  '-P 2yn'
_symmetry_space_group_name_H-M   'P 1 21/n 1'
_atom_sites_solution_hydrogens   geom
_audit_creation_method           SHELXL-2014/7
_audit_update_record
;
2018-03-28 deposited with the CCDC.
2018-04-09 downloaded from the CCDC.
;
_cell_angle_alpha                90
_cell_angle_beta                 92.3100(10)
_cell_angle_gamma                90
_cell_formula_units_Z            4
_cell_length_a                   3.74350(10)
_cell_length_b                   6.3336(2)
_cell_length_c                   32.4810(9)
_cell_measurement_reflns_used    1002
_cell_measurement_temperature    100(2)
_cell_measurement_theta_max      27.5
_cell_measurement_theta_min      3.1
_cell_volume                     769.49(4)
_computing_structure_refinement  'SHELXL-2014/7 (Sheldrick, 2014)'
_diffrn_ambient_temperature      100(2)
_diffrn_measured_fraction_theta_full 0.997
_diffrn_measured_fraction_theta_max 0.997
_diffrn_measurement_device_type  CCD
_diffrn_radiation_type           MoK\a
_diffrn_radiation_wavelength     0.71073
_diffrn_reflns_av_R_equivalents  0.0355
_diffrn_reflns_av_unetI/netI     0.0164
_diffrn_reflns_Laue_measured_fraction_full 0.997
_diffrn_reflns_Laue_measured_fraction_max 0.997
_diffrn_reflns_limit_h_max       4
_diffrn_reflns_limit_h_min       -4
_diffrn_reflns_limit_k_max       8
_diffrn_reflns_limit_k_min       -8
_diffrn_reflns_limit_l_max       42
_diffrn_reflns_limit_l_min       -42
_diffrn_reflns_number            20782
_diffrn_reflns_point_group_measured_fraction_full 0.997
_diffrn_reflns_point_group_measured_fraction_max 0.997
_diffrn_reflns_theta_full        25.242
_diffrn_reflns_theta_max         27.498
_diffrn_reflns_theta_min         3.277
_exptl_absorpt_coefficient_mu    0.132
_exptl_crystal_colour            colourless
_exptl_crystal_density_diffrn    1.522
_exptl_crystal_description       plate
_exptl_crystal_F_000             362.0
_refine_diff_density_max         0.407
_refine_diff_density_min         -0.254
_refine_diff_density_rms         0.049
_refine_ls_extinction_method     none
_refine_ls_goodness_of_fit_ref   1.029
_refine_ls_hydrogen_treatment    constr
_refine_ls_matrix_type           full
_refine_ls_number_parameters     130
_refine_ls_number_reflns         1762
_refine_ls_number_restraints     1
_refine_ls_restrained_S_all      1.030
_refine_ls_R_factor_all          0.0595
_refine_ls_R_factor_gt           0.0481
_refine_ls_shift/su_max          0.000
_refine_ls_shift/su_mean         0.000
_refine_ls_structure_factor_coef Fsqd
_refine_ls_weighting_details
'w=1/[\s^2^(Fo^2^)+(0.0581P)^2^+0.5112P] where P=(Fo^2^+2Fc^2^)/3'
_refine_ls_weighting_scheme      calc
_refine_ls_wR_factor_gt          0.1181
_refine_ls_wR_factor_ref         0.1247
_reflns_Friedel_coverage         0.000
_reflns_number_gt                1485
_reflns_number_total             1762
_reflns_threshold_expression     'I > 2\s(I)'
_cod_data_source_file            c7dt04733a2.cif
_cod_data_source_block           18
_cod_depositor_comments
'Adding full bibliography for 7046123--7046152.cif.'
_cod_database_code               7046132
_shelx_shelxl_version_number     2014/7
_shelx_space_group_comment
;
The symmetry employed for this shelxl refinement is uniquely defined
by the following loop, which should always be used as a source of
symmetry information in preference to the above space-group names.
They are only intended as comments.
;
_shelx_res_file
;

    shelx.res created by SHELXL-2014/7

TITL datam in P2(1)/n
CELL  0.71073   3.7435   6.3336  32.4810   90.000   92.310   90.000
ZERR    17.00   0.0001   0.0002   0.0009    0.000    0.001    0.000
LATT   1
SYMM  1/2 - X, 1/2 + Y, 1/2 - Z
SFAC  C    H    O    F
UNIT  17 17 17 17
MERG   2
OMIT    -2.00  55.00
DFIX     1.100   0.020 C8 F2B
EQIV $1 -x+1, -y+1, -z
HTAB C2 O2_$1
EQIV $2 -x+3/2, y-1/2, -z+1/2
HTAB C7 F2A_$2
EQIV $3 -x, -y+2, -z
HTAB O2 O1_$3
OMIT     1   3   0
OMIT     0   4   1
OMIT     3   5  19
FMAP   2
PLAN   20
ACTA
HTAB    2.00000
BOND
BOND   $H
CONF
L.S.  50
TEMP  -173.00
WGHT    0.058100    0.511200
FVAR       0.24176   0.43748   0.14532
MOLE    1
C1    1    0.162693    0.774409    0.034922    11.00000    0.01811    0.02919 =
         0.02559   -0.00519    0.00073    0.00177
C2    1    0.288688    0.597759    0.060839    11.00000    0.02005    0.02498 =
         0.02968   -0.00505    0.00058    0.00450
AFIX  43
H2    2    0.402725    0.480773    0.048617    11.00000   -1.20000
AFIX   0
C3    1    0.245104    0.599594    0.101171    11.00000    0.01543    0.02444 =
         0.03253   -0.00420    0.00127    0.00169
AFIX  43
H3    2    0.127149    0.719079    0.111941    11.00000   -1.20000
AFIX   0
C4    1    0.359514    0.437161    0.130706    11.00000    0.01360    0.02708 =
         0.03228    0.00084    0.00002   -0.00235
C5    1    0.321675    0.473721    0.172495    11.00000    0.02059    0.03234 =
         0.03628   -0.00019    0.00148   -0.00435
PART    1
AFIX  43
H5    2    0.224039    0.603486    0.181462    21.00000   -1.20000
AFIX   0
PART    2
F1    4    0.181088    0.647183    0.184708   -21.00000    0.04815    0.02873 =
         0.02721   -0.00783    0.00798    0.00196
PART    0
C6    1    0.425819    0.321659    0.201015    11.00000    0.02670    0.04936 =
         0.03210    0.00774   -0.00157   -0.01127
PART    1
AFIX  43
H6    2    0.398496    0.349011    0.229473    31.00000   -1.20000
AFIX   0
PART    2
F2A   4    0.383816    0.359498    0.240500   -31.00000    0.05900    0.04547 =
         0.02504   -0.00111    0.00166   -0.00417
PART    0
C7    1    0.567900    0.131867    0.189308    11.00000    0.02105    0.03788 =
         0.06097    0.01816   -0.00602   -0.00442
AFIX  43
H7    2    0.638412    0.028960    0.209304    11.00000   -1.20000
AFIX   0
C8    1    0.605728    0.094217    0.148073    11.00000    0.02006    0.03088 =
         0.05887    0.00705    0.00064    0.00097
PART    1
AFIX  43
H8    2    0.703701   -0.036189    0.139497   -31.00000   -1.20000
AFIX   0
PART    2
F2B   4    0.727255   -0.067974    0.152666    31.00000    0.02614    0.02474 =
         0.06472    0.00168    0.00306    0.00682
PART    0
C9    1    0.503815    0.242574    0.119045    11.00000    0.01762    0.02831 =
         0.04466    0.00031    0.00169   -0.00057
AFIX  43
H9    2    0.531414    0.213023    0.090675    11.00000   -1.20000
AFIX   0
O1    3    0.000409    0.927203    0.049293    11.00000    0.03192    0.03081 =
         0.02881   -0.00424    0.00372    0.01114
O2    3    0.233515    0.758353   -0.003781    11.00000    0.03821    0.03449 =
         0.02571   -0.00217    0.00247    0.01301
AFIX 147
H2A   2    0.160397    0.866766   -0.016409    11.00000   -1.50000
AFIX   0
HKLF    4

REM  datam in P2(1)/n
REM R1 =  0.0481 for    1485 Fo > 4sig(Fo)  and  0.0595 for all    1762 data
REM    130 parameters refined using      1 restraints

END

WGHT      0.0544      0.4707

REM Instructions for potential hydrogen bonds
HTAB C2 O2_$1
HTAB C7 F2A_$2
HTAB O2 O1_$3

REM Highest difference peak  0.407,  deepest hole -0.254,  1-sigma level  0.049
Q1    1   0.5636  0.2190  0.2077  11.00000  0.05    0.41
Q2    1   0.4211  0.4198  0.2160  11.00000  0.05    0.35
Q3    1   0.3395  0.5237  0.1157  11.00000  0.05    0.28
Q4    1   0.5925  0.1681  0.1691  11.00000  0.05    0.25
Q5    1  -0.0735  1.0222  0.0343  11.00000  0.05    0.24
Q6    1   0.4018  0.4813  0.1508  11.00000  0.05    0.24
Q7    1   0.2593  0.6987  0.0497  11.00000  0.05    0.24
Q8    1   0.2757  0.4473  0.1501  11.00000  0.05    0.22
Q9    1   0.4045  0.3931  0.1839  11.00000  0.05    0.21
Q10   1   0.3446  0.5797  0.1815  11.00000  0.05    0.20
Q11   1   0.5631  0.0799  0.1916  11.00000  0.05    0.19
Q12   1  -0.0214  0.8110  0.0396  11.00000  0.05    0.18
Q13   1   0.3298  0.3260  0.1235  11.00000  0.05    0.18
Q14   1   0.5027  0.3553  0.1292  11.00000  0.05    0.17
Q15   1   0.6170  0.1919  0.1329  11.00000  0.05    0.17
Q16   1   0.4628  0.2933  0.1385  11.00000  0.05    0.17
Q17   1   0.4838  0.1439  0.1291  11.00000  0.05    0.16
Q18   1  -0.0886  0.9247  0.0779  11.00000  0.05    0.16
Q19   1   0.1670  0.5429  0.0809  11.00000  0.05    0.15
Q20   1  -0.0508  0.9041  0.0218  11.00000  0.05    0.15
;
_shelx_res_checksum              33913
loop_
_space_group_symop_operation_xyz
'x, y, z'
'-x+1/2, y+1/2, -z+1/2'
'-x, -y, -z'
'x-1/2, -y-1/2, z-1/2'
loop_
_atom_site_label
_atom_site_type_symbol
_atom_site_fract_x
_atom_site_fract_y
_atom_site_fract_z
_atom_site_U_iso_or_equiv
_atom_site_adp_type
_atom_site_occupancy
_atom_site_site_symmetry_order
_atom_site_calc_flag
_atom_site_refinement_flags_posn
_atom_site_refinement_flags_adp
_atom_site_refinement_flags_occupancy
_atom_site_disorder_assembly
_atom_site_disorder_group
C1 C 0.1627(4) 0.7744(3) 0.03492(5) 0.0243(4) Uani 1 1 d . . . . .
C2 C 0.2887(4) 0.5978(3) 0.06084(5) 0.0249(4) Uani 1 1 d . . . . .
H2 H 0.4027 0.4808 0.0486 0.030 Uiso 1 1 calc R U . . .
C3 C 0.2451(4) 0.5996(3) 0.10117(5) 0.0241(4) Uani 1 1 d . . . . .
H3 H 0.1271 0.7191 0.1119 0.029 Uiso 1 1 calc R U . . .
C4 C 0.3595(4) 0.4372(3) 0.13071(5) 0.0243(4) Uani 1 1 d . . . . .
C5 C 0.3217(4) 0.4737(3) 0.17249(5) 0.0297(4) Uani 1 1 d . . . . .
H5 H 0.2240 0.6035 0.1815 0.036 Uiso 0.437(5) 1 calc R U P A 1
F1 F 0.1811(5) 0.6472(3) 0.18471(5) 0.0345(7) Uani 0.563(5) 1 d . . P A 2
C6 C 0.4258(5) 0.3217(3) 0.20102(6) 0.0361(4) Uani 1 1 d . . . . .
H6 H 0.3985 0.3490 0.2295 0.043 Uiso 0.145(4) 1 calc R U P B 1
F2A F 0.3838(4) 0.3595(2) 0.24050(4) 0.0432(5) Uani 0.855(4) 1 d . . P B 2
C7 C 0.5679(5) 0.1319(3) 0.18931(7) 0.0402(5) Uani 1 1 d . . . . .
H7 H 0.6384 0.0290 0.2093 0.048 Uiso 1 1 calc R U . B 2
C8 C 0.6057(4) 0.0942(3) 0.14807(7) 0.0366(5) Uani 1 1 d D . . . .
H8 H 0.7037 -0.0362 0.1395 0.044 Uiso 0.855(4) 1 calc R U P B 1
F2B F 0.7273(18) -0.0680(10) 0.1527(3) 0.038(3) Uani 0.145(4) 1 d D . P B 2
C9 C 0.5038(4) 0.2426(3) 0.11904(6) 0.0302(4) Uani 1 1 d . . . . .
H9 H 0.5314 0.2130 0.0907 0.036 Uiso 1 1 calc R U . . .
O1 O 0.0004(3) 0.92720(19) 0.04929(4) 0.0304(3) Uani 1 1 d . . . . .
O2 O 0.2335(3) 0.7584(2) -0.00378(4) 0.0328(3) Uani 1 1 d . . . . .
H2A H 0.1604 0.8668 -0.0164 0.049 Uiso 1 1 calc R U . . .
loop_
_atom_site_aniso_label
_atom_site_aniso_U_11
_atom_site_aniso_U_22
_atom_site_aniso_U_33
_atom_site_aniso_U_23
_atom_site_aniso_U_13
_atom_site_aniso_U_12
C1 0.0181(7) 0.0292(8) 0.0256(8) -0.0052(6) 0.0007(6) 0.0018(6)
C2 0.0201(7) 0.0250(8) 0.0297(8) -0.0051(7) 0.0006(6) 0.0045(6)
C3 0.0154(7) 0.0244(8) 0.0325(9) -0.0042(6) 0.0013(6) 0.0017(6)
C4 0.0136(7) 0.0271(8) 0.0323(9) 0.0008(7) 0.0000(6) -0.0024(6)
C5 0.0206(8) 0.0323(9) 0.0363(10) -0.0002(7) 0.0015(6) -0.0043(7)
F1 0.0481(12) 0.0287(11) 0.0272(11) -0.0078(7) 0.0080(8) 0.0020(8)
C6 0.0267(9) 0.0494(11) 0.0321(10) 0.0077(8) -0.0016(7) -0.0113(8)
F2A 0.0590(9) 0.0455(8) 0.0250(7) -0.0011(6) 0.0017(6) -0.0042(6)
C7 0.0211(8) 0.0379(10) 0.0610(13) 0.0182(9) -0.0060(8) -0.0044(7)
C8 0.0201(8) 0.0309(9) 0.0589(13) 0.0070(9) 0.0006(7) 0.0010(7)
F2B 0.026(4) 0.025(4) 0.065(6) 0.002(3) 0.003(3) 0.007(3)
C9 0.0176(7) 0.0283(8) 0.0447(10) 0.0003(7) 0.0017(7) -0.0006(6)
O1 0.0319(6) 0.0308(6) 0.0288(6) -0.0042(5) 0.0037(5) 0.0111(5)
O2 0.0382(7) 0.0345(7) 0.0257(6) -0.0022(5) 0.0025(5) 0.0130(5)
loop_
_atom_type_symbol
_atom_type_description
_atom_type_scat_dispersion_real
_atom_type_scat_dispersion_imag
_atom_type_scat_source
C C 0.0033 0.0016 'International Tables Vol C Tables 4.2.6.8 and 6.1.1.4'
H H 0.0000 0.0000 'International Tables Vol C Tables 4.2.6.8 and 6.1.1.4'
O O 0.0106 0.0060 'International Tables Vol C Tables 4.2.6.8 and 6.1.1.4'
F F 0.0171 0.0103 'International Tables Vol C Tables 4.2.6.8 and 6.1.1.4'
loop_
_geom_angle_atom_site_label_1
_geom_angle_atom_site_label_2
_geom_angle_atom_site_label_3
_geom_angle
O1 C1 O2 123.09(15)
O1 C1 C2 121.93(14)
O2 C1 C2 114.98(14)
C3 C2 C1 120.70(14)
C3 C2 H2 119.6
C1 C2 H2 119.6
C2 C3 C4 126.76(15)
C2 C3 H3 116.6
C4 C3 H3 116.6
C5 C4 C9 117.73(16)
C5 C4 C3 119.07(15)
C9 C4 C3 123.20(15)
F1 C5 C6 119.73(18)
F1 C5 C4 120.13(17)
C6 C5 C4 120.11(17)
C6 C5 H5 119.9
C4 C5 H5 119.9
F2A C6 C7 119.35(18)
F2A C6 C5 118.91(19)
C7 C6 C5 121.74(18)
C7 C6 H6 119.1
C5 C6 H6 119.1
C8 C7 C6 118.55(18)
C8 C7 F2B 37.5(3)
C6 C7 F2B 156.0(3)
C8 C7 H7 120.7
C6 C7 H7 120.7
F2B C7 H7 83.3
F2B C8 C7 94.9(5)
F2B C8 C9 144.2(5)
C7 C8 C9 120.91(18)
C7 C8 H8 119.5
C9 C8 H8 119.5
C8 F2B C7 47.6(3)
C8 C9 C4 120.96(18)
C8 C9 H9 119.5
C4 C9 H9 119.5
C1 O2 H2A 109.5
loop_
_geom_bond_atom_site_label_1
_geom_bond_atom_site_label_2
_geom_bond_distance
C1 O1 1.2435(19)
C1 O2 1.2992(19)
C1 C2 1.467(2)
C2 C3 1.327(2)
C2 H2 0.9500
C3 C4 1.459(2)
C3 H3 0.9500
C4 C5 1.390(2)
C4 C9 1.404(2)
C5 F1 1.288(2)
C5 C6 1.382(3)
C5 H5 0.9500
C6 F2A 1.320(2)
C6 C7 1.374(3)
C6 H6 0.9500
C7 C8 1.373(3)
C7 F2B 1.852(8)
C7 H7 0.9500
C8 F2B 1.131(7)
C8 C9 1.374(3)
C8 H8 0.9500
C9 H9 0.9500
O2 H2A 0.8400
loop_
_geom_hbond_atom_site_label_D
_geom_hbond_atom_site_label_H
_geom_hbond_atom_site_label_A
_geom_hbond_distance_DH
_geom_hbond_distance_HA
_geom_hbond_distance_DA
_geom_hbond_angle_DHA
_geom_hbond_site_symmetry_A
C2 H2 O2 0.95 2.54 3.4624(19) 165.2 3_665
C7 H7 F2A 0.95 2.60 3.465(2) 151.2 2_645
O2 H2A O1 0.84 1.78 2.6104(17) 172.0 3_575
loop_
_geom_torsion_atom_site_label_1
_geom_torsion_atom_site_label_2
_geom_torsion_atom_site_label_3
_geom_torsion_atom_site_label_4
_geom_torsion
O1 C1 C2 C3 -2.7(2)
O2 C1 C2 C3 177.33(15)
C1 C2 C3 C4 -179.27(14)
C2 C3 C4 C5 174.07(15)
C2 C3 C4 C9 -6.7(2)
C9 C4 C5 F1 -177.98(16)
C3 C4 C5 F1 1.3(2)
C9 C4 C5 C6 0.3(2)
C3 C4 C5 C6 179.55(14)
F1 C5 C6 F2A -1.1(3)
C4 C5 C6 F2A -179.35(15)
F1 C5 C6 C7 178.18(17)
C4 C5 C6 C7 -0.1(3)
F2A C6 C7 C8 179.24(16)
C5 C6 C7 C8 -0.1(3)
F2A C6 C7 F2B -179.8(6)
C5 C6 C7 F2B 0.9(7)
C6 C7 C8 F2B 179.4(4)
C6 C7 C8 C9 -0.1(3)
F2B C7 C8 C9 -179.4(4)
C9 C8 F2B C7 179.1(6)
C6 C7 F2B C8 -1.4(8)
F2B C8 C9 C4 -178.7(6)
C7 C8 C9 C4 0.3(3)
C5 C4 C9 C8 -0.4(2)
C3 C4 C9 C8 -179.62(15)
