#------------------------------------------------------------------------------
#$Date: 2019-11-17 11:50:22 +0200 (Sun, 17 Nov 2019) $
#$Revision: 229702 $
#$URL: file:///home/coder/svn-repositories/cod/cif/7/04/61/7046136.cif $
#------------------------------------------------------------------------------
#
# This file is available in the Crystallography Open Database (COD),
# http://www.crystallography.net/
#
# All data on this site have been placed in the public domain by the
# contributors.
#
data_7046136
loop_
_publ_author_name
'Sun, Ai-Huan'
'Wei, Qi'
'Fu, Ai-Ping'
'Han, Song-De'
'Li, Jin-Hua'
'Wang, Guo-Ming'
_publ_section_title
;
 Syntheses, structures and efficient visible light-driven photocatalytic
 properties of layered cuprous halides based on two types of building
 units.
;
_journal_issue                   20
_journal_name_full
'Dalton transactions (Cambridge, England : 2003)'
_journal_page_first              6965
_journal_page_last               6972
_journal_paper_doi               10.1039/c7dt04733a
_journal_volume                  47
_journal_year                    2018
_chemical_formula_moiety         'C9 H6.53 F1.47 O2'
_chemical_formula_sum            'C9 H6.53 F1.47 O2'
_chemical_formula_weight         174.60
_space_group_crystal_system      monoclinic
_space_group_IT_number           14
_space_group_name_Hall           '-P 2ybc'
_space_group_name_H-M_alt        'P 1 21/c 1'
_symmetry_space_group_name_Hall  '-P 2ybc'
_symmetry_space_group_name_H-M   'P 1 21/c 1'
_atom_sites_solution_hydrogens   geom
_audit_creation_method           SHELXL-2014/7
_audit_update_record
;
2018-03-28 deposited with the CCDC.
2018-04-09 downloaded from the CCDC.
;
_cell_angle_alpha                90
_cell_angle_beta                 90.01(3)
_cell_angle_gamma                90
_cell_formula_units_Z            4
_cell_length_a                   6.394(4)
_cell_length_b                   3.753(2)
_cell_length_c                   31.224(17)
_cell_measurement_reflns_used    827
_cell_measurement_temperature    293(2)
_cell_measurement_theta_max      27.5
_cell_measurement_theta_min      3.2
_cell_volume                     749.3(7)
_computing_structure_refinement  'SHELXL-2014/7 (Sheldrick, 2014)'
_diffrn_ambient_temperature      293(2)
_diffrn_measured_fraction_theta_full 0.892
_diffrn_measured_fraction_theta_max 0.906
_diffrn_measurement_device_type  CCD
_diffrn_radiation_type           MoK\a
_diffrn_radiation_wavelength     0.71073
_diffrn_reflns_av_R_equivalents  0.1268
_diffrn_reflns_av_unetI/netI     0.1235
_diffrn_reflns_Laue_measured_fraction_full 0.892
_diffrn_reflns_Laue_measured_fraction_max 0.906
_diffrn_reflns_limit_h_max       8
_diffrn_reflns_limit_h_min       -8
_diffrn_reflns_limit_k_max       4
_diffrn_reflns_limit_k_min       -4
_diffrn_reflns_limit_l_max       40
_diffrn_reflns_limit_l_min       -40
_diffrn_reflns_number            4391
_diffrn_reflns_point_group_measured_fraction_full 0.892
_diffrn_reflns_point_group_measured_fraction_max 0.906
_diffrn_reflns_theta_full        25.242
_diffrn_reflns_theta_max         27.500
_diffrn_reflns_theta_min         1.304
_exptl_absorpt_coefficient_mu    0.133
_exptl_crystal_colour            colourless
_exptl_crystal_density_diffrn    1.548
_exptl_crystal_description       needle
_exptl_crystal_F_000             359.0
_exptl_crystal_size_max          0.6
_exptl_crystal_size_mid          0.2
_exptl_crystal_size_min          0.2
_refine_diff_density_max         0.316
_refine_diff_density_min         -0.334
_refine_diff_density_rms         0.090
_refine_ls_extinction_method     none
_refine_ls_goodness_of_fit_ref   1.040
_refine_ls_hydrogen_treatment    constr
_refine_ls_matrix_type           full
_refine_ls_number_parameters     120
_refine_ls_number_reflns         1557
_refine_ls_number_restraints     0
_refine_ls_restrained_S_all      1.040
_refine_ls_R_factor_all          0.1390
_refine_ls_R_factor_gt           0.1064
_refine_ls_shift/su_max          0.000
_refine_ls_shift/su_mean         0.000
_refine_ls_structure_factor_coef Fsqd
_refine_ls_weighting_details
'w=1/[\s^2^(Fo^2^)+(0.1864P)^2^+0.5227P] where P=(Fo^2^+2Fc^2^)/3'
_refine_ls_weighting_scheme      calc
_refine_ls_wR_factor_gt          0.3002
_refine_ls_wR_factor_ref         0.3471
_reflns_Friedel_coverage         0.000
_reflns_number_gt                1002
_reflns_number_total             1557
_reflns_threshold_expression     'I > 2\s(I)'
_cod_data_source_file            c7dt04733a2.cif
_cod_data_source_block           3
_cod_depositor_comments
'Adding full bibliography for 7046123--7046152.cif.'
_cod_database_code               7046136
_shelx_shelxl_version_number     2014/7
_shelx_space_group_comment
;
The symmetry employed for this shelxl refinement is uniquely defined
by the following loop, which should always be used as a source of
symmetry information in preference to the above space-group names.
They are only intended as comments.
;
_shelx_res_file
;

    shelx.res created by SHELXL-2014/7

TITL datam in P2(1)/c
CELL  0.71073   6.3939   3.7533  31.2235   90.000   90.007   90.000
ZERR     4.00   0.0037   0.0023   0.0168    0.000    0.030    0.000
LATT   1
SYMM  - X, 1/2 + Y, 1/2 - Z
SFAC  C    H    O    F
UNIT  36 26.473 8 5.527
MERG   2
OMIT    -2.00  55.00
EQIV $1 -x+1, -y+3, -z
HTAB C2 O2_$1
EQIV $2 -x+2, y-1/2, -z+1/2
HTAB C6 F2_$2
EQIV $3 -x+1, y+1/2, -z+1/2
HTAB C6 F1_$3
EQIV $4 -x, -y+2, -z
HTAB O2 O1_$4
OMIT     2   0   2
OMIT     0   0   4
OMIT    -5   1   8
FMAP   2
PLAN   20
ACTA
HTAB    2.00000
BOND
BOND   $H
CONF
L.S.  50
WGHT    0.186400    0.522700
FVAR       0.52315   0.52981
MOLE    1
C1    1    0.223327    1.153068    0.035656    11.00000    0.04047    0.03872 =
         0.03497    0.00357    0.00297   -0.00649
C2    1    0.398586    1.272486    0.061547    11.00000    0.03618    0.03848 =
         0.04057    0.00131    0.00352   -0.00663
AFIX  43
H2    2    0.509635    1.389833    0.048471    11.00000   -1.20000
AFIX   0
C3    1    0.403134    1.217491    0.103309    11.00000    0.03345    0.03625 =
         0.03730   -0.00061    0.00332   -0.00754
AFIX  43
H3    2    0.289013    1.099453    0.115126    11.00000   -1.20000
AFIX   0
C4    1    0.567201    1.321923    0.132494    11.00000    0.03949    0.02848 =
         0.03841    0.00027    0.00513   -0.00045
C5    1    0.541786    1.270801    0.176308    11.00000    0.03471    0.04575 =
         0.03767    0.00147    0.00934   -0.00061
C6    1    0.688800    1.358013    0.206028    11.00000    0.04740    0.04515 =
         0.03647   -0.00227    0.00195    0.00433
AFIX  43
H6    2    0.665990    1.318426    0.235057    11.00000   -1.20000
AFIX   0
C7    1    0.870886    1.505623    0.191722    11.00000    0.04204    0.04658 =
         0.05611   -0.00939   -0.00714    0.00540
PART    1
AFIX  43
H7    2    0.973266    1.569144    0.211456    21.00000   -1.20000
AFIX   0
PART    2
F2    4    1.015091    1.599765    0.218439   -21.00000    0.06198    0.09854 =
         0.07878   -0.01930   -0.02242   -0.00877
PART    0
C8    1    0.906495    1.562399    0.149116    11.00000    0.04034    0.03668 =
         0.06367    0.00181    0.00273   -0.00519
AFIX  43
H8    2    1.031907    1.662796    0.140065    11.00000   -1.20000
AFIX   0
C9    1    0.757484    1.471252    0.120014    11.00000    0.04125    0.04276 =
         0.04262    0.00049    0.00204   -0.00107
AFIX  43
H9    2    0.783105    1.509457    0.091057    11.00000   -1.20000
AFIX   0
O1    3    0.074960    0.988990    0.051339    11.00000    0.04418    0.05514 =
         0.03459    0.00542    0.00304   -0.01340
O2    3    0.234884    1.230735   -0.004813    11.00000    0.04974    0.06589 =
         0.03028    0.00272   -0.00077   -0.01463
AFIX 147
H2A   2    0.143939    1.121915   -0.017921    11.00000   -1.50000
AFIX   0
F1    4    0.361445    1.124664    0.189969    11.00000    0.04224    0.07996 =
         0.03814    0.01275    0.00855   -0.00736
HKLF    4

REM  datam in P2(1)/c
REM R1 =  0.1064 for    1002 Fo > 4sig(Fo)  and  0.1390 for all    1557 data
REM    120 parameters refined using      0 restraints

END

WGHT      0.1481      0.5935

REM Instructions for potential hydrogen bonds
HTAB C2 O2_$1
HTAB C6 F2_$2
HTAB C6 F1_$3
HTAB O2 O1_$4

REM Highest difference peak  0.316,  deepest hole -0.334,  1-sigma level  0.090
Q1    1   0.5028  0.7729  0.1891  11.00000  0.05    0.32
Q2    1   0.4288  0.8868  0.1310  11.00000  0.05    0.27
Q3    1  -0.0022  1.1116  0.1004  11.00000  0.05    0.26
Q4    1   0.9741  1.8296  0.1178  11.00000  0.05    0.26
Q5    1   0.3735  1.6918  0.0401  11.00000  0.05    0.26
Q6    1   0.2966  0.9631 -0.0637  11.00000  0.05    0.25
Q7    1   0.2841  0.7237 -0.0096  11.00000  0.05    0.25
Q8    1  -0.0633  1.0284  0.0912  11.00000  0.05    0.24
Q9    1   0.0649  1.5106 -0.0113  11.00000  0.05    0.23
Q10   1   0.2062  0.8440  0.0000  11.00000  0.05    0.23
Q11   1   1.0016  1.9785  0.2122  11.00000  0.05    0.23
Q12   1   0.0947  1.4007  0.0924  11.00000  0.05    0.23
Q13   1  -0.0477  1.2293  0.0020  11.00000  0.05    0.23
Q14   1   0.8611  1.5213  0.0485  11.00000  0.05    0.22
Q15   1   0.1569  1.0313  0.1736  11.00000  0.05    0.22
Q16   1   0.4036  0.7753  0.1216  11.00000  0.05    0.21
Q17   1   0.8592  1.8224  0.1016  11.00000  0.05    0.21
Q18   1   0.8595  1.1770  0.1586  11.00000  0.05    0.21
Q19   1   1.2474  1.7639  0.1624  11.00000  0.05    0.21
Q20   1   0.1714  0.8597 -0.0381  11.00000  0.05    0.21
;
_shelx_res_checksum              4768
loop_
_space_group_symop_operation_xyz
'x, y, z'
'-x, y+1/2, -z+1/2'
'-x, -y, -z'
'x, -y-1/2, z-1/2'
loop_
_atom_site_label
_atom_site_type_symbol
_atom_site_fract_x
_atom_site_fract_y
_atom_site_fract_z
_atom_site_U_iso_or_equiv
_atom_site_adp_type
_atom_site_occupancy
_atom_site_site_symmetry_order
_atom_site_calc_flag
_atom_site_refinement_flags_posn
_atom_site_refinement_flags_adp
_atom_site_refinement_flags_occupancy
_atom_site_disorder_assembly
_atom_site_disorder_group
C1 C 0.2233(7) 1.1531(11) 0.03566(12) 0.0381(10) Uani 1 1 d . . . . .
C2 C 0.3986(7) 1.2725(11) 0.06155(12) 0.0384(10) Uani 1 1 d . . . . .
H2 H 0.5096 1.3898 0.0485 0.046 Uiso 1 1 calc R U . . .
C3 C 0.4031(7) 1.2175(11) 0.10331(12) 0.0357(9) Uani 1 1 d . . . . .
H3 H 0.2890 1.0995 0.1151 0.043 Uiso 1 1 calc R U . . .
C4 C 0.5672(7) 1.3219(11) 0.13249(12) 0.0355(9) Uani 1 1 d . . . . .
C5 C 0.5418(7) 1.2708(12) 0.17631(13) 0.0394(10) Uani 1 1 d . . . . .
C6 C 0.6888(7) 1.3580(13) 0.20603(13) 0.0430(11) Uani 1 1 d . . . . .
H6 H 0.6660 1.3184 0.2351 0.052 Uiso 1 1 calc R U . . .
C7 C 0.8709(7) 1.5056(13) 0.19172(14) 0.0482(12) Uani 1 1 d . . . . .
H7 H 0.9733 1.5691 0.2115 0.058 Uiso 0.530(10) 1 calc R U P A 1
F2 F 1.0151(12) 1.600(2) 0.2184(2) 0.080(3) Uani 0.470(10) 1 d . . P A 2
C8 C 0.9065(8) 1.5624(12) 0.14912(15) 0.0469(11) Uani 1 1 d . . . . .
H8 H 1.0319 1.6628 0.1401 0.056 Uiso 1 1 calc R U . . .
C9 C 0.7575(7) 1.4713(12) 0.12001(13) 0.0422(10) Uani 1 1 d . . . . .
H9 H 0.7831 1.5095 0.0911 0.051 Uiso 1 1 calc R U . . .
O1 O 0.0750(5) 0.9890(8) 0.05134(8) 0.0446(9) Uani 1 1 d . . . . .
O2 O 0.2349(5) 1.2307(9) -0.00481(8) 0.0486(10) Uani 1 1 d . . . . .
H2A H 0.1439 1.1219 -0.0179 0.073 Uiso 1 1 calc R U . . .
F1 F 0.3614(4) 1.1247(9) 0.18997(7) 0.0534(9) Uani 1 1 d . . . . .
loop_
_atom_site_aniso_label
_atom_site_aniso_U_11
_atom_site_aniso_U_22
_atom_site_aniso_U_33
_atom_site_aniso_U_23
_atom_site_aniso_U_13
_atom_site_aniso_U_12
C1 0.040(2) 0.039(2) 0.0350(17) 0.0036(15) 0.0030(16) -0.0065(18)
C2 0.036(2) 0.038(2) 0.041(2) 0.0013(16) 0.0035(16) -0.0066(18)
C3 0.033(2) 0.036(2) 0.0373(18) -0.0006(15) 0.0033(15) -0.0075(17)
C4 0.039(2) 0.0285(19) 0.0384(19) 0.0003(14) 0.0051(16) -0.0005(16)
C5 0.035(2) 0.046(2) 0.0377(18) 0.0015(16) 0.0093(16) -0.0006(19)
C6 0.047(3) 0.045(2) 0.0365(18) -0.0023(17) 0.0019(18) 0.004(2)
C7 0.042(3) 0.047(3) 0.056(2) -0.0094(19) -0.007(2) 0.005(2)
F2 0.062(5) 0.099(6) 0.079(5) -0.019(4) -0.022(4) -0.009(4)
C8 0.040(2) 0.037(2) 0.064(3) 0.0018(19) 0.003(2) -0.005(2)
C9 0.041(2) 0.043(2) 0.0426(19) 0.0005(17) 0.0020(17) -0.0011(19)
O1 0.0442(18) 0.055(2) 0.0346(14) 0.0054(12) 0.0030(12) -0.0134(15)
O2 0.0497(19) 0.066(2) 0.0303(14) 0.0027(13) -0.0008(12) -0.0146(17)
F1 0.0422(16) 0.080(2) 0.0381(12) 0.0128(12) 0.0085(11) -0.0074(14)
loop_
_atom_type_symbol
_atom_type_description
_atom_type_scat_dispersion_real
_atom_type_scat_dispersion_imag
_atom_type_scat_source
C C 0.0033 0.0016 'International Tables Vol C Tables 4.2.6.8 and 6.1.1.4'
H H 0.0000 0.0000 'International Tables Vol C Tables 4.2.6.8 and 6.1.1.4'
O O 0.0106 0.0060 'International Tables Vol C Tables 4.2.6.8 and 6.1.1.4'
F F 0.0171 0.0103 'International Tables Vol C Tables 4.2.6.8 and 6.1.1.4'
loop_
_geom_angle_atom_site_label_1
_geom_angle_atom_site_label_2
_geom_angle_atom_site_label_3
_geom_angle
O1 C1 O2 122.9(4)
O1 C1 C2 121.8(3)
O2 C1 C2 115.4(4)
C3 C2 C1 121.2(4)
C3 C2 H2 119.4
C1 C2 H2 119.4
C2 C3 C4 126.6(4)
C2 C3 H3 116.7
C4 C3 H3 116.7
C5 C4 C9 115.6(4)
C5 C4 C3 119.9(4)
C9 C4 C3 124.5(3)
F1 C5 C6 118.3(4)
F1 C5 C4 117.9(4)
C6 C5 C4 123.8(4)
C7 C6 C5 117.6(4)
C7 C6 H6 121.2
C5 C6 H6 121.2
F2 C7 C6 120.6(5)
F2 C7 C8 117.8(6)
C6 C7 C8 121.6(4)
C6 C7 H7 119.2
C8 C7 H7 119.2
C9 C8 C7 119.6(4)
C9 C8 H8 120.2
C7 C8 H8 120.2
C8 C9 C4 121.7(4)
C8 C9 H9 119.2
C4 C9 H9 119.2
C1 O2 H2A 109.5
loop_
_geom_bond_atom_site_label_1
_geom_bond_atom_site_label_2
_geom_bond_distance
C1 O1 1.233(5)
C1 O2 1.299(5)
C1 C2 1.453(6)
C2 C3 1.321(6)
C2 H2 0.9300
C3 C4 1.444(6)
C3 H3 0.9300
C4 C5 1.391(5)
C4 C9 1.395(6)
C5 F1 1.346(5)
C5 C6 1.361(6)
C6 C7 1.365(7)
C6 H6 0.9300
C7 F2 1.293(8)
C7 C8 1.366(7)
C7 H7 0.9300
C8 C9 1.360(6)
C8 H8 0.9300
C9 H9 0.9300
O2 H2A 0.8200
loop_
_geom_hbond_atom_site_label_D
_geom_hbond_atom_site_label_H
_geom_hbond_atom_site_label_A
_geom_hbond_distance_DH
_geom_hbond_distance_HA
_geom_hbond_distance_DA
_geom_hbond_angle_DHA
_geom_hbond_site_symmetry_A
C2 H2 O2 0.93 2.56 3.480(5) 169.9 3_685
C6 H6 F2 0.93 2.63 3.176(8) 117.7 2_745
C6 H6 F1 0.93 2.61 3.413(5) 144.4 2_655
O2 H2A O1 0.82 1.79 2.591(4) 163.5 3_575
loop_
_geom_torsion_atom_site_label_1
_geom_torsion_atom_site_label_2
_geom_torsion_atom_site_label_3
_geom_torsion_atom_site_label_4
_geom_torsion
O1 C1 C2 C3 -1.8(7)
O2 C1 C2 C3 178.4(4)
C1 C2 C3 C4 179.9(4)
C2 C3 C4 C5 174.8(4)
C2 C3 C4 C9 -6.1(8)
C9 C4 C5 F1 -179.5(4)
C3 C4 C5 F1 -0.3(6)
C9 C4 C5 C6 0.2(7)
C3 C4 C5 C6 179.3(4)
F1 C5 C6 C7 179.9(4)
C4 C5 C6 C7 0.3(7)
C5 C6 C7 F2 178.8(6)
C5 C6 C7 C8 -0.5(7)
F2 C7 C8 C9 -179.2(6)
C6 C7 C8 C9 0.2(7)
C7 C8 C9 C4 0.3(7)
C5 C4 C9 C8 -0.5(7)
C3 C4 C9 C8 -179.6(4)
