#------------------------------------------------------------------------------
#$Date: 2019-11-17 11:50:22 +0200 (Sun, 17 Nov 2019) $
#$Revision: 229702 $
#$URL: file:///home/coder/svn-repositories/cod/cif/7/04/61/7046125.cif $
#------------------------------------------------------------------------------
#
# This file is available in the Crystallography Open Database (COD),
# http://www.crystallography.net/
#
# All data on this site have been placed in the public domain by the
# contributors.
#
data_7046125
loop_
_publ_author_name
'Sun, Ai-Huan'
'Wei, Qi'
'Fu, Ai-Ping'
'Han, Song-De'
'Li, Jin-Hua'
'Wang, Guo-Ming'
_publ_section_title
;
 Syntheses, structures and efficient visible light-driven photocatalytic
 properties of layered cuprous halides based on two types of building
 units.
;
_journal_issue                   20
_journal_name_full
'Dalton transactions (Cambridge, England : 2003)'
_journal_page_first              6965
_journal_page_last               6972
_journal_paper_doi               10.1039/c7dt04733a
_journal_volume                  47
_journal_year                    2018
_chemical_formula_moiety         'C9 H7 F O2'
_chemical_formula_sum            'C9 H7 F O2'
_chemical_formula_weight         166.12
_space_group_crystal_system      monoclinic
_space_group_IT_number           14
_space_group_name_Hall           '-P 2ybc'
_space_group_name_H-M_alt        'P 1 21/c 1'
_symmetry_space_group_name_Hall  '-P 2ybc'
_symmetry_space_group_name_H-M   'P 1 21/c 1'
_atom_sites_solution_hydrogens   geom
_audit_creation_method           SHELXL-2014/7
_audit_update_record
;
2018-03-01 deposited with the CCDC.
2018-04-09 downloaded from the CCDC.
;
_cell_angle_alpha                90
_cell_angle_beta                 91.02(4)
_cell_angle_gamma                90
_cell_formula_units_Z            4
_cell_length_a                   6.307(12)
_cell_length_b                   3.778(7)
_cell_length_c                   31.68(5)
_cell_measurement_reflns_used    992
_cell_measurement_temperature    100(2)
_cell_measurement_theta_max      27.5
_cell_measurement_theta_min      2.9
_cell_volume                     755(2)
_computing_structure_refinement  'SHELXL-2014/7 (Sheldrick, 2014)'
_diffrn_ambient_temperature      100(2)
_diffrn_measured_fraction_theta_full 0.973
_diffrn_measured_fraction_theta_max 0.967
_diffrn_measurement_device_type  CCD
_diffrn_radiation_type           MoK\a
_diffrn_radiation_wavelength     0.71073
_diffrn_reflns_av_R_equivalents  0.1537
_diffrn_reflns_av_unetI/netI     0.1706
_diffrn_reflns_Laue_measured_fraction_full 0.973
_diffrn_reflns_Laue_measured_fraction_max 0.967
_diffrn_reflns_limit_h_max       8
_diffrn_reflns_limit_h_min       -7
_diffrn_reflns_limit_k_max       4
_diffrn_reflns_limit_k_min       -4
_diffrn_reflns_limit_l_max       40
_diffrn_reflns_limit_l_min       -35
_diffrn_reflns_number            3619
_diffrn_reflns_point_group_measured_fraction_full 0.973
_diffrn_reflns_point_group_measured_fraction_max 0.967
_diffrn_reflns_theta_full        25.242
_diffrn_reflns_theta_max         27.498
_diffrn_reflns_theta_min         3.231
_exptl_absorpt_coefficient_mu    0.119
_exptl_crystal_colour            colourless
_exptl_crystal_density_diffrn    1.462
_exptl_crystal_description       plate
_exptl_crystal_F_000             344
_exptl_crystal_size_max          0.9
_exptl_crystal_size_mid          0.7
_exptl_crystal_size_min          0.2
_refine_diff_density_max         0.381
_refine_diff_density_min         -0.360
_refine_diff_density_rms         0.100
_refine_ls_extinction_method     none
_refine_ls_goodness_of_fit_ref   0.814
_refine_ls_hydrogen_treatment    constr
_refine_ls_matrix_type           full
_refine_ls_number_parameters     109
_refine_ls_number_reflns         1675
_refine_ls_number_restraints     0
_refine_ls_restrained_S_all      0.814
_refine_ls_R_factor_all          0.1214
_refine_ls_R_factor_gt           0.0795
_refine_ls_shift/su_max          0.000
_refine_ls_shift/su_mean         0.000
_refine_ls_structure_factor_coef Fsqd
_refine_ls_weighting_details
'w=1/[\s^2^(Fo^2^)+(0.0746P)^2^] where P=(Fo^2^+2Fc^2^)/3'
_refine_ls_weighting_scheme      calc
_refine_ls_wR_factor_gt          0.1825
_refine_ls_wR_factor_ref         0.2027
_reflns_Friedel_coverage         0.000
_reflns_number_gt                783
_reflns_number_total             1675
_reflns_threshold_expression     'I > 2\s(I)'
_cod_data_source_file            c7dt04733a2.cif
_cod_data_source_block           2FCA-II
_cod_depositor_comments
'Adding full bibliography for 7046123--7046152.cif.'
_cod_database_code               7046125
_shelx_shelxl_version_number     2014/7
_shelx_space_group_comment
;
The symmetry employed for this shelxl refinement is uniquely defined
by the following loop, which should always be used as a source of
symmetry information in preference to the above space-group names.
They are only intended as comments.
;
_shelx_res_file
;

    shelx.res created by SHELXL-2014/7

TITL datam in P2(1)/c
CELL  0.71073   6.3070   3.7778  31.6827   90.000   91.020   90.000
ZERR    17.00   0.0118   0.0072   0.0544    0.000    0.038    0.000
LATT   1
SYMM  - X, 1/2 + Y, 1/2 - Z
SFAC  C    H    O    F
UNIT  17 17 17 17
MERG   2
OMIT    -2.00  55.00
OMIT     0   0   2
OMIT     0   0   4
EQIV $1 -x, -y-1, -z+1
HTAB C2 O2_$1
EQIV $2 -x, y-1/2, -z+1/2
HTAB C6 F1_$2
EQIV $3 -x+1, -y, -z+1
HTAB O2 O1_$3
HTAB C2 O2_$1
HTAB C6 F1_$2
HTAB O2 O1_$3
OMIT    -4   1  22
OMIT     2   0  12
FMAP   2
PLAN   20
ACTA
BOND
BOND   $H
CONF
L.S.  50
TEMP  -173.00
WGHT    0.074600
FVAR       0.52474
MOLE    1
C1    1    0.270920   -0.152075    0.463807    11.00000    0.01883    0.03053 =
         0.01819   -0.00020   -0.00057   -0.00367
C2    1    0.090917   -0.267907    0.437481    11.00000    0.01905    0.03310 =
         0.02227   -0.00006    0.00000   -0.00447
AFIX  43
H2    2   -0.025695   -0.384947    0.449938    11.00000   -1.20000
AFIX   0
C3    1    0.090869   -0.208763    0.395895    11.00000    0.02085    0.02689 =
         0.02109    0.00096    0.00550   -0.00323
AFIX  43
H3    2    0.210510   -0.089509    0.384925    11.00000   -1.20000
AFIX   0
C4    1   -0.077930   -0.311623    0.365424    11.00000    0.01845    0.02238 =
         0.02403    0.00050    0.00123    0.00133
C5    1   -0.046674   -0.261229    0.322343    11.00000    0.01413    0.03465 =
         0.02436    0.00109    0.00067    0.00024
C6    1   -0.196053   -0.349920    0.291631    11.00000    0.02724    0.03910 =
         0.02501   -0.00323   -0.00236    0.00611
AFIX  43
H6    2   -0.169754   -0.310882    0.262569    11.00000   -1.20000
AFIX   0
C7    1   -0.384002   -0.496517    0.304501    11.00000    0.02447    0.03421 =
         0.03653   -0.00736   -0.01399    0.00278
AFIX  43
H7    2   -0.489299   -0.560600    0.284091    11.00000   -1.20000
AFIX   0
C8    1   -0.420459   -0.550836    0.346608    11.00000    0.01829    0.03049 =
         0.04796    0.00061   -0.00049   -0.00083
AFIX  43
H8    2   -0.551316   -0.650943    0.354991    11.00000   -1.20000
AFIX   0
C9    1   -0.269936   -0.462237    0.376925    11.00000    0.02166    0.02790 =
         0.02868    0.00191    0.00460   -0.00146
AFIX  43
H9    2   -0.297509   -0.504322    0.405875    11.00000   -1.20000
AFIX   0
O1    3    0.422978    0.016137    0.449199    11.00000    0.02478    0.04303 =
         0.02340    0.00345    0.00220   -0.01045
O2    3    0.258597   -0.236733    0.503757    11.00000    0.02686    0.05475 =
         0.01599    0.00185   -0.00193   -0.01267
AFIX  83
H10   2    0.366005   -0.160134    0.516885    11.00000   -1.50000
AFIX   0
F1    4    0.138106   -0.115793    0.309641    11.00000    0.02624    0.07233 =
         0.02448    0.00850    0.00550   -0.00472
HKLF    4

REM  datam in P2(1)/c
REM R1 =  0.0795 for     783 Fo > 4sig(Fo)  and  0.1214 for all    1675 data
REM    109 parameters refined using      0 restraints

END

WGHT      0.0695      0.0000

REM Highest difference peak  0.381,  deepest hole -0.360,  1-sigma level  0.100
Q1    1   0.0992  0.2264  0.3106  11.00000  0.05    0.38
Q2    1   0.4317  0.2628  0.4521  11.00000  0.05    0.35
Q3    1   0.0063 -0.5395  0.3100  11.00000  0.05    0.34
Q4    1   0.0748 -0.5830  0.4516  11.00000  0.05    0.29
Q5    1   0.2809  0.2356  0.3119  11.00000  0.05    0.29
Q6    1  -0.1678 -0.2415  0.2516  11.00000  0.05    0.28
Q7    1   0.5558 -0.3041  0.4473  11.00000  0.05    0.28
Q8    1  -0.0374  0.2224  0.3102  11.00000  0.05    0.26
Q9    1   0.3947 -0.5155  0.4506  11.00000  0.05    0.26
Q10   1   0.2866 -0.5641  0.5007  11.00000  0.05    0.25
Q11   1  -0.3988 -0.3401  0.3505  11.00000  0.05    0.25
Q12   1  -0.4475 -0.4385  0.4428  11.00000  0.05    0.24
Q13   1   0.0505  0.0171  0.4508  11.00000  0.05    0.24
Q14   1  -0.1212 -0.2810  0.3064  11.00000  0.05    0.24
Q15   1  -0.2414 -0.7435  0.3711  11.00000  0.05    0.24
Q16   1  -0.7405 -0.6395  0.3133  11.00000  0.05    0.24
Q17   1   0.2400  0.0474  0.5066  11.00000  0.05    0.24
Q18   1   0.2842  0.3612  0.4582  11.00000  0.05    0.23
Q19   1  -0.7046 -0.7581  0.3768  11.00000  0.05    0.23
Q20   1   0.2910 -0.4288  0.4611  11.00000  0.05    0.23
;
_shelx_res_checksum              18006
loop_
_space_group_symop_operation_xyz
'x, y, z'
'-x, y+1/2, -z+1/2'
'-x, -y, -z'
'x, -y-1/2, z-1/2'
loop_
_atom_site_label
_atom_site_type_symbol
_atom_site_fract_x
_atom_site_fract_y
_atom_site_fract_z
_atom_site_U_iso_or_equiv
_atom_site_adp_type
_atom_site_occupancy
_atom_site_site_symmetry_order
_atom_site_calc_flag
_atom_site_refinement_flags_posn
_atom_site_refinement_flags_adp
C1 C 0.2709(5) -0.1521(8) 0.46381(10) 0.0225(7) Uani 1 1 d . .
C2 C 0.0909(5) -0.2679(9) 0.43748(10) 0.0248(8) Uani 1 1 d . .
H2 H -0.0257 -0.3849 0.4499 0.030 Uiso 1 1 calc R U
C3 C 0.0909(5) -0.2088(8) 0.39590(10) 0.0229(7) Uani 1 1 d . .
H3 H 0.2105 -0.0895 0.3849 0.027 Uiso 1 1 calc R U
C4 C -0.0779(5) -0.3116(8) 0.36542(10) 0.0216(7) Uani 1 1 d . .
C5 C -0.0467(5) -0.2612(9) 0.32234(11) 0.0244(7) Uani 1 1 d . .
C6 C -0.1961(5) -0.3499(9) 0.29163(11) 0.0305(8) Uani 1 1 d . .
H6 H -0.1698 -0.3109 0.2626 0.037 Uiso 1 1 calc R U
C7 C -0.3840(6) -0.4965(9) 0.30450(12) 0.0319(9) Uani 1 1 d . .
H7 H -0.4893 -0.5606 0.2841 0.038 Uiso 1 1 calc R U
C8 C -0.4205(6) -0.5508(9) 0.34661(12) 0.0323(9) Uani 1 1 d . .
H8 H -0.5513 -0.6509 0.3550 0.039 Uiso 1 1 calc R U
C9 C -0.2699(5) -0.4622(8) 0.37693(11) 0.0260(8) Uani 1 1 d . .
H9 H -0.2975 -0.5043 0.4059 0.031 Uiso 1 1 calc R U
O1 O 0.4230(4) 0.0161(6) 0.44920(7) 0.0304(6) Uani 1 1 d . .
O2 O 0.2586(4) -0.2367(6) 0.50376(7) 0.0326(7) Uani 1 1 d . .
H2A H 0.3660 -0.1601 0.5169 0.049 Uiso 1 1 calc R U
F1 F 0.1381(3) -0.1158(6) 0.30964(6) 0.0410(6) Uani 1 1 d . .
loop_
_atom_site_aniso_label
_atom_site_aniso_U_11
_atom_site_aniso_U_22
_atom_site_aniso_U_33
_atom_site_aniso_U_23
_atom_site_aniso_U_13
_atom_site_aniso_U_12
C1 0.0188(16) 0.0305(18) 0.0182(17) -0.0002(13) -0.0006(13) -0.0037(14)
C2 0.0191(17) 0.0331(19) 0.0223(18) -0.0001(14) 0.0000(14) -0.0045(15)
C3 0.0209(17) 0.0269(18) 0.0211(18) 0.0010(13) 0.0055(14) -0.0032(14)
C4 0.0184(16) 0.0224(17) 0.0240(18) 0.0005(12) 0.0012(14) 0.0013(13)
C5 0.0141(16) 0.0347(19) 0.0244(18) 0.0011(14) 0.0007(13) 0.0002(14)
C6 0.027(2) 0.039(2) 0.025(2) -0.0032(15) -0.0024(15) 0.0061(16)
C7 0.0245(19) 0.034(2) 0.037(2) -0.0074(16) -0.0140(17) 0.0028(16)
C8 0.0183(17) 0.030(2) 0.048(2) 0.0006(16) -0.0005(16) -0.0008(15)
C9 0.0217(17) 0.0279(18) 0.0287(19) 0.0019(14) 0.0046(14) -0.0015(15)
O1 0.0248(13) 0.0430(15) 0.0234(13) 0.0034(10) 0.0022(10) -0.0104(12)
O2 0.0269(14) 0.0547(16) 0.0160(13) 0.0018(11) -0.0019(10) -0.0127(12)
F1 0.0262(12) 0.0723(16) 0.0245(12) 0.0085(10) 0.0055(10) -0.0047(10)
loop_
_atom_type_symbol
_atom_type_description
_atom_type_scat_dispersion_real
_atom_type_scat_dispersion_imag
_atom_type_scat_source
C C 0.0033 0.0016 'International Tables Vol C Tables 4.2.6.8 and 6.1.1.4'
H H 0.0000 0.0000 'International Tables Vol C Tables 4.2.6.8 and 6.1.1.4'
O O 0.0106 0.0060 'International Tables Vol C Tables 4.2.6.8 and 6.1.1.4'
F F 0.0171 0.0103 'International Tables Vol C Tables 4.2.6.8 and 6.1.1.4'
loop_
_geom_angle_atom_site_label_1
_geom_angle_atom_site_label_2
_geom_angle_atom_site_label_3
_geom_angle
O1 C1 O2 122.9(3)
O1 C1 C2 122.3(3)
O2 C1 C2 114.8(3)
C3 C2 C1 119.9(3)
C3 C2 H2 120.1
C1 C2 H2 120.1
C2 C3 C4 126.0(3)
C2 C3 H3 117.0
C4 C3 H3 117.0
C9 C4 C5 116.8(3)
C9 C4 C3 123.8(3)
C5 C4 C3 119.4(3)
F1 C5 C6 117.9(3)
F1 C5 C4 118.9(3)
C6 C5 C4 123.3(3)
C7 C6 C5 117.9(3)
C7 C6 H6 121.0
C5 C6 H6 121.0
C8 C7 C6 120.5(3)
C8 C7 H7 119.7
C6 C7 H7 119.7
C7 C8 C9 121.0(4)
C7 C8 H8 119.5
C9 C8 H8 119.5
C8 C9 C4 120.5(3)
C8 C9 H9 119.7
C4 C9 H9 119.7
C1 O2 H2A 109.5
loop_
_geom_bond_atom_site_label_1
_geom_bond_atom_site_label_2
_geom_bond_distance
C1 O1 1.246(4)
C1 O2 1.309(4)
C1 C2 1.464(5)
C2 C3 1.336(5)
C2 H2 0.9500
C3 C4 1.476(5)
C3 H3 0.9500
C4 C9 1.392(5)
C4 C5 1.396(5)
C5 F1 1.356(4)
C5 C6 1.383(5)
C6 C7 1.377(5)
C6 H6 0.9500
C7 C8 1.373(6)
C7 H7 0.9500
C8 C9 1.380(5)
C8 H8 0.9500
C9 H9 0.9500
O2 H2A 0.8400
loop_
_geom_hbond_atom_site_label_D
_geom_hbond_atom_site_label_H
_geom_hbond_atom_site_label_A
_geom_hbond_distance_DH
_geom_hbond_distance_HA
_geom_hbond_distance_DA
_geom_hbond_angle_DHA
_geom_hbond_site_symmetry_A
C2 H2 O2 0.95 2.54 3.460(6) 164.5 3_546
C6 H6 F1 0.95 2.57 3.388(7) 144.1 2_545
O2 H2A O1 0.84 1.78 2.616(5) 172.5 3_656
C2 H2 O2 0.95 2.54 3.460(6) 164.5 3_546
C6 H6 F1 0.95 2.57 3.388(7) 144.1 2_545
O2 H2A O1 0.84 1.78 2.616(5) 172.5 3_656
loop_
_geom_torsion_atom_site_label_1
_geom_torsion_atom_site_label_2
_geom_torsion_atom_site_label_3
_geom_torsion_atom_site_label_4
_geom_torsion
O1 C1 C2 C3 3.3(5)
O2 C1 C2 C3 -177.2(3)
C1 C2 C3 C4 179.6(3)
C2 C3 C4 C9 5.3(5)
C2 C3 C4 C5 -174.0(3)
C9 C4 C5 F1 -179.9(3)
C3 C4 C5 F1 -0.5(5)
C9 C4 C5 C6 0.6(5)
C3 C4 C5 C6 180.0(3)
F1 C5 C6 C7 -179.8(3)
C4 C5 C6 C7 -0.3(5)
C5 C6 C7 C8 0.2(5)
C6 C7 C8 C9 -0.4(5)
C7 C8 C9 C4 0.7(5)
C5 C4 C9 C8 -0.8(5)
C3 C4 C9 C8 179.9(3)
