#------------------------------------------------------------------------------
#$Date: 2019-11-17 11:50:22 +0200 (Sun, 17 Nov 2019) $
#$Revision: 229702 $
#$URL: file:///home/coder/svn-repositories/cod/cif/7/04/61/7046150.cif $
#------------------------------------------------------------------------------
#
# This file is available in the Crystallography Open Database (COD),
# http://www.crystallography.net/
#
# All data on this site have been placed in the public domain by the
# contributors.
#
data_7046150
loop_
_publ_author_name
'Sun, Ai-Huan'
'Wei, Qi'
'Fu, Ai-Ping'
'Han, Song-De'
'Li, Jin-Hua'
'Wang, Guo-Ming'
_publ_section_title
;
 Syntheses, structures and efficient visible light-driven photocatalytic
 properties of layered cuprous halides based on two types of building
 units.
;
_journal_issue                   20
_journal_name_full
'Dalton transactions (Cambridge, England : 2003)'
_journal_page_first              6965
_journal_page_last               6972
_journal_paper_doi               10.1039/c7dt04733a
_journal_volume                  47
_journal_year                    2018
_chemical_formula_moiety         'C9 H7 F O2'
_chemical_formula_sum            'C9 H7 F O2'
_chemical_formula_weight         166.15
_space_group_crystal_system      triclinic
_space_group_IT_number           2
_space_group_name_Hall           '-P 1'
_space_group_name_H-M_alt        'P -1'
_symmetry_space_group_name_Hall  '-P 1'
_symmetry_space_group_name_H-M   'P -1'
_atom_sites_solution_hydrogens   geom
_audit_creation_method           SHELXL-2014/7
_audit_update_record
;
2018-03-28 deposited with the CCDC.
2018-04-09 downloaded from the CCDC.
;
_cell_angle_alpha                84.74(4)
_cell_angle_beta                 84.44(4)
_cell_angle_gamma                86.65(5)
_cell_formula_units_Z            2
_cell_length_a                   3.807(8)
_cell_length_b                   6.296(13)
_cell_length_c                   15.98(3)
_cell_measurement_reflns_used    900
_cell_measurement_temperature    100(2)
_cell_measurement_theta_max      27.5
_cell_measurement_theta_min      3.3
_cell_volume                     379.1(13)
_computing_structure_refinement  'SHELXL-2014/7 (Sheldrick, 2014)'
_diffrn_ambient_temperature      100(2)
_diffrn_measured_fraction_theta_full 0.993
_diffrn_measured_fraction_theta_max 0.994
_diffrn_measurement_device_type  CCD
_diffrn_radiation_type           MoK\a
_diffrn_radiation_wavelength     0.71073
_diffrn_reflns_av_R_equivalents  0.0813
_diffrn_reflns_av_unetI/netI     0.0824
_diffrn_reflns_Laue_measured_fraction_full 0.993
_diffrn_reflns_Laue_measured_fraction_max 0.994
_diffrn_reflns_limit_h_max       4
_diffrn_reflns_limit_h_min       -4
_diffrn_reflns_limit_k_max       8
_diffrn_reflns_limit_k_min       -8
_diffrn_reflns_limit_l_max       20
_diffrn_reflns_limit_l_min       -20
_diffrn_reflns_number            3979
_diffrn_reflns_point_group_measured_fraction_full 0.993
_diffrn_reflns_point_group_measured_fraction_max 0.994
_diffrn_reflns_theta_full        25.242
_diffrn_reflns_theta_max         27.430
_diffrn_reflns_theta_min         2.571
_exptl_absorpt_coefficient_mu    0.118
_exptl_crystal_colour            colourless
_exptl_crystal_density_diffrn    1.456
_exptl_crystal_description       plate
_exptl_crystal_F_000             172.0
_exptl_crystal_size_max          0.7
_exptl_crystal_size_mid          0.5
_exptl_crystal_size_min          0.3
_refine_diff_density_max         0.804
_refine_diff_density_min         -0.271
_refine_diff_density_rms         0.073
_refine_ls_extinction_method     none
_refine_ls_goodness_of_fit_ref   1.029
_refine_ls_hydrogen_treatment    constr
_refine_ls_matrix_type           full
_refine_ls_number_parameters     120
_refine_ls_number_reflns         1710
_refine_ls_number_restraints     0
_refine_ls_restrained_S_all      1.029
_refine_ls_R_factor_all          0.0968
_refine_ls_R_factor_gt           0.0723
_refine_ls_shift/su_max          0.000
_refine_ls_shift/su_mean         0.000
_refine_ls_structure_factor_coef Fsqd
_refine_ls_weighting_details
'w=1/[\s^2^(Fo^2^)+(0.1326P)^2^] where P=(Fo^2^+2Fc^2^)/3'
_refine_ls_weighting_scheme      calc
_refine_ls_wR_factor_gt          0.1990
_refine_ls_wR_factor_ref         0.2264
_reflns_Friedel_coverage         0.000
_reflns_number_gt                1192
_reflns_number_total             1710
_reflns_threshold_expression     'I > 2\s(I)'
_cod_data_source_file            c7dt04733a2.cif
_cod_data_source_block           11
_cod_depositor_comments
'Adding full bibliography for 7046123--7046152.cif.'
_cod_original_cell_volume        379.1(14)
_cod_database_code               7046150
_shelx_shelxl_version_number     2014/7
_shelx_space_group_comment
;
The symmetry employed for this shelxl refinement is uniquely defined
by the following loop, which should always be used as a source of
symmetry information in preference to the above space-group names.
They are only intended as comments.
;
_shelx_res_file
;

    shelx.res created by SHELXL-2014/7

TITL datam in P-1
CELL  0.71073   3.8074   6.2961  15.9765   84.743   84.436   86.652
ZERR     9.00   0.0077   0.0132   0.0342    0.038    0.039    0.049
LATT   1
SFAC  C    H    O    F
UNIT  18 12 4 2
MERG   2
OMIT    -2.00  55.00
EQIV $1 -x, -y+1, -z
HTAB C2 O2_$1
EQIV $2 -x-1, -y, -z+1
HTAB C7 F2_$2
EQIV $3 -x+1, -y+2, -z
HTAB O2 O1_$3
OMIT     0   0   1
FMAP   2
PLAN   20
ACTA
HTAB    2.00000
BOND
BOND   $H
CONF
L.S.  50
TEMP  -173.00
WGHT    0.132600
FVAR       0.91440   0.58252
MOLE    1
C1    1    0.305401    0.764609    0.070279    11.00000    0.02494    0.02835 =
         0.02210   -0.00027   -0.00222   -0.00298
C2    1    0.156668    0.580283    0.122207    11.00000    0.02895    0.02528 =
         0.02752   -0.00120   -0.00378   -0.00300
AFIX  43
H2    2    0.062666    0.469984    0.095671    11.00000   -1.20000
AFIX   0
C3    1    0.152307    0.566268    0.206164    11.00000    0.02258    0.02733 =
         0.02548   -0.00253   -0.00304    0.00017
AFIX  43
H3    2    0.253734    0.678619    0.229883    11.00000   -1.20000
AFIX   0
C4    1    0.006029    0.394102    0.265741    11.00000    0.02264    0.02399 =
         0.02636    0.00122   -0.00253   -0.00015
C5    1   -0.016647    0.414435    0.352119    11.00000    0.03580    0.02949 =
         0.02610   -0.00149   -0.00503   -0.00425
PART    1
AFIX  43
H5    2    0.060642    0.539955    0.371938    21.00000   -1.20000
AFIX   0
PART    2
F1    4    0.112798    0.585619    0.382056   -21.00000    0.06484    0.03107 =
         0.02333   -0.00410   -0.00725   -0.00758
PART    0
C6    1   -0.149060    0.255777    0.409108    11.00000    0.04572    0.04243 =
         0.02289    0.00512   -0.00073   -0.00155
PART    1
AFIX  43
H6    2   -0.160944    0.273093    0.467779   -21.00000   -1.20000
AFIX   0
PART    2
F2    4   -0.188897    0.282502    0.489447    21.00000    0.09660    0.05961 =
         0.02541    0.00448   -0.00739   -0.02703
PART    0
C7    1   -0.265827    0.070620    0.382571    11.00000    0.03643    0.03305 =
         0.03838    0.01084    0.00216   -0.00155
AFIX  43
H7    2   -0.357102   -0.038400    0.422442    11.00000   -1.20000
AFIX   0
C8    1   -0.246910    0.047892    0.297379    11.00000    0.02893    0.02656 =
         0.04580    0.00189   -0.00398   -0.00184
AFIX  43
H8    2   -0.327424   -0.077892    0.278476    11.00000   -1.20000
AFIX   0
C9    1   -0.111268    0.206707    0.238202    11.00000    0.02754    0.03104 =
         0.02931   -0.00107   -0.00421   -0.00071
AFIX  43
H9    2   -0.098301    0.188225    0.179613    11.00000   -1.20000
AFIX   0
O1    3    0.443044    0.909953    0.102130    11.00000    0.04002    0.03244 =
         0.02632   -0.00123   -0.00665   -0.00926
O2    3    0.280648    0.764013   -0.010318    11.00000    0.04946    0.03568 =
         0.02131    0.00219   -0.00414   -0.01508
AFIX 147
H2A   2    0.392016    0.865052   -0.036283    11.00000   -1.50000
AFIX   0
HKLF    4

REM  datam in P-1
REM R1 =  0.0723 for    1192 Fo > 4sig(Fo)  and  0.0968 for all    1710 data
REM    120 parameters refined using      0 restraints

END

WGHT      0.1269      0.0000

REM Instructions for potential hydrogen bonds
HTAB C2 O2_$1
HTAB C7 F2_$2
HTAB O2 O1_$3

REM Highest difference peak  0.804,  deepest hole -0.271,  1-sigma level  0.073
Q1    1  -0.3737 -0.1199  0.2935  11.00000  0.05    0.80
Q2    1   0.4999  0.8038  0.0828  11.00000  0.05    0.25
Q3    1   0.5616  1.0660  0.1601  11.00000  0.05    0.23
Q4    1  -0.2058  0.3350  0.2567  11.00000  0.05    0.22
Q5    1  -0.3692  0.2073  0.3962  11.00000  0.05    0.22
Q6    1  -0.0194  0.1252  0.3955  11.00000  0.05    0.19
Q7    1   0.2593  0.7485  0.2447  11.00000  0.05    0.19
Q8    1   0.0504  0.4049  0.0173  11.00000  0.05    0.18
Q9    1   0.0562  0.7410 -0.0152  11.00000  0.05    0.18
Q10   1   0.5016  0.5320  0.3978  11.00000  0.05    0.17
Q11   1  -0.1684  0.4079  0.0544  11.00000  0.05    0.16
Q12   1   0.3289  1.0440  0.1026  11.00000  0.05    0.16
Q13   1   0.4340  0.6930  0.3406  11.00000  0.05    0.15
Q14   1   0.2970  0.7452  0.3294  11.00000  0.05    0.15
Q15   1  -0.6206  0.1073  0.3628  11.00000  0.05    0.15
Q16   1  -0.5596  0.2508  0.2371  11.00000  0.05    0.15
Q17   1  -0.4835  0.0841  0.2193  11.00000  0.05    0.15
Q18   1  -0.4259  0.4572  0.3007  11.00000  0.05    0.15
Q19   1   0.8770  0.8914  0.1070  11.00000  0.05    0.14
Q20   1  -0.0469  0.8006  0.3741  11.00000  0.05    0.14
;
_shelx_res_checksum              6460
loop_
_space_group_symop_operation_xyz
'x, y, z'
'-x, -y, -z'
loop_
_atom_site_label
_atom_site_type_symbol
_atom_site_fract_x
_atom_site_fract_y
_atom_site_fract_z
_atom_site_U_iso_or_equiv
_atom_site_adp_type
_atom_site_occupancy
_atom_site_site_symmetry_order
_atom_site_calc_flag
_atom_site_refinement_flags_posn
_atom_site_refinement_flags_adp
_atom_site_refinement_flags_occupancy
_atom_site_disorder_assembly
_atom_site_disorder_group
C1 C 0.3054(6) 0.7646(4) 0.07028(14) 0.0252(5) Uani 1 1 d . . . . .
C2 C 0.1567(6) 0.5803(4) 0.12221(14) 0.0272(6) Uani 1 1 d . . . . .
H2 H 0.0627 0.4700 0.0957 0.033 Uiso 1 1 calc R U . . .
C3 C 0.1523(6) 0.5663(4) 0.20616(14) 0.0251(5) Uani 1 1 d . . . . .
H3 H 0.2537 0.6786 0.2299 0.030 Uiso 1 1 calc R U . . .
C4 C 0.0060(5) 0.3941(3) 0.26574(14) 0.0246(5) Uani 1 1 d . . . . .
C5 C -0.0166(6) 0.4144(4) 0.35212(15) 0.0303(6) Uani 1 1 d . . . . .
H5 H 0.0606 0.5400 0.3719 0.036 Uiso 0.583(4) 1 calc R U P A 1
F1 F 0.1128(10) 0.5856(5) 0.3821(2) 0.0392(11) Uani 0.417(4) 1 d . . P A 2
C6 C -0.1491(7) 0.2558(4) 0.40911(15) 0.0377(7) Uani 1 1 d . . . . .
H6 H -0.1609 0.2731 0.4678 0.045 Uiso 0.417(4) 1 calc R U P A 1
F2 F -0.1889(9) 0.2825(5) 0.48945(17) 0.0600(11) Uani 0.583(4) 1 d . . P A 2
C7 C -0.2658(7) 0.0706(4) 0.38257(17) 0.0372(7) Uani 1 1 d . . . . .
H7 H -0.3571 -0.0384 0.4224 0.045 Uiso 1 1 calc R U . . .
C8 C -0.2469(6) 0.0479(4) 0.29738(17) 0.0340(6) Uani 1 1 d . . . . .
H8 H -0.3274 -0.0779 0.2785 0.041 Uiso 1 1 calc R U . . .
C9 C -0.1113(6) 0.2067(4) 0.23820(16) 0.0293(6) Uani 1 1 d . . . . .
H9 H -0.0983 0.1882 0.1796 0.035 Uiso 1 1 calc R U . . .
O1 O 0.4430(4) 0.9100(3) 0.10213(10) 0.0325(5) Uani 1 1 d . . . . .
O2 O 0.2806(5) 0.7640(3) -0.01032(10) 0.0352(5) Uani 1 1 d . . . . .
H2A H 0.3920 0.8651 -0.0363 0.053 Uiso 1 1 calc R U . . .
loop_
_atom_site_aniso_label
_atom_site_aniso_U_11
_atom_site_aniso_U_22
_atom_site_aniso_U_33
_atom_site_aniso_U_23
_atom_site_aniso_U_13
_atom_site_aniso_U_12
C1 0.0249(11) 0.0284(12) 0.0221(12) -0.0003(9) -0.0022(8) -0.0030(9)
C2 0.0290(11) 0.0253(12) 0.0275(13) -0.0012(9) -0.0038(9) -0.0030(9)
C3 0.0226(10) 0.0273(11) 0.0255(13) -0.0025(9) -0.0030(8) 0.0002(9)
C4 0.0226(10) 0.0240(11) 0.0264(13) 0.0012(9) -0.0025(8) -0.0001(9)
C5 0.0358(13) 0.0295(12) 0.0261(13) -0.0015(9) -0.0050(9) -0.0042(10)
F1 0.065(3) 0.0311(18) 0.0233(19) -0.0041(14) -0.0072(16) -0.0076(17)
C6 0.0457(15) 0.0424(14) 0.0229(13) 0.0051(10) -0.0007(10) -0.0016(12)
F2 0.097(3) 0.060(2) 0.0254(17) 0.0045(13) -0.0074(15) -0.0270(18)
C7 0.0364(13) 0.0331(13) 0.0384(16) 0.0108(10) 0.0022(11) -0.0016(10)
C8 0.0289(12) 0.0266(12) 0.0458(16) 0.0019(10) -0.0040(10) -0.0018(10)
C9 0.0275(11) 0.0310(12) 0.0293(13) -0.0011(9) -0.0042(9) -0.0007(9)
O1 0.0400(10) 0.0324(9) 0.0263(10) -0.0012(7) -0.0066(7) -0.0093(8)
O2 0.0495(11) 0.0357(10) 0.0213(10) 0.0022(7) -0.0041(7) -0.0151(8)
loop_
_atom_type_symbol
_atom_type_description
_atom_type_scat_dispersion_real
_atom_type_scat_dispersion_imag
_atom_type_scat_source
C C 0.0033 0.0016 'International Tables Vol C Tables 4.2.6.8 and 6.1.1.4'
H H 0.0000 0.0000 'International Tables Vol C Tables 4.2.6.8 and 6.1.1.4'
O O 0.0106 0.0060 'International Tables Vol C Tables 4.2.6.8 and 6.1.1.4'
F F 0.0171 0.0103 'International Tables Vol C Tables 4.2.6.8 and 6.1.1.4'
loop_
_geom_angle_atom_site_label_1
_geom_angle_atom_site_label_2
_geom_angle_atom_site_label_3
_geom_angle
O1 C1 O2 123.2(2)
O1 C1 C2 121.9(2)
O2 C1 C2 114.9(2)
C3 C2 C1 120.8(2)
C3 C2 H2 119.6
C1 C2 H2 119.6
C2 C3 C4 126.5(2)
C2 C3 H3 116.7
C4 C3 H3 116.7
C5 C4 C9 118.3(2)
C5 C4 C3 119.7(2)
C9 C4 C3 122.0(2)
F1 C5 C6 118.4(3)
F1 C5 C4 120.5(2)
C6 C5 C4 121.0(3)
C6 C5 H5 119.5
C4 C5 H5 119.5
F2 C6 C5 120.3(3)
F2 C6 C7 118.4(2)
C5 C6 C7 121.2(3)
C5 C6 H6 119.4
C7 C6 H6 119.4
C8 C7 C6 118.7(2)
C8 C7 H7 120.6
C6 C7 H7 120.6
C7 C8 C9 121.1(3)
C7 C8 H8 119.4
C9 C8 H8 119.4
C8 C9 C4 119.7(3)
C8 C9 H9 120.1
C4 C9 H9 120.1
C1 O2 H2A 109.5
loop_
_geom_bond_atom_site_label_1
_geom_bond_atom_site_label_2
_geom_bond_distance
C1 O1 1.251(3)
C1 O2 1.301(4)
C1 C2 1.471(4)
C2 C3 1.335(4)
C2 H2 0.9500
C3 C4 1.473(4)
C3 H3 0.9500
C4 C5 1.391(4)
C4 C9 1.407(4)
C5 F1 1.355(4)
C5 C6 1.373(4)
C5 H5 0.9500
C6 F2 1.303(4)
C6 C7 1.387(4)
C6 H6 0.9500
C7 C8 1.376(5)
C7 H7 0.9500
C8 C9 1.397(4)
C8 H8 0.9500
C9 H9 0.9500
O2 H2A 0.8400
loop_
_geom_hbond_atom_site_label_D
_geom_hbond_atom_site_label_H
_geom_hbond_atom_site_label_A
_geom_hbond_distance_DH
_geom_hbond_distance_HA
_geom_hbond_distance_DA
_geom_hbond_angle_DHA
_geom_hbond_site_symmetry_A
C2 H2 O2 0.95 2.58 3.518(5) 167.6 2_565
C7 H7 F2 0.95 2.60 3.510(6) 159.8 2_456
O2 H2A O1 0.84 1.79 2.622(4) 169.2 2_675
loop_
_geom_torsion_atom_site_label_1
_geom_torsion_atom_site_label_2
_geom_torsion_atom_site_label_3
_geom_torsion_atom_site_label_4
_geom_torsion
O1 C1 C2 C3 2.5(3)
O2 C1 C2 C3 -177.2(2)
C1 C2 C3 C4 178.67(19)
C2 C3 C4 C5 -172.4(2)
C2 C3 C4 C9 8.0(3)
C9 C4 C5 F1 175.9(3)
C3 C4 C5 F1 -3.7(4)
C9 C4 C5 C6 0.2(3)
C3 C4 C5 C6 -179.5(2)
F1 C5 C6 F2 8.4(4)
C4 C5 C6 F2 -175.8(3)
F1 C5 C6 C7 -176.1(3)
C4 C5 C6 C7 -0.3(4)
F2 C6 C7 C8 175.6(3)
C5 C6 C7 C8 0.0(4)
C6 C7 C8 C9 0.4(4)
C7 C8 C9 C4 -0.5(3)
C5 C4 C9 C8 0.2(3)
C3 C4 C9 C8 179.8(2)
