#------------------------------------------------------------------------------
#$Date: 2019-11-17 11:50:22 +0200 (Sun, 17 Nov 2019) $
#$Revision: 229702 $
#$URL: file:///home/coder/svn-repositories/cod/cif/7/04/61/7046145.cif $
#------------------------------------------------------------------------------
#
# This file is available in the Crystallography Open Database (COD),
# http://www.crystallography.net/
#
# All data on this site have been placed in the public domain by the
# contributors.
#
data_7046145
loop_
_publ_author_name
'Sun, Ai-Huan'
'Wei, Qi'
'Fu, Ai-Ping'
'Han, Song-De'
'Li, Jin-Hua'
'Wang, Guo-Ming'
_publ_section_title
;
 Syntheses, structures and efficient visible light-driven photocatalytic
 properties of layered cuprous halides based on two types of building
 units.
;
_journal_issue                   20
_journal_name_full
'Dalton transactions (Cambridge, England : 2003)'
_journal_page_first              6965
_journal_page_last               6972
_journal_paper_doi               10.1039/c7dt04733a
_journal_volume                  47
_journal_year                    2018
_chemical_formula_moiety         'C9 H6.48 F1.52 O2'
_chemical_formula_sum            'C9 H6.48 F1.52 O2'
_chemical_formula_weight         175.52
_space_group_crystal_system      monoclinic
_space_group_IT_number           14
_space_group_name_Hall           '-P 2ybc'
_space_group_name_H-M_alt        'P 1 21/c 1'
_symmetry_space_group_name_Hall  '-P 2ybc'
_symmetry_space_group_name_H-M   'P 1 21/c 1'
_atom_sites_solution_hydrogens   geom
_audit_creation_method           SHELXL-2014/7
_audit_update_record
;
2018-03-28 deposited with the CCDC.
2018-04-09 downloaded from the CCDC.
;
_cell_angle_alpha                90
_cell_angle_beta                 90.672(13)
_cell_angle_gamma                90
_cell_formula_units_Z            4
_cell_length_a                   6.4771(16)
_cell_length_b                   3.7587(7)
_cell_length_c                   31.566(7)
_cell_measurement_reflns_used    812
_cell_measurement_temperature    293(2)
_cell_measurement_theta_max      27.5
_cell_measurement_theta_min      3.2
_cell_volume                     768.4(3)
_computing_structure_refinement  'SHELXL-2014/7 (Sheldrick, 2014)'
_diffrn_ambient_temperature      293(2)
_diffrn_measured_fraction_theta_full 0.998
_diffrn_measured_fraction_theta_max 0.998
_diffrn_measurement_device_type  CCD
_diffrn_radiation_type           MoK\a
_diffrn_radiation_wavelength     0.71073
_diffrn_reflns_av_R_equivalents  0.1357
_diffrn_reflns_av_unetI/netI     0.1085
_diffrn_reflns_Laue_measured_fraction_full 0.998
_diffrn_reflns_Laue_measured_fraction_max 0.998
_diffrn_reflns_limit_h_max       8
_diffrn_reflns_limit_h_min       -8
_diffrn_reflns_limit_k_max       4
_diffrn_reflns_limit_k_min       -4
_diffrn_reflns_limit_l_max       40
_diffrn_reflns_limit_l_min       -41
_diffrn_reflns_number            6146
_diffrn_reflns_point_group_measured_fraction_full 0.998
_diffrn_reflns_point_group_measured_fraction_max 0.998
_diffrn_reflns_theta_full        25.242
_diffrn_reflns_theta_max         27.499
_diffrn_reflns_theta_min         1.290
_exptl_absorpt_coefficient_mu    0.131
_exptl_crystal_colour            colourless
_exptl_crystal_density_diffrn    1.517
_exptl_crystal_description       plate
_exptl_crystal_F_000             360.7
_exptl_crystal_size_max          0.7
_exptl_crystal_size_mid          0.5
_exptl_crystal_size_min          0.2
_refine_diff_density_max         0.240
_refine_diff_density_min         -0.324
_refine_diff_density_rms         0.079
_refine_ls_extinction_method     none
_refine_ls_goodness_of_fit_ref   0.972
_refine_ls_hydrogen_treatment    constr
_refine_ls_matrix_type           full
_refine_ls_number_parameters     140
_refine_ls_number_reflns         1759
_refine_ls_number_restraints     2
_refine_ls_restrained_S_all      0.980
_refine_ls_R_factor_all          0.0953
_refine_ls_R_factor_gt           0.0800
_refine_ls_shift/su_max          0.000
_refine_ls_shift/su_mean         0.000
_refine_ls_structure_factor_coef Fsqd
_refine_ls_weighting_details
'w=1/[\s^2^(Fo^2^)+(0.1294P)^2^+0.4415P] where P=(Fo^2^+2Fc^2^)/3'
_refine_ls_weighting_scheme      calc
_refine_ls_wR_factor_gt          0.2204
_refine_ls_wR_factor_ref         0.2391
_reflns_Friedel_coverage         0.000
_reflns_number_gt                1377
_reflns_number_total             1759
_reflns_threshold_expression     'I > 2\s(I)'
_cod_data_source_file            c7dt04733a2.cif
_cod_data_source_block           25_CCDC1
_cod_depositor_comments
'Adding full bibliography for 7046123--7046152.cif.'
_cod_database_code               7046145
_shelx_shelxl_version_number     2014/7
_shelx_space_group_comment
;
The symmetry employed for this shelxl refinement is uniquely defined
by the following loop, which should always be used as a source of
symmetry information in preference to the above space-group names.
They are only intended as comments.
;
_shelx_res_file
;

    shelx.res created by SHELXL-2014/7


TITL shelx in P2(1)/c
CELL  0.71073   6.4771   3.7587  31.5657   90.000   90.672   90.000
ZERR    17.00   0.0016   0.0007   0.0072    0.000    0.013    0.000
LATT   1
SYMM  - X, 1/2 + Y, 1/2 - Z
SFAC  C    H    O    F
UNIT  17 17 17 17
MERG   2
OMIT     -2.00 55.00
ACTA
HTAB
BOND $H
CONF
DFIX     1.100   0.020 C8 F2B
FLAT     0.100 C9 C7 C8 F2B
FMAP   2
PLAN   20
BOND
L.S.  50
WGHT    0.129400    0.441500
FVAR       0.60447   0.63971   0.43432   0.76503
MOLE    1
C1    1    0.271805    0.354389    0.464754    11.00000    0.03851    0.02870 =
         0.03035   -0.00046    0.01113   -0.00248
C2    1    0.094489    0.242273    0.438882    11.00000    0.03741    0.02830 =
         0.03383   -0.00042    0.01154   -0.00310
AFIX  43
H2    2   -0.015055    0.124701    0.451536    11.00000   -1.20000
AFIX   0
C3    1    0.088365    0.307051    0.397294    11.00000    0.03005    0.02652 =
         0.03329    0.00021    0.00793   -0.00170
AFIX  43
H3    2    0.201429    0.425462    0.386117    11.00000   -1.20000
AFIX   0
C4    1   -0.076705    0.212075    0.367439    11.00000    0.03180    0.02317 =
         0.04038   -0.00132    0.00677    0.00224
C5    1   -0.047057    0.272233    0.324272    11.00000    0.03623    0.03395 =
         0.03784   -0.00068    0.00244    0.00447
PART    1
AFIX  43
H5    2    0.076756    0.368169    0.314970    21.00000   -1.20000
AFIX   0
PART    2
F1    4    0.125021    0.399653    0.312357   -21.00000    0.06141    0.09046 =
         0.04198    0.00798    0.01211   -0.00184
PART    0
C6    1   -0.201783    0.189176    0.295345    11.00000    0.05935    0.04198 =
         0.04289   -0.00652   -0.01276    0.01387
PART    1
AFIX  43
H6    2   -0.181920    0.232370    0.266670    31.00000   -1.20000
AFIX   0
PART    2
F2A   4   -0.187373    0.253035    0.254809   -31.00000    0.06277    0.08898 =
         0.04148   -0.00083   -0.00004    0.00547
PART    0
C7    1   -0.385505    0.042665    0.308674    11.00000    0.04346    0.03345 =
         0.08972   -0.01597   -0.02103    0.00465
PART    1
AFIX  43
H7    2   -0.488252   -0.014813    0.289017    21.00000   -1.20000
AFIX   0
PART    2
F3    4   -0.533545   -0.046072    0.285614   -21.00000    0.07152    0.08668 =
         0.08804   -0.01493   -0.03388    0.00518
PART    0
C8    1   -0.416031   -0.018038    0.351194    11.00000    0.03396    0.03158 =
         0.09125   -0.00615   -0.00854    0.00157
PART    1
AFIX  43
H8    2   -0.540176   -0.114825    0.360189    41.00000   -1.20000
AFIX   0
PART    2
F2B   4   -0.585789   -0.150355    0.349335   -41.00000    0.02913    0.03750 =
         0.04911    0.00728    0.00835   -0.01016
PART    0
C9    1   -0.264841    0.063169    0.380285    11.00000    0.03334    0.02843 =
         0.05664    0.00069    0.00565    0.00131
AFIX  43
H9    2   -0.286912    0.019280    0.408872    11.00000   -1.20000
AFIX   0
O2    3    0.265004    0.264217    0.504709    11.00000    0.04576    0.04702 =
         0.02773    0.00258    0.00722   -0.01226
AFIX 147
H2A   2    0.359212    0.362682    0.517731    11.00000   -1.50000
AFIX   0
O1    3    0.420094    0.524029    0.449572    11.00000    0.04131    0.04201 =
         0.03096    0.00286    0.00863   -0.01108
HKLF    4

REM  shelx in P2(1)/c
REM R1 =  0.0800 for    1377 Fo > 4sig(Fo)  and  0.0953 for all    1759 data
REM    140 parameters refined using      2 restraints

END

WGHT      0.0814      0.3132

REM Instructions for potential hydrogen bonds
EQIV $1 -x, -y, -z+1
HTAB C2 O2_$1
EQIV $2 -x+1, -y+1, -z+1
HTAB O2 O1_$2

REM Highest difference peak  0.240,  deepest hole -0.324,  1-sigma level  0.079
Q1    1   0.4247  0.3296  0.4513  11.00000  0.05    0.24
Q2    1   0.0681  0.4127  0.4225  11.00000  0.05    0.21
Q3    1  -0.3194  0.4825  0.3397  11.00000  0.05    0.21
Q4    1   0.4115  0.7804  0.4702  11.00000  0.05    0.21
Q5    1  -0.1716 -0.1658  0.2810  11.00000  0.05    0.21
Q6    1  -0.4976 -0.2779  0.2570  11.00000  0.05    0.20
Q7    1   0.2873 -0.0075  0.4917  11.00000  0.05    0.20
Q8    1  -0.0330 -0.1599  0.3109  11.00000  0.05    0.20
Q9    1  -0.2790  0.0110  0.2959  11.00000  0.05    0.19
Q10   1   0.3398  0.2841  0.3374  11.00000  0.05    0.19
Q11   1   0.2318  0.7716  0.4368  11.00000  0.05    0.19
Q12   1  -0.3917 -0.4243  0.2899  11.00000  0.05    0.18
Q13   1   0.2123  0.1903  0.2674  11.00000  0.05    0.18
Q14   1   0.0569 -0.0072  0.4605  11.00000  0.05    0.18
Q15   1  -0.3650  0.2180  0.3133  11.00000  0.05    0.18
Q16   1   0.0288  0.7542  0.3493  11.00000  0.05    0.18
Q17   1   0.3194 -0.0598  0.5212  11.00000  0.05    0.17
Q18   1   0.4671  0.3062  0.5396  11.00000  0.05    0.17
Q19   1   0.1218  0.7471  0.4177  11.00000  0.05    0.17
Q20   1   0.0350  0.3187  0.2284  11.00000  0.05    0.17
;
_shelx_res_checksum              70862
loop_
_space_group_symop_operation_xyz
'x, y, z'
'-x, y+1/2, -z+1/2'
'-x, -y, -z'
'x, -y-1/2, z-1/2'
loop_
_atom_site_label
_atom_site_type_symbol
_atom_site_fract_x
_atom_site_fract_y
_atom_site_fract_z
_atom_site_U_iso_or_equiv
_atom_site_adp_type
_atom_site_occupancy
_atom_site_site_symmetry_order
_atom_site_calc_flag
_atom_site_refinement_flags_posn
_atom_site_refinement_flags_adp
_atom_site_refinement_flags_occupancy
_atom_site_disorder_assembly
_atom_site_disorder_group
C1 C 0.2718(4) 0.3544(6) 0.46475(8) 0.0324(6) Uani 1 1 d . . . . .
C2 C 0.0945(4) 0.2423(6) 0.43888(8) 0.0331(6) Uani 1 1 d . . . . .
H2 H -0.0151 0.1247 0.4515 0.040 Uiso 1 1 calc R U . . .
C3 C 0.0884(4) 0.3071(6) 0.39729(8) 0.0299(6) Uani 1 1 d . . . . .
H3 H 0.2014 0.4255 0.3861 0.036 Uiso 1 1 calc R U . . .
C4 C -0.0767(4) 0.2121(6) 0.36744(8) 0.0317(6) Uani 1 1 d . . . . .
C5 C -0.0471(4) 0.2722(7) 0.32427(9) 0.0360(6) Uani 1 1 d . . . . .
H5 H 0.0768 0.3682 0.3150 0.043 Uiso 0.640(5) 1 calc R U P A 1
F1 F 0.1250(9) 0.3997(17) 0.31236(17) 0.0645(18) Uani 0.360(5) 1 d . . P A 2
C6 C -0.2018(5) 0.1892(8) 0.29534(10) 0.0482(8) Uani 1 1 d . . . . .
H6 H -0.1819 0.2324 0.2667 0.058 Uiso 0.434(6) 1 calc R U P B 1
F2A F -0.1874(6) 0.2530(10) 0.25481(11) 0.0644(13) Uani 0.566(6) 1 d . . P B 2
C7 C -0.3855(5) 0.0427(7) 0.30867(13) 0.0557(10) Uani 1 1 d . . . . .
H7 H -0.4883 -0.0148 0.2890 0.067 Uiso 0.640(5) 1 calc R U P A 1
F3 F -0.5335(10) -0.0461(18) 0.2856(2) 0.082(2) Uani 0.360(5) 1 d . . P A 2
C8 C -0.4160(4) -0.0180(7) 0.35119(13) 0.0523(9) Uani 1 1 d D . . . .
H8 H -0.5402 -0.1148 0.3602 0.063 Uiso 0.765(6) 1 calc R U P C 1
F2B F -0.5858(9) -0.1504(16) 0.3493(2) 0.039(2) Uani 0.235(6) 1 d D . P C 2
C9 C -0.2648(4) 0.0632(6) 0.38029(10) 0.0394(6) Uani 1 1 d . . . . .
H9 H -0.2869 0.0193 0.4089 0.047 Uiso 1 1 calc R U . . .
O2 O 0.2650(3) 0.2642(5) 0.50471(6) 0.0401(5) Uani 1 1 d . . . . .
H2A H 0.3592 0.3627 0.5177 0.060 Uiso 1 1 calc R U . . .
O1 O 0.4201(3) 0.5240(5) 0.44957(5) 0.0380(5) Uani 1 1 d . . . . .
loop_
_atom_site_aniso_label
_atom_site_aniso_U_11
_atom_site_aniso_U_22
_atom_site_aniso_U_33
_atom_site_aniso_U_23
_atom_site_aniso_U_13
_atom_site_aniso_U_12
C1 0.0385(13) 0.0287(11) 0.0304(12) -0.0005(9) 0.0111(10) -0.0025(9)
C2 0.0374(13) 0.0283(11) 0.0338(13) -0.0004(9) 0.0115(10) -0.0031(9)
C3 0.0301(11) 0.0265(11) 0.0333(13) 0.0002(9) 0.0079(9) -0.0017(8)
C4 0.0318(12) 0.0232(10) 0.0404(14) -0.0013(9) 0.0068(10) 0.0022(8)
C5 0.0362(13) 0.0340(12) 0.0378(14) -0.0007(10) 0.0024(10) 0.0045(10)
F1 0.061(3) 0.090(4) 0.042(3) 0.008(3) 0.012(2) -0.002(3)
C6 0.0594(18) 0.0420(14) 0.0429(16) -0.0065(12) -0.0128(13) 0.0139(13)
F2A 0.063(2) 0.089(3) 0.041(2) -0.0008(17) 0.0000(15) 0.0055(18)
C7 0.0435(16) 0.0335(14) 0.090(3) -0.0160(15) -0.0210(16) 0.0047(12)
F3 0.072(4) 0.087(4) 0.088(5) -0.015(4) -0.034(3) 0.005(3)
C8 0.0340(14) 0.0316(13) 0.091(3) -0.0062(14) -0.0085(15) 0.0016(11)
F2B 0.029(3) 0.038(3) 0.049(4) 0.007(3) 0.008(3) -0.010(2)
C9 0.0333(12) 0.0284(12) 0.0566(16) 0.0007(11) 0.0056(11) 0.0013(10)
O2 0.0458(11) 0.0470(11) 0.0277(9) 0.0026(8) 0.0072(7) -0.0123(8)
O1 0.0413(10) 0.0420(10) 0.0310(9) 0.0029(7) 0.0086(7) -0.0111(8)
loop_
_atom_type_symbol
_atom_type_description
_atom_type_scat_dispersion_real
_atom_type_scat_dispersion_imag
_atom_type_scat_source
C C 0.0033 0.0016 'International Tables Vol C Tables 4.2.6.8 and 6.1.1.4'
H H 0.0000 0.0000 'International Tables Vol C Tables 4.2.6.8 and 6.1.1.4'
O O 0.0106 0.0060 'International Tables Vol C Tables 4.2.6.8 and 6.1.1.4'
F F 0.0171 0.0103 'International Tables Vol C Tables 4.2.6.8 and 6.1.1.4'
loop_
_geom_angle_atom_site_label_1
_geom_angle_atom_site_label_2
_geom_angle_atom_site_label_3
_geom_angle
O1 C1 O2 122.4(2)
O1 C1 C2 122.2(2)
O2 C1 C2 115.4(2)
C3 C2 C1 120.7(2)
C3 C2 H2 119.7
C1 C2 H2 119.7
C2 C3 C4 127.1(2)
C2 C3 H3 116.5
C4 C3 H3 116.5
C5 C4 C9 118.4(2)
C5 C4 C3 118.8(2)
C9 C4 C3 122.8(2)
F1 C5 C6 121.3(4)
F1 C5 C4 118.7(3)
C6 C5 C4 120.0(3)
C6 C5 H5 120.0
C4 C5 H5 120.0
F2A C6 C7 116.3(3)
F2A C6 C5 123.1(3)
C7 C6 C5 120.6(3)
C7 C6 H6 119.7
C5 C6 H6 119.7
F3 C7 C8 114.1(5)
F3 C7 C6 126.2(6)
C8 C7 C6 119.8(3)
C8 C7 H7 120.1
C6 C7 H7 120.1
F2B C8 C9 140.2(5)
F2B C8 C7 99.3(4)
C9 C8 C7 120.4(3)
C9 C8 H8 119.8
C7 C8 H8 119.8
C8 C9 C4 120.7(3)
C8 C9 H9 119.6
C4 C9 H9 119.6
C1 O2 H2A 109.5
loop_
_geom_bond_atom_site_label_1
_geom_bond_atom_site_label_2
_geom_bond_distance
C1 O1 1.253(3)
C1 O2 1.307(3)
C1 C2 1.463(4)
C2 C3 1.335(4)
C2 H2 0.9300
C3 C4 1.461(3)
C3 H3 0.9300
C4 C5 1.397(4)
C4 C9 1.405(3)
C5 F1 1.274(6)
C5 C6 1.384(4)
C5 H5 0.9300
C6 F2A 1.306(5)
C6 C7 1.381(5)
C6 H6 0.9300
C7 F3 1.243(6)
C7 C8 1.378(5)
C7 H7 0.9300
C8 F2B 1.208(6)
C8 C9 1.369(4)
C8 H8 0.9300
C9 H9 0.9300
O2 H2A 0.8200
loop_
_geom_torsion_atom_site_label_1
_geom_torsion_atom_site_label_2
_geom_torsion_atom_site_label_3
_geom_torsion_atom_site_label_4
_geom_torsion
O1 C1 C2 C3 2.5(4)
O2 C1 C2 C3 -177.3(2)
C1 C2 C3 C4 179.9(2)
C2 C3 C4 C5 -174.0(2)
C2 C3 C4 C9 6.2(4)
C9 C4 C5 F1 -178.4(4)
C3 C4 C5 F1 1.7(5)
C9 C4 C5 C6 0.7(4)
C3 C4 C5 C6 -179.2(2)
F1 C5 C6 F2A -4.0(6)
C4 C5 C6 F2A 176.9(3)
F1 C5 C6 C7 178.3(4)
C4 C5 C6 C7 -0.8(4)
F2A C6 C7 F3 3.1(6)
C5 C6 C7 F3 -179.1(5)
F2A C6 C7 C8 -177.2(3)
C5 C6 C7 C8 0.7(4)
F3 C7 C8 F2B 1.4(6)
C6 C7 C8 F2B -178.4(4)
F3 C7 C8 C9 179.3(4)
C6 C7 C8 C9 -0.5(4)
F2B C8 C9 C4 177.2(5)
C7 C8 C9 C4 0.5(4)
C5 C4 C9 C8 -0.6(4)
C3 C4 C9 C8 179.3(2)
