#------------------------------------------------------------------------------
#$Date: 2019-11-17 11:50:22 +0200 (Sun, 17 Nov 2019) $
#$Revision: 229702 $
#$URL: file:///home/coder/svn-repositories/cod/cif/7/04/61/7046146.cif $
#------------------------------------------------------------------------------
#
# This file is available in the Crystallography Open Database (COD),
# http://www.crystallography.net/
#
# All data on this site have been placed in the public domain by the
# contributors.
#
data_7046146
loop_
_publ_author_name
'Sun, Ai-Huan'
'Wei, Qi'
'Fu, Ai-Ping'
'Han, Song-De'
'Li, Jin-Hua'
'Wang, Guo-Ming'
_publ_section_title
;
 Syntheses, structures and efficient visible light-driven photocatalytic
 properties of layered cuprous halides based on two types of building
 units.
;
_journal_issue                   20
_journal_name_full
'Dalton transactions (Cambridge, England : 2003)'
_journal_page_first              6965
_journal_page_last               6972
_journal_paper_doi               10.1039/c7dt04733a
_journal_volume                  47
_journal_year                    2018
_chemical_formula_moiety         'C9 H6.50 F1.50 O2'
_chemical_formula_sum            'C9 H6.5 F1.5 O2'
_chemical_formula_weight         175.09
_space_group_crystal_system      triclinic
_space_group_IT_number           2
_space_group_name_Hall           '-P 1'
_space_group_name_H-M_alt        'P -1'
_symmetry_space_group_name_Hall  '-P 1'
_symmetry_space_group_name_H-M   'P -1'
_atom_sites_solution_hydrogens   geom
_audit_creation_method           SHELXL-2014/7
_audit_update_record
;
2018-03-28 deposited with the CCDC.
2018-04-09 downloaded from the CCDC.
;
_cell_angle_alpha                86.25(2)
_cell_angle_beta                 85.69(4)
_cell_angle_gamma                87.28(3)
_cell_formula_units_Z            2
_cell_length_a                   3.783(6)
_cell_length_b                   6.316(10)
_cell_length_c                   16.16(3)
_cell_measurement_reflns_used    812
_cell_measurement_temperature    293(2)
_cell_measurement_theta_max      27.5
_cell_measurement_theta_min      3.2
_cell_volume                     383.9(11)
_computing_structure_refinement  'SHELXL-2014/7 (Sheldrick, 2014)'
_diffrn_ambient_temperature      293(2)
_diffrn_measured_fraction_theta_full 0.996
_diffrn_measured_fraction_theta_max 0.994
_diffrn_measurement_device_type  CCD
_diffrn_radiation_type           MoK\a
_diffrn_radiation_wavelength     0.71073
_diffrn_reflns_av_R_equivalents  0.0832
_diffrn_reflns_av_unetI/netI     0.0786
_diffrn_reflns_Laue_measured_fraction_full 0.996
_diffrn_reflns_Laue_measured_fraction_max 0.994
_diffrn_reflns_limit_h_max       4
_diffrn_reflns_limit_h_min       -4
_diffrn_reflns_limit_k_max       8
_diffrn_reflns_limit_k_min       -8
_diffrn_reflns_limit_l_max       20
_diffrn_reflns_limit_l_min       -20
_diffrn_reflns_number            4059
_diffrn_reflns_point_group_measured_fraction_full 0.996
_diffrn_reflns_point_group_measured_fraction_max 0.994
_diffrn_reflns_theta_full        25.242
_diffrn_reflns_theta_max         27.497
_diffrn_reflns_theta_min         2.533
_exptl_absorpt_coefficient_mu    0.130
_exptl_crystal_colour            colourless
_exptl_crystal_density_diffrn    1.515
_exptl_crystal_description       plate
_exptl_crystal_F_000             180.0
_exptl_crystal_size_max          0.7
_exptl_crystal_size_mid          0.5
_exptl_crystal_size_min          0.2
_refine_diff_density_max         0.379
_refine_diff_density_min         -0.243
_refine_diff_density_rms         0.057
_refine_ls_extinction_method     none
_refine_ls_goodness_of_fit_ref   1.036
_refine_ls_hydrogen_treatment    constr
_refine_ls_matrix_type           full
_refine_ls_number_parameters     129
_refine_ls_number_reflns         1739
_refine_ls_number_restraints     0
_refine_ls_restrained_S_all      1.036
_refine_ls_R_factor_all          0.0898
_refine_ls_R_factor_gt           0.0620
_refine_ls_shift/su_max          0.000
_refine_ls_shift/su_mean         0.000
_refine_ls_structure_factor_coef Fsqd
_refine_ls_weighting_details
'w=1/[\s^2^(Fo^2^)+(0.0689P)^2^+0.0877P] where P=(Fo^2^+2Fc^2^)/3'
_refine_ls_weighting_scheme      calc
_refine_ls_wR_factor_gt          0.1486
_refine_ls_wR_factor_ref         0.1702
_reflns_Friedel_coverage         0.000
_reflns_number_gt                1207
_reflns_number_total             1739
_reflns_threshold_expression     'I > 2\s(I)'
_cod_data_source_file            c7dt04733a2.cif
_cod_data_source_block           24
_cod_depositor_comments
'Adding full bibliography for 7046123--7046152.cif.'
_cod_original_cell_volume        383.8(10)
_cod_original_formula_sum        'C9 H6.50 F1.50 O2'
_cod_database_code               7046146
_shelx_shelxl_version_number     2014/7
_shelx_space_group_comment
;
The symmetry employed for this shelxl refinement is uniquely defined
by the following loop, which should always be used as a source of
symmetry information in preference to the above space-group names.
They are only intended as comments.
;
_shelx_res_file
;

    shelx.res created by SHELXL-2014/7

TITL shelx in P-1
CELL  0.71073   3.7825   6.3161  16.1612   86.253   85.691   87.285
ZERR     9.00   0.0057   0.0100   0.0252    0.024    0.035    0.033
LATT   1
SFAC  C    H    O    F
UNIT  9 9 9 9
MERG   2
OMIT    -2.00  55.00
EQIV $1 -x, -y+1, -z+1
HTAB C2 O2_$1
EQIV $2 -x+1, -y+2, -z+1
HTAB O2 O1_$2
OMIT     0   0   1
OMIT     1   0   4
FMAP   2
PLAN   20
ACTA
HTAB    2.00000
BOND
BOND   $H
CONF
L.S.  50
WGHT    0.068900    0.087700
FVAR       0.80929   0.50342
MOLE    1
C1    1    0.311780    0.768189    0.569311    11.00000    0.02667    0.02664 =
         0.02959   -0.00209    0.00079   -0.00065
C2    1    0.167388    0.588580    0.619989    11.00000    0.03006    0.02631 =
         0.03050   -0.00240    0.00031   -0.00357
AFIX  43
H2    2    0.072070    0.479354    0.594103    11.00000   -1.20000
AFIX   0
C3    1    0.169020    0.577520    0.702567    11.00000    0.02368    0.02565 =
         0.03380   -0.00425   -0.00088   -0.00172
AFIX  43
H3    2    0.269721    0.689188    0.725788    11.00000   -1.20000
AFIX   0
C4    1    0.030576    0.409935    0.760478    11.00000    0.02437    0.02845 =
         0.02927    0.00133    0.00079    0.00226
C5    1    0.021223    0.433992    0.845625    11.00000    0.03731    0.03153 =
         0.03230   -0.00294   -0.00183    0.00194
PART    1
AFIX  43
H5    2    0.103133    0.557296    0.864599    21.00000   -1.20000
AFIX   0
PART    2
F1    4    0.146759    0.605639    0.873533   -21.00000    0.07948    0.03861 =
         0.03126   -0.00720   -0.00893   -0.00725
PART    0
C6    1   -0.107531    0.278077    0.902578    11.00000    0.05183    0.04675 =
         0.02681    0.00267    0.00143    0.00296
PART    1
AFIX  43
H6    2   -0.112413    0.296657    0.959271    21.00000   -1.20000
AFIX   0
PART    2
F2    4   -0.099002    0.306400    0.982748   -21.00000    0.11409    0.06491 =
         0.02654    0.00331   -0.00044    0.00013
PART    0
C7    1   -0.226812    0.097575    0.875051    11.00000    0.03401    0.04238 =
         0.04311    0.01327    0.00441    0.00132
PART    1
AFIX  43
H7    2   -0.313597   -0.007058    0.913391   -21.00000   -1.20000
AFIX   0
PART    2
F3    4   -0.360445   -0.053035    0.929598    21.00000    0.06458    0.05667 =
         0.05855    0.02319    0.01608   -0.00514
PART    0
C8    1   -0.221449    0.066879    0.791432    11.00000    0.03036    0.02890 =
         0.04674    0.00105    0.00005   -0.00047
AFIX  43
H8    2   -0.302925   -0.057712    0.773460    11.00000   -1.20000
AFIX   0
C9    1   -0.094317    0.222310    0.734502    11.00000    0.02631    0.02972 =
         0.03761   -0.00267   -0.00120   -0.00025
AFIX  43
H9    2   -0.091685    0.201927    0.677982    11.00000   -1.20000
AFIX   0
O1    3    0.449766    0.916261    0.600833    11.00000    0.04220    0.03121 =
         0.03221   -0.00251   -0.00250   -0.00993
O2    3    0.282227    0.764394    0.489982    11.00000    0.05227    0.03484 =
         0.02721   -0.00004   -0.00034   -0.01269
AFIX 147
H2A   2    0.390662    0.862055    0.465552    11.00000   -1.50000
AFIX   0
HKLF    4

REM  shelx in P-1
REM R1 =  0.0620 for    1207 Fo > 4sig(Fo)  and  0.0898 for all    1739 data
REM    129 parameters refined using      0 restraints

END

WGHT      0.0674      0.0421

REM Instructions for potential hydrogen bonds
HTAB C2 O2_$1
HTAB O2 O1_$2

REM Highest difference peak  0.379,  deepest hole -0.243,  1-sigma level  0.057
Q1    1  -0.3444 -0.0983  0.7942  11.00000  0.05    0.33
Q2    1  -0.2681  0.1737  1.0514  11.00000  0.05    0.16
Q3    1   0.0810  0.6088  0.6472  11.00000  0.05    0.16
Q4    1  -0.3431  0.3543  0.9598  11.00000  0.05    0.16
Q5    1   0.2254  0.6848  0.5978  11.00000  0.05    0.15
Q6    1   0.3171  0.5478  0.6578  11.00000  0.05    0.15
Q7    1   0.1717 -0.0464  0.9030  11.00000  0.05    0.14
Q8    1  -0.1092  0.1022  1.0342  11.00000  0.05    0.14
Q9    1   0.3434  1.1327  0.6155  11.00000  0.05    0.14
Q10   1   0.1272  0.4005  0.8006  11.00000  0.05    0.14
Q11   1   0.7298  0.7750  0.5933  11.00000  0.05    0.14
Q12   1  -0.0496  0.9161  0.4593  11.00000  0.05    0.14
Q13   1   0.0054  0.7431  0.9222  11.00000  0.05    0.14
Q14   1   0.5358  1.0329  0.5736  11.00000  0.05    0.14
Q15   1   0.6635  0.6113  0.5410  11.00000  0.05    0.14
Q16   1   0.4490  0.6986  0.5249  11.00000  0.05    0.13
Q17   1  -0.1386  0.6948  0.5840  11.00000  0.05    0.13
Q18   1  -0.5657 -0.2193  0.8954  11.00000  0.05    0.13
Q19   1   0.1297  0.9891  0.4990  11.00000  0.05    0.13
Q20   1   0.4611  0.6248  0.7243  11.00000  0.05    0.13
;
_shelx_res_checksum              31929
loop_
_space_group_symop_operation_xyz
'x, y, z'
'-x, -y, -z'
loop_
_atom_site_label
_atom_site_type_symbol
_atom_site_fract_x
_atom_site_fract_y
_atom_site_fract_z
_atom_site_U_iso_or_equiv
_atom_site_adp_type
_atom_site_occupancy
_atom_site_site_symmetry_order
_atom_site_calc_flag
_atom_site_refinement_flags_posn
_atom_site_refinement_flags_adp
_atom_site_refinement_flags_occupancy
_atom_site_disorder_assembly
_atom_site_disorder_group
C1 C 0.3118(5) 0.7682(3) 0.56931(13) 0.0278(5) Uani 1 1 d . . . . .
C2 C 0.1674(5) 0.5886(3) 0.61999(13) 0.0290(5) Uani 1 1 d . . . . .
H2 H 0.0721 0.4794 0.5941 0.035 Uiso 1 1 calc R U . . .
C3 C 0.1690(5) 0.5775(3) 0.70257(14) 0.0276(5) Uani 1 1 d . . . . .
H3 H 0.2697 0.6892 0.7258 0.033 Uiso 1 1 calc R U . . .
C4 C 0.0306(5) 0.4099(3) 0.76048(13) 0.0277(5) Uani 1 1 d . . . . .
C5 C 0.0212(6) 0.4340(4) 0.84563(14) 0.0338(5) Uani 1 1 d . . . . .
H5 H 0.1031 0.5573 0.8646 0.041 Uiso 0.503(3) 1 calc R U P A 1
F1 F 0.1468(9) 0.6056(5) 0.87353(17) 0.0492(10) Uani 0.497(3) 1 d . . P A 2
C6 C -0.1075(7) 0.2781(4) 0.90258(15) 0.0424(6) Uani 1 1 d . . . . .
H6 H -0.1124 0.2967 0.9593 0.051 Uiso 0.503(3) 1 calc R U P A 1
F2 F -0.0990(11) 0.3064(6) 0.98275(19) 0.0691(12) Uani 0.497(3) 1 d . . P A 2
C7 C -0.2268(6) 0.0976(4) 0.87505(16) 0.0410(6) Uani 1 1 d . . . . .
H7 H -0.3136 -0.0071 0.9134 0.049 Uiso 0.497(3) 1 calc R U P A 1
F3 F -0.3604(9) -0.0530(5) 0.9296(2) 0.0621(11) Uani 0.503(3) 1 d . . P A 2
C8 C -0.2214(6) 0.0669(4) 0.79143(15) 0.0356(6) Uani 1 1 d . . . . .
H8 H -0.3029 -0.0577 0.7735 0.043 Uiso 1 1 calc R U . . .
C9 C -0.0943(5) 0.2223(3) 0.73450(14) 0.0313(5) Uani 1 1 d . . . . .
H9 H -0.0917 0.2019 0.6780 0.038 Uiso 1 1 calc R U . . .
O1 O 0.4498(4) 0.9163(2) 0.60083(10) 0.0349(4) Uani 1 1 d . . . . .
O2 O 0.2822(4) 0.7644(3) 0.48998(9) 0.0380(5) Uani 1 1 d . . . . .
H2A H 0.3907 0.8621 0.4656 0.057 Uiso 1 1 calc R U . . .
loop_
_atom_site_aniso_label
_atom_site_aniso_U_11
_atom_site_aniso_U_22
_atom_site_aniso_U_33
_atom_site_aniso_U_23
_atom_site_aniso_U_13
_atom_site_aniso_U_12
C1 0.0267(10) 0.0266(11) 0.0296(12) -0.0021(9) 0.0008(8) -0.0006(8)
C2 0.0301(11) 0.0263(11) 0.0305(12) -0.0024(9) 0.0003(9) -0.0036(8)
C3 0.0237(10) 0.0256(11) 0.0338(12) -0.0043(9) -0.0009(8) -0.0017(8)
C4 0.0244(10) 0.0284(11) 0.0293(12) 0.0013(9) 0.0008(8) 0.0023(8)
C5 0.0373(12) 0.0315(12) 0.0323(13) -0.0029(9) -0.0018(9) 0.0019(9)
F1 0.079(2) 0.0386(17) 0.0313(16) -0.0072(13) -0.0089(14) -0.0072(14)
C6 0.0518(15) 0.0468(16) 0.0268(13) 0.0027(11) 0.0014(11) 0.0030(11)
F2 0.114(3) 0.065(2) 0.0265(18) 0.0033(16) -0.0004(17) 0.000(2)
C7 0.0340(12) 0.0424(15) 0.0431(15) 0.0133(11) 0.0044(10) 0.0013(10)
F3 0.065(2) 0.057(2) 0.059(2) 0.0232(16) 0.0161(16) -0.0051(16)
C8 0.0304(11) 0.0289(12) 0.0467(15) 0.0010(10) 0.0000(10) -0.0005(9)
C9 0.0263(11) 0.0297(12) 0.0376(13) -0.0027(10) -0.0012(9) -0.0002(8)
O1 0.0422(9) 0.0312(9) 0.0322(9) -0.0025(7) -0.0025(7) -0.0099(7)
O2 0.0523(11) 0.0348(10) 0.0272(9) 0.0000(7) -0.0003(7) -0.0127(7)
loop_
_atom_type_symbol
_atom_type_description
_atom_type_scat_dispersion_real
_atom_type_scat_dispersion_imag
_atom_type_scat_source
C C 0.0033 0.0016 'International Tables Vol C Tables 4.2.6.8 and 6.1.1.4'
H H 0.0000 0.0000 'International Tables Vol C Tables 4.2.6.8 and 6.1.1.4'
O O 0.0106 0.0060 'International Tables Vol C Tables 4.2.6.8 and 6.1.1.4'
F F 0.0171 0.0103 'International Tables Vol C Tables 4.2.6.8 and 6.1.1.4'
loop_
_geom_angle_atom_site_label_1
_geom_angle_atom_site_label_2
_geom_angle_atom_site_label_3
_geom_angle
O1 C1 O2 122.7(2)
O1 C1 C2 121.8(2)
O2 C1 C2 115.55(19)
C3 C2 C1 121.4(2)
C3 C2 H2 119.3
C1 C2 H2 119.3
C2 C3 C4 127.2(2)
C2 C3 H3 116.4
C4 C3 H3 116.4
C5 C4 C9 117.6(2)
C5 C4 C3 119.6(2)
C9 C4 C3 122.8(2)
F1 C5 C6 118.7(3)
F1 C5 C4 120.0(2)
C6 C5 C4 121.3(2)
C6 C5 H5 119.4
C4 C5 H5 119.4
F2 C6 C7 121.8(3)
F2 C6 C5 118.7(3)
C7 C6 C5 119.5(2)
C7 C6 H6 120.3
C5 C6 H6 120.3
F3 C7 C6 120.1(3)
F3 C7 C8 118.7(3)
C6 C7 C8 121.2(2)
C6 C7 H7 119.4
C8 C7 H7 119.4
C7 C8 C9 119.5(2)
C7 C8 H8 120.3
C9 C8 H8 120.3
C8 C9 C4 121.0(2)
C8 C9 H9 119.5
C4 C9 H9 119.5
C1 O2 H2A 109.5
loop_
_geom_bond_atom_site_label_1
_geom_bond_atom_site_label_2
_geom_bond_distance
C1 O1 1.247(3)
C1 O2 1.297(3)
C1 C2 1.458(3)
C2 C3 1.332(4)
C2 H2 0.9300
C3 C4 1.456(3)
C3 H3 0.9300
C4 C5 1.392(4)
C4 C9 1.397(3)
C5 F1 1.323(4)
C5 C6 1.383(4)
C5 H5 0.9300
C6 F2 1.322(4)
C6 C7 1.359(4)
C6 H6 0.9300
C7 F3 1.344(4)
C7 C8 1.376(4)
C7 H7 0.9300
C8 C9 1.379(3)
C8 H8 0.9300
C9 H9 0.9300
O2 H2A 0.8200
loop_
_geom_hbond_atom_site_label_D
_geom_hbond_atom_site_label_H
_geom_hbond_atom_site_label_A
_geom_hbond_distance_DH
_geom_hbond_distance_HA
_geom_hbond_distance_DA
_geom_hbond_angle_DHA
_geom_hbond_site_symmetry_A
C2 H2 O2 0.93 2.60 3.515(4) 168.2 2_566
O2 H2A O1 0.82 1.81 2.614(4) 168.1 2_676
loop_
_geom_torsion_atom_site_label_1
_geom_torsion_atom_site_label_2
_geom_torsion_atom_site_label_3
_geom_torsion_atom_site_label_4
_geom_torsion
O1 C1 C2 C3 1.7(3)
O2 C1 C2 C3 -177.43(19)
C1 C2 C3 C4 179.16(19)
C2 C3 C4 C5 -173.5(2)
C2 C3 C4 C9 6.8(3)
C9 C4 C5 F1 177.9(2)
C3 C4 C5 F1 -1.9(3)
C9 C4 C5 C6 -0.1(3)
C3 C4 C5 C6 -179.8(2)
F1 C5 C6 F2 -0.2(4)
C4 C5 C6 F2 177.8(3)
F1 C5 C6 C7 -177.9(2)
C4 C5 C6 C7 0.1(4)
F2 C6 C7 F3 4.0(4)
C5 C6 C7 F3 -178.4(2)
F2 C6 C7 C8 -177.5(3)
C5 C6 C7 C8 0.1(4)
F3 C7 C8 C9 178.2(2)
C6 C7 C8 C9 -0.3(4)
C7 C8 C9 C4 0.3(3)
C5 C4 C9 C8 -0.1(3)
C3 C4 C9 C8 179.61(18)
