#------------------------------------------------------------------------------
#$Date: 2019-11-17 11:50:22 +0200 (Sun, 17 Nov 2019) $
#$Revision: 229702 $
#$URL: file:///home/coder/svn-repositories/cod/cif/7/04/61/7046151.cif $
#------------------------------------------------------------------------------
#
# This file is available in the Crystallography Open Database (COD),
# http://www.crystallography.net/
#
# All data on this site have been placed in the public domain by the
# contributors.
#
data_7046151
loop_
_publ_author_name
'Sun, Ai-Huan'
'Wei, Qi'
'Fu, Ai-Ping'
'Han, Song-De'
'Li, Jin-Hua'
'Wang, Guo-Ming'
_publ_section_title
;
 Syntheses, structures and efficient visible light-driven photocatalytic
 properties of layered cuprous halides based on two types of building
 units.
;
_journal_issue                   20
_journal_name_full
'Dalton transactions (Cambridge, England : 2003)'
_journal_page_first              6965
_journal_page_last               6972
_journal_paper_doi               10.1039/c7dt04733a
_journal_volume                  47
_journal_year                    2018
_chemical_formula_moiety         'C9 H7 F O2'
_chemical_formula_sum            'C9 H7 F O2'
_chemical_formula_weight         166.15
_space_group_crystal_system      monoclinic
_space_group_IT_number           14
_space_group_name_Hall           '-P 2ybc'
_space_group_name_H-M_alt        'P 1 21/c 1'
_symmetry_space_group_name_Hall  '-P 2ybc'
_symmetry_space_group_name_H-M   'P 1 21/c 1'
_atom_sites_solution_hydrogens   geom
_audit_creation_method           SHELXL-2014/7
_audit_update_record
;
2018-03-28 deposited with the CCDC.
2018-04-09 downloaded from the CCDC.
;
_cell_angle_alpha                90
_cell_angle_beta                 91.57(2)
_cell_angle_gamma                90
_cell_formula_units_Z            4
_cell_length_a                   6.322(3)
_cell_length_b                   3.7467(16)
_cell_length_c                   32.162(13)
_cell_measurement_reflns_used    1136
_cell_measurement_temperature    100(2)
_cell_measurement_theta_max      27.5
_cell_measurement_theta_min      3.2
_cell_volume                     761.5(6)
_computing_structure_refinement  'SHELXL-2014/7 (Sheldrick, 2014)'
_diffrn_ambient_temperature      100(2)
_diffrn_measured_fraction_theta_full 0.952
_diffrn_measured_fraction_theta_max 0.955
_diffrn_measurement_device_type  CCD
_diffrn_radiation_type           MoK\a
_diffrn_radiation_wavelength     0.71073
_diffrn_reflns_av_R_equivalents  0.1492
_diffrn_reflns_av_unetI/netI     0.1484
_diffrn_reflns_Laue_measured_fraction_full 0.952
_diffrn_reflns_Laue_measured_fraction_max 0.955
_diffrn_reflns_limit_h_max       8
_diffrn_reflns_limit_h_min       -8
_diffrn_reflns_limit_k_max       4
_diffrn_reflns_limit_k_min       -4
_diffrn_reflns_limit_l_max       41
_diffrn_reflns_limit_l_min       -41
_diffrn_reflns_number            4197
_diffrn_reflns_point_group_measured_fraction_full 0.952
_diffrn_reflns_point_group_measured_fraction_max 0.955
_diffrn_reflns_theta_full        25.242
_diffrn_reflns_theta_max         27.495
_diffrn_reflns_theta_min         3.224
_exptl_absorpt_coefficient_mu    0.118
_exptl_crystal_colour            colourless
_exptl_crystal_density_diffrn    1.449
_exptl_crystal_description       plate
_exptl_crystal_F_000             344.0
_exptl_crystal_size_max          0.9
_exptl_crystal_size_mid          0.7
_exptl_crystal_size_min          0.6
_refine_diff_density_max         0.417
_refine_diff_density_min         -0.486
_refine_diff_density_rms         0.111
_refine_ls_extinction_method     none
_refine_ls_goodness_of_fit_ref   1.069
_refine_ls_hydrogen_treatment    constr
_refine_ls_matrix_type           full
_refine_ls_number_parameters     114
_refine_ls_number_reflns         1668
_refine_ls_number_restraints     0
_refine_ls_restrained_S_all      1.069
_refine_ls_R_factor_all          0.1521
_refine_ls_R_factor_gt           0.1116
_refine_ls_shift/su_max          0.000
_refine_ls_shift/su_mean         0.000
_refine_ls_structure_factor_coef Fsqd
_refine_ls_weighting_details
'w=1/[\s^2^(Fo^2^)+(0.2000P)^2^] where P=(Fo^2^+2Fc^2^)/3'
_refine_ls_weighting_scheme      calc
_refine_ls_wR_factor_gt          0.3253
_refine_ls_wR_factor_ref         0.3602
_reflns_Friedel_coverage         0.000
_reflns_number_gt                958
_reflns_number_total             1668
_reflns_threshold_expression     'I > 2\s(I)'
_cod_data_source_file            c7dt04733a2.cif
_cod_data_source_block           10
_cod_depositor_comments
'Adding full bibliography for 7046123--7046152.cif.'
_cod_database_code               7046151
_shelx_shelxl_version_number     2014/7
_shelx_space_group_comment
;
The symmetry employed for this shelxl refinement is uniquely defined
by the following loop, which should always be used as a source of
symmetry information in preference to the above space-group names.
They are only intended as comments.
;
_shelx_res_file
;

    shelx.res created by SHELXL-2014/7

TITL datam in P2(1)/c
CELL  0.71073   6.3215   3.7467  32.1619   90.000   91.573   90.000
ZERR    17.00   0.0030   0.0016   0.0132    0.000    0.022    0.000
LATT   1
SYMM  - X, 1/2 + Y, 1/2 - Z
SFAC  C    H    O    F
UNIT  17 17 17 17
MERG   2
OMIT    -2.00  55.00
EADP F1 F2
EQIV $1 -x, -y+3, -z+1
HTAB C2 O2_$1
EQIV $2 -x-1, y+1/2, -z+1/2
HTAB C7 F2_$2
EQIV $3 -x+1, -y+2, -z+1
HTAB O2 O1_$3
OMIT     0   0   2
OMIT     5   1   1
OMIT     0   0   4
OMIT    -1   0   2
FMAP   2
PLAN   20
ACTA
HTAB    2.00000
BOND
BOND   $H
CONF
L.S.  50
TEMP  -173.00
WGHT    0.200000
FVAR       0.47644   0.24801
MOLE    1
C1    1    0.267685    1.148872    0.464392    11.00000    0.03066    0.03146 =
         0.03197   -0.00122    0.00763    0.00516
C2    1    0.088227    1.262176    0.438460    11.00000    0.02513    0.03332 =
         0.03693   -0.00021    0.00346    0.00721
AFIX  43
H2    2   -0.027699    1.379484    0.450755    11.00000   -1.20000
AFIX   0
C3    1    0.084739    1.203476    0.397855    11.00000    0.02708    0.02744 =
         0.03935    0.00017    0.00755    0.00550
AFIX  43
H3    2    0.203769    1.083720    0.387055    11.00000   -1.20000
AFIX   0
C4    1   -0.085045    1.304739    0.367506    11.00000    0.03010    0.02326 =
         0.03929   -0.00047    0.00395   -0.00047
C5    1   -0.052384    1.248808    0.325882    11.00000    0.02381    0.03592 =
         0.04780   -0.00495    0.00122   -0.00127
PART    1
AFIX  43
H5    2    0.078042    1.150498    0.317385    21.00000   -1.20000
AFIX   0
PART    2
F1    4    0.127865    1.100835    0.313081   -21.00000    0.01449    0.04771 =
         0.01848   -0.00479    0.00290    0.00339
PART    0
C6    1   -0.210849    1.335987    0.295510    11.00000    0.04556    0.04979 =
         0.03997   -0.00201   -0.00671   -0.00685
PART    1
AFIX  43
H6    2   -0.187187    1.292009    0.266921   -21.00000   -1.20000
AFIX   0
PART    2
F2    4   -0.185145    1.244355    0.258889    21.00000    0.01449    0.04771 =
         0.01848   -0.00479    0.00290    0.00339
PART    0
C7    1   -0.397166    1.482907    0.307318    11.00000    0.03744    0.03819 =
         0.05415    0.00830   -0.01967   -0.00262
AFIX  43
H7    2   -0.502960    1.545089    0.287051    11.00000   -1.20000
AFIX   0
C8    1   -0.431066    1.541353    0.349737    11.00000    0.02691    0.03001 =
         0.07124   -0.00249    0.00138    0.00267
AFIX  43
H8    2   -0.560527    1.643069    0.358263    11.00000   -1.20000
AFIX   0
C9    1   -0.276675    1.451347    0.379105    11.00000    0.02776    0.02825 =
         0.04899    0.00154    0.00540    0.00148
AFIX  43
H9    2   -0.301864    1.490299    0.407734    11.00000   -1.20000
AFIX   0
O1    3    0.420505    0.978570    0.450115    11.00000    0.03745    0.04345 =
         0.03697   -0.00144    0.00549    0.01102
O2    3    0.259813    1.234161    0.503907    11.00000    0.04167    0.05146 =
         0.03174   -0.00277    0.00615    0.01222
AFIX 147
H2A   2    0.346898    1.109116    0.517688    11.00000   -1.50000
AFIX   0
HKLF    4

REM  datam in P2(1)/c
REM R1 =  0.1116 for     958 Fo > 4sig(Fo)  and  0.1521 for all    1668 data
REM    114 parameters refined using      0 restraints

END

WGHT      0.1689      0.4321

REM Instructions for potential hydrogen bonds
HTAB C2 O2_$1
HTAB C7 F2_$2
HTAB O2 O1_$3

REM Highest difference peak  0.417,  deepest hole -0.486,  1-sigma level  0.111
Q1    1   0.1227  0.9633  0.3151  11.00000  0.05    0.39
Q2    1  -0.2396  1.8009  0.2995  11.00000  0.05    0.34
Q3    1   0.1793  1.0570  0.3199  11.00000  0.05    0.32
Q4    1   0.3525  0.7253  0.4326  11.00000  0.05    0.31
Q5    1   0.2676  0.6554  0.4674  11.00000  0.05    0.30
Q6    1  -0.5125  1.1650  0.3299  11.00000  0.05    0.30
Q7    1  -0.1380  0.9933  0.4118  11.00000  0.05    0.30
Q8    1   0.3471  1.4832  0.4298  11.00000  0.05    0.29
Q9    1   0.1227  1.2570  0.3082  11.00000  0.05    0.29
Q10   1   0.4664  0.5035  0.4502  11.00000  0.05    0.28
Q11   1   0.5000  1.5000  0.5000  10.50000  0.05    0.27
Q12   1  -0.1685  1.7618  0.3392  11.00000  0.05    0.27
Q13   1  -0.2590  1.0141  0.2915  11.00000  0.05    0.26
Q14   1  -0.5306  1.9595  0.3435  11.00000  0.05    0.26
Q15   1  -0.2822  1.9254  0.3327  11.00000  0.05    0.26
Q16   1  -0.0297  1.5035  0.3271  11.00000  0.05    0.26
Q17   1   0.4246  1.1852  0.5320  11.00000  0.05    0.26
Q18   1   0.1658  0.7784  0.4499  11.00000  0.05    0.26
Q19   1   0.1404  0.7750  0.4769  11.00000  0.05    0.25
Q20   1  -0.0723  0.7359  0.3226  11.00000  0.05    0.25
;
_shelx_res_checksum              88848
loop_
_space_group_symop_operation_xyz
'x, y, z'
'-x, y+1/2, -z+1/2'
'-x, -y, -z'
'x, -y-1/2, z-1/2'
loop_
_atom_site_label
_atom_site_type_symbol
_atom_site_fract_x
_atom_site_fract_y
_atom_site_fract_z
_atom_site_U_iso_or_equiv
_atom_site_adp_type
_atom_site_occupancy
_atom_site_site_symmetry_order
_atom_site_calc_flag
_atom_site_refinement_flags_posn
_atom_site_refinement_flags_adp
_atom_site_refinement_flags_occupancy
_atom_site_disorder_assembly
_atom_site_disorder_group
C1 C 0.2677(8) 1.1489(12) 0.46439(14) 0.0312(11) Uani 1 1 d . . . . .
C2 C 0.0882(8) 1.2622(12) 0.43846(14) 0.0317(10) Uani 1 1 d . . . . .
H2 H -0.0277 1.3795 0.4508 0.038 Uiso 1 1 calc R U . . .
C3 C 0.0847(7) 1.2035(12) 0.39785(14) 0.0312(11) Uani 1 1 d . . . . .
H3 H 0.2038 1.0837 0.3871 0.037 Uiso 1 1 calc R U . . .
C4 C -0.0850(8) 1.3047(11) 0.36751(15) 0.0308(10) Uani 1 1 d . . . . .
C5 C -0.0524(8) 1.2488(13) 0.32588(16) 0.0358(11) Uani 1 1 d . . . . .
H5 H 0.0780 1.1505 0.3174 0.043 Uiso 0.248(5) 1 calc R U P A 1
F1 F 0.1279(5) 1.1008(9) 0.31308(9) 0.0268(8) Uani 0.752(5) 1 d . . P A 2
C6 C -0.2108(9) 1.3360(15) 0.29551(16) 0.0452(13) Uani 1 1 d . . . . .
H6 H -0.1872 1.2920 0.2669 0.054 Uiso 0.752(5) 1 calc R U P A 1
F2 F -0.1851(15) 1.244(3) 0.2589(3) 0.0268(8) Uani 0.248(5) 1 d . . P A 2
C7 C -0.3972(9) 1.4829(14) 0.30732(17) 0.0436(13) Uani 1 1 d . . . . .
H7 H -0.5030 1.5451 0.2871 0.052 Uiso 1 1 calc R U . . .
C8 C -0.4311(8) 1.5414(12) 0.34974(18) 0.0427(13) Uani 1 1 d . . . . .
H8 H -0.5605 1.6431 0.3583 0.051 Uiso 1 1 calc R U . . .
C9 C -0.2767(8) 1.4513(12) 0.37910(16) 0.0349(11) Uani 1 1 d . . . . .
H9 H -0.3019 1.4903 0.4077 0.042 Uiso 1 1 calc R U . . .
O1 O 0.4205(6) 0.9786(9) 0.45011(10) 0.0392(10) Uani 1 1 d . . . . .
O2 O 0.2598(6) 1.2342(10) 0.50391(10) 0.0415(10) Uani 1 1 d . . . . .
H2A H 0.3469 1.1091 0.5177 0.062 Uiso 1 1 calc R U . . .
loop_
_atom_site_aniso_label
_atom_site_aniso_U_11
_atom_site_aniso_U_22
_atom_site_aniso_U_33
_atom_site_aniso_U_23
_atom_site_aniso_U_13
_atom_site_aniso_U_12
C1 0.031(2) 0.031(2) 0.032(2) -0.0012(17) 0.0076(17) 0.0052(18)
C2 0.025(2) 0.033(2) 0.037(2) -0.0002(18) 0.0035(17) 0.0072(18)
C3 0.027(2) 0.027(2) 0.039(3) 0.0002(17) 0.0075(18) 0.0055(18)
C4 0.030(3) 0.023(2) 0.039(2) -0.0005(17) 0.0040(18) -0.0005(17)
C5 0.024(3) 0.036(2) 0.048(3) -0.005(2) 0.0012(19) -0.0013(19)
F1 0.0145(15) 0.0477(19) 0.0185(13) -0.0048(12) 0.0029(10) 0.0034(13)
C6 0.046(3) 0.050(3) 0.040(3) -0.002(2) -0.007(2) -0.007(2)
F2 0.0145(15) 0.0477(19) 0.0185(13) -0.0048(12) 0.0029(10) 0.0034(13)
C7 0.037(3) 0.038(3) 0.054(3) 0.008(2) -0.020(2) -0.003(2)
C8 0.027(3) 0.030(2) 0.071(4) -0.002(2) 0.001(2) 0.003(2)
C9 0.028(2) 0.028(2) 0.049(3) 0.0015(19) 0.0054(19) 0.0015(19)
O1 0.037(2) 0.0434(19) 0.0370(18) -0.0014(14) 0.0055(14) 0.0110(16)
O2 0.042(2) 0.051(2) 0.0317(17) -0.0028(15) 0.0062(14) 0.0122(18)
loop_
_atom_type_symbol
_atom_type_description
_atom_type_scat_dispersion_real
_atom_type_scat_dispersion_imag
_atom_type_scat_source
C C 0.0033 0.0016 'International Tables Vol C Tables 4.2.6.8 and 6.1.1.4'
H H 0.0000 0.0000 'International Tables Vol C Tables 4.2.6.8 and 6.1.1.4'
O O 0.0106 0.0060 'International Tables Vol C Tables 4.2.6.8 and 6.1.1.4'
F F 0.0171 0.0103 'International Tables Vol C Tables 4.2.6.8 and 6.1.1.4'
loop_
_geom_angle_atom_site_label_1
_geom_angle_atom_site_label_2
_geom_angle_atom_site_label_3
_geom_angle
O1 C1 O2 121.9(4)
O1 C1 C2 122.4(4)
O2 C1 C2 115.8(4)
C3 C2 C1 120.6(4)
C3 C2 H2 119.7
C1 C2 H2 119.7
C2 C3 C4 126.9(4)
C2 C3 H3 116.6
C4 C3 H3 116.6
C5 C4 C9 118.4(5)
C5 C4 C3 118.5(4)
C9 C4 C3 123.1(4)
F1 C5 C4 120.8(4)
F1 C5 C6 118.3(5)
C4 C5 C6 120.9(5)
C4 C5 H5 119.6
C6 C5 H5 119.6
F2 C6 C7 120.8(7)
F2 C6 C5 118.8(7)
C7 C6 C5 120.0(5)
C7 C6 H6 120.0
C5 C6 H6 120.0
C6 C7 C8 119.3(5)
C6 C7 H7 120.3
C8 C7 H7 120.3
C9 C8 C7 120.2(5)
C9 C8 H8 119.9
C7 C8 H8 119.9
C8 C9 C4 121.2(5)
C8 C9 H9 119.4
C4 C9 H9 119.4
C1 O2 H2A 109.5
loop_
_geom_bond_atom_site_label_1
_geom_bond_atom_site_label_2
_geom_bond_distance
C1 O1 1.255(5)
C1 O2 1.313(5)
C1 C2 1.453(7)
C2 C3 1.324(7)
C2 H2 0.9500
C3 C4 1.480(7)
C3 H3 0.9500
C4 C5 1.376(7)
C4 C9 1.390(6)
C5 F1 1.342(6)
C5 C6 1.418(7)
C5 H5 0.9500
C6 F2 1.242(10)
C6 C7 1.363(8)
C6 H6 0.9500
C7 C8 1.404(8)
C7 H7 0.9500
C8 C9 1.381(7)
C8 H8 0.9500
C9 H9 0.9500
O2 H2A 0.8400
loop_
_geom_hbond_atom_site_label_D
_geom_hbond_atom_site_label_H
_geom_hbond_atom_site_label_A
_geom_hbond_distance_DH
_geom_hbond_distance_HA
_geom_hbond_distance_DA
_geom_hbond_angle_DHA
_geom_hbond_site_symmetry_A
C2 H2 O2 0.95 2.55 3.473(6) 164.6 3_586
C7 H7 F2 0.95 2.54 3.487(11) 172.1 2_455
O2 H2A O1 0.84 1.81 2.597(5) 156.3 3_676
loop_
_geom_torsion_atom_site_label_1
_geom_torsion_atom_site_label_2
_geom_torsion_atom_site_label_3
_geom_torsion_atom_site_label_4
_geom_torsion
O1 C1 C2 C3 -3.3(7)
O2 C1 C2 C3 177.0(4)
C1 C2 C3 C4 -179.5(4)
C2 C3 C4 C5 174.4(5)
C2 C3 C4 C9 -6.1(8)
C9 C4 C5 F1 -178.5(4)
C3 C4 C5 F1 1.0(7)
C9 C4 C5 C6 -0.5(7)
C3 C4 C5 C6 179.1(4)
F1 C5 C6 F2 6.2(9)
C4 C5 C6 F2 -171.9(7)
F1 C5 C6 C7 179.2(4)
C4 C5 C6 C7 1.1(8)
F2 C6 C7 C8 171.9(7)
C5 C6 C7 C8 -1.0(8)
C6 C7 C8 C9 0.1(8)
C7 C8 C9 C4 0.5(7)
C5 C4 C9 C8 -0.4(7)
C3 C4 C9 C8 -179.9(4)
