#------------------------------------------------------------------------------
#$Date: 2019-11-17 11:50:22 +0200 (Sun, 17 Nov 2019) $
#$Revision: 229702 $
#$URL: file:///home/coder/svn-repositories/cod/cif/7/04/61/7046144.cif $
#------------------------------------------------------------------------------
#
# This file is available in the Crystallography Open Database (COD),
# http://www.crystallography.net/
#
# All data on this site have been placed in the public domain by the
# contributors.
#
data_7046144
loop_
_publ_author_name
'Sun, Ai-Huan'
'Wei, Qi'
'Fu, Ai-Ping'
'Han, Song-De'
'Li, Jin-Hua'
'Wang, Guo-Ming'
_publ_section_title
;
 Syntheses, structures and efficient visible light-driven photocatalytic
 properties of layered cuprous halides based on two types of building
 units.
;
_journal_issue                   20
_journal_name_full
'Dalton transactions (Cambridge, England : 2003)'
_journal_page_first              6965
_journal_page_last               6972
_journal_paper_doi               10.1039/c7dt04733a
_journal_volume                  47
_journal_year                    2018
_chemical_formula_moiety         'C9 H5 F1.80 O2'
_chemical_formula_sum            'C9 H5 F1.8 O2'
_chemical_formula_weight         179.37
_space_group_crystal_system      monoclinic
_space_group_IT_number           14
_space_group_name_Hall           '-P 2yn'
_space_group_name_H-M_alt        'P 1 21/n 1'
_symmetry_space_group_name_Hall  '-P 2yn'
_symmetry_space_group_name_H-M   'P 1 21/n 1'
_atom_sites_solution_hydrogens   geom
_audit_creation_method           SHELXL-2014/7
_audit_update_record
;
2018-03-01 deposited with the CCDC.
2018-04-09 downloaded from the CCDC.
;
_cell_angle_alpha                90
_cell_angle_beta                 91.54(3)
_cell_angle_gamma                90
_cell_formula_units_Z            4
_cell_length_a                   3.7363(16)
_cell_length_b                   6.525(3)
_cell_length_c                   32.294(12)
_cell_measurement_reflns_used    1429
_cell_measurement_temperature    293(2)
_cell_measurement_theta_max      27.5
_cell_measurement_theta_min      1.9
_cell_volume                     787.0(6)
_computing_structure_refinement  'SHELXL-2014/7 (Sheldrick, 2014)'
_diffrn_ambient_temperature      293(2)
_diffrn_measured_fraction_theta_full 0.990
_diffrn_measured_fraction_theta_max 0.986
_diffrn_measurement_device_type  CCD
_diffrn_radiation_type           MoK\a
_diffrn_radiation_wavelength     0.71073
_diffrn_reflns_av_R_equivalents  0.2075
_diffrn_reflns_av_unetI/netI     0.1545
_diffrn_reflns_Laue_measured_fraction_full 0.990
_diffrn_reflns_Laue_measured_fraction_max 0.986
_diffrn_reflns_limit_h_max       4
_diffrn_reflns_limit_h_min       -4
_diffrn_reflns_limit_k_max       8
_diffrn_reflns_limit_k_min       -8
_diffrn_reflns_limit_l_max       41
_diffrn_reflns_limit_l_min       -41
_diffrn_reflns_number            6298
_diffrn_reflns_point_group_measured_fraction_full 0.990
_diffrn_reflns_point_group_measured_fraction_max 0.986
_diffrn_reflns_theta_full        25.242
_diffrn_reflns_theta_max         27.476
_diffrn_reflns_theta_min         3.368
_exptl_absorpt_coefficient_mu    0.134
_exptl_crystal_colour            colourless
_exptl_crystal_density_diffrn    1.514
_exptl_crystal_description       needle
_exptl_crystal_F_000             364.9
_exptl_crystal_size_max          0.8
_exptl_crystal_size_mid          0.4
_exptl_crystal_size_min          0.3
_refine_diff_density_max         0.344
_refine_diff_density_min         -0.364
_refine_diff_density_rms         0.085
_refine_ls_extinction_method     none
_refine_ls_goodness_of_fit_ref   1.085
_refine_ls_hydrogen_treatment    constr
_refine_ls_matrix_type           full
_refine_ls_number_parameters     136
_refine_ls_number_reflns         1774
_refine_ls_number_restraints     0
_refine_ls_restrained_S_all      1.085
_refine_ls_R_factor_all          0.1302
_refine_ls_R_factor_gt           0.0969
_refine_ls_shift/su_max          0.000
_refine_ls_shift/su_mean         0.000
_refine_ls_structure_factor_coef Fsqd
_refine_ls_weighting_details
'w=1/[\s^2^(Fo^2^)+(0.0778P)^2^] where P=(Fo^2^+2Fc^2^)/3'
_refine_ls_weighting_scheme      calc
_refine_ls_wR_factor_gt          0.2133
_refine_ls_wR_factor_ref         0.2389
_reflns_Friedel_coverage         0.000
_reflns_number_gt                1133
_reflns_number_total             1774
_reflns_threshold_expression     'I > 2\s(I)'
_cod_data_source_file            c7dt04733a2.cif
_cod_data_source_block           22_CCDC1
_cod_depositor_comments
'Adding full bibliography for 7046123--7046152.cif.'
_cod_original_cell_volume        787.1(6)
_cod_original_formula_sum        'C9 H5 F1.80 O2'
_cod_database_code               7046144
_shelx_shelxl_version_number     2014/7
_shelx_space_group_comment
;
The symmetry employed for this shelxl refinement is uniquely defined
by the following loop, which should always be used as a source of
symmetry information in preference to the above space-group names.
They are only intended as comments.
;
_shelx_res_file
;

    shelx.res created by SHELXL-2014/7

TITL datam in P2(1)/n
CELL  0.71073   3.7363   6.5252  32.2944   90.000   91.543   90.000
ZERR    18.00   0.0016   0.0029   0.0121    0.000    0.026    0.000
LATT   1
SYMM  1/2 - X, 1/2 + Y, 1/2 - Z
SFAC  C    H    O    F
UNIT  18 18 18 18
MERG   2
OMIT    -2.00  55.00
OMIT     0   0   2
OMIT    -1   3  12
OMIT     0   0  12
OMIT     0   0   4
OMIT     1   1   0
OMIT     1   0   7
OMIT     0   1   1
OMIT     0   4   8
OMIT    -2   4  22
EQIV $1 -x+2, -y+1, -z
HTAB C2 O2_$1
EQIV $2 -x+1, -y, -z
HTAB O2 O1_$2
HTAB C2 O2_$1
HTAB O2 O1_$2
EQIV $3 -x+3/2, y-1/2, -z+1/2
HTAB C8 F2B_$3
FMAP   2
PLAN   20
ACTA
BOND
BOND   $H
CONF
L.S.  50
WGHT    0.077800
FVAR       0.45895
MOLE    1
C1    1    0.655581    0.223101    0.034344    11.00000    0.02961    0.03881 =
         0.03238    0.00664    0.00404   -0.00437
C2    1    0.773860    0.398391    0.059996    11.00000    0.03191    0.03164 =
         0.03841    0.00562    0.00242   -0.00415
AFIX  43
H2    2    0.885581    0.509100    0.047617    11.00000   -1.20000
AFIX   0
C3    1    0.723414    0.400618    0.100428    11.00000    0.02664    0.03054 =
         0.03822    0.00911    0.00603   -0.00455
AFIX  43
H3    2    0.606786    0.287522    0.111252    11.00000   -1.20000
AFIX   0
C4    1    0.829761    0.560099    0.129947    11.00000    0.02222    0.03814 =
         0.03908   -0.00038    0.00386    0.00063
C5    1    0.970604    0.748593    0.117610    11.00000    0.02968    0.03511 =
         0.06529   -0.00493    0.00628    0.00046
AFIX  43
H5    2    0.998834    0.776808    0.089660    11.00000   -1.20000
AFIX   0
C7    1    1.026456    0.852655    0.187918    11.00000    0.03255    0.08898 =
         0.11509   -0.07382   -0.00233    0.00737
C9    1    0.786458    0.524566    0.172132    11.00000    0.03261    0.05868 =
         0.04557   -0.00436    0.00398    0.00511
AFIX  43
H9    2    0.690109    0.400846    0.180789    11.00000   -1.20000
AFIX   0
O1    3    0.495664    0.073549    0.049401    11.00000    0.04743    0.04233 =
         0.03279    0.00558    0.00574   -0.01638
O2    3    0.730823    0.237741   -0.004691    11.00000    0.05375    0.04102 =
         0.03304    0.00427    0.00751   -0.01469
AFIX  83
H2A   2    0.656589    0.135891   -0.017068    11.00000   -1.50000
AFIX   0
C6    1    1.066796    0.891553    0.147069    11.00000    0.02994    0.04846 =
         0.13143   -0.04002    0.00386    0.00417
PART    2
F1A   4    1.200369    1.061279    0.145416    10.44133    0.04227    0.02260 =
         0.06428    0.00225    0.01462   -0.00950
PART    0
C8    1    0.884432    0.670147    0.201056    11.00000    0.03851    0.11563 =
         0.05264   -0.04525   -0.00259    0.01250
PART    2
F1B   4    0.868139    0.693737    0.233977    10.36506    0.12450    0.12441 =
         0.09161    0.03027    0.00320   -0.01119
PART    0
F2A   4    1.138858    1.036819    0.206836    10.48772    0.06421    0.04304 =
         0.06795   -0.02062    0.00598   -0.00670
F2B   4    1.114108    0.961628    0.223947    10.50792    0.06003    0.04725 =
         0.05328   -0.02569    0.00975   -0.01107
HKLF    4

REM  datam in P2(1)/n
REM R1 =  0.0969 for    1133 Fo > 4sig(Fo)  and  0.1302 for all    1774 data
REM    136 parameters refined using      0 restraints

END

WGHT      0.0950      0.0000

REM Highest difference peak  0.344,  deepest hole -0.364,  1-sigma level  0.085
Q1    1   0.9886  0.2754  0.0101  11.00000  0.05    0.31
Q2    1   1.0600  0.2639  0.0295  11.00000  0.05    0.29
Q3    1   0.4542  0.6259  0.1386  11.00000  0.05    0.28
Q4    1   1.3269  1.0757  0.1461  11.00000  0.05    0.28
Q5    1   0.5713  0.9380  0.1847  11.00000  0.05    0.26
Q6    1   1.1073  0.9861  0.1392  11.00000  0.05    0.23
Q7    1   0.1529  0.1157  0.0274  11.00000  0.05    0.23
Q8    1   0.3487  0.5354  0.1314  11.00000  0.05    0.23
Q9    1   1.2908  0.9683  0.2272  11.00000  0.05    0.22
Q10   1   0.8132  0.9456  0.2285  11.00000  0.05    0.22
Q11   1   0.4470  0.5381  0.0846  11.00000  0.05    0.20
Q12   1   1.3019  0.7844  0.1265  11.00000  0.05    0.20
Q13   1   1.0953  0.8614  0.1605  11.00000  0.05    0.20
Q14   1   0.5819  0.6542  0.2072  11.00000  0.05    0.20
Q15   1   0.4708  0.4008  0.0580  11.00000  0.05    0.20
Q16   1   1.3962  0.9054  0.1702  11.00000  0.05    0.20
Q17   1   1.3230  0.5788  0.1916  11.00000  0.05    0.20
Q18   1   0.4545  0.2294 -0.0129  11.00000  0.05    0.19
Q19   1   0.7908  0.5590  0.2455  11.00000  0.05    0.19
Q20   1   1.3052  0.8352  0.1693  11.00000  0.05    0.19
;
_shelx_res_checksum              56010
loop_
_space_group_symop_operation_xyz
'x, y, z'
'-x+1/2, y+1/2, -z+1/2'
'-x, -y, -z'
'x-1/2, -y-1/2, z-1/2'
loop_
_atom_site_label
_atom_site_type_symbol
_atom_site_fract_x
_atom_site_fract_y
_atom_site_fract_z
_atom_site_U_iso_or_equiv
_atom_site_adp_type
_atom_site_occupancy
_atom_site_site_symmetry_order
_atom_site_calc_flag
_atom_site_refinement_flags_posn
_atom_site_refinement_flags_adp
_atom_site_refinement_flags_occupancy
_atom_site_disorder_assembly
_atom_site_disorder_group
C1 C 0.6556(6) 0.2231(4) 0.03434(9) 0.0335(7) Uani 1 1 d . . . . .
C2 C 0.7739(7) 0.3984(4) 0.06000(9) 0.0340(7) Uani 1 1 d . . . . .
H2 H 0.8856 0.5091 0.0476 0.041 Uiso 1 1 calc R U . . .
C3 C 0.7234(6) 0.4006(4) 0.10043(9) 0.0317(7) Uani 1 1 d . . . . .
H3 H 0.6068 0.2875 0.1113 0.038 Uiso 1 1 calc R U . . .
C4 C 0.8298(6) 0.5601(4) 0.12995(9) 0.0331(7) Uani 1 1 d . . . . .
C5 C 0.9706(7) 0.7486(5) 0.11761(11) 0.0433(8) Uani 1 1 d . . . . .
H5 H 0.9988 0.7768 0.0897 0.052 Uiso 1 1 calc R U . . .
C7 C 1.0265(9) 0.8527(8) 0.18792(18) 0.0790(17) Uani 1 1 d . . . . .
C9 C 0.7865(7) 0.5246(6) 0.17213(11) 0.0456(8) Uani 1 1 d . . . . .
H9 H 0.6901 0.4008 0.1808 0.055 Uiso 1 1 calc R U . . .
O1 O 0.4957(5) 0.0735(3) 0.04940(6) 0.0408(6) Uani 1 1 d . . . . .
O2 O 0.7308(5) 0.2377(3) -0.00469(6) 0.0425(6) Uani 1 1 d . . . . .
H2A H 0.6566 0.1359 -0.0171 0.064 Uiso 1 1 calc R U . . .
C6 C 1.0668(8) 0.8916(6) 0.14707(18) 0.0699(14) Uani 1 1 d . . . . .
F1A F 1.2004(9) 1.0613(5) 0.14542(14) 0.0428(10) Uani 0.4413 1 d . . P A 2
C8 C 0.8844(9) 0.6701(8) 0.20106(14) 0.0690(14) Uani 1 1 d . . . . .
F1B F 0.868(2) 0.6937(16) 0.2340(3) 0.114(3) Uani 0.3651 1 d . . P B 2
F2A F 1.1389(16) 1.0368(9) 0.2068(2) 0.0583(15) Uani 0.4877 1 d . . P B .
F2B F 1.1141(15) 0.9616(8) 0.22395(18) 0.0534(14) Uani 0.5079 1 d . . P B .
loop_
_atom_site_aniso_label
_atom_site_aniso_U_11
_atom_site_aniso_U_22
_atom_site_aniso_U_33
_atom_site_aniso_U_23
_atom_site_aniso_U_13
_atom_site_aniso_U_12
C1 0.0296(14) 0.0388(16) 0.0324(16) 0.0066(12) 0.0040(11) -0.0044(11)
C2 0.0319(15) 0.0316(15) 0.0384(17) 0.0056(12) 0.0024(12) -0.0042(10)
C3 0.0266(14) 0.0305(14) 0.0382(16) 0.0091(12) 0.0060(11) -0.0045(10)
C4 0.0222(14) 0.0381(16) 0.0391(17) -0.0004(12) 0.0039(11) 0.0006(10)
C5 0.0297(15) 0.0351(17) 0.065(2) -0.0049(15) 0.0063(14) 0.0005(11)
C7 0.033(2) 0.089(3) 0.115(4) -0.074(3) -0.002(2) 0.0074(18)
C9 0.0326(16) 0.059(2) 0.046(2) -0.0044(15) 0.0040(13) 0.0051(13)
O1 0.0474(12) 0.0423(12) 0.0328(12) 0.0056(9) 0.0057(9) -0.0164(9)
O2 0.0538(13) 0.0410(13) 0.0330(12) 0.0043(9) 0.0075(10) -0.0147(9)
C6 0.0299(18) 0.048(2) 0.131(5) -0.040(2) 0.004(2) 0.0042(13)
F1A 0.042(2) 0.0226(19) 0.064(3) 0.0022(18) 0.0146(18) -0.0095(14)
C8 0.039(2) 0.116(4) 0.053(2) -0.045(3) -0.0026(17) 0.013(2)
F1B 0.125(7) 0.124(8) 0.092(7) 0.030(6) 0.003(5) -0.011(5)
F2A 0.064(3) 0.043(3) 0.068(5) -0.021(3) 0.006(3) -0.007(2)
F2B 0.060(3) 0.047(4) 0.053(4) -0.026(2) 0.010(2) -0.011(2)
loop_
_atom_type_symbol
_atom_type_description
_atom_type_scat_dispersion_real
_atom_type_scat_dispersion_imag
_atom_type_scat_source
C C 0.0033 0.0016 'International Tables Vol C Tables 4.2.6.8 and 6.1.1.4'
H H 0.0000 0.0000 'International Tables Vol C Tables 4.2.6.8 and 6.1.1.4'
O O 0.0106 0.0060 'International Tables Vol C Tables 4.2.6.8 and 6.1.1.4'
F F 0.0171 0.0103 'International Tables Vol C Tables 4.2.6.8 and 6.1.1.4'
loop_
_geom_angle_atom_site_label_1
_geom_angle_atom_site_label_2
_geom_angle_atom_site_label_3
_geom_angle
O1 C1 O2 123.5(3)
O1 C1 C2 121.8(3)
O2 C1 C2 114.7(2)
C3 C2 C1 121.0(2)
C3 C2 H2 119.5
C1 C2 H2 119.5
C2 C3 C4 127.5(3)
C2 C3 H3 116.3
C4 C3 H3 116.3
C9 C4 C5 118.6(3)
C9 C4 C3 118.9(3)
C5 C4 C3 122.6(3)
C6 C5 C4 119.5(4)
C6 C5 H5 120.2
C4 C5 H5 120.2
C6 C7 C8 121.1(4)
C6 C7 F2B 133.3(5)
C8 C7 F2B 105.5(5)
C6 C7 F2A 102.9(5)
C8 C7 F2A 135.9(5)
F2B C7 F2A 30.9(3)
C6 C7 F1B 154.1(5)
C8 C7 F1B 33.3(4)
F2B C7 F1B 72.5(5)
F2A C7 F1B 102.7(5)
C8 C9 C4 120.8(4)
C8 C9 H9 119.6
C4 C9 H9 119.6
C1 O2 H2A 109.5
F1A C6 C7 105.6(4)
F1A C6 C5 133.5(5)
C7 C6 C5 120.9(4)
F1B C8 C9 138.4(8)
F1B C8 C7 102.3(7)
C9 C8 C7 119.1(4)
C8 F1B C7 44.4(5)
F2B F2A C7 73.7(8)
F2A F2B C7 75.4(8)
loop_
_geom_bond_atom_site_label_1
_geom_bond_atom_site_label_2
_geom_bond_distance
C1 O1 1.250(3)
C1 O2 1.302(3)
C1 C2 1.473(4)
C2 C3 1.324(4)
C2 H2 0.9300
C3 C4 1.459(4)
C3 H3 0.9300
C4 C9 1.396(4)
C4 C5 1.400(4)
C5 C6 1.373(5)
C5 H5 0.9300
C7 C6 1.356(7)
C7 C8 1.375(7)
C7 F2B 1.395(7)
C7 F2A 1.407(7)
C7 F1B 1.920(10)
C9 C8 1.375(5)
C9 H9 0.9300
O2 H2A 0.8200
C6 F1A 1.217(5)
C8 F1B 1.078(10)
F2A F2B 0.747(6)
loop_
_geom_hbond_atom_site_label_D
_geom_hbond_atom_site_label_H
_geom_hbond_atom_site_label_A
_geom_hbond_distance_DH
_geom_hbond_distance_HA
_geom_hbond_distance_DA
_geom_hbond_angle_DHA
_geom_hbond_site_symmetry_A
C2 H2 O2 0.93 2.61 3.526(3) 168.3 3_765
O2 H2A O1 0.82 1.80 2.619(3) 173.8 3_655
C2 H2 O2 0.93 2.61 3.526(3) 168.3 3_765
O2 H2A O1 0.82 1.80 2.619(3) 173.8 3_655
loop_
_geom_torsion_atom_site_label_1
_geom_torsion_atom_site_label_2
_geom_torsion_atom_site_label_3
_geom_torsion_atom_site_label_4
_geom_torsion
O1 C1 C2 C3 2.0(4)
O2 C1 C2 C3 -178.1(2)
C1 C2 C3 C4 178.9(2)
C2 C3 C4 C9 -173.3(3)
C2 C3 C4 C5 7.4(4)
C9 C4 C5 C6 0.9(4)
C3 C4 C5 C6 -179.7(3)
C5 C4 C9 C8 -0.9(4)
C3 C4 C9 C8 179.7(3)
C8 C7 C6 F1A -179.3(4)
F2B C7 C6 F1A -2.1(7)
F2A C7 C6 F1A 3.9(5)
F1B C7 C6 F1A 174.7(8)
C8 C7 C6 C5 -0.8(5)
F2B C7 C6 C5 176.4(5)
F2A C7 C6 C5 -177.6(4)
F1B C7 C6 C5 -6.7(10)
C4 C5 C6 F1A 177.9(4)
C4 C5 C6 C7 -0.1(5)
C4 C9 C8 F1B 174.2(8)
C4 C9 C8 C7 0.0(5)
C6 C7 C8 F1B -175.2(6)
F2B C7 C8 F1B 6.9(7)
F2A C7 C8 F1B 0.3(9)
C6 C7 C8 C9 0.8(6)
F2B C7 C8 C9 -177.1(4)
F2A C7 C8 C9 176.3(5)
F1B C7 C8 C9 176.0(7)
C9 C8 F1B C7 -174.8(10)
C6 C7 F2A F2B -171.5(8)
C8 C7 F2A F2B 12.5(11)
F1B C7 F2A F2B 12.6(9)
C6 C7 F2B F2A 11.4(11)
C8 C7 F2B F2A -171.0(8)
F1B C7 F2B F2A -167.1(10)
