#------------------------------------------------------------------------------
#$Date: 2019-11-17 11:50:22 +0200 (Sun, 17 Nov 2019) $
#$Revision: 229702 $
#$URL: file:///home/coder/svn-repositories/cod/cif/7/04/61/7046129.cif $
#------------------------------------------------------------------------------
#
# This file is available in the Crystallography Open Database (COD),
# http://www.crystallography.net/
#
# All data on this site have been placed in the public domain by the
# contributors.
#
data_7046129
loop_
_publ_author_name
'Sun, Ai-Huan'
'Wei, Qi'
'Fu, Ai-Ping'
'Han, Song-De'
'Li, Jin-Hua'
'Wang, Guo-Ming'
_publ_section_title
;
 Syntheses, structures and efficient visible light-driven photocatalytic
 properties of layered cuprous halides based on two types of building
 units.
;
_journal_issue                   20
_journal_name_full
'Dalton transactions (Cambridge, England : 2003)'
_journal_page_first              6965
_journal_page_last               6972
_journal_paper_doi               10.1039/c7dt04733a
_journal_volume                  47
_journal_year                    2018
_chemical_formula_moiety         'C9 H6.46 F1.55 O2'
_chemical_formula_sum            'C9 H6.46 F1.55 O2'
_chemical_formula_weight         175.92
_space_group_crystal_system      monoclinic
_space_group_IT_number           14
_space_group_name_Hall           '-P 2ybc'
_space_group_name_H-M_alt        'P 1 21/c 1'
_symmetry_space_group_name_Hall  '-P 2ybc'
_symmetry_space_group_name_H-M   'P 1 21/c 1'
_atom_sites_solution_hydrogens   geom
_audit_creation_method           SHELXL-2014/7
_audit_update_record
;
2018-03-28 deposited with the CCDC.
2018-04-09 downloaded from the CCDC.
;
_cell_angle_alpha                90
_cell_angle_beta                 91.47(3)
_cell_angle_gamma                90
_cell_formula_units_Z            4
_cell_length_a                   6.348(11)
_cell_length_b                   3.765(7)
_cell_length_c                   32.16(6)
_cell_measurement_reflns_used    952
_cell_measurement_temperature    100(2)
_cell_measurement_theta_max      27.5
_cell_measurement_theta_min      2.5
_cell_volume                     768(2)
_computing_structure_refinement  'SHELXL-2014/7 (Sheldrick, 2014)'
_diffrn_ambient_temperature      100(2)
_diffrn_measured_fraction_theta_full 0.937
_diffrn_measured_fraction_theta_max 0.938
_diffrn_measurement_device_type  CCD
_diffrn_radiation_type           MoK\a
_diffrn_radiation_wavelength     0.71073
_diffrn_reflns_av_R_equivalents  0.1578
_diffrn_reflns_av_unetI/netI     0.1198
_diffrn_reflns_Laue_measured_fraction_full 0.937
_diffrn_reflns_Laue_measured_fraction_max 0.938
_diffrn_reflns_limit_h_max       8
_diffrn_reflns_limit_h_min       -8
_diffrn_reflns_limit_k_max       4
_diffrn_reflns_limit_k_min       -4
_diffrn_reflns_limit_l_max       41
_diffrn_reflns_limit_l_min       -41
_diffrn_reflns_number            4859
_diffrn_reflns_point_group_measured_fraction_full 0.937
_diffrn_reflns_point_group_measured_fraction_max 0.938
_diffrn_reflns_theta_full        25.242
_diffrn_reflns_theta_max         27.500
_diffrn_reflns_theta_min         1.267
_exptl_absorpt_coefficient_mu    0.131
_exptl_crystal_colour            colourless
_exptl_crystal_density_diffrn    1.522
_exptl_crystal_description       needle
_exptl_crystal_F_000             361.4
_refine_diff_density_max         0.605
_refine_diff_density_min         -0.617
_refine_diff_density_rms         0.140
_refine_ls_extinction_method     none
_refine_ls_goodness_of_fit_ref   1.057
_refine_ls_hydrogen_treatment    constr
_refine_ls_matrix_type           full
_refine_ls_number_parameters     120
_refine_ls_number_reflns         1653
_refine_ls_number_restraints     0
_refine_ls_restrained_S_all      1.057
_refine_ls_R_factor_all          0.1389
_refine_ls_R_factor_gt           0.1082
_refine_ls_shift/su_max          0.000
_refine_ls_shift/su_mean         0.000
_refine_ls_structure_factor_coef Fsqd
_refine_ls_weighting_details
'w=1/[\s^2^(Fo^2^)+(0.1932P)^2^+0.1101P] where P=(Fo^2^+2Fc^2^)/3'
_refine_ls_weighting_scheme      calc
_refine_ls_wR_factor_gt          0.2826
_refine_ls_wR_factor_ref         0.3252
_reflns_Friedel_coverage         0.000
_reflns_number_gt                1085
_reflns_number_total             1653
_reflns_threshold_expression     'I > 2\s(I)'
_cod_data_source_file            c7dt04733a2.cif
_cod_data_source_block           17
_cod_depositor_comments
'Adding full bibliography for 7046123--7046152.cif.'
_cod_database_code               7046129
_shelx_shelxl_version_number     2014/7
_shelx_space_group_comment
;
The symmetry employed for this shelxl refinement is uniquely defined
by the following loop, which should always be used as a source of
symmetry information in preference to the above space-group names.
They are only intended as comments.
;
_shelx_res_file
;

    shelx.res created by SHELXL-2014/7

TITL datam in P2(1)/c
CELL  0.71073   6.3481   3.7648  32.1639   90.000   91.471   90.000
ZERR    17.00   0.0114   0.0067   0.0563    0.000    0.025    0.000
LATT   1
SYMM  - X, 1/2 + Y, 1/2 - Z
SFAC  C    H    O    F
UNIT  17 17 17 17
MERG   2
OMIT    -2.00  55.00
EQIV $1 -x+1, -y-1, -z
HTAB C2 O2_$1
EQIV $2 -x+2, y-1/2, -z+1/2
HTAB C7 F2_$2
EQIV $3 -x, -y, -z
HTAB O2 O1_$3
OMIT     1   1   2
FMAP   2
PLAN   20
ACTA
HTAB    2.00000
BOND
BOND   $H
CONF
L.S.  50
TEMP  -173.00
WGHT    0.193200    0.110100
FVAR       4.17203   0.45541
MOLE    1
C1    1    0.232218   -0.147055    0.035375    11.00000    0.03061    0.02664 =
         0.02891   -0.00049    0.00798    0.00314
C2    1    0.411681   -0.265822    0.061334    11.00000    0.02813    0.02684 =
         0.03198   -0.00039    0.00833    0.00549
AFIX  43
H2    2    0.525328   -0.388486    0.049125    11.00000   -1.20000
AFIX   0
C3    1    0.415408   -0.200771    0.102635    11.00000    0.02745    0.02350 =
         0.02979    0.00241    0.00254    0.00244
AFIX  43
H3    2    0.298991   -0.074671    0.113312    11.00000   -1.20000
AFIX   0
C4    1    0.583115   -0.306867    0.132797    11.00000    0.02431    0.01849 =
         0.03833    0.00158    0.00641   -0.00309
C5    1    0.556290   -0.249088    0.174944    11.00000    0.02132    0.02839 =
         0.03945   -0.00228    0.00321   -0.00148
C6    1    0.707968   -0.333336    0.204663    11.00000    0.03487    0.04065 =
         0.03441   -0.00234   -0.00779   -0.00470
PART    1
AFIX  43
H6    2    0.682658   -0.291434    0.233230    21.00000   -1.20000
AFIX   0
PART    2
F2    4    0.684605   -0.243179    0.240964   -21.00000    0.06883    0.12799 =
         0.04682    0.00263    0.00378   -0.00252
PART    0
C7    1    0.895861   -0.477993    0.192963    11.00000    0.02612    0.03342 =
         0.05184    0.00513   -0.00942   -0.00300
AFIX  43
H7    2    1.001656   -0.535190    0.213295    11.00000   -1.20000
AFIX   0
C8    1    0.929776   -0.539988    0.151024    11.00000    0.02380    0.02663 =
         0.06415    0.00113    0.00170    0.00139
AFIX  43
H8    2    1.059081   -0.641758    0.142756    11.00000   -1.20000
AFIX   0
C9    1    0.776889   -0.454773    0.121241    11.00000    0.02944    0.02249 =
         0.04699   -0.00026    0.01087    0.00278
AFIX  43
H9    2    0.802869   -0.496450    0.092697    11.00000   -1.20000
AFIX   0
O1    3    0.079169    0.020624    0.049873    11.00000    0.03122    0.04041 =
         0.03031   -0.00404    0.00489    0.01006
O2    3    0.241924   -0.235989   -0.003679    11.00000    0.03569    0.04624 =
         0.02570   -0.00346    0.00385    0.01219
AFIX 147
H2A   2    0.131186   -0.170970   -0.016355    11.00000   -1.50000
AFIX   0
F1    4    0.372662   -0.104585    0.187461    11.00000    0.02523    0.06557 =
         0.03217   -0.00842    0.00340    0.00615
HKLF    4

REM  datam in P2(1)/c
REM R1 =  0.1082 for    1085 Fo > 4sig(Fo)  and  0.1389 for all    1653 data
REM    120 parameters refined using      0 restraints

END

WGHT      0.1898      0.0000

REM Instructions for potential hydrogen bonds
HTAB C2 O2_$1
HTAB C7 F2_$2
HTAB O2 O1_$3

REM Highest difference peak  0.605,  deepest hole -0.617,  1-sigma level  0.140
Q1    1  -0.1523  0.0634  0.0646  11.00000  0.05    0.45
Q2    1   0.4023 -0.2356  0.2395  11.00000  0.05    0.43
Q3    1   0.4857  0.2728  0.1930  11.00000  0.05    0.39
Q4    1   0.4948  0.1871  0.2007  11.00000  0.05    0.38
Q5    1   0.6621 -0.3474  0.2001  11.00000  0.05    0.36
Q6    1   0.6685 -0.7859  0.1231  11.00000  0.05    0.35
Q7    1   0.4964 -0.6487  0.1991  11.00000  0.05    0.35
Q8    1   0.3928 -0.5562  0.0293  11.00000  0.05    0.34
Q9    1   0.2191 -0.4668  0.0102  11.00000  0.05    0.33
Q10   1   0.8536 -0.7392  0.2284  11.00000  0.05    0.33
Q11   1   0.4572 -0.6096  0.0391  11.00000  0.05    0.33
Q12   1   0.1075  0.2638  0.0309  11.00000  0.05    0.33
Q13   1   0.5766 -0.0627  0.1604  11.00000  0.05    0.33
Q14   1   0.6411 -0.3657  0.0085  11.00000  0.05    0.32
Q15   1   0.5214 -0.5666  0.1513  11.00000  0.05    0.32
Q16   1   0.8143 -0.2584  0.0995  11.00000  0.05    0.31
Q17   1   0.6416 -0.7399  0.2205  11.00000  0.05    0.31
Q18   1   0.7142  0.0815  0.1411  11.00000  0.05    0.31
Q19   1   0.4368  0.0350  0.0883  11.00000  0.05    0.31
Q20   1   0.7581 -0.7761  0.1628  11.00000  0.05    0.31
;
_shelx_res_checksum              96128
loop_
_space_group_symop_operation_xyz
'x, y, z'
'-x, y+1/2, -z+1/2'
'-x, -y, -z'
'x, -y-1/2, z-1/2'
loop_
_atom_site_label
_atom_site_type_symbol
_atom_site_fract_x
_atom_site_fract_y
_atom_site_fract_z
_atom_site_U_iso_or_equiv
_atom_site_adp_type
_atom_site_occupancy
_atom_site_site_symmetry_order
_atom_site_calc_flag
_atom_site_refinement_flags_posn
_atom_site_refinement_flags_adp
_atom_site_refinement_flags_occupancy
_atom_site_disorder_assembly
_atom_site_disorder_group
C1 C 0.2322(6) -0.1471(10) 0.03537(11) 0.0286(8) Uani 1 1 d . . . . .
C2 C 0.4117(6) -0.2658(10) 0.06133(11) 0.0288(9) Uani 1 1 d . . . . .
H2 H 0.5253 -0.3885 0.0491 0.035 Uiso 1 1 calc R U . . .
C3 C 0.4154(6) -0.2008(10) 0.10264(11) 0.0269(8) Uani 1 1 d . . . . .
H3 H 0.2990 -0.0747 0.1133 0.032 Uiso 1 1 calc R U . . .
C4 C 0.5831(6) -0.3069(9) 0.13280(12) 0.0269(8) Uani 1 1 d . . . . .
C5 C 0.5563(6) -0.2491(10) 0.17494(12) 0.0297(9) Uani 1 1 d . . . . .
C6 C 0.7080(7) -0.3333(12) 0.20466(12) 0.0368(10) Uani 1 1 d . . . . .
H6 H 0.6827 -0.2914 0.2332 0.044 Uiso 0.455(6) 1 calc R U P A 1
F2 F 0.6846(11) -0.243(2) 0.24096(18) 0.081(2) Uani 0.545(6) 1 d . . P A 2
C7 C 0.8959(6) -0.4780(11) 0.19296(13) 0.0373(10) Uani 1 1 d . . . . .
H7 H 1.0017 -0.5352 0.2133 0.045 Uiso 1 1 calc R U . . .
C8 C 0.9298(6) -0.5400(10) 0.15102(14) 0.0382(10) Uani 1 1 d . . . . .
H8 H 1.0591 -0.6418 0.1428 0.046 Uiso 1 1 calc R U . . .
C9 C 0.7769(6) -0.4548(9) 0.12124(13) 0.0328(9) Uani 1 1 d . . . . .
H9 H 0.8029 -0.4964 0.0927 0.039 Uiso 1 1 calc R U . . .
O1 O 0.0792(4) 0.0206(8) 0.04987(8) 0.0339(7) Uani 1 1 d . . . . .
O2 O 0.2419(4) -0.2360(8) -0.00368(8) 0.0358(8) Uani 1 1 d . . . . .
H2A H 0.1312 -0.1710 -0.0164 0.054 Uiso 1 1 calc R U . . .
F1 F 0.3727(3) -0.1046(7) 0.18746(6) 0.0409(8) Uani 1 1 d . . . . .
loop_
_atom_site_aniso_label
_atom_site_aniso_U_11
_atom_site_aniso_U_22
_atom_site_aniso_U_33
_atom_site_aniso_U_23
_atom_site_aniso_U_13
_atom_site_aniso_U_12
C1 0.0306(19) 0.0266(18) 0.0289(17) -0.0005(14) 0.0080(14) 0.0031(15)
C2 0.028(2) 0.0268(18) 0.0320(19) -0.0004(14) 0.0083(14) 0.0055(15)
C3 0.0274(19) 0.0235(17) 0.0298(18) 0.0024(14) 0.0025(14) 0.0024(14)
C4 0.0243(18) 0.0185(16) 0.0383(19) 0.0016(14) 0.0064(14) -0.0031(14)
C5 0.0213(18) 0.028(2) 0.039(2) -0.0023(15) 0.0032(14) -0.0015(14)
C6 0.035(2) 0.041(2) 0.034(2) -0.0023(18) -0.0078(16) -0.0047(18)
F2 0.069(4) 0.128(6) 0.047(3) 0.003(3) 0.004(3) -0.003(4)
C7 0.0261(19) 0.033(2) 0.052(2) 0.0051(18) -0.0094(17) -0.0030(16)
C8 0.0238(19) 0.0266(19) 0.064(3) 0.0011(19) 0.0017(17) 0.0014(15)
C9 0.0294(19) 0.0225(17) 0.047(2) -0.0003(16) 0.0109(16) 0.0028(15)
O1 0.0312(15) 0.0404(16) 0.0303(13) -0.0040(11) 0.0049(10) 0.0101(12)
O2 0.0357(16) 0.0462(17) 0.0257(13) -0.0035(12) 0.0038(11) 0.0122(14)
F1 0.0252(12) 0.0656(18) 0.0322(11) -0.0084(11) 0.0034(9) 0.0061(11)
loop_
_atom_type_symbol
_atom_type_description
_atom_type_scat_dispersion_real
_atom_type_scat_dispersion_imag
_atom_type_scat_source
C C 0.0033 0.0016 'International Tables Vol C Tables 4.2.6.8 and 6.1.1.4'
H H 0.0000 0.0000 'International Tables Vol C Tables 4.2.6.8 and 6.1.1.4'
O O 0.0106 0.0060 'International Tables Vol C Tables 4.2.6.8 and 6.1.1.4'
F F 0.0171 0.0103 'International Tables Vol C Tables 4.2.6.8 and 6.1.1.4'
loop_
_geom_angle_atom_site_label_1
_geom_angle_atom_site_label_2
_geom_angle_atom_site_label_3
_geom_angle
O1 C1 O2 122.8(3)
O1 C1 C2 122.6(3)
O2 C1 C2 114.6(3)
C3 C2 C1 119.9(3)
C3 C2 H2 120.0
C1 C2 H2 120.0
C2 C3 C4 126.2(4)
C2 C3 H3 116.9
C4 C3 H3 116.9
C5 C4 C9 116.7(4)
C5 C4 C3 119.7(3)
C9 C4 C3 123.6(4)
F1 C5 C6 118.5(4)
F1 C5 C4 118.7(3)
C6 C5 C4 122.8(4)
F2 C6 C7 119.8(5)
F2 C6 C5 119.8(5)
C7 C6 C5 119.9(4)
C7 C6 H6 120.1
C5 C6 H6 120.1
C6 C7 C8 119.3(4)
C6 C7 H7 120.3
C8 C7 H7 120.3
C9 C8 C7 120.6(4)
C9 C8 H8 119.7
C7 C8 H8 119.7
C8 C9 C4 120.7(4)
C8 C9 H9 119.6
C4 C9 H9 119.6
C1 O2 H2A 109.5
loop_
_geom_bond_atom_site_label_1
_geom_bond_atom_site_label_2
_geom_bond_distance
C1 O1 1.258(5)
C1 O2 1.303(5)
C1 C2 1.465(5)
C2 C3 1.350(6)
C2 H2 0.9500
C3 C4 1.477(5)
C3 H3 0.9500
C4 C5 1.388(6)
C4 C9 1.409(5)
C5 F1 1.357(5)
C5 C6 1.376(5)
C6 F2 1.229(7)
C6 C7 1.373(6)
C6 H6 0.9500
C7 C8 1.391(6)
C7 H7 0.9500
C8 C9 1.384(6)
C8 H8 0.9500
C9 H9 0.9500
O2 H2A 0.8400
loop_
_geom_hbond_atom_site_label_D
_geom_hbond_atom_site_label_H
_geom_hbond_atom_site_label_A
_geom_hbond_distance_DH
_geom_hbond_distance_HA
_geom_hbond_distance_DA
_geom_hbond_angle_DHA
_geom_hbond_site_symmetry_A
C2 H2 O2 0.95 2.54 3.464(6) 165.8 3_645
C7 H7 F2 0.95 2.57 3.509(9) 171.0 2_745
O2 H2A O1 0.84 1.79 2.620(5) 171.3 3
loop_
_geom_torsion_atom_site_label_1
_geom_torsion_atom_site_label_2
_geom_torsion_atom_site_label_3
_geom_torsion_atom_site_label_4
_geom_torsion
O1 C1 C2 C3 1.0(6)
O2 C1 C2 C3 -177.5(3)
C1 C2 C3 C4 179.2(3)
C2 C3 C4 C5 -174.2(4)
C2 C3 C4 C9 8.2(6)
C9 C4 C5 F1 179.5(3)
C3 C4 C5 F1 1.8(5)
C9 C4 C5 C6 -0.7(6)
C3 C4 C5 C6 -178.4(3)
F1 C5 C6 F2 -7.7(7)
C4 C5 C6 F2 172.5(5)
F1 C5 C6 C7 -179.6(3)
C4 C5 C6 C7 0.6(6)
F2 C6 C7 C8 -172.4(6)
C5 C6 C7 C8 -0.5(6)
C6 C7 C8 C9 0.5(6)
C7 C8 C9 C4 -0.6(6)
C5 C4 C9 C8 0.7(5)
C3 C4 C9 C8 178.3(3)
