#------------------------------------------------------------------------------
#$Date: 2019-11-17 11:50:22 +0200 (Sun, 17 Nov 2019) $
#$Revision: 229702 $
#$URL: file:///home/coder/svn-repositories/cod/cif/7/04/61/7046134.cif $
#------------------------------------------------------------------------------
#
# This file is available in the Crystallography Open Database (COD),
# http://www.crystallography.net/
#
# All data on this site have been placed in the public domain by the
# contributors.
#
data_7046134
loop_
_publ_author_name
'Sun, Ai-Huan'
'Wei, Qi'
'Fu, Ai-Ping'
'Han, Song-De'
'Li, Jin-Hua'
'Wang, Guo-Ming'
_publ_section_title
;
 Syntheses, structures and efficient visible light-driven photocatalytic
 properties of layered cuprous halides based on two types of building
 units.
;
_journal_issue                   20
_journal_name_full
'Dalton transactions (Cambridge, England : 2003)'
_journal_page_first              6965
_journal_page_last               6972
_journal_paper_doi               10.1039/c7dt04733a
_journal_volume                  47
_journal_year                    2018
_chemical_formula_moiety         'C9 H6.56 F1.44 O2'
_chemical_formula_sum            'C9 H6.56 F1.44 O2'
_chemical_formula_weight         174.12
_space_group_crystal_system      monoclinic
_space_group_IT_number           14
_space_group_name_Hall           '-P 2ybc'
_space_group_name_H-M_alt        'P 1 21/c 1'
_symmetry_space_group_name_Hall  '-P 2ybc'
_symmetry_space_group_name_H-M   'P 1 21/c 1'
_atom_sites_solution_hydrogens   geom
_audit_creation_method           SHELXL-2014/7
_audit_update_record
;
2018-03-28 deposited with the CCDC.
2018-04-09 downloaded from the CCDC.
;
_cell_angle_alpha                90
_cell_angle_beta                 90.63
_cell_angle_gamma                90
_cell_formula_units_Z            4
_cell_length_a                   6.385
_cell_length_b                   3.783
_cell_length_c                   31.456
_cell_measurement_reflns_used    858
_cell_measurement_temperature    293(2)
_cell_measurement_theta_max      27.5
_cell_measurement_theta_min      2.7
_cell_volume                     759.757
_computing_structure_refinement  'SHELXL-2014/7 (Sheldrick, 2014)'
_diffrn_ambient_temperature      293(2)
_diffrn_measured_fraction_theta_full 0.964
_diffrn_measured_fraction_theta_max 0.967
_diffrn_measurement_device_type  CCD
_diffrn_radiation_type           MoK\a
_diffrn_radiation_wavelength     0.71073
_diffrn_reflns_av_R_equivalents  0.2030
_diffrn_reflns_av_unetI/netI     0.1768
_diffrn_reflns_Laue_measured_fraction_full 0.964
_diffrn_reflns_Laue_measured_fraction_max 0.967
_diffrn_reflns_limit_h_max       8
_diffrn_reflns_limit_h_min       -8
_diffrn_reflns_limit_k_max       4
_diffrn_reflns_limit_k_min       -4
_diffrn_reflns_limit_l_max       40
_diffrn_reflns_limit_l_min       -40
_diffrn_reflns_number            5471
_diffrn_reflns_point_group_measured_fraction_full 0.964
_diffrn_reflns_point_group_measured_fraction_max 0.967
_diffrn_reflns_theta_full        25.242
_diffrn_reflns_theta_max         27.489
_diffrn_reflns_theta_min         1.295
_exptl_absorpt_coefficient_mu    0.130
_exptl_crystal_colour            colourless
_exptl_crystal_density_diffrn    1.522
_exptl_crystal_description       plate
_exptl_crystal_F_000             358.2
_refine_diff_density_max         0.749
_refine_diff_density_min         -0.510
_refine_diff_density_rms         0.102
_refine_ls_extinction_method     none
_refine_ls_goodness_of_fit_ref   1.010
_refine_ls_hydrogen_treatment    constr
_refine_ls_matrix_type           full
_refine_ls_number_parameters     125
_refine_ls_number_reflns         1679
_refine_ls_number_restraints     0
_refine_ls_restrained_S_all      1.010
_refine_ls_R_factor_all          0.1520
_refine_ls_R_factor_gt           0.1101
_refine_ls_shift/su_max          0.000
_refine_ls_shift/su_mean         0.000
_refine_ls_structure_factor_coef Fsqd
_refine_ls_weighting_details
'w=1/[\s^2^(Fo^2^)+(0.1953P)^2^] where P=(Fo^2^+2Fc^2^)/3'
_refine_ls_weighting_scheme      calc
_refine_ls_wR_factor_gt          0.2825
_refine_ls_wR_factor_ref         0.3310
_reflns_Friedel_coverage         0.000
_reflns_number_gt                983
_reflns_number_total             1679
_reflns_threshold_expression     'I > 2\s(I)'
_cod_data_source_file            c7dt04733a2.cif
_cod_data_source_block           22
_cod_depositor_comments
'Adding full bibliography for 7046123--7046152.cif.'
_cod_original_cell_volume        759.8
_cod_database_code               7046134
_shelx_shelxl_version_number     2014/7
_shelx_space_group_comment
;
The symmetry employed for this shelxl refinement is uniquely defined
by the following loop, which should always be used as a source of
symmetry information in preference to the above space-group names.
They are only intended as comments.
;
_shelx_res_file
;

    shelx.res created by SHELXL-2014/7

TITL datam in P2(1)/c
CELL  0.71073   6.3850   3.7830  31.4560   90.000   90.629   90.000
ZERR     4.00   0.0000   0.0000   0.0000    0.000    0.000    0.000
LATT   1
SYMM  - X, 1/2 + Y, 1/2 - Z
SFAC  C    H    O    F
UNIT  17 17 17 17
MERG   2
OMIT    -2.00  55.00
OMIT     1   1   8
OMIT     0   0   4
OMIT    -2   0   6
EQIV $1 -x, -y-1, -z
HTAB C2 O2_$1
EQIV $2 -x+1, -y, -z
HTAB O2 O1_$2
HTAB C2 O2_$1
HTAB O2 O1_$2
EADP F1 F2A
OMIT     1   1   7
OMIT     3   0   2
OMIT    -2   0  22
OMIT    -4   2  12
FMAP   2
PLAN   20
ACTA
BOND
BOND   $H
CONF
L.S.  50
WGHT    0.195300
FVAR       0.46743   0.47363   0.74108   0.34179
MOLE    1
C1    1    0.275173   -0.148182    0.035866    11.00000    0.03709    0.02963 =
         0.02756   -0.00048   -0.00615   -0.00141
C2    1    0.097966   -0.264119    0.061710    11.00000    0.03609    0.02906 =
         0.03046   -0.00043   -0.00691   -0.00218
AFIX  43
H2    2   -0.013507   -0.383303    0.048943    11.00000   -1.20000
AFIX   0
C3    1    0.095726   -0.199413    0.103560    11.00000    0.03576    0.02527 =
         0.03122    0.00126   -0.00800    0.00029
AFIX  43
H3    2    0.210481   -0.078933    0.114845    11.00000   -1.20000
AFIX   0
C4    1   -0.066270   -0.297202    0.132982    11.00000    0.03499    0.02168 =
         0.03284    0.00012   -0.00389    0.00107
C5    1   -0.034515   -0.235803    0.176543    11.00000    0.03195    0.03238 =
         0.03494   -0.00027   -0.00929    0.00388
PART    1
AFIX  43
H5    2    0.090974   -0.136494    0.185917    21.00000   -1.20000
AFIX   0
PART    2
F1    4    0.140844   -0.091371    0.190416   -21.00000    0.08543    0.09515 =
         0.05602   -0.00926   -0.00854   -0.00059
PART    0
C6    1   -0.186991   -0.320623    0.205862    11.00000    0.04670    0.04439 =
         0.03890    0.00580    0.00401    0.00512
PART    1
AFIX  43
H6    2   -0.164249   -0.277602    0.234653    31.00000   -1.20000
AFIX   0
PART    2
F2A   4   -0.167918   -0.262962    0.245022   -31.00000    0.08543    0.09515 =
         0.05602   -0.00926   -0.00854   -0.00059
PART    0
C7    1   -0.374316   -0.470633    0.191864    11.00000    0.04617    0.03316 =
         0.06174    0.00788    0.01120   -0.00087
PART    1
AFIX  43
H7    2   -0.476755   -0.529907    0.211409    41.00000   -1.20000
AFIX   0
PART    2
F3    4   -0.518607   -0.557599    0.216530   -41.00000    0.09575    0.11878 =
         0.10823    0.02527    0.02936   -0.00856
PART    0
C8    1   -0.408754   -0.531712    0.149254    11.00000    0.02731    0.03563 =
         0.07279    0.00061   -0.00111   -0.00100
AFIX  43
H8    2   -0.534777   -0.630797    0.140151    11.00000   -1.20000
AFIX   0
C9    1   -0.259121   -0.447857    0.120182    11.00000    0.03804    0.02752 =
         0.04740   -0.00091   -0.00799   -0.00052
AFIX  43
H9    2   -0.284828   -0.490804    0.091486    11.00000   -1.20000
AFIX   0
O1    3    0.424712    0.023536    0.050944    11.00000    0.04219    0.03967 =
         0.03048   -0.00335   -0.00464   -0.01141
O2    3    0.264124   -0.236716   -0.004278    11.00000    0.04847    0.05122 =
         0.02688   -0.00474   -0.00479   -0.00898
AFIX 147
H2A   2    0.353161   -0.127948   -0.017564    11.00000   -1.50000
AFIX   0
HKLF    4

REM  datam in P2(1)/c
REM R1 =  0.1101 for     983 Fo > 4sig(Fo)  and  0.1520 for all    1679 data
REM    125 parameters refined using      0 restraints

END

WGHT      0.1799      0.0000

REM Highest difference peak  0.749,  deepest hole -0.510,  1-sigma level  0.102
Q1    1  -0.5783 -0.6842  0.1524  11.00000  0.05    0.75
Q2    1  -0.0878 -0.7073  0.1872  11.00000  0.05    0.30
Q3    1  -0.0385  0.0051  0.0708  11.00000  0.05    0.27
Q4    1   0.2104 -0.5385  0.1881  11.00000  0.05    0.26
Q5    1  -0.5646 -0.9551  0.2121  11.00000  0.05    0.24
Q6    1   0.3651 -0.0498  0.1946  11.00000  0.05    0.24
Q7    1  -0.4220 -0.9459  0.1768  11.00000  0.05    0.23
Q8    1  -0.5018 -0.9454  0.1382  11.00000  0.05    0.23
Q9    1  -0.1128 -0.6947  0.1579  11.00000  0.05    0.23
Q10   1  -0.2815 -0.7296  0.2205  11.00000  0.05    0.22
Q11   1  -0.0281 -0.6966  0.0791  11.00000  0.05    0.22
Q12   1   0.0279 -0.0092  0.1011  11.00000  0.05    0.22
Q13   1  -0.4375 -0.0710  0.2202  11.00000  0.05    0.22
Q14   1   0.1012 -0.5024 -0.0010  11.00000  0.05    0.22
Q15   1  -0.1924 -0.0127  0.1814  11.00000  0.05    0.21
Q16   1   0.3259  0.2100 -0.0103  11.00000  0.05    0.21
Q17   1  -0.0402 -0.0166  0.2426  11.00000  0.05    0.21
Q18   1   0.0155 -0.5530  0.1277  11.00000  0.05    0.21
Q19   1   0.0664 -0.1187  0.1003  11.00000  0.05    0.21
Q20   1  -0.1789 -0.1116  0.2994  11.00000  0.05    0.21
;
_shelx_res_checksum              80592
loop_
_space_group_symop_operation_xyz
'x, y, z'
'-x, y+1/2, -z+1/2'
'-x, -y, -z'
'x, -y-1/2, z-1/2'
loop_
_atom_site_label
_atom_site_type_symbol
_atom_site_fract_x
_atom_site_fract_y
_atom_site_fract_z
_atom_site_U_iso_or_equiv
_atom_site_adp_type
_atom_site_occupancy
_atom_site_site_symmetry_order
_atom_site_calc_flag
_atom_site_refinement_flags_posn
_atom_site_refinement_flags_adp
_atom_site_refinement_flags_occupancy
_atom_site_disorder_assembly
_atom_site_disorder_group
C1 C 0.2752(6) -0.1482(9) 0.03587(11) 0.0315(8) Uani 1 1 d . . . . .
C2 C 0.0980(6) -0.2641(9) 0.06171(11) 0.0319(9) Uani 1 1 d . . . . .
H2 H -0.0135 -0.3833 0.0489 0.038 Uiso 1 1 calc R U . . .
C3 C 0.0957(6) -0.1994(9) 0.10356(11) 0.0308(9) Uani 1 1 d . . . . .
H3 H 0.2105 -0.0789 0.1148 0.037 Uiso 1 1 calc R U . . .
C4 C -0.0663(6) -0.2972(9) 0.13298(11) 0.0299(8) Uani 1 1 d . . . . .
C5 C -0.0345(6) -0.2358(10) 0.17654(12) 0.0332(9) Uani 1 1 d . . . . .
H5 H 0.0910 -0.1365 0.1859 0.040 Uiso 0.474(9) 1 calc R U P A 1
F1 F 0.1408(11) -0.0914(18) 0.19042(19) 0.079(2) Uani 0.526(9) 1 d . . P A 2
C6 C -0.1870(7) -0.3206(11) 0.20586(13) 0.0433(10) Uani 1 1 d . . . . .
H6 H -0.1642 -0.2776 0.2347 0.052 Uiso 0.741(7) 1 calc R U P B 1
F2A F -0.168(2) -0.263(4) 0.2450(4) 0.079(2) Uani 0.259(7) 1 d . . P B 2
C7 C -0.3743(7) -0.4706(10) 0.19186(16) 0.0469(11) Uani 1 1 d . . . . .
H7 H -0.4768 -0.5299 0.2114 0.056 Uiso 0.342(11) 1 calc R U P C 1
F3 F -0.5186(11) -0.5576(18) 0.2165(2) 0.107(3) Uani 0.658(11) 1 d . . P C 2
C8 C -0.4088(6) -0.5317(11) 0.14925(16) 0.0453(11) Uani 1 1 d . . . . .
H8 H -0.5348 -0.6308 0.1402 0.054 Uiso 1 1 calc R U . . .
C9 C -0.2591(6) -0.4479(9) 0.12018(13) 0.0377(9) Uani 1 1 d . . . . .
H9 H -0.2848 -0.4908 0.0915 0.045 Uiso 1 1 calc R U . . .
O1 O 0.4247(4) 0.0235(7) 0.05094(8) 0.0375(7) Uani 1 1 d . . . . .
O2 O 0.2641(5) -0.2367(7) -0.00428(8) 0.0422(8) Uani 1 1 d . . . . .
H2A H 0.3532 -0.1279 -0.0176 0.063 Uiso 1 1 calc R U . . .
loop_
_atom_site_aniso_label
_atom_site_aniso_U_11
_atom_site_aniso_U_22
_atom_site_aniso_U_33
_atom_site_aniso_U_23
_atom_site_aniso_U_13
_atom_site_aniso_U_12
C1 0.0371(19) 0.0296(16) 0.0276(15) -0.0005(13) -0.0061(14) -0.0014(15)
C2 0.0361(19) 0.0291(17) 0.0305(17) -0.0004(13) -0.0069(14) -0.0022(15)
C3 0.0358(19) 0.0253(16) 0.0312(17) 0.0013(13) -0.0080(15) 0.0003(14)
C4 0.0350(19) 0.0217(16) 0.0328(18) 0.0001(12) -0.0039(14) 0.0011(14)
C5 0.0319(18) 0.0324(18) 0.0349(18) -0.0003(14) -0.0093(14) 0.0039(15)
F1 0.085(4) 0.095(4) 0.056(3) -0.009(3) -0.009(3) -0.001(3)
C6 0.047(2) 0.044(2) 0.0389(19) 0.0058(17) 0.0040(17) 0.0051(18)
F2A 0.085(4) 0.095(4) 0.056(3) -0.009(3) -0.009(3) -0.001(3)
C7 0.046(2) 0.0332(19) 0.062(3) 0.0079(18) 0.011(2) -0.0009(19)
F3 0.096(5) 0.119(5) 0.108(5) 0.025(4) 0.029(4) -0.009(4)
C8 0.0273(19) 0.036(2) 0.073(3) 0.0006(18) -0.0011(18) -0.0010(16)
C9 0.038(2) 0.0275(17) 0.047(2) -0.0009(15) -0.0080(17) -0.0005(15)
O1 0.0422(15) 0.0397(14) 0.0305(12) -0.0033(10) -0.0046(11) -0.0114(12)
O2 0.0485(18) 0.0512(17) 0.0269(13) -0.0047(12) -0.0048(11) -0.0090(14)
loop_
_atom_type_symbol
_atom_type_description
_atom_type_scat_dispersion_real
_atom_type_scat_dispersion_imag
_atom_type_scat_source
C C 0.0033 0.0016 'International Tables Vol C Tables 4.2.6.8 and 6.1.1.4'
H H 0.0000 0.0000 'International Tables Vol C Tables 4.2.6.8 and 6.1.1.4'
O O 0.0106 0.0060 'International Tables Vol C Tables 4.2.6.8 and 6.1.1.4'
F F 0.0171 0.0103 'International Tables Vol C Tables 4.2.6.8 and 6.1.1.4'
loop_
_geom_angle_atom_site_label_1
_geom_angle_atom_site_label_2
_geom_angle_atom_site_label_3
_geom_angle
O1 C1 O2 122.3(4)
O1 C1 C2 122.5(3)
O2 C1 C2 115.1(3)
C3 C2 C1 120.4(3)
C3 C2 H2 119.8
C1 C2 H2 119.8
C2 C3 C4 126.8(3)
C2 C3 H3 116.6
C4 C3 H3 116.6
C5 C4 C9 117.5(4)
C5 C4 C3 119.1(3)
C9 C4 C3 123.3(3)
F1 C5 C6 118.5(4)
F1 C5 C4 120.4(4)
C6 C5 C4 121.1(4)
C6 C5 H5 119.4
C4 C5 H5 119.4
F2A C6 C5 123.5(8)
F2A C6 C7 117.1(8)
C5 C6 C7 119.4(4)
C5 C6 H6 120.3
C7 C6 H6 120.3
F3 C7 C8 116.6(5)
F3 C7 C6 123.1(6)
C8 C7 C6 120.3(4)
C8 C7 H7 119.8
C6 C7 H7 119.8
C9 C8 C7 120.5(4)
C9 C8 H8 119.8
C7 C8 H8 119.8
C8 C9 C4 121.1(4)
C8 C9 H9 119.4
C4 C9 H9 119.4
C1 O2 H2A 109.5
loop_
_geom_bond_atom_site_label_1
_geom_bond_atom_site_label_2
_geom_bond_distance
C1 O1 1.244(4)
C1 O2 1.308(4)
C1 C2 1.468(5)
C2 C3 1.339(5)
C2 H2 0.9300
C3 C4 1.444(5)
C3 H3 0.9300
C4 C5 1.402(5)
C4 C9 1.411(5)
C5 F1 1.316(8)
C5 C6 1.386(6)
C5 H5 0.9300
C6 F2A 1.256(13)
C6 C7 1.391(6)
C6 H6 0.9300
C7 F3 1.255(8)
C7 C8 1.375(7)
C7 H7 0.9300
C8 C9 1.367(6)
C8 H8 0.9300
C9 H9 0.9300
O2 H2A 0.8200
loop_
_geom_hbond_atom_site_label_D
_geom_hbond_atom_site_label_H
_geom_hbond_atom_site_label_A
_geom_hbond_distance_DH
_geom_hbond_distance_HA
_geom_hbond_distance_DA
_geom_hbond_angle_DHA
_geom_hbond_site_symmetry_A
C2 H2 O2 0.93 2.56 3.476(4) 168.6 3_545
O2 H2A O1 0.82 1.82 2.611(4) 162.4 3_655
C2 H2 O2 0.93 2.56 3.476(4) 168.6 3_545
O2 H2A O1 0.82 1.82 2.611(4) 162.4 3_655
loop_
_geom_torsion_atom_site_label_1
_geom_torsion_atom_site_label_2
_geom_torsion_atom_site_label_3
_geom_torsion_atom_site_label_4
_geom_torsion
O1 C1 C2 C3 -2.7(5)
O2 C1 C2 C3 177.6(3)
C1 C2 C3 C4 -179.8(3)
C2 C3 C4 C5 174.4(3)
C2 C3 C4 C9 -6.7(6)
C9 C4 C5 F1 -179.0(4)
C3 C4 C5 F1 -0.1(6)
C9 C4 C5 C6 0.1(5)
C3 C4 C5 C6 179.0(3)
F1 C5 C6 F2A 0.9(11)
C4 C5 C6 F2A -178.2(8)
F1 C5 C6 C7 179.4(4)
C4 C5 C6 C7 0.3(6)
F2A C6 C7 F3 -2.1(11)
C5 C6 C7 F3 179.3(5)
F2A C6 C7 C8 178.1(8)
C5 C6 C7 C8 -0.5(6)
F3 C7 C8 C9 -179.4(5)
C6 C7 C8 C9 0.4(6)
C7 C8 C9 C4 0.0(6)
C5 C4 C9 C8 -0.2(5)
C3 C4 C9 C8 -179.1(3)
