#------------------------------------------------------------------------------
#$Date: 2019-11-17 11:50:22 +0200 (Sun, 17 Nov 2019) $
#$Revision: 229702 $
#$URL: file:///home/coder/svn-repositories/cod/cif/7/04/61/7046149.cif $
#------------------------------------------------------------------------------
#
# This file is available in the Crystallography Open Database (COD),
# http://www.crystallography.net/
#
# All data on this site have been placed in the public domain by the
# contributors.
#
data_7046149
loop_
_publ_author_name
'Sun, Ai-Huan'
'Wei, Qi'
'Fu, Ai-Ping'
'Han, Song-De'
'Li, Jin-Hua'
'Wang, Guo-Ming'
_publ_section_title
;
 Syntheses, structures and efficient visible light-driven photocatalytic
 properties of layered cuprous halides based on two types of building
 units.
;
_journal_issue                   20
_journal_name_full
'Dalton transactions (Cambridge, England : 2003)'
_journal_page_first              6965
_journal_page_last               6972
_journal_paper_doi               10.1039/c7dt04733a
_journal_volume                  47
_journal_year                    2018
_chemical_formula_moiety         'C9 H6.55 F1.45 O2'
_chemical_formula_sum            'C9 H6.55 F1.45 O2'
_chemical_formula_weight         174.31
_space_group_crystal_system      monoclinic
_space_group_IT_number           14
_space_group_name_Hall           '-P 2yn'
_space_group_name_H-M_alt        'P 1 21/n 1'
_symmetry_space_group_name_Hall  '-P 2yn'
_symmetry_space_group_name_H-M   'P 1 21/n 1'
_atom_sites_solution_hydrogens   geom
_audit_creation_method           SHELXL-2014/7
_audit_update_record
;
2018-03-28 deposited with the CCDC.
2018-04-09 downloaded from the CCDC.
;
_cell_angle_alpha                90
_cell_angle_beta                 90.79(2)
_cell_angle_gamma                90
_cell_formula_units_Z            4
_cell_length_a                   3.7420(13)
_cell_length_b                   6.613(3)
_cell_length_c                   31.174(15)
_cell_measurement_reflns_used    1524
_cell_measurement_temperature    293(2)
_cell_measurement_theta_max      27.5
_cell_measurement_theta_min      2.6
_cell_volume                     771.4(6)
_computing_structure_refinement  'SHELXL-2014/7 (Sheldrick, 2014)'
_diffrn_ambient_temperature      293(2)
_diffrn_measured_fraction_theta_full 0.961
_diffrn_measured_fraction_theta_max 0.966
_diffrn_measurement_device_type  CCD
_diffrn_radiation_type           MoK\a
_diffrn_radiation_wavelength     0.71073
_diffrn_reflns_av_R_equivalents  0.1472
_diffrn_reflns_av_unetI/netI     0.1075
_diffrn_reflns_Laue_measured_fraction_full 0.961
_diffrn_reflns_Laue_measured_fraction_max 0.966
_diffrn_reflns_limit_h_max       4
_diffrn_reflns_limit_h_min       -4
_diffrn_reflns_limit_k_max       8
_diffrn_reflns_limit_k_min       -8
_diffrn_reflns_limit_l_max       40
_diffrn_reflns_limit_l_min       -40
_diffrn_reflns_number            4687
_diffrn_reflns_point_group_measured_fraction_full 0.961
_diffrn_reflns_point_group_measured_fraction_max 0.966
_diffrn_reflns_theta_full        25.242
_diffrn_reflns_theta_max         27.500
_diffrn_reflns_theta_min         3.149
_exptl_absorpt_coefficient_mu    0.128
_exptl_crystal_colour            colourless
_exptl_crystal_density_diffrn    1.501
_exptl_crystal_description       plate
_exptl_crystal_F_000             358.5
_exptl_crystal_size_max          0.7
_exptl_crystal_size_mid          0.5
_exptl_crystal_size_min          0.4
_refine_diff_density_max         0.376
_refine_diff_density_min         -0.420
_refine_diff_density_rms         0.098
_refine_ls_extinction_method     none
_refine_ls_goodness_of_fit_ref   0.998
_refine_ls_hydrogen_treatment    constr
_refine_ls_matrix_type           full
_refine_ls_number_parameters     120
_refine_ls_number_reflns         1698
_refine_ls_number_restraints     0
_refine_ls_restrained_S_all      0.998
_refine_ls_R_factor_all          0.0948
_refine_ls_R_factor_gt           0.0784
_refine_ls_shift/su_max          0.000
_refine_ls_shift/su_mean         0.000
_refine_ls_structure_factor_coef Fsqd
_refine_ls_weighting_details
'w=1/[\s^2^(Fo^2^)+(0.1183P)^2^+0.1494P] where P=(Fo^2^+2Fc^2^)/3'
_refine_ls_weighting_scheme      calc
_refine_ls_wR_factor_gt          0.1968
_refine_ls_wR_factor_ref         0.2128
_reflns_Friedel_coverage         0.000
_reflns_number_gt                1304
_reflns_number_total             1698
_reflns_threshold_expression     'I > 2\s(I)'
_cod_data_source_file            c7dt04733a2.cif
_cod_data_source_block           9
_cod_depositor_comments
'Adding full bibliography for 7046123--7046152.cif.'
_cod_database_code               7046149
_shelx_shelxl_version_number     2014/7
_shelx_space_group_comment
;
The symmetry employed for this shelxl refinement is uniquely defined
by the following loop, which should always be used as a source of
symmetry information in preference to the above space-group names.
They are only intended as comments.
;
_shelx_res_file
;

    shelx.res created by SHELXL-2014/7

TITL datam in P2(1)/n
CELL  0.71073   3.7420   6.6134  31.1738   90.000   90.794   90.000
ZERR    18.00   0.0013   0.0028   0.0150    0.000    0.021    0.000
LATT   1
SYMM  1/2 - X, 1/2 + Y, 1/2 - Z
SFAC  C    H    O    F
UNIT  18 18 18 18
MERG   2
OMIT    -2.00  55.00
EQIV $1 -x+2, -y+1, -z
HTAB C2 O2_$1
EQIV $2 -x+1, -y, -z
HTAB O2 O1_$2
OMIT     0   0   2
OMIT    -3   6   3
OMIT     0   0   4
FMAP   2
PLAN   20
ACTA
BOND
BOND   $H
CONF
L.S.  50
WGHT    0.118300    0.149400
FVAR       0.72824   0.54627
MOLE    1
C1    1    0.652195    0.224788    0.034572    11.00000    0.02452    0.02279 =
         0.02071    0.00164    0.00274   -0.00077
C2    1    0.771128    0.399146    0.060030    11.00000    0.02645    0.02160 =
         0.02290    0.00041    0.00295   -0.00306
AFIX  43
H2    2    0.885707    0.505543    0.046386    11.00000   -1.20000
AFIX   0
C3    1    0.719539    0.409493    0.102282    11.00000    0.02063    0.01982 =
         0.02384    0.00326    0.00282   -0.00104
AFIX  43
H3    2    0.601798    0.301041    0.114772    11.00000   -1.20000
AFIX   0
C4    1    0.829071    0.573567    0.130823    11.00000    0.02022    0.02317 =
         0.02160    0.00091    0.00283    0.00179
C5    1    0.786092    0.554230    0.175113    11.00000    0.02592    0.02731 =
         0.02064    0.00429    0.00466   -0.00018
PART    1
AFIX  43
H5    2    0.687560    0.435530    0.185720    21.00000   -1.20000
AFIX   0
PART    2
F1    4    0.644803    0.380350    0.189977   -21.00000    0.04914    0.02445 =
         0.02345    0.00813    0.00872   -0.00189
PART    0
C6    1    0.884733    0.705321    0.203936    11.00000    0.03205    0.03621 =
         0.02008   -0.00272    0.00287    0.00269
AFIX  43
H6    2    0.855995    0.689623    0.233333    11.00000   -1.20000
AFIX   0
C7    1    1.026536    0.878766    0.186978    11.00000    0.02562    0.02919 =
         0.03053   -0.01040    0.00081    0.00048
C8    1    1.070862    0.908998    0.143604    11.00000    0.02513    0.02457 =
         0.03271   -0.00245    0.00632   -0.00312
AFIX  43
H8    2    1.164161    1.029732    0.133340    11.00000   -1.20000
AFIX   0
C9    1    0.973437    0.755825    0.115861    11.00000    0.02559    0.02474 =
         0.02167    0.00257    0.00510    0.00122
AFIX  43
H9    2    1.004051    0.773629    0.086548    11.00000   -1.20000
AFIX   0
O1    3    0.485374    0.080195    0.051554    11.00000    0.03782    0.02663 =
         0.02423    0.00096    0.00605   -0.00930
O2    3    0.729343    0.228762   -0.005602    11.00000    0.04819    0.02954 =
         0.01927   -0.00222    0.00611   -0.01218
AFIX 147
H2A   2    0.636567    0.131677   -0.017744    11.00000   -1.50000
AFIX   0
F2    4    1.126241    1.029869    0.214466    11.00000    0.04960    0.04295 =
         0.03868   -0.01905    0.00140   -0.00638
HKLF    4

REM  datam in P2(1)/n
REM R1 =  0.0784 for    1304 Fo > 4sig(Fo)  and  0.0948 for all    1698 data
REM    120 parameters refined using      0 restraints

END

WGHT      0.1135      0.0000

REM Highest difference peak  0.376,  deepest hole -0.420,  1-sigma level  0.098
Q1    1   0.7258  0.0823  0.0578  11.00000  0.05    0.38
Q2    1   0.7589  0.8508  0.1839  11.00000  0.05    0.37
Q3    1   0.6045  0.7115  0.1910  11.00000  0.05    0.34
Q4    1   0.2534  0.1602  0.0440  11.00000  0.05    0.34
Q5    1   0.8627  0.3834  0.1955  11.00000  0.05    0.33
Q6    1   0.9878  0.2843 -0.0013  11.00000  0.05    0.31
Q7    1   0.4897  0.5327  0.1782  11.00000  0.05    0.31
Q8    1   0.1856  0.0555  0.0448  11.00000  0.05    0.31
Q9    1   1.0504  0.6314  0.1283  11.00000  0.05    0.30
Q10   1   0.7327  0.2354  0.1890  11.00000  0.05    0.30
Q11   1   1.1057  0.7675  0.2007  11.00000  0.05    0.30
Q12   1   0.5897  0.5135  0.0492  11.00000  0.05    0.28
Q13   1   0.5549  0.0331 -0.0356  11.00000  0.05    0.27
Q14   1   0.8566  1.0372  0.2104  11.00000  0.05    0.27
Q15   1   1.2710  0.4687  0.0752  11.00000  0.05    0.26
Q16   1   1.1651  0.2637  0.0055  11.00000  0.05    0.26
Q17   1   1.0488  0.4349  0.0575  11.00000  0.05    0.26
Q18   1   1.5123  0.8557  0.1614  11.00000  0.05    0.25
Q19   1   1.2311  0.7424  0.1218  11.00000  0.05    0.25
Q20   1   0.4298  0.3640  0.1053  11.00000  0.05    0.24
;
_shelx_res_checksum              33219
loop_
_space_group_symop_operation_xyz
'x, y, z'
'-x+1/2, y+1/2, -z+1/2'
'-x, -y, -z'
'x-1/2, -y-1/2, z-1/2'
loop_
_atom_site_label
_atom_site_type_symbol
_atom_site_fract_x
_atom_site_fract_y
_atom_site_fract_z
_atom_site_U_iso_or_equiv
_atom_site_adp_type
_atom_site_occupancy
_atom_site_site_symmetry_order
_atom_site_calc_flag
_atom_site_refinement_flags_posn
_atom_site_refinement_flags_adp
_atom_site_refinement_flags_occupancy
_atom_site_disorder_assembly
_atom_site_disorder_group
C1 C 0.6522(6) 0.2248(3) 0.03457(7) 0.0227(5) Uani 1 1 d . . . . .
C2 C 0.7711(6) 0.3991(4) 0.06003(7) 0.0236(5) Uani 1 1 d . . . . .
H2 H 0.8857 0.5055 0.0464 0.028 Uiso 1 1 calc R U . . .
C3 C 0.7195(6) 0.4095(3) 0.10228(7) 0.0214(5) Uani 1 1 d . . . . .
H3 H 0.6018 0.3010 0.1148 0.026 Uiso 1 1 calc R U . . .
C4 C 0.8291(6) 0.5736(3) 0.13082(6) 0.0216(5) Uani 1 1 d . . . . .
C5 C 0.7861(6) 0.5542(4) 0.17511(7) 0.0246(5) Uani 1 1 d . . . . .
H5 H 0.6876 0.4355 0.1857 0.029 Uiso 0.546(7) 1 calc R U P A 1
F1 F 0.6448(9) 0.3803(5) 0.18998(9) 0.0323(12) Uani 0.454(7) 1 d . . P A 2
C6 C 0.8847(6) 0.7053(4) 0.20394(7) 0.0294(6) Uani 1 1 d . . . . .
H6 H 0.8560 0.6896 0.2333 0.035 Uiso 1 1 calc R U . . .
C7 C 1.0265(6) 0.8788(4) 0.18698(7) 0.0284(6) Uani 1 1 d . . . . .
C8 C 1.0709(6) 0.9090(4) 0.14360(7) 0.0274(6) Uani 1 1 d . . . . .
H8 H 1.1642 1.0297 0.1333 0.033 Uiso 1 1 calc R U . . .
C9 C 0.9734(6) 0.7558(4) 0.11586(7) 0.0240(5) Uani 1 1 d . . . . .
H9 H 1.0041 0.7736 0.0865 0.029 Uiso 1 1 calc R U . . .
O1 O 0.4854(5) 0.0802(3) 0.05155(5) 0.0295(5) Uani 1 1 d . . . . .
O2 O 0.7293(5) 0.2288(3) -0.00560(5) 0.0323(5) Uani 1 1 d . . . . .
H2A H 0.6366 0.1317 -0.0177 0.048 Uiso 1 1 calc R U . . .
F2 F 1.1262(4) 1.0299(3) 0.21447(5) 0.0437(5) Uani 1 1 d . . . . .
loop_
_atom_site_aniso_label
_atom_site_aniso_U_11
_atom_site_aniso_U_22
_atom_site_aniso_U_33
_atom_site_aniso_U_23
_atom_site_aniso_U_13
_atom_site_aniso_U_12
C1 0.0245(11) 0.0228(12) 0.0207(9) 0.0016(8) 0.0027(7) -0.0008(9)
C2 0.0265(11) 0.0216(12) 0.0229(10) 0.0004(8) 0.0030(8) -0.0031(9)
C3 0.0206(11) 0.0198(11) 0.0238(10) 0.0033(8) 0.0028(7) -0.0010(8)
C4 0.0202(11) 0.0232(12) 0.0216(10) 0.0009(8) 0.0028(8) 0.0018(9)
C5 0.0259(11) 0.0273(13) 0.0206(10) 0.0043(8) 0.0047(8) -0.0002(9)
F1 0.049(2) 0.0245(19) 0.0234(16) 0.0081(11) 0.0087(12) -0.0019(14)
C6 0.0321(12) 0.0362(15) 0.0201(10) -0.0027(9) 0.0029(8) 0.0027(10)
C7 0.0256(11) 0.0292(14) 0.0305(11) -0.0104(9) 0.0008(8) 0.0005(10)
C8 0.0251(12) 0.0246(12) 0.0327(12) -0.0024(9) 0.0063(9) -0.0031(9)
C9 0.0256(11) 0.0247(12) 0.0217(9) 0.0026(8) 0.0051(7) 0.0012(9)
O1 0.0378(10) 0.0266(10) 0.0242(8) 0.0010(6) 0.0061(7) -0.0093(7)
O2 0.0482(11) 0.0295(10) 0.0193(8) -0.0022(6) 0.0061(7) -0.0122(8)
F2 0.0496(10) 0.0429(11) 0.0387(9) -0.0190(7) 0.0014(7) -0.0064(7)
loop_
_atom_type_symbol
_atom_type_description
_atom_type_scat_dispersion_real
_atom_type_scat_dispersion_imag
_atom_type_scat_source
C C 0.0033 0.0016 'International Tables Vol C Tables 4.2.6.8 and 6.1.1.4'
H H 0.0000 0.0000 'International Tables Vol C Tables 4.2.6.8 and 6.1.1.4'
O O 0.0106 0.0060 'International Tables Vol C Tables 4.2.6.8 and 6.1.1.4'
F F 0.0171 0.0103 'International Tables Vol C Tables 4.2.6.8 and 6.1.1.4'
loop_
_geom_angle_atom_site_label_1
_geom_angle_atom_site_label_2
_geom_angle_atom_site_label_3
_geom_angle
O1 C1 O2 122.8(2)
O1 C1 C2 121.14(19)
O2 C1 C2 116.08(18)
C3 C2 C1 121.8(2)
C3 C2 H2 119.1
C1 C2 H2 119.1
C2 C3 C4 126.6(2)
C2 C3 H3 116.7
C4 C3 H3 116.7
C5 C4 C9 117.2(2)
C5 C4 C3 119.9(2)
C9 C4 C3 122.86(18)
F1 C5 C6 119.5(2)
F1 C5 C4 117.9(2)
C6 C5 C4 122.6(2)
C6 C5 H5 118.7
C4 C5 H5 118.7
C7 C6 C5 116.9(2)
C7 C6 H6 121.6
C5 C6 H6 121.6
F2 C7 C6 118.3(2)
F2 C7 C8 118.3(2)
C6 C7 C8 123.4(2)
C7 C8 C9 118.3(2)
C7 C8 H8 120.8
C9 C8 H8 120.8
C8 C9 C4 121.5(2)
C8 C9 H9 119.2
C4 C9 H9 119.2
C1 O2 H2A 109.5
loop_
_geom_bond_atom_site_label_1
_geom_bond_atom_site_label_2
_geom_bond_distance
C1 O1 1.262(3)
C1 O2 1.289(2)
C1 C2 1.466(3)
C2 C3 1.336(3)
C2 H2 0.9300
C3 C4 1.458(3)
C3 H3 0.9300
C4 C5 1.398(3)
C4 C9 1.403(3)
C5 F1 1.350(4)
C5 C6 1.390(3)
C5 H5 0.9300
C6 C7 1.373(4)
C6 H6 0.9300
C7 F2 1.365(3)
C7 C8 1.379(3)
C8 C9 1.378(3)
C8 H8 0.9300
C9 H9 0.9300
O2 H2A 0.8200
loop_
_geom_hbond_atom_site_label_D
_geom_hbond_atom_site_label_H
_geom_hbond_atom_site_label_A
_geom_hbond_distance_DH
_geom_hbond_distance_HA
_geom_hbond_distance_DA
_geom_hbond_angle_DHA
_geom_hbond_site_symmetry_A
C2 H2 O2 0.93 2.61 3.538(3) 172.7 3_765
O2 H2A O1 0.82 1.81 2.615(2) 167.9 3_655
loop_
_geom_torsion_atom_site_label_1
_geom_torsion_atom_site_label_2
_geom_torsion_atom_site_label_3
_geom_torsion_atom_site_label_4
_geom_torsion
O1 C1 C2 C3 2.3(3)
O2 C1 C2 C3 -177.4(2)
C1 C2 C3 C4 179.3(2)
C2 C3 C4 C5 -174.0(2)
C2 C3 C4 C9 7.1(4)
C9 C4 C5 F1 179.5(2)
C3 C4 C5 F1 0.5(3)
C9 C4 C5 C6 -1.0(3)
C3 C4 C5 C6 -179.9(2)
F1 C5 C6 C7 -179.9(2)
C4 C5 C6 C7 0.5(3)
C5 C6 C7 F2 -180.0(2)
C5 C6 C7 C8 0.6(4)
F2 C7 C8 C9 179.4(2)
C6 C7 C8 C9 -1.1(4)
C7 C8 C9 C4 0.6(3)
C5 C4 C9 C8 0.4(3)
C3 C4 C9 C8 179.3(2)
