#------------------------------------------------------------------------------
#$Date: 2019-11-17 11:13:39 +0200 (Sun, 17 Nov 2019) $
#$Revision: 229520 $
#$URL: file:///home/coder/svn-repositories/cod/cif/7/04/65/7046529.cif $
#------------------------------------------------------------------------------
#
# This file is available in the Crystallography Open Database (COD),
# http://www.crystallography.net/
#
# All data on this site have been placed in the public domain by the
# contributors.
#
data_7046529
loop_
_publ_author_name
'Wang, Xiaomei'
'Ji, Guoxun'
'Shi, Cen'
'Diwu, Juan'
'Chen, Lanhua'
'Gui, Daxiang'
'Wan, Jianmei'
'Silver, Mark A.'
'Wang, Jianqiang'
'Wang, Shuao'
_publ_section_title
;
 Structural and thermodynamic stability of uranyl-deferiprone complexes
 and the removal efficacy of U(vi) at the cellular level.
;
_journal_issue                   26
_journal_name_full
'Dalton transactions (Cambridge, England : 2003)'
_journal_page_first              8764
_journal_page_last               8770
_journal_paper_doi               10.1039/c8dt01738g
_journal_volume                  47
_journal_year                    2018
_chemical_formula_moiety         UO2(C7O2N)2??5H2O
_chemical_formula_sum            'C14 H7 N2 O11 U'
_chemical_formula_weight         617.25
_chemical_melting_point          ?
_chemical_name_common            'uranyl Deferiprone'
_space_group_crystal_system      triclinic
_space_group_IT_number           2
_space_group_name_Hall           '-P 1'
_space_group_name_H-M_alt        'P -1'
_symmetry_space_group_name_Hall  '-P 1'
_symmetry_space_group_name_H-M   'P -1'
_atom_sites_solution_hydrogens   none
_atom_sites_solution_primary     direct
_atom_sites_solution_secondary   difmap
_audit_creation_method           SHELXL-2014
_audit_update_record
;
2018-05-20 deposited with the CCDC.
2018-05-31 downloaded from the CCDC.
;
_cell_angle_alpha                86.128(12)
_cell_angle_beta                 78.578(12)
_cell_angle_gamma                80.403(12)
_cell_formula_units_Z            2
_cell_length_a                   6.792(2)
_cell_length_b                   10.823(4)
_cell_length_c                   13.823(5)
_cell_measurement_reflns_used    4293
_cell_measurement_temperature    123(2)
_cell_measurement_theta_max      27.656
_cell_measurement_theta_min      3.009
_cell_volume                     981.4(6)
_computing_structure_refinement  'SHELXL-2014 (Sheldrick, 2014)'
_diffrn_ambient_temperature      123(2)
_diffrn_measured_fraction_theta_full 0.999
_diffrn_measured_fraction_theta_max 0.995
_diffrn_measurement_device_type  BRUKER
_diffrn_radiation_type           MoK\a
_diffrn_radiation_wavelength     0.71073
_diffrn_reflns_av_R_equivalents  0.0597
_diffrn_reflns_av_unetI/netI     0.0347
_diffrn_reflns_Laue_measured_fraction_full 0.999
_diffrn_reflns_Laue_measured_fraction_max 0.995
_diffrn_reflns_limit_h_max       8
_diffrn_reflns_limit_h_min       -8
_diffrn_reflns_limit_k_max       14
_diffrn_reflns_limit_k_min       -14
_diffrn_reflns_limit_l_max       17
_diffrn_reflns_limit_l_min       -18
_diffrn_reflns_number            29532
_diffrn_reflns_point_group_measured_fraction_full 0.999
_diffrn_reflns_point_group_measured_fraction_max 0.995
_diffrn_reflns_theta_full        25.242
_diffrn_reflns_theta_max         27.656
_diffrn_reflns_theta_min         3.009
_diffrn_source                   'fine-focus sealed tube'
_exptl_absorpt_coefficient_mu    8.327
_exptl_absorpt_correction_type   multi-scan
_exptl_absorpt_process_details   'SADABS, BRUKER'
_exptl_crystal_colour            'dark red'
_exptl_crystal_density_diffrn    2.089
_exptl_crystal_density_meas      ?
_exptl_crystal_density_method    'not measured'
_exptl_crystal_description       rodlike
_exptl_crystal_F_000             570
_exptl_crystal_size_max          0.15
_exptl_crystal_size_mid          0.08
_exptl_crystal_size_min          0.05
_exptl_transmission_factor_max   0.659
_exptl_transmission_factor_min   0.454
_refine_diff_density_max         1.064
_refine_diff_density_min         -1.318
_refine_diff_density_rms         0.155
_refine_ls_extinction_method     none
_refine_ls_goodness_of_fit_ref   0.995
_refine_ls_hydrogen_treatment    none
_refine_ls_matrix_type           full
_refine_ls_number_parameters     289
_refine_ls_number_reflns         4555
_refine_ls_number_restraints     8
_refine_ls_restrained_S_all      0.994
_refine_ls_R_factor_all          0.0251
_refine_ls_R_factor_gt           0.0226
_refine_ls_shift/su_max          0.001
_refine_ls_shift/su_mean         0.000
_refine_ls_structure_factor_coef Fsqd
_refine_ls_weighting_details
'w=1/[\s^2^(Fo^2^)+(0.0332P)^2^+2.9731P] where P=(Fo^2^+2Fc^2^)/3'
_refine_ls_weighting_scheme      calc
_refine_ls_wR_factor_gt          0.0626
_refine_ls_wR_factor_ref         0.0639
_reflns_Friedel_coverage         0.000
_reflns_number_gt                4293
_reflns_number_total             4555
_reflns_threshold_expression     'I > 2\s(I)'
_cod_data_source_file            c8dt01738g2.cif
_cod_data_source_block           save
_cod_depositor_comments
;
The following automatic conversions were performed:

'_chemical_melting_point' value 'n/a' was changed to '?' - the value
is undefined or not given.

'_exptl_crystal_density_meas' value 'n/a' was changed to '?' - the
value is perceived as not measured.

Automatic conversion script
Id: cif_fix_values 4973 2017-02-22 13:04:09Z antanas 

 Adding full bibliography for 7046529.cif.
;
_cod_original_cell_volume        981.5(6)
_cod_database_code               7046529
_shelx_space_group_comment
;
The symmetry employed for this shelxl refinement is uniquely defined
by the following loop, which should always be used as a source of
symmetry information in preference to the above space-group names.
They are only intended as comments.
;
_shelx_estimated_absorpt_t_min   0.341
_shelx_estimated_absorpt_t_max   0.546
_shelxl_version_number           2014-3
_shelx_res_file
;

TITL save_a.res in P-1
REM Old TITL save in P-1

REM SHELXT solution in P-1
REM R1 0.044,  Rweak 0.010,  Alpha 0.051,  Orientation as input
REM Formula found by SHELXT:  C15 N5 O7 U

CELL  0.71073   6.7922  10.8232  13.8231   86.128   78.578   80.403
ZERR   2.000   0.0023   0.0037   0.0047    0.012    0.012    0.012
LATT  1
SFAC C H N O U
UNIT 28 14 4 22 2
TEMP 23.000
L.S. 20
acta
DFIX 0.85 0.01 O3W H3WA
DANG 1.35 0.01 H3WA H3WB
DFIX 0.85 0.01 O4W H4WA
DANG 1.35 0.01 H4WA H4WB
DFIX 0.85 0.01 O2W H2WA
DANG 1.35 0.01 H2WA H2WB
DFIX 0.85 0.01 O1W H1WA
DANG 1.35 0.01 H1WA H1WB
BOND $H
twin
LIST 4
FMAP 2
PLAN 59
WGHT    0.033200    2.973100
BASF   0.49362
FVAR       0.12308
U1    5    0.208171    0.408341    0.312734    11.00000    0.01784    0.01600 =
         0.01210   -0.00135   -0.00276   -0.00153
O7    4    0.165790    0.304075    0.478320    11.00000    0.02732    0.01660 =
         0.01676    0.00018   -0.00416   -0.00072
O6    4    0.175998    0.572247    0.426591    11.00000    0.02188    0.02540 =
         0.02058   -0.00712   -0.00301   -0.00277
H6A   2    0.273910    0.586486    0.436051    11.00000    0.01797
H6B   2    0.079212    0.613194    0.456895    11.00000    0.02791
O5    4    0.473653    0.400547    0.311232    11.00000    0.01808    0.02932 =
         0.02440   -0.00483   -0.00182   -0.00509
O4    4   -0.062288    0.421283    0.325103    11.00000    0.01836    0.02987 =
         0.02819   -0.00476   -0.00434   -0.00282
O3    4    0.260946    0.354447    0.146564    11.00000    0.03675    0.01942 =
         0.01551   -0.00170   -0.00660   -0.00387
O2    4    0.212810    0.584186    0.204750    11.00000    0.03976    0.01910 =
         0.01214   -0.00077   -0.00638   -0.00439
O1    4    0.261604    0.188625    0.309252    11.00000    0.03729    0.01928 =
         0.01703   -0.00146   -0.00212   -0.00192
N2    3    0.221442    0.642769   -0.056457    11.00000    0.01994    0.02328 =
         0.01390    0.00255   -0.00509   -0.00194
C14   1    0.201998    0.178254    0.481524    11.00000    0.01578    0.01727 =
         0.02251    0.00306   -0.00684   -0.00216
N1    3    0.231511   -0.022290    0.564337    11.00000    0.02173    0.02148 =
         0.03249    0.01395   -0.00791   -0.00566
C13   1    0.250244    0.443759    0.077732    11.00000    0.01577    0.02036 =
         0.01664   -0.00112   -0.00175   -0.00264
C12   1    0.250644    0.524493   -0.087333    11.00000    0.02241    0.02953 =
         0.01405   -0.00250   -0.00477   -0.00287
C11   1    0.206190    0.669019    0.040755    11.00000    0.01772    0.02338 =
         0.01670    0.00064   -0.00193   -0.00334
C10   1    0.266152    0.422992   -0.021674    11.00000    0.02092    0.02643 =
         0.01684   -0.00408   -0.00291   -0.00159
C9    1    0.256558    0.119313    0.389071    11.00000    0.01733    0.01928 =
         0.02659   -0.00359   -0.00465   -0.00155
C8    1    0.221439    0.569772    0.108620    11.00000    0.01778    0.02214 =
         0.01407   -0.00402   -0.00337   -0.00384
C7    1    0.208419    0.747428   -0.131560    11.00000    0.03611    0.03016 =
         0.01785    0.01019   -0.00515   -0.00115
C6    1    0.173014    0.803490    0.068816    11.00000    0.04375    0.01919 =
         0.02974    0.00048   -0.01087    0.00012
C5    1    0.186773    0.107228    0.568546    11.00000    0.01996    0.02405 =
         0.02451    0.00449   -0.00738   -0.00497
C4    1    0.300905   -0.013431    0.388800    11.00000    0.02348    0.02193 =
         0.03743   -0.00530   -0.00672   -0.00151
C3    1    0.119188    0.164030    0.667860    11.00000    0.03676    0.03905 =
         0.02146    0.00323   -0.00651   -0.00853
C2    1    0.219544   -0.101243    0.656605    11.00000    0.04272    0.03874 =
         0.04019    0.02750   -0.01389   -0.01456
C1    1    0.287224   -0.079302    0.477392    11.00000    0.02363    0.02154 =
         0.04142    0.00066   -0.00850   -0.00225
O4W   4    0.571012    0.608999    0.419403    11.00000    0.03077    0.02706 =
         0.02699   -0.00193   -0.01344   -0.00569
H4WA  2    0.623842    0.542244    0.389759    11.00000   -1.20000
H4WB  2    0.641328    0.636303    0.445456    11.00000   -1.20000
O3W   4    0.480524    0.735020    0.241269    11.00000    0.06385    0.03743 =
         0.03771    0.01127   -0.02463   -0.02247
H3WA  2    0.391760    0.700776    0.221827    11.00000    0.04417
H3WB  2    0.529576    0.695271    0.280444    11.00000    0.06786
O2W   4    0.294219    0.108572    0.079652    11.00000    0.05949    0.03264 =
         0.05012   -0.01983   -0.01321    0.00294
H2WB  2    0.398315    0.062260    0.095936    11.00000   -1.20000
H2WA  2    0.285277    0.177113    0.107615    11.00000   -1.20000
O1W   4    0.379957    0.066851    0.877065    11.00000    0.05207    0.04050 =
         0.04242    0.00322   -0.01448   -0.01126
H1WB  2    0.423034    0.138583    0.850159    11.00000   -1.20000
H1WA  2    0.347944    0.084897    0.937565    11.00000    0.06889

HKLF 4

REM  save_a.res in P-1
REM R1 =  0.0226 for    4293 Fo > 4sig(Fo)  and  0.0251 for all    4555 data
REM    289 parameters refined using      8 restraints

END

WGHT      0.0270      2.2291

REM Highest difference peak  1.064,  deepest hole -1.318,  1-sigma level  0.155
Q1    1   0.3419  0.4195  0.3198  11.00000  0.05    1.06
Q2    1   0.0734  0.4031  0.3150  11.00000  0.05    1.04
Q3    1   0.2656  0.5248 -0.1519  11.00000  0.05    0.99
Q4    1   0.1782  0.3773  0.3656  11.00000  0.05    0.91
Q5    1   0.0563  0.8417  0.0562  11.00000  0.05    0.90
Q6    1   0.2765  0.3451 -0.0431  11.00000  0.05    0.90
Q7    1   0.0847  0.7919 -0.1176  11.00000  0.05    0.84
Q8    1   0.3373 -0.0636  0.3261  11.00000  0.05    0.82
Q9    1   0.3165 -0.1637  0.4895  11.00000  0.05    0.80
Q10   1   0.2220  0.1363  0.7180  11.00000  0.05    0.77
Q11   1   0.3100 -0.0763  0.6965  11.00000  0.05    0.75
Q12   1   0.1794  0.6999 -0.1809  11.00000  0.05    0.70
Q13   1   0.2906  0.8399  0.0522  11.00000  0.05    0.70
Q14   1   0.0990  0.2473  0.6662  11.00000  0.05    0.68
Q15   1   0.1680  0.8051  0.1515  11.00000  0.05    0.66
Q16   1   0.3469  0.7794 -0.1388  11.00000  0.05    0.65
Q17   1   0.2305  0.7259 -0.1943  11.00000  0.05    0.65
Q18   1   0.0731 -0.1149  0.6830  11.00000  0.05    0.63
Q19   1   0.0956 -0.0810  0.6993  11.00000  0.05    0.61
Q20   1   0.2902  0.4913  0.2823  11.00000  0.05    0.58
Q21   1   0.2499 -0.2024  0.6274  11.00000  0.05    0.55
Q22   1   0.2968  0.3542  0.3940  11.00000  0.05    0.53
Q23   1   0.1719  0.3431  0.4442  11.00000  0.05    0.53
Q24   1   0.5087  0.4601 -0.0192  11.00000  0.05    0.52
Q25   1  -0.0240  0.1180  0.6954  11.00000  0.05    0.49
Q26   1   0.2304  0.4650 -0.0556  11.00000  0.05    0.47
Q27   1   0.3023  0.4047  0.4386  11.00000  0.05    0.46
Q28   1   0.1021  0.3244  0.3453  11.00000  0.05    0.46
Q29   1   0.2379  0.4367  0.2614  11.00000  0.05    0.45
Q30   1   0.2063  0.7169 -0.1076  11.00000  0.05    0.45
Q31   1   0.2013  0.7756  0.0687  11.00000  0.05    0.45
Q32   1   0.2224  0.5390  0.4832  11.00000  0.05    0.45
Q33   1  -0.0267  0.1761  0.6860  11.00000  0.05    0.44
Q34   1   0.1742  0.6385  0.0769  11.00000  0.05    0.44
Q35   1   0.2323 -0.0658  0.6160  11.00000  0.05    0.43
Q36   1   0.1351  0.1456  0.6277  11.00000  0.05    0.42
Q37   1   0.3763  0.6410  0.2795  11.00000  0.05    0.42
Q38   1   0.3221  0.5102  0.2020  11.00000  0.05    0.42
Q39   1   0.3641  0.4734  0.4002  11.00000  0.05    0.42
Q40   1   0.3267 -0.1590  0.6582  11.00000  0.05    0.42
Q41   1   0.7030  0.6277  0.4420  11.00000  0.05    0.41
Q42   1   0.4271  0.6989  0.3056  11.00000  0.05    0.41
Q43   1   0.2570  0.3311  0.4737  11.00000  0.05    0.40
Q44   1   0.0542  0.4770  0.4349  11.00000  0.05    0.40
Q45   1   0.2217  0.5734  0.1549  11.00000  0.05    0.40
Q46   1   0.3104 -0.1974  0.5581  11.00000  0.05    0.40
Q47   1   0.3567 -0.0610  0.4932  11.00000  0.05    0.40
Q48   1   0.1950  0.1458  0.4333  11.00000  0.05    0.39
Q49   1   0.0291  0.3768  0.4404  11.00000  0.05    0.39
Q50   1   0.4398  0.5970  0.4532  11.00000  0.05    0.39
Q51   1   0.4372  0.5535  0.1625  11.00000  0.05    0.39
Q52   1   0.4080  0.3173  0.2333  11.00000  0.05    0.38
Q53   1   0.3243  0.6005  0.0970  11.00000  0.05    0.38
Q54   1   0.4514  0.2805  0.1790  11.00000  0.05    0.38
Q55   1   0.6079  0.7237  0.4198  11.00000  0.05    0.38
Q56   1   0.6353  0.6183  0.5013  11.00000  0.05    0.38
Q57   1   0.5965  0.6823  0.3198  11.00000  0.05    0.37
Q58   1   0.0041  0.5345  0.2417  11.00000  0.05    0.37
Q59   1   0.1738  0.5437  0.2521  11.00000  0.05    0.37
;
_shelx_res_checksum              76975
loop_
_space_group_symop_operation_xyz
'x, y, z'
'-x, -y, -z'
loop_
_atom_site_label
_atom_site_type_symbol
_atom_site_fract_x
_atom_site_fract_y
_atom_site_fract_z
_atom_site_U_iso_or_equiv
_atom_site_adp_type
_atom_site_occupancy
_atom_site_site_symmetry_order
_atom_site_calc_flag
_atom_site_refinement_flags_posn
_atom_site_refinement_flags_adp
U1 U 0.20817(2) 0.40834(2) 0.31273(2) 0.01542(6) Uani 1 1 d . .
O7 O 0.1658(4) 0.3041(3) 0.4783(2) 0.0206(6) Uani 1 1 d . .
O6 O 0.1760(5) 0.5722(3) 0.4266(2) 0.0226(6) Uani 1 1 d . .
H6A H 0.274(8) 0.586(5) 0.436(4) 0.018(13) Uiso 1 1 d . .
H6B H 0.079(9) 0.613(5) 0.457(4) 0.028(14) Uiso 1 1 d . .
O5 O 0.4737(4) 0.4005(3) 0.3112(2) 0.0239(6) Uani 1 1 d . .
O4 O -0.0623(4) 0.4213(3) 0.3251(2) 0.0254(6) Uani 1 1 d . .
O3 O 0.2609(5) 0.3544(3) 0.1466(2) 0.0237(6) Uani 1 1 d . .
O2 O 0.2128(5) 0.5842(3) 0.2048(2) 0.0235(6) Uani 1 1 d . .
O1 O 0.2616(5) 0.1886(3) 0.3093(2) 0.0252(6) Uani 1 1 d . .
N2 N 0.2214(5) 0.6428(3) -0.0565(2) 0.0191(7) Uani 1 1 d . .
C14 C 0.2020(6) 0.1783(4) 0.4815(3) 0.0183(8) Uani 1 1 d . .
N1 N 0.2315(5) -0.0223(3) 0.5643(3) 0.0253(8) Uani 1 1 d . .
C13 C 0.2502(6) 0.4438(4) 0.0777(3) 0.0178(7) Uani 1 1 d . .
C12 C 0.2506(6) 0.5245(4) -0.0873(3) 0.0219(8) Uani 1 1 d . .
C11 C 0.2062(6) 0.6690(4) 0.0408(3) 0.0195(8) Uani 1 1 d . .
C10 C 0.2662(6) 0.4230(4) -0.0217(3) 0.0216(8) Uani 1 1 d . .
C9 C 0.2566(6) 0.1193(4) 0.3891(3) 0.0210(8) Uani 1 1 d . .
C8 C 0.2214(6) 0.5698(4) 0.1086(3) 0.0177(7) Uani 1 1 d . .
C7 C 0.2084(7) 0.7474(4) -0.1316(3) 0.0290(10) Uani 1 1 d . .
C6 C 0.1730(8) 0.8035(4) 0.0688(4) 0.0310(10) Uani 1 1 d . .
C5 C 0.1868(6) 0.1072(4) 0.5685(3) 0.0225(8) Uani 1 1 d . .
C4 C 0.3009(7) -0.0134(4) 0.3888(4) 0.0275(9) Uani 1 1 d . .
C3 C 0.1192(8) 0.1640(5) 0.6679(3) 0.0322(10) Uani 1 1 d . .
C2 C 0.2195(8) -0.1012(5) 0.6566(4) 0.0401(13) Uani 1 1 d . .
C1 C 0.2872(7) -0.0793(4) 0.4774(4) 0.0288(10) Uani 1 1 d . .
O4W O 0.5710(5) 0.6090(3) 0.4194(2) 0.0270(7) Uani 1 1 d D .
H4WA H 0.624(7) 0.542(3) 0.390(4) 0.032 Uiso 1 1 d D U
H4WB H 0.641(9) 0.636(4) 0.445(4) 0.032 Uiso 1 1 d D U
O3W O 0.4805(7) 0.7350(4) 0.2413(3) 0.0431(9) Uani 1 1 d D .
H3WA H 0.392(7) 0.701(5) 0.222(4) 0.044(17) Uiso 1 1 d D .
H3WB H 0.530(9) 0.695(8) 0.280(5) 0.07(2) Uiso 1 1 d D .
O2W O 0.2942(7) 0.1086(4) 0.0797(3) 0.0474(10) Uani 1 1 d D .
H2WB H 0.398(9) 0.062(4) 0.096(5) 0.057 Uiso 1 1 d D U
H2WA H 0.285(10) 0.177(3) 0.108(4) 0.057 Uiso 1 1 d D U
O1W O 0.3800(7) 0.0669(4) 0.8771(3) 0.0440(9) Uani 1 1 d D .
H1WB H 0.423(10) 0.139(6) 0.850(4) 0.053 Uiso 1 1 d D U
H1WA H 0.348(11) 0.085(6) 0.9376(15) 0.07(2) Uiso 1 1 d D .
loop_
_atom_site_aniso_label
_atom_site_aniso_U_11
_atom_site_aniso_U_22
_atom_site_aniso_U_33
_atom_site_aniso_U_23
_atom_site_aniso_U_13
_atom_site_aniso_U_12
U1 0.01784(8) 0.01600(9) 0.01210(8) -0.00135(5) -0.00276(5) -0.00153(5)
O7 0.0273(15) 0.0166(14) 0.0168(13) 0.0002(11) -0.0042(11) -0.0007(11)
O6 0.0219(16) 0.0254(16) 0.0206(15) -0.0071(12) -0.0030(13) -0.0028(13)
O5 0.0181(14) 0.0293(16) 0.0244(15) -0.0048(12) -0.0018(11) -0.0051(12)
O4 0.0184(14) 0.0299(17) 0.0282(16) -0.0048(13) -0.0043(12) -0.0028(12)
O3 0.0368(17) 0.0194(14) 0.0155(13) -0.0017(11) -0.0066(12) -0.0039(12)
O2 0.0398(17) 0.0191(14) 0.0121(13) -0.0008(11) -0.0064(12) -0.0044(12)
O1 0.0373(17) 0.0193(15) 0.0170(14) -0.0015(11) -0.0021(12) -0.0019(13)
N2 0.0199(16) 0.0233(18) 0.0139(15) 0.0026(13) -0.0051(12) -0.0019(13)
C14 0.0158(17) 0.0173(19) 0.0225(19) 0.0031(15) -0.0068(15) -0.0022(14)
N1 0.0217(17) 0.0215(18) 0.032(2) 0.0139(15) -0.0079(15) -0.0057(14)
C13 0.0158(17) 0.0204(19) 0.0166(18) -0.0011(15) -0.0017(14) -0.0026(15)
C12 0.0224(19) 0.030(2) 0.0141(17) -0.0025(16) -0.0048(15) -0.0029(17)
C11 0.0177(18) 0.023(2) 0.0167(18) 0.0006(15) -0.0019(14) -0.0033(15)
C10 0.0209(19) 0.026(2) 0.0168(18) -0.0041(16) -0.0029(15) -0.0016(16)
C9 0.0173(18) 0.019(2) 0.027(2) -0.0036(16) -0.0047(16) -0.0015(15)
C8 0.0178(17) 0.022(2) 0.0141(17) -0.0040(15) -0.0034(14) -0.0038(15)
C7 0.036(2) 0.030(2) 0.0179(19) 0.0102(17) -0.0051(18) -0.0011(19)
C6 0.044(3) 0.019(2) 0.030(2) 0.0005(18) -0.011(2) 0.0001(19)
C5 0.0200(19) 0.024(2) 0.025(2) 0.0045(17) -0.0074(16) -0.0050(16)
C4 0.023(2) 0.022(2) 0.037(2) -0.0053(18) -0.0067(18) -0.0015(17)
C3 0.037(3) 0.039(3) 0.021(2) 0.0032(19) -0.0065(19) -0.009(2)
C2 0.043(3) 0.039(3) 0.040(3) 0.027(2) -0.014(2) -0.015(2)
C1 0.024(2) 0.022(2) 0.041(3) 0.0007(19) -0.0085(19) -0.0022(17)
O4W 0.0308(17) 0.0271(17) 0.0270(16) -0.0019(13) -0.0134(13) -0.0057(14)
O3W 0.064(3) 0.037(2) 0.038(2) 0.0113(17) -0.025(2) -0.022(2)
O2W 0.059(3) 0.033(2) 0.050(2) -0.0198(18) -0.013(2) 0.0029(19)
O1W 0.052(2) 0.041(2) 0.042(2) 0.0032(18) -0.0145(19) -0.0113(18)
loop_
_atom_type_symbol
_atom_type_description
_atom_type_scat_dispersion_real
_atom_type_scat_dispersion_imag
_atom_type_scat_source
C C 0.0033 0.0016 'International Tables Vol C Tables 4.2.6.8 and 6.1.1.4'
H H 0.0000 0.0000 'International Tables Vol C Tables 4.2.6.8 and 6.1.1.4'
N N 0.0061 0.0033 'International Tables Vol C Tables 4.2.6.8 and 6.1.1.4'
O O 0.0106 0.0060 'International Tables Vol C Tables 4.2.6.8 and 6.1.1.4'
U U -9.6767 9.6646 'International Tables Vol C Tables 4.2.6.8 and 6.1.1.4'
loop_
_geom_angle_atom_site_label_1
_geom_angle_atom_site_label_2
_geom_angle_atom_site_label_3
_geom_angle
O5 U1 O4 174.91(13)
O5 U1 O2 90.39(13)
O4 U1 O2 91.05(13)
O5 U1 O1 88.35(13)
O4 U1 O1 93.67(13)
O2 U1 O1 140.15(10)
O5 U1 O3 93.34(12)
O4 U1 O3 91.72(13)
O2 U1 O3 67.73(10)
O1 U1 O3 72.58(10)
O5 U1 O6 83.16(13)
O4 U1 O6 92.31(13)
O2 U1 O6 79.16(10)
O1 U1 O6 139.98(10)
O3 U1 O6 146.70(11)
O5 U1 O7 89.99(12)
O4 U1 O7 86.54(12)
O2 U1 O7 153.43(10)
O1 U1 O7 66.42(10)
O3 U1 O7 138.74(10)
O6 U1 O7 74.52(10)
C14 O7 U1 116.6(2)
U1 O6 H6A 115(4)
U1 O6 H6B 131(4)
H6A O6 H6B 114(6)
C13 O3 U1 119.3(2)
C8 O2 U1 119.2(2)
C9 O1 U1 121.7(3)
C12 N2 C11 122.3(3)
C12 N2 C7 118.1(3)
C11 N2 C7 119.6(4)
O7 C14 C5 123.1(4)
O7 C14 C9 116.4(3)
C5 C14 C9 120.4(4)
C1 N1 C5 121.3(4)
C1 N1 C2 118.5(4)
C5 N1 C2 120.2(4)
O3 C13 C10 124.3(4)
O3 C13 C8 116.9(3)
C10 C13 C8 118.8(4)
N2 C12 C10 121.1(4)
N2 C11 C8 118.2(4)
N2 C11 C6 118.9(4)
C8 C11 C6 122.9(4)
C12 C10 C13 119.2(4)
O1 C9 C4 122.9(4)
O1 C9 C14 118.7(4)
C4 C9 C14 118.4(4)
O2 C8 C11 123.4(4)
O2 C8 C13 116.2(4)
C11 C8 C13 120.4(4)
C14 C5 N1 118.9(4)
C14 C5 C3 122.7(4)
N1 C5 C3 118.4(4)
C1 C4 C9 118.7(4)
N1 C1 C4 122.2(4)
H4WA O4W H4WB 115(4)
H3WA O3W H3WB 113(6)
H2WB O2W H2WA 105(5)
H1WB O1W H1WA 100(4)
loop_
_geom_bond_atom_site_label_1
_geom_bond_atom_site_label_2
_geom_bond_distance
U1 O5 1.787(3)
U1 O4 1.793(3)
U1 O2 2.339(3)
U1 O1 2.347(3)
U1 O3 2.352(3)
U1 O6 2.405(3)
U1 O7 2.469(3)
O7 C14 1.342(5)
O6 H6A 0.74(5)
O6 H6B 0.79(6)
O3 C13 1.313(5)
O2 C8 1.337(5)
O1 C9 1.290(5)
N2 C12 1.348(6)
N2 C11 1.373(5)
N2 C7 1.488(5)
C14 C5 1.379(6)
C14 C9 1.422(6)
N1 C1 1.346(6)
N1 C5 1.387(6)
N1 C2 1.483(6)
C13 C10 1.387(5)
C13 C8 1.427(6)
C12 C10 1.381(6)
C11 C8 1.382(6)
C11 C6 1.501(6)
C9 C4 1.418(6)
C5 C3 1.498(6)
C4 C1 1.370(7)
O4W H4WA 0.845(10)
O4W H4WB 0.76(4)
O3W H3WA 0.852(10)
O3W H3WB 0.76(5)
O2W H2WB 0.86(5)
O2W H2WA 0.847(10)
O1W H1WB 0.91(6)
O1W H1WA 0.849(10)
