#------------------------------------------------------------------------------
#$Date: 2019-11-17 11:50:22 +0200 (Sun, 17 Nov 2019) $
#$Revision: 229702 $
#$URL: file:///home/coder/svn-repositories/cod/cif/7/04/61/7046142.cif $
#------------------------------------------------------------------------------
#
# This file is available in the Crystallography Open Database (COD),
# http://www.crystallography.net/
#
# All data on this site have been placed in the public domain by the
# contributors.
#
data_7046142
loop_
_publ_author_name
'Sun, Ai-Huan'
'Wei, Qi'
'Fu, Ai-Ping'
'Han, Song-De'
'Li, Jin-Hua'
'Wang, Guo-Ming'
_publ_section_title
;
 Syntheses, structures and efficient visible light-driven photocatalytic
 properties of layered cuprous halides based on two types of building
 units.
;
_journal_issue                   20
_journal_name_full
'Dalton transactions (Cambridge, England : 2003)'
_journal_page_first              6965
_journal_page_last               6972
_journal_paper_doi               10.1039/c7dt04733a
_journal_volume                  47
_journal_year                    2018
_chemical_formula_moiety         'C9 H6.29 F1.71 O2'
_chemical_formula_sum            'C9 H6.29 F1.71 O2'
_chemical_formula_weight         178.85
_space_group_crystal_system      monoclinic
_space_group_IT_number           14
_space_group_name_Hall           '-P 2yn'
_space_group_name_H-M_alt        'P 1 21/n 1'
_symmetry_space_group_name_Hall  '-P 2yn'
_symmetry_space_group_name_H-M   'P 1 21/n 1'
_atom_sites_solution_hydrogens   geom
_audit_creation_method           SHELXL-2014/7
_audit_update_record
;
2018-03-28 deposited with the CCDC.
2018-04-09 downloaded from the CCDC.
;
_cell_angle_alpha                90
_cell_angle_beta                 90.847(16)
_cell_angle_gamma                90
_cell_formula_units_Z            4
_cell_length_a                   3.738(5)
_cell_length_b                   6.608(9)
_cell_length_c                   31.18(4)
_cell_measurement_reflns_used    1594
_cell_measurement_temperature    100(2)
_cell_measurement_theta_max      27.5
_cell_measurement_theta_min      2.6
_cell_volume                     770.1(18)
_computing_structure_refinement  'SHELXL-2014/7 (Sheldrick, 2014)'
_diffrn_ambient_temperature      100(2)
_diffrn_measured_fraction_theta_full 0.980
_diffrn_measured_fraction_theta_max 0.978
_diffrn_measurement_device_type  CCD
_diffrn_radiation_type           MoK\a
_diffrn_radiation_wavelength     0.71073
_diffrn_reflns_av_R_equivalents  0.1280
_diffrn_reflns_av_unetI/netI     0.0968
_diffrn_reflns_Laue_measured_fraction_full 0.980
_diffrn_reflns_Laue_measured_fraction_max 0.978
_diffrn_reflns_limit_h_max       4
_diffrn_reflns_limit_h_min       -4
_diffrn_reflns_limit_k_max       8
_diffrn_reflns_limit_k_min       -8
_diffrn_reflns_limit_l_max       40
_diffrn_reflns_limit_l_min       -39
_diffrn_reflns_number            5748
_diffrn_reflns_point_group_measured_fraction_full 0.980
_diffrn_reflns_point_group_measured_fraction_max 0.978
_diffrn_reflns_theta_full        25.242
_diffrn_reflns_theta_max         27.500
_diffrn_reflns_theta_min         1.306
_exptl_absorpt_coefficient_mu    0.135
_exptl_crystal_colour            colourless
_exptl_crystal_density_diffrn    1.543
_exptl_crystal_description       plate
_exptl_crystal_F_000             366.6
_exptl_crystal_size_max          0.6
_exptl_crystal_size_mid          0.4
_exptl_crystal_size_min          0.3
_refine_diff_density_max         0.318
_refine_diff_density_min         -0.349
_refine_diff_density_rms         0.088
_refine_ls_extinction_method     none
_refine_ls_goodness_of_fit_ref   1.053
_refine_ls_hydrogen_treatment    constr
_refine_ls_matrix_type           full
_refine_ls_number_parameters     120
_refine_ls_number_reflns         1716
_refine_ls_number_restraints     0
_refine_ls_restrained_S_all      1.053
_refine_ls_R_factor_all          0.0793
_refine_ls_R_factor_gt           0.0653
_refine_ls_shift/su_max          0.000
_refine_ls_shift/su_mean         0.000
_refine_ls_structure_factor_coef Fsqd
_refine_ls_weighting_details
'w=1/[\s^2^(Fo^2^)+(0.0900P)^2^+0.0289P] where P=(Fo^2^+2Fc^2^)/3'
_refine_ls_weighting_scheme      calc
_refine_ls_wR_factor_gt          0.1634
_refine_ls_wR_factor_ref         0.1748
_reflns_Friedel_coverage         0.000
_reflns_number_gt                1341
_reflns_number_total             1716
_reflns_threshold_expression     'I > 2\s(I)'
_cod_data_source_file            c7dt04733a2.cif
_cod_data_source_block           8
_cod_depositor_comments
'Adding full bibliography for 7046123--7046152.cif.'
_cod_original_cell_volume        770.0(17)
_cod_database_code               7046142
_shelx_shelxl_version_number     2014/7
_shelx_space_group_comment
;
The symmetry employed for this shelxl refinement is uniquely defined
by the following loop, which should always be used as a source of
symmetry information in preference to the above space-group names.
They are only intended as comments.
;
_shelx_res_file
;

    shelx.res created by SHELXL-2014/7

TITL data, in P2(1)/n
CELL  0.71073   3.7379   6.6084  31.1764   90.000   90.847   90.000
ZERR    18.00   0.0048   0.0087   0.0396    0.000    0.016    0.000
LATT   1
SYMM  1/2 - X, 1/2 + Y, 1/2 - Z
SFAC  C    H    O    F
UNIT  18 18 18 18
MERG   2
OMIT    -2.00  55.00
EQIV $1 -x+1, -y, -z
HTAB C2 O2_$1
EQIV $2 -x, -y+1, -z
HTAB O2 O1_$2
OMIT     0   0   6
FMAP   2
PLAN   20
ACTA
HTAB    2.00000
BOND
BOND   $H
CONF
L.S.  50
TEMP  -173.00
WGHT    0.090000    0.028900
FVAR       0.72843   0.29430
MOLE    1
C1    1    0.153670    0.275948    0.034475    11.00000    0.02263    0.01809 =
         0.02062   -0.00163    0.00063    0.00122
C2    1    0.272140    0.101113    0.060012    11.00000    0.02462    0.01570 =
         0.02441   -0.00120    0.00105    0.00348
AFIX  43
H2    2    0.388325   -0.008167    0.046148    11.00000   -1.20000
AFIX   0
C3    1    0.220648    0.091952    0.102193    11.00000    0.01938    0.01623 =
         0.02483   -0.00271    0.00099    0.00000
AFIX  43
H3    2    0.101613    0.203538    0.114844    11.00000   -1.20000
AFIX   0
C4    1    0.328945   -0.072568    0.130950    11.00000    0.01836    0.01724 =
         0.02247   -0.00123   -0.00011   -0.00083
C5    1    0.287723   -0.052703    0.175118    11.00000    0.02477    0.01880 =
         0.02315   -0.00431    0.00329    0.00004
PART    1
AFIX  43
H5    2    0.188538    0.069285    0.185830    21.00000   -1.20000
AFIX   0
PART    2
F1    4    0.145497    0.119555    0.190235   -21.00000    0.05201    0.02459 =
         0.02739   -0.00704    0.00633    0.00748
PART    0
C6    1    0.384600   -0.202491    0.204119    11.00000    0.02786    0.02887 =
         0.01833    0.00278    0.00089   -0.00330
AFIX  43
H6    2    0.354043   -0.185692    0.234105    11.00000   -1.20000
AFIX   0
C7    1    0.527417   -0.376986    0.187330    11.00000    0.02487    0.02239 =
         0.02916    0.01018   -0.00222   -0.00128
C8    1    0.572599   -0.408409    0.144276    11.00000    0.02368    0.01753 =
         0.03243    0.00230    0.00348    0.00264
AFIX  43
H8    2    0.669491   -0.531908    0.134039    11.00000   -1.20000
AFIX   0
C9    1    0.473341   -0.255400    0.116004    11.00000    0.02363    0.01855 =
         0.01961   -0.00186    0.00359    0.00111
AFIX  43
H9    2    0.503495   -0.274574    0.086075    11.00000   -1.20000
AFIX   0
O1    3   -0.013814    0.420492    0.051693    11.00000    0.03517    0.02109 =
         0.02407   -0.00060    0.00478    0.00945
O2    3    0.230313    0.271847   -0.005620    11.00000    0.04349    0.02564 =
         0.01970    0.00142    0.00387    0.01244
AFIX 147
H2A   2    0.136803    0.371995   -0.018019    11.00000   -1.50000
AFIX   0
F2    4    0.629412   -0.525897    0.214954    11.00000    0.04402    0.03247 =
         0.03620    0.01683   -0.00018    0.00539
HKLF    4

REM  data, in P2(1)/n
REM R1 =  0.0653 for    1341 Fo > 4sig(Fo)  and  0.0793 for all    1716 data
REM    120 parameters refined using      0 restraints

END

WGHT      0.0926      0.0125

REM Instructions for potential hydrogen bonds
HTAB C2 O2_$1
HTAB O2 O1_$2

REM Highest difference peak  0.318,  deepest hole -0.349,  1-sigma level  0.088
Q1    1   0.4404 -0.1185  0.1911  11.00000  0.05    0.32
Q2    1   0.1822  0.1792  0.0445  11.00000  0.05    0.28
Q3    1   0.4355 -0.0781  0.2621  11.00000  0.05    0.26
Q4    1  -0.2579  0.4412  0.0390  11.00000  0.05    0.25
Q5    1   0.6389  0.4023 -0.0075  11.00000  0.05    0.24
Q6    1   0.9475 -0.5141  0.2217  11.00000  0.05    0.23
Q7    1   0.5253  0.2601  0.0029  11.00000  0.05    0.23
Q8    1   0.3945  0.2570  0.0479  11.00000  0.05    0.23
Q9    1   0.2623 -0.3555  0.1330  11.00000  0.05    0.22
Q10   1  -0.2864  0.0382  0.1001  11.00000  0.05    0.22
Q11   1  -0.1014 -0.0275  0.1062  11.00000  0.05    0.22
Q12   1   0.5299  0.3774 -0.0083  11.00000  0.05    0.21
Q13   1  -0.1151  0.1125  0.1748  11.00000  0.05    0.21
Q14   1   0.3790  0.2233  0.0011  11.00000  0.05    0.21
Q15   1   0.8367 -0.3751  0.1945  11.00000  0.05    0.21
Q16   1  -0.1556  0.1215  0.1294  11.00000  0.05    0.21
Q17   1  -0.1065 -0.0037  0.0559  11.00000  0.05    0.21
Q18   1   0.5588 -0.0231  0.1851  11.00000  0.05    0.21
Q19   1   0.2437  0.4739  0.0640  11.00000  0.05    0.20
Q20   1  -0.0107  0.2863  0.1671  11.00000  0.05    0.20
;
_shelx_res_checksum              84335
loop_
_space_group_symop_operation_xyz
'x, y, z'
'-x+1/2, y+1/2, -z+1/2'
'-x, -y, -z'
'x-1/2, -y-1/2, z-1/2'
loop_
_atom_site_label
_atom_site_type_symbol
_atom_site_fract_x
_atom_site_fract_y
_atom_site_fract_z
_atom_site_U_iso_or_equiv
_atom_site_adp_type
_atom_site_occupancy
_atom_site_site_symmetry_order
_atom_site_calc_flag
_atom_site_refinement_flags_posn
_atom_site_refinement_flags_adp
_atom_site_refinement_flags_occupancy
_atom_site_disorder_assembly
_atom_site_disorder_group
C1 C 0.1537(5) 0.2759(3) 0.03448(6) 0.0204(4) Uani 1 1 d . . . . .
C2 C 0.2721(5) 0.1011(3) 0.06001(6) 0.0216(4) Uani 1 1 d . . . . .
H2 H 0.3883 -0.0082 0.0461 0.026 Uiso 1 1 calc R U . . .
C3 C 0.2206(5) 0.0920(3) 0.10219(6) 0.0201(4) Uani 1 1 d . . . . .
H3 H 0.1016 0.2035 0.1148 0.024 Uiso 1 1 calc R U . . .
C4 C 0.3289(5) -0.0726(3) 0.13095(6) 0.0194(4) Uani 1 1 d . . . . .
C5 C 0.2877(5) -0.0527(3) 0.17512(6) 0.0222(5) Uani 1 1 d . . . . .
H5 H 0.1885 0.0693 0.1858 0.027 Uiso 0.294(4) 1 calc R U P A 1
F1 F 0.1455(5) 0.1196(3) 0.19024(6) 0.0346(6) Uani 0.706(4) 1 d . . P A 2
C6 C 0.3846(5) -0.2025(3) 0.20412(6) 0.0250(5) Uani 1 1 d . . . . .
H6 H 0.3540 -0.1857 0.2341 0.030 Uiso 1 1 calc R U . . .
C7 C 0.5274(5) -0.3770(3) 0.18733(7) 0.0255(5) Uani 1 1 d . . . . .
C8 C 0.5726(5) -0.4084(3) 0.14428(7) 0.0245(5) Uani 1 1 d . . . . .
H8 H 0.6695 -0.5319 0.1340 0.029 Uiso 1 1 calc R U . . .
C9 C 0.4733(5) -0.2554(3) 0.11600(6) 0.0206(4) Uani 1 1 d . . . . .
H9 H 0.5035 -0.2746 0.0861 0.025 Uiso 1 1 calc R U . . .
O1 O -0.0138(4) 0.4205(2) 0.05169(5) 0.0267(4) Uani 1 1 d . . . . .
O2 O 0.2303(4) 0.2718(2) -0.00562(5) 0.0296(4) Uani 1 1 d . . . . .
H2A H 0.1368 0.3720 -0.0180 0.044 Uiso 1 1 calc R U . . .
F2 F 0.6294(3) -0.5259(2) 0.21495(4) 0.0376(4) Uani 1 1 d . . . . .
loop_
_atom_site_aniso_label
_atom_site_aniso_U_11
_atom_site_aniso_U_22
_atom_site_aniso_U_33
_atom_site_aniso_U_23
_atom_site_aniso_U_13
_atom_site_aniso_U_12
C1 0.0226(9) 0.0181(9) 0.0206(10) -0.0016(7) 0.0006(7) 0.0012(7)
C2 0.0246(9) 0.0157(9) 0.0244(10) -0.0012(7) 0.0010(8) 0.0035(7)
C3 0.0194(9) 0.0162(9) 0.0248(10) -0.0027(7) 0.0010(8) 0.0000(7)
C4 0.0184(9) 0.0172(9) 0.0225(10) -0.0012(7) -0.0001(7) -0.0008(7)
C5 0.0248(9) 0.0188(10) 0.0231(11) -0.0043(7) 0.0033(8) 0.0000(7)
F1 0.0520(12) 0.0246(11) 0.0274(10) -0.0070(7) 0.0063(9) 0.0075(7)
C6 0.0279(10) 0.0289(11) 0.0183(10) 0.0028(7) 0.0009(8) -0.0033(8)
C7 0.0249(10) 0.0224(11) 0.0292(11) 0.0102(8) -0.0022(8) -0.0013(8)
C8 0.0237(10) 0.0175(10) 0.0324(12) 0.0023(8) 0.0035(8) 0.0026(7)
C9 0.0236(9) 0.0185(10) 0.0196(10) -0.0019(7) 0.0036(7) 0.0011(7)
O1 0.0352(8) 0.0211(8) 0.0241(8) -0.0006(5) 0.0048(6) 0.0094(6)
O2 0.0435(9) 0.0256(8) 0.0197(8) 0.0014(5) 0.0039(6) 0.0124(6)
F2 0.0440(8) 0.0325(8) 0.0362(8) 0.0168(6) -0.0002(6) 0.0054(6)
loop_
_atom_type_symbol
_atom_type_description
_atom_type_scat_dispersion_real
_atom_type_scat_dispersion_imag
_atom_type_scat_source
C C 0.0033 0.0016 'International Tables Vol C Tables 4.2.6.8 and 6.1.1.4'
H H 0.0000 0.0000 'International Tables Vol C Tables 4.2.6.8 and 6.1.1.4'
O O 0.0106 0.0060 'International Tables Vol C Tables 4.2.6.8 and 6.1.1.4'
F F 0.0171 0.0103 'International Tables Vol C Tables 4.2.6.8 and 6.1.1.4'
loop_
_geom_angle_atom_site_label_1
_geom_angle_atom_site_label_2
_geom_angle_atom_site_label_3
_geom_angle
O1 C1 O2 123.12(17)
O1 C1 C2 120.74(19)
O2 C1 C2 116.14(17)
C3 C2 C1 121.60(18)
C3 C2 H2 119.2
C1 C2 H2 119.2
C2 C3 C4 126.56(18)
C2 C3 H3 116.7
C4 C3 H3 116.7
C5 C4 C9 117.19(17)
C5 C4 C3 120.12(18)
C9 C4 C3 122.7(2)
F1 C5 C6 118.5(2)
F1 C5 C4 118.42(18)
C6 C5 C4 123.08(19)
C6 C5 H5 118.5
C4 C5 H5 118.5
C7 C6 C5 116.7(2)
C7 C6 H6 121.7
C5 C6 H6 121.7
F2 C7 C8 118.3(2)
F2 C7 C6 118.2(2)
C8 C7 C6 123.56(18)
C7 C8 C9 118.4(2)
C7 C8 H8 120.8
C9 C8 H8 120.8
C8 C9 C4 121.1(2)
C8 C9 H9 119.5
C4 C9 H9 119.5
C1 O2 H2A 109.5
loop_
_geom_bond_atom_site_label_1
_geom_bond_atom_site_label_2
_geom_bond_distance
C1 O1 1.266(2)
C1 O2 1.287(3)
C1 C2 1.468(3)
C2 C3 1.333(3)
C2 H2 0.9500
C3 C4 1.463(3)
C3 H3 0.9500
C4 C5 1.394(3)
C4 C9 1.406(3)
C5 F1 1.345(3)
C5 C6 1.385(3)
C5 H5 0.9500
C6 C7 1.377(3)
C6 H6 0.9500
C7 F2 1.359(2)
C7 C8 1.371(3)
C8 C9 1.388(3)
C8 H8 0.9500
C9 H9 0.9500
O2 H2A 0.8400
loop_
_geom_hbond_atom_site_label_D
_geom_hbond_atom_site_label_H
_geom_hbond_atom_site_label_A
_geom_hbond_distance_DH
_geom_hbond_distance_HA
_geom_hbond_distance_DA
_geom_hbond_angle_DHA
_geom_hbond_site_symmetry_A
C2 H2 O2 0.95 2.59 3.536(4) 172.4 3_655
O2 H2A O1 0.84 1.78 2.611(3) 168.2 3_565
loop_
_geom_torsion_atom_site_label_1
_geom_torsion_atom_site_label_2
_geom_torsion_atom_site_label_3
_geom_torsion_atom_site_label_4
_geom_torsion
O1 C1 C2 C3 -2.7(3)
O2 C1 C2 C3 177.32(17)
C1 C2 C3 C4 -179.44(16)
C2 C3 C4 C5 173.84(18)
C2 C3 C4 C9 -6.8(3)
C9 C4 C5 F1 -179.07(17)
C3 C4 C5 F1 0.4(3)
C9 C4 C5 C6 0.6(3)
C3 C4 C5 C6 179.99(16)
F1 C5 C6 C7 179.65(17)
C4 C5 C6 C7 0.0(3)
C5 C6 C7 F2 179.19(16)
C5 C6 C7 C8 -0.7(3)
F2 C7 C8 C9 -179.10(16)
C6 C7 C8 C9 0.8(3)
C7 C8 C9 C4 -0.2(3)
C5 C4 C9 C8 -0.5(3)
C3 C4 C9 C8 -179.89(16)
