#------------------------------------------------------------------------------
#$Date: 2019-11-17 11:50:22 +0200 (Sun, 17 Nov 2019) $
#$Revision: 229702 $
#$URL: file:///home/coder/svn-repositories/cod/cif/7/04/61/7046140.cif $
#------------------------------------------------------------------------------
#
# This file is available in the Crystallography Open Database (COD),
# http://www.crystallography.net/
#
# All data on this site have been placed in the public domain by the
# contributors.
#
data_7046140
loop_
_publ_author_name
'Sun, Ai-Huan'
'Wei, Qi'
'Fu, Ai-Ping'
'Han, Song-De'
'Li, Jin-Hua'
'Wang, Guo-Ming'
_publ_section_title
;
 Syntheses, structures and efficient visible light-driven photocatalytic
 properties of layered cuprous halides based on two types of building
 units.
;
_journal_issue                   20
_journal_name_full
'Dalton transactions (Cambridge, England : 2003)'
_journal_page_first              6965
_journal_page_last               6972
_journal_paper_doi               10.1039/c7dt04733a
_journal_volume                  47
_journal_year                    2018
_chemical_formula_moiety         'C9 H6.36 F1.64 O2'
_chemical_formula_sum            'C9 H6.36 F1.64 O2'
_chemical_formula_weight         177.68
_space_group_crystal_system      triclinic
_space_group_IT_number           2
_space_group_name_Hall           '-P 1'
_space_group_name_H-M_alt        'P -1'
_symmetry_space_group_name_Hall  '-P 1'
_symmetry_space_group_name_H-M   'P -1'
_atom_sites_solution_hydrogens   geom
_audit_creation_method           SHELXL-2014/7
_audit_update_record
;
2018-03-28 deposited with the CCDC.
2018-04-09 downloaded from the CCDC.
;
_cell_angle_alpha                86.11(4)
_cell_angle_beta                 85.37(6)
_cell_angle_gamma                87.17(5)
_cell_formula_units_Z            2
_cell_length_a                   3.756(9)
_cell_length_b                   6.293(16)
_cell_length_c                   16.06(4)
_cell_measurement_reflns_used    812
_cell_measurement_temperature    293(2)
_cell_measurement_theta_max      27.5
_cell_measurement_theta_min      3.2
_cell_volume                     377.1(16)
_computing_structure_refinement  'SHELXL-2014/7 (Sheldrick, 2014)'
_diffrn_ambient_temperature      293(2)
_diffrn_measured_fraction_theta_full 0.997
_diffrn_measured_fraction_theta_max 0.996
_diffrn_measurement_device_type  CCD
_diffrn_radiation_type           MoK\a
_diffrn_radiation_wavelength     0.71073
_diffrn_reflns_av_R_equivalents  0.1103
_diffrn_reflns_av_unetI/netI     0.0953
_diffrn_reflns_Laue_measured_fraction_full 0.997
_diffrn_reflns_Laue_measured_fraction_max 0.996
_diffrn_reflns_limit_h_max       4
_diffrn_reflns_limit_h_min       -4
_diffrn_reflns_limit_k_max       8
_diffrn_reflns_limit_k_min       -8
_diffrn_reflns_limit_l_max       20
_diffrn_reflns_limit_l_min       -20
_diffrn_reflns_number            3932
_diffrn_reflns_point_group_measured_fraction_full 0.997
_diffrn_reflns_point_group_measured_fraction_max 0.996
_diffrn_reflns_theta_full        25.242
_diffrn_reflns_theta_max         27.487
_diffrn_reflns_theta_min         1.274
_exptl_absorpt_coefficient_mu    0.136
_exptl_crystal_colour            colourless
_exptl_crystal_density_diffrn    1.565
_exptl_crystal_description       plate
_exptl_crystal_F_000             182.3
_exptl_crystal_size_max          0.7
_exptl_crystal_size_mid          0.5
_exptl_crystal_size_min          0.2
_refine_diff_density_max         0.483
_refine_diff_density_min         -0.448
_refine_diff_density_rms         0.096
_refine_ls_extinction_method     none
_refine_ls_goodness_of_fit_ref   1.031
_refine_ls_hydrogen_treatment    constr
_refine_ls_matrix_type           full
_refine_ls_number_parameters     130
_refine_ls_number_reflns         1715
_refine_ls_number_restraints     0
_refine_ls_restrained_S_all      1.031
_refine_ls_R_factor_all          0.1304
_refine_ls_R_factor_gt           0.0884
_refine_ls_shift/su_max          0.000
_refine_ls_shift/su_mean         0.000
_refine_ls_structure_factor_coef Fsqd
_refine_ls_weighting_details
'w=1/[\s^2^(Fo^2^)+(0.1603P)^2^] where P=(Fo^2^+2Fc^2^)/3'
_refine_ls_weighting_scheme      calc
_refine_ls_wR_factor_gt          0.2301
_refine_ls_wR_factor_ref         0.2835
_reflns_Friedel_coverage         0.000
_reflns_number_gt                1003
_reflns_number_total             1715
_reflns_threshold_expression     'I > 2\s(I)'
_cod_data_source_file            c7dt04733a2.cif
_cod_data_source_block           23
_cod_depositor_comments
'Adding full bibliography for 7046123--7046152.cif.'
_cod_original_cell_volume        377.2(16)
_cod_database_code               7046140
_shelx_shelxl_version_number     2014/7
_shelx_space_group_comment
;
The symmetry employed for this shelxl refinement is uniquely defined
by the following loop, which should always be used as a source of
symmetry information in preference to the above space-group names.
They are only intended as comments.
;
_shelx_res_file
;

    shelx.res created by SHELXL-2014/7

TITL datam in P-1
CELL  0.71073   3.7555   6.2928  16.0638   86.108   85.373   87.170
ZERR     9.00   0.0087   0.0158   0.0378    0.042    0.056    0.047
LATT   1
SFAC  C    H    O    F
UNIT  9 9 9 9
MERG   2
OMIT    -2.00  55.00
EQIV $1 -x, -y, -z
HTAB C2 O2_$1
EQIV $2 -x+1, -y+1, -z
HTAB O2 O1_$2
FMAP   2
PLAN   20
ACTA
HTAB    2.00000
BOND
BOND   $H
CONF
L.S.  50
WGHT    0.160300
FVAR       0.84443   0.48694   0.35859
MOLE    1
C1    1    0.311514    0.268109    0.069664    11.00000    0.03364    0.03004 =
         0.04111    0.00529   -0.00305    0.00378
C2    1    0.167231    0.087121    0.120536    11.00000    0.03646    0.02617 =
         0.04076    0.00362   -0.00330   -0.00370
AFIX  43
H2    2    0.073545   -0.023032    0.094594    11.00000   -1.20000
AFIX   0
C3    1    0.167365    0.076894    0.203709    11.00000    0.03103    0.02846 =
         0.03964    0.00046   -0.00383    0.00015
AFIX  43
H3    2    0.268014    0.188686    0.227161    11.00000   -1.20000
AFIX   0
C4    1    0.027025   -0.090164    0.260626    11.00000    0.02775    0.03353 =
         0.03959    0.00363   -0.00603    0.00418
C5    1    0.016408   -0.066610    0.345684    11.00000    0.04555    0.03428 =
         0.04017    0.00140   -0.00621    0.00140
PART    1
AFIX  43
H5    2    0.097390    0.056990    0.364986    21.00000   -1.20000
AFIX   0
PART    2
F1    4    0.137286    0.100472    0.374554   -21.00000    0.08582    0.04261 =
         0.04258    0.00048   -0.01563   -0.00350
PART    0
C6    1   -0.112511   -0.223820    0.402094    11.00000    0.05773    0.05153 =
         0.03549    0.00646   -0.00391    0.00368
PART    1
AFIX  43
H6    2   -0.116846   -0.207129    0.459254    31.00000   -1.20000
AFIX   0
PART    2
F2    4   -0.110867   -0.195346    0.482993   -31.00000    0.14342    0.08976 =
         0.05607    0.00991   -0.01110    0.00502
PART    0
C7    1   -0.232680   -0.402373    0.374177    11.00000    0.04351    0.04594 =
         0.04882    0.01667   -0.00227    0.00319
PART    1
AFIX  43
H7    2   -0.323984   -0.506755    0.412706   -21.00000   -1.20000
AFIX   0
PART    2
F3    4   -0.364664   -0.552447    0.429265    21.00000    0.07267    0.05651 =
         0.07237    0.03521    0.01018   -0.00601
PART    0
C8    1   -0.223752   -0.433234    0.291981    11.00000    0.03824    0.03198 =
         0.05671    0.00868   -0.00768    0.00012
AFIX  43
H8    2   -0.304053   -0.558704    0.274119    11.00000   -1.20000
AFIX   0
C9    1   -0.095372   -0.278363    0.234649    11.00000    0.03242    0.03230 =
         0.04741    0.00014   -0.00447    0.00185
AFIX  43
H9    2   -0.090041   -0.299320    0.177800    11.00000   -1.20000
AFIX   0
O1    3    0.450347    0.416566    0.101207    11.00000    0.05127    0.02962 =
         0.04108    0.00346   -0.01072   -0.00854
O2    3    0.280125    0.264602   -0.010010    11.00000    0.05841    0.03469 =
         0.03992    0.00727   -0.00745   -0.01339
AFIX 147
H2A   2    0.408696    0.353004   -0.035352    11.00000   -1.50000
AFIX   0
HKLF    4

REM  datam in P-1
REM R1 =  0.0884 for    1003 Fo > 4sig(Fo)  and  0.1304 for all    1715 data
REM    130 parameters refined using      0 restraints

END

WGHT      0.1572      0.0000

REM Instructions for potential hydrogen bonds
HTAB C2 O2_$1
HTAB O2 O1_$2

REM Highest difference peak  0.483,  deepest hole -0.448,  1-sigma level  0.096
Q1    1  -0.3403 -0.6047  0.2867  11.00000  0.05    0.48
Q2    1  -0.3324 -0.1344  0.3396  11.00000  0.05    0.26
Q3    1  -0.7225 -0.5948  0.4633  11.00000  0.05    0.25
Q4    1  -0.0741  0.2584  0.3799  11.00000  0.05    0.25
Q5    1   0.0352 -0.6140  0.2581  11.00000  0.05    0.23
Q6    1  -0.2390  0.0501  0.2782  11.00000  0.05    0.23
Q7    1   0.1557  0.1486  0.3679  11.00000  0.05    0.23
Q8    1  -0.1239 -0.5225  0.5026  11.00000  0.05    0.22
Q9    1  -0.5898 -0.1165  0.5377  11.00000  0.05    0.22
Q10   1  -0.5050 -0.3132  0.4749  11.00000  0.05    0.21
Q11   1  -0.3590 -0.0488  0.3994  11.00000  0.05    0.21
Q12   1  -0.3364 -0.7925  0.2725  11.00000  0.05    0.20
Q13   1   0.2100 -0.4682  0.3728  11.00000  0.05    0.20
Q14   1   0.2500 -0.3306  0.4360  11.00000  0.05    0.20
Q15   1   0.4302 -0.1048  0.3602  11.00000  0.05    0.20
Q16   1  -0.2970 -0.7551  0.3458  11.00000  0.05    0.20
Q17   1   0.5390  0.0387  0.3404  11.00000  0.05    0.20
Q18   1   0.3941 -0.1558  0.3258  11.00000  0.05    0.19
Q19   1   0.3914 -0.1553  0.3786  11.00000  0.05    0.19
Q20   1   0.5010  0.1295  0.3640  11.00000  0.05    0.19
;
_shelx_res_checksum              26072
loop_
_space_group_symop_operation_xyz
'x, y, z'
'-x, -y, -z'
loop_
_atom_site_label
_atom_site_type_symbol
_atom_site_fract_x
_atom_site_fract_y
_atom_site_fract_z
_atom_site_U_iso_or_equiv
_atom_site_adp_type
_atom_site_occupancy
_atom_site_site_symmetry_order
_atom_site_calc_flag
_atom_site_refinement_flags_posn
_atom_site_refinement_flags_adp
_atom_site_refinement_flags_occupancy
_atom_site_disorder_assembly
_atom_site_disorder_group
C1 C 0.3115(8) 0.2681(5) 0.0697(2) 0.0354(8) Uani 1 1 d . . . . .
C2 C 0.1672(8) 0.0871(5) 0.1205(2) 0.0346(8) Uani 1 1 d . . . . .
H2 H 0.0735 -0.0230 0.0946 0.042 Uiso 1 1 calc R U . . .
C3 C 0.1674(8) 0.0769(5) 0.20371(19) 0.0332(7) Uani 1 1 d . . . . .
H3 H 0.2680 0.1887 0.2272 0.040 Uiso 1 1 calc R U . . .
C4 C 0.0270(8) -0.0902(5) 0.2606(2) 0.0339(8) Uani 1 1 d . . . . .
C5 C 0.0164(9) -0.0666(5) 0.3457(2) 0.0401(8) Uani 1 1 d . . . . .
H5 H 0.0974 0.0570 0.3650 0.048 Uiso 0.487(6) 1 calc R U P A 1
F1 F 0.1373(12) 0.1005(6) 0.3746(2) 0.0566(15) Uani 0.513(6) 1 d . . P A 2
C6 C -0.1125(10) -0.2238(6) 0.4021(2) 0.0489(10) Uani 1 1 d . . . . .
H6 H -0.1168 -0.2071 0.4593 0.059 Uiso 0.359(4) 1 calc R U P B 1
F2 F -0.1109(15) -0.1953(8) 0.4830(3) 0.0972(17) Uani 0.641(4) 1 d . . P B 2
C7 C -0.2327(10) -0.4024(6) 0.3742(2) 0.0472(9) Uani 1 1 d . . . . .
H7 H -0.3240 -0.5068 0.4127 0.057 Uiso 0.513(6) 1 calc R U P A 1
F3 F -0.3647(14) -0.5524(8) 0.4293(3) 0.0697(19) Uani 0.487(6) 1 d . . P A 2
C8 C -0.2238(9) -0.4332(5) 0.2920(2) 0.0427(9) Uani 1 1 d . . . . .
H8 H -0.3041 -0.5587 0.2741 0.051 Uiso 1 1 calc R U . . .
C9 C -0.0954(8) -0.2784(5) 0.2346(2) 0.0375(8) Uani 1 1 d . . . . .
H9 H -0.0900 -0.2993 0.1778 0.045 Uiso 1 1 calc R U . . .
O1 O 0.4503(6) 0.4166(3) 0.10121(14) 0.0403(7) Uani 1 1 d . . . . .
O2 O 0.2801(7) 0.2646(4) -0.01001(14) 0.0442(7) Uani 1 1 d . . . . .
H2A H 0.4087 0.3530 -0.0354 0.066 Uiso 1 1 calc R U . . .
loop_
_atom_site_aniso_label
_atom_site_aniso_U_11
_atom_site_aniso_U_22
_atom_site_aniso_U_33
_atom_site_aniso_U_23
_atom_site_aniso_U_13
_atom_site_aniso_U_12
C1 0.0336(16) 0.0300(16) 0.0411(18) 0.0053(13) -0.0030(13) 0.0038(12)
C2 0.0365(17) 0.0262(15) 0.0408(18) 0.0036(12) -0.0033(13) -0.0037(12)
C3 0.0310(15) 0.0285(15) 0.0396(17) 0.0005(13) -0.0038(13) 0.0002(11)
C4 0.0278(15) 0.0335(16) 0.0396(18) 0.0036(13) -0.0060(12) 0.0042(11)
C5 0.0456(19) 0.0343(17) 0.0402(19) 0.0014(14) -0.0062(15) 0.0014(14)
F1 0.086(3) 0.043(2) 0.043(2) 0.0005(18) -0.016(2) -0.003(2)
C6 0.058(2) 0.052(2) 0.0355(18) 0.0065(16) -0.0039(16) 0.0037(17)
F2 0.143(5) 0.090(3) 0.056(3) 0.010(2) -0.011(3) 0.005(3)
C7 0.0435(19) 0.046(2) 0.049(2) 0.0167(16) -0.0023(16) 0.0032(15)
F3 0.073(3) 0.057(3) 0.072(4) 0.035(3) 0.010(3) -0.006(2)
C8 0.0382(18) 0.0320(16) 0.057(2) 0.0087(15) -0.0077(15) 0.0001(13)
C9 0.0324(16) 0.0323(16) 0.0474(19) 0.0001(14) -0.0045(14) 0.0019(12)
O1 0.0513(14) 0.0296(12) 0.0411(14) 0.0035(9) -0.0107(10) -0.0085(10)
O2 0.0584(16) 0.0347(13) 0.0399(14) 0.0073(10) -0.0075(11) -0.0134(11)
loop_
_atom_type_symbol
_atom_type_description
_atom_type_scat_dispersion_real
_atom_type_scat_dispersion_imag
_atom_type_scat_source
C C 0.0033 0.0016 'International Tables Vol C Tables 4.2.6.8 and 6.1.1.4'
H H 0.0000 0.0000 'International Tables Vol C Tables 4.2.6.8 and 6.1.1.4'
O O 0.0106 0.0060 'International Tables Vol C Tables 4.2.6.8 and 6.1.1.4'
F F 0.0171 0.0103 'International Tables Vol C Tables 4.2.6.8 and 6.1.1.4'
loop_
_geom_angle_atom_site_label_1
_geom_angle_atom_site_label_2
_geom_angle_atom_site_label_3
_geom_angle
O1 C1 O2 122.8(3)
O1 C1 C2 122.0(3)
O2 C1 C2 115.2(3)
C3 C2 C1 121.0(3)
C3 C2 H2 119.5
C1 C2 H2 119.5
C2 C3 C4 126.3(3)
C2 C3 H3 116.8
C4 C3 H3 116.8
C5 C4 C9 117.6(3)
C5 C4 C3 119.0(3)
C9 C4 C3 123.4(3)
F1 C5 C6 118.1(4)
F1 C5 C4 121.1(4)
C6 C5 C4 120.7(4)
C6 C5 H5 119.6
C4 C5 H5 119.6
F2 C6 C7 121.9(4)
F2 C6 C5 118.4(4)
C7 C6 C5 119.7(4)
C7 C6 H6 120.2
C5 C6 H6 120.2
F3 C7 C8 119.0(4)
F3 C7 C6 119.4(4)
C8 C7 C6 121.6(3)
C8 C7 H7 119.2
C6 C7 H7 119.2
C7 C8 C9 119.6(4)
C7 C8 H8 120.2
C9 C8 H8 120.2
C8 C9 C4 120.8(4)
C8 C9 H9 119.6
C4 C9 H9 119.6
C1 O2 H2A 109.5
loop_
_geom_bond_atom_site_label_1
_geom_bond_atom_site_label_2
_geom_bond_distance
C1 O1 1.248(4)
C1 O2 1.296(5)
C1 C2 1.457(5)
C2 C3 1.333(6)
C2 H2 0.9300
C3 C4 1.437(5)
C3 H3 0.9300
C4 C5 1.382(6)
C4 C9 1.393(5)
C5 F1 1.294(6)
C5 C6 1.374(5)
C5 H5 0.9300
C6 F2 1.324(7)
C6 C7 1.348(6)
C6 H6 0.9300
C7 F3 1.335(6)
C7 C8 1.345(6)
C7 H7 0.9300
C8 C9 1.372(5)
C8 H8 0.9300
C9 H9 0.9300
O2 H2A 0.8200
loop_
_geom_hbond_atom_site_label_D
_geom_hbond_atom_site_label_H
_geom_hbond_atom_site_label_A
_geom_hbond_distance_DH
_geom_hbond_distance_HA
_geom_hbond_distance_DA
_geom_hbond_angle_DHA
_geom_hbond_site_symmetry_A
C2 H2 O2 0.93 2.59 3.501(7) 167.6 2
O2 H2A O1 0.82 1.81 2.600(5) 160.9 2_665
loop_
_geom_torsion_atom_site_label_1
_geom_torsion_atom_site_label_2
_geom_torsion_atom_site_label_3
_geom_torsion_atom_site_label_4
_geom_torsion
O1 C1 C2 C3 2.3(5)
O2 C1 C2 C3 -176.7(3)
C1 C2 C3 C4 178.7(3)
C2 C3 C4 C5 -173.7(3)
C2 C3 C4 C9 7.3(5)
C9 C4 C5 F1 177.5(3)
C3 C4 C5 F1 -1.5(5)
C9 C4 C5 C6 -0.3(5)
C3 C4 C5 C6 -179.3(3)
F1 C5 C6 F2 0.9(6)
C4 C5 C6 F2 178.8(4)
F1 C5 C6 C7 -178.4(4)
C4 C5 C6 C7 -0.5(6)
F2 C6 C7 F3 2.2(7)
C5 C6 C7 F3 -178.6(4)
F2 C6 C7 C8 -178.0(4)
C5 C6 C7 C8 1.3(6)
F3 C7 C8 C9 178.7(4)
C6 C7 C8 C9 -1.2(5)
C7 C8 C9 C4 0.3(5)
C5 C4 C9 C8 0.4(5)
C3 C4 C9 C8 179.4(3)
