#------------------------------------------------------------------------------
#$Date: 2019-11-17 11:50:22 +0200 (Sun, 17 Nov 2019) $
#$Revision: 229702 $
#$URL: file:///home/coder/svn-repositories/cod/cif/7/04/61/7046128.cif $
#------------------------------------------------------------------------------
#
# This file is available in the Crystallography Open Database (COD),
# http://www.crystallography.net/
#
# All data on this site have been placed in the public domain by the
# contributors.
#
data_7046128
loop_
_publ_author_name
'Sun, Ai-Huan'
'Wei, Qi'
'Fu, Ai-Ping'
'Han, Song-De'
'Li, Jin-Hua'
'Wang, Guo-Ming'
_publ_section_title
;
 Syntheses, structures and efficient visible light-driven photocatalytic
 properties of layered cuprous halides based on two types of building
 units.
;
_journal_issue                   20
_journal_name_full
'Dalton transactions (Cambridge, England : 2003)'
_journal_page_first              6965
_journal_page_last               6972
_journal_paper_doi               10.1039/c7dt04733a
_journal_volume                  47
_journal_year                    2018
_chemical_formula_moiety         'C9 H6.49 F1.51 O2'
_chemical_formula_sum            'C9 H6.49 F1.51 O2'
_chemical_formula_weight         175.38
_space_group_crystal_system      monoclinic
_space_group_IT_number           14
_space_group_name_Hall           '-P 2ybc'
_space_group_name_H-M_alt        'P 1 21/c 1'
_symmetry_space_group_name_Hall  '-P 2ybc'
_symmetry_space_group_name_H-M   'P 1 21/c 1'
_atom_sites_solution_hydrogens   geom
_audit_creation_method           SHELXL-2014/7
_audit_update_record
;
2018-03-28 deposited with the CCDC.
2018-04-09 downloaded from the CCDC.
;
_cell_angle_alpha                90
_cell_angle_beta                 90.178(15)
_cell_angle_gamma                90
_cell_formula_units_Z            4
_cell_length_a                   6.578(2)
_cell_length_b                   3.7325(10)
_cell_length_c                   31.302(11)
_cell_measurement_reflns_used    1353
_cell_measurement_temperature    373(2)
_cell_measurement_theta_max      27.5
_cell_measurement_theta_min      2.0
_cell_volume                     768.5(4)
_computing_structure_refinement  'SHELXL-2014/7 (Sheldrick, 2014)'
_diffrn_ambient_temperature      373(2)
_diffrn_measured_fraction_theta_full 0.999
_diffrn_measured_fraction_theta_max 0.998
_diffrn_measurement_device_type  CCD
_diffrn_radiation_type           MoK\a
_diffrn_radiation_wavelength     0.71073
_diffrn_reflns_av_R_equivalents  0.1247
_diffrn_reflns_av_unetI/netI     0.0918
_diffrn_reflns_Laue_measured_fraction_full 0.999
_diffrn_reflns_Laue_measured_fraction_max 0.998
_diffrn_reflns_limit_h_max       8
_diffrn_reflns_limit_h_min       -8
_diffrn_reflns_limit_k_max       4
_diffrn_reflns_limit_k_min       -4
_diffrn_reflns_limit_l_max       40
_diffrn_reflns_limit_l_min       -40
_diffrn_reflns_number            6427
_diffrn_reflns_point_group_measured_fraction_full 0.999
_diffrn_reflns_point_group_measured_fraction_max 0.998
_diffrn_reflns_theta_full        25.242
_diffrn_reflns_theta_max         27.498
_diffrn_reflns_theta_min         2.603
_exptl_absorpt_coefficient_mu    0.130
_exptl_crystal_colour            colourless
_exptl_crystal_density_diffrn    1.516
_exptl_crystal_description       plate
_exptl_crystal_F_000             360.4
_refine_diff_density_max         0.254
_refine_diff_density_min         -0.423
_refine_diff_density_rms         0.081
_refine_ls_extinction_method     none
_refine_ls_goodness_of_fit_ref   1.062
_refine_ls_hydrogen_treatment    constr
_refine_ls_matrix_type           full
_refine_ls_number_parameters     130
_refine_ls_number_reflns         1752
_refine_ls_number_restraints     0
_refine_ls_restrained_S_all      1.062
_refine_ls_R_factor_all          0.1023
_refine_ls_R_factor_gt           0.0727
_refine_ls_shift/su_max          0.000
_refine_ls_shift/su_mean         0.000
_refine_ls_structure_factor_coef Fsqd
_refine_ls_weighting_details
'w=1/[\s^2^(Fo^2^)+(0.1121P)^2^] where P=(Fo^2^+2Fc^2^)/3'
_refine_ls_weighting_scheme      calc
_refine_ls_wR_factor_gt          0.1860
_refine_ls_wR_factor_ref         0.2147
_reflns_Friedel_coverage         0.000
_reflns_number_gt                1214
_reflns_number_total             1752
_reflns_threshold_expression     'I > 2\s(I)'
_cod_data_source_file            c7dt04733a2.cif
_cod_data_source_block           19
_cod_depositor_comments
'Adding full bibliography for 7046123--7046152.cif.'
_cod_database_code               7046128
_shelx_shelxl_version_number     2014/7
_shelx_space_group_comment
;
The symmetry employed for this shelxl refinement is uniquely defined
by the following loop, which should always be used as a source of
symmetry information in preference to the above space-group names.
They are only intended as comments.
;
_shelx_res_file
;

    shelx.res created by SHELXL-2014/7

TITL SIR2004 run in space group P 1 21/c 1
CELL  0.71073   6.5775   3.7325  31.3025   90.000   90.178   90.000
ZERR     4.00   0.0023   0.0010   0.0113    0.000    0.015    0.000
LATT   1
SYMM  - X, 1/2 + Y, 1/2 - Z
SFAC  C    H    O    F
UNIT  17 17 17 17
MERG   2
OMIT    -2.00  55.00
OMIT     0   0   2
EQIV $1 -x+1, -y-1, -z
HTAB C2 O2_$1
EQIV $2 -x, -y, -z
HTAB O2 O1_$2
HTAB C2 O2_$1
HTAB O2 O1_$2
FMAP   2
PLAN   25
ACTA
BOND   $H
CONF
L.S.  50
TEMP   100.10
WGHT    0.112100
FVAR       0.49417   0.63896   0.48671
C1    1    0.225622   -0.141444    0.035025    11.00000    0.04502    0.02564 =
         0.03518    0.00098    0.01277   -0.00048
C2    1    0.400280   -0.249565    0.060603    11.00000    0.03884    0.02684 =
         0.04151   -0.00043    0.01403    0.00165
AFIX  43
H2    2    0.507468   -0.370800    0.047772    11.00000   -1.20000
AFIX   0
C3    1    0.407949   -0.176785    0.102025    11.00000    0.03381    0.02527 =
         0.04054    0.00113    0.01257    0.00007
AFIX  43
H3    2    0.297185   -0.054053    0.113214    11.00000   -1.20000
AFIX   0
C4    1    0.569798   -0.266746    0.132077    11.00000    0.03393    0.02279 =
         0.04784   -0.00004    0.00904   -0.00278
C9    1    0.755788   -0.413756    0.118596    11.00000    0.03531    0.02787 =
         0.07221   -0.00185    0.01362   -0.00178
AFIX  43
H9    2    0.778206   -0.458326    0.089762    11.00000   -1.20000
AFIX   0
C8    1    0.903608   -0.490970    0.148039    11.00000    0.03644    0.02882 =
         0.12086    0.00220   -0.00985   -0.00277
PART    1
AFIX  43
H8    2    1.025731   -0.590279    0.138955    21.00000   -1.20000
AFIX   0
PART    2
F1B   4    1.075141   -0.626218    0.146661   -21.00000    0.02247    0.03965 =
         0.06254   -0.00850    0.01143    0.00743
PART    0
C7    1    0.875056   -0.424655    0.190698    11.00000    0.04928    0.03586 =
         0.11689    0.01474   -0.03324   -0.00737
PART    1
AFIX  43
H7    2    0.977168   -0.475762    0.210390    31.00000   -1.20000
AFIX   0
PART    2
F2    4    1.026031   -0.501324    0.213014   -31.00000    0.07886    0.08172 =
         0.11230    0.02279   -0.05323   -0.00875
PART    0
C6    1    0.693731   -0.281900    0.203872    11.00000    0.06281    0.04659 =
         0.05729    0.00854   -0.02023   -0.01169
PART    1
AFIX  43
H6    2    0.673935   -0.236857    0.232782   -21.00000   -1.20000
AFIX   0
PART    2
F1A   4    0.687065   -0.232474    0.242965    21.00000    0.06076    0.08645 =
         0.03860    0.00108    0.00095    0.00117
PART    0
C5    1    0.540279   -0.203592    0.175384    11.00000    0.03956    0.03329 =
         0.04651    0.00069    0.00161   -0.00213
AFIX  43
H5    2    0.417865   -0.109221    0.185021    11.00000   -1.20000
AFIX   0
O2    3    0.233873   -0.235794   -0.005164    11.00000    0.05052    0.04769 =
         0.03329   -0.00310    0.01082    0.00860
AFIX 147
H2A   2    0.130565   -0.168364   -0.017494    11.00000   -1.50000
AFIX   0
O1    3    0.079029    0.028406    0.050000    11.00000    0.04685    0.04062 =
         0.03701   -0.00170    0.01120    0.00929
HKLF    4

REM  SIR2004 run in space group P 1 21/c 1
REM R1 =  0.0727 for    1214 Fo > 4sig(Fo)  and  0.1023 for all    1752 data
REM    130 parameters refined using      0 restraints

END

WGHT      0.1118      0.0000

REM Highest difference peak  0.254,  deepest hole -0.423,  1-sigma level  0.081
Q1    1   0.1898  0.3064  0.0600  11.00000  0.05    0.25
Q2    1   0.8282 -0.8764  0.1756  11.00000  0.05    0.23
Q3    1   0.3073 -0.5447  0.0512  11.00000  0.05    0.22
Q4    1   0.4413 -0.6389  0.0805  11.00000  0.05    0.21
Q5    1   0.0687  0.3156  0.0271  11.00000  0.05    0.21
Q6    1   0.3031 -0.5763  0.0829  11.00000  0.05    0.20
Q7    1   0.6812 -0.6867  0.1786  11.00000  0.05    0.20
Q8    1   0.9027  0.0210  0.1736  11.00000  0.05    0.20
Q9    1   0.4717 -0.4958  0.0382  11.00000  0.05    0.20
Q10   1   0.6169 -0.4859  0.1908  11.00000  0.05    0.19
Q11   1   0.7818  0.1803  0.2266  11.00000  0.05    0.19
Q12   1   0.6558  0.1780  0.2181  11.00000  0.05    0.18
Q13   1   0.7303 -0.6315  0.2201  11.00000  0.05    0.18
Q14   1   1.0369 -0.0944  0.2109  11.00000  0.05    0.17
Q15   1   0.7838  0.0253  0.1526  11.00000  0.05    0.17
Q16   1   0.9407 -0.9501  0.2141  11.00000  0.05    0.17
Q17   1   0.9355 -0.8465  0.2135  11.00000  0.05    0.17
Q18   1   0.5902  0.0779  0.2311  11.00000  0.05    0.16
Q19   1   0.8504 -0.8489  0.1259  11.00000  0.05    0.16
Q20   1   0.2627 -0.6598  0.0204  11.00000  0.05    0.16
Q21   1   0.9227 -0.2327  0.1600  11.00000  0.05    0.15
Q22   1   0.0086 -0.3809  0.0093  11.00000  0.05    0.15
Q23   1   0.5979 -0.6089  0.1494  11.00000  0.05    0.15
Q24   1   0.7676  0.0075  0.1088  11.00000  0.05    0.15
Q25   1   0.2457  0.2859  0.0976  11.00000  0.05    0.15
;
_shelx_res_checksum              85983
loop_
_space_group_symop_operation_xyz
'x, y, z'
'-x, y+1/2, -z+1/2'
'-x, -y, -z'
'x, -y-1/2, z-1/2'
loop_
_atom_site_label
_atom_site_type_symbol
_atom_site_fract_x
_atom_site_fract_y
_atom_site_fract_z
_atom_site_U_iso_or_equiv
_atom_site_adp_type
_atom_site_occupancy
_atom_site_site_symmetry_order
_atom_site_calc_flag
_atom_site_refinement_flags_posn
_atom_site_refinement_flags_adp
_atom_site_refinement_flags_occupancy
_atom_site_disorder_assembly
_atom_site_disorder_group
C1 C 0.2256(3) -0.1414(6) 0.03503(7) 0.0353(6) Uani 1 1 d . . . . .
C2 C 0.4003(3) -0.2496(5) 0.06060(7) 0.0357(6) Uani 1 1 d . . . . .
H2 H 0.5075 -0.3708 0.0478 0.043 Uiso 1 1 calc R U . . .
C3 C 0.4079(3) -0.1768(6) 0.10203(7) 0.0332(6) Uani 1 1 d . . . . .
H3 H 0.2972 -0.0541 0.1132 0.040 Uiso 1 1 calc R U . . .
C4 C 0.5698(3) -0.2667(5) 0.13208(8) 0.0348(6) Uani 1 1 d . . . . .
C9 C 0.7558(4) -0.4138(6) 0.11860(10) 0.0451(7) Uani 1 1 d . . . . .
H9 H 0.7782 -0.4583 0.0898 0.054 Uiso 1 1 calc R U . . .
C8 C 0.9036(4) -0.4910(7) 0.14804(13) 0.0621(10) Uani 1 1 d . . . . .
H8 H 1.0257 -0.5903 0.1390 0.074 Uiso 0.639(3) 1 calc R U P A 1
F1B F 1.0751(5) -0.6262(10) 0.14666(14) 0.0415(11) Uani 0.361(3) 1 d . . P A 2
C7 C 0.8751(4) -0.4247(7) 0.19070(14) 0.0674(10) Uani 1 1 d . . . . .
H7 H 0.9772 -0.4758 0.2104 0.081 Uiso 0.487(6) 1 calc R U P B 1
F2 F 1.0260(6) -0.5013(11) 0.21301(16) 0.0911(18) Uani 0.513(6) 1 d . . P B 2
C6 C 0.6937(5) -0.2819(7) 0.20387(10) 0.0556(8) Uani 1 1 d . . . . .
H6 H 0.6739 -0.2369 0.2328 0.067 Uiso 0.361(3) 1 calc R U P A 1
F1A F 0.6871(4) -0.2325(8) 0.24296(8) 0.0619(9) Uani 0.639(3) 1 d . . P A 2
C5 C 0.5403(4) -0.2036(6) 0.17538(8) 0.0398(6) Uani 1 1 d . . . . .
H5 H 0.4179 -0.1092 0.1850 0.048 Uiso 1 1 calc R U . . .
O2 O 0.2339(3) -0.2358(4) -0.00516(5) 0.0438(5) Uani 1 1 d . . . . .
H2A H 0.1306 -0.1684 -0.0175 0.066 Uiso 1 1 calc R U . . .
O1 O 0.0790(2) 0.0284(4) 0.05000(5) 0.0415(5) Uani 1 1 d . . . . .
loop_
_atom_site_aniso_label
_atom_site_aniso_U_11
_atom_site_aniso_U_22
_atom_site_aniso_U_33
_atom_site_aniso_U_23
_atom_site_aniso_U_13
_atom_site_aniso_U_12
C1 0.0450(13) 0.0256(10) 0.0352(12) 0.0010(9) 0.0128(10) -0.0005(10)
C2 0.0388(13) 0.0268(10) 0.0415(14) -0.0004(9) 0.0140(10) 0.0016(9)
C3 0.0338(11) 0.0253(10) 0.0405(13) 0.0011(9) 0.0126(10) 0.0001(9)
C4 0.0339(12) 0.0228(10) 0.0478(14) 0.0000(9) 0.0090(10) -0.0028(9)
C9 0.0353(13) 0.0279(11) 0.0722(18) -0.0019(11) 0.0136(12) -0.0018(9)
C8 0.0364(15) 0.0288(13) 0.121(3) 0.0022(15) -0.0099(16) -0.0028(11)
F1B 0.0225(17) 0.040(2) 0.063(3) -0.0085(19) 0.0114(16) 0.0074(15)
C7 0.0493(17) 0.0359(15) 0.117(3) 0.0147(17) -0.0332(19) -0.0074(13)
F2 0.079(3) 0.082(3) 0.112(4) 0.023(2) -0.053(2) -0.009(2)
C6 0.0628(19) 0.0466(15) 0.0573(18) 0.0085(13) -0.0202(14) -0.0117(13)
F1A 0.0608(17) 0.086(2) 0.0386(14) 0.0011(13) 0.0010(11) 0.0012(13)
C5 0.0396(13) 0.0333(12) 0.0465(14) 0.0007(10) 0.0016(10) -0.0021(10)
O2 0.0505(11) 0.0477(10) 0.0333(9) -0.0031(7) 0.0108(7) 0.0086(8)
O1 0.0469(10) 0.0406(9) 0.0370(9) -0.0017(7) 0.0112(7) 0.0093(7)
loop_
_atom_type_symbol
_atom_type_description
_atom_type_scat_dispersion_real
_atom_type_scat_dispersion_imag
_atom_type_scat_source
C C 0.0033 0.0016 'International Tables Vol C Tables 4.2.6.8 and 6.1.1.4'
H H 0.0000 0.0000 'International Tables Vol C Tables 4.2.6.8 and 6.1.1.4'
O O 0.0106 0.0060 'International Tables Vol C Tables 4.2.6.8 and 6.1.1.4'
F F 0.0171 0.0103 'International Tables Vol C Tables 4.2.6.8 and 6.1.1.4'
loop_
_geom_angle_atom_site_label_1
_geom_angle_atom_site_label_2
_geom_angle_atom_site_label_3
_geom_angle
O1 C1 O2 122.2(2)
O1 C1 C2 123.0(2)
O2 C1 C2 114.81(19)
C3 C2 C1 120.6(2)
C3 C2 H2 119.7
C1 C2 H2 119.7
C2 C3 C4 127.6(2)
C2 C3 H3 116.2
C4 C3 H3 116.2
C5 C4 C9 118.9(2)
C5 C4 C3 119.1(2)
C9 C4 C3 122.0(2)
C8 C9 C4 119.8(3)
C8 C9 H9 120.1
C4 C9 H9 120.1
F1B C8 C9 135.1(4)
F1B C8 C7 103.6(4)
C9 C8 C7 121.2(3)
C9 C8 H8 119.4
C7 C8 H8 119.4
F2 C7 C6 127.8(5)
F2 C7 C8 113.2(4)
C6 C7 C8 119.0(3)
C6 C7 H7 120.5
C8 C7 H7 120.5
F1A C6 C7 112.9(3)
F1A C6 C5 125.5(3)
C7 C6 C5 121.6(3)
C7 C6 H6 119.2
C5 C6 H6 119.2
C6 C5 C4 119.4(3)
C6 C5 H5 120.3
C4 C5 H5 120.3
C1 O2 H2A 109.5
loop_
_geom_bond_atom_site_label_1
_geom_bond_atom_site_label_2
_geom_bond_distance
C1 O1 1.247(3)
C1 O2 1.308(3)
C1 C2 1.455(3)
C2 C3 1.326(3)
C2 H2 0.9300
C3 C4 1.458(3)
C3 H3 0.9300
C4 C5 1.390(3)
C4 C9 1.407(3)
C9 C8 1.368(4)
C9 H9 0.9300
C8 F1B 1.237(4)
C8 C7 1.372(5)
C8 H8 0.9300
C7 F2 1.246(5)
C7 C6 1.371(4)
C7 H7 0.9300
C6 F1A 1.238(4)
C6 C5 1.376(4)
C6 H6 0.9300
C5 H5 0.9300
O2 H2A 0.8200
loop_
_geom_hbond_atom_site_label_D
_geom_hbond_atom_site_label_H
_geom_hbond_atom_site_label_A
_geom_hbond_distance_DH
_geom_hbond_distance_HA
_geom_hbond_distance_DA
_geom_hbond_angle_DHA
_geom_hbond_site_symmetry_A
C2 H2 O2 0.93 2.62 3.538(3) 171.3 3_645
O2 H2A O1 0.82 1.79 2.605(3) 173.4 3
C2 H2 O2 0.93 2.62 3.538(3) 171.3 3_645
O2 H2A O1 0.82 1.79 2.605(3) 173.4 3
loop_
_geom_torsion_atom_site_label_1
_geom_torsion_atom_site_label_2
_geom_torsion_atom_site_label_3
_geom_torsion_atom_site_label_4
_geom_torsion
O1 C1 C2 C3 1.6(3)
O2 C1 C2 C3 -178.49(19)
C1 C2 C3 C4 179.68(18)
C2 C3 C4 C5 -172.7(2)
C2 C3 C4 C9 7.6(3)
C5 C4 C9 C8 -0.1(3)
C3 C4 C9 C8 179.5(2)
C4 C9 C8 F1B 177.6(3)
C4 C9 C8 C7 -0.6(4)
F1B C8 C7 F2 3.1(4)
C9 C8 C7 F2 -178.2(3)
F1B C8 C7 C6 -178.0(3)
C9 C8 C7 C6 0.7(4)
F2 C7 C6 F1A -0.8(5)
C8 C7 C6 F1A -179.6(3)
F2 C7 C6 C5 178.7(3)
C8 C7 C6 C5 -0.1(4)
F1A C6 C5 C4 178.8(3)
C7 C6 C5 C4 -0.7(4)
C9 C4 C5 C6 0.8(3)
C3 C4 C5 C6 -178.85(19)
