#------------------------------------------------------------------------------
#$Date: 2019-11-17 11:50:22 +0200 (Sun, 17 Nov 2019) $
#$Revision: 229702 $
#$URL: file:///home/coder/svn-repositories/cod/cif/7/04/61/7046127.cif $
#------------------------------------------------------------------------------
#
# This file is available in the Crystallography Open Database (COD),
# http://www.crystallography.net/
#
# All data on this site have been placed in the public domain by the
# contributors.
#
data_7046127
loop_
_publ_author_name
'Sun, Ai-Huan'
'Wei, Qi'
'Fu, Ai-Ping'
'Han, Song-De'
'Li, Jin-Hua'
'Wang, Guo-Ming'
_publ_section_title
;
 Syntheses, structures and efficient visible light-driven photocatalytic
 properties of layered cuprous halides based on two types of building
 units.
;
_journal_issue                   20
_journal_name_full
'Dalton transactions (Cambridge, England : 2003)'
_journal_page_first              6965
_journal_page_last               6972
_journal_paper_doi               10.1039/c7dt04733a
_journal_volume                  47
_journal_year                    2018
_chemical_formula_moiety         'C9 H6 F2 O2'
_chemical_formula_sum            'C9 H6 F2 O2'
_chemical_formula_weight         184.14
_space_group_crystal_system      monoclinic
_space_group_IT_number           14
_space_group_name_Hall           '-P 2yn'
_space_group_name_H-M_alt        'P 1 21/n 1'
_symmetry_space_group_name_Hall  '-P 2yn'
_symmetry_space_group_name_H-M   'P 1 21/n 1'
_atom_sites_solution_hydrogens   geom
_audit_creation_method           SHELXL-2014/7
_audit_update_record
;
2018-03-01 deposited with the CCDC.
2018-04-09 downloaded from the CCDC.
;
_cell_angle_alpha                90
_cell_angle_beta                 91.146(3)
_cell_angle_gamma                90
_cell_formula_units_Z            4
_cell_length_a                   3.8154(4)
_cell_length_b                   6.3634(6)
_cell_length_c                   32.845(3)
_cell_measurement_reflns_used    8013
_cell_measurement_temperature    296(2)
_cell_measurement_theta_max      27.07
_cell_measurement_theta_min      3.10
_cell_volume                     797.28(13)
_computing_structure_refinement  'SHELXL-2014/7 (Sheldrick, 2014)'
_diffrn_ambient_temperature      296(2)
_diffrn_measured_fraction_theta_full 0.999
_diffrn_measured_fraction_theta_max 0.999
_diffrn_measurement_device_type  CCD
_diffrn_radiation_type           MoK\a
_diffrn_radiation_wavelength     0.71073
_diffrn_reflns_av_R_equivalents  0.1422
_diffrn_reflns_av_unetI/netI     0.0385
_diffrn_reflns_Laue_measured_fraction_full 0.999
_diffrn_reflns_Laue_measured_fraction_max 0.999
_diffrn_reflns_limit_h_max       4
_diffrn_reflns_limit_h_min       -4
_diffrn_reflns_limit_k_max       7
_diffrn_reflns_limit_k_min       -7
_diffrn_reflns_limit_l_max       39
_diffrn_reflns_limit_l_min       -39
_diffrn_reflns_number            20427
_diffrn_reflns_point_group_measured_fraction_full 0.999
_diffrn_reflns_point_group_measured_fraction_max 0.999
_diffrn_reflns_theta_full        25.242
_diffrn_reflns_theta_max         25.497
_diffrn_reflns_theta_min         3.261
_exptl_absorpt_coefficient_mu    0.138
_exptl_crystal_colour            colourless
_exptl_crystal_density_diffrn    1.534
_exptl_crystal_description       plate
_exptl_crystal_F_000             376
_exptl_crystal_size_max          0.7
_exptl_crystal_size_mid          0.6
_exptl_crystal_size_min          0.2
_refine_diff_density_max         0.240
_refine_diff_density_min         -0.194
_refine_diff_density_rms         0.048
_refine_ls_extinction_method     none
_refine_ls_goodness_of_fit_ref   1.075
_refine_ls_hydrogen_treatment    constr
_refine_ls_matrix_type           full
_refine_ls_number_parameters     118
_refine_ls_number_reflns         1475
_refine_ls_number_restraints     0
_refine_ls_restrained_S_all      1.075
_refine_ls_R_factor_all          0.0754
_refine_ls_R_factor_gt           0.0605
_refine_ls_shift/su_max          0.000
_refine_ls_shift/su_mean         0.000
_refine_ls_structure_factor_coef Fsqd
_refine_ls_weighting_details
'w=1/[\s^2^(Fo^2^)+(0.0616P)^2^+0.5341P] where P=(Fo^2^+2Fc^2^)/3'
_refine_ls_weighting_scheme      calc
_refine_ls_wR_factor_gt          0.1473
_refine_ls_wR_factor_ref         0.1592
_reflns_Friedel_coverage         0.000
_reflns_number_gt                1199
_reflns_number_total             1475
_reflns_threshold_expression     'I > 2\s(I)'
_cod_data_source_file            c7dt04733a2.cif
_cod_data_source_block           23DFCA
_cod_depositor_comments
'Adding full bibliography for 7046123--7046152.cif.'
_cod_original_cell_volume        797.29(13)
_cod_database_code               7046127
_shelx_shelxl_version_number     2014/7
_shelx_space_group_comment
;
The symmetry employed for this shelxl refinement is uniquely defined
by the following loop, which should always be used as a source of
symmetry information in preference to the above space-group names.
They are only intended as comments.
;
_shelx_res_file
;

    shelx.res created by SHELXL-2014/7


TITL datam in P2(1)/n
CELL  0.71073   3.8154   6.3634  32.8452   90.000   91.146   90.000
ZERR    18.00   0.0004   0.0006   0.0029    0.000    0.003    0.000
LATT   1
SYMM  1/2 - X, 1/2 + Y, 1/2 - Z
SFAC  C    H    O    F
UNIT  18 18 18 18
MERG   2
OMIT    -2.00 51.00
EQIV $1 -x+1, -y+2, -z
HTAB C2 O2_$1
EQIV $2 -x, -y+1, -z
HTAB O2 O1_$2
FMAP   2
PLAN   20
ACTA
HTAB    2.00000
BOND
BOND   $H
CONF
L.S.   100
TEMP    23.00
WGHT    0.061600    0.534100
FVAR       0.60413
MOLE    1
C1    1    0.167750    0.722726    0.034308    11.00000    0.05481    0.05271 =
         0.03865    0.00295    0.00360   -0.00635
C2    1    0.294520    0.895107    0.059935    11.00000    0.05750    0.04713 =
         0.04662    0.00308    0.00448   -0.00991
AFIX  43
H2    2    0.399197    1.010794    0.047866    11.00000   -1.20000
AFIX   0
C3    1    0.263810    0.890328    0.099829    11.00000    0.04740    0.04448 =
         0.04508    0.00301    0.00345   -0.00472
AFIX  43
H3    2    0.155922    0.772372    0.110645    11.00000   -1.20000
AFIX   0
C4    1    0.380705    1.049869    0.128688    11.00000    0.04110    0.04352 =
         0.04417    0.00166    0.00231    0.00290
C5    1    0.343213    1.013763    0.169824    11.00000    0.06228    0.04442 =
         0.04716    0.00208    0.00438    0.00540
C6    1    0.446316    1.159683    0.198403    11.00000    0.07752    0.06840 =
         0.04532   -0.00918   -0.00574    0.01572
C7    1    0.588720    1.345741    0.187167    11.00000    0.06502    0.06248 =
         0.07538   -0.02496   -0.01068    0.00550
AFIX  43
H7    2    0.657605    1.444297    0.206644    11.00000   -1.20000
AFIX   0
C8    1    0.629063    1.385530    0.146351    11.00000    0.05980    0.04990 =
         0.08273   -0.00974    0.00314   -0.00795
AFIX  43
H8    2    0.726975    1.512162    0.138181    11.00000   -1.20000
AFIX   0
C9    1    0.527252    1.241585    0.117747    11.00000    0.04965    0.05297 =
         0.05695    0.00017    0.00592   -0.00527
AFIX  43
H9    2    0.556313    1.272104    0.090330    11.00000   -1.20000
AFIX   0
O1    3    0.016885    0.568162    0.049428    11.00000    0.09076    0.06130 =
         0.04329    0.00071    0.01035   -0.02562
O2    3    0.220869    0.738514   -0.003825    11.00000    0.10759    0.07092 =
         0.04055   -0.00185    0.00793   -0.03446
AFIX  83
H2A   2    0.139233    0.635380   -0.015596    11.00000   -1.50000
AFIX   0
F1    4    0.197143    0.834210    0.182622    11.00000    0.13135    0.05690 =
         0.04967    0.00934    0.01530   -0.00934
F2    4    0.399307    1.113945    0.237878    11.00000    0.17012    0.09861 =
         0.04283   -0.00820   -0.00302    0.01119
HKLF    4

REM  datam in P2(1)/n
REM R1 =  0.0605 for    1199 Fo > 4sig(Fo)  and  0.0754 for all    1475 data
REM    118 parameters refined using      0 restraints

END

WGHT      0.0506      0.4488

REM Instructions for potential hydrogen bonds
HTAB C2 O2_$1
HTAB O2 O1_$2

REM Highest difference peak  0.240,  deepest hole -0.194,  1-sigma level  0.048
Q1    1   0.4597  0.8523  0.1858  11.00000  0.05    0.24
Q2    1   0.2124  0.5810  0.0478  11.00000  0.05    0.23
Q3    1   0.6491  1.1961  0.2359  11.00000  0.05    0.20
Q4    1   0.6562  1.2072  0.1949  11.00000  0.05    0.19
Q5    1   0.7060  1.1609  0.2398  11.00000  0.05    0.19
Q6    1  -0.0699  0.6765  0.0385  11.00000  0.05    0.18
Q7    1  -0.0034  0.4528  0.0362  11.00000  0.05    0.16
Q8    1   0.5799  1.0952  0.1261  11.00000  0.05    0.16
Q9    1  -0.0053  0.5181  0.0687  11.00000  0.05    0.15
Q10   1   0.4587  1.0981  0.1800  11.00000  0.05    0.14
Q11   1   0.1006  0.9283  0.0723  11.00000  0.05    0.14
Q12   1   0.3172  1.1785  0.1214  11.00000  0.05    0.14
Q13   1   0.5865  0.9803  0.0522  11.00000  0.05    0.14
Q14   1   0.2827  1.1343  0.1816  11.00000  0.05    0.14
Q15   1  -0.0258  0.7253  0.0006  11.00000  0.05    0.13
Q16   1   0.4361  1.3006  0.0860  11.00000  0.05    0.13
Q17   1  -0.1558  0.8849  0.1929  11.00000  0.05    0.13
Q18   1   0.3382  1.2876  0.1903  11.00000  0.05    0.13
Q19   1   0.6341  1.2786  0.0787  11.00000  0.05    0.13
Q20   1   0.0265  0.7751  0.0064  11.00000  0.05    0.12
;
_shelx_res_checksum              14837
loop_
_space_group_symop_operation_xyz
'x, y, z'
'-x+1/2, y+1/2, -z+1/2'
'-x, -y, -z'
'x-1/2, -y-1/2, z-1/2'
loop_
_atom_site_label
_atom_site_type_symbol
_atom_site_fract_x
_atom_site_fract_y
_atom_site_fract_z
_atom_site_U_iso_or_equiv
_atom_site_adp_type
_atom_site_occupancy
_atom_site_site_symmetry_order
_atom_site_calc_flag
_atom_site_refinement_flags_posn
_atom_site_refinement_flags_adp
C1 C 0.1678(6) 0.7227(4) 0.03431(7) 0.0487(6) Uani 1 1 d . .
C2 C 0.2945(7) 0.8951(4) 0.05993(8) 0.0504(7) Uani 1 1 d . .
H2 H 0.3992 1.0108 0.0479 0.060 Uiso 1 1 calc R U
C3 C 0.2638(6) 0.8903(4) 0.09983(8) 0.0456(6) Uani 1 1 d . .
H3 H 0.1559 0.7724 0.1106 0.055 Uiso 1 1 calc R U
C4 C 0.3807(6) 1.0499(4) 0.12869(7) 0.0429(6) Uani 1 1 d . .
C5 C 0.3432(7) 1.0138(4) 0.16982(8) 0.0512(7) Uani 1 1 d . .
C6 C 0.4463(8) 1.1597(5) 0.19840(8) 0.0638(8) Uani 1 1 d . .
C7 C 0.5887(8) 1.3457(5) 0.18717(11) 0.0678(9) Uani 1 1 d . .
H7 H 0.6576 1.4443 0.2066 0.081 Uiso 1 1 calc R U
C8 C 0.6291(7) 1.3855(5) 0.14635(10) 0.0641(8) Uani 1 1 d . .
H8 H 0.7270 1.5122 0.1382 0.077 Uiso 1 1 calc R U
C9 C 0.5273(6) 1.2416(4) 0.11775(9) 0.0531(7) Uani 1 1 d . .
H9 H 0.5563 1.2721 0.0903 0.064 Uiso 1 1 calc R U
O1 O 0.0169(5) 0.5682(3) 0.04943(6) 0.0650(6) Uani 1 1 d . .
O2 O 0.2209(6) 0.7385(3) -0.00382(6) 0.0729(7) Uani 1 1 d . .
H2A H 0.1392 0.6354 -0.0156 0.109 Uiso 1 1 calc R U
F1 F 0.1971(5) 0.8342(3) 0.18262(5) 0.0791(6) Uani 1 1 d . .
F2 F 0.3993(7) 1.1139(4) 0.23788(5) 0.1039(8) Uani 1 1 d . .
loop_
_atom_site_aniso_label
_atom_site_aniso_U_11
_atom_site_aniso_U_22
_atom_site_aniso_U_33
_atom_site_aniso_U_23
_atom_site_aniso_U_13
_atom_site_aniso_U_12
C1 0.0548(14) 0.0527(15) 0.0386(14) 0.0029(11) 0.0036(10) -0.0064(12)
C2 0.0575(15) 0.0471(15) 0.0466(15) 0.0031(12) 0.0045(11) -0.0099(12)
C3 0.0474(13) 0.0445(14) 0.0451(14) 0.0030(11) 0.0034(10) -0.0047(11)
C4 0.0411(12) 0.0435(14) 0.0442(14) 0.0017(11) 0.0023(10) 0.0029(10)
C5 0.0623(15) 0.0444(14) 0.0472(15) 0.0021(12) 0.0044(11) 0.0054(12)
C6 0.0775(19) 0.068(2) 0.0453(16) -0.0092(14) -0.0057(13) 0.0157(16)
C7 0.0650(18) 0.062(2) 0.075(2) -0.0250(17) -0.0107(15) 0.0055(15)
C8 0.0598(17) 0.0499(17) 0.083(2) -0.0097(15) 0.0031(15) -0.0080(13)
C9 0.0497(14) 0.0530(16) 0.0569(16) 0.0002(13) 0.0059(12) -0.0053(12)
O1 0.0908(14) 0.0613(13) 0.0433(11) 0.0007(9) 0.0104(9) -0.0256(11)
O2 0.1076(16) 0.0709(15) 0.0406(11) -0.0019(9) 0.0079(10) -0.0345(12)
F1 0.1314(16) 0.0569(11) 0.0497(10) 0.0093(8) 0.0153(9) -0.0093(10)
F2 0.170(2) 0.0986(17) 0.0428(11) -0.0082(10) -0.0030(11) 0.0112(14)
loop_
_atom_type_symbol
_atom_type_description
_atom_type_scat_dispersion_real
_atom_type_scat_dispersion_imag
_atom_type_scat_source
C C 0.0033 0.0016 'International Tables Vol C Tables 4.2.6.8 and 6.1.1.4'
H H 0.0000 0.0000 'International Tables Vol C Tables 4.2.6.8 and 6.1.1.4'
O O 0.0106 0.0060 'International Tables Vol C Tables 4.2.6.8 and 6.1.1.4'
F F 0.0171 0.0103 'International Tables Vol C Tables 4.2.6.8 and 6.1.1.4'
loop_
_geom_angle_atom_site_label_1
_geom_angle_atom_site_label_2
_geom_angle_atom_site_label_3
_geom_angle
O1 C1 O2 122.4(2)
O1 C1 C2 120.9(2)
O2 C1 C2 116.7(2)
C3 C2 C1 121.4(2)
C3 C2 H2 119.3
C1 C2 H2 119.3
C2 C3 C4 126.9(2)
C2 C3 H3 116.6
C4 C3 H3 116.6
C5 C4 C9 116.6(2)
C5 C4 C3 119.1(2)
C9 C4 C3 124.3(2)
F1 C5 C6 118.5(3)
F1 C5 C4 120.0(2)
C6 C5 C4 121.5(3)
F2 C6 C7 120.9(3)
F2 C6 C5 118.1(3)
C7 C6 C5 121.0(3)
C6 C7 C8 118.6(3)
C6 C7 H7 120.7
C8 C7 H7 120.7
C9 C8 C7 120.8(3)
C9 C8 H8 119.6
C7 C8 H8 119.6
C8 C9 C4 121.4(3)
C8 C9 H9 119.3
C4 C9 H9 119.3
C1 O2 H2A 109.5
loop_
_geom_bond_atom_site_label_1
_geom_bond_atom_site_label_2
_geom_bond_distance
C1 O1 1.248(3)
C1 O2 1.277(3)
C1 C2 1.459(4)
C2 C3 1.318(3)
C2 H2 0.9300
C3 C4 1.453(4)
C3 H3 0.9300
C4 C5 1.381(4)
C4 C9 1.392(4)
C5 F1 1.342(3)
C5 C6 1.372(4)
C6 F2 1.344(3)
C6 C7 1.357(5)
C7 C8 1.376(5)
C7 H7 0.9300
C8 C9 1.363(4)
C8 H8 0.9300
C9 H9 0.9300
O2 H2A 0.8200
loop_
_geom_hbond_atom_site_label_D
_geom_hbond_atom_site_label_H
_geom_hbond_atom_site_label_A
_geom_hbond_distance_DH
_geom_hbond_distance_HA
_geom_hbond_distance_DA
_geom_hbond_angle_DHA
_geom_hbond_site_symmetry_A
C2 H2 O2 0.93 2.61 3.520(3) 165.3 3_675
O2 H2A O1 0.82 1.80 2.612(3) 170.0 3_565
loop_
_geom_torsion_atom_site_label_1
_geom_torsion_atom_site_label_2
_geom_torsion_atom_site_label_3
_geom_torsion_atom_site_label_4
_geom_torsion
O1 C1 C2 C3 2.1(4)
O2 C1 C2 C3 -177.5(3)
C1 C2 C3 C4 179.5(2)
C2 C3 C4 C5 -176.7(3)
C2 C3 C4 C9 4.1(4)
C9 C4 C5 F1 178.6(2)
C3 C4 C5 F1 -0.7(4)
C9 C4 C5 C6 -0.2(4)
C3 C4 C5 C6 -179.4(2)
F1 C5 C6 F2 0.8(4)
C4 C5 C6 F2 179.6(2)
F1 C5 C6 C7 -178.6(3)
C4 C5 C6 C7 0.2(4)
F2 C6 C7 C8 -179.6(3)
C5 C6 C7 C8 -0.2(5)
C6 C7 C8 C9 0.2(4)
C7 C8 C9 C4 -0.2(4)
C5 C4 C9 C8 0.2(4)
C3 C4 C9 C8 179.4(2)
