#------------------------------------------------------------------------------
#$Date: 2019-11-17 09:55:58 +0200 (Sun, 17 Nov 2019) $
#$Revision: 229218 $
#$URL: file:///home/coder/svn-repositories/cod/cif/7/04/64/7046443.cif $
#------------------------------------------------------------------------------
#
# This file is available in the Crystallography Open Database (COD),
# http://www.crystallography.net/
#
# All data on this site have been placed in the public domain by the
# contributors.
#
data_7046443
loop_
_publ_author_name
'K\"oster, Marcel'
'Kreher, Annikka'
'von H\"anisch, Carsten'
_publ_section_title
;
 Synthesis of ternary group 13/15 chain compounds.
;
_journal_issue                   24
_journal_name_full
'Dalton transactions (Cambridge, England : 2003)'
_journal_page_first              7875
_journal_page_last               7878
_journal_paper_doi               10.1039/c8dt01119b
_journal_volume                  47
_journal_year                    2018
_chemical_formula_moiety         'C8 H23 B N P'
_chemical_formula_sum            'C8 H23 B N P'
_chemical_formula_weight         175.05
_space_group_crystal_system      triclinic
_space_group_IT_number           2
_space_group_name_Hall           '-P 1'
_space_group_name_H-M_alt        'P -1'
_symmetry_space_group_name_Hall  '-P 1'
_symmetry_space_group_name_H-M   'P -1'
_atom_sites_solution_hydrogens   mixed
_audit_creation_date             2017-01-30
_audit_creation_method
;
Olex2 1.2
(compiled 2017.01.04 svn.r3372 for OlexSys, GUI svn.r5292)
;
_audit_update_record
;
2018-01-19 deposited with the CCDC.
2018-05-09 downloaded from the CCDC.
;
_cell_angle_alpha                99.059(7)
_cell_angle_beta                 95.591(6)
_cell_angle_gamma                109.064(6)
_cell_formula_units_Z            2
_cell_length_a                   6.3544(5)
_cell_length_b                   8.4271(7)
_cell_length_c                   11.7497(9)
_cell_measurement_reflns_used    7066
_cell_measurement_temperature    100
_cell_measurement_theta_max      28.195
_cell_measurement_theta_min      1.78
_cell_volume                     579.74(9)
_computing_molecular_graphics    'Olex2 (Dolomanov et al., 2009)'
_computing_publication_material  'Olex2 (Dolomanov et al., 2009)'
_computing_structure_refinement  'ShelXL (Sheldrick, 2015)'
_computing_structure_solution    'ShelXT (Sheldrick, 2015)'
_diffrn_ambient_temperature      100
_diffrn_measured_fraction_theta_full 1.000
_diffrn_measured_fraction_theta_max 0.985
_diffrn_measurement_device_type  'STOE IPDS-2T'
_diffrn_radiation_type           MoK\a
_diffrn_radiation_wavelength     0.71073
_diffrn_reflns_av_R_equivalents  0.0723
_diffrn_reflns_av_unetI/netI     0.0812
_diffrn_reflns_Laue_measured_fraction_full 1.000
_diffrn_reflns_Laue_measured_fraction_max 0.985
_diffrn_reflns_limit_h_max       8
_diffrn_reflns_limit_h_min       -7
_diffrn_reflns_limit_k_max       10
_diffrn_reflns_limit_k_min       -11
_diffrn_reflns_limit_l_max       15
_diffrn_reflns_limit_l_min       -15
_diffrn_reflns_number            5915
_diffrn_reflns_point_group_measured_fraction_full 1.000
_diffrn_reflns_point_group_measured_fraction_max 0.985
_diffrn_reflns_theta_full        25.000
_diffrn_reflns_theta_max         28.105
_diffrn_reflns_theta_min         1.778
_exptl_absorpt_coefficient_mu    0.187
_exptl_absorpt_correction_T_max  0.9911
_exptl_absorpt_correction_T_min  0.9527
_exptl_absorpt_correction_type   numerical
_exptl_absorpt_process_details
'X-Shape 1.06, STOE & Cie GmbH, Darmstadt, 1999.'
_exptl_crystal_colour            colourless
_exptl_crystal_colour_primary    colourless
_exptl_crystal_density_diffrn    1.003
_exptl_crystal_description       block
_exptl_crystal_F_000             196
_exptl_crystal_size_max          0.43
_exptl_crystal_size_mid          0.085
_exptl_crystal_size_min          0.065
_refine_diff_density_max         0.421
_refine_diff_density_min         -0.332
_refine_diff_density_rms         0.060
_refine_ls_extinction_method     none
_refine_ls_goodness_of_fit_ref   1.015
_refine_ls_hydrogen_treatment    mixed
_refine_ls_matrix_type           full
_refine_ls_number_parameters     126
_refine_ls_number_reflns         2789
_refine_ls_number_restraints     2
_refine_ls_restrained_S_all      1.015
_refine_ls_R_factor_all          0.0861
_refine_ls_R_factor_gt           0.0482
_refine_ls_shift/su_max          0.000
_refine_ls_shift/su_mean         0.000
_refine_ls_structure_factor_coef Fsqd
_refine_ls_weighting_details
'w=1/[\s^2^(Fo^2^)+(0.0530P)^2^+0.0137P] where P=(Fo^2^+2Fc^2^)/3'
_refine_ls_weighting_scheme      calc
_refine_ls_wR_factor_gt          0.1028
_refine_ls_wR_factor_ref         0.1181
_reflns_Friedel_coverage         0.000
_reflns_number_gt                1938
_reflns_number_total             2789
_reflns_threshold_expression     'I > 2\s(I)'
_cod_data_source_file            c8dt01119b2.cif
_cod_data_source_block           compound2
_cod_depositor_comments
'Adding full bibliography for 7046442--7046445.cif.'
_cod_original_cell_volume        579.74(8)
_cod_database_code               7046443
_shelx_shelxl_version_number     2014/7
_shelx_space_group_comment
;
The symmetry employed for this shelxl refinement is uniquely defined
by the following loop, which should always be used as a source of
symmetry information in preference to the above space-group names.
They are only intended as comments.
;
_olex2_refinement_description
;
1. Fixed Uiso
 At 1.5 times of:
  All C(H,H,H) groups
2. Restrained distances
 H00B-N002
 0.89 with sigma of 0.02
 N002-H00A
 0.89 with sigma of 0.02
3.a Idealised Me refined as rotating group:
 C005(H00C,H00D,H00E), C006(H00F,H00G,H00H), C007(H00I,H00J,H00K), C008(H00L,
 H00M,H00N), C009(H00O,H00P,H00Q), C00A(H00R,H00S,H00T)
;
_shelx_res_file
;
    cdx049a.res created by SHELXL-2014/7

TITL cdx049a_a.res in P-1
REM Old TITL cdx049a in P-1 #2
REM SHELXT solution in P-1
REM R1 0.162, Rweak 0.008, Alpha 0.030, Orientation as input
REM Formula found by SHELXT: C10 P
CELL 0.71073 6.3544 8.4271 11.7497 99.059 95.591 109.064
ZERR 2 0.0005 0.0007 0.0009 0.006 0.006 0.006
LATT 1
SFAC C H B N P
UNIT 16 46 2 2 2
DFIX 0.89 H00b N002
DFIX 0.89 N002 H00a

L.S. 10 0 0
PLAN  20
TEMP -173.15
BOND $H
LIST 6
MORE -1
CONF
fmap 2 53
acta 50
REM <olex2.extras>
REM <HklSrc "%.\\cdx049a.hkl">
REM </olex2.extras>

WGHT    0.053000    0.013700
FVAR       1.44471
P001  5    0.596217    0.264378    0.689998    11.00000    0.01513    0.02130 =
         0.01887    0.00215    0.00421    0.00575
N002  4    0.375523    0.221654    0.588217    11.00000    0.01926    0.02570 =
         0.02195    0.00081    0.00286    0.00816
C003  1    0.501858    0.161061    0.814614    11.00000    0.01806    0.02427 =
         0.02257    0.00402    0.00381    0.00391
C004  1    0.705780    0.501567    0.731204    11.00000    0.02002    0.02074 =
         0.02597    0.00293    0.00259    0.00341
C005  1    0.705788    0.149913    0.890034    11.00000    0.02727    0.03486 =
         0.02916    0.01266    0.00347    0.00848
AFIX 137
H00C  2    0.780456    0.086092    0.841661    11.00000   -1.50000
H00D  2    0.654979    0.090784    0.953149    11.00000   -1.50000
H00E  2    0.812149    0.265743    0.923451    11.00000   -1.50000
AFIX   0
C006  1    0.883261    0.566947    0.842170    11.00000    0.02248    0.02256 =
         0.02877   -0.00074    0.00079   -0.00050
AFIX 137
H00F  2    0.811775    0.532342    0.908871    11.00000   -1.50000
H00G  2    0.949119    0.692247    0.856157    11.00000   -1.50000
H00H  2    1.002187    0.517986    0.832319    11.00000   -1.50000
AFIX   0
C007  1    0.373909    0.248738    0.891283    11.00000    0.02399    0.04142 =
         0.02712    0.00495    0.01211    0.00897
AFIX 137
H00I  2    0.476997    0.361579    0.933462    11.00000   -1.50000
H00J  2    0.312893    0.178275    0.947401    11.00000   -1.50000
H00K  2    0.249936    0.262481    0.842061    11.00000   -1.50000
AFIX   0
C008  1    0.340689   -0.021939    0.759219    11.00000    0.03096    0.02494 =
         0.03417    0.00952    0.00435    0.00150
AFIX 137
H00L  2    0.201617   -0.016791    0.718557    11.00000   -1.50000
H00M  2    0.304618   -0.088539    0.820450    11.00000   -1.50000
H00N  2    0.413300   -0.076906    0.703408    11.00000   -1.50000
AFIX   0
C009  1    0.517411    0.576116    0.746160    11.00000    0.03397    0.02003 =
         0.04216   -0.00030   -0.00056    0.01020
AFIX 137
H00O  2    0.408273    0.538001    0.673810    11.00000   -1.50000
H00P  2    0.582512    0.701571    0.763871    11.00000   -1.50000
H00Q  2    0.441174    0.536375    0.810348    11.00000   -1.50000
AFIX   0
C00A  1    0.819856    0.565233    0.628995    11.00000    0.03195    0.03256 =
         0.03363    0.01342    0.00318    0.00083
AFIX 137
H00R  2    0.949466    0.527647    0.622147    11.00000   -1.50000
H00S  2    0.871132    0.690691    0.643476    11.00000   -1.50000
H00T  2    0.711529    0.517856    0.556354    11.00000   -1.50000
AFIX   0
B00B  3    0.815007    0.178835    0.627680    11.00000    0.02287    0.03722 =
         0.02543   -0.00153    0.00665    0.01462
H00U  2    0.810841    0.200824    0.538196    11.00000    0.04388
H00V  2    0.976935    0.255305    0.685272    11.00000    0.03141
H00W  2    0.763212    0.041233    0.632194    11.00000    0.04726
H00A  2    0.356650    0.130381    0.536044    11.00000    0.03485
H00B  2    0.252314    0.235045    0.608327    11.00000    0.04566
HKLF 4

REM  cdx049a_a.res in P-1
REM R1 =  0.0482 for    1938 Fo > 4sig(Fo)  and  0.0861 for all    2789 data
REM    126 parameters refined using      2 restraints

END

WGHT      0.0527      0.0189

REM Highest difference peak  0.421,  deepest hole -0.332,  1-sigma level  0.060
Q1    1   0.5832  0.2413  0.7549  11.00000  0.05    0.42
Q2    1   0.7138  0.4153  0.6768  11.00000  0.05    0.38
Q3    1   0.6114  0.1811  0.8540  11.00000  0.05    0.31
Q4    1   0.7128  0.2187  0.6658  11.00000  0.05    0.31
Q5    1   0.8542  0.6951  0.6041  11.00000  0.05    0.28
Q6    1   0.4879  0.1811  0.7625  11.00000  0.05    0.27
Q7    1   0.4564  0.2140  0.8551  11.00000  0.05    0.27
Q8    1   0.4659  0.1210  0.7186  11.00000  0.05    0.26
Q9    1   0.6314  0.3742  0.7211  11.00000  0.05    0.25
Q10   1   0.9392  0.0337  0.8063  11.00000  0.05    0.24
Q11   1   0.4090  0.0723  0.7818  11.00000  0.05    0.24
Q12   1   0.7471  0.5356  0.6835  11.00000  0.05    0.22
Q13   1   0.8285  0.3843  0.9363  11.00000  0.05    0.21
Q14   1   0.5206  0.1168  0.8241  11.00000  0.05    0.21
Q15   1   0.7863  0.5154  0.7778  11.00000  0.05    0.21
Q16   1   0.5049  0.3558  0.5414  11.00000  0.05    0.20
Q17   1   0.3980  0.2207  0.5234  11.00000  0.05    0.20
Q18   1   0.2970  0.0397  0.6913  11.00000  0.05    0.20
Q19   1   0.6315  0.5478  0.6591  11.00000  0.05    0.20
Q20   1   0.5671  0.4955  0.7238  11.00000  0.05    0.19
;
_shelx_res_checksum              66168
_olex2_submission_special_instructions 'No special instructions were received'
loop_
_space_group_symop_operation_xyz
'x, y, z'
'-x, -y, -z'
loop_
_atom_site_label
_atom_site_type_symbol
_atom_site_fract_x
_atom_site_fract_y
_atom_site_fract_z
_atom_site_U_iso_or_equiv
_atom_site_adp_type
_atom_site_occupancy
_atom_site_site_symmetry_order
_atom_site_calc_flag
_atom_site_refinement_flags_posn
P001 P 0.59622(9) 0.26438(7) 0.69000(5) 0.01870(15) Uani 1 1 d .
N002 N 0.3755(3) 0.2217(2) 0.58822(15) 0.0227(4) Uani 1 1 d D
C003 C 0.5019(3) 0.1611(3) 0.81461(17) 0.0225(4) Uani 1 1 d .
C004 C 0.7058(3) 0.5016(3) 0.73120(18) 0.0235(4) Uani 1 1 d .
C005 C 0.7058(4) 0.1499(3) 0.8900(2) 0.0304(5) Uani 1 1 d .
H00C H 0.7805 0.0861 0.8417 0.046 Uiso 1 1 calc GR
H00D H 0.6550 0.0908 0.9531 0.046 Uiso 1 1 calc GR
H00E H 0.8121 0.2657 0.9235 0.046 Uiso 1 1 calc GR
C006 C 0.8833(4) 0.5669(3) 0.84217(19) 0.0276(5) Uani 1 1 d .
H00F H 0.8118 0.5323 0.9089 0.041 Uiso 1 1 calc GR
H00G H 0.9491 0.6922 0.8562 0.041 Uiso 1 1 calc GR
H00H H 1.0022 0.5180 0.8323 0.041 Uiso 1 1 calc GR
C007 C 0.3739(4) 0.2487(3) 0.8913(2) 0.0311(5) Uani 1 1 d .
H00I H 0.4770 0.3616 0.9335 0.047 Uiso 1 1 calc GR
H00J H 0.3129 0.1783 0.9474 0.047 Uiso 1 1 calc GR
H00K H 0.2499 0.2625 0.8421 0.047 Uiso 1 1 calc GR
C008 C 0.3407(4) -0.0219(3) 0.7592(2) 0.0317(5) Uani 1 1 d .
H00L H 0.2016 -0.0168 0.7186 0.048 Uiso 1 1 calc GR
H00M H 0.3046 -0.0885 0.8205 0.048 Uiso 1 1 calc GR
H00N H 0.4133 -0.0769 0.7034 0.048 Uiso 1 1 calc GR
C009 C 0.5174(4) 0.5761(3) 0.7462(2) 0.0331(5) Uani 1 1 d .
H00O H 0.4083 0.5380 0.6738 0.050 Uiso 1 1 calc GR
H00P H 0.5825 0.7016 0.7639 0.050 Uiso 1 1 calc GR
H00Q H 0.4412 0.5364 0.8103 0.050 Uiso 1 1 calc GR
C00A C 0.8199(4) 0.5652(3) 0.6290(2) 0.0347(5) Uani 1 1 d .
H00R H 0.9495 0.5276 0.6221 0.052 Uiso 1 1 calc GR
H00S H 0.8711 0.6907 0.6435 0.052 Uiso 1 1 calc GR
H00T H 0.7115 0.5179 0.5564 0.052 Uiso 1 1 calc GR
B00B B 0.8150(4) 0.1788(4) 0.6277(2) 0.0282(5) Uani 1 1 d .
H00U H 0.811(5) 0.201(4) 0.538(3) 0.044(8) Uiso 1 1 d .
H00V H 0.977(4) 0.255(3) 0.685(2) 0.031(7) Uiso 1 1 d .
H00W H 0.763(5) 0.041(4) 0.632(3) 0.047(8) Uiso 1 1 d .
H00A H 0.357(5) 0.130(3) 0.536(2) 0.035(7) Uiso 1 1 d D
H00B H 0.252(4) 0.235(4) 0.608(3) 0.046(8) Uiso 1 1 d D
loop_
_atom_site_aniso_label
_atom_site_aniso_U_11
_atom_site_aniso_U_22
_atom_site_aniso_U_33
_atom_site_aniso_U_23
_atom_site_aniso_U_13
_atom_site_aniso_U_12
P001 0.0151(2) 0.0213(3) 0.0189(2) 0.00215(19) 0.00421(17) 0.00575(19)
N002 0.0193(9) 0.0257(10) 0.0219(8) 0.0008(7) 0.0029(7) 0.0082(7)
C003 0.0181(10) 0.0243(11) 0.0226(10) 0.0040(8) 0.0038(7) 0.0039(8)
C004 0.0200(10) 0.0207(10) 0.0260(10) 0.0029(8) 0.0026(8) 0.0034(8)
C005 0.0273(11) 0.0349(13) 0.0292(11) 0.0127(9) 0.0035(9) 0.0085(10)
C006 0.0225(11) 0.0226(11) 0.0288(11) -0.0007(8) 0.0008(8) -0.0005(8)
C007 0.0240(11) 0.0414(14) 0.0271(11) 0.0050(10) 0.0121(8) 0.0090(10)
C008 0.0310(12) 0.0249(12) 0.0342(12) 0.0095(9) 0.0043(9) 0.0015(9)
C009 0.0340(13) 0.0200(11) 0.0422(13) -0.0003(10) -0.0006(10) 0.0102(9)
C00A 0.0320(13) 0.0326(13) 0.0336(12) 0.0134(10) 0.0032(9) 0.0008(10)
B00B 0.0229(12) 0.0372(15) 0.0254(12) -0.0015(11) 0.0066(9) 0.0146(11)
loop_
_atom_type_symbol
_atom_type_description
_atom_type_scat_dispersion_real
_atom_type_scat_dispersion_imag
_atom_type_scat_source
C C 0.0033 0.0016 'International Tables Vol C Tables 4.2.6.8 and 6.1.1.4'
H H 0.0000 0.0000 'International Tables Vol C Tables 4.2.6.8 and 6.1.1.4'
B B 0.0013 0.0007 'International Tables Vol C Tables 4.2.6.8 and 6.1.1.4'
N N 0.0061 0.0033 'International Tables Vol C Tables 4.2.6.8 and 6.1.1.4'
P P 0.1023 0.0942 'International Tables Vol C Tables 4.2.6.8 and 6.1.1.4'
loop_
_geom_angle_atom_site_label_1
_geom_angle_atom_site_label_2
_geom_angle_atom_site_label_3
_geom_angle
N002 P001 C003 109.21(10)
N002 P001 C004 103.71(10)
N002 P001 B00B 110.24(10)
C003 P001 B00B 109.55(11)
C004 P001 C003 112.49(10)
C004 P001 B00B 111.49(11)
P001 N002 H00A 111.8(18)
P001 N002 H00B 119(2)
H00A N002 H00B 116(3)
C005 C003 P001 109.61(14)
C005 C003 C008 108.79(18)
C007 C003 P001 114.76(15)
C007 C003 C005 109.79(17)
C007 C003 C008 107.84(18)
C008 C003 P001 105.82(14)
C006 C004 P001 111.92(15)
C006 C004 C00A 108.41(18)
C009 C004 P001 112.47(15)
C009 C004 C006 109.90(18)
C009 C004 C00A 107.96(19)
C00A C004 P001 105.95(15)
C003 C005 H00C 109.5
C003 C005 H00D 109.5
C003 C005 H00E 109.5
H00C C005 H00D 109.5
H00C C005 H00E 109.5
H00D C005 H00E 109.5
C004 C006 H00F 109.5
C004 C006 H00G 109.5
C004 C006 H00H 109.5
H00F C006 H00G 109.5
H00F C006 H00H 109.5
H00G C006 H00H 109.5
C003 C007 H00I 109.5
C003 C007 H00J 109.5
C003 C007 H00K 109.5
H00I C007 H00J 109.5
H00I C007 H00K 109.5
H00J C007 H00K 109.5
C003 C008 H00L 109.5
C003 C008 H00M 109.5
C003 C008 H00N 109.5
H00L C008 H00M 109.5
H00L C008 H00N 109.5
H00M C008 H00N 109.5
C004 C009 H00O 109.5
C004 C009 H00P 109.5
C004 C009 H00Q 109.5
H00O C009 H00P 109.5
H00O C009 H00Q 109.5
H00P C009 H00Q 109.5
C004 C00A H00R 109.5
C004 C00A H00S 109.5
C004 C00A H00T 109.5
H00R C00A H00S 109.5
H00R C00A H00T 109.5
H00S C00A H00T 109.5
P001 B00B H00U 105.2(15)
P001 B00B H00V 105.1(13)
P001 B00B H00W 107.2(16)
H00U B00B H00V 113(2)
H00U B00B H00W 113(2)
H00V B00B H00W 112(2)
loop_
_geom_bond_atom_site_label_1
_geom_bond_atom_site_label_2
_geom_bond_distance
P001 N002 1.6536(18)
P001 C003 1.869(2)
P001 C004 1.853(2)
P001 B00B 1.917(2)
N002 H00A 0.871(17)
N002 H00B 0.876(17)
C003 C005 1.535(3)
C003 C007 1.531(3)
C003 C008 1.540(3)
C004 C006 1.535(3)
C004 C009 1.535(3)
C004 C00A 1.541(3)
C005 H00C 0.9800
C005 H00D 0.9800
C005 H00E 0.9800
C006 H00F 0.9800
C006 H00G 0.9800
C006 H00H 0.9800
C007 H00I 0.9800
C007 H00J 0.9800
C007 H00K 0.9800
C008 H00L 0.9800
C008 H00M 0.9800
C008 H00N 0.9800
C009 H00O 0.9800
C009 H00P 0.9800
C009 H00Q 0.9800
C00A H00R 0.9800
C00A H00S 0.9800
C00A H00T 0.9800
B00B H00U 1.10(3)
B00B H00V 1.11(3)
B00B H00W 1.11(3)
loop_
_geom_torsion_atom_site_label_1
_geom_torsion_atom_site_label_2
_geom_torsion_atom_site_label_3
_geom_torsion_atom_site_label_4
_geom_torsion
N002 P001 C003 C005 162.17(15)
N002 P001 C003 C007 -73.76(17)
N002 P001 C003 C008 45.02(17)
N002 P001 C004 C006 168.55(15)
N002 P001 C004 C009 44.25(18)
N002 P001 C004 C00A -73.48(16)
C003 P001 C004 C006 50.68(18)
C003 P001 C004 C009 -73.63(17)
C003 P001 C004 C00A 168.65(14)
C004 P001 C003 C005 -83.25(17)
C004 P001 C003 C007 40.82(18)
C004 P001 C003 C008 159.60(14)
B00B P001 C003 C005 41.35(18)
B00B P001 C003 C007 165.41(16)
B00B P001 C003 C008 -75.81(17)
B00B P001 C004 C006 -72.85(18)
B00B P001 C004 C009 162.85(16)
B00B P001 C004 C00A 45.12(17)
