#------------------------------------------------------------------------------
#$Date: 2019-11-17 11:50:22 +0200 (Sun, 17 Nov 2019) $
#$Revision: 229702 $
#$URL: file:///home/coder/svn-repositories/cod/cif/7/04/61/7046152.cif $
#------------------------------------------------------------------------------
#
# This file is available in the Crystallography Open Database (COD),
# http://www.crystallography.net/
#
# All data on this site have been placed in the public domain by the
# contributors.
#
data_7046152
loop_
_publ_author_name
'Sun, Ai-Huan'
'Wei, Qi'
'Fu, Ai-Ping'
'Han, Song-De'
'Li, Jin-Hua'
'Wang, Guo-Ming'
_publ_section_title
;
 Syntheses, structures and efficient visible light-driven photocatalytic
 properties of layered cuprous halides based on two types of building
 units.
;
_journal_issue                   20
_journal_name_full
'Dalton transactions (Cambridge, England : 2003)'
_journal_page_first              6965
_journal_page_last               6972
_journal_paper_doi               10.1039/c7dt04733a
_journal_volume                  47
_journal_year                    2018
_chemical_formula_moiety         'C9 H6 F O2'
_chemical_formula_sum            'C9 H6 F O2'
_chemical_formula_weight         165.14
_space_group_crystal_system      triclinic
_space_group_IT_number           2
_space_group_name_Hall           '-P 1'
_space_group_name_H-M_alt        'P -1'
_symmetry_space_group_name_Hall  '-P 1'
_symmetry_space_group_name_H-M   'P -1'
_atom_sites_solution_hydrogens   geom
_audit_creation_method           SHELXL-2014/7
_audit_update_record
;
2018-03-01 deposited with the CCDC.
2018-04-09 downloaded from the CCDC.
;
_cell_angle_alpha                84.53(2)
_cell_angle_beta                 85.150(19)
_cell_angle_gamma                87.11(3)
_cell_formula_units_Z            2
_cell_length_a                   3.789(4)
_cell_length_b                   6.337(6)
_cell_length_c                   15.846(16)
_cell_measurement_reflns_used    1136
_cell_measurement_temperature    373(2)
_cell_measurement_theta_max      27.5
_cell_measurement_theta_min      3.2
_cell_volume                     377.0(7)
_computing_structure_refinement  'SHELXL-2014/7 (Sheldrick, 2014)'
_diffrn_ambient_temperature      373(2)
_diffrn_measured_fraction_theta_full 0.989
_diffrn_measured_fraction_theta_max 0.990
_diffrn_measurement_device_type  CCD
_diffrn_radiation_type           MoK\a
_diffrn_radiation_wavelength     0.71073
_diffrn_reflns_av_R_equivalents  0.1729
_diffrn_reflns_av_unetI/netI     0.1457
_diffrn_reflns_Laue_measured_fraction_full 0.989
_diffrn_reflns_Laue_measured_fraction_max 0.990
_diffrn_reflns_limit_h_max       4
_diffrn_reflns_limit_h_min       -4
_diffrn_reflns_limit_k_max       8
_diffrn_reflns_limit_k_min       -8
_diffrn_reflns_limit_l_max       20
_diffrn_reflns_limit_l_min       -20
_diffrn_reflns_number            3854
_diffrn_reflns_point_group_measured_fraction_full 0.989
_diffrn_reflns_point_group_measured_fraction_max 0.990
_diffrn_reflns_theta_full        25.242
_diffrn_reflns_theta_max         27.476
_diffrn_reflns_theta_min         3.232
_exptl_absorpt_coefficient_mu    0.119
_exptl_crystal_colour            colourless
_exptl_crystal_density_diffrn    1.454
_exptl_crystal_description       plate
_exptl_crystal_F_000             170
_exptl_crystal_size_max          0.9
_exptl_crystal_size_mid          0.7
_exptl_crystal_size_min          0.6
_refine_diff_density_max         0.431
_refine_diff_density_min         -0.339
_refine_diff_density_rms         0.082
_refine_ls_extinction_method     none
_refine_ls_goodness_of_fit_ref   1.058
_refine_ls_hydrogen_treatment    constr
_refine_ls_matrix_type           full
_refine_ls_number_parameters     118
_refine_ls_number_reflns         1705
_refine_ls_number_restraints     0
_refine_ls_restrained_S_all      1.058
_refine_ls_R_factor_all          0.0731
_refine_ls_R_factor_gt           0.0675
_refine_ls_shift/su_max          0.000
_refine_ls_shift/su_mean         0.000
_refine_ls_structure_factor_coef Fsqd
_refine_ls_weighting_details
'w=1/[\s^2^(Fo^2^)+(0.0813P)^2^+0.0509P] where P=(Fo^2^+2Fc^2^)/3'
_refine_ls_weighting_scheme      calc
_refine_ls_wR_factor_gt          0.1842
_refine_ls_wR_factor_ref         0.1906
_reflns_Friedel_coverage         0.000
_reflns_number_gt                1473
_reflns_number_total             1705
_reflns_threshold_expression     'I > 2\s(I)'
_cod_data_source_file            c7dt04733a2.cif
_cod_data_source_block           10_CCDC1
_cod_depositor_comments
'Adding full bibliography for 7046123--7046152.cif.'
_cod_original_cell_volume        377.1(7)
_cod_database_code               7046152
_shelx_shelxl_version_number     2014/7
_shelx_space_group_comment
;
The symmetry employed for this shelxl refinement is uniquely defined
by the following loop, which should always be used as a source of
symmetry information in preference to the above space-group names.
They are only intended as comments.
;
_shelx_res_file
;

    shelx.res created by SHELXL-2014/7

TITL SIR2004 run in space group P -1
CELL  0.71073   3.7895   6.3368  15.8458   84.529   85.150   87.115
ZERR     2.00   0.0039   0.0062   0.0164    0.021    0.019    0.027
LATT   1
SFAC  C    H    O    F
UNIT  18 12 4 2
MERG   2
OMIT    -2.00  55.00
OMIT     0   0   1
OMIT     0   0   2
EQIV $1 -x, -y, -z
HTAB C2 O2_$1
EQIV $2 -x-1, -y-1, -z+1
HTAB C7 F2_$2
EQIV $3 -x+1, -y+1, -z
HTAB O2 O1_$3
HTAB C2 O2_$1
HTAB C7 F2_$2
HTAB O2 O1_$3
FMAP   2
PLAN   25
ACTA
BOND   $H
CONF
L.S.  50
TEMP   100.10
WGHT    0.081300    0.050900
FVAR       2.26441
C1    1    0.307876    0.263050    0.070555    11.00000    0.02281    0.02195 =
         0.01977   -0.00601   -0.00397    0.00201
C2    1    0.160703    0.079920    0.122625    11.00000    0.02528    0.02082 =
         0.02204   -0.00557   -0.00404   -0.00223
AFIX  43
H2    2    0.068744   -0.027705    0.096202    11.00000   -1.20000
AFIX   0
C3    1    0.156024    0.064527    0.207244    11.00000    0.02117    0.01881 =
         0.02277   -0.00528   -0.00485    0.00044
AFIX  43
H3    2    0.254735    0.173907    0.231213    11.00000   -1.20000
AFIX   0
C4    1    0.010918   -0.107453    0.266008    11.00000    0.01983    0.02083 =
         0.02111   -0.00450   -0.00507    0.00275
C7    1   -0.259754   -0.432415    0.384149    11.00000    0.03279    0.02622 =
         0.03054    0.00235    0.00007   -0.00021
AFIX  43
H7    2   -0.348550   -0.539942    0.423020    11.00000   -1.20000
AFIX   0
C8    1   -0.240095   -0.454094    0.297456    11.00000    0.02599    0.02104 =
         0.03393   -0.00457   -0.00579   -0.00060
AFIX  43
H8    2   -0.317740   -0.576643    0.278294    11.00000   -1.20000
AFIX   0
C9    1   -0.106216   -0.295301    0.239292    11.00000    0.02419    0.02356 =
         0.02279   -0.00668   -0.00470    0.00125
AFIX  43
H9    2   -0.093551   -0.313223    0.181526    11.00000   -1.20000
AFIX   0
O1    3    0.444137    0.409233    0.103039    11.00000    0.03737    0.02529 =
         0.02224   -0.00560   -0.00716   -0.00670
O2    3    0.283213    0.265243   -0.010451    11.00000    0.04690    0.02953 =
         0.01758   -0.00358   -0.00534   -0.01084
AFIX  83
H2A   2    0.372240    0.372087   -0.034816    11.00000   -1.50000
AFIX   0
C5    1   -0.011482   -0.091240    0.353344    11.00000    0.03389    0.02400 =
         0.02166   -0.00690   -0.00473   -0.00149
PART    2
F1    4    0.111714    0.081921    0.382894    10.67855    0.06063    0.02330 =
         0.01916   -0.00995   -0.00866   -0.00571
PART    0
C6    1   -0.144964   -0.247835    0.412139    11.00000    0.04277    0.03180 =
         0.02310   -0.00384   -0.00086   -0.00063
PART    2
F2    4   -0.199704   -0.217359    0.488853    10.32145    0.08388    0.05122 =
         0.02397    0.00114   -0.00831   -0.02100
HKLF    4

REM  SIR2004 run in space group P -1
REM R1 =  0.0675 for    1473 Fo > 4sig(Fo)  and  0.0731 for all    1705 data
REM    118 parameters refined using      0 restraints

END

WGHT      0.0803      0.0546

REM Highest difference peak  0.431,  deepest hole -0.339,  1-sigma level  0.082
Q1    1  -0.3533 -0.6218  0.2885  11.00000  0.05    0.43
Q2    1   0.1560  0.1901  0.1066  11.00000  0.05    0.33
Q3    1   0.6637  0.4741  0.0819  11.00000  0.05    0.32
Q4    1  -0.1735 -0.1654  0.2443  11.00000  0.05    0.27
Q5    1   0.5125  0.4435 -0.0760  11.00000  0.05    0.27
Q6    1  -0.2359 -0.1377  0.3790  11.00000  0.05    0.26
Q7    1   0.0574 -0.2339  0.2561  11.00000  0.05    0.25
Q8    1  -0.1051  0.0654  0.3769  11.00000  0.05    0.25
Q9    1   0.4069  0.1296  0.0979  11.00000  0.05    0.25
Q10   1   0.6512  0.4250 -0.0378  11.00000  0.05    0.23
Q11   1  -0.2978 -0.3052  0.3866  11.00000  0.05    0.22
Q12   1  -0.3390 -0.3412  0.2627  11.00000  0.05    0.22
Q13   1   0.0590  0.2171  0.0030  11.00000  0.05    0.20
Q14   1  -0.3955 -0.2217  0.3992  11.00000  0.05    0.20
Q15   1  -0.5161 -0.5357  0.4003  11.00000  0.05    0.20
Q16   1   0.2498  0.3975  0.1005  11.00000  0.05    0.19
Q17   1   0.6174  0.3128  0.1208  11.00000  0.05    0.19
Q18   1   0.3256  0.1291  0.3688  11.00000  0.05    0.19
Q19   1   0.0384 -0.4193  0.2916  11.00000  0.05    0.18
Q20   1   0.1611  0.4208 -0.0216  11.00000  0.05    0.18
Q21   1   0.3122  0.3840 -0.1021  11.00000  0.05    0.18
Q22   1  -0.1250 -0.3661  0.3977  11.00000  0.05    0.18
Q23   1   0.2686  0.5696  0.0058  11.00000  0.05    0.17
Q24   1   0.5701  0.3417 -0.0216  11.00000  0.05    0.17
Q25   1  -0.0582  0.0023  0.2406  11.00000  0.05    0.17
;
_shelx_res_checksum              85390
loop_
_space_group_symop_operation_xyz
'x, y, z'
'-x, -y, -z'
loop_
_atom_site_label
_atom_site_type_symbol
_atom_site_fract_x
_atom_site_fract_y
_atom_site_fract_z
_atom_site_U_iso_or_equiv
_atom_site_adp_type
_atom_site_occupancy
_atom_site_site_symmetry_order
_atom_site_calc_flag
_atom_site_refinement_flags_posn
_atom_site_refinement_flags_adp
_atom_site_refinement_flags_occupancy
_atom_site_disorder_assembly
_atom_site_disorder_group
C1 C 0.3079(4) 0.2631(2) 0.07056(9) 0.0212(4) Uani 1 1 d . . . . .
C2 C 0.1607(4) 0.0799(2) 0.12262(10) 0.0223(4) Uani 1 1 d . . . . .
H2 H 0.0687 -0.0277 0.0962 0.027 Uiso 1 1 calc R U . . .
C3 C 0.1560(4) 0.0645(2) 0.20724(9) 0.0206(4) Uani 1 1 d . . . . .
H3 H 0.2547 0.1739 0.2312 0.025 Uiso 1 1 calc R U . . .
C4 C 0.0109(4) -0.1075(2) 0.26601(9) 0.0204(4) Uani 1 1 d . . . . .
C7 C -0.2598(5) -0.4324(3) 0.38415(11) 0.0303(4) Uani 1 1 d . . . . .
H7 H -0.3486 -0.5399 0.4230 0.036 Uiso 1 1 calc R U . . .
C8 C -0.2401(4) -0.4541(3) 0.29746(11) 0.0267(4) Uani 1 1 d . . . . .
H8 H -0.3177 -0.5766 0.2783 0.032 Uiso 1 1 calc R U . . .
C9 C -0.1062(4) -0.2953(3) 0.23929(10) 0.0231(4) Uani 1 1 d . . . . .
H9 H -0.0936 -0.3132 0.1815 0.028 Uiso 1 1 calc R U . . .
O1 O 0.4441(3) 0.40923(18) 0.10304(7) 0.0276(4) Uani 1 1 d . . . . .
O2 O 0.2832(3) 0.2652(2) -0.01045(7) 0.0308(4) Uani 1 1 d . . . . .
H2A H 0.3722 0.3721 -0.0348 0.046 Uiso 1 1 calc R U . . .
C5 C -0.0115(5) -0.0912(3) 0.35334(10) 0.0261(4) Uani 1 1 d . . . . .
F1 F 0.1117(4) 0.0819(2) 0.38289(8) 0.0334(4) Uani 0.6785 1 d . . P A 2
C6 C -0.1450(5) -0.2478(3) 0.41214(11) 0.0326(5) Uani 1 1 d . . . . .
F2 F -0.1997(12) -0.2174(7) 0.4889(2) 0.0525(11) Uani 0.3215 1 d . . P B 2
loop_
_atom_site_aniso_label
_atom_site_aniso_U_11
_atom_site_aniso_U_22
_atom_site_aniso_U_33
_atom_site_aniso_U_23
_atom_site_aniso_U_13
_atom_site_aniso_U_12
C1 0.0228(7) 0.0219(8) 0.0198(7) -0.0060(6) -0.0040(5) 0.0020(6)
C2 0.0253(8) 0.0208(8) 0.0220(7) -0.0056(6) -0.0040(5) -0.0022(6)
C3 0.0212(7) 0.0188(8) 0.0228(8) -0.0053(6) -0.0048(5) 0.0004(5)
C4 0.0198(7) 0.0208(8) 0.0211(8) -0.0045(6) -0.0051(5) 0.0027(6)
C7 0.0328(9) 0.0262(9) 0.0305(9) 0.0024(7) 0.0001(6) -0.0002(7)
C8 0.0260(8) 0.0210(8) 0.0339(9) -0.0046(7) -0.0058(6) -0.0006(6)
C9 0.0242(8) 0.0236(8) 0.0228(7) -0.0067(6) -0.0047(5) 0.0012(6)
O1 0.0374(7) 0.0253(7) 0.0222(6) -0.0056(5) -0.0072(5) -0.0067(5)
O2 0.0469(8) 0.0295(7) 0.0176(6) -0.0036(5) -0.0053(5) -0.0108(6)
C5 0.0339(9) 0.0240(9) 0.0217(8) -0.0069(6) -0.0047(6) -0.0015(6)
F1 0.0606(10) 0.0233(8) 0.0192(7) -0.0100(6) -0.0087(6) -0.0057(7)
C6 0.0428(10) 0.0318(10) 0.0231(8) -0.0038(7) -0.0009(7) -0.0006(8)
F2 0.084(3) 0.051(2) 0.0240(17) 0.0011(16) -0.0083(17) -0.021(2)
loop_
_atom_type_symbol
_atom_type_description
_atom_type_scat_dispersion_real
_atom_type_scat_dispersion_imag
_atom_type_scat_source
C C 0.0033 0.0016 'International Tables Vol C Tables 4.2.6.8 and 6.1.1.4'
H H 0.0000 0.0000 'International Tables Vol C Tables 4.2.6.8 and 6.1.1.4'
O O 0.0106 0.0060 'International Tables Vol C Tables 4.2.6.8 and 6.1.1.4'
F F 0.0171 0.0103 'International Tables Vol C Tables 4.2.6.8 and 6.1.1.4'
loop_
_geom_angle_atom_site_label_1
_geom_angle_atom_site_label_2
_geom_angle_atom_site_label_3
_geom_angle
O1 C1 O2 122.54(15)
O1 C1 C2 121.76(15)
O2 C1 C2 115.69(13)
C3 C2 C1 121.24(14)
C3 C2 H2 119.4
C1 C2 H2 119.4
C2 C3 C4 126.38(14)
C2 C3 H3 116.8
C4 C3 H3 116.8
C5 C4 C9 116.65(15)
C5 C4 C3 120.05(14)
C9 C4 C3 123.29(15)
C8 C7 C6 119.20(15)
C8 C7 H7 120.4
C6 C7 H7 120.4
C9 C8 C7 120.71(15)
C9 C8 H8 119.6
C7 C8 H8 119.6
C8 C9 C4 121.13(15)
C8 C9 H9 119.4
C4 C9 H9 119.4
C1 O2 H2A 109.5
F1 C5 C6 117.81(16)
F1 C5 C4 119.23(15)
C6 C5 C4 122.93(16)
F2 C6 C5 121.0(2)
F2 C6 C7 119.2(2)
C5 C6 C7 119.38(16)
loop_
_geom_bond_atom_site_label_1
_geom_bond_atom_site_label_2
_geom_bond_distance
C1 O1 1.2545(19)
C1 O2 1.294(2)
C1 C2 1.464(2)
C2 C3 1.334(3)
C2 H2 0.9300
C3 C4 1.462(2)
C3 H3 0.9300
C4 C5 1.393(2)
C4 C9 1.405(2)
C7 C8 1.389(3)
C7 C6 1.392(3)
C7 H7 0.9300
C8 C9 1.384(3)
C8 H8 0.9300
C9 H9 0.9300
O2 H2A 0.8200
C5 F1 1.352(2)
C5 C6 1.380(3)
C6 F2 1.247(4)
loop_
_geom_hbond_atom_site_label_D
_geom_hbond_atom_site_label_H
_geom_hbond_atom_site_label_A
_geom_hbond_distance_DH
_geom_hbond_distance_HA
_geom_hbond_distance_DA
_geom_hbond_angle_DHA
_geom_hbond_site_symmetry_A
C2 H2 O2 0.93 2.61 3.520(3) 167.8 2
C7 H7 F2 0.93 2.59 3.476(5) 159.8 2_446
O2 H2A O1 0.82 1.80 2.618(2) 171.4 2_665
C2 H2 O2 0.93 2.61 3.520(3) 167.8 2
C7 H7 F2 0.93 2.59 3.476(5) 159.8 2_446
O2 H2A O1 0.82 1.80 2.618(2) 171.4 2_665
loop_
_geom_torsion_atom_site_label_1
_geom_torsion_atom_site_label_2
_geom_torsion_atom_site_label_3
_geom_torsion_atom_site_label_4
_geom_torsion
O1 C1 C2 C3 2.1(3)
O2 C1 C2 C3 -176.94(14)
C1 C2 C3 C4 178.73(13)
C2 C3 C4 C5 -172.84(15)
C2 C3 C4 C9 8.2(3)
C6 C7 C8 C9 0.4(3)
C7 C8 C9 C4 -0.5(3)
C5 C4 C9 C8 0.7(2)
C3 C4 C9 C8 179.69(13)
C9 C4 C5 F1 177.14(15)
C3 C4 C5 F1 -1.9(3)
C9 C4 C5 C6 -0.8(3)
C3 C4 C5 C6 -179.88(16)
F1 C5 C6 F2 10.6(4)
C4 C5 C6 F2 -171.4(3)
F1 C5 C6 C7 -177.21(15)
C4 C5 C6 C7 0.8(3)
C8 C7 C6 F2 171.8(3)
C8 C7 C6 C5 -0.5(3)
