#------------------------------------------------------------------------------
#$Date: 2019-11-17 11:11:28 +0200 (Sun, 17 Nov 2019) $
#$Revision: 229511 $
#$URL: file:///home/coder/svn-repositories/cod/cif/7/04/75/7047524.cif $
#------------------------------------------------------------------------------
#
# This file is available in the Crystallography Open Database (COD),
# http://www.crystallography.net/
#
# All data on this site have been placed in the public domain by the
# contributors.
#
data_7047524
loop_
_publ_author_name
'Hassanpoor, Azam'
'Mirzaei, Masoud'
'Niknam Shahrak, Mahdi'
'Majcher, Anna M.'
_publ_section_title
;
 Developing a magnetic metal organic framework of copper bearing a mixed
 azido/butane-1,4-dicarboxylate bridge: magnetic and gas adsorption
 properties.
;
_journal_issue                   39
_journal_name_full
'Dalton transactions (Cambridge, England : 2003)'
_journal_page_first              13849
_journal_page_last               13860
_journal_paper_doi               10.1039/c8dt02986e
_journal_volume                  47
_journal_year                    2018
_chemical_formula_moiety         '0.25(C12 H24 Cu4 N12 O12), 1[H2O]'
_chemical_formula_sum            'C3 H8 Cu N3 O4'
_chemical_formula_weight         213.66
_space_group_crystal_system      monoclinic
_space_group_IT_number           12
_space_group_name_Hall           '-C 2y'
_space_group_name_H-M_alt        'C 1 2/m 1'
_symmetry_space_group_name_Hall  '-C 2y'
_symmetry_space_group_name_H-M   'C 1 2/m 1'
_atom_sites_solution_hydrogens   mixed
_audit_creation_date             2018-09-07
_audit_creation_method
;
Olex2 1.2-dev
(compiled 2018.07.26 svn.r3523 for OlexSys, GUI svn.r5356)
;
_audit_update_record
;
2018-09-07 deposited with the CCDC.
2018-09-11 downloaded from the CCDC.
;
_cell_angle_alpha                90
_cell_angle_beta                 95.469(3)
_cell_angle_gamma                90
_cell_formula_units_Z            4
_cell_length_a                   14.5619(4)
_cell_length_b                   6.4760(2)
_cell_length_c                   7.4973(2)
_cell_measurement_reflns_used    2919
_cell_measurement_temperature    100.0(1)
_cell_measurement_theta_max      76.0950
_cell_measurement_theta_min      6.0980
_cell_volume                     703.80(3)
_computing_cell_refinement
;
CrysAlisPro, Agilent Technologies,
Version 1.171.37.31 (release 14-01-2014 CrysAlis171 .NET)
(compiled Jan 14 2014,18:38:05)
;
_computing_data_collection
;
CrysAlisPro, Agilent Technologies,
Version 1.171.37.31 (release 14-01-2014 CrysAlis171 .NET)
(compiled Jan 14 2014,18:38:05)
;
_computing_data_reduction
;
CrysAlisPro, Agilent Technologies,
Version 1.171.37.31 (release 14-01-2014 CrysAlis171 .NET)
(compiled Jan 14 2014,18:38:05)
;
_computing_molecular_graphics    'Olex2 (Dolomanov et al., 2009)'
_computing_publication_material  'Olex2 (Dolomanov et al., 2009)'
_computing_structure_refinement  'ShelXL (Sheldrick, 2015)'
_computing_structure_solution    'ShelXS (Sheldrick, 2008)'
_diffrn_ambient_temperature      100.00(10)
_diffrn_detector_area_resol_mean 10.4839
_diffrn_detector_type            Atlas
_diffrn_measured_fraction_theta_full 0.996
_diffrn_measured_fraction_theta_max 0.986
_diffrn_measurement_details
;
#__ type_ start__ end____ width___ exp.time_
  1 omega    9.00   62.00   1.0000    1.0000
omega____ theta____ kappa____ phi______ frames
    -       41.6798 -104.0000   29.0000 53

#__ type_ start__ end____ width___ exp.time_
  2 omega  -81.00    0.00   1.0000    1.0000
omega____ theta____ kappa____ phi______ frames
    -      -43.5000  104.0000  130.0000 81

#__ type_ start__ end____ width___ exp.time_
  3 omega   51.00  104.00   1.0000    1.0000
omega____ theta____ kappa____ phi______ frames
    -      111.0000 -104.0000   29.0000 53

#__ type_ start__ end____ width___ exp.time_
  4 omega  108.00  134.00   1.0000    1.0000
omega____ theta____ kappa____ phi______ frames
    -      111.0000  104.0000  130.0000 26

#__ type_ start__ end____ width___ exp.time_
  5 omega -120.00  -92.00   1.0000    1.0000
omega____ theta____ kappa____ phi______ frames
    -      -43.5000  -94.0000  150.0000 28

#__ type_ start__ end____ width___ exp.time_
  6 omega -122.00  -82.00   1.0000    1.0000
omega____ theta____ kappa____ phi______ frames
    -      -43.5000  -94.0000  -60.0000 40

#__ type_ start__ end____ width___ exp.time_
  7 omega -122.00  -87.00   1.0000    1.0000
omega____ theta____ kappa____ phi______ frames
    -      -43.5000  -94.0000 -120.0000 35

#__ type_ start__ end____ width___ exp.time_
  8 omega -125.00  -85.00   1.0000    1.0000
omega____ theta____ kappa____ phi______ frames
    -      -43.5000  -94.0000   60.0000 40

#__ type_ start__ end____ width___ exp.time_
  9 omega   39.00   67.00   1.0000    1.0000
omega____ theta____ kappa____ phi______ frames
    -      111.0000 -125.0000  -60.0000 28

#__ type_ start__ end____ width___ exp.time_
 10 omega   75.00  101.00   1.0000    1.0000
omega____ theta____ kappa____ phi______ frames
    -      111.0000 -125.0000  -60.0000 26

#__ type_ start__ end____ width___ exp.time_
 11 omega   82.00  139.00   1.0000    1.0000
omega____ theta____ kappa____ phi______ frames
    -      111.0000   61.0000 -180.0000 57

#__ type_ start__ end____ width___ exp.time_
 12 omega   58.00   98.00   1.0000    1.0000
omega____ theta____ kappa____ phi______ frames
    -      111.0000  -45.0000  150.0000 40

#__ type_ start__ end____ width___ exp.time_
 13 omega   41.00  110.00   1.0000    1.0000
omega____ theta____ kappa____ phi______ frames
    -      111.0000 -125.0000  150.0000 69

#__ type_ start__ end____ width___ exp.time_
 14 omega  145.00  178.00   1.0000    1.0000
omega____ theta____ kappa____ phi______ frames
    -      111.0000   61.0000 -180.0000 33

#__ type_ start__ end____ width___ exp.time_
 15 omega   39.00   91.00   1.0000    1.0000
omega____ theta____ kappa____ phi______ frames
    -      111.0000  -30.0000  -60.0000 52

#__ type_ start__ end____ width___ exp.time_
 16 omega   40.00   73.00   1.0000    1.0000
omega____ theta____ kappa____ phi______ frames
    -      111.0000  -77.0000   60.0000 33

#__ type_ start__ end____ width___ exp.time_
 17 omega   97.00  144.00   1.0000    1.0000
omega____ theta____ kappa____ phi______ frames
    -      111.0000  -77.0000   60.0000 47

#__ type_ start__ end____ width___ exp.time_
 18 omega   53.00   79.00   1.0000    1.0000
omega____ theta____ kappa____ phi______ frames
    -      111.0000  -45.0000 -120.0000 26

#__ type_ start__ end____ width___ exp.time_
 19 omega  108.00  174.00   1.0000    1.0000
omega____ theta____ kappa____ phi______ frames
    -      111.0000   61.0000 -150.0000 66

#__ type_ start__ end____ width___ exp.time_
 20 omega -118.00   -9.00   1.0000    1.0000
omega____ theta____ kappa____ phi______ frames
    -      -41.6798  -77.0000  150.0000 109

#__ type_ start__ end____ width___ exp.time_
 21 omega -116.00  -14.00   1.0000    1.0000
omega____ theta____ kappa____ phi______ frames
    -      -43.5000  -61.0000   60.0000 102

#__ type_ start__ end____ width___ exp.time_
 22 omega -120.00  -11.00   1.0000    1.0000
omega____ theta____ kappa____ phi______ frames
    -      -43.5000  -77.0000  -30.0000 109

#__ type_ start__ end____ width___ exp.time_
 23 omega -116.00  -14.00   1.0000    1.0000
omega____ theta____ kappa____ phi______ frames
    -      -43.5000  -61.0000 -150.0000 102

#__ type_ start__ end____ width___ exp.time_
 24 omega   82.00  178.00   1.0000    1.0000
omega____ theta____ kappa____ phi______ frames
    -      111.0000   61.0000 -120.0000 96

#__ type_ start__ end____ width___ exp.time_
 25 omega   28.00  109.00   1.0000    1.0000
omega____ theta____ kappa____ phi______ frames
    -      111.0000  -94.0000 -120.0000 81

#__ type_ start__ end____ width___ exp.time_
 26 omega   83.00  178.00   1.0000    1.0000
omega____ theta____ kappa____ phi______ frames
    -      111.0000   30.0000   90.0000 95

#__ type_ start__ end____ width___ exp.time_
 27 omega   38.00   98.00   1.0000    1.0000
omega____ theta____ kappa____ phi______ frames
    -      111.0000  -45.0000   90.0000 60

#__ type_ start__ end____ width___ exp.time_
 28 omega   78.00  178.00   1.0000    1.0000
omega____ theta____ kappa____ phi______ frames
    -      111.0000   77.0000  120.0000 100

#__ type_ start__ end____ width___ exp.time_
 29 omega   82.00  150.00   1.0000    1.0000
omega____ theta____ kappa____ phi______ frames
    -      111.0000   61.0000   30.0000 68

#__ type_ start__ end____ width___ exp.time_
 30 omega   58.00  178.00   1.0000    1.0000
omega____ theta____ kappa____ phi______ frames
    -      111.0000   15.0000    0.0000 120
;
_diffrn_measurement_device       'four-circle diffractometer'
_diffrn_measurement_device_type  'SuperNova, Dual, Cu at zero, Atlas'
_diffrn_measurement_method       '\w scans'
_diffrn_radiation_type           CuK\a
_diffrn_radiation_wavelength     1.54184
_diffrn_reflns_av_R_equivalents  0.0185
_diffrn_reflns_av_unetI/netI     0.0108
_diffrn_reflns_Laue_measured_fraction_full 0.996
_diffrn_reflns_Laue_measured_fraction_max 0.986
_diffrn_reflns_limit_h_max       17
_diffrn_reflns_limit_h_min       -18
_diffrn_reflns_limit_k_max       8
_diffrn_reflns_limit_k_min       -8
_diffrn_reflns_limit_l_max       9
_diffrn_reflns_limit_l_min       -9
_diffrn_reflns_number            3958
_diffrn_reflns_point_group_measured_fraction_full 0.996
_diffrn_reflns_point_group_measured_fraction_max 0.986
_diffrn_reflns_theta_full        67.684
_diffrn_reflns_theta_max         76.260
_diffrn_reflns_theta_min         6.106
_exptl_absorpt_coefficient_mu    4.251
_exptl_absorpt_correction_T_max  0.948
_exptl_absorpt_correction_T_min  0.921
_exptl_absorpt_correction_type   gaussian
_exptl_absorpt_process_details
;
CrysAlisPro, Agilent Technologies,
Version 1.171.37.31 (release 14-01-2014 CrysAlis171 .NET)
(compiled Jan 14 2014,18:38:05)
Numerical absorption correction based on gaussian integration over
            a multifaceted crystal model
Empirical absorption correction using spherical harmonics,
 implemented in SCALE3 ABSPACK scaling algorithm.
;
_exptl_crystal_colour            green
_exptl_crystal_colour_primary    green
_exptl_crystal_density_diffrn    2.016
_exptl_crystal_description       rod
_exptl_crystal_F_000             432
_exptl_crystal_size_max          0.1282
_exptl_crystal_size_mid          0.1004
_exptl_crystal_size_min          0.0706
_refine_diff_density_max         0.332
_refine_diff_density_min         -0.567
_refine_diff_density_rms         0.086
_refine_ls_extinction_method     none
_refine_ls_goodness_of_fit_ref   1.097
_refine_ls_hydrogen_treatment    mixed
_refine_ls_matrix_type           full
_refine_ls_number_parameters     64
_refine_ls_number_reflns         794
_refine_ls_number_restraints     2
_refine_ls_restrained_S_all      1.095
_refine_ls_R_factor_all          0.0246
_refine_ls_R_factor_gt           0.0242
_refine_ls_shift/su_max          0.000
_refine_ls_shift/su_mean         0.000
_refine_ls_structure_factor_coef Fsqd
_refine_ls_weighting_details
'w=1/[\s^2^(Fo^2^)+(0.0406P)^2^+1.1121P] where P=(Fo^2^+2Fc^2^)/3'
_refine_ls_weighting_scheme      calc
_refine_ls_wR_factor_gt          0.0654
_refine_ls_wR_factor_ref         0.0657
_reflns_Friedel_coverage         0.000
_reflns_number_gt                773
_reflns_number_total             794
_reflns_threshold_expression     'I > 2\s(I)'
_cod_data_source_file            c8dt02986e2.cif
_cod_data_source_block           ah81w
_cod_depositor_comments          'Adding full bibliography for 7047524.cif.'
_cod_database_code               7047524
_shelx_shelxl_version_number     2018/3
_shelx_space_group_comment
;
The symmetry employed for this shelxl refinement is uniquely defined
by the following loop, which should always be used as a source of
symmetry information in preference to the above space-group names.
They are only intended as comments.
;
_olex2_refinement_description
;
1. Fixed Uiso
 At 1.2 times of:
  All C(H,H) groups
2. Restrained distances
 O2-H2C
 0.84 with sigma of 0.01
 O2-H2D
 0.84 with sigma of 0.01
3. Others
 Fixed Sof: H2A(0.5) H2B(0.5) H3A(0.5) H3B(0.5)
4.a Secondary CH2 refined with riding coordinates:
 C2(H2A,H2B), C3(H3A,H3B)
;
_smtbx_masks_special_details
;
A solvent mask was calculated and 36 electrons were 
found in a volume of 124\%A^3 in 1 void. 
This is consistent with the presence of 
1[H2O] per formula unit 
which account for 40.0 electrons.
;
_smtbx_masks_void_probe_radius   1.0
_smtbx_masks_void_truncation_radius 1.2
_shelx_res_file
;
TITL AH81w in C2 #5 New: C2/m
    ah81w.res
    created by SHELXL-2018/3 at 09:55:42 on 07-Sep-2018
CELL 1.54184 14.5619 6.476 7.4973 90 95.469 90
ZERR 4 0.0004 0.0002 0.0002 0 0.003 0
LATT 7
SYMM -X,+Y,-Z
SFAC C Cu H N O
UNIT 12 4 32 12 16
DFIX 0.84 0.01 O2 H2c
DFIX 0.84 0.01 O2 H2d

L.S. 20
PLAN  -20
TEMP -173.15(10)
BIND O2 Cu1
LIST 4
BOND $H
CONF
MORE -1
fmap 2
acta
ABIN
OMIT -6 2 1
OMIT -11 5 5
OMIT 0 0 3
REM <olex2.extras>
REM <HklSrc "%.\\ah81w.hkl">
REM </olex2.extras>

WGHT    0.040600    1.112100
FVAR       6.73491
CU1   2    0.250000    0.750000    1.000000    10.50000    0.01117    0.00641 =
         0.00946   -0.00098    0.00537   -0.00068
O1    5    0.358044    0.826272    0.877621    11.00000    0.01492    0.00895 =
         0.01441   -0.00053    0.00678   -0.00027
N1    4    0.231564    0.500000    0.840510    10.50000    0.01580    0.00875 =
         0.00895    0.00000    0.00522    0.00000
N2    4    0.257334    0.500000    0.691590    10.50000    0.01138    0.00911 =
         0.01431    0.00000    0.00284    0.00000
N3    4    0.279835    0.500000    0.550174    10.50000    0.03781    0.02168 =
         0.01557    0.00000    0.01343    0.00000
C1    1    0.392203    1.000000    0.845000    10.50000    0.01112    0.01285 =
         0.00772    0.00000    0.00165    0.00000
C2    1    0.480235    1.000000    0.752572    10.50000    0.01105    0.02041 =
         0.01206    0.00000    0.00459    0.00000
AFIX  23
H2A   3    0.517297    0.876152    0.788715    10.50000   -1.20000
H2B   3    0.517297    1.123848    0.788716    10.50000   -1.20000
AFIX   0
C3    1    0.456476    1.000000    0.548832    10.50000    0.01118    0.01601 =
         0.01209    0.00000    0.00479    0.00000
AFIX  23
H3A   3    0.419132    0.876305    0.513504    10.50000   -1.20000
H3B   3    0.419132    1.123695    0.513504    10.50000   -1.20000
AFIX   0
O2    5    0.160012    1.000000    0.811918    10.50000    0.01504    0.01816 =
         0.01257    0.00000    0.00228    0.00000
H2C   3    0.171556    1.000000    0.704324    10.50000    0.04164
H2D   3    0.101847    1.000000    0.794494    10.50000    0.07567
HKLF 4




REM  AH81w in C2 #5 New: C2/m
REM wR2 = 0.0657, GooF = S = 1.097, Restrained GooF = 1.095 for all data
REM R1 = 0.0242 for 773 Fo > 4sig(Fo) and 0.0246 for all 794 data
REM 64 parameters refined using 2 restraints

END

WGHT      0.0406      1.1112

REM Highest difference peak  0.332,  deepest hole -0.567,  1-sigma level  0.086
Q1    1  -0.0321  1.0000  0.7842  10.50000  0.05    0.33
Q2    1   0.2409  1.0726  1.1028  11.00000  0.05    0.27
Q3    1   0.5000  1.1440  1.0000  10.50000  0.05    0.23
Q4    1   0.4466  1.0000  0.7918  10.50000  0.05    0.23
Q5    1   0.0421  1.0000  0.8304  10.50000  0.05    0.22
Q6    1   0.0501  1.0000  0.7204  10.50000  0.05    0.22
Q7    1   0.5100  1.0000  0.9398  10.50000  0.05    0.22
Q8    1   0.1383  0.6109  1.1391  11.00000  0.05    0.20
Q9    1   0.3800  0.7479  0.8633  11.00000  0.05    0.18
Q10   1   0.2767  1.0964  0.8825  11.00000  0.05    0.17
Q11   1   0.3684  0.5000  0.5942  10.50000  0.05    0.17
Q12   1   0.1699  0.6718  1.0842  11.00000  0.05    0.17
Q13   1   0.5000  1.0000  0.5000  10.25000  0.05    0.16
Q14   1   0.2123  0.3206  0.6049  11.00000  0.05    0.16
Q15   1   0.4699  1.0000  0.6636  10.50000  0.05    0.16
Q16   1   0.1662  1.0000  1.0036  10.50000  0.05    0.15
Q17   1   0.2024  1.0946  0.9169  11.00000  0.05    0.15
Q18   1   0.1730  1.0599  0.9773  11.00000  0.05    0.15
Q19   1   0.1752  1.0000  1.1283  10.50000  0.05    0.15
Q20   1   0.0761  1.1691  0.7695  11.00000  0.05    0.15
;
_shelx_res_checksum              13848
_shelx_fab_file
;
-18 0 1 -1.3273 0.1914
-18 0 2 2.3691 0.1056
-17 1 1 -1.0732 0.2451
-17 1 2 3.3060 0.1692
-17 1 3 1.8535 -0.0927
-16 0 1 -0.8638 0.0991
-16 0 2 4.9386 0.0092
-16 0 3 1.9685 -0.2289
-16 0 4 -1.1264 -0.0922
-16 0 5 -0.2323 -0.1497
-16 2 1 -0.3690 0.1887
-16 2 2 3.6811 0.1876
-16 2 3 1.9092 0.1133
-16 2 4 -0.2473 0.2692
-15 1 1 0.0876 0.0841
-15 1 2 5.6519 0.0938
-15 1 3 1.8094 -0.0587
-15 1 4 -1.7331 0.0277
-15 1 5 -0.2878 -0.2193
-15 1 6 0.5700 0.0350
-15 3 1 0.2201 0.1855
-15 3 2 3.8250 0.1839
-15 3 3 1.5015 0.2202
-15 3 4 -0.7278 0.3059
-14 0 1 0.9503 -0.0244
-14 0 2 6.4764 -0.0366
-14 0 3 1.2639 -0.1133
-14 0 4 -2.9822 -0.0874
-14 0 5 0.3988 -0.0230
-14 0 6 1.3056 0.1864
-14 2 1 1.1958 0.0571
-14 2 2 5.8348 0.1184
-14 2 3 1.4154 0.1139
-14 2 4 -2.0320 0.0911
-14 2 5 -0.2825 -0.2290
-14 2 6 0.6161 -0.1943
-14 4 1 0.8115 0.2248
-14 4 2 3.8035 0.2131
-14 4 3 0.7822 0.1353
-14 4 4 -1.2073 0.1590
-13 1 1 2.1304 -0.0438
-13 1 2 6.6342 0.0377
-13 1 3 0.7529 -0.0024
-13 1 4 -3.3633 -0.1122
-13 1 5 0.8314 -0.0909
-13 1 6 1.6709 -0.0228
-13 1 7 0.5688 0.0095
-13 3 1 2.1225 0.0960
-13 3 2 5.7920 0.0895
-13 3 3 0.6276 0.1364
-13 3 4 -2.4063 0.0755
-13 3 5 0.1704 -0.2747
-13 3 6 0.3827 -0.2286
-13 5 1 1.5329 0.1891
-13 5 2 3.3047 0.2584
-13 5 3 0.2418 -0.0675
-12 0 1 3.1250 -0.0409
-12 0 2 6.7480 -0.0025
-12 0 3 0.1675 0.0017
-12 0 4 -3.9747 -0.0503
-12 0 5 1.9626 0.0429
-12 0 6 2.2063 0.0766
-12 0 7 0.1207 -0.2463
-12 2 1 3.3408 -0.0259
-12 2 2 6.6502 0.0156
-12 2 3 0.0478 0.0559
-12 2 4 -3.3484 -0.1047
-12 2 5 1.1001 -0.1510
-12 2 6 1.5764 -0.1338
-12 2 7 0.9135 0.2351
-12 4 1 2.9725 0.1057
-12 4 2 5.3053 0.0899
-12 4 3 -0.1918 -0.0065
-12 4 4 -2.5599 -0.0472
-12 4 5 0.8217 -0.2149
-12 4 6 0.1426 -0.0853
-12 6 1 1.8783 0.0940
-11 1 1 4.3714 -0.0399
-11 1 2 6.9204 0.0119
-11 1 3 -0.4437 -0.0126
-11 1 4 -3.8579 -0.1224
-11 1 5 2.4066 0.0193
-11 1 6 2.2080 -0.0269
-11 1 7 0.0958 0.0591
-11 3 1 4.4027 -0.0044
-11 3 2 6.2459 -0.0421
-11 3 3 -0.8625 0.0307
-11 3 4 -3.3521 -0.0832
-11 3 5 1.6276 -0.2074
-11 3 6 1.1581 -0.0596
-11 3 7 0.6294 0.1020
-11 5 1 3.5302 0.0486
-11 5 2 4.2009 0.0953
-11 5 3 -0.6423 -0.1846
-11 5 4 -2.1382 -0.1762
-10 0 1 5.6584 -0.0062
-10 0 2 7.4511 0.0457
-10 0 3 -0.8542 0.0192
-10 0 4 -3.9287 0.0119
-10 0 5 3.2830 -0.0034
-10 0 6 2.0644 0.0072
-10 0 7 -0.6458 -0.0448
-10 0 8 -1.2058 0.1703
-10 2 1 5.7074 -0.0198
-10 2 2 6.7322 -0.0474
-10 2 3 -1.4425 -0.0145
-10 2 4 -3.5666 -0.0865
-10 2 5 2.4883 -0.0341
-10 2 6 1.8913 -0.0014
-10 2 7 0.0247 0.0883
-10 4 1 5.0562 -0.0288
-10 4 2 5.1762 -0.0415
-10 4 3 -1.4641 -0.0548
-10 4 4 -3.1019 -0.0982
-10 4 5 2.1851 -0.0920
-10 4 6 0.7400 0.0049
-10 6 1 3.2892 -0.0022
-10 6 2 2.6062 0.0251
-10 6 3 -0.7928 -0.2289
-10 6 4 -1.3418 -0.1789
-9 1 1 7.2926 0.0006
-9 1 2 7.7323 0.0070
-9 1 3 -1.8226 -0.0393
-9 1 4 -3.6990 0.0080
-9 1 5 3.3599 0.0452
-9 1 6 1.6912 0.0330
-9 1 7 -0.9560 0.0698
-9 1 8 -1.5790 -0.0481
-9 3 1 6.5450 -0.0345
-9 3 2 5.5218 -0.0693
-9 3 3 -2.3132 0.0024
-9 3 4 -3.2971 -0.0316
-9 3 5 2.8258 -0.0826
-9 3 6 1.3717 0.0308
-9 3 7 -0.5979 -0.1162
-9 5 1 4.9578 -0.0443
-9 5 2 3.7332 -0.0436
-9 5 3 -1.6732 -0.1094
-9 5 4 -2.3315 -0.0923
-9 5 5 2.1152 0.1421
-9 5 6 0.4650 -0.0185
-9 7 1 2.1613 -0.0081
-8 0 1 9.3793 -0.0334
-8 0 2 8.7665 0.0526
-8 0 3 -2.5672 -0.0072
-8 0 4 -3.8695 0.0326
-8 0 5 3.8443 -0.0600
-8 0 6 1.0652 0.0230
-8 0 7 -1.7155 0.0935
-8 0 8 -1.9483 -0.0008
-8 2 1 8.4621 0.0137
-8 2 2 6.4699 -0.0285
-8 2 3 -3.1256 -0.0143
-8 2 4 -3.2954 0.0582
-8 2 5 3.2340 0.0319
-8 2 6 1.2847 0.0493
-8 2 7 -1.3214 -0.0497
-8 2 8 -1.5209 -0.0721
-8 4 1 6.3820 -0.0483
-8 4 2 3.8029 -0.0310
-8 4 3 -2.5409 0.0153
-8 4 4 -2.7635 -0.0036
-8 4 5 3.2092 -0.0220
-8 4 6 0.8249 -0.0159
-8 4 7 -1.2470 -0.1780
-8 6 1 4.0619 -0.0129
-8 6 2 2.1377 -0.0780
-8 6 3 -1.6432 -0.0695
-8 6 4 -1.2922 -0.0360
-8 6 5 1.2920 0.2204
-7 1 1 11.0913 -0.0127
-7 1 2 7.9917 0.0113
-7 1 3 -3.9748 -0.0100
-7 1 4 -3.6745 0.0895
-7 1 5 3.8249 0.0367
-7 1 6 0.5867 0.0661
-7 1 7 -2.1247 0.0373
-7 1 8 -1.9377 -0.0055
-7 3 1 8.1904 0.0090
-7 3 2 3.9208 0.0147
-7 3 3 -3.6616 0.0355
-7 3 4 -2.7200 0.0642
-7 3 5 3.4819 -0.0215
-7 3 6 0.7346 -0.0335
-7 3 7 -1.9420 -0.1395
-7 3 8 -1.0221 -0.0385
-7 5 1 5.4203 -0.0212
-7 5 2 2.3529 -0.0345
-7 5 3 -2.4704 0.0388
-7 5 4 -1.8177 0.0298
-7 5 5 2.8948 0.0605
-7 5 6 0.3470 0.0073
-7 7 1 2.6215 0.0561
-7 7 2 0.6448 -0.0399
-7 7 3 -1.1231 0.0013
-6 0 1 13.6806 -0.0783
-6 0 2 8.1707 0.0276
-6 0 3 -5.1524 -0.0089
-6 0 4 -3.9886 -0.0085
-6 0 5 4.3707 -0.0484
-6 0 6 -0.0679 0.0482
-6 0 7 -2.8113 0.0681
-6 0 8 -1.8384 -0.0265
-6 0 9 0.0142 0.2257
-6 2 2 4.8629 0.0136
-6 2 3 -4.9711 0.0307
-6 2 4 -2.8897 0.0940
-6 2 5 3.7444 0.0477
-6 2 6 0.1173 -0.0131
-6 2 7 -2.4408 -0.0430
-6 2 8 -1.5776 0.0266
-6 4 1 6.6718 0.0184
-6 4 2 1.7466 0.0651
-6 4 3 -3.3327 0.0633
-6 4 4 -1.9020 0.0514
-6 4 5 3.7338 -0.0476
-6 4 6 0.1312 -0.0622
-6 4 7 -2.2349 -0.0596
-6 6 1 4.1870 0.0315
-6 6 2 1.1308 -0.0547
-6 6 3 -2.2003 0.0588
-6 6 4 -0.8108 0.0536
-6 6 5 1.7264 0.0429
-5 1 1 14.1887 -0.0393
-5 1 2 5.4940 0.0035
-5 1 3 -6.1984 0.0309
-5 1 4 -3.3960 0.0358
-5 1 5 4.5107 0.0387
-5 1 6 -0.5804 0.0378
-5 1 7 -3.1104 0.0060
-5 1 8 -1.4894 0.0805
-5 1 9 0.1137 0.2202
-5 3 1 8.5155 0.0452
-5 3 2 1.3986 0.0647
-5 3 3 -4.5931 0.0355
-5 3 4 -1.7972 0.0412
-5 3 5 3.8831 -0.0099
-5 3 6 -0.5009 -0.1209
-5 3 7 -2.7448 0.0007
-5 3 8 -1.0218 -0.0800
-5 5 1 5.0363 0.0132
-5 5 2 0.5681 0.0374
-5 5 3 -2.9026 0.0668
-5 5 4 -0.9348 0.0527
-5 5 5 3.2120 -0.0535
-5 5 6 -0.3462 0.0948
-5 5 7 -1.6842 0.0027
-5 7 1 2.8381 0.1287
-5 7 2 0.1687 -0.0050
-5 7 3 -1.3600 0.0421
-5 7 4 -0.2209 0.0426
-4 0 1 16.2698 -0.0355
-4 0 2 3.9150 0.0056
-4 0 3 -7.0834 -0.0017
-4 0 4 -3.3252 -0.0386
-4 0 5 5.2181 -0.0153
-4 0 6 -1.1564 0.0403
-4 0 7 -3.7283 -0.0109
-4 0 8 -1.0117 0.0588
-4 0 9 0.0575 0.0777
-4 2 1 11.3427 -0.0060
-4 2 2 1.3562 -0.0023
-4 2 3 -5.9296 0.0304
-4 2 4 -1.9807 0.0036
-4 2 5 4.3179 0.0413
-4 2 6 -1.2072 -0.0701
-4 2 7 -3.0926 0.0226
-4 2 8 -1.1277 0.0242
-4 2 9 0.1698 0.1350
-4 4 1 5.7309 0.0384
-4 4 2 -0.5125 0.0838
-4 4 3 -3.5620 0.0180
-4 4 4 -0.7521 0.0127
-4 4 5 3.8384 -0.0518
-4 4 6 -1.0661 -0.0492
-4 4 7 -2.6446 0.0414
-4 4 8 -0.4845 -0.1915
-4 6 1 3.7905 0.0215
-4 6 2 -0.1671 -0.0009
-4 6 3 -2.3431 0.0340
-4 6 4 -0.1910 0.0471
-4 6 5 1.8791 -0.0494
-4 6 6 -0.5240 0.2342
-3 1 1 14.4917 -0.0274
-3 1 2 0.3030 -0.0175
-3 1 3 -6.8688 0.0137
-3 1 4 -2.1346 -0.0342
-3 1 5 5.1728 0.0246
-3 1 6 -1.8065 0.0079
-3 1 7 -3.7405 -0.0104
-3 1 8 -0.6529 0.0884
-3 1 9 0.1443 0.1007
-3 3 1 6.9155 0.0143
-3 3 2 -1.4648 0.0050
-3 3 3 -4.3890 -0.0095
-3 3 4 -0.5581 -0.0281
-3 3 5 3.9935 0.0004
-3 3 6 -1.8599 -0.1019
-3 3 7 -3.0270 0.0552
-3 3 8 -0.7461 -0.1371
-3 5 1 3.9186 -0.0309
-3 5 2 -1.2035 0.0445
-3 5 3 -2.7730 -0.0073
-3 5 4 0.0234 0.0111
-3 5 5 3.0915 -0.0334
-3 5 6 -1.3225 0.1188
-3 5 7 -1.7750 -0.0305
-3 7 1 2.6262 0.1326
-3 7 2 -0.5024 0.0098
-3 7 3 -1.3568 -0.0010
-3 7 4 0.0854 0.0364
-2 0 1 15.2287 0.0519
-2 0 2 -2.3968 0.0045
-2 0 3 -6.9295 -0.0055
-2 0 4 -1.4801 -0.0142
-2 0 5 5.5332 -0.0183
-2 0 6 -2.4737 0.0246
-2 0 7 -4.1551 -0.0303
-2 0 8 -0.1496 0.0574
-2 0 9 0.2478 -0.0422
-2 2 1 9.0789 -0.0400
-2 2 2 -2.7543 -0.0495
-2 2 3 -5.1305 -0.0174
-2 2 4 -0.5517 -0.0484
-2 2 5 4.4459 0.0112
-2 2 6 -2.4982 -0.0392
-2 2 7 -3.3546 0.0056
-2 2 8 -0.4662 -0.0223
-2 2 9 0.1588 0.1290
-2 4 1 3.7797 -0.0148
-2 4 2 -2.3405 0.0065
-2 4 3 -2.9298 -0.0247
-2 4 4 0.3692 -0.0135
-2 4 5 3.4428 0.0060
-2 4 6 -2.2644 -0.0071
-2 4 7 -2.6578 -0.0127
-2 4 8 -0.3654 -0.1546
-2 6 1 2.7473 -0.0377
-2 6 2 -1.4785 0.0061
-2 6 3 -1.9880 -0.0379
-2 6 4 0.3841 0.0084
-2 6 5 1.7909 0.0133
-2 6 6 -1.0817 0.1270
-2 8 1 1.4609 0.2312
-1 1 1 11.1993 -0.0060
-1 1 2 -5.1010 -0.0165
-1 1 3 -5.5143 -0.0258
-1 1 4 -0.2366 -0.0295
-1 1 5 4.8775 -0.0149
-1 1 6 -3.1714 0.0097
-1 1 7 -3.8188 -0.0232
-1 1 8 0.0884 -0.0044
-1 1 9 0.4034 0.1116
-1 3 1 3.9175 -0.0328
-1 3 2 -3.6215 -0.0637
-1 3 3 -3.0018 -0.0235
-1 3 4 0.5570 -0.0154
-1 3 5 3.4910 0.0027
-1 3 6 -2.9926 -0.0046
-1 3 7 -3.0381 -0.0436
-1 3 8 -0.2602 -0.0519
-1 5 1 2.2887 -0.0814
-1 5 2 -2.5139 -0.0055
-1 5 3 -2.0347 -0.0311
-1 5 4 0.7539 -0.0070
-1 5 5 2.5306 0.0629
-1 5 6 -2.1852 0.0122
-1 5 7 -1.5860 -0.0827
-1 7 1 1.6775 0.1071
-1 7 2 -1.2092 0.0039
-1 7 3 -1.0687 -0.0250
-1 7 4 0.4180 0.0186
0 0 2 -7.6916 0.0189
0 0 4 0.5958 0.0026
0 0 5 4.5027 -0.0275
0 0 6 -3.9264 0.0168
0 0 7 -3.8288 -0.0035
0 0 8 0.4777 -0.0363
0 0 9 0.7358 0.0464
0 2 0 23.6232 -0.0095
0 2 1 4.7203 -0.0424
0 2 2 -5.7466 -0.0429
0 2 3 -3.0934 -0.0366
0 2 4 0.6861 -0.0094
0 2 5 3.6405 -0.0233
0 2 6 -3.6015 0.0225
0 2 7 -3.2171 -0.0592
0 2 8 0.2570 -0.0167
0 2 9 0.3201 0.1849
0 4 0 10.5065 -0.0267
0 4 1 1.5717 -0.0346
0 4 2 -3.3611 -0.0457
0 4 3 -1.7344 0.0144
0 4 4 1.0435 0.0272
0 4 5 2.5342 0.0458
0 4 6 -3.1444 0.0108
0 4 7 -2.4379 -0.1036
0 4 8 -0.1034 0.0485
0 6 0 7.7930 -0.0165
0 6 1 1.1380 -0.0473
0 6 2 -2.3872 -0.0198
0 6 3 -1.2113 -0.0356
0 6 4 0.7585 -0.0214
0 6 5 1.4301 0.0889
0 6 6 -1.4687 -0.1017
0 8 0 3.5195 0.1779
0 8 1 0.8815 0.2112
1 1 0 27.5135 0.0855
1 1 1 4.9350 -0.0002
1 1 2 -8.5134 0.0171
1 1 3 -3.1028 -0.0181
1 1 4 1.1870 -0.0088
1 1 5 3.3946 -0.0262
1 1 6 -4.3351 0.0072
1 1 7 -3.2312 -0.0161
1 1 8 0.7759 -0.0818
1 1 9 0.8052 0.2288
1 3 0 16.4511 -0.0115
1 3 1 0.6125 -0.0122
1 3 2 -4.7150 -0.0435
1 3 3 -1.2678 0.0145
1 3 4 1.0806 0.0501
1 3 5 2.3818 -0.0042
1 3 6 -3.7459 0.0629
1 3 7 -2.7114 -0.1059
1 3 8 0.3551 0.1259
1 5 0 7.8395 -0.0526
1 5 1 0.5997 -0.0482
1 5 2 -3.1717 -0.0353
1 5 3 -1.0288 0.0215
1 5 4 1.0469 0.0076
1 5 5 1.6401 0.0831
1 5 6 -2.6921 -0.1121
1 5 7 -1.2141 -0.0547
1 7 0 6.4922 0.1032
1 7 1 0.2524 0.1037
1 7 2 -1.6254 -0.0062
1 7 3 -0.5258 -0.0003
1 7 4 0.6457 -0.0089
2 0 0 27.2945 0.1729
2 0 1 2.2688 -0.0041
2 0 2 -10.1758 0.0246
2 0 3 -2.3364 0.0418
2 0 4 1.7011 -0.0327
2 0 5 2.5002 -0.0022
2 0 6 -4.8841 0.0099
2 0 7 -2.8107 0.0131
2 0 8 1.1477 -0.0628
2 0 9 1.0627 0.1915
2 2 0 21.9397 0.0701
2 2 1 -0.5038 0.0077
2 2 2 -7.0494 0.0102
2 2 3 -0.9251 -0.0106
2 2 4 1.1630 0.0256
2 2 5 2.1457 -0.0147
2 2 6 -4.2357 0.0307
2 2 7 -2.5586 -0.0395
2 2 8 1.0369 0.0208
2 4 0 10.0689 -0.0276
2 4 1 -0.3194 0.0188
2 4 2 -3.8219 -0.0194
2 4 3 -0.5792 0.0669
2 4 4 1.1780 0.0707
2 4 5 1.3449 0.0288
2 4 6 -3.5885 0.0064
2 4 7 -1.8574 -0.0631
2 6 0 7.3096 0.0035
2 6 1 -0.5033 -0.0017
2 6 2 -2.6918 -0.0421
2 6 3 -0.3112 0.0018
2 6 4 0.8099 -0.0336
2 6 5 0.8549 0.0542
2 6 6 -1.5223 -0.2239
2 8 0 2.9741 0.1793
2 8 1 0.1179 0.1745
3 1 0 23.5624 0.1841
3 1 1 -2.4151 0.0186
3 1 2 -9.3203 0.0341
3 1 3 -0.6280 0.0138
3 1 4 1.5084 -0.0190
3 1 5 1.4610 0.0071
3 1 6 -4.7442 -0.0133
3 1 7 -2.1251 0.0202
3 1 8 1.5205 -0.0925
3 3 0 14.3780 0.0123
3 3 1 -2.3125 0.0490
3 3 2 -5.0982 0.0143
3 3 3 0.1518 0.0343
3 3 4 1.0628 0.0642
3 3 5 1.0062 0.0136
3 3 6 -3.9656 0.0510
3 3 7 -1.8803 -0.0059
3 3 8 0.8719 0.1892
3 5 0 7.3607 -0.0146
3 5 1 -0.8630 0.0111
3 5 2 -3.3778 -0.0251
3 5 3 -0.1086 0.0371
3 5 4 0.9440 0.0241
3 5 5 0.6628 0.0033
3 5 6 -2.7281 -0.1310
3 5 7 -0.6748 0.0356
3 7 0 5.2724 0.1231
3 7 1 -0.9190 0.0882
3 7 2 -1.6459 -0.0186
3 7 3 0.0683 0.0149
3 7 4 0.6120 -0.0215
4 0 0 21.2116 0.1494
4 0 1 -5.5121 -0.0319
4 0 2 -9.7396 0.0028
4 0 3 0.1986 0.0446
4 0 4 1.5504 -0.0511
4 0 5 0.5460 0.0230
4 0 6 -4.8431 0.0065
4 0 7 -1.4879 0.0113
4 0 8 1.7825 -0.0075
4 2 0 17.1406 0.0838
4 2 1 -5.0929 0.0615
4 2 2 -6.8884 0.0240
4 2 3 0.8422 -0.0022
4 2 4 0.9711 0.0119
4 2 5 0.5555 0.0274
4 2 6 -4.1207 -0.0014
4 2 7 -1.4953 0.0522
4 2 8 1.5906 -0.0198
4 4 0 8.8460 -0.0029
4 4 1 -1.9379 0.0455
4 4 2 -4.0511 0.0215
4 4 3 0.3658 0.0380
4 4 4 0.9902 0.0565
4 4 5 0.1502 0.0087
4 4 6 -3.4478 -0.0122
4 4 7 -0.9430 0.0845
4 6 0 6.1462 0.0439
4 6 1 -1.7241 0.0119
4 6 2 -2.5570 -0.0453
4 6 3 0.4474 -0.0218
4 6 4 0.5508 -0.0091
4 6 5 0.2711 -0.0654
5 1 0 16.2301 0.1023
5 1 1 -7.8998 0.0502
5 1 2 -7.9683 0.0019
5 1 3 1.4124 0.0039
5 1 4 0.9814 -0.0065
5 1 5 -0.1478 0.0165
5 1 6 -4.2337 -0.0100
5 1 7 -0.9150 0.0343
5 1 8 1.8718 -0.1198
5 3 0 10.7658 -0.0027
5 3 1 -4.5078 0.0416
5 3 2 -4.9376 0.0209
5 3 3 1.2570 -0.0082
5 3 4 0.7690 0.0094
5 3 5 -0.3092 0.0577
5 3 6 -3.4838 -0.0074
5 3 7 -0.8212 0.1317
5 3 8 0.9555 0.0595
5 5 0 6.4958 0.0113
5 5 1 -2.1797 0.0048
5 5 2 -3.3123 -0.0051
5 5 3 0.6930 -0.0388
5 5 4 0.5789 0.0344
5 5 5 -0.1561 -0.0810
5 5 6 -2.2372 -0.0783
5 7 0 3.6150 0.1055
5 7 1 -1.4706 0.0346
5 7 2 -1.4166 -0.0225
5 7 3 0.4827 -0.0160
6 0 0 12.5340 0.0138
6 0 1 -9.7294 0.0005
6 0 2 -7.3553 -0.0257
6 0 3 2.0902 0.0103
6 0 4 0.7077 0.0013
6 0 5 -0.7973 0.0070
6 0 6 -3.9879 -0.0003
6 0 7 -0.3436 0.0170
6 0 8 1.7362 -0.0168
6 2 0 10.6658 -0.0080
6 2 1 -7.5513 0.0427
6 2 2 -5.6258 -0.0174
6 2 3 2.1095 -0.0388
6 2 4 0.4450 -0.0052
6 2 5 -0.7364 0.0340
6 2 6 -3.3137 -0.0043
6 2 7 -0.5033 0.0644
6 2 8 1.4647 -0.1439
6 4 0 7.0366 -0.0163
6 4 1 -3.4344 -0.0154
6 4 2 -3.9251 0.0256
6 4 3 1.2643 -0.0471
6 4 4 0.5597 -0.0042
6 4 5 -0.8069 0.0298
6 4 6 -2.6432 -0.0610
6 4 7 -0.1545 0.1877
6 6 0 4.6849 0.0291
6 6 1 -2.4993 -0.0064
6 6 2 -2.1603 -0.0329
6 6 3 0.9529 -0.1044
6 6 4 0.1283 0.0526
6 6 5 -0.1058 -0.1709
7 1 0 8.1654 -0.0346
7 1 1 -9.4946 0.0445
7 1 2 -5.5369 -0.0334
7 1 3 2.6543 -0.0378
7 1 4 0.1506 0.0449
7 1 5 -1.2124 -0.0307
7 1 6 -3.2232 0.0341
7 1 7 -0.0499 -0.0221
7 1 8 1.3581 -0.1949
7 3 0 6.7961 -0.0603
7 3 1 -5.6740 -0.0516
7 3 2 -4.1400 -0.0093
7 3 3 2.1354 -0.0590
7 3 4 0.2163 -0.0636
7 3 5 -1.2691 0.0867
7 3 6 -2.4424 -0.0571
7 3 7 -0.1195 0.1341
7 5 0 5.0886 -0.0122
7 5 1 -3.3285 -0.0187
7 5 2 -2.8803 -0.0001
7 5 3 1.3696 -0.1247
7 5 4 0.0310 0.0378
7 5 5 -0.6126 -0.0953
7 5 6 -1.3657 -0.0604
7 7 0 2.1129 0.0474
7 7 1 -1.5902 0.0091
7 7 2 -1.0102 -0.0138
8 0 0 4.8997 -0.0364
8 0 1 -9.5699 0.0233
8 0 2 -4.5757 -0.0194
8 0 3 2.9595 -0.0130
8 0 4 -0.2541 0.0488
8 0 5 -1.5980 -0.0044
8 0 6 -2.9088 -0.0349
8 0 7 0.3048 0.0449
8 0 8 0.8526 -0.1226
8 2 0 5.0462 -0.0877
8 2 1 -7.5836 -0.0364
8 2 2 -3.8571 -0.0416
8 2 3 2.7676 -0.0626
8 2 4 -0.2840 -0.0144
8 2 5 -1.5356 -0.0044
8 2 6 -2.2628 0.0412
8 2 7 0.0030 -0.0541
8 4 0 4.7716 -0.0415
8 4 1 -4.5176 -0.0722
8 4 2 -3.2147 0.0116
8 4 3 2.0104 -0.0791
8 4 4 -0.1550 -0.0720
8 4 5 -1.2412 0.0758
8 4 6 -1.4820 -0.1274
8 6 0 2.9160 -0.0007
8 6 1 -2.8308 0.0376
8 6 2 -1.5131 -0.0350
8 6 3 1.1042 -0.1587
8 6 4 -0.2273 0.1095
9 1 0 2.6023 -0.0674
9 1 1 -8.1330 0.0044
9 1 2 -3.2662 -0.0205
9 1 3 2.9958 -0.0513
9 1 4 -0.7447 0.0581
9 1 5 -1.7851 -0.0525
9 1 6 -2.2131 0.0763
9 1 7 0.2900 -0.1005
9 3 0 3.4989 -0.0672
9 3 1 -5.7756 -0.1149
9 3 2 -2.8761 -0.0104
9 3 3 2.6014 -0.0327
9 3 4 -0.6140 -0.1250
9 3 5 -1.5706 0.0900
9 3 6 -1.3373 -0.0627
9 5 0 2.9282 -0.0050
9 5 1 -3.8389 0.0416
9 5 2 -2.0361 -0.0197
9 5 3 1.6650 -0.1155
9 5 4 -0.5059 0.0287
9 5 5 -0.6085 -0.0440
9 7 0 0.8394 0.0311
9 7 1 -1.4317 0.0611
10 0 0 0.7760 0.0059
10 0 1 -7.4510 0.0153
10 0 2 -2.5084 0.0154
10 0 3 2.9596 -0.0252
10 0 4 -1.2166 0.0225
10 0 5 -1.9423 0.0556
10 0 6 -1.9011 -0.0881
10 0 7 0.4319 0.0835
10 2 0 1.6717 -0.0566
10 2 1 -6.3660 -0.0689
10 2 2 -2.2203 -0.0111
10 2 3 2.8052 -0.0144
10 2 4 -1.1521 -0.0503
10 2 5 -1.6907 -0.0077
10 2 6 -1.3628 0.0945
10 2 7 0.0683 -0.1708
10 4 0 2.1729 0.0075
10 4 1 -4.6485 -0.0241
10 4 2 -2.0815 0.0126
10 4 3 2.2239 0.0011
10 4 4 -0.8856 -0.1181
10 4 5 -1.0153 0.1151
10 6 0 0.9470 0.0433
10 6 1 -2.4968 0.1484
10 6 2 -0.7344 -0.0760
10 6 3 0.8492 -0.1217
11 1 0 0.0721 -0.0116
11 1 1 -6.2113 0.0021
11 1 2 -1.6673 0.0143
11 1 3 2.7243 -0.0292
11 1 4 -1.6480 0.0118
11 1 5 -1.7817 0.0261
11 1 6 -1.3008 0.0805
11 3 0 0.9952 0.0216
11 3 1 -5.0110 -0.0559
11 3 2 -1.5442 0.0336
11 3 3 2.4638 0.0838
11 3 4 -1.3576 -0.1667
11 3 5 -1.1591 0.1022
11 3 6 -0.5529 -0.0209
11 5 0 0.4969 0.0861
11 5 1 -3.2742 0.1549
11 5 2 -1.0670 -0.0432
11 5 3 1.3887 -0.0069
11 5 4 -0.6843 0.0143
12 0 0 -0.8466 0.0159
12 0 1 -5.5867 0.0101
12 0 2 -1.1506 0.0211
12 0 3 2.4849 -0.0769
12 0 4 -2.0678 0.0021
12 0 5 -1.6620 0.1477
12 0 6 -0.9008 -0.1088
12 2 0 -0.1828 0.0430
12 2 1 -4.9078 0.0054
12 2 2 -0.9288 0.0378
12 2 3 2.3493 0.0840
12 2 4 -1.8018 -0.0970
12 2 5 -1.2053 0.0661
12 2 6 -0.6569 0.1161
12 4 0 -0.2028 0.1186
12 4 1 -3.6444 0.0914
12 4 2 -0.9612 0.0463
12 4 3 1.7746 0.1360
12 4 4 -1.1035 -0.1253
12 6 0 -0.4772 0.1284
12 6 1 -1.5240 0.2074
13 1 0 -1.1848 0.0435
13 1 1 -4.5507 0.0504
13 1 2 -0.5316 0.0187
13 1 3 2.0752 -0.0120
13 1 4 -2.1680 -0.0064
13 1 5 -1.1574 0.1402
13 3 0 -0.8202 0.1276
13 3 1 -3.5441 0.0782
13 3 2 -0.4462 0.0975
13 3 3 1.7962 0.2069
13 3 4 -1.4507 -0.1716
13 5 0 -1.0299 0.1741
13 5 1 -1.9344 0.2021
13 5 2 -0.3597 -0.0225
14 0 0 -1.8565 -0.0071
14 0 1 -3.8169 -0.0104
14 0 2 -0.1997 -0.0260
14 0 3 1.6733 -0.1510
14 0 4 -2.2463 0.0757
14 0 5 -0.8283 0.1645
14 2 0 -1.3939 0.1209
14 2 1 -3.1727 0.1139
14 2 2 0.0081 0.0739
14 2 3 1.5423 0.1544
14 2 4 -1.7046 -0.1000
14 4 0 -1.4101 0.1794
14 4 1 -2.0266 0.1664
14 4 2 -0.1865 0.1083
14 4 3 1.0084 0.2055
15 1 0 -2.0086 0.0941
15 1 1 -2.5845 0.0646
15 1 2 0.1728 0.0007
15 1 3 1.1597 -0.0108
15 1 4 -1.7664 0.0405
15 3 0 -1.5475 0.1595
15 3 1 -1.7606 0.1734
15 3 2 0.2278 0.1530
15 3 3 0.9483 0.2351
16 0 0 -2.2823 0.0390
16 0 1 -1.6467 -0.0897
16 0 2 0.1926 -0.0765
16 0 3 0.7226 -0.1574
16 2 0 -1.6965 0.1513
16 2 1 -1.2783 0.1504
16 2 2 0.4333 0.0992
16 2 3 0.6768 0.1458
17 1 0 -1.8524 0.1613
17 1 1 -0.6417 0.0007
17 1 2 0.2670 -0.0011
18 0 0 -1.6029 0.1375
0 0 0 0.0 0.0
;
_shelx_fab_checksum              41584
_olex2_submission_special_instructions 'No special instructions were received'
loop_
_space_group_symop_operation_xyz
'x, y, z'
'-x, y, -z'
'x+1/2, y+1/2, z'
'-x+1/2, y+1/2, -z'
'-x, -y, -z'
'x, -y, z'
'-x+1/2, -y+1/2, -z'
'x+1/2, -y+1/2, z'
loop_
_atom_site_label
_atom_site_type_symbol
_atom_site_fract_x
_atom_site_fract_y
_atom_site_fract_z
_atom_site_U_iso_or_equiv
_atom_site_adp_type
_atom_site_occupancy
_atom_site_site_symmetry_order
_atom_site_calc_flag
_atom_site_refinement_flags_posn
_atom_site_refinement_flags_adp
_atom_site_refinement_flags_occupancy
Cu1 Cu 0.250000 0.750000 1.000000 0.00873(15) Uani 1 2 d S T P
O1 O 0.35804(8) 0.82627(18) 0.87762(15) 0.0124(3) Uani 1 1 d . . .
N1 N 0.23156(14) 0.500000 0.8405(2) 0.0109(4) Uani 1 2 d S T P
N2 N 0.25733(13) 0.500000 0.6916(3) 0.0115(4) Uani 1 2 d S T P
N3 N 0.27983(18) 0.500000 0.5502(3) 0.0243(5) Uani 1 2 d S T P
C1 C 0.39220(16) 1.000000 0.8450(3) 0.0105(4) Uani 1 2 d S T P
C2 C 0.48023(16) 1.000000 0.7526(3) 0.0143(5) Uani 1 2 d S T P
H2A H 0.517297 0.876152 0.788715 0.017 Uiso 0.5 1 calc R . .
H2B H 0.517297 1.123848 0.788716 0.017 Uiso 0.5 1 calc R . .
C3 C 0.45648(16) 1.000000 0.5488(3) 0.0129(5) Uani 1 2 d S T P
H3A H 0.419132 0.876305 0.513504 0.015 Uiso 0.5 1 calc R . .
H3B H 0.419132 1.123695 0.513504 0.015 Uiso 0.5 1 calc R . .
O2 O 0.16001(12) 1.000000 0.8119(2) 0.0152(4) Uani 1 2 d DS T P
H2C H 0.172(3) 1.000000 0.704(2) 0.042(11) Uiso 1 2 d DS T P
H2D H 0.1018(7) 1.000000 0.794(7) 0.076(17) Uiso 1 2 d DS T P
loop_
_atom_site_aniso_label
_atom_site_aniso_U_11
_atom_site_aniso_U_22
_atom_site_aniso_U_33
_atom_site_aniso_U_23
_atom_site_aniso_U_13
_atom_site_aniso_U_12
Cu1 0.0112(2) 0.0064(2) 0.0095(2) -0.00098(10) 0.00537(13) -0.00068(10)
O1 0.0149(6) 0.0089(6) 0.0144(5) -0.0005(4) 0.0068(4) -0.0003(4)
N1 0.0158(10) 0.0087(9) 0.0089(8) 0.000 0.0052(7) 0.000
N2 0.0114(9) 0.0091(9) 0.0143(10) 0.000 0.0028(7) 0.000
N3 0.0378(13) 0.0217(11) 0.0156(10) 0.000 0.0134(10) 0.000
C1 0.0111(10) 0.0129(10) 0.0077(9) 0.000 0.0017(8) 0.000
C2 0.0111(11) 0.0204(11) 0.0121(10) 0.000 0.0046(8) 0.000
C3 0.0112(11) 0.0160(11) 0.0121(10) 0.000 0.0048(8) 0.000
O2 0.0150(9) 0.0182(8) 0.0126(8) 0.000 0.0023(6) 0.000
loop_
_atom_type_symbol
_atom_type_description
_atom_type_scat_dispersion_real
_atom_type_scat_dispersion_imag
_atom_type_scat_source
C C 0.0181 0.0091 'International Tables Vol C Tables 4.2.6.8 and 6.1.1.4'
Cu Cu -1.9646 0.5888 'International Tables Vol C Tables 4.2.6.8 and 6.1.1.4'
H H 0.0000 0.0000 'International Tables Vol C Tables 4.2.6.8 and 6.1.1.4'
N N 0.0311 0.0180 'International Tables Vol C Tables 4.2.6.8 and 6.1.1.4'
O O 0.0492 0.0322 'International Tables Vol C Tables 4.2.6.8 and 6.1.1.4'
loop_
_geom_angle_atom_site_label_1
_geom_angle_atom_site_label_2
_geom_angle_atom_site_label_3
_geom_angle
_geom_angle_site_symmetry_1
_geom_angle_site_symmetry_3
O1 Cu1 O1 180.0 . 7_567
O1 Cu1 N1 90.45(6) 7_567 .
O1 Cu1 N1 90.45(6) . 7_567
O1 Cu1 N1 89.55(6) . .
O1 Cu1 N1 89.55(6) 7_567 7_567
O1 Cu1 O2 91.54(5) 7_567 .
O1 Cu1 O2 88.46(5) . .
N1 Cu1 N1 180.0 . 7_567
N1 Cu1 O2 81.02(5) 7_567 .
N1 Cu1 O2 98.98(5) . .
C1 O1 Cu1 131.60(12) . .
Cu1 N1 Cu1 106.90(8) . 4_547
N2 N1 Cu1 120.76(7) . 4_547
N2 N1 Cu1 120.76(7) . .
N3 N2 N1 178.7(2) . .
O1 C1 O1 125.9(2) 6_575 .
O1 C1 C2 117.05(10) . .
O1 C1 C2 117.04(10) 6_575 .
C1 C2 H2A 109.8 . .
C1 C2 H2B 109.8 . .
C1 C2 C3 109.59(19) . .
H2A C2 H2B 108.2 . .
C3 C2 H2A 109.8 . .
C3 C2 H2B 109.8 . .
C2 C3 H3A 109.4 . .
C2 C3 H3B 109.4 . .
C3 C3 C2 111.1(2) 5_676 .
C3 C3 H3A 109.4 5_676 .
C3 C3 H3B 109.4 5_676 .
H3A C3 H3B 108.0 . .
Cu1 O2 H2C 114(2) . .
Cu1 O2 H2D 124(2) . .
H2C O2 H2D 98(4) . .
loop_
_geom_bond_atom_site_label_1
_geom_bond_atom_site_label_2
_geom_bond_distance
_geom_bond_site_symmetry_2
Cu1 O1 1.9587(11) .
Cu1 O1 1.9587(11) 7_567
Cu1 N1 2.0154(11) .
Cu1 N1 2.0154(11) 7_567
Cu1 O2 2.4443(13) .
O1 C1 1.2634(15) .
N1 N2 1.211(3) .
N2 N3 1.139(3) .
C1 C2 1.514(3) .
C2 H2A 0.9900 .
C2 H2B 0.9900 .
C2 C3 1.534(3) .
C3 C3 1.523(4) 5_676
C3 H3A 0.9900 .
C3 H3B 0.9900 .
O2 H2C 0.840(10) .
O2 H2D 0.845(10) .
loop_
_geom_torsion_atom_site_label_1
_geom_torsion_atom_site_label_2
_geom_torsion_atom_site_label_3
_geom_torsion_atom_site_label_4
_geom_torsion
_geom_torsion_site_symmetry_1
_geom_torsion_site_symmetry_4
Cu1 O1 C1 O1 -4.9(3) . 6_575
Cu1 O1 C1 C2 177.44(13) . .
O1 C1 C2 C3 88.96(17) . .
O1 C1 C2 C3 -88.96(17) 6_575 .
C1 C2 C3 C3 180.000(0) . 5_676
loop_
_smtbx_masks_void_nr
_smtbx_masks_void_average_x
_smtbx_masks_void_average_y
_smtbx_masks_void_average_z
_smtbx_masks_void_volume
_smtbx_masks_void_count_electrons
_smtbx_masks_void_content
1 0.000 0.000 -0.029 61.9 17.9 '1/2 water'
2 0.500 0.500 -0.814 61.9 17.9 '1/2 water'
