#------------------------------------------------------------------------------
#$Date: 2019-11-17 11:05:09 +0200 (Sun, 17 Nov 2019) $
#$Revision: 229494 $
#$URL: file:///home/coder/svn-repositories/cod/cif/7/04/76/7047626.cif $
#------------------------------------------------------------------------------
#
# This file is available in the Crystallography Open Database (COD),
# http://www.crystallography.net/
#
# All data on this site have been placed in the public domain by the
# contributors.
#
data_7047626
loop_
_publ_author_name
'Teichert, Johannes'
'Doert, Thomas'
'Ruck, Michael'
_publ_section_title
;
 Mechanisms of the polyol reduction of copper(ii) salts depending on the
 anion type and diol chain length.
;
_journal_issue                   39
_journal_name_full
'Dalton transactions (Cambridge, England : 2003)'
_journal_page_first              14085
_journal_page_last               14093
_journal_paper_doi               10.1039/c8dt03034k
_journal_volume                  47
_journal_year                    2018
_chemical_formula_moiety         'C8 H14 Cu3 O8'
_chemical_formula_sum            'C8 H14 Cu3 O8'
_chemical_formula_weight         428.81
_space_group_crystal_system      triclinic
_space_group_IT_number           2
_space_group_name_Hall           '-P 1'
_space_group_name_H-M_alt        'P -1'
_symmetry_space_group_name_Hall  '-P 1'
_symmetry_space_group_name_H-M   'P -1'
_atom_sites_solution_hydrogens   geom
_atom_sites_solution_primary     dual
_audit_creation_date             2018-07-24
_audit_creation_method
;
Olex2 1.2
(compiled 2018.05.29 svn.r3508 for OlexSys, GUI svn.r5506)
;
_audit_update_record
;
2018-07-24 deposited with the CCDC.
2018-09-14 downloaded from the CCDC.
;
_cell_angle_alpha                85.166(3)
_cell_angle_beta                 83.523(3)
_cell_angle_gamma                75.803(2)
_cell_formula_units_Z            2
_cell_length_a                   8.2381(6)
_cell_length_b                   8.3264(6)
_cell_length_c                   9.8035(7)
_cell_measurement_reflns_used    1422
_cell_measurement_temperature    100(1)
_cell_measurement_theta_max      23.99
_cell_measurement_theta_min      2.53
_cell_volume                     646.64(8)
_computing_cell_refinement       'APEX3 v2017.3 (Bruker, USA, 2017)'
_computing_data_collection       'APEX3 v2017.3 (Bruker, USA, 2017)'
_computing_data_reduction        'APEX3 v2017.3 (Bruker, USA, 2017)'
_computing_molecular_graphics    'Olex2 (Dolomanov et al., 2009)'
_computing_publication_material  'Olex2 (Dolomanov et al., 2009)'
_computing_structure_refinement  'ShelXL (Sheldrick, 2015)'
_computing_structure_solution    'ShelXT (Sheldrick, 2015)'
_diffrn_ambient_temperature      100
_diffrn_detector_area_resol_mean 8
_diffrn_measured_fraction_theta_full 0.989
_diffrn_measured_fraction_theta_max 0.989
_diffrn_measurement_device_type  'Bruker SMART APEX CCD area detector'
_diffrn_measurement_method       '\w and \f scans'
_diffrn_radiation_monochromator  graphite
_diffrn_radiation_type           MoK\a
_diffrn_radiation_wavelength     0.71073
_diffrn_reflns_av_R_equivalents  0.0677
_diffrn_reflns_av_unetI/netI     0.0919
_diffrn_reflns_Laue_measured_fraction_full 0.989
_diffrn_reflns_Laue_measured_fraction_max 0.989
_diffrn_reflns_limit_h_max       10
_diffrn_reflns_limit_h_min       -10
_diffrn_reflns_limit_k_max       10
_diffrn_reflns_limit_k_min       -10
_diffrn_reflns_limit_l_max       10
_diffrn_reflns_limit_l_min       -12
_diffrn_reflns_number            10600
_diffrn_reflns_point_group_measured_fraction_full 0.989
_diffrn_reflns_point_group_measured_fraction_max 0.989
_diffrn_reflns_theta_full        25.242
_diffrn_reflns_theta_max         27.483
_diffrn_reflns_theta_min         2.094
_diffrn_source                   'sealed tube'
_exptl_absorpt_coefficient_mu    4.918
_exptl_absorpt_correction_T_max  0.7456
_exptl_absorpt_correction_T_min  0.6895
_exptl_absorpt_correction_type   multi-scan
_exptl_absorpt_process_details
'SADABS-2014/5 (Bruker,2014/5) was used for absorption correction. wR2(int) was 0.0507 before and 0.0390 after correction. The Ratio of minimum to maximum transmission is 0.9248. The \l/2 correction factor is 0.00150.'
_exptl_crystal_colour            'clear green'
_exptl_crystal_colour_lustre     clear
_exptl_crystal_colour_primary    green
_exptl_crystal_density_diffrn    2.202
_exptl_crystal_description       block
_exptl_crystal_F_000             426
_exptl_crystal_size_max          0.033
_exptl_crystal_size_mid          0.029
_exptl_crystal_size_min          0.015
_refine_diff_density_max         1.029
_refine_diff_density_min         -0.722
_refine_diff_density_rms         0.181
_refine_ls_extinction_method     none
_refine_ls_goodness_of_fit_ref   1.076
_refine_ls_hydrogen_treatment    constr
_refine_ls_matrix_type           full
_refine_ls_number_parameters     150
_refine_ls_number_reflns         2936
_refine_ls_number_restraints     0
_refine_ls_restrained_S_all      1.076
_refine_ls_R_factor_all          0.0884
_refine_ls_R_factor_gt           0.0477
_refine_ls_shift/su_max          0.000
_refine_ls_shift/su_mean         0.000
_refine_ls_structure_factor_coef Fsqd
_refine_ls_weighting_details
'w=1/[\s^2^(Fo^2^)+(0.0250P)^2^] where P=(Fo^2^+2Fc^2^)/3'
_refine_ls_weighting_scheme      calc
_refine_ls_wR_factor_gt          0.0708
_refine_ls_wR_factor_ref         0.0781
_reflns_Friedel_coverage         0.000
_reflns_number_gt                2031
_reflns_number_total             2936
_reflns_threshold_expression     'I > 2\s(I)'
_cod_data_source_file            c8dt03034k2.cif
_cod_data_source_block           cu3(oac)2(eg)2
_cod_depositor_comments          'Adding full bibliography for 7047626.cif.'
_cod_database_code               7047626
_shelx_shelxl_version_number     2016/6
_shelx_space_group_comment
;
The symmetry employed for this shelxl refinement is uniquely defined
by the following loop, which should always be used as a source of
symmetry information in preference to the above space-group names.
They are only intended as comments.
;
_shelx_estimated_absorpt_t_max   0.930
_shelx_estimated_absorpt_t_min   0.855
_olex2_refinement_description
;
1. Fixed Uiso
 At 1.2 times of:
  All C(H,H) groups
 At 1.5 times of:
  All C(H,H,H) groups
2. Uiso/Uaniso restraints and constraints
Uanis(C1) = Uanis(C3)
Uanis(C5) = Uanis(C6) = Uanis(C7) = Uanis(C8)
3.a Secondary CH2 refined with riding coordinates:
 C8(H8A,H8B), C7(H7A,H7B), C6(H6A,H6B), C5(H5A,H5B)
3.b Idealised Me refined as rotating group:
 C2(H2A,H2B,H2C), C4(H4A,H4B,H4C)
;
_shelx_res_file
;
TITL Cu3(OAc)2(EG)2.res in P-1
    cu3(oac)2(eg)2.res
    created by SHELXL-2016/6 at 10:57:30 on 24-Jul-2018
REM SHELXT solution in P-1
REM R1 0.116, Rweak 0.012, Alpha 0.059, Orientation as input
REM Formula found by SHELXT: C8 O8 Cu3
CELL 0.71073 8.2381 8.3264 9.8035 85.166 83.523 75.803
ZERR 2 0.0006 0.0006 0.0007 0.003 0.003 0.002
LATT 1
SFAC C H Cu O
UNIT 16 28 6 16
EADP C1 C3
EADP C5 C6 C7 C8

L.S. 10
PLAN  20
SIZE 0.015 0.029 0.033
TEMP -173.15
BOND $H
LIST 6
fmap -2
acta
OMIT -4 -1 6
OMIT -4 -1 2
OMIT -4 2 4
OMIT -4 3 3
OMIT -1 0 4
OMIT -4 -4 1
OMIT -4 3 2
OMIT -4 -1 1
OMIT 4 3 5
OMIT -4 4 2
OMIT 0 2 1
OMIT 4 4 0
OMIT -4 -5 3
OMIT 0 1 1
OMIT -4 -2 7
OMIT 0 2 4
OMIT 0 -1 1
OMIT 0 2 0
OMIT -4 5 2
OMIT 0 1 5
OMIT -8 -5 4
OMIT 4 5 1
OMIT -4 -4 2
OMIT -4 -1 5
REM <olex2.extras>
REM <HklSrc "%.\\Cu3(OAc)2(EG)2.hkl">
REM </olex2.extras>

WGHT    0.025000
FVAR       0.18738
CU2   3    0.462246    0.833291    0.618685    11.00000    0.00805    0.00806 =
         0.00734   -0.00189   -0.00006   -0.00265
CU1   3    0.825203    0.564125    0.591730    11.00000    0.00902    0.00709 =
         0.00615   -0.00262   -0.00068   -0.00191
CU3   3    0.133666    0.657906    0.659548    11.00000    0.01021    0.00675 =
         0.00612   -0.00039   -0.00116   -0.00405
O5    4    0.962938    0.540766    0.744570    11.00000    0.00898    0.00569 =
         0.00590   -0.00414    0.00289   -0.00106
O8    4    0.048834    0.645111    0.482615    11.00000    0.00939    0.00441 =
         0.00684   -0.00024    0.00060   -0.00156
O7    4    0.252956    0.813744    0.561177    11.00000    0.01041    0.00907 =
         0.00943    0.00441   -0.00402   -0.00573
O2    4    0.564293    0.859924    0.426871    11.00000    0.00869    0.00878 =
         0.00925    0.00119    0.00136   -0.00204
O1    4    0.693552    0.590364    0.428513    11.00000    0.01238    0.00560 =
         0.01054    0.00039   -0.00237   -0.00215
O3    4    0.361501    0.864427    0.806916    11.00000    0.01534    0.01487 =
         0.00991   -0.00384    0.00045   -0.01178
O6    4    0.682625    0.752478    0.678351    11.00000    0.01180    0.02308 =
         0.01178   -0.00813   -0.00703    0.00350
O4    4    0.198016    0.682219    0.839237    11.00000    0.02401    0.02010 =
         0.00708   -0.00128   -0.00286   -0.01688
C1    1    0.641467    0.731307    0.364396    11.00000    0.00872    0.00826 =
         0.01124   -0.00271    0.00035   -0.00449
C8    1    0.057720    0.797096    0.403618    11.00000    0.01264    0.01057 =
         0.00827    0.00032   -0.00180   -0.00443
AFIX  23
H8A   2   -0.032644    0.890249    0.439021    11.00000   -1.20000
H8B   2    0.044498    0.786790    0.305839    11.00000   -1.20000
AFIX   0
C7    1    0.228104    0.827577    0.417807    11.00000    0.01264    0.01057 =
         0.00827    0.00032   -0.00180   -0.00443
AFIX  23
H7A   2    0.317204    0.744968    0.367815    11.00000   -1.20000
H7B   2    0.233540    0.939711    0.378183    11.00000   -1.20000
AFIX   0
C6    1    0.742757    0.779441    0.803348    11.00000    0.01264    0.01057 =
         0.00827    0.00032   -0.00180   -0.00443
AFIX  23
H6A   2    0.646920    0.819319    0.872362    11.00000   -1.20000
H6B   2    0.809574    0.864315    0.786761    11.00000   -1.20000
AFIX   0
C3    1    0.263280    0.790806    0.879481    11.00000    0.00872    0.00826 =
         0.01124   -0.00271    0.00035   -0.00449
C2    1    0.672590    0.739166    0.212182    11.00000    0.02017    0.01448 =
         0.00707   -0.00390    0.00154   -0.00429
AFIX 137
H2A   2    0.615851    0.849020    0.175021    11.00000   -1.50000
H2B   2    0.628679    0.654059    0.175498    11.00000   -1.50000
H2C   2    0.793794    0.719610    0.185506    11.00000   -1.50000
AFIX   0
C5    1    0.851588    0.615770    0.855682    11.00000    0.01264    0.01057 =
         0.00827    0.00032   -0.00180   -0.00443
AFIX  23
H5A   2    0.917024    0.635530    0.928675    11.00000   -1.20000
H5B   2    0.779512    0.540964    0.895320    11.00000   -1.20000
AFIX   0
C4    1    0.226603    0.826534    1.029028    11.00000    0.03332    0.03652 =
         0.01256   -0.00838    0.00375   -0.02406
AFIX 137
H4A   2    0.324834    0.772396    1.077960    11.00000   -1.50000
H4B   2    0.129620    0.783862    1.068457    11.00000   -1.50000
H4C   2    0.201437    0.946642    1.038182    11.00000   -1.50000
AFIX   0
HKLF 4




REM  Cu3(OAc)2(EG)2.res in P-1
REM R1 =  0.0477 for    2031 Fo > 4sig(Fo)  and  0.0884 for all    2936 data
REM    150 parameters refined using      0 restraints

END

WGHT      0.0367      0.0000

REM Highest difference peak  1.029,  deepest hole -0.722,  1-sigma level  0.181
Q1    1   0.5259  0.5540  0.5775  11.00000  0.05    1.03
Q2    1   0.7312  0.8385  0.6148  11.00000  0.05    0.96
Q3    1   0.2111  0.8531  0.6421  11.00000  0.05    0.87
Q4    1   0.6590  0.6667  0.6419  11.00000  0.05    0.83
Q5    1   0.3159  0.6541  0.6586  11.00000  0.05    0.77
Q6    1  -0.0454  0.8534  0.6083  11.00000  0.05    0.75
Q7    1   0.8722  0.6651  0.6824  11.00000  0.05    0.73
Q8    1   0.1116  0.8817  0.2590  11.00000  0.05   -0.72
Q9    1   0.9645  0.5730  0.6027  11.00000  0.05    0.69
Q10   1   0.1794  0.7930  0.8372  11.00000  0.05    0.69
Q11   1   0.9509  0.4779  0.6542  11.00000  0.05    0.68
Q12   1   0.4256  0.9827  0.9790  11.00000  0.05   -0.66
Q13   1   0.2082  0.8999  0.5366  11.00000  0.05    0.66
Q14   1   0.0574  0.5793  0.5703  11.00000  0.05    0.66
Q15   1   0.1148  0.8398  0.4237  11.00000  0.05    0.66
Q16   1   0.7252  0.7567  0.3955  11.00000  0.05   -0.65
Q17   1   0.3185  0.7191  0.4150  11.00000  0.05   -0.64
Q18   1   0.7017  0.4712  0.4188  11.00000  0.05    0.64
Q19   1   0.0748  0.7630  0.3470  11.00000  0.05    0.64
Q20   1   0.5034  0.6060  0.3616  11.00000  0.05   -0.64
;
_shelx_res_checksum              94543
_olex2_submission_special_instructions 'No special instructions were received'
loop_
_space_group_symop_operation_xyz
'x, y, z'
'-x, -y, -z'
loop_
_atom_site_label
_atom_site_type_symbol
_atom_site_fract_x
_atom_site_fract_y
_atom_site_fract_z
_atom_site_U_iso_or_equiv
_atom_site_adp_type
_atom_site_occupancy
_atom_site_site_symmetry_order
_atom_site_calc_flag
_atom_site_refinement_flags_posn
Cu2 Cu 0.46225(7) 0.83329(7) 0.61868(6) 0.00766(16) Uani 1 1 d .
Cu1 Cu 0.82520(8) 0.56413(7) 0.59173(6) 0.00729(16) Uani 1 1 d .
Cu3 Cu 0.13367(7) 0.65791(7) 0.65955(6) 0.00731(16) Uani 1 1 d .
O5 O 0.9629(4) 0.5408(4) 0.7446(3) 0.0070(7) Uani 1 1 d .
O8 O 0.0488(4) 0.6451(4) 0.4826(3) 0.0070(7) Uani 1 1 d .
O7 O 0.2530(4) 0.8137(4) 0.5612(3) 0.0091(8) Uani 1 1 d .
O2 O 0.5643(4) 0.8599(4) 0.4269(3) 0.0092(8) Uani 1 1 d .
O1 O 0.6936(4) 0.5904(4) 0.4285(3) 0.0095(8) Uani 1 1 d .
O3 O 0.3615(4) 0.8644(4) 0.8069(3) 0.0119(8) Uani 1 1 d .
O6 O 0.6826(4) 0.7525(4) 0.6784(3) 0.0160(9) Uani 1 1 d .
O4 O 0.1980(4) 0.6822(4) 0.8392(3) 0.0149(9) Uani 1 1 d .
C1 C 0.6415(6) 0.7313(6) 0.3644(5) 0.0090(8) Uani 1 1 d .
C8 C 0.0577(6) 0.7971(6) 0.4036(5) 0.0102(6) Uani 1 1 d .
H8A H -0.032644 0.890249 0.439021 0.012 Uiso 1 1 calc R
H8B H 0.044498 0.786790 0.305839 0.012 Uiso 1 1 calc R
C7 C 0.2281(6) 0.8276(6) 0.4178(5) 0.0102(6) Uani 1 1 d .
H7A H 0.317204 0.744968 0.367815 0.012 Uiso 1 1 calc R
H7B H 0.233540 0.939711 0.378183 0.012 Uiso 1 1 calc R
C6 C 0.7428(6) 0.7794(6) 0.8033(5) 0.0102(6) Uani 1 1 d .
H6A H 0.646920 0.819319 0.872362 0.012 Uiso 1 1 calc R
H6B H 0.809574 0.864315 0.786761 0.012 Uiso 1 1 calc R
C3 C 0.2633(6) 0.7908(6) 0.8795(5) 0.0090(8) Uani 1 1 d .
C2 C 0.6726(7) 0.7392(7) 0.2122(5) 0.0139(12) Uani 1 1 d .
H2A H 0.615851 0.849020 0.175021 0.021 Uiso 1 1 calc GR
H2B H 0.628679 0.654059 0.175498 0.021 Uiso 1 1 calc GR
H2C H 0.793794 0.719610 0.185506 0.021 Uiso 1 1 calc GR
C5 C 0.8516(6) 0.6158(6) 0.8557(5) 0.0102(6) Uani 1 1 d .
H5A H 0.917024 0.635530 0.928675 0.012 Uiso 1 1 calc R
H5B H 0.779512 0.540964 0.895320 0.012 Uiso 1 1 calc R
C4 C 0.2266(8) 0.8265(8) 1.0290(5) 0.0248(15) Uani 1 1 d .
H4A H 0.324834 0.772396 1.077960 0.037 Uiso 1 1 calc GR
H4B H 0.129620 0.783862 1.068457 0.037 Uiso 1 1 calc GR
H4C H 0.201437 0.946642 1.038182 0.037 Uiso 1 1 calc GR
loop_
_atom_site_aniso_label
_atom_site_aniso_U_11
_atom_site_aniso_U_22
_atom_site_aniso_U_33
_atom_site_aniso_U_23
_atom_site_aniso_U_13
_atom_site_aniso_U_12
Cu2 0.0080(3) 0.0081(3) 0.0073(3) -0.0019(3) -0.0001(3) -0.0027(3)
Cu1 0.0090(3) 0.0071(3) 0.0061(3) -0.0026(3) -0.0007(3) -0.0019(3)
Cu3 0.0102(3) 0.0068(3) 0.0061(3) -0.0004(2) -0.0012(3) -0.0041(3)
O5 0.0090(18) 0.0057(18) 0.0059(18) -0.0041(14) 0.0029(15) -0.0011(15)
O8 0.0094(18) 0.0044(18) 0.0068(18) -0.0002(14) 0.0006(15) -0.0016(15)
O7 0.0104(19) 0.0091(19) 0.0094(18) 0.0044(14) -0.0040(15) -0.0057(15)
O2 0.0087(18) 0.0088(19) 0.0093(19) 0.0012(15) 0.0014(15) -0.0020(15)
O1 0.0124(19) 0.0056(19) 0.0105(19) 0.0004(15) -0.0024(15) -0.0021(15)
O3 0.015(2) 0.015(2) 0.0099(19) -0.0038(15) 0.0004(16) -0.0118(17)
O6 0.0118(19) 0.023(2) 0.012(2) -0.0081(16) -0.0070(16) 0.0035(17)
O4 0.024(2) 0.020(2) 0.0071(19) -0.0013(16) -0.0029(17) -0.0169(18)
C1 0.0087(19) 0.0083(19) 0.011(2) -0.0027(15) 0.0004(16) -0.0045(16)
C8 0.0126(14) 0.0106(14) 0.0083(14) 0.0003(11) -0.0018(11) -0.0044(11)
C7 0.0126(14) 0.0106(14) 0.0083(14) 0.0003(11) -0.0018(11) -0.0044(11)
C6 0.0126(14) 0.0106(14) 0.0083(14) 0.0003(11) -0.0018(11) -0.0044(11)
C3 0.0087(19) 0.0083(19) 0.011(2) -0.0027(15) 0.0004(16) -0.0045(16)
C2 0.020(3) 0.014(3) 0.007(3) -0.004(2) 0.002(2) -0.004(2)
C5 0.0126(14) 0.0106(14) 0.0083(14) 0.0003(11) -0.0018(11) -0.0044(11)
C4 0.033(4) 0.037(4) 0.013(3) -0.008(3) 0.004(3) -0.024(3)
loop_
_atom_type_symbol
_atom_type_description
_atom_type_scat_dispersion_real
_atom_type_scat_dispersion_imag
_atom_type_scat_source
C C 0.0033 0.0016 'International Tables Vol C Tables 4.2.6.8 and 6.1.1.4'
H H 0.0000 0.0000 'International Tables Vol C Tables 4.2.6.8 and 6.1.1.4'
Cu Cu 0.3201 1.2651 'International Tables Vol C Tables 4.2.6.8 and 6.1.1.4'
O O 0.0106 0.0060 'International Tables Vol C Tables 4.2.6.8 and 6.1.1.4'
loop_
_geom_angle_atom_site_label_1
_geom_angle_atom_site_label_2
_geom_angle_atom_site_label_3
_geom_angle
_geom_angle_site_symmetry_1
_geom_angle_site_symmetry_3
O7 Cu2 O2 93.38(14) . .
O7 Cu2 O3 91.10(14) . .
O3 Cu2 O2 165.99(14) . .
O6 Cu2 O7 155.41(15) . .
O6 Cu2 O2 89.62(14) . .
O6 Cu2 O3 91.82(14) . .
O5 Cu1 Cu3 40.60(10) . 1_655
O5 Cu1 O8 80.35(12) . 1_655
O5 Cu1 O8 93.56(13) . 2_666
O5 Cu1 O1 177.13(14) . .
O8 Cu1 Cu3 40.98(8) 1_655 1_655
O8 Cu1 Cu3 93.66(10) 2_666 1_655
O8 Cu1 O8 80.26(14) 2_666 1_655
O8 Cu1 O1 85.55(13) 2_666 .
O1 Cu1 Cu3 136.68(10) . 1_655
O1 Cu1 O8 96.81(13) . 1_655
O6 Cu1 Cu3 91.44(11) . 1_655
O6 Cu1 O5 86.59(13) . .
O6 Cu1 O8 107.29(14) . 1_655
O6 Cu1 O8 172.34(16) . 2_666
O6 Cu1 O1 94.65(14) . .
O5 Cu3 Cu1 39.98(9) 1_455 1_455
O5 Cu3 O1 91.67(12) 1_455 2_666
O8 Cu3 Cu1 48.60(10) . 1_455
O8 Cu3 O5 87.19(13) . 1_455
O8 Cu3 O1 75.82(12) . 2_666
O7 Cu3 Cu1 129.15(9) . 1_455
O7 Cu3 O5 165.69(13) . 1_455
O7 Cu3 O8 85.45(13) . .
O7 Cu3 O1 98.39(13) . 2_666
O1 Cu3 Cu1 90.80(8) 2_666 1_455
O4 Cu3 Cu1 128.12(11) . 1_455
O4 Cu3 O5 90.47(14) . 1_455
O4 Cu3 O8 174.98(15) . .
O4 Cu3 O7 95.85(14) . .
O4 Cu3 O1 108.71(13) . 2_666
Cu1 O5 Cu3 99.42(14) . 1_655
C5 O5 Cu1 105.3(3) . .
C5 O5 Cu3 117.3(3) . 1_655
Cu1 O8 Cu1 99.74(14) 2_666 1_455
Cu1 O8 Cu3 106.90(15) 2_666 .
Cu3 O8 Cu1 90.43(12) . 1_455
C8 O8 Cu1 118.4(3) . 2_666
C8 O8 Cu1 129.9(3) . 1_455
C8 O8 Cu3 106.6(3) . .
Cu2 O7 Cu3 120.10(16) . .
C7 O7 Cu2 120.2(3) . .
C7 O7 Cu3 110.4(3) . .
C1 O2 Cu2 119.1(3) . .
Cu1 O1 Cu3 91.49(12) . 2_666
C1 O1 Cu1 122.5(3) . .
C1 O1 Cu3 128.7(3) . 2_666
C3 O3 Cu2 130.4(3) . .
Cu1 O6 Cu2 117.20(17) . .
C6 O6 Cu2 128.7(3) . .
C6 O6 Cu1 111.5(3) . .
C3 O4 Cu3 130.0(3) . .
O2 C1 O1 122.2(4) . .
O2 C1 C2 120.5(4) . .
O1 C1 C2 117.3(4) . .
O8 C8 H8A 110.3 . .
O8 C8 H8B 110.3 . .
O8 C8 C7 106.9(4) . .
H8A C8 H8B 108.6 . .
C7 C8 H8A 110.3 . .
C7 C8 H8B 110.3 . .
O7 C7 C8 108.3(4) . .
O7 C7 H7A 110.0 . .
O7 C7 H7B 110.0 . .
C8 C7 H7A 110.0 . .
C8 C7 H7B 110.0 . .
H7A C7 H7B 108.4 . .
O6 C6 H6A 110.1 . .
O6 C6 H6B 110.1 . .
O6 C6 C5 108.1(4) . .
H6A C6 H6B 108.4 . .
C5 C6 H6A 110.1 . .
C5 C6 H6B 110.1 . .
O3 C3 O4 125.6(5) . .
O3 C3 C4 117.6(4) . .
O4 C3 C4 116.6(5) . .
C1 C2 H2A 109.5 . .
C1 C2 H2B 109.5 . .
C1 C2 H2C 109.5 . .
H2A C2 H2B 109.5 . .
H2A C2 H2C 109.5 . .
H2B C2 H2C 109.5 . .
O5 C5 C6 109.2(4) . .
O5 C5 H5A 109.8 . .
O5 C5 H5B 109.8 . .
C6 C5 H5A 109.8 . .
C6 C5 H5B 109.8 . .
H5A C5 H5B 108.3 . .
C3 C4 H4A 109.5 . .
C3 C4 H4B 109.5 . .
C3 C4 H4C 109.5 . .
H4A C4 H4B 109.5 . .
H4A C4 H4C 109.5 . .
H4B C4 H4C 109.5 . .
loop_
_geom_bond_atom_site_label_1
_geom_bond_atom_site_label_2
_geom_bond_distance
_geom_bond_site_symmetry_2
Cu2 O7 1.921(3) .
Cu2 O2 1.989(3) .
Cu2 O3 1.947(3) .
Cu2 O6 1.914(3) .
Cu1 Cu3 2.9919(8) 1_655
Cu1 O5 1.948(3) .
Cu1 O8 2.244(3) 1_655
Cu1 O8 1.949(3) 2_666
Cu1 O1 2.000(3) .
Cu1 O6 1.912(3) .
Cu3 O5 1.974(3) 1_455
Cu3 O8 1.962(3) .
Cu3 O7 1.944(3) .
Cu3 O1 2.372(3) 2_666
Cu3 O4 1.936(3) .
O5 C5 1.423(6) .
O8 C8 1.440(5) .
O7 C7 1.434(5) .
O2 C1 1.271(6) .
O1 C1 1.283(5) .
O3 C3 1.256(5) .
O6 C6 1.427(5) .
O4 C3 1.268(6) .
C1 C2 1.484(7) .
C8 H8A 0.9900 .
C8 H8B 0.9900 .
C8 C7 1.510(7) .
C7 H7A 0.9900 .
C7 H7B 0.9900 .
C6 H6A 0.9900 .
C6 H6B 0.9900 .
C6 C5 1.520(6) .
C3 C4 1.503(7) .
C2 H2A 0.9800 .
C2 H2B 0.9800 .
C2 H2C 0.9800 .
C5 H5A 0.9900 .
C5 H5B 0.9900 .
C4 H4A 0.9800 .
C4 H4B 0.9800 .
C4 H4C 0.9800 .
