#------------------------------------------------------------------------------
#$Date: 2019-11-17 11:01:35 +0200 (Sun, 17 Nov 2019) $
#$Revision: 229479 $
#$URL: file:///home/coder/svn-repositories/cod/cif/7/04/77/7047706.cif $
#------------------------------------------------------------------------------
#
# This file is available in the Crystallography Open Database (COD),
# http://www.crystallography.net/
#
# All data on this site have been placed in the public domain by the
# contributors.
#
data_7047706
loop_
_publ_author_name
'Enriquez, Jos\'e S'
'Yu, Meng'
'Bouley, Bailey S.'
'Xie, Da'
'Que, Emily L.'
_publ_section_title
;
 Copper(ii) complexes for cysteine detection using <sup>19</sup>F magnetic
 resonance.
;
_journal_issue                   42
_journal_name_full
'Dalton transactions (Cambridge, England : 2003)'
_journal_page_first              15024
_journal_page_last               15030
_journal_paper_doi               10.1039/c8dt03780a
_journal_volume                  47
_journal_year                    2018
_chemical_formula_moiety         'C14 H26 Cu F6 N4, 2(Cl O4)'
_chemical_formula_sum            'C14 H26 Cl2 Cu F6 N4 O8'
_chemical_formula_weight         626.83
_space_group_crystal_system      triclinic
_space_group_IT_number           2
_space_group_name_Hall           '-P 1'
_space_group_name_H-M_alt        'P -1'
_symmetry_space_group_name_Hall  '-P 1'
_symmetry_space_group_name_H-M   'P -1'
_atom_sites_solution_hydrogens   geom
_atom_sites_solution_primary     dual
_audit_creation_date             2017-11-21
_audit_creation_method
;
Olex2 1.2
(compiled 2017.08.10 svn.r3458 for OlexSys, GUI svn.r5381)
;
_audit_update_record
;
2018-06-22 deposited with the CCDC.
2018-10-04 downloaded from the CCDC.
;
_cell_angle_alpha                71.597(7)
_cell_angle_beta                 70.183(7)
_cell_angle_gamma                72.123(7)
_cell_formula_units_Z            1
_cell_length_a                   8.176(2)
_cell_length_b                   8.598(2)
_cell_length_c                   9.537(3)
_cell_measurement_reflns_used    6114
_cell_measurement_temperature    296
_cell_measurement_theta_max      26.82
_cell_measurement_theta_min      2.336
_cell_volume                     583.3(3)
_computing_cell_refinement       'Apex II release 2010, Bruker AXS, Inc.'
_computing_data_collection       'Apex II release 2010, Bruker AXS, Inc.'
_computing_data_reduction        'Apex II release 2010, Bruker AXS, Inc.'
_computing_molecular_graphics    'Olex2 (Dolomanov et al., 2009)'
_computing_publication_material  'Olex2 (Dolomanov et al., 2009)'
_computing_structure_refinement  'ShelXL (Sheldrick, 2015)'
_computing_structure_solution    'ShelXT (Sheldrick, 2015)'
_diffrn_ambient_temperature      296
_diffrn_measured_fraction_theta_full 0.997
_diffrn_measured_fraction_theta_max 0.997
_diffrn_measurement_device_type  'Nonius Kappa CCD with Bruker Apex II CCD'
_diffrn_measurement_method       \w-scans
_diffrn_radiation_monochromator  graphite
_diffrn_radiation_type           MoK\a
_diffrn_radiation_wavelength     0.71073
_diffrn_reflns_av_R_equivalents  0.2362
_diffrn_reflns_av_unetI/netI     0.0943
_diffrn_reflns_Laue_measured_fraction_full 0.997
_diffrn_reflns_Laue_measured_fraction_max 0.997
_diffrn_reflns_limit_h_max       9
_diffrn_reflns_limit_h_min       -9
_diffrn_reflns_limit_k_max       10
_diffrn_reflns_limit_k_min       -10
_diffrn_reflns_limit_l_max       9
_diffrn_reflns_limit_l_min       -11
_diffrn_reflns_number            12193
_diffrn_reflns_point_group_measured_fraction_full 0.997
_diffrn_reflns_point_group_measured_fraction_max 0.997
_diffrn_reflns_theta_full        25.022
_diffrn_reflns_theta_max         25.022
_diffrn_reflns_theta_min         2.336
_diffrn_source                   'sealed fine-focus tube'
_diffrn_source_type              'Nonius Kappa CCD with Bruker Apex II CCD'
_exptl_absorpt_coefficient_mu    1.262
_exptl_absorpt_correction_T_max  1.00
_exptl_absorpt_correction_T_min  0.833
_exptl_absorpt_correction_type   multi-scan
_exptl_absorpt_process_details
'SADABS. Sheldrick, G. M. (2008). Bruker AXS Inc., Madison, WI, USA.'
_exptl_crystal_colour            'clear violet'
_exptl_crystal_colour_lustre     clear
_exptl_crystal_colour_primary    violet
_exptl_crystal_density_diffrn    1.785
_exptl_crystal_description       prism
_exptl_crystal_F_000             319
_exptl_crystal_size_max          0.281
_exptl_crystal_size_mid          0.276
_exptl_crystal_size_min          0.235
_refine_diff_density_max         0.681
_refine_diff_density_min         -0.956
_refine_diff_density_rms         0.118
_refine_ls_extinction_method     none
_refine_ls_goodness_of_fit_ref   1.094
_refine_ls_hydrogen_treatment    constr
_refine_ls_matrix_type           full
_refine_ls_number_parameters     160
_refine_ls_number_reflns         2055
_refine_ls_number_restraints     0
_refine_ls_restrained_S_all      1.094
_refine_ls_R_factor_all          0.0601
_refine_ls_R_factor_gt           0.0533
_refine_ls_shift/su_max          0.000
_refine_ls_shift/su_mean         0.000
_refine_ls_structure_factor_coef Fsqd
_refine_ls_weighting_details
'w=1/[\s^2^(Fo^2^)+(0.0740P)^2^] where P=(Fo^2^+2Fc^2^)/3'
_refine_ls_weighting_scheme      calc
_refine_ls_wR_factor_gt          0.1299
_refine_ls_wR_factor_ref         0.1339
_reflns_Friedel_coverage         0.000
_reflns_number_gt                1753
_reflns_number_total             2055
_reflns_threshold_expression     'I > 2\s(I)'
_cod_data_source_file            c8dt03780a2.cif
_cod_data_source_block           cucyclamcf6_true
_cod_depositor_comments
'Adding full bibliography for 7047706--7047708.cif.'
_cod_database_code               7047706
_shelx_shelxl_version_number     2016/6
_shelx_space_group_comment
;
The symmetry employed for this shelxl refinement is uniquely defined
by the following loop, which should always be used as a source of
symmetry information in preference to the above space-group names.
They are only intended as comments.
;
_shelx_estimated_absorpt_t_max   0.756
_shelx_estimated_absorpt_t_min   0.718
_olex2_refinement_description
;
1. Fixed Uiso
 At 1.2 times of:
  All C(H,H) groups, All N(H) groups
2.a Ternary CH refined with riding coordinates:
 N2(H2)
2.b Secondary CH2 refined with riding coordinates:
 C2(H2A,H2B), C3(H3A,H3B), C4(H4A,H4B), C5(H5A,H5B), C6(H6A,H6B), C7(H7A,H7B)
;
_shelx_res_file
;
TITL cucyclamcf6_true_a.res in P-1
    cucyclamcf6_true.res
    created by SHELXL-2016/6 at 15:09:05 on 21-Nov-2017
REM Old TITL cucyclamcf6_true_a.res in P-1
REM SHELXT solution in P-1
REM R1 0.180, Rweak 0.010, Alpha 0.068, Orientation as input
REM Formula found by SHELXT: C14 Cl2 Cu F14 N4
CELL 0.71073 8.1761 8.5976 9.5373 71.597 70.183 72.123
ZERR 1 0.0022 0.0024 0.0025 0.007 0.007 0.007
LATT 1
SFAC C H Cl Cu F N O
UNIT 14 26 2 1 6 4 8

L.S. 10
PLAN  20
SIZE 0.235 0.276 0.281
TEMP 22.85
list 4
fmap 2
acta
SHEL 999 0.84
REM <olex2.extras>
REM <HklSrc "%.\\CuCyclamCF6_True.hkl">
REM </olex2.extras>

WGHT    0.074000
FVAR       0.52847
CU1   4    0.500000    0.500000    0.500000    10.50000    0.01594    0.02134 =
         0.01936   -0.00381   -0.00156   -0.00390
F1    5    0.846922    0.808698    0.008726    11.00000    0.10080    0.08520 =
         0.04086   -0.01941    0.02744   -0.05592
F2    5    0.641491    1.003933    0.086214    11.00000    0.08836    0.06166 =
         0.08932    0.03008    0.00494   -0.01376
F3    5    0.880797    0.933580    0.151318    11.00000    0.11317    0.12002 =
         0.07256   -0.00856    0.00097   -0.10053
N1    6    0.550827    0.672292    0.283417    11.00000    0.02431    0.03366 =
         0.02452   -0.00223   -0.00541   -0.01041
N2    6    0.290053    0.676466    0.568465    11.00000    0.02019    0.03012 =
         0.03316   -0.01069   -0.00166   -0.00678
AFIX  13
H2    2    0.184896    0.641971    0.571776    11.00000   -1.20000
AFIX   0
C1    1    0.764672    0.873092    0.128754    11.00000    0.05044    0.05056 =
         0.03723   -0.00420    0.00342   -0.02348
C2    1    0.694735    0.748682    0.273126    11.00000    0.03545    0.03979 =
         0.02895   -0.00243   -0.00412   -0.01909
AFIX  23
H2A   2    0.795338    0.657410    0.292298    11.00000   -1.20000
H2B   2    0.653496    0.804317    0.356927    11.00000   -1.20000
AFIX   0
C3    1    0.299337    0.834967    0.446616    11.00000    0.03026    0.02837 =
         0.05568   -0.00334   -0.00669   -0.00035
AFIX  23
H3A   2    0.374834    0.893951    0.459993    11.00000   -1.20000
H3B   2    0.181025    0.907537    0.454082    11.00000   -1.20000
AFIX   0
C4    1    0.373692    0.794420    0.292535    11.00000    0.03776    0.03775 =
         0.04251    0.00802   -0.01634   -0.00448
AFIX  23
H4A   2    0.387583    0.896773    0.213388    11.00000   -1.20000
H4B   2    0.291498    0.746304    0.275038    11.00000   -1.20000
AFIX   0
C5    1    0.594580    0.587503    0.156484    11.00000    0.04257    0.06084 =
         0.02231   -0.00413   -0.00719   -0.02378
AFIX  23
H5A   2    0.610544    0.670822    0.059662    11.00000   -1.20000
H5B   2    0.494204    0.542421    0.168403    11.00000   -1.20000
AFIX   0
C6    1    0.759965    0.446854    0.149879    11.00000    0.04233    0.07005 =
         0.02900   -0.02425    0.00164   -0.01887
AFIX  23
H6A   2    0.791745    0.414236    0.053857    11.00000   -1.20000
H6B   2    0.857221    0.489418    0.149334    11.00000   -1.20000
AFIX   0
C7    1    0.257146    0.707803    0.720196    11.00000    0.03054    0.04731 =
         0.04621   -0.02657   -0.00149   -0.00681
AFIX  23
H7A   2    0.148425    0.793789    0.738940    11.00000   -1.20000
H7B   2    0.354427    0.750806    0.718961    11.00000   -1.20000
AFIX   0

CL1   3    0.203833    0.338892    0.349539    11.00000    0.02929    0.04771 =
         0.04175   -0.01818   -0.01068   -0.00897
O1    7    0.336449    0.231914    0.262597    11.00000    0.07540    0.09812 =
         0.12918   -0.07743    0.01568   -0.01808
O2    7    0.086303    0.248423    0.472072    11.00000    0.05542    0.09421 =
         0.08784   -0.01628   -0.00138   -0.05074
O3    7    0.284166    0.420713    0.409589    11.00000    0.06402    0.08728 =
         0.04496   -0.01209   -0.01682   -0.04685
O4    7    0.104588    0.466277    0.254294    11.00000    0.09888    0.12702 =
         0.09094   -0.00463   -0.07005    0.00086
HKLF 4




REM  cucyclamcf6_true_a.res in P-1
REM R1 =  0.0533 for    1753 Fo > 4sig(Fo)  and  0.0601 for all    2055 data
REM    160 parameters refined using      0 restraints

END

WGHT      0.0744      0.0000

REM Highest difference peak  0.681,  deepest hole -0.956,  1-sigma level  0.118
Q1    1   0.3625  0.1887  0.3754  11.00000  0.05    0.68
Q2    1   0.6622  0.8997  0.0536  11.00000  0.05    0.42
Q3    1   0.6193  0.9984  0.1691  11.00000  0.05    0.42
Q4    1   0.1986  0.2089  0.4540  11.00000  0.05    0.39
Q5    1   0.3366  0.9390  0.4267  11.00000  0.05    0.39
Q6    1   0.3819  0.3173  0.3798  11.00000  0.05    0.37
Q7    1   0.3626  0.1956  0.2431  11.00000  0.05    0.37
Q8    1   0.5596  0.8776  0.3565  11.00000  0.05    0.34
Q9    1   0.4157  0.0776  0.2605  11.00000  0.05    0.34
Q10   1   0.9618  0.4133  0.1316  11.00000  0.05    0.34
Q11   1   0.8542  0.7105 -0.0032  11.00000  0.05    0.33
Q12   1   0.2156  1.0149  0.3919  11.00000  0.05    0.33
Q13   1   0.2038  0.3999  0.2036  11.00000  0.05    0.33
Q14   1   0.6048  0.2807  0.0602  11.00000  0.05    0.32
Q15   1   0.0635  0.8749  0.5043  11.00000  0.05    0.32
Q16   1   0.4177  0.8349  0.3041  11.00000  0.05    0.31
Q17   1   0.9058  0.8373  0.1003  11.00000  0.05    0.31
Q18   1   0.7713  0.9797  0.1335  11.00000  0.05    0.31
Q19   1   0.3973  0.8265  0.3411  11.00000  0.05    0.31
Q20   1   0.1951  0.4518  0.3936  11.00000  0.05    0.30
;
_shelx_res_checksum              64041
_olex2_submission_special_instructions 'No special instructions were received'
loop_
_space_group_symop_operation_xyz
'x, y, z'
'-x, -y, -z'
loop_
_atom_site_label
_atom_site_type_symbol
_atom_site_fract_x
_atom_site_fract_y
_atom_site_fract_z
_atom_site_U_iso_or_equiv
_atom_site_adp_type
_atom_site_occupancy
_atom_site_site_symmetry_order
_atom_site_calc_flag
_atom_site_refinement_flags_posn
_atom_site_refinement_flags_adp
_atom_site_refinement_flags_occupancy
Cu1 Cu 0.500000 0.500000 0.500000 0.0201(2) Uani 1 2 d S T P
F1 F 0.8469(4) 0.8087(4) 0.0087(3) 0.0786(9) Uani 1 1 d . . .
F2 F 0.6415(4) 1.0039(4) 0.0862(4) 0.1002(11) Uani 1 1 d . . .
F3 F 0.8808(5) 0.9336(4) 0.1513(3) 0.0945(11) Uani 1 1 d . . .
N1 N 0.5508(4) 0.6723(3) 0.2834(3) 0.0280(6) Uani 1 1 d . . .
N2 N 0.2901(4) 0.6765(3) 0.5685(3) 0.0282(6) Uani 1 1 d . . .
H2 H 0.184896 0.641971 0.571776 0.034 Uiso 1 1 calc R . .
C1 C 0.7647(6) 0.8731(5) 0.1288(4) 0.0488(10) Uani 1 1 d . . .
C2 C 0.6947(5) 0.7487(4) 0.2731(4) 0.0348(8) Uani 1 1 d . . .
H2A H 0.795338 0.657410 0.292298 0.042 Uiso 1 1 calc R . .
H2B H 0.653496 0.804317 0.356927 0.042 Uiso 1 1 calc R . .
C3 C 0.2993(5) 0.8350(4) 0.4466(4) 0.0425(9) Uani 1 1 d . . .
H3A H 0.374834 0.893951 0.459993 0.051 Uiso 1 1 calc R . .
H3B H 0.181025 0.907537 0.454082 0.051 Uiso 1 1 calc R . .
C4 C 0.3737(5) 0.7944(5) 0.2925(4) 0.0432(10) Uani 1 1 d . . .
H4A H 0.387583 0.896773 0.213388 0.052 Uiso 1 1 calc R . .
H4B H 0.291498 0.746304 0.275038 0.052 Uiso 1 1 calc R . .
C5 C 0.5946(5) 0.5875(5) 0.1565(4) 0.0408(9) Uani 1 1 d . . .
H5A H 0.610544 0.670822 0.059662 0.049 Uiso 1 1 calc R . .
H5B H 0.494204 0.542421 0.168403 0.049 Uiso 1 1 calc R . .
C6 C 0.7600(5) 0.4469(5) 0.1499(4) 0.0455(10) Uani 1 1 d . . .
H6A H 0.791745 0.414236 0.053857 0.055 Uiso 1 1 calc R . .
H6B H 0.857221 0.489418 0.149334 0.055 Uiso 1 1 calc R . .
C7 C 0.2571(5) 0.7078(5) 0.7202(4) 0.0403(9) Uani 1 1 d . . .
H7A H 0.148425 0.793789 0.738940 0.048 Uiso 1 1 calc R . .
H7B H 0.354427 0.750806 0.718961 0.048 Uiso 1 1 calc R . .
Cl1 Cl 0.20383(11) 0.33889(11) 0.34954(10) 0.0373(3) Uani 1 1 d . . .
O1 O 0.3364(5) 0.2319(5) 0.2626(5) 0.1003(14) Uani 1 1 d . . .
O2 O 0.0863(4) 0.2484(4) 0.4721(4) 0.0771(10) Uani 1 1 d . . .
O3 O 0.2842(4) 0.4207(4) 0.4096(3) 0.0585(9) Uani 1 1 d . . .
O4 O 0.1046(6) 0.4663(6) 0.2543(5) 0.1052(15) Uani 1 1 d . . .
loop_
_atom_site_aniso_label
_atom_site_aniso_U_11
_atom_site_aniso_U_22
_atom_site_aniso_U_33
_atom_site_aniso_U_23
_atom_site_aniso_U_13
_atom_site_aniso_U_12
Cu1 0.0159(3) 0.0213(3) 0.0194(3) -0.0038(2) -0.0016(2) -0.0039(2)
F1 0.101(2) 0.0852(18) 0.0409(14) -0.0194(12) 0.0274(14) -0.0559(17)
F2 0.088(2) 0.0617(18) 0.089(2) 0.0301(15) 0.0049(18) -0.0138(16)
F3 0.113(3) 0.120(3) 0.0726(18) -0.0086(17) 0.0010(18) -0.101(2)
N1 0.0243(15) 0.0337(15) 0.0245(14) -0.0022(11) -0.0054(11) -0.0104(12)
N2 0.0202(15) 0.0301(14) 0.0332(15) -0.0107(11) -0.0017(12) -0.0068(11)
C1 0.050(3) 0.051(2) 0.037(2) -0.0042(17) 0.0034(19) -0.023(2)
C2 0.035(2) 0.0398(19) 0.0289(18) -0.0024(14) -0.0041(15) -0.0191(16)
C3 0.030(2) 0.0284(18) 0.056(2) -0.0033(16) -0.0067(17) -0.0003(15)
C4 0.038(2) 0.038(2) 0.043(2) 0.0080(15) -0.0163(17) -0.0045(16)
C5 0.043(2) 0.061(2) 0.0223(18) -0.0041(15) -0.0072(16) -0.0238(19)
C6 0.042(2) 0.070(3) 0.0290(19) -0.0242(18) 0.0016(17) -0.019(2)
C7 0.031(2) 0.047(2) 0.046(2) -0.0266(17) -0.0015(17) -0.0068(17)
Cl1 0.0293(5) 0.0477(6) 0.0417(5) -0.0182(4) -0.0107(4) -0.0090(4)
O1 0.075(3) 0.098(3) 0.129(3) -0.077(3) 0.016(2) -0.018(2)
O2 0.055(2) 0.094(3) 0.088(2) -0.0163(19) -0.0014(18) -0.051(2)
O3 0.064(2) 0.087(2) 0.0450(16) -0.0121(14) -0.0168(14) -0.0469(18)
O4 0.099(3) 0.127(3) 0.091(3) -0.005(2) -0.070(3) 0.001(3)
loop_
_atom_type_symbol
_atom_type_description
_atom_type_scat_dispersion_real
_atom_type_scat_dispersion_imag
_atom_type_scat_source
C C 0.0033 0.0016 'International Tables Vol C Tables 4.2.6.8 and 6.1.1.4'
H H 0.0000 0.0000 'International Tables Vol C Tables 4.2.6.8 and 6.1.1.4'
Cl Cl 0.1484 0.1585 'International Tables Vol C Tables 4.2.6.8 and 6.1.1.4'
Cu Cu 0.3201 1.2651 'International Tables Vol C Tables 4.2.6.8 and 6.1.1.4'
F F 0.0171 0.0103 'International Tables Vol C Tables 4.2.6.8 and 6.1.1.4'
N N 0.0061 0.0033 'International Tables Vol C Tables 4.2.6.8 and 6.1.1.4'
O O 0.0106 0.0060 'International Tables Vol C Tables 4.2.6.8 and 6.1.1.4'
loop_
_geom_angle_atom_site_label_1
_geom_angle_atom_site_label_2
_geom_angle_atom_site_label_3
_geom_angle
_geom_angle_site_symmetry_1
_geom_angle_site_symmetry_3
N1 Cu1 N1 180.0 . 2_666
N2 Cu1 N1 92.84(11) 2_666 .
N2 Cu1 N1 87.16(11) 2_666 2_666
N2 Cu1 N1 92.84(11) . 2_666
N2 Cu1 N1 87.16(11) . .
N2 Cu1 N2 180.0 2_666 .
C2 N1 Cu1 108.07(18) . .
C2 N1 C4 113.1(3) . .
C2 N1 C5 112.8(3) . .
C4 N1 Cu1 101.46(19) . .
C5 N1 Cu1 110.9(2) . .
C5 N1 C4 110.0(3) . .
C3 N2 Cu1 108.0(2) . .
C7 N2 Cu1 118.4(2) . .
C7 N2 C3 110.6(3) . .
F1 C1 F2 105.8(4) . .
F1 C1 F3 106.7(3) . .
F1 C1 C2 114.2(3) . .
F2 C1 C2 114.3(3) . .
F3 C1 F2 106.3(4) . .
F3 C1 C2 109.1(4) . .
N1 C2 C1 120.3(3) . .
N2 C3 C4 109.5(3) . .
C3 C4 N1 110.4(3) . .
N1 C5 C6 114.1(3) . .
C7 C6 C5 115.0(3) 2_666 .
N2 C7 C6 113.5(3) . 2_666
O1 Cl1 O2 111.2(2) . .
O1 Cl1 O3 110.0(2) . .
O1 Cl1 O4 109.7(3) . .
O2 Cl1 O3 109.57(19) . .
O4 Cl1 O2 109.2(2) . .
O4 Cl1 O3 107.2(2) . .
loop_
_geom_bond_atom_site_label_1
_geom_bond_atom_site_label_2
_geom_bond_distance
_geom_bond_site_symmetry_2
Cu1 N1 2.121(2) .
Cu1 N1 2.121(2) 2_666
Cu1 N2 1.985(3) 2_666
Cu1 N2 1.985(3) .
F1 C1 1.311(5) .
F2 C1 1.318(5) .
F3 C1 1.316(5) .
N1 C2 1.477(4) .
N1 C4 1.499(4) .
N1 C5 1.493(5) .
N2 C3 1.489(4) .
N2 C7 1.475(4) .
C1 C2 1.510(5) .
C3 C4 1.496(5) .
C5 C6 1.510(6) .
C6 C7 1.510(5) 2_666
Cl1 O1 1.403(4) .
Cl1 O2 1.420(3) .
Cl1 O3 1.431(3) .
Cl1 O4 1.417(3) .
