#------------------------------------------------------------------------------
#$Date: 2019-11-17 10:10:57 +0200 (Sun, 17 Nov 2019) $
#$Revision: 229275 $
#$URL: file:///home/coder/svn-repositories/cod/cif/7/04/77/7047735.cif $
#------------------------------------------------------------------------------
#
# This file is available in the Crystallography Open Database (COD),
# http://www.crystallography.net/
#
# All data on this site have been placed in the public domain by the
# contributors.
#
data_7047735
loop_
_publ_author_name
'Xia, Bin'
'Zhou, Yu'
'Wang, Qing-Lun'
'Xu, Xiu-Fang'
'Tong, Yu-Zhang'
'Bu, Xian-He'
'Li, Jian-Rong'
_publ_section_title
;
 Photoinduced electron transfer and remarkable enhancement of magnetic
 susceptibility in bridging pyrazine complexes.
;
_journal_issue                   44
_journal_name_full
'Dalton transactions (Cambridge, England : 2003)'
_journal_page_first              15888
_journal_page_last               15896
_journal_paper_doi               10.1039/c8dt03422b
_journal_volume                  47
_journal_year                    2018
_chemical_formula_sum            'C8 H16 Cl2 Mn N2 O2 S2'
_chemical_formula_weight         362.19
_space_group_crystal_system      triclinic
_space_group_IT_number           2
_space_group_name_Hall           '-P 1'
_space_group_name_H-M_alt        'P -1'
_symmetry_space_group_name_Hall  '-P 1'
_symmetry_space_group_name_H-M   'P -1'
_atom_sites_solution_hydrogens   geom
_atom_sites_solution_primary     direct
_atom_sites_solution_secondary   difmap
_audit_creation_method           SHELXL-2014/7
_audit_update_record
;
2018-08-21 deposited with the CCDC.
2018-10-04 downloaded from the CCDC.
;
_cell_angle_alpha                86.438(2)
_cell_angle_beta                 84.513(3)
_cell_angle_gamma                65.677(3)
_cell_formula_units_Z            1
_cell_length_a                   6.7776(2)
_cell_length_b                   6.7893(2)
_cell_length_c                   8.8775(3)
_cell_measurement_reflns_used    2241
_cell_measurement_temperature    120.00(10)
_cell_measurement_theta_max      72.6070
_cell_measurement_theta_min      7.1730
_cell_volume                     370.42(2)
_computing_cell_refinement       'Bruker XSCANS'
_computing_data_collection       'Bruker XSCANS'
_computing_data_reduction        'Bruker SHELXTL'
_computing_molecular_graphics    'Bruker SHELXTL'
_computing_publication_material  'Bruker SHELXTL'
_computing_structure_refinement  'SHELXL-2014/7 (Sheldrick, 2014)'
_computing_structure_solution    'SHELXL-2014/7 (Sheldrick, 2014)'
_diffrn_ambient_temperature      120.00(10)
_diffrn_measured_fraction_theta_full 0.988
_diffrn_measured_fraction_theta_max 0.951
_diffrn_measurement_device_type  'XtaLAB AFC12 (RINC): Kappa single'
_diffrn_measurement_method       'profile data from \w-scans'
_diffrn_radiation_type           CuK\a
_diffrn_radiation_wavelength     1.54184
_diffrn_reflns_av_R_equivalents  0.0178
_diffrn_reflns_av_unetI/netI     0.0233
_diffrn_reflns_Laue_measured_fraction_full 0.988
_diffrn_reflns_Laue_measured_fraction_max 0.951
_diffrn_reflns_limit_h_max       8
_diffrn_reflns_limit_h_min       -8
_diffrn_reflns_limit_k_max       8
_diffrn_reflns_limit_k_min       -6
_diffrn_reflns_limit_l_max       10
_diffrn_reflns_limit_l_min       -10
_diffrn_reflns_number            2705
_diffrn_reflns_point_group_measured_fraction_full 0.988
_diffrn_reflns_point_group_measured_fraction_max 0.951
_diffrn_reflns_theta_full        67.679
_diffrn_reflns_theta_max         72.736
_diffrn_reflns_theta_min         5.006
_diffrn_source                   'fine-focus sealed X-ray tube'
_exptl_absorpt_coefficient_mu    13.148
_exptl_absorpt_correction_T_max  1.00000
_exptl_absorpt_correction_T_min  0.35182
_exptl_absorpt_correction_type   multi-scan
_exptl_absorpt_process_details
;
CrysAlisPro 1.171.39.28b (Rigaku Oxford Diffraction, 2015)
Empirical absorption correction using spherical harmonics,
 implemented in SCALE3 ABSPACK scaling algorithm.
;
_exptl_crystal_colour            Yellow
_exptl_crystal_density_diffrn    1.624
_exptl_crystal_description       Prismatic
_exptl_crystal_F_000             185
_exptl_crystal_size_max          0.18
_exptl_crystal_size_mid          0.12
_exptl_crystal_size_min          0.06
_refine_diff_density_max         0.307
_refine_diff_density_min         -0.467
_refine_diff_density_rms         0.073
_refine_ls_extinction_method     none
_refine_ls_goodness_of_fit_ref   1.078
_refine_ls_hydrogen_treatment    constr
_refine_ls_matrix_type           full
_refine_ls_number_parameters     81
_refine_ls_number_reflns         1409
_refine_ls_number_restraints     0
_refine_ls_restrained_S_all      1.078
_refine_ls_R_factor_all          0.0228
_refine_ls_R_factor_gt           0.0228
_refine_ls_shift/su_max          0.000
_refine_ls_shift/su_mean         0.000
_refine_ls_structure_factor_coef Fsqd
_refine_ls_weighting_details
'w=1/[\s^2^(Fo^2^)+(0.0372P)^2^+0.0844P] where P=(Fo^2^+2Fc^2^)/3'
_refine_ls_weighting_scheme      calc
_refine_ls_wR_factor_gt          0.0602
_refine_ls_wR_factor_ref         0.0602
_reflns_Friedel_coverage         0.000
_reflns_number_gt                1403
_reflns_number_total             1409
_reflns_threshold_expression     'I > 2\s(I)'
_cod_data_source_file            c8dt03422b2.cif
_cod_data_source_block           Mn-DMSO-PZ
_cod_depositor_comments
;
The following automatic conversions were performed:

'_exptl_absorpt_correction_type' value 'Multi-scan' changed to
'multi-scan' according to
/home/data/users/saulius/crontab/automatic-downloads/rss-feeds/RSC/lib/dictionaries/cif_core.dic
dictionary named 'cif_core.dic' version 2.4.2 from 2011-04-26.

Automatic conversion script
Id: cif_fix_values 4973 2017-02-22 13:04:09Z antanas 

 Adding full bibliography for 7047735--7047737.cif.
;
_cod_database_code               7047735
_shelx_shelxl_version_number     2014/7
_shelx_space_group_comment
;
The symmetry employed for this shelxl refinement is uniquely defined
by the following loop, which should always be used as a source of
symmetry information in preference to the above space-group names.
They are only intended as comments.
;
_exptl_absorpt_special_details   sadabs
_shelx_res_file
;

    Mn-DMSO-PZ.res created by SHELXL-2014/7

TITL Mn-DMSO-PZ in P-1
CELL 1.54178   6.7776   6.7893   8.8775  86.438  84.513  65.677
ZERR    1.00   0.0002   0.0002   0.0003   0.002   0.003   0.003
LATT 1
SFAC C  H  N  O  S  Cl Mn
UNIT 8 16 2 2 2 2 1
L.S. 20
ACTA
BOND$H
FMAP 2
PLAN 20
HTAB
EQIV $2 -x+1, -y, -z+1
HTAB C3 Cl1_$2
EQIV $1 -x+1, -y-1, -z+1
HTAB C4 Cl1_$1
WGHT    0.037200    0.084400
FVAR       0.40584
MOLE 1
MN1   7    0.500000    0.000000    0.500000    10.50000    0.00847    0.00864 =
         0.01144   -0.00047   -0.00279   -0.00235
CL1   6    0.342284   -0.141155    0.727092    11.00000    0.01568    0.01759 =
         0.01397    0.00039   -0.00168   -0.00874
S1    5    0.392616   -0.168729    0.185599    11.00000    0.01303    0.01644 =
         0.01364   -0.00217   -0.00249   -0.00528
O1    4    0.355841   -0.146870    0.356955    11.00000    0.01593    0.01544 =
         0.01338    0.00002   -0.00402   -0.00755
N1    3    0.189053    0.310091    0.501747    11.00000    0.01192    0.01120 =
         0.01340    0.00047   -0.00164   -0.00368
C2    1    0.187404    0.501368    0.533325    11.00000    0.01146    0.01382 =
         0.01773   -0.00090   -0.00265   -0.00523
AFIX  43
H2    2    0.315464    0.507505    0.556981    11.00000   -1.20000
AFIX   0
C1    1    0.000231    0.310031    0.468417    11.00000    0.01319    0.01069 =
         0.01592   -0.00073   -0.00248   -0.00455
AFIX  43
H1    2   -0.004808    0.180279    0.445947    11.00000   -1.20000
AFIX   0
C3    1    0.214805    0.083295    0.107482    11.00000    0.02096    0.01907 =
         0.01585    0.00289   -0.00436   -0.00857
AFIX 137
H3A   2    0.069300    0.118606    0.150711    11.00000   -1.50000
H3B   2    0.219377    0.072738   -0.000238    11.00000   -1.50000
H3C   2    0.259937    0.194328    0.129884    11.00000   -1.50000
AFIX   0
C4    1    0.249680   -0.326119    0.143923    11.00000    0.02844    0.02025 =
         0.01940   -0.00162   -0.00820   -0.01357
AFIX 137
H4A   2    0.319733   -0.469749    0.185759    11.00000   -1.50000
H4B   2    0.249718   -0.332624    0.036204    11.00000   -1.50000
H4C   2    0.102733   -0.260612    0.187396    11.00000   -1.50000
AFIX   0
HKLF 4

REM  Mn-DMSO-PZ in P-1
REM R1 =  0.0228 for    1403 Fo > 4sig(Fo)  and  0.0228 for all    1409 data
REM     81 parameters refined using      0 restraints

END

WGHT      0.0372      0.0844

REM Instructions for potential hydrogen bonds
EQIV $3 x, y+1, z
HTAB C2 Cl1_$3
EQIV $4 -x, -y, -z+1
HTAB C1 Cl1_$4
HTAB C1 O1
HTAB C3 Cl1_$4
EQIV $5 x, y, z-1
HTAB C3 Cl1_$5
HTAB C3 Cl1_$2
HTAB C4 Cl1_$1

REM Highest difference peak  0.307,  deepest hole -0.467,  1-sigma level  0.073
Q1    1   0.2715  0.2163  0.5084  11.00000  0.05    0.31
Q2    1   0.0830  0.5810  0.5370  11.00000  0.05    0.28
Q3    1   0.0995  0.3184  0.4779  11.00000  0.05    0.27
Q4    1   0.3122 -0.1247  0.8342  11.00000  0.05    0.26
Q5    1   0.3574 -0.1362  0.4586  11.00000  0.05    0.24
Q6    1   0.2936 -0.2382  0.1752  11.00000  0.05    0.23
Q7    1   0.1807  0.4151  0.5166  11.00000  0.05    0.22
Q8    1   0.4676  0.0360  0.6049  11.00000  0.05    0.22
Q9    1   0.4001  0.2170  0.5575  11.00000  0.05    0.21
Q10   1   0.4173 -0.6365  0.2792  11.00000  0.05    0.20
Q11   1   0.5203  0.5558  0.6159  11.00000  0.05    0.19
Q12   1   0.4028 -0.5167  0.3206  11.00000  0.05    0.19
Q13   1   0.2289 -0.0976  0.5764  11.00000  0.05    0.18
Q14   1   0.2972 -0.1106  0.0090  11.00000  0.05    0.18
Q15   1   0.4364 -0.5115  0.1635  11.00000  0.05    0.18
Q16   1   0.2617  0.3229 -0.1386  11.00000  0.05    0.17
Q17   1   0.6206 -0.3643  0.1944  11.00000  0.05    0.17
Q18   1   0.5511  0.4402  0.6007  11.00000  0.05    0.17
Q19   1   0.0317 -0.1442  0.1399  11.00000  0.05    0.16
Q20   1   0.3785  0.4426  0.6483  11.00000  0.05    0.16
;
_shelx_res_checksum              74228
loop_
_space_group_symop_operation_xyz
'x, y, z'
'-x, -y, -z'
loop_
_atom_site_label
_atom_site_type_symbol
_atom_site_fract_x
_atom_site_fract_y
_atom_site_fract_z
_atom_site_U_iso_or_equiv
_atom_site_adp_type
_atom_site_occupancy
_atom_site_site_symmetry_order
_atom_site_calc_flag
_atom_site_refinement_flags_posn
_atom_site_refinement_flags_adp
_atom_site_refinement_flags_occupancy
Mn1 Mn 0.5000 0.0000 0.5000 0.00974(11) Uani 1 2 d S . P
Cl1 Cl 0.34228(6) -0.14116(6) 0.72709(4) 0.01510(12) Uani 1 1 d . . .
S1 S 0.39262(6) -0.16873(6) 0.18560(4) 0.01443(12) Uani 1 1 d . . .
O1 O 0.35584(18) -0.14687(18) 0.35695(12) 0.0143(2) Uani 1 1 d . . .
N1 N 0.1891(2) 0.3101(2) 0.50175(14) 0.0125(3) Uani 1 1 d . . .
C2 C 0.1874(2) 0.5014(3) 0.53332(17) 0.0142(3) Uani 1 1 d . . .
H2 H 0.3155 0.5075 0.5570 0.017 Uiso 1 1 calc R U .
C1 C 0.0002(3) 0.3100(3) 0.46842(17) 0.0133(3) Uani 1 1 d . . .
H1 H -0.0048 0.1803 0.4459 0.016 Uiso 1 1 calc R U .
C3 C 0.2148(3) 0.0833(3) 0.10748(18) 0.0184(3) Uani 1 1 d . . .
H3A H 0.0693 0.1186 0.1507 0.028 Uiso 1 1 calc R U .
H3B H 0.2194 0.0727 -0.0002 0.028 Uiso 1 1 calc R U .
H3C H 0.2599 0.1943 0.1299 0.028 Uiso 1 1 calc R U .
C4 C 0.2497(3) -0.3261(3) 0.14392(19) 0.0210(4) Uani 1 1 d . . .
H4A H 0.3197 -0.4697 0.1858 0.031 Uiso 1 1 calc R U .
H4B H 0.2497 -0.3326 0.0362 0.031 Uiso 1 1 calc R U .
H4C H 0.1027 -0.2606 0.1874 0.031 Uiso 1 1 calc R U .
loop_
_atom_site_aniso_label
_atom_site_aniso_U_11
_atom_site_aniso_U_22
_atom_site_aniso_U_33
_atom_site_aniso_U_23
_atom_site_aniso_U_13
_atom_site_aniso_U_12
Mn1 0.00847(18) 0.00864(19) 0.01144(18) -0.00047(12) -0.00279(12) -0.00235(14)
Cl1 0.0157(2) 0.0176(2) 0.01397(19) 0.00039(14) -0.00168(13) -0.00874(16)
S1 0.0130(2) 0.0164(2) 0.0136(2) -0.00217(14) -0.00249(14) -0.00528(16)
O1 0.0159(5) 0.0154(6) 0.0134(5) 0.0000(4) -0.0040(4) -0.0076(5)
N1 0.0119(6) 0.0112(6) 0.0134(6) 0.0005(5) -0.0016(5) -0.0037(5)
C2 0.0115(7) 0.0138(8) 0.0177(7) -0.0009(6) -0.0026(6) -0.0052(6)
C1 0.0132(7) 0.0107(7) 0.0159(7) -0.0007(6) -0.0025(5) -0.0045(6)
C3 0.0210(8) 0.0191(8) 0.0158(7) 0.0029(6) -0.0044(6) -0.0086(7)
C4 0.0284(9) 0.0203(9) 0.0194(8) -0.0016(6) -0.0082(7) -0.0136(8)
loop_
_atom_type_symbol
_atom_type_description
_atom_type_scat_dispersion_real
_atom_type_scat_dispersion_imag
_atom_type_scat_source
C C 0.0181 0.0091 'International Tables Vol C Tables 4.2.6.8 and 6.1.1.4'
H H 0.0000 0.0000 'International Tables Vol C Tables 4.2.6.8 and 6.1.1.4'
N N 0.0311 0.0180 'International Tables Vol C Tables 4.2.6.8 and 6.1.1.4'
O O 0.0492 0.0322 'International Tables Vol C Tables 4.2.6.8 and 6.1.1.4'
S S 0.3331 0.5567 'International Tables Vol C Tables 4.2.6.8 and 6.1.1.4'
Cl Cl 0.3639 0.7018 'International Tables Vol C Tables 4.2.6.8 and 6.1.1.4'
Mn Mn -0.5299 2.8052 'International Tables Vol C Tables 4.2.6.8 and 6.1.1.4'
loop_
_geom_angle_atom_site_label_1
_geom_angle_atom_site_label_2
_geom_angle_atom_site_label_3
_geom_angle
_geom_angle_site_symmetry_1
_geom_angle_site_symmetry_3
O1 Mn1 O1 180.00(4) . 2_656
O1 Mn1 N1 90.53(4) . 2_656
O1 Mn1 N1 89.47(4) 2_656 2_656
O1 Mn1 N1 89.47(4) . .
O1 Mn1 N1 90.53(4) 2_656 .
N1 Mn1 N1 180.00(9) 2_656 .
O1 Mn1 Cl1 91.64(3) . 2_656
O1 Mn1 Cl1 88.36(3) 2_656 2_656
N1 Mn1 Cl1 89.74(3) 2_656 2_656
N1 Mn1 Cl1 90.26(3) . 2_656
O1 Mn1 Cl1 88.36(3) . .
O1 Mn1 Cl1 91.64(3) 2_656 .
N1 Mn1 Cl1 90.26(3) 2_656 .
N1 Mn1 Cl1 89.74(3) . .
Cl1 Mn1 Cl1 180.0 2_656 .
O1 S1 C3 106.11(7) . .
O1 S1 C4 104.16(7) . .
C3 S1 C4 98.01(8) . .
S1 O1 Mn1 127.22(6) . .
C2 N1 C1 116.83(14) . .
C2 N1 Mn1 121.64(10) . .
C1 N1 Mn1 121.52(10) . .
N1 C2 C1 121.63(15) . 2_566
N1 C2 H2 119.2 . .
C1 C2 H2 119.2 2_566 .
N1 C1 C2 121.54(15) . 2_566
N1 C1 H1 119.2 . .
C2 C1 H1 119.2 2_566 .
S1 C3 H3A 109.5 . .
S1 C3 H3B 109.5 . .
H3A C3 H3B 109.5 . .
S1 C3 H3C 109.5 . .
H3A C3 H3C 109.5 . .
H3B C3 H3C 109.5 . .
S1 C4 H4A 109.5 . .
S1 C4 H4B 109.5 . .
H4A C4 H4B 109.5 . .
S1 C4 H4C 109.5 . .
H4A C4 H4C 109.5 . .
H4B C4 H4C 109.5 . .
loop_
_geom_bond_atom_site_label_1
_geom_bond_atom_site_label_2
_geom_bond_distance
_geom_bond_site_symmetry_2
Mn1 O1 2.1814(11) .
Mn1 O1 2.1814(11) 2_656
Mn1 N1 2.2840(13) 2_656
Mn1 N1 2.2840(13) .
Mn1 Cl1 2.5134(3) 2_656
Mn1 Cl1 2.5134(3) .
S1 O1 1.5242(11) .
S1 C3 1.7818(17) .
S1 C4 1.7854(17) .
N1 C2 1.341(2) .
N1 C1 1.341(2) .
C2 C1 1.385(2) 2_566
C2 H2 0.9300 .
C1 C2 1.385(2) 2_566
C1 H1 0.9300 .
C3 H3A 0.9600 .
C3 H3B 0.9600 .
C3 H3C 0.9600 .
C4 H4A 0.9600 .
C4 H4B 0.9600 .
C4 H4C 0.9600 .
loop_
_geom_hbond_atom_site_label_D
_geom_hbond_atom_site_label_H
_geom_hbond_atom_site_label_A
_geom_hbond_distance_DH
_geom_hbond_distance_HA
_geom_hbond_distance_DA
_geom_hbond_angle_DHA
_geom_hbond_site_symmetry_A
C3 H3C Cl1 0.96 2.97 3.6343(17) 127.6 2_656
C4 H4A Cl1 0.96 2.82 3.7272(18) 159.0 2_646
