#------------------------------------------------------------------------------
#$Date: 2019-11-17 11:52:10 +0200 (Sun, 17 Nov 2019) $
#$Revision: 229709 $
#$URL: file:///home/coder/svn-repositories/cod/cif/7/04/81/7048150.cif $
#------------------------------------------------------------------------------
#
# This file is available in the Crystallography Open Database (COD),
# http://www.crystallography.net/
#
# All data on this site have been placed in the public domain by the
# contributors.
#
data_7048150
loop_
_publ_author_name
'Rehm, Tobias'
'Rothemund, Matthias'
'B\"ar, Alexander'
'Dietel, Thomas'
'Kempe, Rhett'
'Kostrhunova, Hana'
'Brabec, Viktor'
'Kasparkova, Jana'
'Schobert, Rainer'
_publ_section_title
;
 N,N-Dialkylbenzimidazol-2-ylidene platinum complexes - effects of alkyl
 residues and ancillary cis-ligands on anticancer activity.
;
_journal_issue                   48
_journal_name_full
'Dalton transactions (Cambridge, England : 2003)'
_journal_page_first              17367
_journal_page_last               17381
_journal_paper_doi               10.1039/c8dt03360a
_journal_volume                  47
_journal_year                    2018
_chemical_formula_moiety         'C13 H20 Cl2 N2 O Pt S'
_chemical_formula_sum            'C13 H20 Cl2 N2 O Pt S'
_chemical_formula_weight         518.36
_space_group_crystal_system      triclinic
_space_group_IT_number           2
_space_group_name_Hall           '-P 1'
_space_group_name_H-M_alt        'P -1'
_symmetry_space_group_name_Hall  '-P 1'
_symmetry_space_group_name_H-M   'P -1'
_atom_sites_solution_hydrogens   geom
_audit_creation_method           SHELXL-2016/4
_audit_update_record
;
2018-07-23 deposited with the CCDC.
2018-11-13 downloaded from the CCDC.
;
_cell_angle_alpha                91.874(5)
_cell_angle_beta                 103.182(5)
_cell_angle_gamma                94.722(5)
_cell_formula_units_Z            2
_cell_length_a                   8.675(5)
_cell_length_b                   9.264(5)
_cell_length_c                   10.601(5)
_cell_measurement_reflns_used    9824
_cell_measurement_temperature    133(2)
_cell_measurement_theta_max      28.54
_cell_measurement_theta_min      1.975
_cell_volume                     825.5(8)
_computing_cell_refinement       STOE-XAREA
_computing_data_collection       STOE-XAREA
_computing_data_reduction        STOE-XAREA
_computing_structure_refinement  'SHELXL-2016/4 (Sheldrick, 2016)'
_computing_structure_solution    SIR-97
_diffrn_ambient_temperature      133(2)
_diffrn_measured_fraction_theta_full 0.980
_diffrn_measured_fraction_theta_max 0.981
_diffrn_measurement_device_type  STOE-STADIVARI
_diffrn_measurement_method       omega-scan
_diffrn_radiation_type           MoK\a
_diffrn_radiation_wavelength     0.71069
_diffrn_reflns_av_R_equivalents  0.0420
_diffrn_reflns_av_unetI/netI     0.0580
_diffrn_reflns_Laue_measured_fraction_full 0.980
_diffrn_reflns_Laue_measured_fraction_max 0.981
_diffrn_reflns_limit_h_max       10
_diffrn_reflns_limit_h_min       -9
_diffrn_reflns_limit_k_max       9
_diffrn_reflns_limit_k_min       -11
_diffrn_reflns_limit_l_max       11
_diffrn_reflns_limit_l_min       -13
_diffrn_reflns_number            7449
_diffrn_reflns_point_group_measured_fraction_full 0.980
_diffrn_reflns_point_group_measured_fraction_max 0.981
_diffrn_reflns_theta_full        25.240
_diffrn_reflns_theta_max         25.997
_diffrn_reflns_theta_min         1.976
_exptl_absorpt_coefficient_mu    8.945
_exptl_absorpt_correction_T_max  0.7605
_exptl_absorpt_correction_T_min  0.6803
_exptl_absorpt_correction_type   numerical
_exptl_absorpt_process_details   'STOE XRED-32'
_exptl_crystal_colour            colourless
_exptl_crystal_density_diffrn    2.085
_exptl_crystal_description       needles
_exptl_crystal_F_000             496
_exptl_crystal_size_max          0.106
_exptl_crystal_size_mid          0.078
_exptl_crystal_size_min          0.074
_refine_diff_density_max         2.520
_refine_diff_density_min         -2.725
_refine_diff_density_rms         0.248
_refine_ls_extinction_method     none
_refine_ls_goodness_of_fit_ref   1.032
_refine_ls_hydrogen_treatment    constr
_refine_ls_matrix_type           full
_refine_ls_number_parameters     185
_refine_ls_number_reflns         3177
_refine_ls_number_restraints     0
_refine_ls_restrained_S_all      1.032
_refine_ls_R_factor_all          0.0449
_refine_ls_R_factor_gt           0.0329
_refine_ls_shift/su_max          0.000
_refine_ls_shift/su_mean         0.000
_refine_ls_structure_factor_coef Fsqd
_refine_ls_weighting_details
'w=1/[\s^2^(Fo^2^)+(0.0485P)^2^] where P=(Fo^2^+2Fc^2^)/3'
_refine_ls_weighting_scheme      calc
_refine_ls_wR_factor_gt          0.0758
_refine_ls_wR_factor_ref         0.0851
_reflns_Friedel_coverage         0.000
_reflns_number_gt                2704
_reflns_number_total             3177
_reflns_threshold_expression     'I > 2\s(I)'
_cod_data_source_file            c8dt03360a2.cif
_cod_data_source_block           shelx_CCDC1
_cod_depositor_comments
'Adding full bibliography for 7048149--7048151.cif.'
_cod_database_code               7048150
_publcif_datablock.id            {e1e3c192-4d3f-4d40-ba70-0a5b636206d7}
_shelx_shelxl_version_number     2016/4
_shelx_space_group_comment
;
The symmetry employed for this shelxl refinement is uniquely defined
by the following loop, which should always be used as a source of
symmetry information in preference to the above space-group names.
They are only intended as comments.
;
_shelx_res_file
;
TITL SV357_ap_p-1 in P-1
 shelx.res created by SHELXL-2016/4 at 16:17:30 on 14-Dec-2016
CELL  0.71069   8.6750   9.2640  10.6010   91.874  103.182   94.722
ZERR     2.00   0.0050   0.0050   0.0050    0.005    0.005    0.005
LATT   1
SFAC  C    H    N    O    S    CL   PT
UNIT  26 40 4 2 2 4 2
MERG   2
OMIT     0.00  52.00
OMIT     4  -6   3
OMIT    -5   9   5
OMIT    -3   8   1
OMIT     5  -7   1
OMIT    -6   8   1
OMIT     5  -5   3
OMIT    -7   8   1
OMIT    -7   9   0
OMIT    -7   9   3
FMAP   2
PLAN   15
ACTA
LIST   4
L.S.  10
TEMP  -140.00
WGHT    0.048500
FVAR       0.41943
C1    1    0.315761    0.230482    0.171223    11.00000    0.02240    0.01848 =
         0.01340   -0.00013    0.00527   -0.00417
C7    1    0.275941   -0.039694    0.142198    11.00000    0.02862    0.01481 =
         0.01650   -0.00134    0.01070   -0.00150
AFIX  23
H7A   2    0.176614   -0.100867    0.102326    11.00000   -1.20000
H7B   2    0.289169   -0.037396    0.237523    11.00000   -1.20000
AFIX   0
C8    1    0.209908    0.140802   -0.031425    11.00000    0.01333    0.02424 =
         0.01562    0.00096    0.00465    0.00426
C11   1    0.136059    0.055353   -0.143606    11.00000    0.01630    0.02003 =
         0.02091   -0.00361    0.00497    0.00429
AFIX  43
H11   2    0.115383   -0.046820   -0.142208    11.00000   -1.20000
AFIX   0
C12   1    0.336556    0.494971    0.135954    11.00000    0.02571    0.01501 =
         0.02050    0.00055    0.00090   -0.00258
AFIX  23
H12A  2    0.380013    0.549433    0.071030    11.00000   -1.20000
H12B  2    0.417499    0.505235    0.219089    11.00000   -1.20000
AFIX   0
C13   1    0.186105    0.558169    0.153878    11.00000    0.02600    0.02699 =
         0.03039   -0.00645    0.00665   -0.00182
AFIX 137
H13A  2    0.115154    0.567561    0.068813    11.00000   -1.50000
H13B  2    0.213965    0.653919    0.199254    11.00000   -1.50000
H13C  2    0.132269    0.493740    0.205115    11.00000   -1.50000
AFIX   0
C100  1    0.235227    0.291113   -0.035439    11.00000    0.00857    0.03090 =
         0.01488   -0.00467    0.00308   -0.00487
C101  1    0.195317    0.361506   -0.149349    11.00000    0.02433    0.02196 =
         0.02357    0.00448    0.00836    0.00327
AFIX  43
H101  2    0.215048    0.463682   -0.151596    11.00000   -1.20000
AFIX   0
C102  1    0.125097    0.275889   -0.260212    11.00000    0.02308    0.03283 =
         0.01616    0.00484    0.00779    0.00506
AFIX  43
H102  2    0.096904    0.319945   -0.340934    11.00000   -1.20000
AFIX   0
C103  1    0.095173    0.127464   -0.255780    11.00000    0.02284    0.03733 =
         0.01545   -0.00233    0.00374    0.00461
AFIX  43
H103  2    0.044108    0.073015   -0.333729    11.00000   -1.20000
AFIX   0
C111  1    0.415743   -0.106008    0.106881    11.00000    0.02362    0.01830 =
         0.02295    0.00494    0.00836    0.00698
AFIX 137
H11A  2    0.398557   -0.115846    0.012253    11.00000   -1.50000
H11B  2    0.425409   -0.201843    0.142843    11.00000   -1.50000
H11C  2    0.513542   -0.043157    0.142739    11.00000   -1.50000
AFIX   0
N1    3    0.263061    0.108195    0.097534    11.00000    0.01856    0.01697 =
         0.01278    0.00133    0.00470    0.00390
N2    3    0.303368    0.341474    0.092626    11.00000    0.02074    0.01862 =
         0.01579   -0.00171    0.00500    0.00229
S1    5    0.643164    0.256394    0.349051    11.00000    0.01723    0.01991 =
         0.01478   -0.00133    0.00538    0.00160
CL1   6    0.473051    0.261666    0.589697    11.00000    0.02712    0.02959 =
         0.01156   -0.00101    0.00624    0.00055
CL3   6    0.126556    0.235135    0.372742    11.00000    0.01602    0.03408 =
         0.02413   -0.00508    0.01069   -0.00219
PT1   7    0.392981    0.245244    0.362600    11.00000    0.01652    0.01771 =
         0.01152   -0.00143    0.00562    0.00021
O1    4    0.675005    0.257594    0.218693    11.00000    0.02228    0.04086 =
         0.01883   -0.00020    0.00912   -0.00043
C200  1    0.736030    0.112617    0.433706    11.00000    0.02418    0.02503 =
         0.02337    0.00733    0.00354    0.00160
AFIX 137
H20A  2    0.689328    0.019681    0.388722    11.00000   -1.50000
H20B  2    0.719819    0.114934    0.522236    11.00000   -1.50000
H20C  2    0.850192    0.123891    0.436877    11.00000   -1.50000
AFIX   0
C201  1    0.753337    0.410558    0.441690    11.00000    0.01939    0.02514 =
         0.02562   -0.00331    0.00235   -0.00120
AFIX 137
H20D  2    0.863339    0.416215    0.432052    11.00000   -1.50000
H20E  2    0.752193    0.401625    0.533338    11.00000   -1.50000
H20F  2    0.705092    0.498647    0.410646    11.00000   -1.50000
AFIX   0
HKLF    4




REM  SV357_ap_p-1 in P-1
REM R1 =  0.0329 for    2704 Fo > 4sig(Fo)  and  0.0449 for all    3177 data
REM    185 parameters refined using      0 restraints

END

WGHT      0.0486      0.0000

REM Highest difference peak  2.520,  deepest hole -2.725,  1-sigma level  0.248
Q1    1   0.3004  0.2472  0.3128  11.00000  0.05    2.52
Q2    1   0.3673  0.1593  0.3923  11.00000  0.05    2.46
Q3    1   0.4230  0.3322  0.3423  11.00000  0.05    2.39
Q4    1   0.4886  0.2418  0.4120  11.00000  0.05    2.25
Q5    1   0.2568  0.2241  0.4265  11.00000  0.05    1.12
Q6    1   0.2536  0.0862  0.4212  11.00000  0.05    1.03
Q7    1   0.3047  0.3617  0.3969  11.00000  0.05    1.03
Q8    1   0.4783  0.1358  0.3384  11.00000  0.05    1.01
Q9    1   0.5292  0.1959  0.5118  11.00000  0.05    0.87
Q10   1   0.5289  0.2706  0.3044  11.00000  0.05    0.86
Q11   1   0.4207  0.4444  0.3463  11.00000  0.05    0.84
Q12   1   0.8160 -0.0188  0.5186  11.00000  0.05    0.79
Q13   1   0.3723  0.3372  0.5019  11.00000  0.05    0.79
Q14   1   0.1635  0.5914  0.0990  11.00000  0.05    0.76
Q15   1   0.5497  0.0256  0.5891  11.00000  0.05    0.75
;
_shelx_res_checksum              80183
loop_
_space_group_symop_operation_xyz
'x, y, z'
'-x, -y, -z'
loop_
_atom_site_label
_atom_site_type_symbol
_atom_site_fract_x
_atom_site_fract_y
_atom_site_fract_z
_atom_site_U_iso_or_equiv
_atom_site_adp_type
_atom_site_occupancy
_atom_site_site_symmetry_order
_atom_site_calc_flag
_atom_site_refinement_flags_posn
_atom_site_refinement_flags_adp
C1 C 0.3158(9) 0.2305(8) 0.1712(7) 0.0183(14) Uani 1 1 d . .
C7 C 0.2759(10) -0.0397(7) 0.1422(7) 0.0193(15) Uani 1 1 d . .
H7A H 0.176614 -0.100867 0.102326 0.023 Uiso 1 1 calc R U
H7B H 0.289169 -0.037396 0.237523 0.023 Uiso 1 1 calc R U
C8 C 0.2099(9) 0.1408(8) -0.0314(7) 0.0174(14) Uani 1 1 d . .
C11 C 0.1361(9) 0.0554(8) -0.1436(7) 0.0189(14) Uani 1 1 d . .
H11 H 0.115383 -0.046820 -0.142208 0.023 Uiso 1 1 calc R U
C12 C 0.3366(10) 0.4950(8) 0.1360(7) 0.0214(15) Uani 1 1 d . .
H12A H 0.380013 0.549433 0.071030 0.026 Uiso 1 1 calc R U
H12B H 0.417499 0.505235 0.219089 0.026 Uiso 1 1 calc R U
C13 C 0.1861(10) 0.5582(9) 0.1539(8) 0.0282(17) Uani 1 1 d . .
H13A H 0.115154 0.567561 0.068813 0.042 Uiso 1 1 calc R U
H13B H 0.213965 0.653919 0.199254 0.042 Uiso 1 1 calc R U
H13C H 0.132269 0.493740 0.205115 0.042 Uiso 1 1 calc R U
C100 C 0.2352(8) 0.2911(8) -0.0354(7) 0.0186(15) Uani 1 1 d . .
C101 C 0.1953(10) 0.3615(8) -0.1493(7) 0.0227(16) Uani 1 1 d . .
H101 H 0.215048 0.463682 -0.151596 0.027 Uiso 1 1 calc R U
C102 C 0.1251(10) 0.2759(9) -0.2602(7) 0.0233(16) Uani 1 1 d . .
H102 H 0.096904 0.319945 -0.340934 0.028 Uiso 1 1 calc R U
C103 C 0.0952(10) 0.1275(9) -0.2558(7) 0.0253(17) Uani 1 1 d . .
H103 H 0.044108 0.073015 -0.333729 0.030 Uiso 1 1 calc R U
C111 C 0.4157(9) -0.1060(8) 0.1069(7) 0.0208(15) Uani 1 1 d . .
H11A H 0.398557 -0.115846 0.012253 0.031 Uiso 1 1 calc R U
H11B H 0.425409 -0.201843 0.142843 0.031 Uiso 1 1 calc R U
H11C H 0.513542 -0.043157 0.142739 0.031 Uiso 1 1 calc R U
N1 N 0.2631(7) 0.1082(6) 0.0975(5) 0.0158(12) Uani 1 1 d . .
N2 N 0.3034(8) 0.3415(6) 0.0926(6) 0.0183(12) Uani 1 1 d . .
S1 S 0.6432(2) 0.25639(19) 0.34905(16) 0.0171(4) Uani 1 1 d . .
CL1 Cl 0.4731(2) 0.2617(2) 0.58970(15) 0.0226(4) Uani 1 1 d . .
CL2 Cl 0.1266(2) 0.2351(2) 0.37274(17) 0.0242(4) Uani 1 1 d . .
PT1 Pt 0.39298(3) 0.24524(3) 0.36260(2) 0.01500(10) Uani 1 1 d . .
O1 O 0.6750(7) 0.2576(6) 0.2187(5) 0.0268(12) Uani 1 1 d . .
C200 C 0.7360(10) 0.1126(8) 0.4337(7) 0.0244(16) Uani 1 1 d . .
H20A H 0.689328 0.019681 0.388722 0.037 Uiso 1 1 calc R U
H20B H 0.719819 0.114934 0.522236 0.037 Uiso 1 1 calc R U
H20C H 0.850192 0.123891 0.436877 0.037 Uiso 1 1 calc R U
C201 C 0.7533(10) 0.4106(8) 0.4417(8) 0.0241(16) Uani 1 1 d . .
H20D H 0.863339 0.416215 0.432052 0.036 Uiso 1 1 calc R U
H20E H 0.752193 0.401625 0.533338 0.036 Uiso 1 1 calc R U
H20F H 0.705092 0.498647 0.410646 0.036 Uiso 1 1 calc R U
loop_
_atom_site_aniso_label
_atom_site_aniso_U_11
_atom_site_aniso_U_22
_atom_site_aniso_U_33
_atom_site_aniso_U_23
_atom_site_aniso_U_13
_atom_site_aniso_U_12
C1 0.022(4) 0.018(3) 0.013(3) 0.000(3) 0.005(3) -0.004(3)
C7 0.029(4) 0.015(3) 0.016(3) -0.001(3) 0.011(3) -0.001(3)
C8 0.013(4) 0.024(4) 0.016(3) 0.001(3) 0.005(3) 0.004(3)
C11 0.016(4) 0.020(3) 0.021(3) -0.004(3) 0.005(3) 0.004(3)
C12 0.026(4) 0.015(3) 0.021(3) 0.001(3) 0.001(3) -0.003(3)
C13 0.026(4) 0.027(4) 0.030(4) -0.006(3) 0.007(3) -0.002(3)
C100 0.009(3) 0.031(4) 0.015(3) -0.005(3) 0.003(3) -0.005(3)
C101 0.024(4) 0.022(4) 0.024(4) 0.004(3) 0.008(3) 0.003(3)
C102 0.023(4) 0.033(4) 0.016(3) 0.005(3) 0.008(3) 0.005(3)
C103 0.023(4) 0.037(4) 0.015(3) -0.002(3) 0.004(3) 0.005(3)
C111 0.024(4) 0.018(3) 0.023(4) 0.005(3) 0.008(3) 0.007(3)
N1 0.019(3) 0.017(3) 0.013(3) 0.001(2) 0.005(2) 0.004(2)
N2 0.021(3) 0.019(3) 0.016(3) -0.002(2) 0.005(2) 0.002(2)
S1 0.0172(9) 0.0199(8) 0.0148(8) -0.0013(6) 0.0054(7) 0.0016(7)
CL1 0.0271(10) 0.0296(9) 0.0116(7) -0.0010(6) 0.0062(7) 0.0005(8)
CL2 0.0160(9) 0.0341(9) 0.0241(8) -0.0051(7) 0.0107(7) -0.0022(7)
PT1 0.01652(15) 0.01771(14) 0.01152(14) -0.00143(9) 0.00562(9) 0.00021(10)
O1 0.022(3) 0.041(3) 0.019(3) 0.000(2) 0.009(2) 0.000(3)
C200 0.024(4) 0.025(4) 0.023(4) 0.007(3) 0.004(3) 0.002(3)
C201 0.019(4) 0.025(4) 0.026(4) -0.003(3) 0.002(3) -0.001(3)
loop_
_atom_type_symbol
_atom_type_description
_atom_type_scat_dispersion_real
_atom_type_scat_dispersion_imag
_atom_type_scat_source
C C 0.0033 0.0016 'International Tables Vol C Tables 4.2.6.8 and 6.1.1.4'
H H 0.0000 0.0000 'International Tables Vol C Tables 4.2.6.8 and 6.1.1.4'
N N 0.0061 0.0033 'International Tables Vol C Tables 4.2.6.8 and 6.1.1.4'
O O 0.0106 0.0060 'International Tables Vol C Tables 4.2.6.8 and 6.1.1.4'
S S 0.1246 0.1234 'International Tables Vol C Tables 4.2.6.8 and 6.1.1.4'
Cl Cl 0.1484 0.1585 'International Tables Vol C Tables 4.2.6.8 and 6.1.1.4'
Pt Pt -1.7033 8.3905 'International Tables Vol C Tables 4.2.6.8 and 6.1.1.4'
loop_
_geom_angle_atom_site_label_1
_geom_angle_atom_site_label_2
_geom_angle_atom_site_label_3
_geom_angle
N2 C1 N1 107.7(6)
N2 C1 PT1 126.1(5)
N1 C1 PT1 126.2(5)
N1 C7 C111 111.4(6)
N1 C8 C100 106.5(6)
N1 C8 C11 132.7(7)
C100 C8 C11 120.7(7)
C103 C11 C8 116.3(7)
N2 C12 C13 110.8(6)
C101 C100 C8 122.2(7)
C101 C100 N2 132.3(7)
C8 C100 N2 105.5(6)
C100 C101 C102 116.7(7)
C103 C102 C101 121.3(7)
C11 C103 C102 122.8(7)
C1 N1 C8 110.0(6)
C1 N1 C7 125.4(6)
C8 N1 C7 124.2(6)
C1 N2 C100 110.2(6)
C1 N2 C12 125.0(6)
C100 N2 C12 124.3(6)
O1 S1 C200 109.4(4)
O1 S1 C201 108.0(4)
C200 S1 C201 101.2(4)
O1 S1 PT1 117.5(2)
C200 S1 PT1 109.2(3)
C201 S1 PT1 110.4(3)
C1 PT1 S1 92.1(2)
C1 PT1 CL2 86.9(2)
S1 PT1 CL2 178.84(7)
C1 PT1 CL1 177.6(2)
S1 PT1 CL1 90.35(7)
CL2 PT1 CL1 90.71(7)
loop_
_geom_bond_atom_site_label_1
_geom_bond_atom_site_label_2
_geom_bond_distance
C1 N2 1.340(9)
C1 N1 1.340(9)
C1 PT1 1.983(7)
C7 N1 1.469(9)
C7 C111 1.518(10)
C8 N1 1.391(9)
C8 C100 1.395(10)
C8 C11 1.400(10)
C11 C103 1.373(11)
C12 N2 1.465(9)
C12 C13 1.521(12)
C100 C101 1.379(11)
C100 N2 1.399(9)
C101 C102 1.384(11)
C102 C103 1.382(12)
S1 O1 1.470(5)
S1 C200 1.776(8)
S1 C201 1.781(8)
S1 PT1 2.202(2)
CL1 PT1 2.3447(19)
CL2 PT1 2.332(2)
loop_
_publcif_info_exptl_table_extra_item
sin_theta_over_lambda_max
