#------------------------------------------------------------------------------
#$Date: 2019-11-07 23:41:41 +0200 (Thu, 07 Nov 2019) $
#$Revision: 224081 $
#$URL: file:///home/coder/svn-repositories/cod/cif/7/04/86/7048619.cif $
#------------------------------------------------------------------------------
#
# This file is available in the Crystallography Open Database (COD),
# http://www.crystallography.net/
#
# All data on this site have been placed in the public domain by the
# contributors.
#
data_7048619
loop_
_publ_author_name
'Zhang, Yiying'
'Li, Yanan'
'Hu, Jianjian'
'Ge, Zhongxue'
'Sun, Chenghui'
'Pang, Siping'
_publ_section_title
;
 Energetic C-trinitromethyl-substituted pyrazoles: synthesis and
 characterization.
;
_journal_issue                   4
_journal_name_full
'Dalton transactions (Cambridge, England : 2003)'
_journal_page_first              1524
_journal_page_last               1529
_journal_paper_doi               10.1039/c8dt04712j
_journal_volume                  48
_journal_year                    2019
_chemical_formula_moiety         'C4 H2 N6 O8'
_chemical_formula_sum            'C4 H2 N6 O8'
_chemical_formula_weight         262.12
_space_group_crystal_system      monoclinic
_space_group_IT_number           14
_space_group_name_Hall           '-P 2ybc'
_space_group_name_H-M_alt        'P 1 21/c 1'
_symmetry_space_group_name_Hall  '-P 2ybc'
_symmetry_space_group_name_H-M   'P 1 21/c 1'
_atom_sites_solution_hydrogens   geom
_atom_sites_solution_primary     dual
_audit_creation_date             2017-07-18
_audit_creation_method
;
Olex2 1.2
(compiled 2017.03.28 svn.r3405 for OlexSys, GUI svn.r5337)
;
_audit_update_record
;
2018-01-02 deposited with the CCDC.
2018-12-28 downloaded from the CCDC.
;
_cell_angle_alpha                90
_cell_angle_beta                 106.73(3)
_cell_angle_gamma                90
_cell_formula_units_Z            4
_cell_length_a                   10.542(2)
_cell_length_b                   8.4713(17)
_cell_length_c                   10.792(2)
_cell_measurement_reflns_used    2893
_cell_measurement_temperature    153(2)
_cell_measurement_theta_max      27.4623
_cell_measurement_theta_min      2.0173
_cell_volume                     923.0(3)
_computing_molecular_graphics    'Olex2 (Dolomanov et al., 2009)'
_computing_publication_material  'Olex2 (Dolomanov et al., 2009)'
_computing_structure_refinement  'XL (Sheldrick, 2008)'
_computing_structure_solution    'ShelXT (Sheldrick, 2015)'
_diffrn_ambient_temperature      153.15
_diffrn_measured_fraction_theta_full 0.986
_diffrn_measured_fraction_theta_max 0.989
_diffrn_measurement_device_type  'multiwire proportional'
_diffrn_measurement_method       'phi and omega scans'
_diffrn_radiation_monochromator  graphite
_diffrn_radiation_type           MoK\a
_diffrn_radiation_wavelength     0.71073
_diffrn_reflns_av_R_equivalents  0.0454
_diffrn_reflns_av_unetI/netI     0.0399
_diffrn_reflns_Laue_measured_fraction_full 0.986
_diffrn_reflns_Laue_measured_fraction_max 0.989
_diffrn_reflns_limit_h_max       13
_diffrn_reflns_limit_h_min       -13
_diffrn_reflns_limit_k_max       10
_diffrn_reflns_limit_k_min       -10
_diffrn_reflns_limit_l_max       13
_diffrn_reflns_limit_l_min       -13
_diffrn_reflns_number            6248
_diffrn_reflns_point_group_measured_fraction_full 0.986
_diffrn_reflns_point_group_measured_fraction_max 0.989
_diffrn_reflns_theta_full        25.242
_diffrn_reflns_theta_max         27.460
_diffrn_reflns_theta_min         3.139
_exptl_absorpt_coefficient_mu    0.184
_exptl_absorpt_correction_T_max  1.0000
_exptl_absorpt_correction_T_min  0.8132
_exptl_absorpt_correction_type   multi-scan
_exptl_absorpt_process_details   'CrystalClear (Rigaku Inc., 2008)'
_exptl_crystal_colour            colorless
_exptl_crystal_density_diffrn    1.886
_exptl_crystal_description       block
_exptl_crystal_F_000             528
_exptl_crystal_size_max          0.2
_exptl_crystal_size_mid          0.16
_exptl_crystal_size_min          0.03
_refine_diff_density_max         0.212
_refine_diff_density_min         -0.292
_refine_diff_density_rms         0.060
_refine_ls_extinction_method     none
_refine_ls_goodness_of_fit_ref   1.173
_refine_ls_hydrogen_treatment    constr
_refine_ls_matrix_type           full
_refine_ls_number_parameters     163
_refine_ls_number_reflns         2082
_refine_ls_number_restraints     0
_refine_ls_restrained_S_all      1.173
_refine_ls_R_factor_all          0.0662
_refine_ls_R_factor_gt           0.0590
_refine_ls_shift/su_max          0.000
_refine_ls_shift/su_mean         0.000
_refine_ls_structure_factor_coef Fsqd
_refine_ls_weighting_details
'w=1/[\s^2^(Fo^2^)+(0.0449P)^2^+0.6652P] where P=(Fo^2^+2Fc^2^)/3'
_refine_ls_weighting_scheme      calc
_refine_ls_wR_factor_gt          0.1291
_refine_ls_wR_factor_ref         0.1334
_reflns_Friedel_coverage         0.000
_reflns_number_gt                1884
_reflns_number_total             2082
_reflns_threshold_expression     'I > 2\s(I)'
_iucr_refine_instructions_details
;

    201707-17.res created by SHELXL-2014/7

TITL 201707-17_a.res in P2(1)/c
CELL 0.71073 10.5415 8.4713 10.7919 90 106.73 90
ZERR 4 0.0021 0.0017 0.0022 0 0.03 0
LATT 1
SYMM -X,0.5+Y,0.5-Z
SFAC C H N O
UNIT 16 8 24 32
 
L.S. 4
PLAN  5
SIZE 0.2 0.16 0.03
TEMP -120
BOND $H
CONF
list 4
fmap 2
acta
OMIT -1 0 4
OMIT 1 4 1
OMIT 3 3 5
OMIT 4 3 5
OMIT -3 1 7
OMIT -5 1 7
OMIT 1 3 4
OMIT -3 1 8
OMIT 1 0 0
OMIT 2 3 5
REM <olex2.extras>
REM <HklSrc "%.\\201707-17.hkl">
REM </olex2.extras>
 
WGHT    0.044900    0.665200
FVAR       0.79828
PART 1
O1    4    0.687943    0.898356    0.303678    11.00000    0.04381    0.01922 =
         0.03750    0.00219    0.01231    0.00727
O2    4    0.869698    0.764903    0.329383    11.00000    0.02783    0.02761 =
         0.04525   -0.00358    0.00804   -0.00378
PART 0
O3    4    0.750697    0.676941    0.536545    11.00000    0.06308    0.03102 =
         0.02202   -0.00304    0.00963    0.00579
O4    4    0.630241    0.466344    0.472906    11.00000    0.04665    0.02729 =
         0.04202    0.00903    0.02692    0.00421
O5    4    0.465579    0.696739    0.317381    11.00000    0.03338    0.04328 =
         0.05122    0.00400    0.01977    0.01275
O6    4    0.498128    0.651143    0.130935    11.00000    0.03556    0.04612 =
         0.03129   -0.00238   -0.00494    0.00670
PART 1
O7    4    0.932671    0.062817    0.203341    11.00000    0.04141    0.02175 =
         0.03886   -0.00484    0.02125    0.00352
O8    4    0.961132    0.133089    0.404255    11.00000    0.04358    0.03463 =
         0.02821    0.00225    0.00458    0.01181
N1    3    0.752113    0.777005    0.314577    11.00000    0.03013    0.01926 =
         0.02055   -0.00120    0.00675   -0.00032
PART 0
N2    3    0.687914    0.584004    0.455248    11.00000    0.03579    0.02204 =
         0.02627    0.00271    0.01324    0.00737
N3    3    0.532352    0.657967    0.248004    11.00000    0.02560    0.02287 =
         0.03327    0.00187    0.00672    0.00143
N4    3    0.804809    0.378215    0.329038    11.00000    0.02288    0.01824 =
         0.01982   -0.00162    0.00763    0.00130
N5    3    0.840138    0.286430    0.243386    11.00000    0.02488    0.01701 =
         0.02152   -0.00162    0.00867    0.00162
PART 1
N6    3    0.918809    0.147484    0.288888    11.00000    0.02628    0.01811 =
         0.03396   -0.00079    0.01181    0.00139
PART 0
C1    1    0.678195    0.619396    0.313944    11.00000    0.02455    0.02003 =
         0.01990    0.00234    0.00522   -0.00065
C2    1    0.732967    0.489768    0.252542    11.00000    0.02340    0.01765 =
         0.02086   -0.00001    0.00548   -0.00325
C3    1    0.724719    0.468364    0.120964    11.00000    0.03681    0.02038 =
         0.01832    0.00038    0.00759   -0.00335
AFIX  43
H3    2    0.679983    0.533149    0.049976    11.00000   -1.20000
AFIX   0
C4    1    0.795523    0.333386    0.118055    11.00000    0.03540    0.02116 =
         0.01826   -0.00338    0.01104   -0.00362
AFIX  43
H4    2    0.810156    0.283627    0.044477    11.00000   -1.20000
AFIX   0
HKLF 4
 
REM  201707-17_a.res in P2(1)/c
REM R1 =  0.0590 for    1884 Fo > 4sig(Fo)  and  0.0662 for all    2082 data
REM    163 parameters refined using      0 restraints
 
END  
     
WGHT      0.0449      0.6652 

REM Highest difference peak  0.212,  deepest hole -0.292,  1-sigma level  0.060
Q1    1   0.7051  0.6721  0.3227  11.00000  0.05    0.21
Q2    1   0.7685  0.7532  0.4445  11.00000  0.05    0.20
Q3    1   0.6019  0.4177  0.3607  11.00000  0.05    0.19
Q4    1   0.3953  0.6477  0.1896  11.00000  0.05    0.18
Q5    1   1.0639  0.0666  0.2400  11.00000  0.05    0.18

  REM The information below was added by Olex2.
  REM
  REM R1 = 0.0590 for 1884 Fo > 4sig(Fo) and 0.0662 for all 6521 data
  REM n/a parameters refined using n/a restraints
  REM Highest difference peak 0.21, deepest hole -0.29
  REM Mean Shift 0, Max Shift 0.000.

  REM +++ Tabular Listing of Refinement Information +++
  REM R1_all = 0.0662
  REM R1_gt = 0.0590
  REM wR_ref = 0.1334
  REM GOOF = 1.173
  REM Shift_max = 0.000
  REM Shift_mean = 0
  REM Reflections_all = 6521
  REM Reflections_gt = 1884
  REM Parameters = n/a
  REM Hole = -0.29
  REM Peak = 0.21
  REM Flack = n/a

  
;
_cod_data_source_file            c8dt04712j2.cif
_cod_data_source_block           201707-17
_cod_depositor_comments
'Adding full bibliography for 7048619--7048620.cif.'
_cod_original_cell_volume        922.9(4)
_cod_database_code               7048619
_shelx_shelxl_version_number     2014/7
_shelx_space_group_comment
;
The symmetry employed for this shelxl refinement is uniquely defined
by the following loop, which should always be used as a source of
symmetry information in preference to the above space-group names.
They are only intended as comments.
;
_shelx_estimated_absorpt_t_max   0.994
_shelx_estimated_absorpt_t_min   0.964
_olex2_refinement_description
;
1. Fixed Uiso
 At 1.2 times of:
  All C(H) groups
2.a Aromatic/amide H refined with riding coordinates:
 C3(H3), C4(H4)
;
_olex2_submission_special_instructions 'No special instructions were received'
loop_
_space_group_symop_operation_xyz
'x, y, z'
'-x, y+1/2, -z+1/2'
'-x, -y, -z'
'x, -y-1/2, z-1/2'
loop_
_atom_site_label
_atom_site_type_symbol
_atom_site_fract_x
_atom_site_fract_y
_atom_site_fract_z
_atom_site_U_iso_or_equiv
_atom_site_adp_type
_atom_site_occupancy
_atom_site_site_symmetry_order
_atom_site_calc_flag
_atom_site_refinement_flags_posn
_atom_site_disorder_assembly
_atom_site_disorder_group
O1 O 0.68794(18) 0.89836(19) 0.30368(17) 0.0334(4) Uani 1 1 d . A 1
O2 O 0.86970(16) 0.7649(2) 0.32938(18) 0.0341(4) Uani 1 1 d . A 1
O3 O 0.7507(2) 0.6769(2) 0.53654(17) 0.0393(5) Uani 1 1 d . . .
O4 O 0.63024(18) 0.4663(2) 0.47291(18) 0.0357(4) Uani 1 1 d . . .
O5 O 0.46558(18) 0.6967(2) 0.3174(2) 0.0410(5) Uani 1 1 d . . .
O6 O 0.49813(18) 0.6511(2) 0.13094(18) 0.0407(5) Uani 1 1 d . . .
O7 O 0.93267(18) 0.06282(19) 0.20334(18) 0.0320(4) Uani 1 1 d . B 1
O8 O 0.96113(18) 0.1331(2) 0.40425(17) 0.0367(4) Uani 1 1 d . B 1
N1 N 0.75211(19) 0.7770(2) 0.31458(18) 0.0234(4) Uani 1 1 d . A 1
N2 N 0.6879(2) 0.5840(2) 0.45525(19) 0.0271(4) Uani 1 1 d . . .
N3 N 0.53235(19) 0.6580(2) 0.2480(2) 0.0276(4) Uani 1 1 d . . .
N4 N 0.80481(17) 0.3782(2) 0.32904(17) 0.0200(4) Uani 1 1 d . . .
N5 N 0.84014(18) 0.2864(2) 0.24339(18) 0.0207(4) Uani 1 1 d . . .
N6 N 0.91881(19) 0.1475(2) 0.2889(2) 0.0255(4) Uani 1 1 d . B 1
C1 C 0.6782(2) 0.6194(3) 0.3139(2) 0.0217(5) Uani 1 1 d . . .
C2 C 0.7330(2) 0.4898(2) 0.2525(2) 0.0208(4) Uani 1 1 d . . .
C3 C 0.7247(2) 0.4684(3) 0.1210(2) 0.0252(5) Uani 1 1 d . . .
H3 H 0.6800 0.5331 0.0500 0.030 Uiso 1 1 calc R . .
C4 C 0.7955(2) 0.3334(3) 0.1181(2) 0.0242(5) Uani 1 1 d . . .
H4 H 0.8102 0.2836 0.0445 0.029 Uiso 1 1 calc R . .
loop_
_atom_site_aniso_label
_atom_site_aniso_U_11
_atom_site_aniso_U_22
_atom_site_aniso_U_33
_atom_site_aniso_U_23
_atom_site_aniso_U_13
_atom_site_aniso_U_12
O1 0.0438(10) 0.0192(8) 0.0375(10) 0.0022(7) 0.0123(8) 0.0073(7)
O2 0.0278(9) 0.0276(9) 0.0452(11) -0.0036(8) 0.0080(8) -0.0038(7)
O3 0.0631(13) 0.0310(10) 0.0220(9) -0.0030(7) 0.0096(8) 0.0058(9)
O4 0.0466(10) 0.0273(9) 0.0420(11) 0.0090(8) 0.0269(9) 0.0042(8)
O5 0.0334(10) 0.0433(11) 0.0512(12) 0.0040(9) 0.0198(9) 0.0128(8)
O6 0.0356(10) 0.0461(11) 0.0313(10) -0.0024(9) -0.0049(8) 0.0067(9)
O7 0.0414(9) 0.0218(8) 0.0389(10) -0.0048(7) 0.0212(8) 0.0035(7)
O8 0.0436(10) 0.0346(10) 0.0282(10) 0.0023(8) 0.0046(8) 0.0118(8)
N1 0.0301(10) 0.0193(9) 0.0206(10) -0.0012(7) 0.0068(7) -0.0003(8)
N2 0.0358(11) 0.0220(9) 0.0263(10) 0.0027(8) 0.0132(8) 0.0074(8)
N3 0.0256(10) 0.0229(10) 0.0333(11) 0.0019(8) 0.0067(9) 0.0014(8)
N4 0.0229(9) 0.0182(9) 0.0198(9) -0.0016(7) 0.0076(7) 0.0013(7)
N5 0.0249(9) 0.0170(8) 0.0215(9) -0.0016(7) 0.0087(7) 0.0016(7)
N6 0.0263(9) 0.0181(9) 0.0340(11) -0.0008(8) 0.0118(8) 0.0014(7)
C1 0.0246(10) 0.0200(10) 0.0199(11) 0.0023(8) 0.0052(8) -0.0007(8)
C2 0.0234(10) 0.0176(10) 0.0209(11) 0.0000(8) 0.0055(8) -0.0033(8)
C3 0.0368(12) 0.0204(10) 0.0183(11) 0.0004(9) 0.0076(9) -0.0033(9)
C4 0.0354(12) 0.0212(11) 0.0183(11) -0.0034(8) 0.0110(9) -0.0036(9)
loop_
_atom_type_symbol
_atom_type_description
_atom_type_scat_dispersion_real
_atom_type_scat_dispersion_imag
_atom_type_scat_source
C C 0.0033 0.0016 'International Tables Vol C Tables 4.2.6.8 and 6.1.1.4'
H H 0.0000 0.0000 'International Tables Vol C Tables 4.2.6.8 and 6.1.1.4'
N N 0.0061 0.0033 'International Tables Vol C Tables 4.2.6.8 and 6.1.1.4'
O O 0.0106 0.0060 'International Tables Vol C Tables 4.2.6.8 and 6.1.1.4'
loop_
_geom_angle_atom_site_label_1
_geom_angle_atom_site_label_2
_geom_angle_atom_site_label_3
_geom_angle
O1 N1 C1 117.63(18)
O2 N1 O1 127.23(19)
O2 N1 C1 115.11(17)
O3 N2 C1 117.18(19)
O4 N2 O3 127.6(2)
O4 N2 C1 115.22(19)
O5 N3 C1 117.0(2)
O6 N3 O5 127.3(2)
O6 N3 C1 115.60(19)
C2 N4 N5 101.81(17)
N4 N5 N6 119.04(17)
N4 N5 C4 115.59(18)
C4 N5 N6 125.36(18)
O7 N6 N5 114.06(19)
O8 N6 O7 129.8(2)
O8 N6 N5 116.18(18)
N2 C1 N1 106.04(17)
N2 C1 N3 105.99(17)
N3 C1 N1 104.78(16)
C2 C1 N1 112.41(18)
C2 C1 N2 112.19(17)
C2 C1 N3 114.72(18)
N4 C2 C1 118.14(19)
N4 C2 C3 113.01(19)
C3 C2 C1 128.8(2)
C2 C3 H3 127.6
C4 C3 C2 104.7(2)
C4 C3 H3 127.6
N5 C4 C3 104.86(19)
N5 C4 H4 127.6
C3 C4 H4 127.6
loop_
_geom_bond_atom_site_label_1
_geom_bond_atom_site_label_2
_geom_bond_distance
O1 N1 1.218(2)
O2 N1 1.208(2)
O3 N2 1.222(3)
O4 N2 1.211(3)
O5 N3 1.211(3)
O6 N3 1.211(3)
O7 N6 1.211(3)
O8 N6 1.202(3)
N1 C1 1.545(3)
N2 C1 1.528(3)
N3 C1 1.532(3)
N4 N5 1.340(2)
N4 C2 1.337(3)
N5 N6 1.442(3)
N5 C4 1.357(3)
C1 C2 1.483(3)
C2 C3 1.409(3)
C3 H3 0.9500
C3 C4 1.371(3)
C4 H4 0.9500
loop_
_geom_torsion_atom_site_label_1
_geom_torsion_atom_site_label_2
_geom_torsion_atom_site_label_3
_geom_torsion_atom_site_label_4
_geom_torsion
O1 N1 C1 N2 -90.7(2)
O1 N1 C1 N3 21.2(2)
O1 N1 C1 C2 146.4(2)
O2 N1 C1 N2 87.5(2)
O2 N1 C1 N3 -160.61(18)
O2 N1 C1 C2 -35.4(3)
O3 N2 C1 N1 -2.0(2)
O3 N2 C1 N3 -113.0(2)
O3 N2 C1 C2 121.1(2)
O4 N2 C1 N1 177.22(17)
O4 N2 C1 N3 66.2(2)
O4 N2 C1 C2 -59.7(2)
O5 N3 C1 N1 -91.9(2)
O5 N3 C1 N2 20.0(3)
O5 N3 C1 C2 144.3(2)
O6 N3 C1 N1 85.7(2)
O6 N3 C1 N2 -162.45(19)
O6 N3 C1 C2 -38.1(3)
N1 C1 C2 N4 106.6(2)
N1 C1 C2 C3 -70.7(3)
N2 C1 C2 N4 -12.8(3)
N2 C1 C2 C3 169.9(2)
N3 C1 C2 N4 -133.8(2)
N3 C1 C2 C3 48.9(3)
N4 N5 N6 O7 171.88(18)
N4 N5 N6 O8 -8.6(3)
N4 N5 C4 C3 0.2(3)
N4 C2 C3 C4 0.7(3)
N5 N4 C2 C1 -178.22(18)
N5 N4 C2 C3 -0.5(2)
N6 N5 C4 C3 179.20(19)
C1 C2 C3 C4 178.0(2)
C2 N4 N5 N6 -178.87(17)
C2 N4 N5 C4 0.2(2)
C2 C3 C4 N5 -0.5(2)
C4 N5 N6 O7 -7.1(3)
C4 N5 N6 O8 172.5(2)
