#------------------------------------------------------------------------------
#$Date: 2019-11-07 23:07:55 +0200 (Thu, 07 Nov 2019) $
#$Revision: 223941 $
#$URL: file:///home/coder/svn-repositories/cod/cif/7/04/80/7048058.cif $
#------------------------------------------------------------------------------
#
# This file is available in the Crystallography Open Database (COD),
# http://www.crystallography.net/
#
# All data on this site have been placed in the public domain by the
# contributors.
#
data_7048058
loop_
_publ_author_name
'Saal, Thomas'
'Christe, Karl O.'
'Haiges, Ralf'
_publ_section_title
;
 Lewis adduct formation of hydrogen cyanide and nitriles with arsenic and
 antimony pentafluoride.
;
_journal_issue                   1
_journal_name_full
'Dalton transactions (Cambridge, England : 2003)'
_journal_page_first              99
_journal_page_last               106
_journal_paper_doi               10.1039/c8dt03970d
_journal_volume                  48
_journal_year                    2018
_chemical_formula_sum            'C3 H2 F5 N2 Sb'
_chemical_formula_weight         282.82
_space_group_crystal_system      monoclinic
_space_group_IT_number           14
_space_group_name_Hall           '-P 2yn'
_space_group_name_H-M_alt        'P 1 21/n 1'
_symmetry_space_group_name_Hall  '-P 2yn'
_symmetry_space_group_name_H-M   'P 1 21/n 1'
_atom_sites_solution_hydrogens   geom
_audit_update_record
;
2018-07-13 deposited with the CCDC.
2018-11-14 downloaded from the CCDC.
;
_cell_angle_alpha                90
_cell_angle_beta                 102.140(5)
_cell_angle_gamma                90
_cell_formula_units_Z            4
_cell_length_a                   5.3862(16)
_cell_length_b                   15.562(5)
_cell_length_c                   8.490(3)
_cell_measurement_reflns_used    8451
_cell_measurement_temperature    100.(2)
_cell_measurement_theta_max      30.4563
_cell_measurement_theta_min      2.6176
_cell_volume                     695.7(4)
_computing_cell_refinement       'APEX2 v2014.11-0 (Bruker AXS, 2014)'
_computing_data_collection
'Bruker Instrument Service v2012.12.0.3 (Bruker AXS, 2012)'
_computing_data_reduction        'SAINT V8.34A (Bruker AXS, 2013)'
_computing_publication_material  'SHELXTL XT 2014/4 (Bruker AXS, 2014)'
_computing_structure_refinement  'SHELXTL XL 2014/7 (Bruker AXS, 2014)'
_computing_structure_solution    'SHELXTL XT 2014/4 (Bruker AXS, 2014)'
_diffrn_ambient_temperature      100.(2)
_diffrn_detector_area_resol_mean 8.3333
_diffrn_measured_fraction_theta_full 0.995
_diffrn_measured_fraction_theta_max 0.995
_diffrn_measurement_device_type  'Bruker APEX II CCD'
_diffrn_measurement_method       'omega- and phi-scans'
_diffrn_radiation_monochromator  'TRIUMPH curved-crystal'
_diffrn_radiation_type           'MoK\a '
_diffrn_radiation_wavelength     0.71073
_diffrn_reflns_av_R_equivalents  0.0647
_diffrn_reflns_av_unetI/netI     0.0396
_diffrn_reflns_limit_h_max       7
_diffrn_reflns_limit_h_min       -7
_diffrn_reflns_limit_k_max       22
_diffrn_reflns_limit_k_min       -22
_diffrn_reflns_limit_l_max       12
_diffrn_reflns_limit_l_min       -12
_diffrn_reflns_number            15914
_diffrn_reflns_theta_full        30.50
_diffrn_reflns_theta_max         30.50
_diffrn_reflns_theta_min         2.62
_diffrn_source                   'fine-focus tube'
_exptl_absorpt_coefficient_mu    3.997
_exptl_absorpt_correction_T_max  0.75
_exptl_absorpt_correction_T_min  0.44
_exptl_absorpt_correction_type   multi-scan
_exptl_absorpt_process_details   'SADABS 2014/5 (Bruker AXS, 2014)'
_exptl_crystal_colour            red
_exptl_crystal_density_diffrn    2.700
_exptl_crystal_density_method    'not measured'
_exptl_crystal_description       prism
_exptl_crystal_F_000             520
_exptl_crystal_size_max          0.323
_exptl_crystal_size_mid          0.171
_exptl_crystal_size_min          0.078
_refine_diff_density_max         1.820
_refine_diff_density_min         -1.064
_refine_ls_extinction_method     none
_refine_ls_goodness_of_fit_ref   1.107
_refine_ls_hydrogen_treatment    constr
_refine_ls_matrix_type           full
_refine_ls_number_parameters     100
_refine_ls_number_reflns         2112
_refine_ls_number_restraints     0
_refine_ls_restrained_S_all      1.107
_refine_ls_R_factor_all          0.0573
_refine_ls_R_factor_gt           0.0402
_refine_ls_shift/su_max          0.000
_refine_ls_shift/su_mean         0.000
_refine_ls_structure_factor_coef Fsqd
_refine_ls_weighting_details
'w=1/[\s^2^(Fo^2^)+(0.0474P)^2^+3.0277P] where P=(Fo^2^+2Fc^2^)/3'
_refine_ls_weighting_scheme      calc
_refine_ls_wR_factor_gt          0.0942
_refine_ls_wR_factor_ref         0.1024
_reflns_number_gt                1691
_reflns_number_total             2112
_reflns_threshold_expression     'I > 2\s(I)'
_cod_data_source_file            c8dt03970d2.cif
_cod_data_source_block           I_CCDC2
_cod_depositor_comments
'Adding full bibliography for 7048050--7048060.cif.'
_cod_database_code               7048058
_shelx_res_file
;
TITL final_a.res in P2(1)/n
CELL  0.71073   5.3862  15.5624   8.4897   90.000  102.140   90.000
ZERR    4.000   0.0016   0.0045   0.0025    0.000    0.005    0.000
LATT 1
SYMM 1/2-X, 1/2+Y, 1/2-Z
SFAC C  H  N  F  Sb
UNIT 12 8 8 20 4
LIST 4
L.S. 10
ACTA 58
CONF
BOND $H
FMAP 2
PLAN 5
SIZE 0.078 0.171 0.323
TEMP -173.150
WGHT    0.047400    3.027700
FVAR       0.40143
C1    1    0.614000    0.833222    0.299970    11.00000    0.01512    0.01489 =
         0.01585    0.00083    0.00175    0.00214
C2    1    0.711278    0.920833    0.294063    11.00000    0.01930    0.01371 =
         0.01984    0.00258    0.00443   -0.00114
AFIX  23
H2A   2    0.621311    0.959568    0.355835    11.00000   -1.20000
H2B   2    0.676336    0.940877    0.180871    11.00000   -1.20000
AFIX   0
C3    1    0.985279    0.925461    0.360843    11.00000    0.02019    0.01039 =
         0.02072   -0.00211    0.01019    0.00013
F1    4    0.221068    0.544907    0.404821    11.00000    0.03021    0.01627 =
         0.02848   -0.00012    0.00690   -0.00906
F2    4    0.212086    0.643219    0.135911    11.00000    0.03212    0.02172 =
         0.01791   -0.00208   -0.00473   -0.00291
F3    4    0.102213    0.714054    0.397390    11.00000    0.02752    0.01966 =
         0.04799   -0.00881    0.02060   -0.00240
F4    4    0.539994    0.662917    0.566735    11.00000    0.05405    0.02460 =
         0.01453    0.00093   -0.00375   -0.01370
F5    4    0.651003    0.593151    0.307478    11.00000    0.02021    0.01562 =
         0.04708   -0.00205    0.01010    0.00381
N1    3    0.532670    0.765707    0.303545    11.00000    0.01859    0.01486 =
         0.01723    0.00107    0.00377    0.00078
N2    3    1.198565    0.932525    0.414091    11.00000    0.02048    0.01743 =
         0.02292   -0.00162    0.00471    0.00004
SB1   5    0.366759    0.647593    0.353616    11.00000    0.01866    0.01123 =
         0.01497   -0.00078    0.00319   -0.00226
HKLF 4

REM  final_a.res in P2(1)/n
REM R1 =  0.0402 for    1691 Fo > 4sig(Fo)  and  0.0573 for all    2112 data
REM    100 parameters refined using      0 restraints

END

WGHT      0.0474      3.0277

REM Highest difference peak  1.820,  deepest hole -1.064,  1-sigma level  0.241
Q1    1   0.5016  0.6457  0.3268  11.00000  0.05    1.82
Q2    1   0.2168  0.6495  0.3727  11.00000  0.05    1.68
Q3    1   0.3569  0.7230  0.3417  11.00000  0.05    1.33
Q4    1   0.3128  0.6449  0.2460  11.00000  0.05    1.11
Q5    1   0.3587  0.5689  0.3525  11.00000  0.05    0.92
;
_shelx_res_checksum              82909
loop_
_space_group_symop_operation_xyz
'x, y, z'
'-x+1/2, y+1/2, -z+1/2'
'-x, -y, -z'
'x-1/2, -y-1/2, z-1/2'
loop_
_atom_site_type_symbol
_atom_site_label
_atom_site_fract_x
_atom_site_fract_y
_atom_site_fract_z
_atom_site_U_iso_or_equiv
_atom_site_adp_type
_atom_site_calc_flag
_atom_site_refinement_flags_adp
_atom_site_refinement_flags_posn
_atom_site_occupancy
C C1 0.6140(10) 0.8332(3) 0.3000(6) 0.0155(9) Uani d . . 1
C C2 0.7113(10) 0.9208(3) 0.2941(7) 0.0176(10) Uani d . . 1
H H2A 0.6213 0.9596 0.3558 0.021 Uiso calc U R 1
H H2B 0.6763 0.9409 0.1809 0.021 Uiso calc U R 1
C C3 0.9853(10) 0.9255(3) 0.3608(6) 0.0162(9) Uani d . . 1
F F1 0.2211(7) 0.5449(2) 0.4048(4) 0.0249(7) Uani d . . 1
F F2 0.2121(7) 0.6432(2) 0.1359(4) 0.0254(7) Uani d . . 1
F F3 0.1022(7) 0.7141(2) 0.3974(5) 0.0299(8) Uani d . . 1
F F4 0.5400(8) 0.6629(2) 0.5667(4) 0.0327(9) Uani d . . 1
F F5 0.6510(6) 0.5932(2) 0.3075(5) 0.0272(7) Uani d . . 1
N N1 0.5327(8) 0.7657(3) 0.3035(5) 0.0169(8) Uani d . . 1
N N2 1.1986(9) 0.9325(3) 0.4141(6) 0.0203(9) Uani d . . 1
Sb Sb1 0.36676(6) 0.64759(2) 0.35362(4) 0.01500(11) Uani d . . 1
loop_
_atom_site_aniso_label
_atom_site_aniso_U_11
_atom_site_aniso_U_22
_atom_site_aniso_U_33
_atom_site_aniso_U_12
_atom_site_aniso_U_13
_atom_site_aniso_U_23
C1 0.015(2) 0.015(2) 0.016(2) 0.0021(17) 0.0018(18) 0.0008(17)
C2 0.019(2) 0.014(2) 0.020(2) -0.0011(18) 0.0044(19) 0.0026(18)
C3 0.020(2) 0.010(2) 0.021(2) 0.0001(18) 0.0102(19) -0.0021(17)
F1 0.0302(18) 0.0163(15) 0.0285(17) -0.0091(13) 0.0069(14) -0.0001(13)
F2 0.0321(18) 0.0217(16) 0.0179(15) -0.0029(14) -0.0047(13) -0.0021(12)
F3 0.0275(18) 0.0197(16) 0.048(2) -0.0024(14) 0.0206(17) -0.0088(15)
F4 0.054(3) 0.0246(18) 0.0145(15) -0.0137(16) -0.0037(16) 0.0009(13)
F5 0.0202(16) 0.0156(15) 0.047(2) 0.0038(13) 0.0101(15) -0.0021(14)
N1 0.019(2) 0.0149(19) 0.0172(19) 0.0008(16) 0.0038(16) 0.0011(15)
N2 0.020(2) 0.017(2) 0.023(2) 0.0000(17) 0.0047(18) -0.0016(17)
Sb1 0.01866(17) 0.01123(16) 0.01497(17) -0.00226(13) 0.00319(11) -0.00078(12)
loop_
_atom_type_symbol
_atom_type_description
_atom_type_scat_dispersion_real
_atom_type_scat_dispersion_imag
_atom_type_scat_source
C C 0.0033 0.0016 'International Tables Vol C Tables 4.2.6.8 and 6.1.1.4'
H H 0.0000 0.0000 'International Tables Vol C Tables 4.2.6.8 and 6.1.1.4'
N N 0.0061 0.0033 'International Tables Vol C Tables 4.2.6.8 and 6.1.1.4'
F F 0.0171 0.0103 'International Tables Vol C Tables 4.2.6.8 and 6.1.1.4'
Sb Sb -0.5866 1.5461 'International Tables Vol C Tables 4.2.6.8 and 6.1.1.4'
loop_
_geom_angle_atom_site_label_1
_geom_angle_atom_site_label_2
_geom_angle_atom_site_label_3
_geom_angle
N1 C1 C2 178.4(5)
C1 C2 C3 111.7(4)
C1 C2 H2A 109.3
C3 C2 H2A 109.3
C1 C2 H2B 109.3
C3 C2 H2B 109.3
H2A C2 H2B 107.9
N2 C3 C2 177.3(5)
C1 N1 Sb1 168.9(4)
F3 Sb1 F2 90.97(17)
F3 Sb1 F5 173.28(15)
F2 Sb1 F5 89.46(17)
F3 Sb1 F4 89.03(19)
F2 Sb1 F4 173.69(15)
F5 Sb1 F4 89.80(18)
F3 Sb1 F1 92.99(15)
F2 Sb1 F1 94.44(15)
F5 Sb1 F1 93.66(15)
F4 Sb1 F1 91.86(15)
F3 Sb1 N1 86.05(16)
F2 Sb1 N1 87.26(16)
F5 Sb1 N1 87.28(16)
F4 Sb1 N1 86.44(16)
F1 Sb1 N1 178.06(16)
loop_
_geom_bond_atom_site_label_1
_geom_bond_atom_site_label_2
_geom_bond_distance
C1 N1 1.141(7)
C1 C2 1.465(7)
C2 C3 1.467(8)
C2 H2A 0.99
C2 H2B 0.99
C3 N2 1.148(7)
F1 Sb1 1.871(3)
F2 Sb1 1.862(3)
F3 Sb1 1.860(3)
F4 Sb1 1.868(3)
F5 Sb1 1.862(3)
N1 Sb1 2.126(4)
