#------------------------------------------------------------------------------
#$Date: 2019-11-08 01:17:39 +0200 (Fri, 08 Nov 2019) $
#$Revision: 224462 $
#$URL: file:///home/coder/svn-repositories/cod/cif/7/04/89/7048995.cif $
#------------------------------------------------------------------------------
#
# This file is available in the Crystallography Open Database (COD),
# http://www.crystallography.net/
#
# All data on this site have been placed in the public domain by the
# contributors.
#
data_7048995
loop_
_publ_author_name
'Bachmann, Michael'
'Fessler, Reto'
'Blacque, Olivier'
'Venkatesan, Koushik'
_publ_section_title
;
 Towards blue emitting monocyclometalated gold(iii) complexes - synthesis,
 characterization and photophysical investigations.
;
_journal_issue                   21
_journal_name_full
'Dalton transactions (Cambridge, England : 2003)'
_journal_page_first              7320
_journal_page_last               7330
_journal_paper_doi               10.1039/c8dt05034a
_journal_volume                  48
_journal_year                    2019
_chemical_formula_moiety         'C12 H9 F3 N O, Au Cl4'
_chemical_formula_sum            'C12 H9 Au Cl4 F3 N O'
_chemical_formula_weight         578.97
_space_group_crystal_system      triclinic
_space_group_IT_number           2
_space_group_name_Hall           '-P 1'
_space_group_name_H-M_alt        'P -1'
_symmetry_space_group_name_Hall  '-P 1'
_symmetry_space_group_name_H-M   'P -1'
_atom_sites_solution_hydrogens   mixed
_atom_sites_solution_primary     dual
_audit_creation_date             2018-09-24
_audit_creation_method
;
Olex2 1.2
(compiled 2018.05.29 svn.r3508 for OlexSys, GUI svn.r5506)
;
_audit_update_record
;
2018-09-24 deposited with the CCDC.
2019-02-12 downloaded from the CCDC.
;
_cell_angle_alpha                98.035(2)
_cell_angle_beta                 94.660(2)
_cell_angle_gamma                95.709(2)
_cell_formula_units_Z            2
_cell_length_a                   7.9515(2)
_cell_length_b                   9.0911(2)
_cell_length_c                   11.4209(3)
_cell_measurement_reflns_used    10644
_cell_measurement_temperature    183(1)
_cell_measurement_theta_max      76.4410
_cell_measurement_theta_min      3.9170
_cell_volume                     809.63(3)
_computing_cell_refinement       'CrysAlisPro 1.171.39.13a (Rigaku OD, 2015)'
_computing_data_collection       'CrysAlisPro 1.171.39.13a (Rigaku OD, 2015)'
_computing_data_reduction        'CrysAlisPro 1.171.39.13a (Rigaku OD, 2015)'
_computing_molecular_graphics    'Olex2 (Dolomanov et al., 2009)'
_computing_publication_material  'Olex2 (Dolomanov et al., 2009)'
_computing_structure_refinement  'ShelXL (Sheldrick, 2015b)'
_computing_structure_solution    'ShelXT (Sheldrick, 2015a)'
_diffrn_ambient_temperature      183(1)
_diffrn_detector                 'CCD plate'
_diffrn_detector_area_resol_mean 10.3801
_diffrn_detector_type            Atlas
_diffrn_measured_fraction_theta_full 0.999
_diffrn_measured_fraction_theta_max 0.999
_diffrn_measurement_details
;
List of Runs (angles in degrees, time in seconds):

  # Type    Start    End  Width  t~exp~   \w     \q     \k     \f   Frames
#--------------------------------------------------------------------------
  1  \w    -70.00  33.00   1.00    2.50    --  -40.89  57.00  30.00  103
  2  \w   -115.00 -11.00   1.00    2.50    --  -40.89 -57.00 120.00  104
  3  \w    -49.00  35.00   1.00    2.50    --  -40.89  37.00 -90.00   84
  4  \w     23.00  98.00   1.00    2.50    --   40.89-125.00 -60.00   75
  5  \w     23.00  98.00   1.00    2.50    --   40.89-125.00  90.00   75
  6  \w     35.00  91.00   1.00   10.00    --  113.00 -30.00-180.00   56
  7  \w     85.00 178.00   1.00   10.00    --  113.00  45.00  30.00   93
  8  \w     29.00 109.00   1.00   10.00    --  113.00 -94.00-120.00   80
  9  \w     85.00 178.00   1.00   10.00    --  113.00  45.00   0.00   93
 10  \w     29.00 109.00   1.00   10.00    --  113.00 -94.00-150.00   80
 11  \w     39.00 143.00   1.00   10.00    --  113.00 -61.00 -90.00  104
 12  \w     38.00  99.00   1.00   10.00    --  113.00 -45.00 120.00   61
 13  \w     35.00 116.00   1.00   10.00    --  113.00-111.00  30.00   81
 14  \w     35.00 116.00   1.00   10.00    --  113.00-111.00-150.00   81
 15  \w     82.00 178.00   1.00   10.00    --  113.00  30.00  90.00   96
 16  \w     29.00 109.00   1.00   10.00    --  113.00 -94.00 -90.00   80
 17  \w     35.00  91.00   1.00   10.00    --  113.00 -30.00  60.00   56
 18  \w     38.00  99.00   1.00   10.00    --  113.00 -45.00  60.00   61
 19  \w     29.00 109.00   1.00   10.00    --  113.00 -94.00  90.00   80
 20  \w     35.00 116.00   1.00   10.00    --  113.00-111.00 -30.00   81
 21  \w     38.00  99.00   1.00   10.00    --  113.00 -45.00-120.00   61
 22  \w     35.00 116.00   1.00   10.00    --  113.00-111.00-120.00   81
 23  \w     29.00 109.00   1.00   10.00    --  113.00 -94.00 120.00   80
 24  \w     82.00 178.00   1.00   10.00    --  113.00  30.00-150.00   96
 25  \w     35.00 116.00   1.00   10.00    --  113.00-111.00 -60.00   81
 26  \w     82.00 178.00   1.00   10.00    --  113.00  30.00 150.00   96
 27  \w     39.00 143.00   1.00   10.00    --  113.00 -61.00 -60.00  104
 28  \w     35.00  91.00   1.00   10.00    --  113.00 -30.00 -90.00   56
 29  \w     29.00 109.00   1.00   10.00    --  113.00 -94.00   0.00   80
 30  \w     35.00  91.00   1.00   10.00    --  113.00 -30.00   0.00   56
 31  \w     52.00 178.00   1.00   10.00    --  113.00  15.00   0.00  126
 32  \w     31.00 149.00   1.00   10.00    --  113.00 -84.00  32.62  118
 33  \w   -115.00 -47.00   1.00    2.50    --  -40.89 -57.00 -90.00   68
;
_diffrn_measurement_device       'four-circle diffractometer'
_diffrn_measurement_device_type  'SuperNova, Dual, Cu at home/near, Atlas'
_diffrn_measurement_method       '\w scans'
_diffrn_orient_matrix_type
'CrysAlisPro convention (1999,Acta A55,543-557)'
_diffrn_orient_matrix_UB_11      0.0238416000
_diffrn_orient_matrix_UB_12      -0.0864988000
_diffrn_orient_matrix_UB_13      0.1058297000
_diffrn_orient_matrix_UB_21      0.1857330000
_diffrn_orient_matrix_UB_22      -0.0137223000
_diffrn_orient_matrix_UB_23      -0.0249935000
_diffrn_orient_matrix_UB_31      0.0566070000
_diffrn_orient_matrix_UB_32      0.1482976000
_diffrn_orient_matrix_UB_33      0.0831139000
_diffrn_radiation_monochromator  mirror
_diffrn_radiation_probe          x-ray
_diffrn_radiation_type           CuK\a
_diffrn_radiation_wavelength     1.54184
_diffrn_reflns_av_R_equivalents  0.0119
_diffrn_reflns_av_unetI/netI     0.0109
_diffrn_reflns_Laue_measured_fraction_full 0.999
_diffrn_reflns_Laue_measured_fraction_max 0.999
_diffrn_reflns_limit_h_max       9
_diffrn_reflns_limit_h_min       -9
_diffrn_reflns_limit_k_max       10
_diffrn_reflns_limit_k_min       -10
_diffrn_reflns_limit_l_max       13
_diffrn_reflns_limit_l_min       -13
_diffrn_reflns_number            11799
_diffrn_reflns_point_group_measured_fraction_full 0.999
_diffrn_reflns_point_group_measured_fraction_max 0.999
_diffrn_reflns_theta_full        67.684
_diffrn_reflns_theta_max         68.240
_diffrn_reflns_theta_min         3.927
_diffrn_source                   'micro-focus sealed X-ray tube'
_diffrn_source_type              'SuperNova (Cu) X-ray Source'
_exptl_absorpt_coefficient_mu    23.447
_exptl_absorpt_correction_T_max  0.295
_exptl_absorpt_correction_T_min  0.081
_exptl_absorpt_correction_type   analytical
_exptl_absorpt_process_details
;
CrysAlisPro 1.171.39.13a (Rigaku Oxford Diffraction, 2015)
Analytical numeric absorption correction using a multifaceted crystal
            model based on expressions derived by R.C. Clark & J.S. Reid.
(Clark, R. C. & Reid, J. S. (1995). Acta Cryst. A51, 887-897)
Empirical absorption correction using spherical harmonics,
 implemented in SCALE3 ABSPACK scaling algorithm.
;
_exptl_crystal_colour            yellow
_exptl_crystal_density_diffrn    2.375
_exptl_crystal_description       prism
_exptl_crystal_F_000             540
_exptl_crystal_size_max          0.19
_exptl_crystal_size_mid          0.12
_exptl_crystal_size_min          0.08
_refine_diff_density_max         0.796
_refine_diff_density_min         -0.904
_refine_diff_density_rms         0.106
_refine_ls_extinction_coef       0.00336(10)
_refine_ls_extinction_expression Fc^*^=kFc[1+0.001xFc^2^\l^3^/sin(2\q)]^-1/4^
_refine_ls_extinction_method     'SHELXL-2018/3 (Sheldrick 2018)'
_refine_ls_goodness_of_fit_ref   1.204
_refine_ls_hydrogen_treatment    mixed
_refine_ls_matrix_type           full
_refine_ls_number_parameters     204
_refine_ls_number_reflns         2953
_refine_ls_number_restraints     1
_refine_ls_restrained_S_all      1.204
_refine_ls_R_factor_all          0.0175
_refine_ls_R_factor_gt           0.0174
_refine_ls_shift/su_max          0.001
_refine_ls_shift/su_mean         0.000
_refine_ls_structure_factor_coef Fsqd
_refine_ls_weighting_details
'w=1/[\s^2^(Fo^2^)+(0.0239P)^2^+0.9370P] where P=(Fo^2^+2Fc^2^)/3'
_refine_ls_weighting_scheme      calc
_refine_ls_wR_factor_gt          0.0438
_refine_ls_wR_factor_ref         0.0439
_reflns_Friedel_coverage         0.000
_reflns_number_gt                2949
_reflns_number_total             2953
_reflns_threshold_expression     'I > 2\s(I)'
_cod_data_source_file            c8dt05034a2.cif
_cod_data_source_block           (4-OCF3-ppy)AuCl3
_cod_depositor_comments
'Adding full bibliography for 7048983--7048998.cif.'
_cod_original_cell_volume        809.63(4)
_cod_database_code               7048995
_shelx_shelxl_version_number     2018/3
_shelx_space_group_comment
;
The symmetry employed for this shelxl refinement is uniquely defined
by the following loop, which should always be used as a source of
symmetry information in preference to the above space-group names.
They are only intended as comments.
;
_shelx_estimated_absorpt_t_max   0.256
_shelx_estimated_absorpt_t_min   0.095
_olex2_refinement_description
;
1. Fixed Uiso
 At 1.2 times of:
  All C(H) groups
2. Restrained distances
 N1-H1A
 0.87 with sigma of 0.01
3.a Aromatic/amide H refined with riding coordinates:
 C1(H1), C2(H2), C3(H3), C4(H4), C7(H7), C8(H8), C10(H10), C11(H11)
;
_shelx_res_file
;
TITL bach2403_2018 in P-1
    bach2403_2018.res
    created by SHELXL-2018/3 at 14:25:05 on 24-Sep-2018
REM P-1 (#2 in standard setting)
CELL 1.54184 7.951464 9.091088 11.420911 98.0351 94.6605 95.7089
ZERR 2 0.000234 0.000206 0.000289 0.002 0.0022 0.0021
LATT 1
SFAC C H Au Cl F N O
UNIT 24 18 2 8 6 2 2
DFIX 0.87 0.01 N1 H1a

L.S. 10
PLAN  20
SIZE 0.08 0.12 0.19
TEMP -90.1(10)
MORE -1
BOND $H
CONF
fmap 2
acta
MERG 2
SHEL 100 0.77
OMIT -1 0 4
OMIT 1 9 6
OMIT -4 -7 5
REM <olex2.extras>
REM <HklSrc "%.\\bach2403_2018.hkl">
REM </olex2.extras>

WGHT    0.023900    0.937000
EXTI    0.003362
FVAR       5.15077
AU1   3    0.916667    0.848974    0.366309    11.00000    0.02364    0.01619 =
         0.02114    0.00151    0.00309   -0.00129
C1    1    0.470921    0.174119    0.332850    11.00000    0.03417    0.02938 =
         0.03333    0.01162    0.00412    0.00705
AFIX  43
H1    2    0.492501    0.076068    0.344662    11.00000   -1.20000
AFIX   0
C2    1    0.589671    0.293404    0.374711    11.00000    0.02687    0.04279 =
         0.03204    0.01167   -0.00149    0.00396
AFIX  43
H2    2    0.696089    0.279100    0.413078    11.00000   -1.20000
AFIX   0
C3    1    0.551282    0.435616    0.359907    11.00000    0.03074    0.03252 =
         0.02969    0.00376   -0.00045   -0.00613
AFIX  43
H3    2    0.629883    0.520134    0.391716    11.00000   -1.20000
AFIX   0
C4    1    0.399665    0.455197    0.299276    11.00000    0.03034    0.02208 =
         0.03062    0.00674    0.00246   -0.00081
AFIX  43
H4    2    0.374173    0.552719    0.288875    11.00000   -1.20000
AFIX   0
C5    1    0.285101    0.331866    0.253765    11.00000    0.02278    0.02332 =
         0.02321    0.00525    0.00482    0.00225
C6    1    0.126541    0.337919    0.178176    11.00000    0.02393    0.02468 =
         0.02297    0.00793    0.00111   -0.00567
C7    1    0.021778    0.442320    0.209915    11.00000    0.03217    0.02768 =
         0.02525    0.00158    0.00104   -0.00426
AFIX  43
H7    2    0.049789    0.510432    0.281476    11.00000   -1.20000
AFIX   0
C8    1   -0.127979    0.450776    0.137931    11.00000    0.03162    0.02842 =
         0.03909    0.00479    0.00382    0.00742
AFIX  43
H8    2   -0.202627    0.522967    0.160078    11.00000   -1.20000
AFIX   0
C9    1   -0.162963    0.351206    0.034427    11.00000    0.02409    0.03555 =
         0.02968    0.01451    0.00064   -0.00055
C10   1   -0.057901    0.245185   -0.001370    11.00000    0.03002    0.03335 =
         0.02334    0.00160    0.00305   -0.00241
AFIX  43
H10   2   -0.084774    0.178885   -0.073980    11.00000   -1.20000
AFIX   0
C11   1    0.088393    0.238156    0.071845    11.00000    0.02564    0.02821 =
         0.02659    0.00242    0.00549    0.00086
AFIX  43
H11   2    0.162758    0.165652    0.049874    11.00000   -1.20000
AFIX   0
C12   1   -0.442123    0.259245   -0.041645    11.00000    0.02422    0.06146 =
         0.02881    0.00452    0.00090    0.00279

CL1   4    0.945394    0.683124    0.496680    11.00000    0.03149    0.03668 =
         0.03216    0.01572    0.00059    0.00476
CL2   4    0.635420    0.839830    0.391592    11.00000    0.02606    0.03515 =
         0.04514    0.01520    0.00941    0.00836
CL3   4    1.197803    0.850530    0.338289    11.00000    0.02415    0.03703 =
         0.05099    0.00652    0.00866   -0.00417
CL4   4    0.888757    1.012377    0.233948    11.00000    0.05519    0.02885 =
         0.04066    0.01780    0.01179    0.00497
F1    5   -0.482801    0.238972    0.065545    11.00000    0.04203    0.13193 =
         0.03756    0.01166    0.01264   -0.01533
F2    5   -0.414868    0.125896   -0.094317    11.00000    0.04555    0.05577 =
         0.07123   -0.00262    0.00300   -0.00267
F3    5   -0.574382    0.300205   -0.100846    11.00000    0.03525    0.08248 =
         0.06692    0.00345   -0.01801    0.01105
N1    6    0.324211    0.196187    0.275181    11.00000    0.02929    0.02060 =
         0.02850    0.00658    0.00290   -0.00022
O1    7   -0.310920    0.364078   -0.039383    11.00000    0.03083    0.04876 =
         0.04062    0.01595   -0.00624    0.00210
H1A   2    0.249999    0.118299    0.257701    11.00000    0.03451
HKLF 4




REM  bach2403_2018 in P-1
REM wR2 = 0.0439, GooF = S = 1.204, Restrained GooF = 1.204 for all data
REM R1 = 0.0174 for 2949 Fo > 4sig(Fo) and 0.0175 for all 2953 data
REM 204 parameters refined using 1 restraints

END

WGHT      0.0239      0.9384

REM Highest difference peak  0.796,  deepest hole -0.904,  1-sigma level  0.106
Q1    1   0.7893  0.8304  0.3542  11.00000  0.05    0.80
Q2    1   1.0522  0.8812  0.3841  11.00000  0.05    0.69
Q3    1   0.0607  0.3793  0.2044  11.00000  0.05    0.56
Q4    1   0.7937  0.9940  0.2217  11.00000  0.05    0.54
Q5    1   0.9349  0.6809  0.3086  11.00000  0.05    0.46
Q6    1  -0.4912  0.3458  0.0630  11.00000  0.05    0.43
Q7    1   0.9061  1.0165  0.4018  11.00000  0.05    0.41
Q8    1   0.9127  0.7363  0.4567  11.00000  0.05    0.37
Q9    1  -0.2194  0.5531  0.0798  11.00000  0.05    0.36
Q10   1  -0.0392  0.4268  0.2026  11.00000  0.05    0.36
Q11   1   1.0600  0.7016  0.4987  11.00000  0.05    0.34
Q12   1   1.1993  0.8787  0.3991  11.00000  0.05    0.34
Q13   1   0.1956  0.3312  0.2186  11.00000  0.05    0.34
Q14   1   0.1020 -0.0036  0.2638  11.00000  0.05    0.32
Q15   1   0.1661  0.0275  0.2065  11.00000  0.05    0.31
Q16   1   1.0685  1.0444  0.2719  11.00000  0.05    0.31
Q17   1   0.9970  0.9013  0.2826  11.00000  0.05    0.30
Q18   1   0.7763  0.2862  0.5217  11.00000  0.05    0.30
Q19   1   0.8105  0.6777  0.5033  11.00000  0.05    0.29
Q20   1   0.9932  0.9330  0.2977  11.00000  0.05    0.29
;
_shelx_res_checksum              19844
_olex2_submission_special_instructions 'No special instructions were received'
_oxdiff_exptl_absorpt_empirical_details
;
Empirical correction (ABSPACK) includes:
- Absorption correction using spherical harmonics
- Frame scaling
- Detector area scaling
- B-factor correction
;
_oxdiff_exptl_absorpt_empirical_full_max 1.470
_oxdiff_exptl_absorpt_empirical_full_min 0.812
loop_
_space_group_symop_operation_xyz
'x, y, z'
'-x, -y, -z'
loop_
_atom_site_label
_atom_site_type_symbol
_atom_site_fract_x
_atom_site_fract_y
_atom_site_fract_z
_atom_site_U_iso_or_equiv
_atom_site_adp_type
_atom_site_occupancy
_atom_site_site_symmetry_order
_atom_site_calc_flag
_atom_site_refinement_flags_posn
Au1 Au 0.91667(2) 0.84897(2) 0.36631(2) 0.02063(7) Uani 1 1 d .
C1 C 0.4709(4) 0.1741(4) 0.3328(3) 0.0313(7) Uani 1 1 d .
H1 H 0.492501 0.076068 0.344662 0.038 Uiso 1 1 calc R
C2 C 0.5897(4) 0.2934(4) 0.3747(3) 0.0336(7) Uani 1 1 d .
H2 H 0.696089 0.279100 0.413078 0.040 Uiso 1 1 calc R
C3 C 0.5513(4) 0.4356(4) 0.3599(3) 0.0319(7) Uani 1 1 d .
H3 H 0.629883 0.520134 0.391716 0.038 Uiso 1 1 calc R
C4 C 0.3997(4) 0.4552(4) 0.2993(3) 0.0277(6) Uani 1 1 d .
H4 H 0.374173 0.552719 0.288875 0.033 Uiso 1 1 calc R
C5 C 0.2851(4) 0.3319(3) 0.2538(3) 0.0228(6) Uani 1 1 d .
C6 C 0.1265(4) 0.3379(3) 0.1782(3) 0.0241(6) Uani 1 1 d .
C7 C 0.0218(4) 0.4423(4) 0.2099(3) 0.0292(6) Uani 1 1 d .
H7 H 0.049789 0.510432 0.281476 0.035 Uiso 1 1 calc R
C8 C -0.1280(4) 0.4508(4) 0.1379(3) 0.0328(7) Uani 1 1 d .
H8 H -0.202627 0.522967 0.160078 0.039 Uiso 1 1 calc R
C9 C -0.1630(4) 0.3512(4) 0.0344(3) 0.0292(7) Uani 1 1 d .
C10 C -0.0579(4) 0.2452(4) -0.0014(3) 0.0295(6) Uani 1 1 d .
H10 H -0.084774 0.178885 -0.073980 0.035 Uiso 1 1 calc R
C11 C 0.0884(4) 0.2382(4) 0.0718(3) 0.0270(6) Uani 1 1 d .
H11 H 0.162758 0.165652 0.049874 0.032 Uiso 1 1 calc R
C12 C -0.4421(4) 0.2592(5) -0.0416(3) 0.0386(8) Uani 1 1 d .
Cl1 Cl 0.94539(10) 0.68312(9) 0.49668(7) 0.03250(17) Uani 1 1 d .
Cl2 Cl 0.63542(10) 0.83983(9) 0.39159(8) 0.03390(17) Uani 1 1 d .
Cl3 Cl 1.19780(10) 0.85053(10) 0.33829(8) 0.03763(18) Uani 1 1 d .
Cl4 Cl 0.88876(13) 1.01238(9) 0.23395(8) 0.03994(19) Uani 1 1 d .
F1 F -0.4828(3) 0.2390(4) 0.0655(2) 0.0718(9) Uani 1 1 d .
F2 F -0.4149(3) 0.1259(3) -0.0943(3) 0.0594(7) Uani 1 1 d .
F3 F -0.5744(3) 0.3002(4) -0.1008(3) 0.0633(7) Uani 1 1 d .
N1 N 0.3242(3) 0.1962(3) 0.2752(2) 0.0260(5) Uani 1 1 d D
O1 O -0.3109(3) 0.3641(3) -0.0394(2) 0.0399(6) Uani 1 1 d .
H1A H 0.250(4) 0.118(3) 0.258(4) 0.035(11) Uiso 1 1 d D
loop_
_atom_site_aniso_label
_atom_site_aniso_U_11
_atom_site_aniso_U_22
_atom_site_aniso_U_33
_atom_site_aniso_U_23
_atom_site_aniso_U_13
_atom_site_aniso_U_12
Au1 0.02364(9) 0.01619(9) 0.02114(9) 0.00151(5) 0.00309(5) -0.00129(5)
C1 0.0342(17) 0.0294(16) 0.0333(17) 0.0116(13) 0.0041(13) 0.0070(13)
C2 0.0269(16) 0.0428(19) 0.0320(17) 0.0117(14) -0.0015(13) 0.0040(14)
C3 0.0307(16) 0.0325(17) 0.0297(16) 0.0038(13) -0.0004(13) -0.0061(13)
C4 0.0303(16) 0.0221(14) 0.0306(16) 0.0067(12) 0.0025(13) -0.0008(12)
C5 0.0228(14) 0.0233(14) 0.0232(14) 0.0053(11) 0.0048(11) 0.0022(11)
C6 0.0239(14) 0.0247(14) 0.0230(14) 0.0079(11) 0.0011(11) -0.0057(11)
C7 0.0322(16) 0.0277(15) 0.0253(15) 0.0016(12) 0.0010(12) -0.0043(13)
C8 0.0316(17) 0.0284(16) 0.0391(18) 0.0048(13) 0.0038(14) 0.0074(13)
C9 0.0241(15) 0.0355(17) 0.0297(16) 0.0145(13) 0.0006(12) -0.0006(12)
C10 0.0300(16) 0.0334(17) 0.0233(15) 0.0016(12) 0.0030(12) -0.0024(13)
C11 0.0256(15) 0.0282(15) 0.0266(15) 0.0024(12) 0.0055(12) 0.0009(12)
C12 0.0242(16) 0.061(2) 0.0288(17) 0.0045(16) 0.0009(13) 0.0028(15)
Cl1 0.0315(4) 0.0367(4) 0.0322(4) 0.0157(3) 0.0006(3) 0.0048(3)
Cl2 0.0261(4) 0.0352(4) 0.0451(4) 0.0152(3) 0.0094(3) 0.0084(3)
Cl3 0.0241(4) 0.0370(4) 0.0510(5) 0.0065(4) 0.0087(3) -0.0042(3)
Cl4 0.0552(5) 0.0289(4) 0.0407(4) 0.0178(3) 0.0118(4) 0.0050(4)
F1 0.0420(13) 0.132(3) 0.0376(13) 0.0117(15) 0.0126(10) -0.0153(15)
F2 0.0456(14) 0.0558(15) 0.0712(17) -0.0026(13) 0.0030(12) -0.0027(11)
F3 0.0353(12) 0.0825(19) 0.0669(17) 0.0035(15) -0.0180(11) 0.0110(12)
N1 0.0293(13) 0.0206(12) 0.0285(13) 0.0066(10) 0.0029(10) -0.0002(10)
O1 0.0308(12) 0.0488(15) 0.0406(14) 0.0159(11) -0.0062(10) 0.0021(11)
loop_
_atom_type_symbol
_atom_type_description
_atom_type_scat_dispersion_real
_atom_type_scat_dispersion_imag
_atom_type_scat_source
C C 0.0181 0.0091 'International Tables Vol C Tables 4.2.6.8 and 6.1.1.4'
H H 0.0000 0.0000 'International Tables Vol C Tables 4.2.6.8 and 6.1.1.4'
Au Au -4.4197 7.2980 'International Tables Vol C Tables 4.2.6.8 and 6.1.1.4'
Cl Cl 0.3639 0.7018 'International Tables Vol C Tables 4.2.6.8 and 6.1.1.4'
F F 0.0727 0.0534 'International Tables Vol C Tables 4.2.6.8 and 6.1.1.4'
N N 0.0311 0.0180 'International Tables Vol C Tables 4.2.6.8 and 6.1.1.4'
O O 0.0492 0.0322 'International Tables Vol C Tables 4.2.6.8 and 6.1.1.4'
loop_
_exptl_crystal_face_index_h
_exptl_crystal_face_index_k
_exptl_crystal_face_index_l
_exptl_crystal_face_perp_dist
0 1 0 0.0393
5 -2 0 0.0725
-5 2 0 0.0835
0 0 1 0.0491
0 0 -1 0.0571
0 -1 0 0.0383
loop_
_geom_angle_atom_site_label_1
_geom_angle_atom_site_label_2
_geom_angle_atom_site_label_3
_geom_angle
Cl1 Au1 Cl3 89.86(3)
Cl2 Au1 Cl1 89.40(3)
Cl2 Au1 Cl3 178.22(3)
Cl2 Au1 Cl4 90.91(3)
Cl4 Au1 Cl1 179.22(3)
Cl4 Au1 Cl3 89.81(3)
C2 C1 H1 120.1
N1 C1 H1 120.1
N1 C1 C2 119.7(3)
C1 C2 H2 120.7
C1 C2 C3 118.6(3)
C3 C2 H2 120.7
C2 C3 H3 119.8
C4 C3 C2 120.5(3)
C4 C3 H3 119.8
C3 C4 H4 120.2
C3 C4 C5 119.6(3)
C5 C4 H4 120.2
C4 C5 C6 124.2(3)
N1 C5 C4 117.9(3)
N1 C5 C6 117.8(3)
C7 C6 C5 120.0(3)
C7 C6 C11 120.4(3)
C11 C6 C5 119.5(3)
C6 C7 H7 119.7
C6 C7 C8 120.6(3)
C8 C7 H7 119.7
C7 C8 H8 121.1
C9 C8 C7 117.9(3)
C9 C8 H8 121.1
C8 C9 C10 123.0(3)
C8 C9 O1 117.4(3)
C10 C9 O1 119.6(3)
C9 C10 H10 121.0
C9 C10 C11 118.0(3)
C11 C10 H10 121.0
C6 C11 H11 119.9
C10 C11 C6 120.1(3)
C10 C11 H11 119.9
F1 C12 O1 113.2(3)
F2 C12 F1 105.4(4)
F2 C12 O1 113.5(3)
F3 C12 F1 108.7(3)
F3 C12 F2 107.7(3)
F3 C12 O1 108.2(4)
C1 N1 C5 123.6(3)
C1 N1 H1A 115(3)
C5 N1 H1A 121(3)
C12 O1 C9 116.8(3)
loop_
_geom_bond_atom_site_label_1
_geom_bond_atom_site_label_2
_geom_bond_distance
Au1 Cl1 2.2767(7)
Au1 Cl2 2.2729(8)
Au1 Cl3 2.2828(8)
Au1 Cl4 2.2760(8)
C1 H1 0.9500
C1 C2 1.369(5)
C1 N1 1.339(4)
C2 H2 0.9500
C2 C3 1.387(5)
C3 H3 0.9500
C3 C4 1.381(5)
C4 H4 0.9500
C4 C5 1.383(4)
C5 C6 1.479(4)
C5 N1 1.351(4)
C6 C7 1.355(5)
C6 C11 1.402(4)
C7 H7 0.9500
C7 C8 1.406(5)
C8 H8 0.9500
C8 C9 1.375(5)
C9 C10 1.378(5)
C9 O1 1.415(4)
C10 H10 0.9500
C10 C11 1.389(5)
C11 H11 0.9500
C12 F1 1.324(5)
C12 F2 1.322(5)
C12 F3 1.317(5)
C12 O1 1.337(5)
N1 H1A 0.865(10)
loop_
_geom_torsion_atom_site_label_1
_geom_torsion_atom_site_label_2
_geom_torsion_atom_site_label_3
_geom_torsion_atom_site_label_4
_geom_torsion
C1 C2 C3 C4 -3.0(5)
C2 C1 N1 C5 0.8(5)
C2 C3 C4 C5 0.4(5)
C3 C4 C5 C6 -174.1(3)
C3 C4 C5 N1 2.7(5)
C4 C5 C6 C7 -47.2(4)
C4 C5 C6 C11 130.8(3)
C4 C5 N1 C1 -3.4(5)
C5 C6 C7 C8 179.0(3)
C5 C6 C11 C10 -178.4(3)
C6 C5 N1 C1 173.7(3)
C6 C7 C8 C9 -0.7(5)
C7 C6 C11 C10 -0.4(5)
C7 C8 C9 C10 -0.3(5)
C7 C8 C9 O1 -177.8(3)
C8 C9 C10 C11 0.9(5)
C8 C9 O1 C12 -106.8(4)
C9 C10 C11 C6 -0.6(5)
C10 C9 O1 C12 75.6(4)
C11 C6 C7 C8 1.0(5)
F1 C12 O1 C9 50.9(5)
F2 C12 O1 C9 -69.1(4)
F3 C12 O1 C9 171.4(3)
N1 C1 C2 C3 2.4(5)
N1 C5 C6 C7 135.9(3)
N1 C5 C6 C11 -46.1(4)
O1 C9 C10 C11 178.4(3)
