#------------------------------------------------------------------------------
#$Date: 2019-11-17 11:55:49 +0200 (Sun, 17 Nov 2019) $
#$Revision: 229726 $
#$URL: file:///home/coder/svn-repositories/cod/cif/7/04/82/7048248.cif $
#------------------------------------------------------------------------------
#
# This file is available in the Crystallography Open Database (COD),
# http://www.crystallography.net/
#
# All data on this site have been placed in the public domain by the
# contributors.
#
data_7048248
loop_
_publ_author_name
'Hahn, Jennifer'
'Krieg, Matthias'
'Keck, Constanze'
'Maichle-M\"ossmer, C\"acilia'
'Fink, Reinhold F.'
'Bettinger, Holger F.'
_publ_section_title
;
 Thermal dehydrochlorination in the 4-fluoroaniline-trichloroborane
 system: identification of reactive intermediates involved in the
 formation of B,B',B''-trichloro-N,N',N''-tri((4-fluoro)phenyl)borazine.
;
_journal_issue                   48
_journal_name_full
'Dalton transactions (Cambridge, England : 2003)'
_journal_page_first              17304
_journal_page_last               17316
_journal_paper_doi               10.1039/c8dt03954b
_journal_volume                  47
_journal_year                    2018
_chemical_formula_sum            'C6 H6 B Cl3 F N'
_chemical_formula_weight         228.28
_chemical_properties_physical    ', Air-sensitive,Moisture-sensitive'
_space_group_crystal_system      orthorhombic
_space_group_IT_number           29
_space_group_name_Hall           'P 2c -2ac'
_space_group_name_H-M_alt        'P c a 21'
_symmetry_space_group_name_Hall  'P 2c -2ac'
_symmetry_space_group_name_H-M   'P c a 21'
_atom_sites_solution_hydrogens   geom
_audit_creation_method           SHELXL-2013
_audit_update_record
;
2017-03-02 deposited with the CCDC.
2018-11-05 downloaded from the CCDC.
;
_cell_angle_alpha                90
_cell_angle_beta                 90
_cell_angle_gamma                90
_cell_formula_units_Z            4
_cell_length_a                   11.2213(3)
_cell_length_b                   12.4120(3)
_cell_length_c                   6.7073(2)
_cell_measurement_reflns_used    4951
_cell_measurement_temperature    100(2)
_cell_measurement_theta_max      28.11
_cell_measurement_theta_min      2.446
_cell_volume                     934.18(4)
_computing_cell_refinement       'Bruker SAINT'
_computing_data_collection       'Bruker COSMO'
_computing_data_reduction        'Bruker SAINT'
_computing_structure_refinement  'SHELXL-2013 (Sheldrick, 2013)'
_computing_structure_solution    'SHELXS-13 (Sheldrick 2008)'
_diffrn_ambient_temperature      100(2)
_diffrn_measured_fraction_theta_full 0.999
_diffrn_measured_fraction_theta_max 0.999
_diffrn_measurement_device_type  'Bruker APEX II DUO'
_diffrn_measurement_method       'phi and omega scans'
_diffrn_radiation_type           MoK\a
_diffrn_radiation_wavelength     0.71073
_diffrn_reflns_av_R_equivalents  0.0305
_diffrn_reflns_av_unetI/netI     0.0248
_diffrn_reflns_Laue_measured_fraction_full 0.999
_diffrn_reflns_Laue_measured_fraction_max 0.999
_diffrn_reflns_limit_h_max       14
_diffrn_reflns_limit_h_min       -14
_diffrn_reflns_limit_k_max       16
_diffrn_reflns_limit_k_min       -16
_diffrn_reflns_limit_l_max       8
_diffrn_reflns_limit_l_min       -8
_diffrn_reflns_number            10743
_diffrn_reflns_point_group_measured_fraction_full 0.977
_diffrn_reflns_point_group_measured_fraction_max 0.959
_diffrn_reflns_theta_full        25.242
_diffrn_reflns_theta_max         28.306
_diffrn_reflns_theta_min         1.641
_diffrn_source                   'ImuS-focus sealed tube'
_exptl_absorpt_coefficient_mu    0.935
_exptl_absorpt_correction_T_max  0.9590
_exptl_absorpt_correction_T_min  0.8400
_exptl_absorpt_correction_type   numerical
_exptl_absorpt_process_details   sadabs
_exptl_crystal_colour            colourless
_exptl_crystal_density_diffrn    1.623
_exptl_crystal_description       needle
_exptl_crystal_F_000             456
_exptl_crystal_size_max          0.193
_exptl_crystal_size_mid          0.075
_exptl_crystal_size_min          0.045
_refine_diff_density_max         0.710
_refine_diff_density_min         -0.239
_refine_diff_density_rms         0.065
_refine_ls_abs_structure_details
;
 Flack x determined using 899 quotients [(I+)-(I-)]/[(I+)+(I-)]
 (Parsons and Flack (2004), Acta Cryst. A60, s61).
;
_refine_ls_abs_structure_Flack   0.11(3)
_refine_ls_extinction_method     none
_refine_ls_goodness_of_fit_ref   1.047
_refine_ls_hydrogen_treatment    constr
_refine_ls_matrix_type           full
_refine_ls_number_parameters     109
_refine_ls_number_reflns         2231
_refine_ls_number_restraints     1
_refine_ls_restrained_S_all      1.047
_refine_ls_R_factor_all          0.0275
_refine_ls_R_factor_gt           0.0258
_refine_ls_shift/su_max          0.000
_refine_ls_shift/su_mean         0.000
_refine_ls_structure_factor_coef Fsqd
_refine_ls_weighting_details
'w=1/[\s^2^(Fo^2^)+(0.0396P)^2^+0.1727P] where P=(Fo^2^+2Fc^2^)/3'
_refine_ls_weighting_scheme      calc
_refine_ls_wR_factor_gt          0.0629
_refine_ls_wR_factor_ref         0.0642
_reflns_Friedel_coverage         0.766
_reflns_Friedel_fraction_full    0.950
_reflns_Friedel_fraction_max     0.911
_reflns_number_gt                2138
_reflns_number_total             2231
_reflns_threshold_expression     'I > 2\s(I)'
_cod_data_source_file            c8dt03954b2.cif
_cod_data_source_block           1a_mo_fr1
_cod_depositor_comments
'Adding full bibliography for 7048248--7048250.cif.'
_cod_database_code               7048248
_shelx_space_group_comment
;
The symmetry employed for this shelxl refinement is uniquely defined
by the following loop, which should always be used as a source of
symmetry information in preference to the above space-group names.
They are only intended as comments.
;
_shelx_estimated_absorpt_t_min   0.840
_shelx_estimated_absorpt_t_max   0.959
_shelxl_version_number           2013-3
_shelx_res_file
;
TITL mo_fr1_0ma in Pca2(1)
CELL 0.71073 11.2213 12.4120 6.7073 90.000 90.000 90.000
ZERR 4.00 0.0003 0.0003 0.0002 0.000 0.000 0.000
LATT -1
SYMM -x, -y, z+1/2
SYMM -x+1/2, y, z+1/2
SYMM x+1/2, -y, z
SFAC C H B F CL N
UNIT 24 24 4 4 12 4
LIST 4 ! automatically inserted. Change 6 to 4 for CHECKCIF!!
TEMP -173.110
ACTA
SIZE 0.045 0.075 0.193
L.S. 15
FMAP 2
PLAN -27 0 0.00
HTAB
BOND $H
CONF
WGHT    0.039600    0.172700
FVAR       0.16716
CL1   5    0.974201    0.899788    0.685928    11.00000    0.01561    0.01653 =
         0.02300   -0.00410    0.00287    0.00046
CL2   5    1.218408    0.960310    0.530291    11.00000    0.01805    0.01815 =
         0.01997    0.00140   -0.00315   -0.00776
CL3   5    1.163505    0.728482    0.640083    11.00000    0.01833    0.01369 =
         0.03065    0.00394   -0.00402    0.00233
F1    4    0.724589    0.520234    0.172831    11.00000    0.02365    0.02085 =
         0.04911    0.00032   -0.00873   -0.01162
N1    6    1.063922    0.836516    0.312826    11.00000    0.01473    0.01159 =
         0.01882   -0.00016    0.00035   -0.00288
AFIX  23
H5    2    1.033740    0.905909    0.260421    11.00000   -1.20000
H6    2    1.136093    0.817971    0.235177    11.00000   -1.20000
AFIX   0
C2    1    0.972885    0.753284    0.272587    11.00000    0.01517    0.01182 =
         0.01585   -0.00091   -0.00066   -0.00271
C3    1    0.853883    0.779567    0.281431    11.00000    0.01795    0.01264 =
         0.01950    0.00156   -0.00286    0.00239
AFIX  43
H4    2    0.830081    0.851359    0.310161    11.00000   -1.20000
AFIX   0
C4    1    0.768722    0.700191    0.247975    11.00000    0.01281    0.02078 =
         0.02217    0.00199   -0.00240   -0.00017
AFIX  43
H3    2    0.686042    0.716321    0.254026    11.00000   -1.20000
AFIX   0
C5    1    0.807778    0.597606    0.205851    11.00000    0.01816    0.01584 =
         0.02839    0.00010   -0.00352   -0.00805
C6    1    0.926114    0.570134    0.193638    11.00000    0.02130    0.01226 =
         0.04021   -0.00529   -0.00279   -0.00040
AFIX  43
H1    2    0.949414    0.498500    0.162505    11.00000   -1.20000
AFIX   0
B1    3    1.103545    0.855134    0.540388    11.00000    0.01335    0.01281 =
         0.01707   -0.00019   -0.00215    0.00015
C7    1    1.011013    0.649582    0.227891    11.00000    0.01285    0.01801 =
         0.03527   -0.00727   -0.00047    0.00027
AFIX  43
H2    2    1.093616    0.633245    0.220857    11.00000   -1.20000
AFIX   0
HKLF 4 1 1 0 0 0 1 0 0 0 1

REM  mo_fr1_0ma in Pca2(1)
REM R1 =  0.0258 for    2138 Fo > 4sig(Fo)  and  0.0275 for all    2231 data
REM    109 parameters refined using      1 restraints

END

WGHT      0.0394      0.1932

REM Instructions for potential hydrogen bonds
EQIV $1 -x+2, -y+2, z-1/2
HTAB N1 Cl1_$1
EQIV $2 -x+5/2, y, z-1/2
HTAB N1 Cl2_$2
HTAB N1 Cl3_$2
EQIV $3 -x+3/2, y, z-1/2
HTAB C4 Cl1_$3
EQIV $4 x+1/2, -y+1, z
HTAB C7 F1_$4

REM Highest difference peak  0.710,  deepest hole -0.239,  1-sigma level  0.065
Q1    1   1.2847  0.9587  0.3036  11.00000  0.05    0.71
Q2    1   1.1670  0.7299  0.7628  11.00000  0.05    0.35
Q3    1   1.2432  0.9624  0.6606  11.00000  0.05    0.33
Q4    1   0.0650  0.8410  0.0335  11.00000  0.05    0.32
Q5    1   0.9591  0.6195  0.2016  11.00000  0.05    0.31
Q6    1   0.9856  0.7017  0.2560  11.00000  0.05    0.29
Q7    1   0.9809  0.9029  0.8228  11.00000  0.05    0.28
Q8    1   1.2289  0.9433  0.4042  11.00000  0.05    0.28
Q9    1   0.9730  0.9008  0.5651  11.00000  0.05    0.28
Q10   1   1.0092  0.6519  0.0966  11.00000  0.05    0.25
Q11   1   0.7913  0.6507  0.2169  11.00000  0.05    0.23
Q12   1   1.0158  0.8785  0.6044  11.00000  0.05    0.23
Q13   1   1.0799  0.8358  0.4184  11.00000  0.05    0.23
Q14   1   0.9811  0.7430  0.0656  11.00000  0.05    0.23
Q15   1   0.8551  0.7867  0.0320  11.00000  0.05    0.22
Q16   1   0.7734  0.6994  0.1017  11.00000  0.05    0.22
Q17   1   1.1476  0.7996  0.6624  11.00000  0.05    0.21
Q18   1   0.7350  0.5067  0.3018  11.00000  0.05    0.21
Q19   1   0.8648  0.5932  0.2029  11.00000  0.05    0.21
Q20   1   1.0185  0.8678  0.7792  11.00000  0.05    0.20
Q21   1   0.9829  0.9775  0.7032  11.00000  0.05    0.20
Q22   1   0.8096  0.5945  0.1041  11.00000  0.05    0.19
Q23   1   0.9472  0.8421  0.7310  11.00000  0.05    0.19
Q24   1   0.9456  0.8409  0.6295  11.00000  0.05    0.19
Q25   1   1.1564  0.7170  0.4976  11.00000  0.05    0.19
Q26   1   0.8076  0.7359  0.2701  11.00000  0.05    0.18
Q27   1   1.1743  1.0037  0.5993  11.00000  0.05    0.17
;
_shelx_res_checksum              26031
loop_
_space_group_symop_operation_xyz
'x, y, z'
'-x, -y, z+1/2'
'-x+1/2, y, z+1/2'
'x+1/2, -y, z'
loop_
_atom_site_label
_atom_site_type_symbol
_atom_site_fract_x
_atom_site_fract_y
_atom_site_fract_z
_atom_site_U_iso_or_equiv
_atom_site_adp_type
_atom_site_occupancy
_atom_site_site_symmetry_order
_atom_site_calc_flag
_atom_site_refinement_flags_posn
_atom_site_refinement_flags_adp
Cl1 Cl 0.97420(6) 0.89979(4) 0.68593(10) 0.01838(15) Uani 1 1 d . .
Cl2 Cl 1.21841(6) 0.96031(5) 0.53029(10) 0.01872(15) Uani 1 1 d . .
Cl3 Cl 1.16351(6) 0.72848(5) 0.64008(11) 0.02089(16) Uani 1 1 d . .
F1 F 0.72459(16) 0.52023(13) 0.1728(3) 0.0312(4) Uani 1 1 d . .
N1 N 1.0639(2) 0.83652(16) 0.3128(3) 0.0150(4) Uani 1 1 d . .
H5 H 1.0337 0.9059 0.2604 0.018 Uiso 1 1 calc R U
H6 H 1.1361 0.8180 0.2352 0.018 Uiso 1 1 calc R U
C2 C 0.9729(2) 0.75328(19) 0.2726(4) 0.0143(5) Uani 1 1 d . .
C3 C 0.8539(3) 0.77957(19) 0.2814(4) 0.0167(5) Uani 1 1 d . .
H4 H 0.8301 0.8514 0.3102 0.020 Uiso 1 1 calc R U
C4 C 0.7687(3) 0.7002(2) 0.2480(4) 0.0186(6) Uani 1 1 d . .
H3 H 0.6860 0.7163 0.2540 0.022 Uiso 1 1 calc R U
C5 C 0.8078(3) 0.5976(2) 0.2059(5) 0.0208(6) Uani 1 1 d . .
C6 C 0.9261(3) 0.5701(2) 0.1936(5) 0.0246(6) Uani 1 1 d . .
H1 H 0.9494 0.4985 0.1625 0.030 Uiso 1 1 calc R U
B1 B 1.1035(3) 0.8551(2) 0.5404(5) 0.0144(5) Uani 1 1 d . .
C7 C 1.0110(3) 0.6496(2) 0.2279(5) 0.0220(6) Uani 1 1 d . .
H2 H 1.0936 0.6332 0.2209 0.026 Uiso 1 1 calc R U
loop_
_atom_site_aniso_label
_atom_site_aniso_U_11
_atom_site_aniso_U_22
_atom_site_aniso_U_33
_atom_site_aniso_U_23
_atom_site_aniso_U_13
_atom_site_aniso_U_12
Cl1 0.0156(3) 0.0165(3) 0.0230(3) -0.0041(2) 0.0029(3) 0.0005(2)
Cl2 0.0180(3) 0.0182(3) 0.0200(3) 0.0014(2) -0.0032(3) -0.0078(2)
Cl3 0.0183(3) 0.0137(2) 0.0306(4) 0.0039(2) -0.0040(3) 0.0023(2)
F1 0.0237(11) 0.0208(7) 0.0491(12) 0.0003(8) -0.0087(9) -0.0116(7)
N1 0.0147(12) 0.0116(9) 0.0188(11) -0.0002(8) 0.0004(9) -0.0029(8)
C2 0.0152(14) 0.0118(11) 0.0159(12) -0.0009(9) -0.0007(10) -0.0027(9)
C3 0.0179(15) 0.0126(11) 0.0195(13) 0.0016(10) -0.0029(11) 0.0024(10)
C4 0.0128(16) 0.0208(12) 0.0222(14) 0.0020(10) -0.0024(11) -0.0002(10)
C5 0.0182(14) 0.0158(11) 0.0284(15) 0.0001(10) -0.0035(12) -0.0080(10)
C6 0.0213(15) 0.0123(10) 0.0402(17) -0.0053(12) -0.0028(14) -0.0004(10)
B1 0.0134(14) 0.0128(11) 0.0171(12) -0.0002(11) -0.0021(12) 0.0001(10)
C7 0.0129(14) 0.0180(12) 0.0353(17) -0.0073(11) -0.0005(12) 0.0003(10)
loop_
_atom_type_symbol
_atom_type_description
_atom_type_scat_dispersion_real
_atom_type_scat_dispersion_imag
_atom_type_scat_source
C C 0.0033 0.0016 'International Tables Vol C Tables 4.2.6.8 and 6.1.1.4'
H H 0.0000 0.0000 'International Tables Vol C Tables 4.2.6.8 and 6.1.1.4'
B B 0.0013 0.0007 'International Tables Vol C Tables 4.2.6.8 and 6.1.1.4'
F F 0.0171 0.0103 'International Tables Vol C Tables 4.2.6.8 and 6.1.1.4'
Cl Cl 0.1484 0.1585 'International Tables Vol C Tables 4.2.6.8 and 6.1.1.4'
N N 0.0061 0.0033 'International Tables Vol C Tables 4.2.6.8 and 6.1.1.4'
loop_
_geom_angle_atom_site_label_1
_geom_angle_atom_site_label_2
_geom_angle_atom_site_label_3
_geom_angle
C2 N1 B1 117.7(2)
C2 N1 H5 107.9
B1 N1 H5 107.9
C2 N1 H6 107.9
B1 N1 H6 107.9
H5 N1 H6 107.2
C3 C2 C7 121.9(2)
C3 C2 N1 119.8(2)
C7 C2 N1 118.3(3)
C2 C3 C4 119.5(2)
C2 C3 H4 120.3
C4 C3 H4 120.3
C5 C4 C3 118.0(3)
C5 C4 H3 121.0
C3 C4 H3 121.0
F1 C5 C4 118.0(3)
F1 C5 C6 118.7(2)
C4 C5 C6 123.4(2)
C5 C6 C7 118.5(2)
C5 C6 H1 120.8
C7 C6 H1 120.8
N1 B1 Cl3 108.92(17)
N1 B1 Cl1 109.27(18)
Cl3 B1 Cl1 110.78(16)
N1 B1 Cl2 105.16(18)
Cl3 B1 Cl2 111.41(16)
Cl1 B1 Cl2 111.11(14)
C2 C7 C6 118.8(3)
C2 C7 H2 120.6
C6 C7 H2 120.6
loop_
_geom_bond_atom_site_label_1
_geom_bond_atom_site_label_2
_geom_bond_distance
Cl1 B1 1.835(3)
Cl2 B1 1.836(3)
Cl3 B1 1.836(3)
F1 C5 1.357(3)
N1 C2 1.478(3)
N1 B1 1.606(4)
N1 H5 0.9900
N1 H6 0.9900
C2 C3 1.376(4)
C2 C7 1.389(4)
C3 C4 1.391(4)
C3 H4 0.9500
C4 C5 1.376(4)
C4 H3 0.9500
C5 C6 1.373(4)
C6 C7 1.390(4)
C6 H1 0.9500
C7 H2 0.9500
loop_
_geom_torsion_atom_site_label_1
_geom_torsion_atom_site_label_2
_geom_torsion_atom_site_label_3
_geom_torsion_atom_site_label_4
_geom_torsion
B1 N1 C2 C3 87.2(3)
B1 N1 C2 C7 -92.4(3)
C7 C2 C3 C4 1.0(4)
N1 C2 C3 C4 -178.5(2)
C2 C3 C4 C5 -0.4(4)
C3 C4 C5 F1 -179.9(3)
C3 C4 C5 C6 -0.6(5)
F1 C5 C6 C7 -179.9(3)
C4 C5 C6 C7 0.8(5)
C2 N1 B1 Cl3 59.1(3)
C2 N1 B1 Cl1 -62.0(3)
C2 N1 B1 Cl2 178.64(18)
C3 C2 C7 C6 -0.8(4)
N1 C2 C7 C6 178.7(3)
C5 C6 C7 C2 -0.1(5)
