#------------------------------------------------------------------------------
#$Date: 2019-11-08 01:00:45 +0200 (Fri, 08 Nov 2019) $
#$Revision: 224389 $
#$URL: file:///home/coder/svn-repositories/cod/cif/7/04/91/7049152.cif $
#------------------------------------------------------------------------------
#
# This file is available in the Crystallography Open Database (COD),
# http://www.crystallography.net/
#
# All data on this site have been placed in the public domain by the
# contributors.
#
data_7049152
loop_
_publ_author_name
'Li, Teng'
'Clulow, Rebecca'
'Bradford, Alasdair J.'
'Lee, Stephen L.'
'Slawin, Alexandra M. Z.'
'Lightfoot, Philip'
_publ_section_title
;
 A hybrid fluoride layered perovskite, (enH<sub>2</sub>)MnF<sub>4</sub>.
;
_journal_issue                   15
_journal_name_full
'Dalton transactions (Cambridge, England : 2003)'
_journal_page_first              4784
_journal_page_last               4787
_journal_paper_doi               10.1039/c9dt00757a
_journal_volume                  48
_journal_year                    2019
_chemical_formula_sum            'C2 H10 F4 Mn N2'
_chemical_formula_weight         193.06
_space_group_crystal_system      monoclinic
_space_group_IT_number           14
_space_group_name_Hall           '-P 2ybc'
_space_group_name_H-M_alt        'P 1 21/c 1'
_symmetry_space_group_name_Hall  '-P 2ybc'
_symmetry_space_group_name_H-M   'P 1 21/c 1'
_atom_sites_solution_hydrogens   geom
_audit_creation_method           SHELXL-2016/6
_audit_update_record
;
2018-11-26 deposited with the CCDC.    2019-02-26 downloaded from the CCDC.
;
_cell_angle_alpha                90
_cell_angle_beta                 90.183(13)
_cell_angle_gamma                90
_cell_formula_units_Z            2
_cell_length_a                   8.1632(7)
_cell_length_b                   6.0028(5)
_cell_length_c                   5.9759(5)
_cell_measurement_reflns_used    926
_cell_measurement_temperature    298(2)
_cell_measurement_theta_max      27.5
_cell_measurement_theta_min      3.4
_cell_volume                     292.83(4)
_computing_structure_refinement  'SHELXL-2016/6 (Sheldrick, 2016)'
_diffrn_ambient_temperature      298(2)
_diffrn_measured_fraction_theta_full 0.983
_diffrn_measured_fraction_theta_max 0.984
_diffrn_measurement_device_type
;
SCXMini: Fixed Chi 2 circle
;
_diffrn_measurement_method       'profile data from \w-scans'
_diffrn_radiation_type           MoK\a
_diffrn_radiation_wavelength     0.71075
_diffrn_reflns_av_unetI/netI     0.0609
_diffrn_reflns_Laue_measured_fraction_full 0.983
_diffrn_reflns_Laue_measured_fraction_max 0.984
_diffrn_reflns_limit_h_max       10
_diffrn_reflns_limit_h_min       -10
_diffrn_reflns_limit_k_max       7
_diffrn_reflns_limit_k_min       -7
_diffrn_reflns_limit_l_max       7
_diffrn_reflns_limit_l_min       0
_diffrn_reflns_number            666
_diffrn_reflns_point_group_measured_fraction_full 0.983
_diffrn_reflns_point_group_measured_fraction_max 0.984
_diffrn_reflns_theta_full        25.242
_diffrn_reflns_theta_max         27.546
_diffrn_reflns_theta_min         4.214
_diffrn_source                   'Sealed Tube'
_exptl_absorpt_coefficient_mu    2.250
_exptl_absorpt_correction_T_max  1.000
_exptl_absorpt_correction_T_min  0.640
_exptl_absorpt_correction_type   multi-scan
_exptl_absorpt_process_details   SADABS-2008/1-G.M.Sheldrick
_exptl_crystal_colour            Colorless
_exptl_crystal_density_diffrn    2.190
_exptl_crystal_description       Chip
_exptl_crystal_F_000             194
_exptl_crystal_size_max          0.17
_exptl_crystal_size_mid          0.15
_exptl_crystal_size_min          0.11
_refine_diff_density_max         0.722
_refine_diff_density_min         -0.591
_refine_diff_density_rms         0.112
_refine_ls_extinction_method     none
_refine_ls_goodness_of_fit_ref   1.048
_refine_ls_hydrogen_treatment    constr
_refine_ls_matrix_type           full
_refine_ls_number_parameters     44
_refine_ls_number_reflns         666
_refine_ls_number_restraints     0
_refine_ls_restrained_S_all      1.048
_refine_ls_R_factor_all          0.0373
_refine_ls_R_factor_gt           0.0338
_refine_ls_shift/su_max          0.000
_refine_ls_shift/su_mean         0.000
_refine_ls_structure_factor_coef Fsqd
_refine_ls_weighting_details
'w=1/[\s^2^(Fo^2^)+(0.0476P)^2^] where P=(Fo^2^+2Fc^2^)/3'
_refine_ls_weighting_scheme      calc
_refine_ls_wR_factor_gt          0.0847
_refine_ls_wR_factor_ref         0.0859
_reflns_Friedel_coverage         0.000
_reflns_number_gt                586
_reflns_number_total             666
_reflns_threshold_expression     'I > 2\s(I)'
_cod_data_source_file            c9dt00757a2.cif
_cod_data_source_block           shelx_CCDC2
_cod_depositor_comments
;
The following automatic conversions were performed:

'_exptl_absorpt_correction_type' value 'Multi-scan' changed to
'multi-scan' according to
/home/data/users/saulius/crontab/automatic-downloads/rss-feeds/RSC/lib/dictionaries/cif_core.dic
dictionary named 'cif_core.dic' version 2.4.2 from 2011-04-26.

Automatic conversion script
Id: cif_fix_values 4973 2017-02-22 13:04:09Z antanas 

 Adding full bibliography for 7049150--7049152.cif.
;
_cod_database_code               7049152
_shelx_shelxl_version_number     2016/6
_shelx_space_group_comment
;
The symmetry employed for this shelxl refinement is uniquely defined
by the following loop, which should always be used as a source of
symmetry information in preference to the above space-group names.
They are only intended as comments.
;
_shelx_res_file
;
TITL shelxt_a.res in P2(1)/c
    shelx.res
    created by SHELXL-2016/6 at 15:49:40 on 15-Nov-2018
CELL  0.71075   8.1632   6.0028   5.9759   90.000   90.183   90.000
ZERR     2.00   0.0007   0.0005   0.0005    0.000    0.013    0.000
LATT   1
SYMM  - X, 1/2 + Y, 1/2 - Z
SFAC  MN  F  C  N  H
UNIT   2  8  4  4  20
MERG   2
FMAP   2
PLAN   5
ACTA
BOND   $H
HTAB
EQIV $6 -x+1, -y+1, -z+1
HTAB N1 F1_$6
HTAB N1 F2
EQIV $7 x, -y+3/2, z+1/2
HTAB N1 F2_$7
LIST   4
L.S.  20
WGHT    0.047600
BASF   0.39745
FVAR      32.13431
MN1   1    0.500000    1.000000    0.500000    10.50000    0.00979    0.01048 =
         0.01774   -0.00015   -0.00269   -0.00005
F1    2    0.528552    0.716873    0.717275    11.00000    0.02117    0.01673 =
         0.02615    0.00644    0.00049    0.00079
F2    2    0.245541    0.957314    0.469070    11.00000    0.01159    0.02310 =
         0.02689   -0.00131   -0.00007   -0.00061
N1    4    0.229923    0.512101    0.510318    11.00000    0.01299    0.01962 =
         0.02307   -0.00024   -0.00046   -0.00001
AFIX  33
H1C   5    0.306592    0.440048    0.433364    11.00000   -1.50000
H1D   5    0.240228    0.657992    0.487864    11.00000   -1.50000
H1E   5    0.241583    0.482525    0.655435    11.00000   -1.50000
AFIX   0
C1    3    0.065218    0.438190    0.433990    11.00000    0.01427    0.01603 =
         0.02665   -0.00273   -0.00227   -0.00025
AFIX  23
H1A   5    0.053660    0.278985    0.456815    11.00000   -1.20000
H1B   5    0.052194    0.468794    0.275548    11.00000   -1.20000

AFIX   0
HKLF    5




REM  shelxt_a.res in P2(1)/c
REM R1 =  0.0338 for     586 Fo > 4sig(Fo)  and  0.0373 for all     666 data
REM     44 parameters refined using      0 restraints

END

WGHT      0.0442      0.0000

REM Instructions for potential hydrogen bonds
HTAB N1 F1_$6
HTAB N1 F2
EQIV $1 -x+1, y-1/2, -z+3/2
HTAB N1 F1_$1
HTAB N1 F2_$7
EQIV $8 x, y-1, z
HTAB C1 F2_$8
EQIV $4 x, -y+3/2, z-1/2
HTAB C1 F2_$4

REM Highest difference peak  0.722,  deepest hole -0.591,  1-sigma level  0.112
Q1    1   0.4550  1.0003  0.3660  11.00000  0.05    0.72
Q2    1   0.4788  0.7113  0.5873  11.00000  0.05    0.44
Q3    1   0.2352  1.0213  0.6390  11.00000  0.05    0.40
Q4    1   0.5332  0.8684  0.4134  11.00000  0.05    0.39
Q5    1   0.5460  0.7823  0.9032  11.00000  0.05    0.37
;
_shelx_res_checksum              46499
loop_
_space_group_symop_operation_xyz
'x, y, z'
'-x, y+1/2, -z+1/2'
'-x, -y, -z'
'x, -y-1/2, z-1/2'
loop_
_atom_site_label
_atom_site_type_symbol
_atom_site_fract_x
_atom_site_fract_y
_atom_site_fract_z
_atom_site_U_iso_or_equiv
_atom_site_adp_type
_atom_site_occupancy
_atom_site_site_symmetry_order
_atom_site_calc_flag
_atom_site_refinement_flags_posn
_atom_site_refinement_flags_adp
_atom_site_refinement_flags_occupancy
Mn1 Mn 0.500000 1.000000 0.500000 0.0127(2) Uani 1 2 d S . P
F1 F 0.5286(2) 0.7169(3) 0.7173(4) 0.0213(4) Uani 1 1 d . . .
F2 F 0.2455(2) 0.9573(3) 0.4691(4) 0.0205(5) Uani 1 1 d . . .
N1 N 0.2299(3) 0.5121(4) 0.5103(10) 0.0186(6) Uani 1 1 d . . .
H1C H 0.306592 0.440048 0.433364 0.028 Uiso 1 1 calc R U .
H1D H 0.240228 0.657992 0.487864 0.028 Uiso 1 1 calc R U .
H1E H 0.241583 0.482525 0.655435 0.028 Uiso 1 1 calc R U .
C1 C 0.0652(4) 0.4382(5) 0.4340(6) 0.0190(7) Uani 1 1 d . . .
H1A H 0.053660 0.278985 0.456815 0.023 Uiso 1 1 calc R U .
H1B H 0.052194 0.468794 0.275548 0.023 Uiso 1 1 calc R U .
loop_
_atom_site_aniso_label
_atom_site_aniso_U_11
_atom_site_aniso_U_22
_atom_site_aniso_U_33
_atom_site_aniso_U_23
_atom_site_aniso_U_13
_atom_site_aniso_U_12
Mn1 0.0098(3) 0.0105(3) 0.0177(4) -0.0002(2) -0.0027(7) -0.0001(2)
F1 0.0212(8) 0.0167(8) 0.0261(9) 0.0064(7) 0.0005(9) 0.0008(7)
F2 0.0116(8) 0.0231(8) 0.0269(13) -0.0013(9) -0.0001(10) -0.0006(6)
N1 0.0130(12) 0.0196(11) 0.0231(16) -0.0002(10) 0.000(2) 0.0000(9)
C1 0.0143(15) 0.0160(13) 0.0267(19) -0.0027(13) -0.0023(15) -0.0002(13)
loop_
_atom_type_symbol
_atom_type_description
_atom_type_scat_dispersion_real
_atom_type_scat_dispersion_imag
_atom_type_scat_source
Mn Mn 0.3368 0.7283 'International Tables Vol C Tables 4.2.6.8 and 6.1.1.4'
F F 0.0171 0.0103 'International Tables Vol C Tables 4.2.6.8 and 6.1.1.4'
C C 0.0033 0.0016 'International Tables Vol C Tables 4.2.6.8 and 6.1.1.4'
N N 0.0061 0.0033 'International Tables Vol C Tables 4.2.6.8 and 6.1.1.4'
H H 0.0000 0.0000 'International Tables Vol C Tables 4.2.6.8 and 6.1.1.4'
loop_
_geom_angle_atom_site_label_1
_geom_angle_atom_site_label_2
_geom_angle_atom_site_label_3
_geom_angle
_geom_angle_site_symmetry_1
_geom_angle_site_symmetry_3
F2 Mn1 F2 180.0 3_676 .
F2 Mn1 F1 91.92(8) 3_676 4_575
F2 Mn1 F1 88.08(7) . 4_575
F2 Mn1 F1 88.08(7) 3_676 2_656
F2 Mn1 F1 91.92(7) . 2_656
F1 Mn1 F1 180.00(7) 4_575 2_656
F2 Mn1 F1 86.45(8) 3_676 .
F2 Mn1 F1 93.55(8) . .
F1 Mn1 F1 89.088(17) 4_575 .
F1 Mn1 F1 90.912(17) 2_656 .
F2 Mn1 F1 93.55(8) 3_676 3_676
F2 Mn1 F1 86.45(8) . 3_676
F1 Mn1 F1 90.912(17) 4_575 3_676
F1 Mn1 F1 89.088(17) 2_656 3_676
F1 Mn1 F1 180.0 . 3_676
Mn1 F1 Mn1 160.50(11) 2_646 .
C1 N1 H1C 109.5 . .
C1 N1 H1D 109.5 . .
H1C N1 H1D 109.5 . .
C1 N1 H1E 109.5 . .
H1C N1 H1E 109.5 . .
H1D N1 H1E 109.5 . .
N1 C1 C1 109.2(4) . 3_566
N1 C1 H1A 109.8 . .
C1 C1 H1A 109.8 3_566 .
N1 C1 H1B 109.8 . .
C1 C1 H1B 109.8 3_566 .
H1A C1 H1B 108.3 . .
loop_
_geom_bond_atom_site_label_1
_geom_bond_atom_site_label_2
_geom_bond_distance
_geom_bond_site_symmetry_2
Mn1 F2 2.100(2) 3_676
Mn1 F2 2.101(2) .
Mn1 F1 2.1462(18) 4_575
Mn1 F1 2.1462(18) 2_656
Mn1 F1 2.1510(17) .
Mn1 F1 2.1510(17) 3_676
N1 C1 1.486(4) .
N1 H1C 0.8900 .
N1 H1D 0.8900 .
N1 H1E 0.8900 .
C1 C1 1.521(7) 3_566
C1 H1A 0.9700 .
C1 H1B 0.9700 .
loop_
_geom_hbond_atom_site_label_D
_geom_hbond_atom_site_label_H
_geom_hbond_atom_site_label_A
_geom_hbond_distance_DH
_geom_hbond_distance_HA
_geom_hbond_distance_DA
_geom_hbond_angle_DHA
_geom_hbond_site_symmetry_A
N1 H1C F1 0.89 1.88 2.765(4) 177.6 3_666
N1 H1D F2 0.89 1.80 2.687(3) 173.5 .
N1 H1E F2 0.89 1.91 2.750(7) 157.0 4_576
