#------------------------------------------------------------------------------
#$Date: 2019-11-07 22:33:11 +0200 (Thu, 07 Nov 2019) $
#$Revision: 223810 $
#$URL: file:///home/coder/svn-repositories/cod/cif/7/04/90/7049089.cif $
#------------------------------------------------------------------------------
#
# This file is available in the Crystallography Open Database (COD),
# http://www.crystallography.net/
#
# All data on this site have been placed in the public domain by the
# contributors.
#
data_7049089
loop_
_publ_author_name
'Bulatov, Evgeny'
'Haukka, Matti'
_publ_section_title
;
 Non-conventional synthesis and photophysical studies of platinum(ii)
 complexes with methylene bridged 2,2'-dipyridylamine derivatives.
;
_journal_issue                   10
_journal_name_full
'Dalton transactions (Cambridge, England : 2003)'
_journal_page_first              3369
_journal_page_last               3379
_journal_paper_doi               10.1039/c8dt03912g
_journal_volume                  48
_journal_year                    2019
_chemical_formula_moiety         'C14 H10 N2 O4'
_chemical_formula_sum            'C14 H10 N2 O4'
_chemical_formula_weight         270.24
_chemical_name_systematic        trans-2,2?-dinitrostilbene
_space_group_crystal_system      monoclinic
_space_group_IT_number           14
_space_group_name_Hall           '-P 2yn'
_space_group_name_H-M_alt        'P 1 21/n 1'
_symmetry_space_group_name_Hall  '-P 2yn'
_symmetry_space_group_name_H-M   'P 1 21/n 1'
_atom_sites_solution_hydrogens   geom
_audit_creation_date             2018-06-15
_audit_creation_method
;
Olex2 1.2
(compiled 2015.09.30 svn.r3233 for OlexSys, GUI svn.r5103)
;
_audit_update_record
;
2018-09-21 deposited with the CCDC.
2019-02-12 downloaded from the CCDC.
;
_cell_angle_alpha                90
_cell_angle_beta                 95.990(5)
_cell_angle_gamma                90
_cell_formula_units_Z            2
_cell_length_a                   3.6845(2)
_cell_length_b                   14.3789(7)
_cell_length_c                   11.4290(5)
_cell_measurement_reflns_used    1403
_cell_measurement_temperature    123.00(10)
_cell_measurement_theta_max      74.7410
_cell_measurement_theta_min      4.9390
_cell_volume                     602.19(5)
_computing_cell_refinement
;
CrysAlisPro, Agilent Technologies,
Version 1.171.36.32 (release 02-08-2013 CrysAlis171 .NET)
(compiled Aug  2 2013,16:46:58)
;
_computing_data_collection
;
CrysAlisPro, Agilent Technologies,
Version 1.171.36.32 (release 02-08-2013 CrysAlis171 .NET)
(compiled Aug  2 2013,16:46:58)
;
_computing_data_reduction
;
CrysAlisPro, Agilent Technologies,
Version 1.171.36.32 (release 02-08-2013 CrysAlis171 .NET)
(compiled Aug  2 2013,16:46:58)
;
_computing_molecular_graphics    'Olex2 (Dolomanov et al., 2009)'
_computing_publication_material  'Olex2 (Dolomanov et al., 2009)'
_computing_structure_refinement  'ShelXL (Sheldrick, 2015)'
_computing_structure_solution    'ShelXT (Sheldrick, 2015)'
_diffrn_ambient_temperature      123.00(10)
_diffrn_detector_area_resol_mean 5.1977
_diffrn_measured_fraction_theta_full 0.999
_diffrn_measured_fraction_theta_max 0.996
_diffrn_measurement_details
;
#__ type_ start__ end____ width___ exp.time_
  1 omega  -68.00   22.00   1.0000    1.0000
omega____ theta____ kappa____ phi______ frames
    -      -41.1176   57.0000  -60.0000 90

#__ type_ start__ end____ width___ exp.time_
  2 omega -100.00  -24.00   1.0000    1.0000
omega____ theta____ kappa____ phi______ frames
    -      -41.1176  -37.0000  120.0000 76

#__ type_ start__ end____ width___ exp.time_
  3 omega   54.00   97.00   1.0000    1.0000
omega____ theta____ kappa____ phi______ frames
    -       41.1176 -125.0000  120.0000 43

#__ type_ start__ end____ width___ exp.time_
  4 omega   40.00   85.00   1.0000    3.0000
omega____ theta____ kappa____ phi______ frames
    -      112.0000  -45.0000    0.0000 45

#__ type_ start__ end____ width___ exp.time_
  5 omega   37.00   95.00   1.0000    3.0000
omega____ theta____ kappa____ phi______ frames
    -      112.0000 -111.0000    0.0000 58

#__ type_ start__ end____ width___ exp.time_
  6 omega   41.00   78.00   1.0000    3.0000
omega____ theta____ kappa____ phi______ frames
    -      112.0000  -61.0000    0.0000 37

#__ type_ start__ end____ width___ exp.time_
  7 omega   48.00   75.00   1.0000    3.0000
omega____ theta____ kappa____ phi______ frames
    -      112.0000  -45.0000  150.0000 27

#__ type_ start__ end____ width___ exp.time_
  8 omega   87.00  113.00   1.0000    3.0000
omega____ theta____ kappa____ phi______ frames
    -      112.0000   30.0000 -180.0000 26

#__ type_ start__ end____ width___ exp.time_
  9 omega  133.00  177.00   1.0000    3.0000
omega____ theta____ kappa____ phi______ frames
    -      112.0000   30.0000 -180.0000 44

#__ type_ start__ end____ width___ exp.time_
 10 omega   74.00  101.00   1.0000    3.0000
omega____ theta____ kappa____ phi______ frames
    -      112.0000  -94.0000   30.0000 27

#__ type_ start__ end____ width___ exp.time_
 11 omega   93.00  136.00   1.0000    3.0000
omega____ theta____ kappa____ phi______ frames
    -      112.0000  -61.0000    0.0000 43

#__ type_ start__ end____ width___ exp.time_
 12 omega   60.00   90.00   1.0000    3.0000
omega____ theta____ kappa____ phi______ frames
    -      112.0000  -30.0000    0.0000 30

#__ type_ start__ end____ width___ exp.time_
 13 omega   38.00   86.00   1.0000    3.0000
omega____ theta____ kappa____ phi______ frames
    -      112.0000  -30.0000 -180.0000 48

#__ type_ start__ end____ width___ exp.time_
 14 omega  125.00  165.00   1.0000    3.0000
omega____ theta____ kappa____ phi______ frames
    -      112.0000    0.0000 -120.0000 40

#__ type_ start__ end____ width___ exp.time_
 15 omega   41.00   83.00   1.0000    3.0000
omega____ theta____ kappa____ phi______ frames
    -      112.0000  -45.0000   90.0000 42

#__ type_ start__ end____ width___ exp.time_
 16 omega   32.00   99.00   1.0000    3.0000
omega____ theta____ kappa____ phi______ frames
    -      112.0000  -15.0000 -150.0000 67

#__ type_ start__ end____ width___ exp.time_
 17 omega  112.00  137.00   1.0000    3.0000
omega____ theta____ kappa____ phi______ frames
    -      112.0000  -15.0000 -150.0000 25

#__ type_ start__ end____ width___ exp.time_
 18 omega   55.00   82.00   1.0000    3.0000
omega____ theta____ kappa____ phi______ frames
    -      112.0000  -94.0000  -60.0000 27
;
_diffrn_measurement_device_type  'SuperNova, Dual, Cu at zero, Atlas'
_diffrn_measurement_method       '\w scans'
_diffrn_orient_matrix_UB_11      0.2373949000
_diffrn_orient_matrix_UB_12      -0.0738333000
_diffrn_orient_matrix_UB_13      0.0691060000
_diffrn_orient_matrix_UB_21      -0.0537580000
_diffrn_orient_matrix_UB_22      -0.0661587000
_diffrn_orient_matrix_UB_23      -0.1064800000
_diffrn_orient_matrix_UB_31      0.3427823000
_diffrn_orient_matrix_UB_32      0.0406381000
_diffrn_orient_matrix_UB_33      -0.0474308000
_diffrn_radiation_monochromator  mirror
_diffrn_radiation_type           CuK\a
_diffrn_radiation_wavelength     1.54184
_diffrn_reflns_av_R_equivalents  0.0241
_diffrn_reflns_av_unetI/netI     0.0292
_diffrn_reflns_Laue_measured_fraction_full 0.999
_diffrn_reflns_Laue_measured_fraction_max 0.996
_diffrn_reflns_limit_h_max       4
_diffrn_reflns_limit_h_min       -1
_diffrn_reflns_limit_k_max       18
_diffrn_reflns_limit_k_min       -17
_diffrn_reflns_limit_l_max       14
_diffrn_reflns_limit_l_min       -14
_diffrn_reflns_number            2797
_diffrn_reflns_point_group_measured_fraction_full 0.999
_diffrn_reflns_point_group_measured_fraction_max 0.996
_diffrn_reflns_theta_full        67.684
_diffrn_reflns_theta_max         76.464
_diffrn_reflns_theta_min         4.960
_diffrn_source                   'SuperNova (Cu) X-ray Source'
_exptl_absorpt_coefficient_mu    0.939
_exptl_absorpt_correction_T_max  1.00000
_exptl_absorpt_correction_T_min  0.86132
_exptl_absorpt_correction_type   multi-scan
_exptl_absorpt_process_details
;
CrysAlisPro, Agilent Technologies,
Version 1.171.36.32 (release 02-08-2013 CrysAlis171 .NET)
(compiled Aug  2 2013,16:46:58)
Empirical absorption correction using spherical harmonics,
 implemented in SCALE3 ABSPACK scaling algorithm.
;
_exptl_crystal_colour            'clear colourless'
_exptl_crystal_colour_lustre     clear
_exptl_crystal_colour_primary    colourless
_exptl_crystal_density_diffrn    1.490
_exptl_crystal_description       needle
_exptl_crystal_F_000             280
_exptl_crystal_size_max          0.5066
_exptl_crystal_size_mid          0.0552
_exptl_crystal_size_min          0.0337
_refine_diff_density_max         0.310
_refine_diff_density_min         -0.217
_refine_diff_density_rms         0.053
_refine_ls_extinction_method     none
_refine_ls_goodness_of_fit_ref   1.090
_refine_ls_hydrogen_treatment    constr
_refine_ls_matrix_type           full
_refine_ls_number_parameters     91
_refine_ls_number_reflns         1262
_refine_ls_number_restraints     0
_refine_ls_restrained_S_all      1.090
_refine_ls_R_factor_all          0.0505
_refine_ls_R_factor_gt           0.0445
_refine_ls_shift/su_max          0.000
_refine_ls_shift/su_mean         0.000
_refine_ls_structure_factor_coef Fsqd
_refine_ls_weighting_details
'w=1/[\s^2^(Fo^2^)+(0.0623P)^2^+0.1843P] where P=(Fo^2^+2Fc^2^)/3'
_refine_ls_weighting_scheme      calc
_refine_ls_wR_factor_gt          0.1142
_refine_ls_wR_factor_ref         0.1229
_reflns_Friedel_coverage         0.000
_reflns_number_gt                1113
_reflns_number_total             1262
_reflns_threshold_expression     'I > 2\s(I)'
_cod_data_source_file            c8dt03912g2.cif
_cod_data_source_block           eb_104_2_m
_cod_depositor_comments
'Adding full bibliography for 7049077--7049089.cif.'
_cod_original_cell_volume        602.20(5)
_cod_database_code               7049089
_chemical_oxdiff_formula         'C6 H6 N1 O2'
_chemical_oxdiff_usercomment     'Clear, colorless, needle 0.5 0.1 0.1'
_shelx_space_group_comment
;
The symmetry employed for this shelxl refinement is uniquely defined
by the following loop, which should always be used as a source of
symmetry information in preference to the above space-group names.
They are only intended as comments.
;
_shelx_estimated_absorpt_t_max   0.969
_shelx_estimated_absorpt_t_min   0.648
_reflns_odcompleteness_completeness 98.36
_reflns_odcompleteness_iscentric 1
_reflns_odcompleteness_theta     77.17
_olex2_refinement_description
;
1. Fixed Uiso
 At 1.2 times of:
  All C(H) groups
2.a Aromatic/amide H refined with riding coordinates:
 C1(H1), C4(H4), C5(H5), C6(H6), C7(H7)
;
_shelx_res_file
;
    eb_104_2_m.res created by SHELXL-2014/7

TITL EB_104_2_m in P2(1)/n
CELL 1.54184 3.684544 14.37892 11.428959 90 95.9896 90
ZERR 2 0.000213 0.000675 0.000542 0 0.0048 0
LATT 1
SYMM 0.5-X,0.5+Y,0.5-Z
SFAC C H N O
UNIT 28 20 4 8

L.S. 4 0 0
PLAN  20
SIZE 0.0337 0.0552 0.5066
TEMP -150.15(10)
MORE -1
BOND $H
CONF
fmap 2 53
ACTA
REM <olex2.extras>
REM <HklSrc "%.\\EB_104_2_m.hkl">
REM </olex2.extras>

WGHT    0.062300    0.184300
FVAR      15.40461
O1    4    0.350218    0.274947    0.516865    11.00000    0.06244    0.03714 =
         0.02553   -0.00780    0.00176   -0.00139
O2    4    0.645535    0.205592    0.665493    11.00000    0.05693    0.02306 =
         0.04437    0.00020    0.00502    0.00645
N1    3    0.478248    0.272664    0.620485    11.00000    0.03813    0.02237 =
         0.02844   -0.00239    0.00660   -0.00269
C1    1    0.551959    0.461815    0.531052    11.00000    0.03226    0.02832 =
         0.02179    0.00332    0.00866    0.00140
AFIX  43
H1    2    0.701182    0.417604    0.497006    11.00000   -1.20000
AFIX   0
C2    1    0.445210    0.443224    0.649948    11.00000    0.02627    0.02476 =
         0.01834    0.00278    0.00465    0.00038
C3    1    0.422314    0.353403    0.695097    11.00000    0.02716    0.02255 =
         0.01940   -0.00065    0.00389   -0.00145
C4    1    0.338345    0.334373    0.808367    11.00000    0.03037    0.02750 =
         0.02211    0.00518    0.00367   -0.00378
AFIX  43
H4    2    0.330661    0.272111    0.835805    11.00000   -1.20000
AFIX   0
C5    1    0.266144    0.407989    0.880382    11.00000    0.02958    0.03822 =
         0.01796    0.00165    0.00679   -0.00215
AFIX  43
H5    2    0.202566    0.396623    0.957548    11.00000   -1.20000
AFIX   0
C6    1    0.286941    0.498374    0.839498    11.00000    0.03194    0.03219 =
         0.02237   -0.00483    0.00566    0.00235
AFIX  43
H6    2    0.237158    0.548900    0.888947    11.00000   -1.20000
AFIX   0
C7    1    0.380235    0.515780    0.726493    11.00000    0.03209    0.02210 =
         0.02531    0.00221    0.00569    0.00032
AFIX  43
H7    2    0.400112    0.578264    0.700919    11.00000   -1.20000
AFIX   0
HKLF 4

REM  EB_104_2_m in P2(1)/n
REM R1 =  0.0445 for    1113 Fo > 4sig(Fo)  and  0.0505 for all    1262 data
REM     91 parameters refined using      0 restraints

END

WGHT      0.0623      0.1843

REM Highest difference peak  0.310,  deepest hole -0.217,  1-sigma level  0.053
Q1    1   0.2582  0.4078  0.4350  11.00000  0.05    0.31
Q2    1   0.5325  0.3163  0.4966  11.00000  0.05    0.29
Q3    1   0.4677  0.3999  0.6743  11.00000  0.05    0.25
Q4    1   0.4548  0.3470  0.7585  11.00000  0.05    0.24
Q5    1   0.3281  0.3431  0.7444  11.00000  0.05    0.20
Q6    1   0.5894  0.2030  0.7465  11.00000  0.05    0.19
Q7    1   0.3867  0.5055  0.7947  11.00000  0.05    0.19
Q8    1   0.2691  0.5012  0.7848  11.00000  0.05    0.18
Q9    1   0.2820  0.4545  0.8538  11.00000  0.05    0.18
Q10   1   0.3317  0.3723  0.8396  11.00000  0.05    0.18
Q11   1   0.5532  0.3839  0.4583  11.00000  0.05    0.13
Q12   1   0.6315  0.5153  0.5494  11.00000  0.05    0.13
Q13   1   0.7920  0.4371  0.4992  11.00000  0.05    0.12
Q14   1   0.1115  0.5996  0.9747  11.00000  0.05    0.12
Q15   1   0.6018  0.5982  0.7163  11.00000  0.05    0.12
Q16   1   0.8563  0.3386  0.7465  11.00000  0.05    0.12
Q17   1   0.1722  0.4021  1.0191  11.00000  0.05    0.12
Q18   1   0.3204  0.5872  0.6613  11.00000  0.05    0.11
Q19   1   0.7852  0.3559  0.5004  11.00000  0.05    0.11
Q20   1   0.4474  0.3989  1.0634  11.00000  0.05    0.11
;
_shelx_res_checksum              67667
_shelx_shelxl_version_number     2014/7
_ins_header
;
TITL EB_104_2_m in P2(1)/n 
REM P2(1)/n (#14 in standard setting)
CELL 1.54184   3.684544  14.378920  11.428959  90.0000  95.9896  90.0000
ZERR    4.00   0.000213   0.000675   0.000542   0.0000   0.0048   0.0000
LATT  1
SYMM -x+1/2, y+1/2,-z+1/2 
SFAC C H N O
UNIT 24.00 24.00 4.00 8.00
TREF
HKLF 4
END
;
_olex2_submission_special_instructions 'No special instructions were received'
loop_
_space_group_symop_operation_xyz
'x, y, z'
'-x+1/2, y+1/2, -z+1/2'
'-x, -y, -z'
'x-1/2, -y-1/2, z-1/2'
loop_
_atom_site_label
_atom_site_type_symbol
_atom_site_fract_x
_atom_site_fract_y
_atom_site_fract_z
_atom_site_U_iso_or_equiv
_atom_site_adp_type
_atom_site_occupancy
_atom_site_site_symmetry_order
_atom_site_calc_flag
_atom_site_refinement_flags_posn
O1 O 0.3502(4) 0.27495(9) 0.51687(10) 0.0419(4) Uani 1 1 d .
O2 O 0.6455(4) 0.20559(8) 0.66549(12) 0.0415(4) Uani 1 1 d .
N1 N 0.4782(4) 0.27266(9) 0.62048(12) 0.0294(3) Uani 1 1 d .
C1 C 0.5520(4) 0.46182(11) 0.53105(12) 0.0270(3) Uani 1 1 d .
H1 H 0.7012 0.4176 0.4970 0.032 Uiso 1 1 calc R
C2 C 0.4452(4) 0.44322(10) 0.64995(12) 0.0230(3) Uani 1 1 d .
C3 C 0.4223(4) 0.35340(10) 0.69510(12) 0.0229(3) Uani 1 1 d .
C4 C 0.3383(4) 0.33437(11) 0.80837(13) 0.0266(3) Uani 1 1 d .
H4 H 0.3307 0.2721 0.8358 0.032 Uiso 1 1 calc R
C5 C 0.2661(4) 0.40799(12) 0.88038(12) 0.0283(4) Uani 1 1 d .
H5 H 0.2026 0.3966 0.9575 0.034 Uiso 1 1 calc R
C6 C 0.2869(4) 0.49837(11) 0.83950(13) 0.0286(3) Uani 1 1 d .
H6 H 0.2372 0.5489 0.8889 0.034 Uiso 1 1 calc R
C7 C 0.3802(4) 0.51578(10) 0.72649(13) 0.0263(3) Uani 1 1 d .
H7 H 0.4001 0.5783 0.7009 0.032 Uiso 1 1 calc R
loop_
_atom_site_aniso_label
_atom_site_aniso_U_11
_atom_site_aniso_U_22
_atom_site_aniso_U_33
_atom_site_aniso_U_23
_atom_site_aniso_U_13
_atom_site_aniso_U_12
O1 0.0624(8) 0.0371(7) 0.0255(6) -0.0078(5) 0.0018(5) -0.0014(6)
O2 0.0569(8) 0.0231(6) 0.0444(7) 0.0002(5) 0.0050(6) 0.0064(5)
N1 0.0381(7) 0.0224(6) 0.0284(7) -0.0024(5) 0.0066(5) -0.0027(5)
C1 0.0323(7) 0.0283(7) 0.0218(7) 0.0033(5) 0.0087(5) 0.0014(6)
C2 0.0263(7) 0.0248(7) 0.0183(6) 0.0028(5) 0.0047(5) 0.0004(5)
C3 0.0272(7) 0.0226(7) 0.0194(7) -0.0006(5) 0.0039(5) -0.0015(5)
C4 0.0304(7) 0.0275(7) 0.0221(7) 0.0052(5) 0.0037(5) -0.0038(6)
C5 0.0296(7) 0.0382(8) 0.0180(6) 0.0017(6) 0.0068(5) -0.0021(6)
C6 0.0319(7) 0.0322(8) 0.0224(7) -0.0048(6) 0.0057(5) 0.0024(6)
C7 0.0321(7) 0.0221(7) 0.0253(7) 0.0022(5) 0.0057(6) 0.0003(5)
loop_
_atom_type_symbol
_atom_type_description
_atom_type_scat_dispersion_real
_atom_type_scat_dispersion_imag
_atom_type_scat_source
C C 0.0181 0.0091 'International Tables Vol C Tables 4.2.6.8 and 6.1.1.4'
H H 0.0000 0.0000 'International Tables Vol C Tables 4.2.6.8 and 6.1.1.4'
N N 0.0311 0.0180 'International Tables Vol C Tables 4.2.6.8 and 6.1.1.4'
O O 0.0492 0.0322 'International Tables Vol C Tables 4.2.6.8 and 6.1.1.4'
loop_
_exptl_crystal_face_index_h
_exptl_crystal_face_index_k
_exptl_crystal_face_index_l
_exptl_crystal_face_perp_dist
_exptl_oxdiff_crystal_face_indexfrac_h
_exptl_oxdiff_crystal_face_indexfrac_k
_exptl_oxdiff_crystal_face_indexfrac_l
_exptl_oxdiff_crystal_face_x
_exptl_oxdiff_crystal_face_y
_exptl_oxdiff_crystal_face_z
0 -1 -1 0.0229 -0.0000 -1.0000 -1.0000 0.0047 0.1726 0.0068
0 1 1 0.0229 0.0000 1.0000 1.0000 -0.0047 -0.1726 -0.0068
0 1 -1 0.0169 0.0000 1.0000 -1.0000 -0.1429 0.0403 0.0881
0 -1 1 0.0169 -0.0000 -1.0000 1.0000 0.1429 -0.0403 -0.0881
-1 0 0 0.2493 -1.0000 -0.0000 -0.0000 -0.2374 0.0538 -0.3428
1 0 0 0.2493 1.0000 0.0000 0.0000 0.2374 -0.0538 0.3428
loop_
_geom_angle_atom_site_label_1
_geom_angle_atom_site_label_2
_geom_angle_atom_site_label_3
_geom_angle
_geom_angle_site_symmetry_1
O1 N1 C3 118.41(13) .
O2 N1 O1 123.37(14) .
O2 N1 C3 118.20(13) .
C1 C1 H1 118.5 3_666
C1 C1 C2 123.09(17) 3_666
C2 C1 H1 118.5 .
C3 C2 C1 122.62(13) .
C3 C2 C7 115.97(12) .
C7 C2 C1 121.31(13) .
C2 C3 N1 119.95(12) .
C4 C3 N1 116.36(12) .
C4 C3 C2 123.66(13) .
C3 C4 H4 120.7 .
C5 C4 C3 118.62(14) .
C5 C4 H4 120.7 .
C4 C5 H5 120.1 .
C4 C5 C6 119.74(13) .
C6 C5 H5 120.1 .
C5 C6 H6 119.7 .
C5 C6 C7 120.57(14) .
C7 C6 H6 119.7 .
C2 C7 H7 119.3 .
C6 C7 C2 121.39(14) .
C6 C7 H7 119.3 .
loop_
_geom_bond_atom_site_label_1
_geom_bond_atom_site_label_2
_geom_bond_distance
_geom_bond_site_symmetry_2
O1 N1 1.2286(18) .
O2 N1 1.2282(19) .
N1 C3 1.4677(18) .
C1 C1 1.342(3) 3_666
C1 H1 0.9500 .
C1 C2 1.4779(19) .
C2 C3 1.397(2) .
C2 C7 1.398(2) .
C3 C4 1.3893(19) .
C4 H4 0.9500 .
C4 C5 1.384(2) .
C5 H5 0.9500 .
C5 C6 1.386(2) .
C6 H6 0.9500 .
C6 C7 1.393(2) .
C7 H7 0.9500 .
loop_
_geom_torsion_atom_site_label_1
_geom_torsion_atom_site_label_2
_geom_torsion_atom_site_label_3
_geom_torsion_atom_site_label_4
_geom_torsion
_geom_torsion_site_symmetry_1
O1 N1 C3 C2 -39.7(2) .
O1 N1 C3 C4 138.66(15) .
O2 N1 C3 C2 141.54(15) .
O2 N1 C3 C4 -40.11(19) .
N1 C3 C4 C5 -177.00(13) .
C1 C1 C2 C3 153.82(19) 3_666
C1 C1 C2 C7 -29.7(3) 3_666
C1 C2 C3 N1 -4.7(2) .
C1 C2 C3 C4 177.05(13) .
C1 C2 C7 C6 -178.65(13) .
C2 C3 C4 C5 1.3(2) .
C3 C2 C7 C6 -2.0(2) .
C3 C4 C5 C6 -1.5(2) .
C4 C5 C6 C7 0.0(2) .
C5 C6 C7 C2 1.9(2) .
C7 C2 C3 N1 178.66(13) .
C7 C2 C3 C4 0.4(2) .
loop_
_hkl_oxdiff_h
_hkl_oxdiff_k
_hkl_oxdiff_l
_hkl_oxdiff_f2
_hkl_oxdiff_sig
_hkl_oxdiff_ba
0 0 1 -63.1152 43.6904 2
0 0 2 170840. 2295.54 2
0 0 3 118.210 158.806 2
0 0 4 59246.4 2038.35 2
0 0 5 -52.4834 160.252 2
0 0 6 669168. 8987.37 2
0 0 7 -72.8975 283.043 2
0 0 8 15620.8 1675.64 2
0 0 -9 431.668 188.668 12
0 0 -9 -161.829 154.060 11
0 0 9 137.834 300.564 2
0 0 -10 895.424 273.057 11
0 0 -11 -53.3438 97.4882 11
0 0 -12 5711.18 572.967 11
0 0 -13 218.628 140.908 11
0 0 -14 3076.93 278.723 15
0 1 0 51.9946 32.1255 1
0 1 -1 47854.5 680.302 3
0 1 1 47293.5 954.673 2
0 -1 2 467571. 4001.05 2
0 1 2 469492. 3959.66 2
0 -1 3 164086. 2897.96 2
0 1 3 164691. 2896.67 2
0 1 4 3919.05 545.590 2
0 -1 4 7078.66 737.612 2
0 1 5 133038. 3517.79 2
0 -1 5 135619. 3565.04 2
0 -1 6 -157.141 248.541 2
0 1 6 104.501 153.806 2
0 -1 7 17317.5 1628.18 2
0 1 7 16293.0 1579.60 2
0 1 8 75680.1 3712.84 2
0 -1 8 73552.2 3634.46 2
0 -1 -9 10184.2 781.602 12
0 1 -9 11234.3 764.927 11
0 -1 -9 10749.5 715.320 11
0 1 9 9321.51 1443.47 2
0 -1 9 9430.44 1422.85 2
0 1 -10 10082.6 782.878 11
0 -1 -10 9341.38 800.379 12
0 -1 -10 10200.7 757.261 11
0 -1 -11 13924.0 908.974 11
0 1 -11 13700.8 946.996 11
0 1 -12 3644.18 465.483 11
0 -1 -12 3586.50 453.339 11
0 1 -13 1742.76 281.232 11
0 1 -13 2065.99 315.251 15
0 -1 -13 1717.66 263.268 11
0 1 -14 6281.94 392.201 15
0 -1 -14 5700.50 370.920 15
0 2 0 2842.80 241.935 1
0 2 -1 531611. 3888.30 1
0 2 1 535496. 3708.37 1
0 -2 2 63830.9 1644.08 2
0 2 -2 60245.6 1059.29 3
0 2 2 60456.2 1507.17 1
0 2 -3 48465.3 1126.19 3
0 2 3 49414.6 1703.43 2
0 2 -4 1933.26 269.048 3
0 -2 4 1874.00 408.440 2
0 2 4 1727.15 393.656 2
0 2 -5 13206.2 736.558 3
0 -2 5 13120.9 1141.14 2
0 2 5 13519.0 1143.69 2
0 -2 6 47959.9 2437.12 2
0 2 6 50176.6 2505.40 2
0 -2 7 16705.4 1603.55 2
0 2 7 14470.3 1500.35 2
0 -2 8 379.000 421.720 2
0 -2 9 353.553 303.274 2
0 -2 -9 329.618 113.215 11
0 2 -9 386.146 185.174 11
0 -2 -9 706.396 228.457 12
0 -2 -10 47286.7 1789.31 12
0 -2 -10 48459.6 1601.68 11
0 2 -10 49607.2 1767.23 11
0 2 -11 45745.7 1729.19 11
0 -2 -11 46723.9 1598.85 11
0 2 -12 -85.3370 125.435 11
0 -2 -12 42.5198 88.3382 11
0 -2 -13 355.003 143.557 11
0 2 -13 487.587 171.863 15
0 -2 -14 1454.51 185.573 15
0 -2 14 1793.39 208.456 8
0 2 -14 1758.48 204.541 15
0 3 0 63.6098 72.6355 1
0 3 1 9722.18 634.685 1
0 3 -1 8894.22 593.454 1
0 3 -2 273995. 2546.13 3
0 3 2 266356. 3497.78 1
0 3 -3 42078.1 1065.75 3
0 3 3 43365.1 1586.21 1
0 -3 3 44810.5 1745.00 2
0 3 4 3620.51 541.525 1
0 3 -4 4470.13 377.910 3
0 -3 4 3931.57 579.062 2
0 3 -5 27467.9 1017.23 3
0 -3 5 30091.4 1782.49 2
0 3 5 27129.7 1600.31 1
0 3 6 24419.9 1680.79 1
0 -3 6 26491.6 1871.35 2
0 3 7 13797.1 1377.65 1
0 -3 7 15028.2 1548.69 2
0 3 8 784.950 454.825 1
0 -3 8 136.215 232.544 2
0 -3 -9 1993.50 346.445 12
0 3 -9 2418.78 390.790 11
0 3 9 2246.69 399.820 16
0 -3 -9 1983.88 309.601 11
0 -3 9 1469.51 540.483 2
0 3 10 34364.4 1466.86 16
0 -3 -10 32453.2 1287.35 11
0 -3 -10 32476.9 1478.38 12
0 3 -10 33167.2 1467.74 11
0 -3 -11 9744.55 710.366 11
0 3 -11 10113.4 830.612 11
0 3 -12 6542.04 639.002 11
0 -3 -12 6494.07 543.562 11
0 3 -12 6047.39 605.979 15
0 3 -13 380.373 166.796 15
0 3 -14 650.732 124.361 15
0 -3 14 761.504 133.943 8
0 4 0 725537. 5594.92 1
0 4 -1 1831.08 318.089 1
0 4 1 1937.88 309.648 1
0 4 2 40331.1 1533.85 1
0 -4 3 122614. 3116.49 2
0 4 3 122167. 2837.47 1
0 4 -4 4785.71 408.225 3
0 4 4 3994.69 580.674 1
0 -4 5 96700.8 3343.23 2
0 4 5 91245.1 2976.43 1
0 -4 6 42480.2 2445.24 2
0 4 6 41623.8 2203.88 1
0 -4 7 5626.05 959.411 2
0 4 7 3749.14 726.261 1
0 -4 -8 53342.2 1621.10 12
0 4 8 47382.8 2710.41 1
0 4 -8 49339.2 1581.14 11
0 -4 8 50765.8 3128.87 2
0 -4 9 48489.9 3216.23 2
0 4 9 49256.0 1807.68 16
0 -4 -9 49742.5 1454.58 11
0 -4 -9 47665.6 1689.18 12
0 4 -9 48294.2 1709.40 11
0 -4 -10 29653.5 1402.90 12
0 4 10 29835.0 1408.67 16
0 -4 -10 31131.2 1212.41 11
0 4 -10 30205.9 1421.83 11
0 4 -11 29053.5 1415.83 15
0 -4 -11 25813.1 1287.08 12
0 4 -11 29167.2 1378.38 11
0 -4 -11 28206.4 1141.50 11
0 4 11 27818.4 1247.83 16
0 -4 -12 5912.37 472.271 11
0 4 -12 6683.13 628.191 15
0 -4 13 -75.1366 77.1991 8
0 4 -13 55.9040 84.5956 15
0 5 0 137.277 146.715 1
0 5 -1 62885.0 2018.20 1
0 5 1 61325.3 1849.25 1
0 5 2 240416. 4107.61 1
0 5 3 425731. 5959.71 1
0 -5 4 29766.2 1808.32 2
0 5 4 26843.8 1541.25 1
0 -5 5 46810.1 2454.09 2
0 5 5 44806.3 2158.54 1
0 5 6 1743.44 485.820 1
0 -5 6 1738.62 510.458 2
0 -5 7 359.098 257.957 2
0 5 7 309.456 246.968 1
0 -5 8 97120.8 4426.08 2
0 -5 -8 95445.9 2201.67 12
0 -5 -8 92292.3 1909.90 4
0 5 -8 96225.1 2269.66 11
0 5 9 173335. 3473.25 16
0 -5 -9 170675. 3183.31 12
0 5 -9 170672. 3270.58 11
0 -5 -10 12038.9 895.746 12
0 5 -10 12177.3 913.051 11
0 5 10 12562.9 932.657 16
0 5 -10 14121.6 1010.25 15
0 5 -11 21034.6 1175.05 15
0 5 -11 19739.5 1114.97 11
0 5 11 20648.8 1074.19 16
0 -5 -11 19345.8 1081.93 12
0 5 -12 4147.57 484.939 15
0 5 -13 9272.89 567.516 15
0 -5 13 9391.61 547.156 8
0 6 0 1387.49 331.228 1
0 6 -1 54716.9 2095.47 1
0 6 1 52571.4 1901.43 1
0 6 2 379270. 5260.55 1
0 6 -2 377970. 5934.25 1
0 6 3 178069. 4054.39 1
0 -6 4 65712.2 2860.76 2
0 6 4 84106.5 3088.40 1
0 6 5 18197.1 1493.62 1
0 -6 5 17852.3 1606.43 2
0 -6 6 3159.70 738.006 2
0 6 6 3565.87 701.172 1
0 6 7 347.367 295.086 1
0 -6 7 360.862 306.024 2
0 -6 8 127362. 5107.64 2
0 6 -8 117581. 2574.99 11
0 6 -8 124017. 2851.77 15
0 -6 -8 120887. 2515.04 12
0 6 -9 64640.8 2021.92 11
0 6 -9 71176.5 2267.14 15
0 6 9 66471.8 2211.67 16
0 -6 -9 68575.2 2003.62 12
0 -6 -10 812.460 241.659 12
0 6 10 452.514 182.663 16
0 6 -10 578.034 256.615 15
0 6 -10 412.187 201.809 11
0 -6 -11 9688.16 733.014 12
0 6 -11 9891.62 801.611 15
0 -6 11 9629.56 742.505 8
0 6 -12 5017.41 501.696 15
0 -6 12 5065.17 469.038 8
0 -6 13 1141.01 177.375 8
0 6 -13 1193.20 191.541 15
0 7 0 49.5248 120.212 1
0 7 -1 88797.8 2953.32 1
0 7 1 87123.0 2721.15 1
0 7 2 22583.9 1407.18 1
0 7 3 53190.9 2205.92 1
0 -7 4 7089.25 1018.02 2
0 7 4 7228.95 893.839 1
0 7 5 973.559 408.948 1
0 -7 5 961.223 469.406 2
0 -7 6 7864.78 1213.04 2
0 7 6 8552.46 1112.53 1
0 -7 -7 80779.5 2269.26 14
0 7 -7 74763.0 1925.02 11
0 7 7 80945.2 2259.40 13
0 7 -7 80415.6 2233.44 15
0 -7 7 81555.4 4021.21 2
0 -7 -8 27439.9 1205.99 12
0 -7 -8 25802.9 1354.33 14
0 7 -8 25688.4 1211.69 11
0 7 -8 26371.6 1363.57 15
0 7 8 27495.5 1375.27 13
0 -7 8 26704.3 2358.45 2
0 -7 -9 355.466 225.830 12
0 7 -9 373.717 182.154 15
0 7 10 335.095 234.131 16
0 -7 10 163.740 157.367 8
0 -7 -10 55.7390 120.883 12
0 7 -10 -17.0215 132.812 15
0 7 -11 -37.4462 111.322 15
0 7 11 -98.2472 173.912 16
0 -7 -11 -44.4364 86.2330 12
0 -7 11 21.8132 92.0104 8
0 -7 12 299.584 133.258 8
0 7 -12 286.706 149.143 15
0 7 -13 3174.61 271.437 15
0 8 0 788.789 326.707 1
0 8 1 22482.9 1535.51 1
0 8 -1 21005.7 1581.44 1
0 8 2 1564.54 399.067 1
0 8 3 53212.9 2350.77 1
0 -8 4 13032.0 1484.24 2
0 8 4 12185.3 1154.49 1
0 -8 5 9883.67 1341.23 2
0 8 5 8286.54 990.037 1
0 8 6 10495.2 832.246 13
0 -8 6 11032.4 1470.83 2
0 8 -6 10445.4 799.751 15
0 -8 6 9586.38 689.123 8
0 -8 -6 10607.0 801.898 14
0 8 -7 152641. 3225.98 15
0 -8 7 151386. 2860.41 8
0 8 7 153560. 3236.87 13
0 -8 7 152871. 5596.35 2
0 -8 -7 153511. 3231.50 14
0 -8 -8 441.392 196.562 12
0 -8 -8 618.675 270.139 14
0 8 -8 614.046 240.727 15
0 -8 8 736.782 230.698 8
0 8 8 825.310 253.276 13
0 -8 9 36402.2 1461.75 8
0 -8 -9 34263.2 1385.86 12
0 8 -9 37049.5 1630.24 15
0 8 10 1706.15 385.196 16
0 -8 10 1611.32 314.724 8
0 -8 -10 1562.37 300.348 12
0 8 -10 1991.77 378.119 15
0 -8 11 9656.74 639.788 8
0 8 -11 10938.9 769.462 15
0 8 11 9409.08 673.475 16
0 -8 12 283.105 103.447 8
0 8 -12 96.1871 83.1350 15
0 9 0 -32.6153 149.957 1
0 9 -1 199.586 196.178 1
0 9 1 135.987 247.184 1
0 9 2 6177.47 861.298 1
0 9 3 70695.3 2905.98 1
0 -9 4 29286.4 2282.55 2
0 9 4 24127.7 1716.33 1
0 -9 -5 933.238 245.100 14
0 -9 5 1022.35 468.275 2
0 9 -5 778.170 232.983 15
0 9 5 968.941 284.730 13
0 -9 -6 1283.67 290.752 14
0 -9 6 1762.93 585.521 2
0 9 -6 1634.03 339.894 15
0 9 6 1097.72 304.853 13
0 -9 6 1739.53 309.391 8
0 9 -7 17442.1 1130.18 15
0 -9 -7 17860.9 1136.86 14
0 -9 7 16834.8 957.435 8
0 9 7 17185.1 1126.16 13
0 9 8 -11.3196 175.287 13
0 -9 -8 1.53344 137.853 14
0 -9 -8 98.0227 149.564 12
0 9 -8 -65.6718 128.863 15
0 -9 8 -175.645 150.902 8
0 9 9 67340.3 2067.38 13
0 -9 9 67342.7 1886.81 8
0 -9 -9 68965.0 1840.87 12
0 9 -9 70611.1 2219.01 15
0 -9 10 10384.5 684.949 8
0 9 -10 7930.26 682.551 15
0 9 10 9254.90 754.462 16
0 -9 -10 9186.09 637.870 12
0 9 11 1278.52 243.150 16
0 -9 11 1476.91 232.902 8
0 9 -11 1382.89 257.470 15
0 9 -12 22920.1 792.449 15
0 10 0 3167.08 734.534 1
0 10 1 12669.2 1350.59 1
0 10 2 4622.46 812.092 1
0 10 3 55750.1 2748.07 1
0 -10 -4 12270.3 845.844 14
0 10 4 9057.78 1106.20 1
0 -10 4 11519.5 1529.51 2
0 10 -4 12095.1 888.589 15
0 -10 5 6400.50 556.141 8
0 10 -5 6883.45 694.864 15
0 -10 -5 6947.84 672.673 14
0 -10 5 7226.02 1214.45 2
0 10 5 6856.12 727.812 13
0 10 -6 -40.1666 129.805 15
0 -10 6 78.9795 103.655 8
0 10 6 -97.7162 168.193 13
0 -10 -6 -128.753 143.267 14
0 -10 7 2170.74 340.248 8
0 -10 -7 2268.55 426.274 14
0 10 7 1808.05 379.207 13
0 -10 -7 1837.92 309.259 12
0 10 -7 2618.39 461.180 15
0 -10 -8 7576.76 745.107 14
0 -10 8 7690.00 627.598 8
0 10 8 7901.78 760.859 13
0 10 -8 7807.24 753.007 15
0 -10 -8 6015.64 537.061 12
0 -10 -9 11991.1 721.266 12
0 10 9 11813.7 803.778 13
0 -10 9 12071.9 733.664 8
0 10 10 3549.68 439.236 16
0 -10 -10 3096.63 329.517 12
0 -10 10 3781.22 370.117 8
0 10 -10 4171.31 471.573 15
0 10 11 11014.0 588.788 16
0 10 -11 11834.4 658.893 15
0 11 0 -7.59185 258.023 1
0 11 0 264.677 204.692 7
0 11 1 195639. 3632.71 7
0 11 1 183049. 5475.24 1
0 11 2 3637.32 513.576 7
0 11 2 2203.89 585.619 1
0 -11 -3 20129.5 1102.10 14
0 11 3 17892.0 1634.58 1
0 11 3 18828.0 1168.87 7
0 -11 4 1364.05 625.848 2
0 -11 -4 1115.63 264.179 14
0 11 -4 1089.57 287.562 15
0 -11 -5 5121.07 607.160 14
0 11 5 5859.76 705.102 13
0 11 -5 5009.79 631.428 15
0 11 6 1496.88 409.313 13
0 11 -6 1293.76 354.300 15
0 -11 -6 1053.13 295.998 14
0 -11 -7 36043.4 1608.70 14
0 11 7 36864.7 1651.62 13
0 11 -7 34596.7 1587.00 15
0 11 -8 9154.47 796.817 15
0 11 8 10380.9 842.350 13
0 11 9 695.170 196.872 13
0 11 -9 1326.67 277.227 15
0 11 10 8760.24 615.886 16
0 11 -10 9719.04 642.533 15
0 12 0 731.512 258.860 7
0 12 1 87545.2 3887.94 1
0 12 1 90100.0 2628.20 7
0 -12 -2 25035.1 1245.74 14
0 12 2 24929.8 1396.05 7
0 12 3 1269.24 301.416 7
0 -12 -3 1314.86 301.847 14
0 -12 -4 683.213 233.728 14
0 -12 -5 1029.57 277.514 14
0 12 5 1083.44 291.008 13
0 -12 -6 6830.34 708.621 14
0 12 6 6301.45 709.143 13
0 12 7 2415.79 427.667 13
0 -12 -7 2724.99 437.532 14
0 12 8 971.769 271.904 13
0 12 9 2725.02 373.695 16
0 12 10 4544.59 373.129 16
0 13 0 33.3102 162.246 7
0 -13 -1 4819.25 554.889 14
0 13 1 4755.30 623.520 7
0 13 -1 4149.04 603.285 7
0 13 2 112531. 3025.41 7
0 -13 -2 119106. 2768.65 14
0 -13 -3 969.095 272.866 14
0 13 4 48056.3 2034.13 13
0 -13 -4 48413.3 1819.91 14
0 13 5 162.402 207.657 13
0 -13 -5 253.708 202.684 14
0 13 6 443.225 235.382 13
0 -13 -6 455.833 221.883 14
0 13 7 96.1880 174.598 13
0 -13 -7 25.0556 101.250 14
0 13 8 117.976 104.245 13
0 13 9 12653.3 679.232 16
0 -14 0 44884.4 1611.60 14
0 14 0 43736.7 1892.79 7
0 14 1 13709.1 1054.82 7
0 -14 -1 14080.2 922.740 14
0 14 -1 12446.2 1023.52 7
0 14 2 15741.5 1112.12 7
0 -14 -2 15969.1 999.358 14
0 14 -2 15661.7 1141.74 7
0 -14 -3 12835.0 900.229 14
0 14 -3 12049.0 997.454 7
0 14 4 6894.88 744.573 13
0 -14 -4 6450.19 652.504 14
0 -14 -5 7923.03 694.685 14
0 14 5 9678.87 836.128 13
0 14 6 15891.2 969.063 13
0 -14 -6 16028.7 928.047 14
0 14 7 1295.40 244.399 13
0 14 8 104.343 89.8198 16
0 14 8 162.347 127.253 13
0 14 9 981.714 149.158 16
0 14 -9 1315.56 169.875 7
0 -15 0 174.029 129.850 14
0 15 0 -90.4572 196.775 7
0 15 -1 16845.2 1128.72 7
0 15 1 16728.7 1102.84 7
0 -15 -1 15721.5 910.002 14
0 -15 1 15254.3 833.597 14
0 15 -2 134.889 188.638 7
0 -15 -2 342.611 198.012 14
0 15 -3 1126.99 288.461 7
0 15 3 1069.67 293.287 13
0 -15 -3 1226.66 261.194 14
0 -15 -4 442.235 168.512 14
0 15 4 301.395 160.127 13
0 15 -4 503.692 217.847 7
0 15 -5 -65.4287 100.145 7
0 -15 -5 357.110 159.967 14
0 -15 -6 820.206 192.802 14
0 15 -6 1324.89 272.186 7
0 15 6 1065.07 219.824 13
0 15 7 9856.88 536.846 13
0 15 -7 11165.0 642.207 7
0 15 -8 -153.822 72.8953 7
0 15 8 42.2870 62.6018 16
0 16 0 26301.2 1246.51 7
0 16 -1 35644.5 1473.61 7
0 -16 -1 33105.4 1127.23 14
0 -16 -2 3379.54 374.161 14
0 16 -2 3648.28 476.892 7
0 16 2 4255.88 521.975 13
0 16 3 500.701 211.802 13
0 16 -3 413.536 185.535 7
0 -16 -3 307.687 123.503 14
0 -16 -4 2512.03 301.425 14
0 16 -4 2834.69 385.358 7
0 16 4 3394.19 412.678 13
0 -16 -5 345.144 118.964 14
0 16 -5 533.024 155.211 7
0 16 5 576.996 185.209 13
0 16 6 75.0689 89.6056 13
0 16 -6 70.5325 91.9390 7
0 17 0 151.117 117.413 13
0 17 1 5097.04 496.299 13
0 17 -2 2636.09 327.261 7
0 17 2 2223.42 328.470 13
0 17 -3 3001.37 331.161 7
0 17 3 2957.94 349.230 13
0 17 4 2482.85 285.927 13
0 17 -4 2024.83 250.790 7
0 18 0 13679.4 578.566 13
0 18 1 1081.79 167.514 13
0 18 -1 1303.86 181.483 13
1 0 -14 -41.2166 57.3789 11
1 0 -14 -57.8130 54.4447 15
1 0 -13 -33.5193 93.7851 11
1 0 -12 -41.5121 89.0246 11
1 0 -11 70374.2 2017.07 11
1 0 -10 367.499 147.544 11
1 0 -10 33.9151 114.346 12
1 0 -9 887.886 236.003 4
1 0 -9 998.762 220.037 12
-1 0 8 -202.423 280.327 2
-1 0 7 28731.9 1799.77 2
-1 0 6 -107.986 132.186 2
-1 0 5 148631. 3168.30 2
-1 0 4 63.8345 95.1506 2
-1 0 3 95482.6 1669.20 2
-1 0 2 134.268 49.0263 2
1 0 -1 20229.2 633.748 1
1 0 0 59.2916 84.5773 1
1 0 0 -3.78929 71.0526 3
1 0 2 1.04372 84.6501 2
1 0 3 52398.7 1935.04 2
1 0 4 79.4288 114.057 2
1 0 5 33553.2 2024.96 2
1 0 6 -77.4684 175.828 2
1 0 7 48679.4 2975.18 2
-1 0 -8 -88.3439 133.491 11
1 0 8 -69.9500 150.233 16
-1 0 -9 15240.7 971.379 11
1 0 9 15758.9 1084.26 16
1 0 10 63.7631 137.198 16
1 0 11 1493.63 318.168 16
1 0 12 -56.6558 112.400 16
-1 0 -12 -58.7148 118.068 15
1 0 13 270.805 111.150 8
1 1 -14 1185.60 172.611 11
1 -1 -14 1225.46 178.735 15
1 -1 -14 1438.95 183.548 11
1 1 -14 1355.37 179.214 15
1 1 -13 5226.55 469.811 11
1 1 -13 4390.80 436.261 15
1 -1 -13 4713.86 439.849 11
1 -1 -12 47.0336 98.7793 11
1 1 -12 37.7842 85.3767 11
1 1 -11 16896.5 998.714 11
1 -1 -11 15101.0 981.424 12
1 -1 -11 16264.2 957.388 11
1 -1 -10 1852.19 328.964 11
1 -1 -10 1781.82 354.848 12
1 1 -10 1798.80 336.893 11
1 1 -10 1403.13 317.535 12
1 -1 -9 28512.0 1257.24 12
1 -1 -9 28903.6 1201.52 4
1 1 -9 31226.8 1239.43 11
1 1 -9 29042.1 1254.76 12
1 1 -8 12866.3 1285.65 3
-1 -1 8 13137.7 1337.39 2
-1 1 7 39322.0 2114.04 2
-1 -1 7 42664.2 2201.01 2
-1 -1 6 238.987 124.803 2
-1 1 6 -175.541 200.001 2
-1 -1 5 52536.2 1925.81 2
-1 1 5 50744.1 1865.69 2
-1 -1 4 35117.7 1329.34 2
-1 1 4 36905.2 1342.87 2
-1 -1 3 602192. 4471.02 2
-1 -1 2 24604.3 680.477 2
1 1 -2 25233.4 847.537 1
1 1 -1 551276. 3963.86 1
1 -1 -1 518131. 2312.67 1
1 1 0 998880. 6236.38 3
1 1 1 595936. 4388.54 3
1 -1 1 589232. 4329.64 2
1 -1 1 586471. 3656.15 3
1 1 1 590274. 5780.90 1
1 1 2 210958. 3336.21 2
1 -1 2 213510. 3296.34 2
1 1 3 122826. 3011.86 2
1 -1 3 120375. 2944.38 2
1 1 4 683.563 335.904 2
1 -1 4 172.308 171.099 2
1 -1 5 72663.1 2998.25 2
1 1 5 69655.4 2967.10 2
1 -1 6 85769.2 3620.89 2
1 1 6 83412.7 3595.70 2
1 -1 7 15985.0 1694.32 2
1 1 7 14912.7 1648.28 2
1 -1 8 7417.95 702.845 16
1 -1 8 6826.78 1194.73 2
-1 1 -8 7721.42 650.959 11
1 1 8 8264.89 785.551 16
-1 -1 -8 6929.92 589.833 11
1 1 8 6015.05 1156.98 2
1 -1 9 2204.47 421.172 16
-1 1 -9 2049.30 367.382 11
-1 -1 -9 2585.01 403.147 11
1 1 9 1819.68 394.291 16
1 -1 10 186.733 157.631 16
1 1 10 402.512 207.910 16
1 1 11 13649.1 927.426 16
1 -1 11 13742.9 881.391 16
1 1 12 13139.3 742.696 16
-1 1 -12 12438.3 671.020 15
1 -1 12 12351.6 671.360 16
1 1 13 218.914 93.3658 8
1 -1 13 146.982 81.9430 8
1 -2 -14 1358.01 176.870 15
1 -2 -14 1354.58 166.398 11
1 2 -14 1611.53 190.558 15
1 2 -13 6847.91 531.216 11
1 -2 -13 6952.28 520.418 11
1 2 -13 7265.98 560.876 15
1 2 -12 399.371 184.902 11
1 -2 -12 188.778 104.805 11
1 -2 -11 8249.72 731.591 12
1 2 -11 9258.70 744.384 11
1 -2 -11 9192.89 715.629 11
1 -2 -10 19267.4 1107.95 12
1 2 -10 19142.2 1044.91 11
1 -2 -10 19569.6 1017.90 11
1 2 -9 5995.20 575.090 12
1 -2 -9 5866.32 543.965 4
1 -2 -9 6276.51 590.379 12
1 2 -9 6314.73 567.159 11
1 2 -8 1592.31 490.280 3
-1 -2 8 2121.63 596.173 2
-1 -2 7 12283.2 1205.04 2
1 2 -7 9629.47 1075.75 3
1 2 -6 55611.8 2427.39 3
-1 -2 6 55897.3 2357.84 2
-1 -2 5 262406. 4481.45 2
1 2 -5 262785. 4959.14 3
-1 -2 4 29392.3 1307.82 2
1 2 -4 30576.5 1587.01 3
1 2 -3 34969.7 1569.13 3
-1 -2 3 35443.1 1228.89 2
1 2 -2 228.460 188.661 3
1 2 -2 348.554 119.711 1
1 2 -1 432799. 4117.79 1
1 -2 0 558400. 3772.67 2
1 2 0 553381. 4947.58 3
1 -2 1 100330. 1988.37 2
1 2 1 99563.0 2537.80 1
1 2 2 116173. 3047.03 1
1 -2 2 118905. 2567.91 2
1 2 3 617.419 309.798 1
1 -2 3 624.448 239.004 2
1 -2 4 59892.0 2445.01 2
1 2 4 60489.6 2505.51 2
1 -2 5 46310.1 2412.61 2
1 2 5 44382.4 2411.05 2
1 -2 6 26932.7 2034.69 2
1 -2 7 55398.4 3174.07 2
1 2 7 54108.1 3322.83 1
1 2 8 10520.1 863.080 16
1 -2 8 8987.16 1404.93 2
-1 2 -8 8471.94 711.476 11
1 -2 8 9705.17 794.713 16
1 2 8 8462.15 1402.89 1
-1 2 -9 742.498 242.320 11
-1 -2 -9 395.627 160.811 11
1 -2 9 555.410 240.554 16
1 2 9 546.822 254.997 16
1 2 10 116.878 233.472 16
1 -2 10 242.271 176.757 16
1 -2 11 75995.1 1993.51 16
-1 2 -11 76737.8 1945.90 15
1 2 11 76643.4 2183.18 16
1 -2 12 3821.83 357.479 16
1 2 12 4549.50 449.189 16
-1 2 -12 3639.35 360.938 15
1 2 13 330.546 94.1523 8
1 -2 13 619.376 138.106 8
1 -3 -14 8237.21 397.359 15
1 3 -14 8608.11 405.405 15
1 3 -13 4174.70 408.905 11
1 -3 -13 3698.71 354.694 11
1 3 -13 3301.65 371.229 15
1 -3 -12 6418.55 608.925 12
1 3 -12 6446.42 577.629 11
1 -3 -12 5971.79 525.495 11
1 3 -12 6209.52 599.229 15
1 -3 -11 581.342 239.897 12
1 -3 -11 734.424 244.689 11
1 3 -11 535.622 216.863 11
1 -3 -10 84254.6 2085.54 11
1 3 -10 79906.4 2131.26 11
1 -3 -10 77661.0 2054.02 4
1 -3 -10 77270.2 2222.81 12
1 3 -9 55683.2 1693.10 11
1 -3 -9 54008.3 1640.68 4
1 -3 -9 54634.0 1776.56 12
1 3 -8 95232.2 2011.36 11
1 -3 -8 93080.8 1987.23 4
-1 -3 8 91312.2 3683.53 2
1 3 -7 508.069 266.095 3
-1 -3 7 365.126 280.319 2
-1 -3 6 1567.54 428.269 2
1 3 -6 1908.30 503.354 3
1 3 -5 -50.8377 158.438 3
-1 -3 5 159.423 188.005 2
-1 -3 4 211.283 130.392 2
1 3 -4 224.771 190.562 3
-1 -3 3 194561. 3316.12 2
1 3 -3 184775. 3454.11 1
1 3 -3 194373. 3747.89 3
1 3 -2 60227.5 1963.47 3
1 3 -2 58449.0 1792.18 1
1 3 -1 238253. 3656.45 3
1 3 -1 219457. 3361.45 1
1 3 0 15379.3 1054.30 1
1 3 0 13121.5 828.830 3
1 -3 1 44781.3 1496.60 2
1 3 1 46134.6 1852.76 1
1 -3 2 50630.1 1809.01 2
1 3 2 52019.8 2161.51 1
1 -3 3 78524.5 2561.56 2
1 3 3 76814.6 2859.90 1
1 3 4 2189.32 591.813 1
1 -3 4 2262.41 492.124 2
1 3 5 9.35171 221.772 1
1 -3 5 186.730 233.723 2
1 3 6 2449.95 701.756 1
1 -3 6 2496.89 613.150 2
1 3 7 32534.5 2587.67 1
1 -3 7 31246.1 2411.62 2
1 3 8 27210.5 2481.46 1
-1 3 -8 26267.7 1279.09 11
1 3 8 30798.1 1513.21 16
1 -3 8 29205.3 1358.40 16
1 -3 8 26661.2 2357.71 2
1 -3 9 33751.4 1508.04 16
1 3 9 32714.5 1602.65 16
1 3 10 20253.0 1246.62 16
1 -3 10 20586.0 1125.62 16
-1 3 -10 21157.3 1102.91 15
1 -3 11 6601.14 562.380 16
-1 3 -11 5059.26 496.578 15
-1 3 -12 771.131 176.000 15
1 -3 12 920.232 208.278 8
1 3 12 849.856 220.681 16
1 -3 13 6390.67 402.539 8
-1 -4 13 2195.07 232.122 8
1 4 -13 2694.97 303.590 11
1 -4 -13 2755.66 282.595 11
1 4 -13 2378.25 302.109 15
1 -4 -12 6813.91 610.110 12
1 4 -12 7626.45 616.729 11
1 -4 -12 6663.08 526.583 11
1 4 -12 7969.43 663.634 15
1 4 -11 507.678 216.483 11
1 -4 -11 337.863 171.582 11
1 4 -11 524.901 240.801 15
1 -4 -11 458.168 202.384 12
1 -4 -10 24567.8 1103.90 11
1 -4 -10 25760.0 1180.43 4
1 4 -10 24418.5 1177.13 11
1 -4 -10 25329.2 1282.98 12
1 4 -9 132.858 96.2672 11
1 -4 -9 -57.2015 107.718 4
1 -4 -9 -39.8853 96.8529 12
1 -4 -8 138389. 2458.48 4
1 4 -8 133529. 2404.87 11
-1 -4 7 9416.42 1148.08 2
1 4 -7 11009.0 1093.75 3
-1 -4 6 40283.4 2172.24 2
1 4 -6 38563.6 1957.51 3
-1 -4 5 9112.87 956.289 2
1 4 -5 7987.72 883.942 3
1 4 -4 148770. 3519.25 3
-1 -4 4 147438. 3504.84 2
1 4 -3 11767.9 971.782 1
1 4 -3 11568.0 923.566 3
1 4 -2 95881.2 2582.35 1
1 4 -2 100160. 2615.38 3
1 4 -1 171624. 3322.63 1
1 4 -1 175839. 3342.45 3
1 4 0 291506. 4774.59 1
1 4 1 166979. 3895.76 1
1 -4 2 6596.62 725.724 2
1 4 2 6630.29 825.747 1
1 -4 3 -5.72846 104.939 2
1 4 3 -82.4824 171.162 1
1 4 4 12215.1 1329.39 1
1 -4 4 12187.5 1182.49 2
1 -4 5 6391.71 942.156 2
1 4 5 6134.10 1009.86 1
1 4 6 58337.5 3284.83 1
1 -4 6 55400.7 3001.45 2
1 4 7 17976.0 1118.01 16
1 -4 7 17404.1 1801.94 2
1 4 7 15548.3 1812.94 1
1 4 7 17555.5 1155.65 13
1 4 8 9473.47 1521.55 1
1 -4 8 9203.85 765.589 16
1 -4 8 9413.20 1422.10 2
1 4 8 9406.27 837.112 16
1 4 8 10259.1 924.924 13
-1 4 -8 8853.10 718.435 15
1 -4 9 54250.5 1863.09 16
1 4 9 55962.9 2112.94 16
-1 4 -9 55478.5 1795.87 15
-1 4 -10 13.4309 103.025 15
1 -4 10 240.836 132.884 16
1 4 10 293.602 201.135 16
-1 4 -11 25378.7 1089.63 15
1 4 11 23251.0 1177.50 16
1 -4 12 129.357 86.2802 8
1 4 12 -9.49421 105.766 16
-1 4 -12 5.51437 65.0018 15
1 -4 13 1947.25 213.616 8
1 5 -13 1885.21 251.454 15
1 -5 -13 1603.29 186.921 11
1 5 -12 7036.03 593.357 15
1 -5 -12 7300.76 509.863 11
1 5 -12 7543.05 574.648 11
1 -5 -12 7396.64 613.072 12
1 -5 -11 2455.41 388.547 12
1 -5 -11 2776.14 365.458 11
1 5 -11 2891.67 396.197 11
1 5 -11 2560.90 423.386 15
1 -5 -10 11435.7 865.235 12
1 5 -10 11267.2 799.677 11
1 -5 -10 12708.9 779.317 11
1 -5 -10 11724.8 795.180 4
1 5 -10 11876.8 924.953 15
1 -5 -9 89280.7 2123.21 4
1 5 -9 90588.3 2178.50 11
1 -5 -9 92821.4 2395.78 12
1 5 -9 88852.1 2480.98 15
-1 -5 8 21728.8 1911.73 2
1 5 -8 22451.8 1000.39 11
1 -5 -8 24507.0 1049.38 4
1 5 -8 22461.7 1187.60 15
1 -5 -8 22143.9 1105.34 14
-1 -5 7 6178.67 961.559 2
1 5 -7 4552.15 689.696 3
1 5 -6 49.7903 147.188 3
-1 -5 6 605.032 308.920 2
1 5 -5 1613.51 444.814 3
-1 -5 5 2361.28 521.894 2
-1 -5 4 7576.77 887.099 2
1 5 -4 6177.46 725.059 3
1 5 -3 282464. 5212.02 1
1 5 -3 283924. 4771.27 3
1 5 -2 5123.14 667.532 1
1 5 -2 4725.04 589.007 3
1 5 -1 15290.9 1101.21 1
1 5 0 76788.9 2523.82 1
1 5 1 6894.90 877.919 1
1 -5 2 95056.8 2887.53 2
1 5 2 101975. 3489.23 1
1 -5 3 120128. 3531.80 2
1 5 3 127851. 4064.76 1
1 5 4 52653.6 2763.57 1
1 -5 4 47784.8 2418.72 2
1 5 5 14748.4 1562.72 1
1 -5 5 13232.5 1379.36 2
1 5 6 9167.41 1327.90 1
1 -5 6 9203.46 1240.96 2
1 5 7 3206.89 468.415 16
1 -5 7 3963.77 493.462 16
1 5 7 4282.07 598.692 13
-1 5 -7 3999.09 468.878 15
1 -5 7 4188.70 865.617 2
1 5 7 2747.67 757.776 1
1 5 8 4933.71 663.754 13
1 -5 8 5827.07 613.241 16
1 5 8 4964.89 637.333 16
-1 5 -8 5475.46 557.392 15
1 -5 8 4445.51 1022.83 2
1 5 8 4483.01 1066.66 1
1 -5 9 88571.6 2335.39 16
1 5 9 90774.0 2704.36 16
-1 5 -9 90063.7 2300.97 15
1 -5 10 41960.7 1479.14 16
-1 5 -10 41756.8 1511.29 15
1 5 10 40786.3 1742.78 16
1 -5 10 41121.7 1627.68 8
1 -5 11 2281.72 367.104 8
-1 5 -11 1731.37 283.210 15
1 5 11 2464.18 395.208 16
1 -5 12 993.178 201.860 8
1 5 12 1529.49 248.865 16
-1 5 -12 1058.52 187.681 15
1 -5 13 508.328 103.171 8
1 6 -13 131.532 98.3296 15
1 -6 -12 17379.2 893.099 12
1 -6 -12 17035.2 693.394 11
1 6 -12 18533.8 921.891 15
1 -6 -11 7878.55 682.118 12
1 6 -11 8652.37 726.306 15
1 6 -11 7707.36 601.850 11
1 -6 -11 6980.53 522.998 11
1 6 -10 14404.2 873.629 11
1 -6 -10 15379.3 820.722 11
1 6 -10 13491.3 972.415 15
1 -6 -10 14791.0 974.208 12
1 -6 -10 13629.8 835.882 4
1 -6 -9 33235.3 1448.39 12
1 6 -9 30090.0 1239.36 11
1 -6 -9 32717.6 1288.54 4
1 6 -9 30833.5 1473.52 15
1 6 -8 36527.1 1551.04 15
-1 -6 8 32871.6 2375.07 2
1 -6 -8 33753.0 1428.12 14
1 -6 -8 36244.9 1291.09 4
1 6 -7 103442. 2448.19 15
-1 -6 7 111263. 4216.03 2
1 -6 -7 109666. 2090.89 4
1 -6 -7 104371. 2377.16 14
1 -6 -7 107756. 1764.69 6
-1 -6 6 16114.0 1539.85 2
1 6 -6 15780.4 1248.58 3
1 6 -5 11362.3 1041.96 3
-1 -6 5 11691.8 1224.08 2
-1 -6 4 56391.7 2581.00 2
1 6 -4 58628.5 2317.85 3
1 6 -3 148331. 4130.93 1
1 6 -2 43607.7 2120.92 1
1 6 -1 158319. 3924.74 1
1 6 0 29704.3 1706.32 1
1 6 1 587.477 284.982 1
1 -6 2 3301.66 596.363 2
1 6 2 2833.52 662.765 1
1 -6 3 60202.6 2656.66 2
1 6 3 69211.3 3249.55 1
1 -6 4 100723. 3687.75 2
1 6 4 108288. 4161.50 1
1 6 5 925.517 457.706 1
1 -6 5 1146.22 442.182 2
1 6 6 102325. 4488.62 1
1 -6 6 94221.6 4077.37 2
1 -6 6 96844.8 2249.09 8
1 6 7 1835.27 422.248 13
-1 6 -7 1891.01 340.473 15
1 -6 7 932.027 285.560 16
1 6 7 1312.61 607.440 1
1 -6 7 994.621 243.397 8
1 -6 7 942.623 437.538 2
1 -6 8 15491.6 979.904 16
1 6 8 13819.5 1064.29 16
1 -6 8 14442.2 974.403 8
1 6 8 14670.4 1143.84 13
-1 6 -8 15596.6 953.349 15
1 -6 9 14645.7 994.494 8
1 6 9 14082.1 1066.90 16
-1 6 -9 14870.6 933.367 15
1 -6 10 36754.1 1512.64 8
1 6 10 37953.3 1646.53 16
-1 6 -10 37105.9 1391.88 15
1 6 11 6937.81 624.226 16
1 -6 11 7998.66 645.062 8
-1 6 -11 6337.52 509.452 15
1 6 12 3194.49 332.157 16
-1 6 -12 2728.97 246.962 15
1 -6 12 3361.99 338.822 8
1 7 -13 595.085 114.103 15
1 -7 -12 684.382 182.763 12
1 7 -12 855.696 197.691 15
1 -7 -11 1884.13 333.032 12
1 7 -11 2004.67 335.410 15
1 -7 -10 3385.67 473.992 12
1 7 -10 3573.87 409.609 11
1 -7 -10 3176.93 358.221 11
1 -7 -10 3807.51 438.085 4
1 7 -10 3500.36 484.810 15
1 -7 -9 1021.78 275.915 12
1 -7 -9 918.580 224.887 4
1 7 -9 655.900 254.820 15
1 -7 -8 1113.85 253.481 4
1 7 -8 1057.08 300.857 15
1 -7 -8 915.907 246.142 14
-1 -7 7 74069.8 3547.50 2
1 -7 -7 77049.9 1802.76 4
1 7 -7 73712.3 2146.35 15
1 -7 -7 70388.3 1465.14 6
1 -7 -7 72349.3 2088.43 14
-1 -7 6 481.290 429.141 2
-1 -7 5 73764.7 3310.82 2
-1 -7 4 245.276 180.923 2
1 7 -3 417.144 314.122 1
1 7 -2 17677.1 1485.79 1
1 7 -1 464.022 285.386 1
1 7 0 -113.884 193.264 1
1 7 1 19183.6 1499.93 1
1 7 2 316023. 6436.18 1
1 -7 3 832.540 373.461 2
1 7 3 558.254 424.110 1
1 7 4 78898.9 3854.83 1
1 -7 4 69336.2 3216.84 2
1 -7 5 33005.8 2339.47 2
1 7 5 35767.8 2743.91 1
1 7 6 194.363 239.823 13
1 7 6 251.865 313.699 1
1 -7 6 -468.218 284.532 2
-1 7 -6 -68.0869 140.365 15
1 -7 6 344.867 182.430 8
1 -7 7 15538.5 1784.89 2
1 7 7 18116.4 2034.23 1
1 -7 7 18225.2 1071.55 8
-1 7 -7 18682.3 1033.30 15
1 7 7 18227.2 1228.09 13
1 -7 8 218253. 3816.56 8
1 7 8 218890. 4236.10 16
-1 7 -8 217559. 3614.77 15
1 7 8 219912. 4393.73 13
-1 7 -9 686.541 231.742 15
1 7 9 303.520 151.555 13
1 -7 9 483.089 199.138 8
1 7 9 453.131 222.007 16
1 -7 10 18924.3 1058.44 8
1 7 10 18713.7 1126.66 16
-1 7 -10 17061.5 924.073 15
1 -7 11 -77.0893 118.833 8
1 7 11 12.2562 134.357 16
-1 7 -11 43.9197 75.8269 15
1 7 12 54.0609 79.3093 16
1 -7 12 87.5177 83.3749 8
1 -8 -12 1064.67 195.864 12
1 8 -12 1266.62 203.712 15
1 -8 -11 3262.31 406.869 12
1 8 -11 3663.93 428.479 15
1 -8 -10 2418.50 337.201 4
1 -8 -10 2756.83 413.233 12
1 8 -10 2882.82 438.480 15
1 -8 -9 7988.90 705.587 12
1 -8 -9 7862.29 602.826 4
1 8 -9 8481.34 773.111 15
1 8 -8 6137.69 666.106 15
1 -8 -8 5779.77 530.938 4
1 -8 -8 6190.75 658.214 14
-1 -8 7 71367.1 3556.54 2
1 -8 -7 72818.4 1786.55 4
1 8 -7 70098.9 2175.27 15
1 -8 -7 73451.1 2204.34 14
-1 -8 6 5453.42 976.917 2
1 -8 -6 6826.18 526.908 4
1 -8 -6 6043.75 608.843 14
1 8 -6 6518.84 637.193 15
-1 -8 5 2307.68 607.015 2
-1 -8 4 3854.49 775.877 2
1 8 -3 10209.2 1269.21 1
1 8 -2 24150.5 1862.13 1
1 8 -1 61847.2 2922.42 1
1 8 0 109349. 3797.24 1
1 8 1 18167.3 1573.13 1
1 8 2 32156.2 2128.53 1
1 8 3 1157.54 483.576 1
1 -8 3 1720.61 493.391 2
1 -8 4 7016.75 1090.14 2
1 8 4 10591.0 1408.92 1
1 8 5 443.397 184.484 13
-1 8 -5 79.0366 165.247 15
-1 -8 -5 194.880 130.489 14
1 8 5 -114.361 265.821 1
1 -8 5 116.859 107.172 8
1 -8 5 -125.616 245.370 2
1 8 6 17892.9 1200.27 13
1 8 6 18169.6 2018.49 1
1 -8 6 16306.4 986.033 8
-1 8 -6 17410.0 1001.45 15
1 -8 6 14958.0 1664.21 2
1 8 7 3481.39 563.199 13
1 -8 7 2254.55 378.967 8
-1 8 -7 3019.98 451.418 15
-1 8 -8 82931.0 2243.71 15
1 8 8 81622.1 2577.58 16
1 8 8 84478.6 2712.03 13
1 -8 8 86036.3 2361.38 8
1 -8 9 29407.4 1058.95 17
1 8 9 34780.4 1612.87 16
1 -8 9 33437.4 1426.53 8
-1 8 -9 32589.2 1344.03 15
1 8 9 32161.4 1605.39 13
1 -8 10 15413.8 891.939 8
1 8 10 14241.4 934.277 16
-1 8 -10 14871.7 807.877 15
-1 8 -11 534.701 134.457 15
1 -8 11 862.052 203.634 8
1 8 11 908.624 208.975 16
1 8 12 -68.6463 56.5495 16
1 9 -12 12461.6 535.723 15
1 -9 -11 25196.2 989.897 12
1 9 -11 24795.5 1009.37 15
1 9 -10 -60.5501 130.000 15
1 -9 -10 -64.6073 109.973 12
1 -9 -9 29.7074 93.0653 4
1 -9 -9 -7.01390 142.537 12
1 9 -9 26.2193 143.526 15
1 9 -8 35919.6 1603.09 15
1 -9 -8 36774.3 1256.06 4
1 -9 -8 33465.7 1531.50 14
1 -9 -7 25269.6 1042.29 4
1 9 -7 22498.3 1265.43 15
1 -9 -7 25077.9 1325.83 14
-1 -9 6 93282.2 4119.96 2
1 -9 -6 94505.5 1947.59 4
1 -9 -6 93055.6 2490.46 14
1 9 -6 88654.8 2450.56 15
1 -9 -5 2315.77 365.184 9
1 -9 -5 3112.29 456.920 14
-1 -9 5 2250.68 642.316 2
1 -9 -5 2425.03 321.560 4
1 9 -5 2714.91 409.703 15
1 -9 -4 226.686 126.375 9
-1 -9 4 149.785 243.516 2
1 9 -3 4362.72 887.901 1
1 9 -2 10528.3 1322.00 1
1 9 -1 14524.4 1532.63 1
1 9 0 246.654 253.970 1
1 9 1 13030.0 1410.19 1
1 9 2 11898.4 1375.21 1
1 -9 3 41094.7 2610.99 2
1 9 3 42151.1 2616.23 1
1 9 4 599.705 148.291 13
1 9 4 -165.917 334.066 1
-1 -9 -4 254.013 149.466 14
1 -9 4 486.440 147.238 17
1 -9 4 245.417 139.755 8
1 -9 4 303.473 343.104 2
-1 9 -4 407.184 195.271 15
1 -9 5 4695.43 954.135 2
1 -9 5 5046.57 492.648 17
1 9 5 5427.04 677.281 13
1 9 5 6161.04 1102.71 1
1 -9 5 5359.89 572.749 8
-1 -9 -5 5111.35 553.327 14
-1 9 -5 5053.04 544.537 15
1 9 6 1515.89 400.816 13
1 -9 6 1627.61 304.615 17
-1 9 -6 1627.11 317.381 15
1 -9 6 1935.36 363.913 8
1 9 7 614.041 246.796 13
1 -9 7 641.806 185.783 8
1 -9 7 760.660 219.856 17
-1 9 -7 863.061 263.633 15
1 -9 8 15293.2 804.756 17
1 9 8 16165.7 1138.26 16
1 -9 8 16340.3 1009.47 8
1 9 8 15920.3 1175.50 13
-1 9 -8 16481.4 985.918 15
1 -9 9 -82.0620 86.5093 17
1 9 9 -365.420 233.227 13
1 -9 9 -103.544 150.368 8
1 9 9 -34.9476 173.692 16
-1 9 -9 78.9506 112.331 15
1 -9 10 11491.7 707.047 8
1 9 10 10622.6 748.760 16
-1 9 -10 9314.50 584.811 15
1 9 11 3011.27 326.590 16
1 -10 -11 325.791 121.432 12
1 10 -11 93.5444 65.2971 15
1 -10 -10 4463.69 466.569 12
1 10 -10 3525.91 404.370 15
1 -10 -9 3798.68 367.473 4
1 -10 -9 5378.72 530.873 12
1 10 -9 5158.64 554.394 15
1 -10 -8 5506.32 605.213 14
1 -10 -8 4110.07 408.404 4
1 10 -8 5077.92 596.471 15
1 -10 -7 3617.19 510.392 14
1 10 -7 3562.56 512.858 15
1 -10 -7 3352.19 370.541 4
1 -10 -6 17999.0 861.736 4
1 10 -6 17577.7 1106.31 15
1 -10 -6 18611.9 1153.57 14
1 -10 -5 3072.18 431.296 9
1 -10 -5 2848.63 351.616 4
-1 -10 5 3506.84 848.231 2
1 10 -5 3533.14 491.419 15
1 -10 -5 3332.46 482.036 14
-1 -10 4 13236.2 1583.39 2
1 -10 -4 13827.6 870.045 9
1 10 -4 11764.2 863.848 15
1 -10 -3 2813.27 382.193 9
1 10 -2 76049.7 3801.43 1
1 -10 -2 74589.1 1924.37 9
1 10 -1 3616.51 838.640 1
1 10 -1 3213.83 462.721 7
1 10 0 657.428 386.438 1
1 10 1 23000.1 2009.82 1
1 -10 1 19746.3 966.928 17
1 10 1 22314.3 1235.17 7
1 -10 2 1138.90 431.726 2
1 10 2 48.9766 267.316 1
1 -10 2 674.448 192.190 17
1 10 2 904.822 277.485 7
1 10 3 5448.92 647.242 13
1 -10 3 5899.10 529.440 17
1 -10 3 5420.97 987.614 2
1 10 3 4841.62 937.734 1
1 10 4 2916.09 494.278 13
1 -10 4 3284.03 407.108 17
1 -10 4 3723.68 830.761 2
-1 -10 -4 3359.30 423.033 14
1 10 4 1711.91 620.622 1
1 10 5 727.170 297.108 13
1 -10 5 929.278 235.834 17
-1 10 -5 276.658 173.972 15
-1 -10 -5 666.064 218.341 14
1 -10 6 5402.49 524.988 17
-1 10 -6 5508.41 606.823 15
1 -10 6 6365.17 634.269 8
1 10 6 6222.19 749.527 13
1 -10 7 23161.3 1016.80 17
1 -10 7 24131.5 1206.41 8
-1 10 -7 23625.0 1198.82 15
1 10 7 25559.7 1486.45 13
1 -10 8 174.970 165.950 8
1 10 8 -181.006 171.753 16
-1 10 -8 302.151 157.685 15
1 10 8 297.326 205.110 13
1 -10 8 63.6300 78.5695 17
1 10 9 10886.1 813.459 16
-1 10 -9 11068.2 687.288 15
1 10 9 10834.0 840.654 13
1 10 10 5977.67 514.972 16
1 10 11 1606.17 200.156 16
1 -11 -11 2190.32 200.971 12
1 -11 -10 2.76556 83.2396 12
1 -11 -9 3975.47 415.475 12
1 11 -9 4191.41 468.316 15
1 11 -8 -96.4167 117.871 15
1 -11 -8 6.54503 133.144 14
1 11 -7 -67.2251 193.616 15
1 -11 -7 -56.7215 167.241 14
1 -11 -6 17744.0 1146.93 14
1 11 -6 16982.0 1096.52 15
1 -11 -5 209.262 143.871 14
1 -11 -5 231.474 134.088 9
1 -11 -4 1198.83 305.119 9
1 -11 -4 797.425 273.707 14
1 -11 -3 45494.8 1585.16 9
1 11 -2 9287.52 1406.89 1
1 -11 -2 10093.8 747.565 9
1 11 -2 9695.95 856.918 7
1 11 -1 27645.4 2364.37 1
1 -11 -1 27468.1 1215.58 9
1 11 -1 28470.6 1475.28 7
1 11 0 73930.9 3806.90 1
1 -11 0 76037.9 2015.53 9
1 11 0 74844.7 2401.59 7
1 -11 1 1971.18 326.882 9
1 11 1 2312.46 664.964 1
1 11 1 2287.82 435.935 7
1 -11 2 106218. 2329.02 17
1 -11 2 97485.9 4217.99 2
1 11 2 102172. 2909.10 7
1 11 2 100690. 2851.33 13
1 11 2 106273. 4436.04 1
1 -11 3 49.6497 113.952 17
1 11 3 258.101 171.808 13
1 -11 3 225.661 412.116 2
1 11 4 12256.5 1038.59 13
1 -11 4 13227.7 822.289 17
-1 -11 -4 12406.6 834.295 14
1 -11 5 379.491 171.758 17
1 11 5 186.331 213.018 13
-1 -11 -5 149.211 151.191 14
1 11 6 3391.85 561.669 13
1 -11 6 3416.98 399.975 17
1 11 7 2005.68 428.611 13
1 -11 7 1766.60 272.852 17
1 -11 8 16813.2 694.131 17
1 11 8 17281.5 1095.36 13
1 11 9 -29.9415 108.078 16
1 11 10 629.793 167.400 16
1 -12 -10 11183.8 473.507 12
1 -12 -9 4471.35 387.236 12
1 12 -9 3849.75 370.081 7
1 -12 -8 184.014 134.868 12
1 -12 -8 -137.289 129.399 14
1 -12 -7 32703.1 1461.31 14
1 -12 -6 870.489 286.124 14
-1 12 5 1320.66 302.215 13
1 -12 -5 1340.12 326.892 14
1 -12 -4 166.016 171.221 9
1 -12 -4 227.006 176.454 14
1 -12 -3 5652.30 579.636 9
1 12 -3 6017.18 711.643 7
1 -12 -2 47178.7 1640.56 9
1 12 -2 46930.4 1991.83 7
1 -12 -1 166582. 3066.85 9
1 12 -1 170232. 3796.25 7
1 12 0 21574.2 1362.60 7
1 -12 0 19773.3 1060.17 9
1 12 1 6076.85 734.637 7
1 -12 1 6417.74 613.685 9
1 -12 2 55674.7 1784.04 9
1 12 2 58295.3 2248.87 13
1 12 3 3558.64 574.620 13
1 12 4 52987.3 2157.72 13
1 -12 4 51067.7 1636.56 17
-1 -12 -4 52779.7 1692.94 14
1 -12 5 33970.0 1267.23 17
1 12 5 36187.5 1770.24 13
1 12 6 2912.74 535.379 13
1 -12 6 2626.97 335.314 17
1 12 7 404.729 242.551 13
1 12 7 -13.1449 146.412 16
1 12 8 -172.399 138.586 13
1 12 8 157.245 152.592 16
1 12 9 2168.93 293.548 16
1 -13 -9 25600.3 682.149 12
-1 13 9 20291.4 645.573 16
1 -13 -8 1153.58 196.229 12
1 13 -8 1458.95 244.562 7
1 -13 -8 1240.18 246.095 14
1 13 -7 286.447 133.820 7
1 -13 -7 171.452 124.837 14
1 13 -6 315.863 179.382 7
1 -13 -6 595.442 233.009 14
-1 13 5 744.538 242.960 13
1 13 -5 727.613 246.715 7
1 -13 -5 791.673 240.437 14
1 -13 -4 36195.1 1602.01 14
1 -13 -4 33809.5 1356.32 9
1 13 -4 36001.9 1712.35 7
1 -13 -3 3078.63 491.229 14
1 -13 -3 2922.94 411.061 9
1 13 -3 2618.80 500.015 7
1 -13 -2 1327.26 301.347 9
1 13 -2 1202.63 355.132 7
1 -13 -1 66656.8 1932.19 9
1 13 -1 65157.0 2408.10 7
1 -13 0 37930.8 1459.88 9
1 13 0 39651.5 1884.89 7
-1 13 0 37678.4 1534.79 7
1 -13 1 5376.36 560.035 9
1 13 1 5273.61 691.769 7
-1 13 -1 6469.26 655.695 7
1 13 1 5200.95 684.231 13
1 13 2 29633.6 1603.38 13
1 -13 2 29494.6 1277.99 9
1 13 3 979.618 353.019 13
1 -13 3 679.826 210.067 9
1 13 4 1114.89 309.032 13
1 13 5 8389.61 829.401 13
1 13 6 13904.1 995.171 13
1 13 7 808.282 260.936 13
1 13 7 975.947 227.708 16
1 13 8 425.057 166.368 13
1 13 8 255.119 110.957 16
1 13 9 1630.92 200.295 16
1 14 -8 247.419 95.0453 7
1 -14 -7 2817.18 265.488 12
1 14 -7 2989.81 357.147 7
1 -14 -7 2418.48 324.917 14
1 14 -6 452.487 168.568 7
1 -14 -6 500.863 214.688 14
1 -14 -5 829.541 243.086 14
-1 14 5 326.785 161.073 13
1 14 -5 635.667 226.574 7
-1 14 4 554.973 218.196 13
1 14 -4 1028.53 314.879 7
1 -14 -4 801.666 226.178 14
1 -14 -3 21564.7 1026.64 9
1 14 -3 22204.3 1328.30 7
1 -14 -3 23334.0 1252.27 14
1 -14 -2 9962.74 715.262 9
1 14 -2 9552.24 909.335 7
1 -14 -2 10626.2 869.160 14
1 -14 -1 62.5440 88.2630 9
1 14 -1 287.686 209.569 7
1 14 0 3965.84 578.752 13
1 -14 0 4187.77 463.512 9
1 14 0 3736.20 594.361 7
1 14 1 3652.61 554.834 13
1 -14 1 3464.37 418.863 9
-1 14 -1 3757.35 490.209 7
1 14 2 2623.02 482.341 13
1 -14 2 2713.85 369.083 9
-1 14 -2 3274.02 460.179 7
1 14 3 19592.9 1234.33 13
1 -14 3 17115.2 887.103 9
1 14 4 2744.23 454.907 13
1 -14 4 3238.84 372.186 9
1 14 5 3500.34 510.188 13
1 -14 5 3456.58 365.553 9
1 -14 6 3850.93 353.523 9
1 14 6 3849.83 418.472 16
1 14 6 3836.23 490.518 13
1 14 7 440.201 151.652 13
1 -14 7 667.088 128.887 9
1 14 7 906.331 182.126 16
1 14 8 71.2629 60.1246 16
1 15 -7 216.494 91.7173 7
1 15 -6 2453.44 313.564 7
1 -15 -6 1980.91 287.443 14
-1 15 5 -121.457 124.834 13
1 15 -5 55.6441 95.0601 7
1 -15 -5 16.5108 90.6092 14
-1 15 4 3446.44 401.043 13
1 15 -4 3233.39 456.141 7
1 -15 -4 3276.01 436.276 14
1 -15 -3 15735.9 940.659 14
1 15 -3 15627.5 1035.69 7
1 15 -2 16411.3 956.740 13
1 -15 -2 15991.2 796.153 9
1 15 -2 15516.0 1072.71 7
1 -15 -2 17058.7 1000.44 14
1 15 -1 31.4123 129.845 13
1 -15 -1 -29.9976 91.4405 9
1 -15 -1 -34.6168 131.232 14
1 15 -1 110.588 122.418 7
1 15 0 20299.3 1153.95 13
1 -15 0 19061.2 878.995 9
1 -15 1 97.2608 67.7349 9
-1 15 -1 -93.4052 101.345 7
1 15 2 393.418 202.869 13
1 -15 2 374.005 142.170 9
-1 15 -2 382.271 178.150 7
1 -15 3 6027.87 458.620 9
-1 15 -3 5256.35 497.735 7
1 15 3 6821.65 670.949 13
1 -15 4 4399.67 372.568 9
-1 15 -4 3714.11 404.821 7
1 15 5 4771.11 508.651 13
1 -15 5 4292.22 327.217 9
1 15 5 4218.25 388.633 16
-1 15 -5 4054.65 392.750 7
1 15 6 -31.5317 111.448 13
1 15 6 45.4884 73.1948 16
-1 15 -6 181.921 99.6421 7
1 -15 6 102.627 61.7095 9
1 15 7 299.462 102.005 13
1 -16 -6 5614.98 358.935 14
1 16 -5 12.3458 77.5689 7
1 -16 -5 -78.5844 72.9662 14
1 16 -4 8443.72 607.112 7
1 -16 -4 7604.80 537.229 14
-1 16 4 7956.75 489.375 13
-1 16 3 816.610 194.185 13
1 16 -3 1045.80 252.115 7
1 -16 -3 716.608 196.809 14
1 16 -2 7986.68 547.306 13
1 16 -2 8071.27 677.617 7
1 -16 -2 8175.51 604.525 14
1 16 -1 4223.02 441.333 13
1 -16 -1 3161.24 292.309 9
1 -16 -1 3820.29 422.924 14
1 16 0 187.791 121.624 13
1 -16 0 397.229 109.850 9
1 -16 0 448.100 153.297 14
1 16 1 6087.36 563.209 13
1 -16 1 4856.82 355.663 9
1 -16 1 5871.14 489.095 14
1 -16 2 9773.05 487.322 9
-1 16 -2 9527.60 543.428 7
1 16 3 2163.25 324.497 13
1 -16 3 1981.13 204.760 9
-1 16 -3 1785.83 230.742 7
1 16 4 1820.61 287.712 13
-1 16 -4 1404.57 197.389 7
1 16 5 4141.71 379.685 13
1 -17 -4 46338.9 946.820 14
1 -17 -3 2629.14 259.058 14
-1 17 2 956.463 173.407 13
1 -17 -2 834.337 161.111 14
-1 17 1 11765.7 631.165 13
1 -17 -1 11918.9 574.282 14
1 17 -1 11309.5 506.120 13
1 -17 0 5640.92 387.318 14
1 17 0 5912.48 417.944 13
1 -17 1 6823.97 397.304 14
1 17 1 7334.33 481.551 13
1 17 2 3114.42 315.481 13
1 17 3 342.265 87.4812 13
2 0 -13 -105.304 83.7423 11
2 0 -12 704.006 179.848 11
2 0 -11 -25.4925 95.7501 11
2 0 -10 35507.0 1035.14 10
2 0 -9 16.6038 105.205 10
2 0 -9 96.3323 94.3830 4
2 0 -8 25432.3 888.319 10
2 0 -8 24273.0 1019.22 4
2 0 -8 22702.4 2068.86 3
2 0 -7 304.301 313.994 3
2 0 -7 -18.5922 76.6701 10
2 0 -7 -44.2615 104.020 4
2 0 -7 44.5907 88.3057 6
2 0 -6 17288.5 1742.74 3
2 0 -5 169.053 189.811 3
2 0 -4 1221.96 422.078 3
2 0 -3 -22.8445 145.465 3
2 0 -2 9993.17 1053.84 3
2 0 -1 -113.835 179.264 3
2 0 0 98.7202 85.4757 3
2 0 1 46.4081 73.7699 3
2 0 1 -84.2250 184.095 1
2 0 2 1722.43 433.424 1
2 0 3 -66.9938 227.417 1
2 0 4 7470.17 1128.51 1
2 0 5 112.321 249.836 1
2 0 6 357.187 208.721 16
2 0 6 460.887 282.161 1
2 0 7 83.1946 128.844 16
2 0 8 7490.58 765.892 16
2 0 9 -2.94135 183.219 16
2 0 10 14549.0 926.092 16
2 0 11 -47.9880 109.291 16
2 0 12 10265.9 464.282 16
2 1 -13 155.456 86.3366 11
2 -1 -13 71.6020 51.3051 11
2 1 -12 90.6506 101.836 11
2 -1 -12 -61.8990 74.5708 11
2 1 -11 252.416 153.043 11
2 -1 -11 386.916 180.275 11
2 -1 -10 51161.2 1571.39 12
2 1 -10 56848.7 1725.46 11
2 -1 -10 55729.6 1245.11 10
2 -1 -10 50953.4 1576.30 4
2 1 -9 239.519 146.167 10
2 -1 -9 -23.3399 86.0220 10
2 -1 -9 38.3604 101.888 4
2 1 -8 295.157 289.361 3
2 -1 -8 1068.59 509.459 3
2 1 -8 691.259 157.840 10
2 -1 -8 579.455 139.034 10
2 1 -8 393.477 109.383 4
2 -1 -8 565.437 175.349 4
2 -1 -8 564.150 180.749 6
2 1 -7 12969.2 615.455 10
2 1 -7 14027.6 1589.21 3
2 1 -7 13971.7 683.957 6
2 -1 -7 13867.5 743.236 4
2 -1 -7 14423.7 715.620 6
2 1 -6 669.892 370.397 3
2 1 -5 48854.6 2750.12 3
2 1 -4 3095.99 692.147 3
2 1 -3 23350.2 1716.31 3
2 -1 -2 157045. 4091.63 3
2 1 -2 165025. 4235.85 3
2 1 -1 6951.13 818.246 3
2 -1 -1 6299.93 776.615 3
2 1 0 66010.1 2237.64 3
2 -1 0 63446.5 2124.40 3
2 -1 1 658059. 7349.37 1
2 1 1 674947. 8076.37 1
2 -1 2 47603.9 2302.98 1
2 1 2 52631.5 2528.28 1
2 1 3 211638. 5581.82 1
2 1 4 32347.0 2374.39 1
2 1 5 7481.69 1223.90 1
2 1 6 29429.9 2596.22 1
2 -1 6 27228.9 1364.61 16
2 1 6 28002.6 1393.83 16
2 -1 7 24886.6 1361.37 16
2 1 7 24075.2 1347.68 16
2 -1 8 1917.36 404.254 16
2 1 8 2479.53 466.525 16
2 -1 9 3608.88 534.321 16
2 1 9 3721.37 547.919 16
2 -1 10 4866.16 551.987 16
2 1 10 4144.22 520.871 16
2 1 11 4237.18 424.733 16
2 -1 11 4767.65 454.025 16
2 1 12 6613.93 372.388 16
2 2 -13 2444.35 234.725 11
2 -2 -13 3010.00 277.214 11
2 2 -12 24987.5 955.554 11
2 -2 -12 26028.9 1006.15 11
2 -2 -11 516.700 191.421 12
2 2 -11 431.015 166.105 11
2 -2 -11 655.526 214.284 11
2 -2 -10 1719.89 290.720 12
2 2 -10 2022.26 328.555 11
2 -2 -10 2050.52 241.373 10
2 -2 -10 2491.56 359.218 4
2 -2 -9 1831.80 338.826 12
2 2 -9 1695.70 267.124 10
2 -2 -9 1824.31 253.783 10
2 -2 -9 1303.12 257.895 4
2 2 -8 80.6146 94.1477 10
2 -2 -8 175.533 112.499 10
2 -2 -8 337.245 151.253 4
2 -2 -8 363.011 113.426 6
2 2 -7 33498.9 1012.07 10
2 -2 -7 32790.4 1168.70 4
2 -2 -7 33955.7 1116.85 6
2 2 -7 31705.3 2369.92 3
2 2 -6 6336.55 1057.48 3
2 2 -5 996.882 398.674 3
2 2 -4 369955. 7209.03 3
2 2 -3 14824.9 1376.54 3
2 2 -2 161.309 207.014 3
2 -2 -1 15746.9 1176.46 3
2 2 -1 15554.4 998.567 1
2 2 -1 16762.5 1269.61 3
2 2 0 3472.41 586.761 1
2 2 0 3410.38 545.683 3
2 -2 0 3177.89 510.348 3
2 2 1 1443.57 435.889 1
2 2 2 34033.4 2099.48 1
2 2 3 2894.64 724.289 1
2 2 4 1277.12 594.448 1
2 2 5 1696.82 644.290 1
2 2 6 3123.47 885.037 1
2 -2 6 2464.07 426.481 16
2 2 6 2321.03 424.051 16
2 -2 7 -27.9422 147.422 16
2 -2 7 124.865 130.872 8
2 2 7 340.740 227.785 16
2 -2 8 24024.4 1089.37 8
2 2 8 24774.0 1403.83 16
2 -2 8 25223.4 1377.27 16
2 -2 9 2302.84 420.759 16
2 2 9 2663.21 488.170 16
2 -2 9 1973.92 320.571 8
2 -2 10 8649.96 562.416 8
2 2 10 8762.45 741.673 16
2 -2 10 9051.95 712.413 16
2 -2 11 2838.04 347.264 16
2 2 11 2606.76 345.781 16
2 2 12 6919.11 373.906 16
2 -3 -13 27919.4 791.957 11
2 3 -12 2383.37 283.282 11
2 -3 -12 2196.90 289.562 11
2 -3 -11 4805.83 476.720 12
2 3 -11 5286.69 468.652 11
2 -3 -11 3801.25 419.709 11
2 -3 -10 519.218 217.667 12
2 3 -10 363.095 155.579 11
2 -3 -10 417.618 153.791 4
2 -3 -9 33624.0 1359.71 12
2 3 -9 35292.2 1288.54 11
2 3 -9 36898.6 1138.18 10
2 -3 -9 35761.3 960.456 10
2 -3 -9 36943.9 1382.89 4
2 3 -8 1583.89 258.684 10
2 -3 -8 1047.32 182.566 10
2 -3 -8 1401.40 275.525 4
2 -3 -8 1392.77 259.667 6
2 -3 -7 132418. 2424.08 4
2 3 -7 131265. 2040.27 10
2 -3 -7 130125. 2222.82 6
2 3 -7 124616. 4578.78 3
2 3 -6 11139.6 561.656 10
2 -3 -6 11222.8 620.052 6
2 3 -6 10887.2 1353.96 3
2 3 -5 2307.21 631.412 3
2 3 -4 93339.2 3604.46 3
2 3 -3 24820.4 1783.03 3
2 3 -2 10699.1 1107.51 3
2 3 -1 53101.6 2322.17 3
2 3 -1 49112.3 1963.99 1
2 3 0 1648.65 427.446 1
2 3 0 1936.49 451.946 3
2 3 1 7291.82 967.912 1
2 3 2 152719. 4628.51 1
2 3 3 1575.82 569.819 1
2 3 4 51470.4 3130.18 1
2 -3 5 5293.33 574.447 16
2 3 5 4709.48 548.013 16
2 3 5 5521.75 1090.72 1
2 -3 6 -279.663 165.732 16
2 -3 6 -62.7243 154.239 8
2 3 6 37.3694 160.236 16
2 3 6 285.485 297.844 1
2 -3 7 10652.4 888.791 16
2 -3 7 9678.21 701.744 8
2 3 7 10054.1 887.778 16
2 -3 8 33254.2 1325.81 8
2 -3 8 36161.9 1633.24 16
2 3 8 33629.7 1619.93 16
2 -3 9 206.165 139.188 8
2 -3 9 84.0306 144.536 16
2 3 9 23.2023 163.864 16
2 -3 10 6758.91 610.508 16
2 -3 10 6918.64 512.356 8
2 3 10 7085.19 652.667 16
2 -3 11 23450.8 726.612 8
2 3 11 25355.0 996.376 16
2 3 12 253.908 87.7774 16
2 -4 -13 1864.48 185.121 11
2 4 -12 12497.1 574.495 11
2 -4 -12 14915.1 695.138 11
2 -4 -11 1712.40 281.806 12
2 4 -11 2176.47 291.440 11
2 -4 -11 2060.95 309.981 11
2 -4 -10 10701.8 777.290 12
2 4 -10 10913.3 686.666 11
2 -4 -10 12135.2 786.286 4
2 -4 -9 151.562 133.963 12
2 4 -9 -7.82930 106.747 11
2 -4 -9 -7.61658 150.569 4
2 -4 -8 63253.2 1798.68 4
2 4 -8 62138.6 1477.71 10
2 -4 -8 63826.8 1631.86 6
2 -4 -7 16735.6 891.564 4
2 4 -7 16627.3 742.930 10
2 -4 -7 16655.2 811.340 6
2 4 -7 14692.9 1527.89 3
2 4 -6 23202.4 821.155 10
2 -4 -6 23574.4 993.834 4
2 4 -6 22439.4 1899.60 3
2 -4 -6 23757.8 932.729 6
2 4 -5 958.572 451.943 3
2 4 -4 35609.5 2239.41 3
2 4 -3 7009.70 959.954 3
2 4 -2 27005.3 1796.40 3
2 4 -2 26402.2 1550.32 1
2 4 -1 55047.9 2263.22 1
2 4 -1 56050.3 2462.87 3
2 4 0 6005.09 803.289 1
2 4 1 25992.2 1916.86 1
2 4 2 5170.29 935.235 1
2 4 3 305.935 278.901 1
2 4 4 8.35561 296.348 1
2 4 5 28059.4 2473.16 1
2 -4 5 26614.0 1133.13 8
2 -4 5 26656.1 1302.18 16
2 4 5 26296.9 1292.26 16
2 4 5 26841.6 1472.16 13
2 -4 6 7171.78 717.365 16
2 -4 6 7707.08 649.651 8
2 4 6 7013.97 724.389 16
2 4 6 7460.71 1349.89 1
2 -4 7 30760.7 1490.24 16
2 -4 7 28445.4 1257.93 8
2 4 7 30851.9 1545.85 16
2 -4 8 1973.10 340.844 8
2 -4 8 1803.75 384.550 16
2 4 8 1796.84 386.534 16
2 -4 9 8630.04 739.133 16
2 -4 9 7567.46 603.423 8
2 4 9 7493.16 726.272 16
2 -4 10 19147.3 848.526 8
2 4 10 20806.1 1069.93 16
2 4 11 2050.08 285.034 16
2 -5 -12 116.579 113.446 12
2 -5 -12 202.217 86.3340 11
2 -5 -11 1508.14 276.139 12
2 -5 -11 1532.86 252.196 11
2 -5 -11 1392.00 244.619 4
2 -5 -10 558.081 204.058 12
2 -5 -10 443.799 147.861 4
2 -5 -9 14192.3 860.839 4
2 -5 -8 86200.7 2125.48 4
2 5 -8 87288.9 1746.99 10
2 -5 -8 86028.2 1896.68 6
2 5 -7 6080.78 965.976 3
2 -5 -7 6961.37 592.517 4
2 5 -7 6538.53 472.819 10
2 -5 -7 6580.45 516.924 6
2 5 -6 24902.0 867.731 10
2 -5 -6 25463.9 1069.09 4
2 5 -6 25049.3 1956.58 3
2 -5 -6 25186.5 988.615 6
2 5 -5 16182.1 1566.32 3
2 -5 -5 16241.9 775.905 6
2 5 -4 -211.752 215.811 3
2 5 -3 815.233 345.265 3
2 5 -2 149765. 4032.62 1
2 5 -2 158241. 4475.16 3
2 5 -1 61601.0 2605.02 1
2 5 0 15072.7 1329.53 1
2 5 1 138841. 4533.13 1
2 5 2 5664.24 1033.43 1
2 5 3 38749.7 2773.42 1
2 -5 4 34735.7 1417.87 16
2 -5 4 35492.2 1295.60 8
2 5 4 35609.1 1585.12 13
2 5 5 231.391 167.242 13
2 5 5 69.7985 291.139 1
2 5 5 223.506 130.486 16
2 -5 5 363.122 142.752 8
2 -5 5 358.450 166.538 16
2 -5 6 25042.6 1181.29 8
2 5 6 24719.7 1338.20 16
2 -5 6 26284.4 1348.35 16
2 5 6 25497.0 1532.56 13
2 -5 7 11271.5 897.737 16
2 -5 7 11114.6 802.250 8
2 5 7 11428.3 945.792 16
2 -5 8 4221.32 551.490 16
2 -5 8 3514.31 447.758 8
2 5 8 3943.99 557.015 16
2 -5 9 2558.88 353.191 8
2 5 9 3695.78 501.295 16
2 -5 10 29666.0 1030.43 8
2 5 10 30995.5 1248.01 16
2 5 11 -343.034 139.805 16
2 -6 -12 149.675 59.0973 12
2 -6 -12 292.859 94.1191 11
2 -6 -11 5054.71 460.888 12
2 -6 -11 4826.64 407.631 11
2 -6 -11 4221.09 409.361 4
2 -6 -10 1000.14 220.611 12
2 -6 -10 1475.28 269.553 4
2 -6 -9 4955.27 509.629 4
2 -6 -8 41360.2 1478.84 4
2 -6 -8 41653.1 1303.19 6
2 -6 -7 41206.5 1448.90 4
2 6 -7 39972.9 1153.40 10
2 -6 -7 41787.5 1288.88 6
2 6 -6 11651.0 596.485 10
2 -6 -6 11692.8 675.352 6
2 -6 -6 11506.3 743.544 4
2 6 -6 11348.2 1298.02 3
2 6 -5 12358.3 573.714 10
2 -6 -5 11280.9 758.312 9
2 6 -5 11586.5 1320.99 3
2 -6 -5 11586.1 664.806 6
2 6 -4 10680.0 1267.97 3
2 6 -3 9954.78 1153.42 1
2 6 -2 48630.3 2491.48 1
2 6 -1 86167.0 3315.44 1
2 6 0 3349.70 646.456 1
2 6 1 90.0119 168.468 1
2 6 2 406.108 397.009 1
2 6 3 69866.5 3835.27 1
2 6 4 12452.1 1744.01 1
2 -6 4 10438.2 743.387 8
2 6 4 9299.29 721.531 16
2 6 4 10808.6 912.668 13
2 6 5 5481.15 1246.83 1
2 -6 5 5455.77 569.755 8
2 6 5 4690.29 550.131 16
2 6 5 5152.38 680.148 13
2 -6 6 5097.28 556.194 8
2 6 6 5060.11 637.014 16
2 6 6 4715.85 696.780 13
2 -6 7 37186.5 1482.25 8
2 6 7 38415.2 1700.24 16
2 -6 8 12324.5 823.357 8
2 6 8 12368.2 936.594 16
2 6 9 24326.2 1218.58 16
2 -6 9 25675.0 1087.08 8
2 6 10 10997.2 703.944 16
2 -6 11 298.737 76.4572 17
2 6 11 564.313 137.482 16
2 -7 -12 484.796 113.405 12
2 -7 -11 2517.44 310.134 12
2 -7 -11 2703.42 278.693 11
2 -7 -10 -84.8615 121.279 12
2 -7 -10 -39.2996 93.2485 4
2 -7 -9 2999.33 395.551 4
2 -7 -8 502.419 233.562 4
2 -7 -8 436.783 192.146 6
2 -7 -7 6595.51 586.216 4
2 -7 -7 6102.83 502.159 6
2 -7 -6 40111.1 1412.33 4
2 -7 -6 39381.2 1244.14 6
2 7 -5 13120.2 597.970 10
2 -7 -5 13148.7 856.205 9
2 -7 -5 13880.7 730.667 6
2 -7 -4 13464.1 831.504 9
2 7 -3 71572.7 3273.00 1
2 -7 -3 69904.2 1837.49 9
2 7 -2 15688.1 1528.58 1
2 7 -1 11974.5 1335.38 1
2 7 0 14270.9 1468.93 1
2 7 1 935.278 427.121 1
2 7 2 3156.99 754.056 1
2 7 3 14108.6 1710.11 1
2 7 3 14121.1 987.867 13
2 7 4 3113.78 494.201 13
2 7 4 2376.71 782.365 1
2 7 4 2194.55 343.552 16
2 -7 5 76493.9 2134.47 8
2 7 5 75196.7 2250.88 16
2 7 5 78208.0 2596.24 13
2 7 6 14574.5 1024.30 16
2 7 6 15792.6 1222.54 13
2 -7 6 15761.2 973.861 8
2 -7 7 9428.49 739.816 8
2 7 7 9548.13 828.279 16
2 -7 8 31061.9 1278.11 8
2 7 8 30886.8 1416.60 16
2 7 9 37976.1 1424.30 16
2 7 10 3754.74 378.900 16
2 -7 10 3355.88 293.268 17
2 7 11 9216.27 417.405 16
2 -8 -11 7863.42 504.447 12
2 -8 -11 6980.62 356.009 11
2 -8 -10 4977.18 476.536 12
2 -8 -10 4695.10 426.601 4
2 -8 -9 761.459 215.248 4
2 -8 -8 4669.10 501.999 4
2 -8 -8 3943.17 384.078 6
2 -8 -7 197.351 136.243 4
2 -8 -7 53.5583 87.9723 6
2 -8 -6 75513.4 1954.48 4
2 -8 -6 71234.7 1663.39 6
2 -8 -5 4893.59 541.514 9
2 -8 -5 4477.71 494.594 14
2 -8 -5 4724.40 430.177 6
2 -8 -4 7162.55 639.400 9
2 -8 -4 7658.82 554.255 6
2 8 -3 106.177 285.116 1
2 -8 -3 358.335 150.953 9
2 -8 -2 3676.60 449.371 9
2 8 -2 3489.49 769.999 1
2 -8 -1 35143.5 1357.64 9
2 -8 -1 33902.8 1199.94 17
2 8 -1 34885.2 2406.81 1
2 8 0 5219.14 932.695 1
2 -8 0 5156.12 486.247 17
2 -8 0 5012.21 518.844 9
2 -8 1 37534.6 1323.00 17
2 8 1 38529.8 2551.81 1
2 8 2 2115.15 371.846 13
2 -8 2 1673.54 296.360 17
2 8 2 1666.38 564.841 1
2 8 3 3551.74 519.819 13
2 -8 3 3311.12 422.394 17
2 8 3 2825.08 691.605 1
2 8 4 668.314 292.032 13
2 8 4 894.366 288.197 16
2 8 5 37960.1 1595.69 16
2 8 5 37158.3 1800.33 13
2 8 6 1712.61 442.008 13
2 8 6 1655.90 383.614 16
2 8 7 7905.93 734.002 16
2 8 7 7687.67 835.427 13
2 -8 8 2424.23 336.572 17
2 8 8 3271.25 464.094 16
2 -8 9 4021.87 368.200 17
2 8 9 3884.38 431.265 16
2 -8 10 15447.4 523.767 17
2 8 10 16519.3 703.572 16
2 -9 -11 965.994 162.587 12
2 -9 -10 261.335 142.201 12
2 -9 -10 257.692 89.4042 11
2 -9 -10 102.981 62.9627 4
2 -9 -9 9241.47 604.942 4
2 -9 -8 1051.51 227.112 4
2 -9 -7 3897.68 452.913 4
2 -9 -7 3483.54 352.625 6
2 -9 -7 3211.10 418.758 14
2 -9 -6 55935.3 1688.41 4
2 -9 -6 54055.5 1767.99 14
2 -9 -6 55793.2 1414.57 6
2 -9 -5 38711.0 1558.94 9
2 -9 -5 39620.6 1532.99 14
2 -9 -5 38578.0 1208.73 6
2 -9 -4 13893.2 922.753 9
2 -9 -4 15563.7 777.019 6
2 9 -3 25914.7 2179.41 1
2 -9 -3 26819.3 1259.74 9
2 9 -2 1258.12 484.350 1
2 -9 -2 979.126 253.965 9
2 9 -1 16.6096 297.128 1
2 -9 -1 494.592 136.017 9
2 9 -1 605.765 261.321 7
2 9 0 4346.55 893.631 1
2 -9 0 4375.73 511.591 9
2 -9 0 4293.90 463.282 17
2 9 1 2168.47 613.533 1
2 -9 1 2395.53 360.838 17
2 -9 2 5107.28 521.230 17
2 9 2 5287.33 609.551 13
2 9 3 2223.81 418.934 13
2 -9 3 2551.80 378.359 17
2 9 4 955.497 314.733 13
2 -9 4 1049.50 262.917 17
2 -9 5 3716.68 476.119 17
2 9 5 4041.87 518.501 16
2 9 5 4573.78 643.306 13
2 9 6 253.230 193.218 13
2 -9 6 260.211 161.132 17
2 9 6 278.088 215.482 16
2 -9 7 854.375 228.497 17
2 9 7 747.989 215.533 16
2 9 7 1080.83 315.316 13
2 -9 8 14995.4 736.535 17
2 9 8 14879.2 868.511 16
2 -9 9 17936.4 668.509 17
2 9 9 18094.2 816.560 16
2 9 10 1962.06 204.497 16
2 -10 -10 624.451 152.145 12
2 -10 -10 349.959 92.2651 4
2 -10 -9 -61.3569 98.7441 12
2 -10 -9 -117.832 99.0486 4
2 -10 -8 2098.77 304.699 4
2 -10 -7 235.650 154.875 4
2 -10 -7 144.453 115.602 14
2 -10 -7 -45.1700 75.1104 6
2 -10 -6 35974.7 1304.64 4
2 -10 -6 34192.5 1405.31 14
2 -10 -6 33942.8 1026.94 6
2 -10 -5 1487.96 300.412 9
2 -10 -5 1397.15 288.611 4
2 -10 -5 1539.21 324.299 14
2 -10 -5 1274.85 235.414 6
2 -10 -4 182.525 118.903 6
2 -10 -4 559.816 236.298 9
2 -10 -3 3578.63 474.141 9
2 -10 -2 30614.8 1376.65 9
2 10 -2 26764.7 1323.33 7
2 -10 -1 35031.0 1465.05 9
2 10 -1 33376.2 1516.46 7
2 -10 0 76160.7 2155.12 9
2 -10 0 74380.5 1978.37 17
2 10 1 -45.9617 166.196 13
2 -10 1 -59.4785 152.478 17
2 -10 1 129.353 137.805 9
2 -10 2 14870.5 914.071 17
2 10 2 15434.0 1053.15 13
2 -10 3 5949.46 580.157 17
2 10 3 5587.55 657.798 13
2 -10 4 49989.6 1641.05 17
2 10 4 48572.5 1989.02 13
2 -10 5 7480.71 624.820 17
2 10 5 7521.37 677.761 16
2 10 5 7575.32 811.341 13
2 10 6 2521.14 485.139 13
2 -10 6 2495.68 361.548 17
2 10 6 1899.69 338.683 16
2 -10 7 4749.74 434.141 17
2 10 7 4969.77 501.300 16
2 10 7 4178.15 564.031 13
2 -10 8 10866.2 560.797 17
2 10 8 10236.4 640.784 16
2 -10 9 -107.574 74.8103 17
2 10 9 -71.7962 87.4447 16
2 -11 -10 1845.86 197.920 12
2 -11 -9 -99.4128 93.0839 12
2 -11 -9 46.1630 74.3093 4
2 -11 -8 5408.40 415.339 4
2 -11 -8 4711.01 391.347 14
2 -11 -7 219.695 97.0564 4
2 -11 -7 138.926 130.251 14
2 -11 -6 8326.02 595.588 4
2 -11 -6 8563.11 692.067 14
2 -11 -5 1494.08 309.478 9
2 -11 -5 1112.33 237.257 4
2 -11 -5 692.342 193.544 14
2 -11 -4 9441.13 766.747 9
2 -11 -4 9562.88 794.990 14
2 -11 -3 1716.99 247.215 6
2 -11 -3 2046.71 383.602 9
2 11 -3 1868.75 382.396 7
2 -11 -2 10071.8 798.035 9
2 11 -2 9569.37 820.613 7
2 -11 -1 2984.34 427.301 9
2 -11 0 78428.8 2204.15 9
2 11 1 2456.11 417.929 13
2 -11 1 1874.39 363.033 9
2 -11 2 52743.2 1792.30 9
2 -11 2 55902.6 1741.45 17
2 11 2 53165.8 1961.66 13
2 11 3 1241.66 340.864 13
2 -11 3 993.127 250.612 17
2 -11 4 10833.6 742.768 17
2 11 4 10100.1 893.183 13
2 11 5 466.543 223.587 13
2 -11 5 1048.12 251.473 17
2 11 5 629.097 199.894 16
2 -11 6 4426.39 424.840 17
2 11 6 4104.47 437.848 16
2 11 6 4276.51 562.924 13
2 -11 7 189.110 84.7597 17
2 11 7 152.808 107.341 16
2 -11 8 5086.11 325.930 17
2 11 8 4571.74 348.610 16
2 -12 -9 12033.3 518.078 12
2 -12 -8 1257.87 171.264 4
2 -12 -7 5033.24 383.306 4
2 -12 -7 4886.69 436.549 14
2 -12 -6 6173.43 458.414 4
2 -12 -6 5843.78 530.466 14
2 -12 -5 259.444 94.6143 4
2 -12 -5 603.817 189.357 14
2 -12 -4 601.481 204.917 9
2 -12 -4 717.003 220.669 4
2 -12 -4 507.577 187.304 14
2 -12 -3 376.876 163.004 9
2 12 -3 616.504 203.148 7
2 -12 -2 191.738 109.877 9
2 -12 -1 74005.7 2102.46 9
2 -12 0 27925.5 1290.18 9
2 12 1 205.408 128.878 13
2 -12 1 316.729 158.175 9
2 12 2 421.109 218.325 13
2 -12 2 221.963 146.897 9
2 12 3 7212.62 722.801 13
2 -12 3 8325.99 674.906 9
2 -12 4 5664.33 534.046 9
2 -12 4 4459.20 467.115 17
2 12 4 5609.86 617.937 13
2 -12 5 40595.9 1270.39 17
2 -12 5 42112.8 1363.27 9
2 12 5 40457.5 1630.03 13
2 -12 6 334.513 109.492 9
2 12 6 399.723 135.656 16
2 -12 7 2276.04 256.822 9
2 12 7 1789.74 220.076 16
2 -12 8 103.390 55.4012 9
2 -13 -8 7274.99 396.073 12
2 -13 -7 3124.27 233.317 4
2 -13 -7 2890.52 274.977 14
2 -13 -6 1216.87 175.053 4
2 -13 -6 1307.40 232.050 14
2 -13 -5 6374.36 426.516 4
2 -13 -5 6482.49 549.988 14
2 -13 -4 1926.41 326.609 9
2 -13 -4 2241.82 270.715 4
2 -13 -4 2164.27 351.784 14
2 -13 -3 34100.4 1334.78 9
2 -13 -3 35009.4 1414.67 14
2 -13 -2 346.406 162.333 9
2 -13 -1 5307.70 554.670 9
2 -13 0 2060.42 334.041 9
2 -13 1 16500.4 927.862 9
2 13 1 14853.9 907.752 13
2 13 2 259.767 206.527 13
2 -13 2 -95.5914 147.191 9
2 -13 3 28313.8 1140.61 9
2 13 3 27032.7 1263.88 13
2 -13 4 5811.84 494.944 9
2 13 4 5500.07 561.200 13
2 13 5 160.371 109.010 13
2 -13 5 -38.7415 76.5769 9
2 -13 6 1222.90 189.272 9
2 -13 7 5743.38 315.563 9
2 -14 -7 49.2883 48.7734 12
2 -14 -6 17836.6 677.738 14
2 -14 -5 147.730 87.2345 14
2 -14 -4 1631.54 195.574 4
2 -14 -4 2028.72 297.022 14
2 -14 -3 21852.4 952.458 9
2 -14 -3 19841.6 686.186 4
2 -14 -3 20788.4 992.323 14
2 -14 -2 5548.47 500.051 9
2 -14 -2 6027.78 560.406 14
2 -14 -1 4455.85 443.076 9
2 -14 0 736.478 209.180 9
2 -14 1 1826.06 292.818 9
2 14 2 547.377 138.301 13
2 -14 2 196.822 118.604 9
2 -14 3 24809.5 939.687 9
2 14 3 23200.9 1017.66 13
2 14 4 1009.79 226.511 13
2 -14 4 779.988 161.043 9
2 -14 5 4742.40 340.322 9
2 14 5 3768.93 370.836 13
2 -14 6 393.452 86.1502 9
2 -15 -5 7175.52 391.361 14
2 -15 -4 10.7044 58.6264 14
2 -15 -3 1431.43 215.918 14
2 -15 -2 10187.5 564.427 9
2 -15 -2 10528.3 628.031 14
2 -15 -1 6493.46 456.486 9
2 -15 -1 7283.13 535.069 14
2 -15 0 -15.3935 75.8515 9
2 -15 1 77.8576 70.6956 9
2 -15 2 1955.53 235.735 9
2 15 3 139.826 80.4394 13
2 -15 3 365.920 102.864 9
2 -15 4 552.804 102.323 9
2 -16 -3 13995.3 513.724 14
2 -16 -2 313.577 99.9060 14
2 -16 -1 70.7443 65.3320 14
2 -16 0 53.8061 49.1177 9
2 -16 0 -108.312 90.8074 14
2 -16 1 731.880 116.856 9
2 -16 1 548.558 119.231 14
2 -16 2 22.2104 40.9271 14
3 0 -11 -87.9033 60.9755 11
3 0 -10 -103.543 82.7876 11
3 0 -10 10.9259 62.3687 10
3 0 -9 2916.96 294.654 10
3 0 -8 98.1018 101.561 10
3 0 -7 3487.51 354.216 10
3 0 -7 3553.75 369.820 6
3 0 -6 71.2794 99.0611 6
3 0 -5 10718.9 697.625 5
3 0 -5 9483.06 577.370 6
3 0 -4 -21.1425 84.0663 6
3 0 -4 185.781 357.397 3
3 0 -4 -46.3000 100.369 5
3 0 -3 444.719 366.433 3
3 0 -3 681.627 182.261 5
3 0 -2 123.717 116.816 5
3 0 -2 -163.597 138.214 18
3 0 -1 -10.6240 114.737 18
3 0 -1 141.890 98.6729 5
3 0 0 84.8773 171.633 18
3 0 0 67.4737 127.927 5
3 0 1 24195.3 1190.09 18
3 0 1 23521.2 1126.75 5
3 0 2 87.4235 117.224 5
3 0 2 -32.8279 115.595 18
3 0 3 86722.8 2281.55 5
3 0 3 90774.2 2196.13 18
3 0 5 1931.53 361.299 16
3 0 6 -134.366 124.552 16
3 0 7 679.837 203.726 16
3 0 8 -37.3158 105.633 16
3 0 9 6682.22 428.030 5
3 0 9 7522.23 480.501 16
3 1 -11 -33.2738 62.0685 11
3 -1 -11 -54.5980 62.7344 11
3 1 -10 2064.83 250.727 11
3 -1 -10 2657.87 238.903 10
3 1 -9 11318.4 577.535 10
3 -1 -9 12083.4 584.063 10
3 1 -8 1048.88 209.377 10
3 -1 -8 1207.30 225.253 10
3 1 -7 16348.8 766.451 10
3 -1 -7 15302.6 766.323 6
3 1 -6 9713.69 561.099 6
3 -1 -6 10484.5 633.907 6
3 -1 -5 15.4416 92.2017 5
3 1 -5 158.202 93.6971 5
3 -1 -5 53.5760 79.2612 6
3 -1 -4 32783.7 1195.15 5
3 1 -4 32996.7 1244.58 5
3 1 -4 31498.8 2289.68 3
3 -1 -4 31483.0 1079.44 6
3 -1 -3 309.699 141.416 6
3 1 -3 495.726 345.313 3
3 -1 -3 278.771 351.679 3
3 -1 -3 398.246 186.159 5
3 1 -3 294.189 166.063 5
3 1 -3 129.748 129.606 18
3 1 -2 19260.1 977.814 5
3 -1 -2 18499.2 932.359 5
3 1 -2 16224.3 1513.91 3
3 1 -2 20010.4 1128.76 18
3 1 -1 -73.2679 148.623 5
3 -1 -1 439.384 177.731 5
3 -1 -1 139.444 134.390 18
3 1 -1 252.623 180.139 18
3 1 0 2576.11 372.300 5
3 -1 0 2434.67 356.927 5
3 1 0 2499.01 405.801 18
3 -1 0 2002.44 347.275 18
3 1 1 21406.9 1079.60 5
3 -1 1 20762.1 1042.76 5
3 -1 1 21915.5 1097.30 18
3 1 1 19902.3 1112.04 18
3 1 2 89365.4 2271.56 5
3 -1 2 89284.7 2240.27 5
3 -1 2 97710.4 2241.68 18
3 1 2 95077.1 2396.16 18
3 1 3 13944.1 927.030 5
3 -1 3 12737.3 870.851 5
3 1 3 14828.6 946.327 18
3 1 4 35127.7 1401.91 18
3 -1 4 38662.0 1465.67 16
3 -1 5 175.353 151.668 16
3 1 5 186.793 176.256 16
3 -1 6 2581.61 397.221 16
3 1 6 1811.76 321.006 16
3 -1 7 21778.3 1055.12 16
3 1 7 20692.1 1022.47 16
3 -1 8 105.967 102.319 16
3 1 8 -137.781 133.369 16
3 1 9 121.069 84.9883 5
3 -1 9 262.603 112.540 5
3 1 9 228.315 102.899 16
3 -2 -11 13063.3 560.888 11
3 -2 -10 180.679 68.9604 10
3 2 -9 8335.16 502.661 11
3 2 -9 10507.3 556.527 10
3 -2 -9 10074.0 519.687 10
3 -2 -9 8730.87 540.587 4
3 2 -8 6522.75 474.142 10
3 -2 -8 6133.91 450.437 10
3 -2 -8 5154.39 442.210 4
3 -2 -8 6107.73 488.299 6
3 2 -7 46189.7 1275.27 10
3 -2 -7 43363.6 1286.68 4
3 -2 -7 46450.8 1353.66 6
3 2 -6 12082.3 647.021 10
3 -2 -6 12271.3 691.806 4
3 -2 -6 11730.6 689.753 6
3 -2 -5 7429.00 563.747 5
3 2 -5 7701.15 613.643 5
3 -2 -5 7190.81 539.117 6
3 -2 -4 13651.8 761.078 5
3 2 -4 15126.5 847.355 5
3 -2 -4 13873.7 750.615 6
3 -2 -3 31556.4 1151.77 5
3 2 -3 32445.0 1245.54 5
3 2 -3 34502.5 1499.91 18
3 2 -3 31534.3 2227.23 3
3 2 -2 4360.21 809.119 3
3 -2 -2 4622.01 464.211 5
3 2 -2 4533.43 476.441 5
3 2 -2 4842.44 573.652 18
3 2 -1 13251.3 823.787 5
3 -2 -1 14842.4 836.981 5
3 2 -1 13075.8 926.182 18
3 2 0 2547.42 363.913 5
3 -2 0 2734.76 379.601 5
3 -2 0 2600.59 411.805 18
3 2 0 2746.51 462.395 18
3 2 1 9374.90 720.362 5
3 -2 1 9313.58 688.671 5
3 -2 1 10661.1 752.810 18
3 2 1 8891.99 768.565 18
3 2 2 57965.8 1823.88 5
3 -2 2 56055.1 1736.65 5
3 2 2 55379.6 1894.50 18
3 2 3 3292.48 475.644 18
3 2 3 2679.70 423.472 5
3 -2 3 2760.99 421.018 5
3 2 4 9708.08 785.396 5
3 2 4 9512.80 753.077 18
3 -2 4 11334.3 801.889 16
3 2 5 5714.07 568.533 18
3 -2 5 6615.87 619.409 16
3 2 5 6677.81 598.567 16
3 -2 6 4687.24 523.019 16
3 2 6 4305.70 486.988 16
3 2 7 4722.95 476.299 5
3 -2 7 4783.10 507.285 16
3 2 7 4361.69 462.295 16
3 2 8 7366.87 521.101 5
3 2 8 8149.48 567.868 16
3 2 9 9962.36 489.464 5
3 -2 9 10332.5 506.928 5
3 2 9 11217.1 548.512 16
3 -3 -11 1525.00 193.689 11
3 -3 -10 6599.13 329.660 10
3 3 -9 734.479 148.866 10
3 -3 -9 587.561 131.861 10
3 -3 -9 542.051 149.127 4
3 3 -8 1403.26 223.369 10
3 -3 -8 1114.48 204.758 10
3 -3 -8 1245.16 233.639 4
3 -3 -8 1280.38 225.400 6
3 3 -7 53436.5 1344.04 10
3 -3 -7 50276.4 1445.57 4
3 -3 -7 53783.3 1471.52 6
3 -3 -6 10047.6 655.729 4
3 3 -6 9753.57 579.599 10
3 -3 -6 10209.8 658.702 6
3 -3 -5 193.437 91.3784 6
3 -3 -5 -192.659 119.964 5
3 3 -5 -25.7757 101.501 5
3 3 -5 -82.0092 99.6370 10
3 -3 -5 -68.7344 110.317 4
3 -3 -4 20190.6 862.470 5
3 3 -4 19488.0 959.774 5
3 -3 -4 17825.1 875.372 6
3 -3 -3 44081.6 1306.97 5
3 3 -3 42479.5 1429.94 5
3 3 -3 44045.2 1690.89 18
3 -3 -2 9846.32 655.625 5
3 3 -2 10199.5 716.554 5
3 3 -2 8787.44 1134.76 3
3 3 -2 10376.0 829.085 18
3 3 -1 5583.93 531.988 5
3 -3 -1 5504.70 494.900 5
3 3 -1 4735.49 581.505 18
3 3 0 530.008 193.717 5
3 -3 0 327.851 169.933 5
3 3 0 733.049 250.320 18
3 3 1 120.655 133.960 18
3 3 1 142.117 102.853 5
3 -3 1 436.542 206.119 5
3 3 2 5224.85 540.247 5
3 -3 2 4641.15 507.033 5
3 3 3 13599.7 895.632 5
3 -3 3 12829.5 841.518 5
3 3 4 737.248 235.360 5
3 3 5 3756.17 464.395 5
3 3 6 680.932 217.392 5
3 3 6 574.593 203.004 16
3 3 7 4903.49 472.716 5
3 3 7 5245.78 490.420 16
3 3 8 1090.42 200.419 5
3 3 8 769.794 191.545 16
3 3 9 1974.70 196.995 5
3 -3 9 2139.62 219.661 5
3 3 9 2590.20 253.094 16
3 -4 -11 4154.06 296.831 11
3 -4 -10 226.017 115.304 4
3 -4 -9 9483.68 449.883 10
3 -4 -9 9969.32 595.034 4
3 4 -8 1419.45 218.037 10
3 -4 -8 900.662 162.302 10
3 -4 -8 1356.36 242.050 4
3 -4 -8 1844.41 279.931 6
3 4 -7 64491.2 1453.69 10
3 -4 -7 61569.2 1643.23 4
3 -4 -7 66972.8 1656.53 6
3 4 -6 234.293 137.429 10
3 -4 -6 117.426 112.261 4
3 -4 -6 260.701 140.120 6
3 4 -5 28468.8 1143.63 5
3 4 -5 25533.7 893.684 10
3 -4 -5 25473.5 1062.98 4
3 -4 -5 27718.1 1103.91 6
3 4 -4 6069.44 526.207 5
3 4 -4 5575.78 408.885 10
3 -4 -4 5819.66 516.014 6
3 4 -3 2589.54 355.092 5
3 4 -3 2559.92 430.252 18
3 4 -2 4555.99 483.142 5
3 4 -2 3836.18 517.153 18
3 4 -1 316.571 149.354 5
3 -4 -1 611.051 206.490 5
3 4 -1 360.747 203.002 18
3 4 0 25205.0 1321.83 18
3 4 0 26707.6 1162.99 5
3 -4 0 26562.4 1053.37 5
3 4 1 360.388 145.613 5
3 -4 1 519.620 170.931 5
3 4 1 634.917 227.746 18
3 4 2 2805.14 394.816 5
3 -4 2 2622.71 364.186 5
3 4 3 40.1059 101.471 5
3 -4 3 47.3174 111.630 5
3 4 4 18064.0 995.458 5
3 -4 4 16119.6 903.338 5
3 4 5 5567.27 544.892 5
3 4 6 -191.167 148.801 5
3 4 6 4.05703 102.009 16
3 4 7 6454.93 497.761 5
3 4 7 5312.55 428.563 18
3 4 7 6214.34 503.054 16
3 4 8 1202.52 184.369 5
3 -4 8 1398.09 205.943 5
3 4 8 1447.96 228.474 16
3 -4 9 57.9282 60.6231 5
3 4 9 189.448 80.0344 16
3 -5 -11 -30.0600 58.8521 11
3 -5 -10 929.825 154.948 4
3 -5 -9 2.22124 62.4949 10
3 -5 -9 -38.7169 72.6498 4
3 -5 -8 190.296 85.4106 10
3 -5 -8 411.256 162.071 4
3 -5 -8 179.928 140.339 6
3 5 -7 20668.3 799.040 10
3 -5 -7 21435.1 975.171 4
3 -5 -7 23009.1 962.602 6
3 5 -6 4446.31 375.330 10
3 -5 -6 4427.18 453.135 4
3 -5 -6 4558.92 444.359 6
3 5 -5 34988.9 1240.39 5
3 5 -5 30723.2 957.503 10
3 -5 -5 32205.9 1222.52 4
3 -5 -5 32663.5 1208.80 6
3 -5 -4 1411.74 271.868 6
3 5 -4 1253.60 246.923 5
3 5 -4 1480.84 214.757 10
3 5 -4 1146.12 264.643 18
3 5 -3 1470.43 261.737 5
3 5 -3 870.208 280.058 18
3 5 -2 384.131 156.287 5
3 5 -2 150.485 192.194 18
3 5 -1 15806.6 861.555 5
3 5 -1 15346.7 1042.31 18
3 5 0 709.626 208.916 5
3 5 0 426.547 241.045 18
3 5 1 12744.3 791.764 5
3 5 2 1275.88 259.356 5
3 -5 2 897.917 229.131 17
3 5 3 1460.28 286.611 5
3 -5 3 1481.90 266.820 5
3 5 4 29476.1 1213.96 5
3 -5 4 29274.4 1122.73 5
3 5 5 3526.71 413.817 5
3 -5 5 3387.72 380.463 5
3 5 6 182.061 117.368 5
3 -5 6 219.709 122.170 5
3 5 7 9682.43 542.964 5
3 -5 7 8863.90 512.217 5
3 5 7 8814.69 557.849 16
3 5 8 822.128 132.815 5
3 -5 8 882.987 140.447 5
3 5 8 993.329 168.275 16
3 -5 9 75.7636 43.9622 17
3 -6 -10 286.818 99.9401 4
3 -6 -9 272.693 77.3305 4
3 -6 -8 12930.8 491.284 10
3 -6 -8 13979.5 733.697 4
3 -6 -7 4492.34 446.832 4
3 -6 -7 3920.06 400.269 6
3 6 -6 71.6130 81.5559 10
3 -6 -6 71.4485 96.3841 4
3 -6 -6 132.769 131.130 6
3 6 -5 5058.33 372.982 10
3 -6 -5 4243.05 453.839 4
3 -6 -5 4925.40 468.132 6
3 6 -4 51570.7 1449.54 5
3 -6 -4 49821.3 1515.86 6
3 6 -3 6369.06 517.422 5
3 6 -3 5331.18 592.857 18
3 6 -2 22242.1 1212.45 18
3 6 -2 22605.1 978.554 5
3 6 -1 520.167 178.550 5
3 6 -1 336.944 185.175 18
3 6 0 -117.867 126.896 5
3 6 0 -47.5423 156.081 18
3 6 1 5355.28 496.620 5
3 6 2 14278.2 816.721 5
3 -6 2 14796.4 797.526 17
3 6 3 3150.17 440.884 5
3 -6 3 1591.69 284.092 17
3 6 4 5514.83 488.538 5
3 -6 4 5628.03 516.485 17
3 6 5 24458.5 968.769 5
3 6 6 2952.04 304.897 5
3 -6 6 3106.44 360.845 17
3 -6 7 3146.79 322.110 17
3 6 8 723.940 131.864 18
3 -6 8 686.758 133.847 17
3 -7 -10 9358.68 418.072 4
3 -7 -9 316.242 101.137 12
3 -7 -9 150.387 83.2701 4
3 -7 -8 5234.35 437.050 4
3 -7 -8 4884.55 392.666 6
3 -7 -7 197.140 115.192 4
3 -7 -7 38.1795 87.9209 6
3 -7 -6 48580.8 1476.67 4
3 -7 -6 49005.5 1381.77 6
3 -7 -5 5553.58 518.983 4
3 -7 -5 5134.45 477.549 6
3 7 -4 53007.9 1400.13 5
3 -7 -4 52156.0 1528.86 6
3 7 -3 75.3726 72.3535 5
3 7 -3 100.338 136.399 18
3 7 -2 34774.3 1144.35 5
3 7 -2 33852.6 1452.39 18
3 7 -1 15311.3 766.369 5
3 7 -1 13491.7 962.608 18
3 7 0 32153.2 1115.99 5
3 7 0 29525.3 1435.97 18
3 7 1 3879.37 387.217 5
3 -7 1 3735.40 397.457 17
3 7 2 10451.6 629.659 5
3 -7 2 10093.3 670.195 17
3 7 3 1767.00 260.338 5
3 -7 3 1565.94 253.977 9
3 -7 3 1203.57 247.243 17
3 -7 4 1117.71 231.049 17
3 -7 5 4150.18 417.155 17
3 -7 6 5116.50 426.428 17
3 -7 7 -51.8720 59.9840 17
3 -7 8 283.269 90.4626 17
3 -8 -9 70.4827 56.9571 12
3 -8 -9 39.6315 49.8582 4
3 -8 -8 287.311 107.586 4
3 -8 -8 299.913 110.665 6
3 -8 -7 6115.73 484.675 4
3 -8 -7 5618.50 417.291 6
3 -8 -6 35298.9 1223.25 4
3 -8 -6 35246.6 1099.64 6
3 -8 -5 27869.3 1128.16 4
3 -8 -5 27122.5 1022.47 6
3 -8 -4 10924.6 676.933 6
3 8 -3 356.140 139.779 5
3 8 -3 261.362 179.657 18
3 -8 -3 112.999 106.670 9
3 8 -2 10069.5 564.643 5
3 -8 -2 9734.05 670.765 9
3 8 -2 8447.82 696.063 18
3 8 -1 39.4548 119.146 18
3 -8 -1 184.504 117.925 9
3 8 0 -31.5688 122.037 18
3 -8 0 14.1836 81.6234 9
3 -8 1 86.8748 74.9584 9
3 -8 1 20.8152 68.1435 17
3 -8 2 989.909 215.203 9
3 -8 2 1135.44 229.684 17
3 -8 3 5303.78 466.443 9
3 -8 3 6196.16 520.003 17
3 -8 4 4271.75 395.066 9
3 -8 4 4301.02 420.949 17
3 -8 5 1936.80 268.720 17
3 -8 5 1705.55 233.259 9
3 -8 6 13666.7 542.394 9
3 -8 6 16831.2 717.994 17
3 8 7 151.695 78.1822 18
3 -8 7 409.849 113.936 17
3 -9 -9 1265.58 151.848 4
3 -9 -8 2884.87 270.835 12
3 -9 -8 3225.31 288.437 4
3 -9 -7 628.843 156.274 4
3 -9 -7 560.132 132.382 6
3 -9 -6 2160.23 300.058 4
3 -9 -6 1572.14 219.130 6
3 -9 -5 2970.67 368.397 4
3 -9 -5 2475.74 302.622 6
3 -9 -4 11142.6 643.157 6
3 -9 -3 3241.11 395.421 9
3 -9 -3 3754.71 394.024 6
3 -9 -2 13021.1 781.437 9
3 9 -2 11703.7 746.630 18
3 9 -1 2279.73 352.092 18
3 -9 -1 2096.50 314.988 9
3 9 0 629.533 233.210 18
3 -9 0 713.049 188.806 9
3 -9 1 13731.3 773.502 9
3 9 1 12858.5 892.485 18
3 -9 2 322.287 142.532 9
3 -9 2 480.682 161.801 17
3 -9 3 2921.66 338.135 9
3 -9 3 3026.46 347.401 17
3 -9 4 1497.21 224.105 9
3 -9 4 1835.30 256.700 17
3 -9 5 2640.20 265.236 9
3 -9 5 3043.79 317.119 17
3 -9 6 335.173 88.5164 9
3 -9 6 538.382 123.544 17
3 9 7 419.072 97.9665 18
3 -9 7 689.234 115.482 17
3 -10 -8 -10.8038 52.8267 12
3 -10 -8 -76.9817 55.0842 4
3 -10 -7 1380.07 194.810 4
3 -10 -7 1441.79 161.234 6
3 -10 -6 4255.08 372.014 4
3 -10 -6 4180.24 308.919 6
3 -10 -5 61654.8 1484.61 4
3 -10 -5 57772.4 1244.49 6
3 -10 -4 1546.37 231.957 6
3 -10 -4 1721.40 259.015 4
3 -10 -3 5871.41 501.335 9
3 -10 -3 6283.87 460.460 6
3 -10 -2 3205.45 368.364 9
3 -10 -1 6214.37 519.345 9
3 10 -1 6148.51 522.730 18
3 10 0 376.870 142.216 18
3 -10 0 516.313 161.987 9
3 -10 1 36725.5 1211.34 9
3 10 1 35513.3 1356.11 18
3 10 2 102.876 136.093 18
3 -10 2 140.522 96.9969 9
3 -10 3 1040.36 202.906 17
3 -10 3 1070.77 196.824 9
3 -10 4 4273.93 346.633 9
3 -10 4 4260.32 361.425 17
3 -10 5 4568.61 308.003 9
3 -10 5 5889.18 387.130 17
3 10 6 1567.81 200.677 18
3 -11 -7 144.350 59.1239 4
3 -11 -6 131.511 51.0075 4
3 -11 -6 84.4416 41.5740 6
3 -11 -5 122.411 88.2791 4
3 -11 -5 8.57061 50.5806 6
3 -11 -4 2193.10 278.241 4
3 -11 -4 2039.24 220.227 6
3 -11 -3 196.466 80.9586 6
3 -11 -3 379.492 139.145 9
3 -11 -2 2598.76 317.507 9
3 -11 -2 2589.62 275.778 6
3 -11 -1 2345.02 301.885 9
3 -11 0 20257.6 866.027 9
3 11 0 18923.7 826.843 18
3 -11 1 3567.39 357.756 9
3 11 1 3408.78 363.470 18
3 -11 2 4791.76 393.434 9
3 11 2 5159.55 450.997 18
3 -11 3 9162.80 499.997 9
3 11 3 10173.3 621.826 18
3 -11 4 13959.4 545.475 9
3 11 4 14827.0 693.994 18
3 11 5 14901.7 601.729 18
3 -12 -6 2949.57 213.425 4
3 -12 -5 1448.88 178.019 4
3 -12 -4 1286.52 181.021 4
3 -12 -4 1320.96 132.954 6
3 -12 -3 6062.22 404.209 4
3 -12 -3 5417.90 296.928 6
3 -12 -2 43.8506 47.0664 6
3 -12 -2 178.795 79.1899 9
3 -12 -1 2284.30 271.331 9
3 -12 -1 2229.24 243.476 14
3 -12 -1 2252.48 211.468 6
3 -12 0 31692.8 970.665 9
3 -12 0 30515.0 774.044 6
3 12 1 -37.5527 78.5221 18
3 -12 1 147.197 92.1972 9
3 -12 2 7699.73 435.675 9
3 12 2 7232.33 427.373 18
3 -12 3 13876.0 521.989 9
3 12 3 13954.7 566.265 18
3 12 4 142.405 76.1076 18
3 -13 -4 1296.14 138.071 4
3 -13 -3 19.4435 49.9988 4
3 -13 -2 8088.37 393.078 4
3 -13 -1 461.840 107.487 9
3 -13 0 6748.87 377.512 9
3 -13 0 5201.59 301.415 14
3 -13 1 151.349 73.7327 9
3 -13 2 4090.73 247.872 9
4 0 -8 9355.04 344.432 10
4 0 -7 150.594 72.1516 10
4 0 -6 1751.30 200.726 10
4 0 -5 88.6866 67.6791 10
4 0 -4 2543.31 288.501 5
4 0 -3 216.485 115.464 5
4 0 -2 12303.7 675.253 5
4 0 -1 -62.3562 113.151 5
4 0 0 309.656 150.374 5
4 0 1 -13.2775 126.709 5
4 0 2 62830.8 1506.55 5
4 0 3 -49.3838 77.6929 5
4 0 4 79539.0 1463.46 5
4 0 5 74.1756 66.4775 5
4 0 6 2355.22 172.936 5
4 1 -8 1078.60 118.609 10
4 -1 -8 1131.42 122.954 10
4 1 -7 3792.31 256.822 10
4 -1 -7 4056.39 269.340 10
4 1 -6 92.1763 64.0582 10
4 -1 -6 188.707 97.5421 10
4 1 -5 1373.85 172.210 10
4 -1 -4 3918.70 343.083 5
4 1 -4 4305.99 380.523 5
4 -1 -3 9803.38 554.878 5
4 1 -3 10163.3 598.353 5
4 -1 -2 2524.20 295.214 5
4 1 -2 2694.20 332.726 5
4 -1 -1 583.747 160.701 5
4 1 -1 931.918 225.361 5
4 -1 0 624.547 178.653 5
4 1 0 308.041 123.394 5
4 -1 1 354.996 115.602 5
4 1 1 211.599 93.2521 5
4 1 2 1782.69 266.471 5
4 -1 2 1730.91 254.418 5
4 1 3 259.020 128.326 5
4 -1 3 375.189 134.761 5
4 1 4 2453.35 271.398 5
4 -1 4 2044.45 231.558 5
4 1 5 765.754 130.990 5
4 -1 5 781.414 126.944 5
4 -2 -8 5295.67 247.031 10
4 2 -7 4900.88 275.244 10
4 -2 -7 5663.79 307.492 10
4 2 -6 33451.4 780.418 10
4 -2 -6 35203.0 843.749 10
4 2 -5 -52.0481 57.0034 10
4 -2 -5 -39.0534 59.8509 6
4 2 -4 199.508 118.520 5
4 2 -4 169.069 73.8533 10
4 -2 -4 197.064 84.1913 6
4 -2 -3 6583.96 434.824 5
4 2 -3 6460.06 487.736 5
4 2 -3 5601.57 339.222 10
4 -2 -3 5598.38 358.690 6
4 -2 -2 534.555 110.773 6
4 -2 -2 612.933 151.071 5
4 2 -2 707.224 202.552 5
4 -2 -1 3343.80 339.640 5
4 2 -1 3954.12 399.172 5
4 -2 0 2862.30 304.488 5
4 2 0 2705.67 337.890 5
4 -2 1 28.5501 77.6461 5
4 2 1 39.8693 89.3047 5
4 2 2 1336.12 234.047 5
4 -2 2 1369.48 205.484 5
4 2 3 29096.0 962.085 5
4 -2 3 26787.4 860.722 5
4 2 4 1809.72 221.838 5
4 -2 4 1359.06 182.760 5
4 2 5 2619.36 227.608 5
4 -2 5 2615.07 210.758 5
4 -3 -8 358.036 64.0688 10
4 -3 -7 3418.17 227.866 10
4 3 -6 16411.7 508.415 10
4 -3 -6 16289.0 540.484 6
4 3 -5 285.285 79.9772 10
4 -3 -5 274.478 92.0984 6
4 3 -4 78.0554 96.8323 5
4 3 -4 13.5020 45.3820 10
4 -3 -4 -99.5412 79.5635 6
4 -3 -3 14089.2 570.087 5
4 -3 -3 13532.8 577.806 6
4 -3 -2 6071.43 397.169 5
4 3 -2 6907.84 508.764 5
4 -3 -2 5834.30 383.027 6
4 -3 -1 205.917 69.9465 6
4 -3 -1 35.7775 85.3032 5
4 -3 0 151.320 81.9770 6
4 -3 0 42.3983 59.6386 5
4 3 0 -102.202 80.1243 5
4 -3 1 1049.44 176.233 5
4 3 1 1472.65 238.780 5
4 3 1 1035.80 233.732 18
4 -3 2 352.091 100.723 5
4 3 2 347.159 130.457 5
4 3 2 296.791 134.115 18
4 -3 3 4388.73 315.118 5
4 3 3 4474.07 373.788 18
4 3 4 258.895 84.2135 5
4 -3 4 311.839 82.8815 5
4 3 5 1668.26 167.673 5
4 -4 -7 8717.89 329.780 10
4 -4 -6 20299.9 583.791 10
4 -4 -6 18780.5 578.770 6
4 4 -5 1474.77 144.090 10
4 -4 -5 1757.99 199.506 6
4 -4 -4 2394.34 242.025 6
4 4 -3 2458.99 280.456 5
4 -4 -3 1894.65 223.678 6
4 -4 -2 158.517 85.2256 6
4 4 -2 174.907 97.8933 5
4 -4 -1 1569.44 195.207 6
4 4 -1 1970.83 271.398 5
4 -4 0 -129.485 66.9397 5
4 4 0 61.8701 84.7444 5
4 4 0 33.2457 105.925 18
4 -4 1 2509.91 225.133 5
4 4 1 3059.93 318.045 5
4 4 1 2729.24 372.078 18
4 -4 2 48.2651 60.1368 5
4 4 2 32.1747 59.6710 5
4 4 2 37.6844 88.1047 18
4 -4 3 174.543 56.0198 5
4 4 3 207.993 86.7910 5
4 4 3 208.855 104.191 18
4 4 4 2825.75 236.423 5
4 -5 -7 16026.5 381.073 10
4 -5 -6 11.6299 39.7804 10
4 -5 -6 126.253 73.9806 6
4 -5 -5 8547.54 415.735 6
4 -5 -4 11597.1 516.035 6
4 5 -3 4684.85 360.972 5
4 -5 -3 3860.47 311.271 6
4 -5 -2 707.451 145.065 6
4 5 -2 662.940 148.384 5
4 5 -1 7785.04 477.937 5
4 -5 -1 6448.01 407.859 6
4 5 0 186.996 96.5366 5
4 5 0 70.0251 85.2971 18
4 5 1 439.854 120.606 5
4 5 1 97.0511 86.8470 18
4 5 2 4628.20 332.746 5
4 5 2 4505.45 417.454 18
4 5 3 1137.71 153.386 5
4 5 3 1176.07 197.256 18
4 5 4 5007.31 251.901 5
4 5 4 5414.16 317.926 18
4 -6 -6 2369.31 158.416 10
4 -6 -6 2853.36 203.275 6
4 -6 -5 11106.3 448.063 6
4 -6 -4 12774.9 517.054 6
4 -6 -3 3542.07 288.585 6
4 6 -2 1885.47 215.026 5
4 -6 -2 1987.06 226.901 6
4 -6 -1 1276.03 177.406 6
4 6 -1 1411.43 186.890 5
4 6 0 11247.1 498.525 5
4 6 0 12027.0 694.675 18
4 -6 0 10035.6 480.584 6
4 6 1 12947.0 506.061 5
4 6 1 14393.1 723.079 18
4 6 2 5595.26 305.430 5
4 6 2 5984.02 439.300 18
4 6 3 573.401 93.9293 5
4 6 3 883.865 159.249 18
4 -7 -5 9687.28 377.168 6
4 -7 -4 2842.58 191.853 4
4 -7 -4 3887.71 261.945 6
4 -7 -3 10958.7 405.308 4
4 -7 -3 14624.2 539.177 6
4 -7 -2 85.5563 56.2111 6
4 -7 -2 -5.92273 55.6345 4
4 -7 -1 -113.625 72.7436 6
4 -7 -1 82.2199 60.3666 4
4 -7 0 513.037 114.336 6
4 7 0 381.124 75.3845 5
4 7 1 1766.95 235.109 18
4 7 2 2253.66 247.642 18
4 7 3 2154.16 212.639 18
4 -8 -4 3539.61 218.385 6
4 -8 -3 10987.2 366.307 4
4 -8 -3 15389.9 490.294 6
4 -8 -2 -18.2106 64.6872 6
4 -8 -2 -165.862 57.5952 4
4 -8 -1 2616.57 184.435 4
4 -8 -1 3877.72 260.807 6
4 -8 0 -93.2169 54.7884 6
4 -8 1 2072.90 173.550 6
4 -8 2 95.0862 42.2193 6
4 -9 -2 92.4303 44.3099 6
4 -9 -1 184.428 51.1757 6
4 -9 0 18.4077 27.5749 6
