#------------------------------------------------------------------------------
#$Date: 2016-03-26 00:04:03 +0200 (Sat, 26 Mar 2016) $
#$Revision: 180058 $
#$URL: svn://www.crystallography.net/cod/cif/7/05/04/7050422.cif $
#------------------------------------------------------------------------------
#
# This file is available in the Crystallography Open Database (COD),
# http://www.crystallography.net/
#
# All data on this site have been placed in the public domain by the
# contributors.
#
data_7050422
loop_
_publ_author_name
'Khan, Muhammad S.'
'Al-Mandhary, Muna R. A.'
'Al-Suti, Mohammed K.'
'Corcoran, Timothy C.'
'Al-Mahrooqi, Yaqoub'
'Attfield, J. Paul'
'Feeder, Neil'
'David, William I. F.'
'Shankland, Kenneth'
'Friend, Richard H.'
'K\"ohler, Anna'
'Marseglia, Elisabeth A.'
'Tedesco, Emilio'
'Tang, Chiu C.'
'Raithby, Paul R.'
'Collings, Jonathan C.'
'Roscoe, Karl P.'
'Batsanov, Andrei S.'
'Stimson, Lorna M.'
'Marder, Todd B.'
_publ_section_title
;
 Synthesis and optical characterisation of platinum(ii) poly-yne
 polymers incorporating substituted 1,4-diethynylbenzene derivatives
 and an investigation of the intermolecular interactions in the
 diethynylbenzene molecular precursorsElectronic supplementary
 information (ESI) available: atomic cooordinates for 6 and 7. See
 http://www.rsc.org/suppdata/nj/b2/b206946f/
;
_journal_issue                   1
_journal_name_full               'New Journal of Chemistry'
_journal_page_first              140
_journal_paper_doi               10.1039/b206946f
_journal_volume                  27
_journal_year                    2003
_chemical_formula_sum            'C10 H5 F'
_chemical_formula_weight         144.14
_chemical_name_systematic
; 
Compound 3
;
_space_group_IT_number           14
_symmetry_cell_setting           monoclinic
_symmetry_space_group_name_Hall  '-P 2ybc'
_symmetry_space_group_name_H-M   'P 1 21/c 1'
_atom_sites_solution_hydrogens   geom
_atom_sites_solution_primary     direct
_atom_sites_solution_secondary   difmap
_audit_creation_method           SHELXL-97
_cell_angle_alpha                90.00
_cell_angle_beta                 93.46(3)
_cell_angle_gamma                90.00
_cell_formula_units_Z            2
_cell_length_a                   3.8780(11)
_cell_length_b                   5.9470(12)
_cell_length_c                   15.800(5)
_cell_measurement_reflns_used    38
_cell_measurement_temperature    180(2)
_cell_measurement_theta_max      24.76
_cell_measurement_theta_min      12.5
_cell_volume                     363.72(17)
_computing_structure_refinement  'SHELXL-97 (Sheldrick, 1997)'
_computing_structure_solution    'SHELXS-97 (Sheldrick, 1990)'
_diffrn_ambient_temperature      180(2)
_diffrn_measured_fraction_theta_full 1.000
_diffrn_measured_fraction_theta_max 1.000
_diffrn_measurement_device_type  STOE
_diffrn_measurement_method       \w/2\q
_diffrn_radiation_monochromator  graphite
_diffrn_radiation_source         'fine-focus sealed tube'
_diffrn_radiation_type           CuK\a
_diffrn_radiation_wavelength     1.54178
_diffrn_reflns_av_R_equivalents  0.0263
_diffrn_reflns_av_sigmaI/netI    0.0320
_diffrn_reflns_limit_h_max       4
_diffrn_reflns_limit_h_min       -4
_diffrn_reflns_limit_k_max       6
_diffrn_reflns_limit_k_min       -6
_diffrn_reflns_limit_l_max       16
_diffrn_reflns_limit_l_min       -16
_diffrn_reflns_number            920
_diffrn_reflns_theta_full        54.99
_diffrn_reflns_theta_max         54.99
_diffrn_reflns_theta_min         5.61
_diffrn_standards_decay_%        2.0
_diffrn_standards_interval_time  90
_diffrn_standards_number         3
_exptl_absorpt_coefficient_mu    0.770
_exptl_absorpt_correction_T_max  0.572
_exptl_absorpt_correction_T_min  0.564
_exptl_absorpt_correction_type   psi-scan
_exptl_crystal_colour            'Light purple'
_exptl_crystal_density_diffrn    1.316
_exptl_crystal_density_method    'not measured'
_exptl_crystal_description       Block
_exptl_crystal_F_000             148
_exptl_crystal_size_max          0.38
_exptl_crystal_size_mid          0.23
_exptl_crystal_size_min          0.15
_refine_diff_density_max         0.166
_refine_diff_density_min         -0.165
_refine_diff_density_rms         0.038
_refine_ls_extinction_coef       0.037(6)
_refine_ls_extinction_expression Fc^*^=kFc[1+0.001xFc^2^\l^3^/sin(2\q)]^-1/4^
_refine_ls_extinction_method     SHELXL
_refine_ls_goodness_of_fit_ref   1.112
_refine_ls_hydrogen_treatment    mixed
_refine_ls_matrix_type           full
_refine_ls_number_parameters     56
_refine_ls_number_reflns         460
_refine_ls_number_restraints     0
_refine_ls_restrained_S_all      1.112
_refine_ls_R_factor_all          0.0599
_refine_ls_R_factor_gt           0.0453
_refine_ls_shift/su_max          0.004
_refine_ls_shift/su_mean         0.001
_refine_ls_structure_factor_coef Fsqd
_refine_ls_weighting_details
'calc w=1/[\s^2^(Fo^2^)+(0.0570P)^2^+0.1499P] where P=(Fo^2^+2Fc^2^)/3'
_refine_ls_weighting_scheme      calc
_refine_ls_wR_factor_gt          0.1141
_refine_ls_wR_factor_ref         0.1215
_reflns_number_gt                369
_reflns_number_total             460
_reflns_threshold_expression     >2sigma(I)
_cod_data_source_file            b206946f.txt
_cod_data_source_block           em9816
_cod_depositor_comments
;
The following automatic conversions were performed:
'_symmetry_cell_setting' value 'Monoclinic' changed to 'monoclinic'
according to '/home/saulius/struct/CIF-dictionaries/cif_core.dic'
dictionary named 'cif_core.dic' version 2.4.1 from
2010-06-29.

'_exptl_absorpt_correction_type' value 'Psi-scan' changed to
'psi-scan' according to
'/home/saulius/struct/CIF-dictionaries/cif_core.dic' dictionary named
'cif_core.dic' version 2.4.1 from 2010-06-29.

Automatic conversion script
Id: cif_fix_enum 1527 2010-12-29 10:47:43Z saulius 
;
_cod_original_sg_symbol_H-M      P2(1)/c
_cod_database_code               7050422
loop_
_symmetry_equiv_pos_as_xyz
'x, y, z'
'-x, y+1/2, -z+1/2'
'-x, -y, -z'
'x, -y-1/2, z-1/2'
loop_
_atom_site_label
_atom_site_type_symbol
_atom_site_fract_x
_atom_site_fract_y
_atom_site_fract_z
_atom_site_U_iso_or_equiv
_atom_site_adp_type
_atom_site_occupancy
_atom_site_symmetry_multiplicity
_atom_site_calc_flag
_atom_site_refinement_flags
_atom_site_disorder_assembly
_atom_site_disorder_group
C1 C 0.4062(7) 0.0792(5) 0.17851(18) 0.0510(9) Uani 1 1 d . . .
H1 H 0.5033 -0.0203 0.2206 0.061 Uiso 1 1 calc R . .
C2 C 0.2856(6) 0.2027(4) 0.12629(15) 0.0405(8) Uani 1 1 d . A .
C3 C 0.1403(6) 0.3519(4) 0.06209(15) 0.0380(8) Uani 1 1 d . . .
C4 C -0.0039(6) 0.5573(4) 0.08345(15) 0.0410(8) Uani 0.50 1 d P A 1
F1 F -0.0063(8) 0.6036(5) 0.16056(17) 0.0550(10) Uani 0.50 1 d P A 1
C4' C -0.0039(6) 0.5573(4) 0.08345(15) 0.0410(8) Uani 0.50 1 d P A 2
H4' H -0.0071 0.5972 0.1416 0.049 Uiso 0.50 1 calc PR A 2
C5 C -0.1415(6) 0.7037(4) 0.02343(15) 0.0401(8) Uani 1 1 d . . 2
H5 H -0.2373 0.8426 0.0402 0.048 Uiso 1 1 calc R . 2
loop_
_atom_site_aniso_label
_atom_site_aniso_U_11
_atom_site_aniso_U_22
_atom_site_aniso_U_33
_atom_site_aniso_U_23
_atom_site_aniso_U_13
_atom_site_aniso_U_12
C1 0.0621(18) 0.0412(17) 0.0484(18) 0.0027(14) -0.0077(13) 0.0013(14)
C2 0.0395(15) 0.0371(16) 0.0445(17) 0.0005(14) -0.0010(12) -0.0042(12)
C3 0.0350(14) 0.0336(15) 0.0452(17) 0.0060(13) 0.0009(11) -0.0069(12)
C4 0.0444(16) 0.0397(16) 0.0390(16) 0.0017(13) 0.0045(11) -0.0046(12)
F1 0.083(2) 0.0454(19) 0.0362(17) -0.0041(15) 0.0022(14) 0.0076(16)
C4' 0.0444(16) 0.0397(16) 0.0390(16) 0.0017(13) 0.0045(11) -0.0046(12)
C5 0.0414(15) 0.0322(17) 0.0469(16) 0.0008(13) 0.0036(11) -0.0030(12)
loop_
_atom_type_symbol
_atom_type_description
_atom_type_scat_dispersion_real
_atom_type_scat_dispersion_imag
_atom_type_scat_source
C C 0.0181 0.0091 'International Tables Vol C Tables 4.2.6.8 and 6.1.1.4'
H H 0.0000 0.0000 'International Tables Vol C Tables 4.2.6.8 and 6.1.1.4'
F F 0.0727 0.0534 'International Tables Vol C Tables 4.2.6.8 and 6.1.1.4'
loop_
_geom_angle_atom_site_label_1
_geom_angle_atom_site_label_2
_geom_angle_atom_site_label_3
_geom_angle
_geom_angle_site_symmetry_1
_geom_angle_site_symmetry_3
_geom_angle_publ_flag
C1 C2 C3 179.4(3) . . ?
C5 C3 C4 117.9(2) 3_565 . ?
C5 C3 C2 121.0(2) 3_565 . ?
C4 C3 C2 121.1(2) . . ?
F1 C4 C3 117.1(2) . . ?
loop_
_geom_bond_atom_site_label_1
_geom_bond_atom_site_label_2
_geom_bond_distance
_geom_bond_site_symmetry_2
_geom_bond_publ_flag
C1 C2 1.180(4) . ?
C2 C3 1.437(3) . ?
C3 C5 1.391(3) 3_565 ?
C3 C4 1.393(4) . ?
C4 F1 1.250(3) . ?
C5 C3 1.391(3) 3_565 ?
