#------------------------------------------------------------------------------
#$Date: 2016-03-26 00:30:17 +0200 (Sat, 26 Mar 2016) $
#$Revision: 180082 $
#$URL: svn://www.crystallography.net/cod/cif/7/05/28/7052840.cif $
#------------------------------------------------------------------------------
#
# This file is available in the Crystallography Open Database (COD),
# http://www.crystallography.net/
#
# All data on this site have been placed in the public domain by the
# contributors.
#
data_7052840
loop_
_publ_author_name
'Smiglak, Marcin'
'Hines, C. Corey'
'Reichert, W. Matthew'
'Vincek, Adam S.'
'Katritzky, Alan R.'
'Thrasher, Joseph S.'
'Sun, Luyi'
'McCrary, Parker D.'
'Beasley, Preston A.'
'Kelley, Steven P.'
'Rogers, Robin D.'
_publ_section_title
;
 Synthesis, limitations, and thermal properties of
 energetically-substituted, protonated imidazolium picrate and nitrate
 salts and further comparison with their methylated analogs
;
_journal_issue                   3
_journal_name_full               'New Journal of Chemistry'
_journal_page_first              702
_journal_paper_doi               10.1039/c1nj20677j
_journal_volume                  36
_journal_year                    2012
_chemical_formula_sum            'C4 H7 N3 O3'
_chemical_formula_weight         145.13
_chemical_name_common            '1-methyl-3-H-imidazolium nitrate'
_chemical_name_systematic
;
?
;
_space_group_IT_number           14
_symmetry_cell_setting           monoclinic
_symmetry_space_group_name_Hall  '-P 2ybc'
_symmetry_space_group_name_H-M   'P 1 21/c 1'
_atom_sites_solution_hydrogens   geom
_atom_sites_solution_primary     direct
_atom_sites_solution_secondary   difmap
_audit_creation_method           SHELXL-97
_cell_angle_alpha                90.00
_cell_angle_beta                 96.046(12)
_cell_angle_gamma                90.00
_cell_formula_units_Z            4
_cell_length_a                   8.957(7)
_cell_length_b                   9.917(7)
_cell_length_c                   7.143(6)
_cell_measurement_reflns_used    862
_cell_measurement_temperature    173(2)
_cell_measurement_theta_max      23.20
_cell_measurement_theta_min      2.29
_cell_volume                     631.0(9)
_computing_cell_refinement       'Bruker SAINT'
_computing_data_collection       'Bruker APEX2'
_computing_data_reduction        'Bruker SAINT'
_computing_molecular_graphics    'Bruker SHELXTL'
_computing_publication_material  'Bruker SHELXTL'
_computing_structure_refinement  'SHELXL-97 (Sheldrick, 2008)'
_computing_structure_solution    'SHELXS-97 (Sheldrick, 2008)'
_diffrn_ambient_temperature      173(2)
_diffrn_measured_fraction_theta_full 0.996
_diffrn_measured_fraction_theta_max 0.996
_diffrn_measurement_device_type  'Bruker APEX-II CCD'
_diffrn_measurement_method       '\f and \w scans'
_diffrn_radiation_monochromator  graphite
_diffrn_radiation_source         'fine-focus sealed tube'
_diffrn_radiation_type           MoK\a
_diffrn_radiation_wavelength     0.71073
_diffrn_reflns_av_R_equivalents  0.0224
_diffrn_reflns_av_sigmaI/netI    0.0223
_diffrn_reflns_limit_h_max       9
_diffrn_reflns_limit_h_min       -9
_diffrn_reflns_limit_k_max       11
_diffrn_reflns_limit_k_min       -9
_diffrn_reflns_limit_l_max       7
_diffrn_reflns_limit_l_min       -7
_diffrn_reflns_number            2862
_diffrn_reflns_theta_full        23.34
_diffrn_reflns_theta_max         23.34
_diffrn_reflns_theta_min         2.29
_exptl_absorpt_coefficient_mu    0.131
_exptl_absorpt_correction_T_max  0.9883
_exptl_absorpt_correction_T_min  0.8934
_exptl_absorpt_correction_type   multi-scan
_exptl_absorpt_process_details   'SHELX SADABS'
_exptl_crystal_colour            colorless
_exptl_crystal_density_diffrn    1.528
_exptl_crystal_density_meas      0
_exptl_crystal_density_method    'not measured'
_exptl_crystal_description       needle
_exptl_crystal_F_000             304
_exptl_crystal_size_max          0.88
_exptl_crystal_size_mid          0.14
_exptl_crystal_size_min          0.09
_refine_diff_density_max         0.169
_refine_diff_density_min         -0.322
_refine_diff_density_rms         0.064
_refine_ls_extinction_method     none
_refine_ls_goodness_of_fit_ref   0.985
_refine_ls_hydrogen_treatment    mixed
_refine_ls_matrix_type           full
_refine_ls_number_parameters     95
_refine_ls_number_reflns         906
_refine_ls_number_restraints     0
_refine_ls_restrained_S_all      0.985
_refine_ls_R_factor_all          0.0415
_refine_ls_R_factor_gt           0.0347
_refine_ls_shift/su_max          0.000
_refine_ls_shift/su_mean         0.000
_refine_ls_structure_factor_coef Fsqd
_refine_ls_weighting_details
'calc w=1/[\s^2^(Fo^2^)+(0.0521P)^2^+0.3409P] where P=(Fo^2^+2Fc^2^)/3'
_refine_ls_weighting_scheme      calc
_refine_ls_wR_factor_gt          0.0880
_refine_ls_wR_factor_ref         0.0929
_reflns_number_gt                773
_reflns_number_total             906
_reflns_threshold_expression     >2sigma(I)
_cod_data_source_file            c1nj20677j.txt
_cod_data_source_block           1b
_cod_depositor_comments
;
The following automatic conversions were performed:

'_symmetry_cell_setting' value 'Monoclinic' changed to 'monoclinic'
according to /home/saulius/struct/CIF-dictionaries/cif_core.dic
dictionary named 'cif_core.dic' version 2.4.1 from 2010-06-29.

Automatic conversion script
Id: cif_fix_values 1715 2011-07-08 13:25:40Z adriana 
;
_cod_original_cell_volume        630.9(8)
_cod_original_sg_symbol_H-M      P2(1)/c
_cod_database_code               7052840
loop_
_symmetry_equiv_pos_as_xyz
'x, y, z'
'-x, y+1/2, -z+1/2'
'-x, -y, -z'
'x, -y-1/2, z-1/2'
loop_
_atom_site_label
_atom_site_type_symbol
_atom_site_fract_x
_atom_site_fract_y
_atom_site_fract_z
_atom_site_U_iso_or_equiv
_atom_site_adp_type
_atom_site_occupancy
_atom_site_symmetry_multiplicity
_atom_site_calc_flag
_atom_site_refinement_flags
N1 N 0.19518(16) 0.65742(14) 0.2245(2) 0.0206(4) Uani 1 1 d .
N3 N 0.38338(18) 0.77845(15) 0.1626(2) 0.0249(4) Uani 1 1 d .
H3A H 0.471(2) 0.802(2) 0.123(3) 0.030 Uiso 1 1 d .
C5 C 0.1560(2) 0.78965(17) 0.2460(3) 0.0238(5) Uani 1 1 d .
H5A H 0.0632 0.8218 0.2818 0.029 Uiso 1 1 calc R
C4 C 0.2736(2) 0.86564(18) 0.2072(2) 0.0258(5) Uani 1 1 d .
H4A H 0.2793 0.9613 0.2101 0.031 Uiso 1 1 calc R
C2 C 0.3338(2) 0.65355(18) 0.1740(2) 0.0242(5) Uani 1 1 d .
H2A H 0.3882 0.5742 0.1501 0.029 Uiso 1 1 calc R
C6 C 0.0972(2) 0.54201(17) 0.2461(3) 0.0276(5) Uani 1 1 d .
H6A H 0.1304 0.4654 0.1743 0.041 Uiso 1 1 calc R
H6B H -0.0062 0.5656 0.1989 0.041 Uiso 1 1 calc R
H6C H 0.1016 0.5175 0.3795 0.041 Uiso 1 1 calc R
N4 N 0.71807(18) 0.75521(15) 0.0000(2) 0.0263(4) Uani 1 1 d .
O1 O 0.64177(14) 0.85915(12) 0.02792(19) 0.0327(4) Uani 1 1 d .
O2 O 0.84585(15) 0.76803(14) -0.0507(2) 0.0368(4) Uani 1 1 d .
O3 O 0.66295(16) 0.64208(13) 0.02323(19) 0.0365(4) Uani 1 1 d .
loop_
_atom_site_aniso_label
_atom_site_aniso_U_11
_atom_site_aniso_U_22
_atom_site_aniso_U_33
_atom_site_aniso_U_23
_atom_site_aniso_U_13
_atom_site_aniso_U_12
N1 0.0206(8) 0.0212(8) 0.0204(8) 0.0002(6) 0.0036(6) 0.0000(6)
N3 0.0212(9) 0.0295(9) 0.0246(9) -0.0011(6) 0.0055(7) -0.0045(7)
C5 0.0237(10) 0.0210(10) 0.0270(11) 0.0006(8) 0.0046(8) 0.0033(8)
C4 0.0295(11) 0.0208(10) 0.0276(11) -0.0001(8) 0.0046(8) -0.0001(8)
C2 0.0231(10) 0.0251(10) 0.0247(10) -0.0020(7) 0.0044(8) 0.0016(8)
C6 0.0280(11) 0.0223(10) 0.0332(11) 0.0003(8) 0.0066(8) -0.0053(8)
N4 0.0277(10) 0.0282(10) 0.0235(9) -0.0021(7) 0.0059(7) -0.0028(7)
O1 0.0280(8) 0.0232(7) 0.0489(9) -0.0006(6) 0.0139(6) 0.0008(6)
O2 0.0256(8) 0.0423(9) 0.0453(10) -0.0073(6) 0.0172(7) -0.0044(6)
O3 0.0452(9) 0.0221(8) 0.0445(9) 0.0003(6) 0.0156(7) -0.0067(6)
loop_
_atom_type_symbol
_atom_type_description
_atom_type_scat_dispersion_real
_atom_type_scat_dispersion_imag
_atom_type_scat_source
C C 0.0033 0.0016 'International Tables Vol C Tables 4.2.6.8 and 6.1.1.4'
H H 0.0000 0.0000 'International Tables Vol C Tables 4.2.6.8 and 6.1.1.4'
N N 0.0061 0.0033 'International Tables Vol C Tables 4.2.6.8 and 6.1.1.4'
O O 0.0106 0.0060 'International Tables Vol C Tables 4.2.6.8 and 6.1.1.4'
loop_
_geom_angle_atom_site_label_1
_geom_angle_atom_site_label_2
_geom_angle_atom_site_label_3
_geom_angle
C2 N1 C5 108.38(15)
C2 N1 C6 126.51(15)
C5 N1 C6 125.06(15)
C2 N3 C4 108.84(16)
C4 C5 N1 107.30(16)
C5 C4 N3 106.86(17)
N3 C2 N1 108.61(15)
O2 N4 O3 121.45(15)
O2 N4 O1 119.49(15)
O3 N4 O1 119.06(16)
loop_
_geom_bond_atom_site_label_1
_geom_bond_atom_site_label_2
_geom_bond_distance
N1 C2 1.330(3)
N1 C5 1.370(2)
N1 C6 1.460(2)
N3 C2 1.321(2)
N3 C4 1.372(2)
C5 C4 1.347(3)
N4 O2 1.243(2)
N4 O3 1.244(2)
N4 O1 1.264(2)
