#------------------------------------------------------------------------------
#$Date: 2016-03-26 00:23:38 +0200 (Sat, 26 Mar 2016) $
#$Revision: 180076 $
#$URL: svn://www.crystallography.net/cod/cif/7/05/22/7052260.cif $
#------------------------------------------------------------------------------
#
# This file is available in the Crystallography Open Database (COD),
# http://www.crystallography.net/
#
# All data on this site have been placed in the public domain by the
# contributors.
#
data_7052260
loop_
_publ_author_name
'Wilson, Chick C.'
'Xu, Xuelian'
'Florence, Alastair J.'
'Shankland, Norman'
_publ_section_title
;
 Temperature dependence of proton transfer in 4-chlorobenzoic acid
;
_journal_issue                   7
_journal_name_full               'New Journal of Chemistry'
_journal_page_first              979
_journal_paper_doi               10.1039/b601123c
_journal_volume                  30
_journal_year                    2006
_chemical_formula_moiety         'C7 H5 Cl O2'
_chemical_formula_sum            'C7 H5 Cl O2'
_chemical_formula_weight         156.56
_chemical_melting_point          512
_chemical_name_common            '4-Chlorobenzoic acid'
_chemical_name_systematic
;
4-Chlorobenzoic acid
;
_space_group_IT_number           2
_symmetry_cell_setting           triclinic
_symmetry_space_group_name_Hall  '-P 1'
_symmetry_space_group_name_H-M   'P -1'
_audit_creation_method           'from EXP file using GSAS2CIF'
_cell_angle_alpha                88.53(4)
_cell_angle_beta                 100.11(4)
_cell_angle_gamma                93.18(3)
_cell_formula_units_Z            2
_cell_length_a                   14.272(8)
_cell_length_b                   6.141(3)
_cell_length_c                   3.813(2)
_cell_measurement_reflns_used    100
_cell_measurement_temperature    250(1)
_cell_volume                     328.4(3)
_computing_structure_refinement  GSAS
_diffrn_ambient_temperature      250(1)
_diffrn_measurement_device_type  'SXD time-of-flight Laue diffractometer'
_diffrn_radiation_probe          neutron
_diffrn_radiation_type           neutron
_diffrn_radiation_wavelength     0.48-4.8
_diffrn_reflns_number            1178
_diffrn_source
'ISIS spallation source, Rutherford Appleton Laboratory'
_exptl_crystal_colour            colourless
_exptl_crystal_density_diffrn    1.583
_exptl_crystal_description       needle
_exptl_crystal_preparation       'recrystallised from ethanol solution'
_exptl_crystal_size_max          2.25
_exptl_crystal_size_mid          1.75
_exptl_crystal_size_min          1
_refine_ls_goodness_of_fit_ref   2.84
_refine_ls_hydrogen_treatment    mixed
_refine_ls_number_parameters     135
_refine_ls_number_reflns         671
_refine_ls_R_factor_all          0.086
_refine_ls_shift/su_max          0.03
_refine_ls_shift/su_mean         0.00
_refine_ls_wR_factor_all         0.061
_reflns_d_resolution_high        0.417
_reflns_d_resolution_low         5.728
_reflns_limit_h_max              23
_reflns_limit_h_min              0
_reflns_limit_k_max              9
_reflns_limit_k_min              -10
_reflns_limit_l_max              6
_reflns_limit_l_min              -9
_cod_data_source_file            b601123c.txt
_cod_data_source_block           neutron_CLB250K
_cod_original_cell_volume        328.5(3)
_cod_database_code               7052260
loop_
_symmetry_equiv_pos_as_xyz
'x, y, z'
'-x, -y, -z'
loop_
_atom_site_aniso_label
_atom_site_aniso_U_11
_atom_site_aniso_U_22
_atom_site_aniso_U_33
_atom_site_aniso_U_12
_atom_site_aniso_U_13
_atom_site_aniso_U_23
Cl1 0.0439(24) 0.0473(21) 0.0499(23) -0.0124(17) 0.0003(21) -0.0087(20)
O1 0.031(4) 0.049(4) 0.067(4) 0.0050(30) 0.0100(33) -0.022(4)
O2 0.0377(35) 0.038(4) 0.0520(35) -0.0044(29) 0.0102(31) -0.0114(34)
C1 0.0218(26) 0.0313(26) 0.0266(25) 0.0056(20) 0.0051(22) -0.0070(24)
C2 0.0290(28) 0.0298(26) 0.0389(28) 0.0049(22) 0.0046(26) -0.0036(25)
C3 0.0268(29) 0.0399(29) 0.0368(28) 0.0055(22) 0.0065(28) -0.0012(26)
C4 0.0284(28) 0.0328(26) 0.0286(27) -0.0038(22) 0.0079(23) -0.0006(25)
C5 0.0377(32) 0.0263(25) 0.0365(27) 0.0032(21) 0.0110(26) -0.0024(24)
C6 0.0289(29) 0.0302(27) 0.0342(26) 0.0072(22) 0.0068(26) -0.0008(26)
C7 0.0245(26) 0.0266(25) 0.0318(23) 0.0017(22) 0.0104(23) -0.0054(23)
H2 0.047(7) 0.059(7) 0.087(8) 0.014(6) 0.019(6) -0.031(7)
H3 0.044(7) 0.079(8) 0.080(7) 0.014(6) 0.007(6) -0.011(7)
H5 0.065(8) 0.038(6) 0.074(8) 0.002(5) 0.014(6) -0.018(6)
H6 0.037(6) 0.062(7) 0.085(8) 0.013(5) 0.011(6) -0.015(7)
loop_
_atom_site_label
_atom_site_fract_x
_atom_site_fract_y
_atom_site_fract_z
_atom_site_occupancy
_atom_site_thermal_displace_type
_atom_site_U_iso_or_equiv
_atom_site_symmetry_multiplicity
Cl1 0.42634(25) 0.7851(6) 0.8302(10) 1.0 Uani 0.04843 2
O1 0.0206(4) 0.2415(11) 0.2285(18) 1.0 Uani 0.04813 2
O2 0.1188(5) 0.0180(11) 0.0594(17) 1.0 Uani 0.04236 2
C1 0.18363(34) 0.3348(9) 0.3683(12) 1.0 Uani 0.02618 2
C2 0.27742(34) 0.2764(8) 0.3791(13) 1.0 Uani 0.03254 2
C3 0.3516(4) 0.4133(8) 0.5198(12) 1.0 Uani 0.03424 2
C4 0.33363(33) 0.6100(8) 0.6537(11) 1.0 Uani 0.02979 2
C5 0.2412(4) 0.6717(9) 0.6438(13) 1.0 Uani 0.03284 2
C6 0.1672(4) 0.5319(8) 0.5037(13) 1.0 Uani 0.03072 2
C7 0.10435(32) 0.1876(7) 0.2088(12) 1.0 Uani 0.02686 2
H2 0.2900(8) 0.1254(18) 0.2745(31) 1.0 Uani 0.06265 2
H3 0.4236(9) 0.3730(21) 0.5250(33) 1.0 Uani 0.06779 2
H5 0.2261(7) 0.8238(17) 0.7498(30) 1.0 Uani 0.05858 2
H6 0.0942(8) 0.5747(19) 0.4989(30) 1.0 Uani 0.06081 2
H1 -0.0280(19) 0.135(4) 0.116(6) 0.75(4) Uiso 0.065(5) 2
H1A 0.070(6) -0.061(12) -0.056(17) 0.25(4) Uiso 0.065(5) 2
loop_
_geom_angle_atom_site_label_1
_geom_angle_atom_site_label_2
_geom_angle_atom_site_label_3
_geom_angle
C7 O1 H1 111.9(17)
C7 O2 H1A 120(6)
C2 C1 C7 119.7(5)
C6 C1 C7 120.9(4)
C2 C1 C6 119.4(5)
C1 C2 C3 120.4(5)
C2 C3 C4 119.3(5)
Cl1 C4 C3 119.9(4)
C3 C4 C5 121.3(5)
Cl1 C4 C5 118.8(4)
C4 C5 C6 118.8(5)
C1 C6 C5 120.8(5)
O2 C7 C1 121.1(5)
O1 C7 O2 121.8(6)
O1 C7 C1 117.1(5)
C1 C2 H2 119.4(8)
C3 C2 H2 120.2(8)
C2 C3 H3 121.4(8)
C4 C3 H3 119.3(8)
C4 C5 H5 122.1(7)
C6 C5 H5 119.1(8)
C1 C6 H6 118.9(8)
C5 C6 H6 120.2(8)
loop_
_geom_bond_atom_site_label_1
_geom_bond_atom_site_label_2
_geom_bond_distance
Cl1 C4 1.711(6)
O1 C7 1.274(7)
O2 C7 1.244(8)
O1 H1 0.98(3)
O2 H1A 0.88(7)
C1 C7 1.462(7)
C1 C2 1.398(6)
C1 C6 1.376(7)
C2 C3 1.357(7)
C3 C4 1.378(7)
C4 C5 1.386(7)
C5 C6 1.365(8)
C2 H2 1.055(12)
C3 H3 1.067(14)
C5 H5 1.075(12)
C6 H6 1.086(13)
loop_
_geom_contact_atom_site_label_1
_geom_contact_atom_site_label_2
_geom_contact_distance
_geom_contact_site_symmetry_1
_geom_contact_site_symmetry_2
H1 O1 2.70(3) . 2_555
H1 O2 1.61(3) . 2_555
H1 C7 2.46(2) . 2_555
H1 H1 2.15(4) . 2_555
H1A O1 1.71(8) . 2_555
H1A O2 2.72(9) . 2_555
H1A C7 2.54(9) . 2_555
H1A H1A 2.28(12) . 2_555
loop_
_geom_hbond_atom_site_label_D
_geom_hbond_atom_site_label_H
_geom_hbond_atom_site_label_A
_geom_hbond_distance_DH
_geom_hbond_distance_HA
_geom_hbond_distance_DA
_geom_hbond_angle_DHA
_geom_hbond_site_symmetry_A
O1 H1 O2 0.98(3) 1.61(3) 2.583(10) 172(2) 2_555
O2 H1A O1 0.88(7) 1.71(8) 2.583(10) 171(7) 2_555
C5 H5 O2 1.075(12) 2.463(13) 3.412(9) 146.6(8) 1_566
C6 H6 O1 1.086(13) 2.429(13) 3.407(8) 149.2(9) 2_566
loop_
_geom_torsion_atom_site_label_1
_geom_torsion_atom_site_label_2
_geom_torsion_atom_site_label_3
_geom_torsion_atom_site_label_4
_geom_torsion
C2 C1 C6 C5 0.8(7)
C7 C1 C6 C5 -178.2(5)
C7 C1 C2 C3 178.7(4)
C2 C1 C7 O2 -5.2(8)
C6 C1 C7 O1 -5.8(7)
C2 C1 C7 O1 175.2(5)
C6 C1 C2 C3 -0.4(7)
C6 C1 C7 O2 173.9(5)
C1 C2 C3 C4 0.3(7)
C2 C3 C4 C5 -0.7(7)
C2 C3 C4 Cl1 -179.7(4)
Cl1 C4 C5 C6 -179.9(4)
C3 C4 C5 C6 1.2(7)
C4 C5 C6 C1 -1.2(7)
