#------------------------------------------------------------------------------
#$Date: 2016-03-26 00:30:17 +0200 (Sat, 26 Mar 2016) $
#$Revision: 180082 $
#$URL: svn://www.crystallography.net/cod/cif/7/05/28/7052838.cif $
#------------------------------------------------------------------------------
#
# This file is available in the Crystallography Open Database (COD),
# http://www.crystallography.net/
#
# All data on this site have been placed in the public domain by the
# contributors.
#
data_7052838
loop_
_publ_author_name
'Smiglak, Marcin'
'Hines, C. Corey'
'Reichert, W. Matthew'
'Vincek, Adam S.'
'Katritzky, Alan R.'
'Thrasher, Joseph S.'
'Sun, Luyi'
'McCrary, Parker D.'
'Beasley, Preston A.'
'Kelley, Steven P.'
'Rogers, Robin D.'
_publ_section_title
;
 Synthesis, limitations, and thermal properties of
 energetically-substituted, protonated imidazolium picrate and nitrate
 salts and further comparison with their methylated analogs
;
_journal_issue                   3
_journal_name_full               'New Journal of Chemistry'
_journal_page_first              702
_journal_paper_doi               10.1039/c1nj20677j
_journal_volume                  36
_journal_year                    2012
_chemical_formula_sum            'C11 H11 N5 O7'
_chemical_formula_weight         325.25
_chemical_name_common            '1,3-dimethylimidazolium picrate'
_chemical_name_systematic
;
?
;
_space_group_IT_number           2
_symmetry_cell_setting           triclinic
_symmetry_space_group_name_Hall  '-P 1'
_symmetry_space_group_name_H-M   'P -1'
_atom_sites_solution_hydrogens   geom
_atom_sites_solution_primary     direct
_atom_sites_solution_secondary   difmap
_audit_creation_method           SHELXL-97
_cell_angle_alpha                78.308(3)
_cell_angle_beta                 82.099(4)
_cell_angle_gamma                85.773(4)
_cell_formula_units_Z            2
_cell_length_a                   7.2105(15)
_cell_length_b                   9.615(2)
_cell_length_c                   10.265(2)
_cell_measurement_reflns_used    858
_cell_measurement_temperature    173(2)
_cell_measurement_theta_max      23.32
_cell_measurement_theta_min      2.67
_cell_volume                     689.5(2)
_computing_cell_refinement       'Bruker SAINT'
_computing_data_collection       'Bruker APEX2'
_computing_data_reduction        'Bruker SAINT'
_computing_molecular_graphics    'Bruker SHELXTL'
_computing_publication_material  'Bruker SHELXTL'
_computing_structure_refinement  'SHELXL-97 (Sheldrick, 2008)'
_computing_structure_solution    'SHELXS-97 (Sheldrick, 2008)'
_diffrn_ambient_temperature      173(2)
_diffrn_measured_fraction_theta_full 0.996
_diffrn_measured_fraction_theta_max 0.996
_diffrn_measurement_device_type  'Bruker APEX-II CCD'
_diffrn_measurement_method       '\f and \w scans'
_diffrn_radiation_monochromator  graphite
_diffrn_radiation_source         'fine-focus sealed tube'
_diffrn_radiation_type           MoK\a
_diffrn_radiation_wavelength     0.71073
_diffrn_reflns_av_R_equivalents  0.0191
_diffrn_reflns_av_sigmaI/netI    0.0290
_diffrn_reflns_limit_h_max       7
_diffrn_reflns_limit_h_min       -8
_diffrn_reflns_limit_k_max       10
_diffrn_reflns_limit_k_min       -6
_diffrn_reflns_limit_l_max       11
_diffrn_reflns_limit_l_min       -11
_diffrn_reflns_number            3229
_diffrn_reflns_theta_full        23.40
_diffrn_reflns_theta_max         23.40
_diffrn_reflns_theta_min         2.04
_exptl_absorpt_coefficient_mu    0.133
_exptl_absorpt_correction_T_max  0.9921
_exptl_absorpt_correction_T_min  0.9487
_exptl_absorpt_correction_type   multi-scan
_exptl_absorpt_process_details   'SHELX SADABS'
_exptl_crystal_colour            yellow
_exptl_crystal_density_diffrn    1.567
_exptl_crystal_density_meas      0
_exptl_crystal_density_method    'not measured'
_exptl_crystal_description       platelet
_exptl_crystal_F_000             336
_exptl_crystal_size_max          0.40
_exptl_crystal_size_mid          0.18
_exptl_crystal_size_min          0.06
_refine_diff_density_max         0.311
_refine_diff_density_min         -0.396
_refine_diff_density_rms         0.062
_refine_ls_extinction_method     none
_refine_ls_goodness_of_fit_ref   1.044
_refine_ls_hydrogen_treatment    constr
_refine_ls_matrix_type           full
_refine_ls_number_parameters     210
_refine_ls_number_reflns         1994
_refine_ls_number_restraints     0
_refine_ls_restrained_S_all      1.044
_refine_ls_R_factor_all          0.0592
_refine_ls_R_factor_gt           0.0472
_refine_ls_shift/su_max          0.001
_refine_ls_shift/su_mean         0.000
_refine_ls_structure_factor_coef Fsqd
_refine_ls_weighting_details
'calc w=1/[\s^2^(Fo^2^)+(0.0801P)^2^+0.2773P] where P=(Fo^2^+2Fc^2^)/3'
_refine_ls_weighting_scheme      calc
_refine_ls_wR_factor_gt          0.1224
_refine_ls_wR_factor_ref         0.1305
_reflns_number_gt                1635
_reflns_number_total             1994
_reflns_threshold_expression     >2sigma(I)
_cod_data_source_file            c1nj20677j.txt
_cod_data_source_block           19a
_cod_depositor_comments
;
The following automatic conversions were performed:

'_symmetry_cell_setting' value 'Triclinic' changed to 'triclinic'
according to /home/saulius/struct/CIF-dictionaries/cif_core.dic
dictionary named 'cif_core.dic' version 2.4.1 from 2010-06-29.

Automatic conversion script
Id: cif_fix_values 1715 2011-07-08 13:25:40Z adriana 
;
_cod_original_cell_volume        689.5(3)
_cod_original_sg_symbol_H-M      P-1
_cod_database_code               7052838
loop_
_symmetry_equiv_pos_as_xyz
'x, y, z'
'-x, -y, -z'
loop_
_atom_site_label
_atom_site_type_symbol
_atom_site_fract_x
_atom_site_fract_y
_atom_site_fract_z
_atom_site_U_iso_or_equiv
_atom_site_adp_type
_atom_site_occupancy
_atom_site_symmetry_multiplicity
_atom_site_calc_flag
_atom_site_refinement_flags
O1 O -0.1345(2) 0.63672(16) 0.96676(15) 0.0289(4) Uani 1 1 d .
O2 O -0.1150(2) 0.47629(19) 0.78108(16) 0.0387(5) Uani 1 1 d .
O3 O -0.2068(3) 0.26394(18) 0.84279(17) 0.0474(6) Uani 1 1 d .
O4 O -0.6044(3) 0.11208(19) 1.23788(17) 0.0412(5) Uani 1 1 d .
O5 O -0.6613(3) 0.2407(2) 1.39089(17) 0.0428(5) Uani 1 1 d .
O6 O -0.3258(3) 0.6688(2) 1.34202(19) 0.0619(7) Uani 1 1 d .
O7 O -0.3082(3) 0.7938(2) 1.1424(2) 0.0597(6) Uani 1 1 d .
N1 N 0.1336(3) 0.7816(2) 0.57182(19) 0.0289(5) Uani 1 1 d .
N3 N 0.0887(3) 0.9061(2) 0.72691(18) 0.0269(5) Uani 1 1 d .
N4 N -0.1919(3) 0.3827(2) 0.86571(18) 0.0256(5) Uani 1 1 d .
N5 N -0.5851(3) 0.2199(2) 1.2813(2) 0.0319(5) Uani 1 1 d .
N6 N -0.3190(3) 0.6801(2) 1.2205(2) 0.0352(5) Uani 1 1 d .
C2 C 0.0528(3) 0.7841(2) 0.6953(2) 0.0247(5) Uani 1 1 d .
H2A H -0.0187 0.7110 0.7518 0.030 Uiso 1 1 calc R
C4 C 0.1954(3) 0.9835(3) 0.6197(2) 0.0335(6) Uani 1 1 d .
H4A H 0.2412 1.0748 0.6150 0.040 Uiso 1 1 calc R
C5 C 0.2232(3) 0.9071(3) 0.5231(2) 0.0349(7) Uani 1 1 d .
H5A H 0.2920 0.9341 0.4369 0.042 Uiso 1 1 calc R
C6 C 0.1225(4) 0.6671(3) 0.4986(3) 0.0421(7) Uani 1 1 d .
H6A H 0.1106 0.5763 0.5622 0.063 Uiso 1 1 calc R
H6B H 0.2364 0.6627 0.4351 0.063 Uiso 1 1 calc R
H6C H 0.0130 0.6858 0.4496 0.063 Uiso 1 1 calc R
C7 C 0.0215(4) 0.9492(3) 0.8548(3) 0.0368(7) Uani 1 1 d .
H7A H -0.0426 0.8707 0.9163 0.055 Uiso 1 1 calc R
H7B H -0.0660 1.0321 0.8395 0.055 Uiso 1 1 calc R
H7C H 0.1281 0.9737 0.8941 0.055 Uiso 1 1 calc R
C8 C -0.2372(3) 0.5435(2) 1.0345(2) 0.0232(5) Uani 1 1 d .
C9 C -0.2736(3) 0.4116(2) 0.9952(2) 0.0222(5) Uani 1 1 d .
C10 C -0.3850(3) 0.3091(2) 1.0742(2) 0.0238(5) Uani 1 1 d .
H10A H -0.4054 0.2259 1.0427 0.029 Uiso 1 1 calc R
C11 C -0.4669(3) 0.3273(2) 1.1992(2) 0.0245(5) Uani 1 1 d .
C12 C -0.4407(3) 0.4489(3) 1.2476(2) 0.0263(6) Uani 1 1 d .
H12A H -0.4967 0.4598 1.3345 0.032 Uiso 1 1 calc R
C13 C -0.3333(3) 0.5520(2) 1.1679(2) 0.0248(5) Uani 1 1 d .
loop_
_atom_site_aniso_label
_atom_site_aniso_U_11
_atom_site_aniso_U_22
_atom_site_aniso_U_33
_atom_site_aniso_U_23
_atom_site_aniso_U_13
_atom_site_aniso_U_12
O1 0.0295(9) 0.0268(9) 0.0297(9) -0.0028(7) -0.0006(7) -0.0098(7)
O2 0.0493(11) 0.0387(11) 0.0267(9) -0.0049(8) 0.0070(8) -0.0192(9)
O3 0.0773(15) 0.0281(10) 0.0362(10) -0.0139(8) 0.0124(9) -0.0138(10)
O4 0.0504(12) 0.0335(10) 0.0397(10) -0.0028(9) -0.0016(9) -0.0219(9)
O5 0.0457(11) 0.0526(12) 0.0262(10) -0.0009(9) 0.0076(8) -0.0190(9)
O6 0.0968(18) 0.0605(14) 0.0372(12) -0.0251(10) -0.0109(11) -0.0142(13)
O7 0.0901(17) 0.0352(12) 0.0542(13) -0.0173(10) 0.0138(11) -0.0240(11)
N1 0.0311(11) 0.0306(12) 0.0254(11) -0.0041(9) -0.0032(9) -0.0079(9)
N3 0.0286(11) 0.0238(11) 0.0290(11) -0.0043(9) -0.0057(8) -0.0054(9)
N4 0.0258(11) 0.0257(11) 0.0254(10) -0.0040(9) -0.0038(8) -0.0038(9)
N5 0.0307(12) 0.0381(13) 0.0253(11) 0.0013(9) -0.0032(9) -0.0117(10)
N6 0.0363(13) 0.0361(13) 0.0362(13) -0.0130(11) -0.0016(9) -0.0099(10)
C2 0.0249(13) 0.0261(13) 0.0228(12) -0.0012(10) -0.0027(10) -0.0100(10)
C4 0.0353(15) 0.0282(14) 0.0363(14) -0.0003(11) -0.0051(11) -0.0135(11)
C5 0.0329(15) 0.0382(15) 0.0300(14) 0.0044(12) -0.0018(11) -0.0128(12)
C6 0.0566(18) 0.0423(16) 0.0308(14) -0.0152(12) -0.0021(12) -0.0095(14)
C7 0.0463(17) 0.0292(14) 0.0375(14) -0.0132(12) -0.0019(12) -0.0062(12)
C8 0.0180(12) 0.0240(12) 0.0275(12) -0.0008(10) -0.0071(9) -0.0031(10)
C9 0.0198(12) 0.0258(13) 0.0214(12) -0.0035(10) -0.0039(9) -0.0031(10)
C10 0.0223(12) 0.0246(12) 0.0253(12) -0.0033(10) -0.0080(10) -0.0025(10)
C11 0.0194(12) 0.0282(13) 0.0239(12) 0.0028(10) -0.0033(9) -0.0091(10)
C12 0.0241(13) 0.0341(14) 0.0220(12) -0.0071(10) -0.0052(10) -0.0022(11)
C13 0.0236(12) 0.0270(13) 0.0264(12) -0.0083(10) -0.0050(10) -0.0065(10)
loop_
_atom_type_symbol
_atom_type_description
_atom_type_scat_dispersion_real
_atom_type_scat_dispersion_imag
_atom_type_scat_source
C C 0.0033 0.0016 'International Tables Vol C Tables 4.2.6.8 and 6.1.1.4'
H H 0.0000 0.0000 'International Tables Vol C Tables 4.2.6.8 and 6.1.1.4'
N N 0.0061 0.0033 'International Tables Vol C Tables 4.2.6.8 and 6.1.1.4'
O O 0.0106 0.0060 'International Tables Vol C Tables 4.2.6.8 and 6.1.1.4'
loop_
_geom_angle_atom_site_label_1
_geom_angle_atom_site_label_2
_geom_angle_atom_site_label_3
_geom_angle
C2 N1 C5 108.2(2)
C2 N1 C6 125.5(2)
C5 N1 C6 126.3(2)
C2 N3 C4 108.49(19)
C2 N3 C7 124.99(19)
C4 N3 C7 126.52(19)
O2 N4 O3 121.48(18)
O2 N4 C9 120.28(18)
O3 N4 C9 118.21(18)
O5 N5 O4 123.4(2)
O5 N5 C11 118.3(2)
O4 N5 C11 118.26(19)
O7 N6 O6 123.1(2)
O7 N6 C13 118.6(2)
O6 N6 C13 118.2(2)
N1 C2 N3 108.59(19)
C5 C4 N3 107.4(2)
C4 C5 N1 107.3(2)
O1 C8 C9 125.4(2)
O1 C8 C13 123.1(2)
C9 C8 C13 111.46(19)
C10 C9 N4 115.94(19)
C10 C9 C8 123.9(2)
N4 C9 C8 120.20(19)
C9 C10 C11 119.8(2)
C10 C11 C12 121.3(2)
C10 C11 N5 119.6(2)
C12 C11 N5 119.1(2)
C13 C12 C11 118.8(2)
C12 C13 N6 116.5(2)
C12 C13 C8 124.7(2)
N6 C13 C8 118.78(19)
loop_
_geom_bond_atom_site_label_1
_geom_bond_atom_site_label_2
_geom_bond_distance
O1 C8 1.241(3)
O2 N4 1.223(2)
O3 N4 1.227(2)
O4 N5 1.232(3)
O5 N5 1.229(3)
O6 N6 1.224(3)
O7 N6 1.218(3)
N1 C2 1.324(3)
N1 C5 1.381(3)
N1 C6 1.465(3)
N3 C2 1.331(3)
N3 C4 1.370(3)
N3 C7 1.465(3)
N4 C9 1.450(3)
N5 C11 1.444(3)
N6 C13 1.458(3)
C4 C5 1.335(4)
C8 C9 1.457(3)
C8 C13 1.462(3)
C9 C10 1.374(3)
C10 C11 1.376(3)
C11 C12 1.393(3)
C12 C13 1.365(3)
