#------------------------------------------------------------------------------
#$Date: 2016-02-14 06:40:26 +0200 (Sun, 14 Feb 2016) $
#$Revision: 176432 $
#$URL: svn://www.crystallography.net/cod/cif/7/05/32/7053275.cif $
#------------------------------------------------------------------------------
#
# This file is available in the Crystallography Open Database (COD),
# http://www.crystallography.net/
#
# All data on this site have been placed in the public domain by the
# contributors.
#
data_7053275
loop_
_publ_author_name
'Adam, Martin S.'
'Gutmann, Matthias J.'
'Leech, Charlotte K.'
'Middlemiss, Derek S.'
'Parkin, Andrew'
'Thomas, Lynne H.'
'Wilson, Chick C.'
_publ_section_title
;
 Stability and cooperativity of hydrogen bonds in dihydroxybenzoic acids
;
_journal_issue                   1
_journal_name_full               'New Journal of Chemistry'
_journal_page_first              85
_journal_paper_doi               10.1039/b9nj00353c
_journal_volume                  34
_journal_year                    2010
_chemical_formula_moiety         'C7 H6 O4'
_chemical_formula_sum            'C7 H6 O4'
_chemical_formula_weight         154.00
_chemical_melting_point          498
_chemical_name_common            '2,4-Dihydroxybenzoic acid'
_chemical_name_systematic
;
?
;
_space_group_IT_number           14
_symmetry_cell_setting           monoclinic
_symmetry_space_group_name_Hall  '-P 2yn'
_symmetry_space_group_name_H-M   'P 1 21/n 1'
_audit_creation_method           SHELXL-97
_cell_angle_alpha                90.00
_cell_angle_beta                 99.63(4)
_cell_angle_gamma                90.00
_cell_formula_units_Z            4
_cell_length_a                   3.669(2)
_cell_length_b                   22.3473(12)
_cell_length_c                   8.012(4)
_cell_measurement_reflns_used    330
_cell_measurement_temperature    90(2)
_cell_volume                     647.7(5)
_computing_cell_refinement       SXD-2001
_computing_data_collection       SXD-2001
_computing_data_reduction        SXD-2001
_computing_molecular_graphics    SHELXTL
_computing_publication_material  SHELXTL
_computing_structure_refinement  'SHELXL-97 (Sheldrick, 1997)'
_computing_structure_solution    'SHELXL-97 (Sheldrick, 1997)'
_diffrn_ambient_temperature      90(2)
_diffrn_measurement_device_type  'SXD time-of-flight LAUE diffraction'
_diffrn_measurement_method       'time-of-flight LAUE diffraction'
_diffrn_radiation_probe          neutron
_diffrn_radiation_source         'ISIS spallation source'
_diffrn_radiation_type           neutron
_diffrn_radiation_wavelength     0.7-6.9
_diffrn_reflns_av_R_equivalents  0.0000
_diffrn_reflns_av_sigmaI/netI    0.0693
_diffrn_reflns_limit_h_max       5
_diffrn_reflns_limit_h_min       -7
_diffrn_reflns_limit_k_max       52
_diffrn_reflns_limit_k_min       -54
_diffrn_reflns_limit_l_max       20
_diffrn_reflns_limit_l_min       -11
_diffrn_reflns_number            5840
_exptl_crystal_colour            colourless
_exptl_crystal_description       Block
_exptl_crystal_preparation       'recrystallised from acetone solution'
_exptl_crystal_size_max          3
_exptl_crystal_size_mid          1
_exptl_crystal_size_min          0.5
_refine_diff_density_max         0.333
_refine_diff_density_min         -0.211
_refine_diff_density_rms         0.053
_refine_ls_goodness_of_fit_ref   1.013
_refine_ls_hydrogen_treatment    refall
_refine_ls_number_parameters     242
_refine_ls_number_reflns         5840
_refine_ls_number_restraints     0
_refine_ls_R_factor_all          0.0813
_refine_ls_R_factor_gt           0.0813
_refine_ls_shift/su_max          0.001
_refine_ls_shift/su_mean         0.000
_refine_ls_wR_factor_gt          0.2226
_refine_ls_wR_factor_ref         0.2226
_reflns_number_gt                5840
_reflns_number_total             5840
_cod_data_source_file            b9nj00353c.txt
_cod_data_source_block           24dhoba90k
_cod_depositor_comments
;
The following automatic conversions were performed:

'_symmetry_cell_setting' value 'Monoclinic' changed to 'monoclinic'
according to /home/saulius/struct/CIF-dictionaries/cif_core.dic
dictionary named 'cif_core.dic' version 2.4.2 from 2011-04-26.

Automatic conversion script
Id: cif_fix_values 1891 2012-01-12 08:04:46Z andrius 
;
_cod_original_sg_symbol_Hall     -P2yn
_cod_original_sg_symbol_H-M      P21/n
_cod_database_code               7053275
loop_
_symmetry_equiv_pos_as_xyz
'x, y, z'
'-x+1/2, y+1/2, -z+1/2'
'-x, -y, -z'
'x-1/2, -y-1/2, z-1/2'
loop_
_atom_site_label
_atom_site_type_symbol
_atom_site_fract_x
_atom_site_fract_y
_atom_site_fract_z
_atom_site_U_iso_or_equiv
_atom_site_adp_type
_atom_site_occupancy
_atom_site_symmetry_multiplicity
_atom_site_calc_flag
C1 C 0.3019(5) 0.09408(5) 0.71768(14) 0.0091(3) Uani 1 1 d
C2 C 0.3944(5) 0.15419(5) 0.75948(13) 0.0102(3) Uani 1 1 d
O2 O 0.3793(6) 0.17734(6) 0.91564(16) 0.0140(4) Uani 1 1 d
C3 C 0.5004(5) 0.19288(5) 0.63944(14) 0.0108(3) Uani 1 1 d
C4 C 0.5174(5) 0.17151(5) 0.47721(14) 0.0104(3) Uani 1 1 d
O4 O 0.6180(6) 0.20674(6) 0.35550(17) 0.0139(4) Uani 1 1 d
C5 C 0.4250(5) 0.11169(5) 0.43261(14) 0.0118(3) Uani 1 1 d
C6 C 0.3190(5) 0.07396(5) 0.55232(14) 0.0100(3) Uani 1 1 d
C7 C 0.1806(5) 0.05405(5) 0.84121(14) 0.0106(3) Uani 1 1 d
O8 O 0.1500(6) 0.07045(6) 0.98739(16) 0.0144(4) Uani 1 1 d
O9 O 0.1029(6) -0.00124(7) 0.78842(17) 0.0148(4) Uani 1 1 d
H3 H 0.5710(14) 0.23894(14) 0.6737(3) 0.0285(9) Uani 1 1 d
H6 H 0.2473(13) 0.02806(13) 0.5189(4) 0.0269(9) Uani 1 1 d
H4 H 0.6940(14) 0.24625(13) 0.3989(4) 0.0270(8) Uani 1 1 d
H1 H 0.0169(13) -0.02596(13) 0.8777(4) 0.0260(9) Uani 1 1 d
H5 H 0.4429(14) 0.09653(15) 0.3060(3) 0.0299(10) Uani 1 1 d
H2 H 0.2949(14) 0.14554(15) 0.9841(3) 0.0303(10) Uani 1 1 d
loop_
_atom_site_aniso_label
_atom_site_aniso_U_11
_atom_site_aniso_U_22
_atom_site_aniso_U_33
_atom_site_aniso_U_23
_atom_site_aniso_U_13
_atom_site_aniso_U_12
C1 0.0111(9) 0.0075(4) 0.0087(4) -0.0002(3) 0.0014(5) -0.0017(4)
C2 0.0152(10) 0.0069(4) 0.0087(4) -0.0001(3) 0.0031(5) 0.0003(4)
O2 0.0245(13) 0.0087(5) 0.0098(4) -0.0004(4) 0.0057(6) 0.0000(6)
C3 0.0164(10) 0.0068(4) 0.0096(4) 0.0006(3) 0.0036(5) -0.0009(4)
C4 0.0140(10) 0.0083(5) 0.0088(4) 0.0012(3) 0.0020(5) -0.0003(4)
O4 0.0211(13) 0.0116(6) 0.0103(5) 0.0023(4) 0.0058(6) -0.0026(6)
C5 0.0162(10) 0.0100(5) 0.0101(4) -0.0011(3) 0.0045(5) -0.0016(5)
C6 0.0136(10) 0.0079(4) 0.0092(4) -0.0007(3) 0.0037(5) -0.0007(4)
C7 0.0146(10) 0.0080(4) 0.0093(4) 0.0004(3) 0.0027(5) -0.0013(4)
O8 0.0254(13) 0.0094(5) 0.0094(4) 0.0001(4) 0.0059(6) -0.0023(6)
O9 0.0233(13) 0.0089(5) 0.0131(5) -0.0001(4) 0.0058(7) -0.0036(6)
H3 0.048(3) 0.0155(11) 0.0235(11) -0.0042(8) 0.0096(15) -0.0095(13)
H6 0.041(3) 0.0158(11) 0.0244(11) -0.0051(9) 0.0054(16) -0.0074(14)
H4 0.040(3) 0.0162(11) 0.0274(11) 0.0008(9) 0.0123(15) -0.0045(13)
H1 0.040(3) 0.0166(11) 0.0233(11) 0.0034(9) 0.0103(15) -0.0046(13)
H5 0.048(3) 0.0283(14) 0.0145(9) -0.0039(9) 0.0100(14) -0.0048(16)
H2 0.051(3) 0.0240(13) 0.0183(10) 0.0019(9) 0.0130(16) -0.0054(15)
loop_
_geom_angle_atom_site_label_1
_geom_angle_atom_site_label_2
_geom_angle_atom_site_label_3
_geom_angle
C6 C1 C2 118.65(10)
C6 C1 C7 120.58(11)
C2 C1 C7 120.75(10)
O2 C2 C3 117.13(12)
O2 C2 C1 122.24(11)
C3 C2 C1 120.62(10)
C2 O2 H2 107.7(2)
C2 C3 C4 119.38(11)
C2 C3 H3 119.69(17)
C4 C3 H3 120.92(17)
O4 C4 C3 122.18(12)
O4 C4 C5 116.90(11)
C3 C4 C5 120.92(10)
C4 O4 H4 111.54(19)
C6 C5 C4 119.11(10)
C6 C5 H5 121.9(2)
C4 C5 H5 119.0(2)
C5 C6 C1 121.31(11)
C5 C6 H6 119.51(18)
C1 C6 H6 119.18(18)
O8 C7 O9 121.72(12)
O8 C7 C1 122.79(13)
O9 C7 C1 115.49(11)
C7 O9 H1 111.5(2)
loop_
_geom_bond_atom_site_label_1
_geom_bond_atom_site_label_2
_geom_bond_distance
C1 C6 1.4104(16)
C1 C2 1.4121(17)
C1 C7 1.4579(16)
C2 O2 1.3635(17)
C2 C3 1.3961(16)
O2 H2 0.979(3)
C3 C4 1.3960(16)
C3 H3 1.085(3)
C4 O4 1.3517(17)
C4 C5 1.4105(17)
O4 H4 0.973(3)
C5 C6 1.3810(16)
C5 H5 1.082(3)
C6 H6 1.081(3)
C7 O8 1.2501(17)
C7 O9 1.3214(19)
O9 H1 0.996(3)
loop_
_geom_hbond_atom_site_label_D
_geom_hbond_atom_site_label_H
_geom_hbond_atom_site_label_A
_geom_hbond_distance_DH
_geom_hbond_distance_HA
_geom_hbond_distance_DA
_geom_hbond_angle_DHA
_geom_hbond_site_symmetry_A
O9 H1 O8 0.996(3) 1.659(3) 2.653(2) 174.9(4) 3_557
O4 H4 O2 0.973(3) 1.835(3) 2.776(2) 162.1(3) 4_665
O2 H2 O8 0.979(3) 1.762(4) 2.628(2) 145.5(3) .
