#------------------------------------------------------------------------------
#$Date: 2016-03-26 00:35:06 +0200 (Sat, 26 Mar 2016) $
#$Revision: 180086 $
#$URL: svn://www.crystallography.net/cod/cif/7/05/32/7053268.cif $
#------------------------------------------------------------------------------
#
# This file is available in the Crystallography Open Database (COD),
# http://www.crystallography.net/
#
# All data on this site have been placed in the public domain by the
# contributors.
#
data_7053268
loop_
_publ_author_name
'Adam, Martin S.'
'Gutmann, Matthias J.'
'Leech, Charlotte K.'
'Middlemiss, Derek S.'
'Parkin, Andrew'
'Thomas, Lynne H.'
'Wilson, Chick C.'
_publ_section_title
;
 Stability and cooperativity of hydrogen bonds in dihydroxybenzoic acids
;
_journal_issue                   1
_journal_name_full               'New Journal of Chemistry'
_journal_page_first              85
_journal_paper_doi               10.1039/b9nj00353c
_journal_volume                  34
_journal_year                    2010
_chemical_formula_moiety         'C7 H6 O4'
_chemical_formula_sum            'C7 H6 O4'
_chemical_formula_weight         154.12
_chemical_name_systematic        '2,5-dihydroxybenzoic acid'
_space_group_IT_number           14
_symmetry_cell_setting           monoclinic
_symmetry_space_group_name_Hall  '-P 2yn'
_symmetry_space_group_name_H-M   'P 1 21/n 1'
_atom_sites_solution_hydrogens   difmap
_atom_sites_solution_primary     direct
_atom_sites_solution_secondary   difmap
_cell_angle_alpha                90
_cell_angle_beta                 93.448(2)
_cell_angle_gamma                90
_cell_formula_units_Z            4
_cell_length_a                   5.5591(2)
_cell_length_b                   4.8698(2)
_cell_length_c                   23.3593(9)
_cell_measurement_reflns_used    0
_cell_measurement_temperature    100
_cell_measurement_theta_max      0
_cell_measurement_theta_min      0
_cell_volume                     631.23(4)
_computing_cell_refinement       'DENZO/SCALEPACK (Otwinowski & Minor, 1997)'
_computing_data_collection       'COLLECT (Nonius, 1997-2001).'
_computing_data_reduction        'DENZO/SCALEPACK (Otwinowski & Minor, 1997)'
_computing_molecular_graphics
'ORTEP (Farrugia, 1997), Mercury (McRae, 2006)'
_computing_structure_refinement  'SHELXL-97 (Sheldrick, 2008)'
_computing_structure_solution    'SIR92 (Altomare et al., 1994)'
_diffrn_ambient_temperature      100(2)
_diffrn_measured_fraction_theta_full 0.997
_diffrn_measured_fraction_theta_max 0.997
_diffrn_measurement_device_type  'Nonius KappaCCD'
_diffrn_measurement_method       '\f & \w scans'
_diffrn_radiation_monochromator  graphite
_diffrn_radiation_type           'Mo K\a'
_diffrn_radiation_wavelength     0.71073
_diffrn_reflns_av_R_equivalents  0.0724
_diffrn_reflns_av_unetI/netI     0.0367
_diffrn_reflns_limit_h_max       7
_diffrn_reflns_limit_h_min       -7
_diffrn_reflns_limit_k_max       6
_diffrn_reflns_limit_k_min       -6
_diffrn_reflns_limit_l_max       30
_diffrn_reflns_limit_l_min       -27
_diffrn_reflns_number            10859
_diffrn_reflns_theta_full        27.56
_diffrn_reflns_theta_max         27.56
_diffrn_reflns_theta_min         1.75
_exptl_absorpt_coefficient_mu    0.135
_exptl_absorpt_correction_type   none
_exptl_crystal_colour            clear
_exptl_crystal_density_diffrn    1.622
_exptl_crystal_density_method    'not measured'
_exptl_crystal_description       block
_exptl_crystal_F_000             320
_refine_diff_density_max         0.263
_refine_diff_density_min         -0.328
_refine_diff_density_rms         0.063
_refine_ls_extinction_method     none
_refine_ls_goodness_of_fit_ref   0.867
_refine_ls_hydrogen_treatment    refall
_refine_ls_matrix_type           full
_refine_ls_number_parameters     124
_refine_ls_number_reflns         1463
_refine_ls_number_restraints     0
_refine_ls_restrained_S_all      0.867
_refine_ls_R_factor_all          0.0674
_refine_ls_R_factor_gt           0.043
_refine_ls_shift/su_max          0
_refine_ls_shift/su_mean         0
_refine_ls_structure_factor_coef Fsqd
_refine_ls_weighting_details
'calc w=1/[\s^2^(Fo^2^)+(0.0666P)^2^+1.0576P] where P=(Fo^2^+2Fc^2^)/3'
_refine_ls_weighting_scheme      calc
_refine_ls_wR_factor_ref         0.1284
_reflns_number_gt                1064
_reflns_number_total             1463
_reflns_threshold_expression     >2\s(I)
_cod_data_source_file            b9nj00353c.txt
_cod_data_source_block           25dhoba100kxray
_cod_depositor_comments
;
The following automatic conversions were performed:

'_symmetry_cell_setting' value 'Monoclinic' changed to 'monoclinic'
according to /home/saulius/struct/CIF-dictionaries/cif_core.dic
dictionary named 'cif_core.dic' version 2.4.2 from 2011-04-26.

Automatic conversion script
Id: cif_fix_values 1891 2012-01-12 08:04:46Z andrius 
;
_cod_original_sg_symbol_H-M      'P 1 21/n 1 '
_cod_database_code               7053268
loop_
_symmetry_equiv_pos_as_xyz
'x, y, z'
'-x+1/2, y+1/2, -z+1/2'
'-x, -y, -z'
'x-1/2, -y-1/2, z-1/2'
loop_
_atom_site_label
_atom_site_fract_x
_atom_site_fract_y
_atom_site_fract_z
_atom_site_U_iso_or_equiv
_atom_site_adp_type
_atom_site_calc_flag
_atom_site_occupancy
_atom_site_type_symbol
C1 0.0841(3) 0.5113(4) 0.10422(8) 0.0142(4) Uani d 1 C
C2 0.2887(4) 0.3454(4) 0.10072(8) 0.0155(4) Uani d 1 C
C3 0.3399(4) 0.1446(4) 0.14278(9) 0.0168(4) Uani d 1 C
C4 0.1919(4) 0.1138(4) 0.18748(8) 0.0159(4) Uani d 1 C
C5 -0.0109(3) 0.2810(4) 0.19138(8) 0.0136(4) Uani d 1 C
C6 -0.0669(3) 0.4774(4) 0.14995(8) 0.0141(4) Uani d 1 C
C7 0.0314(4) 0.7232(4) 0.06015(8) 0.0149(4) Uani d 1 C
O9 -0.1651(3) 0.8689(3) 0.06590(6) 0.0181(3) Uani d 1 O
O8 0.1656(3) 0.7590(3) 0.02039(6) 0.0201(4) Uani d 1 O
O2 0.4426(3) 0.3671(3) 0.05804(6) 0.0217(4) Uani d 1 O
O5 -0.1502(3) 0.2422(3) 0.23802(6) 0.0170(3) Uani d 1 O
H3 0.488(5) 0.027(5) 0.1395(10) 0.026(6) Uiso d 1 H
H4 0.231(4) -0.018(5) 0.2175(10) 0.024(6) Uiso d 1 H
H6 -0.209(5) 0.596(5) 0.1509(10) 0.026(6) Uiso d 1 H
H1 -0.180(5) 0.990(7) 0.0362(14) 0.053(9) Uiso d 1 H
H5 -0.230(5) 0.391(6) 0.2432(12) 0.031(7) Uiso d 1 H
H2 0.389(5) 0.512(7) 0.0364(13) 0.042(8) Uiso d 1 H
loop_
_atom_site_aniso_label
_atom_site_aniso_U_11
_atom_site_aniso_U_22
_atom_site_aniso_U_33
_atom_site_aniso_U_12
_atom_site_aniso_U_13
_atom_site_aniso_U_23
C1 0.0170(9) 0.0134(9) 0.0121(9) -0.0011(8) 0.0006(7) -0.0007(7)
C2 0.0160(9) 0.0169(10) 0.0137(9) -0.0020(8) 0.0027(7) -0.0010(7)
C3 0.0145(9) 0.0171(10) 0.0188(10) 0.0023(8) -0.0001(7) -0.0008(8)
C4 0.0196(10) 0.0147(10) 0.0130(9) -0.0011(8) -0.0020(7) 0.0010(7)
C5 0.0156(9) 0.0138(9) 0.0117(9) -0.0032(7) 0.0025(7) -0.0021(7)
C6 0.0157(9) 0.0139(9) 0.0127(9) 0.0002(7) 0.0008(7) -0.0011(7)
C7 0.0187(10) 0.0147(9) 0.0116(9) -0.0025(8) 0.0013(7) -0.0012(7)
O9 0.0207(7) 0.0177(7) 0.0160(7) 0.0034(6) 0.0025(5) 0.0050(6)
O8 0.0259(8) 0.0193(8) 0.0158(7) 0.0016(6) 0.0067(6) 0.0036(6)
O2 0.0197(7) 0.0263(8) 0.0201(8) 0.0046(6) 0.0102(6) 0.0062(7)
O5 0.0220(8) 0.0147(7) 0.0148(7) 0.0022(6) 0.0068(5) 0.0025(6)
loop_
_atom_type_symbol
_atom_type_description
_atom_type_scat_dispersion_real
_atom_type_scat_dispersion_imag
_atom_type_scat_source
C C 0.0033 0.0016 'International Tables Vol C Tables 4.2.6.8 and 6.1.1.4'
H H 0 0 'International Tables Vol C Tables 4.2.6.8 and 6.1.1.4'
O O 0.0106 0.006 'International Tables Vol C Tables 4.2.6.8 and 6.1.1.4'
loop_
_geom_angle_atom_site_label_1
_geom_angle_atom_site_label_2
_geom_angle_atom_site_label_3
_geom_angle
C2 C1 C6 119.99(17)
C2 C1 C7 119.38(17)
C6 C1 C7 120.63(17)
O2 C2 C1 123.22(18)
O2 C2 C3 117.31(18)
C1 C2 C3 119.48(18)
C4 C3 C2 120.14(18)
C4 C3 H3 121.5(14)
C2 C3 H3 118.4(14)
C3 C4 C5 120.47(18)
C3 C4 H4 120.2(14)
C5 C4 H4 119.3(14)
C6 C5 O5 122.08(17)
C6 C5 C4 120.39(18)
O5 C5 C4 117.53(17)
C5 C6 C1 119.53(18)
C5 C6 H6 122.8(15)
C1 C6 H6 117.7(15)
O8 C7 O9 122.81(18)
O8 C7 C1 121.26(18)
O9 C7 C1 115.93(17)
C7 O9 H1 108(2)
C2 O2 H2 105.5(18)
C5 O5 H5 108.2(18)
loop_
_geom_bond_atom_site_label_1
_geom_bond_atom_site_label_2
_geom_bond_distance
C1 C2 1.402(3)
C1 C6 1.407(3)
C1 C7 1.475(3)
C2 O2 1.356(2)
C2 C3 1.403(3)
C3 C4 1.376(3)
C3 H3 1.01(3)
C4 C5 1.398(3)
C4 H4 0.97(3)
C5 C6 1.383(3)
C5 O5 1.387(2)
C6 H6 0.98(3)
C7 O8 1.238(2)
C7 O9 1.316(2)
O9 H1 0.91(3)
O2 H2 0.91(3)
O5 H5 0.86(3)
loop_
_geom_torsion_atom_site_label_1
_geom_torsion_atom_site_label_2
_geom_torsion_atom_site_label_3
_geom_torsion_atom_site_label_4
_geom_torsion
C6 C1 C2 O2 -179.76(18)
C7 C1 C2 O2 -0.7(3)
C6 C1 C2 C3 0.6(3)
C7 C1 C2 C3 179.67(18)
O2 C2 C3 C4 179.43(18)
C1 C2 C3 C4 -0.9(3)
C2 C3 C4 C5 0.2(3)
C3 C4 C5 C6 0.8(3)
C3 C4 C5 O5 -178.97(17)
O5 C5 C6 C1 178.66(17)
C4 C5 C6 C1 -1.1(3)
C2 C1 C6 C5 0.4(3)
C7 C1 C6 C5 -178.68(18)
C2 C1 C7 O8 -0.6(3)
C6 C1 C7 O8 178.43(18)
C2 C1 C7 O9 179.30(17)
C6 C1 C7 O9 -1.6(3)
