#------------------------------------------------------------------------------
#$Date: 2016-02-14 06:40:26 +0200 (Sun, 14 Feb 2016) $
#$Revision: 176432 $
#$URL: svn://www.crystallography.net/cod/cif/7/05/44/7054476.cif $
#------------------------------------------------------------------------------
#
# This file is available in the Crystallography Open Database (COD),
# http://www.crystallography.net/
#
# All data on this site have been placed in the public domain by the
# contributors.
#
data_7054476
loop_
_publ_author_name
'Fischer, Dennis'
'Klap\"otke, Thomas M.'
'Reymann, Marius'
'Stierstorfer, J\"org'
'V\"olkl, Maurus B. R.'
_publ_section_title
;
 Energetic alliance of tetrazole-1-oxides and 1,2,5-oxadiazoles
;
_journal_issue                   3
_journal_name_full               'New J. Chem.'
_journal_page_first              1619
_journal_paper_doi               10.1039/C4NJ01351D
_journal_volume                  39
_journal_year                    2015
_chemical_formula_moiety         'C4 N10 O4, 2(H4 N O), H2 O'
_chemical_formula_sum            'C4 H10 N12 O7'
_chemical_formula_weight         338.24
_chemical_name_common
'bishydroxyammonium 4,5-bis(1-oxidotetrazolyl)furoxane monohydrate'
_chemical_name_systematic
'bishydroxyammonium 4,5-bis(1-oxidotetrazolyl)furoxane monohydrate'
_space_group_IT_number           4
_symmetry_cell_setting           monoclinic
_symmetry_Int_Tables_number      4
_symmetry_space_group_name_Hall  'P 2yb'
_symmetry_space_group_name_H-M   'P 1 21 1'
_atom_sites_solution_hydrogens   geom
_atom_sites_solution_primary     direct
_atom_sites_solution_secondary   difmap
_audit_creation_date
;
'Thu Oct 06 14:14:38 2011'
;
_audit_creation_method
;
CrysAlisPro, Oxford Diffraction Ltd.,
Version 1.171.35.11 (release 16-05-2011 CrysAlis171 .NET)
(compiled May 16 2011,17:55:39)
;
_audit_update_record             07.10.2011
_cell_angle_alpha                90.00
_cell_angle_beta                 90.004(12)
_cell_angle_gamma                90.00
_cell_formula_units_Z            2
_cell_length_a                   8.0286(12)
_cell_length_b                   8.0668(11)
_cell_length_c                   9.6666(15)
_cell_measurement_reflns_used    921
_cell_measurement_temperature    173(2)
_cell_measurement_theta_max      29.9973
_cell_measurement_theta_min      4.1473
_cell_volume                     626.06(16)
_computing_cell_refinement
;
CrysAlisPro, Agilent Technologies,
Version 1.171.35.11 (release 16-05-2011 CrysAlis171 .NET)
(compiled May 16 2011,17:55:39)
;
_computing_data_collection
;
CrysAlisPro, Agilent Technologies,
Version 1.171.35.11 (release 16-05-2011 CrysAlis171 .NET)
(compiled May 16 2011,17:55:39)
;
_computing_data_reduction
;
CrysAlisPro, Agilent Technologies,
Version 1.171.35.11 (release 16-05-2011 CrysAlis171 .NET)
(compiled May 16 2011,17:55:39)
;
_computing_molecular_graphics
;
'ORTEP (M. N. Burnett, C. K. Johnson, ORTEP-III: Oak Ridge Thermal Ellipsoid
;
_computing_publication_material
'PLATON (A. L. Spek, Acta Crystallogr, Sect. A, 1990, 46, C34, 1995 version).'
_computing_structure_refinement  'SHELXL-97 (Sheldrick, 1997)'
_computing_structure_solution    SIR-92
_diffrn_ambient_temperature      173
_diffrn_detector_area_resol_mean 15.9809
_diffrn_measured_fraction_theta_full 0.994
_diffrn_measured_fraction_theta_max 0.994
_diffrn_measurement_device       'CCD camera on \k-goniostat'
_diffrn_measurement_device_type  'Xcalibur, Sapphire3'
_diffrn_measurement_method       '\w scans'
_diffrn_orient_matrix_UB_11      -0.0071486000
_diffrn_orient_matrix_UB_12      0.0861823000
_diffrn_orient_matrix_UB_13      -0.0132189000
_diffrn_orient_matrix_UB_21      -0.0654481000
_diffrn_orient_matrix_UB_22      0.0051350000
_diffrn_orient_matrix_UB_23      0.0489846000
_diffrn_orient_matrix_UB_31      0.0587850000
_diffrn_orient_matrix_UB_32      0.0168043000
_diffrn_orient_matrix_UB_33      0.0530762000
_diffrn_radiation_collimation    0.5
_diffrn_radiation_monochromator  graphite
_diffrn_radiation_source         'Enhance (Mo) X-ray Source'
_diffrn_radiation_type           'Mo K\a'
_diffrn_radiation_wavelength     0.71073
_diffrn_reflns_av_R_equivalents  0.0350
_diffrn_reflns_av_sigmaI/netI    0.0481
_diffrn_reflns_limit_h_max       10
_diffrn_reflns_limit_h_min       -8
_diffrn_reflns_limit_k_max       9
_diffrn_reflns_limit_k_min       -10
_diffrn_reflns_limit_l_max       9
_diffrn_reflns_limit_l_min       -12
_diffrn_reflns_number            3382
_diffrn_reflns_theta_full        26.48
_diffrn_reflns_theta_max         26.48
_diffrn_reflns_theta_min         4.16
_diffrn_source_current           40
_diffrn_source_type              'Spellman generator'
_diffrn_source_voltage           50
_exptl_absorpt_coefficient_mu    0.165
_exptl_absorpt_correction_T_max  0.9837
_exptl_absorpt_correction_T_min  0.9710
_exptl_absorpt_correction_type   multi-scan
_exptl_absorpt_process_details
;
CrysAlisPro, Agilent Technologies,
Version 1.171.35.11 (release 16-05-2011 CrysAlis171 .NET)
(compiled May 16 2011,17:55:39)
Empirical absorption correction using spherical harmonics,
 implemented in SCALE3 ABSPACK scaling algorithm.
;
_exptl_crystal_colour            colorless
_exptl_crystal_density_diffrn    1.794
_exptl_crystal_density_method    'not measured'
_exptl_crystal_description       needle
_exptl_crystal_F_000             348
_exptl_crystal_size_max          0.18
_exptl_crystal_size_mid          0.12
_exptl_crystal_size_min          0.10
_refine_diff_density_max         0.208
_refine_diff_density_min         -0.226
_refine_diff_density_rms         0.046
_refine_ls_abs_structure_details 'Flack H D (1983), Acta Cryst. A39, 876-881'
_refine_ls_abs_structure_Flack   -10(10)
_refine_ls_extinction_method     none
_refine_ls_goodness_of_fit_ref   1.040
_refine_ls_hydrogen_treatment    refall
_refine_ls_matrix_type           full
_refine_ls_number_parameters     248
_refine_ls_number_reflns         1383
_refine_ls_number_restraints     1
_refine_ls_restrained_S_all      1.040
_refine_ls_R_factor_all          0.0418
_refine_ls_R_factor_gt           0.0319
_refine_ls_shift/su_max          0.000
_refine_ls_shift/su_mean         0.000
_refine_ls_structure_factor_coef Fsqd
_refine_ls_weighting_details
'calc w=1/[\s^2^(Fo^2^)+(0.0217P)^2^+0.0000P] where P=(Fo^2^+2Fc^2^)/3'
_refine_ls_weighting_scheme      calc
_refine_ls_wR_factor_gt          0.0570
_refine_ls_wR_factor_ref         0.0616
_reflns_number_gt                1208
_reflns_number_total             1383
_reflns_threshold_expression     >2sigma(I)
_iucr_refine_instructions_details
;TITL gx456_ in P2(1)
CELL  0.71073   8.0286   8.0668   9.6666   90.000   90.004   90.000
ZERR     2.00   0.0012   0.0011   0.0015    0.000    0.012    0.000
LATT  -1
SYMM  - X, 1/2 + Y, - Z
SFAC  C    H    N    O
UNIT  8    20   24   14
MERG   4
OMIT    -2.00  53.00
EQIV $1 -x, y-1/2, -z+1
EQIV $2 -x+1, y-1/2, -z
EQIV $3  -x+1, y-1/2, -z+1
EQIV $4 x, y-1, z
EQIV $5 -x, y-1/2, -z
EQIV $6 x, y-1, z+1
EQIV $7 -x+1, y-1/2, -z+1
HTAB N12 O4_$1
HTAB N12 N7_$1
HTAB O5  O7
HTAB N12 O4
HTAB N12 N7
HTAB N12 N2_$2
HTAB O7  O5_$3
HTAB O7  N9_$4
HTAB N11 O4_$1
HTAB N11 N6_$1
HTAB O7  O1_$2
HTAB O6  O1_$5
HTAB N11 N4_$7
HTAB N11 O1_$6
HTAB N11 N1_$6
FMAP   2
PLAN   20
SIZE     0.10   0.12   0.18
ACTA
BOND   $H
CONF
L.S.   5
TEMP  -100.00
WGHT    0.021700
FVAR      12.03073
O1    4    0.344913    0.761000   -0.292884    11.00000    0.02879    0.02215 =
         0.01600    0.00345   -0.00319   -0.00075
O2    4    0.185468    0.428034   -0.204775    11.00000    0.03613    0.02495 =
         0.01631   -0.00674    0.00266   -0.00100
O3    4    0.008359    0.469541   -0.022843    11.00000    0.02221    0.02610 =
         0.02544   -0.00328    0.00128   -0.00859
O4    4    0.003029    0.643580    0.388106    11.00000    0.02034    0.02114 =
         0.02219    0.00200    0.00472   -0.00325
N1    3    0.444997    0.732604   -0.185803    11.00000    0.02229    0.01549 =
         0.01812   -0.00098    0.00219    0.00200
N2    3    0.605950    0.777819   -0.187821    11.00000    0.02268    0.02574 =
         0.02130   -0.00162    0.00557   -0.00221
N3    3    0.667605    0.738458   -0.066104    11.00000    0.02218    0.02796 =
         0.02155   -0.00278    0.00344   -0.00381
N4    3    0.549459    0.667867    0.014468    11.00000    0.01900    0.02751 =
         0.01927   -0.00201    0.00250   -0.00113
N5    3    0.161298    0.501106   -0.095582    11.00000    0.02292    0.01615 =
         0.02017   -0.00133   -0.00142   -0.00054
N6    3    0.010029    0.557884    0.098183    11.00000    0.02677    0.02394 =
         0.01846   -0.00349   -0.00202   -0.00296
N7    3    0.120962    0.744746    0.340864    11.00000    0.01820    0.01546 =
         0.01738   -0.00010   -0.00024    0.00136
N8    3    0.188299    0.862435    0.421185    11.00000    0.02310    0.02300 =
         0.02261   -0.00421   -0.00057   -0.00010
N9    3    0.301721    0.936902    0.343215    11.00000    0.02618    0.02894 =
         0.02836   -0.00439    0.00093   -0.00631
N10   3    0.308670    0.867503    0.215831    11.00000    0.02404    0.02449 =
         0.02452   -0.00190    0.00245   -0.00714
C1    1    0.411322    0.666055   -0.061971    11.00000    0.02072    0.01689 =
         0.01354    0.00039    0.00265    0.00005
C2    1    0.248375    0.607495   -0.018715    11.00000    0.02350    0.01389 =
         0.01406    0.00183   -0.00161    0.00127
C3    1    0.152129    0.638680    0.101977    11.00000    0.01811    0.01634 =
         0.01763    0.00269    0.00028    0.00090
C4    1    0.195168    0.747572    0.216409    11.00000    0.01847    0.01496 =
         0.01813    0.00104    0.00020    0.00015
O5    4    0.388616    0.182233    0.596634    11.00000    0.03828    0.02128 =
         0.03065    0.00368    0.01532    0.00266
N11   3    0.316206    0.099623    0.710805    11.00000    0.02226    0.02008 =
         0.02147    0.00081    0.00081    0.00218
O6    4    0.002437    0.237384    0.274593    11.00000    0.02692    0.03893 =
         0.03313   -0.00810   -0.00153   -0.00462
N12   3    0.105896    0.307727    0.377425    11.00000    0.02231    0.02484 =
         0.02135   -0.00176    0.00493   -0.00042
O7    4    0.638307    0.016559    0.494335    11.00000    0.02919    0.02330 =
         0.02239    0.00145    0.00070   -0.00392
H12C  2    0.084098    0.248655    0.470410    11.00000    0.08153
H5A   2    0.485347    0.118881    0.571367    11.00000    0.05265
H12A  2    0.082488    0.423037    0.403899    11.00000    0.06391
H12B  2    0.207218    0.296608    0.346816    11.00000    0.03061
H7A   2    0.602367   -0.064737    0.438192    11.00000    0.05220
H11B  2    0.209369    0.125819    0.702942    11.00000    0.02920
H7B   2    0.654484    0.081303    0.430474    11.00000    0.04001
H6    2   -0.111829    0.247849    0.297432    11.00000    0.09002
H11A  2    0.369318    0.131313    0.792528    11.00000    0.03948
H11C  2    0.327738   -0.009355    0.694252    11.00000    0.04072
HKLF    4
 
REM  gx456_ in P2(1)
REM R1 =  0.0319 for   1208 Fo > 4sig(Fo)  and  0.0418 for all   1383 data
REM    248 parameters refined using      1 restraints
 
END
 
WGHT      0.0217      0.0000
REM Highest difference peak  0.208,  deepest hole -0.226,  1-sigma level  0.046
Q1    1   0.0872  0.7697  0.2610  11.00000  0.05    0.21
Q2    1   0.3448  0.6202 -0.0342  11.00000  0.05    0.18
Q3    1   0.2473  1.0743  0.3122  11.00000  0.05    0.18
Q4    1   0.3503  0.8153  0.1429  11.00000  0.05    0.17
Q5    1   0.3443  0.2935  0.3451  11.00000  0.05    0.17
Q6    1   0.5712  0.0776  0.5504  11.00000  0.05    0.17
Q7    1   0.2340  0.5874  0.0577  11.00000  0.05    0.16
Q8    1   0.6182  0.5628 -0.1610  11.00000  0.05    0.16
Q9    1   0.4593  0.2441  0.6711  11.00000  0.05    0.16
Q10   1   0.0918  0.8700  0.4797  11.00000  0.05    0.16
Q11   1   0.4993  0.4479  0.0731  11.00000  0.05    0.16
Q12   1  -0.0908  0.1639  0.3291  11.00000  0.05    0.15
Q13   1   0.7502 -0.0091  0.5851  11.00000  0.05    0.15
Q14   1  -0.0138  0.3666 -0.0769  11.00000  0.05    0.15
Q15   1   0.3907  0.3060  0.6244  11.00000  0.05    0.15
Q16   1   0.5444  0.5828  0.0607  11.00000  0.05    0.15
Q17   1   0.0088  0.8332  0.1813  11.00000  0.05    0.15
Q18   1   0.3868  0.2410  0.4627  11.00000  0.05    0.14
Q19   1   0.0854  0.1464  0.7108  11.00000  0.05    0.14
Q20   1   0.1183  0.3676 -0.1543  11.00000  0.05    0.14
;
_cod_data_source_file            c4nj01351d2.cif
_cod_data_source_block           gx567
_cod_depositor_comments
'Adding full bibliography for 7054474--7054485.cif.'
_cod_original_sg_symbol_Hall     'P 2yb '
_cod_original_sg_symbol_H-M      'P 21'
_cod_database_code               7054476
loop_
_symmetry_equiv_pos_as_xyz
'x, y, z'
'-x, y+1/2, -z'
loop_
_atom_site_label
_atom_site_type_symbol
_atom_site_fract_x
_atom_site_fract_y
_atom_site_fract_z
_atom_site_U_iso_or_equiv
_atom_site_adp_type
_atom_site_occupancy
_atom_site_symmetry_multiplicity
_atom_site_calc_flag
O1 O 0.3449(2) 0.7610(3) -0.2929(2) 0.0223(5) Uani 1 1 d
O2 O 0.1855(3) 0.4280(3) -0.2048(2) 0.0258(5) Uani 1 1 d
O3 O 0.0084(3) 0.4695(2) -0.0228(2) 0.0246(5) Uani 1 1 d
O4 O 0.0030(2) 0.6436(2) 0.3881(2) 0.0212(5) Uani 1 1 d
N1 N 0.4450(3) 0.7326(3) -0.1858(2) 0.0186(5) Uani 1 1 d
N2 N 0.6059(3) 0.7778(3) -0.1878(3) 0.0232(6) Uani 1 1 d
N3 N 0.6676(3) 0.7385(3) -0.0661(3) 0.0239(6) Uani 1 1 d
N4 N 0.5495(3) 0.6679(3) 0.0145(2) 0.0219(6) Uani 1 1 d
N5 N 0.1613(3) 0.5011(3) -0.0956(3) 0.0197(6) Uani 1 1 d
N6 N 0.0100(3) 0.5579(3) 0.0982(3) 0.0231(6) Uani 1 1 d
N7 N 0.1210(3) 0.7447(3) 0.3409(2) 0.0170(5) Uani 1 1 d
N8 N 0.1883(3) 0.8624(3) 0.4212(3) 0.0229(6) Uani 1 1 d
N9 N 0.3017(3) 0.9369(3) 0.3432(3) 0.0278(6) Uani 1 1 d
N10 N 0.3087(3) 0.8675(3) 0.2158(3) 0.0243(6) Uani 1 1 d
C1 C 0.4113(3) 0.6661(4) -0.0620(3) 0.0171(6) Uani 1 1 d
C2 C 0.2484(4) 0.6075(4) -0.0187(3) 0.0172(6) Uani 1 1 d
C3 C 0.1521(3) 0.6387(4) 0.1020(3) 0.0174(6) Uani 1 1 d
C4 C 0.1952(3) 0.7476(4) 0.2164(3) 0.0172(6) Uani 1 1 d
O5 O 0.3886(3) 0.1822(3) 0.5966(2) 0.0301(6) Uani 1 1 d
N11 N 0.3162(4) 0.0996(4) 0.7108(3) 0.0213(6) Uani 1 1 d
O6 O 0.0024(3) 0.2374(3) 0.2746(2) 0.0330(6) Uani 1 1 d
N12 N 0.1059(4) 0.3077(4) 0.3774(3) 0.0228(6) Uani 1 1 d
O7 O 0.6383(3) 0.0166(3) 0.4943(3) 0.0250(5) Uani 1 1 d
H12C H 0.084(6) 0.249(6) 0.470(5) 0.082(15) Uiso 1 1 d
H5A H 0.485(5) 0.119(5) 0.571(4) 0.053(12) Uiso 1 1 d
H12A H 0.082(5) 0.423(6) 0.404(4) 0.064(13) Uiso 1 1 d
H12B H 0.207(4) 0.297(4) 0.347(4) 0.031(10) Uiso 1 1 d
H7A H 0.602(5) -0.065(6) 0.438(4) 0.052(12) Uiso 1 1 d
H11B H 0.209(4) 0.126(4) 0.703(3) 0.029(10) Uiso 1 1 d
H7B H 0.654(5) 0.081(5) 0.430(4) 0.040(12) Uiso 1 1 d
H6 H -0.112(7) 0.248(7) 0.297(5) 0.090(17) Uiso 1 1 d
H11A H 0.369(4) 0.131(5) 0.793(4) 0.039(10) Uiso 1 1 d
H11C H 0.328(4) -0.009(5) 0.694(4) 0.041(11) Uiso 1 1 d
loop_
_atom_site_aniso_label
_atom_site_aniso_U_11
_atom_site_aniso_U_22
_atom_site_aniso_U_33
_atom_site_aniso_U_23
_atom_site_aniso_U_13
_atom_site_aniso_U_12
O1 0.0288(12) 0.0222(11) 0.0160(12) 0.0035(9) -0.0032(8) -0.0008(9)
O2 0.0361(14) 0.0249(12) 0.0163(12) -0.0067(10) 0.0027(9) -0.0010(9)
O3 0.0222(12) 0.0261(12) 0.0254(13) -0.0033(10) 0.0013(9) -0.0086(9)
O4 0.0203(11) 0.0211(11) 0.0222(12) 0.0020(9) 0.0047(8) -0.0033(9)
N1 0.0223(14) 0.0155(13) 0.0181(13) -0.0010(11) 0.0022(10) 0.0020(10)
N2 0.0227(14) 0.0257(15) 0.0213(15) -0.0016(12) 0.0056(10) -0.0022(11)
N3 0.0222(14) 0.0280(14) 0.0215(15) -0.0028(12) 0.0034(10) -0.0038(12)
N4 0.0190(13) 0.0275(14) 0.0193(14) -0.0020(12) 0.0025(10) -0.0011(11)
N5 0.0229(14) 0.0161(13) 0.0202(14) -0.0013(11) -0.0014(11) -0.0005(10)
N6 0.0268(15) 0.0239(14) 0.0185(15) -0.0035(11) -0.0020(11) -0.0030(11)
N7 0.0182(13) 0.0155(12) 0.0174(13) -0.0001(11) -0.0002(9) 0.0014(10)
N8 0.0231(14) 0.0230(14) 0.0226(15) -0.0042(11) -0.0006(11) -0.0001(11)
N9 0.0262(16) 0.0289(15) 0.0284(16) -0.0044(13) 0.0009(11) -0.0063(12)
N10 0.0240(15) 0.0245(14) 0.0245(15) -0.0019(13) 0.0025(11) -0.0071(11)
C1 0.0207(16) 0.0169(15) 0.0135(15) 0.0004(12) 0.0026(11) 0.0000(12)
C2 0.0235(16) 0.0139(14) 0.0141(15) 0.0018(12) -0.0016(12) 0.0013(12)
C3 0.0181(16) 0.0163(16) 0.0176(15) 0.0027(12) 0.0003(11) 0.0009(12)
C4 0.0185(15) 0.0150(14) 0.0181(16) 0.0010(13) 0.0002(11) 0.0002(12)
O5 0.0383(14) 0.0213(12) 0.0307(13) 0.0037(10) 0.0153(10) 0.0027(10)
N11 0.0223(16) 0.0201(15) 0.0215(15) 0.0008(12) 0.0008(11) 0.0022(11)
O6 0.0269(13) 0.0389(14) 0.0331(14) -0.0081(12) -0.0015(10) -0.0046(11)
N12 0.0223(16) 0.0248(15) 0.0213(16) -0.0018(12) 0.0049(12) -0.0004(11)
O7 0.0292(13) 0.0233(13) 0.0224(13) 0.0015(11) 0.0007(10) -0.0039(10)
loop_
_atom_type_symbol
_atom_type_description
_atom_type_scat_dispersion_real
_atom_type_scat_dispersion_imag
_atom_type_scat_source
C C 0.0033 0.0000 'International Tables Vol C Tables 4.2.6.8 and 6.1.1.4'
H H 0.0000 0.0000 'International Tables Vol C Tables 4.2.6.8 and 6.1.1.4'
N N 0.0061 0.0000 'International Tables Vol C Tables 4.2.6.8 and 6.1.1.4'
O O 0.0106 0.0000 'International Tables Vol C Tables 4.2.6.8 and 6.1.1.4'
loop_
_geom_angle_atom_site_label_1
_geom_angle_atom_site_label_2
_geom_angle_atom_site_label_3
_geom_angle
N6 O3 N5 108.5(2)
O1 N1 C1 130.0(2)
O1 N1 N2 121.5(2)
C1 N1 N2 108.4(2)
N3 N2 N1 106.5(2)
N2 N3 N4 110.7(2)
C1 N4 N3 105.6(2)
O2 N5 C2 135.0(3)
O2 N5 O3 118.1(2)
C2 N5 O3 106.8(2)
C3 N6 O3 106.9(2)
O4 N7 N8 121.5(2)
O4 N7 C4 129.3(2)
N8 N7 C4 109.1(2)
N9 N8 N7 105.6(2)
N8 N9 N10 111.0(2)
C4 N10 N9 105.6(2)
N4 C1 N1 108.8(2)
N4 C1 C2 126.4(3)
N1 C1 C2 124.7(2)
N5 C2 C3 106.6(3)
N5 C2 C1 121.4(3)
C3 C2 C1 131.9(3)
N6 C3 C2 111.2(3)
N6 C3 C4 121.8(3)
C2 C3 C4 127.0(2)
N10 C4 N7 108.7(2)
N10 C4 C3 126.8(3)
N7 C4 C3 124.5(2)
N11 O5 H5A 106(2)
O5 N11 H11B 103(2)
O5 N11 H11A 110(2)
H11B N11 H11A 117(3)
O5 N11 H11C 106(2)
H11B N11 H11C 109(3)
H11A N11 H11C 112(3)
N12 O6 H6 112(3)
O6 N12 H12C 109(3)
O6 N12 H12A 117(2)
H12C N12 H12A 100(3)
O6 N12 H12B 106(2)
H12C N12 H12B 114(3)
H12A N12 H12B 111(3)
H7A O7 H7B 94(3)
loop_
_geom_bond_atom_site_label_1
_geom_bond_atom_site_label_2
_geom_bond_distance
O1 N1 1.330(3)
O2 N5 1.224(3)
O3 N6 1.370(3)
O3 N5 1.438(3)
O4 N7 1.331(3)
N1 C1 1.339(3)
N1 N2 1.343(3)
N2 N3 1.315(3)
N3 N4 1.353(3)
N4 C1 1.333(4)
N5 C2 1.333(4)
N6 C3 1.314(4)
N7 N8 1.340(3)
N7 C4 1.343(3)
N8 N9 1.326(4)
N9 N10 1.354(4)
N10 C4 1.329(4)
C1 C2 1.452(4)
C2 C3 1.422(4)
C3 C4 1.454(4)
O5 N11 1.414(3)
O5 H5A 0.96(4)
N11 H11B 0.89(3)
N11 H11A 0.93(4)
N11 H11C 0.90(4)
O6 N12 1.414(3)
O6 H6 0.95(5)
N12 H12C 1.03(5)
N12 H12A 0.98(5)
N12 H12B 0.87(4)
O7 H7A 0.90(5)
O7 H7B 0.82(4)
loop_
_geom_hbond_atom_site_label_D
_geom_hbond_atom_site_label_H
_geom_hbond_atom_site_label_A
_geom_hbond_distance_DH
_geom_hbond_distance_HA
_geom_hbond_distance_DA
_geom_hbond_angle_DHA
_geom_hbond_site_symmetry_A
N12 H12C O4 1.03(5) 1.75(5) 2.767(3) 166(4) 2_546
N12 H12C N7 1.03(5) 2.46(5) 3.315(4) 140(4) 2_546
O5 H5A O7 0.96(4) 1.66(4) 2.604(3) 168(3) .
N12 H12A O4 0.98(5) 1.90(5) 2.834(4) 159(3) .
N12 H12A N7 0.98(5) 2.68(5) 3.545(4) 147(3) .
N12 H12B N2 0.87(4) 2.15(4) 2.961(4) 154(3) 2_645
O7 H7A O5 0.90(5) 2.07(5) 2.845(3) 144(4) 2_646
O7 H7A N9 0.90(5) 2.58(4) 3.138(4) 121(3) 1_545
N11 H11B O4 0.89(3) 1.92(3) 2.758(4) 156(3) 2_546
N11 H11B N6 0.89(3) 2.66(3) 3.222(4) 122(2) 2_546
O7 H7B O1 0.82(4) 1.97(4) 2.775(3) 168(4) 2_645
O6 H6 O1 0.95(5) 1.87(5) 2.801(3) 165(4) 2_545
N11 H11A N4 0.93(4) 2.00(4) 2.919(4) 168(3) 2_646
N11 H11C O1 0.90(4) 1.86(4) 2.742(4) 166(3) 1_546
N11 H11C N1 0.90(4) 2.56(4) 3.291(4) 139(3) 1_546
loop_
_geom_torsion_atom_site_label_1
_geom_torsion_atom_site_label_2
_geom_torsion_atom_site_label_3
_geom_torsion_atom_site_label_4
_geom_torsion
O1 N1 N2 N3 177.6(2)
C1 N1 N2 N3 0.0(3)
N1 N2 N3 N4 0.3(3)
N2 N3 N4 C1 -0.4(3)
N6 O3 N5 O2 177.5(2)
N6 O3 N5 C2 -0.8(3)
N5 O3 N6 C3 0.0(3)
O4 N7 N8 N9 178.9(2)
C4 N7 N8 N9 0.8(3)
N7 N8 N9 N10 -0.7(3)
N8 N9 N10 C4 0.3(3)
N3 N4 C1 N1 0.4(3)
N3 N4 C1 C2 -177.6(3)
O1 N1 C1 N4 -177.7(3)
N2 N1 C1 N4 -0.3(3)
O1 N1 C1 C2 0.4(5)
N2 N1 C1 C2 177.8(3)
O2 N5 C2 C3 -176.7(3)
O3 N5 C2 C3 1.3(3)
O2 N5 C2 C1 1.9(5)
O3 N5 C2 C1 179.8(2)
N4 C1 C2 N5 -130.2(3)
N1 C1 C2 N5 52.1(4)
N4 C1 C2 C3 47.9(5)
N1 C1 C2 C3 -129.8(3)
O3 N6 C3 C2 0.8(3)
O3 N6 C3 C4 179.3(2)
N5 C2 C3 N6 -1.4(3)
C1 C2 C3 N6 -179.7(3)
N5 C2 C3 C4 -179.7(3)
C1 C2 C3 C4 2.0(5)
N9 N10 C4 N7 0.2(3)
N9 N10 C4 C3 178.5(3)
O4 N7 C4 N10 -178.6(3)
N8 N7 C4 N10 -0.6(3)
O4 N7 C4 C3 3.0(4)
N8 N7 C4 C3 -179.0(3)
N6 C3 C4 N10 -160.2(3)
C2 C3 C4 N10 17.9(5)
N6 C3 C4 N7 17.9(4)
C2 C3 C4 N7 -164.0(3)
