#------------------------------------------------------------------------------
#$Date: 2016-03-26 00:53:55 +0200 (Sat, 26 Mar 2016) $
#$Revision: 180101 $
#$URL: svn://www.crystallography.net/cod/cif/7/05/47/7054721.cif $
#------------------------------------------------------------------------------
#
# This file is available in the Crystallography Open Database (COD),
# http://www.crystallography.net/
#
# All data on this site have been placed in the public domain by the
# contributors.
#
data_7054721
loop_
_publ_author_name
'Saraswatula, Viswanadha G.'
'Bhattacharya, Suman'
'Saha, Binoy K.'
_publ_section_title
;
 Can the thermal expansion be controlled by varying the hydrogen bond
 dimensionality in polymorphs?
;
_journal_issue                   5
_journal_name_full               'New J. Chem.'
_journal_page_first              3345
_journal_paper_doi               10.1039/C5NJ00196J
_journal_volume                  39
_journal_year                    2015
_chemical_formula_moiety         'C4 H4 O2'
_chemical_formula_sum            'C4 H4 O2'
_chemical_formula_weight         84.07
_chemical_name_common            1D-190
_chemical_name_systematic        'But-2-ynoic acid'
_space_group_crystal_system      monoclinic
_space_group_IT_number           4
_space_group_name_Hall           'P 2yb'
_space_group_name_H-M_alt        'P 1 21 1'
_symmetry_space_group_name_Hall  'P 2yb'
_symmetry_space_group_name_H-M   'P 1 21 1'
_atom_sites_solution_hydrogens   mixed
_atom_sites_solution_primary     direct
_audit_creation_date             2014-11-21
_audit_creation_method
;
Olex2 1.2
(compiled 2014.08.28 svn.r2986 for OlexSys, GUI svn.r4874)
;
_audit_update_record
;
2014-12-18 deposited with the CCDC.
2015-03-06 downloaded from the CCDC.
;
_cell_angle_alpha                90
_cell_angle_beta                 100.93(3)
_cell_angle_gamma                90
_cell_formula_units_Z            2
_cell_length_a                   3.8856(13)
_cell_length_b                   7.1138(12)
_cell_length_c                   7.8353(16)
_cell_measurement_reflns_used    395
_cell_measurement_temperature    190(2)
_cell_measurement_theta_max      29.1215
_cell_measurement_theta_min      3.8935
_cell_volume                     212.65(9)
_computing_cell_refinement
;
CrysAlisPro, Agilent Technologies,
Version 1.171.36.21 (release 14-08-2012 CrysAlis171 .NET)
(compiled Sep 14 2012,17:21:16)
;
_computing_data_collection
;
CrysAlisPro, Agilent Technologies,
Version 1.171.36.21 (release 14-08-2012 CrysAlis171 .NET)
(compiled Sep 14 2012,17:21:16)
;
_computing_data_reduction
;
CrysAlisPro, Agilent Technologies,
Version 1.171.36.21 (release 14-08-2012 CrysAlis171 .NET)
(compiled Sep 14 2012,17:21:16)
;
_computing_molecular_graphics    'Olex2 (Dolomanov et al., 2009)'
_computing_publication_material  'Olex2 (Dolomanov et al., 2009)'
_computing_structure_refinement  'ShelXL (Sheldrick, 2008)'
_computing_structure_solution    'ShelXS (Sheldrick, 2008)'
_diffrn_ambient_environment      N~2~
_diffrn_ambient_temperature      190(2)
_diffrn_detector                 'CCD plate'
_diffrn_detector_area_resol_mean 15.9821
_diffrn_detector_type            Eos
_diffrn_measured_fraction_theta_full 0.998
_diffrn_measured_fraction_theta_max 0.882
_diffrn_measurement_details
;
  1 omega   44.00   88.00   1.0000    5.0000
omega____ theta____ kappa____ phi______ frames
    -       19.2147   57.0000   60.0000 44

  2 omega   42.00   88.00   1.0000    5.0000
omega____ theta____ kappa____ phi______ frames
    -       19.2147   57.0000  -30.0000 46

  3 omega   -1.00   63.00   1.0000    5.0000
omega____ theta____ kappa____ phi______ frames
    -       19.2147   77.0000  -90.0000 64

  4 omega   -2.00   43.00   1.0000    5.0000
omega____ theta____ kappa____ phi______ frames
    -       19.2147   57.0000   60.0000 45

  5 omega    7.00   32.00   1.0000    5.0000
omega____ theta____ kappa____ phi______ frames
    -       19.2147 -140.0000  165.0000 25

  6 omega  -50.00   41.00   1.0000    5.0000
omega____ theta____ kappa____ phi______ frames
    -       19.2147  -57.0000  -60.0000 91
;
_diffrn_measurement_device       'four-circle diffractometer'
_diffrn_measurement_device_type  'Xcalibur, Eos'
_diffrn_measurement_method       '\w scans'
_diffrn_orient_matrix_UB_11      0.0507284000
_diffrn_orient_matrix_UB_12      -0.0958687000
_diffrn_orient_matrix_UB_13      0.0061633000
_diffrn_orient_matrix_UB_21      0.1783517000
_diffrn_orient_matrix_UB_22      0.0270493000
_diffrn_orient_matrix_UB_23      0.0087409000
_diffrn_orient_matrix_UB_31      0.0146902000
_diffrn_orient_matrix_UB_32      0.0038758000
_diffrn_orient_matrix_UB_33      0.0915174000
_diffrn_radiation_monochromator  graphite
_diffrn_radiation_probe          x-ray
_diffrn_radiation_type           MoK\a
_diffrn_radiation_wavelength     0.71073
_diffrn_reflns_av_R_equivalents  0.0176
_diffrn_reflns_av_unetI/netI     0.0438
_diffrn_reflns_Laue_measured_fraction_full 0.998
_diffrn_reflns_Laue_measured_fraction_max 0.882
_diffrn_reflns_limit_h_max       5
_diffrn_reflns_limit_h_min       -5
_diffrn_reflns_limit_k_max       9
_diffrn_reflns_limit_k_min       -9
_diffrn_reflns_limit_l_max       10
_diffrn_reflns_limit_l_min       -10
_diffrn_reflns_number            1358
_diffrn_reflns_point_group_measured_fraction_full 0.933
_diffrn_reflns_point_group_measured_fraction_max 0.779
_diffrn_reflns_theta_full        25.000
_diffrn_reflns_theta_max         29.186
_diffrn_reflns_theta_min         3.901
_diffrn_source                   'Enhance (Mo) X-ray Source'
_exptl_absorpt_coefficient_mu    0.107
_exptl_absorpt_correction_T_max  1.00000
_exptl_absorpt_correction_T_min  0.83256
_exptl_absorpt_correction_type   multi-scan
_exptl_absorpt_process_details
;
CrysAlisPro, Agilent Technologies,
Version 1.171.36.21 (release 14-08-2012 CrysAlis171 .NET)
(compiled Sep 14 2012,17:21:16)
Empirical absorption correction using spherical harmonics,
 implemented in SCALE3 ABSPACK scaling algorithm.
;
_exptl_crystal_colour            colourless
_exptl_crystal_colour_primary    colourless
_exptl_crystal_density_diffrn    1.313
_exptl_crystal_description       block
_exptl_crystal_F_000             88
_exptl_crystal_size_max          0.36
_exptl_crystal_size_mid          0.28
_exptl_crystal_size_min          0.22
_refine_diff_density_max         0.157
_refine_diff_density_min         -0.170
_refine_diff_density_rms         0.039
_refine_ls_abs_structure_details
;
 Flack x determined using 261 quotients [(I+)-(I-)]/[(I+)+(I-)]
 (Parsons, Flack and Wagner, Acta Cryst. B69 (2013) 249-259).
;
_refine_ls_abs_structure_Flack   0.5(10)
_refine_ls_extinction_method     none
_refine_ls_goodness_of_fit_ref   1.040
_refine_ls_hydrogen_treatment    mixed
_refine_ls_matrix_type           full
_refine_ls_number_parameters     60
_refine_ls_number_reflns         899
_refine_ls_number_restraints     1
_refine_ls_restrained_S_all      1.039
_refine_ls_R_factor_all          0.0558
_refine_ls_R_factor_gt           0.0436
_refine_ls_shift/su_max          0.000
_refine_ls_shift/su_mean         0.000
_refine_ls_structure_factor_coef Fsqd
_refine_ls_weighting_details
'w=1/[\s^2^(Fo^2^)+(0.0540P)^2^] where P=(Fo^2^+2Fc^2^)/3'
_refine_ls_weighting_scheme      calc
_refine_ls_wR_factor_gt          0.1003
_refine_ls_wR_factor_ref         0.1079
_reflns_Friedel_coverage         0.641
_reflns_Friedel_fraction_full    0.855
_reflns_Friedel_fraction_max     0.659
_reflns_number_gt                753
_reflns_number_total             899
_reflns_threshold_expression     'I > 2\s(I)'
_cod_data_source_file            c5nj00196j2.cif
_cod_data_source_block           1D-190
_cod_depositor_comments
'Adding full bibliography for 7054714--7054724.cif.'
_cod_database_code               7054721
#BEGIN Tags that were not found in dictionaries:
_shelxl_version_number           2014/6
_shelx_space_group_comment
;
The symmetry employed for this shelxl refinement is uniquely defined
by the following loop, which should always be used as a source of
symmetry information in preference to the above space-group names.
They are only intended as comments.
;
_shelx_estimated_absorpt_t_max   0.977
_shelx_estimated_absorpt_t_min   0.963
#END Tags that were not found in dictionaries
loop_
_space_group_symop_operation_xyz
'x, y, z'
'-x, y+1/2, -z'
loop_
_atom_site_label
_atom_site_type_symbol
_atom_site_fract_x
_atom_site_fract_y
_atom_site_fract_z
_atom_site_U_iso_or_equiv
_atom_site_adp_type
_atom_site_occupancy
_atom_site_site_symmetry_order
_atom_site_calc_flag
_atom_site_refinement_flags_posn
C4 C 0.0617(10) 0.3004(5) 0.9075(4) 0.0424(9) Uani 1 1 d .
H4A H 0.0079 0.3506 1.0159 0.064 Uiso 1 1 calc GR
H4B H 0.2533 0.2092 0.9343 0.064 Uiso 1 1 calc GR
H4C H -0.1466 0.2384 0.8411 0.064 Uiso 1 1 calc GR
C3 C 0.1664(8) 0.4536(4) 0.8050(4) 0.0326(7) Uani 1 1 d .
C1 C 0.3623(9) 0.7239(5) 0.6149(4) 0.0348(7) Uani 1 1 d .
O1 O 0.4679(7) 0.6934(3) 0.4825(3) 0.0421(7) Uani 1 1 d .
C2 C 0.2521(8) 0.5781(5) 0.7232(4) 0.0335(7) Uani 1 1 d .
O2 O 0.3382(8) 0.8946(3) 0.6787(3) 0.0474(7) Uani 1 1 d .
H2 H 0.409(10) 0.967(6) 0.602(5) 0.053(12) Uiso 1 1 d .
loop_
_atom_site_aniso_label
_atom_site_aniso_U_11
_atom_site_aniso_U_22
_atom_site_aniso_U_33
_atom_site_aniso_U_23
_atom_site_aniso_U_13
_atom_site_aniso_U_12
C4 0.050(2) 0.0354(18) 0.042(2) 0.0092(15) 0.0098(17) -0.0023(15)
C3 0.0354(16) 0.0313(16) 0.0316(15) 0.0014(13) 0.0079(13) 0.0032(13)
C1 0.0408(19) 0.0299(18) 0.0324(15) 0.0033(15) 0.0039(14) 0.0022(15)
O1 0.0641(16) 0.0282(12) 0.0392(12) 0.0032(12) 0.0229(11) 0.0033(11)
C2 0.0375(17) 0.0278(15) 0.0361(16) -0.0012(14) 0.0094(13) 0.0016(13)
O2 0.0785(19) 0.0264(11) 0.0433(14) -0.0002(11) 0.0265(13) 0.0005(12)
loop_
_atom_type_symbol
_atom_type_description
_atom_type_scat_dispersion_real
_atom_type_scat_dispersion_imag
_atom_type_scat_source
C C 0.0033 0.0016 'International Tables Vol C Tables 4.2.6.8 and 6.1.1.4'
H H 0.0000 0.0000 'International Tables Vol C Tables 4.2.6.8 and 6.1.1.4'
O O 0.0106 0.0060 'International Tables Vol C Tables 4.2.6.8 and 6.1.1.4'
loop_
_geom_angle_atom_site_label_1
_geom_angle_atom_site_label_2
_geom_angle_atom_site_label_3
_geom_angle
H4A C4 H4B 109.5
H4A C4 H4C 109.5
H4B C4 H4C 109.5
C3 C4 H4A 109.5
C3 C4 H4B 109.5
C3 C4 H4C 109.5
C2 C3 C4 179.5(3)
O1 C1 C2 124.0(3)
O1 C1 O2 123.4(3)
O2 C1 C2 112.6(3)
C3 C2 C1 176.7(3)
C1 O2 H2 103(2)
loop_
_geom_bond_atom_site_label_1
_geom_bond_atom_site_label_2
_geom_bond_distance
C4 H4A 0.9800
C4 H4B 0.9800
C4 H4C 0.9800
C4 C3 1.457(5)
C3 C2 1.178(4)
C1 O1 1.206(4)
C1 C2 1.454(5)
C1 O2 1.323(4)
O2 H2 0.87(4)
