#------------------------------------------------------------------------------
#$Date: 2016-03-26 00:53:55 +0200 (Sat, 26 Mar 2016) $
#$Revision: 180101 $
#$URL: svn://www.crystallography.net/cod/cif/7/05/47/7054724.cif $
#------------------------------------------------------------------------------
#
# This file is available in the Crystallography Open Database (COD),
# http://www.crystallography.net/
#
# All data on this site have been placed in the public domain by the
# contributors.
#
data_7054724
loop_
_publ_author_name
'Saraswatula, Viswanadha G.'
'Bhattacharya, Suman'
'Saha, Binoy K.'
_publ_section_title
;
 Can the thermal expansion be controlled by varying the hydrogen bond
 dimensionality in polymorphs?
;
_journal_issue                   5
_journal_name_full               'New J. Chem.'
_journal_page_first              3345
_journal_paper_doi               10.1039/C5NJ00196J
_journal_volume                  39
_journal_year                    2015
_chemical_formula_moiety         'C4 H4 O2'
_chemical_formula_sum            'C4 H4 O2'
_chemical_formula_weight         84.07
_chemical_name_common            1D-298
_chemical_name_systematic        'But-2-ynoic acid'
_space_group_crystal_system      monoclinic
_space_group_IT_number           4
_space_group_name_Hall           'P 2yb'
_space_group_name_H-M_alt        'P 1 21 1'
_symmetry_space_group_name_Hall  'P 2yb'
_symmetry_space_group_name_H-M   'P 1 21 1'
_atom_sites_solution_hydrogens   mixed
_atom_sites_solution_primary     direct
_audit_creation_date             2014-11-21
_audit_creation_method
;
Olex2 1.2
(compiled 2014.08.28 svn.r2986 for OlexSys, GUI svn.r4874)
;
_audit_update_record
;
2014-12-18 deposited with the CCDC.
2015-03-06 downloaded from the CCDC.
;
_cell_angle_alpha                90
_cell_angle_beta                 100.25(3)
_cell_angle_gamma                90
_cell_formula_units_Z            2
_cell_length_a                   3.9417(12)
_cell_length_b                   7.1096(18)
_cell_length_c                   7.878(3)
_cell_measurement_reflns_used    272
_cell_measurement_temperature    298(2)
_cell_measurement_theta_max      28.9969
_cell_measurement_theta_min      3.8810
_cell_volume                     217.25(12)
_computing_cell_refinement
;
CrysAlisPro, Agilent Technologies,
Version 1.171.36.21 (release 14-08-2012 CrysAlis171 .NET)
(compiled Sep 14 2012,17:21:16)
;
_computing_data_collection
;
CrysAlisPro, Agilent Technologies,
Version 1.171.36.21 (release 14-08-2012 CrysAlis171 .NET)
(compiled Sep 14 2012,17:21:16)
;
_computing_data_reduction
;
CrysAlisPro, Agilent Technologies,
Version 1.171.36.21 (release 14-08-2012 CrysAlis171 .NET)
(compiled Sep 14 2012,17:21:16)
;
_computing_molecular_graphics    'Olex2 (Dolomanov et al., 2009)'
_computing_publication_material  'Olex2 (Dolomanov et al., 2009)'
_computing_structure_refinement  'ShelXL (Sheldrick, 2008)'
_computing_structure_solution    'ShelXS (Sheldrick, 2008)'
_diffrn_ambient_temperature      298(2)
_diffrn_detector_area_resol_mean 15.9821
_diffrn_measured_fraction_theta_full 0.998
_diffrn_measured_fraction_theta_max 0.887
_diffrn_measurement_details
;
  1 omega   -3.00   25.00   1.0000    7.0000
omega____ theta____ kappa____ phi______ frames
    -      -17.3397  -99.0000   30.0000 28

  2 omega  -29.00   43.00   1.0000    7.0000
omega____ theta____ kappa____ phi______ frames
    -      -17.3397   77.0000  -90.0000 72

  3 omega  -86.00   13.00   1.0000    7.0000
omega____ theta____ kappa____ phi______ frames
    -      -17.3397  -77.0000    0.0000 99

  4 omega  -86.00  -61.00   1.0000    7.0000
omega____ theta____ kappa____ phi______ frames
    -      -17.3397  -57.0000  150.0000 25

  5 omega    5.00   85.00   1.0000    7.0000
omega____ theta____ kappa____ phi______ frames
    -       19.2147 -138.0000  164.0000 80
;
_diffrn_measurement_device_type  'Xcalibur, Eos'
_diffrn_measurement_method       '\w scans'
_diffrn_orient_matrix_UB_11      0.0487157000
_diffrn_orient_matrix_UB_12      -0.0960769000
_diffrn_orient_matrix_UB_13      0.0079263000
_diffrn_orient_matrix_UB_21      0.1764167000
_diffrn_orient_matrix_UB_22      0.0264564000
_diffrn_orient_matrix_UB_23      0.0117101000
_diffrn_orient_matrix_UB_31      0.0059721000
_diffrn_orient_matrix_UB_32      0.0048984000
_diffrn_orient_matrix_UB_33      0.0902778000
_diffrn_radiation_monochromator  graphite
_diffrn_radiation_type           MoK\a
_diffrn_radiation_wavelength     0.71073
_diffrn_reflns_av_R_equivalents  0.0259
_diffrn_reflns_av_unetI/netI     0.0612
_diffrn_reflns_Laue_measured_fraction_full 0.998
_diffrn_reflns_Laue_measured_fraction_max 0.887
_diffrn_reflns_limit_h_max       5
_diffrn_reflns_limit_h_min       -5
_diffrn_reflns_limit_k_max       9
_diffrn_reflns_limit_k_min       -9
_diffrn_reflns_limit_l_max       9
_diffrn_reflns_limit_l_min       -10
_diffrn_reflns_number            1346
_diffrn_reflns_point_group_measured_fraction_full 0.886
_diffrn_reflns_point_group_measured_fraction_max 0.735
_diffrn_reflns_theta_full        25.000
_diffrn_reflns_theta_max         29.061
_diffrn_reflns_theta_min         3.889
_diffrn_source                   'Enhance (Mo) X-ray Source'
_exptl_absorpt_coefficient_mu    0.104
_exptl_absorpt_correction_T_max  1.00000
_exptl_absorpt_correction_T_min  0.84236
_exptl_absorpt_correction_type   multi-scan
_exptl_absorpt_process_details
;
CrysAlisPro, Agilent Technologies,
Version 1.171.36.21 (release 14-08-2012 CrysAlis171 .NET)
(compiled Sep 14 2012,17:21:16)
Empirical absorption correction using spherical harmonics,
 implemented in SCALE3 ABSPACK scaling algorithm.
;
_exptl_crystal_colour            colourless
_exptl_crystal_colour_primary    colourless
_exptl_crystal_density_diffrn    1.285
_exptl_crystal_description       block
_exptl_crystal_F_000             88
_exptl_crystal_size_max          0.36
_exptl_crystal_size_mid          0.28
_exptl_crystal_size_min          0.22
_refine_diff_density_max         0.140
_refine_diff_density_min         -0.131
_refine_diff_density_rms         0.034
_refine_ls_abs_structure_details
;
 Flack x determined using 172 quotients [(I+)-(I-)]/[(I+)+(I-)]
 (Parsons, Flack and Wagner, Acta Cryst. B69 (2013) 249-259).
;
_refine_ls_abs_structure_Flack   1.2(10)
_refine_ls_extinction_coef       0.15(4)
_refine_ls_extinction_expression Fc^*^=kFc[1+0.001xFc^2^\l^3^/sin(2\q)]^-1/4^
_refine_ls_extinction_method     SHELXL
_refine_ls_goodness_of_fit_ref   1.012
_refine_ls_hydrogen_treatment    mixed
_refine_ls_matrix_type           full
_refine_ls_number_parameters     61
_refine_ls_number_reflns         858
_refine_ls_number_restraints     1
_refine_ls_restrained_S_all      1.011
_refine_ls_R_factor_all          0.0992
_refine_ls_R_factor_gt           0.0513
_refine_ls_shift/su_max          0.000
_refine_ls_shift/su_mean         0.000
_refine_ls_structure_factor_coef Fsqd
_refine_ls_weighting_details
'w=1/[\s^2^(Fo^2^)+(0.0455P)^2^] where P=(Fo^2^+2Fc^2^)/3'
_refine_ls_weighting_scheme      calc
_refine_ls_wR_factor_gt          0.0987
_refine_ls_wR_factor_ref         0.1218
_reflns_Friedel_coverage         0.538
_reflns_Friedel_fraction_full    0.752
_reflns_Friedel_fraction_max     0.557
_reflns_number_gt                531
_reflns_number_total             858
_reflns_threshold_expression     'I > 2\s(I)'
_cod_data_source_file            c5nj00196j2.cif
_cod_data_source_block           1D-298
_cod_depositor_comments
'Adding full bibliography for 7054714--7054724.cif.'
_cod_database_code               7054724
#BEGIN Tags that were not found in dictionaries:
_shelxl_version_number           2014/6
_shelx_space_group_comment
;
The symmetry employed for this shelxl refinement is uniquely defined
by the following loop, which should always be used as a source of
symmetry information in preference to the above space-group names.
They are only intended as comments.
;
_shelx_estimated_absorpt_t_max   0.977
_shelx_estimated_absorpt_t_min   0.963
#END Tags that were not found in dictionaries
loop_
_space_group_symop_operation_xyz
'x, y, z'
'-x, y+1/2, -z'
loop_
_atom_site_label
_atom_site_type_symbol
_atom_site_fract_x
_atom_site_fract_y
_atom_site_fract_z
_atom_site_U_iso_or_equiv
_atom_site_adp_type
_atom_site_occupancy
_atom_site_site_symmetry_order
_atom_site_calc_flag
_atom_site_refinement_flags_posn
C4 C 0.0687(13) 0.3010(7) 0.9045(6) 0.0698(15) Uani 1 1 d .
H4A H 0.0219 0.3480 1.0122 0.105 Uiso 1 1 calc GR
H4B H 0.2519 0.2104 0.9262 0.105 Uiso 1 1 calc GR
H4C H -0.1348 0.2424 0.8415 0.105 Uiso 1 1 calc GR
C3 C 0.1700(10) 0.4550(6) 0.8044(5) 0.0515(11) Uani 1 1 d .
C1 C 0.3640(11) 0.7228(7) 0.6142(5) 0.0556(11) Uani 1 1 d .
O1 O 0.4660(9) 0.6925(4) 0.4836(4) 0.0690(10) Uani 1 1 d .
C2 C 0.2559(11) 0.5797(8) 0.7228(6) 0.0543(11) Uani 1 1 d .
O2 O 0.3437(10) 0.8944(4) 0.6772(4) 0.0765(12) Uani 1 1 d .
H2 H 0.410(14) 0.985(8) 0.604(7) 0.11(2) Uiso 1 1 d .
loop_
_atom_site_aniso_label
_atom_site_aniso_U_11
_atom_site_aniso_U_22
_atom_site_aniso_U_33
_atom_site_aniso_U_23
_atom_site_aniso_U_13
_atom_site_aniso_U_12
C4 0.077(3) 0.057(3) 0.080(3) 0.019(3) 0.024(3) -0.003(3)
C3 0.054(2) 0.048(3) 0.053(2) 0.000(2) 0.0115(18) 0.002(2)
C1 0.070(3) 0.043(3) 0.056(2) 0.007(3) 0.015(2) 0.006(3)
O1 0.107(2) 0.045(2) 0.0636(17) 0.0040(19) 0.0391(15) 0.0041(19)
C2 0.066(3) 0.043(2) 0.056(2) 0.001(2) 0.0174(19) 0.001(2)
O2 0.126(3) 0.040(2) 0.072(2) -0.003(2) 0.0407(19) -0.002(2)
loop_
_atom_type_symbol
_atom_type_description
_atom_type_scat_dispersion_real
_atom_type_scat_dispersion_imag
_atom_type_scat_source
C C 0.0033 0.0016 'International Tables Vol C Tables 4.2.6.8 and 6.1.1.4'
H H 0.0000 0.0000 'International Tables Vol C Tables 4.2.6.8 and 6.1.1.4'
O O 0.0106 0.0060 'International Tables Vol C Tables 4.2.6.8 and 6.1.1.4'
loop_
_geom_angle_atom_site_label_1
_geom_angle_atom_site_label_2
_geom_angle_atom_site_label_3
_geom_angle
H4A C4 H4B 109.5
H4A C4 H4C 109.5
H4B C4 H4C 109.5
C3 C4 H4A 109.5
C3 C4 H4B 109.5
C3 C4 H4C 109.5
C2 C3 C4 179.3(5)
O1 C1 C2 124.5(5)
O1 C1 O2 122.9(4)
O2 C1 C2 112.5(4)
C3 C2 C1 176.0(5)
C1 O2 H2 111(3)
loop_
_geom_bond_atom_site_label_1
_geom_bond_atom_site_label_2
_geom_bond_distance
C4 H4A 0.9600
C4 H4B 0.9600
C4 H4C 0.9600
C4 C3 1.446(6)
C3 C2 1.180(6)
C1 O1 1.189(5)
C1 C2 1.442(7)
C1 O2 1.325(6)
O2 H2 0.93(6)
