#------------------------------------------------------------------------------
#$Date: 2016-03-26 00:53:55 +0200 (Sat, 26 Mar 2016) $
#$Revision: 180101 $
#$URL: svn://www.crystallography.net/cod/cif/7/05/47/7054716.cif $
#------------------------------------------------------------------------------
#
# This file is available in the Crystallography Open Database (COD),
# http://www.crystallography.net/
#
# All data on this site have been placed in the public domain by the
# contributors.
#
data_7054716
loop_
_publ_author_name
'Saraswatula, Viswanadha G.'
'Bhattacharya, Suman'
'Saha, Binoy K.'
_publ_section_title
;
 Can the thermal expansion be controlled by varying the hydrogen bond
 dimensionality in polymorphs?
;
_journal_issue                   5
_journal_name_full               'New J. Chem.'
_journal_page_first              3345
_journal_paper_doi               10.1039/C5NJ00196J
_journal_volume                  39
_journal_year                    2015
_chemical_formula_moiety         'C4 H4 O2'
_chemical_formula_sum            'C4 H4 O2'
_chemical_formula_weight         84.07
_chemical_name_common            0D-190
_space_group_crystal_system      triclinic
_space_group_IT_number           2
_space_group_name_Hall           '-P 1'
_space_group_name_H-M_alt        'P -1'
_symmetry_space_group_name_Hall  '-P 1'
_symmetry_space_group_name_H-M   'P -1'
_atom_sites_solution_hydrogens   mixed
_atom_sites_solution_primary     direct
_audit_creation_date             2014-11-10
_audit_creation_method
;
Olex2 1.2
(compiled 2014.08.28 svn.r2986 for OlexSys, GUI svn.r4874)
;
_audit_update_record
;
2014-12-18 deposited with the CCDC.
2015-03-06 downloaded from the CCDC.
;
_cell_angle_alpha                112.92(2)
_cell_angle_beta                 96.962(17)
_cell_angle_gamma                108.002(19)
_cell_formula_units_Z            2
_cell_length_a                   5.0580(9)
_cell_length_b                   7.0169(17)
_cell_length_c                   7.1325(15)
_cell_measurement_reflns_used    534
_cell_measurement_temperature    190(2)
_cell_measurement_theta_max      29.0545
_cell_measurement_theta_min      4.6815
_cell_volume                     213.14(10)
_computing_cell_refinement
;
CrysAlisPro, Agilent Technologies,
Version 1.171.36.21 (release 14-08-2012 CrysAlis171 .NET)
(compiled Sep 14 2012,17:21:16)
;
_computing_data_collection
;
CrysAlisPro, Agilent Technologies,
Version 1.171.36.21 (release 14-08-2012 CrysAlis171 .NET)
(compiled Sep 14 2012,17:21:16)
;
_computing_data_reduction
;
CrysAlisPro, Agilent Technologies,
Version 1.171.36.21 (release 14-08-2012 CrysAlis171 .NET)
(compiled Sep 14 2012,17:21:16)
;
_computing_molecular_graphics    'Olex2 (Dolomanov et al., 2009)'
_computing_publication_material  'Olex2 (Dolomanov et al., 2009)'
_computing_structure_refinement  'ShelXL (Sheldrick, 2008)'
_computing_structure_solution    'ShelXS (Sheldrick, 2008)'
_diffrn_ambient_temperature      190(2)
_diffrn_detector_area_resol_mean 15.9821
_diffrn_measured_fraction_theta_full 0.993
_diffrn_measured_fraction_theta_max 0.872
_diffrn_measurement_details
;
  1 omega  -78.00   -7.00   1.0000    4.5000
omega____ theta____ kappa____ phi______ frames
    -      -17.4178  -57.0000  150.0000 71

  2 omega  -20.00   20.00   1.0000    4.5000
omega____ theta____ kappa____ phi______ frames
    -      -17.4178  -99.0000  -60.0000 40

  3 omega  -88.00    3.00   1.0000    4.5000
omega____ theta____ kappa____ phi______ frames
    -      -17.4178  -37.0000 -150.0000 91

  4 omega  -59.00   -5.00   1.0000    4.5000
omega____ theta____ kappa____ phi______ frames
    -      -17.4178  -57.0000   60.0000 54

  5 omega  -21.00   56.00   1.0000    4.5000
omega____ theta____ kappa____ phi______ frames
    -       19.2147  -99.0000   30.0000 77

  6 omega  -53.00    2.00   1.0000    4.5000
omega____ theta____ kappa____ phi______ frames
    -       19.2147  -37.0000  120.0000 55

  7 omega  -38.00   51.00   1.0000    4.5000
omega____ theta____ kappa____ phi______ frames
    -      -17.4178   57.0000 -120.0000 89

  8 omega  -25.00   59.00   1.0000    4.5000
omega____ theta____ kappa____ phi______ frames
    -       19.2147  -99.0000  150.0000 84
;
_diffrn_measurement_device_type  'Xcalibur, Eos'
_diffrn_measurement_method       '\w scans'
_diffrn_orient_matrix_UB_11      -0.0317462000
_diffrn_orient_matrix_UB_12      0.0974683000
_diffrn_orient_matrix_UB_13      0.0418235000
_diffrn_orient_matrix_UB_21      0.0049879000
_diffrn_orient_matrix_UB_22      -0.0058648000
_diffrn_orient_matrix_UB_23      0.0973510000
_diffrn_orient_matrix_UB_31      0.1499963000
_diffrn_orient_matrix_UB_32      0.0683125000
_diffrn_orient_matrix_UB_33      0.0372935000
_diffrn_radiation_monochromator  graphite
_diffrn_radiation_type           MoK\a
_diffrn_radiation_wavelength     0.71073
_diffrn_reflns_av_R_equivalents  0.0368
_diffrn_reflns_av_unetI/netI     0.0530
_diffrn_reflns_Laue_measured_fraction_full 0.993
_diffrn_reflns_Laue_measured_fraction_max 0.872
_diffrn_reflns_limit_h_max       6
_diffrn_reflns_limit_h_min       -6
_diffrn_reflns_limit_k_max       9
_diffrn_reflns_limit_k_min       -9
_diffrn_reflns_limit_l_max       9
_diffrn_reflns_limit_l_min       -9
_diffrn_reflns_number            2311
_diffrn_reflns_point_group_measured_fraction_full 0.993
_diffrn_reflns_point_group_measured_fraction_max 0.872
_diffrn_reflns_theta_full        25.000
_diffrn_reflns_theta_max         29.119
_diffrn_reflns_theta_min         4.691
_diffrn_source                   'Enhance (Mo) X-ray Source'
_exptl_absorpt_coefficient_mu    0.106
_exptl_absorpt_correction_T_max  1.00000
_exptl_absorpt_correction_T_min  0.55196
_exptl_absorpt_correction_type   multi-scan
_exptl_absorpt_process_details
;
CrysAlisPro, Agilent Technologies,
Version 1.171.36.21 (release 14-08-2012 CrysAlis171 .NET)
(compiled Sep 14 2012,17:21:16)
Empirical absorption correction using spherical harmonics,
 implemented in SCALE3 ABSPACK scaling algorithm.
;
_exptl_crystal_colour            colourless
_exptl_crystal_colour_primary    colourless
_exptl_crystal_density_diffrn    1.310
_exptl_crystal_description       block
_exptl_crystal_F_000             88
_exptl_crystal_size_max          0.48
_exptl_crystal_size_mid          0.38
_exptl_crystal_size_min          0.06
_refine_diff_density_max         0.284
_refine_diff_density_min         -0.250
_refine_diff_density_rms         0.055
_refine_ls_extinction_method     none
_refine_ls_goodness_of_fit_ref   1.065
_refine_ls_hydrogen_treatment    mixed
_refine_ls_matrix_type           full
_refine_ls_number_parameters     60
_refine_ls_number_reflns         996
_refine_ls_number_restraints     0
_refine_ls_restrained_S_all      1.065
_refine_ls_R_factor_all          0.1055
_refine_ls_R_factor_gt           0.0640
_refine_ls_shift/su_max          0.000
_refine_ls_shift/su_mean         0.000
_refine_ls_structure_factor_coef Fsqd
_refine_ls_weighting_details
'w=1/[\s^2^(Fo^2^)+(0.0958P)^2^+0.0061P] where P=(Fo^2^+2Fc^2^)/3'
_refine_ls_weighting_scheme      calc
_refine_ls_wR_factor_gt          0.1663
_refine_ls_wR_factor_ref         0.2136
_reflns_Friedel_coverage         0.000
_reflns_number_gt                572
_reflns_number_total             996
_reflns_threshold_expression     'I > 2\s(I)'
_cod_data_source_file            c5nj00196j2.cif
_cod_data_source_block           0D-190
_cod_depositor_comments
'Adding full bibliography for 7054714--7054724.cif.'
_cod_original_cell_volume        213.14(9)
_cod_database_code               7054716
#BEGIN Tags that were not found in dictionaries:
_shelxl_version_number           2014/6
_shelx_space_group_comment
;
The symmetry employed for this shelxl refinement is uniquely defined
by the following loop, which should always be used as a source of
symmetry information in preference to the above space-group names.
They are only intended as comments.
;
_shelx_estimated_absorpt_t_max   0.994
_shelx_estimated_absorpt_t_min   0.951
#END Tags that were not found in dictionaries
loop_
_space_group_symop_operation_xyz
'x, y, z'
'-x, -y, -z'
loop_
_atom_site_label
_atom_site_type_symbol
_atom_site_fract_x
_atom_site_fract_y
_atom_site_fract_z
_atom_site_U_iso_or_equiv
_atom_site_adp_type
_atom_site_occupancy
_atom_site_site_symmetry_order
_atom_site_calc_flag
_atom_site_refinement_flags_posn
O1 O -0.2171(4) 0.0990(3) -0.0907(3) 0.0563(7) Uani 1 1 d .
O2 O -0.2536(4) 0.2139(3) 0.2414(3) 0.0594(7) Uani 1 1 d .
C4 C 0.6860(5) 0.7348(4) 0.3551(4) 0.0559(8) Uani 1 1 d .
H4A H 0.6775 0.8632 0.4724 0.084 Uiso 1 1 calc GR
H4B H 0.7457 0.7794 0.2476 0.084 Uiso 1 1 calc GR
H4C H 0.8263 0.6849 0.4081 0.084 Uiso 1 1 calc GR
C3 C 0.4012(5) 0.5514(4) 0.2612(4) 0.0475(7) Uani 1 1 d .
C1 C -0.1183(5) 0.2268(4) 0.1032(4) 0.0458(7) Uani 1 1 d .
C2 C 0.1681(5) 0.4032(4) 0.1860(4) 0.0505(7) Uani 1 1 d .
H2 H -0.445(11) 0.086(8) 0.169(7) 0.17(2) Uiso 1 1 d .
loop_
_atom_site_aniso_label
_atom_site_aniso_U_11
_atom_site_aniso_U_22
_atom_site_aniso_U_33
_atom_site_aniso_U_23
_atom_site_aniso_U_13
_atom_site_aniso_U_12
O1 0.0445(10) 0.0550(12) 0.0531(11) 0.0220(9) 0.0100(8) 0.0034(9)
O2 0.0393(10) 0.0647(13) 0.0582(12) 0.0228(10) 0.0143(9) 0.0065(9)
C4 0.0409(14) 0.0503(16) 0.0584(16) 0.0216(14) 0.0089(12) 0.0009(11)
C3 0.0397(13) 0.0449(14) 0.0514(15) 0.0206(12) 0.0128(11) 0.0099(11)
C1 0.0352(12) 0.0455(14) 0.0584(16) 0.0265(12) 0.0142(11) 0.0133(10)
C2 0.0409(13) 0.0484(16) 0.0578(15) 0.0235(13) 0.0141(12) 0.0124(12)
loop_
_atom_type_symbol
_atom_type_description
_atom_type_scat_dispersion_real
_atom_type_scat_dispersion_imag
_atom_type_scat_source
C C 0.0033 0.0016 'International Tables Vol C Tables 4.2.6.8 and 6.1.1.4'
H H 0.0000 0.0000 'International Tables Vol C Tables 4.2.6.8 and 6.1.1.4'
O O 0.0106 0.0060 'International Tables Vol C Tables 4.2.6.8 and 6.1.1.4'
loop_
_geom_angle_atom_site_label_1
_geom_angle_atom_site_label_2
_geom_angle_atom_site_label_3
_geom_angle
C1 O2 H2 109(3)
H4A C4 H4B 109.5
H4A C4 H4C 109.5
H4B C4 H4C 109.5
C3 C4 H4A 109.5
C3 C4 H4B 109.5
C3 C4 H4C 109.5
C2 C3 C4 179.4(3)
O1 C1 O2 124.4(2)
O1 C1 C2 120.1(2)
O2 C1 C2 115.5(2)
C3 C2 C1 177.5(3)
loop_
_geom_bond_atom_site_label_1
_geom_bond_atom_site_label_2
_geom_bond_distance
O1 C1 1.248(3)
O2 C1 1.281(3)
O2 H2 0.99(5)
C4 H4A 0.9800
C4 H4B 0.9800
C4 H4C 0.9800
C4 C3 1.459(3)
C3 C2 1.189(3)
C1 C2 1.447(3)
