#------------------------------------------------------------------------------
#$Date: 2016-03-26 00:48:51 +0200 (Sat, 26 Mar 2016) $
#$Revision: 180097 $
#$URL: svn://www.crystallography.net/cod/cif/7/05/43/7054397.cif $
#------------------------------------------------------------------------------
#
# This file is available in the Crystallography Open Database (COD),
# http://www.crystallography.net/
#
# All data on this site have been placed in the public domain by the
# contributors.
#
data_7054397
loop_
_publ_author_name
'Palmer, Joshua H.'
'Parkin, Gerard'
_publ_section_title
;
 Synthesis and Structural Characterization of 1-Arylimidazole-2-thiones
 and N,N'-Aryldiethoxyethylthioureas with Electronically Diverse
 Substituents: A Manifold of Hydrogen Bonding Networks.
;
_journal_issue                   9
_journal_name_full
'New journal of chemistry = Nouveau journal de chimie'
_journal_page_first              4071
_journal_page_last               4082
_journal_paper_doi               10.1039/C4NJ00521J
_journal_volume                  38
_journal_year                    2014
_chemical_formula_sum            'C9 H5 Cl3 N2 S'
_chemical_formula_weight         279.56
_chemical_name_systematic
; 
 ? 
;
_space_group_IT_number           14
_symmetry_cell_setting           monoclinic
_symmetry_space_group_name_Hall  '-P 2ybc'
_symmetry_space_group_name_H-M   'P 1 21/c 1'
_atom_sites_solution_hydrogens   geom
_atom_sites_solution_primary     direct
_atom_sites_solution_secondary   difmap
_audit_creation_method           SHELXL-97
_cell_angle_alpha                90.00
_cell_angle_beta                 91.0376(14)
_cell_angle_gamma                90.00
_cell_formula_units_Z            4
_cell_length_a                   7.4408(8)
_cell_length_b                   20.454(2)
_cell_length_c                   7.1759(8)
_cell_measurement_reflns_used    9946
_cell_measurement_temperature    130(2)
_cell_measurement_theta_max      32.95
_cell_measurement_theta_min      2.74
_cell_volume                     1092.0(2)
_computing_cell_refinement       'Bruker SAINT'
_computing_data_collection       'Bruker APEX2'
_computing_data_reduction        'Bruker SAINT'
_computing_molecular_graphics    'Bruker SHELXTL'
_computing_publication_material  'Bruker SHELXTL'
_computing_structure_refinement  'SHELXL-97 (Sheldrick, 2008)'
_computing_structure_solution    'SHELXS-97 (Sheldrick, 2008)'
_diffrn_ambient_temperature      130(2)
_diffrn_measured_fraction_theta_full 0.999
_diffrn_measured_fraction_theta_max 0.999
_diffrn_measurement_device_type  'Bruker APEX-II CCD'
_diffrn_measurement_method       '\f and \w scans'
_diffrn_radiation_monochromator  graphite
_diffrn_radiation_source         'fine-focus sealed tube'
_diffrn_radiation_type           MoK\a
_diffrn_radiation_wavelength     0.71073
_diffrn_reflns_av_R_equivalents  0.0327
_diffrn_reflns_av_sigmaI/netI    0.0197
_diffrn_reflns_limit_h_max       10
_diffrn_reflns_limit_h_min       -10
_diffrn_reflns_limit_k_max       29
_diffrn_reflns_limit_k_min       -29
_diffrn_reflns_limit_l_max       10
_diffrn_reflns_limit_l_min       -10
_diffrn_reflns_number            17407
_diffrn_reflns_theta_full        30.51
_diffrn_reflns_theta_max         30.51
_diffrn_reflns_theta_min         1.99
_exptl_absorpt_coefficient_mu    0.993
_exptl_absorpt_correction_T_max  0.8734
_exptl_absorpt_correction_T_min  0.5601
_exptl_absorpt_correction_type   empirical
_exptl_absorpt_process_details   sadabs
_exptl_crystal_colour            colourless
_exptl_crystal_density_diffrn    1.701
_exptl_crystal_density_method    'not measured'
_exptl_crystal_description       plate
_exptl_crystal_F_000             560
_exptl_crystal_size_max          0.66
_exptl_crystal_size_mid          0.45
_exptl_crystal_size_min          0.14
_refine_diff_density_max         0.556
_refine_diff_density_min         -0.390
_refine_diff_density_rms         0.069
_refine_ls_extinction_method     none
_refine_ls_goodness_of_fit_ref   1.128
_refine_ls_hydrogen_treatment    mixed
_refine_ls_matrix_type           full
_refine_ls_number_parameters     139
_refine_ls_number_reflns         3337
_refine_ls_number_restraints     0
_refine_ls_restrained_S_all      1.128
_refine_ls_R_factor_all          0.0283
_refine_ls_R_factor_gt           0.0276
_refine_ls_shift/su_max          0.002
_refine_ls_shift/su_mean         0.000
_refine_ls_structure_factor_coef Fsqd
_refine_ls_weighting_details
'calc w=1/[\s^2^(Fo^2^)+(0.0305P)^2^+0.6285P] where P=(Fo^2^+2Fc^2^)/3'
_refine_ls_weighting_scheme      calc
_refine_ls_wR_factor_gt          0.0722
_refine_ls_wR_factor_ref         0.0728
_reflns_number_gt                3242
_reflns_number_total             3337
_reflns_threshold_expression     >2sigma(I)
_cod_duplicate_entry             7054265
_cod_data_source_file            c4nj00521j2.cif
_cod_data_source_block           hmimcl3
_cod_depositor_comments
;
The following automatic conversions were performed:

'_symmetry_cell_setting' value 'Monoclinic' changed to 'monoclinic'
according to
/usr/data/users/saulius/crontab/automatic-downloads/current/RSC/lib/dictionaries/cif_core.dic
dictionary named 'cif_core.dic' version 2.4.2 from 2011-04-26.

Automatic conversion script
Id: cif_fix_values 2281 2013-09-26 08:29:07Z andrius 

 Adding full bibliography for 7054264--7054403.cif.
;
_cod_original_cell_volume        1091.9(2)
_cod_original_sg_symbol_H-M      P2(1)/c
_cod_database_code               7054397
loop_
_symmetry_equiv_pos_as_xyz
'x, y, z'
'-x, y+1/2, -z+1/2'
'-x, -y, -z'
'x, -y-1/2, z-1/2'
loop_
_atom_site_label
_atom_site_type_symbol
_atom_site_fract_x
_atom_site_fract_y
_atom_site_fract_z
_atom_site_U_iso_or_equiv
_atom_site_adp_type
_atom_site_occupancy
_atom_site_symmetry_multiplicity
_atom_site_calc_flag
_atom_site_refinement_flags
S S 0.83964(4) 0.593811(16) 0.45724(4) 0.02130(8) Uani 1 1 d .
Cl1 Cl 0.33309(4) 0.564151(15) 0.64757(4) 0.02121(8) Uani 1 1 d .
Cl2 Cl 0.27082(5) 0.825475(17) 0.71431(5) 0.02896(9) Uani 1 1 d .
Cl3 Cl 0.88152(4) 0.705261(17) 0.93391(5) 0.02567(8) Uani 1 1 d .
N1 N 0.86919(14) 0.50214(5) 0.73565(14) 0.01692(19) Uani 1 1 d .
H1 H 0.941(2) 0.4783(9) 0.678(3) 0.020 Uiso 1 1 d .
N2 N 0.69870(13) 0.58356(5) 0.80428(14) 0.01488(18) Uani 1 1 d .
C1 C 0.80397(15) 0.55897(6) 0.66660(16) 0.0150(2) Uani 1 1 d .
C2 C 0.80571(17) 0.49064(6) 0.91283(17) 0.0183(2) Uani 1 1 d .
H2A H 0.8322 0.4538 0.9889 0.022 Uiso 1 1 calc R
C3 C 0.69939(16) 0.54148(6) 0.95745(17) 0.0180(2) Uani 1 1 d .
H3A H 0.6373 0.5475 1.0707 0.022 Uiso 1 1 calc R
C4 C 0.59600(15) 0.64158(6) 0.78545(15) 0.01432(19) Uani 1 1 d .
C5 C 0.42077(15) 0.63899(6) 0.71304(16) 0.0153(2) Uani 1 1 d .
C6 C 0.31728(16) 0.69519(6) 0.69251(16) 0.0175(2) Uani 1 1 d .
H6A H 0.1974 0.6932 0.6450 0.021 Uiso 1 1 calc R
C7 C 0.39498(17) 0.75430(6) 0.74376(17) 0.0179(2) Uani 1 1 d .
C8 C 0.56853(17) 0.75923(6) 0.81743(17) 0.0185(2) Uani 1 1 d .
H8A H 0.6179 0.8004 0.8522 0.022 Uiso 1 1 calc R
C9 C 0.66728(15) 0.70201(6) 0.83851(17) 0.0165(2) Uani 1 1 d .
loop_
_atom_site_aniso_label
_atom_site_aniso_U_11
_atom_site_aniso_U_22
_atom_site_aniso_U_33
_atom_site_aniso_U_23
_atom_site_aniso_U_13
_atom_site_aniso_U_12
S 0.02657(16) 0.02095(15) 0.01657(14) 0.00385(10) 0.00579(11) 0.01054(11)
Cl1 0.02157(14) 0.01934(14) 0.02253(14) -0.00069(10) -0.00436(10) -0.00569(10)
Cl2 0.03798(19) 0.02316(16) 0.02555(16) -0.00192(11) -0.00447(13) 0.01497(13)
Cl3 0.01555(13) 0.02638(16) 0.03489(18) -0.00886(12) -0.00509(11) -0.00164(10)
N1 0.0184(4) 0.0160(4) 0.0164(4) -0.0001(3) 0.0006(4) 0.0040(3)
N2 0.0153(4) 0.0151(4) 0.0142(4) -0.0013(3) 0.0009(3) 0.0019(3)
C1 0.0153(5) 0.0152(5) 0.0144(5) -0.0011(4) -0.0002(4) 0.0023(4)
C2 0.0202(5) 0.0177(5) 0.0171(5) 0.0019(4) -0.0006(4) 0.0003(4)
C3 0.0186(5) 0.0200(5) 0.0154(5) 0.0011(4) 0.0011(4) -0.0006(4)
C4 0.0142(5) 0.0146(5) 0.0142(5) -0.0024(4) 0.0013(4) 0.0014(4)
C5 0.0159(5) 0.0163(5) 0.0137(5) -0.0011(4) 0.0011(4) -0.0016(4)
C6 0.0156(5) 0.0223(6) 0.0145(5) 0.0004(4) 0.0006(4) 0.0026(4)
C7 0.0212(5) 0.0178(5) 0.0147(5) -0.0007(4) 0.0025(4) 0.0064(4)
C8 0.0221(5) 0.0159(5) 0.0176(5) -0.0034(4) 0.0020(4) 0.0003(4)
C9 0.0136(5) 0.0185(5) 0.0174(5) -0.0039(4) 0.0008(4) -0.0008(4)
loop_
_atom_type_symbol
_atom_type_description
_atom_type_scat_dispersion_real
_atom_type_scat_dispersion_imag
_atom_type_scat_source
C C 0.0033 0.0016 'International Tables Vol C Tables 4.2.6.8 and 6.1.1.4'
H H 0.0000 0.0000 'International Tables Vol C Tables 4.2.6.8 and 6.1.1.4'
N N 0.0061 0.0033 'International Tables Vol C Tables 4.2.6.8 and 6.1.1.4'
S S 0.1246 0.1234 'International Tables Vol C Tables 4.2.6.8 and 6.1.1.4'
Cl Cl 0.1484 0.1585 'International Tables Vol C Tables 4.2.6.8 and 6.1.1.4'
loop_
_geom_angle_atom_site_label_1
_geom_angle_atom_site_label_2
_geom_angle_atom_site_label_3
_geom_angle
C1 N1 C2 110.90(10)
C1 N2 C3 110.36(10)
C1 N2 C4 123.66(10)
C3 N2 C4 125.87(10)
N1 C1 N2 104.96(10)
N1 C1 S 128.95(9)
N2 C1 S 126.08(9)
C3 C2 N1 107.37(10)
C2 C3 N2 106.40(10)
C9 C4 C5 118.89(10)
C9 C4 N2 120.95(10)
C5 C4 N2 120.16(10)
C6 C5 C4 121.34(11)
C6 C5 Cl1 119.91(9)
C4 C5 Cl1 118.75(9)
C7 C6 C5 117.73(11)
C6 C7 C8 122.95(11)
C6 C7 Cl2 118.73(10)
C8 C7 Cl2 118.32(10)
C9 C8 C7 117.80(11)
C8 C9 C4 121.27(11)
C8 C9 Cl3 119.61(9)
C4 C9 Cl3 119.12(9)
loop_
_geom_bond_atom_site_label_1
_geom_bond_atom_site_label_2
_geom_bond_distance
S C1 1.6881(12)
Cl1 C5 1.7258(12)
Cl2 C7 1.7351(12)
Cl3 C9 1.7247(12)
N1 C1 1.3505(15)
N1 C2 1.3845(16)
N2 C1 1.3677(14)
N2 C3 1.3961(15)
N2 C4 1.4166(14)
C2 C3 1.3485(17)
C4 C9 1.3952(16)
C4 C5 1.3958(15)
C5 C6 1.3899(16)
C6 C7 1.3870(17)
C7 C8 1.3901(18)
C8 C9 1.3888(17)
loop_
_geom_hbond_atom_site_label_D
_geom_hbond_atom_site_label_H
_geom_hbond_atom_site_label_A
_geom_hbond_distance_DH
_geom_hbond_distance_HA
_geom_hbond_distance_DA
_geom_hbond_angle_DHA
_geom_hbond_site_symmetry_A
N1 H1 S 0.842(19) 2.413(19) 3.2511(11) 174.1(17) 3_766
