#------------------------------------------------------------------------------
#$Date: 2016-03-26 00:53:55 +0200 (Sat, 26 Mar 2016) $
#$Revision: 180101 $
#$URL: svn://www.crystallography.net/cod/cif/7/05/47/7054720.cif $
#------------------------------------------------------------------------------
#
# This file is available in the Crystallography Open Database (COD),
# http://www.crystallography.net/
#
# All data on this site have been placed in the public domain by the
# contributors.
#
data_7054720
loop_
_publ_author_name
'Saraswatula, Viswanadha G.'
'Bhattacharya, Suman'
'Saha, Binoy K.'
_publ_section_title
;
 Can the thermal expansion be controlled by varying the hydrogen bond
 dimensionality in polymorphs?
;
_journal_issue                   5
_journal_name_full               'New J. Chem.'
_journal_page_first              3345
_journal_paper_doi               10.1039/C5NJ00196J
_journal_volume                  39
_journal_year                    2015
_chemical_formula_moiety         'C4 H4 O2'
_chemical_formula_sum            'C4 H4 O2'
_chemical_formula_weight         84.07
_chemical_name_common            1D-154
_chemical_name_systematic        'But-2-ynoic acid'
_space_group_crystal_system      monoclinic
_space_group_IT_number           4
_space_group_name_Hall           'P 2yb'
_space_group_name_H-M_alt        'P 1 21 1'
_symmetry_space_group_name_Hall  'P 2yb'
_symmetry_space_group_name_H-M   'P 1 21 1'
_atom_sites_solution_hydrogens   mixed
_atom_sites_solution_primary     direct
_audit_creation_date             2014-11-21
_audit_creation_method
;
Olex2 1.2
(compiled 2014.08.28 svn.r2986 for OlexSys, GUI svn.r4874)
;
_audit_update_record
;
2014-12-18 deposited with the CCDC.
2015-03-06 downloaded from the CCDC.
;
_cell_angle_alpha                90
_cell_angle_beta                 100.862(12)
_cell_angle_gamma                90
_cell_formula_units_Z            2
_cell_length_a                   3.8518(5)
_cell_length_b                   7.0956(5)
_cell_length_c                   7.7924(9)
_cell_measurement_reflns_used    462
_cell_measurement_temperature    154(2)
_cell_measurement_theta_max      28.4910
_cell_measurement_theta_min      5.3400
_cell_volume                     209.16(4)
_computing_cell_refinement
;
CrysAlisPro, Agilent Technologies,
Version 1.171.37.31 (release 14-01-2014 CrysAlis171 .NET)
(compiled Jan 14 2014,18:38:05)
;
_computing_data_collection
;
CrysAlisPro, Agilent Technologies,
Version 1.171.37.31 (release 14-01-2014 CrysAlis171 .NET)
(compiled Jan 14 2014,18:38:05)
;
_computing_data_reduction
;
CrysAlisPro, Agilent Technologies,
Version 1.171.37.31 (release 14-01-2014 CrysAlis171 .NET)
(compiled Jan 14 2014,18:38:05)
;
_computing_molecular_graphics    'Olex2 (Dolomanov et al., 2009)'
_computing_publication_material  'Olex2 (Dolomanov et al., 2009)'
_computing_structure_refinement  'ShelXL (Sheldrick, 2008)'
_computing_structure_solution    'ShelXS (Sheldrick, 2008)'
_diffrn_ambient_environment      N~2~
_diffrn_ambient_temperature      154(2)
_diffrn_detector                 'CCD plate'
_diffrn_detector_area_resol_mean 15.9821
_diffrn_detector_type            Eos
_diffrn_measured_fraction_theta_full 0.993
_diffrn_measured_fraction_theta_max 0.922
_diffrn_measurement_details
;
  1 omega  -12.00   22.00   1.0000    6.0000
omega____ theta____ kappa____ phi______ frames
    -      -17.3397  -99.0000 -150.0000 34

  2 omega    9.00   82.00   1.0000    6.0000
omega____ theta____ kappa____ phi______ frames
    -       19.1366   57.0000 -150.0000 73

  3 omega  -48.00   41.00   1.0000    6.0000
omega____ theta____ kappa____ phi______ frames
    -       19.1366  -77.0000   60.0000 89

  4 omega  -61.00   47.00   1.0000    6.0000
omega____ theta____ kappa____ phi______ frames
    -      -17.3397   19.0000 -120.0000 108
;
_diffrn_measurement_device       'four-circle diffractometer'
_diffrn_measurement_device_type  'Xcalibur, Eos'
_diffrn_measurement_method       '\w scans'
_diffrn_orient_matrix_UB_11      0.0513130000
_diffrn_orient_matrix_UB_12      -0.0961149000
_diffrn_orient_matrix_UB_13      0.0062804000
_diffrn_orient_matrix_UB_21      0.1797571000
_diffrn_orient_matrix_UB_22      0.0271117000
_diffrn_orient_matrix_UB_23      0.0087549000
_diffrn_orient_matrix_UB_31      0.0151451000
_diffrn_orient_matrix_UB_32      0.0039571000
_diffrn_orient_matrix_UB_33      0.0920683000
_diffrn_radiation_monochromator  graphite
_diffrn_radiation_probe          x-ray
_diffrn_radiation_type           MoK\a
_diffrn_radiation_wavelength     0.71073
_diffrn_reflns_av_R_equivalents  0.0218
_diffrn_reflns_av_unetI/netI     0.0465
_diffrn_reflns_Laue_measured_fraction_full 0.993
_diffrn_reflns_Laue_measured_fraction_max 0.922
_diffrn_reflns_limit_h_max       5
_diffrn_reflns_limit_h_min       -4
_diffrn_reflns_limit_k_max       9
_diffrn_reflns_limit_k_min       -9
_diffrn_reflns_limit_l_max       9
_diffrn_reflns_limit_l_min       -10
_diffrn_reflns_number            1275
_diffrn_reflns_point_group_measured_fraction_full 0.946
_diffrn_reflns_point_group_measured_fraction_max 0.832
_diffrn_reflns_theta_full        25.000
_diffrn_reflns_theta_max         28.597
_diffrn_reflns_theta_min         5.329
_diffrn_source                   'Enhance (Mo) X-ray Source'
_exptl_absorpt_coefficient_mu    0.109
_exptl_absorpt_correction_T_max  1.00000
_exptl_absorpt_correction_T_min  0.66247
_exptl_absorpt_correction_type   multi-scan
_exptl_absorpt_process_details
;
CrysAlisPro, Agilent Technologies,
Version 1.171.37.31 (release 14-01-2014 CrysAlis171 .NET)
(compiled Jan 14 2014,18:38:05)
Empirical absorption correction using spherical harmonics,
 implemented in SCALE3 ABSPACK scaling algorithm.
;
_exptl_crystal_colour            colourless
_exptl_crystal_colour_primary    colourless
_exptl_crystal_density_diffrn    1.335
_exptl_crystal_description       block
_exptl_crystal_F_000             88
_exptl_crystal_size_max          0.36
_exptl_crystal_size_mid          0.28
_exptl_crystal_size_min          0.22
_refine_diff_density_max         0.153
_refine_diff_density_min         -0.267
_refine_diff_density_rms         0.049
_refine_ls_abs_structure_details
;
 Flack x determined using 291 quotients [(I+)-(I-)]/[(I+)+(I-)]
 (Parsons, Flack and Wagner, Acta Cryst. B69 (2013) 249-259).
;
_refine_ls_abs_structure_Flack   -0.1(10)
_refine_ls_extinction_method     none
_refine_ls_goodness_of_fit_ref   1.086
_refine_ls_hydrogen_treatment    mixed
_refine_ls_matrix_type           full
_refine_ls_number_parameters     60
_refine_ls_number_reflns         894
_refine_ls_number_restraints     1
_refine_ls_restrained_S_all      1.085
_refine_ls_R_factor_all          0.0526
_refine_ls_R_factor_gt           0.0426
_refine_ls_shift/su_max          0.000
_refine_ls_shift/su_mean         0.000
_refine_ls_structure_factor_coef Fsqd
_refine_ls_weighting_details
'w=1/[\s^2^(Fo^2^)+(0.0413P)^2^+0.0168P] where P=(Fo^2^+2Fc^2^)/3'
_refine_ls_weighting_scheme      calc
_refine_ls_wR_factor_gt          0.0944
_refine_ls_wR_factor_ref         0.1019
_reflns_Friedel_coverage         0.671
_reflns_Friedel_fraction_full    0.891
_reflns_Friedel_fraction_max     0.725
_reflns_number_gt                764
_reflns_number_total             894
_reflns_threshold_expression     'I > 2\s(I)'
_cod_data_source_file            c5nj00196j2.cif
_cod_data_source_block           1D-154
_cod_depositor_comments
'Adding full bibliography for 7054714--7054724.cif.'
_cod_database_code               7054720
#BEGIN Tags that were not found in dictionaries:
_shelxl_version_number           2014/6
_shelx_space_group_comment
;
The symmetry employed for this shelxl refinement is uniquely defined
by the following loop, which should always be used as a source of
symmetry information in preference to the above space-group names.
They are only intended as comments.
;
_shelx_estimated_absorpt_t_max   0.977
_shelx_estimated_absorpt_t_min   0.962
#END Tags that were not found in dictionaries
loop_
_space_group_symop_operation_xyz
'x, y, z'
'-x, y+1/2, -z'
loop_
_atom_site_label
_atom_site_type_symbol
_atom_site_fract_x
_atom_site_fract_y
_atom_site_fract_z
_atom_site_U_iso_or_equiv
_atom_site_adp_type
_atom_site_occupancy
_atom_site_site_symmetry_order
_atom_site_calc_flag
_atom_site_refinement_flags_posn
C4 C 0.0613(10) 0.2995(5) 0.9075(4) 0.0356(8) Uani 1 1 d .
H4A H -0.0282 0.3503 1.0078 0.053 Uiso 1 1 calc GR
H4B H 0.2660 0.2186 0.9492 0.053 Uiso 1 1 calc GR
H4C H -0.1247 0.2256 0.8342 0.053 Uiso 1 1 calc GR
C3 C 0.1656(8) 0.4530(4) 0.8063(4) 0.0278(7) Uani 1 1 d .
C1 C 0.3624(9) 0.7238(4) 0.6150(4) 0.0295(7) Uani 1 1 d .
O1 O 0.4681(7) 0.6936(3) 0.4818(3) 0.0355(6) Uani 1 1 d .
C2 C 0.2536(8) 0.5786(5) 0.7233(4) 0.0301(7) Uani 1 1 d .
O2 O 0.3378(7) 0.8948(3) 0.6790(3) 0.0400(7) Uani 1 1 d .
H2 H 0.419(11) 0.973(6) 0.608(6) 0.071(15) Uiso 1 1 d .
loop_
_atom_site_aniso_label
_atom_site_aniso_U_11
_atom_site_aniso_U_22
_atom_site_aniso_U_33
_atom_site_aniso_U_23
_atom_site_aniso_U_13
_atom_site_aniso_U_12
C4 0.043(2) 0.0277(16) 0.037(2) 0.0066(14) 0.0107(15) -0.0002(15)
C3 0.0297(16) 0.0256(15) 0.0289(15) -0.0010(12) 0.0075(12) 0.0021(13)
C1 0.0359(19) 0.0217(16) 0.0312(16) 0.0034(14) 0.0070(13) 0.0023(15)
O1 0.0564(15) 0.0232(11) 0.0317(12) 0.0025(11) 0.0204(10) 0.0027(12)
C2 0.0349(17) 0.0227(14) 0.0342(16) -0.0008(13) 0.0101(13) 0.0002(13)
O2 0.0676(18) 0.0214(10) 0.0359(13) 0.0002(11) 0.0222(12) 0.0002(12)
loop_
_atom_type_symbol
_atom_type_description
_atom_type_scat_dispersion_real
_atom_type_scat_dispersion_imag
_atom_type_scat_source
C C 0.0033 0.0016 'International Tables Vol C Tables 4.2.6.8 and 6.1.1.4'
H H 0.0000 0.0000 'International Tables Vol C Tables 4.2.6.8 and 6.1.1.4'
O O 0.0106 0.0060 'International Tables Vol C Tables 4.2.6.8 and 6.1.1.4'
loop_
_geom_angle_atom_site_label_1
_geom_angle_atom_site_label_2
_geom_angle_atom_site_label_3
_geom_angle
H4A C4 H4B 109.5
H4A C4 H4C 109.5
H4B C4 H4C 109.5
C3 C4 H4A 109.5
C3 C4 H4B 109.5
C3 C4 H4C 109.5
C2 C3 C4 179.5(3)
O1 C1 C2 124.0(3)
O1 C1 O2 123.3(3)
O2 C1 C2 112.7(3)
C3 C2 C1 176.9(3)
C1 O2 H2 106(3)
loop_
_geom_bond_atom_site_label_1
_geom_bond_atom_site_label_2
_geom_bond_distance
C4 H4A 0.9800
C4 H4B 0.9800
C4 H4C 0.9800
C4 C3 1.446(4)
C3 C2 1.187(4)
C1 O1 1.203(4)
C1 C2 1.444(5)
C1 O2 1.322(4)
O2 H2 0.88(4)
