#------------------------------------------------------------------------------
#$Date: 2016-03-26 00:53:55 +0200 (Sat, 26 Mar 2016) $
#$Revision: 180101 $
#$URL: svn://www.crystallography.net/cod/cif/7/05/47/7054723.cif $
#------------------------------------------------------------------------------
#
# This file is available in the Crystallography Open Database (COD),
# http://www.crystallography.net/
#
# All data on this site have been placed in the public domain by the
# contributors.
#
data_7054723
loop_
_publ_author_name
'Saraswatula, Viswanadha G.'
'Bhattacharya, Suman'
'Saha, Binoy K.'
_publ_section_title
;
 Can the thermal expansion be controlled by varying the hydrogen bond
 dimensionality in polymorphs?
;
_journal_issue                   5
_journal_name_full               'New J. Chem.'
_journal_page_first              3345
_journal_paper_doi               10.1039/C5NJ00196J
_journal_volume                  39
_journal_year                    2015
_chemical_formula_moiety         'C4 H4 O2'
_chemical_formula_sum            'C4 H4 O2'
_chemical_formula_weight         84.07
_chemical_name_common            1D-262
_chemical_name_systematic        'But-2-ynoic acid'
_space_group_crystal_system      monoclinic
_space_group_IT_number           4
_space_group_name_Hall           'P 2yb'
_space_group_name_H-M_alt        'P 1 21 1'
_symmetry_space_group_name_Hall  'P 2yb'
_symmetry_space_group_name_H-M   'P 1 21 1'
_atom_sites_solution_hydrogens   mixed
_atom_sites_solution_primary     direct
_audit_creation_date             2014-11-21
_audit_creation_method
;
Olex2 1.2
(compiled 2014.08.28 svn.r2986 for OlexSys, GUI svn.r4874)
;
_audit_update_record
;
2014-12-18 deposited with the CCDC.
2015-03-06 downloaded from the CCDC.
;
_cell_angle_alpha                90
_cell_angle_beta                 100.422(16)
_cell_angle_gamma                90
_cell_formula_units_Z            2
_cell_length_a                   3.9127(7)
_cell_length_b                   7.1074(8)
_cell_length_c                   7.8489(11)
_cell_measurement_reflns_used    333
_cell_measurement_temperature    262(2)
_cell_measurement_theta_max      25.4400
_cell_measurement_theta_min      5.2960
_cell_volume                     214.67(6)
_computing_cell_refinement
;
CrysAlisPro, Agilent Technologies,
Version 1.171.37.31 (release 14-01-2014 CrysAlis171 .NET)
(compiled Jan 14 2014,18:38:05)
;
_computing_data_collection
;
CrysAlisPro, Agilent Technologies,
Version 1.171.37.31 (release 14-01-2014 CrysAlis171 .NET)
(compiled Jan 14 2014,18:38:05)
;
_computing_data_reduction
;
CrysAlisPro, Agilent Technologies,
Version 1.171.37.31 (release 14-01-2014 CrysAlis171 .NET)
(compiled Jan 14 2014,18:38:05)
;
_computing_molecular_graphics    'Olex2 (Dolomanov et al., 2009)'
_computing_publication_material  'Olex2 (Dolomanov et al., 2009)'
_computing_structure_refinement  'ShelXL (Sheldrick, 2008)'
_computing_structure_solution    'ShelXS (Sheldrick, 2008)'
_diffrn_ambient_environment      N~2~
_diffrn_ambient_temperature      262(2)
_diffrn_detector                 'CCD plate'
_diffrn_detector_area_resol_mean 15.9821
_diffrn_detector_type            Eos
_diffrn_measured_fraction_theta_full 0.993
_diffrn_measured_fraction_theta_max 0.905
_diffrn_measurement_details
;
  1 omega  -14.00   22.00   1.0000    7.0000
omega____ theta____ kappa____ phi______ frames
    -      -17.3397  -99.0000 -150.0000 36

  2 omega  -44.00   41.00   1.0000    7.0000
omega____ theta____ kappa____ phi______ frames
    -      -17.3397   77.0000   90.0000 85

  3 omega  -44.00   41.00   1.0000    7.0000
omega____ theta____ kappa____ phi______ frames
    -       19.2147  -57.0000  -60.0000 85

  4 omega  -86.00    4.00   1.0000    7.0000
omega____ theta____ kappa____ phi______ frames
    -      -17.3397  -57.0000  -30.0000 90
;
_diffrn_measurement_device       'four-circle diffractometer'
_diffrn_measurement_device_type  'Xcalibur, Eos'
_diffrn_measurement_method       '\w scans'
_diffrn_orient_matrix_UB_11      0.0496039000
_diffrn_orient_matrix_UB_12      -0.0961659000
_diffrn_orient_matrix_UB_13      0.0055306000
_diffrn_orient_matrix_UB_21      0.1771061000
_diffrn_orient_matrix_UB_22      0.0267043000
_diffrn_orient_matrix_UB_23      0.0096703000
_diffrn_orient_matrix_UB_31      0.0117584000
_diffrn_orient_matrix_UB_32      0.0031180000
_diffrn_orient_matrix_UB_33      0.0911636000
_diffrn_radiation_monochromator  graphite
_diffrn_radiation_probe          x-ray
_diffrn_radiation_type           MoK\a
_diffrn_radiation_wavelength     0.71073
_diffrn_reflns_av_R_equivalents  0.0213
_diffrn_reflns_av_unetI/netI     0.0404
_diffrn_reflns_Laue_measured_fraction_full 0.993
_diffrn_reflns_Laue_measured_fraction_max 0.905
_diffrn_reflns_limit_h_max       5
_diffrn_reflns_limit_h_min       -5
_diffrn_reflns_limit_k_max       9
_diffrn_reflns_limit_k_min       -9
_diffrn_reflns_limit_l_max       10
_diffrn_reflns_limit_l_min       -10
_diffrn_reflns_number            1284
_diffrn_reflns_point_group_measured_fraction_full 0.916
_diffrn_reflns_point_group_measured_fraction_max 0.793
_diffrn_reflns_theta_full        25.000
_diffrn_reflns_theta_max         28.673
_diffrn_reflns_theta_min         5.283
_diffrn_source                   'Enhance (Mo) X-ray Source'
_exptl_absorpt_coefficient_mu    0.106
_exptl_absorpt_correction_T_max  1.00000
_exptl_absorpt_correction_T_min  0.46621
_exptl_absorpt_correction_type   multi-scan
_exptl_absorpt_process_details
;
CrysAlisPro, Agilent Technologies,
Version 1.171.37.31 (release 14-01-2014 CrysAlis171 .NET)
(compiled Jan 14 2014,18:38:05)
Empirical absorption correction using spherical harmonics,
 implemented in SCALE3 ABSPACK scaling algorithm.
;
_exptl_crystal_colour            colourless
_exptl_crystal_colour_primary    colourless
_exptl_crystal_density_diffrn    1.301
_exptl_crystal_description       block
_exptl_crystal_F_000             88
_exptl_crystal_size_max          0.36
_exptl_crystal_size_mid          0.28
_exptl_crystal_size_min          0.22
_refine_diff_density_max         0.153
_refine_diff_density_min         -0.181
_refine_diff_density_rms         0.038
_refine_ls_abs_structure_details
;
 Flack x determined using 237 quotients [(I+)-(I-)]/[(I+)+(I-)]
 (Parsons, Flack and Wagner, Acta Cryst. B69 (2013) 249-259).
;
_refine_ls_abs_structure_Flack   0.3(10)
_refine_ls_extinction_method     none
_refine_ls_goodness_of_fit_ref   1.075
_refine_ls_hydrogen_treatment    mixed
_refine_ls_matrix_type           full
_refine_ls_number_parameters     60
_refine_ls_number_reflns         879
_refine_ls_number_restraints     1
_refine_ls_restrained_S_all      1.074
_refine_ls_R_factor_all          0.0679
_refine_ls_R_factor_gt           0.0460
_refine_ls_shift/su_max          0.000
_refine_ls_shift/su_mean         0.000
_refine_ls_structure_factor_coef Fsqd
_refine_ls_weighting_details
'w=1/[\s^2^(Fo^2^)+(0.0562P)^2^+0.0098P] where P=(Fo^2^+2Fc^2^)/3'
_refine_ls_weighting_scheme      calc
_refine_ls_wR_factor_gt          0.1033
_refine_ls_wR_factor_ref         0.1229
_reflns_Friedel_coverage         0.625
_reflns_Friedel_fraction_full    0.825
_reflns_Friedel_fraction_max     0.661
_reflns_number_gt                671
_reflns_number_total             879
_reflns_threshold_expression     'I > 2\s(I)'
_cod_data_source_file            c5nj00196j2.cif
_cod_data_source_block           1D-262
_cod_depositor_comments
'Adding full bibliography for 7054714--7054724.cif.'
_cod_database_code               7054723
#BEGIN Tags that were not found in dictionaries:
_shelxl_version_number           2014/6
_shelx_space_group_comment
;
The symmetry employed for this shelxl refinement is uniquely defined
by the following loop, which should always be used as a source of
symmetry information in preference to the above space-group names.
They are only intended as comments.
;
_shelx_estimated_absorpt_t_max   0.977
_shelx_estimated_absorpt_t_min   0.963
#END Tags that were not found in dictionaries
loop_
_space_group_symop_operation_xyz
'x, y, z'
'-x, y+1/2, -z'
loop_
_atom_site_label
_atom_site_type_symbol
_atom_site_fract_x
_atom_site_fract_y
_atom_site_fract_z
_atom_site_U_iso_or_equiv
_atom_site_adp_type
_atom_site_occupancy
_atom_site_site_symmetry_order
_atom_site_calc_flag
_atom_site_refinement_flags_posn
C4 C 0.0664(11) 0.3011(6) 0.9056(5) 0.0583(11) Uani 1 1 d .
H4A H -0.0093 0.3504 1.0065 0.087 Uiso 1 1 calc GR
H4B H 0.2607 0.2187 0.9406 0.087 Uiso 1 1 calc GR
H4C H -0.1203 0.2325 0.8367 0.087 Uiso 1 1 calc GR
C3 C 0.1689(9) 0.4545(5) 0.8050(5) 0.0447(8) Uani 1 1 d .
C1 C 0.3631(10) 0.7234(5) 0.6155(4) 0.0477(9) Uani 1 1 d .
O1 O 0.4664(8) 0.6926(3) 0.4829(3) 0.0564(8) Uani 1 1 d .
C2 C 0.2532(10) 0.5797(6) 0.7231(5) 0.0468(9) Uani 1 1 d .
O2 O 0.3419(9) 0.8942(4) 0.6786(4) 0.0642(9) Uani 1 1 d .
H2 H 0.409(11) 0.975(7) 0.601(6) 0.079(16) Uiso 1 1 d .
loop_
_atom_site_aniso_label
_atom_site_aniso_U_11
_atom_site_aniso_U_22
_atom_site_aniso_U_33
_atom_site_aniso_U_23
_atom_site_aniso_U_13
_atom_site_aniso_U_12
C4 0.065(3) 0.050(2) 0.061(3) 0.013(2) 0.013(2) -0.001(2)
C3 0.0495(19) 0.0402(19) 0.0448(17) 0.0006(16) 0.0097(15) 0.0035(16)
C1 0.061(2) 0.038(2) 0.0432(17) 0.0027(18) 0.0081(16) 0.005(2)
O1 0.086(2) 0.0393(14) 0.0503(14) 0.0022(14) 0.0297(12) 0.0040(15)
C2 0.055(2) 0.0369(17) 0.0498(18) -0.0005(17) 0.0129(16) 0.0020(17)
O2 0.106(2) 0.0364(13) 0.0563(16) -0.0009(14) 0.0322(16) -0.0005(16)
loop_
_atom_type_symbol
_atom_type_description
_atom_type_scat_dispersion_real
_atom_type_scat_dispersion_imag
_atom_type_scat_source
C C 0.0033 0.0016 'International Tables Vol C Tables 4.2.6.8 and 6.1.1.4'
H H 0.0000 0.0000 'International Tables Vol C Tables 4.2.6.8 and 6.1.1.4'
O O 0.0106 0.0060 'International Tables Vol C Tables 4.2.6.8 and 6.1.1.4'
loop_
_geom_angle_atom_site_label_1
_geom_angle_atom_site_label_2
_geom_angle_atom_site_label_3
_geom_angle
H4A C4 H4B 109.5
H4A C4 H4C 109.5
H4B C4 H4C 109.5
C3 C4 H4A 109.5
C3 C4 H4B 109.5
C3 C4 H4C 109.5
C2 C3 C4 179.9(5)
O1 C1 C2 124.1(4)
O1 C1 O2 123.1(3)
O2 C1 C2 112.8(3)
C3 C2 C1 176.2(4)
C1 O2 H2 107(3)
loop_
_geom_bond_atom_site_label_1
_geom_bond_atom_site_label_2
_geom_bond_distance
C4 H4A 0.9600
C4 H4B 0.9600
C4 H4C 0.9600
C4 C3 1.445(5)
C3 C2 1.179(5)
C1 O1 1.203(4)
C1 C2 1.440(6)
C1 O2 1.319(4)
O2 H2 0.91(5)
