#------------------------------------------------------------------------------
#$Date: 2016-03-26 00:52:43 +0200 (Sat, 26 Mar 2016) $
#$Revision: 180100 $
#$URL: svn://www.crystallography.net/cod/cif/7/05/46/7054682.cif $
#------------------------------------------------------------------------------
#
# This file is available in the Crystallography Open Database (COD),
# http://www.crystallography.net/
#
# All data on this site have been placed in the public domain by the
# contributors.
#
data_7054682
loop_
_publ_author_name
'Ghosh, Biswa Nath'
'Lentz, Dieter'
'Schlecht, Sabine'
_publ_section_title
;
 Substituent effects in solution speciation of the mononuclear and
 dinuclear trimethylplatinum(iv) iodide complexes of pyridines
;
_journal_issue                   5
_journal_name_full               'New J. Chem.'
_journal_page_first              3536
_journal_paper_doi               10.1039/C4NJ02426E
_journal_volume                  39
_journal_year                    2015
_chemical_formula_moiety         'C15 H17 I N4 Pt'
_chemical_formula_sum            'C15 H17 I N4 Pt'
_chemical_formula_weight         575.32
_space_group_crystal_system      triclinic
_space_group_IT_number           2
_space_group_name_Hall           '-P 1'
_space_group_name_H-M_alt        'P -1'
_symmetry_space_group_name_Hall  '-P 1'
_symmetry_space_group_name_H-M   'P -1'
_atom_sites_solution_hydrogens   geom
_audit_creation_method           SHELXL-2014
_audit_update_record
;
2014-12-08 deposited with the CCDC.
2015-02-16 downloaded from the CCDC.
;
_cell_angle_alpha                70.911(3)
_cell_angle_beta                 66.286(3)
_cell_angle_gamma                73.069(3)
_cell_formula_units_Z            2
_cell_length_a                   9.7124(5)
_cell_length_b                   10.2867(5)
_cell_length_c                   10.3892(5)
_cell_measurement_reflns_used    2179
_cell_measurement_temperature    123(2)
_cell_measurement_theta_max      28.283
_cell_measurement_theta_min      0.407
_cell_volume                     882.64(8)
_computing_cell_refinement       'HKL Scalepack (Otwinowski & Minor, 1997)'
_computing_data_collection       'Collect (Bruker AXS BV, 1997-2004)'
_computing_data_reduction
'HKL Denzo and Scalepack (Otwinowski & Minor, 1997)'
_computing_molecular_graphics    'Mercury v3.3 (Macrae et al., 2008)'
_computing_publication_material  'WinGX (Farrugia, 2012)'
_computing_structure_refinement  'SHELXL-2014 (Sheldrick, 2014)'
_computing_structure_solution
;
'SUPERFLIP, J. Appl. Cryst. (2007) 40, 786-790'
;
_diffrn_ambient_temperature      123(2)
_diffrn_detector_area_resol_mean 9
_diffrn_measured_fraction_theta_full 0.989
_diffrn_measured_fraction_theta_max 0.989
_diffrn_measurement_device_type  KappaCCD
_diffrn_measurement_method       '\f scans + \w scans'
_diffrn_radiation_monochromator  graphite
_diffrn_radiation_source         'fine-focus sealed tube'
_diffrn_radiation_type           MoK\a
_diffrn_radiation_wavelength     0.71073
_diffrn_reflns_av_R_equivalents  0.0243
_diffrn_reflns_av_unetI/netI     0.0355
_diffrn_reflns_Laue_measured_fraction_full 0.989
_diffrn_reflns_Laue_measured_fraction_max 0.989
_diffrn_reflns_limit_h_max       8
_diffrn_reflns_limit_h_min       -11
_diffrn_reflns_limit_k_max       12
_diffrn_reflns_limit_k_min       -12
_diffrn_reflns_limit_l_max       12
_diffrn_reflns_limit_l_min       -12
_diffrn_reflns_number            6324
_diffrn_reflns_point_group_measured_fraction_full 0.989
_diffrn_reflns_point_group_measured_fraction_max 0.989
_diffrn_reflns_theta_full        25.242
_diffrn_reflns_theta_max         25.245
_diffrn_reflns_theta_min         2.695
_exptl_absorpt_coefficient_mu    9.696
_exptl_absorpt_correction_T_max  0.7457
_exptl_absorpt_correction_T_min  0.4643
_exptl_absorpt_correction_type   multi-scan
_exptl_absorpt_process_details   'SADABS (Bruker-AXS, 2008)'
_exptl_crystal_colour            colorless
_exptl_crystal_density_diffrn    2.165
_exptl_crystal_density_method    'not measured'
_exptl_crystal_description       block
_exptl_crystal_F_000             532
_exptl_crystal_size_max          0.300
_exptl_crystal_size_mid          0.200
_exptl_crystal_size_min          0.100
_refine_diff_density_max         0.936
_refine_diff_density_min         -1.136
_refine_diff_density_rms         0.123
_refine_ls_extinction_method     none
_refine_ls_goodness_of_fit_ref   1.049
_refine_ls_hydrogen_treatment    constr
_refine_ls_matrix_type           full
_refine_ls_number_parameters     193
_refine_ls_number_reflns         3174
_refine_ls_number_restraints     0
_refine_ls_restrained_S_all      1.049
_refine_ls_R_factor_all          0.0235
_refine_ls_R_factor_gt           0.0215
_refine_ls_shift/su_max          0.002
_refine_ls_shift/su_mean         0.000
_refine_ls_structure_factor_coef Fsqd
_refine_ls_weighting_details
'w=1/[\s^2^(Fo^2^)+(0.0153P)^2^+1.7349P] where P=(Fo^2^+2Fc^2^)/3'
_refine_ls_weighting_scheme      calc
_refine_ls_wR_factor_gt          0.0508
_refine_ls_wR_factor_ref         0.0514
_reflns_Friedel_coverage         0.000
_reflns_number_gt                2985
_reflns_number_total             3174
_reflns_threshold_expression     'I > 2\s(I)'
_cod_data_source_file            c4nj02426e2.cif
_cod_data_source_block           '[PtMe3(4-CNpy)2I]'
_cod_depositor_comments
'Adding full bibliography for 7054680--7054686.cif.'
_cod_database_code               7054682
#BEGIN Tags that were not found in dictionaries:
_shelx_space_group_comment
;
The symmetry employed for this shelxl refinement is uniquely defined
by the following loop, which should always be used as a source of
symmetry information in preference to the above space-group names.
They are only intended as comments.
;
_shelx_estimated_absorpt_t_min   0.159
_shelx_estimated_absorpt_t_max   0.444
_shelxl_version_number           2014-3
_shelx_res_file
;
TITL [PtMe3(4-CNpy)2I]
CELL 0.71073 9.7124 10.2867 10.3892 70.911 66.286 73.069
ZERR 2 0.0005 0.0005 0.0005 0.003 0.003 0.003
LATT 1

SFAC C H I N Pt
UNIT 30 34 2 8 2

L.S. 10
PLAN  20
SIZE 0.3 0.2 0.1
TEMP -150
HTAB
BOND $H
MORE -1
CONF
fmap 2 53
acta
OMIT -3 50.5
OMIT 1 0 0
OMIT 0 0 1

WGHT    0.015300    1.734900
FVAR       0.46466
PT1   5    0.289582    0.715588    0.268934    11.00000    0.01605    0.02761 =
         0.01599   -0.00483   -0.00397   -0.00511
I1    3    0.589915    0.580873    0.160703    11.00000    0.01641    0.03256 =
         0.02531   -0.00707   -0.00744   -0.00238
N1    4    0.306704    0.836775    0.046658    11.00000    0.01809    0.02184 =
         0.01906   -0.00161   -0.00423   -0.00580
N2    4    0.199072    0.562152    0.236301    11.00000    0.01610    0.02385 =
         0.01628    0.00144   -0.00498   -0.00588
N3    4    0.336404    1.135175   -0.490636    11.00000    0.02707    0.04346 =
         0.03194    0.00815   -0.01519   -0.00189
N4    4   -0.039416    0.194247    0.163637    11.00000    0.02975    0.03623 =
         0.06805   -0.02026   -0.02431    0.00038
C1    1    0.268445    0.603584    0.477617    11.00000    0.03645    0.05186 =
         0.01749   -0.00405   -0.00662   -0.00742
AFIX 137
H1A   2    0.364842    0.539066    0.479136    11.00000   -1.50000
H1B   2    0.186034    0.550176    0.514766    11.00000   -1.50000
H1C   2    0.244372    0.668051    0.538549    11.00000   -1.50000
AFIX   0
C2    1    0.363931    0.861028    0.308182    11.00000    0.03750    0.04722 =
         0.03408   -0.01866   -0.00888   -0.01373
AFIX 137
H2A   2    0.275979    0.919416    0.364347    11.00000   -1.50000
H2B   2    0.417588    0.920074    0.215977    11.00000   -1.50000
H2C   2    0.433817    0.813217    0.363012    11.00000   -1.50000
AFIX   0
C3    1    0.066575    0.816579    0.355820    11.00000    0.02167    0.03625 =
         0.03081   -0.00843   -0.00333   -0.00719
AFIX 137
H3A   2    0.061229    0.860825    0.428550    11.00000   -1.50000
H3B   2   -0.001840    0.748294    0.401358    11.00000   -1.50000
H3C   2    0.035135    0.888262    0.278540    11.00000   -1.50000
AFIX   0
C4    1    0.261502    0.976465    0.017482    11.00000    0.02315    0.02436 =
         0.02845   -0.00604   -0.00321   -0.00248
AFIX  43
H4    2    0.223933    1.022021    0.094421    11.00000   -1.20000
AFIX   0
C5    1    0.267322    1.056334   -0.119129    11.00000    0.02389    0.01988 =
         0.03535   -0.00250   -0.01037   -0.00201
AFIX  43
H5    2    0.235536    1.155112   -0.136511    11.00000   -1.20000
AFIX   0
C6    1    0.320455    0.989590   -0.230460    11.00000    0.01139    0.02813 =
         0.02516    0.00139   -0.00827   -0.00378
C7    1    0.365151    0.844491   -0.201234    11.00000    0.01836    0.02957 =
         0.02143   -0.00543   -0.00524   -0.00736
AFIX  43
H7    2    0.399937    0.796227   -0.275704    11.00000   -1.20000
AFIX   0
C8    1    0.357723    0.773014   -0.062382    11.00000    0.01802    0.01850 =
         0.02291   -0.00321   -0.00620   -0.00355
AFIX  43
H8    2    0.390018    0.674248   -0.042466    11.00000   -1.20000
AFIX   0
C9    1    0.247858    0.424131    0.277711    11.00000    0.01498    0.02834 =
         0.02045    0.00137   -0.00775   -0.00180
AFIX  43
H9    2    0.327202    0.393339    0.318196    11.00000   -1.20000
AFIX   0
C10   1    0.188349    0.324960    0.264306    11.00000    0.02085    0.02347 =
         0.01865    0.00238   -0.00664   -0.00478
AFIX  43
H10   2    0.226405    0.227954    0.293789    11.00000   -1.20000
AFIX   0
C11   1    0.071202    0.370476    0.206538    11.00000    0.01535    0.02724 =
         0.01714   -0.00437   -0.00484   -0.00627
C12   1    0.018069    0.514357    0.164375    11.00000    0.01418    0.03002 =
         0.02000   -0.00168   -0.00857   -0.00483
AFIX  43
H12   2   -0.062725    0.548102    0.125615    11.00000   -1.20000
AFIX   0
C13   1    0.085690    0.605449    0.180464    11.00000    0.01860    0.02198 =
         0.02511    0.00089   -0.00779   -0.00232
AFIX  43
H13   2    0.050867    0.703151    0.150888    11.00000   -1.20000
AFIX   0
C14   1    0.329770    1.069179   -0.375737    11.00000    0.01934    0.02710 =
         0.03228    0.00074   -0.01150   -0.00276
C15   1    0.007139    0.271773    0.185605    11.00000    0.02004    0.02981 =
         0.03203   -0.00749   -0.01172   -0.00124
HKLF 4

REM  [PtMe3(4-CNpy)2I]
REM R1 =  0.0215 for    2985 Fo > 4sig(Fo)  and  0.0235 for all    3174 data
REM    193 parameters refined using      0 restraints

END

WGHT      0.0153      1.7348

REM Instructions for potential hydrogen bonds
EQIV $1 x, y+1, z
HTAB C4 N4_$1
EQIV $2 -x+1, -y+1, -z
HTAB C8 I1_$2
HTAB C9 I1
EQIV $3 x, y-1, z+1
HTAB C10 N3_$3
EQIV $4 x-1, y, z
HTAB C12 I1_$4

REM Highest difference peak  0.936,  deepest hole -1.136,  1-sigma level  0.123
Q1    1   0.3593  0.7211  0.3231  11.00000  0.05    0.94
Q2    1   0.2215  0.7160  0.2066  11.00000  0.05    0.85
Q3    1   0.2945  0.5977  0.2146  11.00000  0.05    0.70
Q4    1   0.2870  0.8235  0.3220  11.00000  0.05    0.66
Q5    1   0.3450  0.6573  0.2617  11.00000  0.05    0.62
Q6    1   0.5184  0.5625  0.1146  11.00000  0.05    0.61
Q7    1   0.6618  0.5613  0.2391  11.00000  0.05    0.58
Q8    1   0.5695  0.6831  0.2285  11.00000  0.05    0.57
Q9    1   0.2922  0.7967  0.1141  11.00000  0.05    0.50
Q10   1   0.7186  0.6046  0.0995  11.00000  0.05    0.49
Q11   1   0.1587  0.6763  0.3214  11.00000  0.05    0.49
Q12   1   0.6156  0.5014  0.0803  11.00000  0.05    0.48
Q13   1   0.4175  0.7446  0.2035  11.00000  0.05    0.48
Q14   1   0.4393  0.6384  0.1196  11.00000  0.05    0.48
Q15   1   0.3097  1.0662 -0.4747  11.00000  0.05    0.46
Q16   1   0.0237  0.7516  0.3619  11.00000  0.05    0.44
Q17   1   0.2723  0.9709 -0.2442  11.00000  0.05    0.40
Q18   1   0.2797  0.6410  0.4139  11.00000  0.05    0.40
Q19   1   0.3575  0.9135 -0.2244  11.00000  0.05    0.40
Q20   1   0.0568  0.7561  0.1554  11.00000  0.05    0.39
;
_shelx_res_checksum              49354
#END Tags that were not found in dictionaries
loop_
_space_group_symop_operation_xyz
'x, y, z'
'-x, -y, -z'
loop_
_atom_site_label
_atom_site_type_symbol
_atom_site_fract_x
_atom_site_fract_y
_atom_site_fract_z
_atom_site_U_iso_or_equiv
_atom_site_adp_type
_atom_site_occupancy
_atom_site_site_symmetry_order
_atom_site_calc_flag
_atom_site_refinement_flags_posn
_atom_site_refinement_flags_adp
Pt1 Pt 0.28958(2) 0.71559(2) 0.26893(2) 0.02023(7) Uani 1 1 d . .
I1 I 0.58991(3) 0.58087(3) 0.16070(3) 0.02510(8) Uani 1 1 d . .
N1 N 0.3067(4) 0.8368(3) 0.0467(4) 0.0207(7) Uani 1 1 d . .
N2 N 0.1991(4) 0.5622(3) 0.2363(3) 0.0201(7) Uani 1 1 d . .
N3 N 0.3364(4) 1.1352(4) -0.4906(4) 0.0380(10) Uani 1 1 d . .
N4 N -0.0394(5) 0.1942(5) 0.1636(5) 0.0416(11) Uani 1 1 d . .
C1 C 0.2684(6) 0.6036(6) 0.4776(5) 0.0374(12) Uani 1 1 d . .
H1A H 0.3648 0.5391 0.4791 0.056 Uiso 1 1 calc R U
H1B H 0.1860 0.5502 0.5148 0.056 Uiso 1 1 calc R U
H1C H 0.2444 0.6681 0.5385 0.056 Uiso 1 1 calc R U
C2 C 0.3639(6) 0.8610(6) 0.3082(5) 0.0370(12) Uani 1 1 d . .
H2A H 0.2760 0.9194 0.3643 0.055 Uiso 1 1 calc R U
H2B H 0.4176 0.9201 0.2160 0.055 Uiso 1 1 calc R U
H2C H 0.4338 0.8132 0.3630 0.055 Uiso 1 1 calc R U
C3 C 0.0666(5) 0.8166(5) 0.3558(5) 0.0309(11) Uani 1 1 d . .
H3A H 0.0612 0.8608 0.4285 0.046 Uiso 1 1 calc R U
H3B H -0.0018 0.7483 0.4014 0.046 Uiso 1 1 calc R U
H3C H 0.0351 0.8883 0.2785 0.046 Uiso 1 1 calc R U
C4 C 0.2615(5) 0.9765(4) 0.0175(5) 0.0277(10) Uani 1 1 d . .
H4 H 0.2239 1.0220 0.0944 0.033 Uiso 1 1 calc R U
C5 C 0.2673(5) 1.0563(4) -0.1191(5) 0.0278(10) Uani 1 1 d . .
H5 H 0.2355 1.1551 -0.1365 0.033 Uiso 1 1 calc R U
C6 C 0.3205(4) 0.9896(4) -0.2305(4) 0.0229(9) Uani 1 1 d . .
C7 C 0.3652(5) 0.8445(4) -0.2012(4) 0.0231(9) Uani 1 1 d . .
H7 H 0.3999 0.7962 -0.2757 0.028 Uiso 1 1 calc R U
C8 C 0.3577(5) 0.7730(4) -0.0624(4) 0.0205(9) Uani 1 1 d . .
H8 H 0.3900 0.6742 -0.0425 0.025 Uiso 1 1 calc R U
C9 C 0.2479(5) 0.4241(4) 0.2777(4) 0.0231(9) Uani 1 1 d . .
H9 H 0.3272 0.3933 0.3182 0.028 Uiso 1 1 calc R U
C10 C 0.1883(5) 0.3250(4) 0.2643(4) 0.0228(9) Uani 1 1 d . .
H10 H 0.2264 0.2280 0.2938 0.027 Uiso 1 1 calc R U
C11 C 0.0712(4) 0.3705(4) 0.2065(4) 0.0198(8) Uani 1 1 d . .
C12 C 0.0181(4) 0.5144(4) 0.1644(4) 0.0214(9) Uani 1 1 d . .
H12 H -0.0627 0.5481 0.1256 0.026 Uiso 1 1 calc R U
C13 C 0.0857(5) 0.6054(4) 0.1805(4) 0.0238(9) Uani 1 1 d . .
H13 H 0.0509 0.7032 0.1509 0.029 Uiso 1 1 calc R U
C14 C 0.3298(5) 1.0692(5) -0.3757(5) 0.0277(10) Uani 1 1 d . .
C15 C 0.0071(5) 0.2718(5) 0.1856(5) 0.0271(10) Uani 1 1 d . .
loop_
_atom_site_aniso_label
_atom_site_aniso_U_11
_atom_site_aniso_U_22
_atom_site_aniso_U_33
_atom_site_aniso_U_23
_atom_site_aniso_U_13
_atom_site_aniso_U_12
Pt1 0.01605(10) 0.02761(10) 0.01599(9) -0.00483(6) -0.00397(6) -0.00511(6)
I1 0.01641(14) 0.03256(16) 0.02531(15) -0.00707(11) -0.00744(11) -0.00238(11)
N1 0.0181(17) 0.0218(18) 0.0191(16) -0.0016(14) -0.0042(14) -0.0058(14)
N2 0.0161(17) 0.0238(18) 0.0163(16) 0.0014(13) -0.0050(13) -0.0059(14)
N3 0.027(2) 0.043(2) 0.032(2) 0.0082(19) -0.0152(17) -0.0019(18)
N4 0.030(2) 0.036(2) 0.068(3) -0.020(2) -0.024(2) 0.0004(18)
C1 0.036(3) 0.052(3) 0.017(2) -0.004(2) -0.0066(19) -0.007(2)
C2 0.037(3) 0.047(3) 0.034(3) -0.019(2) -0.009(2) -0.014(2)
C3 0.022(2) 0.036(3) 0.031(2) -0.008(2) -0.0033(19) -0.0072(19)
C4 0.023(2) 0.024(2) 0.028(2) -0.0060(18) -0.0032(18) -0.0025(17)
C5 0.024(2) 0.020(2) 0.035(2) -0.0025(18) -0.0104(19) -0.0020(17)
C6 0.0114(19) 0.028(2) 0.025(2) 0.0014(17) -0.0083(16) -0.0038(16)
C7 0.018(2) 0.030(2) 0.021(2) -0.0054(17) -0.0052(16) -0.0074(17)
C8 0.018(2) 0.019(2) 0.023(2) -0.0032(16) -0.0062(16) -0.0035(16)
C9 0.015(2) 0.028(2) 0.020(2) 0.0014(17) -0.0077(16) -0.0018(17)
C10 0.021(2) 0.023(2) 0.0186(19) 0.0024(16) -0.0066(16) -0.0048(17)
C11 0.015(2) 0.027(2) 0.0171(18) -0.0044(16) -0.0048(15) -0.0063(16)
C12 0.014(2) 0.030(2) 0.0200(19) -0.0017(17) -0.0086(16) -0.0048(17)
C13 0.019(2) 0.022(2) 0.025(2) 0.0009(17) -0.0078(17) -0.0023(17)
C14 0.019(2) 0.027(2) 0.032(2) 0.0007(19) -0.0115(18) -0.0028(17)
C15 0.020(2) 0.030(2) 0.032(2) -0.0075(19) -0.0117(18) -0.0012(18)
loop_
_atom_type_symbol
_atom_type_description
_atom_type_scat_dispersion_real
_atom_type_scat_dispersion_imag
_atom_type_scat_source
C C 0.0033 0.0016 'International Tables Vol C Tables 4.2.6.8 and 6.1.1.4'
H H 0.0000 0.0000 'International Tables Vol C Tables 4.2.6.8 and 6.1.1.4'
I I -0.4742 1.8119 'International Tables Vol C Tables 4.2.6.8 and 6.1.1.4'
N N 0.0061 0.0033 'International Tables Vol C Tables 4.2.6.8 and 6.1.1.4'
Pt Pt -1.7033 8.3905 'International Tables Vol C Tables 4.2.6.8 and 6.1.1.4'
loop_
_geom_angle_atom_site_label_1
_geom_angle_atom_site_label_2
_geom_angle_atom_site_label_3
_geom_angle
C2 Pt1 C1 87.5(2)
C2 Pt1 C3 88.4(2)
C1 Pt1 C3 85.9(2)
C2 Pt1 N2 177.02(15)
C1 Pt1 N2 90.98(18)
C3 Pt1 N2 88.95(16)
C2 Pt1 N1 92.91(18)
C1 Pt1 N1 178.74(17)
C3 Pt1 N1 92.89(16)
N2 Pt1 N1 88.56(13)
C2 Pt1 I1 90.29(15)
C1 Pt1 I1 92.60(14)
C3 Pt1 I1 178.06(14)
N2 Pt1 I1 92.34(9)
N1 Pt1 I1 88.60(9)
C4 N1 C8 118.2(4)
C4 N1 Pt1 120.7(3)
C8 N1 Pt1 121.1(3)
C9 N2 C13 118.4(4)
C9 N2 Pt1 121.8(3)
C13 N2 Pt1 119.8(3)
Pt1 C1 H1A 109.5
Pt1 C1 H1B 109.5
H1A C1 H1B 109.5
Pt1 C1 H1C 109.5
H1A C1 H1C 109.5
H1B C1 H1C 109.5
Pt1 C2 H2A 109.5
Pt1 C2 H2B 109.5
H2A C2 H2B 109.5
Pt1 C2 H2C 109.5
H2A C2 H2C 109.5
H2B C2 H2C 109.5
Pt1 C3 H3A 109.5
Pt1 C3 H3B 109.5
H3A C3 H3B 109.5
Pt1 C3 H3C 109.5
H3A C3 H3C 109.5
H3B C3 H3C 109.5
N1 C4 C5 122.8(4)
N1 C4 H4 118.6
C5 C4 H4 118.6
C4 C5 C6 118.5(4)
C4 C5 H5 120.8
C6 C5 H5 120.8
C5 C6 C7 119.4(4)
C5 C6 C14 120.4(4)
C7 C6 C14 120.2(4)
C8 C7 C6 118.4(4)
C8 C7 H7 120.8
C6 C7 H7 120.8
N1 C8 C7 122.8(4)
N1 C8 H8 118.6
C7 C8 H8 118.6
N2 C9 C10 123.1(4)
N2 C9 H9 118.5
C10 C9 H9 118.5
C9 C10 C11 118.2(4)
C9 C10 H10 120.9
C11 C10 H10 120.9
C10 C11 C12 119.2(4)
C10 C11 C15 120.9(4)
C12 C11 C15 119.9(4)
C13 C12 C11 118.3(4)
C13 C12 H12 120.8
C11 C12 H12 120.8
N2 C13 C12 122.8(4)
N2 C13 H13 118.6
C12 C13 H13 118.6
N3 C14 C6 178.6(5)
N4 C15 C11 177.3(5)
loop_
_geom_bond_atom_site_label_1
_geom_bond_atom_site_label_2
_geom_bond_distance
Pt1 C2 2.047(5)
Pt1 C1 2.053(4)
Pt1 C3 2.077(4)
Pt1 N2 2.186(4)
Pt1 N1 2.201(3)
Pt1 I1 2.7785(3)
N1 C4 1.343(5)
N1 C8 1.343(5)
N2 C9 1.341(5)
N2 C13 1.344(6)
N3 C14 1.150(6)
N4 C15 1.142(6)
C1 H1A 0.9800
C1 H1B 0.9800
C1 H1C 0.9800
C2 H2A 0.9800
C2 H2B 0.9800
C2 H2C 0.9800
C3 H3A 0.9800
C3 H3B 0.9800
C3 H3C 0.9800
C4 C5 1.376(6)
C4 H4 0.9500
C5 C6 1.381(6)
C5 H5 0.9500
C6 C7 1.393(6)
C6 C14 1.443(6)
C7 C8 1.371(6)
C7 H7 0.9500
C8 H8 0.9500
C9 C10 1.377(6)
C9 H9 0.9500
C10 C11 1.389(6)
C10 H10 0.9500
C11 C12 1.401(6)
C11 C15 1.444(6)
C12 C13 1.374(6)
C12 H12 0.9500
C13 H13 0.9500
loop_
_geom_torsion_atom_site_label_1
_geom_torsion_atom_site_label_2
_geom_torsion_atom_site_label_3
_geom_torsion_atom_site_label_4
_geom_torsion
C8 N1 C4 C5 -0.9(6)
Pt1 N1 C4 C5 -178.8(3)
N1 C4 C5 C6 0.7(7)
C4 C5 C6 C7 0.5(6)
C4 C5 C6 C14 -179.5(4)
C5 C6 C7 C8 -1.4(6)
C14 C6 C7 C8 178.6(4)
C4 N1 C8 C7 -0.1(6)
Pt1 N1 C8 C7 177.8(3)
C6 C7 C8 N1 1.2(6)
C13 N2 C9 C10 0.7(6)
Pt1 N2 C9 C10 177.1(3)
N2 C9 C10 C11 -0.7(6)
C9 C10 C11 C12 0.0(6)
C9 C10 C11 C15 178.1(4)
C10 C11 C12 C13 0.7(6)
C15 C11 C12 C13 -177.4(4)
C9 N2 C13 C12 0.1(6)
Pt1 N2 C13 C12 -176.4(3)
C11 C12 C13 N2 -0.8(6)
