#------------------------------------------------------------------------------
#$Date: 2016-08-07 12:33:51 +0300 (Sun, 07 Aug 2016) $
#$Revision: 185599 $
#$URL: file:///home/coder/svn-repositories/cod/cif/7/05/55/7055511.cif $
#------------------------------------------------------------------------------
#
# This file is available in the Crystallography Open Database (COD),
# http://www.crystallography.net/
#
# All data on this site have been placed in the public domain by the
# contributors.
#
data_7055511
loop_
_publ_author_name
'Klap\"otke, Thomas M.'
'Penger, Alexander'
'Pfl\"uger, Carolin'
'Stierstorfer, J\"org'
_publ_section_title
;
 Melt-cast materials: combining the advantages of highly nitrated azoles
 and open-chain nitramines
;
_journal_issue                   7
_journal_name_full               'New J. Chem.'
_journal_page_first              6059
_journal_paper_doi               10.1039/C6NJ00202A
_journal_volume                  40
_journal_year                    2016
_chemical_formula_moiety         'C4 H7 N7 O4'
_chemical_formula_sum            'C4 H7 N7 O4'
_chemical_formula_weight         217.14
_chemical_melting_point          202
_chemical_name_common            ANTAnap
_chemical_name_systematic
;
 1-(5-amino-3-nitro-1,2,4-triazol-1-yl)-2-nitrazapropane
;
_space_group_IT_number           2
_symmetry_cell_setting           triclinic
_symmetry_space_group_name_Hall  '-P 1'
_symmetry_space_group_name_H-M   'P -1'
_atom_sites_solution_hydrogens   geom
_atom_sites_solution_primary     direct
_atom_sites_solution_secondary   difmap
_audit_creation_method           SHELXL-97
_audit_update_record
;
2016-04-15 deposited with the CCDC.
2016-04-25 downloaded from the CCDC.
;
_cell_angle_alpha                72.876(11)
_cell_angle_beta                 87.968(11)
_cell_angle_gamma                77.540(11)
_cell_formula_units_Z            2
_cell_length_a                   6.3027(8)
_cell_length_b                   6.8628(8)
_cell_length_c                   10.6253(14)
_cell_measurement_reflns_used    1302
_cell_measurement_temperature    173(2)
_cell_measurement_theta_max      29.9990
_cell_measurement_theta_min      4.3204
_cell_volume                     428.68(10)
_computing_cell_refinement
;
CrysAlisPro, Oxford Diffraction Ltd.,
Version 1.171.33.41 (release 06-05-2009 CrysAlis171 .NET)
(compiled May  6 2009,17:20:42)
;
_computing_data_collection
;
CrysAlisPro, Oxford Diffraction Ltd.,
Version 1.171.33.41 (release 06-05-2009 CrysAlis171 .NET)
(compiled May  6 2009,17:20:42)
;
_computing_data_reduction
;
CrysAlisPro, Oxford Diffraction Ltd.,
Version 1.171.33.41 (release 06-05-2009 CrysAlis171 .NET)
(compiled May  6 2009,17:20:42)
;
_computing_molecular_graphics
;
Diamond Version 3.2k (K. Brandenburg, Crystal Impact GbR, Berlin, 2014).
;
_computing_publication_material
;
Diamond Version 3.2k (K. Brandenburg, Crystal Impact GbR, Berlin, 2014).
;
_computing_structure_refinement  'SHELXL-97 (Sheldrick, 1997)'
_computing_structure_solution    SIR-92
_diffrn_ambient_temperature      173(2)
_diffrn_detector_area_resol_mean 15.9809
_diffrn_measured_fraction_theta_full 0.994
_diffrn_measured_fraction_theta_max 0.994
_diffrn_measurement_device_type  'Xcalibur, Sapphire3'
_diffrn_measurement_method       '\w scans'
_diffrn_radiation_monochromator  graphite
_diffrn_radiation_source         'fine-focus sealed tube'
_diffrn_radiation_type           MoK\a
_diffrn_radiation_wavelength     0.71073
_diffrn_reflns_av_R_equivalents  0.0319
_diffrn_reflns_av_sigmaI/netI    0.0359
_diffrn_reflns_limit_h_max       7
_diffrn_reflns_limit_h_min       -7
_diffrn_reflns_limit_k_max       8
_diffrn_reflns_limit_k_min       -8
_diffrn_reflns_limit_l_max       13
_diffrn_reflns_limit_l_min       -13
_diffrn_reflns_number            4326
_diffrn_reflns_theta_full        25.99
_diffrn_reflns_theta_max         25.99
_diffrn_reflns_theta_min         4.33
_exptl_absorpt_coefficient_mu    0.148
_exptl_absorpt_correction_T_max  1.00000
_exptl_absorpt_correction_T_min  0.82687
_exptl_absorpt_correction_type   multi-scan
_exptl_absorpt_process_details
;
CrysAlisPro, Agilent Technologies,
Version 1.171.35.11 (release 16-05-2011 CrysAlis171 .NET)
(compiled May 16 2011,17:55:39)
Empirical absorption correction using spherical harmonics,
 implemented in SCALE3 ABSPACK scaling algorithm.
;
_exptl_crystal_colour            colourless
_exptl_crystal_density_diffrn    1.682
_exptl_crystal_density_method    'not measured'
_exptl_crystal_description       plate
_exptl_crystal_F_000             224
_exptl_crystal_size_max          0.58
_exptl_crystal_size_mid          0.48
_exptl_crystal_size_min          0.05
_refine_diff_density_max         0.193
_refine_diff_density_min         -0.279
_refine_diff_density_rms         0.050
_refine_ls_extinction_method     none
_refine_ls_goodness_of_fit_ref   1.073
_refine_ls_hydrogen_treatment    mixed
_refine_ls_matrix_type           full
_refine_ls_number_parameters     164
_refine_ls_number_reflns         1671
_refine_ls_number_restraints     0
_refine_ls_restrained_S_all      1.073
_refine_ls_R_factor_all          0.0466
_refine_ls_R_factor_gt           0.0332
_refine_ls_shift/su_max          0.000
_refine_ls_shift/su_mean         0.000
_refine_ls_structure_factor_coef Fsqd
_refine_ls_weighting_details
'calc w=1/[\s^2^(Fo^2^)+(0.0347P)^2^+0.0735P] where P=(Fo^2^+2Fc^2^)/3'
_refine_ls_weighting_scheme      calc
_refine_ls_wR_factor_gt          0.0755
_refine_ls_wR_factor_ref         0.0839
_reflns_number_gt                1330
_reflns_number_total             1671
_reflns_threshold_expression     >2\s(I)
_iucr_refine_instructions_details
;
TITL gx534 in P-1
CELL  0.71073   6.3027   6.8628  10.6253   72.876   87.968   77.540
ZERR     2.00   0.0008   0.0008   0.0014    0.011    0.011    0.011
LATT   1
SFAC  C    H    N    O
UNIT  8    14   14   8
MERG   2
OMIT    -2.00  52.00
FMAP   2
PLAN   25
ACTA
HTAB    2.00000
BOND   $H
CONF
L.S.  20
TEMP  -100.00
WGHT    0.034700    0.073500
FVAR       0.42029
O4    4   -0.068524    0.749971    0.104360    11.00000    0.03156    0.01954 =
         0.03358   -0.00730    0.00085   -0.00420
O2    4    0.712938   -0.136105    0.343511    11.00000    0.02534    0.04605 =
         0.03656   -0.01467    0.00305   -0.01135
O3    4   -0.263765    0.528812    0.207197    11.00000    0.02226    0.03149 =
         0.03316   -0.00918    0.00735   -0.00322
O1    4    0.625328   -0.251579    0.548397    11.00000    0.04411    0.05074 =
         0.02661   -0.00988   -0.01099   -0.00276
N1    3    0.272119    0.434250    0.098789    11.00000    0.02078    0.01915 =
         0.02188   -0.00490    0.00133   -0.00355
N2    3    0.076233    0.208527    0.225436    11.00000    0.01872    0.02249 =
         0.02182   -0.00623    0.00100   -0.00121
N5    3    0.586354    0.182992    0.075444    11.00000    0.02084    0.02262 =
         0.03497   -0.00433    0.00715   -0.00274
N6    3   -0.094665    0.571402    0.158733    11.00000    0.02410    0.02235 =
         0.02047   -0.00790    0.00034   -0.00293
N4    3    0.385774   -0.201445    0.389332    11.00000    0.02208    0.02383 =
         0.02362   -0.00230   -0.00230   -0.00414
N3    3    0.276880    0.102985    0.200769    11.00000    0.01693    0.01974 =
         0.02281   -0.00445    0.00213   -0.00170
N7    3    0.584293   -0.195093    0.429088    11.00000    0.02666    0.02515 =
         0.02898   -0.00934   -0.00461   -0.00083
C3    1    0.392352    0.238982    0.124482    11.00000    0.01998    0.02211 =
         0.01943   -0.00430   -0.00020   -0.00504
C2    1    0.332631   -0.123837    0.249508    11.00000    0.02393    0.01825 =
         0.02563   -0.00603   -0.00225   -0.00339
C4    1    0.089304    0.399837    0.162636    11.00000    0.01912    0.02031 =
         0.01892   -0.00644   -0.00065   -0.00174
C1    1    0.222227   -0.239041    0.489236    11.00000    0.03390    0.03576 =
         0.03262   -0.00319    0.00723   -0.00673
H2A   2    0.202547   -0.177099    0.236938    11.00000    0.02088
H2B   2    0.454148   -0.171805    0.200508    11.00000    0.02312
H5A   2    0.671270    0.072208    0.118098    11.00000    0.03548
H5B   2    0.647074    0.281917    0.031648    11.00000    0.04008
H1A   2    0.092621   -0.223052    0.445250    11.00000    0.06672
H1B   2    0.265845   -0.367667    0.551901    11.00000    0.07933
H1C   2    0.197386   -0.134108    0.535267    11.00000    0.07266
HKLF    4
 
REM  v1 in P-1
REM R1 =  0.0332 for   1330 Fo > 4sig(Fo)  and  0.0466 for all   1671 data
REM    164 parameters refined using      0 restraints
 
END
 
WGHT      0.0347      0.0735
REM Highest difference peak  0.193,  deepest hole -0.279,  1-sigma level  0.050
Q1    1   0.1644 -0.3847  0.4764  11.00000  0.05    0.19
Q2    1   0.3615 -0.1549  0.3244  11.00000  0.05    0.19
Q3    1  -0.0745  0.3985  0.0397  11.00000  0.05    0.18
Q4    1   0.2329  0.5022  0.0133  11.00000  0.05    0.17
Q5    1   0.2253 -0.4352  0.5163  11.00000  0.05    0.17
Q6    1   0.4653  0.1200 -0.0004  11.00000  0.05    0.16
Q7    1   0.5850 -0.0115  0.2627  11.00000  0.05    0.15
Q8    1   0.2793 -0.2474  0.5844  11.00000  0.05    0.14
Q9    1   0.5653  0.0574  0.3118  11.00000  0.05    0.13
Q10   1   0.3227  0.0038  0.2382  11.00000  0.05    0.13
Q11   1  -0.2556  0.8580  0.0163  11.00000  0.05    0.13
Q12   1   0.3246  0.1536  0.1422  11.00000  0.05    0.13
Q13   1  -0.1691  0.4414  0.3126  11.00000  0.05    0.13
Q14   1  -0.0360  0.1758  0.2999  11.00000  0.05    0.13
Q15   1   0.0750  0.0552  0.0985  11.00000  0.05    0.13
Q16   1  -0.3904  0.4269  0.1443  11.00000  0.05    0.13
Q17   1   0.1688 -0.0536  0.4885  11.00000  0.05    0.13
Q18   1   0.0966  0.0188  0.3868  11.00000  0.05    0.13
Q19   1   0.4529 -0.0215  0.0675  11.00000  0.05    0.13
Q20   1   0.5994  0.0068 -0.0042  11.00000  0.05    0.12
Q21   1   0.3954 -0.3030  0.1532  11.00000  0.05    0.12
Q22   1   0.1347  0.3343  0.2427  11.00000  0.05    0.12
Q23   1   0.2166  0.0010  0.0612  11.00000  0.05    0.12
Q24   1   0.3408 -0.5059  0.6247  11.00000  0.05    0.12
Q25   1   0.1733  0.1338  0.3370  11.00000  0.05    0.12
;
_cod_data_source_file            c6nj00202a2.cif
_cod_data_source_block           gx534
_cod_depositor_comments
'Adding full bibliography for 7055507--7055518.cif.'
_cod_database_code               7055511
loop_
_symmetry_equiv_pos_as_xyz
'x, y, z'
'-x, -y, -z'
loop_
_atom_site_label
_atom_site_type_symbol
_atom_site_fract_x
_atom_site_fract_y
_atom_site_fract_z
_atom_site_U_iso_or_equiv
_atom_site_adp_type
_atom_site_occupancy
_atom_site_symmetry_multiplicity
_atom_site_calc_flag
O4 O -0.06852(18) 0.74997(17) 0.10436(11) 0.0285(3) Uani 1 1 d
O2 O 0.71294(19) -0.1361(2) 0.34351(12) 0.0349(3) Uani 1 1 d
O3 O -0.26376(18) 0.52881(18) 0.20720(11) 0.0296(3) Uani 1 1 d
O1 O 0.6253(2) -0.2516(2) 0.54840(11) 0.0417(4) Uani 1 1 d
N1 N 0.2721(2) 0.43425(19) 0.09879(12) 0.0210(3) Uani 1 1 d
N2 N 0.0762(2) 0.2085(2) 0.22544(12) 0.0216(3) Uani 1 1 d
N5 N 0.5864(2) 0.1830(3) 0.07544(15) 0.0275(3) Uani 1 1 d
N6 N -0.0947(2) 0.5714(2) 0.15873(12) 0.0223(3) Uani 1 1 d
N4 N 0.3858(2) -0.2014(2) 0.38933(12) 0.0243(3) Uani 1 1 d
N3 N 0.2769(2) 0.10298(19) 0.20077(12) 0.0206(3) Uani 1 1 d
N7 N 0.5843(2) -0.1951(2) 0.42909(13) 0.0272(3) Uani 1 1 d
C3 C 0.3924(2) 0.2390(2) 0.12448(14) 0.0208(3) Uani 1 1 d
C2 C 0.3326(3) -0.1238(2) 0.24951(15) 0.0228(4) Uani 1 1 d
C4 C 0.0893(2) 0.3998(2) 0.16264(14) 0.0197(3) Uani 1 1 d
C1 C 0.2222(3) -0.2390(4) 0.4892(2) 0.0359(5) Uani 1 1 d
H2A H 0.203(3) -0.177(2) 0.2369(15) 0.021(4) Uiso 1 1 d
H2B H 0.454(3) -0.172(2) 0.2005(16) 0.023(4) Uiso 1 1 d
H5A H 0.671(3) 0.072(3) 0.1181(19) 0.035(5) Uiso 1 1 d
H5B H 0.647(3) 0.282(3) 0.0316(19) 0.040(6) Uiso 1 1 d
H1A H 0.093(4) -0.223(4) 0.445(2) 0.067(7) Uiso 1 1 d
H1B H 0.266(4) -0.368(5) 0.552(3) 0.079(8) Uiso 1 1 d
H1C H 0.197(4) -0.134(4) 0.535(2) 0.073(8) Uiso 1 1 d
loop_
_atom_site_aniso_label
_atom_site_aniso_U_11
_atom_site_aniso_U_22
_atom_site_aniso_U_33
_atom_site_aniso_U_23
_atom_site_aniso_U_13
_atom_site_aniso_U_12
O4 0.0316(7) 0.0195(6) 0.0336(6) -0.0073(5) 0.0009(5) -0.0042(5)
O2 0.0253(7) 0.0461(8) 0.0366(7) -0.0147(6) 0.0031(5) -0.0114(6)
O3 0.0223(6) 0.0315(7) 0.0332(6) -0.0092(5) 0.0073(5) -0.0032(5)
O1 0.0441(8) 0.0507(9) 0.0266(7) -0.0099(6) -0.0110(5) -0.0028(6)
N1 0.0208(7) 0.0191(7) 0.0219(6) -0.0049(5) 0.0013(5) -0.0036(5)
N2 0.0187(7) 0.0225(7) 0.0218(6) -0.0062(6) 0.0010(5) -0.0012(5)
N5 0.0208(8) 0.0226(8) 0.0350(8) -0.0043(7) 0.0071(6) -0.0027(6)
N6 0.0241(7) 0.0223(7) 0.0205(6) -0.0079(6) 0.0003(5) -0.0029(6)
N4 0.0221(7) 0.0238(7) 0.0236(7) -0.0023(6) -0.0023(5) -0.0041(6)
N3 0.0169(7) 0.0197(7) 0.0228(7) -0.0044(5) 0.0021(5) -0.0017(5)
N7 0.0267(8) 0.0251(8) 0.0290(7) -0.0093(6) -0.0046(6) -0.0008(6)
C3 0.0200(8) 0.0221(8) 0.0194(7) -0.0043(6) -0.0002(6) -0.0050(6)
C2 0.0239(9) 0.0182(8) 0.0256(8) -0.0060(7) -0.0022(7) -0.0034(6)
C4 0.0191(8) 0.0203(8) 0.0189(7) -0.0064(6) -0.0006(6) -0.0017(6)
C1 0.0339(11) 0.0358(11) 0.0326(10) -0.0032(9) 0.0072(8) -0.0067(9)
loop_
_atom_type_symbol
_atom_type_description
_atom_type_scat_dispersion_real
_atom_type_scat_dispersion_imag
_atom_type_scat_source
C C 0.0033 0.0016 'International Tables Vol C Tables 4.2.6.8 and 6.1.1.4'
H H 0.0000 0.0000 'International Tables Vol C Tables 4.2.6.8 and 6.1.1.4'
N N 0.0061 0.0033 'International Tables Vol C Tables 4.2.6.8 and 6.1.1.4'
O O 0.0106 0.0060 'International Tables Vol C Tables 4.2.6.8 and 6.1.1.4'
loop_
_geom_angle_atom_site_label_1
_geom_angle_atom_site_label_2
_geom_angle_atom_site_label_3
_geom_angle
C3 N1 C4 101.37(12)
C4 N2 N3 100.17(11)
C3 N5 H5A 118.7(13)
C3 N5 H5B 116.9(13)
H5A N5 H5B 115.8(19)
O3 N6 O4 124.87(13)
O3 N6 C4 118.01(13)
O4 N6 C4 117.11(12)
N7 N4 C2 117.68(13)
N7 N4 C1 117.82(14)
C2 N4 C1 122.90(14)
C3 N3 N2 110.47(12)
C3 N3 C2 129.88(13)
N2 N3 C2 119.58(12)
O1 N7 O2 124.61(14)
O1 N7 N4 117.58(14)
O2 N7 N4 117.80(13)
N5 C3 N1 126.02(14)
N5 C3 N3 124.75(15)
N1 C3 N3 109.03(13)
N4 C2 N3 113.08(13)
N4 C2 H2A 105.9(9)
N3 C2 H2A 108.0(9)
N4 C2 H2B 110.2(10)
N3 C2 H2B 107.7(9)
H2A C2 H2B 112.0(13)
N2 C4 N1 118.96(13)
N2 C4 N6 120.03(13)
N1 C4 N6 120.98(13)
N4 C1 H1A 107.0(14)
N4 C1 H1B 111.3(16)
H1A C1 H1B 114(2)
N4 C1 H1C 111.1(14)
H1A C1 H1C 106(2)
H1B C1 H1C 107(2)
loop_
_geom_bond_atom_site_label_1
_geom_bond_atom_site_label_2
_geom_bond_distance
O4 N6 1.2354(16)
O2 N7 1.2332(17)
O3 N6 1.2220(16)
O1 N7 1.2308(17)
N1 C3 1.344(2)
N1 C4 1.3458(19)
N2 C4 1.3049(19)
N2 N3 1.3732(17)
N5 C3 1.336(2)
N5 H5A 0.84(2)
N5 H5B 0.86(2)
N6 C4 1.455(2)
N4 N7 1.3482(19)
N4 C2 1.448(2)
N4 C1 1.460(2)
N3 C3 1.3651(19)
N3 C2 1.4550(19)
C2 H2A 0.995(16)
C2 H2B 0.964(17)
C1 H1A 0.93(3)
C1 H1B 0.93(3)
C1 H1C 0.97(3)
loop_
_geom_torsion_atom_site_label_1
_geom_torsion_atom_site_label_2
_geom_torsion_atom_site_label_3
_geom_torsion_atom_site_label_4
_geom_torsion
C4 N2 N3 C3 -0.58(15)
C4 N2 N3 C2 -177.64(13)
C2 N4 N7 O1 176.52(14)
C1 N4 N7 O1 10.5(2)
C2 N4 N7 O2 -4.5(2)
C1 N4 N7 O2 -170.52(15)
C4 N1 C3 N5 174.88(16)
C4 N1 C3 N3 -0.20(15)
N2 N3 C3 N5 -174.63(14)
C2 N3 C3 N5 2.0(2)
N2 N3 C3 N1 0.52(16)
C2 N3 C3 N1 177.19(14)
N7 N4 C2 N3 -77.63(17)
C1 N4 C2 N3 87.62(19)
C3 N3 C2 N4 107.22(18)
N2 N3 C2 N4 -76.38(17)
N3 N2 C4 N1 0.50(17)
N3 N2 C4 N6 178.49(12)
C3 N1 C4 N2 -0.21(17)
C3 N1 C4 N6 -178.18(13)
O3 N6 C4 N2 -5.2(2)
O4 N6 C4 N2 175.94(13)
O3 N6 C4 N1 172.75(13)
O4 N6 C4 N1 -6.1(2)
