#------------------------------------------------------------------------------
#$Date: 2017-01-09 06:38:34 +0200 (Mon, 09 Jan 2017) $
#$Revision: 190235 $
#$URL: file:///home/coder/svn-repositories/cod/cif/7/05/58/7055858.cif $
#------------------------------------------------------------------------------
#
# This file is available in the Crystallography Open Database (COD),
# http://www.crystallography.net/
#
# All data on this site have been placed in the public domain by the
# contributors.
#
data_7055858
loop_
_publ_author_name
'Cheng, Meiling'
'Sun, Lin'
'Han, Wei'
'Wang, Shen'
'Liu, Qi'
'Sun, Xiaoqiang'
'Xi, Haitao'
_publ_section_title
;
 Effect of N ancillary ligands on the structure, nuclearity and magnetic
 behavior of Cu(ii)--pyrazolecarboxylate complexes
;
_journal_issue                   12
_journal_name_full               'New J. Chem.'
_journal_page_first              10504
_journal_paper_doi               10.1039/C6NJ02338J
_journal_volume                  40
_journal_year                    2016
_chemical_formula_sum            'C20 H20 Cu2 N6 O11'
_chemical_formula_weight         647.50
_chemical_name_systematic
;
 ?
;
_space_group_crystal_system      triclinic
_space_group_IT_number           2
_space_group_name_Hall           '-P 1'
_space_group_name_H-M_alt        'P -1'
_symmetry_space_group_name_Hall  '-P 1'
_symmetry_space_group_name_H-M   'P -1'
_atom_sites_solution_hydrogens   mixed
_audit_block_doi                 10.5517/ccdc.csd.cc1m5chn
_audit_creation_method           SHELXL-2013
_audit_update_record
;
2016-10-26 deposited with the CCDC.
2016-11-02 downloaded from the CCDC.
;
_cell_angle_alpha                95.150(4)
_cell_angle_beta                 95.809(4)
_cell_angle_gamma                105.873(4)
_cell_formula_units_Z            1
_cell_length_a                   7.0667(15)
_cell_length_b                   9.232(2)
_cell_length_c                   11.548(3)
_cell_measurement_reflns_used    2553
_cell_measurement_temperature    293(2)
_cell_measurement_theta_max      27.732
_cell_measurement_theta_min      2.311
_cell_volume                     715.5(3)
_computing_structure_refinement  'SHELXL-2013 (Sheldrick, 2013)'
_diffrn_ambient_temperature      293(2)
_diffrn_measured_fraction_theta_full 0.985
_diffrn_measured_fraction_theta_max 0.916
_diffrn_measurement_device_type  'Bruker Smart Apex CCD'
_diffrn_measurement_method       'phi and omega scans'
_diffrn_radiation_type           MoK\a
_diffrn_radiation_wavelength     0.71073
_diffrn_reflns_av_R_equivalents  0.0294
_diffrn_reflns_av_unetI/netI     0.0539
_diffrn_reflns_Laue_measured_fraction_full 0.985
_diffrn_reflns_Laue_measured_fraction_max 0.916
_diffrn_reflns_limit_h_max       8
_diffrn_reflns_limit_h_min       -9
_diffrn_reflns_limit_k_max       7
_diffrn_reflns_limit_k_min       -12
_diffrn_reflns_limit_l_max       14
_diffrn_reflns_limit_l_min       -15
_diffrn_reflns_number            4557
_diffrn_reflns_point_group_measured_fraction_full 0.985
_diffrn_reflns_point_group_measured_fraction_max 0.916
_diffrn_reflns_theta_full        25.242
_diffrn_reflns_theta_max         27.925
_diffrn_reflns_theta_min         1.786
_diffrn_source                   'fine-focus sealed tube'
_exptl_absorpt_coefficient_mu    1.548
_exptl_absorpt_correction_type   multi-scan
_exptl_absorpt_process_details   SADABS
_exptl_crystal_colour            green
_exptl_crystal_density_diffrn    1.503
_exptl_crystal_description       block
_exptl_crystal_F_000             328
_exptl_crystal_size_max          0.260
_exptl_crystal_size_mid          0.240
_exptl_crystal_size_min          0.200
_exptl_transmission_factor_max   0.743
_exptl_transmission_factor_min   0.675
_refine_diff_density_max         0.885
_refine_diff_density_min         -0.669
_refine_diff_density_rms         0.144
_refine_ls_extinction_method     none
_refine_ls_goodness_of_fit_ref   1.098
_refine_ls_hydrogen_treatment    constr
_refine_ls_matrix_type           full
_refine_ls_number_parameters     178
_refine_ls_number_reflns         3144
_refine_ls_number_restraints     0
_refine_ls_restrained_S_all      1.098
_refine_ls_R_factor_all          0.0696
_refine_ls_R_factor_gt           0.0569
_refine_ls_shift/su_max          0.000
_refine_ls_shift/su_mean         0.000
_refine_ls_structure_factor_coef Fsqd
_refine_ls_weighting_details
;
 w=1/[\s^2^(Fo^2^)+(0.1111P)^2^+0.6657P]
 where P=(Fo^2^+2Fc^2^)/3
;
_refine_ls_weighting_scheme      calc
_refine_ls_wR_factor_gt          0.1681
_refine_ls_wR_factor_ref         0.1815
_reflns_Friedel_coverage         0.000
_reflns_number_gt                2619
_reflns_number_total             3144
_reflns_threshold_expression     'I > 2\s(I)'
_cod_data_source_file            c6nj02338j2.cif
_cod_data_source_block           mo_150513a_0m
_cod_depositor_comments
'Adding full bibliography for 7055856--7055859.cif.'
_cod_database_code               7055858
_shelx_space_group_comment
;
The symmetry employed for this shelxl refinement is uniquely defined
by the following loop, which should always be used as a source of
symmetry information in preference to the above space-group names.
They are only intended as comments.
;
_shelx_estimated_absorpt_t_min   0.689
_shelx_estimated_absorpt_t_max   0.747
_shelxl_version_number           2013-2
_shelx_res_file
;
TITL mo_150513a_0m in P1              New: P-1
CELL  0.71073    7.0667    9.2320   11.5480    95.150    95.809   105.873
ZERR        1    0.0015    0.0020    0.0030     0.004     0.004     0.004
LATT 1
SFAC C  H  Cu N  O
UNIT 20 20 2 6 11
omit -1 1 0
omit 1 0 1
omit 3 -5 3
omit 4 2 3
omit -3 5 3
omit 3 -5 4
L.S. 20
ACTA
BOND $H
FMAP 2
PLAN 40
dfix 0.82 0.01 o4 h4x o4 h4y
CONF
size 0.26 0.20 0.24
WGHT    0.111100    0.665700
FVAR       0.76150
C1    1    0.525742   -0.324300   -0.219332    11.00000    0.03368    0.03918 =
         0.06774   -0.01423   -0.00944    0.00427
AFIX 137
H1A   2    0.561816   -0.336673   -0.296777    11.00000   -1.50000
H1B   2    0.383851   -0.350206   -0.223682    11.00000   -1.50000
H1C   2    0.574821   -0.389615   -0.171712    11.00000   -1.50000
AFIX   0
C2    1    0.614675   -0.161923   -0.165764    11.00000    0.03152    0.03269 =
         0.03974   -0.00327   -0.00074    0.01091
C3    1    0.526293   -0.042849   -0.173501    11.00000    0.03050    0.03982 =
         0.04407   -0.00397   -0.00423    0.01238
AFIX  43
H3A   2    0.403858   -0.046658   -0.213752    11.00000   -1.20000
AFIX   0
C4    1    0.663920    0.081409   -0.107259    11.00000    0.03070    0.03268 =
         0.03311    0.00114    0.00309    0.01358
C5    1    0.659810    0.239709   -0.073815    11.00000    0.03688    0.03534 =
         0.03554    0.00569    0.00888    0.02238
C6    1    0.995882    0.241608    0.309544    11.00000    0.06042    0.02577 =
         0.03518   -0.00163    0.00577    0.01676
AFIX  43
H6    2    0.982745    0.138132    0.298227    11.00000   -1.20000
AFIX   0
C7    1    0.985647    0.307951    0.420735    11.00000    0.06533    0.03004 =
         0.02845    0.00118    0.00494    0.01778
AFIX  43
H7    2    0.965295    0.248710    0.481861    11.00000   -1.20000
AFIX   0
C8    1    1.005749    0.462932    0.441086    11.00000    0.03945    0.03015 =
         0.02781   -0.00609    0.00346    0.01195
C9    1    1.035863    0.543665    0.345257    11.00000    0.07405    0.02396 =
         0.03616   -0.00242    0.01347    0.01418
AFIX  43
H9    2    1.051453    0.647558    0.354375    11.00000   -1.20000
AFIX   0
C10   1    1.042774    0.470888    0.236908    11.00000    0.06299    0.02992 =
         0.03369    0.00351    0.01224    0.01312
AFIX  43
H10   2    1.061195    0.527578    0.174211    11.00000   -1.20000
AFIX   0
CU1   3    1.004491    0.209526    0.053220    11.00000    0.03504    0.02494 =
         0.02735   -0.00416    0.00013    0.01474
N1    4    0.822664    0.044035   -0.062160    11.00000    0.03341    0.02616 =
         0.02867   -0.00215    0.00392    0.01309
N2    4    0.793743   -0.105854   -0.099094    11.00000    0.03205    0.02373 =
         0.02855   -0.00368    0.00010    0.01312
N3    4    1.024001    0.321106    0.217817    11.00000    0.03829    0.02666 =
         0.02682   -0.00476    0.00402    0.01331
O1    5    0.805416    0.319006    0.001550    11.00000    0.04183    0.02841 =
         0.04226    0.00117    0.00166    0.02018
O2    5    0.524893    0.289441   -0.118643    11.00000    0.04901    0.04787 =
         0.05849    0.00479    0.00015    0.03186
O3    5    1.207791    0.371713   -0.040835    11.00000    0.05408    0.03509 =
         0.08149    0.02088    0.03176    0.02470
AFIX   3
H3X   2    1.316431    0.362044   -0.036483    11.00000   -1.50000
H3Y   2    1.252532    0.480244   -0.015983    11.00000   -1.50000
PART 1
AFIX   0
O4    5    0.724201    0.804683    0.328456    11.00000    0.64199    0.38945 =
         0.36873   -0.20776   -0.36737    0.38763
O5    5    0.984277    0.878744    0.305145    10.50000    0.13432
O6    5    0.753818    0.021827    0.574606    10.50000    0.52088    0.26741 =
         0.57297    0.34482    0.47388    0.30098
PART 2
O5A   5    0.500000    0.500000    0.500000    10.50000    0.43012
PART 0
HKLF 4

REM  mo_150513a_0m in P1              New: P-1
REM R1 =  0.0569 for    2619 Fo > 4sig(Fo)  and  0.0696 for all    3144 data
REM    178 parameters refined using      0 restraints

END

WGHT      0.1111      0.6657

REM Highest difference peak  0.885,  deepest hole -0.669,  1-sigma level  0.144
Q1    1   0.8648  0.8557  0.2753  11.00000  0.05    0.88
Q2    1   0.6211 -0.0966  0.5220  11.00000  0.05    0.83
Q3    1   1.1174  0.9179  0.3461  11.00000  0.05    0.83
Q4    1   0.8826 -0.1356 -0.0763  11.00000  0.05    0.83
Q5    1   0.7318 -0.0444  0.4958  11.00000  0.05    0.78
Q6    1   1.0022  0.1414  0.1005  11.00000  0.05    0.76
Q7    1   0.6400  0.0263  0.5307  11.00000  0.05    0.73
Q8    1   1.0110  0.2562 -0.0045  11.00000  0.05    0.59
Q9    1   0.8912  0.2720  0.0364  11.00000  0.05    0.56
Q10   1   0.9231  0.1758  0.0173  11.00000  0.05    0.53
Q11   1   1.1488  0.2731 -0.0147  11.00000  0.05    0.45
Q12   1   1.0213  0.4999  0.3867  11.00000  0.05    0.45
Q13   1   1.0924  0.2454  0.0933  11.00000  0.05    0.45
Q14   1   0.6272  0.7058  0.3495  11.00000  0.05    0.44
Q15   1   1.0680  0.3985  0.4422  11.00000  0.05    0.43
Q16   1   1.0109  0.2850  0.2665  11.00000  0.05    0.43
Q17   1   1.0066  0.6301  0.1586  11.00000  0.05    0.38
Q18   1   0.5708  0.7925  0.3788  11.00000  0.05    0.38
Q19   1   1.2095  0.6602  0.2536  11.00000  0.05    0.38
Q20   1   1.1147  0.4835  0.2415  11.00000  0.05    0.37
Q21   1   0.5627  0.2911 -0.0857  11.00000  0.05    0.37
Q22   1   0.5692 -0.1036 -0.1818  11.00000  0.05    0.33
Q23   1   0.9206  0.3002  0.4126  11.00000  0.05    0.33
Q24   1   0.9752  0.6153  0.3240  11.00000  0.05    0.33
Q25   1   1.1839  0.4183 -0.0597  11.00000  0.05    0.32
Q26   1   1.1795  0.5347  0.1803  11.00000  0.05    0.32
Q27   1   0.4312  0.3696 -0.1650  11.00000  0.05    0.31
Q28   1   1.0087  0.5097  0.3029  11.00000  0.05    0.30
Q29   1   0.8846  0.0494  0.0289  11.00000  0.05    0.30
Q30   1   1.0000  0.5000  0.5000  10.50000  0.05    0.30
Q31   1   0.7007  0.8843  0.4053  11.00000  0.05    0.29
Q32   1   0.7491  0.1280  0.6142  11.00000  0.05    0.28
Q33   1   0.4001 -0.3256 -0.2591  11.00000  0.05    0.28
Q34   1   1.1364  0.3658  0.2644  11.00000  0.05    0.27
Q35   1   0.8024 -0.0243 -0.0041  11.00000  0.05    0.27
Q36   1   1.2718  0.2324  0.0157  11.00000  0.05    0.27
Q37   1   1.0470  0.2564  0.4863  11.00000  0.05    0.27
Q38   1   0.7289 -0.3029 -0.1177  11.00000  0.05    0.27
Q39   1   0.7408  0.1009 -0.0239  11.00000  0.05    0.27
Q40   1   1.2191  0.4314  0.1069  11.00000  0.05    0.27
;
_shelx_res_checksum              65724
loop_
_space_group_symop_operation_xyz
'x, y, z'
'-x, -y, -z'
loop_
_atom_site_label
_atom_site_type_symbol
_atom_site_fract_x
_atom_site_fract_y
_atom_site_fract_z
_atom_site_U_iso_or_equiv
_atom_site_adp_type
_atom_site_occupancy
_atom_site_site_symmetry_order
_atom_site_calc_flag
_atom_site_refinement_flags_posn
_atom_site_refinement_flags_adp
_atom_site_refinement_flags_occupancy
_atom_site_disorder_assembly
_atom_site_disorder_group
C1 C 0.5257(8) -0.3243(6) -0.2193(5) 0.0506(13) Uani 1 1 d . . . . .
H1A H 0.5618 -0.3367 -0.2968 0.076 Uiso 1 1 calc R U . . .
H1B H 0.3839 -0.3502 -0.2237 0.076 Uiso 1 1 calc R U . . .
H1C H 0.5748 -0.3896 -0.1717 0.076 Uiso 1 1 calc R U . . .
C2 C 0.6147(7) -0.1619(5) -0.1658(4) 0.0352(9) Uani 1 1 d . . . . .
C3 C 0.5263(7) -0.0428(5) -0.1735(4) 0.0389(10) Uani 1 1 d . . . . .
H3A H 0.4039 -0.0467 -0.2138 0.047 Uiso 1 1 calc R U . . .
C4 C 0.6639(6) 0.0814(5) -0.1073(4) 0.0315(8) Uani 1 1 d . . . . .
C5 C 0.6598(7) 0.2397(5) -0.0738(4) 0.0331(9) Uani 1 1 d . . . . .
C6 C 0.9959(8) 0.2416(5) 0.3095(4) 0.0399(10) Uani 1 1 d . . . . .
H6 H 0.9827 0.1381 0.2982 0.048 Uiso 1 1 calc R U . . .
C7 C 0.9856(8) 0.3080(5) 0.4207(4) 0.0407(11) Uani 1 1 d . . . . .
H7 H 0.9653 0.2487 0.4819 0.049 Uiso 1 1 calc R U . . .
C8 C 1.0057(7) 0.4629(5) 0.4411(3) 0.0327(9) Uani 1 1 d . . . . .
C9 C 1.0359(9) 0.5437(5) 0.3453(4) 0.0446(12) Uani 1 1 d . . . . .
H9 H 1.0515 0.6476 0.3544 0.054 Uiso 1 1 calc R U . . .
C10 C 1.0428(8) 0.4709(5) 0.2369(4) 0.0418(11) Uani 1 1 d . . . . .
H10 H 1.0612 0.5276 0.1742 0.050 Uiso 1 1 calc R U . . .
Cu1 Cu 1.00449(7) 0.20953(5) 0.05322(4) 0.0286(2) Uani 1 1 d . . . . .
N1 N 0.8227(5) 0.0440(4) -0.0622(3) 0.0289(7) Uani 1 1 d . . . . .
N2 N 0.7937(5) -0.1059(4) -0.0991(3) 0.0278(7) Uani 1 1 d . . . . .
N3 N 1.0240(5) 0.3211(4) 0.2178(3) 0.0303(7) Uani 1 1 d . . . . .
O1 O 0.8054(5) 0.3190(3) 0.0015(3) 0.0359(7) Uani 1 1 d . . . . .
O2 O 0.5249(5) 0.2894(4) -0.1186(3) 0.0488(9) Uani 1 1 d . . . . .
O3 O 1.2078(6) 0.3717(4) -0.0408(4) 0.0520(10) Uani 1 1 d . . . . .
H3X H 1.3164 0.3620 -0.0365 0.078 Uiso 1 1 d R U . . .
H3Y H 1.2525 0.4802 -0.0160 0.078 Uiso 1 1 d R U . . .
O4 O 0.724(4) 0.805(2) 0.3285(19) 0.47(2) Uani 1 1 d . . . A 1
O5 O 0.984(3) 0.879(2) 0.3051(17) 0.134(6) Uiso 0.5 1 d . . P B 1
O6 O 0.754(6) 0.022(3) 0.575(4) 0.37(3) Uani 0.5 1 d . . P C 1
O5A O 0.5000 0.5000 0.5000 0.43(2) Uiso 1 2 d S . P D 2
loop_
_atom_site_aniso_label
_atom_site_aniso_U_11
_atom_site_aniso_U_22
_atom_site_aniso_U_33
_atom_site_aniso_U_23
_atom_site_aniso_U_13
_atom_site_aniso_U_12
C1 0.034(3) 0.039(3) 0.068(3) -0.014(2) -0.009(2) 0.004(2)
C2 0.032(2) 0.033(2) 0.040(2) -0.0033(17) -0.0007(17) 0.0109(18)
C3 0.031(2) 0.040(3) 0.044(2) -0.0040(19) -0.0042(18) 0.012(2)
C4 0.031(2) 0.033(2) 0.033(2) 0.0011(16) 0.0031(16) 0.0136(18)
C5 0.037(2) 0.035(2) 0.036(2) 0.0057(17) 0.0089(17) 0.0224(19)
C6 0.060(3) 0.026(2) 0.035(2) -0.0016(16) 0.006(2) 0.017(2)
C7 0.065(3) 0.030(2) 0.028(2) 0.0012(16) 0.005(2) 0.018(2)
C8 0.039(2) 0.030(2) 0.028(2) -0.0061(16) 0.0035(16) 0.0119(18)
C9 0.074(3) 0.024(2) 0.036(2) -0.0024(17) 0.013(2) 0.014(2)
C10 0.063(3) 0.030(2) 0.034(2) 0.0035(17) 0.012(2) 0.013(2)
Cu1 0.0350(3) 0.0249(3) 0.0274(3) -0.00416(19) 0.0001(2) 0.0147(2)
N1 0.0334(18) 0.0262(17) 0.0287(16) -0.0021(13) 0.0039(14) 0.0131(14)
N2 0.0321(18) 0.0237(16) 0.0285(16) -0.0037(13) 0.0001(13) 0.0131(14)
N3 0.0383(19) 0.0267(17) 0.0268(16) -0.0048(13) 0.0040(14) 0.0133(15)
O1 0.0418(17) 0.0284(15) 0.0423(17) 0.0012(13) 0.0017(13) 0.0202(14)
O2 0.049(2) 0.048(2) 0.058(2) 0.0048(16) 0.0001(16) 0.0319(17)
O3 0.054(2) 0.0351(18) 0.081(3) 0.0209(18) 0.032(2) 0.0247(17)
O4 0.64(4) 0.39(2) 0.37(2) -0.21(2) -0.37(3) 0.39(3)
O6 0.52(5) 0.27(3) 0.57(6) 0.34(4) 0.47(5) 0.30(3)
loop_
_atom_type_symbol
_atom_type_description
_atom_type_scat_dispersion_real
_atom_type_scat_dispersion_imag
_atom_type_scat_source
C C 0.0033 0.0016 'International Tables Vol C Tables 4.2.6.8 and 6.1.1.4'
H H 0.0000 0.0000 'International Tables Vol C Tables 4.2.6.8 and 6.1.1.4'
Cu Cu 0.3201 1.2651 'International Tables Vol C Tables 4.2.6.8 and 6.1.1.4'
N N 0.0061 0.0033 'International Tables Vol C Tables 4.2.6.8 and 6.1.1.4'
O O 0.0106 0.0060 'International Tables Vol C Tables 4.2.6.8 and 6.1.1.4'
loop_
_geom_angle_atom_site_label_1
_geom_angle_atom_site_label_2
_geom_angle_atom_site_label_3
_geom_angle
_geom_angle_site_symmetry_1
_geom_angle_site_symmetry_3
C2 C1 H1A 109.5 . .
C2 C1 H1B 109.5 . .
H1A C1 H1B 109.5 . .
C2 C1 H1C 109.5 . .
H1A C1 H1C 109.5 . .
H1B C1 H1C 109.5 . .
N2 C2 C3 108.1(4) . .
N2 C2 C1 125.3(4) . .
C3 C2 C1 126.5(4) . .
C4 C3 C2 104.2(4) . .
C4 C3 H3A 127.9 . .
C2 C3 H3A 127.9 . .
N1 C4 C3 111.1(4) . .
N1 C4 C5 116.6(4) . .
C3 C4 C5 132.3(4) . .
O2 C5 O1 124.0(4) . .
O2 C5 C4 121.4(4) . .
O1 C5 C4 114.6(3) . .
N3 C6 C7 122.5(4) . .
N3 C6 H6 118.7 . .
C7 C6 H6 118.7 . .
C6 C7 C8 120.3(4) . .
C6 C7 H7 119.8 . .
C8 C7 H7 119.8 . .
C9 C8 C7 116.4(4) . .
C9 C8 C8 122.0(5) . 2_766
C7 C8 C8 121.6(5) . 2_766
C10 C9 C8 120.5(4) . .
C10 C9 H9 119.7 . .
C8 C9 H9 119.7 . .
N3 C10 C9 122.9(4) . .
N3 C10 H10 118.6 . .
C9 C10 H10 118.6 . .
N2 Cu1 N1 98.70(13) 2_755 .
N2 Cu1 O1 177.69(13) 2_755 .
N1 Cu1 O1 81.46(13) . .
N2 Cu1 N3 94.46(14) 2_755 .
N1 Cu1 N3 141.78(14) . .
O1 Cu1 N3 86.78(13) . .
N2 Cu1 O3 93.30(14) 2_755 .
N1 Cu1 O3 109.52(15) . .
O1 Cu1 O3 84.48(13) . .
N3 Cu1 O3 105.31(15) . .
C4 N1 N2 107.4(3) . .
C4 N1 Cu1 112.4(3) . .
N2 N1 Cu1 139.5(3) . .
C2 N2 N1 109.3(3) . .
C2 N2 Cu1 129.6(3) . 2_755
N1 N2 Cu1 121.1(3) . 2_755
C6 N3 C10 117.4(4) . .
C6 N3 Cu1 119.7(3) . .
C10 N3 Cu1 122.5(3) . .
C5 O1 Cu1 114.7(2) . .
Cu1 O3 H3X 113.3 . .
Cu1 O3 H3Y 123.0 . .
H3X O3 H3Y 94.5 . .
loop_
_geom_bond_atom_site_label_1
_geom_bond_atom_site_label_2
_geom_bond_distance
_geom_bond_site_symmetry_2
C1 C2 1.505(6) .
C1 H1A 0.9600 .
C1 H1B 0.9600 .
C1 H1C 0.9600 .
C2 N2 1.355(6) .
C2 C3 1.410(6) .
C3 C4 1.389(6) .
C3 H3A 0.9300 .
C4 N1 1.332(5) .
C4 C5 1.487(6) .
C5 O2 1.253(5) .
C5 O1 1.282(6) .
C6 N3 1.343(6) .
C6 C7 1.390(6) .
C6 H6 0.9300 .
C7 C8 1.394(6) .
C7 H7 0.9300 .
C8 C9 1.391(6) .
C8 C8 1.487(8) 2_766
C9 C10 1.378(6) .
C9 H9 0.9300 .
C10 N3 1.348(6) .
C10 H10 0.9300 .
Cu1 N2 1.978(3) 2_755
Cu1 N1 1.994(3) .
Cu1 O1 2.018(3) .
Cu1 N3 2.052(3) .
Cu1 O3 2.217(3) .
N1 N2 1.364(4) .
N2 Cu1 1.978(3) 2_755
O3 H3X 0.7940 .
O3 H3Y 0.9711 .
loop_
_geom_torsion_atom_site_label_1
_geom_torsion_atom_site_label_2
_geom_torsion_atom_site_label_3
_geom_torsion_atom_site_label_4
_geom_torsion
_geom_torsion_site_symmetry_1
_geom_torsion_site_symmetry_4
N2 C2 C3 C4 -0.5(5) . .
C1 C2 C3 C4 178.2(5) . .
C2 C3 C4 N1 -0.2(5) . .
C2 C3 C4 C5 -176.2(4) . .
N1 C4 C5 O2 174.3(4) . .
C3 C4 C5 O2 -9.8(7) . .
N1 C4 C5 O1 -4.5(6) . .
C3 C4 C5 O1 171.4(5) . .
N3 C6 C7 C8 -0.3(8) . .
C6 C7 C8 C9 0.0(7) . .
C6 C7 C8 C8 179.6(5) . 2_766
C7 C8 C9 C10 0.6(8) . .
C8 C8 C9 C10 -179.0(6) 2_766 .
C8 C9 C10 N3 -0.9(9) . .
C3 C4 N1 N2 0.7(5) . .
C5 C4 N1 N2 177.4(3) . .
C3 C4 N1 Cu1 -171.1(3) . .
C5 C4 N1 Cu1 5.6(5) . .
C3 C2 N2 N1 0.9(5) . .
C1 C2 N2 N1 -177.8(4) . .
C3 C2 N2 Cu1 -179.8(3) . 2_755
C1 C2 N2 Cu1 1.5(7) . 2_755
C4 N1 N2 C2 -1.0(4) . .
Cu1 N1 N2 C2 167.3(3) . .
C4 N1 N2 Cu1 179.6(3) . 2_755
Cu1 N1 N2 Cu1 -12.1(5) . 2_755
C7 C6 N3 C10 0.1(7) . .
C7 C6 N3 Cu1 -172.8(4) . .
C9 C10 N3 C6 0.5(8) . .
C9 C10 N3 Cu1 173.3(4) . .
O2 C5 O1 Cu1 -177.8(3) . .
C4 C5 O1 Cu1 0.9(5) . .
