#------------------------------------------------------------------------------
#$Date: 2016-03-05 12:36:07 +0200 (Sat, 05 Mar 2016) $
#$Revision: 177896 $
#$URL: svn://www.crystallography.net/cod/cif/7/05/51/7055171.cif $
#------------------------------------------------------------------------------
#
# This file is available in the Crystallography Open Database (COD),
# http://www.crystallography.net/
#
# All data on this site have been placed in the public domain by the
# contributors.
#
data_7055171
loop_
_publ_author_name
'Babashkina, Maria G.'
'Robeyns, Koen'
'Filinchuk, Yaroslav'
'Safin, Damir A.'
_publ_section_title
;
 Detailed studies of the interaction of 3-chloroaniline with
 O,O&#x2032;-diphenylphosphorylisothiocyanate
;
_journal_issue                   2
_journal_name_full               'New J. Chem.'
_journal_page_first              1230
_journal_paper_doi               10.1039/C5NJ02588E
_journal_volume                  40
_journal_year                    2016
_chemical_formula_moiety         'C6 H7 Cl N, C N S'
_chemical_formula_sum            'C7 H7 Cl N2 S'
_chemical_formula_weight         186.66
_space_group_crystal_system      monoclinic
_space_group_IT_number           14
_space_group_name_Hall           '-P 2ybc'
_space_group_name_H-M_alt        'P 1 21/c 1'
_symmetry_space_group_name_Hall  '-P 2ybc'
_symmetry_space_group_name_H-M   'P 1 21/c 1'
_atom_sites_solution_hydrogens   geom
_audit_creation_method           SHELXL-2014/7
_audit_update_record
;
2015-11-04 deposited with the CCDC.
2015-11-13 downloaded from the CCDC.
;
_cell_angle_alpha                90
_cell_angle_beta                 99.36(2)
_cell_angle_gamma                90
_cell_formula_units_Z            4
_cell_length_a                   15.742(4)
_cell_length_b                   7.7102(9)
_cell_length_c                   7.0694(12)
_cell_measurement_reflns_used    1473
_cell_measurement_temperature    150(2)
_cell_measurement_theta_max      24.9900
_cell_measurement_theta_min      3.7140
_cell_volume                     846.6(3)
_computing_cell_refinement
;
CrysAlisPro, Agilent Technologies,
Version 1.171.37.35 (release 13-08-2014 CrysAlis171 .NET)
(compiled Aug 13 2014,18:06:01)
;
_computing_data_collection       MAR
_computing_data_reduction
;
CrysAlisPro, Agilent Technologies,
Version 1.171.37.35 (release 13-08-2014 CrysAlis171 .NET)
(compiled Aug 13 2014,18:06:01)
;
_computing_molecular_graphics    'MERCURY (Macrae et al., 2008)'
_computing_publication_material
;

'MERCURY (Macrae et al., 2008), Platon (Spek, 2009)'



;
_computing_structure_refinement  'SHELXL-2014/7 (Sheldrick, 2014)'
_computing_structure_solution    'SHELXS-97 (Sheldrick, 1990)'
_diffrn_ambient_temperature      150(2)
_diffrn_measured_fraction_theta_full 0.991
_diffrn_measured_fraction_theta_max 0.991
_diffrn_measurement_device_type  'MAR345 image plate'
_diffrn_measurement_method       '110 images, \D\F 2.0\% '
_diffrn_radiation_monochromator  'Xenocs Fox3D mirror'
_diffrn_radiation_source         'Rigaku UltraX 18 rotating anode'
_diffrn_radiation_type           MoK\a
_diffrn_radiation_wavelength     0.71073
_diffrn_reflns_av_R_equivalents  0.0758
_diffrn_reflns_av_unetI/netI     0.0669
_diffrn_reflns_laue_measured_fraction_full 0.991
_diffrn_reflns_laue_measured_fraction_max 0.991
_diffrn_reflns_limit_h_max       18
_diffrn_reflns_limit_h_min       -18
_diffrn_reflns_limit_k_max       9
_diffrn_reflns_limit_k_min       -9
_diffrn_reflns_limit_l_max       8
_diffrn_reflns_limit_l_min       -8
_diffrn_reflns_number            5161
_diffrn_reflns_point_group_measured_fraction_full 0.991
_diffrn_reflns_point_group_measured_fraction_max 0.991
_diffrn_reflns_theta_full        25.239
_diffrn_reflns_theta_max         25.239
_diffrn_reflns_theta_min         2.950
_exptl_absorpt_coefficient_mu    0.630
_exptl_absorpt_correction_T_max  1.00000
_exptl_absorpt_correction_T_min  0.57767
_exptl_absorpt_correction_type   multi-scan
_exptl_absorpt_process_details
;
CrysAlisPro, Agilent Technologies,
Version 1.171.37.35 (release 13-08-2014 CrysAlis171 .NET)
(compiled Aug 13 2014,18:06:01)
Empirical absorption correction using spherical harmonics,
 implemented in SCALE3 ABSPACK scaling algorithm.
;
_exptl_crystal_colour            colourless
_exptl_crystal_density_diffrn    1.464
_exptl_crystal_description       plate
_exptl_crystal_F_000             384
_exptl_crystal_size_max          0.35
_exptl_crystal_size_mid          0.10
_exptl_crystal_size_min          0.04
_refine_diff_density_max         0.971
_refine_diff_density_min         -0.610
_refine_diff_density_rms         0.142
_refine_ls_extinction_method     none
_refine_ls_goodness_of_fit_ref   1.084
_refine_ls_hydrogen_treatment    constr
_refine_ls_matrix_type           full
_refine_ls_number_parameters     101
_refine_ls_number_reflns         1523
_refine_ls_number_restraints     0
_refine_ls_restrained_S_all      1.084
_refine_ls_R_factor_all          0.1194
_refine_ls_R_factor_gt           0.0928
_refine_ls_shift/su_max          0.000
_refine_ls_shift/su_mean         0.000
_refine_ls_structure_factor_coef Fsqd
_refine_ls_weighting_details
'w=1/[\s^2^(Fo^2^)+(0.0320P)^2^+11.7508P] where P=(Fo^2^+2Fc^2^)/3'
_refine_ls_weighting_scheme      calc
_refine_ls_wR_factor_gt          0.2066
_refine_ls_wR_factor_ref         0.2191
_reflns_Friedel_coverage         0.000
_reflns_number_gt                1139
_reflns_number_total             1523
_reflns_threshold_expression     'I > 2\s(I)'
_cod_data_source_file            c5nj02588e2.cif
_cod_data_source_block           2
_cod_depositor_comments
'Adding full bibliography for 7055170--7055173.cif.'
_cod_database_code               7055171
_shelx_shelxl_version_number     2014/7
_shelx_space_group_comment
;
The symmetry employed for this shelxl refinement is uniquely defined
by the following loop, which should always be used as a source of
symmetry information in preference to the above space-group names.
They are only intended as comments.
;
_shelx_res_file
;

    2.res created by SHELXL-2014/7


TITL 2 in P2(1)/c
REM P2(1)/c (#14 in standard setting)
CELL 0.71073  15.742017   7.710176   7.069407  90.0000  99.3576  90.0000
ZERR    4.00   0.004221   0.000948   0.001161   0.0000   0.0203   0.0000
LATT 1
SYMM -x, y+1/2,-z+1/2
SFAC C  H  N  S  Cl
UNIT 28 28 8 4 4
OMIT    -2   2   5
OMIT     0   0   4
OMIT    -3   0   6
OMIT    -1   0   4

L.S. 10
ACTA
BOND $H
FMAP 2
PLAN 20

CONF
HTAB
TEMP -123
WGHT    0.031950   11.750800
FVAR       1.07084
MOLE 1
CL1   5    0.884620    0.111437    0.594156    11.00000    0.05574    0.01838 =
         0.05256    0.00265    0.01378    0.01056
C2    1    0.849514    0.327926    0.566461    11.00000    0.04872    0.01240 =
         0.03107    0.00211    0.01459    0.00340
C3    1    0.909066    0.456714    0.608249    11.00000    0.03920    0.02514 =
         0.04732   -0.00016    0.01512    0.00309
AFIX  43
H3    2    0.967958    0.430843    0.652369    11.00000   -1.20000
AFIX   0
C4    1    0.880506    0.627136    0.583972    11.00000    0.04816    0.01683 =
         0.05055   -0.00028    0.01116   -0.00949
AFIX  43
H4    2    0.920298    0.719781    0.612704    11.00000   -1.20000
AFIX   0
C5    1    0.795821    0.662535    0.519237    11.00000    0.04883    0.00857 =
         0.04880    0.00299    0.00752   -0.00718
AFIX  43
H5    2    0.777336    0.779480    0.500660    11.00000   -1.20000
AFIX   0
C6    1    0.737285    0.530511    0.480862    11.00000    0.03794    0.01683 =
         0.01800   -0.00177    0.00894    0.00143
C7    1    0.764226    0.357276    0.504088    11.00000    0.04196    0.01169 =
         0.02539   -0.00080    0.01369   -0.00375
AFIX  43
H7    2    0.724573    0.264151    0.477383    11.00000   -1.20000
AFIX   0
N8    3    0.647657    0.566343    0.411582    11.00000    0.05136    0.00945 =
         0.02889   -0.00457    0.01395    0.00120
AFIX 137
H8A   2    0.636138    0.679163    0.435501    11.00000   -1.50000
H8B   2    0.614285    0.496087    0.472451    11.00000   -1.50000
H8C   2    0.636026    0.546377    0.283103    11.00000   -1.50000
AFIX   0
S11   4    0.558490    0.167623    0.218716    11.00000    0.04854    0.01142 =
         0.02954    0.00248    0.01129   -0.00048
C12   1    0.596620    0.026940    0.384215    11.00000    0.03908    0.00951 =
         0.03269   -0.00471    0.01976   -0.00145
N13   3    0.624859   -0.071880    0.506047    11.00000    0.05280    0.01648 =
         0.03669   -0.00147    0.01110    0.00167
HKLF 4

REM  2 in P2(1)/c
REM R1 =  0.0928 for    1139 Fo > 4sig(Fo)  and  0.1194 for all    1523 data
REM    101 parameters refined using      0 restraints

END

WGHT      0.1245      5.8100

REM Instructions for potential hydrogen bonds
EQIV $1 x, y+1, z
HTAB C5 N13_$1
HTAB C7 S11
HTAB N8 N13_$1
EQIV $2 x, -y+1/2, z+1/2
HTAB N8 S11_$2
EQIV $3 x, -y+1/2, z-1/2
HTAB N8 N13_$3

REM Highest difference peak  0.971,  deepest hole -0.610,  1-sigma level  0.142
Q1    1   0.4927  0.1594  0.1517  11.00000  0.05    0.97
Q2    1   0.9539  0.1161  0.6930  11.00000  0.05    0.83
Q3    1   0.6326  0.1766  0.2576  11.00000  0.05    0.76
Q4    1   0.8158  0.1050  0.5078  11.00000  0.05    0.75
Q5    1   0.6763  0.1721  0.2522  11.00000  0.05    0.66
Q6    1   0.8846  0.1173  0.4409  11.00000  0.05    0.61
Q7    1   0.5546  0.1632  0.3559  11.00000  0.05    0.53
Q8    1   0.8385  0.1055  0.7221  11.00000  0.05    0.51
Q9    1   0.5605  0.1752  0.0581  11.00000  0.05    0.48
Q10   1   0.6232  0.5695  0.1491  11.00000  0.05    0.47
Q11   1   0.8886  0.1118  0.7503  11.00000  0.05    0.44
Q12   1   0.6771  0.0181  0.2928  11.00000  0.05    0.40
Q13   1   0.5979  0.1691  0.1356  11.00000  0.05    0.38
Q14   1   0.7628  0.9884  0.4324  11.00000  0.05    0.38
Q15   1   0.5816  0.3804  0.2532  11.00000  0.05    0.37
Q16   1   0.5560  0.4561  0.3804  11.00000  0.05    0.36
Q17   1   0.5167  0.0163  0.3383  11.00000  0.05    0.36
Q18   1   0.8169  0.3643  0.4441  11.00000  0.05    0.36
Q19   1   0.6449  0.0416  0.2899  11.00000  0.05    0.35
Q20   1   0.7242  0.9810  0.4167  11.00000  0.05    0.33
;
_shelx_res_checksum              79169
loop_
_space_group_symop_operation_xyz
'x, y, z'
'-x, y+1/2, -z+1/2'
'-x, -y, -z'
'x, -y-1/2, z-1/2'
loop_
_atom_site_label
_atom_site_type_symbol
_atom_site_fract_x
_atom_site_fract_y
_atom_site_fract_z
_atom_site_U_iso_or_equiv
_atom_site_adp_type
_atom_site_occupancy
_atom_site_site_symmetry_order
_atom_site_calc_flag
_atom_site_refinement_flags_posn
_atom_site_refinement_flags_adp
Cl1 Cl 0.88462(15) 0.1114(2) 0.5942(3) 0.0417(6) Uani 1 1 d . .
C2 C 0.8495(5) 0.3279(9) 0.5665(11) 0.0298(18) Uani 1 1 d . .
C3 C 0.9091(6) 0.4567(10) 0.6082(13) 0.036(2) Uani 1 1 d . .
H3 H 0.9680 0.4308 0.6524 0.044 Uiso 1 1 calc R U
C4 C 0.8805(6) 0.6271(10) 0.5840(13) 0.038(2) Uani 1 1 d . .
H4 H 0.9203 0.7198 0.6127 0.046 Uiso 1 1 calc R U
C5 C 0.7958(5) 0.6625(10) 0.5192(12) 0.0354(19) Uani 1 1 d . .
H5 H 0.7773 0.7795 0.5007 0.043 Uiso 1 1 calc R U
C6 C 0.7373(5) 0.5305(9) 0.4809(10) 0.0238(16) Uani 1 1 d . .
C7 C 0.7642(5) 0.3573(9) 0.5041(10) 0.0254(16) Uani 1 1 d . .
H7 H 0.7246 0.2642 0.4774 0.031 Uiso 1 1 calc R U
N8 N 0.6477(4) 0.5663(7) 0.4116(9) 0.0291(15) Uani 1 1 d . .
H8A H 0.6361 0.6792 0.4355 0.044 Uiso 1 1 calc R U
H8B H 0.6143 0.4961 0.4725 0.044 Uiso 1 1 calc R U
H8C H 0.6360 0.5464 0.2831 0.044 Uiso 1 1 calc R U
S11 S 0.55849(14) 0.1676(2) 0.2187(3) 0.0293(5) Uani 1 1 d . .
C12 C 0.5966(5) 0.0269(9) 0.3842(11) 0.0255(17) Uani 1 1 d . .
N13 N 0.6249(5) -0.0719(8) 0.5060(10) 0.0349(16) Uani 1 1 d . .
loop_
_atom_site_aniso_label
_atom_site_aniso_U_11
_atom_site_aniso_U_22
_atom_site_aniso_U_33
_atom_site_aniso_U_23
_atom_site_aniso_U_13
_atom_site_aniso_U_12
Cl1 0.0557(14) 0.0184(10) 0.0526(14) 0.0027(9) 0.0138(11) 0.0106(9)
C2 0.049(5) 0.012(3) 0.031(4) 0.002(3) 0.015(4) 0.003(3)
C3 0.039(5) 0.025(4) 0.047(5) 0.000(4) 0.015(4) 0.003(4)
C4 0.048(5) 0.017(4) 0.051(5) 0.000(4) 0.011(4) -0.009(4)
C5 0.049(5) 0.009(3) 0.049(5) 0.003(3) 0.008(4) -0.007(3)
C6 0.038(4) 0.017(4) 0.018(4) -0.002(3) 0.009(3) 0.001(3)
C7 0.042(5) 0.012(3) 0.025(4) -0.001(3) 0.014(3) -0.004(3)
N8 0.051(4) 0.009(3) 0.029(4) -0.005(3) 0.014(3) 0.001(3)
S11 0.0485(12) 0.0114(8) 0.0295(10) 0.0025(7) 0.0113(9) -0.0005(8)
C12 0.039(4) 0.010(3) 0.033(4) -0.005(3) 0.020(4) -0.001(3)
N13 0.053(4) 0.016(3) 0.037(4) -0.001(3) 0.011(3) 0.002(3)
loop_
_atom_type_symbol
_atom_type_description
_atom_type_scat_dispersion_real
_atom_type_scat_dispersion_imag
_atom_type_scat_source
C C 0.0033 0.0016 'International Tables Vol C Tables 4.2.6.8 and 6.1.1.4'
H H 0.0000 0.0000 'International Tables Vol C Tables 4.2.6.8 and 6.1.1.4'
N N 0.0061 0.0033 'International Tables Vol C Tables 4.2.6.8 and 6.1.1.4'
S S 0.1246 0.1234 'International Tables Vol C Tables 4.2.6.8 and 6.1.1.4'
Cl Cl 0.1484 0.1585 'International Tables Vol C Tables 4.2.6.8 and 6.1.1.4'
loop_
_geom_angle_atom_site_label_1
_geom_angle_atom_site_label_2
_geom_angle_atom_site_label_3
_geom_angle
C7 C2 C3 123.7(7)
C7 C2 Cl1 118.0(6)
C3 C2 Cl1 118.3(6)
C2 C3 C4 117.6(8)
C2 C3 H3 121.2
C4 C3 H3 121.2
C5 C4 C3 120.6(8)
C5 C4 H4 119.7
C3 C4 H4 119.7
C4 C5 C6 120.4(7)
C4 C5 H5 119.8
C6 C5 H5 119.8
C5 C6 C7 120.2(7)
C5 C6 N8 120.9(7)
C7 C6 N8 118.8(6)
C2 C7 C6 117.3(7)
C2 C7 H7 121.3
C6 C7 H7 121.3
C6 N8 H8A 109.5
C6 N8 H8B 109.5
H8A N8 H8B 109.5
C6 N8 H8C 109.5
H8A N8 H8C 109.5
H8B N8 H8C 109.5
N13 C12 S11 178.6(7)
loop_
_geom_bond_atom_site_label_1
_geom_bond_atom_site_label_2
_geom_bond_distance
Cl1 C2 1.759(7)
C2 C7 1.362(11)
C2 C3 1.365(11)
C3 C4 1.390(11)
C3 H3 0.9500
C4 C5 1.365(12)
C4 H4 0.9500
C5 C6 1.370(10)
C5 H5 0.9500
C6 C7 1.403(10)
C6 N8 1.443(9)
C7 H7 0.9500
N8 H8A 0.9100
N8 H8B 0.9100
N8 H8C 0.9100
S11 C12 1.636(8)
C12 N13 1.181(10)
loop_
_geom_torsion_atom_site_label_1
_geom_torsion_atom_site_label_2
_geom_torsion_atom_site_label_3
_geom_torsion_atom_site_label_4
_geom_torsion
C7 C2 C3 C4 -0.5(13)
Cl1 C2 C3 C4 179.4(6)
C2 C3 C4 C5 -0.4(13)
C3 C4 C5 C6 1.3(13)
C4 C5 C6 C7 -1.3(12)
C4 C5 C6 N8 -179.7(7)
C3 C2 C7 C6 0.5(12)
Cl1 C2 C7 C6 -179.4(5)
C5 C6 C7 C2 0.4(11)
N8 C6 C7 C2 178.9(6)
