#------------------------------------------------------------------------------
#$Date: 2019-11-17 13:54:56 +0200 (Sun, 17 Nov 2019) $
#$Revision: 230309 $
#$URL: file:///home/coder/svn-repositories/cod/cif/7/05/69/7056980.cif $
#------------------------------------------------------------------------------
#
# This file is available in the Crystallography Open Database (COD),
# http://www.crystallography.net/
#
# All data on this site have been placed in the public domain by the
# contributors.
#
data_7056980
loop_
_publ_author_name
'Lu, Taotao'
'Yang, Chu-Fan'
'Steren, Carlos A.'
'Fei, Fan'
'Chen, Xue-Tai'
'Xue, Zi-Ling'
_publ_section_title
;
 Synthesis and characterization of Ag(i) and Au(i) complexes with
 macrocyclic hybrid amine N-heterocyclic carbene ligands
;
_journal_issue                   6
_journal_name_full               'New Journal of Chemistry'
_journal_page_first              4700
_journal_paper_doi               10.1039/C7NJ04020B
_journal_volume                  42
_journal_year                    2018
_chemical_formula_sum            'C22 H28 F12 N6 P2'
_chemical_formula_weight         666.44
_space_group_crystal_system      triclinic
_space_group_IT_number           2
_space_group_name_Hall           '-P 1'
_space_group_name_H-M_alt        'P -1'
_symmetry_space_group_name_Hall  '-P 1'
_symmetry_space_group_name_H-M   'P -1'
_atom_sites_solution_hydrogens   mixed
_audit_creation_method           SHELXL-2014/6
_audit_update_record
;
2018-01-21 deposited with the CCDC.
2018-02-06 downloaded from the CCDC.
;
_cell_angle_alpha                63.038(3)
_cell_angle_beta                 85.745(3)
_cell_angle_gamma                71.462(3)
_cell_formula_units_Z            1
_cell_length_a                   9.0425(15)
_cell_length_b                   9.3574(16)
_cell_length_c                   9.7188(17)
_cell_measurement_reflns_used    1742
_cell_measurement_temperature    150(2)
_cell_measurement_theta_max      25.61
_cell_measurement_theta_min      2.38
_cell_volume                     692.5(2)
_computing_cell_refinement       'Bruker SAINT'
_computing_data_collection       'Bruker APEX2'
_computing_data_reduction        'Bruker SAINT'
_computing_molecular_graphics    'Bruker SHELXTL'
_computing_publication_material  'Bruker SHELXTL'
_computing_structure_refinement  'SHELXL-2014/6 (Sheldrick, 2014)'
_computing_structure_solution    'SHELXS-97 (Sheldrick 2008)'
_diffrn_ambient_temperature      150(2)
_diffrn_measured_fraction_theta_full 0.964
_diffrn_measured_fraction_theta_max 0.984
_diffrn_measurement_device_type  'Bruker APEX-II CCD'
_diffrn_measurement_method       '\f and \w scans'
_diffrn_radiation_type           MoK\a
_diffrn_radiation_wavelength     0.71073
_diffrn_reflns_av_R_equivalents  0.0186
_diffrn_reflns_av_unetI/netI     0.0277
_diffrn_reflns_Laue_measured_fraction_full 0.964
_diffrn_reflns_Laue_measured_fraction_max 0.984
_diffrn_reflns_limit_h_max       10
_diffrn_reflns_limit_h_min       -10
_diffrn_reflns_limit_k_max       11
_diffrn_reflns_limit_k_min       -7
_diffrn_reflns_limit_l_max       11
_diffrn_reflns_limit_l_min       -11
_diffrn_reflns_number            3869
_diffrn_reflns_point_group_measured_fraction_full 0.964
_diffrn_reflns_point_group_measured_fraction_max 0.984
_diffrn_reflns_theta_full        25.242
_diffrn_reflns_theta_max         25.017
_diffrn_reflns_theta_min         2.359
_exptl_absorpt_coefficient_mu    0.264
_exptl_absorpt_correction_T_max  0.9251
_exptl_absorpt_correction_T_min  0.9251
_exptl_absorpt_correction_type   multi-scan
_exptl_absorpt_process_details   sadabs
_exptl_crystal_colour            colourless
_exptl_crystal_density_diffrn    1.598
_exptl_crystal_description       block
_exptl_crystal_F_000             340
_exptl_crystal_size_max          0.300
_exptl_crystal_size_mid          0.280
_exptl_crystal_size_min          0.230
_refine_diff_density_max         0.669
_refine_diff_density_min         -0.401
_refine_diff_density_rms         0.089
_refine_ls_extinction_method     none
_refine_ls_goodness_of_fit_ref   1.404
_refine_ls_hydrogen_treatment    constr
_refine_ls_matrix_type           full
_refine_ls_number_parameters     222
_refine_ls_number_reflns         2411
_refine_ls_number_restraints     456
_refine_ls_restrained_S_all      1.369
_refine_ls_R_factor_all          0.1146
_refine_ls_R_factor_gt           0.1014
_refine_ls_shift/su_max          0.000
_refine_ls_shift/su_mean         0.000
_refine_ls_structure_factor_coef Fsqd
_refine_ls_weighting_details
'w=1/[\s^2^(Fo^2^)+(0.2000P)^2^] where P=(Fo^2^+2Fc^2^)/3'
_refine_ls_weighting_scheme      calc
_refine_ls_wR_factor_gt          0.3087
_refine_ls_wR_factor_ref         0.3290
_reflns_Friedel_coverage         0.000
_reflns_number_gt                1866
_reflns_number_total             2411
_reflns_threshold_expression     'I > 2\s(I)'
_cod_data_source_file            c7nj04020b2.cif
_cod_data_source_block           '[H2L2][PF6]2'
_cod_depositor_comments
'Adding full bibliography for 7056979--7056989.cif.'
_cod_database_code               7056980
_shelx_space_group_comment
;
The symmetry employed for this shelxl refinement is uniquely defined
by the following loop, which should always be used as a source of
symmetry information in preference to the above space-group names.
They are only intended as comments.
;
_shelx_estimated_absorpt_t_min   0.925
_shelx_estimated_absorpt_t_max   0.925
_shelxl_version_number           2014/6
_shelx_res_file
;
TITL nj8 in P-1
CELL 0.71073 9.0425 9.3574 9.7188 63.038 85.745 71.462
ZERR 1 0.0015 0.0016 0.0017 0.003 0.003 0.003
LATT 1
SFAC C  H  N  F  P
UNIT 22 28 6 12 2
omit      3   7   2
omit     -4   5   6
omit      5   1   2
omit      3   0   5
omit      2  -1   2
omit      2  -1   1
omit      0  -2   2
omit      3   0   0
omit     -3   2   4
omit      2  -1   5
omit      0  -2   3
omit      7   1   2
omit      1  -2   1
omit      3  -1   2
omit      9   2   2
omit      2   0   6
omit      4   0   1
omit     -3   1   0
omit      4   7   8
omit     -6   5   6
omit     -2  -2   2
omit      5  -1   2
omit      2   0   7
omit     -1   7   3
omit      3   6   2
omit      0   0   7
omit    -5   3   6
OMIT  -1.00  50.04
L.S. 20
ACTA
BOND $H
FMAP 2
PLAN 20
HTAB C11' F5'_$2
HTAB C11' F5'_$4
HTAB C11' F4'_$4
HTAB C10' F1'
HTAB C11 F4_$4
EQIV $4 x, y-1, z
HTAB C9 F3_$2
HTAB C8 F5_$1
HTAB C7 N3'_$2
HTAB C7 F1
HTAB C5 F4'_$3
HTAB C5 F3'_$3
HTAB C5 F2_$3
EQIV $3 x, y, z-1
HTAB N3' F5'_$2
EQIV $2 -x+1, -y+1, -z+1
HTAB N3 F6_$1
EQIV $1 -x+2, -y+1, -z+1
HTAB N3 F1
htab
eadp f6 f6'
eadp f5 f5'
eadp f4 f4'
eadp f3 f3'
eadp f2 f2'
eadp f1 f1'
eadp c11 c11'
eadp c10 c10'
eadp c9 c9'
eadp n3 n3'
SIMU 0.02 0.04 3.8  N3 c9 C10 c11 $f
DFIX 1.45 N3 C10 N3' C10'
dfix 1.53 0.01 c8 c9 c10 c11 c8 c9' c10' c11'
CONF
MORE -1
size .3 .3 .3
temp -113
WGHT    0.200000
FVAR       0.84261   0.58557   0.67035
PART 1
F1    4    0.754838    0.583046    0.549744    21.00000    0.15541    0.15002 =
         0.14833   -0.09803   -0.02315   -0.03282
F2    4    0.650933    0.781713    0.622259    21.00000    0.07598    0.10330 =
         0.14589   -0.05194    0.00466    0.00408
F3    4    0.703662    0.511799    0.816204    21.00000    0.10998    0.12351 =
         0.15481   -0.02825    0.02198   -0.04568
F4    4    0.867951    0.656936    0.802467    21.00000    0.11588    0.14705 =
         0.12633   -0.07159   -0.01166   -0.04161
F5    4    0.955850    0.463932    0.718331    21.00000    0.11044    0.13839 =
         0.16199   -0.05257   -0.00436    0.02823
F6    4    0.896199    0.733459    0.564792    21.00000    0.10965    0.12903 =
         0.13697   -0.04708    0.04155   -0.03068
PART 2
F1'   4    0.748970    0.498756    0.631880   -21.00000    0.15541    0.15002 =
         0.14833   -0.09803   -0.02315   -0.03282
F2'   4    0.941755    0.434571    0.796576   -21.00000    0.07598    0.10330 =
         0.14589   -0.05194    0.00466    0.00408
F3'   4    0.684316    0.535346    0.828343   -21.00000    0.10998    0.12351 =
         0.15481   -0.02825    0.02198   -0.04568
F4'   4    0.817054    0.684665    0.798104   -21.00000    0.11588    0.14705 =
         0.12633   -0.07159   -0.01166   -0.04161
F5'   4    0.676774    0.759265    0.615815   -21.00000    0.11044    0.13839 =
         0.16199   -0.05257   -0.00436    0.02823
F6'   4    0.915323    0.654966    0.572410   -21.00000    0.10965    0.12903 =
         0.13697   -0.04708    0.04155   -0.03068
PART 0
N1    3    0.539155    0.702627    0.175623    11.00000    0.06047    0.05675 =
         0.08496   -0.02672    0.01432   -0.01879
N2    3    0.336184    0.839325    0.256332    11.00000    0.10902    0.05291 =
         0.08106   -0.03194    0.03229   -0.01214
PART 1
N3    3    0.722724    0.354561    0.410001    31.00000    0.07323    0.05763 =
         0.08031   -0.03793    0.01059   -0.01933
AFIX   3
H3    2    0.809286    0.372980    0.431403    31.00000   -1.20000
PART 2
AFIX   0
N3'   3    0.640626    0.328244    0.381909   -31.00000    0.07323    0.05763 =
         0.08031   -0.03793    0.01059   -0.01933
AFIX   3
H3'   2    0.578476    0.271266    0.375756   -31.00000   -1.20000
PART 0
AFIX   0
P1    5    0.804821    0.601495    0.692977    11.00000    0.04924    0.08620 =
         0.09425   -0.05464    0.00168   -0.00955
C1    1    0.307912    0.907259    0.097314    11.00000    0.06941    0.04665 =
         0.08792   -0.02399    0.02029   -0.02259
C2    1    0.182878    1.037202   -0.005467    11.00000    0.07007    0.05905 =
         0.14290   -0.03882    0.02604   -0.01996
AFIX  43
H2    2    0.093729    1.096205    0.028110    11.00000   -1.20000
AFIX   0
C3    1    0.197681    1.073918   -0.158762    11.00000    0.10852    0.08143 =
         0.10255   -0.02065   -0.01760   -0.03937
AFIX  43
H3A   2    0.116737    1.163290   -0.233621    11.00000   -1.20000
AFIX   0
C4    1    0.321158    0.989255   -0.207178    11.00000    0.13644    0.07445 =
         0.09131   -0.03699   -0.00955   -0.03386
AFIX  43
H4    2    0.323859    1.020054   -0.314658    11.00000   -1.20000
AFIX   0
C5    1    0.443235    0.860361   -0.107748    11.00000    0.12885    0.07217 =
         0.09765   -0.05144    0.03415   -0.03858
AFIX  43
H5    2    0.529863    0.800370   -0.143136    11.00000   -1.20000
AFIX   0
C6    1    0.434205    0.821494    0.047826    11.00000    0.06179    0.05141 =
         0.07811   -0.03196    0.01392   -0.02374
C7    1    0.473379    0.720390    0.298241    11.00000    0.09300    0.06527 =
         0.07406   -0.02756    0.01433   -0.02170
AFIX  43
H7    2    0.520018    0.655447    0.401595    11.00000   -1.20000
AFIX   0
C8    1    0.691563    0.592971    0.173208    11.00000    0.06426    0.07451 =
         0.13268   -0.03122    0.02629   -0.02006
AFIX  23
H8A   2    0.770489    0.605975    0.228161    11.00000   -1.20000
H8B   2    0.718030    0.626733    0.064563    11.00000   -1.20000
PART 1
AFIX   0
C9    1    0.698093    0.410422    0.248577    31.00000    0.05975    0.06637 =
         0.08890   -0.04287    0.01870   -0.01325
AFIX  23
H9A   2    0.598747    0.399965    0.224364    31.00000   -1.20000
H9B   2    0.785131    0.343282    0.212621    31.00000   -1.20000
AFIX   0
C10   1    0.743015    0.166433    0.490505    31.00000    0.09706    0.05184 =
         0.08780   -0.04396    0.00885   -0.00966
AFIX  23
H10A  2    0.643376    0.147955    0.480148    31.00000   -1.20000
H10B  2    0.823985    0.106802    0.443325    31.00000   -1.20000
AFIX   0
C11   1    0.791374    0.100911    0.657176    31.00000    0.07214    0.07771 =
         0.09001   -0.04366    0.01637   -0.00182
AFIX  23
H11A  2    0.827050   -0.024328    0.707065    31.00000   -1.20000
H11B  2    0.881149    0.136821    0.664394    31.00000   -1.20000
PART 2
AFIX   0
C9'   1    0.710987    0.406830    0.234148   -31.00000    0.05975    0.06637 =
         0.08890   -0.04287    0.01870   -0.01325
AFIX  23
H9'1  2    0.664202    0.392816    0.153977   -31.00000   -1.20000
H9'2  2    0.824290    0.343521    0.248838   -31.00000   -1.20000
AFIX   0
C10'  1    0.783414    0.201692    0.504151   -31.00000    0.09706    0.05184 =
         0.08780   -0.04396    0.00885   -0.00966
AFIX  23
H10C  2    0.866152    0.134613    0.464507   -31.00000   -1.20000
H10D  2    0.828604    0.256837    0.548439   -31.00000   -1.20000
AFIX   0
C11'  1    0.683807    0.100712    0.614536   -31.00000    0.07214    0.07771 =
         0.09001   -0.04366    0.01637   -0.00182
AFIX  23
H11C  2    0.738262   -0.022590    0.657742   -31.00000   -1.20000
H11D  2    0.581399    0.128677    0.562169   -31.00000   -1.20000
PART 0
AFIX   0
HKLF 4

REM  nj8 in P-1
REM R1 =  0.1014 for    1866 Fo > 4sig(Fo)  and  0.1146 for all    2411 data
REM    222 parameters refined using    456 restraints

END

WGHT      0.2000      0.0000

REM Instructions for potential hydrogen bonds
HTAB N3 F1
HTAB N3 F6_$1
HTAB N3' F5'_$2
HTAB C5 F2_$3
HTAB C5 F3'_$3
HTAB C5 F4'_$3
HTAB C7 F1
HTAB C7 N3'_$2
HTAB C8 F5_$1
HTAB C9 F3_$2
HTAB C11 F4_$4
HTAB C10' F1'
HTAB C11' F4'_$4
HTAB C11' F5'_$4
HTAB C11' F5'_$2

REM Highest difference peak  0.669,  deepest hole -0.401,  1-sigma level  0.089
Q1    1   0.9303  0.5122  0.8345  11.00000  0.05    0.67
Q2    1   0.6871  0.5267  0.7006  11.00000  0.05    0.52
Q3    1   0.6856  0.6818  0.5602  11.00000  0.05    0.49
Q4    1   0.8435  0.3999  0.7177  11.00000  0.05    0.48
Q5    1   0.9433  0.5409  0.6097  11.00000  0.05    0.48
Q6    1   0.7023  0.6908  0.7588  11.00000  0.05    0.47
Q7    1   0.9117  0.7008  0.6904  11.00000  0.05    0.43
Q8    1   0.4216  0.8311  0.2757  11.00000  0.05    0.42
Q9    1   0.2039  1.0391 -0.0350  11.00000  0.05    0.38
Q10   1   0.7998  0.6842  0.5050  11.00000  0.05    0.37
Q11   1   0.3317  0.9005  0.1254  11.00000  0.05    0.37
Q12   1   0.5436  0.7165  0.2005  11.00000  0.05    0.36
Q13   1   0.8154  0.1663  0.5648  11.00000  0.05    0.35
Q14   1   0.6709  0.5343  0.1604  11.00000  0.05    0.34
Q15   1   0.7701  0.5759  0.8359  11.00000  0.05    0.32
Q16   1   0.3229  0.8597  0.2116  11.00000  0.05    0.30
Q17   1   0.2271  1.0458  0.0758  11.00000  0.05    0.30
Q18   1   0.7176  0.5456  0.2604  11.00000  0.05    0.24
Q19   1   0.7601  0.6296  0.1280  11.00000  0.05    0.23
Q20   1   0.7734  0.3428  0.4520  11.00000  0.05    0.17
;
_shelx_res_checksum              75121
loop_
_space_group_symop_operation_xyz
'x, y, z'
'-x, -y, -z'
loop_
_atom_site_label
_atom_site_type_symbol
_atom_site_fract_x
_atom_site_fract_y
_atom_site_fract_z
_atom_site_U_iso_or_equiv
_atom_site_adp_type
_atom_site_occupancy
_atom_site_site_symmetry_order
_atom_site_calc_flag
_atom_site_refinement_flags_posn
_atom_site_refinement_flags_adp
_atom_site_refinement_flags_occupancy
_atom_site_disorder_assembly
_atom_site_disorder_group
F1 F 0.7548(13) 0.5830(14) 0.5497(12) 0.141(2) Uani 0.586(10) 1 d . U P A 1
F2 F 0.6509(10) 0.7817(13) 0.622(2) 0.119(2) Uani 0.586(10) 1 d . U P A 1
F3 F 0.704(4) 0.512(4) 0.816(5) 0.142(5) Uani 0.586(10) 1 d . U P A 1
F4 F 0.8680(15) 0.657(3) 0.802(3) 0.125(3) Uani 0.586(10) 1 d . U P A 1
F5 F 0.9559(12) 0.4639(13) 0.7183(14) 0.160(4) Uani 0.586(10) 1 d . U P A 1
F6 F 0.8962(15) 0.7335(14) 0.5648(15) 0.134(3) Uani 0.586(10) 1 d . U P A 1
F1' F 0.749(2) 0.499(2) 0.6319(17) 0.141(2) Uani 0.414(10) 1 d . U P A 2
F2' F 0.9418(13) 0.4346(15) 0.7966(16) 0.119(2) Uani 0.414(10) 1 d . U P A 2
F3' F 0.684(6) 0.535(7) 0.828(8) 0.142(5) Uani 0.414(10) 1 d . U P A 2
F4' F 0.817(2) 0.685(4) 0.798(4) 0.125(3) Uani 0.414(10) 1 d . U P A 2
F5' F 0.677(2) 0.759(3) 0.616(4) 0.160(4) Uani 0.414(10) 1 d . U P A 2
F6' F 0.915(2) 0.655(2) 0.572(2) 0.134(3) Uani 0.414(10) 1 d . U P A 2
N1 N 0.5392(4) 0.7026(4) 0.1756(4) 0.0701(10) Uani 1 1 d . . . . .
N2 N 0.3362(5) 0.8393(4) 0.2563(4) 0.0855(13) Uani 1 1 d . . . . .
N3 N 0.7227(7) 0.3546(6) 0.4100(6) 0.0684(12) Uani 0.670(5) 1 d D U P B 1
H3 H 0.8093 0.3730 0.4314 0.082 Uiso 0.670(5) 1 d R U P B 1
N3' N 0.6406(14) 0.3282(12) 0.3819(12) 0.0684(12) Uani 0.330(5) 1 d D . P B 2
H3' H 0.5785 0.2713 0.3758 0.082 Uiso 0.330(5) 1 d R U P B 2
P1 P 0.80482(12) 0.60150(14) 0.69298(13) 0.0740(6) Uani 1 1 d . . . . .
C1 C 0.3079(5) 0.9073(4) 0.0973(5) 0.0704(11) Uani 1 1 d . . . . .
C2 C 0.1829(6) 1.0372(6) -0.0055(8) 0.0947(17) Uani 1 1 d . . . . .
H2 H 0.0937 1.0962 0.0281 0.114 Uiso 1 1 calc R U . . .
C3 C 0.1977(8) 1.0739(7) -0.1588(7) 0.1021(18) Uani 1 1 d . . . . .
H3A H 0.1167 1.1633 -0.2336 0.123 Uiso 1 1 calc R U . . .
C4 C 0.3212(9) 0.9893(7) -0.2072(6) 0.0999(17) Uani 1 1 d . . . . .
H4 H 0.3239 1.0201 -0.3147 0.120 Uiso 1 1 calc R U . . .
C5 C 0.4432(8) 0.8604(6) -0.1077(6) 0.0941(16) Uani 1 1 d . . . . .
H5 H 0.5299 0.8004 -0.1431 0.113 Uiso 1 1 calc R U . . .
C6 C 0.4342(5) 0.8215(4) 0.0478(5) 0.0617(10) Uani 1 1 d . . . . .
C7 C 0.4734(6) 0.7204(5) 0.2982(5) 0.0805(13) Uani 1 1 d . . . . .
H7 H 0.5200 0.6554 0.4016 0.097 Uiso 1 1 calc R U . . .
C8 C 0.6916(6) 0.5930(5) 0.1732(7) 0.0985(18) Uani 1 1 d D . . . .
H8A H 0.7705 0.6060 0.2282 0.118 Uiso 1 1 calc R U . B 1
H8B H 0.7180 0.6267 0.0646 0.118 Uiso 1 1 calc R U . B 1
C9 C 0.698(4) 0.4104(13) 0.249(3) 0.071(3) Uani 0.670(5) 1 d D U P B 1
H9A H 0.5987 0.4000 0.2244 0.085 Uiso 0.670(5) 1 calc R U P B 1
H9B H 0.7851 0.3433 0.2126 0.085 Uiso 0.670(5) 1 calc R U P B 1
C10 C 0.7430(12) 0.1664(8) 0.4905(8) 0.078(2) Uani 0.670(5) 1 d D U P B 1
H10A H 0.6434 0.1480 0.4801 0.093 Uiso 0.670(5) 1 calc R U P B 1
H10B H 0.8240 0.1068 0.4433 0.093 Uiso 0.670(5) 1 calc R U P B 1
C11 C 0.7914(9) 0.1009(9) 0.6572(7) 0.0842(18) Uani 0.670(5) 1 d D U P B 1
H11A H 0.8271 -0.0243 0.7071 0.101 Uiso 0.670(5) 1 calc R U P B 1
H11B H 0.8811 0.1368 0.6644 0.101 Uiso 0.670(5) 1 calc R U P B 1
C9' C 0.711(8) 0.407(3) 0.234(7) 0.071(3) Uani 0.330(5) 1 d D . P B 2
H9'1 H 0.6642 0.3928 0.1540 0.085 Uiso 0.330(5) 1 calc R U P B 2
H9'2 H 0.8243 0.3435 0.2488 0.085 Uiso 0.330(5) 1 calc R U P B 2
C10' C 0.7834(19) 0.2017(19) 0.5042(19) 0.078(2) Uani 0.330(5) 1 d D . P B 2
H10C H 0.8662 0.1346 0.4645 0.093 Uiso 0.330(5) 1 calc R U P B 2
H10D H 0.8286 0.2568 0.5484 0.093 Uiso 0.330(5) 1 calc R U P B 2
C11' C 0.6838(18) 0.1007(17) 0.6145(17) 0.0842(18) Uani 0.330(5) 1 d D . P B 2
H11C H 0.7383 -0.0226 0.6577 0.101 Uiso 0.330(5) 1 calc R U P B 2
H11D H 0.5814 0.1287 0.5622 0.101 Uiso 0.330(5) 1 calc R U P B 2
loop_
_atom_site_aniso_label
_atom_site_aniso_U_11
_atom_site_aniso_U_22
_atom_site_aniso_U_33
_atom_site_aniso_U_23
_atom_site_aniso_U_13
_atom_site_aniso_U_12
F1 0.155(4) 0.150(6) 0.148(6) -0.098(4) -0.023(5) -0.033(5)
F2 0.076(4) 0.103(4) 0.146(4) -0.052(3) 0.005(4) 0.004(3)
F3 0.110(8) 0.124(8) 0.155(6) -0.028(6) 0.022(5) -0.046(5)
F4 0.116(8) 0.147(6) 0.126(3) -0.072(4) -0.012(7) -0.042(6)
F5 0.110(5) 0.138(5) 0.162(5) -0.053(5) -0.004(5) 0.028(4)
F6 0.110(4) 0.129(6) 0.137(3) -0.047(6) 0.042(3) -0.031(6)
F1' 0.155(4) 0.150(6) 0.148(6) -0.098(4) -0.023(5) -0.033(5)
F2' 0.076(4) 0.103(4) 0.146(4) -0.052(3) 0.005(4) 0.004(3)
F3' 0.110(8) 0.124(8) 0.155(6) -0.028(6) 0.022(5) -0.046(5)
F4' 0.116(8) 0.147(6) 0.126(3) -0.072(4) -0.012(7) -0.042(6)
F5' 0.110(5) 0.138(5) 0.162(5) -0.053(5) -0.004(5) 0.028(4)
F6' 0.110(4) 0.129(6) 0.137(3) -0.047(6) 0.042(3) -0.031(6)
N1 0.0605(19) 0.0567(17) 0.085(2) -0.0267(16) 0.0143(16) -0.0188(15)
N2 0.109(3) 0.0529(17) 0.081(2) -0.0319(17) 0.032(2) -0.0121(18)
N3 0.073(3) 0.058(2) 0.080(3) -0.038(2) 0.011(2) -0.019(2)
N3' 0.073(3) 0.058(2) 0.080(3) -0.038(2) 0.011(2) -0.019(2)
P1 0.0492(8) 0.0862(9) 0.0942(10) -0.0546(7) 0.0017(6) -0.0096(6)
C1 0.069(2) 0.0467(18) 0.088(3) -0.0240(18) 0.020(2) -0.0226(17)
C2 0.070(3) 0.059(2) 0.143(5) -0.039(3) 0.026(3) -0.020(2)
C3 0.109(4) 0.081(3) 0.103(4) -0.021(3) -0.018(3) -0.039(3)
C4 0.136(5) 0.074(3) 0.091(3) -0.037(3) -0.010(3) -0.034(3)
C5 0.129(5) 0.072(3) 0.098(3) -0.051(2) 0.034(3) -0.039(3)
C6 0.062(2) 0.0514(18) 0.078(2) -0.0320(17) 0.0139(17) -0.0237(16)
C7 0.093(3) 0.065(2) 0.074(2) -0.028(2) 0.014(2) -0.022(2)
C8 0.064(3) 0.075(3) 0.133(4) -0.031(3) 0.026(3) -0.020(2)
C9 0.060(5) 0.066(2) 0.089(5) -0.043(2) 0.019(4) -0.013(2)
C10 0.097(5) 0.052(3) 0.088(3) -0.044(3) 0.009(3) -0.010(3)
C11 0.072(4) 0.078(3) 0.090(4) -0.044(3) 0.016(3) -0.002(3)
C9' 0.060(5) 0.066(2) 0.089(5) -0.043(2) 0.019(4) -0.013(2)
C10' 0.097(5) 0.052(3) 0.088(3) -0.044(3) 0.009(3) -0.010(3)
C11' 0.072(4) 0.078(3) 0.090(4) -0.044(3) 0.016(3) -0.002(3)
loop_
_atom_type_symbol
_atom_type_description
_atom_type_scat_dispersion_real
_atom_type_scat_dispersion_imag
_atom_type_scat_source
C C 0.0033 0.0016 'International Tables Vol C Tables 4.2.6.8 and 6.1.1.4'
H H 0.0000 0.0000 'International Tables Vol C Tables 4.2.6.8 and 6.1.1.4'
N N 0.0061 0.0033 'International Tables Vol C Tables 4.2.6.8 and 6.1.1.4'
F F 0.0171 0.0103 'International Tables Vol C Tables 4.2.6.8 and 6.1.1.4'
P P 0.1023 0.0942 'International Tables Vol C Tables 4.2.6.8 and 6.1.1.4'
loop_
_geom_angle_atom_site_label_1
_geom_angle_atom_site_label_2
_geom_angle_atom_site_label_3
_geom_angle
_geom_angle_site_symmetry_1
_geom_angle_site_symmetry_3
C7 N1 C6 105.9(3) . .
C7 N1 C8 127.7(4) . .
C6 N1 C8 126.2(4) . .
C7 N2 C1 108.1(4) . .
C7 N2 C11 134.0(5) . 2_666
C1 N2 C11 117.7(4) . 2_666
C7 N2 C11' 103.2(7) . 2_666
C1 N2 C11' 139.4(6) . 2_666
C9 N3 C10 107.0(6) . .
C9 N3 H3 110.9 . .
C10 N3 H3 110.4 . .
C9' N3' C10' 105(3) . .
C9' N3' H3' 112.5 . .
C10' N3' H3' 109.8 . .
F5' P1 F6' 94.3(14) . .
F5 P1 F3 103.8(12) . .
F5' P1 F1' 96.7(13) . .
F6' P1 F1' 97.4(10) . .
F5' P1 F4' 81.3(15) . .
F6' P1 F4' 103.5(14) . .
F1' P1 F4' 159.0(13) . .
F5 P1 F4 91.9(7) . .
F3 P1 F4 93(2) . .
F5' P1 F2' 172.3(12) . .
F6' P1 F2' 90.0(8) . .
F1' P1 F2' 89.1(7) . .
F4' P1 F2' 91.5(9) . .
F5 P1 F1 89.6(6) . .
F3 P1 F1 100(2) . .
F4 P1 F1 165.6(9) . .
F5' P1 F3' 87(2) . .
F6' P1 F3' 178.1(19) . .
F1' P1 F3' 81(3) . .
F4' P1 F3' 78(3) . .
F2' P1 F3' 88.6(17) . .
F5 P1 F2 165.9(7) . .
F3 P1 F2 89.7(13) . .
F4 P1 F2 91.3(8) . .
F1 P1 F2 83.9(7) . .
F5 P1 F6 85.8(5) . .
F3 P1 F6 168.4(15) . .
F4 P1 F6 80.1(10) . .
F1 P1 F6 85.8(6) . .
F2 P1 F6 81.2(7) . .
C6 C1 N2 106.5(4) . .
C6 C1 C2 121.7(5) . .
N2 C1 C2 131.7(5) . .
C3 C2 C1 115.3(5) . .
C3 C2 H2 122.3 . .
C1 C2 H2 122.3 . .
C4 C3 C2 122.9(5) . .
C4 C3 H3A 118.5 . .
C2 C3 H3A 118.5 . .
C3 C4 C5 122.4(5) . .
C3 C4 H4 118.8 . .
C5 C4 H4 118.8 . .
C4 C5 C6 116.5(5) . .
C4 C5 H5 121.8 . .
C6 C5 H5 121.8 . .
C1 C6 C5 121.1(4) . .
C1 C6 N1 108.3(4) . .
C5 C6 N1 130.6(4) . .
N2 C7 N1 111.2(4) . .
N2 C7 H7 124.4 . .
N1 C7 H7 124.4 . .
N1 C8 C9 111.7(12) . .
N1 C8 C9' 117(3) . .
N1 C8 H8A 109.3 . .
C9 C8 H8A 109.3 . .
N1 C8 H8B 109.3 . .
C9 C8 H8B 109.3 . .
H8A C8 H8B 107.9 . .
N3 C9 C8 105.0(15) . .
N3 C9 H9A 110.7 . .
C8 C9 H9A 110.7 . .
N3 C9 H9B 110.7 . .
C8 C9 H9B 110.7 . .
H9A C9 H9B 108.8 . .
C11 C10 N3 107.5(5) . .
C11 C10 H10A 110.2 . .
N3 C10 H10A 110.2 . .
C11 C10 H10B 110.2 . .
N3 C10 H10B 110.2 . .
H10A C10 H10B 108.5 . .
N2 C11 C10 113.4(6) 2_666 .
N2 C11 H11A 108.9 2_666 .
C10 C11 H11A 108.9 . .
N2 C11 H11B 108.9 2_666 .
C10 C11 H11B 108.9 . .
H11A C11 H11B 107.7 . .
N3' C9' C8 116(4) . .
N3' C9' H9'1 108.3 . .
C8 C9' H9'1 108.3 . .
N3' C9' H9'2 108.3 . .
C8 C9' H9'2 108.3 . .
H9'1 C9' H9'2 107.4 . .
C11' C10' N3' 92.9(11) . .
C11' C10' H10C 113.1 . .
N3' C10' H10C 113.1 . .
C11' C10' H10D 113.1 . .
N3' C10' H10D 113.1 . .
H10C C10' H10D 110.5 . .
C10' C11' N2 102.3(12) . 2_666
C10' C11' H11C 111.3 . .
N2 C11' H11C 111.3 2_666 .
C10' C11' H11D 111.3 . .
N2 C11' H11D 111.3 2_666 .
H11C C11' H11D 109.2 . .
loop_
_geom_bond_atom_site_label_1
_geom_bond_atom_site_label_2
_geom_bond_distance
_geom_bond_site_symmetry_2
F1 P1 1.591(9) .
F2 P1 1.689(8) .
F3 P1 1.55(4) .
F4 P1 1.58(3) .
F5 P1 1.492(10) .
F6 P1 1.691(12) .
F1' P1 1.550(14) .
F2' P1 1.586(11) .
F3' P1 1.67(6) .
F4' P1 1.57(4) .
F5' P1 1.456(18) .
F6' P1 1.495(19) .
N1 C7 1.347(5) .
N1 C6 1.390(5) .
N1 C8 1.439(6) .
N2 C7 1.315(6) .
N2 C1 1.386(6) .
N2 C11 1.491(7) 2_666
N2 C11' 1.569(15) 2_666
N3 C9 1.42(3) .
N3 C10 1.520(8) .
N3 H3 0.9100 .
N3' C9' 1.49(6) .
N3' C10' 1.569(16) .
N3' H3' 0.9100 .
C1 C6 1.366(5) .
C1 C2 1.395(7) .
C2 C3 1.375(8) .
C2 H2 0.9500 .
C3 C4 1.339(8) .
C3 H3A 0.9500 .
C4 C5 1.365(9) .
C4 H4 0.9500 .
C5 C6 1.388(6) .
C5 H5 0.9500 .
C7 H7 0.9500 .
C8 C9 1.505(8) .
C8 C9' 1.517(10) .
C8 H8A 0.9900 .
C8 H8B 0.9900 .
C9 H9A 0.9900 .
C9 H9B 0.9900 .
C10 C11 1.492(8) .
C10 H10A 0.9900 .
C10 H10B 0.9900 .
C11 N2 1.491(7) 2_666
C11 H11A 0.9900 .
C11 H11B 0.9900 .
C9' H9'1 0.9900 .
C9' H9'2 0.9900 .
C10' C11' 1.528(10) .
C10' H10C 0.9900 .
C10' H10D 0.9900 .
C11' N2 1.569(15) 2_666
C11' H11C 0.9900 .
C11' H11D 0.9900 .
loop_
_geom_hbond_atom_site_label_D
_geom_hbond_atom_site_label_H
_geom_hbond_atom_site_label_A
_geom_hbond_distance_DH
_geom_hbond_distance_HA
_geom_hbond_distance_DA
_geom_hbond_angle_DHA
_geom_hbond_site_symmetry_A
C11' H11D F5' 0.99 2.63 3.61(3) 170.7 2_666
C11' H11C F5' 0.99 2.48 3.21(3) 130.3 1_545
C11' H11C F4' 0.99 2.32 3.29(3) 166.1 1_545
C10' H10D F1' 0.99 2.62 3.45(2) 141.7 .
C11 H11A F4 0.99 2.59 3.57(2) 167.4 1_545
C9 H9A F3 0.99 2.60 3.52(5) 154.5 2_666
C8 H8A F5 0.99 2.38 3.236(12) 144.0 2_766
C7 H7 N3' 0.95 2.50 3.078(11) 119.1 2_666
C7 H7 F1 0.95 2.39 3.178(11) 140.5 .
C5 H5 F4' 0.95 2.61 3.51(3) 159.5 1_554
C5 H5 F3' 0.95 2.56 3.42(5) 150.8 1_554
C5 H5 F2 0.95 2.51 3.331(17) 144.8 1_554
N3' H3' F5' 0.91 2.41 3.22(3) 149.3 2_666
N3 H3 F6 0.91 2.53 3.279(15) 140.4 2_766
N3 H3 F1 0.91 2.60 3.096(10) 114.7 .
loop_
_geom_torsion_atom_site_label_1
_geom_torsion_atom_site_label_2
_geom_torsion_atom_site_label_3
_geom_torsion_atom_site_label_4
_geom_torsion
_geom_torsion_site_symmetry_1
_geom_torsion_site_symmetry_4
C7 N2 C1 C6 0.6(5) . .
C11 N2 C1 C6 -174.2(4) 2_666 .
C11' N2 C1 C6 139.3(10) 2_666 .
C7 N2 C1 C2 -178.7(4) . .
C11 N2 C1 C2 6.5(8) 2_666 .
C11' N2 C1 C2 -40.0(12) 2_666 .
C6 C1 C2 C3 -1.1(6) . .
N2 C1 C2 C3 178.1(5) . .
C1 C2 C3 C4 1.5(8) . .
C2 C3 C4 C5 -0.7(9) . .
C3 C4 C5 C6 -0.6(8) . .
N2 C1 C6 C5 -179.4(4) . .
C2 C1 C6 C5 0.0(6) . .
N2 C1 C6 N1 -0.3(4) . .
C2 C1 C6 N1 179.1(4) . .
C4 C5 C6 C1 0.9(7) . .
C4 C5 C6 N1 -178.0(4) . .
C7 N1 C6 C1 -0.1(4) . .
C8 N1 C6 C1 -176.0(4) . .
C7 N1 C6 C5 178.9(5) . .
C8 N1 C6 C5 3.1(7) . .
C1 N2 C7 N1 -0.7(5) . .
C11 N2 C7 N1 172.8(6) 2_666 .
C11' N2 C7 N1 -154.6(6) 2_666 .
C6 N1 C7 N2 0.5(5) . .
C8 N1 C7 N2 176.3(4) . .
C7 N1 C8 C9 72.7(14) . .
C6 N1 C8 C9 -112.4(14) . .
C7 N1 C8 C9' 77(3) . .
C6 N1 C8 C9' -108(3) . .
C10 N3 C9 C8 -175.6(13) . .
N1 C8 C9 N3 -82(2) . .
C9 N3 C10 C11 172.1(15) . .
N3 C10 C11 N2 70.6(9) . 2_666
C10' N3' C9' C8 -111(4) . .
N1 C8 C9' N3' -45(6) . .
C9' N3' C10' C11' -160.2(18) . .
N3' C10' C11' N2 -104.4(10) . 2_666
