#------------------------------------------------------------------------------
#$Date: 2017-05-05 17:56:46 +0300 (Fri, 05 May 2017) $
#$Revision: 196247 $
#$URL: file:///home/coder/svn-repositories/cod/cif/7/05/61/7056140.cif $
#------------------------------------------------------------------------------
#
# This file is available in the Crystallography Open Database (COD),
# http://www.crystallography.net/
#
# All data on this site have been placed in the public domain by the
# contributors.
#
data_7056140
loop_
_publ_author_name
'Dawange, Monali'
'Parekh, Nikita'
'Kumbhar, Avinash'
'Dehaen, Wim'
'Kusurkar, Radhika'
_publ_section_title
;
 A synthetic route towards 3,4-disubstituted pyrrolidin-2-ones via a
 Michael addition and reductive ring closing strategy
;
_journal_issue                   9
_journal_name_full               'New J. Chem.'
_journal_page_first              3612
_journal_paper_doi               10.1039/C6NJ04051A
_journal_volume                  41
_journal_year                    2017
_chemical_formula_moiety         'C17 H15 N O2'
_chemical_formula_sum            'C17 H15 N O2'
_chemical_formula_weight         265.30
_chemical_name_systematic
;
 ?
;
_space_group_crystal_system      triclinic
_space_group_IT_number           2
_space_group_name_Hall           '-P 1'
_space_group_name_H-M_alt        'P -1'
_symmetry_space_group_name_Hall  '-P 1'
_symmetry_space_group_name_H-M   'P -1'
_atom_sites_solution_hydrogens   geom
_audit_creation_method           SHELXL-2014
_audit_update_record
;
2016-07-01 deposited with the CCDC.
2017-03-30 downloaded from the CCDC.
;
_cell_angle_alpha                74.130(5)
_cell_angle_beta                 89.422(6)
_cell_angle_gamma                86.861(6)
_cell_formula_units_Z            2
_cell_length_a                   5.6408(8)
_cell_length_b                   10.3136(10)
_cell_length_c                   12.233(2)
_cell_measurement_reflns_used    5976
_cell_measurement_temperature    296(2)
_cell_measurement_theta_max      68.33
_cell_measurement_theta_min      3.76
_cell_volume                     683.52(16)
_computing_cell_refinement       'Bruker SAINT'
_computing_data_collection       'Bruker APEX2'
_computing_data_reduction        'Bruker SAINT'
_computing_molecular_graphics    'Bruker SHELXTL'
_computing_publication_material  'Bruker SHELXTL'
_computing_structure_refinement  'SHELXL-2014 (Sheldrick 2014)'
_computing_structure_solution    'SHELXS-97 (Sheldrick 2008)'
_diffrn_ambient_temperature      296(2)
_diffrn_measured_fraction_theta_full 0.967
_diffrn_measured_fraction_theta_max 0.966
_diffrn_measurement_device_type  'Bruker PHOTON 100 CMOS'
_diffrn_measurement_method       '\f and \w scans'
_diffrn_radiation_type           CuK\a
_diffrn_radiation_wavelength     1.54178
_diffrn_reflns_av_R_equivalents  0.0537
_diffrn_reflns_av_unetI/netI     0.0487
_diffrn_reflns_Laue_measured_fraction_full 0.967
_diffrn_reflns_Laue_measured_fraction_max 0.966
_diffrn_reflns_limit_h_max       6
_diffrn_reflns_limit_h_min       -6
_diffrn_reflns_limit_k_max       12
_diffrn_reflns_limit_k_min       -12
_diffrn_reflns_limit_l_max       14
_diffrn_reflns_limit_l_min       -14
_diffrn_reflns_number            9107
_diffrn_reflns_point_group_measured_fraction_full 0.967
_diffrn_reflns_point_group_measured_fraction_max 0.966
_diffrn_reflns_theta_full        67.679
_diffrn_reflns_theta_max         68.323
_diffrn_reflns_theta_min         3.756
_exptl_absorpt_coefficient_mu    0.679
_exptl_absorpt_correction_T_max  0.954
_exptl_absorpt_correction_T_min  0.899
_exptl_absorpt_correction_type   multi-scan
_exptl_absorpt_process_details   'BRUKER SADABS'
_exptl_crystal_colour            COLOURLESS
_exptl_crystal_density_diffrn    1.289
_exptl_crystal_description       BLOCK
_exptl_crystal_F_000             280
_exptl_crystal_size_max          0.23
_exptl_crystal_size_mid          0.13
_exptl_crystal_size_min          0.07
_refine_diff_density_max         0.298
_refine_diff_density_min         -0.392
_refine_diff_density_rms         0.090
_refine_ls_extinction_method     none
_refine_ls_goodness_of_fit_ref   1.021
_refine_ls_hydrogen_treatment    RIDING
_refine_ls_matrix_type           full
_refine_ls_number_parameters     181
_refine_ls_number_reflns         2424
_refine_ls_number_restraints     0
_refine_ls_restrained_S_all      1.021
_refine_ls_R_factor_all          0.0966
_refine_ls_R_factor_gt           0.0806
_refine_ls_shift/su_max          0.000
_refine_ls_shift/su_mean         0.000
_refine_ls_structure_factor_coef Fsqd
_refine_ls_weighting_details
'w=1/[\s^2^(Fo^2^)+(0.1994P)^2^+0.1965P] where P=(Fo^2^+2Fc^2^)/3'
_refine_ls_weighting_scheme      calc
_refine_ls_wR_factor_gt          0.2400
_refine_ls_wR_factor_ref         0.2647
_reflns_Friedel_coverage         0.000
_reflns_number_gt                1936
_reflns_number_total             2424
_reflns_threshold_expression     'I > 2\s(I)'
_cod_data_source_file            c6nj04051a2.cif
_cod_data_source_block           cu_M35_R_0m
_cod_depositor_comments
;
The following automatic conversions were performed:

'_exptl_absorpt_correction_type' value 'MULTI-SCAN' changed to
'multi-scan' according to
/home/data/users/saulius/crontab/automatic-downloads/current/RSC/lib/dictionaries/cif_core.dic
dictionary named 'cif_core.dic' version 2.4.2 from 2011-04-26.

Automatic conversion script
Id: cif_fix_values 4973 2017-02-22 13:04:09Z antanas 
;
_cod_database_code               7056140
_shelx_space_group_comment
;
The symmetry employed for this shelxl refinement is uniquely defined
by the following loop, which should always be used as a source of
symmetry information in preference to the above space-group names.
They are only intended as comments.
;
_shelxl_version_number           2014-3
_shelx_res_file
;
TITL cu_M35_R_0m in P-1
CELL 1.54178 5.6408 10.3136 12.2330 74.130 89.422 86.861
ZERR 2.00 0.0008 0.001 0.002 0.005 0.006 0.006
LATT 1
SFAC C  H  N  O
UNIT 34  30  2  4
L.S. 50
ACTA
BOND $H
FMAP 2
PLAN 30
HTAB N5 O1_$1
EQIV $1 -x+1, -y+1, -z+1
CONF
HTAB
TEMP 23
WGHT    0.199400    0.196500
FVAR       0.39651
O1    4    0.331617    0.556015    0.361853    11.00000    0.09293    0.02635 =
         0.06332   -0.00995   -0.03769   -0.00282
O2    4   -0.180011    0.367332    0.280601    11.00000    0.03644    0.05060 =
         0.06456    0.00447   -0.00308   -0.00551
N5    3    0.416891    0.343482    0.478578    11.00000    0.06432    0.03281 =
         0.03690   -0.00853   -0.02059   -0.00328
AFIX  43
H5    2    0.466862    0.366438    0.536445    11.00000   -1.20000
AFIX   0
C1    1    0.331671    0.432710    0.384717    11.00000    0.05028    0.03029 =
         0.04032   -0.00712   -0.01559   -0.00596
C2    1    0.238653    0.353492    0.306432    11.00000    0.03548    0.02779 =
         0.02950   -0.00630   -0.00601   -0.00332
AFIX  13
H2    2    0.357036    0.352387    0.247461    11.00000   -1.20000
AFIX   0
C3    1    0.224984    0.210168    0.384428    11.00000    0.03614    0.03037 =
         0.03150   -0.00433   -0.00509   -0.00421
AFIX  13
H3    2    0.070249    0.203419    0.422133    11.00000   -1.20000
AFIX   0
C4    1    0.417665    0.205435    0.474275    11.00000    0.05189    0.03082 =
         0.03385   -0.00271   -0.01222   -0.00694
AFIX  23
H4A   2    0.377240    0.145896    0.547447    11.00000   -1.20000
H4B   2    0.571308    0.175594    0.450971    11.00000   -1.20000
AFIX   0
C1'   1    0.255178    0.097980    0.327421    11.00000    0.03828    0.02575 =
         0.03176   -0.00248   -0.01036   -0.00006
C2'   1    0.088892   -0.000159    0.343861    11.00000    0.04251    0.03582 =
         0.04326   -0.00753   -0.00606   -0.00514
AFIX  43
H2'   2   -0.044159    0.005849    0.388091    11.00000   -1.20000
AFIX   0
C3'   1    0.117866   -0.106183    0.295734    11.00000    0.06436    0.03610 =
         0.06441   -0.01402   -0.01429   -0.01305
AFIX  43
H3'   2    0.005214   -0.171156    0.308185    11.00000   -1.20000
AFIX   0
C4'   1    0.312931   -0.116402    0.229254    11.00000    0.07757    0.03723 =
         0.05444   -0.02058   -0.01551    0.00771
AFIX  43
H4'   2    0.332890   -0.188003    0.196873    11.00000   -1.20000
AFIX   0
C5'   1    0.478673   -0.018785    0.211303    11.00000    0.06018    0.04846 =
         0.04890   -0.01554   -0.00270    0.00830
AFIX  43
H5'   2    0.609580   -0.024200    0.165621    11.00000   -1.20000
AFIX   0
C6'   1    0.451636    0.086284    0.260425    11.00000    0.04469    0.03584 =
         0.04115   -0.00577   -0.00391   -0.00235
AFIX  43
H6'   2    0.566063    0.150212    0.248687    11.00000   -1.20000
AFIX   0
C7'   1    0.004982    0.417516    0.249173    11.00000    0.03440    0.03253 =
         0.03533   -0.00848   -0.00607   -0.00084
C8'   1    0.013237    0.543869    0.155632    11.00000    0.03645    0.03310 =
         0.03433   -0.00670   -0.01095   -0.00158
C9'   1   -0.183605    0.635714    0.137369    11.00000    0.04768    0.03989 =
         0.04742   -0.00446   -0.00826    0.00672
AFIX  43
H9'   2   -0.313226    0.618521    0.185788    11.00000   -1.20000
AFIX   0
C10'  1   -0.187437    0.750841    0.048812    11.00000    0.06466    0.04354 =
         0.05784   -0.00324   -0.01616    0.01410
AFIX  43
H10'  2   -0.318521    0.811761    0.038307    11.00000   -1.20000
AFIX   0
C11'  1    0.001765    0.777018   -0.024867    11.00000    0.08199    0.04043 =
         0.04443    0.00482   -0.01893   -0.00310
AFIX  43
H11'  2   -0.002923    0.854544   -0.085578    11.00000   -1.20000
AFIX   0
C12'  1    0.197904    0.687813   -0.008180    11.00000    0.06308    0.05779 =
         0.04181    0.00289   -0.00256   -0.00902
AFIX  43
H12'  2    0.326063    0.705085   -0.057502    11.00000   -1.20000
AFIX   0
C13'  1    0.203308    0.572739    0.082043    11.00000    0.04536    0.04348 =
         0.04198   -0.00360   -0.00503    0.00087
AFIX  43
H13'  2    0.336956    0.513608    0.093568    11.00000   -1.20000
AFIX   0
HKLF 4 1 1 0 0 0 1 0 0 0 1

REM  cu_M35_R_0m in P-1
REM R1 =  0.0806 for    1936 Fo > 4sig(Fo)  and  0.0966 for all    2424 data
REM    181 parameters refined using      0 restraints

END

WGHT      0.2000      0.0000

REM Instructions for potential hydrogen bonds
HTAB N5 O1_$1

REM Highest difference peak  0.298,  deepest hole -0.392,  1-sigma level  0.090
Q1    1   0.2229  0.1613  0.3653  11.00000  0.05    0.30
Q2    1   0.2085  0.2803  0.3445  11.00000  0.05    0.28
Q3    1   0.1542  0.6149  0.0125  11.00000  0.05    0.28
Q4    1   0.5770  0.3994  0.1733  11.00000  0.05    0.27
Q5    1  -0.0739  0.6008 -0.0578  11.00000  0.05    0.27
Q6    1   0.1271  0.0743  0.3185  11.00000  0.05    0.27
Q7    1   0.1878 -0.1613  0.0758  11.00000  0.05    0.26
Q8    1  -0.6227  0.8210  0.0398  11.00000  0.05    0.26
Q9    1  -0.0535  0.4745  0.3589  11.00000  0.05    0.26
Q10   1   0.6308  0.2675  0.2098  11.00000  0.05    0.25
Q11   1   0.0000  0.0000  0.5000  10.50000  0.05    0.25
Q12   1  -0.1356  0.4985  0.0579  11.00000  0.05    0.25
Q13   1   0.0439  0.2934  0.4124  11.00000  0.05    0.25
Q14   1  -0.3653  0.6158  0.2360  11.00000  0.05    0.25
Q15   1   0.0817  0.6044  0.2692  11.00000  0.05    0.24
Q16   1   0.3519 -0.0462  0.1974  11.00000  0.05    0.24
Q17   1   0.6067  0.6597 -0.0162  11.00000  0.05    0.24
Q18   1  -0.1263  0.3880  0.1264  11.00000  0.05    0.23
Q19   1   0.4760  0.4091  0.2055  11.00000  0.05    0.23
Q20   1  -0.3629  0.9225 -0.0399  11.00000  0.05    0.23
Q21   1   0.8685 -0.0797  0.1218  11.00000  0.05    0.23
Q22   1   0.0112 -0.1933  0.4190  11.00000  0.05    0.23
Q23   1   0.0628  0.8333 -0.1752  11.00000  0.05    0.23
Q24   1   0.3966  0.1560  0.6802  11.00000  0.05    0.23
Q25   1  -0.0145 -0.0723  0.2183  11.00000  0.05    0.23
Q26   1   0.2228  0.4784  0.4950  11.00000  0.05    0.23
Q27   1   0.1254  0.9409 -0.0224  11.00000  0.05    0.22
Q28   1   0.0997 -0.2857  0.2745  11.00000  0.05    0.22
Q29   1   0.0480  0.1933  0.3741  11.00000  0.05    0.22
Q30   1   0.3833  0.4027  0.2621  11.00000  0.05    0.22
;
_shelx_res_checksum              40410
loop_
_space_group_symop_operation_xyz
'x, y, z'
'-x, -y, -z'
loop_
_atom_site_label
_atom_site_type_symbol
_atom_site_fract_x
_atom_site_fract_y
_atom_site_fract_z
_atom_site_U_iso_or_equiv
_atom_site_adp_type
_atom_site_occupancy
_atom_site_site_symmetry_order
_atom_site_calc_flag
_atom_site_refinement_flags_posn
_atom_site_refinement_flags_adp
O1 O 0.3316(5) 0.55602(19) 0.36185(19) 0.0611(7) Uani 1 1 d . .
O2 O -0.1800(3) 0.3673(2) 0.28060(19) 0.0544(6) Uani 1 1 d . .
N5 N 0.4169(4) 0.3435(2) 0.47858(19) 0.0447(7) Uani 1 1 d . .
H5 H 0.4669 0.3664 0.5364 0.054 Uiso 1 1 calc R U
C1 C 0.3317(5) 0.4327(3) 0.3847(2) 0.0405(7) Uani 1 1 d . .
C2 C 0.2387(4) 0.3535(2) 0.3064(2) 0.0311(6) Uani 1 1 d . .
H2 H 0.3570 0.3524 0.2475 0.037 Uiso 1 1 calc R U
C3 C 0.2250(4) 0.2102(2) 0.3844(2) 0.0334(6) Uani 1 1 d . .
H3 H 0.0702 0.2034 0.4221 0.040 Uiso 1 1 calc R U
C4 C 0.4177(5) 0.2054(2) 0.4743(2) 0.0398(7) Uani 1 1 d . .
H4A H 0.3772 0.1459 0.5474 0.048 Uiso 1 1 calc R U
H4B H 0.5713 0.1756 0.4510 0.048 Uiso 1 1 calc R U
C1' C 0.2552(4) 0.0980(2) 0.3274(2) 0.0330(6) Uani 1 1 d . .
C2' C 0.0889(5) -0.0002(3) 0.3439(2) 0.0410(7) Uani 1 1 d . .
H2' H -0.0442 0.0058 0.3881 0.049 Uiso 1 1 calc R U
C3' C 0.1179(6) -0.1062(3) 0.2957(3) 0.0544(8) Uani 1 1 d . .
H3' H 0.0052 -0.1712 0.3082 0.065 Uiso 1 1 calc R U
C4' C 0.3129(6) -0.1164(3) 0.2293(3) 0.0551(9) Uani 1 1 d . .
H4' H 0.3329 -0.1880 0.1969 0.066 Uiso 1 1 calc R U
C5' C 0.4787(6) -0.0188(3) 0.2113(3) 0.0525(8) Uani 1 1 d . .
H5' H 0.6096 -0.0242 0.1656 0.063 Uiso 1 1 calc R U
C6' C 0.4516(5) 0.0863(3) 0.2604(2) 0.0415(7) Uani 1 1 d . .
H6' H 0.5661 0.1502 0.2487 0.050 Uiso 1 1 calc R U
C7' C 0.0050(4) 0.4175(2) 0.2492(2) 0.0342(6) Uani 1 1 d . .
C8' C 0.0132(4) 0.5439(2) 0.1556(2) 0.0351(6) Uani 1 1 d . .
C9' C -0.1836(5) 0.6357(3) 0.1374(3) 0.0468(7) Uani 1 1 d . .
H9' H -0.3132 0.6185 0.1858 0.056 Uiso 1 1 calc R U
C10' C -0.1874(6) 0.7508(3) 0.0488(3) 0.0580(9) Uani 1 1 d . .
H10' H -0.3185 0.8118 0.0383 0.070 Uiso 1 1 calc R U
C11' C 0.0018(7) 0.7770(3) -0.0249(3) 0.0587(9) Uani 1 1 d . .
H11' H -0.0029 0.8545 -0.0856 0.070 Uiso 1 1 calc R U
C12' C 0.1979(6) 0.6878(3) -0.0082(3) 0.0572(9) Uani 1 1 d . .
H12' H 0.3261 0.7051 -0.0575 0.069 Uiso 1 1 calc R U
C13' C 0.2033(5) 0.5727(3) 0.0820(2) 0.0453(7) Uani 1 1 d . .
H13' H 0.3370 0.5136 0.0936 0.054 Uiso 1 1 calc R U
loop_
_atom_site_aniso_label
_atom_site_aniso_U_11
_atom_site_aniso_U_22
_atom_site_aniso_U_33
_atom_site_aniso_U_23
_atom_site_aniso_U_13
_atom_site_aniso_U_12
O1 0.0929(18) 0.0264(11) 0.0633(14) -0.0099(9) -0.0377(12) -0.0028(10)
O2 0.0364(11) 0.0506(13) 0.0646(14) 0.0045(10) -0.0031(9) -0.0055(9)
N5 0.0643(16) 0.0328(12) 0.0369(12) -0.0085(9) -0.0206(10) -0.0033(10)
C1 0.0503(15) 0.0303(13) 0.0403(15) -0.0071(11) -0.0156(11) -0.0060(11)
C2 0.0355(13) 0.0278(12) 0.0295(12) -0.0063(10) -0.0060(9) -0.0033(9)
C3 0.0361(13) 0.0304(13) 0.0315(13) -0.0043(10) -0.0051(10) -0.0042(9)
C4 0.0519(15) 0.0308(13) 0.0339(13) -0.0027(10) -0.0122(11) -0.0069(11)
C1' 0.0383(13) 0.0257(12) 0.0318(13) -0.0025(9) -0.0104(9) -0.0001(9)
C2' 0.0425(15) 0.0358(14) 0.0433(15) -0.0075(11) -0.0061(11) -0.0051(11)
C3' 0.064(2) 0.0361(15) 0.064(2) -0.0140(14) -0.0143(15) -0.0131(13)
C4' 0.078(2) 0.0372(16) 0.0544(19) -0.0206(14) -0.0155(15) 0.0077(14)
C5' 0.0602(19) 0.0485(17) 0.0489(17) -0.0155(14) -0.0027(14) 0.0083(14)
C6' 0.0447(15) 0.0358(14) 0.0411(15) -0.0058(11) -0.0039(11) -0.0023(11)
C7' 0.0344(13) 0.0325(13) 0.0353(13) -0.0085(10) -0.0061(10) -0.0008(10)
C8' 0.0364(13) 0.0331(13) 0.0343(13) -0.0067(10) -0.0110(10) -0.0016(10)
C9' 0.0477(16) 0.0399(16) 0.0474(16) -0.0045(12) -0.0083(12) 0.0067(12)
C10' 0.065(2) 0.0435(17) 0.0578(19) -0.0032(14) -0.0162(15) 0.0141(15)
C11' 0.082(2) 0.0404(17) 0.0444(17) 0.0048(13) -0.0189(16) -0.0031(15)
C12' 0.063(2) 0.058(2) 0.0418(17) 0.0029(14) -0.0026(14) -0.0090(15)
C13' 0.0454(15) 0.0435(16) 0.0420(15) -0.0036(12) -0.0050(12) 0.0009(12)
loop_
_atom_type_symbol
_atom_type_description
_atom_type_scat_dispersion_real
_atom_type_scat_dispersion_imag
_atom_type_scat_source
C C 0.0181 0.0091 'International Tables Vol C Tables 4.2.6.8 and 6.1.1.4'
H H 0.0000 0.0000 'International Tables Vol C Tables 4.2.6.8 and 6.1.1.4'
N N 0.0311 0.0180 'International Tables Vol C Tables 4.2.6.8 and 6.1.1.4'
O O 0.0492 0.0322 'International Tables Vol C Tables 4.2.6.8 and 6.1.1.4'
loop_
_geom_angle_atom_site_label_1
_geom_angle_atom_site_label_2
_geom_angle_atom_site_label_3
_geom_angle
C1 N5 C4 114.0(2)
C1 N5 H5 123.0
C4 N5 H5 123.0
O1 C1 N5 127.3(2)
O1 C1 C2 125.0(2)
N5 C1 C2 107.7(2)
C3 C2 C7' 115.2(2)
C3 C2 C1 103.58(18)
C7' C2 C1 111.64(19)
C3 C2 H2 108.7
C7' C2 H2 108.7
C1 C2 H2 108.7
C1' C3 C2 115.8(2)
C1' C3 C4 113.80(19)
C2 C3 C4 102.27(19)
C1' C3 H3 108.2
C2 C3 H3 108.2
C4 C3 H3 108.2
N5 C4 C3 102.91(19)
N5 C4 H4A 111.2
C3 C4 H4A 111.2
N5 C4 H4B 111.2
C3 C4 H4B 111.2
H4A C4 H4B 109.1
C2' C1' C6' 118.0(2)
C2' C1' C3 120.3(2)
C6' C1' C3 121.7(2)
C3' C2' C1' 121.1(3)
C3' C2' H2' 119.4
C1' C2' H2' 119.4
C4' C3' C2' 120.3(3)
C4' C3' H3' 119.8
C2' C3' H3' 119.8
C5' C4' C3' 119.2(3)
C5' C4' H4' 120.4
C3' C4' H4' 120.4
C4' C5' C6' 120.6(3)
C4' C5' H5' 119.7
C6' C5' H5' 119.7
C5' C6' C1' 120.8(3)
C5' C6' H6' 119.6
C1' C6' H6' 119.6
O2 C7' C8' 121.3(2)
O2 C7' C2 120.6(2)
C8' C7' C2 118.1(2)
C13' C8' C9' 118.2(2)
C13' C8' C7' 123.0(2)
C9' C8' C7' 118.8(2)
C10' C9' C8' 120.6(3)
C10' C9' H9' 119.7
C8' C9' H9' 119.7
C9' C10' C11' 120.5(3)
C9' C10' H10' 119.8
C11' C10' H10' 119.8
C12' C11' C10' 119.8(3)
C12' C11' H11' 120.1
C10' C11' H11' 120.1
C11' C12' C13' 119.8(3)
C11' C12' H12' 120.1
C13' C12' H12' 120.1
C12' C13' C8' 121.2(3)
C12' C13' H13' 119.4
C8' C13' H13' 119.4
loop_
_geom_bond_atom_site_label_1
_geom_bond_atom_site_label_2
_geom_bond_distance
O1 C1 1.225(3)
O2 C7' 1.203(3)
N5 C1 1.335(3)
N5 C4 1.439(3)
N5 H5 0.8600
C1 C2 1.531(3)
C2 C3 1.530(3)
C2 C7' 1.528(3)
C2 H2 0.9800
C3 C1' 1.507(3)
C3 C4 1.543(3)
C3 H3 0.9800
C4 H4A 0.9700
C4 H4B 0.9700
C1' C2' 1.391(4)
C1' C6' 1.391(4)
C2' C3' 1.378(4)
C2' H2' 0.9300
C3' C4' 1.378(5)
C3' H3' 0.9300
C4' C5' 1.383(5)
C4' H4' 0.9300
C5' C6' 1.377(4)
C5' H5' 0.9300
C6' H6' 0.9300
C7' C8' 1.483(3)
C8' C13' 1.385(4)
C8' C9' 1.398(4)
C9' C10' 1.370(4)
C9' H9' 0.9300
C10' C11' 1.380(5)
C10' H10' 0.9300
C11' C12' 1.379(5)
C11' H11' 0.9300
C12' C13' 1.381(4)
C12' H12' 0.9300
C13' H13' 0.9300
loop_
_geom_hbond_atom_site_label_D
_geom_hbond_atom_site_label_H
_geom_hbond_atom_site_label_A
_geom_hbond_distance_DH
_geom_hbond_distance_HA
_geom_hbond_distance_DA
_geom_hbond_angle_DHA
_geom_hbond_site_symmetry_A
N5 H5 O1 0.86 2.04 2.867(3) 161.8 2_666
loop_
_geom_torsion_atom_site_label_1
_geom_torsion_atom_site_label_2
_geom_torsion_atom_site_label_3
_geom_torsion_atom_site_label_4
_geom_torsion
C4 N5 C1 O1 -172.6(3)
C4 N5 C1 C2 5.5(3)
O1 C1 C2 C3 -167.1(3)
N5 C1 C2 C3 14.7(3)
O1 C1 C2 C7' -42.5(4)
N5 C1 C2 C7' 139.3(2)
C7' C2 C3 C1' 86.3(3)
C1 C2 C3 C1' -151.5(2)
C7' C2 C3 C4 -149.3(2)
C1 C2 C3 C4 -27.1(2)
C1 N5 C4 C3 -23.2(3)
C1' C3 C4 N5 155.8(2)
C2 C3 C4 N5 30.1(3)
C2 C3 C1' C2' -128.0(2)
C4 C3 C1' C2' 113.8(3)
C2 C3 C1' C6' 54.1(3)
C4 C3 C1' C6' -64.0(3)
C6' C1' C2' C3' 0.3(4)
C3 C1' C2' C3' -177.7(2)
C1' C2' C3' C4' -0.5(5)
C2' C3' C4' C5' -0.1(5)
C3' C4' C5' C6' 1.0(5)
C4' C5' C6' C1' -1.2(4)
C2' C1' C6' C5' 0.6(4)
C3 C1' C6' C5' 178.4(2)
C3 C2 C7' O2 13.0(3)
C1 C2 C7' O2 -104.8(3)
C3 C2 C7' C8' -168.0(2)
C1 C2 C7' C8' 74.2(3)
O2 C7' C8' C13' -149.0(3)
C2 C7' C8' C13' 32.1(4)
O2 C7' C8' C9' 28.1(4)
C2 C7' C8' C9' -150.8(2)
C13' C8' C9' C10' 0.1(4)
C7' C8' C9' C10' -177.1(3)
C8' C9' C10' C11' 1.0(5)
C9' C10' C11' C12' -1.1(5)
C10' C11' C12' C13' 0.1(5)
C11' C12' C13' C8' 1.0(5)
C9' C8' C13' C12' -1.1(4)
C7' C8' C13' C12' 176.1(3)
