#------------------------------------------------------------------------------
#$Date: 2017-07-12 07:08:35 +0300 (Wed, 12 Jul 2017) $
#$Revision: 198662 $
#$URL: file:///home/coder/svn-repositories/cod/cif/7/05/64/7056414.cif $
#------------------------------------------------------------------------------
#
# This file is available in the Crystallography Open Database (COD),
# http://www.crystallography.net/
#
# All data on this site have been placed in the public domain by the
# contributors.
#
data_7056414
loop_
_publ_author_name
'Liu, Tianlin'
'Qi, Xiujuan'
'Wang, Kangcai'
'Zhang, Jiaheng'
'Zhang, Wenquan'
'Zhang, Qinghua'
_publ_section_title
;
 Green primary energetic materials based on
 N-(3-nitro-1-(trinitromethyl)-1H-1,2,4-triazol-5-yl)nitramide
;
_journal_name_full               'New J. Chem.'
_journal_paper_doi               10.1039/C7NJ01917C
_journal_year                    2017
_chemical_formula_moiety         'C3 N9 O10, H4 N O, H2 O'
_chemical_formula_sum            'C3 H6 N10 O12'
_chemical_formula_weight         374.18
_chemical_name_systematic
;
 ? 
;
_space_group_crystal_system      monoclinic
_space_group_IT_number           4
_space_group_name_Hall           'P 2yb'
_space_group_name_H-M_alt        'P 1 21 1'
_symmetry_space_group_name_Hall  'P 2yb'
_symmetry_space_group_name_H-M   'P 1 21 1'
_atom_sites_solution_hydrogens   mixed
_atom_sites_solution_primary     direct
_audit_creation_date             2017-07-05
_audit_creation_method
;
Olex2 1.2-beta
(compiled 2017.03.28 svn.r3405 for OlexSys, GUI svn.r5361)
;
_audit_update_record
;
2017-07-09 deposited with the CCDC.
2017-07-12 downloaded from the CCDC.
;
_cell_angle_alpha                90
_cell_angle_beta                 90.413(11)
_cell_angle_gamma                90
_cell_formula_units_Z            2
_cell_length_a                   7.8388(15)
_cell_length_b                   7.8730(15)
_cell_length_c                   10.987(2)
_cell_measurement_reflns_used    2049
_cell_measurement_temperature    296(2)
_cell_measurement_theta_max      25.381
_cell_measurement_theta_min      2.599
_cell_volume                     678.0(2)
_computing_cell_refinement       'SAINT v7.68A (Bruker, 2009)'
_computing_data_reduction        'SAINT v7.68A (Bruker, 2009)'
_computing_molecular_graphics    'Olex2 (Dolomanov et al., 2009)'
_computing_publication_material  'Olex2 (Dolomanov et al., 2009)'
_computing_structure_refinement  'ShelXL (Sheldrick, 2015)'
_computing_structure_solution    'ShelXT (Sheldrick, 2015)'
_diffrn_ambient_temperature      296.15
_diffrn_measured_fraction_theta_full 0.998
_diffrn_measured_fraction_theta_max 0.988
_diffrn_measurement_device_type  'Bruker APEX-II CCD'
_diffrn_measurement_method       '\f and \w scans'
_diffrn_radiation_monochromator  graphite
_diffrn_radiation_type           MoK\a
_diffrn_radiation_wavelength     0.71073
_diffrn_reflns_av_R_equivalents  0.0417
_diffrn_reflns_av_unetI/netI     0.0694
_diffrn_reflns_Laue_measured_fraction_full 0.998
_diffrn_reflns_Laue_measured_fraction_max 0.988
_diffrn_reflns_limit_h_max       10
_diffrn_reflns_limit_h_min       -10
_diffrn_reflns_limit_k_max       10
_diffrn_reflns_limit_k_min       -8
_diffrn_reflns_limit_l_max       14
_diffrn_reflns_limit_l_min       -14
_diffrn_reflns_number            4230
_diffrn_reflns_point_group_measured_fraction_full 0.998
_diffrn_reflns_point_group_measured_fraction_max 0.988
_diffrn_reflns_theta_full        25.242
_diffrn_reflns_theta_max         28.205
_diffrn_reflns_theta_min         1.854
_diffrn_standards_number         0
_exptl_absorpt_coefficient_mu    0.184
_exptl_absorpt_correction_T_max  0.7456
_exptl_absorpt_correction_T_min  0.5205
_exptl_absorpt_correction_type   multi-scan
_exptl_absorpt_process_details
'SADABS-2008/1 (Bruker,2008) was used for absorption correction. wR2(int) was 0.1021 before and 0.0718 after correction. The Ratio of minimum to maximum transmission is 0.6981. The \l/2 correction factor is 0.0015.'
_exptl_crystal_colour            colourless
_exptl_crystal_colour_primary    colourless
_exptl_crystal_density_diffrn    1.833
_exptl_crystal_density_method    'not measured'
_exptl_crystal_description       block
_exptl_crystal_F_000             380
_exptl_crystal_size_max          0.2
_exptl_crystal_size_mid          0.1
_exptl_crystal_size_min          0.08
_refine_diff_density_max         0.219
_refine_diff_density_min         -0.227
_refine_diff_density_rms         0.046
_refine_ls_abs_structure_details
;
 Refined as an inversion twin.
;
_refine_ls_abs_structure_Flack   0(2)
_refine_ls_extinction_method     none
_refine_ls_goodness_of_fit_ref   1.006
_refine_ls_hydrogen_treatment    mixed
_refine_ls_matrix_type           full
_refine_ls_number_parameters     258
_refine_ls_number_reflns         2832
_refine_ls_number_restraints     71
_refine_ls_restrained_S_all      1.004
_refine_ls_R_factor_all          0.0669
_refine_ls_R_factor_gt           0.0426
_refine_ls_shift/su_max          0.000
_refine_ls_shift/su_mean         0.000
_refine_ls_structure_factor_coef Fsqd
_refine_ls_weighting_details
'w=1/[\s^2^(Fo^2^)+(0.0524P)^2^] where P=(Fo^2^+2Fc^2^)/3'
_refine_ls_weighting_scheme      calc
_refine_ls_wR_factor_gt          0.1068
_refine_ls_wR_factor_ref         0.1210
_reflns_Friedel_coverage         0.866
_reflns_Friedel_fraction_full    0.997
_reflns_Friedel_fraction_max     0.988
_reflns_number_gt                2034
_reflns_number_total             2832
_reflns_threshold_expression     'I > 2\s(I)'
_iucr_refine_instructions_details
;

    mo_2016291_0m.res created by SHELXL-2014/7

TITL mo_2016291_0m_a.res in P2(1)
REM Old TITL mo_2016291_0m in P21 #4
REM SHELXT solution in P2(1)
REM R1 0.161, Rweak 0.036, Alpha 0.006, Orientation as input
REM Flack x = 0.355 ( 0.986 ) from Parsons' quotients
REM Formula found by SHELXT: C19 N O5
CELL 0.71073 7.8388 7.873 10.9873 90 90.413 90
ZERR 2 0.0015 0.0015 0.002 0 0.011 0
LATT -1
SYMM -X,0.5+Y,-Z
SFAC C H N O
UNIT 6 12 20 24
DFIX 1.42 O11A N10
DELU
ISOR 0.005 0.01 O1W O1WA
 
L.S. 10
PLAN  50
TEMP 23
FREE O11A H10c
FREE H10a H10c
damp
BOND $H
LIST 6
MORE -1
CONF
fmap 2
acta
TWIN -1 0 0 0 -1 0 0 0 -1 2
REM <olex2.extras>
REM <HklSrc "%.\\mo_2016291_0m.hkl">
REM </olex2.extras>
 
WGHT    0.052400
BASF   0.29748
FVAR       1.32023   0.66710
N3    3    1.393097    1.180688    1.169142    11.00000    0.03680    0.04337 =
         0.03554    0.00095   -0.00102    0.00323
N2    3    1.640661    1.079032    1.256520    11.00000    0.03763    0.04337 =
         0.03786    0.00636    0.00155    0.00450
N7    3    1.775382    1.493782    1.315693    11.00000    0.04567    0.05422 =
         0.04573    0.00543   -0.00319   -0.00311
O1    4    1.605794    0.788923    1.128729    11.00000    0.07525    0.04978 =
         0.07342   -0.00897   -0.00816    0.02500
O2    4    1.380343    0.890693    1.036274    11.00000    0.06610    0.05673 =
         0.06641   -0.01501   -0.01833    0.00514
N4    3    1.601691    1.238113    1.300849    11.00000    0.04222    0.04239 =
         0.03909   -0.00314   -0.00748    0.00731
O4    4    1.244229    1.679244    1.251318    11.00000    0.07861    0.05514 =
         0.08869   -0.00520   -0.00603    0.02845
N6    3    1.627328    1.372473    1.503716    11.00000    0.06434    0.05228 =
         0.03883    0.00552   -0.00088   -0.00014
O5    4    1.794028    1.477160    1.207460    11.00000    0.07962    0.07329 =
         0.04407    0.00896    0.01442    0.00787
N8    3    1.408412    1.457867    1.279681    11.00000    0.04317    0.04443 =
         0.05176   -0.00541   -0.00975    0.01231
N1    3    1.498440    0.899601    1.110925    11.00000    0.05234    0.04257 =
         0.04623   -0.00214    0.00040    0.00439
N9    3    1.282977    1.532485    1.216103    11.00000    0.04520    0.04528 =
         0.06592    0.00431   -0.00853    0.00808
O3    4    1.212595    1.468442    1.127372    11.00000    0.08930    0.06002 =
         0.11315   -0.00930   -0.06566    0.02004
O8    4    1.717051    1.452031    1.573936    11.00000    0.12263    0.07587 =
         0.04483   -0.01076   -0.00391   -0.02131
O9    4    1.844710    1.103519    1.478824    11.00000    0.08647    0.07364 =
         0.07189    0.02553   -0.02263    0.01259
N10   3    1.088071    2.139264    1.021232    11.00000    0.04048    0.05703 =
         0.05924   -0.00294   -0.00196    0.00132
AFIX   7
H10A  2    1.168701    2.171649    1.070060    11.00000   -1.50000
H10B  2    1.136989    2.146030    0.941651    11.00000   -1.50000
AFIX   0
 
O6    4    1.799423    1.620800    1.376145    11.00000    0.10006    0.05900 =
         0.07228   -0.00227   -0.00645   -0.01882
N5    3    1.871670    1.223112    1.411923    11.00000    0.04701    0.06388 =
         0.05157    0.00463   -0.01228    0.00761
O7    4    1.487581    1.318892    1.520585    11.00000    0.06574    0.11722 =
         0.05518    0.00243    0.01800   -0.00368
C2    1    1.452110    1.299903    1.245026    11.00000    0.03578    0.04129 =
         0.03758    0.00271   -0.00315    0.00585
O10   4    2.005423    1.268200    1.367444    11.00000    0.05033    0.10318 =
         0.11935    0.03004   -0.00591    0.01323
C1    1    1.511200    1.055808    1.182019    11.00000    0.03918    0.03660 =
         0.03496    0.00435    0.00248    0.00429
C3    1    1.711244    1.328938    1.379774    11.00000    0.04247    0.04542 =
         0.03847    0.00219   -0.00629    0.00020
PART 1
AFIX   6
O1W   4    0.973457    1.879285    1.178685    21.00000    0.05304    0.06795 =
         0.08953    0.01650   -0.00984    0.00599
H1WA  2    1.059760    1.827811    1.207996    21.00000   -1.50000
H1WB  2    0.904566    1.902902    1.235631    21.00000   -1.50000
AFIX   0
 
O11   4    0.938250    2.236610    1.014352    10.50000    0.06977    0.05677 =
         0.11204   -0.02012   -0.05140    0.01669
AFIX 147
H11   2    0.870554    2.191222    0.967318    10.50000   -1.50000
AFIX   0
PART 0
PART 2
O11A  4    0.949466    2.179318    1.082438    10.50000    0.06470    0.11145 =
         0.11868   -0.04808    0.02847    0.02046
AFIX  83
H11A  2    0.933545    2.282106    1.078349    10.50000   -1.50000
AFIX   0
PART 0
H10C  2    1.037176    2.060446    1.077204    11.00000    0.12544
 
PART 2
AFIX   6
O1WA  4    0.987937    1.929218    1.248389   -21.00000    0.07517    0.10179 =
         0.12111   -0.01472    0.00546    0.02508
H1WC  2    0.949066    1.994561    1.303178   -21.00000   -1.50000
H1WD  2    1.076004    1.878226    1.275339   -21.00000   -1.50000
AFIX   0
HKLF 4
 
REM  mo_2016291_0m_a.res in P2(1)
REM R1 =  0.0426 for    2034 Fo > 4sig(Fo)  and  0.0669 for all    2832 data
REM    258 parameters refined using     71 restraints
 
END  
     
WGHT      0.0524      0.0000 

REM Highest difference peak  0.219,  deepest hole -0.227,  1-sigma level  0.046
Q1    1   1.3015  1.1879  1.1570  11.00000  0.05    0.22
Q2    1   1.8886  1.5370  1.3617  11.00000  0.05    0.19
Q3    1   1.4950  1.4784  1.2819  11.00000  0.05    0.19
Q4    1   1.3219  1.2594  1.0765  11.00000  0.05    0.18
Q5    1   1.0012  2.2922  0.9473  11.00000  0.05    0.17
Q6    1   1.2982  1.6774  1.2561  11.00000  0.05    0.16
Q7    1   1.5064  1.2208  1.4867  11.00000  0.05    0.16
Q8    1   1.4152  1.4785  1.2538  11.00000  0.05    0.16
Q9    1   1.8772  1.3774  1.3138  11.00000  0.05    0.16
Q10   1   1.3091  1.0751  1.1184  11.00000  0.05    0.15
Q11   1   1.8000  1.3658  1.5534  11.00000  0.05    0.15
Q12   1   1.8164  1.5905  1.5851  11.00000  0.05    0.15
Q13   1   1.9869  1.1542  1.3210  11.00000  0.05    0.14
Q14   1   1.6286  1.3104  1.3399  11.00000  0.05    0.14
Q15   1   1.7122  0.8836  1.1504  11.00000  0.05    0.14
Q16   1   1.6155  1.5059  1.5263  11.00000  0.05    0.14
Q17   1   1.0951  1.9982  1.0095  11.00000  0.05    0.14
Q18   1   1.1832  1.5969  1.2549  11.00000  0.05    0.13
Q19   1   1.3167  0.7630  0.8978  11.00000  0.05    0.13
Q20   1   1.3514  0.9813  1.0744  11.00000  0.05    0.13
Q21   1   2.1622  1.3180  1.2978  11.00000  0.05    0.13
Q22   1   1.6624  1.5999  1.2421  11.00000  0.05    0.13
Q23   1   1.6069  1.0659  1.2058  11.00000  0.05    0.13
Q24   1   1.1743  2.2636  1.0275  11.00000  0.05    0.13
Q25   1   2.1193  1.1604  1.3998  11.00000  0.05    0.13
Q26   1   1.4962  1.5509  1.3443  11.00000  0.05    0.13
Q27   1   1.4162  1.0826  1.1903  11.00000  0.05    0.13
Q28   1   1.7821  1.7638  1.4909  11.00000  0.05    0.13
Q29   1   1.5806  1.5200  1.2773  11.00000  0.05    0.12
Q30   1   1.6005  0.9031  1.1136  11.00000  0.05    0.12
Q31   1   1.4421  0.6795  1.1323  11.00000  0.05    0.12
Q32   1   1.4366  0.9253  1.3021  11.00000  0.05    0.12
Q33   1   1.4155  1.3839  1.2778  11.00000  0.05    0.12
Q34   1   1.4976  0.6495  1.0732  11.00000  0.05    0.12
Q35   1   2.1446  1.1796  1.2542  11.00000  0.05    0.12
Q36   1   1.6093  0.9214  1.2389  11.00000  0.05    0.12
Q37   1   0.8814  2.1184  0.9447  11.00000  0.05    0.12
Q38   1   1.7277  1.0731  1.2639  11.00000  0.05    0.12
Q39   1   1.5831  0.7783  1.1761  11.00000  0.05    0.12
Q40   1   1.3146  2.2746  1.0060  11.00000  0.05    0.12
Q41   1   1.2128  1.4658  1.0877  11.00000  0.05    0.12
Q42   1   1.3519  1.6436  1.2839  11.00000  0.05    0.12
Q43   1   1.1322  1.6453  1.2121  11.00000  0.05    0.12
Q44   1   1.5192  1.5703  1.5002  11.00000  0.05    0.11
Q45   1   1.2696  1.0137  1.0453  11.00000  0.05    0.11
Q46   1   1.4238  1.5400  1.3027  11.00000  0.05    0.11
Q47   1   1.4085  0.6618  1.0864  11.00000  0.05    0.11
Q48   1   2.0550  1.4344  1.2546  11.00000  0.05    0.11
Q49   1   1.3020  1.2611  1.4605  11.00000  0.05    0.11
Q50   1   1.6789  1.5892  1.1329  11.00000  0.05    0.11

  REM The information below was added by Olex2.
  REM
  REM R1 = 0.0426 for 2034 Fo > 4sig(Fo) and 0.0669 for all 4232 data
  REM n/a parameters refined using n/a restraints
  REM Highest difference peak 0.22, deepest hole -0.23
  REM Mean Shift 0, Max Shift 0.000.

  REM +++ Tabular Listing of Refinement Information +++
  REM R1_all = 0.0669
  REM R1_gt = 0.0426
  REM wR_ref = 0.1210
  REM GOOF = 1.006
  REM Shift_max = 0.000
  REM Shift_mean = 0
  REM Reflections_all = 4232
  REM Reflections_gt = 2034
  REM Parameters = n/a
  REM Hole = -0.23
  REM Peak = 0.22
  REM Flack = n/a

  
;
_cod_data_source_file            c7nj01917c2.cif
_cod_data_source_block           mo_2016291_0m
_cod_original_cell_volume        678.1(2)
_cod_database_code               7056414
_shelx_shelxl_version_number     2014/7
_shelx_space_group_comment
;
The symmetry employed for this shelxl refinement is uniquely defined
by the following loop, which should always be used as a source of
symmetry information in preference to the above space-group names.
They are only intended as comments.
;
_olex2_refinement_description
;
1. Twinned data refinement
 Scales: 1(2)
 0(2)
2. Fixed Uiso
 At 1.5 times of:
  All N(H,H) groups, All O(H) groups, All O(H,H) groups
3. Restrained distances
 O11A-N10
 1.42 with sigma of 0.02
4. Rigid bond restraints
 All non-hydrogen atoms
 with sigma for 1-2 distances of 0.01 and sigma for 1-3 distances of 0.01
5. Uiso/Uaniso restraints and constraints
Uanis(O1W) \\sim Ueq, Uanis(O1WA) \\sim Ueq: with sigma of 0.005 and sigma for
terminal atoms of 0.01
6. Others
 Sof(O1WA)=Sof(H1WC)=Sof(H1WD)=1-FVAR(1)
 Sof(O1W)=Sof(H1WA)=Sof(H1WB)=FVAR(1)
 Fixed Sof: O11(0.5) H11(0.5) O11A(0.5) H11A(0.5)
7.a Free rotating group:
 O1W(H1WA,H1WB), O1WA(H1WC,H1WD)
7.b Rotating group:
 N10(H10A,H10B)
7.c Tetrahedral OH refined with riding coordinates:
 O11A(H11A)
7.d Idealised tetrahedral OH refined as rotating group:
 O11(H11)
;
_olex2_submission_special_instructions 'No special instructions were received'
loop_
_space_group_symop_operation_xyz
'x, y, z'
'-x, y+1/2, -z'
loop_
_atom_site_label
_atom_site_type_symbol
_atom_site_fract_x
_atom_site_fract_y
_atom_site_fract_z
_atom_site_U_iso_or_equiv
_atom_site_adp_type
_atom_site_occupancy
_atom_site_site_symmetry_order
_atom_site_calc_flag
_atom_site_refinement_flags_posn
_atom_site_refinement_flags_adp
_atom_site_refinement_flags_occupancy
_atom_site_disorder_assembly
_atom_site_disorder_group
N3 N 1.3931(3) 1.1807(4) 1.1691(3) 0.0386(7) Uani 1 1 d . U . . .
N2 N 1.6407(4) 1.0790(4) 1.2565(3) 0.0396(7) Uani 1 1 d . U . . .
N7 N 1.7754(4) 1.4938(5) 1.3157(3) 0.0486(8) Uani 1 1 d . U . . .
O1 O 1.6058(4) 0.7889(5) 1.1287(3) 0.0662(9) Uani 1 1 d . U . . .
O2 O 1.3803(4) 0.8907(5) 1.0363(3) 0.0632(9) Uani 1 1 d . U . . .
N4 N 1.6017(4) 1.2381(5) 1.3008(3) 0.0413(7) Uani 1 1 d . U . . .
O4 O 1.2442(5) 1.6792(5) 1.2513(4) 0.0742(10) Uani 1 1 d . U . . .
N6 N 1.6273(5) 1.3725(5) 1.5037(3) 0.0518(9) Uani 1 1 d . U . . .
O5 O 1.7940(4) 1.4772(5) 1.2075(3) 0.0656(9) Uani 1 1 d . U . . .
N8 N 1.4084(4) 1.4579(5) 1.2797(3) 0.0465(8) Uani 1 1 d . U . . .
N1 N 1.4984(4) 0.8996(5) 1.1109(3) 0.0470(8) Uani 1 1 d . U . . .
N9 N 1.2830(4) 1.5325(5) 1.2161(3) 0.0522(9) Uani 1 1 d . U . . .
O3 O 1.2126(5) 1.4684(5) 1.1274(4) 0.0878(14) Uani 1 1 d . U . . .
O8 O 1.7171(5) 1.4520(5) 1.5739(3) 0.0811(11) Uani 1 1 d . U . . .
O9 O 1.8447(5) 1.1035(5) 1.4788(3) 0.0774(11) Uani 1 1 d . U . . .
N10 N 1.0881(4) 2.1393(5) 1.0212(4) 0.0523(9) Uani 1 1 d D U . . .
H10A H 1.1687 2.1716 1.0701 0.078 Uiso 1 1 d GR . . B .
H10B H 1.1370 2.1460 0.9417 0.078 Uiso 1 1 d GR . . . .
O6 O 1.7994(5) 1.6208(5) 1.3761(3) 0.0771(11) Uani 1 1 d . U . . .
N5 N 1.8717(4) 1.2231(5) 1.4119(3) 0.0542(9) Uani 1 1 d . U . . .
O7 O 1.4876(5) 1.3189(6) 1.5206(3) 0.0793(12) Uani 1 1 d . U . . .
C2 C 1.4521(4) 1.2999(5) 1.2450(3) 0.0382(8) Uani 1 1 d . U . . .
O10 O 2.0054(4) 1.2682(6) 1.3674(4) 0.0910(13) Uani 1 1 d . U . . .
C1 C 1.5112(4) 1.0558(5) 1.1820(3) 0.0369(8) Uani 1 1 d . U . . .
C3 C 1.7112(4) 1.3289(5) 1.3798(3) 0.0422(9) Uani 1 1 d . U . . .
O1W O 0.9735(8) 1.8793(12) 1.1787(12) 0.070(3) Uani 0.67(3) 1 d . U P A 1
H1WA H 1.0598 1.8278 1.2080 0.105 Uiso 0.67(3) 1 d G . P A 1
H1WB H 0.9046 1.9029 1.2356 0.105 Uiso 0.67(3) 1 d G . P A 1
O11 O 0.9383(12) 2.2366(12) 1.0144(11) 0.080(3) Uani 0.5 1 d . U P B 1
H11 H 0.8706 2.1912 0.9673 0.120 Uiso 0.5 1 calc GR . P B 1
O11A O 0.9495(12) 2.1793(17) 1.0824(11) 0.098(4) Uani 0.5 1 d D U P B 2
H11A H 0.9335 2.2821 1.0783 0.147 Uiso 0.5 1 calc R . P B 2
H10C H 1.037(11) 2.060(13) 1.077(8) 0.13(3) Uiso 1 1 d . . . . .
O1WA O 0.988(3) 1.929(3) 1.248(3) 0.099(7) Uani 0.33(3) 1 d . U P A 2
H1WC H 0.9491 1.9946 1.3032 0.149 Uiso 0.33(3) 1 d G . P A 2
H1WD H 1.0760 1.8782 1.2753 0.149 Uiso 0.33(3) 1 d G . P A 2
loop_
_atom_site_aniso_label
_atom_site_aniso_U_11
_atom_site_aniso_U_22
_atom_site_aniso_U_33
_atom_site_aniso_U_23
_atom_site_aniso_U_13
_atom_site_aniso_U_12
N3 0.0368(14) 0.0434(19) 0.0355(15) 0.0010(13) -0.0010(12) 0.0032(13)
N2 0.0376(14) 0.043(2) 0.0379(15) 0.0064(14) 0.0016(12) 0.0045(13)
N7 0.0457(17) 0.054(2) 0.0457(18) 0.0054(17) -0.0032(14) -0.0031(15)
O1 0.0753(19) 0.050(2) 0.073(2) -0.0090(16) -0.0082(16) 0.0250(17)
O2 0.0661(18) 0.057(2) 0.0664(19) -0.0150(16) -0.0183(15) 0.0051(16)
N4 0.0422(15) 0.042(2) 0.0391(16) -0.0031(13) -0.0075(12) 0.0073(13)
O4 0.079(2) 0.055(2) 0.089(3) -0.0052(19) -0.0060(18) 0.0284(18)
N6 0.064(2) 0.052(2) 0.0388(17) 0.0055(17) -0.0009(16) -0.0001(18)
O5 0.080(2) 0.073(2) 0.0441(16) 0.0090(16) 0.0144(15) 0.0079(18)
N8 0.0432(16) 0.044(2) 0.0518(19) -0.0054(15) -0.0098(14) 0.0123(15)
N1 0.0523(18) 0.043(2) 0.0462(18) -0.0021(15) 0.0004(14) 0.0044(15)
N9 0.0452(17) 0.045(2) 0.066(2) 0.0043(18) -0.0085(16) 0.0081(15)
O3 0.089(2) 0.060(2) 0.113(3) -0.009(2) -0.066(2) 0.020(2)
O8 0.123(3) 0.076(3) 0.0448(17) -0.0108(18) -0.0039(18) -0.021(2)
O9 0.086(2) 0.074(3) 0.072(2) 0.026(2) -0.0226(18) 0.013(2)
N10 0.0405(16) 0.057(3) 0.059(2) -0.0029(18) -0.0020(16) 0.0013(16)
O6 0.100(3) 0.059(2) 0.072(2) -0.0023(19) -0.006(2) -0.0188(19)
N5 0.0470(19) 0.064(3) 0.0516(19) 0.0046(18) -0.0123(15) 0.0076(17)
O7 0.0657(19) 0.117(4) 0.0552(19) 0.002(2) 0.0180(15) -0.004(2)
C2 0.0358(16) 0.041(2) 0.0376(17) 0.0027(16) -0.0031(14) 0.0059(16)
O10 0.0503(18) 0.103(3) 0.119(3) 0.030(3) -0.0059(19) 0.0132(19)
C1 0.0392(17) 0.037(2) 0.0350(17) 0.0044(14) 0.0025(14) 0.0043(15)
C3 0.0425(18) 0.045(2) 0.0385(18) 0.0022(16) -0.0063(15) 0.0002(16)
O1W 0.053(3) 0.068(5) 0.090(7) 0.017(4) -0.010(3) 0.006(3)
O11 0.070(5) 0.057(5) 0.112(7) -0.020(5) -0.051(6) 0.017(4)
O11A 0.065(5) 0.111(9) 0.119(9) -0.048(7) 0.028(6) 0.020(5)
O1WA 0.075(8) 0.102(11) 0.121(13) -0.015(9) 0.005(8) 0.025(8)
loop_
_atom_type_symbol
_atom_type_description
_atom_type_scat_dispersion_real
_atom_type_scat_dispersion_imag
_atom_type_scat_source
C C 0.0033 0.0016 'International Tables Vol C Tables 4.2.6.8 and 6.1.1.4'
H H 0.0000 0.0000 'International Tables Vol C Tables 4.2.6.8 and 6.1.1.4'
N N 0.0061 0.0033 'International Tables Vol C Tables 4.2.6.8 and 6.1.1.4'
O O 0.0106 0.0060 'International Tables Vol C Tables 4.2.6.8 and 6.1.1.4'
loop_
_geom_angle_atom_site_label_1
_geom_angle_atom_site_label_2
_geom_angle_atom_site_label_3
_geom_angle
C2 N3 C1 102.2(3)
C1 N2 N4 100.1(3)
O5 N7 O6 127.5(4)
O5 N7 C3 113.3(4)
O6 N7 C3 119.1(3)
N2 N4 C2 110.3(3)
N2 N4 C3 122.8(3)
C2 N4 C3 126.5(3)
O8 N6 C3 115.1(3)
O7 N6 O8 127.9(4)
O7 N6 C3 117.0(4)
N9 N8 C2 116.5(3)
O1 N1 O2 125.2(4)
O1 N1 C1 118.0(3)
O2 N1 C1 116.8(3)
O4 N9 N8 114.9(4)
O3 N9 O4 121.0(4)
O3 N9 N8 124.0(4)
H10A N10 H10B 104.7
H10A N10 H10C 95.6
H10B N10 H10C 142.1
O11 N10 H10A 118.7
O11 N10 H10B 105.1
O11 N10 H10C 92(5)
O11A N10 H10A 102.4
O11A N10 H10B 141.9
O11A N10 H10C 59(6)
O9 N5 C3 114.3(4)
O10 N5 O9 128.7(4)
O10 N5 C3 117.0(4)
N3 C2 N4 108.2(3)
N3 C2 N8 137.6(3)
N8 C2 N4 114.2(3)
N3 C1 N1 120.7(3)
N2 C1 N3 119.2(3)
N2 C1 N1 120.1(3)
N4 C3 N7 109.9(3)
N4 C3 N6 113.0(3)
N4 C3 N5 110.9(3)
N6 C3 N7 110.6(3)
N5 C3 N7 106.7(3)
N5 C3 N6 105.5(3)
H1WA O1W H1WB 109.5
N10 O11 H11 109.5
N10 O11A H11A 109.5
N10 O11A H10C 45(5)
H11A O11A H10C 151.8
H1WC O1WA H1WD 109.5
loop_
_geom_bond_atom_site_label_1
_geom_bond_atom_site_label_2
_geom_bond_distance
N3 C2 1.336(5)
N3 C1 1.357(5)
N2 N4 1.379(5)
N2 C1 1.312(5)
N7 O5 1.206(4)
N7 O6 1.214(5)
N7 C3 1.561(5)
O1 N1 1.226(4)
O2 N1 1.234(4)
N4 C2 1.406(4)
N4 C3 1.411(5)
O4 N9 1.256(5)
N6 O8 1.214(5)
N6 O7 1.190(5)
N6 C3 1.555(5)
N8 N9 1.338(4)
N8 C2 1.346(5)
N1 C1 1.460(5)
N9 O3 1.225(5)
O9 N5 1.214(5)
N10 H10A 0.8645
N10 H10B 0.9588
N10 O11 1.404(9)
N10 O11A 1.320(9)
N10 H10C 0.96(9)
N5 O10 1.213(5)
N5 C3 1.547(5)
O1W H1WA 0.8500
O1W H1WB 0.8500
O11 H11 0.8200
O11A H11A 0.8200
O11A H10C 1.16(9)
O1WA H1WC 0.8500
O1WA H1WD 0.8500
loop_
_geom_torsion_atom_site_label_1
_geom_torsion_atom_site_label_2
_geom_torsion_atom_site_label_3
_geom_torsion_atom_site_label_4
_geom_torsion
N2 N4 C2 N3 1.9(4)
N2 N4 C2 N8 -177.5(3)
N2 N4 C3 N7 115.3(4)
N2 N4 C3 N6 -120.6(4)
N2 N4 C3 N5 -2.4(5)
O1 N1 C1 N3 -177.9(4)
O1 N1 C1 N2 4.2(5)
O2 N1 C1 N3 2.8(5)
O2 N1 C1 N2 -175.0(4)
N4 N2 C1 N3 1.4(4)
N4 N2 C1 N1 179.3(3)
O5 N7 C3 N4 -33.7(4)
O5 N7 C3 N6 -159.1(3)
O5 N7 C3 N5 86.7(4)
N9 N8 C2 N3 -9.1(7)
N9 N8 C2 N4 170.1(3)
O8 N6 C3 N7 -55.7(4)
O8 N6 C3 N4 -179.4(4)
O8 N6 C3 N5 59.2(5)
O9 N5 C3 N7 169.2(4)
O9 N5 C3 N4 -71.1(4)
O9 N5 C3 N6 51.6(5)
O6 N7 C3 N4 145.8(4)
O6 N7 C3 N6 20.4(5)
O6 N7 C3 N5 -93.9(4)
O7 N6 C3 N7 127.3(4)
O7 N6 C3 N4 3.6(5)
O7 N6 C3 N5 -117.8(4)
C2 N3 C1 N2 -0.3(4)
C2 N3 C1 N1 -178.2(3)
C2 N4 C3 N7 -56.5(5)
C2 N4 C3 N6 67.5(5)
C2 N4 C3 N5 -174.3(3)
C2 N8 N9 O4 179.4(4)
C2 N8 N9 O3 -2.9(6)
O10 N5 C3 N7 -11.3(5)
O10 N5 C3 N4 108.4(5)
O10 N5 C3 N6 -128.9(4)
C1 N3 C2 N4 -0.9(4)
C1 N3 C2 N8 178.3(5)
C1 N2 N4 C2 -1.9(4)
C1 N2 N4 C3 -175.0(3)
C3 N4 C2 N3 174.6(3)
C3 N4 C2 N8 -4.8(5)
loop_
_twin_individual_id
_twin_individual_mass_fraction_refined
1 1(2)
2 0(2)
