#------------------------------------------------------------------------------
#$Date: 2017-08-22 06:55:35 +0300 (Tue, 22 Aug 2017) $
#$Revision: 199877 $
#$URL: file:///home/coder/svn-repositories/cod/cif/7/05/65/7056533.cif $
#------------------------------------------------------------------------------
#
# This file is available in the Crystallography Open Database (COD),
# http://www.crystallography.net/
#
# All data on this site have been placed in the public domain by the
# contributors.
#
data_7056533
loop_
_publ_author_name
'Valverde, Clodoaldo'
'Fonseca Vaz, Wesley'
'Cust\'odio, Jean'
'Duarte, Vitor'
'Carvalho Jr, Paulo de Sousa'
'Figueredo, Andreza'
'Aquino, Gilberto L\'ucio Benedito'
'Baseia, Basilio'
'Napolitano, Hamilton'
_publ_section_title
;
 Solid State Structure and Environmental Polarization Effect of a Novel
 Asymmetric Azine
;
_journal_name_full               'New J. Chem.'
_journal_paper_doi               10.1039/C7NJ00618G
_journal_year                    2017
_chemical_formula_sum            'C17 H17 N3 O3'
_chemical_formula_weight         311.33
_chemical_name_common            azine
_chemical_name_systematic
(1E,2E)-1-(4-ethoxybenzylidene)-2-(1-(4-nitrophenyl)ethylidene)hydrazine
_space_group_crystal_system      triclinic
_space_group_IT_number           2
_space_group_name_Hall           '-P 1'
_space_group_name_H-M_alt        'P -1'
_symmetry_space_group_name_Hall  '-P 1'
_symmetry_space_group_name_H-M   'P -1'
_atom_sites_solution_hydrogens   mixed
_audit_creation_method           SHELXL-2014/7
_audit_update_record
;
2017-02-20 deposited with the CCDC.
2017-08-21 downloaded from the CCDC.
;
_cell_angle_alpha                106.19
_cell_angle_beta                 101.69
_cell_angle_gamma                110.10
_cell_formula_units_Z            2
_cell_length_a                   9.347
_cell_length_b                   9.949
_cell_length_c                   10.194
_cell_measurement_reflns_used    2876
_cell_measurement_temperature    293(2)
_cell_measurement_theta_max      25.35
_cell_measurement_theta_min      2.91
_cell_volume                     806.765
_computing_structure_refinement  'SHELXL-2014/7 (Sheldrick, 2014)'
_diffrn_ambient_temperature      293(2)
_diffrn_measured_fraction_theta_full 0.975
_diffrn_measured_fraction_theta_max 0.970
_diffrn_measurement_device_type  'Bruker APEX-II CCD'
_diffrn_measurement_method       '\f or \w oscillation scans'
_diffrn_radiation_type           MoK\a
_diffrn_radiation_wavelength     0.71073
_diffrn_reflns_av_R_equivalents  0.028
_diffrn_reflns_av_unetI/netI     0.0241
_diffrn_reflns_Laue_measured_fraction_full 0.975
_diffrn_reflns_Laue_measured_fraction_max 0.970
_diffrn_reflns_limit_h_max       11
_diffrn_reflns_limit_h_min       0
_diffrn_reflns_limit_k_max       11
_diffrn_reflns_limit_k_min       -11
_diffrn_reflns_limit_l_max       11
_diffrn_reflns_limit_l_min       -12
_diffrn_reflns_number            13588
_diffrn_reflns_point_group_measured_fraction_full 0.975
_diffrn_reflns_point_group_measured_fraction_max 0.970
_diffrn_reflns_theta_full        25.242
_diffrn_reflns_theta_max         25.360
_diffrn_reflns_theta_min         3.447
_exptl_absorpt_coefficient_mu    0.090
_exptl_absorpt_correction_type   none
_exptl_crystal_colour            yellow
_exptl_crystal_density_diffrn    1.282
_exptl_crystal_description       prism
_exptl_crystal_F_000             328
_exptl_crystal_size_max          0.500
_exptl_crystal_size_mid          0.200
_exptl_crystal_size_min          0.200
_refine_diff_density_max         0.209
_refine_diff_density_min         -0.197
_refine_diff_density_rms         0.032
_refine_ls_extinction_method     none
_refine_ls_goodness_of_fit_ref   1.030
_refine_ls_hydrogen_treatment    mixed
_refine_ls_matrix_type           full
_refine_ls_number_parameters     232
_refine_ls_number_reflns         2872
_refine_ls_number_restraints     0
_refine_ls_restrained_S_all      1.030
_refine_ls_R_factor_all          0.0780
_refine_ls_R_factor_gt           0.0624
_refine_ls_shift/su_max          0.000
_refine_ls_shift/su_mean         0.000
_refine_ls_structure_factor_coef Fsqd
_refine_ls_weighting_details
'w=1/[\s^2^(Fo^2^)+(0.1268P)^2^+0.0705P] where P=(Fo^2^+2Fc^2^)/3'
_refine_ls_weighting_scheme      calc
_refine_ls_wR_factor_gt          0.1706
_refine_ls_wR_factor_ref         0.1908
_reflns_Friedel_coverage         0.000
_reflns_number_gt                2191
_reflns_number_total             2872
_reflns_threshold_expression     'I > 2\s(I)'
_cod_data_source_file            c7nj00618g2.cif
_cod_data_source_block           shelx
_cod_original_cell_volume        806.8
_cod_database_code               7056533
_shelx_shelxl_version_number     2014/7
_shelx_space_group_comment
;
The symmetry employed for this shelxl refinement is uniquely defined
by the following loop, which should always be used as a source of
symmetry information in preference to the above space-group names.
They are only intended as comments.
;
_shelx_estimated_absorpt_t_min   0.956
_shelx_estimated_absorpt_t_max   0.982
_shelx_res_file
;

    shelx.res created by SHELXL-2014/7


TITL shelxl in P -1
CELL  0.71073   9.3470   9.9490  10.1940  106.187  101.690  110.100
ZERR     2.00   0.0000   0.0000   0.0000    0.000    0.000    0.000
LATT   1
SFAC  C    H    O    N
UNIT  34 34 6 6
FMAP   2
PLAN   25
SIZE     0.200   0.200   0.500
ACTA
BOND
CONF
L.S.  18
WGHT    0.126800    0.070500
FVAR       6.98280
O3    3    0.480391    0.829788    0.050406    11.00000    0.07063    0.09217 =
         0.06956    0.02618    0.02223    0.02822
C5    1    0.757449    0.595908   -0.901165    11.00000    0.05748    0.07003 =
         0.07951    0.02881    0.02254    0.02018
AFIX  43
H5    2    0.662575    0.555784   -0.880943    11.00000   -1.20000
AFIX   0
C10   1    0.601300    0.747000   -0.325012    11.00000    0.07512    0.06465 =
         0.07335    0.03027    0.02720    0.03370
C1    1    0.895831    0.613411   -1.070337    11.00000    0.06905    0.07557 =
         0.07388    0.03413    0.02618    0.03615
N1    4    0.893052    0.565836   -1.220697    11.00000    0.07694    0.11657 =
         0.08151    0.04695    0.03381    0.05230
C4    1    0.900404    0.699929   -0.786947    11.00000    0.06164    0.06566 =
         0.07323    0.02970    0.02151    0.02638
C6    1    0.754060    0.551802   -1.042179    11.00000    0.06126    0.07427 =
         0.07246    0.02481    0.02021    0.02359
AFIX  43
H6    2    0.658518    0.482019   -1.117130    11.00000   -1.20000
AFIX   0
N2    4    0.765193    0.722164   -0.617720    11.00000    0.07094    0.08635 =
         0.06917    0.02924    0.02460    0.03020
N3    4    0.770898    0.771127   -0.472746    11.00000    0.07833    0.08921 =
         0.06950    0.02821    0.02593    0.03275
C3    1    1.040132    0.757984   -0.821356    11.00000    0.05768    0.08656 =
         0.07817    0.02708    0.01881    0.01900
AFIX  43
H3    2    1.136784    0.826572   -0.747236    11.00000   -1.20000
AFIX   0
C7    1    0.902645    0.745783   -0.635417    11.00000    0.06564    0.07130 =
         0.07303    0.02804    0.02034    0.02632
O2    3    0.772197    0.458365   -1.313829    11.00000    0.09692    0.13819 =
         0.07710    0.02669    0.02371    0.04283
C12   1    0.689146    0.871561   -0.064552    11.00000    0.06782    0.07625 =
         0.07325    0.02693    0.01799    0.03058
AFIX  43
H12   2    0.771962    0.934579    0.023137    11.00000   -1.20000
AFIX   0
C11   1    0.723451    0.840679   -0.191364    11.00000    0.06506    0.07610 =
         0.07859    0.03278    0.02266    0.03127
AFIX  43
H11   2    0.830142    0.882894   -0.188446    11.00000   -1.20000
AFIX   0
O1    3    1.011245    0.634891   -1.247554    11.00000    0.09088    0.20002 =
         0.10194    0.07175    0.04965    0.05289
C14   1    0.406784    0.715652   -0.199494    11.00000    0.06659    0.07332 =
         0.07368    0.02613    0.02169    0.02450
C13   1    0.529242    0.807961   -0.067604    11.00000    0.07094    0.06832 =
         0.07272    0.03041    0.02696    0.03397
C2    1    1.038473    0.716261   -0.962275    11.00000    0.05979    0.08944 =
         0.08973    0.04044    0.02844    0.02507
AFIX  43
H2    2    1.132294    0.757037   -0.983806    11.00000   -1.20000
AFIX   0
C15   1    0.442327    0.685261   -0.325119    11.00000    0.07064    0.07182 =
         0.07493    0.02626    0.02101    0.02520
C9    1    0.631115    0.713856   -0.462329    11.00000    0.07478    0.07107 =
         0.07731    0.03081    0.02640    0.03380
C16   1    0.599245    0.918103    0.191717    11.00000    0.07544    0.08550 =
         0.06959    0.02392    0.01652    0.03974
C17   1    0.510223    0.919227    0.297748    11.00000    0.08529    0.09737 =
         0.07623    0.02859    0.02850    0.04357
C8    1    1.059477    0.815748   -0.514744    11.00000    0.07723    0.14841 =
         0.08030    0.02929    0.01560    0.04248
AFIX  33
H8A   2    1.145405    0.821842   -0.554204    11.00000   -1.50000
H8B   2    1.078777    0.917704   -0.454340    11.00000   -1.50000
H8C   2    1.054910    0.752603   -0.458237    11.00000   -1.50000
AFIX   0
H14   2    0.298962    0.673431   -0.201203    11.00000   -1.20000
H15   2    0.351565    0.624316   -0.424263    11.00000   -1.20000
H9    2    0.535908    0.645847   -0.552301    11.00000   -1.20000
H16A  2    0.663218    1.025278    0.203784    11.00000   -1.20000
H16B  2    0.668312    0.866116    0.207612    11.00000   -1.20000
H17A  2    0.442249    0.970167    0.284862    11.00000   -1.50000
H17B  2    0.592300    0.978286    0.400236    11.00000   -1.50000
H17C  2    0.443292    0.815363    0.293351    11.00000   -1.50000
HKLF    4

REM  shelxl in P -1
REM R1 =  0.0624 for    2191 Fo > 4sig(Fo)  and  0.0780 for all    2872 data
REM    232 parameters refined using      0 restraints

END

WGHT      0.1266      0.0719

REM Highest difference peak  0.209,  deepest hole -0.197,  1-sigma level  0.032
Q1    1   1.0446  0.8515 -0.4020  11.00000  0.05    0.21
Q2    1   1.1341  0.7482 -0.5386  11.00000  0.05    0.17
Q3    1   1.1316  0.9293 -0.5401  11.00000  0.05    0.15
Q4    1   0.6511  0.8968  0.0622  11.00000  0.05    0.13
Q5    1   1.0534  0.7020 -0.5410  11.00000  0.05    0.12
Q6    1   0.6162  0.5874 -0.8636  11.00000  0.05    0.12
Q7    1   0.7611  0.8153 -0.3345  11.00000  0.05    0.10
Q8    1   1.0485  0.5924 -1.3662  11.00000  0.05    0.10
Q9    1   0.2005  0.5511 -0.5434  11.00000  0.05    0.09
Q10   1   1.0281  0.5811 -1.2309  11.00000  0.05    0.09
Q11   1   0.7390  0.6481 -0.7668  11.00000  0.05    0.09
Q12   1   0.8867  0.8413 -0.3794  11.00000  0.05    0.08
Q13   1   0.5707  1.0389  0.3995  11.00000  0.05    0.08
Q14   1   1.1525  0.8895 -0.7014  11.00000  0.05    0.08
Q15   1   0.7408  1.0118  0.0662  11.00000  0.05    0.08
Q16   1   0.9019  0.5433 -1.3716  11.00000  0.05    0.08
Q17   1   0.6196  0.4229 -1.3063  11.00000  0.05    0.08
Q18   1   0.5580  0.7703 -0.2067  11.00000  0.05    0.08
Q19   1   0.8981  0.6651 -0.9224  11.00000  0.05    0.08
Q20   1   1.0498  0.6920 -1.0991  11.00000  0.05    0.08
Q21   1   1.1840  0.7784 -0.7421  11.00000  0.05    0.08
Q22   1   0.1707  0.6205 -0.3922  11.00000  0.05    0.07
Q23   1   0.6692  0.5018 -0.8433  11.00000  0.05    0.07
Q24   1   0.3693  0.6339 -0.5410  11.00000  0.05    0.07
Q25   1   0.4747  0.7765 -0.4174  11.00000  0.05    0.07
;
_shelx_res_checksum              61699
loop_
_space_group_symop_operation_xyz
'x, y, z'
'-x, -y, -z'
loop_
_atom_site_label
_atom_site_type_symbol
_atom_site_fract_x
_atom_site_fract_y
_atom_site_fract_z
_atom_site_U_iso_or_equiv
_atom_site_adp_type
_atom_site_occupancy
_atom_site_site_symmetry_order
_atom_site_calc_flag
_atom_site_refinement_flags_posn
_atom_site_refinement_flags_adp
O3 O 0.48039(16) 0.82979(16) 0.05041(15) 0.0806(4) Uani 1 1 d . .
C5 C 0.7574(2) 0.5959(2) -0.9012(2) 0.0710(5) Uani 1 1 d . .
H5 H 0.6626 0.5558 -0.8809 0.085 Uiso 1 1 calc R U
C10 C 0.6013(2) 0.7470(2) -0.3250(2) 0.0684(5) Uani 1 1 d . .
C1 C 0.8958(2) 0.6134(2) -1.0703(2) 0.0694(5) Uani 1 1 d . .
N1 N 0.8931(2) 0.5658(2) -1.2207(2) 0.0849(5) Uani 1 1 d . .
C4 C 0.9004(2) 0.6999(2) -0.7869(2) 0.0664(5) Uani 1 1 d . .
C6 C 0.7541(2) 0.5518(2) -1.0422(2) 0.0719(5) Uani 1 1 d . .
H6 H 0.6585 0.4820 -1.1171 0.086 Uiso 1 1 calc R U
N2 N 0.7652(2) 0.72216(19) -0.61772(17) 0.0763(5) Uani 1 1 d . .
N3 N 0.7709(2) 0.7711(2) -0.47275(18) 0.0801(5) Uani 1 1 d . .
C3 C 1.0401(2) 0.7580(2) -0.8214(2) 0.0792(6) Uani 1 1 d . .
H3 H 1.1368 0.8266 -0.7472 0.095 Uiso 1 1 calc R U
C7 C 0.9026(2) 0.7458(2) -0.6354(2) 0.0711(5) Uani 1 1 d . .
O2 O 0.7722(2) 0.4584(2) -1.31383(18) 0.1104(6) Uani 1 1 d . .
C12 C 0.6891(2) 0.8716(2) -0.0646(2) 0.0737(5) Uani 1 1 d . .
H12 H 0.7720 0.9346 0.0231 0.088 Uiso 1 1 calc R U
C11 C 0.7235(2) 0.8407(2) -0.1914(2) 0.0722(5) Uani 1 1 d . .
H11 H 0.8301 0.8829 -0.1884 0.087 Uiso 1 1 calc R U
O1 O 1.0112(2) 0.6349(3) -1.2476(2) 0.1272(7) Uani 1 1 d . .
C14 C 0.4068(2) 0.7157(2) -0.1995(2) 0.0734(5) Uani 1 1 d . .
C13 C 0.5292(2) 0.8080(2) -0.0676(2) 0.0680(5) Uani 1 1 d . .
C2 C 1.0385(2) 0.7163(2) -0.9623(2) 0.0795(6) Uani 1 1 d . .
H2 H 1.1323 0.7570 -0.9838 0.095 Uiso 1 1 calc R U
C15 C 0.4423(2) 0.6853(2) -0.3251(2) 0.0749(5) Uani 1 1 d . .
C9 C 0.6311(3) 0.7139(2) -0.4623(2) 0.0727(5) Uani 1 1 d . .
C16 C 0.5992(3) 0.9181(3) 0.1917(2) 0.0778(5) Uani 1 1 d . .
C17 C 0.5102(3) 0.9192(3) 0.2977(3) 0.0856(6) Uani 1 1 d . .
C8 C 1.0595(3) 0.8157(3) -0.5147(3) 0.1087(8) Uani 1 1 d . .
H8A H 1.1454 0.8218 -0.5542 0.163 Uiso 1 1 calc R U
H8B H 1.0788 0.9177 -0.4543 0.163 Uiso 1 1 calc R U
H8C H 1.0549 0.7526 -0.4582 0.163 Uiso 1 1 calc R U
H14 H 0.299(4) 0.673(3) -0.201(3) 0.130 Uiso 1 1 d . U
H15 H 0.352(4) 0.624(3) -0.424(3) 0.130 Uiso 1 1 d . U
H9 H 0.536(4) 0.646(3) -0.552(3) 0.130 Uiso 1 1 d . U
H16A H 0.663(4) 1.025(3) 0.204(3) 0.130 Uiso 1 1 d . U
H16B H 0.668(4) 0.866(3) 0.208(3) 0.130 Uiso 1 1 d . U
H17A H 0.442(4) 0.970(4) 0.285(4) 0.163 Uiso 1 1 d . U
H17B H 0.592(5) 0.978(4) 0.400(4) 0.163 Uiso 1 1 d . U
H17C H 0.443(4) 0.815(4) 0.293(4) 0.163 Uiso 1 1 d . U
loop_
_atom_site_aniso_label
_atom_site_aniso_U_11
_atom_site_aniso_U_22
_atom_site_aniso_U_33
_atom_site_aniso_U_23
_atom_site_aniso_U_13
_atom_site_aniso_U_12
O3 0.0706(8) 0.0922(9) 0.0696(9) 0.0262(7) 0.0222(7) 0.0282(7)
C5 0.0575(10) 0.0700(11) 0.0795(12) 0.0288(9) 0.0225(9) 0.0202(8)
C10 0.0751(11) 0.0647(10) 0.0733(11) 0.0303(8) 0.0272(9) 0.0337(9)
C1 0.0690(11) 0.0756(11) 0.0739(12) 0.0341(9) 0.0262(9) 0.0361(9)
N1 0.0769(11) 0.1166(14) 0.0815(12) 0.0470(11) 0.0338(10) 0.0523(11)
C4 0.0616(10) 0.0657(10) 0.0732(11) 0.0297(8) 0.0215(8) 0.0264(8)
C6 0.0613(10) 0.0743(11) 0.0725(12) 0.0248(9) 0.0202(9) 0.0236(8)
N2 0.0709(10) 0.0864(11) 0.0692(10) 0.0292(8) 0.0246(8) 0.0302(8)
N3 0.0783(11) 0.0892(11) 0.0695(10) 0.0282(8) 0.0259(8) 0.0327(9)
C3 0.0577(10) 0.0866(13) 0.0782(13) 0.0271(10) 0.0188(9) 0.0190(9)
C7 0.0656(11) 0.0713(11) 0.0730(12) 0.0280(9) 0.0203(9) 0.0263(9)
O2 0.0969(12) 0.1382(15) 0.0771(10) 0.0267(10) 0.0237(9) 0.0428(11)
C12 0.0678(11) 0.0763(12) 0.0732(12) 0.0269(9) 0.0180(9) 0.0306(9)
C11 0.0651(10) 0.0761(11) 0.0786(12) 0.0328(9) 0.0227(9) 0.0313(9)
O1 0.0909(12) 0.200(2) 0.1019(13) 0.0717(13) 0.0496(10) 0.0529(12)
C14 0.0666(11) 0.0733(11) 0.0737(12) 0.0261(9) 0.0217(10) 0.0245(9)
C13 0.0709(11) 0.0683(10) 0.0727(12) 0.0304(9) 0.0270(9) 0.0340(9)
C2 0.0598(10) 0.0894(13) 0.0897(14) 0.0404(11) 0.0284(10) 0.0251(9)
C15 0.0706(11) 0.0718(11) 0.0749(12) 0.0263(9) 0.0210(10) 0.0252(9)
C9 0.0748(12) 0.0711(11) 0.0773(12) 0.0308(9) 0.0264(10) 0.0338(10)
C16 0.0754(12) 0.0855(13) 0.0696(12) 0.0239(10) 0.0165(10) 0.0397(11)
C17 0.0853(14) 0.0974(15) 0.0762(13) 0.0286(12) 0.0285(11) 0.0436(12)
C8 0.0772(14) 0.148(2) 0.0803(15) 0.0293(14) 0.0156(11) 0.0425(15)
loop_
_atom_type_symbol
_atom_type_description
_atom_type_scat_dispersion_real
_atom_type_scat_dispersion_imag
_atom_type_scat_source
C C 0.0033 0.0016 'International Tables Vol C Tables 4.2.6.8 and 6.1.1.4'
H H 0.0000 0.0000 'International Tables Vol C Tables 4.2.6.8 and 6.1.1.4'
O O 0.0106 0.0060 'International Tables Vol C Tables 4.2.6.8 and 6.1.1.4'
N N 0.0061 0.0033 'International Tables Vol C Tables 4.2.6.8 and 6.1.1.4'
loop_
_geom_angle_atom_site_label_1
_geom_angle_atom_site_label_2
_geom_angle_atom_site_label_3
_geom_angle
C13 O3 C16 119.24(16)
C6 C5 C4 121.53(17)
C15 C10 C11 117.68(18)
C15 C10 C9 118.86(18)
C11 C10 C9 123.44(18)
C2 C1 C6 122.13(19)
C2 C1 N1 119.20(18)
C6 C1 N1 118.67(18)
O1 N1 O2 122.7(2)
O1 N1 C1 118.6(2)
O2 N1 C1 118.73(18)
C3 C4 C5 117.65(18)
C3 C4 C7 121.35(18)
C5 C4 C7 121.00(17)
C5 C6 C1 118.47(18)
C7 N2 N3 114.86(16)
C9 N3 N2 111.29(17)
C2 C3 C4 121.56(19)
N2 C7 C4 115.86(17)
N2 C7 C8 124.48(19)
C4 C7 C8 119.66(18)
C11 C12 C13 119.78(19)
C12 C11 C10 121.40(18)
C15 C14 C13 120.32(18)
O3 C13 C14 115.39(17)
O3 C13 C12 125.19(18)
C14 C13 C12 119.43(18)
C1 C2 C3 118.66(18)
C14 C15 C10 121.39(19)
N3 C9 C10 123.0(2)
O3 C16 C17 106.84(19)
loop_
_geom_bond_atom_site_label_1
_geom_bond_atom_site_label_2
_geom_bond_distance
O3 C13 1.359(2)
O3 C16 1.434(2)
C5 C6 1.371(3)
C5 C4 1.400(3)
C10 C15 1.399(3)
C10 C11 1.400(3)
C10 C9 1.452(3)
C1 C2 1.370(3)
C1 C6 1.381(3)
C1 N1 1.465(3)
N1 O1 1.214(2)
N1 O2 1.221(3)
C4 C3 1.394(3)
C4 C7 1.477(3)
N2 C7 1.284(2)
N2 N3 1.405(2)
N3 C9 1.273(2)
C3 C2 1.375(3)
C7 C8 1.496(3)
C12 C11 1.372(3)
C12 C13 1.398(3)
C14 C15 1.367(3)
C14 C13 1.388(3)
C16 C17 1.492(3)
loop_
_geom_torsion_atom_site_label_1
_geom_torsion_atom_site_label_2
_geom_torsion_atom_site_label_3
_geom_torsion_atom_site_label_4
_geom_torsion
C2 C1 N1 O1 -10.3(3)
C6 C1 N1 O1 170.2(2)
C2 C1 N1 O2 169.59(19)
C6 C1 N1 O2 -9.9(3)
C6 C5 C4 C3 0.2(3)
C6 C5 C4 C7 -179.62(16)
C4 C5 C6 C1 -0.5(3)
C2 C1 C6 C5 0.1(3)
N1 C1 C6 C5 179.58(15)
C7 N2 N3 C9 -165.17(17)
C5 C4 C3 C2 0.6(3)
C7 C4 C3 C2 -179.66(17)
N3 N2 C7 C4 -178.07(14)
N3 N2 C7 C8 1.5(3)
C3 C4 C7 N2 161.16(18)
C5 C4 C7 N2 -19.1(3)
C3 C4 C7 C8 -18.5(3)
C5 C4 C7 C8 161.3(2)
C13 C12 C11 C10 0.4(3)
C15 C10 C11 C12 -0.1(3)
C9 C10 C11 C12 178.54(16)
C16 O3 C13 C14 177.35(17)
C16 O3 C13 C12 -3.3(3)
C15 C14 C13 O3 -179.60(16)
C15 C14 C13 C12 1.0(3)
C11 C12 C13 O3 179.85(15)
C11 C12 C13 C14 -0.8(3)
C6 C1 C2 C3 0.6(3)
N1 C1 C2 C3 -178.89(17)
C4 C3 C2 C1 -0.9(3)
C13 C14 C15 C10 -0.8(3)
C11 C10 C15 C14 0.3(3)
C9 C10 C15 C14 -178.41(17)
N2 N3 C9 C10 -179.06(15)
C15 C10 C9 N3 176.59(17)
C11 C10 C9 N3 -2.1(3)
C13 O3 C16 C17 -178.94(16)
