#------------------------------------------------------------------------------
#$Date: 2019-11-17 13:27:47 +0200 (Sun, 17 Nov 2019) $
#$Revision: 230160 $
#$URL: file:///home/coder/svn-repositories/cod/cif/7/05/78/7057874.cif $
#------------------------------------------------------------------------------
#
# This file is available in the Crystallography Open Database (COD),
# http://www.crystallography.net/
#
# All data on this site have been placed in the public domain by the
# contributors.
#
data_7057874
loop_
_publ_author_name
'Wang, Bohan'
'Xiong, Hualin'
'Cheng, Guangbin'
'Zhang, Zaichao'
'Yang, Hongwei'
_publ_section_title
;
 An unexpected method to synthesise 1,2,4-oxadiazolone derivatives: a
 class of insensitive energetic materials
;
_journal_issue                   24
_journal_name_full               'New Journal of Chemistry'
_journal_page_first              19671
_journal_paper_doi               10.1039/C8NJ04428G
_journal_volume                  42
_journal_year                    2018
_chemical_formula_moiety         'C4 H3 N5 O3, H2 O'
_chemical_formula_sum            'C4 H5 N5 O4'
_chemical_formula_weight         187.13
_space_group_crystal_system      monoclinic
_space_group_IT_number           14
_space_group_name_Hall           '-P 2yn'
_space_group_name_H-M_alt        'P 1 21/n 1'
_symmetry_space_group_name_Hall  '-P 2yn'
_symmetry_space_group_name_H-M   'P 1 21/n 1'
_atom_sites_solution_hydrogens   difmap
_audit_creation_method           SHELXL-2014/7
_audit_update_record
;
2018-04-04 deposited with the CCDC.
2018-10-22 downloaded from the CCDC.
;
_cell_angle_alpha                90
_cell_angle_beta                 104.095(3)
_cell_angle_gamma                90
_cell_formula_units_Z            4
_cell_length_a                   8.6418(10)
_cell_length_b                   4.9850(5)
_cell_length_c                   17.235(2)
_cell_measurement_reflns_used    1157
_cell_measurement_temperature    173(2)
_cell_measurement_theta_max      25.23
_cell_measurement_theta_min      4.27
_cell_volume                     720.12(14)
_computing_structure_refinement  'SHELXL-2014/7 (Sheldrick, 2014)'
_diffrn_ambient_temperature      173(2)
_diffrn_measured_fraction_theta_full 0.994
_diffrn_measured_fraction_theta_max 0.991
_diffrn_measurement_device_type  'PHOTON 100 CMOS detector'
_diffrn_measurement_method       'omega scan'
_diffrn_radiation_type           MoK\a
_diffrn_radiation_wavelength     0.71073
_diffrn_reflns_av_R_equivalents  0.0547
_diffrn_reflns_av_unetI/netI     0.0535
_diffrn_reflns_Laue_measured_fraction_full 0.994
_diffrn_reflns_Laue_measured_fraction_max 0.991
_diffrn_reflns_limit_h_max       10
_diffrn_reflns_limit_h_min       -10
_diffrn_reflns_limit_k_max       5
_diffrn_reflns_limit_k_min       -6
_diffrn_reflns_limit_l_max       20
_diffrn_reflns_limit_l_min       -20
_diffrn_reflns_number            3996
_diffrn_reflns_point_group_measured_fraction_full 0.994
_diffrn_reflns_point_group_measured_fraction_max 0.991
_diffrn_reflns_theta_full        25.242
_diffrn_reflns_theta_max         25.326
_diffrn_reflns_theta_min         3.867
_diffrn_source                   'fine-focus sealed tube'
_exptl_absorpt_coefficient_mu    0.154
_exptl_absorpt_correction_T_max  0.7452
_exptl_absorpt_correction_T_min  0.6801
_exptl_absorpt_correction_type   multi-scan
_exptl_absorpt_process_details   'SADABS (Bruker, 2014)'
_exptl_crystal_density_diffrn    1.726
_exptl_crystal_description       block
_exptl_crystal_F_000             384
_exptl_crystal_size_max          0.190
_exptl_crystal_size_mid          0.130
_exptl_crystal_size_min          0.080
_refine_diff_density_max         0.255
_refine_diff_density_min         -0.338
_refine_diff_density_rms         0.069
_refine_ls_extinction_method     none
_refine_ls_goodness_of_fit_ref   1.048
_refine_ls_hydrogen_treatment    refxyz
_refine_ls_matrix_type           full
_refine_ls_number_parameters     133
_refine_ls_number_reflns         1293
_refine_ls_number_restraints     0
_refine_ls_restrained_S_all      1.048
_refine_ls_R_factor_all          0.0754
_refine_ls_R_factor_gt           0.0431
_refine_ls_shift/su_max          0.000
_refine_ls_shift/su_mean         0.000
_refine_ls_structure_factor_coef Fsqd
_refine_ls_weighting_details
'w=1/[\s^2^(Fo^2^)+(0.0366P)^2^+0.3073P] where P=(Fo^2^+2Fc^2^)/3'
_refine_ls_weighting_scheme      calc
_refine_ls_wR_factor_gt          0.0821
_refine_ls_wR_factor_ref         0.0930
_reflns_Friedel_coverage         0.000
_reflns_number_gt                922
_reflns_number_total             1293
_reflns_threshold_expression     'I > 2\s(I)'
_cod_data_source_file            c8nj04428g2.cif
_cod_data_source_block           1_CCDC1
_cod_depositor_comments
'Adding full bibliography for 7057873--7057875.cif.'
_cod_original_cell_volume        720.13(14)
_cod_database_code               7057874
_shelx_shelxl_version_number     2014/7
_shelx_space_group_comment
;
The symmetry employed for this shelxl refinement is uniquely defined
by the following loop, which should always be used as a source of
symmetry information in preference to the above space-group names.
They are only intended as comments.
;
_shelx_estimated_absorpt_t_min   0.971
_shelx_estimated_absorpt_t_max   0.988
_shelx_res_file
;

    1.res created by SHELXL-2014/7

TITL 1 in P2(1)/n
CELL 0.71073   8.6418   4.9850  17.2353  90.000 104.095  90.000
ZERR    4.00   0.0010   0.0005   0.0020   0.000   0.003   0.000
LATT 1
SYMM 0.5-X, 0.5+Y, 0.5-Z
SFAC C  H  N  O
UNIT 16 20 20 16
L.S. 10
BOND $h
size 0.19 0.13 0.08
acta
FMAP 2
PLAN 20
TEMP -100.150
WGHT    0.036600    0.307300
FVAR       0.23521
MOLE 1
C1    1    0.208531    0.709867    0.904170    11.00000    0.01501    0.01573 =
         0.01309   -0.00269    0.00369    0.00140
C2    1    0.151374    0.950952    0.794361    11.00000    0.01747    0.01655 =
         0.01707   -0.00460    0.00349    0.00157
C3    1    0.301682    0.492305    1.043874    11.00000    0.01930    0.01557 =
         0.01759   -0.00004    0.00463    0.00165
C4    1    0.200765    0.511658    0.964581    11.00000    0.01369    0.01577 =
         0.01638   -0.00231    0.00320    0.00096
N1    3    0.322490    0.885893    0.915882    11.00000    0.02143    0.02035 =
         0.01328    0.00355    0.00132   -0.00109
N2    3    0.102428    0.738947    0.832059    11.00000    0.01665    0.01661 =
         0.01595   -0.00013   -0.00019   -0.00354
H2A   2    0.019322    0.636846    0.810530    11.00000   -1.20000
N3    3    0.256034    0.284099    1.079147    11.00000    0.02510    0.02141 =
         0.01828    0.00189    0.00056   -0.00453
N4    3    0.095313    0.320344    0.952717    11.00000    0.02300    0.02079 =
         0.01813    0.00130    0.00519    0.00000
N5    3    0.422170    0.656408    1.078286    11.00000    0.03054    0.02513 =
         0.02025    0.00779   -0.00887   -0.01007
H5A   2    0.487144    0.609735    1.127103    11.00000   -1.20000
H5B   2    0.445745    0.789869    1.051113    11.00000   -1.20000
O1    4    0.287489    1.044814    0.845389    11.00000    0.02205    0.02125 =
         0.01393    0.00223    0.00034   -0.00426
O2    4    0.125636    0.175757    1.022357    11.00000    0.02429    0.02147 =
         0.02234    0.00443    0.00367   -0.00606
O3    4    0.095219    1.052777    0.730205    11.00000    0.02903    0.02266 =
         0.01501    0.00405   -0.00072   -0.00034
O4    4    0.825536    0.501863    0.738570    11.00000    0.02870    0.02437 =
         0.01981   -0.00479    0.00694   -0.00626
H4C   2    0.789552    0.369993    0.759050    11.00000   -1.20000
H4D   2    0.826836    0.459438    0.691711    11.00000   -1.20000
HKLF 4

REM  1 in P2(1)/n
REM R1 =  0.0431 for     922 Fo > 4sig(Fo)  and  0.0754 for all    1293 data
REM    133 parameters refined using      0 restraints

END

WGHT      0.0477      0.1138

REM Highest difference peak  0.255,  deepest hole -0.338,  1-sigma level  0.069
Q1    1  -0.1003  0.4222  0.9433  11.00000  0.05    0.25
Q2    1   0.2735  1.3586  0.8791  11.00000  0.05    0.23
Q3    1   0.3204  0.8748  1.0427  11.00000  0.05    0.23
Q4    1   0.3833  0.9212  1.0763  11.00000  0.05    0.21
Q5    1   0.4814  0.8908  0.8619  11.00000  0.05    0.21
Q6    1   0.4034  1.0582  0.8364  11.00000  0.05    0.20
Q7    1   0.2159  0.4853  1.1166  11.00000  0.05    0.20
Q8    1   0.1218  1.2455  0.6634  11.00000  0.05    0.20
Q9    1   0.1370  0.5094  0.7788  11.00000  0.05    0.20
Q10   1   0.4253  0.7709  0.9572  11.00000  0.05    0.19
Q11   1   1.0000  0.5467  0.6834  11.00000  0.05    0.19
Q12   1   0.6046  0.6138  1.0500  11.00000  0.05    0.19
Q13   1   0.0785 -0.1145  0.9629  11.00000  0.05    0.18
Q14   1   0.6536  0.4945  1.1189  11.00000  0.05    0.18
Q15   1   0.3263  0.0910  1.0199  11.00000  0.05    0.18
Q16   1   0.7263  0.5598  0.7835  11.00000  0.05    0.18
Q17   1  -0.0291  0.2313  0.9012  11.00000  0.05    0.17
Q18   1   0.4062  0.6827  0.9020  11.00000  0.05    0.17
Q19   1   0.0664  0.9186  0.8410  11.00000  0.05    0.17
Q20   1   0.6725  0.4312  0.7437  11.00000  0.05    0.17
;
_shelx_res_checksum              74326
loop_
_space_group_symop_operation_xyz
'x, y, z'
'-x+1/2, y+1/2, -z+1/2'
'-x, -y, -z'
'x-1/2, -y-1/2, z-1/2'
loop_
_atom_site_label
_atom_site_type_symbol
_atom_site_fract_x
_atom_site_fract_y
_atom_site_fract_z
_atom_site_U_iso_or_equiv
_atom_site_adp_type
_atom_site_occupancy
_atom_site_site_symmetry_order
_atom_site_calc_flag
_atom_site_refinement_flags_adp
C1 C 0.2085(3) 0.7099(5) 0.90417(13) 0.0146(5) Uani 1 1 d .
C2 C 0.1514(3) 0.9510(5) 0.79436(14) 0.0172(6) Uani 1 1 d .
C3 C 0.3017(3) 0.4923(5) 1.04387(14) 0.0175(5) Uani 1 1 d .
C4 C 0.2008(3) 0.5117(5) 0.96458(13) 0.0154(5) Uani 1 1 d .
N1 N 0.3225(2) 0.8859(4) 0.91588(11) 0.0189(5) Uani 1 1 d .
N2 N 0.1024(2) 0.7389(4) 0.83206(11) 0.0171(5) Uani 1 1 d .
H2A H 0.019(3) 0.637(5) 0.8105(14) 0.021 Uiso 1 1 d U
N3 N 0.2560(2) 0.2841(4) 1.07915(12) 0.0224(5) Uani 1 1 d .
N4 N 0.0953(2) 0.3203(4) 0.95272(12) 0.0206(5) Uani 1 1 d .
N5 N 0.4222(3) 0.6564(5) 1.07829(14) 0.0279(6) Uani 1 1 d .
H5A H 0.487(3) 0.610(6) 1.1271(17) 0.033 Uiso 1 1 d U
H5B H 0.446(3) 0.790(6) 1.0511(17) 0.033 Uiso 1 1 d U
O1 O 0.28749(18) 1.0448(3) 0.84539(9) 0.0198(4) Uani 1 1 d .
O2 O 0.12564(19) 0.1758(3) 1.02236(10) 0.0230(4) Uani 1 1 d .
O3 O 0.0952(2) 1.0528(3) 0.73021(10) 0.0233(5) Uani 1 1 d .
O4 O 0.8255(2) 0.5019(4) 0.73857(11) 0.0241(4) Uani 1 1 d .
H4C H 0.790(3) 0.370(6) 0.7590(16) 0.029 Uiso 1 1 d U
H4D H 0.827(3) 0.459(6) 0.6917(17) 0.029 Uiso 1 1 d U
loop_
_atom_site_aniso_label
_atom_site_aniso_U_11
_atom_site_aniso_U_22
_atom_site_aniso_U_33
_atom_site_aniso_U_23
_atom_site_aniso_U_13
_atom_site_aniso_U_12
C1 0.0150(11) 0.0157(13) 0.0131(12) -0.0027(11) 0.0037(10) 0.0014(11)
C2 0.0175(12) 0.0165(13) 0.0171(13) -0.0046(11) 0.0035(11) 0.0016(11)
C3 0.0193(12) 0.0156(13) 0.0176(12) 0.0000(11) 0.0046(10) 0.0017(11)
C4 0.0137(11) 0.0158(13) 0.0164(12) -0.0023(11) 0.0032(10) 0.0010(10)
N1 0.0214(11) 0.0203(11) 0.0133(10) 0.0036(9) 0.0013(9) -0.0011(9)
N2 0.0166(10) 0.0166(11) 0.0159(11) -0.0001(9) -0.0002(9) -0.0035(9)
N3 0.0251(11) 0.0214(12) 0.0183(11) 0.0019(10) 0.0006(10) -0.0045(10)
N4 0.0230(11) 0.0208(12) 0.0181(11) 0.0013(9) 0.0052(9) 0.0000(10)
N5 0.0305(13) 0.0251(13) 0.0202(12) 0.0078(11) -0.0089(10) -0.0101(11)
O1 0.0221(9) 0.0213(10) 0.0139(9) 0.0022(7) 0.0003(7) -0.0043(8)
O2 0.0243(9) 0.0215(10) 0.0223(9) 0.0044(8) 0.0037(8) -0.0061(8)
O3 0.0290(10) 0.0227(10) 0.0150(9) 0.0041(8) -0.0007(8) -0.0003(8)
O4 0.0287(10) 0.0244(10) 0.0198(10) -0.0048(9) 0.0069(8) -0.0063(9)
loop_
_atom_type_symbol
_atom_type_description
_atom_type_scat_dispersion_real
_atom_type_scat_dispersion_imag
_atom_type_scat_source
C C 0.0033 0.0016 'International Tables Vol C Tables 4.2.6.8 and 6.1.1.4'
H H 0.0000 0.0000 'International Tables Vol C Tables 4.2.6.8 and 6.1.1.4'
N N 0.0061 0.0033 'International Tables Vol C Tables 4.2.6.8 and 6.1.1.4'
O O 0.0106 0.0060 'International Tables Vol C Tables 4.2.6.8 and 6.1.1.4'
loop_
_geom_angle_atom_site_label_1
_geom_angle_atom_site_label_2
_geom_angle_atom_site_label_3
_geom_angle
N1 C1 N2 112.8(2)
N1 C1 C4 121.0(2)
N2 C1 C4 126.2(2)
O3 C2 N2 131.5(2)
O3 C2 O1 122.4(2)
N2 C2 O1 106.1(2)
N3 C3 N5 124.5(2)
N3 C3 C4 108.3(2)
N5 C3 C4 127.3(2)
N4 C4 C3 109.9(2)
N4 C4 C1 122.7(2)
C3 C4 C1 127.4(2)
C1 N1 O1 104.40(17)
C1 N2 C2 107.5(2)
C1 N2 H2A 128.3(16)
C2 N2 H2A 124.2(16)
C3 N3 O2 105.16(18)
C4 N4 O2 105.72(18)
C3 N5 H5A 119.0(18)
C3 N5 H5B 119.2(18)
H5A N5 H5B 121(3)
C2 O1 N1 109.26(17)
N4 O2 N3 110.93(17)
H4C O4 H4D 107(3)
loop_
_geom_bond_atom_site_label_1
_geom_bond_atom_site_label_2
_geom_bond_distance
C1 N1 1.298(3)
C1 N2 1.361(3)
C1 C4 1.449(3)
C2 O3 1.206(3)
C2 N2 1.361(3)
C2 O1 1.368(3)
C3 N3 1.311(3)
C3 N5 1.343(3)
C3 C4 1.434(3)
C4 N4 1.300(3)
N1 O1 1.420(2)
N2 H2A 0.88(3)
N3 O2 1.408(2)
N4 O2 1.370(3)
N5 H5A 0.92(3)
N5 H5B 0.87(3)
O4 H4C 0.84(3)
O4 H4D 0.84(3)
