#------------------------------------------------------------------------------
#$Date: 2019-11-17 14:13:23 +0200 (Sun, 17 Nov 2019) $
#$Revision: 230415 $
#$URL: file:///home/coder/svn-repositories/cod/cif/7/05/74/7057449.cif $
#------------------------------------------------------------------------------
#
# This file is available in the Crystallography Open Database (COD),
# http://www.crystallography.net/
#
# All data on this site have been placed in the public domain by the
# contributors.
#
data_7057449
loop_
_publ_author_name
'Ma, Congming'
'Pan, Yong'
'Jiang, Juncheng'
'Liu, Zuliang'
'Yao, Qizheng'
_publ_section_title
;
 Synthesis and thermal behavior of a fused, tricyclic pyridine-based
 energetic material:
 4-amino-5-nitro-[1,2,5]oxadiazolo[3,4-e]tetra-zolo[1,5-a]pyridine-3-oxide
;
_journal_issue                   14
_journal_name_full               'New Journal of Chemistry'
_journal_page_first              11259
_journal_paper_doi               10.1039/C8NJ01341A
_journal_volume                  42
_journal_year                    2018
_chemical_formula_moiety         'C5 H2 N8 O4'
_chemical_formula_sum            'C5 H2 N8 O4'
_chemical_formula_weight         238.15
_space_group_crystal_system      orthorhombic
_space_group_IT_number           19
_space_group_name_Hall           'P 2ac 2ab'
_space_group_name_H-M_alt        'P 21 21 21'
_symmetry_space_group_name_Hall  'P 2ac 2ab'
_symmetry_space_group_name_H-M   'P 21 21 21'
_atom_sites_solution_hydrogens   geom
_audit_creation_date             2018-04-18
_audit_creation_method
;
Olex2 1.2
(compiled 2018.04.03 svn.r3497 for OlexSys, GUI svn.r5486)
;
_audit_update_record
;
2018-04-18 deposited with the CCDC.
2018-05-18 downloaded from the CCDC.
;
_cell_angle_alpha                90
_cell_angle_beta                 90
_cell_angle_gamma                90
_cell_formula_units_Z            4
_cell_length_a                   8.9130(18)
_cell_length_b                   14.057(3)
_cell_length_c                   6.5730(13)
_cell_measurement_reflns_used    25
_cell_measurement_temperature    293(2)
_cell_measurement_theta_max      14
_cell_measurement_theta_min      9
_cell_volume                     823.5(3)
_computing_cell_refinement       'SAINT V8.38A (?, 2016)'
_computing_data_collection       'SAINT V8.38A (?, 2016)'
_computing_data_reduction        'SAINT V8.38A (?, 2016)'
_computing_molecular_graphics    'Olex2 (Dolomanov et al., 2009)'
_computing_publication_material  'Olex2 (Dolomanov et al., 2009)'
_computing_structure_refinement  'ShelXL (Sheldrick, 2015)'
_computing_structure_solution    'SHELXS-97 (Sheldrick, 1990)'
_diffrn_ambient_temperature      293(2)
_diffrn_measured_fraction_theta_full 1.000
_diffrn_measured_fraction_theta_max 1.000
_diffrn_measurement_device_type  'Nonius CAD4'
_diffrn_measurement_method       \w/2\q
_diffrn_radiation_type           MoK\a
_diffrn_radiation_wavelength     0.71073
_diffrn_reflns_av_R_equivalents  0.0249
_diffrn_reflns_av_unetI/netI     0.0360
_diffrn_reflns_Laue_measured_fraction_full 1.000
_diffrn_reflns_Laue_measured_fraction_max 1.000
_diffrn_reflns_limit_h_max       10
_diffrn_reflns_limit_h_min       0
_diffrn_reflns_limit_k_max       16
_diffrn_reflns_limit_k_min       -16
_diffrn_reflns_limit_l_max       7
_diffrn_reflns_limit_l_min       0
_diffrn_reflns_number            1739
_diffrn_reflns_point_group_measured_fraction_full 1.000
_diffrn_reflns_point_group_measured_fraction_max 0.999
_diffrn_reflns_theta_full        25.242
_diffrn_reflns_theta_max         25.367
_diffrn_reflns_theta_min         2.706
_exptl_absorpt_coefficient_mu    0.168
_exptl_absorpt_correction_T_max  0.9834
_exptl_absorpt_correction_T_min  0.9672
_exptl_absorpt_correction_type   multi-scan
_exptl_absorpt_process_details
;
 SADABS 2016/2: Krause, L., Herbst-Irmer, R., Sheldrick G.M. & Stalke D.,
 J. Appl. Cryst. 48 (2015) 3-10
;
_exptl_crystal_colour            grass
_exptl_crystal_colour_primary    grass
_exptl_crystal_density_diffrn    1.921
_exptl_crystal_density_method    'not measured'
_exptl_crystal_description       strip
_exptl_crystal_F_000             480
_exptl_crystal_size_max          0.2
_exptl_crystal_size_mid          0.1
_exptl_crystal_size_min          0.1
_refine_diff_density_max         0.190
_refine_diff_density_min         -0.206
_refine_diff_density_rms         0.052
_refine_ls_abs_structure_details
;
 Flack x determined using 450 quotients [(I+)-(I-)]/[(I+)+(I-)]
 (Parsons, Flack and Wagner, Acta Cryst. B69 (2013) 249-259).
;
_refine_ls_extinction_method     none
_refine_ls_goodness_of_fit_ref   1.068
_refine_ls_hydrogen_treatment    constr
_refine_ls_matrix_type           full
_refine_ls_number_parameters     154
_refine_ls_number_reflns         1509
_refine_ls_number_restraints     0
_refine_ls_restrained_S_all      1.068
_refine_ls_R_factor_all          0.0570
_refine_ls_R_factor_gt           0.0456
_refine_ls_shift/su_max          0.000
_refine_ls_shift/su_mean         0.000
_refine_ls_structure_factor_coef Fsqd
_refine_ls_weighting_details
'w=1/[\s^2^(Fo^2^)+(0.0831P)^2^] where P=(Fo^2^+2Fc^2^)/3'
_refine_ls_weighting_scheme      calc
_refine_ls_wR_factor_gt          0.1156
_refine_ls_wR_factor_ref         0.1277
_reflns_Friedel_coverage         0.671
_reflns_Friedel_fraction_full    1.000
_reflns_Friedel_fraction_max     0.998
_reflns_number_gt                1270
_reflns_number_total             1509
_reflns_threshold_expression     'I > 2\s(I)'
_cod_data_source_file            c8nj01341a2.cif
_cod_data_source_block           x
_cod_depositor_comments          'Adding full bibliography for 7057449.cif.'
_cod_database_code               7057449
_shelx_shelxl_version_number     2018/3
_shelx_space_group_comment
;
The symmetry employed for this shelxl refinement is uniquely defined
by the following loop, which should always be used as a source of
symmetry information in preference to the above space-group names.
They are only intended as comments.
;
_shelx_estimated_absorpt_t_max   0.983
_shelx_estimated_absorpt_t_min   0.967
_olex2_refinement_description
;
1. Fixed Uiso
 At 1.2 times of:
  All N(H,H) groups
2.a X=CH2 refined with riding coordinates:
 N6(H6A,H6B)
;
_shelx_res_file
;
TITL X in P2(1)2(1)2(1)
    x.res
    created by SHELXL-2018/3 at 14:11:42 on 18-Apr-2018
CELL 0.71073 8.913 14.057 6.573 90 90 90
ZERR 4 0.0018 0.0028 0.0013 0 0 0
LATT -1
SYMM 0.5-X,-Y,0.5+Z
SYMM -X,0.5+Y,0.5-Z
SYMM 0.5+X,0.5-Y,-Z
SFAC C H N O
UNIT 20 8 32 16

L.S. 20
PLAN  6
SIZE 0.2 0.1 0.1
BOND $H
CONF
fmap 2
acta
REM <olex2.extras>
REM <HklSrc "%.\\X.hkl">
REM </olex2.extras>

WGHT    0.083100
FVAR       0.52277
N1    3    0.484847    0.488238    0.480674    11.00000    0.03752    0.03096 =
         0.02928    0.00063   -0.00194   -0.00186
C1    1    0.392467    0.546348    0.590283    11.00000    0.02910    0.03613 =
         0.02839   -0.00439    0.00159   -0.00561
O1    4    0.223785    0.670884    0.801075    11.00000    0.07680    0.07238 =
         0.04994    0.00322    0.03277    0.01543
N2    3    0.502624    0.404202    0.583076    11.00000    0.05028    0.03286 =
         0.03670    0.00480   -0.00403   -0.00357
C2    1    0.357390    0.640117    0.514845    11.00000    0.03235    0.03332 =
         0.02924   -0.00323    0.00392   -0.00190
O2    4    0.237353    0.780137    0.574782    11.00000    0.07006    0.04471 =
         0.06787   -0.00127    0.02468    0.01624
O3    4    0.573718    0.670591   -0.091843    11.00000    0.05675    0.04661 =
         0.03341    0.00601    0.00702   -0.00814
N3    3    0.423463    0.412844    0.743172    11.00000    0.05424    0.04010 =
         0.03872    0.00497   -0.00175   -0.00681
C3    1    0.408254    0.670839    0.324012    11.00000    0.02994    0.03167 =
         0.03144   -0.00622   -0.00271   -0.00437
C4    1    0.500500    0.601682    0.219362    11.00000    0.02784    0.03457 =
         0.02527   -0.00377   -0.00003   -0.00497
O4    4    0.648384    0.521953    0.008245    11.00000    0.04614    0.04542 =
         0.03399   -0.00685    0.00857    0.00304
N4    3    0.352865    0.499312    0.755633    11.00000    0.04827    0.04414 =
         0.03701    0.00524    0.00684   -0.00749
N5    3    0.267461    0.699767    0.635701    11.00000    0.03964    0.04744 =
         0.03854   -0.00534    0.00814    0.00240
C5    1    0.538780    0.512763    0.294483    11.00000    0.02999    0.03293 =
         0.02893   -0.00141   -0.00162   -0.00267
N6    3    0.383601    0.752141    0.234011    11.00000    0.05183    0.03486 =
         0.03956    0.00350    0.00801    0.00544
AFIX  93
H6A   2    0.329884    0.794819    0.293023    11.00000   -1.20000
H6B   2    0.421077    0.763019    0.115711    11.00000   -1.20000
AFIX   0
N7    3    0.566932    0.610106    0.040521    11.00000    0.03635    0.03500 =
         0.03176   -0.00422    0.00292   -0.00562
N8    3    0.625805    0.463625    0.173788    11.00000    0.04290    0.04050 =
         0.03220   -0.00176    0.00303    0.00334
HKLF 4




REM  X in P2(1)2(1)2(1)
REM wR2 = 0.1277, GooF = S = 1.068, Restrained GooF = 1.068 for all data
REM R1 = 0.0456 for 1270 Fo > 4sig(Fo) and 0.0570 for all 1509 data
REM 154 parameters refined using 0 restraints

END

WGHT      0.0831      0.0000

REM Highest difference peak  0.190,  deepest hole -0.206,  1-sigma level  0.052
Q1    1   0.6275  0.3993  0.5863  11.00000  0.05    0.19
Q2    1   0.3536  0.5144  0.2812  11.00000  0.05    0.18
Q3    1   0.4962  0.3241  0.8672  11.00000  0.05    0.18
Q4    1   0.5961  0.3646  0.7553  11.00000  0.05    0.18
Q5    1   0.7999  0.5346  0.0672  11.00000  0.05    0.17
Q6    1   0.6738  0.4566  0.6279  11.00000  0.05    0.16
;
_shelx_res_checksum              95675
_olex2_submission_special_instructions 'No special instructions were received'
loop_
_space_group_symop_operation_xyz
'x, y, z'
'-x+1/2, -y, z+1/2'
'-x, y+1/2, -z+1/2'
'x+1/2, -y+1/2, -z'
loop_
_atom_site_label
_atom_site_type_symbol
_atom_site_fract_x
_atom_site_fract_y
_atom_site_fract_z
_atom_site_U_iso_or_equiv
_atom_site_adp_type
_atom_site_occupancy
_atom_site_site_symmetry_order
_atom_site_calc_flag
_atom_site_refinement_flags_posn
N1 N 0.4848(4) 0.4882(2) 0.4807(6) 0.0326(8) Uani 1 1 d .
C1 C 0.3925(4) 0.5463(3) 0.5903(7) 0.0312(9) Uani 1 1 d .
O1 O 0.2238(4) 0.6709(3) 0.8011(6) 0.0664(12) Uani 1 1 d .
N2 N 0.5026(4) 0.4042(3) 0.5831(6) 0.0399(9) Uani 1 1 d .
C2 C 0.3574(5) 0.6401(3) 0.5148(7) 0.0316(9) Uani 1 1 d .
O2 O 0.2374(5) 0.7801(3) 0.5748(7) 0.0609(11) Uani 1 1 d .
O3 O 0.5737(4) 0.6706(3) -0.0918(5) 0.0456(9) Uani 1 1 d .
N3 N 0.4235(4) 0.4128(3) 0.7432(6) 0.0444(10) Uani 1 1 d .
C3 C 0.4083(4) 0.6708(3) 0.3240(6) 0.0310(9) Uani 1 1 d .
C4 C 0.5005(4) 0.6017(3) 0.2194(6) 0.0292(9) Uani 1 1 d .
O4 O 0.6484(3) 0.5220(2) 0.0082(5) 0.0418(8) Uani 1 1 d .
N4 N 0.3529(4) 0.4993(3) 0.7556(6) 0.0431(10) Uani 1 1 d .
N5 N 0.2675(4) 0.6998(3) 0.6357(6) 0.0419(10) Uani 1 1 d .
C5 C 0.5388(4) 0.5128(3) 0.2945(6) 0.0306(9) Uani 1 1 d .
N6 N 0.3836(4) 0.7521(3) 0.2340(6) 0.0421(10) Uani 1 1 d .
H6A H 0.329884 0.794819 0.293023 0.050 Uiso 1 1 calc R
H6B H 0.421077 0.763019 0.115711 0.050 Uiso 1 1 calc R
N7 N 0.5669(4) 0.6101(3) 0.0405(5) 0.0344(9) Uani 1 1 d .
N8 N 0.6258(4) 0.4636(3) 0.1738(6) 0.0385(9) Uani 1 1 d .
loop_
_atom_site_aniso_label
_atom_site_aniso_U_11
_atom_site_aniso_U_22
_atom_site_aniso_U_33
_atom_site_aniso_U_23
_atom_site_aniso_U_13
_atom_site_aniso_U_12
N1 0.0375(18) 0.0310(18) 0.0293(18) 0.0006(15) -0.0019(15) -0.0019(15)
C1 0.029(2) 0.036(2) 0.028(2) -0.0044(19) 0.0016(18) -0.0056(17)
O1 0.077(3) 0.072(3) 0.050(2) 0.003(2) 0.033(2) 0.015(2)
N2 0.050(2) 0.033(2) 0.037(2) 0.0048(18) -0.0040(18) -0.0036(17)
C2 0.032(2) 0.033(2) 0.029(2) -0.0032(18) 0.0039(19) -0.0019(17)
O2 0.070(3) 0.045(2) 0.068(2) -0.0013(18) 0.025(2) 0.0162(18)
O3 0.057(2) 0.0466(19) 0.0334(16) 0.0060(15) 0.0070(16) -0.0081(16)
N3 0.054(2) 0.040(2) 0.039(2) 0.0050(18) -0.0018(19) -0.0068(18)
C3 0.030(2) 0.032(2) 0.031(2) -0.0062(18) -0.0027(18) -0.0044(17)
C4 0.0278(19) 0.035(2) 0.025(2) -0.0038(18) 0.0000(17) -0.0050(17)
O4 0.0461(17) 0.0454(17) 0.0340(16) -0.0069(14) 0.0086(15) 0.0030(15)
N4 0.048(2) 0.044(2) 0.037(2) 0.0052(18) 0.0068(19) -0.0075(18)
N5 0.040(2) 0.047(2) 0.039(2) -0.0053(18) 0.0081(18) 0.0024(18)
C5 0.0300(19) 0.033(2) 0.029(2) -0.0014(18) -0.0016(18) -0.0027(17)
N6 0.052(2) 0.0349(19) 0.040(2) 0.0035(18) 0.0080(19) 0.0054(16)
N7 0.036(2) 0.0350(19) 0.032(2) -0.0042(16) 0.0029(16) -0.0056(15)
N8 0.043(2) 0.041(2) 0.032(2) -0.0018(17) 0.0030(17) 0.0033(18)
loop_
_atom_type_symbol
_atom_type_description
_atom_type_scat_dispersion_real
_atom_type_scat_dispersion_imag
_atom_type_scat_source
C C 0.0033 0.0016 'International Tables Vol C Tables 4.2.6.8 and 6.1.1.4'
H H 0.0000 0.0000 'International Tables Vol C Tables 4.2.6.8 and 6.1.1.4'
N N 0.0061 0.0033 'International Tables Vol C Tables 4.2.6.8 and 6.1.1.4'
O O 0.0106 0.0060 'International Tables Vol C Tables 4.2.6.8 and 6.1.1.4'
loop_
_geom_angle_atom_site_label_1
_geom_angle_atom_site_label_2
_geom_angle_atom_site_label_3
_geom_angle
C1 N1 N2 109.1(4)
C5 N1 C1 122.5(4)
C5 N1 N2 128.4(4)
N1 C1 C2 119.7(4)
N4 C1 N1 107.2(4)
N4 C1 C2 133.0(4)
N3 N2 N1 105.1(3)
C3 C2 C1 121.3(4)
C3 C2 N5 120.4(4)
N5 C2 C1 118.3(4)
N2 N3 N4 112.9(4)
C2 C3 C4 113.7(4)
N6 C3 C2 128.4(4)
N6 C3 C4 117.9(4)
C5 C4 C3 125.2(4)
N7 C4 C3 128.1(4)
N7 C4 C5 106.7(4)
N8 O4 N7 108.6(3)
C1 N4 N3 105.8(4)
O1 N5 C2 119.0(4)
O1 N5 O2 121.7(4)
O2 N5 C2 119.3(4)
N1 C5 C4 117.5(4)
N8 C5 N1 128.5(4)
N8 C5 C4 114.0(4)
C3 N6 H6A 120.0
C3 N6 H6B 120.0
H6A N6 H6B 120.0
O3 N7 C4 136.1(4)
O3 N7 O4 117.8(3)
C4 N7 O4 106.1(3)
C5 N8 O4 104.6(3)
loop_
_geom_bond_atom_site_label_1
_geom_bond_atom_site_label_2
_geom_bond_distance
N1 C1 1.365(5)
N1 N2 1.369(5)
N1 C5 1.359(6)
C1 C2 1.443(6)
C1 N4 1.320(6)
O1 N5 1.224(5)
N2 N3 1.273(5)
C2 C3 1.402(6)
C2 N5 1.406(5)
O2 N5 1.228(5)
O3 N7 1.218(5)
N3 N4 1.371(5)
C3 C4 1.447(6)
C3 N6 1.306(5)
C4 C5 1.387(6)
C4 N7 1.322(6)
O4 N7 1.452(5)
O4 N8 1.377(5)
C5 N8 1.307(5)
N6 H6A 0.8600
N6 H6B 0.8600
loop_
_geom_torsion_atom_site_label_1
_geom_torsion_atom_site_label_2
_geom_torsion_atom_site_label_3
_geom_torsion_atom_site_label_4
_geom_torsion
N1 C1 C2 C3 4.3(6)
N1 C1 C2 N5 -177.2(4)
N1 C1 N4 N3 0.3(4)
N1 N2 N3 N4 -0.3(5)
N1 C5 N8 O4 -178.8(4)
C1 N1 N2 N3 0.5(4)
C1 N1 C5 C4 2.0(6)
C1 N1 C5 N8 -179.1(4)
C1 C2 C3 C4 -2.0(6)
C1 C2 C3 N6 178.6(4)
C1 C2 N5 O1 1.0(6)
C1 C2 N5 O2 179.4(4)
N2 N1 C1 C2 179.4(3)
N2 N1 C1 N4 -0.5(5)
N2 N1 C5 C4 177.6(4)
N2 N1 C5 N8 -3.5(7)
N2 N3 N4 C1 0.0(5)
C2 C1 N4 N3 -179.6(4)
C2 C3 C4 C5 -0.3(6)
C2 C3 C4 N7 -178.6(4)
C3 C2 N5 O1 179.5(4)
C3 C2 N5 O2 -2.0(6)
C3 C4 C5 N1 0.4(6)
C3 C4 C5 N8 -178.7(4)
C3 C4 N7 O3 -1.6(8)
C3 C4 N7 O4 178.6(4)
C4 C5 N8 O4 0.1(5)
N4 C1 C2 C3 -175.9(4)
N4 C1 C2 N5 2.7(7)
N5 C2 C3 C4 179.5(4)
N5 C2 C3 N6 0.0(7)
C5 N1 C1 C2 -4.3(6)
C5 N1 C1 N4 175.9(4)
C5 N1 N2 N3 -175.6(4)
C5 C4 N7 O3 179.8(4)
C5 C4 N7 O4 0.0(4)
N6 C3 C4 C5 179.2(4)
N6 C3 C4 N7 0.9(6)
N7 C4 C5 N1 179.0(3)
N7 C4 C5 N8 -0.1(5)
N7 O4 N8 C5 -0.1(4)
N8 O4 N7 O3 -179.8(3)
N8 O4 N7 C4 0.1(4)
