#------------------------------------------------------------------------------
#$Date: 2019-11-17 14:07:42 +0200 (Sun, 17 Nov 2019) $
#$Revision: 230383 $
#$URL: file:///home/coder/svn-repositories/cod/cif/7/05/71/7057157.cif $
#------------------------------------------------------------------------------
#
# This file is available in the Crystallography Open Database (COD),
# http://www.crystallography.net/
#
# All data on this site have been placed in the public domain by the
# contributors.
#
data_7057157
loop_
_publ_author_name
'Montis, Riccardo'
'Arca, Massimiliano'
'Aragoni, M. Carla'
'Blake, Alexander J.'
'Castellano, Carlo'
'Demartin, Francesco'
'Isaia, Francesco'
'Lippolis, Vito'
'Pintus, Anna'
'Lenard\~ao, Eder J.'
'Perin, Gelson'
'O'Connor, Alice E.'
'Thurow, Samuel'
_publ_section_title
;
 Structural diversity in the products formed by the reactions of
 2-arylselanyl pyridine derivatives and dihalogens
;
_journal_issue                   13
_journal_name_full               'New Journal of Chemistry'
_journal_page_first              10592
_journal_paper_doi               10.1039/C8NJ00495A
_journal_volume                  42
_journal_year                    2018
_chemical_formula_sum            'C34 H26 I2 N2 Se4'
_chemical_formula_weight         1032.21
_space_group_crystal_system      triclinic
_space_group_IT_number           2
_space_group_name_Hall           '-P 1'
_space_group_name_H-M_alt        'P -1'
_symmetry_space_group_name_Hall  '-P 1'
_symmetry_space_group_name_H-M   'P -1'
_atom_sites_solution_hydrogens   geom
_audit_creation_method           SHELXL-2017/1
_audit_update_record
;
2018-03-06 deposited with the CCDC.
2018-03-12 downloaded from the CCDC.
;
_cell_angle_alpha                85.98(3)
_cell_angle_beta                 75.81(3)
_cell_angle_gamma                74.76(3)
_cell_formula_units_Z            1
_cell_length_a                   7.5865(15)
_cell_length_b                   10.754(2)
_cell_length_c                   11.459(2)
_cell_measurement_reflns_used    4408
_cell_measurement_temperature    294(2)
_cell_measurement_theta_max      29.72
_cell_measurement_theta_min      2.68
_cell_volume                     874.5(3)
_computing_data_reduction        'Bruker AXS SAINT software'
_computing_structure_refinement  'SHELXL-2017/1 (Sheldrick, 2017)'
_computing_structure_solution    SIR92
_diffrn_ambient_temperature      294(2)
_diffrn_measured_fraction_theta_full 0.997
_diffrn_measured_fraction_theta_max 0.892
_diffrn_measurement_device_type  'APEX II CCD diffractometer'
_diffrn_measurement_method       'omega scan'
_diffrn_radiation_type           MoK\a
_diffrn_radiation_wavelength     0.71073
_diffrn_reflns_av_R_equivalents  0.0179
_diffrn_reflns_av_unetI/netI     0.0282
_diffrn_reflns_Laue_measured_fraction_full 0.997
_diffrn_reflns_Laue_measured_fraction_max 0.892
_diffrn_reflns_limit_h_max       11
_diffrn_reflns_limit_h_min       -11
_diffrn_reflns_limit_k_max       15
_diffrn_reflns_limit_k_min       -15
_diffrn_reflns_limit_l_max       16
_diffrn_reflns_limit_l_min       -16
_diffrn_reflns_number            9318
_diffrn_reflns_point_group_measured_fraction_full 0.997
_diffrn_reflns_point_group_measured_fraction_max 0.892
_diffrn_reflns_theta_full        25.000
_diffrn_reflns_theta_max         31.730
_diffrn_reflns_theta_min         1.833
_exptl_absorpt_coefficient_mu    5.986
_exptl_absorpt_correction_type   empirical
_exptl_absorpt_process_details
;
SADABS
Rint for all data  0.069 with corrections  0.016
;
_exptl_crystal_colour            brown
_exptl_crystal_density_diffrn    1.960
_exptl_crystal_description       pseudoprism
_exptl_crystal_F_000             486
_exptl_crystal_size_max          0.20
_exptl_crystal_size_mid          0.06
_exptl_crystal_size_min          0.04
_exptl_transmission_factor_max   1.000
_exptl_transmission_factor_min   0.717
_refine_diff_density_max         2.515
_refine_diff_density_min         -1.665
_refine_diff_density_rms         0.101
_refine_ls_extinction_method     none
_refine_ls_goodness_of_fit_ref   1.044
_refine_ls_hydrogen_treatment    constr
_refine_ls_matrix_type           full
_refine_ls_number_parameters     190
_refine_ls_number_reflns         5284
_refine_ls_number_restraints     0
_refine_ls_restrained_S_all      1.044
_refine_ls_R_factor_all          0.0598
_refine_ls_R_factor_gt           0.0371
_refine_ls_shift/su_max          0.003
_refine_ls_shift/su_mean         0.001
_refine_ls_structure_factor_coef Fsqd
_refine_ls_weighting_details
'w=1/[\s^2^(Fo^2^)+(0.0518P)^2^+0.3830P] where P=(Fo^2^+2Fc^2^)/3'
_refine_ls_weighting_scheme      calc
_refine_ls_wR_factor_gt          0.0953
_refine_ls_wR_factor_ref         0.1041
_reflns_Friedel_coverage         0.000
_reflns_number_gt                3657
_reflns_number_total             5284
_reflns_threshold_expression     'I > 2\s(I)'
_cod_data_source_file            c8nj00495a2.cif
_cod_data_source_block           (L4)2I2
_cod_depositor_comments
'Adding full bibliography for 7057153--7057162.cif.'
_cod_database_code               7057157
_shelx_shelxl_version_number     2017/1
_shelx_space_group_comment
;
The symmetry employed for this shelxl refinement is uniquely defined
by the following loop, which should always be used as a source of
symmetry information in preference to the above space-group names.
They are only intended as comments.
;
_shelx_res_file
;
TITL (L4)2I2
    shelx.res
    created by SHELXL-2017/1 at 14:19:27 on 23-Jan-2018
CELL  0.71073   7.5865  10.7538  11.4590   85.978   75.812   74.759
ZERR     1.00   0.0015   0.0022   0.0023    0.030    0.030    0.030
LATT   1
SFAC  C    H    N    SE   I
UNIT  34   26   2    4    2
MERG   2
FMAP   2
PLAN   25
ACTA 50
L.S.   1
WGHT    0.051800    0.383000
FVAR       0.19611
C1    1   -0.222707    0.419331    0.346588    11.00000    0.03962    0.04980 =
         0.04010    0.00348   -0.00177   -0.00880
C2    1   -0.342130    0.390461    0.285300    11.00000    0.06136    0.05961 =
         0.05104   -0.01034   -0.00716   -0.01765
AFIX  43
H2    2   -0.315347    0.309082    0.252356    11.00000   -1.20000
AFIX   0
C3    1   -0.501145    0.482723    0.273154    11.00000    0.05699    0.10167 =
         0.06972    0.00357   -0.02045   -0.02756
AFIX  43
H3    2   -0.580095    0.463868    0.230175    11.00000   -1.20000
AFIX   0
C4    1   -0.543948    0.600143    0.322789    11.00000    0.04674    0.07999 =
         0.06655    0.02024   -0.00268   -0.00219
AFIX  43
H4    2   -0.652498    0.661452    0.314690    11.00000   -1.20000
AFIX   0
C5    1   -0.427411    0.628917    0.385077    11.00000    0.07600    0.04560 =
         0.07516   -0.00729    0.00448   -0.01137
AFIX  43
H5    2   -0.457238    0.709987    0.419203    11.00000   -1.20000
AFIX   0
C6    1   -0.265599    0.538523    0.397768    11.00000    0.06037    0.06732 =
         0.06018   -0.00810   -0.01016   -0.02771
AFIX  43
H6    2   -0.186856    0.558227    0.440423    11.00000   -1.20000
AFIX   0
C7    1    0.165481    0.305328    0.216228    11.00000    0.04024    0.04829 =
         0.04064    0.00458   -0.00770   -0.00684
C8    1    0.127205    0.403249    0.134417    11.00000    0.04152    0.05595 =
         0.05110    0.00880   -0.01545   -0.00008
AFIX  43
H8    2    0.013544    0.465872    0.149572    11.00000   -1.20000
AFIX   0
C9    1    0.262838    0.405462    0.029293    11.00000    0.04946    0.06668 =
         0.04877    0.02006   -0.01588   -0.00504
AFIX  43
H9    2    0.242209    0.471004   -0.026987    11.00000   -1.20000
AFIX   0
C10   1    0.428789    0.310152    0.008197    11.00000    0.04564    0.06365 =
         0.03845    0.01066   -0.00803   -0.00632
AFIX  43
H10   2    0.520119    0.309058   -0.062940    11.00000   -1.20000
AFIX   0
C11   1    0.456001    0.216411    0.095271    11.00000    0.04249    0.04282 =
         0.03837    0.00212   -0.00899   -0.00532
C12   1    0.825874    0.122745   -0.066138    11.00000    0.04304    0.03832 =
         0.04491    0.00102   -0.00641    0.00083
C13   1    0.821678    0.069277   -0.170734    11.00000    0.06726    0.05980 =
         0.06328   -0.00594   -0.00592   -0.01890
AFIX  43
H13   2    0.745426    0.013902   -0.169374    11.00000   -1.20000
AFIX   0
C14   1    0.935219    0.100196   -0.279740    11.00000    0.07767    0.06891 =
         0.04951   -0.01202   -0.00597   -0.00907
AFIX  43
H14   2    0.931453    0.066777   -0.351519    11.00000   -1.20000
AFIX   0
C15   1    1.050415    0.178400   -0.281330    11.00000    0.05571    0.06020 =
         0.05555    0.00634    0.00540   -0.00087
AFIX  43
H15   2    1.125189    0.198004   -0.353906    11.00000   -1.20000
AFIX   0
C16   1    1.056342    0.228106   -0.176524    11.00000    0.05903    0.05776 =
         0.07708    0.00104   -0.00067   -0.01867
AFIX  43
H16   2    1.136332    0.280765   -0.177654    11.00000   -1.20000
AFIX   0
C17   1    0.943864    0.200478   -0.068640    11.00000    0.06091    0.05260 =
         0.05303   -0.00731   -0.01065   -0.01123
AFIX  43
H17   2    0.948246    0.234773    0.002568    11.00000   -1.20000
AFIX   0
N     3    0.326306    0.212925    0.198619    11.00000    0.04122    0.04334 =
         0.03855    0.00743   -0.01038   -0.00377
SE1   4    0.678420    0.079189    0.084370    11.00000    0.05220    0.05139 =
         0.04955    0.01191   -0.00038    0.00561
SE2   4   -0.003516    0.291190    0.368552    11.00000    0.05506    0.08341 =
         0.05590    0.02635    0.00243    0.00808
I     5    0.442584    0.062148    0.402985    11.00000    0.05733    0.05421 =
         0.04005    0.00032   -0.01152   -0.00222
HKLF    4




REM  (L4)2I2
REM R1 =  0.0371 for    3657 Fo > 4sig(Fo)  and  0.0598 for all    5284 data
REM    190 parameters refined using      0 restraints

END

WGHT      0.0496      0.4435

REM Highest difference peak  2.515,  deepest hole -1.665,  1-sigma level  0.101
Q1    1  -0.0524  0.2533  0.3141  11.00000  0.05    2.51
Q2    1   0.5251  0.0772  0.4242  11.00000  0.05    0.98
Q3    1   0.3701  0.0268  0.4436  11.00000  0.05    0.90
Q4    1   0.3975  0.1155  0.3689  11.00000  0.05    0.58
Q5    1   0.0187  0.3344  0.3547  11.00000  0.05    0.53
Q6    1   0.4989  0.0027  0.4525  11.00000  0.05    0.52
Q7    1   0.5461  0.1372  0.3620  11.00000  0.05    0.50
Q8    1   0.5819  0.0768  0.0621  11.00000  0.05    0.48
Q9    1   0.6410  0.0540  0.1203  11.00000  0.05    0.38
Q10   1   0.4636  0.0125  0.3446  11.00000  0.05    0.36
Q11   1   0.7713  0.1066  0.0977  11.00000  0.05    0.36
Q12   1   0.8738  0.1625 -0.1024  11.00000  0.05    0.35
Q13   1   0.3090  0.0621  0.3860  11.00000  0.05    0.34
Q14   1  -0.1096  0.3662  0.3307  11.00000  0.05    0.34
Q15   1   1.1219  0.1616 -0.4269  11.00000  0.05    0.34
Q16   1   0.5710  0.0814  0.3413  11.00000  0.05    0.33
Q17   1   0.7136  0.0150  0.1189  11.00000  0.05    0.33
Q18   1   1.2004  0.0543 -0.2742  11.00000  0.05    0.29
Q19   1   0.7053  0.0377  0.0456  11.00000  0.05    0.28
Q20   1   0.3517  0.1976  0.1403  11.00000  0.05    0.27
Q21   1   0.7847  0.1374  0.0464  11.00000  0.05    0.26
Q22   1  -0.4478  0.6186  0.3365  11.00000  0.05    0.26
Q23   1   0.3527  0.3529  0.0254  11.00000  0.05    0.25
Q24   1   0.5892  0.0010  0.1172  11.00000  0.05    0.25
Q25   1   0.9417  0.2371 -0.1240  11.00000  0.05    0.25
;
_shelx_res_checksum              83054
loop_
_space_group_symop_operation_xyz
'x, y, z'
'-x, -y, -z'
loop_
_atom_site_label
_atom_site_type_symbol
_atom_site_fract_x
_atom_site_fract_y
_atom_site_fract_z
_atom_site_U_iso_or_equiv
_atom_site_adp_type
_atom_site_occupancy
_atom_site_site_symmetry_order
_atom_site_calc_flag
_atom_site_refinement_flags_posn
_atom_site_refinement_flags_adp
C1 C -0.2227(5) 0.4193(4) 0.3466(3) 0.0452(8) Uani 1 1 d . .
C2 C -0.3421(6) 0.3905(4) 0.2853(4) 0.0575(10) Uani 1 1 d . .
H2 H -0.315347 0.309082 0.252356 0.069 Uiso 1 1 calc R U
C3 C -0.5011(7) 0.4827(6) 0.2732(5) 0.0739(14) Uani 1 1 d . .
H3 H -0.580095 0.463868 0.230175 0.089 Uiso 1 1 calc R U
C4 C -0.5439(6) 0.6001(5) 0.3228(5) 0.0701(13) Uani 1 1 d . .
H4 H -0.652498 0.661452 0.314690 0.084 Uiso 1 1 calc R U
C5 C -0.4274(7) 0.6289(4) 0.3851(5) 0.0700(13) Uani 1 1 d . .
H5 H -0.457238 0.709987 0.419203 0.084 Uiso 1 1 calc R U
C6 C -0.2656(6) 0.5385(4) 0.3978(4) 0.0607(11) Uani 1 1 d . .
H6 H -0.186856 0.558227 0.440423 0.073 Uiso 1 1 calc R U
C7 C 0.1655(5) 0.3053(4) 0.2162(3) 0.0445(8) Uani 1 1 d . .
C8 C 0.1272(5) 0.4032(4) 0.1344(3) 0.0515(9) Uani 1 1 d . .
H8 H 0.013544 0.465872 0.149572 0.062 Uiso 1 1 calc R U
C9 C 0.2628(6) 0.4055(4) 0.0293(4) 0.0571(10) Uani 1 1 d . .
H9 H 0.242209 0.471004 -0.026987 0.069 Uiso 1 1 calc R U
C10 C 0.4288(5) 0.3102(4) 0.0082(3) 0.0516(9) Uani 1 1 d . .
H10 H 0.520119 0.309058 -0.062940 0.062 Uiso 1 1 calc R U
C11 C 0.4560(5) 0.2164(3) 0.0953(3) 0.0425(7) Uani 1 1 d . .
C12 C 0.8259(5) 0.1227(3) -0.0661(3) 0.0450(8) Uani 1 1 d . .
C13 C 0.8217(7) 0.0693(4) -0.1707(4) 0.0643(11) Uani 1 1 d . .
H13 H 0.745426 0.013902 -0.169374 0.077 Uiso 1 1 calc R U
C14 C 0.9352(7) 0.1002(5) -0.2797(4) 0.0682(12) Uani 1 1 d . .
H14 H 0.931453 0.066777 -0.351519 0.082 Uiso 1 1 calc R U
C15 C 1.0504(6) 0.1784(4) -0.2813(4) 0.0635(11) Uani 1 1 d . .
H15 H 1.125189 0.198004 -0.353906 0.076 Uiso 1 1 calc R U
C16 C 1.0563(7) 0.2281(4) -0.1765(4) 0.0667(12) Uani 1 1 d . .
H16 H 1.136332 0.280765 -0.177654 0.080 Uiso 1 1 calc R U
C17 C 0.9439(6) 0.2005(4) -0.0686(4) 0.0563(10) Uani 1 1 d . .
H17 H 0.948246 0.234773 0.002568 0.068 Uiso 1 1 calc R U
N N 0.3263(4) 0.2129(3) 0.1986(3) 0.0426(6) Uani 1 1 d . .
Se1 Se 0.67842(6) 0.07919(4) 0.08437(4) 0.05738(13) Uani 1 1 d . .
Se2 Se -0.00352(6) 0.29119(5) 0.36855(4) 0.07388(17) Uani 1 1 d . .
I I 0.44258(4) 0.06215(2) 0.40298(2) 0.05286(10) Uani 1 1 d . .
loop_
_atom_site_aniso_label
_atom_site_aniso_U_11
_atom_site_aniso_U_22
_atom_site_aniso_U_33
_atom_site_aniso_U_23
_atom_site_aniso_U_13
_atom_site_aniso_U_12
C1 0.0396(17) 0.050(2) 0.0401(17) 0.0035(15) -0.0018(14) -0.0088(15)
C2 0.061(2) 0.060(2) 0.051(2) -0.0103(18) -0.0072(18) -0.018(2)
C3 0.057(3) 0.102(4) 0.070(3) 0.004(3) -0.020(2) -0.028(3)
C4 0.047(2) 0.080(3) 0.067(3) 0.020(2) -0.003(2) -0.002(2)
C5 0.076(3) 0.046(2) 0.075(3) -0.007(2) 0.004(2) -0.011(2)
C6 0.060(2) 0.067(3) 0.060(2) -0.008(2) -0.010(2) -0.028(2)
C7 0.0402(17) 0.0483(19) 0.0406(17) 0.0046(14) -0.0077(14) -0.0068(15)
C8 0.0415(19) 0.056(2) 0.051(2) 0.0088(17) -0.0155(16) -0.0001(16)
C9 0.049(2) 0.067(3) 0.049(2) 0.0201(19) -0.0159(17) -0.0050(19)
C10 0.0456(19) 0.064(2) 0.0384(18) 0.0107(16) -0.0080(15) -0.0063(17)
C11 0.0425(17) 0.0428(18) 0.0384(17) 0.0021(14) -0.0090(14) -0.0053(14)
C12 0.0430(18) 0.0383(17) 0.0449(19) 0.0010(14) -0.0064(14) 0.0008(15)
C13 0.067(3) 0.060(2) 0.063(3) -0.006(2) -0.006(2) -0.019(2)
C14 0.078(3) 0.069(3) 0.050(2) -0.012(2) -0.006(2) -0.009(2)
C15 0.056(2) 0.060(2) 0.056(2) 0.006(2) 0.0054(19) -0.001(2)
C16 0.059(3) 0.058(2) 0.077(3) 0.001(2) -0.001(2) -0.019(2)
C17 0.061(2) 0.053(2) 0.053(2) -0.0073(17) -0.0106(18) -0.0112(19)
N 0.0412(15) 0.0433(15) 0.0386(14) 0.0074(12) -0.0104(12) -0.0038(12)
Se1 0.0522(2) 0.0514(2) 0.0496(2) 0.01191(17) -0.00038(17) 0.00561(17)
Se2 0.0551(3) 0.0834(3) 0.0559(3) 0.0263(2) 0.00243(19) 0.0081(2)
I 0.05733(16) 0.05421(16) 0.04005(14) 0.00032(10) -0.01152(10) -0.00222(11)
loop_
_atom_type_symbol
_atom_type_description
_atom_type_scat_dispersion_real
_atom_type_scat_dispersion_imag
_atom_type_scat_source
C C 0.0033 0.0016 'International Tables Vol C Tables 4.2.6.8 and 6.1.1.4'
H H 0.0000 0.0000 'International Tables Vol C Tables 4.2.6.8 and 6.1.1.4'
N N 0.0061 0.0033 'International Tables Vol C Tables 4.2.6.8 and 6.1.1.4'
Se Se -0.0929 2.2259 'International Tables Vol C Tables 4.2.6.8 and 6.1.1.4'
I I -0.4742 1.8119 'International Tables Vol C Tables 4.2.6.8 and 6.1.1.4'
loop_
_geom_angle_atom_site_label_1
_geom_angle_atom_site_label_2
_geom_angle_atom_site_label_3
_geom_angle
C6 C1 C2 119.9(4)
C6 C1 Se2 119.5(3)
C2 C1 Se2 120.5(3)
C3 C2 C1 119.6(4)
C4 C3 C2 120.8(5)
C3 C4 C5 119.9(4)
C4 C5 C6 120.6(4)
C1 C6 C5 119.2(4)
N C7 C8 123.3(3)
N C7 Se2 113.3(2)
C8 C7 Se2 123.4(3)
C7 C8 C9 118.0(3)
C10 C9 C8 119.8(3)
C9 C10 C11 118.4(3)
N C11 C10 122.8(3)
N C11 Se1 112.6(2)
C10 C11 Se1 124.5(3)
C17 C12 C13 120.2(4)
C17 C12 Se1 120.0(3)
C13 C12 Se1 119.7(3)
C12 C13 C14 118.5(4)
C15 C14 C13 120.7(4)
C14 C15 C16 120.0(4)
C15 C16 C17 120.2(4)
C12 C17 C16 120.3(4)
C7 N C11 117.7(3)
C11 Se1 C12 99.64(15)
C1 Se2 C7 99.77(15)
loop_
_geom_bond_atom_site_label_1
_geom_bond_atom_site_label_2
_geom_bond_distance
_geom_bond_site_symmetry_2
C1 C6 1.373(6) .
C1 C2 1.379(6) .
C1 Se2 1.918(4) .
C2 C3 1.376(7) .
C3 C4 1.348(8) .
C4 C5 1.368(7) .
C5 C6 1.383(7) .
C7 N 1.337(4) .
C7 C8 1.381(5) .
C7 Se2 1.919(4) .
C8 C9 1.383(6) .
C9 C10 1.379(5) .
C10 C11 1.380(5) .
C11 N 1.347(5) .
C11 Se1 1.911(3) .
C12 C17 1.371(6) .
C12 C13 1.376(6) .
C12 Se1 1.914(4) .
C13 C14 1.406(6) .
C14 C15 1.359(7) .
C15 C16 1.364(7) .
C16 C17 1.382(6) .
I I 2.7220(9) 2_656
