#------------------------------------------------------------------------------
#$Date: 2019-11-17 13:56:25 +0200 (Sun, 17 Nov 2019) $
#$Revision: 230319 $
#$URL: file:///home/coder/svn-repositories/cod/cif/7/05/70/7057047.cif $
#------------------------------------------------------------------------------
#
# This file is available in the Crystallography Open Database (COD),
# http://www.crystallography.net/
#
# All data on this site have been placed in the public domain by the
# contributors.
#
data_7057047
loop_
_publ_author_name
'Tarai, Arup'
'Baruah, Jubaraj B.'
_publ_section_title
;
 Different self-assemblies and absorption--emission properties of the
 picrate salts of aromatic amine or heterocycle linked oximes
;
_journal_issue                   6
_journal_name_full               'New Journal of Chemistry'
_journal_page_first              4757
_journal_paper_doi               10.1039/C7NJ04349J
_journal_volume                  42
_journal_year                    2018
_chemical_formula_moiety         'C6 H2 N3 O7, C9 H9 N2 O, O'
_chemical_formula_sum            'C15 H11 N5 O9'
_chemical_formula_weight         405.29
_space_group_crystal_system      triclinic
_space_group_IT_number           2
_space_group_name_Hall           '-P 1'
_space_group_name_H-M_alt        'P -1'
_symmetry_space_group_name_Hall  '-P 1'
_symmetry_space_group_name_H-M   'P -1'
_atom_sites_solution_hydrogens   mixed
_audit_creation_method           SHELXL-2014/7
_audit_update_record
;
2017-01-22 deposited with the CCDC.
2018-02-21 downloaded from the CCDC.
;
_cell_angle_alpha                78.747(10)
_cell_angle_beta                 87.742(8)
_cell_angle_gamma                75.439(10)
_cell_formula_units_Z            2
_cell_length_a                   6.7711(6)
_cell_length_b                   8.4733(11)
_cell_length_c                   15.8026(17)
_cell_measurement_reflns_used    1249
_cell_measurement_temperature    296(2)
_cell_measurement_theta_max      26.06
_cell_measurement_theta_min      3.55
_cell_volume                     860.62(17)
_computing_structure_refinement  'SHELXL-2014/7 (Sheldrick, 2014)'
_diffrn_ambient_temperature      296(2)
_diffrn_measured_fraction_theta_full 0.999
_diffrn_measured_fraction_theta_max 0.999
_diffrn_measurement_device_type  'CCD area detector'
_diffrn_measurement_method       'phi and omega scans'
_diffrn_radiation_type           MoK\a
_diffrn_radiation_wavelength     0.71073
_diffrn_reflns_av_R_equivalents  0.0234
_diffrn_reflns_av_unetI/netI     0.0570
_diffrn_reflns_Laue_measured_fraction_full 0.999
_diffrn_reflns_Laue_measured_fraction_max 0.999
_diffrn_reflns_limit_h_max       8
_diffrn_reflns_limit_h_min       -8
_diffrn_reflns_limit_k_max       9
_diffrn_reflns_limit_k_min       -10
_diffrn_reflns_limit_l_max       15
_diffrn_reflns_limit_l_min       -18
_diffrn_reflns_number            5517
_diffrn_reflns_point_group_measured_fraction_full 0.999
_diffrn_reflns_point_group_measured_fraction_max 0.999
_diffrn_reflns_theta_full        25.242
_diffrn_reflns_theta_max         25.249
_diffrn_reflns_theta_min         3.067
_exptl_absorpt_coefficient_mu    0.132
_exptl_absorpt_correction_T_max  0.986
_exptl_absorpt_correction_T_min  0.963
_exptl_absorpt_correction_type   multi-scan
_exptl_absorpt_process_details   multi-scan
_exptl_crystal_colour            Yellow
_exptl_crystal_density_diffrn    1.564
_exptl_crystal_description       Block
_exptl_crystal_F_000             416
_exptl_crystal_size_max          0.32
_exptl_crystal_size_mid          0.24
_exptl_crystal_size_min          0.11
_refine_diff_density_max         1.452
_refine_diff_density_min         -0.250
_refine_diff_density_rms         0.066
_refine_ls_extinction_method     none
_refine_ls_goodness_of_fit_ref   1.040
_refine_ls_hydrogen_treatment    mixed
_refine_ls_matrix_type           full
_refine_ls_number_parameters     267
_refine_ls_number_reflns         3114
_refine_ls_number_restraints     1
_refine_ls_restrained_S_all      1.041
_refine_ls_R_factor_all          0.1153
_refine_ls_R_factor_gt           0.0778
_refine_ls_shift/su_max          0.000
_refine_ls_shift/su_mean         0.000
_refine_ls_structure_factor_coef Fsqd
_refine_ls_weighting_details
'w=1/[\s^2^(Fo^2^)+(0.0200P)^2^+2.2000P] where P=(Fo^2^+2Fc^2^)/3'
_refine_ls_weighting_scheme      calc
_refine_ls_wR_factor_gt          0.1504
_refine_ls_wR_factor_ref         0.1744
_reflns_Friedel_coverage         0.000
_reflns_number_gt                1950
_reflns_number_total             3114
_reflns_threshold_expression     'I > 2\s(I)'
_cod_data_source_file            c7nj04349j2.cif
_cod_data_source_block           exp_3173
_cod_depositor_comments
'Adding full bibliography for 7057046--7057050.cif.'
_cod_original_cell_volume        860.61(17)
_cod_database_code               7057047
_shelx_shelxl_version_number     2014/7
_shelx_space_group_comment
;
The symmetry employed for this shelxl refinement is uniquely defined
by the following loop, which should always be used as a source of
symmetry information in preference to the above space-group names.
They are only intended as comments.
;
_shelx_res_file
;

    exp_3173.res created by SHELXL-2014/7

TITL CF solution in P-1
CELL 0.71073 6.771083 8.473288 15.80258 78.7467 87.7417 75.4385
ZERR 2 0.00061 0.001095 0.001724 0.0101 0.008 0.0095
LATT 1
SFAC C  H  N  O
UNIT 30  22  10  18
OMIT -3 50.5
L.S. 10
ACTA
BOND
FMAP 2
PLAN 1
DFIX 0.86 0.02 O1 H1
DFIX 0.86 0.02 H11A O11
DFIX 0.86 0.02 H11B O11
DFIX 0.86 0.02 O11 H11A
DFIX 0.86 0.02 H11B O11
DFIX 0.86 0.02 O9 H9B
DFIX 0.86 0.02 O9 H9A
DFIX 0.86 0.02 O9 H9B
DFIX 0.86 0.02 O9 H9A
DFIX 0.86 0.02 H1C O1
DFIX 0.86 0.02 O1 H1C
DFIX 0.86 0.02 O9 H9B
DFIX 0.86 0.02 H9A O9
DFIX 0.86 0.02 H9A O9
DFIX 0.86 0.02 O9 H9B
WGHT    0.020000    2.200000
FVAR       6.21290
MOLE 1
O8    4    0.758969    0.277814    0.130485    11.00000    0.09442    0.04129 =
         0.02889   -0.00772    0.00139   -0.01571
O5    4    0.812379    0.282521    0.524244    11.00000    0.12303    0.08528 =
         0.02934   -0.00205   -0.00434   -0.03687
O3    4    0.732287    0.603721    0.084196    11.00000    0.12896    0.05204 =
         0.03294   -0.00320    0.00745   -0.01267
O2    4    0.594754    0.748337    0.176567    11.00000    0.12586    0.03360 =
         0.06129   -0.00322    0.00903   -0.00124
O7    4    0.915294   -0.035830    0.202204    11.00000    0.14176    0.04520 =
         0.05528   -0.02077   -0.00981    0.00893
O1    4    0.157564    0.755983    0.068979    11.00000    0.13631    0.05600 =
         0.04203   -0.00202    0.01344   -0.00381
AFIX 147
H1    2    0.184545    0.830334    0.032359    11.00000   -1.50000
AFIX   0
O6    4    0.872579   -0.107421    0.337180    11.00000    0.11137    0.03880 =
         0.06796    0.00782    0.00146   -0.00655
N5    3    0.681919    0.614720    0.157811    11.00000    0.05671    0.03673 =
         0.03836   -0.00324   -0.00190   -0.01174
O4    4    0.728806    0.541713    0.471823    11.00000    0.31416    0.07662 =
         0.04743   -0.02992    0.00310   -0.05945
N2    3    0.213154    0.503399    0.322829    11.00000    0.05144    0.04136 =
         0.03162   -0.01086    0.00364   -0.00968
AFIX  43
H2    2    0.193923    0.555448    0.365213    11.00000   -1.20000
AFIX   0
N4    3    0.869726   -0.001213    0.273044    11.00000    0.05255    0.03685 =
         0.05103   -0.00597   -0.00683   -0.00521
N1    3    0.216092    0.609877    0.040789    11.00000    0.06577    0.06059 =
         0.03307   -0.00568    0.00090   -0.00657
N3    3    0.769974    0.396827    0.463264    11.00000    0.10373    0.06812 =
         0.03301   -0.01566    0.00432   -0.03409
C15   1    0.769319    0.304980    0.204999    11.00000    0.04108    0.03756 =
         0.02846   -0.00680    0.00353   -0.00950
C14   1    0.814489    0.173509    0.281788    11.00000    0.03772    0.03128 =
         0.03563   -0.00648    0.00036   -0.00781
C10   1    0.726757    0.468162    0.226000    11.00000    0.04127    0.03403 =
         0.02603   -0.00104    0.00196   -0.00948
C5    1    0.266830    0.331524    0.331058    11.00000    0.03296    0.04054 =
         0.03528   -0.00764    0.00070   -0.00846
C12   1    0.767155    0.364102    0.376867    11.00000    0.04398    0.05099 =
         0.02542   -0.00974   -0.00096   -0.01479
C6    1    0.282150    0.296611    0.247341    11.00000    0.03484    0.04167 =
         0.03496   -0.00993    0.00292   -0.00808
C7    1    0.238364    0.455101    0.188018    11.00000    0.03554    0.04504 =
         0.02896   -0.00796    0.00305   -0.00790
C13   1    0.812165    0.202179    0.363742    11.00000    0.04030    0.04377 =
         0.03146    0.00021   -0.00198   -0.01204
AFIX  43
H13   2    0.840552    0.113786    0.410405    11.00000   -1.20000
AFIX   0
C9    1    0.195584    0.576822    0.238497    11.00000    0.04593    0.04294 =
         0.03418   -0.00336    0.00046   -0.00850
AFIX  43
H9    2    0.160422    0.690799    0.217524    11.00000   -1.20000
AFIX   0
C11   1    0.725127    0.497844    0.308349    11.00000    0.04472    0.03602 =
         0.03861   -0.01057    0.00452   -0.01066
AFIX  43
H11   2    0.696261    0.606063    0.318049    11.00000   -1.20000
AFIX   0
C4    1    0.299215    0.206776    0.404095    11.00000    0.05173    0.04964 =
         0.03337   -0.00313    0.00041   -0.01354
AFIX  43
H4    2    0.287720    0.231432    0.459180    11.00000   -1.20000
AFIX   0
C2    1    0.364510    0.008036    0.309654    11.00000    0.05597    0.03632 =
         0.06788   -0.01261    0.00409   -0.00734
AFIX  43
H2A   2    0.397391   -0.102541    0.303613    11.00000   -1.20000
AFIX   0
C8    1    0.247820    0.473132    0.097438    11.00000    0.05050    0.05368 =
         0.03005   -0.00977   -0.00013   -0.01018
AFIX  43
H8    2    0.280722    0.375263    0.075872    11.00000   -1.20000
AFIX   0
C1    1    0.332408    0.130824    0.237262    11.00000    0.04803    0.04822 =
         0.04405   -0.01723    0.00688   -0.01165
AFIX  43
H1B   2    0.343813    0.104433    0.182554    11.00000   -1.20000
AFIX   0
C3    1    0.348964    0.045291    0.391842    11.00000    0.05338    0.04605 =
         0.04720    0.00387   -0.00372   -0.01074
AFIX  43
H3    2    0.372738   -0.040923    0.439625    11.00000   -1.20000
AFIX   0
O9    4    0.340859    0.955577    0.954866    11.00000    0.23466    0.09073 =
         0.08050    0.01503   -0.03903   -0.08206
H1A   2    0.222053    0.619823   -0.028048    11.00000    0.12073
HKLF 4

REM  CF solution in P-1
REM R1 =  0.0778 for    1950 Fo > 4sig(Fo)  and  0.1153 for all    3114 data
REM    267 parameters refined using      1 restraints

END

WGHT      0.1049      0.9709

REM Highest difference peak  1.452,  deepest hole -0.250,  1-sigma level  0.066
Q1    1   0.1381  1.1086  0.0532  11.00000  0.05    1.45
;
_shelx_res_checksum              51291
loop_
_space_group_symop_operation_xyz
'x, y, z'
'-x, -y, -z'
loop_
_atom_site_label
_atom_site_type_symbol
_atom_site_fract_x
_atom_site_fract_y
_atom_site_fract_z
_atom_site_U_iso_or_equiv
_atom_site_adp_type
_atom_site_occupancy
_atom_site_site_symmetry_order
_atom_site_calc_flag
_atom_site_refinement_flags_posn
_atom_site_refinement_flags_adp
O8 O 0.7590(5) 0.2778(4) 0.13048(18) 0.0550(9) Uani 1 1 d . .
O5 O 0.8124(7) 0.2825(5) 0.5242(2) 0.0783(12) Uani 1 1 d . .
O3 O 0.7323(6) 0.6037(4) 0.0842(2) 0.0740(12) Uani 1 1 d . .
O2 O 0.5948(7) 0.7483(4) 0.1766(2) 0.0780(12) Uani 1 1 d . .
O7 O 0.9153(7) -0.0358(4) 0.2022(2) 0.0848(13) Uani 1 1 d . .
O1 O 0.1576(7) 0.7560(5) 0.0690(2) 0.0832(13) Uani 1 1 d D .
H1 H 0.1845 0.8303 0.0324 0.125 Uiso 1 1 calc DR U
O6 O 0.8726(6) -0.1074(4) 0.3372(2) 0.0775(12) Uani 1 1 d . .
N5 N 0.6819(6) 0.6147(4) 0.1578(2) 0.0444(9) Uani 1 1 d . .
O4 O 0.7288(11) 0.5417(6) 0.4718(3) 0.142(3) Uani 1 1 d . .
N2 N 0.2132(5) 0.5034(4) 0.3228(2) 0.0414(9) Uani 1 1 d . .
H2 H 0.1939 0.5554 0.3652 0.050 Uiso 1 1 calc R U
N4 N 0.8697(6) -0.0012(4) 0.2730(3) 0.0480(9) Uani 1 1 d . .
N1 N 0.2161(6) 0.6099(5) 0.0408(3) 0.0553(11) Uani 1 1 d . .
N3 N 0.7700(7) 0.3968(6) 0.4633(3) 0.0652(12) Uani 1 1 d . .
C15 C 0.7693(6) 0.3050(5) 0.2050(2) 0.0358(9) Uani 1 1 d . .
C14 C 0.8145(6) 0.1735(5) 0.2818(3) 0.0350(9) Uani 1 1 d . .
C10 C 0.7268(6) 0.4682(5) 0.2260(2) 0.0345(9) Uani 1 1 d . .
C5 C 0.2668(6) 0.3315(5) 0.3311(3) 0.0363(9) Uani 1 1 d . .
C12 C 0.7672(6) 0.3641(5) 0.3769(2) 0.0392(10) Uani 1 1 d . .
C6 C 0.2821(6) 0.2966(5) 0.2473(3) 0.0371(9) Uani 1 1 d . .
C7 C 0.2384(6) 0.4551(5) 0.1880(2) 0.0369(9) Uani 1 1 d . .
C13 C 0.8122(6) 0.2022(5) 0.3637(3) 0.0392(10) Uani 1 1 d . .
H13 H 0.8406 0.1138 0.4104 0.047 Uiso 1 1 calc R U
C9 C 0.1956(6) 0.5768(5) 0.2385(3) 0.0420(10) Uani 1 1 d . .
H9 H 0.1604 0.6908 0.2175 0.050 Uiso 1 1 calc R U
C11 C 0.7251(6) 0.4978(5) 0.3083(3) 0.0393(10) Uani 1 1 d . .
H11 H 0.6963 0.6061 0.3180 0.047 Uiso 1 1 calc R U
C4 C 0.2992(7) 0.2068(5) 0.4041(3) 0.0454(11) Uani 1 1 d . .
H4 H 0.2877 0.2314 0.4592 0.054 Uiso 1 1 calc R U
C2 C 0.3645(7) 0.0080(6) 0.3097(3) 0.0539(12) Uani 1 1 d . .
H2A H 0.3974 -0.1025 0.3036 0.065 Uiso 1 1 calc R U
C8 C 0.2478(6) 0.4731(6) 0.0974(3) 0.0450(11) Uani 1 1 d . .
H8 H 0.2807 0.3753 0.0759 0.054 Uiso 1 1 calc R U
C1 C 0.3324(6) 0.1308(5) 0.2373(3) 0.0458(11) Uani 1 1 d . .
H1B H 0.3438 0.1044 0.1826 0.055 Uiso 1 1 calc R U
C3 C 0.3490(7) 0.0453(6) 0.3918(3) 0.0508(12) Uani 1 1 d . .
H3 H 0.3727 -0.0409 0.4396 0.061 Uiso 1 1 calc R U
O9 O 0.3409(10) 0.9556(6) 0.9549(3) 0.131(2) Uani 1 1 d . .
H1A H 0.222(9) 0.620(8) -0.028(4) 0.12(2) Uiso 1 1 d . .
loop_
_atom_site_aniso_label
_atom_site_aniso_U_11
_atom_site_aniso_U_22
_atom_site_aniso_U_33
_atom_site_aniso_U_23
_atom_site_aniso_U_13
_atom_site_aniso_U_12
O8 0.094(3) 0.0413(17) 0.0289(17) -0.0077(13) 0.0014(16) -0.0157(17)
O5 0.123(3) 0.085(3) 0.0293(19) -0.0020(19) -0.004(2) -0.037(2)
O3 0.129(3) 0.052(2) 0.0329(19) -0.0032(16) 0.007(2) -0.013(2)
O2 0.126(3) 0.0336(19) 0.061(2) -0.0032(17) 0.009(2) -0.001(2)
O7 0.142(4) 0.045(2) 0.055(2) -0.0208(18) -0.010(2) 0.009(2)
O1 0.136(4) 0.056(2) 0.042(2) -0.0020(17) 0.013(2) -0.004(2)
O6 0.111(3) 0.0388(19) 0.068(3) 0.0078(18) 0.001(2) -0.007(2)
N5 0.057(2) 0.037(2) 0.038(2) -0.0032(16) -0.0019(18) -0.0117(18)
O4 0.314(8) 0.077(3) 0.047(3) -0.030(2) 0.003(4) -0.059(4)
N2 0.051(2) 0.041(2) 0.0316(19) -0.0109(15) 0.0036(16) -0.0097(17)
N4 0.053(2) 0.037(2) 0.051(2) -0.0060(19) -0.0068(19) -0.0052(17)
N1 0.066(3) 0.061(3) 0.033(2) -0.0057(19) 0.0009(19) -0.007(2)
N3 0.104(4) 0.068(3) 0.033(2) -0.016(2) 0.004(2) -0.034(3)
C15 0.041(2) 0.038(2) 0.028(2) -0.0068(17) 0.0035(17) -0.0095(18)
C14 0.038(2) 0.031(2) 0.036(2) -0.0065(17) 0.0004(17) -0.0078(17)
C10 0.041(2) 0.034(2) 0.026(2) -0.0010(16) 0.0020(17) -0.0095(18)
C5 0.033(2) 0.041(2) 0.035(2) -0.0076(18) 0.0007(17) -0.0085(18)
C12 0.044(2) 0.051(3) 0.025(2) -0.0097(18) -0.0010(17) -0.015(2)
C6 0.035(2) 0.042(2) 0.035(2) -0.0099(18) 0.0029(17) -0.0081(18)
C7 0.036(2) 0.045(2) 0.029(2) -0.0080(18) 0.0030(17) -0.0079(18)
C13 0.040(2) 0.044(2) 0.031(2) 0.0002(18) -0.0020(18) -0.0120(19)
C9 0.046(3) 0.043(2) 0.034(2) -0.0034(19) 0.0005(19) -0.009(2)
C11 0.045(2) 0.036(2) 0.039(2) -0.0106(18) 0.0045(19) -0.0107(19)
C4 0.052(3) 0.050(3) 0.033(2) -0.003(2) 0.0004(19) -0.014(2)
C2 0.056(3) 0.036(2) 0.068(3) -0.013(2) 0.004(2) -0.007(2)
C8 0.050(3) 0.054(3) 0.030(2) -0.010(2) -0.0001(19) -0.010(2)
C1 0.048(3) 0.048(3) 0.044(3) -0.017(2) 0.007(2) -0.012(2)
C3 0.053(3) 0.046(3) 0.047(3) 0.004(2) -0.004(2) -0.011(2)
O9 0.235(6) 0.091(3) 0.081(3) 0.015(3) -0.039(4) -0.082(4)
loop_
_atom_type_symbol
_atom_type_description
_atom_type_scat_dispersion_real
_atom_type_scat_dispersion_imag
_atom_type_scat_source
C C 0.0033 0.0016 'International Tables Vol C Tables 4.2.6.8 and 6.1.1.4'
H H 0.0000 0.0000 'International Tables Vol C Tables 4.2.6.8 and 6.1.1.4'
N N 0.0061 0.0033 'International Tables Vol C Tables 4.2.6.8 and 6.1.1.4'
O O 0.0106 0.0060 'International Tables Vol C Tables 4.2.6.8 and 6.1.1.4'
loop_
_geom_angle_atom_site_label_1
_geom_angle_atom_site_label_2
_geom_angle_atom_site_label_3
_geom_angle
O3 N5 O2 121.3(4)
O3 N5 C10 120.1(4)
O2 N5 C10 118.6(4)
C9 N2 C5 110.1(3)
O6 N4 O7 122.0(4)
O6 N4 C14 118.7(4)
O7 N4 C14 119.3(4)
C8 N1 O1 118.3(4)
O5 N3 O4 122.1(4)
O5 N3 C12 120.1(4)
O4 N3 C12 117.8(4)
O8 C15 C10 124.3(4)
O8 C15 C14 123.4(4)
C10 C15 C14 112.1(3)
C13 C14 C15 123.9(4)
C13 C14 N4 116.1(4)
C15 C14 N4 120.1(4)
C11 C10 C15 124.3(3)
C11 C10 N5 115.6(4)
C15 C10 N5 120.1(3)
C4 C5 N2 130.6(4)
C4 C5 C6 122.1(4)
N2 C5 C6 107.3(3)
C13 C12 C11 121.4(4)
C13 C12 N3 120.1(4)
C11 C12 N3 118.5(4)
C1 C6 C5 119.0(4)
C1 C6 C7 134.2(4)
C5 C6 C7 106.8(4)
C9 C7 C8 129.3(4)
C9 C7 C6 106.4(3)
C8 C7 C6 124.2(4)
C14 C13 C12 119.3(4)
N2 C9 C7 109.3(4)
C10 C11 C12 119.0(4)
C3 C4 C5 117.4(4)
C1 C2 C3 121.4(4)
N1 C8 C7 127.6(4)
C2 C1 C6 118.7(4)
C4 C3 C2 121.5(4)
loop_
_geom_bond_atom_site_label_1
_geom_bond_atom_site_label_2
_geom_bond_distance
O8 C15 1.251(5)
O5 N3 1.211(5)
O3 N5 1.214(5)
O2 N5 1.224(5)
O7 N4 1.221(5)
O1 N1 1.357(5)
O6 N4 1.214(5)
N5 C10 1.452(5)
O4 N3 1.222(6)
N2 C9 1.352(5)
N2 C5 1.391(5)
N4 C14 1.466(5)
N1 C8 1.294(6)
N3 C12 1.447(5)
C15 C10 1.441(5)
C15 C14 1.462(5)
C14 C13 1.362(5)
C10 C11 1.372(5)
C5 C4 1.387(6)
C5 C6 1.405(5)
C12 C13 1.384(6)
C12 C11 1.386(5)
C6 C1 1.399(6)
C6 C7 1.449(5)
C7 C9 1.392(6)
C7 C8 1.410(5)
C4 C3 1.375(6)
C2 C1 1.371(6)
C2 C3 1.389(6)
