#------------------------------------------------------------------------------
#$Date: 2019-11-17 14:38:07 +0200 (Sun, 17 Nov 2019) $
#$Revision: 230549 $
#$URL: file:///home/coder/svn-repositories/cod/cif/7/05/73/7057366.cif $
#------------------------------------------------------------------------------
#
# This file is available in the Crystallography Open Database (COD),
# http://www.crystallography.net/
#
# All data on this site have been placed in the public domain by the
# contributors.
#
data_7057366
loop_
_publ_author_name
'Takahashi, Yusuke'
'Tsuchiya, Naoya'
'Miura, Youhei'
'Yoshioka, Naoki'
_publ_section_title
;
 Magneto-structural correlation of cyano-substituted
 3-tert-butyl-1-phenyl-1,2,4-benzotriazin-4-yl: spin transition behaviour
 observed in a 6-cyano derivative
;
_journal_issue                   12
_journal_name_full               'New Journal of Chemistry'
_journal_page_first              9949
_journal_paper_doi               10.1039/C7NJ04534D
_journal_volume                  42
_journal_year                    2018
_chemical_formula_moiety         'C18 H17 N4'
_chemical_formula_sum            'C18 H17 N4'
_chemical_formula_weight         289.35
_chemical_melting_point          453.5(5)
_chemical_name_systematic
;
3-tert-Butyl-6-cyano-1,4-dihydro-1-phenyl-1,2,4-benzotriazin-4-yl
;
_space_group_crystal_system      triclinic
_space_group_IT_number           2
_space_group_name_Hall           '-P 1'
_space_group_name_H-M_alt        'P -1'
_symmetry_space_group_name_Hall  '-P 1'
_symmetry_space_group_name_H-M   'P -1'
_atom_sites_solution_hydrogens   geom
_audit_update_record
;
2016-12-27 deposited with the CCDC.
2018-04-27 downloaded from the CCDC.
;
_cell_angle_alpha                86.834(3)
_cell_angle_beta                 80.616(3)
_cell_angle_gamma                74.983(3)
_cell_formula_units_Z            2
_cell_length_a                   6.8527(6)
_cell_length_b                   9.1813(9)
_cell_length_c                   13.1091(12)
_cell_measurement_reflns_used    3534
_cell_measurement_temperature    263.(2)
_cell_measurement_theta_max      25.0521
_cell_measurement_theta_min      2.7675
_cell_volume                     785.88(13)
_computing_cell_refinement       'SAINT V8.37A (Bruker AXS Inc., 2015)'
_computing_data_collection
;
Bruker Instrument Service V6.2.3 (Bruker AXS Inc., 2016)
;
_computing_data_reduction        'SAINT V8.37A (Bruker AXS Inc., 2015)'
_computing_molecular_graphics    'XSHELL V 6.3.1(Bruker AXS Inc., 2004)'
_computing_publication_material
;
Generate Report (Bruker AXS Inc., 2013)
;
_computing_structure_refinement  'SHELXL-2014/7 (Sheldrick, 2014)'
_computing_structure_solution    'SHELXT-2013/1 (Sheldrick, 2013)'
_diffrn_ambient_temperature      263.(2)
_diffrn_detector_area_resol_mean 7.4074
_diffrn_measured_fraction_theta_full 0.940
_diffrn_measured_fraction_theta_max 0.940
_diffrn_measurement_device_type  'Bruker D8 goniometer'
_diffrn_measurement_method       'phi and omega scan'
_diffrn_radiation_monochromator  'multilayered conforcal mirror'
_diffrn_radiation_type           'Mo K\a'
_diffrn_radiation_wavelength     0.71073
_diffrn_reflns_av_R_equivalents  0.0000
_diffrn_reflns_av_unetI/netI     0.0645
_diffrn_reflns_limit_h_max       8
_diffrn_reflns_limit_h_min       -7
_diffrn_reflns_limit_k_max       10
_diffrn_reflns_limit_k_min       -10
_diffrn_reflns_limit_l_max       15
_diffrn_reflns_limit_l_min       0
_diffrn_reflns_number            2512
_diffrn_reflns_theta_full        25.10
_diffrn_reflns_theta_max         25.10
_diffrn_reflns_theta_min         2.77
_diffrn_source                   'micro focus sealed tube'
_diffrn_source_type              'INCOATEC I\mS'
_exptl_absorpt_coefficient_mu    0.075
_exptl_absorpt_correction_T_max  0.99
_exptl_absorpt_correction_T_min  0.91
_exptl_absorpt_correction_type   multi-scan
_exptl_absorpt_process_details   'SADABS V2014/5 (Bruker AXS Inc.)'
_exptl_crystal_colour            black
_exptl_crystal_density_diffrn    1.223
_exptl_crystal_density_method    'not measured'
_exptl_crystal_description       plate-like
_exptl_crystal_F_000             306
_exptl_crystal_size_max          1.239
_exptl_crystal_size_mid          0.538
_exptl_crystal_size_min          0.062
_refine_diff_density_max         0.220
_refine_diff_density_min         -0.276
_refine_ls_extinction_method     none
_refine_ls_goodness_of_fit_ref   1.103
_refine_ls_hydrogen_treatment    constr
_refine_ls_matrix_type           full
_refine_ls_number_parameters     203
_refine_ls_number_reflns         2512
_refine_ls_number_restraints     0
_refine_ls_restrained_S_all      1.103
_refine_ls_R_factor_all          0.0975
_refine_ls_R_factor_gt           0.0647
_refine_ls_shift/su_max          0.001
_refine_ls_shift/su_mean         0.000
_refine_ls_structure_factor_coef Fsqd
_refine_ls_weighting_details
'w=1/[\s^2^(Fo^2^)+(0.0913P)^2^+0.2568P] where P=(Fo^2^+2Fc^2^)/3'
_refine_ls_weighting_scheme      calc
_refine_ls_wR_factor_gt          0.1763
_refine_ls_wR_factor_ref         0.2128
_reflns_number_gt                1707
_reflns_number_total             2512
_reflns_threshold_expression     'I > 2\s(I)'
_cod_data_source_file            c7nj04534d2.cif
_cod_data_source_block           1Ph3tBu6CNBT_263K
_cod_depositor_comments
;
The following automatic conversions were performed:

'_chemical_melting_point' value '453-454' was changed to '453.5(5)' -
the average value was taken and precision was estimated.

Automatic conversion script
Id: cif_fix_values 4973 2017-02-22 13:04:09Z antanas 

 Adding full bibliography for 7057366--7057368.cif.
;
_cod_database_code               7057366
_shelx_res_file
;


    twin5_pub.res created by SHELXL-2014/7

TITL 6CNBT_twin_pub_a.res in P-1
CELL  0.71073   6.8527   9.1813  13.1091   86.834   80.616   74.983
ZERR    2.000   0.0006   0.0009   0.0012    0.003    0.003    0.003
LATT 1
SFAC C  H  N
UNIT 36  34  8
L.S. 10
ACTA
BOND $H
FMAP 2
PLAN 20
TEMP -10
SIZE 1.239 0.538 0.062
CONF
MPLA N1 N2 C1 N3 C2 C7
MPLA C8 C9 C10 C11 C12 C13
WGHT    0.091300    0.256800
BASF   0.48496
FVAR       1.43499
N1    3    0.263261    0.452369    0.753945    11.00000    0.04572    0.03703 =
         0.04414   -0.00901   -0.00766   -0.00563
N2    3    0.344586    0.305905    0.780189    11.00000    0.04587    0.04188 =
         0.05234   -0.00878   -0.01078   -0.00525
N3    3    0.391324    0.241343    0.602015    11.00000    0.04925    0.04931 =
         0.05351   -0.01540   -0.00900   -0.00491
C7    1    0.241819    0.500552    0.654228    11.00000    0.03117    0.04852 =
         0.04337   -0.00872   -0.00558   -0.01227
C8    1    0.202507    0.554041    0.840270    11.00000    0.05240    0.04047 =
         0.03941   -0.00577   -0.00830   -0.00564
C2    1    0.308885    0.389001    0.577857    11.00000    0.03014    0.04732 =
         0.05014   -0.01360   -0.00519   -0.00845
C3    1    0.291127    0.432659    0.475121    11.00000    0.03183    0.06093 =
         0.04439   -0.01832   -0.00310   -0.00962
AFIX  43
H3    2    0.335567    0.360814    0.423436    11.00000   -1.20000
AFIX   0
C6    1    0.161453    0.650728    0.627566    11.00000    0.04697    0.04410 =
         0.04887   -0.00972   -0.00679   -0.00833
AFIX  43
H6    2    0.119883    0.724048    0.678298    11.00000   -1.20000
AFIX   0
C4    1    0.208429    0.581085    0.449748    11.00000    0.03062    0.06038 =
         0.04708   -0.00494   -0.00595   -0.01406
C5    1    0.143598    0.690584    0.525525    11.00000    0.04072    0.04738 =
         0.05164   -0.00142   -0.00883   -0.00956
AFIX  43
H5    2    0.088293    0.790504    0.507698    11.00000   -1.20000
AFIX   0
N4    3    0.168367    0.657974    0.260103    11.00000    0.08155    0.11594 =
         0.05348    0.00275   -0.01812   -0.03732
C1    1    0.403329    0.210521    0.702181    11.00000    0.04258    0.04829 =
         0.05103   -0.01347   -0.00734   -0.00861
C18   1    0.187311    0.624569    0.343715    11.00000    0.04607    0.07729 =
         0.05182   -0.00974   -0.01022   -0.01917
C14   1    0.485554    0.045494    0.730874    11.00000    0.06491    0.04373 =
         0.06585   -0.01178   -0.01767   -0.00525
C13   1    0.350007    0.583521    0.888289    11.00000    0.05598    0.06691 =
         0.05174   -0.01214   -0.01009   -0.01387
AFIX  43
H13   2    0.487578    0.539967    0.865274    11.00000   -1.20000
AFIX   0
C9    1   -0.000675    0.614134    0.874092    11.00000    0.05747    0.08073 =
         0.05671   -0.02325   -0.01109   -0.00136
AFIX  43
H9    2   -0.099241    0.591006    0.841321    11.00000   -1.20000
AFIX   0
C11   1    0.089689    0.741660    1.005477    11.00000    0.10996    0.06441 =
         0.04476   -0.01559   -0.01465    0.00820
AFIX  43
H11   2    0.051347    0.806483    1.061393    11.00000   -1.20000
AFIX   0
C12   1    0.291403    0.679574    0.972051    11.00000    0.09908    0.07601 =
         0.05626   -0.01671   -0.02481   -0.02480
AFIX  43
H12   2    0.390073    0.701514    1.005353    11.00000   -1.20000
AFIX   0
C10   1   -0.057910    0.709749    0.957641    11.00000    0.07549    0.09276 =
         0.05397   -0.02432   -0.00741    0.01695
AFIX  43
H10   2   -0.195551    0.752158    0.981261    11.00000   -1.20000
AFIX   0
C15   1    0.521949    0.024659    0.842441    11.00000    0.14512    0.05396 =
         0.07847   -0.00513   -0.04607    0.00657
AFIX 137
H15A  2    0.626293    0.072650    0.852266    11.00000   -1.50000
H15B  2    0.564987   -0.081032    0.858367    11.00000   -1.50000
H15C  2    0.397597    0.069172    0.887296    11.00000   -1.50000
AFIX   0
C16   1    0.687011   -0.020225    0.658926    11.00000    0.08787    0.06422 =
         0.10349   -0.01032   -0.00304    0.01468
AFIX 137
H16A  2    0.664433   -0.006275    0.588270    11.00000   -1.50000
H16B  2    0.734530   -0.125943    0.673683    11.00000   -1.50000
H16C  2    0.787798    0.030529    0.669921    11.00000   -1.50000
AFIX   0
C17   1    0.330541   -0.038815    0.713009    11.00000    0.11976    0.06544 =
         0.13073    0.01321   -0.04443   -0.03800
AFIX 137
H17A  2    0.203301    0.000960    0.757094    11.00000   -1.50000
H17B  2    0.380741   -0.143997    0.728586    11.00000   -1.50000
H17C  2    0.309661   -0.026665    0.642061    11.00000   -1.50000
AFIX   0
HKLF 5

REM  6CNBT_twin_pub_a.res in P-1
REM R1 =  0.0647 for    1707 Fo > 4sig(Fo)  and  0.0975 for all    2512 data
REM    203 parameters refined using      0 restraints

END

WGHT      0.0840      0.2804

REM Highest difference peak  0.220,  deepest hole -0.276,  1-sigma level  0.056
Q1    1   0.2330  0.5147  0.2944  11.00000  0.05    0.22
Q2    1   0.1502  0.7329  0.3234  11.00000  0.05    0.22
Q3    1   0.7631  0.0328  0.7249  11.00000  0.05    0.21
Q4    1   0.7018  0.1182  0.6150  11.00000  0.05    0.20
Q5    1   0.7674  0.1739  0.6569  11.00000  0.05    0.19
Q6    1   0.1443  0.4765  0.4620  11.00000  0.05    0.19
Q7    1  -0.1015  0.7584  0.3003  11.00000  0.05    0.19
Q8    1   0.4501  0.2983  0.8153  11.00000  0.05    0.18
Q9    1   0.1387  0.2965  0.5409  11.00000  0.05    0.18
Q10   1   0.5288 -0.0508  0.6784  11.00000  0.05    0.18
Q11   1   0.5271  0.4608  0.9066  11.00000  0.05    0.17
Q12   1   0.3869  0.3207  0.4282  11.00000  0.05    0.17
Q13   1   0.3750  0.5366  0.2475  11.00000  0.05    0.17
Q14   1   0.6943 -0.1673  0.6656  11.00000  0.05    0.16
Q15   1   0.2705  0.2566  0.4147  11.00000  0.05    0.16
Q16   1   0.4715  0.5689  0.7061  11.00000  0.05    0.16
Q17   1   0.5921  0.5532  0.9227  11.00000  0.05    0.16
Q18   1  -0.0168  0.8420  0.5325  11.00000  0.05    0.16
Q19   1   0.2761  0.2052  0.5637  11.00000  0.05    0.16
Q20   1   0.1061  0.6757  0.8562  11.00000  0.05    0.15
;
_shelx_res_checksum              33669
loop_
_space_group_symop_operation_xyz
'x, y, z'
'-x, -y, -z'
loop_
_atom_site_type_symbol
_atom_site_label
_atom_site_fract_x
_atom_site_fract_y
_atom_site_fract_z
_atom_site_U_iso_or_equiv
_atom_site_adp_type
_atom_site_calc_flag
_atom_site_refinement_flags_adp
_atom_site_refinement_flags_posn
_atom_site_occupancy
N N1 0.2633(4) 0.4524(3) 0.75394(18) 0.0428(6) Uani d . . 1
N N2 0.3446(4) 0.3059(3) 0.78019(19) 0.0471(7) Uani d . . 1
N N3 0.3913(4) 0.2413(3) 0.6020(2) 0.0514(7) Uani d . . 1
C C7 0.2418(4) 0.5006(3) 0.6542(2) 0.0403(7) Uani d . . 1
C C8 0.2025(5) 0.5540(3) 0.8403(2) 0.0449(8) Uani d . . 1
C C2 0.3089(4) 0.3890(3) 0.5779(2) 0.0424(8) Uani d . . 1
C C3 0.2911(4) 0.4327(4) 0.4751(2) 0.0458(8) Uani d . . 1
H H3 0.3356 0.3608 0.4234 0.055 Uiso calc U R 1
C C6 0.1615(5) 0.6507(4) 0.6276(2) 0.0470(8) Uani d . . 1
H H6 0.1199 0.724 0.6783 0.056 Uiso calc U R 1
C C4 0.2084(4) 0.5811(4) 0.4497(2) 0.0454(8) Uani d . . 1
C C5 0.1436(5) 0.6906(4) 0.5255(2) 0.0467(8) Uani d . . 1
H H5 0.0883 0.7905 0.5077 0.056 Uiso calc U R 1
N N4 0.1684(5) 0.6580(4) 0.2601(3) 0.0806(11) Uani d . . 1
C C1 0.4033(5) 0.2105(3) 0.7022(2) 0.0473(8) Uani d . . 1
C C18 0.1873(5) 0.6246(4) 0.3437(3) 0.0571(9) Uani d . . 1
C C14 0.4856(6) 0.0455(4) 0.7309(3) 0.0585(9) Uani d . . 1
C C13 0.3500(6) 0.5835(4) 0.8883(3) 0.0579(9) Uani d . . 1
H H13 0.4876 0.54 0.8653 0.069 Uiso calc U R 1
C C9 -0.0007(6) 0.6141(4) 0.8741(3) 0.0669(11) Uani d . . 1
H H9 -0.0992 0.591 0.8413 0.08 Uiso calc U R 1
C C11 0.0897(8) 0.7417(4) 1.0055(3) 0.0778(13) Uani d . . 1
H H11 0.0513 0.8065 1.0614 0.093 Uiso calc U R 1
C C12 0.2914(8) 0.6796(5) 0.9721(3) 0.0745(12) Uani d . . 1
H H12 0.3901 0.7015 1.0054 0.089 Uiso calc U R 1
C C10 -0.0579(7) 0.7097(5) 0.9576(3) 0.0806(13) Uani d . . 1
H H10 -0.1956 0.7522 0.9813 0.097 Uiso calc U R 1
C C15 0.5219(9) 0.0247(4) 0.8424(3) 0.0950(16) Uani d . . 1
H H15A 0.6263 0.0727 0.8523 0.142 Uiso calc U R 1
H H15B 0.565 -0.081 0.8584 0.142 Uiso calc U R 1
H H15C 0.3976 0.0692 0.8873 0.142 Uiso calc U R 1
C C16 0.6870(8) -0.0202(5) 0.6589(4) 0.0926(15) Uani d . . 1
H H16A 0.6644 -0.0063 0.5883 0.139 Uiso calc U R 1
H H16B 0.7345 -0.1259 0.6737 0.139 Uiso calc U R 1
H H16C 0.7878 0.0305 0.6699 0.139 Uiso calc U R 1
C C17 0.3305(8) -0.0388(5) 0.7130(4) 0.1003(16) Uani d . . 1
H H17A 0.2033 0.001 0.7571 0.15 Uiso calc U R 1
H H17B 0.3807 -0.144 0.7286 0.15 Uiso calc U R 1
H H17C 0.3097 -0.0267 0.6421 0.15 Uiso calc U R 1
loop_
_atom_site_aniso_label
_atom_site_aniso_U_11
_atom_site_aniso_U_22
_atom_site_aniso_U_33
_atom_site_aniso_U_12
_atom_site_aniso_U_13
_atom_site_aniso_U_23
N1 0.0457(15) 0.0370(14) 0.0441(14) -0.0056(12) -0.0077(11) -0.0090(11)
N2 0.0459(16) 0.0419(15) 0.0523(16) -0.0052(13) -0.0108(12) -0.0088(12)
N3 0.0492(16) 0.0493(16) 0.0535(16) -0.0049(14) -0.0090(13) -0.0154(13)
C7 0.0312(16) 0.0485(18) 0.0434(17) -0.0123(14) -0.0056(12) -0.0087(13)
C8 0.052(2) 0.0405(17) 0.0394(16) -0.0056(16) -0.0083(14) -0.0058(13)
C2 0.0301(16) 0.0473(19) 0.0501(18) -0.0084(15) -0.0052(13) -0.0136(14)
C3 0.0318(16) 0.061(2) 0.0444(17) -0.0096(15) -0.0031(13) -0.0183(15)
C6 0.0470(18) 0.0441(18) 0.0489(18) -0.0083(16) -0.0068(14) -0.0097(14)
C4 0.0306(16) 0.060(2) 0.0471(18) -0.0141(16) -0.0059(13) -0.0049(15)
C5 0.0407(18) 0.0474(18) 0.0516(19) -0.0096(15) -0.0088(14) -0.0014(15)
N4 0.082(2) 0.116(3) 0.0535(19) -0.037(2) -0.0181(17) 0.0028(19)
C1 0.0426(19) 0.0483(19) 0.0510(19) -0.0086(15) -0.0073(14) -0.0135(15)
C18 0.046(2) 0.077(3) 0.052(2) -0.0192(19) -0.0102(16) -0.0097(18)
C14 0.065(2) 0.0437(19) 0.066(2) -0.0053(18) -0.0177(18) -0.0118(16)
C13 0.056(2) 0.067(2) 0.0517(19) -0.0139(19) -0.0101(16) -0.0121(17)
C9 0.057(2) 0.081(3) 0.057(2) -0.001(2) -0.0111(18) -0.0233(19)
C11 0.110(4) 0.064(2) 0.045(2) 0.008(3) -0.015(2) -0.0156(18)
C12 0.099(3) 0.076(3) 0.056(2) -0.025(3) -0.025(2) -0.017(2)
C10 0.075(3) 0.093(3) 0.054(2) 0.017(3) -0.007(2) -0.024(2)
C15 0.145(5) 0.054(2) 0.078(3) 0.007(3) -0.046(3) -0.005(2)
C16 0.088(3) 0.064(3) 0.103(3) 0.015(2) -0.003(3) -0.010(2)
C17 0.120(4) 0.065(3) 0.131(4) -0.038(3) -0.044(3) 0.013(3)
loop_
_atom_type_symbol
_atom_type_description
_atom_type_scat_dispersion_real
_atom_type_scat_dispersion_imag
_atom_type_scat_source
C C 0.0033 0.0016 'International Tables Vol C Tables 4.2.6.8 and 6.1.1.4'
H H 0.0000 0.0000 'International Tables Vol C Tables 4.2.6.8 and 6.1.1.4'
N N 0.0061 0.0033 'International Tables Vol C Tables 4.2.6.8 and 6.1.1.4'
loop_
_geom_angle_atom_site_label_1
_geom_angle_atom_site_label_2
_geom_angle_atom_site_label_3
_geom_angle
N2 N1 C7 123.4(2)
N2 N1 C8 114.1(2)
C7 N1 C8 122.5(2)
C1 N2 N1 115.3(3)
C1 N3 C2 115.8(2)
N1 C7 C6 123.2(3)
N1 C7 C2 116.2(3)
C6 C7 C2 120.6(3)
C13 C8 C9 121.6(3)
C13 C8 N1 118.9(3)
C9 C8 N1 119.4(3)
N3 C2 C3 120.1(3)
N3 C2 C7 121.6(3)
C3 C2 C7 118.3(3)
C4 C3 C2 120.7(3)
C4 C3 H3 119.7
C2 C3 H3 119.7
C5 C6 C7 119.9(3)
C5 C6 H6 120.0
C7 C6 H6 120.0
C3 C4 C5 120.6(3)
C3 C4 C18 120.2(3)
C5 C4 C18 119.1(3)
C6 C5 C4 119.9(3)
C6 C5 H5 120.1
C4 C5 H5 120.1
N2 C1 N3 127.7(3)
N2 C1 C14 115.9(3)
N3 C1 C14 116.4(3)
N4 C18 C4 179.0(4)
C15 C14 C17 109.8(4)
C15 C14 C1 112.3(3)
C17 C14 C1 107.8(3)
C15 C14 C16 109.4(4)
C17 C14 C16 108.2(3)
C1 C14 C16 109.2(3)
C8 C13 C12 118.9(4)
C8 C13 H13 120.6
C12 C13 H13 120.6
C8 C9 C10 119.2(4)
C8 C9 H9 120.4
C10 C9 H9 120.4
C12 C11 C10 120.8(3)
C12 C11 H11 119.6
C10 C11 H11 119.6
C11 C12 C13 120.0(4)
C11 C12 H12 120.0
C13 C12 H12 120.0
C11 C10 C9 119.6(4)
C11 C10 H10 120.2
C9 C10 H10 120.2
C14 C15 H15A 109.5
C14 C15 H15B 109.5
H15A C15 H15B 109.5
C14 C15 H15C 109.5
H15A C15 H15C 109.5
H15B C15 H15C 109.5
C14 C16 H16A 109.5
C14 C16 H16B 109.5
H16A C16 H16B 109.5
C14 C16 H16C 109.5
H16A C16 H16C 109.5
H16B C16 H16C 109.5
C14 C17 H17A 109.5
C14 C17 H17B 109.5
H17A C17 H17B 109.5
C14 C17 H17C 109.5
H17A C17 H17C 109.5
H17B C17 H17C 109.5
loop_
_geom_bond_atom_site_label_1
_geom_bond_atom_site_label_2
_geom_bond_distance
N1 N2 1.364(3)
N1 C7 1.375(4)
N1 C8 1.445(3)
N2 C1 1.325(4)
N3 C1 1.339(4)
N3 C2 1.368(4)
C7 C6 1.394(4)
C7 C2 1.408(4)
C8 C13 1.364(5)
C8 C9 1.366(5)
C2 C3 1.399(4)
C3 C4 1.378(4)
C3 H3 0.93
C6 C5 1.384(4)
C6 H6 0.93
C4 C5 1.389(4)
C4 C18 1.445(5)
C5 H5 0.93
N4 C18 1.141(4)
C1 C14 1.523(5)
C14 C15 1.517(5)
C14 C17 1.520(6)
C14 C16 1.538(6)
C13 C12 1.387(5)
C13 H13 0.93
C9 C10 1.383(5)
C9 H9 0.93
C11 C12 1.360(6)
C11 C10 1.372(6)
C11 H11 0.93
C12 H12 0.93
C10 H10 0.93
C15 H15A 0.96
C15 H15B 0.96
C15 H15C 0.96
C16 H16A 0.96
C16 H16B 0.96
C16 H16C 0.96
C17 H17A 0.96
C17 H17B 0.96
C17 H17C 0.96
loop_
_geom_torsion_atom_site_label_1
_geom_torsion_atom_site_label_2
_geom_torsion_atom_site_label_3
_geom_torsion_atom_site_label_4
_geom_torsion
C7 N1 N2 C1 0.1(4)
C8 N1 N2 C1 -179.4(3)
N2 N1 C7 C6 -179.0(3)
C8 N1 C7 C6 0.4(4)
N2 N1 C7 C2 0.1(4)
C8 N1 C7 C2 179.6(3)
N2 N1 C8 C13 68.6(4)
C7 N1 C8 C13 -110.9(3)
N2 N1 C8 C9 -109.2(3)
C7 N1 C8 C9 71.3(4)
C1 N3 C2 C3 179.6(3)
C1 N3 C2 C7 0.1(4)
N1 C7 C2 N3 -0.3(4)
C6 C7 C2 N3 178.9(3)
N1 C7 C2 C3 -179.7(3)
C6 C7 C2 C3 -0.5(4)
N3 C2 C3 C4 -180.0(3)
C7 C2 C3 C4 -0.5(4)
N1 C7 C6 C5 -179.7(3)
C2 C7 C6 C5 1.2(4)
C2 C3 C4 C5 0.9(4)
C2 C3 C4 C18 -178.9(3)
C7 C6 C5 C4 -0.9(5)
C3 C4 C5 C6 -0.2(4)
C18 C4 C5 C6 179.6(3)
N1 N2 C1 N3 -0.2(5)
N1 N2 C1 C14 -177.3(3)
C2 N3 C1 N2 0.1(5)
C2 N3 C1 C14 177.2(3)
N2 C1 C14 C15 -10.8(5)
N3 C1 C14 C15 171.8(4)
N2 C1 C14 C17 110.3(4)
N3 C1 C14 C17 -67.2(4)
N2 C1 C14 C16 -132.4(3)
N3 C1 C14 C16 50.2(4)
C9 C8 C13 C12 -1.4(5)
N1 C8 C13 C12 -179.1(3)
C13 C8 C9 C10 1.4(6)
N1 C8 C9 C10 179.1(3)
C10 C11 C12 C13 0.4(6)
C8 C13 C12 C11 0.5(6)
C12 C11 C10 C9 -0.4(7)
C8 C9 C10 C11 -0.5(6)
