#------------------------------------------------------------------------------
#$Date: 2019-11-17 14:08:58 +0200 (Sun, 17 Nov 2019) $
#$Revision: 230389 $
#$URL: file:///home/coder/svn-repositories/cod/cif/7/05/73/7057352.cif $
#------------------------------------------------------------------------------
#
# This file is available in the Crystallography Open Database (COD),
# http://www.crystallography.net/
#
# All data on this site have been placed in the public domain by the
# contributors.
#
data_7057352
loop_
_publ_author_name
'Bedekovi\'c, Nikola'
'Stilinovi\'c, Vladimir'
'Fri\<s\<ci\'c, Tomislav'
'Cin\<ci\'c, Dominik'
_publ_section_title
;
 Comparison of isomericmeta- andpara-diiodotetrafluorobenzene as halogen
 bond donors in crystal engineering
;
_journal_issue                   13
_journal_name_full               'New Journal of Chemistry'
_journal_page_first              10584
_journal_paper_doi               10.1039/C8NJ01368C
_journal_volume                  42
_journal_year                    2018
_chemical_formula_moiety         'C6 F4 I2, 2(C6 H7 N)'
_chemical_formula_sum            'C18 H14 F4 I2 N2'
_chemical_formula_weight         588.11
_space_group_crystal_system      monoclinic
_space_group_IT_number           14
_space_group_name_Hall           '-P 2ybc'
_space_group_name_H-M_alt        'P 1 21/c 1'
_symmetry_space_group_name_Hall  '-P 2ybc'
_symmetry_space_group_name_H-M   'P 1 21/c 1'
_atom_sites_solution_hydrogens   geom
_audit_creation_method           SHELXL-2014/7
_audit_update_record
;
2018-04-25 deposited with the CCDC.
2018-04-27 downloaded from the CCDC.
;
_cell_angle_alpha                90
_cell_angle_beta                 107.109(7)
_cell_angle_gamma                90
_cell_formula_units_Z            2
_cell_length_a                   6.7235(4)
_cell_length_b                   18.3649(9)
_cell_length_c                   8.1296(6)
_cell_measurement_reflns_used    4088
_cell_measurement_temperature    150(2)
_cell_measurement_theta_max      35.9613
_cell_measurement_theta_min      3.8655
_cell_volume                     959.39(11)
_computing_cell_refinement
;
        CrysAlis RED, Oxford Diffraction Ltd.,
        Version 1.171.32.29 (release 10-06-2008 CrysAlis171 .NET)
        (compiled Jun 10 2008,16:49:55)
;
_computing_data_collection
;
        CrysAlis CCD, Oxford Diffraction Ltd.,
        Version 1.171.32.29 (release 10-06-2008 CrysAlis171 .NET)
        (compiled Jun 10 2008,16:49:55)
;
_computing_data_reduction
;
        CrysAlis RED, Oxford Diffraction Ltd.,
        Version 1.171.32.29 (release 10-06-2008 CrysAlis171 .NET)
        (compiled Jun 10 2008,16:49:55)
;
_computing_molecular_graphics    'MERCURY (C.F. Macrae et al , 2008)'
_computing_publication_material  'SHELXL-2014/7 (Sheldrick, 2014)'
_computing_structure_refinement  'SHELXL-2014/7 (Sheldrick, 2014)'
_computing_structure_solution    'SHELXS-97 (Sheldrick, 1990)'
_diffrn_ambient_temperature      150(2)
_diffrn_measured_fraction_theta_full 0.993
_diffrn_measured_fraction_theta_max 0.985
_diffrn_measurement_device_type
;
Oxford Diffraction Xcalibur CCD
diffractometer
;
_diffrn_measurement_method       'omega scan'
_diffrn_radiation_type           MoK\a
_diffrn_radiation_wavelength     0.71073
_diffrn_reflns_av_R_equivalents  0.0747
_diffrn_reflns_av_unetI/netI     0.0543
_diffrn_reflns_Laue_measured_fraction_full 0.993
_diffrn_reflns_Laue_measured_fraction_max 0.985
_diffrn_reflns_limit_h_max       8
_diffrn_reflns_limit_h_min       -8
_diffrn_reflns_limit_k_max       23
_diffrn_reflns_limit_k_min       -15
_diffrn_reflns_limit_l_max       10
_diffrn_reflns_limit_l_min       -8
_diffrn_reflns_number            5317
_diffrn_reflns_point_group_measured_fraction_full 0.993
_diffrn_reflns_point_group_measured_fraction_max 0.985
_diffrn_reflns_theta_full        25.242
_diffrn_reflns_theta_max         26.989
_diffrn_reflns_theta_min         3.870
_diffrn_source                   'Enhance (Mo) X-ray Source'
_exptl_absorpt_coefficient_mu    3.319
_exptl_absorpt_correction_T_max  0.99873
_exptl_absorpt_correction_T_min  0.87539
_exptl_absorpt_correction_type   multi-scan
_exptl_absorpt_process_details
;
CrysAlis RED, Oxford Diffraction Ltd.,
Version 1.171.32.29 (release 10-06-2008 CrysAlis171 .NET)
(compiled Jun 10 2008,16:49:55)
Empirical absorption correction using spherical harmonics,
 implemented in SCALE3 ABSPACK scaling algorithm.
;
_exptl_crystal_colour            colourless
_exptl_crystal_density_diffrn    2.036
_exptl_crystal_description       block
_exptl_crystal_F_000             556
_exptl_crystal_size_max          0.59
_exptl_crystal_size_mid          0.46
_exptl_crystal_size_min          0.42
_refine_diff_density_max         1.649
_refine_diff_density_min         -1.041
_refine_diff_density_rms         0.166
_refine_ls_extinction_method     none
_refine_ls_goodness_of_fit_ref   1.168
_refine_ls_hydrogen_treatment    constr
_refine_ls_matrix_type           full
_refine_ls_number_parameters     119
_refine_ls_number_reflns         2067
_refine_ls_number_restraints     0
_refine_ls_restrained_S_all      1.168
_refine_ls_R_factor_all          0.0547
_refine_ls_R_factor_gt           0.0462
_refine_ls_shift/su_max          0.000
_refine_ls_shift/su_mean         0.000
_refine_ls_structure_factor_coef Fsqd
_refine_ls_weighting_details
'w=1/[\s^2^(Fo^2^)+(0.0434P)^2^+1.6093P] where P=(Fo^2^+2Fc^2^)/3'
_refine_ls_weighting_scheme      calc
_refine_ls_wR_factor_gt          0.0998
_refine_ls_wR_factor_ref         0.1026
_reflns_Friedel_coverage         0.000
_reflns_number_gt                1801
_reflns_number_total             2067
_reflns_threshold_expression     'I > 2\s(I)'
_cod_data_source_file            c8nj01368c2.cif
_cod_data_source_block           XIII14
_cod_depositor_comments
'Adding full bibliography for 7057346--7057365.cif.'
_cod_database_code               7057352
_shelx_shelxl_version_number     2014/7
_shelx_space_group_comment
;
The symmetry employed for this shelxl refinement is uniquely defined
by the following loop, which should always be used as a source of
symmetry information in preference to the above space-group names.
They are only intended as comments.
;
_shelx_res_file
;

    shelx.res created by SHELXL-2014/7

TITL PRELIM_1 in P2(1)/c
CELL  0.71073   6.7235  18.3649   8.1296   90.000  107.109   90.000
ZERR     4.00   0.0004   0.0009   0.0006    0.000    0.007    0.000
LATT   1
SYMM  - X, 1/2 + Y, 1/2 - Z
SFAC  C    H    N    F    I
UNIT  36 28 4 8 4
MERG   2
OMIT    -4.00  54.00
FMAP   2
PLAN   25
ACTA
L.S.  15
WGHT    0.043400    1.609300
FVAR       3.32666
I1    5   -0.420676    0.080775    0.193028    11.00000    0.02144    0.02899 =
         0.02353   -0.00054    0.00167    0.00290
F2    4    0.376705    0.066860    0.587366    11.00000    0.02064    0.03634 =
         0.03834    0.00415    0.00089   -0.00769
F1    4    0.058385    0.126679    0.350503    11.00000    0.03134    0.02957 =
         0.03720    0.00904    0.00307   -0.00576
N1    3    0.215241    0.137968    0.945930    11.00000    0.02369    0.02843 =
         0.02536    0.00141    0.00315   -0.00097
C3    1   -0.163465    0.158916    0.697661    11.00000    0.02788    0.04692 =
         0.02922   -0.00209   -0.00044    0.00804
AFIX  43
H7    2   -0.290044    0.166059    0.613801    11.00000   -1.20000
AFIX   0
C5    1    0.048283    0.096475    0.939760    11.00000    0.02891    0.03330 =
         0.03261    0.00761    0.00629   -0.00328
AFIX  43
H6    2    0.062389    0.060169    1.022158    11.00000   -1.20000
AFIX   0
C6    1    0.382630    0.236726    0.838086    11.00000    0.03783    0.03383 =
         0.04361    0.00149    0.01498   -0.00464
AFIX 137
H3    2    0.393467    0.274759    0.921279    11.00000   -1.50000
H2    2    0.368906    0.257858    0.727285    11.00000   -1.50000
H1    2    0.505415    0.206992    0.871579    11.00000   -1.50000
AFIX   0
C9    1    0.190719    0.032433    0.546334    11.00000    0.01616    0.03344 =
         0.02406   -0.00361    0.00461   -0.00611
C1    1    0.193502    0.190303    0.828802    11.00000    0.02654    0.02851 =
         0.02764   -0.00259    0.00905    0.00237
C2    1    0.005526    0.202429    0.702852    11.00000    0.03713    0.03167 =
         0.02946    0.00088    0.00424    0.00760
AFIX  43
H4    2   -0.006163    0.239565    0.622784    11.00000   -1.20000
AFIX   0
C4    1   -0.141518    0.104725    0.818772    11.00000    0.02484    0.04765 =
         0.03640   -0.00520    0.00896   -0.00723
AFIX  43
H5    2   -0.252578    0.074495    0.818520    11.00000   -1.20000
AFIX   0
C8    1    0.027934    0.063707    0.423390    11.00000    0.02700    0.02062 =
         0.02428    0.00019    0.00810   -0.00037
C7    1   -0.170219    0.031504    0.373929    11.00000    0.01866    0.02356 =
         0.02479   -0.00311    0.00288    0.00059
HKLF    4

REM  PRELIM_1 in P2(1)/c
REM R1 =  0.0462 for    1801 Fo > 4sig(Fo)  and  0.0547 for all    2067 data
REM    119 parameters refined using      0 restraints

END

WGHT      0.0434      1.6093

REM Highest difference peak  1.649,  deepest hole -1.041,  1-sigma level  0.166
Q1    1  -0.4198  0.0379  0.1913  11.00000  0.05    1.65
Q2    1  -0.4193  0.1242  0.1923  11.00000  0.05    1.58
Q3    1  -0.3395  0.0822  0.3061  11.00000  0.05    1.27
Q4    1  -0.4832  0.0818  0.0645  11.00000  0.05    0.95
Q5    1  -0.4669  0.0807  0.2627  11.00000  0.05    0.86
Q6    1  -0.3741  0.0805  0.1201  11.00000  0.05    0.76
Q7    1  -0.2698  0.2362  0.5791  11.00000  0.05    0.65
Q8    1   0.1282  0.0712  0.5319  11.00000  0.05    0.50
Q9    1   0.1012 -0.0281  0.4382  11.00000  0.05    0.46
Q10   1   0.1975  0.1803  0.9310  11.00000  0.05    0.43
Q11   1   0.0936  0.0256  0.4354  11.00000  0.05    0.43
Q12   1  -0.4401  0.1129  0.4969  11.00000  0.05    0.42
Q13   1   0.3656  0.1000  0.9610  11.00000  0.05    0.40
Q14   1  -0.0254  0.1697  0.3443  11.00000  0.05    0.40
Q15   1  -0.1560  0.0748  0.3911  11.00000  0.05    0.40
Q16   1   0.4756  0.3425  0.7785  11.00000  0.05    0.38
Q17   1   0.3713  0.1067  0.5962  11.00000  0.05    0.38
Q18   1  -0.2681  0.0320  0.9314  11.00000  0.05    0.38
Q19   1   0.3441  0.2842  0.8226  11.00000  0.05    0.37
Q20   1  -0.1249  0.1121  0.7268  11.00000  0.05    0.37
Q21   1   0.2203  0.1394  0.8374  11.00000  0.05    0.36
Q22   1   0.3044  0.0701  0.6079  11.00000  0.05    0.36
Q23   1  -0.6055  0.0015  0.0407  11.00000  0.05    0.35
Q24   1  -0.0335  0.0565  0.8818  11.00000  0.05    0.35
Q25   1   0.3292  0.1375  1.0728  11.00000  0.05    0.34
;
_shelx_res_checksum              36737
loop_
_space_group_symop_operation_xyz
'x, y, z'
'-x, y+1/2, -z+1/2'
'-x, -y, -z'
'x, -y-1/2, z-1/2'
loop_
_atom_site_label
_atom_site_type_symbol
_atom_site_fract_x
_atom_site_fract_y
_atom_site_fract_z
_atom_site_U_iso_or_equiv
_atom_site_adp_type
_atom_site_occupancy
_atom_site_site_symmetry_order
_atom_site_calc_flag
_atom_site_refinement_flags_posn
_atom_site_refinement_flags_adp
I1 I -0.42068(5) 0.08078(2) 0.19303(4) 0.02571(14) Uani 1 1 d . .
F2 F 0.3767(5) 0.06686(18) 0.5874(5) 0.0334(8) Uani 1 1 d . .
F1 F 0.0584(5) 0.12668(17) 0.3505(4) 0.0342(8) Uani 1 1 d . .
N1 N 0.2152(7) 0.1380(2) 0.9459(6) 0.0267(9) Uani 1 1 d . .
C3 C -0.1635(9) 0.1589(4) 0.6977(8) 0.0366(13) Uani 1 1 d . .
H7 H -0.2900 0.1661 0.6138 0.044 Uiso 1 1 calc R U
C5 C 0.0483(9) 0.0965(3) 0.9398(8) 0.0322(12) Uani 1 1 d . .
H6 H 0.0624 0.0602 1.0222 0.039 Uiso 1 1 calc R U
C6 C 0.3826(9) 0.2367(3) 0.8381(9) 0.0378(13) Uani 1 1 d . .
H3 H 0.3935 0.2748 0.9213 0.057 Uiso 1 1 calc R U
H2 H 0.3689 0.2579 0.7273 0.057 Uiso 1 1 calc R U
H1 H 0.5054 0.2070 0.8716 0.057 Uiso 1 1 calc R U
C9 C 0.1907(8) 0.0324(3) 0.5463(7) 0.0248(11) Uani 1 1 d . .
C1 C 0.1935(8) 0.1903(3) 0.8288(7) 0.0273(11) Uani 1 1 d . .
C2 C 0.0055(9) 0.2024(3) 0.7029(8) 0.0339(13) Uani 1 1 d . .
H4 H -0.0062 0.2396 0.6228 0.041 Uiso 1 1 calc R U
C4 C -0.1415(9) 0.1047(4) 0.8188(8) 0.0363(13) Uani 1 1 d . .
H5 H -0.2526 0.0745 0.8185 0.044 Uiso 1 1 calc R U
C8 C 0.0279(8) 0.0637(3) 0.4234(7) 0.0238(11) Uani 1 1 d . .
C7 C -0.1702(7) 0.0315(3) 0.3739(7) 0.0231(10) Uani 1 1 d . .
loop_
_atom_site_aniso_label
_atom_site_aniso_U_11
_atom_site_aniso_U_22
_atom_site_aniso_U_33
_atom_site_aniso_U_23
_atom_site_aniso_U_13
_atom_site_aniso_U_12
I1 0.02144(19) 0.0290(2) 0.0235(2) -0.00054(14) 0.00167(14) 0.00290(14)
F2 0.0206(15) 0.0363(18) 0.0383(19) 0.0042(15) 0.0009(14) -0.0077(13)
F1 0.0313(16) 0.0296(17) 0.0372(18) 0.0090(15) 0.0031(15) -0.0058(14)
N1 0.024(2) 0.028(2) 0.025(2) 0.0014(19) 0.0032(18) -0.0010(18)
C3 0.028(3) 0.047(4) 0.029(3) -0.002(3) 0.000(2) 0.008(3)
C5 0.029(3) 0.033(3) 0.033(3) 0.008(3) 0.006(2) -0.003(2)
C6 0.038(3) 0.034(3) 0.044(3) 0.001(3) 0.015(3) -0.005(3)
C9 0.016(2) 0.033(3) 0.024(3) -0.004(2) 0.005(2) -0.0061(19)
C1 0.027(3) 0.029(3) 0.028(3) -0.003(2) 0.009(2) 0.002(2)
C2 0.037(3) 0.032(3) 0.029(3) 0.001(3) 0.004(3) 0.008(2)
C4 0.025(3) 0.048(3) 0.036(3) -0.005(3) 0.009(2) -0.007(3)
C8 0.027(3) 0.021(2) 0.024(3) 0.000(2) 0.008(2) -0.0004(19)
C7 0.019(2) 0.024(2) 0.025(3) -0.003(2) 0.003(2) 0.0006(18)
loop_
_atom_type_symbol
_atom_type_description
_atom_type_scat_dispersion_real
_atom_type_scat_dispersion_imag
_atom_type_scat_source
C C 0.0033 0.0016 'International Tables Vol C Tables 4.2.6.8 and 6.1.1.4'
H H 0.0000 0.0000 'International Tables Vol C Tables 4.2.6.8 and 6.1.1.4'
N N 0.0061 0.0033 'International Tables Vol C Tables 4.2.6.8 and 6.1.1.4'
F F 0.0171 0.0103 'International Tables Vol C Tables 4.2.6.8 and 6.1.1.4'
I I -0.4742 1.8119 'International Tables Vol C Tables 4.2.6.8 and 6.1.1.4'
loop_
_geom_angle_atom_site_label_1
_geom_angle_atom_site_label_2
_geom_angle_atom_site_label_3
_geom_angle
_geom_angle_site_symmetry_1
_geom_angle_site_symmetry_3
C1 N1 C5 117.9(5) . .
C4 C3 C2 118.9(5) . .
N1 C5 C4 123.7(5) . .
F2 C9 C7 119.9(5) . 3_556
F2 C9 C8 117.7(5) . .
C7 C9 C8 122.3(5) 3_556 .
N1 C1 C2 121.8(5) . .
N1 C1 C6 117.2(5) . .
C2 C1 C6 121.0(5) . .
C3 C2 C1 119.5(5) . .
C5 C4 C3 118.3(6) . .
F1 C8 C9 119.3(5) . .
F1 C8 C7 119.4(5) . .
C9 C8 C7 121.2(5) . .
C9 C7 C8 116.4(5) 3_556 .
C9 C7 I1 122.2(4) 3_556 .
C8 C7 I1 121.3(4) . .
loop_
_geom_bond_atom_site_label_1
_geom_bond_atom_site_label_2
_geom_bond_distance
_geom_bond_site_symmetry_2
I1 C7 2.088(5) .
F2 C9 1.353(6) .
F1 C8 1.342(6) .
N1 C1 1.330(7) .
N1 C5 1.345(7) .
C3 C4 1.377(9) .
C3 C2 1.380(9) .
C5 C4 1.371(8) .
C6 C1 1.514(8) .
C9 C7 1.368(7) 3_556
C9 C8 1.372(8) .
C1 C2 1.391(8) .
C8 C7 1.404(7) .
C7 C9 1.368(7) 3_556
