#------------------------------------------------------------------------------
#$Date: 2019-11-17 13:36:36 +0200 (Sun, 17 Nov 2019) $
#$Revision: 230205 $
#$URL: file:///home/coder/svn-repositories/cod/cif/7/05/77/7057793.cif $
#------------------------------------------------------------------------------
#
# This file is available in the Crystallography Open Database (COD),
# http://www.crystallography.net/
#
# All data on this site have been placed in the public domain by the
# contributors.
#
data_7057793
loop_
_publ_author_name
'Vaz, Patr\'icia A. A. M.'
'Rocha, Jo\~ao'
'Silva, Artur M. S.'
'Guieu, Samuel'
_publ_section_title
;
 Aggregation-induced emission enhancement of chiral boranils
;
_journal_issue                   22
_journal_name_full               'New Journal of Chemistry'
_journal_page_first              18166
_journal_paper_doi               10.1039/C8NJ03228A
_journal_volume                  42
_journal_year                    2018
_chemical_absolute_configuration S
_chemical_formula_moiety         'C15 H14 B F2 N O'
_chemical_formula_sum            'C15 H14 B F2 N O'
_chemical_formula_weight         273.08
_chemical_name_systematic
;
(S)-2,2-difluoro-3-(1-phenylethyl)-2H-2l4,3l4-benzo[e][1,3,2]oxazaborinine
;
_space_group_crystal_system      monoclinic
_space_group_IT_number           4
_space_group_name_Hall           'P 2yb'
_space_group_name_H-M_alt        'P 1 21 1'
_symmetry_space_group_name_Hall  'P 2yb'
_symmetry_space_group_name_H-M   'P 1 21 1'
_atom_sites_solution_hydrogens   geom
_atom_sites_solution_primary     direct
_atom_sites_solution_secondary   difmap
_audit_creation_method           SHELXL-2014
_audit_update_record
;
2018-06-28 deposited with the CCDC.
2018-10-08 downloaded from the CCDC.
;
_cell_angle_alpha                90
_cell_angle_beta                 105.594(7)
_cell_angle_gamma                90
_cell_formula_units_Z            2
_cell_length_a                   8.1632(11)
_cell_length_b                   6.2464(7)
_cell_length_c                   13.8361(16)
_cell_measurement_reflns_used    36
_cell_measurement_temperature    150(2)
_cell_measurement_theta_max      30.139
_cell_measurement_theta_min      1.528
_cell_volume                     679.54(14)
_computing_cell_refinement       'Bruker SMART'
_computing_data_collection       'Bruker SMART'
_computing_data_reduction        'Bruker SAINT'
_computing_molecular_graphics    'PLATON (Spek, 2009)'
_computing_publication_material  'SHELXL-2014 (Sheldrick, 2014)'
_computing_structure_refinement  'SHELXL-2014 (Sheldrick, 2014)'
_computing_structure_solution    'SHELXL-2014 (Sheldrick, 2014)'
_diffrn_ambient_temperature      150(2)
_diffrn_measured_fraction_theta_full 1.000
_diffrn_measured_fraction_theta_max 0.998
_diffrn_measurement_device_type  ccd
_diffrn_measurement_method       'omega and phi scans'
_diffrn_radiation_type           MoK\a
_diffrn_radiation_wavelength     0.71073
_diffrn_reflns_av_R_equivalents  0.0654
_diffrn_reflns_av_unetI/netI     0.0976
_diffrn_reflns_Laue_measured_fraction_full 1.000
_diffrn_reflns_Laue_measured_fraction_max 0.998
_diffrn_reflns_limit_h_max       11
_diffrn_reflns_limit_h_min       -11
_diffrn_reflns_limit_k_max       8
_diffrn_reflns_limit_k_min       -8
_diffrn_reflns_limit_l_max       19
_diffrn_reflns_limit_l_min       -16
_diffrn_reflns_number            10694
_diffrn_reflns_point_group_measured_fraction_full 1.000
_diffrn_reflns_point_group_measured_fraction_max 0.996
_diffrn_reflns_theta_full        25.242
_diffrn_reflns_theta_max         30.139
_diffrn_reflns_theta_min         1.528
_diffrn_source                   'fine-focus sealed tube'
_exptl_absorpt_coefficient_mu    0.101
_exptl_absorpt_correction_type   multi-scan
_exptl_absorpt_process_details   '(SADABS; Bruker, 2008)'
_exptl_crystal_colour            yellow
_exptl_crystal_density_diffrn    1.335
_exptl_crystal_description       needle
_exptl_crystal_F_000             284
_exptl_crystal_preparation       Luminescent
_exptl_crystal_recrystallization_method
'Re-crystallisation from solvent: dichloromethane'
_exptl_crystal_size_max          1.000
_exptl_crystal_size_mid          0.100
_exptl_crystal_size_min          0.080
_exptl_transmission_factor_max   0.7460
_exptl_transmission_factor_min   0.4762
_refine_diff_density_max         0.202
_refine_diff_density_min         -0.207
_refine_diff_density_rms         0.044
_refine_ls_abs_structure_details
;
 Flack x determined using 926 quotients [(I+)-(I-)]/[(I+)+(I-)]
 (Parsons, Flack and Wagner, Acta Cryst. B69 (2013) 249-259).
;
_refine_ls_abs_structure_Flack   -0.8(10)
_refine_ls_extinction_method     none
_refine_ls_goodness_of_fit_ref   1.051
_refine_ls_hydrogen_treatment    constr
_refine_ls_matrix_type           full
_refine_ls_number_parameters     182
_refine_ls_number_reflns         4003
_refine_ls_number_restraints     1
_refine_ls_restrained_S_all      1.051
_refine_ls_R_factor_all          0.0905
_refine_ls_R_factor_gt           0.0610
_refine_ls_shift/su_max          0.000
_refine_ls_shift/su_mean         0.000
_refine_ls_structure_factor_coef Fsqd
_refine_ls_weighting_details
'w=1/[\s^2^(Fo^2^)+(0.0271P)^2^] where P=(Fo^2^+2Fc^2^)/3'
_refine_ls_weighting_scheme      calc
_refine_ls_wR_factor_gt          0.1307
_refine_ls_wR_factor_ref         0.1466
_reflns_Friedel_coverage         0.840
_reflns_Friedel_fraction_full    1.000
_reflns_Friedel_fraction_max     0.993
_reflns_number_gt                2760
_reflns_number_total             4003
_reflns_threshold_expression     'I > 2\s(I)'
_cod_data_source_file            c8nj03228a2.cif
_cod_data_source_block           shelx_CCDC4
_cod_depositor_comments
'Adding full bibliography for 7057789--7057793.cif.'
_cod_database_code               7057793
_shelx_space_group_comment
;
The symmetry employed for this shelxl refinement is uniquely defined
by the following loop, which should always be used as a source of
symmetry information in preference to the above space-group names.
They are only intended as comments.
;
_shelx_estimated_absorpt_t_min   0.906
_shelx_estimated_absorpt_t_max   0.992
_shelxl_version_number           2014-3
_shelx_res_file
;
TITL PV448 in P2(1)
CELL  0.71073   8.1632   6.2464  13.8361   90.000  105.594   90.000
ZERR     2.00   0.0011   0.0007   0.0016    0.000    0.007    0.000
LATT  -1
SYMM  - X, 1/2 + Y, - Z
SFAC  C    H    B    N    O    F
UNIT  30   28   2    2    2    4
MERG   2
FMAP   2
PLAN   20
SIZE     0.080   0.100   1.000
ACTA
BOND
L.S.  99
TEMP  -123.00
WGHT    0.027100
FVAR       0.40434
MOLE    1
O1    5    0.827944    0.316687    0.155838    11.00000    0.04924    0.03135 =
         0.03998    0.00079    0.00798    0.01547
C07   1    1.010802   -0.064745    0.205344    11.00000    0.03198    0.02435 =
         0.02465    0.00167    0.00796    0.00204
AFIX  43
H07   2    1.068113   -0.197946    0.220553    11.00000   -1.20000
AFIX   0
N1    4    1.041901    0.085887    0.271877    11.00000    0.03433    0.02470 =
         0.02359   -0.00034    0.00903    0.00126
C06   1    0.891522   -0.035162    0.108945    11.00000    0.03103    0.02894 =
         0.02339    0.00190    0.00743    0.00082
F1A   6    1.092906    0.451410    0.243505    11.00000    0.05877    0.02382 =
         0.07376    0.00302    0.00651   -0.00146
C05   1    0.862486   -0.200199    0.037216    11.00000    0.04337    0.03501 =
         0.03133   -0.00118    0.00837    0.00168
AFIX  43
H05   2    0.923128   -0.331300    0.051705    11.00000   -1.20000
AFIX   0
C10   1    1.327837   -0.048783    0.359991    11.00000    0.03783    0.02731 =
         0.02697   -0.00109   -0.00405   -0.00295
C01   1    0.803688    0.158809    0.087943    11.00000    0.03378    0.03444 =
         0.03038    0.00348    0.00947    0.00522
C08   1    1.163930    0.045093    0.373252    11.00000    0.04216    0.03190 =
         0.02240   -0.00310    0.00276   -0.00363
AFIX  13
H08   2    1.192142    0.186704    0.407381    11.00000   -1.20000
AFIX   0
F1B   6    0.896189    0.377325    0.326429    11.00000    0.08566    0.05794 =
         0.04321   -0.00601    0.02720    0.02937
C04   1    0.745170   -0.170324   -0.054452    11.00000    0.05749    0.04966 =
         0.02745   -0.00614    0.00444   -0.00606
AFIX  43
H04   2    0.724454   -0.280937   -0.103367    11.00000   -1.20000
AFIX   0
C02   1    0.684548    0.186401   -0.005661    11.00000    0.03928    0.04758 =
         0.04092    0.01191    0.00470    0.01087
AFIX  43
H02   2    0.623270    0.316869   -0.021077    11.00000   -1.20000
AFIX   0
C15   1    1.424312    0.074547    0.311255    11.00000    0.04043    0.04076 =
         0.03752    0.00329    0.00489   -0.00047
AFIX  43
H15   2    1.388616    0.215830    0.290278    11.00000   -1.20000
AFIX   0
C03   1    0.657413    0.022801   -0.074795    11.00000    0.04676    0.05825 =
         0.03174    0.00750   -0.00207    0.00546
AFIX  43
H03   2    0.576795    0.042114   -0.137975    11.00000   -1.20000
AFIX   0
C09   1    1.073254   -0.088074    0.435593    11.00000    0.05248    0.06079 =
         0.02551    0.00371    0.01034   -0.01183
AFIX 137
H09A  2    0.969014   -0.014554    0.439212    11.00000   -1.50000
H09B  2    1.148192   -0.106600    0.503454    11.00000   -1.50000
H09C  2    1.044304   -0.228617    0.404163    11.00000   -1.50000
AFIX   0
C11   1    1.384196   -0.252684    0.391448    11.00000    0.04702    0.03148 =
         0.04693    0.00444   -0.00873   -0.00259
AFIX  43
H11   2    1.322154   -0.338492    0.425999    11.00000   -1.20000
AFIX   0
C12   1    1.532891   -0.332502    0.372290    11.00000    0.04731    0.04069 =
         0.07395   -0.01080   -0.02277    0.01302
AFIX  43
H12   2    1.571139   -0.472558    0.393977    11.00000   -1.20000
AFIX   0
B1    3    0.960973    0.314825    0.249105    11.00000    0.04451    0.02956 =
         0.03423   -0.00238    0.01229    0.00683
C14   1    1.570063   -0.005725    0.293265    11.00000    0.03849    0.07103 =
         0.05955    0.00025    0.01005   -0.00223
AFIX  43
H14   2    1.634402    0.080603    0.260358    11.00000   -1.20000
AFIX   0
C13   1    1.623436   -0.210469    0.322630    11.00000    0.03567    0.07114 =
         0.07171   -0.02025   -0.00154    0.00733
AFIX  43
H13   2    1.722616   -0.266743    0.308490    11.00000   -1.20000
AFIX   0
HKLF    4

REM  PV448 in P2(1)
REM R1 =  0.0610 for    2760 Fo > 4sig(Fo)  and  0.0905 for all    4003 data
REM    182 parameters refined using      1 restraints

END

WGHT      0.0273      0.0000

REM Highest difference peak  0.202,  deepest hole -0.207,  1-sigma level  0.044
Q1    1   1.2936 -0.1830  0.3439  11.00000  0.05    0.19
Q2    1   0.7823  0.3109  0.2977  11.00000  0.05    0.18
Q3    1   0.9824 -0.0040  0.1502  11.00000  0.05    0.18
Q4    1   1.6733 -0.4016  0.3388  11.00000  0.05    0.17
Q5    1   0.9598 -0.4747 -0.0002  11.00000  0.05    0.15
Q6    1   1.4425 -0.2778  0.4016  11.00000  0.05    0.15
Q7    1   1.2993  0.3439  0.3590  11.00000  0.05    0.15
Q8    1   0.8749  0.2625  0.2050  11.00000  0.05    0.15
Q9    1   1.1012  0.5331  0.3006  11.00000  0.05    0.15
Q10   1   1.2126 -0.1878  0.1175  11.00000  0.05    0.15
Q11   1   1.7286  0.1504  0.2785  11.00000  0.05    0.14
Q12   1   0.7652  0.2387  0.3558  11.00000  0.05    0.14
Q13   1   1.3868 -0.5562  0.3411  11.00000  0.05    0.14
Q14   1   0.9904  0.4524  0.2677  11.00000  0.05    0.14
Q15   1   1.2823  0.5911  0.2550  11.00000  0.05    0.14
Q16   1   1.3884 -0.1280  0.4070  11.00000  0.05    0.14
Q17   1   0.7364  0.0733  0.1516  11.00000  0.05    0.14
Q18   1   1.6571 -0.0608  0.1353  11.00000  0.05    0.14
Q19   1   0.9130  0.2675  0.3845  11.00000  0.05    0.14
Q20   1   1.0147 -0.1764  0.4022  11.00000  0.05    0.14
;
_shelx_res_checksum              39710
loop_
_space_group_symop_operation_xyz
'x, y, z'
'-x, y+1/2, -z'
loop_
_atom_site_label
_atom_site_type_symbol
_atom_site_fract_x
_atom_site_fract_y
_atom_site_fract_z
_atom_site_U_iso_or_equiv
_atom_site_adp_type
_atom_site_occupancy
_atom_site_site_symmetry_order
_atom_site_calc_flag
_atom_site_refinement_flags_posn
_atom_site_refinement_flags_adp
O1 O 0.8279(3) 0.3167(4) 0.15584(16) 0.0410(6) Uani 1 1 d . .
C07 C 1.0108(3) -0.0647(5) 0.20534(18) 0.0269(6) Uani 1 1 d . .
H07 H 1.0681 -0.1979 0.2206 0.032 Uiso 1 1 calc R U
N1 N 1.0419(3) 0.0859(4) 0.27188(15) 0.0273(5) Uani 1 1 d . .
C06 C 0.8915(4) -0.0352(5) 0.10894(19) 0.0278(6) Uani 1 1 d . .
F1A F 1.0929(3) 0.4514(3) 0.24351(17) 0.0543(6) Uani 1 1 d . .
C05 C 0.8625(4) -0.2002(6) 0.0372(2) 0.0369(7) Uani 1 1 d . .
H05 H 0.9231 -0.3313 0.0517 0.044 Uiso 1 1 calc R U
C10 C 1.3278(4) -0.0488(5) 0.3600(2) 0.0332(7) Uani 1 1 d . .
C01 C 0.8037(4) 0.1588(5) 0.0879(2) 0.0327(7) Uani 1 1 d . .
C08 C 1.1639(4) 0.0451(5) 0.37325(19) 0.0333(7) Uani 1 1 d . .
H08 H 1.1921 0.1867 0.4074 0.040 Uiso 1 1 calc R U
F1B F 0.8962(3) 0.3773(4) 0.32643(14) 0.0604(7) Uani 1 1 d . .
C04 C 0.7452(4) -0.1703(6) -0.0545(2) 0.0462(9) Uani 1 1 d . .
H04 H 0.7245 -0.2809 -0.1034 0.055 Uiso 1 1 calc R U
C02 C 0.6845(4) 0.1864(6) -0.0057(2) 0.0438(8) Uani 1 1 d . .
H02 H 0.6233 0.3169 -0.0211 0.053 Uiso 1 1 calc R U
C15 C 1.4243(4) 0.0745(6) 0.3113(2) 0.0407(8) Uani 1 1 d . .
H15 H 1.3886 0.2158 0.2903 0.049 Uiso 1 1 calc R U
C03 C 0.6574(4) 0.0228(6) -0.0748(2) 0.0480(9) Uani 1 1 d . .
H03 H 0.5768 0.0421 -0.1380 0.058 Uiso 1 1 calc R U
C09 C 1.0733(5) -0.0881(7) 0.4356(2) 0.0463(9) Uani 1 1 d . .
H09A H 0.9690 -0.0146 0.4392 0.069 Uiso 1 1 calc R U
H09B H 1.1482 -0.1066 0.5035 0.069 Uiso 1 1 calc R U
H09C H 1.0443 -0.2286 0.4042 0.069 Uiso 1 1 calc R U
C11 C 1.3842(4) -0.2527(6) 0.3914(2) 0.0459(9) Uani 1 1 d . .
H11 H 1.3222 -0.3385 0.4260 0.055 Uiso 1 1 calc R U
C12 C 1.5329(5) -0.3325(7) 0.3723(3) 0.0615(12) Uani 1 1 d . .
H12 H 1.5711 -0.4726 0.3940 0.074 Uiso 1 1 calc R U
B1 B 0.9610(5) 0.3148(6) 0.2491(3) 0.0358(8) Uani 1 1 d . .
C14 C 1.5701(5) -0.0057(7) 0.2933(3) 0.0570(11) Uani 1 1 d . .
H14 H 1.6344 0.0806 0.2604 0.068 Uiso 1 1 calc R U
C13 C 1.6234(5) -0.2105(8) 0.3226(3) 0.0626(12) Uani 1 1 d . .
H13 H 1.7226 -0.2667 0.3085 0.075 Uiso 1 1 calc R U
loop_
_atom_site_aniso_label
_atom_site_aniso_U_11
_atom_site_aniso_U_22
_atom_site_aniso_U_33
_atom_site_aniso_U_23
_atom_site_aniso_U_13
_atom_site_aniso_U_12
O1 0.0492(13) 0.0313(12) 0.0400(11) 0.0008(10) 0.0080(10) 0.0155(10)
C07 0.0320(13) 0.0244(14) 0.0247(12) 0.0017(11) 0.0080(11) 0.0020(12)
N1 0.0343(12) 0.0247(13) 0.0236(11) -0.0003(10) 0.0090(9) 0.0013(11)
C06 0.0310(13) 0.0289(16) 0.0234(12) 0.0019(12) 0.0074(10) 0.0008(12)
F1A 0.0588(12) 0.0238(10) 0.0738(13) 0.0030(10) 0.0065(10) -0.0015(9)
C05 0.0434(17) 0.0350(19) 0.0313(14) -0.0012(13) 0.0084(13) 0.0017(15)
C10 0.0378(15) 0.0273(15) 0.0270(13) -0.0011(12) -0.0040(11) -0.0030(13)
C01 0.0338(15) 0.0344(18) 0.0304(14) 0.0035(13) 0.0095(12) 0.0052(14)
C08 0.0422(16) 0.0319(17) 0.0224(12) -0.0031(13) 0.0028(11) -0.0036(14)
F1B 0.0857(16) 0.0579(15) 0.0432(11) -0.0060(10) 0.0272(11) 0.0294(12)
C04 0.057(2) 0.050(2) 0.0274(14) -0.0061(15) 0.0044(14) -0.0061(18)
C02 0.0393(17) 0.048(2) 0.0409(16) 0.0119(16) 0.0047(14) 0.0109(16)
C15 0.0404(17) 0.041(2) 0.0375(15) 0.0033(15) 0.0049(13) -0.0005(15)
C03 0.0468(19) 0.058(3) 0.0317(16) 0.0075(16) -0.0021(14) 0.0055(18)
C09 0.0525(19) 0.061(2) 0.0255(14) 0.0037(15) 0.0103(13) -0.0118(18)
C11 0.047(2) 0.0315(19) 0.0469(19) 0.0044(16) -0.0087(15) -0.0026(16)
C12 0.047(2) 0.041(2) 0.074(3) -0.011(2) -0.0228(19) 0.0130(19)
B1 0.0445(19) 0.030(2) 0.0342(17) -0.0024(15) 0.0123(15) 0.0068(16)
C14 0.0385(19) 0.071(3) 0.060(2) 0.000(2) 0.0101(16) -0.0022(19)
C13 0.0357(18) 0.071(3) 0.072(3) -0.020(2) -0.0015(18) 0.007(2)
loop_
_atom_type_symbol
_atom_type_description
_atom_type_scat_dispersion_real
_atom_type_scat_dispersion_imag
_atom_type_scat_source
C C 0.0033 0.0016 'International Tables Vol C Tables 4.2.6.8 and 6.1.1.4'
H H 0.0000 0.0000 'International Tables Vol C Tables 4.2.6.8 and 6.1.1.4'
B B 0.0013 0.0007 'International Tables Vol C Tables 4.2.6.8 and 6.1.1.4'
N N 0.0061 0.0033 'International Tables Vol C Tables 4.2.6.8 and 6.1.1.4'
O O 0.0106 0.0060 'International Tables Vol C Tables 4.2.6.8 and 6.1.1.4'
F F 0.0171 0.0103 'International Tables Vol C Tables 4.2.6.8 and 6.1.1.4'
loop_
_geom_angle_atom_site_label_1
_geom_angle_atom_site_label_2
_geom_angle_atom_site_label_3
_geom_angle
C01 O1 B1 123.6(2)
N1 C07 C06 121.5(3)
C07 N1 C08 119.6(2)
C07 N1 B1 121.9(2)
C08 N1 B1 118.5(2)
C01 C06 C05 120.6(2)
C01 C06 C07 119.1(3)
C05 C06 C07 120.3(3)
C04 C05 C06 119.5(3)
C11 C10 C15 118.4(3)
C11 C10 C08 123.2(3)
C15 C10 C08 118.4(3)
O1 C01 C06 121.4(2)
O1 C01 C02 119.4(3)
C06 C01 C02 119.1(3)
N1 C08 C10 109.7(2)
N1 C08 C09 108.6(2)
C10 C08 C09 115.8(3)
C05 C04 C03 119.6(3)
C03 C02 C01 119.4(3)
C14 C15 C10 120.9(4)
C02 C03 C04 121.7(3)
C10 C11 C12 120.0(4)
C13 C12 C11 120.6(4)
F1B B1 F1A 109.6(3)
F1B B1 O1 109.8(3)
F1A B1 O1 110.6(3)
F1B B1 N1 109.4(3)
F1A B1 N1 106.2(3)
O1 B1 N1 111.1(3)
C15 C14 C13 120.4(4)
C12 C13 C14 119.7(4)
loop_
_geom_bond_atom_site_label_1
_geom_bond_atom_site_label_2
_geom_bond_distance
O1 C01 1.339(4)
O1 B1 1.446(4)
C07 N1 1.293(3)
C07 C06 1.436(3)
N1 C08 1.508(3)
N1 B1 1.571(4)
C06 C01 1.398(4)
C06 C05 1.406(4)
F1A B1 1.392(4)
C05 C04 1.381(4)
C10 C11 1.384(5)
C10 C15 1.398(4)
C10 C08 1.516(4)
C01 C02 1.406(4)
C08 C09 1.525(4)
F1B B1 1.371(4)
C04 C03 1.393(5)
C02 C03 1.376(5)
C15 C14 1.374(5)
C11 C12 1.402(5)
C12 C13 1.368(6)
C14 C13 1.377(6)
