#------------------------------------------------------------------------------
#$Date: 2019-11-17 14:07:42 +0200 (Sun, 17 Nov 2019) $
#$Revision: 230383 $
#$URL: file:///home/coder/svn-repositories/cod/cif/7/05/71/7057158.cif $
#------------------------------------------------------------------------------
#
# This file is available in the Crystallography Open Database (COD),
# http://www.crystallography.net/
#
# All data on this site have been placed in the public domain by the
# contributors.
#
data_7057158
loop_
_publ_author_name
'Montis, Riccardo'
'Arca, Massimiliano'
'Aragoni, M. Carla'
'Blake, Alexander J.'
'Castellano, Carlo'
'Demartin, Francesco'
'Isaia, Francesco'
'Lippolis, Vito'
'Pintus, Anna'
'Lenard\~ao, Eder J.'
'Perin, Gelson'
'O'Connor, Alice E.'
'Thurow, Samuel'
_publ_section_title
;
 Structural diversity in the products formed by the reactions of
 2-arylselanyl pyridine derivatives and dihalogens
;
_journal_issue                   13
_journal_name_full               'New Journal of Chemistry'
_journal_page_first              10592
_journal_paper_doi               10.1039/C8NJ00495A
_journal_volume                  42
_journal_year                    2018
_chemical_formula_sum            'C11 H8 Cl I2 N Se'
_chemical_formula_weight         522.39
_space_group_crystal_system      triclinic
_space_group_IT_number           2
_space_group_name_Hall           '-P 1'
_space_group_name_H-M_alt        'P -1'
_symmetry_space_group_name_Hall  '-P 1'
_symmetry_space_group_name_H-M   'P -1'
_atom_sites_solution_hydrogens   geom
_audit_creation_method           SHELXL-2017/1
_audit_update_record
;
2018-03-06 deposited with the CCDC.
2018-03-12 downloaded from the CCDC.
;
_cell_angle_alpha                103.25(3)
_cell_angle_beta                 108.38(3)
_cell_angle_gamma                103.88(3)
_cell_formula_units_Z            2
_cell_length_a                   7.9441(16)
_cell_length_b                   9.882(2)
_cell_length_c                   10.709(2)
_cell_measurement_reflns_used    3131
_cell_measurement_temperature    294(2)
_cell_measurement_theta_max      29.90
_cell_measurement_theta_min      2.25
_cell_volume                     730.9(4)
_computing_data_reduction        'Bruker AXS SAINT software'
_computing_structure_refinement  'SHELXL-2017/1 (Sheldrick, 2017)'
_computing_structure_solution    SIR92
_diffrn_ambient_temperature      294(2)
_diffrn_measured_fraction_theta_full 0.981
_diffrn_measured_fraction_theta_max 0.838
_diffrn_measurement_device_type  'APEX II CCD diffractometer'
_diffrn_measurement_method       'omega scan'
_diffrn_radiation_type           MoK\a
_diffrn_radiation_wavelength     0.71073
_diffrn_reflns_av_R_equivalents  0.0163
_diffrn_reflns_av_unetI/netI     0.0233
_diffrn_reflns_Laue_measured_fraction_full 0.981
_diffrn_reflns_Laue_measured_fraction_max 0.838
_diffrn_reflns_limit_h_max       11
_diffrn_reflns_limit_h_min       -8
_diffrn_reflns_limit_k_max       14
_diffrn_reflns_limit_k_min       -14
_diffrn_reflns_limit_l_max       15
_diffrn_reflns_limit_l_min       -15
_diffrn_reflns_number            5568
_diffrn_reflns_point_group_measured_fraction_full 0.981
_diffrn_reflns_point_group_measured_fraction_max 0.838
_diffrn_reflns_theta_full        25.000
_diffrn_reflns_theta_max         31.700
_diffrn_reflns_theta_min         2.124
_exptl_absorpt_coefficient_mu    6.950
_exptl_absorpt_correction_type   empirical
_exptl_absorpt_process_details
;
SADABS Area-Detector Absorption Correction Program, 
Bruker AXS Inc., Madison, Wisconsin, USA, 2000
Rint for all data  0.131 with corrections  0.015
;
_exptl_crystal_colour            red
_exptl_crystal_density_diffrn    2.374
_exptl_crystal_description       pseudoprism
_exptl_crystal_F_000             476
_exptl_crystal_size_max          0.10
_exptl_crystal_size_mid          0.08
_exptl_crystal_size_min          0.06
_exptl_transmission_factor_max   1.000
_exptl_transmission_factor_min   0.472
_refine_diff_density_max         1.274
_refine_diff_density_min         -1.100
_refine_diff_density_rms         0.116
_refine_ls_extinction_coef       0.0025(6)
_refine_ls_extinction_expression Fc^*^=kFc[1+0.001xFc^2^\l^3^/sin(2\q)]^-1/4^
_refine_ls_extinction_method     'SHELXL-2017/1 (Sheldrick 2017)'
_refine_ls_goodness_of_fit_ref   1.054
_refine_ls_hydrogen_treatment    constr
_refine_ls_matrix_type           full
_refine_ls_number_parameters     146
_refine_ls_number_reflns         4148
_refine_ls_number_restraints     0
_refine_ls_restrained_S_all      1.054
_refine_ls_R_factor_all          0.0459
_refine_ls_R_factor_gt           0.0345
_refine_ls_shift/su_max          0.001
_refine_ls_shift/su_mean         0.000
_refine_ls_structure_factor_coef Fsqd
_refine_ls_weighting_details
'w=1/[\s^2^(Fo^2^)+(0.0537P)^2^] where P=(Fo^2^+2Fc^2^)/3'
_refine_ls_weighting_scheme      calc
_refine_ls_wR_factor_gt          0.0910
_refine_ls_wR_factor_ref         0.0945
_reflns_Friedel_coverage         0.000
_reflns_number_gt                3182
_reflns_number_total             4148
_reflns_threshold_expression     'I > 2\s(I)'
_cod_data_source_file            c8nj00495a2.cif
_cod_data_source_block           L1I2
_cod_depositor_comments
'Adding full bibliography for 7057153--7057162.cif.'
_cod_original_cell_volume        730.9(3)
_cod_database_code               7057158
_shelx_shelxl_version_number     2017/1
_shelx_space_group_comment
;
The symmetry employed for this shelxl refinement is uniquely defined
by the following loop, which should always be used as a source of
symmetry information in preference to the above space-group names.
They are only intended as comments.
;
_shelx_res_file
;
TITL RM062_1 (L1I2) in P-1
    shelx.res
    created by SHELXL-2017/1 at 09:05:39 on 28-Feb-2018
CELL  0.71073   7.9441   9.8823  10.7094  103.255  108.377  103.882
ZERR     2.00   0.0016   0.0020   0.0021    0.030    0.030    0.030
LATT   1
SFAC  C    H    N    CL   SE   I
UNIT  22   16   2    2    2    4
MERG   2
FMAP   2
PLAN   25
ACTA 50
L.S.   4
WGHT    0.053700
EXTI    0.002525
FVAR       0.32794
C1    1    0.562433    0.364956    0.677536    11.00000    0.04069    0.04668 =
         0.04251    0.01643    0.01670    0.01555
N     3    0.686353    0.433832    0.632216    11.00000    0.04284    0.05034 =
         0.04310    0.01586    0.01897    0.01460
C3    1    0.832827    0.551853    0.720653    11.00000    0.05115    0.05896 =
         0.06275    0.01183    0.02375   -0.00004
AFIX  43
H3    2    0.917107    0.598289    0.687304    11.00000   -1.20000
AFIX   0
C4    1    0.865671    0.608287    0.858047    11.00000    0.06022    0.07163 =
         0.05607   -0.00316    0.01797   -0.00829
AFIX  43
H4    2    0.968904    0.691904    0.917457    11.00000   -1.20000
AFIX   0
C5    1    0.739355    0.536386    0.906153    11.00000    0.06468    0.08007 =
         0.03710    0.00240    0.01611    0.00813
AFIX  43
H5    2    0.758394    0.571093    0.999632    11.00000   -1.20000
AFIX   0
C6    1    0.587633    0.415182    0.816905    11.00000    0.05081    0.06220 =
         0.04132    0.01571    0.01826    0.01341
AFIX  43
H6    2    0.502406    0.366856    0.848538    11.00000   -1.20000
AFIX   0
C7    1    0.205451    0.158839    0.642806    11.00000    0.04159    0.04551 =
         0.04820    0.01370    0.01728    0.00417
C8    1    0.219067    0.057019    0.710563    11.00000    0.05692    0.06105 =
         0.07542    0.03155    0.03579    0.02613
AFIX  43
H8    2    0.310860    0.013056    0.713699    11.00000   -1.20000
AFIX   0
C9    1    0.094621    0.019559    0.774849    11.00000    0.06352    0.06201 =
         0.06463    0.03260    0.03034    0.01758
AFIX  43
H9    2    0.103013   -0.049377    0.820752    11.00000   -1.20000
AFIX   0
C10   1   -0.038031    0.084614    0.769571    11.00000    0.04823    0.05195 =
         0.04822    0.00653    0.02006    0.00312
C11   1   -0.051766    0.185603    0.702434    11.00000    0.05642    0.07162 =
         0.08641    0.02956    0.03272    0.02924
AFIX  43
H11   2   -0.143823    0.229246    0.699503    11.00000   -1.20000
AFIX   0
C12   1    0.069599    0.223212    0.639127    11.00000    0.06836    0.06733 =
         0.08648    0.04564    0.03570    0.03247
AFIX  43
H12   2    0.059815    0.292402    0.593666    11.00000   -1.20000
AFIX   0
CL    4   -0.197503    0.033152    0.843939    11.00000    0.06942    0.09634 =
         0.06796    0.01017    0.04128   -0.00111
SE    5    0.359237    0.197430    0.539890    11.00000    0.05871    0.06363 =
         0.04700    0.00426    0.02444   -0.00600
I     6    0.654825    0.344376    0.385391    11.00000    0.04503    0.04943 =
         0.04983    0.02141    0.02297    0.01798
I1    6    0.608255    0.239787    0.109988    11.00000    0.07623    0.08927 =
         0.05200    0.02661    0.03553    0.03607
HKLF    4




REM  RM062_1 (L1I2) in P-1
REM R1 =  0.0345 for    3182 Fo > 4sig(Fo)  and  0.0459 for all    4148 data
REM    146 parameters refined using      0 restraints

END

WGHT      0.0536      0.0000

REM Highest difference peak  1.274,  deepest hole -1.100,  1-sigma level  0.116
Q1    1   0.6637  0.3146  0.1050  11.00000  0.05    1.27
Q2    1   0.7094  0.3669  0.4684  11.00000  0.05    1.04
Q3    1   0.6725  0.2589  0.1971  11.00000  0.05    1.01
Q4    1   0.6196  0.2737  0.4066  11.00000  0.05    0.92
Q5    1   0.5814  0.3158  0.2983  11.00000  0.05    0.89
Q6    1   0.5082  0.2535  0.0990  11.00000  0.05    0.75
Q7    1   0.4376  0.1936  0.6168  11.00000  0.05    0.74
Q8    1   0.5361  0.2232  0.0212  11.00000  0.05    0.72
Q9    1   0.5812  0.3783  0.3970  11.00000  0.05    0.64
Q10   1   0.6941  0.4098  0.3573  11.00000  0.05    0.60
Q11   1   0.2903  0.1781  0.4435  11.00000  0.05    0.58
Q12   1   0.7845  0.3343  0.4025  11.00000  0.05    0.54
Q13   1   0.5297  0.3416  0.3648  11.00000  0.05    0.45
Q14   1   0.5688  0.1550  0.1480  11.00000  0.05    0.44
Q15   1   0.2925  0.2376  0.5594  11.00000  0.05    0.44
Q16   1   0.5819  0.2780  0.1975  11.00000  0.05    0.43
Q17   1   0.5714  0.4189  0.7580  11.00000  0.05    0.37
Q18   1   0.4051  0.2823  0.5166  11.00000  0.05    0.37
Q19   1   0.7435  0.3188  0.2996  11.00000  0.05    0.36
Q20   1   0.7058  0.2052  0.1034  11.00000  0.05    0.36
Q21   1  -0.2191  0.0246  0.8638  11.00000  0.05    0.35
Q22   1   0.5715  0.3793  0.2406  11.00000  0.05    0.34
Q23   1   0.1789  0.2290  0.6824  11.00000  0.05    0.32
Q24   1   0.4919  0.1858  0.5631  11.00000  0.05    0.31
Q25   1   0.8147  0.5147  1.0209  11.00000  0.05    0.31
;
_shelx_res_checksum              79663
loop_
_space_group_symop_operation_xyz
'x, y, z'
'-x, -y, -z'
loop_
_atom_site_label
_atom_site_type_symbol
_atom_site_fract_x
_atom_site_fract_y
_atom_site_fract_z
_atom_site_U_iso_or_equiv
_atom_site_adp_type
_atom_site_occupancy
_atom_site_site_symmetry_order
_atom_site_calc_flag
_atom_site_refinement_flags_posn
_atom_site_refinement_flags_adp
C1 C 0.5624(5) 0.3650(4) 0.6775(4) 0.0427(8) Uani 1 1 d . .
N N 0.6864(5) 0.4338(4) 0.6322(3) 0.0450(7) Uani 1 1 d . .
C3 C 0.8328(6) 0.5519(5) 0.7207(5) 0.0624(11) Uani 1 1 d . .
H3 H 0.917107 0.598289 0.687304 0.075 Uiso 1 1 calc R U
C4 C 0.8657(7) 0.6083(6) 0.8580(5) 0.0744(14) Uani 1 1 d . .
H4 H 0.968904 0.691904 0.917457 0.089 Uiso 1 1 calc R U
C5 C 0.7394(7) 0.5364(6) 0.9062(5) 0.0680(13) Uani 1 1 d . .
H5 H 0.758394 0.571093 0.999632 0.082 Uiso 1 1 calc R U
C6 C 0.5876(6) 0.4152(5) 0.8169(4) 0.0528(10) Uani 1 1 d . .
H6 H 0.502406 0.366856 0.848538 0.063 Uiso 1 1 calc R U
C7 C 0.2055(6) 0.1588(4) 0.6428(4) 0.0476(9) Uani 1 1 d . .
C8 C 0.2191(7) 0.0570(5) 0.7106(5) 0.0590(11) Uani 1 1 d . .
H8 H 0.310860 0.013056 0.713699 0.071 Uiso 1 1 calc R U
C9 C 0.0946(7) 0.0196(5) 0.7748(5) 0.0606(11) Uani 1 1 d . .
H9 H 0.103013 -0.049377 0.820752 0.073 Uiso 1 1 calc R U
C10 C -0.0380(6) 0.0846(4) 0.7696(4) 0.0537(10) Uani 1 1 d . .
C11 C -0.0518(7) 0.1856(6) 0.7024(6) 0.0681(12) Uani 1 1 d . .
H11 H -0.143823 0.229246 0.699503 0.082 Uiso 1 1 calc R U
C12 C 0.0696(7) 0.2232(5) 0.6391(5) 0.0670(13) Uani 1 1 d . .
H12 H 0.059815 0.292402 0.593666 0.080 Uiso 1 1 calc R U
Cl Cl -0.1975(2) 0.03315(17) 0.84394(14) 0.0830(4) Uani 1 1 d . .
Se Se 0.35924(7) 0.19743(5) 0.53989(5) 0.06330(15) Uani 1 1 d . .
I I 0.65483(3) 0.34438(3) 0.38539(3) 0.04562(10) Uani 1 1 d . .
I1 I 0.60825(5) 0.23979(4) 0.10999(3) 0.06758(12) Uani 1 1 d . .
loop_
_atom_site_aniso_label
_atom_site_aniso_U_11
_atom_site_aniso_U_22
_atom_site_aniso_U_33
_atom_site_aniso_U_23
_atom_site_aniso_U_13
_atom_site_aniso_U_12
C1 0.0407(19) 0.0467(18) 0.043(2) 0.0164(16) 0.0167(17) 0.0156(15)
N 0.0428(18) 0.0503(17) 0.0431(18) 0.0159(14) 0.0190(15) 0.0146(14)
C3 0.051(3) 0.059(2) 0.063(3) 0.012(2) 0.024(2) 0.000(2)
C4 0.060(3) 0.072(3) 0.056(3) -0.003(2) 0.018(2) -0.008(2)
C5 0.065(3) 0.080(3) 0.037(2) 0.002(2) 0.016(2) 0.008(2)
C6 0.051(2) 0.062(2) 0.041(2) 0.0157(19) 0.0183(19) 0.0134(19)
C7 0.042(2) 0.0455(19) 0.048(2) 0.0137(17) 0.0173(18) 0.0042(16)
C8 0.057(3) 0.061(2) 0.075(3) 0.032(2) 0.036(2) 0.026(2)
C9 0.064(3) 0.062(2) 0.065(3) 0.033(2) 0.030(2) 0.018(2)
C10 0.048(2) 0.052(2) 0.048(2) 0.0065(18) 0.0201(19) 0.0031(18)
C11 0.056(3) 0.072(3) 0.086(4) 0.030(3) 0.033(3) 0.029(2)
C12 0.068(3) 0.067(3) 0.086(4) 0.046(3) 0.036(3) 0.032(2)
Cl 0.0694(8) 0.0963(9) 0.0680(8) 0.0102(7) 0.0413(7) -0.0011(7)
Se 0.0587(3) 0.0636(3) 0.0470(3) 0.0043(2) 0.0244(2) -0.0060(2)
I 0.04503(16) 0.04943(15) 0.04983(17) 0.02141(12) 0.02297(13) 0.01798(11)
I1 0.0762(2) 0.0893(2) 0.0520(2) 0.02661(17) 0.03553(17) 0.03607(19)
loop_
_atom_type_symbol
_atom_type_description
_atom_type_scat_dispersion_real
_atom_type_scat_dispersion_imag
_atom_type_scat_source
C C 0.0033 0.0016 'International Tables Vol C Tables 4.2.6.8 and 6.1.1.4'
H H 0.0000 0.0000 'International Tables Vol C Tables 4.2.6.8 and 6.1.1.4'
N N 0.0061 0.0033 'International Tables Vol C Tables 4.2.6.8 and 6.1.1.4'
Cl Cl 0.1484 0.1585 'International Tables Vol C Tables 4.2.6.8 and 6.1.1.4'
Se Se -0.0929 2.2259 'International Tables Vol C Tables 4.2.6.8 and 6.1.1.4'
I I -0.4742 1.8119 'International Tables Vol C Tables 4.2.6.8 and 6.1.1.4'
loop_
_geom_angle_atom_site_label_1
_geom_angle_atom_site_label_2
_geom_angle_atom_site_label_3
_geom_angle
N C1 C6 120.6(4)
N C1 Se 115.3(3)
C6 C1 Se 124.1(3)
C3 N C1 119.7(4)
C3 N I 118.2(3)
C1 N I 122.1(3)
N C3 C4 123.1(4)
C3 C4 C5 117.6(4)
C6 C5 C4 120.3(4)
C5 C6 C1 118.8(4)
C12 C7 C8 119.5(4)
C12 C7 Se 120.0(3)
C8 C7 Se 120.2(3)
C7 C8 C9 119.9(4)
C10 C9 C8 119.4(4)
C9 C10 C11 120.8(4)
C9 C10 Cl 119.3(3)
C11 C10 Cl 119.9(4)
C10 C11 C12 120.3(4)
C11 C12 C7 120.1(4)
C1 Se C7 99.93(16)
N I I1 178.17(7)
loop_
_geom_bond_atom_site_label_1
_geom_bond_atom_site_label_2
_geom_bond_distance
C1 N 1.341(5)
C1 C6 1.392(5)
C1 Se 1.902(4)
N C3 1.326(6)
N I 2.497(3)
C3 C4 1.362(7)
C4 C5 1.389(7)
C5 C6 1.363(6)
C7 C12 1.373(6)
C7 C8 1.374(6)
C7 Se 1.916(4)
C8 C9 1.400(6)
C9 C10 1.353(6)
C10 C11 1.363(6)
C10 Cl 1.735(4)
C11 C12 1.372(7)
I I1 2.7631(9)
