#------------------------------------------------------------------------------
#$Date: 2019-11-17 14:08:58 +0200 (Sun, 17 Nov 2019) $
#$Revision: 230389 $
#$URL: file:///home/coder/svn-repositories/cod/cif/7/05/73/7057359.cif $
#------------------------------------------------------------------------------
#
# This file is available in the Crystallography Open Database (COD),
# http://www.crystallography.net/
#
# All data on this site have been placed in the public domain by the
# contributors.
#
data_7057359
loop_
_publ_author_name
'Bedekovi\'c, Nikola'
'Stilinovi\'c, Vladimir'
'Fri\<s\<ci\'c, Tomislav'
'Cin\<ci\'c, Dominik'
_publ_section_title
;
 Comparison of isomericmeta- andpara-diiodotetrafluorobenzene as halogen
 bond donors in crystal engineering
;
_journal_issue                   13
_journal_name_full               'New Journal of Chemistry'
_journal_page_first              10584
_journal_paper_doi               10.1039/C8NJ01368C
_journal_volume                  42
_journal_year                    2018
_chemical_formula_moiety         'C6 F4 I2, C4 H10 N2'
_chemical_formula_sum            'C10 H10 F4 I2 N2'
_chemical_formula_weight         488.00
_space_group_crystal_system      triclinic
_space_group_IT_number           2
_space_group_name_Hall           '-P 1'
_space_group_name_H-M_alt        'P -1'
_symmetry_space_group_name_Hall  '-P 1'
_symmetry_space_group_name_H-M   'P -1'
_atom_sites_solution_hydrogens   mixed
_audit_creation_method           SHELXL-2014/7
_audit_update_record
;
2018-04-25 deposited with the CCDC.
2018-04-27 downloaded from the CCDC.
;
_cell_angle_alpha                103.403(5)
_cell_angle_beta                 96.182(4)
_cell_angle_gamma                95.921(5)
_cell_formula_units_Z            2
_cell_length_a                   6.1088(3)
_cell_length_b                   9.4013(6)
_cell_length_c                   12.4113(7)
_cell_measurement_reflns_used    1718
_cell_measurement_temperature    295(2)
_cell_measurement_theta_max      38.4603
_cell_measurement_theta_min      4.9337
_cell_volume                     683.27(7)
_computing_cell_refinement
;
        CrysAlis RED, Oxford Diffraction Ltd.,
        Version 1.171.32.29 (release 10-06-2008 CrysAlis171 .NET)
        (compiled Jun 10 2008,16:49:55)
;
_computing_data_collection
;
        CrysAlis CCD, Oxford Diffraction Ltd.,
        Version 1.171.32.29 (release 10-06-2008 CrysAlis171 .NET)
        (compiled Jun 10 2008,16:49:55)
;
_computing_data_reduction
;
        CrysAlis RED, Oxford Diffraction Ltd.,
        Version 1.171.32.29 (release 10-06-2008 CrysAlis171 .NET)
        (compiled Jun 10 2008,16:49:55)
;
_computing_molecular_graphics    'MERCURY (C.F. Macrae et al , 2008)'
_computing_publication_material  'SHELXL-2014/7 (Sheldrick, 2014)'
_computing_structure_refinement  'SHELXL-2014/7 (Sheldrick, 2014)'
_computing_structure_solution    'SHELXS-97 (Sheldrick, 1990)'
_diffrn_ambient_temperature      295(2)
_diffrn_measured_fraction_theta_full 0.992
_diffrn_measured_fraction_theta_max 0.992
_diffrn_measurement_device_type
;
Oxford Diffraction Xcalibur CCD
diffractometer
;
_diffrn_measurement_method       'omega scan'
_diffrn_radiation_type           MoK\a
_diffrn_radiation_wavelength     0.71073
_diffrn_reflns_av_R_equivalents  0.0356
_diffrn_reflns_av_unetI/netI     0.0469
_diffrn_reflns_Laue_measured_fraction_full 0.992
_diffrn_reflns_Laue_measured_fraction_max 0.992
_diffrn_reflns_limit_h_max       7
_diffrn_reflns_limit_h_min       -7
_diffrn_reflns_limit_k_max       11
_diffrn_reflns_limit_k_min       -11
_diffrn_reflns_limit_l_max       9
_diffrn_reflns_limit_l_min       -14
_diffrn_reflns_number            4637
_diffrn_reflns_point_group_measured_fraction_full 0.992
_diffrn_reflns_point_group_measured_fraction_max 0.992
_diffrn_reflns_theta_full        24.999
_diffrn_reflns_theta_max         24.999
_diffrn_reflns_theta_min         3.991
_diffrn_source                   'Enhance (Mo) X-ray Source'
_exptl_absorpt_coefficient_mu    4.633
_exptl_absorpt_correction_T_max  1.00000
_exptl_absorpt_correction_T_min  0.29658
_exptl_absorpt_correction_type   multi-scan
_exptl_absorpt_process_details
;
CrysAlis RED, Oxford Diffraction Ltd.,
Version 1.171.32.29 (release 10-06-2008 CrysAlis171 .NET)
(compiled Jun 10 2008,16:49:55)
Empirical absorption correction using spherical harmonics,
 implemented in SCALE3 ABSPACK scaling algorithm.
;
_exptl_crystal_colour            colourless
_exptl_crystal_density_diffrn    2.372
_exptl_crystal_description       block
_exptl_crystal_F_000             452
_exptl_crystal_size_max          0.57
_exptl_crystal_size_mid          0.48
_exptl_crystal_size_min          0.31
_refine_diff_density_max         0.712
_refine_diff_density_min         -1.177
_refine_diff_density_rms         0.206
_refine_ls_extinction_coef       0.0400(17)
_refine_ls_extinction_expression Fc^*^=kFc[1+0.001xFc^2^\l^3^/sin(2\q)]^-1/4^
_refine_ls_extinction_method     'SHELXL-2014/7 (Sheldrick 2014'
_refine_ls_goodness_of_fit_ref   0.997
_refine_ls_hydrogen_treatment    mixed
_refine_ls_matrix_type           full
_refine_ls_number_parameters     170
_refine_ls_number_reflns         2386
_refine_ls_number_restraints     2
_refine_ls_restrained_S_all      0.997
_refine_ls_R_factor_all          0.0467
_refine_ls_R_factor_gt           0.0361
_refine_ls_shift/su_max          0.001
_refine_ls_shift/su_mean         0.000
_refine_ls_structure_factor_coef Fsqd
_refine_ls_weighting_details
'w=1/[\s^2^(Fo^2^)+(0.0517P)^2^] where P=(Fo^2^+2Fc^2^)/3'
_refine_ls_weighting_scheme      calc
_refine_ls_wR_factor_gt          0.0866
_refine_ls_wR_factor_ref         0.0890
_reflns_Friedel_coverage         0.000
_reflns_number_gt                1855
_reflns_number_total             2386
_reflns_threshold_expression     'I > 2\s(I)'
_cod_data_source_file            c8nj01368c2.cif
_cod_data_source_block           X13
_cod_depositor_comments
'Adding full bibliography for 7057346--7057365.cif.'
_cod_database_code               7057359
_shelx_shelxl_version_number     2014/7
_shelx_space_group_comment
;
The symmetry employed for this shelxl refinement is uniquely defined
by the following loop, which should always be used as a source of
symmetry information in preference to the above space-group names.
They are only intended as comments.
;
_shelx_res_file
;

    shelx.res created by SHELXL-2014/7

TITL PRELIM_PIPZ_1,3 in P-1
CELL  0.71073   6.1088   9.4013  12.4113  103.403   96.182   95.921
ZERR     2.00   0.0003   0.0006   0.0007    0.005    0.004    0.005
LATT   1
SFAC  C    H    N    F    I
UNIT  20 20 4 8 4
MERG   2
OMIT    -4.00  50.00
DFIX  0.84 0.01 N2 H6
DFIX  0.84 0.01 N1 H5
FMAP   2
PLAN   20
ACTA
BOND
L.S.  15
WGHT    0.051700
EXTI    0.040039
FVAR       6.59594
I1    5    0.722888    0.199456    0.582448    11.00000    0.05709    0.03785 =
         0.04232    0.01305    0.00256    0.00520
I2    5    0.742442   -0.285097    0.832887    11.00000    0.05375    0.04532 =
         0.04453    0.01890    0.00144    0.00760
F4    4    0.331124   -0.123472    0.916281    11.00000    0.07021    0.06401 =
         0.06646    0.02629    0.02616    0.00204
F3    4    0.142428    0.100355    0.864726    11.00000    0.05737    0.07295 =
         0.07075    0.00547    0.02675    0.01876
F2    4    0.307634    0.242231    0.721751    11.00000    0.07313    0.05506 =
         0.06621    0.02039    0.00974    0.03219
C7    1    0.592954   -0.108319    0.792748    11.00000    0.04611    0.03465 =
         0.04211    0.01114    0.00281    0.00827
C5    1    0.582430    0.083837    0.691057    11.00000    0.04526    0.03612 =
         0.03473    0.00547   -0.00570   -0.00288
C6    1    0.672066   -0.033688    0.717165    11.00000    0.03554    0.04076 =
         0.03645    0.00777    0.00113    0.00253
C8    1    0.414783   -0.059678    0.840665    11.00000    0.04407    0.04873 =
         0.03961    0.01094    0.00620   -0.00447
C10   1    0.402710    0.126677    0.742103    11.00000    0.04757    0.03787 =
         0.04196    0.00349   -0.00405    0.01022
C9    1    0.317244    0.057296    0.817369    11.00000    0.04492    0.04088 =
         0.04452   -0.00333    0.00653    0.00603
F1    4    0.849389   -0.077375    0.668808    11.00000    0.06145    0.04858 =
         0.05850    0.02165    0.02445    0.01969
N2    3   -0.062531    0.469287    0.884836    11.00000    0.05849    0.05184 =
         0.03443    0.01237   -0.00034    0.00826
N1    3    1.061211   -0.350960    0.556803    11.00000    0.05913    0.04369 =
         0.04106    0.01064    0.00855    0.01118
C4    1    0.169264    0.503635    0.931058    11.00000    0.05271    0.05035 =
         0.04925    0.01673    0.01632    0.01152
AFIX  23
H8    2    0.251137    0.551772    0.883671    11.00000   -1.20000
H7    2    0.230911    0.413615    0.934896    11.00000   -1.20000
AFIX   0
C1    1    0.831489   -0.406565    0.506829    11.00000    0.05062    0.05551 =
         0.04835    0.01553    0.01165    0.02224
AFIX  23
H4    2    0.760620   -0.328807    0.483616    11.00000   -1.20000
H3    2    0.748969   -0.439369    0.561131    11.00000   -1.20000
AFIX   0
C3    1   -0.189905    0.395426    0.952964    11.00000    0.04503    0.04150 =
         0.05643    0.00726    0.00158    0.00422
AFIX  23
H10   2   -0.133838    0.303707    0.957054    11.00000   -1.20000
H9    2   -0.344642    0.372756    0.920020    11.00000   -1.20000
AFIX   0
C2    1    0.832235   -0.534496    0.406389    11.00000    0.04446    0.05945 =
         0.03623    0.01467    0.00196    0.00277
AFIX  23
H2    2    0.681046   -0.572945    0.371939    11.00000   -1.20000
H1    2    0.912074   -0.501112    0.351434    11.00000   -1.20000
AFIX   0
H6    2   -0.102073    0.443323    0.815693    11.00000   -1.20000
H5    2    1.041716   -0.279769    0.608203    11.00000   -1.20000
HKLF    4

REM  PRELIM_PIPZ_1,3 in P-1
REM R1 =  0.0361 for    1855 Fo > 4sig(Fo)  and  0.0467 for all    2386 data
REM    170 parameters refined using      2 restraints

END

WGHT      0.0567      0.0000

REM Highest difference peak  0.712,  deepest hole -1.177,  1-sigma level  0.206
Q1    1   0.8483  0.1414  0.5577  11.00000  0.05    0.71
Q2    1   1.0011  0.1864  0.6149  11.00000  0.05    0.68
Q3    1   0.7997 -0.2429  0.4960  11.00000  0.05    0.65
Q4    1   0.6972 -0.2487  0.5195  11.00000  0.05    0.64
Q5    1   0.6244 -0.2359  0.8685  11.00000  0.05    0.61
Q6    1   0.1047  0.1423  0.5969  11.00000  0.05    0.60
Q7    1   0.9394  0.2241  0.5942  11.00000  0.05    0.59
Q8    1   0.4797  0.6723  0.8861  11.00000  0.05    0.58
Q9    1   0.5354 -0.3216  0.8514  11.00000  0.05    0.56
Q10   1   0.5761 -0.2631  0.5876  11.00000  0.05    0.55
Q11   1   0.4307 -0.2745  0.8246  11.00000  0.05    0.55
Q12   1   0.9420 -0.2325  0.4387  11.00000  0.05    0.54
Q13   1   0.6041  0.1822  0.6391  11.00000  0.05    0.53
Q14   1   0.5718  0.0002  0.8624  11.00000  0.05    0.52
Q15   1   0.2615  0.6631  0.8829  11.00000  0.05    0.52
Q16   1   0.0706  0.4778  0.9040  11.00000  0.05    0.51
Q17   1   0.5673 -0.0683  0.9620  11.00000  0.05    0.51
Q18   1   0.2703  0.5312  0.8000  11.00000  0.05    0.50
Q19   1   1.0045  0.1068  0.6777  11.00000  0.05    0.49
Q20   1   0.6084  0.1140  0.8202  11.00000  0.05    0.48
;
_shelx_res_checksum              1725
loop_
_space_group_symop_operation_xyz
'x, y, z'
'-x, -y, -z'
loop_
_atom_site_label
_atom_site_type_symbol
_atom_site_fract_x
_atom_site_fract_y
_atom_site_fract_z
_atom_site_U_iso_or_equiv
_atom_site_adp_type
_atom_site_occupancy
_atom_site_site_symmetry_order
_atom_site_calc_flag
_atom_site_refinement_flags_posn
_atom_site_refinement_flags_adp
I1 I 0.72289(7) 0.19946(5) 0.58245(3) 0.04562(19) Uani 1 1 d . .
I2 I 0.74244(7) -0.28510(5) 0.83289(3) 0.0469(2) Uani 1 1 d . .
F4 F 0.3311(7) -0.1235(5) 0.9163(3) 0.0644(12) Uani 1 1 d . .
F3 F 0.1424(7) 0.1004(5) 0.8647(4) 0.0669(12) Uani 1 1 d . .
F2 F 0.3076(7) 0.2422(5) 0.7218(3) 0.0622(11) Uani 1 1 d . .
C7 C 0.5930(10) -0.1083(7) 0.7927(5) 0.0407(14) Uani 1 1 d . .
C5 C 0.5824(10) 0.0838(7) 0.6911(5) 0.0407(15) Uani 1 1 d . .
C6 C 0.6721(10) -0.0337(7) 0.7172(5) 0.0383(14) Uani 1 1 d . .
C8 C 0.4148(10) -0.0597(8) 0.8407(5) 0.0449(16) Uani 1 1 d . .
C10 C 0.4027(11) 0.1267(7) 0.7421(5) 0.0440(15) Uani 1 1 d . .
C9 C 0.3172(11) 0.0573(7) 0.8174(6) 0.0457(16) Uani 1 1 d . .
F1 F 0.8494(6) -0.0774(4) 0.6688(3) 0.0526(10) Uani 1 1 d . .
N2 N -0.0625(10) 0.4693(7) 0.8848(4) 0.0484(14) Uani 1 1 d D .
N1 N 1.0612(10) -0.3510(7) 0.5568(4) 0.0475(14) Uani 1 1 d D .
C4 C 0.1693(11) 0.5036(8) 0.9311(5) 0.0490(16) Uani 1 1 d . .
H8 H 0.2511 0.5518 0.8837 0.059 Uiso 1 1 calc R U
H7 H 0.2309 0.4136 0.9349 0.059 Uiso 1 1 calc R U
C1 C 0.8315(11) -0.4066(8) 0.5068(6) 0.0496(17) Uani 1 1 d . .
H4 H 0.7606 -0.3288 0.4836 0.059 Uiso 1 1 calc R U
H3 H 0.7490 -0.4394 0.5611 0.059 Uiso 1 1 calc R U
C3 C -0.1899(11) 0.3954(8) 0.9530(6) 0.0490(17) Uani 1 1 d . .
H10 H -0.1338 0.3037 0.9571 0.059 Uiso 1 1 calc R U
H9 H -0.3446 0.3728 0.9200 0.059 Uiso 1 1 calc R U
C2 C 0.8322(11) -0.5345(8) 0.4064(5) 0.0468(17) Uani 1 1 d . .
H2 H 0.6810 -0.5729 0.3719 0.056 Uiso 1 1 calc R U
H1 H 0.9121 -0.5011 0.3514 0.056 Uiso 1 1 calc R U
H6 H -0.102(11) 0.443(8) 0.8157(13) 0.056 Uiso 1 1 d D U
H5 H 1.042(11) -0.280(5) 0.608(4) 0.056 Uiso 1 1 d D U
loop_
_atom_site_aniso_label
_atom_site_aniso_U_11
_atom_site_aniso_U_22
_atom_site_aniso_U_33
_atom_site_aniso_U_23
_atom_site_aniso_U_13
_atom_site_aniso_U_12
I1 0.0571(3) 0.0379(3) 0.0423(3) 0.01305(19) 0.0026(2) 0.0052(2)
I2 0.0537(3) 0.0453(3) 0.0445(3) 0.0189(2) 0.0014(2) 0.0076(2)
F4 0.070(3) 0.064(3) 0.066(3) 0.026(2) 0.026(2) 0.002(2)
F3 0.057(2) 0.073(3) 0.071(3) 0.005(2) 0.027(2) 0.019(2)
F2 0.073(3) 0.055(3) 0.066(2) 0.020(2) 0.010(2) 0.032(2)
C7 0.046(3) 0.035(4) 0.042(3) 0.011(3) 0.003(3) 0.008(3)
C5 0.045(3) 0.036(4) 0.035(3) 0.005(3) -0.006(3) -0.003(3)
C6 0.036(3) 0.041(4) 0.036(3) 0.008(3) 0.001(3) 0.003(3)
C8 0.044(4) 0.049(4) 0.040(3) 0.011(3) 0.006(3) -0.004(3)
C10 0.048(4) 0.038(4) 0.042(3) 0.003(3) -0.004(3) 0.010(3)
C9 0.045(4) 0.041(4) 0.045(4) -0.003(3) 0.007(3) 0.006(3)
F1 0.061(2) 0.049(2) 0.058(2) 0.0217(19) 0.024(2) 0.0197(19)
N2 0.058(3) 0.052(4) 0.034(3) 0.012(3) 0.000(3) 0.008(3)
N1 0.059(3) 0.044(3) 0.041(3) 0.011(3) 0.009(3) 0.011(3)
C4 0.053(4) 0.050(4) 0.049(4) 0.017(3) 0.016(3) 0.012(3)
C1 0.051(4) 0.056(4) 0.048(4) 0.016(3) 0.012(3) 0.022(3)
C3 0.045(4) 0.042(4) 0.056(4) 0.007(3) 0.002(3) 0.004(3)
C2 0.044(3) 0.059(5) 0.036(3) 0.015(3) 0.002(3) 0.003(3)
loop_
_atom_type_symbol
_atom_type_description
_atom_type_scat_dispersion_real
_atom_type_scat_dispersion_imag
_atom_type_scat_source
C C 0.0033 0.0016 'International Tables Vol C Tables 4.2.6.8 and 6.1.1.4'
H H 0.0000 0.0000 'International Tables Vol C Tables 4.2.6.8 and 6.1.1.4'
N N 0.0061 0.0033 'International Tables Vol C Tables 4.2.6.8 and 6.1.1.4'
F F 0.0171 0.0103 'International Tables Vol C Tables 4.2.6.8 and 6.1.1.4'
I I -0.4742 1.8119 'International Tables Vol C Tables 4.2.6.8 and 6.1.1.4'
loop_
_geom_angle_atom_site_label_1
_geom_angle_atom_site_label_2
_geom_angle_atom_site_label_3
_geom_angle
_geom_angle_site_symmetry_1
_geom_angle_site_symmetry_3
C8 C7 C6 116.4(6) . .
C8 C7 I2 121.7(5) . .
C6 C7 I2 121.9(5) . .
C6 C5 C10 117.0(6) . .
C6 C5 I1 121.4(5) . .
C10 C5 I1 121.6(5) . .
F1 C6 C5 118.2(5) . .
F1 C6 C7 118.3(6) . .
C5 C6 C7 123.5(6) . .
F4 C8 C7 120.2(6) . .
F4 C8 C9 117.1(6) . .
C7 C8 C9 122.7(6) . .
F2 C10 C9 117.4(6) . .
F2 C10 C5 120.4(6) . .
C9 C10 C5 122.1(6) . .
F3 C9 C10 120.8(6) . .
F3 C9 C8 120.9(6) . .
C10 C9 C8 118.3(6) . .
C4 N2 C3 111.4(5) . .
C2 N1 C1 110.5(5) 2_746 .
N2 C4 C3 108.9(6) . 2_567
N1 C1 C2 108.6(6) . .
N2 C3 C4 108.6(5) . 2_567
N1 C2 C1 108.9(5) 2_746 .
loop_
_geom_bond_atom_site_label_1
_geom_bond_atom_site_label_2
_geom_bond_distance
_geom_bond_site_symmetry_2
I1 C5 2.114(6) .
I2 C7 2.108(6) .
F4 C8 1.343(7) .
F3 C9 1.328(7) .
F2 C10 1.344(7) .
C7 C8 1.365(9) .
C7 C6 1.392(8) .
C5 C6 1.370(9) .
C5 C10 1.375(9) .
C6 F1 1.349(7) .
C8 C9 1.376(9) .
C10 C9 1.374(9) .
N2 C4 1.443(9) .
N2 C3 1.451(9) .
N1 C2 1.449(9) 2_746
N1 C1 1.462(9) .
C4 C3 1.514(10) 2_567
C1 C2 1.519(10) .
C3 C4 1.514(10) 2_567
C2 N1 1.449(9) 2_746
