#------------------------------------------------------------------------------
#$Date: 2019-11-17 14:24:14 +0200 (Sun, 17 Nov 2019) $
#$Revision: 230485 $
#$URL: file:///home/coder/svn-repositories/cod/cif/7/05/76/7057627.cif $
#------------------------------------------------------------------------------
#
# This file is available in the Crystallography Open Database (COD),
# http://www.crystallography.net/
#
# All data on this site have been placed in the public domain by the
# contributors.
#
data_7057627
loop_
_publ_author_name
'Ma, Jing-xin'
'Yang, Zhihua'
'Zhou, Tong'
'Guo, Qi'
'Yang, Jinhui'
'Yang, Tianlin'
'Yang, Qingfeng'
_publ_section_title
;
 Construction of structurally diverse luminescent lead(ii) fluorinated
 coordination polymers based on auxiliary ligands
;
_journal_issue                   18
_journal_name_full               'New Journal of Chemistry'
_journal_page_first              15413
_journal_paper_doi               10.1039/C8NJ02846J
_journal_volume                  42
_journal_year                    2018
_chemical_formula_sum            'C13 H F4 N O5 Pb'
_chemical_formula_weight         534.34
_space_group_crystal_system      triclinic
_space_group_IT_number           2
_space_group_name_Hall           '-P 1'
_space_group_name_H-M_alt        'P -1'
_symmetry_space_group_name_Hall  '-P 1'
_symmetry_space_group_name_H-M   'P -1'
_atom_sites_solution_hydrogens   mixed
_audit_creation_method           SHELXL-2013
_audit_update_record
;
2018-05-22 deposited with the CCDC.
2018-08-08 downloaded from the CCDC.
;
_cell_angle_alpha                93.629(3)
_cell_angle_beta                 103.750(9)
_cell_angle_gamma                106.323(11)
_cell_formula_units_Z            2
_cell_length_a                   7.722(2)
_cell_length_b                   8.4029(19)
_cell_length_c                   12.016(3)
_cell_measurement_reflns_used    3576
_cell_measurement_temperature    293(2)
_cell_measurement_theta_max      27.23
_cell_measurement_theta_min      2.11
_cell_volume                     719.7(3)
_computing_structure_refinement  'SHELXL-2013 (Sheldrick, 2013)'
_diffrn_ambient_temperature      293(2)
_diffrn_measured_fraction_theta_full 0.991
_diffrn_measured_fraction_theta_max 0.988
_diffrn_measurement_device_type  'Bruker SMARTAPEX II'
_diffrn_measurement_method       '\w scans'
_diffrn_radiation_type           MoK\a
_diffrn_radiation_wavelength     0.71073
_diffrn_reflns_av_R_equivalents  0.0533
_diffrn_reflns_av_unetI/netI     0.0712
_diffrn_reflns_Laue_measured_fraction_full 0.991
_diffrn_reflns_Laue_measured_fraction_max 0.988
_diffrn_reflns_limit_h_max       10
_diffrn_reflns_limit_h_min       -9
_diffrn_reflns_limit_k_max       10
_diffrn_reflns_limit_k_min       -10
_diffrn_reflns_limit_l_max       14
_diffrn_reflns_limit_l_min       -15
_diffrn_reflns_number            8198
_diffrn_reflns_point_group_measured_fraction_full 0.991
_diffrn_reflns_point_group_measured_fraction_max 0.988
_diffrn_reflns_theta_full        25.242
_diffrn_reflns_theta_max         27.518
_diffrn_reflns_theta_min         2.551
_exptl_absorpt_coefficient_mu    11.793
_exptl_absorpt_correction_T_max  0.177
_exptl_absorpt_correction_T_min  0.093
_exptl_absorpt_correction_type   multi-scan
_exptl_absorpt_process_details   SADABS
_exptl_crystal_colour            colorless
_exptl_crystal_density_diffrn    2.466
_exptl_crystal_density_method    'not measured'
_exptl_crystal_description       block
_exptl_crystal_F_000             488
_exptl_crystal_size_max          0.240
_exptl_crystal_size_mid          0.190
_exptl_crystal_size_min          0.150
_refine_diff_density_max         1.740
_refine_diff_density_min         -1.478
_refine_diff_density_rms         0.211
_refine_ls_extinction_method     none
_refine_ls_goodness_of_fit_ref   1.073
_refine_ls_hydrogen_treatment    mixed
_refine_ls_matrix_type           full
_refine_ls_number_parameters     223
_refine_ls_number_reflns         3274
_refine_ls_number_restraints     1
_refine_ls_restrained_S_all      1.073
_refine_ls_R_factor_all          0.0552
_refine_ls_R_factor_gt           0.0445
_refine_ls_shift/su_max          0.001
_refine_ls_shift/su_mean         0.000
_refine_ls_structure_factor_coef Fsqd
_refine_ls_weighting_details
;
 w=1/[\s^2^(Fo^2^)+(0.0381P)^2^]
 where P=(Fo^2^+2Fc^2^)/3
;
_refine_ls_weighting_scheme      calc
_refine_ls_wR_factor_gt          0.0885
_refine_ls_wR_factor_ref         0.0949
_reflns_Friedel_coverage         0.000
_reflns_number_gt                2830
_reflns_number_total             3274
_reflns_threshold_expression     'I > 2\s(I)'
_cod_data_source_file            c8nj02846j2.cif
_cod_data_source_block           p1
_cod_depositor_comments
'Adding full bibliography for 7057624--7057627.cif.'
_cod_database_code               7057627
_shelx_space_group_comment
;
The symmetry employed for this shelxl refinement is uniquely defined
by the following loop, which should always be used as a source of
symmetry information in preference to the above space-group names.
They are only intended as comments.
;
_shelx_estimated_absorpt_t_min   0.164
_shelx_estimated_absorpt_t_max   0.271
_shelxl_version_number           2013-2
_shelx_res_file
;
TITL p1 in P-1
CELL  0.71073    7.7220    8.4029   12.0160    93.629   103.750   106.323
ZERR  2           0.0020    0.0019    0.0030     0.003     0.009     0.011
LATT 1
SFAC C  H  F  N  O  Pb
UNIT 26  2  8  2  10  2
omit   3   0   1
omit   5  -5   9
omit   3  -6  10
omit   3   0   0
omit   4  -6  10
omit   3   0   2
omit  -3   1   4
omit   3   3   3
omit   2  -6  11
omit   3  -5   9
omit   3   2   0
omit   3  -6  12
omit   6  -4   8
omit   3   3   5
omit   3  -4  12
omit   2  -6  10
L.S. 20
ACTA
BOND $H
FMAP 2
PLAN 20
CONF
SIZE 0.24 0.19 0.15
FREE Pb1  C7
DFIX 0.82 0.02 O5 H5B
WGHT    0.038100
FVAR       0.14291
PB1   6    0.417495    1.217569    0.961292    11.00000    0.03241    0.02428 =
         0.03376    0.01087    0.01158    0.00616
C1    1    0.191783    0.843028    1.197233    11.00000    0.03036    0.02844 =
         0.03262    0.01646    0.01928    0.00856
C2    1    0.051652    0.704887    1.137378    11.00000    0.02437    0.03309 =
         0.02445    0.01438    0.01412    0.00696
C3    1   -0.051546    0.577151    1.187608    11.00000    0.02880    0.03129 =
         0.02998    0.00961    0.00873    0.01022
C4    1    0.006197    0.594537    1.306216    11.00000    0.04911    0.04074 =
         0.03637    0.02429    0.02288    0.01246
C5    1    0.147501    0.730286    1.371125    11.00000    0.05623    0.04163 =
         0.02715    0.01111    0.01195    0.01084
C6    1    0.236755    0.852186    1.316855    11.00000    0.04506    0.03402 =
         0.02551   -0.00031    0.00794    0.00449
C7    1    0.282887    0.981124    1.135464    11.00000    0.02976    0.02803 =
         0.02733    0.00792    0.01150    0.00809
C8    1   -0.224096    0.442310    1.117074    11.00000    0.01652    0.03619 =
         0.03280    0.00263    0.00571    0.00125
C9    1    0.577003    1.485495    0.761551    11.00000    0.06921    0.03746 =
         0.02969    0.01033    0.01692    0.01341
AFIX  43
H9    2    0.650722    1.547239    0.832352    11.00000   -1.20000
AFIX   0
C10   1    0.597613    1.553293    0.662590    11.00000    0.06124    0.02903 =
         0.03492    0.00300    0.01517    0.00486
AFIX  43
H10   2    0.683284    1.658293    0.667899    11.00000   -1.20000
AFIX   0
C11   1    0.492446    1.466900    0.555920    11.00000    0.04357    0.02962 =
         0.02484    0.01294    0.01159    0.01482
C12   1    0.364891    1.311745    0.555742    11.00000    0.06228    0.04643 =
         0.02581    0.00749    0.00572    0.00295
AFIX  43
H12   2    0.288872    1.248377    0.485966    11.00000   -1.20000
AFIX   0
C13   1    0.351070    1.252104    0.658267    11.00000    0.05527    0.03944 =
         0.04158    0.01590    0.01419    0.00465
AFIX  43
H13   2    0.264199    1.148774    0.655856    11.00000   -1.20000
AFIX   0
O1    5    0.404640    0.960973    1.088953    11.00000    0.04298    0.03174 =
         0.04592    0.01327    0.02456    0.00909
O2    5    0.226938    1.107767    1.135552    11.00000    0.06378    0.02970 =
         0.06016    0.01302    0.03099    0.02113
O3    5   -0.316848    0.482316    1.027445    11.00000    0.03391    0.03778 =
         0.04216    0.01267    0.00635    0.00222
O4    5   -0.267583    0.302715    1.143087    11.00000    0.03696    0.03062 =
         0.05298    0.00502    0.01316    0.01188
O5    5    0.130603    0.963204    0.808809    11.00000    0.04528    0.04901 =
         0.07739    0.01684    0.02361    0.01417
F1    3    0.004145    0.698019    1.021174    11.00000    0.04056    0.05242 =
         0.02999    0.01912    0.00886    0.00137
F2    3   -0.081227    0.480439    1.364114    11.00000    0.07411    0.05893 =
         0.04219    0.02402    0.01919   -0.00891
F3    3    0.196313    0.744435    1.488365    11.00000    0.09548    0.08372 =
         0.02737    0.01570    0.00970   -0.00509
F4    3    0.374913    0.988618    1.381012    11.00000    0.06536    0.04606 =
         0.04205   -0.00390    0.00595   -0.00995
H5A   2    0.027646    0.940261    0.818910    11.00000   -1.20000
H5B   2    0.053736    0.931408    0.745133    11.00000   -1.20000
N1    4    0.457921    1.336971    0.761822    11.00000    0.05311    0.04182 =
         0.03313    0.01533    0.01899    0.01837
HKLF 4

REM  p1 in P-1
REM R1 =  0.0445 for    2830 Fo > 4sig(Fo)  and  0.0552 for all    3274 data
REM    223 parameters refined using      1 restraints

END

WGHT      0.0375      0.0000

REM Highest difference peak  1.740,  deepest hole -1.478,  1-sigma level  0.211
Q1    1   0.2947  0.7811  1.0430  11.00000  0.05    1.74
Q2    1  -0.0801  0.7795  1.0398  11.00000  0.05    1.30
Q3    1   0.3256  1.1370  0.9547  11.00000  0.05    1.29
Q4    1   0.5119  1.3200  0.9733  11.00000  0.05    1.12
Q5    1   0.2299  1.1728  0.9634  11.00000  0.05    1.04
Q6    1   0.4664  1.3240  0.8766  11.00000  0.05    0.97
Q7    1   0.4516  1.2130  1.0357  11.00000  0.05    0.96
Q8    1  -0.1038  0.3532  1.0995  11.00000  0.05    0.83
Q9    1   0.7833  1.6261  0.8939  11.00000  0.05    0.78
Q10   1   0.4096  1.2279  0.8770  11.00000  0.05    0.77
Q11   1   0.3792  1.2416  0.9562  11.00000  0.05    0.75
Q12   1   0.8121  1.6546  0.8663  11.00000  0.05    0.75
Q13   1   0.4015  1.3813  0.9909  11.00000  0.05    0.72
Q14   1   0.9144  1.7015  0.7749  11.00000  0.05    0.70
Q15   1  -0.0618  0.8139  0.7368  11.00000  0.05    0.69
Q16   1  -0.0513  0.6547  0.9979  11.00000  0.05    0.67
Q17   1  -0.5017  0.3061  1.1257  11.00000  0.05    0.65
Q18   1   0.8315  1.7389  0.6622  11.00000  0.05    0.64
Q19   1   0.5253  1.3667  0.8437  11.00000  0.05    0.63
Q20   1  -0.0545  0.5189  0.9657  11.00000  0.05    0.63
;
_shelx_res_checksum              90705
loop_
_space_group_symop_operation_xyz
'x, y, z'
'-x, -y, -z'
loop_
_atom_site_label
_atom_site_type_symbol
_atom_site_fract_x
_atom_site_fract_y
_atom_site_fract_z
_atom_site_U_iso_or_equiv
_atom_site_adp_type
_atom_site_occupancy
_atom_site_site_symmetry_order
_atom_site_calc_flag
_atom_site_refinement_flags_posn
_atom_site_refinement_flags_adp
Pb1 Pb 0.41749(4) 1.21757(3) 0.96129(3) 0.02988(12) Uani 1 1 d . .
C1 C 0.1918(11) 0.8430(9) 1.1972(7) 0.0281(17) Uani 1 1 d . .
C2 C 0.0517(10) 0.7049(9) 1.1374(7) 0.0259(16) Uani 1 1 d . .
C3 C -0.0515(11) 0.5772(9) 1.1876(7) 0.0294(17) Uani 1 1 d . .
C4 C 0.0062(13) 0.5945(10) 1.3062(8) 0.039(2) Uani 1 1 d . .
C5 C 0.1475(14) 0.7303(11) 1.3711(8) 0.042(2) Uani 1 1 d . .
C6 C 0.2368(13) 0.8522(10) 1.3169(7) 0.037(2) Uani 1 1 d . .
C7 C 0.2829(11) 0.9811(9) 1.1355(7) 0.0277(17) Uani 1 1 d . .
C8 C -0.2241(10) 0.4423(10) 1.1171(7) 0.0302(18) Uani 1 1 d . .
C9 C 0.5770(15) 1.4855(11) 0.7616(8) 0.045(2) Uani 1 1 d . .
H9 H 0.6507 1.5472 0.8324 0.054 Uiso 1 1 calc R U
C10 C 0.5976(14) 1.5533(10) 0.6626(8) 0.043(2) Uani 1 1 d . .
H10 H 0.6833 1.6583 0.6679 0.052 Uiso 1 1 calc R U
C11 C 0.4924(12) 1.4669(9) 0.5559(7) 0.0310(18) Uani 1 1 d . .
C12 C 0.3649(14) 1.3117(11) 0.5557(8) 0.049(2) Uani 1 1 d . .
H12 H 0.2889 1.2484 0.4860 0.058 Uiso 1 1 calc R U
C13 C 0.3511(14) 1.2521(11) 0.6583(8) 0.047(2) Uani 1 1 d . .
H13 H 0.2642 1.1488 0.6559 0.056 Uiso 1 1 calc R U
O1 O 0.4046(8) 0.9610(6) 1.0890(5) 0.0381(14) Uani 1 1 d . .
O2 O 0.2269(9) 1.1078(7) 1.1356(6) 0.0469(17) Uani 1 1 d . .
O3 O -0.3168(8) 0.4823(7) 1.0274(5) 0.0402(15) Uani 1 1 d . .
O4 O -0.2676(8) 0.3027(7) 1.1431(5) 0.0397(14) Uani 1 1 d . .
O5 O 0.1306(10) 0.9632(9) 0.8088(8) 0.056(2) Uani 1 1 d D .
F1 F 0.0041(7) 0.6980(6) 1.0212(4) 0.0432(12) Uani 1 1 d . .
F2 F -0.0812(9) 0.4804(7) 1.3641(5) 0.0632(17) Uani 1 1 d . .
F3 F 0.1963(10) 0.7444(8) 1.4884(5) 0.077(2) Uani 1 1 d . .
F4 F 0.3749(8) 0.9886(6) 1.3810(5) 0.0589(16) Uani 1 1 d . .
H5A H 0.028(17) 0.940(15) 0.819(11) 0.071 Uiso 1 1 d . U
H5B H 0.054(14) 0.931(14) 0.745(5) 0.071 Uiso 1 1 d D U
N1 N 0.4579(11) 1.3370(9) 0.7618(6) 0.0401(18) Uani 1 1 d . .
loop_
_atom_site_aniso_label
_atom_site_aniso_U_11
_atom_site_aniso_U_22
_atom_site_aniso_U_33
_atom_site_aniso_U_23
_atom_site_aniso_U_13
_atom_site_aniso_U_12
Pb1 0.03241(19) 0.02428(16) 0.0338(2) 0.01087(12) 0.01158(14) 0.00616(12)
C1 0.030(4) 0.028(4) 0.033(5) 0.016(3) 0.019(4) 0.009(3)
C2 0.024(4) 0.033(4) 0.024(4) 0.014(3) 0.014(3) 0.007(3)
C3 0.029(4) 0.031(4) 0.030(4) 0.010(3) 0.009(4) 0.010(3)
C4 0.049(5) 0.041(5) 0.036(5) 0.024(4) 0.023(4) 0.012(4)
C5 0.056(6) 0.042(5) 0.027(5) 0.011(4) 0.012(4) 0.011(4)
C6 0.045(5) 0.034(4) 0.026(4) 0.000(3) 0.008(4) 0.004(4)
C7 0.030(4) 0.028(4) 0.027(4) 0.008(3) 0.011(4) 0.008(3)
C8 0.017(4) 0.036(4) 0.033(5) 0.003(3) 0.006(3) 0.001(3)
C9 0.069(7) 0.037(5) 0.030(5) 0.010(4) 0.017(5) 0.013(5)
C10 0.061(6) 0.029(4) 0.035(5) 0.003(4) 0.015(5) 0.005(4)
C11 0.044(5) 0.030(4) 0.025(4) 0.013(3) 0.012(4) 0.015(4)
C12 0.062(7) 0.046(5) 0.026(5) 0.007(4) 0.006(5) 0.003(5)
C13 0.055(6) 0.039(5) 0.042(6) 0.016(4) 0.014(5) 0.005(4)
O1 0.043(4) 0.032(3) 0.046(4) 0.013(3) 0.025(3) 0.009(3)
O2 0.064(4) 0.030(3) 0.060(5) 0.013(3) 0.031(4) 0.021(3)
O3 0.034(3) 0.038(3) 0.042(4) 0.013(3) 0.006(3) 0.002(3)
O4 0.037(3) 0.031(3) 0.053(4) 0.005(3) 0.013(3) 0.012(3)
O5 0.045(4) 0.049(4) 0.077(6) 0.017(4) 0.024(4) 0.014(4)
F1 0.041(3) 0.052(3) 0.030(3) 0.019(2) 0.009(2) 0.001(2)
F2 0.074(4) 0.059(3) 0.042(3) 0.024(3) 0.019(3) -0.009(3)
F3 0.095(5) 0.084(4) 0.027(3) 0.016(3) 0.010(3) -0.005(4)
F4 0.065(4) 0.046(3) 0.042(3) -0.004(2) 0.006(3) -0.010(3)
N1 0.053(5) 0.042(4) 0.033(4) 0.015(3) 0.019(4) 0.018(4)
loop_
_atom_type_symbol
_atom_type_description
_atom_type_scat_dispersion_real
_atom_type_scat_dispersion_imag
_atom_type_scat_source
C C 0.0033 0.0016 'International Tables Vol C Tables 4.2.6.8 and 6.1.1.4'
H H 0.0000 0.0000 'International Tables Vol C Tables 4.2.6.8 and 6.1.1.4'
F F 0.0171 0.0103 'International Tables Vol C Tables 4.2.6.8 and 6.1.1.4'
N N 0.0061 0.0033 'International Tables Vol C Tables 4.2.6.8 and 6.1.1.4'
O O 0.0106 0.0060 'International Tables Vol C Tables 4.2.6.8 and 6.1.1.4'
Pb Pb -3.3944 10.1111 'International Tables Vol C Tables 4.2.6.8 and 6.1.1.4'
loop_
_geom_angle_atom_site_label_1
_geom_angle_atom_site_label_2
_geom_angle_atom_site_label_3
_geom_angle
_geom_angle_site_symmetry_1
_geom_angle_site_symmetry_3
O1 Pb1 O3 97.54(19) 2_677 1_665
O1 Pb1 N1 83.5(2) 2_677 .
O3 Pb1 N1 76.4(2) 1_665 .
O1 Pb1 O1 67.7(2) 2_677 .
O3 Pb1 O1 119.25(19) 1_665 .
N1 Pb1 O1 148.13(19) . .
O1 Pb1 O4 76.41(19) 2_677 1_665
O3 Pb1 O4 48.62(18) 1_665 1_665
N1 Pb1 O4 116.6(2) . 1_665
O1 Pb1 O4 70.74(17) . 1_665
C2 C1 C6 115.9(7) . .
C2 C1 C7 121.1(7) . .
C6 C1 C7 123.0(7) . .
F1 C2 C1 115.9(6) . .
F1 C2 C3 118.8(7) . .
C1 C2 C3 125.1(7) . .
C4 C3 C2 114.9(7) . .
C4 C3 C8 122.8(7) . .
C2 C3 C8 122.1(7) . .
F2 C4 C5 117.0(8) . .
F2 C4 C3 120.4(8) . .
C5 C4 C3 122.6(8) . .
F3 C5 C6 120.2(8) . .
F3 C5 C4 120.5(8) . .
C6 C5 C4 119.3(8) . .
C5 C6 F4 119.5(8) . .
C5 C6 C1 122.2(8) . .
F4 C6 C1 118.3(7) . .
O1 C7 O2 125.5(7) . .
O1 C7 C1 118.5(6) . .
O2 C7 C1 116.0(7) . .
O4 C8 O3 122.2(7) . .
O4 C8 C3 121.7(8) . .
O3 C8 C3 116.1(7) . .
N1 C9 C10 123.7(9) . .
N1 C9 H9 118.1 . .
C10 C9 H9 118.1 . .
C11 C10 C9 120.4(8) . .
C11 C10 H10 119.8 . .
C9 C10 H10 119.8 . .
C10 C11 C12 116.1(7) . .
C10 C11 C11 123.3(9) . 2_686
C12 C11 C11 120.5(9) . 2_686
C13 C12 C11 120.3(8) . .
C13 C12 H12 119.8 . .
C11 C12 H12 119.8 . .
N1 C13 C12 122.7(8) . .
N1 C13 H13 118.6 . .
C12 C13 H13 118.6 . .
C7 O1 Pb1 149.0(5) . 2_677
C7 O1 Pb1 97.4(5) . .
Pb1 O1 Pb1 112.3(2) 2_677 .
C8 O3 Pb1 99.6(5) . 1_445
C8 O4 Pb1 89.3(5) . 1_445
H5A O5 H5B 72(10) . .
C9 N1 C13 116.7(8) . .
C9 N1 Pb1 121.8(6) . .
C13 N1 Pb1 121.4(6) . .
loop_
_geom_bond_atom_site_label_1
_geom_bond_atom_site_label_2
_geom_bond_distance
_geom_bond_site_symmetry_2
Pb1 O1 2.437(6) 2_677
Pb1 O3 2.495(5) 1_665
Pb1 N1 2.708(7) .
Pb1 O1 2.717(5) .
Pb1 O4 2.738(6) 1_665
C1 C2 1.362(11) .
C1 C6 1.388(11) .
C1 C7 1.514(10) .
C2 F1 1.350(8) .
C2 C3 1.408(10) .
C3 C4 1.373(12) .
C3 C8 1.507(11) .
C4 F2 1.343(9) .
C4 C5 1.372(13) .
C5 F3 1.357(10) .
C5 C6 1.360(12) .
C6 F4 1.363(9) .
C7 O1 1.246(9) .
C7 O2 1.256(9) .
C8 O4 1.209(9) .
C8 O3 1.265(10) .
C9 N1 1.327(11) .
C9 C10 1.374(12) .
C9 H9 0.9300 .
C10 C11 1.373(11) .
C10 H10 0.9300 .
C11 C12 1.395(12) .
C11 C11 1.504(15) 2_686
C12 C13 1.375(12) .
C12 H12 0.9300 .
C13 N1 1.344(11) .
C13 H13 0.9300 .
O1 Pb1 2.437(6) 2_677
O3 Pb1 2.495(5) 1_445
O4 Pb1 2.738(6) 1_445
O5 H5A 0.80(11) .
O5 H5B 0.82(2) .
loop_
_geom_torsion_atom_site_label_1
_geom_torsion_atom_site_label_2
_geom_torsion_atom_site_label_3
_geom_torsion_atom_site_label_4
_geom_torsion
_geom_torsion_site_symmetry_1
_geom_torsion_site_symmetry_4
C6 C1 C2 F1 178.2(7) . .
C7 C1 C2 F1 1.6(11) . .
C6 C1 C2 C3 2.1(12) . .
C7 C1 C2 C3 -174.5(7) . .
F1 C2 C3 C4 -179.8(7) . .
C1 C2 C3 C4 -3.8(12) . .
F1 C2 C3 C8 -5.9(11) . .
C1 C2 C3 C8 170.1(7) . .
C2 C3 C4 F2 -179.9(8) . .
C8 C3 C4 F2 6.2(13) . .
C2 C3 C4 C5 3.1(13) . .
C8 C3 C4 C5 -170.8(8) . .
F2 C4 C5 F3 1.1(14) . .
C3 C4 C5 F3 178.1(9) . .
F2 C4 C5 C6 -178.0(8) . .
C3 C4 C5 C6 -0.9(14) . .
F3 C5 C6 F4 -0.2(14) . .
C4 C5 C6 F4 178.9(8) . .
F3 C5 C6 C1 179.9(8) . .
C4 C5 C6 C1 -1.0(14) . .
C2 C1 C6 C5 0.5(13) . .
C7 C1 C6 C5 177.0(8) . .
C2 C1 C6 F4 -179.4(7) . .
C7 C1 C6 F4 -2.9(12) . .
C2 C1 C7 O1 -80.0(10) . .
C6 C1 C7 O1 103.7(9) . .
C2 C1 C7 O2 99.8(9) . .
C6 C1 C7 O2 -76.6(11) . .
C4 C3 C8 O4 -37.7(12) . .
C2 C3 C8 O4 148.9(8) . .
C4 C3 C8 O3 144.5(8) . .
C2 C3 C8 O3 -29.0(11) . .
N1 C9 C10 C11 -0.2(15) . .
C9 C10 C11 C12 1.1(14) . .
C9 C10 C11 C11 -180.0(10) . 2_686
C10 C11 C12 C13 -0.8(14) . .
C11 C11 C12 C13 -179.7(10) 2_686 .
C11 C12 C13 N1 -0.6(16) . .
O2 C7 O1 Pb1 -176.6(7) . 2_677
C1 C7 O1 Pb1 3.2(15) . 2_677
O2 C7 O1 Pb1 -13.1(9) . .
C1 C7 O1 Pb1 166.6(6) . .
O4 C8 O3 Pb1 5.3(9) . 1_445
C3 C8 O3 Pb1 -176.9(6) . 1_445
O3 C8 O4 Pb1 -4.7(8) . 1_445
C3 C8 O4 Pb1 177.6(7) . 1_445
C10 C9 N1 C13 -1.1(14) . .
C10 C9 N1 Pb1 -177.8(7) . .
C12 C13 N1 C9 1.5(14) . .
C12 C13 N1 Pb1 178.2(8) . .
