#------------------------------------------------------------------------------
#$Date: 2019-10-29 06:15:30 +0200 (Tue, 29 Oct 2019) $
#$Revision: 220351 $
#$URL: file:///home/coder/svn-repositories/cod/cif/7/05/89/7058924.cif $
#------------------------------------------------------------------------------
#
# This file is available in the Crystallography Open Database (COD),
# http://www.crystallography.net/
#
# All data on this site have been placed in the public domain by the
# contributors.
#
data_7058924
loop_
_publ_author_name
'Juneja, Navkiran Kaur'
'Unruh, Daniel K.'
'Bosch, Eric'
'Groeneman , Ryan'
'Hutchins, Kristin M.'
_publ_section_title
;
 Effects of dynamic pedal motion and static disorder on thermal expansion
 within halogen bonded co-crystals
;
_journal_name_full               'New Journal of Chemistry'
_journal_paper_doi               10.1039/C9NJ04833B
_journal_year                    2019
_chemical_formula_sum            'C18 H10 Cl4 I2 N2'
_chemical_formula_weight         649.88
_space_group_IT_number           2
_space_group_name_Hall           '-P 1'
_space_group_name_H-M_alt        'P -1'
_symmetry_cell_setting           triclinic
_symmetry_Int_Tables_number      2
_symmetry_space_group_name_Hall  '-P 1'
_symmetry_space_group_name_H-M   'P -1'
_atom_sites_solution_hydrogens   geom
_atom_sites_solution_primary     dual
_atom_sites_solution_secondary   difmap
_audit_creation_date             2019-09-06T14:44:33-00:00
_audit_creation_method           'WinGX routine CIF_UPDATE'
_audit_update_record
;
2019-09-20 deposited with the CCDC.    2019-10-28 downloaded from the CCDC.
;
_cell_angle_alpha                110.4771(15)
_cell_angle_beta                 92.6533(12)
_cell_angle_gamma                94.5880(13)
_cell_formula_units_Z            1
_cell_length_a                   4.04426(6)
_cell_length_b                   10.88792(18)
_cell_length_c                   12.30931(18)
_cell_measurement_reflns_used    15376
_cell_measurement_temperature    210(2)
_cell_measurement_theta_max      77.133
_cell_measurement_theta_min      3.836
_cell_volume                     504.543(14)
_computing_cell_refinement       'CrysAlisPro 1.171.40.57a (Rigaku OD, 2019)'
_computing_data_collection       'CrysAlisPro 1.171.40.57a (Rigaku OD, 2019)'
_computing_data_reduction        'CrysAlisPro 1.171.40.57a (Rigaku OD, 2019)'
_computing_structure_refinement  'SHELXL-2018/3 (Sheldrick, 2018)'
_computing_structure_solution    'SHELXT 2014/5 (Sheldrick, 2014)'
_diffrn_ambient_environment      N~2~
_diffrn_ambient_temperature      210(2)
_diffrn_detector                 'Hybrid Pixel Array Detector'
_diffrn_detector_area_resol_mean 10
_diffrn_detector_type            HyPix
_diffrn_measured_fraction_theta_full 0.998
_diffrn_measured_fraction_theta_max 0.964
_diffrn_measurement_device       'four-circle diffractometer'
_diffrn_measurement_device_type  'XtaLAB Synergy, Dualflex, HyPix'
_diffrn_measurement_method       '\w scans'
_diffrn_orient_matrix_type
'CrysAlisPro convention (1999,Acta A55,543-557)'
_diffrn_orient_matrix_UB_11      -0.0162502
_diffrn_orient_matrix_UB_12      -0.0136548
_diffrn_orient_matrix_UB_13      -0.1290498
_diffrn_orient_matrix_UB_21      0.0267305
_diffrn_orient_matrix_UB_22      0.1511584
_diffrn_orient_matrix_UB_23      0.0360616
_diffrn_orient_matrix_UB_31      0.382086
_diffrn_orient_matrix_UB_32      0.0045032
_diffrn_orient_matrix_UB_33      0.0026843
_diffrn_radiation_monochromator  mirror
_diffrn_radiation_probe          x-ray
_diffrn_radiation_type           CuK\a
_diffrn_radiation_wavelength     1.54178
_diffrn_reflns_av_R_equivalents  0.0625
_diffrn_reflns_av_unetI/netI     0.0618
_diffrn_reflns_Laue_measured_fraction_full 0.998
_diffrn_reflns_Laue_measured_fraction_max 0.964
_diffrn_reflns_limit_h_max       4
_diffrn_reflns_limit_h_min       -4
_diffrn_reflns_limit_k_max       13
_diffrn_reflns_limit_k_min       -13
_diffrn_reflns_limit_l_max       15
_diffrn_reflns_limit_l_min       -15
_diffrn_reflns_number            18918
_diffrn_reflns_point_group_measured_fraction_full 0.998
_diffrn_reflns_point_group_measured_fraction_max 0.964
_diffrn_reflns_theta_full        67.679
_diffrn_reflns_theta_max         77.315
_diffrn_reflns_theta_min         3.845
_diffrn_source                   'micro-focus sealed X-ray tube'
_diffrn_source_type              'PhotonJet (Cu) X-ray Source'
_exptl_absorpt_coefficient_mu    29.399
_exptl_absorpt_correction_T_max  0.45
_exptl_absorpt_correction_T_min  0.134
_exptl_absorpt_correction_type   gaussian
_exptl_absorpt_process_details
;
        CrysAlisPro 1.171.40.57a (Rigaku Oxford Diffraction, 2019)
Numerical absorption correction based on gaussian integration over
                        a multifaceted crystal model
        Empirical absorption correction using spherical harmonics,
 implemented in SCALE3 ABSPACK scaling algorithm.
;
_exptl_crystal_colour            'clear colourless'
_exptl_crystal_density_diffrn    2.139
_exptl_crystal_description       block
_exptl_crystal_F_000             306
_exptl_crystal_size_max          0.12
_exptl_crystal_size_mid          0.086
_exptl_crystal_size_min          0.048
_refine_diff_density_max         0.771
_refine_diff_density_min         -1.034
_refine_diff_density_rms         0.108
_refine_ls_extinction_coef       0.0031(3)
_refine_ls_extinction_expression Fc^*^=kFc[1+0.001xFc^2^\l^3^/sin(2\q)]^-1/4^
_refine_ls_extinction_method     'SHELXL-2018/3 (Sheldrick 2018)'
_refine_ls_goodness_of_fit_ref   1.027
_refine_ls_hydrogen_treatment    constr
_refine_ls_matrix_type           full
_refine_ls_number_parameters     119
_refine_ls_number_reflns         2062
_refine_ls_number_restraints     0
_refine_ls_restrained_S_all      1.027
_refine_ls_R_factor_all          0.0253
_refine_ls_R_factor_gt           0.0242
_refine_ls_shift/su_max          0.001
_refine_ls_shift/su_mean         0
_refine_ls_structure_factor_coef Fsqd
_refine_ls_weighting_details
'w=1/[\s^2^(Fo^2^)+(0.0474P)^2^+0.1386P] where P=(Fo^2^+2Fc^2^)/3'
_refine_ls_weighting_scheme      calc
_refine_ls_wR_factor_gt          0.0648
_refine_ls_wR_factor_ref         0.0659
_reflns_Friedel_coverage         0
_reflns_number_gt                2014
_reflns_number_total             2062
_reflns_threshold_expression     'I > 2\s(I)'
_cod_data_source_file            c9nj04833b2.cif
_cod_data_source_block           hut19_49_210
_cod_original_cell_volume        504.543(15)
_cod_database_code               7058924
_shelx_estimated_absorpt_t_min   0.126
_shelx_estimated_absorpt_t_max   0.333
_shelx_shelxl_version_number     2018/3
_shelx_res_file
;
TITL 210_a.res in P-1
    210_a.res
    created by SHELXL-2018/3 at 11:14:26 on 06-Sep-2019
REM Old TITL 210 in P1

REM SHELXT solution in P-1
REM R1 0.135,  Rweak 0.011,  Alpha 0.039,  Orientation as input
REM Formula found by SHELXT:  C10 O2 I

CELL  1.54178   4.044263  10.887916  12.309306   110.4771    92.6533    94.5880
ZERR    1.000   0.000062   0.000183   0.000183     0.0015     0.0012     0.0013
LATT  1
SFAC C H CL I N
UNIT 18 10 4 2 2
TEMP -63.2
SIZE 0.120 0.086 0.048
L.S. 10
BOND $H
ACTA
LIST 4
FMAP 2
PLAN 20

BIND I1 N1

WGHT    0.047400    0.138600
EXTI    0.003076
FVAR       0.60003
I1    4    0.709254    0.710531    0.286617    11.00000    0.03057    0.02727 =
         0.02852    0.00271    0.00325    0.00627
CL1   3    0.403655    0.733503    0.541095    11.00000    0.05670    0.02780 =
         0.03501    0.01391    0.00572    0.00461
CL2   3    0.229423    0.986853    0.728462    11.00000    0.04570    0.03847 =
         0.02749    0.01269    0.01091    0.00415
N1    5    0.887619    0.454686    0.143474    11.00000    0.04587    0.02365 =
         0.04191    0.00844    0.00942    0.00707
C1    1    0.583122    0.882711    0.413636    11.00000    0.02748    0.02340 =
         0.02701    0.00677    0.00217    0.00451
C2    1    0.460334    0.880972    0.516890    11.00000    0.02643    0.02435 =
         0.02520    0.00805   -0.00036    0.00166
C3    1    0.378189    0.994728    0.601592    11.00000    0.02488    0.02992 =
         0.02313    0.00890    0.00150    0.00115
C4    1    1.045841    0.407059    0.215426    11.00000    0.05229    0.02755 =
         0.03330    0.00430    0.00049   -0.00063
AFIX  43
H4    2    1.114486    0.465122    0.291287    11.00000   -1.20000
AFIX   0
C5    1    1.114190    0.278290    0.185153    11.00000    0.04527    0.03088 =
         0.03573    0.01439    0.00152    0.00401
AFIX  43
H5    2    1.230138    0.250614    0.239000    11.00000   -1.20000
AFIX   0
C6    1    1.010882    0.189253    0.074474    11.00000    0.03169    0.02483 =
         0.03617    0.01174    0.01022    0.00410
C7    1    0.845304    0.237971   -0.000967    11.00000    0.04494    0.02316 =
         0.02903    0.00517    0.00221    0.00426
AFIX  43
H7    2    0.770885    0.181987   -0.077006    11.00000   -1.20000
AFIX   0
C8    1    0.791325    0.369947    0.037243    11.00000    0.04286    0.02965 =
         0.03995    0.01504    0.00374    0.00973
AFIX  43
H8    2    0.680194    0.401289   -0.015016    11.00000   -1.20000
AFIX   0
C9    1    1.078657    0.050523    0.043514    11.00000    0.03346    0.02735 =
         0.03283    0.01373    0.00800    0.00750
AFIX  43
H9    2    1.246974    0.032134    0.089115    11.00000   -1.20000
AFIX   0
HKLF 4




REM  210_a.res in P-1
REM wR2 = 0.065926, GooF = S = 1.02684, Restrained GooF = 1.02684 for all data
REM R1 = 0.024194 for 2014 Fo > 4sig(Fo) and 0.025256 for all 2062 data
REM 119 parameters refined using 0 restraints

END

WGHT      0.0444      0.1418

REM Highest difference peak  0.771,  deepest hole -1.034,  1-sigma level  0.108
Q1    1   0.8761  0.7145  0.3480  11.00000  0.05    0.77
Q2    1   0.5484  0.6921  0.2226  11.00000  0.05    0.68
Q3    1   0.6041  0.7794  0.3424  11.00000  0.05    0.54
Q4    1   0.8047  0.6539  0.2319  11.00000  0.05    0.50
Q5    1   0.6632  0.5911  0.2846  11.00000  0.05    0.48
Q6    1   0.7620  0.7521  0.4037  11.00000  0.05    0.47
Q7    1   0.5574  0.7137  0.3604  11.00000  0.05    0.44
Q8    1   0.5092  0.6158  0.2434  11.00000  0.05    0.40
Q9    1   0.9577  0.8344  0.3173  11.00000  0.05    0.38
Q10   1   0.8085  0.8248  0.2993  11.00000  0.05    0.36
Q11   1   0.2426  0.6955  0.4597  11.00000  0.05    0.35
Q12   1   1.3390  0.4842  0.3271  11.00000  0.05    0.35
Q13   1   0.2787  0.7240  0.2043  11.00000  0.05    0.33
Q14   1   1.3650  0.5606  0.2798  11.00000  0.05    0.33
Q15   1  -0.0529  1.1186  0.7416  11.00000  0.05    0.33
Q16   1   0.2111  0.7000  0.3587  11.00000  0.05    0.32
Q17   1   1.4090  0.5350  0.3102  11.00000  0.05    0.31
Q18   1   0.4184  1.0967  0.7403  11.00000  0.05    0.31
Q19   1   1.1175  0.6766  0.3804  11.00000  0.05    0.31
Q20   1   1.0699  0.1211  0.0477  11.00000  0.05    0.30
;
_shelx_res_checksum              73483
loop_
_symmetry_equiv_pos_as_xyz
'x, y, z'
'-x, -y, -z'
loop_
_atom_site_label
_atom_site_type_symbol
_atom_site_fract_x
_atom_site_fract_y
_atom_site_fract_z
_atom_site_U_iso_or_equiv
_atom_site_adp_type
_atom_site_occupancy
_atom_site_site_symmetry_order
_atom_site_calc_flag
_atom_site_refinement_flags_posn
_atom_site_refinement_flags_adp
I1 I 0.70925(4) 0.71053(2) 0.28662(2) 0.03049(11) Uani 1 1 d . .
Cl1 Cl 0.4037(2) 0.73350(7) 0.54110(7) 0.0390(2) Uani 1 1 d . .
Cl2 Cl 0.2294(2) 0.98685(7) 0.72846(6) 0.03670(19) Uani 1 1 d . .
N1 N 0.8876(8) 0.4547(3) 0.1435(3) 0.0376(6) Uani 1 1 d . .
C1 C 0.5831(8) 0.8827(3) 0.4136(3) 0.0264(6) Uani 1 1 d . .
C2 C 0.4603(7) 0.8810(3) 0.5169(2) 0.0257(6) Uani 1 1 d . .
C3 C 0.3782(7) 0.9947(3) 0.6016(2) 0.0262(6) Uani 1 1 d . .
C4 C 1.0458(10) 0.4071(3) 0.2154(3) 0.0398(8) Uani 1 1 d . .
H4 H 1.114486 0.465122 0.291287 0.048 Uiso 1 1 calc R U
C5 C 1.1142(9) 0.2783(3) 0.1852(3) 0.0367(7) Uani 1 1 d . .
H5 H 1.230138 0.250614 0.239 0.044 Uiso 1 1 calc R U
C6 C 1.0109(8) 0.1893(3) 0.0745(3) 0.0303(6) Uani 1 1 d . .
C7 C 0.8453(9) 0.2380(3) -0.0010(3) 0.0335(7) Uani 1 1 d . .
H7 H 0.770885 0.181987 -0.077006 0.04 Uiso 1 1 calc R U
C8 C 0.7913(9) 0.3699(3) 0.0372(3) 0.0364(7) Uani 1 1 d . .
H8 H 0.680194 0.401289 -0.015016 0.044 Uiso 1 1 calc R U
C9 C 1.0787(8) 0.0505(3) 0.0435(3) 0.0300(6) Uani 1 1 d . .
H9 H 1.246974 0.032134 0.089115 0.036 Uiso 1 1 calc R U
loop_
_atom_site_aniso_label
_atom_site_aniso_U_11
_atom_site_aniso_U_22
_atom_site_aniso_U_33
_atom_site_aniso_U_23
_atom_site_aniso_U_13
_atom_site_aniso_U_12
I1 0.03057(17) 0.02727(14) 0.02852(15) 0.00271(9) 0.00325(8) 0.00627(8)
Cl1 0.0567(5) 0.0278(3) 0.0350(4) 0.0139(3) 0.0057(3) 0.0046(3)
Cl2 0.0457(5) 0.0385(4) 0.0275(4) 0.0127(3) 0.0109(3) 0.0041(3)
N1 0.0459(18) 0.0237(12) 0.0419(16) 0.0084(11) 0.0094(13) 0.0071(11)
C1 0.0275(16) 0.0234(13) 0.0270(14) 0.0068(10) 0.0022(11) 0.0045(10)
C2 0.0264(16) 0.0244(12) 0.0252(14) 0.0081(10) -0.0004(11) 0.0017(10)
C3 0.0249(16) 0.0299(14) 0.0231(13) 0.0089(11) 0.0015(11) 0.0012(11)
C4 0.052(2) 0.0276(14) 0.0333(16) 0.0043(12) 0.0005(14) -0.0006(13)
C5 0.045(2) 0.0309(15) 0.0357(17) 0.0144(13) 0.0015(14) 0.0040(13)
C6 0.0317(17) 0.0248(13) 0.0362(16) 0.0117(12) 0.0102(12) 0.0041(11)
C7 0.045(2) 0.0232(13) 0.0290(15) 0.0052(11) 0.0022(13) 0.0043(12)
C8 0.043(2) 0.0296(15) 0.0400(17) 0.0150(13) 0.0037(14) 0.0097(13)
C9 0.0335(17) 0.0273(13) 0.0328(15) 0.0137(11) 0.0080(12) 0.0075(11)
loop_
_atom_type_symbol
_atom_type_description
_atom_type_scat_dispersion_real
_atom_type_scat_dispersion_imag
_atom_type_scat_source
C C 0.0181 0.0091 'International Tables Vol C Tables 4.2.6.8 and 6.1.1.4'
H H 0 0 'International Tables Vol C Tables 4.2.6.8 and 6.1.1.4'
Cl Cl 0.3639 0.7018 'International Tables Vol C Tables 4.2.6.8 and 6.1.1.4'
I I -0.3257 6.8362 'International Tables Vol C Tables 4.2.6.8 and 6.1.1.4'
N N 0.0311 0.018 'International Tables Vol C Tables 4.2.6.8 and 6.1.1.4'
loop_
_exptl_crystal_face_index_h
_exptl_crystal_face_index_k
_exptl_crystal_face_index_l
_exptl_crystal_face_perp_dist
1 -4 7 0.0254
0 7 -3 0.0206
-3 1 -1 0.0667
0 4 -8 0.0449
-3 0 0 0.0713
3 0 0 0.0225
0 -6 -2 0.0356
0 -4 -5 0.0281
0 -6 -1 0.0337
0 6 2 0.0131
loop_
_geom_angle_atom_site_label_1
_geom_angle_atom_site_label_2
_geom_angle_atom_site_label_3
_geom_angle
_geom_angle_site_symmetry_1
_geom_angle_site_symmetry_3
C1 I1 N1 170.07(10) . .
C8 N1 C4 116.6(3) . .
C8 N1 I1 135.2(2) . .
C4 N1 I1 106.3(2) . .
C2 C1 C3 117.2(3) . 2_676
C2 C1 I1 121.4(2) . .
C3 C1 I1 121.4(2) 2_676 .
C3 C2 C1 121.7(3) . .
C3 C2 Cl1 118.6(2) . .
C1 C2 Cl1 119.7(2) . .
C2 C3 C1 121.1(3) . 2_676
C2 C3 Cl2 119.7(2) . .
C1 C3 Cl2 119.2(2) 2_676 .
N1 C4 C5 123.9(3) . .
N1 C4 H4 118 . .
C5 C4 H4 118 . .
C4 C5 C6 119.6(3) . .
C4 C5 H5 120.2 . .
C6 C5 H5 120.2 . .
C5 C6 C7 116.9(3) . .
C5 C6 C9 119.2(3) . .
C7 C6 C9 123.9(3) . .
C8 C7 C6 119.3(3) . .
C8 C7 H7 120.4 . .
C6 C7 H7 120.4 . .
N1 C8 C7 123.8(3) . .
N1 C8 H8 118.1 . .
C7 C8 H8 118.1 . .
C9 C9 C6 125.3(4) 2_755 .
C9 C9 H9 117.3 2_755 .
C6 C9 H9 117.3 . .
loop_
_geom_bond_atom_site_label_1
_geom_bond_atom_site_label_2
_geom_bond_distance
_geom_bond_site_symmetry_2
I1 C1 2.096(3) .
I1 N1 2.896(3) .
Cl1 C2 1.732(3) .
Cl2 C3 1.726(3) .
N1 C8 1.328(4) .
N1 C4 1.336(5) .
C1 C2 1.391(4) .
C1 C3 1.409(4) 2_676
C2 C3 1.388(4) .
C4 C5 1.374(5) .
C4 H4 0.94 .
C5 C6 1.389(5) .
C5 H5 0.94 .
C6 C7 1.391(4) .
C6 C9 1.475(4) .
C7 C8 1.386(4) .
C7 H7 0.94 .
C8 H8 0.94 .
C9 C9 1.328(6) 2_755
C9 H9 0.94 .
