#------------------------------------------------------------------------------
#$Date: 2019-11-08 02:42:48 +0200 (Fri, 08 Nov 2019) $
#$Revision: 224836 $
#$URL: file:///home/coder/svn-repositories/cod/cif/7/05/82/7058294.cif $
#------------------------------------------------------------------------------
#
# This file is available in the Crystallography Open Database (COD),
# http://www.crystallography.net/
#
# All data on this site have been placed in the public domain by the
# contributors.
#
data_7058294
loop_
_publ_author_name
'Ahamad, M. Naqi'
'Shahid, M.'
'Ansari, Azaj'
'Kumar, Manjeet'
'Khan, Ishaat M.'
'Ahmad, Musheer'
'Rahisuddin, Rahisuddin'
'Arif, Rizwan'
_publ_section_title
;
 A combined experimental and theoretical approach to investigate the
 structure, magnetic properties and DNA binding affinity of a
 homodinuclear Cu(ii) complex
;
_journal_issue                   19
_journal_name_full               'New Journal of Chemistry'
_journal_page_first              7511
_journal_paper_doi               10.1039/C9NJ00228F
_journal_volume                  43
_journal_year                    2019
_chemical_formula_moiety         'C10 H22 Cu2 N2 O6'
_chemical_formula_sum            'C10 H22 Cu2 N2 O6'
_chemical_formula_weight         393.39
_space_group_crystal_system      triclinic
_space_group_IT_number           2
_space_group_name_Hall           '-P 1'
_space_group_name_H-M_alt        'P -1'
_symmetry_Int_Tables_number      2
_symmetry_space_group_name_Hall  '-P 1'
_symmetry_space_group_name_H-M   'P -1'
_atom_sites_solution_primary     direct
_audit_creation_date             2018-05-11
_audit_creation_method
;
Olex2 1.2
(compiled 2018.04.26 svn.r3504 for OlexSys, GUI svn.r5492)
;
_audit_update_record
;
2019-01-13 deposited with the CCDC.    2019-04-10 downloaded from the CCDC.
;
_cell_angle_alpha                114.9630(10)
_cell_angle_beta                 97.9810(10)
_cell_angle_gamma                92.2600(10)
_cell_formula_units_Z            1
_cell_length_a                   4.6397(2)
_cell_length_b                   8.8879(3)
_cell_length_c                   10.1789(3)
_cell_measurement_reflns_used    4474
_cell_measurement_theta_max      26.00
_cell_measurement_theta_min      2.19
_cell_volume                     374.60(2)
_computing_cell_refinement       'SAINT V8.38A (?, 2016)'
_computing_data_reduction        'SAINT V8.38A (?, 2016)'
_computing_molecular_graphics    'Olex2 (Dolomanov et al., 2009)'
_computing_publication_material  'Olex2 (Dolomanov et al., 2009)'
_computing_structure_refinement  'olex2.refine (Bourhis et al., 2015)'
_computing_structure_solution    'SIR97 (Burla et al.,  2007)'
_diffrn_measured_fraction_theta_full 0.9939
_diffrn_measured_fraction_theta_max 0.9939
_diffrn_measurement_device_type  'Bruker APEX-II CCD'
_diffrn_measurement_method       '\f and \w scans'
_diffrn_radiation_type           'Mo K\a'
_diffrn_radiation_wavelength     0.71073
_diffrn_reflns_av_R_equivalents  0.0277
_diffrn_reflns_av_unetI/netI     0.0284
_diffrn_reflns_limit_h_max       6
_diffrn_reflns_limit_h_min       -6
_diffrn_reflns_limit_k_max       11
_diffrn_reflns_limit_k_min       -11
_diffrn_reflns_limit_l_max       13
_diffrn_reflns_limit_l_min       -13
_diffrn_reflns_number            5940
_diffrn_reflns_theta_full        24.9991
_diffrn_reflns_theta_max         25.00
_diffrn_reflns_theta_min         4.05
_diffrn_standards_number         0
_exptl_absorpt_coefficient_mu    2.862
_exptl_absorpt_correction_T_max  0.7457
_exptl_absorpt_correction_T_min  0.5341
_exptl_absorpt_correction_type   multi-scan
_exptl_absorpt_process_details
;
SADABS-2016/2 (Bruker,2016/2) was used for absorption correction.
wR2(int) was 0.1051 before and 0.0425 after correction.
The Ratio of minimum to maximum transmission is 0.7162.
The \l/2 correction factor is Not present.
;
_exptl_crystal_density_diffrn    1.7437
_exptl_crystal_F_000             202.7653
_exptl_crystal_size_max          0.31
_exptl_crystal_size_mid          0.21
_exptl_crystal_size_min          0.14
_refine_diff_density_max         0.3307
_refine_diff_density_min         -0.2892
_refine_diff_density_rms         0.0644
_refine_ls_d_res_high            0.8409
_refine_ls_d_res_low             5.0281
_refine_ls_goodness_of_fit_ref   1.0575
_refine_ls_hydrogen_treatment    constr
_refine_ls_matrix_type           full
_refine_ls_number_constraints    16
_refine_ls_number_parameters     92
_refine_ls_number_reflns         1312
_refine_ls_number_restraints     0
_refine_ls_restrained_S_all      1.0575
_refine_ls_R_factor_all          0.0204
_refine_ls_R_factor_gt           0.0189
_refine_ls_shift/su_max          0.0000
_refine_ls_shift/su_mean         0.0000
_refine_ls_structure_factor_coef Fsqd
_refine_ls_weighting_details
'w=1/[\s^2^(Fo^2^)+(0.0130P)^2^+0.3710P] where P=(Fo^2^+2Fc^2^)/3'
_refine_ls_weighting_scheme      calc
_refine_ls_wR_factor_gt          0.0450
_refine_ls_wR_factor_ref         0.0457
_reflns_Friedel_coverage         0.0
_reflns_limit_h_max              5
_reflns_limit_h_min              -5
_reflns_limit_k_max              9
_reflns_limit_k_min              -10
_reflns_limit_l_max              12
_reflns_limit_l_min              0
_reflns_number_gt                1258
_reflns_number_total             1312
_reflns_threshold_expression     I>=2u(I)
_iucr_refine_instructions_details
;
TITL mn07_0m in P -1
CELL 0.71073 4.6397 8.8879 10.1789 114.963 97.981 92.26
ZERR 1 0.0002 0.0003 0.0003 0.001 0.001 0.001
LATT 1
SFAC C H Cu N O
UNIT 10 22 2 2 6

L.S. 4
PLAN  20
SIZE 0.31 0.21 0.14
FMAP 2
acta 
bond $H
conf 
BOND 
MERG 2
OMIT -3 50
OMIT 0 1 0
OMIT 0 0 1
OMIT 0 -1 1
WGHT 0.013 0.371
FVAR 0.417426
REM <olex2.extras>
REM <HklSrc "%.\\MN07_0m.hkl">
REM </olex2.extras>

Cu1   3     0.61498  0.61546  0.94018  11.00000  0.01763  0.00851  0.00896 =
 0.00459  0.00132  0.00203 
O1    5     0.65686  0.57839  1.11387  11.00000  0.02427  0.01345  0.00992 =
 0.00579 -0.00403 -0.00410 
O2    5     0.54540  0.61102  0.74670  11.00000  0.02746  0.01140  0.01119 =
 0.00575  0.00317  0.00546 
O3    5     0.30604  0.83379  0.84244  11.00000  0.02031  0.01526  0.01530 =
 0.00536  0.00491  0.00461 
N1    4     0.88514  0.82191  1.02600  11.00000  0.01765  0.01296  0.01303 =
 0.00649  0.00424  0.00453 
AFIX 23
H1a   2     0.99015  0.81901  0.95713  11.00000 -1.20000 
H1b   2     0.77628  0.90774  1.04317  11.00000 -1.20000 
AFIX 0
C4    1     0.39040  0.72269  0.73652  11.00000  0.01703  0.01119  0.01354 =
 0.00574  0.00069 -0.00148 
C2    1     0.94397  0.84336  1.27933  11.00000  0.01790  0.01424  0.01208 =
 0.00304 -0.00206  0.00034 
AFIX 23
H2a   2     1.07410  0.89691  1.37346  11.00000 -1.20000 
H2b   2     0.76982  0.90136  1.28729  11.00000 -1.20000 
AFIX 0
C1    1     1.09420  0.86140  1.16308  11.00000  0.01498  0.01834  0.01934 =
 0.00945 -0.00058  0.00032 
AFIX 23
H1c   2     1.24644  0.78709  1.14132  11.00000 -1.20000 
H1d   2     1.18623  0.97490  1.20084  11.00000 -1.20000 
AFIX 0
C3    1     0.85727  0.66332  1.24762  11.00000  0.02085  0.01607  0.01071 =
 0.00667 -0.00240  0.00070 
AFIX 23
H3a   2     0.76912  0.66100  1.32785  11.00000 -1.20000 
H3b   2     1.03143  0.60556  1.24241  11.00000 -1.20000 
AFIX 0
C5    1     0.31423  0.71516  0.58486  11.00000  0.04920  0.02104  0.01456 =
 0.00796  0.00272  0.01441 
AFIX 137
H5a   2     0.45032  0.79164  0.57403  11.00000 -1.50000 
H5b   2     0.32439  0.60389  0.51246  11.00000 -1.50000 
H5c   2     0.11948  0.74516  0.57150  11.00000 -1.50000 
AFIX 0
HKLF 4

END
Q1 1 0.333333 0.703704 0.65625 11 0.05 0.33
Q2 1 0.6 0.592593 0.84375 11 0.05 0.28
Q3 1 0.4 0.592593 0.9375 11 0.05 0.27
Q4 1 0.666667 0.666667 1.0625 11 0.05 0.27
Q5 1 0.266667 0.814815 0.59375 11 0.05 0.24
Q6 1 0.4 0.666667 0.53125 11 0.05 0.23
Q7 1 1 0.814815 1.09375 11 0.05 0.22
Q8 1 0.466667 0.518519 1.09375 11 0.05 0.21
Q9 1 0.133333 0.666667 0.59375 11 0.05 0.21
Q10 1 1.133333 0.888889 1.28125 11 0.05 0.2
Q11 1 0.666667 0.740741 0.90625 11 0.05 0.19
Q12 1 0.8 0.62963 0.9375 11 0.05 0.19
Q13 1 0.333333 0.777778 0.8125 11 0.05 0.18
Q14 1 0.8 0.592593 1.15625 11 0.05 0.18
Q15 1 0.733333 0.851852 1.03125 11 0.05 0.18
Q16 1 0.533333 0.666667 0.71875 11 0.05 0.17
Q17 1 0.933333 0.851852 1.21875 11 0.05 0.17
Q18 1 0.133333 0.851852 0.8125 11 0.05 0.16
Q19 1 0.733333 0.888889 1.3125 11 0.05 0.16
Q20 1 0.933333 0.740741 1.25 11 0.05 0.16

  REM The information below was added by Olex2.
  REM
  REM R1 = 0.0189 for 1258 Fo > 4sig(Fo) and 0.0204 for all 1312 data
  REM 92 parameters refined using 0 restraints
  REM Highest difference peak 0.3307, deepest hole -0.2892
  REM Mean Shift 0.0000, Max Shift 0.0000.

  REM +++ Tabular Listing of Refinement Information +++
  REM R1_all = 0.0204
  REM R1_gt = 0.0189
  REM wR_ref = 0.0457
  REM GOOF = 1.0575
  REM Shift_max = 0.0000
  REM Shift_mean = 0.0000
  REM Reflections_all = 1312
  REM Reflections_gt = 1258
  REM Parameters = 92
  REM Hole = -0.2892
  REM Peak = 0.3307
  REM Flack = n/a

  
;
_cod_data_source_file            c9nj00228f2.cif
_cod_data_source_block           mn07_0m
_cod_depositor_comments          'Adding full bibliography for 7058294.cif.'
_cod_database_code               7058294
_olex2_refinement_description
;
1. Fixed Uiso
 At 1.2 times of:
  All C(H,H) groups, All N(H,H) groups
 At 1.5 times of:
  All C(H,H,H) groups
2.a Secondary CH2 refined with riding coordinates:
 N1(H1a,H1b), C2(H2a,H2b), C1(H1c,H1d), C3(H3a,H3b)
2.b Idealised Me refined as rotating group:
 C5(H5a,H5b,H5c)
;
_iucr_refine_fcf_details
;
data_mn07_0m_CCDC1
_computing_structure_refinement   'olex2.refine (Bourhis et al., 2015)'
_shelx_refln_list_code            4
loop_
  _space_group_symop_id
  _space_group_symop_operation_xyz
  1  x,y,z
  2  -x,-y,-z

_space_group_crystal_system       triclinic
_space_group_IT_number            2
_space_group_name_H-M_alt         'P -1'
_space_group_name_Hall            '-P 1'
_symmetry_space_group_name_H-M    'P -1'
_symmetry_space_group_name_Hall   '-P 1'
_symmetry_Int_Tables_number       2
_cell_length_a                    4.6397(2)
_cell_length_b                    8.8879(3)
_cell_length_c                    10.1789(3)
_cell_angle_alpha                 114.9630(10)
_cell_angle_beta                  97.9810(10)
_cell_angle_gamma                 92.2600(10)
_cell_volume                      374.60(2)
loop_
  _refln_index_h
  _refln_index_k
  _refln_index_l
  _refln_F_squared_calc
  _refln_F_squared_meas
  _refln_F_squared_sigma
  _refln_F_squared_weight
  _refln_observed_status
-5 -4 3 51.428 51.129 5.093 68.098 o
-5 -4 4 35.617 35.342 5.285 74.853 o
-5 -3 1 580.912 586.703 12.023 7.397 o
-5 -3 2 208.627 223.637 7.080 22.562 o
-5 -3 3 46.793 38.296 5.794 61.617 o
-5 -3 4 10.785 11.750 2.458 303.710 o
-5 -3 5 18.370 16.430 3.093 190.984 o
-5 -3 6 0.090 -2.739 1.704 1056.810 o
-5 -2 1 109.245 116.684 5.958 39.127 o
-5 -2 2 109.822 119.490 4.949 45.094 o
-5 -2 3 211.143 224.386 8.286 19.767 o
-5 -2 4 208.098 201.449 7.084 23.131 o
-5 -2 5 44.443 49.364 3.847 95.902 o
-5 -2 6 13.819 13.070 4.596 118.132 o
-5 -1 1 5.149 8.256 2.035 480.151 o
-5 -1 2 88.750 81.612 3.663 66.203 o
-5 -1 3 146.659 160.664 5.564 34.003 o
-5 -1 4 251.492 249.463 7.930 18.571 o
-5 -1 5 289.291 291.181 10.189 13.713 o
-5 -1 6 278.237 279.188 8.112 16.971 o
-5 0 1 165.316 165.342 5.600 31.786 o
-5 0 2 66.134 65.904 3.382 84.327 o
-5 0 3 9.050 8.353 1.872 455.544 o
-5 0 4 18.828 22.602 3.437 160.018 o
-5 0 5 156.951 160.166 6.037 31.152 o
-5 0 6 354.801 360.487 8.108 14.087 o
-5 1 1 825.786 869.079 14.835 4.751 o
-5 1 2 365.730 381.222 9.796 12.045 o
-5 1 3 16.628 17.747 3.173 188.363 o
-5 1 4 59.627 65.112 3.775 82.070 o
-5 1 5 65.969 53.316 3.895 79.872 o
-5 2 1 267.664 269.262 9.209 15.745 o
-5 2 2 354.691 380.955 11.179 10.964 o
-5 2 3 196.648 214.515 8.091 20.962 o
-5 2 4 117.686 125.524 11.325 17.643 o
-5 3 1 19.620 18.654 3.923 136.782 o
-5 3 2 229.255 239.944 16.177 8.659 o
-5 3 3 471.085 481.855 12.538 8.329 o
-5 4 1 42.677 49.364 5.967 58.796 o
-5 4 2 12.595 15.938 4.260 132.931 o
-4 -6 1 14.429 12.836 2.593 259.698 o
-4 -6 2 48.990 49.033 4.103 87.329 o
-4 -6 3 106.164 96.710 5.303 45.403 o
-4 -6 4 139.255 143.787 8.872 23.036 o
-4 -6 5 316.372 300.727 24.376 4.261 o
-4 -6 6 459.090 468.700 12.728 8.369 o
-4 -6 7 454.797 437.376 13.879 7.866 o
-4 -6 8 125.687 140.329 15.125 11.043 o
-4 -5 1 945.438 920.911 21.011 3.299 o
-4 -5 2 344.763 349.745 9.965 12.467 o
-4 -5 3 43.494 42.893 3.659 103.919 o
-4 -5 4 85.461 86.518 4.524 57.769 o
-4 -5 5 25.257 30.846 5.363 79.417 o
-4 -5 6 103.471 107.706 5.204 45.587 o
-4 -5 7 327.862 323.350 9.036 14.014 o
-4 -5 8 108.583 102.275 8.155 28.663 o
-4 -4 1 515.709 519.330 13.454 7.401 o
-4 -4 2 446.880 449.882 10.895 9.704 o
-4 -4 3 123.971 119.833 5.214 41.129 o
-4 -4 4 77.265 85.437 4.239 63.480 o
-4 -4 5 27.207 32.746 3.171 147.471 o
-4 -4 6 61.875 67.020 3.798 79.925 o
-4 -4 7 218.877 205.866 6.424 24.045 o
-4 -4 8 256.522 232.949 16.012 8.614 o
-4 -4 9 133.434 137.535 10.445 19.073 o
-4 -3 1 7.164 3.573 2.242 426.874 o
-4 -3 2 197.758 195.351 9.269 18.685 o
-4 -3 3 548.504 555.547 11.944 7.766 o
-4 -3 4 235.663 231.106 6.917 21.485 o
-4 -3 5 166.700 172.201 6.279 28.975 o
-4 -3 6 138.405 136.056 7.552 27.793 o
-4 -3 7 38.007 42.153 3.289 120.404 o
-4 -3 8 55.615 57.802 6.465 48.919 o
-4 -3 9 127.061 114.635 10.437 19.691 o
-4 -2 1 12.792 11.174 2.059 351.037 o
-4 -2 2 84.923 83.400 4.076 62.951 o
-4 -2 3 240.175 234.476 6.945 21.154 o
-4 -2 4 177.861 180.210 6.558 26.972 o
-4 -2 5 435.616 431.536 10.789 9.998 o
-4 -2 6 890.641 854.058 16.915 4.166 o
-4 -2 7 741.069 703.972 10.860 6.471 o
-4 -2 8 263.227 262.003 15.668 8.722 o
-4 -2 9 1.109 -0.440 2.550 456.450 o
-4 -1 1 383.371 396.833 8.216 13.062 o
-4 -1 2 121.764 124.385 4.154 47.371 o
-4 -1 3 13.858 15.289 1.890 346.594 o
-4 -1 4 206.611 211.472 5.533 26.853 o
-4 -1 5 177.050 178.041 4.849 32.684 o
-4 -1 6 328.036 324.268 6.530 17.003 o
-4 -1 7 380.021 366.476 6.292 15.258 o
-4 -1 8 268.752 263.024 11.300 12.958 o
-4 -1 9 84.552 82.857 6.882 38.807 o
-4 0 1 1400.570 1434.300 19.507 2.492 o
-4 0 2 594.548 607.234 10.425 7.903 o
-4 0 3 273.471 295.704 6.869 18.779 o
-4 0 4 82.964 87.986 3.559 68.312 o
-4 0 5 0.075 1.391 1.387 1462.010 o
-4 0 6 177.790 179.228 5.773 29.505 o
-4 0 7 190.323 182.296 4.552 32.125 o
-4 0 8 72.969 76.216 5.984 48.171 o
-4 1 1 358.636 382.686 8.883 13.016 o
-4 1 2 454.774 495.828 10.630 9.551 o
-4 1 3 739.361 752.556 14.047 5.458 o
-4 1 4 444.674 456.731 10.198 10.159 o
-4 1 5 36.462 41.613 3.157 126.874 o
-4 1 6 1.753 5.053 1.639 825.921 o
-4 1 7 65.230 66.929 4.004 75.124 o
-4 1 8 85.837 101.604 6.747 38.321 o
-4 2 1 70.238 64.953 6.422 45.866 o
-4 2 2 428.302 450.259 11.172 9.712 o
-4 2 3 86.738 75.950 4.221 62.080 o
-4 2 4 44.218 44.942 4.235 88.974 o
-4 2 5 326.756 353.650 10.621 12.064 o
-4 2 6 741.327 746.982 30.503 2.380 o
-4 2 7 188.930 186.348 8.468 20.977 o
-4 3 1 77.924 81.322 5.871 47.695 o
-4 3 2 54.009 56.142 3.509 93.386 o
-4 3 3 34.954 35.663 4.526 91.650 o
-4 3 4 67.379 59.382 5.251 59.153 o
-4 3 5 276.990 280.493 8.991 15.694 o
-4 3 6 482.471 473.497 12.389 8.355 o
-4 4 1 950.597 899.319 14.057 4.475 o
-4 4 2 390.674 385.471 11.624 10.143 o
-4 4 3 3.868 3.449 3.013 295.614 o
-4 4 4 5.934 4.964 1.955 523.611 o
-4 4 5 0.322 0.813 2.527 471.023 o
-4 5 1 394.892 415.593 15.293 7.540 o
-4 5 2 970.561 960.132 26.127 2.579 o
-4 5 3 545.302 530.973 22.411 4.112 o
-4 5 4 216.287 177.310 14.807 10.255 o
-4 6 1 14.758 7.671 4.190 139.480 o
-4 6 2 312.767 289.701 13.133 10.263 o
-4 6 3 250.117 237.790 11.966 12.642 o
-3 -8 2 221.395 210.843 17.704 7.689 o
-3 -8 3 435.206 407.999 12.046 9.264 o
-3 -8 4 368.630 364.787 13.775 8.867 o
-3 -8 5 334.099 346.257 11.695 10.986 o
-3 -8 6 269.938 271.162 11.328 12.837 o
-3 -8 7 101.394 110.021 10.714 19.916 o
-3 -8 8 34.188 30.131 3.530 124.587 o
-3 -7 1 46.012 43.729 4.312 86.576 o
-3 -7 2 0.076 0.542 1.612 1151.820 o
-3 -7 3 101.001 106.831 5.192 46.212 o
-3 -7 4 582.044 563.955 12.846 7.114 o
-3 -7 5 764.913 782.191 17.676 4.427 o
-3 -7 6 623.845 644.034 15.350 5.763 o
-3 -7 7 201.037 207.699 7.596 22.080 o
-3 -7 8 35.980 39.437 3.558 115.978 o
-3 -7 9 0.842 4.795 3.357 256.195 o
-3 -6 1 649.767 653.323 22.574 3.760 o
-3 -6 2 31.838 35.783 3.322 131.521 o
-3 -6 3 0.275 0.368 1.331 1641.330 o
-3 -6 4 6.662 7.412 1.726 557.290 o
-3 -6 5 10.361 19.050 3.558 175.662 o
-3 -6 6 434.293 446.280 11.391 9.523 o
-3 -6 7 585.019 554.634 12.885 7.108 o
-3 -6 8 100.138 96.430 4.180 55.420 o
-3 -6 9 142.897 148.683 9.985 19.706 o
-3 -6 10 173.402 165.998 10.477 17.366 o
-3 -5 1 738.033 767.924 16.608 4.774 o
-3 -5 2 149.617 158.321 5.670 33.382 o
-3 -5 3 83.351 100.413 4.717 54.629 o
-3 -5 4 258.111 262.545 7.274 19.259 o
-3 -5 5 33.882 31.553 2.893 148.438 o
-3 -5 6 54.208 57.942 4.496 74.881 o
-3 -5 7 272.153 272.531 7.392 18.392 o
-3 -5 8 226.204 225.720 11.156 14.258 o
-3 -5 9 459.357 449.812 16.916 6.306 o
-3 -5 10 630.651 593.983 20.997 4.209 o
-3 -4 1 279.498 310.482 9.991 13.962 o
-3 -4 2 1132.530 1156.390 19.922 2.975 o
-3 -4 3 381.016 379.210 8.774 12.752 o
-3 -4 4 101.225 94.987 4.013 56.710 o
-3 -4 5 197.919 198.237 6.279 25.880 o
-3 -4 6 485.397 484.209 8.904 10.346 o
-3 -4 7 102.318 92.898 3.057 64.712 o
-3 -4 8 14.884 10.847 3.266 196.802 o
-3 -4 9 21.257 23.920 4.478 109.122 o
-3 -4 10 255.606 258.031 13.658 10.565 o
-3 -3 1 99.431 108.280 4.880 48.660 o
-3 -3 2 339.553 356.244 8.224 14.334 o
-3 -3 3 560.108 554.595 10.798 8.218 o
-3 -3 4 662.935 670.038 13.633 6.095 o
-3 -3 5 1537.720 1491.230 21.046 2.211 o
-3 -3 6 1473.790 1437.210 19.750 2.392 o
-3 -3 7 581.992 575.949 21.464 4.222 o
-3 -3 8 13.808 13.694 3.407 184.660 o
-3 -3 9 11.151 15.794 3.839 158.806 o
-3 -3 10 7.481 7.403 4.534 132.580 o
-3 -2 1 1079.770 1105.650 19.917 3.091 o
-3 -2 2 391.572 377.895 8.275 13.031 o
-3 -2 3 24.443 30.985 2.167 210.520 o
-3 -2 4 98.297 95.114 3.279 63.877 o
-3 -2 5 386.062 385.143 7.758 13.540 o
-3 -2 6 907.237 885.016 12.592 4.916 o
-3 -2 7 952.101 948.851 24.735 2.768 o
-3 -2 8 172.252 179.343 10.474 17.220 o
-3 -2 9 9.736 10.501 3.343 207.580 o
-3 -2 10 81.930 84.823 9.871 23.913 o
-3 -1 1 1216.020 1215.330 18.221 2.995 o
-3 -1 2 985.792 1035.200 14.337 4.140 o
-3 -1 3 291.450 301.459 6.601 18.453 o
-3 -1 4 269.412 256.132 5.116 22.686 o
-3 -1 5 16.946 19.546 1.273 373.466 o
-3 -1 6 204.030 199.950 3.948 31.655 o
-3 -1 7 464.418 465.713 24.649 3.788 o
-3 -1 8 627.441 634.847 19.351 4.581 o
-3 -1 9 298.321 306.202 10.821 12.674 o
-3 -1 10 163.761 173.828 8.528 22.183 o
-3 0 1 972.224 985.099 13.838 4.327 o
-3 0 2 1431.300 1405.560 18.292 2.568 o
-3 0 3 618.244 641.564 11.444 7.203 o
-3 0 4 13.033 8.199 1.163 551.169 o
-3 0 5 18.530 18.101 1.470 342.202 o
-3 0 6 93.296 96.458 3.422 64.150 o
-3 0 7 28.673 26.265 1.427 247.284 o
-3 0 8 140.541 134.893 6.704 31.046 o
-3 0 9 307.348 288.520 10.615 12.905 o
-3 0 10 208.683 205.619 10.180 16.457 o
-3 1 1 167.630 183.296 4.524 34.506 o
-3 1 2 532.742 528.957 9.952 8.993 o
-3 1 3 449.744 453.964 9.077 10.885 o
-3 1 4 339.008 348.473 8.301 14.345 o
-3 1 5 951.381 926.033 13.313 4.567 o
-3 1 6 713.879 717.337 15.385 5.257 o
-3 1 7 144.909 148.172 4.700 38.737 o
-3 1 8 81.112 81.382 3.857 67.072 o
-3 1 9 16.589 10.828 1.857 346.493 o
-3 2 1 116.841 111.567 3.576 53.589 o
-3 2 2 77.913 76.801 2.989 79.888 o
-3 2 3 22.665 21.349 2.155 238.416 o
-3 2 4 545.430 577.074 15.996 6.014 o
-3 2 5 901.500 886.837 15.296 4.403 o
-3 2 6 816.553 812.311 14.637 4.918 o
-3 2 7 300.060 297.776 8.773 15.227 o
-3 2 8 281.218 286.318 8.901 15.645 o
-3 3 1 1037.280 1045.050 15.147 3.876 o
-3 3 2 492.750 498.713 10.071 9.479 o
-3 3 3 386.474 393.799 7.051 14.088 o
-3 3 4 187.802 174.759 6.028 28.099 o
-3 3 5 3.515 1.273 1.558 895.122 o
-3 3 6 406.773 400.264 10.736 10.556 o
-3 3 7 554.892 562.273 13.659 6.938 o
-3 3 8 204.226 216.554 9.214 18.246 o
-3 4 1 2125.860 2115.170 42.603 0.920 o
-3 4 2 842.384 835.290 12.598 5.246 o
-3 4 3 348.167 331.909 6.636 16.191 o
-3 4 4 195.391 199.754 7.259 23.387 o
-3 4 5 90.660 83.242 4.852 53.727 o
-3 4 6 5.554 6.874 2.123 459.125 o
-3 4 7 122.391 119.038 6.558 34.186 o
-3 5 1 452.868 443.077 14.548 7.497 o
-3 5 2 802.967 784.015 21.356 3.602 o
-3 5 3 98.636 100.538 3.180 63.636 o
-3 5 4 72.328 71.499 4.017 70.706 o
-3 5 5 223.260 224.239 10.318 15.633 o
-3 5 6 268.166 259.094 9.529 15.385 o
-3 6 1 80.356 75.231 5.989 46.799 o
-3 6 2 73.819 70.105 5.826 50.084 o
-3 6 3 128.336 111.021 7.751 28.619 o
-3 6 4 334.840 286.741 16.299 7.712 o
-3 7 1 395.584 372.730 14.674 8.041 o
-3 7 2 171.242 176.009 10.812 16.623 o
-3 7 3 0.167 10.502 10.043 30.263 o
-3 8 1 474.259 437.606 16.896 6.275 o
-2 -9 2 324.526 326.529 9.846 13.136 o
-2 -9 3 321.344 306.643 9.443 13.840 o
-2 -9 4 329.427 332.290 9.730 13.124 o
-2 -9 5 755.781 758.732 18.038 4.401 o
-2 -9 6 685.704 701.307 17.112 4.911 o
-2 -9 7 132.702 157.046 7.133 29.053 o
-2 -9 8 69.936 66.317 4.854 62.045 o
-2 -8 1 22.252 16.111 4.143 125.082 o
-2 -8 2 57.442 61.659 4.107 78.741 o
-2 -8 3 362.061 346.639 9.556 12.612 o
-2 -8 4 316.045 323.139 9.094 14.191 o
-2 -8 5 385.564 425.935 11.952 9.734 o
-2 -8 6 385.258 385.902 11.176 10.556 o
-2 -8 7 394.059 396.852 11.265 10.317 o
-2 -8 8 106.770 98.589 5.127 46.368 o
-2 -8 9 0.797 2.390 2.846 360.094 o
-2 -8 10 2.918 5.939 2.455 413.238 o
-2 -7 1 437.376 460.714 12.505 8.713 o
-2 -7 2 113.185 128.048 5.275 41.791 o
-2 -7 3 1.684 0.732 1.351 1326.870 o
-2 -7 4 3.938 4.981 1.617 735.218 o
-2 -7 5 62.077 71.558 4.201 72.655 o
-2 -7 6 381.229 371.421 10.293 11.443 o
-2 -7 7 253.325 260.302 8.208 17.852 o
-2 -7 8 278.539 274.426 8.368 16.645 o
-2 -7 9 304.820 298.313 10.280 13.251 o
-2 -7 10 336.526 350.846 9.146 13.452 o
-2 -7 11 59.903 61.409 7.852 36.530 o
-2 -6 1 489.617 512.079 12.621 8.024 o
-2 -6 2 571.423 601.474 12.763 7.099 o
-2 -6 3 713.437 705.704 13.386 5.855 o
-2 -6 4 95.359 92.492 4.094 58.041 o
-2 -6 5 38.333 40.341 3.064 128.282 o
-2 -6 6 208.170 215.407 6.941 23.119 o
-2 -6 7 64.394 63.947 3.539 83.473 o
-2 -6 8 235.683 243.613 5.750 23.598 o
-2 -6 9 637.126 603.044 9.757 7.860 o
-2 -6 10 486.342 485.273 17.554 5.855 o
-2 -6 11 567.916 553.591 27.547 3.028 o
-2 -5 1 234.061 227.728 7.238 20.967 o
-2 -5 2 309.696 296.914 7.406 16.818 o
-2 -5 3 400.696 409.237 8.860 12.095 o
-2 -5 4 593.826 558.752 10.774 7.945 o
-2 -5 5 1512.560 1556.620 25.934 1.894 o
-2 -5 6 969.881 926.129 17.478 3.800 o
-2 -5 7 0.635 1.586 0.961 2422.850 o
-2 -5 8 71.892 68.471 5.534 53.592 o
-2 -5 9 202.069 206.668 10.292 16.412 o
-2 -5 10 231.588 231.708 11.680 13.366 o
-2 -5 11 398.041 406.961 16.233 7.039 o
-2 -4 1 189.035 217.912 6.573 25.032 o
-2 -4 2 407.268 404.285 8.413 12.403 o
-2 -4 3 116.017 120.773 4.026 49.752 o
-2 -4 4 1139.370 1125.850 16.464 3.400 o
-2 -4 5 2698.990 2697.830 40.168 0.804 o
-2 -4 6 2400.040 2256.890 41.604 0.874 o
-2 -4 7 396.617 392.335 13.329 8.821 o
-2 -4 8 122.220 111.331 7.019 32.342 o
-2 -4 9 33.697 32.526 4.903 84.564 o
-2 -4 10 64.251 69.956 11.306 20.203 o
-2 -4 11 246.828 233.692 13.887 10.567 o
-2 -3 1 1117.600 1110.610 18.908 3.152 o
-2 -3 2 18.477 19.770 1.681 312.379 o
-2 -3 3 72.654 73.048 2.272 93.559 o
-2 -3 4 66.493 60.927 1.948 108.606 o
-2 -3 5 175.523 167.995 3.655 37.447 o
-2 -3 6 1059.810 1052.960 24.453 2.623 o
-2 -3 7 793.472 723.954 24.254 3.175 o
-2 -3 8 208.720 210.316 9.679 17.309 o
-2 -3 9 373.592 373.470 13.959 8.664 o
-2 -3 10 87.904 91.410 7.039 36.854 o
-2 -3 11 34.830 20.603 6.485 57.956 o
-2 -2 1 5763.420 5559.490 59.708 0.277 o
-2 -2 2 1923.820 1840.630 19.873 1.813 o
-2 -2 3 369.556 367.351 6.059 15.739 o
-2 -2 4 59.908 61.958 1.941 115.137 o
-2 -2 5 175.311 187.919 7.658 23.668 o
-2 -2 6 470.928 475.036 14.046 7.541 o
-2 -2 7 550.775 525.125 29.241 2.797 o
-2 -2 8 159.269 169.668 8.666 22.102 o
-2 -2 9 311.085 332.490 13.006 10.164 o
-2 -2 10 584.137 579.114 18.919 4.899 o
-2 -2 11 417.181 409.081 16.603 6.747 o
-2 -1 1 1280.140 1241.680 13.307 3.367 o
-2 -1 2 2292.320 2224.770 21.318 1.427 o
-2 -1 3 287.149 247.996 4.211 23.413 o
-2 -1 4 161.330 144.385 2.651 44.907 o
-2 -1 5 427.218 411.069 12.158 9.251 o
-2 -1 6 302.514 297.876 15.036 8.761 o
-2 -1 7 150.352 143.096 7.440 27.149 o
-2 -1 8 411.242 407.539 14.122 8.141 o
-2 -1 9 54.696 50.671 5.051 67.552 o
-2 -1 10 246.722 245.590 11.596 13.100 o
-2 -1 11 627.922 618.455 17.731 5.053 o
-2 0 1 26.235 25.247 1.190 277.628 o
-2 0 2 465.202 467.763 7.025 11.945 o
-2 0 3 77.779 70.777 1.976 94.142 o
-2 0 4 1119.010 1052.320 14.476 3.773 o
-2 0 5 3028.930 3077.740 50.555 0.589 o
-2 0 6 1802.200 1784.570 21.241 1.860 o
-2 0 7 380.722 388.300 13.687 8.729 o
-2 0 8 6.011 5.526 1.324 787.247 o
-2 0 9 20.651 17.918 1.695 301.388 o
-2 0 10 28.554 25.928 3.587 132.965 o
-2 1 1 183.965 153.990 2.874 39.699 o
-2 1 2 0.784 0.666 0.402 7058.340 o
-2 1 3 269.911 292.167 5.003 21.951 o
-2 1 4 215.743 206.720 4.637 28.621 o
-2 1 5 514.486 500.736 7.915 10.459 o
-2 1 6 864.958 843.966 11.995 5.273 o
-2 1 7 1477.980 1426.690 22.217 2.215 o
-2 1 8 758.083 769.422 13.003 5.626 o
-2 1 9 73.817 69.520 4.606 63.188 o
-2 1 10 0.909 1.428 2.120 631.685 o
-2 2 1 4106.040 4183.080 49.632 0.450 o
-2 2 2 1949.130 2009.220 20.801 1.701 o
-2 2 3 118.780 110.117 2.958 57.264 o
-2 2 4 21.803 16.897 1.771 289.391 o
-2 2 5 79.185 69.393 3.152 79.163 o
-2 2 6 381.552 392.035 9.870 11.658 o
-2 2 7 338.103 350.342 13.940 9.070 o
-2 2 8 345.911 371.004 10.281 11.974 o
-2 2 9 141.513 152.069 7.958 25.630 o
-2 3 1 2469.210 2492.150 30.637 1.069 o
-2 3 2 1838.510 1765.540 24.014 1.713 o
-2 3 3 969.551 962.829 14.451 4.262 o
-2 3 4 246.849 233.666 6.838 21.093 o
-2 3 5 38.954 38.153 3.026 130.165 o
-2 3 6 82.245 75.851 4.274 63.027 o
-2 3 7 74.726 65.732 4.192 68.652 o
-2 3 8 149.010 164.900 6.965 28.175 o
-2 4 1 282.646 261.520 9.232 15.442 o
-2 4 2 148.684 144.205 3.695 43.007 o
-2 4 3 331.741 316.531 7.370 15.982 o
-2 4 4 640.330 630.290 20.501 4.265 o
-2 4 5 1012.630 976.441 19.032 3.427 o
-2 4 6 158.671 169.779 6.897 27.552 o
-2 4 7 9.631 7.240 3.123 237.190 o
-2 5 1 101.759 109.828 6.707 36.146 o
-2 5 2 51.251 52.185 2.222 126.183 o
-2 5 3 55.103 52.488 4.846 70.142 o
-2 5 4 231.321 243.374 10.881 14.383 o
-2 5 5 447.206 445.710 11.688 9.204 o
-2 5 6 629.831 614.262 15.052 5.900 o
-2 5 7 377.789 372.776 11.501 10.460 o
-2 6 1 767.650 737.591 19.912 3.993 o
-2 6 2 23.457 27.899 1.870 240.655 o
-2 6 3 6.157 5.642 1.746 586.551 o
-2 6 4 15.315 14.756 2.463 264.003 o
-2 6 5 1.371 -0.635 3.386 262.037 o
-2 7 1 1891.110 1888.910 40.762 1.043 o
-2 7 2 559.547 516.389 14.008 6.894 o
-2 7 3 306.593 298.230 10.192 13.322 o
-2 7 4 179.637 185.367 7.361 24.336 o
-2 8 1 163.529 170.654 10.962 16.598 o
-2 8 2 394.660 384.883 23.640 4.237 o
-1 -10 3 330.513 342.300 10.090 12.636 o
-1 -10 4 509.439 499.289 14.835 6.857 o
-1 -10 5 716.464 741.360 17.762 4.595 o
-1 -10 6 349.219 379.844 11.807 10.500 o
-1 -10 7 4.518 3.945 2.418 414.933 o
-1 -9 1 31.046 28.379 5.702 70.541 o
-1 -9 2 114.562 101.723 4.975 45.676 o
-1 -9 3 150.533 155.222 6.066 31.845 o
-1 -9 4 336.879 346.754 11.052 11.546 o
-1 -9 5 464.527 485.388 13.007 8.105 o
-1 -9 6 517.017 517.941 13.541 7.356 o
-1 -9 7 161.474 157.787 6.940 27.629 o
-1 -9 8 2.681 5.237 2.174 512.170 o
-1 -9 9 55.031 62.591 5.920 54.312 o
-1 -8 1 517.513 533.832 13.663 7.246 o
-1 -8 2 113.600 131.670 5.257 41.557 o
-1 -8 3 37.348 36.327 3.122 130.486 o
-1 -8 4 19.799 18.105 2.562 224.755 o
-1 -8 5 132.966 139.366 6.090 34.258 o
-1 -8 6 615.732 630.072 14.663 6.062 o
-1 -8 7 711.415 691.587 15.576 5.260 o
-1 -8 8 180.785 182.585 7.112 25.060 o
-1 -8 9 241.336 243.271 8.396 18.178 o
-1 -8 10 317.589 295.855 14.310 9.201 o
-1 -7 1 534.204 569.793 15.614 6.226 o
-1 -7 2 410.697 423.432 9.580 11.256 o
-1 -7 3 60.325 57.527 3.709 85.000 o
-1 -7 4 73.643 73.735 4.100 68.651 o
-1 -7 5 58.220 59.285 4.694 69.753 o
-1 -7 6 47.877 46.157 3.714 97.505 o
-1 -7 7 162.768 176.145 6.531 28.271 o
-1 -7 8 973.751 989.617 19.463 3.422 o
-1 -7 9 716.977 722.802 15.792 5.126 o
-1 -7 10 732.138 714.082 15.889 5.063 o
-1 -7 11 511.680 509.215 15.188 6.662 o
-1 -6 1 342.221 336.245 9.038 13.598 o
-1 -6 2 1115.970 1125.110 17.707 3.290 o
-1 -6 3 492.665 514.776 10.150 9.351 o
-1 -6 4 672.841 690.112 14.052 5.869 o
-1 -6 5 1591.610 1618.840 26.782 1.774 o
-1 -6 6 657.935 695.265 14.258 5.859 o
-1 -6 7 36.161 36.738 2.888 140.284 o
-1 -6 8 97.128 97.684 4.491 53.447 o
-1 -6 9 51.728 62.739 2.948 103.938 o
-1 -6 10 317.799 344.266 9.124 13.905 o
-1 -6 11 725.724 686.131 14.499 5.520 o
-1 -5 1 43.471 48.469 2.947 119.996 o
-1 -5 2 257.646 254.224 6.114 21.532 o
-1 -5 3 1281.120 1310.190 19.059 2.753 o
-1 -5 4 2615.290 2658.270 39.514 0.835 o
-1 -5 5 2725.760 2652.910 48.353 0.676 o
-1 -5 6 566.030 559.816 9.733 8.647 o
-1 -5 7 322.829 319.675 7.439 16.093 o
-1 -5 8 287.888 276.128 7.510 17.638 o
-1 -5 9 29.424 34.056 2.235 185.822 o
-1 -5 10 28.646 31.434 1.787 216.119 o
-1 -5 11 338.854 333.613 7.491 15.437 o
-1 -5 12 301.810 269.804 13.120 10.504 o
-1 -4 1 1018.710 1100.640 18.417 3.391 o
-1 -4 2 1061.940 1152.200 16.559 3.512 o
-1 -4 3 7.651 9.406 1.046 743.496 o
-1 -4 4 137.824 130.177 3.503 47.187 o
-1 -4 5 1224.830 1223.350 21.492 2.645 o
-1 -4 6 1942.690 1846.500 31.965 1.318 o
-1 -4 7 584.017 560.488 9.197 8.727 o
-1 -4 8 276.961 267.221 4.642 22.785 o
-1 -4 9 39.520 51.304 2.377 140.028 o
-1 -4 10 31.491 34.719 2.411 171.159 o
-1 -4 11 0.209 3.676 2.583 431.037 o
-1 -4 12 4.604 -0.747 2.868 330.355 o
-1 -3 1 2980.260 2885.400 28.792 0.912 o
-1 -3 2 392.465 350.242 5.160 16.177 o
-1 -3 3 427.720 385.694 5.541 14.514 o
-1 -3 4 243.674 252.805 5.327 23.759 o
-1 -3 5 0.100 2.189 0.528 5390.870 o
-1 -3 6 664.151 664.362 11.512 6.821 o
-1 -3 7 395.298 389.907 6.353 14.555 o
-1 -3 8 655.462 650.806 9.740 7.549 o
-1 -3 9 868.539 857.763 24.646 2.933 o
-1 -3 10 583.051 597.180 12.127 7.304 o
-1 -3 11 421.841 436.301 9.357 11.183 o
-1 -2 1 3108.540 3053.980 34.559 0.782 o
-1 -2 2 21.156 16.812 0.893 378.374 o
-1 -2 3 18.795 45.557 1.300 255.605 o
-1 -2 4 198.209 163.468 2.818 37.237 o
-1 -2 5 2337.340 2341.520 43.117 0.847 o
-1 -2 6 345.197 364.344 11.133 11.237 o
-1 -2 7 119.765 115.190 2.590 58.430 o
-1 -2 8 70.382 69.426 3.073 85.289 o
-1 -2 9 287.203 296.093 9.924 14.037 o
-1 -2 10 737.345 762.468 23.187 3.406 o
-1 -2 11 935.104 973.553 51.303 0.987 o
-1 -1 1 2365.070 2424.240 28.081 1.174 o
-1 -1 2 1179.130 1247.300 11.960 3.713 o
-1 -1 3 1117.080 1112.620 15.213 3.615 o
-1 -1 4 3096.060 3099.050 48.255 0.607 o
-1 -1 5 2837.780 2814.930 61.846 0.497 o
-1 -1 6 1132.720 1138.010 15.694 3.496 o
-1 -1 7 157.451 152.728 3.746 40.716 o
-1 -1 8 587.070 580.391 9.805 8.339 o
-1 -1 9 176.389 179.084 4.767 32.972 o
-1 -1 10 186.051 193.159 4.879 31.024 o
-1 -1 11 492.537 513.911 10.813 8.979 o
-1 0 1 2321.990 2477.540 24.016 1.284 o
-1 0 2 16.581 20.881 0.745 424.144 o
-1 0 3 166.025 158.026 2.611 43.002 o
-1 0 4 916.882 925.788 10.486 5.206 o
-1 0 5 1292.470 1290.980 18.926 2.763 o
-1 0 6 2688.800 2638.240 34.447 0.914 o
-1 0 7 1184.380 1188.870 14.039 3.536 o
-1 0 8 102.422 101.150 3.388 60.558 o
-1 0 9 54.446 58.268 4.175 80.080 o
-1 0 10 5.865 2.468 1.740 646.349 o
-1 1 2 1200.270 1213.700 13.666 3.519 o
-1 1 3 708.899 731.003 8.085 7.403 o
-1 1 4 326.312 375.509 7.059 15.716 o
-1 1 5 126.881 127.034 3.253 51.217 o
-1 1 6 1073.080 1086.890 14.517 3.834 o
-1 1 7 1205.610 1220.550 25.914 2.261 o
-1 1 8 125.396 124.643 5.302 40.077 o
-1 1 9 152.969 164.516 6.444 29.781 o
-1 1 10 259.589 289.251 9.262 15.620 o
-1 2 1 2587.410 2655.410 39.876 0.834 o
-1 2 2 834.053 784.527 9.777 6.043 o
-1 2 3 131.770 106.393 2.721 55.514 o
-1 2 4 516.497 516.146 10.492 8.921 o
-1 2 5 222.210 232.564 6.653 22.646 o
-1 2 6 23.740 23.059 2.657 194.842 o
-1 2 7 247.661 256.770 7.878 18.668 o
-1 2 8 438.266 467.940 12.336 8.778 o
-1 2 9 248.193 262.650 9.787 15.430 o
-1 3 1 568.846 590.580 10.297 8.230 o
-1 3 2 1427.810 1417.650 31.367 1.667 o
-1 3 3 445.880 439.659 14.458 7.600 o
-1 3 4 566.039 530.282 11.254 8.053 o
-1 3 5 502.075 518.413 11.639 8.422 o
-1 3 6 200.394 208.696 7.000 23.550 o
-1 3 7 193.113 198.366 7.877 21.976 o
-1 3 8 43.678 45.777 5.406 67.215 o
-1 3 9 4.758 7.872 2.291 417.618 o
-1 4 1 72.288 71.265 2.387 92.984 o
-1 4 2 39.606 44.262 2.124 154.148 o
-1 4 3 476.157 504.895 10.930 9.110 o
-1 4 4 545.819 557.629 12.223 7.648 o
-1 4 5 807.776 795.791 16.239 4.609 o
-1 4 6 521.816 548.096 13.153 7.410 o
-1 4 7 763.624 803.380 17.514 4.438 o
-1 4 8 322.344 335.356 10.631 12.263 o
-1 5 1 1062.690 1110.500 18.955 3.235 o
-1 5 2 615.861 619.493 13.928 6.348 o
-1 5 3 164.272 158.847 6.220 29.908 o
-1 5 4 32.290 31.088 4.000 110.467 o
-1 5 5 343.419 345.711 9.945 12.543 o
-1 5 6 768.453 788.584 17.455 4.458 o
-1 5 7 259.701 272.538 9.485 15.491 o
-1 6 1 801.595 779.025 17.003 4.481 o
-1 6 2 448.748 445.666 10.862 9.728 o
-1 6 3 703.946 693.212 15.033 5.439 o
-1 6 4 495.315 503.378 14.446 7.105 o
-1 6 5 31.841 32.439 3.671 121.113 o
-1 6 6 111.956 110.201 6.126 38.215 o
-1 7 1 585.048 595.597 13.368 6.789 o
-1 7 2 399.317 394.610 17.114 6.621 o
-1 7 3 292.405 302.994 9.549 14.335 o
-1 7 4 155.971 152.793 12.923 13.536 o
-1 8 1 180.642 188.615 6.956 25.339 o
-1 8 2 220.596 227.388 8.107 19.727 o
-1 8 3 97.772 112.225 5.911 41.365 o
-1 9 1 160.141 175.604 17.866 8.031 o
0 -10 2 16.116 12.095 2.181 301.080 o
0 -10 3 36.322 40.026 10.617 24.376 o
0 -10 4 113.661 114.022 11.708 17.045 o
0 -10 5 343.821 344.183 11.045 11.474 o
0 -10 6 364.584 352.305 10.858 11.306 o
0 -10 7 132.509 144.535 6.791 30.958 o
0 -10 8 169.014 160.689 7.362 25.661 o
0 -9 1 400.029 417.281 10.098 11.034 o
0 -9 2 32.151 28.828 3.436 131.687 o
0 -9 3 2.897 1.925 2.238 518.592 o
0 -9 4 8.372 10.148 2.338 351.313 o
0 -9 5 122.823 111.255 6.256 36.110 o
0 -9 6 413.157 407.753 11.355 9.974 o
0 -9 7 130.516 130.479 6.211 34.417 o
0 -9 8 264.497 254.664 9.018 16.301 o
0 -9 9 788.646 735.593 17.722 4.415 o
0 -9 10 473.931 466.684 13.265 7.963 o
0 -8 1 684.769 694.356 13.209 6.069 o
0 -8 2 229.245 224.247 7.091 21.561 o
0 -8 3 212.940 218.135 7.343 21.884 o
0 -8 4 163.991 191.025 6.770 26.879 o
0 -8 5 107.076 101.235 4.866 47.924 o
0 -8 6 44.625 40.129 3.229 115.668 o
0 -8 7 459.370 493.561 13.077 8.074 o
0 -8 8 296.573 299.668 9.414 14.454 o
0 -8 9 489.303 490.421 12.884 7.969 o
0 -8 10 656.170 638.293 15.551 5.578 o
0 -7 1 502.011 511.885 10.237 9.222 o
0 -7 2 607.297 626.666 11.513 7.297 o
0 -7 3 707.429 695.089 14.783 5.494 o
0 -7 4 1917.220 1964.070 31.508 1.321 o
0 -7 5 1963.730 1977.220 31.828 1.290 o
0 -7 6 337.002 349.065 13.605 9.338 o
0 -7 7 154.303 164.653 6.246 30.403 o
0 -7 8 23.756 25.088 3.132 163.805 o
0 -7 9 7.527 7.228 2.233 399.145 o
0 -7 10 369.484 370.806 10.850 11.123 o
0 -7 11 516.747 498.426 13.294 7.540 o
0 -6 1 88.789 87.669 3.962 62.086 o
0 -6 2 260.006 288.676 6.514 19.992 o
0 -6 3 391.220 389.340 9.139 12.168 o
0 -6 4 1446.980 1443.610 23.784 2.125 o
0 -6 5 1561.690 1609.820 26.245 1.825 o
0 -6 6 1589.180 1597.930 26.474 1.798 o
0 -6 7 760.865 768.356 25.064 3.063 o
0 -6 8 56.108 58.772 3.733 86.810 o
0 -6 9 5.395 3.198 1.722 658.415 o
0 -6 10 252.543 239.945 8.228 18.169 o
0 -6 11 214.247 194.535 6.243 25.084 o
0 -5 1 2025.760 2117.800 27.533 1.384 o
0 -5 2 2.722 2.958 0.759 1913.330 o
0 -5 3 224.766 265.249 5.755 23.593 o
0 -5 4 94.866 75.719 3.354 68.137 o
0 -5 5 309.246 316.874 7.844 15.975 o
0 -5 6 704.461 709.622 19.036 4.365 o
0 -5 7 921.371 934.228 17.410 3.909 o
0 -5 8 174.621 184.803 6.492 27.241 o
0 -5 9 227.277 241.861 8.126 19.181 o
0 -5 10 207.755 200.899 5.945 26.058 o
0 -5 11 9.455 12.893 3.322 206.410 o
0 -4 1 2909.380 2843.770 34.877 0.837 o
0 -4 2 453.341 456.934 7.614 11.828 o
0 -4 3 52.063 38.094 1.472 153.621 o
0 -4 4 84.916 87.624 2.545 78.191 o
0 -4 5 161.393 183.644 4.454 35.441 o
0 -4 6 80.782 74.484 2.804 81.191 o
0 -4 7 290.935 289.135 6.649 18.615 o
0 -4 8 608.024 618.047 13.346 6.608 o
0 -4 9 824.340 857.958 14.337 4.883 o
0 -4 10 1168.730 1147.920 18.616 3.076 o
0 -4 11 548.754 549.385 16.439 5.894 o
0 -3 1 4.384 8.654 0.761 1129.010 o
0 -3 2 929.748 949.206 9.683 5.250 o
0 -3 3 1305.420 1264.640 13.836 3.247 o
0 -3 4 2989.650 3060.160 30.289 0.867 o
0 -3 5 819.697 863.770 12.861 5.220 o
0 -3 6 22.407 26.771 1.619 267.358 o
0 -3 7 71.322 74.960 3.215 81.116 o
0 -3 8 107.545 103.193 3.636 56.777 o
0 -3 9 84.041 86.189 5.792 46.718 o
0 -3 10 621.495 666.763 14.409 6.038 o
0 -3 11 667.144 642.513 17.740 4.890 o
0 -2 1 454.899 477.859 5.088 13.239 o
0 -2 2 66.392 57.402 1.339 119.013 o
0 -2 3 1056.220 1019.010 12.020 4.321 o
0 -2 4 3871.440 3853.180 66.898 0.367 o
0 -2 5 5065.140 4994.390 68.131 0.286 o
0 -2 6 1295.020 1285.380 14.476 3.186 o
0 -2 7 1093.700 1098.070 16.103 3.562 o
0 -2 8 314.085 312.211 8.081 15.606 o
0 -2 9 70.493 69.717 3.744 75.612 o
0 -2 10 370.330 381.960 10.002 11.783 o
0 -2 11 275.648 294.191 9.552 14.785 o
0 -1 2 129.610 131.411 2.002 56.055 o
0 -1 3 283.947 288.812 3.899 22.925 o
0 -1 4 47.529 36.344 1.215 171.368 o
0 -1 5 2325.390 2385.090 26.486 1.237 o
0 -1 6 2829.700 2801.610 34.237 0.868 o
0 -1 7 980.218 991.687 17.511 3.703 o
0 -1 8 290.890 310.973 8.128 16.158 o
0 -1 9 15.787 21.418 2.102 280.629 o
0 -1 10 5.925 10.326 1.753 531.164 o
0 -1 11 86.133 98.683 4.929 52.270 o
0 0 2 30.303 26.254 0.730 270.940 o
0 0 3 127.791 124.650 2.982 52.759 o
0 0 4 192.843 198.930 3.330 34.443 o
0 0 5 170.548 178.802 4.001 36.229 o
0 0 6 1071.240 1072.250 13.925 3.938 o
0 0 7 86.050 80.147 3.409 70.288 o
0 0 8 219.809 226.776 5.939 24.545 o
0 0 9 877.835 900.020 15.022 4.506 o
0 0 10 597.547 605.450 15.267 5.987 o
0 1 1 2039.280 2090.400 48.840 0.801 o
0 1 2 911.033 925.863 12.647 4.821 o
0 1 3 1675.330 1678.120 21.991 1.957 o
0 1 4 367.762 355.098 8.490 13.490 o
0 1 5 56.593 42.332 2.094 128.496 o
0 1 6 236.613 237.279 6.412 22.341 o
0 1 7 270.541 284.784 7.721 17.721 o
0 1 8 37.060 38.056 3.359 121.821 o
0 1 9 229.459 240.845 7.759 19.837 o
0 1 10 453.045 476.922 12.025 8.799 o
0 2 0 687.542 726.783 7.926 7.624 o
0 2 1 1370.340 1342.370 13.868 3.062 o
0 2 2 574.278 534.526 6.872 10.025 o
0 2 3 597.113 541.751 8.864 8.842 o
0 2 4 1307.830 1274.610 17.725 2.866 o
0 2 5 1421.190 1430.560 25.414 2.039 o
0 2 6 668.969 697.363 14.376 5.769 o
0 2 7 24.366 28.476 2.706 182.118 o
0 2 8 69.346 75.286 4.144 69.526 o
0 2 9 0.782 3.720 3.217 281.125 o
0 3 0 167.258 168.501 3.003 40.715 o
0 3 1 7.855 7.123 0.760 906.730 o
0 3 2 108.542 112.323 2.908 60.378 o
0 3 3 12.391 14.236 1.239 484.096 o
0 3 4 410.964 399.370 9.125 11.792 o
0 3 5 1125.510 1180.800 20.611 2.890 o
0 3 6 2199.320 2238.700 36.810 1.030 o
0 3 7 962.589 988.660 19.177 3.485 o
0 3 8 74.014 67.540 4.440 65.471 o
0 4 0 4276.040 4443.400 61.089 0.363 o
0 4 1 2007.180 2001.720 26.012 1.473 o
0 4 2 77.912 81.091 3.515 72.425 o
0 4 3 118.702 112.369 4.401 47.647 o
0 4 4 13.874 16.477 2.255 292.036 o
0 4 5 178.820 185.494 9.552 18.868 o
0 4 6 419.852 423.023 12.417 9.090 o
0 4 7 369.609 394.115 12.299 9.803 o
0 4 8 140.685 144.902 6.883 29.887 o
0 5 0 1980.720 2044.760 31.285 1.289 o
0 5 1 1695.670 1719.680 34.190 1.350 o
0 5 2 1533.820 1558.510 25.692 1.893 o
0 5 3 789.756 783.601 16.568 4.606 o
0 5 4 148.276 151.968 6.286 31.322 o
0 5 5 45.205 49.833 3.512 102.952 o
0 5 6 11.802 14.787 2.648 262.438 o
0 5 7 84.851 102.761 7.311 34.938 o
0 6 0 29.075 26.741 2.615 177.026 o
0 6 1 374.278 378.428 11.364 10.580 o
0 6 2 959.930 960.822 18.572 3.609 o
0 6 3 449.740 465.856 17.778 5.949 o
0 6 4 335.300 334.691 10.500 12.200 o
0 6 5 98.817 100.654 5.535 44.705 o
0 7 0 18.082 19.784 2.681 218.369 o
0 7 1 64.082 70.088 4.143 72.917 o
0 7 2 5.726 9.621 1.993 469.534 o
0 7 3 18.536 24.298 3.232 170.872 o
0 7 4 335.671 337.637 10.679 11.992 o
0 8 0 335.457 354.743 10.324 12.218 o
0 8 1 29.162 32.700 4.478 98.317 o
0 8 2 20.521 21.671 3.225 169.680 o
0 8 3 6.003 9.845 2.601 326.356 o
0 9 0 947.886 936.220 40.028 1.471 o
0 9 1 341.977 336.182 10.846 11.746 o
1 -10 2 65.967 64.304 4.286 71.341 o
1 -10 3 20.789 19.549 2.784 201.132 o
1 -10 4 1.866 1.051 2.444 471.117 o
1 -10 5 195.007 188.494 8.395 20.858 o
1 -10 6 240.039 239.600 8.504 18.084 o
1 -10 7 293.675 285.070 9.660 14.354 o
1 -9 0 371.295 360.061 8.964 12.913 o
1 -9 1 83.229 90.412 4.638 56.742 o
1 -9 2 109.724 107.421 6.449 36.816 o
1 -9 3 224.995 232.617 6.734 22.332 o
1 -9 4 437.960 431.611 12.223 9.013 o
1 -9 5 107.581 110.397 5.271 44.165 o
1 -9 6 79.053 75.566 4.713 59.333 o
1 -9 7 234.140 233.755 8.447 18.476 o
1 -9 8 513.755 530.981 14.514 6.889 o
1 -9 9 480.686 467.924 13.319 7.880 o
1 -8 0 257.102 251.294 6.563 20.796 o
1 -8 1 764.965 769.406 13.039 5.587 o
1 -8 2 508.449 495.522 11.428 8.578 o
1 -8 3 655.427 668.092 13.922 6.040 o
1 -8 4 1168.800 1166.440 17.860 3.147 o
1 -8 5 906.655 911.186 17.932 3.877 o
1 -8 6 31.726 30.180 3.312 136.179 o
1 -8 7 38.564 36.600 3.586 113.848 o
1 -8 8 67.753 66.447 4.762 63.890 o
1 -8 9 138.130 138.283 9.381 21.708 o
1 -8 10 686.981 650.043 16.099 5.275 o
1 -7 0 137.587 143.205 4.665 40.280 o
1 -7 1 34.359 36.178 2.061 177.525 o
1 -7 2 138.284 133.144 3.876 44.932 o
1 -7 3 809.560 799.724 15.211 4.830 o
1 -7 4 1157.100 1188.970 17.784 3.157 o
1 -7 5 1181.760 1164.750 27.636 2.157 o
1 -7 6 538.365 540.950 12.464 7.646 o
1 -7 7 87.172 86.582 4.489 57.609 o
1 -7 8 90.704 101.101 5.268 48.192 o
1 -7 9 1.218 3.374 3.425 248.414 o
1 -7 10 36.425 43.941 4.053 99.383 o
1 -7 11 147.378 146.945 7.064 28.590 o
1 -6 0 2516.070 2490.350 33.956 0.983 o
1 -6 1 845.547 866.129 12.946 5.099 o
1 -6 2 18.444 13.308 1.222 399.179 o
1 -6 3 0.192 1.550 0.668 4512.420 o
1 -6 4 41.834 47.937 2.098 147.290 o
1 -6 5 661.173 662.593 13.432 6.188 o
1 -6 6 1352.080 1348.680 23.281 2.289 o
1 -6 7 146.442 139.569 5.697 34.581 o
1 -6 8 62.240 65.498 4.429 70.648 o
1 -6 9 396.812 403.013 11.135 10.350 o
1 -6 10 343.313 353.830 10.609 11.827 o
1 -6 11 30.840 28.529 3.622 126.626 o
1 -5 0 1682.140 1617.550 21.355 2.011 o
1 -5 1 365.917 373.631 6.375 15.443 o
1 -5 2 17.325 9.525 0.953 482.756 o
1 -5 3 601.678 609.276 8.534 8.624 o
1 -5 4 485.522 510.148 8.867 10.209 o
1 -5 5 25.898 24.257 2.169 217.561 o
1 -5 6 505.891 498.371 11.131 8.751 o
1 -5 7 893.802 916.830 17.592 3.959 o
1 -5 8 563.394 592.037 18.666 5.018 o
1 -5 9 926.037 947.623 19.084 3.607 o
1 -5 10 617.937 621.699 12.709 6.783 o
1 -5 11 341.670 361.638 9.299 13.095 o
1 -4 0 181.780 181.983 3.682 35.715 o
1 -4 1 1194.850 1244.860 15.952 3.249 o
1 -4 2 623.501 615.172 7.911 8.640 o
1 -4 3 629.736 577.486 9.021 8.317 o
1 -4 4 937.133 975.826 14.109 4.393 o
1 -4 5 800.840 811.569 14.779 4.939 o
1 -4 6 386.964 405.383 9.488 11.807 o
1 -4 7 8.148 10.603 1.799 470.395 o
1 -4 8 20.795 22.496 2.770 197.317 o
1 -4 9 376.089 401.649 9.183 12.274 o
1 -4 10 978.937 953.504 35.898 1.711 o
1 -4 11 558.554 558.284 15.657 6.125 o
1 -3 0 41.407 35.679 0.958 195.346 o
1 -3 1 496.033 534.031 9.211 9.748 o
1 -3 2 1515.950 1572.200 16.400 2.502 o
1 -3 3 1572.890 1537.200 29.509 1.662 o
1 -3 4 3029.750 3030.570 33.450 0.815 o
1 -3 5 1796.930 1796.430 26.776 1.603 o
1 -3 6 1852.080 1865.990 35.317 1.228 o
1 -3 7 794.933 829.167 15.830 4.689 o
1 -3 8 72.265 83.802 3.574 73.667 o
1 -3 9 32.048 34.142 2.833 151.959 o
1 -3 10 251.742 256.042 8.136 18.094 o
1 -3 11 171.337 154.209 6.382 28.961 o
1 -2 2 14.731 18.624 0.822 464.092 o
1 -2 3 300.736 294.413 4.360 21.351 o
1 -2 4 1804.550 1861.120 31.767 1.376 o
1 -2 5 2250.250 2216.330 36.349 1.031 o
1 -2 6 1043.360 1046.940 15.681 3.782 o
1 -2 7 340.156 334.505 6.379 16.673 o
1 -2 8 10.630 13.834 1.607 445.347 o
1 -2 9 154.349 154.704 7.370 26.744 o
1 -2 10 92.655 91.418 4.472 55.579 o
1 -2 11 23.721 31.506 2.961 165.886 o
1 -1 1 590.253 611.866 6.861 9.400 o
1 -1 2 787.123 758.986 8.450 6.693 o
1 -1 3 2345.790 2368.150 41.641 0.873 o
1 -1 4 462.378 505.655 9.052 10.406 o
1 -1 5 1040.850 1096.770 20.261 3.114 o
1 -1 6 628.751 617.813 8.901 8.201 o
1 -1 7 356.922 347.133 6.678 15.707 o
1 -1 8 549.933 534.491 8.116 9.723 o
1 -1 9 575.563 588.131 12.515 7.218 o
1 -1 10 230.625 222.715 7.088 21.540 o
1 0 0 1593.500 1649.810 20.849 2.101 o
1 0 1 85.017 85.872 1.387 88.888 o
1 0 2 1155.410 1125.810 13.647 3.713 o
1 0 3 496.071 462.867 7.261 11.355 o
1 0 4 530.583 503.216 12.867 7.638 o
1 0 5 26.627 20.355 1.057 299.652 o
1 0 6 5.555 6.866 0.988 965.142 o
1 0 7 23.494 22.578 1.432 287.909 o
1 0 8 319.447 324.317 6.131 17.764 o
1 0 9 400.164 394.016 7.037 13.809 o
1 0 10 554.473 585.017 18.603 5.076 o
1 1 0 1632.080 1719.710 15.957 2.313 o
1 1 1 2502.880 2563.750 23.400 1.208 o
1 1 2 517.279 483.768 5.511 11.832 o
1 1 3 64.224 37.296 2.810 107.010 o
1 1 4 984.772 943.939 20.905 3.233 o
1 1 5 2032.220 1970.310 41.244 0.988 o
1 1 6 540.691 532.567 8.471 9.658 o
1 1 7 446.427 427.773 7.175 12.495 o
1 1 8 152.611 142.227 5.770 33.482 o
1 1 9 46.277 45.947 5.774 60.853 o
1 2 0 1530.220 1645.360 16.990 2.404 o
1 2 1 1.489 2.057 0.633 3021.390 o
1 2 2 29.402 22.287 1.126 270.897 o
1 2 3 430.005 419.574 6.385 13.463 o
1 2 4 1162.390 1164.040 15.944 3.383 o
1 2 5 2170.410 2123.310 30.476 1.231 o
1 2 6 987.966 960.745 14.846 4.149 o
1 2 7 175.432 170.474 3.970 36.249 o
1 2 8 178.460 189.538 9.470 18.994 o
1 2 9 117.233 112.766 7.977 28.419 o
1 3 0 5807.180 5739.070 132.974 0.121 o
1 3 1 1297.160 1283.070 19.752 2.685 o
1 3 2 720.760 711.440 10.860 6.564 o
1 3 3 509.447 515.806 8.716 9.979 o
1 3 4 2.326 4.027 1.464 960.893 o
1 3 5 569.940 545.220 9.674 8.706 o
1 3 6 856.805 849.295 24.006 3.043 o
1 3 7 95.381 101.285 4.266 55.315 o
1 3 8 173.392 179.484 9.754 18.698 o
1 4 0 1250.670 1242.560 20.915 2.658 o
1 4 1 1288.710 1279.960 18.089 2.854 o
1 4 2 1148.830 1102.960 17.479 3.280 o
1 4 3 880.811 828.285 18.429 3.936 o
1 4 4 129.263 130.316 3.719 47.769 o
1 4 5 12.161 13.128 1.820 388.192 o
1 4 6 110.066 104.878 4.538 49.277 o
1 4 7 300.217 296.543 13.419 10.105 o
1 5 0 265.783 262.833 7.367 18.820 o
1 5 1 1504.160 1515.270 25.328 1.951 o
1 5 2 379.864 407.396 10.088 11.386 o
1 5 3 47.001 43.049 3.192 112.521 o
1 5 4 137.031 135.239 5.675 35.979 o
1 5 5 384.176 384.025 15.224 7.748 o
1 5 6 165.543 165.514 16.544 9.105 o
1 6 0 10.802 12.004 2.920 243.526 o
1 6 1 52.299 47.424 3.344 101.689 o
1 6 2 48.961 58.795 3.779 90.661 o
1 6 3 172.217 184.921 6.901 26.137 o
1 6 4 556.571 549.647 18.928 5.023 o
1 6 5 328.415 342.997 23.260 4.526 o
1 7 0 433.560 448.533 14.636 7.555 o
1 7 1 397.675 395.951 11.574 10.045 o
1 7 2 67.885 68.128 5.520 54.778 o
1 7 3 0.940 1.274 2.013 696.400 o
1 7 4 97.364 101.364 5.414 45.779 o
1 8 0 354.250 344.268 10.635 11.712 o
1 8 1 431.936 441.664 18.934 5.604 o
1 8 2 564.068 552.418 14.587 6.531 o
1 9 0 314.380 289.132 10.311 13.126 o
2 -9 0 95.135 83.130 7.295 34.982 o
2 -9 1 180.957 189.040 11.439 15.113 o
2 -9 2 353.495 368.971 15.353 7.921 o
2 -9 3 698.148 685.784 20.994 3.968 o
2 -9 4 1178.650 1149.410 29.336 2.028 o
2 -9 5 326.286 346.627 13.875 9.239 o
2 -9 6 77.712 75.184 6.643 42.001 o
2 -9 7 33.305 39.719 5.737 66.852 o
2 -9 8 14.508 17.866 4.012 141.017 o
2 -8 0 0.776 -0.471 2.001 737.123 o
2 -8 1 6.697 6.160 3.472 213.605 o
2 -8 2 55.959 58.038 5.739 56.760 o
2 -8 3 273.862 271.753 11.472 12.596 o
2 -8 4 649.464 637.693 18.998 4.611 o
2 -8 5 660.386 641.022 11.033 7.085 o
2 -8 6 329.323 305.843 9.067 14.127 o
2 -8 7 223.699 236.405 8.250 19.165 o
2 -8 8 1.070 0.762 1.828 835.804 o
2 -8 9 13.820 12.976 2.827 237.136 o
2 -7 0 1025.250 1027.760 25.793 2.527 o
2 -7 1 42.667 35.372 4.138 95.693 o
2 -7 2 18.908 17.423 5.022 96.345 o
2 -7 3 11.318 6.986 2.629 292.003 o
2 -7 4 2.388 1.672 1.003 1714.850 o
2 -7 5 413.806 414.423 7.231 13.171 o
2 -7 6 256.298 258.634 8.050 18.053 o
2 -7 7 187.418 186.169 7.641 23.140 o
2 -7 8 541.826 537.038 19.458 4.923 o
2 -7 9 626.445 629.550 15.435 5.754 o
2 -6 0 1011.560 985.117 23.947 2.773 o
2 -6 1 181.760 173.976 8.101 22.492 o
2 -6 2 344.584 354.544 14.348 8.704 o
2 -6 3 371.304 388.535 19.169 5.822 o
2 -6 4 79.089 84.155 2.922 78.099 o
2 -6 5 159.793 158.042 4.584 36.664 o
2 -6 6 289.253 293.264 8.559 15.835 o
2 -6 7 67.391 69.553 4.667 64.667 o
2 -6 8 472.945 483.028 13.206 7.943 o
2 -6 9 804.749 807.264 28.473 2.537 o
2 -6 10 756.780 773.007 22.087 3.560 o
2 -5 0 231.700 237.563 13.774 10.830 o
2 -5 1 686.831 691.050 17.678 4.774 o
2 -5 2 857.215 813.589 19.610 3.785 o
2 -5 3 1158.930 1218.850 16.745 3.247 o
2 -5 4 1218.620 1231.770 17.622 3.041 o
2 -5 5 710.822 707.560 14.322 5.588 o
2 -5 6 0.633 -0.130 2.956 347.854 o
2 -5 7 0.423 0.402 3.099 316.973 o
2 -5 8 7.552 6.983 2.629 320.529 o
2 -5 9 301.351 313.394 9.641 13.933 o
2 -5 10 583.437 580.498 12.589 7.162 o
2 -4 0 5.226 6.728 2.956 284.680 o
2 -4 1 152.362 154.820 6.596 29.655 o
2 -4 2 123.558 116.899 2.653 56.712 o
2 -4 3 1044.630 1032.210 14.672 3.944 o
2 -4 4 2323.670 2288.930 35.483 1.024 o
2 -4 5 3189.640 3105.460 45.803 0.624 o
2 -4 6 1077.840 1072.090 23.637 2.682 o
2 -4 7 41.552 45.606 3.201 116.829 o
2 -4 8 0.332 -2.914 1.237 1919.670 o
2 -4 9 58.541 54.831 3.423 92.249 o
2 -4 10 43.512 41.580 3.620 105.504 o
2 -3 0 2469.470 2496.680 35.582 0.959 o
2 -3 1 21.257 19.423 1.015 353.008 o
2 -3 2 74.504 90.863 2.647 81.934 o
2 -3 3 7.434 7.332 0.999 824.101 o
2 -3 4 150.112 134.614 3.857 42.840 o
2 -3 5 732.615 717.771 11.662 6.243 o
2 -3 6 1228.410 1209.120 17.805 3.025 o
2 -3 7 199.057 211.574 7.074 23.359 o
2 -3 8 190.907 199.314 5.348 28.961 o
2 -3 9 233.015 223.874 7.582 20.386 o
2 -3 10 3.641 2.072 4.465 146.614 o
2 -2 0 3139.200 3262.670 34.884 0.753 o
2 -2 1 1014.440 1001.300 11.470 4.558 o
2 -2 2 383.383 379.409 5.796 15.466 o
2 -2 3 436.837 440.425 8.688 11.439 o
2 -2 4 49.767 50.147 2.077 133.066 o
2 -2 5 147.508 151.967 3.817 42.029 o
2 -2 6 202.856 204.219 4.307 30.637 o
2 -2 7 253.046 243.482 4.700 24.680 o
2 -2 8 498.038 516.349 13.671 7.420 o
2 -2 9 690.677 685.344 28.695 2.668 o
2 -2 10 208.784 220.646 11.331 14.389 o
2 -1 0 250.230 259.489 5.163 23.527 o
2 -1 1 2197.030 2163.230 24.902 1.382 o
2 -1 2 1326.720 1294.840 14.139 3.153 o
2 -1 3 429.338 399.258 6.792 13.367 o
2 -1 4 23.389 17.042 0.956 348.206 o
2 -1 5 23.360 25.576 2.894 177.653 o
2 -1 6 38.680 48.553 6.772 50.109 o
2 -1 7 66.613 58.907 5.123 61.010 o
2 -1 8 85.968 83.757 6.381 42.050 o
2 -1 9 268.199 286.713 12.659 11.258 o
2 0 0 21.621 20.685 1.124 334.552 o
2 0 1 78.481 76.217 1.880 92.630 o
2 0 2 85.799 70.016 1.972 88.720 o
2 0 3 931.482 905.891 16.905 4.006 o
2 0 4 3396.910 3327.330 49.692 0.548 o
2 0 5 1684.110 1684.530 35.541 1.307 o
2 0 6 481.838 456.800 14.847 7.127 o
2 0 7 97.786 95.100 7.088 35.243 o
2 0 8 2.876 4.722 2.578 389.449 o
2 0 9 31.171 38.429 7.375 46.141 o
2 1 0 22.376 17.511 1.166 338.732 o
2 1 1 40.509 48.861 1.722 159.916 o
2 1 2 17.490 22.285 1.038 376.232 o
2 1 3 116.460 118.125 5.963 38.057 o
2 1 4 1385.750 1395.810 30.249 1.761 o
2 1 5 1335.910 1301.810 29.557 1.862 o
2 1 6 658.122 650.919 18.949 4.583 o
2 1 7 483.901 475.159 16.167 6.459 o
2 1 8 151.522 159.290 9.732 19.842 o
2 2 0 2287.870 2253.650 28.622 1.218 o
2 2 1 631.994 622.085 16.128 5.522 o
2 2 2 433.276 421.659 7.030 12.895 o
2 2 3 392.328 376.233 15.065 7.815 o
2 2 4 0.210 0.921 1.303 1658.730 o
2 2 5 433.126 411.935 14.127 7.966 o
2 2 6 182.680 178.060 9.034 20.040 o
2 2 7 224.522 229.609 10.990 14.498 o
2 2 8 456.117 450.520 18.439 5.693 o
2 3 0 2514.020 2519.140 32.136 1.019 o
2 3 1 1895.880 1823.230 28.848 1.460 o
2 3 2 977.890 971.551 18.663 3.550 o
2 3 3 174.130 164.240 3.798 37.388 o
2 3 4 13.556 14.293 5.969 75.857 o
2 3 5 32.318 33.007 4.696 90.160 o
2 3 6 48.090 48.381 5.308 66.600 o
2 3 7 32.253 33.265 6.172 61.411 o
2 4 0 450.413 484.595 10.946 9.454 o
2 4 1 561.382 558.831 10.268 8.440 o
2 4 2 111.827 109.590 5.027 45.110 o
2 4 3 159.823 163.435 5.663 32.157 o
2 4 4 779.322 736.778 13.556 5.460 o
2 4 5 476.453 460.233 16.036 6.590 o
2 4 6 1.888 0.746 4.706 136.227 o
2 5 0 1.049 0.086 2.279 566.029 o
2 5 1 0.081 -1.080 1.661 1112.590 o
2 5 2 0.861 0.749 1.378 1402.740 o
2 5 3 277.809 281.292 8.443 16.459 o
2 5 4 629.851 620.798 19.425 4.574 o
2 5 5 650.066 608.596 30.905 2.456 o
2 6 0 562.089 577.007 13.723 6.828 o
2 6 1 142.912 144.689 6.254 32.279 o
2 6 2 41.397 41.932 3.810 102.326 o
2 6 3 17.568 20.316 3.666 151.967 o
2 6 4 3.068 -0.913 4.573 142.714 o
2 7 0 998.258 964.206 27.375 2.416 o
2 7 1 783.884 780.016 18.126 4.282 o
2 7 2 419.332 387.753 17.644 6.297 o
2 8 0 198.087 183.727 8.288 21.082 o
2 8 1 391.569 372.739 12.701 9.392 o
3 -9 3 311.015 288.996 13.304 10.133 o
3 -9 4 239.583 237.408 12.884 11.705 o
3 -8 0 290.258 281.197 14.846 9.073 o
3 -8 1 74.587 81.267 7.524 35.925 o
3 -8 2 51.056 49.405 5.634 60.754 o
3 -8 3 89.679 77.608 11.392 19.001 o
3 -8 4 93.343 91.769 7.489 33.628 o
3 -8 5 321.668 306.920 14.313 9.116 o
3 -8 6 268.549 254.860 10.960 13.458 o
3 -8 7 186.619 187.829 7.429 23.705 o
3 -7 0 53.938 60.093 5.757 56.809 o
3 -7 1 137.337 136.875 8.213 25.454 o
3 -7 2 379.268 380.063 14.104 8.496 o
3 -7 3 394.708 375.929 17.906 6.310 o
3 -7 4 5.715 4.936 3.616 204.830 o
3 -7 5 67.369 69.886 2.883 89.916 o
3 -7 6 29.696 36.291 3.131 141.855 o
3 -7 7 294.204 287.392 9.253 14.848 o
3 -7 8 485.697 474.506 13.133 7.921 o
3 -6 0 315.974 324.122 12.502 10.604 o
3 -6 1 377.004 358.591 13.155 9.264 o
3 -6 2 276.539 299.338 11.683 12.104 o
3 -6 3 405.551 415.010 15.868 7.166 o
3 -6 4 986.522 949.623 20.875 3.230 o
3 -6 5 434.339 421.346 10.482 10.289 o
3 -6 6 165.897 165.395 6.472 28.639 o
3 -6 7 5.391 8.250 2.973 276.262 o
3 -6 8 122.517 123.846 6.033 36.576 o
3 -5 0 19.444 22.079 3.537 153.721 o
3 -5 1 123.711 115.876 6.683 33.597 o
3 -5 2 414.330 412.728 14.635 7.799 o
3 -5 3 784.837 786.616 20.378 3.815 o
3 -5 4 1420.500 1395.840 40.960 1.218 o
3 -5 5 700.732 701.443 14.825 5.496 o
3 -5 6 93.894 92.611 6.768 37.744 o
3 -5 7 141.945 156.785 8.442 23.901 o
3 -5 8 36.269 48.951 3.980 99.330 o
3 -5 9 0.132 4.239 4.344 159.206 o
3 -4 0 783.845 798.575 20.650 3.753 o
3 -4 1 59.570 53.140 2.452 110.969 o
3 -4 2 11.688 13.985 2.071 346.188 o
3 -4 3 6.796 6.386 1.275 753.831 o
3 -4 4 300.833 321.369 8.572 15.190 o
3 -4 5 967.089 994.655 20.260 3.313 o
3 -4 6 148.495 149.388 5.702 33.821 o
3 -4 7 51.114 55.310 4.684 73.850 o
3 -4 8 242.157 238.280 6.906 21.062 o
3 -4 9 204.706 188.815 16.643 8.648 o
3 -3 0 779.040 755.370 11.697 5.910 o
3 -3 1 342.084 336.723 7.141 15.717 o
3 -3 2 838.033 832.569 13.131 5.148 o
3 -3 3 277.336 289.771 7.936 17.108 o
3 -3 4 3.739 2.935 1.256 1078.680 o
3 -3 5 356.678 355.868 9.064 13.116 o
3 -3 6 294.358 279.594 5.392 20.538 o
3 -3 7 151.809 154.773 4.969 36.254 o
3 -3 8 409.796 405.423 13.072 8.824 o
3 -3 9 281.355 295.187 13.118 10.593 o
3 -2 0 779.769 794.246 14.880 5.017 o
3 -2 1 488.096 497.146 9.171 10.074 o
3 -2 2 108.124 102.440 4.221 52.309 o
3 -2 3 128.529 119.593 4.719 43.257 o
3 -2 4 545.738 544.521 10.120 8.714 o
3 -2 5 647.413 648.495 10.348 7.395 o
3 -2 6 0.876 -2.168 1.640 1064.090 o
3 -2 7 96.343 109.931 6.203 39.848 o
3 -2 8 153.353 168.865 8.004 24.332 o
3 -1 0 132.568 143.877 5.144 38.575 o
3 -1 1 457.045 462.971 10.396 9.852 o
3 -1 2 204.888 205.821 5.217 28.003 o
3 -1 3 877.064 882.990 13.550 4.831 o
3 -1 4 1338.240 1299.470 16.767 2.892 o
3 -1 5 1034.030 1028.680 21.369 3.034 o
3 -1 6 290.270 283.060 9.954 14.068 o
3 -1 7 114.319 123.665 8.264 27.086 o
3 -1 8 52.418 61.352 7.144 42.900 o
3 0 0 653.325 684.738 10.576 7.151 o
3 0 1 49.264 50.322 2.046 134.430 o
3 0 2 40.857 45.440 2.044 153.073 o
3 0 3 545.887 536.028 8.241 9.697 o
3 0 4 604.789 593.905 14.465 6.270 o
3 0 5 398.496 372.412 13.851 8.542 o
3 0 6 480.515 460.937 16.391 6.411 o
3 0 7 224.051 220.805 11.238 14.227 o
3 0 8 144.643 150.618 19.771 6.890 o
3 1 0 1487.060 1492.080 21.570 2.222 o
3 1 1 1313.590 1295.200 15.344 3.064 o
3 1 2 795.066 783.959 11.932 5.709 o
3 1 3 118.153 114.973 2.444 59.794 o
3 1 4 188.759 183.043 9.127 19.512 o
3 1 5 301.927 279.156 11.934 11.617 o
3 1 6 224.257 228.778 11.222 14.169 o
3 1 7 165.935 159.482 11.909 14.935 o
3 2 0 716.012 701.165 16.170 5.065 o
3 2 1 498.075 503.770 14.157 7.225 o
3 2 2 307.512 288.085 5.899 19.118 o
3 2 3 241.198 241.138 10.417 14.884 o
3 2 4 48.182 51.310 8.924 31.463 o
3 2 5 3.053 0.127 2.038 627.921 o
3 2 6 12.291 17.330 5.057 100.449 o
3 3 0 377.158 386.362 9.933 11.710 o
3 3 1 92.134 90.503 3.344 66.403 o
3 3 2 12.025 12.602 2.031 356.226 o
3 3 3 367.438 363.571 13.535 9.053 o
3 3 4 843.050 784.203 33.287 2.024 o
3 3 5 162.191 156.892 11.819 15.196 o
3 4 0 1.482 3.840 1.469 1030.670 o
3 4 1 3.706 1.810 1.427 973.342 o
3 4 2 78.422 78.058 3.677 70.931 o
3 4 3 326.066 292.626 5.766 18.540 o
3 5 0 692.181 679.440 15.354 5.418 o
3 5 1 311.725 299.892 10.259 13.137 o
3 5 2 93.946 92.892 4.969 50.796 o
3 5 3 40.650 32.806 7.147 47.267 o
3 6 0 820.646 824.618 18.273 4.108 o
3 6 1 407.739 392.410 18.417 5.995 o
3 6 2 317.366 299.393 9.757 13.621 o
3 7 0 196.230 198.287 9.307 18.608 o
4 -7 0 62.564 65.618 6.825 43.659 o
4 -7 1 263.191 257.182 19.915 6.125 o
4 -7 2 305.616 290.539 13.071 10.393 o
4 -7 3 637.973 616.149 19.815 4.458 o
4 -7 4 515.323 504.316 17.319 5.793 o
4 -6 0 0.451 1.490 2.726 400.301 o
4 -6 1 19.389 21.719 4.420 114.202 o
4 -6 2 92.668 95.436 6.948 36.616 o
4 -6 3 587.066 571.113 18.265 5.099 o
4 -6 4 651.749 635.568 13.998 6.109 o
4 -6 5 210.435 216.376 7.543 21.582 o
4 -6 6 155.922 163.486 6.841 28.167 o
4 -5 0 94.287 101.209 7.264 34.303 o
4 -5 1 42.683 47.350 4.918 75.573 o
4 -5 2 57.446 54.333 2.037 120.763 o
4 -5 3 7.259 6.360 1.664 577.388 o
4 -5 4 203.828 207.805 7.260 22.756 o
4 -5 5 205.560 206.163 10.609 15.778 o
4 -5 6 175.664 167.973 8.447 21.994 o
4 -4 0 438.573 424.537 7.854 12.155 o
4 -4 1 298.981 302.082 6.533 18.282 o
4 -4 2 122.717 125.793 4.349 45.885 o
4 -4 3 13.938 14.207 2.217 304.617 o
4 -4 4 55.160 56.789 4.457 75.344 o
4 -4 5 32.806 38.411 5.739 67.231 o
4 -4 6 2.545 1.999 2.756 365.082 o
4 -4 7 215.987 211.136 10.885 15.032 o
4 -3 0 318.896 324.654 8.981 14.250 o
4 -3 1 273.151 281.501 7.141 18.607 o
4 -3 2 175.040 175.243 6.418 27.784 o
4 -3 3 347.470 357.524 9.877 12.447 o
4 -3 4 575.737 556.886 13.050 7.088 o
4 -3 5 34.753 42.975 3.213 126.408 o
4 -3 6 9.699 7.557 1.839 459.659 o
4 -3 7 8.799 13.077 3.556 187.989 o
4 -2 0 61.803 66.491 3.325 87.761 o
4 -2 1 25.803 30.386 3.109 155.213 o
4 -2 2 227.687 237.945 7.680 20.118 o
4 -2 3 1008.660 991.457 17.172 3.696 o
4 -2 4 1385.370 1355.330 28.670 1.873 o
4 -2 5 294.510 287.642 10.700 13.033 o
4 -2 6 35.321 36.903 4.793 84.773 o
4 -1 0 91.464 101.505 4.350 55.617 o
4 -1 1 45.676 49.687 3.265 108.628 o
4 -1 2 0.257 -0.679 1.259 1875.860 o
4 -1 3 45.644 48.267 3.049 114.905 o
4 -1 4 236.714 234.877 5.485 24.338 o
4 -1 5 654.035 652.400 17.296 5.040 o
4 -1 6 354.052 352.542 12.430 10.082 o
4 0 0 1081.860 1111.690 16.386 3.535 o
4 0 1 276.432 285.804 7.692 17.567 o
4 0 2 88.667 91.827 4.083 60.276 o
4 0 3 5.816 6.639 1.454 706.108 o
4 0 4 5.279 4.736 3.077 272.192 o
4 0 5 108.941 125.628 12.798 14.836 o
4 0 6 115.333 124.772 8.955 24.448 o
4 1 0 678.222 696.448 11.784 6.555 o
4 1 1 351.329 346.247 7.422 15.056 o
4 1 2 145.858 138.454 5.468 35.733 o
4 1 3 38.462 43.829 5.293 71.561 o
4 1 4 49.596 44.657 5.982 57.325 o
4 1 5 22.123 24.914 4.992 92.170 o
4 2 0 18.833 21.979 2.408 233.640 o
4 2 1 62.408 62.319 3.391 87.625 o
4 2 2 267.445 246.559 9.971 14.905 o
4 2 3 679.139 690.331 32.254 2.254 o
4 2 4 313.510 285.023 14.855 8.861 o
4 3 0 33.013 40.703 4.521 91.369 o
4 3 1 30.894 26.257 3.254 143.078 o
4 3 2 21.653 25.436 4.424 109.836 o
4 3 3 263.194 235.376 11.784 12.679 o
4 4 0 366.461 373.771 11.031 10.986 o
4 4 1 149.689 141.837 6.907 29.204 o
4 4 2 116.954 96.925 8.580 26.532 o
4 5 0 399.718 390.628 11.793 9.887 o
4 5 1 158.139 164.316 7.249 26.594 o
5 -4 0 52.276 56.271 7.920 37.220 o
5 -4 1 49.811 53.715 4.293 81.749 o
5 -4 2 144.850 167.069 8.756 22.567 o
5 -3 0 70.667 81.644 6.515 43.599 o
5 -3 1 52.122 59.116 4.574 74.308 o
5 -3 2 167.497 181.381 7.527 24.642 o
5 -3 3 529.725 524.592 14.889 6.656 o
5 -2 0 188.383 200.317 6.966 24.521 o
5 -2 1 32.104 36.204 3.082 139.931 o
5 -2 2 10.468 9.679 2.328 335.430 o
5 -2 3 88.167 94.399 8.323 29.708 o
5 -1 0 365.034 382.598 8.973 12.816 o
5 -1 1 129.898 147.451 9.539 21.412 o
5 -1 2 83.971 98.263 5.049 51.776 o
5 -1 3 25.572 22.441 4.030 121.595 o
5 0 0 66.242 65.606 3.747 78.762 o
5 0 1 54.936 65.187 4.069 79.755 o
5 0 2 107.204 109.017 6.412 37.237 o
5 1 0 89.641 99.404 5.260 48.642 o
5 1 1 61.483 67.055 4.636 67.733 o
5 1 2 110.168 119.507 5.703 40.321 o
5 2 0 38.714 64.412 8.637 33.433 o
5 2 1 1.081 4.844 2.592 407.821 o
;
_olex2_submission_special_instructions 'No special instructions were received'
loop_
_space_group_symop_id
_space_group_symop_operation_xyz
1 x,y,z
2 -x,-y,-z
loop_
_atom_site_label
_atom_site_type_symbol
_atom_site_fract_x
_atom_site_fract_y
_atom_site_fract_z
_atom_site_U_iso_or_equiv
_atom_site_adp_type
_atom_site_occupancy
_atom_site_refinement_flags_posn
Cu1 Cu 0.61498(5) 0.61546(3) 0.94018(2) 0.01150(9) Uani 1.000000 .
O1 O 0.6569(3) 0.57839(17) 1.11387(15) 0.0165(3) Uani 1.000000 .
O2 O 0.5454(3) 0.61102(17) 0.74670(15) 0.0163(3) Uani 1.000000 .
O3 O 0.3060(3) 0.83379(17) 0.84244(15) 0.0171(3) Uani 1.000000 .
N1 N 0.8851(4) 0.8219(2) 1.02600(18) 0.0140(4) Uani 1.000000 .
C4 C 0.3904(4) 0.7227(2) 0.7365(2) 0.0141(4) Uani 1.000000 .
C2 C 0.9440(5) 0.8434(3) 1.2793(2) 0.0162(4) Uani 1.000000 .
C1 C 1.0942(4) 0.8614(3) 1.1631(2) 0.0175(4) Uani 1.000000 .
C3 C 0.8573(5) 0.6633(3) 1.2476(2) 0.0161(4) Uani 1.000000 .
C5 C 0.3142(6) 0.7152(3) 0.5849(2) 0.0281(6) Uani 1.000000 .
H1a H 0.9902(4) 0.8190(2) 0.95713(18) 0.0168(4) Uiso 1.000000 R
H1b H 0.7763(4) 0.9077(2) 1.04317(18) 0.0168(4) Uiso 1.000000 R
H2a H 1.0741(5) 0.8969(3) 1.3735(2) 0.0194(5) Uiso 1.000000 R
H2b H 0.7698(5) 0.9014(3) 1.2873(2) 0.0194(5) Uiso 1.000000 R
H1c H 1.2464(4) 0.7871(3) 1.1413(2) 0.0210(5) Uiso 1.000000 R
H1d H 1.1862(4) 0.9749(3) 1.2008(2) 0.0210(5) Uiso 1.000000 R
H3a H 0.7691(5) 0.6610(3) 1.3278(2) 0.0194(5) Uiso 1.000000 R
H3b H 1.0314(5) 0.6056(3) 1.2424(2) 0.0194(5) Uiso 1.000000 R
H5a H 0.450(2) 0.7916(15) 0.5740(7) 0.0422(8) Uiso 1.000000 GR
H5b H 0.324(4) 0.6039(6) 0.5125(2) 0.0422(8) Uiso 1.000000 GR
H5c H 0.1195(14) 0.745(2) 0.5715(7) 0.0422(8) Uiso 1.000000 GR
loop_
_atom_site_aniso_label
_atom_site_aniso_U_11
_atom_site_aniso_U_22
_atom_site_aniso_U_33
_atom_site_aniso_U_12
_atom_site_aniso_U_13
_atom_site_aniso_U_23
Cu1 0.01763(14) 0.00851(14) 0.00896(14) 0.00203(9) 0.00132(10) 0.00459(10)
O1 0.0243(8) 0.0134(7) 0.0099(7) -0.0041(6) -0.0040(6) 0.0058(6)
O2 0.0275(8) 0.0114(7) 0.0112(7) 0.0055(6) 0.0032(6) 0.0057(6)
O3 0.0203(7) 0.0153(7) 0.0153(7) 0.0046(6) 0.0049(6) 0.0054(6)
N1 0.0176(9) 0.0130(8) 0.0130(8) 0.0045(7) 0.0042(7) 0.0065(7)
C4 0.0170(10) 0.0112(10) 0.0135(10) -0.0015(8) 0.0007(8) 0.0057(8)
C2 0.0179(10) 0.0142(10) 0.0121(10) 0.0003(8) -0.0021(8) 0.0030(8)
C1 0.0150(10) 0.0183(11) 0.0193(11) 0.0003(9) -0.0006(9) 0.0094(9)
C3 0.0209(10) 0.0161(11) 0.0107(10) 0.0007(9) -0.0024(8) 0.0067(8)
C5 0.0492(15) 0.0210(12) 0.0146(11) 0.0144(11) 0.0027(11) 0.0080(10)
loop_
_atom_type_symbol
_atom_type_scat_dispersion_real
_atom_type_scat_dispersion_imag
_atom_type_scat_Cromer_Mann_a1
_atom_type_scat_Cromer_Mann_a2
_atom_type_scat_Cromer_Mann_a3
_atom_type_scat_Cromer_Mann_a4
_atom_type_scat_Cromer_Mann_b1
_atom_type_scat_Cromer_Mann_b2
_atom_type_scat_Cromer_Mann_b3
_atom_type_scat_Cromer_Mann_b4
_atom_type_scat_Cromer_Mann_c
_atom_type_scat_source
_atom_type_scat_dispersion_source
H 0.00000 0.00000 0.49300 0.32291 0.14019 0.04081 10.51090 26.12570 3.14236
57.79970 0.0030380000826
'International Tables Volume C Table 6.1.1.4 (pp. 500-502)'
'Henke, Gullikson and Davis, At. Data and Nucl. Data Tables, 1993, 54, 2'
C 0.00347 0.00161 2.31000 1.02000 1.58860 0.86500 20.84390 10.20750 0.56870
51.65120 0.215599998832
'International Tables Volume C Table 6.1.1.4 (pp. 500-502)'
'Henke, Gullikson and Davis, At. Data and Nucl. Data Tables, 1993, 54, 2'
Cu 0.34125 1.28947 13.33800 7.16760 5.61580 1.67350 3.58280 0.24700 11.39660
64.81260 1.19099998474
'International Tables Volume C Table 6.1.1.4 (pp. 500-502)'
'Henke, Gullikson and Davis, At. Data and Nucl. Data Tables, 1993, 54, 2'
O 0.01158 0.00611 3.04850 2.28680 1.54630 0.86700 13.27710 5.70110 0.32390
32.90890 0.250800013542
'International Tables Volume C Table 6.1.1.4 (pp. 500-502)'
'Henke, Gullikson and Davis, At. Data and Nucl. Data Tables, 1993, 54, 2'
N 0.00653 0.00323 12.21260 3.13220 2.01250 1.16630 0.00570 9.89330 28.99750
0.58260 -11.5290002823
'International Tables Volume C Table 6.1.1.4 (pp. 500-502)'
'Henke, Gullikson and Davis, At. Data and Nucl. Data Tables, 1993, 54, 2'
loop_
_geom_angle_atom_site_label_1
_geom_angle_atom_site_label_2
_geom_angle_atom_site_label_3
_geom_angle
_geom_angle_site_symmetry_3
O2 Cu1 O1 94.26(6) 2_667
O2 Cu1 O1 169.71(6) .
N1 Cu1 O1 171.37(6) 2_667
N1 Cu1 O1 95.99(6) .
N1 Cu1 O2 93.78(6) .
C3 O1 Cu1 127.13(12) 2_667
C3 O1 Cu1 128.86(12) .
C4 O2 Cu1 114.62(12) .
C1 N1 Cu1 119.21(13) .
H1a N1 Cu1 107.52(5) .
H1a N1 C1 107.52(10) .
H1b N1 Cu1 107.52(5) .
H1b N1 C1 107.52(11) .
H1b N1 H1a 107.0 .
O3 C4 O2 123.97(18) .
C5 C4 O2 115.97(17) .
C5 C4 O3 120.06(18) .
C3 C2 C1 113.62(17) .
H2a C2 C1 108.84(11) .
H2a C2 C3 108.84(11) .
H2b C2 C1 108.84(11) .
H2b C2 C3 108.84(11) .
H2b C2 H2a 107.7 .
C2 C1 N1 111.70(17) .
H1c C1 N1 109.28(11) .
H1c C1 C2 109.28(11) .
H1d C1 N1 109.28(11) .
H1d C1 C2 109.28(11) .
H1d C1 H1c 107.9 .
C2 C3 O1 112.11(16) .
H3a C3 O1 109.19(10) .
H3a C3 C2 109.19(11) .
H3b C3 O1 109.19(10) .
H3b C3 C2 109.19(11) .
H3b C3 H3a 107.9 .
H5a C5 C4 109.5 .
H5b C5 C4 109.5 .
H5b C5 H5a 109.5 .
H5c C5 C4 109.5 .
H5c C5 H5a 109.5 .
H5c C5 H5b 109.5 .
loop_
_geom_bond_atom_site_label_1
_geom_bond_atom_site_label_2
_geom_bond_distance
_geom_bond_site_symmetry_2
Cu1 Cu1 3.0218(5) 2_667
Cu1 O1 1.9166(14) .
Cu1 O1 1.9230(14) 2_667
Cu1 O2 1.9342(13) .
Cu1 N1 1.9654(17) .
O1 C3 1.419(2) .
O2 C4 1.279(2) .
O3 C4 1.241(2) .
N1 C1 1.482(3) .
N1 H1a 0.9000 .
N1 H1b 0.9000 .
C4 C5 1.507(3) .
C2 C1 1.514(3) .
C2 C3 1.518(3) .
C2 H2a 0.9700 .
C2 H2b 0.9700 .
C1 H1c 0.9700 .
C1 H1d 0.9700 .
C3 H3a 0.9700 .
C3 H3b 0.9700 .
C5 H5a 0.9600 .
C5 H5b 0.9600 .
C5 H5c 0.9600 .
