#------------------------------------------------------------------------------
#$Date: 2019-10-29 06:15:30 +0200 (Tue, 29 Oct 2019) $
#$Revision: 220351 $
#$URL: file:///home/coder/svn-repositories/cod/cif/7/05/89/7058920.cif $
#------------------------------------------------------------------------------
#
# This file is available in the Crystallography Open Database (COD),
# http://www.crystallography.net/
#
# All data on this site have been placed in the public domain by the
# contributors.
#
data_7058920
loop_
_publ_author_name
'Juneja, Navkiran Kaur'
'Unruh, Daniel K.'
'Bosch, Eric'
'Groeneman , Ryan'
'Hutchins, Kristin M.'
_publ_section_title
;
 Effects of dynamic pedal motion and static disorder on thermal expansion
 within halogen bonded co-crystals
;
_journal_name_full               'New Journal of Chemistry'
_journal_paper_doi               10.1039/C9NJ04833B
_journal_year                    2019
_chemical_formula_sum            'C16 H8 Cl4 I2 N4'
_chemical_formula_weight         651.86
_space_group_IT_number           2
_space_group_name_Hall           '-P 1'
_space_group_name_H-M_alt        'P -1'
_symmetry_cell_setting           triclinic
_symmetry_Int_Tables_number      2
_symmetry_space_group_name_Hall  '-P 1'
_symmetry_space_group_name_H-M   'P -1'
_atom_sites_solution_hydrogens   geom
_atom_sites_solution_primary     dual
_atom_sites_solution_secondary   difmap
_audit_creation_date             2019-09-05T11:48:14-00:00
_audit_creation_method           'WinGX routine CIF_UPDATE'
_audit_update_record
;
2019-09-20 deposited with the CCDC.    2019-10-28 downloaded from the CCDC.
;
_cell_angle_alpha                111.499(3)
_cell_angle_beta                 92.051(3)
_cell_angle_gamma                94.643(3)
_cell_formula_units_Z            1
_cell_length_a                   4.02352(16)
_cell_length_b                   10.8276(3)
_cell_length_c                   12.3666(4)
_cell_measurement_reflns_used    9944
_cell_measurement_temperature    210(2)
_cell_measurement_theta_max      77.239
_cell_measurement_theta_min      4.354
_cell_volume                     498.38(3)
_computing_cell_refinement       'CrysAlisPro 1.171.40.57a (Rigaku OD, 2019)'
_computing_data_collection       'CrysAlisPro 1.171.40.57a (Rigaku OD, 2019)'
_computing_data_reduction        'CrysAlisPro 1.171.40.57a (Rigaku OD, 2019)'
_computing_structure_refinement  'SHELXL-2018/3 (Sheldrick, 2018)'
_computing_structure_solution    'SHELXT 2014/5 (Sheldrick, 2014)'
_diffrn_ambient_environment      N~2~
_diffrn_ambient_temperature      210(2)
_diffrn_detector                 'Hybrid Pixel Array Detector'
_diffrn_detector_area_resol_mean 10
_diffrn_detector_type            HyPix
_diffrn_measured_fraction_theta_full 0.996
_diffrn_measured_fraction_theta_max 0.954
_diffrn_measurement_device       'four-circle diffractometer'
_diffrn_measurement_device_type  'XtaLAB Synergy, Dualflex, HyPix'
_diffrn_measurement_method       '\w scans'
_diffrn_orient_matrix_type
'CrysAlisPro convention (1999,Acta A55,543-557)'
_diffrn_orient_matrix_UB_11      0.1511926
_diffrn_orient_matrix_UB_12      0.1446434
_diffrn_orient_matrix_UB_13      0.0679137
_diffrn_orient_matrix_UB_21      0.0581746
_diffrn_orient_matrix_UB_22      0.018625
_diffrn_orient_matrix_UB_23      -0.1157755
_diffrn_orient_matrix_UB_31      -0.3493801
_diffrn_orient_matrix_UB_32      0.0485562
_diffrn_orient_matrix_UB_33      -0.0003308
_diffrn_radiation_monochromator  mirror
_diffrn_radiation_probe          x-ray
_diffrn_radiation_type           CuK\a
_diffrn_radiation_wavelength     1.54178
_diffrn_reflns_av_R_equivalents  0.0536
_diffrn_reflns_av_unetI/netI     0.0564
_diffrn_reflns_Laue_measured_fraction_full 0.996
_diffrn_reflns_Laue_measured_fraction_max 0.954
_diffrn_reflns_limit_h_max       4
_diffrn_reflns_limit_h_min       -5
_diffrn_reflns_limit_k_max       13
_diffrn_reflns_limit_k_min       -13
_diffrn_reflns_limit_l_max       15
_diffrn_reflns_limit_l_min       -15
_diffrn_reflns_number            16416
_diffrn_reflns_point_group_measured_fraction_full 0.996
_diffrn_reflns_point_group_measured_fraction_max 0.954
_diffrn_reflns_theta_full        67.679
_diffrn_reflns_theta_max         77.386
_diffrn_reflns_theta_min         3.851
_diffrn_source                   'micro-focus sealed X-ray tube'
_diffrn_source_type              'PhotonJet (Cu) X-ray Source'
_exptl_absorpt_coefficient_mu    29.796
_exptl_absorpt_correction_T_max  0.473
_exptl_absorpt_correction_T_min  0.068
_exptl_absorpt_correction_type   gaussian
_exptl_absorpt_process_details
;
        CrysAlisPro 1.171.40.57a (Rigaku Oxford Diffraction, 2019)
Numerical absorption correction based on gaussian integration over
                        a multifaceted crystal model
        Empirical absorption correction using spherical harmonics,
 implemented in SCALE3 ABSPACK scaling algorithm.
;
_exptl_crystal_colour            'clear pale yellow'
_exptl_crystal_density_diffrn    2.172
_exptl_crystal_description       block
_exptl_crystal_F_000             306
_exptl_crystal_size_max          0.143
_exptl_crystal_size_mid          0.094
_exptl_crystal_size_min          0.054
_refine_diff_density_max         0.881
_refine_diff_density_min         -1.171
_refine_diff_density_rms         0.162
_refine_ls_extinction_method     none
_refine_ls_goodness_of_fit_ref   1.09
_refine_ls_hydrogen_treatment    constr
_refine_ls_matrix_type           full
_refine_ls_number_parameters     159
_refine_ls_number_reflns         2012
_refine_ls_number_restraints     343
_refine_ls_restrained_S_all      1.017
_refine_ls_R_factor_all          0.0363
_refine_ls_R_factor_gt           0.0309
_refine_ls_shift/su_max          0
_refine_ls_shift/su_mean         0
_refine_ls_structure_factor_coef Fsqd
_refine_ls_weighting_details
'w=1/[\s^2^(Fo^2^)+(0.0478P)^2^+0.7608P] where P=(Fo^2^+2Fc^2^)/3'
_refine_ls_weighting_scheme      calc
_refine_ls_wR_factor_gt          0.0762
_refine_ls_wR_factor_ref         0.0798
_reflns_Friedel_coverage         0
_reflns_number_gt                1928
_reflns_number_total             2012
_reflns_threshold_expression     'I > 2\s(I)'
_cod_data_source_file            c9nj04833b2.cif
_cod_data_source_block           hut19_48_210
_cod_database_code               7058920
_shelx_estimated_absorpt_t_min   0.1
_shelx_estimated_absorpt_t_max   0.296
_shelx_shelxl_version_number     2018/3
_shelx_res_file
;
TITL 210_a.res in P-1
    210_a.res
    created by SHELXL-2018/3 at 16:10:36 on 04-Sep-2019
REM Old TITL 210 in P1

REM SHELXT solution in P-1
REM R1 0.159,  Rweak 0.012,  Alpha 0.038,  Orientation as input
REM Formula found by SHELXT:  C9 N O2 I

CELL  1.54178   4.023517  10.827636  12.366573   111.4990    92.0511    94.6427
ZERR    1.000   0.000156   0.000267   0.000350     0.0025     0.0028     0.0025
LATT  1
SFAC C H CL I N
UNIT 16 8 4 2 4
TEMP -63.2
SIZE 0.143 0.094 0.054
L.S. 10
BOND $H
ACTA
LIST 4
FMAP 2
PLAN 20

RIGU

BIND I1 N1A
BIND I1 N1B

SIMU 0.01 N1A N1B N2A N2B C4A C4B C5A C5B C6A C6B C7A C7B C8A C8B

DFIX 31 C6A N2A C6B N2B

OMIT   3  -9   9
OMIT   4  -8   6
OMIT  -4  -5   8
OMIT  -3  10   1
OMIT  -1  -5  14

WGHT    0.047800    0.760800
FVAR       0.57763   0.57895   1.44150
I1    4    0.771814    0.294945    0.210243    11.00000    0.03402    0.02753 =
         0.03265    0.00164    0.00196    0.00383
CL1   3    0.715153   -0.007372    0.228243    11.00000    0.05145    0.03656 =
         0.02946    0.00969    0.00900    0.00033
CL2   3    0.917671   -0.265085    0.045572    11.00000    0.06160    0.02928 =
         0.03921    0.01388    0.00526    0.00384
C1    1    0.908031    0.118177    0.084389    11.00000    0.02918    0.02396 =
         0.02606   -0.00080    0.00081    0.00025
C2    1    0.874576   -0.001972    0.102287    11.00000    0.02967    0.03302 =
         0.02540    0.00630    0.00231    0.00146
C3    1    0.964233   -0.118759    0.018958    11.00000    0.03320    0.02431 =
         0.02864    0.00637   -0.00139   -0.00027
PART 1
AFIX  66
N1A   5    0.599678    0.557059    0.366306    21.00000    0.04896    0.02411 =
         0.03603    0.00994    0.00156    0.00614
C4A   1    0.440119    0.599297    0.286366    21.00000    0.05384    0.01731 =
         0.04337    0.01466    0.00469    0.00500
AFIX  43
H4A   2    0.366570    0.537468    0.211702    21.00000   -1.20000
AFIX  65
C5A   1    0.389320    0.732963    0.316834    21.00000    0.05183    0.01663 =
         0.03553    0.00474    0.00297    0.00196
AFIX  43
H5A   2    0.281416    0.761527    0.262774    21.00000   -1.20000
AFIX  65
C6A   1    0.498077    0.824392    0.427241    21.00000    0.04508    0.01917 =
         0.03276    0.00518    0.00659    0.00562
C7A   1    0.657636    0.782155    0.507182    21.00000    0.04898    0.01764 =
         0.03746    0.00715    0.00810    0.00859
AFIX  43
H7A   2    0.731184    0.843985    0.581846    21.00000   -1.20000
AFIX  65
C8A   1    0.708438    0.648489    0.476716    21.00000    0.05260    0.02125 =
         0.04174    0.01158    0.00379    0.00849
AFIX  43
H8A   2    0.816341    0.619926    0.530776    21.00000   -1.20000
AFIX   0
N2A   5    0.444349    0.961664    0.451803    21.00000    0.05303    0.02112 =
         0.03486    0.00629   -0.00299    0.00359
PART  2
AFIX  66
N1B   5    0.574673    0.555913    0.351807   -21.00000    0.05075    0.02433 =
         0.04098    0.00242    0.00659   -0.00055
C4B   1    0.429730    0.629024    0.294223   -21.00000    0.05417    0.02077 =
         0.04047   -0.00173    0.00575   -0.00143
AFIX  43
H4B   2    0.339308    0.586141    0.216954   -21.00000   -1.20000
AFIX  65
C5B   1    0.418496    0.765547    0.350897   -21.00000    0.05071    0.01838 =
         0.03737    0.00329    0.00691    0.00180
AFIX  43
H5B   2    0.320477    0.814988    0.311954   -21.00000   -1.20000
AFIX  65
C6B   1    0.552205    0.828960    0.465156   -21.00000    0.04492    0.01922 =
         0.03714    0.00530    0.00643    0.00288
C7B   1    0.697149    0.755850    0.522742   -21.00000    0.05056    0.01613 =
         0.04386    0.00670    0.00471    0.00333
AFIX  43
H7B   2    0.787571    0.798735    0.600011   -21.00000   -1.20000
AFIX  65
C8B   1    0.708385    0.619328    0.466069   -21.00000    0.05059    0.01115 =
         0.03932   -0.00574    0.00643   -0.00240
AFIX  43
H8B   2    0.806405    0.569887    0.505012   -21.00000   -1.20000
AFIX   0
N2B   5    0.550757    0.970281    0.529141   -21.00000    0.05213    0.02360 =
         0.03392    0.00393    0.00282    0.00442
HKLF 4




REM  210_a.res in P-1
REM wR2 = 0.079765, GooF = S = 1.09025, Restrained GooF = 1.01692 for all data
REM R1 = 0.030942 for 1928 Fo > 4sig(Fo) and 0.036302 for all 2012 data
REM 159 parameters refined using 343 restraints

END

WGHT      0.0478      0.7608

REM Highest difference peak  0.881,  deepest hole -1.171,  1-sigma level  0.162
Q1    1   0.7546  0.2864  0.1367  11.00000  0.05    0.88
Q2    1   0.5914  0.3292  0.1769  11.00000  0.05    0.80
Q3    1   0.9747  0.2703  0.2475  11.00000  0.05    0.76
Q4    1   0.7994  0.3140  0.2982  11.00000  0.05    0.73
Q5    1   0.5953  0.3112  0.2514  11.00000  0.05    0.72
Q6    1   0.9088  0.3001  0.1568  11.00000  0.05    0.71
Q7    1   0.3656  0.2812  0.1023  11.00000  0.05    0.60
Q8    1   1.2549  0.2700  0.2434  11.00000  0.05    0.53
Q9    1   0.4326  0.2599  0.1792  11.00000  0.05    0.49
Q10   1   0.8955  0.7205  0.6852  11.00000  0.05    0.49
Q11   1   0.2727  0.3005  0.1709  11.00000  0.05    0.49
Q12   1   0.6315  0.7579  0.6554  11.00000  0.05    0.45
Q13   1   1.1769 -0.2594 -0.0357  11.00000  0.05    0.44
Q14   1   0.6554  0.1638  0.0257  11.00000  0.05    0.44
Q15   1   0.6552  0.5725  0.6006  11.00000  0.05    0.44
Q16   1   0.2668  0.5233  0.4031  11.00000  0.05    0.42
Q17   1   0.5742  0.6626  0.5990  11.00000  0.05    0.42
Q18   1   0.8995  0.1291  0.0329  11.00000  0.05    0.40
Q19   1   1.3565 -0.0794  0.0399  11.00000  0.05    0.40
Q20   1   0.7567  0.6571  0.6789  11.00000  0.05    0.40
;
_shelx_res_checksum              87485
loop_
_symmetry_equiv_pos_as_xyz
'x, y, z'
'-x, -y, -z'
loop_
_atom_site_label
_atom_site_type_symbol
_atom_site_fract_x
_atom_site_fract_y
_atom_site_fract_z
_atom_site_U_iso_or_equiv
_atom_site_adp_type
_atom_site_occupancy
_atom_site_site_symmetry_order
_atom_site_calc_flag
_atom_site_refinement_flags_posn
_atom_site_refinement_flags_adp
_atom_site_refinement_flags_occupancy
_atom_site_disorder_assembly
_atom_site_disorder_group
I1 I 0.77181(6) 0.29495(2) 0.21024(2) 0.03408(12) Uani 1 1 d . . . . .
Cl1 Cl 0.7152(3) -0.00737(10) 0.22824(9) 0.0400(2) Uani 1 1 d . . . . .
Cl2 Cl 0.9177(3) -0.26508(10) 0.04557(9) 0.0430(3) Uani 1 1 d . . . . .
C1 C 0.9080(10) 0.1182(4) 0.0844(3) 0.0294(8) Uani 1 1 d . . . . .
C2 C 0.8746(10) -0.0020(4) 0.1023(3) 0.0307(8) Uani 1 1 d . . . . .
C3 C 0.9642(11) -0.1188(4) 0.0190(3) 0.0300(8) Uani 1 1 d . . . . .
N1A N 0.600(3) 0.5571(5) 0.3663(8) 0.0366(16) Uani 0.579(14) 1 d G U P A 1
C4A C 0.440(3) 0.5993(7) 0.2864(6) 0.0371(16) Uani 0.579(14) 1 d G U P A 1
H4A H 0.36657 0.537468 0.211702 0.045 Uiso 0.579(14) 1 calc R U P A 1
C5A C 0.389(2) 0.7330(8) 0.3168(7) 0.0362(17) Uani 0.579(14) 1 d G U P A 1
H5A H 0.281416 0.761527 0.262774 0.043 Uiso 0.579(14) 1 calc R U P A 1
C6A C 0.498(2) 0.8244(5) 0.4272(8) 0.0334(16) Uani 0.579(14) 1 d DG U P A 1
C7A C 0.658(3) 0.7822(7) 0.5072(6) 0.0351(18) Uani 0.579(14) 1 d G U P A 1
H7A H 0.731184 0.843985 0.581846 0.042 Uiso 0.579(14) 1 calc R U P A 1
C8A C 0.708(3) 0.6485(8) 0.4767(7) 0.0383(17) Uani 0.579(14) 1 d G U P A 1
H8A H 0.816341 0.619926 0.530776 0.046 Uiso 0.579(14) 1 calc R U P A 1
N2A N 0.444(2) 0.9617(8) 0.4518(7) 0.0377(17) Uani 0.579(14) 1 d D U P A 1
N1B N 0.575(5) 0.5559(8) 0.3518(12) 0.042(2) Uani 0.421(14) 1 d G U P A 2
C4B C 0.430(4) 0.6290(12) 0.2942(9) 0.042(2) Uani 0.421(14) 1 d G U P A 2
H4B H 0.339308 0.586141 0.216954 0.051 Uiso 0.421(14) 1 calc R U P A 2
C5B C 0.418(4) 0.7655(11) 0.3509(10) 0.037(2) Uani 0.421(14) 1 d G U P A 2
H5B H 0.320477 0.814988 0.311954 0.045 Uiso 0.421(14) 1 calc R U P A 2
C6B C 0.552(3) 0.8290(7) 0.4652(10) 0.035(2) Uani 0.421(14) 1 d DG U P A 2
C7B C 0.697(4) 0.7559(11) 0.5227(8) 0.038(2) Uani 0.421(14) 1 d G U P A 2
H7B H 0.787571 0.798735 0.600011 0.046 Uiso 0.421(14) 1 calc R U P A 2
C8B C 0.708(4) 0.6193(11) 0.4661(12) 0.038(2) Uani 0.421(14) 1 d G U P A 2
H8B H 0.806405 0.569887 0.505012 0.046 Uiso 0.421(14) 1 calc R U P A 2
N2B N 0.551(3) 0.9703(12) 0.5291(9) 0.038(2) Uani 0.421(14) 1 d D U P A 2
loop_
_atom_site_aniso_label
_atom_site_aniso_U_11
_atom_site_aniso_U_22
_atom_site_aniso_U_33
_atom_site_aniso_U_23
_atom_site_aniso_U_13
_atom_site_aniso_U_12
I1 0.03402(19) 0.02753(16) 0.03265(17) 0.00164(11) 0.00196(11) 0.00383(11)
Cl1 0.0515(7) 0.0366(5) 0.0295(5) 0.0097(4) 0.0090(4) 0.0003(4)
Cl2 0.0616(7) 0.0293(5) 0.0392(5) 0.0139(4) 0.0053(5) 0.0038(4)
C1 0.029(2) 0.0240(17) 0.0261(18) -0.0008(14) 0.0008(15) 0.0002(15)
C2 0.030(2) 0.033(2) 0.0254(18) 0.0063(15) 0.0023(15) 0.0015(16)
C3 0.033(2) 0.0243(17) 0.0286(19) 0.0064(15) -0.0014(16) -0.0003(15)
N1A 0.049(3) 0.024(3) 0.036(3) 0.010(2) 0.002(3) 0.006(3)
C4A 0.054(3) 0.017(3) 0.043(3) 0.015(2) 0.005(3) 0.005(3)
C5A 0.052(4) 0.017(3) 0.036(4) 0.005(3) 0.003(3) 0.002(3)
C6A 0.045(3) 0.019(2) 0.033(4) 0.005(2) 0.007(3) 0.006(2)
C7A 0.049(4) 0.018(3) 0.037(3) 0.007(2) 0.008(3) 0.009(3)
C8A 0.053(3) 0.021(3) 0.042(3) 0.012(3) 0.004(3) 0.008(3)
N2A 0.053(4) 0.021(3) 0.035(4) 0.006(3) -0.003(3) 0.004(3)
N1B 0.051(4) 0.024(3) 0.041(4) 0.002(3) 0.007(3) -0.001(3)
C4B 0.054(4) 0.021(4) 0.040(4) -0.002(3) 0.006(3) -0.001(4)
C5B 0.051(4) 0.018(4) 0.037(4) 0.003(3) 0.007(4) 0.002(4)
C6B 0.045(4) 0.019(3) 0.037(4) 0.005(3) 0.006(3) 0.003(3)
C7B 0.051(4) 0.016(4) 0.044(4) 0.007(3) 0.005(3) 0.003(3)
C8B 0.051(4) 0.011(3) 0.039(3) -0.006(3) 0.006(3) -0.002(3)
N2B 0.052(4) 0.024(4) 0.034(4) 0.004(4) 0.003(3) 0.004(4)
loop_
_atom_type_symbol
_atom_type_description
_atom_type_scat_dispersion_real
_atom_type_scat_dispersion_imag
_atom_type_scat_source
C C 0.0181 0.0091 'International Tables Vol C Tables 4.2.6.8 and 6.1.1.4'
H H 0 0 'International Tables Vol C Tables 4.2.6.8 and 6.1.1.4'
Cl Cl 0.3639 0.7018 'International Tables Vol C Tables 4.2.6.8 and 6.1.1.4'
I I -0.3257 6.8362 'International Tables Vol C Tables 4.2.6.8 and 6.1.1.4'
N N 0.0311 0.018 'International Tables Vol C Tables 4.2.6.8 and 6.1.1.4'
loop_
_exptl_crystal_face_index_h
_exptl_crystal_face_index_k
_exptl_crystal_face_index_l
_exptl_crystal_face_perp_dist
0 6 1 0.0747
1 3 5 0.062
2 4 2 0.0644
0 1 -8 0.0283
0 -5 7 0.0339
0 4 -8 0.0132
0 7 -3 0.0515
-3 0 -1 0.0276
0 -4 8 0.0381
0 -6 -1 0.0462
3 0 1 0.0594
2 3 -2 0.0542
loop_
_geom_angle_atom_site_label_1
_geom_angle_atom_site_label_2
_geom_angle_atom_site_label_3
_geom_angle
_geom_angle_site_symmetry_1
_geom_angle_site_symmetry_3
C1 I1 N1B 170.2(3) . .
C1 I1 N1A 173.2(2) . .
C2 C1 C3 118.4(4) . 2_755
C2 C1 I1 120.9(3) . .
C3 C1 I1 120.6(3) 2_755 .
C3 C2 C1 120.9(4) . .
C3 C2 Cl1 119.2(3) . .
C1 C2 Cl1 119.9(3) . .
C2 C3 C1 120.7(4) . 2_755
C2 C3 Cl2 119.0(3) . .
C1 C3 Cl2 120.3(3) 2_755 .
C4A N1A C8A 120 . .
C4A N1A I1 100.3(4) . .
C8A N1A I1 136.8(4) . .
C5A C4A N1A 120 . .
C5A C4A H4A 120 . .
N1A C4A H4A 120 . .
C4A C5A C6A 120 . .
C4A C5A H5A 120 . .
C6A C5A H5A 120 . .
C7A C6A C5A 120 . .
C7A C6A N2A 123.0(6) . .
C5A C6A N2A 117.0(6) . .
C8A C7A C6A 120 . .
C8A C7A H7A 120 . .
C6A C7A H7A 120 . .
C7A C8A N1A 120 . .
C7A C8A H8A 120 . .
N1A C8A H8A 120 . .
N2A N2A C6A 114.3(10) 2_676 .
C4B N1B C8B 120 . .
C4B N1B I1 117.7(6) . .
C8B N1B I1 119.7(6) . .
N1B C4B C5B 120 . .
N1B C4B H4B 120 . .
C5B C4B H4B 120 . .
C6B C5B C4B 120 . .
C6B C5B H5B 120 . .
C4B C5B H5B 120 . .
C5B C6B C7B 120 . .
C5B C6B N2B 123.0(9) . .
C7B C6B N2B 117.0(9) . .
C6B C7B C8B 120 . .
C6B C7B H7B 120 . .
C8B C7B H7B 120 . .
C7B C8B N1B 120 . .
C7B C8B H8B 120 . .
N1B C8B H8B 120 . .
N2B N2B C6B 113.5(14) 2_676 .
loop_
_geom_bond_atom_site_label_1
_geom_bond_atom_site_label_2
_geom_bond_distance
_geom_bond_site_symmetry_2
I1 C1 2.106(4) .
I1 N1B 2.918(9) .
I1 N1A 2.942(6) .
Cl1 C2 1.724(4) .
Cl2 C3 1.730(4) .
C1 C2 1.394(6) .
C1 C3 1.396(6) 2_755
C2 C3 1.392(6) .
N1A C4A 1.39 .
N1A C8A 1.39 .
C4A C5A 1.39 .
C4A H4A 0.94 .
C5A C6A 1.39 .
C5A H5A 0.94 .
C6A C7A 1.39 .
C6A N2A 1.440(9) .
C7A C8A 1.39 .
C7A H7A 0.94 .
C8A H8A 0.94 .
N2A N2A 1.219(18) 2_676
N1B C4B 1.39 .
N1B C8B 1.39 .
C4B C5B 1.39 .
C4B H4B 0.94 .
C5B C6B 1.39 .
C5B H5B 0.94 .
C6B C7B 1.39 .
C6B N2B 1.443(12) .
C7B C8B 1.39 .
C7B H7B 0.94 .
C8B H8B 0.94 .
N2B N2B 1.21(2) 2_676
