#------------------------------------------------------------------------------
#$Date: 2019-10-29 06:15:30 +0200 (Tue, 29 Oct 2019) $
#$Revision: 220351 $
#$URL: file:///home/coder/svn-repositories/cod/cif/7/05/89/7058934.cif $
#------------------------------------------------------------------------------
#
# This file is available in the Crystallography Open Database (COD),
# http://www.crystallography.net/
#
# All data on this site have been placed in the public domain by the
# contributors.
#
data_7058934
loop_
_publ_author_name
'Juneja, Navkiran Kaur'
'Unruh, Daniel K.'
'Bosch, Eric'
'Groeneman , Ryan'
'Hutchins, Kristin M.'
_publ_section_title
;
 Effects of dynamic pedal motion and static disorder on thermal expansion
 within halogen bonded co-crystals
;
_journal_name_full               'New Journal of Chemistry'
_journal_paper_doi               10.1039/C9NJ04833B
_journal_year                    2019
_chemical_formula_moiety         'C12 H8 N2, C6 Cl4 I2'
_chemical_formula_sum            'C18 H8 Cl4 I2 N2'
_chemical_formula_weight         647.86
_chemical_name_common
'Cocrystal 1,2,4,5-tetrachlorobenzene and 1,2-bis(4-pyridyl)ethyne'
_space_group_crystal_system      triclinic
_space_group_IT_number           2
_space_group_name_Hall           '-P 1'
_space_group_name_H-M_alt        'P -1'
_symmetry_space_group_name_Hall  '-P 1'
_symmetry_space_group_name_H-M   'P -1'
_atom_sites_solution_hydrogens   geom
_audit_creation_method           SHELXL-2018/3
_audit_update_record
;
2019-09-24 deposited with the CCDC.    2019-10-28 downloaded from the CCDC.
;
_cell_angle_alpha                111.4960(10)
_cell_angle_beta                 90.5990(10)
_cell_angle_gamma                97.4800(10)
_cell_formula_units_Z            1
_cell_length_a                   4.0336(2)
_cell_length_b                   11.1825(7)
_cell_length_c                   12.1732(7)
_cell_measurement_reflns_used    5088
_cell_measurement_temperature    230(2)
_cell_measurement_theta_max      27.29
_cell_measurement_theta_min      3.13
_cell_volume                     505.53(5)
_computing_cell_refinement       'Bruker SMART'
_computing_data_collection       'Bruker SMART'
_computing_data_reduction        'Bruker SAINT'
_computing_molecular_graphics    'XSeed (Barbour, 2001)'
_computing_publication_material  'XSeed (Barbour, 2001)'
_computing_structure_refinement  'SHELXL-2018/3 (Sheldrick, 2015)'
_computing_structure_solution    'SHELXT 2018/2 (Sheldrick, 2015)'
_diffrn_ambient_temperature      230(2)
_diffrn_detector_area_resol_mean 8.3660
_diffrn_measured_fraction_theta_full 0.998
_diffrn_measured_fraction_theta_max 0.997
_diffrn_measurement_device_type  'Bruker APEX-II CCD'
_diffrn_measurement_method       'phi and omega scans'
_diffrn_radiation_monochromator  graphite
_diffrn_radiation_source         'fine-focus sealed tube'
_diffrn_radiation_type           MoK\a
_diffrn_radiation_wavelength     0.71073
_diffrn_reflns_av_R_equivalents  0.0156
_diffrn_reflns_av_unetI/netI     0.0159
_diffrn_reflns_Laue_measured_fraction_full 0.998
_diffrn_reflns_Laue_measured_fraction_max 0.997
_diffrn_reflns_limit_h_max       5
_diffrn_reflns_limit_h_min       -5
_diffrn_reflns_limit_k_max       14
_diffrn_reflns_limit_k_min       -14
_diffrn_reflns_limit_l_max       15
_diffrn_reflns_limit_l_min       -15
_diffrn_reflns_number            6384
_diffrn_reflns_point_group_measured_fraction_full 0.998
_diffrn_reflns_point_group_measured_fraction_max 0.997
_diffrn_reflns_theta_full        25.242
_diffrn_reflns_theta_max         27.287
_diffrn_reflns_theta_min         2.125
_exptl_absorpt_coefficient_mu    3.644
_exptl_absorpt_correction_T_max  1.000
_exptl_absorpt_correction_T_min  0.702
_exptl_absorpt_correction_type   multi-scan
_exptl_absorpt_process_details   'SADABS V2014(Bruker AXS)'
_exptl_crystal_colour            colourless
_exptl_crystal_density_diffrn    2.128
_exptl_crystal_description       cut
_exptl_crystal_F_000             304
_exptl_crystal_size_max          0.30
_exptl_crystal_size_mid          0.18
_exptl_crystal_size_min          0.03
_refine_diff_density_max         0.531
_refine_diff_density_min         -0.326
_refine_diff_density_rms         0.066
_refine_ls_extinction_method     none
_refine_ls_goodness_of_fit_ref   1.087
_refine_ls_hydrogen_treatment    constr
_refine_ls_matrix_type           full
_refine_ls_number_parameters     118
_refine_ls_number_reflns         2271
_refine_ls_number_restraints     0
_refine_ls_restrained_S_all      1.087
_refine_ls_R_factor_all          0.0148
_refine_ls_R_factor_gt           0.0141
_refine_ls_shift/su_max          0.004
_refine_ls_shift/su_mean         0.000
_refine_ls_structure_factor_coef Fsqd
_refine_ls_weighting_details
'w=1/[\s^2^(Fo^2^)+(0.0163P)^2^+0.1476P] where P=(Fo^2^+2Fc^2^)/3'
_refine_ls_weighting_scheme      calc
_refine_ls_wR_factor_gt          0.0335
_refine_ls_wR_factor_ref         0.0339
_reflns_Friedel_coverage         0.000
_reflns_number_gt                2201
_reflns_number_total             2271
_reflns_threshold_expression     'I > 2\s(I)'
_cod_data_source_file            c9nj04833b2.cif
_cod_data_source_block           eb887230_a
_cod_database_code               7058934
_shelx_shelxl_version_number     2018/3
_shelx_space_group_comment
;
The symmetry employed for this shelxl refinement is uniquely defined
by the following loop, which should always be used as a source of
symmetry information in preference to the above space-group names.
They are only intended as comments.
;
_shelx_res_file
;
TITL eb887230_a.res in P-1
    I:\XRAYDATA\EB8872~2\eb887230_a.res
    created by SHELXL-2018/3 at 16:34:25 on 08-May-2019
CELL 0.71073 4.0336 11.1825 12.1732 111.496 90.599 97.480
ZERR 1.0000 0.0002 0.0007 0.0007 0.001 0.001 0.001
LATT 1
SFAC C H N CL I
UNIT 18 8 2 4 2
BOND
OMIT 0 0 1
OMIT 0 1 0
ACTA
FMAP 2 1 53
PLAN 20 0 0
LIST 6 1
TEMP -43.15
L.S. 10
WGHT    0.016300    0.147600
FVAR       0.51473
I1    5    0.285061    0.290576    0.706047    11.00000    0.02518    0.02046 =
         0.02447    0.00104    0.00250    0.00646
CL1   4    0.592448    0.250992    0.441825    11.00000    0.05222    0.02288 =
         0.03089    0.01237    0.00652    0.00809
N1    3    0.125422    0.545545    0.852081    11.00000    0.04437    0.01815 =
         0.03901    0.00777    0.00784    0.00836
C1    1    0.192705    0.753847    1.009771    11.00000    0.03741    0.02365 =
         0.02678    0.00614    0.00197    0.00680
AFIX  43
H1    2    0.265948    0.804809    1.088669    11.00000   -1.20000
AFIX   0
CL2   4    0.782356   -0.002160    0.262227    11.00000    0.04642    0.02837 =
         0.02245    0.00749    0.01135    0.00377
C2    1    0.223025    0.623222    0.962952    11.00000    0.03925    0.02515 =
         0.03702    0.01306    0.00303    0.01086
AFIX  43
H2    2    0.318119    0.587157    1.012297    11.00000   -1.20000
AFIX   0
C3    1   -0.010973    0.598520    0.783663    11.00000    0.05009    0.02237 =
         0.02722    0.00258    0.00193    0.00311
AFIX  43
H3    2   -0.082367    0.544737    0.705284    11.00000   -1.20000
AFIX   0
C4    1   -0.053177    0.727771    0.821428    11.00000    0.04274    0.02473 =
         0.02860    0.01105    0.00136    0.00521
AFIX  43
H4    2   -0.150290    0.760676    0.769912    11.00000   -1.20000
AFIX   0
C5    1    0.051369    0.808430    0.937633    11.00000    0.02974    0.01708 =
         0.02846    0.00794    0.00850    0.00610
C6    1    0.014470    0.943878    0.981635    11.00000    0.03772    0.02219 =
         0.02757    0.00937    0.00699    0.00811
C7    1    0.411063    0.116525    0.582839    11.00000    0.02065    0.01884 =
         0.02005    0.00212   -0.00073    0.00397
C8    1    0.539369    0.112672    0.475400    11.00000    0.02320    0.01938 =
         0.02210    0.00667   -0.00110    0.00246
C9    1    0.626467   -0.002434    0.393864    11.00000    0.02233    0.02302 =
         0.01723    0.00458    0.00048    0.00143
HKLF 4




REM  eb887230_a.res in P-1
REM wR2 = 0.0339, GooF = S = 1.087, Restrained GooF = 1.087 for all data
REM R1 = 0.0141 for 2201 Fo > 4sig(Fo) and 0.0148 for all 2271 data
REM 118 parameters refined using 0 restraints

END

WGHT      0.0163      0.1476

REM Highest difference peak  0.531,  deepest hole -0.326,  1-sigma level  0.066
Q1    1   0.2690  0.2993  0.6422  11.00000  0.05    0.53
Q2    1  -0.0724  0.6627  0.8171  11.00000  0.05    0.31
Q3    1   0.1803  0.2203  0.7005  11.00000  0.05    0.28
Q4    1   0.0338  0.2608  0.6847  11.00000  0.05    0.28
Q5    1   0.0823  0.7781  0.9760  11.00000  0.05    0.28
Q6    1  -0.0050  0.8644  0.9591  11.00000  0.05    0.28
Q7    1  -0.0035  0.7651  0.8802  11.00000  0.05    0.27
Q8    1   0.5153  0.0432  0.4265  11.00000  0.05    0.27
Q9    1   0.2553  0.2534  0.7833  11.00000  0.05    0.27
Q10   1   0.4838  0.3184  0.7309  11.00000  0.05    0.25
Q11   1   0.5785 -0.0598  0.4018  11.00000  0.05    0.25
Q12   1   0.3851  0.3933  0.7375  11.00000  0.05    0.25
Q13   1   0.1636  0.6836  0.9799  11.00000  0.05    0.24
Q14   1   0.0797  0.9940  0.9421  11.00000  0.05    0.21
Q15   1   0.0552  0.4584  0.6416  11.00000  0.05    0.21
Q16   1   0.0617  0.5771  0.8225  11.00000  0.05    0.21
Q17   1   0.5157  0.1204  0.5346  11.00000  0.05    0.21
Q18   1  -0.1000  0.6618  0.6189  11.00000  0.05    0.20
Q19   1  -0.3438  0.7426  0.7774  11.00000  0.05    0.19
Q20   1   0.1716  0.2981  0.4916  11.00000  0.05    0.18
;
_shelx_res_checksum              85907
loop_
_space_group_symop_operation_xyz
'x, y, z'
'-x, -y, -z'
loop_
_atom_site_label
_atom_site_type_symbol
_atom_site_fract_x
_atom_site_fract_y
_atom_site_fract_z
_atom_site_U_iso_or_equiv
_atom_site_adp_type
_atom_site_occupancy
_atom_site_site_symmetry_order
_atom_site_calc_flag
_atom_site_refinement_flags_posn
_atom_site_refinement_flags_adp
I1 I 0.28506(3) 0.29058(2) 0.70605(2) 0.02514(4) Uani 1 1 d . .
Cl1 Cl 0.59245(13) 0.25099(4) 0.44183(4) 0.03436(11) Uani 1 1 d . .
N1 N 0.1254(4) 0.54555(15) 0.85208(15) 0.0342(4) Uani 1 1 d . .
C1 C 0.1927(5) 0.75385(18) 1.00977(17) 0.0300(4) Uani 1 1 d . .
H1 H 0.265948 0.804809 1.088669 0.036 Uiso 1 1 calc R U
Cl2 Cl 0.78236(13) -0.00216(4) 0.26223(4) 0.03305(10) Uani 1 1 d . .
C2 C 0.2230(5) 0.62322(18) 0.96295(18) 0.0328(4) Uani 1 1 d . .
H2 H 0.318119 0.587157 1.012297 0.039 Uiso 1 1 calc R U
C3 C -0.0110(5) 0.59852(19) 0.78366(17) 0.0353(4) Uani 1 1 d . .
H3 H -0.082367 0.544737 0.705284 0.042 Uiso 1 1 calc R U
C4 C -0.0532(5) 0.72777(18) 0.82143(17) 0.0317(4) Uani 1 1 d . .
H4 H -0.150290 0.760676 0.769912 0.038 Uiso 1 1 calc R U
C5 C 0.0514(4) 0.80843(16) 0.93763(16) 0.0249(3) Uani 1 1 d . .
C6 C 0.0145(5) 0.94388(18) 0.98164(16) 0.0287(4) Uani 1 1 d . .
C7 C 0.4111(4) 0.11652(16) 0.58284(14) 0.0212(3) Uani 1 1 d . .
C8 C 0.5394(4) 0.11267(16) 0.47540(14) 0.0219(3) Uani 1 1 d . .
C9 C 0.6265(4) -0.00243(16) 0.39386(14) 0.0219(3) Uani 1 1 d . .
loop_
_atom_site_aniso_label
_atom_site_aniso_U_11
_atom_site_aniso_U_22
_atom_site_aniso_U_33
_atom_site_aniso_U_23
_atom_site_aniso_U_13
_atom_site_aniso_U_12
I1 0.02518(7) 0.02046(6) 0.02447(7) 0.00104(5) 0.00250(4) 0.00646(4)
Cl1 0.0522(3) 0.0229(2) 0.0309(2) 0.01237(18) 0.0065(2) 0.00809(19)
N1 0.0444(10) 0.0182(7) 0.0390(9) 0.0078(7) 0.0078(7) 0.0084(7)
C1 0.0374(10) 0.0236(9) 0.0268(9) 0.0061(7) 0.0020(7) 0.0068(7)
Cl2 0.0464(3) 0.0284(2) 0.0225(2) 0.00749(18) 0.01135(18) 0.00377(19)
C2 0.0393(10) 0.0252(9) 0.0370(10) 0.0131(8) 0.0030(8) 0.0109(8)
C3 0.0501(12) 0.0224(9) 0.0272(9) 0.0026(8) 0.0019(8) 0.0031(8)
C4 0.0427(11) 0.0247(9) 0.0286(9) 0.0111(8) 0.0014(8) 0.0052(8)
C5 0.0297(9) 0.0171(8) 0.0285(9) 0.0079(7) 0.0085(7) 0.0061(7)
C6 0.0377(10) 0.0222(8) 0.0276(9) 0.0094(7) 0.0070(7) 0.0081(7)
C7 0.0206(8) 0.0188(8) 0.0201(8) 0.0021(6) -0.0007(6) 0.0040(6)
C8 0.0232(8) 0.0194(8) 0.0221(8) 0.0067(6) -0.0011(6) 0.0025(6)
C9 0.0223(8) 0.0230(8) 0.0172(7) 0.0046(6) 0.0005(6) 0.0014(6)
loop_
_atom_type_symbol
_atom_type_description
_atom_type_scat_dispersion_real
_atom_type_scat_dispersion_imag
_atom_type_scat_source
C C 0.0033 0.0016 'International Tables Vol C Tables 4.2.6.8 and 6.1.1.4'
H H 0.0000 0.0000 'International Tables Vol C Tables 4.2.6.8 and 6.1.1.4'
N N 0.0061 0.0033 'International Tables Vol C Tables 4.2.6.8 and 6.1.1.4'
Cl Cl 0.1484 0.1585 'International Tables Vol C Tables 4.2.6.8 and 6.1.1.4'
I I -0.4742 1.8119 'International Tables Vol C Tables 4.2.6.8 and 6.1.1.4'
loop_
_geom_angle_atom_site_label_1
_geom_angle_atom_site_label_2
_geom_angle_atom_site_label_3
_geom_angle
_geom_angle_site_symmetry_1
C2 N1 C3 117.14(16) .
C2 C1 C5 118.65(17) .
N1 C2 C1 123.83(18) .
N1 C3 C4 123.79(18) .
C3 C4 C5 118.59(17) .
C1 C5 C4 118.00(16) .
C1 C5 C6 121.01(17) .
C4 C5 C6 120.99(16) .
C6 C6 C5 179.7(3) 2_577
C9 C7 C8 118.10(15) 2_656
C9 C7 I1 121.26(12) 2_656
C8 C7 I1 120.63(12) .
C9 C8 C7 120.80(15) .
C9 C8 Cl1 119.02(13) .
C7 C8 Cl1 120.19(13) .
C7 C9 C8 121.11(15) 2_656
C7 C9 Cl2 119.92(13) 2_656
C8 C9 Cl2 118.97(13) .
loop_
_geom_bond_atom_site_label_1
_geom_bond_atom_site_label_2
_geom_bond_distance
_geom_bond_site_symmetry_2
I1 C7 2.1048(16) .
Cl1 C8 1.7275(17) .
N1 C2 1.331(3) .
N1 C3 1.336(3) .
C1 C2 1.383(3) .
C1 C5 1.393(3) .
Cl2 C9 1.7284(17) .
C3 C4 1.381(3) .
C4 C5 1.395(3) .
C5 C6 1.438(2) .
C6 C6 1.190(4) 2_577
C7 C9 1.395(2) 2_656
C7 C8 1.400(2) .
C8 C9 1.398(2) .
