#------------------------------------------------------------------------------
#$Date: 2019-10-29 06:15:30 +0200 (Tue, 29 Oct 2019) $
#$Revision: 220351 $
#$URL: file:///home/coder/svn-repositories/cod/cif/7/05/89/7058923.cif $
#------------------------------------------------------------------------------
#
# This file is available in the Crystallography Open Database (COD),
# http://www.crystallography.net/
#
# All data on this site have been placed in the public domain by the
# contributors.
#
data_7058923
loop_
_publ_author_name
'Juneja, Navkiran Kaur'
'Unruh, Daniel K.'
'Bosch, Eric'
'Groeneman , Ryan'
'Hutchins, Kristin M.'
_publ_section_title
;
 Effects of dynamic pedal motion and static disorder on thermal expansion
 within halogen bonded co-crystals
;
_journal_name_full               'New Journal of Chemistry'
_journal_paper_doi               10.1039/C9NJ04833B
_journal_year                    2019
_chemical_formula_sum            'C16 H8 Cl4 I2 N4'
_chemical_formula_weight         651.86
_space_group_IT_number           2
_space_group_name_Hall           '-P 1'
_space_group_name_H-M_alt        'P -1'
_symmetry_cell_setting           triclinic
_symmetry_Int_Tables_number      2
_symmetry_space_group_name_Hall  '-P 1'
_symmetry_space_group_name_H-M   'P -1'
_atom_sites_solution_hydrogens   geom
_atom_sites_solution_primary     dual
_atom_sites_solution_secondary   difmap
_audit_creation_date             2019-09-05T11:56:13-00:00
_audit_creation_method           'WinGX routine CIF_UPDATE'
_audit_update_record
;
2019-09-20 deposited with the CCDC.    2019-10-28 downloaded from the CCDC.
;
_cell_angle_alpha                111.498(3)
_cell_angle_beta                 92.143(3)
_cell_angle_gamma                94.631(3)
_cell_formula_units_Z            1
_cell_length_a                   4.05852(19)
_cell_length_b                   10.8342(4)
_cell_length_c                   12.4194(4)
_cell_measurement_reflns_used    8639
_cell_measurement_temperature    290(2)
_cell_measurement_theta_max      77.195
_cell_measurement_theta_min      3.889
_cell_volume                     505.12(4)
_computing_cell_refinement       'CrysAlisPro 1.171.40.58a (Rigaku OD, 2019)'
_computing_data_collection       'CrysAlisPro 1.171.40.58a (Rigaku OD, 2019)'
_computing_data_reduction        'CrysAlisPro 1.171.40.58a (Rigaku OD, 2019)'
_computing_structure_refinement  'SHELXL-2018/3 (Sheldrick, 2018)'
_computing_structure_solution    'SHELXT 2014/5 (Sheldrick, 2014)'
_diffrn_ambient_environment      air
_diffrn_ambient_temperature      290(2)
_diffrn_detector                 'Hybrid Pixel Array Detector'
_diffrn_detector_area_resol_mean 10
_diffrn_detector_type            HyPix
_diffrn_measured_fraction_theta_full 0.96
_diffrn_measured_fraction_theta_max 0.891
_diffrn_measurement_device       'four-circle diffractometer'
_diffrn_measurement_device_type  'XtaLAB Synergy, Dualflex, HyPix'
_diffrn_measurement_method       '\w scans'
_diffrn_orient_matrix_type
'CrysAlisPro convention (1999,Acta A55,543-557)'
_diffrn_orient_matrix_UB_11      0.1488655
_diffrn_orient_matrix_UB_12      0.1456918
_diffrn_orient_matrix_UB_13      0.0630197
_diffrn_orient_matrix_UB_21      0.053818
_diffrn_orient_matrix_UB_22      0.0124018
_diffrn_orient_matrix_UB_23      -0.1178943
_diffrn_orient_matrix_UB_31      -0.3474752
_diffrn_orient_matrix_UB_32      0.0471833
_diffrn_orient_matrix_UB_33      -0.0018571
_diffrn_radiation_monochromator  mirror
_diffrn_radiation_probe          x-ray
_diffrn_radiation_type           CuK\a
_diffrn_radiation_wavelength     1.54178
_diffrn_reflns_av_R_equivalents  0.0854
_diffrn_reflns_av_unetI/netI     0.0619
_diffrn_reflns_Laue_measured_fraction_full 0.96
_diffrn_reflns_Laue_measured_fraction_max 0.891
_diffrn_reflns_limit_h_max       4
_diffrn_reflns_limit_h_min       -5
_diffrn_reflns_limit_k_max       13
_diffrn_reflns_limit_k_min       -13
_diffrn_reflns_limit_l_max       14
_diffrn_reflns_limit_l_min       -15
_diffrn_reflns_number            13253
_diffrn_reflns_point_group_measured_fraction_full 0.96
_diffrn_reflns_point_group_measured_fraction_max 0.891
_diffrn_reflns_theta_full        67.679
_diffrn_reflns_theta_max         76.485
_diffrn_reflns_theta_min         3.835
_diffrn_source                   'micro-focus sealed X-ray tube'
_diffrn_source_type              'PhotonJet (Cu) X-ray Source'
_exptl_absorpt_coefficient_mu    29.398
_exptl_absorpt_correction_T_max  0.473
_exptl_absorpt_correction_T_min  0.068
_exptl_absorpt_correction_type   gaussian
_exptl_absorpt_process_details
;
        CrysAlisPro 1.171.40.58a (Rigaku Oxford Diffraction, 2019)
Numerical absorption correction based on gaussian integration over
                        a multifaceted crystal model
        Empirical absorption correction using spherical harmonics,
 implemented in SCALE3 ABSPACK scaling algorithm.
;
_exptl_crystal_colour            'clear pale yellow'
_exptl_crystal_density_diffrn    2.143
_exptl_crystal_description       block
_exptl_crystal_F_000             306
_exptl_crystal_size_max          0.143
_exptl_crystal_size_mid          0.094
_exptl_crystal_size_min          0.054
_refine_diff_density_max         0.744
_refine_diff_density_min         -1.011
_refine_diff_density_rms         0.139
_refine_ls_extinction_method     none
_refine_ls_goodness_of_fit_ref   1.138
_refine_ls_hydrogen_treatment    constr
_refine_ls_matrix_type           full
_refine_ls_number_parameters     159
_refine_ls_number_reflns         1883
_refine_ls_number_restraints     343
_refine_ls_restrained_S_all      1.05
_refine_ls_R_factor_all          0.0411
_refine_ls_R_factor_gt           0.0352
_refine_ls_shift/su_max          0
_refine_ls_shift/su_mean         0
_refine_ls_structure_factor_coef Fsqd
_refine_ls_weighting_details
'w=1/[\s^2^(Fo^2^)+(0.0404P)^2^+1.4244P] where P=(Fo^2^+2Fc^2^)/3'
_refine_ls_weighting_scheme      calc
_refine_ls_wR_factor_gt          0.0896
_refine_ls_wR_factor_ref         0.0962
_reflns_Friedel_coverage         0
_reflns_number_gt                1759
_reflns_number_total             1883
_reflns_threshold_expression     'I > 2\s(I)'
_cod_data_source_file            c9nj04833b2.cif
_cod_data_source_block           hut19_48_290
_cod_database_code               7058923
_shelx_estimated_absorpt_t_min   0.102
_shelx_estimated_absorpt_t_max   0.3
_shelx_shelxl_version_number     2018/3
_shelx_res_file
;
TITL 290_a.res in P-1
    290_a.res
    created by SHELXL-2018/3 at 08:51:09 on 05-Sep-2019
REM Old TITL 290 in P1

REM SHELXT solution in P-1
REM R1 0.131,  Rweak 0.011,  Alpha 0.039,  Orientation as input
REM Formula found by SHELXT:  C9 Cl2 I N

CELL  1.54178   4.058523  10.834159  12.419400   111.4980    92.1432    94.6313
ZERR    1.000   0.000192   0.000378   0.000430     0.0034     0.0034     0.0033
LATT  1
SFAC C H CL I N
UNIT 16 8 4 2 4
TEMP 17.2
SIZE 0.143 0.094 0.054
L.S. 10
BOND $H
ACTA
LIST 4
FMAP 2
PLAN 20

RIGU

BIND I1 N1A
BIND I1 N1B

SIMU 0.01 N1A N1B N2A N2B C4A C4B C5A C5B C6A C6B C7A C7B C8A C8B

DFIX 31 C6A N2A C6B N2B

OMIT    -3   8   3
OMIT     4  -3   6
OMIT    -1  -9  12
OMIT     0  12   0

WGHT    0.040400    1.424400
FVAR       0.54815   0.54678   1.43981
I1    4    0.772995    0.294706    0.208665    11.00000    0.04792    0.03829 =
         0.04630    0.00176    0.00138    0.00551
CL1   3    0.720249   -0.006607    0.227768    11.00000    0.07385    0.05077 =
         0.04184    0.01218    0.01226   -0.00166
CL2   3    0.923140   -0.264207    0.046201    11.00000    0.08604    0.04006 =
         0.05504    0.01851    0.00465    0.00513
C1    1    0.908689    0.117846    0.083705    11.00000    0.03890    0.02903 =
         0.04343    0.00092   -0.00314    0.00071
C2    1    0.874972   -0.001769    0.101895    11.00000    0.03989    0.04304 =
         0.03185    0.00822   -0.00024    0.00166
C3    1    0.968737   -0.118586    0.019188    11.00000    0.04567    0.03693 =
         0.03926    0.01127   -0.00233    0.00479
PART 1
AFIX  66
N1A   5    0.597981    0.557616    0.367754    21.00000    0.07051    0.03072 =
         0.05172    0.01227    0.00302    0.00502
C4A   1    0.440866    0.600527    0.288351    21.00000    0.07418    0.02582 =
         0.05692    0.01376    0.00412    0.00128
AFIX  43
H4A   2    0.366506    0.539590    0.214901    21.00000   -1.20000
AFIX  65
C5A   1    0.394892    0.734517    0.318727    21.00000    0.07431    0.02511 =
         0.05154    0.00565    0.00556    0.00267
AFIX  43
H5A   2    0.289771    0.763227    0.265601    21.00000   -1.20000
AFIX  65
C6A   1    0.506032    0.825596    0.428507    21.00000    0.06666    0.02674 =
         0.04866    0.00830    0.00820    0.00267
C7A   1    0.663147    0.782686    0.507911    21.00000    0.06859    0.02597 =
         0.05344    0.00799    0.00855    0.00850
AFIX  43
H7A   2    0.737507    0.843625    0.581361    21.00000   -1.20000
AFIX  65
C8A   1    0.709123    0.648697    0.477536    21.00000    0.07145    0.02958 =
         0.05618    0.01162    0.00198    0.00626
AFIX  43
H8A   2    0.814243    0.619987    0.530663    21.00000   -1.20000
AFIX   0
N2A   5    0.446419    0.962164    0.452568    21.00000    0.07044    0.02868 =
         0.04945    0.01115    0.00034    0.00259
PART  2
AFIX  66
N1B   5    0.584541    0.556817    0.349900   -21.00000    0.07004    0.03193 =
         0.05510    0.00529    0.00417    0.00204
C4B   1    0.439098    0.630114    0.293088   -21.00000    0.07381    0.02992 =
         0.05661    0.00453    0.00320    0.00048
AFIX  43
H4B   2    0.354111    0.588322    0.216416   -21.00000   -1.20000
AFIX  65
C5B   1    0.420680    0.765873    0.350869   -21.00000    0.07202    0.02577 =
         0.05311    0.00773    0.00589   -0.00015
AFIX  43
H5B   2    0.323369    0.814913    0.312857   -21.00000   -1.20000
AFIX  65
C6B   1    0.547703    0.828338    0.465463   -21.00000    0.06605    0.02726 =
         0.05116    0.00765    0.00591    0.00188
C7B   1    0.693146    0.755043    0.522277   -21.00000    0.07021    0.02461 =
         0.05651    0.00976    0.00533    0.00303
AFIX  43
H7B   2    0.778133    0.796836    0.598948   -21.00000   -1.20000
AFIX  65
C8B   1    0.711567    0.619283    0.464497   -21.00000    0.06786    0.02372 =
         0.05166    0.00150    0.00500    0.00301
AFIX  43
H8B   2    0.808878    0.570244    0.502509   -21.00000   -1.20000
AFIX   0
N2B   5    0.548524    0.969074    0.529893   -21.00000    0.07226    0.03008 =
         0.04311    0.00805    0.00061    0.00891
HKLF 4




REM  290_a.res in P-1
REM wR2 = 0.096187, GooF = S = 1.13844, Restrained GooF = 1.04961 for all data
REM R1 = 0.035214 for 1759 Fo > 4sig(Fo) and 0.041122 for all 1883 data
REM 159 parameters refined using 343 restraints

END

WGHT      0.0404      1.4244

REM Highest difference peak  0.744,  deepest hole -1.011,  1-sigma level  0.139
Q1    1   0.8047  0.2832  0.1327  11.00000  0.05    0.74
Q2    1   0.6010  0.2917  0.2607  11.00000  0.05    0.72
Q3    1   0.7667  0.3332  0.3067  11.00000  0.05    0.67
Q4    1   0.3776  0.2880  0.1701  11.00000  0.05    0.64
Q5    1   0.6486  0.3212  0.1168  11.00000  0.05    0.64
Q6    1   0.9001  0.2784  0.3057  11.00000  0.05    0.63
Q7    1   0.1321  0.4576  0.3404  11.00000  0.05    0.47
Q8    1   1.2610  0.3150  0.2478  11.00000  0.05    0.46
Q9    1   0.8737 -0.2514  0.1167  11.00000  0.05    0.43
Q10   1   0.6715 -0.3055 -0.1006  11.00000  0.05    0.42
Q11   1   0.8128  0.7147  0.6879  11.00000  0.05    0.40
Q12   1   0.4805 -0.2443 -0.0202  11.00000  0.05    0.40
Q13   1   0.4334 -0.2546  0.0503  11.00000  0.05    0.39
Q14   1   0.4594  0.3794  0.3201  11.00000  0.05    0.39
Q15   1   0.6441  0.7813  0.6653  11.00000  0.05    0.39
Q16   1   0.4433  0.7202  0.6129  11.00000  0.05    0.39
Q17   1   1.2029 -0.2678 -0.0408  11.00000  0.05    0.38
Q18   1   1.0470 -0.2994 -0.0271  11.00000  0.05    0.36
Q19   1   0.8916 -0.0256  0.1786  11.00000  0.05    0.35
Q20   1   0.5826  0.6597  0.6145  11.00000  0.05    0.35
;
_shelx_res_checksum              74516
loop_
_symmetry_equiv_pos_as_xyz
'x, y, z'
'-x, -y, -z'
loop_
_atom_site_label
_atom_site_type_symbol
_atom_site_fract_x
_atom_site_fract_y
_atom_site_fract_z
_atom_site_U_iso_or_equiv
_atom_site_adp_type
_atom_site_occupancy
_atom_site_site_symmetry_order
_atom_site_calc_flag
_atom_site_refinement_flags_posn
_atom_site_refinement_flags_adp
_atom_site_refinement_flags_occupancy
_atom_site_disorder_assembly
_atom_site_disorder_group
I1 I 0.77300(9) 0.29471(3) 0.20867(3) 0.04812(17) Uani 1 1 d . . . . .
Cl1 Cl 0.7202(5) -0.00661(16) 0.22777(13) 0.0572(4) Uani 1 1 d . . . . .
Cl2 Cl 0.9231(5) -0.26421(15) 0.04620(14) 0.0602(4) Uani 1 1 d . . . . .
C1 C 0.9087(14) 0.1178(5) 0.0837(5) 0.0410(12) Uani 1 1 d . . . . .
C2 C 0.8750(14) -0.0018(6) 0.1019(5) 0.0401(12) Uani 1 1 d . . . . .
C3 C 0.9687(15) -0.1186(5) 0.0192(5) 0.0415(12) Uani 1 1 d . . . . .
N1A N 0.598(5) 0.5576(7) 0.3678(11) 0.052(2) Uani 0.547(17) 1 d G U P A 1
C4A C 0.441(4) 0.6005(10) 0.2884(8) 0.053(2) Uani 0.547(17) 1 d G U P A 1
H4A H 0.366506 0.53959 0.214901 0.064 Uiso 0.547(17) 1 calc R U P A 1
C5A C 0.395(4) 0.7345(11) 0.3187(9) 0.053(2) Uani 0.547(17) 1 d G U P A 1
H5A H 0.289771 0.763227 0.265601 0.063 Uiso 0.547(17) 1 calc R U P A 1
C6A C 0.506(4) 0.8256(7) 0.4285(10) 0.049(2) Uani 0.547(17) 1 d DG U P A 1
C7A C 0.663(4) 0.7827(9) 0.5079(8) 0.051(2) Uani 0.547(17) 1 d G U P A 1
H7A H 0.737507 0.843625 0.581361 0.061 Uiso 0.547(17) 1 calc R U P A 1
C8A C 0.709(4) 0.6487(11) 0.4775(10) 0.054(2) Uani 0.547(17) 1 d G U P A 1
H8A H 0.814243 0.619987 0.530663 0.064 Uiso 0.547(17) 1 calc R U P A 1
N2A N 0.446(3) 0.9622(11) 0.4526(11) 0.051(2) Uani 0.547(17) 1 d D U P A 1
N1B N 0.585(6) 0.5568(9) 0.3499(13) 0.056(2) Uani 0.453(17) 1 d G U P A 2
C4B C 0.439(5) 0.6301(13) 0.2931(10) 0.057(3) Uani 0.453(17) 1 d G U P A 2
H4B H 0.354111 0.588322 0.216416 0.068 Uiso 0.453(17) 1 calc R U P A 2
C5B C 0.421(4) 0.7659(13) 0.3509(12) 0.053(2) Uani 0.453(17) 1 d G U P A 2
H5B H 0.323369 0.814913 0.312857 0.063 Uiso 0.453(17) 1 calc R U P A 2
C6B C 0.548(4) 0.8283(8) 0.4655(12) 0.050(2) Uani 0.453(17) 1 d DG U P A 2
C7B C 0.693(5) 0.7550(13) 0.5223(9) 0.052(2) Uani 0.453(17) 1 d G U P A 2
H7B H 0.778133 0.796836 0.598948 0.062 Uiso 0.453(17) 1 calc R U P A 2
C8B C 0.712(5) 0.6193(13) 0.4645(13) 0.051(2) Uani 0.453(17) 1 d G U P A 2
H8B H 0.808878 0.570244 0.502509 0.062 Uiso 0.453(17) 1 calc R U P A 2
N2B N 0.549(4) 0.9691(13) 0.5299(12) 0.050(3) Uani 0.453(17) 1 d D U P A 2
loop_
_atom_site_aniso_label
_atom_site_aniso_U_11
_atom_site_aniso_U_22
_atom_site_aniso_U_33
_atom_site_aniso_U_23
_atom_site_aniso_U_13
_atom_site_aniso_U_12
I1 0.0479(3) 0.0383(2) 0.0463(2) 0.00176(16) 0.00138(16) 0.00551(15)
Cl1 0.0739(11) 0.0508(8) 0.0418(7) 0.0122(6) 0.0123(7) -0.0017(7)
Cl2 0.0860(12) 0.0401(7) 0.0550(9) 0.0185(7) 0.0046(8) 0.0051(7)
C1 0.039(3) 0.029(2) 0.043(3) 0.001(2) -0.003(2) 0.001(2)
C2 0.040(3) 0.043(3) 0.032(2) 0.008(2) 0.000(2) 0.002(2)
C3 0.046(3) 0.037(3) 0.039(3) 0.011(2) -0.002(2) 0.005(2)
N1A 0.071(4) 0.031(3) 0.052(4) 0.012(3) 0.003(4) 0.005(3)
C4A 0.074(4) 0.026(4) 0.057(4) 0.014(3) 0.004(4) 0.001(4)
C5A 0.074(4) 0.025(4) 0.052(4) 0.006(3) 0.006(4) 0.003(4)
C6A 0.067(4) 0.027(3) 0.049(4) 0.008(3) 0.008(4) 0.003(3)
C7A 0.069(4) 0.026(4) 0.053(4) 0.008(3) 0.009(4) 0.008(4)
C8A 0.071(4) 0.030(4) 0.056(4) 0.012(3) 0.002(4) 0.006(4)
N2A 0.070(5) 0.029(4) 0.049(5) 0.011(4) 0.000(4) 0.003(4)
N1B 0.070(4) 0.032(4) 0.055(4) 0.005(3) 0.004(4) 0.002(4)
C4B 0.074(5) 0.030(4) 0.057(4) 0.005(3) 0.003(4) 0.000(4)
C5B 0.072(5) 0.026(4) 0.053(4) 0.008(4) 0.006(4) 0.000(4)
C6B 0.066(4) 0.027(3) 0.051(4) 0.008(3) 0.006(4) 0.002(3)
C7B 0.070(5) 0.025(4) 0.057(4) 0.010(3) 0.005(4) 0.003(4)
C8B 0.068(4) 0.024(4) 0.052(4) 0.002(4) 0.005(4) 0.003(4)
N2B 0.072(5) 0.030(4) 0.043(5) 0.008(4) 0.001(4) 0.009(4)
loop_
_atom_type_symbol
_atom_type_description
_atom_type_scat_dispersion_real
_atom_type_scat_dispersion_imag
_atom_type_scat_source
C C 0.0181 0.0091 'International Tables Vol C Tables 4.2.6.8 and 6.1.1.4'
H H 0 0 'International Tables Vol C Tables 4.2.6.8 and 6.1.1.4'
Cl Cl 0.3639 0.7018 'International Tables Vol C Tables 4.2.6.8 and 6.1.1.4'
I I -0.3257 6.8362 'International Tables Vol C Tables 4.2.6.8 and 6.1.1.4'
N N 0.0311 0.018 'International Tables Vol C Tables 4.2.6.8 and 6.1.1.4'
loop_
_exptl_crystal_face_index_h
_exptl_crystal_face_index_k
_exptl_crystal_face_index_l
_exptl_crystal_face_perp_dist
0 6 1 0.0747
2 3 -2 0.0542
3 0 1 0.0594
0 -6 -1 0.0462
0 -4 8 0.0381
-3 0 -1 0.0276
0 7 -4 0.0515
0 4 -8 0.0132
1 4 4 0.062
0 -4 8 0.0339
0 0 -7 0.0283
2 4 1 0.0644
loop_
_geom_angle_atom_site_label_1
_geom_angle_atom_site_label_2
_geom_angle_atom_site_label_3
_geom_angle
_geom_angle_site_symmetry_1
C1 I1 N1B 170.3(4) .
C1 I1 N1A 174.1(3) .
C3 C1 C2 118.8(5) 2_755
C3 C1 I1 120.4(4) 2_755
C2 C1 I1 120.8(4) .
C1 C2 C3 120.6(5) .
C1 C2 Cl1 120.0(4) .
C3 C2 Cl1 119.4(4) .
C1 C3 C2 120.6(5) 2_755
C1 C3 Cl2 120.7(4) 2_755
C2 C3 Cl2 118.7(4) .
C4A N1A C8A 120 .
C4A N1A I1 100.0(6) .
C8A N1A I1 136.6(6) .
C5A C4A N1A 120 .
C5A C4A H4A 120 .
N1A C4A H4A 120 .
C4A C5A C6A 120 .
C4A C5A H5A 120 .
C6A C5A H5A 120 .
C7A C6A C5A 120 .
C7A C6A N2A 123.8(8) .
C5A C6A N2A 116.2(8) .
C8A C7A C6A 120 .
C8A C7A H7A 120 .
C6A C7A H7A 120 .
C7A C8A N1A 120 .
C7A C8A H8A 120 .
N1A C8A H8A 120 .
N2A N2A C6A 113.9(14) 2_676
C4B N1B C8B 120 .
C4B N1B I1 117.8(7) .
C8B N1B I1 120.1(8) .
N1B C4B C5B 120 .
N1B C4B H4B 120 .
C5B C4B H4B 120 .
C4B C5B C6B 120 .
C4B C5B H5B 120 .
C6B C5B H5B 120 .
C7B C6B C5B 120 .
C7B C6B N2B 116.6(11) .
C5B C6B N2B 123.4(11) .
C6B C7B C8B 120 .
C6B C7B H7B 120 .
C8B C7B H7B 120 .
C7B C8B N1B 120 .
C7B C8B H8B 120 .
N1B C8B H8B 120 .
N2B N2B C6B 113.2(16) 2_676
loop_
_geom_bond_atom_site_label_1
_geom_bond_atom_site_label_2
_geom_bond_distance
_geom_bond_site_symmetry_2
I1 C1 2.107(5) .
I1 N1B 2.920(10) .
I1 N1A 2.971(9) .
Cl1 C2 1.723(6) .
Cl2 C3 1.727(6) .
C1 C3 1.391(8) 2_755
C1 C2 1.392(8) .
C2 C3 1.399(8) .
N1A C4A 1.39 .
N1A C8A 1.39 .
C4A C5A 1.39 .
C4A H4A 0.93 .
C5A C6A 1.39 .
C5A H5A 0.93 .
C6A C7A 1.39 .
C6A N2A 1.441(11) .
C7A C8A 1.39 .
C7A H7A 0.93 .
C8A H8A 0.93 .
N2A N2A 1.20(3) 2_676
N1B C4B 1.39 .
N1B C8B 1.39 .
C4B C5B 1.39 .
C4B H4B 0.93 .
C5B C6B 1.39 .
C5B H5B 0.93 .
C6B C7B 1.39 .
C6B N2B 1.439(13) .
C7B C8B 1.39 .
C7B H7B 0.93 .
C8B H8B 0.93 .
N2B N2B 1.24(3) 2_676
