#------------------------------------------------------------------------------
#$Date: 2019-11-08 02:21:33 +0200 (Fri, 08 Nov 2019) $
#$Revision: 224736 $
#$URL: file:///home/coder/svn-repositories/cod/cif/7/05/86/7058682.cif $
#------------------------------------------------------------------------------
#
# This file is available in the Crystallography Open Database (COD),
# http://www.crystallography.net/
#
# All data on this site have been placed in the public domain by the
# contributors.
#
data_7058682
loop_
_publ_author_name
'Zhang, Jichuan'
'Yin, Ping'
'Pan, Guangxing'
'Wang, Zhenyuan'
'Zhang, Jiaheng'
'Mitchell, Lauren A.'
'Parrish, Damon A.'
'Shreeve, Jean&#x2019;ne M.'
_publ_section_title
;
 5-(4-Azidofurazan-3-yl)-1-hydroxytetrazole and its derivatives: from
 green primary to secondary explosives
;
_journal_issue                   32
_journal_name_full               'New Journal of Chemistry'
_journal_page_first              12684
_journal_paper_doi               10.1039/C9NJ03306H
_journal_volume                  43
_journal_year                    2019
_chemical_formula_moiety         'C3 N9 O2, H4 N O'
_chemical_formula_sum            'C3 H4 N10 O3'
_chemical_formula_weight         228.16
_space_group_crystal_system      monoclinic
_space_group_IT_number           14
_space_group_name_Hall           '-P 2ybc'
_space_group_name_H-M_alt        'P 1 21/c 1'
_symmetry_space_group_name_Hall  '-P 2ybc'
_symmetry_space_group_name_H-M   'P 1 21/c 1'
_atom_sites_solution_hydrogens   difmap
_audit_creation_method           SHELXL-2014/7
_audit_update_record
;
2019-07-15 deposited with the CCDC.    2019-07-19 downloaded from the CCDC.
;
_cell_angle_alpha                90
_cell_angle_beta                 103.803(2)
_cell_angle_gamma                90
_cell_formula_units_Z            4
_cell_length_a                   12.1410(6)
_cell_length_b                   4.7291(2)
_cell_length_c                   15.1338(8)
_cell_measurement_reflns_used    4607
_cell_measurement_temperature    150(2)
_cell_measurement_theta_max      27.58
_cell_measurement_theta_min      2.77
_cell_volume                     843.83(7)
_computing_cell_refinement       'Bruker APEX3 v2015.5-2 (Bruker, 2015)'
_computing_data_collection       'Bruker APEX3 v2015.5-2 (Bruker, 2015)'
_computing_data_reduction
;
Bruker SAINT v8.34A (Bruker, 2013), Bruker XPREP v2014/2 (Bruker, 2014)
;
_computing_molecular_graphics    'Bruker SHELXTL v2014/7 (Bruker, 2014)'
_computing_publication_material  'Bruker SHELXTL v2014/7 (Bruker, 2014)'
_computing_structure_refinement
'SHELXL-2014/7 (Sheldrick, 2014) within WINGX (Farrugia, 2012)'
_computing_structure_solution    'Bruker SHELXTL v2014/7 (Bruker, 2014)'
_diffrn_ambient_temperature      150(2)
_diffrn_measured_fraction_theta_full 0.997
_diffrn_measured_fraction_theta_max 0.995
_diffrn_measurement_device_type  'Bruker SMART APEX II CCD'
_diffrn_measurement_method       '\w scans'
_diffrn_radiation_monochromator  graphite
_diffrn_radiation_source         'fine focus sealed tube'
_diffrn_radiation_type           MoK\a
_diffrn_radiation_wavelength     0.71073
_diffrn_reflns_av_R_equivalents  0.0195
_diffrn_reflns_av_unetI/netI     0.0155
_diffrn_reflns_Laue_measured_fraction_full 0.997
_diffrn_reflns_Laue_measured_fraction_max 0.995
_diffrn_reflns_limit_h_max       15
_diffrn_reflns_limit_h_min       -15
_diffrn_reflns_limit_k_max       6
_diffrn_reflns_limit_k_min       -5
_diffrn_reflns_limit_l_max       19
_diffrn_reflns_limit_l_min       -19
_diffrn_reflns_number            8170
_diffrn_reflns_point_group_measured_fraction_full 0.997
_diffrn_reflns_point_group_measured_fraction_max 0.995
_diffrn_reflns_theta_full        25.242
_diffrn_reflns_theta_max         27.585
_diffrn_reflns_theta_min         2.772
_exptl_absorpt_coefficient_mu    0.157
_exptl_absorpt_correction_T_max  0.7456
_exptl_absorpt_correction_T_min  0.7065
_exptl_absorpt_correction_type   multi-scan
_exptl_absorpt_process_details   'SADABS v2014/5 (Bruker, 2008)'
_exptl_crystal_colour            colourless
_exptl_crystal_density_diffrn    1.796
_exptl_crystal_description       needle
_exptl_crystal_F_000             464
_exptl_crystal_size_max          0.687
_exptl_crystal_size_mid          0.135
_exptl_crystal_size_min          0.128
_refine_diff_density_max         0.274
_refine_diff_density_min         -0.236
_refine_diff_density_rms         0.053
_refine_ls_extinction_method     none
_refine_ls_goodness_of_fit_ref   1.088
_refine_ls_hydrogen_treatment    refxyz
_refine_ls_matrix_type           full
_refine_ls_number_parameters     157
_refine_ls_number_reflns         1936
_refine_ls_number_restraints     0
_refine_ls_restrained_S_all      1.088
_refine_ls_R_factor_all          0.0350
_refine_ls_R_factor_gt           0.0326
_refine_ls_shift/su_max          0.000
_refine_ls_shift/su_mean         0.000
_refine_ls_structure_factor_coef Fsqd
_refine_ls_weighting_details
'w=1/[\s^2^(Fo^2^)+(0.0395P)^2^+0.4795P] where P=(Fo^2^+2Fc^2^)/3'
_refine_ls_weighting_scheme      calc
_refine_ls_wR_factor_gt          0.0845
_refine_ls_wR_factor_ref         0.0863
_reflns_Friedel_coverage         0.000
_reflns_number_gt                1804
_reflns_number_total             1936
_reflns_threshold_expression     'I > 2\s(I)'
_cod_data_source_file            c9nj03306h2.cif
_cod_data_source_block           shrv353
_cod_depositor_comments
'Adding full bibliography for 7058680--7058683.cif.'
_cod_database_code               7058682
_shelx_shelxl_version_number     2014/7
_shelx_space_group_comment
;
The symmetry employed for this shelxl refinement is uniquely defined
by the following loop, which should always be used as a source of
symmetry information in preference to the above space-group names.
They are only intended as comments.
;
_shelx_estimated_absorpt_t_min   0.900
_shelx_estimated_absorpt_t_max   0.980
_shelx_res_file
;

    shelx.res created by SHELXL-2014/7


TITL shrv353 in P2(1)/c
CELL  0.71073  12.1410   4.7291  15.1338   90.000  103.803   90.000
ZERR     4.00   0.0006   0.0002   0.0008    0.000    0.002    0.000
LATT   1
SYMM  - X, 1/2 + Y, 1/2 - Z
SFAC  C    H    N    O
UNIT  12 16 40 12
MERG   2
OMIT     1   0   0
FMAP   2
PLAN   20
SIZE     0.128   0.135   0.687
EQIV $1 x, -y+1/2, z-1/2
EQIV $2 x, y+1, z
EQIV $3 -x, -y, -z+1
HTAB N1S O1
HTAB N1S N5_$1
HTAB N1S O1_$2
HTAB N1S N2_$2
HTAB N1S N3_$2
HTAB O2S N4_$3
ACTA
BOND   $H
CONF
LIST   4
WPDB  -2
L.S.  10
TEMP  -123.00
WGHT    0.039500    0.479500
FVAR       0.24261
O1    4    0.182583    0.019017    0.404419    11.00000    0.02624    0.01780 =
         0.00977    0.00083    0.00747   -0.00163
N2    3    0.161471   -0.037280    0.483575    11.00000    0.01569    0.01267 =
         0.01152    0.00064    0.00388    0.00070
N3    3    0.088352   -0.241021    0.493134    11.00000    0.01840    0.01454 =
         0.01601    0.00037    0.00483   -0.00193
N4    3    0.088468   -0.243219    0.579944    11.00000    0.01760    0.01627 =
         0.01512    0.00084    0.00469   -0.00129
N5    3    0.159108   -0.047813    0.626711    11.00000    0.01625    0.01655 =
         0.01420    0.00085    0.00398   -0.00049
C6    1    0.205301    0.079911    0.565792    11.00000    0.01388    0.01406 =
         0.01126    0.00053    0.00287    0.00208
C7    1    0.290834    0.299526    0.584869    11.00000    0.01415    0.01491 =
         0.01398    0.00131    0.00297    0.00193
N8    3    0.332549    0.420424    0.522271    11.00000    0.01940    0.02093 =
         0.01931    0.00108    0.00385   -0.00564
O9    4    0.410484    0.614275    0.567495    11.00000    0.02350    0.02492 =
         0.02202    0.00130    0.00542   -0.00949
N10   3    0.416635    0.612448    0.660426    11.00000    0.01953    0.02271 =
         0.02103   -0.00225    0.00430   -0.00346
C11   1    0.343535    0.421332    0.671403    11.00000    0.01346    0.01790 =
         0.01788   -0.00176    0.00305    0.00103
N12   3    0.318128    0.349671    0.753679    11.00000    0.01990    0.02898 =
         0.01492   -0.00616    0.00363   -0.00711
N13   3    0.376077    0.491919    0.819685    11.00000    0.01670    0.02793 =
         0.01924   -0.00519    0.00551   -0.00101
N14   3    0.420746    0.601747    0.883586    11.00000    0.02676    0.04144 =
         0.02422   -0.01389    0.00599   -0.00510
N1S   3    0.109180    0.517154    0.310651    11.00000    0.02380    0.01379 =
         0.01336   -0.00026    0.00717   -0.00115
H1S   2    0.135455    0.366590    0.342600    11.00000   -1.20000
H2S   2    0.122894    0.508330    0.253004    11.00000   -1.20000
H3S   2    0.143405    0.673716    0.338765    11.00000   -1.20000
O2S   4   -0.010767    0.539869    0.297536    11.00000    0.02300    0.02494 =
         0.01677    0.00337    0.00546   -0.00002
H4S   2   -0.023679    0.467010    0.351192    11.00000   -1.50000
HKLF    4  1.0  1.00  0.00  0.00  0.00  1.00  0.00  0.00  0.00  1.00

REM  shrv353 in P2(1)/c
REM R1 =  0.0326 for    1804 Fo > 4sig(Fo)  and  0.0350 for all    1936 data
REM    157 parameters refined using      0 restraints

END

WGHT      0.0370      0.4824

REM Highest difference peak  0.274,  deepest hole -0.236,  1-sigma level  0.053
Q1    1   0.2475  0.2011  0.5746  11.00000  0.05    0.27
Q2    1   0.2978  0.3655  0.6282  11.00000  0.05    0.26
Q3    1   0.0169  0.3688  0.2802  11.00000  0.05    0.23
Q4    1   0.1995  0.0068  0.5267  11.00000  0.05    0.22
Q5    1   0.0342 -0.3053  0.6031  11.00000  0.05    0.21
Q6    1   0.1980 -0.0101  0.5998  11.00000  0.05    0.18
Q7    1   0.3259  0.3057  0.5584  11.00000  0.05    0.18
Q8    1   0.2945  0.3815  0.5579  11.00000  0.05    0.18
Q9    1   0.4672  0.6715  0.7032  11.00000  0.05    0.15
Q10   1   0.1841 -0.0264  0.6784  11.00000  0.05    0.14
Q11   1   0.2503 -0.0261  0.4227  11.00000  0.05    0.13
Q12   1   0.3216  0.4168  0.7072  11.00000  0.05    0.13
Q13   1   0.1187 -0.0346  0.3671  11.00000  0.05    0.13
Q14   1   0.2463  0.4099  0.7449  11.00000  0.05    0.13
Q15   1   0.4001  0.4543  0.6757  11.00000  0.05    0.13
Q16   1   0.0250 -0.2532  0.4617  11.00000  0.05    0.13
Q17   1   0.2942  0.4441  0.4750  11.00000  0.05    0.13
Q18   1   0.0399  0.0406  0.3789  11.00000  0.05    0.12
Q19   1   0.1789  0.2322  0.3884  11.00000  0.05    0.12
Q20   1   0.0213  0.2381  0.3400  11.00000  0.05    0.12
;
_shelx_res_checksum              62650
loop_
_space_group_symop_operation_xyz
'x, y, z'
'-x, y+1/2, -z+1/2'
'-x, -y, -z'
'x, -y-1/2, z-1/2'
loop_
_atom_site_label
_atom_site_type_symbol
_atom_site_fract_x
_atom_site_fract_y
_atom_site_fract_z
_atom_site_U_iso_or_equiv
_atom_site_adp_type
_atom_site_occupancy
_atom_site_site_symmetry_order
_atom_site_calc_flag
_atom_site_refinement_flags_adp
O1 O 0.18258(8) 0.01902(19) 0.40442(6) 0.0174(2) Uani 1 1 d .
N2 N 0.16147(8) -0.0373(2) 0.48357(7) 0.0132(2) Uani 1 1 d .
N3 N 0.08835(9) -0.2410(2) 0.49313(7) 0.0162(2) Uani 1 1 d .
N4 N 0.08847(9) -0.2432(2) 0.57994(7) 0.0162(2) Uani 1 1 d .
N5 N 0.15911(9) -0.0478(2) 0.62671(7) 0.0156(2) Uani 1 1 d .
C6 C 0.20530(10) 0.0799(3) 0.56579(8) 0.0131(2) Uani 1 1 d .
C7 C 0.29083(10) 0.2995(3) 0.58487(8) 0.0144(2) Uani 1 1 d .
N8 N 0.33255(9) 0.4204(2) 0.52227(7) 0.0200(2) Uani 1 1 d .
O9 O 0.41048(8) 0.6143(2) 0.56750(6) 0.0235(2) Uani 1 1 d .
N10 N 0.41664(9) 0.6124(3) 0.66043(7) 0.0212(3) Uani 1 1 d .
C11 C 0.34354(10) 0.4213(3) 0.67140(8) 0.0165(3) Uani 1 1 d .
N12 N 0.31813(9) 0.3497(3) 0.75368(7) 0.0214(3) Uani 1 1 d .
N13 N 0.37608(9) 0.4919(3) 0.81969(7) 0.0211(3) Uani 1 1 d .
N14 N 0.42075(11) 0.6017(3) 0.88359(8) 0.0308(3) Uani 1 1 d .
N1S N 0.10918(9) 0.5172(2) 0.31065(7) 0.0165(2) Uani 1 1 d .
H1S H 0.1355(14) 0.367(4) 0.3426(11) 0.020 Uiso 1 1 d U
H2S H 0.1229(13) 0.508(4) 0.2530(11) 0.020 Uiso 1 1 d U
H3S H 0.1434(14) 0.674(4) 0.3388(11) 0.020 Uiso 1 1 d U
O2S O -0.01077(8) 0.5399(2) 0.29754(6) 0.0214(2) Uani 1 1 d .
H4S H -0.0237(15) 0.467(4) 0.3512(13) 0.032 Uiso 1 1 d U
loop_
_atom_site_aniso_label
_atom_site_aniso_U_11
_atom_site_aniso_U_22
_atom_site_aniso_U_33
_atom_site_aniso_U_23
_atom_site_aniso_U_13
_atom_site_aniso_U_12
O1 0.0262(5) 0.0178(5) 0.0098(4) 0.0008(3) 0.0075(3) -0.0016(4)
N2 0.0157(5) 0.0127(5) 0.0115(5) 0.0006(4) 0.0039(4) 0.0007(4)
N3 0.0184(5) 0.0145(5) 0.0160(5) 0.0004(4) 0.0048(4) -0.0019(4)
N4 0.0176(5) 0.0163(5) 0.0151(5) 0.0008(4) 0.0047(4) -0.0013(4)
N5 0.0162(5) 0.0165(5) 0.0142(5) 0.0008(4) 0.0040(4) -0.0005(4)
C6 0.0139(5) 0.0141(6) 0.0113(5) 0.0005(4) 0.0029(4) 0.0021(4)
C7 0.0142(5) 0.0149(6) 0.0140(5) 0.0013(4) 0.0030(4) 0.0019(4)
N8 0.0194(5) 0.0209(6) 0.0193(5) 0.0011(4) 0.0039(4) -0.0056(4)
O9 0.0235(5) 0.0249(5) 0.0220(5) 0.0013(4) 0.0054(4) -0.0095(4)
N10 0.0195(5) 0.0227(6) 0.0210(5) -0.0022(4) 0.0043(4) -0.0035(4)
C11 0.0135(5) 0.0179(6) 0.0179(6) -0.0018(5) 0.0030(4) 0.0010(4)
N12 0.0199(5) 0.0290(6) 0.0149(5) -0.0062(4) 0.0036(4) -0.0071(5)
N13 0.0167(5) 0.0279(6) 0.0192(5) -0.0052(5) 0.0055(4) -0.0010(5)
N14 0.0268(6) 0.0414(8) 0.0242(6) -0.0139(6) 0.0060(5) -0.0051(6)
N1S 0.0238(6) 0.0138(5) 0.0134(5) -0.0003(4) 0.0072(4) -0.0012(4)
O2S 0.0230(5) 0.0249(5) 0.0168(4) 0.0034(4) 0.0055(4) 0.0000(4)
loop_
_atom_type_symbol
_atom_type_description
_atom_type_scat_dispersion_real
_atom_type_scat_dispersion_imag
_atom_type_scat_source
C C 0.0033 0.0016 'International Tables Vol C Tables 4.2.6.8 and 6.1.1.4'
H H 0.0000 0.0000 'International Tables Vol C Tables 4.2.6.8 and 6.1.1.4'
N N 0.0061 0.0033 'International Tables Vol C Tables 4.2.6.8 and 6.1.1.4'
O O 0.0106 0.0060 'International Tables Vol C Tables 4.2.6.8 and 6.1.1.4'
loop_
_geom_angle_atom_site_label_1
_geom_angle_atom_site_label_2
_geom_angle_atom_site_label_3
_geom_angle
O1 N2 N3 121.55(10)
O1 N2 C6 129.71(11)
N3 N2 C6 108.72(10)
N4 N3 N2 105.71(10)
N3 N4 N5 111.72(10)
C6 N5 N4 105.59(10)
N5 C6 N2 108.25(11)
N5 C6 C7 125.96(11)
N2 C6 C7 125.76(11)
N8 C7 C11 108.69(11)
N8 C7 C6 123.53(11)
C11 C7 C6 127.78(11)
C7 N8 O9 105.67(10)
N8 O9 N10 111.31(9)
C11 N10 O9 105.01(10)
N10 C11 N12 125.75(12)
N10 C11 C7 109.32(11)
N12 C11 C7 124.92(12)
N13 N12 C11 112.02(11)
N14 N13 N12 172.36(14)
O2S N1S H1S 111.3(11)
O2S N1S H2S 106.2(10)
H1S N1S H2S 111.0(14)
O2S N1S H3S 110.1(10)
H1S N1S H3S 109.9(14)
H2S N1S H3S 108.3(14)
N1S O2S H4S 103.3(11)
loop_
_geom_bond_atom_site_label_1
_geom_bond_atom_site_label_2
_geom_bond_distance
O1 N2 1.3108(12)
N2 N3 1.3411(15)
N2 C6 1.3500(15)
N3 N4 1.3135(14)
N4 N5 1.3419(15)
N5 C6 1.3327(15)
C6 C7 1.4482(17)
C7 N8 1.3076(16)
C7 C11 1.4340(16)
N8 O9 1.3766(14)
O9 N10 1.3905(14)
N10 C11 1.3048(18)
C11 N12 1.3942(16)
N12 N13 1.2689(15)
N13 N14 1.1175(16)
N1S O2S 1.4261(14)
N1S H1S 0.877(18)
N1S H2S 0.927(17)
N1S H3S 0.904(18)
O2S H4S 0.929(19)
loop_
_geom_hbond_atom_site_label_D
_geom_hbond_atom_site_label_H
_geom_hbond_atom_site_label_A
_geom_hbond_distance_DH
_geom_hbond_distance_HA
_geom_hbond_distance_DA
_geom_hbond_angle_DHA
_geom_hbond_site_symmetry_A
N1S H1S O1 0.877(18) 1.910(19) 2.7846(15) 174.8(16) .
N1S H2S N5 0.927(17) 2.069(17) 2.9904(14) 172.0(15) 4_565
N1S H3S O1 0.904(18) 1.912(19) 2.7995(14) 166.8(15) 1_565
N1S H3S N2 0.904(18) 2.547(17) 3.3014(15) 141.2(13) 1_565
N1S H3S N3 0.904(18) 2.610(16) 3.0548(15) 111.1(12) 1_565
O2S H4S N4 0.929(19) 1.793(19) 2.6703(14) 156.3(17) 3_556
loop_
_geom_torsion_atom_site_label_1
_geom_torsion_atom_site_label_2
_geom_torsion_atom_site_label_3
_geom_torsion_atom_site_label_4
_geom_torsion
O1 N2 N3 N4 179.23(10)
C6 N2 N3 N4 0.34(13)
N2 N3 N4 N5 0.03(13)
N3 N4 N5 C6 -0.38(13)
N4 N5 C6 N2 0.58(13)
N4 N5 C6 C7 -177.37(11)
O1 N2 C6 N5 -179.36(11)
N3 N2 C6 N5 -0.58(13)
O1 N2 C6 C7 -1.4(2)
N3 N2 C6 C7 177.37(11)
N5 C6 C7 N8 -179.21(12)
N2 C6 C7 N8 3.2(2)
N5 C6 C7 C11 0.7(2)
N2 C6 C7 C11 -176.95(12)
C11 C7 N8 O9 0.25(14)
C6 C7 N8 O9 -179.87(11)
C7 N8 O9 N10 -0.08(14)
N8 O9 N10 C11 -0.14(14)
O9 N10 C11 N12 -178.37(12)
O9 N10 C11 C7 0.29(14)
N8 C7 C11 N10 -0.35(15)
C6 C7 C11 N10 179.77(12)
N8 C7 C11 N12 178.32(12)
C6 C7 C11 N12 -1.6(2)
N10 C11 N12 N13 -0.68(19)
C7 C11 N12 N13 -179.14(12)
