#------------------------------------------------------------------------------
#$Date: 2019-10-29 06:15:30 +0200 (Tue, 29 Oct 2019) $
#$Revision: 220351 $
#$URL: file:///home/coder/svn-repositories/cod/cif/7/05/89/7058932.cif $
#------------------------------------------------------------------------------
#
# This file is available in the Crystallography Open Database (COD),
# http://www.crystallography.net/
#
# All data on this site have been placed in the public domain by the
# contributors.
#
data_7058932
loop_
_publ_author_name
'Juneja, Navkiran Kaur'
'Unruh, Daniel K.'
'Bosch, Eric'
'Groeneman , Ryan'
'Hutchins, Kristin M.'
_publ_section_title
;
 Effects of dynamic pedal motion and static disorder on thermal expansion
 within halogen bonded co-crystals
;
_journal_name_full               'New Journal of Chemistry'
_journal_paper_doi               10.1039/C9NJ04833B
_journal_year                    2019
_chemical_formula_sum            'C18 H10 Cl4 I2 N2'
_chemical_formula_weight         649.88
_space_group_IT_number           2
_space_group_name_Hall           '-P 1'
_space_group_name_H-M_alt        'P -1'
_symmetry_cell_setting           triclinic
_symmetry_Int_Tables_number      2
_symmetry_space_group_name_Hall  '-P 1'
_symmetry_space_group_name_H-M   'P -1'
_atom_sites_solution_hydrogens   geom
_atom_sites_solution_primary     dual
_atom_sites_solution_secondary   difmap
_audit_creation_date             2019-09-06T14:52:41-00:00
_audit_creation_method           'WinGX routine CIF_UPDATE'
_audit_update_record
;
2019-09-20 deposited with the CCDC.    2019-10-28 downloaded from the CCDC.
;
_cell_angle_alpha                110.9256(12)
_cell_angle_beta                 92.4643(12)
_cell_angle_gamma                95.0316(12)
_cell_formula_units_Z            1
_cell_length_a                   4.08394(6)
_cell_length_b                   10.93443(15)
_cell_length_c                   12.37987(14)
_cell_measurement_reflns_used    11298
_cell_measurement_temperature    290(2)
_cell_measurement_theta_max      76.844
_cell_measurement_theta_min      3.821
_cell_volume                     512.735(13)
_computing_cell_refinement       'CrysAlisPro 1.171.40.57a (Rigaku OD, 2019)'
_computing_data_collection       'CrysAlisPro 1.171.40.57a (Rigaku OD, 2019)'
_computing_data_reduction        'CrysAlisPro 1.171.40.57a (Rigaku OD, 2019)'
_computing_structure_refinement  'SHELXL-2018/3 (Sheldrick, 2018)'
_computing_structure_solution    'SHELXT 2014/5 (Sheldrick, 2014)'
_diffrn_ambient_environment      air
_diffrn_ambient_temperature      290(2)
_diffrn_detector                 'Hybrid Pixel Array Detector'
_diffrn_detector_area_resol_mean 10
_diffrn_detector_type            HyPix
_diffrn_measured_fraction_theta_full 0.84
_diffrn_measured_fraction_theta_max 0.753
_diffrn_measurement_device       'four-circle diffractometer'
_diffrn_measurement_device_type  'XtaLAB Synergy, Dualflex, HyPix'
_diffrn_measurement_method       '\w scans'
_diffrn_orient_matrix_type
'CrysAlisPro convention (1999,Acta A55,543-557)'
_diffrn_orient_matrix_UB_11      -0.0152783
_diffrn_orient_matrix_UB_12      -0.0109926
_diffrn_orient_matrix_UB_13      -0.1277328
_diffrn_orient_matrix_UB_21      0.0302422
_diffrn_orient_matrix_UB_22      0.1513085
_diffrn_orient_matrix_UB_23      0.0392697
_diffrn_orient_matrix_UB_31      0.3783835
_diffrn_orient_matrix_UB_32      0.0042915
_diffrn_orient_matrix_UB_33      0.0024226
_diffrn_radiation_monochromator  mirror
_diffrn_radiation_probe          x-ray
_diffrn_radiation_type           CuK\a
_diffrn_radiation_wavelength     1.54178
_diffrn_reflns_av_R_equivalents  0.0597
_diffrn_reflns_av_unetI/netI     0.0605
_diffrn_reflns_Laue_measured_fraction_full 0.84
_diffrn_reflns_Laue_measured_fraction_max 0.753
_diffrn_reflns_limit_h_max       4
_diffrn_reflns_limit_h_min       -4
_diffrn_reflns_limit_k_max       13
_diffrn_reflns_limit_k_min       -13
_diffrn_reflns_limit_l_max       14
_diffrn_reflns_limit_l_min       -14
_diffrn_reflns_number            11096
_diffrn_reflns_point_group_measured_fraction_full 0.84
_diffrn_reflns_point_group_measured_fraction_max 0.753
_diffrn_reflns_theta_full        67.679
_diffrn_reflns_theta_max         75.679
_diffrn_reflns_theta_min         3.835
_diffrn_source                   'micro-focus sealed X-ray tube'
_diffrn_source_type              'PhotonJet (Cu) X-ray Source'
_exptl_absorpt_coefficient_mu    28.929
_exptl_absorpt_correction_T_max  0.449
_exptl_absorpt_correction_T_min  0.136
_exptl_absorpt_correction_type   gaussian
_exptl_absorpt_process_details
;
        CrysAlisPro 1.171.40.57a (Rigaku Oxford Diffraction, 2019)
Numerical absorption correction based on gaussian integration over
                        a multifaceted crystal model
        Empirical absorption correction using spherical harmonics,
 implemented in SCALE3 ABSPACK scaling algorithm.
;
_exptl_crystal_colour            'clear colourless'
_exptl_crystal_density_diffrn    2.105
_exptl_crystal_description       block
_exptl_crystal_F_000             306
_exptl_crystal_size_max          0.12
_exptl_crystal_size_mid          0.086
_exptl_crystal_size_min          0.048
_refine_diff_density_max         0.65
_refine_diff_density_min         -0.994
_refine_diff_density_rms         0.099
_refine_ls_extinction_coef       0.0033(4)
_refine_ls_extinction_expression Fc^*^=kFc[1+0.001xFc^2^\l^3^/sin(2\q)]^-1/4^
_refine_ls_extinction_method     'SHELXL-2018/3 (Sheldrick 2018)'
_refine_ls_goodness_of_fit_ref   1.061
_refine_ls_hydrogen_treatment    constr
_refine_ls_matrix_type           full
_refine_ls_number_parameters     172
_refine_ls_number_reflns         1600
_refine_ls_number_restraints     343
_refine_ls_restrained_S_all      0.96
_refine_ls_R_factor_all          0.0303
_refine_ls_R_factor_gt           0.0287
_refine_ls_shift/su_max          0.001
_refine_ls_shift/su_mean         0
_refine_ls_structure_factor_coef Fsqd
_refine_ls_weighting_details
'w=1/[\s^2^(Fo^2^)+(0.0520P)^2^+0.1916P] where P=(Fo^2^+2Fc^2^)/3'
_refine_ls_weighting_scheme      calc
_refine_ls_wR_factor_gt          0.0749
_refine_ls_wR_factor_ref         0.077
_reflns_Friedel_coverage         0
_reflns_number_gt                1507
_reflns_number_total             1600
_reflns_threshold_expression     'I > 2\s(I)'
_cod_data_source_file            c9nj04833b2.cif
_cod_data_source_block           hut19_49_290
_cod_original_cell_volume        512.734(13)
_cod_database_code               7058932
_shelx_estimated_absorpt_t_min   0.129
_shelx_estimated_absorpt_t_max   0.337
_shelx_shelxl_version_number     2018/3
_shelx_res_file
;
TITL 290_a.res in P-1
    290_a.res
    created by SHELXL-2018/3 at 14:34:31 on 06-Sep-2019
REM Old TITL 290 in P1

REM SHELXT solution in P-1
REM R1 0.133,  Rweak 0.010,  Alpha 0.045,  Orientation as input
REM Formula found by SHELXT:  C9 N O2 I

CELL  1.54178   4.083941  10.934430  12.379869   110.9256    92.4643    95.0316
ZERR    1.000   0.000061   0.000149   0.000145     0.0012     0.0012     0.0012
LATT  1
SFAC C H CL I N
UNIT 18 10 4 2 2
TEMP 17.2
SIZE 0.120 0.086 0.048
L.S. 10
BOND $H
ACTA
LIST 4
FMAP 2
PLAN 50

BIND I1 N1A
BIND I1 N1B

RIGU
SIMU 0.01 N1A N1B C4A C4B C5A C5B C6A C6B C7A C7B C8A C8B C9A C9B

DFIX 31 C6A C9A C6B C9B

WGHT    0.052000    0.191600
EXTI    0.003327
FVAR       0.60348   0.87315   1.47883
I1    4    0.714605    0.710861    0.288916    11.00000    0.04289    0.04297 =
         0.04407    0.00532    0.00461    0.00878
CL1   3    0.416736    0.735896    0.543058    11.00000    0.08204    0.04302 =
         0.05582    0.02392    0.00857    0.00787
CL2   3    0.234957    0.988677    0.728046    11.00000    0.06512    0.05887 =
         0.04113    0.01893    0.01513    0.00451
C1    1    0.587582    0.883781    0.415270    11.00000    0.03417    0.04442 =
         0.03904    0.01259    0.00150    0.00659
C2    1    0.466082    0.882015    0.517956    11.00000    0.03884    0.03397 =
         0.03800    0.01400   -0.00099    0.00194
C3    1    0.379968    0.995555    0.600855    11.00000    0.03488    0.04488 =
         0.03289    0.01434    0.00085    0.00190
PART  1
N1A   5    0.885083    0.453459    0.141630    21.00000    0.06110    0.03459 =
         0.05570    0.01208    0.00507    0.00990
C4A   1    1.041984    0.407781    0.214651    21.00000    0.06527    0.03477 =
         0.05290    0.01255    0.00440    0.00686
AFIX  43
H4A   2    1.109262    0.466225    0.289386    21.00000   -1.20000
AFIX   0
C5A   1    1.108423    0.278951    0.184639    21.00000    0.06218    0.03508 =
         0.04768    0.01261    0.00146    0.00331
AFIX  43
H5A   2    1.221081    0.252556    0.238010    21.00000   -1.20000
AFIX   0
C6A   1    1.007082    0.189240    0.075041    21.00000    0.04755    0.03469 =
         0.04323    0.01438    0.01018    0.00597
C7A   1    0.844888    0.236273    0.000100    21.00000    0.05736    0.03593 =
         0.04430    0.01016    0.00807    0.00846
AFIX  43
H7A   2    0.771010    0.179583   -0.074641    21.00000   -1.20000
AFIX   0
C8A   1    0.792337    0.368264    0.036508    21.00000    0.05912    0.03937 =
         0.05583    0.01277    0.00463    0.01412
AFIX  43
H8A   2    0.686427    0.397929   -0.015945    21.00000   -1.20000
AFIX   0
C9A   1    1.072260    0.050742    0.043599    21.00000    0.04987    0.03926 =
         0.04326    0.01697    0.00780    0.00993
AFIX  43
H9A   2    1.232310    0.033600    0.090421    21.00000   -1.20000
AFIX  66
PART  2
N1B   5    0.935162    0.452642    0.163247   -21.00000    0.06017    0.03534 =
         0.05311    0.01212    0.00426    0.00995
C4B   1    1.082167    0.373327    0.212956   -21.00000    0.06118    0.03526 =
         0.05105    0.01254    0.00202    0.00727
AFIX  43
H4B   2    1.185418    0.410146    0.287606   -21.00000   -1.20000
AFIX  65
C5B   1    1.074852    0.238981    0.151092   -21.00000    0.05858    0.03356 =
         0.04741    0.01441    0.00613    0.00633
AFIX  43
H5B   2    1.173209    0.185914    0.184351   -21.00000   -1.20000
AFIX  65
C6B   1    0.920531    0.183950    0.039518   -21.00000    0.05374    0.03443 =
         0.04426    0.01427    0.00822    0.00672
C7B   1    0.773524    0.263264   -0.010192   -21.00000    0.05407    0.03557 =
         0.04692    0.01415    0.00726    0.01006
AFIX  43
H7B   2    0.670274    0.226444   -0.084842   -21.00000   -1.20000
AFIX  65
C8B   1    0.780837    0.397610    0.051672   -21.00000    0.05873    0.03530 =
         0.05238    0.01246    0.00607    0.01167
AFIX  43
H8B   2    0.682480    0.450676    0.018412   -21.00000   -1.20000
AFIX   0
C9B   1    0.924711    0.039153   -0.012728   -21.00000    0.05013    0.03484 =
         0.04265    0.01571    0.00720    0.00704
AFIX  43
H9B   2    0.781579   -0.000170   -0.079158   -21.00000   -1.20000
AFIX   0
HKLF 4




REM  290_a.res in P-1
REM wR2 = 0.076997, GooF = S = 1.06069, Restrained GooF = 0.96035 for all data
REM R1 = 0.028678 for 1507 Fo > 4sig(Fo) and 0.030349 for all 1600 data
REM 172 parameters refined using 343 restraints

END

WGHT      0.0520      0.1916

REM Highest difference peak  0.650,  deepest hole -0.994,  1-sigma level  0.099
Q1    1   0.8648  0.7231  0.3567  11.00000  0.05    0.65
Q2    1   0.8399  0.6804  0.2260  11.00000  0.05    0.63
Q3    1   0.5512  0.7032  0.2189  11.00000  0.05    0.56
Q4    1   0.6012  0.7566  0.3598  11.00000  0.05    0.52
Q5    1   0.6468  0.5806  0.2665  11.00000  0.05    0.38
Q6    1   0.7235  0.8025  0.3017  11.00000  0.05    0.36
Q7    1   0.9157  0.7383  0.4597  11.00000  0.05    0.35
Q8    1   0.4925  0.8585  0.3422  11.00000  0.05    0.34
Q9    1  -0.0174  1.1044  0.7607  11.00000  0.05    0.32
Q10   1   0.4926  0.5766  0.2236  11.00000  0.05    0.31
Q11   1   0.9072  0.5533  0.2386  11.00000  0.05    0.28
Q12   1   0.9070  0.8492  0.3398  11.00000  0.05    0.27
Q13   1   1.4859  0.0477  0.1174  11.00000  0.05    0.27
Q14   1   0.1826  0.7472  0.4743  11.00000  0.05    0.27
Q15   1   1.4189  0.5108  0.3422  11.00000  0.05    0.25
Q16   1   1.1841  0.4292  0.3387  11.00000  0.05    0.25
Q17   1   0.5007  0.3232 -0.1152  11.00000  0.05    0.24
Q18   1   0.0421  1.0754  0.8199  11.00000  0.05    0.24
Q19   1   0.4094  0.9071  0.3594  11.00000  0.05    0.23
Q20   1   0.5166  0.6161  0.2976  11.00000  0.05    0.23
Q21   1   0.4688  1.0988  0.7863  11.00000  0.05    0.22
Q22   1   1.4133  0.2129  0.2880  11.00000  0.05    0.22
Q23   1   0.7121  0.5932  0.3618  11.00000  0.05    0.22
Q24   1   0.8698  0.5034  0.3302  11.00000  0.05    0.22
Q25   1  -0.0015  0.8650  0.6663  11.00000  0.05    0.21
Q26   1   1.1100  0.4935  0.3708  11.00000  0.05    0.21
Q27   1   0.3223  0.9152  0.5015  11.00000  0.05    0.21
Q28   1   0.4423  0.9231  0.7830  11.00000  0.05    0.20
Q29   1   1.3902  0.5331  0.4177  11.00000  0.05    0.20
Q30   1   0.5813  0.0496 -0.0207  11.00000  0.05    0.20
Q31   1   0.6441  0.8194  0.5483  11.00000  0.05    0.20
Q32   1   0.8124 -0.0016 -0.1323  11.00000  0.05    0.19
Q33   1   0.5627  0.8862  0.4750  11.00000  0.05    0.19
Q34   1   0.4969  0.3975 -0.0172  11.00000  0.05    0.19
Q35   1   0.9847  0.4058  0.1276  11.00000  0.05    0.19
Q36   1   1.5538  0.2406  0.2189  11.00000  0.05    0.19
Q37   1   0.9344  0.4532  0.2825  11.00000  0.05    0.19
Q38   1   0.4326  0.5868  0.5785  11.00000  0.05    0.19
Q39   1   1.3551  0.2391  0.1330  11.00000  0.05    0.19
Q40   1   0.9539  0.1800 -0.0774  11.00000  0.05    0.19
Q41   1   0.7490  1.0533  0.7006  11.00000  0.05    0.18
Q42   1   0.4897  0.7789  0.6283  11.00000  0.05    0.18
Q43   1   0.3273  0.6432  0.5336  11.00000  0.05    0.18
Q44   1   0.2826  0.6895  0.3437  11.00000  0.05    0.18
Q45   1   0.6519  0.1640 -0.1066  11.00000  0.05    0.18
Q46   1   0.7182  1.0960  0.7371  11.00000  0.05    0.18
Q47   1   0.3523  0.7147  0.4451  11.00000  0.05    0.18
Q48   1   0.2331  1.1415  0.7596  11.00000  0.05    0.18
Q49   1   1.2023  0.4070  0.0346  11.00000  0.05    0.18
Q50   1   0.3176  0.6785  0.2015  11.00000  0.05    0.17
;
_shelx_res_checksum              48945
loop_
_symmetry_equiv_pos_as_xyz
'x, y, z'
'-x, -y, -z'
loop_
_atom_site_label
_atom_site_type_symbol
_atom_site_fract_x
_atom_site_fract_y
_atom_site_fract_z
_atom_site_U_iso_or_equiv
_atom_site_adp_type
_atom_site_occupancy
_atom_site_site_symmetry_order
_atom_site_calc_flag
_atom_site_refinement_flags_posn
_atom_site_refinement_flags_adp
_atom_site_refinement_flags_occupancy
_atom_site_disorder_assembly
_atom_site_disorder_group
I1 I 0.71461(6) 0.71086(3) 0.28892(2) 0.04590(18) Uani 1 1 d . . . . .
Cl1 Cl 0.4167(4) 0.73590(12) 0.54306(12) 0.0585(3) Uani 1 1 d . . . . .
Cl2 Cl 0.2350(3) 0.98868(13) 0.72805(10) 0.0546(3) Uani 1 1 d . . . . .
C1 C 0.5876(10) 0.8838(5) 0.4153(4) 0.0398(10) Uani 1 1 d . . . . .
C2 C 0.4661(10) 0.8820(4) 0.5180(4) 0.0369(9) Uani 1 1 d . . . . .
C3 C 0.3800(10) 0.9956(4) 0.6009(4) 0.0377(9) Uani 1 1 d . . . . .
N1A N 0.885(2) 0.4535(6) 0.1416(6) 0.0513(14) Uani 0.873(13) 1 d . U P A 1
C4A C 1.0420(19) 0.4078(7) 0.2147(6) 0.0518(16) Uani 0.873(13) 1 d . U P A 1
H4A H 1.109262 0.466225 0.289386 0.062 Uiso 0.873(13) 1 calc R U P A 1
C5A C 1.1084(17) 0.2790(7) 0.1846(6) 0.0492(14) Uani 0.873(13) 1 d . U P A 1
H5A H 1.221081 0.252556 0.23801 0.059 Uiso 0.873(13) 1 calc R U P A 1
C6A C 1.0071(18) 0.1892(6) 0.0750(7) 0.0415(13) Uani 0.873(13) 1 d D U P A 1
C7A C 0.8449(19) 0.2363(7) 0.0001(6) 0.0467(14) Uani 0.873(13) 1 d . U P A 1
H7A H 0.77101 0.179583 -0.074641 0.056 Uiso 0.873(13) 1 calc R U P A 1
C8A C 0.792(2) 0.3683(7) 0.0365(7) 0.0521(14) Uani 0.873(13) 1 d . U P A 1
H8A H 0.686427 0.397929 -0.015945 0.063 Uiso 0.873(13) 1 calc R U P A 1
C9A C 1.0723(16) 0.0507(5) 0.0436(6) 0.0431(15) Uani 0.873(13) 1 d D U P A 1
H9A H 1.23231 0.0336 0.090421 0.052 Uiso 0.873(13) 1 calc R U P A 1
N1B N 0.935(13) 0.453(3) 0.163(4) 0.050(3) Uani 0.127(13) 1 d G U P A 2
C4B C 1.082(11) 0.373(5) 0.213(3) 0.050(3) Uani 0.127(13) 1 d G U P A 2
H4B H 1.185418 0.410146 0.287606 0.06 Uiso 0.127(13) 1 calc R U P A 2
C5B C 1.075(10) 0.239(4) 0.151(4) 0.046(3) Uani 0.127(13) 1 d G U P A 2
H5B H 1.173209 0.185914 0.184351 0.056 Uiso 0.127(13) 1 calc R U P A 2
C6B C 0.921(11) 0.184(3) 0.040(4) 0.044(3) Uani 0.127(13) 1 d DG U P A 2
C7B C 0.774(10) 0.263(4) -0.010(3) 0.045(3) Uani 0.127(13) 1 d G U P A 2
H7B H 0.670274 0.226444 -0.084842 0.054 Uiso 0.127(13) 1 calc R U P A 2
C8B C 0.781(12) 0.398(4) 0.052(4) 0.049(3) Uani 0.127(13) 1 d G U P A 2
H8B H 0.68248 0.450676 0.018412 0.059 Uiso 0.127(13) 1 calc R U P A 2
C9B C 0.925(12) 0.039(3) -0.013(4) 0.042(4) Uani 0.127(13) 1 d D U P A 2
H9B H 0.781579 -0.00017 -0.079158 0.05 Uiso 0.127(13) 1 calc R U P A 2
loop_
_atom_site_aniso_label
_atom_site_aniso_U_11
_atom_site_aniso_U_22
_atom_site_aniso_U_33
_atom_site_aniso_U_23
_atom_site_aniso_U_13
_atom_site_aniso_U_12
I1 0.0429(2) 0.0430(3) 0.0441(3) 0.00532(16) 0.00461(13) 0.00878(12)
Cl1 0.0820(9) 0.0430(7) 0.0558(8) 0.0239(6) 0.0086(6) 0.0079(5)
Cl2 0.0651(8) 0.0589(8) 0.0411(7) 0.0189(6) 0.0151(5) 0.0045(5)
C1 0.034(2) 0.044(3) 0.039(2) 0.013(2) 0.0015(16) 0.0066(17)
C2 0.039(2) 0.034(2) 0.038(2) 0.0140(19) -0.0010(16) 0.0019(15)
C3 0.035(2) 0.045(3) 0.033(2) 0.014(2) 0.0009(16) 0.0019(16)
N1A 0.061(3) 0.035(2) 0.056(3) 0.012(2) 0.005(2) 0.0099(18)
C4A 0.065(3) 0.035(3) 0.053(3) 0.013(2) 0.004(2) 0.007(2)
C5A 0.062(3) 0.035(3) 0.048(3) 0.013(2) 0.001(2) 0.003(2)
C6A 0.048(3) 0.035(2) 0.043(3) 0.014(2) 0.010(2) 0.0060(18)
C7A 0.057(3) 0.036(3) 0.044(3) 0.010(2) 0.008(2) 0.008(2)
C8A 0.059(3) 0.039(3) 0.056(3) 0.013(3) 0.005(2) 0.014(2)
C9A 0.050(3) 0.039(3) 0.043(3) 0.017(2) 0.008(2) 0.010(2)
N1B 0.060(5) 0.035(5) 0.053(5) 0.012(4) 0.004(5) 0.010(4)
C4B 0.061(5) 0.035(5) 0.051(5) 0.013(4) 0.002(5) 0.007(5)
C5B 0.059(5) 0.034(5) 0.047(5) 0.014(4) 0.006(4) 0.006(5)
C6B 0.054(4) 0.034(4) 0.044(4) 0.014(4) 0.008(4) 0.007(4)
C7B 0.054(5) 0.036(4) 0.047(5) 0.014(4) 0.007(5) 0.010(5)
C8B 0.059(5) 0.035(5) 0.052(5) 0.012(4) 0.006(5) 0.012(5)
C9B 0.050(6) 0.035(5) 0.043(6) 0.016(5) 0.007(6) 0.007(6)
loop_
_atom_type_symbol
_atom_type_description
_atom_type_scat_dispersion_real
_atom_type_scat_dispersion_imag
_atom_type_scat_source
C C 0.0181 0.0091 'International Tables Vol C Tables 4.2.6.8 and 6.1.1.4'
H H 0 0 'International Tables Vol C Tables 4.2.6.8 and 6.1.1.4'
Cl Cl 0.3639 0.7018 'International Tables Vol C Tables 4.2.6.8 and 6.1.1.4'
I I -0.3257 6.8362 'International Tables Vol C Tables 4.2.6.8 and 6.1.1.4'
N N 0.0311 0.018 'International Tables Vol C Tables 4.2.6.8 and 6.1.1.4'
loop_
_exptl_crystal_face_index_h
_exptl_crystal_face_index_k
_exptl_crystal_face_index_l
_exptl_crystal_face_perp_dist
1 -4 7 0.0254
0 7 -3 0.0206
-3 1 -1 0.0667
0 4 -8 0.0449
-3 0 0 0.0713
3 0 0 0.0225
0 -6 -2 0.0356
0 -4 -5 0.0281
0 -6 -1 0.0337
0 6 2 0.0131
loop_
_geom_angle_atom_site_label_1
_geom_angle_atom_site_label_2
_geom_angle_atom_site_label_3
_geom_angle
_geom_angle_site_symmetry_1
_geom_angle_site_symmetry_3
C1 I1 N1A 171.11(19) . .
C1 I1 N1B 165.7(11) . .
C2 C1 C3 117.5(4) . 2_676
C2 C1 I1 121.0(3) . .
C3 C1 I1 121.5(3) 2_676 .
C3 C2 C1 121.1(4) . .
C3 C2 Cl1 119.0(3) . .
C1 C2 Cl1 120.0(3) . .
C2 C3 C1 121.4(4) . 2_676
C2 C3 Cl2 119.3(3) . .
C1 C3 Cl2 119.3(3) 2_676 .
C8A N1A C4A 116.8(5) . .
C8A N1A I1 136.5(5) . .
C4A N1A I1 104.8(4) . .
N1A C4A C5A 123.5(6) . .
N1A C4A H4A 118.3 . .
C5A C4A H4A 118.3 . .
C4A C5A C6A 119.7(6) . .
C4A C5A H5A 120.1 . .
C6A C5A H5A 120.1 . .
C5A C6A C7A 116.8(5) . .
C5A C6A C9A 119.8(6) . .
C7A C6A C9A 123.5(6) . .
C6A C7A C8A 120.0(5) . .
C6A C7A H7A 120 . .
C8A C7A H7A 120 . .
N1A C8A C7A 123.2(6) . .
N1A C8A H8A 118.4 . .
C7A C8A H8A 118.4 . .
C9A C9A C6A 126.7(8) 2_755 .
C9A C9A H9A 116.7 2_755 .
C6A C9A H9A 116.7 . .
C4B N1B C8B 120 . .
C4B N1B I1 126(3) . .
C8B N1B I1 111(3) . .
N1B C4B C5B 120 . .
N1B C4B H4B 120 . .
C5B C4B H4B 120 . .
C6B C5B C4B 120 . .
C6B C5B H5B 120 . .
C4B C5B H5B 120 . .
C5B C6B C7B 120 . .
C5B C6B C9B 113(4) . .
C7B C6B C9B 127(4) . .
C8B C7B C6B 120 . .
C8B C7B H7B 120 . .
C6B C7B H7B 120 . .
C7B C8B N1B 120 . .
C7B C8B H8B 120 . .
N1B C8B H8B 120 . .
C9B C9B C6B 134(6) 2_755 .
C9B C9B H9B 113.1 2_755 .
C6B C9B H9B 113.1 . .
loop_
_geom_bond_atom_site_label_1
_geom_bond_atom_site_label_2
_geom_bond_distance
_geom_bond_site_symmetry_2
I1 C1 2.102(4) .
I1 N1A 2.919(6) .
I1 N1B 2.94(3) .
Cl1 C2 1.730(4) .
Cl2 C3 1.730(4) .
C1 C2 1.390(6) .
C1 C3 1.399(7) 2_676
C2 C3 1.384(6) .
N1A C8A 1.317(8) .
N1A C4A 1.344(9) .
C4A C5A 1.378(9) .
C4A H4A 0.93 .
C5A C6A 1.380(9) .
C5A H5A 0.93 .
C6A C7A 1.383(8) .
C6A C9A 1.475(7) .
C7A C8A 1.389(9) .
C7A H7A 0.93 .
C8A H8A 0.93 .
C9A C9A 1.311(13) 2_755
C9A H9A 0.93 .
N1B C4B 1.39 .
N1B C8B 1.39 .
C4B C5B 1.39 .
C4B H4B 0.93 .
C5B C6B 1.39 .
C5B H5B 0.93 .
C6B C7B 1.39 .
C6B C9B 1.48(3) .
C7B C8B 1.39 .
C7B H7B 0.93 .
C8B H8B 0.93 .
C9B C9B 1.22(9) 2_755
C9B H9B 0.93 .
