#------------------------------------------------------------------------------
#$Date: 2019-11-08 03:09:27 +0200 (Fri, 08 Nov 2019) $
#$Revision: 224986 $
#$URL: file:///home/coder/svn-repositories/cod/cif/7/05/87/7058775.cif $
#------------------------------------------------------------------------------
#
# This file is available in the Crystallography Open Database (COD),
# http://www.crystallography.net/
#
# All data on this site have been placed in the public domain by the
# contributors.
#
data_7058775
loop_
_publ_author_name
'Chen, Jifeng'
'Yu, Yi'
'Zhang, Shujuan'
'Li, Yuchuan'
'Pang, Siping'
_publ_section_title
;
 Energetic materials with fluorinated four-membered heterocyclic ring:
 3,3&#x2032;-difluoroazetidine (DFAZ) salts
;
_journal_issue                   38
_journal_name_full               'New Journal of Chemistry'
_journal_page_first              15115
_journal_paper_doi               10.1039/C9NJ02569C
_journal_volume                  43
_journal_year                    2019
_chemical_formula_sum            'C3 H6 Cl F2 N O4'
_chemical_formula_weight         193.54
_space_group_crystal_system      orthorhombic
_space_group_IT_number           62
_space_group_name_Hall           '-P 2ac 2n'
_space_group_name_H-M_alt        'P n m a'
_symmetry_space_group_name_Hall  '-P 2ac 2n'
_symmetry_space_group_name_H-M   'P n m a'
_atom_sites_solution_hydrogens   mixed
_audit_creation_method           SHELXL-2018/3
_audit_update_record
;
2019-08-22 deposited with the CCDC.    2019-08-26 downloaded from the CCDC.
;
_cell_angle_alpha                90
_cell_angle_beta                 90
_cell_angle_gamma                90
_cell_formula_units_Z            4
_cell_length_a                   12.1852(8)
_cell_length_b                   7.0366(3)
_cell_length_c                   7.5024(5)
_cell_measurement_reflns_used    864
_cell_measurement_temperature    101(2)
_cell_measurement_theta_max      29.4324
_cell_measurement_theta_min      3.1820
_cell_volume                     643.27(7)
_computing_structure_refinement  'SHELXL-2018/3 (Sheldrick, 2018)'
_diffrn_ambient_temperature      101(2)
_diffrn_measured_fraction_theta_full 0.995
_diffrn_measured_fraction_theta_max 0.996
_diffrn_measurement_device_type  'Xcalibur, Eos, Gemini'
_diffrn_measurement_method       '\w scans'
_diffrn_radiation_type           MoK\a
_diffrn_radiation_wavelength     0.71073
_diffrn_reflns_av_R_equivalents  0.0305
_diffrn_reflns_av_unetI/netI     0.0261
_diffrn_reflns_Laue_measured_fraction_full 0.995
_diffrn_reflns_Laue_measured_fraction_max 0.996
_diffrn_reflns_limit_h_max       14
_diffrn_reflns_limit_h_min       -15
_diffrn_reflns_limit_k_max       8
_diffrn_reflns_limit_k_min       -8
_diffrn_reflns_limit_l_max       9
_diffrn_reflns_limit_l_min       -9
_diffrn_reflns_number            2483
_diffrn_reflns_point_group_measured_fraction_full 0.995
_diffrn_reflns_point_group_measured_fraction_max 0.996
_diffrn_reflns_theta_full        25.242
_diffrn_reflns_theta_max         25.992
_diffrn_reflns_theta_min         3.189
_exptl_absorpt_coefficient_mu    0.602
_exptl_crystal_colour            white
_exptl_crystal_density_diffrn    1.998
_exptl_crystal_description       block
_exptl_crystal_F_000             392
_refine_diff_density_max         0.658
_refine_diff_density_min         -0.992
_refine_diff_density_rms         0.155
_refine_ls_extinction_coef       0.011(2)
_refine_ls_extinction_expression Fc^*^=kFc[1+0.001xFc^2^\l^3^/sin(2\q)]^-1/4^
_refine_ls_extinction_method     'SHELXL-2018/3 (Sheldrick 2018)'
_refine_ls_goodness_of_fit_ref   1.147
_refine_ls_hydrogen_treatment    constr
_refine_ls_matrix_type           full
_refine_ls_number_parameters     74
_refine_ls_number_reflns         687
_refine_ls_number_restraints     60
_refine_ls_restrained_S_all      1.100
_refine_ls_R_factor_all          0.0813
_refine_ls_R_factor_gt           0.0781
_refine_ls_shift/su_max          0.000
_refine_ls_shift/su_mean         0.000
_refine_ls_structure_factor_coef Fsqd
_refine_ls_weighting_details
'w=1/[\s^2^(Fo^2^)+(0.0200P)^2^+13.3715P] where P=(Fo^2^+2Fc^2^)/3'
_refine_ls_weighting_scheme      calc
_refine_ls_wR_factor_gt          0.1893
_refine_ls_wR_factor_ref         0.1904
_reflns_Friedel_coverage         0.000
_reflns_number_gt                635
_reflns_number_total             687
_reflns_threshold_expression     'I > 2\s(I)'
_cod_data_source_file            c9nj02569c2.cif
_cod_data_source_block           exp_3232
_cod_depositor_comments
'Adding full bibliography for 7058774--7058778.cif.'
_cod_database_code               7058775
_shelx_shelxl_version_number     2018/3
_shelx_space_group_comment
;
The symmetry employed for this shelxl refinement is uniquely defined
by the following loop, which should always be used as a source of
symmetry information in preference to the above space-group names.
They are only intended as comments.
;
_shelx_res_file
;
TITL exp_3232         P 21 21 21   R = 0.03 New:Pnma
    exp_3232.res
    created by SHELXL-2018/3 at 17:32:44 on 20-Aug-2019
CELL  0.71073   12.1852    7.0366    7.5024    90.000    90.000    90.000
ZERR        4    0.0008    0.0003    0.0005     0.000     0.000     0.000
LATT   1
SYMM     0.50000 - X ,            - Y ,    0.50000 + Z
SYMM     0.50000 + X ,    0.50000 - Y ,    0.50000 - Z
SYMM             - X ,    0.50000 + Y ,            - Z
SFAC  C  H Cl  F  N  O
UNIT    12   24   4   8   4  16
OMIT 3 2 3
OMIT 1 3 1
OMIT 3 1 1
LIST 4
TEMP  -172
L.S. 5
FMAP 2
PLAN -20
ACTA
BOND $H
omit -3 52
CONF
WGHT    0.020000   13.371490
EXTI    0.011262
FVAR       6.70227
RESI 0
F1    4    0.417428    0.250000   -0.630014    10.50000    0.01047    0.03977 =
         0.02237    0.00000    0.00663    0.00000
F2    4    0.452646    0.250000   -0.915845    10.50000    0.01889    0.04207 =
         0.01733    0.00000   -0.00675    0.00000
N1    5    0.673292    0.250000   -0.730984    10.50000    0.01297    0.04689 =
         0.01524    0.00000   -0.00256    0.00000
AFIX   3
H1C   2    0.715522    0.250000   -0.830854    10.50000   -1.20000
H1D   2    0.715680    0.250000   -0.631302    10.50000   -1.20000
AFIX   0
C1    1    0.586338    0.096590   -0.730168    11.00000    0.02569    0.01397 =
         0.01642   -0.00322    0.00297    0.00845
AFIX  23
H1A   2    0.581168    0.026303   -0.616166    11.00000   -1.20000
H1B   2    0.591077    0.008153   -0.832509    11.00000   -1.20000
AFIX   0
C2    1    0.500023    0.250000   -0.751919    10.50000    0.01301    0.01372 =
         0.01287    0.00000    0.00179    0.00000
simu 0.01 0.02 2.5 cl1 > O4
CL1   3    0.677359    0.250000   -0.233287    10.50000    0.01266    0.01108 =
         0.01014    0.00000    0.00010    0.00000
O3    6    0.759135    0.250000   -0.374189    10.50000    0.01854    0.02261 =
         0.01231    0.00000    0.00288    0.00000
part -1 10.5
O1    6    0.571007    0.210329   -0.308622    10.50000    0.01413    0.01737 =
         0.01784   -0.00224   -0.00524    0.00083
O2    6    0.678519    0.433649   -0.152062    10.50000    0.02394    0.01041 =
         0.02141   -0.00886    0.00429    0.00250
O4    6    0.704496    0.113139   -0.098826    10.50000    0.01980    0.02068 =
         0.01355    0.00578   -0.00439    0.00818
part 0

HKLF 4 1 0.0000 0.0000 1.0000 1.0000 0.0000 0.0000 0.0000 1.0000 0.0000




REM  exp_3232         P 21 21 21   R = 0.03 New:Pnma
REM wR2 = 0.1904, GooF = S = 1.147, Restrained GooF = 1.100 for all data
REM R1 = 0.0781 for 635 Fo > 4sig(Fo) and 0.0813 for all 687 data
REM 74 parameters refined using 60 restraints

END

WGHT      0.0000      8.5686

REM Highest difference peak  0.658,  deepest hole -0.992,  1-sigma level  0.155
Q1    1   0.4679  0.2500 -1.0548  10.50000  0.05    0.66
Q2    1   0.6055  0.2500 -1.1206  10.50000  0.05    0.58
Q3    1   0.3263  0.2500 -0.6394  10.50000  0.05    0.54
Q4    1   0.5642  0.2500 -0.9690  10.50000  0.05    0.51
Q5    1   0.4300  0.2500 -0.3486  10.50000  0.05    0.50
Q6    1   0.7573  0.1670 -1.0427  11.00000  0.05    0.48
Q7    1   0.2870  0.1772 -0.4466  11.00000  0.05    0.47
Q8    1   0.5587  0.1569 -0.4966  11.00000  0.05    0.46
Q9    1   0.7937  0.1168 -0.1785  11.00000  0.05    0.45
Q10   1   0.7057  0.2500 -0.4490  10.50000  0.05    0.43
Q11   1   0.6404  0.0391 -0.5875  11.00000  0.05    0.42
Q12   1   0.3081  0.1478 -0.6895  11.00000  0.05    0.41
Q13   1   0.4175  0.1619 -0.7178  11.00000  0.05    0.41
Q14   1   0.7334  0.2500 -0.4950  10.50000  0.05    0.40
Q15   1   0.7132 -0.0182 -0.8511  11.00000  0.05    0.37
Q16   1   0.7536  0.2500 -0.3233  10.50000  0.05    0.37
Q17   1   0.5692  0.0918 -0.1121  11.00000  0.05    0.37
Q18   1   0.7419  0.0642 -0.6068  11.00000  0.05    0.35
Q19   1   0.5115  0.2003 -0.6371  11.00000  0.05    0.35
Q20   1   0.5378 -0.1398 -0.7166  11.00000  0.05    0.35
;
_shelx_res_checksum              13398
loop_
_space_group_symop_operation_xyz
'x, y, z'
'-x+1/2, -y, z+1/2'
'x+1/2, -y+1/2, -z+1/2'
'-x, y+1/2, -z'
'-x, -y, -z'
'x-1/2, y, -z-1/2'
'-x-1/2, y-1/2, z-1/2'
'x, -y-1/2, z'
loop_
_atom_site_label
_atom_site_type_symbol
_atom_site_fract_x
_atom_site_fract_y
_atom_site_fract_z
_atom_site_U_iso_or_equiv
_atom_site_adp_type
_atom_site_occupancy
_atom_site_site_symmetry_order
_atom_site_calc_flag
_atom_site_refinement_flags_posn
_atom_site_refinement_flags_adp
_atom_site_refinement_flags_occupancy
_atom_site_disorder_assembly
_atom_site_disorder_group
F1 F 0.4174(4) 0.250000 -0.6300(8) 0.0242(15) Uani 1 2 d S T P . .
F2 F 0.4526(5) 0.250000 -0.9158(8) 0.0261(15) Uani 1 2 d S T P . .
N1 N 0.6733(6) 0.250000 -0.7310(11) 0.025(2) Uani 1 2 d S T P . .
H1C H 0.715522 0.250000 -0.830854 0.030 Uiso 1 2 d R U P . .
H1D H 0.715680 0.250000 -0.631302 0.030 Uiso 1 2 d R U P . .
C1 C 0.5863(5) 0.0966(9) -0.7302(9) 0.0187(15) Uani 1 1 d . . . . .
H1A H 0.581168 0.026303 -0.616166 0.022 Uiso 1 1 calc R U . . .
H1B H 0.591077 0.008153 -0.832509 0.022 Uiso 1 1 calc R U . . .
C2 C 0.5000(7) 0.250000 -0.7519(12) 0.0132(18) Uani 1 2 d S T P . .
Cl1 Cl 0.67736(17) 0.250000 -0.2333(3) 0.0113(6) Uani 1 2 d S TU P . .
O3 O 0.7591(5) 0.250000 -0.3742(8) 0.0178(15) Uani 1 2 d S TU P A .
O1 O 0.5710(6) 0.2103(12) -0.3086(11) 0.016(3) Uani 0.5 1 d . U P A -1
O2 O 0.6785(10) 0.4336(18) -0.1521(17) 0.019(3) Uani 0.5 1 d . U P A -1
O4 O 0.7045(10) 0.1131(19) -0.0988(15) 0.018(3) Uani 0.5 1 d . U P A -1
loop_
_atom_site_aniso_label
_atom_site_aniso_U_11
_atom_site_aniso_U_22
_atom_site_aniso_U_33
_atom_site_aniso_U_23
_atom_site_aniso_U_13
_atom_site_aniso_U_12
F1 0.010(3) 0.040(4) 0.022(3) 0.000 0.007(2) 0.000
F2 0.019(3) 0.042(4) 0.017(3) 0.000 -0.007(2) 0.000
N1 0.013(4) 0.047(6) 0.015(4) 0.000 -0.003(3) 0.000
C1 0.026(3) 0.014(3) 0.016(3) -0.003(3) 0.003(3) 0.008(3)
C2 0.013(4) 0.014(4) 0.013(4) 0.000 0.002(3) 0.000
Cl1 0.0127(10) 0.0111(10) 0.0101(10) 0.000 0.0001(8) 0.000
O3 0.019(3) 0.023(3) 0.012(3) 0.000 0.003(3) 0.000
O1 0.014(3) 0.017(7) 0.018(4) -0.002(3) -0.005(3) 0.001(3)
O2 0.024(6) 0.010(5) 0.021(6) -0.009(4) 0.004(5) 0.003(4)
O4 0.020(5) 0.021(6) 0.014(6) 0.006(4) -0.004(4) 0.008(5)
loop_
_atom_type_symbol
_atom_type_description
_atom_type_scat_dispersion_real
_atom_type_scat_dispersion_imag
_atom_type_scat_source
C C 0.0033 0.0016 'International Tables Vol C Tables 4.2.6.8 and 6.1.1.4'
H H 0.0000 0.0000 'International Tables Vol C Tables 4.2.6.8 and 6.1.1.4'
Cl Cl 0.1484 0.1585 'International Tables Vol C Tables 4.2.6.8 and 6.1.1.4'
F F 0.0171 0.0103 'International Tables Vol C Tables 4.2.6.8 and 6.1.1.4'
N N 0.0061 0.0033 'International Tables Vol C Tables 4.2.6.8 and 6.1.1.4'
O O 0.0106 0.0060 'International Tables Vol C Tables 4.2.6.8 and 6.1.1.4'
loop_
_geom_angle_atom_site_label_1
_geom_angle_atom_site_label_2
_geom_angle_atom_site_label_3
_geom_angle
_geom_angle_site_symmetry_1
_geom_angle_site_symmetry_3
C1 N1 C1 91.1(6) . 8_565
C1 N1 H1C 113.6 . .
C1 N1 H1C 113.6 8_565 .
C1 N1 H1D 113.3 . .
C1 N1 H1D 113.3 8_565 .
H1C N1 H1D 110.9 . .
N1 C1 C2 88.7(5) . .
N1 C1 H1A 113.9 . .
C2 C1 H1A 113.9 . .
N1 C1 H1B 113.9 . .
C2 C1 H1B 113.9 . .
H1A C1 H1B 111.1 . .
F2 C2 F1 107.1(7) . .
F2 C2 C1 113.1(5) . 8_565
F1 C2 C1 116.2(5) . 8_565
F2 C2 C1 113.1(5) . .
F1 C2 C1 116.2(5) . .
C1 C2 C1 90.8(7) 8_565 .
O2 Cl1 O4 107.8(8) . .
O2 Cl1 O1 110.6(6) . .
O4 Cl1 O1 110.7(6) . .
O2 Cl1 O3 107.7(5) . .
O4 Cl1 O3 110.7(5) . .
O1 Cl1 O3 109.4(4) . .
loop_
_geom_bond_atom_site_label_1
_geom_bond_atom_site_label_2
_geom_bond_distance
_geom_bond_site_symmetry_2
F1 C2 1.360(10) .
F2 C2 1.359(11) .
N1 C1 1.513(8) .
N1 C1 1.513(8) 8_565
N1 H1C 0.9090 .
N1 H1D 0.9089 .
C1 C2 1.516(8) .
C1 H1A 0.9900 .
C1 H1B 0.9900 .
Cl1 O2 1.429(12) .
Cl1 O4 1.433(13) .
Cl1 O1 1.441(8) .
Cl1 O3 1.453(6) .
loop_
_geom_torsion_atom_site_label_1
_geom_torsion_atom_site_label_2
_geom_torsion_atom_site_label_3
_geom_torsion_atom_site_label_4
_geom_torsion
_geom_torsion_site_symmetry_1
_geom_torsion_site_symmetry_4
C1 N1 C1 C2 6.4(7) 8_565 .
N1 C1 C2 F2 109.2(6) . .
N1 C1 C2 F1 -126.3(6) . .
N1 C1 C2 C1 -6.4(7) . 8_565
