#------------------------------------------------------------------------------
#$Date: 2019-10-29 06:15:30 +0200 (Tue, 29 Oct 2019) $
#$Revision: 220351 $
#$URL: file:///home/coder/svn-repositories/cod/cif/7/05/89/7058933.cif $
#------------------------------------------------------------------------------
#
# This file is available in the Crystallography Open Database (COD),
# http://www.crystallography.net/
#
# All data on this site have been placed in the public domain by the
# contributors.
#
data_7058933
loop_
_publ_author_name
'Juneja, Navkiran Kaur'
'Unruh, Daniel K.'
'Bosch, Eric'
'Groeneman , Ryan'
'Hutchins, Kristin M.'
_publ_section_title
;
 Effects of dynamic pedal motion and static disorder on thermal expansion
 within halogen bonded co-crystals
;
_journal_name_full               'New Journal of Chemistry'
_journal_paper_doi               10.1039/C9NJ04833B
_journal_year                    2019
_chemical_formula_moiety         'C12 H8 N2, C6 Cl4 I2'
_chemical_formula_sum            'C18 H8 Cl4 I2 N2'
_chemical_formula_weight         647.86
_chemical_name_common
'Cocrystal 1,2,4,5-tetrachlorobenzene and 1,2-bis(4-pyridyl)ethyne'
_space_group_crystal_system      triclinic
_space_group_IT_number           2
_space_group_name_Hall           '-P 1'
_space_group_name_H-M_alt        'P -1'
_symmetry_space_group_name_Hall  '-P 1'
_symmetry_space_group_name_H-M   'P -1'
_atom_sites_solution_hydrogens   geom
_audit_creation_method           SHELXL-2018/3
_audit_update_record
;
2019-09-24 deposited with the CCDC.    2019-10-28 downloaded from the CCDC.
;
_cell_angle_alpha                111.5010(10)
_cell_angle_beta                 90.5580(10)
_cell_angle_gamma                97.5490(10)
_cell_formula_units_Z            1
_cell_length_a                   4.0263(3)
_cell_length_b                   11.1831(9)
_cell_length_c                   12.1654(10)
_cell_measurement_reflns_used    6488
_cell_measurement_temperature    210(2)
_cell_measurement_theta_max      33.03
_cell_measurement_theta_min      3.13
_cell_volume                     504.23(7)
_computing_cell_refinement       'Bruker SMART'
_computing_data_collection       'Bruker SMART'
_computing_data_reduction        'Bruker SAINT'
_computing_molecular_graphics    'XSeed (Barbour, 2001)'
_computing_publication_material  'XSeed (Barbour, 2001)'
_computing_structure_refinement  'SHELXL-2018/3 (Sheldrick, 2015)'
_computing_structure_solution    'SHELXT 2018/2 (Sheldrick, 2015)'
_diffrn_ambient_temperature      210(2)
_diffrn_detector_area_resol_mean 8.3660
_diffrn_measured_fraction_theta_full 1.000
_diffrn_measured_fraction_theta_max 0.906
_diffrn_measurement_device_type  'Bruker APEX-II CCD'
_diffrn_measurement_method       'phi and omega scans'
_diffrn_radiation_monochromator  graphite
_diffrn_radiation_source         'fine-focus sealed tube'
_diffrn_radiation_type           MoK\a
_diffrn_radiation_wavelength     0.71073
_diffrn_reflns_av_R_equivalents  0.0152
_diffrn_reflns_av_unetI/netI     0.0193
_diffrn_reflns_Laue_measured_fraction_full 1.000
_diffrn_reflns_Laue_measured_fraction_max 0.906
_diffrn_reflns_limit_h_max       6
_diffrn_reflns_limit_h_min       -6
_diffrn_reflns_limit_k_max       16
_diffrn_reflns_limit_k_min       -17
_diffrn_reflns_limit_l_max       18
_diffrn_reflns_limit_l_min       -18
_diffrn_reflns_number            8319
_diffrn_reflns_point_group_measured_fraction_full 1.000
_diffrn_reflns_point_group_measured_fraction_max 0.906
_diffrn_reflns_theta_full        25.242
_diffrn_reflns_theta_max         33.028
_diffrn_reflns_theta_min         1.803
_exptl_absorpt_coefficient_mu    3.654
_exptl_absorpt_correction_T_max  1.000
_exptl_absorpt_correction_T_min  0.703
_exptl_absorpt_correction_type   multi-scan
_exptl_absorpt_process_details   'SADABS V2014(Bruker AXS)'
_exptl_crystal_colour            colourless
_exptl_crystal_density_diffrn    2.134
_exptl_crystal_description       cut
_exptl_crystal_F_000             304
_exptl_crystal_size_max          0.30
_exptl_crystal_size_mid          0.18
_exptl_crystal_size_min          0.03
_refine_diff_density_max         1.129
_refine_diff_density_min         -0.682
_refine_diff_density_rms         0.117
_refine_ls_extinction_method     none
_refine_ls_goodness_of_fit_ref   1.224
_refine_ls_hydrogen_treatment    constr
_refine_ls_matrix_type           full
_refine_ls_number_parameters     118
_refine_ls_number_reflns         3450
_refine_ls_number_restraints     0
_refine_ls_restrained_S_all      1.224
_refine_ls_R_factor_all          0.0236
_refine_ls_R_factor_gt           0.0205
_refine_ls_shift/su_max          0.001
_refine_ls_shift/su_mean         0.000
_refine_ls_structure_factor_coef Fsqd
_refine_ls_weighting_details
'w=1/[\s^2^(Fo^2^)+0.7097P] where P=(Fo^2^+2Fc^2^)/3'
_refine_ls_weighting_scheme      calc
_refine_ls_wR_factor_gt          0.0451
_refine_ls_wR_factor_ref         0.0482
_reflns_Friedel_coverage         0.000
_reflns_number_gt                3197
_reflns_number_total             3450
_reflns_threshold_expression     'I > 2\s(I)'
_cod_data_source_file            c9nj04833b2.cif
_cod_data_source_block           eb888210_a
_cod_database_code               7058933
_shelx_shelxl_version_number     2018/3
_shelx_space_group_comment
;
The symmetry employed for this shelxl refinement is uniquely defined
by the following loop, which should always be used as a source of
symmetry information in preference to the above space-group names.
They are only intended as comments.
;
_shelx_res_file
;
TITL eb888210_a.res in P-1
    I:\XRAYDATA\EB8882~2\eb888210_a.res
    created by SHELXL-2018/3 at 16:30:21 on 08-May-2019
CELL 0.71073 4.0263 11.1831 12.1654 111.501 90.558 97.549
ZERR 1.0000 0.0003 0.0009 0.0010 0.001 0.001 0.001
LATT 1
SFAC C H N CL I
UNIT 18 8 2 4 2
BOND
ACTA
FMAP 2 1 53
PLAN 20 0 0
LIST 4 1
TEMP -63.15
L.S. 16
WGHT    0.000000    0.709700
FVAR       0.52812
I1    5    0.714999    0.709273    0.293767    11.00000    0.02489    0.02032 =
         0.02427    0.00149    0.00238    0.00628
CL1   4    0.406705    0.748943    0.558262    11.00000    0.04829    0.02190 =
         0.02951    0.01149    0.00595    0.00776
N1    3    0.874436    0.454626    0.148035    11.00000    0.03972    0.01734 =
         0.03511    0.00460    0.00686    0.00597
C1    1    0.807694    0.246236   -0.009841    11.00000    0.03541    0.02259 =
         0.02684    0.00670    0.00117    0.00667
AFIX  43
H1    2    0.734973    0.195091   -0.088814    11.00000   -1.20000
AFIX   0
CL2   4    0.216577    1.002278    0.738009    11.00000    0.04363    0.02690 =
         0.02208    0.00721    0.01058    0.00389
C2    1    0.776753    0.376803    0.036580    11.00000    0.03565    0.02388 =
         0.03668    0.01271    0.00324    0.01117
AFIX  43
H2    2    0.681903    0.412760   -0.012923    11.00000   -1.20000
AFIX   0
C3    1    1.010529    0.401866    0.216573    11.00000    0.04829    0.01954 =
         0.02454    0.00239    0.00275    0.00344
AFIX  43
H3    2    1.081522    0.455710    0.295039    11.00000   -1.20000
AFIX   0
C4    1    1.053295    0.272053    0.178671    11.00000    0.03992    0.02407 =
         0.02760    0.00969    0.00157    0.00648
AFIX  43
H4    2    1.150547    0.239055    0.230112    11.00000   -1.20000
AFIX   0
C5    1    0.948408    0.191891    0.062434    11.00000    0.02971    0.01740 =
         0.02728    0.00817    0.00767    0.00585
C6    1    0.985029    0.056357    0.018417    11.00000    0.03705    0.02000 =
         0.02665    0.00924    0.00646    0.00785
C7    1    0.588551    0.883253    0.416912    11.00000    0.02140    0.01584 =
         0.01837    0.00191   -0.00038    0.00377
C8    1    0.460350    0.887198    0.524500    11.00000    0.02324    0.01781 =
         0.02179    0.00609   -0.00067    0.00245
C9    1    0.373015    1.002495    0.606405    11.00000    0.02152    0.02174 =
         0.01926    0.00527    0.00176    0.00226
HKLF 4




REM  eb888210_a.res in P-1
REM wR2 = 0.0482, GooF = S = 1.224, Restrained GooF = 1.224 for all data
REM R1 = 0.0205 for 3197 Fo > 4sig(Fo) and 0.0236 for all 3450 data
REM 118 parameters refined using 0 restraints

END

WGHT      0.0000      0.7096

REM Highest difference peak  1.129,  deepest hole -0.682,  1-sigma level  0.117
Q1    1   0.1497  1.1259  0.8797  11.00000  0.05    1.13
Q2    1   0.9548  0.3212 -0.0340  11.00000  0.05    0.59
Q3    1   0.6455  0.4200  0.3216  11.00000  0.05    0.55
Q4    1   0.7710  0.5779  0.1443  11.00000  0.05    0.54
Q5    1   0.7647  0.6988  0.3392  11.00000  0.05    0.53
Q6    1   0.3982  1.0462  0.5795  11.00000  0.05    0.49
Q7    1   0.5005  0.7030  0.2434  11.00000  0.05    0.47
Q8    1   0.4215  0.6794  0.2964  11.00000  0.05    0.46
Q9    1   0.7365  0.6171  0.3207  11.00000  0.05    0.45
Q10   1   1.0730  0.3336  0.2004  11.00000  0.05    0.44
Q11   1   0.8043  0.1646  0.1401  11.00000  0.05    0.43
Q12   1  -0.0258  0.8326  0.6409  11.00000  0.05    0.42
Q13   1   0.9798  0.1400  0.0416  11.00000  0.05    0.42
Q14   1   0.8202  0.7424  0.2131  11.00000  0.05    0.40
Q15   1   0.6385  0.8008  0.2801  11.00000  0.05    0.40
Q16   1   0.4416  0.9575  0.5620  11.00000  0.05    0.39
Q17   1   0.6018  0.6594  0.3592  11.00000  0.05    0.39
Q18   1   0.5193  0.0813 -0.1034  11.00000  0.05    0.38
Q19   1   0.8285  0.4162  0.1997  11.00000  0.05    0.37
Q20   1   0.5467  0.1389 -0.1552  11.00000  0.05    0.37
;
_shelx_res_checksum              22285
loop_
_space_group_symop_operation_xyz
'x, y, z'
'-x, -y, -z'
loop_
_atom_site_label
_atom_site_type_symbol
_atom_site_fract_x
_atom_site_fract_y
_atom_site_fract_z
_atom_site_U_iso_or_equiv
_atom_site_adp_type
_atom_site_occupancy
_atom_site_site_symmetry_order
_atom_site_calc_flag
_atom_site_refinement_flags_posn
_atom_site_refinement_flags_adp
I1 I 0.71500(4) 0.70927(2) 0.29377(2) 0.02480(4) Uani 1 1 d . .
Cl1 Cl 0.40670(17) 0.74894(5) 0.55826(5) 0.03240(12) Uani 1 1 d . .
N1 N 0.8744(6) 0.45463(19) 0.14803(19) 0.0320(4) Uani 1 1 d . .
C1 C 0.8077(6) 0.2462(2) -0.0098(2) 0.0288(5) Uani 1 1 d . .
H1 H 0.734973 0.195091 -0.088814 0.035 Uiso 1 1 calc R U
Cl2 Cl 0.21658(16) 1.00228(6) 0.73801(5) 0.03146(12) Uani 1 1 d . .
C2 C 0.7768(6) 0.3768(2) 0.0366(2) 0.0310(5) Uani 1 1 d . .
H2 H 0.681903 0.412760 -0.012923 0.037 Uiso 1 1 calc R U
C3 C 1.0105(7) 0.4019(2) 0.2166(2) 0.0326(5) Uani 1 1 d . .
H3 H 1.081522 0.455710 0.295039 0.039 Uiso 1 1 calc R U
C4 C 1.0533(7) 0.2721(2) 0.1787(2) 0.0303(5) Uani 1 1 d . .
H4 H 1.150547 0.239055 0.230112 0.036 Uiso 1 1 calc R U
C5 C 0.9484(6) 0.1919(2) 0.0624(2) 0.0246(4) Uani 1 1 d . .
C6 C 0.9850(6) 0.0564(2) 0.0184(2) 0.0273(4) Uani 1 1 d . .
C7 C 0.5886(5) 0.88325(19) 0.41691(17) 0.0197(4) Uani 1 1 d . .
C8 C 0.4603(5) 0.8872(2) 0.52450(18) 0.0214(4) Uani 1 1 d . .
C9 C 0.3730(5) 1.0025(2) 0.60641(18) 0.0216(4) Uani 1 1 d . .
loop_
_atom_site_aniso_label
_atom_site_aniso_U_11
_atom_site_aniso_U_22
_atom_site_aniso_U_33
_atom_site_aniso_U_23
_atom_site_aniso_U_13
_atom_site_aniso_U_12
I1 0.02489(7) 0.02032(7) 0.02427(7) 0.00149(5) 0.00238(5) 0.00628(5)
Cl1 0.0483(3) 0.0219(2) 0.0295(3) 0.0115(2) 0.0059(2) 0.0078(2)
N1 0.0397(11) 0.0173(8) 0.0351(11) 0.0046(8) 0.0069(9) 0.0060(8)
C1 0.0354(12) 0.0226(10) 0.0268(11) 0.0067(8) 0.0012(9) 0.0067(9)
Cl2 0.0436(3) 0.0269(3) 0.0221(2) 0.0072(2) 0.0106(2) 0.0039(2)
C2 0.0356(12) 0.0239(11) 0.0367(13) 0.0127(9) 0.0032(10) 0.0112(9)
C3 0.0483(15) 0.0195(10) 0.0245(11) 0.0024(8) 0.0028(10) 0.0034(10)
C4 0.0399(13) 0.0241(10) 0.0276(11) 0.0097(9) 0.0016(9) 0.0065(9)
C5 0.0297(11) 0.0174(9) 0.0273(10) 0.0082(8) 0.0077(8) 0.0058(8)
C6 0.0370(12) 0.0200(10) 0.0266(10) 0.0092(8) 0.0065(9) 0.0078(9)
C7 0.0214(9) 0.0158(8) 0.0184(8) 0.0019(7) -0.0004(7) 0.0038(7)
C8 0.0232(9) 0.0178(9) 0.0218(9) 0.0061(7) -0.0007(7) 0.0024(7)
C9 0.0215(9) 0.0217(9) 0.0193(9) 0.0053(7) 0.0018(7) 0.0023(7)
loop_
_atom_type_symbol
_atom_type_description
_atom_type_scat_dispersion_real
_atom_type_scat_dispersion_imag
_atom_type_scat_source
C C 0.0033 0.0016 'International Tables Vol C Tables 4.2.6.8 and 6.1.1.4'
H H 0.0000 0.0000 'International Tables Vol C Tables 4.2.6.8 and 6.1.1.4'
N N 0.0061 0.0033 'International Tables Vol C Tables 4.2.6.8 and 6.1.1.4'
Cl Cl 0.1484 0.1585 'International Tables Vol C Tables 4.2.6.8 and 6.1.1.4'
I I -0.4742 1.8119 'International Tables Vol C Tables 4.2.6.8 and 6.1.1.4'
loop_
_geom_angle_atom_site_label_1
_geom_angle_atom_site_label_2
_geom_angle_atom_site_label_3
_geom_angle
_geom_angle_site_symmetry_1
C3 N1 C2 117.3(2) .
C2 C1 C5 118.8(2) .
N1 C2 C1 123.5(2) .
N1 C3 C4 123.8(2) .
C3 C4 C5 118.3(2) .
C1 C5 C4 118.3(2) .
C1 C5 C6 120.9(2) .
C4 C5 C6 120.8(2) .
C6 C6 C5 179.8(4) 2_755
C9 C7 C8 118.10(18) 2_676
C9 C7 I1 121.26(15) 2_676
C8 C7 I1 120.64(15) .
C7 C8 C9 120.90(19) .
C7 C8 Cl1 120.23(16) .
C9 C8 Cl1 118.88(17) .
C7 C9 C8 121.00(19) 2_676
C7 C9 Cl2 119.91(16) 2_676
C8 C9 Cl2 119.08(17) .
loop_
_geom_bond_atom_site_label_1
_geom_bond_atom_site_label_2
_geom_bond_distance
_geom_bond_site_symmetry_2
I1 C7 2.1042(19) .
Cl1 C8 1.728(2) .
N1 C3 1.334(3) .
N1 C2 1.336(3) .
C1 C2 1.382(3) .
C1 C5 1.391(3) .
Cl2 C9 1.727(2) .
C3 C4 1.388(3) .
C4 C5 1.393(3) .
C5 C6 1.439(3) .
C6 C6 1.196(4) 2_755
C7 C9 1.397(3) 2_676
C7 C8 1.399(3) .
C8 C9 1.401(3) .
