#------------------------------------------------------------------------------
#$Date: 2019-10-29 06:15:30 +0200 (Tue, 29 Oct 2019) $
#$Revision: 220351 $
#$URL: file:///home/coder/svn-repositories/cod/cif/7/05/89/7058922.cif $
#------------------------------------------------------------------------------
#
# This file is available in the Crystallography Open Database (COD),
# http://www.crystallography.net/
#
# All data on this site have been placed in the public domain by the
# contributors.
#
data_7058922
loop_
_publ_author_name
'Juneja, Navkiran Kaur'
'Unruh, Daniel K.'
'Bosch, Eric'
'Groeneman , Ryan'
'Hutchins, Kristin M.'
_publ_section_title
;
 Effects of dynamic pedal motion and static disorder on thermal expansion
 within halogen bonded co-crystals
;
_journal_name_full               'New Journal of Chemistry'
_journal_paper_doi               10.1039/C9NJ04833B
_journal_year                    2019
_chemical_formula_sum            'C16 H8 Cl4 I2 N4'
_chemical_formula_weight         651.86
_space_group_IT_number           2
_space_group_name_Hall           '-P 1'
_space_group_name_H-M_alt        'P -1'
_symmetry_cell_setting           triclinic
_symmetry_Int_Tables_number      2
_symmetry_space_group_name_Hall  '-P 1'
_symmetry_space_group_name_H-M   'P -1'
_atom_sites_solution_hydrogens   geom
_atom_sites_solution_primary     dual
_atom_sites_solution_secondary   difmap
_audit_creation_date             2019-09-05T11:55:25-00:00
_audit_creation_method           'WinGX routine CIF_UPDATE'
_audit_update_record
;
2019-09-20 deposited with the CCDC.    2019-10-28 downloaded from the CCDC.
;
_cell_angle_alpha                111.501(3)
_cell_angle_beta                 92.105(3)
_cell_angle_gamma                94.666(3)
_cell_formula_units_Z            1
_cell_length_a                   4.05043(19)
_cell_length_b                   10.8317(3)
_cell_length_c                   12.4043(3)
_cell_measurement_reflns_used    9356
_cell_measurement_temperature    270(2)
_cell_measurement_theta_max      76.721
_cell_measurement_theta_min      3.864
_cell_volume                     503.36(3)
_computing_cell_refinement       'CrysAlisPro 1.171.40.58a (Rigaku OD, 2019)'
_computing_data_collection       'CrysAlisPro 1.171.40.58a (Rigaku OD, 2019)'
_computing_data_reduction        'CrysAlisPro 1.171.40.58a (Rigaku OD, 2019)'
_computing_structure_refinement  'SHELXL-2018/3 (Sheldrick, 2018)'
_computing_structure_solution    'SHELXT 2014/5 (Sheldrick, 2014)'
_diffrn_ambient_environment      N~2~
_diffrn_ambient_temperature      270(2)
_diffrn_detector                 'Hybrid Pixel Array Detector'
_diffrn_detector_area_resol_mean 10
_diffrn_detector_type            HyPix
_diffrn_measured_fraction_theta_full 0.997
_diffrn_measured_fraction_theta_max 0.956
_diffrn_measurement_device       'four-circle diffractometer'
_diffrn_measurement_device_type  'XtaLAB Synergy, Dualflex, HyPix'
_diffrn_measurement_method       '\w scans'
_diffrn_orient_matrix_type
'CrysAlisPro convention (1999,Acta A55,543-557)'
_diffrn_orient_matrix_UB_11      0.1498978
_diffrn_orient_matrix_UB_12      0.1446448
_diffrn_orient_matrix_UB_13      0.0679473
_diffrn_orient_matrix_UB_21      0.0578681
_diffrn_orient_matrix_UB_22      0.0188751
_diffrn_orient_matrix_UB_23      -0.1152971
_diffrn_orient_matrix_UB_31      -0.3472209
_diffrn_orient_matrix_UB_32      0.0483221
_diffrn_orient_matrix_UB_33      -0.000466
_diffrn_radiation_monochromator  mirror
_diffrn_radiation_probe          x-ray
_diffrn_radiation_type           CuK\a
_diffrn_radiation_wavelength     1.54178
_diffrn_reflns_av_R_equivalents  0.0695
_diffrn_reflns_av_unetI/netI     0.0615
_diffrn_reflns_Laue_measured_fraction_full 0.997
_diffrn_reflns_Laue_measured_fraction_max 0.956
_diffrn_reflns_limit_h_max       4
_diffrn_reflns_limit_h_min       -5
_diffrn_reflns_limit_k_max       13
_diffrn_reflns_limit_k_min       -13
_diffrn_reflns_limit_l_max       15
_diffrn_reflns_limit_l_min       -15
_diffrn_reflns_number            16741
_diffrn_reflns_point_group_measured_fraction_full 0.997
_diffrn_reflns_point_group_measured_fraction_max 0.956
_diffrn_reflns_theta_full        67.679
_diffrn_reflns_theta_max         77.395
_diffrn_reflns_theta_min         3.84
_diffrn_source                   'micro-focus sealed X-ray tube'
_diffrn_source_type              'PhotonJet (Cu) X-ray Source'
_exptl_absorpt_coefficient_mu    29.501
_exptl_absorpt_correction_T_max  0.472
_exptl_absorpt_correction_T_min  0.068
_exptl_absorpt_correction_type   gaussian
_exptl_absorpt_process_details
;
        CrysAlisPro 1.171.40.58a (Rigaku Oxford Diffraction, 2019)
Numerical absorption correction based on gaussian integration over
                        a multifaceted crystal model
        Empirical absorption correction using spherical harmonics,
 implemented in SCALE3 ABSPACK scaling algorithm.
;
_exptl_crystal_colour            'clear pale yellow'
_exptl_crystal_density_diffrn    2.15
_exptl_crystal_description       block
_exptl_crystal_F_000             306
_exptl_crystal_size_max          0.143
_exptl_crystal_size_mid          0.094
_exptl_crystal_size_min          0.054
_refine_diff_density_max         0.832
_refine_diff_density_min         -1.11
_refine_diff_density_rms         0.154
_refine_ls_extinction_method     none
_refine_ls_goodness_of_fit_ref   1.103
_refine_ls_hydrogen_treatment    constr
_refine_ls_matrix_type           full
_refine_ls_number_parameters     159
_refine_ls_number_reflns         2041
_refine_ls_number_restraints     343
_refine_ls_restrained_S_all      1.027
_refine_ls_R_factor_all          0.0391
_refine_ls_R_factor_gt           0.0338
_refine_ls_shift/su_max          0
_refine_ls_shift/su_mean         0
_refine_ls_structure_factor_coef Fsqd
_refine_ls_weighting_details
'w=1/[\s^2^(Fo^2^)+(0.0488P)^2^+0.9372P] where P=(Fo^2^+2Fc^2^)/3'
_refine_ls_weighting_scheme      calc
_refine_ls_wR_factor_gt          0.0854
_refine_ls_wR_factor_ref         0.0911
_reflns_Friedel_coverage         0
_reflns_number_gt                1915
_reflns_number_total             2041
_reflns_threshold_expression     'I > 2\s(I)'
_cod_data_source_file            c9nj04833b2.cif
_cod_data_source_block           hut19_48_270
_cod_database_code               7058922
_shelx_estimated_absorpt_t_min   0.101
_shelx_estimated_absorpt_t_max   0.299
_shelx_shelxl_version_number     2018/3
_shelx_res_file
;
TITL 270_a.res in P-1
    270_a.res
    created by SHELXL-2018/3 at 15:42:04 on 04-Sep-2019
REM Old TITL 270 in P1

REM SHELXT solution in P-1
REM R1 0.162,  Rweak 0.018,  Alpha 0.038,  Orientation as input
REM Formula found by SHELXT:  C8 N2 O2 I

CELL  1.54178   4.050430  10.831675  12.404311   111.5012    92.1054    94.6665
ZERR    1.000   0.000190   0.000278   0.000342     0.0025     0.0032     0.0029
LATT  1
SFAC C H CL I N
UNIT 16 8 4 2 4
TEMP -3.2
SIZE 0.143 0.094 0.054
L.S. 10
BOND $H
ACTA
LIST 4
FMAP 2
PLAN 20

RIGU

BIND I1 N1A
BIND I1 N1B

SIMU 0.01 N1A N1B N2A N2B C4A C4B C5A C5B C6A C6B C7A C7B C8A C8B

DFIX 31 C6A N2A C6B N2B

OMIT   3  -9   9
OMIT   2   9   3
OMIT   0  12   0

WGHT    0.048800    0.937200
FVAR       0.56779   0.54249   1.44309
I1    4    0.772748    0.294789    0.209030    11.00000    0.04502    0.03546 =
         0.04124    0.00173    0.00227    0.00527
CL1   3    0.719055   -0.006885    0.227834    11.00000    0.06784    0.04748 =
         0.03753    0.01226    0.01173   -0.00003
CL2   3    0.921281   -0.264338    0.046251    11.00000    0.08053    0.03728 =
         0.05054    0.01789    0.00638    0.00560
C1    1    0.907927    0.118242    0.083840    11.00000    0.03514    0.02938 =
         0.03458    0.00170    0.00225    0.00258
C2    1    0.876055   -0.001844    0.101976    11.00000    0.04071    0.03835 =
         0.03134    0.00721    0.00049    0.00059
C3    1    0.966948   -0.118225    0.019154    11.00000    0.04958    0.03251 =
         0.03443    0.00992   -0.00333   -0.00081
PART 1
AFIX  66
N1A   5    0.611781    0.558063    0.367015    21.00000    0.06331    0.02854 =
         0.04589    0.01097    0.00050    0.00466
C4A   1    0.450309    0.599309    0.287188    21.00000    0.06857    0.02175 =
         0.05131    0.01580    0.00389    0.00851
AFIX  43
H4A   2    0.378977    0.537812    0.213545    21.00000   -1.20000
AFIX  65
C5A   1    0.395451    0.732468    0.317430    21.00000    0.06364    0.02047 =
         0.04808    0.00531    0.00321    0.00793
AFIX  43
H5A   2    0.287415    0.760064    0.264020    21.00000   -1.20000
AFIX  65
C6A   1    0.502064    0.824383    0.427499    21.00000    0.06113    0.02524 =
         0.04455    0.00798    0.00681    0.00469
C7A   1    0.663537    0.783139    0.507327    21.00000    0.06067    0.01905 =
         0.04848    0.00718    0.00724    0.00935
AFIX  43
H7A   2    0.734868    0.844636    0.580970    21.00000   -1.20000
AFIX  65
C8A   1    0.718397    0.649980    0.477086    21.00000    0.06769    0.02374 =
         0.05261    0.01158    0.00123    0.00434
AFIX  43
H8A   2    0.826433    0.622385    0.530497    21.00000   -1.20000
AFIX   0
N2A   5    0.446561    0.961019    0.451039    21.00000    0.06575    0.02618 =
         0.04299    0.00799    0.00082    0.00969
PART  2
AFIX  66
N1B   5    0.566853    0.555766    0.351290   -21.00000    0.06662    0.02840 =
         0.05062    0.00342    0.00459    0.00150
C4B   1    0.424718    0.629785    0.294405   -21.00000    0.07021    0.02425 =
         0.05168   -0.00016    0.00662    0.00567
AFIX  43
H4B   2    0.334711    0.587913    0.218240   -21.00000   -1.20000
AFIX  65
C5B   1    0.417108    0.766386    0.351359   -21.00000    0.06514    0.02313 =
         0.04710    0.00512    0.00748    0.00573
AFIX  43
H5B   2    0.322010    0.815909    0.313299   -21.00000   -1.20000
AFIX  65
C6B   1    0.551634    0.828969    0.465197   -21.00000    0.05751    0.02438 =
         0.04724    0.00734    0.00529    0.00396
C7B   1    0.693769    0.754952    0.522083   -21.00000    0.06457    0.02087 =
         0.05306    0.00855    0.00406    0.00265
AFIX  43
H7B   2    0.783776    0.796825    0.598248   -21.00000   -1.20000
AFIX  65
C8B   1    0.701381    0.618350    0.465131   -21.00000    0.06132    0.01757 =
         0.04889   -0.00297    0.00468    0.00062
AFIX  43
H8B   2    0.796479    0.568828    0.503191   -21.00000   -1.20000
AFIX   0
N2B   5    0.548236    0.970669    0.529109   -21.00000    0.06710    0.02666 =
         0.04414    0.00663    0.00215    0.00969
HKLF 4




REM  270_a.res in P-1
REM wR2 = 0.091067, GooF = S = 1.10274, Restrained GooF = 1.02748 for all data
REM R1 = 0.033823 for 1915 Fo > 4sig(Fo) and 0.039136 for all 2041 data
REM 159 parameters refined using 343 restraints

END

WGHT      0.0488      0.9372

REM Highest difference peak  0.832,  deepest hole -1.110,  1-sigma level  0.154
Q1    1   0.7506  0.2868  0.1357  11.00000  0.05    0.83
Q2    1   0.9183  0.3008  0.1536  11.00000  0.05    0.81
Q3    1   0.6171  0.3201  0.1606  11.00000  0.05    0.81
Q4    1   0.6148  0.3075  0.2627  11.00000  0.05    0.73
Q5    1   0.4411  0.2651  0.1705  11.00000  0.05    0.64
Q6    1   1.0081  0.2804  0.2575  11.00000  0.05    0.64
Q7    1   0.3045  0.2800  0.2443  11.00000  0.05    0.64
Q8    1   0.8693  0.3091  0.2918  11.00000  0.05    0.60
Q9    1   1.2423  0.2995  0.1590  11.00000  0.05    0.53
Q10   1   0.6153 -0.2828 -0.0822  11.00000  0.05    0.46
Q11   1   0.9918  0.0049  0.2785  11.00000  0.05    0.46
Q12   1   1.1854 -0.2544 -0.0420  11.00000  0.05    0.46
Q13   1   1.0875  0.1307  0.0593  11.00000  0.05    0.44
Q14   1   0.8918  0.7215  0.6855  11.00000  0.05    0.43
Q15   1   0.8989 -0.2658 -0.0242  11.00000  0.05    0.41
Q16   1   1.3071 -0.1788  0.1167  11.00000  0.05    0.40
Q17   1   0.2568 -0.0162  0.2765  11.00000  0.05    0.40
Q18   1   1.2986 -0.1648  0.0305  11.00000  0.05    0.40
Q19   1   0.1406  0.4663  0.3243  11.00000  0.05    0.37
Q20   1   0.6636  0.7523  0.6746  11.00000  0.05    0.37
;
_shelx_res_checksum              74969
loop_
_symmetry_equiv_pos_as_xyz
'x, y, z'
'-x, -y, -z'
loop_
_atom_site_label
_atom_site_type_symbol
_atom_site_fract_x
_atom_site_fract_y
_atom_site_fract_z
_atom_site_U_iso_or_equiv
_atom_site_adp_type
_atom_site_occupancy
_atom_site_site_symmetry_order
_atom_site_calc_flag
_atom_site_refinement_flags_posn
_atom_site_refinement_flags_adp
_atom_site_refinement_flags_occupancy
_atom_site_disorder_assembly
_atom_site_disorder_group
I1 I 0.77275(7) 0.29479(3) 0.20903(2) 0.04408(14) Uani 1 1 d . . . . .
Cl1 Cl 0.7191(4) -0.00688(13) 0.22783(10) 0.0521(3) Uani 1 1 d . . . . .
Cl2 Cl 0.9213(4) -0.26434(12) 0.04625(12) 0.0556(3) Uani 1 1 d . . . . .
C1 C 0.9079(11) 0.1182(4) 0.0838(4) 0.0360(9) Uani 1 1 d . . . . .
C2 C 0.8761(12) -0.0018(5) 0.1020(4) 0.0387(10) Uani 1 1 d . . . . .
C3 C 0.9669(13) -0.1182(5) 0.0192(4) 0.0400(10) Uani 1 1 d . . . . .
N1A N 0.612(4) 0.5581(6) 0.3670(9) 0.0468(19) Uani 0.542(15) 1 d G U P A 1
C4A C 0.450(3) 0.5993(8) 0.2872(7) 0.0464(19) Uani 0.542(15) 1 d G U P A 1
H4A H 0.378977 0.537812 0.213545 0.056 Uiso 0.542(15) 1 calc R U P A 1
C5A C 0.395(3) 0.7325(10) 0.3174(8) 0.046(2) Uani 0.542(15) 1 d G U P A 1
H5A H 0.287415 0.760064 0.26402 0.055 Uiso 0.542(15) 1 calc R U P A 1
C6A C 0.502(3) 0.8244(6) 0.4275(9) 0.0450(18) Uani 0.542(15) 1 d DG U P A 1
C7A C 0.664(3) 0.7831(8) 0.5073(7) 0.044(2) Uani 0.542(15) 1 d G U P A 1
H7A H 0.734868 0.844636 0.58097 0.053 Uiso 0.542(15) 1 calc R U P A 1
C8A C 0.718(3) 0.6500(9) 0.4771(8) 0.049(2) Uani 0.542(15) 1 d G U P A 1
H8A H 0.826433 0.622385 0.530497 0.059 Uiso 0.542(15) 1 calc R U P A 1
N2A N 0.447(2) 0.9610(10) 0.4510(9) 0.046(2) Uani 0.542(15) 1 d D U P A 1
N1B N 0.567(4) 0.5558(7) 0.3513(11) 0.052(2) Uani 0.458(15) 1 d G U P A 2
C4B C 0.425(4) 0.6298(12) 0.2944(8) 0.053(2) Uani 0.458(15) 1 d G U P A 2
H4B H 0.334711 0.587913 0.21824 0.063 Uiso 0.458(15) 1 calc R U P A 2
C5B C 0.417(4) 0.7664(11) 0.3514(11) 0.047(2) Uani 0.458(15) 1 d G U P A 2
H5B H 0.32201 0.815909 0.313299 0.057 Uiso 0.458(15) 1 calc R U P A 2
C6B C 0.552(4) 0.8290(7) 0.4652(10) 0.045(2) Uani 0.458(15) 1 d DG U P A 2
C7B C 0.694(4) 0.7550(11) 0.5221(8) 0.048(2) Uani 0.458(15) 1 d G U P A 2
H7B H 0.783776 0.796825 0.598248 0.057 Uiso 0.458(15) 1 calc R U P A 2
C8B C 0.701(4) 0.6184(11) 0.4651(11) 0.047(2) Uani 0.458(15) 1 d G U P A 2
H8B H 0.796479 0.568828 0.503191 0.057 Uiso 0.458(15) 1 calc R U P A 2
N2B N 0.548(3) 0.9707(11) 0.5291(10) 0.048(2) Uani 0.458(15) 1 d D U P A 2
loop_
_atom_site_aniso_label
_atom_site_aniso_U_11
_atom_site_aniso_U_22
_atom_site_aniso_U_33
_atom_site_aniso_U_23
_atom_site_aniso_U_13
_atom_site_aniso_U_12
I1 0.0450(2) 0.03546(19) 0.0412(2) 0.00173(13) 0.00227(13) 0.00527(13)
Cl1 0.0678(8) 0.0475(6) 0.0375(6) 0.0123(5) 0.0117(5) 0.0000(6)
Cl2 0.0805(10) 0.0373(6) 0.0505(7) 0.0179(5) 0.0064(6) 0.0056(6)
C1 0.035(2) 0.029(2) 0.035(2) 0.0017(17) 0.0023(18) 0.0026(17)
C2 0.041(3) 0.038(2) 0.031(2) 0.0072(17) 0.0005(18) 0.0006(19)
C3 0.050(3) 0.033(2) 0.034(2) 0.0099(17) -0.0033(19) -0.0008(19)
N1A 0.063(4) 0.029(3) 0.046(3) 0.011(3) 0.001(3) 0.005(3)
C4A 0.069(4) 0.022(3) 0.051(3) 0.016(3) 0.004(3) 0.009(3)
C5A 0.064(4) 0.020(4) 0.048(4) 0.005(3) 0.003(4) 0.008(3)
C6A 0.061(4) 0.025(3) 0.045(4) 0.008(3) 0.007(3) 0.005(3)
C7A 0.061(4) 0.019(3) 0.048(3) 0.007(3) 0.007(3) 0.009(3)
C8A 0.068(4) 0.024(4) 0.053(4) 0.012(3) 0.001(3) 0.004(4)
N2A 0.066(4) 0.026(4) 0.043(4) 0.008(4) 0.001(3) 0.010(3)
N1B 0.067(5) 0.028(3) 0.051(4) 0.003(3) 0.005(4) 0.001(3)
C4B 0.070(4) 0.024(4) 0.052(4) 0.000(3) 0.007(4) 0.006(4)
C5B 0.065(4) 0.023(4) 0.047(4) 0.005(3) 0.007(4) 0.006(4)
C6B 0.058(4) 0.024(3) 0.047(4) 0.007(3) 0.005(4) 0.004(3)
C7B 0.065(4) 0.021(4) 0.053(4) 0.009(3) 0.004(4) 0.003(4)
C8B 0.061(4) 0.018(4) 0.049(4) -0.003(3) 0.005(3) 0.001(4)
N2B 0.067(5) 0.027(4) 0.044(4) 0.007(4) 0.002(4) 0.010(4)
loop_
_atom_type_symbol
_atom_type_description
_atom_type_scat_dispersion_real
_atom_type_scat_dispersion_imag
_atom_type_scat_source
C C 0.0181 0.0091 'International Tables Vol C Tables 4.2.6.8 and 6.1.1.4'
H H 0 0 'International Tables Vol C Tables 4.2.6.8 and 6.1.1.4'
Cl Cl 0.3639 0.7018 'International Tables Vol C Tables 4.2.6.8 and 6.1.1.4'
I I -0.3257 6.8362 'International Tables Vol C Tables 4.2.6.8 and 6.1.1.4'
N N 0.0311 0.018 'International Tables Vol C Tables 4.2.6.8 and 6.1.1.4'
loop_
_exptl_crystal_face_index_h
_exptl_crystal_face_index_k
_exptl_crystal_face_index_l
_exptl_crystal_face_perp_dist
0 6 1 0.0747
2 3 -2 0.0542
3 0 1 0.0594
0 -6 -1 0.0462
0 -4 8 0.0381
-3 0 -1 0.0276
0 7 -3 0.0515
0 4 -8 0.0132
1 3 5 0.062
0 -5 7 0.0339
0 1 -8 0.0283
2 4 2 0.0644
loop_
_geom_angle_atom_site_label_1
_geom_angle_atom_site_label_2
_geom_angle_atom_site_label_3
_geom_angle
_geom_angle_site_symmetry_1
_geom_angle_site_symmetry_3
C1 I1 N1B 170.5(3) . .
C1 I1 N1A 173.4(3) . .
C3 C1 C2 118.2(4) 2_755 .
C3 C1 I1 120.8(3) 2_755 .
C2 C1 I1 121.0(3) . .
C3 C2 C1 120.8(4) . .
C3 C2 Cl1 119.4(4) . .
C1 C2 Cl1 119.8(4) . .
C2 C3 C1 121.0(4) . 2_755
C2 C3 Cl2 118.7(4) . .
C1 C3 Cl2 120.2(4) 2_755 .
C4A N1A C8A 120 . .
C4A N1A I1 99.4(5) . .
C8A N1A I1 138.0(5) . .
N1A C4A C5A 120 . .
N1A C4A H4A 120 . .
C5A C4A H4A 120 . .
C6A C5A C4A 120 . .
C6A C5A H5A 120 . .
C4A C5A H5A 120 . .
C5A C6A C7A 120 . .
C5A C6A N2A 116.8(7) . .
C7A C6A N2A 123.2(7) . .
C8A C7A C6A 120 . .
C8A C7A H7A 120 . .
C6A C7A H7A 120 . .
C7A C8A N1A 120 . .
C7A C8A H8A 120 . .
N1A C8A H8A 120 . .
N2A N2A C6A 114.1(12) 2_676 .
C4B N1B C8B 120 . .
C4B N1B I1 118.0(7) . .
C8B N1B I1 119.0(6) . .
C5B C4B N1B 120 . .
C5B C4B H4B 120 . .
N1B C4B H4B 120 . .
C4B C5B C6B 120 . .
C4B C5B H5B 120 . .
C6B C5B H5B 120 . .
C7B C6B C5B 120 . .
C7B C6B N2B 117.6(9) . .
C5B C6B N2B 122.4(9) . .
C6B C7B C8B 120 . .
C6B C7B H7B 120 . .
C8B C7B H7B 120 . .
C7B C8B N1B 120 . .
C7B C8B H8B 120 . .
N1B C8B H8B 120 . .
N2B N2B C6B 113.5(15) 2_676 .
loop_
_geom_bond_atom_site_label_1
_geom_bond_atom_site_label_2
_geom_bond_distance
_geom_bond_site_symmetry_2
I1 C1 2.103(4) .
I1 N1B 2.939(9) .
I1 N1A 2.949(7) .
Cl1 C2 1.725(5) .
Cl2 C3 1.732(5) .
C1 C3 1.392(7) 2_755
C1 C2 1.396(7) .
C2 C3 1.391(7) .
N1A C4A 1.39 .
N1A C8A 1.39 .
C4A C5A 1.39 .
C4A H4A 0.93 .
C5A C6A 1.39 .
C5A H5A 0.93 .
C6A C7A 1.39 .
C6A N2A 1.438(10) .
C7A C8A 1.39 .
C7A H7A 0.93 .
C8A H8A 0.93 .
N2A N2A 1.24(2) 2_676
N1B C4B 1.39 .
N1B C8B 1.39 .
C4B C5B 1.39 .
C4B H4B 0.93 .
C5B C6B 1.39 .
C5B H5B 0.93 .
C6B C7B 1.39 .
C6B N2B 1.448(12) .
C7B C8B 1.39 .
C7B H7B 0.93 .
C8B H8B 0.93 .
N2B N2B 1.20(3) 2_676
