#------------------------------------------------------------------------------
#$Date: 2019-10-29 06:15:30 +0200 (Tue, 29 Oct 2019) $
#$Revision: 220351 $
#$URL: file:///home/coder/svn-repositories/cod/cif/7/05/89/7058935.cif $
#------------------------------------------------------------------------------
#
# This file is available in the Crystallography Open Database (COD),
# http://www.crystallography.net/
#
# All data on this site have been placed in the public domain by the
# contributors.
#
data_7058935
loop_
_publ_author_name
'Juneja, Navkiran Kaur'
'Unruh, Daniel K.'
'Bosch, Eric'
'Groeneman , Ryan'
'Hutchins, Kristin M.'
_publ_section_title
;
 Effects of dynamic pedal motion and static disorder on thermal expansion
 within halogen bonded co-crystals
;
_journal_name_full               'New Journal of Chemistry'
_journal_paper_doi               10.1039/C9NJ04833B
_journal_year                    2019
_chemical_formula_sum            'C16 H8 Cl4 I2 N4'
_chemical_formula_weight         651.86
_space_group_IT_number           2
_space_group_name_Hall           '-P 1'
_space_group_name_H-M_alt        'P -1'
_symmetry_cell_setting           triclinic
_symmetry_Int_Tables_number      2
_symmetry_space_group_name_Hall  '-P 1'
_symmetry_space_group_name_H-M   'P -1'
_atom_sites_solution_hydrogens   geom
_atom_sites_solution_primary     dual
_atom_sites_solution_secondary   difmap
_audit_creation_date             2019-09-05T11:52:19-00:00
_audit_creation_method           'WinGX routine CIF_UPDATE'
_audit_update_record
;
2019-09-20 deposited with the CCDC.    2019-10-28 downloaded from the CCDC.
;
_cell_angle_alpha                111.496(3)
_cell_angle_beta                 92.077(3)
_cell_angle_gamma                94.678(3)
_cell_formula_units_Z            1
_cell_length_a                   4.04169(16)
_cell_length_b                   10.8302(3)
_cell_length_c                   12.3901(3)
_cell_measurement_reflns_used    9578
_cell_measurement_temperature    250(2)
_cell_measurement_theta_max      76.725
_cell_measurement_theta_min      3.867
_cell_volume                     501.66(3)
_computing_cell_refinement       'CrysAlisPro 1.171.40.58a (Rigaku OD, 2019)'
_computing_data_collection       'CrysAlisPro 1.171.40.58a (Rigaku OD, 2019)'
_computing_data_reduction        'CrysAlisPro 1.171.40.58a (Rigaku OD, 2019)'
_computing_structure_refinement  'SHELXL-2018/3 (Sheldrick, 2018)'
_computing_structure_solution    'SHELXT 2014/5 (Sheldrick, 2014)'
_diffrn_ambient_environment      N~2~
_diffrn_ambient_temperature      250(2)
_diffrn_detector                 'Hybrid Pixel Array Detector'
_diffrn_detector_area_resol_mean 10
_diffrn_detector_type            HyPix
_diffrn_measured_fraction_theta_full 0.995
_diffrn_measured_fraction_theta_max 0.957
_diffrn_measurement_device       'four-circle diffractometer'
_diffrn_measurement_device_type  'XtaLAB Synergy, Dualflex, HyPix'
_diffrn_measurement_method       '\w scans'
_diffrn_orient_matrix_type
'CrysAlisPro convention (1999,Acta A55,543-557)'
_diffrn_orient_matrix_UB_11      0.1503321
_diffrn_orient_matrix_UB_12      0.1446575
_diffrn_orient_matrix_UB_13      0.0679349
_diffrn_orient_matrix_UB_21      0.0579524
_diffrn_orient_matrix_UB_22      0.0188035
_diffrn_orient_matrix_UB_23      -0.1154726
_diffrn_orient_matrix_UB_31      -0.3479241
_diffrn_orient_matrix_UB_32      0.0483621
_diffrn_orient_matrix_UB_33      -0.0004097
_diffrn_radiation_monochromator  mirror
_diffrn_radiation_probe          x-ray
_diffrn_radiation_type           CuK\a
_diffrn_radiation_wavelength     1.54178
_diffrn_reflns_av_R_equivalents  0.0799
_diffrn_reflns_av_unetI/netI     0.0614
_diffrn_reflns_Laue_measured_fraction_full 0.995
_diffrn_reflns_Laue_measured_fraction_max 0.957
_diffrn_reflns_limit_h_max       4
_diffrn_reflns_limit_h_min       -5
_diffrn_reflns_limit_k_max       13
_diffrn_reflns_limit_k_min       -13
_diffrn_reflns_limit_l_max       15
_diffrn_reflns_limit_l_min       -15
_diffrn_reflns_number            16382
_diffrn_reflns_point_group_measured_fraction_full 0.995
_diffrn_reflns_point_group_measured_fraction_max 0.957
_diffrn_reflns_theta_full        67.679
_diffrn_reflns_theta_max         77.141
_diffrn_reflns_theta_min         3.844
_diffrn_source                   'micro-focus sealed X-ray tube'
_diffrn_source_type              'PhotonJet (Cu) X-ray Source'
_exptl_absorpt_coefficient_mu    29.601
_exptl_absorpt_correction_T_max  0.472
_exptl_absorpt_correction_T_min  0.068
_exptl_absorpt_correction_type   gaussian
_exptl_absorpt_process_details
;
        CrysAlisPro 1.171.40.58a (Rigaku Oxford Diffraction, 2019)
Numerical absorption correction based on gaussian integration over
                        a multifaceted crystal model
        Empirical absorption correction using spherical harmonics,
 implemented in SCALE3 ABSPACK scaling algorithm.
;
_exptl_crystal_colour            'clear pale yellow'
_exptl_crystal_density_diffrn    2.158
_exptl_crystal_description       block
_exptl_crystal_F_000             306
_exptl_crystal_size_max          0.143
_exptl_crystal_size_mid          0.094
_exptl_crystal_size_min          0.054
_refine_diff_density_max         1.156
_refine_diff_density_min         -1.332
_refine_diff_density_rms         0.158
_refine_ls_extinction_method     none
_refine_ls_goodness_of_fit_ref   1.089
_refine_ls_hydrogen_treatment    constr
_refine_ls_matrix_type           full
_refine_ls_number_parameters     159
_refine_ls_number_reflns         2024
_refine_ls_number_restraints     343
_refine_ls_restrained_S_all      1.014
_refine_ls_R_factor_all          0.0408
_refine_ls_R_factor_gt           0.0355
_refine_ls_shift/su_max          0.001
_refine_ls_shift/su_mean         0
_refine_ls_structure_factor_coef Fsqd
_refine_ls_weighting_details
'w=1/[\s^2^(Fo^2^)+(0.0551P)^2^+0.8922P] where P=(Fo^2^+2Fc^2^)/3'
_refine_ls_weighting_scheme      calc
_refine_ls_wR_factor_gt          0.0902
_refine_ls_wR_factor_ref         0.0944
_reflns_Friedel_coverage         0
_reflns_number_gt                1925
_reflns_number_total             2024
_reflns_threshold_expression     'I > 2\s(I)'
_cod_data_source_file            c9nj04833b2.cif
_cod_data_source_block           hut19_48_250
_cod_database_code               7058935
_shelx_estimated_absorpt_t_min   0.101
_shelx_estimated_absorpt_t_max   0.298
_shelx_shelxl_version_number     2018/3
_shelx_res_file
;
TITL 250_a.res in P-1
    250_a.res
    created by SHELXL-2018/3 at 16:04:45 on 04-Sep-2019
REM Old TITL 250 in P1

REM SHELXT solution in P-1
REM R1 0.160,  Rweak 0.014,  Alpha 0.073,  Orientation as input
REM Formula found by SHELXT:  C9 N O2 I

CELL  1.54178   4.041690  10.830221  12.390096   111.4964    92.0774    94.6779
ZERR    1.000   0.000162   0.000281   0.000339     0.0026     0.0028     0.0026
LATT  1
SFAC C H CL I N
UNIT 16 8 4 2 4
TEMP -23.2
SIZE 0.143 0.094 0.054
L.S. 10
BOND $H
ACTA
LIST 4
FMAP 2
PLAN 20

RIGU

BIND I1 N1A
BIND I1 N1B

SIMU 0.01 N1A N1B N2A N2B C4A C4B C5A C5B C6A C6B C7A C7B C8A C8B

DFIX 31 C6A N2A C6B N2B

OMIT   2   9   3
OMIT   4  -8   6
OMIT   0  12   0
OMIT  -3  10   1
OMIT  -4   5   0

WGHT    0.055100    0.892200
FVAR       0.54785   0.54633   1.44314
I1    4    0.772417    0.294887    0.209397    11.00000    0.04038    0.03239 =
         0.03878    0.00181    0.00188    0.00534
CL1   3    0.717463   -0.007024    0.227984    11.00000    0.06115    0.04374 =
         0.03573    0.01163    0.01052    0.00083
CL2   3    0.920057   -0.264472    0.046062    11.00000    0.07324    0.03415 =
         0.04639    0.01622    0.00547    0.00496
C1    1    0.909115    0.118492    0.084130    11.00000    0.03308    0.02871 =
         0.03409    0.00331    0.00005   -0.00026
C2    1    0.874199   -0.002056    0.102308    11.00000    0.03308    0.03653 =
         0.02951    0.00697    0.00014    0.00137
C3    1    0.966613   -0.118168    0.018908    11.00000    0.03831    0.02747 =
         0.03580    0.00737   -0.00442    0.00212
PART 1
AFIX  66
N1A   5    0.606019    0.557744    0.366869    21.00000    0.05769    0.02620 =
         0.04458    0.01117    0.00103    0.00821
C4A   1    0.441685    0.598848    0.287355    21.00000    0.06257    0.02007 =
         0.04887    0.01724    0.00533    0.00426
AFIX  43
H4A   2    0.366545    0.536483    0.213231    21.00000   -1.20000
AFIX  65
C5A   1    0.388460    0.732170    0.317451    21.00000    0.06069    0.01804 =
         0.04580    0.00578    0.00170    0.00080
AFIX  43
H5A   2    0.277326    0.759966    0.263679    21.00000   -1.20000
AFIX  65
C6A   1    0.499570    0.824390    0.427059    21.00000    0.05653    0.02138 =
         0.04079    0.00894    0.00749    0.00416
C7A   1    0.663905    0.783289    0.506574    21.00000    0.05768    0.01657 =
         0.04437    0.01005    0.00965    0.00553
AFIX  43
H7A   2    0.739043    0.845655    0.580698    21.00000   -1.20000
AFIX  65
C8A   1    0.717132    0.649967    0.476480    21.00000    0.06133    0.02218 =
         0.04764    0.01331    0.00483    0.00518
AFIX  43
H8A   2    0.828265    0.622172    0.530253    21.00000   -1.20000
AFIX   0
N2A   5    0.443898    0.961340    0.450960    21.00000    0.06083    0.02326 =
         0.04050    0.00830   -0.00230    0.00451
PART  2
AFIX  66
N1B   5    0.572974    0.556097    0.351042   -21.00000    0.05931    0.02729 =
         0.04892    0.00362    0.00508    0.00022
C4B   1    0.433333    0.629801    0.293227   -21.00000    0.06446    0.02282 =
         0.04972    0.00065    0.00427   -0.00046
AFIX  43
H4B   2    0.346784    0.587404    0.215621   -21.00000   -1.20000
AFIX  65
C5B   1    0.421674    0.766199    0.350168   -21.00000    0.05903    0.02123 =
         0.04508    0.00586    0.00605   -0.00071
AFIX  43
H5B   2    0.327240    0.816042    0.311069   -21.00000   -1.20000
AFIX  65
C6B   1    0.549657    0.828893    0.464925   -21.00000    0.05306    0.02043 =
         0.04452    0.00679    0.00515    0.00218
C7B   1    0.689299    0.755190    0.522741   -21.00000    0.05935    0.01738 =
         0.04963    0.00886    0.00633    0.00126
AFIX  43
H7B   2    0.775848    0.797588    0.600347   -21.00000   -1.20000
AFIX  65
C8B   1    0.700960    0.618793    0.465801   -21.00000    0.05878    0.01530 =
         0.04622   -0.00235    0.00477   -0.00239
AFIX  43
H8B   2    0.795394    0.568950    0.504900   -21.00000   -1.20000
AFIX   0
N2B   5    0.545936    0.970357    0.528790   -21.00000    0.06132    0.02333 =
         0.04370    0.00640    0.00158    0.00473
HKLF 4




REM  250_a.res in P-1
REM wR2 = 0.094419, GooF = S = 1.08920, Restrained GooF = 1.01445 for all data
REM R1 = 0.035533 for 1925 Fo > 4sig(Fo) and 0.040836 for all 2024 data
REM 159 parameters refined using 343 restraints

END

WGHT      0.0551      0.8870

REM Highest difference peak  1.156,  deepest hole -1.332,  1-sigma level  0.158
Q1    1   0.7349  0.2890  0.1360  11.00000  0.05    1.16
Q2    1   0.5904  0.3248  0.2500  11.00000  0.05    0.95
Q3    1   0.8484  0.3017  0.2937  11.00000  0.05    0.90
Q4    1   0.9504  0.2782  0.1626  11.00000  0.05    0.88
Q5    1   0.4173  0.2601  0.1812  11.00000  0.05    0.67
Q6    1   0.3382  0.2767  0.2703  11.00000  0.05    0.56
Q7    1   1.0356  0.2857  0.3201  11.00000  0.05    0.52
Q8    1   0.6059 -0.2864 -0.0795  11.00000  0.05    0.47
Q9    1   1.2219  0.3041  0.1462  11.00000  0.05    0.47
Q10   1   1.1951 -0.2568 -0.0369  11.00000  0.05    0.47
Q11   1   0.7052  0.3143  0.3662  11.00000  0.05    0.46
Q12   1   1.3461 -0.2756  0.0601  11.00000  0.05    0.45
Q13   1   0.8893 -0.2658 -0.0237  11.00000  0.05    0.44
Q14   1   0.8983 -0.2521  0.1133  11.00000  0.05    0.43
Q15   1   0.6407 -0.0325  0.1121  11.00000  0.05    0.43
Q16   1   0.8008  0.1794  0.0978  11.00000  0.05    0.43
Q17   1   0.8648  0.7506  0.7013  11.00000  0.05    0.42
Q18   1   0.9911  0.2994  0.1051  11.00000  0.05    0.42
Q19   1   0.6193  0.8440  0.7354  11.00000  0.05    0.41
Q20   1   0.6611  0.1596  0.0182  11.00000  0.05    0.41
;
_shelx_res_checksum              94879
loop_
_symmetry_equiv_pos_as_xyz
'x, y, z'
'-x, -y, -z'
loop_
_atom_site_label
_atom_site_type_symbol
_atom_site_fract_x
_atom_site_fract_y
_atom_site_fract_z
_atom_site_U_iso_or_equiv
_atom_site_adp_type
_atom_site_occupancy
_atom_site_site_symmetry_order
_atom_site_calc_flag
_atom_site_refinement_flags_posn
_atom_site_refinement_flags_adp
_atom_site_refinement_flags_occupancy
_atom_site_disorder_assembly
_atom_site_disorder_group
I1 I 0.77242(7) 0.29489(3) 0.20940(2) 0.04035(14) Uani 1 1 d . . . . .
Cl1 Cl 0.7175(4) -0.00702(13) 0.22798(10) 0.0478(3) Uani 1 1 d . . . . .
Cl2 Cl 0.9201(4) -0.26447(12) 0.04606(11) 0.0509(3) Uani 1 1 d . . . . .
C1 C 0.9091(12) 0.1185(4) 0.0841(4) 0.0346(9) Uani 1 1 d . . . . .
C2 C 0.8742(12) -0.0021(5) 0.1023(4) 0.0347(9) Uani 1 1 d . . . . .
C3 C 0.9666(12) -0.1182(4) 0.0189(4) 0.0354(9) Uani 1 1 d . . . . .
N1A N 0.606(4) 0.5577(6) 0.3669(9) 0.0432(18) Uani 0.546(15) 1 d G U P A 1
C4A C 0.442(3) 0.5988(8) 0.2874(7) 0.0425(18) Uani 0.546(15) 1 d G U P A 1
H4A H 0.366545 0.536483 0.213231 0.051 Uiso 0.546(15) 1 calc R U P A 1
C5A C 0.388(3) 0.7322(10) 0.3175(8) 0.0435(19) Uani 0.546(15) 1 d G U P A 1
H5A H 0.277326 0.759966 0.263679 0.052 Uiso 0.546(15) 1 calc R U P A 1
C6A C 0.500(3) 0.8244(6) 0.4271(9) 0.0402(18) Uani 0.546(15) 1 d DG U P A 1
C7A C 0.664(3) 0.7833(8) 0.5066(7) 0.0396(19) Uani 0.546(15) 1 d G U P A 1
H7A H 0.739043 0.845655 0.580698 0.048 Uiso 0.546(15) 1 calc R U P A 1
C8A C 0.717(3) 0.6500(9) 0.4765(8) 0.0435(19) Uani 0.546(15) 1 d G U P A 1
H8A H 0.828265 0.622172 0.530253 0.052 Uiso 0.546(15) 1 calc R U P A 1
N2A N 0.444(2) 0.9613(10) 0.4510(9) 0.043(2) Uani 0.546(15) 1 d D U P A 1
N1B N 0.573(5) 0.5561(7) 0.3510(12) 0.048(2) Uani 0.454(15) 1 d G U P A 2
C4B C 0.433(4) 0.6298(12) 0.2932(8) 0.050(2) Uani 0.454(15) 1 d G U P A 2
H4B H 0.346784 0.587404 0.215621 0.06 Uiso 0.454(15) 1 calc R U P A 2
C5B C 0.422(4) 0.7662(11) 0.3502(11) 0.044(2) Uani 0.454(15) 1 d G U P A 2
H5B H 0.32724 0.816042 0.311069 0.053 Uiso 0.454(15) 1 calc R U P A 2
C6B C 0.550(3) 0.8289(7) 0.4649(11) 0.041(2) Uani 0.454(15) 1 d DG U P A 2
C7B C 0.689(4) 0.7552(11) 0.5227(8) 0.043(2) Uani 0.454(15) 1 d G U P A 2
H7B H 0.775848 0.797588 0.600347 0.052 Uiso 0.454(15) 1 calc R U P A 2
C8B C 0.701(4) 0.6188(11) 0.4658(11) 0.044(2) Uani 0.454(15) 1 d G U P A 2
H8B H 0.795394 0.56895 0.5049 0.053 Uiso 0.454(15) 1 calc R U P A 2
N2B N 0.546(3) 0.9704(12) 0.5288(10) 0.045(2) Uani 0.454(15) 1 d D U P A 2
loop_
_atom_site_aniso_label
_atom_site_aniso_U_11
_atom_site_aniso_U_22
_atom_site_aniso_U_33
_atom_site_aniso_U_23
_atom_site_aniso_U_13
_atom_site_aniso_U_12
I1 0.0404(2) 0.0324(2) 0.0388(2) 0.00181(13) 0.00188(13) 0.00534(13)
Cl1 0.0611(8) 0.0437(6) 0.0357(6) 0.0116(5) 0.0105(5) 0.0008(5)
Cl2 0.0732(9) 0.0342(6) 0.0464(7) 0.0162(5) 0.0055(6) 0.0050(6)
C1 0.033(2) 0.029(2) 0.034(2) 0.0033(17) 0.0000(18) -0.0003(17)
C2 0.033(2) 0.037(2) 0.030(2) 0.0070(17) 0.0001(17) 0.0014(18)
C3 0.038(2) 0.027(2) 0.036(2) 0.0074(17) -0.0044(19) 0.0021(17)
N1A 0.058(4) 0.026(3) 0.045(3) 0.011(2) 0.001(3) 0.008(3)
C4A 0.063(4) 0.020(3) 0.049(3) 0.017(3) 0.005(3) 0.004(3)
C5A 0.061(4) 0.018(4) 0.046(4) 0.006(3) 0.002(4) 0.001(3)
C6A 0.057(4) 0.021(3) 0.041(4) 0.009(3) 0.007(3) 0.004(3)
C7A 0.058(4) 0.017(3) 0.044(3) 0.010(3) 0.010(3) 0.006(3)
C8A 0.061(4) 0.022(4) 0.048(3) 0.013(3) 0.005(3) 0.005(4)
N2A 0.061(4) 0.023(4) 0.041(4) 0.008(4) -0.002(3) 0.005(3)
N1B 0.059(4) 0.027(3) 0.049(4) 0.004(3) 0.005(4) 0.000(3)
C4B 0.064(4) 0.023(4) 0.050(4) 0.001(3) 0.004(4) 0.000(4)
C5B 0.059(4) 0.021(4) 0.045(4) 0.006(3) 0.006(4) -0.001(4)
C6B 0.053(4) 0.020(3) 0.045(4) 0.007(3) 0.005(4) 0.002(3)
C7B 0.059(4) 0.017(4) 0.050(4) 0.009(3) 0.006(4) 0.001(4)
C8B 0.059(4) 0.015(4) 0.046(4) -0.002(3) 0.005(3) -0.002(4)
N2B 0.061(5) 0.023(4) 0.044(4) 0.006(4) 0.002(4) 0.005(4)
loop_
_atom_type_symbol
_atom_type_description
_atom_type_scat_dispersion_real
_atom_type_scat_dispersion_imag
_atom_type_scat_source
C C 0.0181 0.0091 'International Tables Vol C Tables 4.2.6.8 and 6.1.1.4'
H H 0 0 'International Tables Vol C Tables 4.2.6.8 and 6.1.1.4'
Cl Cl 0.3639 0.7018 'International Tables Vol C Tables 4.2.6.8 and 6.1.1.4'
I I -0.3257 6.8362 'International Tables Vol C Tables 4.2.6.8 and 6.1.1.4'
N N 0.0311 0.018 'International Tables Vol C Tables 4.2.6.8 and 6.1.1.4'
loop_
_exptl_crystal_face_index_h
_exptl_crystal_face_index_k
_exptl_crystal_face_index_l
_exptl_crystal_face_perp_dist
0 6 1 0.0747
2 3 -2 0.0542
3 0 1 0.0594
0 -6 -1 0.0462
0 -4 8 0.0381
-3 0 -1 0.0276
0 7 -3 0.0515
0 4 -8 0.0132
1 3 5 0.062
0 -5 7 0.0339
0 1 -8 0.0283
2 4 2 0.0644
loop_
_geom_angle_atom_site_label_1
_geom_angle_atom_site_label_2
_geom_angle_atom_site_label_3
_geom_angle
_geom_angle_site_symmetry_1
C1 I1 N1B 170.3(3) .
C1 I1 N1A 173.4(3) .
C3 C1 C2 118.3(4) 2_755
C3 C1 I1 121.0(3) 2_755
C2 C1 I1 120.7(3) .
C3 C2 C1 120.2(4) .
C3 C2 Cl1 119.8(4) .
C1 C2 Cl1 120.0(4) .
C1 C3 C2 121.5(4) 2_755
C1 C3 Cl2 120.2(4) 2_755
C2 C3 Cl2 118.4(4) .
C4A N1A C8A 120 .
C4A N1A I1 99.9(5) .
C8A N1A I1 137.3(5) .
C5A C4A N1A 120 .
C5A C4A H4A 120 .
N1A C4A H4A 120 .
C6A C5A C4A 120 .
C6A C5A H5A 120 .
C4A C5A H5A 120 .
C5A C6A C7A 120 .
C5A C6A N2A 116.9(7) .
C7A C6A N2A 123.1(7) .
C6A C7A C8A 120 .
C6A C7A H7A 120 .
C8A C7A H7A 120 .
C7A C8A N1A 120 .
C7A C8A H8A 120 .
N1A C8A H8A 120 .
N2A N2A C6A 113.6(11) 2_676
C4B N1B C8B 120 .
C4B N1B I1 117.6(7) .
C8B N1B I1 119.8(7) .
C5B C4B N1B 120 .
C5B C4B H4B 120 .
N1B C4B H4B 120 .
C6B C5B C4B 120 .
C6B C5B H5B 120 .
C4B C5B H5B 120 .
C5B C6B C7B 120 .
C5B C6B N2B 122.7(9) .
C7B C6B N2B 117.3(9) .
C6B C7B C8B 120 .
C6B C7B H7B 120 .
C8B C7B H7B 120 .
C7B C8B N1B 120 .
C7B C8B H8B 120 .
N1B C8B H8B 120 .
N2B N2B C6B 113.9(15) 2_676
loop_
_geom_bond_atom_site_label_1
_geom_bond_atom_site_label_2
_geom_bond_distance
_geom_bond_site_symmetry_2
I1 C1 2.104(5) .
I1 N1B 2.927(9) .
I1 N1A 2.950(7) .
Cl1 C2 1.719(5) .
Cl2 C3 1.734(5) .
C1 C3 1.388(7) 2_755
C1 C2 1.401(7) .
C2 C3 1.393(7) .
N1A C4A 1.39 .
N1A C8A 1.39 .
C4A C5A 1.39 .
C4A H4A 0.94 .
C5A C6A 1.39 .
C5A H5A 0.94 .
C6A C7A 1.39 .
C6A N2A 1.441(10) .
C7A C8A 1.39 .
C7A H7A 0.94 .
C8A H8A 0.94 .
N2A N2A 1.24(2) 2_676
N1B C4B 1.39 .
N1B C8B 1.39 .
C4B C5B 1.39 .
C4B H4B 0.94 .
C5B C6B 1.39 .
C5B H5B 0.94 .
C6B C7B 1.39 .
C6B N2B 1.446(12) .
C7B C8B 1.39 .
C7B H7B 0.94 .
C8B H8B 0.94 .
N2B N2B 1.19(3) 2_676
