#------------------------------------------------------------------------------
#$Date: 2019-10-29 06:15:30 +0200 (Tue, 29 Oct 2019) $
#$Revision: 220351 $
#$URL: file:///home/coder/svn-repositories/cod/cif/7/05/89/7058930.cif $
#------------------------------------------------------------------------------
#
# This file is available in the Crystallography Open Database (COD),
# http://www.crystallography.net/
#
# All data on this site have been placed in the public domain by the
# contributors.
#
data_7058930
loop_
_publ_author_name
'Juneja, Navkiran Kaur'
'Unruh, Daniel K.'
'Bosch, Eric'
'Groeneman , Ryan'
'Hutchins, Kristin M.'
_publ_section_title
;
 Effects of dynamic pedal motion and static disorder on thermal expansion
 within halogen bonded co-crystals
;
_journal_name_full               'New Journal of Chemistry'
_journal_paper_doi               10.1039/C9NJ04833B
_journal_year                    2019
_chemical_formula_moiety         'C12 H8 N2, C6 Cl4 I2'
_chemical_formula_sum            'C18 H8 Cl4 I2 N2'
_chemical_formula_weight         647.86
_chemical_name_common
'Cocrystal 1,2,4,5-tetrachlorobenzene and 1,2-bis(4-pyridyl)ethyne'
_space_group_crystal_system      triclinic
_space_group_IT_number           2
_space_group_name_Hall           '-P 1'
_space_group_name_H-M_alt        'P -1'
_symmetry_space_group_name_Hall  '-P 1'
_symmetry_space_group_name_H-M   'P -1'
_atom_sites_solution_hydrogens   geom
_audit_creation_method           SHELXL-2018/3
_audit_update_record
;
2019-09-24 deposited with the CCDC.    2019-10-28 downloaded from the CCDC.
;
_cell_angle_alpha                111.4890(10)
_cell_angle_beta                 90.6370(10)
_cell_angle_gamma                97.4090(10)
_cell_formula_units_Z            1
_cell_length_a                   4.0413(2)
_cell_length_b                   11.1833(6)
_cell_length_c                   12.1828(7)
_cell_measurement_reflns_used    4869
_cell_measurement_temperature    250(2)
_cell_measurement_theta_max      27.24
_cell_measurement_theta_min      3.13
_cell_volume                     507.03(5)
_computing_cell_refinement       'Bruker SMART'
_computing_data_collection       'Bruker SMART'
_computing_data_reduction        'Bruker SAINT'
_computing_molecular_graphics    'XSeed (Barbour, 2001)'
_computing_publication_material  'XSeed (Barbour, 2001)'
_computing_structure_refinement  'SHELXL-2018/3 (Sheldrick, 2015)'
_computing_structure_solution    'SHELXT 2018/2 (Sheldrick, 2015)'
_diffrn_ambient_temperature      250(2)
_diffrn_detector_area_resol_mean 8.3660
_diffrn_measured_fraction_theta_full 1.000
_diffrn_measured_fraction_theta_max 0.999
_diffrn_measurement_device_type  'Bruker APEX-II CCD'
_diffrn_measurement_method       'phi and omega scans'
_diffrn_radiation_monochromator  graphite
_diffrn_radiation_source         'fine-focus sealed tube'
_diffrn_radiation_type           MoK\a
_diffrn_radiation_wavelength     0.71073
_diffrn_reflns_av_R_equivalents  0.0160
_diffrn_reflns_av_unetI/netI     0.0159
_diffrn_reflns_Laue_measured_fraction_full 1.000
_diffrn_reflns_Laue_measured_fraction_max 0.999
_diffrn_reflns_limit_h_max       5
_diffrn_reflns_limit_h_min       -5
_diffrn_reflns_limit_k_max       14
_diffrn_reflns_limit_k_min       -14
_diffrn_reflns_limit_l_max       15
_diffrn_reflns_limit_l_min       -15
_diffrn_reflns_number            6351
_diffrn_reflns_point_group_measured_fraction_full 1.000
_diffrn_reflns_point_group_measured_fraction_max 0.999
_diffrn_reflns_theta_full        25.242
_diffrn_reflns_theta_max         27.223
_diffrn_reflns_theta_min         1.800
_exptl_absorpt_coefficient_mu    3.634
_exptl_absorpt_correction_T_max  1.000
_exptl_absorpt_correction_T_min  0.705
_exptl_absorpt_correction_type   multi-scan
_exptl_absorpt_process_details   'SADABS V2014(Bruker AXS)'
_exptl_crystal_colour            colourless
_exptl_crystal_density_diffrn    2.122
_exptl_crystal_description       cut
_exptl_crystal_F_000             304
_exptl_crystal_size_max          0.30
_exptl_crystal_size_mid          0.18
_exptl_crystal_size_min          0.03
_refine_diff_density_max         0.503
_refine_diff_density_min         -0.310
_refine_diff_density_rms         0.067
_refine_ls_extinction_method     none
_refine_ls_goodness_of_fit_ref   1.072
_refine_ls_hydrogen_treatment    constr
_refine_ls_matrix_type           full
_refine_ls_number_parameters     118
_refine_ls_number_reflns         2267
_refine_ls_number_restraints     0
_refine_ls_restrained_S_all      1.072
_refine_ls_R_factor_all          0.0154
_refine_ls_R_factor_gt           0.0146
_refine_ls_shift/su_max          0.001
_refine_ls_shift/su_mean         0.000
_refine_ls_structure_factor_coef Fsqd
_refine_ls_weighting_details
'w=1/[\s^2^(Fo^2^)+(0.0165P)^2^+0.1762P] where P=(Fo^2^+2Fc^2^)/3'
_refine_ls_weighting_scheme      calc
_refine_ls_wR_factor_gt          0.0345
_refine_ls_wR_factor_ref         0.0349
_reflns_Friedel_coverage         0.000
_reflns_number_gt                2191
_reflns_number_total             2267
_reflns_threshold_expression     'I > 2\s(I)'
_cod_data_source_file            c9nj04833b2.cif
_cod_data_source_block           eb886250_a
_cod_database_code               7058930
_shelx_shelxl_version_number     2018/3
_shelx_space_group_comment
;
The symmetry employed for this shelxl refinement is uniquely defined
by the following loop, which should always be used as a source of
symmetry information in preference to the above space-group names.
They are only intended as comments.
;
_shelx_res_file
;
TITL eb886250_a.res in P-1
    I:\XRAYDATA\EB8862~2\eb886250_a.res
    created by SHELXL-2018/3 at 17:11:03 on 08-Jun-2019
CELL 0.71073 4.0413 11.1833 12.1828 111.489 90.637 97.409
ZERR 1.0000 0.0002 0.0006 0.0007 0.001 0.001 0.001
LATT 1
SFAC C H N CL I
UNIT 18 8 2 4 2
BOND
ACTA
FMAP 2 1 53
PLAN 20 0 0
LIST 4 1
TEMP -23.15
L.S. 16
WGHT    0.016500    0.176200
FVAR       0.51944
I1    5    0.285118    0.290440    0.705866    11.00000    0.02788    0.02253 =
         0.02698    0.00103    0.00269    0.00713
CL1   4    0.591357    0.250816    0.441896    11.00000    0.05701    0.02536 =
         0.03405    0.01376    0.00707    0.00892
N1    3    0.125664    0.545787    0.852201    11.00000    0.04788    0.01942 =
         0.04235    0.00744    0.00922    0.00920
CL2   4    0.781108   -0.002170    0.262450    11.00000    0.05091    0.03125 =
         0.02461    0.00814    0.01262    0.00411
C2    1    0.192397    0.753919    1.009561    11.00000    0.04147    0.02512 =
         0.02998    0.00712    0.00152    0.00787
AFIX  43
H2    2    0.265439    0.804882    1.088392    11.00000   -1.20000
AFIX   0
C3    1    0.222990    0.623281    0.962822    11.00000    0.04273    0.02768 =
         0.03905    0.01405    0.00315    0.01162
AFIX  43
H3    2    0.318094    0.587214    1.012129    11.00000   -1.20000
AFIX   0
C4    1   -0.010608    0.598610    0.783841    11.00000    0.05375    0.02443 =
         0.03012    0.00333    0.00281    0.00339
AFIX  43
H4    2   -0.081342    0.544845    0.705485    11.00000   -1.20000
AFIX   0
C5    1   -0.053817    0.727994    0.821650    11.00000    0.04806    0.02699 =
         0.03157    0.01193    0.00116    0.00531
AFIX  43
H5    2   -0.151839    0.760869    0.770322    11.00000   -1.20000
AFIX   0
C6    1    0.051339    0.808394    0.937556    11.00000    0.03256    0.01949 =
         0.03096    0.00891    0.00832    0.00554
C7    1    0.014871    0.943928    0.981876    11.00000    0.04112    0.02444 =
         0.02911    0.00902    0.00829    0.00845
C8    1    0.411669    0.116616    0.582645    11.00000    0.02266    0.01979 =
         0.02159    0.00135   -0.00171    0.00345
C9    1    0.538657    0.112692    0.475705    11.00000    0.02548    0.02054 =
         0.02432    0.00630   -0.00129    0.00305
C10   1    0.625932   -0.002447    0.393946    11.00000    0.02488    0.02646 =
         0.01866    0.00568    0.00114    0.00281
HKLF 4




REM  eb886250_a.res in P-1
REM wR2 = 0.0349, GooF = S = 1.072, Restrained GooF = 1.072 for all data
REM R1 = 0.0146 for 2191 Fo > 4sig(Fo) and 0.0154 for all 2267 data
REM 118 parameters refined using 0 restraints

END

WGHT      0.0165      0.1762

REM Highest difference peak  0.503,  deepest hole -0.310,  1-sigma level  0.067
Q1    1   0.2711  0.3002  0.6424  11.00000  0.05    0.50
Q2    1   0.1772  0.2242  0.6997  11.00000  0.05    0.33
Q3    1   0.5024  0.3262  0.7172  11.00000  0.05    0.32
Q4    1   0.5803  0.0539  0.4385  11.00000  0.05    0.26
Q5    1  -0.1127  0.6643  0.8181  11.00000  0.05    0.26
Q6    1   0.0869  0.7795  0.9770  11.00000  0.05    0.25
Q7    1   0.0475  0.2626  0.6951  11.00000  0.05    0.25
Q8    1   0.0378  0.7775  0.8823  11.00000  0.05    0.23
Q9    1  -0.2038  0.5435  0.6776  11.00000  0.05    0.23
Q10   1   0.6702 -0.0424  0.4197  11.00000  0.05    0.22
Q11   1   0.2295  0.2477  0.7717  11.00000  0.05    0.21
Q12   1   0.2440  0.6986  0.9746  11.00000  0.05    0.21
Q13   1  -0.3212  0.7317  0.7591  11.00000  0.05    0.20
Q14   1  -0.0168  0.8620  0.9620  11.00000  0.05    0.20
Q15   1   0.6916 -0.0006  0.3440  11.00000  0.05    0.20
Q16   1   0.6030  0.0186  0.2497  11.00000  0.05    0.20
Q17   1   0.4752  0.5987  0.9857  11.00000  0.05    0.20
Q18   1   0.8602  0.2882  0.4585  11.00000  0.05    0.19
Q19   1  -0.2351  0.8994  0.7806  11.00000  0.05    0.19
Q20   1  -0.2084  0.8012  0.7251  11.00000  0.05    0.19
;
_shelx_res_checksum              6850
loop_
_space_group_symop_operation_xyz
'x, y, z'
'-x, -y, -z'
loop_
_atom_site_label
_atom_site_type_symbol
_atom_site_fract_x
_atom_site_fract_y
_atom_site_fract_z
_atom_site_U_iso_or_equiv
_atom_site_adp_type
_atom_site_occupancy
_atom_site_site_symmetry_order
_atom_site_calc_flag
_atom_site_refinement_flags_posn
_atom_site_refinement_flags_adp
I1 I 0.28512(3) 0.29044(2) 0.70587(2) 0.02779(5) Uani 1 1 d . .
Cl1 Cl 0.59136(14) 0.25082(5) 0.44190(4) 0.03771(11) Uani 1 1 d . .
N1 N 0.1257(5) 0.54579(15) 0.85220(16) 0.0372(4) Uani 1 1 d . .
Cl2 Cl 0.78111(13) -0.00217(5) 0.26245(4) 0.03631(11) Uani 1 1 d . .
C2 C 0.1924(5) 0.75392(19) 1.00956(17) 0.0328(4) Uani 1 1 d . .
H2 H 0.265439 0.804882 1.088392 0.039 Uiso 1 1 calc R U
C3 C 0.2230(5) 0.62328(19) 0.96282(19) 0.0354(4) Uani 1 1 d . .
H3 H 0.318094 0.587214 1.012129 0.042 Uiso 1 1 calc R U
C4 C -0.0106(6) 0.59861(19) 0.78384(18) 0.0382(5) Uani 1 1 d . .
H4 H -0.081342 0.544845 0.705485 0.046 Uiso 1 1 calc R U
C5 C -0.0538(5) 0.72799(19) 0.82165(18) 0.0352(4) Uani 1 1 d . .
H5 H -0.151839 0.760869 0.770322 0.042 Uiso 1 1 calc R U
C6 C 0.0513(5) 0.80839(17) 0.93756(16) 0.0276(4) Uani 1 1 d . .
C7 C 0.0149(5) 0.94393(18) 0.98188(17) 0.0314(4) Uani 1 1 d . .
C8 C 0.4117(4) 0.11662(16) 0.58265(15) 0.0231(3) Uani 1 1 d . .
C9 C 0.5387(4) 0.11269(17) 0.47571(15) 0.0241(3) Uani 1 1 d . .
C10 C 0.6259(4) -0.00245(17) 0.39395(15) 0.0242(3) Uani 1 1 d . .
loop_
_atom_site_aniso_label
_atom_site_aniso_U_11
_atom_site_aniso_U_22
_atom_site_aniso_U_33
_atom_site_aniso_U_23
_atom_site_aniso_U_13
_atom_site_aniso_U_12
I1 0.02788(7) 0.02253(7) 0.02698(7) 0.00103(5) 0.00269(4) 0.00713(4)
Cl1 0.0570(3) 0.0254(2) 0.0341(2) 0.01376(19) 0.0071(2) 0.0089(2)
N1 0.0479(10) 0.0194(8) 0.0423(10) 0.0074(7) 0.0092(8) 0.0092(7)
Cl2 0.0509(3) 0.0313(2) 0.0246(2) 0.00814(18) 0.01262(19) 0.0041(2)
C2 0.0415(11) 0.0251(9) 0.0300(10) 0.0071(8) 0.0015(8) 0.0079(8)
C3 0.0427(11) 0.0277(10) 0.0390(11) 0.0140(8) 0.0031(9) 0.0116(8)
C4 0.0537(13) 0.0244(9) 0.0301(10) 0.0033(8) 0.0028(9) 0.0034(9)
C5 0.0481(12) 0.0270(9) 0.0316(10) 0.0119(8) 0.0012(8) 0.0053(8)
C6 0.0326(9) 0.0195(8) 0.0310(9) 0.0089(7) 0.0083(7) 0.0055(7)
C7 0.0411(11) 0.0244(8) 0.0291(9) 0.0090(7) 0.0083(8) 0.0084(8)
C8 0.0227(8) 0.0198(8) 0.0216(8) 0.0013(6) -0.0017(6) 0.0034(6)
C9 0.0255(8) 0.0205(8) 0.0243(8) 0.0063(7) -0.0013(7) 0.0031(6)
C10 0.0249(8) 0.0265(9) 0.0187(8) 0.0057(7) 0.0011(6) 0.0028(7)
loop_
_atom_type_symbol
_atom_type_description
_atom_type_scat_dispersion_real
_atom_type_scat_dispersion_imag
_atom_type_scat_source
C C 0.0033 0.0016 'International Tables Vol C Tables 4.2.6.8 and 6.1.1.4'
H H 0.0000 0.0000 'International Tables Vol C Tables 4.2.6.8 and 6.1.1.4'
N N 0.0061 0.0033 'International Tables Vol C Tables 4.2.6.8 and 6.1.1.4'
Cl Cl 0.1484 0.1585 'International Tables Vol C Tables 4.2.6.8 and 6.1.1.4'
I I -0.4742 1.8119 'International Tables Vol C Tables 4.2.6.8 and 6.1.1.4'
loop_
_geom_angle_atom_site_label_1
_geom_angle_atom_site_label_2
_geom_angle_atom_site_label_3
_geom_angle
_geom_angle_site_symmetry_1
_geom_angle_site_symmetry_3
C3 N1 C4 117.21(17) . .
C3 C2 C6 118.66(18) . .
N1 C3 C2 123.78(18) . .
N1 C4 C5 123.77(19) . .
C4 C5 C6 118.45(18) . .
C2 C6 C5 118.12(17) . .
C2 C6 C7 120.81(17) . .
C5 C6 C7 121.07(17) . .
C7 C7 C6 179.7(3) 2_577 .
C9 C8 C10 118.15(15) . 2_656
C9 C8 I1 120.75(13) . .
C10 C8 I1 121.10(13) 2_656 .
C8 C9 C10 120.93(16) . .
C8 C9 Cl1 120.26(13) . .
C10 C9 Cl1 118.80(13) . .
C8 C10 C9 120.92(16) 2_656 .
C8 C10 Cl2 120.00(13) 2_656 .
C9 C10 Cl2 119.08(14) . .
loop_
_geom_bond_atom_site_label_1
_geom_bond_atom_site_label_2
_geom_bond_distance
_geom_bond_site_symmetry_2
I1 C8 2.1046(16) .
Cl1 C9 1.7275(18) .
N1 C3 1.329(3) .
N1 C4 1.334(3) .
Cl2 C10 1.7277(18) .
C2 C3 1.383(3) .
C2 C6 1.391(3) .
C4 C5 1.384(3) .
C5 C6 1.393(3) .
C6 C7 1.439(2) .
C7 C7 1.190(4) 2_577
C8 C9 1.393(2) .
C8 C10 1.397(2) 2_656
C9 C10 1.400(2) .
